 "x_c",  "y_c",  "u_c",  "v_c",  "exx",  "eyy",  "exy",  "e1",  "e2",  "gamma",  "e_vonmises",  "sigma",  "x",  "y",  "u",  "v"
-700,715,0,0,0,0,0,0,0,0,0,-1,524,309,0,0
-693,715,0,0,0,0,0,0,0,0,0,-1,531,309,0,0
-686,715,0,0,0,0,0,0,0,0,0,-1,538,309,0,0
-679,715,0,0,0,0,0,0,0,0,0,-1,545,309,0,0
-672,715,0,0,0,0,0,0,0,0,0,-1,552,309,0,0
-665,715,0,0,0,0,0,0,0,0,0,-1,559,309,0,0
-658,715,0,0,0,0,0,0,0,0,0,-1,566,309,0,0
-651,715,0,0,0,0,0,0,0,0,0,-1,573,309,0,0
-644,715,0,0,0,0,0,0,0,0,0,-1,580,309,0,0
-637,715,0,0,0,0,0,0,0,0,0,-1,587,309,0,0
-630,715,0,0,0,0,0,0,0,0,0,-1,594,309,0,0
-623,715,0,0,0,0,0,0,0,0,0,-1,601,309,0,0
-616,715,0,0,0,0,0,0,0,0,0,-1,608,309,0,0
-609,715,0,0,0,0,0,0,0,0,0,-1,615,309,0,0
-602,715,0,0,0,0,0,0,0,0,0,-1,622,309,0,0
-595,715,0,0,0,0,0,0,0,0,0,-1,629,309,0,0
-588,715,0,0,0,0,0,0,0,0,0,-1,636,309,0,0
-581,715,0,0,0,0,0,0,0,0,0,-1,643,309,0,0
-574,715,0,0,0,0,0,0,0,0,0,-1,650,309,0,0
-567,715,0,0,0,0,0,0,0,0,0,-1,657,309,0,0
-560,715,0,0,0,0,0,0,0,0,0,-1,664,309,0,0
-553,715,0,0,0,0,0,0,0,0,0,-1,671,309,0,0
-546,715,0,0,0,0,0,0,0,0,0,-1,678,309,0,0
-539,715,0,0,0,0,0,0,0,0,0,-1,685,309,0,0
-532,715,0,0,0,0,0,0,0,0,0,-1,692,309,0,0
-525,715,0,0,0,0,0,0,0,0,0,-1,699,309,0,0
-518,715,0,0,0,0,0,0,0,0,0,-1,706,309,0,0
-511,715,0,0,0,0,0,0,0,0,0,-1,713,309,0,0
-504,715,0,0,0,0,0,0,0,0,0,-1,720,309,0,0
-497,715,0,0,0,0,0,0,0,0,0,-1,727,309,0,0
-490,715,0,0,0,0,0,0,0,0,0,-1,734,309,0,0
-483,715,0,0,0,0,0,0,0,0,0,-1,741,309,0,0
-476,715,0,0,0,0,0,0,0,0,0,-1,748,309,0,0
-469,715,0,0,0,0,0,0,0,0,0,-1,755,309,0,0
-462,715,0,0,0,0,0,0,0,0,0,-1,762,309,0,0
-455,715,0,0,0,0,0,0,0,0,0,-1,769,309,0,0
-448,715,0,0,0,0,0,0,0,0,0,-1,776,309,0,0
-441,715,0,0,0,0,0,0,0,0,0,-1,783,309,0,0
-434,715,0,0,0,0,0,0,0,0,0,-1,790,309,0,0
-427,715,0,0,0,0,0,0,0,0,0,-1,797,309,0,0
-420,715,0,0,0,0,0,0,0,0,0,-1,804,309,0,0
-413,715,0,0,0,0,0,0,0,0,0,-1,811,309,0,0
-406,715,0,0,0,0,0,0,0,0,0,-1,818,309,0,0
-399,715,0,0,0,0,0,0,0,0,0,-1,825,309,0,0
-392,715,0,0,0,0,0,0,0,0,0,-1,832,309,0,0
-385,715,0,0,0,0,0,0,0,0,0,-1,839,309,0,0
-378,715,0,0,0,0,0,0,0,0,0,-1,846,309,0,0
-371,715,0,0,0,0,0,0,0,0,0,-1,853,309,0,0
-364,715,0,0,0,0,0,0,0,0,0,-1,860,309,0,0
-357,715,0,0,0,0,0,0,0,0,0,-1,867,309,0,0
-350,715,0,0,0,0,0,0,0,0,0,-1,874,309,0,0
-343,715,0,0,0,0,0,0,0,0,0,-1,881,309,0,0
-336,715,0,0,0,0,0,0,0,0,0,-1,888,309,0,0
-329,715,0,0,0,0,0,0,0,0,0,-1,895,309,0,0
-322,715,0,0,0,0,0,0,0,0,0,-1,902,309,0,0
-315,715,0,0,0,0,0,0,0,0,0,-1,909,309,0,0
-308,715,0,0,0,0,0,0,0,0,0,-1,916,309,0,0
-301,715,0,0,0,0,0,0,0,0,0,-1,923,309,0,0
-294,715,0,0,0,0,0,0,0,0,0,-1,930,309,0,0
-287,715,0,0,0,0,0,0,0,0,0,-1,937,309,0,0
-280,715,0,0,0,0,0,0,0,0,0,-1,944,309,0,0
-273,715,0,0,0,0,0,0,0,0,0,-1,951,309,0,0
-266,715,0,0,0,0,0,0,0,0,0,-1,958,309,0,0
-259,715,0,0,0,0,0,0,0,0,0,-1,965,309,0,0
-252,715,0,0,0,0,0,0,0,0,0,-1,972,309,0,0
-245,715,0,0,0,0,0,0,0,0,0,-1,979,309,0,0
-238,715,0,0,0,0,0,0,0,0,0,-1,986,309,0,0
-231,715,0,0,0,0,0,0,0,0,0,-1,993,309,0,0
-224,715,0,0,0,0,0,0,0,0,0,-1,1000,309,0,0
-217,715,0,0,0,0,0,0,0,0,0,-1,1007,309,0,0
-210,715,0,0,0,0,0,0,0,0,0,-1,1014,309,0,0
-203,715,0,0,0,0,0,0,0,0,0,-1,1021,309,0,0
-196,715,0,0,0,0,0,0,0,0,0,-1,1028,309,0,0
-189,715,0,0,0,0,0,0,0,0,0,-1,1035,309,0,0
-182,715,0,0,0,0,0,0,0,0,0,-1,1042,309,0,0
-175,715,0,0,0,0,0,0,0,0,0,-1,1049,309,0,0
-168,715,0,0,0,0,0,0,0,0,0,-1,1056,309,0,0
-161,715,0,0,0,0,0,0,0,0,0,-1,1063,309,0,0
-154,715,0,0,0,0,0,0,0,0,0,-1,1070,309,0,0
-147,715,0,0,0,0,0,0,0,0,0,-1,1077,309,0,0
-140,715,0,0,0,0,0,0,0,0,0,-1,1084,309,0,0
-133,715,0,0,0,0,0,0,0,0,0,-1,1091,309,0,0
-126,715,0,0,0,0,0,0,0,0,0,-1,1098,309,0,0
-119,715,0,0,0,0,0,0,0,0,0,-1,1105,309,0,0
-112,715,0,0,0,0,0,0,0,0,0,-1,1112,309,0,0
-105,715,0,0,0,0,0,0,0,0,0,-1,1119,309,0,0
-98,715,0,0,0,0,0,0,0,0,0,-1,1126,309,0,0
-91,715,0,0,0,0,0,0,0,0,0,-1,1133,309,0,0
-84,715,0,0,0,0,0,0,0,0,0,-1,1140,309,0,0
-77,715,0,0,0,0,0,0,0,0,0,-1,1147,309,0,0
-70,715,0,0,0,0,0,0,0,0,0,-1,1154,309,0,0
-63,715,0,0,0,0,0,0,0,0,0,-1,1161,309,0,0
-56,715,0,0,0,0,0,0,0,0,0,-1,1168,309,0,0
-49,715,0,0,0,0,0,0,0,0,0,-1,1175,309,0,0
-42,715,0,0,0,0,0,0,0,0,0,-1,1182,309,0,0
-35,715,0,0,0,0,0,0,0,0,0,-1,1189,309,0,0
-28,715,0,0,0,0,0,0,0,0,0,-1,1196,309,0,0
-21,715,0,0,0,0,0,0,0,0,0,-1,1203,309,0,0
-14,715,0,0,0,0,0,0,0,0,0,-1,1210,309,0,0
-7,715,0,0,0,0,0,0,0,0,0,-1,1217,309,0,0
0,715,0,0,0,0,0,0,0,0,0,-1,1224,309,0,0
7,715,0,0,0,0,0,0,0,0,0,-1,1231,309,0,0
14,715,0,0,0,0,0,0,0,0,0,-1,1238,309,0,0
21,715,0,0,0,0,0,0,0,0,0,-1,1245,309,0,0
28,715,0,0,0,0,0,0,0,0,0,-1,1252,309,0,0
35,715,0,0,0,0,0,0,0,0,0,-1,1259,309,0,0
42,715,0,0,0,0,0,0,0,0,0,-1,1266,309,0,0
49,715,0,0,0,0,0,0,0,0,0,-1,1273,309,0,0
56,715,0,0,0,0,0,0,0,0,0,-1,1280,309,0,0
63,715,3.55176,-24.2508,-0.00942049,0.0255444,0.00773267,0.0271782,-0.0110543,1.36258,0.0227184,0.0429538,1287,309,3.55177,24.2508
70,715,3.57166,-23.4525,0,0,0,0,0,0,0,-1,1294,309,3.5717,23.4525
77,715,0,0,0,0,0,0,0,0,0,-1,1301,309,0,0
84,715,0,0,0,0,0,0,0,0,0,-1,1308,309,0,0
91,715,0,0,0,0,0,0,0,0,0,-1,1315,309,0,0
98,715,0,0,0,0,0,0,0,0,0,-1,1322,309,0,0
105,715,0,0,0,0,0,0,0,0,0,-1,1329,309,0,0
112,715,0,0,0,0,0,0,0,0,0,-1,1336,309,0,0
119,715,0,0,0,0,0,0,0,0,0,-1,1343,309,0,0
126,715,0,0,0,0,0,0,0,0,0,-1,1350,309,0,0
133,715,0,0,0,0,0,0,0,0,0,-1,1357,309,0,0
140,715,0,0,0,0,0,0,0,0,0,-1,1364,309,0,0
147,715,0,0,0,0,0,0,0,0,0,-1,1371,309,0,0
154,715,0,0,0,0,0,0,0,0,0,-1,1378,309,0,0
161,715,0,0,0,0,0,0,0,0,0,-1,1385,309,0,0
168,715,0,0,0,0,0,0,0,0,0,-1,1392,309,0,0
175,715,0,0,0,0,0,0,0,0,0,-1,1399,309,0,0
182,715,0,0,0,0,0,0,0,0,0,-1,1406,309,0,0
189,715,0,0,0,0,0,0,0,0,0,-1,1413,309,0,0
196,715,0,0,0,0,0,0,0,0,0,-1,1420,309,0,0
203,715,0,0,0,0,0,0,0,0,0,-1,1427,309,0,0
210,715,0,0,0,0,0,0,0,0,0,-1,1434,309,0,0
217,715,0,0,0,0,0,0,0,0,0,-1,1441,309,0,0
224,715,0,0,0,0,0,0,0,0,0,-1,1448,309,0,0
231,715,0,0,0,0,0,0,0,0,0,-1,1455,309,0,0
238,715,0,0,0,0,0,0,0,0,0,-1,1462,309,0,0
245,715,0,0,0,0,0,0,0,0,0,-1,1469,309,0,0
252,715,0,0,0,0,0,0,0,0,0,-1,1476,309,0,0
259,715,0,0,0,0,0,0,0,0,0,-1,1483,309,0,0
266,715,0,0,0,0,0,0,0,0,0,-1,1490,309,0,0
273,715,0,0,0,0,0,0,0,0,0,-1,1497,309,0,0
280,715,0,0,0,0,0,0,0,0,0,-1,1504,309,0,0
287,715,0,0,0,0,0,0,0,0,0,-1,1511,309,0,0
294,715,0,0,0,0,0,0,0,0,0,-1,1518,309,0,0
301,715,0,0,0,0,0,0,0,0,0,-1,1525,309,0,0
308,715,0,0,0,0,0,0,0,0,0,-1,1532,309,0,0
315,715,0,0,0,0,0,0,0,0,0,-1,1539,309,0,0
322,715,0,0,0,0,0,0,0,0,0,-1,1546,309,0,0
329,715,0,0,0,0,0,0,0,0,0,-1,1553,309,0,0
336,715,0,0,0,0,0,0,0,0,0,-1,1560,309,0,0
343,715,0,0,0,0,0,0,0,0,0,-1,1567,309,0,0
350,715,0,0,0,0,0,0,0,0,0,-1,1574,309,0,0
357,715,0,0,0,0,0,0,0,0,0,-1,1581,309,0,0
364,715,0,0,0,0,0,0,0,0,0,-1,1588,309,0,0
371,715,0,0,0,0,0,0,0,0,0,-1,1595,309,0,0
378,715,0,0,0,0,0,0,0,0,0,-1,1602,309,0,0
385,715,0,0,0,0,0,0,0,0,0,-1,1609,309,0,0
392,715,0,0,0,0,0,0,0,0,0,-1,1616,309,0,0
399,715,0,0,0,0,0,0,0,0,0,-1,1623,309,0,0
406,715,0,0,0,0,0,0,0,0,0,-1,1630,309,0,0
413,715,0,0,0,0,0,0,0,0,0,-1,1637,309,0,0
420,715,0,0,0,0,0,0,0,0,0,-1,1644,309,0,0
427,715,0,0,0,0,0,0,0,0,0,-1,1651,309,0,0
434,715,0,0,0,0,0,0,0,0,0,-1,1658,309,0,0
441,715,0,0,0,0,0,0,0,0,0,-1,1665,309,0,0
448,715,0,0,0,0,0,0,0,0,0,-1,1672,309,0,0
455,715,0,0,0,0,0,0,0,0,0,-1,1679,309,0,0
462,715,0,0,0,0,0,0,0,0,0,-1,1686,309,0,0
469,715,0,0,0,0,0,0,0,0,0,-1,1693,309,0,0
476,715,0,0,0,0,0,0,0,0,0,-1,1700,309,0,0
483,715,0,0,0,0,0,0,0,0,0,-1,1707,309,0,0
490,715,0,0,0,0,0,0,0,0,0,-1,1714,309,0,0
497,715,0,0,0,0,0,0,0,0,0,-1,1721,309,0,0
504,715,0,0,0,0,0,0,0,0,0,-1,1728,309,0,0
511,715,0,0,0,0,0,0,0,0,0,-1,1735,309,0,0
518,715,0,0,0,0,0,0,0,0,0,-1,1742,309,0,0
525,715,0,0,0,0,0,0,0,0,0,-1,1749,309,0,0
532,715,0,0,0,0,0,0,0,0,0,-1,1756,309,0,0
539,715,0,0,0,0,0,0,0,0,0,-1,1763,309,0,0
546,715,0,0,0,0,0,0,0,0,0,-1,1770,309,0,0
553,715,0,0,0,0,0,0,0,0,0,-1,1777,309,0,0
560,715,0,0,0,0,0,0,0,0,0,-1,1784,309,0,0
567,715,0,0,0,0,0,0,0,0,0,-1,1791,309,0,0
574,715,0,0,0,0,0,0,0,0,0,-1,1798,309,0,0
581,715,0,0,0,0,0,0,0,0,0,-1,1805,309,0,0
588,715,0,0,0,0,0,0,0,0,0,-1,1812,309,0,0
595,715,0,0,0,0,0,0,0,0,0,-1,1819,309,0,0
602,715,0,0,0,0,0,0,0,0,0,-1,1826,309,0,0
609,715,0,0,0,0,0,0,0,0,0,-1,1833,309,0,0
616,715,0,0,0,0,0,0,0,0,0,-1,1840,309,0,0
623,715,0,0,0,0,0,0,0,0,0,-1,1847,309,0,0
630,715,0,0,0,0,0,0,0,0,0,-1,1854,309,0,0
637,715,0,0,0,0,0,0,0,0,0,-1,1861,309,0,0
644,715,0,0,0,0,0,0,0,0,0,-1,1868,309,0,0
651,715,0,0,0,0,0,0,0,0,0,-1,1875,309,0,0
658,715,0,0,0,0,0,0,0,0,0,-1,1882,309,0,0
665,715,0,0,0,0,0,0,0,0,0,-1,1889,309,0,0
672,715,0,0,0,0,0,0,0,0,0,-1,1896,309,0,0
679,715,0,0,0,0,0,0,0,0,0,-1,1903,309,0,0
686,715,0,0,0,0,0,0,0,0,0,-1,1910,309,0,0
693,715,0,0,0,0,0,0,0,0,0,-1,1917,309,0,0
700,715,0,0,0,0,0,0,0,0,0,-1,1924,309,0,0
707,715,0,0,0,0,0,0,0,0,0,-1,1931,309,0,0
714,715,0,0,0,0,0,0,0,0,0,-1,1938,309,0,0
721,715,0,0,0,0,0,0,0,0,0,-1,1945,309,0,0
728,715,0,0,0,0,0,0,0,0,0,-1,1952,309,0,0
735,715,0,0,0,0,0,0,0,0,0,-1,1959,309,0,0
742,715,0,0,0,0,0,0,0,0,0,-1,1966,309,0,0
749,715,0,0,0,0,0,0,0,0,0,-1,1973,309,0,0
756,715,0,0,0,0,0,0,0,0,0,-1,1980,309,0,0
763,715,0,0,0,0,0,0,0,0,0,-1,1987,309,0,0
770,715,0,0,0,0,0,0,0,0,0,-1,1994,309,0,0
777,715,0,0,0,0,0,0,0,0,0,-1,2001,309,0,0
784,715,0,0,0,0,0,0,0,0,0,-1,2008,309,0,0
791,715,0,0,0,0,0,0,0,0,0,-1,2015,309,0,0
798,715,0,0,0,0,0,0,0,0,0,-1,2022,309,0,0
805,715,0,0,0,0,0,0,0,0,0,-1,2029,309,0,0
812,715,0,0,0,0,0,0,0,0,0,-1,2036,309,0,0
-700,708,0,0,0,0,0,0,0,0,0,-1,524,316,0,0
-693,708,0,0,0,0,0,0,0,0,0,-1,531,316,0,0
-686,708,0,0,0,0,0,0,0,0,0,-1,538,316,0,0
-679,708,0,0,0,0,0,0,0,0,0,-1,545,316,0,0
-672,708,0,0,0,0,0,0,0,0,0,-1,552,316,0,0
-665,708,0,0,0,0,0,0,0,0,0,-1,559,316,0,0
-658,708,0,0,0,0,0,0,0,0,0,-1,566,316,0,0
-651,708,0,0,0,0,0,0,0,0,0,-1,573,316,0,0
-644,708,0,0,0,0,0,0,0,0,0,-1,580,316,0,0
-637,708,0,0,0,0,0,0,0,0,0,-1,587,316,0,0
-630,708,0,0,0,0,0,0,0,0,0,-1,594,316,0,0
-623,708,0,0,0,0,0,0,0,0,0,-1,601,316,0,0
-616,708,0,0,0,0,0,0,0,0,0,-1,608,316,0,0
-609,708,0,0,0,0,0,0,0,0,0,-1,615,316,0,0
-602,708,0,0,0,0,0,0,0,0,0,-1,622,316,0,0
-595,708,0,0,0,0,0,0,0,0,0,-1,629,316,0,0
-588,708,0,0,0,0,0,0,0,0,0,-1,636,316,0,0
-581,708,0,0,0,0,0,0,0,0,0,-1,643,316,0,0
-574,708,0,0,0,0,0,0,0,0,0,-1,650,316,0,0
-567,708,0,0,0,0,0,0,0,0,0,-1,657,316,0,0
-560,708,0,0,0,0,0,0,0,0,0,-1,664,316,0,0
-553,708,0,0,0,0,0,0,0,0,0,-1,671,316,0,0
-546,708,0,0,0,0,0,0,0,0,0,-1,678,316,0,0
-539,708,0,0,0,0,0,0,0,0,0,-1,685,316,0,0
-532,708,0,0,0,0,0,0,0,0,0,-1,692,316,0,0
-525,708,0,0,0,0,0,0,0,0,0,-1,699,316,0,0
-518,708,0,0,0,0,0,0,0,0,0,-1,706,316,0,0
-511,708,0,0,0,0,0,0,0,0,0,-1,713,316,0,0
-504,708,0,0,0,0,0,0,0,0,0,-1,720,316,0,0
-497,708,0,0,0,0,0,0,0,0,0,-1,727,316,0,0
-490,708,0,0,0,0,0,0,0,0,0,-1,734,316,0,0
-483,708,0,0,0,0,0,0,0,0,0,-1,741,316,0,0
-476,708,0,0,0,0,0,0,0,0,0,-1,748,316,0,0
-469,708,0,0,0,0,0,0,0,0,0,-1,755,316,0,0
-462,708,0,0,0,0,0,0,0,0,0,-1,762,316,0,0
-455,708,0,0,0,0,0,0,0,0,0,-1,769,316,0,0
-448,708,0,0,0,0,0,0,0,0,0,-1,776,316,0,0
-441,708,0,0,0,0,0,0,0,0,0,-1,783,316,0,0
-434,708,0,0,0,0,0,0,0,0,0,-1,790,316,0,0
-427,708,0,0,0,0,0,0,0,0,0,-1,797,316,0,0
-420,708,0,0,0,0,0,0,0,0,0,-1,804,316,0,0
-413,708,0,0,0,0,0,0,0,0,0,-1,811,316,0,0
-406,708,0,0,0,0,0,0,0,0,0,-1,818,316,0,0
-399,708,0,0,0,0,0,0,0,0,0,-1,825,316,0,0
-392,708,0,0,0,0,0,0,0,0,0,-1,832,316,0,0
-385,708,0,0,0,0,0,0,0,0,0,-1,839,316,0,0
-378,708,0,0,0,0,0,0,0,0,0,-1,846,316,0,0
-371,708,0,0,0,0,0,0,0,0,0,-1,853,316,0,0
-364,708,0,0,0,0,0,0,0,0,0,-1,860,316,0,0
-357,708,0,0,0,0,0,0,0,0,0,-1,867,316,0,0
-350,708,0,0,0,0,0,0,0,0,0,-1,874,316,0,0
-343,708,0,0,0,0,0,0,0,0,0,-1,881,316,0,0
-336,708,0,0,0,0,0,0,0,0,0,-1,888,316,0,0
-329,708,0,0,0,0,0,0,0,0,0,-1,895,316,0,0
-322,708,0,0,0,0,0,0,0,0,0,-1,902,316,0,0
-315,708,0,0,0,0,0,0,0,0,0,-1,909,316,0,0
-308,708,0,0,0,0,0,0,0,0,0,-1,916,316,0,0
-301,708,0,0,0,0,0,0,0,0,0,-1,923,316,0,0
-294,708,0,0,0,0,0,0,0,0,0,-1,930,316,0,0
-287,708,0,0,0,0,0,0,0,0,0,-1,937,316,0,0
-280,708,0,0,0,0,0,0,0,0,0,-1,944,316,0,0
-273,708,0,0,0,0,0,0,0,0,0,-1,951,316,0,0
-266,708,0,0,0,0,0,0,0,0,0,-1,958,316,0,0
-259,708,0,0,0,0,0,0,0,0,0,-1,965,316,0,0
-252,708,0,0,0,0,0,0,0,0,0,-1,972,316,0,0
-245,708,0,0,0,0,0,0,0,0,0,-1,979,316,0,0
-238,708,0,0,0,0,0,0,0,0,0,-1,986,316,0,0
-231,708,0,0,0,0,0,0,0,0,0,-1,993,316,0,0
-224,708,0,0,0,0,0,0,0,0,0,-1,1000,316,0,0
-217,708,0,0,0,0,0,0,0,0,0,-1,1007,316,0,0
-210,708,0,0,0,0,0,0,0,0,0,-1,1014,316,0,0
-203,708,0,0,0,0,0,0,0,0,0,-1,1021,316,0,0
-196,708,0,0,0,0,0,0,0,0,0,-1,1028,316,0,0
-189,708,0,0,0,0,0,0,0,0,0,-1,1035,316,0,0
-182,708,0,0,0,0,0,0,0,0,0,-1,1042,316,0,0
-175,708,0,0,0,0,0,0,0,0,0,-1,1049,316,0,0
-168,708,0,0,0,0,0,0,0,0,0,-1,1056,316,0,0
-161,708,0,0,0,0,0,0,0,0,0,-1,1063,316,0,0
-154,708,0,0,0,0,0,0,0,0,0,-1,1070,316,0,0
-147,708,0,0,0,0,0,0,0,0,0,-1,1077,316,0,0
-140,708,0,0,0,0,0,0,0,0,0,-1,1084,316,0,0
-133,708,0,0,0,0,0,0,0,0,0,-1,1091,316,0,0
-126,708,0,0,0,0,0,0,0,0,0,-1,1098,316,0,0
-119,708,0,0,0,0,0,0,0,0,0,-1,1105,316,0,0
-112,708,0,0,0,0,0,0,0,0,0,-1,1112,316,0,0
-105,708,0,0,0,0,0,0,0,0,0,-1,1119,316,0,0
-98,708,0,0,0,0,0,0,0,0,0,-1,1126,316,0,0
-91,708,0,0,0,0,0,0,0,0,0,-1,1133,316,0,0
-84,708,0,0,0,0,0,0,0,0,0,-1,1140,316,0,0
-77,708,0,0,0,0,0,0,0,0,0,-1,1147,316,0,0
-70,708,0,0,0,0,0,0,0,0,0,-1,1154,316,0,0
-63,708,0,0,0,0,0,0,0,0,0,-1,1161,316,0,0
-56,708,0,0,0,0,0,0,0,0,0,-1,1168,316,0,0
-49,708,0,0,0,0,0,0,0,0,0,-1,1175,316,0,0
-42,708,0,0,0,0,0,0,0,0,0,-1,1182,316,0,0
-35,708,-2.71204,-6.31558,0,0,0,0,0,0,0,-1,1189,316,-2.712,6.3156
-28,708,-2.92371,-5.53253,0,0,0,0,0,0,0,-1,1196,316,-2.92375,5.53254
-21,708,-19.7781,-6.86209,0,0,0,0,0,0,0,-1,1203,316,-19.7781,6.86209
-14,708,3.70471,-27.9145,0,0,0,0,0,0,0,-1,1210,316,3.70469,27.9145
-7,708,4.62903,-22.3121,0,0,0,0,0,0,0,-1,1217,316,4.62903,22.3121
0,708,4.93555,-27.4483,0,0,0,0,0,0,0,-1,1224,316,4.93549,27.4483
7,708,5.48254,-23.0247,0,0,0,0,0,0,0,-1,1231,316,5.48253,23.0247
14,708,5.57715,-23.244,0.00229708,0.117752,0.0307064,0.12541,-0.0053616,1.32637,0.0854502,0.0457173,1238,316,5.57715,23.244
21,708,5.78821,-22.9301,-0.00235914,0.101135,0.02993,0.109167,-0.0103913,1.30861,0.0764776,0.0455548,1245,316,5.78817,22.9301
28,708,6.08423,-22.493,-0.00519257,0.0854654,0.0272635,0.0930327,-0.0127598,1.30005,0.0666833,0.0448243,1252,316,6.08428,22.493
35,708,3.33081,-23.7711,0,0,0,0,0,0,0,-1,1259,316,3.33078,23.7711
42,708,4.07263,-26.4901,0,0,0,0,0,0,0,-1,1266,316,4.07262,26.4901
49,708,4.13391,-25.5903,-0.00756259,0.0449208,0.0151155,0.0489629,-0.0116046,1.3095,0.0371198,0.0441357,1273,316,4.13387,25.5903
56,708,4.0249,-24.9464,-0.00868179,0.0378486,0.00986971,0.0398555,-0.0106887,1.37019,0.0307586,0.044209,1280,316,4.02492,24.9464
63,708,3.90283,-24.4058,-0.0088869,0.0331539,0.0050647,0.0337554,-0.00948844,1.45258,0.0262445,0.0424222,1287,316,3.90285,24.4058
70,708,3.3678,-23.5732,0,0,0,0,0,0,0,-1,1294,316,3.36779,23.5732
77,708,3.36951,-23.6186,0,0,0,0,0,0,0,-1,1301,316,3.36947,23.6186
84,708,3.37109,-23.664,0,0,0,0,0,0,0,-1,1308,316,3.37115,23.664
91,708,3.90479,-24.2031,0,0,0,0,0,0,0,-1,1315,316,3.90477,24.2031
98,708,4.49841,-24.4477,0,0,0,0,0,0,0,-1,1322,316,4.49847,24.4477
105,708,3.31982,-23.9167,0,0,0,0,0,0,0,-1,1329,316,3.31979,23.9167
112,708,2.18201,-22.2744,0,0,0,0,0,0,0,-1,1336,316,2.18205,22.2744
119,708,2.11658,-22.722,-0.0123657,0.0659486,-0.0615964,0.0997805,-0.0461976,-1.06853,0.0861522,0.0457576,1343,316,2.11654,22.7219
126,708,2.08484,-23.1616,-0.0119954,0.0638535,-0.0671373,0.103037,-0.0511792,-1.0425,0.0906994,0.0470058,1350,316,2.08483,23.1616
133,708,2.20349,-23.6209,0,0,0,0,0,0,0,-1,1357,316,2.20353,23.6209
140,708,0.941162,-28.4467,0,0,0,0,0,0,0,-1,1364,316,0.941109,28.4467
147,708,3.45813,-27.7368,0,0,0,0,0,0,0,-1,1371,316,3.45809,27.7368
154,708,0,0,0,0,0,0,0,0,0,-1,1378,316,0,0
161,708,0,0,0,0,0,0,0,0,0,-1,1385,316,0,0
168,708,0,0,0,0,0,0,0,0,0,-1,1392,316,0,0
175,708,0,0,0,0,0,0,0,0,0,-1,1399,316,0,0
182,708,0,0,0,0,0,0,0,0,0,-1,1406,316,0,0
189,708,0,0,0,0,0,0,0,0,0,-1,1413,316,0,0
196,708,0,0,0,0,0,0,0,0,0,-1,1420,316,0,0
203,708,0,0,0,0,0,0,0,0,0,-1,1427,316,0,0
210,708,0,0,0,0,0,0,0,0,0,-1,1434,316,0,0
217,708,0,0,0,0,0,0,0,0,0,-1,1441,316,0,0
224,708,0,0,0,0,0,0,0,0,0,-1,1448,316,0,0
231,708,0,0,0,0,0,0,0,0,0,-1,1455,316,0,0
238,708,0,0,0,0,0,0,0,0,0,-1,1462,316,0,0
245,708,0,0,0,0,0,0,0,0,0,-1,1469,316,0,0
252,708,0,0,0,0,0,0,0,0,0,-1,1476,316,0,0
259,708,0,0,0,0,0,0,0,0,0,-1,1483,316,0,0
266,708,0,0,0,0,0,0,0,0,0,-1,1490,316,0,0
273,708,0,0,0,0,0,0,0,0,0,-1,1497,316,0,0
280,708,0,0,0,0,0,0,0,0,0,-1,1504,316,0,0
287,708,0,0,0,0,0,0,0,0,0,-1,1511,316,0,0
294,708,0,0,0,0,0,0,0,0,0,-1,1518,316,0,0
301,708,0,0,0,0,0,0,0,0,0,-1,1525,316,0,0
308,708,0,0,0,0,0,0,0,0,0,-1,1532,316,0,0
315,708,0,0,0,0,0,0,0,0,0,-1,1539,316,0,0
322,708,0,0,0,0,0,0,0,0,0,-1,1546,316,0,0
329,708,0,0,0,0,0,0,0,0,0,-1,1553,316,0,0
336,708,0,0,0,0,0,0,0,0,0,-1,1560,316,0,0
343,708,0,0,0,0,0,0,0,0,0,-1,1567,316,0,0
350,708,0,0,0,0,0,0,0,0,0,-1,1574,316,0,0
357,708,0,0,0,0,0,0,0,0,0,-1,1581,316,0,0
364,708,0,0,0,0,0,0,0,0,0,-1,1588,316,0,0
371,708,0,0,0,0,0,0,0,0,0,-1,1595,316,0,0
378,708,0,0,0,0,0,0,0,0,0,-1,1602,316,0,0
385,708,0,0,0,0,0,0,0,0,0,-1,1609,316,0,0
392,708,0,0,0,0,0,0,0,0,0,-1,1616,316,0,0
399,708,0,0,0,0,0,0,0,0,0,-1,1623,316,0,0
406,708,0,0,0,0,0,0,0,0,0,-1,1630,316,0,0
413,708,0,0,0,0,0,0,0,0,0,-1,1637,316,0,0
420,708,0,0,0,0,0,0,0,0,0,-1,1644,316,0,0
427,708,0,0,0,0,0,0,0,0,0,-1,1651,316,0,0
434,708,0,0,0,0,0,0,0,0,0,-1,1658,316,0,0
441,708,0,0,0,0,0,0,0,0,0,-1,1665,316,0,0
448,708,0,0,0,0,0,0,0,0,0,-1,1672,316,0,0
455,708,0,0,0,0,0,0,0,0,0,-1,1679,316,0,0
462,708,0,0,0,0,0,0,0,0,0,-1,1686,316,0,0
469,708,0,0,0,0,0,0,0,0,0,-1,1693,316,0,0
476,708,0,0,0,0,0,0,0,0,0,-1,1700,316,0,0
483,708,0,0,0,0,0,0,0,0,0,-1,1707,316,0,0
490,708,0,0,0,0,0,0,0,0,0,-1,1714,316,0,0
497,708,0,0,0,0,0,0,0,0,0,-1,1721,316,0,0
504,708,0,0,0,0,0,0,0,0,0,-1,1728,316,0,0
511,708,0,0,0,0,0,0,0,0,0,-1,1735,316,0,0
518,708,0,0,0,0,0,0,0,0,0,-1,1742,316,0,0
525,708,0,0,0,0,0,0,0,0,0,-1,1749,316,0,0
532,708,0,0,0,0,0,0,0,0,0,-1,1756,316,0,0
539,708,0,0,0,0,0,0,0,0,0,-1,1763,316,0,0
546,708,0,0,0,0,0,0,0,0,0,-1,1770,316,0,0
553,708,0,0,0,0,0,0,0,0,0,-1,1777,316,0,0
560,708,0,0,0,0,0,0,0,0,0,-1,1784,316,0,0
567,708,0,0,0,0,0,0,0,0,0,-1,1791,316,0,0
574,708,0,0,0,0,0,0,0,0,0,-1,1798,316,0,0
581,708,0,0,0,0,0,0,0,0,0,-1,1805,316,0,0
588,708,0,0,0,0,0,0,0,0,0,-1,1812,316,0,0
595,708,0,0,0,0,0,0,0,0,0,-1,1819,316,0,0
602,708,0,0,0,0,0,0,0,0,0,-1,1826,316,0,0
609,708,0,0,0,0,0,0,0,0,0,-1,1833,316,0,0
616,708,0,0,0,0,0,0,0,0,0,-1,1840,316,0,0
623,708,0,0,0,0,0,0,0,0,0,-1,1847,316,0,0
630,708,0,0,0,0,0,0,0,0,0,-1,1854,316,0,0
637,708,0,0,0,0,0,0,0,0,0,-1,1861,316,0,0
644,708,0,0,0,0,0,0,0,0,0,-1,1868,316,0,0
651,708,0,0,0,0,0,0,0,0,0,-1,1875,316,0,0
658,708,0,0,0,0,0,0,0,0,0,-1,1882,316,0,0
665,708,0,0,0,0,0,0,0,0,0,-1,1889,316,0,0
672,708,0,0,0,0,0,0,0,0,0,-1,1896,316,0,0
679,708,0,0,0,0,0,0,0,0,0,-1,1903,316,0,0
686,708,0,0,0,0,0,0,0,0,0,-1,1910,316,0,0
693,708,0,0,0,0,0,0,0,0,0,-1,1917,316,0,0
700,708,0,0,0,0,0,0,0,0,0,-1,1924,316,0,0
707,708,0,0,0,0,0,0,0,0,0,-1,1931,316,0,0
714,708,0,0,0,0,0,0,0,0,0,-1,1938,316,0,0
721,708,0,0,0,0,0,0,0,0,0,-1,1945,316,0,0
728,708,0,0,0,0,0,0,0,0,0,-1,1952,316,0,0
735,708,0,0,0,0,0,0,0,0,0,-1,1959,316,0,0
742,708,0,0,0,0,0,0,0,0,0,-1,1966,316,0,0
749,708,0,0,0,0,0,0,0,0,0,-1,1973,316,0,0
756,708,0,0,0,0,0,0,0,0,0,-1,1980,316,0,0
763,708,0,0,0,0,0,0,0,0,0,-1,1987,316,0,0
770,708,0,0,0,0,0,0,0,0,0,-1,1994,316,0,0
777,708,0,0,0,0,0,0,0,0,0,-1,2001,316,0,0
784,708,0,0,0,0,0,0,0,0,0,-1,2008,316,0,0
791,708,0,0,0,0,0,0,0,0,0,-1,2015,316,0,0
798,708,0,0,0,0,0,0,0,0,0,-1,2022,316,0,0
805,708,0,0,0,0,0,0,0,0,0,-1,2029,316,0,0
812,708,0,0,0,0,0,0,0,0,0,-1,2036,316,0,0
-700,701,0,0,0,0,0,0,0,0,0,-1,524,323,0,0
-693,701,0,0,0,0,0,0,0,0,0,-1,531,323,0,0
-686,701,0,0,0,0,0,0,0,0,0,-1,538,323,0,0
-679,701,0,0,0,0,0,0,0,0,0,-1,545,323,0,0
-672,701,0,0,0,0,0,0,0,0,0,-1,552,323,0,0
-665,701,0,0,0,0,0,0,0,0,0,-1,559,323,0,0
-658,701,0,0,0,0,0,0,0,0,0,-1,566,323,0,0
-651,701,0,0,0,0,0,0,0,0,0,-1,573,323,0,0
-644,701,0,0,0,0,0,0,0,0,0,-1,580,323,0,0
-637,701,0,0,0,0,0,0,0,0,0,-1,587,323,0,0
-630,701,0,0,0,0,0,0,0,0,0,-1,594,323,0,0
-623,701,0,0,0,0,0,0,0,0,0,-1,601,323,0,0
-616,701,0,0,0,0,0,0,0,0,0,-1,608,323,0,0
-609,701,0,0,0,0,0,0,0,0,0,-1,615,323,0,0
-602,701,0,0,0,0,0,0,0,0,0,-1,622,323,0,0
-595,701,0,0,0,0,0,0,0,0,0,-1,629,323,0,0
-588,701,0,0,0,0,0,0,0,0,0,-1,636,323,0,0
-581,701,0,0,0,0,0,0,0,0,0,-1,643,323,0,0
-574,701,0,0,0,0,0,0,0,0,0,-1,650,323,0,0
-567,701,0,0,0,0,0,0,0,0,0,-1,657,323,0,0
-560,701,0,0,0,0,0,0,0,0,0,-1,664,323,0,0
-553,701,0,0,0,0,0,0,0,0,0,-1,671,323,0,0
-546,701,0,0,0,0,0,0,0,0,0,-1,678,323,0,0
-539,701,0,0,0,0,0,0,0,0,0,-1,685,323,0,0
-532,701,0,0,0,0,0,0,0,0,0,-1,692,323,0,0
-525,701,0,0,0,0,0,0,0,0,0,-1,699,323,0,0
-518,701,0,0,0,0,0,0,0,0,0,-1,706,323,0,0
-511,701,0,0,0,0,0,0,0,0,0,-1,713,323,0,0
-504,701,0,0,0,0,0,0,0,0,0,-1,720,323,0,0
-497,701,0,0,0,0,0,0,0,0,0,-1,727,323,0,0
-490,701,0,0,0,0,0,0,0,0,0,-1,734,323,0,0
-483,701,0,0,0,0,0,0,0,0,0,-1,741,323,0,0
-476,701,0,0,0,0,0,0,0,0,0,-1,748,323,0,0
-469,701,0,0,0,0,0,0,0,0,0,-1,755,323,0,0
-462,701,0,0,0,0,0,0,0,0,0,-1,762,323,0,0
-455,701,0,0,0,0,0,0,0,0,0,-1,769,323,0,0
-448,701,0,0,0,0,0,0,0,0,0,-1,776,323,0,0
-441,701,0,0,0,0,0,0,0,0,0,-1,783,323,0,0
-434,701,0,0,0,0,0,0,0,0,0,-1,790,323,0,0
-427,701,0,0,0,0,0,0,0,0,0,-1,797,323,0,0
-420,701,0,0,0,0,0,0,0,0,0,-1,804,323,0,0
-413,701,0,0,0,0,0,0,0,0,0,-1,811,323,0,0
-406,701,0,0,0,0,0,0,0,0,0,-1,818,323,0,0
-399,701,0,0,0,0,0,0,0,0,0,-1,825,323,0,0
-392,701,0,0,0,0,0,0,0,0,0,-1,832,323,0,0
-385,701,0,0,0,0,0,0,0,0,0,-1,839,323,0,0
-378,701,0,0,0,0,0,0,0,0,0,-1,846,323,0,0
-371,701,0,0,0,0,0,0,0,0,0,-1,853,323,0,0
-364,701,0,0,0,0,0,0,0,0,0,-1,860,323,0,0
-357,701,0,0,0,0,0,0,0,0,0,-1,867,323,0,0
-350,701,0,0,0,0,0,0,0,0,0,-1,874,323,0,0
-343,701,0,0,0,0,0,0,0,0,0,-1,881,323,0,0
-336,701,0,0,0,0,0,0,0,0,0,-1,888,323,0,0
-329,701,0,0,0,0,0,0,0,0,0,-1,895,323,0,0
-322,701,0,0,0,0,0,0,0,0,0,-1,902,323,0,0
-315,701,0,0,0,0,0,0,0,0,0,-1,909,323,0,0
-308,701,0,0,0,0,0,0,0,0,0,-1,916,323,0,0
-301,701,0,0,0,0,0,0,0,0,0,-1,923,323,0,0
-294,701,0,0,0,0,0,0,0,0,0,-1,930,323,0,0
-287,701,0,0,0,0,0,0,0,0,0,-1,937,323,0,0
-280,701,0,0,0,0,0,0,0,0,0,-1,944,323,0,0
-273,701,0,0,0,0,0,0,0,0,0,-1,951,323,0,0
-266,701,0,0,0,0,0,0,0,0,0,-1,958,323,0,0
-259,701,0,0,0,0,0,0,0,0,0,-1,965,323,0,0
-252,701,0,0,0,0,0,0,0,0,0,-1,972,323,0,0
-245,701,0,0,0,0,0,0,0,0,0,-1,979,323,0,0
-238,701,0,0,0,0,0,0,0,0,0,-1,986,323,0,0
-231,701,0,0,0,0,0,0,0,0,0,-1,993,323,0,0
-224,701,0,0,0,0,0,0,0,0,0,-1,1000,323,0,0
-217,701,0,0,0,0,0,0,0,0,0,-1,1007,323,0,0
-210,701,0,0,0,0,0,0,0,0,0,-1,1014,323,0,0
-203,701,0,0,0,0,0,0,0,0,0,-1,1021,323,0,0
-196,701,0,0,0,0,0,0,0,0,0,-1,1028,323,0,0
-189,701,0,0,0,0,0,0,0,0,0,-1,1035,323,0,0
-182,701,0,0,0,0,0,0,0,0,0,-1,1042,323,0,0
-175,701,0,0,0,0,0,0,0,0,0,-1,1049,323,0,0
-168,701,0,0,0,0,0,0,0,0,0,-1,1056,323,0,0
-161,701,0,0,0,0,0,0,0,0,0,-1,1063,323,0,0
-154,701,0,0,0,0,0,0,0,0,0,-1,1070,323,0,0
-147,701,0,0,0,0,0,0,0,0,0,-1,1077,323,0,0
-140,701,0,0,0,0,0,0,0,0,0,-1,1084,323,0,0
-133,701,0,0,0,0,0,0,0,0,0,-1,1091,323,0,0
-126,701,0,0,0,0,0,0,0,0,0,-1,1098,323,0,0
-119,701,0,0,0,0,0,0,0,0,0,-1,1105,323,0,0
-112,701,0,0,0,0,0,0,0,0,0,-1,1112,323,0,0
-105,701,0,0,0,0,0,0,0,0,0,-1,1119,323,0,0
-98,701,0,0,0,0,0,0,0,0,0,-1,1126,323,0,0
-91,701,0,0,0,0,0,0,0,0,0,-1,1133,323,0,0
-84,701,0,0,0,0,0,0,0,0,0,-1,1140,323,0,0
-77,701,0,0,0,0,0,0,0,0,0,-1,1147,323,0,0
-70,701,-11.5446,-19.509,0,0,0,0,0,0,0,-1,1154,323,-11.5445,19.509
-63,701,-17.0184,-14.0584,0,0,0,0,0,0,0,-1,1161,323,-17.0185,14.0584
-56,701,-0.420166,-0.101776,0,0,0,0,0,0,0,-1,1168,323,-0.420119,0.101777
-49,701,-1.09021,-0.155762,0,0,0,0,0,0,0,-1,1175,323,-1.09024,0.155768
-42,701,-0.210327,-0.299133,0,0,0,0,0,0,0,-1,1182,323,-0.210379,0.29914
-35,701,-2.9635,-7.98676,0,0,0,0,0,0,0,-1,1189,323,-2.9635,7.98676
-28,701,-6.64417,-5.4917,0,0,0,0,0,0,0,-1,1196,323,-6.64411,5.4917
-21,701,0.563477,-18.3431,0,0,0,0,0,0,0,-1,1203,323,0.5635,18.3431
-14,701,3.53955,-21.7126,0,0,0,0,0,0,0,-1,1210,323,3.5396,21.7125
-7,701,4.24915,-22.2872,0,0,0,0,0,0,0,-1,1217,323,4.24909,22.2872
0,701,4.95129,-23.0316,0,0,0,0,0,0,0,-1,1224,323,4.95126,23.0316
7,701,5.04834,-23.3301,0.0042514,0.115437,0.0188687,0.118552,0.00113655,1.40719,0.0786585,0.0476017,1231,323,5.04836,23.3301
14,701,5.1593,-23.5843,0.000251815,0.101851,0.0194065,0.105432,-0.00332885,1.38834,0.0714232,0.0487561,1238,323,5.15933,23.5843
21,701,5.2489,-23.3573,-0.00307183,0.0889104,0.0191283,0.0927297,-0.00689111,1.37372,0.0642401,0.0487,1245,323,5.24893,23.3573
28,701,3.09412,-24.3745,-0.00491144,0.0767216,0.0174448,0.0802933,-0.00848308,1.36885,0.056569,0.049486,1252,323,3.09416,24.3745
35,701,3.32983,-24.2371,-0.00519592,0.0653662,0.0146989,0.0683057,-0.00813543,1.37342,0.048477,0.046704,1259,323,3.32988,24.2371
42,701,5.14856,-24.2736,0,0,0,0,0,0,0,-1,1266,323,5.14852,24.2736
49,701,4.89905,-24.2599,-0.00657912,0.0447175,0.0101779,0.0466631,-0.00852477,1.38191,0.0343052,0.0442978,1273,323,4.89903,24.2599
56,701,4.56165,-24.4231,-0.00776358,0.0394207,0.0067025,0.0403543,-0.00869719,1.43239,0.030222,0.0427656,1280,323,4.56162,24.4231
63,701,4.23547,-24.4991,-0.00813159,0.0358133,0.00365777,0.0361157,-0.00843396,1.48832,0.0273258,0.0428689,1287,323,4.23552,24.4991
70,701,3.71326,-24.2092,0,0,0,0,0,0,0,-1,1294,323,3.71323,24.2092
77,701,3.53723,-23.9122,-0.00807679,0.0376777,-0.00981805,0.0396955,-0.0100946,-1.3681,0.0303926,0.0430922,1301,323,3.53718,23.9122
84,701,3.69153,-24.2484,-0.00874017,0.0353429,-0.0183234,0.0419645,-0.0153618,-1.22402,0.0342647,0.0420249,1308,323,3.69157,24.2484
91,701,4.26257,-24.6244,0,0,0,0,0,0,0,-1,1315,323,4.26261,24.6244
98,701,4.81213,-24.9047,0,0,0,0,0,0,0,-1,1322,323,4.81213,24.9047
105,701,2.25879,-21.9277,0,0,0,0,0,0,0,-1,1329,323,2.25883,21.9277
112,701,2.25293,-22.581,0,0,0,0,0,0,0,-1,1336,323,2.25294,22.581
119,701,2.49414,-23.0986,-0.0123706,0.0595455,-0.0489912,0.0843585,-0.0371836,-1.10198,0.0719127,0.0466479,1343,323,2.49411,23.0986
126,701,2.43188,-23.5664,-0.0117435,0.0578084,-0.0540204,0.0872786,-0.0412137,-1.07138,0.0757575,0.0484757,1350,323,2.43193,23.5664
133,701,2.12549,-23.9735,-0.0101298,0.0555328,-0.0581598,0.0894881,-0.0440851,-1.04235,0.0785896,0.0489134,1357,323,2.12552,23.9735
140,701,2.19238,-24.4018,0,0,0,0,0,0,0,-1,1364,323,2.19233,24.4018
147,701,3.62793,-26.6125,0,0,0,0,0,0,0,-1,1371,323,3.62794,26.6126
154,701,3.53247,-26.9483,0,0,0,0,0,0,0,-1,1378,323,3.53248,26.9483
161,701,4.03259,-20.648,0,0,0,0,0,0,0,-1,1385,323,4.0326,20.648
168,701,30.7272,1.76184,0,0,0,0,0,0,0,-1,1392,323,30.7272,-1.76184
175,701,31.5035,2.25711,0,0,0,0,0,0,0,-1,1399,323,31.5036,-2.25712
182,701,8.80652,5.42807,0,0,0,0,0,0,0,-1,1406,323,8.8065,-5.42808
189,701,8.58081,4.24493,0,0,0,0,0,0,0,-1,1413,323,8.58082,-4.24494
196,701,0,0,0,0,0,0,0,0,0,-1,1420,323,0,0
203,701,0,0,0,0,0,0,0,0,0,-1,1427,323,0,0
210,701,0,0,0,0,0,0,0,0,0,-1,1434,323,0,0
217,701,0,0,0,0,0,0,0,0,0,-1,1441,323,0,0
224,701,0,0,0,0,0,0,0,0,0,-1,1448,323,0,0
231,701,0,0,0,0,0,0,0,0,0,-1,1455,323,0,0
238,701,0,0,0,0,0,0,0,0,0,-1,1462,323,0,0
245,701,0,0,0,0,0,0,0,0,0,-1,1469,323,0,0
252,701,0,0,0,0,0,0,0,0,0,-1,1476,323,0,0
259,701,0,0,0,0,0,0,0,0,0,-1,1483,323,0,0
266,701,0,0,0,0,0,0,0,0,0,-1,1490,323,0,0
273,701,0,0,0,0,0,0,0,0,0,-1,1497,323,0,0
280,701,0,0,0,0,0,0,0,0,0,-1,1504,323,0,0
287,701,0,0,0,0,0,0,0,0,0,-1,1511,323,0,0
294,701,0,0,0,0,0,0,0,0,0,-1,1518,323,0,0
301,701,0,0,0,0,0,0,0,0,0,-1,1525,323,0,0
308,701,0,0,0,0,0,0,0,0,0,-1,1532,323,0,0
315,701,0,0,0,0,0,0,0,0,0,-1,1539,323,0,0
322,701,0,0,0,0,0,0,0,0,0,-1,1546,323,0,0
329,701,0,0,0,0,0,0,0,0,0,-1,1553,323,0,0
336,701,0,0,0,0,0,0,0,0,0,-1,1560,323,0,0
343,701,0,0,0,0,0,0,0,0,0,-1,1567,323,0,0
350,701,0,0,0,0,0,0,0,0,0,-1,1574,323,0,0
357,701,0,0,0,0,0,0,0,0,0,-1,1581,323,0,0
364,701,0,0,0,0,0,0,0,0,0,-1,1588,323,0,0
371,701,0,0,0,0,0,0,0,0,0,-1,1595,323,0,0
378,701,0,0,0,0,0,0,0,0,0,-1,1602,323,0,0
385,701,0,0,0,0,0,0,0,0,0,-1,1609,323,0,0
392,701,0,0,0,0,0,0,0,0,0,-1,1616,323,0,0
399,701,0,0,0,0,0,0,0,0,0,-1,1623,323,0,0
406,701,0,0,0,0,0,0,0,0,0,-1,1630,323,0,0
413,701,0,0,0,0,0,0,0,0,0,-1,1637,323,0,0
420,701,0,0,0,0,0,0,0,0,0,-1,1644,323,0,0
427,701,0,0,0,0,0,0,0,0,0,-1,1651,323,0,0
434,701,0,0,0,0,0,0,0,0,0,-1,1658,323,0,0
441,701,0,0,0,0,0,0,0,0,0,-1,1665,323,0,0
448,701,0,0,0,0,0,0,0,0,0,-1,1672,323,0,0
455,701,0,0,0,0,0,0,0,0,0,-1,1679,323,0,0
462,701,0,0,0,0,0,0,0,0,0,-1,1686,323,0,0
469,701,0,0,0,0,0,0,0,0,0,-1,1693,323,0,0
476,701,0,0,0,0,0,0,0,0,0,-1,1700,323,0,0
483,701,0,0,0,0,0,0,0,0,0,-1,1707,323,0,0
490,701,0,0,0,0,0,0,0,0,0,-1,1714,323,0,0
497,701,0,0,0,0,0,0,0,0,0,-1,1721,323,0,0
504,701,0,0,0,0,0,0,0,0,0,-1,1728,323,0,0
511,701,0,0,0,0,0,0,0,0,0,-1,1735,323,0,0
518,701,0,0,0,0,0,0,0,0,0,-1,1742,323,0,0
525,701,0,0,0,0,0,0,0,0,0,-1,1749,323,0,0
532,701,0,0,0,0,0,0,0,0,0,-1,1756,323,0,0
539,701,0,0,0,0,0,0,0,0,0,-1,1763,323,0,0
546,701,0,0,0,0,0,0,0,0,0,-1,1770,323,0,0
553,701,0,0,0,0,0,0,0,0,0,-1,1777,323,0,0
560,701,0,0,0,0,0,0,0,0,0,-1,1784,323,0,0
567,701,0,0,0,0,0,0,0,0,0,-1,1791,323,0,0
574,701,0,0,0,0,0,0,0,0,0,-1,1798,323,0,0
581,701,0,0,0,0,0,0,0,0,0,-1,1805,323,0,0
588,701,0,0,0,0,0,0,0,0,0,-1,1812,323,0,0
595,701,0,0,0,0,0,0,0,0,0,-1,1819,323,0,0
602,701,0,0,0,0,0,0,0,0,0,-1,1826,323,0,0
609,701,0,0,0,0,0,0,0,0,0,-1,1833,323,0,0
616,701,0,0,0,0,0,0,0,0,0,-1,1840,323,0,0
623,701,0,0,0,0,0,0,0,0,0,-1,1847,323,0,0
630,701,0,0,0,0,0,0,0,0,0,-1,1854,323,0,0
637,701,0,0,0,0,0,0,0,0,0,-1,1861,323,0,0
644,701,0,0,0,0,0,0,0,0,0,-1,1868,323,0,0
651,701,0,0,0,0,0,0,0,0,0,-1,1875,323,0,0
658,701,0,0,0,0,0,0,0,0,0,-1,1882,323,0,0
665,701,0,0,0,0,0,0,0,0,0,-1,1889,323,0,0
672,701,0,0,0,0,0,0,0,0,0,-1,1896,323,0,0
679,701,0,0,0,0,0,0,0,0,0,-1,1903,323,0,0
686,701,0,0,0,0,0,0,0,0,0,-1,1910,323,0,0
693,701,0,0,0,0,0,0,0,0,0,-1,1917,323,0,0
700,701,0,0,0,0,0,0,0,0,0,-1,1924,323,0,0
707,701,0,0,0,0,0,0,0,0,0,-1,1931,323,0,0
714,701,0,0,0,0,0,0,0,0,0,-1,1938,323,0,0
721,701,0,0,0,0,0,0,0,0,0,-1,1945,323,0,0
728,701,0,0,0,0,0,0,0,0,0,-1,1952,323,0,0
735,701,0,0,0,0,0,0,0,0,0,-1,1959,323,0,0
742,701,0,0,0,0,0,0,0,0,0,-1,1966,323,0,0
749,701,0,0,0,0,0,0,0,0,0,-1,1973,323,0,0
756,701,0,0,0,0,0,0,0,0,0,-1,1980,323,0,0
763,701,0,0,0,0,0,0,0,0,0,-1,1987,323,0,0
770,701,0,0,0,0,0,0,0,0,0,-1,1994,323,0,0
777,701,0,0,0,0,0,0,0,0,0,-1,2001,323,0,0
784,701,0,0,0,0,0,0,0,0,0,-1,2008,323,0,0
791,701,0,0,0,0,0,0,0,0,0,-1,2015,323,0,0
798,701,0,0,0,0,0,0,0,0,0,-1,2022,323,0,0
805,701,0,0,0,0,0,0,0,0,0,-1,2029,323,0,0
812,701,0,0,0,0,0,0,0,0,0,-1,2036,323,0,0
-700,694,0,0,0,0,0,0,0,0,0,-1,524,330,0,0
-693,694,0,0,0,0,0,0,0,0,0,-1,531,330,0,0
-686,694,0,0,0,0,0,0,0,0,0,-1,538,330,0,0
-679,694,0,0,0,0,0,0,0,0,0,-1,545,330,0,0
-672,694,0,0,0,0,0,0,0,0,0,-1,552,330,0,0
-665,694,0,0,0,0,0,0,0,0,0,-1,559,330,0,0
-658,694,0,0,0,0,0,0,0,0,0,-1,566,330,0,0
-651,694,0,0,0,0,0,0,0,0,0,-1,573,330,0,0
-644,694,0,0,0,0,0,0,0,0,0,-1,580,330,0,0
-637,694,0,0,0,0,0,0,0,0,0,-1,587,330,0,0
-630,694,0,0,0,0,0,0,0,0,0,-1,594,330,0,0
-623,694,0,0,0,0,0,0,0,0,0,-1,601,330,0,0
-616,694,0,0,0,0,0,0,0,0,0,-1,608,330,0,0
-609,694,0,0,0,0,0,0,0,0,0,-1,615,330,0,0
-602,694,0,0,0,0,0,0,0,0,0,-1,622,330,0,0
-595,694,0,0,0,0,0,0,0,0,0,-1,629,330,0,0
-588,694,0,0,0,0,0,0,0,0,0,-1,636,330,0,0
-581,694,0,0,0,0,0,0,0,0,0,-1,643,330,0,0
-574,694,0,0,0,0,0,0,0,0,0,-1,650,330,0,0
-567,694,0,0,0,0,0,0,0,0,0,-1,657,330,0,0
-560,694,0,0,0,0,0,0,0,0,0,-1,664,330,0,0
-553,694,0,0,0,0,0,0,0,0,0,-1,671,330,0,0
-546,694,0,0,0,0,0,0,0,0,0,-1,678,330,0,0
-539,694,0,0,0,0,0,0,0,0,0,-1,685,330,0,0
-532,694,0,0,0,0,0,0,0,0,0,-1,692,330,0,0
-525,694,0,0,0,0,0,0,0,0,0,-1,699,330,0,0
-518,694,0,0,0,0,0,0,0,0,0,-1,706,330,0,0
-511,694,0,0,0,0,0,0,0,0,0,-1,713,330,0,0
-504,694,0,0,0,0,0,0,0,0,0,-1,720,330,0,0
-497,694,0,0,0,0,0,0,0,0,0,-1,727,330,0,0
-490,694,0,0,0,0,0,0,0,0,0,-1,734,330,0,0
-483,694,0,0,0,0,0,0,0,0,0,-1,741,330,0,0
-476,694,0,0,0,0,0,0,0,0,0,-1,748,330,0,0
-469,694,0,0,0,0,0,0,0,0,0,-1,755,330,0,0
-462,694,0,0,0,0,0,0,0,0,0,-1,762,330,0,0
-455,694,0,0,0,0,0,0,0,0,0,-1,769,330,0,0
-448,694,0,0,0,0,0,0,0,0,0,-1,776,330,0,0
-441,694,0,0,0,0,0,0,0,0,0,-1,783,330,0,0
-434,694,0,0,0,0,0,0,0,0,0,-1,790,330,0,0
-427,694,0,0,0,0,0,0,0,0,0,-1,797,330,0,0
-420,694,0,0,0,0,0,0,0,0,0,-1,804,330,0,0
-413,694,0,0,0,0,0,0,0,0,0,-1,811,330,0,0
-406,694,0,0,0,0,0,0,0,0,0,-1,818,330,0,0
-399,694,0,0,0,0,0,0,0,0,0,-1,825,330,0,0
-392,694,0,0,0,0,0,0,0,0,0,-1,832,330,0,0
-385,694,0,0,0,0,0,0,0,0,0,-1,839,330,0,0
-378,694,0,0,0,0,0,0,0,0,0,-1,846,330,0,0
-371,694,0,0,0,0,0,0,0,0,0,-1,853,330,0,0
-364,694,0,0,0,0,0,0,0,0,0,-1,860,330,0,0
-357,694,0,0,0,0,0,0,0,0,0,-1,867,330,0,0
-350,694,0,0,0,0,0,0,0,0,0,-1,874,330,0,0
-343,694,0,0,0,0,0,0,0,0,0,-1,881,330,0,0
-336,694,0,0,0,0,0,0,0,0,0,-1,888,330,0,0
-329,694,0,0,0,0,0,0,0,0,0,-1,895,330,0,0
-322,694,0,0,0,0,0,0,0,0,0,-1,902,330,0,0
-315,694,0,0,0,0,0,0,0,0,0,-1,909,330,0,0
-308,694,0,0,0,0,0,0,0,0,0,-1,916,330,0,0
-301,694,0,0,0,0,0,0,0,0,0,-1,923,330,0,0
-294,694,0,0,0,0,0,0,0,0,0,-1,930,330,0,0
-287,694,0,0,0,0,0,0,0,0,0,-1,937,330,0,0
-280,694,0,0,0,0,0,0,0,0,0,-1,944,330,0,0
-273,694,0,0,0,0,0,0,0,0,0,-1,951,330,0,0
-266,694,0,0,0,0,0,0,0,0,0,-1,958,330,0,0
-259,694,0,0,0,0,0,0,0,0,0,-1,965,330,0,0
-252,694,0,0,0,0,0,0,0,0,0,-1,972,330,0,0
-245,694,0,0,0,0,0,0,0,0,0,-1,979,330,0,0
-238,694,0,0,0,0,0,0,0,0,0,-1,986,330,0,0
-231,694,0,0,0,0,0,0,0,0,0,-1,993,330,0,0
-224,694,0,0,0,0,0,0,0,0,0,-1,1000,330,0,0
-217,694,0,0,0,0,0,0,0,0,0,-1,1007,330,0,0
-210,694,0,0,0,0,0,0,0,0,0,-1,1014,330,0,0
-203,694,0,0,0,0,0,0,0,0,0,-1,1021,330,0,0
-196,694,0,0,0,0,0,0,0,0,0,-1,1028,330,0,0
-189,694,0,0,0,0,0,0,0,0,0,-1,1035,330,0,0
-182,694,0,0,0,0,0,0,0,0,0,-1,1042,330,0,0
-175,694,0,0,0,0,0,0,0,0,0,-1,1049,330,0,0
-168,694,0,0,0,0,0,0,0,0,0,-1,1056,330,0,0
-161,694,0,0,0,0,0,0,0,0,0,-1,1063,330,0,0
-154,694,0,0,0,0,0,0,0,0,0,-1,1070,330,0,0
-147,694,0,0,0,0,0,0,0,0,0,-1,1077,330,0,0
-140,694,0,0,0,0,0,0,0,0,0,-1,1084,330,0,0
-133,694,0,0,0,0,0,0,0,0,0,-1,1091,330,0,0
-126,694,0,0,0,0,0,0,0,0,0,-1,1098,330,0,0
-119,694,0,0,0,0,0,0,0,0,0,-1,1105,330,0,0
-112,694,0,0,0,0,0,0,0,0,0,-1,1112,330,0,0
-105,694,2.5188,-19.3963,0,0,0,0,0,0,0,-1,1119,330,2.51882,19.3963
-98,694,1.34875,-10.1051,0,0,0,0,0,0,0,-1,1126,330,1.34874,10.1051
-91,694,6.86755,-33.359,0,0,0,0,0,0,0,-1,1133,330,6.86759,33.359
-84,694,1.17896,-28.0219,0,0,0,0,0,0,0,-1,1140,330,1.17896,28.0219
-77,694,-4.61255,-22.77,0,0,0,0,0,0,0,-1,1147,330,-4.61256,22.77
-70,694,-10.2438,-17.4885,0,0,0,0,0,0,0,-1,1154,330,-10.2437,17.4885
-63,694,-15.7178,-11.9616,0,0,0,0,0,0,0,-1,1161,330,-15.7178,11.9616
-56,694,-6.50623,-0.649139,0,0,0,0,0,0,0,-1,1168,330,-6.5062,0.649126
-49,694,-1.11426,0.0341797,0,0,0,0,0,0,0,-1,1175,330,-1.11424,-0.0341846
-42,694,-0.346313,-0.709595,0,0,0,0,0,0,0,-1,1182,330,-0.346298,0.709581
-35,694,-0.459106,-1.24713,0,0,0,0,0,0,0,-1,1189,330,-0.459142,1.24714
-28,694,-6.48413,-3.95972,0,0,0,0,0,0,0,-1,1196,330,-6.48414,3.9597
-21,694,2.63269,-20.663,0,0,0,0,0,0,0,-1,1203,330,2.63273,20.663
-14,694,3.16626,-21.7508,0,0,0,0,0,0,0,-1,1210,330,3.16625,21.7508
-7,694,3.90344,-22.3032,0.00832996,0.115119,0.00828835,0.115759,0.00769049,1.4938,0.0747411,0.0459728,1217,330,3.90341,22.3032
0,694,4.50659,-23.0208,0.00486968,0.105745,0.0103105,0.106788,0.00382662,1.46997,0.0699512,0.0468937,1224,330,4.5066,23.0208
7,694,4.6106,-23.6205,0.00171051,0.0961421,0.0114872,0.0975193,0.000333223,1.45147,0.0649021,0.0477202,1231,330,4.61058,23.6205
14,694,4.70288,-23.8355,-0.00110079,0.0857839,0.011958,0.0873996,-0.00271653,1.43649,0.0591927,0.0478184,1238,330,4.70284,23.8355
21,694,4.69128,-23.761,-0.00339761,0.0760037,0.0119214,0.077755,-0.00514888,1.42494,0.0536354,0.0482795,1245,330,4.69125,23.761
28,694,3.23584,-24.5544,-0.00452894,0.0667497,0.0108758,0.0683722,-0.00615145,1.4227,0.0477642,0.0473749,1252,330,3.23579,24.5544
35,694,3.42908,-24.7384,-0.00453147,0.0580797,0.00914777,0.0593888,-0.00584063,1.42865,0.0416761,0.0447708,1259,330,3.42906,24.7384
42,694,3.37109,-24.6244,-0.0045918,0.0496999,0.00745513,0.050705,-0.0055969,1.43678,0.035815,0.0478782,1266,330,3.37113,24.6244
49,694,4.73706,-24.9117,0,0,0,0,0,0,0,-1,1273,330,4.737,24.9117
56,694,4.07715,-24.995,0,0,0,0,0,0,0,-1,1280,330,4.07718,24.995
63,694,3.54285,-24.6246,0,0,0,0,0,0,0,-1,1287,330,3.54286,24.6246
70,694,4.08191,-23.9525,0,0,0,0,0,0,0,-1,1294,330,4.08186,23.9525
77,694,3.68103,-24.2519,-0.0075889,0.0364938,-0.00672438,0.0374967,-0.00859182,-1.42274,0.0282999,0.0459743,1301,330,3.68108,24.2519
84,694,3.99854,-24.5249,-0.00849768,0.0350723,-0.0128421,0.0385758,-0.0120011,-1.30447,0.0305146,0.0442622,1308,330,3.99852,24.5249
91,694,4.54272,-24.991,0,0,0,0,0,0,0,-1,1315,330,4.54278,24.991
98,694,5.36829,-25.342,-0.0106608,0.0418925,-0.0217783,0.0497444,-0.0185126,-1.22477,0.0407601,0.044511,1322,330,5.36823,25.342
105,694,4.68591,-25.0177,-0.0113068,0.0483953,-0.0262472,0.0582935,-0.021205,-1.21017,0.0475343,0.045705,1329,330,4.68586,25.0177
112,694,2.71228,-23.0837,0,0,0,0,0,0,0,-1,1336,330,2.71225,23.0837
119,694,2.54443,-23.2018,0,0,0,0,0,0,0,-1,1343,330,2.54448,23.2018
126,694,2.47156,-23.7029,-0.0110293,0.0506786,-0.0421867,0.0720902,-0.0324409,-1.10113,0.0617812,0.0457973,1350,330,2.47159,23.7029
133,694,2.3894,-24.2771,-0.00980919,0.0488276,-0.0456752,0.0737844,-0.034766,-1.07072,0.0640069,0.0467544,1357,330,2.3894,24.2771
140,694,2.46997,-24.735,-0.00752069,0.0462683,-0.0480367,0.0744269,-0.0356792,-1.04059,0.0648686,0.0499961,1364,330,2.46992,24.735
147,694,2.48132,-25.1783,0,0,0,0,0,0,0,-1,1371,330,2.48133,25.1784
154,694,3.83032,-25.9082,0,0,0,0,0,0,0,-1,1378,330,3.83028,25.9082
161,694,3.92969,-26.2193,0,0,0,0,0,0,0,-1,1385,330,3.92966,26.2193
168,694,30.451,0.196686,0,0,0,0,0,0,0,-1,1392,330,30.4511,-0.196674
175,694,31.0701,0.869873,0,0,0,0,0,0,0,-1,1399,330,31.07,-0.869874
182,694,8.29028,5.75238,0,0,0,0,0,0,0,-1,1406,330,8.29034,-5.75237
189,694,7.9801,4.46118,0,0,0,0,0,0,0,-1,1413,330,7.9801,-4.46118
196,694,7.39331,3.32632,0,0,0,0,0,0,0,-1,1420,330,7.39329,-3.32633
203,694,7.04492,2.20529,0,0,0,0,0,0,0,-1,1427,330,7.04496,-2.20529
210,694,6.44714,0.646912,0,0,0,0,0,0,0,-1,1434,330,6.44717,-0.646903
217,694,7.12061,-0.644958,0,0,0,0,0,0,0,-1,1441,330,7.12059,0.644961
224,694,6.74011,-1.70544,0,0,0,0,0,0,0,-1,1448,330,6.74013,1.70546
231,694,0,0,0,0,0,0,0,0,0,-1,1455,330,0,0
238,694,0,0,0,0,0,0,0,0,0,-1,1462,330,0,0
245,694,0,0,0,0,0,0,0,0,0,-1,1469,330,0,0
252,694,0,0,0,0,0,0,0,0,0,-1,1476,330,0,0
259,694,0,0,0,0,0,0,0,0,0,-1,1483,330,0,0
266,694,0,0,0,0,0,0,0,0,0,-1,1490,330,0,0
273,694,0,0,0,0,0,0,0,0,0,-1,1497,330,0,0
280,694,0,0,0,0,0,0,0,0,0,-1,1504,330,0,0
287,694,0,0,0,0,0,0,0,0,0,-1,1511,330,0,0
294,694,0,0,0,0,0,0,0,0,0,-1,1518,330,0,0
301,694,0,0,0,0,0,0,0,0,0,-1,1525,330,0,0
308,694,0,0,0,0,0,0,0,0,0,-1,1532,330,0,0
315,694,0,0,0,0,0,0,0,0,0,-1,1539,330,0,0
322,694,0,0,0,0,0,0,0,0,0,-1,1546,330,0,0
329,694,0,0,0,0,0,0,0,0,0,-1,1553,330,0,0
336,694,0,0,0,0,0,0,0,0,0,-1,1560,330,0,0
343,694,0,0,0,0,0,0,0,0,0,-1,1567,330,0,0
350,694,0,0,0,0,0,0,0,0,0,-1,1574,330,0,0
357,694,0,0,0,0,0,0,0,0,0,-1,1581,330,0,0
364,694,0,0,0,0,0,0,0,0,0,-1,1588,330,0,0
371,694,0,0,0,0,0,0,0,0,0,-1,1595,330,0,0
378,694,0,0,0,0,0,0,0,0,0,-1,1602,330,0,0
385,694,0,0,0,0,0,0,0,0,0,-1,1609,330,0,0
392,694,0,0,0,0,0,0,0,0,0,-1,1616,330,0,0
399,694,0,0,0,0,0,0,0,0,0,-1,1623,330,0,0
406,694,0,0,0,0,0,0,0,0,0,-1,1630,330,0,0
413,694,0,0,0,0,0,0,0,0,0,-1,1637,330,0,0
420,694,0,0,0,0,0,0,0,0,0,-1,1644,330,0,0
427,694,0,0,0,0,0,0,0,0,0,-1,1651,330,0,0
434,694,0,0,0,0,0,0,0,0,0,-1,1658,330,0,0
441,694,0,0,0,0,0,0,0,0,0,-1,1665,330,0,0
448,694,0,0,0,0,0,0,0,0,0,-1,1672,330,0,0
455,694,0,0,0,0,0,0,0,0,0,-1,1679,330,0,0
462,694,0,0,0,0,0,0,0,0,0,-1,1686,330,0,0
469,694,0,0,0,0,0,0,0,0,0,-1,1693,330,0,0
476,694,0,0,0,0,0,0,0,0,0,-1,1700,330,0,0
483,694,0,0,0,0,0,0,0,0,0,-1,1707,330,0,0
490,694,0,0,0,0,0,0,0,0,0,-1,1714,330,0,0
497,694,0,0,0,0,0,0,0,0,0,-1,1721,330,0,0
504,694,0,0,0,0,0,0,0,0,0,-1,1728,330,0,0
511,694,0,0,0,0,0,0,0,0,0,-1,1735,330,0,0
518,694,0,0,0,0,0,0,0,0,0,-1,1742,330,0,0
525,694,0,0,0,0,0,0,0,0,0,-1,1749,330,0,0
532,694,0,0,0,0,0,0,0,0,0,-1,1756,330,0,0
539,694,0,0,0,0,0,0,0,0,0,-1,1763,330,0,0
546,694,0,0,0,0,0,0,0,0,0,-1,1770,330,0,0
553,694,0,0,0,0,0,0,0,0,0,-1,1777,330,0,0
560,694,0,0,0,0,0,0,0,0,0,-1,1784,330,0,0
567,694,0,0,0,0,0,0,0,0,0,-1,1791,330,0,0
574,694,0,0,0,0,0,0,0,0,0,-1,1798,330,0,0
581,694,0,0,0,0,0,0,0,0,0,-1,1805,330,0,0
588,694,0,0,0,0,0,0,0,0,0,-1,1812,330,0,0
595,694,0,0,0,0,0,0,0,0,0,-1,1819,330,0,0
602,694,0,0,0,0,0,0,0,0,0,-1,1826,330,0,0
609,694,0,0,0,0,0,0,0,0,0,-1,1833,330,0,0
616,694,0,0,0,0,0,0,0,0,0,-1,1840,330,0,0
623,694,0,0,0,0,0,0,0,0,0,-1,1847,330,0,0
630,694,0,0,0,0,0,0,0,0,0,-1,1854,330,0,0
637,694,0,0,0,0,0,0,0,0,0,-1,1861,330,0,0
644,694,0,0,0,0,0,0,0,0,0,-1,1868,330,0,0
651,694,0,0,0,0,0,0,0,0,0,-1,1875,330,0,0
658,694,0,0,0,0,0,0,0,0,0,-1,1882,330,0,0
665,694,0,0,0,0,0,0,0,0,0,-1,1889,330,0,0
672,694,0,0,0,0,0,0,0,0,0,-1,1896,330,0,0
679,694,0,0,0,0,0,0,0,0,0,-1,1903,330,0,0
686,694,0,0,0,0,0,0,0,0,0,-1,1910,330,0,0
693,694,0,0,0,0,0,0,0,0,0,-1,1917,330,0,0
700,694,0,0,0,0,0,0,0,0,0,-1,1924,330,0,0
707,694,0,0,0,0,0,0,0,0,0,-1,1931,330,0,0
714,694,0,0,0,0,0,0,0,0,0,-1,1938,330,0,0
721,694,0,0,0,0,0,0,0,0,0,-1,1945,330,0,0
728,694,0,0,0,0,0,0,0,0,0,-1,1952,330,0,0
735,694,0,0,0,0,0,0,0,0,0,-1,1959,330,0,0
742,694,0,0,0,0,0,0,0,0,0,-1,1966,330,0,0
749,694,0,0,0,0,0,0,0,0,0,-1,1973,330,0,0
756,694,0,0,0,0,0,0,0,0,0,-1,1980,330,0,0
763,694,0,0,0,0,0,0,0,0,0,-1,1987,330,0,0
770,694,0,0,0,0,0,0,0,0,0,-1,1994,330,0,0
777,694,0,0,0,0,0,0,0,0,0,-1,2001,330,0,0
784,694,0,0,0,0,0,0,0,0,0,-1,2008,330,0,0
791,694,0,0,0,0,0,0,0,0,0,-1,2015,330,0,0
798,694,0,0,0,0,0,0,0,0,0,-1,2022,330,0,0
805,694,0,0,0,0,0,0,0,0,0,-1,2029,330,0,0
812,694,0,0,0,0,0,0,0,0,0,-1,2036,330,0,0
-700,687,0,0,0,0,0,0,0,0,0,-1,524,337,0,0
-693,687,0,0,0,0,0,0,0,0,0,-1,531,337,0,0
-686,687,0,0,0,0,0,0,0,0,0,-1,538,337,0,0
-679,687,0,0,0,0,0,0,0,0,0,-1,545,337,0,0
-672,687,0,0,0,0,0,0,0,0,0,-1,552,337,0,0
-665,687,0,0,0,0,0,0,0,0,0,-1,559,337,0,0
-658,687,0,0,0,0,0,0,0,0,0,-1,566,337,0,0
-651,687,0,0,0,0,0,0,0,0,0,-1,573,337,0,0
-644,687,0,0,0,0,0,0,0,0,0,-1,580,337,0,0
-637,687,0,0,0,0,0,0,0,0,0,-1,587,337,0,0
-630,687,0,0,0,0,0,0,0,0,0,-1,594,337,0,0
-623,687,0,0,0,0,0,0,0,0,0,-1,601,337,0,0
-616,687,0,0,0,0,0,0,0,0,0,-1,608,337,0,0
-609,687,0,0,0,0,0,0,0,0,0,-1,615,337,0,0
-602,687,0,0,0,0,0,0,0,0,0,-1,622,337,0,0
-595,687,0,0,0,0,0,0,0,0,0,-1,629,337,0,0
-588,687,0,0,0,0,0,0,0,0,0,-1,636,337,0,0
-581,687,0,0,0,0,0,0,0,0,0,-1,643,337,0,0
-574,687,0,0,0,0,0,0,0,0,0,-1,650,337,0,0
-567,687,0,0,0,0,0,0,0,0,0,-1,657,337,0,0
-560,687,0,0,0,0,0,0,0,0,0,-1,664,337,0,0
-553,687,0,0,0,0,0,0,0,0,0,-1,671,337,0,0
-546,687,0,0,0,0,0,0,0,0,0,-1,678,337,0,0
-539,687,0,0,0,0,0,0,0,0,0,-1,685,337,0,0
-532,687,0,0,0,0,0,0,0,0,0,-1,692,337,0,0
-525,687,0,0,0,0,0,0,0,0,0,-1,699,337,0,0
-518,687,0,0,0,0,0,0,0,0,0,-1,706,337,0,0
-511,687,0,0,0,0,0,0,0,0,0,-1,713,337,0,0
-504,687,0,0,0,0,0,0,0,0,0,-1,720,337,0,0
-497,687,0,0,0,0,0,0,0,0,0,-1,727,337,0,0
-490,687,0,0,0,0,0,0,0,0,0,-1,734,337,0,0
-483,687,0,0,0,0,0,0,0,0,0,-1,741,337,0,0
-476,687,0,0,0,0,0,0,0,0,0,-1,748,337,0,0
-469,687,0,0,0,0,0,0,0,0,0,-1,755,337,0,0
-462,687,0,0,0,0,0,0,0,0,0,-1,762,337,0,0
-455,687,0,0,0,0,0,0,0,0,0,-1,769,337,0,0
-448,687,0,0,0,0,0,0,0,0,0,-1,776,337,0,0
-441,687,0,0,0,0,0,0,0,0,0,-1,783,337,0,0
-434,687,0,0,0,0,0,0,0,0,0,-1,790,337,0,0
-427,687,0,0,0,0,0,0,0,0,0,-1,797,337,0,0
-420,687,0,0,0,0,0,0,0,0,0,-1,804,337,0,0
-413,687,0,0,0,0,0,0,0,0,0,-1,811,337,0,0
-406,687,0,0,0,0,0,0,0,0,0,-1,818,337,0,0
-399,687,0,0,0,0,0,0,0,0,0,-1,825,337,0,0
-392,687,0,0,0,0,0,0,0,0,0,-1,832,337,0,0
-385,687,0,0,0,0,0,0,0,0,0,-1,839,337,0,0
-378,687,0,0,0,0,0,0,0,0,0,-1,846,337,0,0
-371,687,0,0,0,0,0,0,0,0,0,-1,853,337,0,0
-364,687,0,0,0,0,0,0,0,0,0,-1,860,337,0,0
-357,687,0,0,0,0,0,0,0,0,0,-1,867,337,0,0
-350,687,0,0,0,0,0,0,0,0,0,-1,874,337,0,0
-343,687,0,0,0,0,0,0,0,0,0,-1,881,337,0,0
-336,687,0,0,0,0,0,0,0,0,0,-1,888,337,0,0
-329,687,0,0,0,0,0,0,0,0,0,-1,895,337,0,0
-322,687,0,0,0,0,0,0,0,0,0,-1,902,337,0,0
-315,687,0,0,0,0,0,0,0,0,0,-1,909,337,0,0
-308,687,0,0,0,0,0,0,0,0,0,-1,916,337,0,0
-301,687,0,0,0,0,0,0,0,0,0,-1,923,337,0,0
-294,687,0,0,0,0,0,0,0,0,0,-1,930,337,0,0
-287,687,0,0,0,0,0,0,0,0,0,-1,937,337,0,0
-280,687,0,0,0,0,0,0,0,0,0,-1,944,337,0,0
-273,687,0,0,0,0,0,0,0,0,0,-1,951,337,0,0
-266,687,0,0,0,0,0,0,0,0,0,-1,958,337,0,0
-259,687,0,0,0,0,0,0,0,0,0,-1,965,337,0,0
-252,687,0,0,0,0,0,0,0,0,0,-1,972,337,0,0
-245,687,0,0,0,0,0,0,0,0,0,-1,979,337,0,0
-238,687,0,0,0,0,0,0,0,0,0,-1,986,337,0,0
-231,687,0,0,0,0,0,0,0,0,0,-1,993,337,0,0
-224,687,0,0,0,0,0,0,0,0,0,-1,1000,337,0,0
-217,687,0,0,0,0,0,0,0,0,0,-1,1007,337,0,0
-210,687,0,0,0,0,0,0,0,0,0,-1,1014,337,0,0
-203,687,0,0,0,0,0,0,0,0,0,-1,1021,337,0,0
-196,687,0,0,0,0,0,0,0,0,0,-1,1028,337,0,0
-189,687,0,0,0,0,0,0,0,0,0,-1,1035,337,0,0
-182,687,0,0,0,0,0,0,0,0,0,-1,1042,337,0,0
-175,687,0,0,0,0,0,0,0,0,0,-1,1049,337,0,0
-168,687,0,0,0,0,0,0,0,0,0,-1,1056,337,0,0
-161,687,0,0,0,0,0,0,0,0,0,-1,1063,337,0,0
-154,687,0,0,0,0,0,0,0,0,0,-1,1070,337,0,0
-147,687,0,0,0,0,0,0,0,0,0,-1,1077,337,0,0
-140,687,0,0,0,0,0,0,0,0,0,-1,1084,337,0,0
-133,687,6.28271,-21.7387,0,0,0,0,0,0,0,-1,1091,337,6.28275,21.7388
-126,687,7.14612,-22.3354,0,0,0,0,0,0,0,-1,1098,337,7.14608,22.3354
-119,687,6.41846,-21.2928,0,0,0,0,0,0,0,-1,1105,337,6.41843,21.2928
-112,687,6.94678,-20.2408,0,0,0,0,0,0,0,-1,1112,337,6.9468,20.2408
-105,687,7.40222,-19.2547,0,0,0,0,0,0,0,-1,1119,337,7.40217,19.2547
-98,687,13.0936,-35.7905,0,0,0,0,0,0,0,-1,1126,337,13.0936,35.7905
-91,687,7.62842,-30.6922,0,0,0,0,0,0,0,-1,1133,337,7.62845,30.6922
-84,687,2.10876,-25.7283,0,0,0,0,0,0,0,-1,1140,337,2.10882,25.7283
-77,687,-3.47437,-20.7021,0,0,0,0,0,0,0,-1,1147,337,-3.47434,20.7021
-70,687,-8.66333,-16.1182,0,0,0,0,0,0,0,-1,1154,337,-8.66337,16.1182
-63,687,-12.9957,-4.52802,0,0,0,0,0,0,0,-1,1161,337,-12.9958,4.52801
-56,687,-17.6764,6.20923,0,0,0,0,0,0,0,-1,1168,337,-17.6764,-6.20923
-49,687,-15.6449,-9.94391,0,0,0,0,0,0,0,-1,1175,337,-15.6449,9.94392
-42,687,-4.2019,-0.405609,0,0,0,0,0,0,0,-1,1182,337,-4.20192,0.405614
-35,687,-4.42273,-0.688171,0,0,0,0,0,0,0,-1,1189,337,-4.42276,0.688178
-28,687,-1.14038,-1.39072,0,0,0,0,0,0,0,-1,1196,337,-1.14035,1.3907
-21,687,3.54004,-24.5642,0,0,0,0,0,0,0,-1,1203,337,3.53999,24.5643
-14,687,4.29028,-23.9979,0,0,0,0,0,0,0,-1,1210,337,4.29032,23.9979
-7,687,4.26929,-23.9669,0.00425361,0.0921365,0.00471614,0.0923888,0.00400125,1.51734,0.0603031,0.0483933,1217,337,4.26925,23.9669
0,687,4.22668,-23.9886,0.00203207,0.0851873,0.00593421,0.0856086,0.00161072,1.49991,0.0565432,0.0493707,1224,337,4.22669,23.9886
7,687,4.21729,-24.0988,-3.67428e-05,0.078187,0.0067023,0.0787571,-0.000606854,1.48594,0.0527082,0.0464494,1231,337,4.2173,24.0988
14,687,4.20837,-24.1927,-0.00193778,0.0705423,0.00707674,0.0712268,-0.00262227,1.47437,0.0483823,0.0452347,1238,337,4.20834,24.1926
21,687,3.58276,-24.7955,0,0,0,0,0,0,0,-1,1245,337,3.58275,24.7955
28,687,3.25232,-25.1136,-0.0040956,0.0565043,0.00652735,0.0571994,-0.0047907,1.46471,0.039826,0.0477028,1252,337,3.25236,25.1136
35,687,3.94788,-25.863,-0.0039443,0.0500306,0.00550161,0.0505857,-0.00449937,1.47025,0.0353192,0.048494,1259,337,3.94784,25.863
42,687,3.46411,-25.1371,-0.00395161,0.0437317,0.00454608,0.0441612,-0.00438116,1.47659,0.0310046,0.0469073,1266,337,3.46411,25.1371
49,687,3.54749,-25.0717,-0.0049152,0.0375914,0.00464707,0.0380935,-0.00541731,1.46316,0.0273807,0.0494846,1273,337,3.54747,25.0717
56,687,3.56995,-25.0963,0,0,0,0,0,0,0,-1,1280,337,3.56999,25.0963
63,687,3.59302,-24.9768,-0.00642035,0.0325248,0.00243137,0.032676,-0.00657156,1.50869,0.0242729,0.0468887,1287,337,3.59302,24.9769
70,687,3.64185,-24.8489,-0.00704533,0.0324252,-0.000601331,0.0324344,-0.00705448,-1.55557,0.0243179,0.0423241,1294,337,3.64181,24.8489
77,687,3.74536,-24.7287,-0.00695096,0.0333998,-0.00417448,0.0338271,-0.0073783,-1.46878,0.025371,0.0470321,1301,337,3.74536,24.7287
84,687,3.83362,-24.7864,-0.00795096,0.032591,-0.00847178,0.0342901,-0.00965004,-1.37286,0.0266653,0.0481672,1308,337,3.83356,24.7864
91,687,3.93628,-24.8826,0,0,0,0,0,0,0,-1,1315,337,3.93632,24.8826
98,687,5.98303,-25.8141,-0.00988742,0.0374075,-0.0155769,0.0420768,-0.0145568,-1.27956,0.0339598,0.0438998,1322,337,5.98307,25.814
105,687,5.63818,-25.7007,-0.0104681,0.0419025,-0.0191841,0.0481779,-0.0167435,-1.25465,0.0389194,0.0462098,1329,337,5.63823,25.7007
112,687,2.84204,-23.1489,0,0,0,0,0,0,0,-1,1336,337,2.8421,23.1489
119,687,2.7782,-23.5972,-0.0106399,0.0443069,-0.0283781,0.0563316,-0.0226646,-1.17,0.0469689,0.0455382,1343,337,2.77822,23.5972
126,687,2.74292,-24.094,-0.0100226,0.0432161,-0.0319525,0.0581846,-0.0249911,-1.1327,0.0492797,0.0443119,1350,337,2.74294,24.094
133,687,2.73523,-24.5751,-0.00913043,0.0417013,-0.0347702,0.0593543,-0.0267835,-1.101,0.050903,0.0466188,1357,337,2.73524,24.5751
140,687,2.78662,-25.009,-0.0075425,0.039771,-0.0365795,0.0596768,-0.0274484,-1.07243,0.0514361,0.0486744,1364,337,2.78657,25.009
147,687,2.76697,-25.3879,0,0,0,0,0,0,0,-1,1371,337,2.76693,25.3879
154,687,3.93457,-24.8816,0,0,0,0,0,0,0,-1,1378,337,3.93455,24.8816
161,687,29.3895,-1.90628,0,0,0,0,0,0,0,-1,1385,337,29.3895,1.90628
168,687,29.8564,-1.19434,0,0,0,0,0,0,0,-1,1392,337,29.8564,1.19434
175,687,30.3419,-0.453583,0,0,0,0,0,0,0,-1,1399,337,30.3419,0.45357
182,687,6.67249,0.289917,0,0,0,0,0,0,0,-1,1406,337,6.67247,-0.289916
189,687,7.76062,4.53635,0,0,0,0,0,0,0,-1,1413,337,7.76064,-4.53636
196,687,6.99048,3.2966,0,0,0,0,0,0,0,-1,1420,337,6.99046,-3.2966
203,687,6.36499,2.1445,0,0,0,0,0,0,0,-1,1427,337,6.36499,-2.14451
210,687,6.68066,0.674652,0,0,0,0,0,0,0,-1,1434,337,6.68062,-0.674655
217,687,5.99683,-0.630493,0,0,0,0,0,0,0,-1,1441,337,5.99684,0.630497
224,687,5.52917,0.524902,0,0,0,0,0,0,0,-1,1448,337,5.5292,-0.524915
231,687,5.85583,-1.73651,0,0,0,0,0,0,0,-1,1455,337,5.85577,1.73651
238,687,5.96582,-2.96774,0,0,0,0,0,0,0,-1,1462,337,5.96577,2.96773
245,687,1.28259,2.32211,0,0,0,0,0,0,0,-1,1469,337,1.28258,-2.32211
252,687,1.97278,3.88422,0,0,0,0,0,0,0,-1,1476,337,1.97281,-3.88421
259,687,0,0,0,0,0,0,0,0,0,-1,1483,337,0,0
266,687,0,0,0,0,0,0,0,0,0,-1,1490,337,0,0
273,687,0,0,0,0,0,0,0,0,0,-1,1497,337,0,0
280,687,0,0,0,0,0,0,0,0,0,-1,1504,337,0,0
287,687,0,0,0,0,0,0,0,0,0,-1,1511,337,0,0
294,687,0,0,0,0,0,0,0,0,0,-1,1518,337,0,0
301,687,0,0,0,0,0,0,0,0,0,-1,1525,337,0,0
308,687,0,0,0,0,0,0,0,0,0,-1,1532,337,0,0
315,687,0,0,0,0,0,0,0,0,0,-1,1539,337,0,0
322,687,0,0,0,0,0,0,0,0,0,-1,1546,337,0,0
329,687,0,0,0,0,0,0,0,0,0,-1,1553,337,0,0
336,687,0,0,0,0,0,0,0,0,0,-1,1560,337,0,0
343,687,0,0,0,0,0,0,0,0,0,-1,1567,337,0,0
350,687,0,0,0,0,0,0,0,0,0,-1,1574,337,0,0
357,687,0,0,0,0,0,0,0,0,0,-1,1581,337,0,0
364,687,0,0,0,0,0,0,0,0,0,-1,1588,337,0,0
371,687,0,0,0,0,0,0,0,0,0,-1,1595,337,0,0
378,687,0,0,0,0,0,0,0,0,0,-1,1602,337,0,0
385,687,0,0,0,0,0,0,0,0,0,-1,1609,337,0,0
392,687,0,0,0,0,0,0,0,0,0,-1,1616,337,0,0
399,687,0,0,0,0,0,0,0,0,0,-1,1623,337,0,0
406,687,0,0,0,0,0,0,0,0,0,-1,1630,337,0,0
413,687,0,0,0,0,0,0,0,0,0,-1,1637,337,0,0
420,687,0,0,0,0,0,0,0,0,0,-1,1644,337,0,0
427,687,0,0,0,0,0,0,0,0,0,-1,1651,337,0,0
434,687,0,0,0,0,0,0,0,0,0,-1,1658,337,0,0
441,687,0,0,0,0,0,0,0,0,0,-1,1665,337,0,0
448,687,0,0,0,0,0,0,0,0,0,-1,1672,337,0,0
455,687,0,0,0,0,0,0,0,0,0,-1,1679,337,0,0
462,687,0,0,0,0,0,0,0,0,0,-1,1686,337,0,0
469,687,0,0,0,0,0,0,0,0,0,-1,1693,337,0,0
476,687,0,0,0,0,0,0,0,0,0,-1,1700,337,0,0
483,687,0,0,0,0,0,0,0,0,0,-1,1707,337,0,0
490,687,0,0,0,0,0,0,0,0,0,-1,1714,337,0,0
497,687,0,0,0,0,0,0,0,0,0,-1,1721,337,0,0
504,687,0,0,0,0,0,0,0,0,0,-1,1728,337,0,0
511,687,0,0,0,0,0,0,0,0,0,-1,1735,337,0,0
518,687,0,0,0,0,0,0,0,0,0,-1,1742,337,0,0
525,687,0,0,0,0,0,0,0,0,0,-1,1749,337,0,0
532,687,0,0,0,0,0,0,0,0,0,-1,1756,337,0,0
539,687,0,0,0,0,0,0,0,0,0,-1,1763,337,0,0
546,687,0,0,0,0,0,0,0,0,0,-1,1770,337,0,0
553,687,0,0,0,0,0,0,0,0,0,-1,1777,337,0,0
560,687,0,0,0,0,0,0,0,0,0,-1,1784,337,0,0
567,687,0,0,0,0,0,0,0,0,0,-1,1791,337,0,0
574,687,0,0,0,0,0,0,0,0,0,-1,1798,337,0,0
581,687,0,0,0,0,0,0,0,0,0,-1,1805,337,0,0
588,687,0,0,0,0,0,0,0,0,0,-1,1812,337,0,0
595,687,0,0,0,0,0,0,0,0,0,-1,1819,337,0,0
602,687,0,0,0,0,0,0,0,0,0,-1,1826,337,0,0
609,687,0,0,0,0,0,0,0,0,0,-1,1833,337,0,0
616,687,0,0,0,0,0,0,0,0,0,-1,1840,337,0,0
623,687,0,0,0,0,0,0,0,0,0,-1,1847,337,0,0
630,687,0,0,0,0,0,0,0,0,0,-1,1854,337,0,0
637,687,0,0,0,0,0,0,0,0,0,-1,1861,337,0,0
644,687,0,0,0,0,0,0,0,0,0,-1,1868,337,0,0
651,687,0,0,0,0,0,0,0,0,0,-1,1875,337,0,0
658,687,0,0,0,0,0,0,0,0,0,-1,1882,337,0,0
665,687,0,0,0,0,0,0,0,0,0,-1,1889,337,0,0
672,687,0,0,0,0,0,0,0,0,0,-1,1896,337,0,0
679,687,0,0,0,0,0,0,0,0,0,-1,1903,337,0,0
686,687,0,0,0,0,0,0,0,0,0,-1,1910,337,0,0
693,687,0,0,0,0,0,0,0,0,0,-1,1917,337,0,0
700,687,0,0,0,0,0,0,0,0,0,-1,1924,337,0,0
707,687,0,0,0,0,0,0,0,0,0,-1,1931,337,0,0
714,687,0,0,0,0,0,0,0,0,0,-1,1938,337,0,0
721,687,0,0,0,0,0,0,0,0,0,-1,1945,337,0,0
728,687,0,0,0,0,0,0,0,0,0,-1,1952,337,0,0
735,687,0,0,0,0,0,0,0,0,0,-1,1959,337,0,0
742,687,0,0,0,0,0,0,0,0,0,-1,1966,337,0,0
749,687,0,0,0,0,0,0,0,0,0,-1,1973,337,0,0
756,687,0,0,0,0,0,0,0,0,0,-1,1980,337,0,0
763,687,0,0,0,0,0,0,0,0,0,-1,1987,337,0,0
770,687,0,0,0,0,0,0,0,0,0,-1,1994,337,0,0
777,687,0,0,0,0,0,0,0,0,0,-1,2001,337,0,0
784,687,0,0,0,0,0,0,0,0,0,-1,2008,337,0,0
791,687,0,0,0,0,0,0,0,0,0,-1,2015,337,0,0
798,687,0,0,0,0,0,0,0,0,0,-1,2022,337,0,0
805,687,0,0,0,0,0,0,0,0,0,-1,2029,337,0,0
812,687,0,0,0,0,0,0,0,0,0,-1,2036,337,0,0
-700,680,0,0,0,0,0,0,0,0,0,-1,524,344,0,0
-693,680,0,0,0,0,0,0,0,0,0,-1,531,344,0,0
-686,680,0,0,0,0,0,0,0,0,0,-1,538,344,0,0
-679,680,0,0,0,0,0,0,0,0,0,-1,545,344,0,0
-672,680,0,0,0,0,0,0,0,0,0,-1,552,344,0,0
-665,680,0,0,0,0,0,0,0,0,0,-1,559,344,0,0
-658,680,0,0,0,0,0,0,0,0,0,-1,566,344,0,0
-651,680,0,0,0,0,0,0,0,0,0,-1,573,344,0,0
-644,680,0,0,0,0,0,0,0,0,0,-1,580,344,0,0
-637,680,0,0,0,0,0,0,0,0,0,-1,587,344,0,0
-630,680,0,0,0,0,0,0,0,0,0,-1,594,344,0,0
-623,680,0,0,0,0,0,0,0,0,0,-1,601,344,0,0
-616,680,0,0,0,0,0,0,0,0,0,-1,608,344,0,0
-609,680,0,0,0,0,0,0,0,0,0,-1,615,344,0,0
-602,680,0,0,0,0,0,0,0,0,0,-1,622,344,0,0
-595,680,0,0,0,0,0,0,0,0,0,-1,629,344,0,0
-588,680,0,0,0,0,0,0,0,0,0,-1,636,344,0,0
-581,680,0,0,0,0,0,0,0,0,0,-1,643,344,0,0
-574,680,0,0,0,0,0,0,0,0,0,-1,650,344,0,0
-567,680,0,0,0,0,0,0,0,0,0,-1,657,344,0,0
-560,680,0,0,0,0,0,0,0,0,0,-1,664,344,0,0
-553,680,0,0,0,0,0,0,0,0,0,-1,671,344,0,0
-546,680,0,0,0,0,0,0,0,0,0,-1,678,344,0,0
-539,680,0,0,0,0,0,0,0,0,0,-1,685,344,0,0
-532,680,0,0,0,0,0,0,0,0,0,-1,692,344,0,0
-525,680,0,0,0,0,0,0,0,0,0,-1,699,344,0,0
-518,680,0,0,0,0,0,0,0,0,0,-1,706,344,0,0
-511,680,0,0,0,0,0,0,0,0,0,-1,713,344,0,0
-504,680,0,0,0,0,0,0,0,0,0,-1,720,344,0,0
-497,680,0,0,0,0,0,0,0,0,0,-1,727,344,0,0
-490,680,0,0,0,0,0,0,0,0,0,-1,734,344,0,0
-483,680,0,0,0,0,0,0,0,0,0,-1,741,344,0,0
-476,680,0,0,0,0,0,0,0,0,0,-1,748,344,0,0
-469,680,0,0,0,0,0,0,0,0,0,-1,755,344,0,0
-462,680,0,0,0,0,0,0,0,0,0,-1,762,344,0,0
-455,680,0,0,0,0,0,0,0,0,0,-1,769,344,0,0
-448,680,0,0,0,0,0,0,0,0,0,-1,776,344,0,0
-441,680,0,0,0,0,0,0,0,0,0,-1,783,344,0,0
-434,680,0,0,0,0,0,0,0,0,0,-1,790,344,0,0
-427,680,0,0,0,0,0,0,0,0,0,-1,797,344,0,0
-420,680,0,0,0,0,0,0,0,0,0,-1,804,344,0,0
-413,680,0,0,0,0,0,0,0,0,0,-1,811,344,0,0
-406,680,0,0,0,0,0,0,0,0,0,-1,818,344,0,0
-399,680,0,0,0,0,0,0,0,0,0,-1,825,344,0,0
-392,680,0,0,0,0,0,0,0,0,0,-1,832,344,0,0
-385,680,0,0,0,0,0,0,0,0,0,-1,839,344,0,0
-378,680,0,0,0,0,0,0,0,0,0,-1,846,344,0,0
-371,680,0,0,0,0,0,0,0,0,0,-1,853,344,0,0
-364,680,0,0,0,0,0,0,0,0,0,-1,860,344,0,0
-357,680,0,0,0,0,0,0,0,0,0,-1,867,344,0,0
-350,680,0,0,0,0,0,0,0,0,0,-1,874,344,0,0
-343,680,0,0,0,0,0,0,0,0,0,-1,881,344,0,0
-336,680,0,0,0,0,0,0,0,0,0,-1,888,344,0,0
-329,680,0,0,0,0,0,0,0,0,0,-1,895,344,0,0
-322,680,0,0,0,0,0,0,0,0,0,-1,902,344,0,0
-315,680,0,0,0,0,0,0,0,0,0,-1,909,344,0,0
-308,680,0,0,0,0,0,0,0,0,0,-1,916,344,0,0
-301,680,0,0,0,0,0,0,0,0,0,-1,923,344,0,0
-294,680,0,0,0,0,0,0,0,0,0,-1,930,344,0,0
-287,680,0,0,0,0,0,0,0,0,0,-1,937,344,0,0
-280,680,0,0,0,0,0,0,0,0,0,-1,944,344,0,0
-273,680,0,0,0,0,0,0,0,0,0,-1,951,344,0,0
-266,680,0,0,0,0,0,0,0,0,0,-1,958,344,0,0
-259,680,0,0,0,0,0,0,0,0,0,-1,965,344,0,0
-252,680,0,0,0,0,0,0,0,0,0,-1,972,344,0,0
-245,680,0,0,0,0,0,0,0,0,0,-1,979,344,0,0
-238,680,0,0,0,0,0,0,0,0,0,-1,986,344,0,0
-231,680,0,0,0,0,0,0,0,0,0,-1,993,344,0,0
-224,680,0,0,0,0,0,0,0,0,0,-1,1000,344,0,0
-217,680,0,0,0,0,0,0,0,0,0,-1,1007,344,0,0
-210,680,0,0,0,0,0,0,0,0,0,-1,1014,344,0,0
-203,680,0,0,0,0,0,0,0,0,0,-1,1021,344,0,0
-196,680,0,0,0,0,0,0,0,0,0,-1,1028,344,0,0
-189,680,0,0,0,0,0,0,0,0,0,-1,1035,344,0,0
-182,680,0,0,0,0,0,0,0,0,0,-1,1042,344,0,0
-175,680,0,0,0,0,0,0,0,0,0,-1,1049,344,0,0
-168,680,0,0,0,0,0,0,0,0,0,-1,1056,344,0,0
-161,680,0,0,0,0,0,0,0,0,0,-1,1063,344,0,0
-154,680,5.78296,-24.9158,0,0,0,0,0,0,0,-1,1070,344,5.78297,24.9158
-147,680,5.91821,-24.4474,0,0,0,0,0,0,0,-1,1077,344,5.91822,24.4475
-140,680,6.18262,-23.6859,0,0,0,0,0,0,0,-1,1084,344,6.18264,23.6859
-133,680,0.622681,-21.7681,0,0,0,0,0,0,0,-1,1091,344,0.622718,21.7681
-126,680,0.739502,-21.0924,0,0,0,0,0,0,0,-1,1098,344,0.739526,21.0924
-119,680,4.85095,-23.0988,0,0,0,0,0,0,0,-1,1105,344,4.85099,23.0988
-112,680,4.85864,-22.3683,0,0,0,0,0,0,0,-1,1112,344,4.85859,22.3682
-105,680,5.09973,-21.6479,0,0,0,0,0,0,0,-1,1119,344,5.09967,21.6479
-98,680,13.3525,-32.7397,0,0,0,0,0,0,0,-1,1126,344,13.3525,32.7397
-91,680,8.26062,-28.3457,0,0,0,0,0,0,0,-1,1133,344,8.26058,28.3457
-84,680,2.97107,-23.7054,0,0,0,0,0,0,0,-1,1140,344,2.97105,23.7053
-77,680,-2.34436,-18.7996,0,0,0,0,0,0,0,-1,1147,344,-2.34435,18.7996
-70,680,-7.69312,-13.8094,0,0,0,0,0,0,0,-1,1154,344,-7.69312,13.8094
-63,680,-13.0675,-8.72781,0,0,0,0,0,0,0,-1,1161,344,-13.0676,8.72781
-56,680,-6.96912,-8.83356,0,0,0,0,0,0,0,-1,1168,344,-6.96907,8.83354
-49,680,-6.7677,-2.24063,0,0,0,0,0,0,0,-1,1175,344,-6.76772,2.24063
-42,680,-1.02368,0.618805,0,0,0,0,0,0,0,-1,1182,344,-1.0237,-0.618797
-35,680,-0.947876,-0.942719,0,0,0,0,0,0,0,-1,1189,344,-0.947842,0.942731
-28,680,-1.46118,-1.10574,0,0,0,0,0,0,0,-1,1196,344,-1.4612,1.10575
-21,680,4.1217,-24.7452,0,0,0,0,0,0,0,-1,1203,344,4.12172,24.7452
-14,680,4.05737,-24.7819,0.00266551,0.0744786,0.00116474,0.0744975,0.00264663,1.55458,0.0488067,0.0485293,1210,344,4.05736,24.7819
-7,680,3.974,-24.84,0.0014678,0.0718945,0.00246599,0.0719807,0.00138156,1.53584,0.0475333,0.0479773,1217,344,3.97396,24.84
0,680,3.82971,-24.7495,0,0,0,0,0,0,0,-1,1224,344,3.82971,24.7495
7,680,3.84839,-24.7596,-0.00115407,0.0620951,0.00367609,0.062308,-0.00136702,1.51294,0.0420018,0.0459333,1231,344,3.84844,24.7596
14,680,3.89575,-24.8364,-0.00237406,0.0566424,0.00395895,0.0569068,-0.00263845,1.50411,0.0388472,0.0425026,1238,344,3.89578,24.8364
21,680,3.65527,-25.1267,-0.00333557,0.0515287,0.00408114,0.0518306,-0.00363748,1.49695,0.0358278,0.0454135,1245,344,3.65531,25.1268
28,680,3.58594,-25.4655,-0.0036258,0.0465867,0.00373021,0.0468623,-0.0039014,1.49705,0.0326199,0.0456279,1252,344,3.58591,25.4655
35,680,3.8811,-25.7493,-0.00340125,0.0418703,0.00317596,0.042092,-0.00362297,1.5011,0.0293436,0.0445611,1259,344,3.8811,25.7493
42,680,3.57178,-25.6013,-0.00338795,0.0372189,0.00269774,0.0373973,-0.0035664,1.50475,0.0262014,0.0449673,1266,344,3.57182,25.6012
49,680,3.53564,-25.3818,-0.00419024,0.0324513,0.00316186,0.0327221,-0.00446108,1.48535,0.0234437,0.0417111,1273,344,3.53567,25.3818
56,680,3.59595,-25.3594,-0.00507648,0.0303209,0.002481,0.0304939,-0.00524952,1.50116,0.0222862,0.0396297,1280,344,3.59595,25.3594
63,680,3.61414,-25.2745,-0.00552975,0.0286767,0.00212283,0.028808,-0.00566098,1.50905,0.021344,0.0411485,1287,344,3.61414,25.2745
70,680,3.56348,-25.1519,-0.00611598,0.0285215,0.000187609,0.0285226,-0.006117,1.56538,0.0213482,0.0405476,1294,344,3.56352,25.152
77,680,3.5542,-24.99,-0.00618356,0.0292667,-0.00221204,0.0294042,-0.00632105,-1.50872,0.0220144,0.0442271,1301,344,3.55425,24.99
84,680,3.54028,-24.8328,0,0,0,0,0,0,0,-1,1308,344,3.5403,24.8328
91,680,3.63379,-25.7426,-0.0082175,0.030501,-0.00770514,0.031978,-0.00969451,-1.3814,0.0251801,0.0461953,1315,344,3.63374,25.7426
98,680,3.45264,-25.6404,-0.00882224,0.0322083,-0.0106411,0.0348039,-0.0114178,-1.33155,0.0278013,0.0431542,1322,344,3.45259,25.6404
105,680,2.93848,-24.9438,0,0,0,0,0,0,0,-1,1329,344,2.93852,24.9438
112,680,2.99048,-23.2893,0,0,0,0,0,0,0,-1,1336,344,2.99053,23.2893
119,680,3.03394,-23.9551,-0.00935217,0.0367567,-0.0205365,0.0445771,-0.0171726,-1.20695,0.0368029,0.0437789,1343,344,3.03397,23.9551
126,680,3.02686,-24.5295,-0.00883189,0.0358921,-0.0233684,0.0458742,-0.018814,-1.16709,0.0384216,0.0427168,1350,344,3.02688,24.5295
133,680,2.95593,-24.6335,0,0,0,0,0,0,0,-1,1357,344,2.95588,24.6335
140,680,2.94226,-24.8274,0,0,0,0,0,0,0,-1,1364,344,2.94232,24.8274
147,680,2.80994,-24.947,0,0,0,0,0,0,0,-1,1371,344,2.80996,24.947
154,680,2.85974,-24.7865,0,0,0,0,0,0,0,-1,1378,344,2.8598,24.7865
161,680,2.4314,-22.6935,0,0,0,0,0,0,0,-1,1385,344,2.43141,22.6935
168,680,29.4142,-2.51651,0,0,0,0,0,0,0,-1,1392,344,29.4142,2.51652
175,680,6.66541,0.942078,0,0,0,0,0,0,0,-1,1399,344,6.66538,-0.942088
182,680,6.52917,0.532379,0,0,0,0,0,0,0,-1,1406,344,6.52922,-0.532385
189,680,7.55884,4.77695,0,0,0,0,0,0,0,-1,1413,344,7.55886,-4.77694
196,680,6.55627,3.35254,0,0,0,0,0,0,0,-1,1420,344,6.55622,-3.35255
203,680,5.7334,1.90753,0,0,0,0,0,0,0,-1,1427,344,5.73341,-1.90754
210,680,5.27515,0.493622,0,0,0,0,0,0,0,-1,1434,344,5.27514,-0.493632
217,680,6.56384,-0.374176,0,0,0,0,0,0,0,-1,1441,344,6.56379,0.374176
224,680,3.9491,-0.640228,0,0,0,0,0,0,0,-1,1448,344,3.94908,0.64024
231,680,4.24866,-1.96881,0,0,0,0,0,0,0,-1,1455,344,4.2486,1.96882
238,680,4.29333,-3.23984,0,0,0,0,0,0,0,-1,1462,344,4.29332,3.23984
245,680,2.44397,0.985382,0,0,0,0,0,0,0,-1,1469,344,2.44402,-0.985394
252,680,3.07349,2.18951,0,0,0,0,0,0,0,-1,1476,344,3.0735,-2.18952
259,680,2.82971,1.30682,0,0,0,0,0,0,0,-1,1483,344,2.82972,-1.30684
266,680,2.67554,1.44067,0,0,0,0,0,0,0,-1,1490,344,2.67551,-1.44066
273,680,2.46411,1.54666,0,0,0,0,0,0,0,-1,1497,344,2.46407,-1.54666
280,680,0,0,0,0,0,0,0,0,0,-1,1504,344,0,0
287,680,0,0,0,0,0,0,0,0,0,-1,1511,344,0,0
294,680,0,0,0,0,0,0,0,0,0,-1,1518,344,0,0
301,680,0,0,0,0,0,0,0,0,0,-1,1525,344,0,0
308,680,0,0,0,0,0,0,0,0,0,-1,1532,344,0,0
315,680,0,0,0,0,0,0,0,0,0,-1,1539,344,0,0
322,680,0,0,0,0,0,0,0,0,0,-1,1546,344,0,0
329,680,0,0,0,0,0,0,0,0,0,-1,1553,344,0,0
336,680,0,0,0,0,0,0,0,0,0,-1,1560,344,0,0
343,680,0,0,0,0,0,0,0,0,0,-1,1567,344,0,0
350,680,0,0,0,0,0,0,0,0,0,-1,1574,344,0,0
357,680,0,0,0,0,0,0,0,0,0,-1,1581,344,0,0
364,680,0,0,0,0,0,0,0,0,0,-1,1588,344,0,0
371,680,0,0,0,0,0,0,0,0,0,-1,1595,344,0,0
378,680,0,0,0,0,0,0,0,0,0,-1,1602,344,0,0
385,680,0,0,0,0,0,0,0,0,0,-1,1609,344,0,0
392,680,0,0,0,0,0,0,0,0,0,-1,1616,344,0,0
399,680,0,0,0,0,0,0,0,0,0,-1,1623,344,0,0
406,680,0,0,0,0,0,0,0,0,0,-1,1630,344,0,0
413,680,0,0,0,0,0,0,0,0,0,-1,1637,344,0,0
420,680,0,0,0,0,0,0,0,0,0,-1,1644,344,0,0
427,680,0,0,0,0,0,0,0,0,0,-1,1651,344,0,0
434,680,0,0,0,0,0,0,0,0,0,-1,1658,344,0,0
441,680,0,0,0,0,0,0,0,0,0,-1,1665,344,0,0
448,680,0,0,0,0,0,0,0,0,0,-1,1672,344,0,0
455,680,0,0,0,0,0,0,0,0,0,-1,1679,344,0,0
462,680,0,0,0,0,0,0,0,0,0,-1,1686,344,0,0
469,680,0,0,0,0,0,0,0,0,0,-1,1693,344,0,0
476,680,0,0,0,0,0,0,0,0,0,-1,1700,344,0,0
483,680,0,0,0,0,0,0,0,0,0,-1,1707,344,0,0
490,680,0,0,0,0,0,0,0,0,0,-1,1714,344,0,0
497,680,0,0,0,0,0,0,0,0,0,-1,1721,344,0,0
504,680,0,0,0,0,0,0,0,0,0,-1,1728,344,0,0
511,680,0,0,0,0,0,0,0,0,0,-1,1735,344,0,0
518,680,0,0,0,0,0,0,0,0,0,-1,1742,344,0,0
525,680,0,0,0,0,0,0,0,0,0,-1,1749,344,0,0
532,680,0,0,0,0,0,0,0,0,0,-1,1756,344,0,0
539,680,0,0,0,0,0,0,0,0,0,-1,1763,344,0,0
546,680,0,0,0,0,0,0,0,0,0,-1,1770,344,0,0
553,680,0,0,0,0,0,0,0,0,0,-1,1777,344,0,0
560,680,0,0,0,0,0,0,0,0,0,-1,1784,344,0,0
567,680,0,0,0,0,0,0,0,0,0,-1,1791,344,0,0
574,680,0,0,0,0,0,0,0,0,0,-1,1798,344,0,0
581,680,0,0,0,0,0,0,0,0,0,-1,1805,344,0,0
588,680,0,0,0,0,0,0,0,0,0,-1,1812,344,0,0
595,680,0,0,0,0,0,0,0,0,0,-1,1819,344,0,0
602,680,0,0,0,0,0,0,0,0,0,-1,1826,344,0,0
609,680,0,0,0,0,0,0,0,0,0,-1,1833,344,0,0
616,680,0,0,0,0,0,0,0,0,0,-1,1840,344,0,0
623,680,0,0,0,0,0,0,0,0,0,-1,1847,344,0,0
630,680,0,0,0,0,0,0,0,0,0,-1,1854,344,0,0
637,680,0,0,0,0,0,0,0,0,0,-1,1861,344,0,0
644,680,0,0,0,0,0,0,0,0,0,-1,1868,344,0,0
651,680,0,0,0,0,0,0,0,0,0,-1,1875,344,0,0
658,680,0,0,0,0,0,0,0,0,0,-1,1882,344,0,0
665,680,0,0,0,0,0,0,0,0,0,-1,1889,344,0,0
672,680,0,0,0,0,0,0,0,0,0,-1,1896,344,0,0
679,680,0,0,0,0,0,0,0,0,0,-1,1903,344,0,0
686,680,0,0,0,0,0,0,0,0,0,-1,1910,344,0,0
693,680,0,0,0,0,0,0,0,0,0,-1,1917,344,0,0
700,680,0,0,0,0,0,0,0,0,0,-1,1924,344,0,0
707,680,0,0,0,0,0,0,0,0,0,-1,1931,344,0,0
714,680,0,0,0,0,0,0,0,0,0,-1,1938,344,0,0
721,680,0,0,0,0,0,0,0,0,0,-1,1945,344,0,0
728,680,0,0,0,0,0,0,0,0,0,-1,1952,344,0,0
735,680,0,0,0,0,0,0,0,0,0,-1,1959,344,0,0
742,680,0,0,0,0,0,0,0,0,0,-1,1966,344,0,0
749,680,0,0,0,0,0,0,0,0,0,-1,1973,344,0,0
756,680,0,0,0,0,0,0,0,0,0,-1,1980,344,0,0
763,680,0,0,0,0,0,0,0,0,0,-1,1987,344,0,0
770,680,0,0,0,0,0,0,0,0,0,-1,1994,344,0,0
777,680,0,0,0,0,0,0,0,0,0,-1,2001,344,0,0
784,680,0,0,0,0,0,0,0,0,0,-1,2008,344,0,0
791,680,0,0,0,0,0,0,0,0,0,-1,2015,344,0,0
798,680,0,0,0,0,0,0,0,0,0,-1,2022,344,0,0
805,680,0,0,0,0,0,0,0,0,0,-1,2029,344,0,0
812,680,0,0,0,0,0,0,0,0,0,-1,2036,344,0,0
-700,673,0,0,0,0,0,0,0,0,0,-1,524,351,0,0
-693,673,0,0,0,0,0,0,0,0,0,-1,531,351,0,0
-686,673,0,0,0,0,0,0,0,0,0,-1,538,351,0,0
-679,673,0,0,0,0,0,0,0,0,0,-1,545,351,0,0
-672,673,0,0,0,0,0,0,0,0,0,-1,552,351,0,0
-665,673,0,0,0,0,0,0,0,0,0,-1,559,351,0,0
-658,673,0,0,0,0,0,0,0,0,0,-1,566,351,0,0
-651,673,0,0,0,0,0,0,0,0,0,-1,573,351,0,0
-644,673,0,0,0,0,0,0,0,0,0,-1,580,351,0,0
-637,673,0,0,0,0,0,0,0,0,0,-1,587,351,0,0
-630,673,0,0,0,0,0,0,0,0,0,-1,594,351,0,0
-623,673,0,0,0,0,0,0,0,0,0,-1,601,351,0,0
-616,673,0,0,0,0,0,0,0,0,0,-1,608,351,0,0
-609,673,0,0,0,0,0,0,0,0,0,-1,615,351,0,0
-602,673,0,0,0,0,0,0,0,0,0,-1,622,351,0,0
-595,673,0,0,0,0,0,0,0,0,0,-1,629,351,0,0
-588,673,0,0,0,0,0,0,0,0,0,-1,636,351,0,0
-581,673,0,0,0,0,0,0,0,0,0,-1,643,351,0,0
-574,673,0,0,0,0,0,0,0,0,0,-1,650,351,0,0
-567,673,0,0,0,0,0,0,0,0,0,-1,657,351,0,0
-560,673,0,0,0,0,0,0,0,0,0,-1,664,351,0,0
-553,673,0,0,0,0,0,0,0,0,0,-1,671,351,0,0
-546,673,0,0,0,0,0,0,0,0,0,-1,678,351,0,0
-539,673,0,0,0,0,0,0,0,0,0,-1,685,351,0,0
-532,673,0,0,0,0,0,0,0,0,0,-1,692,351,0,0
-525,673,0,0,0,0,0,0,0,0,0,-1,699,351,0,0
-518,673,0,0,0,0,0,0,0,0,0,-1,706,351,0,0
-511,673,0,0,0,0,0,0,0,0,0,-1,713,351,0,0
-504,673,0,0,0,0,0,0,0,0,0,-1,720,351,0,0
-497,673,0,0,0,0,0,0,0,0,0,-1,727,351,0,0
-490,673,0,0,0,0,0,0,0,0,0,-1,734,351,0,0
-483,673,0,0,0,0,0,0,0,0,0,-1,741,351,0,0
-476,673,0,0,0,0,0,0,0,0,0,-1,748,351,0,0
-469,673,0,0,0,0,0,0,0,0,0,-1,755,351,0,0
-462,673,0,0,0,0,0,0,0,0,0,-1,762,351,0,0
-455,673,0,0,0,0,0,0,0,0,0,-1,769,351,0,0
-448,673,0,0,0,0,0,0,0,0,0,-1,776,351,0,0
-441,673,0,0,0,0,0,0,0,0,0,-1,783,351,0,0
-434,673,0,0,0,0,0,0,0,0,0,-1,790,351,0,0
-427,673,0,0,0,0,0,0,0,0,0,-1,797,351,0,0
-420,673,0,0,0,0,0,0,0,0,0,-1,804,351,0,0
-413,673,0,0,0,0,0,0,0,0,0,-1,811,351,0,0
-406,673,0,0,0,0,0,0,0,0,0,-1,818,351,0,0
-399,673,0,0,0,0,0,0,0,0,0,-1,825,351,0,0
-392,673,0,0,0,0,0,0,0,0,0,-1,832,351,0,0
-385,673,0,0,0,0,0,0,0,0,0,-1,839,351,0,0
-378,673,0,0,0,0,0,0,0,0,0,-1,846,351,0,0
-371,673,0,0,0,0,0,0,0,0,0,-1,853,351,0,0
-364,673,0,0,0,0,0,0,0,0,0,-1,860,351,0,0
-357,673,0,0,0,0,0,0,0,0,0,-1,867,351,0,0
-350,673,0,0,0,0,0,0,0,0,0,-1,874,351,0,0
-343,673,0,0,0,0,0,0,0,0,0,-1,881,351,0,0
-336,673,0,0,0,0,0,0,0,0,0,-1,888,351,0,0
-329,673,0,0,0,0,0,0,0,0,0,-1,895,351,0,0
-322,673,0,0,0,0,0,0,0,0,0,-1,902,351,0,0
-315,673,0,0,0,0,0,0,0,0,0,-1,909,351,0,0
-308,673,0,0,0,0,0,0,0,0,0,-1,916,351,0,0
-301,673,0,0,0,0,0,0,0,0,0,-1,923,351,0,0
-294,673,0,0,0,0,0,0,0,0,0,-1,930,351,0,0
-287,673,0,0,0,0,0,0,0,0,0,-1,937,351,0,0
-280,673,0,0,0,0,0,0,0,0,0,-1,944,351,0,0
-273,673,0,0,0,0,0,0,0,0,0,-1,951,351,0,0
-266,673,0,0,0,0,0,0,0,0,0,-1,958,351,0,0
-259,673,0,0,0,0,0,0,0,0,0,-1,965,351,0,0
-252,673,0,0,0,0,0,0,0,0,0,-1,972,351,0,0
-245,673,0,0,0,0,0,0,0,0,0,-1,979,351,0,0
-238,673,0,0,0,0,0,0,0,0,0,-1,986,351,0,0
-231,673,0,0,0,0,0,0,0,0,0,-1,993,351,0,0
-224,673,0,0,0,0,0,0,0,0,0,-1,1000,351,0,0
-217,673,0,0,0,0,0,0,0,0,0,-1,1007,351,0,0
-210,673,0,0,0,0,0,0,0,0,0,-1,1014,351,0,0
-203,673,0,0,0,0,0,0,0,0,0,-1,1021,351,0,0
-196,673,0,0,0,0,0,0,0,0,0,-1,1028,351,0,0
-189,673,0,0,0,0,0,0,0,0,0,-1,1035,351,0,0
-182,673,0,0,0,0,0,0,0,0,0,-1,1042,351,0,0
-175,673,4.49194,-22.1735,0,0,0,0,0,0,0,-1,1049,351,4.4919,22.1735
-168,673,2.22217,-24.2789,0,0,0,0,0,0,0,-1,1056,351,2.22215,24.2789
-161,673,2.21057,-25.5725,0,0,0,0,0,0,0,-1,1063,351,2.21056,25.5725
-154,673,5.51123,-24.7143,0,0,0,0,0,0,0,-1,1070,351,5.51119,24.7143
-147,673,1.23047,-22.5571,0,0,0,0,0,0,0,-1,1077,351,1.23048,22.5571
-140,673,1.35962,-22.2957,0,0,0,0,0,0,0,-1,1084,351,1.35956,22.2957
-133,673,1.41809,-21.8738,0,0,0,0,0,0,0,-1,1091,351,1.41813,21.8738
-126,673,4.68652,-24.341,0,0,0,0,0,0,0,-1,1098,351,4.68652,24.341
-119,673,4.74756,-23.5308,0,0,0,0,0,0,0,-1,1105,351,4.74754,23.5308
-112,673,4.76526,-22.7808,0,0,0,0,0,0,0,-1,1112,351,4.76525,22.7808
-105,673,5.17688,-22.2078,0,0,0,0,0,0,0,-1,1119,351,5.17688,22.2078
-98,673,4.96887,-21.0626,0,0,0,0,0,0,0,-1,1126,351,4.96889,21.0626
-91,673,8.84436,-25.6321,0,0,0,0,0,0,0,-1,1133,351,8.8443,25.6321
-84,673,3.7583,-21.209,0,0,0,0,0,0,0,-1,1140,351,3.75834,21.209
-77,673,-1.47424,-16.7029,0,0,0,0,0,0,0,-1,1147,351,-1.47422,16.7029
-70,673,-6.77283,-11.8651,0,0,0,0,0,0,0,-1,1154,351,-6.7728,11.865
-63,673,1.11719,-2.95016,0,0,0,0,0,0,0,-1,1161,351,1.11724,2.95016
-56,673,-6.18872,-9.52338,0,0,0,0,0,0,0,-1,1168,351,-6.18874,9.52336
-49,673,-0.926758,-0.115448,0,0,0,0,0,0,0,-1,1175,351,-0.926732,0.115444
-42,673,-1.15015,0.289917,0,0,0,0,0,0,0,-1,1182,351,-1.15017,-0.289932
-35,673,-0.919556,-1.00711,0,0,0,0,0,0,0,-1,1189,351,-0.919514,1.00711
-28,673,3.19104,-25.0986,0,0,0,0,0,0,0,-1,1196,351,3.19099,25.0986
-21,673,3.91443,-24.9927,0.000808976,0.056946,-0.000469004,0.0569499,0.000805059,-1.56244,0.0377011,0.0494101,1203,351,3.91449,24.9927
-14,673,3.86816,-25.1257,0.000409748,0.0560812,0.000291771,0.0560827,0.000408219,1.56556,0.0372531,0.04594,1210,351,3.86821,25.1257
-7,673,3.65625,-25.6855,0,0,0,0,0,0,0,-1,1217,351,3.65625,25.6855
0,673,3.97375,-25.4751,-0.00101164,0.0513558,0.00153288,0.0514007,-0.00105647,1.54156,0.0346246,0.0449602,1224,351,3.97372,25.4751
7,673,3.87061,-25.4045,-0.00173905,0.0480777,0.00183217,0.048145,-0.00180634,1.53408,0.0327154,0.0462451,1231,351,3.87067,25.4045
14,673,3.8822,-25.3663,-0.00247157,0.044332,0.00204065,0.0444209,-0.00256038,1.52731,0.0305032,0.037342,1238,351,3.88223,25.3663
21,673,3.80481,-25.4742,-0.00303779,0.0408187,0.00217708,0.0409265,-0.0031456,1.52132,0.028391,0.0267443,1245,351,3.80477,25.4742
28,673,3.78772,-25.5474,-0.0031098,0.0373729,0.00200393,0.0374719,-0.00320876,1.52146,0.0261166,0.0195643,1252,351,3.78776,25.5474
35,673,3.80981,-25.5764,-0.00286585,0.0340336,0.00175257,0.0341166,-0.0029489,1.52344,0.0237884,0.0279775,1259,351,3.80978,25.5764
42,673,3.71509,-25.5826,-0.00284905,0.0306687,0.00156861,0.030742,-0.0029223,1.52413,0.0215349,0.0303372,1266,351,3.71515,25.5826
49,673,3.62146,-25.5995,-0.00349295,0.0270555,0.00218113,0.0272104,-0.00364789,1.49988,0.0194705,0.0192258,1273,351,3.6215,25.5995
56,673,3.59912,-25.5784,-0.00422524,0.0255352,0.00189139,0.025655,-0.00434496,1.50758,0.0187205,0.0152997,1280,351,3.59911,25.5784
63,673,3.62769,-25.4717,-0.00463228,0.0242912,0.00187074,0.0244117,-0.00475277,1.50647,0.0180683,0.018602,1287,351,3.62769,25.4717
70,673,3.55872,-25.3953,-0.00515367,0.0241261,0.000717711,0.0241436,-0.00517126,1.5463,0.0180679,0.0297834,1294,351,3.55877,25.3953
77,673,3.71545,-25.2778,-0.00531627,0.0246967,-0.000812172,0.0247187,-0.00533823,-1.54376,0.0185168,0.036754,1301,351,3.7155,25.2778
84,673,3.86292,-25.4941,-0.00620986,0.0245545,-0.00273505,0.0247958,-0.00645112,-1.48281,0.0190486,0.0408317,1308,351,3.86295,25.4941
91,673,3.60229,-25.7037,-0.00708265,0.0257201,-0.00465482,0.0263679,-0.00773039,-1.43253,0.0206436,0.0461519,1315,351,3.60224,25.7037
98,673,3.57263,-25.6118,-0.00757043,0.0268343,-0.00685165,0.0281486,-0.00888472,-1.38128,0.0223246,0.0470634,1322,351,3.57259,25.6117
105,673,3.12024,-25.2353,-0.00796755,0.0287931,-0.0089885,0.0308732,-0.0100477,-1.34338,0.0246244,0.0435774,1329,351,3.12029,25.2353
112,673,3.34436,-24.9041,0,0,0,0,0,0,0,-1,1336,351,3.34441,24.9041
119,673,3.34485,-24.653,0,0,0,0,0,0,0,-1,1343,351,3.34489,24.653
126,673,3.12256,-24.793,-0.0075224,0.0290321,-0.0164008,0.0353118,-0.0138021,-1.20513,0.0292483,0.0417041,1350,351,3.12251,24.793
133,673,3.07788,-24.8325,-0.00708451,0.0279977,-0.0180215,0.0356055,-0.0146922,-1.17134,0.0298644,0.0411045,1357,351,3.07787,24.8325
140,673,3.05286,-24.934,-0.00626583,0.0268144,-0.0189247,0.0354083,-0.0148597,-1.14453,0.0298196,0.0445195,1364,351,3.05287,24.934
147,673,2.95789,-24.9529,-0.00488842,0.0252684,-0.0191881,0.0345937,-0.0142137,-1.11842,0.0289863,0.0432254,1371,351,2.95788,24.9529
154,673,2.97095,-24.747,-0.00342303,0.0233231,-0.0192059,0.0333531,-0.013453,-1.08952,0.0278258,0.0406113,1378,351,2.97098,24.747
161,673,3.0437,-24.446,0,0,0,0,0,0,0,-1,1385,351,3.04376,24.446
168,673,6.87061,1.83954,0,0,0,0,0,0,0,-1,1392,351,6.87063,-1.83953
175,673,6.6228,1.1459,0,0,0,0,0,0,0,-1,1399,351,6.62276,-1.14591
182,673,6.37244,0.796112,0,0,0,0,0,0,0,-1,1406,351,6.3724,-0.796102
189,673,6.12097,0.265472,0,0,0,0,0,0,0,-1,1413,351,6.121,-0.265482
196,673,6.02173,3.12717,0,0,0,0,0,0,0,-1,1420,351,6.02176,-3.12717
203,673,5.04456,1.6351,0,0,0,0,0,0,0,-1,1427,351,5.04455,-1.63509
210,673,4.79224,0.447479,0,0,0,0,0,0,0,-1,1434,351,4.79229,-0.447469
217,673,2.01648,0.972687,0,0,0,0,0,0,0,-1,1441,351,2.01644,-0.972691
224,673,2.3689,-1.80539,0,0,0,0,0,0,0,-1,1448,351,2.36896,1.80539
231,673,2.65857,-2.18497,0,0,0,0,0,0,0,-1,1455,351,2.65852,2.18496
238,673,3.77844,-2.06088,0,0,0,0,0,0,0,-1,1462,351,3.77839,2.06088
245,673,3.5376,-0.190399,0,0,0,0,0,0,0,-1,1469,351,3.53759,0.1904
252,673,3.80518,0.55603,0,0,0,0,0,0,0,-1,1476,351,3.80519,-0.556022
259,673,3.88562,1.29617,0,0,0,0,0,0,0,-1,1483,351,3.88562,-1.29618
266,673,4.22424,2.04834,0,0,0,0,0,0,0,-1,1490,351,4.22429,-2.04834
273,673,6.07886,0.385895,0,0,0,0,0,0,0,-1,1497,351,6.0789,-0.385906
280,673,6.97534,-0.0820007,0,0,0,0,0,0,0,-1,1504,351,6.97536,0.0820122
287,673,7.66968,-0.348541,0,0,0,0,0,0,0,-1,1511,351,7.66969,0.348534
294,673,8.20996,0.28537,0,0,0,0,0,0,0,-1,1518,351,8.20993,-0.28536
301,673,0,0,0,0,0,0,0,0,0,-1,1525,351,0,0
308,673,0,0,0,0,0,0,0,0,0,-1,1532,351,0,0
315,673,0,0,0,0,0,0,0,0,0,-1,1539,351,0,0
322,673,0,0,0,0,0,0,0,0,0,-1,1546,351,0,0
329,673,0,0,0,0,0,0,0,0,0,-1,1553,351,0,0
336,673,0,0,0,0,0,0,0,0,0,-1,1560,351,0,0
343,673,0,0,0,0,0,0,0,0,0,-1,1567,351,0,0
350,673,0,0,0,0,0,0,0,0,0,-1,1574,351,0,0
357,673,0,0,0,0,0,0,0,0,0,-1,1581,351,0,0
364,673,0,0,0,0,0,0,0,0,0,-1,1588,351,0,0
371,673,0,0,0,0,0,0,0,0,0,-1,1595,351,0,0
378,673,0,0,0,0,0,0,0,0,0,-1,1602,351,0,0
385,673,0,0,0,0,0,0,0,0,0,-1,1609,351,0,0
392,673,0,0,0,0,0,0,0,0,0,-1,1616,351,0,0
399,673,0,0,0,0,0,0,0,0,0,-1,1623,351,0,0
406,673,0,0,0,0,0,0,0,0,0,-1,1630,351,0,0
413,673,0,0,0,0,0,0,0,0,0,-1,1637,351,0,0
420,673,0,0,0,0,0,0,0,0,0,-1,1644,351,0,0
427,673,0,0,0,0,0,0,0,0,0,-1,1651,351,0,0
434,673,0,0,0,0,0,0,0,0,0,-1,1658,351,0,0
441,673,0,0,0,0,0,0,0,0,0,-1,1665,351,0,0
448,673,0,0,0,0,0,0,0,0,0,-1,1672,351,0,0
455,673,0,0,0,0,0,0,0,0,0,-1,1679,351,0,0
462,673,0,0,0,0,0,0,0,0,0,-1,1686,351,0,0
469,673,0,0,0,0,0,0,0,0,0,-1,1693,351,0,0
476,673,0,0,0,0,0,0,0,0,0,-1,1700,351,0,0
483,673,0,0,0,0,0,0,0,0,0,-1,1707,351,0,0
490,673,0,0,0,0,0,0,0,0,0,-1,1714,351,0,0
497,673,0,0,0,0,0,0,0,0,0,-1,1721,351,0,0
504,673,0,0,0,0,0,0,0,0,0,-1,1728,351,0,0
511,673,0,0,0,0,0,0,0,0,0,-1,1735,351,0,0
518,673,0,0,0,0,0,0,0,0,0,-1,1742,351,0,0
525,673,0,0,0,0,0,0,0,0,0,-1,1749,351,0,0
532,673,0,0,0,0,0,0,0,0,0,-1,1756,351,0,0
539,673,0,0,0,0,0,0,0,0,0,-1,1763,351,0,0
546,673,0,0,0,0,0,0,0,0,0,-1,1770,351,0,0
553,673,0,0,0,0,0,0,0,0,0,-1,1777,351,0,0
560,673,0,0,0,0,0,0,0,0,0,-1,1784,351,0,0
567,673,0,0,0,0,0,0,0,0,0,-1,1791,351,0,0
574,673,0,0,0,0,0,0,0,0,0,-1,1798,351,0,0
581,673,0,0,0,0,0,0,0,0,0,-1,1805,351,0,0
588,673,0,0,0,0,0,0,0,0,0,-1,1812,351,0,0
595,673,0,0,0,0,0,0,0,0,0,-1,1819,351,0,0
602,673,0,0,0,0,0,0,0,0,0,-1,1826,351,0,0
609,673,0,0,0,0,0,0,0,0,0,-1,1833,351,0,0
616,673,0,0,0,0,0,0,0,0,0,-1,1840,351,0,0
623,673,0,0,0,0,0,0,0,0,0,-1,1847,351,0,0
630,673,0,0,0,0,0,0,0,0,0,-1,1854,351,0,0
637,673,0,0,0,0,0,0,0,0,0,-1,1861,351,0,0
644,673,0,0,0,0,0,0,0,0,0,-1,1868,351,0,0
651,673,0,0,0,0,0,0,0,0,0,-1,1875,351,0,0
658,673,0,0,0,0,0,0,0,0,0,-1,1882,351,0,0
665,673,0,0,0,0,0,0,0,0,0,-1,1889,351,0,0
672,673,0,0,0,0,0,0,0,0,0,-1,1896,351,0,0
679,673,0,0,0,0,0,0,0,0,0,-1,1903,351,0,0
686,673,0,0,0,0,0,0,0,0,0,-1,1910,351,0,0
693,673,0,0,0,0,0,0,0,0,0,-1,1917,351,0,0
700,673,0,0,0,0,0,0,0,0,0,-1,1924,351,0,0
707,673,0,0,0,0,0,0,0,0,0,-1,1931,351,0,0
714,673,0,0,0,0,0,0,0,0,0,-1,1938,351,0,0
721,673,0,0,0,0,0,0,0,0,0,-1,1945,351,0,0
728,673,0,0,0,0,0,0,0,0,0,-1,1952,351,0,0
735,673,0,0,0,0,0,0,0,0,0,-1,1959,351,0,0
742,673,0,0,0,0,0,0,0,0,0,-1,1966,351,0,0
749,673,0,0,0,0,0,0,0,0,0,-1,1973,351,0,0
756,673,0,0,0,0,0,0,0,0,0,-1,1980,351,0,0
763,673,0,0,0,0,0,0,0,0,0,-1,1987,351,0,0
770,673,0,0,0,0,0,0,0,0,0,-1,1994,351,0,0
777,673,0,0,0,0,0,0,0,0,0,-1,2001,351,0,0
784,673,0,0,0,0,0,0,0,0,0,-1,2008,351,0,0
791,673,0,0,0,0,0,0,0,0,0,-1,2015,351,0,0
798,673,0,0,0,0,0,0,0,0,0,-1,2022,351,0,0
805,673,0,0,0,0,0,0,0,0,0,-1,2029,351,0,0
812,673,0,0,0,0,0,0,0,0,0,-1,2036,351,0,0
-700,666,0,0,0,0,0,0,0,0,0,-1,524,358,0,0
-693,666,0,0,0,0,0,0,0,0,0,-1,531,358,0,0
-686,666,0,0,0,0,0,0,0,0,0,-1,538,358,0,0
-679,666,0,0,0,0,0,0,0,0,0,-1,545,358,0,0
-672,666,0,0,0,0,0,0,0,0,0,-1,552,358,0,0
-665,666,0,0,0,0,0,0,0,0,0,-1,559,358,0,0
-658,666,0,0,0,0,0,0,0,0,0,-1,566,358,0,0
-651,666,0,0,0,0,0,0,0,0,0,-1,573,358,0,0
-644,666,0,0,0,0,0,0,0,0,0,-1,580,358,0,0
-637,666,0,0,0,0,0,0,0,0,0,-1,587,358,0,0
-630,666,0,0,0,0,0,0,0,0,0,-1,594,358,0,0
-623,666,0,0,0,0,0,0,0,0,0,-1,601,358,0,0
-616,666,0,0,0,0,0,0,0,0,0,-1,608,358,0,0
-609,666,0,0,0,0,0,0,0,0,0,-1,615,358,0,0
-602,666,0,0,0,0,0,0,0,0,0,-1,622,358,0,0
-595,666,0,0,0,0,0,0,0,0,0,-1,629,358,0,0
-588,666,0,0,0,0,0,0,0,0,0,-1,636,358,0,0
-581,666,0,0,0,0,0,0,0,0,0,-1,643,358,0,0
-574,666,0,0,0,0,0,0,0,0,0,-1,650,358,0,0
-567,666,0,0,0,0,0,0,0,0,0,-1,657,358,0,0
-560,666,0,0,0,0,0,0,0,0,0,-1,664,358,0,0
-553,666,0,0,0,0,0,0,0,0,0,-1,671,358,0,0
-546,666,0,0,0,0,0,0,0,0,0,-1,678,358,0,0
-539,666,0,0,0,0,0,0,0,0,0,-1,685,358,0,0
-532,666,0,0,0,0,0,0,0,0,0,-1,692,358,0,0
-525,666,0,0,0,0,0,0,0,0,0,-1,699,358,0,0
-518,666,0,0,0,0,0,0,0,0,0,-1,706,358,0,0
-511,666,0,0,0,0,0,0,0,0,0,-1,713,358,0,0
-504,666,0,0,0,0,0,0,0,0,0,-1,720,358,0,0
-497,666,0,0,0,0,0,0,0,0,0,-1,727,358,0,0
-490,666,0,0,0,0,0,0,0,0,0,-1,734,358,0,0
-483,666,0,0,0,0,0,0,0,0,0,-1,741,358,0,0
-476,666,0,0,0,0,0,0,0,0,0,-1,748,358,0,0
-469,666,0,0,0,0,0,0,0,0,0,-1,755,358,0,0
-462,666,0,0,0,0,0,0,0,0,0,-1,762,358,0,0
-455,666,0,0,0,0,0,0,0,0,0,-1,769,358,0,0
-448,666,0,0,0,0,0,0,0,0,0,-1,776,358,0,0
-441,666,0,0,0,0,0,0,0,0,0,-1,783,358,0,0
-434,666,0,0,0,0,0,0,0,0,0,-1,790,358,0,0
-427,666,0,0,0,0,0,0,0,0,0,-1,797,358,0,0
-420,666,0,0,0,0,0,0,0,0,0,-1,804,358,0,0
-413,666,0,0,0,0,0,0,0,0,0,-1,811,358,0,0
-406,666,0,0,0,0,0,0,0,0,0,-1,818,358,0,0
-399,666,0,0,0,0,0,0,0,0,0,-1,825,358,0,0
-392,666,0,0,0,0,0,0,0,0,0,-1,832,358,0,0
-385,666,0,0,0,0,0,0,0,0,0,-1,839,358,0,0
-378,666,0,0,0,0,0,0,0,0,0,-1,846,358,0,0
-371,666,0,0,0,0,0,0,0,0,0,-1,853,358,0,0
-364,666,0,0,0,0,0,0,0,0,0,-1,860,358,0,0
-357,666,0,0,0,0,0,0,0,0,0,-1,867,358,0,0
-350,666,0,0,0,0,0,0,0,0,0,-1,874,358,0,0
-343,666,0,0,0,0,0,0,0,0,0,-1,881,358,0,0
-336,666,0,0,0,0,0,0,0,0,0,-1,888,358,0,0
-329,666,0,0,0,0,0,0,0,0,0,-1,895,358,0,0
-322,666,0,0,0,0,0,0,0,0,0,-1,902,358,0,0
-315,666,0,0,0,0,0,0,0,0,0,-1,909,358,0,0
-308,666,0,0,0,0,0,0,0,0,0,-1,916,358,0,0
-301,666,0,0,0,0,0,0,0,0,0,-1,923,358,0,0
-294,666,0,0,0,0,0,0,0,0,0,-1,930,358,0,0
-287,666,0,0,0,0,0,0,0,0,0,-1,937,358,0,0
-280,666,0,0,0,0,0,0,0,0,0,-1,944,358,0,0
-273,666,0,0,0,0,0,0,0,0,0,-1,951,358,0,0
-266,666,0,0,0,0,0,0,0,0,0,-1,958,358,0,0
-259,666,0,0,0,0,0,0,0,0,0,-1,965,358,0,0
-252,666,0,0,0,0,0,0,0,0,0,-1,972,358,0,0
-245,666,0,0,0,0,0,0,0,0,0,-1,979,358,0,0
-238,666,0,0,0,0,0,0,0,0,0,-1,986,358,0,0
-231,666,0,0,0,0,0,0,0,0,0,-1,993,358,0,0
-224,666,0,0,0,0,0,0,0,0,0,-1,1000,358,0,0
-217,666,0,0,0,0,0,0,0,0,0,-1,1007,358,0,0
-210,666,0,0,0,0,0,0,0,0,0,-1,1014,358,0,0
-203,666,0,0,0,0,0,0,0,0,0,-1,1021,358,0,0
-196,666,5.1001,-23.2438,0,0,0,0,0,0,0,-1,1028,358,5.10008,23.2438
-189,666,5.17297,-22.8721,0,0,0,0,0,0,0,-1,1035,358,5.17298,22.8721
-182,666,4.96997,-22.3043,0,0,0,0,0,0,0,-1,1042,358,4.96995,22.3043
-175,666,4.61499,-22.041,0,0,0,0,0,0,0,-1,1049,358,4.61493,22.041
-168,666,3.05176,-23.3882,0,0,0,0,0,0,0,-1,1056,358,3.05178,23.3882
-161,666,2.25952,-24.455,0,0,0,0,0,0,0,-1,1063,358,2.25956,24.455
-154,666,1.86121,-22.9859,0,0,0,0,0,0,0,-1,1070,358,1.86119,22.9859
-147,666,3.39001,-24.2715,0,0,0,0,0,0,0,-1,1077,358,3.39003,24.2715
-140,666,3.61792,-23.6114,0,0,0,0,0,0,0,-1,1084,358,3.61787,23.6113
-133,666,3.47144,-23.243,0,0,0,0,0,0,0,-1,1091,358,3.47141,23.243
-126,666,4.16479,-23.4496,0,0,0,0,0,0,0,-1,1098,358,4.16474,23.4496
-119,666,4.51526,-24.2577,0,0,0,0,0,0,0,-1,1105,358,4.51529,24.2577
-112,666,3.9563,-23.3433,0,0,0,0,0,0,0,-1,1112,358,3.95631,23.3433
-105,666,4.49048,-22.7572,0,0,0,0,0,0,0,-1,1119,358,4.49053,22.7572
-98,666,4.75623,-21.7956,0,0,0,0,0,0,0,-1,1126,358,4.75622,21.7956
-91,666,9.36877,-22.9226,0,0,0,0,0,0,0,-1,1133,358,9.36872,22.9226
-84,666,4.49243,-18.558,0,0,0,0,0,0,0,-1,1140,358,4.49245,18.558
-77,666,-0.62207,-14.6087,0,0,0,0,0,0,0,-1,1147,358,-0.622121,14.6087
-70,666,2.05957,-6.51086,0,0,0,0,0,0,0,-1,1154,358,2.05959,6.51088
-63,666,1.47485,-3.79593,0,0,0,0,0,0,0,-1,1161,358,1.47481,3.79593
-56,666,0.424683,-2.04132,0,0,0,0,0,0,0,-1,1168,358,0.424665,2.04132
-49,666,0.754395,-2.23169,0,0,0,0,0,0,0,-1,1175,358,0.754383,2.23169
-42,666,1.34473,-3.53897,0,0,0,0,0,0,0,-1,1182,358,1.34476,3.53896
-35,666,3.745,-25.3157,0,0,0,0,0,0,0,-1,1189,358,3.74499,25.3157
-28,666,4.0614,-25.1125,0,0,0,0,0,0,0,-1,1196,358,4.06141,25.1125
-21,666,4.00977,-25.2107,-0.000793418,0.0411511,-0.00057791,0.0411591,-0.000801377,-1.55702,0.0277104,0.0327828,1203,358,4.00971,25.2107
-14,666,3.93616,-25.3017,-0.000844659,0.0409892,-0.000149869,0.0409897,-0.000845199,-1.56721,0.0276125,0.0265131,1210,358,3.93618,25.3017
-7,666,3.88306,-25.3876,-0.00118142,0.0403152,0.000358396,0.0403183,-0.00118451,1.56216,0.0272823,0.0169499,1217,358,3.88301,25.3876
0,666,3.87573,-25.4648,-0.00153147,0.0382824,0.000598094,0.0382914,-0.00154046,1.55578,0.0260563,0.0123548,1224,358,3.87576,25.4647
7,666,3.82104,-25.5247,-0.00189252,0.0362068,0.00077397,0.0362225,-0.00190824,1.55049,0.0248089,0.0166034,1231,358,3.82104,25.5247
14,666,3.79834,-25.5348,-0.00229315,0.0337416,0.00092261,0.0337652,-0.00231675,1.54522,0.0233208,0.0157518,1238,358,3.79834,25.5348
21,666,3.7373,-25.6145,-0.00259418,0.0314212,0.00105364,0.0314538,-0.00262679,1.53986,0.0218974,0.0120741,1245,358,3.73727,25.6145
28,666,3.71631,-25.6827,-0.00253598,0.0291064,0.0009891,0.0291373,-0.00256686,1.53958,0.0203345,0.012963,1252,358,3.71635,25.6827
35,666,3.73267,-25.6668,-0.00230287,0.0268115,0.000918636,0.0268404,-0.00233183,1.53929,0.0187194,0.0117046,1259,358,3.73262,25.6668
42,666,3.69568,-25.6908,-0.00228758,0.0244286,0.000900562,0.0244589,-0.0023179,1.53714,0.0171309,0.0123946,1266,358,3.69572,25.6908
49,666,3.63818,-25.7151,-0.00278634,0.0217675,0.00152373,0.0218617,-0.00288053,1.50906,0.0156234,0.0111878,1273,358,3.63814,25.7151
56,666,3.60437,-25.7205,-0.00337168,0.0207135,0.0014619,0.0208019,-0.00346009,1.51039,0.0151535,0.0123737,1280,358,3.60435,25.7205
63,666,3.56628,-25.7444,-0.0037194,0.0197909,0.00161647,0.0199016,-0.00383002,1.50247,0.0147115,0.014165,1287,358,3.56633,25.7444
70,666,3.54553,-25.7016,-0.0041615,0.0196428,0.00098922,0.0196838,-0.00420253,1.52934,0.0147247,0.0148841,1294,358,3.54554,25.7016
77,666,3.55627,-25.6434,-0.00436534,0.0200813,7.26262e-05,0.0200815,-0.00436555,1.56783,0.0150554,0.0189572,1301,358,3.55631,25.6434
84,666,3.56995,-25.6513,-0.00512576,0.0200929,-0.00113445,0.0201438,-0.00517669,-1.52593,0.0154467,0.025894,1308,358,3.56991,25.6513
91,666,3.46582,-25.642,-0.0058255,0.0209177,-0.00251946,0.021153,-0.00606079,-1.47768,0.0164976,0.0236246,1315,358,3.46584,25.642
98,666,3.35559,-25.5729,-0.00620863,0.0216279,-0.00410092,0.0222195,-0.00680021,-1.42753,0.0175252,0.0195895,1322,358,3.35563,25.5729
105,666,3.31665,-25.4692,-0.00651433,0.0228579,-0.00565752,0.0239099,-0.00756637,-1.38694,0.0189718,0.0203736,1329,358,3.31663,25.4692
112,666,3.40137,-25.263,-0.00658419,0.0233794,-0.00748964,0.0251472,-0.00835199,-1.33901,0.0201347,0.0411203,1336,358,3.40136,25.263
119,666,3.33655,-25.0908,-0.00644705,0.0233934,-0.00942591,0.0261215,-0.00917508,-1.28908,0.0211469,0.0444111,1343,358,3.33656,25.0908
126,666,3.21362,-25.0684,-0.00613769,0.022843,-0.0109901,0.0265393,-0.00983394,-1.24636,0.0217258,0.0269772,1350,358,3.21367,25.0684
133,666,3.18262,-25.028,-0.00584592,0.0219902,-0.0121309,0.0265348,-0.0103905,-1.21235,0.0219876,0.0237228,1357,358,3.18259,25.028
140,666,3.13721,-25.0179,-0.00525601,0.0210453,-0.0127028,0.0261786,-0.0103893,-1.18676,0.0217586,0.0240369,1364,358,3.1372,25.0179
147,666,3.11157,-24.9423,-0.00425601,0.0199174,-0.0128108,0.0254433,-0.00978192,-1.16356,0.0209966,0.0221438,1371,358,3.11157,24.9423
154,666,3.09583,-24.7199,-0.00312231,0.0183998,-0.012874,0.0244179,-0.00914044,-1.13352,0.020033,0.018464,1378,358,3.09577,24.7199
161,666,3.12793,-24.5993,-0.0021471,0.0165613,-0.0116782,0.0221697,-0.00775554,-1.12307,0.017933,0.0261946,1385,358,3.12795,24.5993
168,666,3.15601,-24.6254,0,0,0,0,0,0,0,-1,1392,358,3.15602,24.6254
175,666,3.31299,-24.6162,0,0,0,0,0,0,0,-1,1399,358,3.31301,24.6162
182,666,2.60876,-5.17068,0,0,0,0,0,0,0,-1,1406,358,2.6088,5.17068
189,666,2.46973,-5.49979,0,0,0,0,0,0,0,-1,1413,358,2.46975,5.49979
196,666,2.32458,-5.23651,0,0,0,0,0,0,0,-1,1420,358,2.32461,5.23653
203,666,2.28064,-3.88004,0,0,0,0,0,0,0,-1,1427,358,2.28059,3.88003
210,666,3.02576,-5.83548,0,0,0,0,0,0,0,-1,1434,358,3.02581,5.83547
217,666,2.30444,-5.36011,0,0,0,0,0,0,0,-1,1441,358,2.30447,5.3601
224,666,1.82324,-6.03101,0,0,0,0,0,0,0,-1,1448,358,1.82322,6.031
231,666,2.29797,-10.1093,0,0,0,0,0,0,0,-1,1455,358,2.29801,10.1093
238,666,2.52429,-6.10568,0,0,0,0,0,0,0,-1,1462,358,2.52423,6.10567
245,666,4.53345,-1.38205,0,0,0,0,0,0,0,-1,1469,358,4.53349,1.38204
252,666,4.77405,-0.246979,0,0,0,0,0,0,0,-1,1476,358,4.77405,0.246993
259,666,4.83655,1.14087,0,0,0,0,0,0,0,-1,1483,358,4.83652,-1.14087
266,666,6.14148,0.749512,0,0,0,0,0,0,0,-1,1490,358,6.14144,-0.749519
273,666,2.61304,-1.53772,0,0,0,0,0,0,0,-1,1497,358,2.613,1.53773
280,666,8.70898,-0.836975,0,0,0,0,0,0,0,-1,1504,358,8.70894,0.836988
287,666,2.27039,-4.09058,0,0,0,0,0,0,0,-1,1511,358,2.27042,4.09059
294,666,5.04211,-6.10623,0,0,0,0,0,0,0,-1,1518,358,5.04208,6.10623
301,666,-3.68323,-24.0669,0,0,0,0,0,0,0,-1,1525,358,-3.68322,24.0669
308,666,1.08496,-1.87576,0,0,0,0,0,0,0,-1,1532,358,1.08491,1.87575
315,666,1.76294,-0.284027,0,0,0,0,0,0,0,-1,1539,358,1.76291,0.284016
322,666,0,0,0,0,0,0,0,0,0,-1,1546,358,0,0
329,666,0,0,0,0,0,0,0,0,0,-1,1553,358,0,0
336,666,0,0,0,0,0,0,0,0,0,-1,1560,358,0,0
343,666,0,0,0,0,0,0,0,0,0,-1,1567,358,0,0
350,666,0,0,0,0,0,0,0,0,0,-1,1574,358,0,0
357,666,0,0,0,0,0,0,0,0,0,-1,1581,358,0,0
364,666,0,0,0,0,0,0,0,0,0,-1,1588,358,0,0
371,666,0,0,0,0,0,0,0,0,0,-1,1595,358,0,0
378,666,0,0,0,0,0,0,0,0,0,-1,1602,358,0,0
385,666,0,0,0,0,0,0,0,0,0,-1,1609,358,0,0
392,666,0,0,0,0,0,0,0,0,0,-1,1616,358,0,0
399,666,0,0,0,0,0,0,0,0,0,-1,1623,358,0,0
406,666,0,0,0,0,0,0,0,0,0,-1,1630,358,0,0
413,666,0,0,0,0,0,0,0,0,0,-1,1637,358,0,0
420,666,0,0,0,0,0,0,0,0,0,-1,1644,358,0,0
427,666,0,0,0,0,0,0,0,0,0,-1,1651,358,0,0
434,666,0,0,0,0,0,0,0,0,0,-1,1658,358,0,0
441,666,0,0,0,0,0,0,0,0,0,-1,1665,358,0,0
448,666,0,0,0,0,0,0,0,0,0,-1,1672,358,0,0
455,666,0,0,0,0,0,0,0,0,0,-1,1679,358,0,0
462,666,0,0,0,0,0,0,0,0,0,-1,1686,358,0,0
469,666,0,0,0,0,0,0,0,0,0,-1,1693,358,0,0
476,666,0,0,0,0,0,0,0,0,0,-1,1700,358,0,0
483,666,0,0,0,0,0,0,0,0,0,-1,1707,358,0,0
490,666,0,0,0,0,0,0,0,0,0,-1,1714,358,0,0
497,666,0,0,0,0,0,0,0,0,0,-1,1721,358,0,0
504,666,0,0,0,0,0,0,0,0,0,-1,1728,358,0,0
511,666,0,0,0,0,0,0,0,0,0,-1,1735,358,0,0
518,666,0,0,0,0,0,0,0,0,0,-1,1742,358,0,0
525,666,0,0,0,0,0,0,0,0,0,-1,1749,358,0,0
532,666,0,0,0,0,0,0,0,0,0,-1,1756,358,0,0
539,666,0,0,0,0,0,0,0,0,0,-1,1763,358,0,0
546,666,0,0,0,0,0,0,0,0,0,-1,1770,358,0,0
553,666,0,0,0,0,0,0,0,0,0,-1,1777,358,0,0
560,666,0,0,0,0,0,0,0,0,0,-1,1784,358,0,0
567,666,0,0,0,0,0,0,0,0,0,-1,1791,358,0,0
574,666,0,0,0,0,0,0,0,0,0,-1,1798,358,0,0
581,666,0,0,0,0,0,0,0,0,0,-1,1805,358,0,0
588,666,0,0,0,0,0,0,0,0,0,-1,1812,358,0,0
595,666,0,0,0,0,0,0,0,0,0,-1,1819,358,0,0
602,666,0,0,0,0,0,0,0,0,0,-1,1826,358,0,0
609,666,0,0,0,0,0,0,0,0,0,-1,1833,358,0,0
616,666,0,0,0,0,0,0,0,0,0,-1,1840,358,0,0
623,666,0,0,0,0,0,0,0,0,0,-1,1847,358,0,0
630,666,0,0,0,0,0,0,0,0,0,-1,1854,358,0,0
637,666,0,0,0,0,0,0,0,0,0,-1,1861,358,0,0
644,666,0,0,0,0,0,0,0,0,0,-1,1868,358,0,0
651,666,0,0,0,0,0,0,0,0,0,-1,1875,358,0,0
658,666,0,0,0,0,0,0,0,0,0,-1,1882,358,0,0
665,666,0,0,0,0,0,0,0,0,0,-1,1889,358,0,0
672,666,0,0,0,0,0,0,0,0,0,-1,1896,358,0,0
679,666,0,0,0,0,0,0,0,0,0,-1,1903,358,0,0
686,666,0,0,0,0,0,0,0,0,0,-1,1910,358,0,0
693,666,0,0,0,0,0,0,0,0,0,-1,1917,358,0,0
700,666,0,0,0,0,0,0,0,0,0,-1,1924,358,0,0
707,666,0,0,0,0,0,0,0,0,0,-1,1931,358,0,0
714,666,0,0,0,0,0,0,0,0,0,-1,1938,358,0,0
721,666,0,0,0,0,0,0,0,0,0,-1,1945,358,0,0
728,666,0,0,0,0,0,0,0,0,0,-1,1952,358,0,0
735,666,0,0,0,0,0,0,0,0,0,-1,1959,358,0,0
742,666,0,0,0,0,0,0,0,0,0,-1,1966,358,0,0
749,666,0,0,0,0,0,0,0,0,0,-1,1973,358,0,0
756,666,0,0,0,0,0,0,0,0,0,-1,1980,358,0,0
763,666,0,0,0,0,0,0,0,0,0,-1,1987,358,0,0
770,666,0,0,0,0,0,0,0,0,0,-1,1994,358,0,0
777,666,0,0,0,0,0,0,0,0,0,-1,2001,358,0,0
784,666,0,0,0,0,0,0,0,0,0,-1,2008,358,0,0
791,666,0,0,0,0,0,0,0,0,0,-1,2015,358,0,0
798,666,0,0,0,0,0,0,0,0,0,-1,2022,358,0,0
805,666,0,0,0,0,0,0,0,0,0,-1,2029,358,0,0
812,666,0,0,0,0,0,0,0,0,0,-1,2036,358,0,0
-700,659,0,0,0,0,0,0,0,0,0,-1,524,365,0,0
-693,659,0,0,0,0,0,0,0,0,0,-1,531,365,0,0
-686,659,0,0,0,0,0,0,0,0,0,-1,538,365,0,0
-679,659,0,0,0,0,0,0,0,0,0,-1,545,365,0,0
-672,659,0,0,0,0,0,0,0,0,0,-1,552,365,0,0
-665,659,0,0,0,0,0,0,0,0,0,-1,559,365,0,0
-658,659,0,0,0,0,0,0,0,0,0,-1,566,365,0,0
-651,659,0,0,0,0,0,0,0,0,0,-1,573,365,0,0
-644,659,0,0,0,0,0,0,0,0,0,-1,580,365,0,0
-637,659,0,0,0,0,0,0,0,0,0,-1,587,365,0,0
-630,659,0,0,0,0,0,0,0,0,0,-1,594,365,0,0
-623,659,0,0,0,0,0,0,0,0,0,-1,601,365,0,0
-616,659,0,0,0,0,0,0,0,0,0,-1,608,365,0,0
-609,659,0,0,0,0,0,0,0,0,0,-1,615,365,0,0
-602,659,0,0,0,0,0,0,0,0,0,-1,622,365,0,0
-595,659,0,0,0,0,0,0,0,0,0,-1,629,365,0,0
-588,659,0,0,0,0,0,0,0,0,0,-1,636,365,0,0
-581,659,0,0,0,0,0,0,0,0,0,-1,643,365,0,0
-574,659,0,0,0,0,0,0,0,0,0,-1,650,365,0,0
-567,659,0,0,0,0,0,0,0,0,0,-1,657,365,0,0
-560,659,0,0,0,0,0,0,0,0,0,-1,664,365,0,0
-553,659,0,0,0,0,0,0,0,0,0,-1,671,365,0,0
-546,659,0,0,0,0,0,0,0,0,0,-1,678,365,0,0
-539,659,0,0,0,0,0,0,0,0,0,-1,685,365,0,0
-532,659,0,0,0,0,0,0,0,0,0,-1,692,365,0,0
-525,659,0,0,0,0,0,0,0,0,0,-1,699,365,0,0
-518,659,0,0,0,0,0,0,0,0,0,-1,706,365,0,0
-511,659,0,0,0,0,0,0,0,0,0,-1,713,365,0,0
-504,659,0,0,0,0,0,0,0,0,0,-1,720,365,0,0
-497,659,0,0,0,0,0,0,0,0,0,-1,727,365,0,0
-490,659,0,0,0,0,0,0,0,0,0,-1,734,365,0,0
-483,659,0,0,0,0,0,0,0,0,0,-1,741,365,0,0
-476,659,0,0,0,0,0,0,0,0,0,-1,748,365,0,0
-469,659,0,0,0,0,0,0,0,0,0,-1,755,365,0,0
-462,659,0,0,0,0,0,0,0,0,0,-1,762,365,0,0
-455,659,0,0,0,0,0,0,0,0,0,-1,769,365,0,0
-448,659,0,0,0,0,0,0,0,0,0,-1,776,365,0,0
-441,659,0,0,0,0,0,0,0,0,0,-1,783,365,0,0
-434,659,0,0,0,0,0,0,0,0,0,-1,790,365,0,0
-427,659,0,0,0,0,0,0,0,0,0,-1,797,365,0,0
-420,659,0,0,0,0,0,0,0,0,0,-1,804,365,0,0
-413,659,0,0,0,0,0,0,0,0,0,-1,811,365,0,0
-406,659,0,0,0,0,0,0,0,0,0,-1,818,365,0,0
-399,659,0,0,0,0,0,0,0,0,0,-1,825,365,0,0
-392,659,0,0,0,0,0,0,0,0,0,-1,832,365,0,0
-385,659,0,0,0,0,0,0,0,0,0,-1,839,365,0,0
-378,659,0,0,0,0,0,0,0,0,0,-1,846,365,0,0
-371,659,0,0,0,0,0,0,0,0,0,-1,853,365,0,0
-364,659,0,0,0,0,0,0,0,0,0,-1,860,365,0,0
-357,659,0,0,0,0,0,0,0,0,0,-1,867,365,0,0
-350,659,0,0,0,0,0,0,0,0,0,-1,874,365,0,0
-343,659,0,0,0,0,0,0,0,0,0,-1,881,365,0,0
-336,659,0,0,0,0,0,0,0,0,0,-1,888,365,0,0
-329,659,0,0,0,0,0,0,0,0,0,-1,895,365,0,0
-322,659,0,0,0,0,0,0,0,0,0,-1,902,365,0,0
-315,659,0,0,0,0,0,0,0,0,0,-1,909,365,0,0
-308,659,0,0,0,0,0,0,0,0,0,-1,916,365,0,0
-301,659,0,0,0,0,0,0,0,0,0,-1,923,365,0,0
-294,659,0,0,0,0,0,0,0,0,0,-1,930,365,0,0
-287,659,0,0,0,0,0,0,0,0,0,-1,937,365,0,0
-280,659,0,0,0,0,0,0,0,0,0,-1,944,365,0,0
-273,659,0,0,0,0,0,0,0,0,0,-1,951,365,0,0
-266,659,0,0,0,0,0,0,0,0,0,-1,958,365,0,0
-259,659,0,0,0,0,0,0,0,0,0,-1,965,365,0,0
-252,659,0,0,0,0,0,0,0,0,0,-1,972,365,0,0
-245,659,0,0,0,0,0,0,0,0,0,-1,979,365,0,0
-238,659,0,0,0,0,0,0,0,0,0,-1,986,365,0,0
-231,659,0,0,0,0,0,0,0,0,0,-1,993,365,0,0
-224,659,0,0,0,0,0,0,0,0,0,-1,1000,365,0,0
-217,659,3.57001,-16.8541,0,0,0,0,0,0,0,-1,1007,365,3.57003,16.8541
-210,659,3.20129,-17.9641,0,0,0,0,0,0,0,-1,1014,365,3.2013,17.9641
-203,659,3.95166,-22.319,0,0,0,0,0,0,0,-1,1021,365,3.95166,22.319
-196,659,4.61292,-21.8292,0,0,0,0,0,0,0,-1,1028,365,4.61293,21.8292
-189,659,4.98706,-21.7021,0,0,0,0,0,0,0,-1,1035,365,4.98712,21.7022
-182,659,4.84436,-21.3565,0,0,0,0,0,0,0,-1,1042,365,4.84438,21.3565
-175,659,4.51208,-21.1544,0,0,0,0,0,0,0,-1,1049,365,4.51209,21.1544
-168,659,3.90027,-22.3343,0,0,0,0,0,0,0,-1,1056,365,3.90026,22.3343
-161,659,3.01892,-23.3352,0,0,0,0,0,0,0,-1,1063,365,3.01898,23.3352
-154,659,3.24658,-23.8698,0,0,0,0,0,0,0,-1,1070,365,3.24653,23.8698
-147,659,3.40112,-23.5034,0,0,0,0,0,0,0,-1,1077,365,3.4011,23.5034
-140,659,3.62927,-22.9576,0,0,0,0,0,0,0,-1,1084,365,3.62932,22.9576
-133,659,3.86853,-22.6079,0,0,0,0,0,0,0,-1,1091,365,3.86851,22.6079
-126,659,3.65161,-22.8321,0,0,0,0,0,0,0,-1,1098,365,3.65164,22.8321
-119,659,3.81409,-23.6006,0,0,0,0,0,0,0,-1,1105,365,3.81412,23.6007
-112,659,3.93103,-23.3788,0.00935837,0.0127382,-0.00419607,0.0155719,0.0065247,-0.97683,0.00902966,0.040473,1112,365,3.93098,23.3788
-105,659,4.09973,-23.0921,0.00785242,0.0147694,-0.0031824,0.0160107,0.00661103,-1.19887,0.00929043,0.0438517,1119,365,4.09976,23.0921
-98,659,4.22778,-23.3868,0,0,0,0,0,0,0,-1,1126,365,4.22782,23.3868
-91,659,4.20776,-20.8654,0,0,0,0,0,0,0,-1,1133,365,4.20777,20.8654
-84,659,2.8584,-17.8303,0,0,0,0,0,0,0,-1,1140,365,2.85836,17.8303
-77,659,2.80139,-15.3457,0,0,0,0,0,0,0,-1,1147,365,2.80139,15.3457
-70,659,2.9353,-12.7028,0,0,0,0,0,0,0,-1,1154,365,2.93533,12.7028
-63,659,2.11267,-9.7796,0,0,0,0,0,0,0,-1,1161,365,2.11266,9.7796
-56,659,2.11182,-9.91541,0,0,0,0,0,0,0,-1,1168,365,2.11178,9.91541
-49,659,3.94238,-24.8616,0,0,0,0,0,0,0,-1,1175,365,3.94242,24.8616
-42,659,3.94653,-25.015,0,0,0,0,0,0,0,-1,1182,365,3.94657,25.015
-35,659,3.88232,-25.1978,-0.000997366,0.0265932,-0.00146424,0.0266707,-0.00107486,-1.51792,0.0181494,0.0446069,1189,365,3.8823,25.1978
-28,659,3.91992,-25.2304,-0.00151461,0.0275038,-0.0010651,0.0275429,-0.00155365,-1.53416,0.0189011,0.0165542,1196,365,3.91988,25.2304
-21,659,3.88745,-25.3285,-0.00148861,0.028875,-0.000563623,0.0288855,-0.00149907,-1.55224,0.0197756,0.0120504,1203,365,3.8875,25.3285
-14,659,3.83716,-25.433,-0.00135591,0.029056,-0.000305896,0.0290591,-0.00135898,-1.56074,0.0198412,0.00936286,1210,365,3.83719,25.433
-7,659,3.81287,-25.5009,-0.00146317,0.0288157,1.09599e-05,0.0288157,-0.00146318,1.57043,0.0197163,0.00892402,1217,365,3.81286,25.5009
0,659,3.80688,-25.5606,-0.00156401,0.0276004,0.000144936,0.0276011,-0.00156473,1.56583,0.0189439,0.00854811,1224,365,3.80683,25.5606
7,659,3.78345,-25.6094,-0.00169262,0.0263201,0.00023646,0.0263221,-0.00169462,1.56236,0.0181393,0.00847191,1231,365,3.78344,25.6094
14,659,3.74634,-25.6309,-0.00188762,0.0247542,0.000313775,0.0247579,-0.00189132,1.55902,0.0171704,0.0107617,1238,365,3.74634,25.6309
21,659,3.72522,-25.6843,-0.00202502,0.0232631,0.000410692,0.0232698,-0.00203169,1.55456,0.0162329,0.0113322,1245,365,3.72526,25.6843
28,659,3.703,-25.7351,-0.00190447,0.0217569,0.000388203,0.0217633,-0.00191084,1.5544,0.0151859,0.0109225,1252,365,3.70305,25.7351
35,659,3.69226,-25.759,-0.0016999,0.0202243,0.00039827,0.0202316,-0.00170713,1.55264,0.0140913,0.0109552,1259,365,3.6922,25.759
42,659,3.67456,-25.7815,-0.0016881,0.0185831,0.000444925,0.0185928,-0.00169786,1.54886,0.0129982,0.0110827,1266,365,3.67453,25.7815
49,659,3.63757,-25.7884,-0.00206686,0.0167,0.000989024,0.016752,-0.00211884,1.51829,0.0119371,0.0110249,1273,365,3.63757,25.7884
56,659,3.59692,-25.7901,-0.00252899,0.0160155,0.00102222,0.0160716,-0.00258516,1.5159,0.011672,0.0142968,1280,365,3.5969,25.7901
63,659,3.5802,-25.8009,-0.00282232,0.0153789,0.00122691,0.0154613,-0.00290466,1.50379,0.0113997,0.0157231,1287,365,3.58022,25.8009
70,659,3.5321,-25.769,-0.00318627,0.015289,0.000914856,0.0153342,-0.00323146,1.52144,0.011453,0.0174,1294,365,3.53207,25.769
77,659,3.50671,-25.7445,-0.00338702,0.0156405,0.000397791,0.0156488,-0.00339533,1.5499,0.0117293,0.0173517,1301,365,3.50673,25.7445
84,659,3.50439,-25.7454,-0.00399663,0.0157348,-0.000325911,0.0157402,-0.00400201,-1.55429,0.0120511,0.0124332,1308,365,3.50434,25.7454
91,659,3.44702,-25.7041,-0.00453978,0.0163195,-0.00128429,0.0163983,-0.00461855,-1.50954,0.0127536,0.0106819,1315,365,3.44707,25.7041
98,659,3.4425,-25.6432,-0.00483241,0.0167605,-0.00236915,0.0170173,-0.0050893,-1.46279,0.0133682,0.00784116,1322,365,3.44245,25.6432
105,659,3.44458,-25.5696,-0.00505431,0.0175054,-0.00344624,0.0180201,-0.00556902,-1.42254,0.0142376,0.00926593,1329,365,3.44453,25.5696
112,659,3.43481,-25.5001,-0.00508854,0.0178303,-0.00469996,0.0187567,-0.00601492,-1.37619,0.0149192,0.0129625,1336,365,3.43485,25.5001
119,659,3.39368,-25.4064,-0.00495054,0.01777,-0.0059802,0.0192479,-0.00642843,-1.32852,0.0154278,0.0146258,1343,365,3.39365,25.4064
126,659,3.32739,-25.296,-0.00473,0.0173411,-0.00705274,0.0194023,-0.00679119,-1.28646,0.0156962,0.0133449,1350,365,3.32739,25.296
133,659,3.28113,-25.2091,-0.00454522,0.0166744,-0.00779958,0.0192328,-0.00710362,-1.25384,0.0157336,0.0122691,1357,365,3.28116,25.2091
140,659,3.2583,-25.1303,-0.00412397,0.0159709,-0.00811595,0.0188393,-0.00699241,-1.23107,0.0154279,0.0100192,1364,365,3.25831,25.1303
147,659,3.25073,-25.0302,-0.00342164,0.0152103,-0.00810859,0.0182449,-0.00645624,-1.21269,0.0147927,0.00875106,1371,365,3.25071,25.0303
154,659,3.22058,-24.8831,-0.00260514,0.0141339,-0.0081285,0.0174315,-0.00590273,-1.1854,0.0140094,0.00942087,1378,365,3.22053,24.8831
161,659,3.21106,-24.7518,-0.00190124,0.0127598,-0.00712615,0.0156527,-0.00479416,-1.18516,0.0123474,0.0111045,1385,365,3.21106,24.7518
168,659,3.21472,-24.6205,-0.00190518,0.0119167,-0.00610082,0.0142242,-0.00421276,-1.20919,0.0111555,0.018368,1392,365,3.21473,24.6205
175,659,3.21582,-24.5073,-0.00202323,0.0104093,-0.00430432,0.0117541,-0.00336799,-1.26798,0.00916733,0.0421615,1399,365,3.21579,24.5073
182,659,3.09412,-24.4451,0,0,0,0,0,0,0,-1,1406,365,3.09406,24.4451
189,659,3.17444,-24.0568,0,0,0,0,0,0,0,-1,1413,365,3.17438,24.0568
196,659,2.41248,-13.4371,0,0,0,0,0,0,0,-1,1420,365,2.41243,13.4371
203,659,2.38623,-12.2163,0,0,0,0,0,0,0,-1,1427,365,2.38617,12.2163
210,659,2.20789,-13.9792,0,0,0,0,0,0,0,-1,1434,365,2.20794,13.9792
217,659,2.24121,-13.487,0,0,0,0,0,0,0,-1,1441,365,2.24116,13.487
224,659,2.3479,-15.2926,0,0,0,0,0,0,0,-1,1448,365,2.34793,15.2926
231,659,2.47974,-17.8629,0,0,0,0,0,0,0,-1,1455,365,2.47976,17.8628
238,659,3.57886,-21.1258,0,0,0,0,0,0,0,-1,1462,365,3.57889,21.1258
245,659,3.12012,-23.1029,0,0,0,0,0,0,0,-1,1469,365,3.12009,23.1029
252,659,2.45972,-18.7531,0,0,0,0,0,0,0,-1,1476,365,2.45976,18.7531
259,659,2.33069,-3.36703,0,0,0,0,0,0,0,-1,1483,365,2.33073,3.36702
266,659,1.72681,-17.183,0,0,0,0,0,0,0,-1,1490,365,1.72683,17.183
273,659,2.4375,-14.5841,0,0,0,0,0,0,0,-1,1497,365,2.43748,14.5841
280,659,1.70947,-9.4129,0,0,0,0,0,0,0,-1,1504,365,1.70952,9.4129
287,659,-2.65515,-20.2185,0,0,0,0,0,0,0,-1,1511,365,-2.65519,20.2185
294,659,-2.28235,-21.3328,0,0,0,0,0,0,0,-1,1518,365,-2.28239,21.3328
301,659,-4.22571,-22.8622,0,0,0,0,0,0,0,-1,1525,365,-4.22574,22.8622
308,659,-1.42358,-23.0574,0,0,0,0,0,0,0,-1,1532,365,-1.42358,23.0574
315,659,2.17102,-2.98474,0,0,0,0,0,0,0,-1,1539,365,2.171,2.98473
322,659,0.382813,-2.2424,0,0,0,0,0,0,0,-1,1546,365,0.382801,2.2424
329,659,0.604004,-1.75998,0,0,0,0,0,0,0,-1,1553,365,0.603966,1.75998
336,659,2.09851,-1.17941,0,0,0,0,0,0,0,-1,1560,365,2.09857,1.17942
343,659,0,0,0,0,0,0,0,0,0,-1,1567,365,0,0
350,659,0,0,0,0,0,0,0,0,0,-1,1574,365,0,0
357,659,0,0,0,0,0,0,0,0,0,-1,1581,365,0,0
364,659,0,0,0,0,0,0,0,0,0,-1,1588,365,0,0
371,659,0,0,0,0,0,0,0,0,0,-1,1595,365,0,0
378,659,0,0,0,0,0,0,0,0,0,-1,1602,365,0,0
385,659,0,0,0,0,0,0,0,0,0,-1,1609,365,0,0
392,659,0,0,0,0,0,0,0,0,0,-1,1616,365,0,0
399,659,0,0,0,0,0,0,0,0,0,-1,1623,365,0,0
406,659,0,0,0,0,0,0,0,0,0,-1,1630,365,0,0
413,659,0,0,0,0,0,0,0,0,0,-1,1637,365,0,0
420,659,0,0,0,0,0,0,0,0,0,-1,1644,365,0,0
427,659,0,0,0,0,0,0,0,0,0,-1,1651,365,0,0
434,659,0,0,0,0,0,0,0,0,0,-1,1658,365,0,0
441,659,0,0,0,0,0,0,0,0,0,-1,1665,365,0,0
448,659,0,0,0,0,0,0,0,0,0,-1,1672,365,0,0
455,659,0,0,0,0,0,0,0,0,0,-1,1679,365,0,0
462,659,0,0,0,0,0,0,0,0,0,-1,1686,365,0,0
469,659,0,0,0,0,0,0,0,0,0,-1,1693,365,0,0
476,659,0,0,0,0,0,0,0,0,0,-1,1700,365,0,0
483,659,0,0,0,0,0,0,0,0,0,-1,1707,365,0,0
490,659,0,0,0,0,0,0,0,0,0,-1,1714,365,0,0
497,659,0,0,0,0,0,0,0,0,0,-1,1721,365,0,0
504,659,0,0,0,0,0,0,0,0,0,-1,1728,365,0,0
511,659,0,0,0,0,0,0,0,0,0,-1,1735,365,0,0
518,659,0,0,0,0,0,0,0,0,0,-1,1742,365,0,0
525,659,0,0,0,0,0,0,0,0,0,-1,1749,365,0,0
532,659,0,0,0,0,0,0,0,0,0,-1,1756,365,0,0
539,659,0,0,0,0,0,0,0,0,0,-1,1763,365,0,0
546,659,0,0,0,0,0,0,0,0,0,-1,1770,365,0,0
553,659,0,0,0,0,0,0,0,0,0,-1,1777,365,0,0
560,659,0,0,0,0,0,0,0,0,0,-1,1784,365,0,0
567,659,0,0,0,0,0,0,0,0,0,-1,1791,365,0,0
574,659,0,0,0,0,0,0,0,0,0,-1,1798,365,0,0
581,659,0,0,0,0,0,0,0,0,0,-1,1805,365,0,0
588,659,0,0,0,0,0,0,0,0,0,-1,1812,365,0,0
595,659,0,0,0,0,0,0,0,0,0,-1,1819,365,0,0
602,659,0,0,0,0,0,0,0,0,0,-1,1826,365,0,0
609,659,0,0,0,0,0,0,0,0,0,-1,1833,365,0,0
616,659,0,0,0,0,0,0,0,0,0,-1,1840,365,0,0
623,659,0,0,0,0,0,0,0,0,0,-1,1847,365,0,0
630,659,0,0,0,0,0,0,0,0,0,-1,1854,365,0,0
637,659,0,0,0,0,0,0,0,0,0,-1,1861,365,0,0
644,659,0,0,0,0,0,0,0,0,0,-1,1868,365,0,0
651,659,0,0,0,0,0,0,0,0,0,-1,1875,365,0,0
658,659,0,0,0,0,0,0,0,0,0,-1,1882,365,0,0
665,659,0,0,0,0,0,0,0,0,0,-1,1889,365,0,0
672,659,0,0,0,0,0,0,0,0,0,-1,1896,365,0,0
679,659,0,0,0,0,0,0,0,0,0,-1,1903,365,0,0
686,659,0,0,0,0,0,0,0,0,0,-1,1910,365,0,0
693,659,0,0,0,0,0,0,0,0,0,-1,1917,365,0,0
700,659,0,0,0,0,0,0,0,0,0,-1,1924,365,0,0
707,659,0,0,0,0,0,0,0,0,0,-1,1931,365,0,0
714,659,0,0,0,0,0,0,0,0,0,-1,1938,365,0,0
721,659,0,0,0,0,0,0,0,0,0,-1,1945,365,0,0
728,659,0,0,0,0,0,0,0,0,0,-1,1952,365,0,0
735,659,0,0,0,0,0,0,0,0,0,-1,1959,365,0,0
742,659,0,0,0,0,0,0,0,0,0,-1,1966,365,0,0
749,659,0,0,0,0,0,0,0,0,0,-1,1973,365,0,0
756,659,0,0,0,0,0,0,0,0,0,-1,1980,365,0,0
763,659,0,0,0,0,0,0,0,0,0,-1,1987,365,0,0
770,659,0,0,0,0,0,0,0,0,0,-1,1994,365,0,0
777,659,0,0,0,0,0,0,0,0,0,-1,2001,365,0,0
784,659,0,0,0,0,0,0,0,0,0,-1,2008,365,0,0
791,659,0,0,0,0,0,0,0,0,0,-1,2015,365,0,0
798,659,0,0,0,0,0,0,0,0,0,-1,2022,365,0,0
805,659,0,0,0,0,0,0,0,0,0,-1,2029,365,0,0
812,659,0,0,0,0,0,0,0,0,0,-1,2036,365,0,0
-700,652,0,0,0,0,0,0,0,0,0,-1,524,372,0,0
-693,652,0,0,0,0,0,0,0,0,0,-1,531,372,0,0
-686,652,0,0,0,0,0,0,0,0,0,-1,538,372,0,0
-679,652,0,0,0,0,0,0,0,0,0,-1,545,372,0,0
-672,652,0,0,0,0,0,0,0,0,0,-1,552,372,0,0
-665,652,0,0,0,0,0,0,0,0,0,-1,559,372,0,0
-658,652,0,0,0,0,0,0,0,0,0,-1,566,372,0,0
-651,652,0,0,0,0,0,0,0,0,0,-1,573,372,0,0
-644,652,0,0,0,0,0,0,0,0,0,-1,580,372,0,0
-637,652,0,0,0,0,0,0,0,0,0,-1,587,372,0,0
-630,652,0,0,0,0,0,0,0,0,0,-1,594,372,0,0
-623,652,0,0,0,0,0,0,0,0,0,-1,601,372,0,0
-616,652,0,0,0,0,0,0,0,0,0,-1,608,372,0,0
-609,652,0,0,0,0,0,0,0,0,0,-1,615,372,0,0
-602,652,0,0,0,0,0,0,0,0,0,-1,622,372,0,0
-595,652,0,0,0,0,0,0,0,0,0,-1,629,372,0,0
-588,652,0,0,0,0,0,0,0,0,0,-1,636,372,0,0
-581,652,0,0,0,0,0,0,0,0,0,-1,643,372,0,0
-574,652,0,0,0,0,0,0,0,0,0,-1,650,372,0,0
-567,652,0,0,0,0,0,0,0,0,0,-1,657,372,0,0
-560,652,0,0,0,0,0,0,0,0,0,-1,664,372,0,0
-553,652,0,0,0,0,0,0,0,0,0,-1,671,372,0,0
-546,652,0,0,0,0,0,0,0,0,0,-1,678,372,0,0
-539,652,0,0,0,0,0,0,0,0,0,-1,685,372,0,0
-532,652,0,0,0,0,0,0,0,0,0,-1,692,372,0,0
-525,652,0,0,0,0,0,0,0,0,0,-1,699,372,0,0
-518,652,0,0,0,0,0,0,0,0,0,-1,706,372,0,0
-511,652,0,0,0,0,0,0,0,0,0,-1,713,372,0,0
-504,652,0,0,0,0,0,0,0,0,0,-1,720,372,0,0
-497,652,0,0,0,0,0,0,0,0,0,-1,727,372,0,0
-490,652,0,0,0,0,0,0,0,0,0,-1,734,372,0,0
-483,652,0,0,0,0,0,0,0,0,0,-1,741,372,0,0
-476,652,0,0,0,0,0,0,0,0,0,-1,748,372,0,0
-469,652,0,0,0,0,0,0,0,0,0,-1,755,372,0,0
-462,652,0,0,0,0,0,0,0,0,0,-1,762,372,0,0
-455,652,0,0,0,0,0,0,0,0,0,-1,769,372,0,0
-448,652,0,0,0,0,0,0,0,0,0,-1,776,372,0,0
-441,652,0,0,0,0,0,0,0,0,0,-1,783,372,0,0
-434,652,0,0,0,0,0,0,0,0,0,-1,790,372,0,0
-427,652,0,0,0,0,0,0,0,0,0,-1,797,372,0,0
-420,652,0,0,0,0,0,0,0,0,0,-1,804,372,0,0
-413,652,0,0,0,0,0,0,0,0,0,-1,811,372,0,0
-406,652,0,0,0,0,0,0,0,0,0,-1,818,372,0,0
-399,652,0,0,0,0,0,0,0,0,0,-1,825,372,0,0
-392,652,0,0,0,0,0,0,0,0,0,-1,832,372,0,0
-385,652,0,0,0,0,0,0,0,0,0,-1,839,372,0,0
-378,652,0,0,0,0,0,0,0,0,0,-1,846,372,0,0
-371,652,0,0,0,0,0,0,0,0,0,-1,853,372,0,0
-364,652,0,0,0,0,0,0,0,0,0,-1,860,372,0,0
-357,652,0,0,0,0,0,0,0,0,0,-1,867,372,0,0
-350,652,0,0,0,0,0,0,0,0,0,-1,874,372,0,0
-343,652,0,0,0,0,0,0,0,0,0,-1,881,372,0,0
-336,652,0,0,0,0,0,0,0,0,0,-1,888,372,0,0
-329,652,0,0,0,0,0,0,0,0,0,-1,895,372,0,0
-322,652,0,0,0,0,0,0,0,0,0,-1,902,372,0,0
-315,652,0,0,0,0,0,0,0,0,0,-1,909,372,0,0
-308,652,0,0,0,0,0,0,0,0,0,-1,916,372,0,0
-301,652,0,0,0,0,0,0,0,0,0,-1,923,372,0,0
-294,652,0,0,0,0,0,0,0,0,0,-1,930,372,0,0
-287,652,0,0,0,0,0,0,0,0,0,-1,937,372,0,0
-280,652,0,0,0,0,0,0,0,0,0,-1,944,372,0,0
-273,652,0,0,0,0,0,0,0,0,0,-1,951,372,0,0
-266,652,0,0,0,0,0,0,0,0,0,-1,958,372,0,0
-259,652,0,0,0,0,0,0,0,0,0,-1,965,372,0,0
-252,652,0,0,0,0,0,0,0,0,0,-1,972,372,0,0
-245,652,0,0,0,0,0,0,0,0,0,-1,979,372,0,0
-238,652,0,0,0,0,0,0,0,0,0,-1,986,372,0,0
-231,652,5.28143,-16.9447,0,0,0,0,0,0,0,-1,993,372,5.28146,16.9447
-224,652,9.47449,-18.002,0,0,0,0,0,0,0,-1,1000,372,9.47449,18.002
-217,652,2.88489,-16.6299,0,0,0,0,0,0,0,-1,1007,372,2.88488,16.6299
-210,652,2.83881,-19.5396,0,0,0,0,0,0,0,-1,1014,372,2.83878,19.5396
-203,652,4.10132,-21.9535,0,0,0,0,0,0,0,-1,1021,372,4.10132,21.9535
-196,652,4.27429,-21.2404,0,0,0,0,0,0,0,-1,1028,372,4.27429,21.2404
-189,652,3.99426,-21.8212,0,0,0,0,0,0,0,-1,1035,372,3.99424,21.8212
-182,652,3.85583,-22.0994,0,0,0,0,0,0,0,-1,1042,372,3.8558,22.0994
-175,652,3.69666,-21.1419,0,0,0,0,0,0,0,-1,1049,372,3.69663,21.1419
-168,652,3.79504,-21.8428,0,0,0,0,0,0,0,-1,1056,372,3.79501,21.8428
-161,652,3.56396,-22.8107,0,0,0,0,0,0,0,-1,1063,372,3.56399,22.8107
-154,652,4.10168,-22.8918,0,0,0,0,0,0,0,-1,1070,372,4.10169,22.8918
-147,652,3.36157,-22.8665,0,0,0,0,0,0,0,-1,1077,372,3.36162,22.8665
-140,652,3.61804,-22.6729,0.00565794,-0.00141597,-0.00311331,0.00683296,-0.00259099,-0.360891,0.00562166,0.044674,1084,372,3.6181,22.6729
-133,652,3.84644,-22.5546,0.00684991,0.00135736,-0.00502783,0.0098326,-0.00162534,-0.535432,0.00715862,0.0435238,1091,372,3.84645,22.5546
-126,652,3.82227,-22.7731,0.00719415,0.00555988,-0.0055546,0.0119914,0.000762635,-0.712367,0.00775256,0.0398766,1098,372,3.82228,22.7731
-119,652,4.15039,-23.0529,0.00653693,0.00802089,-0.00459679,0.0119352,0.00262262,-0.865414,0.00724264,0.035142,1105,372,4.15042,23.0529
-112,652,4.12646,-23.2631,0.00582865,0.00983301,-0.00388204,0.0121988,0.00346288,-1.02348,0.00725898,0.0269378,1112,372,4.12645,23.2631
-105,652,4.07629,-23.3545,0.00474834,0.0114129,-0.00303207,0.0125859,0.00357534,-1.20166,0.00748891,0.0251093,1119,372,4.07628,23.3545
-98,652,4.07336,-23.5948,0.00359248,0.0117096,-0.00236209,0.0123469,0.00295515,-1.30726,0.00744437,0.0333468,1126,372,4.07331,23.5948
-91,652,4.0387,-23.6863,0,0,0,0,0,0,0,-1,1133,372,4.03873,23.6863
-84,652,4.02893,-23.9772,0,0,0,0,0,0,0,-1,1140,372,4.0289,23.9772
-77,652,3.9707,-24.234,0,0,0,0,0,0,0,-1,1147,372,3.97066,24.234
-70,652,3.96863,-24.4463,0,0,0,0,0,0,0,-1,1154,372,3.96861,24.4463
-63,652,3.96729,-24.6131,0,0,0,0,0,0,0,-1,1161,372,3.96734,24.6131
-56,652,3.88745,-24.7635,0,0,0,0,0,0,0,-1,1168,372,3.8875,24.7635
-49,652,3.90161,-24.907,-0.00230142,0.0148211,-0.0018969,0.0150288,-0.00250905,-1.46177,0.0109517,0.0382495,1175,372,3.9016,24.9071
-42,652,3.85742,-25.0011,-0.00182632,0.016577,-0.00151915,0.0167015,-0.00195088,-1.48899,0.0118384,0.0117957,1182,372,3.85739,25.0011
-35,652,3.84692,-25.1152,-0.00156496,0.0178674,-0.00106372,0.0179255,-0.00162302,-1.51627,0.0125264,0.00946946,1189,372,3.84693,25.1152
-28,652,3.82678,-25.2309,-0.00184044,0.0186205,-0.000899439,0.01866,-0.0018799,-1.52695,0.0131116,0.00814455,1196,372,3.82675,25.2309
-21,652,3.7887,-25.3438,-0.00172149,0.0192191,-0.000927947,0.0192602,-0.00176253,-1.5266,0.0134661,0.00809003,1203,372,3.78868,25.3438
-14,652,3.76648,-25.4246,-0.00152079,0.0192324,-0.000836631,0.0192661,-0.00155446,-1.53057,0.0133923,0.00959291,1210,372,3.76653,25.4246
-7,652,3.75208,-25.5154,-0.00149661,0.0189912,-0.000730841,0.0190172,-0.00152265,-1.53518,0.013215,0.0123584,1217,372,3.7521,25.5153
0,652,3.7251,-25.583,-0.00146151,0.0182653,-0.000747265,0.0182936,-0.00148978,-1.53299,0.0127214,0.0126375,1224,372,3.72514,25.583
7,652,3.7157,-25.6131,-0.00146454,0.0174969,-0.000791374,0.0175299,-0.00149751,-1.52916,0.0122164,0.0135482,1231,372,3.71572,25.6131
14,652,3.71497,-25.6631,-0.00152628,0.0165231,-0.000795537,0.0165581,-0.00156127,-1.52683,0.0115942,0.0110552,1238,372,3.71495,25.6631
21,652,3.69116,-25.7317,-0.00155744,0.01565,-0.000741849,0.0156819,-0.00158937,-1.52779,0.0110226,0.0103473,1245,372,3.69115,25.7317
28,652,3.66919,-25.7744,-0.00138805,0.0148107,-0.000712144,0.0148419,-0.0014193,-1.52695,0.0104001,0.0101146,1252,372,3.66923,25.7744
35,652,3.63806,-25.7964,-0.00118531,0.0139583,-0.000604861,0.0139824,-0.00120943,-1.53094,0.0097498,0.0102426,1259,372,3.63806,25.7964
42,652,3.61865,-25.8142,-0.0011404,0.0130079,-0.000441479,0.0130217,-0.00115416,-1.53963,0.00909031,0.0107013,1266,372,3.61869,25.8143
49,652,3.64124,-25.8223,-0.00136689,0.0118836,0.000119309,0.0118847,-0.00136796,1.56179,0.00841628,0.0127179,1273,372,3.64122,25.8223
56,652,3.6134,-25.814,-0.00168174,0.0116157,0.000293007,0.0116221,-0.00168819,1.54878,0.00836778,0.014576,1280,372,3.61334,25.814
63,652,3.5592,-25.8201,-0.00189511,0.0113147,0.000583532,0.0113405,-0.00192084,1.52674,0.00827523,0.0178233,1287,372,3.55926,25.8201
70,652,3.54333,-25.7776,-0.00214782,0.0113446,0.000594092,0.0113707,-0.00217392,1.52688,0.00839941,0.0163761,1294,372,3.54333,25.7775
77,652,3.50269,-25.7786,-0.00230066,0.0116365,0.000457986,0.0116515,-0.00231569,1.53798,0.00864359,0.0154943,1301,372,3.5027,25.7786
84,652,3.51978,-25.7671,-0.00274839,0.0118691,0.000199234,0.0118718,-0.00275111,1.55717,0.00897327,0.012803,1308,372,3.51978,25.7671
91,652,3.47498,-25.7585,-0.00318513,0.0121759,-0.000436314,0.0121883,-0.00319751,-1.54242,0.00937495,0.0155662,1315,372,3.475,25.7586
98,652,3.49438,-25.671,-0.00344548,0.0123011,-0.00112574,0.0123811,-0.00352556,-1.49979,0.00964648,0.0131594,1322,372,3.49434,25.671
105,652,3.48975,-25.5783,-0.003633,0.0125406,-0.0018416,0.0127477,-0.00384005,-1.45884,0.0100267,0.0114379,1329,372,3.48972,25.5783
112,652,3.46252,-25.5111,-0.00367408,0.0126529,-0.00268022,0.0130816,-0.00410281,-1.41218,0.010363,0.0097644,1336,372,3.46256,25.5111
119,652,3.44604,-25.4445,-0.0035842,0.0125766,-0.00351856,0.0133094,-0.00431704,-1.36545,0.0106089,0.0104343,1343,372,3.44602,25.4446
126,652,3.40491,-25.3559,-0.00343784,0.0122493,-0.00423357,0.0133189,-0.00450744,-1.32333,0.0107029,0.0133502,1350,372,3.4049,25.3559
133,652,3.36853,-25.2518,-0.00333155,0.0117585,-0.00470158,0.0131035,-0.00467653,-1.29217,0.0106427,0.0142366,1357,372,3.36858,25.2518
140,652,3.36914,-25.1599,-0.00303522,0.0112901,-0.0048508,0.0127781,-0.00452322,-1.27315,0.010361,0.0103295,1364,372,3.36918,25.1599
147,652,3.36279,-25.0556,-0.00254899,0.0108605,-0.00476698,0.0123824,-0.00407089,-1.26177,0.00989509,0.00896199,1371,372,3.36275,25.0556
154,652,3.33752,-24.9187,-0.00196348,0.0102259,-0.00471919,0.0118394,-0.00357697,-1.24136,0.00931699,0.00972465,1378,372,3.33748,24.9187
161,652,3.31653,-24.7792,-0.00146904,0.00939663,-0.00389475,0.0106485,-0.00272087,-1.25981,0.00815859,0.0113832,1385,372,3.31657,24.7792
168,652,3.29004,-24.6489,-0.00154236,0.00892924,-0.00307927,0.00976761,-0.00238072,-1.30498,0.0074335,0.012001,1392,372,3.28998,24.6489
175,652,3.27148,-24.4904,-0.00168099,0.00800967,-0.00178157,0.00832682,-0.00199814,-1.39462,0.00632339,0.0118921,1399,372,3.27144,24.4904
182,652,3.23389,-24.3636,-0.00174332,0.00698867,-0.000207883,0.00699362,-0.00174826,-1.54701,0.0053414,0.0176249,1406,372,3.23384,24.3636
189,652,3.25415,-24.1977,-0.00178559,0.00624825,0.00129866,0.00645297,-0.0019903,1.41445,0.00509664,0.0295888,1413,372,3.25415,24.1977
196,652,3.21558,-23.9961,0,0,0,0,0,0,0,-1,1420,372,3.21562,23.9961
203,652,3.19373,-23.7993,0,0,0,0,0,0,0,-1,1427,372,3.19369,23.7993
210,652,3.2334,-23.5597,0,0,0,0,0,0,0,-1,1434,372,3.2334,23.5597
217,652,3.16919,-23.4191,0,0,0,0,0,0,0,-1,1441,372,3.16919,23.4191
224,652,3.02087,-23.2599,0,0,0,0,0,0,0,-1,1448,372,3.02088,23.26
231,652,3.01538,-22.8339,0,0,0,0,0,0,0,-1,1455,372,3.01544,22.8339
238,652,3.08826,-22.5345,0,0,0,0,0,0,0,-1,1462,372,3.08826,22.5345
245,652,3.15137,-22.6808,0,0,0,0,0,0,0,-1,1469,372,3.15133,22.6808
252,652,3.11304,-22.2376,0,0,0,0,0,0,0,-1,1476,372,3.11308,22.2376
259,652,2.70691,-21.8064,0,0,0,0,0,0,0,-1,1483,372,2.70685,21.8064
266,652,2.65405,-21.6037,0,0,0,0,0,0,0,-1,1490,372,2.65411,21.6037
273,652,2.79114,-21.3933,0,0,0,0,0,0,0,-1,1497,372,2.79114,21.3933
280,652,3.0022,-21.4316,0,0,0,0,0,0,0,-1,1504,372,3.00225,21.4316
287,652,-1.54138,-18.5103,0,0,0,0,0,0,0,-1,1511,372,-1.54134,18.5103
294,652,-2.07446,-20.7008,0,0,0,0,0,0,0,-1,1518,372,-2.07445,20.7008
301,652,-2.04053,-21.0676,0,0,0,0,0,0,0,-1,1525,372,-2.04048,21.0676
308,652,-2.00647,-21.4343,0,0,0,0,0,0,0,-1,1532,372,-2.00651,21.4343
315,652,1.98474,-19.5504,0,0,0,0,0,0,0,-1,1539,372,1.98475,19.5504
322,652,1.95398,-18.5313,0,0,0,0,0,0,0,-1,1546,372,1.95404,18.5313
329,652,2.76392,-18.8169,0,0,0,0,0,0,0,-1,1553,372,2.76392,18.8169
336,652,1.76904,-14.9183,0,0,0,0,0,0,0,-1,1560,372,1.7691,14.9183
343,652,4.18225,-6.7092,0,0,0,0,0,0,0,-1,1567,372,4.18231,6.70921
350,652,4.64563,-7.2074,0,0,0,0,0,0,0,-1,1574,372,4.6456,7.2074
357,652,0,0,0,0,0,0,0,0,0,-1,1581,372,0,0
364,652,0,0,0,0,0,0,0,0,0,-1,1588,372,0,0
371,652,0,0,0,0,0,0,0,0,0,-1,1595,372,0,0
378,652,0,0,0,0,0,0,0,0,0,-1,1602,372,0,0
385,652,0,0,0,0,0,0,0,0,0,-1,1609,372,0,0
392,652,0,0,0,0,0,0,0,0,0,-1,1616,372,0,0
399,652,0,0,0,0,0,0,0,0,0,-1,1623,372,0,0
406,652,0,0,0,0,0,0,0,0,0,-1,1630,372,0,0
413,652,0,0,0,0,0,0,0,0,0,-1,1637,372,0,0
420,652,0,0,0,0,0,0,0,0,0,-1,1644,372,0,0
427,652,0,0,0,0,0,0,0,0,0,-1,1651,372,0,0
434,652,0,0,0,0,0,0,0,0,0,-1,1658,372,0,0
441,652,0,0,0,0,0,0,0,0,0,-1,1665,372,0,0
448,652,0,0,0,0,0,0,0,0,0,-1,1672,372,0,0
455,652,0,0,0,0,0,0,0,0,0,-1,1679,372,0,0
462,652,0,0,0,0,0,0,0,0,0,-1,1686,372,0,0
469,652,0,0,0,0,0,0,0,0,0,-1,1693,372,0,0
476,652,0,0,0,0,0,0,0,0,0,-1,1700,372,0,0
483,652,0,0,0,0,0,0,0,0,0,-1,1707,372,0,0
490,652,0,0,0,0,0,0,0,0,0,-1,1714,372,0,0
497,652,0,0,0,0,0,0,0,0,0,-1,1721,372,0,0
504,652,0,0,0,0,0,0,0,0,0,-1,1728,372,0,0
511,652,0,0,0,0,0,0,0,0,0,-1,1735,372,0,0
518,652,0,0,0,0,0,0,0,0,0,-1,1742,372,0,0
525,652,0,0,0,0,0,0,0,0,0,-1,1749,372,0,0
532,652,0,0,0,0,0,0,0,0,0,-1,1756,372,0,0
539,652,0,0,0,0,0,0,0,0,0,-1,1763,372,0,0
546,652,0,0,0,0,0,0,0,0,0,-1,1770,372,0,0
553,652,0,0,0,0,0,0,0,0,0,-1,1777,372,0,0
560,652,0,0,0,0,0,0,0,0,0,-1,1784,372,0,0
567,652,0,0,0,0,0,0,0,0,0,-1,1791,372,0,0
574,652,0,0,0,0,0,0,0,0,0,-1,1798,372,0,0
581,652,0,0,0,0,0,0,0,0,0,-1,1805,372,0,0
588,652,0,0,0,0,0,0,0,0,0,-1,1812,372,0,0
595,652,0,0,0,0,0,0,0,0,0,-1,1819,372,0,0
602,652,0,0,0,0,0,0,0,0,0,-1,1826,372,0,0
609,652,0,0,0,0,0,0,0,0,0,-1,1833,372,0,0
616,652,0,0,0,0,0,0,0,0,0,-1,1840,372,0,0
623,652,0,0,0,0,0,0,0,0,0,-1,1847,372,0,0
630,652,0,0,0,0,0,0,0,0,0,-1,1854,372,0,0
637,652,0,0,0,0,0,0,0,0,0,-1,1861,372,0,0
644,652,0,0,0,0,0,0,0,0,0,-1,1868,372,0,0
651,652,0,0,0,0,0,0,0,0,0,-1,1875,372,0,0
658,652,0,0,0,0,0,0,0,0,0,-1,1882,372,0,0
665,652,0,0,0,0,0,0,0,0,0,-1,1889,372,0,0
672,652,0,0,0,0,0,0,0,0,0,-1,1896,372,0,0
679,652,0,0,0,0,0,0,0,0,0,-1,1903,372,0,0
686,652,0,0,0,0,0,0,0,0,0,-1,1910,372,0,0
693,652,0,0,0,0,0,0,0,0,0,-1,1917,372,0,0
700,652,0,0,0,0,0,0,0,0,0,-1,1924,372,0,0
707,652,0,0,0,0,0,0,0,0,0,-1,1931,372,0,0
714,652,0,0,0,0,0,0,0,0,0,-1,1938,372,0,0
721,652,0,0,0,0,0,0,0,0,0,-1,1945,372,0,0
728,652,0,0,0,0,0,0,0,0,0,-1,1952,372,0,0
735,652,0,0,0,0,0,0,0,0,0,-1,1959,372,0,0
742,652,0,0,0,0,0,0,0,0,0,-1,1966,372,0,0
749,652,0,0,0,0,0,0,0,0,0,-1,1973,372,0,0
756,652,0,0,0,0,0,0,0,0,0,-1,1980,372,0,0
763,652,0,0,0,0,0,0,0,0,0,-1,1987,372,0,0
770,652,0,0,0,0,0,0,0,0,0,-1,1994,372,0,0
777,652,0,0,0,0,0,0,0,0,0,-1,2001,372,0,0
784,652,0,0,0,0,0,0,0,0,0,-1,2008,372,0,0
791,652,0,0,0,0,0,0,0,0,0,-1,2015,372,0,0
798,652,0,0,0,0,0,0,0,0,0,-1,2022,372,0,0
805,652,0,0,0,0,0,0,0,0,0,-1,2029,372,0,0
812,652,0,0,0,0,0,0,0,0,0,-1,2036,372,0,0
-700,645,0,0,0,0,0,0,0,0,0,-1,524,379,0,0
-693,645,0,0,0,0,0,0,0,0,0,-1,531,379,0,0
-686,645,0,0,0,0,0,0,0,0,0,-1,538,379,0,0
-679,645,0,0,0,0,0,0,0,0,0,-1,545,379,0,0
-672,645,0,0,0,0,0,0,0,0,0,-1,552,379,0,0
-665,645,0,0,0,0,0,0,0,0,0,-1,559,379,0,0
-658,645,0,0,0,0,0,0,0,0,0,-1,566,379,0,0
-651,645,0,0,0,0,0,0,0,0,0,-1,573,379,0,0
-644,645,0,0,0,0,0,0,0,0,0,-1,580,379,0,0
-637,645,0,0,0,0,0,0,0,0,0,-1,587,379,0,0
-630,645,0,0,0,0,0,0,0,0,0,-1,594,379,0,0
-623,645,0,0,0,0,0,0,0,0,0,-1,601,379,0,0
-616,645,0,0,0,0,0,0,0,0,0,-1,608,379,0,0
-609,645,0,0,0,0,0,0,0,0,0,-1,615,379,0,0
-602,645,0,0,0,0,0,0,0,0,0,-1,622,379,0,0
-595,645,0,0,0,0,0,0,0,0,0,-1,629,379,0,0
-588,645,0,0,0,0,0,0,0,0,0,-1,636,379,0,0
-581,645,0,0,0,0,0,0,0,0,0,-1,643,379,0,0
-574,645,0,0,0,0,0,0,0,0,0,-1,650,379,0,0
-567,645,0,0,0,0,0,0,0,0,0,-1,657,379,0,0
-560,645,0,0,0,0,0,0,0,0,0,-1,664,379,0,0
-553,645,0,0,0,0,0,0,0,0,0,-1,671,379,0,0
-546,645,0,0,0,0,0,0,0,0,0,-1,678,379,0,0
-539,645,0,0,0,0,0,0,0,0,0,-1,685,379,0,0
-532,645,0,0,0,0,0,0,0,0,0,-1,692,379,0,0
-525,645,0,0,0,0,0,0,0,0,0,-1,699,379,0,0
-518,645,0,0,0,0,0,0,0,0,0,-1,706,379,0,0
-511,645,0,0,0,0,0,0,0,0,0,-1,713,379,0,0
-504,645,0,0,0,0,0,0,0,0,0,-1,720,379,0,0
-497,645,0,0,0,0,0,0,0,0,0,-1,727,379,0,0
-490,645,0,0,0,0,0,0,0,0,0,-1,734,379,0,0
-483,645,0,0,0,0,0,0,0,0,0,-1,741,379,0,0
-476,645,0,0,0,0,0,0,0,0,0,-1,748,379,0,0
-469,645,0,0,0,0,0,0,0,0,0,-1,755,379,0,0
-462,645,0,0,0,0,0,0,0,0,0,-1,762,379,0,0
-455,645,0,0,0,0,0,0,0,0,0,-1,769,379,0,0
-448,645,0,0,0,0,0,0,0,0,0,-1,776,379,0,0
-441,645,0,0,0,0,0,0,0,0,0,-1,783,379,0,0
-434,645,0,0,0,0,0,0,0,0,0,-1,790,379,0,0
-427,645,0,0,0,0,0,0,0,0,0,-1,797,379,0,0
-420,645,0,0,0,0,0,0,0,0,0,-1,804,379,0,0
-413,645,0,0,0,0,0,0,0,0,0,-1,811,379,0,0
-406,645,0,0,0,0,0,0,0,0,0,-1,818,379,0,0
-399,645,0,0,0,0,0,0,0,0,0,-1,825,379,0,0
-392,645,0,0,0,0,0,0,0,0,0,-1,832,379,0,0
-385,645,0,0,0,0,0,0,0,0,0,-1,839,379,0,0
-378,645,0,0,0,0,0,0,0,0,0,-1,846,379,0,0
-371,645,0,0,0,0,0,0,0,0,0,-1,853,379,0,0
-364,645,0,0,0,0,0,0,0,0,0,-1,860,379,0,0
-357,645,0,0,0,0,0,0,0,0,0,-1,867,379,0,0
-350,645,0,0,0,0,0,0,0,0,0,-1,874,379,0,0
-343,645,0,0,0,0,0,0,0,0,0,-1,881,379,0,0
-336,645,0,0,0,0,0,0,0,0,0,-1,888,379,0,0
-329,645,0,0,0,0,0,0,0,0,0,-1,895,379,0,0
-322,645,0,0,0,0,0,0,0,0,0,-1,902,379,0,0
-315,645,0,0,0,0,0,0,0,0,0,-1,909,379,0,0
-308,645,0,0,0,0,0,0,0,0,0,-1,916,379,0,0
-301,645,0,0,0,0,0,0,0,0,0,-1,923,379,0,0
-294,645,0,0,0,0,0,0,0,0,0,-1,930,379,0,0
-287,645,0,0,0,0,0,0,0,0,0,-1,937,379,0,0
-280,645,0,0,0,0,0,0,0,0,0,-1,944,379,0,0
-273,645,0,0,0,0,0,0,0,0,0,-1,951,379,0,0
-266,645,0,0,0,0,0,0,0,0,0,-1,958,379,0,0
-259,645,0,0,0,0,0,0,0,0,0,-1,965,379,0,0
-252,645,8.7453,-17.8397,0,0,0,0,0,0,0,-1,972,379,8.74531,17.8397
-245,645,9.11273,-18.0732,0,0,0,0,0,0,0,-1,979,379,9.1127,18.0732
-238,645,9.47467,-18.2925,0,0,0,0,0,0,0,-1,986,379,9.47467,18.2925
-231,645,10.7542,-18.0708,0,0,0,0,0,0,0,-1,993,379,10.7542,18.0708
-224,645,7.9621,-18.4546,0,0,0,0,0,0,0,-1,1000,379,7.96209,18.4546
-217,645,8.09961,-19.0991,0,0,0,0,0,0,0,-1,1007,379,8.0996,19.0991
-210,645,10.6344,-19.6549,0,0,0,0,0,0,0,-1,1014,379,10.6344,19.6549
-203,645,3.80811,-24.5478,0,0,0,0,0,0,0,-1,1021,379,3.80809,24.5478
-196,645,4.30347,-22.5507,0,0,0,0,0,0,0,-1,1028,379,4.30349,22.5507
-189,645,3.94666,-21.8051,-0.00975561,-0.00237132,0.0186222,0.0129212,-0.0250481,0.883262,0.0222912,0.0436156,1035,379,3.94663,21.8052
-182,645,3.73987,-21.2994,-0.00716316,-0.00408586,0.0137983,0.00825932,-0.0195083,0.840924,0.0164643,0.0450162,1042,379,3.73991,21.2994
-175,645,3.38586,-20.7163,0,0,0,0,0,0,0,-1,1049,379,3.38583,20.7163
-168,645,4.42236,-21.6826,0,0,0,0,0,0,0,-1,1056,379,4.4224,21.6826
-161,645,3.77942,-22.3459,-0.000696084,-0.00647887,0.00209011,-1.97445e-05,-0.00715521,0.312956,0.00476357,0.046084,1063,379,3.77947,22.3459
-154,645,4.0127,-22.4573,0.00109504,-0.00448464,-0.00020143,0.0011023,-0.00449191,-0.0360381,0.00342174,0.0417078,1070,379,4.01273,22.4573
-147,645,3.9967,-22.6208,0.00231249,-0.00249517,-0.00200036,0.00303593,-0.00321861,-0.347021,0.00361158,0.0401472,1077,379,3.99666,22.6208
-140,645,3.47437,-22.5829,0.00326633,-0.000297977,-0.00314618,0.00510005,-0.0021317,-0.527706,0.00429089,0.0368506,1084,379,3.47432,22.5829
-133,645,3.85107,-22.6624,0.00421657,0.00150803,-0.00448836,0.00755052,-0.00182592,-0.638877,0.00573996,0.0375052,1091,379,3.85103,22.6624
-126,645,4.026,-22.8966,0.00454693,0.00448134,-0.00479603,0.00931027,-0.000282003,-0.78198,0.00630295,0.0282136,1098,379,4.02601,22.8966
-119,645,3.99817,-23.1675,0.00412785,0.00627466,-0.00399972,0.0093425,0.00106001,-0.916494,0.00590679,0.0171528,1105,379,3.99816,23.1675
-112,645,3.9707,-23.3998,0.00369086,0.00761501,-0.00345469,0.00962592,0.00167995,-1.04366,0.00593706,0.0120068,1112,379,3.97076,23.3998
-105,645,3.93799,-23.5888,0.00295549,0.00887913,-0.00277712,0.00997746,0.00185717,-1.19418,0.00612713,0.0127557,1119,379,3.93798,23.5888
-98,645,3.89441,-23.7491,0.00217503,0.00919592,-0.00224185,0.00985071,0.00152024,-1.28663,0.00612362,0.0145556,1126,379,3.89438,23.7491
-91,645,3.89563,-23.9278,0.00162797,0.00899828,-0.00179856,0.00941376,0.00121249,-1.34377,0.00591326,0.0190794,1133,379,3.89566,23.9277
-84,645,3.89124,-24.1184,0.000756773,0.00810133,-0.00145293,0.00837831,0.000479794,-1.38242,0.00543267,0.0230787,1140,379,3.89124,24.1184
-77,645,3.85071,-24.3405,-0.000267067,0.00680323,-0.0010391,0.00695278,-0.000416617,-1.42785,0.00478012,0.0178043,1147,379,3.85067,24.3405
-70,645,3.83545,-24.4822,-0.00122975,0.00619326,-0.000775855,0.00627349,-0.00130998,-1.46776,0.00468049,0.0118189,1154,379,3.83551,24.4822
-63,645,3.8219,-24.6204,-0.00194235,0.0062236,-0.000816734,0.00630448,-0.00202324,-1.47208,0.00501533,0.0114628,1161,379,3.82192,24.6204
-56,645,3.78918,-24.7477,-0.0020333,0.00894516,-0.00111528,0.00905731,-0.00214545,-1.47057,0.00686601,0.0129828,1168,379,3.78923,24.7477
-49,645,3.77222,-24.8828,-0.00203914,0.00960591,-0.00125048,0.00973867,-0.0021719,-1.46502,0.00732455,0.0107471,1175,379,3.77222,24.8828
-42,645,3.75867,-25.0205,-0.00171901,0.0105745,-0.00096306,0.0106494,-0.001794,-1.49309,0.007767,0.010023,1182,379,3.75864,25.0205
-35,645,3.74268,-25.149,-0.00146114,0.0112428,-0.000656819,0.0112766,-0.00149501,-1.51928,0.00806243,0.0106545,1189,379,3.7427,25.149
-28,645,3.71765,-25.264,-0.00134835,0.0115085,-0.00053666,0.0115309,-0.00137071,-1.52915,0.00818253,0.00894887,1196,379,3.71769,25.264
-21,645,3.69568,-25.3507,-0.000978151,0.01153,-0.000613342,0.01156,-0.00100815,-1.52192,0.00806378,0.0101307,1203,379,3.69569,25.3507
-14,645,3.68835,-25.4353,-0.00067974,0.0112048,-0.000587634,0.0112337,-0.000708726,-1.52151,0.00773624,0.00996988,1210,379,3.68833,25.4353
-7,645,3.67981,-25.5312,-0.000467435,0.0108182,-0.000601254,0.0108501,-0.000499377,-1.51772,0.0074055,0.0134278,1217,379,3.67982,25.5312
0,645,3.66357,-25.6106,-0.000264186,0.0103241,-0.000683893,0.010368,-0.000308176,-1.50656,0.00701701,0.0248969,1224,379,3.66359,25.6106
7,645,3.65295,-25.6514,-0.000143478,0.00980513,-0.000774563,0.00986507,-0.000203422,-1.49356,0.00664556,0.0164277,1231,379,3.65298,25.6514
14,645,3.65796,-25.6811,-9.55384e-05,0.00920577,-0.000793842,0.00927303,-0.000162805,-1.48626,0.006237,0.015212,1238,379,3.65793,25.6811
21,645,3.6366,-25.7462,-6.71528e-05,0.00875669,-0.000755779,0.00882096,-0.000131419,-1.48597,0.00592493,0.0103421,1245,379,3.6366,25.7462
28,645,3.63123,-25.7905,6.38597e-05,0.008398,-0.00068284,0.00845358,8.28365e-06,-1.48959,0.00563296,0.00946538,1252,379,3.63123,25.7905
35,645,3.60974,-25.8108,0.000142348,0.00807137,-0.000507386,0.00810371,0.000110012,-1.50715,0.00536618,0.00896682,1259,379,3.60978,25.8108
42,645,3.59619,-25.8439,0.000143694,0.00770488,-0.00028421,0.00771555,0.000133027,-1.53328,0.00509993,0.00850096,1266,379,3.59619,25.8439
49,645,3.63257,-25.8601,-2.9892e-05,0.00721767,0.000223258,0.00722454,-3.6763e-05,1.54003,0.00482866,0.0113816,1273,379,3.63258,25.8601
56,645,3.62866,-25.8374,-0.000323661,0.00731023,0.000425566,0.00733388,-0.000347312,1.51528,0.00500904,0.0116171,1280,379,3.62866,25.8374
63,645,3.58911,-25.8396,-0.000548481,0.00731597,0.000708502,0.00737929,-0.0006118,1.48166,0.00513562,0.0116809,1287,379,3.58916,25.8396
70,645,3.55664,-25.819,-0.000781418,0.00750247,0.000824401,0.00758372,-0.000862664,1.47256,0.00536653,0.0156428,1294,379,3.5567,25.819
77,645,3.54614,-25.8037,-0.000948916,0.00781825,0.000796748,0.00789007,-0.00102073,1.4809,0.00563121,0.0181861,1301,379,3.54613,25.8037
84,645,3.56885,-25.7716,-0.00126696,0.00808912,0.000673435,0.00813735,-0.00131518,1.49931,0.00591225,0.0131836,1308,379,3.56886,25.7716
91,645,3.52136,-25.7461,-0.00159523,0.0082709,0.000232323,0.00827637,-0.0016007,1.54727,0.00612131,0.0147371,1315,379,3.52137,25.7461
98,645,3.5365,-25.6595,-0.00179903,0.00818804,-0.000232164,0.00819344,-0.00180442,-1.54757,0.00615261,0.0137924,1322,379,3.53648,25.6594
105,645,3.53931,-25.5805,-0.00187767,0.0080566,-0.000754475,0.00811357,-0.00193464,-1.49543,0.00615611,0.0106848,1329,379,3.53927,25.5805
112,645,3.51147,-25.5204,-0.00185774,0.00803509,-0.00137853,0.00822359,-0.00204624,-1.4349,0.00627666,0.00925308,1336,379,3.51153,25.5204
119,645,3.5094,-25.4483,-0.00178564,0.00792644,-0.0019685,0.00831026,-0.00216946,-1.37823,0.00638734,0.00875798,1343,379,3.50946,25.4483
126,645,3.48889,-25.3728,-0.00169064,0.00763724,-0.00246209,0.00824722,-0.00230062,-1.32794,0.00640428,0.0117061,1350,379,3.48892,25.3728
133,645,3.4856,-25.287,-0.00163709,0.00725692,-0.00279503,0.00806235,-0.00244252,-1.29023,0.00634769,0.0132267,1357,379,3.48562,25.287
140,645,3.4884,-25.1785,-0.00145076,0.00694091,-0.00290206,0.00784674,-0.0023566,-1.26825,0.00616861,0.0127235,1364,379,3.4884,25.1785
147,645,3.4624,-25.068,-0.00122137,0.00672172,-0.00280475,0.00761225,-0.0021119,-1.26336,0.00590603,0.0128697,1371,379,3.4624,25.068
154,645,3.46912,-24.9525,-0.000937729,0.00642798,-0.00270496,0.00731461,-0.00182436,-1.25405,0.00558475,0.0122019,1378,379,3.46908,24.9525
161,645,3.4635,-24.8256,-0.000729489,0.00607511,-0.0020441,0.00664194,-0.00129632,-1.30029,0.00491736,0.0149375,1385,379,3.4635,24.8256
168,645,3.42896,-24.6656,-0.00094695,0.00597935,-0.0014022,0.00625245,-0.00122005,-1.37844,0.00462889,0.0167326,1392,379,3.4289,24.6656
175,645,3.42725,-24.5267,-0.00120576,0.00561423,-0.000494667,0.00564992,-0.00124145,-1.49877,0.00424143,0.013613,1399,379,3.42721,24.5267
182,645,3.40161,-24.3812,-0.00142551,0.00519915,0.000546717,0.00524397,-0.00147033,1.48901,0.00407548,0.00966291,1406,379,3.40164,24.3812
189,645,3.38232,-24.196,-0.00163249,0.00498131,0.00142147,0.00527388,-0.00192506,1.36781,0.0043036,0.0107139,1413,379,3.38232,24.196
196,645,3.34668,-24.0372,-0.00185425,0.00483593,0.00226308,0.00552955,-0.00254787,1.27339,0.00476823,0.0110934,1420,379,3.3467,24.0372
203,645,3.30481,-23.8459,-0.00198759,0.005079,0.00254016,0.00589732,-0.00280591,1.25914,0.00512939,0.0112366,1427,379,3.30477,23.8458
210,645,3.33618,-23.6072,-0.00235907,0.00550075,0.00251565,0.00623696,-0.00309529,1.28609,0.0054888,0.0175311,1434,379,3.33616,23.6072
217,645,3.32068,-23.4709,-0.0026188,0.00577499,0.00235821,0.00639215,-0.00323595,1.31483,0.00565747,0.0213679,1441,379,3.32073,23.471
224,645,3.25818,-23.3687,-0.00248104,0.00665734,0.00235765,0.00722975,-0.00305345,1.33262,0.00609803,0.0203367,1448,379,3.25818,23.3687
231,645,3.21497,-23.0307,-0.0018522,0.0074248,0.00257761,0.00809288,-0.00252028,1.31719,0.00640287,0.0189837,1455,379,3.21495,23.0307
238,645,3.22693,-22.7737,-0.00116901,0.00861663,0.00315793,0.00954723,-0.00209961,1.28422,0.00716793,0.013929,1462,379,3.22696,22.7737
245,645,3.23462,-22.566,-0.000577209,0.00969367,0.00352526,0.0107872,-0.00167075,1.27001,0.0078082,0.0145137,1469,379,3.23467,22.566
252,645,3.23572,-22.2533,0.000459923,0.0107403,0.00405144,0.012145,-0.000944785,1.23705,0.00842929,0.0218658,1476,379,3.23571,22.2533
259,645,3.0835,-21.9662,0.00191662,0.0119452,0.00475491,0.0138412,2.06083e-05,1.19137,0.00922062,0.0358147,1483,379,3.08354,21.9662
266,645,2.99109,-21.7751,0.00331259,0.0128166,0.00589824,0.015639,0.000490251,1.12449,0.0102665,0.0256018,1490,379,2.99109,21.775
273,645,3.06738,-21.5333,0.00422692,0.0131237,0.0082901,0.0180835,-0.000732892,1.03164,0.0123072,0.0254486,1497,379,3.06739,21.5333
280,645,3.27417,-21.3539,0.00509458,0.0145712,0.0114532,0.0222275,-0.00256173,0.981534,0.0157419,0.0477925,1504,379,3.27423,21.354
287,645,3.60986,-20.7962,0,0,0,0,0,0,0,-1,1511,379,3.60989,20.7962
294,645,2.77979,-20.3528,0,0,0,0,0,0,0,-1,1518,379,2.77976,20.3528
301,645,0.144775,-19.2729,0,0,0,0,0,0,0,-1,1525,379,0.144773,19.2729
308,645,1.69543,-18.5685,0,0,0,0,0,0,0,-1,1532,379,1.69542,18.5684
315,645,3.07922,-17.5748,0,0,0,0,0,0,0,-1,1539,379,3.07924,17.5748
322,645,3.82068,-20.0009,0,0,0,0,0,0,0,-1,1546,379,3.82072,20.0009
329,645,3.75256,-19.2944,0,0,0,0,0,0,0,-1,1553,379,3.75261,19.2944
336,645,2.34009,-17.6476,0,0,0,0,0,0,0,-1,1560,379,2.34013,17.6476
343,645,0.977295,-13.792,0,0,0,0,0,0,0,-1,1567,379,0.977251,13.792
350,645,3.93213,-5.72198,0,0,0,0,0,0,0,-1,1574,379,3.9321,5.72198
357,645,1.63928,-6.465,0,0,0,0,0,0,0,-1,1581,379,1.63926,6.46499
364,645,-0.0794678,-3.22021,0,0,0,0,0,0,0,-1,1588,379,-0.0794987,3.22021
371,645,0,0,0,0,0,0,0,0,0,-1,1595,379,0,0
378,645,0,0,0,0,0,0,0,0,0,-1,1602,379,0,0
385,645,0,0,0,0,0,0,0,0,0,-1,1609,379,0,0
392,645,0,0,0,0,0,0,0,0,0,-1,1616,379,0,0
399,645,0,0,0,0,0,0,0,0,0,-1,1623,379,0,0
406,645,0,0,0,0,0,0,0,0,0,-1,1630,379,0,0
413,645,0,0,0,0,0,0,0,0,0,-1,1637,379,0,0
420,645,0,0,0,0,0,0,0,0,0,-1,1644,379,0,0
427,645,0,0,0,0,0,0,0,0,0,-1,1651,379,0,0
434,645,0,0,0,0,0,0,0,0,0,-1,1658,379,0,0
441,645,0,0,0,0,0,0,0,0,0,-1,1665,379,0,0
448,645,0,0,0,0,0,0,0,0,0,-1,1672,379,0,0
455,645,0,0,0,0,0,0,0,0,0,-1,1679,379,0,0
462,645,0,0,0,0,0,0,0,0,0,-1,1686,379,0,0
469,645,0,0,0,0,0,0,0,0,0,-1,1693,379,0,0
476,645,0,0,0,0,0,0,0,0,0,-1,1700,379,0,0
483,645,0,0,0,0,0,0,0,0,0,-1,1707,379,0,0
490,645,0,0,0,0,0,0,0,0,0,-1,1714,379,0,0
497,645,0,0,0,0,0,0,0,0,0,-1,1721,379,0,0
504,645,0,0,0,0,0,0,0,0,0,-1,1728,379,0,0
511,645,0,0,0,0,0,0,0,0,0,-1,1735,379,0,0
518,645,0,0,0,0,0,0,0,0,0,-1,1742,379,0,0
525,645,0,0,0,0,0,0,0,0,0,-1,1749,379,0,0
532,645,0,0,0,0,0,0,0,0,0,-1,1756,379,0,0
539,645,0,0,0,0,0,0,0,0,0,-1,1763,379,0,0
546,645,0,0,0,0,0,0,0,0,0,-1,1770,379,0,0
553,645,0,0,0,0,0,0,0,0,0,-1,1777,379,0,0
560,645,0,0,0,0,0,0,0,0,0,-1,1784,379,0,0
567,645,0,0,0,0,0,0,0,0,0,-1,1791,379,0,0
574,645,0,0,0,0,0,0,0,0,0,-1,1798,379,0,0
581,645,0,0,0,0,0,0,0,0,0,-1,1805,379,0,0
588,645,0,0,0,0,0,0,0,0,0,-1,1812,379,0,0
595,645,0,0,0,0,0,0,0,0,0,-1,1819,379,0,0
602,645,0,0,0,0,0,0,0,0,0,-1,1826,379,0,0
609,645,0,0,0,0,0,0,0,0,0,-1,1833,379,0,0
616,645,0,0,0,0,0,0,0,0,0,-1,1840,379,0,0
623,645,0,0,0,0,0,0,0,0,0,-1,1847,379,0,0
630,645,0,0,0,0,0,0,0,0,0,-1,1854,379,0,0
637,645,0,0,0,0,0,0,0,0,0,-1,1861,379,0,0
644,645,0,0,0,0,0,0,0,0,0,-1,1868,379,0,0
651,645,0,0,0,0,0,0,0,0,0,-1,1875,379,0,0
658,645,0,0,0,0,0,0,0,0,0,-1,1882,379,0,0
665,645,0,0,0,0,0,0,0,0,0,-1,1889,379,0,0
672,645,0,0,0,0,0,0,0,0,0,-1,1896,379,0,0
679,645,0,0,0,0,0,0,0,0,0,-1,1903,379,0,0
686,645,0,0,0,0,0,0,0,0,0,-1,1910,379,0,0
693,645,0,0,0,0,0,0,0,0,0,-1,1917,379,0,0
700,645,0,0,0,0,0,0,0,0,0,-1,1924,379,0,0
707,645,0,0,0,0,0,0,0,0,0,-1,1931,379,0,0
714,645,0,0,0,0,0,0,0,0,0,-1,1938,379,0,0
721,645,0,0,0,0,0,0,0,0,0,-1,1945,379,0,0
728,645,0,0,0,0,0,0,0,0,0,-1,1952,379,0,0
735,645,0,0,0,0,0,0,0,0,0,-1,1959,379,0,0
742,645,0,0,0,0,0,0,0,0,0,-1,1966,379,0,0
749,645,0,0,0,0,0,0,0,0,0,-1,1973,379,0,0
756,645,0,0,0,0,0,0,0,0,0,-1,1980,379,0,0
763,645,0,0,0,0,0,0,0,0,0,-1,1987,379,0,0
770,645,0,0,0,0,0,0,0,0,0,-1,1994,379,0,0
777,645,0,0,0,0,0,0,0,0,0,-1,2001,379,0,0
784,645,0,0,0,0,0,0,0,0,0,-1,2008,379,0,0
791,645,0,0,0,0,0,0,0,0,0,-1,2015,379,0,0
798,645,0,0,0,0,0,0,0,0,0,-1,2022,379,0,0
805,645,0,0,0,0,0,0,0,0,0,-1,2029,379,0,0
812,645,0,0,0,0,0,0,0,0,0,-1,2036,379,0,0
-700,638,0,0,0,0,0,0,0,0,0,-1,524,386,0,0
-693,638,0,0,0,0,0,0,0,0,0,-1,531,386,0,0
-686,638,0,0,0,0,0,0,0,0,0,-1,538,386,0,0
-679,638,0,0,0,0,0,0,0,0,0,-1,545,386,0,0
-672,638,0,0,0,0,0,0,0,0,0,-1,552,386,0,0
-665,638,0,0,0,0,0,0,0,0,0,-1,559,386,0,0
-658,638,0,0,0,0,0,0,0,0,0,-1,566,386,0,0
-651,638,0,0,0,0,0,0,0,0,0,-1,573,386,0,0
-644,638,0,0,0,0,0,0,0,0,0,-1,580,386,0,0
-637,638,0,0,0,0,0,0,0,0,0,-1,587,386,0,0
-630,638,0,0,0,0,0,0,0,0,0,-1,594,386,0,0
-623,638,0,0,0,0,0,0,0,0,0,-1,601,386,0,0
-616,638,0,0,0,0,0,0,0,0,0,-1,608,386,0,0
-609,638,0,0,0,0,0,0,0,0,0,-1,615,386,0,0
-602,638,0,0,0,0,0,0,0,0,0,-1,622,386,0,0
-595,638,0,0,0,0,0,0,0,0,0,-1,629,386,0,0
-588,638,0,0,0,0,0,0,0,0,0,-1,636,386,0,0
-581,638,0,0,0,0,0,0,0,0,0,-1,643,386,0,0
-574,638,0,0,0,0,0,0,0,0,0,-1,650,386,0,0
-567,638,0,0,0,0,0,0,0,0,0,-1,657,386,0,0
-560,638,0,0,0,0,0,0,0,0,0,-1,664,386,0,0
-553,638,0,0,0,0,0,0,0,0,0,-1,671,386,0,0
-546,638,0,0,0,0,0,0,0,0,0,-1,678,386,0,0
-539,638,0,0,0,0,0,0,0,0,0,-1,685,386,0,0
-532,638,0,0,0,0,0,0,0,0,0,-1,692,386,0,0
-525,638,0,0,0,0,0,0,0,0,0,-1,699,386,0,0
-518,638,0,0,0,0,0,0,0,0,0,-1,706,386,0,0
-511,638,0,0,0,0,0,0,0,0,0,-1,713,386,0,0
-504,638,0,0,0,0,0,0,0,0,0,-1,720,386,0,0
-497,638,0,0,0,0,0,0,0,0,0,-1,727,386,0,0
-490,638,0,0,0,0,0,0,0,0,0,-1,734,386,0,0
-483,638,0,0,0,0,0,0,0,0,0,-1,741,386,0,0
-476,638,0,0,0,0,0,0,0,0,0,-1,748,386,0,0
-469,638,0,0,0,0,0,0,0,0,0,-1,755,386,0,0
-462,638,0,0,0,0,0,0,0,0,0,-1,762,386,0,0
-455,638,0,0,0,0,0,0,0,0,0,-1,769,386,0,0
-448,638,0,0,0,0,0,0,0,0,0,-1,776,386,0,0
-441,638,0,0,0,0,0,0,0,0,0,-1,783,386,0,0
-434,638,0,0,0,0,0,0,0,0,0,-1,790,386,0,0
-427,638,0,0,0,0,0,0,0,0,0,-1,797,386,0,0
-420,638,0,0,0,0,0,0,0,0,0,-1,804,386,0,0
-413,638,0,0,0,0,0,0,0,0,0,-1,811,386,0,0
-406,638,0,0,0,0,0,0,0,0,0,-1,818,386,0,0
-399,638,0,0,0,0,0,0,0,0,0,-1,825,386,0,0
-392,638,0,0,0,0,0,0,0,0,0,-1,832,386,0,0
-385,638,0,0,0,0,0,0,0,0,0,-1,839,386,0,0
-378,638,0,0,0,0,0,0,0,0,0,-1,846,386,0,0
-371,638,0,0,0,0,0,0,0,0,0,-1,853,386,0,0
-364,638,0,0,0,0,0,0,0,0,0,-1,860,386,0,0
-357,638,0,0,0,0,0,0,0,0,0,-1,867,386,0,0
-350,638,0,0,0,0,0,0,0,0,0,-1,874,386,0,0
-343,638,0,0,0,0,0,0,0,0,0,-1,881,386,0,0
-336,638,0,0,0,0,0,0,0,0,0,-1,888,386,0,0
-329,638,0,0,0,0,0,0,0,0,0,-1,895,386,0,0
-322,638,0,0,0,0,0,0,0,0,0,-1,902,386,0,0
-315,638,0,0,0,0,0,0,0,0,0,-1,909,386,0,0
-308,638,0,0,0,0,0,0,0,0,0,-1,916,386,0,0
-301,638,0,0,0,0,0,0,0,0,0,-1,923,386,0,0
-294,638,0,0,0,0,0,0,0,0,0,-1,930,386,0,0
-287,638,0,0,0,0,0,0,0,0,0,-1,937,386,0,0
-280,638,0,0,0,0,0,0,0,0,0,-1,944,386,0,0
-273,638,0,0,0,0,0,0,0,0,0,-1,951,386,0,0
-266,638,0.255981,-17.2527,0,0,0,0,0,0,0,-1,958,386,0.255997,17.2527
-259,638,0.778809,-17.1793,0,0,0,0,0,0,0,-1,965,386,0.778803,17.1793
-252,638,7.69086,-17.9618,0,0,0,0,0,0,0,-1,972,386,7.69085,17.9618
-245,638,8.03644,-18.1936,0,0,0,0,0,0,0,-1,979,386,8.03643,18.1936
-238,638,8.39825,-18.4048,0,0,0,0,0,0,0,-1,986,386,8.39826,18.4048
-231,638,8.87268,-18.2178,0,0,0,0,0,0,0,-1,993,386,8.87271,18.2178
-224,638,9.65784,-17.853,0,0,0,0,0,0,0,-1,1000,386,9.65783,17.853
-217,638,6.53162,-18.8751,0,0,0,0,0,0,0,-1,1007,386,6.5316,18.8751
-210,638,3.50873,-25.6114,0,0,0,0,0,0,0,-1,1014,386,3.50872,25.6114
-203,638,3.80066,-24.2338,0,0,0,0,0,0,0,-1,1021,386,3.80067,24.2338
-196,638,4.27954,-23.0077,0,0,0,0,0,0,0,-1,1028,386,4.2795,23.0077
-189,638,3.96106,-22.0114,-0.00698913,0.0023402,0.0110673,0.00968569,-0.0143346,0.984842,0.0139544,0.0436012,1035,386,3.96103,22.0114
-182,638,3.65576,-20.817,-0.00527996,0.000691323,0.00791137,0.00616167,-0.0107503,0.965829,0.00988321,0.0440477,1042,386,3.65582,20.817
-175,638,3.66528,-21.297,0,0,0,0,0,0,0,-1,1049,386,3.6653,21.297
-168,638,4.09143,-21.6394,-0.00243878,-0.00248858,0.00251621,5.26553e-05,-0.00498001,0.780451,0.0033377,0.0343566,1056,386,4.09138,21.6394
-161,638,3.98071,-21.8989,-0.00107379,-0.00298246,0.000438553,-0.000977844,-0.00307841,0.215378,0.00181629,0.0304628,1063,386,3.98077,21.8989
-154,638,3.95154,-22.0951,0.000200467,-0.00198219,-0.00105106,0.000624302,-0.00240603,-0.383301,0.00184762,0.0234481,1070,386,3.95158,22.0951
-147,638,3.88257,-22.3404,0.00106154,-0.000864247,-0.00222627,0.00252423,-0.00232693,-0.581289,0.00280159,0.0190479,1077,386,3.88251,22.3404
-140,638,3.84387,-22.5813,0.00178517,0.000448998,-0.00295426,0.00414594,-0.00191177,-0.674197,0.00357583,0.0160355,1084,386,3.84387,22.5813
-133,638,3.84045,-22.8353,0.00254194,0.00157035,-0.00387114,0.00595765,-0.00184536,-0.722979,0.004709,0.0146243,1091,386,3.84047,22.8353
-126,638,3.8418,-23.0309,0.00284103,0.00362905,-0.00401677,0.00727109,-0.000801004,-0.834287,0.00513526,0.0150031,1098,386,3.84183,23.0309
-119,638,3.83179,-23.2395,0.00259283,0.00492907,-0.0033666,0.00732444,0.000197457,-0.952387,0.00481849,0.0149493,1105,386,3.8318,23.2395
-112,638,3.81567,-23.4673,0.00234121,0.00590626,-0.00295306,0.00757308,0.000674393,-1.05694,0.00483961,0.0144096,1112,386,3.81565,23.4673
-105,638,3.78906,-23.6652,0.00186044,0.00687983,-0.00243164,0.00786463,0.000875645,-1.18599,0.00497695,0.0165061,1119,386,3.78906,23.6652
-98,638,3.75952,-23.8455,0.0013484,0.00715569,-0.00202409,0.00779155,0.000712537,-1.26641,0.00497389,0.0161022,1126,386,3.75947,23.8454
-91,638,3.70715,-24.0276,0.00102603,0.00703833,-0.00166855,0.00747035,0.000594015,-1.31744,0.00479451,0.0129572,1133,386,3.7072,24.0276
-84,638,3.68701,-24.1945,0.000468758,0.00637898,-0.00133807,0.0066678,0.000179936,-1.35821,0.00438645,0.0141448,1140,386,3.68705,24.1945
-77,638,3.68921,-24.3515,-0.000188975,0.00540301,-0.000981823,0.00557038,-0.000356351,-1.40195,0.00383789,0.0115588,1147,386,3.68917,24.3515
-70,638,3.70972,-24.5051,-0.00073197,0.0047723,-0.00068937,0.00485732,-0.000816996,-1.44808,0.00354209,0.0110374,1154,386,3.70968,24.5051
-63,638,3.68616,-24.6488,-0.00111606,0.00451238,-0.000636823,0.00458353,-0.00118721,-1.45953,0.00351883,0.011752,1161,386,3.68615,24.6488
-56,638,3.68176,-24.7817,-0.00135844,0.00516742,-0.000558466,0.00521486,-0.00140589,-1.48604,0.00402784,0.0145652,1168,386,3.68176,24.7817
-49,638,3.65723,-24.9147,-0.00144165,0.00487815,-0.000494682,0.00491664,-0.00148014,-1.49315,0.00386675,0.0123339,1175,386,3.65717,24.9147
-42,638,3.65039,-25.0552,-0.00119751,0.00497857,-0.000227433,0.00498693,-0.00120587,-1.53404,0.00379105,0.0114014,1182,386,3.6504,25.0552
-35,638,3.64514,-25.1645,-0.000962337,0.00493168,-6.53859e-06,0.00493169,-0.000962344,-1.56969,0.0036511,0.0108504,1189,386,3.64519,25.1645
-28,638,3.64624,-25.2614,-0.000768863,0.00464015,7.78595e-05,0.00464127,-0.000769984,1.55641,0.0033802,0.0102804,1196,386,3.64624,25.2615
-21,638,3.61572,-25.3457,-0.000432056,0.0042206,5.55974e-05,0.00422126,-0.000432721,1.55885,0.00296894,0.0115663,1203,386,3.6157,25.3457
-14,638,3.60254,-25.4441,-0.000114131,0.00355785,7.85394e-05,0.00355953,-0.00011581,1.54942,0.00241255,0.0120153,1210,386,3.60256,25.4441
-7,638,3.59656,-25.56,0.000217088,0.00305854,1.63301e-05,0.00305863,0.000216994,1.56505,0.00197074,0.0181499,1217,386,3.59653,25.56
0,638,3.61865,-25.6248,0.000482279,0.00266724,-0.00012949,0.00267489,0.000474632,-1.51181,0.00164799,0.0323885,1224,386,3.61867,25.6248
7,638,3.56714,-25.6856,0.000633151,0.00233318,-0.000229113,0.00236352,0.000602814,-1.43915,0.00141811,0.0244007,1231,386,3.56709,25.6856
14,638,3.58569,-25.7097,0.000712369,0.00202903,-0.000247771,0.00207412,0.000667287,-1.39081,0.0012226,0.0131084,1238,386,3.58573,25.7097
21,638,3.57544,-25.749,0.000776586,0.001918,-0.000243852,0.00196791,0.000726672,-1.3689,0.00114905,0.0102841,1245,386,3.57549,25.7489
28,638,3.58899,-25.7831,0.000860054,0.00193913,-0.000182755,0.00196924,0.000829942,-1.4075,0.00114161,0.00849881,1252,386,3.58903,25.7831
35,638,3.58862,-25.8149,0.000846426,0.00204477,-2.80074e-05,0.00204542,0.000845772,-1.54744,0.0011868,0.0106049,1259,386,3.58864,25.815
42,638,3.59814,-25.8463,0.000868898,0.00235765,0.000251526,0.00239899,0.000827551,1.40787,0.00140708,0.00934441,1266,386,3.59811,25.8463
49,638,3.6228,-25.8476,0.000890994,0.00259707,0.000658932,0.00282193,0.000666134,1.24194,0.00170323,0.00816341,1273,386,3.62275,25.8476
56,638,3.62268,-25.8373,0.000768918,0.00420722,0.00127064,0.00462582,0.000350314,1.25255,0.002974,0.0113655,1280,386,3.62271,25.8373
63,638,3.60266,-25.8484,0.000641651,0.00638672,0.00217214,0.00711552,-8.71518e-05,1.24708,0.004773,0.0141267,1287,386,3.60271,25.8484
70,638,3.57727,-25.8424,0.00056943,0.00803215,0.00273535,0.00892737,-0.000325786,1.25451,0.00606309,0.0181153,1294,386,3.57723,25.8424
77,638,3.58838,-25.8202,0.000565783,0.00981569,0.00323722,0.0108361,-0.000454596,1.26545,0.00738025,0.0178606,1301,386,3.58832,25.8202
84,638,3.61584,-25.7653,0.000483156,0.0114614,0.00361257,0.0125435,-0.000598956,1.27976,0.00856899,0.0124698,1308,386,3.61588,25.7653
91,638,3.60217,-25.7085,0.00030597,0.0127795,0.00366292,0.0137756,-0.000690124,1.30528,0.00942219,0.0137332,1315,386,3.60217,25.7085
98,638,3.59973,-25.644,0.000194991,0.0133277,0.00351769,0.0142106,-0.000687889,1.32489,0.00971116,0.0130171,1322,386,3.59977,25.644
105,638,3.60022,-25.6041,0.000233381,0.0132149,0.00316165,0.013944,-0.000495692,1.34416,0.00946555,0.0099372,1329,386,3.60026,25.6041
112,638,3.5918,-25.5628,0.000323466,0.0127437,0.00245984,0.0132132,-0.000145965,1.38223,0.00885784,0.00965255,1336,386,3.59178,25.5628
119,638,3.59241,-25.4861,0.000362977,0.0117661,0.00164039,0.0119974,0.000131689,1.43072,0.00795473,0.0110624,1343,386,3.59239,25.4861
126,638,3.59973,-25.3775,0.000338196,0.0101339,0.000736117,0.0101889,0.000283188,1.49621,0.00670021,0.0146945,1350,386,3.59972,25.3775
133,638,3.59705,-25.2834,0.00028136,0.0082434,-0.000147603,0.00824614,0.000278625,-1.55227,0.00540694,0.0157841,1357,386,3.59707,25.2835
140,638,3.58191,-25.1854,0.000302334,0.00644391,-0.000850443,0.0065595,0.000186746,-1.43571,0.0043121,0.0175448,1364,386,3.58195,25.1854
147,638,3.56982,-25.071,0.000265061,0.00484279,-0.00133781,0.00520508,-9.72333e-05,-1.30633,0.00350292,0.0189813,1371,386,3.56988,25.071
154,638,3.5968,-24.9777,0.00023881,0.00368989,-0.00161954,0.00433086,-0.000402166,-1.19394,0.00303021,0.0159265,1378,386,3.59679,24.9777
161,638,3.56726,-24.8511,0.000214439,0.00287767,-0.00140999,0.00348545,-0.000393348,-1.16381,0.00246523,0.0187513,1385,386,3.56724,24.8511
168,638,3.57556,-24.6627,-6.62676e-05,0.00287885,-0.000937245,0.00315182,-0.000339234,-1.28739,0.00222293,0.0236082,1392,386,3.57559,24.6627
175,638,3.57324,-24.526,-0.000398646,0.00295769,-0.000211126,0.00297091,-0.000411874,-1.50822,0.00213121,0.0183399,1399,386,3.57325,24.526
182,638,3.53125,-24.3994,-0.000704743,0.00307815,0.000519608,0.00314822,-0.000774816,1.43675,0.00239916,0.0117446,1406,386,3.53125,24.3994
189,638,3.52026,-24.2331,-0.000954245,0.00329508,0.00108478,0.00355599,-0.00121515,1.33476,0.002863,0.010421,1413,386,3.52021,24.2331
196,638,3.49341,-24.0653,-0.00112038,0.00349558,0.00155043,0.003968,-0.0015928,1.27503,0.00330671,0.0129508,1420,386,3.49347,24.0653
203,638,3.44958,-23.902,-0.00127977,0.00382497,0.00177551,0.00438179,-0.00183659,1.2669,0.00368906,0.0200952,1427,386,3.44962,23.902
210,638,3.48462,-23.7129,-0.0015651,0.00421711,0.00180275,0.00473311,-0.00208111,1.29202,0.00403229,0.0167378,1434,386,3.48464,23.7129
217,638,3.49304,-23.5255,-0.00173484,0.00451425,0.00170881,0.004951,-0.00217159,1.32057,0.0042153,0.0117657,1441,386,3.49307,23.5255
224,638,3.45898,-23.292,-0.00167769,0.00521093,0.00174485,0.00562768,-0.00209444,1.33634,0.0046113,0.0107401,1448,386,3.45898,23.292
231,638,3.41772,-23.049,-0.00125647,0.00580837,0.00196408,0.00631769,-0.00176578,1.31707,0.00490745,0.0117449,1455,386,3.41774,23.049
238,638,3.40894,-22.8588,-0.000771252,0.00674562,0.00247458,0.00748712,-0.00151275,1.27967,0.00556463,0.0123535,1462,386,3.40893,22.8588
245,638,3.40015,-22.6295,-0.000373288,0.00756993,0.00281616,0.00846704,-0.0012704,1.2624,0.00611233,0.0138343,1469,386,3.40019,22.6295
252,638,3.3833,-22.368,0.000339306,0.00839871,0.00327594,0.0095623,-0.000824283,1.2295,0.00666664,0.0166884,1476,386,3.38327,22.368
259,638,3.34607,-22.1471,0.00136297,0.0093675,0.00388866,0.0109455,-0.00021507,1.1853,0.00736977,0.0159856,1483,386,3.34608,22.1471
266,638,3.29114,-21.8995,0.00227785,0.0100321,0.00484776,0.0123625,-5.2507e-05,1.1227,0.00825919,0.0115885,1490,386,3.29111,21.8995
273,638,3.29663,-21.6612,0.00284075,0.0103112,0.00669979,0.0142467,-0.00109468,1.0397,0.0098829,0.0100378,1497,386,3.2966,21.6612
280,638,3.37451,-21.3253,0.00342056,0.0114382,0.00909757,0.017371,-0.00251227,0.992923,0.0125025,0.0196972,1504,386,3.37446,21.3253
287,638,3.60071,-20.917,0.00402716,0.0120546,0.0115274,0.020247,-0.00416526,0.952929,0.0150794,0.0391264,1511,386,3.60073,20.917
294,638,3.7218,-20.554,0,0,0,0,0,0,0,-1,1518,386,3.72176,20.554
301,638,3.22009,-20.5015,0,0,0,0,0,0,0,-1,1525,386,3.22013,20.5015
308,638,3.54517,-19.9393,0,0,0,0,0,0,0,-1,1532,386,3.54522,19.9393
315,638,4.07642,-20.0382,0,0,0,0,0,0,0,-1,1539,386,4.07644,20.0382
322,638,3.74829,-19.7813,0.00194386,0.0144797,0.0294095,0.0382818,-0.0218582,0.89039,0.0351508,0.0446516,1546,386,3.74825,19.7813
329,638,3.62622,-19.0417,0.000467548,0.0151713,0.0331957,0.0418194,-0.0261806,0.894374,0.0396044,0.0464797,1553,386,3.62622,19.0418
336,638,3.47205,-18.3074,0,0,0,0,0,0,0,-1,1560,386,3.47205,18.3074
343,638,-0.128174,-12.1073,0,0,0,0,0,0,0,-1,1567,386,-0.128176,12.1073
350,638,2.3783,-11.33,0,0,0,0,0,0,0,-1,1574,386,2.37831,11.33
357,638,0.130371,-3.02618,0,0,0,0,0,0,0,-1,1581,386,0.130345,3.0262
364,638,3.78149,-6.45215,0,0,0,0,0,0,0,-1,1588,386,3.78155,6.45216
371,638,4.18604,-6.71164,0,0,0,0,0,0,0,-1,1595,386,4.18598,6.71164
378,638,4.59045,-6.97113,0,0,0,0,0,0,0,-1,1602,386,4.5904,6.97112
385,638,0,0,0,0,0,0,0,0,0,-1,1609,386,0,0
392,638,0,0,0,0,0,0,0,0,0,-1,1616,386,0,0
399,638,0,0,0,0,0,0,0,0,0,-1,1623,386,0,0
406,638,0,0,0,0,0,0,0,0,0,-1,1630,386,0,0
413,638,0,0,0,0,0,0,0,0,0,-1,1637,386,0,0
420,638,0,0,0,0,0,0,0,0,0,-1,1644,386,0,0
427,638,0,0,0,0,0,0,0,0,0,-1,1651,386,0,0
434,638,0,0,0,0,0,0,0,0,0,-1,1658,386,0,0
441,638,0,0,0,0,0,0,0,0,0,-1,1665,386,0,0
448,638,0,0,0,0,0,0,0,0,0,-1,1672,386,0,0
455,638,0,0,0,0,0,0,0,0,0,-1,1679,386,0,0
462,638,0,0,0,0,0,0,0,0,0,-1,1686,386,0,0
469,638,0,0,0,0,0,0,0,0,0,-1,1693,386,0,0
476,638,0,0,0,0,0,0,0,0,0,-1,1700,386,0,0
483,638,0,0,0,0,0,0,0,0,0,-1,1707,386,0,0
490,638,0,0,0,0,0,0,0,0,0,-1,1714,386,0,0
497,638,0,0,0,0,0,0,0,0,0,-1,1721,386,0,0
504,638,0,0,0,0,0,0,0,0,0,-1,1728,386,0,0
511,638,0,0,0,0,0,0,0,0,0,-1,1735,386,0,0
518,638,0,0,0,0,0,0,0,0,0,-1,1742,386,0,0
525,638,0,0,0,0,0,0,0,0,0,-1,1749,386,0,0
532,638,0,0,0,0,0,0,0,0,0,-1,1756,386,0,0
539,638,0,0,0,0,0,0,0,0,0,-1,1763,386,0,0
546,638,0,0,0,0,0,0,0,0,0,-1,1770,386,0,0
553,638,0,0,0,0,0,0,0,0,0,-1,1777,386,0,0
560,638,0,0,0,0,0,0,0,0,0,-1,1784,386,0,0
567,638,0,0,0,0,0,0,0,0,0,-1,1791,386,0,0
574,638,0,0,0,0,0,0,0,0,0,-1,1798,386,0,0
581,638,0,0,0,0,0,0,0,0,0,-1,1805,386,0,0
588,638,0,0,0,0,0,0,0,0,0,-1,1812,386,0,0
595,638,0,0,0,0,0,0,0,0,0,-1,1819,386,0,0
602,638,0,0,0,0,0,0,0,0,0,-1,1826,386,0,0
609,638,0,0,0,0,0,0,0,0,0,-1,1833,386,0,0
616,638,0,0,0,0,0,0,0,0,0,-1,1840,386,0,0
623,638,0,0,0,0,0,0,0,0,0,-1,1847,386,0,0
630,638,0,0,0,0,0,0,0,0,0,-1,1854,386,0,0
637,638,0,0,0,0,0,0,0,0,0,-1,1861,386,0,0
644,638,0,0,0,0,0,0,0,0,0,-1,1868,386,0,0
651,638,0,0,0,0,0,0,0,0,0,-1,1875,386,0,0
658,638,0,0,0,0,0,0,0,0,0,-1,1882,386,0,0
665,638,0,0,0,0,0,0,0,0,0,-1,1889,386,0,0
672,638,0,0,0,0,0,0,0,0,0,-1,1896,386,0,0
679,638,0,0,0,0,0,0,0,0,0,-1,1903,386,0,0
686,638,0,0,0,0,0,0,0,0,0,-1,1910,386,0,0
693,638,0,0,0,0,0,0,0,0,0,-1,1917,386,0,0
700,638,0,0,0,0,0,0,0,0,0,-1,1924,386,0,0
707,638,0,0,0,0,0,0,0,0,0,-1,1931,386,0,0
714,638,0,0,0,0,0,0,0,0,0,-1,1938,386,0,0
721,638,0,0,0,0,0,0,0,0,0,-1,1945,386,0,0
728,638,0,0,0,0,0,0,0,0,0,-1,1952,386,0,0
735,638,0,0,0,0,0,0,0,0,0,-1,1959,386,0,0
742,638,0,0,0,0,0,0,0,0,0,-1,1966,386,0,0
749,638,0,0,0,0,0,0,0,0,0,-1,1973,386,0,0
756,638,0,0,0,0,0,0,0,0,0,-1,1980,386,0,0
763,638,0,0,0,0,0,0,0,0,0,-1,1987,386,0,0
770,638,0,0,0,0,0,0,0,0,0,-1,1994,386,0,0
777,638,0,0,0,0,0,0,0,0,0,-1,2001,386,0,0
784,638,0,0,0,0,0,0,0,0,0,-1,2008,386,0,0
791,638,0,0,0,0,0,0,0,0,0,-1,2015,386,0,0
798,638,0,0,0,0,0,0,0,0,0,-1,2022,386,0,0
805,638,0,0,0,0,0,0,0,0,0,-1,2029,386,0,0
812,638,0,0,0,0,0,0,0,0,0,-1,2036,386,0,0
-700,631,0,0,0,0,0,0,0,0,0,-1,524,393,0,0
-693,631,0,0,0,0,0,0,0,0,0,-1,531,393,0,0
-686,631,0,0,0,0,0,0,0,0,0,-1,538,393,0,0
-679,631,0,0,0,0,0,0,0,0,0,-1,545,393,0,0
-672,631,0,0,0,0,0,0,0,0,0,-1,552,393,0,0
-665,631,0,0,0,0,0,0,0,0,0,-1,559,393,0,0
-658,631,0,0,0,0,0,0,0,0,0,-1,566,393,0,0
-651,631,0,0,0,0,0,0,0,0,0,-1,573,393,0,0
-644,631,0,0,0,0,0,0,0,0,0,-1,580,393,0,0
-637,631,0,0,0,0,0,0,0,0,0,-1,587,393,0,0
-630,631,0,0,0,0,0,0,0,0,0,-1,594,393,0,0
-623,631,0,0,0,0,0,0,0,0,0,-1,601,393,0,0
-616,631,0,0,0,0,0,0,0,0,0,-1,608,393,0,0
-609,631,0,0,0,0,0,0,0,0,0,-1,615,393,0,0
-602,631,0,0,0,0,0,0,0,0,0,-1,622,393,0,0
-595,631,0,0,0,0,0,0,0,0,0,-1,629,393,0,0
-588,631,0,0,0,0,0,0,0,0,0,-1,636,393,0,0
-581,631,0,0,0,0,0,0,0,0,0,-1,643,393,0,0
-574,631,0,0,0,0,0,0,0,0,0,-1,650,393,0,0
-567,631,0,0,0,0,0,0,0,0,0,-1,657,393,0,0
-560,631,0,0,0,0,0,0,0,0,0,-1,664,393,0,0
-553,631,0,0,0,0,0,0,0,0,0,-1,671,393,0,0
-546,631,0,0,0,0,0,0,0,0,0,-1,678,393,0,0
-539,631,0,0,0,0,0,0,0,0,0,-1,685,393,0,0
-532,631,0,0,0,0,0,0,0,0,0,-1,692,393,0,0
-525,631,0,0,0,0,0,0,0,0,0,-1,699,393,0,0
-518,631,0,0,0,0,0,0,0,0,0,-1,706,393,0,0
-511,631,0,0,0,0,0,0,0,0,0,-1,713,393,0,0
-504,631,0,0,0,0,0,0,0,0,0,-1,720,393,0,0
-497,631,0,0,0,0,0,0,0,0,0,-1,727,393,0,0
-490,631,0,0,0,0,0,0,0,0,0,-1,734,393,0,0
-483,631,0,0,0,0,0,0,0,0,0,-1,741,393,0,0
-476,631,0,0,0,0,0,0,0,0,0,-1,748,393,0,0
-469,631,0,0,0,0,0,0,0,0,0,-1,755,393,0,0
-462,631,0,0,0,0,0,0,0,0,0,-1,762,393,0,0
-455,631,0,0,0,0,0,0,0,0,0,-1,769,393,0,0
-448,631,0,0,0,0,0,0,0,0,0,-1,776,393,0,0
-441,631,0,0,0,0,0,0,0,0,0,-1,783,393,0,0
-434,631,0,0,0,0,0,0,0,0,0,-1,790,393,0,0
-427,631,0,0,0,0,0,0,0,0,0,-1,797,393,0,0
-420,631,0,0,0,0,0,0,0,0,0,-1,804,393,0,0
-413,631,0,0,0,0,0,0,0,0,0,-1,811,393,0,0
-406,631,0,0,0,0,0,0,0,0,0,-1,818,393,0,0
-399,631,0,0,0,0,0,0,0,0,0,-1,825,393,0,0
-392,631,0,0,0,0,0,0,0,0,0,-1,832,393,0,0
-385,631,0,0,0,0,0,0,0,0,0,-1,839,393,0,0
-378,631,0,0,0,0,0,0,0,0,0,-1,846,393,0,0
-371,631,0,0,0,0,0,0,0,0,0,-1,853,393,0,0
-364,631,0,0,0,0,0,0,0,0,0,-1,860,393,0,0
-357,631,0,0,0,0,0,0,0,0,0,-1,867,393,0,0
-350,631,0,0,0,0,0,0,0,0,0,-1,874,393,0,0
-343,631,0,0,0,0,0,0,0,0,0,-1,881,393,0,0
-336,631,0,0,0,0,0,0,0,0,0,-1,888,393,0,0
-329,631,0,0,0,0,0,0,0,0,0,-1,895,393,0,0
-322,631,0,0,0,0,0,0,0,0,0,-1,902,393,0,0
-315,631,0,0,0,0,0,0,0,0,0,-1,909,393,0,0
-308,631,0,0,0,0,0,0,0,0,0,-1,916,393,0,0
-301,631,0,0,0,0,0,0,0,0,0,-1,923,393,0,0
-294,631,0,0,0,0,0,0,0,0,0,-1,930,393,0,0
-287,631,0,0,0,0,0,0,0,0,0,-1,937,393,0,0
-280,631,1.55042,-14.0146,0,0,0,0,0,0,0,-1,944,393,1.55041,14.0146
-273,631,2.41461,-11.6467,0,0,0,0,0,0,0,-1,951,393,2.41461,11.6467
-266,631,1.18927,-15.6338,0,0,0,0,0,0,0,-1,958,393,1.18924,15.6338
-259,631,6.22192,-17.9323,0,0,0,0,0,0,0,-1,965,393,6.22191,17.9323
-252,631,6.5943,-18.1792,0,0,0,0,0,0,0,-1,972,393,6.5943,18.1792
-245,631,6.91205,-18.3334,0,0,0,0,0,0,0,-1,979,393,6.91202,18.3334
-238,631,3.7287,-20.9219,0,0,0,0,0,0,0,-1,986,393,3.72869,20.9219
-231,631,7.19537,-18.6513,0,0,0,0,0,0,0,-1,993,393,7.19538,18.6513
-224,631,5.24615,-18.3286,0,0,0,0,0,0,0,-1,1000,393,5.24613,18.3286
-217,631,5.05188,-18.3867,0,0,0,0,0,0,0,-1,1007,393,5.0519,18.3866
-210,631,3.94629,-18.0287,0,0,0,0,0,0,0,-1,1014,393,3.94627,18.0286
-203,631,3.86572,-20.1584,0,0,0,0,0,0,0,-1,1021,393,3.86568,20.1584
-196,631,3.94458,-20.1788,0,0,0,0,0,0,0,-1,1028,393,3.94458,20.1788
-189,631,3.75122,-20.2293,0,0,0,0,0,0,0,-1,1035,393,3.75118,20.2293
-182,631,3.60071,-20.587,-0.0038427,0.00346491,0.00406797,0.00527907,-0.00565687,1.1513,0.00631512,0.046384,1042,393,3.60072,20.587
-175,631,3.63147,-21.353,-0.0028346,0.00154778,0.00220175,0.00246288,-0.0037497,1.1769,0.00361239,0.0353016,1049,393,3.63141,21.353
-168,631,3.78906,-21.6582,-0.00204375,0.000178145,0.000766257,0.000416773,-0.00228238,1.2689,0.00167785,0.018849,1056,393,3.78911,21.6582
-161,631,3.73218,-21.9305,-0.00112508,-0.000648851,-0.000511532,-0.000322729,-0.0014512,-1.00323,0.000879849,0.00922629,1063,393,3.73215,21.9305
-154,631,3.71985,-22.1854,-0.000207136,-0.000320276,-0.00142607,0.00116349,-0.0016909,-0.765574,0.00165733,0.00900763,1070,393,3.71989,22.1854
-147,631,3.70825,-22.4099,0.000424885,0.000164121,-0.00215397,0.00245241,-0.00186341,-0.75517,0.00249946,0.0101165,1077,393,3.70824,22.4099
-140,631,3.68079,-22.64,0.0009804,0.000832692,-0.00258401,0.00349161,-0.00167852,-0.771111,0.00304554,0.00943998,1084,393,3.68082,22.6399
-133,631,3.64954,-22.8633,0.00158348,0.0014437,-0.00317119,0.00468555,-0.00165837,-0.774381,0.00379912,0.00835335,1091,393,3.64948,22.8633
-126,631,3.64734,-23.0497,0.00184661,0.00279726,-0.00319106,0.00554821,-0.000904331,-0.859332,0.00403418,0.0131045,1098,393,3.64728,23.0496
-119,631,3.63745,-23.2531,0.00172085,0.00372105,-0.00266654,0.00556887,-0.000126964,-0.964807,0.00375561,0.0160689,1105,393,3.6375,23.2531
-112,631,3.63721,-23.4745,0.00159598,0.00441781,-0.00234749,0.00574576,0.000268021,-1.05599,0.00374437,0.0149904,1112,393,3.63724,23.4745
-105,631,3.66492,-23.6622,0.00130958,0.00513787,-0.00195821,0.00596207,0.000485375,-1.17241,0.0038232,0.0194134,1119,393,3.6649,23.6622
-98,631,3.61792,-23.8588,0.00100093,0.00535052,-0.00165911,0.00591112,0.000440326,-1.24495,0.00380248,0.0167135,1126,393,3.61793,23.8588
-91,631,3.56055,-24.0473,0.000828272,0.00527446,-0.00139091,0.00567372,0.000429006,-1.29126,0.0036479,0.0175268,1133,393,3.56056,24.0473
-84,631,3.55713,-24.2131,0.000519367,0.00478395,-0.00111039,0.00505574,0.000247571,-1.33074,0.00329108,0.0165315,1140,393,3.55716,24.2131
-77,631,3.55994,-24.3714,0.000172439,0.00407907,-0.000825351,0.00424629,5.22542e-06,-1.3709,0.00282912,0.0112,1147,393,3.55999,24.3714
-70,631,3.56555,-24.5058,-1.9383e-05,0.00345801,-0.000541087,0.00354026,-0.000101631,-1.41995,0.00239477,0.0120361,1154,393,3.56551,24.5058
-63,631,3.54431,-24.656,-0.000121869,0.00300987,-0.000411286,0.00306298,-0.000174981,-1.44237,0.00210274,0.0129196,1161,393,3.54427,24.656
-56,631,3.52307,-24.8188,-0.000159304,0.00270561,-0.000287087,0.0027341,-0.00018779,-1.4719,0.00188844,0.0139911,1168,393,3.52302,24.8187
-49,631,3.52539,-24.935,-7.25788e-05,0.00186542,-0.000183764,0.00188269,-8.98497e-05,-1.47709,0.00128612,0.0110698,1175,393,3.52535,24.935
-42,631,3.53589,-25.0346,0.00025852,0.00120573,9.82111e-06,0.00120583,0.000258418,1.56043,0.000733093,0.0092104,1182,393,3.53592,25.0346
-35,631,3.53552,-25.1451,0.00055454,0.000405221,0.000156264,0.000653064,0.000306697,0.562542,0.000377279,0.010034,1189,393,3.53548,25.1451
-28,631,3.53247,-25.243,0.000749701,-0.000505765,0.000188714,0.000777454,-0.000533517,0.146016,0.000761245,0.0124748,1196,393,3.53252,25.243
-21,631,3.52026,-25.349,0.000926507,-0.00151147,0.000161066,0.000937101,-0.00152206,0.0656851,0.00143313,0.0115733,1203,393,3.52021,25.349
-14,631,3.50525,-25.4594,0.00120505,-0.00262329,0.000135046,0.00120981,-0.00262805,0.035217,0.00226566,0.0142481,1210,393,3.5053,25.4594
-7,631,3.48547,-25.5913,0.00166677,-0.00331503,-7.95303e-05,0.00166804,-0.0033163,-0.0159587,0.00292969,0.0226595,1217,393,3.48552,25.5913
0,631,3.47754,-25.6989,0.00199974,-0.0035946,-0.000396538,0.00202771,-0.00362257,-0.0704127,0.00330522,0.0243364,1224,393,3.47754,25.6989
7,631,3.49902,-25.7038,0.00210466,-0.00378424,-0.000607515,0.00216668,-0.00384626,-0.101735,0.00351643,0.0189217,1231,393,3.49906,25.7038
14,631,3.53479,-25.7281,0.00212253,-0.00378045,-0.000702995,0.0022051,-0.00386301,-0.116913,0.00354675,0.0108411,1238,393,3.53476,25.7281
21,631,3.54761,-25.7657,0.00213274,-0.00341463,-0.00081564,0.00225018,-0.00353207,-0.143001,0.00336561,0.0122762,1245,393,3.54758,25.7657
28,631,3.55981,-25.7958,0.00216303,-0.00291089,-0.000848856,0.00230127,-0.00304914,-0.161443,0.0030991,0.0136014,1252,393,3.55987,25.7958
35,631,3.57617,-25.8077,0.00196284,-0.00223621,-0.000815009,0.00211548,-0.00238885,-0.185141,0.00260218,0.0132316,1259,393,3.57621,25.8077
42,631,3.60828,-25.8329,0.0020841,-0.000886881,-0.000326796,0.00211962,-0.000922402,-0.108271,0.00180108,0.0118576,1266,393,3.60831,25.8329
49,631,3.6123,-25.85,0.00222726,0.000484615,0.000134451,0.00223757,0.000474303,0.0765498,0.00136144,0.0108655,1273,393,3.61232,25.85
56,631,3.62573,-25.8645,0.00192008,0.00397229,0.00103506,0.00440366,0.00148871,1.17593,0.00258652,0.0131758,1280,393,3.62578,25.8645
63,631,3.60938,-25.8693,0.00153055,0.00868109,0.00257374,0.00951113,0.000700513,1.25883,0.00612062,0.0151083,1287,393,3.60936,25.8692
70,631,3.60046,-25.8569,0.00133856,0.0121607,0.00364452,0.0132736,0.000225654,1.27443,0.0087748,0.0145061,1294,393,3.60045,25.8569
77,631,3.61499,-25.8237,0.00123229,0.0157491,0.00470108,0.0171385,-0.000157115,1.28343,0.0114784,0.0141431,1301,393,3.61493,25.8237
84,631,3.63721,-25.7798,0.00114072,0.0190718,0.00558545,0.0206693,-0.000456801,1.29222,0.0139343,0.0113736,1308,393,3.63723,25.7798
91,631,3.6416,-25.7414,0.000867396,0.021668,0.0060899,0.0233198,-0.000784406,1.30593,0.0158145,0.0142706,1315,393,3.64159,25.7414
98,631,3.64856,-25.6869,0.000611223,0.0228281,0.00626781,0.0244744,-0.00103505,1.31394,0.016672,0.0132049,1322,393,3.64861,25.6869
105,631,3.63745,-25.6287,0.000679974,0.022537,0.00600331,0.0240773,-0.00086036,1.31963,0.0163459,0.0110802,1329,393,3.63745,25.6287
112,631,3.65759,-25.5756,0.000957816,0.0215023,0.0052068,0.0227466,-0.000286439,1.33623,0.0152607,0.0112316,1336,393,3.65764,25.5756
119,631,3.67395,-25.494,0.00118466,0.0194801,0.00415465,0.0203793,0.000285391,1.35764,0.0134921,0.011744,1343,393,3.67395,25.494
126,631,3.68896,-25.3688,0.00133976,0.016092,0.00287545,0.0166327,0.000799101,1.38494,0.0108319,0.0163595,1350,393,3.68901,25.3688
133,631,3.7041,-25.2576,0.00142692,0.0123232,0.00151134,0.012529,0.00122117,1.4355,0.0079768,0.0179831,1357,393,3.70409,25.2576
140,631,3.68579,-25.1803,0.001622,0.00873895,0.000327934,0.00875403,0.00160692,1.52485,0.00538096,0.0202226,1364,393,3.68575,25.1803
147,631,3.67065,-25.0532,0.00150714,0.00529454,-0.000795348,0.00545478,0.00134689,-1.37198,0.00328104,0.0231103,1371,393,3.67064,25.0532
154,631,3.67676,-24.9187,0.00146238,0.0028791,-0.00139657,0.00373668,0.0006048,-1.0201,0.002316,0.0213482,1378,393,3.67675,24.9187
161,631,3.64197,-24.826,0.00158219,0.000619338,-0.00173604,0.00290232,-0.000700797,-0.650141,0.0022059,0.0240458,1385,393,3.64195,24.826
168,631,3.67932,-24.6665,0.00138203,-0.000476915,-0.0017841,0.00246426,-0.00155915,-0.545255,0.00234242,0.0280705,1392,393,3.67927,24.6665
175,631,3.68445,-24.5336,0.000981333,1.56331e-05,-0.00115979,0.00175477,-0.000757801,-0.588148,0.00148821,0.0207311,1399,393,3.68441,24.5336
182,631,3.67944,-24.401,0.000580338,0.000617181,-0.000522354,0.00112144,7.60808e-05,-0.803024,0.0007236,0.0111344,1406,393,3.6794,24.401
189,631,3.68689,-24.2323,0.000227361,0.00121909,1.9396e-05,0.00121947,0.000226982,1.55125,0.000748873,0.0105969,1413,393,3.68692,24.2323
196,631,3.66687,-24.0637,-1.4171e-05,0.00176202,0.000498223,0.00189223,-0.000144378,1.31517,0.00131226,0.0109276,1420,393,3.66683,24.0637
203,631,3.65198,-23.8995,-0.000308079,0.00235741,0.000879008,0.00262118,-0.00057185,1.27927,0.00196599,0.0139986,1427,393,3.65198,23.8995
210,631,3.68286,-23.7387,-0.000651683,0.00289623,0.0011022,0.00321076,-0.000966209,1.29282,0.00252497,0.0158267,1434,393,3.68288,23.7387
217,631,3.68628,-23.5707,-0.000862419,0.00333742,0.00120971,0.00366094,-0.00118594,1.30948,0.00291742,0.0158594,1441,393,3.68634,23.5707
224,631,3.65088,-23.3411,-0.000887716,0.00390426,0.00130696,0.00423754,-0.001221,1.32111,0.00330801,0.012747,1448,393,3.65093,23.3411
231,631,3.61572,-23.0898,-0.000649609,0.00439461,0.00154017,0.00482769,-0.00108269,1.29668,0.00363353,0.0109457,1455,393,3.61572,23.0898
238,631,3.61023,-22.8694,-0.000333238,0.0051388,0.00198108,0.00578072,-0.000975158,1.25745,0.00421662,0.0158631,1462,393,3.61026,22.8693
245,631,3.60352,-22.6514,-8.30815e-05,0.00578851,0.0022862,0.00657368,-0.000868256,1.23998,0.00469869,0.0172557,1469,393,3.6035,22.6514
252,631,3.59314,-22.4303,0.000389373,0.00645684,0.00267166,0.00746554,-0.00061933,1.20979,0.00519579,0.0166949,1476,393,3.59313,22.4303
259,631,3.5553,-22.1769,0.00109203,0.00723266,0.0031841,0.00858562,-0.000260929,1.169,0.00581268,0.0122361,1483,393,3.55531,22.1769
266,631,3.56445,-21.9379,0.00168078,0.00773509,0.00396328,0.00969505,-0.000279174,1.11154,0.0065584,0.0119001,1490,393,3.56444,21.9379
273,631,3.55298,-21.6992,0.00201183,0.00797408,0.00537673,0.0111408,-0.00115492,1.03852,0.0078406,0.0133569,1497,393,3.55292,21.6992
280,631,3.53101,-21.4342,0.00237955,0.00883245,0.00717896,0.0134767,-0.00226467,0.996589,0.00982671,0.0113533,1504,393,3.53102,21.4342
287,631,3.52576,-21.1455,0.00279635,0.0093168,0.00899754,0.0156266,-0.00351342,0.959214,0.011765,0.0131545,1511,393,3.52581,21.1455
294,631,3.50745,-20.8408,0.0028951,0.00969117,0.011104,0.0179054,-0.00531918,0.933883,0.0140498,0.0175142,1518,393,3.50747,20.8408
301,631,3.44409,-20.4921,0.00280529,0.010093,0.01348,0.0204129,-0.00751465,0.917401,0.0166874,0.0270583,1525,393,3.44414,20.4921
308,631,3.64368,-20.0755,0.00257675,0.0105502,0.0160838,0.023134,-0.0100071,0.906885,0.019628,0.0352552,1532,393,3.64374,20.0755
315,631,3.92444,-20.0005,0.00215936,0.010969,0.0189524,0.0260218,-0.0128934,0.899579,0.0228899,0.0387499,1539,393,3.92442,20.0004
322,631,3.55847,-19.7073,0.00148611,0.0115874,0.0218676,0.02898,-0.0159066,0.89889,0.0262791,0.0406159,1546,393,3.55852,19.7073
329,631,3.49719,-19.3155,0.000590331,0.0121812,0.0245139,0.0315754,-0.0188038,0.901474,0.0293963,0.0425704,1553,393,3.49723,19.3155
336,631,3.6698,-19.0997,0,0,0,0,0,0,0,-1,1560,393,3.66976,19.0997
343,631,2.45703,-11.5554,0,0,0,0,0,0,0,-1,1567,393,2.45703,11.5554
350,631,2.1344,-9.23401,0,0,0,0,0,0,0,-1,1574,393,2.13439,9.23401
357,631,2.6449,-9.60303,0,0,0,0,0,0,0,-1,1581,393,2.64491,9.60304
364,631,3.39136,-5.7594,0,0,0,0,0,0,0,-1,1588,393,3.39137,5.75939
371,631,3.72839,-6.0574,0,0,0,0,0,0,0,-1,1595,393,3.72845,6.05742
378,631,4.06555,-6.35544,0,0,0,0,0,0,0,-1,1602,393,4.06553,6.35544
385,631,3.90442,-3.58298,0,0,0,0,0,0,0,-1,1609,393,3.90437,3.58299
392,631,0.352295,-2.21301,0,0,0,0,0,0,0,-1,1616,393,0.352345,2.213
399,631,0,0,0,0,0,0,0,0,0,-1,1623,393,0,0
406,631,0,0,0,0,0,0,0,0,0,-1,1630,393,0,0
413,631,0,0,0,0,0,0,0,0,0,-1,1637,393,0,0
420,631,0,0,0,0,0,0,0,0,0,-1,1644,393,0,0
427,631,0,0,0,0,0,0,0,0,0,-1,1651,393,0,0
434,631,0,0,0,0,0,0,0,0,0,-1,1658,393,0,0
441,631,0,0,0,0,0,0,0,0,0,-1,1665,393,0,0
448,631,0,0,0,0,0,0,0,0,0,-1,1672,393,0,0
455,631,0,0,0,0,0,0,0,0,0,-1,1679,393,0,0
462,631,0,0,0,0,0,0,0,0,0,-1,1686,393,0,0
469,631,0,0,0,0,0,0,0,0,0,-1,1693,393,0,0
476,631,0,0,0,0,0,0,0,0,0,-1,1700,393,0,0
483,631,0,0,0,0,0,0,0,0,0,-1,1707,393,0,0
490,631,0,0,0,0,0,0,0,0,0,-1,1714,393,0,0
497,631,0,0,0,0,0,0,0,0,0,-1,1721,393,0,0
504,631,0,0,0,0,0,0,0,0,0,-1,1728,393,0,0
511,631,0,0,0,0,0,0,0,0,0,-1,1735,393,0,0
518,631,0,0,0,0,0,0,0,0,0,-1,1742,393,0,0
525,631,0,0,0,0,0,0,0,0,0,-1,1749,393,0,0
532,631,0,0,0,0,0,0,0,0,0,-1,1756,393,0,0
539,631,0,0,0,0,0,0,0,0,0,-1,1763,393,0,0
546,631,0,0,0,0,0,0,0,0,0,-1,1770,393,0,0
553,631,0,0,0,0,0,0,0,0,0,-1,1777,393,0,0
560,631,0,0,0,0,0,0,0,0,0,-1,1784,393,0,0
567,631,0,0,0,0,0,0,0,0,0,-1,1791,393,0,0
574,631,0,0,0,0,0,0,0,0,0,-1,1798,393,0,0
581,631,0,0,0,0,0,0,0,0,0,-1,1805,393,0,0
588,631,0,0,0,0,0,0,0,0,0,-1,1812,393,0,0
595,631,0,0,0,0,0,0,0,0,0,-1,1819,393,0,0
602,631,0,0,0,0,0,0,0,0,0,-1,1826,393,0,0
609,631,0,0,0,0,0,0,0,0,0,-1,1833,393,0,0
616,631,0,0,0,0,0,0,0,0,0,-1,1840,393,0,0
623,631,0,0,0,0,0,0,0,0,0,-1,1847,393,0,0
630,631,0,0,0,0,0,0,0,0,0,-1,1854,393,0,0
637,631,0,0,0,0,0,0,0,0,0,-1,1861,393,0,0
644,631,0,0,0,0,0,0,0,0,0,-1,1868,393,0,0
651,631,0,0,0,0,0,0,0,0,0,-1,1875,393,0,0
658,631,0,0,0,0,0,0,0,0,0,-1,1882,393,0,0
665,631,0,0,0,0,0,0,0,0,0,-1,1889,393,0,0
672,631,0,0,0,0,0,0,0,0,0,-1,1896,393,0,0
679,631,0,0,0,0,0,0,0,0,0,-1,1903,393,0,0
686,631,0,0,0,0,0,0,0,0,0,-1,1910,393,0,0
693,631,0,0,0,0,0,0,0,0,0,-1,1917,393,0,0
700,631,0,0,0,0,0,0,0,0,0,-1,1924,393,0,0
707,631,0,0,0,0,0,0,0,0,0,-1,1931,393,0,0
714,631,0,0,0,0,0,0,0,0,0,-1,1938,393,0,0
721,631,0,0,0,0,0,0,0,0,0,-1,1945,393,0,0
728,631,0,0,0,0,0,0,0,0,0,-1,1952,393,0,0
735,631,0,0,0,0,0,0,0,0,0,-1,1959,393,0,0
742,631,0,0,0,0,0,0,0,0,0,-1,1966,393,0,0
749,631,0,0,0,0,0,0,0,0,0,-1,1973,393,0,0
756,631,0,0,0,0,0,0,0,0,0,-1,1980,393,0,0
763,631,0,0,0,0,0,0,0,0,0,-1,1987,393,0,0
770,631,0,0,0,0,0,0,0,0,0,-1,1994,393,0,0
777,631,0,0,0,0,0,0,0,0,0,-1,2001,393,0,0
784,631,0,0,0,0,0,0,0,0,0,-1,2008,393,0,0
791,631,0,0,0,0,0,0,0,0,0,-1,2015,393,0,0
798,631,0,0,0,0,0,0,0,0,0,-1,2022,393,0,0
805,631,0,0,0,0,0,0,0,0,0,-1,2029,393,0,0
812,631,0,0,0,0,0,0,0,0,0,-1,2036,393,0,0
-700,624,0,0,0,0,0,0,0,0,0,-1,524,400,0,0
-693,624,0,0,0,0,0,0,0,0,0,-1,531,400,0,0
-686,624,0,0,0,0,0,0,0,0,0,-1,538,400,0,0
-679,624,0,0,0,0,0,0,0,0,0,-1,545,400,0,0
-672,624,0,0,0,0,0,0,0,0,0,-1,552,400,0,0
-665,624,0,0,0,0,0,0,0,0,0,-1,559,400,0,0
-658,624,0,0,0,0,0,0,0,0,0,-1,566,400,0,0
-651,624,0,0,0,0,0,0,0,0,0,-1,573,400,0,0
-644,624,0,0,0,0,0,0,0,0,0,-1,580,400,0,0
-637,624,0,0,0,0,0,0,0,0,0,-1,587,400,0,0
-630,624,0,0,0,0,0,0,0,0,0,-1,594,400,0,0
-623,624,0,0,0,0,0,0,0,0,0,-1,601,400,0,0
-616,624,0,0,0,0,0,0,0,0,0,-1,608,400,0,0
-609,624,0,0,0,0,0,0,0,0,0,-1,615,400,0,0
-602,624,0,0,0,0,0,0,0,0,0,-1,622,400,0,0
-595,624,0,0,0,0,0,0,0,0,0,-1,629,400,0,0
-588,624,0,0,0,0,0,0,0,0,0,-1,636,400,0,0
-581,624,0,0,0,0,0,0,0,0,0,-1,643,400,0,0
-574,624,0,0,0,0,0,0,0,0,0,-1,650,400,0,0
-567,624,0,0,0,0,0,0,0,0,0,-1,657,400,0,0
-560,624,0,0,0,0,0,0,0,0,0,-1,664,400,0,0
-553,624,0,0,0,0,0,0,0,0,0,-1,671,400,0,0
-546,624,0,0,0,0,0,0,0,0,0,-1,678,400,0,0
-539,624,0,0,0,0,0,0,0,0,0,-1,685,400,0,0
-532,624,0,0,0,0,0,0,0,0,0,-1,692,400,0,0
-525,624,0,0,0,0,0,0,0,0,0,-1,699,400,0,0
-518,624,0,0,0,0,0,0,0,0,0,-1,706,400,0,0
-511,624,0,0,0,0,0,0,0,0,0,-1,713,400,0,0
-504,624,0,0,0,0,0,0,0,0,0,-1,720,400,0,0
-497,624,0,0,0,0,0,0,0,0,0,-1,727,400,0,0
-490,624,0,0,0,0,0,0,0,0,0,-1,734,400,0,0
-483,624,0,0,0,0,0,0,0,0,0,-1,741,400,0,0
-476,624,0,0,0,0,0,0,0,0,0,-1,748,400,0,0
-469,624,0,0,0,0,0,0,0,0,0,-1,755,400,0,0
-462,624,0,0,0,0,0,0,0,0,0,-1,762,400,0,0
-455,624,0,0,0,0,0,0,0,0,0,-1,769,400,0,0
-448,624,0,0,0,0,0,0,0,0,0,-1,776,400,0,0
-441,624,0,0,0,0,0,0,0,0,0,-1,783,400,0,0
-434,624,0,0,0,0,0,0,0,0,0,-1,790,400,0,0
-427,624,0,0,0,0,0,0,0,0,0,-1,797,400,0,0
-420,624,0,0,0,0,0,0,0,0,0,-1,804,400,0,0
-413,624,0,0,0,0,0,0,0,0,0,-1,811,400,0,0
-406,624,0,0,0,0,0,0,0,0,0,-1,818,400,0,0
-399,624,0,0,0,0,0,0,0,0,0,-1,825,400,0,0
-392,624,0,0,0,0,0,0,0,0,0,-1,832,400,0,0
-385,624,0,0,0,0,0,0,0,0,0,-1,839,400,0,0
-378,624,0,0,0,0,0,0,0,0,0,-1,846,400,0,0
-371,624,0,0,0,0,0,0,0,0,0,-1,853,400,0,0
-364,624,0,0,0,0,0,0,0,0,0,-1,860,400,0,0
-357,624,0,0,0,0,0,0,0,0,0,-1,867,400,0,0
-350,624,0,0,0,0,0,0,0,0,0,-1,874,400,0,0
-343,624,0,0,0,0,0,0,0,0,0,-1,881,400,0,0
-336,624,0,0,0,0,0,0,0,0,0,-1,888,400,0,0
-329,624,0,0,0,0,0,0,0,0,0,-1,895,400,0,0
-322,624,0,0,0,0,0,0,0,0,0,-1,902,400,0,0
-315,624,0,0,0,0,0,0,0,0,0,-1,909,400,0,0
-308,624,0,0,0,0,0,0,0,0,0,-1,916,400,0,0
-301,624,0,0,0,0,0,0,0,0,0,-1,923,400,0,0
-294,624,-0.912903,-12.9461,0,0,0,0,0,0,0,-1,930,400,-0.912926,12.9461
-287,624,0.12146,-15.0862,0,0,0,0,0,0,0,-1,937,400,0.121451,15.0862
-280,624,1.51831,-12.2324,0,0,0,0,0,0,0,-1,944,400,1.51834,12.2324
-273,624,2.42194,-10.4277,0,0,0,0,0,0,0,-1,951,400,2.42196,10.4277
-266,624,1.09729,-14.7566,0,0,0,0,0,0,0,-1,958,400,1.09731,14.7566
-259,624,5.08258,-17.7336,0,0,0,0,0,0,0,-1,965,400,5.0826,17.7335
-252,624,5.52063,-18.1928,0,0,0,0,0,0,0,-1,972,400,5.52061,18.1928
-245,624,4.39838,-20.344,0,0,0,0,0,0,0,-1,979,400,4.39836,20.344
-238,624,3.55481,-20.4229,0,0,0,0,0,0,0,-1,986,400,3.55479,20.4229
-231,624,2.71124,-20.5017,0,0,0,0,0,0,0,-1,993,400,2.71122,20.5018
-224,624,3.63086,-18.9349,0,0,0,0,0,0,0,-1,1000,400,3.63084,18.9349
-217,624,3.93488,-19.1753,0,0,0,0,0,0,0,-1,1007,400,3.9349,19.1753
-210,624,3.80444,-19.8941,0,0,0,0,0,0,0,-1,1014,400,3.80444,19.8941
-203,624,3.62122,-20.2097,-0.00380474,0.0100181,0.00490639,0.0115825,-0.00536919,1.26213,0.0100038,0.0444784,1021,400,3.62126,20.2097
-196,624,3.67932,-20.3683,-0.00385293,0.00806031,0.00412161,0.00934724,-0.00513986,1.26815,0.0084809,0.0376344,1028,400,3.6793,20.3684
-189,624,3.55151,-20.5851,-0.00346742,0.00600444,0.00301294,0.0068816,-0.00434458,1.28749,0.00653638,0.0342254,1035,400,3.55148,20.5852
-182,624,3.54395,-20.9518,-0.00273085,0.00477682,0.00170841,0.00514729,-0.00310133,1.35725,0.00481093,0.0293485,1042,400,3.54394,20.9518
-175,624,3.60095,-21.3887,-0.0020689,0.00299271,0.000600781,0.00306305,-0.00213923,1.45426,0.00301928,0.0202016,1049,400,3.60094,21.3887
-168,624,3.56604,-21.6906,-0.00158419,0.00157447,-0.00020498,0.00158772,-0.00159744,-1.50626,0.00183895,0.013186,1056,400,3.56598,21.6905
-161,624,3.51257,-21.9514,-0.000965163,0.000554713,-0.000936195,0.00100058,-0.00141103,-1.12632,0.00139905,0.0104255,1063,400,3.51255,21.9514
-154,624,3.50806,-22.1778,-0.000298153,0.000422108,-0.00145445,0.00156035,-0.0014364,-0.90676,0.00173067,0.010268,1070,400,3.50807,22.1778
-147,624,3.50317,-22.4243,0.000169361,0.000447989,-0.00186391,0.00217778,-0.00156043,-0.8227,0.00216805,0.0112054,1077,400,3.50321,22.4243
-140,624,3.46924,-22.6526,0.00060047,0.000650517,-0.00209057,0.00271621,-0.00146522,-0.791383,0.0024499,0.00956399,1084,400,3.46922,22.6525
-133,624,3.45154,-22.8629,0.00107966,0.000884368,-0.00243226,0.00341623,-0.00145221,-0.765336,0.00288603,0.0110947,1091,400,3.45154,22.8629
-126,624,3.4292,-23.0686,0.00130662,0.00170343,-0.0023653,0.00387863,-0.000868584,-0.827241,0.00291868,0.013785,1098,400,3.42922,23.0686
-119,624,3.3916,-23.2816,0.00126734,0.00234599,-0.00195566,0.00383533,-0.000222001,-0.919942,0.00263401,0.01549,1105,400,3.39163,23.2816
-112,624,3.39709,-23.4652,0.00122427,0.00283522,-0.00170955,0.00391954,0.000139942,-1.00555,0.00256765,0.016997,1112,400,3.39709,23.4653
-105,624,3.46204,-23.6551,0.00107975,0.00335437,-0.00143189,0.00404566,0.000388457,-1.12102,0.0025774,0.0125868,1119,400,3.46209,23.6551
-98,624,3.42139,-23.8453,0.000921498,0.00351538,-0.0012217,0.00400018,0.000436698,-1.19303,0.0025338,0.0130579,1126,400,3.42137,23.8453
-91,624,3.40369,-24.0358,0.000849964,0.00348542,-0.00103194,0.00384141,0.000493981,-1.23861,0.00241319,0.0189184,1133,400,3.40371,24.0358
-84,624,3.43323,-24.2229,0.000739818,0.00315416,-0.000818899,0.00340571,0.000488272,-1.27277,0.00212648,0.0179338,1140,400,3.43319,24.2229
-77,624,3.43872,-24.3741,0.000659575,0.00271487,-0.000608681,0.00288161,0.00049284,-1.30343,0.00177969,0.0131975,1147,400,3.43872,24.3741
-70,624,3.40417,-24.4965,0.000807978,0.00215226,-0.000346848,0.00223648,0.000723761,-1.3326,0.00131774,0.0140126,1154,400,3.40415,24.4965
-63,624,3.37842,-24.639,0.00103457,0.00142256,-0.000197923,0.00150571,0.00095142,-1.17309,0.000879343,0.0149183,1161,400,3.3784,24.639
-56,624,3.38745,-24.8214,0.00122579,0.000581736,-4.40363e-05,0.00122879,0.000578739,-0.0679524,0.000709838,0.0125427,1168,400,3.38749,24.8214
-49,624,3.40967,-24.9471,0.00149135,-0.000763749,5.303e-05,0.00149259,-0.000764995,0.0234983,0.00132579,0.0110395,1175,400,3.40972,24.947
-42,624,3.41858,-25.036,0.00195938,-0.0021415,0.000171134,0.00196651,-0.00214863,0.0416346,0.00237666,0.0100243,1182,400,3.41852,25.036
-35,624,3.39417,-25.1353,0.00234396,-0.00372268,0.000239433,0.00235339,-0.00373211,0.0393855,0.0035434,0.0146136,1189,400,3.39413,25.1353
-28,624,3.38953,-25.2806,0.00208259,-0.00529302,0.0003775,0.00210186,-0.00531229,0.0510045,0.00441231,0.0191171,1196,400,3.38948,25.2806
-21,624,3.42029,-25.3685,0.00180368,-0.00663506,0.000291083,0.00181371,-0.00664509,0.0344391,0.00514238,0.0149163,1203,400,3.42029,25.3685
-14,624,3.44055,-25.4499,0.00202552,-0.0080633,0.000204968,0.00202968,-0.00806747,0.0203052,0.00616723,0.0165993,1210,400,3.44058,25.4499
-7,624,3.39124,-25.5211,0.00259414,-0.00864181,-0.000251875,0.00259979,-0.00864745,-0.0224018,0.00679931,0.0203048,1217,400,3.39122,25.5211
0,624,3.42505,-25.6236,0.00283482,-0.00849092,-0.000787495,0.00288931,-0.00854542,-0.0690883,0.00686578,0.0202377,1224,400,3.42511,25.6236
7,624,3.45715,-25.6841,0.00282864,-0.00831502,-0.00112293,0.00294067,-0.00842705,-0.0994368,0.00681318,0.0151194,1231,400,3.4571,25.684
14,624,3.49365,-25.7413,0.00278546,-0.00779085,-0.00134139,0.00295293,-0.00795832,-0.12421,0.00651682,0.0125713,1238,400,3.49366,25.7413
21,624,3.5155,-25.7694,0.00279041,-0.00675403,-0.00165169,0.00306815,-0.00703178,-0.166601,0.005979,0.0130896,1245,400,3.51549,25.7694
28,624,3.52844,-25.8011,0.00287539,-0.00563477,-0.00186461,0.003266,-0.00602538,-0.206503,0.00544267,0.0121205,1252,400,3.52842,25.801
35,624,3.54932,-25.8104,0.00269065,-0.00433581,-0.00202337,0.00323165,-0.00487681,-0.261266,0.00471343,0.0155628,1259,400,3.54933,25.8104
42,624,3.58167,-25.8314,0.00302855,-0.00203675,-0.00147131,0.0034249,-0.00243311,-0.263142,0.00339824,0.0171932,1266,400,3.58162,25.8314
49,624,3.58447,-25.8445,0.00321469,0.000390548,-0.000942531,0.00350036,0.000104883,-0.294283,0.00229941,0.0180328,1273,400,3.58446,25.8445
56,624,3.61133,-25.8553,0.00263589,0.00550177,0.000253032,0.00552394,0.00261372,1.48341,0.00319078,0.0176516,1280,400,3.6113,25.8554
63,624,3.6355,-25.8632,0.00179442,0.0123459,0.00240679,0.012869,0.00127136,1.3568,0.00818851,0.0144653,1287,400,3.63556,25.8632
70,624,3.62805,-25.8768,0.00107659,0.0179991,0.0033942,0.0186545,0.000421193,1.38005,0.0122984,0.0126937,1294,400,3.62803,25.8768
77,624,3.63855,-25.8437,0.000734128,0.0235416,0.00469113,0.0244688,-0.000193067,1.37566,0.0163773,0.0124536,1301,400,3.63853,25.8437
84,624,3.66614,-25.7802,0.000289736,0.0284835,0.00583358,0.0296428,-0.000869617,1.37461,0.0200581,0.0111474,1308,400,3.66615,25.7802
91,624,3.68408,-25.7422,-0.000611701,0.0325174,0.00641344,0.0337156,-0.00180994,1.38609,0.023104,0.0117663,1315,400,3.68404,25.7422
98,624,3.67664,-25.7009,-0.00132354,0.0344327,0.0066161,0.0356176,-0.00250848,1.39358,0.0246239,0.0125115,1322,400,3.67662,25.7009
105,624,3.68408,-25.655,-0.00124297,0.0342748,0.00618038,0.0353195,-0.00228768,1.40334,0.0243447,0.0136652,1329,400,3.68409,25.655
112,624,3.72424,-25.5804,-0.000739018,0.0329615,0.00498002,0.033682,-0.00145952,1.42711,0.0229566,0.0133066,1336,400,3.72423,25.5803
119,624,3.74829,-25.4913,-0.000188377,0.0302059,0.00351701,0.0306076,-0.000590033,1.45709,0.0206045,0.013931,1343,400,3.74831,25.4913
126,624,3.78223,-25.3677,0.000453711,0.0251063,0.00183446,0.0252421,0.000317952,1.49693,0.0167231,0.0174373,1350,400,3.78224,25.3677
133,624,3.81885,-25.2567,0.00107958,0.0192868,5.5027e-05,0.019287,0.00107941,1.56777,0.0125137,0.0185168,1357,400,3.81888,25.2567
140,624,3.79578,-25.1492,0.0018325,0.01366,-0.00143593,0.0138318,0.00166066,-1.45169,0.00872051,0.0187853,1364,400,3.79583,25.1492
147,624,3.73816,-25.0112,0.00203008,0.00809853,-0.00292423,0.00927828,0.000850326,-1.18733,0.00592246,0.0222147,1371,400,3.73811,25.0112
154,624,3.78333,-24.9263,0.00241751,0.00387944,-0.00363871,0.00685988,-0.000562924,-0.884522,0.00477197,0.0243744,1378,400,3.78326,24.9263
161,624,3.81653,-24.8333,0.00307296,-0.000427785,-0.0041547,0.00583095,-0.00318578,-0.586032,0.00527995,0.0235125,1385,400,3.81657,24.8332
168,624,3.82068,-24.7202,0.00323538,-0.00333411,-0.00448876,0.00551287,-0.00561161,-0.469532,0.00642281,0.022456,1392,400,3.82073,24.7202
175,624,3.8407,-24.5933,0.00289657,-0.0030834,-0.00324275,0.00431741,-0.00450425,-0.412965,0.00509357,0.016622,1399,400,3.84073,24.5932
182,624,3.85474,-24.4179,0.00233517,-0.00207369,-0.00245535,0.00343048,-0.003169,-0.419597,0.00381121,0.0106357,1406,400,3.85468,24.4179
189,624,3.84937,-24.2362,0.0017566,-0.00112427,-0.00165454,0.00250987,-0.00187754,-0.427233,0.00254183,0.0107464,1413,400,3.84939,24.2362
196,624,3.82776,-24.0615,0.00132545,-0.000226303,-0.000843779,0.00169585,-0.000596702,-0.413649,0.00137338,0.0110512,1420,400,3.82775,24.0615
203,624,3.82874,-23.8912,0.000804589,0.000758103,-0.000137582,0.000920878,0.000641814,-0.70172,0.000545246,0.014636,1427,400,3.82874,23.8912
210,624,3.86035,-23.7261,0.000304495,0.00162027,0.000400504,0.00173259,0.000192175,1.29737,0.00109663,0.0182689,1434,400,3.86032,23.7261
217,624,3.84204,-23.5205,-1.04614e-05,0.00231375,0.000765461,0.00254319,-0.000239909,1.27957,0.00178083,0.0197699,1441,400,3.84199,23.5206
224,624,3.83032,-23.3043,-0.000128391,0.00283224,0.000930048,0.00310016,-0.00039631,1.29032,0.00221075,0.0154588,1448,400,3.83037,23.3043
231,624,3.83655,-23.1181,-6.77454e-05,0.00329487,0.00118522,0.00367063,-0.000443508,1.26378,0.00260753,0.0112259,1455,400,3.83657,23.1181
238,624,3.81567,-22.8965,9.30365e-05,0.00391845,0.00156568,0.00447754,-0.000466056,1.22782,0.00315188,0.0154287,1462,400,3.81566,22.8965
245,624,3.802,-22.6802,0.000219381,0.00447107,0.00183356,0.00515257,-0.000462117,1.21494,0.00359899,0.0164276,1469,400,3.80197,22.6802
252,624,3.8042,-22.4614,0.000499062,0.00504265,0.00214817,0.00589746,-0.000355754,1.19208,0.00405543,0.0122649,1476,400,3.80423,22.4614
259,624,3.80151,-22.2108,0.000942332,0.00568286,0.00256555,0.00680548,-0.000180282,1.15832,0.00459826,0.00943616,1483,400,3.80149,22.2108
266,624,3.82581,-21.9462,0.00129891,0.00608951,0.00318121,0.00767637,-0.000287948,1.10809,0.00521621,0.0142466,1490,400,3.82582,21.9462
273,624,3.79724,-21.6869,0.0014864,0.0063206,0.00423935,0.00878351,-0.0009765,1.04449,0.00620683,0.0163777,1497,400,3.7972,21.6869
280,624,3.7605,-21.4495,0.00171133,0.00697865,0.0055829,0.0105179,-0.00182793,1.00579,0.00769398,0.0145968,1504,400,3.76054,21.4495
287,624,3.73633,-21.201,0.0019967,0.00736941,0.00695486,0.0121387,-0.00277259,0.969699,0.00915765,0.0114229,1511,400,3.7363,21.201
294,624,3.70862,-20.9101,0.00204973,0.00769619,0.00850029,0.0138298,-0.00408391,0.945733,0.0108407,0.00941135,1518,400,3.70857,20.9101
301,624,3.67847,-20.6004,0.00197596,0.00802362,0.0102351,0.0156722,-0.0056726,0.929032,0.0127662,0.0109956,1525,400,3.67851,20.6004
308,624,3.69531,-20.2828,0.00182592,0.00840287,0.0121139,0.0176667,-0.00743789,0.917936,0.0148898,0.0149334,1532,400,3.69534,20.2828
315,624,3.72375,-19.9912,0.00154931,0.00875924,0.0141308,0.0197377,-0.0094291,0.910291,0.0171864,0.0172539,1539,400,3.72371,19.9912
322,624,3.71375,-19.7022,0.00110316,0.00926057,0.0161363,0.0218257,-0.011462,0.909188,0.0195267,0.0257753,1546,400,3.71372,19.7022
329,624,3.75659,-19.3667,0.000523544,0.00970795,0.0179137,0.0236086,-0.0133771,0.910872,0.0216244,0.0374902,1553,400,3.75663,19.3667
336,624,3.87109,-19.0275,-0.000116031,0.010311,0.0193549,0.0251422,-0.0149473,0.916957,0.0233939,0.0403008,1560,400,3.87105,19.0275
343,624,4.12207,-18.4951,0,0,0,0,0,0,0,-1,1567,400,4.12204,18.4951
350,624,1.99194,-7.29742,0,0,0,0,0,0,0,-1,1574,400,1.99198,7.29741
357,624,2.64075,-3.13092,0,0,0,0,0,0,0,-1,1581,400,2.64076,3.13091
364,624,3.16565,-4.9458,0,0,0,0,0,0,0,-1,1588,400,3.16564,4.94579
371,624,3.37561,-5.23529,0,0,0,0,0,0,0,-1,1595,400,3.37563,5.23529
378,624,1.50439,-5.22165,0,0,0,0,0,0,0,-1,1602,400,1.50438,5.22164
385,624,1.2301,-10.5866,0,0,0,0,0,0,0,-1,1609,400,1.2301,10.5866
392,624,4.26819,-5.14236,0,0,0,0,0,0,0,-1,1616,400,4.26818,5.14236
399,624,3.86841,-2.36917,0,0,0,0,0,0,0,-1,1623,400,3.86838,2.36916
406,624,4.35376,-2.6962,0,0,0,0,0,0,0,-1,1630,400,4.35373,2.69619
413,624,0,0,0,0,0,0,0,0,0,-1,1637,400,0,0
420,624,0,0,0,0,0,0,0,0,0,-1,1644,400,0,0
427,624,0,0,0,0,0,0,0,0,0,-1,1651,400,0,0
434,624,0,0,0,0,0,0,0,0,0,-1,1658,400,0,0
441,624,0,0,0,0,0,0,0,0,0,-1,1665,400,0,0
448,624,0,0,0,0,0,0,0,0,0,-1,1672,400,0,0
455,624,0,0,0,0,0,0,0,0,0,-1,1679,400,0,0
462,624,0,0,0,0,0,0,0,0,0,-1,1686,400,0,0
469,624,0,0,0,0,0,0,0,0,0,-1,1693,400,0,0
476,624,0,0,0,0,0,0,0,0,0,-1,1700,400,0,0
483,624,0,0,0,0,0,0,0,0,0,-1,1707,400,0,0
490,624,0,0,0,0,0,0,0,0,0,-1,1714,400,0,0
497,624,0,0,0,0,0,0,0,0,0,-1,1721,400,0,0
504,624,0,0,0,0,0,0,0,0,0,-1,1728,400,0,0
511,624,0,0,0,0,0,0,0,0,0,-1,1735,400,0,0
518,624,0,0,0,0,0,0,0,0,0,-1,1742,400,0,0
525,624,0,0,0,0,0,0,0,0,0,-1,1749,400,0,0
532,624,0,0,0,0,0,0,0,0,0,-1,1756,400,0,0
539,624,0,0,0,0,0,0,0,0,0,-1,1763,400,0,0
546,624,0,0,0,0,0,0,0,0,0,-1,1770,400,0,0
553,624,0,0,0,0,0,0,0,0,0,-1,1777,400,0,0
560,624,0,0,0,0,0,0,0,0,0,-1,1784,400,0,0
567,624,0,0,0,0,0,0,0,0,0,-1,1791,400,0,0
574,624,0,0,0,0,0,0,0,0,0,-1,1798,400,0,0
581,624,0,0,0,0,0,0,0,0,0,-1,1805,400,0,0
588,624,0,0,0,0,0,0,0,0,0,-1,1812,400,0,0
595,624,0,0,0,0,0,0,0,0,0,-1,1819,400,0,0
602,624,0,0,0,0,0,0,0,0,0,-1,1826,400,0,0
609,624,0,0,0,0,0,0,0,0,0,-1,1833,400,0,0
616,624,0,0,0,0,0,0,0,0,0,-1,1840,400,0,0
623,624,0,0,0,0,0,0,0,0,0,-1,1847,400,0,0
630,624,0,0,0,0,0,0,0,0,0,-1,1854,400,0,0
637,624,0,0,0,0,0,0,0,0,0,-1,1861,400,0,0
644,624,0,0,0,0,0,0,0,0,0,-1,1868,400,0,0
651,624,0,0,0,0,0,0,0,0,0,-1,1875,400,0,0
658,624,0,0,0,0,0,0,0,0,0,-1,1882,400,0,0
665,624,0,0,0,0,0,0,0,0,0,-1,1889,400,0,0
672,624,0,0,0,0,0,0,0,0,0,-1,1896,400,0,0
679,624,0,0,0,0,0,0,0,0,0,-1,1903,400,0,0
686,624,0,0,0,0,0,0,0,0,0,-1,1910,400,0,0
693,624,0,0,0,0,0,0,0,0,0,-1,1917,400,0,0
700,624,0,0,0,0,0,0,0,0,0,-1,1924,400,0,0
707,624,0,0,0,0,0,0,0,0,0,-1,1931,400,0,0
714,624,0,0,0,0,0,0,0,0,0,-1,1938,400,0,0
721,624,0,0,0,0,0,0,0,0,0,-1,1945,400,0,0
728,624,0,0,0,0,0,0,0,0,0,-1,1952,400,0,0
735,624,0,0,0,0,0,0,0,0,0,-1,1959,400,0,0
742,624,0,0,0,0,0,0,0,0,0,-1,1966,400,0,0
749,624,0,0,0,0,0,0,0,0,0,-1,1973,400,0,0
756,624,0,0,0,0,0,0,0,0,0,-1,1980,400,0,0
763,624,0,0,0,0,0,0,0,0,0,-1,1987,400,0,0
770,624,0,0,0,0,0,0,0,0,0,-1,1994,400,0,0
777,624,0,0,0,0,0,0,0,0,0,-1,2001,400,0,0
784,624,0,0,0,0,0,0,0,0,0,-1,2008,400,0,0
791,624,0,0,0,0,0,0,0,0,0,-1,2015,400,0,0
798,624,0,0,0,0,0,0,0,0,0,-1,2022,400,0,0
805,624,0,0,0,0,0,0,0,0,0,-1,2029,400,0,0
812,624,0,0,0,0,0,0,0,0,0,-1,2036,400,0,0
-700,617,0,0,0,0,0,0,0,0,0,-1,524,407,0,0
-693,617,0,0,0,0,0,0,0,0,0,-1,531,407,0,0
-686,617,0,0,0,0,0,0,0,0,0,-1,538,407,0,0
-679,617,0,0,0,0,0,0,0,0,0,-1,545,407,0,0
-672,617,0,0,0,0,0,0,0,0,0,-1,552,407,0,0
-665,617,0,0,0,0,0,0,0,0,0,-1,559,407,0,0
-658,617,0,0,0,0,0,0,0,0,0,-1,566,407,0,0
-651,617,0,0,0,0,0,0,0,0,0,-1,573,407,0,0
-644,617,0,0,0,0,0,0,0,0,0,-1,580,407,0,0
-637,617,0,0,0,0,0,0,0,0,0,-1,587,407,0,0
-630,617,0,0,0,0,0,0,0,0,0,-1,594,407,0,0
-623,617,0,0,0,0,0,0,0,0,0,-1,601,407,0,0
-616,617,0,0,0,0,0,0,0,0,0,-1,608,407,0,0
-609,617,0,0,0,0,0,0,0,0,0,-1,615,407,0,0
-602,617,0,0,0,0,0,0,0,0,0,-1,622,407,0,0
-595,617,0,0,0,0,0,0,0,0,0,-1,629,407,0,0
-588,617,0,0,0,0,0,0,0,0,0,-1,636,407,0,0
-581,617,0,0,0,0,0,0,0,0,0,-1,643,407,0,0
-574,617,0,0,0,0,0,0,0,0,0,-1,650,407,0,0
-567,617,0,0,0,0,0,0,0,0,0,-1,657,407,0,0
-560,617,0,0,0,0,0,0,0,0,0,-1,664,407,0,0
-553,617,0,0,0,0,0,0,0,0,0,-1,671,407,0,0
-546,617,0,0,0,0,0,0,0,0,0,-1,678,407,0,0
-539,617,0,0,0,0,0,0,0,0,0,-1,685,407,0,0
-532,617,0,0,0,0,0,0,0,0,0,-1,692,407,0,0
-525,617,0,0,0,0,0,0,0,0,0,-1,699,407,0,0
-518,617,0,0,0,0,0,0,0,0,0,-1,706,407,0,0
-511,617,0,0,0,0,0,0,0,0,0,-1,713,407,0,0
-504,617,0,0,0,0,0,0,0,0,0,-1,720,407,0,0
-497,617,0,0,0,0,0,0,0,0,0,-1,727,407,0,0
-490,617,0,0,0,0,0,0,0,0,0,-1,734,407,0,0
-483,617,0,0,0,0,0,0,0,0,0,-1,741,407,0,0
-476,617,0,0,0,0,0,0,0,0,0,-1,748,407,0,0
-469,617,0,0,0,0,0,0,0,0,0,-1,755,407,0,0
-462,617,0,0,0,0,0,0,0,0,0,-1,762,407,0,0
-455,617,0,0,0,0,0,0,0,0,0,-1,769,407,0,0
-448,617,0,0,0,0,0,0,0,0,0,-1,776,407,0,0
-441,617,0,0,0,0,0,0,0,0,0,-1,783,407,0,0
-434,617,0,0,0,0,0,0,0,0,0,-1,790,407,0,0
-427,617,0,0,0,0,0,0,0,0,0,-1,797,407,0,0
-420,617,0,0,0,0,0,0,0,0,0,-1,804,407,0,0
-413,617,0,0,0,0,0,0,0,0,0,-1,811,407,0,0
-406,617,0,0,0,0,0,0,0,0,0,-1,818,407,0,0
-399,617,0,0,0,0,0,0,0,0,0,-1,825,407,0,0
-392,617,0,0,0,0,0,0,0,0,0,-1,832,407,0,0
-385,617,0,0,0,0,0,0,0,0,0,-1,839,407,0,0
-378,617,0,0,0,0,0,0,0,0,0,-1,846,407,0,0
-371,617,0,0,0,0,0,0,0,0,0,-1,853,407,0,0
-364,617,0,0,0,0,0,0,0,0,0,-1,860,407,0,0
-357,617,0,0,0,0,0,0,0,0,0,-1,867,407,0,0
-350,617,0,0,0,0,0,0,0,0,0,-1,874,407,0,0
-343,617,0,0,0,0,0,0,0,0,0,-1,881,407,0,0
-336,617,0,0,0,0,0,0,0,0,0,-1,888,407,0,0
-329,617,0,0,0,0,0,0,0,0,0,-1,895,407,0,0
-322,617,0,0,0,0,0,0,0,0,0,-1,902,407,0,0
-315,617,0,0,0,0,0,0,0,0,0,-1,909,407,0,0
-308,617,0,0,0,0,0,0,0,0,0,-1,916,407,0,0
-301,617,3.0321,-13.8866,0,0,0,0,0,0,0,-1,923,407,3.03209,13.8866
-294,617,-0.867493,-11.1655,0,0,0,0,0,0,0,-1,930,407,-0.867487,11.1655
-287,617,-0.212524,-10.7744,0,0,0,0,0,0,0,-1,937,407,-0.212541,10.7743
-280,617,2.19739,-11.6377,0,0,0,0,0,0,0,-1,944,407,2.19737,11.6377
-273,617,2.42114,-9.26978,0,0,0,0,0,0,0,-1,951,407,2.42112,9.26979
-266,617,1.62323,-14.1301,0,0,0,0,0,0,0,-1,958,407,1.62322,14.1301
-259,617,2.11719,-14.8356,0,0,0,0,0,0,0,-1,965,407,2.11717,14.8356
-252,617,4.3772,-19.401,0,0,0,0,0,0,0,-1,972,407,4.3772,19.401
-245,617,3.7865,-19.6859,0,0,0,0,0,0,0,-1,979,407,3.78652,19.6859
-238,617,3.2533,-19.8487,0,0,0,0,0,0,0,-1,986,407,3.2533,19.8487
-231,617,2.65564,-19.8662,0,0,0,0,0,0,0,-1,993,407,2.65564,19.8662
-224,617,3.37506,-19.1286,-0.00110442,0.0139006,0.0019019,0.0141379,-0.00134174,1.44666,0.00990289,0.049425,1000,407,3.37503,19.1286
-217,617,3.53363,-19.4536,-0.00171647,0.0127,0.00233105,0.0130676,-0.00208402,1.41441,0.00948303,0.041202,1007,407,3.53361,19.4536
-210,617,3.48401,-20.0388,-0.0024681,0.0106465,0.00253779,0.0111204,-0.00294206,1.38616,0.00856443,0.027902,1014,407,3.48403,20.0387
-203,617,3.41418,-20.3635,-0.00261626,0.00913789,0.00221181,0.00954031,-0.00301868,1.39082,0.0075698,0.0209465,1021,407,3.41418,20.3635
-196,617,3.39709,-20.6024,-0.00261582,0.00771237,0.00178379,0.00801177,-0.00291522,1.4045,0.00653343,0.0153533,1028,407,3.39713,20.6024
-189,617,3.34888,-20.8916,-0.00233589,0.00605873,0.00113399,0.00620922,-0.00248638,1.43886,0.0051715,0.0128385,1035,407,3.34883,20.8916
-182,617,3.34082,-21.1631,-0.00181351,0.00500429,0.000343579,0.00502156,-0.00183078,1.52057,0.00409667,0.0144387,1042,407,3.34087,21.1631
-175,617,3.34363,-21.4112,-0.00136479,0.00333691,-0.000252613,0.00335044,-0.00137832,-1.51727,0.00280818,0.0139244,1049,407,3.34358,21.4112
-168,617,3.31799,-21.7094,-0.00107753,0.00190453,-0.000636099,0.00203454,-0.00120755,-1.36918,0.00189201,0.0110531,1056,407,3.318,21.7094
-161,617,3.2821,-21.9683,-0.000667031,0.000779781,-0.00100198,0.00129221,-0.00117946,-1.09806,0.00142751,0.0108962,1063,407,3.28211,21.9683
-154,617,3.28442,-22.1939,-0.000187186,0.000349948,-0.00124441,0.00135444,-0.00119168,-0.891677,0.00147101,0.0117421,1070,407,3.28447,22.1939
-147,617,3.28394,-22.4299,0.000149929,7.50474e-05,-0.00142207,0.00153505,-0.00131007,-0.772237,0.00164434,0.0162179,1077,407,3.28394,22.4299
-140,617,3.26038,-22.6721,0.000470909,-2.88154e-05,-0.00149786,0.0017396,-0.00129751,-0.702753,0.00175965,0.0116745,1084,407,3.26032,22.6721
-133,617,3.25159,-22.8753,0.000835189,-4.52357e-05,-0.00164559,0.00209843,-0.00130847,-0.654703,0.00198452,0.0139551,1091,407,3.25163,22.8753
-126,617,3.23425,-23.0656,0.00102214,0.000384696,-0.00151609,0.00225265,-0.000845814,-0.681794,0.00184934,0.0142842,1098,407,3.23423,23.0656
-119,617,3.18567,-23.2933,0.00104771,0.00083648,-0.00121625,0.00216292,-0.000278729,-0.742089,0.00154327,0.0135881,1105,407,3.18563,23.2933
-112,617,3.21301,-23.4897,0.0010646,0.00118584,-0.00103542,0.00216241,8.80294e-05,-0.814637,0.00141318,0.0148738,1112,407,3.21299,23.4897
-105,617,3.23218,-23.6688,0.00103222,0.00156207,-0.000857931,0.00219505,0.000399241,-0.935152,0.00135011,0.0152343,1119,407,3.23213,23.6688
-98,617,3.23755,-23.8449,0.000994847,0.00170591,-0.000734476,0.00216638,0.000534377,-1.01081,0.00130318,0.0127842,1126,407,3.23759,23.8449
-91,617,3.23413,-24.0298,0.00101934,0.00174973,-0.000641425,0.00212263,0.000646433,-1.04419,0.00125633,0.0177984,1133,407,3.23417,24.0297
-84,617,3.25256,-24.2201,0.00111176,0.0015682,-0.000510436,0.00189911,0.00078085,-0.995618,0.00110221,0.0174511,1140,407,3.2526,24.2201
-77,617,3.27783,-24.3777,0.00126524,0.00138038,-0.000366724,0.00169403,0.000951595,-0.863252,0.000980528,0.0137683,1147,407,3.27789,24.3777
-70,617,3.26636,-24.5127,0.00175453,0.00085466,-0.000108375,0.00176739,0.000841792,-0.118183,0.00102079,0.0149887,1154,407,3.26635,24.5127
-63,617,3.2489,-24.6503,0.00233861,-0.000196934,4.09115e-05,0.00233927,-0.000197594,0.0161296,0.00162938,0.0161407,1161,407,3.24893,24.6503
-56,617,3.25818,-24.815,0.00277274,-0.00145379,0.000231702,0.00278541,-0.00146646,0.0546027,0.00249387,0.0119132,1168,407,3.25823,24.815
-49,617,3.27551,-24.9547,0.00321855,-0.00345086,0.000290769,0.0032312,-0.00346352,0.0434873,0.00386597,0.0102373,1175,407,3.27552,24.9547
-42,617,3.29187,-25.0784,0.00387614,-0.00550434,0.000336097,0.00388817,-0.00551636,0.0357683,0.00545677,0.0117309,1182,407,3.29193,25.0784
-35,617,3.31738,-25.1725,0.00429658,-0.00794926,0.000315846,0.00430472,-0.0079574,0.0257693,0.00718348,0.0169758,1189,407,3.31732,25.1725
-28,617,3.31812,-25.2834,0.00343209,-0.01007,0.000646234,0.00346294,-0.0101008,0.0477166,0.00813762,0.0195392,1196,407,3.31813,25.2834
-21,617,3.36475,-25.3682,0.00270962,-0.0112176,0.000304723,0.00271629,-0.0112242,0.0218658,0.00853359,0.0153959,1203,407,3.36476,25.3682
-14,617,3.36401,-25.4194,0.00293203,-0.0128352,9.4833e-05,0.0029326,-0.0128358,0.00601427,0.00968388,0.0168651,1210,407,3.36399,25.4194
-7,617,3.33093,-25.4722,0.00367315,-0.0131821,-0.000674779,0.00370012,-0.0132091,-0.0399484,0.0102642,0.0179172,1217,407,3.3309,25.4722
0,617,3.37671,-25.56,0.00392136,-0.0125343,-0.00149311,0.00405574,-0.0126687,-0.0897588,0.0100736,0.0161073,1224,407,3.37675,25.56
7,617,3.42261,-25.6588,0.00378261,-0.0119877,-0.00196672,0.00402418,-0.0122292,-0.122217,0.00977436,0.0119461,1231,407,3.42262,25.6588
14,617,3.43152,-25.7202,0.00364266,-0.010939,-0.00233484,0.0040074,-0.0113037,-0.154962,0.00916833,0.0135044,1238,407,3.4315,25.7202
21,617,3.45337,-25.7597,0.00358656,-0.00924837,-0.00284448,0.00418871,-0.00985051,-0.208609,0.00832236,0.0118767,1245,407,3.45334,25.7597
28,617,3.48657,-25.8119,0.00363421,-0.0075755,-0.00319277,0.0044798,-0.00842108,-0.2589,0.0075633,0.0108552,1252,407,3.48658,25.8119
35,617,3.5127,-25.8338,0.00316449,-0.00571975,-0.00352587,0.00439371,-0.00694897,-0.335455,0.00660386,0.0138541,1259,407,3.51272,25.8338
42,617,3.58179,-25.8174,0.00335157,-0.00254945,-0.00285326,0.00450552,-0.0037034,-0.384322,0.00474696,0.019965,1266,407,3.58174,25.8173
49,617,3.5968,-25.8329,0.00320906,0.000641608,-0.0022413,0.00450823,-0.000657566,-0.525324,0.00324695,0.0190282,1273,407,3.59683,25.8329
56,617,3.58484,-25.8501,0.00211612,0.00743708,-0.000696984,0.00752686,0.00202634,-1.44269,0.0044973,0.013398,1280,407,3.58478,25.8501
63,617,3.61743,-25.8568,0.00288562,0.0163628,0.00233042,0.0167544,0.00249403,1.40432,0.0104381,0.010465,1287,407,3.61739,25.8568
70,617,3.62939,-25.8692,0.00375459,0.0241375,0.00297759,0.0245636,0.00332853,1.42867,0.0153867,0.0154228,1294,407,3.62942,25.8692
77,617,3.69275,-25.8327,0.00480897,0.0313844,0.00439701,0.032093,0.00410036,1.41101,0.0201679,0.0129518,1301,407,3.69273,25.8327
84,617,3.71521,-25.7784,0.00604864,0.0375667,0.00572667,0.038575,0.00504039,1.39652,0.024212,0.0102504,1308,407,3.71517,25.7783
91,617,3.73828,-25.7331,0.00670108,0.0426826,0.00610078,0.0436889,0.00569482,1.40733,0.0274254,0.0100569,1315,407,3.73831,25.7331
98,617,3.75574,-25.694,0.00725111,0.0451306,0.00606557,0.0460782,0.00630355,1.41583,0.0288481,0.0116755,1322,407,3.75573,25.694
105,617,3.76538,-25.6418,0.00847804,0.0449573,0.00525821,0.0457001,0.00773524,1.43046,0.0282436,0.0133833,1329,407,3.76537,25.6418
112,617,3.79639,-25.5541,0.00998036,0.0436161,0.00355504,0.0439877,0.00960873,1.46664,0.0267048,0.0164885,1336,407,3.79635,25.5541
119,617,3.83435,-25.45,0.0110331,0.0402635,0.001568,0.0403474,0.0109493,1.51736,0.0240926,0.0193142,1343,407,3.83432,25.45
126,617,3.86035,-25.3865,0.0113339,0.0336279,-0.000642861,0.0336464,0.0113154,-1.54199,0.0197698,0.0211843,1350,407,3.86041,25.3865
133,617,3.87561,-25.2838,0.0109293,0.0258391,-0.00297053,0.0264091,0.0103592,-1.38121,0.0153649,0.0193344,1357,407,3.87566,25.2838
140,617,3.90222,-25.1799,0.0105581,0.018406,-0.0048395,0.0207125,0.00825167,-1.12605,0.0120404,0.0169416,1364,407,3.90228,25.1799
147,617,3.87244,-25.0468,0.00933834,0.0109454,-0.00674382,0.0169334,0.00335035,-0.844694,0.0103544,0.0191266,1371,407,3.87239,25.0468
154,617,3.91931,-24.9648,0.00850472,0.00514007,-0.00760515,0.0146114,-0.000966606,-0.676547,0.0100786,0.0212944,1378,407,3.91933,24.9647
161,617,3.98071,-24.8749,0.00804475,-0.00117768,-0.00825369,0.012888,-0.00602091,-0.530655,0.0111545,0.0233977,1385,407,3.98074,24.8749
168,617,3.99768,-24.7752,0.00570706,-0.00585571,-0.0089671,0.0105949,-0.0107436,-0.499066,0.0123199,0.0214239,1392,407,3.99764,24.7752
175,617,3.99854,-24.6436,0.00420996,-0.00627204,-0.00638979,0.00723319,-0.00929527,-0.441925,0.00956743,0.0165202,1399,407,3.99849,24.6436
182,617,4.01855,-24.4383,0.00360682,-0.00490917,-0.0052829,0.00613407,-0.00743642,-0.446205,0.00784695,0.0111266,1406,407,4.01861,24.4383
189,617,4.01013,-24.2493,0.00280507,-0.00365439,-0.00408325,0.0047815,-0.00563082,-0.450793,0.00601821,0.0111072,1413,407,4.01017,24.2493
196,617,3.99854,-24.0634,0.00228246,-0.00236167,-0.0026012,0.00344726,-0.00352647,-0.421017,0.00402637,0.0141145,1420,407,3.99853,24.0634
203,617,3.99426,-23.9003,0.0018041,-0.000940598,-0.00132426,0.00233884,-0.00147534,-0.383783,0.00222085,0.0152726,1427,407,3.99421,23.9003
210,617,4.0177,-23.714,0.00131498,0.000359654,-0.000309663,0.00140657,0.00026806,-0.287586,0.000862361,0.0154845,1434,407,4.01766,23.714
217,617,4.01416,-23.472,0.000836725,0.00140986,0.000376522,0.00159646,0.000650122,1.11068,0.000926991,0.019297,1441,407,4.01413,23.472
224,617,4.02063,-23.2972,0.000626213,0.00192655,0.000611229,0.00216875,0.000384014,1.19353,0.00133635,0.0181708,1448,407,4.02065,23.2972
231,617,4.04907,-23.1399,0.000525505,0.00239473,0.00089378,0.00275331,0.000166926,1.18926,0.0017825,0.0135609,1455,407,4.04908,23.1399
238,617,4.04456,-22.9344,0.000553076,0.00293057,0.00122246,0.00344697,3.66761e-05,1.17111,0.00228585,0.0144031,1462,407,4.0445,22.9345
245,617,4.04163,-22.7252,0.000576639,0.00340752,0.00144308,0.00401346,-2.92973e-05,1.17326,0.00268546,0.0127669,1469,407,4.04165,22.7252
252,617,4.02698,-22.4696,0.000696006,0.00389253,0.00168245,0.00461484,-2.63085e-05,1.16527,0.00308537,0.0136105,1476,407,4.02697,22.4696
259,617,4.02222,-22.2111,0.000920026,0.0044016,0.00200247,0.00531415,7.47223e-06,1.1432,0.00354028,0.012066,1483,407,4.02221,22.2111
266,617,4.01819,-21.9451,0.00110043,0.00472208,0.00245829,0.0059645,-0.000141989,1.10284,0.0040245,0.0152461,1490,407,4.01824,21.9451
273,617,4.01208,-21.6836,0.00119671,0.00494338,0.00320594,0.00678319,-0.000643094,1.04981,0.00475102,0.0156036,1497,407,4.01213,21.6836
280,617,3.98718,-21.4545,0.0013227,0.0054299,0.00416394,0.00801911,-0.00126651,1.01449,0.0058144,0.0138538,1504,407,3.98718,21.4545
287,617,3.96375,-21.1975,0.00152161,0.00574355,0.00517893,0.00922521,-0.00196004,0.978922,0.00689696,0.0128922,1511,407,3.96376,21.1975
294,617,3.9541,-20.9099,0.00156148,0.00604228,0.00630063,0.010489,-0.00288522,0.956218,0.00812694,0.0101784,1518,407,3.95416,20.9099
301,617,3.9259,-20.6351,0.00151195,0.00632286,0.00756695,0.0118575,-0.00402268,0.939292,0.00953312,0.00807479,1525,407,3.92588,20.6351
308,617,3.93201,-20.3544,0.00142678,0.00664604,0.00893168,0.0133415,-0.0052687,0.92753,0.0110765,0.00814183,1532,407,3.93201,20.3544
315,617,3.93945,-20.0632,0.00124849,0.00696636,0.010356,0.0148508,-0.00663594,0.920077,0.012704,0.00942253,1539,407,3.93944,20.0632
322,617,3.90991,-19.7536,0.000942809,0.00739603,0.0117418,0.0163464,-0.0080076,0.919487,0.0143329,0.0121898,1546,407,3.90988,19.7536
329,617,3.90039,-19.452,0.000549404,0.00776094,0.0129391,0.0175873,-0.00927699,0.921286,0.0157556,0.012226,1553,407,3.9004,19.452
336,617,3.95764,-19.0952,0.000105228,0.0082178,0.0138619,0.0186047,-0.0102817,0.927735,0.0169067,0.0234171,1560,407,3.9576,19.0952
343,617,4.06409,-18.6852,0,0,0,0,0,0,0,-1,1567,407,4.06404,18.6852
350,617,2.88098,-10.0063,0,0,0,0,0,0,0,-1,1574,407,2.88098,10.0063
357,617,2.1748,-7.16504,0,0,0,0,0,0,0,-1,1581,407,2.1748,7.16505
364,617,2.30127,-7.60257,0,0,0,0,0,0,0,-1,1588,407,2.30125,7.60258
371,617,2.60266,-6.20667,0,0,0,0,0,0,0,-1,1595,407,2.60261,6.20668
378,617,1.56921,-10.3601,0,0,0,0,0,0,0,-1,1602,407,1.56918,10.3601
385,617,1.74146,-10.3561,0,0,0,0,0,0,0,-1,1609,407,1.7414,10.3561
392,617,1.91357,-10.3521,0,0,0,0,0,0,0,-1,1616,407,1.91362,10.3521
399,617,3.25,-2.14835,0,0,0,0,0,0,0,-1,1623,407,3.25006,2.14836
406,617,3.02429,-3.19577,0,0,0,0,0,0,0,-1,1630,407,3.02431,3.19577
413,617,2.92786,-3.80649,0,0,0,0,0,0,0,-1,1637,407,2.92788,3.8065
420,617,3.42737,-4.47391,0,0,0,0,0,0,0,-1,1644,407,3.42737,4.47391
427,617,0,0,0,0,0,0,0,0,0,-1,1651,407,0,0
434,617,0,0,0,0,0,0,0,0,0,-1,1658,407,0,0
441,617,0,0,0,0,0,0,0,0,0,-1,1665,407,0,0
448,617,0,0,0,0,0,0,0,0,0,-1,1672,407,0,0
455,617,0,0,0,0,0,0,0,0,0,-1,1679,407,0,0
462,617,0,0,0,0,0,0,0,0,0,-1,1686,407,0,0
469,617,0,0,0,0,0,0,0,0,0,-1,1693,407,0,0
476,617,0,0,0,0,0,0,0,0,0,-1,1700,407,0,0
483,617,0,0,0,0,0,0,0,0,0,-1,1707,407,0,0
490,617,0,0,0,0,0,0,0,0,0,-1,1714,407,0,0
497,617,0,0,0,0,0,0,0,0,0,-1,1721,407,0,0
504,617,0,0,0,0,0,0,0,0,0,-1,1728,407,0,0
511,617,0,0,0,0,0,0,0,0,0,-1,1735,407,0,0
518,617,0,0,0,0,0,0,0,0,0,-1,1742,407,0,0
525,617,0,0,0,0,0,0,0,0,0,-1,1749,407,0,0
532,617,0,0,0,0,0,0,0,0,0,-1,1756,407,0,0
539,617,0,0,0,0,0,0,0,0,0,-1,1763,407,0,0
546,617,0,0,0,0,0,0,0,0,0,-1,1770,407,0,0
553,617,0,0,0,0,0,0,0,0,0,-1,1777,407,0,0
560,617,0,0,0,0,0,0,0,0,0,-1,1784,407,0,0
567,617,0,0,0,0,0,0,0,0,0,-1,1791,407,0,0
574,617,0,0,0,0,0,0,0,0,0,-1,1798,407,0,0
581,617,0,0,0,0,0,0,0,0,0,-1,1805,407,0,0
588,617,0,0,0,0,0,0,0,0,0,-1,1812,407,0,0
595,617,0,0,0,0,0,0,0,0,0,-1,1819,407,0,0
602,617,0,0,0,0,0,0,0,0,0,-1,1826,407,0,0
609,617,0,0,0,0,0,0,0,0,0,-1,1833,407,0,0
616,617,0,0,0,0,0,0,0,0,0,-1,1840,407,0,0
623,617,0,0,0,0,0,0,0,0,0,-1,1847,407,0,0
630,617,0,0,0,0,0,0,0,0,0,-1,1854,407,0,0
637,617,0,0,0,0,0,0,0,0,0,-1,1861,407,0,0
644,617,0,0,0,0,0,0,0,0,0,-1,1868,407,0,0
651,617,0,0,0,0,0,0,0,0,0,-1,1875,407,0,0
658,617,0,0,0,0,0,0,0,0,0,-1,1882,407,0,0
665,617,0,0,0,0,0,0,0,0,0,-1,1889,407,0,0
672,617,0,0,0,0,0,0,0,0,0,-1,1896,407,0,0
679,617,0,0,0,0,0,0,0,0,0,-1,1903,407,0,0
686,617,0,0,0,0,0,0,0,0,0,-1,1910,407,0,0
693,617,0,0,0,0,0,0,0,0,0,-1,1917,407,0,0
700,617,0,0,0,0,0,0,0,0,0,-1,1924,407,0,0
707,617,0,0,0,0,0,0,0,0,0,-1,1931,407,0,0
714,617,0,0,0,0,0,0,0,0,0,-1,1938,407,0,0
721,617,0,0,0,0,0,0,0,0,0,-1,1945,407,0,0
728,617,0,0,0,0,0,0,0,0,0,-1,1952,407,0,0
735,617,0,0,0,0,0,0,0,0,0,-1,1959,407,0,0
742,617,0,0,0,0,0,0,0,0,0,-1,1966,407,0,0
749,617,0,0,0,0,0,0,0,0,0,-1,1973,407,0,0
756,617,0,0,0,0,0,0,0,0,0,-1,1980,407,0,0
763,617,0,0,0,0,0,0,0,0,0,-1,1987,407,0,0
770,617,0,0,0,0,0,0,0,0,0,-1,1994,407,0,0
777,617,0,0,0,0,0,0,0,0,0,-1,2001,407,0,0
784,617,0,0,0,0,0,0,0,0,0,-1,2008,407,0,0
791,617,0,0,0,0,0,0,0,0,0,-1,2015,407,0,0
798,617,0,0,0,0,0,0,0,0,0,-1,2022,407,0,0
805,617,0,0,0,0,0,0,0,0,0,-1,2029,407,0,0
812,617,0,0,0,0,0,0,0,0,0,-1,2036,407,0,0
-700,610,0,0,0,0,0,0,0,0,0,-1,524,414,0,0
-693,610,0,0,0,0,0,0,0,0,0,-1,531,414,0,0
-686,610,0,0,0,0,0,0,0,0,0,-1,538,414,0,0
-679,610,0,0,0,0,0,0,0,0,0,-1,545,414,0,0
-672,610,0,0,0,0,0,0,0,0,0,-1,552,414,0,0
-665,610,0,0,0,0,0,0,0,0,0,-1,559,414,0,0
-658,610,0,0,0,0,0,0,0,0,0,-1,566,414,0,0
-651,610,0,0,0,0,0,0,0,0,0,-1,573,414,0,0
-644,610,0,0,0,0,0,0,0,0,0,-1,580,414,0,0
-637,610,0,0,0,0,0,0,0,0,0,-1,587,414,0,0
-630,610,0,0,0,0,0,0,0,0,0,-1,594,414,0,0
-623,610,0,0,0,0,0,0,0,0,0,-1,601,414,0,0
-616,610,0,0,0,0,0,0,0,0,0,-1,608,414,0,0
-609,610,0,0,0,0,0,0,0,0,0,-1,615,414,0,0
-602,610,0,0,0,0,0,0,0,0,0,-1,622,414,0,0
-595,610,0,0,0,0,0,0,0,0,0,-1,629,414,0,0
-588,610,0,0,0,0,0,0,0,0,0,-1,636,414,0,0
-581,610,0,0,0,0,0,0,0,0,0,-1,643,414,0,0
-574,610,0,0,0,0,0,0,0,0,0,-1,650,414,0,0
-567,610,0,0,0,0,0,0,0,0,0,-1,657,414,0,0
-560,610,0,0,0,0,0,0,0,0,0,-1,664,414,0,0
-553,610,0,0,0,0,0,0,0,0,0,-1,671,414,0,0
-546,610,0,0,0,0,0,0,0,0,0,-1,678,414,0,0
-539,610,0,0,0,0,0,0,0,0,0,-1,685,414,0,0
-532,610,0,0,0,0,0,0,0,0,0,-1,692,414,0,0
-525,610,0,0,0,0,0,0,0,0,0,-1,699,414,0,0
-518,610,0,0,0,0,0,0,0,0,0,-1,706,414,0,0
-511,610,0,0,0,0,0,0,0,0,0,-1,713,414,0,0
-504,610,0,0,0,0,0,0,0,0,0,-1,720,414,0,0
-497,610,0,0,0,0,0,0,0,0,0,-1,727,414,0,0
-490,610,0,0,0,0,0,0,0,0,0,-1,734,414,0,0
-483,610,0,0,0,0,0,0,0,0,0,-1,741,414,0,0
-476,610,0,0,0,0,0,0,0,0,0,-1,748,414,0,0
-469,610,0,0,0,0,0,0,0,0,0,-1,755,414,0,0
-462,610,0,0,0,0,0,0,0,0,0,-1,762,414,0,0
-455,610,0,0,0,0,0,0,0,0,0,-1,769,414,0,0
-448,610,0,0,0,0,0,0,0,0,0,-1,776,414,0,0
-441,610,0,0,0,0,0,0,0,0,0,-1,783,414,0,0
-434,610,0,0,0,0,0,0,0,0,0,-1,790,414,0,0
-427,610,0,0,0,0,0,0,0,0,0,-1,797,414,0,0
-420,610,0,0,0,0,0,0,0,0,0,-1,804,414,0,0
-413,610,0,0,0,0,0,0,0,0,0,-1,811,414,0,0
-406,610,0,0,0,0,0,0,0,0,0,-1,818,414,0,0
-399,610,0,0,0,0,0,0,0,0,0,-1,825,414,0,0
-392,610,0,0,0,0,0,0,0,0,0,-1,832,414,0,0
-385,610,0,0,0,0,0,0,0,0,0,-1,839,414,0,0
-378,610,0,0,0,0,0,0,0,0,0,-1,846,414,0,0
-371,610,0,0,0,0,0,0,0,0,0,-1,853,414,0,0
-364,610,0,0,0,0,0,0,0,0,0,-1,860,414,0,0
-357,610,0,0,0,0,0,0,0,0,0,-1,867,414,0,0
-350,610,0,0,0,0,0,0,0,0,0,-1,874,414,0,0
-343,610,0,0,0,0,0,0,0,0,0,-1,881,414,0,0
-336,610,0,0,0,0,0,0,0,0,0,-1,888,414,0,0
-329,610,0,0,0,0,0,0,0,0,0,-1,895,414,0,0
-322,610,0,0,0,0,0,0,0,0,0,-1,902,414,0,0
-315,610,6.6438,-13.537,0,0,0,0,0,0,0,-1,909,414,6.64383,13.537
-308,610,6.20703,-13.9936,0,0,0,0,0,0,0,-1,916,414,6.20702,13.9936
-301,610,5.73285,-14.3911,0,0,0,0,0,0,0,-1,923,414,5.73285,14.3911
-294,610,2.37964,-12.4347,0,0,0,0,0,0,0,-1,930,414,2.37964,12.4347
-287,610,2.08557,-11.9136,0,0,0,0,0,0,0,-1,937,414,2.08555,11.9136
-280,610,2.25854,-11.0924,0,0,0,0,0,0,0,-1,944,414,2.25856,11.0924
-273,610,2.98663,-16.4648,0,0,0,0,0,0,0,-1,951,414,2.98664,16.4648
-266,610,2.89264,-16.8431,0,0,0,0,0,0,0,-1,958,414,2.89266,16.8431
-259,610,3.60706,-17.9733,0,0,0,0,0,0,0,-1,965,414,3.60705,17.9733
-252,610,3.29956,-18.5323,0,0,0,0,0,0,0,-1,972,414,3.29957,18.5323
-245,610,3.44244,-18.7775,0,0,0,0,0,0,0,-1,979,414,3.44241,18.7775
-238,610,3.30463,-19.4192,0.000989737,0.0132355,-0.00138909,0.0133911,0.000834143,-1.45925,0.00866274,0.0429486,986,414,3.3046,19.4192
-231,610,3.14465,-19.0203,-0.000149592,0.0117458,-0.000147444,0.0117476,-0.000151419,-1.5584,0.00788268,0.0384842,993,414,3.14462,19.0203
-224,610,3.13269,-19.36,-0.000651553,0.0111633,0.000105315,0.0111643,-0.000652492,1.56188,0.00766959,0.025441,1000,414,3.13267,19.3599
-217,610,3.18402,-19.7712,-0.00103035,0.0102416,0.000498193,0.0102635,-0.00105233,1.52671,0.00721875,0.0156402,1007,414,3.184,19.7712
-210,610,3.17615,-20.1285,-0.00157822,0.00875715,0.00081015,0.00882027,-0.00164134,1.49304,0.00649677,0.0111393,1014,414,3.17614,20.1285
-203,610,3.16223,-20.4029,-0.00163452,0.00767749,0.000691297,0.00772853,-0.00168556,1.4971,0.00579648,0.0139743,1021,414,3.16221,20.4029
-196,610,3.13928,-20.6543,-0.00157885,0.00663512,0.000493014,0.0066646,-0.00160834,1.51106,0.00506503,0.0141314,1028,414,3.13926,20.6543
-189,610,3.13245,-20.9474,-0.00141199,0.00528172,0.000175132,0.00528629,-0.00141657,1.54466,0.00407921,0.0116888,1035,414,3.13241,20.9474
-182,610,3.11938,-21.1994,-0.00105746,0.00432936,-0.000250846,0.00434102,-0.00106912,-1.52436,0.00330847,0.0126348,1042,414,3.11933,21.1994
-175,610,3.08899,-21.44,-0.000786309,0.0027534,-0.000490986,0.00282024,-0.000853151,-1.43549,0.00221988,0.0134113,1049,414,3.08902,21.44
-168,610,3.05835,-21.7159,-0.000668713,0.00131685,-0.000576404,0.00147205,-0.000823912,-1.30778,0.00134306,0.0124139,1056,414,3.05836,21.7159
-161,610,3.05298,-21.985,-0.000447705,0.000124178,-0.000678541,0.000574565,-0.000898093,-0.98481,0.000857051,0.0114346,1063,414,3.05297,21.985
-154,610,3.06042,-22.2091,-0.000143832,-0.000523253,-0.000712532,0.000403812,-0.0010709,-0.655292,0.000879981,0.0132688,1070,414,3.06043,22.2091
-147,610,3.06238,-22.4261,7.35255e-05,-0.00101642,-0.000711642,0.000424894,-0.00136779,-0.45863,0.00108168,0.0153935,1077,414,3.06239,22.4261
-140,610,3.05908,-22.6583,0.000298213,-0.00133457,-0.000677813,0.000542918,-0.00157928,-0.346459,0.00127302,0.0120383,1084,414,3.05914,22.6583
-133,610,3.04895,-22.8762,0.00056969,-0.00151356,-0.000682156,0.000773183,-0.00171705,-0.289905,0.00147176,0.0130437,1091,414,3.04893,22.8762
-126,610,3.02661,-23.072,0.000741294,-0.00136403,-0.000526572,0.000865652,-0.00148839,-0.231915,0.00137487,0.0122815,1098,414,3.02663,23.0719
-119,610,3.02698,-23.2794,0.00084268,-0.00102731,-0.000350366,0.00090617,-0.0010908,-0.179265,0.00115459,0.0103708,1105,414,3.02695,23.2794
-112,610,3.04443,-23.4885,0.000925695,-0.000745665,-0.000249137,0.000962042,-0.000782011,-0.144868,0.00100872,0.0177223,1112,414,3.04449,23.4885
-105,610,3.04736,-23.675,0.00102878,-0.000420056,-0.000183398,0.00105164,-0.00044291,-0.123978,0.000886415,0.0171673,1119,414,3.04732,23.6749
-98,610,3.05151,-23.8618,0.0011555,-0.000203307,-0.000161899,0.00117452,-0.000222331,-0.116967,0.000866682,0.0117031,1126,414,3.05157,23.8618
-91,610,3.06909,-24.0384,0.00131943,1.96317e-05,-0.000238306,0.00136174,-2.26822e-05,-0.175729,0.000915484,0.0128366,1133,414,3.06906,24.0384
-84,610,3.0929,-24.2168,0.00158953,-1.51851e-05,-0.000188854,0.00161146,-3.71111e-05,-0.115583,0.00108689,0.0141729,1140,414,3.09285,24.2168
-77,610,3.09583,-24.389,0.00194079,2.8104e-05,-9.82522e-05,0.00194583,2.30702e-05,-0.0511891,0.0012896,0.0118363,1147,414,3.0958,24.389
-70,610,3.1106,-24.5288,0.00277953,-0.000488261,0.000175139,0.00278889,-0.00049762,0.0533918,0.00204541,0.0139918,1154,414,3.11065,24.5288
-63,610,3.11841,-24.6719,0.00378294,-0.00204638,0.000269155,0.00379534,-0.00205878,0.046042,0.00342909,0.0124308,1161,414,3.11843,24.6719
-56,610,3.12207,-24.8228,0.00449975,-0.00381234,0.000473067,0.00452659,-0.00383918,0.0566692,0.00483541,0.0100866,1168,414,3.12213,24.8229
-49,610,3.13428,-24.9482,0.005144,-0.00674216,0.000405656,0.00515783,-0.00675598,0.0340756,0.00689904,0.0107451,1175,414,3.13427,24.9482
-42,610,3.14075,-25.076,0.00586605,-0.00966816,0.000131148,0.00586716,-0.00966927,0.0084417,0.00905905,0.015042,1182,414,3.14071,25.0761
-35,610,3.17517,-25.1799,0.00600216,-0.0130149,-0.000196237,0.00600418,-0.0130169,-0.0103176,0.0112278,0.0154527,1189,414,3.17515,25.1799
-28,610,3.22949,-25.2693,0.00392185,-0.0155121,0.000426181,0.00393119,-0.0155214,0.0219157,0.0118769,0.0132302,1196,414,3.22952,25.2693
-21,610,3.27466,-25.3584,0.00244831,-0.0161795,-6.72423e-05,0.00244855,-0.0161798,-0.00360971,0.0116885,0.0118577,1203,414,3.27462,25.3584
-14,610,3.28711,-25.4316,0.00250643,-0.0178738,-0.000317022,0.00251136,-0.0178788,-0.0155503,0.0128384,0.0127542,1210,414,3.28712,25.4316
-7,610,3.29883,-25.4908,0.0032766,-0.0178875,-0.0013464,0.00336191,-0.0179728,-0.0632772,0.0132455,0.0139693,1217,414,3.29882,25.4908
0,610,3.32214,-25.568,0.0034283,-0.016792,-0.00229618,0.00368578,-0.0170495,-0.111664,0.0127734,0.011132,1224,414,3.32211,25.568
7,610,3.34973,-25.6261,0.00324036,-0.0158947,-0.00281464,0.00364579,-0.0163001,-0.143058,0.012264,0.0114559,1231,414,3.34968,25.6261
14,610,3.41675,-25.6651,0.00315576,-0.0142986,-0.00331077,0.00376265,-0.0149055,-0.181296,0.0114001,0.0138658,1238,414,3.41676,25.6651
21,610,3.45105,-25.701,0.00315504,-0.0119307,-0.0039901,0.00414539,-0.012921,-0.243285,0.0102784,0.0123477,1245,414,3.451,25.701
28,610,3.44092,-25.7589,0.00325631,-0.0097161,-0.00450422,0.00466687,-0.0111267,-0.303489,0.00936919,0.0127768,1252,414,3.44091,25.7589
35,610,3.51978,-25.7933,0.00262461,-0.00733446,-0.00505251,0.00473899,-0.00944884,-0.396336,0.00834043,0.0169765,1259,414,3.51972,25.7933
42,610,3.56189,-25.7955,0.00270405,-0.00335969,-0.00437826,0.00499772,-0.00565336,-0.482567,0.00615329,0.0160079,1266,414,3.56195,25.7955
49,610,3.58411,-25.8408,0.00225683,0.000566131,-0.00380388,0.00530817,-0.0024852,-0.676058,0.00459685,0.0151798,1273,414,3.58413,25.8408
56,610,3.61597,-25.8495,0.000634035,0.00891819,-0.00207807,0.00941024,0.000141981,-1.33829,0.00622671,0.0135034,1280,414,3.61594,25.8495
63,610,3.60803,-25.8005,0.00176034,0.0199113,0.00156802,0.0200458,0.00162588,1.48525,0.0128562,0.0178575,1287,414,3.60804,25.8005
70,610,3.67224,-25.7802,0.0029966,0.0294977,0.00201378,0.0296499,0.00284445,1.49538,0.01889,0.0258143,1294,414,3.67221,25.7802
77,610,3.73413,-25.7896,0.00439782,0.0382391,0.00350448,0.0385982,0.00403872,1.46868,0.0244971,0.0306106,1301,414,3.73409,25.7896
84,610,3.755,-25.7519,0.00609263,0.0455004,0.00498233,0.0461205,0.00547248,1.44696,0.0290949,0.030461,1308,414,3.75501,25.7519
91,610,3.85046,-25.7096,0.00721045,0.0517765,0.00535493,0.0524109,0.00657604,1.45288,0.032968,0.0262554,1315,414,3.85045,25.7096
98,610,3.90637,-25.6855,0.00805703,0.0544359,0.00525246,0.0550233,0.00746963,1.45942,0.0344632,0.0248352,1322,414,3.90631,25.6855
105,610,3.90173,-25.6201,0.00978958,0.0543951,0.0042883,0.0548036,0.00938106,1.47582,0.0338449,0.020372,1329,414,3.90177,25.6201
112,610,3.88489,-25.545,0.0118441,0.0529438,0.00232958,0.0530754,0.0117125,1.51436,0.0321975,0.0141369,1336,414,3.88489,25.545
119,610,3.89136,-25.439,0.0134038,0.0489757,3.0593e-05,0.0489757,0.0134037,1.56994,0.0292257,0.0198585,1343,414,3.89141,25.439
126,610,3.90906,-25.3914,0.0140073,0.0407946,-0.00262034,0.0410485,0.0137534,-1.4742,0.0241254,0.026501,1350,414,3.90903,25.3914
133,610,3.98706,-25.2828,0.0135576,0.0310642,-0.00550391,0.0326508,0.011971,-1.29014,0.0190731,0.0205405,1357,414,3.98706,25.2828
140,610,4.04028,-25.187,0.0130338,0.0217323,-0.00786935,0.0263743,0.00839177,-1.03785,0.0155592,0.016442,1364,414,4.04024,25.187
147,610,4.00891,-25.0524,0.0113535,0.0123225,-0.0103169,0.0221663,0.00150967,-0.808862,0.0143009,0.0172184,1371,414,4.00892,25.0524
154,610,4.00549,-24.9308,0.0101514,0.00495685,-0.0114621,0.0193068,-0.00419856,-0.673981,0.0144752,0.0215869,1378,414,4.00554,24.9308
161,610,4.08191,-24.8346,0.00926238,-0.00304832,-0.0123061,0.0168667,-0.0106526,-0.5535,0.0160227,0.0274299,1385,414,4.08189,24.8346
168,610,4.11926,-24.7125,0.00557663,-0.00902263,-0.0133294,0.0134743,-0.0169203,-0.534886,0.0175859,0.0268048,1392,414,4.11925,24.7125
175,610,4.14551,-24.5746,0.00342977,-0.00993142,-0.00970837,0.00853403,-0.0150357,-0.484042,0.0137795,0.0202585,1399,414,4.14549,24.5746
182,610,4.17163,-24.4204,0.00297925,-0.00814098,-0.0083383,0.00744121,-0.0126029,-0.491345,0.0116997,0.0145447,1406,414,4.17162,24.4204
189,610,4.17151,-24.2567,0.00220227,-0.00659868,-0.00682238,0.00592024,-0.0103166,-0.49897,0.00948822,0.0133383,1413,414,4.17145,24.2568
196,610,4.18994,-24.0815,0.00182005,-0.0048636,-0.00460083,0.00416465,-0.0072082,-0.471301,0.00664403,0.0126422,1420,414,4.18989,24.0815
203,610,4.18396,-23.8973,0.00200674,-0.00259497,-0.00253315,0.00312799,-0.00371621,-0.416708,0.00395636,0.0134983,1427,414,4.18396,23.8973
210,610,4.1875,-23.7249,0.00204183,-0.000823907,-0.00091976,0.00231163,-0.0010937,-0.28533,0.00200755,0.0109228,1434,414,4.18745,23.7249
217,610,4.2135,-23.4969,0.00166902,0.000643478,5.05403e-05,0.00167151,0.000640993,0.0491229,0.000973739,0.0167357,1441,414,4.21353,23.4969
224,610,4.23096,-23.3158,0.0013658,0.00120294,0.000357441,0.00165097,0.000917772,0.673402,0.000955172,0.0199633,1448,414,4.23098,23.3158
231,610,4.24414,-23.15,0.0011203,0.00170757,0.000673042,0.00214824,0.00067963,0.99109,0.00126786,0.0154901,1455,414,4.24418,23.15
238,610,4.24792,-22.9281,0.00103759,0.00218646,0.00095834,0.00272934,0.00049471,1.05539,0.00167913,0.0111847,1462,414,4.24787,22.9281
245,610,4.25867,-22.7009,0.000979339,0.00260629,0.00112508,0.00318118,0.00040445,1.09841,0.00199965,0.012785,1469,414,4.25865,22.7009
252,610,4.26086,-22.4554,0.000969371,0.0029877,0.00128272,0.00361065,0.000346425,1.1187,0.00230034,0.0139953,1476,414,4.26088,22.4554
259,610,4.24023,-22.2137,0.00101,0.00334682,0.00149834,0.00407846,0.000278357,1.11655,0.0026311,0.0119083,1483,414,4.24018,22.2137
266,610,4.23523,-21.9517,0.00105492,0.0035697,0.00179256,0.00450189,0.00012272,1.09125,0.0029612,0.0124849,1490,414,4.23524,21.9517
273,610,4.23779,-21.7061,0.00109091,0.00375943,0.00226652,0.00505526,-0.000204913,1.05143,0.00344051,0.0102165,1497,414,4.23774,21.7061
280,610,4.22742,-21.4567,0.00114121,0.0040664,0.00289892,0.00585079,-0.000643183,1.01903,0.00413164,0.0094173,1504,414,4.22744,21.4567
287,610,4.21606,-21.1754,0.00127358,0.00428865,0.0036244,0.00670653,-0.0011443,0.982484,0.00489723,0.012259,1511,414,4.21604,21.1755
294,610,4.22327,-20.898,0.00130558,0.00455254,0.00442486,0.00764234,-0.00178422,0.961223,0.00578213,0.0112228,1518,414,4.22322,20.898
301,610,4.229,-20.6578,0.00126587,0.00478782,0.0053503,0.00865949,-0.0026058,0.944382,0.00680986,0.0103454,1525,414,4.22899,20.6578
308,610,4.23645,-20.3837,0.00121706,0.0050542,0.00635362,0.0097726,-0.00350135,0.932027,0.0079437,0.0118282,1532,414,4.23645,20.3837
315,610,4.21545,-20.1102,0.00109148,0.00534852,0.00737162,0.0108928,-0.00445277,0.925948,0.0091161,0.0123751,1539,414,4.2155,20.1102
322,610,4.1792,-19.7881,0.000853658,0.00573735,0.00834437,0.0119898,-0.00539881,0.927741,0.0102769,0.0122534,1546,414,4.17915,19.7881
329,610,4.14026,-19.478,0.00055106,0.00607125,0.00916835,0.012886,-0.00626364,0.931606,0.0112742,0.0113199,1553,414,4.14021,19.478
336,610,4.14954,-19.1525,0.00020493,0.00646222,0.00977297,0.0135951,-0.00692797,0.94031,0.0120556,0.0104512,1560,414,4.14958,19.1525
343,610,4.13269,-18.8329,-7.1057e-05,0.00659774,0.0101287,0.0139268,-0.0074001,0.944412,0.0125038,0.0204942,1567,414,4.13267,18.8329
350,610,4.14136,-18.5116,0,0,0,0,0,0,0,-1,1574,414,4.14138,18.5116
357,610,4.22546,-17.8761,0,0,0,0,0,0,0,-1,1581,414,4.22544,17.8761
364,610,4.34302,-15.9496,0,0,0,0,0,0,0,-1,1588,414,4.34299,15.9496
371,610,3.54138,-13.3788,0,0,0,0,0,0,0,-1,1595,414,3.54137,13.3788
378,610,3.5752,-12.1958,0,0,0,0,0,0,0,-1,1602,414,3.57517,12.1958
385,610,2.57104,-10.3878,0,0,0,0,0,0,0,-1,1609,414,2.57109,10.3878
392,610,2.35229,-10.3207,0,0,0,0,0,0,0,-1,1616,414,2.35227,10.3207
399,610,3.03833,-2.82547,0,0,0,0,0,0,0,-1,1623,414,3.03827,2.82546
406,610,2.91687,-2.9166,0,0,0,0,0,0,0,-1,1630,414,2.91688,2.91659
413,610,3.01929,-3.20306,0,0,0,0,0,0,0,-1,1637,414,3.01929,3.20306
420,610,4.78149,-3.64041,0,0,0,0,0,0,0,-1,1644,414,4.78152,3.64042
427,610,5.20764,-4.67545,0,0,0,0,0,0,0,-1,1651,414,5.20759,4.67545
434,610,5.39233,-5.45441,0,0,0,0,0,0,0,-1,1658,414,5.39228,5.4544
441,610,0,0,0,0,0,0,0,0,0,-1,1665,414,0,0
448,610,0,0,0,0,0,0,0,0,0,-1,1672,414,0,0
455,610,0,0,0,0,0,0,0,0,0,-1,1679,414,0,0
462,610,0,0,0,0,0,0,0,0,0,-1,1686,414,0,0
469,610,0,0,0,0,0,0,0,0,0,-1,1693,414,0,0
476,610,0,0,0,0,0,0,0,0,0,-1,1700,414,0,0
483,610,0,0,0,0,0,0,0,0,0,-1,1707,414,0,0
490,610,0,0,0,0,0,0,0,0,0,-1,1714,414,0,0
497,610,0,0,0,0,0,0,0,0,0,-1,1721,414,0,0
504,610,0,0,0,0,0,0,0,0,0,-1,1728,414,0,0
511,610,0,0,0,0,0,0,0,0,0,-1,1735,414,0,0
518,610,0,0,0,0,0,0,0,0,0,-1,1742,414,0,0
525,610,0,0,0,0,0,0,0,0,0,-1,1749,414,0,0
532,610,0,0,0,0,0,0,0,0,0,-1,1756,414,0,0
539,610,0,0,0,0,0,0,0,0,0,-1,1763,414,0,0
546,610,0,0,0,0,0,0,0,0,0,-1,1770,414,0,0
553,610,0,0,0,0,0,0,0,0,0,-1,1777,414,0,0
560,610,0,0,0,0,0,0,0,0,0,-1,1784,414,0,0
567,610,0,0,0,0,0,0,0,0,0,-1,1791,414,0,0
574,610,0,0,0,0,0,0,0,0,0,-1,1798,414,0,0
581,610,0,0,0,0,0,0,0,0,0,-1,1805,414,0,0
588,610,0,0,0,0,0,0,0,0,0,-1,1812,414,0,0
595,610,0,0,0,0,0,0,0,0,0,-1,1819,414,0,0
602,610,0,0,0,0,0,0,0,0,0,-1,1826,414,0,0
609,610,0,0,0,0,0,0,0,0,0,-1,1833,414,0,0
616,610,0,0,0,0,0,0,0,0,0,-1,1840,414,0,0
623,610,0,0,0,0,0,0,0,0,0,-1,1847,414,0,0
630,610,0,0,0,0,0,0,0,0,0,-1,1854,414,0,0
637,610,0,0,0,0,0,0,0,0,0,-1,1861,414,0,0
644,610,0,0,0,0,0,0,0,0,0,-1,1868,414,0,0
651,610,0,0,0,0,0,0,0,0,0,-1,1875,414,0,0
658,610,0,0,0,0,0,0,0,0,0,-1,1882,414,0,0
665,610,0,0,0,0,0,0,0,0,0,-1,1889,414,0,0
672,610,0,0,0,0,0,0,0,0,0,-1,1896,414,0,0
679,610,0,0,0,0,0,0,0,0,0,-1,1903,414,0,0
686,610,0,0,0,0,0,0,0,0,0,-1,1910,414,0,0
693,610,0,0,0,0,0,0,0,0,0,-1,1917,414,0,0
700,610,0,0,0,0,0,0,0,0,0,-1,1924,414,0,0
707,610,0,0,0,0,0,0,0,0,0,-1,1931,414,0,0
714,610,0,0,0,0,0,0,0,0,0,-1,1938,414,0,0
721,610,0,0,0,0,0,0,0,0,0,-1,1945,414,0,0
728,610,0,0,0,0,0,0,0,0,0,-1,1952,414,0,0
735,610,0,0,0,0,0,0,0,0,0,-1,1959,414,0,0
742,610,0,0,0,0,0,0,0,0,0,-1,1966,414,0,0
749,610,0,0,0,0,0,0,0,0,0,-1,1973,414,0,0
756,610,0,0,0,0,0,0,0,0,0,-1,1980,414,0,0
763,610,0,0,0,0,0,0,0,0,0,-1,1987,414,0,0
770,610,0,0,0,0,0,0,0,0,0,-1,1994,414,0,0
777,610,0,0,0,0,0,0,0,0,0,-1,2001,414,0,0
784,610,0,0,0,0,0,0,0,0,0,-1,2008,414,0,0
791,610,0,0,0,0,0,0,0,0,0,-1,2015,414,0,0
798,610,0,0,0,0,0,0,0,0,0,-1,2022,414,0,0
805,610,0,0,0,0,0,0,0,0,0,-1,2029,414,0,0
812,610,0,0,0,0,0,0,0,0,0,-1,2036,414,0,0
-700,603,0,0,0,0,0,0,0,0,0,-1,524,421,0,0
-693,603,0,0,0,0,0,0,0,0,0,-1,531,421,0,0
-686,603,0,0,0,0,0,0,0,0,0,-1,538,421,0,0
-679,603,0,0,0,0,0,0,0,0,0,-1,545,421,0,0
-672,603,0,0,0,0,0,0,0,0,0,-1,552,421,0,0
-665,603,0,0,0,0,0,0,0,0,0,-1,559,421,0,0
-658,603,0,0,0,0,0,0,0,0,0,-1,566,421,0,0
-651,603,0,0,0,0,0,0,0,0,0,-1,573,421,0,0
-644,603,0,0,0,0,0,0,0,0,0,-1,580,421,0,0
-637,603,0,0,0,0,0,0,0,0,0,-1,587,421,0,0
-630,603,0,0,0,0,0,0,0,0,0,-1,594,421,0,0
-623,603,0,0,0,0,0,0,0,0,0,-1,601,421,0,0
-616,603,0,0,0,0,0,0,0,0,0,-1,608,421,0,0
-609,603,0,0,0,0,0,0,0,0,0,-1,615,421,0,0
-602,603,0,0,0,0,0,0,0,0,0,-1,622,421,0,0
-595,603,0,0,0,0,0,0,0,0,0,-1,629,421,0,0
-588,603,0,0,0,0,0,0,0,0,0,-1,636,421,0,0
-581,603,0,0,0,0,0,0,0,0,0,-1,643,421,0,0
-574,603,0,0,0,0,0,0,0,0,0,-1,650,421,0,0
-567,603,0,0,0,0,0,0,0,0,0,-1,657,421,0,0
-560,603,0,0,0,0,0,0,0,0,0,-1,664,421,0,0
-553,603,0,0,0,0,0,0,0,0,0,-1,671,421,0,0
-546,603,0,0,0,0,0,0,0,0,0,-1,678,421,0,0
-539,603,0,0,0,0,0,0,0,0,0,-1,685,421,0,0
-532,603,0,0,0,0,0,0,0,0,0,-1,692,421,0,0
-525,603,0,0,0,0,0,0,0,0,0,-1,699,421,0,0
-518,603,0,0,0,0,0,0,0,0,0,-1,706,421,0,0
-511,603,0,0,0,0,0,0,0,0,0,-1,713,421,0,0
-504,603,0,0,0,0,0,0,0,0,0,-1,720,421,0,0
-497,603,0,0,0,0,0,0,0,0,0,-1,727,421,0,0
-490,603,0,0,0,0,0,0,0,0,0,-1,734,421,0,0
-483,603,0,0,0,0,0,0,0,0,0,-1,741,421,0,0
-476,603,0,0,0,0,0,0,0,0,0,-1,748,421,0,0
-469,603,0,0,0,0,0,0,0,0,0,-1,755,421,0,0
-462,603,0,0,0,0,0,0,0,0,0,-1,762,421,0,0
-455,603,0,0,0,0,0,0,0,0,0,-1,769,421,0,0
-448,603,0,0,0,0,0,0,0,0,0,-1,776,421,0,0
-441,603,0,0,0,0,0,0,0,0,0,-1,783,421,0,0
-434,603,0,0,0,0,0,0,0,0,0,-1,790,421,0,0
-427,603,0,0,0,0,0,0,0,0,0,-1,797,421,0,0
-420,603,0,0,0,0,0,0,0,0,0,-1,804,421,0,0
-413,603,0,0,0,0,0,0,0,0,0,-1,811,421,0,0
-406,603,0,0,0,0,0,0,0,0,0,-1,818,421,0,0
-399,603,0,0,0,0,0,0,0,0,0,-1,825,421,0,0
-392,603,0,0,0,0,0,0,0,0,0,-1,832,421,0,0
-385,603,0,0,0,0,0,0,0,0,0,-1,839,421,0,0
-378,603,0,0,0,0,0,0,0,0,0,-1,846,421,0,0
-371,603,0,0,0,0,0,0,0,0,0,-1,853,421,0,0
-364,603,0,0,0,0,0,0,0,0,0,-1,860,421,0,0
-357,603,0,0,0,0,0,0,0,0,0,-1,867,421,0,0
-350,603,0,0,0,0,0,0,0,0,0,-1,874,421,0,0
-343,603,0,0,0,0,0,0,0,0,0,-1,881,421,0,0
-336,603,0,0,0,0,0,0,0,0,0,-1,888,421,0,0
-329,603,0.191833,-18.5754,0,0,0,0,0,0,0,-1,895,421,0.191843,18.5754
-322,603,0.93042,-16.6873,0,0,0,0,0,0,0,-1,902,421,0.930445,16.6873
-315,603,5.52008,-13.3285,0,0,0,0,0,0,0,-1,909,421,5.52009,13.3285
-308,603,5.18152,-13.3872,0,0,0,0,0,0,0,-1,916,421,5.18154,13.3872
-301,603,4.70502,-13.6409,0,0,0,0,0,0,0,-1,923,421,4.70499,13.6409
-294,603,3.18243,-16.3761,0,0,0,0,0,0,0,-1,930,421,3.18246,16.3761
-287,603,3.21478,-16.935,0,0,0,0,0,0,0,-1,937,421,3.21481,16.935
-280,603,2.90149,-15.9375,0,0,0,0,0,0,0,-1,944,421,2.90147,15.9375
-273,603,2.73419,-16.662,0,0,0,0,0,0,0,-1,951,421,2.73421,16.662
-266,603,2.75201,-17.065,0.00322233,0.0146327,-0.00292279,0.0153378,0.00251723,-1.33408,0.009498,0.0462402,958,421,2.75199,17.065
-259,603,3.21295,-17.7173,0.00245063,0.0134826,-0.00287497,0.0141869,0.00174636,-1.33056,0.0089329,0.0471657,965,421,3.21293,17.7172
-252,603,3.03998,-18.3676,0.00162741,0.013785,-0.0034739,0.0147076,0.00070479,-1.3112,0.00957878,0.0442214,972,421,3.03999,18.3676
-245,603,3.06036,-18.6239,0.00118476,0.0117421,-0.00321539,0.0126443,0.000282569,-1.29724,0.00833693,0.0322906,979,421,3.06036,18.6239
-238,603,3.0166,-18.8962,0.00058921,0.0102616,-0.00188006,0.0106142,0.00023663,-1.38541,0.0069986,0.0210822,986,421,3.01663,18.8962
-231,603,2.9491,-19.2021,-7.53845e-05,0.00929292,-0.000979359,0.0093942,-0.000176671,-1.46774,0.00632252,0.0138523,993,421,2.94911,19.2021
-224,603,2.9151,-19.5262,-0.000347969,0.00879435,-0.000716578,0.00885017,-0.000403794,-1.49305,0.00603921,0.0133752,1000,421,2.91509,19.5262
-217,603,2.91687,-19.8156,-0.00051298,0.00798336,-0.000348375,0.00799762,-0.000527241,-1.52988,0.0055159,0.0117612,1007,421,2.91684,19.8156
-210,603,2.91339,-20.1098,-0.000892189,0.00677387,4.79241e-06,0.00677388,-0.000892192,1.57017,0.0048408,0.010145,1014,421,2.91339,20.1098
-203,603,2.89551,-20.3983,-0.000909641,0.0058334,2.30046e-05,0.00583348,-0.000909719,1.56738,0.004225,0.015975,1021,421,2.8955,20.3983
-196,603,2.91296,-20.694,-0.000843875,0.00489215,2.59201e-05,0.00489227,-0.000843992,1.56628,0.0035762,0.0179061,1028,421,2.91295,20.694
-189,603,2.91077,-20.958,-0.000739904,0.00368964,-7.54193e-05,0.00369092,-0.000741188,-1.55378,0.00274128,0.0153491,1035,421,2.91077,20.958
-182,603,2.87988,-21.217,-0.000484378,0.00276263,-0.000259662,0.00278327,-0.000505012,-1.4915,0.00204474,0.0115389,1042,421,2.87984,21.217
-175,603,2.85071,-21.4622,-0.000315887,0.0012731,-0.000282932,0.00132197,-0.000364762,-1.39974,0.00102478,0.0121645,1049,421,2.8507,21.4622
-168,603,2.82178,-21.7033,-0.000294777,-0.00012338,-0.000192951,2.0477e-06,-0.000420205,-0.994387,0.000280822,0.0150302,1056,421,2.82174,21.7033
-161,603,2.82043,-21.9626,-0.000207225,-0.00129606,-0.000147753,-0.000187532,-0.00131575,-0.132506,0.00082182,0.0142564,1063,421,2.82048,21.9626
-154,603,2.80969,-22.2021,-3.95504e-05,-0.00206084,-7.43454e-05,-3.68196e-05,-0.00206357,-0.0367151,0.00136361,0.0131121,1070,421,2.80967,22.2021
-147,603,2.82483,-22.4281,9.26818e-05,-0.00265664,3.14473e-05,9.30415e-05,-0.002657,0.0114362,0.00180315,0.0141119,1077,421,2.82483,22.4281
-140,603,2.86023,-22.6397,0.000235729,-0.00306968,0.000120989,0.000240152,-0.0030741,0.0365381,0.00213396,0.0117469,1084,421,2.8602,22.6397
-133,603,2.84216,-22.8606,0.000413672,-0.00333554,0.000202191,0.000424544,-0.00334642,0.0537213,0.00238509,0.0116994,1091,421,2.84217,22.8606
-126,603,2.82837,-23.0614,0.000576729,-0.00338628,0.000364593,0.000609992,-0.00341955,0.0909813,0.00250788,0.0108556,1098,421,2.8284,23.0614
-119,603,2.85571,-23.2592,0.000748183,-0.00312145,0.000439228,0.000797412,-0.00317068,0.111614,0.00242372,0.0106117,1105,421,2.85569,23.2592
-112,603,2.84265,-23.4738,0.000900538,-0.00286956,0.00048994,0.000963167,-0.00293219,0.127141,0.0023428,0.0147571,1112,421,2.84265,23.4738
-105,603,2.84558,-23.676,0.00113957,-0.00253301,0.000487308,0.00120313,-0.00259657,0.129699,0.00224239,0.014624,1119,421,2.84558,23.676
-98,603,2.86682,-23.8629,0.00144758,-0.00219975,0.000463925,0.00150566,-0.00225784,0.124554,0.00218728,0.0114053,1126,421,2.86687,23.8629
-91,603,2.8761,-24.0387,0.00179772,-0.00176552,0.000253714,0.00181569,-0.0017835,0.0707276,0.00207802,0.00883422,1133,421,2.87612,24.0387
-84,603,2.91077,-24.2205,0.00228259,-0.00164666,0.000250716,0.00229852,-0.00166259,0.0634647,0.00229675,0.00997473,1140,421,2.9108,24.2205
-77,603,2.94141,-24.4115,0.0028265,-0.00139098,0.000320729,0.00285075,-0.00141524,0.0754691,0.00250902,0.015203,1147,421,2.94139,24.4115
-70,603,3.03821,-24.7581,0.00404907,-0.00198931,0.00064934,0.00411811,-0.00205835,0.105922,0.00363148,0.0478373,1154,421,3.03827,24.7581
-63,603,2.98621,-24.6763,0,0,0,0,0,0,0,-1,1161,421,2.98624,24.6763
-56,603,2.9917,-24.8243,0,0,0,0,0,0,0,-1,1168,421,2.99174,24.8243
-49,603,3.01587,-24.9334,0,0,0,0,0,0,0,-1,1175,421,3.01584,24.9334
-42,603,3.01062,-25.0263,0,0,0,0,0,0,0,-1,1182,421,3.01068,25.0263
-35,603,2.96423,-25.0827,0.00721005,-0.0190865,-0.0017518,0.00732624,-0.0192027,-0.0662273,0.0158198,0.0415165,1189,421,2.96423,25.0827
-28,603,3.00842,-25.1863,0.00312556,-0.0214147,-0.000540245,0.00313745,-0.0214266,-0.0220004,0.0154368,0.0248182,1196,421,3.00842,25.1863
-21,603,3.11011,-25.2978,0.000802588,-0.0209014,-0.00102594,0.000850976,-0.0209497,-0.0471299,0.0142586,0.0227593,1203,421,3.1101,25.2978
-14,603,3.20715,-25.3727,0.00075101,-0.0223793,-0.00113999,0.00080706,-0.0224354,-0.0491267,0.0152331,0.0215926,1210,421,3.2072,25.3727
-7,603,3.22412,-25.4328,0.00143825,-0.021915,-0.00227834,0.00165844,-0.0221352,-0.0963494,0.0153395,0.0232744,1217,421,3.22407,25.4328
0,603,3.20081,-25.5454,0.00154992,-0.0204456,-0.00317396,0.00199877,-0.0208944,-0.140483,0.0146414,0.0272317,1224,421,3.20078,25.5454
7,603,3.25488,-25.5326,0.00159953,-0.0192136,-0.00366685,0.00222666,-0.0198407,-0.169388,0.0140284,0.0329103,1231,421,3.25484,25.5326
14,603,3.43274,-25.4403,0.00202095,-0.0170894,-0.00433281,0.00295742,-0.0180258,-0.212861,0.0131147,0.0318825,1238,421,3.43272,25.4403
21,603,3.44934,-25.4832,0.00241268,-0.0141747,-0.00513095,0.00387152,-0.0156336,-0.277012,0.0119242,0.0245804,1245,421,3.44939,25.4832
28,603,3.46753,-25.5034,0.00283602,-0.0114728,-0.00582975,0.00491046,-0.0135472,-0.341864,0.0110386,0.0277551,1252,421,3.46754,25.5034
35,603,3.45239,-25.478,0.00230741,-0.00867847,-0.00663474,0.00542796,-0.011799,-0.439635,0.0101702,0.0373229,1259,421,3.4524,25.478
42,603,3.56506,-25.6428,0.00242411,-0.00405856,-0.00605873,0.00605405,-0.0076885,-0.539777,0.00795295,0.0351436,1266,421,3.56512,25.6428
49,603,3.6344,-25.7596,0.001713,0.000438206,-0.00556708,0.00667905,-0.00452785,-0.728399,0.00650992,0.0186574,1273,421,3.63437,25.7596
56,603,3.63062,-25.6989,-0.000440225,0.010106,-0.00375786,0.011308,-0.00164223,-1.26122,0.0081415,0.0335004,1280,421,3.63056,25.6989
63,603,3.6825,-25.3654,0.00119665,0.0227047,0.000472935,0.0227151,0.00118625,1.54882,0.0147639,0.0467254,1287,421,3.68245,25.3654
70,603,3.75513,-25.2879,0,0,0,0,0,0,0,-1,1294,421,3.75507,25.2879
77,603,3.77002,-25.7604,0,0,0,0,0,0,0,-1,1301,421,3.77001,25.7604
84,603,3.79224,-25.711,0,0,0,0,0,0,0,-1,1308,421,3.79228,25.711
91,603,3.97546,-25.6578,0,0,0,0,0,0,0,-1,1315,421,3.97541,25.6578
98,603,4.09912,-25.6837,0.00956486,0.0609145,0.00423651,0.0612616,0.00921768,1.48903,0.0381416,0.0493359,1322,421,4.0991,25.6837
105,603,4.30188,-25.5185,0.0119709,0.0611602,0.00329854,0.0613804,0.0117507,1.50414,0.0376202,0.0440194,1329,421,4.30186,25.5185
112,603,4.14832,-25.4338,0.0147606,0.0597717,0.00126792,0.0598074,0.0147249,1.54266,0.035982,0.0377758,1336,421,4.14834,25.4338
119,603,4.13599,-25.3446,0.0169725,0.0551887,-0.00112398,0.0552218,0.0169395,-1.54142,0.0326664,0.0392763,1343,421,4.13599,25.3446
126,603,4.18054,-25.1694,0.01821,0.0454986,-0.00416856,0.0461212,0.0175875,-1.42254,0.0268769,0.0449587,1350,421,4.1805,25.1694
133,603,4.15149,-25.0553,0.018128,0.0340653,-0.00753431,0.0370632,0.0151301,-1.1921,0.0215183,0.0371991,1357,421,4.15145,25.0553
140,603,4.2384,-25.003,0.0176971,0.0229807,-0.0103507,0.0310214,0.00965642,-0.910345,0.0183305,0.0256737,1364,421,4.23835,25.003
147,603,4.1427,-24.9434,0.0157594,0.0118181,-0.0132356,0.0271702,0.000407258,-0.711495,0.0179793,0.0202604,1371,421,4.1427,24.9433
154,603,4.11255,-24.8822,0.0142495,0.00311244,-0.014656,0.0243592,-0.00699725,-0.603847,0.0190062,0.0285273,1378,421,4.11255,24.8822
161,603,4.19263,-24.777,0.012688,-0.00585666,-0.0155813,0.0215473,-0.0147159,-0.516996,0.02106,0.0317662,1385,421,4.19268,24.777
168,603,4.25061,-24.6421,0.00733092,-0.0122692,-0.0168531,0.0170262,-0.0219645,-0.522046,0.0225714,0.0309073,1392,421,4.25062,24.6421
175,603,4.43604,-24.5266,0.00413407,-0.0137448,-0.0123796,0.0104645,-0.0200752,-0.472693,0.0179208,0.0333206,1399,421,4.43603,24.5265
182,603,4.50281,-24.3767,0.00364394,-0.011538,-0.0109383,0.00936719,-0.0172613,-0.48206,0.0155975,0.0390597,1406,421,4.50279,24.3767
189,603,4.44519,-24.194,0.00261545,-0.00993847,-0.00942663,0.00766375,-0.0149868,-0.491671,0.0133032,0.0351373,1413,421,4.44524,24.194
196,603,4.36987,-23.9896,0.00175898,-0.00803494,-0.00674576,0.00519782,-0.0114738,-0.471439,0.00985006,0.0275134,1420,421,4.36992,23.9896
203,603,4.37012,-23.8542,0.00204153,-0.0043481,-0.00390809,0.00389449,-0.00620106,-0.442741,0.00587916,0.0160551,1427,421,4.37016,23.8542
210,603,4.39526,-23.7662,0.00277128,-0.00199156,-0.00151792,0.00321391,-0.00243419,-0.283734,0.00327127,0.0125046,1434,421,4.39522,23.7662
217,603,4.40881,-23.5302,0.00247956,2.97989e-05,-0.000198717,0.00249558,1.37843e-05,-0.080416,0.00165914,0.0142025,1441,421,4.40887,23.5302
224,603,4.44055,-23.3103,0.00207995,0.000675982,0.000177932,0.00210215,0.000653783,0.124121,0.00124224,0.0176625,1448,421,4.4406,23.3103
231,603,4.44727,-23.1139,0.0017051,0.00124778,0.000530993,0.00205458,0.000898309,0.582084,0.00118932,0.0149766,1455,421,4.44726,23.1139
238,603,4.46741,-22.91,0.00153739,0.00170009,0.00078316,0.00240611,0.000831363,0.83715,0.0014111,0.010904,1462,421,4.46736,22.91
245,603,4.4823,-22.695,0.00141689,0.00207395,0.000887016,0.00269132,0.000799518,0.962754,0.00159592,0.0119574,1469,421,4.48231,22.695
252,603,4.50403,-22.4569,0.00130376,0.00234809,0.000958398,0.00291734,0.00073451,1.03483,0.00175215,0.0106287,1476,421,4.50406,22.4569
259,603,4.49268,-22.2177,0.00119318,0.0025498,0.00106734,0.00313614,0.000606846,1.06846,0.0019207,0.00998019,1483,421,4.49271,22.2177
266,603,4.48267,-21.9681,0.00113611,0.00266384,0.00120356,0.00332548,0.000474477,1.06816,0.00207697,0.0111553,1490,421,4.48261,21.9681
273,603,4.48743,-21.7197,0.00113227,0.00279436,0.00143585,0.00362232,0.00030431,1.04773,0.0023201,0.0104948,1497,421,4.48741,21.7197
280,603,4.49402,-21.4549,0.00112055,0.00288203,0.00177689,0.00398448,1.81063e-05,1.01549,0.0026503,0.0116531,1504,421,4.49402,21.4549
287,603,4.49939,-21.1696,0.0012001,0.00298147,0.00225207,0.00451258,-0.000331018,0.973707,0.00312458,0.0110859,1511,421,4.49939,21.1696
294,603,4.48901,-20.9108,0.00123118,0.00319276,0.00279433,0.00517343,-0.000749486,0.954178,0.00372401,0.0102093,1518,421,4.48901,20.9108
301,603,4.48291,-20.6516,0.00119707,0.00336768,0.00346162,0.00591015,-0.00134539,0.937307,0.00445678,0.0117552,1525,421,4.48287,20.6515
308,603,4.47974,-20.3755,0.00117295,0.00355827,0.00420652,0.00673794,-0.00200672,0.923536,0.00528931,0.0162725,1532,421,4.47976,20.3755
315,603,4.46997,-20.114,0.00108038,0.00381683,0.0049549,0.00758894,-0.00269173,0.920109,0.00615593,0.0142746,1539,421,4.46996,20.114
322,603,4.45703,-19.8102,0.000879089,0.00417015,0.0056799,0.00843808,-0.00338885,0.926393,0.00703265,0.0144038,1546,421,4.45701,19.8102
329,603,4.42676,-19.4943,0.000625574,0.004496,0.0063093,0.0091602,-0.00403863,0.934205,0.00780924,0.0110918,1553,421,4.42674,19.4943
336,603,4.41846,-19.1908,0.000332021,0.00486383,0.0067774,0.00974408,-0.00454822,0.946723,0.00843147,0.00947833,1560,421,4.41845,19.1908
343,603,4.41846,-18.8748,6.58137e-05,0.00504443,0.00706011,0.0100412,-0.00493098,0.954887,0.00881045,0.0112112,1567,421,4.41849,18.8748
350,603,4.38879,-18.5392,-0.000100986,0.00566312,0.00740569,0.0107278,-0.00516566,0.970965,0.00936153,0.0242562,1574,421,4.38874,18.5392
357,603,4.41479,-18.1059,-0.000411399,0.00602828,0.00764896,0.0111075,-0.00549059,0.984616,0.00976409,0.0362039,1581,421,4.41476,18.1059
364,603,4.49695,-17.6142,0,0,0,0,0,0,0,-1,1588,421,4.4969,17.6142
371,603,4.34119,-17.3134,0,0,0,0,0,0,0,-1,1595,421,4.34124,17.3133
378,603,4.27039,-17.2429,0,0,0,0,0,0,0,-1,1602,421,4.27038,17.2429
385,603,4.1499,-16.8222,0,0,0,0,0,0,0,-1,1609,421,4.14988,16.8222
392,603,4.19092,-16.5714,0,0,0,0,0,0,0,-1,1616,421,4.19092,16.5714
399,603,2.38013,-5.37076,0,0,0,0,0,0,0,-1,1623,421,2.38016,5.37075
406,603,3.01917,-2.37219,0,0,0,0,0,0,0,-1,1630,421,3.01915,2.37219
413,603,2.38928,-2.41275,0,0,0,0,0,0,0,-1,1637,421,2.38926,2.41274
420,603,2.74866,-2.30066,0,0,0,0,0,0,0,-1,1644,421,2.74867,2.30065
427,603,7.11548,-3.35352,0,0,0,0,0,0,0,-1,1651,421,7.11549,3.35351
434,603,7.32153,-4.50525,0,0,0,0,0,0,0,-1,1658,421,7.32149,4.50525
441,603,3.18213,-0.250946,0,0,0,0,0,0,0,-1,1665,421,3.18212,0.250944
448,603,2.95667,-0.066925,0,0,0,0,0,0,0,-1,1672,421,2.95662,0.0669226
455,603,0,0,0,0,0,0,0,0,0,-1,1679,421,0,0
462,603,0,0,0,0,0,0,0,0,0,-1,1686,421,0,0
469,603,0,0,0,0,0,0,0,0,0,-1,1693,421,0,0
476,603,0,0,0,0,0,0,0,0,0,-1,1700,421,0,0
483,603,0,0,0,0,0,0,0,0,0,-1,1707,421,0,0
490,603,0,0,0,0,0,0,0,0,0,-1,1714,421,0,0
497,603,0,0,0,0,0,0,0,0,0,-1,1721,421,0,0
504,603,0,0,0,0,0,0,0,0,0,-1,1728,421,0,0
511,603,0,0,0,0,0,0,0,0,0,-1,1735,421,0,0
518,603,0,0,0,0,0,0,0,0,0,-1,1742,421,0,0
525,603,0,0,0,0,0,0,0,0,0,-1,1749,421,0,0
532,603,0,0,0,0,0,0,0,0,0,-1,1756,421,0,0
539,603,0,0,0,0,0,0,0,0,0,-1,1763,421,0,0
546,603,0,0,0,0,0,0,0,0,0,-1,1770,421,0,0
553,603,0,0,0,0,0,0,0,0,0,-1,1777,421,0,0
560,603,0,0,0,0,0,0,0,0,0,-1,1784,421,0,0
567,603,0,0,0,0,0,0,0,0,0,-1,1791,421,0,0
574,603,0,0,0,0,0,0,0,0,0,-1,1798,421,0,0
581,603,0,0,0,0,0,0,0,0,0,-1,1805,421,0,0
588,603,0,0,0,0,0,0,0,0,0,-1,1812,421,0,0
595,603,0,0,0,0,0,0,0,0,0,-1,1819,421,0,0
602,603,0,0,0,0,0,0,0,0,0,-1,1826,421,0,0
609,603,0,0,0,0,0,0,0,0,0,-1,1833,421,0,0
616,603,0,0,0,0,0,0,0,0,0,-1,1840,421,0,0
623,603,0,0,0,0,0,0,0,0,0,-1,1847,421,0,0
630,603,0,0,0,0,0,0,0,0,0,-1,1854,421,0,0
637,603,0,0,0,0,0,0,0,0,0,-1,1861,421,0,0
644,603,0,0,0,0,0,0,0,0,0,-1,1868,421,0,0
651,603,0,0,0,0,0,0,0,0,0,-1,1875,421,0,0
658,603,0,0,0,0,0,0,0,0,0,-1,1882,421,0,0
665,603,0,0,0,0,0,0,0,0,0,-1,1889,421,0,0
672,603,0,0,0,0,0,0,0,0,0,-1,1896,421,0,0
679,603,0,0,0,0,0,0,0,0,0,-1,1903,421,0,0
686,603,0,0,0,0,0,0,0,0,0,-1,1910,421,0,0
693,603,0,0,0,0,0,0,0,0,0,-1,1917,421,0,0
700,603,0,0,0,0,0,0,0,0,0,-1,1924,421,0,0
707,603,0,0,0,0,0,0,0,0,0,-1,1931,421,0,0
714,603,0,0,0,0,0,0,0,0,0,-1,1938,421,0,0
721,603,0,0,0,0,0,0,0,0,0,-1,1945,421,0,0
728,603,0,0,0,0,0,0,0,0,0,-1,1952,421,0,0
735,603,0,0,0,0,0,0,0,0,0,-1,1959,421,0,0
742,603,0,0,0,0,0,0,0,0,0,-1,1966,421,0,0
749,603,0,0,0,0,0,0,0,0,0,-1,1973,421,0,0
756,603,0,0,0,0,0,0,0,0,0,-1,1980,421,0,0
763,603,0,0,0,0,0,0,0,0,0,-1,1987,421,0,0
770,603,0,0,0,0,0,0,0,0,0,-1,1994,421,0,0
777,603,0,0,0,0,0,0,0,0,0,-1,2001,421,0,0
784,603,0,0,0,0,0,0,0,0,0,-1,2008,421,0,0
791,603,0,0,0,0,0,0,0,0,0,-1,2015,421,0,0
798,603,0,0,0,0,0,0,0,0,0,-1,2022,421,0,0
805,603,0,0,0,0,0,0,0,0,0,-1,2029,421,0,0
812,603,0,0,0,0,0,0,0,0,0,-1,2036,421,0,0
-700,596,0,0,0,0,0,0,0,0,0,-1,524,428,0,0
-693,596,0,0,0,0,0,0,0,0,0,-1,531,428,0,0
-686,596,0,0,0,0,0,0,0,0,0,-1,538,428,0,0
-679,596,0,0,0,0,0,0,0,0,0,-1,545,428,0,0
-672,596,0,0,0,0,0,0,0,0,0,-1,552,428,0,0
-665,596,0,0,0,0,0,0,0,0,0,-1,559,428,0,0
-658,596,0,0,0,0,0,0,0,0,0,-1,566,428,0,0
-651,596,0,0,0,0,0,0,0,0,0,-1,573,428,0,0
-644,596,0,0,0,0,0,0,0,0,0,-1,580,428,0,0
-637,596,0,0,0,0,0,0,0,0,0,-1,587,428,0,0
-630,596,0,0,0,0,0,0,0,0,0,-1,594,428,0,0
-623,596,0,0,0,0,0,0,0,0,0,-1,601,428,0,0
-616,596,0,0,0,0,0,0,0,0,0,-1,608,428,0,0
-609,596,0,0,0,0,0,0,0,0,0,-1,615,428,0,0
-602,596,0,0,0,0,0,0,0,0,0,-1,622,428,0,0
-595,596,0,0,0,0,0,0,0,0,0,-1,629,428,0,0
-588,596,0,0,0,0,0,0,0,0,0,-1,636,428,0,0
-581,596,0,0,0,0,0,0,0,0,0,-1,643,428,0,0
-574,596,0,0,0,0,0,0,0,0,0,-1,650,428,0,0
-567,596,0,0,0,0,0,0,0,0,0,-1,657,428,0,0
-560,596,0,0,0,0,0,0,0,0,0,-1,664,428,0,0
-553,596,0,0,0,0,0,0,0,0,0,-1,671,428,0,0
-546,596,0,0,0,0,0,0,0,0,0,-1,678,428,0,0
-539,596,0,0,0,0,0,0,0,0,0,-1,685,428,0,0
-532,596,0,0,0,0,0,0,0,0,0,-1,692,428,0,0
-525,596,0,0,0,0,0,0,0,0,0,-1,699,428,0,0
-518,596,0,0,0,0,0,0,0,0,0,-1,706,428,0,0
-511,596,0,0,0,0,0,0,0,0,0,-1,713,428,0,0
-504,596,0,0,0,0,0,0,0,0,0,-1,720,428,0,0
-497,596,0,0,0,0,0,0,0,0,0,-1,727,428,0,0
-490,596,0,0,0,0,0,0,0,0,0,-1,734,428,0,0
-483,596,0,0,0,0,0,0,0,0,0,-1,741,428,0,0
-476,596,0,0,0,0,0,0,0,0,0,-1,748,428,0,0
-469,596,0,0,0,0,0,0,0,0,0,-1,755,428,0,0
-462,596,0,0,0,0,0,0,0,0,0,-1,762,428,0,0
-455,596,0,0,0,0,0,0,0,0,0,-1,769,428,0,0
-448,596,0,0,0,0,0,0,0,0,0,-1,776,428,0,0
-441,596,0,0,0,0,0,0,0,0,0,-1,783,428,0,0
-434,596,0,0,0,0,0,0,0,0,0,-1,790,428,0,0
-427,596,0,0,0,0,0,0,0,0,0,-1,797,428,0,0
-420,596,0,0,0,0,0,0,0,0,0,-1,804,428,0,0
-413,596,0,0,0,0,0,0,0,0,0,-1,811,428,0,0
-406,596,0,0,0,0,0,0,0,0,0,-1,818,428,0,0
-399,596,0,0,0,0,0,0,0,0,0,-1,825,428,0,0
-392,596,0,0,0,0,0,0,0,0,0,-1,832,428,0,0
-385,596,0,0,0,0,0,0,0,0,0,-1,839,428,0,0
-378,596,0,0,0,0,0,0,0,0,0,-1,846,428,0,0
-371,596,0,0,0,0,0,0,0,0,0,-1,853,428,0,0
-364,596,0,0,0,0,0,0,0,0,0,-1,860,428,0,0
-357,596,0,0,0,0,0,0,0,0,0,-1,867,428,0,0
-350,596,0,0,0,0,0,0,0,0,0,-1,874,428,0,0
-343,596,0,0,0,0,0,0,0,0,0,-1,881,428,0,0
-336,596,-0.315308,-18.9491,0,0,0,0,0,0,0,-1,888,428,-0.315329,18.9491
-329,596,0.0933228,-17.6538,0,0,0,0,0,0,0,-1,895,428,0.0933086,17.6539
-322,596,0.433533,-16.0376,0,0,0,0,0,0,0,-1,902,428,0.433533,16.0376
-315,596,4.39758,-13.4543,0,0,0,0,0,0,0,-1,909,428,4.3976,13.4543
-308,596,3.66199,-16.3362,0,0,0,0,0,0,0,-1,916,428,3.662,16.3363
-301,596,2.76062,-15.1423,0,0,0,0,0,0,0,-1,923,428,2.76063,15.1423
-294,596,2.47449,-15.0011,0,0,0,0,0,0,0,-1,930,428,2.47449,15.0011
-287,596,2.74335,-16.7022,0,0,0,0,0,0,0,-1,937,428,2.74336,16.7022
-280,596,2.83624,-16.7213,0,0,0,0,0,0,0,-1,944,428,2.83622,16.7213
-273,596,2.76141,-17.0711,0.00190883,0.0121253,-0.00237209,0.0126492,0.00138494,-1.35343,0.00801114,0.0422109,951,428,2.76139,17.0711
-266,596,2.63232,-17.4066,0.00162296,0.0115987,-0.00286819,0.0123646,0.000857104,-1.30987,0.00797272,0.0372713,958,428,2.63234,17.4066
-259,596,2.61389,-17.7991,0.00123869,0.0106925,-0.00270725,0.0114129,0.000518313,-1.31073,0.00744184,0.0326757,965,428,2.61392,17.7991
-252,596,2.7204,-18.2781,0.000724673,0.0108703,-0.00319104,0.0117905,-0.000195523,-1.29004,0.00792631,0.0167723,972,428,2.72042,18.2781
-245,596,2.71985,-18.6245,0.000532842,0.0091583,-0.00297144,0.0100828,-0.000391705,-1.26915,0.0068562,0.0124549,979,428,2.71986,18.6245
-238,596,2.69653,-18.9374,0.000344236,0.00766432,-0.00200237,0.00817626,-0.0001677,-1.32049,0.00550759,0.0117113,986,428,2.69654,18.9374
-231,596,2.6568,-19.2664,-3.11072e-07,0.00688404,-0.00127099,0.00711119,-0.000227465,-1.39394,0.00481841,0.0138394,993,428,2.65681,19.2664
-224,596,2.64154,-19.5794,-9.29528e-05,0.00635616,-0.000949289,0.00649299,-0.000229782,-1.42764,0.00440725,0.0140939,1000,428,2.64154,19.5794
-217,596,2.6413,-19.8851,-8.24416e-05,0.00555137,-0.000548867,0.00560434,-0.000135416,-1.47458,0.00378218,0.0139027,1007,428,2.64128,19.8851
-210,596,2.65961,-20.1524,-0.000290143,0.0044383,-0.000139336,0.00444241,-0.000294246,-1.54136,0.0030644,0.0116657,1014,428,2.65964,20.1524
-203,596,2.63501,-20.3955,-0.000254732,0.00350615,2.80822e-07,0.00350615,-0.000254732,1.57072,0.0024268,0.0144325,1021,428,2.63503,20.3955
-196,596,2.64514,-20.6846,-0.000185136,0.00255705,0.000178796,0.00256866,-0.000196745,1.50596,0.00178164,0.0144743,1028,428,2.64516,20.6846
-189,596,2.63403,-20.9495,-0.000150001,0.00145174,0.000230142,0.00148415,-0.000182413,1.43088,0.00105551,0.0118352,1035,428,2.634,20.9495
-182,596,2.61487,-21.1965,1.245e-05,0.000517394,0.000219085,0.000599198,-6.93541e-05,1.21344,0.000424476,0.0111308,1042,428,2.61481,21.1965
-175,596,2.61279,-21.4539,7.03059e-05,-0.000887635,0.000339252,0.000178281,-0.00099561,0.308136,0.000730455,0.0134215,1049,428,2.61284,21.4539
-168,596,2.61145,-21.7192,-1.99874e-05,-0.0022283,0.00052898,0.000100185,-0.00234847,0.223386,0.00160009,0.0163847,1056,428,2.61147,21.7192
-161,596,2.61597,-21.9608,-4.85678e-05,-0.00335721,0.000659468,7.80312e-05,-0.00348381,0.189664,0.00234898,0.0154026,1063,428,2.61594,21.9608
-154,596,2.58191,-22.2016,2.44098e-06,-0.00417382,0.000802102,0.000151196,-0.00432258,0.183373,0.00293342,0.013256,1070,428,2.58186,22.2016
-147,596,2.59595,-22.4265,5.30871e-05,-0.00483536,0.00096593,0.000237028,-0.00501931,0.188176,0.00342795,0.0134394,1077,428,2.596,22.4265
-140,596,2.62402,-22.6255,0.000129744,-0.0052514,0.00110215,0.000346731,-0.00546839,0.194391,0.00376649,0.0133941,1084,428,2.62407,22.6255
-133,596,2.61841,-22.8513,0.000262864,-0.00559901,0.00125365,0.000519721,-0.00585587,0.202091,0.00408818,0.014079,1091,428,2.61843,22.8513
-126,596,2.62976,-23.0725,0.000464201,-0.00581015,0.0014109,0.000766869,-0.00611281,0.211318,0.0043534,0.0115162,1098,428,2.62981,23.0725
-119,596,2.66296,-23.2837,0.000743555,-0.00559084,0.00137532,0.00102928,-0.00587656,0.204835,0.00430204,0.0137173,1105,428,2.66297,23.2837
-112,596,2.65393,-23.4771,0.0010021,-0.00532002,0.0013406,0.00127462,-0.00559255,0.200553,0.00421793,0.0144353,1112,428,2.65396,23.4771
-105,596,2.65112,-23.6575,0.00140723,-0.00488655,0.00121797,0.00163471,-0.00511403,0.184642,0.00406533,0.0153378,1119,428,2.65107,23.6575
-98,596,2.69763,-23.8394,0.00192554,-0.00431414,0.0010684,0.00210341,-0.00449201,0.164968,0.00389022,0.010978,1126,428,2.69758,23.8394
-91,596,2.71057,-24.0597,0.00248678,-0.00351424,0.000592086,0.00254464,-0.0035721,0.0974127,0.00354807,0.0157584,1133,428,2.71055,24.0597
-84,596,2.81177,-24.3933,0,0,0,0,0,0,0,-1,1140,428,2.81174,24.3933
-77,596,2.80579,-24.4633,0,0,0,0,0,0,0,-1,1147,428,2.80584,24.4634
-70,596,2.91235,-25.1154,0,0,0,0,0,0,0,-1,1154,428,2.91238,25.1154
-63,596,1.95569,-12.2758,0,0,0,0,0,0,0,-1,1161,428,1.95563,12.2759
-56,596,1.60107,-10.5827,0,0,0,0,0,0,0,-1,1168,428,1.60108,10.5827
-49,596,1.59473,-10.0393,0,0,0,0,0,0,0,-1,1175,428,1.59472,10.0393
-42,596,1.99585,-6.6246,0,0,0,0,0,0,0,-1,1182,428,1.99586,6.62459
-35,596,2.60657,-24.8862,0,0,0,0,0,0,0,-1,1189,428,2.60659,24.8862
-28,596,2.66675,-24.8007,0,0,0,0,0,0,0,-1,1196,428,2.66681,24.8007
-21,596,2.77051,-24.9117,-0.00150811,-0.0262928,-0.00228146,-0.00129985,-0.0265011,-0.0910317,0.0172504,0.0479781,1203,428,2.77054,24.9117
-14,596,3.01636,-25.1008,-0.00160586,-0.027356,-0.00218476,-0.00142181,-0.0275401,-0.0840438,0.0179049,0.0473612,1210,428,3.01641,25.1008
-7,596,3.198,-25.0657,-0.00104849,-0.0262308,-0.00340165,-0.000597083,-0.0266822,-0.131931,0.0175925,0.0493371,1217,428,3.19802,25.0657
0,596,3.2395,-25.0451,-0.000927421,-0.0242627,-0.00422713,-0.000185288,-0.0250048,-0.173793,0.0166085,0.0489038,1224,428,3.23953,25.0451
7,596,3.44666,-24.9164,-0.00061603,-0.0224852,-0.00473909,0.000366773,-0.023468,-0.204484,0.015769,0.045397,1231,428,3.44661,24.9164
14,596,3.71436,-24.8437,0.000272351,-0.0196171,-0.00561201,0.00174656,-0.0210913,-0.256885,0.0146778,0.0460184,1238,428,3.71435,24.8437
21,596,3.73743,-24.8783,0.00107235,-0.0159165,-0.00659664,0.00333296,-0.0181771,-0.330149,0.0133683,0.0448666,1245,428,3.73746,24.8783
28,596,3.43872,-24.82,0.00188502,-0.01252,-0.00753049,0.0051029,-0.0157378,-0.403829,0.0125437,0.0442467,1252,428,3.43872,24.82
35,596,2.98181,-25.0341,0.00146731,-0.00915637,-0.00863304,0.00629179,-0.0139809,-0.509604,0.0119818,0.0449093,1259,428,2.98181,25.0341
42,596,3.97485,-26.2637,0.00158605,-0.00374932,-0.00814893,0.00749284,-0.0096561,-0.627213,0.00992717,0.0442218,1266,428,3.97484,26.2637
49,596,4.31372,-26.2509,0.000518671,0.00147948,-0.00770987,0.0087239,-0.00672575,-0.816513,0.00894469,0.043888,1273,428,4.31377,26.2509
56,596,3.68701,-25.5296,-0.00231908,0.0126915,-0.00575655,0.0146449,-0.0042725,-1.24365,0.0114562,0.0449795,1280,428,3.68699,25.5296
63,596,3.51001,-25.2657,0.000340299,0.0269579,-0.000749759,0.026979,0.000319197,-1.54266,0.0178805,0.046864,1287,428,3.50997,25.2658
70,596,3.30359,-25.0223,0,0,0,0,0,0,0,-1,1294,428,3.30356,25.0223
77,596,2.73706,-23.7111,0,0,0,0,0,0,0,-1,1301,428,2.73711,23.7111
84,596,3.28418,-26.123,0,0,0,0,0,0,0,-1,1308,428,3.28414,26.1231
91,596,3.94836,-25.7825,0.0104243,0.0654351,0.00294322,0.0655921,0.0102672,1.5175,0.0407392,0.041889,1315,428,3.94841,25.7825
98,596,4.41382,-25.5628,0.0125173,0.067898,0.00324636,0.0680877,0.0123277,1.51244,0.0418916,0.0470116,1322,428,4.41382,25.5628
105,596,4.70862,-25.3299,0,0,0,0,0,0,0,-1,1329,428,4.70857,25.3299
112,596,4.51563,-25.2145,0,0,0,0,0,0,0,-1,1336,428,4.51561,25.2145
119,596,4.47168,-25.0648,0,0,0,0,0,0,0,-1,1343,428,4.47172,25.0649
126,596,4.51208,-24.801,0,0,0,0,0,0,0,-1,1350,428,4.51209,24.801
133,596,4.30957,-24.7382,0,0,0,0,0,0,0,-1,1357,428,4.30956,24.7382
140,596,4.45032,-24.6865,0,0,0,0,0,0,0,-1,1364,428,4.45028,24.6865
147,596,4.15088,-24.4333,0.0209391,0.00958203,-0.015528,0.0317943,-0.00127312,-0.610102,0.0216331,0.0459239,1371,428,4.15093,24.4333
154,596,4.68298,-24.519,0.0187938,-0.000411017,-0.0169261,0.0286516,-0.0102688,-0.52738,0.0232912,0.0485683,1378,428,4.68297,24.519
161,596,4.77905,-24.3748,0.0162304,-0.00914035,-0.0174978,0.0251574,-0.0180673,-0.471754,0.0250674,0.0460757,1385,428,4.77908,24.3749
168,596,4.48828,-24.4352,0,0,0,0,0,0,0,-1,1392,428,4.4883,24.4352
175,596,4.71826,-24.2963,0,0,0,0,0,0,0,-1,1399,428,4.71822,24.2963
182,596,4.78381,-24.2869,0,0,0,0,0,0,0,-1,1406,428,4.78377,24.2869
189,596,4.69543,-24.115,0,0,0,0,0,0,0,-1,1413,428,4.69549,24.1149
196,596,4.6084,-23.768,0,0,0,0,0,0,0,-1,1420,428,4.6084,23.768
203,596,4.53333,-23.8284,0,0,0,0,0,0,0,-1,1427,428,4.53334,23.8284
210,596,4.5686,-23.808,0,0,0,0,0,0,0,-1,1434,428,4.56857,23.8081
217,596,4.52722,-23.7319,0,0,0,0,0,0,0,-1,1441,428,4.52717,23.7319
224,596,4.59131,-23.4058,0.00276268,0.000363624,8.52497e-05,0.0027657,0.000360598,0.0354751,0.00173613,0.0249017,1448,428,4.59125,23.4058
231,596,4.70593,-23.1219,0.00227034,0.00103044,0.000477553,0.00243295,0.000867835,0.328186,0.00142376,0.0150372,1455,428,4.70591,23.1219
238,596,4.70715,-22.8971,0.0020423,0.00148563,0.000707904,0.00252462,0.00100331,0.598091,0.00146778,0.0152253,1462,428,4.70712,22.8971
245,596,4.71509,-22.6754,0.00187651,0.00181672,0.000735947,0.00258317,0.00111006,0.765098,0.0014963,0.0132894,1469,428,4.71511,22.6754
252,596,4.74756,-22.4481,0.00168641,0.00195623,0.000712748,0.00254672,0.00109592,0.878932,0.0014751,0.0103874,1476,428,4.7476,22.4481
259,596,4.74353,-22.2161,0.00145653,0.00197711,0.000709309,0.00247238,0.000961256,0.961251,0.00143915,0.00812045,1483,428,4.74352,22.2161
266,596,4.72412,-21.9764,0.00132705,0.00196289,0.000688958,0.00240374,0.000886196,1.00157,0.00140367,0.00947005,1490,428,4.72414,21.9765
273,596,4.72668,-21.7276,0.00130164,0.00200639,0.000709521,0.00244622,0.000861813,1.01587,0.00143272,0.0123384,1497,428,4.72673,21.7276
280,596,4.74219,-21.463,0.00124015,0.00186285,0.00080334,0.00241306,0.000689936,0.970268,0.00143512,0.0132454,1504,428,4.74214,21.4631
287,596,4.75562,-21.1913,0.00127559,0.00181774,0.00106773,0.00264826,0.000445066,0.909711,0.00163744,0.0114292,1511,428,4.75564,21.1913
294,596,4.72729,-20.9283,0.00129828,0.00198295,0.00140326,0.00308503,0.0001962,0.905039,0.00199451,0.00899368,1518,428,4.72733,20.9283
301,596,4.72253,-20.6523,0.00125319,0.00210438,0.00187373,0.00360024,-0.000242676,0.897073,0.00248501,0.0101329,1525,428,4.7225,20.6523
308,596,4.74072,-20.3711,0.00123307,0.00220544,0.00242283,0.00419038,-0.000751871,0.884418,0.00307501,0.0159708,1532,428,4.7407,20.3711
315,596,4.72009,-20.1096,0.00114989,0.00241851,0.00297882,0.00482981,-0.00126141,0.890301,0.00371247,0.0162003,1539,428,4.72007,20.1096
322,596,4.72656,-19.8043,0.000960159,0.00272945,0.00353752,0.00549127,-0.00180166,0.907923,0.00438651,0.0134392,1546,428,4.72662,19.8043
329,596,4.72192,-19.4977,0.000732687,0.00304291,0.00404718,0.00609659,-0.002321,0.924408,0.00502021,0.0101259,1553,428,4.7219,19.4977
336,596,4.70837,-19.2089,0.000476119,0.00338649,0.00444333,0.00660685,-0.00274424,0.943643,0.00555026,0.00902593,1560,428,4.70834,19.2089
343,596,4.70911,-18.8965,0.00022576,0.00359723,0.00470109,0.00690568,-0.00308269,0.957549,0.00590591,0.0110387,1567,428,4.70914,18.8965
350,596,4.69482,-18.5431,5.76664e-05,0.00417271,0.00502222,0.00754254,-0.00331215,0.979812,0.00642365,0.0114619,1574,428,4.69479,18.5431
357,596,4.67407,-18.2006,-0.000229427,0.00455499,0.00525982,0.00794105,-0.00361548,0.998821,0.00682618,0.00936398,1581,428,4.67402,18.2006
364,596,4.65845,-17.8542,-0.000805612,0.00489779,0.00520631,0.00798223,-0.00389006,1.03595,0.00698888,0.0135926,1588,428,4.65843,17.8542
371,596,4.66003,-17.5411,-0.00115506,0.00541291,0.00504948,0.00815237,-0.00389452,1.07371,0.0070986,0.019407,1595,428,4.65999,17.5411
378,596,4.61658,-17.2806,-0.00144534,0.00613664,0.00459246,0.00830068,-0.00360937,1.13044,0.00705184,0.0252844,1602,428,4.61661,17.2806
385,596,4.56909,-16.8844,-0.00225279,0.00604712,0.00376337,0.00749941,-0.00370507,1.2025,0.00659139,0.0327472,1609,428,4.5691,16.8844
392,596,4.56604,-16.4987,-0.00339758,0.00655949,0.00338845,0.0076032,-0.00444128,1.272,0.0070333,0.0409015,1616,428,4.56609,16.4987
399,596,4.47522,-16.215,0,0,0,0,0,0,0,-1,1623,428,4.47523,16.215
406,596,3.60034,-10.1525,0,0,0,0,0,0,0,-1,1630,428,3.60028,10.1525
413,596,3.39124,-2.63528,0,0,0,0,0,0,0,-1,1637,428,3.39122,2.6353
420,596,2.6344,-3.06308,0,0,0,0,0,0,0,-1,1644,428,2.63439,3.06308
427,596,2.99329,-1.90512,0,0,0,0,0,0,0,-1,1651,428,2.99327,1.90512
434,596,3.80896,-0.253998,0,0,0,0,0,0,0,-1,1658,428,3.80902,0.254004
441,596,3.86401,-0.131622,0,0,0,0,0,0,0,-1,1665,428,3.86406,0.131613
448,596,1.0769,0.0083313,0,0,0,0,0,0,0,-1,1672,428,1.07684,-0.00832231
455,596,2.00769,-1.43329,0,0,0,0,0,0,0,-1,1679,428,2.00765,1.4333
462,596,0,0,0,0,0,0,0,0,0,-1,1686,428,0,0
469,596,0,0,0,0,0,0,0,0,0,-1,1693,428,0,0
476,596,0,0,0,0,0,0,0,0,0,-1,1700,428,0,0
483,596,0,0,0,0,0,0,0,0,0,-1,1707,428,0,0
490,596,0,0,0,0,0,0,0,0,0,-1,1714,428,0,0
497,596,0,0,0,0,0,0,0,0,0,-1,1721,428,0,0
504,596,0,0,0,0,0,0,0,0,0,-1,1728,428,0,0
511,596,0,0,0,0,0,0,0,0,0,-1,1735,428,0,0
518,596,0,0,0,0,0,0,0,0,0,-1,1742,428,0,0
525,596,0,0,0,0,0,0,0,0,0,-1,1749,428,0,0
532,596,0,0,0,0,0,0,0,0,0,-1,1756,428,0,0
539,596,0,0,0,0,0,0,0,0,0,-1,1763,428,0,0
546,596,0,0,0,0,0,0,0,0,0,-1,1770,428,0,0
553,596,0,0,0,0,0,0,0,0,0,-1,1777,428,0,0
560,596,0,0,0,0,0,0,0,0,0,-1,1784,428,0,0
567,596,0,0,0,0,0,0,0,0,0,-1,1791,428,0,0
574,596,0,0,0,0,0,0,0,0,0,-1,1798,428,0,0
581,596,0,0,0,0,0,0,0,0,0,-1,1805,428,0,0
588,596,0,0,0,0,0,0,0,0,0,-1,1812,428,0,0
595,596,0,0,0,0,0,0,0,0,0,-1,1819,428,0,0
602,596,0,0,0,0,0,0,0,0,0,-1,1826,428,0,0
609,596,0,0,0,0,0,0,0,0,0,-1,1833,428,0,0
616,596,0,0,0,0,0,0,0,0,0,-1,1840,428,0,0
623,596,0,0,0,0,0,0,0,0,0,-1,1847,428,0,0
630,596,0,0,0,0,0,0,0,0,0,-1,1854,428,0,0
637,596,0,0,0,0,0,0,0,0,0,-1,1861,428,0,0
644,596,0,0,0,0,0,0,0,0,0,-1,1868,428,0,0
651,596,0,0,0,0,0,0,0,0,0,-1,1875,428,0,0
658,596,0,0,0,0,0,0,0,0,0,-1,1882,428,0,0
665,596,0,0,0,0,0,0,0,0,0,-1,1889,428,0,0
672,596,0,0,0,0,0,0,0,0,0,-1,1896,428,0,0
679,596,0,0,0,0,0,0,0,0,0,-1,1903,428,0,0
686,596,0,0,0,0,0,0,0,0,0,-1,1910,428,0,0
693,596,0,0,0,0,0,0,0,0,0,-1,1917,428,0,0
700,596,0,0,0,0,0,0,0,0,0,-1,1924,428,0,0
707,596,0,0,0,0,0,0,0,0,0,-1,1931,428,0,0
714,596,0,0,0,0,0,0,0,0,0,-1,1938,428,0,0
721,596,0,0,0,0,0,0,0,0,0,-1,1945,428,0,0
728,596,0,0,0,0,0,0,0,0,0,-1,1952,428,0,0
735,596,0,0,0,0,0,0,0,0,0,-1,1959,428,0,0
742,596,0,0,0,0,0,0,0,0,0,-1,1966,428,0,0
749,596,0,0,0,0,0,0,0,0,0,-1,1973,428,0,0
756,596,0,0,0,0,0,0,0,0,0,-1,1980,428,0,0
763,596,0,0,0,0,0,0,0,0,0,-1,1987,428,0,0
770,596,0,0,0,0,0,0,0,0,0,-1,1994,428,0,0
777,596,0,0,0,0,0,0,0,0,0,-1,2001,428,0,0
784,596,0,0,0,0,0,0,0,0,0,-1,2008,428,0,0
791,596,0,0,0,0,0,0,0,0,0,-1,2015,428,0,0
798,596,0,0,0,0,0,0,0,0,0,-1,2022,428,0,0
805,596,0,0,0,0,0,0,0,0,0,-1,2029,428,0,0
812,596,0,0,0,0,0,0,0,0,0,-1,2036,428,0,0
-700,589,0,0,0,0,0,0,0,0,0,-1,524,435,0,0
-693,589,0,0,0,0,0,0,0,0,0,-1,531,435,0,0
-686,589,0,0,0,0,0,0,0,0,0,-1,538,435,0,0
-679,589,0,0,0,0,0,0,0,0,0,-1,545,435,0,0
-672,589,0,0,0,0,0,0,0,0,0,-1,552,435,0,0
-665,589,0,0,0,0,0,0,0,0,0,-1,559,435,0,0
-658,589,0,0,0,0,0,0,0,0,0,-1,566,435,0,0
-651,589,0,0,0,0,0,0,0,0,0,-1,573,435,0,0
-644,589,0,0,0,0,0,0,0,0,0,-1,580,435,0,0
-637,589,0,0,0,0,0,0,0,0,0,-1,587,435,0,0
-630,589,0,0,0,0,0,0,0,0,0,-1,594,435,0,0
-623,589,0,0,0,0,0,0,0,0,0,-1,601,435,0,0
-616,589,0,0,0,0,0,0,0,0,0,-1,608,435,0,0
-609,589,0,0,0,0,0,0,0,0,0,-1,615,435,0,0
-602,589,0,0,0,0,0,0,0,0,0,-1,622,435,0,0
-595,589,0,0,0,0,0,0,0,0,0,-1,629,435,0,0
-588,589,0,0,0,0,0,0,0,0,0,-1,636,435,0,0
-581,589,0,0,0,0,0,0,0,0,0,-1,643,435,0,0
-574,589,0,0,0,0,0,0,0,0,0,-1,650,435,0,0
-567,589,0,0,0,0,0,0,0,0,0,-1,657,435,0,0
-560,589,0,0,0,0,0,0,0,0,0,-1,664,435,0,0
-553,589,0,0,0,0,0,0,0,0,0,-1,671,435,0,0
-546,589,0,0,0,0,0,0,0,0,0,-1,678,435,0,0
-539,589,0,0,0,0,0,0,0,0,0,-1,685,435,0,0
-532,589,0,0,0,0,0,0,0,0,0,-1,692,435,0,0
-525,589,0,0,0,0,0,0,0,0,0,-1,699,435,0,0
-518,589,0,0,0,0,0,0,0,0,0,-1,706,435,0,0
-511,589,0,0,0,0,0,0,0,0,0,-1,713,435,0,0
-504,589,0,0,0,0,0,0,0,0,0,-1,720,435,0,0
-497,589,0,0,0,0,0,0,0,0,0,-1,727,435,0,0
-490,589,0,0,0,0,0,0,0,0,0,-1,734,435,0,0
-483,589,0,0,0,0,0,0,0,0,0,-1,741,435,0,0
-476,589,0,0,0,0,0,0,0,0,0,-1,748,435,0,0
-469,589,0,0,0,0,0,0,0,0,0,-1,755,435,0,0
-462,589,0,0,0,0,0,0,0,0,0,-1,762,435,0,0
-455,589,0,0,0,0,0,0,0,0,0,-1,769,435,0,0
-448,589,0,0,0,0,0,0,0,0,0,-1,776,435,0,0
-441,589,0,0,0,0,0,0,0,0,0,-1,783,435,0,0
-434,589,0,0,0,0,0,0,0,0,0,-1,790,435,0,0
-427,589,0,0,0,0,0,0,0,0,0,-1,797,435,0,0
-420,589,0,0,0,0,0,0,0,0,0,-1,804,435,0,0
-413,589,0,0,0,0,0,0,0,0,0,-1,811,435,0,0
-406,589,0,0,0,0,0,0,0,0,0,-1,818,435,0,0
-399,589,0,0,0,0,0,0,0,0,0,-1,825,435,0,0
-392,589,0,0,0,0,0,0,0,0,0,-1,832,435,0,0
-385,589,0,0,0,0,0,0,0,0,0,-1,839,435,0,0
-378,589,0,0,0,0,0,0,0,0,0,-1,846,435,0,0
-371,589,0,0,0,0,0,0,0,0,0,-1,853,435,0,0
-364,589,0,0,0,0,0,0,0,0,0,-1,860,435,0,0
-357,589,0,0,0,0,0,0,0,0,0,-1,867,435,0,0
-350,589,-0.799927,-20.664,0,0,0,0,0,0,0,-1,874,435,-0.799952,20.664
-343,589,-0.370911,-19.1543,0,0,0,0,0,0,0,-1,881,435,-0.370922,19.1543
-336,589,0.0728149,-17.6812,0,0,0,0,0,0,0,-1,888,435,0.0727911,17.6812
-329,589,0.491028,-16.2322,0,0,0,0,0,0,0,-1,895,435,0.491054,16.2322
-322,589,1.70178,-14.049,0,0,0,0,0,0,0,-1,902,435,1.70178,14.0491
-315,589,2.31897,-17.6895,0,0,0,0,0,0,0,-1,909,435,2.31895,17.6895
-308,589,2.37195,-16.5786,0.00262467,0.00106299,0.00374477,0.00566914,-0.00198148,0.682614,0.00458494,0.0493004,916,435,2.37195,16.5787
-301,589,2.39587,-15.4437,0.00207949,0.00543109,0.00162874,0.0060922,0.00141839,1.18522,0.00368092,0.0463112,923,435,2.39585,15.4437
-294,589,2.18127,-15.3931,0.0017133,0.00851499,-9.03348e-05,0.00851619,0.0017121,-1.55752,0.00520155,0.0462719,930,435,2.1813,15.3931
-287,589,2.06183,-15.4629,0,0,0,0,0,0,0,-1,937,435,2.06185,15.4628
-280,589,2.64209,-16.9955,0.000859071,0.00971478,-0.00177606,0.0100577,0.000516153,-1.38006,0.00653987,0.0337365,944,435,2.64208,16.9955
-273,589,2.57245,-17.3561,0.000791921,0.0097954,-0.00239568,0.0103932,0.000194159,-1.32627,0.00686497,0.0188698,951,435,2.57242,17.3561
-266,589,2.51031,-17.65,0.000722136,0.00927782,-0.0026883,0.0100524,-5.24339e-05,-1.29027,0.00671914,0.0165813,958,435,2.51032,17.65
-259,589,2.43933,-17.9598,0.000610645,0.00851795,-0.00243345,0.00920683,-7.82306e-05,-1.29493,0.00616413,0.0146434,965,435,2.43936,17.9598
-252,589,2.42932,-18.3418,0.000337146,0.0084857,-0.00272661,0.00931388,-0.000491039,-1.27591,0.00637924,0.0101308,972,435,2.42932,18.3418
-245,589,2.43848,-18.6656,0.000313957,0.00683194,-0.00247218,0.00766351,-0.000517613,-1.24631,0.00528999,0.0109061,979,435,2.43849,18.6657
-238,589,2.41248,-18.9689,0.000367441,0.00525913,-0.00171738,0.00580185,-0.000175286,-1.26471,0.00392764,0.0154835,986,435,2.41248,18.9689
-231,589,2.38489,-19.2757,0.000223228,0.00452759,-0.00109578,0.0047905,-3.96732e-05,-1.33533,0.00320697,0.0161951,993,435,2.38487,19.2757
-224,589,2.35614,-19.5969,0.000230543,0.0039042,-0.00071479,0.00403838,9.63653e-05,-1.38524,0.00266071,0.0146732,1000,435,2.35614,19.5969
-217,589,2.36914,-19.9046,0.000336332,0.00306701,-0.000281603,0.00309575,0.000307594,-1.4691,0.00196932,0.0148327,1007,435,2.36916,19.9046
-210,589,2.37787,-20.1751,0.000219803,0.0020438,0.000161496,0.00205799,0.000205615,1.48317,0.00130885,0.0140955,1014,435,2.37785,20.1751
-203,589,2.36298,-20.4067,0.000253846,0.00114082,0.000379538,0.00128106,0.000113613,1.21687,0.000818799,0.0106318,1021,435,2.36295,20.4067
-196,589,2.34607,-20.6752,0.000295596,0.000193557,0.000696918,0.00094336,-0.000454207,0.74886,0.000823195,0.0124561,1028,435,2.34604,20.6752
-189,589,2.3457,-20.9572,0.000282082,-0.000838936,0.000883874,0.000768188,-0.00132504,0.502822,0.0012227,0.0163151,1035,435,2.34567,20.9572
-182,589,2.34229,-21.1828,0.00036531,-0.00180323,0.00102145,0.000770669,-0.00220859,0.377786,0.00178561,0.012072,1042,435,2.34227,21.1828
-175,589,2.36255,-21.4291,0.000348269,-0.00316728,0.00124974,0.000747255,-0.00356626,0.309028,0.00266179,0.0149149,1049,435,2.36253,21.4291
-168,589,2.38086,-21.7307,0.000196629,-0.00451184,0.00151468,0.0006418,-0.00495702,0.285855,0.00353807,0.0131774,1056,435,2.38091,21.7307
-161,589,2.39319,-21.9677,9.38816e-05,-0.0056898,0.00168144,0.000547186,-0.0061431,0.263332,0.00428945,0.0124867,1063,435,2.39319,21.9677
-154,589,2.36926,-22.1852,5.91123e-05,-0.00664792,0.00185931,0.00054006,-0.00712887,0.253121,0.00494244,0.0123909,1070,435,2.36925,22.1852
-147,589,2.36755,-22.4164,4.69992e-05,-0.00751873,0.00205475,0.000569024,-0.00804076,0.248794,0.00555989,0.0120926,1077,435,2.3675,22.4164
-140,589,2.38879,-22.6342,4.57033e-05,-0.0080363,0.0022244,0.000617473,-0.00860807,0.251597,0.00595522,0.0132368,1084,435,2.38881,22.6342
-133,589,2.39917,-22.8425,0.000115162,-0.00853972,0.00239977,0.000736019,-0.00916058,0.253164,0.00636659,0.0133814,1091,435,2.39915,22.8425
-126,589,2.43286,-23.0742,0.00033925,-0.00891686,0.00250087,0.000971733,-0.00954934,0.247711,0.00671362,0.0113159,1098,435,2.43285,23.0742
-119,589,2.43323,-23.2865,0.000685893,-0.00876445,0.00233141,0.00122976,-0.00930831,0.229178,0.00665345,0.0173723,1105,435,2.43321,23.2865
-112,589,2.44482,-23.4723,0.00100246,-0.00845723,0.00218617,0.00148326,-0.00893802,0.21648,0.00650968,0.0175884,1112,435,2.44486,23.4723
-105,589,2.47156,-23.6516,0.00147358,-0.00775378,0.00196223,0.00187352,-0.00815372,0.201065,0.0061561,0.0185219,1119,435,2.47159,23.6516
-98,589,2.53821,-23.8109,0.00213639,-0.00672299,0.00170696,0.00245389,-0.00704049,0.183905,0.0056908,0.0231496,1126,435,2.53826,23.8109
-91,589,2.60535,-24.1507,0,0,0,0,0,0,0,-1,1133,435,2.60532,24.1507
-84,589,2.76538,-22.6013,0,0,0,0,0,0,0,-1,1140,435,2.76539,22.6014
-77,589,2.18152,-14.8023,0,0,0,0,0,0,0,-1,1147,435,2.18155,14.8023
-70,589,1.48267,-9.90961,0,0,0,0,0,0,0,-1,1154,435,1.48264,9.9096
-63,589,0.880127,-5.50586,0,0,0,0,0,0,0,-1,1161,435,0.880186,5.50587
-56,589,-2.78052,-7.28082,0,0,0,0,0,0,0,-1,1168,435,-2.78053,7.28082
-49,589,-0.525757,-2.76703,0,0,0,0,0,0,0,-1,1175,435,-0.525771,2.76702
-42,589,-2.7738,-2.87921,0,0,0,0,0,0,0,-1,1182,435,-2.77383,2.87922
-35,589,-2.55225,-3.27551,0,0,0,0,0,0,0,-1,1189,435,-2.55223,3.27552
-28,589,-0.0632324,-3.42938,0,0,0,0,0,0,0,-1,1196,435,-0.063241,3.42938
-21,589,2.46667,-24.522,0,0,0,0,0,0,0,-1,1203,435,2.46667,24.522
-14,589,2.83765,-24.8564,0,0,0,0,0,0,0,-1,1210,435,2.83764,24.8564
-7,589,3.18005,-24.742,0,0,0,0,0,0,0,-1,1217,435,3.18011,24.742
0,589,3.35034,-24.6701,0,0,0,0,0,0,0,-1,1224,435,3.35039,24.6701
7,589,3.79041,-24.5726,0,0,0,0,0,0,0,-1,1231,435,3.79043,24.5726
14,589,3.97815,-24.5721,0,0,0,0,0,0,0,-1,1238,435,3.97817,24.5721
21,589,3.95789,-24.4362,0,0,0,0,0,0,0,-1,1245,435,3.95785,24.4362
28,589,3.42773,-24.3548,0,0,0,0,0,0,0,-1,1252,435,3.42777,24.3548
35,589,2.40417,-24.6543,-1.34317e-06,-0.00938065,-0.0106918,0.00698405,-0.016366,-0.578722,0.0138392,0.0462872,1259,435,2.40416,24.6543
42,589,2.47949,-24.7657,0.000123605,-0.00336509,-0.0104684,0.00899202,-0.0122335,-0.702842,0.0123021,0.0490823,1266,435,2.47946,24.7657
49,589,2.79163,-24.7318,0,0,0,0,0,0,0,-1,1273,435,2.79166,24.7318
56,589,3.89319,-25.5453,-0.00494036,0.0146981,-0.00833892,0.0177612,-0.00800348,-1.21877,0.0152267,0.0476815,1280,435,3.89315,25.5453
63,589,3.74072,-25.0315,-0.00111178,0.0300715,-0.00279523,0.0303201,-0.00136036,-1.4821,0.0206818,0.0459113,1287,435,3.74076,25.0315
70,589,3.33923,-24.5265,0,0,0,0,0,0,0,-1,1294,435,3.33922,24.5265
77,589,2.51685,-23.5613,0,0,0,0,0,0,0,-1,1301,435,2.51682,23.5613
84,589,2.82397,-27.6602,0,0,0,0,0,0,0,-1,1308,435,2.82394,27.6603
91,589,4.0769,-26.0145,0.0125144,0.0711919,0.000360592,0.0711942,0.0125122,1.56465,0.0438906,0.0423675,1315,435,4.07693,26.0145
98,589,4.53516,-25.5018,0.0154747,0.0737082,0.000884954,0.0737216,0.0154612,1.5556,0.0448905,0.0423421,1322,435,4.53516,25.5018
105,589,4.88965,-24.9851,0.0197156,0.074222,-6.7314e-07,0.074222,0.0197156,-1.57078,0.0443936,0.0457382,1329,435,4.8897,24.9851
112,589,4.80811,-25.1397,0.0244248,0.0726276,-0.0021512,0.0727234,0.024329,-1.52629,0.0427463,0.0450649,1336,435,4.80816,25.1397
119,589,4.78503,-25.0312,0,0,0,0,0,0,0,-1,1343,435,4.78509,25.0312
126,589,4.74365,-25.2014,0,0,0,0,0,0,0,-1,1350,435,4.74367,25.2013
133,589,4.57813,-24.161,0,0,0,0,0,0,0,-1,1357,435,4.57817,24.161
140,589,4.8374,-24.1052,0.0291021,0.0207417,-0.016111,0.0415664,0.00827743,-0.658467,0.0254053,0.0475877,1364,435,4.83734,24.1052
147,589,5.00378,-24.1257,0.0256045,0.00523954,-0.0192007,0.0371556,-0.00631155,-0.541594,0.0271202,0.0458093,1371,435,5.00378,24.1257
154,589,5.18884,-24.1763,0.0221052,-0.0066318,-0.020432,0.0327152,-0.0172417,-0.478951,0.0293002,0.0433921,1378,435,5.18882,24.1763
161,589,5.49414,-23.9787,0.0177165,-0.0146005,-0.0202014,0.0274268,-0.0243108,-0.448067,0.0298887,0.042904,1385,435,5.49415,23.9787
168,589,5.76355,-23.5995,0,0,0,0,0,0,0,-1,1392,435,5.76352,23.5995
175,589,8.66992,-7.65527,0,0,0,0,0,0,0,-1,1399,435,8.66994,7.65528
182,589,3.8136,-2.45389,0,0,0,0,0,0,0,-1,1406,435,3.81363,2.4539
189,589,3.69983,-3.68149,0,0,0,0,0,0,0,-1,1413,435,3.69987,3.68147
196,589,3.31055,-5.31677,0,0,0,0,0,0,0,-1,1420,435,3.31059,5.31678
203,589,2.72559,-8.84338,0,0,0,0,0,0,0,-1,1427,435,2.72558,8.84338
210,589,3.62378,-14.4032,0,0,0,0,0,0,0,-1,1434,435,3.62378,14.4032
217,589,4.65601,-22.3745,0,0,0,0,0,0,0,-1,1441,435,4.65607,22.3745
224,589,4.88171,-23.5663,0,0,0,0,0,0,0,-1,1448,435,4.88172,23.5663
231,589,4.92102,-23.2167,0.00284859,0.00162143,0.00067031,0.00314375,0.00132628,0.414777,0.00182241,0.034292,1455,435,4.92104,23.2167
238,589,4.91418,-22.9444,0.00261229,0.00203739,0.000832083,0.00320518,0.00144451,0.619087,0.00185351,0.0267814,1462,435,4.91421,22.9444
245,589,4.92432,-22.6274,0.0024455,0.00223262,0.000714092,0.00306104,0.00161708,0.711414,0.00176824,0.0222428,1469,435,4.92435,22.6274
252,589,4.97339,-22.4261,0.0022126,0.00207547,0.000545274,0.0026936,0.00159446,0.722856,0.00156389,0.0134697,1476,435,4.97343,22.4261
259,589,4.96753,-22.2213,0.00188648,0.00177525,0.000396447,0.00223119,0.00143053,0.715709,0.00130518,0.00891516,1483,435,4.9675,22.2213
266,589,4.96472,-21.962,0.00170177,0.00153423,0.000208522,0.00184272,0.00139328,0.594389,0.00110944,0.00962689,1490,435,4.9647,21.962
273,589,4.98035,-21.7216,0.00165297,0.00140984,4.57281e-05,0.00166129,0.00140153,0.179895,0.0010319,0.0128777,1497,435,4.98029,21.7216
280,589,4.99866,-21.4656,0.00152784,0.000960856,-6.24165e-05,0.00153463,0.000954066,-0.108357,0.000894722,0.0132895,1504,435,4.99872,21.4656
287,589,5.02026,-21.2174,0.00150331,0.000728485,3.90553e-05,0.00150527,0.000726522,0.0502358,0.000869242,0.0106492,1511,435,5.02028,21.2174
294,589,5.00024,-20.9314,0.00149613,0.00082946,0.000222378,0.0015635,0.00076209,0.294163,0.000902781,0.00914577,1518,435,5.00019,20.9314
301,589,4.9928,-20.6403,0.00141784,0.000888294,0.000549028,0.0017626,0.000543527,0.560723,0.00104226,0.0101769,1525,435,4.99286,20.6403
308,589,5.0033,-20.3577,0.00135629,0.000871711,0.000940764,0.00208546,0.000142536,0.659365,0.00134532,0.0106823,1532,435,5.00324,20.3577
315,589,5.0105,-20.0691,0.001242,0.00103815,0.00134768,0.0024916,-0.000211459,0.747655,0.00173585,0.0107101,1539,435,5.01047,20.0691
322,589,5.02466,-19.7818,0.00103864,0.00131568,0.00178489,0.00296741,-0.000613095,0.824124,0.00221115,0.0114718,1546,435,5.02467,19.7818
329,589,5.02795,-19.4915,0.000822252,0.00164168,0.00221889,0.00348836,-0.00102443,0.876694,0.00273185,0.00967874,1553,435,5.02795,19.4916
336,589,5.01257,-19.2072,0.000591904,0.00199353,0.00258423,0.00397028,-0.00138485,0.917808,0.00320965,0.00913183,1560,435,5.01254,19.2072
343,589,5,-18.8926,0.000344977,0.00227539,0.0028568,0.00432563,-0.00170526,0.948309,0.00358982,0.0102489,1567,435,4.99997,18.8926
350,589,4.98291,-18.5468,0.000181626,0.00286077,0.0032038,0.00499378,-0.00195138,0.983413,0.00413605,0.0151222,1574,435,4.98295,18.5469
357,589,4.98328,-18.2068,-6.76402e-05,0.00332037,0.00349239,0.00550792,-0.00225518,1.01121,0.00461131,0.0124344,1581,435,4.98333,18.2068
364,589,4.98853,-17.8863,-0.000525558,0.00375855,0.00355159,0.00576404,-0.00253105,1.05676,0.00490893,0.00984276,1588,435,4.98854,17.8863
371,589,4.97656,-17.5776,-0.00082914,0.00428168,0.00356098,0.00610928,-0.00265673,1.09662,0.00519026,0.0104698,1595,435,4.97654,17.5776
378,589,4.94995,-17.2341,-0.00115093,0.00491431,0.00339878,0.00643674,-0.00267336,1.14966,0.00540725,0.0117116,1602,435,4.94991,17.2341
385,589,4.95264,-16.8697,-0.00183155,0.00509085,0.00296953,0.00619013,-0.00293083,1.21625,0.0053769,0.0136372,1609,435,4.95269,16.8697
392,589,4.92639,-16.4302,-0.0026588,0.00556877,0.00277954,0.00641977,-0.00350979,1.27369,0.00581432,0.0177742,1616,435,4.92638,16.4302
399,589,4.91138,-15.9438,-0.00332695,0.00649872,0.00277184,0.00722672,-0.00405495,1.31395,0.00659873,0.0299597,1623,435,4.91137,15.9438
406,589,4.93689,-15.6366,0,0,0,0,0,0,0,-1,1630,435,4.93692,15.6366
413,589,4.34619,-15.4438,0,0,0,0,0,0,0,-1,1637,435,4.34621,15.4438
420,589,2.79724,-5.79956,0,0,0,0,0,0,0,-1,1644,435,2.7973,5.79955
427,589,2.87976,-5.28177,0,0,0,0,0,0,0,-1,1651,435,2.87972,5.28177
434,589,2.52734,-2.73029,0,0,0,0,0,0,0,-1,1658,435,2.52736,2.73029
441,589,3.17639,-2.02435,0,0,0,0,0,0,0,-1,1665,435,3.17643,2.02435
448,589,0.453735,-3.2868,0,0,0,0,0,0,0,-1,1672,435,0.453701,3.28681
455,589,0.664307,-3.46848,0,0,0,0,0,0,0,-1,1679,435,0.66425,3.46846
462,589,3.46716,-4.41891,0,0,0,0,0,0,0,-1,1686,435,3.4672,4.41891
469,589,0.0238037,-3.81497,0,0,0,0,0,0,0,-1,1693,435,0.0237965,3.81498
476,589,0,0,0,0,0,0,0,0,0,-1,1700,435,0,0
483,589,0,0,0,0,0,0,0,0,0,-1,1707,435,0,0
490,589,0,0,0,0,0,0,0,0,0,-1,1714,435,0,0
497,589,0,0,0,0,0,0,0,0,0,-1,1721,435,0,0
504,589,0,0,0,0,0,0,0,0,0,-1,1728,435,0,0
511,589,0,0,0,0,0,0,0,0,0,-1,1735,435,0,0
518,589,0,0,0,0,0,0,0,0,0,-1,1742,435,0,0
525,589,0,0,0,0,0,0,0,0,0,-1,1749,435,0,0
532,589,0,0,0,0,0,0,0,0,0,-1,1756,435,0,0
539,589,0,0,0,0,0,0,0,0,0,-1,1763,435,0,0
546,589,0,0,0,0,0,0,0,0,0,-1,1770,435,0,0
553,589,0,0,0,0,0,0,0,0,0,-1,1777,435,0,0
560,589,0,0,0,0,0,0,0,0,0,-1,1784,435,0,0
567,589,0,0,0,0,0,0,0,0,0,-1,1791,435,0,0
574,589,0,0,0,0,0,0,0,0,0,-1,1798,435,0,0
581,589,0,0,0,0,0,0,0,0,0,-1,1805,435,0,0
588,589,0,0,0,0,0,0,0,0,0,-1,1812,435,0,0
595,589,0,0,0,0,0,0,0,0,0,-1,1819,435,0,0
602,589,0,0,0,0,0,0,0,0,0,-1,1826,435,0,0
609,589,0,0,0,0,0,0,0,0,0,-1,1833,435,0,0
616,589,0,0,0,0,0,0,0,0,0,-1,1840,435,0,0
623,589,0,0,0,0,0,0,0,0,0,-1,1847,435,0,0
630,589,0,0,0,0,0,0,0,0,0,-1,1854,435,0,0
637,589,0,0,0,0,0,0,0,0,0,-1,1861,435,0,0
644,589,0,0,0,0,0,0,0,0,0,-1,1868,435,0,0
651,589,0,0,0,0,0,0,0,0,0,-1,1875,435,0,0
658,589,0,0,0,0,0,0,0,0,0,-1,1882,435,0,0
665,589,0,0,0,0,0,0,0,0,0,-1,1889,435,0,0
672,589,0,0,0,0,0,0,0,0,0,-1,1896,435,0,0
679,589,0,0,0,0,0,0,0,0,0,-1,1903,435,0,0
686,589,0,0,0,0,0,0,0,0,0,-1,1910,435,0,0
693,589,0,0,0,0,0,0,0,0,0,-1,1917,435,0,0
700,589,0,0,0,0,0,0,0,0,0,-1,1924,435,0,0
707,589,0,0,0,0,0,0,0,0,0,-1,1931,435,0,0
714,589,0,0,0,0,0,0,0,0,0,-1,1938,435,0,0
721,589,0,0,0,0,0,0,0,0,0,-1,1945,435,0,0
728,589,0,0,0,0,0,0,0,0,0,-1,1952,435,0,0
735,589,0,0,0,0,0,0,0,0,0,-1,1959,435,0,0
742,589,0,0,0,0,0,0,0,0,0,-1,1966,435,0,0
749,589,0,0,0,0,0,0,0,0,0,-1,1973,435,0,0
756,589,0,0,0,0,0,0,0,0,0,-1,1980,435,0,0
763,589,0,0,0,0,0,0,0,0,0,-1,1987,435,0,0
770,589,0,0,0,0,0,0,0,0,0,-1,1994,435,0,0
777,589,0,0,0,0,0,0,0,0,0,-1,2001,435,0,0
784,589,0,0,0,0,0,0,0,0,0,-1,2008,435,0,0
791,589,0,0,0,0,0,0,0,0,0,-1,2015,435,0,0
798,589,0,0,0,0,0,0,0,0,0,-1,2022,435,0,0
805,589,0,0,0,0,0,0,0,0,0,-1,2029,435,0,0
812,589,0,0,0,0,0,0,0,0,0,-1,2036,435,0,0
-700,582,0,0,0,0,0,0,0,0,0,-1,524,442,0,0
-693,582,0,0,0,0,0,0,0,0,0,-1,531,442,0,0
-686,582,0,0,0,0,0,0,0,0,0,-1,538,442,0,0
-679,582,0,0,0,0,0,0,0,0,0,-1,545,442,0,0
-672,582,0,0,0,0,0,0,0,0,0,-1,552,442,0,0
-665,582,0,0,0,0,0,0,0,0,0,-1,559,442,0,0
-658,582,0,0,0,0,0,0,0,0,0,-1,566,442,0,0
-651,582,0,0,0,0,0,0,0,0,0,-1,573,442,0,0
-644,582,0,0,0,0,0,0,0,0,0,-1,580,442,0,0
-637,582,0,0,0,0,0,0,0,0,0,-1,587,442,0,0
-630,582,0,0,0,0,0,0,0,0,0,-1,594,442,0,0
-623,582,0,0,0,0,0,0,0,0,0,-1,601,442,0,0
-616,582,0,0,0,0,0,0,0,0,0,-1,608,442,0,0
-609,582,0,0,0,0,0,0,0,0,0,-1,615,442,0,0
-602,582,0,0,0,0,0,0,0,0,0,-1,622,442,0,0
-595,582,0,0,0,0,0,0,0,0,0,-1,629,442,0,0
-588,582,0,0,0,0,0,0,0,0,0,-1,636,442,0,0
-581,582,0,0,0,0,0,0,0,0,0,-1,643,442,0,0
-574,582,0,0,0,0,0,0,0,0,0,-1,650,442,0,0
-567,582,0,0,0,0,0,0,0,0,0,-1,657,442,0,0
-560,582,0,0,0,0,0,0,0,0,0,-1,664,442,0,0
-553,582,0,0,0,0,0,0,0,0,0,-1,671,442,0,0
-546,582,0,0,0,0,0,0,0,0,0,-1,678,442,0,0
-539,582,0,0,0,0,0,0,0,0,0,-1,685,442,0,0
-532,582,0,0,0,0,0,0,0,0,0,-1,692,442,0,0
-525,582,0,0,0,0,0,0,0,0,0,-1,699,442,0,0
-518,582,0,0,0,0,0,0,0,0,0,-1,706,442,0,0
-511,582,0,0,0,0,0,0,0,0,0,-1,713,442,0,0
-504,582,0,0,0,0,0,0,0,0,0,-1,720,442,0,0
-497,582,0,0,0,0,0,0,0,0,0,-1,727,442,0,0
-490,582,0,0,0,0,0,0,0,0,0,-1,734,442,0,0
-483,582,0,0,0,0,0,0,0,0,0,-1,741,442,0,0
-476,582,0,0,0,0,0,0,0,0,0,-1,748,442,0,0
-469,582,0,0,0,0,0,0,0,0,0,-1,755,442,0,0
-462,582,0,0,0,0,0,0,0,0,0,-1,762,442,0,0
-455,582,0,0,0,0,0,0,0,0,0,-1,769,442,0,0
-448,582,0,0,0,0,0,0,0,0,0,-1,776,442,0,0
-441,582,0,0,0,0,0,0,0,0,0,-1,783,442,0,0
-434,582,0,0,0,0,0,0,0,0,0,-1,790,442,0,0
-427,582,0,0,0,0,0,0,0,0,0,-1,797,442,0,0
-420,582,0,0,0,0,0,0,0,0,0,-1,804,442,0,0
-413,582,0,0,0,0,0,0,0,0,0,-1,811,442,0,0
-406,582,0,0,0,0,0,0,0,0,0,-1,818,442,0,0
-399,582,0,0,0,0,0,0,0,0,0,-1,825,442,0,0
-392,582,0,0,0,0,0,0,0,0,0,-1,832,442,0,0
-385,582,0,0,0,0,0,0,0,0,0,-1,839,442,0,0
-378,582,0,0,0,0,0,0,0,0,0,-1,846,442,0,0
-371,582,0,0,0,0,0,0,0,0,0,-1,853,442,0,0
-364,582,0,0,0,0,0,0,0,0,0,-1,860,442,0,0
-357,582,-1.4903,-21.5295,0,0,0,0,0,0,0,-1,867,442,-1.49031,21.5295
-350,582,-0.880859,-19.7966,0,0,0,0,0,0,0,-1,874,442,-0.880885,19.7966
-343,582,-0.208557,-18.0078,0,0,0,0,0,0,0,-1,881,442,-0.208576,18.0078
-336,582,0.219543,-16.4952,0,0,0,0,0,0,0,-1,888,442,0.219519,16.4952
-329,582,1.3493,-13.7002,0,0,0,0,0,0,0,-1,895,442,1.34933,13.7002
-322,582,1.76318,-14.6796,0,0,0,0,0,0,0,-1,902,442,1.76318,14.6796
-315,582,2.10046,-15.2526,0,0,0,0,0,0,0,-1,909,442,2.10048,15.2526
-308,582,2.11157,-15.5092,0.00113796,0.00249597,0.000440889,0.00262655,0.00100738,1.28285,0.00153009,0.0497195,916,442,2.11157,15.5092
-301,582,2.21924,-15.7271,0.000792292,0.00521541,-0.000535645,0.00527936,0.000728349,-1.45198,0.00330366,0.0451747,923,442,2.21922,15.727
-294,582,2.12421,-16.0508,0.000569167,0.00718948,-0.00134758,0.00745327,0.000305377,-1.37749,0.00487025,0.0436492,930,442,2.12418,16.0508
-287,582,2.13538,-16.5544,0.000277833,0.00748742,-0.00168986,0.00786385,-9.85991e-05,-1.35162,0.00527574,0.0347701,937,442,2.13539,16.5545
-280,582,2.24463,-16.9376,0.000119976,0.00782096,-0.00202027,0.00831878,-0.000377838,-1.3292,0.00567599,0.0169313,944,442,2.24464,16.9376
-273,582,2.22314,-17.2892,0.000193996,0.00780749,-0.00230295,0.00844989,-0.000448402,-1.29877,0.00578852,0.0105677,951,442,2.22316,17.2892
-266,582,2.19507,-17.6485,0.000254513,0.00722197,-0.00239364,0.00796505,-0.000488563,-1.26979,0.00548015,0.0104573,958,442,2.19508,17.6485
-259,582,2.15631,-18.0005,0.000273167,0.00644963,-0.0020166,0.00704974,-0.000326944,-1.28156,0.00481251,0.00859014,965,442,2.15634,18.0005
-252,582,2.12714,-18.3432,0.000117846,0.00618622,-0.00206438,0.0068219,-0.000517837,-1.27208,0.00473001,0.00823686,972,442,2.12715,18.3432
-245,582,2.13708,-18.6643,0.000154885,0.00448092,-0.00171165,0.00507624,-0.000440428,-1.23608,0.00354011,0.0123099,979,442,2.1371,18.6643
-238,582,2.12933,-18.9532,0.000283831,0.00278069,-0.00103989,0.00315705,-9.25283e-05,-1.22354,0.00213621,0.0175844,986,442,2.12935,18.9532
-231,582,2.11603,-19.2443,0.000209181,0.00186337,-0.000448968,0.00197737,9.5182e-05,-1.32214,0.00128769,0.014069,993,442,2.11604,19.2443
-224,582,2.10583,-19.5545,0.00024369,0.00102296,1.83637e-05,0.0010234,0.000243257,1.54725,0.000617366,0.0107232,1000,442,2.10581,19.5545
-217,582,2.09387,-19.8666,0.000398794,5.3242e-05,0.000503654,0.000758483,-0.000306447,0.620165,0.000633032,0.0122926,1007,442,2.09385,19.8666
-210,582,2.10449,-20.1327,0.000392185,-0.00104485,0.000962255,0.000874584,-0.00152725,0.464704,0.00140366,0.0126253,1014,442,2.10449,20.1327
-203,582,2.10138,-20.4046,0.000463543,-0.00206074,0.00123321,0.000965999,-0.00256319,0.386902,0.00210599,0.0106146,1021,442,2.10137,20.4046
-196,582,2.08691,-20.7075,0.000480963,-0.00313996,0.00168396,0.00114305,-0.00380205,0.374607,0.00298947,0.0160501,1028,442,2.08697,20.7075
-189,582,2.07446,-20.9857,0.000442991,-0.00418533,0.00199112,0.00118168,-0.00492402,0.355252,0.00373934,0.0230319,1035,442,2.07445,20.9857
-182,582,2.09338,-21.2288,0.000498356,-0.00524359,0.00226363,0.00128341,-0.00602864,0.333831,0.00450821,0.0152532,1042,442,2.09339,21.2288
-175,582,2.09631,-21.4459,0.00044531,-0.00659165,0.00258313,0.00129172,-0.00743806,0.316643,0.00544064,0.0131871,1049,442,2.09627,21.4459
-168,582,2.11938,-21.717,0.00029401,-0.00792606,0.00290656,0.00121791,-0.00884996,0.307766,0.00634502,0.0112625,1056,442,2.11941,21.717
-161,582,2.12598,-21.9554,0.000141371,-0.00913445,0.00305646,0.00105793,-0.010051,0.291344,0.00707972,0.0125543,1063,442,2.12597,21.9553
-154,582,2.12891,-22.1789,-3.46608e-05,-0.0102016,0.0032187,0.000898653,-0.0111349,0.282226,0.00774026,0.0124566,1070,442,2.12893,22.1789
-147,582,2.13879,-22.4133,-0.000181086,-0.0112557,0.00343228,0.000796386,-0.0122331,0.277443,0.00843344,0.0114139,1077,442,2.13885,22.4133
-140,582,2.14038,-22.6142,-0.000339906,-0.0117865,0.00362409,0.000711022,-0.0128374,0.282243,0.00880487,0.0122401,1084,442,2.14041,22.6142
-133,582,2.18774,-22.8253,-0.000399613,-0.0123974,0.00374115,0.000671355,-0.0134684,0.27881,0.00921086,0.0145395,1091,442,2.18773,22.8252
-126,582,2.22302,-22.995,-0.000209097,-0.0128519,0.00369939,0.000793817,-0.0138548,0.264739,0.0095122,0.0130903,1098,442,2.22307,22.995
-119,582,2.19739,-23.1485,0.000127776,-0.0127541,0.00339071,0.000965754,-0.0135921,0.242284,0.00939985,0.0172668,1105,442,2.19738,23.1485
-112,582,2.18298,-23.3733,0.000452358,-0.0123873,0.00310975,0.00116588,-0.0131008,0.225544,0.00914728,0.0249893,1112,442,2.183,23.3733
-105,582,2.24121,-23.6218,0.00098124,-0.0113835,0.00279025,0.00158173,-0.011984,0.211978,0.00856538,0.0350966,1119,442,2.24116,23.6218
-98,582,2.1925,-23.7655,0.00181016,-0.0098798,0.0024453,0.00230105,-0.0103707,0.198116,0.00779486,0.0497866,1126,442,2.19245,23.7655
-91,582,2.16492,-24.1119,0,0,0,0,0,0,0,-1,1133,442,2.16496,24.1119
-84,582,2.10278,-16.7533,0,0,0,0,0,0,0,-1,1140,442,2.10279,16.7533
-77,582,2.30212,-11.4907,0,0,0,0,0,0,0,-1,1147,442,2.30207,11.4907
-70,582,1.49255,-6.36548,0,0,0,0,0,0,0,-1,1154,442,1.49251,6.36549
-63,582,-4.62915,-4.0347,0,0,0,0,0,0,0,-1,1161,442,-4.6292,4.03471
-56,582,-5.81714,-5.24149,0,0,0,0,0,0,0,-1,1168,442,-5.81718,5.24149
-49,582,-3.88672,-10.1064,0,0,0,0,0,0,0,-1,1175,442,-3.88678,10.1064
-42,582,-0.948975,1.13968,0,0,0,0,0,0,0,-1,1182,442,-0.949003,-1.13969
-35,582,-2.58435,-3.86911,0,0,0,0,0,0,0,-1,1189,442,-2.58437,3.86912
-28,582,-0.825317,-3.45941,0,0,0,0,0,0,0,-1,1196,442,-0.825377,3.45942
-21,582,1.85974,-25.187,0,0,0,0,0,0,0,-1,1203,442,1.8597,25.187
-14,582,2.10229,-25.1365,0,0,0,0,0,0,0,-1,1210,442,2.10231,25.1365
-7,582,2.06128,-24.7641,0,0,0,0,0,0,0,-1,1217,442,2.06126,24.7641
0,582,2.3623,-24.7736,0,0,0,0,0,0,0,-1,1224,442,2.36227,24.7736
7,582,3.81885,-24.3217,0,0,0,0,0,0,0,-1,1231,442,3.8188,24.3217
14,582,4.54102,-24.1864,0,0,0,0,0,0,0,-1,1238,442,4.54107,24.1864
21,582,1.92773,-23.435,0,0,0,0,0,0,0,-1,1245,442,1.92772,23.435
28,582,2.13489,-23.8932,-0.00250848,-0.0139004,-0.0107661,0.0039756,-0.0203844,-0.542085,0.0150904,0.0445444,1252,442,2.13492,23.8932
35,582,2.31763,-24.427,-0.00214217,-0.00955925,-0.0126416,0.00732365,-0.0190251,-0.642721,0.0157045,0.0453398,1259,442,2.31765,24.427
42,582,2.44092,-24.9496,-0.00200373,-0.00320694,-0.0128949,0.0103036,-0.0155143,-0.762088,0.0150069,0.0462329,1266,442,2.4409,24.9495
49,582,4.19202,-24.9589,-0.00396111,0.00281631,-0.0130416,0.0129023,-0.0140471,-0.912506,0.0155639,0.0461521,1273,442,4.19197,24.9588
56,582,4.1554,-25.4228,-0.00829464,0.0154758,-0.0115365,0.0201541,-0.0129729,-1.18554,0.0192751,0.0459843,1280,442,4.15541,25.4228
63,582,3.77319,-25.4461,-0.00309512,0.0309145,-0.00581232,0.0318804,-0.00406102,-1.40612,0.0227285,0.0449438,1287,442,3.7732,25.4461
70,582,3.30664,-24.8748,0.00187432,0.0449505,-0.00731555,0.046159,0.000665842,-1.40708,0.0305531,0.045423,1294,442,3.30666,24.8748
77,582,2.85486,-24.2795,0,0,0,0,0,0,0,-1,1301,442,2.85486,24.2795
84,582,2.99109,-27.5822,0.0102213,0.0638096,-0.00447085,0.06418,0.00985087,-1.48813,0.0399104,0.0482013,1308,442,2.99108,27.5821
91,582,2.09497,-28.1111,0.0144877,0.0722371,-0.00362051,0.0724632,0.0142616,-1.50843,0.0443264,0.0476259,1315,442,2.09498,28.1111
98,582,4.745,-25.7072,0.0185533,0.0747635,-0.00271558,0.0748944,0.0184224,-1.52263,0.0450621,0.0445947,1322,442,4.74499,25.7072
105,582,-1.54407,-29.5644,0.0239647,0.0755992,-0.00347329,0.0758318,0.0237321,-1.50393,0.044791,0.0468174,1329,442,-1.54402,29.5644
112,582,-3.16333,-29.6502,0.0298233,0.0741051,-0.00547837,0.0747728,0.0291556,-1.44952,0.0435174,0.044701,1336,442,-3.16338,29.6502
119,582,5.03271,-25.0688,0,0,0,0,0,0,0,-1,1343,442,5.03266,25.0687
126,582,5.4032,-25.6565,0,0,0,0,0,0,0,-1,1350,442,5.40322,25.6565
133,582,5.12781,-23.9277,0.0371799,0.0337974,-0.0159577,0.0515358,0.0194416,-0.732603,0.0300516,0.0492792,1357,442,5.12786,23.9277
140,582,5.44189,-23.8493,0.03482,0.0152248,-0.019562,0.0469008,0.00314403,-0.553235,0.0302737,0.0457054,1364,442,5.44195,23.8493
147,582,5.6394,-23.7881,0.0297384,-0.00283732,-0.0223433,0.0411005,-0.0141994,-0.470442,0.0331627,0.048226,1371,442,5.63946,23.7881
154,582,5.75183,-23.8232,0.0239257,-0.0168492,-0.0230465,0.0343081,-0.0272317,-0.423271,0.0356083,0.0479363,1378,442,5.75181,23.8232
161,582,6.13147,-23.5133,0,0,0,0,0,0,0,-1,1385,442,6.13144,23.5133
168,582,4.49744,-21.4881,0,0,0,0,0,0,0,-1,1392,442,4.49742,21.4881
175,582,6.50549,-2.00424,0,0,0,0,0,0,0,-1,1399,442,6.50546,2.00425
182,582,5.18958,-2.18652,0,0,0,0,0,0,0,-1,1406,442,5.1896,2.18652
189,582,6.19751,-0.880951,0,0,0,0,0,0,0,-1,1413,442,6.19754,0.88096
196,582,4.87354,-2.22327,0,0,0,0,0,0,0,-1,1420,442,4.87348,2.22325
203,582,3.11401,-4.48257,0,0,0,0,0,0,0,-1,1427,442,3.11404,4.48259
210,582,2.93115,-11.0731,0,0,0,0,0,0,0,-1,1434,442,2.93113,11.0731
217,582,4.94092,-16.5476,0,0,0,0,0,0,0,-1,1441,442,4.94087,16.5476
224,582,5.21008,-20.9908,0,0,0,0,0,0,0,-1,1448,442,5.21006,20.9908
231,582,5.23254,-23.3912,0,0,0,0,0,0,0,-1,1455,442,5.2325,23.3912
238,582,4.95862,-22.5828,0,0,0,0,0,0,0,-1,1462,442,4.95859,22.5828
245,582,4.49487,-22.3638,0,0,0,0,0,0,0,-1,1469,442,4.49486,22.3638
252,582,5.24866,-22.5497,0.00300847,0.00284794,0.000769469,0.00370185,0.00215456,0.733431,0.00214683,0.0337317,1476,442,5.24867,22.5497
259,582,5.18335,-22.2929,0.00261006,0.00206262,0.000420876,0.0028384,0.00183428,0.497082,0.00166195,0.0266478,1483,442,5.18331,22.2929
266,582,5.18665,-22.0564,0.00237901,0.0014837,8.1788e-06,0.00237908,0.00148362,0.00913416,0.00138748,0.019243,1490,442,5.18661,22.0564
273,582,5.25745,-21.7577,0.00227996,0.00107146,-0.000266134,0.00233597,0.00101545,-0.207436,0.0013525,0.0163082,1497,442,5.2574,21.7576
280,582,5.25891,-21.5083,0.00205135,0.000248884,-0.000527806,0.00219453,0.000105704,-0.2649,0.00142909,0.0130437,1504,442,5.25897,21.5083
287,582,5.29565,-21.2183,0.00193551,-0.000242424,-0.000615693,0.00209751,-0.000404427,-0.257292,0.00155083,0.0105481,1511,442,5.29564,21.2183
294,582,5.2876,-20.9317,0.0018619,-0.000239577,-0.000612614,0.00202745,-0.000405123,-0.263925,0.00150496,0.00865355,1518,442,5.28763,20.9317
301,582,5.28845,-20.6438,0.00171992,-0.000268472,-0.000460201,0.00182127,-0.000369817,-0.21676,0.00135439,0.00969032,1525,442,5.28848,20.6438
308,582,5.30029,-20.3538,0.00159946,-0.000425911,-0.000261914,0.00163278,-0.000459232,-0.126544,0.00126959,0.0124747,1532,442,5.30031,20.3538
315,582,5.29797,-20.0637,0.00144657,-0.000319491,-3.19001e-05,0.00144715,-0.000320067,-0.018055,0.00108727,0.0129486,1539,442,5.29799,20.0637
322,582,5.31982,-19.7733,0.00121789,-7.34568e-05,0.000255136,0.00126647,-0.000122037,0.188158,0.000887794,0.0103159,1546,442,5.31979,19.7733
329,582,5.32739,-19.4943,0.00100703,0.000275243,0.000591636,0.00133677,-5.45004e-05,0.508462,0.000909894,0.0094504,1553,442,5.32737,19.4943
336,582,5.32336,-19.1907,0.000788793,0.000654798,0.000901386,0.00162567,-0.000182077,0.748303,0.00114929,0.0102419,1560,442,5.32332,19.1907
343,582,5.31665,-18.8554,0.000548915,0.00100925,0.00116982,0.00197134,-0.000413168,0.882535,0.00147141,0.0126999,1567,442,5.31668,18.8554
350,582,5.30994,-18.5431,0.00037291,0.00158801,0.00152977,0.00262646,-0.000665537,0.974423,0.00200989,0.0148996,1574,442,5.30993,18.5431
357,582,5.30017,-18.2098,0.000126852,0.00209838,0.00186591,0.00322291,-0.000997677,1.02841,0.00254715,0.0124045,1581,442,5.30018,18.2098
364,582,5.30188,-17.8995,-0.000273333,0.00258459,0.00204195,0.00364791,-0.00133666,1.09069,0.00297918,0.0101871,1588,442,5.30189,17.8995
371,582,5.2865,-17.5892,-0.000574198,0.0030948,0.0022033,0.00412734,-0.00160674,1.13255,0.00341553,0.0144876,1595,442,5.28652,17.5892
378,582,5.24902,-17.2595,-0.000935109,0.00364219,0.00231979,0.00461227,-0.00190519,1.17472,0.00386954,0.0152893,1602,442,5.24896,17.2595
385,582,5.24756,-16.902,-0.00154004,0.00400786,0.00222358,0.00478906,-0.00232124,1.23294,0.00418674,0.0109822,1609,442,5.24756,16.902
392,582,5.21631,-16.5257,-0.0021757,0.00443918,0.00215392,0.0050787,-0.00281523,1.28218,0.00461959,0.00983609,1616,442,5.21636,16.5257
399,582,5.19409,-16.1954,-0.002708,0.00521102,0.00219567,0.00577906,-0.00327604,1.31764,0.00529412,0.016246,1623,442,5.19405,16.1954
406,582,5.18982,-15.7345,-0.00367748,0.00556983,0.0021085,0.0060279,-0.00413556,1.35687,0.00590168,0.0283962,1630,442,5.18978,15.7345
413,582,4.97778,-15.3599,-0.00521858,0.0057195,0.00158729,0.00594518,-0.00544427,1.42956,0.00657782,0.0446849,1637,442,4.97775,15.3599
420,582,5.11011,-15.0759,0,0,0,0,0,0,0,-1,1644,442,5.11005,15.0759
427,582,5.04163,-14.6392,0,0,0,0,0,0,0,-1,1651,442,5.04166,14.6391
434,582,4.65979,-14.2871,0,0,0,0,0,0,0,-1,1658,442,4.65982,14.2871
441,582,4.53979,-12.7726,0,0,0,0,0,0,0,-1,1665,442,4.53983,12.7726
448,582,5.54187,-12.9948,0,0,0,0,0,0,0,-1,1672,442,5.54188,12.9948
455,582,5.61389,-12.2941,0,0,0,0,0,0,0,-1,1679,442,5.61391,12.2941
462,582,1.38074,-3.94418,0,0,0,0,0,0,0,-1,1686,442,1.38074,3.94419
469,582,4.77759,-10.3864,0,0,0,0,0,0,0,-1,1693,442,4.77756,10.3864
476,582,1.93579,-8.53891,0,0,0,0,0,0,0,-1,1700,442,1.93579,8.53892
483,582,0,0,0,0,0,0,0,0,0,-1,1707,442,0,0
490,582,0,0,0,0,0,0,0,0,0,-1,1714,442,0,0
497,582,0,0,0,0,0,0,0,0,0,-1,1721,442,0,0
504,582,0,0,0,0,0,0,0,0,0,-1,1728,442,0,0
511,582,0,0,0,0,0,0,0,0,0,-1,1735,442,0,0
518,582,0,0,0,0,0,0,0,0,0,-1,1742,442,0,0
525,582,0,0,0,0,0,0,0,0,0,-1,1749,442,0,0
532,582,0,0,0,0,0,0,0,0,0,-1,1756,442,0,0
539,582,0,0,0,0,0,0,0,0,0,-1,1763,442,0,0
546,582,0,0,0,0,0,0,0,0,0,-1,1770,442,0,0
553,582,0,0,0,0,0,0,0,0,0,-1,1777,442,0,0
560,582,0,0,0,0,0,0,0,0,0,-1,1784,442,0,0
567,582,0,0,0,0,0,0,0,0,0,-1,1791,442,0,0
574,582,0,0,0,0,0,0,0,0,0,-1,1798,442,0,0
581,582,0,0,0,0,0,0,0,0,0,-1,1805,442,0,0
588,582,0,0,0,0,0,0,0,0,0,-1,1812,442,0,0
595,582,0,0,0,0,0,0,0,0,0,-1,1819,442,0,0
602,582,0,0,0,0,0,0,0,0,0,-1,1826,442,0,0
609,582,0,0,0,0,0,0,0,0,0,-1,1833,442,0,0
616,582,0,0,0,0,0,0,0,0,0,-1,1840,442,0,0
623,582,0,0,0,0,0,0,0,0,0,-1,1847,442,0,0
630,582,0,0,0,0,0,0,0,0,0,-1,1854,442,0,0
637,582,0,0,0,0,0,0,0,0,0,-1,1861,442,0,0
644,582,0,0,0,0,0,0,0,0,0,-1,1868,442,0,0
651,582,0,0,0,0,0,0,0,0,0,-1,1875,442,0,0
658,582,0,0,0,0,0,0,0,0,0,-1,1882,442,0,0
665,582,0,0,0,0,0,0,0,0,0,-1,1889,442,0,0
672,582,0,0,0,0,0,0,0,0,0,-1,1896,442,0,0
679,582,0,0,0,0,0,0,0,0,0,-1,1903,442,0,0
686,582,0,0,0,0,0,0,0,0,0,-1,1910,442,0,0
693,582,0,0,0,0,0,0,0,0,0,-1,1917,442,0,0
700,582,0,0,0,0,0,0,0,0,0,-1,1924,442,0,0
707,582,0,0,0,0,0,0,0,0,0,-1,1931,442,0,0
714,582,0,0,0,0,0,0,0,0,0,-1,1938,442,0,0
721,582,0,0,0,0,0,0,0,0,0,-1,1945,442,0,0
728,582,0,0,0,0,0,0,0,0,0,-1,1952,442,0,0
735,582,0,0,0,0,0,0,0,0,0,-1,1959,442,0,0
742,582,0,0,0,0,0,0,0,0,0,-1,1966,442,0,0
749,582,0,0,0,0,0,0,0,0,0,-1,1973,442,0,0
756,582,0,0,0,0,0,0,0,0,0,-1,1980,442,0,0
763,582,0,0,0,0,0,0,0,0,0,-1,1987,442,0,0
770,582,0,0,0,0,0,0,0,0,0,-1,1994,442,0,0
777,582,0,0,0,0,0,0,0,0,0,-1,2001,442,0,0
784,582,0,0,0,0,0,0,0,0,0,-1,2008,442,0,0
791,582,0,0,0,0,0,0,0,0,0,-1,2015,442,0,0
798,582,0,0,0,0,0,0,0,0,0,-1,2022,442,0,0
805,582,0,0,0,0,0,0,0,0,0,-1,2029,442,0,0
812,582,0,0,0,0,0,0,0,0,0,-1,2036,442,0,0
-700,575,0,0,0,0,0,0,0,0,0,-1,524,449,0,0
-693,575,0,0,0,0,0,0,0,0,0,-1,531,449,0,0
-686,575,0,0,0,0,0,0,0,0,0,-1,538,449,0,0
-679,575,0,0,0,0,0,0,0,0,0,-1,545,449,0,0
-672,575,0,0,0,0,0,0,0,0,0,-1,552,449,0,0
-665,575,0,0,0,0,0,0,0,0,0,-1,559,449,0,0
-658,575,0,0,0,0,0,0,0,0,0,-1,566,449,0,0
-651,575,0,0,0,0,0,0,0,0,0,-1,573,449,0,0
-644,575,0,0,0,0,0,0,0,0,0,-1,580,449,0,0
-637,575,0,0,0,0,0,0,0,0,0,-1,587,449,0,0
-630,575,0,0,0,0,0,0,0,0,0,-1,594,449,0,0
-623,575,0,0,0,0,0,0,0,0,0,-1,601,449,0,0
-616,575,0,0,0,0,0,0,0,0,0,-1,608,449,0,0
-609,575,0,0,0,0,0,0,0,0,0,-1,615,449,0,0
-602,575,0,0,0,0,0,0,0,0,0,-1,622,449,0,0
-595,575,0,0,0,0,0,0,0,0,0,-1,629,449,0,0
-588,575,0,0,0,0,0,0,0,0,0,-1,636,449,0,0
-581,575,0,0,0,0,0,0,0,0,0,-1,643,449,0,0
-574,575,0,0,0,0,0,0,0,0,0,-1,650,449,0,0
-567,575,0,0,0,0,0,0,0,0,0,-1,657,449,0,0
-560,575,0,0,0,0,0,0,0,0,0,-1,664,449,0,0
-553,575,0,0,0,0,0,0,0,0,0,-1,671,449,0,0
-546,575,0,0,0,0,0,0,0,0,0,-1,678,449,0,0
-539,575,0,0,0,0,0,0,0,0,0,-1,685,449,0,0
-532,575,0,0,0,0,0,0,0,0,0,-1,692,449,0,0
-525,575,0,0,0,0,0,0,0,0,0,-1,699,449,0,0
-518,575,0,0,0,0,0,0,0,0,0,-1,706,449,0,0
-511,575,0,0,0,0,0,0,0,0,0,-1,713,449,0,0
-504,575,0,0,0,0,0,0,0,0,0,-1,720,449,0,0
-497,575,0,0,0,0,0,0,0,0,0,-1,727,449,0,0
-490,575,0,0,0,0,0,0,0,0,0,-1,734,449,0,0
-483,575,0,0,0,0,0,0,0,0,0,-1,741,449,0,0
-476,575,0,0,0,0,0,0,0,0,0,-1,748,449,0,0
-469,575,0,0,0,0,0,0,0,0,0,-1,755,449,0,0
-462,575,0,0,0,0,0,0,0,0,0,-1,762,449,0,0
-455,575,0,0,0,0,0,0,0,0,0,-1,769,449,0,0
-448,575,0,0,0,0,0,0,0,0,0,-1,776,449,0,0
-441,575,0,0,0,0,0,0,0,0,0,-1,783,449,0,0
-434,575,0,0,0,0,0,0,0,0,0,-1,790,449,0,0
-427,575,0,0,0,0,0,0,0,0,0,-1,797,449,0,0
-420,575,0,0,0,0,0,0,0,0,0,-1,804,449,0,0
-413,575,0,0,0,0,0,0,0,0,0,-1,811,449,0,0
-406,575,0,0,0,0,0,0,0,0,0,-1,818,449,0,0
-399,575,0,0,0,0,0,0,0,0,0,-1,825,449,0,0
-392,575,0,0,0,0,0,0,0,0,0,-1,832,449,0,0
-385,575,0,0,0,0,0,0,0,0,0,-1,839,449,0,0
-378,575,0,0,0,0,0,0,0,0,0,-1,846,449,0,0
-371,575,0.56897,-3.52304,0,0,0,0,0,0,0,-1,853,449,0.568955,3.52306
-364,575,1.49805,-4.67191,0,0,0,0,0,0,0,-1,860,449,1.49803,4.6719
-357,575,3.15521,-8.29892,0,0,0,0,0,0,0,-1,867,449,3.15521,8.29891
-350,575,-0.825928,-18.5347,0,0,0,0,0,0,0,-1,874,449,-0.825948,18.5347
-343,575,0.465393,-16.3569,0,0,0,0,0,0,0,-1,881,449,0.465397,16.3569
-336,575,0.479309,-15.4891,0,0,0,0,0,0,0,-1,888,449,0.479336,15.4891
-329,575,1.26965,-14.5164,0,0,0,0,0,0,0,-1,895,449,1.26964,14.5164
-322,575,1.4726,-14.8892,0,0,0,0,0,0,0,-1,902,449,1.47259,14.8892
-315,575,1.67505,-15.25,0.00032346,0.000919579,-0.00118739,0.00184575,-0.000602712,-0.908367,0.00147309,0.0479308,909,449,1.67505,15.25
-308,575,1.84192,-15.5799,0.000217345,0.00317369,-0.00144058,0.00375956,-0.000368527,-1.18454,0.00263781,0.0458369,916,449,1.84189,15.5799
-301,575,2.01123,-15.8931,4.24149e-05,0.00477163,-0.00174856,0.00534791,-0.000533868,-1.25243,0.0037559,0.03233,923,449,2.01126,15.8931
-294,575,1.93457,-16.2448,-4.30475e-05,0.00595706,-0.00200545,0.00656563,-0.000651613,-1.27617,0.00460967,0.0233728,930,449,1.93454,16.2448
-287,575,1.90582,-16.6226,-0.000165695,0.00595659,-0.0019591,0.00652981,-0.000738923,-1.28614,0.00461926,0.0168025,937,449,1.90585,16.6225
-280,575,1.92212,-16.9715,-0.000206316,0.00599205,-0.00197124,0.00656584,-0.000780104,-1.28754,0.00465908,0.0132204,944,449,1.92211,16.9715
-273,575,1.90149,-17.3307,-0.000124492,0.00578547,-0.00199896,0.00639808,-0.000737108,-1.27342,0.00453112,0.0120447,951,449,1.90148,17.3307
-266,575,1.89105,-17.6904,-5.65108e-05,0.00506859,-0.00187983,0.00568415,-0.000672077,-1.25434,0.00403218,0.0132866,958,449,1.89104,17.6904
-259,575,1.86584,-18.0093,8.69386e-06,0.00420048,-0.0013639,0.00460518,-0.000396012,-1.28235,0.00321028,0.0127703,965,449,1.86583,18.0093
-252,575,1.81989,-18.3188,-8.9349e-05,0.00370598,-0.00117516,0.00404038,-0.000423756,-1.29356,0.00284538,0.0115115,972,449,1.81991,18.3188
-245,575,1.80579,-18.6406,-3.25891e-05,0.00194244,-0.000706045,0.00216888,-0.000259028,-1.26044,0.00153955,0.0145333,979,449,1.80579,18.6406
-238,575,1.82404,-18.947,0.000100601,0.000179651,3.37973e-05,0.000192131,8.81216e-05,1.21707,0.000111053,0.014907,986,449,1.82403,18.947
-231,575,1.82343,-19.2176,4.53586e-05,-0.000961885,0.00076206,0.000455175,-0.0013717,0.493409,0.0010981,0.0127819,993,449,1.82344,19.2176
-224,575,1.80054,-19.5042,9.00598e-05,-0.00201492,0.00140189,0.000790572,-0.00271543,0.463402,0.00212345,0.0123869,1000,449,1.80057,19.5042
-217,575,1.80334,-19.8188,0.000268694,-0.00313685,0.00202396,0.00121088,-0.00407904,0.435685,0.00320028,0.0102508,1007,449,1.80337,19.8188
-210,575,1.82916,-20.1223,0.000351912,-0.00438015,0.00254974,0.00146428,-0.00549253,0.411376,0.00423502,0.00894987,1014,449,1.82919,20.1223
-203,575,1.81781,-20.4151,0.000449833,-0.00558861,0.0028874,0.00160826,-0.00674704,0.381542,0.00511903,0.0122738,1021,449,1.81778,20.4151
-196,575,1.83374,-20.7157,0.000439539,-0.00689991,0.00345994,0.00181343,-0.0082738,0.377991,0.00620925,0.0156587,1028,449,1.8337,20.7157
-189,575,1.85645,-20.9763,0.000388418,-0.00803324,0.00380795,0.00185487,-0.0094997,0.367599,0.00703343,0.0171426,1035,449,1.8565,20.9763
-182,575,1.83142,-21.2085,0.000419839,-0.00927395,0.0041192,0.00193378,-0.0107879,0.352208,0.00791565,0.0151694,1042,449,1.83139,21.2085
-175,575,1.83862,-21.458,0.000331611,-0.0106918,0.00441706,0.00188314,-0.0122433,0.337796,0.00885692,0.0120998,1049,449,1.83859,21.458
-168,575,1.84741,-21.6929,0.000173951,-0.0120928,0.00468111,0.00175621,-0.0136751,0.325954,0.00975496,0.0107768,1056,449,1.84743,21.6929
-161,575,1.86206,-21.9195,-2.77478e-05,-0.0133901,0.00470049,0.00146009,-0.0148779,0.30655,0.0104394,0.0154341,1063,449,1.86209,21.9195
-154,575,1.88513,-22.1434,-0.000354083,-0.0146111,0.0047503,0.00108368,-0.0160489,0.293902,0.0110781,0.0193434,1070,449,1.88518,22.1434
-147,575,1.91479,-22.3313,-0.000667978,-0.0159145,0.00491286,0.000777959,-0.0173604,0.286235,0.0118415,0.0195503,1077,449,1.91474,22.3313
-140,575,1.85498,-22.4825,-0.00104223,-0.0164081,0.00511861,0.000506725,-0.017957,0.293851,0.0121438,0.02821,1084,449,1.85496,22.4825
-133,575,1.98181,-22.677,-0.00129898,-0.0171414,0.00523319,0.000273588,-0.018714,0.291914,0.0125682,0.0349567,1091,449,1.98176,22.677
-126,575,2.08862,-22.6981,-0.00121469,-0.01774,0.0052406,0.000307096,-0.0192618,0.282612,0.0129448,0.0398839,1098,449,2.08867,22.6981
-119,575,1.93689,-22.8553,-0.00096635,-0.0177487,0.00492728,0.00037335,-0.0190884,0.265477,0.0128518,0.0369464,1105,449,1.9369,22.8552
-112,575,1.93469,-23.2562,-0.000712898,-0.017394,0.00455882,0.000451684,-0.0185586,0.250108,0.0125257,0.0485781,1112,449,1.93464,23.2562
-105,575,2.04919,-23.5612,0,0,0,0,0,0,0,-1,1119,449,2.04924,23.5612
-98,575,1.85706,-23.5938,0,0,0,0,0,0,0,-1,1126,449,1.85705,23.5938
-91,575,1.60803,-16.4247,0,0,0,0,0,0,0,-1,1133,449,1.60802,16.4247
-84,575,1.16553,-11.9056,0,0,0,0,0,0,0,-1,1140,449,1.16558,11.9056
-77,575,0.205078,-11.2584,0,0,0,0,0,0,0,-1,1147,449,0.205117,11.2584
-70,575,-4.2467,-1.78738,0,0,0,0,0,0,0,-1,1154,449,-4.24674,1.78739
-63,575,-4.52209,-3.48798,0,0,0,0,0,0,0,-1,1161,449,-4.5221,3.48796
-56,575,-5.5968,-5.4928,0,0,0,0,0,0,0,-1,1168,449,-5.59683,5.49281
-49,575,-5.96863,-7.17612,0,0,0,0,0,0,0,-1,1175,449,-5.96868,7.1761
-42,575,-0.830322,0.773499,0,0,0,0,0,0,0,-1,1182,449,-0.83038,-0.77351
-35,575,-0.62085,0.205139,0,0,0,0,0,0,0,-1,1189,449,-0.620855,-0.205126
-28,575,0.49292,-3.87988,0,0,0,0,0,0,0,-1,1196,449,0.492941,3.87989
-21,575,2.30139,-24.2202,0,0,0,0,0,0,0,-1,1203,449,2.30143,24.2203
-14,575,2.52405,-24.1378,-0.0151999,-0.0402174,-0.00921336,-0.012173,-0.0432443,-0.317419,0.0257495,0.0485666,1210,449,2.52405,24.1378
-7,575,2.71814,-24.045,0,0,0,0,0,0,0,-1,1217,449,2.71812,24.045
0,575,2.78857,-24.0383,-0.0182909,-0.035529,-0.00753991,-0.0154584,-0.0383615,-0.359357,0.0222866,0.0436643,1224,449,2.78861,24.0383
7,575,2.84082,-23.8584,0,0,0,0,0,0,0,-1,1231,449,2.84083,23.8584
14,575,6.61084,-25.7646,0,0,0,0,0,0,0,-1,1238,449,6.6108,25.7647
21,575,6.08447,-25.727,-0.00921872,-0.0200145,-0.0101791,-0.00309484,-0.0261384,-0.541605,0.016491,0.0446845,1245,449,6.08443,25.727
28,575,2.14075,-23.6307,-0.00607064,-0.0145839,-0.0119432,0.00235177,-0.0230063,-0.614213,0.0161785,0.0434907,1252,449,2.14072,23.6307
35,575,2.3418,-24.2915,-0.00498102,-0.00993749,-0.0142751,0.00702934,-0.0219478,-0.699452,0.0174534,0.0417727,1259,449,2.34178,24.2915
42,575,4.70581,-25.0142,-0.00482138,-0.00363167,-0.0152542,0.0110393,-0.0194923,-0.804886,0.0178512,0.0425111,1266,449,4.7058,25.0142
49,575,4.53223,-25.5969,-0.0072858,0.00220687,-0.0160513,0.0141988,-0.0192778,-0.929151,0.0194017,0.0434194,1273,449,4.53224,25.5969
56,575,4.35889,-25.3719,0,0,0,0,0,0,0,-1,1280,449,4.35895,25.3719
63,575,4.05212,-25.6824,-0.00561318,0.0283101,-0.00995141,0.0310139,-0.00831693,-1.3055,0.0239348,0.0416433,1287,449,4.05214,25.6824
70,575,3.97058,-25.6537,0.000735606,0.0414958,-0.0124053,0.0449744,-0.00274303,-1.2974,0.0309379,0.0406863,1294,449,3.97056,25.6537
77,575,3.7959,-25.629,0,0,0,0,0,0,0,-1,1301,449,3.79586,25.629
84,575,3.14514,-27.5138,0,0,0,0,0,0,0,-1,1308,449,3.14508,27.5138
91,575,2.26965,-28.061,0,0,0,0,0,0,0,-1,1315,449,2.2697,28.061
98,575,0.450928,-28.5724,0.021573,0.068942,-0.0076893,0.070159,0.0203561,-1.41384,0.0416786,0.0426089,1322,449,0.450965,28.5725
105,575,-1.08081,-28.8523,0.0283339,0.0702498,-0.00809661,0.0717594,0.0268243,-1.38646,0.0418678,0.0413648,1329,449,-1.08076,28.8523
112,575,-2.59082,-29.0958,0.0354359,0.0691057,-0.00961568,0.0716583,0.0328833,-1.31132,0.0414185,0.0457577,1336,449,-2.59081,29.0958
119,575,-4.01062,-29.3091,0.0411499,0.0617533,-0.0113597,0.0667868,0.0361164,-1.1537,0.0386021,0.0475611,1343,449,-4.01066,29.3091
126,575,6.08093,-26.0413,0,0,0,0,0,0,0,-1,1350,449,6.08088,26.0413
133,575,5.71423,-23.6636,0.0440976,0.026246,-0.0188513,0.0560295,0.0143141,-0.564292,0.0336134,0.0470829,1357,449,5.71423,23.6636
140,575,6.08093,-23.5613,0.0402344,0.00544334,-0.0222049,0.0510463,-0.00536857,-0.453126,0.0359543,0.0446293,1364,449,6.08089,23.5613
147,575,6.21838,-23.6792,0.0328059,-0.0151157,-0.0241951,0.0428968,-0.0252066,-0.395132,0.0397592,0.0499399,1371,449,6.21841,23.6792
154,575,6.32031,-23.5728,0,0,0,0,0,0,0,-1,1378,449,6.3203,23.5729
161,575,4.65686,-24.238,0,0,0,0,0,0,0,-1,1385,449,4.6569,24.238
168,575,4.30603,-21.5567,0,0,0,0,0,0,0,-1,1392,449,4.30599,21.5567
175,575,4.32617,1.93634,0,0,0,0,0,0,0,-1,1399,449,4.32612,-1.93634
182,575,6.3147,-2.88345,0,0,0,0,0,0,0,-1,1406,449,6.31466,2.88346
189,575,6.10449,-1.30817,0,0,0,0,0,0,0,-1,1413,449,6.10455,1.30817
196,575,5.79895,0.818359,0,0,0,0,0,0,0,-1,1420,449,5.79895,-0.81837
203,575,3.29724,-1.46378,0,0,0,0,0,0,0,-1,1427,449,3.29722,1.46377
210,575,2.32739,-7.74503,0,0,0,0,0,0,0,-1,1434,449,2.32741,7.74502
217,575,3.33618,-11.5521,0,0,0,0,0,0,0,-1,1441,449,3.3362,11.5521
224,575,5.51709,-16.3903,0,0,0,0,0,0,0,-1,1448,449,5.51713,16.3903
231,575,5.48572,-20.4595,0,0,0,0,0,0,0,-1,1455,449,5.48571,20.4595
238,575,5.33484,-22.3575,0,0,0,0,0,0,0,-1,1462,449,5.33478,22.3575
245,575,5.46912,-22.6422,0,0,0,0,0,0,0,-1,1469,449,5.46913,22.6422
252,575,5.5072,-22.8462,0,0,0,0,0,0,0,-1,1476,449,5.50721,22.8462
259,575,5.43896,-22.547,0,0,0,0,0,0,0,-1,1483,449,5.43899,22.547
266,575,5.43518,-22.31,0,0,0,0,0,0,0,-1,1490,449,5.43521,22.31
273,575,5.50415,-21.8584,0,0,0,0,0,0,0,-1,1497,449,5.5042,21.8584
280,575,5.42029,-21.5945,0,0,0,0,0,0,0,-1,1504,449,5.42034,21.5945
287,575,5.49792,-21.2586,0.00248584,-0.00112905,-0.000999789,0.00274393,-0.00138714,-0.252629,0.00242757,0.0221987,1511,449,5.49792,21.2586
294,575,5.56152,-20.9506,0.00235846,-0.00122989,-0.00115102,0.00269594,-0.00156736,-0.2852,0.00249,0.010555,1518,449,5.56151,20.9506
301,575,5.58801,-20.6703,0.00214669,-0.00135745,-0.00113234,0.00248075,-0.00169151,-0.28688,0.00242317,0.00916233,1525,449,5.588,20.6703
308,575,5.61182,-20.3733,0.00193134,-0.00169056,-0.00109417,0.00223623,-0.00199544,-0.27175,0.00244447,0.00986161,1532,449,5.61185,20.3733
315,575,5.6073,-20.0759,0.00170297,-0.00165156,-0.000982631,0.00196961,-0.00191821,-0.264976,0.0022447,0.0104242,1539,449,5.60734,20.0759
322,575,5.63562,-19.7823,0.00141769,-0.00142833,-0.00078264,0.00161871,-0.00162935,-0.251418,0.00187527,0.00953934,1546,449,5.63561,19.7823
329,575,5.63586,-19.5111,0.00117815,-0.00104015,-0.000496011,0.00128401,-0.00114601,-0.210261,0.00140372,0.00986308,1553,449,5.63587,19.5111
336,575,5.62646,-19.1948,0.000936937,-0.000611326,-0.000216198,0.00096656,-0.000640949,-0.13617,0.000934421,0.0115407,1560,449,5.62651,19.1948
343,575,5.64441,-18.8552,0.000673874,-0.000184822,4.54575e-05,0.000676274,-0.000187222,0.0527413,0.000524515,0.011898,1567,449,5.6444,18.8552
350,575,5.63831,-18.5359,0.000497578,0.000401667,0.000423795,0.000876122,2.31235e-05,0.729059,0.000576528,0.0106401,1574,449,5.63831,18.5358
357,575,5.62744,-18.2195,0.000281592,0.000979071,0.000794729,0.00149821,-0.000237547,0.992155,0.00108668,0.00996489,1581,449,5.62746,18.2195
364,575,5.60901,-17.9097,-1.97714e-05,0.00152016,0.0010606,0.00206081,-0.000560425,1.09937,0.00159387,0.0100213,1588,449,5.60904,17.9097
371,575,5.55762,-17.5863,-0.000279744,0.00201531,0.00132942,0.00262396,-0.000888399,1.14145,0.00210877,0.018573,1595,449,5.55758,17.5863
378,575,5.57349,-17.2431,-0.000612134,0.00252215,0.00154579,0.00315623,-0.00124622,1.18153,0.00262028,0.0183925,1602,449,5.57354,17.2431
385,575,5.57446,-16.8877,-0.0010892,0.00297385,0.00158868,0.00352128,-0.00163663,1.23896,0.00304346,0.0113181,1609,449,5.57444,16.8877
392,575,5.54993,-16.5381,-0.00156462,0.00336967,0.00161299,0.00385016,-0.00204511,1.28128,0.00345641,0.00877154,1616,449,5.54998,16.5381
399,575,5.51575,-16.2187,-0.00197648,0.00401004,0.00170206,0.00446013,-0.00242657,1.31228,0.0040334,0.00929374,1623,449,5.51579,16.2186
406,575,5.51306,-15.8225,-0.00274266,0.00429767,0.0016878,0.00468138,-0.00312637,1.34725,0.00453751,0.0109996,1630,449,5.51312,15.8225
413,575,5.50696,-15.4322,-0.00394695,0.00445785,0.00133211,0.00466393,-0.00415303,1.41731,0.00509332,0.0129516,1637,449,5.507,15.4322
420,575,5.48389,-15.0772,-0.00541435,0.0044218,0.000974916,0.00451749,-0.00551005,1.47295,0.00579885,0.0137008,1644,449,5.48393,15.0772
427,575,5.42554,-14.6845,-0.00749942,0.00482293,0.000815085,0.00487661,-0.00755311,1.50503,0.00723155,0.0174593,1651,449,5.42555,14.6845
434,575,5.28857,-14.3667,-0.00956818,0.00503993,0.000463871,0.00505464,-0.00958289,1.53908,0.00858472,0.0281846,1658,449,5.28852,14.3667
441,575,5.19299,-14.0664,0,0,0,0,0,0,0,-1,1665,449,5.193,14.0664
448,575,5.67053,-13.1632,0,0,0,0,0,0,0,-1,1672,449,5.67057,13.1632
455,575,5.63123,-13.4144,0,0,0,0,0,0,0,-1,1679,449,5.63119,13.4144
462,575,4.74707,-12.7634,0,0,0,0,0,0,0,-1,1686,449,4.74705,12.7634
469,575,4.49573,-12.5637,0,0,0,0,0,0,0,-1,1693,449,4.4957,12.5637
476,575,4.05371,-11.8201,0,0,0,0,0,0,0,-1,1700,449,4.05371,11.8201
483,575,4.32471,-13.6172,0,0,0,0,0,0,0,-1,1707,449,4.32471,13.6172
490,575,4.39172,-13.0221,0,0,0,0,0,0,0,-1,1714,449,4.39176,13.0221
497,575,0,0,0,0,0,0,0,0,0,-1,1721,449,0,0
504,575,0,0,0,0,0,0,0,0,0,-1,1728,449,0,0
511,575,0,0,0,0,0,0,0,0,0,-1,1735,449,0,0
518,575,0,0,0,0,0,0,0,0,0,-1,1742,449,0,0
525,575,0,0,0,0,0,0,0,0,0,-1,1749,449,0,0
532,575,0,0,0,0,0,0,0,0,0,-1,1756,449,0,0
539,575,0,0,0,0,0,0,0,0,0,-1,1763,449,0,0
546,575,0,0,0,0,0,0,0,0,0,-1,1770,449,0,0
553,575,0,0,0,0,0,0,0,0,0,-1,1777,449,0,0
560,575,0,0,0,0,0,0,0,0,0,-1,1784,449,0,0
567,575,0,0,0,0,0,0,0,0,0,-1,1791,449,0,0
574,575,0,0,0,0,0,0,0,0,0,-1,1798,449,0,0
581,575,0,0,0,0,0,0,0,0,0,-1,1805,449,0,0
588,575,0,0,0,0,0,0,0,0,0,-1,1812,449,0,0
595,575,0,0,0,0,0,0,0,0,0,-1,1819,449,0,0
602,575,0,0,0,0,0,0,0,0,0,-1,1826,449,0,0
609,575,0,0,0,0,0,0,0,0,0,-1,1833,449,0,0
616,575,0,0,0,0,0,0,0,0,0,-1,1840,449,0,0
623,575,0,0,0,0,0,0,0,0,0,-1,1847,449,0,0
630,575,0,0,0,0,0,0,0,0,0,-1,1854,449,0,0
637,575,0,0,0,0,0,0,0,0,0,-1,1861,449,0,0
644,575,0,0,0,0,0,0,0,0,0,-1,1868,449,0,0
651,575,0,0,0,0,0,0,0,0,0,-1,1875,449,0,0
658,575,0,0,0,0,0,0,0,0,0,-1,1882,449,0,0
665,575,0,0,0,0,0,0,0,0,0,-1,1889,449,0,0
672,575,0,0,0,0,0,0,0,0,0,-1,1896,449,0,0
679,575,0,0,0,0,0,0,0,0,0,-1,1903,449,0,0
686,575,0,0,0,0,0,0,0,0,0,-1,1910,449,0,0
693,575,0,0,0,0,0,0,0,0,0,-1,1917,449,0,0
700,575,0,0,0,0,0,0,0,0,0,-1,1924,449,0,0
707,575,0,0,0,0,0,0,0,0,0,-1,1931,449,0,0
714,575,0,0,0,0,0,0,0,0,0,-1,1938,449,0,0
721,575,0,0,0,0,0,0,0,0,0,-1,1945,449,0,0
728,575,0,0,0,0,0,0,0,0,0,-1,1952,449,0,0
735,575,0,0,0,0,0,0,0,0,0,-1,1959,449,0,0
742,575,0,0,0,0,0,0,0,0,0,-1,1966,449,0,0
749,575,0,0,0,0,0,0,0,0,0,-1,1973,449,0,0
756,575,0,0,0,0,0,0,0,0,0,-1,1980,449,0,0
763,575,0,0,0,0,0,0,0,0,0,-1,1987,449,0,0
770,575,0,0,0,0,0,0,0,0,0,-1,1994,449,0,0
777,575,0,0,0,0,0,0,0,0,0,-1,2001,449,0,0
784,575,0,0,0,0,0,0,0,0,0,-1,2008,449,0,0
791,575,0,0,0,0,0,0,0,0,0,-1,2015,449,0,0
798,575,0,0,0,0,0,0,0,0,0,-1,2022,449,0,0
805,575,0,0,0,0,0,0,0,0,0,-1,2029,449,0,0
812,575,0,0,0,0,0,0,0,0,0,-1,2036,449,0,0
-700,568,0,0,0,0,0,0,0,0,0,-1,524,456,0,0
-693,568,0,0,0,0,0,0,0,0,0,-1,531,456,0,0
-686,568,0,0,0,0,0,0,0,0,0,-1,538,456,0,0
-679,568,0,0,0,0,0,0,0,0,0,-1,545,456,0,0
-672,568,0,0,0,0,0,0,0,0,0,-1,552,456,0,0
-665,568,0,0,0,0,0,0,0,0,0,-1,559,456,0,0
-658,568,0,0,0,0,0,0,0,0,0,-1,566,456,0,0
-651,568,0,0,0,0,0,0,0,0,0,-1,573,456,0,0
-644,568,0,0,0,0,0,0,0,0,0,-1,580,456,0,0
-637,568,0,0,0,0,0,0,0,0,0,-1,587,456,0,0
-630,568,0,0,0,0,0,0,0,0,0,-1,594,456,0,0
-623,568,0,0,0,0,0,0,0,0,0,-1,601,456,0,0
-616,568,0,0,0,0,0,0,0,0,0,-1,608,456,0,0
-609,568,0,0,0,0,0,0,0,0,0,-1,615,456,0,0
-602,568,0,0,0,0,0,0,0,0,0,-1,622,456,0,0
-595,568,0,0,0,0,0,0,0,0,0,-1,629,456,0,0
-588,568,0,0,0,0,0,0,0,0,0,-1,636,456,0,0
-581,568,0,0,0,0,0,0,0,0,0,-1,643,456,0,0
-574,568,0,0,0,0,0,0,0,0,0,-1,650,456,0,0
-567,568,0,0,0,0,0,0,0,0,0,-1,657,456,0,0
-560,568,0,0,0,0,0,0,0,0,0,-1,664,456,0,0
-553,568,0,0,0,0,0,0,0,0,0,-1,671,456,0,0
-546,568,0,0,0,0,0,0,0,0,0,-1,678,456,0,0
-539,568,0,0,0,0,0,0,0,0,0,-1,685,456,0,0
-532,568,0,0,0,0,0,0,0,0,0,-1,692,456,0,0
-525,568,0,0,0,0,0,0,0,0,0,-1,699,456,0,0
-518,568,0,0,0,0,0,0,0,0,0,-1,706,456,0,0
-511,568,0,0,0,0,0,0,0,0,0,-1,713,456,0,0
-504,568,0,0,0,0,0,0,0,0,0,-1,720,456,0,0
-497,568,0,0,0,0,0,0,0,0,0,-1,727,456,0,0
-490,568,0,0,0,0,0,0,0,0,0,-1,734,456,0,0
-483,568,0,0,0,0,0,0,0,0,0,-1,741,456,0,0
-476,568,0,0,0,0,0,0,0,0,0,-1,748,456,0,0
-469,568,0,0,0,0,0,0,0,0,0,-1,755,456,0,0
-462,568,0,0,0,0,0,0,0,0,0,-1,762,456,0,0
-455,568,0,0,0,0,0,0,0,0,0,-1,769,456,0,0
-448,568,0,0,0,0,0,0,0,0,0,-1,776,456,0,0
-441,568,0,0,0,0,0,0,0,0,0,-1,783,456,0,0
-434,568,0,0,0,0,0,0,0,0,0,-1,790,456,0,0
-427,568,0,0,0,0,0,0,0,0,0,-1,797,456,0,0
-420,568,0,0,0,0,0,0,0,0,0,-1,804,456,0,0
-413,568,0,0,0,0,0,0,0,0,0,-1,811,456,0,0
-406,568,0,0,0,0,0,0,0,0,0,-1,818,456,0,0
-399,568,0,0,0,0,0,0,0,0,0,-1,825,456,0,0
-392,568,0,0,0,0,0,0,0,0,0,-1,832,456,0,0
-385,568,0,0,0,0,0,0,0,0,0,-1,839,456,0,0
-378,568,0.321777,-7.29929,0,0,0,0,0,0,0,-1,846,456,0.321806,7.29927
-371,568,1.09595,-7.46707,0,0,0,0,0,0,0,-1,853,456,1.09597,7.46707
-364,568,1.87787,-7.61115,0,0,0,0,0,0,0,-1,860,456,1.87784,7.61116
-357,568,2.14166,-7.67645,0,0,0,0,0,0,0,-1,867,456,2.14167,7.67646
-350,568,2.7467,-11.2507,0,0,0,0,0,0,0,-1,874,456,2.7467,11.2507
-343,568,2.16516,-11.3762,0,0,0,0,0,0,0,-1,881,456,2.16514,11.3762
-336,568,1.0954,-14.1476,0,0,0,0,0,0,0,-1,888,456,1.09538,14.1476
-329,568,1.50348,-14.4743,0,0,0,0,0,0,0,-1,895,456,1.50348,14.4743
-322,568,1.18201,-15.0987,0,0,0,0,0,0,0,-1,902,456,1.18201,15.0987
-315,568,2.06927,-14.8566,-0.000297221,0.00214628,-0.00237571,0.00359598,-0.00174692,-1.0229,0.0031457,0.0387777,909,456,2.06928,14.8566
-308,568,1.72363,-15.5036,-0.000277195,0.00336007,-0.00226817,0.00444867,-0.0013658,-1.12332,0.00351075,0.0290711,916,456,1.72364,15.5036
-301,568,1.69293,-15.9601,-0.000336727,0.00416582,-0.0021918,0.00505656,-0.00122747,-1.18479,0.00384605,0.0165544,923,456,1.69294,15.96
-294,568,1.64655,-16.2985,-0.000343031,0.00473994,-0.00210754,0.0055001,-0.00110319,-1.22463,0.00408443,0.0121884,930,456,1.64657,16.2985
-287,568,1.62195,-16.6489,-0.000353188,0.00450961,-0.0018435,0.00512947,-0.000973053,-1.24643,0.00378591,0.0106905,937,456,1.62195,16.6489
-280,568,1.61719,-17.0085,-0.00031835,0.0043058,-0.00167011,0.00484591,-0.000858457,-1.25801,0.00355151,0.0108211,944,456,1.61718,17.0085
-273,568,1.58661,-17.3623,-0.000254088,0.00390895,-0.00153761,0.00441528,-0.000760417,-1.25268,0.003227,0.0126721,951,456,1.58663,17.3623
-266,568,1.56207,-17.689,-0.000217284,0.00304808,-0.00125678,0.00347577,-0.00064498,-1.24278,0.00255941,0.0123832,958,456,1.5621,17.689
-259,568,1.55469,-17.9982,-0.000156033,0.00202942,-0.000625085,0.00219558,-0.000322188,-1.31099,0.00158209,0.0130329,965,456,1.55467,17.9982
-252,568,1.51044,-18.3028,-0.000244971,0.00127065,-0.000207895,0.00129865,-0.00027297,-1.43692,0.000969647,0.0130638,972,456,1.51044,18.3028
-245,568,1.50018,-18.6068,-0.000208346,-0.000623332,0.000397208,3.22986e-05,-0.000863977,0.544703,0.000587047,0.0145009,979,456,1.50019,18.6068
-238,568,1.52911,-18.9218,-0.000111339,-0.00251196,0.00123947,0.000413755,-0.00303706,0.400723,0.00217578,0.012698,986,456,1.52911,18.9217
-231,568,1.51733,-19.2183,-0.000175597,-0.00394437,0.00209754,0.000759694,-0.00487966,0.419439,0.00353367,0.0109865,993,456,1.51731,19.2183
-224,568,1.48572,-19.5092,-0.000137902,-0.00528688,0.00291457,0.0011764,-0.00660119,0.423638,0.00484081,0.0124503,1000,456,1.48569,19.5092
-217,568,1.51215,-19.8069,5.35076e-05,-0.0066388,0.00369988,0.00169592,-0.00828122,0.417779,0.00616438,0.0107196,1007,456,1.51217,19.8068
-210,568,1.53925,-20.1014,0.000209214,-0.00809596,0.0043203,0.00204904,-0.00993578,0.402595,0.00740202,0.0108171,1014,456,1.53928,20.1014
-203,568,1.54694,-20.3973,0.000328937,-0.00952329,0.00473178,0.00223336,-0.0114277,0.382639,0.00846175,0.00994741,1021,456,1.54694,20.3973
-196,568,1.58215,-20.6555,0.00028423,-0.011101,0.00545006,0.00247255,-0.0132893,0.381818,0.00978836,0.0134606,1028,456,1.58211,20.6555
-189,568,1.58228,-20.8993,0.000207189,-0.0123595,0.00586686,0.00252038,-0.0146727,0.375567,0.0107211,0.0139138,1035,456,1.58231,20.8993
-182,568,1.58313,-21.1694,0.000190695,-0.0138186,0.00624855,0.0025727,-0.0162007,0.364204,0.0117522,0.014678,1042,456,1.58317,21.1694
-175,568,1.58789,-21.4353,2.94868e-05,-0.0153453,0.00657062,0.00245491,-0.0177707,0.353616,0.0127445,0.0134762,1049,456,1.58786,21.4353
-168,568,1.60132,-21.5884,-0.000158846,-0.0168497,0.00681525,0.00227041,-0.0192789,0.342405,0.0136724,0.0191512,1056,456,1.60127,21.5884
-161,568,1.6239,-21.7422,-0.000447647,-0.0183108,0.00669989,0.00178598,-0.0205444,0.321794,0.0143287,0.0338382,1063,456,1.62396,21.7422
-154,568,1.797,-22.2019,-0.00103193,-0.0197911,0.00663218,0.00107598,-0.021899,0.307734,0.0149709,0.04438,1070,456,1.79702,22.2019
-147,568,1.9021,-22.4019,-0.00165611,-0.0215418,0.00674685,0.000416878,-0.0236148,0.298097,0.015884,0.0491452,1077,456,1.9021,22.4019
-140,568,1.6687,-22.4552,-0.0023947,-0.0220429,0.00701613,-0.00014656,-0.0242911,0.310088,0.0161454,0.04873,1084,456,1.66867,22.4552
-133,568,1.76282,-22.2931,0,0,0,0,0,0,0,-1,1091,456,1.76288,22.2931
-126,568,1.93372,-22.3064,0,0,0,0,0,0,0,-1,1098,456,1.93372,22.3064
-119,568,1.59229,-22.6392,0,0,0,0,0,0,0,-1,1105,456,1.59234,22.6392
-112,568,1.68054,-23.0737,0,0,0,0,0,0,0,-1,1112,456,1.68054,23.0737
-105,568,0.272095,-16.297,0,0,0,0,0,0,0,-1,1119,456,0.272141,16.297
-98,568,1.58618,-14.7874,0,0,0,0,0,0,0,-1,1126,456,1.58617,14.7874
-91,568,1.11621,-11.1853,0,0,0,0,0,0,0,-1,1133,456,1.11626,11.1853
-84,568,0.461792,-9.7959,0,0,0,0,0,0,0,-1,1140,456,0.461793,9.7959
-77,568,-1.13806,-8.57822,0,0,0,0,0,0,0,-1,1147,456,-1.13807,8.57821
-70,568,-4.09766,-1.42911,0,0,0,0,0,0,0,-1,1154,456,-4.09767,1.4291
-63,568,-5.92273,-3.70752,0,0,0,0,0,0,0,-1,1161,456,-5.92272,3.70751
-56,568,-5.24158,-6.01385,0,0,0,0,0,0,0,-1,1168,456,-5.24161,6.01386
-49,568,-5.24365,-8.33557,0,0,0,0,0,0,0,-1,1175,456,-5.24371,8.33557
-42,568,-0.664795,0.521973,0,0,0,0,0,0,0,-1,1182,456,-0.664829,-0.521984
-35,568,-0.153076,-1.67731,0,0,0,0,0,0,0,-1,1189,456,-0.153068,1.67731
-28,568,1.25439,-4.48798,0,0,0,0,0,0,0,-1,1196,456,1.2544,4.48797
-21,568,2.7251,-23.1883,0,0,0,0,0,0,0,-1,1203,456,2.72509,23.1883
-14,568,2.93237,-23.1426,0,0,0,0,0,0,0,-1,1210,456,2.93239,23.1426
-7,568,3.17773,-23.0902,0,0,0,0,0,0,0,-1,1217,456,3.17775,23.0902
0,568,3.35254,-23.2526,0,0,0,0,0,0,0,-1,1224,456,3.35259,23.2526
7,568,5.86401,-25.8389,0,0,0,0,0,0,0,-1,1231,456,5.864,25.8389
14,568,5.84717,-25.8062,-0.0195672,-0.0279728,-0.00940749,-0.0134664,-0.0340736,-0.575325,0.0198159,0.0485312,1238,456,5.84723,25.8063
21,568,5.7854,-25.6629,-0.0148611,-0.0214571,-0.0105495,-0.00710613,-0.0292121,-0.6339,0.0175911,0.0449142,1245,456,5.78537,25.6629
28,568,5.828,-25.5094,-0.0105471,-0.0155668,-0.012541,-0.000267277,-0.0258466,-0.686637,0.0171427,0.0424401,1252,456,5.828,25.5094
35,568,5.34521,-26.0572,0,0,0,0,0,0,0,-1,1259,456,5.34524,26.0572
42,568,5.29333,-26.0102,0,0,0,0,0,0,0,-1,1266,456,5.29329,26.0102
49,568,4.94702,-26.5783,0,0,0,0,0,0,0,-1,1273,456,4.94707,26.5783
56,568,5.06702,-25.8454,-0.0170231,0.00996576,-0.0197008,0.0203506,-0.027408,-1.08568,0.0276736,0.0437614,1280,456,5.06702,25.8454
63,568,4.67822,-25.6843,-0.00866474,0.0206272,-0.0153628,0.0272067,-0.0152442,-1.16616,0.0248313,0.0436825,1287,456,4.67825,25.6843
70,568,4.62219,-25.812,-0.000892631,0.0311167,-0.0189447,0.0399122,-0.00968818,-1.13613,0.0303573,0.0459155,1294,456,4.62215,25.812
77,568,4.67981,-25.8205,0,0,0,0,0,0,0,-1,1301,456,4.67983,25.8205
84,568,3.49841,-27.4586,0.010252,0.0424039,-0.0182285,0.0506325,0.00202334,-1.14676,0.0331012,0.0487355,1308,456,3.49838,27.4586
91,568,2.42249,-27.711,0.0169002,0.0505042,-0.0166502,0.0573567,0.0100477,-1.18037,0.0353676,0.0433685,1315,456,2.42255,27.711
98,568,1.078,-27.981,0.0241795,0.0530892,-0.0141072,0.0588323,0.0184364,-1.18418,0.0347466,0.0436746,1322,456,1.07801,27.981
105,568,0.0373535,-28.3804,0,0,0,0,0,0,0,-1,1329,456,0.0373675,28.3804
112,568,-2.16431,-28.401,0.0408803,0.0549344,-0.0142795,0.0638222,0.0319925,-1.01405,0.0368478,0.0469631,1336,456,-2.1643,28.401
119,568,6.16028,-24.6022,0.0475974,0.0480611,-0.0148279,0.0626589,0.0329996,-0.793216,0.0361933,0.0448924,1343,456,6.16025,24.6022
126,568,6.30652,-24.0821,0.0517331,0.0326651,-0.0173123,0.061963,0.0224352,-0.533705,0.0362252,0.046387,1350,456,6.30646,24.0821
133,568,6.43799,-23.4836,0.0508705,0.012888,-0.0205112,0.0598324,0.00392606,-0.411929,0.0386461,0.0491453,1357,456,6.43796,23.4837
140,568,7.74377,-23.0423,0.0450381,-0.00920208,-0.0231425,0.0535702,-0.0177341,-0.353213,0.0428656,0.04667,1364,456,7.74375,23.0423
147,568,6.72083,-23.7281,0.0343418,-0.0318113,-0.0237571,0.0419894,-0.039459,-0.311434,0.0470318,0.0457357,1371,456,6.72086,23.7281
154,568,5.85168,-24.2165,0.018746,-0.051431,-0.0218245,0.0249796,-0.0576645,-0.278214,0.0489426,0.045152,1378,456,5.85173,24.2165
161,568,5.06311,-24.5719,0,0,0,0,0,0,0,-1,1385,456,5.06313,24.5719
168,568,4.39075,-21.5911,0,0,0,0,0,0,0,-1,1392,456,4.39076,21.5911
175,568,10.5151,0.747498,0,0,0,0,0,0,0,-1,1399,456,10.5152,-0.747501
182,568,6.35095,-3.63361,0,0,0,0,0,0,0,-1,1406,456,6.35093,3.63359
189,568,6.17493,-1.70911,0,0,0,0,0,0,0,-1,1413,456,6.17497,1.70911
196,568,6.04724,0.200836,0,0,0,0,0,0,0,-1,1420,456,6.04724,-0.200835
203,568,5.9281,2.08649,0,0,0,0,0,0,0,-1,1427,456,5.92812,-2.08648
210,568,1.46216,-2.50446,0,0,0,0,0,0,0,-1,1434,456,1.46219,2.50446
217,568,2.62366,-7.86703,0,0,0,0,0,0,0,-1,1441,456,2.62365,7.86704
224,568,3.43494,-12.1555,0,0,0,0,0,0,0,-1,1448,456,3.43492,12.1555
231,568,4.38245,-9.3205,0,0,0,0,0,0,0,-1,1455,456,4.38244,9.32048
238,568,5.88879,-20.7448,0,0,0,0,0,0,0,-1,1462,456,5.88876,20.7449
245,568,3.34387,-10.6774,0,0,0,0,0,0,0,-1,1469,456,3.34389,10.6774
252,568,3.56946,-9.28928,0,0,0,0,0,0,0,-1,1476,456,3.56948,9.28928
259,568,3.38843,-8.73068,0,0,0,0,0,0,0,-1,1483,456,3.38842,8.73068
266,568,3.104,-9.16876,0,0,0,0,0,0,0,-1,1490,456,3.10397,9.16876
273,568,3.77869,-13.1147,0,0,0,0,0,0,0,-1,1497,456,3.77869,13.1147
280,568,4.40002,-14.9322,0,0,0,0,0,0,0,-1,1504,456,4.4,14.9322
287,568,5.77209,-21.3473,0,0,0,0,0,0,0,-1,1511,456,5.77214,21.3473
294,568,5.91638,-20.8847,0.00304514,-0.00240252,-0.00157601,0.00346822,-0.0028256,-0.262268,0.00364005,0.031327,1518,456,5.91636,20.8847
301,568,5.89172,-20.6455,0.00278691,-0.00255648,-0.00165627,0.00325865,-0.00302822,-0.277473,0.00363054,0.0204197,1525,456,5.8917,20.6455
308,568,5.91064,-20.3607,0.00244776,-0.00304741,-0.00176786,0.00296737,-0.00356702,-0.28587,0.00377792,0.013484,1532,456,5.9107,20.3607
315,568,5.91284,-20.0715,0.00210245,-0.00303829,-0.00174615,0.00263947,-0.0035753,-0.298362,0.00360163,0.00818743,1539,456,5.9128,20.0715
322,568,5.92224,-19.7844,0.00171403,-0.00279996,-0.0016059,0.00222704,-0.00331298,-0.309209,0.00321895,0.00946266,1546,456,5.92225,19.7844
329,568,5.93408,-19.4857,0.00140264,-0.00233747,-0.00134891,0.00183838,-0.00277321,-0.312446,0.00268067,0.0105265,1553,456,5.93407,19.4856
336,568,5.94006,-19.1678,0.0010933,-0.00184127,-0.00109783,0.00145854,-0.00220651,-0.321176,0.00213066,0.0113551,1560,456,5.94001,19.1678
343,568,5.96729,-18.8502,0.000771684,-0.0013393,-0.00085364,0.00107368,-0.0016413,-0.340029,0.00157887,0.0110854,1567,456,5.96724,18.8502
350,568,5.96033,-18.5493,0.000572422,-0.00074596,-0.000472681,0.000724379,-0.000897916,-0.311043,0.000938417,0.00978507,1574,456,5.96036,18.5493
357,568,5.94202,-18.2285,0.000375081,-9.52586e-05,-8.22293e-05,0.000389042,-0.00010922,-0.168186,0.000302416,0.00916715,1581,456,5.94204,18.2284
364,568,5.93481,-17.9202,0.000149933,0.00048884,0.000253943,0.000624676,1.40975e-05,1.07962,0.000411832,0.0113941,1588,456,5.93478,17.9202
371,568,5.9043,-17.5668,-3.71202e-05,0.000993439,0.000590588,0.00126194,-0.000305618,1.1441,0.000959527,0.0204365,1595,456,5.90427,17.5668
378,568,5.91736,-17.2093,-0.000273326,0.00149323,0.000869222,0.0018492,-0.000629292,1.18211,0.00148761,0.0194151,1602,456,5.91732,17.2093
385,568,5.9054,-16.8888,-0.000607557,0.00201559,0.00102099,0.00236614,-0.000958105,1.24007,0.00197581,0.0095904,1609,456,5.90535,16.8888
392,568,5.87683,-16.5608,-0.000939299,0.00240177,0.00114146,0.0027545,-0.00129203,1.27109,0.00238658,0.0101513,1616,456,5.87684,16.5608
399,568,5.85107,-16.2397,-0.00125373,0.00293511,0.00128009,0.00329532,-0.00161394,1.29649,0.00288925,0.0157139,1623,456,5.85105,16.2397
406,568,5.87317,-15.84,-0.00184941,0.00319227,0.00133363,0.00352331,-0.00218045,1.32749,0.00332335,0.0144267,1630,456,5.87317,15.84
413,568,5.87708,-15.4331,-0.00277507,0.00338331,0.0011275,0.00358325,-0.00297501,1.39529,0.00379184,0.0116208,1637,456,5.87705,15.4331
420,568,5.84436,-15.0709,-0.00392604,0.00337532,0.000905848,0.00348603,-0.00403674,1.44919,0.00434715,0.0104656,1644,456,5.84432,15.0709
427,568,5.82898,-14.6898,-0.00557448,0.00373223,0.000840364,0.00380751,-0.00564975,1.48146,0.00549457,0.0123244,1651,456,5.82894,14.6898
434,568,5.82642,-14.3133,-0.00718349,0.00388015,0.000622386,0.00391505,-0.00721839,1.51478,0.00652152,0.0166969,1658,456,5.82638,14.3133
441,568,5.76489,-13.97,-0.00917977,0.00392957,0.000338448,0.0039383,-0.0091885,1.545,0.0077782,0.0261677,1665,456,5.76486,13.97
448,568,5.88989,-13.3728,-0.0116016,0.00405676,4.74274e-05,0.00405691,-0.0116017,1.56777,0.00938381,0.0431101,1672,456,5.88992,13.3728
455,568,5.85315,-13.2193,-0.0144443,0.00380211,-0.000296799,0.00380693,-0.0144492,-1.55454,0.0111211,0.0483038,1679,456,5.85319,13.2193
462,568,5.4729,-12.748,-0.0176447,0.00396097,-0.000497565,0.00397242,-0.0176561,-1.54778,0.0132942,0.0487564,1686,456,5.47293,12.748
469,568,5.2323,-12.4893,-0.0213583,0.00465929,-0.000572968,0.0046719,-0.0213709,-1.54879,0.0160331,0.0466411,1693,456,5.23233,12.4893
476,568,4.91565,-11.7079,-0.0257887,0.00546276,-0.000908204,0.00548914,-0.0258151,-1.54177,0.0193017,0.0485908,1700,456,4.91564,11.7079
483,568,4.65784,-10.6863,0,0,0,0,0,0,0,-1,1707,456,4.65786,10.6863
490,568,4.13452,-12.1975,0,0,0,0,0,0,0,-1,1714,456,4.13454,12.1975
497,568,6.599,-4.41254,0,0,0,0,0,0,0,-1,1721,456,6.59905,4.41255
504,568,0,0,0,0,0,0,0,0,0,-1,1728,456,0,0
511,568,0,0,0,0,0,0,0,0,0,-1,1735,456,0,0
518,568,0,0,0,0,0,0,0,0,0,-1,1742,456,0,0
525,568,0,0,0,0,0,0,0,0,0,-1,1749,456,0,0
532,568,0,0,0,0,0,0,0,0,0,-1,1756,456,0,0
539,568,0,0,0,0,0,0,0,0,0,-1,1763,456,0,0
546,568,0,0,0,0,0,0,0,0,0,-1,1770,456,0,0
553,568,0,0,0,0,0,0,0,0,0,-1,1777,456,0,0
560,568,0,0,0,0,0,0,0,0,0,-1,1784,456,0,0
567,568,0,0,0,0,0,0,0,0,0,-1,1791,456,0,0
574,568,0,0,0,0,0,0,0,0,0,-1,1798,456,0,0
581,568,0,0,0,0,0,0,0,0,0,-1,1805,456,0,0
588,568,0,0,0,0,0,0,0,0,0,-1,1812,456,0,0
595,568,0,0,0,0,0,0,0,0,0,-1,1819,456,0,0
602,568,0,0,0,0,0,0,0,0,0,-1,1826,456,0,0
609,568,0,0,0,0,0,0,0,0,0,-1,1833,456,0,0
616,568,0,0,0,0,0,0,0,0,0,-1,1840,456,0,0
623,568,0,0,0,0,0,0,0,0,0,-1,1847,456,0,0
630,568,0,0,0,0,0,0,0,0,0,-1,1854,456,0,0
637,568,0,0,0,0,0,0,0,0,0,-1,1861,456,0,0
644,568,0,0,0,0,0,0,0,0,0,-1,1868,456,0,0
651,568,0,0,0,0,0,0,0,0,0,-1,1875,456,0,0
658,568,0,0,0,0,0,0,0,0,0,-1,1882,456,0,0
665,568,0,0,0,0,0,0,0,0,0,-1,1889,456,0,0
672,568,0,0,0,0,0,0,0,0,0,-1,1896,456,0,0
679,568,0,0,0,0,0,0,0,0,0,-1,1903,456,0,0
686,568,0,0,0,0,0,0,0,0,0,-1,1910,456,0,0
693,568,0,0,0,0,0,0,0,0,0,-1,1917,456,0,0
700,568,0,0,0,0,0,0,0,0,0,-1,1924,456,0,0
707,568,0,0,0,0,0,0,0,0,0,-1,1931,456,0,0
714,568,0,0,0,0,0,0,0,0,0,-1,1938,456,0,0
721,568,0,0,0,0,0,0,0,0,0,-1,1945,456,0,0
728,568,0,0,0,0,0,0,0,0,0,-1,1952,456,0,0
735,568,0,0,0,0,0,0,0,0,0,-1,1959,456,0,0
742,568,0,0,0,0,0,0,0,0,0,-1,1966,456,0,0
749,568,0,0,0,0,0,0,0,0,0,-1,1973,456,0,0
756,568,0,0,0,0,0,0,0,0,0,-1,1980,456,0,0
763,568,0,0,0,0,0,0,0,0,0,-1,1987,456,0,0
770,568,0,0,0,0,0,0,0,0,0,-1,1994,456,0,0
777,568,0,0,0,0,0,0,0,0,0,-1,2001,456,0,0
784,568,0,0,0,0,0,0,0,0,0,-1,2008,456,0,0
791,568,0,0,0,0,0,0,0,0,0,-1,2015,456,0,0
798,568,0,0,0,0,0,0,0,0,0,-1,2022,456,0,0
805,568,0,0,0,0,0,0,0,0,0,-1,2029,456,0,0
812,568,0,0,0,0,0,0,0,0,0,-1,2036,456,0,0
-700,561,0,0,0,0,0,0,0,0,0,-1,524,463,0,0
-693,561,0,0,0,0,0,0,0,0,0,-1,531,463,0,0
-686,561,0,0,0,0,0,0,0,0,0,-1,538,463,0,0
-679,561,0,0,0,0,0,0,0,0,0,-1,545,463,0,0
-672,561,0,0,0,0,0,0,0,0,0,-1,552,463,0,0
-665,561,0,0,0,0,0,0,0,0,0,-1,559,463,0,0
-658,561,0,0,0,0,0,0,0,0,0,-1,566,463,0,0
-651,561,0,0,0,0,0,0,0,0,0,-1,573,463,0,0
-644,561,0,0,0,0,0,0,0,0,0,-1,580,463,0,0
-637,561,0,0,0,0,0,0,0,0,0,-1,587,463,0,0
-630,561,0,0,0,0,0,0,0,0,0,-1,594,463,0,0
-623,561,0,0,0,0,0,0,0,0,0,-1,601,463,0,0
-616,561,0,0,0,0,0,0,0,0,0,-1,608,463,0,0
-609,561,0,0,0,0,0,0,0,0,0,-1,615,463,0,0
-602,561,0,0,0,0,0,0,0,0,0,-1,622,463,0,0
-595,561,0,0,0,0,0,0,0,0,0,-1,629,463,0,0
-588,561,0,0,0,0,0,0,0,0,0,-1,636,463,0,0
-581,561,0,0,0,0,0,0,0,0,0,-1,643,463,0,0
-574,561,0,0,0,0,0,0,0,0,0,-1,650,463,0,0
-567,561,0,0,0,0,0,0,0,0,0,-1,657,463,0,0
-560,561,0,0,0,0,0,0,0,0,0,-1,664,463,0,0
-553,561,0,0,0,0,0,0,0,0,0,-1,671,463,0,0
-546,561,0,0,0,0,0,0,0,0,0,-1,678,463,0,0
-539,561,0,0,0,0,0,0,0,0,0,-1,685,463,0,0
-532,561,0,0,0,0,0,0,0,0,0,-1,692,463,0,0
-525,561,0,0,0,0,0,0,0,0,0,-1,699,463,0,0
-518,561,0,0,0,0,0,0,0,0,0,-1,706,463,0,0
-511,561,0,0,0,0,0,0,0,0,0,-1,713,463,0,0
-504,561,0,0,0,0,0,0,0,0,0,-1,720,463,0,0
-497,561,0,0,0,0,0,0,0,0,0,-1,727,463,0,0
-490,561,0,0,0,0,0,0,0,0,0,-1,734,463,0,0
-483,561,0,0,0,0,0,0,0,0,0,-1,741,463,0,0
-476,561,0,0,0,0,0,0,0,0,0,-1,748,463,0,0
-469,561,0,0,0,0,0,0,0,0,0,-1,755,463,0,0
-462,561,0,0,0,0,0,0,0,0,0,-1,762,463,0,0
-455,561,0,0,0,0,0,0,0,0,0,-1,769,463,0,0
-448,561,0,0,0,0,0,0,0,0,0,-1,776,463,0,0
-441,561,0,0,0,0,0,0,0,0,0,-1,783,463,0,0
-434,561,0,0,0,0,0,0,0,0,0,-1,790,463,0,0
-427,561,0,0,0,0,0,0,0,0,0,-1,797,463,0,0
-420,561,0,0,0,0,0,0,0,0,0,-1,804,463,0,0
-413,561,0,0,0,0,0,0,0,0,0,-1,811,463,0,0
-406,561,0,0,0,0,0,0,0,0,0,-1,818,463,0,0
-399,561,0,0,0,0,0,0,0,0,0,-1,825,463,0,0
-392,561,4.92407,-2.54578,0,0,0,0,0,0,0,-1,832,463,4.92408,2.54576
-385,561,5.55634,-1.02338,0,0,0,0,0,0,0,-1,839,463,5.55634,1.02338
-378,561,0.160522,-4.51785,0,0,0,0,0,0,0,-1,846,463,0.160542,4.51785
-371,561,1.06299,-7.56818,0,0,0,0,0,0,0,-1,853,463,1.06297,7.56817
-364,561,1.45264,-7.57684,0,0,0,0,0,0,0,-1,860,463,1.45264,7.57684
-357,561,0.948242,-12.2803,0,0,0,0,0,0,0,-1,867,463,0.948262,12.2803
-350,561,1.33124,-11.9406,0,0,0,0,0,0,0,-1,874,463,1.33127,11.9406
-343,561,1.48627,-12.8598,0,0,0,0,0,0,0,-1,881,463,1.48629,12.8598
-336,561,1.42041,-13.8184,0,0,0,0,0,0,0,-1,888,463,1.4204,13.8184
-329,561,1.30463,-14.6244,-0.000892828,0.00174807,-0.00349345,0.00416229,-0.00330705,-0.966088,0.00432184,0.0383805,895,463,1.3046,14.6244
-322,561,1.33386,-14.8221,-0.000853258,0.00206749,-0.0030048,0.003948,-0.00273376,-1.0116,0.00387889,0.0320098,902,463,1.33386,14.8221
-315,561,1.41718,-15.0522,-0.000672385,0.00270202,-0.00273062,0.00422464,-0.002195,-1.06213,0.00376762,0.0212044,909,463,1.41717,15.0522
-308,561,1.39075,-15.5112,-0.000544831,0.00327155,-0.00246489,0.00448055,-0.00175383,-1.11479,0.0037124,0.0162292,916,463,1.39076,15.5112
-301,561,1.34875,-15.9847,-0.000500726,0.00355095,-0.00219837,0.00451457,-0.00146434,-1.15769,0.00359855,0.012735,923,463,1.34874,15.9847
-294,561,1.30463,-16.3423,-0.000432457,0.00367591,-0.00192825,0.00443914,-0.00119569,-1.1939,0.00342822,0.0115329,930,463,1.30464,16.3423
-287,561,1.29431,-16.6716,-0.000345575,0.00324317,-0.00154579,0.00381718,-0.000919584,-1.21524,0.00290032,0.00972455,937,463,1.29433,16.6716
-280,561,1.27826,-17.0008,-0.000247421,0.0028062,-0.00126161,0.00326,-0.000701221,-1.22551,0.00244088,0.0119334,944,463,1.27827,17.0008
-273,561,1.2392,-17.3327,-0.000225582,0.00215889,-0.0010138,0.00253165,-0.000598345,-1.21845,0.00191857,0.0150888,951,463,1.23921,17.3327
-266,561,1.22345,-17.6534,-0.000256395,0.00107222,-0.000576948,0.00128779,-0.000471958,-1.21323,0.00105175,0.00977727,958,463,1.22348,17.6533
-259,561,1.22559,-17.975,-0.000244898,-0.000193117,0.000185428,-3.17807e-05,-0.000406235,0.854763,0.000260876,0.0104168,965,463,1.22557,17.975
-252,561,1.20978,-18.2955,-0.000366563,-0.00126412,0.00085557,0.000150785,-0.00178147,0.543855,0.00124097,0.0147792,972,463,1.20978,18.2955
-245,561,1.2016,-18.6071,-0.000400002,-0.00336017,0.00164749,0.000334611,-0.00409478,0.419437,0.00284795,0.0175474,979,463,1.20163,18.6071
-238,561,1.22455,-18.9208,-0.000393611,-0.00541867,0.0026462,0.000742855,-0.00655514,0.405652,0.00463758,0.0131836,986,463,1.22453,18.9208
-231,561,1.21539,-19.2291,-0.000518869,-0.00715746,0.00368043,0.00111797,-0.0087943,0.418473,0.00626884,0.0101806,993,463,1.21538,19.2291
-224,561,1.20868,-19.5306,-0.000546737,-0.00883156,0.00473569,0.00160262,-0.0109809,0.426062,0.00790912,0.0110447,1000,463,1.20866,19.5306
-217,561,1.23108,-19.8173,-0.000374833,-0.01044,0.00573753,0.00222451,-0.0130393,0.425381,0.00952139,0.0115367,1007,463,1.23107,19.8173
-210,561,1.25104,-20.0959,-0.000179356,-0.0121373,0.00650726,0.00267868,-0.0149953,0.413842,0.010999,0.011701,1014,463,1.25101,20.0958
-203,561,1.25848,-20.3838,-5.68574e-05,-0.0138192,0.00702818,0.00289792,-0.0167739,0.397984,0.0122633,0.0129933,1021,463,1.2585,20.3838
-196,561,1.24292,-20.6328,-0.000152533,-0.0157292,0.00793563,0.00317813,-0.0190599,0.397382,0.0138877,0.0147779,1028,463,1.24291,20.6328
-189,561,1.24036,-20.8616,-0.000270839,-0.0171925,0.00845503,0.00322966,-0.020693,0.392528,0.0149883,0.0192049,1035,463,1.24033,20.8616
-182,561,1.29297,-21.1336,-0.000371247,-0.0189887,0.00894363,0.00322898,-0.0225889,0.3827,0.0162429,0.0218042,1042,463,1.293,21.1336
-175,561,1.27478,-21.4002,-0.000653585,-0.0207483,0.00933622,0.00301454,-0.0244164,0.374363,0.0173699,0.0320355,1049,463,1.27484,21.4002
-168,561,1.4137,-21.5621,-0.000903676,-0.0224771,0.00959309,0.002745,-0.0261258,0.363448,0.0184006,0.046499,1056,463,1.41368,21.5621
-161,561,1.55493,-21.6263,-0.00129337,-0.0242838,0.00930684,0.00200187,-0.027579,0.340292,0.0190883,0.048876,1063,463,1.55489,21.6262
-154,561,1.17639,-21.6443,-0.0022201,-0.0261736,0.00908222,0.000834093,-0.0292278,0.324402,0.0197691,0.0472107,1070,463,1.17644,21.6443
-147,561,0.885132,-21.7509,-0.00327948,-0.0286616,0.00913732,-0.000332331,-0.0316088,0.312005,0.0209626,0.0471492,1077,463,0.885123,21.7509
-140,561,0.731079,-21.7367,0,0,0,0,0,0,0,-1,1084,463,0.731109,21.7367
-133,561,1.92224,-20.9314,0,0,0,0,0,0,0,-1,1091,463,1.92219,20.9314
-126,561,1.08459,-22.4612,0,0,0,0,0,0,0,-1,1098,463,1.08458,22.4612
-119,561,1.31396,-22.5273,0,0,0,0,0,0,0,-1,1105,463,1.31395,22.5272
-112,561,1.54333,-22.5933,0,0,0,0,0,0,0,-1,1112,463,1.54333,22.5933
-105,561,0.530518,-13.5379,0,0,0,0,0,0,0,-1,1119,463,0.530477,13.5379
-98,561,1.5387,-7.54352,0,0,0,0,0,0,0,-1,1126,463,1.53871,7.54351
-91,561,1.29553,-6.57968,0,0,0,0,0,0,0,-1,1133,463,1.29549,6.5797
-84,561,1.23364,-5.84555,0,0,0,0,0,0,0,-1,1140,463,1.23363,5.84556
-77,561,-2.36023,1.00204,0,0,0,0,0,0,0,-1,1147,463,-2.3602,-1.00205
-70,561,-3.90015,-1.41541,0,0,0,0,0,0,0,-1,1154,463,-3.90009,1.4154
-63,561,-6.95691,-4.02756,0,0,0,0,0,0,0,-1,1161,463,-6.95696,4.02756
-56,561,-5.37988,-6.66855,0,0,0,0,0,0,0,-1,1168,463,-5.37988,6.66854
-49,561,-5.7439,-9.11029,0,0,0,0,0,0,0,-1,1175,463,-5.74387,9.1103
-42,561,-1.72644,-5.63065,0,0,0,0,0,0,0,-1,1182,463,-1.72648,5.63064
-35,561,-1.65674,-4.87994,0,0,0,0,0,0,0,-1,1189,463,-1.6567,4.87993
-28,561,-1.91418,-3.86896,0,0,0,0,0,0,0,-1,1196,463,-1.91414,3.86895
-21,561,-4.39136,-23.387,0,0,0,0,0,0,0,-1,1203,463,-4.39133,23.387
-14,561,3.35034,-22.1601,0,0,0,0,0,0,0,-1,1210,463,3.3503,22.1601
-7,561,3.45508,-23.2049,0,0,0,0,0,0,0,-1,1217,463,3.45506,23.2049
0,561,6.86096,-23.2062,0,0,0,0,0,0,0,-1,1224,463,6.86099,23.2063
7,561,6.41687,-24.0911,-0.0347935,-0.0376527,-0.0090205,-0.02709,-0.0453562,-0.70681,0.0263511,0.0439885,1231,463,6.4169,24.0911
14,561,6.18506,-25.0432,-0.027974,-0.0300689,-0.00940691,-0.0195564,-0.0384865,-0.729951,0.0222212,0.0440137,1238,463,6.185,25.0431
21,561,5.51831,-25.5367,-0.0214891,-0.0231944,-0.0101637,-0.0121423,-0.0325412,-0.74355,0.0189882,0.0449665,1245,463,5.51831,25.5367
28,561,5.17566,-25.4323,-0.0158625,-0.0172296,-0.0122624,-0.00426457,-0.0288275,-0.757556,0.0179663,0.0469053,1252,463,5.17562,25.4323
35,561,5.08887,-25.5385,-0.0126956,-0.012954,-0.0154612,0.00263697,-0.0282865,-0.78122,0.0197953,0.0434391,1259,463,5.08889,25.5385
42,561,4.9552,-25.4961,0,0,0,0,0,0,0,-1,1266,463,4.95517,25.4961
49,561,4.86475,-25.4799,-0.0161005,-0.00537426,-0.0218782,0.0117886,-0.0332633,-0.905596,0.0269777,0.0426386,1273,463,4.86476,25.4799
56,561,4.81702,-25.4658,-0.0221835,0.000772105,-0.0245585,0.0164026,-0.0378141,-1.004,0.0321054,0.0417866,1280,463,4.81704,25.4658
63,561,5.25208,-25.894,-0.0121883,0.00510513,-0.0222811,0.0203585,-0.0274416,-0.970489,0.0276982,0.0453355,1287,463,5.25202,25.894
70,561,5.12366,-26.3254,-0.00310157,0.0100024,-0.0271225,0.031353,-0.0244522,-0.903912,0.0323012,0.0461706,1294,463,5.12362,26.3254
77,561,4.64014,-26.7686,0.00284498,0.0111762,-0.0296552,0.0369569,-0.0229357,-0.855175,0.0348934,0.0485714,1301,463,4.64016,26.7685
84,561,3.95837,-27.2812,0.0083116,0.0119768,-0.0286214,0.0388243,-0.0185358,-0.817369,0.0338003,0.0471102,1308,463,3.95836,27.2812
91,561,2.90125,-27.5182,0.0160957,0.0189337,-0.0262457,0.0437987,-0.00876942,-0.812405,0.0325189,0.04369,1315,463,2.90119,27.5182
98,561,2.01477,-27.5731,0.0256644,0.0219024,-0.0220099,0.0458735,0.00169326,-0.742771,0.0300338,0.0468981,1322,463,2.01477,27.5731
105,561,1.19287,-27.6957,0,0,0,0,0,0,0,-1,1329,463,1.19283,27.6957
112,561,6.75513,-24.6501,0,0,0,0,0,0,0,-1,1336,463,6.75514,24.6502
119,561,6.85181,-24.2318,0.0531356,0.0223333,-0.0174184,0.0609851,0.0144837,-0.423393,0.0367918,0.0432867,1343,463,6.85179,24.2318
126,561,7.0531,-23.7057,0.0580252,0.00946221,-0.0182266,0.0641048,0.00338257,-0.321954,0.0416548,0.0432538,1350,463,7.05308,23.7057
133,561,6.97913,-23.2917,0.0569895,-0.00807208,-0.019773,0.0625274,-0.01361,-0.273077,0.0468847,0.0464747,1357,463,6.97907,23.2917
140,561,7.0885,-22.9054,0,0,0,0,0,0,0,-1,1364,463,7.08849,22.9054
147,561,7.05994,-23.5924,0.0339717,-0.0530597,-0.0196635,0.0382082,-0.0572961,-0.212205,0.0555054,0.046836,1371,463,7.05992,23.5924
154,561,5.96484,-24.199,0.00950431,-0.0760194,-0.0153522,0.0121767,-0.0786917,-0.172342,0.0569556,0.0447949,1378,463,5.96487,24.199
161,561,5.3678,-24.3367,-0.018008,-0.0687908,-0.00354202,-0.0177621,-0.0690367,-0.0693011,0.0413942,0.0488789,1385,463,5.36778,24.3367
168,561,4.81873,-24.5483,0,0,0,0,0,0,0,-1,1392,463,4.81871,24.5483
175,561,10.4185,0.276398,0,0,0,0,0,0,0,-1,1399,463,10.4185,-0.276394
182,561,6.45703,-4.02127,0,0,0,0,0,0,0,-1,1406,463,6.45704,4.02127
189,561,6.50854,-2.08685,0,0,0,0,0,0,0,-1,1413,463,6.50851,2.08686
196,561,6.44775,-0.27182,0,0,0,0,0,0,0,-1,1420,463,6.44773,0.271814
203,561,6.18591,1.1301,0,0,0,0,0,0,0,-1,1427,463,6.18592,-1.13009
210,561,5.68713,2.68427,0,0,0,0,0,0,0,-1,1434,463,5.6871,-2.68425
217,561,3.61743,-7.33582,0,0,0,0,0,0,0,-1,1441,463,3.61738,7.33581
224,561,4.27466,-8.59171,0,0,0,0,0,0,0,-1,1448,463,4.27466,8.59171
231,561,4.93188,-9.8476,0,0,0,0,0,0,0,-1,1455,463,4.93193,9.84761
238,561,2.18018,-5.18359,0,0,0,0,0,0,0,-1,1462,463,2.18023,5.18359
245,561,3.07568,-3.50238,0,0,0,0,0,0,0,-1,1469,463,3.0757,3.50238
252,561,3.47412,-3.71109,0,0,0,0,0,0,0,-1,1476,463,3.47413,3.71109
259,561,3.42212,-3.2334,0,0,0,0,0,0,0,-1,1483,463,3.42214,3.2334
266,561,4.44373,-5.90027,0,0,0,0,0,0,0,-1,1490,463,4.44372,5.90026
273,561,2.59485,-3.65268,0,0,0,0,0,0,0,-1,1497,463,2.5948,3.65268
280,561,3.10767,-6.38235,0,0,0,0,0,0,0,-1,1504,463,3.10766,6.38235
287,561,4.91809,-14.429,0,0,0,0,0,0,0,-1,1511,463,4.9181,14.429
294,561,6.27185,-20.7749,0,0,0,0,0,0,0,-1,1518,463,6.27184,20.7749
301,561,6.1554,-20.4881,0.00338397,-0.00407849,-0.00230397,0.00403798,-0.0047325,-0.276588,0.00506893,0.0397004,1525,463,6.15539,20.4881
308,561,6.19043,-20.2558,0.00289417,-0.00466346,-0.00253784,0.00366728,-0.00543658,-0.295704,0.0052891,0.0319196,1532,463,6.19038,20.2558
315,561,6.19788,-20.056,0.00243015,-0.00460351,-0.00255215,0.00325862,-0.00543198,-0.313882,0.00506955,0.0195652,1539,463,6.19789,20.056
322,561,6.19763,-19.8112,0.00196016,-0.00427854,-0.00242145,0.00278971,-0.00510809,-0.330051,0.00462482,0.0196882,1546,463,6.19761,19.8112
329,561,6.22021,-19.4748,0.00161786,-0.0036854,-0.00214774,0.00237855,-0.0044461,-0.340396,0.00400003,0.0150932,1553,463,6.2202,19.4748
336,561,6.25977,-19.1436,0.00127062,-0.0030898,-0.00190149,0.00198333,-0.00380251,-0.358609,0.00339505,0.0118141,1560,463,6.25975,19.1436
343,561,6.27966,-18.847,0.000913894,-0.00249472,-0.00165926,0.0015882,-0.00316902,-0.386003,0.00279668,0.010439,1567,463,6.2797,18.847
350,561,6.25854,-18.5437,0.00071045,-0.00188857,-0.00127023,0.00122814,-0.00240626,-0.387003,0.00213475,0.00984153,1574,463,6.25849,18.5437
357,561,6.24353,-18.218,0.000542628,-0.00116427,-0.000863505,0.000903269,-0.00152491,-0.395627,0.00141714,0.0104003,1581,463,6.24356,18.2181
364,561,6.27209,-17.9255,0.000397362,-0.000542627,-0.00046531,0.000588736,-0.000734001,-0.390195,0.000765216,0.00989976,1588,463,6.27206,17.9255
371,561,6.26733,-17.5881,0.000281979,-1.2057e-06,-7.65952e-05,0.000301369,-2.05954e-05,-0.247936,0.000208118,0.0160524,1595,463,6.26728,17.5881
378,561,6.24817,-17.2328,0.000130515,0.000527729,0.00026029,0.000656529,1.71494e-06,1.11129,0.000437116,0.0116604,1602,463,6.24823,17.2328
385,561,6.24048,-16.8923,-9.28754e-05,0.00114686,0.000519226,0.0013356,-0.000281606,1.22216,0.000997603,0.0102758,1609,463,6.24051,16.8923
392,561,6.22839,-16.5396,-0.000328982,0.00155905,0.000718108,0.00180114,-0.000571071,1.24564,0.00142966,0.013623,1616,463,6.22834,16.5396
399,561,6.21875,-16.2087,-0.000567679,0.00202544,0.000905091,0.0023101,-0.00085234,1.26608,0.00188939,0.0179851,1623,463,6.21876,16.2087
406,561,6.23083,-15.8229,-0.00102124,0.00230349,0.0010185,0.00259069,-0.00130844,1.29595,0.00229138,0.0170103,1630,463,6.23083,15.8229
413,561,6.21887,-15.4309,-0.00171513,0.00256071,0.000944952,0.00276023,-0.00191465,1.36271,0.00271372,0.0160956,1637,463,6.21891,15.4309
420,561,6.18896,-15.0831,-0.00261511,0.00260846,0.000832793,0.00273802,-0.00274466,1.41646,0.00316543,0.0129765,1644,463,6.18894,15.0831
427,561,6.19397,-14.6908,-0.00391926,0.00293893,0.000832045,0.00303844,-0.00401876,1.45178,0.00408756,0.0102788,1651,463,6.19399,14.6908
434,561,6.20728,-14.3047,-0.00518658,0.00305395,0.000707727,0.00311429,-0.00524692,1.48574,0.00487941,0.012514,1658,463,6.20725,14.3047
441,561,6.17346,-13.9484,-0.00671967,0.00305353,0.000541014,0.00308339,-0.00674953,1.51566,0.00580708,0.015545,1665,463,6.17348,13.9484
448,561,6.11658,-13.5446,-0.00856115,0.00309683,0.000380729,0.00310925,-0.00857357,1.53818,0.00698669,0.0211026,1672,463,6.11656,13.5446
455,561,6.13611,-13.1196,-0.0107223,0.0028983,0.000178513,0.00290064,-0.0107246,1.55769,0.00828759,0.0383374,1679,463,6.13616,13.1196
462,561,5.97461,-12.7571,-0.0131924,0.00289001,3.09497e-05,0.00289007,-0.0131925,1.56887,0.00989999,0.0373793,1686,463,5.97457,12.7571
469,561,5.95459,-12.4225,-0.0160984,0.00351116,-9.56945e-05,0.00351163,-0.0160989,-1.56592,0.0120746,0.0253038,1693,463,5.95457,12.4225
476,561,5.69666,-11.8556,-0.0195589,0.0041092,-0.000424561,0.00411681,-0.0195665,-1.55287,0.0146112,0.0414047,1700,463,5.69663,11.8556
483,561,5.28992,-11.1803,0,0,0,0,0,0,0,-1,1707,463,5.28988,11.1803
490,561,4.98474,-10.5826,0,0,0,0,0,0,0,-1,1714,463,4.9847,10.5826
497,561,7.30652,-2.46649,0,0,0,0,0,0,0,-1,1721,463,7.30649,2.4665
504,561,6.45044,-2.35263,0,0,0,0,0,0,0,-1,1728,463,6.4504,2.35263
511,561,0,0,0,0,0,0,0,0,0,-1,1735,463,0,0
518,561,0,0,0,0,0,0,0,0,0,-1,1742,463,0,0
525,561,0,0,0,0,0,0,0,0,0,-1,1749,463,0,0
532,561,0,0,0,0,0,0,0,0,0,-1,1756,463,0,0
539,561,0,0,0,0,0,0,0,0,0,-1,1763,463,0,0
546,561,0,0,0,0,0,0,0,0,0,-1,1770,463,0,0
553,561,0,0,0,0,0,0,0,0,0,-1,1777,463,0,0
560,561,0,0,0,0,0,0,0,0,0,-1,1784,463,0,0
567,561,0,0,0,0,0,0,0,0,0,-1,1791,463,0,0
574,561,0,0,0,0,0,0,0,0,0,-1,1798,463,0,0
581,561,0,0,0,0,0,0,0,0,0,-1,1805,463,0,0
588,561,0,0,0,0,0,0,0,0,0,-1,1812,463,0,0
595,561,0,0,0,0,0,0,0,0,0,-1,1819,463,0,0
602,561,0,0,0,0,0,0,0,0,0,-1,1826,463,0,0
609,561,0,0,0,0,0,0,0,0,0,-1,1833,463,0,0
616,561,0,0,0,0,0,0,0,0,0,-1,1840,463,0,0
623,561,0,0,0,0,0,0,0,0,0,-1,1847,463,0,0
630,561,0,0,0,0,0,0,0,0,0,-1,1854,463,0,0
637,561,0,0,0,0,0,0,0,0,0,-1,1861,463,0,0
644,561,0,0,0,0,0,0,0,0,0,-1,1868,463,0,0
651,561,0,0,0,0,0,0,0,0,0,-1,1875,463,0,0
658,561,0,0,0,0,0,0,0,0,0,-1,1882,463,0,0
665,561,0,0,0,0,0,0,0,0,0,-1,1889,463,0,0
672,561,0,0,0,0,0,0,0,0,0,-1,1896,463,0,0
679,561,0,0,0,0,0,0,0,0,0,-1,1903,463,0,0
686,561,0,0,0,0,0,0,0,0,0,-1,1910,463,0,0
693,561,0,0,0,0,0,0,0,0,0,-1,1917,463,0,0
700,561,0,0,0,0,0,0,0,0,0,-1,1924,463,0,0
707,561,0,0,0,0,0,0,0,0,0,-1,1931,463,0,0
714,561,0,0,0,0,0,0,0,0,0,-1,1938,463,0,0
721,561,0,0,0,0,0,0,0,0,0,-1,1945,463,0,0
728,561,0,0,0,0,0,0,0,0,0,-1,1952,463,0,0
735,561,0,0,0,0,0,0,0,0,0,-1,1959,463,0,0
742,561,0,0,0,0,0,0,0,0,0,-1,1966,463,0,0
749,561,0,0,0,0,0,0,0,0,0,-1,1973,463,0,0
756,561,0,0,0,0,0,0,0,0,0,-1,1980,463,0,0
763,561,0,0,0,0,0,0,0,0,0,-1,1987,463,0,0
770,561,0,0,0,0,0,0,0,0,0,-1,1994,463,0,0
777,561,0,0,0,0,0,0,0,0,0,-1,2001,463,0,0
784,561,0,0,0,0,0,0,0,0,0,-1,2008,463,0,0
791,561,0,0,0,0,0,0,0,0,0,-1,2015,463,0,0
798,561,0,0,0,0,0,0,0,0,0,-1,2022,463,0,0
805,561,0,0,0,0,0,0,0,0,0,-1,2029,463,0,0
812,561,0,0,0,0,0,0,0,0,0,-1,2036,463,0,0
-700,554,0,0,0,0,0,0,0,0,0,-1,524,470,0,0
-693,554,0,0,0,0,0,0,0,0,0,-1,531,470,0,0
-686,554,0,0,0,0,0,0,0,0,0,-1,538,470,0,0
-679,554,0,0,0,0,0,0,0,0,0,-1,545,470,0,0
-672,554,0,0,0,0,0,0,0,0,0,-1,552,470,0,0
-665,554,0,0,0,0,0,0,0,0,0,-1,559,470,0,0
-658,554,0,0,0,0,0,0,0,0,0,-1,566,470,0,0
-651,554,0,0,0,0,0,0,0,0,0,-1,573,470,0,0
-644,554,0,0,0,0,0,0,0,0,0,-1,580,470,0,0
-637,554,0,0,0,0,0,0,0,0,0,-1,587,470,0,0
-630,554,0,0,0,0,0,0,0,0,0,-1,594,470,0,0
-623,554,0,0,0,0,0,0,0,0,0,-1,601,470,0,0
-616,554,0,0,0,0,0,0,0,0,0,-1,608,470,0,0
-609,554,0,0,0,0,0,0,0,0,0,-1,615,470,0,0
-602,554,0,0,0,0,0,0,0,0,0,-1,622,470,0,0
-595,554,0,0,0,0,0,0,0,0,0,-1,629,470,0,0
-588,554,0,0,0,0,0,0,0,0,0,-1,636,470,0,0
-581,554,0,0,0,0,0,0,0,0,0,-1,643,470,0,0
-574,554,0,0,0,0,0,0,0,0,0,-1,650,470,0,0
-567,554,0,0,0,0,0,0,0,0,0,-1,657,470,0,0
-560,554,0,0,0,0,0,0,0,0,0,-1,664,470,0,0
-553,554,0,0,0,0,0,0,0,0,0,-1,671,470,0,0
-546,554,0,0,0,0,0,0,0,0,0,-1,678,470,0,0
-539,554,0,0,0,0,0,0,0,0,0,-1,685,470,0,0
-532,554,0,0,0,0,0,0,0,0,0,-1,692,470,0,0
-525,554,0,0,0,0,0,0,0,0,0,-1,699,470,0,0
-518,554,0,0,0,0,0,0,0,0,0,-1,706,470,0,0
-511,554,0,0,0,0,0,0,0,0,0,-1,713,470,0,0
-504,554,0,0,0,0,0,0,0,0,0,-1,720,470,0,0
-497,554,0,0,0,0,0,0,0,0,0,-1,727,470,0,0
-490,554,0,0,0,0,0,0,0,0,0,-1,734,470,0,0
-483,554,0,0,0,0,0,0,0,0,0,-1,741,470,0,0
-476,554,0,0,0,0,0,0,0,0,0,-1,748,470,0,0
-469,554,0,0,0,0,0,0,0,0,0,-1,755,470,0,0
-462,554,0,0,0,0,0,0,0,0,0,-1,762,470,0,0
-455,554,0,0,0,0,0,0,0,0,0,-1,769,470,0,0
-448,554,0,0,0,0,0,0,0,0,0,-1,776,470,0,0
-441,554,0,0,0,0,0,0,0,0,0,-1,783,470,0,0
-434,554,0,0,0,0,0,0,0,0,0,-1,790,470,0,0
-427,554,0,0,0,0,0,0,0,0,0,-1,797,470,0,0
-420,554,0,0,0,0,0,0,0,0,0,-1,804,470,0,0
-413,554,0,0,0,0,0,0,0,0,0,-1,811,470,0,0
-406,554,0,0,0,0,0,0,0,0,0,-1,818,470,0,0
-399,554,-1.32275,-3.95142,0,0,0,0,0,0,0,-1,825,470,-1.32275,3.95141
-392,554,-1.35632,-3.7406,0,0,0,0,0,0,0,-1,832,470,-1.35632,3.7406
-385,554,-0.849243,-4.14447,0,0,0,0,0,0,0,-1,839,470,-0.849262,4.14446
-378,554,-0.982666,-4.55084,0,0,0,0,0,0,0,-1,846,470,-0.982671,4.55084
-371,554,-1.74542,-4.63467,0,0,0,0,0,0,0,-1,853,470,-1.74541,4.63468
-364,554,1.04883,-7.68756,0,0,0,0,0,0,0,-1,860,470,1.0488,7.68757
-357,554,1.06714,-11.5403,0,0,0,0,0,0,0,-1,867,470,1.06715,11.5403
-350,554,1.20203,-13.0514,0,0,0,0,0,0,0,-1,874,470,1.20205,13.0514
-343,554,1.11499,-13.3609,-0.00182811,0.00297454,-0.0041692,0.00538451,-0.00423808,-1.04668,0.00556873,0.0483326,881,470,1.11499,13.3609
-336,554,1.08563,-13.9668,-0.00144871,0.00279068,-0.00390443,0.00511369,-0.00377172,-1.03408,0.00514946,0.0365221,888,470,1.08561,13.9668
-329,554,1.02643,-14.5075,-0.00116666,0.00255892,-0.00340243,0.00457511,-0.00318285,-1.03585,0.00450304,0.0171683,895,470,1.02644,14.5075
-322,554,0.995911,-14.8787,-0.00100637,0.00252062,-0.00294706,0.00419152,-0.00267728,-1.05502,0.0039977,0.0114904,902,470,0.995941,14.8787
-315,554,1.00641,-15.2361,-0.000777623,0.00273829,-0.00261443,0.00413084,-0.00217017,-1.08138,0.00369613,0.0113035,909,470,1.00638,15.2361
-308,554,0.989441,-15.6048,-0.00058074,0.00293737,-0.00229598,0.00407068,-0.00171405,-1.11228,0.00343096,0.0126434,916,470,0.989423,15.6048
-301,554,1.00354,-15.9762,-0.000468604,0.0028866,-0.00194455,0.00377719,-0.00135919,-1.14131,0.00307307,0.0134646,923,470,1.00356,15.9762
-294,554,0.953125,-16.3302,-0.000354292,0.00268819,-0.00157254,0.00335489,-0.00102099,-1.16981,0.00264348,0.0123248,930,470,0.953118,16.3302
-287,554,0.927185,-16.6611,-0.000189664,0.00213848,-0.0011538,0.00261341,-0.000664592,-1.18031,0.00200094,0.0116491,937,470,0.927198,16.6611
-280,554,0.921509,-16.9994,-4.52506e-05,0.00148659,-0.000817558,0.00184095,-0.000399614,-1.1618,0.00137993,0.0107358,944,470,0.921537,16.9994
-273,554,0.895874,-17.332,-6.80521e-05,0.000575104,-0.000485579,0.000835934,-0.000328882,-1.07787,0.000693421,0.013873,951,470,0.895902,17.332
-266,554,0.888916,-17.6524,-0.000184096,-0.00075154,0.000103137,-0.000165931,-0.000769704,0.174331,0.000467741,0.0115944,958,470,0.888917,17.6524
-259,554,0.901306,-17.9641,-0.000255768,-0.00231715,0.00100622,0.000153957,-0.00272687,0.386692,0.00187135,0.0115862,965,470,0.901314,17.9641
-252,554,0.8927,-18.2598,-0.000452172,-0.00373529,0.00194452,0.000451045,-0.00463851,0.434841,0.00325313,0.0148877,972,470,0.892727,18.2598
-245,554,0.870361,-18.5846,-0.000606016,-0.0061196,0.00297613,0.00069395,-0.00741956,0.41182,0.00519317,0.017113,979,470,0.870384,18.5846
-238,554,0.896301,-18.921,-0.000755952,-0.00843116,0.00420444,0.00109894,-0.010286,0.41549,0.00725149,0.012096,986,470,0.89628,18.921
-231,554,0.910767,-19.2284,-0.00101654,-0.0105781,0.00551114,0.00149847,-0.0130931,0.428123,0.00926867,0.00963397,993,470,0.910746,19.2284
-224,554,0.921814,-19.5109,-0.00119595,-0.0127203,0.00692424,0.00205008,-0.0159663,0.438372,0.0113892,0.0107548,1000,470,0.921814,19.5109
-217,554,0.937744,-19.7921,-0.00113953,-0.0147495,0.00828615,0.00277781,-0.0186668,0.441617,0.0134663,0.0110631,1007,470,0.937738,19.7921
-210,554,0.959595,-20.0959,-0.000989902,-0.0168537,0.00935003,0.00333943,-0.0211831,0.433636,0.0153567,0.013741,1014,470,0.95961,20.0959
-203,554,0.962463,-20.3954,-0.000924708,-0.0189315,0.0100849,0.00359099,-0.0234472,0.420997,0.0169557,0.0232613,1021,470,0.962463,20.3954
-196,554,0.833252,-20.5171,-0.00111808,-0.0213362,0.0112795,0.00391945,-0.0263737,0.420032,0.019024,0.0328242,1028,470,0.833297,20.5171
-189,554,0.972046,-20.5554,-0.00130621,-0.0231557,0.0119659,0.00397193,-0.0284338,0.415426,0.0204091,0.0398452,1035,470,0.972099,20.5554
-182,554,1.01477,-21.1135,0,0,0,0,0,0,0,-1,1042,470,1.01476,21.1135
-175,554,0.948608,-21.3962,0,0,0,0,0,0,0,-1,1049,470,0.948636,21.3962
-168,554,1.23047,-21.5499,0,0,0,0,0,0,0,-1,1056,470,1.23049,21.5499
-161,554,1.40222,-21.3671,-0.00263022,-0.0319055,0.012766,0.00215457,-0.0366903,0.358602,0.0252091,0.0499924,1063,470,1.40227,21.3671
-154,554,1.41675,-21.4142,-0.00402188,-0.0343939,0.0122481,0.000301884,-0.0387177,0.339358,0.025913,0.0474538,1070,470,1.4167,21.4142
-147,554,1.46277,-21.4679,0,0,0,0,0,0,0,-1,1077,470,1.46273,21.4679
-140,554,1.59045,-22.645,0,0,0,0,0,0,0,-1,1084,470,1.59041,22.645
-133,554,1.48523,-20.8091,0,0,0,0,0,0,0,-1,1091,470,1.48518,20.8091
-126,554,0.532715,-15.1913,0,0,0,0,0,0,0,-1,1098,470,0.532762,15.1913
-119,554,0.955811,-22.0815,0,0,0,0,0,0,0,-1,1105,470,0.955773,22.0815
-112,554,0.53186,-16.7545,0,0,0,0,0,0,0,-1,1112,470,0.531912,16.7545
-105,554,2.82129,-9.46112,0,0,0,0,0,0,0,-1,1119,470,2.82127,9.46112
-98,554,1.51929,-7.3624,0,0,0,0,0,0,0,-1,1126,470,1.51928,7.36241
-91,554,1.41089,-6.5864,0,0,0,0,0,0,0,-1,1133,470,1.41093,6.58638
-84,554,1.62305,-5.87186,0,0,0,0,0,0,0,-1,1140,470,1.62299,5.87186
-77,554,-2.56958,1.33258,0,0,0,0,0,0,0,-1,1147,470,-2.56959,-1.33257
-70,554,-3.68164,-1.18332,0,0,0,0,0,0,0,-1,1154,470,-3.68158,1.18331
-63,554,-4.86853,-3.88708,0,0,0,0,0,0,0,-1,1161,470,-4.86853,3.88708
-56,554,-5.69958,-6.45422,0,0,0,0,0,0,0,-1,1168,470,-5.69955,6.45422
-49,554,-6.23645,-8.8569,0,0,0,0,0,0,0,-1,1175,470,-6.23643,8.85689
-42,554,-6.62524,-11.5382,0,0,0,0,0,0,0,-1,1182,470,-6.62522,11.5382
-35,554,-2.40173,-4.59482,0,0,0,0,0,0,0,-1,1189,470,-2.40169,4.59481
-28,554,-0.760132,-1.65555,0,0,0,0,0,0,0,-1,1196,470,-0.760095,1.65556
-21,554,-5.474,-23.4337,0,0,0,0,0,0,0,-1,1203,470,-5.47404,23.4337
-14,554,-4.60291,-23.5594,0,0,0,0,0,0,0,-1,1210,470,-4.6029,23.5594
-7,554,4.39697,-23.806,0,0,0,0,0,0,0,-1,1217,470,4.39694,23.806
0,554,6.86865,-23.2327,0,0,0,0,0,0,0,-1,1224,470,6.86866,23.2327
7,554,6.11279,-23.6878,-0.0469548,-0.0414566,-0.00940851,-0.0344038,-0.0540076,-0.927538,0.0315692,0.0462787,1231,470,6.11281,23.6878
14,554,5.81335,-25.2017,-0.0376294,-0.0328104,-0.00854095,-0.0263456,-0.0440942,-0.922883,0.0256186,0.0493242,1238,470,5.81334,25.2017
21,554,4.88,-25.3138,-0.0287885,-0.0261661,-0.00853317,-0.018844,-0.0361106,-0.861629,0.0208551,0.0457905,1245,470,4.88003,25.3138
28,554,4.48975,-25.2385,-0.021823,-0.0210256,-0.0105357,-0.0108811,-0.0319675,-0.80431,0.0187673,0.0469164,1252,470,4.48981,25.2385
35,554,4.73059,-25.0511,-0.0173726,-0.0181304,-0.0139734,-0.00377295,-0.03173,-0.771843,0.0200146,0.0440461,1259,470,4.73059,25.0512
42,554,4.63135,-24.9876,0,0,0,0,0,0,0,-1,1266,470,4.63131,24.9876
49,554,4.55481,-24.8321,-0.0214004,-0.0167327,-0.0240329,0.0050794,-0.0432125,-0.833802,0.0306422,0.0457743,1273,470,4.55486,24.8321
56,554,4.53357,-25.0285,-0.027385,-0.0177722,-0.0298855,0.00769091,-0.0528481,-0.86513,0.0380557,0.0435118,1280,470,4.53362,25.0285
63,554,5.75232,-26.0714,-0.015939,-0.024454,-0.0312837,0.0113755,-0.0517686,-0.717767,0.0388632,0.043976,1287,470,5.75226,26.0714
70,554,5.67896,-26.3645,0,0,0,0,0,0,0,-1,1294,470,5.67901,26.3645
77,554,5.04541,-26.5149,-0.000622813,-0.038765,-0.0425697,0.0269525,-0.0663403,-0.574805,0.0554397,0.0470203,1301,470,5.04546,26.5149
84,554,4.14001,-26.9225,0.0035344,-0.0446872,-0.0426267,0.0283967,-0.0695495,-0.528017,0.0581893,0.0470065,1308,470,4.14006,26.9225
91,554,3.35498,-27.5204,0.0120021,-0.0399919,-0.0388214,0.0327271,-0.0607169,-0.490363,0.0547507,0.0442957,1315,470,3.35497,27.5204
98,554,2.67627,-27.0492,0.0244904,-0.0353916,-0.0316157,0.0380926,-0.0489939,-0.406298,0.0504106,0.0450758,1322,470,2.67625,27.0492
105,554,1.78552,-27.086,0,0,0,0,0,0,0,-1,1329,470,1.78553,27.086
112,554,6.86047,-24.3463,0.0473383,-0.0220134,-0.0226347,0.0540719,-0.028747,-0.289154,0.048555,0.0434606,1336,470,6.86043,24.3463
119,554,7.30127,-23.7417,0.0561151,-0.0226261,-0.0177634,0.0599369,-0.0264479,-0.211919,0.0511083,0.0404631,1343,470,7.30125,23.7417
126,554,7.56494,-23.1529,0.0620635,-0.0293578,-0.0158419,0.0647309,-0.0320252,-0.166808,0.056916,0.0420026,1350,470,7.565,23.1529
133,554,6.82166,-23.2071,0.0613942,-0.0408379,-0.0147446,0.0634782,-0.042922,-0.140415,0.0618112,0.0410287,1357,470,6.8217,23.2071
140,554,7.1499,-21.935,0.0511145,-0.0585649,-0.0140607,0.0528883,-0.0603388,-0.125495,0.0654189,0.0455331,1364,470,7.14993,21.935
147,554,8.04517,-20.5674,0.0313066,-0.0804249,-0.00973076,0.0321477,-0.0812661,-0.0862255,0.0674954,0.0482544,1371,470,8.04516,20.5674
154,554,8.9093,-19.1421,0,0,0,0,0,0,0,-1,1378,470,8.90929,19.1421
161,554,4.8844,-24.3361,0,0,0,0,0,0,0,-1,1385,470,4.88438,24.3361
168,554,4.22144,-24.4583,0,0,0,0,0,0,0,-1,1392,470,4.2214,24.4583
175,554,10.663,0.286957,0,0,0,0,0,0,0,-1,1399,470,10.663,-0.286966
182,554,6.71106,-4.50217,0,0,0,0,0,0,0,-1,1406,470,6.71107,4.50215
189,554,6.90479,-2.50348,0,0,0,0,0,0,0,-1,1413,470,6.90477,2.50348
196,554,6.96216,-0.740906,0,0,0,0,0,0,0,-1,1420,470,6.96214,0.740912
203,554,6.43518,0.414154,0,0,0,0,0,0,0,-1,1427,470,6.43523,-0.414141
210,554,6.21167,1.96707,0,0,0,0,0,0,0,-1,1434,470,6.21165,-1.96706
217,554,5.64551,3.4989,0,0,0,0,0,0,0,-1,1441,470,5.64555,-3.49891
224,554,4.85144,-8.85172,0,0,0,0,0,0,0,-1,1448,470,4.85146,8.85173
231,554,3.25073,-5.29642,0,0,0,0,0,0,0,-1,1455,470,3.25078,5.29642
238,554,4.28625,-3.25253,0,0,0,0,0,0,0,-1,1462,470,4.28622,3.25252
245,554,4.0752,-2.90033,0,0,0,0,0,0,0,-1,1469,470,4.07515,2.90032
252,554,3.52112,-0.934998,0,0,0,0,0,0,0,-1,1476,470,3.52113,0.934996
259,554,3.96448,-2.16425,0,0,0,0,0,0,0,-1,1483,470,3.96446,2.16424
266,554,3.0592,-2.71716,0,0,0,0,0,0,0,-1,1490,470,3.05923,2.71718
273,554,2.58521,-3.06876,0,0,0,0,0,0,0,-1,1497,470,2.58524,3.06874
280,554,2.83301,-0.991699,0,0,0,0,0,0,0,-1,1504,470,2.83303,0.991704
287,554,3.54126,-4.12277,0,0,0,0,0,0,0,-1,1511,470,3.54123,4.12277
294,554,3.62036,-8.50146,0,0,0,0,0,0,0,-1,1518,470,3.62031,8.50145
301,554,6.3374,-20.1048,0,0,0,0,0,0,0,-1,1525,470,6.33742,20.1048
308,554,6.46729,-20.1747,0,0,0,0,0,0,0,-1,1532,470,6.46729,20.1747
315,554,6.49524,-20.0508,0,0,0,0,0,0,0,-1,1539,470,6.49525,20.0508
322,554,6.45911,-19.8598,0,0,0,0,0,0,0,-1,1546,470,6.45905,19.8598
329,554,6.51428,-19.2296,0.00163419,-0.00519052,-0.00306579,0.00280913,-0.00636545,-0.365976,0.00542798,0.0374807,1553,470,6.5143,19.2296
336,554,6.53394,-19.1075,0.00130217,-0.00443411,-0.00277994,0.00242832,-0.00556025,-0.384892,0.00472888,0.0206409,1560,470,6.53393,19.1075
343,554,6.56323,-18.845,0.000957714,-0.00370549,-0.00249991,0.00204458,-0.00479236,-0.41011,0.00405218,0.0122545,1567,470,6.56317,18.845
350,554,6.59119,-18.5217,0.000793518,-0.00306136,-0.00207161,0.00169567,-0.00396351,-0.410716,0.00335364,0.0100438,1574,470,6.59115,18.5217
357,554,6.58862,-18.206,0.000692952,-0.00223914,-0.00162406,0.0014148,-0.00296099,-0.418245,0.0025784,0.0114591,1581,470,6.58868,18.206
364,554,6.58997,-17.9149,0.000650807,-0.00156354,-0.00114687,0.00113773,-0.00205046,-0.401505,0.00186568,0.00942519,1588,470,6.59003,17.9149
371,554,6.5946,-17.58,0.000619017,-0.000967889,-0.000698484,0.000882658,-0.00123153,-0.360915,0.00122615,0.00873887,1595,470,6.59461,17.58
378,554,6.59167,-17.2179,0.00055043,-0.000393871,-0.000317801,0.000647422,-0.000490863,-0.296219,0.000659258,0.0103162,1602,470,6.5917,17.2179
385,554,6.59302,-16.8808,0.000422594,0.000337967,4.93391e-05,0.000445279,0.000315282,0.430952,0.000264397,0.00985019,1609,470,6.593,16.8808
392,554,6.58276,-16.5343,0.000255914,0.000799341,0.000313708,0.000942647,0.000112609,1.14229,0.000594461,0.0128108,1616,470,6.58274,16.5343
399,554,6.55884,-16.1751,7.18017e-05,0.00122376,0.000541236,0.00143815,-0.000142592,1.19364,0.00100966,0.0167328,1623,470,6.55886,16.1751
406,554,6.55847,-15.8076,-0.000269612,0.00155319,0.000702878,0.00179274,-0.000509162,1.24233,0.00139618,0.0154637,1630,470,6.55841,15.8075
413,554,6.56238,-15.4178,-0.000774348,0.00189881,0.000747458,0.00209361,-0.000969153,1.31584,0.00180758,0.0155581,1637,470,6.56242,15.4178
420,554,6.55017,-15.0906,-0.00147639,0.00202161,0.000725812,0.00216624,-0.00162101,1.37412,0.00219411,0.0170277,1644,470,6.55014,15.0906
427,554,6.54492,-14.7068,-0.00250508,0.00233869,0.000771162,0.0024585,-0.00262489,1.41666,0.00293542,0.0120485,1651,470,6.54492,14.7068
434,554,6.53503,-14.3289,-0.00351591,0.00245185,0.000720202,0.00253753,-0.0036016,1.45238,0.00356213,0.0104899,1658,470,6.53502,14.3289
441,554,6.52405,-13.9521,-0.00469909,0.00243108,0.000643244,0.00248865,-0.00475665,1.48154,0.00425084,0.0113423,1665,470,6.52411,13.9522
448,554,6.50903,-13.5445,-0.00610362,0.0024236,0.000576915,0.00246246,-0.00614247,1.50355,0.00511726,0.014833,1672,470,6.50904,13.5445
455,554,6.48169,-13.1456,-0.0077457,0.00224331,0.000473879,0.00226574,-0.00776813,1.5235,0.00607648,0.0165614,1679,470,6.48174,13.1456
462,554,6.41638,-12.7928,-0.00964307,0.00212771,0.000374559,0.00213962,-0.00965498,1.53902,0.00725579,0.0186436,1686,470,6.41635,12.7928
469,554,6.37219,-12.4161,-0.0119355,0.00270496,0.000239772,0.00270889,-0.0119395,1.55442,0.00899953,0.0247063,1693,470,6.37225,12.4161
476,554,6.18982,-11.7379,-0.0146466,0.00315512,-3.92236e-05,0.00315521,-0.0146467,-1.56859,0.0109685,0.0440756,1700,470,6.18978,11.7379
483,554,6.00342,-11.0756,0,0,0,0,0,0,0,-1,1707,470,6.00348,11.0756
490,554,7.31543,-3.51794,0,0,0,0,0,0,0,-1,1714,470,7.3154,3.51794
497,554,7.9751,-2.43454,0,0,0,0,0,0,0,-1,1721,470,7.97505,2.43453
504,554,2.13257,-3.81628,0,0,0,0,0,0,0,-1,1728,470,2.1326,3.8163
511,554,1.31396,-4.02713,0,0,0,0,0,0,0,-1,1735,470,1.31398,4.02712
518,554,5.04236,-5.9472,0,0,0,0,0,0,0,-1,1742,470,5.04231,5.94721
525,554,0,0,0,0,0,0,0,0,0,-1,1749,470,0,0
532,554,0,0,0,0,0,0,0,0,0,-1,1756,470,0,0
539,554,0,0,0,0,0,0,0,0,0,-1,1763,470,0,0
546,554,0,0,0,0,0,0,0,0,0,-1,1770,470,0,0
553,554,0,0,0,0,0,0,0,0,0,-1,1777,470,0,0
560,554,0,0,0,0,0,0,0,0,0,-1,1784,470,0,0
567,554,0,0,0,0,0,0,0,0,0,-1,1791,470,0,0
574,554,0,0,0,0,0,0,0,0,0,-1,1798,470,0,0
581,554,0,0,0,0,0,0,0,0,0,-1,1805,470,0,0
588,554,0,0,0,0,0,0,0,0,0,-1,1812,470,0,0
595,554,0,0,0,0,0,0,0,0,0,-1,1819,470,0,0
602,554,0,0,0,0,0,0,0,0,0,-1,1826,470,0,0
609,554,0,0,0,0,0,0,0,0,0,-1,1833,470,0,0
616,554,0,0,0,0,0,0,0,0,0,-1,1840,470,0,0
623,554,0,0,0,0,0,0,0,0,0,-1,1847,470,0,0
630,554,0,0,0,0,0,0,0,0,0,-1,1854,470,0,0
637,554,0,0,0,0,0,0,0,0,0,-1,1861,470,0,0
644,554,0,0,0,0,0,0,0,0,0,-1,1868,470,0,0
651,554,0,0,0,0,0,0,0,0,0,-1,1875,470,0,0
658,554,0,0,0,0,0,0,0,0,0,-1,1882,470,0,0
665,554,0,0,0,0,0,0,0,0,0,-1,1889,470,0,0
672,554,0,0,0,0,0,0,0,0,0,-1,1896,470,0,0
679,554,0,0,0,0,0,0,0,0,0,-1,1903,470,0,0
686,554,0,0,0,0,0,0,0,0,0,-1,1910,470,0,0
693,554,0,0,0,0,0,0,0,0,0,-1,1917,470,0,0
700,554,0,0,0,0,0,0,0,0,0,-1,1924,470,0,0
707,554,0,0,0,0,0,0,0,0,0,-1,1931,470,0,0
714,554,0,0,0,0,0,0,0,0,0,-1,1938,470,0,0
721,554,0,0,0,0,0,0,0,0,0,-1,1945,470,0,0
728,554,0,0,0,0,0,0,0,0,0,-1,1952,470,0,0
735,554,0,0,0,0,0,0,0,0,0,-1,1959,470,0,0
742,554,0,0,0,0,0,0,0,0,0,-1,1966,470,0,0
749,554,0,0,0,0,0,0,0,0,0,-1,1973,470,0,0
756,554,0,0,0,0,0,0,0,0,0,-1,1980,470,0,0
763,554,0,0,0,0,0,0,0,0,0,-1,1987,470,0,0
770,554,0,0,0,0,0,0,0,0,0,-1,1994,470,0,0
777,554,0,0,0,0,0,0,0,0,0,-1,2001,470,0,0
784,554,0,0,0,0,0,0,0,0,0,-1,2008,470,0,0
791,554,0,0,0,0,0,0,0,0,0,-1,2015,470,0,0
798,554,0,0,0,0,0,0,0,0,0,-1,2022,470,0,0
805,554,0,0,0,0,0,0,0,0,0,-1,2029,470,0,0
812,554,0,0,0,0,0,0,0,0,0,-1,2036,470,0,0
-700,547,0,0,0,0,0,0,0,0,0,-1,524,477,0,0
-693,547,0,0,0,0,0,0,0,0,0,-1,531,477,0,0
-686,547,0,0,0,0,0,0,0,0,0,-1,538,477,0,0
-679,547,0,0,0,0,0,0,0,0,0,-1,545,477,0,0
-672,547,0,0,0,0,0,0,0,0,0,-1,552,477,0,0
-665,547,0,0,0,0,0,0,0,0,0,-1,559,477,0,0
-658,547,0,0,0,0,0,0,0,0,0,-1,566,477,0,0
-651,547,0,0,0,0,0,0,0,0,0,-1,573,477,0,0
-644,547,0,0,0,0,0,0,0,0,0,-1,580,477,0,0
-637,547,0,0,0,0,0,0,0,0,0,-1,587,477,0,0
-630,547,0,0,0,0,0,0,0,0,0,-1,594,477,0,0
-623,547,0,0,0,0,0,0,0,0,0,-1,601,477,0,0
-616,547,0,0,0,0,0,0,0,0,0,-1,608,477,0,0
-609,547,0,0,0,0,0,0,0,0,0,-1,615,477,0,0
-602,547,0,0,0,0,0,0,0,0,0,-1,622,477,0,0
-595,547,0,0,0,0,0,0,0,0,0,-1,629,477,0,0
-588,547,0,0,0,0,0,0,0,0,0,-1,636,477,0,0
-581,547,0,0,0,0,0,0,0,0,0,-1,643,477,0,0
-574,547,0,0,0,0,0,0,0,0,0,-1,650,477,0,0
-567,547,0,0,0,0,0,0,0,0,0,-1,657,477,0,0
-560,547,0,0,0,0,0,0,0,0,0,-1,664,477,0,0
-553,547,0,0,0,0,0,0,0,0,0,-1,671,477,0,0
-546,547,0,0,0,0,0,0,0,0,0,-1,678,477,0,0
-539,547,0,0,0,0,0,0,0,0,0,-1,685,477,0,0
-532,547,0,0,0,0,0,0,0,0,0,-1,692,477,0,0
-525,547,0,0,0,0,0,0,0,0,0,-1,699,477,0,0
-518,547,0,0,0,0,0,0,0,0,0,-1,706,477,0,0
-511,547,0,0,0,0,0,0,0,0,0,-1,713,477,0,0
-504,547,0,0,0,0,0,0,0,0,0,-1,720,477,0,0
-497,547,0,0,0,0,0,0,0,0,0,-1,727,477,0,0
-490,547,0,0,0,0,0,0,0,0,0,-1,734,477,0,0
-483,547,0,0,0,0,0,0,0,0,0,-1,741,477,0,0
-476,547,0,0,0,0,0,0,0,0,0,-1,748,477,0,0
-469,547,0,0,0,0,0,0,0,0,0,-1,755,477,0,0
-462,547,0,0,0,0,0,0,0,0,0,-1,762,477,0,0
-455,547,0,0,0,0,0,0,0,0,0,-1,769,477,0,0
-448,547,0,0,0,0,0,0,0,0,0,-1,776,477,0,0
-441,547,0,0,0,0,0,0,0,0,0,-1,783,477,0,0
-434,547,0,0,0,0,0,0,0,0,0,-1,790,477,0,0
-427,547,0,0,0,0,0,0,0,0,0,-1,797,477,0,0
-420,547,0,0,0,0,0,0,0,0,0,-1,804,477,0,0
-413,547,0,0,0,0,0,0,0,0,0,-1,811,477,0,0
-406,547,-0.391418,-10.4779,0,0,0,0,0,0,0,-1,818,477,-0.391439,10.4779
-399,547,-0.0641479,-11.2271,0,0,0,0,0,0,0,-1,825,477,-0.0641304,11.2271
-392,547,-1.52271,-4.41675,0,0,0,0,0,0,0,-1,832,477,-1.52273,4.41674
-385,547,-1.73743,-4.6431,0,0,0,0,0,0,0,-1,839,477,-1.73743,4.64308
-378,547,-2.41339,-4.60071,0,0,0,0,0,0,0,-1,846,477,-2.41337,4.60071
-371,547,1.64569,-11.1445,0,0,0,0,0,0,0,-1,853,477,1.64569,11.1445
-364,547,0.271729,-4.58582,0,0,0,0,0,0,0,-1,860,477,0.271753,4.5858
-357,547,1.17725,-13.4926,0,0,0,0,0,0,0,-1,867,477,1.17722,13.4926
-350,547,0.943665,-13.5378,0,0,0,0,0,0,0,-1,874,477,0.943686,13.5378
-343,547,0.748657,-13.5914,-0.00188796,0.00330586,-0.00362294,0.00516649,-0.00374859,-1.09635,0.00516878,0.0421428,881,477,0.748647,13.5914
-336,547,0.729919,-14.1002,-0.00153726,0.00299924,-0.00339277,0.00481215,-0.00335017,-1.08005,0.00473765,0.0175195,888,477,0.729948,14.1002
-329,547,0.685913,-14.505,-0.00121427,0.00267183,-0.00298161,0.00428764,-0.00283007,-1.07418,0.00413803,0.00953818,895,477,0.685932,14.505
-322,547,0.673706,-14.8806,-0.000987653,0.00245611,-0.00257515,0.00383201,-0.00236355,-1.08009,0.00361035,0.0110824,902,477,0.673695,14.8805
-315,547,0.656067,-15.2589,-0.000786118,0.00241628,-0.00220555,0.00354057,-0.00191041,-1.09938,0.00319369,0.0101732,909,477,0.656048,15.2589
-308,547,0.649841,-15.6132,-0.000570811,0.00238457,-0.00186719,0.00328804,-0.00147429,-1.12014,0.00281522,0.0111989,916,477,0.649835,15.6132
-301,547,0.651611,-15.9761,-0.000420175,0.00213084,-0.00147269,0.00280359,-0.00109293,-1.14228,0.0023208,0.0111367,923,477,0.651625,15.9761
-294,547,0.61554,-16.3177,-0.0002843,0.00169867,-0.00104304,0.00214627,-0.000731905,-1.16543,0.0017273,0.00989165,930,477,0.615541,16.3177
-287,547,0.590515,-16.6458,-7.35777e-05,0.00102773,-0.000583387,0.0012793,-0.000325145,-1.16367,0.000979409,0.0111602,937,477,0.590498,16.6458
-280,547,0.577332,-16.9769,0.000102947,0.000179376,-0.000199387,0.000344178,-6.18552e-05,-0.88008,0.000252607,0.0120792,944,477,0.577315,16.9769
-273,547,0.576904,-17.3168,3.29544e-05,-0.00101741,0.00020535,7.16738e-05,-0.00105613,0.186365,0.000729154,0.0116351,951,477,0.576922,17.3168
-266,547,0.570679,-17.6571,-0.000167784,-0.00261505,0.000953026,0.000159562,-0.0029424,0.330855,0.00201689,0.0112437,958,477,0.570693,17.6571
-259,547,0.566345,-17.9704,-0.000327297,-0.00454232,0.00201657,0.000482064,-0.00535168,0.381675,0.00373885,0.0108464,965,477,0.566323,17.9704
-252,547,0.591187,-18.2766,-0.000613189,-0.0063792,0.00323808,0.000839341,-0.00783173,0.421671,0.00552224,0.0118289,972,477,0.591192,18.2766
-245,547,0.605103,-18.5975,-0.000914683,-0.00916412,0.00454802,0.00110045,-0.0111793,0.417084,0.00784542,0.0130306,979,477,0.605124,18.5975
-238,547,0.599182,-18.9092,-0.00127364,-0.0118627,0.00606924,0.00148588,-0.0146222,0.426734,0.0102793,0.00894597,986,477,0.599185,18.9092
-231,547,0.603699,-19.2208,-0.0017426,-0.0145697,0.0077305,0.00188847,-0.0182008,0.43912,0.0128098,0.00817413,993,477,0.603697,19.2208
-224,547,0.612488,-19.4878,-0.00217746,-0.0173742,0.00961877,0.00248207,-0.0220337,0.451107,0.0155825,0.0111767,1000,477,0.612516,19.4878
-217,547,0.63208,-19.7767,-0.0023355,-0.0200295,0.0114687,0.00330197,-0.025667,0.456868,0.0183115,0.0178644,1007,477,0.632077,19.7767
-210,547,0.635742,-19.9738,-0.00239666,-0.0227605,0.0129815,0.00391962,-0.0290768,0.452838,0.0208144,0.0309534,1014,477,0.635734,19.9738
-203,547,0.69635,-19.9447,-0.00248655,-0.02536,0.0140075,0.0041601,-0.0320066,0.443046,0.022851,0.0407236,1021,477,0.696373,19.9447
-196,547,0.814331,-19.7345,-0.00281405,-0.0283501,0.0155843,0.00456467,-0.0357288,0.442202,0.0254775,0.0445312,1028,477,0.814344,19.7345
-189,547,0.912964,-19.6343,0,0,0,0,0,0,0,-1,1035,477,0.912906,19.6343
-182,547,1.01147,-19.386,0,0,0,0,0,0,0,-1,1042,477,1.01146,19.386
-175,547,-0.350098,-12.3584,0,0,0,0,0,0,0,-1,1049,477,-0.350098,12.3584
-168,547,1.12463,-8.66785,0,0,0,0,0,0,0,-1,1056,477,1.12461,8.66786
-161,547,1.17334,-21.148,0,0,0,0,0,0,0,-1,1063,477,1.17339,21.148
-154,547,1.20337,-21.2439,0,0,0,0,0,0,0,-1,1070,477,1.20333,21.2439
-147,547,1.28992,-21.2779,0,0,0,0,0,0,0,-1,1077,477,1.28986,21.2779
-140,547,1.22058,-22.5538,0,0,0,0,0,0,0,-1,1084,477,1.22055,22.5538
-133,547,2.31665,-17.9421,0,0,0,0,0,0,0,-1,1091,477,2.31667,17.9421
-126,547,0.784302,-9.76431,0,0,0,0,0,0,0,-1,1098,477,0.78428,9.76432
-119,547,0.190308,-15.7633,0,0,0,0,0,0,0,-1,1105,477,0.190348,15.7633
-112,547,4.36194,-9.23029,0,0,0,0,0,0,0,-1,1112,477,4.36195,9.23029
-105,547,4.448,-9.17819,0,0,0,0,0,0,0,-1,1119,477,4.44799,9.1782
-98,547,1.50391,-7.20621,0,0,0,0,0,0,0,-1,1126,477,1.50395,7.20621
-91,547,1.37805,-7.12024,0,0,0,0,0,0,0,-1,1133,477,1.37804,7.12025
-84,547,1.94202,-6.66241,0,0,0,0,0,0,0,-1,1140,477,1.94201,6.66241
-77,547,-2.28357,1.8588,0,0,0,0,0,0,0,-1,1147,477,-2.28356,-1.85879
-70,547,-3.70178,-0.874908,0,0,0,0,0,0,0,-1,1154,477,-3.70182,0.874918
-63,547,-5.12012,-3.60861,0,0,0,0,0,0,0,-1,1161,477,-5.12009,3.60862
-56,547,-6.01917,-6.2399,0,0,0,0,0,0,0,-1,1168,477,-6.01921,6.23991
-49,547,-6.729,-8.60349,0,0,0,0,0,0,0,-1,1175,477,-6.72899,8.60348
-42,547,-2.41736,-5.53012,0,0,0,0,0,0,0,-1,1182,477,-2.41734,5.53011
-35,547,-2.96838,-4.45734,0,0,0,0,0,0,0,-1,1189,477,-2.96839,4.45734
-28,547,-0.869141,-1.29901,0,0,0,0,0,0,0,-1,1196,477,-0.869135,1.29901
-21,547,-6.88196,-23.4703,0,0,0,0,0,0,0,-1,1203,477,-6.88193,23.4703
-14,547,-5.7002,-23.4902,0,0,0,0,0,0,0,-1,1210,477,-5.70017,23.4902
-7,547,-4.89648,-23.7823,0,0,0,0,0,0,0,-1,1217,477,-4.89649,23.7823
0,547,2.38538,-29.9146,0,0,0,0,0,0,0,-1,1224,477,2.38543,29.9146
7,547,5.96167,-23.3528,0,0,0,0,0,0,0,-1,1231,477,5.96171,23.3527
14,547,0,0,0,0,0,0,0,0,0,-1,1238,477,0,0
21,547,0,0,0,0,0,0,0,0,0,-1,1245,477,0,0
28,547,0,0,0,0,0,0,0,0,0,-1,1252,477,0,0
35,547,0,0,0,0,0,0,0,0,0,-1,1259,477,0,0
42,547,0,0,0,0,0,0,0,0,0,-1,1266,477,0,0
49,547,0,0,0,0,0,0,0,0,0,-1,1273,477,0,0
56,547,0,0,0,0,0,0,0,0,0,-1,1280,477,0,0
63,547,0,0,0,0,0,0,0,0,0,-1,1287,477,0,0
70,547,0,0,0,0,0,0,0,0,0,-1,1294,477,0,0
77,547,0,0,0,0,0,0,0,0,0,-1,1301,477,0,0
84,547,0,0,0,0,0,0,0,0,0,-1,1308,477,0,0
91,547,0,0,0,0,0,0,0,0,0,-1,1315,477,0,0
98,547,0,0,0,0,0,0,0,0,0,-1,1322,477,0,0
105,547,6.35217,-24.9156,0,0,0,0,0,0,0,-1,1329,477,6.35219,24.9156
112,547,6.89551,-24.0253,0.0423088,-0.0998008,-0.023335,0.0460424,-0.103534,-0.158656,0.088459,0.0426876,1336,477,6.8955,24.0253
119,547,7.53784,-23.3171,0.0523315,-0.0940966,-0.0133431,0.0535374,-0.0953026,-0.0901348,0.0870532,0.0410035,1343,477,7.53786,23.3171
126,547,8.05933,-22.5226,0.0605099,-0.0915052,-0.00725684,0.0608555,-0.0918508,-0.0475933,0.0887684,0.044753,1350,477,8.05928,22.5226
133,547,6.92004,-23.4511,0.0618039,-0.0928028,-0.00210085,0.0618324,-0.0928313,-0.013585,0.089891,0.0435683,1357,477,6.92004,23.4512
140,547,7.38928,-22.3099,0.0505248,-0.102847,0.00185501,0.0505473,-0.102869,0.0120925,0.0902757,0.042693,1364,477,7.38924,22.3099
147,547,8.4541,-20.6299,0.0257923,-0.120093,0.0106347,0.0265635,-0.120864,0.0723876,0.090736,0.0450492,1371,477,8.4541,20.6299
154,547,9.30103,-19.0156,0,0,0,0,0,0,0,-1,1378,477,9.30103,19.0156
161,547,4.41003,-24.4213,0,0,0,0,0,0,0,-1,1385,477,4.41,24.4213
168,547,5.25208,-34.9506,0,0,0,0,0,0,0,-1,1392,477,5.25209,34.9506
175,547,3.35034,-0.26532,0,0,0,0,0,0,0,-1,1399,477,3.3503,0.265306
182,547,4.26038,3.72672,0,0,0,0,0,0,0,-1,1406,477,4.26039,-3.7267
189,547,3.40454,1.28671,0,0,0,0,0,0,0,-1,1413,477,3.40457,-1.28673
196,547,3.53931,1.87793,0,0,0,0,0,0,0,-1,1420,477,3.53928,-1.87794
203,547,6.49414,-0.425842,0,0,0,0,0,0,0,-1,1427,477,6.4941,0.425844
210,547,4.82092,0.53595,0,0,0,0,0,0,0,-1,1434,477,4.82096,-0.535942
217,547,4.68579,0.480072,0,0,0,0,0,0,0,-1,1441,477,4.68577,-0.480069
224,547,4.55615,0.739807,0,0,0,0,0,0,0,-1,1448,477,4.55613,-0.73981
231,547,5.90869,-3.57721,0,0,0,0,0,0,0,-1,1455,477,5.90871,3.57722
238,547,5.50049,-3.15356,0,0,0,0,0,0,0,-1,1462,477,5.50045,3.15356
245,547,5.13708,-2.65213,0,0,0,0,0,0,0,-1,1469,477,5.13708,2.65212
252,547,3.73511,-0.645233,0,0,0,0,0,0,0,-1,1476,477,3.73515,0.645237
259,547,5.86816,-3.20816,0,0,0,0,0,0,0,-1,1483,477,5.86815,3.20816
266,547,5.40222,-2.45731,0,0,0,0,0,0,0,-1,1490,477,5.40221,2.45732
273,547,3.05737,0.495789,0,0,0,0,0,0,0,-1,1497,477,3.05742,-0.49578
280,547,2.0885,1.47797,0,0,0,0,0,0,0,-1,1504,477,2.08848,-1.47795
287,547,2.31177,-2.21716,0,0,0,0,0,0,0,-1,1511,477,2.31174,2.21717
294,547,2.4823,-3.03659,0,0,0,0,0,0,0,-1,1518,477,2.48229,3.0366
301,547,4.72119,-3.93454,0,0,0,0,0,0,0,-1,1525,477,4.72119,3.93453
308,547,4.07471,-5.42175,0,0,0,0,0,0,0,-1,1532,477,4.07468,5.42174
315,547,3.58496,-6.62112,0,0,0,0,0,0,0,-1,1539,477,3.58497,6.62113
322,547,5.73926,-14.1878,0,0,0,0,0,0,0,-1,1546,477,5.73926,14.1878
329,547,6.68042,-19.1282,0,0,0,0,0,0,0,-1,1553,477,6.6804,19.1282
336,547,6.82751,-19.2341,0,0,0,0,0,0,0,-1,1560,477,6.82752,19.2341
343,547,6.98999,-18.9195,0.000924509,-0.00499511,-0.00333401,0.00242296,-0.00649356,-0.422392,0.00532377,0.0365378,1567,477,6.98996,18.9195
350,547,6.95801,-18.5561,0.000833248,-0.0042781,-0.00285198,0.0021071,-0.00555196,-0.420069,0.00456862,0.0228102,1574,477,6.95803,18.5561
357,547,6.93665,-18.227,0.000829684,-0.00331852,-0.00235263,0.00189194,-0.00438078,-0.424117,0.00371537,0.0143008,1581,477,6.93668,18.227
364,547,6.91431,-17.9007,0.000906342,-0.00256388,-0.00179103,0.0016649,-0.00332243,-0.400627,0.00293197,0.0100594,1588,477,6.9143,17.9007
371,547,6.91858,-17.5523,0.000962097,-0.00188241,-0.00128359,0.00145567,-0.00237599,-0.367099,0.00223338,0.00961787,1595,477,6.91857,17.5523
378,547,6.91785,-17.2072,0.000787889,-0.00129481,-0.000956185,0.00116029,-0.00166721,-0.371395,0.00164118,0.0109981,1602,477,6.9178,17.2072
385,547,6.92346,-16.8695,0.000631864,-0.00052526,-0.000524087,0.000833943,-0.000727339,-0.368017,0.000902107,0.0114604,1609,477,6.92352,16.8695
392,547,6.91809,-16.5305,0.000473649,-3.47948e-05,-0.000224135,0.000558344,-0.00011949,-0.361292,0.000417795,0.0117284,1616,477,6.91804,16.5305
399,547,6.90417,-16.1651,0.000293334,0.000338487,2.19669e-05,0.00034741,0.00028441,1.18494,0.000213725,0.0128271,1623,477,6.9042,16.1651
406,547,6.90698,-15.8037,3.07868e-05,0.000715352,0.000215758,0.000777679,-3.15404e-05,1.28958,0.000529279,0.0124414,1630,477,6.90693,15.8037
413,547,6.91174,-15.4425,-0.000303721,0.0011506,0.000369875,0.00123927,-0.000392385,1.33552,0.000983423,0.0133512,1637,477,6.91176,15.4425
420,547,6.9281,-15.1003,-0.000812626,0.00135497,0.000432026,0.00143791,-0.00089556,1.38114,0.0013593,0.0162829,1644,477,6.92809,15.1003
427,547,6.93396,-14.7083,-0.00156694,0.00167372,0.000526661,0.00175716,-0.00165038,1.41367,0.00196767,0.015127,1651,477,6.93393,14.7083
434,547,6.88342,-14.3349,-0.00231509,0.00182756,0.000559607,0.00190182,-0.00238935,1.43886,0.00248284,0.0104257,1658,477,6.88337,14.3349
441,547,6.86523,-13.9717,-0.00315006,0.0018451,0.000585367,0.00191278,-0.00321774,1.45569,0.00299388,0.0109889,1665,477,6.86528,13.9717
448,547,6.85205,-13.5805,-0.00413332,0.00185614,0.000624023,0.00192047,-0.00419764,1.46808,0.00361293,0.0113496,1672,477,6.85204,13.5805
455,547,6.85095,-13.1761,-0.00529173,0.00173626,0.000628437,0.00179202,-0.00534748,1.48231,0.00428899,0.0108606,1679,477,6.85091,13.1761
462,547,6.81726,-12.7867,-0.00666154,0.00161297,0.000607309,0.0016573,-0.00670588,1.49792,0.00511334,0.0110754,1686,477,6.81728,12.7867
469,547,6.77869,-12.4001,-0.00840443,0.00219767,0.000516182,0.00222274,-0.0084295,1.52226,0.00648875,0.019062,1693,477,6.77865,12.4001
476,547,6.78235,-11.7717,-0.0104781,0.00258778,0.000314412,0.00259534,-0.0104856,1.54675,0.00799717,0.036735,1700,477,6.78235,11.7717
483,547,6.81787,-11.109,0,0,0,0,0,0,0,-1,1707,477,6.81785,11.109
490,547,3.65271,-3.71707,0,0,0,0,0,0,0,-1,1714,477,3.65277,3.71708
497,547,2.55481,-3.81421,0,0,0,0,0,0,0,-1,1721,477,2.55476,3.8142
504,547,4.01953,-2.22714,0,0,0,0,0,0,0,-1,1728,477,4.0195,2.22713
511,547,5.2146,-6.9552,0,0,0,0,0,0,0,-1,1735,477,5.21464,6.95521
518,547,5.24243,-6.56122,0,0,0,0,0,0,0,-1,1742,477,5.24241,6.56121
525,547,5.7533,-5.33215,0,0,0,0,0,0,0,-1,1749,477,5.75329,5.33215
532,547,0,0,0,0,0,0,0,0,0,-1,1756,477,0,0
539,547,0,0,0,0,0,0,0,0,0,-1,1763,477,0,0
546,547,0,0,0,0,0,0,0,0,0,-1,1770,477,0,0
553,547,0,0,0,0,0,0,0,0,0,-1,1777,477,0,0
560,547,0,0,0,0,0,0,0,0,0,-1,1784,477,0,0
567,547,0,0,0,0,0,0,0,0,0,-1,1791,477,0,0
574,547,0,0,0,0,0,0,0,0,0,-1,1798,477,0,0
581,547,0,0,0,0,0,0,0,0,0,-1,1805,477,0,0
588,547,0,0,0,0,0,0,0,0,0,-1,1812,477,0,0
595,547,0,0,0,0,0,0,0,0,0,-1,1819,477,0,0
602,547,0,0,0,0,0,0,0,0,0,-1,1826,477,0,0
609,547,0,0,0,0,0,0,0,0,0,-1,1833,477,0,0
616,547,0,0,0,0,0,0,0,0,0,-1,1840,477,0,0
623,547,0,0,0,0,0,0,0,0,0,-1,1847,477,0,0
630,547,0,0,0,0,0,0,0,0,0,-1,1854,477,0,0
637,547,0,0,0,0,0,0,0,0,0,-1,1861,477,0,0
644,547,0,0,0,0,0,0,0,0,0,-1,1868,477,0,0
651,547,0,0,0,0,0,0,0,0,0,-1,1875,477,0,0
658,547,0,0,0,0,0,0,0,0,0,-1,1882,477,0,0
665,547,0,0,0,0,0,0,0,0,0,-1,1889,477,0,0
672,547,0,0,0,0,0,0,0,0,0,-1,1896,477,0,0
679,547,0,0,0,0,0,0,0,0,0,-1,1903,477,0,0
686,547,0,0,0,0,0,0,0,0,0,-1,1910,477,0,0
693,547,0,0,0,0,0,0,0,0,0,-1,1917,477,0,0
700,547,0,0,0,0,0,0,0,0,0,-1,1924,477,0,0
707,547,0,0,0,0,0,0,0,0,0,-1,1931,477,0,0
714,547,0,0,0,0,0,0,0,0,0,-1,1938,477,0,0
721,547,0,0,0,0,0,0,0,0,0,-1,1945,477,0,0
728,547,0,0,0,0,0,0,0,0,0,-1,1952,477,0,0
735,547,0,0,0,0,0,0,0,0,0,-1,1959,477,0,0
742,547,0,0,0,0,0,0,0,0,0,-1,1966,477,0,0
749,547,0,0,0,0,0,0,0,0,0,-1,1973,477,0,0
756,547,0,0,0,0,0,0,0,0,0,-1,1980,477,0,0
763,547,0,0,0,0,0,0,0,0,0,-1,1987,477,0,0
770,547,0,0,0,0,0,0,0,0,0,-1,1994,477,0,0
777,547,0,0,0,0,0,0,0,0,0,-1,2001,477,0,0
784,547,0,0,0,0,0,0,0,0,0,-1,2008,477,0,0
791,547,0,0,0,0,0,0,0,0,0,-1,2015,477,0,0
798,547,0,0,0,0,0,0,0,0,0,-1,2022,477,0,0
805,547,0,0,0,0,0,0,0,0,0,-1,2029,477,0,0
812,547,0,0,0,0,0,0,0,0,0,-1,2036,477,0,0
-700,540,0,0,0,0,0,0,0,0,0,-1,524,484,0,0
-693,540,0,0,0,0,0,0,0,0,0,-1,531,484,0,0
-686,540,0,0,0,0,0,0,0,0,0,-1,538,484,0,0
-679,540,0,0,0,0,0,0,0,0,0,-1,545,484,0,0
-672,540,0,0,0,0,0,0,0,0,0,-1,552,484,0,0
-665,540,0,0,0,0,0,0,0,0,0,-1,559,484,0,0
-658,540,0,0,0,0,0,0,0,0,0,-1,566,484,0,0
-651,540,0,0,0,0,0,0,0,0,0,-1,573,484,0,0
-644,540,0,0,0,0,0,0,0,0,0,-1,580,484,0,0
-637,540,0,0,0,0,0,0,0,0,0,-1,587,484,0,0
-630,540,0,0,0,0,0,0,0,0,0,-1,594,484,0,0
-623,540,0,0,0,0,0,0,0,0,0,-1,601,484,0,0
-616,540,0,0,0,0,0,0,0,0,0,-1,608,484,0,0
-609,540,0,0,0,0,0,0,0,0,0,-1,615,484,0,0
-602,540,0,0,0,0,0,0,0,0,0,-1,622,484,0,0
-595,540,0,0,0,0,0,0,0,0,0,-1,629,484,0,0
-588,540,0,0,0,0,0,0,0,0,0,-1,636,484,0,0
-581,540,0,0,0,0,0,0,0,0,0,-1,643,484,0,0
-574,540,0,0,0,0,0,0,0,0,0,-1,650,484,0,0
-567,540,0,0,0,0,0,0,0,0,0,-1,657,484,0,0
-560,540,0,0,0,0,0,0,0,0,0,-1,664,484,0,0
-553,540,0,0,0,0,0,0,0,0,0,-1,671,484,0,0
-546,540,0,0,0,0,0,0,0,0,0,-1,678,484,0,0
-539,540,0,0,0,0,0,0,0,0,0,-1,685,484,0,0
-532,540,0,0,0,0,0,0,0,0,0,-1,692,484,0,0
-525,540,0,0,0,0,0,0,0,0,0,-1,699,484,0,0
-518,540,0,0,0,0,0,0,0,0,0,-1,706,484,0,0
-511,540,0,0,0,0,0,0,0,0,0,-1,713,484,0,0
-504,540,0,0,0,0,0,0,0,0,0,-1,720,484,0,0
-497,540,0,0,0,0,0,0,0,0,0,-1,727,484,0,0
-490,540,0,0,0,0,0,0,0,0,0,-1,734,484,0,0
-483,540,0,0,0,0,0,0,0,0,0,-1,741,484,0,0
-476,540,0,0,0,0,0,0,0,0,0,-1,748,484,0,0
-469,540,0,0,0,0,0,0,0,0,0,-1,755,484,0,0
-462,540,0,0,0,0,0,0,0,0,0,-1,762,484,0,0
-455,540,0,0,0,0,0,0,0,0,0,-1,769,484,0,0
-448,540,0,0,0,0,0,0,0,0,0,-1,776,484,0,0
-441,540,0,0,0,0,0,0,0,0,0,-1,783,484,0,0
-434,540,0,0,0,0,0,0,0,0,0,-1,790,484,0,0
-427,540,0,0,0,0,0,0,0,0,0,-1,797,484,0,0
-420,540,0.291504,-4.59543,0,0,0,0,0,0,0,-1,804,484,0.291518,4.59544
-413,540,-0.521362,-9.61209,0,0,0,0,0,0,0,-1,811,484,-0.521343,9.61208
-406,540,-0.557251,-10.6337,0,0,0,0,0,0,0,-1,818,484,-0.55726,10.6337
-399,540,0.23407,-10.625,0,0,0,0,0,0,0,-1,825,484,0.234092,10.625
-392,540,0.67572,-11.8254,0,0,0,0,0,0,0,-1,832,484,0.675725,11.8254
-385,540,-2.29407,-5.03418,0,0,0,0,0,0,0,-1,839,484,-2.29408,5.03418
-378,540,1.06445,-10.5824,0,0,0,0,0,0,0,-1,846,484,1.06446,10.5824
-371,540,1.14825,-10.7452,0,0,0,0,0,0,0,-1,853,484,1.14827,10.7452
-364,540,0.609741,-12.8884,0,0,0,0,0,0,0,-1,860,484,0.609717,12.8884
-357,540,0.484131,-13.0025,0,0,0,0,0,0,0,-1,867,484,0.484134,13.0025
-350,540,0.485046,-13.4243,0,0,0,0,0,0,0,-1,874,484,0.485068,13.4243
-343,540,0.383301,-13.6995,-0.00171018,0.0030733,-0.00294661,0.00447668,-0.00311356,-1.12631,0.00440572,0.0171801,881,484,0.38328,13.6995
-336,540,0.330933,-14.1731,-0.00142174,0.00271594,-0.00273166,0.00407377,-0.00277958,-1.10949,0.00398023,0.0128647,888,484,0.330944,14.1731
-329,540,0.312073,-14.5257,-0.00109972,0.00236066,-0.00239341,0.00358377,-0.00232282,-1.09836,0.00343598,0.0104725,895,484,0.312051,14.5257
-322,540,0.313416,-14.898,-0.00083723,0.00203655,-0.0020287,0.00308567,-0.00188636,-1.09353,0.00289831,0.0144987,902,484,0.313424,14.898
-315,540,0.312683,-15.2585,-0.00058989,0.00186952,-0.00167376,0.00271674,-0.00143711,-1.10222,0.00243587,0.0128994,909,484,0.312677,15.2585
-308,540,0.315186,-15.6128,-0.000324842,0.00170135,-0.00134044,0.00236847,-0.000991963,-1.109,0.00199367,0.0123992,916,484,0.31517,15.6128
-301,540,0.277771,-15.9546,-0.000123407,0.00131894,-0.0009427,0.00178468,-0.000589152,-1.11192,0.00142729,0.0128961,923,484,0.27778,15.9546
-294,540,0.281311,-16.2924,5.16952e-05,0.00071589,-0.00048482,0.000971449,-0.000203863,-1.08569,0.000725202,0.0112573,930,484,0.281303,16.2924
-287,540,0.293701,-16.6408,0.000314184,-4.84582e-05,-1.54531e-05,0.000314841,-4.91155e-05,-0.0425098,0.000228036,0.00800017,937,484,0.293711,16.6408
-280,540,0.282898,-16.9897,0.000515556,-0.00106214,0.000392179,0.000607666,-0.00115425,0.230685,0.00103343,0.00903272,944,484,0.282902,16.9897
-273,540,0.27417,-17.3196,0.000367346,-0.00254813,0.000859165,0.000601696,-0.00278248,0.266288,0.0020847,0.0113434,951,484,0.274199,17.3196
-266,540,0.264099,-17.6575,2.66545e-05,-0.00444402,0.00177616,0.000646398,-0.00506376,0.335715,0.00361065,0.0122575,958,484,0.264129,17.6575
-259,540,0.256592,-17.9935,-0.000290203,-0.00678797,0.00302727,0.000901592,-0.00797976,0.375052,0.00564443,0.0116847,965,484,0.25657,17.9935
-252,540,0.276794,-18.2915,-0.000761313,-0.00912114,0.00457233,0.00125376,-0.0111362,0.415102,0.0078754,0.0122706,972,484,0.276769,18.2915
-245,540,0.296631,-18.6073,-0.00132934,-0.0124422,0.00624523,0.00147346,-0.015245,0.421848,0.0106884,0.0135736,979,484,0.296628,18.6073
-238,540,0.285339,-18.884,-0.00204253,-0.0156934,0.0081786,0.00178455,-0.0195204,0.437672,0.0136474,0.0104656,986,484,0.285357,18.884
-231,540,0.284912,-19.1632,-0.00288128,-0.0191517,0.0103467,0.0021454,-0.0241784,0.452244,0.0168796,0.0128369,993,484,0.284916,19.1632
-224,540,0.268311,-19.4521,-0.00376373,-0.022861,0.0129201,0.00275328,-0.029378,0.467169,0.0205646,0.0198626,1000,484,0.268299,19.452
-217,540,0.191223,-19.6578,-0.00426379,-0.0263992,0.0154655,0.0036863,-0.0343492,0.474826,0.0242219,0.0346753,1007,484,0.191234,19.6578
-210,540,0.0622559,-19.7898,-0.00459199,-0.029993,0.0176416,0.0044452,-0.0390302,0.473413,0.0276214,0.0445911,1014,484,0.0622797,19.7898
-203,540,-0.043396,-20.0865,-0.00492649,-0.033252,0.0191262,0.00470979,-0.0428883,0.466704,0.0302845,0.0452496,1021,484,-0.0433947,20.0865
-196,540,0.699341,-19.2608,0,0,0,0,0,0,0,-1,1028,484,0.6994,19.2608
-189,540,0.511963,-19.2603,0,0,0,0,0,0,0,-1,1035,484,0.511974,19.2603
-182,540,0.109375,-15.2948,0,0,0,0,0,0,0,-1,1042,484,0.109331,15.2948
-175,540,1.73413,-10.728,0,0,0,0,0,0,0,-1,1049,484,1.73414,10.728
-168,540,1.18164,-7.65347,0,0,0,0,0,0,0,-1,1056,484,1.18163,7.65347
-161,540,-0.405884,-9.86481,0,0,0,0,0,0,0,-1,1063,484,-0.405886,9.8648
-154,540,1.01318,-21.068,0,0,0,0,0,0,0,-1,1070,484,1.01316,21.068
-147,540,0.977905,-22.3355,0,0,0,0,0,0,0,-1,1077,484,0.977852,22.3355
-140,540,1.40735,-15.6289,0,0,0,0,0,0,0,-1,1084,484,1.4073,15.6289
-133,540,2.28345,-17.6413,0,0,0,0,0,0,0,-1,1091,484,2.2835,17.6413
-126,540,1.46765,-17.5085,0,0,0,0,0,0,0,-1,1098,484,1.46764,17.5085
-119,540,6.18579,-10.4846,0,0,0,0,0,0,0,-1,1105,484,6.18582,10.4846
-112,540,5.8468,-9.65106,0,0,0,0,0,0,0,-1,1112,484,5.84681,9.65106
-105,540,5.50781,-8.81754,0,0,0,0,0,0,0,-1,1119,484,5.5078,8.81753
-98,540,0.73877,-3.08093,0,0,0,0,0,0,0,-1,1126,484,0.738754,3.08092
-91,540,1.56519,-7.48666,0,0,0,0,0,0,0,-1,1133,484,1.56514,7.48667
-84,540,-0.945923,4.43073,0,0,0,0,0,0,0,-1,1140,484,-0.945891,-4.43074
-77,540,-2.28894,2.14368,0,0,0,0,0,0,0,-1,1147,484,-2.28894,-2.14368
-70,540,-3.75244,-0.452576,0,0,0,0,0,0,0,-1,1154,484,-3.75244,0.452576
-63,540,-5.26257,-3.04767,0,0,0,0,0,0,0,-1,1161,484,-5.26262,3.04766
-56,540,-5.19055,-6.12595,0,0,0,0,0,0,0,-1,1168,484,-5.19057,6.12595
-49,540,-5.63867,-8.52298,0,0,0,0,0,0,0,-1,1175,484,-5.63871,8.52298
-42,540,0,0,0,0,0,0,0,0,0,-1,1182,484,0,0
-35,540,0,0,0,0,0,0,0,0,0,-1,1189,484,0,0
-28,540,0,0,0,0,0,0,0,0,0,-1,1196,484,0,0
-21,540,0,0,0,0,0,0,0,0,0,-1,1203,484,0,0
-14,540,0,0,0,0,0,0,0,0,0,-1,1210,484,0,0
-7,540,0,0,0,0,0,0,0,0,0,-1,1217,484,0,0
0,540,0,0,0,0,0,0,0,0,0,-1,1224,484,0,0
7,540,0,0,0,0,0,0,0,0,0,-1,1231,484,0,0
14,540,0,0,0,0,0,0,0,0,0,-1,1238,484,0,0
21,540,0,0,0,0,0,0,0,0,0,-1,1245,484,0,0
28,540,0,0,0,0,0,0,0,0,0,-1,1252,484,0,0
35,540,0,0,0,0,0,0,0,0,0,-1,1259,484,0,0
42,540,0,0,0,0,0,0,0,0,0,-1,1266,484,0,0
49,540,0,0,0,0,0,0,0,0,0,-1,1273,484,0,0
56,540,0,0,0,0,0,0,0,0,0,-1,1280,484,0,0
63,540,0,0,0,0,0,0,0,0,0,-1,1287,484,0,0
70,540,0,0,0,0,0,0,0,0,0,-1,1294,484,0,0
77,540,0,0,0,0,0,0,0,0,0,-1,1301,484,0,0
84,540,0,0,0,0,0,0,0,0,0,-1,1308,484,0,0
91,540,0,0,0,0,0,0,0,0,0,-1,1315,484,0,0
98,540,0,0,0,0,0,0,0,0,0,-1,1322,484,0,0
105,540,0,0,0,0,0,0,0,0,0,-1,1329,484,0,0
112,540,0,0,0,0,0,0,0,0,0,-1,1336,484,0,0
119,540,0,0,0,0,0,0,0,0,0,-1,1343,484,0,0
126,540,0,0,0,0,0,0,0,0,0,-1,1350,484,0,0
133,540,0,0,0,0,0,0,0,0,0,-1,1357,484,0,0
140,540,0,0,0,0,0,0,0,0,0,-1,1364,484,0,0
147,540,0,0,0,0,0,0,0,0,0,-1,1371,484,0,0
154,540,0,0,0,0,0,0,0,0,0,-1,1378,484,0,0
161,540,0,0,0,0,0,0,0,0,0,-1,1385,484,0,0
168,540,3.05078,-0.0010376,0,0,0,0,0,0,0,-1,1392,484,3.05084,0.00102554
175,540,3.37708,0.617035,0,0,0,0,0,0,0,-1,1399,484,3.37707,-0.617046
182,540,3.32678,1.23267,0,0,0,0,0,0,0,-1,1406,484,3.32678,-1.23266
189,540,3.5813,2.15619,0,0,0,0,0,0,0,-1,1413,484,3.58129,-2.1562
196,540,1.84448,-0.801483,0,0,0,0,0,0,0,-1,1420,484,1.84446,0.80148
203,540,4.14648,0.702087,0,0,0,0,0,0,0,-1,1427,484,4.14645,-0.702089
210,540,4.50671,-0.56076,0,0,0,0,0,0,0,-1,1434,484,4.50667,0.560771
217,540,5.00452,-0.278717,0,0,0,0,0,0,0,-1,1441,484,5.00452,0.278709
224,540,6.44458,-2.83527,0,0,0,0,0,0,0,-1,1448,484,6.44457,2.83525
231,540,6.9231,-3.10504,0,0,0,0,0,0,0,-1,1455,484,6.92307,3.10505
238,540,6.4823,-2.58365,0,0,0,0,0,0,0,-1,1462,484,6.48225,2.58363
245,540,6.02087,-1.97916,0,0,0,0,0,0,0,-1,1469,484,6.02088,1.97915
252,540,6.50647,-3.56006,0,0,0,0,0,0,0,-1,1476,484,6.50649,3.56006
259,540,6.01941,-2.798,0,0,0,0,0,0,0,-1,1483,484,6.01941,2.79801
266,540,5.5332,-2.02853,0,0,0,0,0,0,0,-1,1490,484,5.53323,2.02855
273,540,5.06787,-1.28137,0,0,0,0,0,0,0,-1,1497,484,5.06786,1.28136
280,540,1.62903,-2.14609,0,0,0,0,0,0,0,-1,1504,484,1.62906,2.1461
287,540,1.97156,-2.45053,0,0,0,0,0,0,0,-1,1511,484,1.97159,2.45053
294,540,2.44165,-2.6185,0,0,0,0,0,0,0,-1,1518,484,2.44167,2.6185
301,540,4.36169,-2.54272,0,0,0,0,0,0,0,-1,1525,484,4.36165,2.54272
308,540,4.2019,-4.30469,0,0,0,0,0,0,0,-1,1532,484,4.20193,4.3047
315,540,4.45923,-5.32101,0,0,0,0,0,0,0,-1,1539,484,4.45923,5.32103
322,540,4.71655,-6.33737,0,0,0,0,0,0,0,-1,1546,484,4.71653,6.33736
329,540,5.8949,-12.9383,0,0,0,0,0,0,0,-1,1553,484,5.89492,12.9383
336,540,7.16467,-17.7826,0,0,0,0,0,0,0,-1,1560,484,7.16469,17.7826
343,540,7.43542,-19.0764,0,0,0,0,0,0,0,-1,1567,484,7.43538,19.0764
350,540,7.52332,-18.2995,0,0,0,0,0,0,0,-1,1574,484,7.52337,18.2995
357,540,7.38403,-18.0265,0.000845257,-0.00469732,-0.00328462,0.0023715,-0.00622357,-0.434981,0.00512579,0.0413858,1581,484,7.38408,18.0265
364,540,7.25208,-17.7899,0.00111165,-0.00376929,-0.00255761,0.00220632,-0.00486397,-0.404415,0.00417706,0.0242823,1588,484,7.25211,17.7899
371,540,7.22205,-17.5266,0.00129265,-0.0028949,-0.00193129,0.00204735,-0.0036496,-0.372525,0.00333221,0.015492,1595,484,7.22202,17.5266
378,540,7.25317,-17.191,0.00101907,-0.00221061,-0.00162925,0.00169817,-0.00288971,-0.39492,0.00267842,0.0129632,1602,484,7.25316,17.1911
385,540,7.25891,-16.8634,0.000795238,-0.00156274,-0.00122073,0.00131336,-0.00208086,-0.401395,0.00197629,0.014387,1609,484,7.25891,16.8634
392,540,7.2511,-16.5313,0.000608532,-0.00105782,-0.000939805,0.00103131,-0.00148059,-0.422734,0.00145796,0.0123291,1616,484,7.25112,16.5313
399,540,7.25366,-16.1742,0.000405357,-0.000731604,-0.000698424,0.000737413,-0.00106366,-0.443804,0.00104552,0.0160202,1623,484,7.25363,16.1742
406,540,7.25842,-15.8109,0.000185902,-0.000309513,-0.000500138,0.000496314,-0.000619925,-0.555467,0.000645776,0.0173168,1630,484,7.25838,15.8109
413,540,7.255,-15.4456,-3.62501e-05,0.000193546,-0.000272646,0.000374515,-0.000217219,-0.984815,0.000345638,0.0136204,1637,484,7.255,15.4456
420,540,7.29248,-15.0657,-0.000418102,0.000464757,-0.000154635,0.000491058,-0.000444403,-1.40232,0.000540312,0.0125567,1644,484,7.29245,15.0657
427,540,7.29211,-14.6922,-0.000979372,0.000777003,-2.557e-05,0.000777376,-0.000979744,-1.55624,0.00101671,0.0135471,1651,484,7.29217,14.6922
434,540,7.28113,-14.3222,-0.00155686,0.000980817,8.65869e-05,0.000983768,-0.00155981,1.53673,0.00148104,0.0165649,1658,484,7.28114,14.3222
441,540,7.28711,-13.9275,-0.00214298,0.00106974,0.000222304,0.00108505,-0.00215829,1.50204,0.00190641,0.0205091,1665,484,7.28717,13.9275
448,540,7.22998,-13.5895,-0.00280864,0.00114147,0.000381718,0.00117802,-0.00284519,1.47534,0.00238835,0.0122771,1672,484,7.22993,13.5895
455,540,7.21484,-13.189,-0.00360341,0.00112387,0.000515479,0.00117943,-0.00365896,1.46343,0.00291315,0.0102967,1679,484,7.21487,13.189
462,540,7.19495,-12.7845,-0.00457516,0.0010688,0.000609133,0.0011338,-0.00464016,1.4645,0.00353255,0.0105478,1686,484,7.19501,12.7845
469,540,7.17981,-12.3982,-0.00589461,0.00169688,0.000611013,0.00174574,-0.00594348,1.49099,0.00465467,0.0130892,1693,484,7.17977,12.3982
476,540,7.17712,-12.0097,-0.0074755,0.00209286,0.000526102,0.0021217,-0.00750434,1.51603,0.00584004,0.0199638,1700,484,7.17714,12.0097
483,540,7.16748,-11.6638,-0.00967134,0.00264229,0.000128887,0.00264364,-0.00967269,1.56033,0.0074869,0.0381983,1707,484,7.16752,11.6639
490,540,7.30615,-11.1932,0,0,0,0,0,0,0,-1,1714,484,7.30618,11.1932
497,540,4.49695,-7.83932,0,0,0,0,0,0,0,-1,1721,484,4.49699,7.83932
504,540,5.52747,-4.4433,0,0,0,0,0,0,0,-1,1728,484,5.5275,4.44329
511,540,5.82471,-6.83521,0,0,0,0,0,0,0,-1,1735,484,5.82465,6.83522
518,540,8.3833,-8.52429,0,0,0,0,0,0,0,-1,1742,484,8.38336,8.5243
525,540,5.83813,-7.04257,0,0,0,0,0,0,0,-1,1749,484,5.83816,7.04257
532,540,2.84265,-1.07925,0,0,0,0,0,0,0,-1,1756,484,2.84269,1.07927
539,540,0,0,0,0,0,0,0,0,0,-1,1763,484,0,0
546,540,0,0,0,0,0,0,0,0,0,-1,1770,484,0,0
553,540,0,0,0,0,0,0,0,0,0,-1,1777,484,0,0
560,540,0,0,0,0,0,0,0,0,0,-1,1784,484,0,0
567,540,0,0,0,0,0,0,0,0,0,-1,1791,484,0,0
574,540,0,0,0,0,0,0,0,0,0,-1,1798,484,0,0
581,540,0,0,0,0,0,0,0,0,0,-1,1805,484,0,0
588,540,0,0,0,0,0,0,0,0,0,-1,1812,484,0,0
595,540,0,0,0,0,0,0,0,0,0,-1,1819,484,0,0
602,540,0,0,0,0,0,0,0,0,0,-1,1826,484,0,0
609,540,0,0,0,0,0,0,0,0,0,-1,1833,484,0,0
616,540,0,0,0,0,0,0,0,0,0,-1,1840,484,0,0
623,540,0,0,0,0,0,0,0,0,0,-1,1847,484,0,0
630,540,0,0,0,0,0,0,0,0,0,-1,1854,484,0,0
637,540,0,0,0,0,0,0,0,0,0,-1,1861,484,0,0
644,540,0,0,0,0,0,0,0,0,0,-1,1868,484,0,0
651,540,0,0,0,0,0,0,0,0,0,-1,1875,484,0,0
658,540,0,0,0,0,0,0,0,0,0,-1,1882,484,0,0
665,540,0,0,0,0,0,0,0,0,0,-1,1889,484,0,0
672,540,0,0,0,0,0,0,0,0,0,-1,1896,484,0,0
679,540,0,0,0,0,0,0,0,0,0,-1,1903,484,0,0
686,540,0,0,0,0,0,0,0,0,0,-1,1910,484,0,0
693,540,0,0,0,0,0,0,0,0,0,-1,1917,484,0,0
700,540,0,0,0,0,0,0,0,0,0,-1,1924,484,0,0
707,540,0,0,0,0,0,0,0,0,0,-1,1931,484,0,0
714,540,0,0,0,0,0,0,0,0,0,-1,1938,484,0,0
721,540,0,0,0,0,0,0,0,0,0,-1,1945,484,0,0
728,540,0,0,0,0,0,0,0,0,0,-1,1952,484,0,0
735,540,0,0,0,0,0,0,0,0,0,-1,1959,484,0,0
742,540,0,0,0,0,0,0,0,0,0,-1,1966,484,0,0
749,540,0,0,0,0,0,0,0,0,0,-1,1973,484,0,0
756,540,0,0,0,0,0,0,0,0,0,-1,1980,484,0,0
763,540,0,0,0,0,0,0,0,0,0,-1,1987,484,0,0
770,540,0,0,0,0,0,0,0,0,0,-1,1994,484,0,0
777,540,0,0,0,0,0,0,0,0,0,-1,2001,484,0,0
784,540,0,0,0,0,0,0,0,0,0,-1,2008,484,0,0
791,540,0,0,0,0,0,0,0,0,0,-1,2015,484,0,0
798,540,0,0,0,0,0,0,0,0,0,-1,2022,484,0,0
805,540,0,0,0,0,0,0,0,0,0,-1,2029,484,0,0
812,540,0,0,0,0,0,0,0,0,0,-1,2036,484,0,0
-700,533,0,0,0,0,0,0,0,0,0,-1,524,491,0,0
-693,533,0,0,0,0,0,0,0,0,0,-1,531,491,0,0
-686,533,0,0,0,0,0,0,0,0,0,-1,538,491,0,0
-679,533,0,0,0,0,0,0,0,0,0,-1,545,491,0,0
-672,533,0,0,0,0,0,0,0,0,0,-1,552,491,0,0
-665,533,0,0,0,0,0,0,0,0,0,-1,559,491,0,0
-658,533,0,0,0,0,0,0,0,0,0,-1,566,491,0,0
-651,533,0,0,0,0,0,0,0,0,0,-1,573,491,0,0
-644,533,0,0,0,0,0,0,0,0,0,-1,580,491,0,0
-637,533,0,0,0,0,0,0,0,0,0,-1,587,491,0,0
-630,533,0,0,0,0,0,0,0,0,0,-1,594,491,0,0
-623,533,0,0,0,0,0,0,0,0,0,-1,601,491,0,0
-616,533,0,0,0,0,0,0,0,0,0,-1,608,491,0,0
-609,533,0,0,0,0,0,0,0,0,0,-1,615,491,0,0
-602,533,0,0,0,0,0,0,0,0,0,-1,622,491,0,0
-595,533,0,0,0,0,0,0,0,0,0,-1,629,491,0,0
-588,533,0,0,0,0,0,0,0,0,0,-1,636,491,0,0
-581,533,0,0,0,0,0,0,0,0,0,-1,643,491,0,0
-574,533,0,0,0,0,0,0,0,0,0,-1,650,491,0,0
-567,533,0,0,0,0,0,0,0,0,0,-1,657,491,0,0
-560,533,0,0,0,0,0,0,0,0,0,-1,664,491,0,0
-553,533,0,0,0,0,0,0,0,0,0,-1,671,491,0,0
-546,533,0,0,0,0,0,0,0,0,0,-1,678,491,0,0
-539,533,0,0,0,0,0,0,0,0,0,-1,685,491,0,0
-532,533,0,0,0,0,0,0,0,0,0,-1,692,491,0,0
-525,533,0,0,0,0,0,0,0,0,0,-1,699,491,0,0
-518,533,0,0,0,0,0,0,0,0,0,-1,706,491,0,0
-511,533,0,0,0,0,0,0,0,0,0,-1,713,491,0,0
-504,533,0,0,0,0,0,0,0,0,0,-1,720,491,0,0
-497,533,0,0,0,0,0,0,0,0,0,-1,727,491,0,0
-490,533,0,0,0,0,0,0,0,0,0,-1,734,491,0,0
-483,533,0,0,0,0,0,0,0,0,0,-1,741,491,0,0
-476,533,0,0,0,0,0,0,0,0,0,-1,748,491,0,0
-469,533,0,0,0,0,0,0,0,0,0,-1,755,491,0,0
-462,533,0,0,0,0,0,0,0,0,0,-1,762,491,0,0
-455,533,0,0,0,0,0,0,0,0,0,-1,769,491,0,0
-448,533,0,0,0,0,0,0,0,0,0,-1,776,491,0,0
-441,533,0,0,0,0,0,0,0,0,0,-1,783,491,0,0
-434,533,0,0,0,0,0,0,0,0,0,-1,790,491,0,0
-427,533,0.559814,-4.40222,0,0,0,0,0,0,0,-1,797,491,0.559816,4.40222
-420,533,0.390503,-5.39261,0,0,0,0,0,0,0,-1,804,491,0.390501,5.3926
-413,533,-0.940735,-10.1455,0,0,0,0,0,0,0,-1,811,491,-0.940757,10.1455
-406,533,-0.00811768,-10.2885,0,0,0,0,0,0,0,-1,818,491,-0.00811193,10.2886
-399,533,0.00512695,-10.4487,0,0,0,0,0,0,0,-1,825,491,0.00510224,10.4487
-392,533,-0.0876465,-10.9253,0,0,0,0,0,0,0,-1,832,491,-0.0876439,10.9253
-385,533,-1.69116,-6.64645,0,0,0,0,0,0,0,-1,839,491,-1.69115,6.64645
-378,533,0.538757,-10.1314,0,0,0,0,0,0,0,-1,846,491,0.538741,10.1314
-371,533,0.227051,-12.3434,0,0,0,0,0,0,0,-1,853,491,0.227035,12.3434
-364,533,0.175415,-12.7532,-0.00175274,0.00361125,0.00339854,0.0052586,-0.00340008,1.11945,0.00503733,0.0442014,860,491,0.175413,12.7532
-357,533,0.0563965,-12.9705,-0.00160264,0.00316564,0.000857236,0.00331507,-0.00175207,1.39821,0.00297154,0.0232738,867,491,0.0564138,12.9705
-350,533,0.0429077,-13.364,-0.0015697,0.00309277,-0.00166843,0.0036283,-0.00210522,-1.26021,0.00334895,0.0117671,874,491,0.042902,13.3639
-343,533,0.0249023,-13.7855,-0.00145111,0.00273951,-0.0026584,0.00402908,-0.00274068,-1.11915,0.00393205,0.0114487,881,491,0.0249167,13.7855
-336,533,-0.0158081,-14.1682,-0.0012074,0.00237122,-0.00247379,0.00363498,-0.00247116,-1.0985,0.00354667,0.0154695,888,491,-0.0158139,14.1681
-329,533,-0.0465698,-14.5264,-0.000875586,0.00201431,-0.00220206,0.00320317,-0.00206445,-1.07575,0.00306486,0.0139937,895,491,-0.0465533,14.5264
-322,533,-0.0407715,-14.886,-0.000596375,0.00163987,-0.0018602,0.00269212,-0.00164863,-1.056,0.00253016,0.0115842,902,491,-0.0407557,14.886
-315,533,-0.0413208,-15.2516,-0.000323322,0.00139488,-0.00148499,0.00225137,-0.00117981,-1.04764,0.00201293,0.0127918,909,491,-0.0413141,15.2516
-308,533,-0.0511475,-15.6015,-1.87916e-05,0.00111866,-0.00108581,0.00177568,-0.000675806,-1.02664,0.00146208,0.0125426,916,491,-0.0511607,15.6015
-301,533,-0.0804443,-15.9355,0.000226129,0.000631009,-0.000602787,0.00106444,-0.000207303,-0.947401,0.000787873,0.0137098,923,491,-0.0804695,15.9355
-294,533,-0.0603638,-16.2762,0.000425312,-0.000121454,-2.47789e-05,0.000426433,-0.000122575,-0.0451955,0.000332759,0.0122851,930,491,-0.0603672,16.2761
-287,533,-0.0404053,-16.6319,0.000720295,-0.000951701,0.000541779,0.000880498,-0.0011119,0.287506,0.0011529,0.00917607,937,491,-0.040426,16.6319
-280,533,-0.0460205,-16.9784,0.000928403,-0.00212201,0.00105405,0.00125718,-0.00245079,0.302359,0.00217746,0.00857484,944,491,-0.0459959,16.9784
-273,533,-0.0609131,-17.3091,0.000678188,-0.00392168,0.00164709,0.00120714,-0.00445063,0.310741,0.00344079,0.0120625,951,491,-0.0609058,17.3091
-266,533,-0.0597534,-17.6398,0.000149541,-0.00618011,0.00279209,0.00120513,-0.0072357,0.361454,0.00527163,0.0117239,958,491,-0.0597719,17.6398
-259,533,-0.0518188,-17.9653,-0.000386952,-0.00905071,0.00428514,0.00137441,-0.0108121,0.389987,0.00770714,0.0117096,965,491,-0.0518343,17.9653
-252,533,-0.0541992,-18.2589,-0.00113939,-0.0119026,0.00612314,0.00163097,-0.0146729,0.424882,0.0103685,0.0144899,972,491,-0.054215,18.2589
-245,533,-0.0204468,-18.5416,-0.00207494,-0.0160222,0.00818479,0.00170421,-0.0198014,0.432564,0.0138041,0.0201143,979,491,-0.0204478,18.5416
-238,533,-0.00415039,-18.7216,-0.00324411,-0.0202031,0.0106409,0.00188268,-0.0253299,0.448982,0.0175479,0.0229123,986,491,-0.00412224,18.7216
-231,533,0.138184,-18.8265,-0.00464667,-0.0247203,0.0135051,0.00214285,-0.0315098,0.465835,0.021756,0.0353126,993,491,0.138168,18.8265
-224,533,-0.0675659,-18.8812,-0.00620435,-0.0296284,0.0169825,0.00271317,-0.0385459,0.483525,0.0266477,0.0459586,1000,491,-0.067559,18.8812
-217,533,-0.753906,-19.1675,-0.00726271,-0.0343627,0.0204671,0.00373327,-0.0453587,0.493002,0.0315573,0.0483199,1007,491,-0.753924,19.1675
-210,533,-0.781067,-19.3724,-0.00803923,-0.0391001,0.0235747,0.00466083,-0.0518001,0.494138,0.0361872,0.047251,1014,491,-0.781067,19.3724
-203,533,-0.662964,-20.2172,0,0,0,0,0,0,0,-1,1021,491,-0.662967,20.2172
-196,533,0.688354,-19.5743,0,0,0,0,0,0,0,-1,1028,491,0.688406,19.5743
-189,533,-0.169189,-15.0303,0,0,0,0,0,0,0,-1,1035,491,-0.169241,15.0303
-182,533,1.26123,-11.4969,0,0,0,0,0,0,0,-1,1042,491,1.26128,11.4969
-175,533,0.937744,-7.36966,0,0,0,0,0,0,0,-1,1049,491,0.937769,7.36965
-168,533,2.64807,-2.7543,0,0,0,0,0,0,0,-1,1056,491,2.64812,2.7543
-161,533,1.91833,-1.76553,0,0,0,0,0,0,0,-1,1063,491,1.91836,1.76554
-154,533,0.376709,-11.0633,0,0,0,0,0,0,0,-1,1070,491,0.376715,11.0632
-147,533,0.383789,-12.1586,0,0,0,0,0,0,0,-1,1077,491,0.383829,12.1586
-140,533,1.14001,-15.4608,0,0,0,0,0,0,0,-1,1084,491,1.14005,15.4608
-133,533,0.189941,-16.0795,0,0,0,0,0,0,0,-1,1091,491,0.18994,16.0795
-126,533,2.89612,-2.59003,0,0,0,0,0,0,0,-1,1098,491,2.89608,2.59003
-119,533,3.00842,-12.8239,0,0,0,0,0,0,0,-1,1105,491,3.00841,12.8239
-112,533,7.05884,-10.21,0,0,0,0,0,0,0,-1,1112,491,7.0588,10.21
-105,533,3.84839,1.12769,0,0,0,0,0,0,0,-1,1119,491,3.84843,-1.12769
-98,533,-1.39392,-5.16367,0,0,0,0,0,0,0,-1,1126,491,-1.39394,5.16367
-91,533,0.367432,4.49753,0,0,0,0,0,0,0,-1,1133,491,0.367468,-4.49754
-84,533,-0.88623,3.03604,0,0,0,0,0,0,0,-1,1140,491,-0.886288,-3.03605
-77,533,0,0,0,0,0,0,0,0,0,-1,1147,491,0,0
-70,533,0,0,0,0,0,0,0,0,0,-1,1154,491,0,0
-63,533,0,0,0,0,0,0,0,0,0,-1,1161,491,0,0
-56,533,0,0,0,0,0,0,0,0,0,-1,1168,491,0,0
-49,533,0,0,0,0,0,0,0,0,0,-1,1175,491,0,0
-42,533,0,0,0,0,0,0,0,0,0,-1,1182,491,0,0
-35,533,0,0,0,0,0,0,0,0,0,-1,1189,491,0,0
-28,533,0,0,0,0,0,0,0,0,0,-1,1196,491,0,0
-21,533,0,0,0,0,0,0,0,0,0,-1,1203,491,0,0
-14,533,0,0,0,0,0,0,0,0,0,-1,1210,491,0,0
-7,533,0,0,0,0,0,0,0,0,0,-1,1217,491,0,0
0,533,0,0,0,0,0,0,0,0,0,-1,1224,491,0,0
7,533,0,0,0,0,0,0,0,0,0,-1,1231,491,0,0
14,533,0,0,0,0,0,0,0,0,0,-1,1238,491,0,0
21,533,0,0,0,0,0,0,0,0,0,-1,1245,491,0,0
28,533,0,0,0,0,0,0,0,0,0,-1,1252,491,0,0
35,533,0,0,0,0,0,0,0,0,0,-1,1259,491,0,0
42,533,0,0,0,0,0,0,0,0,0,-1,1266,491,0,0
49,533,0,0,0,0,0,0,0,0,0,-1,1273,491,0,0
56,533,0,0,0,0,0,0,0,0,0,-1,1280,491,0,0
63,533,0,0,0,0,0,0,0,0,0,-1,1287,491,0,0
70,533,0,0,0,0,0,0,0,0,0,-1,1294,491,0,0
77,533,0,0,0,0,0,0,0,0,0,-1,1301,491,0,0
84,533,0,0,0,0,0,0,0,0,0,-1,1308,491,0,0
91,533,0,0,0,0,0,0,0,0,0,-1,1315,491,0,0
98,533,0,0,0,0,0,0,0,0,0,-1,1322,491,0,0
105,533,0,0,0,0,0,0,0,0,0,-1,1329,491,0,0
112,533,0,0,0,0,0,0,0,0,0,-1,1336,491,0,0
119,533,0,0,0,0,0,0,0,0,0,-1,1343,491,0,0
126,533,0,0,0,0,0,0,0,0,0,-1,1350,491,0,0
133,533,0,0,0,0,0,0,0,0,0,-1,1357,491,0,0
140,533,0,0,0,0,0,0,0,0,0,-1,1364,491,0,0
147,533,0,0,0,0,0,0,0,0,0,-1,1371,491,0,0
154,533,0,0,0,0,0,0,0,0,0,-1,1378,491,0,0
161,533,0,0,0,0,0,0,0,0,0,-1,1385,491,0,0
168,533,0,0,0,0,0,0,0,0,0,-1,1392,491,0,0
175,533,0,0,0,0,0,0,0,0,0,-1,1399,491,0,0
182,533,0,0,0,0,0,0,0,0,0,-1,1406,491,0,0
189,533,0,0,0,0,0,0,0,0,0,-1,1413,491,0,0
196,533,0,0,0,0,0,0,0,0,0,-1,1420,491,0,0
203,533,3.7887,1.16193,0,0,0,0,0,0,0,-1,1427,491,3.78872,-1.16193
210,533,5.09558,-0.216034,0,0,0,0,0,0,0,-1,1434,491,5.09559,0.216028
217,533,6.91614,-2.46814,0,0,0,0,0,0,0,-1,1441,491,6.91618,2.46814
224,533,7.23621,-2.1857,0,0,0,0,0,0,0,-1,1448,491,7.23621,2.1857
231,533,7.23474,-1.92282,0,0,0,0,0,0,0,-1,1455,491,7.2347,1.92282
238,533,7.23535,-1.67258,0,0,0,0,0,0,0,-1,1462,491,7.23539,1.67258
245,533,6.86682,-1.2301,0,0,0,0,0,0,0,-1,1469,491,6.86686,1.23011
252,533,6.63354,-3.07825,0,0,0,0,0,0,0,-1,1476,491,6.6335,3.07824
259,533,6.16431,-2.35037,0,0,0,0,0,0,0,-1,1483,491,6.1643,2.35037
266,533,5.68884,-1.6214,0,0,0,0,0,0,0,-1,1490,491,5.68885,1.6214
273,533,5.21399,-0.864227,0,0,0,0,0,0,0,-1,1497,491,5.21403,0.864227
280,533,1.41089,-1.97946,0,0,0,0,0,0,0,-1,1504,491,1.41087,1.97946
287,533,1.6814,-2.44443,0,0,0,0,0,0,0,-1,1511,491,1.6814,2.44444
294,533,2.2384,-2.57626,0,0,0,0,0,0,0,-1,1518,491,2.23839,2.57625
301,533,3.39941,-4.0817,0,0,0,0,0,0,0,-1,1525,491,3.3994,4.08171
308,533,4.13733,-4.14752,0,0,0,0,0,0,0,-1,1532,491,4.13727,4.14752
315,533,4.80762,-5.29349,0,0,0,0,0,0,0,-1,1539,491,4.80762,5.29347
322,533,5.47803,-6.43942,0,0,0,0,0,0,0,-1,1546,491,5.47798,6.43943
329,533,3.88477,-3.86301,0,0,0,0,0,0,0,-1,1553,491,3.88475,3.86299
336,533,6.70923,-13.2003,0,0,0,0,0,0,0,-1,1560,491,6.70926,13.2004
343,533,7.06677,-17.1133,0,0,0,0,0,0,0,-1,1567,491,7.06673,17.1133
350,533,5.62915,-8.02426,0,0,0,0,0,0,0,-1,1574,491,5.6291,8.02426
357,533,7.7627,-17.8718,0,0,0,0,0,0,0,-1,1581,491,7.76264,17.8718
364,533,7.61426,-17.7829,0,0,0,0,0,0,0,-1,1588,491,7.61429,17.7829
371,533,7.52527,-17.5266,0,0,0,0,0,0,0,-1,1595,491,7.52523,17.5266
378,533,7.53589,-17.1647,0.00110919,-0.0028315,-0.00223418,0.00211774,-0.00384006,-0.424033,0.00348732,0.0298662,1602,491,7.53592,17.1647
385,533,7.63171,-16.8256,0.000736671,-0.00241542,-0.00189958,0.00162889,-0.00330764,-0.439109,0.00290452,0.0250522,1609,491,7.63173,16.8255
392,533,7.61877,-16.5232,0.000508718,-0.00194737,-0.00167498,0.0013576,-0.00279626,-0.469076,0.00244571,0.0135105,1616,491,7.61872,16.5232
399,533,7.62207,-16.1887,0.000276781,-0.00172138,-0.00147343,0.00105791,-0.00250251,-0.487471,0.00211126,0.0118412,1623,491,7.62206,16.1887
406,533,7.62439,-15.8161,0.00010196,-0.00128212,-0.00128581,0.000870136,-0.0020503,-0.538524,0.0017314,0.0147776,1630,491,7.62444,15.8161
413,533,7.63159,-15.4257,-1.08982e-05,-0.000752889,-0.00100129,0.000685913,-0.0014497,-0.60798,0.00125901,0.0130923,1637,491,7.63155,15.4257
420,533,7.63843,-15.0495,-0.00027587,-0.00044541,-0.000841883,0.000485501,-0.00120678,-0.735222,0.00100619,0.0120704,1644,491,7.63841,15.0495
427,533,7.64929,-14.6673,-0.000663752,-0.000157371,-0.00068231,0.00031721,-0.00113833,-0.963062,0.000883809,0.0128216,1651,491,7.64924,14.6673
434,533,7.63342,-14.3084,-0.00109484,9.55575e-05,-0.000500534,0.000278046,-0.00127732,-1.22119,0.000957781,0.0124079,1658,491,7.63348,14.3084
441,533,7.64783,-13.9149,-0.00147445,0.000261308,-0.000268192,0.000301802,-0.00151494,-1.42094,0.00112415,0.0157769,1665,491,7.64786,13.9149
448,533,7.62207,-13.5835,-0.00188552,0.000399212,-1.03369e-05,0.000399259,-0.00188557,-1.56627,0.00140911,0.0169016,1672,491,7.62206,13.5835
455,533,7.57849,-13.2057,-0.00239453,0.000474321,0.000221919,0.000491386,-0.0024116,1.49405,0.0017941,0.0155211,1679,491,7.57847,13.2057
462,533,7.56787,-12.7707,-0.00306371,0.00047335,0.000390853,0.000516025,-0.00310638,1.46204,0.00226263,0.0157798,1686,491,7.5679,12.7707
469,533,7.56738,-12.3961,-0.00406477,0.00109494,0.000452776,0.00113437,-0.0041042,1.48393,0.00318238,0.0103606,1693,491,7.56734,12.3961
476,533,7.58252,-11.9718,-0.00529886,0.00147795,0.000439367,0.00150632,-0.00532723,1.50632,0.00414583,0.0115149,1700,491,7.58249,11.9718
483,533,7.60571,-11.533,-0.00701807,0.00197142,0.000148753,0.00197388,-0.00702053,1.55425,0.0054586,0.0196851,1707,491,7.60566,11.533
490,533,7.61792,-11.3412,-0.00935063,0.0024707,-0.000269785,0.00247685,-0.00935679,-1.54799,0.00720678,0.0475222,1714,491,7.61795,11.3412
497,533,7.73865,-10.7147,0,0,0,0,0,0,0,-1,1721,491,7.73863,10.7147
504,533,7.55396,-10.2226,0,0,0,0,0,0,0,-1,1728,491,7.55392,10.2226
511,533,7.03711,-9.86197,0,0,0,0,0,0,0,-1,1735,491,7.03715,9.86196
518,533,6.38367,-8.60678,0,0,0,0,0,0,0,-1,1742,491,6.38365,8.60678
525,533,8.98108,-8.45325,0,0,0,0,0,0,0,-1,1749,491,8.98106,8.45326
532,533,3.24243,0.0737,0,0,0,0,0,0,0,-1,1756,491,3.24239,-0.0737072
539,533,3.61609,1.62427,0,0,0,0,0,0,0,-1,1763,491,3.61606,-1.62426
546,533,3.59607,1.65799,0,0,0,0,0,0,0,-1,1770,491,3.59605,-1.658
553,533,0,0,0,0,0,0,0,0,0,-1,1777,491,0,0
560,533,0,0,0,0,0,0,0,0,0,-1,1784,491,0,0
567,533,0,0,0,0,0,0,0,0,0,-1,1791,491,0,0
574,533,0,0,0,0,0,0,0,0,0,-1,1798,491,0,0
581,533,0,0,0,0,0,0,0,0,0,-1,1805,491,0,0
588,533,0,0,0,0,0,0,0,0,0,-1,1812,491,0,0
595,533,0,0,0,0,0,0,0,0,0,-1,1819,491,0,0
602,533,0,0,0,0,0,0,0,0,0,-1,1826,491,0,0
609,533,0,0,0,0,0,0,0,0,0,-1,1833,491,0,0
616,533,0,0,0,0,0,0,0,0,0,-1,1840,491,0,0
623,533,0,0,0,0,0,0,0,0,0,-1,1847,491,0,0
630,533,0,0,0,0,0,0,0,0,0,-1,1854,491,0,0
637,533,0,0,0,0,0,0,0,0,0,-1,1861,491,0,0
644,533,0,0,0,0,0,0,0,0,0,-1,1868,491,0,0
651,533,0,0,0,0,0,0,0,0,0,-1,1875,491,0,0
658,533,0,0,0,0,0,0,0,0,0,-1,1882,491,0,0
665,533,0,0,0,0,0,0,0,0,0,-1,1889,491,0,0
672,533,0,0,0,0,0,0,0,0,0,-1,1896,491,0,0
679,533,0,0,0,0,0,0,0,0,0,-1,1903,491,0,0
686,533,0,0,0,0,0,0,0,0,0,-1,1910,491,0,0
693,533,0,0,0,0,0,0,0,0,0,-1,1917,491,0,0
700,533,0,0,0,0,0,0,0,0,0,-1,1924,491,0,0
707,533,0,0,0,0,0,0,0,0,0,-1,1931,491,0,0
714,533,0,0,0,0,0,0,0,0,0,-1,1938,491,0,0
721,533,0,0,0,0,0,0,0,0,0,-1,1945,491,0,0
728,533,0,0,0,0,0,0,0,0,0,-1,1952,491,0,0
735,533,0,0,0,0,0,0,0,0,0,-1,1959,491,0,0
742,533,0,0,0,0,0,0,0,0,0,-1,1966,491,0,0
749,533,0,0,0,0,0,0,0,0,0,-1,1973,491,0,0
756,533,0,0,0,0,0,0,0,0,0,-1,1980,491,0,0
763,533,0,0,0,0,0,0,0,0,0,-1,1987,491,0,0
770,533,0,0,0,0,0,0,0,0,0,-1,1994,491,0,0
777,533,0,0,0,0,0,0,0,0,0,-1,2001,491,0,0
784,533,0,0,0,0,0,0,0,0,0,-1,2008,491,0,0
791,533,0,0,0,0,0,0,0,0,0,-1,2015,491,0,0
798,533,0,0,0,0,0,0,0,0,0,-1,2022,491,0,0
805,533,0,0,0,0,0,0,0,0,0,-1,2029,491,0,0
812,533,0,0,0,0,0,0,0,0,0,-1,2036,491,0,0
-700,526,0,0,0,0,0,0,0,0,0,-1,524,498,0,0
-693,526,0,0,0,0,0,0,0,0,0,-1,531,498,0,0
-686,526,0,0,0,0,0,0,0,0,0,-1,538,498,0,0
-679,526,0,0,0,0,0,0,0,0,0,-1,545,498,0,0
-672,526,0,0,0,0,0,0,0,0,0,-1,552,498,0,0
-665,526,0,0,0,0,0,0,0,0,0,-1,559,498,0,0
-658,526,0,0,0,0,0,0,0,0,0,-1,566,498,0,0
-651,526,0,0,0,0,0,0,0,0,0,-1,573,498,0,0
-644,526,0,0,0,0,0,0,0,0,0,-1,580,498,0,0
-637,526,0,0,0,0,0,0,0,0,0,-1,587,498,0,0
-630,526,0,0,0,0,0,0,0,0,0,-1,594,498,0,0
-623,526,0,0,0,0,0,0,0,0,0,-1,601,498,0,0
-616,526,0,0,0,0,0,0,0,0,0,-1,608,498,0,0
-609,526,0,0,0,0,0,0,0,0,0,-1,615,498,0,0
-602,526,0,0,0,0,0,0,0,0,0,-1,622,498,0,0
-595,526,0,0,0,0,0,0,0,0,0,-1,629,498,0,0
-588,526,0,0,0,0,0,0,0,0,0,-1,636,498,0,0
-581,526,0,0,0,0,0,0,0,0,0,-1,643,498,0,0
-574,526,0,0,0,0,0,0,0,0,0,-1,650,498,0,0
-567,526,0,0,0,0,0,0,0,0,0,-1,657,498,0,0
-560,526,0,0,0,0,0,0,0,0,0,-1,664,498,0,0
-553,526,0,0,0,0,0,0,0,0,0,-1,671,498,0,0
-546,526,0,0,0,0,0,0,0,0,0,-1,678,498,0,0
-539,526,0,0,0,0,0,0,0,0,0,-1,685,498,0,0
-532,526,0,0,0,0,0,0,0,0,0,-1,692,498,0,0
-525,526,0,0,0,0,0,0,0,0,0,-1,699,498,0,0
-518,526,0,0,0,0,0,0,0,0,0,-1,706,498,0,0
-511,526,0,0,0,0,0,0,0,0,0,-1,713,498,0,0
-504,526,0,0,0,0,0,0,0,0,0,-1,720,498,0,0
-497,526,0,0,0,0,0,0,0,0,0,-1,727,498,0,0
-490,526,0,0,0,0,0,0,0,0,0,-1,734,498,0,0
-483,526,0,0,0,0,0,0,0,0,0,-1,741,498,0,0
-476,526,0,0,0,0,0,0,0,0,0,-1,748,498,0,0
-469,526,0,0,0,0,0,0,0,0,0,-1,755,498,0,0
-462,526,0,0,0,0,0,0,0,0,0,-1,762,498,0,0
-455,526,0,0,0,0,0,0,0,0,0,-1,769,498,0,0
-448,526,0,0,0,0,0,0,0,0,0,-1,776,498,0,0
-441,526,0,0,0,0,0,0,0,0,0,-1,783,498,0,0
-434,526,-0.153564,-5.96649,0,0,0,0,0,0,0,-1,790,498,-0.153589,5.9665
-427,526,1.23206,-4.59808,0,0,0,0,0,0,0,-1,797,498,1.23208,4.59809
-420,526,0.758484,-5.79626,0,0,0,0,0,0,0,-1,804,498,0.758485,5.79626
-413,526,-0.164368,-10.6656,0,0,0,0,0,0,0,-1,811,498,-0.164348,10.6656
-406,526,-0.261658,-10.5179,0.00283043,0.00342095,0.0367197,0.0398466,-0.0335952,0.789419,0.0424528,0.0453277,818,498,-0.261676,10.5179
-399,526,-0.429443,-10.3914,0.00168692,0.00274457,0.0287766,0.0309972,-0.0265657,0.794586,0.0332668,0.0485844,825,498,-0.429465,10.3915
-392,526,-0.542542,-10.2509,0,0,0,0,0,0,0,-1,832,498,-0.542545,10.2509
-385,526,-0.72998,-10.4445,0,0,0,0,0,0,0,-1,839,498,-0.729956,10.4445
-378,526,-0.136841,-11.8488,0,0,0,0,0,0,0,-1,846,498,-0.136846,11.8488
-371,526,-0.196167,-12.247,-0.00106085,0.00297143,0.00589486,0.00718539,-0.00527482,0.950171,0.00722204,0.039279,853,498,-0.196178,12.247
-364,526,-0.273926,-12.6031,-0.0012329,0.00272741,0.00290775,0.00426521,-0.0027707,1.08433,0.00409262,0.0195672,860,498,-0.273953,12.6031
-357,526,-0.338989,-12.9678,-0.00123025,0.00250987,0.000931472,0.00272902,-0.00144939,1.33973,0.00244982,0.0129419,867,498,-0.338988,12.9678
-350,526,-0.338257,-13.3557,-0.00125401,0.00240521,-0.00108137,0.00270088,-0.00154968,-1.30389,0.00248389,0.0119579,874,498,-0.338276,13.3557
-343,526,-0.348572,-13.735,-0.00115302,0.00199051,-0.00183332,0.00283359,-0.0019961,-1.13977,0.00280237,0.0159302,881,498,-0.348596,13.735
-336,526,-0.372925,-14.1327,-0.000929966,0.00162416,-0.00163341,0.00242048,-0.00172628,-1.11718,0.00240529,0.0164951,888,498,-0.372943,14.1327
-329,526,-0.391296,-14.5073,-0.000591724,0.00129167,-0.00139919,0.00203655,-0.0013366,-1.0816,0.00196142,0.0149793,895,498,-0.391274,14.5073
-322,526,-0.377991,-14.8678,-0.00030586,0.000940552,-0.00108993,0.00157287,-0.000938176,-1.04511,0.00146511,0.0100907,902,498,-0.377968,14.8678
-315,526,-0.383911,-15.2407,-2.5467e-05,0.000699607,-0.000741032,0.00116203,-0.000487892,-1.0129,0.00097873,0.00912674,909,498,-0.383923,15.2406
-308,526,-0.40564,-15.607,0.000302838,0.000402846,-0.000358947,0.000715255,-9.57074e-06,-0.854607,0.000480059,0.00907528,916,498,-0.405636,15.607
-301,526,-0.429321,-15.9258,0.000591382,-9.33027e-05,9.18883e-05,0.0006035,-0.00010542,0.131115,0.000441687,0.0108707,923,498,-0.429348,15.9258
-294,526,-0.418213,-16.2683,0.000824033,-0.000917662,0.000657834,0.00104457,-0.0011382,0.323473,0.00126061,0.0101923,930,498,-0.418237,16.2683
-287,526,-0.429016,-16.6212,0.00116678,-0.00174566,0.001191,0.0015918,-0.00217067,0.342772,0.00218082,0.00991123,937,498,-0.429009,16.6212
-280,526,-0.455566,-16.9476,0.00140348,-0.00305871,0.0017022,0.00197868,-0.0036339,0.325866,0.00328706,0.0128473,944,498,-0.45557,16.9476
-273,526,-0.427124,-17.2918,0.00108315,-0.00522343,0.00233725,0.00185491,-0.00599518,0.318926,0.00473772,0.0114649,951,498,-0.427106,17.2918
-266,526,-0.412354,-17.6235,0.000371185,-0.00795905,0.00369321,0.00177275,-0.00936062,0.362709,0.00690758,0.0114047,958,498,-0.412349,17.6235
-259,526,-0.367981,-17.9034,-0.000410239,-0.0115367,0.00547367,0.00183105,-0.013778,0.388641,0.00985258,0.0183938,965,498,-0.367979,17.9034
-252,526,-0.344116,-18.0923,-0.00153434,-0.0150966,0.00771476,0.00195591,-0.0185869,0.424857,0.013092,0.0327011,972,498,-0.344124,18.0923
-245,526,-0.434387,-18.1882,-0.00297447,-0.020356,0.0103507,0.0018502,-0.0251806,0.436177,0.0174366,0.0422034,979,498,-0.434391,18.1882
-238,526,-0.478027,-18.1106,0,0,0,0,0,0,0,-1,986,498,-0.47802,18.1106
-231,526,0.0574951,-18.3869,0,0,0,0,0,0,0,-1,993,498,0.0574994,18.3869
-224,526,-0.301025,-18.3099,0,0,0,0,0,0,0,-1,1000,498,-0.30105,18.31
-217,526,-1.47705,-18.8919,0,0,0,0,0,0,0,-1,1007,498,-1.47704,18.8919
-210,526,-1.29028,-19.0991,0,0,0,0,0,0,0,-1,1014,498,-1.29031,19.0991
-203,526,-0.659302,-18.8818,0,0,0,0,0,0,0,-1,1021,498,-0.659273,18.8818
-196,526,-0.328247,-12.179,0,0,0,0,0,0,0,-1,1028,498,-0.328238,12.179
-189,526,0.401245,-5.96826,0,0,0,0,0,0,0,-1,1035,498,0.401197,5.96826
-182,526,1.7323,-2.99405,0,0,0,0,0,0,0,-1,1042,498,1.73226,2.99404
-175,526,2.27637,-2.07983,0,0,0,0,0,0,0,-1,1049,498,2.27639,2.07984
-168,526,2.12036,-1.66049,0,0,0,0,0,0,0,-1,1056,498,2.12035,1.66048
-161,526,2.09082,-1.20572,0,0,0,0,0,0,0,-1,1063,498,2.09086,1.2057
-154,526,-1.3446,-5.37799,0,0,0,0,0,0,0,-1,1070,498,-1.34457,5.37799
-147,526,-0.472656,-6.64996,0,0,0,0,0,0,0,-1,1077,498,-0.472659,6.64997
-140,526,0.422852,-8.03339,0,0,0,0,0,0,0,-1,1084,498,0.422844,8.0334
-133,526,1.09583,-9.2215,0,0,0,0,0,0,0,-1,1091,498,1.09581,9.2215
-126,526,3.42529,-2.36053,0,0,0,0,0,0,0,-1,1098,498,3.42523,2.36052
-119,526,2.7771,-0.764099,0,0,0,0,0,0,0,-1,1105,498,2.7771,0.764107
-112,526,2.57715,-1.1893,0,0,0,0,0,0,0,-1,1112,498,2.57718,1.1893
-105,526,0,0,0,0,0,0,0,0,0,-1,1119,498,0,0
-98,526,0,0,0,0,0,0,0,0,0,-1,1126,498,0,0
-91,526,0,0,0,0,0,0,0,0,0,-1,1133,498,0,0
-84,526,0,0,0,0,0,0,0,0,0,-1,1140,498,0,0
-77,526,0,0,0,0,0,0,0,0,0,-1,1147,498,0,0
-70,526,0,0,0,0,0,0,0,0,0,-1,1154,498,0,0
-63,526,0,0,0,0,0,0,0,0,0,-1,1161,498,0,0
-56,526,0,0,0,0,0,0,0,0,0,-1,1168,498,0,0
-49,526,0,0,0,0,0,0,0,0,0,-1,1175,498,0,0
-42,526,0,0,0,0,0,0,0,0,0,-1,1182,498,0,0
-35,526,0,0,0,0,0,0,0,0,0,-1,1189,498,0,0
-28,526,0,0,0,0,0,0,0,0,0,-1,1196,498,0,0
-21,526,0,0,0,0,0,0,0,0,0,-1,1203,498,0,0
-14,526,0,0,0,0,0,0,0,0,0,-1,1210,498,0,0
-7,526,0,0,0,0,0,0,0,0,0,-1,1217,498,0,0
0,526,0,0,0,0,0,0,0,0,0,-1,1224,498,0,0
7,526,0,0,0,0,0,0,0,0,0,-1,1231,498,0,0
14,526,0,0,0,0,0,0,0,0,0,-1,1238,498,0,0
21,526,0,0,0,0,0,0,0,0,0,-1,1245,498,0,0
28,526,0,0,0,0,0,0,0,0,0,-1,1252,498,0,0
35,526,0,0,0,0,0,0,0,0,0,-1,1259,498,0,0
42,526,0,0,0,0,0,0,0,0,0,-1,1266,498,0,0
49,526,0,0,0,0,0,0,0,0,0,-1,1273,498,0,0
56,526,0,0,0,0,0,0,0,0,0,-1,1280,498,0,0
63,526,0,0,0,0,0,0,0,0,0,-1,1287,498,0,0
70,526,0,0,0,0,0,0,0,0,0,-1,1294,498,0,0
77,526,0,0,0,0,0,0,0,0,0,-1,1301,498,0,0
84,526,0,0,0,0,0,0,0,0,0,-1,1308,498,0,0
91,526,0,0,0,0,0,0,0,0,0,-1,1315,498,0,0
98,526,0,0,0,0,0,0,0,0,0,-1,1322,498,0,0
105,526,0,0,0,0,0,0,0,0,0,-1,1329,498,0,0
112,526,0,0,0,0,0,0,0,0,0,-1,1336,498,0,0
119,526,0,0,0,0,0,0,0,0,0,-1,1343,498,0,0
126,526,0,0,0,0,0,0,0,0,0,-1,1350,498,0,0
133,526,0,0,0,0,0,0,0,0,0,-1,1357,498,0,0
140,526,0,0,0,0,0,0,0,0,0,-1,1364,498,0,0
147,526,0,0,0,0,0,0,0,0,0,-1,1371,498,0,0
154,526,0,0,0,0,0,0,0,0,0,-1,1378,498,0,0
161,526,0,0,0,0,0,0,0,0,0,-1,1385,498,0,0
168,526,0,0,0,0,0,0,0,0,0,-1,1392,498,0,0
175,526,0,0,0,0,0,0,0,0,0,-1,1399,498,0,0
182,526,0,0,0,0,0,0,0,0,0,-1,1406,498,0,0
189,526,0,0,0,0,0,0,0,0,0,-1,1413,498,0,0
196,526,0,0,0,0,0,0,0,0,0,-1,1420,498,0,0
203,526,0,0,0,0,0,0,0,0,0,-1,1427,498,0,0
210,526,0,0,0,0,0,0,0,0,0,-1,1434,498,0,0
217,526,0,0,0,0,0,0,0,0,0,-1,1441,498,0,0
224,526,0,0,0,0,0,0,0,0,0,-1,1448,498,0,0
231,526,7.93237,-1.30618,0,0,0,0,0,0,0,-1,1455,498,7.93238,1.30618
238,526,7.97717,-1.08197,0,0,0,0,0,0,0,-1,1462,498,7.97723,1.08196
245,526,7.2793,-0.792938,0,0,0,0,0,0,0,-1,1469,498,7.27931,0.792926
252,526,6.73523,-2.23608,0,0,0,0,0,0,0,-1,1476,498,6.73525,2.23608
259,526,6.22949,-1.84967,0,0,0,0,0,0,0,-1,1483,498,6.22953,1.84968
266,526,5.72375,-1.46329,0,0,0,0,0,0,0,-1,1490,498,5.72381,1.46328
273,526,4.33984,0.49173,0,0,0,0,0,0,0,-1,1497,498,4.33979,-0.491727
280,526,1.4585,-1.59897,0,0,0,0,0,0,0,-1,1504,498,1.45846,1.59895
287,526,1.46411,-2.40134,0,0,0,0,0,0,0,-1,1511,498,1.46406,2.40133
294,526,5.57471,-4.59085,0,0,0,0,0,0,0,-1,1518,498,5.57466,4.59084
301,526,4.42786,-3.99677,0,0,0,0,0,0,0,-1,1525,498,4.42788,3.99676
308,526,5.79529,-4.19366,0,0,0,0,0,0,0,-1,1532,498,5.79528,4.19368
315,526,5.09851,-5.20068,0,0,0,0,0,0,0,-1,1539,498,5.09851,5.20068
322,526,5.50708,-4.72348,0,0,0,0,0,0,0,-1,1546,498,5.50713,4.72347
329,526,3.88672,-4.345,0,0,0,0,0,0,0,-1,1553,498,3.88674,4.34501
336,526,4.97876,-2.23828,0,0,0,0,0,0,0,-1,1560,498,4.97877,2.23828
343,526,3.31665,-2.69696,0,0,0,0,0,0,0,-1,1567,498,3.31667,2.69696
350,526,6.06287,-6.12015,0,0,0,0,0,0,0,-1,1574,498,6.06286,6.12014
357,526,5.79736,-7.7854,0,0,0,0,0,0,0,-1,1581,498,5.79734,7.78539
364,526,7.87146,-18.0233,0,0,0,0,0,0,0,-1,1588,498,7.87143,18.0233
371,526,7.76746,-17.4766,0,0,0,0,0,0,0,-1,1595,498,7.76748,17.4766
378,526,7.76221,-17.4772,0,0,0,0,0,0,0,-1,1602,498,7.76221,17.4772
385,526,7.94116,-16.9456,0,0,0,0,0,0,0,-1,1609,498,7.94116,16.9456
392,526,7.99121,-16.5231,0,0,0,0,0,0,0,-1,1616,498,7.99118,16.5231
399,526,7.97681,-16.1693,-0.000465931,-0.00285555,-0.0025881,0.00118985,-0.00451132,-0.569147,0.00347279,0.0236288,1623,498,7.97682,16.1693
406,526,8.00513,-15.7885,-0.000489535,-0.00242964,-0.00237378,0.00110475,-0.00402393,-0.591427,0.00311683,0.0121864,1630,498,8.00512,15.7884
413,526,8.00757,-15.4155,-0.000418238,-0.00189762,-0.00200295,0.000977242,-0.0032931,-0.608516,0.00258351,0.0123848,1637,498,8.00762,15.4155
420,526,7.99036,-15.0532,-0.000513019,-0.00155887,-0.00177101,0.000810653,-0.00288254,-0.641843,0.00224132,0.0125264,1644,498,7.99031,15.0532
427,526,7.98987,-14.6799,-0.000697719,-0.00127846,-0.00154534,0.000584292,-0.00256047,-0.692531,0.00193143,0.0124897,1651,498,7.98992,14.6799
434,526,7.97717,-14.2902,-0.000968962,-0.000944564,-0.00126959,0.00031289,-0.00222642,-0.790202,0.00159881,0.0114418,1658,498,7.97714,14.2902
441,526,7.97913,-13.9048,-0.00114757,-0.00065474,-0.00091783,4.9176e-05,-0.00185149,-0.916544,0.00125104,0.0117409,1665,498,7.97914,13.9048
448,526,7.98169,-13.5594,-0.00132333,-0.000399561,-0.00054649,-0.000145912,-0.00157698,-1.13624,0.00100622,0.0110384,1672,498,7.98167,13.5594
455,526,7.95898,-13.2016,-0.00158063,-0.000198118,-0.000206697,-0.000167877,-0.00161087,-1.42552,0.00102256,0.013011,1679,498,7.95903,13.2016
462,526,7.96509,-12.7836,-0.0019867,-8.53079e-05,5.94043e-05,-8.34538e-05,-0.00198856,1.53959,0.00129878,0.0107382,1686,498,7.96504,12.7836
469,526,7.96375,-12.3902,-0.00271187,0.000548575,0.000203703,0.000561253,-0.00272455,1.50864,0.00202949,0.00791999,1693,498,7.96374,12.3902
476,526,7.95557,-11.9751,-0.00365892,0.000952791,0.000275778,0.000969224,-0.00367536,1.51128,0.0028292,0.0092837,1700,498,7.95552,11.9751
483,526,7.97217,-11.5233,-0.00498194,0.00142763,0.000106263,0.00142939,-0.0049837,1.55422,0.00388754,0.0120061,1707,498,7.97221,11.5233
490,526,8.02808,-11.0615,-0.0068651,0.00186338,-0.000203169,0.0018681,-0.00686983,-1.54754,0.00531321,0.0251602,1714,498,8.02806,11.0615
497,526,7.95325,-10.8168,-0.00921096,0.00277243,-0.000736906,0.00281757,-0.00925611,-1.50961,0.00729365,0.0315092,1721,498,7.95321,10.8168
504,526,7.83044,-10.3815,-0.0121871,0.00411352,-0.00144157,0.00424002,-0.0123136,-1.48327,0.00992889,0.0343554,1728,498,7.83042,10.3815
511,526,7.59778,-9.92789,-0.0158897,0.0063042,-0.00230109,0.00654027,-0.0161258,-1.46856,0.0134707,0.0431511,1735,498,7.5978,9.92787
518,526,7.18579,-8.99808,-0.0203619,0.00909233,-0.00322992,0.00944236,-0.020712,-1.46285,0.0178103,0.043023,1742,498,7.18584,8.99807
525,526,7.02197,-8.43488,0,0,0,0,0,0,0,-1,1749,498,7.02199,8.43486
532,526,3.54285,-2.81274,0,0,0,0,0,0,0,-1,1756,498,3.54284,2.81273
539,526,3.29407,0.932312,0,0,0,0,0,0,0,-1,1763,498,3.2941,-0.93232
546,526,3.36731,1.07721,0,0,0,0,0,0,0,-1,1770,498,3.36735,-1.07719
553,526,3.40796,1.37137,0,0,0,0,0,0,0,-1,1777,498,3.40792,-1.37138
560,526,0,0,0,0,0,0,0,0,0,-1,1784,498,0,0
567,526,0,0,0,0,0,0,0,0,0,-1,1791,498,0,0
574,526,0,0,0,0,0,0,0,0,0,-1,1798,498,0,0
581,526,0,0,0,0,0,0,0,0,0,-1,1805,498,0,0
588,526,0,0,0,0,0,0,0,0,0,-1,1812,498,0,0
595,526,0,0,0,0,0,0,0,0,0,-1,1819,498,0,0
602,526,0,0,0,0,0,0,0,0,0,-1,1826,498,0,0
609,526,0,0,0,0,0,0,0,0,0,-1,1833,498,0,0
616,526,0,0,0,0,0,0,0,0,0,-1,1840,498,0,0
623,526,0,0,0,0,0,0,0,0,0,-1,1847,498,0,0
630,526,0,0,0,0,0,0,0,0,0,-1,1854,498,0,0
637,526,0,0,0,0,0,0,0,0,0,-1,1861,498,0,0
644,526,0,0,0,0,0,0,0,0,0,-1,1868,498,0,0
651,526,0,0,0,0,0,0,0,0,0,-1,1875,498,0,0
658,526,0,0,0,0,0,0,0,0,0,-1,1882,498,0,0
665,526,0,0,0,0,0,0,0,0,0,-1,1889,498,0,0
672,526,0,0,0,0,0,0,0,0,0,-1,1896,498,0,0
679,526,0,0,0,0,0,0,0,0,0,-1,1903,498,0,0
686,526,0,0,0,0,0,0,0,0,0,-1,1910,498,0,0
693,526,0,0,0,0,0,0,0,0,0,-1,1917,498,0,0
700,526,0,0,0,0,0,0,0,0,0,-1,1924,498,0,0
707,526,0,0,0,0,0,0,0,0,0,-1,1931,498,0,0
714,526,0,0,0,0,0,0,0,0,0,-1,1938,498,0,0
721,526,0,0,0,0,0,0,0,0,0,-1,1945,498,0,0
728,526,0,0,0,0,0,0,0,0,0,-1,1952,498,0,0
735,526,0,0,0,0,0,0,0,0,0,-1,1959,498,0,0
742,526,0,0,0,0,0,0,0,0,0,-1,1966,498,0,0
749,526,0,0,0,0,0,0,0,0,0,-1,1973,498,0,0
756,526,0,0,0,0,0,0,0,0,0,-1,1980,498,0,0
763,526,0,0,0,0,0,0,0,0,0,-1,1987,498,0,0
770,526,0,0,0,0,0,0,0,0,0,-1,1994,498,0,0
777,526,0,0,0,0,0,0,0,0,0,-1,2001,498,0,0
784,526,0,0,0,0,0,0,0,0,0,-1,2008,498,0,0
791,526,0,0,0,0,0,0,0,0,0,-1,2015,498,0,0
798,526,0,0,0,0,0,0,0,0,0,-1,2022,498,0,0
805,526,0,0,0,0,0,0,0,0,0,-1,2029,498,0,0
812,526,0,0,0,0,0,0,0,0,0,-1,2036,498,0,0
-700,519,0,0,0,0,0,0,0,0,0,-1,524,505,0,0
-693,519,0,0,0,0,0,0,0,0,0,-1,531,505,0,0
-686,519,0,0,0,0,0,0,0,0,0,-1,538,505,0,0
-679,519,0,0,0,0,0,0,0,0,0,-1,545,505,0,0
-672,519,0,0,0,0,0,0,0,0,0,-1,552,505,0,0
-665,519,0,0,0,0,0,0,0,0,0,-1,559,505,0,0
-658,519,0,0,0,0,0,0,0,0,0,-1,566,505,0,0
-651,519,0,0,0,0,0,0,0,0,0,-1,573,505,0,0
-644,519,0,0,0,0,0,0,0,0,0,-1,580,505,0,0
-637,519,0,0,0,0,0,0,0,0,0,-1,587,505,0,0
-630,519,0,0,0,0,0,0,0,0,0,-1,594,505,0,0
-623,519,0,0,0,0,0,0,0,0,0,-1,601,505,0,0
-616,519,0,0,0,0,0,0,0,0,0,-1,608,505,0,0
-609,519,0,0,0,0,0,0,0,0,0,-1,615,505,0,0
-602,519,0,0,0,0,0,0,0,0,0,-1,622,505,0,0
-595,519,0,0,0,0,0,0,0,0,0,-1,629,505,0,0
-588,519,0,0,0,0,0,0,0,0,0,-1,636,505,0,0
-581,519,0,0,0,0,0,0,0,0,0,-1,643,505,0,0
-574,519,0,0,0,0,0,0,0,0,0,-1,650,505,0,0
-567,519,0,0,0,0,0,0,0,0,0,-1,657,505,0,0
-560,519,0,0,0,0,0,0,0,0,0,-1,664,505,0,0
-553,519,0,0,0,0,0,0,0,0,0,-1,671,505,0,0
-546,519,0,0,0,0,0,0,0,0,0,-1,678,505,0,0
-539,519,0,0,0,0,0,0,0,0,0,-1,685,505,0,0
-532,519,0,0,0,0,0,0,0,0,0,-1,692,505,0,0
-525,519,0,0,0,0,0,0,0,0,0,-1,699,505,0,0
-518,519,0,0,0,0,0,0,0,0,0,-1,706,505,0,0
-511,519,0,0,0,0,0,0,0,0,0,-1,713,505,0,0
-504,519,0,0,0,0,0,0,0,0,0,-1,720,505,0,0
-497,519,0,0,0,0,0,0,0,0,0,-1,727,505,0,0
-490,519,0,0,0,0,0,0,0,0,0,-1,734,505,0,0
-483,519,0,0,0,0,0,0,0,0,0,-1,741,505,0,0
-476,519,0,0,0,0,0,0,0,0,0,-1,748,505,0,0
-469,519,0,0,0,0,0,0,0,0,0,-1,755,505,0,0
-462,519,0,0,0,0,0,0,0,0,0,-1,762,505,0,0
-455,519,0,0,0,0,0,0,0,0,0,-1,769,505,0,0
-448,519,0,0,0,0,0,0,0,0,0,-1,776,505,0,0
-441,519,1.34839,-5.29346,0,0,0,0,0,0,0,-1,783,505,1.3484,5.29347
-434,519,0.949585,-5.77313,0,0,0,0,0,0,0,-1,790,505,0.949598,5.77315
-427,519,0.138489,-5.67401,0,0,0,0,0,0,0,-1,797,505,0.138516,5.67402
-420,519,0.713989,-6.8869,0,0,0,0,0,0,0,-1,804,505,0.713969,6.88691
-413,519,-1.02808,-10.7485,0,0,0,0,0,0,0,-1,811,505,-1.02808,10.7484
-406,519,-0.870483,-10.6194,0.00285543,0.00412234,0.0279792,0.0314753,-0.0244975,0.796716,0.0323995,0.0449498,818,505,-0.870458,10.6194
-399,519,-0.796692,-10.4075,0.00208022,0.00336395,0.0216595,0.0243911,-0.0189469,0.800211,0.0250869,0.0487246,825,505,-0.796711,10.4075
-392,519,-0.437561,-10.7167,0,0,0,0,0,0,0,-1,832,505,-0.437582,10.7167
-385,519,-0.623535,-11.2753,0,0,0,0,0,0,0,-1,839,505,-0.623521,11.2754
-378,519,-0.636719,-11.6745,-0.000201259,0.00266875,0.00730628,0.00867961,-0.00621212,0.882367,0.008637,0.0310932,846,505,-0.636696,11.6745
-371,519,-0.646606,-12.1241,-0.000512564,0.0023532,0.00447439,0.00561855,-0.00377791,0.940359,0.00545963,0.0185949,853,505,-0.646615,12.1241
-364,519,-0.674927,-12.5488,-0.000752587,0.00211127,0.00235542,0.00343587,-0.00207719,1.05851,0.00321502,0.0111949,860,505,-0.674912,12.5488
-357,519,-0.679199,-12.9669,-0.000822347,0.00188225,0.00090713,0.00215832,-0.00109842,1.27536,0.00191319,0.0107272,867,505,-0.679226,12.9668
-350,519,-0.693665,-13.3495,-0.000879464,0.00175135,-0.000604335,0.00188354,-0.00101165,-1.35546,0.00169661,0.0126199,874,505,-0.69365,13.3496
-343,519,-0.71991,-13.7008,-0.000791964,0.00133712,-0.00112073,0.00181831,-0.00127316,-1.16524,0.00179408,0.0150794,881,505,-0.719918,13.7008
-336,519,-0.73938,-14.0896,-0.000573388,0.000963193,-0.000902949,0.00138048,-0.000990672,-1.1379,0.00137514,0.0152303,888,505,-0.739408,14.0896
-329,519,-0.735718,-14.4704,-0.000215888,0.000631367,-0.000700092,0.00102602,-0.000610545,-1.05748,0.000954969,0.0126881,895,505,-0.735742,14.4704
-322,519,-0.726135,-14.842,9.19015e-05,0.000282972,-0.000432308,0.000630176,-0.000255302,-0.894145,0.000526281,0.0104472,902,505,-0.726126,14.842
-315,519,-0.725647,-15.2286,0.000400192,2.02768e-05,-0.000132116,0.000441619,-2.11497e-05,-0.303851,0.00030171,0.00926694,909,505,-0.725643,15.2286
-308,519,-0.754517,-15.6083,0.000775338,-0.000320837,0.000201629,0.000811249,-0.000356748,0.176256,0.000691152,0.00830042,916,505,-0.754525,15.6083
-301,519,-0.783875,-15.9424,0.00113621,-0.000836683,0.000583151,0.00129569,-0.000996161,0.266948,0.00132696,0.0130697,923,505,-0.783868,15.9424
-294,519,-0.798279,-16.2431,0.00141896,-0.00175343,0.00110942,0.00176843,-0.00210291,0.30517,0.0022379,0.0155175,930,505,-0.798276,16.2431
-287,519,-0.809448,-16.6161,0.00180997,-0.00257792,0.0015833,0.00232161,-0.00308957,0.312561,0.00313462,0.0111387,937,505,-0.809472,16.6161
-280,519,-0.820007,-16.964,0.00209254,-0.00405769,0.00208622,0.00273342,-0.00469857,0.298048,0.00434058,0.0158398,944,505,-0.820032,16.964
-273,519,-0.762451,-17.3165,0.00169352,-0.00665278,0.0027868,0.00253848,-0.00749775,0.294391,0.00602561,0.026954,951,505,-0.762473,17.3164
-266,519,-0.77887,-17.652,0.000738359,-0.00997179,0.00443152,0.0023342,-0.0115676,0.345654,0.00859612,0.037512,958,505,-0.778859,17.652
-259,519,-0.662659,-17.9124,0,0,0,0,0,0,0,-1,965,505,-0.662664,17.9124
-252,519,-0.651978,-17.9265,0,0,0,0,0,0,0,-1,972,505,-0.651991,17.9265
-245,519,-0.802734,-17.7435,0,0,0,0,0,0,0,-1,979,505,-0.802714,17.7435
-238,519,0.523621,-16.4753,0,0,0,0,0,0,0,-1,986,505,0.523651,16.4753
-231,519,0.337585,-11.2798,0,0,0,0,0,0,0,-1,993,505,0.337568,11.2798
-224,519,-0.0494995,-7.97394,0,0,0,0,0,0,0,-1,1000,505,-0.0495123,7.97392
-217,519,-2.97125,-4.84393,0,0,0,0,0,0,0,-1,1007,505,-2.97128,4.84393
-210,519,-2.14398,-4.74774,0,0,0,0,0,0,0,-1,1014,505,-2.14397,4.74775
-203,519,-0.513611,-5.39017,0,0,0,0,0,0,0,-1,1021,505,-0.513585,5.39017
-196,519,-0.374023,-5.41635,0,0,0,0,0,0,0,-1,1028,505,-0.374047,5.41635
-189,519,-0.234497,-5.44254,0,0,0,0,0,0,0,-1,1035,505,-0.234508,5.44253
-182,519,2.76697,-1.19659,0,0,0,0,0,0,0,-1,1042,505,2.76696,1.19661
-175,519,2.31323,-0.960938,0,0,0,0,0,0,0,-1,1049,505,2.31319,0.960941
-168,519,2.01074,-0.721405,0,0,0,0,0,0,0,-1,1056,505,2.01072,0.721407
-161,519,2.32056,-0.522339,0,0,0,0,0,0,0,-1,1063,505,2.32057,0.522328
-154,519,2.55566,0.116669,0,0,0,0,0,0,0,-1,1070,505,2.55563,-0.116661
-147,519,-0.55127,-6.14001,0,0,0,0,0,0,0,-1,1077,505,-0.551252,6.14001
-140,519,0.240601,-7.53503,0,0,0,0,0,0,0,-1,1084,505,0.240653,7.53501
-133,519,2.70911,-4.4516,0,0,0,0,0,0,0,-1,1091,505,2.70915,4.45161
-126,519,0,0,0,0,0,0,0,0,0,-1,1098,505,0,0
-119,519,0,0,0,0,0,0,0,0,0,-1,1105,505,0,0
-112,519,0,0,0,0,0,0,0,0,0,-1,1112,505,0,0
-105,519,0,0,0,0,0,0,0,0,0,-1,1119,505,0,0
-98,519,0,0,0,0,0,0,0,0,0,-1,1126,505,0,0
-91,519,0,0,0,0,0,0,0,0,0,-1,1133,505,0,0
-84,519,0,0,0,0,0,0,0,0,0,-1,1140,505,0,0
-77,519,0,0,0,0,0,0,0,0,0,-1,1147,505,0,0
-70,519,0,0,0,0,0,0,0,0,0,-1,1154,505,0,0
-63,519,0,0,0,0,0,0,0,0,0,-1,1161,505,0,0
-56,519,0,0,0,0,0,0,0,0,0,-1,1168,505,0,0
-49,519,0,0,0,0,0,0,0,0,0,-1,1175,505,0,0
-42,519,0,0,0,0,0,0,0,0,0,-1,1182,505,0,0
-35,519,0,0,0,0,0,0,0,0,0,-1,1189,505,0,0
-28,519,0,0,0,0,0,0,0,0,0,-1,1196,505,0,0
-21,519,0,0,0,0,0,0,0,0,0,-1,1203,505,0,0
-14,519,0,0,0,0,0,0,0,0,0,-1,1210,505,0,0
-7,519,0,0,0,0,0,0,0,0,0,-1,1217,505,0,0
0,519,0,0,0,0,0,0,0,0,0,-1,1224,505,0,0
7,519,0,0,0,0,0,0,0,0,0,-1,1231,505,0,0
14,519,0,0,0,0,0,0,0,0,0,-1,1238,505,0,0
21,519,0,0,0,0,0,0,0,0,0,-1,1245,505,0,0
28,519,0,0,0,0,0,0,0,0,0,-1,1252,505,0,0
35,519,0,0,0,0,0,0,0,0,0,-1,1259,505,0,0
42,519,0,0,0,0,0,0,0,0,0,-1,1266,505,0,0
49,519,0,0,0,0,0,0,0,0,0,-1,1273,505,0,0
56,519,0,0,0,0,0,0,0,0,0,-1,1280,505,0,0
63,519,0,0,0,0,0,0,0,0,0,-1,1287,505,0,0
70,519,0,0,0,0,0,0,0,0,0,-1,1294,505,0,0
77,519,0,0,0,0,0,0,0,0,0,-1,1301,505,0,0
84,519,0,0,0,0,0,0,0,0,0,-1,1308,505,0,0
91,519,0,0,0,0,0,0,0,0,0,-1,1315,505,0,0
98,519,0,0,0,0,0,0,0,0,0,-1,1322,505,0,0
105,519,0,0,0,0,0,0,0,0,0,-1,1329,505,0,0
112,519,0,0,0,0,0,0,0,0,0,-1,1336,505,0,0
119,519,0,0,0,0,0,0,0,0,0,-1,1343,505,0,0
126,519,0,0,0,0,0,0,0,0,0,-1,1350,505,0,0
133,519,0,0,0,0,0,0,0,0,0,-1,1357,505,0,0
140,519,0,0,0,0,0,0,0,0,0,-1,1364,505,0,0
147,519,0,0,0,0,0,0,0,0,0,-1,1371,505,0,0
154,519,0,0,0,0,0,0,0,0,0,-1,1378,505,0,0
161,519,0,0,0,0,0,0,0,0,0,-1,1385,505,0,0
168,519,0,0,0,0,0,0,0,0,0,-1,1392,505,0,0
175,519,0,0,0,0,0,0,0,0,0,-1,1399,505,0,0
182,519,0,0,0,0,0,0,0,0,0,-1,1406,505,0,0
189,519,0,0,0,0,0,0,0,0,0,-1,1413,505,0,0
196,519,0,0,0,0,0,0,0,0,0,-1,1420,505,0,0
203,519,0,0,0,0,0,0,0,0,0,-1,1427,505,0,0
210,519,0,0,0,0,0,0,0,0,0,-1,1434,505,0,0
217,519,0,0,0,0,0,0,0,0,0,-1,1441,505,0,0
224,519,0,0,0,0,0,0,0,0,0,-1,1448,505,0,0
231,519,0,0,0,0,0,0,0,0,0,-1,1455,505,0,0
238,519,0,0,0,0,0,0,0,0,0,-1,1462,505,0,0
245,519,0,0,0,0,0,0,0,0,0,-1,1469,505,0,0
252,519,5.26208,0.0938416,0,0,0,0,0,0,0,-1,1476,505,5.26207,-0.0938493
259,519,6.14246,-1.36441,0,0,0,0,0,0,0,-1,1483,505,6.14241,1.36441
266,519,5.31909,-0.400787,0,0,0,0,0,0,0,-1,1490,505,5.31912,0.400773
273,519,4.02393,0.325531,0,0,0,0,0,0,0,-1,1497,505,4.0239,-0.325522
280,519,4.68848,0.53006,0,0,0,0,0,0,0,-1,1504,505,4.68842,-0.530073
287,519,7.9519,-3.80801,0,0,0,0,0,0,0,-1,1511,505,7.95193,3.808
294,519,6.92273,-3.38889,0,0,0,0,0,0,0,-1,1518,505,6.92268,3.38888
301,519,5.35669,-2.92661,0,0,0,0,0,0,0,-1,1525,505,5.35675,2.9266
308,519,7.37549,-5.64529,0,0,0,0,0,0,0,-1,1532,505,7.3755,5.64529
315,519,6.30029,-4.53754,0,0,0,0,0,0,0,-1,1539,505,6.30024,4.53753
322,519,5.84302,-5.45117,0,0,0,0,0,0,0,-1,1546,505,5.84303,5.45116
329,519,4.92407,0.62384,0,0,0,0,0,0,0,-1,1553,505,4.92403,-0.623832
336,519,3.10095,-0.329285,0,0,0,0,0,0,0,-1,1560,505,3.1009,0.329283
343,519,2.49146,-2.31119,0,0,0,0,0,0,0,-1,1567,505,2.49145,2.31119
350,519,3.47729,-2.22516,0,0,0,0,0,0,0,-1,1574,505,3.47726,2.22515
357,519,4.51917,-4.51691,0,0,0,0,0,0,0,-1,1581,505,4.51914,4.51691
364,519,3.54626,-7.20673,0,0,0,0,0,0,0,-1,1588,505,3.54622,7.20675
371,519,5.349,-8.20068,0,0,0,0,0,0,0,-1,1595,505,5.34898,8.20068
378,519,6.36597,-10.0967,0,0,0,0,0,0,0,-1,1602,505,6.36597,10.0967
385,519,6.24756,-9.72186,0,0,0,0,0,0,0,-1,1609,505,6.24752,9.72183
392,519,8.09106,-16.0579,0,0,0,0,0,0,0,-1,1616,505,8.09107,16.0579
399,519,8.24817,-16.2066,0,0,0,0,0,0,0,-1,1623,505,8.24814,16.2066
406,519,8.36694,-15.8311,-0.00175636,-0.0041309,-0.00406871,0.00129476,-0.00718203,-0.643437,0.00527286,0.0328682,1630,505,8.36696,15.831
413,519,8.39734,-15.4337,-0.00144159,-0.00348674,-0.00350574,0.00118767,-0.00611599,-0.643492,0.00452547,0.0151281,1637,505,8.39734,15.4336
420,519,8.3656,-15.0426,-0.00130485,-0.00302123,-0.003106,0.00105934,-0.00538542,-0.650611,0.00399054,0.0150097,1644,505,8.36565,15.0426
427,519,8.37646,-14.6954,-0.00119423,-0.00265194,-0.00270985,0.000883067,-0.00472924,-0.654025,0.00348468,0.0132673,1651,505,8.37646,14.6954
434,519,8.37683,-14.3087,-0.00123588,-0.00213814,-0.00225866,0.000616263,-0.00399029,-0.686829,0.00288762,0.0121661,1658,505,8.37688,14.3087
441,519,8.35498,-13.9112,-0.00116692,-0.00164371,-0.00172605,0.000337124,-0.00314775,-0.716774,0.00221943,0.0124496,1665,505,8.35493,13.9112
448,519,8.36133,-13.5497,-0.00107737,-0.00120736,-0.0011957,5.5099e-05,-0.00233982,-0.758246,0.00157857,0.00974273,1672,505,8.36135,13.5497
455,519,8.34656,-13.1812,-0.00107578,-0.000832764,-0.000717332,-0.000226722,-0.00168182,-0.869297,0.0010538,0.0102303,1679,505,8.34655,13.1812
462,519,8.35986,-12.7833,-0.00122211,-0.000566789,-0.000330654,-0.000428946,-0.00135995,-1.17582,0.000802806,0.0098404,1686,505,8.35988,12.7833
469,519,8.36658,-12.3728,-0.00167547,7.8305e-05,-7.52214e-05,8.15254e-05,-0.00167869,-1.52801,0.00114727,0.0102292,1693,505,8.36661,12.3728
476,519,8.35571,-11.9602,-0.00238424,0.000516452,8.94499e-05,0.000519207,-0.00238699,1.54,0.00178968,0.0125546,1700,505,8.35569,11.9602
483,519,8.3385,-11.5396,-0.00338662,0.000984859,3.98242e-05,0.000985222,-0.00338698,1.56169,0.00264821,0.0133476,1707,505,8.33849,11.5396
490,519,8.32629,-11.1107,-0.00493174,0.00138391,-0.000176842,0.00138886,-0.00493668,-1.54282,0.00383876,0.0115404,1714,505,8.32627,11.1107
497,519,8.31006,-10.739,-0.00687762,0.00205472,-0.00060094,0.00209497,-0.00691787,-1.50392,0.00544624,0.01535,1721,505,8.31007,10.7389
504,519,8.27515,-10.314,-0.00930577,0.00301316,-0.00117395,0.00312403,-0.00941665,-1.47663,0.00753807,0.0158896,1728,505,8.27519,10.314
511,519,8.2478,-9.86993,-0.0123015,0.0044939,-0.00188376,0.00470258,-0.0125102,-1.46046,0.0102729,0.0213166,1735,505,8.24785,9.86996
518,519,8.09436,-9.52515,-0.0158585,0.00628233,-0.00267067,0.00659992,-0.0161761,-1.45244,0.0135316,0.0408737,1742,505,8.09436,9.52515
525,519,8.04077,-9.2207,0,0,0,0,0,0,0,-1,1749,505,8.04076,9.22069
532,519,3.5155,-2.86511,0,0,0,0,0,0,0,-1,1756,505,3.51554,2.8651
539,519,3.30005,0.0229797,0,0,0,0,0,0,0,-1,1763,505,3.30008,-0.0229869
546,519,4.62024,-2.89774,0,0,0,0,0,0,0,-1,1770,505,4.62023,2.89775
553,519,4.14136,0.0667419,0,0,0,0,0,0,0,-1,1777,505,4.14141,-0.0667503
560,519,3.77856,0.279724,0,0,0,0,0,0,0,-1,1784,505,3.77861,-0.279731
567,519,0,0,0,0,0,0,0,0,0,-1,1791,505,0,0
574,519,0,0,0,0,0,0,0,0,0,-1,1798,505,0,0
581,519,0,0,0,0,0,0,0,0,0,-1,1805,505,0,0
588,519,0,0,0,0,0,0,0,0,0,-1,1812,505,0,0
595,519,0,0,0,0,0,0,0,0,0,-1,1819,505,0,0
602,519,0,0,0,0,0,0,0,0,0,-1,1826,505,0,0
609,519,0,0,0,0,0,0,0,0,0,-1,1833,505,0,0
616,519,0,0,0,0,0,0,0,0,0,-1,1840,505,0,0
623,519,0,0,0,0,0,0,0,0,0,-1,1847,505,0,0
630,519,0,0,0,0,0,0,0,0,0,-1,1854,505,0,0
637,519,0,0,0,0,0,0,0,0,0,-1,1861,505,0,0
644,519,0,0,0,0,0,0,0,0,0,-1,1868,505,0,0
651,519,0,0,0,0,0,0,0,0,0,-1,1875,505,0,0
658,519,0,0,0,0,0,0,0,0,0,-1,1882,505,0,0
665,519,0,0,0,0,0,0,0,0,0,-1,1889,505,0,0
672,519,0,0,0,0,0,0,0,0,0,-1,1896,505,0,0
679,519,0,0,0,0,0,0,0,0,0,-1,1903,505,0,0
686,519,0,0,0,0,0,0,0,0,0,-1,1910,505,0,0
693,519,0,0,0,0,0,0,0,0,0,-1,1917,505,0,0
700,519,0,0,0,0,0,0,0,0,0,-1,1924,505,0,0
707,519,0,0,0,0,0,0,0,0,0,-1,1931,505,0,0
714,519,0,0,0,0,0,0,0,0,0,-1,1938,505,0,0
721,519,0,0,0,0,0,0,0,0,0,-1,1945,505,0,0
728,519,0,0,0,0,0,0,0,0,0,-1,1952,505,0,0
735,519,0,0,0,0,0,0,0,0,0,-1,1959,505,0,0
742,519,0,0,0,0,0,0,0,0,0,-1,1966,505,0,0
749,519,0,0,0,0,0,0,0,0,0,-1,1973,505,0,0
756,519,0,0,0,0,0,0,0,0,0,-1,1980,505,0,0
763,519,0,0,0,0,0,0,0,0,0,-1,1987,505,0,0
770,519,0,0,0,0,0,0,0,0,0,-1,1994,505,0,0
777,519,0,0,0,0,0,0,0,0,0,-1,2001,505,0,0
784,519,0,0,0,0,0,0,0,0,0,-1,2008,505,0,0
791,519,0,0,0,0,0,0,0,0,0,-1,2015,505,0,0
798,519,0,0,0,0,0,0,0,0,0,-1,2022,505,0,0
805,519,0,0,0,0,0,0,0,0,0,-1,2029,505,0,0
812,519,0,0,0,0,0,0,0,0,0,-1,2036,505,0,0
-700,512,0,0,0,0,0,0,0,0,0,-1,524,512,0,0
-693,512,0,0,0,0,0,0,0,0,0,-1,531,512,0,0
-686,512,0,0,0,0,0,0,0,0,0,-1,538,512,0,0
-679,512,0,0,0,0,0,0,0,0,0,-1,545,512,0,0
-672,512,0,0,0,0,0,0,0,0,0,-1,552,512,0,0
-665,512,0,0,0,0,0,0,0,0,0,-1,559,512,0,0
-658,512,0,0,0,0,0,0,0,0,0,-1,566,512,0,0
-651,512,0,0,0,0,0,0,0,0,0,-1,573,512,0,0
-644,512,0,0,0,0,0,0,0,0,0,-1,580,512,0,0
-637,512,0,0,0,0,0,0,0,0,0,-1,587,512,0,0
-630,512,0,0,0,0,0,0,0,0,0,-1,594,512,0,0
-623,512,0,0,0,0,0,0,0,0,0,-1,601,512,0,0
-616,512,0,0,0,0,0,0,0,0,0,-1,608,512,0,0
-609,512,0,0,0,0,0,0,0,0,0,-1,615,512,0,0
-602,512,0,0,0,0,0,0,0,0,0,-1,622,512,0,0
-595,512,0,0,0,0,0,0,0,0,0,-1,629,512,0,0
-588,512,0,0,0,0,0,0,0,0,0,-1,636,512,0,0
-581,512,0,0,0,0,0,0,0,0,0,-1,643,512,0,0
-574,512,0,0,0,0,0,0,0,0,0,-1,650,512,0,0
-567,512,0,0,0,0,0,0,0,0,0,-1,657,512,0,0
-560,512,0,0,0,0,0,0,0,0,0,-1,664,512,0,0
-553,512,0,0,0,0,0,0,0,0,0,-1,671,512,0,0
-546,512,0,0,0,0,0,0,0,0,0,-1,678,512,0,0
-539,512,0,0,0,0,0,0,0,0,0,-1,685,512,0,0
-532,512,0,0,0,0,0,0,0,0,0,-1,692,512,0,0
-525,512,0,0,0,0,0,0,0,0,0,-1,699,512,0,0
-518,512,0,0,0,0,0,0,0,0,0,-1,706,512,0,0
-511,512,0,0,0,0,0,0,0,0,0,-1,713,512,0,0
-504,512,0,0,0,0,0,0,0,0,0,-1,720,512,0,0
-497,512,0,0,0,0,0,0,0,0,0,-1,727,512,0,0
-490,512,0,0,0,0,0,0,0,0,0,-1,734,512,0,0
-483,512,0,0,0,0,0,0,0,0,0,-1,741,512,0,0
-476,512,0,0,0,0,0,0,0,0,0,-1,748,512,0,0
-469,512,0,0,0,0,0,0,0,0,0,-1,755,512,0,0
-462,512,0,0,0,0,0,0,0,0,0,-1,762,512,0,0
-455,512,0,0,0,0,0,0,0,0,0,-1,769,512,0,0
-448,512,1.96283,-4.15674,0,0,0,0,0,0,0,-1,776,512,1.96285,4.15677
-441,512,1.78198,-4.88824,0,0,0,0,0,0,0,-1,783,512,1.78201,4.88826
-434,512,1.32996,-7.28003,0,0,0,0,0,0,0,-1,790,512,1.32993,7.28003
-427,512,0.427734,-6.66571,0,0,0,0,0,0,0,-1,797,512,0.427713,6.6657
-420,512,-1.55994,-10.0776,0,0,0,0,0,0,0,-1,804,512,-1.55992,10.0777
-413,512,-1.52539,-10.2317,0,0,0,0,0,0,0,-1,811,512,-1.52536,10.2317
-406,512,-1.50409,-10.3781,0.00226129,0.00443415,0.0203732,0.0237499,-0.0170544,0.812036,0.0236639,0.0444874,818,512,-1.50406,10.3781
-399,512,-1.25934,-10.4462,0.00180638,0.00358418,0.0156594,0.0183799,-0.0129894,0.81375,0.0182,0.0429131,825,512,-1.25937,10.4462
-392,512,-0.991394,-10.8599,0.00114147,0.00319747,0.011451,0.0136665,-0.00932761,0.830165,0.0133542,0.0373468,832,512,-0.99137,10.8599
-385,512,-0.984314,-11.3343,0.00057287,0.00273784,0.00804656,0.0097744,-0.00646369,0.85226,0.0094398,0.0198702,839,512,-0.984286,11.3343
-378,512,-1.02612,-11.7376,0.000208701,0.00225416,0.00529615,0.00662543,-0.00416257,0.880778,0.00628232,0.0145982,846,512,-1.02611,11.7376
-371,512,-1.02991,-12.1508,-4.32112e-05,0.00183376,0.003209,0.00423869,-0.00244814,0.927658,0.00390651,0.0120043,853,512,-1.02989,12.1508
-364,512,-1.02246,-12.5989,-0.000187375,0.00149068,0.00171321,0.00255929,-0.00125598,1.0131,0.00224518,0.00965512,860,512,-1.02244,12.5988
-357,512,-1.04236,-12.9835,-0.000197356,0.00123586,0.000695048,0.00151756,-0.000479056,1.18573,0.0012036,0.0110126,867,512,-1.04236,12.9835
-350,512,-1.05945,-13.3717,-0.000208383,0.00107005,-0.000375318,0.00117209,-0.000310423,-1.30534,0.000902836,0.011233,874,512,-1.05946,13.3717
-343,512,-1.09259,-13.735,-9.8221e-05,0.000667607,-0.000685706,0.00107007,-0.000500683,-1.04004,0.000926522,0.0114958,881,512,-1.09262,13.735
-336,512,-1.10541,-14.1155,0.000123779,0.000294094,-0.000463565,0.000680258,-0.000262386,-0.876236,0.000561778,0.0123774,888,512,-1.10538,14.1155
-329,512,-1.08435,-14.476,0.000472599,-3.11255e-05,-0.000290322,0.000605082,-0.000163609,-0.428108,0.000467566,0.0139053,895,512,-1.08435,14.476
-322,512,-1.09857,-14.8444,0.000742644,-0.000363073,-6.23076e-05,0.000746144,-0.000366573,-0.0561136,0.000654768,0.0121811,902,512,-1.09857,14.8443
-315,512,-1.0979,-15.2183,0.000984361,-0.000641407,0.000190328,0.00100635,-0.000663392,0.114998,0.000970778,0.0111487,909,512,-1.0979,15.2183
-308,512,-1.12219,-15.5808,0.00127668,-0.00102121,0.000477322,0.00137189,-0.00111642,0.196874,0.00143915,0.010867,916,512,-1.12221,15.5808
-301,512,-1.13678,-15.9253,0.00155809,-0.0015506,0.000797472,0.00175073,-0.00174324,0.23702,0.00201724,0.0145384,923,512,-1.13678,15.9253
-294,512,-1.14764,-16.2457,0.00172809,-0.00257971,0.00130536,0.00209278,-0.00294439,0.272426,0.00292203,0.0149696,930,512,-1.14766,16.2457
-287,512,-1.2265,-16.531,0.00202232,-0.00340928,0.00171361,0.00251776,-0.00390472,0.281444,0.00373673,0.0222943,937,512,-1.2265,16.531
-280,512,-1.08606,-16.9528,0.00224585,-0.00510352,0.0022308,0.00286998,-0.00572765,0.272802,0.00505441,0.034645,944,512,-1.08607,16.9529
-273,512,-0.979492,-17.3638,0,0,0,0,0,0,0,-1,951,512,-0.979502,17.3638
-266,512,-1.08661,-17.7363,0,0,0,0,0,0,0,-1,958,512,-1.0866,17.7363
-259,512,-0.525452,-14.0815,0,0,0,0,0,0,0,-1,965,512,-0.525475,14.0815
-252,512,1.45941,-3.43475,0,0,0,0,0,0,0,-1,972,512,1.45938,3.43475
-245,512,4.12927,-11.272,0,0,0,0,0,0,0,-1,979,512,4.1293,11.272
-238,512,0.227051,-8.92969,0,0,0,0,0,0,0,-1,986,512,0.227073,8.92968
-231,512,-2.54437,-10.169,0,0,0,0,0,0,0,-1,993,512,-2.54439,10.169
-224,512,-4.84601,-7.52783,0,0,0,0,0,0,0,-1,1000,512,-4.84602,7.52786
-217,512,-7.37274,-3.89563,0,0,0,0,0,0,0,-1,1007,512,-7.37274,3.89561
-210,512,-3.76642,-1.94702,0,0,0,0,0,0,0,-1,1014,512,-3.76641,1.94702
-203,512,-2.48328,-5.19061,0,0,0,0,0,0,0,-1,1021,512,-2.48328,5.19059
-196,512,-1.14929,-4.63202,0,0,0,0,0,0,0,-1,1028,512,-1.14934,4.632
-189,512,0.197998,4.55505,0,0,0,0,0,0,0,-1,1035,512,0.197996,-4.55506
-182,512,2.73938,0.0778503,0,0,0,0,0,0,0,-1,1042,512,2.73944,-0.077852
-175,512,2.29565,0.209808,0,0,0,0,0,0,0,-1,1049,512,2.29565,-0.209813
-168,512,2.09399,-0.302856,0,0,0,0,0,0,0,-1,1056,512,2.09403,0.302826
-161,512,2.76636,0.0921021,0,0,0,0,0,0,0,-1,1063,512,2.76633,-0.0921104
-154,512,3.41382,0.466187,0,0,0,0,0,0,0,-1,1070,512,3.41382,-0.466178
-147,512,0,0,0,0,0,0,0,0,0,-1,1077,512,0,0
-140,512,0,0,0,0,0,0,0,0,0,-1,1084,512,0,0
-133,512,0,0,0,0,0,0,0,0,0,-1,1091,512,0,0
-126,512,0,0,0,0,0,0,0,0,0,-1,1098,512,0,0
-119,512,0,0,0,0,0,0,0,0,0,-1,1105,512,0,0
-112,512,0,0,0,0,0,0,0,0,0,-1,1112,512,0,0
-105,512,0,0,0,0,0,0,0,0,0,-1,1119,512,0,0
-98,512,0,0,0,0,0,0,0,0,0,-1,1126,512,0,0
-91,512,0,0,0,0,0,0,0,0,0,-1,1133,512,0,0
-84,512,0,0,0,0,0,0,0,0,0,-1,1140,512,0,0
-77,512,0,0,0,0,0,0,0,0,0,-1,1147,512,0,0
-70,512,0,0,0,0,0,0,0,0,0,-1,1154,512,0,0
-63,512,0,0,0,0,0,0,0,0,0,-1,1161,512,0,0
-56,512,0,0,0,0,0,0,0,0,0,-1,1168,512,0,0
-49,512,0,0,0,0,0,0,0,0,0,-1,1175,512,0,0
-42,512,0,0,0,0,0,0,0,0,0,-1,1182,512,0,0
-35,512,0,0,0,0,0,0,0,0,0,-1,1189,512,0,0
-28,512,0,0,0,0,0,0,0,0,0,-1,1196,512,0,0
-21,512,0,0,0,0,0,0,0,0,0,-1,1203,512,0,0
-14,512,0,0,0,0,0,0,0,0,0,-1,1210,512,0,0
-7,512,0,0,0,0,0,0,0,0,0,-1,1217,512,0,0
0,512,0,0,0,0,0,0,0,0,0,-1,1224,512,0,0
7,512,0,0,0,0,0,0,0,0,0,-1,1231,512,0,0
14,512,0,0,0,0,0,0,0,0,0,-1,1238,512,0,0
21,512,0,0,0,0,0,0,0,0,0,-1,1245,512,0,0
28,512,0,0,0,0,0,0,0,0,0,-1,1252,512,0,0
35,512,0,0,0,0,0,0,0,0,0,-1,1259,512,0,0
42,512,0,0,0,0,0,0,0,0,0,-1,1266,512,0,0
49,512,0,0,0,0,0,0,0,0,0,-1,1273,512,0,0
56,512,0,0,0,0,0,0,0,0,0,-1,1280,512,0,0
63,512,0,0,0,0,0,0,0,0,0,-1,1287,512,0,0
70,512,0,0,0,0,0,0,0,0,0,-1,1294,512,0,0
77,512,0,0,0,0,0,0,0,0,0,-1,1301,512,0,0
84,512,0,0,0,0,0,0,0,0,0,-1,1308,512,0,0
91,512,0,0,0,0,0,0,0,0,0,-1,1315,512,0,0
98,512,0,0,0,0,0,0,0,0,0,-1,1322,512,0,0
105,512,0,0,0,0,0,0,0,0,0,-1,1329,512,0,0
112,512,0,0,0,0,0,0,0,0,0,-1,1336,512,0,0
119,512,0,0,0,0,0,0,0,0,0,-1,1343,512,0,0
126,512,0,0,0,0,0,0,0,0,0,-1,1350,512,0,0
133,512,0,0,0,0,0,0,0,0,0,-1,1357,512,0,0
140,512,0,0,0,0,0,0,0,0,0,-1,1364,512,0,0
147,512,0,0,0,0,0,0,0,0,0,-1,1371,512,0,0
154,512,0,0,0,0,0,0,0,0,0,-1,1378,512,0,0
161,512,0,0,0,0,0,0,0,0,0,-1,1385,512,0,0
168,512,0,0,0,0,0,0,0,0,0,-1,1392,512,0,0
175,512,0,0,0,0,0,0,0,0,0,-1,1399,512,0,0
182,512,0,0,0,0,0,0,0,0,0,-1,1406,512,0,0
189,512,0,0,0,0,0,0,0,0,0,-1,1413,512,0,0
196,512,0,0,0,0,0,0,0,0,0,-1,1420,512,0,0
203,512,0,0,0,0,0,0,0,0,0,-1,1427,512,0,0
210,512,0,0,0,0,0,0,0,0,0,-1,1434,512,0,0
217,512,0,0,0,0,0,0,0,0,0,-1,1441,512,0,0
224,512,0,0,0,0,0,0,0,0,0,-1,1448,512,0,0
231,512,0,0,0,0,0,0,0,0,0,-1,1455,512,0,0
238,512,0,0,0,0,0,0,0,0,0,-1,1462,512,0,0
245,512,0,0,0,0,0,0,0,0,0,-1,1469,512,0,0
252,512,0,0,0,0,0,0,0,0,0,-1,1476,512,0,0
259,512,0,0,0,0,0,0,0,0,0,-1,1483,512,0,0
266,512,0,0,0,0,0,0,0,0,0,-1,1490,512,0,0
273,512,4.00745,0.618622,0,0,0,0,0,0,0,-1,1497,512,4.00747,-0.618611
280,512,4.49609,0.649841,0,0,0,0,0,0,0,-1,1504,512,4.49612,-0.649834
287,512,4.77234,0.458069,0,0,0,0,0,0,0,-1,1511,512,4.77233,-0.458083
294,512,8.54956,-2.36273,0,0,0,0,0,0,0,-1,1518,512,8.54952,2.36274
301,512,6.302,-1.69092,0,0,0,0,0,0,0,-1,1525,512,6.30196,1.69093
308,512,8.2439,-6.22754,0,0,0,0,0,0,0,-1,1532,512,8.24394,6.22757
315,512,7.53687,-6.04211,0,0,0,0,0,0,0,-1,1539,512,7.53691,6.04211
322,512,6.82983,-5.85663,0,0,0,0,0,0,0,-1,1546,512,6.82988,5.85666
329,512,4.38147,-0.329651,0,0,0,0,0,0,0,-1,1553,512,4.38144,0.329662
336,512,4.41467,-0.741455,0,0,0,0,0,0,0,-1,1560,512,4.41467,0.741442
343,512,4.44727,-1.21667,0,0,0,0,0,0,0,-1,1567,512,4.44732,1.21666
350,512,4.55469,-1.65082,0,0,0,0,0,0,0,-1,1574,512,4.5547,1.65083
357,512,5.79993,-2.67456,0,0,0,0,0,0,0,-1,1581,512,5.79991,2.67454
364,512,5.18298,-6.80133,0,0,0,0,0,0,0,-1,1588,512,5.18296,6.80132
371,512,5.28467,-7.69269,0,0,0,0,0,0,0,-1,1595,512,5.28464,7.69269
378,512,6.29407,-9.88055,0,0,0,0,0,0,0,-1,1602,512,6.29412,9.88057
385,512,6.45569,-9.32233,0,0,0,0,0,0,0,-1,1609,512,6.45565,9.3223
392,512,6.35522,-8.98425,0,0,0,0,0,0,0,-1,1616,512,6.35526,8.98422
399,512,7.5304,-12.1449,0,0,0,0,0,0,0,-1,1623,512,7.53042,12.1449
406,512,8.77686,-15.9575,0,0,0,0,0,0,0,-1,1630,512,8.77687,15.9575
413,512,8.78479,-15.4822,0,0,0,0,0,0,0,-1,1637,512,8.78475,15.4822
420,512,8.78137,-15.0832,-0.00289194,-0.00515001,-0.0050173,0.00112179,-0.00916374,-0.674728,0.00651536,0.0239093,1644,512,8.78134,15.0832
427,512,8.78027,-14.6855,-0.00244853,-0.00452509,-0.00436692,0.00100184,-0.00797546,-0.668685,0.00568045,0.0148269,1651,512,8.78023,14.6855
434,512,8.76331,-14.3177,-0.00211298,-0.00363282,-0.0035956,0.000802129,-0.00654793,-0.681257,0.00465575,0.0111889,1658,512,8.76328,14.3177
441,512,8.73438,-13.9344,-0.00165486,-0.00279198,-0.00276784,0.000602211,-0.00504905,-0.6841,0.00358368,0.012469,1665,512,8.73432,13.9344
448,512,8.73682,-13.5552,-0.00117366,-0.00206256,-0.00198544,0.000416471,-0.00365268,-0.675286,0.00258515,0.00913122,1672,512,8.73686,13.5552
455,512,8.73132,-13.1631,-0.000802071,-0.00143886,-0.00128995,0.0002082,-0.00244913,-0.664404,0.00170639,0.00832068,1679,512,8.73127,13.1631
462,512,8.73157,-12.7627,-0.000601217,-0.00097522,-0.000722584,-4.18291e-05,-0.00153461,-0.658778,0.00100942,0.00884473,1686,512,8.73161,12.7627
469,512,8.73218,-12.3525,-0.000720349,-0.000306073,-0.000309136,-0.000141094,-0.000885328,-1.08057,0.000549262,0.0105699,1693,512,8.7322,12.3525
476,512,8.73291,-11.9576,-0.0011523,0.000171046,-3.41627e-05,0.000171927,-0.00115318,-1.545,0.00083204,0.0138375,1700,512,8.73297,11.9576
483,512,8.73083,-11.5391,-0.00182638,0.00063403,4.2421e-05,0.000634761,-0.00182711,1.55356,0.00147589,0.0126361,1707,512,8.73084,11.5391
490,512,8.71729,-11.1086,-0.00306607,0.00101302,-8.49471e-05,0.00101479,-0.00306784,-1.54998,0.00245444,0.00999944,1714,512,8.71734,11.1087
497,512,8.70532,-10.6966,-0.00470694,0.00145986,-0.000438867,0.00149094,-0.00473802,-1.50011,0.00375564,0.0109705,1721,512,8.70531,10.6966
504,512,8.67676,-10.2742,-0.00674062,0.00208924,-0.000932548,0.00218666,-0.00683803,-1.46671,0.0054362,0.0123155,1728,512,8.67676,10.2743
511,512,8.67603,-9.83429,-0.00926592,0.00299283,-0.00155494,0.00318699,-0.00946008,-1.44657,0.0075953,0.0130841,1735,512,8.67605,9.83426
518,512,8.69031,-9.41028,-0.0122443,0.00405539,-0.00227129,0.00436597,-0.0125549,-1.4349,0.0101434,0.0191379,1742,512,8.69033,9.4103
525,512,8.74377,-8.9671,0,0,0,0,0,0,0,-1,1749,512,8.74378,8.96712
532,512,7.99243,-8.32623,0,0,0,0,0,0,0,-1,1756,512,7.99244,8.32625
539,512,7.05908,-7.00647,0,0,0,0,0,0,0,-1,1763,512,7.05909,7.00647
546,512,2.77551,-0.66449,0,0,0,0,0,0,0,-1,1770,512,2.77548,0.664503
553,512,3.927,-0.448853,0,0,0,0,0,0,0,-1,1777,512,3.92704,0.448843
560,512,3.55762,-0.201233,0,0,0,0,0,0,0,-1,1784,512,3.55768,0.201259
567,512,3.09045,0.191193,0,0,0,0,0,0,0,-1,1791,512,3.09045,-0.191203
574,512,0,0,0,0,0,0,0,0,0,-1,1798,512,0,0
581,512,0,0,0,0,0,0,0,0,0,-1,1805,512,0,0
588,512,0,0,0,0,0,0,0,0,0,-1,1812,512,0,0
595,512,0,0,0,0,0,0,0,0,0,-1,1819,512,0,0
602,512,0,0,0,0,0,0,0,0,0,-1,1826,512,0,0
609,512,0,0,0,0,0,0,0,0,0,-1,1833,512,0,0
616,512,0,0,0,0,0,0,0,0,0,-1,1840,512,0,0
623,512,0,0,0,0,0,0,0,0,0,-1,1847,512,0,0
630,512,0,0,0,0,0,0,0,0,0,-1,1854,512,0,0
637,512,0,0,0,0,0,0,0,0,0,-1,1861,512,0,0
644,512,0,0,0,0,0,0,0,0,0,-1,1868,512,0,0
651,512,0,0,0,0,0,0,0,0,0,-1,1875,512,0,0
658,512,0,0,0,0,0,0,0,0,0,-1,1882,512,0,0
665,512,0,0,0,0,0,0,0,0,0,-1,1889,512,0,0
672,512,0,0,0,0,0,0,0,0,0,-1,1896,512,0,0
679,512,0,0,0,0,0,0,0,0,0,-1,1903,512,0,0
686,512,0,0,0,0,0,0,0,0,0,-1,1910,512,0,0
693,512,0,0,0,0,0,0,0,0,0,-1,1917,512,0,0
700,512,0,0,0,0,0,0,0,0,0,-1,1924,512,0,0
707,512,0,0,0,0,0,0,0,0,0,-1,1931,512,0,0
714,512,0,0,0,0,0,0,0,0,0,-1,1938,512,0,0
721,512,0,0,0,0,0,0,0,0,0,-1,1945,512,0,0
728,512,0,0,0,0,0,0,0,0,0,-1,1952,512,0,0
735,512,0,0,0,0,0,0,0,0,0,-1,1959,512,0,0
742,512,0,0,0,0,0,0,0,0,0,-1,1966,512,0,0
749,512,0,0,0,0,0,0,0,0,0,-1,1973,512,0,0
756,512,0,0,0,0,0,0,0,0,0,-1,1980,512,0,0
763,512,0,0,0,0,0,0,0,0,0,-1,1987,512,0,0
770,512,0,0,0,0,0,0,0,0,0,-1,1994,512,0,0
777,512,0,0,0,0,0,0,0,0,0,-1,2001,512,0,0
784,512,0,0,0,0,0,0,0,0,0,-1,2008,512,0,0
791,512,0,0,0,0,0,0,0,0,0,-1,2015,512,0,0
798,512,0,0,0,0,0,0,0,0,0,-1,2022,512,0,0
805,512,0,0,0,0,0,0,0,0,0,-1,2029,512,0,0
812,512,0,0,0,0,0,0,0,0,0,-1,2036,512,0,0
-700,505,0,0,0,0,0,0,0,0,0,-1,524,519,0,0
-693,505,0,0,0,0,0,0,0,0,0,-1,531,519,0,0
-686,505,0,0,0,0,0,0,0,0,0,-1,538,519,0,0
-679,505,0,0,0,0,0,0,0,0,0,-1,545,519,0,0
-672,505,0,0,0,0,0,0,0,0,0,-1,552,519,0,0
-665,505,0,0,0,0,0,0,0,0,0,-1,559,519,0,0
-658,505,0,0,0,0,0,0,0,0,0,-1,566,519,0,0
-651,505,0,0,0,0,0,0,0,0,0,-1,573,519,0,0
-644,505,0,0,0,0,0,0,0,0,0,-1,580,519,0,0
-637,505,0,0,0,0,0,0,0,0,0,-1,587,519,0,0
-630,505,0,0,0,0,0,0,0,0,0,-1,594,519,0,0
-623,505,0,0,0,0,0,0,0,0,0,-1,601,519,0,0
-616,505,0,0,0,0,0,0,0,0,0,-1,608,519,0,0
-609,505,0,0,0,0,0,0,0,0,0,-1,615,519,0,0
-602,505,0,0,0,0,0,0,0,0,0,-1,622,519,0,0
-595,505,0,0,0,0,0,0,0,0,0,-1,629,519,0,0
-588,505,0,0,0,0,0,0,0,0,0,-1,636,519,0,0
-581,505,0,0,0,0,0,0,0,0,0,-1,643,519,0,0
-574,505,0,0,0,0,0,0,0,0,0,-1,650,519,0,0
-567,505,0,0,0,0,0,0,0,0,0,-1,657,519,0,0
-560,505,0,0,0,0,0,0,0,0,0,-1,664,519,0,0
-553,505,0,0,0,0,0,0,0,0,0,-1,671,519,0,0
-546,505,0,0,0,0,0,0,0,0,0,-1,678,519,0,0
-539,505,0,0,0,0,0,0,0,0,0,-1,685,519,0,0
-532,505,0,0,0,0,0,0,0,0,0,-1,692,519,0,0
-525,505,0,0,0,0,0,0,0,0,0,-1,699,519,0,0
-518,505,0,0,0,0,0,0,0,0,0,-1,706,519,0,0
-511,505,0,0,0,0,0,0,0,0,0,-1,713,519,0,0
-504,505,0,0,0,0,0,0,0,0,0,-1,720,519,0,0
-497,505,0,0,0,0,0,0,0,0,0,-1,727,519,0,0
-490,505,0,0,0,0,0,0,0,0,0,-1,734,519,0,0
-483,505,0,0,0,0,0,0,0,0,0,-1,741,519,0,0
-476,505,0,0,0,0,0,0,0,0,0,-1,748,519,0,0
-469,505,0,0,0,0,0,0,0,0,0,-1,755,519,0,0
-462,505,0,0,0,0,0,0,0,0,0,-1,762,519,0,0
-455,505,2.72137,-3.26379,0,0,0,0,0,0,0,-1,769,519,2.72135,3.26377
-448,505,2.51111,-3.94989,0,0,0,0,0,0,0,-1,776,519,2.51112,3.94986
-441,505,2.80212,-6.8902,0,0,0,0,0,0,0,-1,783,519,2.80209,6.89019
-434,505,0.304626,-6.2099,0,0,0,0,0,0,0,-1,790,519,0.304615,6.20987
-427,505,0.0349731,-6.49762,0,0,0,0,0,0,0,-1,797,519,0.0349682,6.49761
-420,505,-0.523132,-7.62921,0,0,0,0,0,0,0,-1,804,519,-0.523104,7.62919
-413,505,-2.04071,-10.3439,0,0,0,0,0,0,0,-1,811,519,-2.04071,10.3439
-406,505,-2.03394,-10.5068,0,0,0,0,0,0,0,-1,818,519,-2.03393,10.5069
-399,505,-1.76404,-10.6779,0,0,0,0,0,0,0,-1,825,519,-1.76401,10.6778
-392,505,-1.36603,-10.9074,0.000966712,0.00302726,0.00792462,0.0099883,-0.00599433,0.85004,0.00932312,0.0215278,832,519,-1.36605,10.9074
-385,505,-1.38715,-11.366,0.000665146,0.00242623,0.00556549,0.0071804,-0.00408903,0.863855,0.0065875,0.00962332,839,519,-1.38714,11.366
-378,505,-1.42505,-11.7638,0.00047772,0.00191191,0.00360758,0.00487297,-0.00248335,0.883506,0.00432122,0.0116396,846,519,-1.42507,11.7638
-371,505,-1.41528,-12.1918,0.00032208,0.00142441,0.0021067,0.00305085,-0.00130437,0.913342,0.002581,0.0141877,853,519,-1.41529,12.1918
-364,505,-1.41888,-12.6018,0.000229341,0.000976062,0.0010461,0.00171343,-0.00050803,0.956806,0.00134403,0.0147469,860,519,-1.4189,12.6018
-357,505,-1.4198,-12.9883,0.000260715,0.00068159,0.000337785,0.000869126,7.31793e-05,1.06398,0.00055663,0.0121611,867,519,-1.41981,12.9883
-350,505,-1.44183,-13.3654,0.000303196,0.000467586,-0.000367294,0.00076177,9.01264e-06,-0.895477,0.000504869,0.0112461,874,519,-1.44186,13.3654
-343,505,-1.46332,-13.7399,0.0004449,7.64378e-05,-0.000503663,0.000796969,-0.000275631,-0.610066,0.000643187,0.00897898,881,519,-1.46334,13.7399
-336,505,-1.4726,-14.1025,0.000689801,-0.000298201,-0.000277357,0.000762337,-0.000370737,-0.255796,0.000667076,0.0110887,888,519,-1.47261,14.1025
-329,505,-1.46234,-14.4659,0.00106444,-0.0006156,-0.000102693,0.00107069,-0.000621854,-0.0608235,0.000988578,0.016315,895,519,-1.46236,14.4659
-322,505,-1.45807,-14.8663,0.00135826,-0.000916387,0.000139642,0.0013668,-0.000924927,0.0610848,0.0013313,0.0195391,902,519,-1.45809,14.8663
-315,505,-1.45721,-15.2275,0.00161705,-0.001198,0.000422637,0.00167914,-0.00126009,0.145852,0.0017027,0.0148592,909,519,-1.45719,15.2275
-308,505,-1.48517,-15.5422,0.00191321,-0.00160152,0.000767455,0.00207348,-0.00176179,0.205873,0.00221673,0.0118519,916,519,-1.48517,15.5423
-301,505,-1.47687,-15.9118,0.00219943,-0.0021188,0.00115836,0.00249054,-0.00240991,0.246209,0.0028294,0.0170359,923,519,-1.47687,15.9118
-294,505,-1.48596,-16.2378,0,0,0,0,0,0,0,-1,930,519,-1.48597,16.2378
-287,505,-1.54053,-16.6189,0,0,0,0,0,0,0,-1,937,519,-1.54053,16.6189
-280,505,-1.35114,-17.1436,0,0,0,0,0,0,0,-1,944,519,-1.35111,17.1436
-273,505,-0.0680542,-9.44867,0,0,0,0,0,0,0,-1,951,519,-0.0680462,9.44866
-266,505,-0.036377,-9.07922,0,0,0,0,0,0,0,-1,958,519,-0.0364055,9.0792
-259,505,0.10321,-6.69824,0,0,0,0,0,0,0,-1,965,519,0.103235,6.69826
-252,505,6.82312,-15.6972,0,0,0,0,0,0,0,-1,972,519,6.82314,15.6972
-245,505,4.26727,-12.9861,0,0,0,0,0,0,0,-1,979,519,4.2673,12.9861
-238,505,1.67432,-11.2307,0,0,0,0,0,0,0,-1,986,519,1.67429,11.2307
-231,505,-0.958435,-8.3075,0,0,0,0,0,0,0,-1,993,519,-0.958421,8.30751
-224,505,-3.69653,-5.12732,0,0,0,0,0,0,0,-1,1000,519,-3.69653,5.12733
-217,505,-6.34302,-1.65533,0,0,0,0,0,0,0,-1,1007,519,-6.34299,1.65535
-210,505,-3.06128,-0.396301,0,0,0,0,0,0,0,-1,1014,519,-3.06129,0.396294
-203,505,-4.26465,2.03607,0,0,0,0,0,0,0,-1,1021,519,-4.26462,-2.03606
-196,505,-5.47595,4.27295,0,0,0,0,0,0,0,-1,1028,519,-5.47597,-4.27292
-189,505,1.51526,5.56207,0,0,0,0,0,0,0,-1,1035,519,1.51523,-5.56209
-182,505,2.97815,7.5097,0,0,0,0,0,0,0,-1,1042,519,2.97812,-7.5097
-175,505,-2.38416,-2.17548,0,0,0,0,0,0,0,-1,1049,519,-2.38411,2.1755
-168,505,0,0,0,0,0,0,0,0,0,-1,1056,519,0,0
-161,505,0,0,0,0,0,0,0,0,0,-1,1063,519,0,0
-154,505,0,0,0,0,0,0,0,0,0,-1,1070,519,0,0
-147,505,0,0,0,0,0,0,0,0,0,-1,1077,519,0,0
-140,505,0,0,0,0,0,0,0,0,0,-1,1084,519,0,0
-133,505,0,0,0,0,0,0,0,0,0,-1,1091,519,0,0
-126,505,0,0,0,0,0,0,0,0,0,-1,1098,519,0,0
-119,505,0,0,0,0,0,0,0,0,0,-1,1105,519,0,0
-112,505,0,0,0,0,0,0,0,0,0,-1,1112,519,0,0
-105,505,0,0,0,0,0,0,0,0,0,-1,1119,519,0,0
-98,505,0,0,0,0,0,0,0,0,0,-1,1126,519,0,0
-91,505,0,0,0,0,0,0,0,0,0,-1,1133,519,0,0
-84,505,0,0,0,0,0,0,0,0,0,-1,1140,519,0,0
-77,505,0,0,0,0,0,0,0,0,0,-1,1147,519,0,0
-70,505,0,0,0,0,0,0,0,0,0,-1,1154,519,0,0
-63,505,0,0,0,0,0,0,0,0,0,-1,1161,519,0,0
-56,505,0,0,0,0,0,0,0,0,0,-1,1168,519,0,0
-49,505,0,0,0,0,0,0,0,0,0,-1,1175,519,0,0
-42,505,0,0,0,0,0,0,0,0,0,-1,1182,519,0,0
-35,505,0,0,0,0,0,0,0,0,0,-1,1189,519,0,0
-28,505,0,0,0,0,0,0,0,0,0,-1,1196,519,0,0
-21,505,0,0,0,0,0,0,0,0,0,-1,1203,519,0,0
-14,505,0,0,0,0,0,0,0,0,0,-1,1210,519,0,0
-7,505,0,0,0,0,0,0,0,0,0,-1,1217,519,0,0
0,505,0,0,0,0,0,0,0,0,0,-1,1224,519,0,0
7,505,0,0,0,0,0,0,0,0,0,-1,1231,519,0,0
14,505,0,0,0,0,0,0,0,0,0,-1,1238,519,0,0
21,505,0,0,0,0,0,0,0,0,0,-1,1245,519,0,0
28,505,0,0,0,0,0,0,0,0,0,-1,1252,519,0,0
35,505,0,0,0,0,0,0,0,0,0,-1,1259,519,0,0
42,505,0,0,0,0,0,0,0,0,0,-1,1266,519,0,0
49,505,0,0,0,0,0,0,0,0,0,-1,1273,519,0,0
56,505,0,0,0,0,0,0,0,0,0,-1,1280,519,0,0
63,505,0,0,0,0,0,0,0,0,0,-1,1287,519,0,0
70,505,0,0,0,0,0,0,0,0,0,-1,1294,519,0,0
77,505,0,0,0,0,0,0,0,0,0,-1,1301,519,0,0
84,505,0,0,0,0,0,0,0,0,0,-1,1308,519,0,0
91,505,0,0,0,0,0,0,0,0,0,-1,1315,519,0,0
98,505,0,0,0,0,0,0,0,0,0,-1,1322,519,0,0
105,505,0,0,0,0,0,0,0,0,0,-1,1329,519,0,0
112,505,0,0,0,0,0,0,0,0,0,-1,1336,519,0,0
119,505,0,0,0,0,0,0,0,0,0,-1,1343,519,0,0
126,505,0,0,0,0,0,0,0,0,0,-1,1350,519,0,0
133,505,0,0,0,0,0,0,0,0,0,-1,1357,519,0,0
140,505,0,0,0,0,0,0,0,0,0,-1,1364,519,0,0
147,505,0,0,0,0,0,0,0,0,0,-1,1371,519,0,0
154,505,0,0,0,0,0,0,0,0,0,-1,1378,519,0,0
161,505,0,0,0,0,0,0,0,0,0,-1,1385,519,0,0
168,505,0,0,0,0,0,0,0,0,0,-1,1392,519,0,0
175,505,0,0,0,0,0,0,0,0,0,-1,1399,519,0,0
182,505,0,0,0,0,0,0,0,0,0,-1,1406,519,0,0
189,505,0,0,0,0,0,0,0,0,0,-1,1413,519,0,0
196,505,0,0,0,0,0,0,0,0,0,-1,1420,519,0,0
203,505,0,0,0,0,0,0,0,0,0,-1,1427,519,0,0
210,505,0,0,0,0,0,0,0,0,0,-1,1434,519,0,0
217,505,0,0,0,0,0,0,0,0,0,-1,1441,519,0,0
224,505,0,0,0,0,0,0,0,0,0,-1,1448,519,0,0
231,505,0,0,0,0,0,0,0,0,0,-1,1455,519,0,0
238,505,0,0,0,0,0,0,0,0,0,-1,1462,519,0,0
245,505,0,0,0,0,0,0,0,0,0,-1,1469,519,0,0
252,505,0,0,0,0,0,0,0,0,0,-1,1476,519,0,0
259,505,0,0,0,0,0,0,0,0,0,-1,1483,519,0,0
266,505,0,0,0,0,0,0,0,0,0,-1,1490,519,0,0
273,505,0,0,0,0,0,0,0,0,0,-1,1497,519,0,0
280,505,0,0,0,0,0,0,0,0,0,-1,1504,519,0,0
287,505,4.39478,0.499512,0,0,0,0,0,0,0,-1,1511,519,4.39476,-0.499506
294,505,4.88867,0.0822754,0,0,0,0,0,0,0,-1,1518,519,4.88871,-0.0822748
301,505,4.82153,-0.0704346,0,0,0,0,0,0,0,-1,1525,519,4.82156,0.0704312
308,505,4.67761,-0.29187,0,0,0,0,0,0,0,-1,1532,519,4.67762,0.291845
315,505,8.44055,-6.54352,0,0,0,0,0,0,0,-1,1539,519,8.44059,6.54349
322,505,4.78955,-0.594116,0,0,0,0,0,0,0,-1,1546,519,4.78957,0.594096
329,505,5.16321,0.434631,0,0,0,0,0,0,0,-1,1553,519,5.16316,-0.434614
336,505,4.94495,-0.920471,0,0,0,0,0,0,0,-1,1560,519,4.945,0.920495
343,505,5.01855,-1.4823,0,0,0,0,0,0,0,-1,1567,519,5.01851,1.48227
350,505,5.33154,-1.77838,0,0,0,0,0,0,0,-1,1574,519,5.33152,1.77838
357,505,5.56567,-1.9425,0,0,0,0,0,0,0,-1,1581,519,5.56562,1.94248
364,505,5.85205,-2.6579,0,0,0,0,0,0,0,-1,1588,519,5.85211,2.65788
371,505,5.88477,-7.00922,0,0,0,0,0,0,0,-1,1595,519,5.88473,7.00924
378,505,5.44104,-7.10162,0,0,0,0,0,0,0,-1,1602,519,5.44099,7.10162
385,505,6.64661,-8.65015,0,0,0,0,0,0,0,-1,1609,519,6.64662,8.65014
392,505,6.34558,-8.3429,0,0,0,0,0,0,0,-1,1616,519,6.34554,8.34288
399,505,7.45898,-9.70386,0,0,0,0,0,0,0,-1,1623,519,7.45899,9.70388
406,505,7.08679,-9.4928,0,0,0,0,0,0,0,-1,1630,519,7.08678,9.49278
413,505,8.4032,-14.0308,0,0,0,0,0,0,0,-1,1637,519,8.4032,14.0308
420,505,9.13281,-15.2449,0,0,0,0,0,0,0,-1,1644,519,9.13285,15.2449
427,505,9.1665,-14.7777,-0.00436693,-0.00709578,-0.00657236,0.000981138,-0.0124438,-0.683052,0.00864153,0.0219142,1651,519,9.16656,14.7777
434,505,9.14722,-14.3164,-0.00354134,-0.00563549,-0.00536117,0.000874047,-0.0100509,-0.688958,0.00701012,0.0105399,1658,519,9.14718,14.3164
441,505,9.15381,-13.9017,-0.00262946,-0.00428878,-0.0041433,0.000766429,-0.00768466,-0.686584,0.00539676,0.0102239,1665,519,9.15382,13.9017
448,505,9.16443,-13.5229,-0.0017372,-0.00310718,-0.00302521,0.000679606,-0.00552399,-0.674062,0.00392883,0.0105018,1672,519,9.16448,13.5229
455,505,9.14563,-13.1425,-0.000999283,-0.00211683,-0.00204789,0.000564693,-0.0036808,-0.652213,0.00266214,0.0103221,1679,519,9.14559,13.1425
462,505,9.11218,-12.7522,-0.000464909,-0.00136333,-0.00125071,0.000414816,-0.00224306,-0.61299,0.00165111,0.0104899,1686,519,9.11214,12.7522
469,505,9.11389,-12.3387,-0.000256983,-0.000614322,-0.000633296,0.000222364,-0.00109367,-0.647908,0.000813429,0.0102317,1693,519,9.11392,12.3387
476,505,9.11401,-11.9454,-0.0004241,-3.77555e-05,-0.000213623,5.70832e-05,-0.000518939,-1.15298,0.000366472,0.0109341,1700,519,9.11405,11.9454
483,505,9.11426,-11.5333,-0.000779456,0.000483042,3.31413e-05,0.000483911,-0.000780326,1.54457,0.000736564,0.0124771,1707,519,9.1143,11.5333
490,505,9.11401,-11.1069,-0.00172094,0.00092944,4.56925e-05,0.000930228,-0.00172173,1.55356,0.00155367,0.0115331,1714,519,9.11403,11.1069
497,505,9.10535,-10.7009,-0.0030797,0.0012307,-0.000205566,0.00124048,-0.00308948,-1.52325,0.00257476,0.0112448,1721,519,9.10531,10.7009
504,505,9.0929,-10.2711,-0.00475505,0.00161147,-0.000603616,0.00166819,-0.00481177,-1.4771,0.00388519,0.0123674,1728,519,9.09296,10.2711
511,505,9.10193,-9.87109,-0.00681552,0.00212678,-0.001114,0.00226347,-0.00695221,-1.44871,0.00554547,0.0137168,1735,519,9.10188,9.87112
518,505,9.16687,-9.46545,-0.00922458,0.00271106,-0.00173618,0.00295848,-0.009472,-1.42924,0.00749797,0.0215104,1742,519,9.16681,9.46543
525,505,8.89404,-8.98737,-0.0119744,0.00330681,-0.00251801,0.00371103,-0.0123786,-1.41162,0.00972828,0.0339633,1749,519,8.8941,8.98737
532,505,8.76733,-8.26056,0,0,0,0,0,0,0,-1,1756,519,8.76731,8.26056
539,505,7.90369,-7.11932,0,0,0,0,0,0,0,-1,1763,519,7.90373,7.11932
546,505,7.94946,-6.64539,0,0,0,0,0,0,0,-1,1770,519,7.94947,6.64539
553,505,2.82837,0.162659,0,0,0,0,0,0,0,-1,1777,519,2.82841,-0.162672
560,505,3.66223,-0.479797,0,0,0,0,0,0,0,-1,1784,519,3.66219,0.47982
567,505,4.65271,-0.950256,0,0,0,0,0,0,0,-1,1791,519,4.65274,0.95028
574,505,5.54443,-1.19977,0,0,0,0,0,0,0,-1,1798,519,5.54443,1.19974
581,505,0,0,0,0,0,0,0,0,0,-1,1805,519,0,0
588,505,0,0,0,0,0,0,0,0,0,-1,1812,519,0,0
595,505,0,0,0,0,0,0,0,0,0,-1,1819,519,0,0
602,505,0,0,0,0,0,0,0,0,0,-1,1826,519,0,0
609,505,0,0,0,0,0,0,0,0,0,-1,1833,519,0,0
616,505,0,0,0,0,0,0,0,0,0,-1,1840,519,0,0
623,505,0,0,0,0,0,0,0,0,0,-1,1847,519,0,0
630,505,0,0,0,0,0,0,0,0,0,-1,1854,519,0,0
637,505,0,0,0,0,0,0,0,0,0,-1,1861,519,0,0
644,505,0,0,0,0,0,0,0,0,0,-1,1868,519,0,0
651,505,0,0,0,0,0,0,0,0,0,-1,1875,519,0,0
658,505,0,0,0,0,0,0,0,0,0,-1,1882,519,0,0
665,505,0,0,0,0,0,0,0,0,0,-1,1889,519,0,0
672,505,0,0,0,0,0,0,0,0,0,-1,1896,519,0,0
679,505,0,0,0,0,0,0,0,0,0,-1,1903,519,0,0
686,505,0,0,0,0,0,0,0,0,0,-1,1910,519,0,0
693,505,0,0,0,0,0,0,0,0,0,-1,1917,519,0,0
700,505,0,0,0,0,0,0,0,0,0,-1,1924,519,0,0
707,505,0,0,0,0,0,0,0,0,0,-1,1931,519,0,0
714,505,0,0,0,0,0,0,0,0,0,-1,1938,519,0,0
721,505,0,0,0,0,0,0,0,0,0,-1,1945,519,0,0
728,505,0,0,0,0,0,0,0,0,0,-1,1952,519,0,0
735,505,0,0,0,0,0,0,0,0,0,-1,1959,519,0,0
742,505,0,0,0,0,0,0,0,0,0,-1,1966,519,0,0
749,505,0,0,0,0,0,0,0,0,0,-1,1973,519,0,0
756,505,0,0,0,0,0,0,0,0,0,-1,1980,519,0,0
763,505,0,0,0,0,0,0,0,0,0,-1,1987,519,0,0
770,505,0,0,0,0,0,0,0,0,0,-1,1994,519,0,0
777,505,0,0,0,0,0,0,0,0,0,-1,2001,519,0,0
784,505,0,0,0,0,0,0,0,0,0,-1,2008,519,0,0
791,505,0,0,0,0,0,0,0,0,0,-1,2015,519,0,0
798,505,0,0,0,0,0,0,0,0,0,-1,2022,519,0,0
805,505,0,0,0,0,0,0,0,0,0,-1,2029,519,0,0
812,505,0,0,0,0,0,0,0,0,0,-1,2036,519,0,0
-700,498,0,0,0,0,0,0,0,0,0,-1,524,526,0,0
-693,498,0,0,0,0,0,0,0,0,0,-1,531,526,0,0
-686,498,0,0,0,0,0,0,0,0,0,-1,538,526,0,0
-679,498,0,0,0,0,0,0,0,0,0,-1,545,526,0,0
-672,498,0,0,0,0,0,0,0,0,0,-1,552,526,0,0
-665,498,0,0,0,0,0,0,0,0,0,-1,559,526,0,0
-658,498,0,0,0,0,0,0,0,0,0,-1,566,526,0,0
-651,498,0,0,0,0,0,0,0,0,0,-1,573,526,0,0
-644,498,0,0,0,0,0,0,0,0,0,-1,580,526,0,0
-637,498,0,0,0,0,0,0,0,0,0,-1,587,526,0,0
-630,498,0,0,0,0,0,0,0,0,0,-1,594,526,0,0
-623,498,0,0,0,0,0,0,0,0,0,-1,601,526,0,0
-616,498,0,0,0,0,0,0,0,0,0,-1,608,526,0,0
-609,498,0,0,0,0,0,0,0,0,0,-1,615,526,0,0
-602,498,0,0,0,0,0,0,0,0,0,-1,622,526,0,0
-595,498,0,0,0,0,0,0,0,0,0,-1,629,526,0,0
-588,498,0,0,0,0,0,0,0,0,0,-1,636,526,0,0
-581,498,0,0,0,0,0,0,0,0,0,-1,643,526,0,0
-574,498,0,0,0,0,0,0,0,0,0,-1,650,526,0,0
-567,498,0,0,0,0,0,0,0,0,0,-1,657,526,0,0
-560,498,0,0,0,0,0,0,0,0,0,-1,664,526,0,0
-553,498,0,0,0,0,0,0,0,0,0,-1,671,526,0,0
-546,498,0,0,0,0,0,0,0,0,0,-1,678,526,0,0
-539,498,0,0,0,0,0,0,0,0,0,-1,685,526,0,0
-532,498,0,0,0,0,0,0,0,0,0,-1,692,526,0,0
-525,498,0,0,0,0,0,0,0,0,0,-1,699,526,0,0
-518,498,0,0,0,0,0,0,0,0,0,-1,706,526,0,0
-511,498,0,0,0,0,0,0,0,0,0,-1,713,526,0,0
-504,498,0,0,0,0,0,0,0,0,0,-1,720,526,0,0
-497,498,0,0,0,0,0,0,0,0,0,-1,727,526,0,0
-490,498,0,0,0,0,0,0,0,0,0,-1,734,526,0,0
-483,498,0,0,0,0,0,0,0,0,0,-1,741,526,0,0
-476,498,0,0,0,0,0,0,0,0,0,-1,748,526,0,0
-469,498,0,0,0,0,0,0,0,0,0,-1,755,526,0,0
-462,498,6.81024,1.15515,0,0,0,0,0,0,0,-1,762,526,6.81026,-1.15514
-455,498,3.25757,-3.0592,0,0,0,0,0,0,0,-1,769,526,3.25754,3.05921
-448,498,3.05939,-3.74298,0,0,0,0,0,0,0,-1,776,526,3.05939,3.74296
-441,498,2.77191,-6.08209,0,0,0,0,0,0,0,-1,783,526,2.77189,6.08207
-434,498,2.10681,-6.95929,0,0,0,0,0,0,0,-1,790,526,2.10682,6.9593
-427,498,-0.342224,-6.47314,0,0,0,0,0,0,0,-1,797,526,-0.342207,6.47314
-420,498,-0.675293,-6.72467,0,0,0,0,0,0,0,-1,804,526,-0.675275,6.72468
-413,498,-2.03192,-9.00494,0,0,0,0,0,0,0,-1,811,526,-2.03189,9.00491
-406,498,-1.86414,-10.1379,0,0,0,0,0,0,0,-1,818,526,-1.86416,10.1379
-399,498,-1.71075,-10.4507,0.000841132,0.00359344,0.00708275,0.00943249,-0.00499792,0.881351,0.00846152,0.0265092,825,526,-1.71073,10.4508
-392,498,-1.7475,-10.969,0.000746481,0.00271163,0.00525123,0.00707142,-0.00361331,0.877885,0.00627561,0.0124678,832,526,-1.74747,10.969
-385,498,-1.77582,-11.3672,0.000679952,0.00202476,0.00369462,0.00510767,-0.00240295,0.875411,0.00442899,0.00890387,839,526,-1.77581,11.3672
-378,498,-1.79144,-11.7573,0.000674622,0.00147907,0.00235753,0.00346844,-0.00131475,0.869891,0.00285336,0.0106634,846,526,-1.79141,11.7573
-371,498,-1.76947,-12.1707,0.000641159,0.000953985,0.00132782,0.00213458,-0.000539432,0.844026,0.00163284,0.0162936,853,526,-1.76944,12.1707
-364,498,-1.77521,-12.5782,0.000631083,0.000457024,0.000623552,0.00117365,-8.55419e-05,0.716061,0.000812449,0.0166519,860,526,-1.77521,12.5783
-357,498,-1.79736,-12.9627,0.000728064,0.000152793,0.000149644,0.000764662,0.000116195,0.23986,0.000475796,0.0114738,867,526,-1.79735,12.9627
-350,498,-1.8233,-13.3394,0.000854274,-8.1633e-05,-0.000265734,0.00092446,-0.00015182,-0.258228,0.000672649,0.011143,874,526,-1.82327,13.3394
-343,498,-1.83301,-13.7159,0.00105765,-0.000407561,-0.00028442,0.00111092,-0.000460834,-0.18516,0.000932969,0.0114034,881,526,-1.83303,13.716
-336,498,-1.84589,-14.0837,0.00134361,-0.000718992,-0.000112673,0.00134975,-0.000725129,-0.0544107,0.00121589,0.0143548,888,526,-1.84589,14.0838
-329,498,-1.84711,-14.4411,0.00175062,-0.000966394,-3.58e-06,0.00175062,-0.000966399,-0.00131762,0.0015903,0.0202493,895,526,-1.84709,14.4411
-322,498,-1.83417,-14.849,0.00207517,-0.00117317,0.000174541,0.00208452,-0.00118252,0.0535268,0.00191004,0.0224373,902,526,-1.83419,14.849
-315,498,-1.828,-15.2225,0.0023569,-0.00142794,0.000407074,0.00240019,-0.00147123,0.10594,0.00225651,0.0178451,909,526,-1.828,15.2225
-308,498,-1.83545,-15.5527,0.00265904,-0.00185919,0.000725621,0.00277271,-0.00197287,0.155394,0.0027528,0.0212881,916,526,-1.83547,15.5527
-301,498,-1.81183,-15.9404,0,0,0,0,0,0,0,-1,923,526,-1.81185,15.9403
-294,498,-1.66956,-15.9965,0,0,0,0,0,0,0,-1,930,526,-1.66955,15.9965
-287,498,-0.91394,-13.4327,0,0,0,0,0,0,0,-1,937,526,-0.913935,13.4327
-280,498,-0.341614,-8.66608,0,0,0,0,0,0,0,-1,944,526,-0.341589,8.66606
-273,498,-0.988892,-8.62921,0,0,0,0,0,0,0,-1,951,526,-0.988906,8.62922
-266,498,0.362488,-6.33545,0,0,0,0,0,0,0,-1,958,526,0.362478,6.33547
-259,498,10.9454,-17.3615,0,0,0,0,0,0,0,-1,965,526,10.9454,17.3614
-252,498,8.56586,-14.6886,0,0,0,0,0,0,0,-1,972,526,8.56584,14.6886
-245,498,5.97382,-11.928,0,0,0,0,0,0,0,-1,979,526,5.97381,11.928
-238,498,2.24841,-13.8145,0,0,0,0,0,0,0,-1,986,526,2.24838,13.8145
-231,498,0.665894,-10.4898,0,0,0,0,0,0,0,-1,993,526,0.665863,10.4898
-224,498,-2.11243,-4.76312,0,0,0,0,0,0,0,-1,1000,526,-2.11245,4.76314
-217,498,-3.82239,-1.42841,0,0,0,0,0,0,0,-1,1007,526,-3.82241,1.42843
-210,498,-1.80591,-0.358215,0,0,0,0,0,0,0,-1,1014,526,-1.8059,0.3582
-203,498,-3.17316,1.06641,0,0,0,0,0,0,0,-1,1021,526,-3.17313,-1.0664
-196,498,-0.103271,5.40527,0,0,0,0,0,0,0,-1,1028,526,-0.103285,-5.40528
-189,498,3.00256,6.47137,0,0,0,0,0,0,0,-1,1035,526,3.00256,-6.47139
-182,498,0,0,0,0,0,0,0,0,0,-1,1042,526,0,0
-175,498,0,0,0,0,0,0,0,0,0,-1,1049,526,0,0
-168,498,0,0,0,0,0,0,0,0,0,-1,1056,526,0,0
-161,498,0,0,0,0,0,0,0,0,0,-1,1063,526,0,0
-154,498,0,0,0,0,0,0,0,0,0,-1,1070,526,0,0
-147,498,0,0,0,0,0,0,0,0,0,-1,1077,526,0,0
-140,498,0,0,0,0,0,0,0,0,0,-1,1084,526,0,0
-133,498,0,0,0,0,0,0,0,0,0,-1,1091,526,0,0
-126,498,0,0,0,0,0,0,0,0,0,-1,1098,526,0,0
-119,498,0,0,0,0,0,0,0,0,0,-1,1105,526,0,0
-112,498,0,0,0,0,0,0,0,0,0,-1,1112,526,0,0
-105,498,0,0,0,0,0,0,0,0,0,-1,1119,526,0,0
-98,498,0,0,0,0,0,0,0,0,0,-1,1126,526,0,0
-91,498,0,0,0,0,0,0,0,0,0,-1,1133,526,0,0
-84,498,0,0,0,0,0,0,0,0,0,-1,1140,526,0,0
-77,498,0,0,0,0,0,0,0,0,0,-1,1147,526,0,0
-70,498,0,0,0,0,0,0,0,0,0,-1,1154,526,0,0
-63,498,0,0,0,0,0,0,0,0,0,-1,1161,526,0,0
-56,498,0,0,0,0,0,0,0,0,0,-1,1168,526,0,0
-49,498,0,0,0,0,0,0,0,0,0,-1,1175,526,0,0
-42,498,0,0,0,0,0,0,0,0,0,-1,1182,526,0,0
-35,498,0,0,0,0,0,0,0,0,0,-1,1189,526,0,0
-28,498,0,0,0,0,0,0,0,0,0,-1,1196,526,0,0
-21,498,0,0,0,0,0,0,0,0,0,-1,1203,526,0,0
-14,498,0,0,0,0,0,0,0,0,0,-1,1210,526,0,0
-7,498,0,0,0,0,0,0,0,0,0,-1,1217,526,0,0
0,498,0,0,0,0,0,0,0,0,0,-1,1224,526,0,0
7,498,0,0,0,0,0,0,0,0,0,-1,1231,526,0,0
14,498,0,0,0,0,0,0,0,0,0,-1,1238,526,0,0
21,498,0,0,0,0,0,0,0,0,0,-1,1245,526,0,0
28,498,0,0,0,0,0,0,0,0,0,-1,1252,526,0,0
35,498,0,0,0,0,0,0,0,0,0,-1,1259,526,0,0
42,498,0,0,0,0,0,0,0,0,0,-1,1266,526,0,0
49,498,0,0,0,0,0,0,0,0,0,-1,1273,526,0,0
56,498,0,0,0,0,0,0,0,0,0,-1,1280,526,0,0
63,498,0,0,0,0,0,0,0,0,0,-1,1287,526,0,0
70,498,0,0,0,0,0,0,0,0,0,-1,1294,526,0,0
77,498,0,0,0,0,0,0,0,0,0,-1,1301,526,0,0
84,498,0,0,0,0,0,0,0,0,0,-1,1308,526,0,0
91,498,0,0,0,0,0,0,0,0,0,-1,1315,526,0,0
98,498,0,0,0,0,0,0,0,0,0,-1,1322,526,0,0
105,498,0,0,0,0,0,0,0,0,0,-1,1329,526,0,0
112,498,0,0,0,0,0,0,0,0,0,-1,1336,526,0,0
119,498,0,0,0,0,0,0,0,0,0,-1,1343,526,0,0
126,498,0,0,0,0,0,0,0,0,0,-1,1350,526,0,0
133,498,0,0,0,0,0,0,0,0,0,-1,1357,526,0,0
140,498,0,0,0,0,0,0,0,0,0,-1,1364,526,0,0
147,498,0,0,0,0,0,0,0,0,0,-1,1371,526,0,0
154,498,0,0,0,0,0,0,0,0,0,-1,1378,526,0,0
161,498,0,0,0,0,0,0,0,0,0,-1,1385,526,0,0
168,498,0,0,0,0,0,0,0,0,0,-1,1392,526,0,0
175,498,0,0,0,0,0,0,0,0,0,-1,1399,526,0,0
182,498,0,0,0,0,0,0,0,0,0,-1,1406,526,0,0
189,498,0,0,0,0,0,0,0,0,0,-1,1413,526,0,0
196,498,0,0,0,0,0,0,0,0,0,-1,1420,526,0,0
203,498,0,0,0,0,0,0,0,0,0,-1,1427,526,0,0
210,498,0,0,0,0,0,0,0,0,0,-1,1434,526,0,0
217,498,0,0,0,0,0,0,0,0,0,-1,1441,526,0,0
224,498,0,0,0,0,0,0,0,0,0,-1,1448,526,0,0
231,498,0,0,0,0,0,0,0,0,0,-1,1455,526,0,0
238,498,0,0,0,0,0,0,0,0,0,-1,1462,526,0,0
245,498,0,0,0,0,0,0,0,0,0,-1,1469,526,0,0
252,498,0,0,0,0,0,0,0,0,0,-1,1476,526,0,0
259,498,0,0,0,0,0,0,0,0,0,-1,1483,526,0,0
266,498,0,0,0,0,0,0,0,0,0,-1,1490,526,0,0
273,498,0,0,0,0,0,0,0,0,0,-1,1497,526,0,0
280,498,0,0,0,0,0,0,0,0,0,-1,1504,526,0,0
287,498,0,0,0,0,0,0,0,0,0,-1,1511,526,0,0
294,498,0,0,0,0,0,0,0,0,0,-1,1518,526,0,0
301,498,0,0,0,0,0,0,0,0,0,-1,1525,526,0,0
308,498,4.77942,-0.293884,0,0,0,0,0,0,0,-1,1532,526,4.77939,0.293899
315,498,4.56091,-0.564148,0,0,0,0,0,0,0,-1,1539,526,4.56097,0.564142
322,498,4.52344,-0.447266,0,0,0,0,0,0,0,-1,1546,526,4.52341,0.447295
329,498,4.63232,-0.156982,0,0,0,0,0,0,0,-1,1553,526,4.63238,0.156991
336,498,5.22644,0.0925903,0,0,0,0,0,0,0,-1,1560,526,5.22648,-0.0926188
343,498,6.22607,-1.67615,0,0,0,0,0,0,0,-1,1567,526,6.22605,1.67617
350,498,6.19373,-1.59906,0,0,0,0,0,0,0,-1,1574,526,6.19367,1.59906
357,498,6.21472,-1.58929,0,0,0,0,0,0,0,-1,1581,526,6.21476,1.58927
364,498,5.73547,-1.2019,0,0,0,0,0,0,0,-1,1588,526,5.73547,1.20192
371,498,3.27087,-4.55334,0,0,0,0,0,0,0,-1,1595,526,3.27089,4.55332
378,498,8.42944,-4.70624,0,0,0,0,0,0,0,-1,1602,526,8.42942,4.70624
385,498,4.7793,-5.15314,0,0,0,0,0,0,0,-1,1609,526,4.77935,5.15311
392,498,9.12439,-8.57953,0,0,0,0,0,0,0,-1,1616,526,9.12443,8.57955
399,498,7.98938,-9.46021,0,0,0,0,0,0,0,-1,1623,526,7.98936,9.4602
406,498,7.58081,-9.26819,0,0,0,0,0,0,0,-1,1630,526,7.58085,9.26817
413,498,7.17236,-9.07611,0,0,0,0,0,0,0,-1,1637,526,7.17234,9.07614
420,498,10.5872,-14.9207,0,0,0,0,0,0,0,-1,1644,526,10.5871,14.9207
427,498,10.0487,-14.5267,-0.00701969,-0.0105651,-0.00936659,0.000740469,-0.0183253,-0.691875,0.012471,0.0465744,1651,526,10.0487,14.5267
434,498,9.51404,-14.2794,-0.00545361,-0.00819285,-0.00747007,0.000771367,-0.0144178,-0.694731,0.00987905,0.0203512,1658,526,9.51406,14.2794
441,498,9.54578,-13.8951,-0.00393774,-0.00610455,-0.00570706,0.000787841,-0.0108301,-0.691596,0.00749651,0.00901972,1665,526,9.54583,13.8952
448,498,9.57141,-13.4995,-0.00255077,-0.00429946,-0.00416118,0.000826928,-0.00767716,-0.681845,0.00541484,0.0100533,1672,526,9.57137,13.4995
455,498,9.55334,-13.1237,-0.00138032,-0.00281561,-0.00283101,0.000822583,-0.00501852,-0.661266,0.00365089,0.0137382,1679,526,9.55333,13.1237
462,498,9.5271,-12.7462,-0.000482307,-0.00170026,-0.00176613,0.000776888,-0.00295945,-0.619377,0.00227656,0.0166655,1686,526,9.52704,12.7461
469,498,9.52234,-12.3422,6.4157e-05,-0.000844911,-0.000930489,0.000645195,-0.00142595,-0.5582,0.00122377,0.0144257,1693,526,9.52232,12.3422
476,498,9.521,-11.945,0.000153038,-0.000153071,-0.000367951,0.000398498,-0.000398531,-0.588302,0.000460165,0.0102572,1700,526,9.52094,11.945
483,498,9.5,-11.5367,8.34094e-05,0.000438055,4.45522e-05,0.000443566,7.78982e-05,1.44772,0.000273468,0.00878824,1707,526,9.50006,11.5367
490,498,9.50134,-11.1294,-0.000599236,0.000977364,0.000190169,0.000999977,-0.000621849,1.45244,0.000944807,0.0106347,1714,526,9.50133,11.1294
497,498,9.50916,-10.701,-0.00172791,0.00116453,3.12935e-05,0.00116487,-0.00172825,1.55998,0.00168087,0.0116549,1721,526,9.50915,10.7011
504,498,9.51904,-10.2745,-0.00312473,0.00134739,-0.000289438,0.00136604,-0.00314339,-1.50643,0.00267008,0.0142826,1728,526,9.51906,10.2745
511,498,9.52063,-9.86115,-0.00482806,0.00159004,-0.000702756,0.00166609,-0.00490411,-1.463,0.00394387,0.0152909,1735,526,9.52063,9.86114
518,498,9.5459,-9.44489,-0.00681003,0.00186209,-0.00121575,0.0020293,-0.00697724,-1.43411,0.00545523,0.0155611,1742,526,9.54593,9.44489
525,498,9.43152,-9.01819,-0.00899557,0.0020454,-0.0018297,0.00234072,-0.00929089,-1.41077,0.00710389,0.0250923,1749,526,9.43156,9.01822
532,498,9.2312,-8.62927,-0.011327,0.00219579,-0.00245449,0.00262751,-0.0117588,-1.39669,0.00884606,0.0423041,1756,526,9.2312,8.62925
539,498,9.2478,-8.27368,0,0,0,0,0,0,0,-1,1763,526,9.24778,8.2737
546,498,8.53174,-7.0274,0,0,0,0,0,0,0,-1,1770,526,8.53174,7.02742
553,498,5.93958,-1.71448,0,0,0,0,0,0,0,-1,1777,526,5.93956,1.71447
560,498,3.69385,-0.615112,0,0,0,0,0,0,0,-1,1784,526,3.69381,0.615118
567,498,5.12695,-0.581604,0,0,0,0,0,0,0,-1,1791,526,5.12699,0.58159
574,498,3.88,0.0286255,0,0,0,0,0,0,0,-1,1798,526,3.87999,-0.0286535
581,498,10.8722,2.58551,0,0,0,0,0,0,0,-1,1805,526,10.8723,-2.58551
588,498,0,0,0,0,0,0,0,0,0,-1,1812,526,0,0
595,498,0,0,0,0,0,0,0,0,0,-1,1819,526,0,0
602,498,0,0,0,0,0,0,0,0,0,-1,1826,526,0,0
609,498,0,0,0,0,0,0,0,0,0,-1,1833,526,0,0
616,498,0,0,0,0,0,0,0,0,0,-1,1840,526,0,0
623,498,0,0,0,0,0,0,0,0,0,-1,1847,526,0,0
630,498,0,0,0,0,0,0,0,0,0,-1,1854,526,0,0
637,498,0,0,0,0,0,0,0,0,0,-1,1861,526,0,0
644,498,0,0,0,0,0,0,0,0,0,-1,1868,526,0,0
651,498,0,0,0,0,0,0,0,0,0,-1,1875,526,0,0
658,498,0,0,0,0,0,0,0,0,0,-1,1882,526,0,0
665,498,0,0,0,0,0,0,0,0,0,-1,1889,526,0,0
672,498,0,0,0,0,0,0,0,0,0,-1,1896,526,0,0
679,498,0,0,0,0,0,0,0,0,0,-1,1903,526,0,0
686,498,0,0,0,0,0,0,0,0,0,-1,1910,526,0,0
693,498,0,0,0,0,0,0,0,0,0,-1,1917,526,0,0
700,498,0,0,0,0,0,0,0,0,0,-1,1924,526,0,0
707,498,0,0,0,0,0,0,0,0,0,-1,1931,526,0,0
714,498,0,0,0,0,0,0,0,0,0,-1,1938,526,0,0
721,498,0,0,0,0,0,0,0,0,0,-1,1945,526,0,0
728,498,0,0,0,0,0,0,0,0,0,-1,1952,526,0,0
735,498,0,0,0,0,0,0,0,0,0,-1,1959,526,0,0
742,498,0,0,0,0,0,0,0,0,0,-1,1966,526,0,0
749,498,0,0,0,0,0,0,0,0,0,-1,1973,526,0,0
756,498,0,0,0,0,0,0,0,0,0,-1,1980,526,0,0
763,498,0,0,0,0,0,0,0,0,0,-1,1987,526,0,0
770,498,0,0,0,0,0,0,0,0,0,-1,1994,526,0,0
777,498,0,0,0,0,0,0,0,0,0,-1,2001,526,0,0
784,498,0,0,0,0,0,0,0,0,0,-1,2008,526,0,0
791,498,0,0,0,0,0,0,0,0,0,-1,2015,526,0,0
798,498,0,0,0,0,0,0,0,0,0,-1,2022,526,0,0
805,498,0,0,0,0,0,0,0,0,0,-1,2029,526,0,0
812,498,0,0,0,0,0,0,0,0,0,-1,2036,526,0,0
-700,491,0,0,0,0,0,0,0,0,0,-1,524,533,0,0
-693,491,0,0,0,0,0,0,0,0,0,-1,531,533,0,0
-686,491,0,0,0,0,0,0,0,0,0,-1,538,533,0,0
-679,491,0,0,0,0,0,0,0,0,0,-1,545,533,0,0
-672,491,0,0,0,0,0,0,0,0,0,-1,552,533,0,0
-665,491,0,0,0,0,0,0,0,0,0,-1,559,533,0,0
-658,491,0,0,0,0,0,0,0,0,0,-1,566,533,0,0
-651,491,0,0,0,0,0,0,0,0,0,-1,573,533,0,0
-644,491,0,0,0,0,0,0,0,0,0,-1,580,533,0,0
-637,491,0,0,0,0,0,0,0,0,0,-1,587,533,0,0
-630,491,0,0,0,0,0,0,0,0,0,-1,594,533,0,0
-623,491,0,0,0,0,0,0,0,0,0,-1,601,533,0,0
-616,491,0,0,0,0,0,0,0,0,0,-1,608,533,0,0
-609,491,0,0,0,0,0,0,0,0,0,-1,615,533,0,0
-602,491,0,0,0,0,0,0,0,0,0,-1,622,533,0,0
-595,491,0,0,0,0,0,0,0,0,0,-1,629,533,0,0
-588,491,0,0,0,0,0,0,0,0,0,-1,636,533,0,0
-581,491,0,0,0,0,0,0,0,0,0,-1,643,533,0,0
-574,491,0,0,0,0,0,0,0,0,0,-1,650,533,0,0
-567,491,0,0,0,0,0,0,0,0,0,-1,657,533,0,0
-560,491,0,0,0,0,0,0,0,0,0,-1,664,533,0,0
-553,491,0,0,0,0,0,0,0,0,0,-1,671,533,0,0
-546,491,0,0,0,0,0,0,0,0,0,-1,678,533,0,0
-539,491,0,0,0,0,0,0,0,0,0,-1,685,533,0,0
-532,491,0,0,0,0,0,0,0,0,0,-1,692,533,0,0
-525,491,0,0,0,0,0,0,0,0,0,-1,699,533,0,0
-518,491,0,0,0,0,0,0,0,0,0,-1,706,533,0,0
-511,491,0,0,0,0,0,0,0,0,0,-1,713,533,0,0
-504,491,0,0,0,0,0,0,0,0,0,-1,720,533,0,0
-497,491,0,0,0,0,0,0,0,0,0,-1,727,533,0,0
-490,491,0,0,0,0,0,0,0,0,0,-1,734,533,0,0
-483,491,0,0,0,0,0,0,0,0,0,-1,741,533,0,0
-476,491,0,0,0,0,0,0,0,0,0,-1,748,533,0,0
-469,491,-5.85913,4.55011,0,0,0,0,0,0,0,-1,755,533,-5.8591,-4.55009
-462,491,-9.93713,4.90381,0,0,0,0,0,0,0,-1,762,533,-9.93716,-4.9038
-455,491,1.9494,-0.27887,0,0,0,0,0,0,0,-1,769,533,1.94941,0.27885
-448,491,2.68909,-1.8999,0,0,0,0,0,0,0,-1,776,533,2.6891,1.89988
-441,491,3.46069,-3.51855,0,0,0,0,0,0,0,-1,783,533,3.46071,3.51854
-434,491,2.67145,-7.44061,0,0,0,0,0,0,0,-1,790,533,2.67146,7.44061
-427,491,2.27136,-8.34546,0,0,0,0,0,0,0,-1,797,533,2.27136,8.34546
-420,491,-1.52142,-8.1123,0,0,0,0,0,0,0,-1,804,533,-1.52142,8.11228
-413,491,-2.24731,-9.65308,0,0,0,0,0,0,0,-1,811,533,-2.24729,9.65308
-406,491,-2.14807,-10.1692,0.000149477,0.00435542,0.00570484,0.00833256,-0.00382766,0.961985,0.0071795,0.0266302,818,533,-2.14808,10.1692
-399,491,-2.12012,-10.5809,0.000402064,0.00330658,0.00438873,0.00647709,-0.00276845,0.94518,0.00547919,0.0117073,825,533,-2.12011,10.5809
-392,491,-2.16736,-10.9904,0.000520257,0.00235351,0.00325834,0.0048217,-0.00194793,0.922513,0.00402412,0.00997384,832,533,-2.16739,10.9904
-385,491,-2.17267,-11.3696,0.000664974,0.00166057,0.00225092,0.00346808,-0.00114253,0.894224,0.00277251,0.00942683,839,533,-2.17268,11.3696
-378,491,-2.1615,-11.7547,0.000828135,0.00111815,0.00134422,0.00232516,-0.000378876,0.839128,0.00169061,0.0134984,846,533,-2.16151,11.7547
-371,491,-2.15167,-12.1608,0.000925801,0.000596394,0.000645914,0.00142768,9.45149e-05,0.660562,0.000921898,0.0146617,853,533,-2.15166,12.1607
-364,491,-2.15381,-12.5591,0.00102049,0.00010103,0.000190062,0.00105823,6.32908e-05,0.196011,0.000685365,0.0138916,860,533,-2.15382,12.5591
-357,491,-2.18768,-12.9281,0.00120819,-0.000188645,-0.000123725,0.00121907,-0.000199519,-0.0876657,0.000886731,0.0117917,867,533,-2.18767,12.9281
-350,491,-2.20508,-13.2925,0.00144933,-0.000432342,-0.000313834,0.00150029,-0.000483305,-0.160981,0.00119435,0.0145075,874,533,-2.2051,13.2925
-343,491,-2.21161,-13.6589,0.00174697,-0.000675763,-0.00024117,0.00177074,-0.000699537,-0.0982601,0.00147023,0.022732,881,533,-2.21162,13.6589
-336,491,-2.21411,-14.0253,0.0021021,-0.00091421,-0.000121564,0.002107,-0.000919101,-0.0402153,0.00179143,0.0233961,888,533,-2.2141,14.0253
-329,491,-2.24585,-14.4246,0.00256114,-0.0010948,-6.01382e-05,0.00256213,-0.00109579,-0.0164435,0.00216772,0.0238864,895,533,-2.24583,14.4246
-322,491,-2.22974,-14.8111,0.00294216,-0.00120207,7.37798e-05,0.00294347,-0.00120339,0.0177955,0.00246345,0.0223525,902,533,-2.22973,14.8111
-315,491,-2.25018,-15.1443,0.00328249,-0.0014617,0.000271433,0.00329797,-0.00147718,0.0569659,0.00282295,0.0224904,909,533,-2.2502,15.1443
-308,491,-2.18512,-15.6986,0,0,0,0,0,0,0,-1,916,533,-2.18514,15.6986
-301,491,-2.13489,-16.0856,0,0,0,0,0,0,0,-1,923,533,-2.13486,16.0856
-294,491,-0.777283,-8.60913,0,0,0,0,0,0,0,-1,930,533,-0.777288,8.6091
-287,491,-0.26123,-8.69055,0,0,0,0,0,0,0,-1,937,533,-0.261204,8.69053
-280,491,0.2948,-5.99219,0,0,0,0,0,0,0,-1,944,533,0.294811,5.99221
-273,491,0.369995,-5.33691,0,0,0,0,0,0,0,-1,951,533,0.369985,5.33693
-266,491,1.1167,-5.0321,0,0,0,0,0,0,0,-1,958,533,1.11668,5.0321
-259,491,12.0862,-16.9615,0,0,0,0,0,0,0,-1,965,533,12.0862,16.9615
-252,491,9.72443,-13.8417,0,0,0,0,0,0,0,-1,972,533,9.72444,13.8418
-245,491,5.27258,-14.3619,0,0,0,0,0,0,0,-1,979,533,5.27255,14.3619
-238,491,3.65381,-11.1472,0,0,0,0,0,0,0,-1,986,533,3.6538,11.1472
-231,491,2.17719,-7.86835,0,0,0,0,0,0,0,-1,993,533,2.17719,7.86832
-224,491,0.554626,-4.61725,0,0,0,0,0,0,0,-1,1000,533,0.554608,4.61727
-217,491,-2.92743,-1.0766,0,0,0,0,0,0,0,-1,1007,533,-2.92743,1.07659
-210,491,-0.92395,0.374512,0,0,0,0,0,0,0,-1,1014,533,-0.923959,-0.374531
-203,491,0.417419,4.77161,0,0,0,0,0,0,0,-1,1021,533,0.417446,-4.77162
-196,491,0,0,0,0,0,0,0,0,0,-1,1028,533,0,0
-189,491,0,0,0,0,0,0,0,0,0,-1,1035,533,0,0
-182,491,0,0,0,0,0,0,0,0,0,-1,1042,533,0,0
-175,491,0,0,0,0,0,0,0,0,0,-1,1049,533,0,0
-168,491,0,0,0,0,0,0,0,0,0,-1,1056,533,0,0
-161,491,0,0,0,0,0,0,0,0,0,-1,1063,533,0,0
-154,491,0,0,0,0,0,0,0,0,0,-1,1070,533,0,0
-147,491,0,0,0,0,0,0,0,0,0,-1,1077,533,0,0
-140,491,0,0,0,0,0,0,0,0,0,-1,1084,533,0,0
-133,491,0,0,0,0,0,0,0,0,0,-1,1091,533,0,0
-126,491,0,0,0,0,0,0,0,0,0,-1,1098,533,0,0
-119,491,0,0,0,0,0,0,0,0,0,-1,1105,533,0,0
-112,491,0,0,0,0,0,0,0,0,0,-1,1112,533,0,0
-105,491,0,0,0,0,0,0,0,0,0,-1,1119,533,0,0
-98,491,0,0,0,0,0,0,0,0,0,-1,1126,533,0,0
-91,491,0,0,0,0,0,0,0,0,0,-1,1133,533,0,0
-84,491,0,0,0,0,0,0,0,0,0,-1,1140,533,0,0
-77,491,0,0,0,0,0,0,0,0,0,-1,1147,533,0,0
-70,491,0,0,0,0,0,0,0,0,0,-1,1154,533,0,0
-63,491,0,0,0,0,0,0,0,0,0,-1,1161,533,0,0
-56,491,0,0,0,0,0,0,0,0,0,-1,1168,533,0,0
-49,491,0,0,0,0,0,0,0,0,0,-1,1175,533,0,0
-42,491,0,0,0,0,0,0,0,0,0,-1,1182,533,0,0
-35,491,0,0,0,0,0,0,0,0,0,-1,1189,533,0,0
-28,491,0,0,0,0,0,0,0,0,0,-1,1196,533,0,0
-21,491,0,0,0,0,0,0,0,0,0,-1,1203,533,0,0
-14,491,0,0,0,0,0,0,0,0,0,-1,1210,533,0,0
-7,491,0,0,0,0,0,0,0,0,0,-1,1217,533,0,0
0,491,0,0,0,0,0,0,0,0,0,-1,1224,533,0,0
7,491,0,0,0,0,0,0,0,0,0,-1,1231,533,0,0
14,491,0,0,0,0,0,0,0,0,0,-1,1238,533,0,0
21,491,0,0,0,0,0,0,0,0,0,-1,1245,533,0,0
28,491,0,0,0,0,0,0,0,0,0,-1,1252,533,0,0
35,491,0,0,0,0,0,0,0,0,0,-1,1259,533,0,0
42,491,0,0,0,0,0,0,0,0,0,-1,1266,533,0,0
49,491,0,0,0,0,0,0,0,0,0,-1,1273,533,0,0
56,491,0,0,0,0,0,0,0,0,0,-1,1280,533,0,0
63,491,0,0,0,0,0,0,0,0,0,-1,1287,533,0,0
70,491,0,0,0,0,0,0,0,0,0,-1,1294,533,0,0
77,491,0,0,0,0,0,0,0,0,0,-1,1301,533,0,0
84,491,0,0,0,0,0,0,0,0,0,-1,1308,533,0,0
91,491,0,0,0,0,0,0,0,0,0,-1,1315,533,0,0
98,491,0,0,0,0,0,0,0,0,0,-1,1322,533,0,0
105,491,0,0,0,0,0,0,0,0,0,-1,1329,533,0,0
112,491,0,0,0,0,0,0,0,0,0,-1,1336,533,0,0
119,491,0,0,0,0,0,0,0,0,0,-1,1343,533,0,0
126,491,0,0,0,0,0,0,0,0,0,-1,1350,533,0,0
133,491,0,0,0,0,0,0,0,0,0,-1,1357,533,0,0
140,491,0,0,0,0,0,0,0,0,0,-1,1364,533,0,0
147,491,0,0,0,0,0,0,0,0,0,-1,1371,533,0,0
154,491,0,0,0,0,0,0,0,0,0,-1,1378,533,0,0
161,491,0,0,0,0,0,0,0,0,0,-1,1385,533,0,0
168,491,0,0,0,0,0,0,0,0,0,-1,1392,533,0,0
175,491,0,0,0,0,0,0,0,0,0,-1,1399,533,0,0
182,491,0,0,0,0,0,0,0,0,0,-1,1406,533,0,0
189,491,0,0,0,0,0,0,0,0,0,-1,1413,533,0,0
196,491,0,0,0,0,0,0,0,0,0,-1,1420,533,0,0
203,491,0,0,0,0,0,0,0,0,0,-1,1427,533,0,0
210,491,0,0,0,0,0,0,0,0,0,-1,1434,533,0,0
217,491,0,0,0,0,0,0,0,0,0,-1,1441,533,0,0
224,491,0,0,0,0,0,0,0,0,0,-1,1448,533,0,0
231,491,0,0,0,0,0,0,0,0,0,-1,1455,533,0,0
238,491,0,0,0,0,0,0,0,0,0,-1,1462,533,0,0
245,491,0,0,0,0,0,0,0,0,0,-1,1469,533,0,0
252,491,0,0,0,0,0,0,0,0,0,-1,1476,533,0,0
259,491,0,0,0,0,0,0,0,0,0,-1,1483,533,0,0
266,491,0,0,0,0,0,0,0,0,0,-1,1490,533,0,0
273,491,0,0,0,0,0,0,0,0,0,-1,1497,533,0,0
280,491,0,0,0,0,0,0,0,0,0,-1,1504,533,0,0
287,491,0,0,0,0,0,0,0,0,0,-1,1511,533,0,0
294,491,0,0,0,0,0,0,0,0,0,-1,1518,533,0,0
301,491,0,0,0,0,0,0,0,0,0,-1,1525,533,0,0
308,491,0,0,0,0,0,0,0,0,0,-1,1532,533,0,0
315,491,0,0,0,0,0,0,0,0,0,-1,1539,533,0,0
322,491,4.26331,-0.734314,0,0,0,0,0,0,0,-1,1546,533,4.26326,0.734324
329,491,4.25354,-0.783752,0,0,0,0,0,0,0,-1,1553,533,4.25359,0.783734
336,491,4.81604,-0.722107,0,0,0,0,0,0,0,-1,1560,533,4.81605,0.722115
343,491,6.14478,-1.44281,0,0,0,0,0,0,0,-1,1567,533,6.14474,1.44281
350,491,6.36353,-1.30792,0,0,0,0,0,0,0,-1,1574,533,6.36352,1.3079
357,491,6.69482,-1.06018,0,0,0,0,0,0,0,-1,1581,533,6.69489,1.06018
364,491,8.01086,-1.69604,0,0,0,0,0,0,0,-1,1588,533,8.01087,1.69607
371,491,8.2135,-0.539307,0,0,0,0,0,0,0,-1,1595,533,8.21348,0.53929
378,491,13.3589,2.17267,0,0,0,0,0,0,0,-1,1602,533,13.3589,-2.17264
385,491,8.08228,-4.95471,0,0,0,0,0,0,0,-1,1609,533,8.08227,4.95474
392,491,2.88721,-4.30988,0,0,0,0,0,0,0,-1,1616,533,2.88716,4.30986
399,491,8.95862,-8.55518,0,0,0,0,0,0,0,-1,1623,533,8.95864,8.55516
406,491,8.16541,-9.00806,0,0,0,0,0,0,0,-1,1630,533,8.16535,9.00807
413,491,5.31848,-3.7124,0,0,0,0,0,0,0,-1,1637,533,5.31849,3.7124
420,491,4.86389,-3.95892,0,0,0,0,0,0,0,-1,1644,533,4.86387,3.95893
427,491,10.7228,-14.1692,0,0,0,0,0,0,0,-1,1651,533,10.7228,14.1692
434,491,10.0875,-13.6708,-0.00765001,-0.0112633,-0.00999453,0.00069986,-0.0196132,-0.695982,0.0133149,0.0489913,1658,533,10.0875,13.6708
441,491,9.98376,-13.759,-0.00532525,-0.00810647,-0.00744653,0.0008594,-0.0142911,-0.693088,0.00982642,0.0283512,1665,533,9.98377,13.759
448,491,9.93311,-13.4942,-0.00335498,-0.0054538,-0.0053227,0.00102078,-0.00982956,-0.688068,0.00691845,0.0155028,1672,533,9.93313,13.4942
455,491,9.92993,-13.0906,-0.00172652,-0.0033691,-0.00355181,0.00109772,-0.00619334,-0.671779,0.00453926,0.0120779,1679,533,9.92995,13.0906
462,491,9.93652,-12.7219,-0.000449846,-0.00185696,-0.00215626,0.00111474,-0.00342154,-0.627701,0.00272957,0.0162321,1686,533,9.93653,12.7219
469,491,9.93799,-12.3375,0.000417197,-0.000901952,-0.00108438,0.00102684,-0.0015116,-0.512166,0.00147445,0.0162111,1693,533,9.93798,12.3375
476,491,9.93787,-11.9389,0.000733994,-0.000122196,-0.000377122,0.000876414,-0.000264615,-0.36109,0.000689616,0.0107619,1700,533,9.93781,11.9389
483,491,9.92126,-11.5246,0.000905816,0.00050988,0.000193923,0.000984972,0.000430724,0.387538,0.000570162,0.011923,1707,533,9.92122,11.5246
490,491,9.90881,-11.1254,0.000440832,0.00112445,0.000452579,0.00134979,0.000215489,1.10882,0.000837327,0.0108421,1714,533,9.90886,11.1254
497,491,9.9032,-10.7014,-0.000505872,0.00119094,0.000360754,0.00126445,-0.000579386,1.36977,0.00108876,0.011771,1721,533,9.90322,10.7013
504,491,9.9209,-10.2744,-0.00168376,0.00119531,9.14443e-05,0.00119821,-0.00168666,1.53908,0.00167352,0.0135449,1728,533,9.9209,10.2744
511,491,9.91284,-9.85364,-0.00310552,0.001221,-0.000252026,0.00123564,-0.00312016,-1.51281,0.00259208,0.0119937,1735,533,9.91288,9.85366
518,491,9.89294,-9.44739,-0.00475989,0.00127312,-0.0006827,0.00134941,-0.00483618,-1.45951,0.00375562,0.0089436,1742,533,9.89289,9.44736
525,491,9.89209,-9.01953,-0.00651469,0.00121081,-0.00117554,0.00138572,-0.0066896,-1.42309,0.00498625,0.00954649,1749,533,9.89207,9.01954
532,491,9.89478,-8.60449,-0.00832983,0.00117482,-0.00165816,0.00145579,-0.0086108,-1.40294,0.00628228,0.0213171,1756,533,9.89483,8.60448
539,491,9.74182,-8.28271,-0.0101316,0.00137878,-0.00205207,0.00173368,-0.0104865,-1.39954,0.0076348,0.0362253,1763,533,9.74187,8.28269
546,491,9.25391,-7.45953,0,0,0,0,0,0,0,-1,1770,533,9.25388,7.45952
553,491,8.82617,-6.4093,0,0,0,0,0,0,0,-1,1777,533,8.82612,6.4093
560,491,6.28455,-1.43585,0,0,0,0,0,0,0,-1,1784,533,6.28458,1.43586
567,491,5.67651,-1.3562,0,0,0,0,0,0,0,-1,1791,533,5.67649,1.3562
574,491,8.0719,1.58325,0,0,0,0,0,0,0,-1,1798,533,8.07195,-1.58326
581,491,9.44812,1.60931,0,0,0,0,0,0,0,-1,1805,533,9.44808,-1.60933
588,491,11.0497,1.54962,0,0,0,0,0,0,0,-1,1812,533,11.0496,-1.54963
595,491,0,0,0,0,0,0,0,0,0,-1,1819,533,0,0
602,491,0,0,0,0,0,0,0,0,0,-1,1826,533,0,0
609,491,0,0,0,0,0,0,0,0,0,-1,1833,533,0,0
616,491,0,0,0,0,0,0,0,0,0,-1,1840,533,0,0
623,491,0,0,0,0,0,0,0,0,0,-1,1847,533,0,0
630,491,0,0,0,0,0,0,0,0,0,-1,1854,533,0,0
637,491,0,0,0,0,0,0,0,0,0,-1,1861,533,0,0
644,491,0,0,0,0,0,0,0,0,0,-1,1868,533,0,0
651,491,0,0,0,0,0,0,0,0,0,-1,1875,533,0,0
658,491,0,0,0,0,0,0,0,0,0,-1,1882,533,0,0
665,491,0,0,0,0,0,0,0,0,0,-1,1889,533,0,0
672,491,0,0,0,0,0,0,0,0,0,-1,1896,533,0,0
679,491,0,0,0,0,0,0,0,0,0,-1,1903,533,0,0
686,491,0,0,0,0,0,0,0,0,0,-1,1910,533,0,0
693,491,0,0,0,0,0,0,0,0,0,-1,1917,533,0,0
700,491,0,0,0,0,0,0,0,0,0,-1,1924,533,0,0
707,491,0,0,0,0,0,0,0,0,0,-1,1931,533,0,0
714,491,0,0,0,0,0,0,0,0,0,-1,1938,533,0,0
721,491,0,0,0,0,0,0,0,0,0,-1,1945,533,0,0
728,491,0,0,0,0,0,0,0,0,0,-1,1952,533,0,0
735,491,0,0,0,0,0,0,0,0,0,-1,1959,533,0,0
742,491,0,0,0,0,0,0,0,0,0,-1,1966,533,0,0
749,491,0,0,0,0,0,0,0,0,0,-1,1973,533,0,0
756,491,0,0,0,0,0,0,0,0,0,-1,1980,533,0,0
763,491,0,0,0,0,0,0,0,0,0,-1,1987,533,0,0
770,491,0,0,0,0,0,0,0,0,0,-1,1994,533,0,0
777,491,0,0,0,0,0,0,0,0,0,-1,2001,533,0,0
784,491,0,0,0,0,0,0,0,0,0,-1,2008,533,0,0
791,491,0,0,0,0,0,0,0,0,0,-1,2015,533,0,0
798,491,0,0,0,0,0,0,0,0,0,-1,2022,533,0,0
805,491,0,0,0,0,0,0,0,0,0,-1,2029,533,0,0
812,491,0,0,0,0,0,0,0,0,0,-1,2036,533,0,0
-700,484,0,0,0,0,0,0,0,0,0,-1,524,540,0,0
-693,484,0,0,0,0,0,0,0,0,0,-1,531,540,0,0
-686,484,0,0,0,0,0,0,0,0,0,-1,538,540,0,0
-679,484,0,0,0,0,0,0,0,0,0,-1,545,540,0,0
-672,484,0,0,0,0,0,0,0,0,0,-1,552,540,0,0
-665,484,0,0,0,0,0,0,0,0,0,-1,559,540,0,0
-658,484,0,0,0,0,0,0,0,0,0,-1,566,540,0,0
-651,484,0,0,0,0,0,0,0,0,0,-1,573,540,0,0
-644,484,0,0,0,0,0,0,0,0,0,-1,580,540,0,0
-637,484,0,0,0,0,0,0,0,0,0,-1,587,540,0,0
-630,484,0,0,0,0,0,0,0,0,0,-1,594,540,0,0
-623,484,0,0,0,0,0,0,0,0,0,-1,601,540,0,0
-616,484,0,0,0,0,0,0,0,0,0,-1,608,540,0,0
-609,484,0,0,0,0,0,0,0,0,0,-1,615,540,0,0
-602,484,0,0,0,0,0,0,0,0,0,-1,622,540,0,0
-595,484,0,0,0,0,0,0,0,0,0,-1,629,540,0,0
-588,484,0,0,0,0,0,0,0,0,0,-1,636,540,0,0
-581,484,0,0,0,0,0,0,0,0,0,-1,643,540,0,0
-574,484,0,0,0,0,0,0,0,0,0,-1,650,540,0,0
-567,484,0,0,0,0,0,0,0,0,0,-1,657,540,0,0
-560,484,0,0,0,0,0,0,0,0,0,-1,664,540,0,0
-553,484,0,0,0,0,0,0,0,0,0,-1,671,540,0,0
-546,484,0,0,0,0,0,0,0,0,0,-1,678,540,0,0
-539,484,0,0,0,0,0,0,0,0,0,-1,685,540,0,0
-532,484,0,0,0,0,0,0,0,0,0,-1,692,540,0,0
-525,484,0,0,0,0,0,0,0,0,0,-1,699,540,0,0
-518,484,0,0,0,0,0,0,0,0,0,-1,706,540,0,0
-511,484,0,0,0,0,0,0,0,0,0,-1,713,540,0,0
-504,484,0,0,0,0,0,0,0,0,0,-1,720,540,0,0
-497,484,0,0,0,0,0,0,0,0,0,-1,727,540,0,0
-490,484,0,0,0,0,0,0,0,0,0,-1,734,540,0,0
-483,484,0,0,0,0,0,0,0,0,0,-1,741,540,0,0
-476,484,-8.46552,1.44702,0,0,0,0,0,0,0,-1,748,540,-8.46554,-1.44702
-469,484,-7.82343,1.70355,0,0,0,0,0,0,0,-1,755,540,-7.82345,-1.70355
-462,484,-8.36987,3.08612,0,0,0,0,0,0,0,-1,762,540,-8.36988,-3.0861
-455,484,-6.77197,2.07092,0,0,0,0,0,0,0,-1,769,540,-6.77197,-2.07094
-448,484,3.54895,-1.40106,0,0,0,0,0,0,0,-1,776,540,3.54897,1.40106
-441,484,4.28906,-3.05884,0,0,0,0,0,0,0,-1,783,540,4.28905,3.05883
-434,484,-2.17548,-5.07245,0,0,0,0,0,0,0,-1,790,540,-2.17546,5.07243
-427,484,-2.42993,-8.47498,0,0,0,0,0,0,0,-1,797,540,-2.42994,8.47498
-420,484,-2.44244,-9.1698,0,0,0,0,0,0,0,-1,804,540,-2.44244,9.16977
-413,484,-2.435,-9.67841,-0.000946314,0.00507787,0.00400639,0.00707815,-0.00294659,1.10773,0.00594938,0.0292318,811,540,-2.43501,9.67838
-406,484,-2.48895,-10.1619,-0.000294762,0.00393026,0.00322571,0.00567364,-0.00203814,1.0753,0.00461437,0.0157891,818,540,-2.48896,10.1619
-399,484,-2.5484,-10.5906,9.54038e-05,0.00292844,0.00248642,0.00437353,-0.00134969,1.04432,0.00345462,0.0159606,825,540,-2.54843,10.5906
-392,484,-2.55212,-10.992,0.000378136,0.00196087,0.00184961,0.0031813,-0.000842292,0.987542,0.00245037,0.018049,832,540,-2.5521,10.992
-385,484,-2.56201,-11.3828,0.000685529,0.00129585,0.00123033,0.0022583,-0.000276926,0.906959,0.00160582,0.013087,839,540,-2.562,11.3828
-378,484,-2.57684,-11.7736,0.000980627,0.000777256,0.00063536,0.00152239,0.000235496,0.706049,0.000946245,0.0146783,846,540,-2.57686,11.7736
-371,484,-2.57245,-12.1489,0.00119387,0.000285759,0.000176968,0.00122714,0.000252491,0.185819,0.000748264,0.0163592,853,540,-2.57244,12.1489
-364,484,-2.57062,-12.5125,0.00139459,-0.000174186,-0.000110162,0.00140229,-0.000181884,-0.0697653,0.00100101,0.0111672,860,540,-2.57062,12.5124
-357,484,-2.60229,-12.903,0.00168129,-0.000437569,-0.000325702,0.00173023,-0.000486504,-0.14913,0.0013453,0.0113227,867,540,-2.60227,12.9029
-350,484,-2.61401,-13.274,0.00205354,-0.00068594,-0.00036159,0.00210046,-0.000732864,-0.129049,0.00169815,0.0140861,874,540,-2.61402,13.274
-343,484,-2.60193,-13.6569,0.00246652,-0.000842346,-0.000241164,0.00248401,-0.00085983,-0.0723745,0.00200504,0.0219701,881,540,-2.60192,13.6569
-336,484,-2.5672,-14.0392,0.00291047,-0.00101325,-0.000188381,0.00291949,-0.00102228,-0.047864,0.00236201,0.0252685,888,540,-2.5672,14.0392
-329,484,-2.60327,-14.3764,0.00344664,-0.00114196,-0.000189724,0.00345448,-0.00114979,-0.041253,0.00276706,0.034949,895,540,-2.60328,14.3764
-322,484,-2.53546,-14.8457,0,0,0,0,0,0,0,-1,902,540,-2.53549,14.8457
-315,484,-2.40802,-15.2443,0,0,0,0,0,0,0,-1,909,540,-2.40801,15.2442
-308,484,-1.32623,-8.9317,0,0,0,0,0,0,0,-1,916,540,-1.32626,8.93173
-301,484,-1.33453,-6.52667,0,0,0,0,0,0,0,-1,923,540,-1.33454,6.5267
-294,484,-1.61224,-8.17059,0,0,0,0,0,0,0,-1,930,540,-1.61227,8.17058
-287,484,-0.715759,-5.62103,0,0,0,0,0,0,0,-1,937,540,-0.715772,5.62105
-280,484,2.66742,-1.6795,0,0,0,0,0,0,0,-1,944,540,2.6674,1.67949
-273,484,2.53125,-2.22296,0,0,0,0,0,0,0,-1,951,540,2.53128,2.22295
-266,484,2.6778,-2.72058,0,0,0,0,0,0,0,-1,958,540,2.6778,2.72061
-259,484,2.41718,-2.59894,0,0,0,0,0,0,0,-1,965,540,2.41717,2.59892
-252,484,10.6069,-11.696,0,0,0,0,0,0,0,-1,972,540,10.6069,11.696
-245,484,6.34106,-11.6107,0,0,0,0,0,0,0,-1,979,540,6.34104,11.6107
-238,484,4.89319,-8.54059,0,0,0,0,0,0,0,-1,986,540,4.89321,8.5406
-231,484,3.47675,-5.22064,0,0,0,0,0,0,0,-1,993,540,3.47676,5.22067
-224,484,1.71344,-2.03473,0,0,0,0,0,0,0,-1,1000,540,1.71342,2.03472
-217,484,-0.745056,1.17358,0,0,0,0,0,0,0,-1,1007,540,-0.745043,-1.17359
-210,484,0,0,0,0,0,0,0,0,0,-1,1014,540,0,0
-203,484,0,0,0,0,0,0,0,0,0,-1,1021,540,0,0
-196,484,0,0,0,0,0,0,0,0,0,-1,1028,540,0,0
-189,484,0,0,0,0,0,0,0,0,0,-1,1035,540,0,0
-182,484,0,0,0,0,0,0,0,0,0,-1,1042,540,0,0
-175,484,0,0,0,0,0,0,0,0,0,-1,1049,540,0,0
-168,484,0,0,0,0,0,0,0,0,0,-1,1056,540,0,0
-161,484,0,0,0,0,0,0,0,0,0,-1,1063,540,0,0
-154,484,0,0,0,0,0,0,0,0,0,-1,1070,540,0,0
-147,484,0,0,0,0,0,0,0,0,0,-1,1077,540,0,0
-140,484,0,0,0,0,0,0,0,0,0,-1,1084,540,0,0
-133,484,0,0,0,0,0,0,0,0,0,-1,1091,540,0,0
-126,484,0,0,0,0,0,0,0,0,0,-1,1098,540,0,0
-119,484,0,0,0,0,0,0,0,0,0,-1,1105,540,0,0
-112,484,0,0,0,0,0,0,0,0,0,-1,1112,540,0,0
-105,484,0,0,0,0,0,0,0,0,0,-1,1119,540,0,0
-98,484,0,0,0,0,0,0,0,0,0,-1,1126,540,0,0
-91,484,0,0,0,0,0,0,0,0,0,-1,1133,540,0,0
-84,484,0,0,0,0,0,0,0,0,0,-1,1140,540,0,0
-77,484,0,0,0,0,0,0,0,0,0,-1,1147,540,0,0
-70,484,0,0,0,0,0,0,0,0,0,-1,1154,540,0,0
-63,484,0,0,0,0,0,0,0,0,0,-1,1161,540,0,0
-56,484,0,0,0,0,0,0,0,0,0,-1,1168,540,0,0
-49,484,0,0,0,0,0,0,0,0,0,-1,1175,540,0,0
-42,484,0,0,0,0,0,0,0,0,0,-1,1182,540,0,0
-35,484,0,0,0,0,0,0,0,0,0,-1,1189,540,0,0
-28,484,0,0,0,0,0,0,0,0,0,-1,1196,540,0,0
-21,484,0,0,0,0,0,0,0,0,0,-1,1203,540,0,0
-14,484,0,0,0,0,0,0,0,0,0,-1,1210,540,0,0
-7,484,0,0,0,0,0,0,0,0,0,-1,1217,540,0,0
0,484,0,0,0,0,0,0,0,0,0,-1,1224,540,0,0
7,484,0,0,0,0,0,0,0,0,0,-1,1231,540,0,0
14,484,0,0,0,0,0,0,0,0,0,-1,1238,540,0,0
21,484,0,0,0,0,0,0,0,0,0,-1,1245,540,0,0
28,484,0,0,0,0,0,0,0,0,0,-1,1252,540,0,0
35,484,0,0,0,0,0,0,0,0,0,-1,1259,540,0,0
42,484,0,0,0,0,0,0,0,0,0,-1,1266,540,0,0
49,484,0,0,0,0,0,0,0,0,0,-1,1273,540,0,0
56,484,0,0,0,0,0,0,0,0,0,-1,1280,540,0,0
63,484,0,0,0,0,0,0,0,0,0,-1,1287,540,0,0
70,484,0,0,0,0,0,0,0,0,0,-1,1294,540,0,0
77,484,0,0,0,0,0,0,0,0,0,-1,1301,540,0,0
84,484,0,0,0,0,0,0,0,0,0,-1,1308,540,0,0
91,484,0,0,0,0,0,0,0,0,0,-1,1315,540,0,0
98,484,0,0,0,0,0,0,0,0,0,-1,1322,540,0,0
105,484,0,0,0,0,0,0,0,0,0,-1,1329,540,0,0
112,484,0,0,0,0,0,0,0,0,0,-1,1336,540,0,0
119,484,0,0,0,0,0,0,0,0,0,-1,1343,540,0,0
126,484,0,0,0,0,0,0,0,0,0,-1,1350,540,0,0
133,484,0,0,0,0,0,0,0,0,0,-1,1357,540,0,0
140,484,0,0,0,0,0,0,0,0,0,-1,1364,540,0,0
147,484,0,0,0,0,0,0,0,0,0,-1,1371,540,0,0
154,484,0,0,0,0,0,0,0,0,0,-1,1378,540,0,0
161,484,0,0,0,0,0,0,0,0,0,-1,1385,540,0,0
168,484,0,0,0,0,0,0,0,0,0,-1,1392,540,0,0
175,484,0,0,0,0,0,0,0,0,0,-1,1399,540,0,0
182,484,0,0,0,0,0,0,0,0,0,-1,1406,540,0,0
189,484,0,0,0,0,0,0,0,0,0,-1,1413,540,0,0
196,484,0,0,0,0,0,0,0,0,0,-1,1420,540,0,0
203,484,0,0,0,0,0,0,0,0,0,-1,1427,540,0,0
210,484,0,0,0,0,0,0,0,0,0,-1,1434,540,0,0
217,484,0,0,0,0,0,0,0,0,0,-1,1441,540,0,0
224,484,0,0,0,0,0,0,0,0,0,-1,1448,540,0,0
231,484,0,0,0,0,0,0,0,0,0,-1,1455,540,0,0
238,484,0,0,0,0,0,0,0,0,0,-1,1462,540,0,0
245,484,0,0,0,0,0,0,0,0,0,-1,1469,540,0,0
252,484,0,0,0,0,0,0,0,0,0,-1,1476,540,0,0
259,484,0,0,0,0,0,0,0,0,0,-1,1483,540,0,0
266,484,0,0,0,0,0,0,0,0,0,-1,1490,540,0,0
273,484,0,0,0,0,0,0,0,0,0,-1,1497,540,0,0
280,484,0,0,0,0,0,0,0,0,0,-1,1504,540,0,0
287,484,0,0,0,0,0,0,0,0,0,-1,1511,540,0,0
294,484,0,0,0,0,0,0,0,0,0,-1,1518,540,0,0
301,484,0,0,0,0,0,0,0,0,0,-1,1525,540,0,0
308,484,0,0,0,0,0,0,0,0,0,-1,1532,540,0,0
315,484,0,0,0,0,0,0,0,0,0,-1,1539,540,0,0
322,484,0,0,0,0,0,0,0,0,0,-1,1546,540,0,0
329,484,0,0,0,0,0,0,0,0,0,-1,1553,540,0,0
336,484,4.38708,-1.64136,0,0,0,0,0,0,0,-1,1560,540,4.38704,1.64138
343,484,7.57996,-1.05457,0,0,0,0,0,0,0,-1,1567,540,7.57995,1.05454
350,484,8.10425,-1.18878,0,0,0,0,0,0,0,-1,1574,540,8.1043,1.18877
357,484,7.74902,-3.80286,0,0,0,0,0,0,0,-1,1581,540,7.74901,3.80287
364,484,6.31262,-3.87213,0,0,0,0,0,0,0,-1,1588,540,6.31263,3.87215
371,484,7.21008,0.973511,0,0,0,0,0,0,0,-1,1595,540,7.21014,-0.973541
378,484,11.0563,1.5014,0,0,0,0,0,0,0,-1,1602,540,11.0563,-1.5014
385,484,14.3469,2.5545,0,0,0,0,0,0,0,-1,1609,540,14.3469,-2.55453
392,484,7.39453,-4.95026,0,0,0,0,0,0,0,-1,1616,540,7.39448,4.95023
399,484,7.14417,-2.5639,0,0,0,0,0,0,0,-1,1623,540,7.14417,2.56391
406,484,7.88953,-2.47321,0,0,0,0,0,0,0,-1,1630,540,7.88954,2.47323
413,484,4.4895,-1.08673,0,0,0,0,0,0,0,-1,1637,540,4.48952,1.08674
420,484,4.50012,-2.11255,0,0,0,0,0,0,0,-1,1644,540,4.50012,2.11256
427,484,5.28601,-3.54053,0,0,0,0,0,0,0,-1,1651,540,5.28599,3.54051
434,484,10.6602,-13.1421,0,0,0,0,0,0,0,-1,1658,540,10.6602,13.1421
441,484,10.4061,-13.5654,0,0,0,0,0,0,0,-1,1665,540,10.4062,13.5654
448,484,10.465,-13.6083,0,0,0,0,0,0,0,-1,1672,540,10.4649,13.6083
455,484,10.3401,-13.1425,-0.00200032,-0.00384147,-0.00429547,0.00147212,-0.00731391,-0.679839,0.00543353,0.0277678,1679,540,10.3401,13.1425
462,484,10.3519,-12.6888,-0.000314259,-0.00185427,-0.00247657,0.00150925,-0.00367778,-0.634677,0.00308074,0.0164191,1686,540,10.3519,12.6889
469,484,10.3693,-12.3087,0.000847764,-0.000760189,-0.00112804,0.00142901,-0.00134144,-0.475791,0.00159978,0.01775,1693,540,10.3693,12.3087
476,484,10.3524,-11.8954,0.00137171,0.000113277,-0.000254963,0.00142141,6.3583e-05,-0.192494,0.000927136,0.0150102,1700,540,10.3525,11.8954
483,484,10.3403,-11.501,0.00174599,0.000783079,0.000480796,0.00194495,0.00058412,0.392356,0.00115238,0.0119993,1707,540,10.3403,11.501
490,484,10.3325,-11.1033,0.00145955,0.00147565,0.000840043,0.00230768,0.000627521,0.79019,0.00137777,0.0130901,1714,540,10.3326,11.1033
497,484,10.3167,-10.682,0.000640697,0.00143252,0.00079424,0.00192406,0.000149162,1.01661,0.00123599,0.0146357,1721,540,10.3166,10.682
504,484,10.3142,-10.2609,-0.000381895,0.00127952,0.000547732,0.00144385,-0.000546218,1.27933,0.00118728,0.0168723,1728,540,10.3142,10.2609
511,484,10.3341,-9.85101,-0.00158716,0.00112768,0.000240532,0.00114883,-0.0016083,1.48311,0.00159918,0.0186103,1735,540,10.334,9.85099
518,484,10.3259,-9.43396,-0.0029763,0.00101678,-0.000140697,0.00102173,-0.00298125,-1.53562,0.00240165,0.0145709,1742,540,10.3259,9.43394
525,484,10.3041,-9.00403,-0.00439296,0.000788708,-0.000564091,0.000849405,-0.00445366,-1.46361,0.00328901,0.0126569,1749,540,10.3041,9.00402
532,484,10.2976,-8.5697,-0.00582017,0.000624447,-0.000967849,0.00076666,-0.00596238,-1.4249,0.00425357,0.015365,1756,540,10.2977,8.5697
539,484,10.2502,-8.11707,-0.00719529,0.000556346,-0.00131381,0.000772969,-0.00741191,-1.40739,0.00521805,0.0309121,1763,540,10.2502,8.11707
546,484,10.2457,-7.6853,0,0,0,0,0,0,0,-1,1770,540,10.2458,7.68528
553,484,10.213,-7.09106,0,0,0,0,0,0,0,-1,1777,540,10.213,7.09105
560,484,10.0549,-5.47931,0,0,0,0,0,0,0,-1,1784,540,10.055,5.47928
567,484,7.78223,-1.38312,0,0,0,0,0,0,0,-1,1791,540,7.78224,1.38311
574,484,5.74463,1.50922,0,0,0,0,0,0,0,-1,1798,540,5.74463,-1.50924
581,484,10.34,2.9491,0,0,0,0,0,0,0,-1,1805,540,10.34,-2.94912
588,484,10.6669,2.88568,0,0,0,0,0,0,0,-1,1812,540,10.6669,-2.88567
595,484,10.7233,1.04767,0,0,0,0,0,0,0,-1,1819,540,10.7233,-1.04766
602,484,0,0,0,0,0,0,0,0,0,-1,1826,540,0,0
609,484,0,0,0,0,0,0,0,0,0,-1,1833,540,0,0
616,484,0,0,0,0,0,0,0,0,0,-1,1840,540,0,0
623,484,0,0,0,0,0,0,0,0,0,-1,1847,540,0,0
630,484,0,0,0,0,0,0,0,0,0,-1,1854,540,0,0
637,484,0,0,0,0,0,0,0,0,0,-1,1861,540,0,0
644,484,0,0,0,0,0,0,0,0,0,-1,1868,540,0,0
651,484,0,0,0,0,0,0,0,0,0,-1,1875,540,0,0
658,484,0,0,0,0,0,0,0,0,0,-1,1882,540,0,0
665,484,0,0,0,0,0,0,0,0,0,-1,1889,540,0,0
672,484,0,0,0,0,0,0,0,0,0,-1,1896,540,0,0
679,484,0,0,0,0,0,0,0,0,0,-1,1903,540,0,0
686,484,0,0,0,0,0,0,0,0,0,-1,1910,540,0,0
693,484,0,0,0,0,0,0,0,0,0,-1,1917,540,0,0
700,484,0,0,0,0,0,0,0,0,0,-1,1924,540,0,0
707,484,0,0,0,0,0,0,0,0,0,-1,1931,540,0,0
714,484,0,0,0,0,0,0,0,0,0,-1,1938,540,0,0
721,484,0,0,0,0,0,0,0,0,0,-1,1945,540,0,0
728,484,0,0,0,0,0,0,0,0,0,-1,1952,540,0,0
735,484,0,0,0,0,0,0,0,0,0,-1,1959,540,0,0
742,484,0,0,0,0,0,0,0,0,0,-1,1966,540,0,0
749,484,0,0,0,0,0,0,0,0,0,-1,1973,540,0,0
756,484,0,0,0,0,0,0,0,0,0,-1,1980,540,0,0
763,484,0,0,0,0,0,0,0,0,0,-1,1987,540,0,0
770,484,0,0,0,0,0,0,0,0,0,-1,1994,540,0,0
777,484,0,0,0,0,0,0,0,0,0,-1,2001,540,0,0
784,484,0,0,0,0,0,0,0,0,0,-1,2008,540,0,0
791,484,0,0,0,0,0,0,0,0,0,-1,2015,540,0,0
798,484,0,0,0,0,0,0,0,0,0,-1,2022,540,0,0
805,484,0,0,0,0,0,0,0,0,0,-1,2029,540,0,0
812,484,0,0,0,0,0,0,0,0,0,-1,2036,540,0,0
-700,477,0,0,0,0,0,0,0,0,0,-1,524,547,0,0
-693,477,0,0,0,0,0,0,0,0,0,-1,531,547,0,0
-686,477,0,0,0,0,0,0,0,0,0,-1,538,547,0,0
-679,477,0,0,0,0,0,0,0,0,0,-1,545,547,0,0
-672,477,0,0,0,0,0,0,0,0,0,-1,552,547,0,0
-665,477,0,0,0,0,0,0,0,0,0,-1,559,547,0,0
-658,477,0,0,0,0,0,0,0,0,0,-1,566,547,0,0
-651,477,0,0,0,0,0,0,0,0,0,-1,573,547,0,0
-644,477,0,0,0,0,0,0,0,0,0,-1,580,547,0,0
-637,477,0,0,0,0,0,0,0,0,0,-1,587,547,0,0
-630,477,0,0,0,0,0,0,0,0,0,-1,594,547,0,0
-623,477,0,0,0,0,0,0,0,0,0,-1,601,547,0,0
-616,477,0,0,0,0,0,0,0,0,0,-1,608,547,0,0
-609,477,0,0,0,0,0,0,0,0,0,-1,615,547,0,0
-602,477,0,0,0,0,0,0,0,0,0,-1,622,547,0,0
-595,477,0,0,0,0,0,0,0,0,0,-1,629,547,0,0
-588,477,0,0,0,0,0,0,0,0,0,-1,636,547,0,0
-581,477,0,0,0,0,0,0,0,0,0,-1,643,547,0,0
-574,477,0,0,0,0,0,0,0,0,0,-1,650,547,0,0
-567,477,0,0,0,0,0,0,0,0,0,-1,657,547,0,0
-560,477,0,0,0,0,0,0,0,0,0,-1,664,547,0,0
-553,477,0,0,0,0,0,0,0,0,0,-1,671,547,0,0
-546,477,0,0,0,0,0,0,0,0,0,-1,678,547,0,0
-539,477,0,0,0,0,0,0,0,0,0,-1,685,547,0,0
-532,477,0,0,0,0,0,0,0,0,0,-1,692,547,0,0
-525,477,0,0,0,0,0,0,0,0,0,-1,699,547,0,0
-518,477,0,0,0,0,0,0,0,0,0,-1,706,547,0,0
-511,477,0,0,0,0,0,0,0,0,0,-1,713,547,0,0
-504,477,0,0,0,0,0,0,0,0,0,-1,720,547,0,0
-497,477,0,0,0,0,0,0,0,0,0,-1,727,547,0,0
-490,477,0,0,0,0,0,0,0,0,0,-1,734,547,0,0
-483,477,-7.73151,-0.224182,0,0,0,0,0,0,0,-1,741,547,-7.73152,0.224176
-476,477,-6.25806,-0.310547,0,0,0,0,0,0,0,-1,748,547,-6.25804,0.310549
-469,477,-7.26617,0.525085,0,0,0,0,0,0,0,-1,755,547,-7.2662,-0.525111
-462,477,-6.65143,1.06042,0,0,0,0,0,0,0,-1,762,547,-6.65143,-1.06043
-455,477,-5.31757,0.429016,0,0,0,0,0,0,0,-1,769,547,-5.31756,-0.42902
-448,477,-4.0697,0.273376,0,0,0,0,0,0,0,-1,776,547,-4.06971,-0.273363
-441,477,-2.47504,-4.76971,0,0,0,0,0,0,0,-1,783,547,-2.47505,4.76973
-434,477,-2.599,-8.46509,0,0,0,0,0,0,0,-1,790,547,-2.59899,8.46511
-427,477,-2.83075,-8.74487,-0.00337484,0.00747478,0.00258517,0.00805927,-0.00395933,1.34844,0.00707224,0.0353633,797,547,-2.83076,8.74486
-420,477,-2.88702,-9.0329,-0.00212124,0.00583384,0.00230001,0.00645095,-0.00273836,1.30866,0.00544787,0.0290099,804,547,-2.887,9.03287
-413,477,-2.87836,-9.65283,-0.0011726,0.0044838,0.00193505,0.00508243,-0.00177123,1.27077,0.00410801,0.0179083,811,547,-2.87838,9.65286
-406,477,-2.93951,-10.1315,-0.000480125,0.00343871,0.00159853,0.00400805,-0.00104947,1.22864,0.003082,0.0106501,818,547,-2.93954,10.1315
-399,477,-2.93262,-10.5684,-1.30629e-05,0.00251824,0.00124268,0.00302632,-0.000521147,1.18268,0.00221183,0.0189818,825,547,-2.93264,10.5684
-392,477,-2.94458,-10.9781,0.000367684,0.0015926,0.000925003,0.00208953,-0.000129244,1.07782,0.00143804,0.0176772,832,547,-2.94458,10.9781
-385,477,-2.94556,-11.3659,0.000773441,0.000987756,0.000558535,0.00144932,0.000311877,0.880174,0.000880854,0.0149094,839,547,-2.94553,11.3659
-378,477,-2.98621,-11.7634,0.00114573,0.000509172,0.000177261,0.00119176,0.000463139,0.254077,0.00069373,0.0140999,846,547,-2.98618,11.7634
-371,477,-2.98175,-12.1224,0.00144181,6.50723e-05,-0.000116432,0.00145159,5.52949e-05,-0.0837782,0.000949829,0.0142102,853,547,-2.98173,12.1224
-364,477,-2.98828,-12.4836,0.001731,-0.000343408,-0.000295046,0.00177215,-0.000384556,-0.138571,0.0013283,0.0133676,860,547,-2.98827,12.4836
-357,477,-2.98993,-12.8906,0.00210056,-0.000594957,-0.000451625,0.00217422,-0.000668613,-0.161667,0.00171632,0.0104491,867,547,-2.98993,12.8906
-350,477,-2.99323,-13.2739,0.0025933,-0.00088005,-0.000377034,0.00263376,-0.000920506,-0.106892,0.00213004,0.00984781,874,547,-2.99325,13.2739
-343,477,-2.92456,-13.6694,0.00312525,-0.00099795,-0.000212742,0.0031362,-0.0010089,-0.0514143,0.00249602,0.0182276,881,547,-2.92459,13.6693
-336,477,-2.84033,-14.0632,0.00368394,-0.00115067,-0.000219421,0.00369388,-0.00116061,-0.0452615,0.00292718,0.032741,888,547,-2.84031,14.0632
-329,477,-2.68079,-14.4411,0,0,0,0,0,0,0,-1,895,547,-2.68081,14.4411
-322,477,-2.04822,-12.0026,0,0,0,0,0,0,0,-1,902,547,-2.04819,12.0026
-315,477,-1.67358,-9.15253,0,0,0,0,0,0,0,-1,909,547,-1.67356,9.15253
-308,477,-1.30127,-6.55188,0,0,0,0,0,0,0,-1,916,547,-1.30128,6.55185
-301,477,-1.21185,-6.28351,0,0,0,0,0,0,0,-1,923,547,-1.21184,6.28352
-294,477,-0.352905,3.27142,0,0,0,0,0,0,0,-1,930,547,-0.35292,-3.27144
-287,477,3.54364,2.15399,0,0,0,0,0,0,0,-1,937,547,3.54362,-2.15396
-280,477,1.97308,-0.954163,0,0,0,0,0,0,0,-1,944,547,1.9731,0.954178
-273,477,2.11621,-3.76709,0,0,0,0,0,0,0,-1,951,547,2.11619,3.76706
-266,477,2.04669,-3.42389,0,0,0,0,0,0,0,-1,958,547,2.04671,3.42391
-259,477,-1.33478,-3.41205,0,0,0,0,0,0,0,-1,965,547,-1.3348,3.41206
-252,477,0.597168,-5.32922,0,0,0,0,0,0,0,-1,972,547,0.597144,5.32924
-245,477,8.2309,-8.48492,0,0,0,0,0,0,0,-1,979,547,8.23091,8.48494
-238,477,6.60938,-5.64063,0,0,0,0,0,0,0,-1,986,547,6.60938,5.64063
-231,477,4.71716,-2.52484,0,0,0,0,0,0,0,-1,993,547,4.71716,2.52483
-224,477,0,0,0,0,0,0,0,0,0,-1,1000,547,0,0
-217,477,0,0,0,0,0,0,0,0,0,-1,1007,547,0,0
-210,477,0,0,0,0,0,0,0,0,0,-1,1014,547,0,0
-203,477,0,0,0,0,0,0,0,0,0,-1,1021,547,0,0
-196,477,0,0,0,0,0,0,0,0,0,-1,1028,547,0,0
-189,477,0,0,0,0,0,0,0,0,0,-1,1035,547,0,0
-182,477,0,0,0,0,0,0,0,0,0,-1,1042,547,0,0
-175,477,0,0,0,0,0,0,0,0,0,-1,1049,547,0,0
-168,477,0,0,0,0,0,0,0,0,0,-1,1056,547,0,0
-161,477,0,0,0,0,0,0,0,0,0,-1,1063,547,0,0
-154,477,0,0,0,0,0,0,0,0,0,-1,1070,547,0,0
-147,477,0,0,0,0,0,0,0,0,0,-1,1077,547,0,0
-140,477,0,0,0,0,0,0,0,0,0,-1,1084,547,0,0
-133,477,0,0,0,0,0,0,0,0,0,-1,1091,547,0,0
-126,477,0,0,0,0,0,0,0,0,0,-1,1098,547,0,0
-119,477,0,0,0,0,0,0,0,0,0,-1,1105,547,0,0
-112,477,0,0,0,0,0,0,0,0,0,-1,1112,547,0,0
-105,477,0,0,0,0,0,0,0,0,0,-1,1119,547,0,0
-98,477,0,0,0,0,0,0,0,0,0,-1,1126,547,0,0
-91,477,0,0,0,0,0,0,0,0,0,-1,1133,547,0,0
-84,477,0,0,0,0,0,0,0,0,0,-1,1140,547,0,0
-77,477,0,0,0,0,0,0,0,0,0,-1,1147,547,0,0
-70,477,0,0,0,0,0,0,0,0,0,-1,1154,547,0,0
-63,477,0,0,0,0,0,0,0,0,0,-1,1161,547,0,0
-56,477,0,0,0,0,0,0,0,0,0,-1,1168,547,0,0
-49,477,0,0,0,0,0,0,0,0,0,-1,1175,547,0,0
-42,477,0,0,0,0,0,0,0,0,0,-1,1182,547,0,0
-35,477,0,0,0,0,0,0,0,0,0,-1,1189,547,0,0
-28,477,0,0,0,0,0,0,0,0,0,-1,1196,547,0,0
-21,477,0,0,0,0,0,0,0,0,0,-1,1203,547,0,0
-14,477,0,0,0,0,0,0,0,0,0,-1,1210,547,0,0
-7,477,0,0,0,0,0,0,0,0,0,-1,1217,547,0,0
0,477,0,0,0,0,0,0,0,0,0,-1,1224,547,0,0
7,477,0,0,0,0,0,0,0,0,0,-1,1231,547,0,0
14,477,0,0,0,0,0,0,0,0,0,-1,1238,547,0,0
21,477,0,0,0,0,0,0,0,0,0,-1,1245,547,0,0
28,477,0,0,0,0,0,0,0,0,0,-1,1252,547,0,0
35,477,0,0,0,0,0,0,0,0,0,-1,1259,547,0,0
42,477,0,0,0,0,0,0,0,0,0,-1,1266,547,0,0
49,477,0,0,0,0,0,0,0,0,0,-1,1273,547,0,0
56,477,0,0,0,0,0,0,0,0,0,-1,1280,547,0,0
63,477,0,0,0,0,0,0,0,0,0,-1,1287,547,0,0
70,477,0,0,0,0,0,0,0,0,0,-1,1294,547,0,0
77,477,0,0,0,0,0,0,0,0,0,-1,1301,547,0,0
84,477,0,0,0,0,0,0,0,0,0,-1,1308,547,0,0
91,477,0,0,0,0,0,0,0,0,0,-1,1315,547,0,0
98,477,0,0,0,0,0,0,0,0,0,-1,1322,547,0,0
105,477,0,0,0,0,0,0,0,0,0,-1,1329,547,0,0
112,477,0,0,0,0,0,0,0,0,0,-1,1336,547,0,0
119,477,0,0,0,0,0,0,0,0,0,-1,1343,547,0,0
126,477,0,0,0,0,0,0,0,0,0,-1,1350,547,0,0
133,477,0,0,0,0,0,0,0,0,0,-1,1357,547,0,0
140,477,0,0,0,0,0,0,0,0,0,-1,1364,547,0,0
147,477,0,0,0,0,0,0,0,0,0,-1,1371,547,0,0
154,477,0,0,0,0,0,0,0,0,0,-1,1378,547,0,0
161,477,0,0,0,0,0,0,0,0,0,-1,1385,547,0,0
168,477,0,0,0,0,0,0,0,0,0,-1,1392,547,0,0
175,477,0,0,0,0,0,0,0,0,0,-1,1399,547,0,0
182,477,0,0,0,0,0,0,0,0,0,-1,1406,547,0,0
189,477,0,0,0,0,0,0,0,0,0,-1,1413,547,0,0
196,477,0,0,0,0,0,0,0,0,0,-1,1420,547,0,0
203,477,0,0,0,0,0,0,0,0,0,-1,1427,547,0,0
210,477,0,0,0,0,0,0,0,0,0,-1,1434,547,0,0
217,477,0,0,0,0,0,0,0,0,0,-1,1441,547,0,0
224,477,0,0,0,0,0,0,0,0,0,-1,1448,547,0,0
231,477,0,0,0,0,0,0,0,0,0,-1,1455,547,0,0
238,477,0,0,0,0,0,0,0,0,0,-1,1462,547,0,0
245,477,0,0,0,0,0,0,0,0,0,-1,1469,547,0,0
252,477,0,0,0,0,0,0,0,0,0,-1,1476,547,0,0
259,477,0,0,0,0,0,0,0,0,0,-1,1483,547,0,0
266,477,0,0,0,0,0,0,0,0,0,-1,1490,547,0,0
273,477,0,0,0,0,0,0,0,0,0,-1,1497,547,0,0
280,477,0,0,0,0,0,0,0,0,0,-1,1504,547,0,0
287,477,0,0,0,0,0,0,0,0,0,-1,1511,547,0,0
294,477,0,0,0,0,0,0,0,0,0,-1,1518,547,0,0
301,477,0,0,0,0,0,0,0,0,0,-1,1525,547,0,0
308,477,0,0,0,0,0,0,0,0,0,-1,1532,547,0,0
315,477,0,0,0,0,0,0,0,0,0,-1,1539,547,0,0
322,477,0,0,0,0,0,0,0,0,0,-1,1546,547,0,0
329,477,0,0,0,0,0,0,0,0,0,-1,1553,547,0,0
336,477,0,0,0,0,0,0,0,0,0,-1,1560,547,0,0
343,477,0,0,0,0,0,0,0,0,0,-1,1567,547,0,0
350,477,1.7699,-3.32275,0,0,0,0,0,0,0,-1,1574,547,1.7699,3.32272
357,477,3.073,-4.83313,0,0,0,0,0,0,0,-1,1581,547,3.07303,4.83316
364,477,4.30127,-4.22864,0,0,0,0,0,0,0,-1,1588,547,4.30125,4.22865
371,477,4.57703,0.283264,0,0,0,0,0,0,0,-1,1595,547,4.57706,-0.283262
378,477,8.57947,1.05969,0,0,0,0,0,0,0,-1,1602,547,8.5795,-1.05972
385,477,12.3726,2.02356,0,0,0,0,0,0,0,-1,1609,547,12.3725,-2.02355
392,477,16.4678,2.76843,0,0,0,0,0,0,0,-1,1616,547,16.4678,-2.76845
399,477,8.00037,-2.29523,0,0,0,0,0,0,0,-1,1623,547,8.00031,2.2952
406,477,4.82495,2.7475,0,0,0,0,0,0,0,-1,1630,547,4.825,-2.74752
413,477,4.88171,-0.336426,0,0,0,0,0,0,0,-1,1637,547,4.88169,0.336398
420,477,3.34875,0.102722,0,0,0,0,0,0,0,-1,1644,547,3.34871,-0.1027
427,477,1.66772,-0.373108,0,0,0,0,0,0,0,-1,1651,547,1.66768,0.373104
434,477,3.76978,-2.30798,0,0,0,0,0,0,0,-1,1658,547,3.76974,2.30801
441,477,4.05444,-2.80402,0,0,0,0,0,0,0,-1,1665,547,4.05444,2.804
448,477,10.4247,-11.7421,0,0,0,0,0,0,0,-1,1672,547,10.4247,11.7421
455,477,10.8523,-13.2871,0,0,0,0,0,0,0,-1,1679,547,10.8523,13.2871
462,477,10.7587,-12.7385,0,0,0,0,0,0,0,-1,1686,547,10.7587,12.7385
469,477,10.7902,-12.2817,0.0015129,-0.000606754,-0.00105092,0.00194561,-0.00103946,-0.390589,0.0017497,0.0297516,1693,547,10.7901,12.2817
476,477,10.7562,-11.8976,0.00219845,0.000407814,-1.89988e-05,0.00219865,0.000407612,-0.0106085,0.00135056,0.0173284,1700,547,10.7562,11.8977
483,477,10.774,-11.4913,0.0027179,0.0011467,0.000872235,0.00310617,0.000758438,0.418805,0.00186996,0.0112967,1707,547,10.7741,11.4913
490,477,10.7589,-11.0925,0.00255723,0.00194591,0.00130708,0.00359391,0.000909228,0.670537,0.0021577,0.0119563,1714,547,10.7589,11.0925
497,477,10.7482,-10.6662,0.00180566,0.00183217,0.00128509,0.00310407,0.000533756,0.790556,0.0019164,0.0134165,1721,547,10.7482,10.6662
504,477,10.7366,-10.2407,0.00087016,0.00155947,0.0010378,0.00230835,0.000121286,0.94572,0.0015001,0.0180366,1728,547,10.7366,10.2407
511,477,10.7539,-9.85394,-0.000195029,0.00127324,0.000737022,0.00157937,-0.000501161,1.17712,0.00125381,0.0226353,1735,547,10.7539,9.85392
518,477,10.7439,-9.43927,-0.00140548,0.00104589,0.000376307,0.00110236,-0.00146194,1.42186,0.00148534,0.018818,1742,547,10.7439,9.43929
525,477,10.719,-8.99042,-0.00260478,0.000711715,-9.20682e-06,0.00071174,-0.00260481,-1.56802,0.0020161,0.0158273,1749,547,10.719,8.99042
532,477,10.6628,-8.58215,-0.00380267,0.000451771,-0.000371969,0.000484048,-0.00383495,-1.48424,0.00273231,0.0193881,1756,547,10.6629,8.58218
539,477,10.6704,-8.09979,-0.00494313,0.000214091,-0.000706211,0.000309049,-0.00503809,-1.43714,0.00346634,0.0174956,1763,547,10.6705,8.09978
546,477,10.6212,-7.70154,-0.00606947,-8.21248e-05,-0.00105511,9.837e-05,-0.00624996,-1.40137,0.00419981,0.0291194,1770,547,10.6212,7.70153
553,477,10.5941,-7.20886,-0.00723291,-0.00026096,-0.00140826,1.27465e-05,-0.00750661,-1.37883,0.00500866,0.0376227,1777,547,10.5941,7.20884
560,477,10.8572,-6.55743,0,0,0,0,0,0,0,-1,1784,547,10.8572,6.55746
567,477,10.7178,-6.14697,0,0,0,0,0,0,0,-1,1791,547,10.7178,6.147
574,477,6.82593,-0.916992,0,0,0,0,0,0,0,-1,1798,547,6.82598,0.916977
581,477,9.29321,-0.557007,0,0,0,0,0,0,0,-1,1805,547,9.29324,0.55703
588,477,9.75195,0.422729,0,0,0,0,0,0,0,-1,1812,547,9.75198,-0.42273
595,477,9.89172,1.21326,0,0,0,0,0,0,0,-1,1819,547,9.89174,-1.21328
602,477,6.5271,-0.964417,0,0,0,0,0,0,0,-1,1826,547,6.52706,0.964427
609,477,0,0,0,0,0,0,0,0,0,-1,1833,547,0,0
616,477,0,0,0,0,0,0,0,0,0,-1,1840,547,0,0
623,477,0,0,0,0,0,0,0,0,0,-1,1847,547,0,0
630,477,0,0,0,0,0,0,0,0,0,-1,1854,547,0,0
637,477,0,0,0,0,0,0,0,0,0,-1,1861,547,0,0
644,477,0,0,0,0,0,0,0,0,0,-1,1868,547,0,0
651,477,0,0,0,0,0,0,0,0,0,-1,1875,547,0,0
658,477,0,0,0,0,0,0,0,0,0,-1,1882,547,0,0
665,477,0,0,0,0,0,0,0,0,0,-1,1889,547,0,0
672,477,0,0,0,0,0,0,0,0,0,-1,1896,547,0,0
679,477,0,0,0,0,0,0,0,0,0,-1,1903,547,0,0
686,477,0,0,0,0,0,0,0,0,0,-1,1910,547,0,0
693,477,0,0,0,0,0,0,0,0,0,-1,1917,547,0,0
700,477,0,0,0,0,0,0,0,0,0,-1,1924,547,0,0
707,477,0,0,0,0,0,0,0,0,0,-1,1931,547,0,0
714,477,0,0,0,0,0,0,0,0,0,-1,1938,547,0,0
721,477,0,0,0,0,0,0,0,0,0,-1,1945,547,0,0
728,477,0,0,0,0,0,0,0,0,0,-1,1952,547,0,0
735,477,0,0,0,0,0,0,0,0,0,-1,1959,547,0,0
742,477,0,0,0,0,0,0,0,0,0,-1,1966,547,0,0
749,477,0,0,0,0,0,0,0,0,0,-1,1973,547,0,0
756,477,0,0,0,0,0,0,0,0,0,-1,1980,547,0,0
763,477,0,0,0,0,0,0,0,0,0,-1,1987,547,0,0
770,477,0,0,0,0,0,0,0,0,0,-1,1994,547,0,0
777,477,0,0,0,0,0,0,0,0,0,-1,2001,547,0,0
784,477,0,0,0,0,0,0,0,0,0,-1,2008,547,0,0
791,477,0,0,0,0,0,0,0,0,0,-1,2015,547,0,0
798,477,0,0,0,0,0,0,0,0,0,-1,2022,547,0,0
805,477,0,0,0,0,0,0,0,0,0,-1,2029,547,0,0
812,477,0,0,0,0,0,0,0,0,0,-1,2036,547,0,0
-700,470,0,0,0,0,0,0,0,0,0,-1,524,554,0,0
-693,470,0,0,0,0,0,0,0,0,0,-1,531,554,0,0
-686,470,0,0,0,0,0,0,0,0,0,-1,538,554,0,0
-679,470,0,0,0,0,0,0,0,0,0,-1,545,554,0,0
-672,470,0,0,0,0,0,0,0,0,0,-1,552,554,0,0
-665,470,0,0,0,0,0,0,0,0,0,-1,559,554,0,0
-658,470,0,0,0,0,0,0,0,0,0,-1,566,554,0,0
-651,470,0,0,0,0,0,0,0,0,0,-1,573,554,0,0
-644,470,0,0,0,0,0,0,0,0,0,-1,580,554,0,0
-637,470,0,0,0,0,0,0,0,0,0,-1,587,554,0,0
-630,470,0,0,0,0,0,0,0,0,0,-1,594,554,0,0
-623,470,0,0,0,0,0,0,0,0,0,-1,601,554,0,0
-616,470,0,0,0,0,0,0,0,0,0,-1,608,554,0,0
-609,470,0,0,0,0,0,0,0,0,0,-1,615,554,0,0
-602,470,0,0,0,0,0,0,0,0,0,-1,622,554,0,0
-595,470,0,0,0,0,0,0,0,0,0,-1,629,554,0,0
-588,470,0,0,0,0,0,0,0,0,0,-1,636,554,0,0
-581,470,0,0,0,0,0,0,0,0,0,-1,643,554,0,0
-574,470,0,0,0,0,0,0,0,0,0,-1,650,554,0,0
-567,470,0,0,0,0,0,0,0,0,0,-1,657,554,0,0
-560,470,0,0,0,0,0,0,0,0,0,-1,664,554,0,0
-553,470,0,0,0,0,0,0,0,0,0,-1,671,554,0,0
-546,470,0,0,0,0,0,0,0,0,0,-1,678,554,0,0
-539,470,0,0,0,0,0,0,0,0,0,-1,685,554,0,0
-532,470,0,0,0,0,0,0,0,0,0,-1,692,554,0,0
-525,470,0,0,0,0,0,0,0,0,0,-1,699,554,0,0
-518,470,0,0,0,0,0,0,0,0,0,-1,706,554,0,0
-511,470,0,0,0,0,0,0,0,0,0,-1,713,554,0,0
-504,470,0,0,0,0,0,0,0,0,0,-1,720,554,0,0
-497,470,0,0,0,0,0,0,0,0,0,-1,727,554,0,0
-490,470,-9.13263,-1.03125,0,0,0,0,0,0,0,-1,734,554,-9.1326,1.03127
-483,470,-7.68677,-1.03955,0,0,0,0,0,0,0,-1,741,554,-7.68678,1.03958
-476,470,-6.17969,-1.03394,0,0,0,0,0,0,0,-1,748,554,-6.17971,1.03395
-469,470,-6.23016,-0.651855,0,0,0,0,0,0,0,-1,755,554,-6.23014,0.651829
-462,470,-4.87915,-1.03705,0,0,0,0,0,0,0,-1,762,554,-4.87914,1.03702
-455,470,-4.14777,-1.37079,0,0,0,0,0,0,0,-1,769,554,-4.14779,1.37078
-448,470,-2.9314,-5.74518,0,0,0,0,0,0,0,-1,776,554,-2.93137,5.74518
-441,470,-2.96564,-7.73767,0,0,0,0,0,0,0,-1,783,554,-2.96562,7.73769
-434,470,-3.03717,-8.45123,-0.00423252,0.00791179,-6.32377e-05,0.00791212,-0.00423285,-1.56559,0.00711835,0.0367492,790,554,-3.03719,8.45121
-427,470,-3.29675,-8.83545,-0.00283531,0.00641795,0.000136195,0.00641995,-0.00283731,1.55608,0.00547648,0.0182957,797,554,-3.29675,8.83548
-420,470,-3.27399,-9.26184,-0.00174703,0.00503049,0.000218299,0.00503751,-0.00175405,1.53863,0.004071,0.0138935,804,554,-3.274,9.26182
-413,470,-3.29858,-9.70587,-0.000923575,0.0038204,0.000250356,0.00383358,-0.000936751,1.51822,0.00291852,0.0125986,811,554,-3.29857,9.70588
-406,470,-3.32959,-10.1017,-0.000302602,0.00287078,0.00028412,0.00289602,-0.00032784,1.4822,0.00204872,0.0100165,818,554,-3.3296,10.1018
-399,470,-3.31335,-10.5294,0.000130358,0.00203219,0.000268825,0.00206946,9.30899e-05,1.43304,0.00134968,0.0137604,825,554,-3.31335,10.5294
-392,470,-3.31732,-10.952,0.000503594,0.0011662,0.000251934,0.00125111,0.000418686,1.24572,0.000735377,0.0139524,832,554,-3.3173,10.952
-385,470,-3.33215,-11.3347,0.000908033,0.00062684,0.000141018,0.000966569,0.000568305,0.393447,0.00056092,0.0111775,839,554,-3.33215,11.3346
-378,470,-3.35065,-11.7292,0.00126983,0.000193066,-1.23538e-05,0.00126997,0.000192924,-0.0114711,0.000790226,0.0164785,846,554,-3.35064,11.7292
-371,470,-3.36475,-12.0961,0.00159008,-0.000193396,-0.000129995,0.00159951,-0.000202821,-0.0723787,0.00113997,0.0145397,853,554,-3.36473,12.0961
-364,470,-3.36951,-12.4672,0.0019412,-0.000529274,-0.000204639,0.00195803,-0.00054611,-0.0820885,0.00152044,0.014243,860,554,-3.36948,12.4672
-357,470,-3.37573,-12.8607,0.00238434,-0.000776606,-0.000320568,0.00241652,-0.000808789,-0.100058,0.00193772,0.0138186,867,554,-3.37572,12.8607
-350,470,-3.35474,-13.2566,0.00303183,-0.00115123,-0.000253924,0.00304719,-0.00116659,-0.0604074,0.00251229,0.010531,874,554,-3.35473,13.2566
-343,470,-3.25433,-13.6212,0.0037826,-0.00125738,-0.00019174,0.00378988,-0.00126466,-0.0379706,0.00303721,0.0308879,881,554,-3.25436,13.6212
-336,470,-3.07867,-14.1094,0,0,0,0,0,0,0,-1,888,554,-3.07865,14.1094
-329,470,-2.78516,-12.3594,0,0,0,0,0,0,0,-1,895,554,-2.78517,12.3594
-322,470,-2.30829,-11.4527,0,0,0,0,0,0,0,-1,902,554,-2.30827,11.4527
-315,470,-1.04797,-8.29529,0,0,0,0,0,0,0,-1,909,554,-1.04797,8.29526
-308,470,-1.39368,-6.68152,0,0,0,0,0,0,0,-1,916,554,-1.39369,6.68149
-301,470,-0.0340576,3.34888,0,0,0,0,0,0,0,-1,923,554,-0.0340496,-3.3489
-294,470,-1.18378,3.22266,0,0,0,0,0,0,0,-1,930,554,-1.18376,-3.22268
-287,470,-2.15454,3.2204,0,0,0,0,0,0,0,-1,937,554,-2.15452,-3.22037
-280,470,-3.00537,3.099,0,0,0,0,0,0,0,-1,944,554,-3.00536,-3.09898
-273,470,-12.3932,3.65009,0,0,0,0,0,0,0,-1,951,554,-12.3932,-3.65011
-266,470,-11.5706,1.16028,0,0,0,0,0,0,0,-1,958,554,-11.5706,-1.16031
-259,470,-7.50415,-2.77167,0,0,0,0,0,0,0,-1,965,554,-7.50413,2.7717
-252,470,-0.371155,-5.87823,0,0,0,0,0,0,0,-1,972,554,-0.37114,5.87821
-245,470,1.33221,-6.81122,0,0,0,0,0,0,0,-1,979,554,1.33223,6.8112
-238,470,0,0,0,0,0,0,0,0,0,-1,986,554,0,0
-231,470,0,0,0,0,0,0,0,0,0,-1,993,554,0,0
-224,470,0,0,0,0,0,0,0,0,0,-1,1000,554,0,0
-217,470,0,0,0,0,0,0,0,0,0,-1,1007,554,0,0
-210,470,0,0,0,0,0,0,0,0,0,-1,1014,554,0,0
-203,470,0,0,0,0,0,0,0,0,0,-1,1021,554,0,0
-196,470,0,0,0,0,0,0,0,0,0,-1,1028,554,0,0
-189,470,0,0,0,0,0,0,0,0,0,-1,1035,554,0,0
-182,470,0,0,0,0,0,0,0,0,0,-1,1042,554,0,0
-175,470,0,0,0,0,0,0,0,0,0,-1,1049,554,0,0
-168,470,0,0,0,0,0,0,0,0,0,-1,1056,554,0,0
-161,470,0,0,0,0,0,0,0,0,0,-1,1063,554,0,0
-154,470,0,0,0,0,0,0,0,0,0,-1,1070,554,0,0
-147,470,0,0,0,0,0,0,0,0,0,-1,1077,554,0,0
-140,470,0,0,0,0,0,0,0,0,0,-1,1084,554,0,0
-133,470,0,0,0,0,0,0,0,0,0,-1,1091,554,0,0
-126,470,0,0,0,0,0,0,0,0,0,-1,1098,554,0,0
-119,470,0,0,0,0,0,0,0,0,0,-1,1105,554,0,0
-112,470,0,0,0,0,0,0,0,0,0,-1,1112,554,0,0
-105,470,0,0,0,0,0,0,0,0,0,-1,1119,554,0,0
-98,470,0,0,0,0,0,0,0,0,0,-1,1126,554,0,0
-91,470,0,0,0,0,0,0,0,0,0,-1,1133,554,0,0
-84,470,0,0,0,0,0,0,0,0,0,-1,1140,554,0,0
-77,470,0,0,0,0,0,0,0,0,0,-1,1147,554,0,0
-70,470,0,0,0,0,0,0,0,0,0,-1,1154,554,0,0
-63,470,0,0,0,0,0,0,0,0,0,-1,1161,554,0,0
-56,470,0,0,0,0,0,0,0,0,0,-1,1168,554,0,0
-49,470,0,0,0,0,0,0,0,0,0,-1,1175,554,0,0
-42,470,0,0,0,0,0,0,0,0,0,-1,1182,554,0,0
-35,470,0,0,0,0,0,0,0,0,0,-1,1189,554,0,0
-28,470,0,0,0,0,0,0,0,0,0,-1,1196,554,0,0
-21,470,0,0,0,0,0,0,0,0,0,-1,1203,554,0,0
-14,470,0,0,0,0,0,0,0,0,0,-1,1210,554,0,0
-7,470,0,0,0,0,0,0,0,0,0,-1,1217,554,0,0
0,470,0,0,0,0,0,0,0,0,0,-1,1224,554,0,0
7,470,0,0,0,0,0,0,0,0,0,-1,1231,554,0,0
14,470,0,0,0,0,0,0,0,0,0,-1,1238,554,0,0
21,470,0,0,0,0,0,0,0,0,0,-1,1245,554,0,0
28,470,0,0,0,0,0,0,0,0,0,-1,1252,554,0,0
35,470,0,0,0,0,0,0,0,0,0,-1,1259,554,0,0
42,470,0,0,0,0,0,0,0,0,0,-1,1266,554,0,0
49,470,0,0,0,0,0,0,0,0,0,-1,1273,554,0,0
56,470,0,0,0,0,0,0,0,0,0,-1,1280,554,0,0
63,470,0,0,0,0,0,0,0,0,0,-1,1287,554,0,0
70,470,0,0,0,0,0,0,0,0,0,-1,1294,554,0,0
77,470,0,0,0,0,0,0,0,0,0,-1,1301,554,0,0
84,470,0,0,0,0,0,0,0,0,0,-1,1308,554,0,0
91,470,0,0,0,0,0,0,0,0,0,-1,1315,554,0,0
98,470,0,0,0,0,0,0,0,0,0,-1,1322,554,0,0
105,470,0,0,0,0,0,0,0,0,0,-1,1329,554,0,0
112,470,0,0,0,0,0,0,0,0,0,-1,1336,554,0,0
119,470,0,0,0,0,0,0,0,0,0,-1,1343,554,0,0
126,470,0,0,0,0,0,0,0,0,0,-1,1350,554,0,0
133,470,0,0,0,0,0,0,0,0,0,-1,1357,554,0,0
140,470,0,0,0,0,0,0,0,0,0,-1,1364,554,0,0
147,470,0,0,0,0,0,0,0,0,0,-1,1371,554,0,0
154,470,0,0,0,0,0,0,0,0,0,-1,1378,554,0,0
161,470,0,0,0,0,0,0,0,0,0,-1,1385,554,0,0
168,470,0,0,0,0,0,0,0,0,0,-1,1392,554,0,0
175,470,0,0,0,0,0,0,0,0,0,-1,1399,554,0,0
182,470,0,0,0,0,0,0,0,0,0,-1,1406,554,0,0
189,470,0,0,0,0,0,0,0,0,0,-1,1413,554,0,0
196,470,0,0,0,0,0,0,0,0,0,-1,1420,554,0,0
203,470,0,0,0,0,0,0,0,0,0,-1,1427,554,0,0
210,470,0,0,0,0,0,0,0,0,0,-1,1434,554,0,0
217,470,0,0,0,0,0,0,0,0,0,-1,1441,554,0,0
224,470,0,0,0,0,0,0,0,0,0,-1,1448,554,0,0
231,470,0,0,0,0,0,0,0,0,0,-1,1455,554,0,0
238,470,0,0,0,0,0,0,0,0,0,-1,1462,554,0,0
245,470,0,0,0,0,0,0,0,0,0,-1,1469,554,0,0
252,470,0,0,0,0,0,0,0,0,0,-1,1476,554,0,0
259,470,0,0,0,0,0,0,0,0,0,-1,1483,554,0,0
266,470,0,0,0,0,0,0,0,0,0,-1,1490,554,0,0
273,470,0,0,0,0,0,0,0,0,0,-1,1497,554,0,0
280,470,0,0,0,0,0,0,0,0,0,-1,1504,554,0,0
287,470,0,0,0,0,0,0,0,0,0,-1,1511,554,0,0
294,470,0,0,0,0,0,0,0,0,0,-1,1518,554,0,0
301,470,0,0,0,0,0,0,0,0,0,-1,1525,554,0,0
308,470,0,0,0,0,0,0,0,0,0,-1,1532,554,0,0
315,470,0,0,0,0,0,0,0,0,0,-1,1539,554,0,0
322,470,0,0,0,0,0,0,0,0,0,-1,1546,554,0,0
329,470,0,0,0,0,0,0,0,0,0,-1,1553,554,0,0
336,470,0,0,0,0,0,0,0,0,0,-1,1560,554,0,0
343,470,0,0,0,0,0,0,0,0,0,-1,1567,554,0,0
350,470,0,0,0,0,0,0,0,0,0,-1,1574,554,0,0
357,470,0,0,0,0,0,0,0,0,0,-1,1581,554,0,0
364,470,1.33423,0.293335,0,0,0,0,0,0,0,-1,1588,554,1.33422,-0.293348
371,470,2.22498,-0.0305176,0,0,0,0,0,0,0,-1,1595,554,2.22494,0.0305046
378,470,6.27051,0.710083,0,0,0,0,0,0,0,-1,1602,554,6.27054,-0.710093
385,470,10.3657,1.47296,0,0,0,0,0,0,0,-1,1609,554,10.3657,-1.47299
392,470,15.3881,3.01935,0,0,0,0,0,0,0,-1,1616,554,15.388,-3.01937
399,470,18.4479,2.93793,0,0,0,0,0,0,0,-1,1623,554,18.4479,-2.93792
406,470,15.1896,1.36676,0,0,0,0,0,0,0,-1,1630,554,15.1896,-1.36679
413,470,6.55383,1.99207,0,0,0,0,0,0,0,-1,1637,554,6.5538,-1.99208
420,470,4.47095,0.845703,0,0,0,0,0,0,0,-1,1644,554,4.47098,-0.845718
427,470,3.51038,1.19684,0,0,0,0,0,0,0,-1,1651,554,3.51039,-1.19684
434,470,3.31775,-1.37427,0,0,0,0,0,0,0,-1,1658,554,3.31781,1.37426
441,470,2.55457,-2.05902,0,0,0,0,0,0,0,-1,1665,554,2.55461,2.05904
448,470,3.27258,-2.64032,0,0,0,0,0,0,0,-1,1672,554,3.27257,2.64029
455,470,10.3658,-9.82233,0,0,0,0,0,0,0,-1,1679,554,10.3659,9.82233
462,470,11.0651,-11.9958,0,0,0,0,0,0,0,-1,1686,554,11.0651,11.9958
469,470,11.0668,-12.4094,0,0,0,0,0,0,0,-1,1693,554,11.0668,12.4094
476,470,11.1023,-11.9028,0.00272551,0.00117804,0.000593284,0.00292679,0.00097676,0.327076,0.00172065,0.0408721,1700,554,11.1023,11.9028
483,470,11.2008,-11.4963,0.00349024,0.00190966,0.00156974,0.0044574,0.000942497,0.552195,0.00271257,0.0163911,1707,554,11.2008,11.4963
490,470,11.1781,-11.0912,0.00353789,0.00275103,0.00197449,0.00515776,0.00113116,0.687057,0.00313034,0.0128833,1714,554,11.1781,11.0912
497,470,11.1715,-10.6674,0.00290968,0.00247372,0.00187822,0.00458253,0.00080087,0.727628,0.00282614,0.0123247,1721,554,11.1715,10.6674
504,470,11.168,-10.2545,0.00211222,0.00199065,0.00154637,0.003599,0.000503878,0.765754,0.00225026,0.0182346,1728,554,11.168,10.2545
511,470,11.158,-9.85089,0.00122293,0.00149362,0.00118096,0.00254696,0.000169587,0.842453,0.00164436,0.0261206,1735,554,11.1579,9.85087
518,470,11.1532,-9.42804,0.000205094,0.00107903,0.000788381,0.00154344,-0.000259319,1.03845,0.0011254,0.0249833,1742,554,11.1533,9.42804
525,470,11.1359,-8.98083,-0.000802938,0.000590956,0.000399223,0.000697199,-0.000909181,1.3107,0.000930132,0.0149562,1749,554,11.1359,8.98086
532,470,11.0948,-8.51935,-0.00183281,0.000195761,3.72603e-05,0.000196446,-0.00183349,1.55244,0.00129279,0.0135878,1756,554,11.0948,8.51934
539,470,11.0896,-8.09924,-0.00283194,-0.000217051,-0.000313188,-0.000180064,-0.00286893,-1.45324,0.00185551,0.0164607,1763,554,11.0896,8.09924
546,470,11.0837,-7.67755,-0.00381949,-0.000602371,-0.000643504,-0.000478429,-0.00394344,-1.38052,0.00248488,0.0154344,1770,554,11.0838,7.67753
553,470,11.1088,-7.20203,-0.00485698,-0.000859317,-0.000957619,-0.000641764,-0.00507453,-1.34741,0.00319069,0.016432,1777,554,11.1088,7.20201
560,470,11.1012,-6.70386,-0.00589687,-0.00116815,-0.00117674,-0.000891501,-0.00617351,-1.33989,0.00385304,0.0251711,1784,554,11.1012,6.70385
567,470,10.9911,-6.28766,-0.00689231,-0.00166303,-0.00143152,-0.0012968,-0.00725854,-1.32033,0.00446991,0.0228115,1791,554,10.9911,6.28766
574,470,11.0538,-5.69934,0,0,0,0,0,0,0,-1,1798,554,11.0539,5.69936
581,470,8.24646,-4.06317,0,0,0,0,0,0,0,-1,1805,554,8.24648,4.06318
588,470,11.1803,1.74927,0,0,0,0,0,0,0,-1,1812,554,11.1803,-1.74926
595,470,4.72192,3.44116,0,0,0,0,0,0,0,-1,1819,554,4.72191,-3.44116
602,470,14.4307,2.76141,0,0,0,0,0,0,0,-1,1826,554,14.4306,-2.76139
609,470,20.9181,4.41058,0,0,0,0,0,0,0,-1,1833,554,20.9181,-4.4106
616,470,0,0,0,0,0,0,0,0,0,-1,1840,554,0,0
623,470,0,0,0,0,0,0,0,0,0,-1,1847,554,0,0
630,470,0,0,0,0,0,0,0,0,0,-1,1854,554,0,0
637,470,0,0,0,0,0,0,0,0,0,-1,1861,554,0,0
644,470,0,0,0,0,0,0,0,0,0,-1,1868,554,0,0
651,470,0,0,0,0,0,0,0,0,0,-1,1875,554,0,0
658,470,0,0,0,0,0,0,0,0,0,-1,1882,554,0,0
665,470,0,0,0,0,0,0,0,0,0,-1,1889,554,0,0
672,470,0,0,0,0,0,0,0,0,0,-1,1896,554,0,0
679,470,0,0,0,0,0,0,0,0,0,-1,1903,554,0,0
686,470,0,0,0,0,0,0,0,0,0,-1,1910,554,0,0
693,470,0,0,0,0,0,0,0,0,0,-1,1917,554,0,0
700,470,0,0,0,0,0,0,0,0,0,-1,1924,554,0,0
707,470,0,0,0,0,0,0,0,0,0,-1,1931,554,0,0
714,470,0,0,0,0,0,0,0,0,0,-1,1938,554,0,0
721,470,0,0,0,0,0,0,0,0,0,-1,1945,554,0,0
728,470,0,0,0,0,0,0,0,0,0,-1,1952,554,0,0
735,470,0,0,0,0,0,0,0,0,0,-1,1959,554,0,0
742,470,0,0,0,0,0,0,0,0,0,-1,1966,554,0,0
749,470,0,0,0,0,0,0,0,0,0,-1,1973,554,0,0
756,470,0,0,0,0,0,0,0,0,0,-1,1980,554,0,0
763,470,0,0,0,0,0,0,0,0,0,-1,1987,554,0,0
770,470,0,0,0,0,0,0,0,0,0,-1,1994,554,0,0
777,470,0,0,0,0,0,0,0,0,0,-1,2001,554,0,0
784,470,0,0,0,0,0,0,0,0,0,-1,2008,554,0,0
791,470,0,0,0,0,0,0,0,0,0,-1,2015,554,0,0
798,470,0,0,0,0,0,0,0,0,0,-1,2022,554,0,0
805,470,0,0,0,0,0,0,0,0,0,-1,2029,554,0,0
812,470,0,0,0,0,0,0,0,0,0,-1,2036,554,0,0
-700,463,0,0,0,0,0,0,0,0,0,-1,524,561,0,0
-693,463,0,0,0,0,0,0,0,0,0,-1,531,561,0,0
-686,463,0,0,0,0,0,0,0,0,0,-1,538,561,0,0
-679,463,0,0,0,0,0,0,0,0,0,-1,545,561,0,0
-672,463,0,0,0,0,0,0,0,0,0,-1,552,561,0,0
-665,463,0,0,0,0,0,0,0,0,0,-1,559,561,0,0
-658,463,0,0,0,0,0,0,0,0,0,-1,566,561,0,0
-651,463,0,0,0,0,0,0,0,0,0,-1,573,561,0,0
-644,463,0,0,0,0,0,0,0,0,0,-1,580,561,0,0
-637,463,0,0,0,0,0,0,0,0,0,-1,587,561,0,0
-630,463,0,0,0,0,0,0,0,0,0,-1,594,561,0,0
-623,463,0,0,0,0,0,0,0,0,0,-1,601,561,0,0
-616,463,0,0,0,0,0,0,0,0,0,-1,608,561,0,0
-609,463,0,0,0,0,0,0,0,0,0,-1,615,561,0,0
-602,463,0,0,0,0,0,0,0,0,0,-1,622,561,0,0
-595,463,0,0,0,0,0,0,0,0,0,-1,629,561,0,0
-588,463,0,0,0,0,0,0,0,0,0,-1,636,561,0,0
-581,463,0,0,0,0,0,0,0,0,0,-1,643,561,0,0
-574,463,0,0,0,0,0,0,0,0,0,-1,650,561,0,0
-567,463,0,0,0,0,0,0,0,0,0,-1,657,561,0,0
-560,463,0,0,0,0,0,0,0,0,0,-1,664,561,0,0
-553,463,0,0,0,0,0,0,0,0,0,-1,671,561,0,0
-546,463,0,0,0,0,0,0,0,0,0,-1,678,561,0,0
-539,463,0,0,0,0,0,0,0,0,0,-1,685,561,0,0
-532,463,0,0,0,0,0,0,0,0,0,-1,692,561,0,0
-525,463,0,0,0,0,0,0,0,0,0,-1,699,561,0,0
-518,463,0,0,0,0,0,0,0,0,0,-1,706,561,0,0
-511,463,0,0,0,0,0,0,0,0,0,-1,713,561,0,0
-504,463,0,0,0,0,0,0,0,0,0,-1,720,561,0,0
-497,463,-9.81451,-1.67126,0,0,0,0,0,0,0,-1,727,561,-9.81452,1.67127
-490,463,-8.57043,-1.58942,0,0,0,0,0,0,0,-1,734,561,-8.57045,1.58944
-483,463,-7.29224,-1.7226,0,0,0,0,0,0,0,-1,741,561,-7.29226,1.72261
-476,463,-5.77704,-1.7312,0,0,0,0,0,0,0,-1,748,561,-5.77703,1.73121
-469,463,-5.14545,-2.138,0,0,0,0,0,0,0,-1,755,561,-5.14546,2.13799
-462,463,-3.13672,-3.07977,0,0,0,0,0,0,0,-1,762,561,-3.13672,3.07974
-455,463,-2.91406,-5.61798,0,0,0,0,0,0,0,-1,769,561,-2.91406,5.61801
-448,463,-3.42767,-7.31415,0,0,0,0,0,0,0,-1,776,561,-3.42767,7.31414
-441,463,-3.51642,-7.88568,-0.00520102,0.00832742,-0.00207209,0.00863768,-0.00551128,-1.42217,0.00823511,0.0434972,783,561,-3.51644,7.88571
-434,463,-3.66846,-8.42737,-0.00376467,0.00683436,-0.00161262,0.00707428,-0.0040046,-1.4231,0.00647772,0.0196244,790,561,-3.66843,8.42739
-427,463,-3.67572,-8.86224,-0.00263993,0.00552481,-0.00120653,0.00569937,-0.00281449,-1.42711,0.00500866,0.00978227,797,561,-3.67573,8.86225
-420,463,-3.66217,-9.26678,-0.00173691,0.0042955,-0.000890727,0.00442427,-0.00186569,-1.42722,0.00373031,0.00929381,804,561,-3.66214,9.2668
-413,463,-3.69312,-9.68048,-0.00104502,0.00315043,-0.000588647,0.00323146,-0.00112604,-1.43401,0.00261186,0.00906489,811,561,-3.69311,9.6805
-406,463,-3.72412,-10.0858,-0.000482043,0.00223252,-0.000296311,0.00226449,-0.000514011,-1.46333,0.00170699,0.00919545,818,561,-3.72414,10.0858
-399,463,-3.71948,-10.5047,-5.59814e-05,0.00141215,-5.86483e-05,0.00141449,-5.83206e-05,-1.53093,0.000963023,0.0103978,825,561,-3.71945,10.5047
-392,463,-3.72162,-10.9109,0.000342596,0.000565894,0.000152582,0.000643314,0.000265176,1.10125,0.000373321,0.0103087,832,561,-3.72162,10.9109
-385,463,-3.74036,-11.3243,0.000780887,5.38163e-05,0.000242827,0.000854528,-1.98246e-05,0.294449,0.000576407,0.0112393,839,561,-3.74037,11.3243
-378,463,-3.74005,-11.7406,0.00117262,-0.000356442,0.000277859,0.00122155,-0.000405368,0.174297,0.000977909,0.0122704,846,561,-3.74007,11.7406
-371,463,-3.73865,-12.1183,0.00157309,-0.000676079,0.000294447,0.001611,-0.000713988,0.128039,0.00137523,0.0113797,853,561,-3.73868,12.1183
-364,463,-3.7337,-12.4601,0.00205466,-0.000884981,0.00026967,0.00207919,-0.000909515,0.0907268,0.00176903,0.013331,860,561,-3.7337,12.4601
-357,463,-3.75922,-12.8212,0.00263579,-0.00106311,0.000135266,0.00264073,-0.00106805,0.0365041,0.0022045,0.0188013,867,561,-3.75919,12.8211
-350,463,-3.68909,-13.2811,0.0034663,-0.00137777,1.44321e-05,0.00346635,-0.00137781,0.0029793,0.00288212,0.0285488,874,561,-3.6891,13.2811
-343,463,-3.48438,-13.6835,0,0,0,0,0,0,0,-1,881,561,-3.4844,13.6835
-336,463,-2.94928,-12.2127,0,0,0,0,0,0,0,-1,888,561,-2.94925,12.2127
-329,463,-2.64307,-12.7037,0,0,0,0,0,0,0,-1,895,561,-2.64307,12.7038
-322,463,-1.82898,-9.11957,0,0,0,0,0,0,0,-1,902,561,-1.829,9.11957
-315,463,-0.944763,-5.96234,0,0,0,0,0,0,0,-1,909,561,-0.94479,5.96237
-308,463,-1.1535,-3.17889,0,0,0,0,0,0,0,-1,916,561,-1.15352,3.17889
-301,463,-1.50366,-3.15338,0,0,0,0,0,0,0,-1,923,561,-1.50364,3.15341
-294,463,-2.35889,-3.93463,0,0,0,0,0,0,0,-1,930,561,-2.35886,3.93465
-287,463,-2.80322,2.73999,0,0,0,0,0,0,0,-1,937,561,-2.80322,-2.74
-280,463,-12.864,5.25146,0,0,0,0,0,0,0,-1,944,561,-12.864,-5.25149
-273,463,-12.4598,3.39178,0,0,0,0,0,0,0,-1,951,561,-12.4598,-3.3918
-266,463,-8.40161,-3.2511,0,0,0,0,0,0,0,-1,958,561,-8.4016,3.25109
-259,463,-6.23285,-5.68842,0,0,0,0,0,0,0,-1,965,561,-6.23288,5.68843
-252,463,0,0,0,0,0,0,0,0,0,-1,972,561,0,0
-245,463,0,0,0,0,0,0,0,0,0,-1,979,561,0,0
-238,463,0,0,0,0,0,0,0,0,0,-1,986,561,0,0
-231,463,0,0,0,0,0,0,0,0,0,-1,993,561,0,0
-224,463,0,0,0,0,0,0,0,0,0,-1,1000,561,0,0
-217,463,0,0,0,0,0,0,0,0,0,-1,1007,561,0,0
-210,463,0,0,0,0,0,0,0,0,0,-1,1014,561,0,0
-203,463,0,0,0,0,0,0,0,0,0,-1,1021,561,0,0
-196,463,0,0,0,0,0,0,0,0,0,-1,1028,561,0,0
-189,463,0,0,0,0,0,0,0,0,0,-1,1035,561,0,0
-182,463,0,0,0,0,0,0,0,0,0,-1,1042,561,0,0
-175,463,0,0,0,0,0,0,0,0,0,-1,1049,561,0,0
-168,463,0,0,0,0,0,0,0,0,0,-1,1056,561,0,0
-161,463,0,0,0,0,0,0,0,0,0,-1,1063,561,0,0
-154,463,0,0,0,0,0,0,0,0,0,-1,1070,561,0,0
-147,463,0,0,0,0,0,0,0,0,0,-1,1077,561,0,0
-140,463,0,0,0,0,0,0,0,0,0,-1,1084,561,0,0
-133,463,0,0,0,0,0,0,0,0,0,-1,1091,561,0,0
-126,463,0,0,0,0,0,0,0,0,0,-1,1098,561,0,0
-119,463,0,0,0,0,0,0,0,0,0,-1,1105,561,0,0
-112,463,0,0,0,0,0,0,0,0,0,-1,1112,561,0,0
-105,463,0,0,0,0,0,0,0,0,0,-1,1119,561,0,0
-98,463,0,0,0,0,0,0,0,0,0,-1,1126,561,0,0
-91,463,0,0,0,0,0,0,0,0,0,-1,1133,561,0,0
-84,463,0,0,0,0,0,0,0,0,0,-1,1140,561,0,0
-77,463,0,0,0,0,0,0,0,0,0,-1,1147,561,0,0
-70,463,0,0,0,0,0,0,0,0,0,-1,1154,561,0,0
-63,463,0,0,0,0,0,0,0,0,0,-1,1161,561,0,0
-56,463,0,0,0,0,0,0,0,0,0,-1,1168,561,0,0
-49,463,0,0,0,0,0,0,0,0,0,-1,1175,561,0,0
-42,463,0,0,0,0,0,0,0,0,0,-1,1182,561,0,0
-35,463,0,0,0,0,0,0,0,0,0,-1,1189,561,0,0
-28,463,0,0,0,0,0,0,0,0,0,-1,1196,561,0,0
-21,463,0,0,0,0,0,0,0,0,0,-1,1203,561,0,0
-14,463,0,0,0,0,0,0,0,0,0,-1,1210,561,0,0
-7,463,0,0,0,0,0,0,0,0,0,-1,1217,561,0,0
0,463,0,0,0,0,0,0,0,0,0,-1,1224,561,0,0
7,463,0,0,0,0,0,0,0,0,0,-1,1231,561,0,0
14,463,0,0,0,0,0,0,0,0,0,-1,1238,561,0,0
21,463,0,0,0,0,0,0,0,0,0,-1,1245,561,0,0
28,463,0,0,0,0,0,0,0,0,0,-1,1252,561,0,0
35,463,0,0,0,0,0,0,0,0,0,-1,1259,561,0,0
42,463,0,0,0,0,0,0,0,0,0,-1,1266,561,0,0
49,463,0,0,0,0,0,0,0,0,0,-1,1273,561,0,0
56,463,0,0,0,0,0,0,0,0,0,-1,1280,561,0,0
63,463,0,0,0,0,0,0,0,0,0,-1,1287,561,0,0
70,463,0,0,0,0,0,0,0,0,0,-1,1294,561,0,0
77,463,0,0,0,0,0,0,0,0,0,-1,1301,561,0,0
84,463,0,0,0,0,0,0,0,0,0,-1,1308,561,0,0
91,463,0,0,0,0,0,0,0,0,0,-1,1315,561,0,0
98,463,0,0,0,0,0,0,0,0,0,-1,1322,561,0,0
105,463,0,0,0,0,0,0,0,0,0,-1,1329,561,0,0
112,463,0,0,0,0,0,0,0,0,0,-1,1336,561,0,0
119,463,0,0,0,0,0,0,0,0,0,-1,1343,561,0,0
126,463,0,0,0,0,0,0,0,0,0,-1,1350,561,0,0
133,463,0,0,0,0,0,0,0,0,0,-1,1357,561,0,0
140,463,0,0,0,0,0,0,0,0,0,-1,1364,561,0,0
147,463,0,0,0,0,0,0,0,0,0,-1,1371,561,0,0
154,463,0,0,0,0,0,0,0,0,0,-1,1378,561,0,0
161,463,0,0,0,0,0,0,0,0,0,-1,1385,561,0,0
168,463,0,0,0,0,0,0,0,0,0,-1,1392,561,0,0
175,463,0,0,0,0,0,0,0,0,0,-1,1399,561,0,0
182,463,0,0,0,0,0,0,0,0,0,-1,1406,561,0,0
189,463,0,0,0,0,0,0,0,0,0,-1,1413,561,0,0
196,463,0,0,0,0,0,0,0,0,0,-1,1420,561,0,0
203,463,0,0,0,0,0,0,0,0,0,-1,1427,561,0,0
210,463,0,0,0,0,0,0,0,0,0,-1,1434,561,0,0
217,463,0,0,0,0,0,0,0,0,0,-1,1441,561,0,0
224,463,0,0,0,0,0,0,0,0,0,-1,1448,561,0,0
231,463,0,0,0,0,0,0,0,0,0,-1,1455,561,0,0
238,463,0,0,0,0,0,0,0,0,0,-1,1462,561,0,0
245,463,0,0,0,0,0,0,0,0,0,-1,1469,561,0,0
252,463,0,0,0,0,0,0,0,0,0,-1,1476,561,0,0
259,463,0,0,0,0,0,0,0,0,0,-1,1483,561,0,0
266,463,0,0,0,0,0,0,0,0,0,-1,1490,561,0,0
273,463,0,0,0,0,0,0,0,0,0,-1,1497,561,0,0
280,463,0,0,0,0,0,0,0,0,0,-1,1504,561,0,0
287,463,0,0,0,0,0,0,0,0,0,-1,1511,561,0,0
294,463,0,0,0,0,0,0,0,0,0,-1,1518,561,0,0
301,463,0,0,0,0,0,0,0,0,0,-1,1525,561,0,0
308,463,0,0,0,0,0,0,0,0,0,-1,1532,561,0,0
315,463,0,0,0,0,0,0,0,0,0,-1,1539,561,0,0
322,463,0,0,0,0,0,0,0,0,0,-1,1546,561,0,0
329,463,0,0,0,0,0,0,0,0,0,-1,1553,561,0,0
336,463,0,0,0,0,0,0,0,0,0,-1,1560,561,0,0
343,463,0,0,0,0,0,0,0,0,0,-1,1567,561,0,0
350,463,0,0,0,0,0,0,0,0,0,-1,1574,561,0,0
357,463,0,0,0,0,0,0,0,0,0,-1,1581,561,0,0
364,463,0,0,0,0,0,0,0,0,0,-1,1588,561,0,0
371,463,1.75842,0.152588,0,0,0,0,0,0,0,-1,1595,561,1.75844,-0.152558
378,463,4.58813,-0.0444336,0,0,0,0,0,0,0,-1,1602,561,4.58809,0.0444505
385,463,8.88574,1.65057,0,0,0,0,0,0,0,-1,1609,561,8.88575,-1.65055
392,463,14.0912,2.50513,0,0,0,0,0,0,0,-1,1616,561,14.0912,-2.5051
399,463,21.4769,2.7002,0,0,0,0,0,0,0,-1,1623,561,21.477,-2.70017
406,463,26.2987,4.32318,0,0,0,0,0,0,0,-1,1630,561,26.2987,-4.3232
413,463,26.5011,2.65222,0,0,0,0,0,0,0,-1,1637,561,26.5011,-2.65224
420,463,8.849,2.26611,0,0,0,0,0,0,0,-1,1644,561,8.84899,-2.26613
427,463,5.12207,1.69183,0,0,0,0,0,0,0,-1,1651,561,5.12206,-1.69184
434,463,4.59814,1.81995,0,0,0,0,0,0,0,-1,1658,561,4.59812,-1.81994
441,463,1.76392,-5.99225,0,0,0,0,0,0,0,-1,1665,561,1.7639,5.99225
448,463,2.49939,-4.30536,0,0,0,0,0,0,0,-1,1672,561,2.49941,4.30536
455,463,4.40295,-3.02557,0,0,0,0,0,0,0,-1,1679,561,4.40299,3.02558
462,463,5.38293,-4.06445,0,0,0,0,0,0,0,-1,1686,561,5.38289,4.06444
469,463,5.94373,-4.50647,0,0,0,0,0,0,0,-1,1693,561,5.94368,4.50646
476,463,11.387,-12.1758,0,0,0,0,0,0,0,-1,1700,561,11.387,12.1758
483,463,11.462,-11.7257,0.00456127,0.00291819,0.00229913,0.00618123,0.00129823,0.613804,0.00376347,0.0478682,1707,561,11.462,11.7257
490,463,11.5892,-11.1157,0.00468425,0.00379205,0.00265064,0.00692606,0.00155024,0.70203,0.00419717,0.0230238,1714,561,11.5893,11.1157
497,463,11.5841,-10.6624,0.00402232,0.00333971,0.00248312,0.00618748,0.00117455,0.717101,0.00379456,0.0133451,1721,561,11.5841,10.6623
504,463,11.5746,-10.2177,0.00319692,0.00266848,0.00208847,0.00503781,0.000827579,0.722476,0.00311949,0.0158395,1728,561,11.5746,10.2177
511,463,11.573,-9.79291,0.00233486,0.00200735,0.00169176,0.00387077,0.000471432,0.73715,0.00243861,0.0242114,1735,561,11.573,9.79289
518,463,11.5741,-9.38879,0.00138911,0.00145861,0.00130631,0.00273063,0.000117085,0.798697,0.00178268,0.0248467,1742,561,11.5742,9.38878
525,463,11.5437,-8.96582,0.00046431,0.000895673,0.000941635,0.00164601,-0.000286028,0.897981,0.00120406,0.0182682,1749,561,11.5437,8.96582
532,463,11.5594,-8.52686,-0.000479995,0.000435302,0.000591873,0.000725822,-0.000770515,1.1145,0.000864039,0.0157791,1756,561,11.5594,8.52685
539,463,11.5406,-8.07324,-0.00139808,-7.90247e-05,0.000222889,-4.23797e-05,-0.00143472,1.40785,0.000942672,0.0163239,1763,561,11.5406,8.07325
546,463,11.5088,-7.66827,-0.00227539,-0.000483552,-0.000101936,-0.000477771,-0.00228117,-1.51415,0.00138918,0.0138485,1770,561,11.5088,7.66825
553,463,11.5129,-7.19928,-0.00317663,-0.000784928,-0.000416123,-0.000714596,-0.00324696,-1.40336,0.00197013,0.0118505,1777,561,11.5129,7.19926
560,463,11.5399,-6.67279,-0.00410994,-0.00106592,-0.000649051,-0.000933305,-0.00424256,-1.36925,0.0025743,0.0158281,1784,561,11.5399,6.67281
567,463,11.4381,-6.26831,-0.0050138,-0.00146654,-0.000932471,-0.00123635,-0.00524398,-1.32878,0.0031654,0.0218566,1791,561,11.4381,6.26832
574,463,11.4873,-5.84662,0,0,0,0,0,0,0,-1,1798,561,11.4873,5.8466
581,463,7.77832,-2.18085,0,0,0,0,0,0,0,-1,1805,561,7.77828,2.18082
588,463,1.97424,2.16016,0,0,0,0,0,0,0,-1,1812,561,1.97422,-2.16013
595,463,9.98657,2.99854,0,0,0,0,0,0,0,-1,1819,561,9.98662,-2.99856
602,463,17.2202,4.91302,0,0,0,0,0,0,0,-1,1826,561,17.2202,-4.91305
609,463,17.96,4.03131,0,0,0,0,0,0,0,-1,1833,561,17.96,-4.03132
616,463,20.8352,3.15131,0,0,0,0,0,0,0,-1,1840,561,20.8352,-3.1513
623,463,0,0,0,0,0,0,0,0,0,-1,1847,561,0,0
630,463,0,0,0,0,0,0,0,0,0,-1,1854,561,0,0
637,463,0,0,0,0,0,0,0,0,0,-1,1861,561,0,0
644,463,0,0,0,0,0,0,0,0,0,-1,1868,561,0,0
651,463,0,0,0,0,0,0,0,0,0,-1,1875,561,0,0
658,463,0,0,0,0,0,0,0,0,0,-1,1882,561,0,0
665,463,0,0,0,0,0,0,0,0,0,-1,1889,561,0,0
672,463,0,0,0,0,0,0,0,0,0,-1,1896,561,0,0
679,463,0,0,0,0,0,0,0,0,0,-1,1903,561,0,0
686,463,0,0,0,0,0,0,0,0,0,-1,1910,561,0,0
693,463,0,0,0,0,0,0,0,0,0,-1,1917,561,0,0
700,463,0,0,0,0,0,0,0,0,0,-1,1924,561,0,0
707,463,0,0,0,0,0,0,0,0,0,-1,1931,561,0,0
714,463,0,0,0,0,0,0,0,0,0,-1,1938,561,0,0
721,463,0,0,0,0,0,0,0,0,0,-1,1945,561,0,0
728,463,0,0,0,0,0,0,0,0,0,-1,1952,561,0,0
735,463,0,0,0,0,0,0,0,0,0,-1,1959,561,0,0
742,463,0,0,0,0,0,0,0,0,0,-1,1966,561,0,0
749,463,0,0,0,0,0,0,0,0,0,-1,1973,561,0,0
756,463,0,0,0,0,0,0,0,0,0,-1,1980,561,0,0
763,463,0,0,0,0,0,0,0,0,0,-1,1987,561,0,0
770,463,0,0,0,0,0,0,0,0,0,-1,1994,561,0,0
777,463,0,0,0,0,0,0,0,0,0,-1,2001,561,0,0
784,463,0,0,0,0,0,0,0,0,0,-1,2008,561,0,0
791,463,0,0,0,0,0,0,0,0,0,-1,2015,561,0,0
798,463,0,0,0,0,0,0,0,0,0,-1,2022,561,0,0
805,463,0,0,0,0,0,0,0,0,0,-1,2029,561,0,0
812,463,0,0,0,0,0,0,0,0,0,-1,2036,561,0,0
-700,456,0,0,0,0,0,0,0,0,0,-1,524,568,0,0
-693,456,0,0,0,0,0,0,0,0,0,-1,531,568,0,0
-686,456,0,0,0,0,0,0,0,0,0,-1,538,568,0,0
-679,456,0,0,0,0,0,0,0,0,0,-1,545,568,0,0
-672,456,0,0,0,0,0,0,0,0,0,-1,552,568,0,0
-665,456,0,0,0,0,0,0,0,0,0,-1,559,568,0,0
-658,456,0,0,0,0,0,0,0,0,0,-1,566,568,0,0
-651,456,0,0,0,0,0,0,0,0,0,-1,573,568,0,0
-644,456,0,0,0,0,0,0,0,0,0,-1,580,568,0,0
-637,456,0,0,0,0,0,0,0,0,0,-1,587,568,0,0
-630,456,0,0,0,0,0,0,0,0,0,-1,594,568,0,0
-623,456,0,0,0,0,0,0,0,0,0,-1,601,568,0,0
-616,456,0,0,0,0,0,0,0,0,0,-1,608,568,0,0
-609,456,0,0,0,0,0,0,0,0,0,-1,615,568,0,0
-602,456,0,0,0,0,0,0,0,0,0,-1,622,568,0,0
-595,456,0,0,0,0,0,0,0,0,0,-1,629,568,0,0
-588,456,0,0,0,0,0,0,0,0,0,-1,636,568,0,0
-581,456,0,0,0,0,0,0,0,0,0,-1,643,568,0,0
-574,456,0,0,0,0,0,0,0,0,0,-1,650,568,0,0
-567,456,0,0,0,0,0,0,0,0,0,-1,657,568,0,0
-560,456,0,0,0,0,0,0,0,0,0,-1,664,568,0,0
-553,456,0,0,0,0,0,0,0,0,0,-1,671,568,0,0
-546,456,0,0,0,0,0,0,0,0,0,-1,678,568,0,0
-539,456,0,0,0,0,0,0,0,0,0,-1,685,568,0,0
-532,456,0,0,0,0,0,0,0,0,0,-1,692,568,0,0
-525,456,0,0,0,0,0,0,0,0,0,-1,699,568,0,0
-518,456,0,0,0,0,0,0,0,0,0,-1,706,568,0,0
-511,456,0,0,0,0,0,0,0,0,0,-1,713,568,0,0
-504,456,-10.3994,-2.34839,0,0,0,0,0,0,0,-1,720,568,-10.3994,2.3484
-497,456,-9.21375,-2.38068,0,0,0,0,0,0,0,-1,727,568,-9.21372,2.38069
-490,456,-8.09058,-2.31824,0,0,0,0,0,0,0,-1,734,568,-8.09057,2.31821
-483,456,-6.66119,-2.24329,0,0,0,0,0,0,0,-1,741,568,-6.66121,2.24331
-476,456,-5.1499,-2.21185,0,0,0,0,0,0,0,-1,748,568,-5.14992,2.21184
-469,456,-2.81238,-3.51501,0,0,0,0,0,0,0,-1,755,568,-2.81237,3.51501
-462,456,-3.75122,-5.14362,0,0,0,0,0,0,0,-1,762,568,-3.7512,5.14361
-455,456,-3.96631,-6.40594,0,0,0,0,0,0,0,-1,769,568,-3.96631,6.40592
-448,456,-3.92834,-7.22125,-0.00589277,0.0079713,-0.00275473,0.0084986,-0.00642007,-1.38167,0.00864112,0.0465411,776,568,-3.92833,7.22124
-441,456,-4.00848,-7.97418,-0.00446115,0.00693743,-0.0023719,0.00741129,-0.00493501,-1.37361,0.00717577,0.023423,783,568,-4.00849,7.97419
-434,456,-4.08923,-8.43933,-0.00339764,0.00571269,-0.00187994,0.00608537,-0.00377033,-1.37509,0.00574228,0.0130201,790,568,-4.08923,8.43933
-427,456,-4.08429,-8.85193,-0.00252061,0.00455026,-0.00140652,0.00481977,-0.00279012,-1.38148,0.00444536,0.00861557,797,568,-4.0843,8.85196
-420,456,-4.07935,-9.25403,-0.00178998,0.00343924,-0.000995569,0.00362236,-0.00197311,-1.38889,0.00327699,0.00824111,804,568,-4.07932,9.25402
-413,456,-4.09937,-9.6582,-0.00121546,0.00235216,-0.000570836,0.00244127,-0.00130458,-1.41594,0.0021956,0.0088252,811,568,-4.09939,9.65823
-406,456,-4.13446,-10.0692,-0.000696561,0.00145656,-0.000169207,0.00146977,-0.000709777,-1.49285,0.00128361,0.00942855,818,568,-4.13446,10.0692
-399,456,-4.14136,-10.4883,-0.000259574,0.000649065,0.000180254,0.000683517,-0.000294026,1.38194,0.000579125,0.0108281,825,568,-4.14137,10.4883
-392,456,-4.1264,-10.8865,0.000191471,-0.000160855,0.000487769,0.000533914,-0.000503298,0.612107,0.000598921,0.0104647,832,568,-4.12642,10.8865
-385,456,-4.1416,-11.2933,0.00069525,-0.00064107,0.000665879,0.0009704,-0.000916219,0.391844,0.00108939,0.0109011,839,568,-4.1416,11.2933
-378,456,-4.15021,-11.7239,0.00115602,-0.00101941,0.000801897,0.00141966,-0.00128305,0.31764,0.00156108,0.0113904,846,568,-4.15023,11.7239
-371,456,-4.15375,-12.1006,0.00169523,-0.00124435,0.000881679,0.0019394,-0.00148851,0.270161,0.0019848,0.0110699,853,568,-4.15373,12.1006
-364,456,-4.14941,-12.4338,0.0023797,-0.001262,0.000843372,0.00256553,-0.00144784,0.216878,0.00234688,0.016004,860,568,-4.14943,12.4338
-357,456,-4.10669,-12.8358,0.00318046,-0.00128713,0.00062329,0.00326579,-0.00137246,0.136053,0.00275126,0.0268175,867,568,-4.10671,12.8358
-350,456,-3.94495,-13.4777,0,0,0,0,0,0,0,-1,874,568,-3.94492,13.4776
-343,456,-3.39081,-12.0217,0,0,0,0,0,0,0,-1,881,568,-3.39078,12.0217
-336,456,-3.04517,-12.4623,0,0,0,0,0,0,0,-1,888,568,-3.04519,12.4624
-329,456,-1.06183,-10.7184,0,0,0,0,0,0,0,-1,895,568,-1.06184,10.7184
-322,456,-0.662537,-7.66632,0,0,0,0,0,0,0,-1,902,568,-0.662564,7.66633
-315,456,-0.675476,-3.38397,0,0,0,0,0,0,0,-1,909,568,-0.675473,3.38399
-308,456,-1.1618,-3.15314,0,0,0,0,0,0,0,-1,916,568,-1.16178,3.15314
-301,456,-1.83551,-3.26447,0,0,0,0,0,0,0,-1,923,568,-1.8355,3.26449
-294,456,-2.93414,-3.35449,0,0,0,0,0,0,0,-1,930,568,-2.93413,3.35451
-287,456,-3.7569,-3.53101,0,0,0,0,0,0,0,-1,937,568,-3.75692,3.53101
-280,456,-13.072,4.52856,0,0,0,0,0,0,0,-1,944,568,-13.072,-4.52855
-273,456,-8.88751,-2.30176,0,0,0,0,0,0,0,-1,951,568,-8.88752,2.30176
-266,456,-5.7442,-6.61816,0,0,0,0,0,0,0,-1,958,568,-5.74419,6.61819
-259,456,0,0,0,0,0,0,0,0,0,-1,965,568,0,0
-252,456,0,0,0,0,0,0,0,0,0,-1,972,568,0,0
-245,456,0,0,0,0,0,0,0,0,0,-1,979,568,0,0
-238,456,0,0,0,0,0,0,0,0,0,-1,986,568,0,0
-231,456,0,0,0,0,0,0,0,0,0,-1,993,568,0,0
-224,456,0,0,0,0,0,0,0,0,0,-1,1000,568,0,0
-217,456,0,0,0,0,0,0,0,0,0,-1,1007,568,0,0
-210,456,0,0,0,0,0,0,0,0,0,-1,1014,568,0,0
-203,456,0,0,0,0,0,0,0,0,0,-1,1021,568,0,0
-196,456,0,0,0,0,0,0,0,0,0,-1,1028,568,0,0
-189,456,0,0,0,0,0,0,0,0,0,-1,1035,568,0,0
-182,456,0,0,0,0,0,0,0,0,0,-1,1042,568,0,0
-175,456,0,0,0,0,0,0,0,0,0,-1,1049,568,0,0
-168,456,0,0,0,0,0,0,0,0,0,-1,1056,568,0,0
-161,456,0,0,0,0,0,0,0,0,0,-1,1063,568,0,0
-154,456,0,0,0,0,0,0,0,0,0,-1,1070,568,0,0
-147,456,0,0,0,0,0,0,0,0,0,-1,1077,568,0,0
-140,456,0,0,0,0,0,0,0,0,0,-1,1084,568,0,0
-133,456,0,0,0,0,0,0,0,0,0,-1,1091,568,0,0
-126,456,0,0,0,0,0,0,0,0,0,-1,1098,568,0,0
-119,456,0,0,0,0,0,0,0,0,0,-1,1105,568,0,0
-112,456,0,0,0,0,0,0,0,0,0,-1,1112,568,0,0
-105,456,0,0,0,0,0,0,0,0,0,-1,1119,568,0,0
-98,456,0,0,0,0,0,0,0,0,0,-1,1126,568,0,0
-91,456,0,0,0,0,0,0,0,0,0,-1,1133,568,0,0
-84,456,0,0,0,0,0,0,0,0,0,-1,1140,568,0,0
-77,456,0,0,0,0,0,0,0,0,0,-1,1147,568,0,0
-70,456,0,0,0,0,0,0,0,0,0,-1,1154,568,0,0
-63,456,0,0,0,0,0,0,0,0,0,-1,1161,568,0,0
-56,456,0,0,0,0,0,0,0,0,0,-1,1168,568,0,0
-49,456,0,0,0,0,0,0,0,0,0,-1,1175,568,0,0
-42,456,0,0,0,0,0,0,0,0,0,-1,1182,568,0,0
-35,456,0,0,0,0,0,0,0,0,0,-1,1189,568,0,0
-28,456,0,0,0,0,0,0,0,0,0,-1,1196,568,0,0
-21,456,0,0,0,0,0,0,0,0,0,-1,1203,568,0,0
-14,456,0,0,0,0,0,0,0,0,0,-1,1210,568,0,0
-7,456,0,0,0,0,0,0,0,0,0,-1,1217,568,0,0
0,456,0,0,0,0,0,0,0,0,0,-1,1224,568,0,0
7,456,0,0,0,0,0,0,0,0,0,-1,1231,568,0,0
14,456,0,0,0,0,0,0,0,0,0,-1,1238,568,0,0
21,456,0,0,0,0,0,0,0,0,0,-1,1245,568,0,0
28,456,0,0,0,0,0,0,0,0,0,-1,1252,568,0,0
35,456,0,0,0,0,0,0,0,0,0,-1,1259,568,0,0
42,456,0,0,0,0,0,0,0,0,0,-1,1266,568,0,0
49,456,0,0,0,0,0,0,0,0,0,-1,1273,568,0,0
56,456,0,0,0,0,0,0,0,0,0,-1,1280,568,0,0
63,456,0,0,0,0,0,0,0,0,0,-1,1287,568,0,0
70,456,0,0,0,0,0,0,0,0,0,-1,1294,568,0,0
77,456,0,0,0,0,0,0,0,0,0,-1,1301,568,0,0
84,456,0,0,0,0,0,0,0,0,0,-1,1308,568,0,0
91,456,0,0,0,0,0,0,0,0,0,-1,1315,568,0,0
98,456,0,0,0,0,0,0,0,0,0,-1,1322,568,0,0
105,456,0,0,0,0,0,0,0,0,0,-1,1329,568,0,0
112,456,0,0,0,0,0,0,0,0,0,-1,1336,568,0,0
119,456,0,0,0,0,0,0,0,0,0,-1,1343,568,0,0
126,456,0,0,0,0,0,0,0,0,0,-1,1350,568,0,0
133,456,0,0,0,0,0,0,0,0,0,-1,1357,568,0,0
140,456,0,0,0,0,0,0,0,0,0,-1,1364,568,0,0
147,456,0,0,0,0,0,0,0,0,0,-1,1371,568,0,0
154,456,0,0,0,0,0,0,0,0,0,-1,1378,568,0,0
161,456,0,0,0,0,0,0,0,0,0,-1,1385,568,0,0
168,456,0,0,0,0,0,0,0,0,0,-1,1392,568,0,0
175,456,0,0,0,0,0,0,0,0,0,-1,1399,568,0,0
182,456,0,0,0,0,0,0,0,0,0,-1,1406,568,0,0
189,456,0,0,0,0,0,0,0,0,0,-1,1413,568,0,0
196,456,0,0,0,0,0,0,0,0,0,-1,1420,568,0,0
203,456,0,0,0,0,0,0,0,0,0,-1,1427,568,0,0
210,456,0,0,0,0,0,0,0,0,0,-1,1434,568,0,0
217,456,0,0,0,0,0,0,0,0,0,-1,1441,568,0,0
224,456,0,0,0,0,0,0,0,0,0,-1,1448,568,0,0
231,456,0,0,0,0,0,0,0,0,0,-1,1455,568,0,0
238,456,0,0,0,0,0,0,0,0,0,-1,1462,568,0,0
245,456,0,0,0,0,0,0,0,0,0,-1,1469,568,0,0
252,456,0,0,0,0,0,0,0,0,0,-1,1476,568,0,0
259,456,0,0,0,0,0,0,0,0,0,-1,1483,568,0,0
266,456,0,0,0,0,0,0,0,0,0,-1,1490,568,0,0
273,456,0,0,0,0,0,0,0,0,0,-1,1497,568,0,0
280,456,0,0,0,0,0,0,0,0,0,-1,1504,568,0,0
287,456,0,0,0,0,0,0,0,0,0,-1,1511,568,0,0
294,456,0,0,0,0,0,0,0,0,0,-1,1518,568,0,0
301,456,0,0,0,0,0,0,0,0,0,-1,1525,568,0,0
308,456,0,0,0,0,0,0,0,0,0,-1,1532,568,0,0
315,456,0,0,0,0,0,0,0,0,0,-1,1539,568,0,0
322,456,0,0,0,0,0,0,0,0,0,-1,1546,568,0,0
329,456,0,0,0,0,0,0,0,0,0,-1,1553,568,0,0
336,456,0,0,0,0,0,0,0,0,0,-1,1560,568,0,0
343,456,0,0,0,0,0,0,0,0,0,-1,1567,568,0,0
350,456,0,0,0,0,0,0,0,0,0,-1,1574,568,0,0
357,456,0,0,0,0,0,0,0,0,0,-1,1581,568,0,0
364,456,0,0,0,0,0,0,0,0,0,-1,1588,568,0,0
371,456,0,0,0,0,0,0,0,0,0,-1,1595,568,0,0
378,456,0,0,0,0,0,0,0,0,0,-1,1602,568,0,0
385,456,5.66284,0.660645,0,0,0,0,0,0,0,-1,1609,568,5.66285,-0.660615
392,456,17.5027,4.32971,0,0,0,0,0,0,0,-1,1616,568,17.5026,-4.32971
399,456,24.1917,5.99652,0,0,0,0,0,0,0,-1,1623,568,24.1916,-5.99651
406,456,24.446,4.53003,0,0,0,0,0,0,0,-1,1630,568,24.446,-4.53005
413,456,24.9418,2.90521,0,0,0,0,0,0,0,-1,1637,568,24.9418,-2.90524
420,456,25.3048,1.04712,0,0,0,0,0,0,0,-1,1644,568,25.3048,-1.04713
427,456,6.21375,2.02905,0,0,0,0,0,0,0,-1,1651,568,6.21372,-2.02904
434,456,3.0719,-4.86285,0,0,0,0,0,0,0,-1,1658,568,3.07184,4.86287
441,456,2.90344,-4.70459,0,0,0,0,0,0,0,-1,1665,568,2.90346,4.7046
448,456,3.06995,-4.93689,0,0,0,0,0,0,0,-1,1672,568,3.06991,4.93687
455,456,3.46582,-3.43701,0,0,0,0,0,0,0,-1,1679,568,3.46585,3.43698
462,456,4.68445,-4.45831,0,0,0,0,0,0,0,-1,1686,568,4.68439,4.45833
469,456,4.93201,-2.289,0,0,0,0,0,0,0,-1,1693,568,4.93197,2.28903
476,456,4.8363,-2.79364,0,0,0,0,0,0,0,-1,1700,568,4.83636,2.79363
483,456,11.5619,-12.1985,0,0,0,0,0,0,0,-1,1707,568,11.5618,12.1986
490,456,12.0825,-11.3638,0,0,0,0,0,0,0,-1,1714,568,12.0825,11.3638
497,456,12.0345,-10.749,0.00536322,0.00427622,0.00320887,0.00807429,0.00156515,0.701507,0.00494442,0.0403843,1721,568,12.0346,10.749
504,456,11.9792,-10.2423,0.0043673,0.00341059,0.00265005,0.00658182,0.00119607,0.696106,0.00404852,0.0119208,1728,568,11.9792,10.2423
511,456,11.9857,-9.82874,0.00341851,0.00259486,0.00213867,0.00518465,0.000828723,0.690282,0.00321598,0.0150253,1735,568,11.9858,9.82872
518,456,11.9902,-9.39679,0.00245633,0.00193282,0.00169651,0.00391116,0.000477995,0.708857,0.00246361,0.0178452,1742,568,11.9902,9.39678
525,456,11.9766,-8.96002,0.00153146,0.00134011,0.00130529,0.00274458,0.000126988,0.748815,0.00178889,0.0163943,1749,568,11.9766,8.95999
532,456,11.9849,-8.5105,0.000606765,0.000844493,0.000932764,0.00166594,-0.000214678,0.848773,0.00118866,0.0156091,1756,568,11.9848,8.51053
539,456,11.9681,-8.04218,-0.00027567,0.000273949,0.000535521,0.000601056,-0.000602777,1.02246,0.000695033,0.0182997,1763,568,11.9681,8.04215
546,456,11.9276,-7.61578,-0.00108159,-0.000125098,0.00021636,-7.84339e-05,-0.00112826,1.35837,0.000727438,0.0209375,1770,568,11.9276,7.61579
553,456,11.9144,-7.16168,-0.00188444,-0.00043336,-7.82202e-05,-0.000429155,-0.00188864,-1.5171,0.00114322,0.0139567,1777,568,11.9144,7.16167
560,456,11.9294,-6.73663,-0.00272074,-0.000678596,-0.00028231,-0.000640287,-0.00275905,-1.43592,0.00166743,0.0106288,1784,568,11.9294,6.73664
567,456,11.9326,-6.28088,-0.00349616,-0.000961411,-0.000485486,-0.000871607,-0.00358597,-1.38789,0.00215956,0.0157801,1791,568,11.9326,6.28086
574,456,11.8754,-5.9856,-0.00439627,-0.00124985,-0.000769006,-0.00107196,-0.00457417,-1.34347,0.00276235,0.0457788,1798,568,11.8754,5.98562
581,456,11.8887,-5.63086,0,0,0,0,0,0,0,-1,1805,568,11.8887,5.63087
588,456,5.23901,-0.0901489,0,0,0,0,0,0,0,-1,1812,568,5.23906,0.0901656
595,456,6.90063,3.14886,0,0,0,0,0,0,0,-1,1819,568,6.90066,-3.14887
602,456,16.894,4.10938,0,0,0,0,0,0,0,-1,1826,568,16.8941,-4.1094
609,456,14.9966,3.5708,0,0,0,0,0,0,0,-1,1833,568,14.9966,-3.57083
616,456,17.7407,2.6579,0,0,0,0,0,0,0,-1,1840,568,17.7408,-2.6579
623,456,20.6838,1.7121,0,0,0,0,0,0,0,-1,1847,568,20.6838,-1.71208
630,456,0,0,0,0,0,0,0,0,0,-1,1854,568,0,0
637,456,0,0,0,0,0,0,0,0,0,-1,1861,568,0,0
644,456,0,0,0,0,0,0,0,0,0,-1,1868,568,0,0
651,456,0,0,0,0,0,0,0,0,0,-1,1875,568,0,0
658,456,0,0,0,0,0,0,0,0,0,-1,1882,568,0,0
665,456,0,0,0,0,0,0,0,0,0,-1,1889,568,0,0
672,456,0,0,0,0,0,0,0,0,0,-1,1896,568,0,0
679,456,0,0,0,0,0,0,0,0,0,-1,1903,568,0,0
686,456,0,0,0,0,0,0,0,0,0,-1,1910,568,0,0
693,456,0,0,0,0,0,0,0,0,0,-1,1917,568,0,0
700,456,0,0,0,0,0,0,0,0,0,-1,1924,568,0,0
707,456,0,0,0,0,0,0,0,0,0,-1,1931,568,0,0
714,456,0,0,0,0,0,0,0,0,0,-1,1938,568,0,0
721,456,0,0,0,0,0,0,0,0,0,-1,1945,568,0,0
728,456,0,0,0,0,0,0,0,0,0,-1,1952,568,0,0
735,456,0,0,0,0,0,0,0,0,0,-1,1959,568,0,0
742,456,0,0,0,0,0,0,0,0,0,-1,1966,568,0,0
749,456,0,0,0,0,0,0,0,0,0,-1,1973,568,0,0
756,456,0,0,0,0,0,0,0,0,0,-1,1980,568,0,0
763,456,0,0,0,0,0,0,0,0,0,-1,1987,568,0,0
770,456,0,0,0,0,0,0,0,0,0,-1,1994,568,0,0
777,456,0,0,0,0,0,0,0,0,0,-1,2001,568,0,0
784,456,0,0,0,0,0,0,0,0,0,-1,2008,568,0,0
791,456,0,0,0,0,0,0,0,0,0,-1,2015,568,0,0
798,456,0,0,0,0,0,0,0,0,0,-1,2022,568,0,0
805,456,0,0,0,0,0,0,0,0,0,-1,2029,568,0,0
812,456,0,0,0,0,0,0,0,0,0,-1,2036,568,0,0
-700,449,0,0,0,0,0,0,0,0,0,-1,524,575,0,0
-693,449,0,0,0,0,0,0,0,0,0,-1,531,575,0,0
-686,449,0,0,0,0,0,0,0,0,0,-1,538,575,0,0
-679,449,0,0,0,0,0,0,0,0,0,-1,545,575,0,0
-672,449,0,0,0,0,0,0,0,0,0,-1,552,575,0,0
-665,449,0,0,0,0,0,0,0,0,0,-1,559,575,0,0
-658,449,0,0,0,0,0,0,0,0,0,-1,566,575,0,0
-651,449,0,0,0,0,0,0,0,0,0,-1,573,575,0,0
-644,449,0,0,0,0,0,0,0,0,0,-1,580,575,0,0
-637,449,0,0,0,0,0,0,0,0,0,-1,587,575,0,0
-630,449,0,0,0,0,0,0,0,0,0,-1,594,575,0,0
-623,449,0,0,0,0,0,0,0,0,0,-1,601,575,0,0
-616,449,0,0,0,0,0,0,0,0,0,-1,608,575,0,0
-609,449,0,0,0,0,0,0,0,0,0,-1,615,575,0,0
-602,449,0,0,0,0,0,0,0,0,0,-1,622,575,0,0
-595,449,0,0,0,0,0,0,0,0,0,-1,629,575,0,0
-588,449,0,0,0,0,0,0,0,0,0,-1,636,575,0,0
-581,449,0,0,0,0,0,0,0,0,0,-1,643,575,0,0
-574,449,0,0,0,0,0,0,0,0,0,-1,650,575,0,0
-567,449,0,0,0,0,0,0,0,0,0,-1,657,575,0,0
-560,449,0,0,0,0,0,0,0,0,0,-1,664,575,0,0
-553,449,0,0,0,0,0,0,0,0,0,-1,671,575,0,0
-546,449,0,0,0,0,0,0,0,0,0,-1,678,575,0,0
-539,449,0,0,0,0,0,0,0,0,0,-1,685,575,0,0
-532,449,0,0,0,0,0,0,0,0,0,-1,692,575,0,0
-525,449,0,0,0,0,0,0,0,0,0,-1,699,575,0,0
-518,449,0,0,0,0,0,0,0,0,0,-1,706,575,0,0
-511,449,-0.941345,-4.4519,0,0,0,0,0,0,0,-1,713,575,-0.941356,4.45191
-504,449,-14.1078,0.318237,0,0,0,0,0,0,0,-1,720,575,-14.1078,-0.318231
-497,449,-8.61292,-3.09009,0,0,0,0,0,0,0,-1,727,575,-8.61291,3.09011
-490,449,-7.50995,-2.96252,0,0,0,0,0,0,0,-1,734,575,-7.50995,2.96251
-483,449,-5.77789,-2.50061,0,0,0,0,0,0,0,-1,741,575,-5.77792,2.50059
-476,449,-4.1723,-2.07739,0,0,0,0,0,0,0,-1,748,575,-4.17228,2.0774
-469,449,-4.02954,-4.56329,0,0,0,0,0,0,0,-1,755,575,-4.02951,4.56329
-462,449,-4.61578,-6.76605,0,0,0,0,0,0,0,-1,762,575,-4.61577,6.76607
-455,449,-4.66101,-7.07257,0,0,0,0,0,0,0,-1,769,575,-4.66103,7.07255
-448,449,-4.45337,-7.49524,-0.00415468,0.00613067,-0.00260201,0.00675146,-0.00477547,-1.33659,0.00668759,0.0322131,776,575,-4.45334,7.49526
-441,449,-4.44519,-8.04443,-0.00313731,0.00531444,-0.00214254,0.00582655,-0.00364942,-1.33618,0.00551887,0.0167862,783,575,-4.44517,8.04445
-434,449,-4.50171,-8.43713,-0.00241362,0.0043035,-0.0015841,0.00465834,-0.00276846,-1.35044,0.00433389,0.0133618,790,575,-4.50174,8.43713
-427,449,-4.52283,-8.84619,-0.00181808,0.00327476,-0.00102352,0.00347276,-0.00201608,-1.37971,0.00320597,0.0128375,797,575,-4.52281,8.84618
-420,449,-4.51215,-9.25671,-0.00133648,0.00228137,-0.000517343,0.00235389,-0.001409,-1.43152,0.00219522,0.0123314,804,575,-4.51214,9.2567
-413,449,-4.50262,-9.65466,-0.00098329,0.00127051,1.39756e-05,0.0012706,-0.000983377,1.5646,0.00130485,0.0105247,811,575,-4.50262,9.65467
-406,449,-4.52338,-10.064,-0.000645154,0.000414252,0.000498581,0.000611989,-0.00084289,1.19323,0.000843494,0.00973697,818,575,-4.5234,10.064
-399,449,-4.55328,-10.4813,-0.000354289,-0.000359645,0.000916126,0.000559164,-0.0012731,0.783937,0.00108429,0.00914069,825,575,-4.55325,10.4813
-392,449,-4.53778,-10.884,-1.40281e-05,-0.00108501,0.00125997,0.000819523,-0.00191856,0.584462,0.00162273,0.00984387,832,575,-4.53777,10.884
-385,449,-4.53748,-11.2646,0.00038347,-0.00150991,0.00146121,0.00117786,-0.0023043,0.497955,0.00204519,0.0111566,839,575,-4.53748,11.2646
-378,449,-4.56976,-11.6647,0.000745365,-0.00184174,0.00163492,0.00153657,-0.00263295,0.450721,0.00243486,0.0101374,846,575,-4.56975,11.6646
-371,449,-4.56482,-12.0722,0.00126918,-0.00196293,0.00171764,0.00201149,-0.00270525,0.407929,0.00273301,0.0112189,853,575,-4.56481,12.0722
-364,449,-4.58167,-12.4495,0.0020461,-0.00178241,0.00160737,0.00263144,-0.00236776,0.349236,0.00288763,0.0305781,860,575,-4.58165,12.4495
-357,449,-4.21625,-13.0018,0,0,0,0,0,0,0,-1,867,575,-4.21622,13.0018
-350,449,-2.8764,-9.90204,0,0,0,0,0,0,0,-1,874,575,-2.87638,9.90203
-343,449,-2.98492,-9.2254,0,0,0,0,0,0,0,-1,881,575,-2.98491,9.22541
-336,449,-1.29523,-9.54626,0,0,0,0,0,0,0,-1,888,575,-1.29525,9.54626
-329,449,-0.733398,-7.78937,0,0,0,0,0,0,0,-1,895,575,-0.733398,7.78937
-322,449,-0.628845,-3.16669,0,0,0,0,0,0,0,-1,902,575,-0.628861,3.16667
-315,449,-0.540344,-3.21918,0,0,0,0,0,0,0,-1,909,575,-0.540336,3.21917
-308,449,-1.04413,-2.99341,0,0,0,0,0,0,0,-1,916,575,-1.04415,2.99338
-301,449,-1.58691,-2.80725,0,0,0,0,0,0,0,-1,923,575,-1.58692,2.80728
-294,449,-3.71118,-2.76086,0,0,0,0,0,0,0,-1,930,575,-3.71119,2.76087
-287,449,-4.4082,-2.69525,0,0,0,0,0,0,0,-1,937,575,-4.40822,2.69526
-280,449,-4.68903,-4.4364,0,0,0,0,0,0,0,-1,944,575,-4.68901,4.4364
-273,449,0,0,0,0,0,0,0,0,0,-1,951,575,0,0
-266,449,0,0,0,0,0,0,0,0,0,-1,958,575,0,0
-259,449,0,0,0,0,0,0,0,0,0,-1,965,575,0,0
-252,449,0,0,0,0,0,0,0,0,0,-1,972,575,0,0
-245,449,0,0,0,0,0,0,0,0,0,-1,979,575,0,0
-238,449,0,0,0,0,0,0,0,0,0,-1,986,575,0,0
-231,449,0,0,0,0,0,0,0,0,0,-1,993,575,0,0
-224,449,0,0,0,0,0,0,0,0,0,-1,1000,575,0,0
-217,449,0,0,0,0,0,0,0,0,0,-1,1007,575,0,0
-210,449,0,0,0,0,0,0,0,0,0,-1,1014,575,0,0
-203,449,0,0,0,0,0,0,0,0,0,-1,1021,575,0,0
-196,449,0,0,0,0,0,0,0,0,0,-1,1028,575,0,0
-189,449,0,0,0,0,0,0,0,0,0,-1,1035,575,0,0
-182,449,0,0,0,0,0,0,0,0,0,-1,1042,575,0,0
-175,449,0,0,0,0,0,0,0,0,0,-1,1049,575,0,0
-168,449,0,0,0,0,0,0,0,0,0,-1,1056,575,0,0
-161,449,0,0,0,0,0,0,0,0,0,-1,1063,575,0,0
-154,449,0,0,0,0,0,0,0,0,0,-1,1070,575,0,0
-147,449,0,0,0,0,0,0,0,0,0,-1,1077,575,0,0
-140,449,0,0,0,0,0,0,0,0,0,-1,1084,575,0,0
-133,449,0,0,0,0,0,0,0,0,0,-1,1091,575,0,0
-126,449,0,0,0,0,0,0,0,0,0,-1,1098,575,0,0
-119,449,0,0,0,0,0,0,0,0,0,-1,1105,575,0,0
-112,449,0,0,0,0,0,0,0,0,0,-1,1112,575,0,0
-105,449,0,0,0,0,0,0,0,0,0,-1,1119,575,0,0
-98,449,0,0,0,0,0,0,0,0,0,-1,1126,575,0,0
-91,449,0,0,0,0,0,0,0,0,0,-1,1133,575,0,0
-84,449,0,0,0,0,0,0,0,0,0,-1,1140,575,0,0
-77,449,0,0,0,0,0,0,0,0,0,-1,1147,575,0,0
-70,449,0,0,0,0,0,0,0,0,0,-1,1154,575,0,0
-63,449,0,0,0,0,0,0,0,0,0,-1,1161,575,0,0
-56,449,0,0,0,0,0,0,0,0,0,-1,1168,575,0,0
-49,449,0,0,0,0,0,0,0,0,0,-1,1175,575,0,0
-42,449,0,0,0,0,0,0,0,0,0,-1,1182,575,0,0
-35,449,0,0,0,0,0,0,0,0,0,-1,1189,575,0,0
-28,449,0,0,0,0,0,0,0,0,0,-1,1196,575,0,0
-21,449,0,0,0,0,0,0,0,0,0,-1,1203,575,0,0
-14,449,0,0,0,0,0,0,0,0,0,-1,1210,575,0,0
-7,449,0,0,0,0,0,0,0,0,0,-1,1217,575,0,0
0,449,0,0,0,0,0,0,0,0,0,-1,1224,575,0,0
7,449,0,0,0,0,0,0,0,0,0,-1,1231,575,0,0
14,449,0,0,0,0,0,0,0,0,0,-1,1238,575,0,0
21,449,0,0,0,0,0,0,0,0,0,-1,1245,575,0,0
28,449,0,0,0,0,0,0,0,0,0,-1,1252,575,0,0
35,449,0,0,0,0,0,0,0,0,0,-1,1259,575,0,0
42,449,0,0,0,0,0,0,0,0,0,-1,1266,575,0,0
49,449,0,0,0,0,0,0,0,0,0,-1,1273,575,0,0
56,449,0,0,0,0,0,0,0,0,0,-1,1280,575,0,0
63,449,0,0,0,0,0,0,0,0,0,-1,1287,575,0,0
70,449,0,0,0,0,0,0,0,0,0,-1,1294,575,0,0
77,449,0,0,0,0,0,0,0,0,0,-1,1301,575,0,0
84,449,0,0,0,0,0,0,0,0,0,-1,1308,575,0,0
91,449,0,0,0,0,0,0,0,0,0,-1,1315,575,0,0
98,449,0,0,0,0,0,0,0,0,0,-1,1322,575,0,0
105,449,0,0,0,0,0,0,0,0,0,-1,1329,575,0,0
112,449,0,0,0,0,0,0,0,0,0,-1,1336,575,0,0
119,449,0,0,0,0,0,0,0,0,0,-1,1343,575,0,0
126,449,0,0,0,0,0,0,0,0,0,-1,1350,575,0,0
133,449,0,0,0,0,0,0,0,0,0,-1,1357,575,0,0
140,449,0,0,0,0,0,0,0,0,0,-1,1364,575,0,0
147,449,0,0,0,0,0,0,0,0,0,-1,1371,575,0,0
154,449,0,0,0,0,0,0,0,0,0,-1,1378,575,0,0
161,449,0,0,0,0,0,0,0,0,0,-1,1385,575,0,0
168,449,0,0,0,0,0,0,0,0,0,-1,1392,575,0,0
175,449,0,0,0,0,0,0,0,0,0,-1,1399,575,0,0
182,449,0,0,0,0,0,0,0,0,0,-1,1406,575,0,0
189,449,0,0,0,0,0,0,0,0,0,-1,1413,575,0,0
196,449,0,0,0,0,0,0,0,0,0,-1,1420,575,0,0
203,449,0,0,0,0,0,0,0,0,0,-1,1427,575,0,0
210,449,0,0,0,0,0,0,0,0,0,-1,1434,575,0,0
217,449,0,0,0,0,0,0,0,0,0,-1,1441,575,0,0
224,449,0,0,0,0,0,0,0,0,0,-1,1448,575,0,0
231,449,0,0,0,0,0,0,0,0,0,-1,1455,575,0,0
238,449,0,0,0,0,0,0,0,0,0,-1,1462,575,0,0
245,449,0,0,0,0,0,0,0,0,0,-1,1469,575,0,0
252,449,0,0,0,0,0,0,0,0,0,-1,1476,575,0,0
259,449,0,0,0,0,0,0,0,0,0,-1,1483,575,0,0
266,449,0,0,0,0,0,0,0,0,0,-1,1490,575,0,0
273,449,0,0,0,0,0,0,0,0,0,-1,1497,575,0,0
280,449,0,0,0,0,0,0,0,0,0,-1,1504,575,0,0
287,449,0,0,0,0,0,0,0,0,0,-1,1511,575,0,0
294,449,0,0,0,0,0,0,0,0,0,-1,1518,575,0,0
301,449,0,0,0,0,0,0,0,0,0,-1,1525,575,0,0
308,449,0,0,0,0,0,0,0,0,0,-1,1532,575,0,0
315,449,0,0,0,0,0,0,0,0,0,-1,1539,575,0,0
322,449,0,0,0,0,0,0,0,0,0,-1,1546,575,0,0
329,449,0,0,0,0,0,0,0,0,0,-1,1553,575,0,0
336,449,0,0,0,0,0,0,0,0,0,-1,1560,575,0,0
343,449,0,0,0,0,0,0,0,0,0,-1,1567,575,0,0
350,449,0,0,0,0,0,0,0,0,0,-1,1574,575,0,0
357,449,0,0,0,0,0,0,0,0,0,-1,1581,575,0,0
364,449,0,0,0,0,0,0,0,0,0,-1,1588,575,0,0
371,449,0,0,0,0,0,0,0,0,0,-1,1595,575,0,0
378,449,0,0,0,0,0,0,0,0,0,-1,1602,575,0,0
385,449,0,0,0,0,0,0,0,0,0,-1,1609,575,0,0
392,449,7.95471,3.66217,0,0,0,0,0,0,0,-1,1616,575,7.95471,-3.66218
399,449,19.9791,5.565,0,0,0,0,0,0,0,-1,1623,575,19.9791,-5.56499
406,449,24.9847,4.55969,0,0,0,0,0,0,0,-1,1630,575,24.9848,-4.55968
413,449,23.5795,3.19586,0,0,0,0,0,0,0,-1,1637,575,23.5795,-3.19584
420,449,23.9675,1.29718,0,0,0,0,0,0,0,-1,1644,575,23.9675,-1.29721
427,449,24.4276,-0.596558,0,0,0,0,0,0,0,-1,1651,575,24.4277,0.596569
434,449,25.61,-2.96594,0,0,0,0,0,0,0,-1,1658,575,25.61,2.96595
441,449,3.89856,-6.06458,0,0,0,0,0,0,0,-1,1665,575,3.89855,6.06459
448,449,4.03198,-5.18207,0,0,0,0,0,0,0,-1,1672,575,4.03197,5.18207
455,449,4.21948,-4.09467,0,0,0,0,0,0,0,-1,1679,575,4.21952,4.09465
462,449,4.23181,-2.96924,0,0,0,0,0,0,0,-1,1686,575,4.23185,2.96926
469,449,4.51672,-2.95135,0,0,0,0,0,0,0,-1,1693,575,4.51672,2.95135
476,449,4.71838,-1.86688,0,0,0,0,0,0,0,-1,1700,575,4.71842,1.86689
483,449,4.87878,-1.73126,0,0,0,0,0,0,0,-1,1707,575,4.87875,1.73128
490,449,5.73279,-2.74573,0,0,0,0,0,0,0,-1,1714,575,5.73282,2.74575
497,449,12.3967,-10.9318,0,0,0,0,0,0,0,-1,1721,575,12.3967,10.9318
504,449,12.3417,-10.2538,0.00523808,0.00441431,0.00329541,0.00814725,0.00150514,0.723227,0.00500579,0.0426271,1728,575,12.3416,10.2538
511,449,12.4063,-9.79846,0.00422854,0.00335869,0.00262487,0.00645427,0.00113296,0.703297,0.00397932,0.0115491,1735,575,12.4063,9.79849
518,449,12.4254,-9.37701,0.00329203,0.00251862,0.00209645,0.00503715,0.000773513,0.694195,0.00313226,0.0130515,1742,575,12.4254,9.37701
525,449,12.4098,-8.94867,0.00239328,0.00186593,0.00165533,0.0038058,0.000453405,0.706418,0.00240038,0.0129833,1749,575,12.4098,8.94868
532,449,12.3759,-8.51636,0.00151354,0.00129666,0.00123918,0.00264902,0.000161189,0.741755,0.00171481,0.0108595,1756,575,12.3758,8.51636
539,449,12.3445,-8.06555,0.000691189,0.000662804,0.000804296,0.00148142,-0.000127425,0.776576,0.00103271,0.0125832,1763,575,12.3445,8.06554
546,449,12.3545,-7.63416,-3.22207e-05,0.000245265,0.000473616,0.000600042,-0.000386998,0.927883,0.000574276,0.0215086,1770,575,12.3545,7.63416
553,449,12.3531,-7.19714,-0.000742558,-9.48114e-05,0.000178308,-4.89719e-05,-0.000788398,1.31916,0.000510059,0.0162456,1777,575,12.3531,7.19715
560,449,12.3765,-6.7392,-0.00150017,-0.000336507,-2.45766e-05,-0.000335988,-0.00150069,-1.54969,0.000909391,0.0133468,1784,575,12.3764,6.73918
567,449,12.3505,-6.2959,-0.00219751,-0.000563131,-0.000195521,-0.000540066,-0.00222058,-1.45337,0.00133722,0.00947665,1791,575,12.3505,6.29588
574,449,12.3489,-5.81519,-0.00298747,-0.000781514,-0.000389697,-0.000714696,-0.00305429,-1.40098,0.0018447,0.0220519,1798,575,12.3489,5.81516
581,449,12.3599,-5.27606,0,0,0,0,0,0,0,-1,1805,575,12.3599,5.27605
588,449,12.3274,-4.5672,0,0,0,0,0,0,0,-1,1812,575,12.3274,4.5672
595,449,11.2511,-2.25397,0,0,0,0,0,0,0,-1,1819,575,11.2511,2.25397
602,449,9.46167,4.17444,0,0,0,0,0,0,0,-1,1826,575,9.46164,-4.17442
609,449,12.2028,3.18652,0,0,0,0,0,0,0,-1,1833,575,12.2027,-3.18655
616,449,14.9438,2.19867,0,0,0,0,0,0,0,-1,1840,575,14.9438,-2.19867
623,449,9.83789,-0.0820313,0,0,0,0,0,0,0,-1,1847,575,9.83794,0.0820443
630,449,8.90686,4.99329,0,0,0,0,0,0,0,-1,1854,575,8.90685,-4.99327
637,449,0,0,0,0,0,0,0,0,0,-1,1861,575,0,0
644,449,0,0,0,0,0,0,0,0,0,-1,1868,575,0,0
651,449,0,0,0,0,0,0,0,0,0,-1,1875,575,0,0
658,449,0,0,0,0,0,0,0,0,0,-1,1882,575,0,0
665,449,0,0,0,0,0,0,0,0,0,-1,1889,575,0,0
672,449,0,0,0,0,0,0,0,0,0,-1,1896,575,0,0
679,449,0,0,0,0,0,0,0,0,0,-1,1903,575,0,0
686,449,0,0,0,0,0,0,0,0,0,-1,1910,575,0,0
693,449,0,0,0,0,0,0,0,0,0,-1,1917,575,0,0
700,449,0,0,0,0,0,0,0,0,0,-1,1924,575,0,0
707,449,0,0,0,0,0,0,0,0,0,-1,1931,575,0,0
714,449,0,0,0,0,0,0,0,0,0,-1,1938,575,0,0
721,449,0,0,0,0,0,0,0,0,0,-1,1945,575,0,0
728,449,0,0,0,0,0,0,0,0,0,-1,1952,575,0,0
735,449,0,0,0,0,0,0,0,0,0,-1,1959,575,0,0
742,449,0,0,0,0,0,0,0,0,0,-1,1966,575,0,0
749,449,0,0,0,0,0,0,0,0,0,-1,1973,575,0,0
756,449,0,0,0,0,0,0,0,0,0,-1,1980,575,0,0
763,449,0,0,0,0,0,0,0,0,0,-1,1987,575,0,0
770,449,0,0,0,0,0,0,0,0,0,-1,1994,575,0,0
777,449,0,0,0,0,0,0,0,0,0,-1,2001,575,0,0
784,449,0,0,0,0,0,0,0,0,0,-1,2008,575,0,0
791,449,0,0,0,0,0,0,0,0,0,-1,2015,575,0,0
798,449,0,0,0,0,0,0,0,0,0,-1,2022,575,0,0
805,449,0,0,0,0,0,0,0,0,0,-1,2029,575,0,0
812,449,0,0,0,0,0,0,0,0,0,-1,2036,575,0,0
-700,442,0,0,0,0,0,0,0,0,0,-1,524,582,0,0
-693,442,0,0,0,0,0,0,0,0,0,-1,531,582,0,0
-686,442,0,0,0,0,0,0,0,0,0,-1,538,582,0,0
-679,442,0,0,0,0,0,0,0,0,0,-1,545,582,0,0
-672,442,0,0,0,0,0,0,0,0,0,-1,552,582,0,0
-665,442,0,0,0,0,0,0,0,0,0,-1,559,582,0,0
-658,442,0,0,0,0,0,0,0,0,0,-1,566,582,0,0
-651,442,0,0,0,0,0,0,0,0,0,-1,573,582,0,0
-644,442,0,0,0,0,0,0,0,0,0,-1,580,582,0,0
-637,442,0,0,0,0,0,0,0,0,0,-1,587,582,0,0
-630,442,0,0,0,0,0,0,0,0,0,-1,594,582,0,0
-623,442,0,0,0,0,0,0,0,0,0,-1,601,582,0,0
-616,442,0,0,0,0,0,0,0,0,0,-1,608,582,0,0
-609,442,0,0,0,0,0,0,0,0,0,-1,615,582,0,0
-602,442,0,0,0,0,0,0,0,0,0,-1,622,582,0,0
-595,442,0,0,0,0,0,0,0,0,0,-1,629,582,0,0
-588,442,0,0,0,0,0,0,0,0,0,-1,636,582,0,0
-581,442,0,0,0,0,0,0,0,0,0,-1,643,582,0,0
-574,442,0,0,0,0,0,0,0,0,0,-1,650,582,0,0
-567,442,0,0,0,0,0,0,0,0,0,-1,657,582,0,0
-560,442,0,0,0,0,0,0,0,0,0,-1,664,582,0,0
-553,442,0,0,0,0,0,0,0,0,0,-1,671,582,0,0
-546,442,0,0,0,0,0,0,0,0,0,-1,678,582,0,0
-539,442,0,0,0,0,0,0,0,0,0,-1,685,582,0,0
-532,442,0,0,0,0,0,0,0,0,0,-1,692,582,0,0
-525,442,0,0,0,0,0,0,0,0,0,-1,699,582,0,0
-518,442,-0.493774,-5.72943,0,0,0,0,0,0,0,-1,706,582,-0.493791,5.72946
-511,442,-1.33008,-6.18512,0,0,0,0,0,0,0,-1,713,582,-1.33006,6.18511
-504,442,-3.20807,-6.34082,0,0,0,0,0,0,0,-1,720,582,-3.2081,6.34083
-497,442,-13.6886,-0.250122,0,0,0,0,0,0,0,-1,727,582,-13.6886,0.250143
-490,442,-9.09039,-3.64862,0,0,0,0,0,0,0,-1,734,582,-9.09037,3.64861
-483,442,-7.36499,-1.01892,0,0,0,0,0,0,0,-1,741,582,-7.365,1.01895
-476,442,-4.62225,-3.47467,0,0,0,0,0,0,0,-1,748,582,-4.62225,3.47465
-469,442,-4.74445,-6.05402,0,0,0,0,0,0,0,-1,755,582,-4.74443,6.05402
-462,442,-4.8855,-6.74158,-0.00521391,0.00521405,-0.00274373,0.0058919,-0.00589176,-1.32859,0.0068033,0.0403916,762,582,-4.88547,6.7416
-455,442,-4.96912,-7.14569,-0.00392618,0.00512057,-0.00259111,0.00581013,-0.00461574,-1.3107,0.00603254,0.0345978,769,582,-4.96909,7.14567
-448,442,-4.85938,-7.57678,-0.00303321,0.0045412,-0.002162,0.00511487,-0.00360687,-1.31143,0.00506052,0.0163122,776,582,-4.8594,7.57678
-441,442,-4.89966,-7.98425,-0.00227897,0.0038189,-0.00167771,0.00425,-0.00271008,-1.31927,0.00405106,0.0140803,783,582,-4.89965,7.98427
-434,442,-4.91565,-8.40649,-0.00176234,0.00296767,-0.00110844,0.00321454,-0.00200921,-1.35165,0.00304258,0.0134941,790,582,-4.91562,8.40647
-427,442,-4.94482,-8.83368,-0.00134152,0.00204569,-0.000516954,0.00212283,-0.00141866,-1.42267,0.00205811,0.0129065,797,582,-4.94484,8.83371
-420,442,-4.93365,-9.25519,-0.0010257,0.00114995,3.76079e-05,0.00115061,-0.00102635,1.55352,0.00125755,0.01293,804,582,-4.93368,9.25517
-413,442,-4.92188,-9.6521,-0.000835036,0.000206103,0.000639858,0.000510404,-0.00113934,1.12688,0.000975277,0.0108518,811,582,-4.92186,9.65208
-406,442,-4.93549,-10.0574,-0.000651759,-0.000620407,0.00119104,0.000555061,-0.00182723,0.791979,0.0014393,0.00896593,818,582,-4.9355,10.0574
-399,442,-4.95178,-10.4788,-0.000501581,-0.00137109,0.00167335,0.000792567,-0.00266524,0.658302,0.00209168,0.00774078,825,582,-4.9518,10.4788
-392,442,-4.94183,-10.8727,-0.000287357,-0.00200336,0.00206146,0.00108753,-0.00337824,0.588197,0.002689,0.00971892,832,582,-4.94184,10.8727
-385,442,-4.94824,-11.2489,-3.485e-05,-0.00238256,0.00230763,0.00138033,-0.00379774,0.550113,0.00309625,0.0126848,839,582,-4.94825,11.2489
-378,442,-4.95239,-11.6596,0.000171381,-0.00268998,0.00255437,0.00166844,-0.00418704,0.530119,0.00348335,0.0140056,846,582,-4.95238,11.6596
-371,442,-4.93408,-12.0909,0.000617253,-0.00272357,0.00268223,0.00210669,-0.00421301,0.506901,0.00371562,0.030569,853,582,-4.93408,12.0909
-364,442,-4.84076,-12.4901,0,0,0,0,0,0,0,-1,860,582,-4.84073,12.49
-357,442,-4.9115,-11.2649,0,0,0,0,0,0,0,-1,867,582,-4.91147,11.2649
-350,442,-1.75372,-6.27618,0,0,0,0,0,0,0,-1,874,582,-1.75371,6.27618
-343,442,-1.4599,-4.63605,0,0,0,0,0,0,0,-1,881,582,-1.4599,4.63607
-336,442,-1.4054,-2.64313,0,0,0,0,0,0,0,-1,888,582,-1.40539,2.64315
-329,442,-0.952576,-2.76923,0,0,0,0,0,0,0,-1,895,582,-0.952571,2.7692
-322,442,-0.972534,-2.63208,0,0,0,0,0,0,0,-1,902,582,-0.972512,2.6321
-315,442,-0.445557,-2.89764,0,0,0,0,0,0,0,-1,909,582,-0.445582,2.89765
-308,442,-0.654175,-3.07831,0,0,0,0,0,0,0,-1,916,582,-0.654145,3.07832
-301,442,-1.37427,-2.41455,0,0,0,0,0,0,0,-1,923,582,-1.37425,2.41453
-294,442,-2.99963,-2.07855,0,0,0,0,0,0,0,-1,930,582,-2.99964,2.07857
-287,442,-5.62799,-2.76422,0,0,0,0,0,0,0,-1,937,582,-5.628,2.76424
-280,442,0,0,0,0,0,0,0,0,0,-1,944,582,0,0
-273,442,0,0,0,0,0,0,0,0,0,-1,951,582,0,0
-266,442,0,0,0,0,0,0,0,0,0,-1,958,582,0,0
-259,442,0,0,0,0,0,0,0,0,0,-1,965,582,0,0
-252,442,0,0,0,0,0,0,0,0,0,-1,972,582,0,0
-245,442,0,0,0,0,0,0,0,0,0,-1,979,582,0,0
-238,442,0,0,0,0,0,0,0,0,0,-1,986,582,0,0
-231,442,0,0,0,0,0,0,0,0,0,-1,993,582,0,0
-224,442,0,0,0,0,0,0,0,0,0,-1,1000,582,0,0
-217,442,0,0,0,0,0,0,0,0,0,-1,1007,582,0,0
-210,442,0,0,0,0,0,0,0,0,0,-1,1014,582,0,0
-203,442,0,0,0,0,0,0,0,0,0,-1,1021,582,0,0
-196,442,0,0,0,0,0,0,0,0,0,-1,1028,582,0,0
-189,442,0,0,0,0,0,0,0,0,0,-1,1035,582,0,0
-182,442,0,0,0,0,0,0,0,0,0,-1,1042,582,0,0
-175,442,0,0,0,0,0,0,0,0,0,-1,1049,582,0,0
-168,442,0,0,0,0,0,0,0,0,0,-1,1056,582,0,0
-161,442,0,0,0,0,0,0,0,0,0,-1,1063,582,0,0
-154,442,0,0,0,0,0,0,0,0,0,-1,1070,582,0,0
-147,442,0,0,0,0,0,0,0,0,0,-1,1077,582,0,0
-140,442,0,0,0,0,0,0,0,0,0,-1,1084,582,0,0
-133,442,0,0,0,0,0,0,0,0,0,-1,1091,582,0,0
-126,442,0,0,0,0,0,0,0,0,0,-1,1098,582,0,0
-119,442,0,0,0,0,0,0,0,0,0,-1,1105,582,0,0
-112,442,0,0,0,0,0,0,0,0,0,-1,1112,582,0,0
-105,442,0,0,0,0,0,0,0,0,0,-1,1119,582,0,0
-98,442,0,0,0,0,0,0,0,0,0,-1,1126,582,0,0
-91,442,0,0,0,0,0,0,0,0,0,-1,1133,582,0,0
-84,442,0,0,0,0,0,0,0,0,0,-1,1140,582,0,0
-77,442,0,0,0,0,0,0,0,0,0,-1,1147,582,0,0
-70,442,0,0,0,0,0,0,0,0,0,-1,1154,582,0,0
-63,442,0,0,0,0,0,0,0,0,0,-1,1161,582,0,0
-56,442,0,0,0,0,0,0,0,0,0,-1,1168,582,0,0
-49,442,0,0,0,0,0,0,0,0,0,-1,1175,582,0,0
-42,442,0,0,0,0,0,0,0,0,0,-1,1182,582,0,0
-35,442,0,0,0,0,0,0,0,0,0,-1,1189,582,0,0
-28,442,0,0,0,0,0,0,0,0,0,-1,1196,582,0,0
-21,442,0,0,0,0,0,0,0,0,0,-1,1203,582,0,0
-14,442,0,0,0,0,0,0,0,0,0,-1,1210,582,0,0
-7,442,0,0,0,0,0,0,0,0,0,-1,1217,582,0,0
0,442,0,0,0,0,0,0,0,0,0,-1,1224,582,0,0
7,442,0,0,0,0,0,0,0,0,0,-1,1231,582,0,0
14,442,0,0,0,0,0,0,0,0,0,-1,1238,582,0,0
21,442,0,0,0,0,0,0,0,0,0,-1,1245,582,0,0
28,442,0,0,0,0,0,0,0,0,0,-1,1252,582,0,0
35,442,0,0,0,0,0,0,0,0,0,-1,1259,582,0,0
42,442,0,0,0,0,0,0,0,0,0,-1,1266,582,0,0
49,442,0,0,0,0,0,0,0,0,0,-1,1273,582,0,0
56,442,0,0,0,0,0,0,0,0,0,-1,1280,582,0,0
63,442,0,0,0,0,0,0,0,0,0,-1,1287,582,0,0
70,442,0,0,0,0,0,0,0,0,0,-1,1294,582,0,0
77,442,0,0,0,0,0,0,0,0,0,-1,1301,582,0,0
84,442,0,0,0,0,0,0,0,0,0,-1,1308,582,0,0
91,442,0,0,0,0,0,0,0,0,0,-1,1315,582,0,0
98,442,0,0,0,0,0,0,0,0,0,-1,1322,582,0,0
105,442,0,0,0,0,0,0,0,0,0,-1,1329,582,0,0
112,442,0,0,0,0,0,0,0,0,0,-1,1336,582,0,0
119,442,0,0,0,0,0,0,0,0,0,-1,1343,582,0,0
126,442,0,0,0,0,0,0,0,0,0,-1,1350,582,0,0
133,442,0,0,0,0,0,0,0,0,0,-1,1357,582,0,0
140,442,0,0,0,0,0,0,0,0,0,-1,1364,582,0,0
147,442,0,0,0,0,0,0,0,0,0,-1,1371,582,0,0
154,442,0,0,0,0,0,0,0,0,0,-1,1378,582,0,0
161,442,0,0,0,0,0,0,0,0,0,-1,1385,582,0,0
168,442,0,0,0,0,0,0,0,0,0,-1,1392,582,0,0
175,442,0,0,0,0,0,0,0,0,0,-1,1399,582,0,0
182,442,0,0,0,0,0,0,0,0,0,-1,1406,582,0,0
189,442,0,0,0,0,0,0,0,0,0,-1,1413,582,0,0
196,442,0,0,0,0,0,0,0,0,0,-1,1420,582,0,0
203,442,0,0,0,0,0,0,0,0,0,-1,1427,582,0,0
210,442,0,0,0,0,0,0,0,0,0,-1,1434,582,0,0
217,442,0,0,0,0,0,0,0,0,0,-1,1441,582,0,0
224,442,0,0,0,0,0,0,0,0,0,-1,1448,582,0,0
231,442,0,0,0,0,0,0,0,0,0,-1,1455,582,0,0
238,442,0,0,0,0,0,0,0,0,0,-1,1462,582,0,0
245,442,0,0,0,0,0,0,0,0,0,-1,1469,582,0,0
252,442,0,0,0,0,0,0,0,0,0,-1,1476,582,0,0
259,442,0,0,0,0,0,0,0,0,0,-1,1483,582,0,0
266,442,0,0,0,0,0,0,0,0,0,-1,1490,582,0,0
273,442,0,0,0,0,0,0,0,0,0,-1,1497,582,0,0
280,442,0,0,0,0,0,0,0,0,0,-1,1504,582,0,0
287,442,0,0,0,0,0,0,0,0,0,-1,1511,582,0,0
294,442,0,0,0,0,0,0,0,0,0,-1,1518,582,0,0
301,442,0,0,0,0,0,0,0,0,0,-1,1525,582,0,0
308,442,0,0,0,0,0,0,0,0,0,-1,1532,582,0,0
315,442,0,0,0,0,0,0,0,0,0,-1,1539,582,0,0
322,442,0,0,0,0,0,0,0,0,0,-1,1546,582,0,0
329,442,0,0,0,0,0,0,0,0,0,-1,1553,582,0,0
336,442,0,0,0,0,0,0,0,0,0,-1,1560,582,0,0
343,442,0,0,0,0,0,0,0,0,0,-1,1567,582,0,0
350,442,0,0,0,0,0,0,0,0,0,-1,1574,582,0,0
357,442,0,0,0,0,0,0,0,0,0,-1,1581,582,0,0
364,442,0,0,0,0,0,0,0,0,0,-1,1588,582,0,0
371,442,0,0,0,0,0,0,0,0,0,-1,1595,582,0,0
378,442,0,0,0,0,0,0,0,0,0,-1,1602,582,0,0
385,442,0,0,0,0,0,0,0,0,0,-1,1609,582,0,0
392,442,0,0,0,0,0,0,0,0,0,-1,1616,582,0,0
399,442,0,0,0,0,0,0,0,0,0,-1,1623,582,0,0
406,442,17.6321,4.08295,0,0,0,0,0,0,0,-1,1630,582,17.6321,-4.08293
413,442,22.1273,3.56525,0,0,0,0,0,0,0,-1,1637,582,22.1273,-3.56525
420,442,22.7478,1.55011,0,0,0,0,0,0,0,-1,1644,582,22.7478,-1.55009
427,442,23.2969,-0.456787,0,0,0,0,0,0,0,-1,1651,582,23.2968,0.456769
434,442,23.9512,-2.49365,0,0,0,0,0,0,0,-1,1658,582,23.9512,2.49366
441,442,24.8251,-4.43958,0,0,0,0,0,0,0,-1,1665,582,24.8251,4.43956
448,442,4.7749,-5.88562,0,0,0,0,0,0,0,-1,1672,582,4.7749,5.8856
455,442,4.87024,-4.60687,0,0,0,0,0,0,0,-1,1679,582,4.87019,4.60686
462,442,5.02307,-3.72821,0,0,0,0,0,0,0,-1,1686,582,5.02311,3.7282
469,442,5.12976,-2.98834,0,0,0,0,0,0,0,-1,1693,582,5.12971,2.98834
476,442,5.4624,1.76947,0,0,0,0,0,0,0,-1,1700,582,5.46234,-1.76944
483,442,5.98486,1.87042,0,0,0,0,0,0,0,-1,1707,582,5.98492,-1.87045
490,442,5.04407,-2.35834,0,0,0,0,0,0,0,-1,1714,582,5.04411,2.35837
497,442,6.20984,-3.07831,0,0,0,0,0,0,0,-1,1721,582,6.2098,3.07833
504,442,12.6266,-10.3475,0,0,0,0,0,0,0,-1,1728,582,12.6266,10.3475
511,442,12.7582,-9.79712,0.00495709,0.00418766,0.00303305,0.00762973,0.00151503,0.722315,0.00466423,0.0297428,1735,582,12.7581,9.79709
518,442,12.8579,-9.32629,0.00403485,0.00312285,0.00243673,0.00605789,0.00109982,0.6929,0.00372648,0.0116226,1742,582,12.8579,9.32627
525,442,12.8315,-8.92712,0.00313604,0.00239563,0.00196238,0.00476283,0.000768836,0.692169,0.0029525,0.0109567,1749,582,12.8316,8.92711
532,442,12.8134,-8.4928,0.00227276,0.00173663,0.00151886,0.00354703,0.000462358,0.698053,0.00222663,0.0110185,1756,582,12.8134,8.49277
539,442,12.7953,-8.03162,0.00148491,0.00105454,0.00106908,0.00236024,0.000179206,0.686086,0.00151729,0.01073,1763,582,12.7953,8.03159
546,442,12.7969,-7.61145,0.000807255,0.000620994,0.000740024,0.00145999,-3.1736e-05,0.722803,0.000984073,0.0137649,1770,582,12.7969,7.61142
553,442,12.7804,-7.19354,0.000140771,0.000253889,0.000448324,0.000649207,-0.000254547,0.848145,0.000538111,0.0156218,1777,582,12.7803,7.19351
560,442,12.7832,-6.7287,-0.000589651,2.08927e-05,0.000240734,0.000104393,-0.000673151,1.23692,0.000487307,0.014555,1784,582,12.7833,6.72869
567,442,12.777,-6.28302,-0.00126643,-0.000151953,9.00667e-05,-0.000144722,-0.00127366,1.49067,0.000805212,0.0102758,1791,582,12.777,6.28301
574,442,12.771,-5.84607,-0.00198476,-0.000275728,-3.06808e-05,-0.000275177,-0.00198531,-1.55285,0.00124202,0.0129009,1798,582,12.771,5.84607
581,442,12.8186,-5.3407,-0.00278332,-0.000329177,-9.10919e-05,-0.000325801,-0.00278669,-1.53375,0.00175928,0.023922,1805,582,12.8186,5.34068
588,442,12.7676,-5.05859,-0.00348537,-0.000229593,6.03017e-05,-0.000228477,-0.00348649,1.55228,0.00225203,0.0435205,1812,582,12.7675,5.05857
595,442,12.7618,-4.59619,0,0,0,0,0,0,0,-1,1819,582,12.7619,4.59618
602,442,11.4385,-1.74512,0,0,0,0,0,0,0,-1,1826,582,11.4385,1.74509
609,442,12.761,2.97223,0,0,0,0,0,0,0,-1,1833,582,12.761,-2.97221
616,442,9.78345,-0.103394,0,0,0,0,0,0,0,-1,1840,582,9.78341,0.103424
623,442,9.23828,0.326721,0,0,0,0,0,0,0,-1,1847,582,9.23829,-0.326727
630,442,7.74304,2.3924,0,0,0,0,0,0,0,-1,1854,582,7.7431,-2.39238
637,442,5.87805,1.84027,0,0,0,0,0,0,0,-1,1861,582,5.87807,-1.84025
644,442,0,0,0,0,0,0,0,0,0,-1,1868,582,0,0
651,442,0,0,0,0,0,0,0,0,0,-1,1875,582,0,0
658,442,0,0,0,0,0,0,0,0,0,-1,1882,582,0,0
665,442,0,0,0,0,0,0,0,0,0,-1,1889,582,0,0
672,442,0,0,0,0,0,0,0,0,0,-1,1896,582,0,0
679,442,0,0,0,0,0,0,0,0,0,-1,1903,582,0,0
686,442,0,0,0,0,0,0,0,0,0,-1,1910,582,0,0
693,442,0,0,0,0,0,0,0,0,0,-1,1917,582,0,0
700,442,0,0,0,0,0,0,0,0,0,-1,1924,582,0,0
707,442,0,0,0,0,0,0,0,0,0,-1,1931,582,0,0
714,442,0,0,0,0,0,0,0,0,0,-1,1938,582,0,0
721,442,0,0,0,0,0,0,0,0,0,-1,1945,582,0,0
728,442,0,0,0,0,0,0,0,0,0,-1,1952,582,0,0
735,442,0,0,0,0,0,0,0,0,0,-1,1959,582,0,0
742,442,0,0,0,0,0,0,0,0,0,-1,1966,582,0,0
749,442,0,0,0,0,0,0,0,0,0,-1,1973,582,0,0
756,442,0,0,0,0,0,0,0,0,0,-1,1980,582,0,0
763,442,0,0,0,0,0,0,0,0,0,-1,1987,582,0,0
770,442,0,0,0,0,0,0,0,0,0,-1,1994,582,0,0
777,442,0,0,0,0,0,0,0,0,0,-1,2001,582,0,0
784,442,0,0,0,0,0,0,0,0,0,-1,2008,582,0,0
791,442,0,0,0,0,0,0,0,0,0,-1,2015,582,0,0
798,442,0,0,0,0,0,0,0,0,0,-1,2022,582,0,0
805,442,0,0,0,0,0,0,0,0,0,-1,2029,582,0,0
812,442,0,0,0,0,0,0,0,0,0,-1,2036,582,0,0
-700,435,0,0,0,0,0,0,0,0,0,-1,524,589,0,0
-693,435,0,0,0,0,0,0,0,0,0,-1,531,589,0,0
-686,435,0,0,0,0,0,0,0,0,0,-1,538,589,0,0
-679,435,0,0,0,0,0,0,0,0,0,-1,545,589,0,0
-672,435,0,0,0,0,0,0,0,0,0,-1,552,589,0,0
-665,435,0,0,0,0,0,0,0,0,0,-1,559,589,0,0
-658,435,0,0,0,0,0,0,0,0,0,-1,566,589,0,0
-651,435,0,0,0,0,0,0,0,0,0,-1,573,589,0,0
-644,435,0,0,0,0,0,0,0,0,0,-1,580,589,0,0
-637,435,0,0,0,0,0,0,0,0,0,-1,587,589,0,0
-630,435,0,0,0,0,0,0,0,0,0,-1,594,589,0,0
-623,435,0,0,0,0,0,0,0,0,0,-1,601,589,0,0
-616,435,0,0,0,0,0,0,0,0,0,-1,608,589,0,0
-609,435,0,0,0,0,0,0,0,0,0,-1,615,589,0,0
-602,435,0,0,0,0,0,0,0,0,0,-1,622,589,0,0
-595,435,0,0,0,0,0,0,0,0,0,-1,629,589,0,0
-588,435,0,0,0,0,0,0,0,0,0,-1,636,589,0,0
-581,435,0,0,0,0,0,0,0,0,0,-1,643,589,0,0
-574,435,0,0,0,0,0,0,0,0,0,-1,650,589,0,0
-567,435,0,0,0,0,0,0,0,0,0,-1,657,589,0,0
-560,435,0,0,0,0,0,0,0,0,0,-1,664,589,0,0
-553,435,0,0,0,0,0,0,0,0,0,-1,671,589,0,0
-546,435,0,0,0,0,0,0,0,0,0,-1,678,589,0,0
-539,435,0,0,0,0,0,0,0,0,0,-1,685,589,0,0
-532,435,0,0,0,0,0,0,0,0,0,-1,692,589,0,0
-525,435,-10.0776,10.0547,0,0,0,0,0,0,0,-1,699,589,-10.0776,-10.0547
-518,435,-1.83093,-5.82367,0,0,0,0,0,0,0,-1,706,589,-1.83093,5.8237
-511,435,-2.45154,-5.33118,0,0,0,0,0,0,0,-1,713,589,-2.45151,5.33115
-504,435,-3.07208,-4.83862,0,0,0,0,0,0,0,-1,720,589,-3.0721,4.8386
-497,435,-6.31012,-5.84698,0,0,0,0,0,0,0,-1,727,589,-6.31012,5.84697
-490,435,-5.81903,-0.458679,0,0,0,0,0,0,0,-1,734,589,-5.81902,0.458684
-483,435,-6.96503,-3.01624,0,0,0,0,0,0,0,-1,741,589,-6.96505,3.01623
-476,435,-6.44989,-5.58978,0,0,0,0,0,0,0,-1,748,589,-6.44986,5.58978
-469,435,-5.33618,-6.00494,0,0,0,0,0,0,0,-1,755,589,-5.33617,6.00496
-462,435,-5.20294,-6.68396,-0.00394031,0.0039955,-0.00228155,0.00460469,-0.00454949,-1.30988,0.0052852,0.0178537,762,589,-5.20295,6.68396
-455,435,-5.30334,-7.09906,-0.00290502,0.00384765,-0.0021203,0.0044582,-0.00351557,-1.29042,0.00461437,0.0174104,769,589,-5.30334,7.09907
-448,435,-5.29419,-7.57336,-0.00217708,0.00325748,-0.00169502,0.00374281,-0.00266241,-1.29193,0.00371555,0.013713,776,589,-5.29419,7.57339
-441,435,-5.3045,-7.98749,-0.00162705,0.00257006,-0.00119072,0.00288433,-0.00194132,-1.31274,0.00280377,0.0109894,783,589,-5.30448,7.98747
-434,435,-5.3269,-8.37085,-0.00128952,0.00180958,-0.000611167,0.00192575,-0.0014057,-1.38295,0.00193121,0.0119271,790,589,-5.32693,8.37085
-427,435,-5.34937,-8.81763,-0.00103084,0.000936683,1.5794e-05,0.00093681,-0.00103097,1.56277,0.00113653,0.0098769,797,589,-5.34934,8.8176
-420,435,-5.33929,-9.23755,-0.000879677,7.57537e-05,0.000631534,0.000389901,-0.00119382,1.1092,0.000952823,0.0100062,804,589,-5.33931,9.23757
-413,435,-5.33514,-9.64807,-0.000860326,-0.000857555,0.00132333,0.000464388,-0.00218227,0.785922,0.00163182,0.0106611,811,589,-5.33515,9.64805
-406,435,-5.3396,-10.0516,-0.000861245,-0.0017199,0.00197594,0.000731469,-0.00331261,0.678422,0.00248833,0.0107078,818,589,-5.3396,10.0516
-399,435,-5.35498,-10.4614,-0.000883959,-0.00251751,0.00256927,0.000995237,-0.00439671,0.631499,0.00331309,0.00889285,825,589,-5.35497,10.4614
-392,435,-5.35248,-10.8585,-0.000833258,-0.00311901,0.00306234,0.00129252,-0.00524478,0.606801,0.00399763,0.00964654,832,589,-5.3525,10.8585
-385,435,-5.34436,-11.2665,-0.000776657,-0.00353807,0.00343828,0.00154779,-0.00586252,0.594469,0.00451362,0.0155856,839,589,-5.34439,11.2665
-378,435,-5.3501,-11.5967,-0.000784035,-0.00392086,0.00387005,0.00182334,-0.00652824,0.592878,0.00507042,0.0323759,846,589,-5.35007,11.5967
-371,435,-5.31439,-12.0912,0,0,0,0,0,0,0,-1,853,589,-5.31442,12.0912
-364,435,-5.62848,-11.5937,0,0,0,0,0,0,0,-1,860,589,-5.62847,11.5937
-357,435,-5.57343,-10.9666,0,0,0,0,0,0,0,-1,867,589,-5.57342,10.9666
-350,435,-0.86676,-3.69836,0,0,0,0,0,0,0,-1,874,589,-0.866784,3.69834
-343,435,-1.60706,-2.36835,0,0,0,0,0,0,0,-1,881,589,-1.60706,2.36838
-336,435,-2.07263,-1.94012,0,0,0,0,0,0,0,-1,888,589,-2.07265,1.94014
-329,435,-2.55963,-1.5517,0,0,0,0,0,0,0,-1,895,589,-2.5596,1.55168
-322,435,-3.08545,-1.55255,0,0,0,0,0,0,0,-1,902,589,-3.08544,1.55254
-315,435,-0.404297,-2.63763,0,0,0,0,0,0,0,-1,909,589,-0.404276,2.63761
-308,435,-1.70056,-1.90369,0,0,0,0,0,0,0,-1,916,589,-1.70056,1.90367
-301,435,-1.25232,-2.05511,0,0,0,0,0,0,0,-1,923,589,-1.25234,2.05514
-294,435,-1.79974,-1.97321,0,0,0,0,0,0,0,-1,930,589,-1.79973,1.97322
-287,435,0,0,0,0,0,0,0,0,0,-1,937,589,0,0
-280,435,0,0,0,0,0,0,0,0,0,-1,944,589,0,0
-273,435,0,0,0,0,0,0,0,0,0,-1,951,589,0,0
-266,435,0,0,0,0,0,0,0,0,0,-1,958,589,0,0
-259,435,0,0,0,0,0,0,0,0,0,-1,965,589,0,0
-252,435,0,0,0,0,0,0,0,0,0,-1,972,589,0,0
-245,435,0,0,0,0,0,0,0,0,0,-1,979,589,0,0
-238,435,0,0,0,0,0,0,0,0,0,-1,986,589,0,0
-231,435,0,0,0,0,0,0,0,0,0,-1,993,589,0,0
-224,435,0,0,0,0,0,0,0,0,0,-1,1000,589,0,0
-217,435,0,0,0,0,0,0,0,0,0,-1,1007,589,0,0
-210,435,0,0,0,0,0,0,0,0,0,-1,1014,589,0,0
-203,435,0,0,0,0,0,0,0,0,0,-1,1021,589,0,0
-196,435,0,0,0,0,0,0,0,0,0,-1,1028,589,0,0
-189,435,0,0,0,0,0,0,0,0,0,-1,1035,589,0,0
-182,435,0,0,0,0,0,0,0,0,0,-1,1042,589,0,0
-175,435,0,0,0,0,0,0,0,0,0,-1,1049,589,0,0
-168,435,0,0,0,0,0,0,0,0,0,-1,1056,589,0,0
-161,435,0,0,0,0,0,0,0,0,0,-1,1063,589,0,0
-154,435,0,0,0,0,0,0,0,0,0,-1,1070,589,0,0
-147,435,0,0,0,0,0,0,0,0,0,-1,1077,589,0,0
-140,435,0,0,0,0,0,0,0,0,0,-1,1084,589,0,0
-133,435,0,0,0,0,0,0,0,0,0,-1,1091,589,0,0
-126,435,0,0,0,0,0,0,0,0,0,-1,1098,589,0,0
-119,435,0,0,0,0,0,0,0,0,0,-1,1105,589,0,0
-112,435,0,0,0,0,0,0,0,0,0,-1,1112,589,0,0
-105,435,0,0,0,0,0,0,0,0,0,-1,1119,589,0,0
-98,435,0,0,0,0,0,0,0,0,0,-1,1126,589,0,0
-91,435,0,0,0,0,0,0,0,0,0,-1,1133,589,0,0
-84,435,0,0,0,0,0,0,0,0,0,-1,1140,589,0,0
-77,435,0,0,0,0,0,0,0,0,0,-1,1147,589,0,0
-70,435,0,0,0,0,0,0,0,0,0,-1,1154,589,0,0
-63,435,0,0,0,0,0,0,0,0,0,-1,1161,589,0,0
-56,435,0,0,0,0,0,0,0,0,0,-1,1168,589,0,0
-49,435,0,0,0,0,0,0,0,0,0,-1,1175,589,0,0
-42,435,0,0,0,0,0,0,0,0,0,-1,1182,589,0,0
-35,435,0,0,0,0,0,0,0,0,0,-1,1189,589,0,0
-28,435,0,0,0,0,0,0,0,0,0,-1,1196,589,0,0
-21,435,0,0,0,0,0,0,0,0,0,-1,1203,589,0,0
-14,435,0,0,0,0,0,0,0,0,0,-1,1210,589,0,0
-7,435,0,0,0,0,0,0,0,0,0,-1,1217,589,0,0
0,435,0,0,0,0,0,0,0,0,0,-1,1224,589,0,0
7,435,0,0,0,0,0,0,0,0,0,-1,1231,589,0,0
14,435,0,0,0,0,0,0,0,0,0,-1,1238,589,0,0
21,435,0,0,0,0,0,0,0,0,0,-1,1245,589,0,0
28,435,0,0,0,0,0,0,0,0,0,-1,1252,589,0,0
35,435,0,0,0,0,0,0,0,0,0,-1,1259,589,0,0
42,435,0,0,0,0,0,0,0,0,0,-1,1266,589,0,0
49,435,0,0,0,0,0,0,0,0,0,-1,1273,589,0,0
56,435,0,0,0,0,0,0,0,0,0,-1,1280,589,0,0
63,435,0,0,0,0,0,0,0,0,0,-1,1287,589,0,0
70,435,0,0,0,0,0,0,0,0,0,-1,1294,589,0,0
77,435,0,0,0,0,0,0,0,0,0,-1,1301,589,0,0
84,435,0,0,0,0,0,0,0,0,0,-1,1308,589,0,0
91,435,0,0,0,0,0,0,0,0,0,-1,1315,589,0,0
98,435,0,0,0,0,0,0,0,0,0,-1,1322,589,0,0
105,435,0,0,0,0,0,0,0,0,0,-1,1329,589,0,0
112,435,0,0,0,0,0,0,0,0,0,-1,1336,589,0,0
119,435,0,0,0,0,0,0,0,0,0,-1,1343,589,0,0
126,435,0,0,0,0,0,0,0,0,0,-1,1350,589,0,0
133,435,0,0,0,0,0,0,0,0,0,-1,1357,589,0,0
140,435,0,0,0,0,0,0,0,0,0,-1,1364,589,0,0
147,435,0,0,0,0,0,0,0,0,0,-1,1371,589,0,0
154,435,0,0,0,0,0,0,0,0,0,-1,1378,589,0,0
161,435,0,0,0,0,0,0,0,0,0,-1,1385,589,0,0
168,435,0,0,0,0,0,0,0,0,0,-1,1392,589,0,0
175,435,0,0,0,0,0,0,0,0,0,-1,1399,589,0,0
182,435,0,0,0,0,0,0,0,0,0,-1,1406,589,0,0
189,435,0,0,0,0,0,0,0,0,0,-1,1413,589,0,0
196,435,0,0,0,0,0,0,0,0,0,-1,1420,589,0,0
203,435,0,0,0,0,0,0,0,0,0,-1,1427,589,0,0
210,435,0,0,0,0,0,0,0,0,0,-1,1434,589,0,0
217,435,0,0,0,0,0,0,0,0,0,-1,1441,589,0,0
224,435,0,0,0,0,0,0,0,0,0,-1,1448,589,0,0
231,435,0,0,0,0,0,0,0,0,0,-1,1455,589,0,0
238,435,0,0,0,0,0,0,0,0,0,-1,1462,589,0,0
245,435,0,0,0,0,0,0,0,0,0,-1,1469,589,0,0
252,435,0,0,0,0,0,0,0,0,0,-1,1476,589,0,0
259,435,0,0,0,0,0,0,0,0,0,-1,1483,589,0,0
266,435,0,0,0,0,0,0,0,0,0,-1,1490,589,0,0
273,435,0,0,0,0,0,0,0,0,0,-1,1497,589,0,0
280,435,0,0,0,0,0,0,0,0,0,-1,1504,589,0,0
287,435,0,0,0,0,0,0,0,0,0,-1,1511,589,0,0
294,435,0,0,0,0,0,0,0,0,0,-1,1518,589,0,0
301,435,0,0,0,0,0,0,0,0,0,-1,1525,589,0,0
308,435,0,0,0,0,0,0,0,0,0,-1,1532,589,0,0
315,435,0,0,0,0,0,0,0,0,0,-1,1539,589,0,0
322,435,0,0,0,0,0,0,0,0,0,-1,1546,589,0,0
329,435,0,0,0,0,0,0,0,0,0,-1,1553,589,0,0
336,435,0,0,0,0,0,0,0,0,0,-1,1560,589,0,0
343,435,0,0,0,0,0,0,0,0,0,-1,1567,589,0,0
350,435,0,0,0,0,0,0,0,0,0,-1,1574,589,0,0
357,435,0,0,0,0,0,0,0,0,0,-1,1581,589,0,0
364,435,0,0,0,0,0,0,0,0,0,-1,1588,589,0,0
371,435,0,0,0,0,0,0,0,0,0,-1,1595,589,0,0
378,435,0,0,0,0,0,0,0,0,0,-1,1602,589,0,0
385,435,0,0,0,0,0,0,0,0,0,-1,1609,589,0,0
392,435,0,0,0,0,0,0,0,0,0,-1,1616,589,0,0
399,435,0,0,0,0,0,0,0,0,0,-1,1623,589,0,0
406,435,0,0,0,0,0,0,0,0,0,-1,1630,589,0,0
413,435,20.4565,3.49835,0,0,0,0,0,0,0,-1,1637,589,20.4565,-3.49836
420,435,21.4015,1.49609,0,0,0,0,0,0,0,-1,1644,589,21.4015,-1.49609
427,435,22.0464,-0.373962,0,0,0,0,0,0,0,-1,1651,589,22.0464,0.373972
434,435,22.1863,-1.54407,0,0,0,0,0,0,0,-1,1658,589,22.1862,1.54405
441,435,22.3992,-2.38287,0,0,0,0,0,0,0,-1,1665,589,22.3992,2.38289
448,435,7.4585,-0.00292969,0,0,0,0,0,0,0,-1,1672,589,7.45848,0.00294131
455,435,5.49915,-5.047,0,0,0,0,0,0,0,-1,1679,589,5.49914,5.04703
462,435,5.60669,-4.71466,0,0,0,0,0,0,0,-1,1686,589,5.60675,4.71469
469,435,5.87708,1.22351,0,0,0,0,0,0,0,-1,1693,589,5.87703,-1.22351
476,435,6.14136,1.37714,0,0,0,0,0,0,0,-1,1700,589,6.14138,-1.37712
483,435,6.49243,1.36169,0,0,0,0,0,0,0,-1,1707,589,6.49242,-1.36171
490,435,4.38391,-1.36218,0,0,0,0,0,0,0,-1,1714,589,4.38389,1.3622
497,435,7.23499,-3.64551,0,0,0,0,0,0,0,-1,1721,589,7.23495,3.64551
504,435,7.31189,-3.75909,0,0,0,0,0,0,0,-1,1728,589,7.31184,3.75911
511,435,13.1437,-9.9035,0,0,0,0,0,0,0,-1,1735,589,13.1437,9.90353
518,435,13.3021,-9.36334,0.00449643,0.00361171,0.00271247,0.00680238,0.00130576,0.704569,0.0041684,0.027762,1742,589,13.3021,9.36334
525,435,13.2576,-8.91791,0.00358055,0.00282377,0.00214876,0.00538398,0.00102034,0.698243,0.00330218,0.0129804,1749,589,13.2575,8.91792
532,435,13.2528,-8.4635,0.00272903,0.00208644,0.00163307,0.00407211,0.000743365,0.688267,0.00250401,0.0134441,1756,589,13.2528,8.46348
539,435,13.2579,-7.99188,0.00198714,0.00139463,0.00115271,0.00288106,0.000500717,0.659616,0.00177746,0.0140695,1763,589,13.258,7.99191
546,435,13.2397,-7.56146,0.00136932,0.000962489,0.000819182,0.00200996,0.000321845,0.663701,0.00124662,0.0139617,1770,589,13.2398,7.56145
553,435,13.2194,-7.151,0.000766486,0.000578394,0.000536597,0.00121722,0.000127664,0.698648,0.000772447,0.010223,1777,589,13.2194,7.15103
560,435,13.1992,-6.72241,9.28044e-05,0.000351551,0.000344845,0.000590492,-0.000146137,0.964855,0.000450348,0.00962854,1784,589,13.1993,6.72241
567,435,13.2198,-6.27252,-0.000536275,0.00022492,0.00024539,0.00029717,-0.000608525,1.28446,0.000533103,0.00931938,1791,589,13.2199,6.27254
574,435,13.2046,-5.84412,-0.0011567,0.000173079,0.00021853,0.000208071,-0.0011917,1.41202,0.000872134,0.0102264,1798,589,13.2046,5.8441
581,435,13.1918,-5.40027,-0.00180529,0.00021966,0.000268998,0.000254785,-0.00184041,1.44095,0.00132009,0.0173845,1805,589,13.1918,5.40026
588,435,13.1819,-4.96838,-0.00241106,0.000434536,0.00048987,0.000516506,-0.00249303,1.405,0.00185827,0.0330045,1812,589,13.1819,4.96835
595,435,13.0808,-4.56592,-0.00302148,0.00103589,0.000902316,0.0012275,-0.00321309,1.36154,0.00264784,0.036506,1819,589,13.0808,4.56591
602,435,13.1222,-4.13293,0,0,0,0,0,0,0,-1,1826,589,13.1222,4.13292
609,435,13.1068,-3.36664,0,0,0,0,0,0,0,-1,1833,589,13.1069,3.36663
616,435,5.05151,-2.75269,0,0,0,0,0,0,0,-1,1840,589,5.05157,2.7527
623,435,11.7588,3.9704,0,0,0,0,0,0,0,-1,1847,589,11.7587,-3.97043
630,435,4.72742,-0.87561,0,0,0,0,0,0,0,-1,1854,589,4.7274,0.875636
637,435,5.05286,1.48792,0,0,0,0,0,0,0,-1,1861,589,5.05291,-1.48792
644,435,0,0,0,0,0,0,0,0,0,-1,1868,589,0,0
651,435,0,0,0,0,0,0,0,0,0,-1,1875,589,0,0
658,435,0,0,0,0,0,0,0,0,0,-1,1882,589,0,0
665,435,0,0,0,0,0,0,0,0,0,-1,1889,589,0,0
672,435,0,0,0,0,0,0,0,0,0,-1,1896,589,0,0
679,435,0,0,0,0,0,0,0,0,0,-1,1903,589,0,0
686,435,0,0,0,0,0,0,0,0,0,-1,1910,589,0,0
693,435,0,0,0,0,0,0,0,0,0,-1,1917,589,0,0
700,435,0,0,0,0,0,0,0,0,0,-1,1924,589,0,0
707,435,0,0,0,0,0,0,0,0,0,-1,1931,589,0,0
714,435,0,0,0,0,0,0,0,0,0,-1,1938,589,0,0
721,435,0,0,0,0,0,0,0,0,0,-1,1945,589,0,0
728,435,0,0,0,0,0,0,0,0,0,-1,1952,589,0,0
735,435,0,0,0,0,0,0,0,0,0,-1,1959,589,0,0
742,435,0,0,0,0,0,0,0,0,0,-1,1966,589,0,0
749,435,0,0,0,0,0,0,0,0,0,-1,1973,589,0,0
756,435,0,0,0,0,0,0,0,0,0,-1,1980,589,0,0
763,435,0,0,0,0,0,0,0,0,0,-1,1987,589,0,0
770,435,0,0,0,0,0,0,0,0,0,-1,1994,589,0,0
777,435,0,0,0,0,0,0,0,0,0,-1,2001,589,0,0
784,435,0,0,0,0,0,0,0,0,0,-1,2008,589,0,0
791,435,0,0,0,0,0,0,0,0,0,-1,2015,589,0,0
798,435,0,0,0,0,0,0,0,0,0,-1,2022,589,0,0
805,435,0,0,0,0,0,0,0,0,0,-1,2029,589,0,0
812,435,0,0,0,0,0,0,0,0,0,-1,2036,589,0,0
-700,428,0,0,0,0,0,0,0,0,0,-1,524,596,0,0
-693,428,0,0,0,0,0,0,0,0,0,-1,531,596,0,0
-686,428,0,0,0,0,0,0,0,0,0,-1,538,596,0,0
-679,428,0,0,0,0,0,0,0,0,0,-1,545,596,0,0
-672,428,0,0,0,0,0,0,0,0,0,-1,552,596,0,0
-665,428,0,0,0,0,0,0,0,0,0,-1,559,596,0,0
-658,428,0,0,0,0,0,0,0,0,0,-1,566,596,0,0
-651,428,0,0,0,0,0,0,0,0,0,-1,573,596,0,0
-644,428,0,0,0,0,0,0,0,0,0,-1,580,596,0,0
-637,428,0,0,0,0,0,0,0,0,0,-1,587,596,0,0
-630,428,0,0,0,0,0,0,0,0,0,-1,594,596,0,0
-623,428,0,0,0,0,0,0,0,0,0,-1,601,596,0,0
-616,428,0,0,0,0,0,0,0,0,0,-1,608,596,0,0
-609,428,0,0,0,0,0,0,0,0,0,-1,615,596,0,0
-602,428,0,0,0,0,0,0,0,0,0,-1,622,596,0,0
-595,428,0,0,0,0,0,0,0,0,0,-1,629,596,0,0
-588,428,0,0,0,0,0,0,0,0,0,-1,636,596,0,0
-581,428,0,0,0,0,0,0,0,0,0,-1,643,596,0,0
-574,428,0,0,0,0,0,0,0,0,0,-1,650,596,0,0
-567,428,0,0,0,0,0,0,0,0,0,-1,657,596,0,0
-560,428,0,0,0,0,0,0,0,0,0,-1,664,596,0,0
-553,428,0,0,0,0,0,0,0,0,0,-1,671,596,0,0
-546,428,0,0,0,0,0,0,0,0,0,-1,678,596,0,0
-539,428,0,0,0,0,0,0,0,0,0,-1,685,596,0,0
-532,428,0,0,0,0,0,0,0,0,0,-1,692,596,0,0
-525,428,-9.59918,7.58618,0,0,0,0,0,0,0,-1,699,596,-9.59918,-7.5862
-518,428,-2.92285,-4.81854,0,0,0,0,0,0,0,-1,706,596,-2.92285,4.81856
-511,428,-3.68811,-4.79474,0,0,0,0,0,0,0,-1,713,596,-3.68811,4.79474
-504,428,-4.45337,-4.77094,0,0,0,0,0,0,0,-1,720,596,-4.45337,4.77092
-497,428,-2.98108,-3.77502,0,0,0,0,0,0,0,-1,727,596,-2.98106,3.77505
-490,428,-6.39044,-2.80481,0,0,0,0,0,0,0,-1,734,596,-6.39047,2.80483
-483,428,-7.10645,-5.22101,0,0,0,0,0,0,0,-1,741,596,-7.10645,5.22098
-476,428,-6.33441,-5.6944,0,0,0,0,0,0,0,-1,748,596,-6.3344,5.69438
-469,428,-5.56238,-6.16779,0,0,0,0,0,0,0,-1,755,596,-5.56235,6.16778
-462,428,-5.6604,-6.59973,-0.00298593,0.00294354,-0.00177151,0.00343248,-0.00347488,-1.3015,0.00398799,0.0205678,762,596,-5.66043,6.59975
-455,428,-5.72296,-7.08539,-0.00208714,0.00275316,-0.00164889,0.00326149,-0.00259546,-1.27176,0.00338879,0.0136582,769,596,-5.72299,7.08537
-448,428,-5.74744,-7.5307,-0.00147889,0.00217325,-0.00124079,0.00255491,-0.00186055,-1.27238,0.00255975,0.0115677,776,596,-5.74744,7.53067
-441,428,-5.74805,-7.9646,-0.00110208,0.00149333,-0.000704964,0.00167245,-0.0012812,-1.32198,0.00171027,0.0132732,783,596,-5.74804,7.96459
-434,428,-5.74182,-8.39819,-0.000919903,0.000780703,-9.71852e-05,0.000786238,-0.000925439,-1.5139,0.000989326,0.0101546,790,596,-5.7418,8.39821
-427,428,-5.74176,-8.81989,-0.000819121,-8.41649e-05,0.000584682,0.000238932,-0.00114222,1.06596,0.000852359,0.0104013,797,596,-5.74178,8.81991
-420,428,-5.74982,-9.22534,-0.000843831,-0.000967257,0.00129052,0.000386447,-0.00219753,0.761506,0.00160938,0.0109534,804,596,-5.7498,9.22536
-413,428,-5.74841,-9.6272,-0.00102149,-0.00195112,0.00210478,0.000669189,-0.0036418,0.676723,0.00267894,0.0132818,811,596,-5.74844,9.62717
-406,428,-5.75519,-10.0325,-0.00126618,-0.00293175,0.00290765,0.000925595,-0.00512352,0.645926,0.00376236,0.0160948,818,596,-5.75521,10.0324
-399,428,-5.75702,-10.4366,-0.00153991,-0.00387536,0.00366918,0.00114287,-0.00655815,0.631339,0.00479864,0.0146626,825,596,-5.75703,10.4366
-392,428,-5.72894,-10.8593,-0.00176012,-0.00455981,0.00434722,0.00140708,-0.00772701,0.629636,0.00567877,0.0178509,832,596,-5.72896,10.8593
-385,428,-5.81281,-11.2546,-0.00204537,-0.00519591,0.00496925,0.00159232,-0.0088336,0.631907,0.00648533,0.0380153,839,596,-5.81282,11.2546
-378,428,-5.77441,-11.6001,0,0,0,0,0,0,0,-1,846,596,-5.77441,11.6001
-371,428,-5.96155,-11.0703,0,0,0,0,0,0,0,-1,853,596,-5.96154,11.0702
-364,428,-6.33643,-10.7223,0,0,0,0,0,0,0,-1,860,596,-6.33645,10.7223
-357,428,-3.20996,-4.70966,0,0,0,0,0,0,0,-1,867,596,-3.20997,4.70965
-350,428,-1.62793,-3.94055,0,0,0,0,0,0,0,-1,874,596,-1.62794,3.94055
-343,428,-0.0567017,-4.80994,0,0,0,0,0,0,0,-1,881,596,-0.0567096,4.80996
-336,428,-3.29175,-1.39569,0,0,0,0,0,0,0,-1,888,596,-3.29172,1.39568
-329,428,-3.71564,-0.791321,0,0,0,0,0,0,0,-1,895,596,-3.71564,0.791299
-322,428,-5.52863,-3.59827,0,0,0,0,0,0,0,-1,902,596,-5.52865,3.59829
-315,428,-4.57172,-1.22052,0,0,0,0,0,0,0,-1,909,596,-4.57171,1.22052
-308,428,-5.94324,-0.810791,0,0,0,0,0,0,0,-1,916,596,-5.94321,0.810803
-301,428,0,0,0,0,0,0,0,0,0,-1,923,596,0,0
-294,428,0,0,0,0,0,0,0,0,0,-1,930,596,0,0
-287,428,0,0,0,0,0,0,0,0,0,-1,937,596,0,0
-280,428,0,0,0,0,0,0,0,0,0,-1,944,596,0,0
-273,428,0,0,0,0,0,0,0,0,0,-1,951,596,0,0
-266,428,0,0,0,0,0,0,0,0,0,-1,958,596,0,0
-259,428,0,0,0,0,0,0,0,0,0,-1,965,596,0,0
-252,428,0,0,0,0,0,0,0,0,0,-1,972,596,0,0
-245,428,0,0,0,0,0,0,0,0,0,-1,979,596,0,0
-238,428,0,0,0,0,0,0,0,0,0,-1,986,596,0,0
-231,428,0,0,0,0,0,0,0,0,0,-1,993,596,0,0
-224,428,0,0,0,0,0,0,0,0,0,-1,1000,596,0,0
-217,428,0,0,0,0,0,0,0,0,0,-1,1007,596,0,0
-210,428,0,0,0,0,0,0,0,0,0,-1,1014,596,0,0
-203,428,0,0,0,0,0,0,0,0,0,-1,1021,596,0,0
-196,428,0,0,0,0,0,0,0,0,0,-1,1028,596,0,0
-189,428,0,0,0,0,0,0,0,0,0,-1,1035,596,0,0
-182,428,0,0,0,0,0,0,0,0,0,-1,1042,596,0,0
-175,428,0,0,0,0,0,0,0,0,0,-1,1049,596,0,0
-168,428,0,0,0,0,0,0,0,0,0,-1,1056,596,0,0
-161,428,0,0,0,0,0,0,0,0,0,-1,1063,596,0,0
-154,428,0,0,0,0,0,0,0,0,0,-1,1070,596,0,0
-147,428,0,0,0,0,0,0,0,0,0,-1,1077,596,0,0
-140,428,0,0,0,0,0,0,0,0,0,-1,1084,596,0,0
-133,428,0,0,0,0,0,0,0,0,0,-1,1091,596,0,0
-126,428,0,0,0,0,0,0,0,0,0,-1,1098,596,0,0
-119,428,0,0,0,0,0,0,0,0,0,-1,1105,596,0,0
-112,428,0,0,0,0,0,0,0,0,0,-1,1112,596,0,0
-105,428,0,0,0,0,0,0,0,0,0,-1,1119,596,0,0
-98,428,0,0,0,0,0,0,0,0,0,-1,1126,596,0,0
-91,428,0,0,0,0,0,0,0,0,0,-1,1133,596,0,0
-84,428,0,0,0,0,0,0,0,0,0,-1,1140,596,0,0
-77,428,0,0,0,0,0,0,0,0,0,-1,1147,596,0,0
-70,428,0,0,0,0,0,0,0,0,0,-1,1154,596,0,0
-63,428,0,0,0,0,0,0,0,0,0,-1,1161,596,0,0
-56,428,0,0,0,0,0,0,0,0,0,-1,1168,596,0,0
-49,428,0,0,0,0,0,0,0,0,0,-1,1175,596,0,0
-42,428,0,0,0,0,0,0,0,0,0,-1,1182,596,0,0
-35,428,0,0,0,0,0,0,0,0,0,-1,1189,596,0,0
-28,428,0,0,0,0,0,0,0,0,0,-1,1196,596,0,0
-21,428,0,0,0,0,0,0,0,0,0,-1,1203,596,0,0
-14,428,0,0,0,0,0,0,0,0,0,-1,1210,596,0,0
-7,428,0,0,0,0,0,0,0,0,0,-1,1217,596,0,0
0,428,0,0,0,0,0,0,0,0,0,-1,1224,596,0,0
7,428,0,0,0,0,0,0,0,0,0,-1,1231,596,0,0
14,428,0,0,0,0,0,0,0,0,0,-1,1238,596,0,0
21,428,0,0,0,0,0,0,0,0,0,-1,1245,596,0,0
28,428,0,0,0,0,0,0,0,0,0,-1,1252,596,0,0
35,428,0,0,0,0,0,0,0,0,0,-1,1259,596,0,0
42,428,0,0,0,0,0,0,0,0,0,-1,1266,596,0,0
49,428,0,0,0,0,0,0,0,0,0,-1,1273,596,0,0
56,428,0,0,0,0,0,0,0,0,0,-1,1280,596,0,0
63,428,0,0,0,0,0,0,0,0,0,-1,1287,596,0,0
70,428,0,0,0,0,0,0,0,0,0,-1,1294,596,0,0
77,428,0,0,0,0,0,0,0,0,0,-1,1301,596,0,0
84,428,0,0,0,0,0,0,0,0,0,-1,1308,596,0,0
91,428,0,0,0,0,0,0,0,0,0,-1,1315,596,0,0
98,428,0,0,0,0,0,0,0,0,0,-1,1322,596,0,0
105,428,0,0,0,0,0,0,0,0,0,-1,1329,596,0,0
112,428,0,0,0,0,0,0,0,0,0,-1,1336,596,0,0
119,428,0,0,0,0,0,0,0,0,0,-1,1343,596,0,0
126,428,0,0,0,0,0,0,0,0,0,-1,1350,596,0,0
133,428,0,0,0,0,0,0,0,0,0,-1,1357,596,0,0
140,428,0,0,0,0,0,0,0,0,0,-1,1364,596,0,0
147,428,0,0,0,0,0,0,0,0,0,-1,1371,596,0,0
154,428,0,0,0,0,0,0,0,0,0,-1,1378,596,0,0
161,428,0,0,0,0,0,0,0,0,0,-1,1385,596,0,0
168,428,0,0,0,0,0,0,0,0,0,-1,1392,596,0,0
175,428,0,0,0,0,0,0,0,0,0,-1,1399,596,0,0
182,428,0,0,0,0,0,0,0,0,0,-1,1406,596,0,0
189,428,0,0,0,0,0,0,0,0,0,-1,1413,596,0,0
196,428,0,0,0,0,0,0,0,0,0,-1,1420,596,0,0
203,428,0,0,0,0,0,0,0,0,0,-1,1427,596,0,0
210,428,0,0,0,0,0,0,0,0,0,-1,1434,596,0,0
217,428,0,0,0,0,0,0,0,0,0,-1,1441,596,0,0
224,428,0,0,0,0,0,0,0,0,0,-1,1448,596,0,0
231,428,0,0,0,0,0,0,0,0,0,-1,1455,596,0,0
238,428,0,0,0,0,0,0,0,0,0,-1,1462,596,0,0
245,428,0,0,0,0,0,0,0,0,0,-1,1469,596,0,0
252,428,0,0,0,0,0,0,0,0,0,-1,1476,596,0,0
259,428,0,0,0,0,0,0,0,0,0,-1,1483,596,0,0
266,428,0,0,0,0,0,0,0,0,0,-1,1490,596,0,0
273,428,0,0,0,0,0,0,0,0,0,-1,1497,596,0,0
280,428,0,0,0,0,0,0,0,0,0,-1,1504,596,0,0
287,428,0,0,0,0,0,0,0,0,0,-1,1511,596,0,0
294,428,0,0,0,0,0,0,0,0,0,-1,1518,596,0,0
301,428,0,0,0,0,0,0,0,0,0,-1,1525,596,0,0
308,428,0,0,0,0,0,0,0,0,0,-1,1532,596,0,0
315,428,0,0,0,0,0,0,0,0,0,-1,1539,596,0,0
322,428,0,0,0,0,0,0,0,0,0,-1,1546,596,0,0
329,428,0,0,0,0,0,0,0,0,0,-1,1553,596,0,0
336,428,0,0,0,0,0,0,0,0,0,-1,1560,596,0,0
343,428,0,0,0,0,0,0,0,0,0,-1,1567,596,0,0
350,428,0,0,0,0,0,0,0,0,0,-1,1574,596,0,0
357,428,0,0,0,0,0,0,0,0,0,-1,1581,596,0,0
364,428,0,0,0,0,0,0,0,0,0,-1,1588,596,0,0
371,428,0,0,0,0,0,0,0,0,0,-1,1595,596,0,0
378,428,0,0,0,0,0,0,0,0,0,-1,1602,596,0,0
385,428,0,0,0,0,0,0,0,0,0,-1,1609,596,0,0
392,428,0,0,0,0,0,0,0,0,0,-1,1616,596,0,0
399,428,0,0,0,0,0,0,0,0,0,-1,1623,596,0,0
406,428,0,0,0,0,0,0,0,0,0,-1,1630,596,0,0
413,428,0,0,0,0,0,0,0,0,0,-1,1637,596,0,0
420,428,19.8469,1.3399,0,0,0,0,0,0,0,-1,1644,596,19.8469,-1.33992
427,428,20.7299,-0.225281,0,0,0,0,0,0,0,-1,1651,596,20.7299,0.225262
434,428,19.8915,-0.583069,0,0,0,0,0,0,0,-1,1658,596,19.8915,0.583075
441,428,8.17993,0.607483,0,0,0,0,0,0,0,-1,1665,596,8.17997,-0.607513
448,428,7.84338,-0.385986,0,0,0,0,0,0,0,-1,1672,596,7.84336,0.385978
455,428,6.64038,2.1123,0,0,0,0,0,0,0,-1,1679,596,6.64037,-2.11229
462,428,4.84106,4.12341,0,0,0,0,0,0,0,-1,1686,596,4.84107,-4.12339
469,428,7.83789,3.10083,0,0,0,0,0,0,0,-1,1693,596,7.83785,-3.10086
476,428,7.61255,1.73956,0,0,0,0,0,0,0,-1,1700,596,7.61252,-1.73958
483,428,7.22766,1.05121,0,0,0,0,0,0,0,-1,1707,596,7.2277,-1.05121
490,428,5.4071,-3.2793,0,0,0,0,0,0,0,-1,1714,596,5.40707,3.27929
497,428,7.84106,-3.65491,0,0,0,0,0,0,0,-1,1721,596,7.84107,3.65491
504,428,6.92139,-2.83356,0,0,0,0,0,0,0,-1,1728,596,6.92137,2.83353
511,428,7.88501,-3.78723,0,0,0,0,0,0,0,-1,1735,596,7.88502,3.78722
518,428,13.6913,-9.45953,0,0,0,0,0,0,0,-1,1742,596,13.6912,9.45955
525,428,13.5812,-8.98096,0,0,0,0,0,0,0,-1,1749,596,13.5812,8.98093
532,428,13.6527,-8.42242,0.00249794,0.00243457,0.00152323,0.00398982,0.000942688,0.774999,0.00240796,0.0206694,1756,596,13.6527,8.42242
539,428,13.7007,-7.96753,0.00176504,0.00171235,0.00100326,0.0027423,0.000735096,0.772271,0.00163907,0.0209864,1763,596,13.7006,7.96752
546,428,13.6899,-7.5614,0.00120946,0.00125112,0.000665644,0.00189626,0.000564324,0.80104,0.00112431,0.0170145,1770,596,13.6899,7.56141
553,428,13.6692,-7.15363,0.000710454,0.000818301,0.000399137,0.00116714,0.000361614,0.852541,0.000689904,0.0105039,1777,596,13.6692,7.15361
560,428,13.678,-6.71155,0.000174577,0.000559754,0.000237818,0.000673185,6.11464e-05,1.12575,0.00042986,0.0112757,1784,596,13.678,6.71153
567,428,13.686,-6.30115,-0.000291521,0.000440474,0.000210696,0.000496788,-0.000347835,1.30963,0.000490165,0.011086,1791,596,13.686,6.30113
574,428,13.6625,-5.86285,-0.000692278,0.000418219,0.000291934,0.000490287,-0.000764346,1.32877,0.0007301,0.0130748,1798,596,13.6624,5.86285
581,428,13.6172,-5.38867,-0.00108017,0.000515115,0.000470613,0.000643599,-0.00120865,1.30428,0.00108586,0.0110527,1805,596,13.6172,5.38868
588,428,13.5994,-4.92151,-0.00144287,0.000801137,0.000797693,0.0010558,-0.00169753,1.26178,0.00160396,0.015765,1812,596,13.5994,4.9215
595,428,13.5923,-4.46466,-0.00176294,0.00139614,0.00131624,0.00187267,-0.00223948,1.22344,0.0023773,0.0155258,1819,596,13.5923,4.46467
602,428,13.5187,-3.99323,-0.00221658,0.00232442,0.00198033,0.0030667,-0.00295886,1.21218,0.00347905,0.0257024,1826,596,13.5187,3.99324
609,428,13.4961,-3.46661,-0.00252158,0.00345886,0.00296311,0.00467832,-0.00374104,1.18037,0.00487095,0.048216,1833,596,13.496,3.46661
616,428,13.4719,-2.88647,0,0,0,0,0,0,0,-1,1840,596,13.4719,2.88646
623,428,9.53577,1.12518,0,0,0,0,0,0,0,-1,1847,596,9.5358,-1.1252
630,428,7.07996,6.88562,0,0,0,0,0,0,0,-1,1854,596,7.0799,-6.88565
637,428,3.95435,1.90857,0,0,0,0,0,0,0,-1,1861,596,3.95439,-1.90858
644,428,5.75476,0.888977,0,0,0,0,0,0,0,-1,1868,596,5.75472,-0.888955
651,428,0,0,0,0,0,0,0,0,0,-1,1875,596,0,0
658,428,0,0,0,0,0,0,0,0,0,-1,1882,596,0,0
665,428,0,0,0,0,0,0,0,0,0,-1,1889,596,0,0
672,428,0,0,0,0,0,0,0,0,0,-1,1896,596,0,0
679,428,0,0,0,0,0,0,0,0,0,-1,1903,596,0,0
686,428,0,0,0,0,0,0,0,0,0,-1,1910,596,0,0
693,428,0,0,0,0,0,0,0,0,0,-1,1917,596,0,0
700,428,0,0,0,0,0,0,0,0,0,-1,1924,596,0,0
707,428,0,0,0,0,0,0,0,0,0,-1,1931,596,0,0
714,428,0,0,0,0,0,0,0,0,0,-1,1938,596,0,0
721,428,0,0,0,0,0,0,0,0,0,-1,1945,596,0,0
728,428,0,0,0,0,0,0,0,0,0,-1,1952,596,0,0
735,428,0,0,0,0,0,0,0,0,0,-1,1959,596,0,0
742,428,0,0,0,0,0,0,0,0,0,-1,1966,596,0,0
749,428,0,0,0,0,0,0,0,0,0,-1,1973,596,0,0
756,428,0,0,0,0,0,0,0,0,0,-1,1980,596,0,0
763,428,0,0,0,0,0,0,0,0,0,-1,1987,596,0,0
770,428,0,0,0,0,0,0,0,0,0,-1,1994,596,0,0
777,428,0,0,0,0,0,0,0,0,0,-1,2001,596,0,0
784,428,0,0,0,0,0,0,0,0,0,-1,2008,596,0,0
791,428,0,0,0,0,0,0,0,0,0,-1,2015,596,0,0
798,428,0,0,0,0,0,0,0,0,0,-1,2022,596,0,0
805,428,0,0,0,0,0,0,0,0,0,-1,2029,596,0,0
812,428,0,0,0,0,0,0,0,0,0,-1,2036,596,0,0
-700,421,0,0,0,0,0,0,0,0,0,-1,524,603,0,0
-693,421,0,0,0,0,0,0,0,0,0,-1,531,603,0,0
-686,421,0,0,0,0,0,0,0,0,0,-1,538,603,0,0
-679,421,0,0,0,0,0,0,0,0,0,-1,545,603,0,0
-672,421,0,0,0,0,0,0,0,0,0,-1,552,603,0,0
-665,421,0,0,0,0,0,0,0,0,0,-1,559,603,0,0
-658,421,0,0,0,0,0,0,0,0,0,-1,566,603,0,0
-651,421,0,0,0,0,0,0,0,0,0,-1,573,603,0,0
-644,421,0,0,0,0,0,0,0,0,0,-1,580,603,0,0
-637,421,0,0,0,0,0,0,0,0,0,-1,587,603,0,0
-630,421,0,0,0,0,0,0,0,0,0,-1,594,603,0,0
-623,421,0,0,0,0,0,0,0,0,0,-1,601,603,0,0
-616,421,0,0,0,0,0,0,0,0,0,-1,608,603,0,0
-609,421,0,0,0,0,0,0,0,0,0,-1,615,603,0,0
-602,421,0,0,0,0,0,0,0,0,0,-1,622,603,0,0
-595,421,0,0,0,0,0,0,0,0,0,-1,629,603,0,0
-588,421,0,0,0,0,0,0,0,0,0,-1,636,603,0,0
-581,421,0,0,0,0,0,0,0,0,0,-1,643,603,0,0
-574,421,0,0,0,0,0,0,0,0,0,-1,650,603,0,0
-567,421,0,0,0,0,0,0,0,0,0,-1,657,603,0,0
-560,421,0,0,0,0,0,0,0,0,0,-1,664,603,0,0
-553,421,0,0,0,0,0,0,0,0,0,-1,671,603,0,0
-546,421,0,0,0,0,0,0,0,0,0,-1,678,603,0,0
-539,421,0,0,0,0,0,0,0,0,0,-1,685,603,0,0
-532,421,-8.97382,6.95636,0,0,0,0,0,0,0,-1,692,603,-8.97384,-6.95634
-525,421,-2.11481,-8.04272,0,0,0,0,0,0,0,-1,699,603,-2.11483,8.0427
-518,421,-3.05908,-5.07233,0,0,0,0,0,0,0,-1,706,603,-3.0591,5.07235
-511,421,-4.63525,-4.08447,0,0,0,0,0,0,0,-1,713,603,-4.63524,4.08449
-504,421,-4.97272,-4.38385,0,0,0,0,0,0,0,-1,720,603,-4.9727,4.38383
-497,421,-6.63141,-2.32501,0,0,0,0,0,0,0,-1,727,603,-6.6314,2.32498
-490,421,-5.52075,-3.10205,0,0,0,0,0,0,0,-1,734,603,-5.52075,3.10204
-483,421,-6.03107,-5.55438,0,0,0,0,0,0,0,-1,741,603,-6.03106,5.55439
-476,421,-6.05127,-5.90424,-0.00408586,0.00269535,-0.00139919,0.00297271,-0.00436321,-1.37511,0.00426068,0.0315316,748,603,-6.0513,5.90422
-469,421,-6.10327,-6.19592,-0.00315686,0.00231991,-0.00137342,0.00264502,-0.00348198,-1.33836,0.00354841,0.022041,755,603,-6.10325,6.19591
-462,421,-6.12848,-6.66992,-0.00222016,0.00201108,-0.00133675,0.00239801,-0.00260708,-1.28904,0.00289053,0.0189735,762,603,-6.12845,6.66993
-455,421,-6.13928,-7.10162,-0.00142203,0.00178153,-0.00126754,0.00222238,-0.00186289,-1.23608,0.00236167,0.0189868,769,603,-6.13926,7.10162
-448,421,-6.14423,-7.52539,-0.000882639,0.00123334,-0.000900667,0.00156479,-0.00121409,-1.21817,0.00160864,0.0183627,776,603,-6.1442,7.52539
-441,421,-6.16797,-7.96924,-0.000620861,0.000557429,-0.0003523,0.000654729,-0.000718161,-1.30133,0.000792921,0.0147254,783,603,-6.16797,7.96922
-434,421,-6.16333,-8.40399,-0.000550253,-0.000121829,0.000279869,1.63977e-05,-0.00068848,1.11204,0.000464549,0.0112211,790,603,-6.16333,8.40401
-427,421,-6.15607,-8.80463,-0.000592745,-0.000990103,0.00103016,0.000257724,-0.00184057,0.690137,0.00132136,0.00998625,797,603,-6.1561,8.80461
-420,421,-6.1651,-9.20874,-0.000804378,-0.00192228,0.00186621,0.000584793,-0.00331145,0.639894,0.00242617,0.011262,804,603,-6.16512,9.20876
-413,421,-6.17694,-9.61584,-0.00121206,-0.00298253,0.00285955,0.000896138,-0.00509073,0.635291,0.00372861,0.0134793,811,603,-6.17697,9.61582
-406,421,-6.1972,-10.0428,-0.00177398,-0.00413019,0.00389733,0.00111941,-0.00702359,0.638622,0.00509667,0.0187994,818,603,-6.19718,10.0429
-399,421,-6.14038,-10.4918,-0.00239648,-0.00528711,0.00493302,0.0012986,-0.00898219,0.642893,0.00646461,0.0239771,825,603,-6.1404,10.4918
-392,421,-6.25177,-10.8103,-0.00305317,-0.00614489,0.00595393,0.00155231,-0.0107504,0.658384,0.00773644,0.0343308,832,603,-6.25179,10.8103
-385,421,-6.35565,-11.2997,0,0,0,0,0,0,0,-1,839,603,-6.35565,11.2997
-378,421,-4.94733,-8.87909,0,0,0,0,0,0,0,-1,846,603,-4.94731,8.87906
-371,421,-5.65082,-7.01849,0,0,0,0,0,0,0,-1,853,603,-5.65082,7.0185
-364,421,-5.94189,-7.09875,0,0,0,0,0,0,0,-1,860,603,-5.94192,7.09878
-357,421,-7.62531,-8.26337,0,0,0,0,0,0,0,-1,867,603,-7.62532,8.26337
-350,421,-5.38019,-3.75024,0,0,0,0,0,0,0,-1,874,603,-5.38017,3.75026
-343,421,-6.22797,-2.57123,0,0,0,0,0,0,0,-1,881,603,-6.22798,2.57121
-336,421,-6.22882,-2.59369,0,0,0,0,0,0,0,-1,888,603,-6.22883,2.5937
-329,421,-4.50134,-1.49469,0,0,0,0,0,0,0,-1,895,603,-4.50137,1.49468
-322,421,-6.30377,-0.285339,0,0,0,0,0,0,0,-1,902,603,-6.30379,0.285355
-315,421,-4.47821,-1.26733,0,0,0,0,0,0,0,-1,909,603,-4.47824,1.26732
-308,421,0,0,0,0,0,0,0,0,0,-1,916,603,0,0
-301,421,0,0,0,0,0,0,0,0,0,-1,923,603,0,0
-294,421,0,0,0,0,0,0,0,0,0,-1,930,603,0,0
-287,421,0,0,0,0,0,0,0,0,0,-1,937,603,0,0
-280,421,0,0,0,0,0,0,0,0,0,-1,944,603,0,0
-273,421,0,0,0,0,0,0,0,0,0,-1,951,603,0,0
-266,421,0,0,0,0,0,0,0,0,0,-1,958,603,0,0
-259,421,0,0,0,0,0,0,0,0,0,-1,965,603,0,0
-252,421,0,0,0,0,0,0,0,0,0,-1,972,603,0,0
-245,421,0,0,0,0,0,0,0,0,0,-1,979,603,0,0
-238,421,0,0,0,0,0,0,0,0,0,-1,986,603,0,0
-231,421,0,0,0,0,0,0,0,0,0,-1,993,603,0,0
-224,421,0,0,0,0,0,0,0,0,0,-1,1000,603,0,0
-217,421,0,0,0,0,0,0,0,0,0,-1,1007,603,0,0
-210,421,0,0,0,0,0,0,0,0,0,-1,1014,603,0,0
-203,421,0,0,0,0,0,0,0,0,0,-1,1021,603,0,0
-196,421,0,0,0,0,0,0,0,0,0,-1,1028,603,0,0
-189,421,0,0,0,0,0,0,0,0,0,-1,1035,603,0,0
-182,421,0,0,0,0,0,0,0,0,0,-1,1042,603,0,0
-175,421,0,0,0,0,0,0,0,0,0,-1,1049,603,0,0
-168,421,0,0,0,0,0,0,0,0,0,-1,1056,603,0,0
-161,421,0,0,0,0,0,0,0,0,0,-1,1063,603,0,0
-154,421,0,0,0,0,0,0,0,0,0,-1,1070,603,0,0
-147,421,0,0,0,0,0,0,0,0,0,-1,1077,603,0,0
-140,421,0,0,0,0,0,0,0,0,0,-1,1084,603,0,0
-133,421,0,0,0,0,0,0,0,0,0,-1,1091,603,0,0
-126,421,0,0,0,0,0,0,0,0,0,-1,1098,603,0,0
-119,421,0,0,0,0,0,0,0,0,0,-1,1105,603,0,0
-112,421,0,0,0,0,0,0,0,0,0,-1,1112,603,0,0
-105,421,0,0,0,0,0,0,0,0,0,-1,1119,603,0,0
-98,421,0,0,0,0,0,0,0,0,0,-1,1126,603,0,0
-91,421,0,0,0,0,0,0,0,0,0,-1,1133,603,0,0
-84,421,0,0,0,0,0,0,0,0,0,-1,1140,603,0,0
-77,421,0,0,0,0,0,0,0,0,0,-1,1147,603,0,0
-70,421,0,0,0,0,0,0,0,0,0,-1,1154,603,0,0
-63,421,0,0,0,0,0,0,0,0,0,-1,1161,603,0,0
-56,421,0,0,0,0,0,0,0,0,0,-1,1168,603,0,0
-49,421,0,0,0,0,0,0,0,0,0,-1,1175,603,0,0
-42,421,0,0,0,0,0,0,0,0,0,-1,1182,603,0,0
-35,421,0,0,0,0,0,0,0,0,0,-1,1189,603,0,0
-28,421,0,0,0,0,0,0,0,0,0,-1,1196,603,0,0
-21,421,0,0,0,0,0,0,0,0,0,-1,1203,603,0,0
-14,421,0,0,0,0,0,0,0,0,0,-1,1210,603,0,0
-7,421,0,0,0,0,0,0,0,0,0,-1,1217,603,0,0
0,421,0,0,0,0,0,0,0,0,0,-1,1224,603,0,0
7,421,0,0,0,0,0,0,0,0,0,-1,1231,603,0,0
14,421,0,0,0,0,0,0,0,0,0,-1,1238,603,0,0
21,421,0,0,0,0,0,0,0,0,0,-1,1245,603,0,0
28,421,0,0,0,0,0,0,0,0,0,-1,1252,603,0,0
35,421,0,0,0,0,0,0,0,0,0,-1,1259,603,0,0
42,421,0,0,0,0,0,0,0,0,0,-1,1266,603,0,0
49,421,0,0,0,0,0,0,0,0,0,-1,1273,603,0,0
56,421,0,0,0,0,0,0,0,0,0,-1,1280,603,0,0
63,421,0,0,0,0,0,0,0,0,0,-1,1287,603,0,0
70,421,0,0,0,0,0,0,0,0,0,-1,1294,603,0,0
77,421,0,0,0,0,0,0,0,0,0,-1,1301,603,0,0
84,421,0,0,0,0,0,0,0,0,0,-1,1308,603,0,0
91,421,0,0,0,0,0,0,0,0,0,-1,1315,603,0,0
98,421,0,0,0,0,0,0,0,0,0,-1,1322,603,0,0
105,421,0,0,0,0,0,0,0,0,0,-1,1329,603,0,0
112,421,0,0,0,0,0,0,0,0,0,-1,1336,603,0,0
119,421,0,0,0,0,0,0,0,0,0,-1,1343,603,0,0
126,421,0,0,0,0,0,0,0,0,0,-1,1350,603,0,0
133,421,0,0,0,0,0,0,0,0,0,-1,1357,603,0,0
140,421,0,0,0,0,0,0,0,0,0,-1,1364,603,0,0
147,421,0,0,0,0,0,0,0,0,0,-1,1371,603,0,0
154,421,0,0,0,0,0,0,0,0,0,-1,1378,603,0,0
161,421,0,0,0,0,0,0,0,0,0,-1,1385,603,0,0
168,421,0,0,0,0,0,0,0,0,0,-1,1392,603,0,0
175,421,0,0,0,0,0,0,0,0,0,-1,1399,603,0,0
182,421,0,0,0,0,0,0,0,0,0,-1,1406,603,0,0
189,421,0,0,0,0,0,0,0,0,0,-1,1413,603,0,0
196,421,0,0,0,0,0,0,0,0,0,-1,1420,603,0,0
203,421,0,0,0,0,0,0,0,0,0,-1,1427,603,0,0
210,421,0,0,0,0,0,0,0,0,0,-1,1434,603,0,0
217,421,0,0,0,0,0,0,0,0,0,-1,1441,603,0,0
224,421,0,0,0,0,0,0,0,0,0,-1,1448,603,0,0
231,421,0,0,0,0,0,0,0,0,0,-1,1455,603,0,0
238,421,0,0,0,0,0,0,0,0,0,-1,1462,603,0,0
245,421,0,0,0,0,0,0,0,0,0,-1,1469,603,0,0
252,421,0,0,0,0,0,0,0,0,0,-1,1476,603,0,0
259,421,0,0,0,0,0,0,0,0,0,-1,1483,603,0,0
266,421,0,0,0,0,0,0,0,0,0,-1,1490,603,0,0
273,421,0,0,0,0,0,0,0,0,0,-1,1497,603,0,0
280,421,0,0,0,0,0,0,0,0,0,-1,1504,603,0,0
287,421,0,0,0,0,0,0,0,0,0,-1,1511,603,0,0
294,421,0,0,0,0,0,0,0,0,0,-1,1518,603,0,0
301,421,0,0,0,0,0,0,0,0,0,-1,1525,603,0,0
308,421,0,0,0,0,0,0,0,0,0,-1,1532,603,0,0
315,421,0,0,0,0,0,0,0,0,0,-1,1539,603,0,0
322,421,0,0,0,0,0,0,0,0,0,-1,1546,603,0,0
329,421,0,0,0,0,0,0,0,0,0,-1,1553,603,0,0
336,421,0,0,0,0,0,0,0,0,0,-1,1560,603,0,0
343,421,0,0,0,0,0,0,0,0,0,-1,1567,603,0,0
350,421,0,0,0,0,0,0,0,0,0,-1,1574,603,0,0
357,421,0,0,0,0,0,0,0,0,0,-1,1581,603,0,0
364,421,0,0,0,0,0,0,0,0,0,-1,1588,603,0,0
371,421,0,0,0,0,0,0,0,0,0,-1,1595,603,0,0
378,421,0,0,0,0,0,0,0,0,0,-1,1602,603,0,0
385,421,0,0,0,0,0,0,0,0,0,-1,1609,603,0,0
392,421,0,0,0,0,0,0,0,0,0,-1,1616,603,0,0
399,421,0,0,0,0,0,0,0,0,0,-1,1623,603,0,0
406,421,0,0,0,0,0,0,0,0,0,-1,1630,603,0,0
413,421,0,0,0,0,0,0,0,0,0,-1,1637,603,0,0
420,421,0,0,0,0,0,0,0,0,0,-1,1644,603,0,0
427,421,0,0,0,0,0,0,0,0,0,-1,1651,603,0,0
434,421,3.68176,-0.0327759,0,0,0,0,0,0,0,-1,1658,603,3.6818,0.0328037
441,421,8.06689,0.527832,0,0,0,0,0,0,0,-1,1665,603,8.06693,-0.527851
448,421,6.93921,0.802246,0,0,0,0,0,0,0,-1,1672,603,6.93923,-0.802251
455,421,7.29456,2.14825,0,0,0,0,0,0,0,-1,1679,603,7.29461,-2.14827
462,421,7.86902,3.53174,0,0,0,0,0,0,0,-1,1686,603,7.869,-3.53173
469,421,8.06604,2.81213,0,0,0,0,0,0,0,-1,1693,603,8.06606,-2.81212
476,421,8.26306,2.09253,0,0,0,0,0,0,0,-1,1700,603,8.26312,-2.09251
483,421,8.05322,0.798096,0,0,0,0,0,0,0,-1,1707,603,8.05323,-0.7981
490,421,7.51233,0.213074,0,0,0,0,0,0,0,-1,1714,603,7.51235,-0.213043
497,421,7.49634,-2.86688,0,0,0,0,0,0,0,-1,1721,603,7.4963,2.86688
504,421,6.90491,-2.18671,0,0,0,0,0,0,0,-1,1728,603,6.90491,2.18669
511,421,6.31348,-1.50653,0,0,0,0,0,0,0,-1,1735,603,6.31353,1.5065
518,421,6.27588,-2.49878,0,0,0,0,0,0,0,-1,1742,603,6.2759,2.4988
525,421,13.8628,-9.12909,0,0,0,0,0,0,0,-1,1749,603,13.8627,9.12906
532,421,14.001,-8.45703,0.00236352,0.00279871,0.0013757,0.00397392,0.00118831,0.863833,0.00235531,0.0396272,1756,603,14.001,8.45706
539,421,14.1406,-7.97375,0.00164466,0.00202817,0.000811423,0.00267019,0.00100264,0.901431,0.00155748,0.0211824,1763,603,14.1407,7.97376
546,421,14.1233,-7.58661,0.00113153,0.00151434,0.000461021,0.00182211,0.000823755,0.982159,0.0010536,0.0132578,1770,603,14.1233,7.58663
553,421,14.114,-7.15283,0.000694951,0.00101234,0.000196861,0.00110651,0.000600785,1.12463,0.000639627,0.0109999,1777,603,14.114,7.15285
560,421,14.1359,-6.69769,0.00023254,0.000701105,4.47308e-05,0.000705337,0.000228308,1.47647,0.00041558,0.0130144,1784,603,14.1358,6.69768
567,421,14.1167,-6.30035,-0.000162728,0.000564315,5.82153e-05,0.000568947,-0.00016736,1.4914,0.000445685,0.0165816,1791,603,14.1167,6.30038
574,421,14.0917,-5.85779,-0.000460994,0.000550679,0.00020609,0.000591051,-0.000501366,1.37735,0.000631415,0.0190706,1798,603,14.0917,5.85776
581,421,14.0668,-5.35602,-0.000722761,0.000668245,0.000458657,0.000805863,-0.00086038,1.2793,0.000962177,0.0147611,1805,603,14.0667,5.35601
588,421,14.0455,-4.95496,-0.000963101,0.000977227,0.000836273,0.00128791,-0.00127379,1.21509,0.001479,0.0105888,1812,603,14.0456,4.95498
595,421,14.0679,-4.48114,-0.00109166,0.00157121,0.00142473,0.00218979,-0.00171025,1.16118,0.00225735,0.015605,1819,603,14.0678,4.48112
602,421,14.0146,-4.07678,-0.00125346,0.00246909,0.00215965,0.00345886,-0.00224323,1.14106,0.00331695,0.0161519,1826,603,14.0146,4.07678
609,421,13.8926,-3.5061,-0.00123627,0.00358006,0.00316081,0.00514556,-0.00280176,1.11093,0.00465443,0.0299253,1833,603,13.8926,3.50609
616,421,13.9824,-2.80884,0,0,0,0,0,0,0,-1,1840,603,13.9825,2.80881
623,421,6.19885,0.376648,0,0,0,0,0,0,0,-1,1847,603,6.19881,-0.376624
630,421,6.54993,0.778748,0,0,0,0,0,0,0,-1,1854,603,6.54991,-0.778744
637,421,3.74512,1.65405,0,0,0,0,0,0,0,-1,1861,603,3.74517,-1.65407
644,421,3.58081,0.354675,0,0,0,0,0,0,0,-1,1868,603,3.58082,-0.354704
651,421,3.28687,3.66351,0,0,0,0,0,0,0,-1,1875,603,3.28688,-3.66353
658,421,0,0,0,0,0,0,0,0,0,-1,1882,603,0,0
665,421,0,0,0,0,0,0,0,0,0,-1,1889,603,0,0
672,421,0,0,0,0,0,0,0,0,0,-1,1896,603,0,0
679,421,0,0,0,0,0,0,0,0,0,-1,1903,603,0,0
686,421,0,0,0,0,0,0,0,0,0,-1,1910,603,0,0
693,421,0,0,0,0,0,0,0,0,0,-1,1917,603,0,0
700,421,0,0,0,0,0,0,0,0,0,-1,1924,603,0,0
707,421,0,0,0,0,0,0,0,0,0,-1,1931,603,0,0
714,421,0,0,0,0,0,0,0,0,0,-1,1938,603,0,0
721,421,0,0,0,0,0,0,0,0,0,-1,1945,603,0,0
728,421,0,0,0,0,0,0,0,0,0,-1,1952,603,0,0
735,421,0,0,0,0,0,0,0,0,0,-1,1959,603,0,0
742,421,0,0,0,0,0,0,0,0,0,-1,1966,603,0,0
749,421,0,0,0,0,0,0,0,0,0,-1,1973,603,0,0
756,421,0,0,0,0,0,0,0,0,0,-1,1980,603,0,0
763,421,0,0,0,0,0,0,0,0,0,-1,1987,603,0,0
770,421,0,0,0,0,0,0,0,0,0,-1,1994,603,0,0
777,421,0,0,0,0,0,0,0,0,0,-1,2001,603,0,0
784,421,0,0,0,0,0,0,0,0,0,-1,2008,603,0,0
791,421,0,0,0,0,0,0,0,0,0,-1,2015,603,0,0
798,421,0,0,0,0,0,0,0,0,0,-1,2022,603,0,0
805,421,0,0,0,0,0,0,0,0,0,-1,2029,603,0,0
812,421,0,0,0,0,0,0,0,0,0,-1,2036,603,0,0
-700,414,0,0,0,0,0,0,0,0,0,-1,524,610,0,0
-693,414,0,0,0,0,0,0,0,0,0,-1,531,610,0,0
-686,414,0,0,0,0,0,0,0,0,0,-1,538,610,0,0
-679,414,0,0,0,0,0,0,0,0,0,-1,545,610,0,0
-672,414,0,0,0,0,0,0,0,0,0,-1,552,610,0,0
-665,414,0,0,0,0,0,0,0,0,0,-1,559,610,0,0
-658,414,0,0,0,0,0,0,0,0,0,-1,566,610,0,0
-651,414,0,0,0,0,0,0,0,0,0,-1,573,610,0,0
-644,414,0,0,0,0,0,0,0,0,0,-1,580,610,0,0
-637,414,0,0,0,0,0,0,0,0,0,-1,587,610,0,0
-630,414,0,0,0,0,0,0,0,0,0,-1,594,610,0,0
-623,414,0,0,0,0,0,0,0,0,0,-1,601,610,0,0
-616,414,0,0,0,0,0,0,0,0,0,-1,608,610,0,0
-609,414,0,0,0,0,0,0,0,0,0,-1,615,610,0,0
-602,414,0,0,0,0,0,0,0,0,0,-1,622,610,0,0
-595,414,0,0,0,0,0,0,0,0,0,-1,629,610,0,0
-588,414,0,0,0,0,0,0,0,0,0,-1,636,610,0,0
-581,414,0,0,0,0,0,0,0,0,0,-1,643,610,0,0
-574,414,0,0,0,0,0,0,0,0,0,-1,650,610,0,0
-567,414,0,0,0,0,0,0,0,0,0,-1,657,610,0,0
-560,414,0,0,0,0,0,0,0,0,0,-1,664,610,0,0
-553,414,0,0,0,0,0,0,0,0,0,-1,671,610,0,0
-546,414,0,0,0,0,0,0,0,0,0,-1,678,610,0,0
-539,414,-7.50146,5.65619,0,0,0,0,0,0,0,-1,685,610,-7.50149,-5.65617
-532,414,-8.15204,4.01605,0,0,0,0,0,0,0,-1,692,610,-8.15206,-4.01606
-525,414,-3.47137,-3.27924,0,0,0,0,0,0,0,-1,699,610,-3.47136,3.27922
-518,414,-4.12909,-4.36908,0,0,0,0,0,0,0,-1,706,610,-4.12909,4.36909
-511,414,-3.92542,-4.97021,0,0,0,0,0,0,0,-1,713,610,-3.92542,4.97023
-504,414,-1.62408,-3.64496,0,0,0,0,0,0,0,-1,720,610,-1.62406,3.64499
-497,414,-6.54138,-4.23993,0,0,0,0,0,0,0,-1,727,610,-6.54139,4.23995
-490,414,-6.49884,-4.61694,0,0,0,0,0,0,0,-1,734,610,-6.49883,4.61693
-483,414,-6.44177,-5.35657,-0.00387216,0.00286798,-0.00110415,0.00304424,-0.00404843,-1.41249,0.00410862,0.0308927,741,610,-6.44176,5.35659
-476,414,-6.5332,-5.83893,-0.00303098,0.00222981,-0.00112064,0.00245858,-0.00325975,-1.36942,0.00331226,0.0189242,748,610,-6.53318,5.83894
-469,414,-6.56689,-6.24829,-0.00217471,0.00180463,-0.00114148,0.00210882,-0.0024789,-1.31037,0.00265159,0.0126341,755,610,-6.56691,6.24827
-462,414,-6.55139,-6.68152,-0.00134961,0.00148402,-0.00113536,0.00188281,-0.00174839,-1.23302,0.00209695,0.0212002,762,610,-6.55139,6.68154
-455,414,-6.55219,-7.11761,-0.000686916,0.0011826,-0.00104672,0.0016512,-0.00115551,-1.14987,0.00162886,0.0244385,769,610,-6.55217,7.11764
-448,414,-6.54504,-7.54492,-0.000244899,0.000634515,-0.000678943,0.0010037,-0.000614084,-1.07275,0.000943014,0.0246856,776,610,-6.54503,7.54492
-441,414,-6.54773,-7.97168,-0.000121957,-6.77793e-05,-8.82922e-05,-2.51381e-06,-0.000187222,-0.934244,0.000123985,0.0175845,783,610,-6.54773,7.97166
-434,414,-6.57709,-8.39642,-0.000195915,-0.000767464,0.000601368,0.000184126,-0.00114751,0.56359,0.000833189,0.0102165,790,610,-6.57712,8.39641
-427,414,-6.59357,-8.78955,-0.000434782,-0.00170021,0.00145662,0.000520603,-0.00265559,0.580507,0.00196703,0.0105419,797,610,-6.59358,8.78955
-420,414,-6.57526,-9.18781,-0.000904113,-0.00276994,0.00247781,0.00081059,-0.00448465,0.605352,0.00329338,0.00986621,804,610,-6.57528,9.18778
-413,414,-6.5918,-9.61713,-0.0016229,-0.00400385,0.00371654,0.00108918,-0.00671593,0.630402,0.00488102,0.010253,811,610,-6.59177,9.61714
-406,414,-6.58441,-10.1223,-0.00263055,-0.00545663,0.00508943,0.00123836,-0.00932554,0.649988,0.00666825,0.0218374,818,610,-6.58443,10.1223
-399,414,-6.66211,-10.3807,-0.00377648,-0.00701284,0.00654487,0.00134728,-0.0121366,0.664206,0.00857552,0.0396975,825,610,-6.66213,10.3807
-392,414,-6.78687,-10.6094,-0.00513238,-0.00829001,0.00814184,0.00158231,-0.0150047,0.68963,0.0105701,0.0432494,832,610,-6.78684,10.6094
-385,414,-6.97919,-11.3155,0,0,0,0,0,0,0,-1,839,610,-6.97917,11.3155
-378,414,-7.13202,-10.0212,0,0,0,0,0,0,0,-1,846,610,-7.13205,10.0212
-371,414,-5.20886,-8.05151,0,0,0,0,0,0,0,-1,853,610,-5.20887,8.05153
-364,414,-6.76282,-6.58759,0,0,0,0,0,0,0,-1,860,610,-6.7628,6.58756
-357,414,-9.08685,-8.86188,0,0,0,0,0,0,0,-1,867,610,-9.08688,8.86187
-350,414,-6.4502,-2.41821,0,0,0,0,0,0,0,-1,874,610,-6.45021,2.41822
-343,414,-6.80249,-2.32117,0,0,0,0,0,0,0,-1,881,610,-6.80252,2.32116
-336,414,-7.11017,-2.52026,0,0,0,0,0,0,0,-1,888,610,-7.11016,2.52026
-329,414,-7.59747,-2.70313,0,0,0,0,0,0,0,-1,895,610,-7.59747,2.70315
-322,414,-4.42236,-1.29163,0,0,0,0,0,0,0,-1,902,610,-4.42238,1.2916
-315,414,0,0,0,0,0,0,0,0,0,-1,909,610,0,0
-308,414,0,0,0,0,0,0,0,0,0,-1,916,610,0,0
-301,414,0,0,0,0,0,0,0,0,0,-1,923,610,0,0
-294,414,0,0,0,0,0,0,0,0,0,-1,930,610,0,0
-287,414,0,0,0,0,0,0,0,0,0,-1,937,610,0,0
-280,414,0,0,0,0,0,0,0,0,0,-1,944,610,0,0
-273,414,0,0,0,0,0,0,0,0,0,-1,951,610,0,0
-266,414,0,0,0,0,0,0,0,0,0,-1,958,610,0,0
-259,414,0,0,0,0,0,0,0,0,0,-1,965,610,0,0
-252,414,0,0,0,0,0,0,0,0,0,-1,972,610,0,0
-245,414,0,0,0,0,0,0,0,0,0,-1,979,610,0,0
-238,414,0,0,0,0,0,0,0,0,0,-1,986,610,0,0
-231,414,0,0,0,0,0,0,0,0,0,-1,993,610,0,0
-224,414,0,0,0,0,0,0,0,0,0,-1,1000,610,0,0
-217,414,0,0,0,0,0,0,0,0,0,-1,1007,610,0,0
-210,414,0,0,0,0,0,0,0,0,0,-1,1014,610,0,0
-203,414,0,0,0,0,0,0,0,0,0,-1,1021,610,0,0
-196,414,0,0,0,0,0,0,0,0,0,-1,1028,610,0,0
-189,414,0,0,0,0,0,0,0,0,0,-1,1035,610,0,0
-182,414,0,0,0,0,0,0,0,0,0,-1,1042,610,0,0
-175,414,0,0,0,0,0,0,0,0,0,-1,1049,610,0,0
-168,414,0,0,0,0,0,0,0,0,0,-1,1056,610,0,0
-161,414,0,0,0,0,0,0,0,0,0,-1,1063,610,0,0
-154,414,0,0,0,0,0,0,0,0,0,-1,1070,610,0,0
-147,414,0,0,0,0,0,0,0,0,0,-1,1077,610,0,0
-140,414,0,0,0,0,0,0,0,0,0,-1,1084,610,0,0
-133,414,0,0,0,0,0,0,0,0,0,-1,1091,610,0,0
-126,414,0,0,0,0,0,0,0,0,0,-1,1098,610,0,0
-119,414,0,0,0,0,0,0,0,0,0,-1,1105,610,0,0
-112,414,0,0,0,0,0,0,0,0,0,-1,1112,610,0,0
-105,414,0,0,0,0,0,0,0,0,0,-1,1119,610,0,0
-98,414,0,0,0,0,0,0,0,0,0,-1,1126,610,0,0
-91,414,0,0,0,0,0,0,0,0,0,-1,1133,610,0,0
-84,414,0,0,0,0,0,0,0,0,0,-1,1140,610,0,0
-77,414,0,0,0,0,0,0,0,0,0,-1,1147,610,0,0
-70,414,0,0,0,0,0,0,0,0,0,-1,1154,610,0,0
-63,414,0,0,0,0,0,0,0,0,0,-1,1161,610,0,0
-56,414,0,0,0,0,0,0,0,0,0,-1,1168,610,0,0
-49,414,0,0,0,0,0,0,0,0,0,-1,1175,610,0,0
-42,414,0,0,0,0,0,0,0,0,0,-1,1182,610,0,0
-35,414,0,0,0,0,0,0,0,0,0,-1,1189,610,0,0
-28,414,0,0,0,0,0,0,0,0,0,-1,1196,610,0,0
-21,414,0,0,0,0,0,0,0,0,0,-1,1203,610,0,0
-14,414,0,0,0,0,0,0,0,0,0,-1,1210,610,0,0
-7,414,0,0,0,0,0,0,0,0,0,-1,1217,610,0,0
0,414,0,0,0,0,0,0,0,0,0,-1,1224,610,0,0
7,414,0,0,0,0,0,0,0,0,0,-1,1231,610,0,0
14,414,0,0,0,0,0,0,0,0,0,-1,1238,610,0,0
21,414,0,0,0,0,0,0,0,0,0,-1,1245,610,0,0
28,414,0,0,0,0,0,0,0,0,0,-1,1252,610,0,0
35,414,0,0,0,0,0,0,0,0,0,-1,1259,610,0,0
42,414,0,0,0,0,0,0,0,0,0,-1,1266,610,0,0
49,414,0,0,0,0,0,0,0,0,0,-1,1273,610,0,0
56,414,0,0,0,0,0,0,0,0,0,-1,1280,610,0,0
63,414,0,0,0,0,0,0,0,0,0,-1,1287,610,0,0
70,414,0,0,0,0,0,0,0,0,0,-1,1294,610,0,0
77,414,0,0,0,0,0,0,0,0,0,-1,1301,610,0,0
84,414,0,0,0,0,0,0,0,0,0,-1,1308,610,0,0
91,414,0,0,0,0,0,0,0,0,0,-1,1315,610,0,0
98,414,0,0,0,0,0,0,0,0,0,-1,1322,610,0,0
105,414,0,0,0,0,0,0,0,0,0,-1,1329,610,0,0
112,414,0,0,0,0,0,0,0,0,0,-1,1336,610,0,0
119,414,0,0,0,0,0,0,0,0,0,-1,1343,610,0,0
126,414,0,0,0,0,0,0,0,0,0,-1,1350,610,0,0
133,414,0,0,0,0,0,0,0,0,0,-1,1357,610,0,0
140,414,0,0,0,0,0,0,0,0,0,-1,1364,610,0,0
147,414,0,0,0,0,0,0,0,0,0,-1,1371,610,0,0
154,414,0,0,0,0,0,0,0,0,0,-1,1378,610,0,0
161,414,0,0,0,0,0,0,0,0,0,-1,1385,610,0,0
168,414,0,0,0,0,0,0,0,0,0,-1,1392,610,0,0
175,414,0,0,0,0,0,0,0,0,0,-1,1399,610,0,0
182,414,0,0,0,0,0,0,0,0,0,-1,1406,610,0,0
189,414,0,0,0,0,0,0,0,0,0,-1,1413,610,0,0
196,414,0,0,0,0,0,0,0,0,0,-1,1420,610,0,0
203,414,0,0,0,0,0,0,0,0,0,-1,1427,610,0,0
210,414,0,0,0,0,0,0,0,0,0,-1,1434,610,0,0
217,414,0,0,0,0,0,0,0,0,0,-1,1441,610,0,0
224,414,0,0,0,0,0,0,0,0,0,-1,1448,610,0,0
231,414,0,0,0,0,0,0,0,0,0,-1,1455,610,0,0
238,414,0,0,0,0,0,0,0,0,0,-1,1462,610,0,0
245,414,0,0,0,0,0,0,0,0,0,-1,1469,610,0,0
252,414,0,0,0,0,0,0,0,0,0,-1,1476,610,0,0
259,414,0,0,0,0,0,0,0,0,0,-1,1483,610,0,0
266,414,0,0,0,0,0,0,0,0,0,-1,1490,610,0,0
273,414,0,0,0,0,0,0,0,0,0,-1,1497,610,0,0
280,414,0,0,0,0,0,0,0,0,0,-1,1504,610,0,0
287,414,0,0,0,0,0,0,0,0,0,-1,1511,610,0,0
294,414,0,0,0,0,0,0,0,0,0,-1,1518,610,0,0
301,414,0,0,0,0,0,0,0,0,0,-1,1525,610,0,0
308,414,0,0,0,0,0,0,0,0,0,-1,1532,610,0,0
315,414,0,0,0,0,0,0,0,0,0,-1,1539,610,0,0
322,414,0,0,0,0,0,0,0,0,0,-1,1546,610,0,0
329,414,0,0,0,0,0,0,0,0,0,-1,1553,610,0,0
336,414,0,0,0,0,0,0,0,0,0,-1,1560,610,0,0
343,414,0,0,0,0,0,0,0,0,0,-1,1567,610,0,0
350,414,0,0,0,0,0,0,0,0,0,-1,1574,610,0,0
357,414,0,0,0,0,0,0,0,0,0,-1,1581,610,0,0
364,414,0,0,0,0,0,0,0,0,0,-1,1588,610,0,0
371,414,0,0,0,0,0,0,0,0,0,-1,1595,610,0,0
378,414,0,0,0,0,0,0,0,0,0,-1,1602,610,0,0
385,414,0,0,0,0,0,0,0,0,0,-1,1609,610,0,0
392,414,0,0,0,0,0,0,0,0,0,-1,1616,610,0,0
399,414,0,0,0,0,0,0,0,0,0,-1,1623,610,0,0
406,414,0,0,0,0,0,0,0,0,0,-1,1630,610,0,0
413,414,0,0,0,0,0,0,0,0,0,-1,1637,610,0,0
420,414,0,0,0,0,0,0,0,0,0,-1,1644,610,0,0
427,414,0,0,0,0,0,0,0,0,0,-1,1651,610,0,0
434,414,0,0,0,0,0,0,0,0,0,-1,1658,610,0,0
441,414,7.84375,0.584412,0,0,0,0,0,0,0,-1,1665,610,7.84379,-0.584394
448,414,7.40808,1.25446,0,0,0,0,0,0,0,-1,1672,610,7.40807,-1.25446
455,414,6.3512,1.73846,0,0,0,0,0,0,0,-1,1679,610,6.3512,-1.73847
462,414,8.18103,3.22113,0,0,0,0,0,0,0,-1,1686,610,8.18108,-3.22112
469,414,8.38513,2.49579,0,0,0,0,0,0,0,-1,1693,610,8.38516,-2.49576
476,414,8.64099,1.71161,0,0,0,0,0,0,0,-1,1700,610,8.64097,-1.71164
483,414,8.62744,0.687622,0,0,0,0,0,0,0,-1,1707,610,8.62749,-0.687615
490,414,8.38831,-0.0302734,0,0,0,0,0,0,0,-1,1714,610,8.38835,0.0302913
497,414,4.71094,-0.110046,0,0,0,0,0,0,0,-1,1721,610,4.71089,0.110024
504,414,7.19568,-1.43835,0,0,0,0,0,0,0,-1,1728,610,7.19563,1.43836
511,414,5.94153,-1.28772,0,0,0,0,0,0,0,-1,1735,610,5.94151,1.28769
518,414,4.53381,-0.0996704,0,0,0,0,0,0,0,-1,1742,610,4.53378,0.0996819
525,414,6.18811,-1.64056,0,0,0,0,0,0,0,-1,1749,610,6.18814,1.64055
532,414,14.4597,-8.64221,0,0,0,0,0,0,0,-1,1756,610,14.4598,8.64221
539,414,14.5315,-8.10309,0.00110513,0.00243811,0.000550131,0.00263583,0.000907412,1.22577,0.00154621,0.0470416,1763,610,14.5315,8.10312
546,414,14.5497,-7.57373,0.000690778,0.00185842,0.000212166,0.00189578,0.000653422,1.39651,0.00111199,0.0137477,1770,610,14.5496,7.57373
553,414,14.5537,-7.14185,0.000381473,0.001269,-2.96387e-05,0.00126999,0.000380485,-1.53745,0.000752604,0.0120062,1777,610,14.5537,7.14187
560,414,14.5616,-6.68793,5.77502e-05,0.000886705,-0.00015909,0.000916188,2.8267e-05,-1.38755,0.000601591,0.0148548,1784,610,14.5617,6.68795
567,414,14.5441,-6.23834,-0.000215672,0.000706913,-0.000108742,0.000719556,-0.000228316,-1.45504,0.000571227,0.0246812,1791,610,14.544,6.23836
574,414,14.5177,-5.80731,-0.000373225,0.00067649,8.70383e-05,0.000683658,-0.000380393,1.48863,0.000622591,0.0213119,1798,610,14.5177,5.80731
581,414,14.5193,-5.34241,-0.000486963,0.000784274,0.00038094,0.000889686,-0.000592375,1.30084,0.000861388,0.0157396,1805,610,14.5193,5.34242
588,414,14.4927,-4.93585,-0.00059821,0.00107009,0.000760777,0.00136492,-0.000893037,1.20108,0.00131308,0.0156464,1812,610,14.4926,4.93587
595,414,14.4727,-4.44714,-0.000554341,0.00160523,0.0013379,0.00224472,-0.00119383,1.12492,0.00201592,0.0212947,1819,610,14.4726,4.44714
602,414,14.4648,-3.96973,-0.000423413,0.00240606,0.00206031,0.00349059,-0.00150795,1.08626,0.00296062,0.0232385,1826,610,14.4648,3.96971
609,414,14.3887,-3.54871,-0.000135172,0.00340751,0.00297621,0.00509962,-0.00182728,1.05383,0.00414534,0.0226502,1833,610,14.3887,3.5487
616,414,14.7035,-2.87231,0,0,0,0,0,0,0,-1,1840,610,14.7035,2.87228
623,414,9.6969,0.0378418,0,0,0,0,0,0,0,-1,1847,610,9.69685,-0.0378644
630,414,5.47144,0.499329,0,0,0,0,0,0,0,-1,1854,610,5.47142,-0.499303
637,414,8.36707,4.16278,0,0,0,0,0,0,0,-1,1861,610,8.36709,-4.16278
644,414,5.87073,1.51422,0,0,0,0,0,0,0,-1,1868,610,5.87076,-1.51424
651,414,3.6377,0.820557,0,0,0,0,0,0,0,-1,1875,610,3.6377,-0.820543
658,414,2.29761,3.87323,0,0,0,0,0,0,0,-1,1882,610,2.29758,-3.87325
665,414,0,0,0,0,0,0,0,0,0,-1,1889,610,0,0
672,414,0,0,0,0,0,0,0,0,0,-1,1896,610,0,0
679,414,0,0,0,0,0,0,0,0,0,-1,1903,610,0,0
686,414,0,0,0,0,0,0,0,0,0,-1,1910,610,0,0
693,414,0,0,0,0,0,0,0,0,0,-1,1917,610,0,0
700,414,0,0,0,0,0,0,0,0,0,-1,1924,610,0,0
707,414,0,0,0,0,0,0,0,0,0,-1,1931,610,0,0
714,414,0,0,0,0,0,0,0,0,0,-1,1938,610,0,0
721,414,0,0,0,0,0,0,0,0,0,-1,1945,610,0,0
728,414,0,0,0,0,0,0,0,0,0,-1,1952,610,0,0
735,414,0,0,0,0,0,0,0,0,0,-1,1959,610,0,0
742,414,0,0,0,0,0,0,0,0,0,-1,1966,610,0,0
749,414,0,0,0,0,0,0,0,0,0,-1,1973,610,0,0
756,414,0,0,0,0,0,0,0,0,0,-1,1980,610,0,0
763,414,0,0,0,0,0,0,0,0,0,-1,1987,610,0,0
770,414,0,0,0,0,0,0,0,0,0,-1,1994,610,0,0
777,414,0,0,0,0,0,0,0,0,0,-1,2001,610,0,0
784,414,0,0,0,0,0,0,0,0,0,-1,2008,610,0,0
791,414,0,0,0,0,0,0,0,0,0,-1,2015,610,0,0
798,414,0,0,0,0,0,0,0,0,0,-1,2022,610,0,0
805,414,0,0,0,0,0,0,0,0,0,-1,2029,610,0,0
812,414,0,0,0,0,0,0,0,0,0,-1,2036,610,0,0
-700,407,0,0,0,0,0,0,0,0,0,-1,524,617,0,0
-693,407,0,0,0,0,0,0,0,0,0,-1,531,617,0,0
-686,407,0,0,0,0,0,0,0,0,0,-1,538,617,0,0
-679,407,0,0,0,0,0,0,0,0,0,-1,545,617,0,0
-672,407,0,0,0,0,0,0,0,0,0,-1,552,617,0,0
-665,407,0,0,0,0,0,0,0,0,0,-1,559,617,0,0
-658,407,0,0,0,0,0,0,0,0,0,-1,566,617,0,0
-651,407,0,0,0,0,0,0,0,0,0,-1,573,617,0,0
-644,407,0,0,0,0,0,0,0,0,0,-1,580,617,0,0
-637,407,0,0,0,0,0,0,0,0,0,-1,587,617,0,0
-630,407,0,0,0,0,0,0,0,0,0,-1,594,617,0,0
-623,407,0,0,0,0,0,0,0,0,0,-1,601,617,0,0
-616,407,0,0,0,0,0,0,0,0,0,-1,608,617,0,0
-609,407,0,0,0,0,0,0,0,0,0,-1,615,617,0,0
-602,407,0,0,0,0,0,0,0,0,0,-1,622,617,0,0
-595,407,0,0,0,0,0,0,0,0,0,-1,629,617,0,0
-588,407,0,0,0,0,0,0,0,0,0,-1,636,617,0,0
-581,407,0,0,0,0,0,0,0,0,0,-1,643,617,0,0
-574,407,0,0,0,0,0,0,0,0,0,-1,650,617,0,0
-567,407,0,0,0,0,0,0,0,0,0,-1,657,617,0,0
-560,407,0,0,0,0,0,0,0,0,0,-1,664,617,0,0
-553,407,0,0,0,0,0,0,0,0,0,-1,671,617,0,0
-546,407,-8.54517,-0.658142,0,0,0,0,0,0,0,-1,678,617,-8.54515,0.658112
-539,407,-6.09442,-1.01154,0,0,0,0,0,0,0,-1,685,617,-6.09441,1.01155
-532,407,-7.75665,1.62152,0,0,0,0,0,0,0,-1,692,617,-7.75667,-1.62154
-525,407,-3.78247,-2.67639,0,0,0,0,0,0,0,-1,699,617,-3.78246,2.67638
-518,407,-5.013,-5.87323,0,0,0,0,0,0,0,-1,706,617,-5.013,5.87324
-511,407,-4.26392,-4.37659,0,0,0,0,0,0,0,-1,713,617,-4.26393,4.37658
-504,407,-6.8407,-3.84259,0,0,0,0,0,0,0,-1,720,617,-6.84067,3.84258
-497,407,-6.8316,-4.37555,0,0,0,0,0,0,0,-1,727,617,-6.8316,4.37558
-490,407,-6.84448,-4.89532,-0.00381934,0.00350651,-0.000605801,0.00355627,-0.0038691,-1.48884,0.0042883,0.0355235,734,617,-6.84446,4.89535
-483,407,-6.84229,-5.34637,-0.00296358,0.00251404,-0.000741916,0.00261275,-0.00306229,-1.43853,0.00327991,0.0229516,741,617,-6.84226,5.34638
-476,407,-6.92047,-5.77679,-0.00217924,0.00186905,-0.000845081,0.00203838,-0.00234857,-1.37305,0.00253491,0.0142638,748,617,-6.92046,5.77677
-469,407,-6.9519,-6.23615,-0.00139772,0.00144975,-0.000955336,0.00174057,-0.00168853,-1.2753,0.00197987,0.0126189,755,617,-6.95193,6.23615
-462,407,-6.96802,-6.6427,-0.000657512,0.00112645,-0.000989603,0.00156674,-0.0010978,-1.15218,0.00154629,0.0199726,762,617,-6.968,6.64269
-455,407,-6.97925,-7.08606,-0.000102266,0.000769586,-0.000866711,0.00130382,-0.000636504,-1.01841,0.00114212,0.0225962,769,617,-6.97927,7.08604
-448,407,-6.96246,-7.5434,0.000259288,0.000239502,-0.000505434,0.000754926,-0.000256136,-0.775612,0.000606954,0.020245,776,617,-6.96247,7.5434
-441,407,-6.97644,-7.9339,0.000273573,-0.000470513,0.000110831,0.00028973,-0.00048667,0.144764,0.000453036,0.0149219,783,617,-6.97642,7.93388
-434,407,-7.00226,-8.33417,8.46199e-05,-0.00119866,0.000848478,0.000506754,-0.0016208,0.461661,0.00128325,0.0106298,790,617,-7.00225,8.33419
-427,407,-7.0127,-8.7583,-0.000334912,-0.00221745,0.00180421,0.000758804,-0.00331117,0.544967,0.00249908,0.01069,797,617,-7.01271,8.75828
-420,407,-6.97339,-9.164,-0.00105985,-0.00348653,0.00302452,0.00098563,-0.00553201,0.594642,0.00405666,0.00945241,804,617,-6.97338,9.16401
-413,407,-6.97662,-9.5791,-0.00209619,-0.00497923,0.00454247,0.001228,-0.00830342,0.631753,0.00598707,0.011888,811,617,-6.97662,9.57912
-406,407,-7.0578,-9.88989,-0.00362739,-0.00689899,0.00633985,0.0012843,-0.0118107,0.659143,0.00833493,0.0324849,818,617,-7.05783,9.88986
-399,407,-7.29065,-10.3802,0,0,0,0,0,0,0,-1,825,617,-7.29062,10.3802
-392,407,-7.16266,-10.6401,0,0,0,0,0,0,0,-1,832,617,-7.16269,10.6401
-385,407,-6.52484,-9.43811,0,0,0,0,0,0,0,-1,839,617,-6.52486,9.43812
-378,407,-6.08655,-7.42291,0,0,0,0,0,0,0,-1,846,617,-6.08652,7.42292
-371,407,-7.4007,-5.79449,0,0,0,0,0,0,0,-1,853,617,-7.40072,5.79447
-364,407,-10.0638,-6.6228,0,0,0,0,0,0,0,-1,860,617,-10.0639,6.62279
-357,407,-6.64447,-1.83337,0,0,0,0,0,0,0,-1,867,617,-6.64446,1.8334
-350,407,-7.03351,-1.77551,0,0,0,0,0,0,0,-1,874,617,-7.03349,1.77551
-343,407,-7.40967,-1.95026,0,0,0,0,0,0,0,-1,881,617,-7.40969,1.95026
-336,407,-8.10229,-2.40662,0,0,0,0,0,0,0,-1,888,617,-8.10229,2.40664
-329,407,-8.81232,-2.76331,0,0,0,0,0,0,0,-1,895,617,-8.81235,2.76331
-322,407,0,0,0,0,0,0,0,0,0,-1,902,617,0,0
-315,407,0,0,0,0,0,0,0,0,0,-1,909,617,0,0
-308,407,0,0,0,0,0,0,0,0,0,-1,916,617,0,0
-301,407,0,0,0,0,0,0,0,0,0,-1,923,617,0,0
-294,407,0,0,0,0,0,0,0,0,0,-1,930,617,0,0
-287,407,0,0,0,0,0,0,0,0,0,-1,937,617,0,0
-280,407,0,0,0,0,0,0,0,0,0,-1,944,617,0,0
-273,407,0,0,0,0,0,0,0,0,0,-1,951,617,0,0
-266,407,0,0,0,0,0,0,0,0,0,-1,958,617,0,0
-259,407,0,0,0,0,0,0,0,0,0,-1,965,617,0,0
-252,407,0,0,0,0,0,0,0,0,0,-1,972,617,0,0
-245,407,0,0,0,0,0,0,0,0,0,-1,979,617,0,0
-238,407,0,0,0,0,0,0,0,0,0,-1,986,617,0,0
-231,407,0,0,0,0,0,0,0,0,0,-1,993,617,0,0
-224,407,0,0,0,0,0,0,0,0,0,-1,1000,617,0,0
-217,407,0,0,0,0,0,0,0,0,0,-1,1007,617,0,0
-210,407,0,0,0,0,0,0,0,0,0,-1,1014,617,0,0
-203,407,0,0,0,0,0,0,0,0,0,-1,1021,617,0,0
-196,407,0,0,0,0,0,0,0,0,0,-1,1028,617,0,0
-189,407,0,0,0,0,0,0,0,0,0,-1,1035,617,0,0
-182,407,0,0,0,0,0,0,0,0,0,-1,1042,617,0,0
-175,407,0,0,0,0,0,0,0,0,0,-1,1049,617,0,0
-168,407,0,0,0,0,0,0,0,0,0,-1,1056,617,0,0
-161,407,0,0,0,0,0,0,0,0,0,-1,1063,617,0,0
-154,407,0,0,0,0,0,0,0,0,0,-1,1070,617,0,0
-147,407,0,0,0,0,0,0,0,0,0,-1,1077,617,0,0
-140,407,0,0,0,0,0,0,0,0,0,-1,1084,617,0,0
-133,407,0,0,0,0,0,0,0,0,0,-1,1091,617,0,0
-126,407,0,0,0,0,0,0,0,0,0,-1,1098,617,0,0
-119,407,0,0,0,0,0,0,0,0,0,-1,1105,617,0,0
-112,407,0,0,0,0,0,0,0,0,0,-1,1112,617,0,0
-105,407,0,0,0,0,0,0,0,0,0,-1,1119,617,0,0
-98,407,0,0,0,0,0,0,0,0,0,-1,1126,617,0,0
-91,407,0,0,0,0,0,0,0,0,0,-1,1133,617,0,0
-84,407,0,0,0,0,0,0,0,0,0,-1,1140,617,0,0
-77,407,0,0,0,0,0,0,0,0,0,-1,1147,617,0,0
-70,407,0,0,0,0,0,0,0,0,0,-1,1154,617,0,0
-63,407,0,0,0,0,0,0,0,0,0,-1,1161,617,0,0
-56,407,0,0,0,0,0,0,0,0,0,-1,1168,617,0,0
-49,407,0,0,0,0,0,0,0,0,0,-1,1175,617,0,0
-42,407,0,0,0,0,0,0,0,0,0,-1,1182,617,0,0
-35,407,0,0,0,0,0,0,0,0,0,-1,1189,617,0,0
-28,407,0,0,0,0,0,0,0,0,0,-1,1196,617,0,0
-21,407,0,0,0,0,0,0,0,0,0,-1,1203,617,0,0
-14,407,0,0,0,0,0,0,0,0,0,-1,1210,617,0,0
-7,407,0,0,0,0,0,0,0,0,0,-1,1217,617,0,0
0,407,0,0,0,0,0,0,0,0,0,-1,1224,617,0,0
7,407,0,0,0,0,0,0,0,0,0,-1,1231,617,0,0
14,407,0,0,0,0,0,0,0,0,0,-1,1238,617,0,0
21,407,0,0,0,0,0,0,0,0,0,-1,1245,617,0,0
28,407,0,0,0,0,0,0,0,0,0,-1,1252,617,0,0
35,407,0,0,0,0,0,0,0,0,0,-1,1259,617,0,0
42,407,0,0,0,0,0,0,0,0,0,-1,1266,617,0,0
49,407,0,0,0,0,0,0,0,0,0,-1,1273,617,0,0
56,407,0,0,0,0,0,0,0,0,0,-1,1280,617,0,0
63,407,0,0,0,0,0,0,0,0,0,-1,1287,617,0,0
70,407,0,0,0,0,0,0,0,0,0,-1,1294,617,0,0
77,407,0,0,0,0,0,0,0,0,0,-1,1301,617,0,0
84,407,0,0,0,0,0,0,0,0,0,-1,1308,617,0,0
91,407,0,0,0,0,0,0,0,0,0,-1,1315,617,0,0
98,407,0,0,0,0,0,0,0,0,0,-1,1322,617,0,0
105,407,0,0,0,0,0,0,0,0,0,-1,1329,617,0,0
112,407,0,0,0,0,0,0,0,0,0,-1,1336,617,0,0
119,407,0,0,0,0,0,0,0,0,0,-1,1343,617,0,0
126,407,0,0,0,0,0,0,0,0,0,-1,1350,617,0,0
133,407,0,0,0,0,0,0,0,0,0,-1,1357,617,0,0
140,407,0,0,0,0,0,0,0,0,0,-1,1364,617,0,0
147,407,0,0,0,0,0,0,0,0,0,-1,1371,617,0,0
154,407,0,0,0,0,0,0,0,0,0,-1,1378,617,0,0
161,407,0,0,0,0,0,0,0,0,0,-1,1385,617,0,0
168,407,0,0,0,0,0,0,0,0,0,-1,1392,617,0,0
175,407,0,0,0,0,0,0,0,0,0,-1,1399,617,0,0
182,407,0,0,0,0,0,0,0,0,0,-1,1406,617,0,0
189,407,0,0,0,0,0,0,0,0,0,-1,1413,617,0,0
196,407,0,0,0,0,0,0,0,0,0,-1,1420,617,0,0
203,407,0,0,0,0,0,0,0,0,0,-1,1427,617,0,0
210,407,0,0,0,0,0,0,0,0,0,-1,1434,617,0,0
217,407,0,0,0,0,0,0,0,0,0,-1,1441,617,0,0
224,407,0,0,0,0,0,0,0,0,0,-1,1448,617,0,0
231,407,0,0,0,0,0,0,0,0,0,-1,1455,617,0,0
238,407,0,0,0,0,0,0,0,0,0,-1,1462,617,0,0
245,407,0,0,0,0,0,0,0,0,0,-1,1469,617,0,0
252,407,0,0,0,0,0,0,0,0,0,-1,1476,617,0,0
259,407,0,0,0,0,0,0,0,0,0,-1,1483,617,0,0
266,407,0,0,0,0,0,0,0,0,0,-1,1490,617,0,0
273,407,0,0,0,0,0,0,0,0,0,-1,1497,617,0,0
280,407,0,0,0,0,0,0,0,0,0,-1,1504,617,0,0
287,407,0,0,0,0,0,0,0,0,0,-1,1511,617,0,0
294,407,0,0,0,0,0,0,0,0,0,-1,1518,617,0,0
301,407,0,0,0,0,0,0,0,0,0,-1,1525,617,0,0
308,407,0,0,0,0,0,0,0,0,0,-1,1532,617,0,0
315,407,0,0,0,0,0,0,0,0,0,-1,1539,617,0,0
322,407,0,0,0,0,0,0,0,0,0,-1,1546,617,0,0
329,407,0,0,0,0,0,0,0,0,0,-1,1553,617,0,0
336,407,0,0,0,0,0,0,0,0,0,-1,1560,617,0,0
343,407,0,0,0,0,0,0,0,0,0,-1,1567,617,0,0
350,407,0,0,0,0,0,0,0,0,0,-1,1574,617,0,0
357,407,0,0,0,0,0,0,0,0,0,-1,1581,617,0,0
364,407,0,0,0,0,0,0,0,0,0,-1,1588,617,0,0
371,407,0,0,0,0,0,0,0,0,0,-1,1595,617,0,0
378,407,0,0,0,0,0,0,0,0,0,-1,1602,617,0,0
385,407,0,0,0,0,0,0,0,0,0,-1,1609,617,0,0
392,407,0,0,0,0,0,0,0,0,0,-1,1616,617,0,0
399,407,0,0,0,0,0,0,0,0,0,-1,1623,617,0,0
406,407,0,0,0,0,0,0,0,0,0,-1,1630,617,0,0
413,407,0,0,0,0,0,0,0,0,0,-1,1637,617,0,0
420,407,0,0,0,0,0,0,0,0,0,-1,1644,617,0,0
427,407,0,0,0,0,0,0,0,0,0,-1,1651,617,0,0
434,407,0,0,0,0,0,0,0,0,0,-1,1658,617,0,0
441,407,0,0,0,0,0,0,0,0,0,-1,1665,617,0,0
448,407,7.02893,2.13843,0,0,0,0,0,0,0,-1,1672,617,7.02899,-2.13844
455,407,7.55237,2.29242,0,0,0,0,0,0,0,-1,1679,617,7.55236,-2.29244
462,407,8.2926,2.46173,0,0,0,0,0,0,0,-1,1686,617,8.29261,-2.46174
469,407,8.71509,2.22681,0,0,0,0,0,0,0,-1,1693,617,8.71511,-2.22681
476,407,8.89917,1.47766,0,0,0,0,0,0,0,-1,1700,617,8.89914,-1.47768
483,407,9.02612,0.682983,0,0,0,0,0,0,0,-1,1707,617,9.02608,-0.683004
490,407,9.12659,0.000671387,0,0,0,0,0,0,0,-1,1714,617,9.12653,-0.000675931
497,407,7.76819,0.855835,0,0,0,0,0,0,0,-1,1721,617,7.7682,-0.855865
504,407,4.69336,0.160706,0,0,0,0,0,0,0,-1,1728,617,4.69337,-0.1607
511,407,4.07104,-0.00140381,0,0,0,0,0,0,0,-1,1735,617,4.07109,0.00141425
518,407,6.09534,1.9411,0,0,0,0,0,0,0,-1,1742,617,6.09532,-1.94113
525,407,5.72534,-1.35986,0,0,0,0,0,0,0,-1,1749,617,5.72529,1.35988
532,407,14.8495,-7.98273,0,0,0,0,0,0,0,-1,1756,617,14.8495,7.98273
539,407,14.8551,-8.19397,0,0,0,0,0,0,0,-1,1763,617,14.8551,8.194
546,407,14.9927,-7.55035,-4.67402e-05,0.00212778,-0.00019097,0.00214442,-6.33843e-05,-1.48386,0.0014512,0.019477,1770,617,14.9927,7.55036
553,407,14.9806,-7.13336,-0.000147943,0.0014576,-0.000378271,0.00154225,-0.000232601,-1.35062,0.00111383,0.0149441,1777,617,14.9806,7.13339
560,407,14.9945,-6.66974,-0.000265074,0.00100547,-0.000455464,0.00115187,-0.000411479,-1.25979,0.000935734,0.0171758,1784,617,14.9945,6.66973
567,407,14.9747,-6.20599,-0.000379904,0.00078456,-0.000352713,0.000883064,-0.000478407,-1.29846,0.000797535,0.0304343,1791,617,14.9747,6.20597
574,407,14.9673,-5.78546,-0.000381519,0.000744582,-9.84652e-05,0.000753127,-0.000390064,-1.48423,0.000671025,0.0245955,1798,617,14.9673,5.78546
581,407,14.9312,-5.33716,-0.000350498,0.000854996,0.000241881,0.000901718,-0.00039722,1.37998,0.000768565,0.0173011,1805,617,14.9311,5.33717
588,407,14.9187,-4.90753,-0.000343909,0.00112864,0.000630361,0.00136162,-0.000576889,1.21677,0.00114936,0.0126417,1812,617,14.9187,4.90756
595,407,14.9354,-4.45618,-0.000173844,0.00160837,0.00118845,0.00220269,-0.000768162,1.10709,0.00178063,0.02405,1819,617,14.9354,4.4562
602,407,14.9229,-3.96912,7.01609e-05,0.00231724,0.00187423,0.0033789,-0.000991495,1.05541,0.00264577,0.0186165,1826,617,14.9229,3.96912
609,407,14.879,-3.49945,0.000273092,0.00319887,0.00262692,0.00474276,-0.0012708,1.03945,0.00365974,0.0157502,1833,617,14.8791,3.49946
616,407,14.9545,-2.94653,0.000355953,0.00424063,0.00328214,0.00611209,-0.00151551,1.05258,0.00466273,0.0291442,1840,617,14.9545,2.94653
623,407,15.2262,-2.30048,0,0,0,0,0,0,0,-1,1847,617,15.2262,2.30051
630,407,7.06177,0.814575,0,0,0,0,0,0,0,-1,1854,617,7.06178,-0.814579
637,407,8.31836,0.89624,0,0,0,0,0,0,0,-1,1861,617,8.31833,-0.896219
644,407,5.09766,2.27747,0,0,0,0,0,0,0,-1,1868,617,5.09764,-2.27746
651,407,7.37524,0.0513916,0,0,0,0,0,0,0,-1,1875,617,7.3752,-0.0513923
658,407,3.76685,0.594177,0,0,0,0,0,0,0,-1,1882,617,3.76683,-0.594184
665,407,5.76123,0.375061,0,0,0,0,0,0,0,-1,1889,617,5.76118,-0.37509
672,407,0,0,0,0,0,0,0,0,0,-1,1896,617,0,0
679,407,0,0,0,0,0,0,0,0,0,-1,1903,617,0,0
686,407,0,0,0,0,0,0,0,0,0,-1,1910,617,0,0
693,407,0,0,0,0,0,0,0,0,0,-1,1917,617,0,0
700,407,0,0,0,0,0,0,0,0,0,-1,1924,617,0,0
707,407,0,0,0,0,0,0,0,0,0,-1,1931,617,0,0
714,407,0,0,0,0,0,0,0,0,0,-1,1938,617,0,0
721,407,0,0,0,0,0,0,0,0,0,-1,1945,617,0,0
728,407,0,0,0,0,0,0,0,0,0,-1,1952,617,0,0
735,407,0,0,0,0,0,0,0,0,0,-1,1959,617,0,0
742,407,0,0,0,0,0,0,0,0,0,-1,1966,617,0,0
749,407,0,0,0,0,0,0,0,0,0,-1,1973,617,0,0
756,407,0,0,0,0,0,0,0,0,0,-1,1980,617,0,0
763,407,0,0,0,0,0,0,0,0,0,-1,1987,617,0,0
770,407,0,0,0,0,0,0,0,0,0,-1,1994,617,0,0
777,407,0,0,0,0,0,0,0,0,0,-1,2001,617,0,0
784,407,0,0,0,0,0,0,0,0,0,-1,2008,617,0,0
791,407,0,0,0,0,0,0,0,0,0,-1,2015,617,0,0
798,407,0,0,0,0,0,0,0,0,0,-1,2022,617,0,0
805,407,0,0,0,0,0,0,0,0,0,-1,2029,617,0,0
812,407,0,0,0,0,0,0,0,0,0,-1,2036,617,0,0
-700,400,0,0,0,0,0,0,0,0,0,-1,524,624,0,0
-693,400,0,0,0,0,0,0,0,0,0,-1,531,624,0,0
-686,400,0,0,0,0,0,0,0,0,0,-1,538,624,0,0
-679,400,0,0,0,0,0,0,0,0,0,-1,545,624,0,0
-672,400,0,0,0,0,0,0,0,0,0,-1,552,624,0,0
-665,400,0,0,0,0,0,0,0,0,0,-1,559,624,0,0
-658,400,0,0,0,0,0,0,0,0,0,-1,566,624,0,0
-651,400,0,0,0,0,0,0,0,0,0,-1,573,624,0,0
-644,400,0,0,0,0,0,0,0,0,0,-1,580,624,0,0
-637,400,0,0,0,0,0,0,0,0,0,-1,587,624,0,0
-630,400,0,0,0,0,0,0,0,0,0,-1,594,624,0,0
-623,400,0,0,0,0,0,0,0,0,0,-1,601,624,0,0
-616,400,0,0,0,0,0,0,0,0,0,-1,608,624,0,0
-609,400,0,0,0,0,0,0,0,0,0,-1,615,624,0,0
-602,400,0,0,0,0,0,0,0,0,0,-1,622,624,0,0
-595,400,0,0,0,0,0,0,0,0,0,-1,629,624,0,0
-588,400,0,0,0,0,0,0,0,0,0,-1,636,624,0,0
-581,400,0,0,0,0,0,0,0,0,0,-1,643,624,0,0
-574,400,0,0,0,0,0,0,0,0,0,-1,650,624,0,0
-567,400,0,0,0,0,0,0,0,0,0,-1,657,624,0,0
-560,400,0,0,0,0,0,0,0,0,0,-1,664,624,0,0
-553,400,0,0,0,0,0,0,0,0,0,-1,671,624,0,0
-546,400,-8.41174,-1.4599,0,0,0,0,0,0,0,-1,678,624,-8.41173,1.45989
-539,400,-5.69104,-1.7337,0,0,0,0,0,0,0,-1,685,624,-5.69103,1.7337
-532,400,-3.03632,-2.03912,0,0,0,0,0,0,0,-1,692,624,-3.03632,2.03909
-525,400,-6.20813,-7.04071,0,0,0,0,0,0,0,-1,699,624,-6.20814,7.04071
-518,400,-5.26544,-1.58661,0,0,0,0,0,0,0,-1,706,624,-5.26544,1.58658
-511,400,-5.82935,-5.19202,0,0,0,0,0,0,0,-1,713,624,-5.82936,5.19201
-504,400,-7.32031,-4.03992,0,0,0,0,0,0,0,-1,720,624,-7.32033,4.03994
-497,400,-7.12183,-4.51123,0,0,0,0,0,0,0,-1,727,624,-7.12182,4.51121
-490,400,-7.2901,-4.85736,-0.00299792,0.00295318,-0.000185243,0.00295894,-0.00300368,-1.53971,0.00344255,0.0208672,734,624,-7.29012,4.85737
-483,400,-7.31213,-5.32428,-0.00220132,0.00206042,-0.000418744,0.00210117,-0.00224207,-1.47378,0.00250801,0.0162328,741,624,-7.31213,5.32428
-476,400,-7.33447,-5.76343,-0.00145381,0.00146505,-0.000608058,0.00158666,-0.00157542,-1.37341,0.00182563,0.0148097,748,624,-7.33446,5.76345
-469,400,-7.32861,-6.20624,-0.000712591,0.00110159,-0.000808624,0.00140969,-0.00102069,-1.20676,0.00140916,0.0153383,755,624,-7.32862,6.20624
-462,400,-7.37823,-6.65234,-4.54708e-05,0.000811781,-0.00090159,0.00138145,-0.000615136,-1.00729,0.00118069,0.0203623,762,624,-7.37821,6.65236
-455,400,-7.40002,-7.07678,0.000416008,0.000442766,-0.000775636,0.00120514,-0.000346365,-0.794022,0.000940389,0.0215033,769,624,-7.39999,7.07678
-448,400,-7.39545,-7.53015,0.000721618,-1.50809e-05,-0.00045958,0.000942247,-0.000235709,-0.447573,0.000719717,0.0162268,776,624,-7.39543,7.53015
-441,400,-7.39893,-7.90491,0.000666571,-0.000667382,0.000132839,0.00067967,-0.000680481,0.0982968,0.000785284,0.0148572,783,624,-7.39895,7.90489
-434,400,-7.42059,-8.29547,0.00039938,-0.00137504,0.000879372,0.000761344,-0.001737,0.390481,0.00147863,0.0118536,790,624,-7.42059,8.29545
-427,400,-7.43091,-8.71082,-0.000179158,-0.00242893,0.00190711,0.000910104,-0.00351819,0.518942,0.00270044,0.00992805,797,624,-7.43093,8.71081
-420,400,-7.36023,-9.15961,-0.00116134,-0.00387833,0.0033204,0.00106773,-0.0061074,0.591219,0.00447021,0.015234,804,624,-7.36021,9.15964
-413,400,-7.44159,-9.51312,-0.00254724,-0.0056424,0.00514802,0.00128079,-0.00947043,0.639387,0.00678099,0.0346883,811,624,-7.4416,9.51312
-406,400,-7.67926,-9.5722,-0.00470309,-0.00812693,0.00748181,0.00126016,-0.0140902,0.672929,0.00984044,0.0459176,818,624,-7.67925,9.57221
-399,400,-7.56702,-9.71094,0,0,0,0,0,0,0,-1,825,624,-7.56704,9.71093
-392,400,-4.92285,-6.63354,0,0,0,0,0,0,0,-1,832,624,-4.92285,6.63354
-385,400,-3.68738,-5.04205,0,0,0,0,0,0,0,-1,839,624,-3.68736,5.04207
-378,400,-6.84064,-1.28662,0,0,0,0,0,0,0,-1,846,624,-6.84062,1.28662
-371,400,-6.98865,-1.2572,0,0,0,0,0,0,0,-1,853,624,-6.98865,1.25721
-364,400,-6.97247,-1.24133,0,0,0,0,0,0,0,-1,860,624,-6.97249,1.24135
-357,400,-7.18329,-1.23218,0,0,0,0,0,0,0,-1,867,624,-7.18327,1.2322
-350,400,-7.40186,-1.19409,0,0,0,0,0,0,0,-1,874,624,-7.40187,1.19407
-343,400,-8.09357,-1.51147,0,0,0,0,0,0,0,-1,881,624,-8.09355,1.51148
-336,400,0,0,0,0,0,0,0,0,0,-1,888,624,0,0
-329,400,0,0,0,0,0,0,0,0,0,-1,895,624,0,0
-322,400,0,0,0,0,0,0,0,0,0,-1,902,624,0,0
-315,400,0,0,0,0,0,0,0,0,0,-1,909,624,0,0
-308,400,0,0,0,0,0,0,0,0,0,-1,916,624,0,0
-301,400,0,0,0,0,0,0,0,0,0,-1,923,624,0,0
-294,400,0,0,0,0,0,0,0,0,0,-1,930,624,0,0
-287,400,0,0,0,0,0,0,0,0,0,-1,937,624,0,0
-280,400,0,0,0,0,0,0,0,0,0,-1,944,624,0,0
-273,400,0,0,0,0,0,0,0,0,0,-1,951,624,0,0
-266,400,0,0,0,0,0,0,0,0,0,-1,958,624,0,0
-259,400,0,0,0,0,0,0,0,0,0,-1,965,624,0,0
-252,400,0,0,0,0,0,0,0,0,0,-1,972,624,0,0
-245,400,0,0,0,0,0,0,0,0,0,-1,979,624,0,0
-238,400,0,0,0,0,0,0,0,0,0,-1,986,624,0,0
-231,400,0,0,0,0,0,0,0,0,0,-1,993,624,0,0
-224,400,0,0,0,0,0,0,0,0,0,-1,1000,624,0,0
-217,400,0,0,0,0,0,0,0,0,0,-1,1007,624,0,0
-210,400,0,0,0,0,0,0,0,0,0,-1,1014,624,0,0
-203,400,0,0,0,0,0,0,0,0,0,-1,1021,624,0,0
-196,400,0,0,0,0,0,0,0,0,0,-1,1028,624,0,0
-189,400,0,0,0,0,0,0,0,0,0,-1,1035,624,0,0
-182,400,0,0,0,0,0,0,0,0,0,-1,1042,624,0,0
-175,400,0,0,0,0,0,0,0,0,0,-1,1049,624,0,0
-168,400,0,0,0,0,0,0,0,0,0,-1,1056,624,0,0
-161,400,0,0,0,0,0,0,0,0,0,-1,1063,624,0,0
-154,400,0,0,0,0,0,0,0,0,0,-1,1070,624,0,0
-147,400,0,0,0,0,0,0,0,0,0,-1,1077,624,0,0
-140,400,0,0,0,0,0,0,0,0,0,-1,1084,624,0,0
-133,400,0,0,0,0,0,0,0,0,0,-1,1091,624,0,0
-126,400,0,0,0,0,0,0,0,0,0,-1,1098,624,0,0
-119,400,0,0,0,0,0,0,0,0,0,-1,1105,624,0,0
-112,400,0,0,0,0,0,0,0,0,0,-1,1112,624,0,0
-105,400,0,0,0,0,0,0,0,0,0,-1,1119,624,0,0
-98,400,0,0,0,0,0,0,0,0,0,-1,1126,624,0,0
-91,400,0,0,0,0,0,0,0,0,0,-1,1133,624,0,0
-84,400,0,0,0,0,0,0,0,0,0,-1,1140,624,0,0
-77,400,0,0,0,0,0,0,0,0,0,-1,1147,624,0,0
-70,400,0,0,0,0,0,0,0,0,0,-1,1154,624,0,0
-63,400,0,0,0,0,0,0,0,0,0,-1,1161,624,0,0
-56,400,0,0,0,0,0,0,0,0,0,-1,1168,624,0,0
-49,400,0,0,0,0,0,0,0,0,0,-1,1175,624,0,0
-42,400,0,0,0,0,0,0,0,0,0,-1,1182,624,0,0
-35,400,0,0,0,0,0,0,0,0,0,-1,1189,624,0,0
-28,400,0,0,0,0,0,0,0,0,0,-1,1196,624,0,0
-21,400,0,0,0,0,0,0,0,0,0,-1,1203,624,0,0
-14,400,0,0,0,0,0,0,0,0,0,-1,1210,624,0,0
-7,400,0,0,0,0,0,0,0,0,0,-1,1217,624,0,0
0,400,0,0,0,0,0,0,0,0,0,-1,1224,624,0,0
7,400,0,0,0,0,0,0,0,0,0,-1,1231,624,0,0
14,400,0,0,0,0,0,0,0,0,0,-1,1238,624,0,0
21,400,0,0,0,0,0,0,0,0,0,-1,1245,624,0,0
28,400,0,0,0,0,0,0,0,0,0,-1,1252,624,0,0
35,400,0,0,0,0,0,0,0,0,0,-1,1259,624,0,0
42,400,0,0,0,0,0,0,0,0,0,-1,1266,624,0,0
49,400,0,0,0,0,0,0,0,0,0,-1,1273,624,0,0
56,400,0,0,0,0,0,0,0,0,0,-1,1280,624,0,0
63,400,0,0,0,0,0,0,0,0,0,-1,1287,624,0,0
70,400,0,0,0,0,0,0,0,0,0,-1,1294,624,0,0
77,400,0,0,0,0,0,0,0,0,0,-1,1301,624,0,0
84,400,0,0,0,0,0,0,0,0,0,-1,1308,624,0,0
91,400,0,0,0,0,0,0,0,0,0,-1,1315,624,0,0
98,400,0,0,0,0,0,0,0,0,0,-1,1322,624,0,0
105,400,0,0,0,0,0,0,0,0,0,-1,1329,624,0,0
112,400,0,0,0,0,0,0,0,0,0,-1,1336,624,0,0
119,400,0,0,0,0,0,0,0,0,0,-1,1343,624,0,0
126,400,0,0,0,0,0,0,0,0,0,-1,1350,624,0,0
133,400,0,0,0,0,0,0,0,0,0,-1,1357,624,0,0
140,400,0,0,0,0,0,0,0,0,0,-1,1364,624,0,0
147,400,0,0,0,0,0,0,0,0,0,-1,1371,624,0,0
154,400,0,0,0,0,0,0,0,0,0,-1,1378,624,0,0
161,400,0,0,0,0,0,0,0,0,0,-1,1385,624,0,0
168,400,0,0,0,0,0,0,0,0,0,-1,1392,624,0,0
175,400,0,0,0,0,0,0,0,0,0,-1,1399,624,0,0
182,400,0,0,0,0,0,0,0,0,0,-1,1406,624,0,0
189,400,0,0,0,0,0,0,0,0,0,-1,1413,624,0,0
196,400,0,0,0,0,0,0,0,0,0,-1,1420,624,0,0
203,400,0,0,0,0,0,0,0,0,0,-1,1427,624,0,0
210,400,0,0,0,0,0,0,0,0,0,-1,1434,624,0,0
217,400,0,0,0,0,0,0,0,0,0,-1,1441,624,0,0
224,400,0,0,0,0,0,0,0,0,0,-1,1448,624,0,0
231,400,0,0,0,0,0,0,0,0,0,-1,1455,624,0,0
238,400,0,0,0,0,0,0,0,0,0,-1,1462,624,0,0
245,400,0,0,0,0,0,0,0,0,0,-1,1469,624,0,0
252,400,0,0,0,0,0,0,0,0,0,-1,1476,624,0,0
259,400,0,0,0,0,0,0,0,0,0,-1,1483,624,0,0
266,400,0,0,0,0,0,0,0,0,0,-1,1490,624,0,0
273,400,0,0,0,0,0,0,0,0,0,-1,1497,624,0,0
280,400,0,0,0,0,0,0,0,0,0,-1,1504,624,0,0
287,400,0,0,0,0,0,0,0,0,0,-1,1511,624,0,0
294,400,0,0,0,0,0,0,0,0,0,-1,1518,624,0,0
301,400,0,0,0,0,0,0,0,0,0,-1,1525,624,0,0
308,400,0,0,0,0,0,0,0,0,0,-1,1532,624,0,0
315,400,0,0,0,0,0,0,0,0,0,-1,1539,624,0,0
322,400,0,0,0,0,0,0,0,0,0,-1,1546,624,0,0
329,400,0,0,0,0,0,0,0,0,0,-1,1553,624,0,0
336,400,0,0,0,0,0,0,0,0,0,-1,1560,624,0,0
343,400,0,0,0,0,0,0,0,0,0,-1,1567,624,0,0
350,400,0,0,0,0,0,0,0,0,0,-1,1574,624,0,0
357,400,0,0,0,0,0,0,0,0,0,-1,1581,624,0,0
364,400,0,0,0,0,0,0,0,0,0,-1,1588,624,0,0
371,400,0,0,0,0,0,0,0,0,0,-1,1595,624,0,0
378,400,0,0,0,0,0,0,0,0,0,-1,1602,624,0,0
385,400,0,0,0,0,0,0,0,0,0,-1,1609,624,0,0
392,400,0,0,0,0,0,0,0,0,0,-1,1616,624,0,0
399,400,0,0,0,0,0,0,0,0,0,-1,1623,624,0,0
406,400,0,0,0,0,0,0,0,0,0,-1,1630,624,0,0
413,400,0,0,0,0,0,0,0,0,0,-1,1637,624,0,0
420,400,0,0,0,0,0,0,0,0,0,-1,1644,624,0,0
427,400,0,0,0,0,0,0,0,0,0,-1,1651,624,0,0
434,400,0,0,0,0,0,0,0,0,0,-1,1658,624,0,0
441,400,0,0,0,0,0,0,0,0,0,-1,1665,624,0,0
448,400,0,0,0,0,0,0,0,0,0,-1,1672,624,0,0
455,400,8.91309,2.75885,0,0,0,0,0,0,0,-1,1679,624,8.91312,-2.75885
462,400,8.90356,2.37878,0,0,0,0,0,0,0,-1,1686,624,8.90353,-2.37878
469,400,9.14429,1.76849,0,0,0,0,0,0,0,-1,1693,624,9.14432,-1.76847
476,400,9.23254,1.25995,0,0,0,0,0,0,0,-1,1700,624,9.23252,-1.25994
483,400,9.59766,0.562439,0,0,0,0,0,0,0,-1,1707,624,9.59771,-0.56242
490,400,9.92578,-0.213745,0,0,0,0,0,0,0,-1,1714,624,9.92579,0.21376
497,400,9.19141,0.175232,0,0,0,0,0,0,0,-1,1721,624,9.19138,-0.175209
504,400,9.23438,0.00823975,0,0,0,0,0,0,0,-1,1728,624,9.23436,-0.00823766
511,400,6.16687,3.3501,0,0,0,0,0,0,0,-1,1735,624,6.16682,-3.35007
518,400,6.55237,1.74994,0,0,0,0,0,0,0,-1,1742,624,6.55236,-1.74993
525,400,6.99731,1.08783,0,0,0,0,0,0,0,-1,1749,624,6.99736,-1.08785
532,400,6.96582,-1.74982,0,0,0,0,0,0,0,-1,1756,624,6.96585,1.74983
539,400,15.5394,-8.03345,0,0,0,0,0,0,0,-1,1763,624,15.5395,8.03345
546,400,15.4973,-7.6214,-0.00123342,0.00223868,-0.00101398,0.00251311,-0.00150785,-1.30648,0.00234556,0.0477648,1770,624,15.4973,7.62139
553,400,15.3735,-7.11896,-0.00102744,0.0015431,-0.00102648,0.0019027,-0.00138704,-1.23384,0.00190709,0.026074,1777,624,15.3735,7.11894
560,400,15.4196,-6.63068,-0.000849823,0.00106211,-0.000953676,0.00145647,-0.00124418,-1.1787,0.00156082,0.014719,1784,624,15.4196,6.63069
567,400,15.4431,-6.21454,-0.000752481,0.000826809,-0.000738634,0.00111842,-0.00104409,-1.19478,0.00124878,0.0190652,1791,624,15.4431,6.21455
574,400,15.4296,-5.80548,-0.000558125,0.000800153,-0.000381715,0.000900074,-0.000658047,-1.31477,0.000903192,0.0205754,1798,624,15.4295,5.80548
581,400,15.3711,-5.33392,-0.000353899,0.000929715,3.69023e-05,0.000930775,-0.00035496,1.54208,0.000766732,0.0192412,1805,624,15.3711,5.33394
588,400,15.3585,-4.86908,-0.000205962,0.00119811,0.00046559,0.00133847,-0.00034632,1.278,0.0010274,0.0157844,1812,624,15.3585,4.86908
595,400,15.3745,-4.44977,8.77238e-05,0.0016304,0.00102589,0.00214258,-0.000424451,1.10775,0.00158888,0.0149852,1819,624,15.3745,4.44976
602,400,15.3767,-3.99097,0.000447616,0.00224874,0.00169148,0.00326446,-0.0005681,1.03002,0.0023883,0.0136505,1826,624,15.3768,3.99096
609,400,15.3195,-3.51904,0.000622352,0.00300713,0.00232316,0.00442604,-0.000796556,1.0225,0.00324893,0.0135919,1833,624,15.3195,3.51906
616,400,15.3073,-3.05316,0.000538519,0.00379479,0.0027844,0.00539213,-0.00105882,1.04996,0.00399475,0.0180687,1840,624,15.3073,3.05316
623,400,15.3571,-2.56879,0,0,0,0,0,0,0,-1,1847,624,15.357,2.5688
630,400,11.9432,0.09021,0,0,0,0,0,0,0,-1,1854,624,11.9432,-0.0902007
637,400,6.92896,1.01917,0,0,0,0,0,0,0,-1,1861,624,6.92899,-1.01918
644,400,8.65381,1.4599,0,0,0,0,0,0,0,-1,1868,624,8.65379,-1.45991
651,400,7.90601,0.424072,0,0,0,0,0,0,0,-1,1875,624,7.90598,-0.424097
658,400,8.69031,1.0484,0,0,0,0,0,0,0,-1,1882,624,8.6903,-1.0484
665,400,5.98438,0.522522,0,0,0,0,0,0,0,-1,1889,624,5.98442,-0.522552
672,400,0,0,0,0,0,0,0,0,0,-1,1896,624,0,0
679,400,0,0,0,0,0,0,0,0,0,-1,1903,624,0,0
686,400,0,0,0,0,0,0,0,0,0,-1,1910,624,0,0
693,400,0,0,0,0,0,0,0,0,0,-1,1917,624,0,0
700,400,0,0,0,0,0,0,0,0,0,-1,1924,624,0,0
707,400,0,0,0,0,0,0,0,0,0,-1,1931,624,0,0
714,400,0,0,0,0,0,0,0,0,0,-1,1938,624,0,0
721,400,0,0,0,0,0,0,0,0,0,-1,1945,624,0,0
728,400,0,0,0,0,0,0,0,0,0,-1,1952,624,0,0
735,400,0,0,0,0,0,0,0,0,0,-1,1959,624,0,0
742,400,0,0,0,0,0,0,0,0,0,-1,1966,624,0,0
749,400,0,0,0,0,0,0,0,0,0,-1,1973,624,0,0
756,400,0,0,0,0,0,0,0,0,0,-1,1980,624,0,0
763,400,0,0,0,0,0,0,0,0,0,-1,1987,624,0,0
770,400,0,0,0,0,0,0,0,0,0,-1,1994,624,0,0
777,400,0,0,0,0,0,0,0,0,0,-1,2001,624,0,0
784,400,0,0,0,0,0,0,0,0,0,-1,2008,624,0,0
791,400,0,0,0,0,0,0,0,0,0,-1,2015,624,0,0
798,400,0,0,0,0,0,0,0,0,0,-1,2022,624,0,0
805,400,0,0,0,0,0,0,0,0,0,-1,2029,624,0,0
812,400,0,0,0,0,0,0,0,0,0,-1,2036,624,0,0
-700,393,0,0,0,0,0,0,0,0,0,-1,524,631,0,0
-693,393,0,0,0,0,0,0,0,0,0,-1,531,631,0,0
-686,393,0,0,0,0,0,0,0,0,0,-1,538,631,0,0
-679,393,0,0,0,0,0,0,0,0,0,-1,545,631,0,0
-672,393,0,0,0,0,0,0,0,0,0,-1,552,631,0,0
-665,393,0,0,0,0,0,0,0,0,0,-1,559,631,0,0
-658,393,0,0,0,0,0,0,0,0,0,-1,566,631,0,0
-651,393,0,0,0,0,0,0,0,0,0,-1,573,631,0,0
-644,393,0,0,0,0,0,0,0,0,0,-1,580,631,0,0
-637,393,0,0,0,0,0,0,0,0,0,-1,587,631,0,0
-630,393,0,0,0,0,0,0,0,0,0,-1,594,631,0,0
-623,393,0,0,0,0,0,0,0,0,0,-1,601,631,0,0
-616,393,0,0,0,0,0,0,0,0,0,-1,608,631,0,0
-609,393,0,0,0,0,0,0,0,0,0,-1,615,631,0,0
-602,393,0,0,0,0,0,0,0,0,0,-1,622,631,0,0
-595,393,0,0,0,0,0,0,0,0,0,-1,629,631,0,0
-588,393,0,0,0,0,0,0,0,0,0,-1,636,631,0,0
-581,393,0,0,0,0,0,0,0,0,0,-1,643,631,0,0
-574,393,0,0,0,0,0,0,0,0,0,-1,650,631,0,0
-567,393,0,0,0,0,0,0,0,0,0,-1,657,631,0,0
-560,393,0,0,0,0,0,0,0,0,0,-1,664,631,0,0
-553,393,-2.35107,3.92633,0,0,0,0,0,0,0,-1,671,631,-2.35108,-3.92634
-546,393,-1.78778,2.4856,0,0,0,0,0,0,0,-1,678,631,-1.78778,-2.48557
-539,393,-5.2113,-2.20245,0,0,0,0,0,0,0,-1,685,631,-5.21128,2.20247
-532,393,-2.83643,-2.01624,0,0,0,0,0,0,0,-1,692,631,-2.83642,2.01626
-525,393,-5.9505,-0.952698,0,0,0,0,0,0,0,-1,699,631,-5.95053,0.95268
-518,393,-5.80219,-1.57739,0,0,0,0,0,0,0,-1,706,631,-5.80219,1.57738
-511,393,-6.15527,-2.09906,0,0,0,0,0,0,0,-1,713,631,-6.15526,2.09903
-504,393,-7.97205,-3.66882,0,0,0,0,0,0,0,-1,720,631,-7.97204,3.6688
-497,393,-7.7594,-4.29187,-0.00228736,0.00410456,-0.000439761,0.00413468,-0.00231747,-1.50243,0.00377408,0.0288341,727,631,-7.75942,4.29187
-490,393,-7.74652,-4.88416,-0.00208204,0.00261351,-0.000176969,0.00262017,-0.0020887,-1.53318,0.00272443,0.0153234,734,631,-7.74652,4.88418
-483,393,-7.74243,-5.33008,-0.00152649,0.00175714,-0.000303949,0.00178503,-0.00155439,-1.47927,0.00192955,0.0191339,741,631,-7.74241,5.3301
-476,393,-7.74371,-5.74701,-0.000803432,0.00129027,-0.000591691,0.00144592,-0.000959077,-1.31357,0.00139797,0.0164001,748,631,-7.7437,5.74703
-469,393,-7.75763,-6.1745,-8.94848e-05,0.00103258,-0.0008835,0.00151813,-0.000575032,-1.06828,0.0012487,0.0127405,755,631,-7.75763,6.17448
-462,393,-7.78149,-6.64063,0.000542835,0.000815718,-0.00104919,0.0017373,-0.00037875,-0.850057,0.00130293,0.0153645,762,631,-7.7815,6.6406
-455,393,-7.81451,-7.09076,0.000956357,0.000461157,-0.000939826,0.00168065,-0.000263137,-0.656598,0.00121766,0.0140834,769,631,-7.81453,7.09075
-448,393,-7.82477,-7.51752,0.00124973,9.37992e-05,-0.00068127,0.00156517,-0.00022164,-0.433625,0.00112463,0.0143104,776,631,-7.82474,7.51749
-441,393,-7.82458,-7.9118,0.00118749,-0.000484823,-0.000126031,0.00119694,-0.000494267,-0.0748003,0.00100412,0.0133086,783,631,-7.82459,7.9118
-434,393,-7.84161,-8.28162,0.000904432,-0.0011844,0.000629144,0.00107929,-0.00135926,0.271087,0.00141099,0.0119971,790,631,-7.84164,8.28159
-427,393,-7.80713,-8.7243,0.000219057,-0.00228932,0.00174454,0.00111345,-0.00318372,0.473741,0.00257516,0.0208222,797,631,-7.80713,8.72429
-420,393,-7.79547,-9.11548,-0.000987194,-0.00395867,0.00339488,0.00123282,-0.00617869,0.579134,0.00458564,0.0469849,804,631,-7.79549,9.11548
-413,393,-7.90509,-9.57959,0,0,0,0,0,0,0,-1,811,631,-7.90511,9.5796
-406,393,-8.31464,-9.46149,0,0,0,0,0,0,0,-1,818,631,-8.31463,9.46148
-399,393,-5.07343,-5.92365,0,0,0,0,0,0,0,-1,825,631,-5.07344,5.92364
-392,393,-2.08063,-3.02386,0,0,0,0,0,0,0,-1,832,631,-2.08063,3.02384
-385,393,-3.16931,-0.624756,0,0,0,0,0,0,0,-1,839,631,-3.16928,0.624764
-378,393,-7.33081,-0.872314,0,0,0,0,0,0,0,-1,846,631,-7.33081,0.872325
-371,393,-7.47858,-0.811096,0,0,0,0,0,0,0,-1,853,631,-7.47859,0.811075
-364,393,-7.64917,-0.662415,0,0,0,0,0,0,0,-1,860,631,-7.64917,0.662406
-357,393,-8.09686,-0.726013,0,0,0,0,0,0,0,-1,867,631,-8.09689,0.726029
-350,393,-8.38788,-0.511841,0,0,0,0,0,0,0,-1,874,631,-8.38785,0.511811
-343,393,0,0,0,0,0,0,0,0,0,-1,881,631,0,0
-336,393,0,0,0,0,0,0,0,0,0,-1,888,631,0,0
-329,393,0,0,0,0,0,0,0,0,0,-1,895,631,0,0
-322,393,0,0,0,0,0,0,0,0,0,-1,902,631,0,0
-315,393,0,0,0,0,0,0,0,0,0,-1,909,631,0,0
-308,393,0,0,0,0,0,0,0,0,0,-1,916,631,0,0
-301,393,0,0,0,0,0,0,0,0,0,-1,923,631,0,0
-294,393,0,0,0,0,0,0,0,0,0,-1,930,631,0,0
-287,393,0,0,0,0,0,0,0,0,0,-1,937,631,0,0
-280,393,0,0,0,0,0,0,0,0,0,-1,944,631,0,0
-273,393,0,0,0,0,0,0,0,0,0,-1,951,631,0,0
-266,393,0,0,0,0,0,0,0,0,0,-1,958,631,0,0
-259,393,0,0,0,0,0,0,0,0,0,-1,965,631,0,0
-252,393,0,0,0,0,0,0,0,0,0,-1,972,631,0,0
-245,393,0,0,0,0,0,0,0,0,0,-1,979,631,0,0
-238,393,0,0,0,0,0,0,0,0,0,-1,986,631,0,0
-231,393,0,0,0,0,0,0,0,0,0,-1,993,631,0,0
-224,393,0,0,0,0,0,0,0,0,0,-1,1000,631,0,0
-217,393,0,0,0,0,0,0,0,0,0,-1,1007,631,0,0
-210,393,0,0,0,0,0,0,0,0,0,-1,1014,631,0,0
-203,393,0,0,0,0,0,0,0,0,0,-1,1021,631,0,0
-196,393,0,0,0,0,0,0,0,0,0,-1,1028,631,0,0
-189,393,0,0,0,0,0,0,0,0,0,-1,1035,631,0,0
-182,393,0,0,0,0,0,0,0,0,0,-1,1042,631,0,0
-175,393,0,0,0,0,0,0,0,0,0,-1,1049,631,0,0
-168,393,0,0,0,0,0,0,0,0,0,-1,1056,631,0,0
-161,393,0,0,0,0,0,0,0,0,0,-1,1063,631,0,0
-154,393,0,0,0,0,0,0,0,0,0,-1,1070,631,0,0
-147,393,0,0,0,0,0,0,0,0,0,-1,1077,631,0,0
-140,393,0,0,0,0,0,0,0,0,0,-1,1084,631,0,0
-133,393,0,0,0,0,0,0,0,0,0,-1,1091,631,0,0
-126,393,0,0,0,0,0,0,0,0,0,-1,1098,631,0,0
-119,393,0,0,0,0,0,0,0,0,0,-1,1105,631,0,0
-112,393,0,0,0,0,0,0,0,0,0,-1,1112,631,0,0
-105,393,0,0,0,0,0,0,0,0,0,-1,1119,631,0,0
-98,393,0,0,0,0,0,0,0,0,0,-1,1126,631,0,0
-91,393,0,0,0,0,0,0,0,0,0,-1,1133,631,0,0
-84,393,0,0,0,0,0,0,0,0,0,-1,1140,631,0,0
-77,393,0,0,0,0,0,0,0,0,0,-1,1147,631,0,0
-70,393,0,0,0,0,0,0,0,0,0,-1,1154,631,0,0
-63,393,0,0,0,0,0,0,0,0,0,-1,1161,631,0,0
-56,393,0,0,0,0,0,0,0,0,0,-1,1168,631,0,0
-49,393,0,0,0,0,0,0,0,0,0,-1,1175,631,0,0
-42,393,0,0,0,0,0,0,0,0,0,-1,1182,631,0,0
-35,393,0,0,0,0,0,0,0,0,0,-1,1189,631,0,0
-28,393,0,0,0,0,0,0,0,0,0,-1,1196,631,0,0
-21,393,0,0,0,0,0,0,0,0,0,-1,1203,631,0,0
-14,393,0,0,0,0,0,0,0,0,0,-1,1210,631,0,0
-7,393,0,0,0,0,0,0,0,0,0,-1,1217,631,0,0
0,393,0,0,0,0,0,0,0,0,0,-1,1224,631,0,0
7,393,0,0,0,0,0,0,0,0,0,-1,1231,631,0,0
14,393,0,0,0,0,0,0,0,0,0,-1,1238,631,0,0
21,393,0,0,0,0,0,0,0,0,0,-1,1245,631,0,0
28,393,0,0,0,0,0,0,0,0,0,-1,1252,631,0,0
35,393,0,0,0,0,0,0,0,0,0,-1,1259,631,0,0
42,393,0,0,0,0,0,0,0,0,0,-1,1266,631,0,0
49,393,0,0,0,0,0,0,0,0,0,-1,1273,631,0,0
56,393,0,0,0,0,0,0,0,0,0,-1,1280,631,0,0
63,393,0,0,0,0,0,0,0,0,0,-1,1287,631,0,0
70,393,0,0,0,0,0,0,0,0,0,-1,1294,631,0,0
77,393,0,0,0,0,0,0,0,0,0,-1,1301,631,0,0
84,393,0,0,0,0,0,0,0,0,0,-1,1308,631,0,0
91,393,0,0,0,0,0,0,0,0,0,-1,1315,631,0,0
98,393,0,0,0,0,0,0,0,0,0,-1,1322,631,0,0
105,393,0,0,0,0,0,0,0,0,0,-1,1329,631,0,0
112,393,0,0,0,0,0,0,0,0,0,-1,1336,631,0,0
119,393,0,0,0,0,0,0,0,0,0,-1,1343,631,0,0
126,393,0,0,0,0,0,0,0,0,0,-1,1350,631,0,0
133,393,0,0,0,0,0,0,0,0,0,-1,1357,631,0,0
140,393,0,0,0,0,0,0,0,0,0,-1,1364,631,0,0
147,393,0,0,0,0,0,0,0,0,0,-1,1371,631,0,0
154,393,0,0,0,0,0,0,0,0,0,-1,1378,631,0,0
161,393,0,0,0,0,0,0,0,0,0,-1,1385,631,0,0
168,393,0,0,0,0,0,0,0,0,0,-1,1392,631,0,0
175,393,0,0,0,0,0,0,0,0,0,-1,1399,631,0,0
182,393,0,0,0,0,0,0,0,0,0,-1,1406,631,0,0
189,393,0,0,0,0,0,0,0,0,0,-1,1413,631,0,0
196,393,0,0,0,0,0,0,0,0,0,-1,1420,631,0,0
203,393,0,0,0,0,0,0,0,0,0,-1,1427,631,0,0
210,393,0,0,0,0,0,0,0,0,0,-1,1434,631,0,0
217,393,0,0,0,0,0,0,0,0,0,-1,1441,631,0,0
224,393,0,0,0,0,0,0,0,0,0,-1,1448,631,0,0
231,393,0,0,0,0,0,0,0,0,0,-1,1455,631,0,0
238,393,0,0,0,0,0,0,0,0,0,-1,1462,631,0,0
245,393,0,0,0,0,0,0,0,0,0,-1,1469,631,0,0
252,393,0,0,0,0,0,0,0,0,0,-1,1476,631,0,0
259,393,0,0,0,0,0,0,0,0,0,-1,1483,631,0,0
266,393,0,0,0,0,0,0,0,0,0,-1,1490,631,0,0
273,393,0,0,0,0,0,0,0,0,0,-1,1497,631,0,0
280,393,0,0,0,0,0,0,0,0,0,-1,1504,631,0,0
287,393,0,0,0,0,0,0,0,0,0,-1,1511,631,0,0
294,393,0,0,0,0,0,0,0,0,0,-1,1518,631,0,0
301,393,0,0,0,0,0,0,0,0,0,-1,1525,631,0,0
308,393,0,0,0,0,0,0,0,0,0,-1,1532,631,0,0
315,393,0,0,0,0,0,0,0,0,0,-1,1539,631,0,0
322,393,0,0,0,0,0,0,0,0,0,-1,1546,631,0,0
329,393,0,0,0,0,0,0,0,0,0,-1,1553,631,0,0
336,393,0,0,0,0,0,0,0,0,0,-1,1560,631,0,0
343,393,0,0,0,0,0,0,0,0,0,-1,1567,631,0,0
350,393,0,0,0,0,0,0,0,0,0,-1,1574,631,0,0
357,393,0,0,0,0,0,0,0,0,0,-1,1581,631,0,0
364,393,0,0,0,0,0,0,0,0,0,-1,1588,631,0,0
371,393,0,0,0,0,0,0,0,0,0,-1,1595,631,0,0
378,393,0,0,0,0,0,0,0,0,0,-1,1602,631,0,0
385,393,0,0,0,0,0,0,0,0,0,-1,1609,631,0,0
392,393,0,0,0,0,0,0,0,0,0,-1,1616,631,0,0
399,393,0,0,0,0,0,0,0,0,0,-1,1623,631,0,0
406,393,0,0,0,0,0,0,0,0,0,-1,1630,631,0,0
413,393,0,0,0,0,0,0,0,0,0,-1,1637,631,0,0
420,393,0,0,0,0,0,0,0,0,0,-1,1644,631,0,0
427,393,0,0,0,0,0,0,0,0,0,-1,1651,631,0,0
434,393,0,0,0,0,0,0,0,0,0,-1,1658,631,0,0
441,393,0,0,0,0,0,0,0,0,0,-1,1665,631,0,0
448,393,0,0,0,0,0,0,0,0,0,-1,1672,631,0,0
455,393,0,0,0,0,0,0,0,0,0,-1,1679,631,0,0
462,393,8.51099,1.89502,0,0,0,0,0,0,0,-1,1686,631,8.51103,-1.89504
469,393,9.39465,1.51703,0,0,0,0,0,0,0,-1,1693,631,9.39465,-1.51703
476,393,9.95569,1.185,0,0,0,0,0,0,0,-1,1700,631,9.95575,-1.18497
483,393,10.5267,0.887329,0,0,0,0,0,0,0,-1,1707,631,10.5267,-0.887321
490,393,10.9303,0.761414,0,0,0,0,0,0,0,-1,1714,631,10.9303,-0.761386
497,393,8.32153,1.88104,0,0,0,0,0,0,0,-1,1721,631,8.32148,-1.88103
504,393,9.46985,1.78711,0,0,0,0,0,0,0,-1,1728,631,9.46986,-1.78713
511,393,9.66565,-0.375977,0,0,0,0,0,0,0,-1,1735,631,9.66571,0.375949
518,393,7.01599,1.62482,0,0,0,0,0,0,0,-1,1742,631,7.01597,-1.62483
525,393,7.88245,-1.13422,0,0,0,0,0,0,0,-1,1749,631,7.88246,1.13423
532,393,7.06335,-1.18103,0,0,0,0,0,0,0,-1,1756,631,7.06332,1.18101
539,393,9.91626,-2.46301,0,0,0,0,0,0,0,-1,1763,631,9.91625,2.46302
546,393,15.9063,-7.68988,0,0,0,0,0,0,0,-1,1770,631,15.9063,7.6899
553,393,15.767,-7.23328,0,0,0,0,0,0,0,-1,1777,631,15.7669,7.23328
560,393,15.8677,-6.67419,-0.0016864,0.00108573,-0.00157696,0.00179918,-0.00239985,-1.14593,0.00243257,0.022658,1784,631,15.8676,6.67421
567,393,15.8821,-6.21405,-0.00133411,0.000799287,-0.00125148,0.00137699,-0.00191181,-1.13833,0.00190714,0.0161488,1791,631,15.882,6.21407
574,393,15.899,-5.80121,-0.000926949,0.000755724,-0.000802739,0.00107724,-0.00124847,-1.18983,0.00134396,0.0172076,1798,631,15.8991,5.8012
581,393,15.8304,-5.31897,-0.000547319,0.000880773,-0.000313512,0.000946568,-0.000613113,-1.36394,0.000907316,0.0153017,1805,631,15.8304,5.31897
588,393,15.8127,-4.8407,-0.000251491,0.00112558,0.000157677,0.0011434,-0.000269314,1.45824,0.000866112,0.0171555,1812,631,15.8128,4.84069
595,393,15.8286,-4.41394,0.00016578,0.0015076,0.000725859,0.00182512,-0.000151739,1.15844,0.00127035,0.0152962,1819,631,15.8286,4.41396
602,393,15.8243,-3.96802,0.000639841,0.00204796,0.00138548,0.002898,-0.000210207,1.02048,0.00200575,0.0167504,1826,631,15.8243,3.96803
609,393,15.8026,-3.52246,0.000848716,0.00272025,0.00196051,0.00395687,-0.000387902,1.00806,0.00277626,0.0153887,1833,631,15.8026,3.52246
616,393,15.7725,-3.06744,0.000809743,0.00337451,0.00236356,0.00478116,-0.000596909,1.03396,0.0034039,0.0156549,1840,631,15.7725,3.06742
623,393,15.7921,-2.50891,0.000894345,0.00418794,0.00290366,0.00587928,-0.000796998,1.04335,0.00421041,0.0291229,1847,631,15.7922,2.50892
630,393,15.8486,-1.85278,0,0,0,0,0,0,0,-1,1854,631,15.8486,1.85278
637,393,11.4626,0.608887,0,0,0,0,0,0,0,-1,1861,631,11.4627,-0.608904
644,393,8.97583,1.30585,0,0,0,0,0,0,0,-1,1868,631,8.97586,-1.30584
651,393,11.348,0.53302,0,0,0,0,0,0,0,-1,1875,631,11.348,-0.53305
658,393,9.21338,1.50836,0,0,0,0,0,0,0,-1,1882,631,9.21338,-1.50834
665,393,6.1001,2.32129,0,0,0,0,0,0,0,-1,1889,631,6.10012,-2.3213
672,393,7.14575,2.43225,0,0,0,0,0,0,0,-1,1896,631,7.14572,-2.43222
679,393,0,0,0,0,0,0,0,0,0,-1,1903,631,0,0
686,393,0,0,0,0,0,0,0,0,0,-1,1910,631,0,0
693,393,0,0,0,0,0,0,0,0,0,-1,1917,631,0,0
700,393,0,0,0,0,0,0,0,0,0,-1,1924,631,0,0
707,393,0,0,0,0,0,0,0,0,0,-1,1931,631,0,0
714,393,0,0,0,0,0,0,0,0,0,-1,1938,631,0,0
721,393,0,0,0,0,0,0,0,0,0,-1,1945,631,0,0
728,393,0,0,0,0,0,0,0,0,0,-1,1952,631,0,0
735,393,0,0,0,0,0,0,0,0,0,-1,1959,631,0,0
742,393,0,0,0,0,0,0,0,0,0,-1,1966,631,0,0
749,393,0,0,0,0,0,0,0,0,0,-1,1973,631,0,0
756,393,0,0,0,0,0,0,0,0,0,-1,1980,631,0,0
763,393,0,0,0,0,0,0,0,0,0,-1,1987,631,0,0
770,393,0,0,0,0,0,0,0,0,0,-1,1994,631,0,0
777,393,0,0,0,0,0,0,0,0,0,-1,2001,631,0,0
784,393,0,0,0,0,0,0,0,0,0,-1,2008,631,0,0
791,393,0,0,0,0,0,0,0,0,0,-1,2015,631,0,0
798,393,0,0,0,0,0,0,0,0,0,-1,2022,631,0,0
805,393,0,0,0,0,0,0,0,0,0,-1,2029,631,0,0
812,393,0,0,0,0,0,0,0,0,0,-1,2036,631,0,0
-700,386,0,0,0,0,0,0,0,0,0,-1,524,638,0,0
-693,386,0,0,0,0,0,0,0,0,0,-1,531,638,0,0
-686,386,0,0,0,0,0,0,0,0,0,-1,538,638,0,0
-679,386,0,0,0,0,0,0,0,0,0,-1,545,638,0,0
-672,386,0,0,0,0,0,0,0,0,0,-1,552,638,0,0
-665,386,0,0,0,0,0,0,0,0,0,-1,559,638,0,0
-658,386,0,0,0,0,0,0,0,0,0,-1,566,638,0,0
-651,386,0,0,0,0,0,0,0,0,0,-1,573,638,0,0
-644,386,0,0,0,0,0,0,0,0,0,-1,580,638,0,0
-637,386,0,0,0,0,0,0,0,0,0,-1,587,638,0,0
-630,386,0,0,0,0,0,0,0,0,0,-1,594,638,0,0
-623,386,0,0,0,0,0,0,0,0,0,-1,601,638,0,0
-616,386,0,0,0,0,0,0,0,0,0,-1,608,638,0,0
-609,386,0,0,0,0,0,0,0,0,0,-1,615,638,0,0
-602,386,0,0,0,0,0,0,0,0,0,-1,622,638,0,0
-595,386,0,0,0,0,0,0,0,0,0,-1,629,638,0,0
-588,386,0,0,0,0,0,0,0,0,0,-1,636,638,0,0
-581,386,0,0,0,0,0,0,0,0,0,-1,643,638,0,0
-574,386,0,0,0,0,0,0,0,0,0,-1,650,638,0,0
-567,386,0,0,0,0,0,0,0,0,0,-1,657,638,0,0
-560,386,-3.97229,-5.13898,0,0,0,0,0,0,0,-1,664,638,-3.97232,5.13897
-553,386,-4.94244,-5.54309,0,0,0,0,0,0,0,-1,671,638,-4.94242,5.5431
-546,386,-1.78668,1.72827,0,0,0,0,0,0,0,-1,678,638,-1.78668,-1.72829
-539,386,-0.879456,-2.90009,0,0,0,0,0,0,0,-1,685,638,-0.879442,2.90008
-532,386,-4.83362,1.61053,0,0,0,0,0,0,0,-1,692,638,-4.83361,-1.61051
-525,386,-6.64148,-1.50604,0,0,0,0,0,0,0,-1,699,638,-6.64149,1.50603
-518,386,-6.47589,-1.71948,0,0,0,0,0,0,0,-1,706,638,-6.47591,1.71947
-511,386,-8.06964,-2.99396,0,0,0,0,0,0,0,-1,713,638,-8.06966,2.99393
-504,386,-8.1275,-3.87091,-0.00101084,0.00569649,-0.00123853,0.00591788,-0.00123223,-1.39391,0.00441371,0.0333627,720,638,-8.12747,3.87094
-497,386,-8.24164,-4.45709,-0.001251,0.00392226,-0.000665867,0.00400659,-0.00133533,-1.44482,0.00321012,0.0153106,727,638,-8.24162,4.45709
-490,386,-8.19684,-4.91974,-0.00134925,0.00238757,-0.000158239,0.00239426,-0.00135594,-1.52855,0.00219267,0.0121505,734,638,-8.19683,4.91974
-483,386,-8.18506,-5.37689,-0.000907133,0.00161561,-0.000252474,0.00164063,-0.000932153,-1.47202,0.00150405,0.0160933,741,638,-8.18505,5.37689
-476,386,-8.17096,-5.79401,-0.000177675,0.00129399,-0.00064242,0.00153497,-0.00041865,-1.21193,0.00118772,0.015559,748,638,-8.17096,5.79401
-469,386,-8.20251,-6.18933,0.000539061,0.00114689,-0.0010348,0.00192148,-0.000235529,-0.928229,0.00136628,0.0114768,755,638,-8.20253,6.18931
-462,386,-8.20447,-6.63483,0.00116999,0.00102236,-0.00129681,0.00239508,-0.000202736,-0.75697,0.00166841,0.0108102,762,638,-8.20447,6.63481
-455,386,-8.23077,-7.0694,0.00156872,0.00070078,-0.0012402,0.00244868,-0.000179185,-0.617097,0.00169534,0.0119259,769,638,-8.23079,7.06939
-448,386,-8.24011,-7.48334,0.00187788,0.000440991,-0.00108434,0.00246019,-0.000141317,-0.49282,0.00168921,0.0128397,776,638,-8.24014,7.48333
-441,386,-8.25348,-7.88239,0.00186043,-4.74612e-05,-0.00062327,0.00204599,-0.000233023,-0.289367,0.00144793,0.0135804,783,638,-8.2535,7.88241
-434,386,-8.21869,-8.34332,0.0016172,-0.000761195,9.22674e-05,0.00162077,-0.000764769,0.0387164,0.00140654,0.0323591,790,638,-8.21866,8.34334
-427,386,-8.15033,-8.78931,0,0,0,0,0,0,0,-1,797,638,-8.15032,8.78928
-420,386,-8.20917,-9.13226,0,0,0,0,0,0,0,-1,804,638,-8.20916,9.13224
-413,386,-5.45691,-5.35785,0,0,0,0,0,0,0,-1,811,638,-5.45691,5.35783
-406,386,-4.51135,-4.10999,0,0,0,0,0,0,0,-1,818,638,-4.51135,4.10996
-399,386,-3.57117,-3.42126,0,0,0,0,0,0,0,-1,825,638,-3.57116,3.42129
-392,386,-4.00977,0.403625,0,0,0,0,0,0,0,-1,832,638,-4.0098,-0.403616
-385,386,-3.2406,-0.118469,0,0,0,0,0,0,0,-1,839,638,-3.24058,0.118485
-378,386,-2.55243,-1.22748,0,0,0,0,0,0,0,-1,846,638,-2.55243,1.22748
-371,386,-7.95807,-0.330261,0,0,0,0,0,0,0,-1,853,638,-7.95806,0.330284
-364,386,-8.90637,-0.665955,0,0,0,0,0,0,0,-1,860,638,-8.90635,0.665951
-357,386,-9.10364,-0.388733,0,0,0,0,0,0,0,-1,867,638,-9.10364,0.388744
-350,386,0,0,0,0,0,0,0,0,0,-1,874,638,0,0
-343,386,0,0,0,0,0,0,0,0,0,-1,881,638,0,0
-336,386,0,0,0,0,0,0,0,0,0,-1,888,638,0,0
-329,386,0,0,0,0,0,0,0,0,0,-1,895,638,0,0
-322,386,0,0,0,0,0,0,0,0,0,-1,902,638,0,0
-315,386,0,0,0,0,0,0,0,0,0,-1,909,638,0,0
-308,386,0,0,0,0,0,0,0,0,0,-1,916,638,0,0
-301,386,0,0,0,0,0,0,0,0,0,-1,923,638,0,0
-294,386,0,0,0,0,0,0,0,0,0,-1,930,638,0,0
-287,386,0,0,0,0,0,0,0,0,0,-1,937,638,0,0
-280,386,0,0,0,0,0,0,0,0,0,-1,944,638,0,0
-273,386,0,0,0,0,0,0,0,0,0,-1,951,638,0,0
-266,386,0,0,0,0,0,0,0,0,0,-1,958,638,0,0
-259,386,0,0,0,0,0,0,0,0,0,-1,965,638,0,0
-252,386,0,0,0,0,0,0,0,0,0,-1,972,638,0,0
-245,386,0,0,0,0,0,0,0,0,0,-1,979,638,0,0
-238,386,0,0,0,0,0,0,0,0,0,-1,986,638,0,0
-231,386,0,0,0,0,0,0,0,0,0,-1,993,638,0,0
-224,386,0,0,0,0,0,0,0,0,0,-1,1000,638,0,0
-217,386,0,0,0,0,0,0,0,0,0,-1,1007,638,0,0
-210,386,0,0,0,0,0,0,0,0,0,-1,1014,638,0,0
-203,386,0,0,0,0,0,0,0,0,0,-1,1021,638,0,0
-196,386,0,0,0,0,0,0,0,0,0,-1,1028,638,0,0
-189,386,0,0,0,0,0,0,0,0,0,-1,1035,638,0,0
-182,386,0,0,0,0,0,0,0,0,0,-1,1042,638,0,0
-175,386,0,0,0,0,0,0,0,0,0,-1,1049,638,0,0
-168,386,0,0,0,0,0,0,0,0,0,-1,1056,638,0,0
-161,386,0,0,0,0,0,0,0,0,0,-1,1063,638,0,0
-154,386,0,0,0,0,0,0,0,0,0,-1,1070,638,0,0
-147,386,0,0,0,0,0,0,0,0,0,-1,1077,638,0,0
-140,386,0,0,0,0,0,0,0,0,0,-1,1084,638,0,0
-133,386,0,0,0,0,0,0,0,0,0,-1,1091,638,0,0
-126,386,0,0,0,0,0,0,0,0,0,-1,1098,638,0,0
-119,386,0,0,0,0,0,0,0,0,0,-1,1105,638,0,0
-112,386,0,0,0,0,0,0,0,0,0,-1,1112,638,0,0
-105,386,0,0,0,0,0,0,0,0,0,-1,1119,638,0,0
-98,386,0,0,0,0,0,0,0,0,0,-1,1126,638,0,0
-91,386,0,0,0,0,0,0,0,0,0,-1,1133,638,0,0
-84,386,0,0,0,0,0,0,0,0,0,-1,1140,638,0,0
-77,386,0,0,0,0,0,0,0,0,0,-1,1147,638,0,0
-70,386,0,0,0,0,0,0,0,0,0,-1,1154,638,0,0
-63,386,0,0,0,0,0,0,0,0,0,-1,1161,638,0,0
-56,386,0,0,0,0,0,0,0,0,0,-1,1168,638,0,0
-49,386,0,0,0,0,0,0,0,0,0,-1,1175,638,0,0
-42,386,0,0,0,0,0,0,0,0,0,-1,1182,638,0,0
-35,386,0,0,0,0,0,0,0,0,0,-1,1189,638,0,0
-28,386,0,0,0,0,0,0,0,0,0,-1,1196,638,0,0
-21,386,0,0,0,0,0,0,0,0,0,-1,1203,638,0,0
-14,386,0,0,0,0,0,0,0,0,0,-1,1210,638,0,0
-7,386,0,0,0,0,0,0,0,0,0,-1,1217,638,0,0
0,386,0,0,0,0,0,0,0,0,0,-1,1224,638,0,0
7,386,0,0,0,0,0,0,0,0,0,-1,1231,638,0,0
14,386,0,0,0,0,0,0,0,0,0,-1,1238,638,0,0
21,386,0,0,0,0,0,0,0,0,0,-1,1245,638,0,0
28,386,0,0,0,0,0,0,0,0,0,-1,1252,638,0,0
35,386,0,0,0,0,0,0,0,0,0,-1,1259,638,0,0
42,386,0,0,0,0,0,0,0,0,0,-1,1266,638,0,0
49,386,0,0,0,0,0,0,0,0,0,-1,1273,638,0,0
56,386,0,0,0,0,0,0,0,0,0,-1,1280,638,0,0
63,386,0,0,0,0,0,0,0,0,0,-1,1287,638,0,0
70,386,0,0,0,0,0,0,0,0,0,-1,1294,638,0,0
77,386,0,0,0,0,0,0,0,0,0,-1,1301,638,0,0
84,386,0,0,0,0,0,0,0,0,0,-1,1308,638,0,0
91,386,0,0,0,0,0,0,0,0,0,-1,1315,638,0,0
98,386,0,0,0,0,0,0,0,0,0,-1,1322,638,0,0
105,386,0,0,0,0,0,0,0,0,0,-1,1329,638,0,0
112,386,0,0,0,0,0,0,0,0,0,-1,1336,638,0,0
119,386,0,0,0,0,0,0,0,0,0,-1,1343,638,0,0
126,386,0,0,0,0,0,0,0,0,0,-1,1350,638,0,0
133,386,0,0,0,0,0,0,0,0,0,-1,1357,638,0,0
140,386,0,0,0,0,0,0,0,0,0,-1,1364,638,0,0
147,386,0,0,0,0,0,0,0,0,0,-1,1371,638,0,0
154,386,0,0,0,0,0,0,0,0,0,-1,1378,638,0,0
161,386,0,0,0,0,0,0,0,0,0,-1,1385,638,0,0
168,386,0,0,0,0,0,0,0,0,0,-1,1392,638,0,0
175,386,0,0,0,0,0,0,0,0,0,-1,1399,638,0,0
182,386,0,0,0,0,0,0,0,0,0,-1,1406,638,0,0
189,386,0,0,0,0,0,0,0,0,0,-1,1413,638,0,0
196,386,0,0,0,0,0,0,0,0,0,-1,1420,638,0,0
203,386,0,0,0,0,0,0,0,0,0,-1,1427,638,0,0
210,386,0,0,0,0,0,0,0,0,0,-1,1434,638,0,0
217,386,0,0,0,0,0,0,0,0,0,-1,1441,638,0,0
224,386,0,0,0,0,0,0,0,0,0,-1,1448,638,0,0
231,386,0,0,0,0,0,0,0,0,0,-1,1455,638,0,0
238,386,0,0,0,0,0,0,0,0,0,-1,1462,638,0,0
245,386,0,0,0,0,0,0,0,0,0,-1,1469,638,0,0
252,386,0,0,0,0,0,0,0,0,0,-1,1476,638,0,0
259,386,0,0,0,0,0,0,0,0,0,-1,1483,638,0,0
266,386,0,0,0,0,0,0,0,0,0,-1,1490,638,0,0
273,386,0,0,0,0,0,0,0,0,0,-1,1497,638,0,0
280,386,0,0,0,0,0,0,0,0,0,-1,1504,638,0,0
287,386,0,0,0,0,0,0,0,0,0,-1,1511,638,0,0
294,386,0,0,0,0,0,0,0,0,0,-1,1518,638,0,0
301,386,0,0,0,0,0,0,0,0,0,-1,1525,638,0,0
308,386,0,0,0,0,0,0,0,0,0,-1,1532,638,0,0
315,386,0,0,0,0,0,0,0,0,0,-1,1539,638,0,0
322,386,0,0,0,0,0,0,0,0,0,-1,1546,638,0,0
329,386,0,0,0,0,0,0,0,0,0,-1,1553,638,0,0
336,386,0,0,0,0,0,0,0,0,0,-1,1560,638,0,0
343,386,0,0,0,0,0,0,0,0,0,-1,1567,638,0,0
350,386,0,0,0,0,0,0,0,0,0,-1,1574,638,0,0
357,386,0,0,0,0,0,0,0,0,0,-1,1581,638,0,0
364,386,0,0,0,0,0,0,0,0,0,-1,1588,638,0,0
371,386,0,0,0,0,0,0,0,0,0,-1,1595,638,0,0
378,386,0,0,0,0,0,0,0,0,0,-1,1602,638,0,0
385,386,0,0,0,0,0,0,0,0,0,-1,1609,638,0,0
392,386,0,0,0,0,0,0,0,0,0,-1,1616,638,0,0
399,386,0,0,0,0,0,0,0,0,0,-1,1623,638,0,0
406,386,0,0,0,0,0,0,0,0,0,-1,1630,638,0,0
413,386,0,0,0,0,0,0,0,0,0,-1,1637,638,0,0
420,386,0,0,0,0,0,0,0,0,0,-1,1644,638,0,0
427,386,0,0,0,0,0,0,0,0,0,-1,1651,638,0,0
434,386,0,0,0,0,0,0,0,0,0,-1,1658,638,0,0
441,386,0,0,0,0,0,0,0,0,0,-1,1665,638,0,0
448,386,0,0,0,0,0,0,0,0,0,-1,1672,638,0,0
455,386,0,0,0,0,0,0,0,0,0,-1,1679,638,0,0
462,386,0,0,0,0,0,0,0,0,0,-1,1686,638,0,0
469,386,9.84692,1.55804,0,0,0,0,0,0,0,-1,1693,638,9.84691,-1.55807
476,386,10.6145,0.986511,0,0,0,0,0,0,0,-1,1700,638,10.6145,-0.986529
483,386,11.4113,0.732971,0,0,0,0,0,0,0,-1,1707,638,11.4112,-0.732958
490,386,7.79785,1.79572,0,0,0,0,0,0,0,-1,1714,638,7.79788,-1.7957
497,386,8.96362,1.77081,0,0,0,0,0,0,0,-1,1721,638,8.96357,-1.77081
504,386,10.0555,1.69427,0,0,0,0,0,0,0,-1,1728,638,10.0555,-1.69426
511,386,11.2172,1.534,0,0,0,0,0,0,0,-1,1735,638,11.2172,-1.53398
518,386,7.41553,1.75238,0,0,0,0,0,0,0,-1,1742,638,7.41547,-1.75238
525,386,8.82422,-1.1449,0,0,0,0,0,0,0,-1,1749,638,8.82426,1.14492
532,386,10.6432,0.617371,0,0,0,0,0,0,0,-1,1756,638,10.6432,-0.617359
539,386,9.62061,-0.393616,0,0,0,0,0,0,0,-1,1763,638,9.62059,0.393634
546,386,10.7963,-2.854,0,0,0,0,0,0,0,-1,1770,638,10.7962,2.854
553,386,16.4155,-6.96509,0,0,0,0,0,0,0,-1,1777,638,16.4155,6.9651
560,386,16.3344,-6.49377,-0.00275391,0.00118321,-0.00232296,0.00225955,-0.00383025,-1.1369,0.00355471,0.0478251,1784,638,16.3343,6.49376
567,386,16.2574,-6.16003,-0.00201812,0.000839517,-0.00180346,0.00171157,-0.00289017,-1.1204,0.0026857,0.0210354,1791,638,16.2575,6.16002
574,386,16.3115,-5.73407,-0.0013427,0.000763974,-0.00121669,0.00131994,-0.00189866,-1.14218,0.00186824,0.0151719,1798,638,16.3115,5.73405
581,386,16.2684,-5.32617,-0.000771873,0.000864933,-0.000632647,0.00108095,-0.00098789,-1.24176,0.00119485,0.0141875,1805,638,16.2684,5.32615
588,386,16.2719,-4.86188,-0.000328185,0.00105967,-0.000108163,0.00106804,-0.000336564,-1.49348,0.000846813,0.0126524,1812,638,16.2718,4.86187
595,386,16.2653,-4.40546,0.000184024,0.00136779,0.000462525,0.00152708,2.47388e-05,1.23913,0.00100991,0.0144423,1819,638,16.2653,4.40548
602,386,16.2531,-3.95709,0.000727276,0.00181461,0.00110141,0.00249923,4.2661e-05,1.01466,0.00165212,0.0166987,1826,638,16.253,3.95707
609,386,16.2587,-3.5224,0.000952065,0.00239419,0.00161521,0.00344198,-9.57269e-05,0.995334,0.00232722,0.0148914,1833,638,16.2586,3.52239
616,386,16.2388,-3.06976,0.000968427,0.00294196,0.00197781,0.0041655,-0.000255113,1.01679,0.00286583,0.0117961,1840,638,16.2388,3.06977
623,386,16.2075,-2.60376,0.000996544,0.00359777,0.00238875,0.00501703,-0.000422714,1.03469,0.00349412,0.0103947,1847,638,16.2075,2.60377
630,386,16.2877,-2.13098,0.000949704,0.00427704,0.00274503,0.0058232,-0.000596455,1.05783,0.00409546,0.0307033,1854,638,16.2877,2.131
637,386,16.4277,-1.65515,0,0,0,0,0,0,0,-1,1861,638,16.4277,1.65514
644,386,11.6521,0.723328,0,0,0,0,0,0,0,-1,1868,638,11.6521,-0.723355
651,386,9.3866,1.31097,0,0,0,0,0,0,0,-1,1875,638,9.3866,-1.31095
658,386,12.0731,-0.00415039,0,0,0,0,0,0,0,-1,1882,638,12.0731,0.00412803
665,386,6.33167,1.78601,0,0,0,0,0,0,0,-1,1889,638,6.33171,-1.78601
672,386,7.23352,2.14435,0,0,0,0,0,0,0,-1,1896,638,7.23353,-2.14433
679,386,8.07764,2.57104,0,0,0,0,0,0,0,-1,1903,638,8.07758,-2.57103
686,386,0,0,0,0,0,0,0,0,0,-1,1910,638,0,0
693,386,0,0,0,0,0,0,0,0,0,-1,1917,638,0,0
700,386,0,0,0,0,0,0,0,0,0,-1,1924,638,0,0
707,386,0,0,0,0,0,0,0,0,0,-1,1931,638,0,0
714,386,0,0,0,0,0,0,0,0,0,-1,1938,638,0,0
721,386,0,0,0,0,0,0,0,0,0,-1,1945,638,0,0
728,386,0,0,0,0,0,0,0,0,0,-1,1952,638,0,0
735,386,0,0,0,0,0,0,0,0,0,-1,1959,638,0,0
742,386,0,0,0,0,0,0,0,0,0,-1,1966,638,0,0
749,386,0,0,0,0,0,0,0,0,0,-1,1973,638,0,0
756,386,0,0,0,0,0,0,0,0,0,-1,1980,638,0,0
763,386,0,0,0,0,0,0,0,0,0,-1,1987,638,0,0
770,386,0,0,0,0,0,0,0,0,0,-1,1994,638,0,0
777,386,0,0,0,0,0,0,0,0,0,-1,2001,638,0,0
784,386,0,0,0,0,0,0,0,0,0,-1,2008,638,0,0
791,386,0,0,0,0,0,0,0,0,0,-1,2015,638,0,0
798,386,0,0,0,0,0,0,0,0,0,-1,2022,638,0,0
805,386,0,0,0,0,0,0,0,0,0,-1,2029,638,0,0
812,386,0,0,0,0,0,0,0,0,0,-1,2036,638,0,0
-700,379,0,0,0,0,0,0,0,0,0,-1,524,645,0,0
-693,379,0,0,0,0,0,0,0,0,0,-1,531,645,0,0
-686,379,0,0,0,0,0,0,0,0,0,-1,538,645,0,0
-679,379,0,0,0,0,0,0,0,0,0,-1,545,645,0,0
-672,379,0,0,0,0,0,0,0,0,0,-1,552,645,0,0
-665,379,0,0,0,0,0,0,0,0,0,-1,559,645,0,0
-658,379,0,0,0,0,0,0,0,0,0,-1,566,645,0,0
-651,379,0,0,0,0,0,0,0,0,0,-1,573,645,0,0
-644,379,0,0,0,0,0,0,0,0,0,-1,580,645,0,0
-637,379,0,0,0,0,0,0,0,0,0,-1,587,645,0,0
-630,379,0,0,0,0,0,0,0,0,0,-1,594,645,0,0
-623,379,0,0,0,0,0,0,0,0,0,-1,601,645,0,0
-616,379,0,0,0,0,0,0,0,0,0,-1,608,645,0,0
-609,379,0,0,0,0,0,0,0,0,0,-1,615,645,0,0
-602,379,0,0,0,0,0,0,0,0,0,-1,622,645,0,0
-595,379,0,0,0,0,0,0,0,0,0,-1,629,645,0,0
-588,379,0,0,0,0,0,0,0,0,0,-1,636,645,0,0
-581,379,0,0,0,0,0,0,0,0,0,-1,643,645,0,0
-574,379,0,0,0,0,0,0,0,0,0,-1,650,645,0,0
-567,379,-8.78058,0.59668,0,0,0,0,0,0,0,-1,657,645,-8.7806,-0.596692
-560,379,-9.53485,-0.211304,0,0,0,0,0,0,0,-1,664,645,-9.53487,0.211282
-553,379,-5.17108,-4.53119,0,0,0,0,0,0,0,-1,671,645,-5.17106,4.53117
-546,379,-6.23053,-4.92102,0,0,0,0,0,0,0,-1,678,645,-6.23054,4.92105
-539,379,-0.71698,-2.19427,0,0,0,0,0,0,0,-1,685,645,-0.716959,2.19427
-532,379,-7.69611,0.217224,0,0,0,0,0,0,0,-1,692,645,-7.69614,-0.217204
-525,379,-7.09833,-1.13043,0,0,0,0,0,0,0,-1,699,645,-7.0983,1.13041
-518,379,-8.50842,-3.14673,0,0,0,0,0,0,0,-1,706,645,-8.50843,3.14672
-511,379,-8.39819,-3.70453,0.000846745,0.00821714,-0.00269103,0.00909509,-3.12054e-05,-1.25543,0.00607382,0.043256,713,645,-8.39821,3.70453
-504,379,-8.54974,-4.09644,-9.39558e-05,0.00552298,-0.00139493,0.00585033,-0.000421302,-1.3403,0.00404797,0.0225446,720,645,-8.54973,4.09646
-497,379,-8.62231,-4.47284,-0.000484102,0.00363483,-0.000734425,0.00376187,-0.000611135,-1.39952,0.00273448,0.0119161,727,645,-8.62231,4.47281
-490,379,-8.62,-4.90625,-0.000684866,0.00210464,-0.000172088,0.00211521,-0.000695442,-1.50942,0.00169033,0.0104647,734,645,-8.62002,4.90626
-483,379,-8.60358,-5.34448,-0.000288036,0.00143437,-0.000283037,0.00147969,-0.000333354,-1.41203,0.00111432,0.0121366,741,645,-8.60358,5.34451
-476,379,-8.59918,-5.75903,0.000447001,0.00124533,-0.000759511,0.00170418,-1.18481e-05,-1.02734,0.00114009,0.0132724,748,645,-8.59918,5.75904
-469,379,-8.64191,-6.16431,0.00116621,0.0012084,-0.00123882,0.0024263,-5.16895e-05,-0.793913,0.00163504,0.011816,755,645,-8.64191,6.16433
-462,379,-8.65796,-6.59503,0.00180621,0.00119615,-0.00159856,0.00312858,-0.000126222,-0.691124,0.00212904,0.00890672,762,645,-8.65794,6.59502
-455,379,-8.66364,-7.02277,0.00220165,0.000945531,-0.00161385,0.00330534,-0.000158159,-0.599831,0.00225813,0.00932201,769,645,-8.66365,7.02274
-448,379,-8.65552,-7.42511,0.00253218,0.000853572,-0.00159542,0.0034956,-0.000109847,-0.543256,0.00236786,0.0113724,776,645,-8.65555,7.42513
-441,379,-8.64447,-7.88385,0.00258145,0.000530891,-0.00127954,0.00319581,-8.34668e-05,-0.447635,0.0021589,0.0197024,783,645,-8.64447,7.88382
-434,379,-8.50018,-8.4447,0,0,0,0,0,0,0,-1,790,645,-8.50018,8.44472
-427,379,-4.16113,-4.13452,0,0,0,0,0,0,0,-1,797,645,-4.16116,4.1345
-420,379,-4.63953,-3.46869,0,0,0,0,0,0,0,-1,804,645,-4.63953,3.46872
-413,379,-4.62543,-3.7912,0,0,0,0,0,0,0,-1,811,645,-4.62541,3.79123
-406,379,-4.64063,-4.38489,0,0,0,0,0,0,0,-1,818,645,-4.64065,4.3849
-399,379,-2.93536,-1.40118,0,0,0,0,0,0,0,-1,825,645,-2.93534,1.40119
-392,379,-4.16711,-0.466003,0,0,0,0,0,0,0,-1,832,645,-4.16714,0.465992
-385,379,-3.51862,0.441101,0,0,0,0,0,0,0,-1,839,645,-3.51859,-0.441072
-378,379,-5.3504,0.212219,0,0,0,0,0,0,0,-1,846,645,-5.35038,-0.212241
-371,379,-4.32092,-0.186707,0,0,0,0,0,0,0,-1,853,645,-4.3209,0.186707
-364,379,-3.40887,-0.549805,0,0,0,0,0,0,0,-1,860,645,-3.4089,0.549802
-357,379,0,0,0,0,0,0,0,0,0,-1,867,645,0,0
-350,379,0,0,0,0,0,0,0,0,0,-1,874,645,0,0
-343,379,0,0,0,0,0,0,0,0,0,-1,881,645,0,0
-336,379,0,0,0,0,0,0,0,0,0,-1,888,645,0,0
-329,379,0,0,0,0,0,0,0,0,0,-1,895,645,0,0
-322,379,0,0,0,0,0,0,0,0,0,-1,902,645,0,0
-315,379,0,0,0,0,0,0,0,0,0,-1,909,645,0,0
-308,379,0,0,0,0,0,0,0,0,0,-1,916,645,0,0
-301,379,0,0,0,0,0,0,0,0,0,-1,923,645,0,0
-294,379,0,0,0,0,0,0,0,0,0,-1,930,645,0,0
-287,379,0,0,0,0,0,0,0,0,0,-1,937,645,0,0
-280,379,0,0,0,0,0,0,0,0,0,-1,944,645,0,0
-273,379,0,0,0,0,0,0,0,0,0,-1,951,645,0,0
-266,379,0,0,0,0,0,0,0,0,0,-1,958,645,0,0
-259,379,0,0,0,0,0,0,0,0,0,-1,965,645,0,0
-252,379,0,0,0,0,0,0,0,0,0,-1,972,645,0,0
-245,379,0,0,0,0,0,0,0,0,0,-1,979,645,0,0
-238,379,0,0,0,0,0,0,0,0,0,-1,986,645,0,0
-231,379,0,0,0,0,0,0,0,0,0,-1,993,645,0,0
-224,379,0,0,0,0,0,0,0,0,0,-1,1000,645,0,0
-217,379,0,0,0,0,0,0,0,0,0,-1,1007,645,0,0
-210,379,0,0,0,0,0,0,0,0,0,-1,1014,645,0,0
-203,379,0,0,0,0,0,0,0,0,0,-1,1021,645,0,0
-196,379,0,0,0,0,0,0,0,0,0,-1,1028,645,0,0
-189,379,0,0,0,0,0,0,0,0,0,-1,1035,645,0,0
-182,379,0,0,0,0,0,0,0,0,0,-1,1042,645,0,0
-175,379,0,0,0,0,0,0,0,0,0,-1,1049,645,0,0
-168,379,0,0,0,0,0,0,0,0,0,-1,1056,645,0,0
-161,379,0,0,0,0,0,0,0,0,0,-1,1063,645,0,0
-154,379,0,0,0,0,0,0,0,0,0,-1,1070,645,0,0
-147,379,0,0,0,0,0,0,0,0,0,-1,1077,645,0,0
-140,379,0,0,0,0,0,0,0,0,0,-1,1084,645,0,0
-133,379,0,0,0,0,0,0,0,0,0,-1,1091,645,0,0
-126,379,0,0,0,0,0,0,0,0,0,-1,1098,645,0,0
-119,379,0,0,0,0,0,0,0,0,0,-1,1105,645,0,0
-112,379,0,0,0,0,0,0,0,0,0,-1,1112,645,0,0
-105,379,0,0,0,0,0,0,0,0,0,-1,1119,645,0,0
-98,379,0,0,0,0,0,0,0,0,0,-1,1126,645,0,0
-91,379,0,0,0,0,0,0,0,0,0,-1,1133,645,0,0
-84,379,0,0,0,0,0,0,0,0,0,-1,1140,645,0,0
-77,379,0,0,0,0,0,0,0,0,0,-1,1147,645,0,0
-70,379,0,0,0,0,0,0,0,0,0,-1,1154,645,0,0
-63,379,0,0,0,0,0,0,0,0,0,-1,1161,645,0,0
-56,379,0,0,0,0,0,0,0,0,0,-1,1168,645,0,0
-49,379,0,0,0,0,0,0,0,0,0,-1,1175,645,0,0
-42,379,0,0,0,0,0,0,0,0,0,-1,1182,645,0,0
-35,379,0,0,0,0,0,0,0,0,0,-1,1189,645,0,0
-28,379,0,0,0,0,0,0,0,0,0,-1,1196,645,0,0
-21,379,0,0,0,0,0,0,0,0,0,-1,1203,645,0,0
-14,379,0,0,0,0,0,0,0,0,0,-1,1210,645,0,0
-7,379,0,0,0,0,0,0,0,0,0,-1,1217,645,0,0
0,379,0,0,0,0,0,0,0,0,0,-1,1224,645,0,0
7,379,0,0,0,0,0,0,0,0,0,-1,1231,645,0,0
14,379,0,0,0,0,0,0,0,0,0,-1,1238,645,0,0
21,379,0,0,0,0,0,0,0,0,0,-1,1245,645,0,0
28,379,0,0,0,0,0,0,0,0,0,-1,1252,645,0,0
35,379,0,0,0,0,0,0,0,0,0,-1,1259,645,0,0
42,379,0,0,0,0,0,0,0,0,0,-1,1266,645,0,0
49,379,0,0,0,0,0,0,0,0,0,-1,1273,645,0,0
56,379,0,0,0,0,0,0,0,0,0,-1,1280,645,0,0
63,379,0,0,0,0,0,0,0,0,0,-1,1287,645,0,0
70,379,0,0,0,0,0,0,0,0,0,-1,1294,645,0,0
77,379,0,0,0,0,0,0,0,0,0,-1,1301,645,0,0
84,379,0,0,0,0,0,0,0,0,0,-1,1308,645,0,0
91,379,0,0,0,0,0,0,0,0,0,-1,1315,645,0,0
98,379,0,0,0,0,0,0,0,0,0,-1,1322,645,0,0
105,379,0,0,0,0,0,0,0,0,0,-1,1329,645,0,0
112,379,0,0,0,0,0,0,0,0,0,-1,1336,645,0,0
119,379,0,0,0,0,0,0,0,0,0,-1,1343,645,0,0
126,379,0,0,0,0,0,0,0,0,0,-1,1350,645,0,0
133,379,0,0,0,0,0,0,0,0,0,-1,1357,645,0,0
140,379,0,0,0,0,0,0,0,0,0,-1,1364,645,0,0
147,379,0,0,0,0,0,0,0,0,0,-1,1371,645,0,0
154,379,0,0,0,0,0,0,0,0,0,-1,1378,645,0,0
161,379,0,0,0,0,0,0,0,0,0,-1,1385,645,0,0
168,379,0,0,0,0,0,0,0,0,0,-1,1392,645,0,0
175,379,0,0,0,0,0,0,0,0,0,-1,1399,645,0,0
182,379,0,0,0,0,0,0,0,0,0,-1,1406,645,0,0
189,379,0,0,0,0,0,0,0,0,0,-1,1413,645,0,0
196,379,0,0,0,0,0,0,0,0,0,-1,1420,645,0,0
203,379,0,0,0,0,0,0,0,0,0,-1,1427,645,0,0
210,379,0,0,0,0,0,0,0,0,0,-1,1434,645,0,0
217,379,0,0,0,0,0,0,0,0,0,-1,1441,645,0,0
224,379,0,0,0,0,0,0,0,0,0,-1,1448,645,0,0
231,379,0,0,0,0,0,0,0,0,0,-1,1455,645,0,0
238,379,0,0,0,0,0,0,0,0,0,-1,1462,645,0,0
245,379,0,0,0,0,0,0,0,0,0,-1,1469,645,0,0
252,379,0,0,0,0,0,0,0,0,0,-1,1476,645,0,0
259,379,0,0,0,0,0,0,0,0,0,-1,1483,645,0,0
266,379,0,0,0,0,0,0,0,0,0,-1,1490,645,0,0
273,379,0,0,0,0,0,0,0,0,0,-1,1497,645,0,0
280,379,0,0,0,0,0,0,0,0,0,-1,1504,645,0,0
287,379,0,0,0,0,0,0,0,0,0,-1,1511,645,0,0
294,379,0,0,0,0,0,0,0,0,0,-1,1518,645,0,0
301,379,0,0,0,0,0,0,0,0,0,-1,1525,645,0,0
308,379,0,0,0,0,0,0,0,0,0,-1,1532,645,0,0
315,379,0,0,0,0,0,0,0,0,0,-1,1539,645,0,0
322,379,0,0,0,0,0,0,0,0,0,-1,1546,645,0,0
329,379,0,0,0,0,0,0,0,0,0,-1,1553,645,0,0
336,379,0,0,0,0,0,0,0,0,0,-1,1560,645,0,0
343,379,0,0,0,0,0,0,0,0,0,-1,1567,645,0,0
350,379,0,0,0,0,0,0,0,0,0,-1,1574,645,0,0
357,379,0,0,0,0,0,0,0,0,0,-1,1581,645,0,0
364,379,0,0,0,0,0,0,0,0,0,-1,1588,645,0,0
371,379,0,0,0,0,0,0,0,0,0,-1,1595,645,0,0
378,379,0,0,0,0,0,0,0,0,0,-1,1602,645,0,0
385,379,0,0,0,0,0,0,0,0,0,-1,1609,645,0,0
392,379,0,0,0,0,0,0,0,0,0,-1,1616,645,0,0
399,379,0,0,0,0,0,0,0,0,0,-1,1623,645,0,0
406,379,0,0,0,0,0,0,0,0,0,-1,1630,645,0,0
413,379,0,0,0,0,0,0,0,0,0,-1,1637,645,0,0
420,379,0,0,0,0,0,0,0,0,0,-1,1644,645,0,0
427,379,0,0,0,0,0,0,0,0,0,-1,1651,645,0,0
434,379,0,0,0,0,0,0,0,0,0,-1,1658,645,0,0
441,379,0,0,0,0,0,0,0,0,0,-1,1665,645,0,0
448,379,0,0,0,0,0,0,0,0,0,-1,1672,645,0,0
455,379,0,0,0,0,0,0,0,0,0,-1,1679,645,0,0
462,379,0,0,0,0,0,0,0,0,0,-1,1686,645,0,0
469,379,0,0,0,0,0,0,0,0,0,-1,1693,645,0,0
476,379,11.1787,0.830383,0,0,0,0,0,0,0,-1,1700,645,11.1787,-0.830365
483,379,7.4231,1.54321,0,0,0,0,0,0,0,-1,1707,645,7.42314,-1.54324
490,379,8.52881,1.56677,0,0,0,0,0,0,0,-1,1714,645,8.52878,-1.56677
497,379,9.63599,1.49573,0,0,0,0,0,0,0,-1,1721,645,9.63604,-1.4957
504,379,10.0833,1.35229,0,0,0,0,0,0,0,-1,1728,645,10.0832,-1.35227
511,379,8.14343,1.59912,0,0,0,0,0,0,0,-1,1735,645,8.14347,-1.59912
518,379,12.7955,-0.324097,0,0,0,0,0,0,0,-1,1742,645,12.7955,0.324101
525,379,6.03711,1.10352,0,0,0,0,0,0,0,-1,1749,645,6.03711,-1.10351
532,379,8.70947,0.887817,0,0,0,0,0,0,0,-1,1756,645,8.70953,-0.887808
539,379,9.87097,0.111389,0,0,0,0,0,0,0,-1,1763,645,9.87095,-0.111395
546,379,8.42383,-0.730652,0,0,0,0,0,0,0,-1,1770,645,8.42378,0.730638
553,379,17.5031,-6.85419,0,0,0,0,0,0,0,-1,1777,645,17.503,6.85417
560,379,17.1404,-6.45911,-0.00395316,0.00126219,-0.0031422,0.00273782,-0.00542879,-1.13175,0.00479956,0.0444726,1784,645,17.1404,6.4591
567,379,16.6603,-6.11365,-0.00273174,0.000894565,-0.00235978,0.00205733,-0.00389451,-1.11297,0.00349043,0.0225056,1791,645,16.6603,6.11368
574,379,16.7666,-5.6972,-0.00172562,0.000800003,-0.00158511,0.00156383,-0.00248944,-1.12175,0.00236041,0.0132919,1798,645,16.7666,5.6972
581,379,16.7617,-5.30408,-0.000919262,0.000881828,-0.000887743,0.00124583,-0.00128326,-1.18168,0.00146022,0.0152607,1805,645,16.7617,5.30407
588,379,16.7231,-4.85034,-0.000312361,0.00102204,-0.000307205,0.00108937,-0.000379689,-1.35505,0.00088053,0.0170489,1812,645,16.7232,4.85034
595,379,16.7183,-4.39618,0.000272083,0.00125212,0.000250028,0.00131222,0.000211981,1.33489,0.000813413,0.0142781,1819,645,16.7183,4.39616
602,379,16.713,-3.95673,0.000846801,0.0016091,0.000846593,0.00215639,0.000299513,0.996914,0.00134888,0.0154547,1826,645,16.713,3.95672
609,379,16.6676,-3.53265,0.0010583,0.00209234,0.00129322,0.00296806,0.000182574,0.975562,0.00192074,0.0160439,1833,645,16.6677,3.53265
616,379,16.661,-3.07538,0.00108518,0.00253197,0.00161514,0.00357832,3.88339e-05,0.995945,0.00237271,0.012418,1840,645,16.661,3.07539
623,379,16.6754,-2.58649,0.000979022,0.00303769,0.00191163,0.0041795,-0.000162787,1.03237,0.00284215,0.0112938,1847,645,16.6755,2.58646
630,379,16.6726,-2.14258,0.000645165,0.00354451,0.00211436,0.00465844,-0.000468767,1.08591,0.00327309,0.0129373,1854,645,16.6726,2.14255
637,379,16.6664,-1.62451,-8.47817e-05,0.00427284,0.00226822,0.0052392,-0.00105113,1.16805,0.00389079,0.0315642,1861,645,16.6663,1.6245
644,379,16.7813,-1.03339,0,0,0,0,0,0,0,-1,1868,645,16.7812,1.0334
651,379,12.9515,0.220825,0,0,0,0,0,0,0,-1,1875,645,12.9515,-0.220814
658,379,13.7498,0.37439,0,0,0,0,0,0,0,-1,1882,645,13.7498,-0.374371
665,379,11.9719,0.353333,0,0,0,0,0,0,0,-1,1889,645,11.9719,-0.353321
672,379,7.57605,2.15326,0,0,0,0,0,0,0,-1,1896,645,7.57599,-2.15326
679,379,8.55078,2.50409,0,0,0,0,0,0,0,-1,1903,645,8.55073,-2.50406
686,379,0,0,0,0,0,0,0,0,0,-1,1910,645,0,0
693,379,0,0,0,0,0,0,0,0,0,-1,1917,645,0,0
700,379,0,0,0,0,0,0,0,0,0,-1,1924,645,0,0
707,379,0,0,0,0,0,0,0,0,0,-1,1931,645,0,0
714,379,0,0,0,0,0,0,0,0,0,-1,1938,645,0,0
721,379,0,0,0,0,0,0,0,0,0,-1,1945,645,0,0
728,379,0,0,0,0,0,0,0,0,0,-1,1952,645,0,0
735,379,0,0,0,0,0,0,0,0,0,-1,1959,645,0,0
742,379,0,0,0,0,0,0,0,0,0,-1,1966,645,0,0
749,379,0,0,0,0,0,0,0,0,0,-1,1973,645,0,0
756,379,0,0,0,0,0,0,0,0,0,-1,1980,645,0,0
763,379,0,0,0,0,0,0,0,0,0,-1,1987,645,0,0
770,379,0,0,0,0,0,0,0,0,0,-1,1994,645,0,0
777,379,0,0,0,0,0,0,0,0,0,-1,2001,645,0,0
784,379,0,0,0,0,0,0,0,0,0,-1,2008,645,0,0
791,379,0,0,0,0,0,0,0,0,0,-1,2015,645,0,0
798,379,0,0,0,0,0,0,0,0,0,-1,2022,645,0,0
805,379,0,0,0,0,0,0,0,0,0,-1,2029,645,0,0
812,379,0,0,0,0,0,0,0,0,0,-1,2036,645,0,0
-700,372,0,0,0,0,0,0,0,0,0,-1,524,652,0,0
-693,372,0,0,0,0,0,0,0,0,0,-1,531,652,0,0
-686,372,0,0,0,0,0,0,0,0,0,-1,538,652,0,0
-679,372,0,0,0,0,0,0,0,0,0,-1,545,652,0,0
-672,372,0,0,0,0,0,0,0,0,0,-1,552,652,0,0
-665,372,0,0,0,0,0,0,0,0,0,-1,559,652,0,0
-658,372,0,0,0,0,0,0,0,0,0,-1,566,652,0,0
-651,372,0,0,0,0,0,0,0,0,0,-1,573,652,0,0
-644,372,0,0,0,0,0,0,0,0,0,-1,580,652,0,0
-637,372,0,0,0,0,0,0,0,0,0,-1,587,652,0,0
-630,372,0,0,0,0,0,0,0,0,0,-1,594,652,0,0
-623,372,0,0,0,0,0,0,0,0,0,-1,601,652,0,0
-616,372,0,0,0,0,0,0,0,0,0,-1,608,652,0,0
-609,372,0,0,0,0,0,0,0,0,0,-1,615,652,0,0
-602,372,0,0,0,0,0,0,0,0,0,-1,622,652,0,0
-595,372,0,0,0,0,0,0,0,0,0,-1,629,652,0,0
-588,372,0,0,0,0,0,0,0,0,0,-1,636,652,0,0
-581,372,0,0,0,0,0,0,0,0,0,-1,643,652,0,0
-574,372,0,0,0,0,0,0,0,0,0,-1,650,652,0,0
-567,372,-7.93744,0.73407,0,0,0,0,0,0,0,-1,657,652,-7.93741,-0.734076
-560,372,-8.78552,-0.158203,0,0,0,0,0,0,0,-1,664,652,-8.78552,0.158216
-553,372,-7.95551,1.61694,0,0,0,0,0,0,0,-1,671,652,-7.95552,-1.61697
-546,372,-4.2403,-3.75372,0,0,0,0,0,0,0,-1,678,652,-4.24028,3.75369
-539,372,-7.92285,-0.0650024,0,0,0,0,0,0,0,-1,685,652,-7.92287,0.0649772
-532,372,-8.59589,-0.419556,0,0,0,0,0,0,0,-1,692,652,-8.59591,0.419539
-525,372,-8.03674,-1.36804,0,0,0,0,0,0,0,-1,699,652,-8.03676,1.36806
-518,372,-9.00385,-3.11584,0,0,0,0,0,0,0,-1,706,652,-9.00382,3.11584
-511,372,-8.99927,-3.62512,0.00163463,0.00757424,-0.00270235,0.00861971,0.000589154,-1.20166,0.0055605,0.0268098,713,652,-8.99929,3.62511
-504,372,-9.02771,-4.01514,0.000614057,0.00500034,-0.00141761,0.00541861,0.000195786,-1.28388,0.00354895,0.0134286,720,652,-9.02768,4.01516
-497,372,-9.00763,-4.46326,0.000159826,0.00318125,-0.000770543,0.00336641,-2.53359e-05,-1.33497,0.00225277,0.01179,727,652,-9.00761,4.46328
-490,372,-9.0293,-4.87677,-9.8757e-05,0.00175736,-0.000228781,0.00178514,-0.00012654,-1.44995,0.00123444,0.0120908,734,652,-9.02927,4.87677
-483,372,-9.02057,-5.29932,0.00026613,0.00120935,-0.000372394,0.00133865,0.00013683,-1.23661,0.000850502,0.0115308,741,652,-9.0206,5.29931
-476,372,-9.03912,-5.70117,0.00101,0.00116355,-0.000932466,0.0020224,0.000151155,-0.826474,0.00130081,0.0129346,748,652,-9.03912,5.70117
-469,372,-9.05627,-6.12048,0.00175084,0.00125667,-0.00150056,0.00302452,-1.70105e-05,-0.703799,0.00202204,0.0110071,755,652,-9.0563,6.12049
-462,372,-9.05884,-6.55048,0.00242743,0.00140125,-0.00197336,0.00395332,-0.00012464,-0.658211,0.00267806,0.0100016,762,652,-9.05883,6.55047
-455,372,-9.08093,-6.97882,0.00285921,0.00128347,-0.0021008,0.00431502,-0.00017234,-0.605999,0.00293581,0.010567,769,652,-9.08096,6.97881
-448,372,-9.07666,-7.40845,0.00325071,0.0014417,-0.00227057,0.0047903,-9.78922e-05,-0.595852,0.00322666,0.0119924,776,652,-9.07668,7.40846
-441,372,-8.89795,-8.04004,0.00343854,0.00139815,-0.00217626,0.00482186,1.48197e-05,-0.566216,0.00320965,0.0467299,783,652,-8.89795,8.04004
-434,372,-8.78516,-8.80945,0,0,0,0,0,0,0,-1,790,652,-8.78518,8.80945
-427,372,-4.54248,-3.56268,0,0,0,0,0,0,0,-1,797,652,-4.54247,3.56266
-420,372,-4.66168,-2.93597,0,0,0,0,0,0,0,-1,804,652,-4.66166,2.93599
-413,372,-4.74762,-3.29541,0,0,0,0,0,0,0,-1,811,652,-4.74763,3.29542
-406,372,-0.885437,-0.583923,0,0,0,0,0,0,0,-1,818,652,-0.885437,0.5839
-399,372,-3.97357,-0.825012,0,0,0,0,0,0,0,-1,825,652,-3.97359,0.825037
-392,372,-7.64337,0.173035,0,0,0,0,0,0,0,-1,832,652,-7.64337,-0.173019
-385,372,-6.48871,-0.0271606,0,0,0,0,0,0,0,-1,839,652,-6.48874,0.0271353
-378,372,-5.33044,-0.242432,0,0,0,0,0,0,0,-1,846,652,-5.33042,0.242457
-371,372,-4.40802,-0.495667,0,0,0,0,0,0,0,-1,853,652,-4.40802,0.495661
-364,372,0,0,0,0,0,0,0,0,0,-1,860,652,0,0
-357,372,0,0,0,0,0,0,0,0,0,-1,867,652,0,0
-350,372,0,0,0,0,0,0,0,0,0,-1,874,652,0,0
-343,372,0,0,0,0,0,0,0,0,0,-1,881,652,0,0
-336,372,0,0,0,0,0,0,0,0,0,-1,888,652,0,0
-329,372,0,0,0,0,0,0,0,0,0,-1,895,652,0,0
-322,372,0,0,0,0,0,0,0,0,0,-1,902,652,0,0
-315,372,0,0,0,0,0,0,0,0,0,-1,909,652,0,0
-308,372,0,0,0,0,0,0,0,0,0,-1,916,652,0,0
-301,372,0,0,0,0,0,0,0,0,0,-1,923,652,0,0
-294,372,0,0,0,0,0,0,0,0,0,-1,930,652,0,0
-287,372,0,0,0,0,0,0,0,0,0,-1,937,652,0,0
-280,372,0,0,0,0,0,0,0,0,0,-1,944,652,0,0
-273,372,0,0,0,0,0,0,0,0,0,-1,951,652,0,0
-266,372,0,0,0,0,0,0,0,0,0,-1,958,652,0,0
-259,372,0,0,0,0,0,0,0,0,0,-1,965,652,0,0
-252,372,0,0,0,0,0,0,0,0,0,-1,972,652,0,0
-245,372,0,0,0,0,0,0,0,0,0,-1,979,652,0,0
-238,372,0,0,0,0,0,0,0,0,0,-1,986,652,0,0
-231,372,0,0,0,0,0,0,0,0,0,-1,993,652,0,0
-224,372,0,0,0,0,0,0,0,0,0,-1,1000,652,0,0
-217,372,0,0,0,0,0,0,0,0,0,-1,1007,652,0,0
-210,372,0,0,0,0,0,0,0,0,0,-1,1014,652,0,0
-203,372,0,0,0,0,0,0,0,0,0,-1,1021,652,0,0
-196,372,0,0,0,0,0,0,0,0,0,-1,1028,652,0,0
-189,372,0,0,0,0,0,0,0,0,0,-1,1035,652,0,0
-182,372,0,0,0,0,0,0,0,0,0,-1,1042,652,0,0
-175,372,0,0,0,0,0,0,0,0,0,-1,1049,652,0,0
-168,372,0,0,0,0,0,0,0,0,0,-1,1056,652,0,0
-161,372,0,0,0,0,0,0,0,0,0,-1,1063,652,0,0
-154,372,0,0,0,0,0,0,0,0,0,-1,1070,652,0,0
-147,372,0,0,0,0,0,0,0,0,0,-1,1077,652,0,0
-140,372,0,0,0,0,0,0,0,0,0,-1,1084,652,0,0
-133,372,0,0,0,0,0,0,0,0,0,-1,1091,652,0,0
-126,372,0,0,0,0,0,0,0,0,0,-1,1098,652,0,0
-119,372,0,0,0,0,0,0,0,0,0,-1,1105,652,0,0
-112,372,0,0,0,0,0,0,0,0,0,-1,1112,652,0,0
-105,372,0,0,0,0,0,0,0,0,0,-1,1119,652,0,0
-98,372,0,0,0,0,0,0,0,0,0,-1,1126,652,0,0
-91,372,0,0,0,0,0,0,0,0,0,-1,1133,652,0,0
-84,372,0,0,0,0,0,0,0,0,0,-1,1140,652,0,0
-77,372,0,0,0,0,0,0,0,0,0,-1,1147,652,0,0
-70,372,0,0,0,0,0,0,0,0,0,-1,1154,652,0,0
-63,372,0,0,0,0,0,0,0,0,0,-1,1161,652,0,0
-56,372,0,0,0,0,0,0,0,0,0,-1,1168,652,0,0
-49,372,0,0,0,0,0,0,0,0,0,-1,1175,652,0,0
-42,372,0,0,0,0,0,0,0,0,0,-1,1182,652,0,0
-35,372,0,0,0,0,0,0,0,0,0,-1,1189,652,0,0
-28,372,0,0,0,0,0,0,0,0,0,-1,1196,652,0,0
-21,372,0,0,0,0,0,0,0,0,0,-1,1203,652,0,0
-14,372,0,0,0,0,0,0,0,0,0,-1,1210,652,0,0
-7,372,0,0,0,0,0,0,0,0,0,-1,1217,652,0,0
0,372,0,0,0,0,0,0,0,0,0,-1,1224,652,0,0
7,372,0,0,0,0,0,0,0,0,0,-1,1231,652,0,0
14,372,0,0,0,0,0,0,0,0,0,-1,1238,652,0,0
21,372,0,0,0,0,0,0,0,0,0,-1,1245,652,0,0
28,372,0,0,0,0,0,0,0,0,0,-1,1252,652,0,0
35,372,0,0,0,0,0,0,0,0,0,-1,1259,652,0,0
42,372,0,0,0,0,0,0,0,0,0,-1,1266,652,0,0
49,372,0,0,0,0,0,0,0,0,0,-1,1273,652,0,0
56,372,0,0,0,0,0,0,0,0,0,-1,1280,652,0,0
63,372,0,0,0,0,0,0,0,0,0,-1,1287,652,0,0
70,372,0,0,0,0,0,0,0,0,0,-1,1294,652,0,0
77,372,0,0,0,0,0,0,0,0,0,-1,1301,652,0,0
84,372,0,0,0,0,0,0,0,0,0,-1,1308,652,0,0
91,372,0,0,0,0,0,0,0,0,0,-1,1315,652,0,0
98,372,0,0,0,0,0,0,0,0,0,-1,1322,652,0,0
105,372,0,0,0,0,0,0,0,0,0,-1,1329,652,0,0
112,372,0,0,0,0,0,0,0,0,0,-1,1336,652,0,0
119,372,0,0,0,0,0,0,0,0,0,-1,1343,652,0,0
126,372,0,0,0,0,0,0,0,0,0,-1,1350,652,0,0
133,372,0,0,0,0,0,0,0,0,0,-1,1357,652,0,0
140,372,0,0,0,0,0,0,0,0,0,-1,1364,652,0,0
147,372,0,0,0,0,0,0,0,0,0,-1,1371,652,0,0
154,372,0,0,0,0,0,0,0,0,0,-1,1378,652,0,0
161,372,0,0,0,0,0,0,0,0,0,-1,1385,652,0,0
168,372,0,0,0,0,0,0,0,0,0,-1,1392,652,0,0
175,372,0,0,0,0,0,0,0,0,0,-1,1399,652,0,0
182,372,0,0,0,0,0,0,0,0,0,-1,1406,652,0,0
189,372,0,0,0,0,0,0,0,0,0,-1,1413,652,0,0
196,372,0,0,0,0,0,0,0,0,0,-1,1420,652,0,0
203,372,0,0,0,0,0,0,0,0,0,-1,1427,652,0,0
210,372,0,0,0,0,0,0,0,0,0,-1,1434,652,0,0
217,372,0,0,0,0,0,0,0,0,0,-1,1441,652,0,0
224,372,0,0,0,0,0,0,0,0,0,-1,1448,652,0,0
231,372,0,0,0,0,0,0,0,0,0,-1,1455,652,0,0
238,372,0,0,0,0,0,0,0,0,0,-1,1462,652,0,0
245,372,0,0,0,0,0,0,0,0,0,-1,1469,652,0,0
252,372,0,0,0,0,0,0,0,0,0,-1,1476,652,0,0
259,372,0,0,0,0,0,0,0,0,0,-1,1483,652,0,0
266,372,0,0,0,0,0,0,0,0,0,-1,1490,652,0,0
273,372,0,0,0,0,0,0,0,0,0,-1,1497,652,0,0
280,372,0,0,0,0,0,0,0,0,0,-1,1504,652,0,0
287,372,0,0,0,0,0,0,0,0,0,-1,1511,652,0,0
294,372,0,0,0,0,0,0,0,0,0,-1,1518,652,0,0
301,372,0,0,0,0,0,0,0,0,0,-1,1525,652,0,0
308,372,0,0,0,0,0,0,0,0,0,-1,1532,652,0,0
315,372,0,0,0,0,0,0,0,0,0,-1,1539,652,0,0
322,372,0,0,0,0,0,0,0,0,0,-1,1546,652,0,0
329,372,0,0,0,0,0,0,0,0,0,-1,1553,652,0,0
336,372,0,0,0,0,0,0,0,0,0,-1,1560,652,0,0
343,372,0,0,0,0,0,0,0,0,0,-1,1567,652,0,0
350,372,0,0,0,0,0,0,0,0,0,-1,1574,652,0,0
357,372,0,0,0,0,0,0,0,0,0,-1,1581,652,0,0
364,372,0,0,0,0,0,0,0,0,0,-1,1588,652,0,0
371,372,0,0,0,0,0,0,0,0,0,-1,1595,652,0,0
378,372,0,0,0,0,0,0,0,0,0,-1,1602,652,0,0
385,372,0,0,0,0,0,0,0,0,0,-1,1609,652,0,0
392,372,0,0,0,0,0,0,0,0,0,-1,1616,652,0,0
399,372,0,0,0,0,0,0,0,0,0,-1,1623,652,0,0
406,372,0,0,0,0,0,0,0,0,0,-1,1630,652,0,0
413,372,0,0,0,0,0,0,0,0,0,-1,1637,652,0,0
420,372,0,0,0,0,0,0,0,0,0,-1,1644,652,0,0
427,372,0,0,0,0,0,0,0,0,0,-1,1651,652,0,0
434,372,0,0,0,0,0,0,0,0,0,-1,1658,652,0,0
441,372,0,0,0,0,0,0,0,0,0,-1,1665,652,0,0
448,372,0,0,0,0,0,0,0,0,0,-1,1672,652,0,0
455,372,0,0,0,0,0,0,0,0,0,-1,1679,652,0,0
462,372,0,0,0,0,0,0,0,0,0,-1,1686,652,0,0
469,372,0,0,0,0,0,0,0,0,0,-1,1693,652,0,0
476,372,0,0,0,0,0,0,0,0,0,-1,1700,652,0,0
483,372,8.74182,1.53125,0,0,0,0,0,0,0,-1,1707,652,8.74186,-1.53126
490,372,9.78455,1.67096,0,0,0,0,0,0,0,-1,1714,652,9.7846,-1.67093
497,372,9.97644,1.46069,0,0,0,0,0,0,0,-1,1721,652,9.97647,-1.46071
504,372,10.1216,1.28375,0,0,0,0,0,0,0,-1,1728,652,10.1216,-1.28376
511,372,11.7367,-0.0272217,0,0,0,0,0,0,0,-1,1735,652,11.7367,0.0272326
518,372,12.0657,-0.0995483,0,0,0,0,0,0,0,-1,1742,652,12.0657,0.0995285
525,372,12.3947,-0.171814,0,0,0,0,0,0,0,-1,1749,652,12.3946,0.171824
532,372,9.36597,1.72034,0,0,0,0,0,0,0,-1,1756,652,9.36597,-1.72036
539,372,7.82886,-0.0865479,0,0,0,0,0,0,0,-1,1763,652,7.82882,0.0865771
546,372,10.953,-0.187195,0,0,0,0,0,0,0,-1,1770,652,10.953,0.187181
553,372,14.1201,-4.83234,0,0,0,0,0,0,0,-1,1777,652,14.1201,4.83235
560,372,17.4031,-6.65973,0,0,0,0,0,0,0,-1,1784,652,17.4031,6.65971
567,372,17.2048,-6.08289,-0.00354776,0.00119041,-0.00281739,0.00250239,-0.00485974,-1.13499,0.00432255,0.0382987,1791,652,17.2048,6.08288
574,372,17.2363,-5.64716,-0.00216782,0.000970756,-0.00186415,0.00183821,-0.00303528,-1.13526,0.00284186,0.0234149,1798,652,17.2363,5.64718
581,372,17.231,-5.29309,-0.00112614,0.000964962,-0.00107821,0.00142132,-0.00158249,-1.17041,0.00173508,0.017001,1805,652,17.2309,5.29311
588,372,17.2013,-4.84369,-0.000364659,0.00098697,-0.000463226,0.00113049,-0.000508175,-1.27036,0.000968556,0.0161711,1812,652,17.2013,4.84368
595,372,17.1802,-4.38501,0.000257475,0.00108037,4.264e-05,0.00108257,0.000255271,1.51916,0.00065346,0.0135859,1819,652,17.1801,4.38503
602,372,17.1815,-3.96191,0.000840405,0.00131527,0.000568622,0.00169404,0.000461636,0.983174,0.00101124,0.014455,1826,652,17.1815,3.96191
609,372,17.106,-3.5199,0.00106363,0.00168369,0.000954236,0.00237699,0.000370321,0.942469,0.00147678,0.0155875,1833,652,17.106,3.51987
616,372,17.1088,-3.05731,0.00112489,0.00201985,0.00124443,0.00289481,0.000249926,0.957993,0.0018522,0.0148252,1840,652,17.1088,3.05729
623,372,17.1324,-2.58282,0.000940174,0.00240421,0.00145607,0.00330192,4.24697e-05,1.01831,0.00218726,0.0119928,1847,652,17.1324,2.58281
630,372,17.1199,-2.11823,0.000441709,0.00278407,0.00154693,0.00355316,-0.000327384,1.10941,0.0024851,0.0165416,1854,652,17.1199,2.11822
637,372,17.1404,-1.68567,-0.000435426,0.00319952,0.00154727,0.00376894,-0.00100484,1.21816,0.00290607,0.0232855,1861,652,17.1404,1.68568
644,372,17.2322,-1.10901,-0.00170827,0.00359158,0.00151465,0.00399391,-0.0021106,1.31117,0.00357991,0.0369841,1868,652,17.2322,1.10902
651,372,17.5565,-0.465576,0,0,0,0,0,0,0,-1,1875,652,17.5565,0.465596
658,372,14.157,0.280273,0,0,0,0,0,0,0,-1,1882,652,14.157,-0.280264
665,372,13.421,0.714966,0,0,0,0,0,0,0,-1,1889,652,13.4211,-0.714941
672,372,9.34106,1.48444,0,0,0,0,0,0,0,-1,1896,652,9.34109,-1.48444
679,372,10.7308,2.32391,0,0,0,0,0,0,0,-1,1903,652,10.7309,-2.3239
686,372,11.6295,2.52997,0,0,0,0,0,0,0,-1,1910,652,11.6296,-2.52996
693,372,0,0,0,0,0,0,0,0,0,-1,1917,652,0,0
700,372,0,0,0,0,0,0,0,0,0,-1,1924,652,0,0
707,372,0,0,0,0,0,0,0,0,0,-1,1931,652,0,0
714,372,0,0,0,0,0,0,0,0,0,-1,1938,652,0,0
721,372,0,0,0,0,0,0,0,0,0,-1,1945,652,0,0
728,372,0,0,0,0,0,0,0,0,0,-1,1952,652,0,0
735,372,0,0,0,0,0,0,0,0,0,-1,1959,652,0,0
742,372,0,0,0,0,0,0,0,0,0,-1,1966,652,0,0
749,372,0,0,0,0,0,0,0,0,0,-1,1973,652,0,0
756,372,0,0,0,0,0,0,0,0,0,-1,1980,652,0,0
763,372,0,0,0,0,0,0,0,0,0,-1,1987,652,0,0
770,372,0,0,0,0,0,0,0,0,0,-1,1994,652,0,0
777,372,0,0,0,0,0,0,0,0,0,-1,2001,652,0,0
784,372,0,0,0,0,0,0,0,0,0,-1,2008,652,0,0
791,372,0,0,0,0,0,0,0,0,0,-1,2015,652,0,0
798,372,0,0,0,0,0,0,0,0,0,-1,2022,652,0,0
805,372,0,0,0,0,0,0,0,0,0,-1,2029,652,0,0
812,372,0,0,0,0,0,0,0,0,0,-1,2036,652,0,0
-700,365,0,0,0,0,0,0,0,0,0,-1,524,659,0,0
-693,365,0,0,0,0,0,0,0,0,0,-1,531,659,0,0
-686,365,0,0,0,0,0,0,0,0,0,-1,538,659,0,0
-679,365,0,0,0,0,0,0,0,0,0,-1,545,659,0,0
-672,365,0,0,0,0,0,0,0,0,0,-1,552,659,0,0
-665,365,0,0,0,0,0,0,0,0,0,-1,559,659,0,0
-658,365,0,0,0,0,0,0,0,0,0,-1,566,659,0,0
-651,365,0,0,0,0,0,0,0,0,0,-1,573,659,0,0
-644,365,0,0,0,0,0,0,0,0,0,-1,580,659,0,0
-637,365,0,0,0,0,0,0,0,0,0,-1,587,659,0,0
-630,365,0,0,0,0,0,0,0,0,0,-1,594,659,0,0
-623,365,0,0,0,0,0,0,0,0,0,-1,601,659,0,0
-616,365,0,0,0,0,0,0,0,0,0,-1,608,659,0,0
-609,365,0,0,0,0,0,0,0,0,0,-1,615,659,0,0
-602,365,0,0,0,0,0,0,0,0,0,-1,622,659,0,0
-595,365,0,0,0,0,0,0,0,0,0,-1,629,659,0,0
-588,365,0,0,0,0,0,0,0,0,0,-1,636,659,0,0
-581,365,0,0,0,0,0,0,0,0,0,-1,643,659,0,0
-574,365,-7.69281,1.59015,0,0,0,0,0,0,0,-1,650,659,-7.69282,-1.59018
-567,365,-8.2583,1.72638,0,0,0,0,0,0,0,-1,657,659,-8.25827,-1.72637
-560,365,-7.17767,0.275757,0,0,0,0,0,0,0,-1,664,659,-7.17768,-0.27577
-553,365,-10.0349,-0.169617,0,0,0,0,0,0,0,-1,671,659,-10.0349,0.169593
-546,365,-10.3684,-1.44214,0,0,0,0,0,0,0,-1,678,659,-10.3684,1.44216
-539,365,-8.38599,1.52936,0,0,0,0,0,0,0,-1,685,659,-8.38598,-1.52935
-532,365,-8.52863,0.166504,0,0,0,0,0,0,0,-1,692,659,-8.52863,-0.166501
-525,365,-9.28229,-2.62726,0,0,0,0,0,0,0,-1,699,659,-9.28227,2.62724
-518,365,-9.46033,-3.13269,0,0,0,0,0,0,0,-1,706,659,-9.46035,3.13268
-511,365,-9.46161,-3.59808,0.00213179,0.00688638,-0.00275458,0.00814766,0.000870502,-1.1414,0.00516611,0.0259772,713,659,-9.46163,3.59808
-504,365,-9.44482,-4.01288,0.00112379,0.00446313,-0.00150735,0.00504288,0.00054404,-1.20362,0.00319605,0.0116384,720,659,-9.44485,4.01287
-497,365,-9.44135,-4.45197,0.000694458,0.00275687,-0.000892706,0.00308959,0.000361732,-1.21403,0.00195037,0.0128538,727,659,-9.44134,4.45195
-490,365,-9.44495,-4.88892,0.000427252,0.00145142,-0.000391554,0.00158396,0.000294708,-1.2444,0.000972733,0.0138611,734,659,-9.44496,4.88892
-483,365,-9.46515,-5.30914,0.000774488,0.0010241,-0.000574278,0.00148698,0.000311612,-0.892399,0.000905501,0.0121945,741,659,-9.46514,5.30917
-476,365,-9.44952,-5.69885,0.00151845,0.00111579,-0.00119884,0.00253275,0.000101496,-0.702206,0.0016557,0.0138805,748,659,-9.4495,5.69883
-469,365,-9.46234,-6.09741,0.00228362,0.00134433,-0.00183141,0.00370464,-7.66921e-05,-0.659882,0.00249572,0.0145355,755,659,-9.46236,6.09742
-462,365,-9.48297,-6.53766,0.00301348,0.00168699,-0.00240094,0.0048411,-0.000140634,-0.650637,0.00327529,0.0144964,762,659,-9.48295,6.53764
-455,365,-9.49719,-6.96259,0.00351266,0.00176111,-0.00264983,0.00542769,-0.000153912,-0.625798,0.00367084,0.0158516,769,659,-9.49717,6.96257
-448,365,-9.4292,-7.47406,0.00401903,0.00228796,-0.00304567,0.00631977,-1.27782e-05,-0.646955,0.00421744,0.0298755,776,659,-9.42918,7.47408
-441,365,-9.2486,-8.10406,0,0,0,0,0,0,0,-1,783,659,-9.24861,8.10406
-434,365,-5.45056,-3.98041,0,0,0,0,0,0,0,-1,790,659,-5.45055,3.98042
-427,365,-5.05377,-4.74689,0,0,0,0,0,0,0,-1,797,659,-5.05376,4.7469
-420,365,-4.58813,-3.16376,0,0,0,0,0,0,0,-1,804,659,-4.58816,3.16374
-413,365,0.141357,0.672729,0,0,0,0,0,0,0,-1,811,659,0.141365,-0.672714
-406,365,-1.75067,-0.934448,0,0,0,0,0,0,0,-1,818,659,-1.7507,0.934424
-399,365,-4.10242,-1.25439,0,0,0,0,0,0,0,-1,825,659,-4.10244,1.25438
-392,365,-7.46545,-0.779724,0,0,0,0,0,0,0,-1,832,659,-7.46543,0.779744
-385,365,-6.27875,-0.887573,0,0,0,0,0,0,0,-1,839,659,-6.27874,0.887545
-378,365,-5.34503,-0.263306,0,0,0,0,0,0,0,-1,846,659,-5.34504,0.263275
-371,365,0,0,0,0,0,0,0,0,0,-1,853,659,0,0
-364,365,0,0,0,0,0,0,0,0,0,-1,860,659,0,0
-357,365,0,0,0,0,0,0,0,0,0,-1,867,659,0,0
-350,365,0,0,0,0,0,0,0,0,0,-1,874,659,0,0
-343,365,0,0,0,0,0,0,0,0,0,-1,881,659,0,0
-336,365,0,0,0,0,0,0,0,0,0,-1,888,659,0,0
-329,365,0,0,0,0,0,0,0,0,0,-1,895,659,0,0
-322,365,0,0,0,0,0,0,0,0,0,-1,902,659,0,0
-315,365,0,0,0,0,0,0,0,0,0,-1,909,659,0,0
-308,365,0,0,0,0,0,0,0,0,0,-1,916,659,0,0
-301,365,0,0,0,0,0,0,0,0,0,-1,923,659,0,0
-294,365,0,0,0,0,0,0,0,0,0,-1,930,659,0,0
-287,365,0,0,0,0,0,0,0,0,0,-1,937,659,0,0
-280,365,0,0,0,0,0,0,0,0,0,-1,944,659,0,0
-273,365,0,0,0,0,0,0,0,0,0,-1,951,659,0,0
-266,365,0,0,0,0,0,0,0,0,0,-1,958,659,0,0
-259,365,0,0,0,0,0,0,0,0,0,-1,965,659,0,0
-252,365,0,0,0,0,0,0,0,0,0,-1,972,659,0,0
-245,365,0,0,0,0,0,0,0,0,0,-1,979,659,0,0
-238,365,0,0,0,0,0,0,0,0,0,-1,986,659,0,0
-231,365,0,0,0,0,0,0,0,0,0,-1,993,659,0,0
-224,365,0,0,0,0,0,0,0,0,0,-1,1000,659,0,0
-217,365,0,0,0,0,0,0,0,0,0,-1,1007,659,0,0
-210,365,0,0,0,0,0,0,0,0,0,-1,1014,659,0,0
-203,365,0,0,0,0,0,0,0,0,0,-1,1021,659,0,0
-196,365,0,0,0,0,0,0,0,0,0,-1,1028,659,0,0
-189,365,0,0,0,0,0,0,0,0,0,-1,1035,659,0,0
-182,365,0,0,0,0,0,0,0,0,0,-1,1042,659,0,0
-175,365,0,0,0,0,0,0,0,0,0,-1,1049,659,0,0
-168,365,0,0,0,0,0,0,0,0,0,-1,1056,659,0,0
-161,365,0,0,0,0,0,0,0,0,0,-1,1063,659,0,0
-154,365,0,0,0,0,0,0,0,0,0,-1,1070,659,0,0
-147,365,0,0,0,0,0,0,0,0,0,-1,1077,659,0,0
-140,365,0,0,0,0,0,0,0,0,0,-1,1084,659,0,0
-133,365,0,0,0,0,0,0,0,0,0,-1,1091,659,0,0
-126,365,0,0,0,0,0,0,0,0,0,-1,1098,659,0,0
-119,365,0,0,0,0,0,0,0,0,0,-1,1105,659,0,0
-112,365,0,0,0,0,0,0,0,0,0,-1,1112,659,0,0
-105,365,0,0,0,0,0,0,0,0,0,-1,1119,659,0,0
-98,365,0,0,0,0,0,0,0,0,0,-1,1126,659,0,0
-91,365,0,0,0,0,0,0,0,0,0,-1,1133,659,0,0
-84,365,0,0,0,0,0,0,0,0,0,-1,1140,659,0,0
-77,365,0,0,0,0,0,0,0,0,0,-1,1147,659,0,0
-70,365,0,0,0,0,0,0,0,0,0,-1,1154,659,0,0
-63,365,0,0,0,0,0,0,0,0,0,-1,1161,659,0,0
-56,365,0,0,0,0,0,0,0,0,0,-1,1168,659,0,0
-49,365,0,0,0,0,0,0,0,0,0,-1,1175,659,0,0
-42,365,0,0,0,0,0,0,0,0,0,-1,1182,659,0,0
-35,365,0,0,0,0,0,0,0,0,0,-1,1189,659,0,0
-28,365,0,0,0,0,0,0,0,0,0,-1,1196,659,0,0
-21,365,0,0,0,0,0,0,0,0,0,-1,1203,659,0,0
-14,365,0,0,0,0,0,0,0,0,0,-1,1210,659,0,0
-7,365,0,0,0,0,0,0,0,0,0,-1,1217,659,0,0
0,365,0,0,0,0,0,0,0,0,0,-1,1224,659,0,0
7,365,0,0,0,0,0,0,0,0,0,-1,1231,659,0,0
14,365,0,0,0,0,0,0,0,0,0,-1,1238,659,0,0
21,365,0,0,0,0,0,0,0,0,0,-1,1245,659,0,0
28,365,0,0,0,0,0,0,0,0,0,-1,1252,659,0,0
35,365,0,0,0,0,0,0,0,0,0,-1,1259,659,0,0
42,365,0,0,0,0,0,0,0,0,0,-1,1266,659,0,0
49,365,0,0,0,0,0,0,0,0,0,-1,1273,659,0,0
56,365,0,0,0,0,0,0,0,0,0,-1,1280,659,0,0
63,365,0,0,0,0,0,0,0,0,0,-1,1287,659,0,0
70,365,0,0,0,0,0,0,0,0,0,-1,1294,659,0,0
77,365,0,0,0,0,0,0,0,0,0,-1,1301,659,0,0
84,365,0,0,0,0,0,0,0,0,0,-1,1308,659,0,0
91,365,0,0,0,0,0,0,0,0,0,-1,1315,659,0,0
98,365,0,0,0,0,0,0,0,0,0,-1,1322,659,0,0
105,365,0,0,0,0,0,0,0,0,0,-1,1329,659,0,0
112,365,0,0,0,0,0,0,0,0,0,-1,1336,659,0,0
119,365,0,0,0,0,0,0,0,0,0,-1,1343,659,0,0
126,365,0,0,0,0,0,0,0,0,0,-1,1350,659,0,0
133,365,0,0,0,0,0,0,0,0,0,-1,1357,659,0,0
140,365,0,0,0,0,0,0,0,0,0,-1,1364,659,0,0
147,365,0,0,0,0,0,0,0,0,0,-1,1371,659,0,0
154,365,0,0,0,0,0,0,0,0,0,-1,1378,659,0,0
161,365,0,0,0,0,0,0,0,0,0,-1,1385,659,0,0
168,365,0,0,0,0,0,0,0,0,0,-1,1392,659,0,0
175,365,0,0,0,0,0,0,0,0,0,-1,1399,659,0,0
182,365,0,0,0,0,0,0,0,0,0,-1,1406,659,0,0
189,365,0,0,0,0,0,0,0,0,0,-1,1413,659,0,0
196,365,0,0,0,0,0,0,0,0,0,-1,1420,659,0,0
203,365,0,0,0,0,0,0,0,0,0,-1,1427,659,0,0
210,365,0,0,0,0,0,0,0,0,0,-1,1434,659,0,0
217,365,0,0,0,0,0,0,0,0,0,-1,1441,659,0,0
224,365,0,0,0,0,0,0,0,0,0,-1,1448,659,0,0
231,365,0,0,0,0,0,0,0,0,0,-1,1455,659,0,0
238,365,0,0,0,0,0,0,0,0,0,-1,1462,659,0,0
245,365,0,0,0,0,0,0,0,0,0,-1,1469,659,0,0
252,365,0,0,0,0,0,0,0,0,0,-1,1476,659,0,0
259,365,0,0,0,0,0,0,0,0,0,-1,1483,659,0,0
266,365,0,0,0,0,0,0,0,0,0,-1,1490,659,0,0
273,365,0,0,0,0,0,0,0,0,0,-1,1497,659,0,0
280,365,0,0,0,0,0,0,0,0,0,-1,1504,659,0,0
287,365,0,0,0,0,0,0,0,0,0,-1,1511,659,0,0
294,365,0,0,0,0,0,0,0,0,0,-1,1518,659,0,0
301,365,0,0,0,0,0,0,0,0,0,-1,1525,659,0,0
308,365,0,0,0,0,0,0,0,0,0,-1,1532,659,0,0
315,365,0,0,0,0,0,0,0,0,0,-1,1539,659,0,0
322,365,0,0,0,0,0,0,0,0,0,-1,1546,659,0,0
329,365,0,0,0,0,0,0,0,0,0,-1,1553,659,0,0
336,365,0,0,0,0,0,0,0,0,0,-1,1560,659,0,0
343,365,0,0,0,0,0,0,0,0,0,-1,1567,659,0,0
350,365,0,0,0,0,0,0,0,0,0,-1,1574,659,0,0
357,365,0,0,0,0,0,0,0,0,0,-1,1581,659,0,0
364,365,0,0,0,0,0,0,0,0,0,-1,1588,659,0,0
371,365,0,0,0,0,0,0,0,0,0,-1,1595,659,0,0
378,365,0,0,0,0,0,0,0,0,0,-1,1602,659,0,0
385,365,0,0,0,0,0,0,0,0,0,-1,1609,659,0,0
392,365,0,0,0,0,0,0,0,0,0,-1,1616,659,0,0
399,365,0,0,0,0,0,0,0,0,0,-1,1623,659,0,0
406,365,0,0,0,0,0,0,0,0,0,-1,1630,659,0,0
413,365,0,0,0,0,0,0,0,0,0,-1,1637,659,0,0
420,365,0,0,0,0,0,0,0,0,0,-1,1644,659,0,0
427,365,0,0,0,0,0,0,0,0,0,-1,1651,659,0,0
434,365,0,0,0,0,0,0,0,0,0,-1,1658,659,0,0
441,365,0,0,0,0,0,0,0,0,0,-1,1665,659,0,0
448,365,0,0,0,0,0,0,0,0,0,-1,1672,659,0,0
455,365,0,0,0,0,0,0,0,0,0,-1,1679,659,0,0
462,365,0,0,0,0,0,0,0,0,0,-1,1686,659,0,0
469,365,0,0,0,0,0,0,0,0,0,-1,1693,659,0,0
476,365,0,0,0,0,0,0,0,0,0,-1,1700,659,0,0
483,365,0,0,0,0,0,0,0,0,0,-1,1707,659,0,0
490,365,8.39551,0.471252,0,0,0,0,0,0,0,-1,1714,659,8.39551,-0.471241
497,365,9.89233,1.35394,0,0,0,0,0,0,0,-1,1721,659,9.89237,-1.35396
504,365,10.1414,1.18005,0,0,0,0,0,0,0,-1,1728,659,10.1413,-1.18004
511,365,10.5151,0.993896,0,0,0,0,0,0,0,-1,1735,659,10.5152,-0.993894
518,365,11.2029,0.398132,0,0,0,0,0,0,0,-1,1742,659,11.2029,-0.398136
525,365,15.5748,3.85303,0,0,0,0,0,0,0,-1,1749,659,15.5748,-3.85303
532,365,11.2446,1.00629,0,0,0,0,0,0,0,-1,1756,659,11.2446,-1.00631
539,365,12.6301,1.03204,0,0,0,0,0,0,0,-1,1763,659,12.6302,-1.03204
546,365,11.647,0.84198,0,0,0,0,0,0,0,-1,1770,659,11.6469,-0.841955
553,365,12.028,-0.558899,0,0,0,0,0,0,0,-1,1777,659,12.028,0.558873
560,365,14.5372,-4.55548,0,0,0,0,0,0,0,-1,1784,659,14.5373,4.55547
567,365,17.8197,-6.17828,0,0,0,0,0,0,0,-1,1791,659,17.8197,6.17831
574,365,17.736,-5.72253,0,0,0,0,0,0,0,-1,1798,659,17.736,5.72252
581,365,17.6251,-5.43201,-0.00140299,0.00109313,-0.00117149,0.0015568,-0.00186667,-1.19391,0.00197924,0.0453625,1805,659,17.6251,5.43201
588,365,17.6119,-4.89874,-0.000451346,0.00101094,-0.000522314,0.00117834,-0.000618747,-1.26064,0.00105419,0.0155162,1812,659,17.6119,4.89877
595,365,17.6395,-4.36951,0.000198874,0.000972056,-8.80581e-05,0.000981958,0.000188972,-1.45882,0.000601624,0.01252,1819,659,17.6395,4.36952
602,365,17.6105,-3.92255,0.000787733,0.00108798,0.000347138,0.00131606,0.000559647,0.989482,0.000762654,0.0146335,1826,659,17.6105,3.92257
609,365,17.5289,-3.48224,0.00107063,0.00134603,0.000686119,0.00190813,0.00050853,0.884427,0.001141,0.016446,1833,659,17.5289,3.48224
616,365,17.5475,-3.03473,0.00118744,0.00159275,0.000952238,0.00236366,0.000416531,0.890246,0.00145691,0.0174839,1840,659,17.5474,3.0347
623,365,17.5869,-2.57996,0.000948241,0.00185802,0.00108445,0.00257912,0.000227134,0.983983,0.00164893,0.0114395,1847,659,17.5869,2.57997
630,365,17.5621,-2.11035,0.000323735,0.00211276,0.00108372,0.00262345,-0.000186956,1.13042,0.0018145,0.0157434,1854,659,17.5622,2.11032
637,365,17.5654,-1.68317,-0.000693048,0.00228095,0.000960434,0.00256415,-0.000976246,1.28406,0.00211147,0.0217415,1861,659,17.5654,1.68317
644,365,17.5739,-1.24664,-0.00212262,0.00242513,0.00073571,0.00254118,-0.00223868,1.41434,0.0027615,0.018445,1868,659,17.5738,1.24666
651,365,17.754,-0.680237,-0.00421932,0.00237245,0.000228881,0.00238038,-0.00422726,1.53613,0.00386428,0.0423366,1875,659,17.7541,0.680223
658,365,17.7958,-0.0159302,0,0,0,0,0,0,0,-1,1882,659,17.7957,0.0159383
665,365,14.0961,0.769043,0,0,0,0,0,0,0,-1,1889,659,14.0961,-0.769063
672,365,10.0579,2.15088,0,0,0,0,0,0,0,-1,1896,659,10.0579,-2.15088
679,365,10.9718,2.19208,0,0,0,0,0,0,0,-1,1903,659,10.9718,-2.19211
686,365,12.2134,2.17108,0,0,0,0,0,0,0,-1,1910,659,12.2134,-2.17109
693,365,13.7141,1.98279,0,0,0,0,0,0,0,-1,1917,659,13.7141,-1.98278
700,365,0,0,0,0,0,0,0,0,0,-1,1924,659,0,0
707,365,0,0,0,0,0,0,0,0,0,-1,1931,659,0,0
714,365,0,0,0,0,0,0,0,0,0,-1,1938,659,0,0
721,365,0,0,0,0,0,0,0,0,0,-1,1945,659,0,0
728,365,0,0,0,0,0,0,0,0,0,-1,1952,659,0,0
735,365,0,0,0,0,0,0,0,0,0,-1,1959,659,0,0
742,365,0,0,0,0,0,0,0,0,0,-1,1966,659,0,0
749,365,0,0,0,0,0,0,0,0,0,-1,1973,659,0,0
756,365,0,0,0,0,0,0,0,0,0,-1,1980,659,0,0
763,365,0,0,0,0,0,0,0,0,0,-1,1987,659,0,0
770,365,0,0,0,0,0,0,0,0,0,-1,1994,659,0,0
777,365,0,0,0,0,0,0,0,0,0,-1,2001,659,0,0
784,365,0,0,0,0,0,0,0,0,0,-1,2008,659,0,0
791,365,0,0,0,0,0,0,0,0,0,-1,2015,659,0,0
798,365,0,0,0,0,0,0,0,0,0,-1,2022,659,0,0
805,365,0,0,0,0,0,0,0,0,0,-1,2029,659,0,0
812,365,0,0,0,0,0,0,0,0,0,-1,2036,659,0,0
-700,358,0,0,0,0,0,0,0,0,0,-1,524,666,0,0
-693,358,0,0,0,0,0,0,0,0,0,-1,531,666,0,0
-686,358,0,0,0,0,0,0,0,0,0,-1,538,666,0,0
-679,358,0,0,0,0,0,0,0,0,0,-1,545,666,0,0
-672,358,0,0,0,0,0,0,0,0,0,-1,552,666,0,0
-665,358,0,0,0,0,0,0,0,0,0,-1,559,666,0,0
-658,358,0,0,0,0,0,0,0,0,0,-1,566,666,0,0
-651,358,0,0,0,0,0,0,0,0,0,-1,573,666,0,0
-644,358,0,0,0,0,0,0,0,0,0,-1,580,666,0,0
-637,358,0,0,0,0,0,0,0,0,0,-1,587,666,0,0
-630,358,0,0,0,0,0,0,0,0,0,-1,594,666,0,0
-623,358,0,0,0,0,0,0,0,0,0,-1,601,666,0,0
-616,358,0,0,0,0,0,0,0,0,0,-1,608,666,0,0
-609,358,0,0,0,0,0,0,0,0,0,-1,615,666,0,0
-602,358,0,0,0,0,0,0,0,0,0,-1,622,666,0,0
-595,358,0,0,0,0,0,0,0,0,0,-1,629,666,0,0
-588,358,0,0,0,0,0,0,0,0,0,-1,636,666,0,0
-581,358,-8.31616,1.61993,0,0,0,0,0,0,0,-1,643,666,-8.31614,-1.61993
-574,358,-8.22406,1.75385,0,0,0,0,0,0,0,-1,650,666,-8.22408,-1.75383
-567,358,-8.14215,1.91577,0,0,0,0,0,0,0,-1,657,666,-8.14214,-1.91579
-560,358,-10.6086,2.18872,0,0,0,0,0,0,0,-1,664,666,-10.6086,-2.18873
-553,358,-10.2042,0.312195,0,0,0,0,0,0,0,-1,671,666,-10.2042,-0.312204
-546,358,-10.1955,-0.72168,0,0,0,0,0,0,0,-1,678,666,-10.1955,0.72165
-539,358,-9.43884,-2.04785,0,0,0,0,0,0,0,-1,685,666,-9.43884,2.04785
-532,358,-9.88092,-2.39655,0,0,0,0,0,0,0,-1,692,666,-9.8809,2.39657
-525,358,-9.75287,-2.86023,0.00682819,0.0143194,-0.0078835,0.0193019,0.00184574,-1.00717,0.0122989,0.0482439,699,666,-9.75285,2.86021
-518,358,-9.68866,-3.03583,0.00416326,0.00956307,-0.00469998,0.0122834,0.0014429,-1.04611,0.00775287,0.0441343,706,666,-9.68866,3.03582
-511,358,-9.86261,-3.58124,0.00248538,0.00624172,-0.00264411,0.00760683,0.00112028,-1.09421,0.00474211,0.0150507,713,666,-9.86264,3.58123
-504,358,-9.86926,-4.00018,0.00152433,0.00396562,-0.00145227,0.00464209,0.000847851,-1.13488,0.0028544,0.0106602,720,666,-9.86926,4.00019
-497,358,-9.86487,-4.4386,0.00113005,0.00237152,-0.000889237,0.00283524,0.000666321,-1.09011,0.00171184,0.0107508,727,666,-9.86484,4.43858
-490,358,-9.85657,-4.87109,0.000899246,0.00120037,-0.000470626,0.00154393,0.000555686,-0.940214,0.000902977,0.0103796,734,666,-9.85658,4.87108
-483,358,-9.87,-5.28406,0.00126336,0.000909472,-0.00073832,0.00184564,0.00032719,-0.667787,0.00113717,0.00965993,741,666,-9.87001,5.28403
-476,358,-9.85071,-5.65985,0.00200135,0.00112534,-0.00144706,0.00307524,5.14484e-05,-0.63844,0.00203323,0.0118342,748,666,-9.85072,5.65985
-469,358,-9.89655,-6.07855,0.00279205,0.0014738,-0.002172,0.00440273,-0.000136877,-0.638082,0.00298183,0.01541,755,666,-9.89658,6.07856
-462,358,-9.94348,-6.54584,0.00358178,0.00203168,-0.00287976,0.00578896,-0.000175501,-0.653944,0.00391912,0.0179542,762,666,-9.94348,6.54582
-455,358,-9.89862,-7.01996,0.00418978,0.00235308,-0.00335325,0.00674816,-0.000205302,-0.651741,0.00456874,0.032315,769,666,-9.89862,7.01994
-448,358,-9.75275,-7.55176,0,0,0,0,0,0,0,-1,776,666,-9.75273,7.55178
-441,358,-5.56293,-3.98041,0,0,0,0,0,0,0,-1,783,666,-5.56291,3.98043
-434,358,-5.21558,-4.43127,0,0,0,0,0,0,0,-1,790,666,-5.21559,4.43125
-427,358,-3.56189,-3.15729,0,0,0,0,0,0,0,-1,797,666,-3.56192,3.15729
-420,358,0.200195,1.08234,0,0,0,0,0,0,0,-1,804,666,0.200174,-1.08231
-413,358,0.0325317,0.161072,0,0,0,0,0,0,0,-1,811,666,0.0325501,-0.161098
-406,358,-3.85846,0.753113,0,0,0,0,0,0,0,-1,818,666,-3.85846,-0.753129
-399,358,-1.31213,0.190735,0,0,0,0,0,0,0,-1,825,666,-1.31215,-0.190763
-392,358,-3.73914,-0.832214,0,0,0,0,0,0,0,-1,832,666,-3.73915,0.832202
-385,358,-5.95178,-1.69141,0,0,0,0,0,0,0,-1,839,666,-5.9518,1.69143
-378,358,0,0,0,0,0,0,0,0,0,-1,846,666,0,0
-371,358,0,0,0,0,0,0,0,0,0,-1,853,666,0,0
-364,358,0,0,0,0,0,0,0,0,0,-1,860,666,0,0
-357,358,0,0,0,0,0,0,0,0,0,-1,867,666,0,0
-350,358,0,0,0,0,0,0,0,0,0,-1,874,666,0,0
-343,358,0,0,0,0,0,0,0,0,0,-1,881,666,0,0
-336,358,0,0,0,0,0,0,0,0,0,-1,888,666,0,0
-329,358,0,0,0,0,0,0,0,0,0,-1,895,666,0,0
-322,358,0,0,0,0,0,0,0,0,0,-1,902,666,0,0
-315,358,0,0,0,0,0,0,0,0,0,-1,909,666,0,0
-308,358,0,0,0,0,0,0,0,0,0,-1,916,666,0,0
-301,358,0,0,0,0,0,0,0,0,0,-1,923,666,0,0
-294,358,0,0,0,0,0,0,0,0,0,-1,930,666,0,0
-287,358,0,0,0,0,0,0,0,0,0,-1,937,666,0,0
-280,358,0,0,0,0,0,0,0,0,0,-1,944,666,0,0
-273,358,0,0,0,0,0,0,0,0,0,-1,951,666,0,0
-266,358,0,0,0,0,0,0,0,0,0,-1,958,666,0,0
-259,358,0,0,0,0,0,0,0,0,0,-1,965,666,0,0
-252,358,0,0,0,0,0,0,0,0,0,-1,972,666,0,0
-245,358,0,0,0,0,0,0,0,0,0,-1,979,666,0,0
-238,358,0,0,0,0,0,0,0,0,0,-1,986,666,0,0
-231,358,0,0,0,0,0,0,0,0,0,-1,993,666,0,0
-224,358,0,0,0,0,0,0,0,0,0,-1,1000,666,0,0
-217,358,0,0,0,0,0,0,0,0,0,-1,1007,666,0,0
-210,358,0,0,0,0,0,0,0,0,0,-1,1014,666,0,0
-203,358,0,0,0,0,0,0,0,0,0,-1,1021,666,0,0
-196,358,0,0,0,0,0,0,0,0,0,-1,1028,666,0,0
-189,358,0,0,0,0,0,0,0,0,0,-1,1035,666,0,0
-182,358,0,0,0,0,0,0,0,0,0,-1,1042,666,0,0
-175,358,0,0,0,0,0,0,0,0,0,-1,1049,666,0,0
-168,358,0,0,0,0,0,0,0,0,0,-1,1056,666,0,0
-161,358,0,0,0,0,0,0,0,0,0,-1,1063,666,0,0
-154,358,0,0,0,0,0,0,0,0,0,-1,1070,666,0,0
-147,358,0,0,0,0,0,0,0,0,0,-1,1077,666,0,0
-140,358,0,0,0,0,0,0,0,0,0,-1,1084,666,0,0
-133,358,0,0,0,0,0,0,0,0,0,-1,1091,666,0,0
-126,358,0,0,0,0,0,0,0,0,0,-1,1098,666,0,0
-119,358,0,0,0,0,0,0,0,0,0,-1,1105,666,0,0
-112,358,0,0,0,0,0,0,0,0,0,-1,1112,666,0,0
-105,358,0,0,0,0,0,0,0,0,0,-1,1119,666,0,0
-98,358,0,0,0,0,0,0,0,0,0,-1,1126,666,0,0
-91,358,0,0,0,0,0,0,0,0,0,-1,1133,666,0,0
-84,358,0,0,0,0,0,0,0,0,0,-1,1140,666,0,0
-77,358,0,0,0,0,0,0,0,0,0,-1,1147,666,0,0
-70,358,0,0,0,0,0,0,0,0,0,-1,1154,666,0,0
-63,358,0,0,0,0,0,0,0,0,0,-1,1161,666,0,0
-56,358,0,0,0,0,0,0,0,0,0,-1,1168,666,0,0
-49,358,0,0,0,0,0,0,0,0,0,-1,1175,666,0,0
-42,358,0,0,0,0,0,0,0,0,0,-1,1182,666,0,0
-35,358,0,0,0,0,0,0,0,0,0,-1,1189,666,0,0
-28,358,0,0,0,0,0,0,0,0,0,-1,1196,666,0,0
-21,358,0,0,0,0,0,0,0,0,0,-1,1203,666,0,0
-14,358,0,0,0,0,0,0,0,0,0,-1,1210,666,0,0
-7,358,0,0,0,0,0,0,0,0,0,-1,1217,666,0,0
0,358,0,0,0,0,0,0,0,0,0,-1,1224,666,0,0
7,358,0,0,0,0,0,0,0,0,0,-1,1231,666,0,0
14,358,0,0,0,0,0,0,0,0,0,-1,1238,666,0,0
21,358,0,0,0,0,0,0,0,0,0,-1,1245,666,0,0
28,358,0,0,0,0,0,0,0,0,0,-1,1252,666,0,0
35,358,0,0,0,0,0,0,0,0,0,-1,1259,666,0,0
42,358,0,0,0,0,0,0,0,0,0,-1,1266,666,0,0
49,358,0,0,0,0,0,0,0,0,0,-1,1273,666,0,0
56,358,0,0,0,0,0,0,0,0,0,-1,1280,666,0,0
63,358,0,0,0,0,0,0,0,0,0,-1,1287,666,0,0
70,358,0,0,0,0,0,0,0,0,0,-1,1294,666,0,0
77,358,0,0,0,0,0,0,0,0,0,-1,1301,666,0,0
84,358,0,0,0,0,0,0,0,0,0,-1,1308,666,0,0
91,358,0,0,0,0,0,0,0,0,0,-1,1315,666,0,0
98,358,0,0,0,0,0,0,0,0,0,-1,1322,666,0,0
105,358,0,0,0,0,0,0,0,0,0,-1,1329,666,0,0
112,358,0,0,0,0,0,0,0,0,0,-1,1336,666,0,0
119,358,0,0,0,0,0,0,0,0,0,-1,1343,666,0,0
126,358,0,0,0,0,0,0,0,0,0,-1,1350,666,0,0
133,358,0,0,0,0,0,0,0,0,0,-1,1357,666,0,0
140,358,0,0,0,0,0,0,0,0,0,-1,1364,666,0,0
147,358,0,0,0,0,0,0,0,0,0,-1,1371,666,0,0
154,358,0,0,0,0,0,0,0,0,0,-1,1378,666,0,0
161,358,0,0,0,0,0,0,0,0,0,-1,1385,666,0,0
168,358,0,0,0,0,0,0,0,0,0,-1,1392,666,0,0
175,358,0,0,0,0,0,0,0,0,0,-1,1399,666,0,0
182,358,0,0,0,0,0,0,0,0,0,-1,1406,666,0,0
189,358,0,0,0,0,0,0,0,0,0,-1,1413,666,0,0
196,358,0,0,0,0,0,0,0,0,0,-1,1420,666,0,0
203,358,0,0,0,0,0,0,0,0,0,-1,1427,666,0,0
210,358,0,0,0,0,0,0,0,0,0,-1,1434,666,0,0
217,358,0,0,0,0,0,0,0,0,0,-1,1441,666,0,0
224,358,0,0,0,0,0,0,0,0,0,-1,1448,666,0,0
231,358,0,0,0,0,0,0,0,0,0,-1,1455,666,0,0
238,358,0,0,0,0,0,0,0,0,0,-1,1462,666,0,0
245,358,0,0,0,0,0,0,0,0,0,-1,1469,666,0,0
252,358,0,0,0,0,0,0,0,0,0,-1,1476,666,0,0
259,358,0,0,0,0,0,0,0,0,0,-1,1483,666,0,0
266,358,0,0,0,0,0,0,0,0,0,-1,1490,666,0,0
273,358,0,0,0,0,0,0,0,0,0,-1,1497,666,0,0
280,358,0,0,0,0,0,0,0,0,0,-1,1504,666,0,0
287,358,0,0,0,0,0,0,0,0,0,-1,1511,666,0,0
294,358,0,0,0,0,0,0,0,0,0,-1,1518,666,0,0
301,358,0,0,0,0,0,0,0,0,0,-1,1525,666,0,0
308,358,0,0,0,0,0,0,0,0,0,-1,1532,666,0,0
315,358,0,0,0,0,0,0,0,0,0,-1,1539,666,0,0
322,358,0,0,0,0,0,0,0,0,0,-1,1546,666,0,0
329,358,0,0,0,0,0,0,0,0,0,-1,1553,666,0,0
336,358,0,0,0,0,0,0,0,0,0,-1,1560,666,0,0
343,358,0,0,0,0,0,0,0,0,0,-1,1567,666,0,0
350,358,0,0,0,0,0,0,0,0,0,-1,1574,666,0,0
357,358,0,0,0,0,0,0,0,0,0,-1,1581,666,0,0
364,358,0,0,0,0,0,0,0,0,0,-1,1588,666,0,0
371,358,0,0,0,0,0,0,0,0,0,-1,1595,666,0,0
378,358,0,0,0,0,0,0,0,0,0,-1,1602,666,0,0
385,358,0,0,0,0,0,0,0,0,0,-1,1609,666,0,0
392,358,0,0,0,0,0,0,0,0,0,-1,1616,666,0,0
399,358,0,0,0,0,0,0,0,0,0,-1,1623,666,0,0
406,358,0,0,0,0,0,0,0,0,0,-1,1630,666,0,0
413,358,0,0,0,0,0,0,0,0,0,-1,1637,666,0,0
420,358,0,0,0,0,0,0,0,0,0,-1,1644,666,0,0
427,358,0,0,0,0,0,0,0,0,0,-1,1651,666,0,0
434,358,0,0,0,0,0,0,0,0,0,-1,1658,666,0,0
441,358,0,0,0,0,0,0,0,0,0,-1,1665,666,0,0
448,358,0,0,0,0,0,0,0,0,0,-1,1672,666,0,0
455,358,0,0,0,0,0,0,0,0,0,-1,1679,666,0,0
462,358,0,0,0,0,0,0,0,0,0,-1,1686,666,0,0
469,358,0,0,0,0,0,0,0,0,0,-1,1693,666,0,0
476,358,0,0,0,0,0,0,0,0,0,-1,1700,666,0,0
483,358,0,0,0,0,0,0,0,0,0,-1,1707,666,0,0
490,358,0,0,0,0,0,0,0,0,0,-1,1714,666,0,0
497,358,8.57239,1.1322,0,0,0,0,0,0,0,-1,1721,666,8.57234,-1.13219
504,358,10.5972,0.832947,0,0,0,0,0,0,0,-1,1728,666,10.5972,-0.832968
511,358,10.6873,0.868469,0,0,0,0,0,0,0,-1,1735,666,10.6872,-0.868484
518,358,16.5884,2.34894,0,0,0,0,0,0,0,-1,1742,666,16.5884,-2.34894
525,358,15.7626,3.65344,0,0,0,0,0,0,0,-1,1749,666,15.7626,-3.65342
532,358,14.9368,4.95789,0,0,0,0,0,0,0,-1,1756,666,14.9367,-4.9579
539,358,15.1597,3.42694,0,0,0,0,0,0,0,-1,1763,666,15.1597,-3.42692
546,358,12.3792,1.53558,0,0,0,0,0,0,0,-1,1770,666,12.3792,-1.5356
553,358,11.6584,1.26172,0,0,0,0,0,0,0,-1,1777,666,11.6585,-1.26175
560,358,10.8234,1.43042,0,0,0,0,0,0,0,-1,1784,666,10.8233,-1.43041
567,358,10.1333,-0.955139,0,0,0,0,0,0,0,-1,1791,666,10.1333,0.955132
574,358,14.7886,-2.69293,0,0,0,0,0,0,0,-1,1798,666,14.7885,2.6929
581,358,17.811,-5.48016,0,0,0,0,0,0,0,-1,1805,666,17.811,5.48014
588,358,17.9319,-4.9502,-0.000503251,0.0010255,-0.000522827,0.0011872,-0.000664952,-1.27085,0.00108342,0.0361715,1812,666,17.9319,4.9502
595,358,18.0751,-4.34161,0.000120932,0.000888055,-0.000141173,0.00091321,9.57773e-05,-1.39446,0.000579525,0.013342,1819,666,18.0751,4.34161
602,358,18.0342,-3.87927,0.000692457,0.000900089,0.000205069,0.00102612,0.000566423,1.01972,0.0005935,0.0131481,1826,666,18.0341,3.87926
609,358,17.9576,-3.47693,0.00105622,0.00106449,0.000525266,0.00158564,0.000535072,0.789335,0.000931454,0.0176351,1833,666,17.9576,3.47696
616,358,17.9735,-3.02423,0.00122232,0.00124885,0.000788283,0.00202398,0.00044719,0.79381,0.00122771,0.0160471,1840,666,17.9736,3.0242
623,358,18.0117,-2.56586,0.000933919,0.00141209,0.000855662,0.00206144,0.000284566,0.921631,0.00128994,0.0139768,1847,666,18.0117,2.56583
630,358,17.9915,-2.11292,0.000232345,0.00155909,0.000782189,0.00192133,-0.000129895,1.13709,0.00132631,0.0178931,1854,666,17.9914,2.11293
637,358,17.9731,-1.66943,-0.00087755,0.00155981,0.000567584,0.0016855,-0.00100324,1.35286,0.00156892,0.0250895,1861,666,17.9731,1.66942
644,358,17.9974,-1.24646,-0.00248395,0.00162135,0.00020402,0.00163146,-0.00249407,1.52126,0.00239917,0.0206869,1868,666,17.9974,1.24649
651,358,18.1125,-0.718567,-0.00464554,0.0015025,-0.000374425,0.00152522,-0.00466826,-1.51019,0.00372613,0.0275223,1875,666,18.1126,0.718544
658,358,17.7227,-0.314392,-0.00774797,0.00102669,-0.00146543,0.00126496,-0.00798623,-1.40961,0.00579204,0.048501,1882,666,17.7227,0.314374
665,358,17.0863,0.0551147,0,0,0,0,0,0,0,-1,1889,666,17.0863,-0.0551216
672,358,12.4299,1.47272,0,0,0,0,0,0,0,-1,1896,666,12.4299,-1.4727
679,358,12.1294,2.19702,0,0,0,0,0,0,0,-1,1903,666,12.1294,-2.19703
686,358,11.9557,2.2002,0,0,0,0,0,0,0,-1,1910,666,11.9557,-2.20021
693,358,13.188,2.52203,0,0,0,0,0,0,0,-1,1917,666,13.188,-2.52202
700,358,0,0,0,0,0,0,0,0,0,-1,1924,666,0,0
707,358,0,0,0,0,0,0,0,0,0,-1,1931,666,0,0
714,358,0,0,0,0,0,0,0,0,0,-1,1938,666,0,0
721,358,0,0,0,0,0,0,0,0,0,-1,1945,666,0,0
728,358,0,0,0,0,0,0,0,0,0,-1,1952,666,0,0
735,358,0,0,0,0,0,0,0,0,0,-1,1959,666,0,0
742,358,0,0,0,0,0,0,0,0,0,-1,1966,666,0,0
749,358,0,0,0,0,0,0,0,0,0,-1,1973,666,0,0
756,358,0,0,0,0,0,0,0,0,0,-1,1980,666,0,0
763,358,0,0,0,0,0,0,0,0,0,-1,1987,666,0,0
770,358,0,0,0,0,0,0,0,0,0,-1,1994,666,0,0
777,358,0,0,0,0,0,0,0,0,0,-1,2001,666,0,0
784,358,0,0,0,0,0,0,0,0,0,-1,2008,666,0,0
791,358,0,0,0,0,0,0,0,0,0,-1,2015,666,0,0
798,358,0,0,0,0,0,0,0,0,0,-1,2022,666,0,0
805,358,0,0,0,0,0,0,0,0,0,-1,2029,666,0,0
812,358,0,0,0,0,0,0,0,0,0,-1,2036,666,0,0
-700,351,0,0,0,0,0,0,0,0,0,-1,524,673,0,0
-693,351,0,0,0,0,0,0,0,0,0,-1,531,673,0,0
-686,351,0,0,0,0,0,0,0,0,0,-1,538,673,0,0
-679,351,0,0,0,0,0,0,0,0,0,-1,545,673,0,0
-672,351,0,0,0,0,0,0,0,0,0,-1,552,673,0,0
-665,351,0,0,0,0,0,0,0,0,0,-1,559,673,0,0
-658,351,0,0,0,0,0,0,0,0,0,-1,566,673,0,0
-651,351,0,0,0,0,0,0,0,0,0,-1,573,673,0,0
-644,351,0,0,0,0,0,0,0,0,0,-1,580,673,0,0
-637,351,0,0,0,0,0,0,0,0,0,-1,587,673,0,0
-630,351,0,0,0,0,0,0,0,0,0,-1,594,673,0,0
-623,351,0,0,0,0,0,0,0,0,0,-1,601,673,0,0
-616,351,0,0,0,0,0,0,0,0,0,-1,608,673,0,0
-609,351,0,0,0,0,0,0,0,0,0,-1,615,673,0,0
-602,351,0,0,0,0,0,0,0,0,0,-1,622,673,0,0
-595,351,0,0,0,0,0,0,0,0,0,-1,629,673,0,0
-588,351,0,0,0,0,0,0,0,0,0,-1,636,673,0,0
-581,351,-9.0647,1.71906,0,0,0,0,0,0,0,-1,643,673,-9.06472,-1.71908
-574,351,-8.23584,2.64764,0,0,0,0,0,0,0,-1,650,673,-8.23584,-2.64764
-567,351,-10.8027,4.56836,0,0,0,0,0,0,0,-1,657,673,-10.8027,-4.56839
-560,351,-10.595,2.64612,0,0,0,0,0,0,0,-1,664,673,-10.595,-2.64613
-553,351,-10.5295,0.876648,0,0,0,0,0,0,0,-1,671,673,-10.5295,-0.876625
-546,351,-11.2532,0.176819,0,0,0,0,0,0,0,-1,678,673,-11.2532,-0.17683
-539,351,-10.8134,-0.948975,0,0,0,0,0,0,0,-1,685,673,-10.8134,0.948963
-532,351,-10.0667,-2.23651,0,0,0,0,0,0,0,-1,692,673,-10.0667,2.23649
-525,351,-10.1948,-2.80042,0.00654102,0.0128901,-0.00719811,0.0175826,0.0018485,-0.993079,0.0111567,0.0356407,699,673,-10.1948,2.80041
-518,351,-10.2832,-3.09363,0.00417274,0.00860005,-0.00435723,0.0112737,0.0014991,-1.02043,0.00706928,0.015842,706,673,-10.2832,3.0936
-511,351,-10.2708,-3.54999,0.00263219,0.00554281,-0.00248168,0.00696442,0.00121058,-1.05059,0.00429664,0.012119,713,673,-10.2708,3.54999
-504,351,-10.2877,-3.97583,0.00173233,0.00341546,-0.00135396,0.00416809,0.000979702,-1.06346,0.00251655,0.0109814,720,673,-10.2876,3.97582
-497,351,-10.2992,-4.39044,0.00137624,0.00194145,-0.000836487,0.00254178,0.000775911,-0.9483,0.00150414,0.00998668,727,673,-10.2992,4.39044
-490,351,-10.299,-4.80719,0.00122929,0.000946348,-0.000542942,0.00164889,0.000526749,-0.65795,0.000972454,0.00908971,734,673,-10.299,4.8072
-483,351,-10.2944,-5.22253,0.00165272,0.000822028,-0.000931188,0.00225699,0.000217755,-0.575621,0.00143759,0.0111483,741,673,-10.2943,5.22255
-476,351,-10.3079,-5.6427,0.00238547,0.00115542,-0.00171393,0.00359138,-5.04941e-05,-0.613134,0.00241126,0.0109389,748,673,-10.3079,5.64267
-469,351,-10.3162,-6.05914,0.00321403,0.00161714,-0.00252885,0.00506749,-0.000236319,-0.632484,0.00345979,0.0135276,755,673,-10.3162,6.05915
-462,351,-10.356,-6.54669,0.00409837,0.00243481,-0.00340954,0.00677612,-0.000242949,-0.665757,0.00460054,0.0243433,762,673,-10.3559,6.5467
-455,351,-10.3559,-7.03284,0,0,0,0,0,0,0,-1,769,673,-10.3559,7.03285
-448,351,-6.61456,-4.38654,0,0,0,0,0,0,0,-1,776,673,-6.61456,4.38654
-441,351,-4.31567,-2.3009,0,0,0,0,0,0,0,-1,783,673,-4.31565,2.30089
-434,351,-3.81708,-2.28003,0,0,0,0,0,0,0,-1,790,673,-3.81706,2.28006
-427,351,-2.05157,-2.7785,0,0,0,0,0,0,0,-1,797,673,-2.05157,2.77848
-420,351,-1.06989,-2.43665,0,0,0,0,0,0,0,-1,804,673,-1.06991,2.43663
-413,351,-0.392334,-2.06671,0,0,0,0,0,0,0,-1,811,673,-0.392363,2.06672
-406,351,-1.86316,-2.58105,0,0,0,0,0,0,0,-1,818,673,-1.86313,2.58106
-399,351,1.00952,-1.53455,0,0,0,0,0,0,0,-1,825,673,1.00954,1.53457
-392,351,-1.02197,0.877136,0,0,0,0,0,0,0,-1,832,673,-1.02195,-0.877143
-385,351,-1.47205,1.04437,0,0,0,0,0,0,0,-1,839,673,-1.47207,-1.04435
-378,351,0,0,0,0,0,0,0,0,0,-1,846,673,0,0
-371,351,0,0,0,0,0,0,0,0,0,-1,853,673,0,0
-364,351,0,0,0,0,0,0,0,0,0,-1,860,673,0,0
-357,351,0,0,0,0,0,0,0,0,0,-1,867,673,0,0
-350,351,0,0,0,0,0,0,0,0,0,-1,874,673,0,0
-343,351,0,0,0,0,0,0,0,0,0,-1,881,673,0,0
-336,351,0,0,0,0,0,0,0,0,0,-1,888,673,0,0
-329,351,0,0,0,0,0,0,0,0,0,-1,895,673,0,0
-322,351,0,0,0,0,0,0,0,0,0,-1,902,673,0,0
-315,351,0,0,0,0,0,0,0,0,0,-1,909,673,0,0
-308,351,0,0,0,0,0,0,0,0,0,-1,916,673,0,0
-301,351,0,0,0,0,0,0,0,0,0,-1,923,673,0,0
-294,351,0,0,0,0,0,0,0,0,0,-1,930,673,0,0
-287,351,0,0,0,0,0,0,0,0,0,-1,937,673,0,0
-280,351,0,0,0,0,0,0,0,0,0,-1,944,673,0,0
-273,351,0,0,0,0,0,0,0,0,0,-1,951,673,0,0
-266,351,0,0,0,0,0,0,0,0,0,-1,958,673,0,0
-259,351,0,0,0,0,0,0,0,0,0,-1,965,673,0,0
-252,351,0,0,0,0,0,0,0,0,0,-1,972,673,0,0
-245,351,0,0,0,0,0,0,0,0,0,-1,979,673,0,0
-238,351,0,0,0,0,0,0,0,0,0,-1,986,673,0,0
-231,351,0,0,0,0,0,0,0,0,0,-1,993,673,0,0
-224,351,0,0,0,0,0,0,0,0,0,-1,1000,673,0,0
-217,351,0,0,0,0,0,0,0,0,0,-1,1007,673,0,0
-210,351,0,0,0,0,0,0,0,0,0,-1,1014,673,0,0
-203,351,0,0,0,0,0,0,0,0,0,-1,1021,673,0,0
-196,351,0,0,0,0,0,0,0,0,0,-1,1028,673,0,0
-189,351,0,0,0,0,0,0,0,0,0,-1,1035,673,0,0
-182,351,0,0,0,0,0,0,0,0,0,-1,1042,673,0,0
-175,351,0,0,0,0,0,0,0,0,0,-1,1049,673,0,0
-168,351,0,0,0,0,0,0,0,0,0,-1,1056,673,0,0
-161,351,0,0,0,0,0,0,0,0,0,-1,1063,673,0,0
-154,351,0,0,0,0,0,0,0,0,0,-1,1070,673,0,0
-147,351,0,0,0,0,0,0,0,0,0,-1,1077,673,0,0
-140,351,0,0,0,0,0,0,0,0,0,-1,1084,673,0,0
-133,351,0,0,0,0,0,0,0,0,0,-1,1091,673,0,0
-126,351,0,0,0,0,0,0,0,0,0,-1,1098,673,0,0
-119,351,0,0,0,0,0,0,0,0,0,-1,1105,673,0,0
-112,351,0,0,0,0,0,0,0,0,0,-1,1112,673,0,0
-105,351,0,0,0,0,0,0,0,0,0,-1,1119,673,0,0
-98,351,0,0,0,0,0,0,0,0,0,-1,1126,673,0,0
-91,351,0,0,0,0,0,0,0,0,0,-1,1133,673,0,0
-84,351,0,0,0,0,0,0,0,0,0,-1,1140,673,0,0
-77,351,0,0,0,0,0,0,0,0,0,-1,1147,673,0,0
-70,351,0,0,0,0,0,0,0,0,0,-1,1154,673,0,0
-63,351,0,0,0,0,0,0,0,0,0,-1,1161,673,0,0
-56,351,0,0,0,0,0,0,0,0,0,-1,1168,673,0,0
-49,351,0,0,0,0,0,0,0,0,0,-1,1175,673,0,0
-42,351,0,0,0,0,0,0,0,0,0,-1,1182,673,0,0
-35,351,0,0,0,0,0,0,0,0,0,-1,1189,673,0,0
-28,351,0,0,0,0,0,0,0,0,0,-1,1196,673,0,0
-21,351,0,0,0,0,0,0,0,0,0,-1,1203,673,0,0
-14,351,0,0,0,0,0,0,0,0,0,-1,1210,673,0,0
-7,351,0,0,0,0,0,0,0,0,0,-1,1217,673,0,0
0,351,0,0,0,0,0,0,0,0,0,-1,1224,673,0,0
7,351,0,0,0,0,0,0,0,0,0,-1,1231,673,0,0
14,351,0,0,0,0,0,0,0,0,0,-1,1238,673,0,0
21,351,0,0,0,0,0,0,0,0,0,-1,1245,673,0,0
28,351,0,0,0,0,0,0,0,0,0,-1,1252,673,0,0
35,351,0,0,0,0,0,0,0,0,0,-1,1259,673,0,0
42,351,0,0,0,0,0,0,0,0,0,-1,1266,673,0,0
49,351,0,0,0,0,0,0,0,0,0,-1,1273,673,0,0
56,351,0,0,0,0,0,0,0,0,0,-1,1280,673,0,0
63,351,0,0,0,0,0,0,0,0,0,-1,1287,673,0,0
70,351,0,0,0,0,0,0,0,0,0,-1,1294,673,0,0
77,351,0,0,0,0,0,0,0,0,0,-1,1301,673,0,0
84,351,0,0,0,0,0,0,0,0,0,-1,1308,673,0,0
91,351,0,0,0,0,0,0,0,0,0,-1,1315,673,0,0
98,351,0,0,0,0,0,0,0,0,0,-1,1322,673,0,0
105,351,0,0,0,0,0,0,0,0,0,-1,1329,673,0,0
112,351,0,0,0,0,0,0,0,0,0,-1,1336,673,0,0
119,351,0,0,0,0,0,0,0,0,0,-1,1343,673,0,0
126,351,0,0,0,0,0,0,0,0,0,-1,1350,673,0,0
133,351,0,0,0,0,0,0,0,0,0,-1,1357,673,0,0
140,351,0,0,0,0,0,0,0,0,0,-1,1364,673,0,0
147,351,0,0,0,0,0,0,0,0,0,-1,1371,673,0,0
154,351,0,0,0,0,0,0,0,0,0,-1,1378,673,0,0
161,351,0,0,0,0,0,0,0,0,0,-1,1385,673,0,0
168,351,0,0,0,0,0,0,0,0,0,-1,1392,673,0,0
175,351,0,0,0,0,0,0,0,0,0,-1,1399,673,0,0
182,351,0,0,0,0,0,0,0,0,0,-1,1406,673,0,0
189,351,0,0,0,0,0,0,0,0,0,-1,1413,673,0,0
196,351,0,0,0,0,0,0,0,0,0,-1,1420,673,0,0
203,351,0,0,0,0,0,0,0,0,0,-1,1427,673,0,0
210,351,0,0,0,0,0,0,0,0,0,-1,1434,673,0,0
217,351,0,0,0,0,0,0,0,0,0,-1,1441,673,0,0
224,351,0,0,0,0,0,0,0,0,0,-1,1448,673,0,0
231,351,0,0,0,0,0,0,0,0,0,-1,1455,673,0,0
238,351,0,0,0,0,0,0,0,0,0,-1,1462,673,0,0
245,351,0,0,0,0,0,0,0,0,0,-1,1469,673,0,0
252,351,0,0,0,0,0,0,0,0,0,-1,1476,673,0,0
259,351,0,0,0,0,0,0,0,0,0,-1,1483,673,0,0
266,351,0,0,0,0,0,0,0,0,0,-1,1490,673,0,0
273,351,0,0,0,0,0,0,0,0,0,-1,1497,673,0,0
280,351,0,0,0,0,0,0,0,0,0,-1,1504,673,0,0
287,351,0,0,0,0,0,0,0,0,0,-1,1511,673,0,0
294,351,0,0,0,0,0,0,0,0,0,-1,1518,673,0,0
301,351,0,0,0,0,0,0,0,0,0,-1,1525,673,0,0
308,351,0,0,0,0,0,0,0,0,0,-1,1532,673,0,0
315,351,0,0,0,0,0,0,0,0,0,-1,1539,673,0,0
322,351,0,0,0,0,0,0,0,0,0,-1,1546,673,0,0
329,351,0,0,0,0,0,0,0,0,0,-1,1553,673,0,0
336,351,0,0,0,0,0,0,0,0,0,-1,1560,673,0,0
343,351,0,0,0,0,0,0,0,0,0,-1,1567,673,0,0
350,351,0,0,0,0,0,0,0,0,0,-1,1574,673,0,0
357,351,0,0,0,0,0,0,0,0,0,-1,1581,673,0,0
364,351,0,0,0,0,0,0,0,0,0,-1,1588,673,0,0
371,351,0,0,0,0,0,0,0,0,0,-1,1595,673,0,0
378,351,0,0,0,0,0,0,0,0,0,-1,1602,673,0,0
385,351,0,0,0,0,0,0,0,0,0,-1,1609,673,0,0
392,351,0,0,0,0,0,0,0,0,0,-1,1616,673,0,0
399,351,0,0,0,0,0,0,0,0,0,-1,1623,673,0,0
406,351,0,0,0,0,0,0,0,0,0,-1,1630,673,0,0
413,351,0,0,0,0,0,0,0,0,0,-1,1637,673,0,0
420,351,0,0,0,0,0,0,0,0,0,-1,1644,673,0,0
427,351,0,0,0,0,0,0,0,0,0,-1,1651,673,0,0
434,351,0,0,0,0,0,0,0,0,0,-1,1658,673,0,0
441,351,0,0,0,0,0,0,0,0,0,-1,1665,673,0,0
448,351,0,0,0,0,0,0,0,0,0,-1,1672,673,0,0
455,351,0,0,0,0,0,0,0,0,0,-1,1679,673,0,0
462,351,0,0,0,0,0,0,0,0,0,-1,1686,673,0,0
469,351,0,0,0,0,0,0,0,0,0,-1,1693,673,0,0
476,351,0,0,0,0,0,0,0,0,0,-1,1700,673,0,0
483,351,0,0,0,0,0,0,0,0,0,-1,1707,673,0,0
490,351,0,0,0,0,0,0,0,0,0,-1,1714,673,0,0
497,351,0,0,0,0,0,0,0,0,0,-1,1721,673,0,0
504,351,10.8842,1.61615,0,0,0,0,0,0,0,-1,1728,673,10.8842,-1.61618
511,351,15.4548,0.0236816,0,0,0,0,0,0,0,-1,1735,673,15.4549,-0.0236664
518,351,16.7448,2.49268,0,0,0,0,0,0,0,-1,1742,673,16.7448,-2.49269
525,351,16.0701,3.43225,0,0,0,0,0,0,0,-1,1749,673,16.07,-3.43227
532,351,32.3822,3.03021,0,0,0,0,0,0,0,-1,1756,673,32.3822,-3.03019
539,351,15.3387,3.54486,0,0,0,0,0,0,0,-1,1763,673,15.3387,-3.54485
546,351,13.9387,4.59357,0,0,0,0,0,0,0,-1,1770,673,13.9388,-4.59359
553,351,12.0682,2.02832,0,0,0,0,0,0,0,-1,1777,673,12.0683,-2.02831
560,351,12.0173,0.55304,0,0,0,0,0,0,0,-1,1784,673,12.0174,-0.553028
567,351,10.7827,0.130188,0,0,0,0,0,0,0,-1,1791,673,10.7827,-0.130183
574,351,13.405,-1.09204,0,0,0,0,0,0,0,-1,1798,673,13.405,1.09207
581,351,15.2351,-3.06049,0,0,0,0,0,0,0,-1,1805,673,15.2351,3.06046
588,351,18.2515,-5.02423,0,0,0,0,0,0,0,-1,1812,673,18.2515,5.02423
595,351,18.4531,-4.41058,0.000122852,0.000878084,-4.90972e-05,0.000881262,0.000119674,-1.50615,0.000551959,0.0293494,1819,673,18.4531,4.41056
602,351,18.4789,-3.90601,0.000611607,0.000743848,0.000126983,0.000820893,0.000534562,1.02543,0.000481112,0.019112,1826,673,18.4788,3.906
609,351,18.4939,-3.47791,0.00104814,0.000785442,0.00040577,0.00134329,0.000490293,0.628867,0.000784918,0.0182048,1833,673,18.4939,3.4779
616,351,18.4609,-3.04248,0.00124011,0.000903572,0.000654059,0.0017472,0.000396485,0.659493,0.00105771,0.0142226,1840,673,18.4609,3.04247
623,351,18.4852,-2.57214,0.000900338,0.000976523,0.000652719,0.00159226,0.000284601,0.814545,0.000980506,0.0146019,1847,673,18.4852,2.57217
630,351,18.4865,-2.14935,0.000164147,0.00103662,0.000524141,0.00128231,-8.15451e-05,1.13246,0.000883311,0.0241404,1854,673,18.4864,2.14936
637,351,18.4753,-1.65338,-0.000973934,0.000933321,0.000257958,0.000967594,-0.00100821,1.43871,0.00114081,0.0291451,1861,673,18.4753,1.65337
644,351,18.4198,-1.21484,-0.0026336,0.000950422,-0.000194378,0.000960933,-0.00264411,-1.51677,0.00215567,0.0224784,1868,673,18.4198,1.21484
651,351,18.4291,-0.759644,-0.00474171,0.000814902,-0.000793587,0.000926019,-0.00485282,-1.43168,0.00358399,0.0162305,1875,673,18.429,0.759643
658,351,18.3824,-0.311768,-0.00761485,0.000456011,-0.0017651,0.000825153,-0.00798399,-1.36463,0.00561795,0.0315249,1882,673,18.3825,0.311774
665,351,17.9874,-0.0390625,-0.0113724,-0.00010829,-0.00307296,0.000675504,-0.0121562,-1.32106,0.00833844,0.0396772,1889,673,17.9874,0.0390334
672,351,17.7321,0.437561,0,0,0,0,0,0,0,-1,1896,673,17.732,-0.437571
679,351,14.1252,1.85681,0,0,0,0,0,0,0,-1,1903,673,14.1253,-1.85682
686,351,13.0294,2.1189,0,0,0,0,0,0,0,-1,1910,673,13.0294,-2.11892
693,351,13.5187,2.34595,0,0,0,0,0,0,0,-1,1917,673,13.5187,-2.34596
700,351,14.5629,-2.40173,0,0,0,0,0,0,0,-1,1924,673,14.5629,2.40172
707,351,0,0,0,0,0,0,0,0,0,-1,1931,673,0,0
714,351,0,0,0,0,0,0,0,0,0,-1,1938,673,0,0
721,351,0,0,0,0,0,0,0,0,0,-1,1945,673,0,0
728,351,0,0,0,0,0,0,0,0,0,-1,1952,673,0,0
735,351,0,0,0,0,0,0,0,0,0,-1,1959,673,0,0
742,351,0,0,0,0,0,0,0,0,0,-1,1966,673,0,0
749,351,0,0,0,0,0,0,0,0,0,-1,1973,673,0,0
756,351,0,0,0,0,0,0,0,0,0,-1,1980,673,0,0
763,351,0,0,0,0,0,0,0,0,0,-1,1987,673,0,0
770,351,0,0,0,0,0,0,0,0,0,-1,1994,673,0,0
777,351,0,0,0,0,0,0,0,0,0,-1,2001,673,0,0
784,351,0,0,0,0,0,0,0,0,0,-1,2008,673,0,0
791,351,0,0,0,0,0,0,0,0,0,-1,2015,673,0,0
798,351,0,0,0,0,0,0,0,0,0,-1,2022,673,0,0
805,351,0,0,0,0,0,0,0,0,0,-1,2029,673,0,0
812,351,0,0,0,0,0,0,0,0,0,-1,2036,673,0,0
-700,344,0,0,0,0,0,0,0,0,0,-1,524,680,0,0
-693,344,0,0,0,0,0,0,0,0,0,-1,531,680,0,0
-686,344,0,0,0,0,0,0,0,0,0,-1,538,680,0,0
-679,344,0,0,0,0,0,0,0,0,0,-1,545,680,0,0
-672,344,0,0,0,0,0,0,0,0,0,-1,552,680,0,0
-665,344,0,0,0,0,0,0,0,0,0,-1,559,680,0,0
-658,344,0,0,0,0,0,0,0,0,0,-1,566,680,0,0
-651,344,0,0,0,0,0,0,0,0,0,-1,573,680,0,0
-644,344,0,0,0,0,0,0,0,0,0,-1,580,680,0,0
-637,344,0,0,0,0,0,0,0,0,0,-1,587,680,0,0
-630,344,0,0,0,0,0,0,0,0,0,-1,594,680,0,0
-623,344,0,0,0,0,0,0,0,0,0,-1,601,680,0,0
-616,344,0,0,0,0,0,0,0,0,0,-1,608,680,0,0
-609,344,0,0,0,0,0,0,0,0,0,-1,615,680,0,0
-602,344,0,0,0,0,0,0,0,0,0,-1,622,680,0,0
-595,344,0,0,0,0,0,0,0,0,0,-1,629,680,0,0
-588,344,-9.27826,1.47302,0,0,0,0,0,0,0,-1,636,680,-9.27829,-1.473
-581,344,-10.0098,1.71753,0,0,0,0,0,0,0,-1,643,680,-10.0098,-1.7175
-574,344,-10.2208,3.04871,0,0,0,0,0,0,0,-1,650,680,-10.2208,-3.04869
-567,344,-10.5964,5.03223,0,0,0,0,0,0,0,-1,657,680,-10.5964,-5.03223
-560,344,-10.5164,3.14191,0,0,0,0,0,0,0,-1,664,680,-10.5164,-3.14189
-553,344,-11.6422,0.695435,0,0,0,0,0,0,0,-1,671,680,-11.6422,-0.695405
-546,344,-11.3085,-0.231995,0.0175293,0.0304342,-0.0195206,0.0445411,0.00342239,-0.945018,0.0286216,0.0458054,678,680,-11.3085,0.231975
-539,344,-10.9481,-1.24298,0.0124168,0.0224155,-0.0138551,0.0321456,0.00268667,-0.958544,0.0205934,0.0460238,685,680,-10.9481,1.24295
-532,344,-10.634,-2.14478,0,0,0,0,0,0,0,-1,692,680,-10.634,2.14476
-525,344,-10.7177,-2.61743,0.00586846,0.0112388,-0.00626974,0.0153742,0.00173309,-0.987718,0.00972336,0.0278385,699,680,-10.7177,2.6174
-518,344,-10.7112,-3.11243,0.00386991,0.00743302,-0.00382277,0.00986899,0.00143394,-1.00345,0.00615726,0.0209149,706,680,-10.7112,3.11244
-511,344,-10.6938,-3.53143,0.00253064,0.00465594,-0.00216722,0.00600702,0.00117957,-1.01334,0.00367514,0.0187667,713,680,-10.6939,3.53141
-504,344,-10.6838,-3.95636,0.0017406,0.00268771,-0.00114058,0.00344913,0.000979178,-0.982164,0.00205242,0.0180286,720,680,-10.6838,3.95635
-497,344,-10.7243,-4.38702,0.00144284,0.00134469,-0.000677219,0.00207276,0.00071477,-0.749229,0.00121576,0.0147331,727,680,-10.7243,4.38702
-490,344,-10.7408,-4.79803,0.00142595,0.000575603,-0.000554563,0.00169957,0.000301982,-0.458353,0.001047,0.0130952,734,680,-10.7408,4.79802
-483,344,-10.7191,-5.20551,0.00194153,0.000645847,-0.00110202,0.00257203,1.53488e-05,-0.519674,0.00170959,0.0127075,741,680,-10.7191,5.2055
-476,344,-10.7355,-5.63464,0.00265665,0.00108258,-0.00194693,0.0039696,-0.000230371,-0.593318,0.00272644,0.0129053,748,680,-10.7355,5.63462
-469,344,-10.7241,-6.08112,0.00353387,0.00166044,-0.00285533,0.00560221,-0.000407898,-0.626901,0.00387793,0.0149272,755,680,-10.7241,6.08109
-462,344,-10.7139,-6.58435,0.00458327,0.00280327,-0.00397638,0.00776803,-0.000381498,-0.675302,0.00531042,0.0437355,762,680,-10.7139,6.58434
-455,344,-10.6193,-7.02362,0,0,0,0,0,0,0,-1,769,680,-10.6192,7.02361
-448,344,-5.67657,-2.72864,0,0,0,0,0,0,0,-1,776,680,-5.6766,2.72863
-441,344,-5.09229,-2.34167,0,0,0,0,0,0,0,-1,783,680,-5.09229,2.34168
-434,344,-4.28778,-2.08807,0,0,0,0,0,0,0,-1,790,680,-4.28778,2.08809
-427,344,-3.06506,-1.45404,0,0,0,0,0,0,0,-1,797,680,-3.06505,1.45402
-420,344,-1.96582,-1.57574,0,0,0,0,0,0,0,-1,804,680,-1.96579,1.57574
-413,344,-0.817993,-1.4751,0,0,0,0,0,0,0,-1,811,680,-0.818017,1.47511
-406,344,-0.00714111,-1.25189,0,0,0,0,0,0,0,-1,818,680,-0.00714956,1.25191
-399,344,0.240051,-1.75769,0,0,0,0,0,0,0,-1,825,680,0.240079,1.75767
-392,344,1.11353,-2.05615,0,0,0,0,0,0,0,-1,832,680,1.11351,2.05616
-385,344,0,0,0,0,0,0,0,0,0,-1,839,680,0,0
-378,344,0,0,0,0,0,0,0,0,0,-1,846,680,0,0
-371,344,0,0,0,0,0,0,0,0,0,-1,853,680,0,0
-364,344,0,0,0,0,0,0,0,0,0,-1,860,680,0,0
-357,344,0,0,0,0,0,0,0,0,0,-1,867,680,0,0
-350,344,0,0,0,0,0,0,0,0,0,-1,874,680,0,0
-343,344,0,0,0,0,0,0,0,0,0,-1,881,680,0,0
-336,344,0,0,0,0,0,0,0,0,0,-1,888,680,0,0
-329,344,0,0,0,0,0,0,0,0,0,-1,895,680,0,0
-322,344,0,0,0,0,0,0,0,0,0,-1,902,680,0,0
-315,344,0,0,0,0,0,0,0,0,0,-1,909,680,0,0
-308,344,0,0,0,0,0,0,0,0,0,-1,916,680,0,0
-301,344,0,0,0,0,0,0,0,0,0,-1,923,680,0,0
-294,344,0,0,0,0,0,0,0,0,0,-1,930,680,0,0
-287,344,0,0,0,0,0,0,0,0,0,-1,937,680,0,0
-280,344,0,0,0,0,0,0,0,0,0,-1,944,680,0,0
-273,344,0,0,0,0,0,0,0,0,0,-1,951,680,0,0
-266,344,0,0,0,0,0,0,0,0,0,-1,958,680,0,0
-259,344,0,0,0,0,0,0,0,0,0,-1,965,680,0,0
-252,344,0,0,0,0,0,0,0,0,0,-1,972,680,0,0
-245,344,0,0,0,0,0,0,0,0,0,-1,979,680,0,0
-238,344,0,0,0,0,0,0,0,0,0,-1,986,680,0,0
-231,344,0,0,0,0,0,0,0,0,0,-1,993,680,0,0
-224,344,0,0,0,0,0,0,0,0,0,-1,1000,680,0,0
-217,344,0,0,0,0,0,0,0,0,0,-1,1007,680,0,0
-210,344,0,0,0,0,0,0,0,0,0,-1,1014,680,0,0
-203,344,0,0,0,0,0,0,0,0,0,-1,1021,680,0,0
-196,344,0,0,0,0,0,0,0,0,0,-1,1028,680,0,0
-189,344,0,0,0,0,0,0,0,0,0,-1,1035,680,0,0
-182,344,0,0,0,0,0,0,0,0,0,-1,1042,680,0,0
-175,344,0,0,0,0,0,0,0,0,0,-1,1049,680,0,0
-168,344,0,0,0,0,0,0,0,0,0,-1,1056,680,0,0
-161,344,0,0,0,0,0,0,0,0,0,-1,1063,680,0,0
-154,344,0,0,0,0,0,0,0,0,0,-1,1070,680,0,0
-147,344,0,0,0,0,0,0,0,0,0,-1,1077,680,0,0
-140,344,0,0,0,0,0,0,0,0,0,-1,1084,680,0,0
-133,344,0,0,0,0,0,0,0,0,0,-1,1091,680,0,0
-126,344,0,0,0,0,0,0,0,0,0,-1,1098,680,0,0
-119,344,0,0,0,0,0,0,0,0,0,-1,1105,680,0,0
-112,344,0,0,0,0,0,0,0,0,0,-1,1112,680,0,0
-105,344,0,0,0,0,0,0,0,0,0,-1,1119,680,0,0
-98,344,0,0,0,0,0,0,0,0,0,-1,1126,680,0,0
-91,344,0,0,0,0,0,0,0,0,0,-1,1133,680,0,0
-84,344,0,0,0,0,0,0,0,0,0,-1,1140,680,0,0
-77,344,0,0,0,0,0,0,0,0,0,-1,1147,680,0,0
-70,344,0,0,0,0,0,0,0,0,0,-1,1154,680,0,0
-63,344,0,0,0,0,0,0,0,0,0,-1,1161,680,0,0
-56,344,0,0,0,0,0,0,0,0,0,-1,1168,680,0,0
-49,344,0,0,0,0,0,0,0,0,0,-1,1175,680,0,0
-42,344,0,0,0,0,0,0,0,0,0,-1,1182,680,0,0
-35,344,0,0,0,0,0,0,0,0,0,-1,1189,680,0,0
-28,344,0,0,0,0,0,0,0,0,0,-1,1196,680,0,0
-21,344,0,0,0,0,0,0,0,0,0,-1,1203,680,0,0
-14,344,0,0,0,0,0,0,0,0,0,-1,1210,680,0,0
-7,344,0,0,0,0,0,0,0,0,0,-1,1217,680,0,0
0,344,0,0,0,0,0,0,0,0,0,-1,1224,680,0,0
7,344,0,0,0,0,0,0,0,0,0,-1,1231,680,0,0
14,344,0,0,0,0,0,0,0,0,0,-1,1238,680,0,0
21,344,0,0,0,0,0,0,0,0,0,-1,1245,680,0,0
28,344,0,0,0,0,0,0,0,0,0,-1,1252,680,0,0
35,344,0,0,0,0,0,0,0,0,0,-1,1259,680,0,0
42,344,0,0,0,0,0,0,0,0,0,-1,1266,680,0,0
49,344,0,0,0,0,0,0,0,0,0,-1,1273,680,0,0
56,344,0,0,0,0,0,0,0,0,0,-1,1280,680,0,0
63,344,0,0,0,0,0,0,0,0,0,-1,1287,680,0,0
70,344,0,0,0,0,0,0,0,0,0,-1,1294,680,0,0
77,344,0,0,0,0,0,0,0,0,0,-1,1301,680,0,0
84,344,0,0,0,0,0,0,0,0,0,-1,1308,680,0,0
91,344,0,0,0,0,0,0,0,0,0,-1,1315,680,0,0
98,344,0,0,0,0,0,0,0,0,0,-1,1322,680,0,0
105,344,0,0,0,0,0,0,0,0,0,-1,1329,680,0,0
112,344,0,0,0,0,0,0,0,0,0,-1,1336,680,0,0
119,344,0,0,0,0,0,0,0,0,0,-1,1343,680,0,0
126,344,0,0,0,0,0,0,0,0,0,-1,1350,680,0,0
133,344,0,0,0,0,0,0,0,0,0,-1,1357,680,0,0
140,344,0,0,0,0,0,0,0,0,0,-1,1364,680,0,0
147,344,0,0,0,0,0,0,0,0,0,-1,1371,680,0,0
154,344,0,0,0,0,0,0,0,0,0,-1,1378,680,0,0
161,344,0,0,0,0,0,0,0,0,0,-1,1385,680,0,0
168,344,0,0,0,0,0,0,0,0,0,-1,1392,680,0,0
175,344,0,0,0,0,0,0,0,0,0,-1,1399,680,0,0
182,344,0,0,0,0,0,0,0,0,0,-1,1406,680,0,0
189,344,0,0,0,0,0,0,0,0,0,-1,1413,680,0,0
196,344,0,0,0,0,0,0,0,0,0,-1,1420,680,0,0
203,344,0,0,0,0,0,0,0,0,0,-1,1427,680,0,0
210,344,0,0,0,0,0,0,0,0,0,-1,1434,680,0,0
217,344,0,0,0,0,0,0,0,0,0,-1,1441,680,0,0
224,344,0,0,0,0,0,0,0,0,0,-1,1448,680,0,0
231,344,0,0,0,0,0,0,0,0,0,-1,1455,680,0,0
238,344,0,0,0,0,0,0,0,0,0,-1,1462,680,0,0
245,344,0,0,0,0,0,0,0,0,0,-1,1469,680,0,0
252,344,0,0,0,0,0,0,0,0,0,-1,1476,680,0,0
259,344,0,0,0,0,0,0,0,0,0,-1,1483,680,0,0
266,344,0,0,0,0,0,0,0,0,0,-1,1490,680,0,0
273,344,0,0,0,0,0,0,0,0,0,-1,1497,680,0,0
280,344,0,0,0,0,0,0,0,0,0,-1,1504,680,0,0
287,344,0,0,0,0,0,0,0,0,0,-1,1511,680,0,0
294,344,0,0,0,0,0,0,0,0,0,-1,1518,680,0,0
301,344,0,0,0,0,0,0,0,0,0,-1,1525,680,0,0
308,344,0,0,0,0,0,0,0,0,0,-1,1532,680,0,0
315,344,0,0,0,0,0,0,0,0,0,-1,1539,680,0,0
322,344,0,0,0,0,0,0,0,0,0,-1,1546,680,0,0
329,344,0,0,0,0,0,0,0,0,0,-1,1553,680,0,0
336,344,0,0,0,0,0,0,0,0,0,-1,1560,680,0,0
343,344,0,0,0,0,0,0,0,0,0,-1,1567,680,0,0
350,344,0,0,0,0,0,0,0,0,0,-1,1574,680,0,0
357,344,0,0,0,0,0,0,0,0,0,-1,1581,680,0,0
364,344,0,0,0,0,0,0,0,0,0,-1,1588,680,0,0
371,344,0,0,0,0,0,0,0,0,0,-1,1595,680,0,0
378,344,0,0,0,0,0,0,0,0,0,-1,1602,680,0,0
385,344,0,0,0,0,0,0,0,0,0,-1,1609,680,0,0
392,344,0,0,0,0,0,0,0,0,0,-1,1616,680,0,0
399,344,0,0,0,0,0,0,0,0,0,-1,1623,680,0,0
406,344,0,0,0,0,0,0,0,0,0,-1,1630,680,0,0
413,344,0,0,0,0,0,0,0,0,0,-1,1637,680,0,0
420,344,0,0,0,0,0,0,0,0,0,-1,1644,680,0,0
427,344,0,0,0,0,0,0,0,0,0,-1,1651,680,0,0
434,344,0,0,0,0,0,0,0,0,0,-1,1658,680,0,0
441,344,0,0,0,0,0,0,0,0,0,-1,1665,680,0,0
448,344,0,0,0,0,0,0,0,0,0,-1,1672,680,0,0
455,344,0,0,0,0,0,0,0,0,0,-1,1679,680,0,0
462,344,0,0,0,0,0,0,0,0,0,-1,1686,680,0,0
469,344,0,0,0,0,0,0,0,0,0,-1,1693,680,0,0
476,344,0,0,0,0,0,0,0,0,0,-1,1700,680,0,0
483,344,0,0,0,0,0,0,0,0,0,-1,1707,680,0,0
490,344,0,0,0,0,0,0,0,0,0,-1,1714,680,0,0
497,344,0,0,0,0,0,0,0,0,0,-1,1721,680,0,0
504,344,0,0,0,0,0,0,0,0,0,-1,1728,680,0,0
511,344,15.4819,0.452637,0,0,0,0,0,0,0,-1,1735,680,15.4819,-0.452656
518,344,17.1357,2.31207,0,0,0,0,0,0,0,-1,1742,680,17.1358,-2.31207
525,344,31.5201,2.6217,0,0,0,0,0,0,0,-1,1749,680,31.5201,-2.62168
532,344,31.9766,2.61047,0,0,0,0,0,0,0,-1,1756,680,31.9765,-2.6105
539,344,32.4379,2.65314,0,0,0,0,0,0,0,-1,1763,680,32.4378,-2.65316
546,344,14.6722,4.30243,0,0,0,0,0,0,0,-1,1770,680,14.6722,-4.30241
553,344,14.8136,4.35681,0,0,0,0,0,0,0,-1,1777,680,14.8136,-4.35679
560,344,11.9363,2.14185,0,0,0,0,0,0,0,-1,1784,680,11.9362,-2.14182
567,344,11.397,0.925842,0,0,0,0,0,0,0,-1,1791,680,11.397,-0.92583
574,344,10.0004,0.504639,0,0,0,0,0,0,0,-1,1798,680,10.0004,-0.504645
581,344,13.6709,-0.969604,0,0,0,0,0,0,0,-1,1805,680,13.6709,0.969629
588,344,16.1447,-3.15948,0,0,0,0,0,0,0,-1,1812,680,16.1447,3.15946
595,344,18.8131,-4.46326,0,0,0,0,0,0,0,-1,1819,680,18.8132,4.46328
602,344,19.0505,-3.84149,0.00149318,0.00160894,-0.00110848,0.00266105,0.000441064,-0.811483,0.00164682,0.0440312,1826,680,19.0505,3.84149
609,344,18.9579,-3.43146,0.0015414,0.00108301,-0.000245941,0.00164838,0.00097602,-0.410312,0.000957063,0.0154438,1833,680,18.9579,3.43145
616,344,18.9187,-3.00391,0.00145497,0.000761936,0.000461298,0.0016854,0.000531503,0.463272,0.000994936,0.0205552,1840,680,18.9187,3.00389
623,344,18.9592,-2.55945,0.000981187,0.000682233,0.000585523,0.00143601,0.000227408,0.660424,0.000891262,0.0183386,1847,680,18.9593,2.55946
630,344,18.9575,-2.13763,0.000263515,0.000672716,0.000425924,0.000940633,-4.40128e-06,1.00931,0.000628561,0.023909,1854,680,18.9575,2.13763
637,344,18.9401,-1.67438,-0.000842738,0.000508837,0.000138815,0.000522947,-0.000856848,1.4695,0.000804363,0.0232808,1861,680,18.94,1.67438
644,344,18.8954,-1.21063,-0.00244888,0.000494668,-0.000349961,0.000535703,-0.00248991,-1.45407,0.00186434,0.0160482,1868,680,18.8953,1.21065
651,344,18.8632,-0.752441,-0.00438025,0.000330917,-0.000918394,0.000503618,-0.00455295,-1.38492,0.00321634,0.0112134,1875,680,18.8631,0.75242
658,344,18.8687,-0.230408,-0.00692278,5.1533e-05,-0.00174829,0.000465245,-0.00733649,-1.33843,0.00505322,0.022012,1882,680,18.8687,0.23042
665,344,18.7571,0.182617,-0.0101768,-0.000365185,-0.00284532,0.000400232,-0.0109422,-1.30801,0.00743182,0.0354717,1889,680,18.7571,-0.182625
672,344,18.7766,0.554871,0,0,0,0,0,0,0,-1,1896,680,18.7766,-0.554874
679,344,18.4459,0.997742,0,0,0,0,0,0,0,-1,1903,680,18.4459,-0.997727
686,344,15.024,1.82709,0,0,0,0,0,0,0,-1,1910,680,15.024,-1.82706
693,344,12.4362,-1.42346,0,0,0,0,0,0,0,-1,1917,680,12.4361,1.42348
700,344,17.5396,2.61206,0,0,0,0,0,0,0,-1,1924,680,17.5396,-2.61204
707,344,18.5829,3.29352,0,0,0,0,0,0,0,-1,1931,680,18.5828,-3.2935
714,344,0,0,0,0,0,0,0,0,0,-1,1938,680,0,0
721,344,0,0,0,0,0,0,0,0,0,-1,1945,680,0,0
728,344,0,0,0,0,0,0,0,0,0,-1,1952,680,0,0
735,344,0,0,0,0,0,0,0,0,0,-1,1959,680,0,0
742,344,0,0,0,0,0,0,0,0,0,-1,1966,680,0,0
749,344,0,0,0,0,0,0,0,0,0,-1,1973,680,0,0
756,344,0,0,0,0,0,0,0,0,0,-1,1980,680,0,0
763,344,0,0,0,0,0,0,0,0,0,-1,1987,680,0,0
770,344,0,0,0,0,0,0,0,0,0,-1,1994,680,0,0
777,344,0,0,0,0,0,0,0,0,0,-1,2001,680,0,0
784,344,0,0,0,0,0,0,0,0,0,-1,2008,680,0,0
791,344,0,0,0,0,0,0,0,0,0,-1,2015,680,0,0
798,344,0,0,0,0,0,0,0,0,0,-1,2022,680,0,0
805,344,0,0,0,0,0,0,0,0,0,-1,2029,680,0,0
812,344,0,0,0,0,0,0,0,0,0,-1,2036,680,0,0
-700,337,0,0,0,0,0,0,0,0,0,-1,524,687,0,0
-693,337,0,0,0,0,0,0,0,0,0,-1,531,687,0,0
-686,337,0,0,0,0,0,0,0,0,0,-1,538,687,0,0
-679,337,0,0,0,0,0,0,0,0,0,-1,545,687,0,0
-672,337,0,0,0,0,0,0,0,0,0,-1,552,687,0,0
-665,337,0,0,0,0,0,0,0,0,0,-1,559,687,0,0
-658,337,0,0,0,0,0,0,0,0,0,-1,566,687,0,0
-651,337,0,0,0,0,0,0,0,0,0,-1,573,687,0,0
-644,337,0,0,0,0,0,0,0,0,0,-1,580,687,0,0
-637,337,0,0,0,0,0,0,0,0,0,-1,587,687,0,0
-630,337,0,0,0,0,0,0,0,0,0,-1,594,687,0,0
-623,337,0,0,0,0,0,0,0,0,0,-1,601,687,0,0
-616,337,0,0,0,0,0,0,0,0,0,-1,608,687,0,0
-609,337,0,0,0,0,0,0,0,0,0,-1,615,687,0,0
-602,337,0,0,0,0,0,0,0,0,0,-1,622,687,0,0
-595,337,0,0,0,0,0,0,0,0,0,-1,629,687,0,0
-588,337,-10.8413,1.27863,0,0,0,0,0,0,0,-1,636,687,-10.8413,-1.27861
-581,337,-11.2157,1.31567,0,0,0,0,0,0,0,-1,643,687,-11.2157,-1.3157
-574,337,-6.03339,2.0321,0,0,0,0,0,0,0,-1,650,687,-6.03337,-2.03213
-567,337,-9.8313,1.39795,0,0,0,0,0,0,0,-1,657,687,-9.83129,-1.39793
-560,337,-11.7072,1.16852,0,0,0,0,0,0,0,-1,664,687,-11.7071,-1.16852
-553,337,-11.0877,-0.410522,0,0,0,0,0,0,0,-1,671,687,-11.0877,0.410526
-546,337,-11.3589,-0.649658,0.0132647,0.0250398,-0.01527,0.0355179,0.0027866,-0.969398,0.0228066,0.0420918,678,687,-11.3589,0.64968
-539,337,-11.0114,-1.66449,0.00971188,0.0186313,-0.0110912,0.0261259,0.00221733,-0.976553,0.0167272,0.0310608,685,687,-11.0114,1.66448
-532,337,-11.0671,-2.24567,0.00696323,0.0134476,-0.00777297,0.0186274,0.00178337,-0.982982,0.0118686,0.0203464,692,687,-11.0671,2.24568
-525,337,-11.1323,-2.66583,0.00484897,0.0092647,-0.00510403,0.0126179,0.00149574,-0.989532,0.00796035,0.0155833,699,687,-11.1323,2.66582
-518,337,-11.1333,-3.10559,0.00327622,0.00599338,-0.00307659,0.007998,0.00127159,-0.993316,0.00496274,0.0253074,706,687,-11.1333,3.1056
-511,337,-11.1461,-3.53198,0.00221595,0.00356595,-0.00167753,0.00469919,0.00108271,-0.976677,0.0028415,0.0259742,713,687,-11.1461,3.53199
-504,337,-11.1135,-3.96484,0.00157392,0.00182208,-0.000770178,0.00247811,0.000917891,-0.865264,0.00144667,0.0235452,720,687,-11.1136,3.96487
-497,337,-11.1472,-4.3996,0.00135248,0.000677959,-0.000363455,0.00151105,0.000519393,-0.411381,0.000886492,0.0159078,727,687,-11.1471,4.3996
-490,337,-11.1723,-4.81073,0.0015145,0.000239941,-0.000440627,0.001652,0.000102445,-0.302471,0.00106882,0.0140381,734,687,-11.1723,4.81072
-483,337,-11.1477,-5.22546,0.0021723,0.000595941,-0.00118376,0.00280628,-3.80313e-05,-0.491688,0.00188366,0.0137586,741,687,-11.1477,5.22546
-476,337,-11.1428,-5.66083,0.00289474,0.00119357,-0.00210332,0.00431296,-0.000224645,-0.593252,0.00295304,0.0136001,748,687,-11.1427,5.66085
-469,337,-11.1125,-6.18176,0.00386489,0.00198221,-0.00314783,0.00620912,-0.000362023,-0.640109,0.00426521,0.036104,755,687,-11.1125,6.18177
-462,337,-10.9852,-6.53094,0,0,0,0,0,0,0,-1,762,687,-10.9852,6.53096
-455,337,-6.00574,-3.12933,0,0,0,0,0,0,0,-1,769,687,-6.00576,3.12934
-448,337,-5.30627,-2.07202,0,0,0,0,0,0,0,-1,776,687,-5.30628,2.07205
-441,337,-4.24762,-1.49597,0,0,0,0,0,0,0,-1,783,687,-4.24762,1.49598
-434,337,-6.86908,1.37531,0,0,0,0,0,0,0,-1,790,687,-6.86908,-1.3753
-427,337,-9.92004,2.487,0,0,0,0,0,0,0,-1,797,687,-9.92002,-2.48701
-420,337,-2.95996,-1.76697,0,0,0,0,0,0,0,-1,804,687,-2.95998,1.76696
-413,337,-1.29169,-1.99487,0,0,0,0,0,0,0,-1,811,687,-1.29171,1.9949
-406,337,-1.02356,-1.89563,0,0,0,0,0,0,0,-1,818,687,-1.02357,1.89564
-399,337,-0.472839,-2.21338,0,0,0,0,0,0,0,-1,825,687,-0.472837,2.2134
-392,337,0,0,0,0,0,0,0,0,0,-1,832,687,0,0
-385,337,0,0,0,0,0,0,0,0,0,-1,839,687,0,0
-378,337,0,0,0,0,0,0,0,0,0,-1,846,687,0,0
-371,337,0,0,0,0,0,0,0,0,0,-1,853,687,0,0
-364,337,0,0,0,0,0,0,0,0,0,-1,860,687,0,0
-357,337,0,0,0,0,0,0,0,0,0,-1,867,687,0,0
-350,337,0,0,0,0,0,0,0,0,0,-1,874,687,0,0
-343,337,0,0,0,0,0,0,0,0,0,-1,881,687,0,0
-336,337,0,0,0,0,0,0,0,0,0,-1,888,687,0,0
-329,337,0,0,0,0,0,0,0,0,0,-1,895,687,0,0
-322,337,0,0,0,0,0,0,0,0,0,-1,902,687,0,0
-315,337,0,0,0,0,0,0,0,0,0,-1,909,687,0,0
-308,337,0,0,0,0,0,0,0,0,0,-1,916,687,0,0
-301,337,0,0,0,0,0,0,0,0,0,-1,923,687,0,0
-294,337,0,0,0,0,0,0,0,0,0,-1,930,687,0,0
-287,337,0,0,0,0,0,0,0,0,0,-1,937,687,0,0
-280,337,0,0,0,0,0,0,0,0,0,-1,944,687,0,0
-273,337,0,0,0,0,0,0,0,0,0,-1,951,687,0,0
-266,337,0,0,0,0,0,0,0,0,0,-1,958,687,0,0
-259,337,0,0,0,0,0,0,0,0,0,-1,965,687,0,0
-252,337,0,0,0,0,0,0,0,0,0,-1,972,687,0,0
-245,337,0,0,0,0,0,0,0,0,0,-1,979,687,0,0
-238,337,0,0,0,0,0,0,0,0,0,-1,986,687,0,0
-231,337,0,0,0,0,0,0,0,0,0,-1,993,687,0,0
-224,337,0,0,0,0,0,0,0,0,0,-1,1000,687,0,0
-217,337,0,0,0,0,0,0,0,0,0,-1,1007,687,0,0
-210,337,0,0,0,0,0,0,0,0,0,-1,1014,687,0,0
-203,337,0,0,0,0,0,0,0,0,0,-1,1021,687,0,0
-196,337,0,0,0,0,0,0,0,0,0,-1,1028,687,0,0
-189,337,0,0,0,0,0,0,0,0,0,-1,1035,687,0,0
-182,337,0,0,0,0,0,0,0,0,0,-1,1042,687,0,0
-175,337,0,0,0,0,0,0,0,0,0,-1,1049,687,0,0
-168,337,0,0,0,0,0,0,0,0,0,-1,1056,687,0,0
-161,337,0,0,0,0,0,0,0,0,0,-1,1063,687,0,0
-154,337,0,0,0,0,0,0,0,0,0,-1,1070,687,0,0
-147,337,0,0,0,0,0,0,0,0,0,-1,1077,687,0,0
-140,337,0,0,0,0,0,0,0,0,0,-1,1084,687,0,0
-133,337,0,0,0,0,0,0,0,0,0,-1,1091,687,0,0
-126,337,0,0,0,0,0,0,0,0,0,-1,1098,687,0,0
-119,337,0,0,0,0,0,0,0,0,0,-1,1105,687,0,0
-112,337,0,0,0,0,0,0,0,0,0,-1,1112,687,0,0
-105,337,0,0,0,0,0,0,0,0,0,-1,1119,687,0,0
-98,337,0,0,0,0,0,0,0,0,0,-1,1126,687,0,0
-91,337,0,0,0,0,0,0,0,0,0,-1,1133,687,0,0
-84,337,0,0,0,0,0,0,0,0,0,-1,1140,687,0,0
-77,337,0,0,0,0,0,0,0,0,0,-1,1147,687,0,0
-70,337,0,0,0,0,0,0,0,0,0,-1,1154,687,0,0
-63,337,0,0,0,0,0,0,0,0,0,-1,1161,687,0,0
-56,337,0,0,0,0,0,0,0,0,0,-1,1168,687,0,0
-49,337,0,0,0,0,0,0,0,0,0,-1,1175,687,0,0
-42,337,0,0,0,0,0,0,0,0,0,-1,1182,687,0,0
-35,337,0,0,0,0,0,0,0,0,0,-1,1189,687,0,0
-28,337,0,0,0,0,0,0,0,0,0,-1,1196,687,0,0
-21,337,0,0,0,0,0,0,0,0,0,-1,1203,687,0,0
-14,337,0,0,0,0,0,0,0,0,0,-1,1210,687,0,0
-7,337,0,0,0,0,0,0,0,0,0,-1,1217,687,0,0
0,337,0,0,0,0,0,0,0,0,0,-1,1224,687,0,0
7,337,0,0,0,0,0,0,0,0,0,-1,1231,687,0,0
14,337,0,0,0,0,0,0,0,0,0,-1,1238,687,0,0
21,337,0,0,0,0,0,0,0,0,0,-1,1245,687,0,0
28,337,0,0,0,0,0,0,0,0,0,-1,1252,687,0,0
35,337,0,0,0,0,0,0,0,0,0,-1,1259,687,0,0
42,337,0,0,0,0,0,0,0,0,0,-1,1266,687,0,0
49,337,0,0,0,0,0,0,0,0,0,-1,1273,687,0,0
56,337,0,0,0,0,0,0,0,0,0,-1,1280,687,0,0
63,337,0,0,0,0,0,0,0,0,0,-1,1287,687,0,0
70,337,0,0,0,0,0,0,0,0,0,-1,1294,687,0,0
77,337,0,0,0,0,0,0,0,0,0,-1,1301,687,0,0
84,337,0,0,0,0,0,0,0,0,0,-1,1308,687,0,0
91,337,0,0,0,0,0,0,0,0,0,-1,1315,687,0,0
98,337,0,0,0,0,0,0,0,0,0,-1,1322,687,0,0
105,337,0,0,0,0,0,0,0,0,0,-1,1329,687,0,0
112,337,0,0,0,0,0,0,0,0,0,-1,1336,687,0,0
119,337,0,0,0,0,0,0,0,0,0,-1,1343,687,0,0
126,337,0,0,0,0,0,0,0,0,0,-1,1350,687,0,0
133,337,0,0,0,0,0,0,0,0,0,-1,1357,687,0,0
140,337,0,0,0,0,0,0,0,0,0,-1,1364,687,0,0
147,337,0,0,0,0,0,0,0,0,0,-1,1371,687,0,0
154,337,0,0,0,0,0,0,0,0,0,-1,1378,687,0,0
161,337,0,0,0,0,0,0,0,0,0,-1,1385,687,0,0
168,337,0,0,0,0,0,0,0,0,0,-1,1392,687,0,0
175,337,0,0,0,0,0,0,0,0,0,-1,1399,687,0,0
182,337,0,0,0,0,0,0,0,0,0,-1,1406,687,0,0
189,337,0,0,0,0,0,0,0,0,0,-1,1413,687,0,0
196,337,0,0,0,0,0,0,0,0,0,-1,1420,687,0,0
203,337,0,0,0,0,0,0,0,0,0,-1,1427,687,0,0
210,337,0,0,0,0,0,0,0,0,0,-1,1434,687,0,0
217,337,0,0,0,0,0,0,0,0,0,-1,1441,687,0,0
224,337,0,0,0,0,0,0,0,0,0,-1,1448,687,0,0
231,337,0,0,0,0,0,0,0,0,0,-1,1455,687,0,0
238,337,0,0,0,0,0,0,0,0,0,-1,1462,687,0,0
245,337,0,0,0,0,0,0,0,0,0,-1,1469,687,0,0
252,337,0,0,0,0,0,0,0,0,0,-1,1476,687,0,0
259,337,0,0,0,0,0,0,0,0,0,-1,1483,687,0,0
266,337,0,0,0,0,0,0,0,0,0,-1,1490,687,0,0
273,337,0,0,0,0,0,0,0,0,0,-1,1497,687,0,0
280,337,0,0,0,0,0,0,0,0,0,-1,1504,687,0,0
287,337,0,0,0,0,0,0,0,0,0,-1,1511,687,0,0
294,337,0,0,0,0,0,0,0,0,0,-1,1518,687,0,0
301,337,0,0,0,0,0,0,0,0,0,-1,1525,687,0,0
308,337,0,0,0,0,0,0,0,0,0,-1,1532,687,0,0
315,337,0,0,0,0,0,0,0,0,0,-1,1539,687,0,0
322,337,0,0,0,0,0,0,0,0,0,-1,1546,687,0,0
329,337,0,0,0,0,0,0,0,0,0,-1,1553,687,0,0
336,337,0,0,0,0,0,0,0,0,0,-1,1560,687,0,0
343,337,0,0,0,0,0,0,0,0,0,-1,1567,687,0,0
350,337,0,0,0,0,0,0,0,0,0,-1,1574,687,0,0
357,337,0,0,0,0,0,0,0,0,0,-1,1581,687,0,0
364,337,0,0,0,0,0,0,0,0,0,-1,1588,687,0,0
371,337,0,0,0,0,0,0,0,0,0,-1,1595,687,0,0
378,337,0,0,0,0,0,0,0,0,0,-1,1602,687,0,0
385,337,0,0,0,0,0,0,0,0,0,-1,1609,687,0,0
392,337,0,0,0,0,0,0,0,0,0,-1,1616,687,0,0
399,337,0,0,0,0,0,0,0,0,0,-1,1623,687,0,0
406,337,0,0,0,0,0,0,0,0,0,-1,1630,687,0,0
413,337,0,0,0,0,0,0,0,0,0,-1,1637,687,0,0
420,337,0,0,0,0,0,0,0,0,0,-1,1644,687,0,0
427,337,0,0,0,0,0,0,0,0,0,-1,1651,687,0,0
434,337,0,0,0,0,0,0,0,0,0,-1,1658,687,0,0
441,337,0,0,0,0,0,0,0,0,0,-1,1665,687,0,0
448,337,0,0,0,0,0,0,0,0,0,-1,1672,687,0,0
455,337,0,0,0,0,0,0,0,0,0,-1,1679,687,0,0
462,337,0,0,0,0,0,0,0,0,0,-1,1686,687,0,0
469,337,0,0,0,0,0,0,0,0,0,-1,1693,687,0,0
476,337,0,0,0,0,0,0,0,0,0,-1,1700,687,0,0
483,337,0,0,0,0,0,0,0,0,0,-1,1707,687,0,0
490,337,0,0,0,0,0,0,0,0,0,-1,1714,687,0,0
497,337,0,0,0,0,0,0,0,0,0,-1,1721,687,0,0
504,337,0,0,0,0,0,0,0,0,0,-1,1728,687,0,0
511,337,0,0,0,0,0,0,0,0,0,-1,1735,687,0,0
518,337,18.0369,1.64581,0,0,0,0,0,0,0,-1,1742,687,18.0368,-1.64581
525,337,31.0717,2.13745,0,0,0,0,0,0,0,-1,1749,687,31.0717,-2.13747
532,337,31.5126,2.13904,0,0,0,0,0,0,0,-1,1756,687,31.5125,-2.13905
539,337,31.9684,2.15594,0,0,0,0,0,0,0,-1,1763,687,31.9684,-2.15596
546,337,32.3584,1.43719,0,0,0,0,0,0,0,-1,1770,687,32.3585,-1.43722
553,337,32.1809,1.36395,0,0,0,0,0,0,0,-1,1777,687,32.181,-1.36396
560,337,18.4053,3.62793,0,0,0,0,0,0,0,-1,1784,687,18.4052,-3.6279
567,337,11.9288,1.38776,0,0,0,0,0,0,0,-1,1791,687,11.9288,-1.38777
574,337,10.704,1.19476,0,0,0,0,0,0,0,-1,1798,687,10.704,-1.19478
581,337,8.50427,0.561768,0,0,0,0,0,0,0,-1,1805,687,8.5043,-0.561754
588,337,8.5885,-0.0536499,0,0,0,0,0,0,0,-1,1812,687,8.58844,0.0536788
595,337,13.8816,-1.70703,0,0,0,0,0,0,0,-1,1819,687,13.8816,1.70702
602,337,19.3623,-3.88208,0,0,0,0,0,0,0,-1,1826,687,19.3623,3.88209
609,337,19.4055,-3.34161,0.00240617,0.00199317,-0.00102151,0.00324184,0.0011575,-0.685666,0.001897,0.0288461,1833,687,19.4056,3.3416
616,337,19.3812,-2.94757,0.00186459,0.000851341,0.000285381,0.00193944,0.000776493,0.256498,0.00112712,0.0165275,1840,687,19.3812,2.94758
623,337,19.3862,-2.55304,0.00116954,0.000486362,0.000599076,0.00151757,0.000138333,0.526289,0.000968902,0.0143752,1847,687,19.3863,2.55302
630,337,19.3679,-2.0943,0.000472723,0.000421472,0.000412075,0.000859969,3.42265e-05,0.754345,0.000562251,0.0179247,1854,687,19.3679,2.09432
637,337,19.3691,-1.64844,-0.000594111,0.000239566,0.000113524,0.000254748,-0.000609293,1.43785,0.000512662,0.0155555,1861,687,19.3692,1.64842
644,337,19.3477,-1.17975,-0.00214278,0.000229904,-0.000377205,0.000288428,-0.00220131,-1.41687,0.00157252,0.0106762,1868,687,19.3476,1.17972
651,337,19.3226,-0.722534,-0.00394198,9.29675e-05,-0.000895693,0.00028286,-0.00413187,-1.36188,0.00285355,0.0101687,1875,687,19.3227,0.722525
658,337,19.3196,-0.244751,-0.00623894,-8.13975e-05,-0.00159451,0.000307005,-0.00662734,-1.33186,0.00452404,0.0124412,1882,687,19.3196,0.244765
665,337,19.3376,0.178345,-0.00913544,-0.000333146,-0.00250283,0.000328734,-0.00979732,-1.31226,0.00664384,0.0149596,1889,687,19.3376,-0.178368
672,337,19.3114,0.562073,-0.0128522,-0.000657654,-0.0037327,0.000394185,-0.013904,-1.29613,0.00940351,0.0266058,1896,687,19.3114,-0.562046
679,337,19.5228,0.924561,0,0,0,0,0,0,0,-1,1903,687,19.5228,-0.924578
686,337,18.5614,1.68597,0,0,0,0,0,0,0,-1,1910,687,18.5614,-1.68598
693,337,16.5415,2.21411,0,0,0,0,0,0,0,-1,1917,687,16.5415,-2.2141
700,337,17.2661,2.44379,0,0,0,0,0,0,0,-1,1924,687,17.2661,-2.44378
707,337,17.3544,5.61853,0,0,0,0,0,0,0,-1,1931,687,17.3543,-5.61851
714,337,0,0,0,0,0,0,0,0,0,-1,1938,687,0,0
721,337,0,0,0,0,0,0,0,0,0,-1,1945,687,0,0
728,337,0,0,0,0,0,0,0,0,0,-1,1952,687,0,0
735,337,0,0,0,0,0,0,0,0,0,-1,1959,687,0,0
742,337,0,0,0,0,0,0,0,0,0,-1,1966,687,0,0
749,337,0,0,0,0,0,0,0,0,0,-1,1973,687,0,0
756,337,0,0,0,0,0,0,0,0,0,-1,1980,687,0,0
763,337,0,0,0,0,0,0,0,0,0,-1,1987,687,0,0
770,337,0,0,0,0,0,0,0,0,0,-1,1994,687,0,0
777,337,0,0,0,0,0,0,0,0,0,-1,2001,687,0,0
784,337,0,0,0,0,0,0,0,0,0,-1,2008,687,0,0
791,337,0,0,0,0,0,0,0,0,0,-1,2015,687,0,0
798,337,0,0,0,0,0,0,0,0,0,-1,2022,687,0,0
805,337,0,0,0,0,0,0,0,0,0,-1,2029,687,0,0
812,337,0,0,0,0,0,0,0,0,0,-1,2036,687,0,0
-700,330,0,0,0,0,0,0,0,0,0,-1,524,694,0,0
-693,330,0,0,0,0,0,0,0,0,0,-1,531,694,0,0
-686,330,0,0,0,0,0,0,0,0,0,-1,538,694,0,0
-679,330,0,0,0,0,0,0,0,0,0,-1,545,694,0,0
-672,330,0,0,0,0,0,0,0,0,0,-1,552,694,0,0
-665,330,0,0,0,0,0,0,0,0,0,-1,559,694,0,0
-658,330,0,0,0,0,0,0,0,0,0,-1,566,694,0,0
-651,330,0,0,0,0,0,0,0,0,0,-1,573,694,0,0
-644,330,0,0,0,0,0,0,0,0,0,-1,580,694,0,0
-637,330,0,0,0,0,0,0,0,0,0,-1,587,694,0,0
-630,330,0,0,0,0,0,0,0,0,0,-1,594,694,0,0
-623,330,0,0,0,0,0,0,0,0,0,-1,601,694,0,0
-616,330,0,0,0,0,0,0,0,0,0,-1,608,694,0,0
-609,330,0,0,0,0,0,0,0,0,0,-1,615,694,0,0
-602,330,0,0,0,0,0,0,0,0,0,-1,622,694,0,0
-595,330,-4.67883,1.65515,0,0,0,0,0,0,0,-1,629,694,-4.67881,-1.65515
-588,330,-8.5047,2.67346,0,0,0,0,0,0,0,-1,636,694,-8.50469,-2.67348
-581,330,-12.4227,0.947083,0,0,0,0,0,0,0,-1,643,694,-12.4227,-0.947109
-574,330,-9.02118,1.87952,0,0,0,0,0,0,0,-1,650,694,-9.02115,-1.87953
-567,330,-8.35577,0.909973,0,0,0,0,0,0,0,-1,657,694,-8.35575,-0.909945
-560,330,-11.7497,-0.513306,0,0,0,0,0,0,0,-1,664,694,-11.7497,0.5133
-553,330,-11.5533,-0.8255,0.0120271,0.0261292,-0.0147884,0.0354615,0.00269473,-1.00785,0.0227959,0.0475563,671,694,-11.5533,0.825478
-546,330,-11.4174,-1.3136,0.00931571,0.0197263,-0.0112157,0.0268857,0.0021563,-1.00266,0.01725,0.0328365,678,694,-11.4174,1.31361
-539,330,-11.4205,-1.84167,0.00710509,0.0148169,-0.00831031,0.0201223,0.00179969,-1.00261,0.012857,0.0163798,685,694,-11.4205,1.84169
-532,330,-11.5621,-2.24438,0.00528822,0.0106932,-0.0058717,0.0144545,0.00152695,-1.00107,0.00916982,0.0121024,692,694,-11.5621,2.2444
-525,330,-11.5628,-2.70013,0.00382363,0.00728062,-0.003831,0.00975501,0.00134924,-0.997319,0.00610351,0.0110469,699,694,-11.5628,2.70012
-518,330,-11.5598,-3.09003,0.00271726,0.00459554,-0.00225281,0.00609713,0.00121567,-0.982883,0.00372623,0.0157155,706,694,-11.5598,3.09005
-511,330,-11.5877,-3.50763,0.00195377,0.00257353,-0.00114303,0.00344794,0.00107935,-0.917768,0.00203653,0.0212969,713,694,-11.5877,3.5076
-504,330,-11.5698,-3.94336,0.00149085,0.00112596,-0.00040315,0.00175092,0.000865897,-0.572914,0.00101091,0.018013,720,694,-11.5698,3.94337
-497,330,-11.5943,-4.3714,0.00136939,0.00024677,-8.77294e-05,0.0013762,0.000239955,-0.0775201,0.000848864,0.0128654,727,694,-11.5943,4.37138
-490,330,-11.5886,-4.80945,0.00173679,0.000229251,-0.000404248,0.00183835,0.000127693,-0.246133,0.0011853,0.0135077,734,694,-11.5886,4.80943
-483,330,-11.5656,-5.22626,0.00256256,0.000954602,-0.0013845,0.00335959,0.000157577,-0.522344,0.00218909,0.0135436,741,694,-11.5656,5.22626
-476,330,-11.5706,-5.62885,0.00329609,0.00177652,-0.00240445,0.00505794,1.46662e-05,-0.632366,0.00336708,0.0336252,748,694,-11.5706,5.62885
-469,330,-11.5074,-6.12476,0,0,0,0,0,0,0,-1,755,694,-11.5075,6.12474
-462,330,-7.26733,-3.84833,0,0,0,0,0,0,0,-1,762,694,-7.26731,3.84832
-455,330,-5.04254,-1.79303,0,0,0,0,0,0,0,-1,769,694,-5.04252,1.79305
-448,330,-4.89886,-1.66156,0,0,0,0,0,0,0,-1,776,694,-4.89886,1.66157
-441,330,-5.30676,-2.34045,0,0,0,0,0,0,0,-1,783,694,-5.30679,2.34048
-434,330,-7.20428,1.00024,0,0,0,0,0,0,0,-1,790,694,-7.20431,-1.00027
-427,330,-16.0428,2.89258,0,0,0,0,0,0,0,-1,797,694,-16.0428,-2.89259
-420,330,-15.2923,3.32672,0,0,0,0,0,0,0,-1,804,694,-15.2923,-3.32675
-413,330,-10.4567,2.56183,0,0,0,0,0,0,0,-1,811,694,-10.4567,-2.56182
-406,330,-1.65375,-1.74371,0,0,0,0,0,0,0,-1,818,694,-1.65375,1.74371
-399,330,0,0,0,0,0,0,0,0,0,-1,825,694,0,0
-392,330,0,0,0,0,0,0,0,0,0,-1,832,694,0,0
-385,330,0,0,0,0,0,0,0,0,0,-1,839,694,0,0
-378,330,0,0,0,0,0,0,0,0,0,-1,846,694,0,0
-371,330,0,0,0,0,0,0,0,0,0,-1,853,694,0,0
-364,330,0,0,0,0,0,0,0,0,0,-1,860,694,0,0
-357,330,0,0,0,0,0,0,0,0,0,-1,867,694,0,0
-350,330,0,0,0,0,0,0,0,0,0,-1,874,694,0,0
-343,330,0,0,0,0,0,0,0,0,0,-1,881,694,0,0
-336,330,0,0,0,0,0,0,0,0,0,-1,888,694,0,0
-329,330,0,0,0,0,0,0,0,0,0,-1,895,694,0,0
-322,330,0,0,0,0,0,0,0,0,0,-1,902,694,0,0
-315,330,0,0,0,0,0,0,0,0,0,-1,909,694,0,0
-308,330,0,0,0,0,0,0,0,0,0,-1,916,694,0,0
-301,330,0,0,0,0,0,0,0,0,0,-1,923,694,0,0
-294,330,0,0,0,0,0,0,0,0,0,-1,930,694,0,0
-287,330,0,0,0,0,0,0,0,0,0,-1,937,694,0,0
-280,330,0,0,0,0,0,0,0,0,0,-1,944,694,0,0
-273,330,0,0,0,0,0,0,0,0,0,-1,951,694,0,0
-266,330,0,0,0,0,0,0,0,0,0,-1,958,694,0,0
-259,330,0,0,0,0,0,0,0,0,0,-1,965,694,0,0
-252,330,0,0,0,0,0,0,0,0,0,-1,972,694,0,0
-245,330,0,0,0,0,0,0,0,0,0,-1,979,694,0,0
-238,330,0,0,0,0,0,0,0,0,0,-1,986,694,0,0
-231,330,0,0,0,0,0,0,0,0,0,-1,993,694,0,0
-224,330,0,0,0,0,0,0,0,0,0,-1,1000,694,0,0
-217,330,0,0,0,0,0,0,0,0,0,-1,1007,694,0,0
-210,330,0,0,0,0,0,0,0,0,0,-1,1014,694,0,0
-203,330,0,0,0,0,0,0,0,0,0,-1,1021,694,0,0
-196,330,0,0,0,0,0,0,0,0,0,-1,1028,694,0,0
-189,330,0,0,0,0,0,0,0,0,0,-1,1035,694,0,0
-182,330,0,0,0,0,0,0,0,0,0,-1,1042,694,0,0
-175,330,0,0,0,0,0,0,0,0,0,-1,1049,694,0,0
-168,330,0,0,0,0,0,0,0,0,0,-1,1056,694,0,0
-161,330,0,0,0,0,0,0,0,0,0,-1,1063,694,0,0
-154,330,0,0,0,0,0,0,0,0,0,-1,1070,694,0,0
-147,330,0,0,0,0,0,0,0,0,0,-1,1077,694,0,0
-140,330,0,0,0,0,0,0,0,0,0,-1,1084,694,0,0
-133,330,0,0,0,0,0,0,0,0,0,-1,1091,694,0,0
-126,330,0,0,0,0,0,0,0,0,0,-1,1098,694,0,0
-119,330,0,0,0,0,0,0,0,0,0,-1,1105,694,0,0
-112,330,0,0,0,0,0,0,0,0,0,-1,1112,694,0,0
-105,330,0,0,0,0,0,0,0,0,0,-1,1119,694,0,0
-98,330,0,0,0,0,0,0,0,0,0,-1,1126,694,0,0
-91,330,0,0,0,0,0,0,0,0,0,-1,1133,694,0,0
-84,330,0,0,0,0,0,0,0,0,0,-1,1140,694,0,0
-77,330,0,0,0,0,0,0,0,0,0,-1,1147,694,0,0
-70,330,0,0,0,0,0,0,0,0,0,-1,1154,694,0,0
-63,330,0,0,0,0,0,0,0,0,0,-1,1161,694,0,0
-56,330,0,0,0,0,0,0,0,0,0,-1,1168,694,0,0
-49,330,0,0,0,0,0,0,0,0,0,-1,1175,694,0,0
-42,330,0,0,0,0,0,0,0,0,0,-1,1182,694,0,0
-35,330,0,0,0,0,0,0,0,0,0,-1,1189,694,0,0
-28,330,0,0,0,0,0,0,0,0,0,-1,1196,694,0,0
-21,330,0,0,0,0,0,0,0,0,0,-1,1203,694,0,0
-14,330,0,0,0,0,0,0,0,0,0,-1,1210,694,0,0
-7,330,0,0,0,0,0,0,0,0,0,-1,1217,694,0,0
0,330,0,0,0,0,0,0,0,0,0,-1,1224,694,0,0
7,330,0,0,0,0,0,0,0,0,0,-1,1231,694,0,0
14,330,0,0,0,0,0,0,0,0,0,-1,1238,694,0,0
21,330,0,0,0,0,0,0,0,0,0,-1,1245,694,0,0
28,330,0,0,0,0,0,0,0,0,0,-1,1252,694,0,0
35,330,0,0,0,0,0,0,0,0,0,-1,1259,694,0,0
42,330,0,0,0,0,0,0,0,0,0,-1,1266,694,0,0
49,330,0,0,0,0,0,0,0,0,0,-1,1273,694,0,0
56,330,0,0,0,0,0,0,0,0,0,-1,1280,694,0,0
63,330,0,0,0,0,0,0,0,0,0,-1,1287,694,0,0
70,330,0,0,0,0,0,0,0,0,0,-1,1294,694,0,0
77,330,0,0,0,0,0,0,0,0,0,-1,1301,694,0,0
84,330,0,0,0,0,0,0,0,0,0,-1,1308,694,0,0
91,330,0,0,0,0,0,0,0,0,0,-1,1315,694,0,0
98,330,0,0,0,0,0,0,0,0,0,-1,1322,694,0,0
105,330,0,0,0,0,0,0,0,0,0,-1,1329,694,0,0
112,330,0,0,0,0,0,0,0,0,0,-1,1336,694,0,0
119,330,0,0,0,0,0,0,0,0,0,-1,1343,694,0,0
126,330,0,0,0,0,0,0,0,0,0,-1,1350,694,0,0
133,330,0,0,0,0,0,0,0,0,0,-1,1357,694,0,0
140,330,0,0,0,0,0,0,0,0,0,-1,1364,694,0,0
147,330,0,0,0,0,0,0,0,0,0,-1,1371,694,0,0
154,330,0,0,0,0,0,0,0,0,0,-1,1378,694,0,0
161,330,0,0,0,0,0,0,0,0,0,-1,1385,694,0,0
168,330,0,0,0,0,0,0,0,0,0,-1,1392,694,0,0
175,330,0,0,0,0,0,0,0,0,0,-1,1399,694,0,0
182,330,0,0,0,0,0,0,0,0,0,-1,1406,694,0,0
189,330,0,0,0,0,0,0,0,0,0,-1,1413,694,0,0
196,330,0,0,0,0,0,0,0,0,0,-1,1420,694,0,0
203,330,0,0,0,0,0,0,0,0,0,-1,1427,694,0,0
210,330,0,0,0,0,0,0,0,0,0,-1,1434,694,0,0
217,330,0,0,0,0,0,0,0,0,0,-1,1441,694,0,0
224,330,0,0,0,0,0,0,0,0,0,-1,1448,694,0,0
231,330,0,0,0,0,0,0,0,0,0,-1,1455,694,0,0
238,330,0,0,0,0,0,0,0,0,0,-1,1462,694,0,0
245,330,0,0,0,0,0,0,0,0,0,-1,1469,694,0,0
252,330,0,0,0,0,0,0,0,0,0,-1,1476,694,0,0
259,330,0,0,0,0,0,0,0,0,0,-1,1483,694,0,0
266,330,0,0,0,0,0,0,0,0,0,-1,1490,694,0,0
273,330,0,0,0,0,0,0,0,0,0,-1,1497,694,0,0
280,330,0,0,0,0,0,0,0,0,0,-1,1504,694,0,0
287,330,0,0,0,0,0,0,0,0,0,-1,1511,694,0,0
294,330,0,0,0,0,0,0,0,0,0,-1,1518,694,0,0
301,330,0,0,0,0,0,0,0,0,0,-1,1525,694,0,0
308,330,0,0,0,0,0,0,0,0,0,-1,1532,694,0,0
315,330,0,0,0,0,0,0,0,0,0,-1,1539,694,0,0
322,330,0,0,0,0,0,0,0,0,0,-1,1546,694,0,0
329,330,0,0,0,0,0,0,0,0,0,-1,1553,694,0,0
336,330,0,0,0,0,0,0,0,0,0,-1,1560,694,0,0
343,330,0,0,0,0,0,0,0,0,0,-1,1567,694,0,0
350,330,0,0,0,0,0,0,0,0,0,-1,1574,694,0,0
357,330,0,0,0,0,0,0,0,0,0,-1,1581,694,0,0
364,330,0,0,0,0,0,0,0,0,0,-1,1588,694,0,0
371,330,0,0,0,0,0,0,0,0,0,-1,1595,694,0,0
378,330,0,0,0,0,0,0,0,0,0,-1,1602,694,0,0
385,330,0,0,0,0,0,0,0,0,0,-1,1609,694,0,0
392,330,0,0,0,0,0,0,0,0,0,-1,1616,694,0,0
399,330,0,0,0,0,0,0,0,0,0,-1,1623,694,0,0
406,330,0,0,0,0,0,0,0,0,0,-1,1630,694,0,0
413,330,0,0,0,0,0,0,0,0,0,-1,1637,694,0,0
420,330,0,0,0,0,0,0,0,0,0,-1,1644,694,0,0
427,330,0,0,0,0,0,0,0,0,0,-1,1651,694,0,0
434,330,0,0,0,0,0,0,0,0,0,-1,1658,694,0,0
441,330,0,0,0,0,0,0,0,0,0,-1,1665,694,0,0
448,330,0,0,0,0,0,0,0,0,0,-1,1672,694,0,0
455,330,0,0,0,0,0,0,0,0,0,-1,1679,694,0,0
462,330,0,0,0,0,0,0,0,0,0,-1,1686,694,0,0
469,330,0,0,0,0,0,0,0,0,0,-1,1693,694,0,0
476,330,0,0,0,0,0,0,0,0,0,-1,1700,694,0,0
483,330,0,0,0,0,0,0,0,0,0,-1,1707,694,0,0
490,330,0,0,0,0,0,0,0,0,0,-1,1714,694,0,0
497,330,0,0,0,0,0,0,0,0,0,-1,1721,694,0,0
504,330,0,0,0,0,0,0,0,0,0,-1,1728,694,0,0
511,330,0,0,0,0,0,0,0,0,0,-1,1735,694,0,0
518,330,0,0,0,0,0,0,0,0,0,-1,1742,694,0,0
525,330,30.6694,0.69519,0,0,0,0,0,0,0,-1,1749,694,30.6694,-0.695206
532,330,30.9469,1.32501,0,0,0,0,0,0,0,-1,1756,694,30.9469,-1.32501
539,330,31.5155,1.62506,0,0,0,0,0,0,0,-1,1763,694,31.5155,-1.62507
546,330,31.4187,1.85651,0,0,0,0,0,0,0,-1,1770,694,31.4187,-1.85651
553,330,31.8452,1.81476,0,0,0,0,0,0,0,-1,1777,694,31.8452,-1.81475
560,330,32.2401,2.43225,0,0,0,0,0,0,0,-1,1784,694,32.2401,-2.43227
567,330,18.0321,3.98578,0,0,0,0,0,0,0,-1,1791,694,18.0321,-3.98576
574,330,12.0454,2.1662,0,0,0,0,0,0,0,-1,1798,694,12.0455,-2.16618
581,330,11.4215,4.50836,0,0,0,0,0,0,0,-1,1805,694,11.4215,-4.50837
588,330,6.45667,-0.0630493,0,0,0,0,0,0,0,-1,1812,694,6.45661,0.0630695
595,330,8.23193,-0.258484,0,0,0,0,0,0,0,-1,1819,694,8.23188,0.258459
602,330,19.4559,-3.99628,0,0,0,0,0,0,0,-1,1826,694,19.4559,3.99627
609,330,19.712,-3.39514,0.00143663,0.00511167,-0.00205169,0.0060284,0.000519892,-1.15059,0.00385733,0.0444367,1833,694,19.712,3.39515
616,330,19.8221,-2.94989,0.00114279,0.0025471,-0.000207926,0.00257724,0.00111265,-1.42685,0.00149258,0.0110742,1840,694,19.8221,2.9499
623,330,19.8121,-2.52454,0.00078777,0.00115223,0.0005584,0.00155739,0.000382619,0.943123,0.000937126,0.0120855,1847,694,19.8121,2.52452
630,330,19.8136,-2.06171,0.00050397,0.000582553,0.000448652,0.00099363,9.28923e-05,0.829075,0.00063373,0.0128631,1854,694,19.8136,2.06173
637,330,19.8363,-1.61694,-0.000301798,0.000182844,0.000178357,0.000241407,-0.00036036,1.25354,0.000349685,0.0126176,1861,694,19.8363,1.61696
644,330,19.788,-1.15955,-0.00170535,0.000112494,-0.000286779,0.000156662,-0.00174952,-1.41798,0.00122192,0.00819868,1868,694,19.7879,1.15957
651,330,19.7775,-0.703735,-0.00337419,3.04771e-05,-0.000767122,0.000195338,-0.00353905,-1.35911,0.0024271,0.0113699,1875,694,19.7775,0.703724
658,330,19.7616,-0.252991,-0.00542775,-5.59837e-05,-0.00136973,0.000273119,-0.00575685,-1.335,0.0039321,0.0120179,1882,694,19.7616,0.252985
665,330,19.7266,0.193115,-0.0079856,-0.000170872,-0.00214238,0.000377916,-0.00853439,-1.32003,0.00581966,0.0103658,1889,694,19.7266,-0.193097
672,330,19.7653,0.647278,-0.0111799,-0.000302782,-0.003131,0.000534093,-0.0120168,-1.30962,0.00819504,0.0191751,1896,694,19.7653,-0.647305
679,330,19.5631,1.08954,-0.0153582,-0.000516034,-0.0043798,0.000680026,-0.0165542,-1.30421,0.0112697,0.0336441,1903,694,19.5631,-1.08955
686,330,19.3929,1.63696,0,0,0,0,0,0,0,-1,1910,694,19.3929,-1.63693
693,330,17.3999,2.5976,0,0,0,0,0,0,0,-1,1917,694,17.4,-2.59759
700,330,17.1072,4.13,0,0,0,0,0,0,0,-1,1924,694,17.1071,-4.13002
707,330,16.663,4.88672,0,0,0,0,0,0,0,-1,1931,694,16.6629,-4.88673
714,330,16.5454,5.80896,0,0,0,0,0,0,0,-1,1938,694,16.5454,-5.80899
721,330,0,0,0,0,0,0,0,0,0,-1,1945,694,0,0
728,330,0,0,0,0,0,0,0,0,0,-1,1952,694,0,0
735,330,0,0,0,0,0,0,0,0,0,-1,1959,694,0,0
742,330,0,0,0,0,0,0,0,0,0,-1,1966,694,0,0
749,330,0,0,0,0,0,0,0,0,0,-1,1973,694,0,0
756,330,0,0,0,0,0,0,0,0,0,-1,1980,694,0,0
763,330,0,0,0,0,0,0,0,0,0,-1,1987,694,0,0
770,330,0,0,0,0,0,0,0,0,0,-1,1994,694,0,0
777,330,0,0,0,0,0,0,0,0,0,-1,2001,694,0,0
784,330,0,0,0,0,0,0,0,0,0,-1,2008,694,0,0
791,330,0,0,0,0,0,0,0,0,0,-1,2015,694,0,0
798,330,0,0,0,0,0,0,0,0,0,-1,2022,694,0,0
805,330,0,0,0,0,0,0,0,0,0,-1,2029,694,0,0
812,330,0,0,0,0,0,0,0,0,0,-1,2036,694,0,0
-700,323,0,0,0,0,0,0,0,0,0,-1,524,701,0,0
-693,323,0,0,0,0,0,0,0,0,0,-1,531,701,0,0
-686,323,0,0,0,0,0,0,0,0,0,-1,538,701,0,0
-679,323,0,0,0,0,0,0,0,0,0,-1,545,701,0,0
-672,323,0,0,0,0,0,0,0,0,0,-1,552,701,0,0
-665,323,0,0,0,0,0,0,0,0,0,-1,559,701,0,0
-658,323,0,0,0,0,0,0,0,0,0,-1,566,701,0,0
-651,323,0,0,0,0,0,0,0,0,0,-1,573,701,0,0
-644,323,0,0,0,0,0,0,0,0,0,-1,580,701,0,0
-637,323,0,0,0,0,0,0,0,0,0,-1,587,701,0,0
-630,323,0,0,0,0,0,0,0,0,0,-1,594,701,0,0
-623,323,0,0,0,0,0,0,0,0,0,-1,601,701,0,0
-616,323,0,0,0,0,0,0,0,0,0,-1,608,701,0,0
-609,323,0,0,0,0,0,0,0,0,0,-1,615,701,0,0
-602,323,-4.15833,2.12256,0,0,0,0,0,0,0,-1,622,701,-4.1583,-2.12257
-595,323,-4.052,1.79156,0,0,0,0,0,0,0,-1,629,701,-4.05198,-1.79158
-588,323,-4.07019,1.94543,0,0,0,0,0,0,0,-1,636,701,-4.07019,-1.94542
-581,323,-6.63727,0.562805,0,0,0,0,0,0,0,-1,643,701,-6.63728,-0.56279
-574,323,-6.15887,0.426697,0,0,0,0,0,0,0,-1,650,701,-6.15887,-0.426727
-567,323,-10.0015,0.0371094,0,0,0,0,0,0,0,-1,657,701,-10.0015,-0.037126
-560,323,-12.1116,-0.812073,0,0,0,0,0,0,0,-1,664,701,-12.1116,0.8121
-553,323,-11.9561,-1.16675,0.0074017,0.0200586,-0.0104479,0.0259452,0.00151511,-1.0577,0.0168145,0.0389935,671,701,-11.9561,1.16674
-546,323,-11.9265,-1.43439,0.00610807,0.0153635,-0.00810227,0.0200665,0.00140505,-1.04487,0.0129348,0.0169842,678,701,-11.9265,1.43439
-539,323,-11.9436,-1.78784,0.00492548,0.0116518,-0.00610725,0.0152607,0.00131661,-1.03708,0.00976457,0.0155685,685,701,-11.9436,1.78783
-532,323,-11.9727,-2.23401,0.00385542,0.00842055,-0.00434918,0.0110498,0.00122621,-1.02705,0.00699369,0.0102941,692,701,-11.9727,2.23402
-525,323,-11.9861,-2.67889,0.00293664,0.00566004,-0.00280945,0.00742039,0.00117629,-1.01106,0.00460518,0.00780806,699,701,-11.9861,2.67892
-518,323,-11.9847,-3.07947,0.00220531,0.00346778,-0.00159567,0.00455253,0.00112056,-0.973749,0.002739,0.0102063,706,701,-11.9847,3.07948
-511,323,-11.9958,-3.49316,0.00166996,0.0017655,-0.000715782,0.0024351,0.00100035,-0.818721,0.00141335,0.0137701,713,701,-11.9959,3.49314
-504,323,-12.0203,-3.92157,0.00132332,0.00052159,-9.27759e-05,0.00133392,0.000510994,-0.113717,0.000777125,0.0138131,720,701,-12.0203,3.92154
-497,323,-12.0279,-4.33441,0.0012262,-0.000204876,0.000203802,0.00125465,-0.000233334,0.138739,0.000924087,0.0118982,727,701,-12.0279,4.33438
-490,323,-12.0345,-4.7746,0.00171715,5.78786e-05,-0.000251182,0.00175434,2.06881e-05,-0.146994,0.00116272,0.0135738,734,701,-12.0345,4.77457
-483,323,-12.0008,-5.18896,0.00264109,0.00101914,-0.00137324,0.00342494,0.000235284,-0.518675,0.00220905,0.0229215,741,701,-12.0008,5.18894
-476,323,-11.9682,-5.61682,0,0,0,0,0,0,0,-1,748,701,-11.9682,5.6168
-469,323,-8.33301,-3.64001,0,0,0,0,0,0,0,-1,755,701,-8.33298,3.64
-462,323,-5.29431,-1.45697,0,0,0,0,0,0,0,-1,762,701,-5.29431,1.45699
-455,323,-5.0658,-1.36639,0,0,0,0,0,0,0,-1,769,701,-5.06578,1.3664
-448,323,-4.91608,-1.59601,0,0,0,0,0,0,0,-1,776,701,-4.91606,1.59604
-441,323,-14.4006,0.535217,0,0,0,0,0,0,0,-1,783,701,-14.4006,-0.535203
-434,323,-15.3158,2.479,0,0,0,0,0,0,0,-1,790,701,-15.3158,-2.47898
-427,323,-15.4075,2.98248,0,0,0,0,0,0,0,-1,797,701,-15.4075,-2.98248
-420,323,-14.8839,3.49579,0,0,0,0,0,0,0,-1,804,701,-14.8839,-3.49579
-413,323,-14.0645,4.22607,0,0,0,0,0,0,0,-1,811,701,-14.0645,-4.22605
-406,323,0,0,0,0,0,0,0,0,0,-1,818,701,0,0
-399,323,0,0,0,0,0,0,0,0,0,-1,825,701,0,0
-392,323,0,0,0,0,0,0,0,0,0,-1,832,701,0,0
-385,323,0,0,0,0,0,0,0,0,0,-1,839,701,0,0
-378,323,0,0,0,0,0,0,0,0,0,-1,846,701,0,0
-371,323,0,0,0,0,0,0,0,0,0,-1,853,701,0,0
-364,323,0,0,0,0,0,0,0,0,0,-1,860,701,0,0
-357,323,0,0,0,0,0,0,0,0,0,-1,867,701,0,0
-350,323,0,0,0,0,0,0,0,0,0,-1,874,701,0,0
-343,323,0,0,0,0,0,0,0,0,0,-1,881,701,0,0
-336,323,0,0,0,0,0,0,0,0,0,-1,888,701,0,0
-329,323,0,0,0,0,0,0,0,0,0,-1,895,701,0,0
-322,323,0,0,0,0,0,0,0,0,0,-1,902,701,0,0
-315,323,0,0,0,0,0,0,0,0,0,-1,909,701,0,0
-308,323,0,0,0,0,0,0,0,0,0,-1,916,701,0,0
-301,323,0,0,0,0,0,0,0,0,0,-1,923,701,0,0
-294,323,0,0,0,0,0,0,0,0,0,-1,930,701,0,0
-287,323,0,0,0,0,0,0,0,0,0,-1,937,701,0,0
-280,323,0,0,0,0,0,0,0,0,0,-1,944,701,0,0
-273,323,0,0,0,0,0,0,0,0,0,-1,951,701,0,0
-266,323,0,0,0,0,0,0,0,0,0,-1,958,701,0,0
-259,323,0,0,0,0,0,0,0,0,0,-1,965,701,0,0
-252,323,0,0,0,0,0,0,0,0,0,-1,972,701,0,0
-245,323,0,0,0,0,0,0,0,0,0,-1,979,701,0,0
-238,323,0,0,0,0,0,0,0,0,0,-1,986,701,0,0
-231,323,0,0,0,0,0,0,0,0,0,-1,993,701,0,0
-224,323,0,0,0,0,0,0,0,0,0,-1,1000,701,0,0
-217,323,0,0,0,0,0,0,0,0,0,-1,1007,701,0,0
-210,323,0,0,0,0,0,0,0,0,0,-1,1014,701,0,0
-203,323,0,0,0,0,0,0,0,0,0,-1,1021,701,0,0
-196,323,0,0,0,0,0,0,0,0,0,-1,1028,701,0,0
-189,323,0,0,0,0,0,0,0,0,0,-1,1035,701,0,0
-182,323,0,0,0,0,0,0,0,0,0,-1,1042,701,0,0
-175,323,0,0,0,0,0,0,0,0,0,-1,1049,701,0,0
-168,323,0,0,0,0,0,0,0,0,0,-1,1056,701,0,0
-161,323,0,0,0,0,0,0,0,0,0,-1,1063,701,0,0
-154,323,0,0,0,0,0,0,0,0,0,-1,1070,701,0,0
-147,323,0,0,0,0,0,0,0,0,0,-1,1077,701,0,0
-140,323,0,0,0,0,0,0,0,0,0,-1,1084,701,0,0
-133,323,0,0,0,0,0,0,0,0,0,-1,1091,701,0,0
-126,323,0,0,0,0,0,0,0,0,0,-1,1098,701,0,0
-119,323,0,0,0,0,0,0,0,0,0,-1,1105,701,0,0
-112,323,0,0,0,0,0,0,0,0,0,-1,1112,701,0,0
-105,323,0,0,0,0,0,0,0,0,0,-1,1119,701,0,0
-98,323,0,0,0,0,0,0,0,0,0,-1,1126,701,0,0
-91,323,0,0,0,0,0,0,0,0,0,-1,1133,701,0,0
-84,323,0,0,0,0,0,0,0,0,0,-1,1140,701,0,0
-77,323,0,0,0,0,0,0,0,0,0,-1,1147,701,0,0
-70,323,0,0,0,0,0,0,0,0,0,-1,1154,701,0,0
-63,323,0,0,0,0,0,0,0,0,0,-1,1161,701,0,0
-56,323,0,0,0,0,0,0,0,0,0,-1,1168,701,0,0
-49,323,0,0,0,0,0,0,0,0,0,-1,1175,701,0,0
-42,323,0,0,0,0,0,0,0,0,0,-1,1182,701,0,0
-35,323,0,0,0,0,0,0,0,0,0,-1,1189,701,0,0
-28,323,0,0,0,0,0,0,0,0,0,-1,1196,701,0,0
-21,323,0,0,0,0,0,0,0,0,0,-1,1203,701,0,0
-14,323,0,0,0,0,0,0,0,0,0,-1,1210,701,0,0
-7,323,0,0,0,0,0,0,0,0,0,-1,1217,701,0,0
0,323,0,0,0,0,0,0,0,0,0,-1,1224,701,0,0
7,323,0,0,0,0,0,0,0,0,0,-1,1231,701,0,0
14,323,0,0,0,0,0,0,0,0,0,-1,1238,701,0,0
21,323,0,0,0,0,0,0,0,0,0,-1,1245,701,0,0
28,323,0,0,0,0,0,0,0,0,0,-1,1252,701,0,0
35,323,0,0,0,0,0,0,0,0,0,-1,1259,701,0,0
42,323,0,0,0,0,0,0,0,0,0,-1,1266,701,0,0
49,323,0,0,0,0,0,0,0,0,0,-1,1273,701,0,0
56,323,0,0,0,0,0,0,0,0,0,-1,1280,701,0,0
63,323,0,0,0,0,0,0,0,0,0,-1,1287,701,0,0
70,323,0,0,0,0,0,0,0,0,0,-1,1294,701,0,0
77,323,0,0,0,0,0,0,0,0,0,-1,1301,701,0,0
84,323,0,0,0,0,0,0,0,0,0,-1,1308,701,0,0
91,323,0,0,0,0,0,0,0,0,0,-1,1315,701,0,0
98,323,0,0,0,0,0,0,0,0,0,-1,1322,701,0,0
105,323,0,0,0,0,0,0,0,0,0,-1,1329,701,0,0
112,323,0,0,0,0,0,0,0,0,0,-1,1336,701,0,0
119,323,0,0,0,0,0,0,0,0,0,-1,1343,701,0,0
126,323,0,0,0,0,0,0,0,0,0,-1,1350,701,0,0
133,323,0,0,0,0,0,0,0,0,0,-1,1357,701,0,0
140,323,0,0,0,0,0,0,0,0,0,-1,1364,701,0,0
147,323,0,0,0,0,0,0,0,0,0,-1,1371,701,0,0
154,323,0,0,0,0,0,0,0,0,0,-1,1378,701,0,0
161,323,0,0,0,0,0,0,0,0,0,-1,1385,701,0,0
168,323,0,0,0,0,0,0,0,0,0,-1,1392,701,0,0
175,323,0,0,0,0,0,0,0,0,0,-1,1399,701,0,0
182,323,0,0,0,0,0,0,0,0,0,-1,1406,701,0,0
189,323,0,0,0,0,0,0,0,0,0,-1,1413,701,0,0
196,323,0,0,0,0,0,0,0,0,0,-1,1420,701,0,0
203,323,0,0,0,0,0,0,0,0,0,-1,1427,701,0,0
210,323,0,0,0,0,0,0,0,0,0,-1,1434,701,0,0
217,323,0,0,0,0,0,0,0,0,0,-1,1441,701,0,0
224,323,0,0,0,0,0,0,0,0,0,-1,1448,701,0,0
231,323,0,0,0,0,0,0,0,0,0,-1,1455,701,0,0
238,323,0,0,0,0,0,0,0,0,0,-1,1462,701,0,0
245,323,0,0,0,0,0,0,0,0,0,-1,1469,701,0,0
252,323,0,0,0,0,0,0,0,0,0,-1,1476,701,0,0
259,323,0,0,0,0,0,0,0,0,0,-1,1483,701,0,0
266,323,0,0,0,0,0,0,0,0,0,-1,1490,701,0,0
273,323,0,0,0,0,0,0,0,0,0,-1,1497,701,0,0
280,323,0,0,0,0,0,0,0,0,0,-1,1504,701,0,0
287,323,0,0,0,0,0,0,0,0,0,-1,1511,701,0,0
294,323,0,0,0,0,0,0,0,0,0,-1,1518,701,0,0
301,323,0,0,0,0,0,0,0,0,0,-1,1525,701,0,0
308,323,0,0,0,0,0,0,0,0,0,-1,1532,701,0,0
315,323,0,0,0,0,0,0,0,0,0,-1,1539,701,0,0
322,323,0,0,0,0,0,0,0,0,0,-1,1546,701,0,0
329,323,0,0,0,0,0,0,0,0,0,-1,1553,701,0,0
336,323,0,0,0,0,0,0,0,0,0,-1,1560,701,0,0
343,323,0,0,0,0,0,0,0,0,0,-1,1567,701,0,0
350,323,0,0,0,0,0,0,0,0,0,-1,1574,701,0,0
357,323,0,0,0,0,0,0,0,0,0,-1,1581,701,0,0
364,323,0,0,0,0,0,0,0,0,0,-1,1588,701,0,0
371,323,0,0,0,0,0,0,0,0,0,-1,1595,701,0,0
378,323,0,0,0,0,0,0,0,0,0,-1,1602,701,0,0
385,323,0,0,0,0,0,0,0,0,0,-1,1609,701,0,0
392,323,0,0,0,0,0,0,0,0,0,-1,1616,701,0,0
399,323,0,0,0,0,0,0,0,0,0,-1,1623,701,0,0
406,323,0,0,0,0,0,0,0,0,0,-1,1630,701,0,0
413,323,0,0,0,0,0,0,0,0,0,-1,1637,701,0,0
420,323,0,0,0,0,0,0,0,0,0,-1,1644,701,0,0
427,323,0,0,0,0,0,0,0,0,0,-1,1651,701,0,0
434,323,0,0,0,0,0,0,0,0,0,-1,1658,701,0,0
441,323,0,0,0,0,0,0,0,0,0,-1,1665,701,0,0
448,323,0,0,0,0,0,0,0,0,0,-1,1672,701,0,0
455,323,0,0,0,0,0,0,0,0,0,-1,1679,701,0,0
462,323,0,0,0,0,0,0,0,0,0,-1,1686,701,0,0
469,323,0,0,0,0,0,0,0,0,0,-1,1693,701,0,0
476,323,0,0,0,0,0,0,0,0,0,-1,1700,701,0,0
483,323,0,0,0,0,0,0,0,0,0,-1,1707,701,0,0
490,323,0,0,0,0,0,0,0,0,0,-1,1714,701,0,0
497,323,0,0,0,0,0,0,0,0,0,-1,1721,701,0,0
504,323,0,0,0,0,0,0,0,0,0,-1,1728,701,0,0
511,323,0,0,0,0,0,0,0,0,0,-1,1735,701,0,0
518,323,0,0,0,0,0,0,0,0,0,-1,1742,701,0,0
525,323,0,0,0,0,0,0,0,0,0,-1,1749,701,0,0
532,323,33.6193,1.69446,0,0,0,0,0,0,0,-1,1756,701,33.6193,-1.69444
539,323,32.2698,2.44037,0,0,0,0,0,0,0,-1,1763,701,32.2697,-2.44036
546,323,31.1644,3.9444,0,0,0,0,0,0,0,-1,1770,701,31.1644,-3.94438
553,323,30.2488,5.8775,0,0,0,0,0,0,0,-1,1777,701,30.2487,-5.87752
560,323,31.9149,2.33624,0,0,0,0,0,0,0,-1,1784,701,31.9149,-2.33626
567,323,32.0164,2.60754,0,0,0,0,0,0,0,-1,1791,701,32.0163,-2.60753
574,323,12.514,5.89685,0,0,0,0,0,0,0,-1,1798,701,12.5141,-5.89683
581,323,11.821,5.3476,0,0,0,0,0,0,0,-1,1805,701,11.821,-5.34762
588,323,11.7933,7.00818,0,0,0,0,0,0,0,-1,1812,701,11.7933,-7.00819
595,323,6.67847,0.06604,0,0,0,0,0,0,0,-1,1819,701,6.67841,-0.0660418
602,323,11.2856,-0.595459,0,0,0,0,0,0,0,-1,1826,701,11.2856,0.595433
609,323,20.2211,-3.3681,0,0,0,0,0,0,0,-1,1833,701,20.2211,3.36807
616,323,20.2577,-2.92627,-0.000216353,0.00514292,-0.000874608,0.00528204,-0.000355474,-1.41305,0.00364563,0.0153962,1840,701,20.2577,2.92627
623,323,20.2651,-2.47302,-7.32738e-05,0.00243697,0.000406128,0.00250104,-0.000137345,1.41432,0.00171498,0.0129946,1847,701,20.2652,2.47305
630,323,20.2572,-2.01343,0.00032967,0.00108228,0.000461054,0.0013011,0.000110848,1.12766,0.000832914,0.0147036,1854,701,20.2572,2.01345
637,323,20.2655,-1.58728,-6.12985e-06,0.000296298,0.000274155,0.000458176,-0.000168008,1.03742,0.000374243,0.0113317,1861,701,20.2654,1.58731
644,323,20.2374,-1.15314,-0.00112925,5.87818e-05,-0.000129409,7.27145e-05,-0.00114318,-1.46355,0.000787479,0.00794972,1868,701,20.2374,1.15313
651,323,20.2311,-0.696167,-0.00265794,3.19848e-05,-0.000570791,0.000148093,-0.00277405,-1.37012,0.00190065,0.0097789,1875,701,20.2311,0.696167
658,323,20.1914,-0.240417,-0.00446342,2.71766e-05,-0.00108937,0.000277491,-0.00471373,-1.34494,0.00323895,0.0134787,1882,701,20.1914,0.240405
665,323,20.1528,0.205994,-0.00659385,4.46526e-05,-0.00169943,0.000454406,-0.0070036,-1.3342,0.00482767,0.0115815,1889,701,20.1528,-0.205985
672,323,20.1686,0.686035,-0.00921156,7.69361e-05,-0.002453,0.000684952,-0.00981958,-1.32783,0.00678624,0.0117687,1896,701,20.1686,-0.686039
679,323,20.1106,1.14716,-0.0124653,9.99471e-05,-0.00335251,0.000938466,-0.0133038,-1.32571,0.00919801,0.0252773,1903,701,20.1106,-1.14716
686,323,19.9673,1.47937,-0.0163584,7.84652e-05,-0.00434025,0.00115414,-0.0174341,-1.32786,0.0120259,0.044274,1910,701,19.9673,-1.47937
693,323,19.8976,1.82922,0,0,0,0,0,0,0,-1,1917,701,19.8976,-1.82921
700,323,10.7705,0.828613,0,0,0,0,0,0,0,-1,1924,701,10.7705,-0.828591
707,323,16.9005,4.79193,0,0,0,0,0,0,0,-1,1931,701,16.9005,-4.7919
714,323,16.2346,6.25958,0,0,0,0,0,0,0,-1,1938,701,16.2346,-6.25956
721,323,0,0,0,0,0,0,0,0,0,-1,1945,701,0,0
728,323,0,0,0,0,0,0,0,0,0,-1,1952,701,0,0
735,323,0,0,0,0,0,0,0,0,0,-1,1959,701,0,0
742,323,0,0,0,0,0,0,0,0,0,-1,1966,701,0,0
749,323,0,0,0,0,0,0,0,0,0,-1,1973,701,0,0
756,323,0,0,0,0,0,0,0,0,0,-1,1980,701,0,0
763,323,0,0,0,0,0,0,0,0,0,-1,1987,701,0,0
770,323,0,0,0,0,0,0,0,0,0,-1,1994,701,0,0
777,323,0,0,0,0,0,0,0,0,0,-1,2001,701,0,0
784,323,0,0,0,0,0,0,0,0,0,-1,2008,701,0,0
791,323,0,0,0,0,0,0,0,0,0,-1,2015,701,0,0
798,323,0,0,0,0,0,0,0,0,0,-1,2022,701,0,0
805,323,0,0,0,0,0,0,0,0,0,-1,2029,701,0,0
812,323,0,0,0,0,0,0,0,0,0,-1,2036,701,0,0
-700,316,0,0,0,0,0,0,0,0,0,-1,524,708,0,0
-693,316,0,0,0,0,0,0,0,0,0,-1,531,708,0,0
-686,316,0,0,0,0,0,0,0,0,0,-1,538,708,0,0
-679,316,0,0,0,0,0,0,0,0,0,-1,545,708,0,0
-672,316,0,0,0,0,0,0,0,0,0,-1,552,708,0,0
-665,316,0,0,0,0,0,0,0,0,0,-1,559,708,0,0
-658,316,0,0,0,0,0,0,0,0,0,-1,566,708,0,0
-651,316,0,0,0,0,0,0,0,0,0,-1,573,708,0,0
-644,316,0,0,0,0,0,0,0,0,0,-1,580,708,0,0
-637,316,0,0,0,0,0,0,0,0,0,-1,587,708,0,0
-630,316,0,0,0,0,0,0,0,0,0,-1,594,708,0,0
-623,316,0,0,0,0,0,0,0,0,0,-1,601,708,0,0
-616,316,0,0,0,0,0,0,0,0,0,-1,608,708,0,0
-609,316,0,0,0,0,0,0,0,0,0,-1,615,708,0,0
-602,316,-0.451782,-0.0494995,0,0,0,0,0,0,0,-1,622,708,-0.451768,0.0495022
-595,316,-3.3761,2.17188,0,0,0,0,0,0,0,-1,629,708,-3.37609,-2.17189
-588,316,-5.00177,2.60675,0,0,0,0,0,0,0,-1,636,708,-5.00175,-2.60676
-581,316,-3.94653,0.393433,0,0,0,0,0,0,0,-1,643,708,-3.94655,-0.39342
-574,316,-9.67395,1.06067,0,0,0,0,0,0,0,-1,650,708,-9.67396,-1.06065
-567,316,-10.1962,0.448425,0,0,0,0,0,0,0,-1,657,708,-10.1962,-0.448411
-560,316,-12.0639,-0.75647,0,0,0,0,0,0,0,-1,664,708,-12.0639,0.756468
-553,316,-12.221,-1.07318,0.00373213,0.0152332,-0.00699187,0.0185356,0.000429778,-1.12954,0.0122163,0.0370254,671,708,-12.221,1.0732
-546,316,-12.4136,-1.34955,0.0033981,0.0117065,-0.00550296,0.0144472,0.000657369,-1.10871,0.00941998,0.0218029,678,708,-12.4136,1.34957
-539,316,-12.3741,-1.76605,0.00296294,0.00886805,-0.00418453,0.0110368,0.000794177,-1.09263,0.00710795,0.0139067,685,708,-12.3742,1.76606
-532,316,-12.4014,-2.20575,0.00248972,0.0063296,-0.00296418,0.0079413,0.000878014,-1.07278,0.00502715,0.0109895,692,708,-12.4014,2.20573
-525,316,-12.3868,-2.64069,0.0020234,0.00411802,-0.00185748,0.0052031,0.000938318,-1.0421,0.00320212,0.00901186,699,708,-12.3868,2.64068
-518,316,-12.3862,-3.07196,0.00162595,0.00235715,-0.000969204,0.00302741,0.00095568,-0.965755,0.00178703,0.00976238,706,708,-12.3862,3.07194
-511,316,-12.4106,-3.49835,0.00131507,0.000938748,-0.000298771,0.00147999,0.000773824,-0.504385,0.00085477,0.0112059,713,708,-12.4106,3.49835
-504,316,-12.4495,-3.9104,0.00111017,-0.00012978,0.000211711,0.00114533,-0.000164931,0.164533,0.000824047,0.014017,720,708,-12.4495,3.91041
-497,316,-12.4342,-4.31152,0.00105452,-0.000754072,0.000511251,0.00118903,-0.000888587,0.257279,0.00120369,0.0124181,727,708,-12.4342,4.31155
-490,316,-12.4319,-4.73627,0.00162068,-0.000318196,2.00449e-05,0.00162088,-0.000318403,0.010337,0.00120088,0.0157897,734,708,-12.4319,4.73624
-483,316,-12.3748,-5.18176,0,0,0,0,0,0,0,-1,741,708,-12.3748,5.18176
-476,316,-8.90894,-3.31207,0,0,0,0,0,0,0,-1,748,708,-8.90896,3.31206
-469,316,-6.24194,-1.42725,0,0,0,0,0,0,0,-1,755,708,-6.24192,1.42725
-462,316,-5.74237,-1.40039,0,0,0,0,0,0,0,-1,762,708,-5.74238,1.40039
-455,316,-5.44745,-1.21899,0,0,0,0,0,0,0,-1,769,708,-5.44746,1.21898
-448,316,-14.8945,0.655396,0,0,0,0,0,0,0,-1,776,708,-14.8946,-0.655396
-441,316,-14.9626,0.576111,0,0,0,0,0,0,0,-1,783,708,-14.9626,-0.576115
-434,316,-15.272,0.942993,0,0,0,0,0,0,0,-1,790,708,-15.272,-0.942979
-427,316,-14.6848,3.17792,0,0,0,0,0,0,0,-1,797,708,-14.6848,-3.1779
-420,316,-13.5587,2.737,0,0,0,0,0,0,0,-1,804,708,-13.5587,-2.73703
-413,316,0,0,0,0,0,0,0,0,0,-1,811,708,0,0
-406,316,0,0,0,0,0,0,0,0,0,-1,818,708,0,0
-399,316,0,0,0,0,0,0,0,0,0,-1,825,708,0,0
-392,316,0,0,0,0,0,0,0,0,0,-1,832,708,0,0
-385,316,0,0,0,0,0,0,0,0,0,-1,839,708,0,0
-378,316,0,0,0,0,0,0,0,0,0,-1,846,708,0,0
-371,316,0,0,0,0,0,0,0,0,0,-1,853,708,0,0
-364,316,0,0,0,0,0,0,0,0,0,-1,860,708,0,0
-357,316,0,0,0,0,0,0,0,0,0,-1,867,708,0,0
-350,316,0,0,0,0,0,0,0,0,0,-1,874,708,0,0
-343,316,0,0,0,0,0,0,0,0,0,-1,881,708,0,0
-336,316,0,0,0,0,0,0,0,0,0,-1,888,708,0,0
-329,316,0,0,0,0,0,0,0,0,0,-1,895,708,0,0
-322,316,0,0,0,0,0,0,0,0,0,-1,902,708,0,0
-315,316,0,0,0,0,0,0,0,0,0,-1,909,708,0,0
-308,316,0,0,0,0,0,0,0,0,0,-1,916,708,0,0
-301,316,0,0,0,0,0,0,0,0,0,-1,923,708,0,0
-294,316,0,0,0,0,0,0,0,0,0,-1,930,708,0,0
-287,316,0,0,0,0,0,0,0,0,0,-1,937,708,0,0
-280,316,0,0,0,0,0,0,0,0,0,-1,944,708,0,0
-273,316,0,0,0,0,0,0,0,0,0,-1,951,708,0,0
-266,316,0,0,0,0,0,0,0,0,0,-1,958,708,0,0
-259,316,0,0,0,0,0,0,0,0,0,-1,965,708,0,0
-252,316,0,0,0,0,0,0,0,0,0,-1,972,708,0,0
-245,316,0,0,0,0,0,0,0,0,0,-1,979,708,0,0
-238,316,0,0,0,0,0,0,0,0,0,-1,986,708,0,0
-231,316,0,0,0,0,0,0,0,0,0,-1,993,708,0,0
-224,316,0,0,0,0,0,0,0,0,0,-1,1000,708,0,0
-217,316,0,0,0,0,0,0,0,0,0,-1,1007,708,0,0
-210,316,0,0,0,0,0,0,0,0,0,-1,1014,708,0,0
-203,316,0,0,0,0,0,0,0,0,0,-1,1021,708,0,0
-196,316,0,0,0,0,0,0,0,0,0,-1,1028,708,0,0
-189,316,0,0,0,0,0,0,0,0,0,-1,1035,708,0,0
-182,316,0,0,0,0,0,0,0,0,0,-1,1042,708,0,0
-175,316,0,0,0,0,0,0,0,0,0,-1,1049,708,0,0
-168,316,0,0,0,0,0,0,0,0,0,-1,1056,708,0,0
-161,316,0,0,0,0,0,0,0,0,0,-1,1063,708,0,0
-154,316,0,0,0,0,0,0,0,0,0,-1,1070,708,0,0
-147,316,0,0,0,0,0,0,0,0,0,-1,1077,708,0,0
-140,316,0,0,0,0,0,0,0,0,0,-1,1084,708,0,0
-133,316,0,0,0,0,0,0,0,0,0,-1,1091,708,0,0
-126,316,0,0,0,0,0,0,0,0,0,-1,1098,708,0,0
-119,316,0,0,0,0,0,0,0,0,0,-1,1105,708,0,0
-112,316,0,0,0,0,0,0,0,0,0,-1,1112,708,0,0
-105,316,0,0,0,0,0,0,0,0,0,-1,1119,708,0,0
-98,316,0,0,0,0,0,0,0,0,0,-1,1126,708,0,0
-91,316,0,0,0,0,0,0,0,0,0,-1,1133,708,0,0
-84,316,0,0,0,0,0,0,0,0,0,-1,1140,708,0,0
-77,316,0,0,0,0,0,0,0,0,0,-1,1147,708,0,0
-70,316,0,0,0,0,0,0,0,0,0,-1,1154,708,0,0
-63,316,0,0,0,0,0,0,0,0,0,-1,1161,708,0,0
-56,316,0,0,0,0,0,0,0,0,0,-1,1168,708,0,0
-49,316,0,0,0,0,0,0,0,0,0,-1,1175,708,0,0
-42,316,0,0,0,0,0,0,0,0,0,-1,1182,708,0,0
-35,316,0,0,0,0,0,0,0,0,0,-1,1189,708,0,0
-28,316,0,0,0,0,0,0,0,0,0,-1,1196,708,0,0
-21,316,0,0,0,0,0,0,0,0,0,-1,1203,708,0,0
-14,316,0,0,0,0,0,0,0,0,0,-1,1210,708,0,0
-7,316,0,0,0,0,0,0,0,0,0,-1,1217,708,0,0
0,316,0,0,0,0,0,0,0,0,0,-1,1224,708,0,0
7,316,0,0,0,0,0,0,0,0,0,-1,1231,708,0,0
14,316,0,0,0,0,0,0,0,0,0,-1,1238,708,0,0
21,316,0,0,0,0,0,0,0,0,0,-1,1245,708,0,0
28,316,0,0,0,0,0,0,0,0,0,-1,1252,708,0,0
35,316,0,0,0,0,0,0,0,0,0,-1,1259,708,0,0
42,316,0,0,0,0,0,0,0,0,0,-1,1266,708,0,0
49,316,0,0,0,0,0,0,0,0,0,-1,1273,708,0,0
56,316,0,0,0,0,0,0,0,0,0,-1,1280,708,0,0
63,316,0,0,0,0,0,0,0,0,0,-1,1287,708,0,0
70,316,0,0,0,0,0,0,0,0,0,-1,1294,708,0,0
77,316,0,0,0,0,0,0,0,0,0,-1,1301,708,0,0
84,316,0,0,0,0,0,0,0,0,0,-1,1308,708,0,0
91,316,0,0,0,0,0,0,0,0,0,-1,1315,708,0,0
98,316,0,0,0,0,0,0,0,0,0,-1,1322,708,0,0
105,316,0,0,0,0,0,0,0,0,0,-1,1329,708,0,0
112,316,0,0,0,0,0,0,0,0,0,-1,1336,708,0,0
119,316,0,0,0,0,0,0,0,0,0,-1,1343,708,0,0
126,316,0,0,0,0,0,0,0,0,0,-1,1350,708,0,0
133,316,0,0,0,0,0,0,0,0,0,-1,1357,708,0,0
140,316,0,0,0,0,0,0,0,0,0,-1,1364,708,0,0
147,316,0,0,0,0,0,0,0,0,0,-1,1371,708,0,0
154,316,0,0,0,0,0,0,0,0,0,-1,1378,708,0,0
161,316,0,0,0,0,0,0,0,0,0,-1,1385,708,0,0
168,316,0,0,0,0,0,0,0,0,0,-1,1392,708,0,0
175,316,0,0,0,0,0,0,0,0,0,-1,1399,708,0,0
182,316,0,0,0,0,0,0,0,0,0,-1,1406,708,0,0
189,316,0,0,0,0,0,0,0,0,0,-1,1413,708,0,0
196,316,0,0,0,0,0,0,0,0,0,-1,1420,708,0,0
203,316,0,0,0,0,0,0,0,0,0,-1,1427,708,0,0
210,316,0,0,0,0,0,0,0,0,0,-1,1434,708,0,0
217,316,0,0,0,0,0,0,0,0,0,-1,1441,708,0,0
224,316,0,0,0,0,0,0,0,0,0,-1,1448,708,0,0
231,316,0,0,0,0,0,0,0,0,0,-1,1455,708,0,0
238,316,0,0,0,0,0,0,0,0,0,-1,1462,708,0,0
245,316,0,0,0,0,0,0,0,0,0,-1,1469,708,0,0
252,316,0,0,0,0,0,0,0,0,0,-1,1476,708,0,0
259,316,0,0,0,0,0,0,0,0,0,-1,1483,708,0,0
266,316,0,0,0,0,0,0,0,0,0,-1,1490,708,0,0
273,316,0,0,0,0,0,0,0,0,0,-1,1497,708,0,0
280,316,0,0,0,0,0,0,0,0,0,-1,1504,708,0,0
287,316,0,0,0,0,0,0,0,0,0,-1,1511,708,0,0
294,316,0,0,0,0,0,0,0,0,0,-1,1518,708,0,0
301,316,0,0,0,0,0,0,0,0,0,-1,1525,708,0,0
308,316,0,0,0,0,0,0,0,0,0,-1,1532,708,0,0
315,316,0,0,0,0,0,0,0,0,0,-1,1539,708,0,0
322,316,0,0,0,0,0,0,0,0,0,-1,1546,708,0,0
329,316,0,0,0,0,0,0,0,0,0,-1,1553,708,0,0
336,316,0,0,0,0,0,0,0,0,0,-1,1560,708,0,0
343,316,0,0,0,0,0,0,0,0,0,-1,1567,708,0,0
350,316,0,0,0,0,0,0,0,0,0,-1,1574,708,0,0
357,316,0,0,0,0,0,0,0,0,0,-1,1581,708,0,0
364,316,0,0,0,0,0,0,0,0,0,-1,1588,708,0,0
371,316,0,0,0,0,0,0,0,0,0,-1,1595,708,0,0
378,316,0,0,0,0,0,0,0,0,0,-1,1602,708,0,0
385,316,0,0,0,0,0,0,0,0,0,-1,1609,708,0,0
392,316,0,0,0,0,0,0,0,0,0,-1,1616,708,0,0
399,316,0,0,0,0,0,0,0,0,0,-1,1623,708,0,0
406,316,0,0,0,0,0,0,0,0,0,-1,1630,708,0,0
413,316,0,0,0,0,0,0,0,0,0,-1,1637,708,0,0
420,316,0,0,0,0,0,0,0,0,0,-1,1644,708,0,0
427,316,0,0,0,0,0,0,0,0,0,-1,1651,708,0,0
434,316,0,0,0,0,0,0,0,0,0,-1,1658,708,0,0
441,316,0,0,0,0,0,0,0,0,0,-1,1665,708,0,0
448,316,0,0,0,0,0,0,0,0,0,-1,1672,708,0,0
455,316,0,0,0,0,0,0,0,0,0,-1,1679,708,0,0
462,316,0,0,0,0,0,0,0,0,0,-1,1686,708,0,0
469,316,0,0,0,0,0,0,0,0,0,-1,1693,708,0,0
476,316,0,0,0,0,0,0,0,0,0,-1,1700,708,0,0
483,316,0,0,0,0,0,0,0,0,0,-1,1707,708,0,0
490,316,0,0,0,0,0,0,0,0,0,-1,1714,708,0,0
497,316,0,0,0,0,0,0,0,0,0,-1,1721,708,0,0
504,316,0,0,0,0,0,0,0,0,0,-1,1728,708,0,0
511,316,0,0,0,0,0,0,0,0,0,-1,1735,708,0,0
518,316,0,0,0,0,0,0,0,0,0,-1,1742,708,0,0
525,316,0,0,0,0,0,0,0,0,0,-1,1749,708,0,0
532,316,33.8604,0.531128,0,0,0,0,0,0,0,-1,1756,708,33.8604,-0.531151
539,316,31.875,4.05316,0,0,0,0,0,0,0,-1,1763,708,31.875,-4.05318
546,316,32.4357,4.87872,0,0,0,0,0,0,0,-1,1770,708,32.4357,-4.87873
553,316,30.4901,4.8869,0,0,0,0,0,0,0,-1,1777,708,30.4901,-4.88688
560,316,29.651,6.51129,0,0,0,0,0,0,0,-1,1784,708,29.651,-6.51128
567,316,31.678,2.43597,0,0,0,0,0,0,0,-1,1791,708,31.678,-2.43595
574,316,30.4771,6.54126,0,0,0,0,0,0,0,-1,1798,708,30.4771,-6.54126
581,316,24.6815,7.77496,0,0,0,0,0,0,0,-1,1805,708,24.6815,-7.77499
588,316,19.7659,2.90198,0,0,0,0,0,0,0,-1,1812,708,19.7659,-2.902
595,316,12.5363,1.50702,0,0,0,0,0,0,0,-1,1819,708,12.5363,-1.50701
602,316,7.79919,0.0422363,0,0,0,0,0,0,0,-1,1826,708,7.79923,-0.0422066
609,316,20.651,-3.4411,0,0,0,0,0,0,0,-1,1833,708,20.651,3.44108
616,316,20.7156,-2.91571,-0.000567299,0.00877761,-0.0026187,0.0094614,-0.0012511,-1.31538,0.00676332,0.0202521,1840,708,20.7155,2.91572
623,316,20.722,-2.45526,-0.000148931,0.00475579,-0.000730153,0.00486218,-0.00025532,-1.42611,0.00332982,0.0113399,1847,708,20.7221,2.45528
630,316,20.6813,-2.03076,0.000624581,0.00224063,-0.000201035,0.00226526,0.000599948,-1.44887,0.00135521,0.0134715,1854,708,20.6813,2.03077
637,316,20.6742,-1.58295,0.000571874,0.000759754,-4.1433e-05,0.000768485,0.000563142,-1.3631,0.000459436,0.0124409,1861,708,20.6743,1.58294
644,316,20.6814,-1.12738,-0.000436265,0.000173025,-0.000196856,0.000231093,-0.000494333,-1.28395,0.000427918,0.0115661,1868,708,20.6814,1.12735
651,316,20.6606,-0.68158,-0.0019425,5.81567e-05,-0.000455263,0.000156883,-0.00204123,-1.35725,0.00141601,0.0131213,1875,708,20.6607,0.681586
658,316,20.6271,-0.233276,-0.00355282,9.63892e-05,-0.000854011,0.000286361,-0.00374279,-1.35191,0.00259592,0.0221094,1882,708,20.627,0.233265
665,316,20.6016,0.226807,-0.0053283,0.000235845,-0.00131264,0.000529962,-0.00562242,-1.35037,0.00393684,0.0167119,1889,708,20.6016,-0.226783
672,316,20.5964,0.673584,-0.00746949,0.000408069,-0.00186472,0.000827176,-0.0078886,-1.34971,0.00555536,0.0123092,1896,708,20.5965,-0.673588
679,316,20.6083,1.16833,-0.00999672,0.000621089,-0.00247759,0.00117076,-0.0105464,-1.35248,0.0074519,0.0221587,1903,708,20.6083,-1.16833
686,316,20.337,1.62921,-0.0128583,0.000839875,-0.00308023,0.00150064,-0.013519,-1.35948,0.00955226,0.0347595,1910,708,20.337,-1.6292
693,316,19.7798,2.42474,0,0,0,0,0,0,0,-1,1917,708,19.7797,-2.42476
700,316,12.8749,2.89136,0,0,0,0,0,0,0,-1,1924,708,12.8748,-2.89137
707,316,15.7089,5.41486,0,0,0,0,0,0,0,-1,1931,708,15.7088,-5.41487
714,316,16.1727,5.52045,0,0,0,0,0,0,0,-1,1938,708,16.1728,-5.52042
721,316,16.7094,6.53351,0,0,0,0,0,0,0,-1,1945,708,16.7094,-6.5335
728,316,0,0,0,0,0,0,0,0,0,-1,1952,708,0,0
735,316,0,0,0,0,0,0,0,0,0,-1,1959,708,0,0
742,316,0,0,0,0,0,0,0,0,0,-1,1966,708,0,0
749,316,0,0,0,0,0,0,0,0,0,-1,1973,708,0,0
756,316,0,0,0,0,0,0,0,0,0,-1,1980,708,0,0
763,316,0,0,0,0,0,0,0,0,0,-1,1987,708,0,0
770,316,0,0,0,0,0,0,0,0,0,-1,1994,708,0,0
777,316,0,0,0,0,0,0,0,0,0,-1,2001,708,0,0
784,316,0,0,0,0,0,0,0,0,0,-1,2008,708,0,0
791,316,0,0,0,0,0,0,0,0,0,-1,2015,708,0,0
798,316,0,0,0,0,0,0,0,0,0,-1,2022,708,0,0
805,316,0,0,0,0,0,0,0,0,0,-1,2029,708,0,0
812,316,0,0,0,0,0,0,0,0,0,-1,2036,708,0,0
-700,309,0,0,0,0,0,0,0,0,0,-1,524,715,0,0
-693,309,0,0,0,0,0,0,0,0,0,-1,531,715,0,0
-686,309,0,0,0,0,0,0,0,0,0,-1,538,715,0,0
-679,309,0,0,0,0,0,0,0,0,0,-1,545,715,0,0
-672,309,0,0,0,0,0,0,0,0,0,-1,552,715,0,0
-665,309,0,0,0,0,0,0,0,0,0,-1,559,715,0,0
-658,309,0,0,0,0,0,0,0,0,0,-1,566,715,0,0
-651,309,0,0,0,0,0,0,0,0,0,-1,573,715,0,0
-644,309,0,0,0,0,0,0,0,0,0,-1,580,715,0,0
-637,309,0,0,0,0,0,0,0,0,0,-1,587,715,0,0
-630,309,0,0,0,0,0,0,0,0,0,-1,594,715,0,0
-623,309,0,0,0,0,0,0,0,0,0,-1,601,715,0,0
-616,309,0,0,0,0,0,0,0,0,0,-1,608,715,0,0
-609,309,-5.95392,-3.93689,0,0,0,0,0,0,0,-1,615,715,-5.95392,3.93686
-602,309,-4.99786,-3.31287,0,0,0,0,0,0,0,-1,622,715,-4.99786,3.31284
-595,309,-6.80847,2.4046,0,0,0,0,0,0,0,-1,629,715,-6.80845,-2.40458
-588,309,-6.08795,2.19324,0,0,0,0,0,0,0,-1,636,715,-6.08793,-2.19325
-581,309,-5.97552,1.3277,0,0,0,0,0,0,0,-1,643,715,-5.97552,-1.32769
-574,309,-8.73602,0.208435,0,0,0,0,0,0,0,-1,650,715,-8.73604,-0.208437
-567,309,-10.3909,0.85968,0,0,0,0,0,0,0,-1,657,715,-10.3909,-0.859696
-560,309,-12.6631,-0.936401,0,0,0,0,0,0,0,-1,664,715,-12.6631,0.936389
-553,309,-12.7354,-1.02472,0.000771466,0.0114329,-0.00442586,0.0130308,-0.000826361,-1.22434,0.00897532,0.0384623,671,715,-12.7354,1.02474
-546,309,-12.8272,-1.35938,0.00120179,0.00871061,-0.00348396,0.0100781,-0.000165672,-1.19677,0.00677461,0.0190916,678,715,-12.8272,1.35937
-539,309,-12.804,-1.80438,0.00141457,0.00648619,-0.00263106,0.00760453,0.000296234,-1.16888,0.00497388,0.0156017,685,715,-12.8039,1.8044
-532,309,-12.8156,-2.21185,0.00141454,0.00447856,-0.00179074,0.0053032,0.000589902,-1.13924,0.00335616,0.0126346,692,715,-12.8156,2.21185
-525,309,-12.7929,-2.64954,0.00143991,0.00296873,-0.000882577,0.00337191,0.00103673,-1.14228,0.0019943,0.0157408,699,715,-12.7929,2.64956
-518,309,-12.8024,-3.07733,0.0013416,0.00211771,-9.33117e-05,0.00212877,0.00133054,-1.45281,0.00124179,0.0162327,706,715,-12.8024,3.07735
-511,309,-12.8478,-3.48962,0.00126156,0.00191564,0.000664498,0.00232921,0.000847984,1.01407,0.00136124,0.0127723,713,715,-12.8478,3.4896
-504,309,-12.8486,-3.88373,0.00116638,0.00241415,0.00148173,0.00339798,0.000182549,0.98466,0.00220699,0.0101079,720,715,-12.8486,3.88376
-497,309,-12.838,-4.2821,0.00100032,0.00401375,0.00236424,0.00531058,-0.000296501,1.06909,0.00364324,0.0138649,727,715,-12.838,4.28212
-490,309,-12.8102,-4.67688,0.00108886,0.0076851,0.00281813,0.00872512,4.8839e-05,1.21726,0.00580054,0.0417023,734,715,-12.8103,4.6769
-483,309,-12.5257,-5.34534,0,0,0,0,0,0,0,-1,741,715,-12.5257,5.34533
-476,309,-5.29486,-1.2262,0,0,0,0,0,0,0,-1,748,715,-5.29484,1.22622
-469,309,-4.22717,-0.592896,0,0,0,0,0,0,0,-1,755,715,-4.2272,0.592905
-462,309,-10.428,2.46948,0,0,0,0,0,0,0,-1,762,715,-10.428,-2.46947
-455,309,-15.8216,0.00915527,0,0,0,0,0,0,0,-1,769,715,-15.8216,-0.00913359
-448,309,-19.2673,1.19257,0,0,0,0,0,0,0,-1,776,715,-19.2673,-1.19254
-441,309,-19.8181,1.4425,0,0,0,0,0,0,0,-1,783,715,-19.8181,-1.44249
-434,309,-15.3519,1.06873,0,0,0,0,0,0,0,-1,790,715,-15.3519,-1.06874
-427,309,-15.1996,1.32141,0,0,0,0,0,0,0,-1,797,715,-15.1996,-1.3214
-420,309,-13.3781,3.26843,0,0,0,0,0,0,0,-1,804,715,-13.3781,-3.26842
-413,309,0,0,0,0,0,0,0,0,0,-1,811,715,0,0
-406,309,0,0,0,0,0,0,0,0,0,-1,818,715,0,0
-399,309,0,0,0,0,0,0,0,0,0,-1,825,715,0,0
-392,309,0,0,0,0,0,0,0,0,0,-1,832,715,0,0
-385,309,0,0,0,0,0,0,0,0,0,-1,839,715,0,0
-378,309,0,0,0,0,0,0,0,0,0,-1,846,715,0,0
-371,309,0,0,0,0,0,0,0,0,0,-1,853,715,0,0
-364,309,0,0,0,0,0,0,0,0,0,-1,860,715,0,0
-357,309,0,0,0,0,0,0,0,0,0,-1,867,715,0,0
-350,309,0,0,0,0,0,0,0,0,0,-1,874,715,0,0
-343,309,0,0,0,0,0,0,0,0,0,-1,881,715,0,0
-336,309,0,0,0,0,0,0,0,0,0,-1,888,715,0,0
-329,309,0,0,0,0,0,0,0,0,0,-1,895,715,0,0
-322,309,0,0,0,0,0,0,0,0,0,-1,902,715,0,0
-315,309,0,0,0,0,0,0,0,0,0,-1,909,715,0,0
-308,309,0,0,0,0,0,0,0,0,0,-1,916,715,0,0
-301,309,0,0,0,0,0,0,0,0,0,-1,923,715,0,0
-294,309,0,0,0,0,0,0,0,0,0,-1,930,715,0,0
-287,309,0,0,0,0,0,0,0,0,0,-1,937,715,0,0
-280,309,0,0,0,0,0,0,0,0,0,-1,944,715,0,0
-273,309,0,0,0,0,0,0,0,0,0,-1,951,715,0,0
-266,309,0,0,0,0,0,0,0,0,0,-1,958,715,0,0
-259,309,0,0,0,0,0,0,0,0,0,-1,965,715,0,0
-252,309,0,0,0,0,0,0,0,0,0,-1,972,715,0,0
-245,309,0,0,0,0,0,0,0,0,0,-1,979,715,0,0
-238,309,0,0,0,0,0,0,0,0,0,-1,986,715,0,0
-231,309,0,0,0,0,0,0,0,0,0,-1,993,715,0,0
-224,309,0,0,0,0,0,0,0,0,0,-1,1000,715,0,0
-217,309,0,0,0,0,0,0,0,0,0,-1,1007,715,0,0
-210,309,0,0,0,0,0,0,0,0,0,-1,1014,715,0,0
-203,309,0,0,0,0,0,0,0,0,0,-1,1021,715,0,0
-196,309,0,0,0,0,0,0,0,0,0,-1,1028,715,0,0
-189,309,0,0,0,0,0,0,0,0,0,-1,1035,715,0,0
-182,309,0,0,0,0,0,0,0,0,0,-1,1042,715,0,0
-175,309,0,0,0,0,0,0,0,0,0,-1,1049,715,0,0
-168,309,0,0,0,0,0,0,0,0,0,-1,1056,715,0,0
-161,309,0,0,0,0,0,0,0,0,0,-1,1063,715,0,0
-154,309,0,0,0,0,0,0,0,0,0,-1,1070,715,0,0
-147,309,0,0,0,0,0,0,0,0,0,-1,1077,715,0,0
-140,309,0,0,0,0,0,0,0,0,0,-1,1084,715,0,0
-133,309,0,0,0,0,0,0,0,0,0,-1,1091,715,0,0
-126,309,0,0,0,0,0,0,0,0,0,-1,1098,715,0,0
-119,309,0,0,0,0,0,0,0,0,0,-1,1105,715,0,0
-112,309,0,0,0,0,0,0,0,0,0,-1,1112,715,0,0
-105,309,0,0,0,0,0,0,0,0,0,-1,1119,715,0,0
-98,309,0,0,0,0,0,0,0,0,0,-1,1126,715,0,0
-91,309,0,0,0,0,0,0,0,0,0,-1,1133,715,0,0
-84,309,0,0,0,0,0,0,0,0,0,-1,1140,715,0,0
-77,309,0,0,0,0,0,0,0,0,0,-1,1147,715,0,0
-70,309,0,0,0,0,0,0,0,0,0,-1,1154,715,0,0
-63,309,0,0,0,0,0,0,0,0,0,-1,1161,715,0,0
-56,309,0,0,0,0,0,0,0,0,0,-1,1168,715,0,0
-49,309,0,0,0,0,0,0,0,0,0,-1,1175,715,0,0
-42,309,0,0,0,0,0,0,0,0,0,-1,1182,715,0,0
-35,309,0,0,0,0,0,0,0,0,0,-1,1189,715,0,0
-28,309,0,0,0,0,0,0,0,0,0,-1,1196,715,0,0
-21,309,0,0,0,0,0,0,0,0,0,-1,1203,715,0,0
-14,309,0,0,0,0,0,0,0,0,0,-1,1210,715,0,0
-7,309,0,0,0,0,0,0,0,0,0,-1,1217,715,0,0
0,309,0,0,0,0,0,0,0,0,0,-1,1224,715,0,0
7,309,0,0,0,0,0,0,0,0,0,-1,1231,715,0,0
14,309,0,0,0,0,0,0,0,0,0,-1,1238,715,0,0
21,309,0,0,0,0,0,0,0,0,0,-1,1245,715,0,0
28,309,0,0,0,0,0,0,0,0,0,-1,1252,715,0,0
35,309,0,0,0,0,0,0,0,0,0,-1,1259,715,0,0
42,309,0,0,0,0,0,0,0,0,0,-1,1266,715,0,0
49,309,0,0,0,0,0,0,0,0,0,-1,1273,715,0,0
56,309,0,0,0,0,0,0,0,0,0,-1,1280,715,0,0
63,309,0,0,0,0,0,0,0,0,0,-1,1287,715,0,0
70,309,0,0,0,0,0,0,0,0,0,-1,1294,715,0,0
77,309,0,0,0,0,0,0,0,0,0,-1,1301,715,0,0
84,309,0,0,0,0,0,0,0,0,0,-1,1308,715,0,0
91,309,0,0,0,0,0,0,0,0,0,-1,1315,715,0,0
98,309,0,0,0,0,0,0,0,0,0,-1,1322,715,0,0
105,309,0,0,0,0,0,0,0,0,0,-1,1329,715,0,0
112,309,0,0,0,0,0,0,0,0,0,-1,1336,715,0,0
119,309,0,0,0,0,0,0,0,0,0,-1,1343,715,0,0
126,309,0,0,0,0,0,0,0,0,0,-1,1350,715,0,0
133,309,0,0,0,0,0,0,0,0,0,-1,1357,715,0,0
140,309,0,0,0,0,0,0,0,0,0,-1,1364,715,0,0
147,309,0,0,0,0,0,0,0,0,0,-1,1371,715,0,0
154,309,0,0,0,0,0,0,0,0,0,-1,1378,715,0,0
161,309,0,0,0,0,0,0,0,0,0,-1,1385,715,0,0
168,309,0,0,0,0,0,0,0,0,0,-1,1392,715,0,0
175,309,0,0,0,0,0,0,0,0,0,-1,1399,715,0,0
182,309,0,0,0,0,0,0,0,0,0,-1,1406,715,0,0
189,309,0,0,0,0,0,0,0,0,0,-1,1413,715,0,0
196,309,0,0,0,0,0,0,0,0,0,-1,1420,715,0,0
203,309,0,0,0,0,0,0,0,0,0,-1,1427,715,0,0
210,309,0,0,0,0,0,0,0,0,0,-1,1434,715,0,0
217,309,0,0,0,0,0,0,0,0,0,-1,1441,715,0,0
224,309,0,0,0,0,0,0,0,0,0,-1,1448,715,0,0
231,309,0,0,0,0,0,0,0,0,0,-1,1455,715,0,0
238,309,0,0,0,0,0,0,0,0,0,-1,1462,715,0,0
245,309,0,0,0,0,0,0,0,0,0,-1,1469,715,0,0
252,309,0,0,0,0,0,0,0,0,0,-1,1476,715,0,0
259,309,0,0,0,0,0,0,0,0,0,-1,1483,715,0,0
266,309,0,0,0,0,0,0,0,0,0,-1,1490,715,0,0
273,309,0,0,0,0,0,0,0,0,0,-1,1497,715,0,0
280,309,0,0,0,0,0,0,0,0,0,-1,1504,715,0,0
287,309,0,0,0,0,0,0,0,0,0,-1,1511,715,0,0
294,309,0,0,0,0,0,0,0,0,0,-1,1518,715,0,0
301,309,0,0,0,0,0,0,0,0,0,-1,1525,715,0,0
308,309,0,0,0,0,0,0,0,0,0,-1,1532,715,0,0
315,309,0,0,0,0,0,0,0,0,0,-1,1539,715,0,0
322,309,0,0,0,0,0,0,0,0,0,-1,1546,715,0,0
329,309,0,0,0,0,0,0,0,0,0,-1,1553,715,0,0
336,309,0,0,0,0,0,0,0,0,0,-1,1560,715,0,0
343,309,0,0,0,0,0,0,0,0,0,-1,1567,715,0,0
350,309,0,0,0,0,0,0,0,0,0,-1,1574,715,0,0
357,309,0,0,0,0,0,0,0,0,0,-1,1581,715,0,0
364,309,0,0,0,0,0,0,0,0,0,-1,1588,715,0,0
371,309,0,0,0,0,0,0,0,0,0,-1,1595,715,0,0
378,309,0,0,0,0,0,0,0,0,0,-1,1602,715,0,0
385,309,0,0,0,0,0,0,0,0,0,-1,1609,715,0,0
392,309,0,0,0,0,0,0,0,0,0,-1,1616,715,0,0
399,309,0,0,0,0,0,0,0,0,0,-1,1623,715,0,0
406,309,0,0,0,0,0,0,0,0,0,-1,1630,715,0,0
413,309,0,0,0,0,0,0,0,0,0,-1,1637,715,0,0
420,309,0,0,0,0,0,0,0,0,0,-1,1644,715,0,0
427,309,0,0,0,0,0,0,0,0,0,-1,1651,715,0,0
434,309,0,0,0,0,0,0,0,0,0,-1,1658,715,0,0
441,309,0,0,0,0,0,0,0,0,0,-1,1665,715,0,0
448,309,0,0,0,0,0,0,0,0,0,-1,1672,715,0,0
455,309,0,0,0,0,0,0,0,0,0,-1,1679,715,0,0
462,309,0,0,0,0,0,0,0,0,0,-1,1686,715,0,0
469,309,0,0,0,0,0,0,0,0,0,-1,1693,715,0,0
476,309,0,0,0,0,0,0,0,0,0,-1,1700,715,0,0
483,309,0,0,0,0,0,0,0,0,0,-1,1707,715,0,0
490,309,0,0,0,0,0,0,0,0,0,-1,1714,715,0,0
497,309,0,0,0,0,0,0,0,0,0,-1,1721,715,0,0
504,309,0,0,0,0,0,0,0,0,0,-1,1728,715,0,0
511,309,0,0,0,0,0,0,0,0,0,-1,1735,715,0,0
518,309,0,0,0,0,0,0,0,0,0,-1,1742,715,0,0
525,309,0,0,0,0,0,0,0,0,0,-1,1749,715,0,0
532,309,0,0,0,0,0,0,0,0,0,-1,1756,715,0,0
539,309,32.02,3.89752,0,0,0,0,0,0,0,-1,1763,715,32.02,-3.89751
546,309,33.8612,3.0509,0,0,0,0,0,0,0,-1,1770,715,33.8612,-3.05088
553,309,33.0663,3.8927,0,0,0,0,0,0,0,-1,1777,715,33.0662,-3.89271
560,309,32.4291,4.49561,0,0,0,0,0,0,0,-1,1784,715,32.4291,-4.49559
567,309,31.8434,5.31348,0,0,0,0,0,0,0,-1,1791,715,31.8434,-5.3135
574,309,31.0057,6.19543,0,0,0,0,0,0,0,-1,1798,715,31.0058,-6.19541
581,309,30.2532,7.22888,0,0,0,0,0,0,0,-1,1805,715,30.2532,-7.2289
588,309,26.2064,7.76422,0,0,0,0,0,0,0,-1,1812,715,26.2064,-7.7642
595,309,19.585,3.71558,0,0,0,0,0,0,0,-1,1819,715,19.5849,-3.71555
602,309,11.0811,3.47772,0,0,0,0,0,0,0,-1,1826,715,11.0811,-3.47772
609,309,21.1361,-3.47504,0,0,0,0,0,0,0,-1,1833,715,21.1361,3.47506
616,309,21.1749,-2.93628,-0.00101482,0.0126418,-0.00470058,0.0141033,-0.00247634,-1.26935,0.0103271,0.0298388,1840,715,21.1749,2.93627
623,309,21.1725,-2.44147,-0.000369397,0.00789744,-0.00241833,0.00855291,-0.00102487,-1.30611,0.00607246,0.0113491,1847,715,21.1725,2.44149
630,309,21.1169,-2.01276,0.000890959,0.00422139,-0.00139546,0.00472879,0.000383562,-1.22205,0.00303277,0.0112042,1854,715,21.117,2.01275
637,309,21.0847,-1.56714,0.00119571,0.00175397,-0.000709828,0.00223758,0.000712106,-0.972728,0.00132001,0.0138943,1861,715,21.0847,1.56713
644,309,21.0686,-1.11261,0.000340628,0.000519529,-0.000424377,0.00086378,-3.62404e-06,-0.889268,0.000577065,0.0145903,1868,715,21.0686,1.11264
651,309,21.0815,-0.663513,-0.00120673,0.000160166,-0.000385455,0.000261368,-0.00130794,-1.31404,0.000970879,0.0135859,1875,715,21.0816,0.663486
658,309,21.0823,-0.217102,-0.00270243,0.000154036,-0.000627895,0.000285964,-0.00283436,-1.3637,0.00199175,0.0188013,1882,715,21.0823,0.217127
665,309,21.0897,0.212219,-0.00409256,0.000383597,-0.000979513,0.000588557,-0.00429752,-1.36452,0.00308,0.0164013,1889,715,21.0897,-0.212229
672,309,21.067,0.664368,-0.00576286,0.000645555,-0.00139169,0.000934735,-0.00605204,-1.36592,0.00437965,0.0145743,1896,715,21.067,-0.664387
679,309,21.0706,1.14294,-0.00757881,0.00097079,-0.00181091,0.00133854,-0.00794656,-1.37044,0.00579564,0.0167798,1903,715,21.0705,-1.14295
686,309,20.965,1.64178,-0.00944001,0.00132665,-0.00216821,0.00174689,-0.00986024,-1.37935,0.00722652,0.0261871,1910,715,20.965,-1.64176
693,309,20.4923,2.15668,-0.0111954,0.00171007,-0.00245898,0.00216272,-0.0116481,-1.38875,0.00857766,0.0430969,1917,715,20.4923,-2.15669
700,309,20.1656,2.77716,0,0,0,0,0,0,0,-1,1924,715,20.1657,-2.77716
707,309,15.6318,4.58655,0,0,0,0,0,0,0,-1,1931,715,15.6318,-4.58657
714,309,16.7573,6.68286,0,0,0,0,0,0,0,-1,1938,715,16.7574,-6.68284
721,309,16.8337,5.4458,0,0,0,0,0,0,0,-1,1945,715,16.8338,-5.44582
728,309,0,0,0,0,0,0,0,0,0,-1,1952,715,0,0
735,309,0,0,0,0,0,0,0,0,0,-1,1959,715,0,0
742,309,0,0,0,0,0,0,0,0,0,-1,1966,715,0,0
749,309,0,0,0,0,0,0,0,0,0,-1,1973,715,0,0
756,309,0,0,0,0,0,0,0,0,0,-1,1980,715,0,0
763,309,0,0,0,0,0,0,0,0,0,-1,1987,715,0,0
770,309,0,0,0,0,0,0,0,0,0,-1,1994,715,0,0
777,309,0,0,0,0,0,0,0,0,0,-1,2001,715,0,0
784,309,0,0,0,0,0,0,0,0,0,-1,2008,715,0,0
791,309,0,0,0,0,0,0,0,0,0,-1,2015,715,0,0
798,309,0,0,0,0,0,0,0,0,0,-1,2022,715,0,0
805,309,0,0,0,0,0,0,0,0,0,-1,2029,715,0,0
812,309,0,0,0,0,0,0,0,0,0,-1,2036,715,0,0
-700,302,0,0,0,0,0,0,0,0,0,-1,524,722,0,0
-693,302,0,0,0,0,0,0,0,0,0,-1,531,722,0,0
-686,302,0,0,0,0,0,0,0,0,0,-1,538,722,0,0
-679,302,0,0,0,0,0,0,0,0,0,-1,545,722,0,0
-672,302,0,0,0,0,0,0,0,0,0,-1,552,722,0,0
-665,302,0,0,0,0,0,0,0,0,0,-1,559,722,0,0
-658,302,0,0,0,0,0,0,0,0,0,-1,566,722,0,0
-651,302,0,0,0,0,0,0,0,0,0,-1,573,722,0,0
-644,302,0,0,0,0,0,0,0,0,0,-1,580,722,0,0
-637,302,0,0,0,0,0,0,0,0,0,-1,587,722,0,0
-630,302,0,0,0,0,0,0,0,0,0,-1,594,722,0,0
-623,302,0,0,0,0,0,0,0,0,0,-1,601,722,0,0
-616,302,0,0,0,0,0,0,0,0,0,-1,608,722,0,0
-609,302,-7.79266,-3.71649,0,0,0,0,0,0,0,-1,615,722,-7.79267,3.7165
-602,302,0.92865,-1.99158,0,0,0,0,0,0,0,-1,622,722,0.928637,1.99157
-595,302,-7.89941,2.13641,0,0,0,0,0,0,0,-1,629,722,-7.89939,-2.13639
-588,302,-7.10895,1.79163,0,0,0,0,0,0,0,-1,636,722,-7.10896,-1.79163
-581,302,-9.17566,1.09448,0,0,0,0,0,0,0,-1,643,722,-9.17569,-1.09445
-574,302,-11.5183,-0.344543,0,0,0,0,0,0,0,-1,650,722,-11.5183,0.344557
-567,302,-12.1534,-0.672241,0,0,0,0,0,0,0,-1,657,722,-12.1535,0.672246
-560,302,-13.278,-0.492126,0,0,0,0,0,0,0,-1,664,722,-13.2779,0.49213
-553,302,-13.2178,-0.92749,-0.000974806,0.0084562,-0.00280439,0.0092271,-0.0017457,-1.30253,0.00680831,0.0208217,671,722,-13.2178,0.927466
-546,302,-13.2347,-1.39929,-0.000180316,0.00634964,-0.00217054,0.0070053,-0.000835967,-1.27744,0.00497233,0.0158012,678,722,-13.2347,1.39932
-539,302,-13.2536,-1.77979,0.000367585,0.00458952,-0.00158942,0.00512098,-0.000163878,-1.24811,0.0034699,0.0155408,685,722,-13.2536,1.77981
-532,302,-13.2531,-2.19415,0.000671265,0.00302999,-0.000958671,0.00337047,0.000330776,-1.22953,0.00214524,0.0150972,692,722,-13.2531,2.19418
-525,302,-13.2051,-2.63989,0.000707149,0.0024677,-8.00163e-05,0.00247133,0.00070352,-1.52547,0.00147027,0.021694,699,722,-13.2051,2.63989
-518,302,-13.215,-3.06189,0.000362231,0.00273959,0.000673957,0.00291736,0.000184464,1.3129,0.00188642,0.0228697,706,722,-13.215,3.06191
-511,302,-13.256,-3.45111,-0.000143997,0.00407892,0.00153329,0.00457691,-0.000641989,1.25676,0.00328624,0.0110932,713,722,-13.256,3.45109
-504,302,-13.2518,-3.87646,-0.000963375,0.00657165,0.00262956,0.00739857,-0.00179029,1.26612,0.00562492,0.00978502,720,722,-13.2518,3.87645
-497,302,-13.2956,-4.25305,-0.00223314,0.0108769,0.0039505,0.0119753,-0.00333153,1.29961,0.00929524,0.014095,727,722,-13.2956,4.25304
-490,302,-13.1434,-4.59515,0,0,0,0,0,0,0,-1,734,722,-13.1433,4.59514
-483,302,-9.53412,-3.1673,0,0,0,0,0,0,0,-1,741,722,-9.53411,3.1673
-476,302,-4.29749,-0.203491,0,0,0,0,0,0,0,-1,748,722,-4.29751,0.203464
-469,302,-12.369,1.42859,0,0,0,0,0,0,0,-1,755,722,-12.3689,-1.42857
-462,302,-17.4766,0.310791,0,0,0,0,0,0,0,-1,762,722,-17.4766,-0.310788
-455,302,-17.8736,1.4895,0,0,0,0,0,0,0,-1,769,722,-17.8736,-1.48952
-448,302,-22.1009,-0.967468,0,0,0,0,0,0,0,-1,776,722,-22.1009,0.967494
-441,302,-22.2877,-0.842041,0,0,0,0,0,0,0,-1,783,722,-22.2877,0.842065
-434,302,-22.3103,-0.695129,0,0,0,0,0,0,0,-1,790,722,-22.3103,0.695104
-427,302,-15.3611,1.80798,0,0,0,0,0,0,0,-1,797,722,-15.3611,-1.80801
-420,302,0,0,0,0,0,0,0,0,0,-1,804,722,0,0
-413,302,0,0,0,0,0,0,0,0,0,-1,811,722,0,0
-406,302,0,0,0,0,0,0,0,0,0,-1,818,722,0,0
-399,302,0,0,0,0,0,0,0,0,0,-1,825,722,0,0
-392,302,0,0,0,0,0,0,0,0,0,-1,832,722,0,0
-385,302,0,0,0,0,0,0,0,0,0,-1,839,722,0,0
-378,302,0,0,0,0,0,0,0,0,0,-1,846,722,0,0
-371,302,0,0,0,0,0,0,0,0,0,-1,853,722,0,0
-364,302,0,0,0,0,0,0,0,0,0,-1,860,722,0,0
-357,302,0,0,0,0,0,0,0,0,0,-1,867,722,0,0
-350,302,0,0,0,0,0,0,0,0,0,-1,874,722,0,0
-343,302,0,0,0,0,0,0,0,0,0,-1,881,722,0,0
-336,302,0,0,0,0,0,0,0,0,0,-1,888,722,0,0
-329,302,0,0,0,0,0,0,0,0,0,-1,895,722,0,0
-322,302,0,0,0,0,0,0,0,0,0,-1,902,722,0,0
-315,302,0,0,0,0,0,0,0,0,0,-1,909,722,0,0
-308,302,0,0,0,0,0,0,0,0,0,-1,916,722,0,0
-301,302,0,0,0,0,0,0,0,0,0,-1,923,722,0,0
-294,302,0,0,0,0,0,0,0,0,0,-1,930,722,0,0
-287,302,0,0,0,0,0,0,0,0,0,-1,937,722,0,0
-280,302,0,0,0,0,0,0,0,0,0,-1,944,722,0,0
-273,302,0,0,0,0,0,0,0,0,0,-1,951,722,0,0
-266,302,0,0,0,0,0,0,0,0,0,-1,958,722,0,0
-259,302,0,0,0,0,0,0,0,0,0,-1,965,722,0,0
-252,302,0,0,0,0,0,0,0,0,0,-1,972,722,0,0
-245,302,0,0,0,0,0,0,0,0,0,-1,979,722,0,0
-238,302,0,0,0,0,0,0,0,0,0,-1,986,722,0,0
-231,302,0,0,0,0,0,0,0,0,0,-1,993,722,0,0
-224,302,0,0,0,0,0,0,0,0,0,-1,1000,722,0,0
-217,302,0,0,0,0,0,0,0,0,0,-1,1007,722,0,0
-210,302,0,0,0,0,0,0,0,0,0,-1,1014,722,0,0
-203,302,0,0,0,0,0,0,0,0,0,-1,1021,722,0,0
-196,302,0,0,0,0,0,0,0,0,0,-1,1028,722,0,0
-189,302,0,0,0,0,0,0,0,0,0,-1,1035,722,0,0
-182,302,0,0,0,0,0,0,0,0,0,-1,1042,722,0,0
-175,302,0,0,0,0,0,0,0,0,0,-1,1049,722,0,0
-168,302,0,0,0,0,0,0,0,0,0,-1,1056,722,0,0
-161,302,0,0,0,0,0,0,0,0,0,-1,1063,722,0,0
-154,302,0,0,0,0,0,0,0,0,0,-1,1070,722,0,0
-147,302,0,0,0,0,0,0,0,0,0,-1,1077,722,0,0
-140,302,0,0,0,0,0,0,0,0,0,-1,1084,722,0,0
-133,302,0,0,0,0,0,0,0,0,0,-1,1091,722,0,0
-126,302,0,0,0,0,0,0,0,0,0,-1,1098,722,0,0
-119,302,0,0,0,0,0,0,0,0,0,-1,1105,722,0,0
-112,302,0,0,0,0,0,0,0,0,0,-1,1112,722,0,0
-105,302,0,0,0,0,0,0,0,0,0,-1,1119,722,0,0
-98,302,0,0,0,0,0,0,0,0,0,-1,1126,722,0,0
-91,302,0,0,0,0,0,0,0,0,0,-1,1133,722,0,0
-84,302,0,0,0,0,0,0,0,0,0,-1,1140,722,0,0
-77,302,0,0,0,0,0,0,0,0,0,-1,1147,722,0,0
-70,302,0,0,0,0,0,0,0,0,0,-1,1154,722,0,0
-63,302,0,0,0,0,0,0,0,0,0,-1,1161,722,0,0
-56,302,0,0,0,0,0,0,0,0,0,-1,1168,722,0,0
-49,302,0,0,0,0,0,0,0,0,0,-1,1175,722,0,0
-42,302,0,0,0,0,0,0,0,0,0,-1,1182,722,0,0
-35,302,0,0,0,0,0,0,0,0,0,-1,1189,722,0,0
-28,302,0,0,0,0,0,0,0,0,0,-1,1196,722,0,0
-21,302,0,0,0,0,0,0,0,0,0,-1,1203,722,0,0
-14,302,0,0,0,0,0,0,0,0,0,-1,1210,722,0,0
-7,302,0,0,0,0,0,0,0,0,0,-1,1217,722,0,0
0,302,0,0,0,0,0,0,0,0,0,-1,1224,722,0,0
7,302,0,0,0,0,0,0,0,0,0,-1,1231,722,0,0
14,302,0,0,0,0,0,0,0,0,0,-1,1238,722,0,0
21,302,0,0,0,0,0,0,0,0,0,-1,1245,722,0,0
28,302,0,0,0,0,0,0,0,0,0,-1,1252,722,0,0
35,302,0,0,0,0,0,0,0,0,0,-1,1259,722,0,0
42,302,0,0,0,0,0,0,0,0,0,-1,1266,722,0,0
49,302,0,0,0,0,0,0,0,0,0,-1,1273,722,0,0
56,302,0,0,0,0,0,0,0,0,0,-1,1280,722,0,0
63,302,0,0,0,0,0,0,0,0,0,-1,1287,722,0,0
70,302,0,0,0,0,0,0,0,0,0,-1,1294,722,0,0
77,302,0,0,0,0,0,0,0,0,0,-1,1301,722,0,0
84,302,0,0,0,0,0,0,0,0,0,-1,1308,722,0,0
91,302,0,0,0,0,0,0,0,0,0,-1,1315,722,0,0
98,302,0,0,0,0,0,0,0,0,0,-1,1322,722,0,0
105,302,0,0,0,0,0,0,0,0,0,-1,1329,722,0,0
112,302,0,0,0,0,0,0,0,0,0,-1,1336,722,0,0
119,302,0,0,0,0,0,0,0,0,0,-1,1343,722,0,0
126,302,0,0,0,0,0,0,0,0,0,-1,1350,722,0,0
133,302,0,0,0,0,0,0,0,0,0,-1,1357,722,0,0
140,302,0,0,0,0,0,0,0,0,0,-1,1364,722,0,0
147,302,0,0,0,0,0,0,0,0,0,-1,1371,722,0,0
154,302,0,0,0,0,0,0,0,0,0,-1,1378,722,0,0
161,302,0,0,0,0,0,0,0,0,0,-1,1385,722,0,0
168,302,0,0,0,0,0,0,0,0,0,-1,1392,722,0,0
175,302,0,0,0,0,0,0,0,0,0,-1,1399,722,0,0
182,302,0,0,0,0,0,0,0,0,0,-1,1406,722,0,0
189,302,0,0,0,0,0,0,0,0,0,-1,1413,722,0,0
196,302,0,0,0,0,0,0,0,0,0,-1,1420,722,0,0
203,302,0,0,0,0,0,0,0,0,0,-1,1427,722,0,0
210,302,0,0,0,0,0,0,0,0,0,-1,1434,722,0,0
217,302,0,0,0,0,0,0,0,0,0,-1,1441,722,0,0
224,302,0,0,0,0,0,0,0,0,0,-1,1448,722,0,0
231,302,0,0,0,0,0,0,0,0,0,-1,1455,722,0,0
238,302,0,0,0,0,0,0,0,0,0,-1,1462,722,0,0
245,302,0,0,0,0,0,0,0,0,0,-1,1469,722,0,0
252,302,0,0,0,0,0,0,0,0,0,-1,1476,722,0,0
259,302,0,0,0,0,0,0,0,0,0,-1,1483,722,0,0
266,302,0,0,0,0,0,0,0,0,0,-1,1490,722,0,0
273,302,0,0,0,0,0,0,0,0,0,-1,1497,722,0,0
280,302,0,0,0,0,0,0,0,0,0,-1,1504,722,0,0
287,302,0,0,0,0,0,0,0,0,0,-1,1511,722,0,0
294,302,0,0,0,0,0,0,0,0,0,-1,1518,722,0,0
301,302,0,0,0,0,0,0,0,0,0,-1,1525,722,0,0
308,302,0,0,0,0,0,0,0,0,0,-1,1532,722,0,0
315,302,0,0,0,0,0,0,0,0,0,-1,1539,722,0,0
322,302,0,0,0,0,0,0,0,0,0,-1,1546,722,0,0
329,302,0,0,0,0,0,0,0,0,0,-1,1553,722,0,0
336,302,0,0,0,0,0,0,0,0,0,-1,1560,722,0,0
343,302,0,0,0,0,0,0,0,0,0,-1,1567,722,0,0
350,302,0,0,0,0,0,0,0,0,0,-1,1574,722,0,0
357,302,0,0,0,0,0,0,0,0,0,-1,1581,722,0,0
364,302,0,0,0,0,0,0,0,0,0,-1,1588,722,0,0
371,302,0,0,0,0,0,0,0,0,0,-1,1595,722,0,0
378,302,0,0,0,0,0,0,0,0,0,-1,1602,722,0,0
385,302,0,0,0,0,0,0,0,0,0,-1,1609,722,0,0
392,302,0,0,0,0,0,0,0,0,0,-1,1616,722,0,0
399,302,0,0,0,0,0,0,0,0,0,-1,1623,722,0,0
406,302,0,0,0,0,0,0,0,0,0,-1,1630,722,0,0
413,302,0,0,0,0,0,0,0,0,0,-1,1637,722,0,0
420,302,0,0,0,0,0,0,0,0,0,-1,1644,722,0,0
427,302,0,0,0,0,0,0,0,0,0,-1,1651,722,0,0
434,302,0,0,0,0,0,0,0,0,0,-1,1658,722,0,0
441,302,0,0,0,0,0,0,0,0,0,-1,1665,722,0,0
448,302,0,0,0,0,0,0,0,0,0,-1,1672,722,0,0
455,302,0,0,0,0,0,0,0,0,0,-1,1679,722,0,0
462,302,0,0,0,0,0,0,0,0,0,-1,1686,722,0,0
469,302,0,0,0,0,0,0,0,0,0,-1,1693,722,0,0
476,302,0,0,0,0,0,0,0,0,0,-1,1700,722,0,0
483,302,0,0,0,0,0,0,0,0,0,-1,1707,722,0,0
490,302,0,0,0,0,0,0,0,0,0,-1,1714,722,0,0
497,302,0,0,0,0,0,0,0,0,0,-1,1721,722,0,0
504,302,0,0,0,0,0,0,0,0,0,-1,1728,722,0,0
511,302,0,0,0,0,0,0,0,0,0,-1,1735,722,0,0
518,302,0,0,0,0,0,0,0,0,0,-1,1742,722,0,0
525,302,0,0,0,0,0,0,0,0,0,-1,1749,722,0,0
532,302,0,0,0,0,0,0,0,0,0,-1,1756,722,0,0
539,302,0,0,0,0,0,0,0,0,0,-1,1763,722,0,0
546,302,33.9369,2.55524,0,0,0,0,0,0,0,-1,1770,722,33.937,-2.55522
553,302,33.4633,3.13916,0,0,0,0,0,0,0,-1,1777,722,33.4632,-3.13917
560,302,31.4381,4.7514,0,0,0,0,0,0,0,-1,1784,722,31.4382,-4.75138
567,302,31.8319,4.68658,0,0,0,0,0,0,0,-1,1791,722,31.8319,-4.68657
574,302,31.8204,5.61877,0,0,0,0,0,0,0,-1,1798,722,31.8204,-5.6188
581,302,31.3031,6.59534,0,0,0,0,0,0,0,-1,1805,722,31.3031,-6.59531
588,302,26.9731,7.19983,0,0,0,0,0,0,0,-1,1812,722,26.9732,-7.19981
595,302,27.3826,8.13104,0,0,0,0,0,0,0,-1,1819,722,27.3825,-8.13102
602,302,14.7349,5.21246,0,0,0,0,0,0,0,-1,1826,722,14.7349,-5.21247
609,302,11.1578,-0.125854,0,0,0,0,0,0,0,-1,1833,722,11.1579,0.125839
616,302,21.6816,-2.86829,0,0,0,0,0,0,0,-1,1840,722,21.6816,2.86826
623,302,21.6132,-2.42365,-1.93153e-05,0.0105861,-0.00381314,0.0118147,-0.00124798,-1.25908,0.00832373,0.01554,1847,722,21.6131,2.42365
630,302,21.5479,-1.99139,0.00154001,0.00622845,-0.00252783,0.00733173,0.000436719,-1.15926,0.00474895,0.0114469,1854,722,21.5479,1.99138
637,302,21.5081,-1.54535,0.00215975,0.00286022,-0.00140622,0.00395917,0.0010608,-0.907447,0.00236647,0.0152506,1861,722,21.508,1.54535
644,302,21.5172,-1.10815,0.00142617,0.000907589,-0.000640597,0.00185796,0.000475796,-0.593096,0.00111443,0.0156781,1868,722,21.5172,1.10817
651,302,21.537,-0.653809,-0.00023144,0.000233507,-0.00024095,0.000335848,-0.000333782,-1.16915,0.000386612,0.0148129,1875,722,21.537,0.653829
658,302,21.5481,-0.200378,-0.00159915,0.000160069,-0.000327025,0.000218894,-0.00165798,-1.39282,0.00118504,0.0150285,1882,722,21.5481,0.20035
665,302,21.5382,0.216003,-0.00266473,0.000457823,-0.000597156,0.000568127,-0.00277503,-1.38814,0.00206561,0.0138699,1889,722,21.5382,-0.215979
672,302,21.5111,0.665955,-0.00395129,0.000777606,-0.000910452,0.000946838,-0.00412052,-1.38702,0.00311103,0.0110265,1896,722,21.5111,-0.665939
679,302,21.4857,1.12854,-0.00524354,0.00116376,-0.00119878,0.0013807,-0.00546048,-1.39177,0.00417732,0.00925631,1903,722,21.4858,-1.12854
686,302,21.5022,1.58551,-0.0064305,0.00158888,-0.00139754,0.00182546,-0.00666707,-1.40311,0.00516194,0.0162911,1910,722,21.5021,-1.58554
693,302,21.2073,1.91052,-0.00730509,0.00204172,-0.00148033,0.00227057,-0.00753394,-1.41742,0.00592629,0.0407737,1917,722,21.2072,-1.91054
700,302,21.177,2.08057,0,0,0,0,0,0,0,-1,1924,722,21.177,-2.08054
707,302,16.7321,4.76685,0,0,0,0,0,0,0,-1,1931,722,16.7321,-4.76687
714,302,17.2,5.77594,0,0,0,0,0,0,0,-1,1938,722,17.2,-5.77595
721,302,17.7914,6.60394,0,0,0,0,0,0,0,-1,1945,722,17.7914,-6.60395
728,302,17.2798,4.81702,0,0,0,0,0,0,0,-1,1952,722,17.2798,-4.81703
735,302,0,0,0,0,0,0,0,0,0,-1,1959,722,0,0
742,302,0,0,0,0,0,0,0,0,0,-1,1966,722,0,0
749,302,0,0,0,0,0,0,0,0,0,-1,1973,722,0,0
756,302,0,0,0,0,0,0,0,0,0,-1,1980,722,0,0
763,302,0,0,0,0,0,0,0,0,0,-1,1987,722,0,0
770,302,0,0,0,0,0,0,0,0,0,-1,1994,722,0,0
777,302,0,0,0,0,0,0,0,0,0,-1,2001,722,0,0
784,302,0,0,0,0,0,0,0,0,0,-1,2008,722,0,0
791,302,0,0,0,0,0,0,0,0,0,-1,2015,722,0,0
798,302,0,0,0,0,0,0,0,0,0,-1,2022,722,0,0
805,302,0,0,0,0,0,0,0,0,0,-1,2029,722,0,0
812,302,0,0,0,0,0,0,0,0,0,-1,2036,722,0,0
-700,295,0,0,0,0,0,0,0,0,0,-1,524,729,0,0
-693,295,0,0,0,0,0,0,0,0,0,-1,531,729,0,0
-686,295,0,0,0,0,0,0,0,0,0,-1,538,729,0,0
-679,295,0,0,0,0,0,0,0,0,0,-1,545,729,0,0
-672,295,0,0,0,0,0,0,0,0,0,-1,552,729,0,0
-665,295,0,0,0,0,0,0,0,0,0,-1,559,729,0,0
-658,295,0,0,0,0,0,0,0,0,0,-1,566,729,0,0
-651,295,0,0,0,0,0,0,0,0,0,-1,573,729,0,0
-644,295,0,0,0,0,0,0,0,0,0,-1,580,729,0,0
-637,295,0,0,0,0,0,0,0,0,0,-1,587,729,0,0
-630,295,0,0,0,0,0,0,0,0,0,-1,594,729,0,0
-623,295,0,0,0,0,0,0,0,0,0,-1,601,729,0,0
-616,295,-13.4911,1.31738,0,0,0,0,0,0,0,-1,608,729,-13.4911,-1.3174
-609,295,-10.2864,0.832031,0,0,0,0,0,0,0,-1,615,729,-10.2863,-0.832034
-602,295,-8.19006,3.01587,0,0,0,0,0,0,0,-1,622,729,-8.19005,-3.01588
-595,295,-0.615479,-1.95447,0,0,0,0,0,0,0,-1,629,729,-0.615481,1.95445
-588,295,-7.98999,1.56903,0,0,0,0,0,0,0,-1,636,729,-7.98997,-1.56905
-581,295,-12.0404,0.150574,0,0,0,0,0,0,0,-1,643,729,-12.0404,-0.150604
-574,295,-12.1605,-0.0739746,0,0,0,0,0,0,0,-1,650,729,-12.1605,0.0739856
-567,295,-13.3559,0.000732422,0,0,0,0,0,0,0,-1,657,729,-13.3559,-0.000703936
-560,295,-13.5574,-0.528625,-0.0035664,0.00811187,-0.00221919,0.00851936,-0.00397389,-1.3892,0.0073704,0.0301829,664,729,-13.5574,0.528611
-553,295,-13.5966,-0.977173,-0.00205878,0.00616763,-0.00167643,0.00649615,-0.0023873,-1.37729,0.00530858,0.0179077,671,729,-13.5966,0.977162
-546,295,-13.6557,-1.42145,-0.00107541,0.0045013,-0.0011985,0.00474796,-0.00132208,-1.36782,0.0036859,0.0216128,678,729,-13.6557,1.42146
-539,295,-13.675,-1.78339,-0.000340573,0.0030769,-0.000763005,0.00323952,-0.000503188,-1.36081,0.00234547,0.0197143,685,729,-13.675,1.78339
-532,295,-13.6637,-2.18292,0.000336461,0.00191752,-9.20816e-05,0.00192286,0.000331116,-1.51282,0.00118703,0.0164141,692,729,-13.6637,2.1829
-525,295,-13.6583,-2.62286,0.000683934,0.00229216,0.00111592,0.0028635,0.000112592,1.0976,0.0018726,0.0160935,699,729,-13.6583,2.62285
-518,295,-13.6768,-3.02356,0.000578956,0.00350941,0.00216119,0.00465524,-0.000566873,1.08329,0.00330868,0.0122718,706,729,-13.6768,3.02354
-511,295,-13.6613,-3.43225,0.000384971,0.00601553,0.00345906,0.00766018,-0.00125967,1.12697,0.00557432,0.0100027,713,729,-13.6612,3.43226
-504,295,-13.6711,-3.84216,-7.53452e-05,0.00987427,0.00519452,0.0120919,-0.00229302,1.1673,0.00892438,0.0106564,720,729,-13.6711,3.84218
-497,295,-13.733,-4.18597,-0.00097765,0.0156977,0.0072462,0.0184065,-0.00368643,1.21306,0.0136665,0.0195935,727,729,-13.733,4.18598
-490,295,-13.7975,-4.50269,0,0,0,0,0,0,0,-1,734,729,-13.7976,4.50269
-483,295,-6.84503,-0.454651,0,0,0,0,0,0,0,-1,741,729,-6.84505,0.454639
-476,295,-13.1738,-0.836243,0,0,0,0,0,0,0,-1,748,729,-13.1738,0.836223
-469,295,-24.4053,-1.35907,0,0,0,0,0,0,0,-1,755,729,-24.4053,1.35906
-462,295,-17.9293,-0.330566,0,0,0,0,0,0,0,-1,762,729,-17.9293,0.330568
-455,295,-26.7327,-0.153992,0,0,0,0,0,0,0,-1,769,729,-26.7327,0.154017
-448,295,-22.1149,-0.403748,0,0,0,0,0,0,0,-1,776,729,-22.1149,0.403755
-441,295,-22.3615,-0.338623,0,0,0,0,0,0,0,-1,783,729,-22.3615,0.338623
-434,295,-22.5533,-0.324768,0,0,0,0,0,0,0,-1,790,729,-22.5534,0.324743
-427,295,0,0,0,0,0,0,0,0,0,-1,797,729,0,0
-420,295,0,0,0,0,0,0,0,0,0,-1,804,729,0,0
-413,295,0,0,0,0,0,0,0,0,0,-1,811,729,0,0
-406,295,0,0,0,0,0,0,0,0,0,-1,818,729,0,0
-399,295,0,0,0,0,0,0,0,0,0,-1,825,729,0,0
-392,295,0,0,0,0,0,0,0,0,0,-1,832,729,0,0
-385,295,0,0,0,0,0,0,0,0,0,-1,839,729,0,0
-378,295,0,0,0,0,0,0,0,0,0,-1,846,729,0,0
-371,295,0,0,0,0,0,0,0,0,0,-1,853,729,0,0
-364,295,0,0,0,0,0,0,0,0,0,-1,860,729,0,0
-357,295,0,0,0,0,0,0,0,0,0,-1,867,729,0,0
-350,295,0,0,0,0,0,0,0,0,0,-1,874,729,0,0
-343,295,0,0,0,0,0,0,0,0,0,-1,881,729,0,0
-336,295,0,0,0,0,0,0,0,0,0,-1,888,729,0,0
-329,295,0,0,0,0,0,0,0,0,0,-1,895,729,0,0
-322,295,0,0,0,0,0,0,0,0,0,-1,902,729,0,0
-315,295,0,0,0,0,0,0,0,0,0,-1,909,729,0,0
-308,295,0,0,0,0,0,0,0,0,0,-1,916,729,0,0
-301,295,0,0,0,0,0,0,0,0,0,-1,923,729,0,0
-294,295,0,0,0,0,0,0,0,0,0,-1,930,729,0,0
-287,295,0,0,0,0,0,0,0,0,0,-1,937,729,0,0
-280,295,0,0,0,0,0,0,0,0,0,-1,944,729,0,0
-273,295,0,0,0,0,0,0,0,0,0,-1,951,729,0,0
-266,295,0,0,0,0,0,0,0,0,0,-1,958,729,0,0
-259,295,0,0,0,0,0,0,0,0,0,-1,965,729,0,0
-252,295,0,0,0,0,0,0,0,0,0,-1,972,729,0,0
-245,295,0,0,0,0,0,0,0,0,0,-1,979,729,0,0
-238,295,0,0,0,0,0,0,0,0,0,-1,986,729,0,0
-231,295,0,0,0,0,0,0,0,0,0,-1,993,729,0,0
-224,295,0,0,0,0,0,0,0,0,0,-1,1000,729,0,0
-217,295,0,0,0,0,0,0,0,0,0,-1,1007,729,0,0
-210,295,0,0,0,0,0,0,0,0,0,-1,1014,729,0,0
-203,295,0,0,0,0,0,0,0,0,0,-1,1021,729,0,0
-196,295,0,0,0,0,0,0,0,0,0,-1,1028,729,0,0
-189,295,0,0,0,0,0,0,0,0,0,-1,1035,729,0,0
-182,295,0,0,0,0,0,0,0,0,0,-1,1042,729,0,0
-175,295,0,0,0,0,0,0,0,0,0,-1,1049,729,0,0
-168,295,0,0,0,0,0,0,0,0,0,-1,1056,729,0,0
-161,295,0,0,0,0,0,0,0,0,0,-1,1063,729,0,0
-154,295,0,0,0,0,0,0,0,0,0,-1,1070,729,0,0
-147,295,0,0,0,0,0,0,0,0,0,-1,1077,729,0,0
-140,295,0,0,0,0,0,0,0,0,0,-1,1084,729,0,0
-133,295,0,0,0,0,0,0,0,0,0,-1,1091,729,0,0
-126,295,0,0,0,0,0,0,0,0,0,-1,1098,729,0,0
-119,295,0,0,0,0,0,0,0,0,0,-1,1105,729,0,0
-112,295,0,0,0,0,0,0,0,0,0,-1,1112,729,0,0
-105,295,0,0,0,0,0,0,0,0,0,-1,1119,729,0,0
-98,295,0,0,0,0,0,0,0,0,0,-1,1126,729,0,0
-91,295,0,0,0,0,0,0,0,0,0,-1,1133,729,0,0
-84,295,0,0,0,0,0,0,0,0,0,-1,1140,729,0,0
-77,295,0,0,0,0,0,0,0,0,0,-1,1147,729,0,0
-70,295,0,0,0,0,0,0,0,0,0,-1,1154,729,0,0
-63,295,0,0,0,0,0,0,0,0,0,-1,1161,729,0,0
-56,295,0,0,0,0,0,0,0,0,0,-1,1168,729,0,0
-49,295,0,0,0,0,0,0,0,0,0,-1,1175,729,0,0
-42,295,0,0,0,0,0,0,0,0,0,-1,1182,729,0,0
-35,295,0,0,0,0,0,0,0,0,0,-1,1189,729,0,0
-28,295,0,0,0,0,0,0,0,0,0,-1,1196,729,0,0
-21,295,0,0,0,0,0,0,0,0,0,-1,1203,729,0,0
-14,295,0,0,0,0,0,0,0,0,0,-1,1210,729,0,0
-7,295,0,0,0,0,0,0,0,0,0,-1,1217,729,0,0
0,295,0,0,0,0,0,0,0,0,0,-1,1224,729,0,0
7,295,0,0,0,0,0,0,0,0,0,-1,1231,729,0,0
14,295,0,0,0,0,0,0,0,0,0,-1,1238,729,0,0
21,295,0,0,0,0,0,0,0,0,0,-1,1245,729,0,0
28,295,0,0,0,0,0,0,0,0,0,-1,1252,729,0,0
35,295,0,0,0,0,0,0,0,0,0,-1,1259,729,0,0
42,295,0,0,0,0,0,0,0,0,0,-1,1266,729,0,0
49,295,0,0,0,0,0,0,0,0,0,-1,1273,729,0,0
56,295,0,0,0,0,0,0,0,0,0,-1,1280,729,0,0
63,295,0,0,0,0,0,0,0,0,0,-1,1287,729,0,0
70,295,0,0,0,0,0,0,0,0,0,-1,1294,729,0,0
77,295,0,0,0,0,0,0,0,0,0,-1,1301,729,0,0
84,295,0,0,0,0,0,0,0,0,0,-1,1308,729,0,0
91,295,0,0,0,0,0,0,0,0,0,-1,1315,729,0,0
98,295,0,0,0,0,0,0,0,0,0,-1,1322,729,0,0
105,295,0,0,0,0,0,0,0,0,0,-1,1329,729,0,0
112,295,0,0,0,0,0,0,0,0,0,-1,1336,729,0,0
119,295,0,0,0,0,0,0,0,0,0,-1,1343,729,0,0
126,295,0,0,0,0,0,0,0,0,0,-1,1350,729,0,0
133,295,0,0,0,0,0,0,0,0,0,-1,1357,729,0,0
140,295,0,0,0,0,0,0,0,0,0,-1,1364,729,0,0
147,295,0,0,0,0,0,0,0,0,0,-1,1371,729,0,0
154,295,0,0,0,0,0,0,0,0,0,-1,1378,729,0,0
161,295,0,0,0,0,0,0,0,0,0,-1,1385,729,0,0
168,295,0,0,0,0,0,0,0,0,0,-1,1392,729,0,0
175,295,0,0,0,0,0,0,0,0,0,-1,1399,729,0,0
182,295,0,0,0,0,0,0,0,0,0,-1,1406,729,0,0
189,295,0,0,0,0,0,0,0,0,0,-1,1413,729,0,0
196,295,0,0,0,0,0,0,0,0,0,-1,1420,729,0,0
203,295,0,0,0,0,0,0,0,0,0,-1,1427,729,0,0
210,295,0,0,0,0,0,0,0,0,0,-1,1434,729,0,0
217,295,0,0,0,0,0,0,0,0,0,-1,1441,729,0,0
224,295,0,0,0,0,0,0,0,0,0,-1,1448,729,0,0
231,295,0,0,0,0,0,0,0,0,0,-1,1455,729,0,0
238,295,0,0,0,0,0,0,0,0,0,-1,1462,729,0,0
245,295,0,0,0,0,0,0,0,0,0,-1,1469,729,0,0
252,295,0,0,0,0,0,0,0,0,0,-1,1476,729,0,0
259,295,0,0,0,0,0,0,0,0,0,-1,1483,729,0,0
266,295,0,0,0,0,0,0,0,0,0,-1,1490,729,0,0
273,295,0,0,0,0,0,0,0,0,0,-1,1497,729,0,0
280,295,0,0,0,0,0,0,0,0,0,-1,1504,729,0,0
287,295,0,0,0,0,0,0,0,0,0,-1,1511,729,0,0
294,295,0,0,0,0,0,0,0,0,0,-1,1518,729,0,0
301,295,0,0,0,0,0,0,0,0,0,-1,1525,729,0,0
308,295,0,0,0,0,0,0,0,0,0,-1,1532,729,0,0
315,295,0,0,0,0,0,0,0,0,0,-1,1539,729,0,0
322,295,0,0,0,0,0,0,0,0,0,-1,1546,729,0,0
329,295,0,0,0,0,0,0,0,0,0,-1,1553,729,0,0
336,295,0,0,0,0,0,0,0,0,0,-1,1560,729,0,0
343,295,0,0,0,0,0,0,0,0,0,-1,1567,729,0,0
350,295,0,0,0,0,0,0,0,0,0,-1,1574,729,0,0
357,295,0,0,0,0,0,0,0,0,0,-1,1581,729,0,0
364,295,0,0,0,0,0,0,0,0,0,-1,1588,729,0,0
371,295,0,0,0,0,0,0,0,0,0,-1,1595,729,0,0
378,295,0,0,0,0,0,0,0,0,0,-1,1602,729,0,0
385,295,0,0,0,0,0,0,0,0,0,-1,1609,729,0,0
392,295,0,0,0,0,0,0,0,0,0,-1,1616,729,0,0
399,295,0,0,0,0,0,0,0,0,0,-1,1623,729,0,0
406,295,0,0,0,0,0,0,0,0,0,-1,1630,729,0,0
413,295,0,0,0,0,0,0,0,0,0,-1,1637,729,0,0
420,295,0,0,0,0,0,0,0,0,0,-1,1644,729,0,0
427,295,0,0,0,0,0,0,0,0,0,-1,1651,729,0,0
434,295,0,0,0,0,0,0,0,0,0,-1,1658,729,0,0
441,295,0,0,0,0,0,0,0,0,0,-1,1665,729,0,0
448,295,0,0,0,0,0,0,0,0,0,-1,1672,729,0,0
455,295,0,0,0,0,0,0,0,0,0,-1,1679,729,0,0
462,295,0,0,0,0,0,0,0,0,0,-1,1686,729,0,0
469,295,0,0,0,0,0,0,0,0,0,-1,1693,729,0,0
476,295,0,0,0,0,0,0,0,0,0,-1,1700,729,0,0
483,295,0,0,0,0,0,0,0,0,0,-1,1707,729,0,0
490,295,0,0,0,0,0,0,0,0,0,-1,1714,729,0,0
497,295,0,0,0,0,0,0,0,0,0,-1,1721,729,0,0
504,295,0,0,0,0,0,0,0,0,0,-1,1728,729,0,0
511,295,0,0,0,0,0,0,0,0,0,-1,1735,729,0,0
518,295,0,0,0,0,0,0,0,0,0,-1,1742,729,0,0
525,295,0,0,0,0,0,0,0,0,0,-1,1749,729,0,0
532,295,0,0,0,0,0,0,0,0,0,-1,1756,729,0,0
539,295,0,0,0,0,0,0,0,0,0,-1,1763,729,0,0
546,295,34.0127,2.05957,0,0,0,0,0,0,0,-1,1770,729,34.0127,-2.05956
553,295,32.5665,3.8656,0,0,0,0,0,0,0,-1,1777,729,32.5665,-3.86559
560,295,32.4801,4.1156,0.00458221,0.0552064,-0.0379679,0.0755262,-0.0157376,-1.0794,0.0563342,0.0437295,1784,729,32.4801,-4.11557
567,295,32.7606,4.43457,-7.11636e-05,0.0510619,-0.0319108,0.0663848,-0.0153941,-1.12313,0.0501813,0.0445527,1791,729,32.7606,-4.43456
574,295,33.1528,4.70282,0,0,0,0,0,0,0,-1,1798,729,33.1529,-4.70284
581,295,27.9486,4.94354,0,0,0,0,0,0,0,-1,1805,729,27.9486,-4.94353
588,295,27.4762,6.37732,0,0,0,0,0,0,0,-1,1812,729,27.4762,-6.37732
595,295,27.2102,6.99121,0,0,0,0,0,0,0,-1,1819,729,27.2103,-6.99121
602,295,26.9065,7.82141,0,0,0,0,0,0,0,-1,1826,729,26.9064,-7.8214
609,295,11.7737,2.19989,0,0,0,0,0,0,0,-1,1833,729,11.7736,-2.19988
616,295,22.1517,-2.84692,0,0,0,0,0,0,0,-1,1840,729,22.1518,2.84693
623,295,22.0527,-2.41888,0.00081422,0.0122986,-0.00450552,0.0138552,-0.000742394,-1.23814,0.00949392,0.0345265,1847,729,22.0527,2.41891
630,295,21.9838,-1.97687,0.00253197,0.00772753,-0.00323428,0.00927813,0.00098137,-1.12374,0.00588563,0.0131532,1854,729,21.9838,1.97689
637,295,21.9778,-1.52429,0.00338331,0.00388607,-0.00195673,0.0056075,0.00166188,-0.849283,0.00332578,0.0143415,1861,729,21.9778,1.52432
644,295,22.0012,-1.08173,0.00269578,0.00131412,-0.000853101,0.00310269,0.000907209,-0.445057,0.00184209,0.012789,1868,729,22.0012,1.08171
651,295,21.9916,-0.638123,0.000811095,0.000287613,-0.000106056,0.000831765,0.000266943,-0.192488,0.000490378,0.0131919,1875,729,21.9916,0.638121
658,295,21.979,-0.183105,-0.000546244,0.000112362,-1.24019e-05,0.000112596,-0.000546478,-1.55197,0.000407074,0.0122767,1882,729,21.979,0.183124
665,295,21.9601,0.259094,-0.0013443,0.000488546,-0.000196733,0.000509425,-0.00136518,-1.46506,0.00111926,0.0108333,1889,729,21.9601,-0.259066
672,295,21.9342,0.689453,-0.00226871,0.000869282,-0.000425332,0.00092591,-0.00232534,-1.43843,0.0019342,0.0123243,1896,729,21.9342,-0.68943
679,295,21.9169,1.13605,-0.00300018,0.00121723,-0.000587359,0.00129751,-0.00308046,-1.43497,0.00259655,0.00969491,1903,729,21.9168,-1.13605
686,295,21.9406,1.56348,-0.00353549,0.00160791,-0.000660494,0.00169137,-0.00361896,-1.4451,0.00313252,0.0100701,1910,729,21.9405,-1.56349
693,295,21.9141,1.93964,-0.00355548,0.00195266,-0.00059073,0.00201531,-0.00361813,-1.46515,0.00329605,0.0354163,1917,729,21.914,-1.93966
700,295,21.9758,2.35773,-0.00270688,0.00225733,-0.000251415,0.00227003,-0.00271958,-1.52032,0.00288465,0.0496042,1924,729,21.9758,-2.35771
707,295,22.2661,3.05206,0,0,0,0,0,0,0,-1,1931,729,22.2662,-3.05207
714,295,17.4906,4.63068,0,0,0,0,0,0,0,-1,1938,729,17.4906,-4.63066
721,295,18.3792,5.32281,0,0,0,0,0,0,0,-1,1945,729,18.3791,-5.32283
728,295,17.379,3.74866,0,0,0,0,0,0,0,-1,1952,729,17.379,-3.74863
735,295,0,0,0,0,0,0,0,0,0,-1,1959,729,0,0
742,295,0,0,0,0,0,0,0,0,0,-1,1966,729,0,0
749,295,0,0,0,0,0,0,0,0,0,-1,1973,729,0,0
756,295,0,0,0,0,0,0,0,0,0,-1,1980,729,0,0
763,295,0,0,0,0,0,0,0,0,0,-1,1987,729,0,0
770,295,0,0,0,0,0,0,0,0,0,-1,1994,729,0,0
777,295,0,0,0,0,0,0,0,0,0,-1,2001,729,0,0
784,295,0,0,0,0,0,0,0,0,0,-1,2008,729,0,0
791,295,0,0,0,0,0,0,0,0,0,-1,2015,729,0,0
798,295,0,0,0,0,0,0,0,0,0,-1,2022,729,0,0
805,295,0,0,0,0,0,0,0,0,0,-1,2029,729,0,0
812,295,0,0,0,0,0,0,0,0,0,-1,2036,729,0,0
-700,288,0,0,0,0,0,0,0,0,0,-1,524,736,0,0
-693,288,0,0,0,0,0,0,0,0,0,-1,531,736,0,0
-686,288,0,0,0,0,0,0,0,0,0,-1,538,736,0,0
-679,288,0,0,0,0,0,0,0,0,0,-1,545,736,0,0
-672,288,0,0,0,0,0,0,0,0,0,-1,552,736,0,0
-665,288,0,0,0,0,0,0,0,0,0,-1,559,736,0,0
-658,288,0,0,0,0,0,0,0,0,0,-1,566,736,0,0
-651,288,0,0,0,0,0,0,0,0,0,-1,573,736,0,0
-644,288,0,0,0,0,0,0,0,0,0,-1,580,736,0,0
-637,288,0,0,0,0,0,0,0,0,0,-1,587,736,0,0
-630,288,0,0,0,0,0,0,0,0,0,-1,594,736,0,0
-623,288,0,0,0,0,0,0,0,0,0,-1,601,736,0,0
-616,288,-11.7584,2.4425,0,0,0,0,0,0,0,-1,608,736,-11.7584,-2.44251
-609,288,-10.3007,2.32178,0,0,0,0,0,0,0,-1,615,736,-10.3007,-2.32178
-602,288,-10.1458,-1.85559,0,0,0,0,0,0,0,-1,622,736,-10.1458,1.85556
-595,288,-7.63208,1.81769,0,0,0,0,0,0,0,-1,629,736,-7.63205,-1.81766
-588,288,-8.19269,1.50598,0,0,0,0,0,0,0,-1,636,736,-8.19268,-1.50601
-581,288,-13.1915,0.659241,0,0,0,0,0,0,0,-1,643,736,-13.1915,-0.659228
-574,288,-13.8395,0.237244,0,0,0,0,0,0,0,-1,650,736,-13.8395,-0.237267
-567,288,-13.8113,-0.142395,-0.00693466,0.00734711,-0.00126289,0.00745793,-0.00704548,-1.48327,0.00837467,0.0331105,657,736,-13.8113,0.142384
-560,288,-14.0371,-0.574341,-0.00471326,0.00552117,-0.000774271,0.00557941,-0.00477151,-1.49571,0.00598217,0.0162091,664,736,-14.0371,0.574352
-553,288,-14.0151,-0.940186,-0.00317702,0.00398498,-0.000333153,0.00400044,-0.00319248,-1.52441,0.00416156,0.018944,671,736,-14.015,0.940183
-546,288,-14.0341,-1.37109,-0.0020974,0.00267745,2.49921e-05,0.00267759,-0.00209753,1.56556,0.00276368,0.021044,678,736,-14.0341,1.3711
-539,288,-14.0444,-1.76257,-0.00120334,0.00155526,0.000388152,0.00160884,-0.00125692,1.43364,0.0016587,0.0178723,685,736,-14.0444,1.76255
-532,288,-14.0208,-2.16998,-0.000251721,0.000763235,0.00105998,0.00143096,-0.000919442,1.00865,0.00136767,0.0139831,692,736,-14.0208,2.16996
-525,288,-14.0643,-2.59198,0.000203864,0.00217925,0.00250291,0.0038823,-0.00149918,0.973328,0.00320694,0.0128444,699,736,-14.0644,2.59199
-518,288,-14.1083,-2.99506,4.79395e-05,0.00433281,0.00359764,0.00637762,-0.00199687,1.05395,0.00505071,0.0126763,706,736,-14.1083,2.99505
-511,288,-14.0944,-3.41046,-0.000192599,0.00788932,0.00495223,0.0102401,-0.00254335,1.1276,0.00781371,0.00969361,713,736,-14.0944,3.41043
-504,288,-14.096,-3.81158,-0.000725924,0.0129412,0.00681156,0.0157562,-0.00354093,1.1789,0.011862,0.010482,720,736,-14.096,3.81161
-497,288,-14.1076,-4.07635,-0.00178602,0.0198766,0.00886053,0.0230391,-0.00494851,1.22797,0.0172472,0.029348,727,736,-14.1076,4.07634
-490,288,-14.0435,-4.30011,0,0,0,0,0,0,0,-1,734,736,-14.0435,4.30009
-483,288,-17.3287,0.564758,0,0,0,0,0,0,0,-1,741,736,-17.3287,-0.56477
-476,288,-23.9319,-1.89484,0,0,0,0,0,0,0,-1,748,736,-23.9319,1.89483
-469,288,-24.4758,-0.463806,0,0,0,0,0,0,0,-1,755,736,-24.4758,0.463781
-462,288,-26.8268,-0.385559,0,0,0,0,0,0,0,-1,762,736,-26.8268,0.385578
-455,288,-26.5945,-0.0354614,0,0,0,0,0,0,0,-1,769,736,-26.5945,0.0354822
-448,288,-26.5353,0.0806274,0,0,0,0,0,0,0,-1,776,736,-26.5353,-0.0805996
-441,288,-25.7227,0.574524,0,0,0,0,0,0,0,-1,783,736,-25.7226,-0.574494
-434,288,-22.8825,0.392578,0,0,0,0,0,0,0,-1,790,736,-22.8825,-0.392573
-427,288,0,0,0,0,0,0,0,0,0,-1,797,736,0,0
-420,288,0,0,0,0,0,0,0,0,0,-1,804,736,0,0
-413,288,0,0,0,0,0,0,0,0,0,-1,811,736,0,0
-406,288,0,0,0,0,0,0,0,0,0,-1,818,736,0,0
-399,288,0,0,0,0,0,0,0,0,0,-1,825,736,0,0
-392,288,0,0,0,0,0,0,0,0,0,-1,832,736,0,0
-385,288,0,0,0,0,0,0,0,0,0,-1,839,736,0,0
-378,288,0,0,0,0,0,0,0,0,0,-1,846,736,0,0
-371,288,0,0,0,0,0,0,0,0,0,-1,853,736,0,0
-364,288,0,0,0,0,0,0,0,0,0,-1,860,736,0,0
-357,288,0,0,0,0,0,0,0,0,0,-1,867,736,0,0
-350,288,0,0,0,0,0,0,0,0,0,-1,874,736,0,0
-343,288,0,0,0,0,0,0,0,0,0,-1,881,736,0,0
-336,288,0,0,0,0,0,0,0,0,0,-1,888,736,0,0
-329,288,0,0,0,0,0,0,0,0,0,-1,895,736,0,0
-322,288,0,0,0,0,0,0,0,0,0,-1,902,736,0,0
-315,288,0,0,0,0,0,0,0,0,0,-1,909,736,0,0
-308,288,0,0,0,0,0,0,0,0,0,-1,916,736,0,0
-301,288,0,0,0,0,0,0,0,0,0,-1,923,736,0,0
-294,288,0,0,0,0,0,0,0,0,0,-1,930,736,0,0
-287,288,0,0,0,0,0,0,0,0,0,-1,937,736,0,0
-280,288,0,0,0,0,0,0,0,0,0,-1,944,736,0,0
-273,288,0,0,0,0,0,0,0,0,0,-1,951,736,0,0
-266,288,0,0,0,0,0,0,0,0,0,-1,958,736,0,0
-259,288,0,0,0,0,0,0,0,0,0,-1,965,736,0,0
-252,288,0,0,0,0,0,0,0,0,0,-1,972,736,0,0
-245,288,0,0,0,0,0,0,0,0,0,-1,979,736,0,0
-238,288,0,0,0,0,0,0,0,0,0,-1,986,736,0,0
-231,288,0,0,0,0,0,0,0,0,0,-1,993,736,0,0
-224,288,0,0,0,0,0,0,0,0,0,-1,1000,736,0,0
-217,288,0,0,0,0,0,0,0,0,0,-1,1007,736,0,0
-210,288,0,0,0,0,0,0,0,0,0,-1,1014,736,0,0
-203,288,0,0,0,0,0,0,0,0,0,-1,1021,736,0,0
-196,288,0,0,0,0,0,0,0,0,0,-1,1028,736,0,0
-189,288,0,0,0,0,0,0,0,0,0,-1,1035,736,0,0
-182,288,0,0,0,0,0,0,0,0,0,-1,1042,736,0,0
-175,288,0,0,0,0,0,0,0,0,0,-1,1049,736,0,0
-168,288,0,0,0,0,0,0,0,0,0,-1,1056,736,0,0
-161,288,0,0,0,0,0,0,0,0,0,-1,1063,736,0,0
-154,288,0,0,0,0,0,0,0,0,0,-1,1070,736,0,0
-147,288,0,0,0,0,0,0,0,0,0,-1,1077,736,0,0
-140,288,0,0,0,0,0,0,0,0,0,-1,1084,736,0,0
-133,288,0,0,0,0,0,0,0,0,0,-1,1091,736,0,0
-126,288,0,0,0,0,0,0,0,0,0,-1,1098,736,0,0
-119,288,0,0,0,0,0,0,0,0,0,-1,1105,736,0,0
-112,288,0,0,0,0,0,0,0,0,0,-1,1112,736,0,0
-105,288,0,0,0,0,0,0,0,0,0,-1,1119,736,0,0
-98,288,0,0,0,0,0,0,0,0,0,-1,1126,736,0,0
-91,288,0,0,0,0,0,0,0,0,0,-1,1133,736,0,0
-84,288,0,0,0,0,0,0,0,0,0,-1,1140,736,0,0
-77,288,0,0,0,0,0,0,0,0,0,-1,1147,736,0,0
-70,288,0,0,0,0,0,0,0,0,0,-1,1154,736,0,0
-63,288,0,0,0,0,0,0,0,0,0,-1,1161,736,0,0
-56,288,0,0,0,0,0,0,0,0,0,-1,1168,736,0,0
-49,288,0,0,0,0,0,0,0,0,0,-1,1175,736,0,0
-42,288,0,0,0,0,0,0,0,0,0,-1,1182,736,0,0
-35,288,0,0,0,0,0,0,0,0,0,-1,1189,736,0,0
-28,288,0,0,0,0,0,0,0,0,0,-1,1196,736,0,0
-21,288,0,0,0,0,0,0,0,0,0,-1,1203,736,0,0
-14,288,0,0,0,0,0,0,0,0,0,-1,1210,736,0,0
-7,288,0,0,0,0,0,0,0,0,0,-1,1217,736,0,0
0,288,0,0,0,0,0,0,0,0,0,-1,1224,736,0,0
7,288,0,0,0,0,0,0,0,0,0,-1,1231,736,0,0
14,288,0,0,0,0,0,0,0,0,0,-1,1238,736,0,0
21,288,0,0,0,0,0,0,0,0,0,-1,1245,736,0,0
28,288,0,0,0,0,0,0,0,0,0,-1,1252,736,0,0
35,288,0,0,0,0,0,0,0,0,0,-1,1259,736,0,0
42,288,0,0,0,0,0,0,0,0,0,-1,1266,736,0,0
49,288,0,0,0,0,0,0,0,0,0,-1,1273,736,0,0
56,288,0,0,0,0,0,0,0,0,0,-1,1280,736,0,0
63,288,0,0,0,0,0,0,0,0,0,-1,1287,736,0,0
70,288,0,0,0,0,0,0,0,0,0,-1,1294,736,0,0
77,288,0,0,0,0,0,0,0,0,0,-1,1301,736,0,0
84,288,0,0,0,0,0,0,0,0,0,-1,1308,736,0,0
91,288,0,0,0,0,0,0,0,0,0,-1,1315,736,0,0
98,288,0,0,0,0,0,0,0,0,0,-1,1322,736,0,0
105,288,0,0,0,0,0,0,0,0,0,-1,1329,736,0,0
112,288,0,0,0,0,0,0,0,0,0,-1,1336,736,0,0
119,288,0,0,0,0,0,0,0,0,0,-1,1343,736,0,0
126,288,0,0,0,0,0,0,0,0,0,-1,1350,736,0,0
133,288,0,0,0,0,0,0,0,0,0,-1,1357,736,0,0
140,288,0,0,0,0,0,0,0,0,0,-1,1364,736,0,0
147,288,0,0,0,0,0,0,0,0,0,-1,1371,736,0,0
154,288,0,0,0,0,0,0,0,0,0,-1,1378,736,0,0
161,288,0,0,0,0,0,0,0,0,0,-1,1385,736,0,0
168,288,0,0,0,0,0,0,0,0,0,-1,1392,736,0,0
175,288,0,0,0,0,0,0,0,0,0,-1,1399,736,0,0
182,288,0,0,0,0,0,0,0,0,0,-1,1406,736,0,0
189,288,0,0,0,0,0,0,0,0,0,-1,1413,736,0,0
196,288,0,0,0,0,0,0,0,0,0,-1,1420,736,0,0
203,288,0,0,0,0,0,0,0,0,0,-1,1427,736,0,0
210,288,0,0,0,0,0,0,0,0,0,-1,1434,736,0,0
217,288,0,0,0,0,0,0,0,0,0,-1,1441,736,0,0
224,288,0,0,0,0,0,0,0,0,0,-1,1448,736,0,0
231,288,0,0,0,0,0,0,0,0,0,-1,1455,736,0,0
238,288,0,0,0,0,0,0,0,0,0,-1,1462,736,0,0
245,288,0,0,0,0,0,0,0,0,0,-1,1469,736,0,0
252,288,0,0,0,0,0,0,0,0,0,-1,1476,736,0,0
259,288,0,0,0,0,0,0,0,0,0,-1,1483,736,0,0
266,288,0,0,0,0,0,0,0,0,0,-1,1490,736,0,0
273,288,0,0,0,0,0,0,0,0,0,-1,1497,736,0,0
280,288,0,0,0,0,0,0,0,0,0,-1,1504,736,0,0
287,288,0,0,0,0,0,0,0,0,0,-1,1511,736,0,0
294,288,0,0,0,0,0,0,0,0,0,-1,1518,736,0,0
301,288,0,0,0,0,0,0,0,0,0,-1,1525,736,0,0
308,288,0,0,0,0,0,0,0,0,0,-1,1532,736,0,0
315,288,0,0,0,0,0,0,0,0,0,-1,1539,736,0,0
322,288,0,0,0,0,0,0,0,0,0,-1,1546,736,0,0
329,288,0,0,0,0,0,0,0,0,0,-1,1553,736,0,0
336,288,0,0,0,0,0,0,0,0,0,-1,1560,736,0,0
343,288,0,0,0,0,0,0,0,0,0,-1,1567,736,0,0
350,288,0,0,0,0,0,0,0,0,0,-1,1574,736,0,0
357,288,0,0,0,0,0,0,0,0,0,-1,1581,736,0,0
364,288,0,0,0,0,0,0,0,0,0,-1,1588,736,0,0
371,288,0,0,0,0,0,0,0,0,0,-1,1595,736,0,0
378,288,0,0,0,0,0,0,0,0,0,-1,1602,736,0,0
385,288,0,0,0,0,0,0,0,0,0,-1,1609,736,0,0
392,288,0,0,0,0,0,0,0,0,0,-1,1616,736,0,0
399,288,0,0,0,0,0,0,0,0,0,-1,1623,736,0,0
406,288,0,0,0,0,0,0,0,0,0,-1,1630,736,0,0
413,288,0,0,0,0,0,0,0,0,0,-1,1637,736,0,0
420,288,0,0,0,0,0,0,0,0,0,-1,1644,736,0,0
427,288,0,0,0,0,0,0,0,0,0,-1,1651,736,0,0
434,288,0,0,0,0,0,0,0,0,0,-1,1658,736,0,0
441,288,0,0,0,0,0,0,0,0,0,-1,1665,736,0,0
448,288,0,0,0,0,0,0,0,0,0,-1,1672,736,0,0
455,288,0,0,0,0,0,0,0,0,0,-1,1679,736,0,0
462,288,0,0,0,0,0,0,0,0,0,-1,1686,736,0,0
469,288,0,0,0,0,0,0,0,0,0,-1,1693,736,0,0
476,288,0,0,0,0,0,0,0,0,0,-1,1700,736,0,0
483,288,0,0,0,0,0,0,0,0,0,-1,1707,736,0,0
490,288,0,0,0,0,0,0,0,0,0,-1,1714,736,0,0
497,288,0,0,0,0,0,0,0,0,0,-1,1721,736,0,0
504,288,0,0,0,0,0,0,0,0,0,-1,1728,736,0,0
511,288,0,0,0,0,0,0,0,0,0,-1,1735,736,0,0
518,288,0,0,0,0,0,0,0,0,0,-1,1742,736,0,0
525,288,0,0,0,0,0,0,0,0,0,-1,1749,736,0,0
532,288,0,0,0,0,0,0,0,0,0,-1,1756,736,0,0
539,288,0,0,0,0,0,0,0,0,0,-1,1763,736,0,0
546,288,0,0,0,0,0,0,0,0,0,-1,1770,736,0,0
553,288,33.639,3.25214,0,0,0,0,0,0,0,-1,1777,736,33.639,-3.25215
560,288,33.6161,3.7821,-0.00531269,0.0597587,-0.0338138,0.0741479,-0.0197018,-1.16847,0.0571428,0.0397913,1784,736,33.6161,-3.78213
567,288,33.799,4.34521,-0.0060201,0.0573203,-0.0304385,0.0695762,-0.018276,-1.18801,0.0535265,0.0435815,1791,736,33.7989,-4.34521
574,288,34.0544,4.37225,0,0,0,0,0,0,0,-1,1798,736,34.0545,-4.37223
581,288,33.6976,4.67633,0,0,0,0,0,0,0,-1,1805,736,33.6976,-4.67631
588,288,33.3737,5.09076,0,0,0,0,0,0,0,-1,1812,736,33.3737,-5.09076
595,288,27.4215,6.6875,0,0,0,0,0,0,0,-1,1819,736,27.4215,-6.68751
602,288,26.7634,7.61279,0,0,0,0,0,0,0,-1,1826,736,26.7635,-7.61279
609,288,17.5223,4.86414,0,0,0,0,0,0,0,-1,1833,736,17.5223,-4.86412
616,288,13.4886,0.801331,0,0,0,0,0,0,0,-1,1840,736,13.4886,-0.80132
623,288,22.3833,-2.40668,0,0,0,0,0,0,0,-1,1847,736,22.3833,2.40667
630,288,22.406,-1.95996,0.00294578,0.00888788,-0.00340826,0.0104383,0.0013954,-1.14388,0.0065435,0.0248374,1854,736,22.4061,1.95996
637,288,22.4462,-1.51666,0.00383681,0.00499328,-0.00217789,0.00666839,0.0021617,-0.915156,0.00392854,0.0105849,1861,736,22.4462,1.51666
644,288,22.4554,-1.06964,0.00320591,0.00198478,-0.00094673,0.00372188,0.00146881,-0.499,0.00216467,0.00965705,1868,736,22.4554,1.06967
651,288,22.436,-0.626343,0.00121157,0.000486066,2.08093e-05,0.00121217,0.00048547,0.0286511,0.000704449,0.0119302,1875,736,22.4361,0.62632
658,288,22.4236,-0.174194,-7.15635e-05,5.11258e-05,0.000202884,0.000201737,-0.000222175,0.93221,0.00024484,0.0168908,1882,736,22.4236,0.174169
665,288,22.4059,0.264771,-0.000549713,0.000386999,3.38614e-05,0.000388222,-0.000550936,1.53471,0.000544929,0.0164505,1889,736,22.4059,-0.26476
672,288,22.3861,0.693481,-0.00111096,0.000759643,-0.000140912,0.000770198,-0.00112151,-1.49603,0.00109844,0.0145712,1896,736,22.3861,-0.693489
679,288,22.385,1.13531,-0.00143284,0.00107172,-0.000193751,0.00108662,-0.00144774,-1.49405,0.00146816,0.0125341,1903,736,22.3851,-1.13529
686,288,22.3812,1.52844,-0.0015754,0.00146588,-0.000147651,0.00147303,-0.00158256,-1.5224,0.00176452,0.0103897,1910,736,22.3812,-1.52843
693,288,22.3879,1.99347,-0.00112803,0.00178843,7.03742e-05,0.00179013,-0.00112973,1.54669,0.00170009,0.0175823,1917,736,22.388,-1.99347
700,288,22.3024,2.49994,0.000210642,0.00203591,0.000568347,0.00219842,4.81392e-05,1.2923,0.00144983,0.037894,1924,736,22.3024,-2.49993
707,288,22.3484,3.03589,0,0,0,0,0,0,0,-1,1931,736,22.3484,-3.03589
714,288,23.0149,3.82544,0,0,0,0,0,0,0,-1,1938,736,23.0149,-3.82541
721,288,18.0732,3.69385,0,0,0,0,0,0,0,-1,1945,736,18.0732,-3.69387
728,288,19.3208,3.91455,0,0,0,0,0,0,0,-1,1952,736,19.3209,-3.91455
735,288,18.7712,3.51312,0,0,0,0,0,0,0,-1,1959,736,18.7713,-3.51309
742,288,0,0,0,0,0,0,0,0,0,-1,1966,736,0,0
749,288,0,0,0,0,0,0,0,0,0,-1,1973,736,0,0
756,288,0,0,0,0,0,0,0,0,0,-1,1980,736,0,0
763,288,0,0,0,0,0,0,0,0,0,-1,1987,736,0,0
770,288,0,0,0,0,0,0,0,0,0,-1,1994,736,0,0
777,288,0,0,0,0,0,0,0,0,0,-1,2001,736,0,0
784,288,0,0,0,0,0,0,0,0,0,-1,2008,736,0,0
791,288,0,0,0,0,0,0,0,0,0,-1,2015,736,0,0
798,288,0,0,0,0,0,0,0,0,0,-1,2022,736,0,0
805,288,0,0,0,0,0,0,0,0,0,-1,2029,736,0,0
812,288,0,0,0,0,0,0,0,0,0,-1,2036,736,0,0
-700,281,0,0,0,0,0,0,0,0,0,-1,524,743,0,0
-693,281,0,0,0,0,0,0,0,0,0,-1,531,743,0,0
-686,281,0,0,0,0,0,0,0,0,0,-1,538,743,0,0
-679,281,0,0,0,0,0,0,0,0,0,-1,545,743,0,0
-672,281,0,0,0,0,0,0,0,0,0,-1,552,743,0,0
-665,281,0,0,0,0,0,0,0,0,0,-1,559,743,0,0
-658,281,0,0,0,0,0,0,0,0,0,-1,566,743,0,0
-651,281,0,0,0,0,0,0,0,0,0,-1,573,743,0,0
-644,281,0,0,0,0,0,0,0,0,0,-1,580,743,0,0
-637,281,0,0,0,0,0,0,0,0,0,-1,587,743,0,0
-630,281,0,0,0,0,0,0,0,0,0,-1,594,743,0,0
-623,281,-19.1697,5.67017,0,0,0,0,0,0,0,-1,601,743,-19.1697,-5.67019
-616,281,-11.5906,2.6853,0,0,0,0,0,0,0,-1,608,743,-11.5906,-2.68529
-609,281,-16.1972,4.14838,0,0,0,0,0,0,0,-1,615,743,-16.1972,-4.14837
-602,281,-14.6906,3.64813,0,0,0,0,0,0,0,-1,622,743,-14.6905,-3.64816
-595,281,-10.4797,-1.07404,0,0,0,0,0,0,0,-1,629,743,-10.4798,1.07402
-588,281,-13.277,1.49817,0,0,0,0,0,0,0,-1,636,743,-13.2771,-1.49817
-581,281,-14.2498,1.10492,0,0,0,0,0,0,0,-1,643,743,-14.2497,-1.10491
-574,281,-14.2819,0.239868,-0.00980608,0.00711992,-0.00133649,0.00722481,-0.00991096,-1.49248,0.00993378,0.0345132,650,743,-14.2819,-0.239866
-567,281,-14.4307,-0.135681,-0.0069321,0.00536026,-0.000691216,0.005399,-0.00697085,-1.5148,0.00716093,0.0169407,657,743,-14.4308,0.135707
-560,281,-14.4785,-0.545227,-0.00493444,0.00379415,-0.000161329,0.00379714,-0.00493743,-1.55232,0.0050572,0.00871107,664,743,-14.4785,0.545203
-553,281,-14.4574,-0.942017,-0.00351878,0.00247452,0.000297686,0.00248927,-0.00353353,1.52129,0.00349465,0.0140717,671,743,-14.4574,0.942023
-546,281,-14.4445,-1.31451,-0.00248792,0.00138305,0.000650312,0.00148938,-0.00259425,1.40872,0.00238627,0.0162542,678,743,-14.4445,1.31453
-539,281,-14.4589,-1.7226,-0.0015635,0.000448341,0.00109259,0.000927558,-0.00204271,1.15746,0.00175471,0.0136571,685,743,-14.4588,1.72259
-532,281,-14.4714,-2.12128,-0.000480925,-9.38399e-06,0.00189929,0.00166871,-0.00215902,0.84715,0.00221598,0.0128983,692,743,-14.4714,2.12125
-525,281,-14.4993,-2.54669,-9.17966e-05,0.00247862,0.00369481,0.00510537,-0.00271854,0.952774,0.00458667,0.0154508,699,743,-14.4993,2.54667
-518,281,-14.5072,-2.99701,-0.000421453,0.00540422,0.00485669,0.0081546,-0.00317183,1.05552,0.00674695,0.0127682,706,743,-14.5072,2.99701
-511,281,-14.5123,-3.42529,-0.000748948,0.00973747,0.00625829,0.0126587,-0.00367014,1.13408,0.0098921,0.0113566,713,743,-14.5123,3.42529
-504,281,-14.5487,-3.82178,-0.00135972,0.0155927,0.00817794,0.0188946,-0.00466167,1.18705,0.014404,0.014212,720,743,-14.5487,3.82181
-497,281,-14.4023,-4.27423,-0.00251249,0.023126,0.0101378,0.0266501,-0.00603667,1.23624,0.0200837,0.0434619,727,743,-14.4023,4.27422
-490,281,-14.1708,-4.64142,0,0,0,0,0,0,0,-1,734,743,-14.1708,4.6414
-483,281,-22.8943,-1.78931,0,0,0,0,0,0,0,-1,741,743,-22.8944,1.78931
-476,281,-24.7306,0.113586,0,0,0,0,0,0,0,-1,748,743,-24.7306,-0.113601
-469,281,-27.0706,-0.282471,0,0,0,0,0,0,0,-1,755,743,-27.0705,0.282499
-462,281,-26.7386,-0.137817,0,0,0,0,0,0,0,-1,762,743,-26.7386,0.137843
-455,281,-26.4582,0.0119629,0,0,0,0,0,0,0,-1,769,743,-26.4582,-0.0119851
-448,281,-26.2142,0.255615,0,0,0,0,0,0,0,-1,776,743,-26.2142,-0.255643
-441,281,-25.8213,0.701599,0,0,0,0,0,0,0,-1,783,743,-25.8213,-0.701585
-434,281,0,0,0,0,0,0,0,0,0,-1,790,743,0,0
-427,281,0,0,0,0,0,0,0,0,0,-1,797,743,0,0
-420,281,0,0,0,0,0,0,0,0,0,-1,804,743,0,0
-413,281,0,0,0,0,0,0,0,0,0,-1,811,743,0,0
-406,281,0,0,0,0,0,0,0,0,0,-1,818,743,0,0
-399,281,0,0,0,0,0,0,0,0,0,-1,825,743,0,0
-392,281,0,0,0,0,0,0,0,0,0,-1,832,743,0,0
-385,281,0,0,0,0,0,0,0,0,0,-1,839,743,0,0
-378,281,0,0,0,0,0,0,0,0,0,-1,846,743,0,0
-371,281,0,0,0,0,0,0,0,0,0,-1,853,743,0,0
-364,281,0,0,0,0,0,0,0,0,0,-1,860,743,0,0
-357,281,0,0,0,0,0,0,0,0,0,-1,867,743,0,0
-350,281,0,0,0,0,0,0,0,0,0,-1,874,743,0,0
-343,281,0,0,0,0,0,0,0,0,0,-1,881,743,0,0
-336,281,0,0,0,0,0,0,0,0,0,-1,888,743,0,0
-329,281,0,0,0,0,0,0,0,0,0,-1,895,743,0,0
-322,281,0,0,0,0,0,0,0,0,0,-1,902,743,0,0
-315,281,0,0,0,0,0,0,0,0,0,-1,909,743,0,0
-308,281,0,0,0,0,0,0,0,0,0,-1,916,743,0,0
-301,281,0,0,0,0,0,0,0,0,0,-1,923,743,0,0
-294,281,0,0,0,0,0,0,0,0,0,-1,930,743,0,0
-287,281,0,0,0,0,0,0,0,0,0,-1,937,743,0,0
-280,281,0,0,0,0,0,0,0,0,0,-1,944,743,0,0
-273,281,0,0,0,0,0,0,0,0,0,-1,951,743,0,0
-266,281,0,0,0,0,0,0,0,0,0,-1,958,743,0,0
-259,281,0,0,0,0,0,0,0,0,0,-1,965,743,0,0
-252,281,0,0,0,0,0,0,0,0,0,-1,972,743,0,0
-245,281,0,0,0,0,0,0,0,0,0,-1,979,743,0,0
-238,281,0,0,0,0,0,0,0,0,0,-1,986,743,0,0
-231,281,0,0,0,0,0,0,0,0,0,-1,993,743,0,0
-224,281,0,0,0,0,0,0,0,0,0,-1,1000,743,0,0
-217,281,0,0,0,0,0,0,0,0,0,-1,1007,743,0,0
-210,281,0,0,0,0,0,0,0,0,0,-1,1014,743,0,0
-203,281,0,0,0,0,0,0,0,0,0,-1,1021,743,0,0
-196,281,0,0,0,0,0,0,0,0,0,-1,1028,743,0,0
-189,281,0,0,0,0,0,0,0,0,0,-1,1035,743,0,0
-182,281,0,0,0,0,0,0,0,0,0,-1,1042,743,0,0
-175,281,0,0,0,0,0,0,0,0,0,-1,1049,743,0,0
-168,281,0,0,0,0,0,0,0,0,0,-1,1056,743,0,0
-161,281,0,0,0,0,0,0,0,0,0,-1,1063,743,0,0
-154,281,0,0,0,0,0,0,0,0,0,-1,1070,743,0,0
-147,281,0,0,0,0,0,0,0,0,0,-1,1077,743,0,0
-140,281,0,0,0,0,0,0,0,0,0,-1,1084,743,0,0
-133,281,0,0,0,0,0,0,0,0,0,-1,1091,743,0,0
-126,281,0,0,0,0,0,0,0,0,0,-1,1098,743,0,0
-119,281,0,0,0,0,0,0,0,0,0,-1,1105,743,0,0
-112,281,0,0,0,0,0,0,0,0,0,-1,1112,743,0,0
-105,281,0,0,0,0,0,0,0,0,0,-1,1119,743,0,0
-98,281,0,0,0,0,0,0,0,0,0,-1,1126,743,0,0
-91,281,0,0,0,0,0,0,0,0,0,-1,1133,743,0,0
-84,281,0,0,0,0,0,0,0,0,0,-1,1140,743,0,0
-77,281,0,0,0,0,0,0,0,0,0,-1,1147,743,0,0
-70,281,0,0,0,0,0,0,0,0,0,-1,1154,743,0,0
-63,281,0,0,0,0,0,0,0,0,0,-1,1161,743,0,0
-56,281,0,0,0,0,0,0,0,0,0,-1,1168,743,0,0
-49,281,0,0,0,0,0,0,0,0,0,-1,1175,743,0,0
-42,281,0,0,0,0,0,0,0,0,0,-1,1182,743,0,0
-35,281,0,0,0,0,0,0,0,0,0,-1,1189,743,0,0
-28,281,0,0,0,0,0,0,0,0,0,-1,1196,743,0,0
-21,281,0,0,0,0,0,0,0,0,0,-1,1203,743,0,0
-14,281,0,0,0,0,0,0,0,0,0,-1,1210,743,0,0
-7,281,0,0,0,0,0,0,0,0,0,-1,1217,743,0,0
0,281,0,0,0,0,0,0,0,0,0,-1,1224,743,0,0
7,281,0,0,0,0,0,0,0,0,0,-1,1231,743,0,0
14,281,0,0,0,0,0,0,0,0,0,-1,1238,743,0,0
21,281,0,0,0,0,0,0,0,0,0,-1,1245,743,0,0
28,281,0,0,0,0,0,0,0,0,0,-1,1252,743,0,0
35,281,0,0,0,0,0,0,0,0,0,-1,1259,743,0,0
42,281,0,0,0,0,0,0,0,0,0,-1,1266,743,0,0
49,281,0,0,0,0,0,0,0,0,0,-1,1273,743,0,0
56,281,0,0,0,0,0,0,0,0,0,-1,1280,743,0,0
63,281,0,0,0,0,0,0,0,0,0,-1,1287,743,0,0
70,281,0,0,0,0,0,0,0,0,0,-1,1294,743,0,0
77,281,0,0,0,0,0,0,0,0,0,-1,1301,743,0,0
84,281,0,0,0,0,0,0,0,0,0,-1,1308,743,0,0
91,281,0,0,0,0,0,0,0,0,0,-1,1315,743,0,0
98,281,0,0,0,0,0,0,0,0,0,-1,1322,743,0,0
105,281,0,0,0,0,0,0,0,0,0,-1,1329,743,0,0
112,281,0,0,0,0,0,0,0,0,0,-1,1336,743,0,0
119,281,0,0,0,0,0,0,0,0,0,-1,1343,743,0,0
126,281,0,0,0,0,0,0,0,0,0,-1,1350,743,0,0
133,281,0,0,0,0,0,0,0,0,0,-1,1357,743,0,0
140,281,0,0,0,0,0,0,0,0,0,-1,1364,743,0,0
147,281,0,0,0,0,0,0,0,0,0,-1,1371,743,0,0
154,281,0,0,0,0,0,0,0,0,0,-1,1378,743,0,0
161,281,0,0,0,0,0,0,0,0,0,-1,1385,743,0,0
168,281,0,0,0,0,0,0,0,0,0,-1,1392,743,0,0
175,281,0,0,0,0,0,0,0,0,0,-1,1399,743,0,0
182,281,0,0,0,0,0,0,0,0,0,-1,1406,743,0,0
189,281,0,0,0,0,0,0,0,0,0,-1,1413,743,0,0
196,281,0,0,0,0,0,0,0,0,0,-1,1420,743,0,0
203,281,0,0,0,0,0,0,0,0,0,-1,1427,743,0,0
210,281,0,0,0,0,0,0,0,0,0,-1,1434,743,0,0
217,281,0,0,0,0,0,0,0,0,0,-1,1441,743,0,0
224,281,0,0,0,0,0,0,0,0,0,-1,1448,743,0,0
231,281,0,0,0,0,0,0,0,0,0,-1,1455,743,0,0
238,281,0,0,0,0,0,0,0,0,0,-1,1462,743,0,0
245,281,0,0,0,0,0,0,0,0,0,-1,1469,743,0,0
252,281,0,0,0,0,0,0,0,0,0,-1,1476,743,0,0
259,281,0,0,0,0,0,0,0,0,0,-1,1483,743,0,0
266,281,0,0,0,0,0,0,0,0,0,-1,1490,743,0,0
273,281,0,0,0,0,0,0,0,0,0,-1,1497,743,0,0
280,281,0,0,0,0,0,0,0,0,0,-1,1504,743,0,0
287,281,0,0,0,0,0,0,0,0,0,-1,1511,743,0,0
294,281,0,0,0,0,0,0,0,0,0,-1,1518,743,0,0
301,281,0,0,0,0,0,0,0,0,0,-1,1525,743,0,0
308,281,0,0,0,0,0,0,0,0,0,-1,1532,743,0,0
315,281,0,0,0,0,0,0,0,0,0,-1,1539,743,0,0
322,281,0,0,0,0,0,0,0,0,0,-1,1546,743,0,0
329,281,0,0,0,0,0,0,0,0,0,-1,1553,743,0,0
336,281,0,0,0,0,0,0,0,0,0,-1,1560,743,0,0
343,281,0,0,0,0,0,0,0,0,0,-1,1567,743,0,0
350,281,0,0,0,0,0,0,0,0,0,-1,1574,743,0,0
357,281,0,0,0,0,0,0,0,0,0,-1,1581,743,0,0
364,281,0,0,0,0,0,0,0,0,0,-1,1588,743,0,0
371,281,0,0,0,0,0,0,0,0,0,-1,1595,743,0,0
378,281,0,0,0,0,0,0,0,0,0,-1,1602,743,0,0
385,281,0,0,0,0,0,0,0,0,0,-1,1609,743,0,0
392,281,0,0,0,0,0,0,0,0,0,-1,1616,743,0,0
399,281,0,0,0,0,0,0,0,0,0,-1,1623,743,0,0
406,281,0,0,0,0,0,0,0,0,0,-1,1630,743,0,0
413,281,0,0,0,0,0,0,0,0,0,-1,1637,743,0,0
420,281,0,0,0,0,0,0,0,0,0,-1,1644,743,0,0
427,281,0,0,0,0,0,0,0,0,0,-1,1651,743,0,0
434,281,0,0,0,0,0,0,0,0,0,-1,1658,743,0,0
441,281,0,0,0,0,0,0,0,0,0,-1,1665,743,0,0
448,281,0,0,0,0,0,0,0,0,0,-1,1672,743,0,0
455,281,0,0,0,0,0,0,0,0,0,-1,1679,743,0,0
462,281,0,0,0,0,0,0,0,0,0,-1,1686,743,0,0
469,281,0,0,0,0,0,0,0,0,0,-1,1693,743,0,0
476,281,0,0,0,0,0,0,0,0,0,-1,1700,743,0,0
483,281,0,0,0,0,0,0,0,0,0,-1,1707,743,0,0
490,281,0,0,0,0,0,0,0,0,0,-1,1714,743,0,0
497,281,0,0,0,0,0,0,0,0,0,-1,1721,743,0,0
504,281,0,0,0,0,0,0,0,0,0,-1,1728,743,0,0
511,281,0,0,0,0,0,0,0,0,0,-1,1735,743,0,0
518,281,0,0,0,0,0,0,0,0,0,-1,1742,743,0,0
525,281,0,0,0,0,0,0,0,0,0,-1,1749,743,0,0
532,281,0,0,0,0,0,0,0,0,0,-1,1756,743,0,0
539,281,0,0,0,0,0,0,0,0,0,-1,1763,743,0,0
546,281,0,0,0,0,0,0,0,0,0,-1,1770,743,0,0
553,281,0,0,0,0,0,0,0,0,0,-1,1777,743,0,0
560,281,34.3274,3.81573,0,0,0,0,0,0,0,-1,1784,743,34.3274,-3.81573
567,281,34.5194,4.01581,-0.0106942,0.0584993,-0.0274003,0.0680355,-0.0202303,-1.23588,0.0533936,0.042828,1791,743,34.5194,-4.01583
574,281,34.4506,4.00098,-0.0082802,0.0543557,-0.0244839,0.0627904,-0.0167149,-1.23903,0.0484037,0.0483369,1798,743,34.4506,-4.00098
581,281,34.111,4.2951,-0.00636916,0.048067,-0.0208141,0.0551133,-0.0134155,-1.24437,0.0419355,0.0477011,1805,743,34.1109,-4.29508
588,281,33.7565,4.59796,-0.00449352,0.0415666,-0.017362,0.0473779,-0.0103048,-1.24781,0.035522,0.0459026,1812,743,33.7564,-4.59798
595,281,33.4955,4.8952,0,0,0,0,0,0,0,-1,1819,743,33.4955,-4.89519
602,281,30.1091,6.0744,0,0,0,0,0,0,0,-1,1826,743,30.1091,-6.07442
609,281,32.7925,1.28723,0,0,0,0,0,0,0,-1,1833,743,32.7925,-1.28722
616,281,21.3191,-0.253906,0,0,0,0,0,0,0,-1,1840,743,21.3191,0.253931
623,281,22.6666,-2.29779,0,0,0,0,0,0,0,-1,1847,743,22.6666,2.29782
630,281,22.7701,-1.92047,0.00316905,0.00937004,-0.00352217,0.010962,0.00157713,-1.1463,0.00684312,0.044509,1854,743,22.7702,1.92048
637,281,22.8384,-1.50995,0.00392006,0.00555862,-0.00237059,0.00724751,0.00223117,-0.951773,0.00428611,0.0138499,1861,743,22.8384,1.50993
644,281,22.8619,-1.0498,0.00325097,0.00241163,-0.00113586,0.00404221,0.00162039,-0.608439,0.00234901,0.00989982,1868,743,22.8619,1.0498
651,281,22.8896,-0.615723,0.00118302,0.000555349,-2.32768e-05,0.00118389,0.000554487,-0.0370163,0.000683973,0.0121079,1875,743,22.8897,0.615752
658,281,22.8704,-0.187561,-1.79516e-05,-0.00013644,0.00023576,0.000165894,-0.000320286,0.662302,0.000285375,0.0206356,1882,743,22.8704,0.187542
665,281,22.8508,0.260742,-0.000168775,0.000140093,7.6343e-05,0.000157932,-0.000186614,1.34124,0.000199154,0.0206383,1889,743,22.8508,-0.260762
672,281,22.8273,0.697998,-0.00035332,0.000505092,-4.23273e-05,0.000507174,-0.000355403,-1.52165,0.000500572,0.0125349,1896,743,22.8273,-0.69798
679,281,22.8232,1.10889,-0.000276932,0.000816457,-1.31092e-05,0.000816614,-0.000277089,-1.55881,0.000656561,0.0197358,1903,743,22.8232,-1.1089
686,281,22.8018,1.52411,-5.66697e-05,0.00124355,0.000117271,0.00125405,-6.7162e-05,1.48156,0.000859294,0.0158707,1910,743,22.8017,-1.52412
693,281,22.7991,1.95178,0.00075374,0.00161515,0.000413727,0.00178167,0.00058722,1.18815,0.00104837,0.0115605,1917,743,22.7991,-1.95179
700,281,22.7725,2.40234,0.00243397,0.00190327,0.000947586,0.00315266,0.00118459,0.648882,0.00183883,0.02312,1924,743,22.7724,-2.40233
707,281,22.791,2.77527,0.00542834,0.00200449,0.00192585,0.00629315,0.00113968,0.422068,0.00387186,0.0463304,1931,743,22.791,-2.77524
714,281,22.8832,3.15576,0,0,0,0,0,0,0,-1,1938,743,22.8831,-3.15578
721,281,16.9656,3.22174,0,0,0,0,0,0,0,-1,1945,743,16.9656,-3.22172
728,281,19.0251,3.63934,0,0,0,0,0,0,0,-1,1952,743,19.0252,-3.63932
735,281,19.0869,2.50311,0,0,0,0,0,0,0,-1,1959,743,19.0869,-2.5031
742,281,0,0,0,0,0,0,0,0,0,-1,1966,743,0,0
749,281,0,0,0,0,0,0,0,0,0,-1,1973,743,0,0
756,281,0,0,0,0,0,0,0,0,0,-1,1980,743,0,0
763,281,0,0,0,0,0,0,0,0,0,-1,1987,743,0,0
770,281,0,0,0,0,0,0,0,0,0,-1,1994,743,0,0
777,281,0,0,0,0,0,0,0,0,0,-1,2001,743,0,0
784,281,0,0,0,0,0,0,0,0,0,-1,2008,743,0,0
791,281,0,0,0,0,0,0,0,0,0,-1,2015,743,0,0
798,281,0,0,0,0,0,0,0,0,0,-1,2022,743,0,0
805,281,0,0,0,0,0,0,0,0,0,-1,2029,743,0,0
812,281,0,0,0,0,0,0,0,0,0,-1,2036,743,0,0
-700,274,0,0,0,0,0,0,0,0,0,-1,524,750,0,0
-693,274,0,0,0,0,0,0,0,0,0,-1,531,750,0,0
-686,274,0,0,0,0,0,0,0,0,0,-1,538,750,0,0
-679,274,0,0,0,0,0,0,0,0,0,-1,545,750,0,0
-672,274,0,0,0,0,0,0,0,0,0,-1,552,750,0,0
-665,274,0,0,0,0,0,0,0,0,0,-1,559,750,0,0
-658,274,0,0,0,0,0,0,0,0,0,-1,566,750,0,0
-651,274,0,0,0,0,0,0,0,0,0,-1,573,750,0,0
-644,274,0,0,0,0,0,0,0,0,0,-1,580,750,0,0
-637,274,0,0,0,0,0,0,0,0,0,-1,587,750,0,0
-630,274,0,0,0,0,0,0,0,0,0,-1,594,750,0,0
-623,274,-19.6909,5.12701,0,0,0,0,0,0,0,-1,601,750,-19.6908,-5.12703
-616,274,-17.9133,3.9024,0,0,0,0,0,0,0,-1,608,750,-17.9133,-3.90239
-609,274,-15.4739,3.90399,0,0,0,0,0,0,0,-1,615,750,-15.4739,-3.90397
-602,274,-15.2676,3.24811,0,0,0,0,0,0,0,-1,622,750,-15.2676,-3.24811
-595,274,-14.8266,2.54376,0,0,0,0,0,0,0,-1,629,750,-14.8266,-2.54375
-588,274,-14.527,1.63904,0,0,0,0,0,0,0,-1,636,750,-14.5271,-1.63901
-581,274,-14.6067,0.945068,-0.0114897,0.00755285,-0.00440484,0.00852239,-0.0124592,-1.35414,0.0121846,0.0385993,643,750,-14.6067,-0.945046
-574,274,-14.7292,0.234131,-0.00848963,0.00554726,-0.00250575,0.00598116,-0.00892353,-1.39934,0.00866094,0.0211022,650,750,-14.7292,-0.234123
-567,274,-14.8433,-0.135132,-0.00622634,0.00406247,-0.001061,0.00417074,-0.00633461,-1.4691,0.00610801,0.0200435,657,750,-14.8433,0.135157
-560,274,-14.8589,-0.513245,-0.00458163,0.00267132,-0.000179599,0.00267577,-0.00458607,-1.54605,0.00424071,0.014645,664,750,-14.8589,0.513259
-553,274,-14.8716,-0.941711,-0.00335092,0.00149086,0.000354445,0.00151667,-0.00337673,1.49811,0.00289244,0.00951898,671,750,-14.8717,0.941737
-546,274,-14.8832,-1.34253,-0.00244742,0.000542912,0.000789117,0.000738375,-0.00264288,1.32799,0.0020528,0.0106676,678,750,-14.8832,1.34253
-539,274,-14.8997,-1.74518,-0.00154511,-0.000255333,0.00144473,0.000681902,-0.00248234,0.995315,0.00192293,0.0111387,685,750,-14.8996,1.74519
-532,274,-14.9175,-2.13068,-0.000374166,-0.000412924,0.00251658,0.0021231,-0.00291019,0.781548,0.0029178,0.0122134,692,750,-14.9175,2.1307
-525,274,-14.919,-2.53625,-7.38691e-05,0.00305335,0.00474364,0.00648444,-0.00350496,0.944601,0.00585227,0.0129869,699,750,-14.919,2.53626
-518,274,-14.9203,-2.99152,-0.000510249,0.00647091,0.00594882,0.00987762,-0.00391696,1.05072,0.0082084,0.0124412,706,750,-14.9203,2.99149
-511,274,-14.9319,-3.41986,-0.000838016,0.0112125,0.00735223,0.0146929,-0.0043185,1.12866,0.0115081,0.0120523,713,750,-14.932,3.41986
-504,274,-14.9619,-3.86688,-0.00140308,0.0174401,0.00925774,0.0212273,-0.00519028,1.18248,0.0161619,0.0230946,720,750,-14.9619,3.86691
-497,274,-15.0347,-4.33783,0,0,0,0,0,0,0,-1,727,750,-15.0346,4.3378
-490,274,-13.6545,-3.58826,0,0,0,0,0,0,0,-1,734,750,-13.6546,3.58825
-483,274,-23.535,-1.29095,0,0,0,0,0,0,0,-1,741,750,-23.535,1.29097
-476,274,-27.5276,0.143188,0,0,0,0,0,0,0,-1,748,750,-27.5276,-0.143197
-469,274,-26.5939,0.342468,0,0,0,0,0,0,0,-1,755,750,-26.5939,-0.342468
-462,274,-26.4908,0.516235,0,0,0,0,0,0,0,-1,762,750,-26.4908,-0.516249
-455,274,-25.7198,1.51373,0,0,0,0,0,0,0,-1,769,750,-25.7198,-1.51372
-448,274,-25.7593,0.411987,0,0,0,0,0,0,0,-1,776,750,-25.7593,-0.411993
-441,274,0,0,0,0,0,0,0,0,0,-1,783,750,0,0
-434,274,0,0,0,0,0,0,0,0,0,-1,790,750,0,0
-427,274,0,0,0,0,0,0,0,0,0,-1,797,750,0,0
-420,274,0,0,0,0,0,0,0,0,0,-1,804,750,0,0
-413,274,0,0,0,0,0,0,0,0,0,-1,811,750,0,0
-406,274,0,0,0,0,0,0,0,0,0,-1,818,750,0,0
-399,274,0,0,0,0,0,0,0,0,0,-1,825,750,0,0
-392,274,0,0,0,0,0,0,0,0,0,-1,832,750,0,0
-385,274,0,0,0,0,0,0,0,0,0,-1,839,750,0,0
-378,274,0,0,0,0,0,0,0,0,0,-1,846,750,0,0
-371,274,0,0,0,0,0,0,0,0,0,-1,853,750,0,0
-364,274,0,0,0,0,0,0,0,0,0,-1,860,750,0,0
-357,274,0,0,0,0,0,0,0,0,0,-1,867,750,0,0
-350,274,0,0,0,0,0,0,0,0,0,-1,874,750,0,0
-343,274,0,0,0,0,0,0,0,0,0,-1,881,750,0,0
-336,274,0,0,0,0,0,0,0,0,0,-1,888,750,0,0
-329,274,0,0,0,0,0,0,0,0,0,-1,895,750,0,0
-322,274,0,0,0,0,0,0,0,0,0,-1,902,750,0,0
-315,274,0,0,0,0,0,0,0,0,0,-1,909,750,0,0
-308,274,0,0,0,0,0,0,0,0,0,-1,916,750,0,0
-301,274,0,0,0,0,0,0,0,0,0,-1,923,750,0,0
-294,274,0,0,0,0,0,0,0,0,0,-1,930,750,0,0
-287,274,0,0,0,0,0,0,0,0,0,-1,937,750,0,0
-280,274,0,0,0,0,0,0,0,0,0,-1,944,750,0,0
-273,274,0,0,0,0,0,0,0,0,0,-1,951,750,0,0
-266,274,0,0,0,0,0,0,0,0,0,-1,958,750,0,0
-259,274,0,0,0,0,0,0,0,0,0,-1,965,750,0,0
-252,274,0,0,0,0,0,0,0,0,0,-1,972,750,0,0
-245,274,0,0,0,0,0,0,0,0,0,-1,979,750,0,0
-238,274,0,0,0,0,0,0,0,0,0,-1,986,750,0,0
-231,274,0,0,0,0,0,0,0,0,0,-1,993,750,0,0
-224,274,0,0,0,0,0,0,0,0,0,-1,1000,750,0,0
-217,274,0,0,0,0,0,0,0,0,0,-1,1007,750,0,0
-210,274,0,0,0,0,0,0,0,0,0,-1,1014,750,0,0
-203,274,0,0,0,0,0,0,0,0,0,-1,1021,750,0,0
-196,274,0,0,0,0,0,0,0,0,0,-1,1028,750,0,0
-189,274,0,0,0,0,0,0,0,0,0,-1,1035,750,0,0
-182,274,0,0,0,0,0,0,0,0,0,-1,1042,750,0,0
-175,274,0,0,0,0,0,0,0,0,0,-1,1049,750,0,0
-168,274,0,0,0,0,0,0,0,0,0,-1,1056,750,0,0
-161,274,0,0,0,0,0,0,0,0,0,-1,1063,750,0,0
-154,274,0,0,0,0,0,0,0,0,0,-1,1070,750,0,0
-147,274,0,0,0,0,0,0,0,0,0,-1,1077,750,0,0
-140,274,0,0,0,0,0,0,0,0,0,-1,1084,750,0,0
-133,274,0,0,0,0,0,0,0,0,0,-1,1091,750,0,0
-126,274,0,0,0,0,0,0,0,0,0,-1,1098,750,0,0
-119,274,0,0,0,0,0,0,0,0,0,-1,1105,750,0,0
-112,274,0,0,0,0,0,0,0,0,0,-1,1112,750,0,0
-105,274,0,0,0,0,0,0,0,0,0,-1,1119,750,0,0
-98,274,0,0,0,0,0,0,0,0,0,-1,1126,750,0,0
-91,274,0,0,0,0,0,0,0,0,0,-1,1133,750,0,0
-84,274,0,0,0,0,0,0,0,0,0,-1,1140,750,0,0
-77,274,0,0,0,0,0,0,0,0,0,-1,1147,750,0,0
-70,274,0,0,0,0,0,0,0,0,0,-1,1154,750,0,0
-63,274,0,0,0,0,0,0,0,0,0,-1,1161,750,0,0
-56,274,0,0,0,0,0,0,0,0,0,-1,1168,750,0,0
-49,274,0,0,0,0,0,0,0,0,0,-1,1175,750,0,0
-42,274,0,0,0,0,0,0,0,0,0,-1,1182,750,0,0
-35,274,0,0,0,0,0,0,0,0,0,-1,1189,750,0,0
-28,274,0,0,0,0,0,0,0,0,0,-1,1196,750,0,0
-21,274,0,0,0,0,0,0,0,0,0,-1,1203,750,0,0
-14,274,0,0,0,0,0,0,0,0,0,-1,1210,750,0,0
-7,274,0,0,0,0,0,0,0,0,0,-1,1217,750,0,0
0,274,0,0,0,0,0,0,0,0,0,-1,1224,750,0,0
7,274,0,0,0,0,0,0,0,0,0,-1,1231,750,0,0
14,274,0,0,0,0,0,0,0,0,0,-1,1238,750,0,0
21,274,0,0,0,0,0,0,0,0,0,-1,1245,750,0,0
28,274,0,0,0,0,0,0,0,0,0,-1,1252,750,0,0
35,274,0,0,0,0,0,0,0,0,0,-1,1259,750,0,0
42,274,0,0,0,0,0,0,0,0,0,-1,1266,750,0,0
49,274,0,0,0,0,0,0,0,0,0,-1,1273,750,0,0
56,274,0,0,0,0,0,0,0,0,0,-1,1280,750,0,0
63,274,0,0,0,0,0,0,0,0,0,-1,1287,750,0,0
70,274,0,0,0,0,0,0,0,0,0,-1,1294,750,0,0
77,274,0,0,0,0,0,0,0,0,0,-1,1301,750,0,0
84,274,0,0,0,0,0,0,0,0,0,-1,1308,750,0,0
91,274,0,0,0,0,0,0,0,0,0,-1,1315,750,0,0
98,274,0,0,0,0,0,0,0,0,0,-1,1322,750,0,0
105,274,0,0,0,0,0,0,0,0,0,-1,1329,750,0,0
112,274,0,0,0,0,0,0,0,0,0,-1,1336,750,0,0
119,274,0,0,0,0,0,0,0,0,0,-1,1343,750,0,0
126,274,0,0,0,0,0,0,0,0,0,-1,1350,750,0,0
133,274,0,0,0,0,0,0,0,0,0,-1,1357,750,0,0
140,274,0,0,0,0,0,0,0,0,0,-1,1364,750,0,0
147,274,0,0,0,0,0,0,0,0,0,-1,1371,750,0,0
154,274,0,0,0,0,0,0,0,0,0,-1,1378,750,0,0
161,274,0,0,0,0,0,0,0,0,0,-1,1385,750,0,0
168,274,0,0,0,0,0,0,0,0,0,-1,1392,750,0,0
175,274,0,0,0,0,0,0,0,0,0,-1,1399,750,0,0
182,274,0,0,0,0,0,0,0,0,0,-1,1406,750,0,0
189,274,0,0,0,0,0,0,0,0,0,-1,1413,750,0,0
196,274,0,0,0,0,0,0,0,0,0,-1,1420,750,0,0
203,274,0,0,0,0,0,0,0,0,0,-1,1427,750,0,0
210,274,0,0,0,0,0,0,0,0,0,-1,1434,750,0,0
217,274,0,0,0,0,0,0,0,0,0,-1,1441,750,0,0
224,274,0,0,0,0,0,0,0,0,0,-1,1448,750,0,0
231,274,0,0,0,0,0,0,0,0,0,-1,1455,750,0,0
238,274,0,0,0,0,0,0,0,0,0,-1,1462,750,0,0
245,274,0,0,0,0,0,0,0,0,0,-1,1469,750,0,0
252,274,0,0,0,0,0,0,0,0,0,-1,1476,750,0,0
259,274,0,0,0,0,0,0,0,0,0,-1,1483,750,0,0
266,274,0,0,0,0,0,0,0,0,0,-1,1490,750,0,0
273,274,0,0,0,0,0,0,0,0,0,-1,1497,750,0,0
280,274,0,0,0,0,0,0,0,0,0,-1,1504,750,0,0
287,274,0,0,0,0,0,0,0,0,0,-1,1511,750,0,0
294,274,0,0,0,0,0,0,0,0,0,-1,1518,750,0,0
301,274,0,0,0,0,0,0,0,0,0,-1,1525,750,0,0
308,274,0,0,0,0,0,0,0,0,0,-1,1532,750,0,0
315,274,0,0,0,0,0,0,0,0,0,-1,1539,750,0,0
322,274,0,0,0,0,0,0,0,0,0,-1,1546,750,0,0
329,274,0,0,0,0,0,0,0,0,0,-1,1553,750,0,0
336,274,0,0,0,0,0,0,0,0,0,-1,1560,750,0,0
343,274,0,0,0,0,0,0,0,0,0,-1,1567,750,0,0
350,274,0,0,0,0,0,0,0,0,0,-1,1574,750,0,0
357,274,0,0,0,0,0,0,0,0,0,-1,1581,750,0,0
364,274,0,0,0,0,0,0,0,0,0,-1,1588,750,0,0
371,274,0,0,0,0,0,0,0,0,0,-1,1595,750,0,0
378,274,0,0,0,0,0,0,0,0,0,-1,1602,750,0,0
385,274,0,0,0,0,0,0,0,0,0,-1,1609,750,0,0
392,274,0,0,0,0,0,0,0,0,0,-1,1616,750,0,0
399,274,0,0,0,0,0,0,0,0,0,-1,1623,750,0,0
406,274,0,0,0,0,0,0,0,0,0,-1,1630,750,0,0
413,274,0,0,0,0,0,0,0,0,0,-1,1637,750,0,0
420,274,0,0,0,0,0,0,0,0,0,-1,1644,750,0,0
427,274,0,0,0,0,0,0,0,0,0,-1,1651,750,0,0
434,274,0,0,0,0,0,0,0,0,0,-1,1658,750,0,0
441,274,0,0,0,0,0,0,0,0,0,-1,1665,750,0,0
448,274,0,0,0,0,0,0,0,0,0,-1,1672,750,0,0
455,274,0,0,0,0,0,0,0,0,0,-1,1679,750,0,0
462,274,0,0,0,0,0,0,0,0,0,-1,1686,750,0,0
469,274,0,0,0,0,0,0,0,0,0,-1,1693,750,0,0
476,274,0,0,0,0,0,0,0,0,0,-1,1700,750,0,0
483,274,0,0,0,0,0,0,0,0,0,-1,1707,750,0,0
490,274,0,0,0,0,0,0,0,0,0,-1,1714,750,0,0
497,274,0,0,0,0,0,0,0,0,0,-1,1721,750,0,0
504,274,0,0,0,0,0,0,0,0,0,-1,1728,750,0,0
511,274,0,0,0,0,0,0,0,0,0,-1,1735,750,0,0
518,274,0,0,0,0,0,0,0,0,0,-1,1742,750,0,0
525,274,0,0,0,0,0,0,0,0,0,-1,1749,750,0,0
532,274,0,0,0,0,0,0,0,0,0,-1,1756,750,0,0
539,274,0,0,0,0,0,0,0,0,0,-1,1763,750,0,0
546,274,0,0,0,0,0,0,0,0,0,-1,1770,750,0,0
553,274,0,0,0,0,0,0,0,0,0,-1,1777,750,0,0
560,274,35.2825,3.19727,0,0,0,0,0,0,0,-1,1784,750,35.2825,-3.19725
567,274,34.9781,3.53082,-0.0145667,0.0544141,-0.0225107,0.0611101,-0.0212627,-1.28167,0.049378,0.0457522,1791,750,34.9781,-3.53083
574,274,34.8196,3.69513,-0.00925164,0.0532325,-0.0222229,0.06033,-0.0163491,-1.26166,0.046635,0.0469434,1798,750,34.8196,-3.69512
581,274,34.5272,3.90942,-0.00611238,0.0477786,-0.0197002,0.0542121,-0.0125459,-1.25514,0.0409688,0.0441782,1805,750,34.5273,-3.90941
588,274,34.1823,4.16125,-0.003714,0.0413029,-0.0167578,0.046856,-0.00926713,-1.25081,0.0347409,0.0459115,1812,750,34.1823,-4.16126
595,274,33.6498,4.05426,0,0,0,0,0,0,0,-1,1819,750,33.6498,-4.05429
602,274,34.0294,4.16345,0,0,0,0,0,0,0,-1,1826,750,34.0295,-4.16346
609,274,35.9628,3.18799,0,0,0,0,0,0,0,-1,1833,750,35.9628,-3.188
616,274,32.7869,1.78436,0,0,0,0,0,0,0,-1,1840,750,32.7868,-1.78437
623,274,23.0034,-1.73114,0,0,0,0,0,0,0,-1,1847,750,23.0034,1.73115
630,274,23.2809,-1.89746,0,0,0,0,0,0,0,-1,1854,750,23.2808,1.89748
637,274,23.2437,-1.50922,0.00382065,0.00544154,-0.00264217,0.00739477,0.00186742,-0.93421,0.00444026,0.0146266,1861,750,23.2436,1.50924
644,274,23.2635,-1.05908,0.00297953,0.00235672,-0.00150591,0.0042059,0.00113036,-0.683441,0.00251335,0.0112144,1868,750,23.2636,1.0591
651,274,23.2896,-0.610596,0.000746455,0.000277469,-0.000349892,0.000933164,9.07601e-05,-0.49018,0.000594171,0.0133014,1875,750,23.2896,0.610626
658,274,23.2928,-0.167542,-0.000461257,-0.000591049,-7.14403e-05,-0.000429637,-0.000622668,-0.41668,0.000368047,0.0163454,1882,750,23.2929,0.167567
665,274,23.271,0.2901,-0.000298547,-0.000321555,-0.000230222,-7.95423e-05,-0.00054056,-0.760434,0.000337003,0.0164207,1889,750,23.271,-0.290098
672,274,23.2742,0.699524,-6.38498e-05,8.48034e-05,-0.000260911,0.000281768,-0.000260814,-0.924159,0.000313338,0.0138802,1896,750,23.2742,-0.699509
679,274,23.2581,1.12732,0.000450984,0.000420874,-0.000103169,0.000540191,0.000331668,-0.712947,0.000314569,0.015293,1903,750,23.258,-1.1273
686,274,23.2528,1.5517,0.00108329,0.000889065,0.000171294,0.00118309,0.000789271,0.527519,0.000695658,0.0157499,1910,750,23.2528,-1.55171
693,274,23.2239,1.9906,0.00223807,0.00132098,0.000601907,0.0025362,0.00102285,0.459887,0.00147337,0.0119034,1917,750,23.2239,-1.99057
700,274,23.2188,2.4353,0.00418637,0.00163464,0.00122491,0.00467919,0.00114182,0.382513,0.00281707,0.0138055,1924,750,23.2188,-2.43533
707,274,23.1816,2.88947,0.00729965,0.00173636,0.00220477,0.00806745,0.000968566,0.33511,0.00508628,0.0232489,1931,750,23.1817,-2.88944
714,274,23.5306,3.46649,0.0116415,0.00115934,0.00321532,0.0125492,0.000251665,0.275137,0.00828351,0.0473477,1938,750,23.5306,-3.46647
721,274,23.9287,3.96503,0,0,0,0,0,0,0,-1,1945,750,23.9287,-3.96504
728,274,19.2209,3.95154,0,0,0,0,0,0,0,-1,1952,750,19.221,-3.95151
735,274,20.6608,4.10931,0,0,0,0,0,0,0,-1,1959,750,20.6607,-4.10932
742,274,11.7815,-0.740234,0,0,0,0,0,0,0,-1,1966,750,11.7815,0.740253
749,274,0,0,0,0,0,0,0,0,0,-1,1973,750,0,0
756,274,0,0,0,0,0,0,0,0,0,-1,1980,750,0,0
763,274,0,0,0,0,0,0,0,0,0,-1,1987,750,0,0
770,274,0,0,0,0,0,0,0,0,0,-1,1994,750,0,0
777,274,0,0,0,0,0,0,0,0,0,-1,2001,750,0,0
784,274,0,0,0,0,0,0,0,0,0,-1,2008,750,0,0
791,274,0,0,0,0,0,0,0,0,0,-1,2015,750,0,0
798,274,0,0,0,0,0,0,0,0,0,-1,2022,750,0,0
805,274,0,0,0,0,0,0,0,0,0,-1,2029,750,0,0
812,274,0,0,0,0,0,0,0,0,0,-1,2036,750,0,0
-700,267,0,0,0,0,0,0,0,0,0,-1,524,757,0,0
-693,267,0,0,0,0,0,0,0,0,0,-1,531,757,0,0
-686,267,0,0,0,0,0,0,0,0,0,-1,538,757,0,0
-679,267,0,0,0,0,0,0,0,0,0,-1,545,757,0,0
-672,267,0,0,0,0,0,0,0,0,0,-1,552,757,0,0
-665,267,0,0,0,0,0,0,0,0,0,-1,559,757,0,0
-658,267,0,0,0,0,0,0,0,0,0,-1,566,757,0,0
-651,267,0,0,0,0,0,0,0,0,0,-1,573,757,0,0
-644,267,0,0,0,0,0,0,0,0,0,-1,580,757,0,0
-637,267,0,0,0,0,0,0,0,0,0,-1,587,757,0,0
-630,267,-21.3979,5.17529,0,0,0,0,0,0,0,-1,594,757,-21.3979,-5.17529
-623,267,-20.043,4.43115,0,0,0,0,0,0,0,-1,601,757,-20.043,-4.43116
-616,267,-16.621,4.31183,0,0,0,0,0,0,0,-1,608,757,-16.621,-4.31184
-609,267,-16.246,3.62811,0,0,0,0,0,0,0,-1,615,757,-16.2461,-3.6281
-602,267,-15.8689,3.00323,0,0,0,0,0,0,0,-1,622,757,-15.8689,-3.00326
-595,267,-14.8647,1.99115,0,0,0,0,0,0,0,-1,629,757,-14.8647,-1.99116
-588,267,-14.9858,1.40442,-0.0124714,0.00899372,-0.0113026,0.0138476,-0.0173252,-1.16516,0.0180349,0.0456386,636,757,-14.9858,-1.4044
-581,267,-15.0975,0.796082,-0.00959394,0.00682183,-0.00671787,0.0092205,-0.0119926,-1.22785,0.0122822,0.0288506,643,757,-15.0975,-0.796084
-574,267,-15.1874,0.27948,-0.00716367,0.00501317,-0.00391196,0.00616162,-0.00831212,-1.28525,0.00838711,0.0164008,650,757,-15.1874,-0.279502
-567,267,-15.2491,-0.0859375,-0.00532414,0.00358749,-0.00163327,0.0038774,-0.00561404,-1.39513,0.00551037,0.0220894,657,757,-15.2491,0.0859184
-560,267,-15.251,-0.474854,-0.00399895,0.0022407,-0.000342403,0.00225943,-0.00401768,-1.51614,0.00367118,0.0212204,664,757,-15.2511,0.474881
-553,267,-15.2762,-0.900574,-0.00302858,0.00106401,0.000315124,0.00108814,-0.0030527,1.4944,0.00247878,0.0167956,671,757,-15.2762,0.900544
-546,267,-15.292,-1.32867,-0.00231234,0.000126462,0.000902418,0.000424063,-0.00260995,1.25225,0.00189718,0.0103328,678,757,-15.292,1.32869
-539,267,-15.2916,-1.74548,-0.00144709,-0.000621221,0.00184036,0.000851963,-0.00292027,0.895759,0.00228442,0.00985173,685,757,-15.2915,1.7455
-532,267,-15.2917,-2.14868,-0.000212146,-0.000543579,0.00318949,0.00281593,-0.00357166,0.759443,0.00369647,0.0110693,692,757,-15.2917,2.14871
-525,267,-15.3202,-2.53204,6.2254e-06,0.00369133,0.00575247,0.00788913,-0.00419158,0.940388,0.00708286,0.0109891,699,757,-15.3202,2.53207
-518,267,-15.331,-2.95215,-0.000483474,0.00739102,0.00695054,0.011442,-0.00453446,1.0431,0.00950705,0.0108094,706,757,-15.331,2.95216
-511,267,-15.3118,-3.36957,-0.000772105,0.0122931,0.00830107,0.0163238,-0.00480277,1.11877,0.0127877,0.0154419,713,757,-15.3118,3.36959
-504,267,-15.3527,-3.77179,-0.00125468,0.018637,0.010158,0.0229075,-0.00552518,1.17282,0.0174082,0.0308311,720,757,-15.3526,3.77181
-497,267,-15.451,-4.18048,0,0,0,0,0,0,0,-1,727,757,-15.451,4.18049
-490,267,-23.4949,-0.494995,0,0,0,0,0,0,0,-1,734,757,-23.4949,0.494981
-483,267,-23.8195,2.97546,0,0,0,0,0,0,0,-1,741,757,-23.8195,-2.97546
-476,267,-22.7039,3.59314,0,0,0,0,0,0,0,-1,748,757,-22.7038,-3.59314
-469,267,-25.4896,2.01971,0,0,0,0,0,0,0,-1,755,757,-25.4896,-2.01972
-462,267,-25.6263,1.68207,0,0,0,0,0,0,0,-1,762,757,-25.6263,-1.68207
-455,267,-25.8771,1.28796,0,0,0,0,0,0,0,-1,769,757,-25.8771,-1.28797
-448,267,-26.0242,1.23322,0,0,0,0,0,0,0,-1,776,757,-26.0242,-1.23323
-441,267,0,0,0,0,0,0,0,0,0,-1,783,757,0,0
-434,267,0,0,0,0,0,0,0,0,0,-1,790,757,0,0
-427,267,0,0,0,0,0,0,0,0,0,-1,797,757,0,0
-420,267,0,0,0,0,0,0,0,0,0,-1,804,757,0,0
-413,267,0,0,0,0,0,0,0,0,0,-1,811,757,0,0
-406,267,0,0,0,0,0,0,0,0,0,-1,818,757,0,0
-399,267,0,0,0,0,0,0,0,0,0,-1,825,757,0,0
-392,267,0,0,0,0,0,0,0,0,0,-1,832,757,0,0
-385,267,0,0,0,0,0,0,0,0,0,-1,839,757,0,0
-378,267,0,0,0,0,0,0,0,0,0,-1,846,757,0,0
-371,267,0,0,0,0,0,0,0,0,0,-1,853,757,0,0
-364,267,0,0,0,0,0,0,0,0,0,-1,860,757,0,0
-357,267,0,0,0,0,0,0,0,0,0,-1,867,757,0,0
-350,267,0,0,0,0,0,0,0,0,0,-1,874,757,0,0
-343,267,0,0,0,0,0,0,0,0,0,-1,881,757,0,0
-336,267,0,0,0,0,0,0,0,0,0,-1,888,757,0,0
-329,267,0,0,0,0,0,0,0,0,0,-1,895,757,0,0
-322,267,0,0,0,0,0,0,0,0,0,-1,902,757,0,0
-315,267,0,0,0,0,0,0,0,0,0,-1,909,757,0,0
-308,267,0,0,0,0,0,0,0,0,0,-1,916,757,0,0
-301,267,0,0,0,0,0,0,0,0,0,-1,923,757,0,0
-294,267,0,0,0,0,0,0,0,0,0,-1,930,757,0,0
-287,267,0,0,0,0,0,0,0,0,0,-1,937,757,0,0
-280,267,0,0,0,0,0,0,0,0,0,-1,944,757,0,0
-273,267,0,0,0,0,0,0,0,0,0,-1,951,757,0,0
-266,267,0,0,0,0,0,0,0,0,0,-1,958,757,0,0
-259,267,0,0,0,0,0,0,0,0,0,-1,965,757,0,0
-252,267,0,0,0,0,0,0,0,0,0,-1,972,757,0,0
-245,267,0,0,0,0,0,0,0,0,0,-1,979,757,0,0
-238,267,0,0,0,0,0,0,0,0,0,-1,986,757,0,0
-231,267,0,0,0,0,0,0,0,0,0,-1,993,757,0,0
-224,267,0,0,0,0,0,0,0,0,0,-1,1000,757,0,0
-217,267,0,0,0,0,0,0,0,0,0,-1,1007,757,0,0
-210,267,0,0,0,0,0,0,0,0,0,-1,1014,757,0,0
-203,267,0,0,0,0,0,0,0,0,0,-1,1021,757,0,0
-196,267,0,0,0,0,0,0,0,0,0,-1,1028,757,0,0
-189,267,0,0,0,0,0,0,0,0,0,-1,1035,757,0,0
-182,267,0,0,0,0,0,0,0,0,0,-1,1042,757,0,0
-175,267,0,0,0,0,0,0,0,0,0,-1,1049,757,0,0
-168,267,0,0,0,0,0,0,0,0,0,-1,1056,757,0,0
-161,267,0,0,0,0,0,0,0,0,0,-1,1063,757,0,0
-154,267,0,0,0,0,0,0,0,0,0,-1,1070,757,0,0
-147,267,0,0,0,0,0,0,0,0,0,-1,1077,757,0,0
-140,267,0,0,0,0,0,0,0,0,0,-1,1084,757,0,0
-133,267,0,0,0,0,0,0,0,0,0,-1,1091,757,0,0
-126,267,0,0,0,0,0,0,0,0,0,-1,1098,757,0,0
-119,267,0,0,0,0,0,0,0,0,0,-1,1105,757,0,0
-112,267,0,0,0,0,0,0,0,0,0,-1,1112,757,0,0
-105,267,0,0,0,0,0,0,0,0,0,-1,1119,757,0,0
-98,267,0,0,0,0,0,0,0,0,0,-1,1126,757,0,0
-91,267,0,0,0,0,0,0,0,0,0,-1,1133,757,0,0
-84,267,0,0,0,0,0,0,0,0,0,-1,1140,757,0,0
-77,267,0,0,0,0,0,0,0,0,0,-1,1147,757,0,0
-70,267,0,0,0,0,0,0,0,0,0,-1,1154,757,0,0
-63,267,0,0,0,0,0,0,0,0,0,-1,1161,757,0,0
-56,267,0,0,0,0,0,0,0,0,0,-1,1168,757,0,0
-49,267,0,0,0,0,0,0,0,0,0,-1,1175,757,0,0
-42,267,0,0,0,0,0,0,0,0,0,-1,1182,757,0,0
-35,267,0,0,0,0,0,0,0,0,0,-1,1189,757,0,0
-28,267,0,0,0,0,0,0,0,0,0,-1,1196,757,0,0
-21,267,0,0,0,0,0,0,0,0,0,-1,1203,757,0,0
-14,267,0,0,0,0,0,0,0,0,0,-1,1210,757,0,0
-7,267,0,0,0,0,0,0,0,0,0,-1,1217,757,0,0
0,267,0,0,0,0,0,0,0,0,0,-1,1224,757,0,0
7,267,0,0,0,0,0,0,0,0,0,-1,1231,757,0,0
14,267,0,0,0,0,0,0,0,0,0,-1,1238,757,0,0
21,267,0,0,0,0,0,0,0,0,0,-1,1245,757,0,0
28,267,0,0,0,0,0,0,0,0,0,-1,1252,757,0,0
35,267,0,0,0,0,0,0,0,0,0,-1,1259,757,0,0
42,267,0,0,0,0,0,0,0,0,0,-1,1266,757,0,0
49,267,0,0,0,0,0,0,0,0,0,-1,1273,757,0,0
56,267,0,0,0,0,0,0,0,0,0,-1,1280,757,0,0
63,267,0,0,0,0,0,0,0,0,0,-1,1287,757,0,0
70,267,0,0,0,0,0,0,0,0,0,-1,1294,757,0,0
77,267,0,0,0,0,0,0,0,0,0,-1,1301,757,0,0
84,267,0,0,0,0,0,0,0,0,0,-1,1308,757,0,0
91,267,0,0,0,0,0,0,0,0,0,-1,1315,757,0,0
98,267,0,0,0,0,0,0,0,0,0,-1,1322,757,0,0
105,267,0,0,0,0,0,0,0,0,0,-1,1329,757,0,0
112,267,0,0,0,0,0,0,0,0,0,-1,1336,757,0,0
119,267,0,0,0,0,0,0,0,0,0,-1,1343,757,0,0
126,267,0,0,0,0,0,0,0,0,0,-1,1350,757,0,0
133,267,0,0,0,0,0,0,0,0,0,-1,1357,757,0,0
140,267,0,0,0,0,0,0,0,0,0,-1,1364,757,0,0
147,267,0,0,0,0,0,0,0,0,0,-1,1371,757,0,0
154,267,0,0,0,0,0,0,0,0,0,-1,1378,757,0,0
161,267,0,0,0,0,0,0,0,0,0,-1,1385,757,0,0
168,267,0,0,0,0,0,0,0,0,0,-1,1392,757,0,0
175,267,0,0,0,0,0,0,0,0,0,-1,1399,757,0,0
182,267,0,0,0,0,0,0,0,0,0,-1,1406,757,0,0
189,267,0,0,0,0,0,0,0,0,0,-1,1413,757,0,0
196,267,0,0,0,0,0,0,0,0,0,-1,1420,757,0,0
203,267,0,0,0,0,0,0,0,0,0,-1,1427,757,0,0
210,267,0,0,0,0,0,0,0,0,0,-1,1434,757,0,0
217,267,0,0,0,0,0,0,0,0,0,-1,1441,757,0,0
224,267,0,0,0,0,0,0,0,0,0,-1,1448,757,0,0
231,267,0,0,0,0,0,0,0,0,0,-1,1455,757,0,0
238,267,0,0,0,0,0,0,0,0,0,-1,1462,757,0,0
245,267,0,0,0,0,0,0,0,0,0,-1,1469,757,0,0
252,267,0,0,0,0,0,0,0,0,0,-1,1476,757,0,0
259,267,0,0,0,0,0,0,0,0,0,-1,1483,757,0,0
266,267,0,0,0,0,0,0,0,0,0,-1,1490,757,0,0
273,267,0,0,0,0,0,0,0,0,0,-1,1497,757,0,0
280,267,0,0,0,0,0,0,0,0,0,-1,1504,757,0,0
287,267,0,0,0,0,0,0,0,0,0,-1,1511,757,0,0
294,267,0,0,0,0,0,0,0,0,0,-1,1518,757,0,0
301,267,0,0,0,0,0,0,0,0,0,-1,1525,757,0,0
308,267,0,0,0,0,0,0,0,0,0,-1,1532,757,0,0
315,267,0,0,0,0,0,0,0,0,0,-1,1539,757,0,0
322,267,0,0,0,0,0,0,0,0,0,-1,1546,757,0,0
329,267,0,0,0,0,0,0,0,0,0,-1,1553,757,0,0
336,267,0,0,0,0,0,0,0,0,0,-1,1560,757,0,0
343,267,0,0,0,0,0,0,0,0,0,-1,1567,757,0,0
350,267,0,0,0,0,0,0,0,0,0,-1,1574,757,0,0
357,267,0,0,0,0,0,0,0,0,0,-1,1581,757,0,0
364,267,0,0,0,0,0,0,0,0,0,-1,1588,757,0,0
371,267,0,0,0,0,0,0,0,0,0,-1,1595,757,0,0
378,267,0,0,0,0,0,0,0,0,0,-1,1602,757,0,0
385,267,0,0,0,0,0,0,0,0,0,-1,1609,757,0,0
392,267,0,0,0,0,0,0,0,0,0,-1,1616,757,0,0
399,267,0,0,0,0,0,0,0,0,0,-1,1623,757,0,0
406,267,0,0,0,0,0,0,0,0,0,-1,1630,757,0,0
413,267,0,0,0,0,0,0,0,0,0,-1,1637,757,0,0
420,267,0,0,0,0,0,0,0,0,0,-1,1644,757,0,0
427,267,0,0,0,0,0,0,0,0,0,-1,1651,757,0,0
434,267,0,0,0,0,0,0,0,0,0,-1,1658,757,0,0
441,267,0,0,0,0,0,0,0,0,0,-1,1665,757,0,0
448,267,0,0,0,0,0,0,0,0,0,-1,1672,757,0,0
455,267,0,0,0,0,0,0,0,0,0,-1,1679,757,0,0
462,267,0,0,0,0,0,0,0,0,0,-1,1686,757,0,0
469,267,0,0,0,0,0,0,0,0,0,-1,1693,757,0,0
476,267,0,0,0,0,0,0,0,0,0,-1,1700,757,0,0
483,267,0,0,0,0,0,0,0,0,0,-1,1707,757,0,0
490,267,0,0,0,0,0,0,0,0,0,-1,1714,757,0,0
497,267,0,0,0,0,0,0,0,0,0,-1,1721,757,0,0
504,267,0,0,0,0,0,0,0,0,0,-1,1728,757,0,0
511,267,0,0,0,0,0,0,0,0,0,-1,1735,757,0,0
518,267,0,0,0,0,0,0,0,0,0,-1,1742,757,0,0
525,267,0,0,0,0,0,0,0,0,0,-1,1749,757,0,0
532,267,0,0,0,0,0,0,0,0,0,-1,1756,757,0,0
539,267,0,0,0,0,0,0,0,0,0,-1,1763,757,0,0
546,267,0,0,0,0,0,0,0,0,0,-1,1770,757,0,0
553,267,0,0,0,0,0,0,0,0,0,-1,1777,757,0,0
560,267,0,0,0,0,0,0,0,0,0,-1,1784,757,0,0
567,267,35.5248,3.01361,-0.0183534,0.0461271,-0.016722,0.0502057,-0.022432,-1.33156,0.0429471,0.0425381,1791,757,35.5248,-3.01364
574,267,35.2441,3.26428,-0.00981661,0.0483068,-0.0187862,0.0538501,-0.0153599,-1.28387,0.0419676,0.0438967,1798,757,35.2441,-3.2643
581,267,34.9105,3.51697,-0.0051714,0.0449232,-0.017728,0.0505622,-0.0108104,-1.26283,0.03783,0.0422449,1805,757,34.9106,-3.51694
588,267,34.6975,3.7431,0,0,0,0,0,0,0,-1,1812,757,34.6975,-3.7431
595,267,34.4509,3.66687,-0.000109078,0.0330282,-0.013026,0.0375355,-0.0046164,-1.23767,0.0266959,0.0475525,1819,757,34.4509,-3.66685
602,267,34.8651,3.7901,0.0014649,0.0270405,-0.0106266,0.0308795,-0.00237414,-1.22412,0.0214216,0.0471638,1826,757,34.8651,-3.79009
609,267,35.4642,3.69983,0,0,0,0,0,0,0,-1,1833,757,35.4642,-3.69985
616,267,35.7405,3.466,0,0,0,0,0,0,0,-1,1840,757,35.7405,-3.46598
623,267,24.1475,-1.1391,0,0,0,0,0,0,0,-1,1847,757,24.1475,1.13913
630,267,23.7802,-1.71747,0,0,0,0,0,0,0,-1,1854,757,23.7802,1.71745
637,267,23.7178,-1.42505,0.00390258,0.00467202,-0.00289594,0.00720868,0.00136592,-0.851436,0.00442138,0.0290745,1861,757,23.7178,1.42504
644,267,23.6992,-1.04761,0.00287395,0.00173868,-0.0018919,0.00428154,0.000331091,-0.639654,0.00275065,0.0125675,1868,757,23.6993,1.0476
651,267,23.6879,-0.595032,0.000529653,-0.000404345,-0.000762245,0.000956581,-0.000831273,-0.510559,0.00103306,0.0148518,1875,757,23.6879,0.595012
658,267,23.6926,-0.157166,-0.000790098,-0.00131876,-0.000491497,-0.000496361,-0.0016125,-0.538681,0.000953623,0.0150099,1882,757,23.6926,0.157181
665,267,23.6985,0.280884,-0.000548072,-0.00100465,-0.000653406,-8.4223e-05,-0.0014685,-0.617335,0.000952168,0.0155113,1889,757,23.6984,-0.280904
672,267,23.7222,0.703003,-7.84172e-05,-0.000492123,-0.000600787,0.00035013,-0.000920671,-0.619603,0.000757945,0.0136344,1896,757,23.7222,-0.703017
679,267,23.701,1.13593,0.00073867,-7.12323e-05,-0.000334512,0.000858966,-0.000191528,-0.345214,0.00064602,0.0127728,1903,757,23.7011,-1.13593
686,267,23.6858,1.58142,0.0016976,0.000481113,7.44613e-05,0.00170214,0.000476572,0.0609072,0.00101395,0.0135302,1910,757,23.6858,-1.58143
693,267,23.6609,1.97949,0.00310917,0.000984733,0.00060745,0.00327059,0.000823308,0.259739,0.00196434,0.0128395,1917,757,23.6609,-1.97948
700,267,23.6455,2.40735,0.00523976,0.00133035,0.0012878,0.00562585,0.000944264,0.291275,0.00347879,0.0138559,1924,757,23.6455,-2.40734
707,267,23.6251,2.83948,0.00883606,0.00139939,0.00225812,0.00946803,0.000767425,0.272883,0.0060724,0.0142892,1931,757,23.6251,-2.8395
714,267,23.7351,3.37897,0.0141845,0.000521279,0.00334484,0.0149594,-0.000253609,0.227651,0.0100585,0.0300845,1938,757,23.7352,-3.37899
721,267,23.8806,3.97473,0,0,0,0,0,0,0,-1,1945,757,23.8806,-3.97474
728,267,26.7886,3.90027,0,0,0,0,0,0,0,-1,1952,757,26.7886,-3.90028
735,267,24.6713,2.82483,0,0,0,0,0,0,0,-1,1959,757,24.6713,-2.82483
742,267,18.1177,3.56561,0,0,0,0,0,0,0,-1,1966,757,18.1176,-3.56564
749,267,0,0,0,0,0,0,0,0,0,-1,1973,757,0,0
756,267,0,0,0,0,0,0,0,0,0,-1,1980,757,0,0
763,267,0,0,0,0,0,0,0,0,0,-1,1987,757,0,0
770,267,0,0,0,0,0,0,0,0,0,-1,1994,757,0,0
777,267,0,0,0,0,0,0,0,0,0,-1,2001,757,0,0
784,267,0,0,0,0,0,0,0,0,0,-1,2008,757,0,0
791,267,0,0,0,0,0,0,0,0,0,-1,2015,757,0,0
798,267,0,0,0,0,0,0,0,0,0,-1,2022,757,0,0
805,267,0,0,0,0,0,0,0,0,0,-1,2029,757,0,0
812,267,0,0,0,0,0,0,0,0,0,-1,2036,757,0,0
-700,260,0,0,0,0,0,0,0,0,0,-1,524,764,0,0
-693,260,0,0,0,0,0,0,0,0,0,-1,531,764,0,0
-686,260,0,0,0,0,0,0,0,0,0,-1,538,764,0,0
-679,260,0,0,0,0,0,0,0,0,0,-1,545,764,0,0
-672,260,0,0,0,0,0,0,0,0,0,-1,552,764,0,0
-665,260,0,0,0,0,0,0,0,0,0,-1,559,764,0,0
-658,260,0,0,0,0,0,0,0,0,0,-1,566,764,0,0
-651,260,0,0,0,0,0,0,0,0,0,-1,573,764,0,0
-644,260,0,0,0,0,0,0,0,0,0,-1,580,764,0,0
-637,260,0,0,0,0,0,0,0,0,0,-1,587,764,0,0
-630,260,-21.8905,4.49341,0,0,0,0,0,0,0,-1,594,764,-21.8905,-4.49342
-623,260,-20.3127,3.53546,0,0,0,0,0,0,0,-1,601,764,-20.3127,-3.53544
-616,260,-17.5065,4.04523,0,0,0,0,0,0,0,-1,608,764,-17.5065,-4.04522
-609,260,-17.0552,3.28687,0,0,0,0,0,0,0,-1,615,764,-17.0552,-3.28686
-602,260,-15.4358,2.45294,0,0,0,0,0,0,0,-1,622,764,-15.4358,-2.45295
-595,260,-15.0912,1.85052,-0.0119268,0.0102775,-0.0209546,0.0228893,-0.0245386,-1.02901,0.027388,0.0495524,629,764,-15.0912,-1.85054
-588,260,-15.4561,1.2406,-0.00969762,0.00814268,-0.0127201,0.0147586,-0.0163135,-1.09119,0.017947,0.0443773,636,764,-15.4561,-1.2406
-581,260,-15.6289,0.663635,-0.00752083,0.00624424,-0.00765313,0.00965441,-0.010931,-1.15162,0.0118926,0.02554,643,764,-15.6289,-0.663631
-574,260,-15.6642,0.27771,-0.00567134,0.00458918,-0.00448935,0.00627609,-0.00735825,-1.21136,0.00788005,0.0164982,650,764,-15.6642,-0.277704
-567,260,-15.6856,-0.0736084,-0.00428921,0.00318848,-0.00183759,0.00361565,-0.00471638,-1.34239,0.00482447,0.0164166,657,764,-15.6856,0.0736132
-560,260,-15.6733,-0.475708,-0.00330545,0.00184047,-0.000321709,0.0018605,-0.00332548,-1.5086,0.00303369,0.0175874,664,764,-15.6733,0.475704
-553,260,-15.6835,-0.894409,-0.00261145,0.000629564,0.000441022,0.000688505,-0.00267039,1.43794,0.00204869,0.0164,671,764,-15.6835,0.894435
-546,260,-15.689,-1.30219,-0.0020735,-0.000335278,0.00116445,0.000248645,-0.00265743,1.10598,0.00186005,0.0109318,678,764,-15.689,1.30217
-539,260,-15.6781,-1.70868,-0.00121577,-0.00102647,0.00236589,0.00124666,-0.00348891,0.80539,0.00283441,0.0109562,685,764,-15.6781,1.70869
-532,260,-15.6769,-2.08209,7.75413e-05,-0.000704301,0.00392695,0.00363298,-0.00425974,0.735788,0.00456165,0.0139703,692,764,-15.6769,2.08206
-525,260,-15.715,-2.50726,0.000241938,0.00405941,0.00665903,0.00907786,-0.00477651,0.924975,0.00812631,0.0128785,699,764,-15.7149,2.50728
-518,260,-15.7524,-2.91418,-0.00022658,0.00780169,0.00777935,0.0125415,-0.00496639,1.02358,0.0104188,0.0140637,706,764,-15.7524,2.91416
-511,260,-15.7321,-3.30096,-0.000436687,0.0125863,0.00903884,0.0172148,-0.00506522,1.09754,0.0134859,0.0255958,713,764,-15.7321,3.30099
-504,260,-15.7481,-3.68976,0,0,0,0,0,0,0,-1,720,764,-15.7481,3.68973
-497,260,-15.859,-3.5871,0,0,0,0,0,0,0,-1,727,764,-15.859,3.58712
-490,260,-25.228,2.18707,0,0,0,0,0,0,0,-1,734,764,-25.228,-2.18708
-483,260,-24.0831,2.76337,-0.00688123,0.0470012,0.0147404,0.05077,-0.0106501,1.32048,0.0378988,0.0454487,741,764,-24.0831,-2.76336
-476,260,-22.8713,3.3252,-0.0125681,0.0607704,0.0146968,0.063606,-0.0154036,1.3802,0.0483632,0.0477199,748,764,-22.8713,-3.32517
-469,260,-25.7478,1.66187,-0.0217604,0.075939,0.0130329,0.0776477,-0.0234691,1.44043,0.0611093,0.0491773,755,764,-25.7478,-1.6619
-462,260,-25.8099,1.37805,-0.0355587,0.0891462,0.00849293,0.0897219,-0.0361344,1.50311,0.0748265,0.0447528,762,764,-25.8099,-1.37808
-455,260,-26.0093,1.0639,0,0,0,0,0,0,0,-1,769,764,-26.0093,-1.06388
-448,260,0,0,0,0,0,0,0,0,0,-1,776,764,0,0
-441,260,0,0,0,0,0,0,0,0,0,-1,783,764,0,0
-434,260,0,0,0,0,0,0,0,0,0,-1,790,764,0,0
-427,260,0,0,0,0,0,0,0,0,0,-1,797,764,0,0
-420,260,0,0,0,0,0,0,0,0,0,-1,804,764,0,0
-413,260,0,0,0,0,0,0,0,0,0,-1,811,764,0,0
-406,260,0,0,0,0,0,0,0,0,0,-1,818,764,0,0
-399,260,0,0,0,0,0,0,0,0,0,-1,825,764,0,0
-392,260,0,0,0,0,0,0,0,0,0,-1,832,764,0,0
-385,260,0,0,0,0,0,0,0,0,0,-1,839,764,0,0
-378,260,0,0,0,0,0,0,0,0,0,-1,846,764,0,0
-371,260,0,0,0,0,0,0,0,0,0,-1,853,764,0,0
-364,260,0,0,0,0,0,0,0,0,0,-1,860,764,0,0
-357,260,0,0,0,0,0,0,0,0,0,-1,867,764,0,0
-350,260,0,0,0,0,0,0,0,0,0,-1,874,764,0,0
-343,260,0,0,0,0,0,0,0,0,0,-1,881,764,0,0
-336,260,0,0,0,0,0,0,0,0,0,-1,888,764,0,0
-329,260,0,0,0,0,0,0,0,0,0,-1,895,764,0,0
-322,260,0,0,0,0,0,0,0,0,0,-1,902,764,0,0
-315,260,0,0,0,0,0,0,0,0,0,-1,909,764,0,0
-308,260,0,0,0,0,0,0,0,0,0,-1,916,764,0,0
-301,260,0,0,0,0,0,0,0,0,0,-1,923,764,0,0
-294,260,0,0,0,0,0,0,0,0,0,-1,930,764,0,0
-287,260,0,0,0,0,0,0,0,0,0,-1,937,764,0,0
-280,260,0,0,0,0,0,0,0,0,0,-1,944,764,0,0
-273,260,0,0,0,0,0,0,0,0,0,-1,951,764,0,0
-266,260,0,0,0,0,0,0,0,0,0,-1,958,764,0,0
-259,260,0,0,0,0,0,0,0,0,0,-1,965,764,0,0
-252,260,0,0,0,0,0,0,0,0,0,-1,972,764,0,0
-245,260,0,0,0,0,0,0,0,0,0,-1,979,764,0,0
-238,260,0,0,0,0,0,0,0,0,0,-1,986,764,0,0
-231,260,0,0,0,0,0,0,0,0,0,-1,993,764,0,0
-224,260,0,0,0,0,0,0,0,0,0,-1,1000,764,0,0
-217,260,0,0,0,0,0,0,0,0,0,-1,1007,764,0,0
-210,260,0,0,0,0,0,0,0,0,0,-1,1014,764,0,0
-203,260,0,0,0,0,0,0,0,0,0,-1,1021,764,0,0
-196,260,0,0,0,0,0,0,0,0,0,-1,1028,764,0,0
-189,260,0,0,0,0,0,0,0,0,0,-1,1035,764,0,0
-182,260,0,0,0,0,0,0,0,0,0,-1,1042,764,0,0
-175,260,0,0,0,0,0,0,0,0,0,-1,1049,764,0,0
-168,260,0,0,0,0,0,0,0,0,0,-1,1056,764,0,0
-161,260,0,0,0,0,0,0,0,0,0,-1,1063,764,0,0
-154,260,0,0,0,0,0,0,0,0,0,-1,1070,764,0,0
-147,260,0,0,0,0,0,0,0,0,0,-1,1077,764,0,0
-140,260,0,0,0,0,0,0,0,0,0,-1,1084,764,0,0
-133,260,0,0,0,0,0,0,0,0,0,-1,1091,764,0,0
-126,260,0,0,0,0,0,0,0,0,0,-1,1098,764,0,0
-119,260,0,0,0,0,0,0,0,0,0,-1,1105,764,0,0
-112,260,0,0,0,0,0,0,0,0,0,-1,1112,764,0,0
-105,260,0,0,0,0,0,0,0,0,0,-1,1119,764,0,0
-98,260,0,0,0,0,0,0,0,0,0,-1,1126,764,0,0
-91,260,0,0,0,0,0,0,0,0,0,-1,1133,764,0,0
-84,260,0,0,0,0,0,0,0,0,0,-1,1140,764,0,0
-77,260,0,0,0,0,0,0,0,0,0,-1,1147,764,0,0
-70,260,0,0,0,0,0,0,0,0,0,-1,1154,764,0,0
-63,260,0,0,0,0,0,0,0,0,0,-1,1161,764,0,0
-56,260,0,0,0,0,0,0,0,0,0,-1,1168,764,0,0
-49,260,0,0,0,0,0,0,0,0,0,-1,1175,764,0,0
-42,260,0,0,0,0,0,0,0,0,0,-1,1182,764,0,0
-35,260,0,0,0,0,0,0,0,0,0,-1,1189,764,0,0
-28,260,0,0,0,0,0,0,0,0,0,-1,1196,764,0,0
-21,260,0,0,0,0,0,0,0,0,0,-1,1203,764,0,0
-14,260,0,0,0,0,0,0,0,0,0,-1,1210,764,0,0
-7,260,0,0,0,0,0,0,0,0,0,-1,1217,764,0,0
0,260,0,0,0,0,0,0,0,0,0,-1,1224,764,0,0
7,260,0,0,0,0,0,0,0,0,0,-1,1231,764,0,0
14,260,0,0,0,0,0,0,0,0,0,-1,1238,764,0,0
21,260,0,0,0,0,0,0,0,0,0,-1,1245,764,0,0
28,260,0,0,0,0,0,0,0,0,0,-1,1252,764,0,0
35,260,0,0,0,0,0,0,0,0,0,-1,1259,764,0,0
42,260,0,0,0,0,0,0,0,0,0,-1,1266,764,0,0
49,260,0,0,0,0,0,0,0,0,0,-1,1273,764,0,0
56,260,0,0,0,0,0,0,0,0,0,-1,1280,764,0,0
63,260,0,0,0,0,0,0,0,0,0,-1,1287,764,0,0
70,260,0,0,0,0,0,0,0,0,0,-1,1294,764,0,0
77,260,0,0,0,0,0,0,0,0,0,-1,1301,764,0,0
84,260,0,0,0,0,0,0,0,0,0,-1,1308,764,0,0
91,260,0,0,0,0,0,0,0,0,0,-1,1315,764,0,0
98,260,0,0,0,0,0,0,0,0,0,-1,1322,764,0,0
105,260,0,0,0,0,0,0,0,0,0,-1,1329,764,0,0
112,260,0,0,0,0,0,0,0,0,0,-1,1336,764,0,0
119,260,0,0,0,0,0,0,0,0,0,-1,1343,764,0,0
126,260,0,0,0,0,0,0,0,0,0,-1,1350,764,0,0
133,260,0,0,0,0,0,0,0,0,0,-1,1357,764,0,0
140,260,0,0,0,0,0,0,0,0,0,-1,1364,764,0,0
147,260,0,0,0,0,0,0,0,0,0,-1,1371,764,0,0
154,260,0,0,0,0,0,0,0,0,0,-1,1378,764,0,0
161,260,0,0,0,0,0,0,0,0,0,-1,1385,764,0,0
168,260,0,0,0,0,0,0,0,0,0,-1,1392,764,0,0
175,260,0,0,0,0,0,0,0,0,0,-1,1399,764,0,0
182,260,0,0,0,0,0,0,0,0,0,-1,1406,764,0,0
189,260,0,0,0,0,0,0,0,0,0,-1,1413,764,0,0
196,260,0,0,0,0,0,0,0,0,0,-1,1420,764,0,0
203,260,0,0,0,0,0,0,0,0,0,-1,1427,764,0,0
210,260,0,0,0,0,0,0,0,0,0,-1,1434,764,0,0
217,260,0,0,0,0,0,0,0,0,0,-1,1441,764,0,0
224,260,0,0,0,0,0,0,0,0,0,-1,1448,764,0,0
231,260,0,0,0,0,0,0,0,0,0,-1,1455,764,0,0
238,260,0,0,0,0,0,0,0,0,0,-1,1462,764,0,0
245,260,0,0,0,0,0,0,0,0,0,-1,1469,764,0,0
252,260,0,0,0,0,0,0,0,0,0,-1,1476,764,0,0
259,260,0,0,0,0,0,0,0,0,0,-1,1483,764,0,0
266,260,0,0,0,0,0,0,0,0,0,-1,1490,764,0,0
273,260,0,0,0,0,0,0,0,0,0,-1,1497,764,0,0
280,260,0,0,0,0,0,0,0,0,0,-1,1504,764,0,0
287,260,0,0,0,0,0,0,0,0,0,-1,1511,764,0,0
294,260,0,0,0,0,0,0,0,0,0,-1,1518,764,0,0
301,260,0,0,0,0,0,0,0,0,0,-1,1525,764,0,0
308,260,0,0,0,0,0,0,0,0,0,-1,1532,764,0,0
315,260,0,0,0,0,0,0,0,0,0,-1,1539,764,0,0
322,260,0,0,0,0,0,0,0,0,0,-1,1546,764,0,0
329,260,0,0,0,0,0,0,0,0,0,-1,1553,764,0,0
336,260,0,0,0,0,0,0,0,0,0,-1,1560,764,0,0
343,260,0,0,0,0,0,0,0,0,0,-1,1567,764,0,0
350,260,0,0,0,0,0,0,0,0,0,-1,1574,764,0,0
357,260,0,0,0,0,0,0,0,0,0,-1,1581,764,0,0
364,260,0,0,0,0,0,0,0,0,0,-1,1588,764,0,0
371,260,0,0,0,0,0,0,0,0,0,-1,1595,764,0,0
378,260,0,0,0,0,0,0,0,0,0,-1,1602,764,0,0
385,260,0,0,0,0,0,0,0,0,0,-1,1609,764,0,0
392,260,0,0,0,0,0,0,0,0,0,-1,1616,764,0,0
399,260,0,0,0,0,0,0,0,0,0,-1,1623,764,0,0
406,260,0,0,0,0,0,0,0,0,0,-1,1630,764,0,0
413,260,0,0,0,0,0,0,0,0,0,-1,1637,764,0,0
420,260,0,0,0,0,0,0,0,0,0,-1,1644,764,0,0
427,260,0,0,0,0,0,0,0,0,0,-1,1651,764,0,0
434,260,0,0,0,0,0,0,0,0,0,-1,1658,764,0,0
441,260,0,0,0,0,0,0,0,0,0,-1,1665,764,0,0
448,260,0,0,0,0,0,0,0,0,0,-1,1672,764,0,0
455,260,0,0,0,0,0,0,0,0,0,-1,1679,764,0,0
462,260,0,0,0,0,0,0,0,0,0,-1,1686,764,0,0
469,260,0,0,0,0,0,0,0,0,0,-1,1693,764,0,0
476,260,0,0,0,0,0,0,0,0,0,-1,1700,764,0,0
483,260,0,0,0,0,0,0,0,0,0,-1,1707,764,0,0
490,260,0,0,0,0,0,0,0,0,0,-1,1714,764,0,0
497,260,0,0,0,0,0,0,0,0,0,-1,1721,764,0,0
504,260,0,0,0,0,0,0,0,0,0,-1,1728,764,0,0
511,260,0,0,0,0,0,0,0,0,0,-1,1735,764,0,0
518,260,0,0,0,0,0,0,0,0,0,-1,1742,764,0,0
525,260,0,0,0,0,0,0,0,0,0,-1,1749,764,0,0
532,260,0,0,0,0,0,0,0,0,0,-1,1756,764,0,0
539,260,0,0,0,0,0,0,0,0,0,-1,1763,764,0,0
546,260,0,0,0,0,0,0,0,0,0,-1,1770,764,0,0
553,260,0,0,0,0,0,0,0,0,0,-1,1777,764,0,0
560,260,0,0,0,0,0,0,0,0,0,-1,1784,764,0,0
567,260,0,0,0,0,0,0,0,0,0,-1,1791,764,0,0
574,260,35.7092,2.76141,-0.0107925,0.0403626,-0.0147201,0.0442959,-0.0147258,-1.30969,0.0354731,0.0387953,1798,764,35.7093,-2.76142
581,260,35.2925,3.16351,-0.00435985,0.0398481,-0.0152585,0.0446032,-0.00911489,-1.2687,0.0331936,0.0413691,1805,764,35.2925,-3.16351
588,260,35.2194,3.26685,-0.000956321,0.035842,-0.0138767,0.0404883,-0.00560258,-1.2477,0.0290404,0.0431539,1812,764,35.2194,-3.26686
595,260,35.2814,3.27667,0.00113265,0.0303953,-0.0118728,0.0346064,-0.00307848,-1.22995,0.0241626,0.0445575,1819,764,35.2813,-3.27669
602,260,35.6542,3.41943,0.00243064,0.0248481,-0.00971863,0.0284747,-0.00119597,-1.21364,0.0193941,0.0443125,1826,764,35.6542,-3.41941
609,260,36.0199,3.51019,0,0,0,0,0,0,0,-1,1833,764,36.02,-3.51017
616,260,35.4386,3.40265,0,0,0,0,0,0,0,-1,1840,764,35.4386,-3.40265
623,260,32.2268,3.25836,0,0,0,0,0,0,0,-1,1847,764,32.2268,-3.25833
630,260,24.3739,-0.536316,0,0,0,0,0,0,0,-1,1854,764,24.3739,0.536343
637,260,24.1987,-1.33148,0,0,0,0,0,0,0,-1,1861,764,24.1987,1.33149
644,260,24.183,-0.994934,0.00207642,0.00124483,-0.00199925,0.00370266,-0.000381404,-0.682872,0.0026049,0.0269991,1868,764,24.183,0.994946
651,260,24.1736,-0.564087,-0.000244925,-0.000890685,-0.00098547,0.000469211,-0.00160482,-0.627089,0.00125585,0.0144193,1875,764,24.1736,0.564117
658,260,24.1483,-0.140015,-0.00156249,-0.00185686,-0.000805903,-0.000890439,-0.00252891,-0.695078,0.0014812,0.0159074,1882,764,24.1483,0.140016
665,260,24.1383,0.286133,-0.00120771,-0.00161055,-0.00103943,-0.000350369,-0.00246789,-0.689693,0.0015418,0.0159102,1889,764,24.1383,-0.286114
672,260,24.1315,0.731262,-0.00048754,-0.00109993,-0.000984809,0.000237576,-0.00182505,-0.634676,0.00130313,0.0135487,1896,764,24.1315,-0.731274
679,260,24.1117,1.17212,0.000606678,-0.000663394,-0.00068442,0.000905291,-0.000962008,-0.411404,0.00107825,0.0120331,1903,764,24.1117,-1.17211
686,260,24.0924,1.59949,0.00187653,-9.19777e-05,-0.000204776,0.00189761,-0.000113054,-0.102563,0.00130439,0.0159373,1910,764,24.0924,-1.5995
693,260,24.0649,1.97614,0.00352919,0.000454215,0.000424702,0.00358677,0.000396635,0.134755,0.00227055,0.0157569,1917,764,24.0649,-1.97615
700,260,24.0294,2.40259,0.00584789,0.000722474,0.00117044,0.00610252,0.000467843,0.214213,0.00392171,0.0139787,1924,764,24.0294,-2.40259
707,260,24.0203,2.84039,0.00976026,0.000593551,0.00220414,0.0102627,9.11043e-05,0.224126,0.00681164,0.0140723,1931,764,24.0202,-2.84038
714,260,24.0625,3.31799,0.0156096,-0.000834806,0.00350475,0.0163254,-0.00155061,0.201467,0.0114356,0.0239885,1938,764,24.0626,-3.31797
721,260,25.0496,3.71002,0,0,0,0,0,0,0,-1,1945,764,25.0495,-3.71002
728,260,25.9329,3.51257,0,0,0,0,0,0,0,-1,1952,764,25.9329,-3.51257
735,260,26.4448,3.18262,0,0,0,0,0,0,0,-1,1959,764,26.4448,-3.18262
742,260,32.1443,1.73688,0,0,0,0,0,0,0,-1,1966,764,32.1442,-1.73688
749,260,33.6013,2.94733,0,0,0,0,0,0,0,-1,1973,764,33.6013,-2.9473
756,260,0,0,0,0,0,0,0,0,0,-1,1980,764,0,0
763,260,0,0,0,0,0,0,0,0,0,-1,1987,764,0,0
770,260,0,0,0,0,0,0,0,0,0,-1,1994,764,0,0
777,260,0,0,0,0,0,0,0,0,0,-1,2001,764,0,0
784,260,0,0,0,0,0,0,0,0,0,-1,2008,764,0,0
791,260,0,0,0,0,0,0,0,0,0,-1,2015,764,0,0
798,260,0,0,0,0,0,0,0,0,0,-1,2022,764,0,0
805,260,0,0,0,0,0,0,0,0,0,-1,2029,764,0,0
812,260,0,0,0,0,0,0,0,0,0,-1,2036,764,0,0
-700,253,0,0,0,0,0,0,0,0,0,-1,524,771,0,0
-693,253,0,0,0,0,0,0,0,0,0,-1,531,771,0,0
-686,253,0,0,0,0,0,0,0,0,0,-1,538,771,0,0
-679,253,0,0,0,0,0,0,0,0,0,-1,545,771,0,0
-672,253,0,0,0,0,0,0,0,0,0,-1,552,771,0,0
-665,253,0,0,0,0,0,0,0,0,0,-1,559,771,0,0
-658,253,0,0,0,0,0,0,0,0,0,-1,566,771,0,0
-651,253,0,0,0,0,0,0,0,0,0,-1,573,771,0,0
-644,253,0,0,0,0,0,0,0,0,0,-1,580,771,0,0
-637,253,-24.7979,-0.491394,0,0,0,0,0,0,0,-1,587,771,-24.7978,0.491371
-630,253,-25.156,0.540405,0,0,0,0,0,0,0,-1,594,771,-25.156,-0.540421
-623,253,-20.808,2.84314,0,0,0,0,0,0,0,-1,601,771,-20.8081,-2.84312
-616,253,-19.338,2.65521,0,0,0,0,0,0,0,-1,608,771,-19.338,-2.65522
-609,253,-17.7501,3.04822,0,0,0,0,0,0,0,-1,615,771,-17.7501,-3.04824
-602,253,-15.7556,2.29639,0,0,0,0,0,0,0,-1,622,771,-15.7556,-2.29637
-595,253,-15.8065,1.77521,-0.00862641,0.00900582,-0.0228935,0.024722,-0.0243426,-0.969193,0.0283278,0.0459112,629,771,-15.8064,-1.77522
-588,253,-15.9512,1.17163,-0.00723186,0.00723436,-0.0140507,0.0158045,-0.015802,-1.0231,0.018248,0.0377658,636,771,-15.9512,-1.17163
-581,253,-16.0394,0.677307,-0.00572315,0.00556787,-0.00851425,0.0101382,-0.0102935,-1.07815,0.0117964,0.0245189,643,771,-16.0394,-0.677309
-574,253,-16.0792,0.292236,-0.00447854,0.00405134,-0.00489814,0.00628112,-0.00670832,-1.1436,0.00750081,0.0200808,650,771,-16.0792,-0.292223
-567,253,-16.1166,-0.113831,-0.0034664,0.00267987,-0.00190939,0.00322474,-0.00401126,-1.29282,0.00418593,0.0162199,657,771,-16.1166,0.113824
-560,253,-16.0982,-0.485229,-0.00276618,0.00133794,-0.000200585,0.00134772,-0.00277596,-1.52208,0.00242794,0.0125046,664,771,-16.0982,0.485202
-553,253,-16.0961,-0.886047,-0.0023026,5.6293e-05,0.000620865,0.000209726,-0.00245603,1.32852,0.00171155,0.0124704,671,771,-16.0961,0.886041
-546,253,-16.0999,-1.26093,-0.00189018,-0.000998633,0.0014159,4.00099e-05,-0.00292882,0.937903,0.00196602,0.0109784,678,771,-16.0999,1.26092
-539,253,-16.1072,-1.67377,-0.00102683,-0.00170175,0.00275215,0.00140847,-0.00413705,0.724394,0.00332839,0.0111477,685,771,-16.1072,1.67377
-532,253,-16.092,-2.06873,0.000272806,-0.00128713,0.00433237,0.00389485,-0.00490918,0.696336,0.00509424,0.0145497,692,771,-16.092,2.0687
-525,253,-16.1045,-2.49182,0.0004216,0.00349154,0.00698637,0.00910958,-0.00519644,0.893534,0.00836195,0.0125394,699,771,-16.1045,2.49181
-518,253,-16.1748,-2.88556,2.96891e-05,0.00700016,0.00797133,0.0122149,-0.00518502,0.991486,0.0103155,0.0188581,706,771,-16.1748,2.88553
-511,253,-16.3854,-3.20508,-9.24038e-05,0.0114678,0.00912695,0.016491,-0.00511558,1.06767,0.0130381,0.0449735,713,771,-16.3854,3.20505
-504,253,-16.6807,-3.5329,0,0,0,0,0,0,0,-1,720,771,-16.6807,3.53289
-497,253,-21.3998,-1.49701,0,0,0,0,0,0,0,-1,727,771,-21.3998,1.497
-490,253,-25.2702,1.08289,0,0,0,0,0,0,0,-1,734,771,-25.2702,-1.08289
-483,253,-24.4856,2.53412,-0.00565408,0.044519,0.0149572,0.0486395,-0.00977458,1.30198,0.036128,0.0485097,741,771,-24.4856,-2.53415
-476,253,-25.9196,1.68774,-0.0105995,0.0574791,0.0151653,0.0607045,-0.013825,1.36123,0.0457792,0.0461356,748,771,-25.9196,-1.68773
-469,253,-26.0433,1.29388,-0.0182573,0.0709037,0.0137626,0.0729797,-0.0203333,1.42108,0.0566604,0.0420355,755,771,-26.0432,-1.29391
-462,253,-26.0878,0.938904,-0.0293623,0.081179,0.00934947,0.0819642,-0.0301475,1.48701,0.0669926,0.0458843,762,771,-26.0879,-0.938921
-455,253,-26.1692,0.837097,0,0,0,0,0,0,0,-1,769,771,-26.1692,-0.837098
-448,253,0,0,0,0,0,0,0,0,0,-1,776,771,0,0
-441,253,0,0,0,0,0,0,0,0,0,-1,783,771,0,0
-434,253,0,0,0,0,0,0,0,0,0,-1,790,771,0,0
-427,253,0,0,0,0,0,0,0,0,0,-1,797,771,0,0
-420,253,0,0,0,0,0,0,0,0,0,-1,804,771,0,0
-413,253,0,0,0,0,0,0,0,0,0,-1,811,771,0,0
-406,253,0,0,0,0,0,0,0,0,0,-1,818,771,0,0
-399,253,0,0,0,0,0,0,0,0,0,-1,825,771,0,0
-392,253,0,0,0,0,0,0,0,0,0,-1,832,771,0,0
-385,253,0,0,0,0,0,0,0,0,0,-1,839,771,0,0
-378,253,0,0,0,0,0,0,0,0,0,-1,846,771,0,0
-371,253,0,0,0,0,0,0,0,0,0,-1,853,771,0,0
-364,253,0,0,0,0,0,0,0,0,0,-1,860,771,0,0
-357,253,0,0,0,0,0,0,0,0,0,-1,867,771,0,0
-350,253,0,0,0,0,0,0,0,0,0,-1,874,771,0,0
-343,253,0,0,0,0,0,0,0,0,0,-1,881,771,0,0
-336,253,0,0,0,0,0,0,0,0,0,-1,888,771,0,0
-329,253,0,0,0,0,0,0,0,0,0,-1,895,771,0,0
-322,253,0,0,0,0,0,0,0,0,0,-1,902,771,0,0
-315,253,0,0,0,0,0,0,0,0,0,-1,909,771,0,0
-308,253,0,0,0,0,0,0,0,0,0,-1,916,771,0,0
-301,253,0,0,0,0,0,0,0,0,0,-1,923,771,0,0
-294,253,0,0,0,0,0,0,0,0,0,-1,930,771,0,0
-287,253,0,0,0,0,0,0,0,0,0,-1,937,771,0,0
-280,253,0,0,0,0,0,0,0,0,0,-1,944,771,0,0
-273,253,0,0,0,0,0,0,0,0,0,-1,951,771,0,0
-266,253,0,0,0,0,0,0,0,0,0,-1,958,771,0,0
-259,253,0,0,0,0,0,0,0,0,0,-1,965,771,0,0
-252,253,0,0,0,0,0,0,0,0,0,-1,972,771,0,0
-245,253,0,0,0,0,0,0,0,0,0,-1,979,771,0,0
-238,253,0,0,0,0,0,0,0,0,0,-1,986,771,0,0
-231,253,0,0,0,0,0,0,0,0,0,-1,993,771,0,0
-224,253,0,0,0,0,0,0,0,0,0,-1,1000,771,0,0
-217,253,0,0,0,0,0,0,0,0,0,-1,1007,771,0,0
-210,253,0,0,0,0,0,0,0,0,0,-1,1014,771,0,0
-203,253,0,0,0,0,0,0,0,0,0,-1,1021,771,0,0
-196,253,0,0,0,0,0,0,0,0,0,-1,1028,771,0,0
-189,253,0,0,0,0,0,0,0,0,0,-1,1035,771,0,0
-182,253,0,0,0,0,0,0,0,0,0,-1,1042,771,0,0
-175,253,0,0,0,0,0,0,0,0,0,-1,1049,771,0,0
-168,253,0,0,0,0,0,0,0,0,0,-1,1056,771,0,0
-161,253,0,0,0,0,0,0,0,0,0,-1,1063,771,0,0
-154,253,0,0,0,0,0,0,0,0,0,-1,1070,771,0,0
-147,253,0,0,0,0,0,0,0,0,0,-1,1077,771,0,0
-140,253,0,0,0,0,0,0,0,0,0,-1,1084,771,0,0
-133,253,0,0,0,0,0,0,0,0,0,-1,1091,771,0,0
-126,253,0,0,0,0,0,0,0,0,0,-1,1098,771,0,0
-119,253,0,0,0,0,0,0,0,0,0,-1,1105,771,0,0
-112,253,0,0,0,0,0,0,0,0,0,-1,1112,771,0,0
-105,253,0,0,0,0,0,0,0,0,0,-1,1119,771,0,0
-98,253,0,0,0,0,0,0,0,0,0,-1,1126,771,0,0
-91,253,0,0,0,0,0,0,0,0,0,-1,1133,771,0,0
-84,253,0,0,0,0,0,0,0,0,0,-1,1140,771,0,0
-77,253,0,0,0,0,0,0,0,0,0,-1,1147,771,0,0
-70,253,0,0,0,0,0,0,0,0,0,-1,1154,771,0,0
-63,253,0,0,0,0,0,0,0,0,0,-1,1161,771,0,0
-56,253,0,0,0,0,0,0,0,0,0,-1,1168,771,0,0
-49,253,0,0,0,0,0,0,0,0,0,-1,1175,771,0,0
-42,253,0,0,0,0,0,0,0,0,0,-1,1182,771,0,0
-35,253,0,0,0,0,0,0,0,0,0,-1,1189,771,0,0
-28,253,0,0,0,0,0,0,0,0,0,-1,1196,771,0,0
-21,253,0,0,0,0,0,0,0,0,0,-1,1203,771,0,0
-14,253,0,0,0,0,0,0,0,0,0,-1,1210,771,0,0
-7,253,0,0,0,0,0,0,0,0,0,-1,1217,771,0,0
0,253,0,0,0,0,0,0,0,0,0,-1,1224,771,0,0
7,253,0,0,0,0,0,0,0,0,0,-1,1231,771,0,0
14,253,0,0,0,0,0,0,0,0,0,-1,1238,771,0,0
21,253,0,0,0,0,0,0,0,0,0,-1,1245,771,0,0
28,253,0,0,0,0,0,0,0,0,0,-1,1252,771,0,0
35,253,0,0,0,0,0,0,0,0,0,-1,1259,771,0,0
42,253,0,0,0,0,0,0,0,0,0,-1,1266,771,0,0
49,253,0,0,0,0,0,0,0,0,0,-1,1273,771,0,0
56,253,0,0,0,0,0,0,0,0,0,-1,1280,771,0,0
63,253,0,0,0,0,0,0,0,0,0,-1,1287,771,0,0
70,253,0,0,0,0,0,0,0,0,0,-1,1294,771,0,0
77,253,0,0,0,0,0,0,0,0,0,-1,1301,771,0,0
84,253,0,0,0,0,0,0,0,0,0,-1,1308,771,0,0
91,253,0,0,0,0,0,0,0,0,0,-1,1315,771,0,0
98,253,0,0,0,0,0,0,0,0,0,-1,1322,771,0,0
105,253,0,0,0,0,0,0,0,0,0,-1,1329,771,0,0
112,253,0,0,0,0,0,0,0,0,0,-1,1336,771,0,0
119,253,0,0,0,0,0,0,0,0,0,-1,1343,771,0,0
126,253,0,0,0,0,0,0,0,0,0,-1,1350,771,0,0
133,253,0,0,0,0,0,0,0,0,0,-1,1357,771,0,0
140,253,0,0,0,0,0,0,0,0,0,-1,1364,771,0,0
147,253,0,0,0,0,0,0,0,0,0,-1,1371,771,0,0
154,253,0,0,0,0,0,0,0,0,0,-1,1378,771,0,0
161,253,0,0,0,0,0,0,0,0,0,-1,1385,771,0,0
168,253,0,0,0,0,0,0,0,0,0,-1,1392,771,0,0
175,253,0,0,0,0,0,0,0,0,0,-1,1399,771,0,0
182,253,0,0,0,0,0,0,0,0,0,-1,1406,771,0,0
189,253,0,0,0,0,0,0,0,0,0,-1,1413,771,0,0
196,253,0,0,0,0,0,0,0,0,0,-1,1420,771,0,0
203,253,0,0,0,0,0,0,0,0,0,-1,1427,771,0,0
210,253,0,0,0,0,0,0,0,0,0,-1,1434,771,0,0
217,253,0,0,0,0,0,0,0,0,0,-1,1441,771,0,0
224,253,0,0,0,0,0,0,0,0,0,-1,1448,771,0,0
231,253,0,0,0,0,0,0,0,0,0,-1,1455,771,0,0
238,253,0,0,0,0,0,0,0,0,0,-1,1462,771,0,0
245,253,0,0,0,0,0,0,0,0,0,-1,1469,771,0,0
252,253,0,0,0,0,0,0,0,0,0,-1,1476,771,0,0
259,253,0,0,0,0,0,0,0,0,0,-1,1483,771,0,0
266,253,0,0,0,0,0,0,0,0,0,-1,1490,771,0,0
273,253,0,0,0,0,0,0,0,0,0,-1,1497,771,0,0
280,253,0,0,0,0,0,0,0,0,0,-1,1504,771,0,0
287,253,0,0,0,0,0,0,0,0,0,-1,1511,771,0,0
294,253,0,0,0,0,0,0,0,0,0,-1,1518,771,0,0
301,253,0,0,0,0,0,0,0,0,0,-1,1525,771,0,0
308,253,0,0,0,0,0,0,0,0,0,-1,1532,771,0,0
315,253,0,0,0,0,0,0,0,0,0,-1,1539,771,0,0
322,253,0,0,0,0,0,0,0,0,0,-1,1546,771,0,0
329,253,0,0,0,0,0,0,0,0,0,-1,1553,771,0,0
336,253,0,0,0,0,0,0,0,0,0,-1,1560,771,0,0
343,253,0,0,0,0,0,0,0,0,0,-1,1567,771,0,0
350,253,0,0,0,0,0,0,0,0,0,-1,1574,771,0,0
357,253,0,0,0,0,0,0,0,0,0,-1,1581,771,0,0
364,253,0,0,0,0,0,0,0,0,0,-1,1588,771,0,0
371,253,0,0,0,0,0,0,0,0,0,-1,1595,771,0,0
378,253,0,0,0,0,0,0,0,0,0,-1,1602,771,0,0
385,253,0,0,0,0,0,0,0,0,0,-1,1609,771,0,0
392,253,0,0,0,0,0,0,0,0,0,-1,1616,771,0,0
399,253,0,0,0,0,0,0,0,0,0,-1,1623,771,0,0
406,253,0,0,0,0,0,0,0,0,0,-1,1630,771,0,0
413,253,0,0,0,0,0,0,0,0,0,-1,1637,771,0,0
420,253,0,0,0,0,0,0,0,0,0,-1,1644,771,0,0
427,253,0,0,0,0,0,0,0,0,0,-1,1651,771,0,0
434,253,0,0,0,0,0,0,0,0,0,-1,1658,771,0,0
441,253,0,0,0,0,0,0,0,0,0,-1,1665,771,0,0
448,253,0,0,0,0,0,0,0,0,0,-1,1672,771,0,0
455,253,0,0,0,0,0,0,0,0,0,-1,1679,771,0,0
462,253,0,0,0,0,0,0,0,0,0,-1,1686,771,0,0
469,253,0,0,0,0,0,0,0,0,0,-1,1693,771,0,0
476,253,0,0,0,0,0,0,0,0,0,-1,1700,771,0,0
483,253,0,0,0,0,0,0,0,0,0,-1,1707,771,0,0
490,253,0,0,0,0,0,0,0,0,0,-1,1714,771,0,0
497,253,0,0,0,0,0,0,0,0,0,-1,1721,771,0,0
504,253,0,0,0,0,0,0,0,0,0,-1,1728,771,0,0
511,253,0,0,0,0,0,0,0,0,0,-1,1735,771,0,0
518,253,0,0,0,0,0,0,0,0,0,-1,1742,771,0,0
525,253,0,0,0,0,0,0,0,0,0,-1,1749,771,0,0
532,253,0,0,0,0,0,0,0,0,0,-1,1756,771,0,0
539,253,0,0,0,0,0,0,0,0,0,-1,1763,771,0,0
546,253,0,0,0,0,0,0,0,0,0,-1,1770,771,0,0
553,253,0,0,0,0,0,0,0,0,0,-1,1777,771,0,0
560,253,0,0,0,0,0,0,0,0,0,-1,1784,771,0,0
567,253,0,0,0,0,0,0,0,0,0,-1,1791,771,0,0
574,253,35.7789,2.61163,-0.0122717,0.0300367,-0.0103236,0.0324213,-0.0146564,-1.34379,0.0278179,0.0386054,1798,771,35.7789,-2.61165
581,253,35.6849,2.72888,-0.00391779,0.0325106,-0.0122543,0.0362492,-0.00765638,-1.27468,0.0270815,0.0424682,1805,771,35.6849,-2.72887
588,253,35.7236,2.86108,5.88166e-05,0.031041,-0.0118497,0.0350535,-0.00395368,-1.2443,0.0247922,0.0429214,1812,771,35.7237,-2.86109
595,253,36.2513,2.71082,0.00212066,0.0269822,-0.0104431,0.0307867,-0.00168377,-1.22144,0.0211081,0.0450923,1819,771,36.2514,-2.71084
602,253,36.3931,2.97369,0,0,0,0,0,0,0,-1,1826,771,36.3931,-2.97367
609,253,35.4952,2.94116,0,0,0,0,0,0,0,-1,1833,771,35.4953,-2.94119
616,253,35.3696,3.11261,0,0,0,0,0,0,0,-1,1840,771,35.3697,-3.11263
623,253,35.3014,3.26025,0,0,0,0,0,0,0,-1,1847,771,35.3014,-3.26025
630,253,33.561,2.96838,0,0,0,0,0,0,0,-1,1854,771,33.561,-2.96836
637,253,22.3192,-0.604004,0,0,0,0,0,0,0,-1,1861,771,22.3192,0.603986
644,253,24.5374,-0.932007,0,0,0,0,0,0,0,-1,1868,771,24.5374,0.931993
651,253,24.5476,-0.524231,-0.00121417,-0.00148036,-0.00159511,0.00025339,-0.00294792,-0.743774,0.00205496,0.0241697,1875,771,24.5475,0.524222
658,253,24.5737,-0.124695,-0.00251946,-0.00248651,-0.00154921,-0.000953681,-0.00405229,-0.790716,0.0024464,0.018768,1882,771,24.5737,0.124723
665,253,24.5125,0.292053,-0.00212767,-0.00235658,-0.00180378,-0.000434722,-0.00404953,-0.753714,0.00256708,0.0202121,1889,771,24.5124,-0.292053
672,253,24.5181,0.74408,-0.00122194,-0.00189632,-0.00167561,0.000150065,-0.00326833,-0.686108,0.00223059,0.0156182,1896,771,24.5181,-0.744103
679,253,24.5302,1.20361,0.000111682,-0.00146329,-0.0012682,0.000817004,-0.00216861,-0.507558,0.00178165,0.0124347,1903,771,24.5302,-1.20359
686,253,24.5134,1.61139,0.00166199,-0.000874909,-0.000637362,0.00181311,-0.00102603,-0.232812,0.00166005,0.0197473,1910,771,24.5134,-1.61136
693,253,24.484,1.99738,0.0035258,-0.000235997,0.000142053,0.00353116,-0.000241354,0.0376904,0.00243854,0.0195962,1917,771,24.484,-1.99735
700,253,24.4633,2.40875,0.00599852,-9.45362e-06,0.000979623,0.00615422,-0.00016515,0.157617,0.00415895,0.0166498,1924,771,24.4632,-2.40873
707,253,24.4655,2.84259,0.0100326,-0.000355024,0.00202547,0.0104136,-0.000735996,0.185918,0.00720027,0.015176,1931,771,24.4654,-2.84261
714,253,24.4684,3.27448,0.0160102,-0.00216268,0.00354822,0.0166784,-0.00283089,0.186143,0.0121728,0.0187152,1938,771,24.4684,-3.2745
721,253,25.2072,3.58691,0,0,0,0,0,0,0,-1,1945,771,25.2071,-3.58689
728,253,25.5437,3.51105,0,0,0,0,0,0,0,-1,1952,771,25.5437,-3.51105
735,253,26.0374,3.37268,0,0,0,0,0,0,0,-1,1959,771,26.0373,-3.37268
742,253,31.514,1.90894,0,0,0,0,0,0,0,-1,1966,771,31.514,-1.90892
749,253,32.8558,3.30847,0,0,0,0,0,0,0,-1,1973,771,32.8559,-3.30849
756,253,0,0,0,0,0,0,0,0,0,-1,1980,771,0,0
763,253,0,0,0,0,0,0,0,0,0,-1,1987,771,0,0
770,253,0,0,0,0,0,0,0,0,0,-1,1994,771,0,0
777,253,0,0,0,0,0,0,0,0,0,-1,2001,771,0,0
784,253,0,0,0,0,0,0,0,0,0,-1,2008,771,0,0
791,253,0,0,0,0,0,0,0,0,0,-1,2015,771,0,0
798,253,0,0,0,0,0,0,0,0,0,-1,2022,771,0,0
805,253,0,0,0,0,0,0,0,0,0,-1,2029,771,0,0
812,253,0,0,0,0,0,0,0,0,0,-1,2036,771,0,0
-700,246,0,0,0,0,0,0,0,0,0,-1,524,778,0,0
-693,246,0,0,0,0,0,0,0,0,0,-1,531,778,0,0
-686,246,0,0,0,0,0,0,0,0,0,-1,538,778,0,0
-679,246,0,0,0,0,0,0,0,0,0,-1,545,778,0,0
-672,246,0,0,0,0,0,0,0,0,0,-1,552,778,0,0
-665,246,0,0,0,0,0,0,0,0,0,-1,559,778,0,0
-658,246,0,0,0,0,0,0,0,0,0,-1,566,778,0,0
-651,246,0,0,0,0,0,0,0,0,0,-1,573,778,0,0
-644,246,0,0,0,0,0,0,0,0,0,-1,580,778,0,0
-637,246,-24.1234,0.130432,0,0,0,0,0,0,0,-1,587,778,-24.1234,-0.130438
-630,246,-24.0781,1.38916,0,0,0,0,0,0,0,-1,594,778,-24.0781,-1.38913
-623,246,-23.9183,2.49573,0,0,0,0,0,0,0,-1,601,778,-23.9183,-2.49575
-616,246,-19.4752,1.91888,0,0,0,0,0,0,0,-1,608,778,-19.4752,-1.91889
-609,246,-17.5242,0.963379,0,0,0,0,0,0,0,-1,615,778,-17.5242,-0.963383
-602,246,-16.3291,2.30243,0,0,0,0,0,0,0,-1,622,778,-16.3291,-2.30244
-595,246,-16.3362,1.80774,-0.00665139,0.0081012,-0.0232709,0.0251369,-0.0236871,-0.938876,0.0281927,0.0460507,629,778,-16.3362,-1.80771
-588,246,-16.3571,1.17841,-0.00560554,0.00650885,-0.0144294,0.0161008,-0.0151975,-0.98412,0.0180726,0.0281679,636,778,-16.3571,-1.17841
-581,246,-16.4642,0.736938,-0.00444437,0.00496996,-0.00876322,0.0102102,-0.00968463,-1.03186,0.0114876,0.0163253,643,778,-16.4642,-0.736918
-574,246,-16.4587,0.296326,-0.00354738,0.00353744,-0.00495289,0.00608435,-0.00609429,-1.09583,0.00703135,0.0178951,650,778,-16.4588,-0.296346
-567,246,-16.4973,-0.103271,-0.00280469,0.00218116,-0.00174816,0.00273302,-0.00335656,-1.26501,0.00352196,0.0184893,657,778,-16.4973,0.103264
-560,246,-16.5066,-0.490417,-0.00229168,0.000817747,5.22226e-05,0.000818624,-0.00229256,1.55401,0.00186222,0.0141857,664,778,-16.5066,0.490439
-553,246,-16.5109,-0.863647,-0.00200469,-0.000581087,0.000873319,-0.000166235,-0.00241954,1.12732,0.00156057,0.0132928,671,778,-16.5109,0.863635
-546,246,-16.5221,-1.24084,-0.00166988,-0.00176779,0.00167583,-4.22902e-05,-0.00339539,0.770796,0.00224963,0.0111645,678,778,-16.5221,1.24086
-539,246,-16.5107,-1.65918,-0.000793428,-0.00251339,0.00301445,0.00148131,-0.00478813,0.646446,0.00378378,0.0106702,685,778,-16.5107,1.65916
-532,246,-16.4976,-2.07367,0.000458925,-0.00211821,0.00446093,0.00381366,-0.00547295,0.644797,0.00539008,0.0120291,692,778,-16.4976,2.07366
-525,246,-16.5297,-2.45471,0.000620184,0.00226117,0.00683334,0.0083231,-0.00544175,0.845148,0.00800496,0.0148601,699,778,-16.5296,2.4547
-518,246,-16.6288,-2.72125,0.000347618,0.00532747,0.00764788,0.0108805,-0.00520545,0.942772,0.00947795,0.0249366,706,778,-16.6289,2.72126
-511,246,-16.9375,-3.10968,0,0,0,0,0,0,0,-1,713,778,-16.9375,3.10967
-504,246,-16.9421,-2.81964,0,0,0,0,0,0,0,-1,720,778,-16.9421,2.81962
-497,246,-16.5344,-3.05225,0,0,0,0,0,0,0,-1,727,778,-16.5344,3.05224
-490,246,-25.5475,0.883606,-0.00151066,0.0292373,0.0130922,0.0340565,-0.00632987,1.21809,0.0250819,0.0490225,734,778,-25.5476,-0.883619
-483,246,-24.7878,2.22113,-0.00381576,0.0391816,0.0140665,0.0433745,-0.00800869,1.2811,0.0319226,0.0489556,741,778,-24.7878,-2.22113
-476,246,-24.0668,3.46552,0,0,0,0,0,0,0,-1,748,778,-24.0667,-3.46549
-469,246,-26.3007,0.883484,-0.0138077,0.0613584,0.0123364,0.0633313,-0.0157806,1.41221,0.0483473,0.0418189,755,778,-26.3007,-0.883467
-462,246,-26.381,0.682861,-0.0231498,0.0682874,0.0069699,0.0688156,-0.023678,1.49515,0.0554803,0.0466037,762,778,-26.381,-0.682836
-455,246,0,0,0,0,0,0,0,0,0,-1,769,778,0,0
-448,246,0,0,0,0,0,0,0,0,0,-1,776,778,0,0
-441,246,0,0,0,0,0,0,0,0,0,-1,783,778,0,0
-434,246,0,0,0,0,0,0,0,0,0,-1,790,778,0,0
-427,246,0,0,0,0,0,0,0,0,0,-1,797,778,0,0
-420,246,0,0,0,0,0,0,0,0,0,-1,804,778,0,0
-413,246,0,0,0,0,0,0,0,0,0,-1,811,778,0,0
-406,246,0,0,0,0,0,0,0,0,0,-1,818,778,0,0
-399,246,0,0,0,0,0,0,0,0,0,-1,825,778,0,0
-392,246,0,0,0,0,0,0,0,0,0,-1,832,778,0,0
-385,246,0,0,0,0,0,0,0,0,0,-1,839,778,0,0
-378,246,0,0,0,0,0,0,0,0,0,-1,846,778,0,0
-371,246,0,0,0,0,0,0,0,0,0,-1,853,778,0,0
-364,246,0,0,0,0,0,0,0,0,0,-1,860,778,0,0
-357,246,0,0,0,0,0,0,0,0,0,-1,867,778,0,0
-350,246,0,0,0,0,0,0,0,0,0,-1,874,778,0,0
-343,246,0,0,0,0,0,0,0,0,0,-1,881,778,0,0
-336,246,0,0,0,0,0,0,0,0,0,-1,888,778,0,0
-329,246,0,0,0,0,0,0,0,0,0,-1,895,778,0,0
-322,246,0,0,0,0,0,0,0,0,0,-1,902,778,0,0
-315,246,0,0,0,0,0,0,0,0,0,-1,909,778,0,0
-308,246,0,0,0,0,0,0,0,0,0,-1,916,778,0,0
-301,246,0,0,0,0,0,0,0,0,0,-1,923,778,0,0
-294,246,0,0,0,0,0,0,0,0,0,-1,930,778,0,0
-287,246,0,0,0,0,0,0,0,0,0,-1,937,778,0,0
-280,246,0,0,0,0,0,0,0,0,0,-1,944,778,0,0
-273,246,0,0,0,0,0,0,0,0,0,-1,951,778,0,0
-266,246,0,0,0,0,0,0,0,0,0,-1,958,778,0,0
-259,246,0,0,0,0,0,0,0,0,0,-1,965,778,0,0
-252,246,0,0,0,0,0,0,0,0,0,-1,972,778,0,0
-245,246,0,0,0,0,0,0,0,0,0,-1,979,778,0,0
-238,246,0,0,0,0,0,0,0,0,0,-1,986,778,0,0
-231,246,0,0,0,0,0,0,0,0,0,-1,993,778,0,0
-224,246,0,0,0,0,0,0,0,0,0,-1,1000,778,0,0
-217,246,0,0,0,0,0,0,0,0,0,-1,1007,778,0,0
-210,246,0,0,0,0,0,0,0,0,0,-1,1014,778,0,0
-203,246,0,0,0,0,0,0,0,0,0,-1,1021,778,0,0
-196,246,0,0,0,0,0,0,0,0,0,-1,1028,778,0,0
-189,246,0,0,0,0,0,0,0,0,0,-1,1035,778,0,0
-182,246,0,0,0,0,0,0,0,0,0,-1,1042,778,0,0
-175,246,0,0,0,0,0,0,0,0,0,-1,1049,778,0,0
-168,246,0,0,0,0,0,0,0,0,0,-1,1056,778,0,0
-161,246,0,0,0,0,0,0,0,0,0,-1,1063,778,0,0
-154,246,0,0,0,0,0,0,0,0,0,-1,1070,778,0,0
-147,246,0,0,0,0,0,0,0,0,0,-1,1077,778,0,0
-140,246,0,0,0,0,0,0,0,0,0,-1,1084,778,0,0
-133,246,0,0,0,0,0,0,0,0,0,-1,1091,778,0,0
-126,246,0,0,0,0,0,0,0,0,0,-1,1098,778,0,0
-119,246,0,0,0,0,0,0,0,0,0,-1,1105,778,0,0
-112,246,0,0,0,0,0,0,0,0,0,-1,1112,778,0,0
-105,246,0,0,0,0,0,0,0,0,0,-1,1119,778,0,0
-98,246,0,0,0,0,0,0,0,0,0,-1,1126,778,0,0
-91,246,0,0,0,0,0,0,0,0,0,-1,1133,778,0,0
-84,246,0,0,0,0,0,0,0,0,0,-1,1140,778,0,0
-77,246,0,0,0,0,0,0,0,0,0,-1,1147,778,0,0
-70,246,0,0,0,0,0,0,0,0,0,-1,1154,778,0,0
-63,246,0,0,0,0,0,0,0,0,0,-1,1161,778,0,0
-56,246,0,0,0,0,0,0,0,0,0,-1,1168,778,0,0
-49,246,0,0,0,0,0,0,0,0,0,-1,1175,778,0,0
-42,246,0,0,0,0,0,0,0,0,0,-1,1182,778,0,0
-35,246,0,0,0,0,0,0,0,0,0,-1,1189,778,0,0
-28,246,0,0,0,0,0,0,0,0,0,-1,1196,778,0,0
-21,246,0,0,0,0,0,0,0,0,0,-1,1203,778,0,0
-14,246,0,0,0,0,0,0,0,0,0,-1,1210,778,0,0
-7,246,0,0,0,0,0,0,0,0,0,-1,1217,778,0,0
0,246,0,0,0,0,0,0,0,0,0,-1,1224,778,0,0
7,246,0,0,0,0,0,0,0,0,0,-1,1231,778,0,0
14,246,0,0,0,0,0,0,0,0,0,-1,1238,778,0,0
21,246,0,0,0,0,0,0,0,0,0,-1,1245,778,0,0
28,246,0,0,0,0,0,0,0,0,0,-1,1252,778,0,0
35,246,0,0,0,0,0,0,0,0,0,-1,1259,778,0,0
42,246,0,0,0,0,0,0,0,0,0,-1,1266,778,0,0
49,246,0,0,0,0,0,0,0,0,0,-1,1273,778,0,0
56,246,0,0,0,0,0,0,0,0,0,-1,1280,778,0,0
63,246,0,0,0,0,0,0,0,0,0,-1,1287,778,0,0
70,246,0,0,0,0,0,0,0,0,0,-1,1294,778,0,0
77,246,0,0,0,0,0,0,0,0,0,-1,1301,778,0,0
84,246,0,0,0,0,0,0,0,0,0,-1,1308,778,0,0
91,246,0,0,0,0,0,0,0,0,0,-1,1315,778,0,0
98,246,0,0,0,0,0,0,0,0,0,-1,1322,778,0,0
105,246,0,0,0,0,0,0,0,0,0,-1,1329,778,0,0
112,246,0,0,0,0,0,0,0,0,0,-1,1336,778,0,0
119,246,0,0,0,0,0,0,0,0,0,-1,1343,778,0,0
126,246,0,0,0,0,0,0,0,0,0,-1,1350,778,0,0
133,246,0,0,0,0,0,0,0,0,0,-1,1357,778,0,0
140,246,0,0,0,0,0,0,0,0,0,-1,1364,778,0,0
147,246,0,0,0,0,0,0,0,0,0,-1,1371,778,0,0
154,246,0,0,0,0,0,0,0,0,0,-1,1378,778,0,0
161,246,0,0,0,0,0,0,0,0,0,-1,1385,778,0,0
168,246,0,0,0,0,0,0,0,0,0,-1,1392,778,0,0
175,246,0,0,0,0,0,0,0,0,0,-1,1399,778,0,0
182,246,0,0,0,0,0,0,0,0,0,-1,1406,778,0,0
189,246,0,0,0,0,0,0,0,0,0,-1,1413,778,0,0
196,246,0,0,0,0,0,0,0,0,0,-1,1420,778,0,0
203,246,0,0,0,0,0,0,0,0,0,-1,1427,778,0,0
210,246,0,0,0,0,0,0,0,0,0,-1,1434,778,0,0
217,246,0,0,0,0,0,0,0,0,0,-1,1441,778,0,0
224,246,0,0,0,0,0,0,0,0,0,-1,1448,778,0,0
231,246,0,0,0,0,0,0,0,0,0,-1,1455,778,0,0
238,246,0,0,0,0,0,0,0,0,0,-1,1462,778,0,0
245,246,0,0,0,0,0,0,0,0,0,-1,1469,778,0,0
252,246,0,0,0,0,0,0,0,0,0,-1,1476,778,0,0
259,246,0,0,0,0,0,0,0,0,0,-1,1483,778,0,0
266,246,0,0,0,0,0,0,0,0,0,-1,1490,778,0,0
273,246,0,0,0,0,0,0,0,0,0,-1,1497,778,0,0
280,246,0,0,0,0,0,0,0,0,0,-1,1504,778,0,0
287,246,0,0,0,0,0,0,0,0,0,-1,1511,778,0,0
294,246,0,0,0,0,0,0,0,0,0,-1,1518,778,0,0
301,246,0,0,0,0,0,0,0,0,0,-1,1525,778,0,0
308,246,0,0,0,0,0,0,0,0,0,-1,1532,778,0,0
315,246,0,0,0,0,0,0,0,0,0,-1,1539,778,0,0
322,246,0,0,0,0,0,0,0,0,0,-1,1546,778,0,0
329,246,0,0,0,0,0,0,0,0,0,-1,1553,778,0,0
336,246,0,0,0,0,0,0,0,0,0,-1,1560,778,0,0
343,246,0,0,0,0,0,0,0,0,0,-1,1567,778,0,0
350,246,0,0,0,0,0,0,0,0,0,-1,1574,778,0,0
357,246,0,0,0,0,0,0,0,0,0,-1,1581,778,0,0
364,246,0,0,0,0,0,0,0,0,0,-1,1588,778,0,0
371,246,0,0,0,0,0,0,0,0,0,-1,1595,778,0,0
378,246,0,0,0,0,0,0,0,0,0,-1,1602,778,0,0
385,246,0,0,0,0,0,0,0,0,0,-1,1609,778,0,0
392,246,0,0,0,0,0,0,0,0,0,-1,1616,778,0,0
399,246,0,0,0,0,0,0,0,0,0,-1,1623,778,0,0
406,246,0,0,0,0,0,0,0,0,0,-1,1630,778,0,0
413,246,0,0,0,0,0,0,0,0,0,-1,1637,778,0,0
420,246,0,0,0,0,0,0,0,0,0,-1,1644,778,0,0
427,246,0,0,0,0,0,0,0,0,0,-1,1651,778,0,0
434,246,0,0,0,0,0,0,0,0,0,-1,1658,778,0,0
441,246,0,0,0,0,0,0,0,0,0,-1,1665,778,0,0
448,246,0,0,0,0,0,0,0,0,0,-1,1672,778,0,0
455,246,0,0,0,0,0,0,0,0,0,-1,1679,778,0,0
462,246,0,0,0,0,0,0,0,0,0,-1,1686,778,0,0
469,246,0,0,0,0,0,0,0,0,0,-1,1693,778,0,0
476,246,0,0,0,0,0,0,0,0,0,-1,1700,778,0,0
483,246,0,0,0,0,0,0,0,0,0,-1,1707,778,0,0
490,246,0,0,0,0,0,0,0,0,0,-1,1714,778,0,0
497,246,0,0,0,0,0,0,0,0,0,-1,1721,778,0,0
504,246,0,0,0,0,0,0,0,0,0,-1,1728,778,0,0
511,246,0,0,0,0,0,0,0,0,0,-1,1735,778,0,0
518,246,0,0,0,0,0,0,0,0,0,-1,1742,778,0,0
525,246,0,0,0,0,0,0,0,0,0,-1,1749,778,0,0
532,246,0,0,0,0,0,0,0,0,0,-1,1756,778,0,0
539,246,0,0,0,0,0,0,0,0,0,-1,1763,778,0,0
546,246,0,0,0,0,0,0,0,0,0,-1,1770,778,0,0
553,246,0,0,0,0,0,0,0,0,0,-1,1777,778,0,0
560,246,0,0,0,0,0,0,0,0,0,-1,1784,778,0,0
567,246,0,0,0,0,0,0,0,0,0,-1,1791,778,0,0
574,246,0,0,0,0,0,0,0,0,0,-1,1798,778,0,0
581,246,35.827,2.71356,-0.00372416,0.0243017,-0.00941657,0.0271717,-0.00659418,-1.27496,0.0206662,0.0423497,1805,778,35.827,-2.71359
588,246,35.8107,2.7027,0.000728369,0.0251912,-0.00960244,0.0285101,-0.0025906,-1.23801,0.0199265,0.0419762,1812,778,35.8107,-2.70268
595,246,36.0153,2.63428,0.00284828,0.0227594,-0.00872979,0.0260448,-0.000437097,-1.21085,0.0175107,0.0403928,1819,778,36.0152,-2.63428
602,246,36.3145,2.55115,0.00360042,0.0189435,-0.00739893,0.0219302,0.000613788,-1.18714,0.0144199,0.0465584,1826,778,36.3144,-2.55116
609,246,36.3132,2.60748,0,0,0,0,0,0,0,-1,1833,778,36.3132,-2.60746
616,246,35.7699,2.74042,0,0,0,0,0,0,0,-1,1840,778,35.77,-2.74043
623,246,35.6235,3.00592,0,0,0,0,0,0,0,-1,1847,778,35.6235,-3.00592
630,246,35.2924,3.10126,0,0,0,0,0,0,0,-1,1854,778,35.2924,-3.10127
637,246,27.627,1.09131,0,0,0,0,0,0,0,-1,1861,778,27.627,-1.09128
644,246,24.712,-0.813049,0,0,0,0,0,0,0,-1,1868,778,24.7121,0.813059
651,246,24.8436,-0.4776,-0.00199022,-0.00210326,-0.00200484,-4.10993e-05,-0.00405238,-0.771307,0.00268799,0.0416423,1875,778,24.8436,0.477628
658,246,24.9407,-0.112671,-0.00327814,-0.00309406,-0.00210335,-0.00108073,-0.00529146,-0.807263,0.00322827,0.0234646,1882,778,24.9407,0.112695
665,246,24.9264,0.316284,-0.00300574,-0.00305828,-0.00242197,-0.0006099,-0.00545413,-0.779975,0.0034508,0.0207203,1889,778,24.9264,-0.3163
672,246,24.9233,0.776001,-0.00213322,-0.00265955,-0.0023106,-7.08466e-05,-0.00472192,-0.728695,0.0031246,0.019792,1896,778,24.9233,-0.776017
679,246,24.9471,1.20941,-0.000772511,-0.00222605,-0.001882,0.000518172,-0.00351674,-0.601134,0.00253493,0.0208406,1903,778,24.9472,-1.20944
686,246,24.9396,1.62494,0.000881742,-0.00157628,-0.0011592,0.00134217,-0.00203671,-0.378087,0.00196449,0.0229148,1910,778,24.9396,-1.62493
693,246,24.9347,2.01575,0.00282928,-0.000764201,-0.000273475,0.00284997,-0.000784894,-0.0755235,0.0022086,0.0179021,1917,778,24.9347,-2.01576
700,246,24.933,2.41113,0.00537701,-0.000496398,0.000643793,0.00544675,-0.000566137,0.107905,0.00383384,0.0150732,1924,778,24.933,-2.41115
707,246,24.9175,2.84052,0.00946064,-0.000861757,0.00172323,0.00974072,-0.00114183,0.161122,0.00690596,0.0138571,1931,778,24.9175,-2.8405
714,246,24.884,3.28241,0.0154283,-0.00273334,0.00339331,0.0160416,-0.00334663,0.178805,0.011967,0.0123392,1938,778,24.884,-3.28243
721,246,24.8942,3.69629,0.0226796,-0.00492831,0.0056001,0.0237723,-0.00602101,0.192701,0.0181904,0.0196155,1945,778,24.8942,-3.6963
728,246,25.3759,3.75665,0.0326793,-0.00843555,0.00872116,0.0344527,-0.010209,0.200611,0.0270221,0.0435553,1952,778,25.3758,-3.75668
735,246,25.9976,3.83142,0,0,0,0,0,0,0,-1,1959,778,25.9975,-3.83144
742,246,24.8632,5.59595,0,0,0,0,0,0,0,-1,1966,778,24.8631,-5.59595
749,246,31.7859,3.86639,0,0,0,0,0,0,0,-1,1973,778,31.7859,-3.86642
756,246,30.751,3.95483,0,0,0,0,0,0,0,-1,1980,778,30.751,-3.95484
763,246,0,0,0,0,0,0,0,0,0,-1,1987,778,0,0
770,246,0,0,0,0,0,0,0,0,0,-1,1994,778,0,0
777,246,0,0,0,0,0,0,0,0,0,-1,2001,778,0,0
784,246,0,0,0,0,0,0,0,0,0,-1,2008,778,0,0
791,246,0,0,0,0,0,0,0,0,0,-1,2015,778,0,0
798,246,0,0,0,0,0,0,0,0,0,-1,2022,778,0,0
805,246,0,0,0,0,0,0,0,0,0,-1,2029,778,0,0
812,246,0,0,0,0,0,0,0,0,0,-1,2036,778,0,0
-700,239,0,0,0,0,0,0,0,0,0,-1,524,785,0,0
-693,239,0,0,0,0,0,0,0,0,0,-1,531,785,0,0
-686,239,0,0,0,0,0,0,0,0,0,-1,538,785,0,0
-679,239,0,0,0,0,0,0,0,0,0,-1,545,785,0,0
-672,239,0,0,0,0,0,0,0,0,0,-1,552,785,0,0
-665,239,0,0,0,0,0,0,0,0,0,-1,559,785,0,0
-658,239,0,0,0,0,0,0,0,0,0,-1,566,785,0,0
-651,239,0,0,0,0,0,0,0,0,0,-1,573,785,0,0
-644,239,0,0,0,0,0,0,0,0,0,-1,580,785,0,0
-637,239,-23.2709,0.465088,0,0,0,0,0,0,0,-1,587,785,-23.271,-0.465116
-630,239,-23.4006,0.956299,0,0,0,0,0,0,0,-1,594,785,-23.4005,-0.956285
-623,239,-23.3302,1.56317,0,0,0,0,0,0,0,-1,601,785,-23.3302,-1.56317
-616,239,-23.8334,2.11334,0,0,0,0,0,0,0,-1,608,785,-23.8334,-2.11337
-609,239,-24.415,2.79736,0,0,0,0,0,0,0,-1,615,785,-24.415,-2.79739
-602,239,-17.035,2.7099,0,0,0,0,0,0,0,-1,622,785,-17.035,-2.70988
-595,239,-16.9083,1.91992,-0.00496334,0.00730564,-0.0228684,0.0248481,-0.0225058,-0.916439,0.0273509,0.0430868,629,785,-16.9083,-1.91995
-588,239,-16.7852,1.16412,-0.00419089,0.0058212,-0.0142584,0.0159268,-0.0142965,-0.954223,0.0174579,0.0180114,636,785,-16.7852,-1.16411
-581,239,-16.8668,0.71698,-0.00331396,0.00436234,-0.00863663,0.00997526,-0.00892688,-0.994493,0.0109188,0.010891,643,785,-16.8668,-0.716983
-574,239,-16.8654,0.288635,-0.00270655,0.00298322,-0.00475649,0.00568068,-0.00540401,-1.05491,0.00640041,0.0121914,650,785,-16.8654,-0.288645
-567,239,-16.8808,-0.0997925,-0.00216632,0.00163494,-0.00146444,0.00213368,-0.00266506,-1.24255,0.00277621,0.014063,657,785,-16.8808,0.0997664
-560,239,-16.8918,-0.467896,-0.00175253,0.000253356,0.000365799,0.000317982,-0.00181716,1.39593,0.00133016,0.0136957,664,785,-16.8918,0.467919
-553,239,-16.9111,-0.863037,-0.00147654,-0.00125482,0.00121152,-0.000149095,-0.00258226,0.831024,0.00167402,0.0145418,671,785,-16.9111,0.863043
-546,239,-16.9387,-1.25098,-0.00101677,-0.00250487,0.00207834,0.000446691,-0.00396833,0.613505,0.00280632,0.0156669,678,785,-16.9387,1.251
-539,239,-16.9312,-1.66565,2.67794e-05,-0.0032203,0.00345419,0.00221995,-0.00541347,0.565709,0.0045339,0.0160536,685,785,-16.9312,1.66568
-532,239,-16.91,-2.06665,0.00132297,-0.00281093,0.00480102,0.00448307,-0.00597103,0.582128,0.00605603,0.0145852,692,785,-16.91,2.06665
-525,239,-16.9511,-2.38037,0.001602,0.0010685,0.00688326,0.00822367,-0.00555317,0.766031,0.00800372,0.0204248,699,785,-16.9511,2.38037
-518,239,-17.1744,-2.50757,0.00151619,0.00366243,0.00756246,0.0102275,-0.00504891,0.855878,0.00898719,0.0488816,706,785,-17.1744,2.5076
-511,239,-17.4312,-2.61243,0,0,0,0,0,0,0,-1,713,785,-17.4312,2.61243
-504,239,-17.4301,-2.67303,0,0,0,0,0,0,0,-1,720,785,-17.4301,2.67305
-497,239,-17.1166,-2.88031,0,0,0,0,0,0,0,-1,727,785,-17.1166,2.88034
-490,239,-25.9535,0.779724,0,0,0,0,0,0,0,-1,734,785,-25.9535,-0.779742
-483,239,-25.2729,2.11163,0,0,0,0,0,0,0,-1,741,785,-25.2729,-2.11161
-476,239,-26.2223,0.886658,-0.00487795,0.0419496,0.0118765,0.0447895,-0.00771785,1.33608,0.032737,0.0407987,748,785,-26.2223,-0.886654
-469,239,-26.2316,0.844788,-0.0102915,0.0501076,0.00899686,0.0514193,-0.0116032,1.42603,0.038731,0.0446531,755,785,-26.2315,-0.844792
-462,239,-26.3463,0.69574,-0.0189632,0.0528788,0.00175557,0.0529217,-0.019006,1.54638,0.0430388,0.0479757,762,785,-26.3463,-0.695724
-455,239,0,0,0,0,0,0,0,0,0,-1,769,785,0,0
-448,239,0,0,0,0,0,0,0,0,0,-1,776,785,0,0
-441,239,0,0,0,0,0,0,0,0,0,-1,783,785,0,0
-434,239,0,0,0,0,0,0,0,0,0,-1,790,785,0,0
-427,239,0,0,0,0,0,0,0,0,0,-1,797,785,0,0
-420,239,0,0,0,0,0,0,0,0,0,-1,804,785,0,0
-413,239,0,0,0,0,0,0,0,0,0,-1,811,785,0,0
-406,239,0,0,0,0,0,0,0,0,0,-1,818,785,0,0
-399,239,0,0,0,0,0,0,0,0,0,-1,825,785,0,0
-392,239,0,0,0,0,0,0,0,0,0,-1,832,785,0,0
-385,239,0,0,0,0,0,0,0,0,0,-1,839,785,0,0
-378,239,0,0,0,0,0,0,0,0,0,-1,846,785,0,0
-371,239,0,0,0,0,0,0,0,0,0,-1,853,785,0,0
-364,239,0,0,0,0,0,0,0,0,0,-1,860,785,0,0
-357,239,0,0,0,0,0,0,0,0,0,-1,867,785,0,0
-350,239,0,0,0,0,0,0,0,0,0,-1,874,785,0,0
-343,239,0,0,0,0,0,0,0,0,0,-1,881,785,0,0
-336,239,0,0,0,0,0,0,0,0,0,-1,888,785,0,0
-329,239,0,0,0,0,0,0,0,0,0,-1,895,785,0,0
-322,239,0,0,0,0,0,0,0,0,0,-1,902,785,0,0
-315,239,0,0,0,0,0,0,0,0,0,-1,909,785,0,0
-308,239,0,0,0,0,0,0,0,0,0,-1,916,785,0,0
-301,239,0,0,0,0,0,0,0,0,0,-1,923,785,0,0
-294,239,0,0,0,0,0,0,0,0,0,-1,930,785,0,0
-287,239,0,0,0,0,0,0,0,0,0,-1,937,785,0,0
-280,239,0,0,0,0,0,0,0,0,0,-1,944,785,0,0
-273,239,0,0,0,0,0,0,0,0,0,-1,951,785,0,0
-266,239,0,0,0,0,0,0,0,0,0,-1,958,785,0,0
-259,239,0,0,0,0,0,0,0,0,0,-1,965,785,0,0
-252,239,0,0,0,0,0,0,0,0,0,-1,972,785,0,0
-245,239,0,0,0,0,0,0,0,0,0,-1,979,785,0,0
-238,239,0,0,0,0,0,0,0,0,0,-1,986,785,0,0
-231,239,0,0,0,0,0,0,0,0,0,-1,993,785,0,0
-224,239,0,0,0,0,0,0,0,0,0,-1,1000,785,0,0
-217,239,0,0,0,0,0,0,0,0,0,-1,1007,785,0,0
-210,239,0,0,0,0,0,0,0,0,0,-1,1014,785,0,0
-203,239,0,0,0,0,0,0,0,0,0,-1,1021,785,0,0
-196,239,0,0,0,0,0,0,0,0,0,-1,1028,785,0,0
-189,239,0,0,0,0,0,0,0,0,0,-1,1035,785,0,0
-182,239,0,0,0,0,0,0,0,0,0,-1,1042,785,0,0
-175,239,0,0,0,0,0,0,0,0,0,-1,1049,785,0,0
-168,239,0,0,0,0,0,0,0,0,0,-1,1056,785,0,0
-161,239,0,0,0,0,0,0,0,0,0,-1,1063,785,0,0
-154,239,0,0,0,0,0,0,0,0,0,-1,1070,785,0,0
-147,239,0,0,0,0,0,0,0,0,0,-1,1077,785,0,0
-140,239,0,0,0,0,0,0,0,0,0,-1,1084,785,0,0
-133,239,0,0,0,0,0,0,0,0,0,-1,1091,785,0,0
-126,239,0,0,0,0,0,0,0,0,0,-1,1098,785,0,0
-119,239,0,0,0,0,0,0,0,0,0,-1,1105,785,0,0
-112,239,0,0,0,0,0,0,0,0,0,-1,1112,785,0,0
-105,239,0,0,0,0,0,0,0,0,0,-1,1119,785,0,0
-98,239,0,0,0,0,0,0,0,0,0,-1,1126,785,0,0
-91,239,0,0,0,0,0,0,0,0,0,-1,1133,785,0,0
-84,239,0,0,0,0,0,0,0,0,0,-1,1140,785,0,0
-77,239,0,0,0,0,0,0,0,0,0,-1,1147,785,0,0
-70,239,0,0,0,0,0,0,0,0,0,-1,1154,785,0,0
-63,239,0,0,0,0,0,0,0,0,0,-1,1161,785,0,0
-56,239,0,0,0,0,0,0,0,0,0,-1,1168,785,0,0
-49,239,0,0,0,0,0,0,0,0,0,-1,1175,785,0,0
-42,239,0,0,0,0,0,0,0,0,0,-1,1182,785,0,0
-35,239,0,0,0,0,0,0,0,0,0,-1,1189,785,0,0
-28,239,0,0,0,0,0,0,0,0,0,-1,1196,785,0,0
-21,239,0,0,0,0,0,0,0,0,0,-1,1203,785,0,0
-14,239,0,0,0,0,0,0,0,0,0,-1,1210,785,0,0
-7,239,0,0,0,0,0,0,0,0,0,-1,1217,785,0,0
0,239,0,0,0,0,0,0,0,0,0,-1,1224,785,0,0
7,239,0,0,0,0,0,0,0,0,0,-1,1231,785,0,0
14,239,0,0,0,0,0,0,0,0,0,-1,1238,785,0,0
21,239,0,0,0,0,0,0,0,0,0,-1,1245,785,0,0
28,239,0,0,0,0,0,0,0,0,0,-1,1252,785,0,0
35,239,0,0,0,0,0,0,0,0,0,-1,1259,785,0,0
42,239,0,0,0,0,0,0,0,0,0,-1,1266,785,0,0
49,239,0,0,0,0,0,0,0,0,0,-1,1273,785,0,0
56,239,0,0,0,0,0,0,0,0,0,-1,1280,785,0,0
63,239,0,0,0,0,0,0,0,0,0,-1,1287,785,0,0
70,239,0,0,0,0,0,0,0,0,0,-1,1294,785,0,0
77,239,0,0,0,0,0,0,0,0,0,-1,1301,785,0,0
84,239,0,0,0,0,0,0,0,0,0,-1,1308,785,0,0
91,239,0,0,0,0,0,0,0,0,0,-1,1315,785,0,0
98,239,0,0,0,0,0,0,0,0,0,-1,1322,785,0,0
105,239,0,0,0,0,0,0,0,0,0,-1,1329,785,0,0
112,239,0,0,0,0,0,0,0,0,0,-1,1336,785,0,0
119,239,0,0,0,0,0,0,0,0,0,-1,1343,785,0,0
126,239,0,0,0,0,0,0,0,0,0,-1,1350,785,0,0
133,239,0,0,0,0,0,0,0,0,0,-1,1357,785,0,0
140,239,0,0,0,0,0,0,0,0,0,-1,1364,785,0,0
147,239,0,0,0,0,0,0,0,0,0,-1,1371,785,0,0
154,239,0,0,0,0,0,0,0,0,0,-1,1378,785,0,0
161,239,0,0,0,0,0,0,0,0,0,-1,1385,785,0,0
168,239,0,0,0,0,0,0,0,0,0,-1,1392,785,0,0
175,239,0,0,0,0,0,0,0,0,0,-1,1399,785,0,0
182,239,0,0,0,0,0,0,0,0,0,-1,1406,785,0,0
189,239,0,0,0,0,0,0,0,0,0,-1,1413,785,0,0
196,239,0,0,0,0,0,0,0,0,0,-1,1420,785,0,0
203,239,0,0,0,0,0,0,0,0,0,-1,1427,785,0,0
210,239,0,0,0,0,0,0,0,0,0,-1,1434,785,0,0
217,239,0,0,0,0,0,0,0,0,0,-1,1441,785,0,0
224,239,0,0,0,0,0,0,0,0,0,-1,1448,785,0,0
231,239,0,0,0,0,0,0,0,0,0,-1,1455,785,0,0
238,239,0,0,0,0,0,0,0,0,0,-1,1462,785,0,0
245,239,0,0,0,0,0,0,0,0,0,-1,1469,785,0,0
252,239,0,0,0,0,0,0,0,0,0,-1,1476,785,0,0
259,239,0,0,0,0,0,0,0,0,0,-1,1483,785,0,0
266,239,0,0,0,0,0,0,0,0,0,-1,1490,785,0,0
273,239,0,0,0,0,0,0,0,0,0,-1,1497,785,0,0
280,239,0,0,0,0,0,0,0,0,0,-1,1504,785,0,0
287,239,0,0,0,0,0,0,0,0,0,-1,1511,785,0,0
294,239,0,0,0,0,0,0,0,0,0,-1,1518,785,0,0
301,239,0,0,0,0,0,0,0,0,0,-1,1525,785,0,0
308,239,0,0,0,0,0,0,0,0,0,-1,1532,785,0,0
315,239,0,0,0,0,0,0,0,0,0,-1,1539,785,0,0
322,239,0,0,0,0,0,0,0,0,0,-1,1546,785,0,0
329,239,0,0,0,0,0,0,0,0,0,-1,1553,785,0,0
336,239,0,0,0,0,0,0,0,0,0,-1,1560,785,0,0
343,239,0,0,0,0,0,0,0,0,0,-1,1567,785,0,0
350,239,0,0,0,0,0,0,0,0,0,-1,1574,785,0,0
357,239,0,0,0,0,0,0,0,0,0,-1,1581,785,0,0
364,239,0,0,0,0,0,0,0,0,0,-1,1588,785,0,0
371,239,0,0,0,0,0,0,0,0,0,-1,1595,785,0,0
378,239,0,0,0,0,0,0,0,0,0,-1,1602,785,0,0
385,239,0,0,0,0,0,0,0,0,0,-1,1609,785,0,0
392,239,0,0,0,0,0,0,0,0,0,-1,1616,785,0,0
399,239,0,0,0,0,0,0,0,0,0,-1,1623,785,0,0
406,239,0,0,0,0,0,0,0,0,0,-1,1630,785,0,0
413,239,0,0,0,0,0,0,0,0,0,-1,1637,785,0,0
420,239,0,0,0,0,0,0,0,0,0,-1,1644,785,0,0
427,239,0,0,0,0,0,0,0,0,0,-1,1651,785,0,0
434,239,0,0,0,0,0,0,0,0,0,-1,1658,785,0,0
441,239,0,0,0,0,0,0,0,0,0,-1,1665,785,0,0
448,239,0,0,0,0,0,0,0,0,0,-1,1672,785,0,0
455,239,0,0,0,0,0,0,0,0,0,-1,1679,785,0,0
462,239,0,0,0,0,0,0,0,0,0,-1,1686,785,0,0
469,239,0,0,0,0,0,0,0,0,0,-1,1693,785,0,0
476,239,0,0,0,0,0,0,0,0,0,-1,1700,785,0,0
483,239,0,0,0,0,0,0,0,0,0,-1,1707,785,0,0
490,239,0,0,0,0,0,0,0,0,0,-1,1714,785,0,0
497,239,0,0,0,0,0,0,0,0,0,-1,1721,785,0,0
504,239,0,0,0,0,0,0,0,0,0,-1,1728,785,0,0
511,239,0,0,0,0,0,0,0,0,0,-1,1735,785,0,0
518,239,0,0,0,0,0,0,0,0,0,-1,1742,785,0,0
525,239,0,0,0,0,0,0,0,0,0,-1,1749,785,0,0
532,239,0,0,0,0,0,0,0,0,0,-1,1756,785,0,0
539,239,0,0,0,0,0,0,0,0,0,-1,1763,785,0,0
546,239,0,0,0,0,0,0,0,0,0,-1,1770,785,0,0
553,239,0,0,0,0,0,0,0,0,0,-1,1777,785,0,0
560,239,0,0,0,0,0,0,0,0,0,-1,1784,785,0,0
567,239,0,0,0,0,0,0,0,0,0,-1,1791,785,0,0
574,239,0,0,0,0,0,0,0,0,0,-1,1798,785,0,0
581,239,35.7416,2.8941,-0.00383973,0.0171644,-0.00667626,0.0191069,-0.00578217,-1.28767,0.0150405,0.0380613,1805,785,35.7416,-2.89408
588,239,35.7664,2.83142,0.000944984,0.0195472,-0.00713322,0.0219676,-0.00147541,-1.24367,0.0151608,0.0376248,1812,785,35.7664,-2.83141
595,239,35.8494,2.6051,0.00320938,0.0184229,-0.00673686,0.0209772,0.000655038,-1.20838,0.0137717,0.0340383,1819,785,35.8494,-2.60511
602,239,36.0386,2.53888,0.00379605,0.0156588,-0.005907,0.0180985,0.00135642,-1.17913,0.0116399,0.0383692,1826,785,36.0386,-2.5389
609,239,36.175,2.56091,0.0033409,0.0120577,-0.00521587,0.0144964,0.000902169,-1.13344,0.00937802,0.0497829,1833,785,36.1751,-2.56089
616,239,36.1107,2.64478,0,0,0,0,0,0,0,-1,1840,785,36.1107,-2.6448
623,239,35.7622,2.74066,0.00151252,0.00544743,-0.00386002,0.00781248,-0.000852535,-1.02109,0.00551451,0.0453787,1847,785,35.7622,-2.74066
630,239,35.4183,3.0329,0.00102816,0.00281202,-0.00350098,0.0055329,-0.00169272,-0.910128,0.00436368,0.0414368,1854,785,35.4184,-3.03293
637,239,35.1067,3.63959,0,0,0,0,0,0,0,-1,1861,785,35.1067,-3.6396
644,239,18.3466,0.735413,0,0,0,0,0,0,0,-1,1868,785,18.3465,-0.735414
651,239,25.2568,-0.497864,0,0,0,0,0,0,0,-1,1875,785,25.2568,0.497856
658,239,25.3452,-0.0477295,-0.00390708,-0.00361642,-0.00271953,-0.00103834,-0.00648515,-0.812092,0.00402225,0.0282383,1882,785,25.3452,0.0477338
665,239,25.3773,0.380432,-0.00376511,-0.00363637,-0.00308224,-0.000617826,-0.00678365,-0.795839,0.00433121,0.0148258,1889,785,25.3773,-0.380445
672,239,25.3385,0.796204,-0.00301624,-0.00328151,-0.00299646,-0.000149482,-0.00614827,-0.76328,0.00404994,0.0201941,1896,785,25.3384,-0.796224
679,239,25.3601,1.2099,-0.00171601,-0.00282714,-0.00257195,0.00035969,-0.00490285,-0.679028,0.00339482,0.0232134,1903,785,25.3601,-1.20989
686,239,25.3553,1.65411,-9.96159e-05,-0.00211424,-0.00180077,0.000956427,-0.00317028,-0.53039,0.00249422,0.023467,1910,785,25.3554,-1.65414
693,239,25.3438,2.04553,0.00181196,-0.00110922,-0.000843749,0.00203815,-0.00133541,-0.261922,0.00196176,0.0147438,1917,785,25.3437,-2.04553
700,239,25.347,2.4408,0.00433016,-0.000775199,0.000142417,0.00433413,-0.000779169,0.0278666,0.00318111,0.0113572,1924,785,25.347,-2.44082
707,239,25.3256,2.85516,0.00830647,-0.00105523,0.00126474,0.00847432,-0.00122308,0.131947,0.00609826,0.010526,1931,785,25.3255,-2.85518
714,239,25.3036,3.2644,0.0140837,-0.00284843,0.00301501,0.0146046,-0.00336927,0.171062,0.0110323,0.00997245,1938,785,25.3036,-3.26442
721,239,25.2709,3.70105,0.0209425,-0.00490777,0.00521205,0.0219538,-0.00591908,0.191652,0.0169568,0.0242759,1945,785,25.2709,-3.70106
728,239,25.2385,4.14996,0.0301274,-0.00818845,0.00814816,0.0317882,-0.00984924,0.201069,0.0251271,0.0427501,1952,785,25.2385,-4.14999
735,239,25.4194,4.69873,0,0,0,0,0,0,0,-1,1959,785,25.4195,-4.69871
742,239,29.3534,3.4256,0,0,0,0,0,0,0,-1,1966,785,29.3533,-3.42557
749,239,27.9839,5.09827,0,0,0,0,0,0,0,-1,1973,785,27.9839,-5.09824
756,239,30.8453,4.62732,0,0,0,0,0,0,0,-1,1980,785,30.8454,-4.6273
763,239,0,0,0,0,0,0,0,0,0,-1,1987,785,0,0
770,239,0,0,0,0,0,0,0,0,0,-1,1994,785,0,0
777,239,0,0,0,0,0,0,0,0,0,-1,2001,785,0,0
784,239,0,0,0,0,0,0,0,0,0,-1,2008,785,0,0
791,239,0,0,0,0,0,0,0,0,0,-1,2015,785,0,0
798,239,0,0,0,0,0,0,0,0,0,-1,2022,785,0,0
805,239,0,0,0,0,0,0,0,0,0,-1,2029,785,0,0
812,239,0,0,0,0,0,0,0,0,0,-1,2036,785,0,0
-700,232,0,0,0,0,0,0,0,0,0,-1,524,792,0,0
-693,232,0,0,0,0,0,0,0,0,0,-1,531,792,0,0
-686,232,0,0,0,0,0,0,0,0,0,-1,538,792,0,0
-679,232,0,0,0,0,0,0,0,0,0,-1,545,792,0,0
-672,232,0,0,0,0,0,0,0,0,0,-1,552,792,0,0
-665,232,0,0,0,0,0,0,0,0,0,-1,559,792,0,0
-658,232,0,0,0,0,0,0,0,0,0,-1,566,792,0,0
-651,232,0,0,0,0,0,0,0,0,0,-1,573,792,0,0
-644,232,-22.5826,0.269348,0,0,0,0,0,0,0,-1,580,792,-22.5826,-0.269357
-637,232,-22.0887,-0.86969,0,0,0,0,0,0,0,-1,587,792,-22.0887,0.869704
-630,232,-22.8522,1.33289,0,0,0,0,0,0,0,-1,594,792,-22.8523,-1.3329
-623,232,-24.0605,3.30249,0,0,0,0,0,0,0,-1,601,792,-24.0605,-3.30248
-616,232,-23.33,1.96783,0,0,0,0,0,0,0,-1,608,792,-23.33,-1.96785
-609,232,-24.4119,2.80933,0,0,0,0,0,0,0,-1,615,792,-24.4118,-2.80933
-602,232,-17.3898,2.64337,0,0,0,0,0,0,0,-1,622,792,-17.3898,-2.64339
-595,232,-17.2819,1.89063,-0.00323901,0.00573182,-0.0222191,0.0239137,-0.0214209,-0.884996,0.0261872,0.0372813,629,792,-17.2818,-1.89062
-588,232,-17.2476,1.14838,-0.00284371,0.00476403,-0.0137525,0.015229,-0.0133087,-0.920322,0.0164887,0.0129697,636,792,-17.2476,-1.14839
-581,232,-17.2618,0.707581,-0.00229039,0.00358262,-0.00816006,0.00931846,-0.00802624,-0.958115,0.0100232,0.00870285,643,792,-17.2618,-0.707571
-574,232,-17.2617,0.317139,-0.00198311,0.00236575,-0.00429733,0.00500746,-0.00462481,-1.01961,0.00556266,0.00875019,650,792,-17.2617,-0.317113
-567,232,-17.2827,-0.0682983,-0.0016621,0.00113558,-0.00110391,0.0015187,-0.00204522,-1.23675,0.0020651,0.0103786,657,792,-17.2827,0.0682943
-560,232,-17.2869,-0.442749,-0.00135282,-0.000128639,0.000661782,0.000160719,-0.00164218,1.1586,0.0011521,0.0131698,664,792,-17.2869,0.442764
-553,232,-17.3235,-0.840393,-0.00109629,-0.00150731,0.0015337,0.000245608,-0.0028492,0.718797,0.00198641,0.0142308,671,792,-17.3235,0.840396
-546,232,-17.3413,-1.24445,-0.0005758,-0.00244588,0.00244386,0.00110579,-0.00412747,0.602686,0.00318488,0.0221615,678,792,-17.3413,1.24447
-539,232,-17.3375,-1.64972,0.000460563,-0.00295444,0.00367958,0.00280953,-0.0053034,0.568161,0.00475719,0.0262369,685,792,-17.3375,1.64969
-532,232,-17.3461,-2.01746,0.00167896,-0.00246382,0.0048505,0.00488185,-0.00566671,0.583597,0.00609583,0.0217562,692,792,-17.3461,2.01745
-525,232,-17.5098,-2.33362,0.00204769,0.000797829,0.00657183,0.00802424,-0.00517872,0.737995,0.00768151,0.0395776,699,792,-17.5098,2.33364
-518,232,-17.8997,-2.62103,0,0,0,0,0,0,0,-1,706,792,-17.8997,2.62103
-511,232,-17.9193,-2.45868,0,0,0,0,0,0,0,-1,713,792,-17.9192,2.45865
-504,232,-17.9173,-2.5127,0,0,0,0,0,0,0,-1,720,792,-17.9173,2.51271
-497,232,-26.0981,0.792358,0,0,0,0,0,0,0,-1,727,792,-26.0981,-0.79234
-490,232,-26.155,0.929565,0.00183602,0.0198476,0.0104609,0.0246452,-0.0029616,1.14079,0.0175011,0.0441885,734,792,-26.155,-0.929587
-483,232,-26.2723,0.878357,0.000356509,0.0265403,0.0103778,0.0301546,-0.00325776,1.23566,0.0212723,0.0412416,741,792,-26.2723,-0.878338
-476,232,-26.2535,0.834412,-0.00237331,0.0334109,0.00877495,0.0354468,-0.00440926,1.34281,0.0252297,0.0318678,748,792,-26.2535,-0.834393
-469,232,-26.2513,0.821716,-0.00734127,0.038381,0.00430197,0.0387823,-0.00774252,1.47779,0.0287849,0.0326311,755,792,-26.2513,-0.821696
-462,232,0,0,0,0,0,0,0,0,0,-1,762,792,0,0
-455,232,0,0,0,0,0,0,0,0,0,-1,769,792,0,0
-448,232,0,0,0,0,0,0,0,0,0,-1,776,792,0,0
-441,232,0,0,0,0,0,0,0,0,0,-1,783,792,0,0
-434,232,0,0,0,0,0,0,0,0,0,-1,790,792,0,0
-427,232,0,0,0,0,0,0,0,0,0,-1,797,792,0,0
-420,232,0,0,0,0,0,0,0,0,0,-1,804,792,0,0
-413,232,0,0,0,0,0,0,0,0,0,-1,811,792,0,0
-406,232,0,0,0,0,0,0,0,0,0,-1,818,792,0,0
-399,232,0,0,0,0,0,0,0,0,0,-1,825,792,0,0
-392,232,0,0,0,0,0,0,0,0,0,-1,832,792,0,0
-385,232,0,0,0,0,0,0,0,0,0,-1,839,792,0,0
-378,232,0,0,0,0,0,0,0,0,0,-1,846,792,0,0
-371,232,0,0,0,0,0,0,0,0,0,-1,853,792,0,0
-364,232,0,0,0,0,0,0,0,0,0,-1,860,792,0,0
-357,232,0,0,0,0,0,0,0,0,0,-1,867,792,0,0
-350,232,0,0,0,0,0,0,0,0,0,-1,874,792,0,0
-343,232,0,0,0,0,0,0,0,0,0,-1,881,792,0,0
-336,232,0,0,0,0,0,0,0,0,0,-1,888,792,0,0
-329,232,0,0,0,0,0,0,0,0,0,-1,895,792,0,0
-322,232,0,0,0,0,0,0,0,0,0,-1,902,792,0,0
-315,232,0,0,0,0,0,0,0,0,0,-1,909,792,0,0
-308,232,0,0,0,0,0,0,0,0,0,-1,916,792,0,0
-301,232,0,0,0,0,0,0,0,0,0,-1,923,792,0,0
-294,232,0,0,0,0,0,0,0,0,0,-1,930,792,0,0
-287,232,0,0,0,0,0,0,0,0,0,-1,937,792,0,0
-280,232,0,0,0,0,0,0,0,0,0,-1,944,792,0,0
-273,232,0,0,0,0,0,0,0,0,0,-1,951,792,0,0
-266,232,0,0,0,0,0,0,0,0,0,-1,958,792,0,0
-259,232,0,0,0,0,0,0,0,0,0,-1,965,792,0,0
-252,232,0,0,0,0,0,0,0,0,0,-1,972,792,0,0
-245,232,0,0,0,0,0,0,0,0,0,-1,979,792,0,0
-238,232,0,0,0,0,0,0,0,0,0,-1,986,792,0,0
-231,232,0,0,0,0,0,0,0,0,0,-1,993,792,0,0
-224,232,0,0,0,0,0,0,0,0,0,-1,1000,792,0,0
-217,232,0,0,0,0,0,0,0,0,0,-1,1007,792,0,0
-210,232,0,0,0,0,0,0,0,0,0,-1,1014,792,0,0
-203,232,0,0,0,0,0,0,0,0,0,-1,1021,792,0,0
-196,232,0,0,0,0,0,0,0,0,0,-1,1028,792,0,0
-189,232,0,0,0,0,0,0,0,0,0,-1,1035,792,0,0
-182,232,0,0,0,0,0,0,0,0,0,-1,1042,792,0,0
-175,232,0,0,0,0,0,0,0,0,0,-1,1049,792,0,0
-168,232,0,0,0,0,0,0,0,0,0,-1,1056,792,0,0
-161,232,0,0,0,0,0,0,0,0,0,-1,1063,792,0,0
-154,232,0,0,0,0,0,0,0,0,0,-1,1070,792,0,0
-147,232,0,0,0,0,0,0,0,0,0,-1,1077,792,0,0
-140,232,0,0,0,0,0,0,0,0,0,-1,1084,792,0,0
-133,232,0,0,0,0,0,0,0,0,0,-1,1091,792,0,0
-126,232,0,0,0,0,0,0,0,0,0,-1,1098,792,0,0
-119,232,0,0,0,0,0,0,0,0,0,-1,1105,792,0,0
-112,232,0,0,0,0,0,0,0,0,0,-1,1112,792,0,0
-105,232,0,0,0,0,0,0,0,0,0,-1,1119,792,0,0
-98,232,0,0,0,0,0,0,0,0,0,-1,1126,792,0,0
-91,232,0,0,0,0,0,0,0,0,0,-1,1133,792,0,0
-84,232,0,0,0,0,0,0,0,0,0,-1,1140,792,0,0
-77,232,0,0,0,0,0,0,0,0,0,-1,1147,792,0,0
-70,232,0,0,0,0,0,0,0,0,0,-1,1154,792,0,0
-63,232,0,0,0,0,0,0,0,0,0,-1,1161,792,0,0
-56,232,0,0,0,0,0,0,0,0,0,-1,1168,792,0,0
-49,232,0,0,0,0,0,0,0,0,0,-1,1175,792,0,0
-42,232,0,0,0,0,0,0,0,0,0,-1,1182,792,0,0
-35,232,0,0,0,0,0,0,0,0,0,-1,1189,792,0,0
-28,232,0,0,0,0,0,0,0,0,0,-1,1196,792,0,0
-21,232,0,0,0,0,0,0,0,0,0,-1,1203,792,0,0
-14,232,0,0,0,0,0,0,0,0,0,-1,1210,792,0,0
-7,232,0,0,0,0,0,0,0,0,0,-1,1217,792,0,0
0,232,0,0,0,0,0,0,0,0,0,-1,1224,792,0,0
7,232,0,0,0,0,0,0,0,0,0,-1,1231,792,0,0
14,232,0,0,0,0,0,0,0,0,0,-1,1238,792,0,0
21,232,0,0,0,0,0,0,0,0,0,-1,1245,792,0,0
28,232,0,0,0,0,0,0,0,0,0,-1,1252,792,0,0
35,232,0,0,0,0,0,0,0,0,0,-1,1259,792,0,0
42,232,0,0,0,0,0,0,0,0,0,-1,1266,792,0,0
49,232,0,0,0,0,0,0,0,0,0,-1,1273,792,0,0
56,232,0,0,0,0,0,0,0,0,0,-1,1280,792,0,0
63,232,0,0,0,0,0,0,0,0,0,-1,1287,792,0,0
70,232,0,0,0,0,0,0,0,0,0,-1,1294,792,0,0
77,232,0,0,0,0,0,0,0,0,0,-1,1301,792,0,0
84,232,0,0,0,0,0,0,0,0,0,-1,1308,792,0,0
91,232,0,0,0,0,0,0,0,0,0,-1,1315,792,0,0
98,232,0,0,0,0,0,0,0,0,0,-1,1322,792,0,0
105,232,0,0,0,0,0,0,0,0,0,-1,1329,792,0,0
112,232,0,0,0,0,0,0,0,0,0,-1,1336,792,0,0
119,232,0,0,0,0,0,0,0,0,0,-1,1343,792,0,0
126,232,0,0,0,0,0,0,0,0,0,-1,1350,792,0,0
133,232,0,0,0,0,0,0,0,0,0,-1,1357,792,0,0
140,232,0,0,0,0,0,0,0,0,0,-1,1364,792,0,0
147,232,0,0,0,0,0,0,0,0,0,-1,1371,792,0,0
154,232,0,0,0,0,0,0,0,0,0,-1,1378,792,0,0
161,232,0,0,0,0,0,0,0,0,0,-1,1385,792,0,0
168,232,0,0,0,0,0,0,0,0,0,-1,1392,792,0,0
175,232,0,0,0,0,0,0,0,0,0,-1,1399,792,0,0
182,232,0,0,0,0,0,0,0,0,0,-1,1406,792,0,0
189,232,0,0,0,0,0,0,0,0,0,-1,1413,792,0,0
196,232,0,0,0,0,0,0,0,0,0,-1,1420,792,0,0
203,232,0,0,0,0,0,0,0,0,0,-1,1427,792,0,0
210,232,0,0,0,0,0,0,0,0,0,-1,1434,792,0,0
217,232,0,0,0,0,0,0,0,0,0,-1,1441,792,0,0
224,232,0,0,0,0,0,0,0,0,0,-1,1448,792,0,0
231,232,0,0,0,0,0,0,0,0,0,-1,1455,792,0,0
238,232,0,0,0,0,0,0,0,0,0,-1,1462,792,0,0
245,232,0,0,0,0,0,0,0,0,0,-1,1469,792,0,0
252,232,0,0,0,0,0,0,0,0,0,-1,1476,792,0,0
259,232,0,0,0,0,0,0,0,0,0,-1,1483,792,0,0
266,232,0,0,0,0,0,0,0,0,0,-1,1490,792,0,0
273,232,0,0,0,0,0,0,0,0,0,-1,1497,792,0,0
280,232,0,0,0,0,0,0,0,0,0,-1,1504,792,0,0
287,232,0,0,0,0,0,0,0,0,0,-1,1511,792,0,0
294,232,0,0,0,0,0,0,0,0,0,-1,1518,792,0,0
301,232,0,0,0,0,0,0,0,0,0,-1,1525,792,0,0
308,232,0,0,0,0,0,0,0,0,0,-1,1532,792,0,0
315,232,0,0,0,0,0,0,0,0,0,-1,1539,792,0,0
322,232,0,0,0,0,0,0,0,0,0,-1,1546,792,0,0
329,232,0,0,0,0,0,0,0,0,0,-1,1553,792,0,0
336,232,0,0,0,0,0,0,0,0,0,-1,1560,792,0,0
343,232,0,0,0,0,0,0,0,0,0,-1,1567,792,0,0
350,232,0,0,0,0,0,0,0,0,0,-1,1574,792,0,0
357,232,0,0,0,0,0,0,0,0,0,-1,1581,792,0,0
364,232,0,0,0,0,0,0,0,0,0,-1,1588,792,0,0
371,232,0,0,0,0,0,0,0,0,0,-1,1595,792,0,0
378,232,0,0,0,0,0,0,0,0,0,-1,1602,792,0,0
385,232,0,0,0,0,0,0,0,0,0,-1,1609,792,0,0
392,232,0,0,0,0,0,0,0,0,0,-1,1616,792,0,0
399,232,0,0,0,0,0,0,0,0,0,-1,1623,792,0,0
406,232,0,0,0,0,0,0,0,0,0,-1,1630,792,0,0
413,232,0,0,0,0,0,0,0,0,0,-1,1637,792,0,0
420,232,0,0,0,0,0,0,0,0,0,-1,1644,792,0,0
427,232,0,0,0,0,0,0,0,0,0,-1,1651,792,0,0
434,232,0,0,0,0,0,0,0,0,0,-1,1658,792,0,0
441,232,0,0,0,0,0,0,0,0,0,-1,1665,792,0,0
448,232,0,0,0,0,0,0,0,0,0,-1,1672,792,0,0
455,232,0,0,0,0,0,0,0,0,0,-1,1679,792,0,0
462,232,0,0,0,0,0,0,0,0,0,-1,1686,792,0,0
469,232,0,0,0,0,0,0,0,0,0,-1,1693,792,0,0
476,232,0,0,0,0,0,0,0,0,0,-1,1700,792,0,0
483,232,0,0,0,0,0,0,0,0,0,-1,1707,792,0,0
490,232,0,0,0,0,0,0,0,0,0,-1,1714,792,0,0
497,232,0,0,0,0,0,0,0,0,0,-1,1721,792,0,0
504,232,0,0,0,0,0,0,0,0,0,-1,1728,792,0,0
511,232,0,0,0,0,0,0,0,0,0,-1,1735,792,0,0
518,232,0,0,0,0,0,0,0,0,0,-1,1742,792,0,0
525,232,0,0,0,0,0,0,0,0,0,-1,1749,792,0,0
532,232,0,0,0,0,0,0,0,0,0,-1,1756,792,0,0
539,232,0,0,0,0,0,0,0,0,0,-1,1763,792,0,0
546,232,0,0,0,0,0,0,0,0,0,-1,1770,792,0,0
553,232,0,0,0,0,0,0,0,0,0,-1,1777,792,0,0
560,232,0,0,0,0,0,0,0,0,0,-1,1784,792,0,0
567,232,0,0,0,0,0,0,0,0,0,-1,1791,792,0,0
574,232,0,0,0,0,0,0,0,0,0,-1,1798,792,0,0
581,232,0,0,0,0,0,0,0,0,0,-1,1805,792,0,0
588,232,35.67,2.76971,0.00145631,0.0139467,-0.00530052,0.0158929,-0.000489834,-1.21892,0.0107622,0.0378974,1812,792,35.67,-2.76972
595,232,35.7393,2.63086,0.00364961,0.0137293,-0.00501068,0.0157963,0.00158263,-1.17955,0.010045,0.0362465,1819,792,35.7392,-2.63083
602,232,35.8549,2.4856,0.00390545,0.0120769,-0.00453509,0.0140953,0.00188707,-1.15206,0.00883528,0.0360325,1826,792,35.8548,-2.48559
609,232,36.015,2.50262,0.00316565,0.00925417,-0.00417539,0.0113773,0.00104257,-1.10039,0.0072623,0.0410977,1833,792,36.015,-2.50265
616,232,35.9886,2.63275,0.00183786,0.0063118,-0.0039316,0.00859827,-0.00044861,-1.04404,0.00588742,0.0472669,1840,792,35.9886,-2.63274
623,232,35.8276,2.69458,0.000733424,0.0034961,-0.00360672,0.00597696,-0.00174743,-0.968277,0.00467722,0.046702,1847,792,35.8276,-2.69461
630,232,35.6147,2.81598,-1.67099e-05,0.00123349,-0.0034897,0.00415364,-0.00293686,-0.874022,0.00411374,0.046795,1854,792,35.6148,-2.81598
637,232,36.6127,1.41327,0,0,0,0,0,0,0,-1,1861,792,36.6127,-1.41325
644,232,29.3163,4.33893,0,0,0,0,0,0,0,-1,1868,792,29.3163,-4.33891
651,232,26.4988,0.162048,0,0,0,0,0,0,0,-1,1875,792,26.4988,-0.162019
658,232,25.8983,0.0904541,-0.00433471,-0.00401655,-0.00328042,-0.000891357,-0.0074599,-0.809626,0.00470438,0.0358691,1882,792,25.8983,-0.0904619
665,232,25.8088,0.403809,-0.00422447,-0.00403585,-0.00363212,-0.00049682,-0.0077635,-0.798378,0.00501827,0.014361,1889,792,25.8088,-0.403816
672,232,25.7455,0.82251,-0.0035788,-0.00372889,-0.00357207,-8.09857e-05,-0.0072267,-0.774895,0.00479103,0.0181113,1896,792,25.7454,-0.82253
679,232,25.7614,1.24762,-0.00243299,-0.00332144,-0.00320729,0.000360687,-0.00611512,-0.716583,0.00420214,0.0196777,1903,792,25.7613,-1.24759
686,232,25.7687,1.66193,-0.000943193,-0.00262348,-0.00244454,0.000801545,-0.00436821,-0.619881,0.00321283,0.0193583,1910,792,25.7687,-1.66195
693,232,25.7611,2.04694,0.000858763,-0.00150836,-0.00146894,0.00156163,-0.00221122,-0.446287,0.00218899,0.0114046,1917,792,25.7611,-2.04694
700,232,25.7521,2.45953,0.00329793,-0.00114828,-0.000442497,0.00334154,-0.00119189,-0.0982383,0.00271369,0.0129065,1924,792,25.7521,-2.45953
707,232,25.7433,2.87933,0.00711517,-0.00131581,0.000708652,0.00717432,-0.00137496,0.0832748,0.00530097,0.0117716,1931,792,25.7433,-2.87932
714,232,25.7399,3.28668,0.0126971,-0.0029744,0.00252235,0.0130931,-0.00337037,0.155713,0.0100425,0.0124059,1938,792,25.7399,-3.28669
721,232,25.7271,3.66876,0.0192109,-0.00485981,0.00470821,0.0200991,-0.00574796,0.186448,0.0156708,0.022622,1945,792,25.727,-3.66876
728,232,25.7384,3.91034,0.0276774,-0.00787546,0.00748214,0.0291879,-0.00938591,0.199197,0.0232282,0.0423845,1952,792,25.7384,-3.91034
735,232,25.9574,4.20691,0,0,0,0,0,0,0,-1,1959,792,25.9574,-4.20689
742,232,25.6461,6.00684,0,0,0,0,0,0,0,-1,1966,792,25.6461,-6.00684
749,232,28.5897,5.03833,0,0,0,0,0,0,0,-1,1973,792,28.5897,-5.03833
756,232,30.4692,4.84735,0,0,0,0,0,0,0,-1,1980,792,30.4693,-4.84735
763,232,30.5881,4.27301,0,0,0,0,0,0,0,-1,1987,792,30.5882,-4.27301
770,232,0,0,0,0,0,0,0,0,0,-1,1994,792,0,0
777,232,0,0,0,0,0,0,0,0,0,-1,2001,792,0,0
784,232,0,0,0,0,0,0,0,0,0,-1,2008,792,0,0
791,232,0,0,0,0,0,0,0,0,0,-1,2015,792,0,0
798,232,0,0,0,0,0,0,0,0,0,-1,2022,792,0,0
805,232,0,0,0,0,0,0,0,0,0,-1,2029,792,0,0
812,232,0,0,0,0,0,0,0,0,0,-1,2036,792,0,0
-700,225,0,0,0,0,0,0,0,0,0,-1,524,799,0,0
-693,225,0,0,0,0,0,0,0,0,0,-1,531,799,0,0
-686,225,0,0,0,0,0,0,0,0,0,-1,538,799,0,0
-679,225,0,0,0,0,0,0,0,0,0,-1,545,799,0,0
-672,225,0,0,0,0,0,0,0,0,0,-1,552,799,0,0
-665,225,0,0,0,0,0,0,0,0,0,-1,559,799,0,0
-658,225,0,0,0,0,0,0,0,0,0,-1,566,799,0,0
-651,225,0,0,0,0,0,0,0,0,0,-1,573,799,0,0
-644,225,-22.4099,-0.204834,0,0,0,0,0,0,0,-1,580,799,-22.4099,0.20484
-637,225,-21.7047,-0.424072,0,0,0,0,0,0,0,-1,587,799,-21.7047,0.424052
-630,225,-22.612,4.17181,0,0,0,0,0,0,0,-1,594,799,-22.612,-4.17184
-623,225,-22.8936,3.12628,0.00899031,0.0135023,-0.0778158,0.0890948,-0.0666022,-0.79989,0.0902038,0.0481917,601,799,-22.8936,-3.12629
-616,225,-22.8559,1.79041,0.00348153,0.0100119,-0.059644,0.06648,-0.0529866,-0.812743,0.0691206,0.0470931,608,799,-22.8559,-1.79038
-609,225,-23.1859,0.602783,0,0,0,0,0,0,0,-1,615,799,-23.1858,-0.602766
-602,225,-17.7334,1.8941,0,0,0,0,0,0,0,-1,622,799,-17.7334,-1.8941
-595,225,-17.7144,1.55701,-0.00241355,0.00432408,-0.0211453,0.0223672,-0.0204567,-0.864393,0.0247326,0.030901,629,799,-17.7143,-1.55702
-588,225,-17.6613,1.09515,-0.0021562,0.0037551,-0.0128634,0.013998,-0.0123991,-0.898324,0.0152497,0.0130167,636,799,-17.6613,-1.09518
-581,225,-17.6461,0.709045,-0.00173707,0.00275783,-0.00733826,0.00818508,-0.00716433,-0.933995,0.00886852,0.0109335,643,799,-17.646,-0.709069
-574,225,-17.6434,0.326355,-0.00160153,0.00172225,-0.0036025,0.00402771,-0.003907,-1.00151,0.00458128,0.00886993,650,799,-17.6433,-0.326378
-567,225,-17.6696,-0.0738525,-0.00142361,0.000636849,-0.000673761,0.000837605,-0.00162437,-1.28121,0.00144541,0.0113604,657,799,-17.6696,0.0738588
-560,225,-17.6912,-0.439758,-0.00115544,-0.000505941,0.000924691,0.00014937,-0.00181075,0.954268,0.00125991,0.0121717,664,799,-17.6912,0.439782
-553,225,-17.7064,-0.820251,-0.000859019,-0.00173566,0.00178728,0.000542903,-0.00313758,0.665149,0.0022942,0.0119384,671,799,-17.7064,0.820271
-546,225,-17.7354,-1.23102,-0.000255911,-0.00236705,0.00272381,0.00160972,-0.00423267,0.600541,0.00348458,0.0204355,678,799,-17.7353,1.23104
-539,225,-17.6899,-1.65588,0.000776327,-0.00277993,0.00383656,0.00322678,-0.00523039,0.568399,0.00492822,0.0310009,685,799,-17.6899,1.65586
-532,225,-17.746,-1.96057,0.00191138,-0.00230756,0.00486278,0.00510253,-0.0054987,0.580748,0.00612205,0.0286603,692,799,-17.746,1.96058
-525,225,-18.0309,-2.12341,0,0,0,0,0,0,0,-1,699,799,-18.0309,2.12342
-518,225,-21.963,0.171326,0,0,0,0,0,0,0,-1,706,799,-21.9629,-0.171319
-511,225,-24.2567,2.77313,0,0,0,0,0,0,0,-1,713,799,-24.2567,-2.77313
-504,225,-26.6318,0.59021,0,0,0,0,0,0,0,-1,720,799,-26.6318,-0.590184
-497,225,-26.3741,0.677429,0.00363274,0.0110701,0.00900222,0.0170915,-0.00238861,0.981267,0.0122683,0.043233,727,799,-26.3741,-0.677422
-490,225,-26.2198,0.854553,0.00322092,0.0157406,0.00923793,0.0206399,-0.00167831,1.08317,0.0143521,0.0393009,734,799,-26.2198,-0.854572
-483,225,-26.2374,0.819092,0.00211212,0.0209825,0.00844321,0.0242087,-0.00111407,1.20581,0.016523,0.0331227,741,799,-26.2374,-0.819115
-476,225,-26.2041,0.81427,-0.000217898,0.0257645,0.00561915,0.0269277,-0.00138107,1.36668,0.0184294,0.0288644,748,799,-26.2041,-0.814258
-469,225,-26.1188,0.868103,-0.00505524,0.0277835,-0.000852867,0.0278056,-0.00507737,-1.54485,0.0204408,0.0344672,755,799,-26.1188,-0.868073
-462,225,0,0,0,0,0,0,0,0,0,-1,762,799,0,0
-455,225,0,0,0,0,0,0,0,0,0,-1,769,799,0,0
-448,225,0,0,0,0,0,0,0,0,0,-1,776,799,0,0
-441,225,0,0,0,0,0,0,0,0,0,-1,783,799,0,0
-434,225,0,0,0,0,0,0,0,0,0,-1,790,799,0,0
-427,225,0,0,0,0,0,0,0,0,0,-1,797,799,0,0
-420,225,0,0,0,0,0,0,0,0,0,-1,804,799,0,0
-413,225,0,0,0,0,0,0,0,0,0,-1,811,799,0,0
-406,225,0,0,0,0,0,0,0,0,0,-1,818,799,0,0
-399,225,0,0,0,0,0,0,0,0,0,-1,825,799,0,0
-392,225,0,0,0,0,0,0,0,0,0,-1,832,799,0,0
-385,225,0,0,0,0,0,0,0,0,0,-1,839,799,0,0
-378,225,0,0,0,0,0,0,0,0,0,-1,846,799,0,0
-371,225,0,0,0,0,0,0,0,0,0,-1,853,799,0,0
-364,225,0,0,0,0,0,0,0,0,0,-1,860,799,0,0
-357,225,0,0,0,0,0,0,0,0,0,-1,867,799,0,0
-350,225,0,0,0,0,0,0,0,0,0,-1,874,799,0,0
-343,225,0,0,0,0,0,0,0,0,0,-1,881,799,0,0
-336,225,0,0,0,0,0,0,0,0,0,-1,888,799,0,0
-329,225,0,0,0,0,0,0,0,0,0,-1,895,799,0,0
-322,225,0,0,0,0,0,0,0,0,0,-1,902,799,0,0
-315,225,0,0,0,0,0,0,0,0,0,-1,909,799,0,0
-308,225,0,0,0,0,0,0,0,0,0,-1,916,799,0,0
-301,225,0,0,0,0,0,0,0,0,0,-1,923,799,0,0
-294,225,0,0,0,0,0,0,0,0,0,-1,930,799,0,0
-287,225,0,0,0,0,0,0,0,0,0,-1,937,799,0,0
-280,225,0,0,0,0,0,0,0,0,0,-1,944,799,0,0
-273,225,0,0,0,0,0,0,0,0,0,-1,951,799,0,0
-266,225,0,0,0,0,0,0,0,0,0,-1,958,799,0,0
-259,225,0,0,0,0,0,0,0,0,0,-1,965,799,0,0
-252,225,0,0,0,0,0,0,0,0,0,-1,972,799,0,0
-245,225,0,0,0,0,0,0,0,0,0,-1,979,799,0,0
-238,225,0,0,0,0,0,0,0,0,0,-1,986,799,0,0
-231,225,0,0,0,0,0,0,0,0,0,-1,993,799,0,0
-224,225,0,0,0,0,0,0,0,0,0,-1,1000,799,0,0
-217,225,0,0,0,0,0,0,0,0,0,-1,1007,799,0,0
-210,225,0,0,0,0,0,0,0,0,0,-1,1014,799,0,0
-203,225,0,0,0,0,0,0,0,0,0,-1,1021,799,0,0
-196,225,0,0,0,0,0,0,0,0,0,-1,1028,799,0,0
-189,225,0,0,0,0,0,0,0,0,0,-1,1035,799,0,0
-182,225,0,0,0,0,0,0,0,0,0,-1,1042,799,0,0
-175,225,0,0,0,0,0,0,0,0,0,-1,1049,799,0,0
-168,225,0,0,0,0,0,0,0,0,0,-1,1056,799,0,0
-161,225,0,0,0,0,0,0,0,0,0,-1,1063,799,0,0
-154,225,0,0,0,0,0,0,0,0,0,-1,1070,799,0,0
-147,225,0,0,0,0,0,0,0,0,0,-1,1077,799,0,0
-140,225,0,0,0,0,0,0,0,0,0,-1,1084,799,0,0
-133,225,0,0,0,0,0,0,0,0,0,-1,1091,799,0,0
-126,225,0,0,0,0,0,0,0,0,0,-1,1098,799,0,0
-119,225,0,0,0,0,0,0,0,0,0,-1,1105,799,0,0
-112,225,0,0,0,0,0,0,0,0,0,-1,1112,799,0,0
-105,225,0,0,0,0,0,0,0,0,0,-1,1119,799,0,0
-98,225,0,0,0,0,0,0,0,0,0,-1,1126,799,0,0
-91,225,0,0,0,0,0,0,0,0,0,-1,1133,799,0,0
-84,225,0,0,0,0,0,0,0,0,0,-1,1140,799,0,0
-77,225,0,0,0,0,0,0,0,0,0,-1,1147,799,0,0
-70,225,0,0,0,0,0,0,0,0,0,-1,1154,799,0,0
-63,225,0,0,0,0,0,0,0,0,0,-1,1161,799,0,0
-56,225,0,0,0,0,0,0,0,0,0,-1,1168,799,0,0
-49,225,0,0,0,0,0,0,0,0,0,-1,1175,799,0,0
-42,225,0,0,0,0,0,0,0,0,0,-1,1182,799,0,0
-35,225,0,0,0,0,0,0,0,0,0,-1,1189,799,0,0
-28,225,0,0,0,0,0,0,0,0,0,-1,1196,799,0,0
-21,225,0,0,0,0,0,0,0,0,0,-1,1203,799,0,0
-14,225,0,0,0,0,0,0,0,0,0,-1,1210,799,0,0
-7,225,0,0,0,0,0,0,0,0,0,-1,1217,799,0,0
0,225,0,0,0,0,0,0,0,0,0,-1,1224,799,0,0
7,225,0,0,0,0,0,0,0,0,0,-1,1231,799,0,0
14,225,0,0,0,0,0,0,0,0,0,-1,1238,799,0,0
21,225,0,0,0,0,0,0,0,0,0,-1,1245,799,0,0
28,225,0,0,0,0,0,0,0,0,0,-1,1252,799,0,0
35,225,0,0,0,0,0,0,0,0,0,-1,1259,799,0,0
42,225,0,0,0,0,0,0,0,0,0,-1,1266,799,0,0
49,225,0,0,0,0,0,0,0,0,0,-1,1273,799,0,0
56,225,0,0,0,0,0,0,0,0,0,-1,1280,799,0,0
63,225,0,0,0,0,0,0,0,0,0,-1,1287,799,0,0
70,225,0,0,0,0,0,0,0,0,0,-1,1294,799,0,0
77,225,0,0,0,0,0,0,0,0,0,-1,1301,799,0,0
84,225,0,0,0,0,0,0,0,0,0,-1,1308,799,0,0
91,225,0,0,0,0,0,0,0,0,0,-1,1315,799,0,0
98,225,0,0,0,0,0,0,0,0,0,-1,1322,799,0,0
105,225,0,0,0,0,0,0,0,0,0,-1,1329,799,0,0
112,225,0,0,0,0,0,0,0,0,0,-1,1336,799,0,0
119,225,0,0,0,0,0,0,0,0,0,-1,1343,799,0,0
126,225,0,0,0,0,0,0,0,0,0,-1,1350,799,0,0
133,225,0,0,0,0,0,0,0,0,0,-1,1357,799,0,0
140,225,0,0,0,0,0,0,0,0,0,-1,1364,799,0,0
147,225,0,0,0,0,0,0,0,0,0,-1,1371,799,0,0
154,225,0,0,0,0,0,0,0,0,0,-1,1378,799,0,0
161,225,0,0,0,0,0,0,0,0,0,-1,1385,799,0,0
168,225,0,0,0,0,0,0,0,0,0,-1,1392,799,0,0
175,225,0,0,0,0,0,0,0,0,0,-1,1399,799,0,0
182,225,0,0,0,0,0,0,0,0,0,-1,1406,799,0,0
189,225,0,0,0,0,0,0,0,0,0,-1,1413,799,0,0
196,225,0,0,0,0,0,0,0,0,0,-1,1420,799,0,0
203,225,0,0,0,0,0,0,0,0,0,-1,1427,799,0,0
210,225,0,0,0,0,0,0,0,0,0,-1,1434,799,0,0
217,225,0,0,0,0,0,0,0,0,0,-1,1441,799,0,0
224,225,0,0,0,0,0,0,0,0,0,-1,1448,799,0,0
231,225,0,0,0,0,0,0,0,0,0,-1,1455,799,0,0
238,225,0,0,0,0,0,0,0,0,0,-1,1462,799,0,0
245,225,0,0,0,0,0,0,0,0,0,-1,1469,799,0,0
252,225,0,0,0,0,0,0,0,0,0,-1,1476,799,0,0
259,225,0,0,0,0,0,0,0,0,0,-1,1483,799,0,0
266,225,0,0,0,0,0,0,0,0,0,-1,1490,799,0,0
273,225,0,0,0,0,0,0,0,0,0,-1,1497,799,0,0
280,225,0,0,0,0,0,0,0,0,0,-1,1504,799,0,0
287,225,0,0,0,0,0,0,0,0,0,-1,1511,799,0,0
294,225,0,0,0,0,0,0,0,0,0,-1,1518,799,0,0
301,225,0,0,0,0,0,0,0,0,0,-1,1525,799,0,0
308,225,0,0,0,0,0,0,0,0,0,-1,1532,799,0,0
315,225,0,0,0,0,0,0,0,0,0,-1,1539,799,0,0
322,225,0,0,0,0,0,0,0,0,0,-1,1546,799,0,0
329,225,0,0,0,0,0,0,0,0,0,-1,1553,799,0,0
336,225,0,0,0,0,0,0,0,0,0,-1,1560,799,0,0
343,225,0,0,0,0,0,0,0,0,0,-1,1567,799,0,0
350,225,0,0,0,0,0,0,0,0,0,-1,1574,799,0,0
357,225,0,0,0,0,0,0,0,0,0,-1,1581,799,0,0
364,225,0,0,0,0,0,0,0,0,0,-1,1588,799,0,0
371,225,0,0,0,0,0,0,0,0,0,-1,1595,799,0,0
378,225,0,0,0,0,0,0,0,0,0,-1,1602,799,0,0
385,225,0,0,0,0,0,0,0,0,0,-1,1609,799,0,0
392,225,0,0,0,0,0,0,0,0,0,-1,1616,799,0,0
399,225,0,0,0,0,0,0,0,0,0,-1,1623,799,0,0
406,225,0,0,0,0,0,0,0,0,0,-1,1630,799,0,0
413,225,0,0,0,0,0,0,0,0,0,-1,1637,799,0,0
420,225,0,0,0,0,0,0,0,0,0,-1,1644,799,0,0
427,225,0,0,0,0,0,0,0,0,0,-1,1651,799,0,0
434,225,0,0,0,0,0,0,0,0,0,-1,1658,799,0,0
441,225,0,0,0,0,0,0,0,0,0,-1,1665,799,0,0
448,225,0,0,0,0,0,0,0,0,0,-1,1672,799,0,0
455,225,0,0,0,0,0,0,0,0,0,-1,1679,799,0,0
462,225,0,0,0,0,0,0,0,0,0,-1,1686,799,0,0
469,225,0,0,0,0,0,0,0,0,0,-1,1693,799,0,0
476,225,0,0,0,0,0,0,0,0,0,-1,1700,799,0,0
483,225,0,0,0,0,0,0,0,0,0,-1,1707,799,0,0
490,225,0,0,0,0,0,0,0,0,0,-1,1714,799,0,0
497,225,0,0,0,0,0,0,0,0,0,-1,1721,799,0,0
504,225,0,0,0,0,0,0,0,0,0,-1,1728,799,0,0
511,225,0,0,0,0,0,0,0,0,0,-1,1735,799,0,0
518,225,0,0,0,0,0,0,0,0,0,-1,1742,799,0,0
525,225,0,0,0,0,0,0,0,0,0,-1,1749,799,0,0
532,225,0,0,0,0,0,0,0,0,0,-1,1756,799,0,0
539,225,0,0,0,0,0,0,0,0,0,-1,1763,799,0,0
546,225,0,0,0,0,0,0,0,0,0,-1,1770,799,0,0
553,225,0,0,0,0,0,0,0,0,0,-1,1777,799,0,0
560,225,0,0,0,0,0,0,0,0,0,-1,1784,799,0,0
567,225,0,0,0,0,0,0,0,0,0,-1,1791,799,0,0
574,225,0,0,0,0,0,0,0,0,0,-1,1798,799,0,0
581,225,0,0,0,0,0,0,0,0,0,-1,1805,799,0,0
588,225,35.6721,2.84857,0.00267647,0.00989681,-0.00390549,0.0116051,0.000968165,-1.15846,0.00743506,0.0357111,1812,799,35.6721,-2.8486
595,225,35.6965,2.72388,0.00490111,0.00981398,-0.00351746,0.0116478,0.00306726,-1.09021,0.00697147,0.0340195,1819,799,35.6965,-2.7239
602,225,35.7455,2.52448,0.00477949,0.00891236,-0.00324715,0.0106948,0.00299701,-1.06877,0.00637039,0.0335379,1826,799,35.7455,-2.52445
609,225,35.8666,2.56329,0.0036571,0.006771,-0.00314831,0.0087263,0.00170179,-1.01503,0.00534141,0.0350284,1833,799,35.8666,-2.56331
616,225,35.8346,2.66235,0.00191809,0.00423554,-0.00327903,0.00655456,-0.000400927,-0.955237,0.00450929,0.0422494,1840,799,35.8345,-2.66234
623,225,35.8595,2.69147,0.000392715,0.0017723,-0.00335386,0.00450657,-0.00234155,-0.88682,0.00401909,0.04271,1847,799,35.8595,-2.69147
630,225,35.9896,2.64264,0,0,0,0,0,0,0,-1,1854,799,35.9896,-2.64264
637,225,36.4086,1.61432,0,0,0,0,0,0,0,-1,1861,799,36.4086,-1.61434
644,225,27.5894,0.446472,0,0,0,0,0,0,0,-1,1868,799,27.5893,-0.446476
651,225,27.1766,0.469971,0,0,0,0,0,0,0,-1,1875,799,27.1767,-0.469972
658,225,26.7675,0.501221,-0.00458629,-0.00435547,-0.00374382,-0.000725289,-0.00821648,-0.800807,0.00525261,0.0494719,1882,799,26.7674,-0.501244
665,225,26.3127,0.477722,-0.0045037,-0.00435204,-0.00403257,-0.00039459,-0.00846115,-0.794799,0.00551395,0.0187565,1889,799,26.3127,-0.477749
672,225,26.1681,0.854309,-0.00399695,-0.00409446,-0.00399005,-5.5349e-05,-0.00803605,-0.779289,0.00533901,0.0194009,1896,799,26.1681,-0.854319
679,225,26.1683,1.31494,-0.00305697,-0.00373859,-0.00367362,0.000291612,-0.00708717,-0.739145,0.00482492,0.0182915,1903,799,26.1683,-1.31493
686,225,26.1946,1.66223,-0.00178176,-0.00305459,-0.00293334,0.000583409,-0.00541976,-0.678575,0.00382251,0.0114635,1910,799,26.1946,-1.66223
693,225,26.176,2.04828,-0.000139779,-0.00185407,-0.00196929,0.00115082,-0.00314466,-0.580136,0.00256751,0.0110085,1917,799,26.176,-2.04825
700,225,26.1567,2.46448,0.00219492,-0.00144604,-0.000930469,0.00241893,-0.00167004,-0.236249,0.00237393,0.0117168,1924,799,26.1568,-2.46447
707,225,26.1407,2.87976,0.00579882,-0.00142365,0.000240415,0.00580681,-0.00143164,0.0332381,0.00442628,0.0111907,1931,799,26.1408,-2.87979
714,225,26.1516,3.28796,0.0111248,-0.00287863,0.00207758,0.0114265,-0.00318037,0.144225,0.00886995,0.0121206,1938,799,26.1516,-3.28798
721,225,26.1891,3.69202,0.0173088,-0.0045383,0.00424033,0.0181029,-0.00533244,0.185139,0.0141843,0.0163488,1945,799,26.1891,-3.692
728,225,26.1482,3.95697,0.0251104,-0.00723238,0.00686574,0.0265075,-0.00862949,0.200749,0.0211436,0.0304676,1952,799,26.1482,-3.95696
735,225,26.2958,4.33643,0,0,0,0,0,0,0,-1,1959,799,26.2957,-4.33642
742,225,29.0922,3.2132,0,0,0,0,0,0,0,-1,1966,799,29.0921,-3.21322
749,225,27.3597,5.76422,0,0,0,0,0,0,0,-1,1973,799,27.3597,-5.76422
756,225,29.1997,4.6322,0,0,0,0,0,0,0,-1,1980,799,29.1997,-4.63222
763,225,30.1676,4.34607,0,0,0,0,0,0,0,-1,1987,799,30.1676,-4.34606
770,225,0,0,0,0,0,0,0,0,0,-1,1994,799,0,0
777,225,0,0,0,0,0,0,0,0,0,-1,2001,799,0,0
784,225,0,0,0,0,0,0,0,0,0,-1,2008,799,0,0
791,225,0,0,0,0,0,0,0,0,0,-1,2015,799,0,0
798,225,0,0,0,0,0,0,0,0,0,-1,2022,799,0,0
805,225,0,0,0,0,0,0,0,0,0,-1,2029,799,0,0
812,225,0,0,0,0,0,0,0,0,0,-1,2036,799,0,0
-700,218,0,0,0,0,0,0,0,0,0,-1,524,806,0,0
-693,218,0,0,0,0,0,0,0,0,0,-1,531,806,0,0
-686,218,0,0,0,0,0,0,0,0,0,-1,538,806,0,0
-679,218,0,0,0,0,0,0,0,0,0,-1,545,806,0,0
-672,218,0,0,0,0,0,0,0,0,0,-1,552,806,0,0
-665,218,0,0,0,0,0,0,0,0,0,-1,559,806,0,0
-658,218,0,0,0,0,0,0,0,0,0,-1,566,806,0,0
-651,218,-18.4471,5.80664,0,0,0,0,0,0,0,-1,573,806,-18.4471,-5.80666
-644,218,-18.1039,6.55524,0,0,0,0,0,0,0,-1,580,806,-18.104,-6.55521
-637,218,-21.2309,0.131348,0,0,0,0,0,0,0,-1,587,806,-21.2309,-0.131356
-630,218,-21.6902,4.28424,0,0,0,0,0,0,0,-1,594,806,-21.6903,-4.28424
-623,218,-22.0089,3.22638,0.0101875,0.00978203,-0.0753622,0.0853472,-0.0653777,-0.784053,0.0872753,0.0497755,601,806,-22.0089,-3.2264
-616,218,-22.42,1.75684,0.00483893,0.00727891,-0.0573086,0.0633805,-0.0512627,-0.796041,0.0663124,0.0496833,608,806,-22.42,-1.75685
-609,218,-18.0606,2.29956,0,0,0,0,0,0,0,-1,615,806,-18.0606,-2.29957
-602,218,-18.0643,1.86871,0.000131183,0.0047544,-0.028922,0.031457,-0.0265714,-0.825276,0.0335423,0.0421513,622,806,-18.0643,-1.86873
-595,218,-18.0704,1.45947,-0.00146393,0.00315575,-0.0198672,0.0208469,-0.0191551,-0.84327,0.0231021,0.0175788,629,806,-18.0704,-1.45944
-588,218,-18.0589,1.08728,-0.00155347,0.00289334,-0.0115997,0.0124808,-0.0111409,-0.880089,0.0136453,0.0108717,636,806,-18.0589,-1.08728
-581,218,-18.0522,0.724487,-0.0013763,0.00200943,-0.00605568,0.00660442,-0.00597129,-0.921694,0.00726365,0.0102327,643,806,-18.0522,-0.724505
-574,218,-18.051,0.337097,-0.0013918,0.00117217,-0.00260296,0.00279171,-0.00301135,-1.01422,0.0033512,0.0101678,650,806,-18.051,-0.337097
-567,218,-18.0562,-0.0793457,-0.00129653,0.000275892,-8.191e-05,0.000280147,-0.00130079,-1.51889,0.000974095,0.0168452,657,806,-18.0562,0.0793486
-560,218,-18.0737,-0.424438,-0.000995756,-0.000725383,0.00125245,0.000399157,-0.0021203,0.839159,0.00156366,0.0171003,664,806,-18.0737,0.424453
-553,218,-18.0598,-0.814575,-0.000588796,-0.00182181,0.00200009,0.000887647,-0.00329826,0.635898,0.00254682,0.0180699,671,806,-18.0598,0.814593
-546,218,-18.0951,-1.28961,0.000131661,-0.00220977,0.0028246,0.00201855,-0.00409666,0.588938,0.00359793,0.0175847,678,806,-18.0951,1.28964
-539,218,-18.0972,-1.71014,0.0011307,-0.002609,0.00371736,0.003422,-0.0049003,0.552374,0.00483008,0.0270939,685,806,-18.0972,1.71014
-532,218,-18.1534,-1.90149,0.00218542,-0.00223068,0.00454389,0.00502935,-0.0050746,0.559231,0.00583354,0.0333225,692,806,-18.1534,1.90151
-525,218,-18.3877,-2.00446,0,0,0,0,0,0,0,-1,699,806,-18.3877,2.00448
-518,218,-23.61,2.54181,0,0,0,0,0,0,0,-1,706,806,-23.61,-2.54183
-511,218,-27.1448,0.370239,0,0,0,0,0,0,0,-1,713,806,-27.1448,-0.370242
-504,218,-26.6577,0.420166,0,0,0,0,0,0,0,-1,720,806,-26.6577,-0.420144
-497,218,-26.4208,0.664856,0.0047632,0.00834285,0.0077244,0.0144821,-0.00137603,0.899244,0.0101445,0.0462152,727,806,-26.4208,-0.664839
-490,218,-26.202,0.799683,0.00456299,0.0121165,0.00753343,0.0167669,-8.73785e-05,1.01776,0.0112072,0.0356415,734,806,-26.2019,-0.799694
-483,218,-26.1851,0.755249,0.0036778,0.016128,0.00599631,0.0185462,0.00125954,1.18746,0.0119664,0.0330863,741,806,-26.185,-0.755273
-476,218,-26.1433,0.730042,0.00138252,0.0191027,0.00197716,0.0193207,0.00116459,1.46102,0.0125103,0.0355209,748,806,-26.1433,-0.730028
-469,218,0,0,0,0,0,0,0,0,0,-1,755,806,0,0
-462,218,0,0,0,0,0,0,0,0,0,-1,762,806,0,0
-455,218,0,0,0,0,0,0,0,0,0,-1,769,806,0,0
-448,218,0,0,0,0,0,0,0,0,0,-1,776,806,0,0
-441,218,0,0,0,0,0,0,0,0,0,-1,783,806,0,0
-434,218,0,0,0,0,0,0,0,0,0,-1,790,806,0,0
-427,218,0,0,0,0,0,0,0,0,0,-1,797,806,0,0
-420,218,0,0,0,0,0,0,0,0,0,-1,804,806,0,0
-413,218,0,0,0,0,0,0,0,0,0,-1,811,806,0,0
-406,218,0,0,0,0,0,0,0,0,0,-1,818,806,0,0
-399,218,0,0,0,0,0,0,0,0,0,-1,825,806,0,0
-392,218,0,0,0,0,0,0,0,0,0,-1,832,806,0,0
-385,218,0,0,0,0,0,0,0,0,0,-1,839,806,0,0
-378,218,0,0,0,0,0,0,0,0,0,-1,846,806,0,0
-371,218,0,0,0,0,0,0,0,0,0,-1,853,806,0,0
-364,218,0,0,0,0,0,0,0,0,0,-1,860,806,0,0
-357,218,0,0,0,0,0,0,0,0,0,-1,867,806,0,0
-350,218,0,0,0,0,0,0,0,0,0,-1,874,806,0,0
-343,218,0,0,0,0,0,0,0,0,0,-1,881,806,0,0
-336,218,0,0,0,0,0,0,0,0,0,-1,888,806,0,0
-329,218,0,0,0,0,0,0,0,0,0,-1,895,806,0,0
-322,218,0,0,0,0,0,0,0,0,0,-1,902,806,0,0
-315,218,0,0,0,0,0,0,0,0,0,-1,909,806,0,0
-308,218,0,0,0,0,0,0,0,0,0,-1,916,806,0,0
-301,218,0,0,0,0,0,0,0,0,0,-1,923,806,0,0
-294,218,0,0,0,0,0,0,0,0,0,-1,930,806,0,0
-287,218,0,0,0,0,0,0,0,0,0,-1,937,806,0,0
-280,218,0,0,0,0,0,0,0,0,0,-1,944,806,0,0
-273,218,0,0,0,0,0,0,0,0,0,-1,951,806,0,0
-266,218,0,0,0,0,0,0,0,0,0,-1,958,806,0,0
-259,218,0,0,0,0,0,0,0,0,0,-1,965,806,0,0
-252,218,0,0,0,0,0,0,0,0,0,-1,972,806,0,0
-245,218,0,0,0,0,0,0,0,0,0,-1,979,806,0,0
-238,218,0,0,0,0,0,0,0,0,0,-1,986,806,0,0
-231,218,0,0,0,0,0,0,0,0,0,-1,993,806,0,0
-224,218,0,0,0,0,0,0,0,0,0,-1,1000,806,0,0
-217,218,0,0,0,0,0,0,0,0,0,-1,1007,806,0,0
-210,218,0,0,0,0,0,0,0,0,0,-1,1014,806,0,0
-203,218,0,0,0,0,0,0,0,0,0,-1,1021,806,0,0
-196,218,0,0,0,0,0,0,0,0,0,-1,1028,806,0,0
-189,218,0,0,0,0,0,0,0,0,0,-1,1035,806,0,0
-182,218,0,0,0,0,0,0,0,0,0,-1,1042,806,0,0
-175,218,0,0,0,0,0,0,0,0,0,-1,1049,806,0,0
-168,218,0,0,0,0,0,0,0,0,0,-1,1056,806,0,0
-161,218,0,0,0,0,0,0,0,0,0,-1,1063,806,0,0
-154,218,0,0,0,0,0,0,0,0,0,-1,1070,806,0,0
-147,218,0,0,0,0,0,0,0,0,0,-1,1077,806,0,0
-140,218,0,0,0,0,0,0,0,0,0,-1,1084,806,0,0
-133,218,0,0,0,0,0,0,0,0,0,-1,1091,806,0,0
-126,218,0,0,0,0,0,0,0,0,0,-1,1098,806,0,0
-119,218,0,0,0,0,0,0,0,0,0,-1,1105,806,0,0
-112,218,0,0,0,0,0,0,0,0,0,-1,1112,806,0,0
-105,218,0,0,0,0,0,0,0,0,0,-1,1119,806,0,0
-98,218,0,0,0,0,0,0,0,0,0,-1,1126,806,0,0
-91,218,0,0,0,0,0,0,0,0,0,-1,1133,806,0,0
-84,218,0,0,0,0,0,0,0,0,0,-1,1140,806,0,0
-77,218,0,0,0,0,0,0,0,0,0,-1,1147,806,0,0
-70,218,0,0,0,0,0,0,0,0,0,-1,1154,806,0,0
-63,218,0,0,0,0,0,0,0,0,0,-1,1161,806,0,0
-56,218,0,0,0,0,0,0,0,0,0,-1,1168,806,0,0
-49,218,0,0,0,0,0,0,0,0,0,-1,1175,806,0,0
-42,218,0,0,0,0,0,0,0,0,0,-1,1182,806,0,0
-35,218,0,0,0,0,0,0,0,0,0,-1,1189,806,0,0
-28,218,0,0,0,0,0,0,0,0,0,-1,1196,806,0,0
-21,218,0,0,0,0,0,0,0,0,0,-1,1203,806,0,0
-14,218,0,0,0,0,0,0,0,0,0,-1,1210,806,0,0
-7,218,0,0,0,0,0,0,0,0,0,-1,1217,806,0,0
0,218,0,0,0,0,0,0,0,0,0,-1,1224,806,0,0
7,218,0,0,0,0,0,0,0,0,0,-1,1231,806,0,0
14,218,0,0,0,0,0,0,0,0,0,-1,1238,806,0,0
21,218,0,0,0,0,0,0,0,0,0,-1,1245,806,0,0
28,218,0,0,0,0,0,0,0,0,0,-1,1252,806,0,0
35,218,0,0,0,0,0,0,0,0,0,-1,1259,806,0,0
42,218,0,0,0,0,0,0,0,0,0,-1,1266,806,0,0
49,218,0,0,0,0,0,0,0,0,0,-1,1273,806,0,0
56,218,0,0,0,0,0,0,0,0,0,-1,1280,806,0,0
63,218,0,0,0,0,0,0,0,0,0,-1,1287,806,0,0
70,218,0,0,0,0,0,0,0,0,0,-1,1294,806,0,0
77,218,0,0,0,0,0,0,0,0,0,-1,1301,806,0,0
84,218,0,0,0,0,0,0,0,0,0,-1,1308,806,0,0
91,218,0,0,0,0,0,0,0,0,0,-1,1315,806,0,0
98,218,0,0,0,0,0,0,0,0,0,-1,1322,806,0,0
105,218,0,0,0,0,0,0,0,0,0,-1,1329,806,0,0
112,218,0,0,0,0,0,0,0,0,0,-1,1336,806,0,0
119,218,0,0,0,0,0,0,0,0,0,-1,1343,806,0,0
126,218,0,0,0,0,0,0,0,0,0,-1,1350,806,0,0
133,218,0,0,0,0,0,0,0,0,0,-1,1357,806,0,0
140,218,0,0,0,0,0,0,0,0,0,-1,1364,806,0,0
147,218,0,0,0,0,0,0,0,0,0,-1,1371,806,0,0
154,218,0,0,0,0,0,0,0,0,0,-1,1378,806,0,0
161,218,0,0,0,0,0,0,0,0,0,-1,1385,806,0,0
168,218,0,0,0,0,0,0,0,0,0,-1,1392,806,0,0
175,218,0,0,0,0,0,0,0,0,0,-1,1399,806,0,0
182,218,0,0,0,0,0,0,0,0,0,-1,1406,806,0,0
189,218,0,0,0,0,0,0,0,0,0,-1,1413,806,0,0
196,218,0,0,0,0,0,0,0,0,0,-1,1420,806,0,0
203,218,0,0,0,0,0,0,0,0,0,-1,1427,806,0,0
210,218,0,0,0,0,0,0,0,0,0,-1,1434,806,0,0
217,218,0,0,0,0,0,0,0,0,0,-1,1441,806,0,0
224,218,0,0,0,0,0,0,0,0,0,-1,1448,806,0,0
231,218,0,0,0,0,0,0,0,0,0,-1,1455,806,0,0
238,218,0,0,0,0,0,0,0,0,0,-1,1462,806,0,0
245,218,0,0,0,0,0,0,0,0,0,-1,1469,806,0,0
252,218,0,0,0,0,0,0,0,0,0,-1,1476,806,0,0
259,218,0,0,0,0,0,0,0,0,0,-1,1483,806,0,0
266,218,0,0,0,0,0,0,0,0,0,-1,1490,806,0,0
273,218,0,0,0,0,0,0,0,0,0,-1,1497,806,0,0
280,218,0,0,0,0,0,0,0,0,0,-1,1504,806,0,0
287,218,0,0,0,0,0,0,0,0,0,-1,1511,806,0,0
294,218,0,0,0,0,0,0,0,0,0,-1,1518,806,0,0
301,218,0,0,0,0,0,0,0,0,0,-1,1525,806,0,0
308,218,0,0,0,0,0,0,0,0,0,-1,1532,806,0,0
315,218,0,0,0,0,0,0,0,0,0,-1,1539,806,0,0
322,218,0,0,0,0,0,0,0,0,0,-1,1546,806,0,0
329,218,0,0,0,0,0,0,0,0,0,-1,1553,806,0,0
336,218,0,0,0,0,0,0,0,0,0,-1,1560,806,0,0
343,218,0,0,0,0,0,0,0,0,0,-1,1567,806,0,0
350,218,0,0,0,0,0,0,0,0,0,-1,1574,806,0,0
357,218,0,0,0,0,0,0,0,0,0,-1,1581,806,0,0
364,218,0,0,0,0,0,0,0,0,0,-1,1588,806,0,0
371,218,0,0,0,0,0,0,0,0,0,-1,1595,806,0,0
378,218,0,0,0,0,0,0,0,0,0,-1,1602,806,0,0
385,218,0,0,0,0,0,0,0,0,0,-1,1609,806,0,0
392,218,0,0,0,0,0,0,0,0,0,-1,1616,806,0,0
399,218,0,0,0,0,0,0,0,0,0,-1,1623,806,0,0
406,218,0,0,0,0,0,0,0,0,0,-1,1630,806,0,0
413,218,0,0,0,0,0,0,0,0,0,-1,1637,806,0,0
420,218,0,0,0,0,0,0,0,0,0,-1,1644,806,0,0
427,218,0,0,0,0,0,0,0,0,0,-1,1651,806,0,0
434,218,0,0,0,0,0,0,0,0,0,-1,1658,806,0,0
441,218,0,0,0,0,0,0,0,0,0,-1,1665,806,0,0
448,218,0,0,0,0,0,0,0,0,0,-1,1672,806,0,0
455,218,0,0,0,0,0,0,0,0,0,-1,1679,806,0,0
462,218,0,0,0,0,0,0,0,0,0,-1,1686,806,0,0
469,218,0,0,0,0,0,0,0,0,0,-1,1693,806,0,0
476,218,0,0,0,0,0,0,0,0,0,-1,1700,806,0,0
483,218,0,0,0,0,0,0,0,0,0,-1,1707,806,0,0
490,218,0,0,0,0,0,0,0,0,0,-1,1714,806,0,0
497,218,0,0,0,0,0,0,0,0,0,-1,1721,806,0,0
504,218,0,0,0,0,0,0,0,0,0,-1,1728,806,0,0
511,218,0,0,0,0,0,0,0,0,0,-1,1735,806,0,0
518,218,0,0,0,0,0,0,0,0,0,-1,1742,806,0,0
525,218,0,0,0,0,0,0,0,0,0,-1,1749,806,0,0
532,218,0,0,0,0,0,0,0,0,0,-1,1756,806,0,0
539,218,0,0,0,0,0,0,0,0,0,-1,1763,806,0,0
546,218,0,0,0,0,0,0,0,0,0,-1,1770,806,0,0
553,218,0,0,0,0,0,0,0,0,0,-1,1777,806,0,0
560,218,0,0,0,0,0,0,0,0,0,-1,1784,806,0,0
567,218,0,0,0,0,0,0,0,0,0,-1,1791,806,0,0
574,218,0,0,0,0,0,0,0,0,0,-1,1798,806,0,0
581,218,0,0,0,0,0,0,0,0,0,-1,1805,806,0,0
588,218,0,0,0,0,0,0,0,0,0,-1,1812,806,0,0
595,218,35.7407,2.78503,0.00645135,0.00751264,-0.00257745,0.0096135,0.00435049,-0.886919,0.00555868,0.0362625,1819,806,35.7407,-2.78506
602,218,35.709,2.65558,0.005918,0.00689242,-0.00220602,0.00866439,0.00414603,-0.894081,0.00500392,0.0337169,1826,806,35.709,-2.65557
609,218,35.7489,2.67242,0.00443409,0.00513623,-0.00221296,0.0070258,0.00254452,-0.864063,0.0041074,0.0322042,1833,806,35.7489,-2.67241
616,218,35.7395,2.69934,0.0023315,0.00283235,-0.00266732,0.00526097,-9.71244e-05,-0.832204,0.00354013,0.0335357,1840,806,35.7395,-2.69932
623,218,35.8374,2.6355,0.000393744,0.000601054,-0.00313309,0.0036322,-0.00263741,-0.801934,0.00363492,0.0358313,1847,806,35.8374,-2.63549
630,218,35.9399,2.60986,-0.00101941,-0.00114554,-0.00356557,0.00248366,-0.0046486,-0.776555,0.00418057,0.041887,1854,806,35.9399,-2.60988
637,218,36.073,2.02557,-0.00208453,-0.00234725,-0.00386264,0.00164898,-0.00608077,-0.768401,0.00470092,0.043969,1861,806,36.073,-2.02557
644,218,35.4243,2.73468,0,0,0,0,0,0,0,-1,1868,806,35.4243,-2.73466
651,218,27.8545,0.777954,0,0,0,0,0,0,0,-1,1875,806,27.8545,-0.777924
658,218,27.2047,0.43866,0,0,0,0,0,0,0,-1,1882,806,27.2047,-0.438669
665,218,26.934,0.632324,-0.00449744,-0.00445222,-0.00434791,-0.000126855,-0.0088228,-0.787998,0.00584004,0.0464086,1889,806,26.934,-0.632353
672,218,26.6823,0.904358,-0.00414253,-0.00425001,-0.00427989,8.39592e-05,-0.00847651,-0.77912,0.0056792,0.015759,1896,806,26.6823,-0.904383
679,218,26.6312,1.297,-0.00342758,-0.00396934,-0.00398579,0.000296531,-0.00769344,-0.75147,0.00523061,0.0125002,1903,806,26.6312,-1.297
686,218,26.6276,1.65765,-0.00242955,-0.00332795,-0.00329324,0.000444985,-0.00620248,-0.717616,0.00429101,0.0123014,1910,806,26.6275,-1.65763
693,218,26.6163,2.05548,-0.00103319,-0.00211762,-0.00239717,0.000882322,-0.00403313,-0.674175,0.00302605,0.0118341,1917,806,26.6163,-2.0555
700,218,26.5803,2.46838,0.00108467,-0.00170572,-0.00141816,0.00167888,-0.00229994,-0.396781,0.00230648,0.00933353,1924,806,26.5803,-2.46838
707,218,26.5433,2.87054,0.00432307,-0.00152043,-0.000301305,0.00433857,-0.00153592,-0.0513808,0.00351795,0.00762997,1931,806,26.5434,-2.87054
714,218,26.5476,3.26801,0.00922671,-0.00277948,0.00145307,0.00940006,-0.00295284,0.118743,0.00744871,0.00978606,1938,806,26.5476,-3.26801
721,218,26.584,3.66919,0.015,-0.00424286,0.00351503,0.0156219,-0.00486484,0.175135,0.0123596,0.0127931,1945,806,26.584,-3.66921
728,218,26.5803,4.09967,0.0221104,-0.00663534,0.00594646,0.0232919,-0.00781689,0.196142,0.0186868,0.0217477,1952,806,26.5804,-4.0997
735,218,26.813,4.48004,0.0312067,-0.00993087,0.00926931,0.0331988,-0.011923,0.211697,0.0269992,0.0395324,1959,806,26.813,-4.48005
742,218,27.1246,4.85205,0,0,0,0,0,0,0,-1,1966,806,27.1246,-4.85207
749,218,27.7855,4.46234,0,0,0,0,0,0,0,-1,1973,806,27.7856,-4.46232
756,218,28.8167,4.73505,0.0753151,-0.0270175,0.0273189,0.0821515,-0.0338539,0.245209,0.0688835,0.0496829,1980,806,28.8166,-4.73502
763,218,29.7853,4.39374,0.095902,-0.0348435,0.0365231,0.105413,-0.0443543,0.254745,0.088831,0.0456226,1987,806,29.7853,-4.39376
770,218,0,0,0,0,0,0,0,0,0,-1,1994,806,0,0
777,218,0,0,0,0,0,0,0,0,0,-1,2001,806,0,0
784,218,0,0,0,0,0,0,0,0,0,-1,2008,806,0,0
791,218,0,0,0,0,0,0,0,0,0,-1,2015,806,0,0
798,218,0,0,0,0,0,0,0,0,0,-1,2022,806,0,0
805,218,0,0,0,0,0,0,0,0,0,-1,2029,806,0,0
812,218,0,0,0,0,0,0,0,0,0,-1,2036,806,0,0
-700,211,0,0,0,0,0,0,0,0,0,-1,524,813,0,0
-693,211,0,0,0,0,0,0,0,0,0,-1,531,813,0,0
-686,211,0,0,0,0,0,0,0,0,0,-1,538,813,0,0
-679,211,0,0,0,0,0,0,0,0,0,-1,545,813,0,0
-672,211,0,0,0,0,0,0,0,0,0,-1,552,813,0,0
-665,211,0,0,0,0,0,0,0,0,0,-1,559,813,0,0
-658,211,0,0,0,0,0,0,0,0,0,-1,566,813,0,0
-651,211,-19.0734,5.33337,0.0632718,0.0345142,-0.126982,0.176687,-0.0789006,-0.729021,0.15112,0.0469823,573,813,-19.0734,-5.3334
-644,211,-18.396,5.77808,0,0,0,0,0,0,0,-1,580,813,-18.396,-5.7781
-637,211,-17.9563,6.49323,0,0,0,0,0,0,0,-1,587,813,-17.9563,-6.49322
-630,211,-20.3254,3.85083,0,0,0,0,0,0,0,-1,594,813,-20.3255,-3.85086
-623,211,-20.8204,3.01294,0,0,0,0,0,0,0,-1,601,813,-20.8203,-3.01292
-616,211,-18.2205,2.71429,0,0,0,0,0,0,0,-1,608,813,-18.2205,-2.7143
-609,211,-18.3033,2.28534,0.0018566,0.00402466,-0.0379304,0.0408866,-0.0350053,-0.799684,0.04386,0.042227,615,813,-18.3033,-2.28534
-602,211,-18.3612,1.85706,0.000242422,0.00340914,-0.0262691,0.0281425,-0.024491,-0.815499,0.0304123,0.0207968,622,813,-18.3612,-1.85704
-595,211,-18.4177,1.45929,-0.00119974,0.00216913,-0.0178123,0.0183764,-0.017407,-0.832541,0.0206621,0.0102746,629,813,-18.4176,-1.45929
-588,211,-18.4451,1.09961,-0.00136037,0.00209534,-0.00998294,0.0104989,-0.00976388,-0.87109,0.0117013,0.00927288,636,813,-18.4451,-1.09961
-581,211,-18.4553,0.743042,-0.00123998,0.00134615,-0.00472483,0.00495166,-0.00484548,-0.918965,0.00565649,0.0109788,643,813,-18.4553,-0.743027
-574,211,-18.4501,0.354858,-0.00130128,0.000713033,-0.00166694,0.00165345,-0.0022417,-1.05715,0.0022574,0.0135774,650,813,-18.4501,-0.35483
-567,211,-18.4666,-0.0508423,-0.00120322,4.079e-05,0.000343037,0.000129112,-0.00129154,1.3188,0.000907132,0.0197238,657,813,-18.4665,0.0508511
-560,211,-18.4958,-0.411255,-0.000781131,-0.000746768,0.00138372,0.000619876,-0.00214777,0.791606,0.00167711,0.0213699,664,813,-18.4958,0.411261
-553,211,-18.4109,-0.781189,-0.000203803,-0.00160038,0.0020192,0.00123444,-0.00303863,0.618923,0.0025393,0.0247968,671,813,-18.4109,0.781175
-546,211,-18.5743,-1.05994,0.000584475,-0.00173093,0.0027331,0.00239496,-0.00354141,0.585062,0.0034486,0.0346029,678,813,-18.5743,1.05993
-539,211,-18.5243,-1.51514,0.0015138,-0.00211673,0.00342834,0.0035778,-0.00418073,0.541919,0.00448389,0.0246604,685,813,-18.5243,1.51516
-532,211,-18.4688,-1.78278,0,0,0,0,0,0,0,-1,692,813,-18.4687,1.78277
-525,211,-14.3009,2.3233,0,0,0,0,0,0,0,-1,699,813,-14.3009,-2.3233
-518,211,-26.397,1.05487,0,0,0,0,0,0,0,-1,706,813,-26.3971,-1.05487
-511,211,-26.7678,0.469543,0,0,0,0,0,0,0,-1,713,813,-26.7677,-0.469573
-504,211,-27.1384,-0.115723,0,0,0,0,0,0,0,-1,720,813,-27.1384,0.115728
-497,211,-26.4681,0.461182,0.00565876,0.006428,0.00646013,0.0125149,-0.000428185,0.815132,0.00848962,0.0437365,727,813,-26.4681,-0.461163
-490,211,-26.2148,0.681763,0.00554638,0.00942283,0.0058426,0.0136403,0.0013289,0.945556,0.00868453,0.0332195,734,813,-26.2148,-0.681783
-483,211,-26.162,0.655762,0.004677,0.0123189,0.00354063,0.0137071,0.00328876,1.19713,0.00826296,0.0311767,741,813,-26.162,-0.655772
-476,211,-26.1611,0.633545,0.0020153,0.0137222,-0.00158977,0.0139343,0.00180326,-1.4382,0.00875058,0.0364049,748,813,-26.1611,-0.633568
-469,211,0,0,0,0,0,0,0,0,0,-1,755,813,0,0
-462,211,0,0,0,0,0,0,0,0,0,-1,762,813,0,0
-455,211,0,0,0,0,0,0,0,0,0,-1,769,813,0,0
-448,211,0,0,0,0,0,0,0,0,0,-1,776,813,0,0
-441,211,0,0,0,0,0,0,0,0,0,-1,783,813,0,0
-434,211,0,0,0,0,0,0,0,0,0,-1,790,813,0,0
-427,211,0,0,0,0,0,0,0,0,0,-1,797,813,0,0
-420,211,0,0,0,0,0,0,0,0,0,-1,804,813,0,0
-413,211,0,0,0,0,0,0,0,0,0,-1,811,813,0,0
-406,211,0,0,0,0,0,0,0,0,0,-1,818,813,0,0
-399,211,0,0,0,0,0,0,0,0,0,-1,825,813,0,0
-392,211,0,0,0,0,0,0,0,0,0,-1,832,813,0,0
-385,211,0,0,0,0,0,0,0,0,0,-1,839,813,0,0
-378,211,0,0,0,0,0,0,0,0,0,-1,846,813,0,0
-371,211,0,0,0,0,0,0,0,0,0,-1,853,813,0,0
-364,211,0,0,0,0,0,0,0,0,0,-1,860,813,0,0
-357,211,0,0,0,0,0,0,0,0,0,-1,867,813,0,0
-350,211,0,0,0,0,0,0,0,0,0,-1,874,813,0,0
-343,211,0,0,0,0,0,0,0,0,0,-1,881,813,0,0
-336,211,0,0,0,0,0,0,0,0,0,-1,888,813,0,0
-329,211,0,0,0,0,0,0,0,0,0,-1,895,813,0,0
-322,211,0,0,0,0,0,0,0,0,0,-1,902,813,0,0
-315,211,0,0,0,0,0,0,0,0,0,-1,909,813,0,0
-308,211,0,0,0,0,0,0,0,0,0,-1,916,813,0,0
-301,211,0,0,0,0,0,0,0,0,0,-1,923,813,0,0
-294,211,0,0,0,0,0,0,0,0,0,-1,930,813,0,0
-287,211,0,0,0,0,0,0,0,0,0,-1,937,813,0,0
-280,211,0,0,0,0,0,0,0,0,0,-1,944,813,0,0
-273,211,0,0,0,0,0,0,0,0,0,-1,951,813,0,0
-266,211,0,0,0,0,0,0,0,0,0,-1,958,813,0,0
-259,211,0,0,0,0,0,0,0,0,0,-1,965,813,0,0
-252,211,0,0,0,0,0,0,0,0,0,-1,972,813,0,0
-245,211,0,0,0,0,0,0,0,0,0,-1,979,813,0,0
-238,211,0,0,0,0,0,0,0,0,0,-1,986,813,0,0
-231,211,0,0,0,0,0,0,0,0,0,-1,993,813,0,0
-224,211,0,0,0,0,0,0,0,0,0,-1,1000,813,0,0
-217,211,0,0,0,0,0,0,0,0,0,-1,1007,813,0,0
-210,211,0,0,0,0,0,0,0,0,0,-1,1014,813,0,0
-203,211,0,0,0,0,0,0,0,0,0,-1,1021,813,0,0
-196,211,0,0,0,0,0,0,0,0,0,-1,1028,813,0,0
-189,211,0,0,0,0,0,0,0,0,0,-1,1035,813,0,0
-182,211,0,0,0,0,0,0,0,0,0,-1,1042,813,0,0
-175,211,0,0,0,0,0,0,0,0,0,-1,1049,813,0,0
-168,211,0,0,0,0,0,0,0,0,0,-1,1056,813,0,0
-161,211,0,0,0,0,0,0,0,0,0,-1,1063,813,0,0
-154,211,0,0,0,0,0,0,0,0,0,-1,1070,813,0,0
-147,211,0,0,0,0,0,0,0,0,0,-1,1077,813,0,0
-140,211,0,0,0,0,0,0,0,0,0,-1,1084,813,0,0
-133,211,0,0,0,0,0,0,0,0,0,-1,1091,813,0,0
-126,211,0,0,0,0,0,0,0,0,0,-1,1098,813,0,0
-119,211,0,0,0,0,0,0,0,0,0,-1,1105,813,0,0
-112,211,0,0,0,0,0,0,0,0,0,-1,1112,813,0,0
-105,211,0,0,0,0,0,0,0,0,0,-1,1119,813,0,0
-98,211,0,0,0,0,0,0,0,0,0,-1,1126,813,0,0
-91,211,0,0,0,0,0,0,0,0,0,-1,1133,813,0,0
-84,211,0,0,0,0,0,0,0,0,0,-1,1140,813,0,0
-77,211,0,0,0,0,0,0,0,0,0,-1,1147,813,0,0
-70,211,0,0,0,0,0,0,0,0,0,-1,1154,813,0,0
-63,211,0,0,0,0,0,0,0,0,0,-1,1161,813,0,0
-56,211,0,0,0,0,0,0,0,0,0,-1,1168,813,0,0
-49,211,0,0,0,0,0,0,0,0,0,-1,1175,813,0,0
-42,211,0,0,0,0,0,0,0,0,0,-1,1182,813,0,0
-35,211,0,0,0,0,0,0,0,0,0,-1,1189,813,0,0
-28,211,0,0,0,0,0,0,0,0,0,-1,1196,813,0,0
-21,211,0,0,0,0,0,0,0,0,0,-1,1203,813,0,0
-14,211,0,0,0,0,0,0,0,0,0,-1,1210,813,0,0
-7,211,0,0,0,0,0,0,0,0,0,-1,1217,813,0,0
0,211,0,0,0,0,0,0,0,0,0,-1,1224,813,0,0
7,211,0,0,0,0,0,0,0,0,0,-1,1231,813,0,0
14,211,0,0,0,0,0,0,0,0,0,-1,1238,813,0,0
21,211,0,0,0,0,0,0,0,0,0,-1,1245,813,0,0
28,211,0,0,0,0,0,0,0,0,0,-1,1252,813,0,0
35,211,0,0,0,0,0,0,0,0,0,-1,1259,813,0,0
42,211,0,0,0,0,0,0,0,0,0,-1,1266,813,0,0
49,211,0,0,0,0,0,0,0,0,0,-1,1273,813,0,0
56,211,0,0,0,0,0,0,0,0,0,-1,1280,813,0,0
63,211,0,0,0,0,0,0,0,0,0,-1,1287,813,0,0
70,211,0,0,0,0,0,0,0,0,0,-1,1294,813,0,0
77,211,0,0,0,0,0,0,0,0,0,-1,1301,813,0,0
84,211,0,0,0,0,0,0,0,0,0,-1,1308,813,0,0
91,211,0,0,0,0,0,0,0,0,0,-1,1315,813,0,0
98,211,0,0,0,0,0,0,0,0,0,-1,1322,813,0,0
105,211,0,0,0,0,0,0,0,0,0,-1,1329,813,0,0
112,211,0,0,0,0,0,0,0,0,0,-1,1336,813,0,0
119,211,0,0,0,0,0,0,0,0,0,-1,1343,813,0,0
126,211,0,0,0,0,0,0,0,0,0,-1,1350,813,0,0
133,211,0,0,0,0,0,0,0,0,0,-1,1357,813,0,0
140,211,0,0,0,0,0,0,0,0,0,-1,1364,813,0,0
147,211,0,0,0,0,0,0,0,0,0,-1,1371,813,0,0
154,211,0,0,0,0,0,0,0,0,0,-1,1378,813,0,0
161,211,0,0,0,0,0,0,0,0,0,-1,1385,813,0,0
168,211,0,0,0,0,0,0,0,0,0,-1,1392,813,0,0
175,211,0,0,0,0,0,0,0,0,0,-1,1399,813,0,0
182,211,0,0,0,0,0,0,0,0,0,-1,1406,813,0,0
189,211,0,0,0,0,0,0,0,0,0,-1,1413,813,0,0
196,211,0,0,0,0,0,0,0,0,0,-1,1420,813,0,0
203,211,0,0,0,0,0,0,0,0,0,-1,1427,813,0,0
210,211,0,0,0,0,0,0,0,0,0,-1,1434,813,0,0
217,211,0,0,0,0,0,0,0,0,0,-1,1441,813,0,0
224,211,0,0,0,0,0,0,0,0,0,-1,1448,813,0,0
231,211,0,0,0,0,0,0,0,0,0,-1,1455,813,0,0
238,211,0,0,0,0,0,0,0,0,0,-1,1462,813,0,0
245,211,0,0,0,0,0,0,0,0,0,-1,1469,813,0,0
252,211,0,0,0,0,0,0,0,0,0,-1,1476,813,0,0
259,211,0,0,0,0,0,0,0,0,0,-1,1483,813,0,0
266,211,0,0,0,0,0,0,0,0,0,-1,1490,813,0,0
273,211,0,0,0,0,0,0,0,0,0,-1,1497,813,0,0
280,211,0,0,0,0,0,0,0,0,0,-1,1504,813,0,0
287,211,0,0,0,0,0,0,0,0,0,-1,1511,813,0,0
294,211,0,0,0,0,0,0,0,0,0,-1,1518,813,0,0
301,211,0,0,0,0,0,0,0,0,0,-1,1525,813,0,0
308,211,0,0,0,0,0,0,0,0,0,-1,1532,813,0,0
315,211,0,0,0,0,0,0,0,0,0,-1,1539,813,0,0
322,211,0,0,0,0,0,0,0,0,0,-1,1546,813,0,0
329,211,0,0,0,0,0,0,0,0,0,-1,1553,813,0,0
336,211,0,0,0,0,0,0,0,0,0,-1,1560,813,0,0
343,211,0,0,0,0,0,0,0,0,0,-1,1567,813,0,0
350,211,0,0,0,0,0,0,0,0,0,-1,1574,813,0,0
357,211,0,0,0,0,0,0,0,0,0,-1,1581,813,0,0
364,211,0,0,0,0,0,0,0,0,0,-1,1588,813,0,0
371,211,0,0,0,0,0,0,0,0,0,-1,1595,813,0,0
378,211,0,0,0,0,0,0,0,0,0,-1,1602,813,0,0
385,211,0,0,0,0,0,0,0,0,0,-1,1609,813,0,0
392,211,0,0,0,0,0,0,0,0,0,-1,1616,813,0,0
399,211,0,0,0,0,0,0,0,0,0,-1,1623,813,0,0
406,211,0,0,0,0,0,0,0,0,0,-1,1630,813,0,0
413,211,0,0,0,0,0,0,0,0,0,-1,1637,813,0,0
420,211,0,0,0,0,0,0,0,0,0,-1,1644,813,0,0
427,211,0,0,0,0,0,0,0,0,0,-1,1651,813,0,0
434,211,0,0,0,0,0,0,0,0,0,-1,1658,813,0,0
441,211,0,0,0,0,0,0,0,0,0,-1,1665,813,0,0
448,211,0,0,0,0,0,0,0,0,0,-1,1672,813,0,0
455,211,0,0,0,0,0,0,0,0,0,-1,1679,813,0,0
462,211,0,0,0,0,0,0,0,0,0,-1,1686,813,0,0
469,211,0,0,0,0,0,0,0,0,0,-1,1693,813,0,0
476,211,0,0,0,0,0,0,0,0,0,-1,1700,813,0,0
483,211,0,0,0,0,0,0,0,0,0,-1,1707,813,0,0
490,211,0,0,0,0,0,0,0,0,0,-1,1714,813,0,0
497,211,0,0,0,0,0,0,0,0,0,-1,1721,813,0,0
504,211,0,0,0,0,0,0,0,0,0,-1,1728,813,0,0
511,211,0,0,0,0,0,0,0,0,0,-1,1735,813,0,0
518,211,0,0,0,0,0,0,0,0,0,-1,1742,813,0,0
525,211,0,0,0,0,0,0,0,0,0,-1,1749,813,0,0
532,211,0,0,0,0,0,0,0,0,0,-1,1756,813,0,0
539,211,0,0,0,0,0,0,0,0,0,-1,1763,813,0,0
546,211,0,0,0,0,0,0,0,0,0,-1,1770,813,0,0
553,211,0,0,0,0,0,0,0,0,0,-1,1777,813,0,0
560,211,0,0,0,0,0,0,0,0,0,-1,1784,813,0,0
567,211,0,0,0,0,0,0,0,0,0,-1,1791,813,0,0
574,211,0,0,0,0,0,0,0,0,0,-1,1798,813,0,0
581,211,0,0,0,0,0,0,0,0,0,-1,1805,813,0,0
588,211,0,0,0,0,0,0,0,0,0,-1,1812,813,0,0
595,211,35.9354,2.61255,0.00884802,0.00714193,-0.0022778,0.0104273,0.00556268,-0.60623,0.00602468,0.0389206,1819,813,35.9354,-2.61254
602,211,35.8589,2.68164,0.00737366,0.00646466,-0.00138526,0.00837708,0.00546124,-0.626884,0.00491037,0.0364381,1826,813,35.8589,-2.68163
609,211,35.8585,2.63776,0.00528717,0.00467268,-0.00123054,0.00624824,0.00371161,-0.663057,0.00362862,0.0367511,1833,813,35.8585,-2.63777
616,211,35.8259,2.67682,0.00283944,0.00236422,-0.00185927,0.00447623,0.000727433,-0.721844,0.00277365,0.0299347,1840,813,35.8259,-2.67684
623,211,35.8284,2.64618,0.000564049,0.000217256,-0.0026783,0.00307455,-0.00229325,-0.753073,0.00311003,0.0299679,1847,813,35.8283,-2.64615
630,211,35.8296,2.64679,-0.00107424,-0.00142685,-0.00341019,0.0021642,-0.00466529,-0.759572,0.00403019,0.0382886,1854,813,35.8295,-2.64679
637,211,35.8121,2.65454,-0.00222238,-0.00252039,-0.00390273,0.00153418,-0.00627695,-0.766318,0.00477884,0.04259,1861,813,35.8121,-2.65455
644,211,35.5034,2.69794,-0.00309888,-0.00329061,-0.00415349,0.000959848,-0.00734934,-0.77386,0.00524885,0.0396556,1868,813,35.5034,-2.69791
651,211,35.2657,2.7265,0,0,0,0,0,0,0,-1,1875,813,35.2658,-2.72648
658,211,27.7909,1.52234,0,0,0,0,0,0,0,-1,1882,813,27.7909,-1.52234
665,211,27.5992,0.763489,0,0,0,0,0,0,0,-1,1889,813,27.5993,-0.763508
672,211,27.0796,0.993713,-0.00394645,-0.00404764,-0.00440217,0.000405413,-0.0083995,-0.779652,0.00573958,0.0286875,1896,813,27.0795,-0.993739
679,211,27.0609,1.27917,-0.00344038,-0.00387737,-0.00413125,0.000478152,-0.0077959,-0.758979,0.00536376,0.015874,1903,813,27.061,-1.27919
686,211,27.0117,1.67627,-0.00269968,-0.00334461,-0.00349959,0.000492264,-0.00653656,-0.739456,0.00453072,0.0125461,1910,813,27.0118,-1.67627
693,211,27,2.07214,-0.00155533,-0.00225178,-0.00269083,0.000809714,-0.00461683,-0.72105,0.00338027,0.0120467,1917,813,27,-2.07216
700,211,26.9462,2.46075,0.000302047,-0.00190305,-0.00178935,0.00130126,-0.00290226,-0.509286,0.00248489,0.0131074,1924,813,26.9462,-2.46073
707,211,26.9281,2.88196,0.00309349,-0.00159408,-0.00073021,0.0032046,-0.0017052,-0.15101,0.0028784,0.0193938,1931,813,26.9281,-2.88197
714,211,26.9657,3.30768,0.00746393,-0.00263195,0.000895021,0.00754266,-0.00271068,0.0877403,0.00613497,0.0206421,1938,813,26.9657,-3.30769
721,211,26.9894,3.66553,0.0127865,-0.00388659,0.002834,0.013255,-0.00435513,0.163847,0.0105912,0.0157002,1945,813,26.9893,-3.66551
728,211,26.9713,4.05048,0.019114,-0.00599749,0.00505702,0.0200942,-0.00697763,0.191444,0.0162299,0.0152207,1952,813,26.9713,-4.05048
735,211,27.0107,4.47949,0.0269671,-0.00894304,0.00801149,0.0286734,-0.0106493,0.209843,0.0234845,0.0258547,1959,813,27.0107,-4.47948
742,211,27.6202,4.56549,0.0370222,-0.0128356,0.0120329,0.0397743,-0.0155878,0.224852,0.0329644,0.0450144,1966,813,27.6203,-4.56547
749,211,27.7719,4.74091,0.0494343,-0.0178019,0.0172861,0.0536181,-0.0219857,0.237468,0.0449054,0.0493301,1973,813,27.7719,-4.7409
756,211,28.4066,4.84253,0.0641612,-0.0238034,0.0238758,0.0702238,-0.029866,0.248669,0.0593321,0.0456534,1980,813,28.4066,-4.84253
763,211,29.0785,4.76276,0.0809782,-0.0307011,0.0318946,0.0894451,-0.039168,0.25948,0.0761225,0.04861,1987,813,29.0785,-4.76276
770,211,29.7631,4.67743,0,0,0,0,0,0,0,-1,1994,813,29.763,-4.67744
777,211,0,0,0,0,0,0,0,0,0,-1,2001,813,0,0
784,211,0,0,0,0,0,0,0,0,0,-1,2008,813,0,0
791,211,0,0,0,0,0,0,0,0,0,-1,2015,813,0,0
798,211,0,0,0,0,0,0,0,0,0,-1,2022,813,0,0
805,211,0,0,0,0,0,0,0,0,0,-1,2029,813,0,0
812,211,0,0,0,0,0,0,0,0,0,-1,2036,813,0,0
-700,204,0,0,0,0,0,0,0,0,0,-1,524,820,0,0
-693,204,0,0,0,0,0,0,0,0,0,-1,531,820,0,0
-686,204,0,0,0,0,0,0,0,0,0,-1,538,820,0,0
-679,204,0,0,0,0,0,0,0,0,0,-1,545,820,0,0
-672,204,0,0,0,0,0,0,0,0,0,-1,552,820,0,0
-665,204,0,0,0,0,0,0,0,0,0,-1,559,820,0,0
-658,204,0,0,0,0,0,0,0,0,0,-1,566,820,0,0
-651,204,-19.223,4.57391,0,0,0,0,0,0,0,-1,573,820,-19.223,-4.57394
-644,204,-21.9558,6.70935,0,0,0,0,0,0,0,-1,580,820,-21.9558,-6.70935
-637,204,-20.9536,5.58936,0,0,0,0,0,0,0,-1,587,820,-20.9536,-5.58937
-630,204,-20.1097,3.83899,0.0156607,0.00497545,-0.0842813,0.0947685,-0.0741324,-0.753745,0.0977573,0.0464726,594,820,-20.1097,-3.83899
-623,204,-19.7877,3.0174,0,0,0,0,0,0,0,-1,601,820,-19.7877,-3.01737
-616,204,-18.5013,2.94818,0,0,0,0,0,0,0,-1,608,820,-18.5013,-2.94818
-609,204,-18.5938,2.33789,0.00171962,0.0026198,-0.0344609,0.0366335,-0.0322941,-0.791928,0.0398217,0.0339033,615,820,-18.5938,-2.33788
-602,204,-18.7514,1.83258,0.000264792,0.00232227,-0.0235851,0.024901,-0.022314,-0.807193,0.0272732,0.0151436,622,820,-18.7514,-1.83259
-595,204,-18.8153,1.42407,-0.000989573,0.00139076,-0.0156833,0.015929,-0.0155278,-0.823269,0.0181621,0.0144375,629,820,-18.8153,-1.42404
-588,204,-18.8256,1.07239,-0.00121218,0.0014227,-0.00833337,0.00854212,-0.00833161,-0.863795,0.00974231,0.0120262,636,820,-18.8257,-1.07241
-581,204,-18.8272,0.723145,-0.00113265,0.000749129,-0.00346344,0.0033972,-0.00378073,-0.918029,0.00414615,0.0130893,643,820,-18.8272,-0.72315
-574,204,-18.8341,0.36908,-0.00120506,0.000258485,-0.00091367,0.000697304,-0.00164388,-1.12305,0.00138802,0.0145709,650,820,-18.8341,-0.369089
-567,204,-18.8295,-0.0032959,-0.00107277,-0.000239533,0.000538971,2.50699e-05,-0.00133737,1.11442,0.000900052,0.013958,657,820,-18.8295,0.00331938
-560,204,-18.8477,-0.391968,-0.000498696,-0.000840502,0.00128042,0.000622174,-0.00196137,0.719053,0.00155698,0.0134922,664,820,-18.8476,0.391981
-553,204,-18.8596,-0.724426,0.000270361,-0.00143528,0.00179523,0.00140504,-0.00256997,0.563655,0.00232759,0.0155371,671,820,-18.8595,0.724402
-546,204,-18.9135,-1.0293,0.00111043,-0.00132499,0.0024121,0.00259476,-0.00280932,0.551644,0.00312087,0.0224086,678,820,-18.9134,1.02929
-539,204,-18.8544,-1.40851,0.00196526,-0.0016747,0.00292333,0.00358885,-0.0032983,0.506973,0.00397748,0.0415553,685,820,-18.8543,1.4085
-532,204,-18.7455,-1.90637,0,0,0,0,0,0,0,-1,692,820,-18.7455,1.90634
-525,204,-24.2239,1.68866,0,0,0,0,0,0,0,-1,699,820,-24.2239,-1.68865
-518,204,-26.4167,0.416077,0,0,0,0,0,0,0,-1,706,820,-26.4167,-0.41607
-511,204,-26.4278,0.423401,0.00511297,0.000794618,0.00461756,0.00805123,-0.00214364,0.566701,0.00620668,0.0452144,713,820,-26.4278,-0.423409
-504,204,-26.4381,0.42804,0.00603636,0.00199491,0.00486602,0.00928455,-0.00125328,0.588597,0.00664696,0.0454148,720,820,-26.4381,-0.428065
-497,204,-26.3962,0.559509,0.00658156,0.00376344,0.00470082,0.01008,0.000265039,0.639786,0.00663339,0.0381541,727,820,-26.3962,-0.559491
-490,204,-26.3033,0.695374,0.00666221,0.00592562,0.0037115,0.0100236,0.00256419,0.735945,0.0060128,0.033636,734,820,-26.3033,-0.695343
-483,204,-26.2695,0.553894,0.00607721,0.00809311,0.000977301,0.00848911,0.00568121,1.18582,0.0049939,0.0390102,741,820,-26.2695,-0.553897
-476,204,0,0,0,0,0,0,0,0,0,-1,748,820,0,0
-469,204,0,0,0,0,0,0,0,0,0,-1,755,820,0,0
-462,204,0,0,0,0,0,0,0,0,0,-1,762,820,0,0
-455,204,0,0,0,0,0,0,0,0,0,-1,769,820,0,0
-448,204,0,0,0,0,0,0,0,0,0,-1,776,820,0,0
-441,204,0,0,0,0,0,0,0,0,0,-1,783,820,0,0
-434,204,0,0,0,0,0,0,0,0,0,-1,790,820,0,0
-427,204,0,0,0,0,0,0,0,0,0,-1,797,820,0,0
-420,204,0,0,0,0,0,0,0,0,0,-1,804,820,0,0
-413,204,0,0,0,0,0,0,0,0,0,-1,811,820,0,0
-406,204,0,0,0,0,0,0,0,0,0,-1,818,820,0,0
-399,204,0,0,0,0,0,0,0,0,0,-1,825,820,0,0
-392,204,0,0,0,0,0,0,0,0,0,-1,832,820,0,0
-385,204,0,0,0,0,0,0,0,0,0,-1,839,820,0,0
-378,204,0,0,0,0,0,0,0,0,0,-1,846,820,0,0
-371,204,0,0,0,0,0,0,0,0,0,-1,853,820,0,0
-364,204,0,0,0,0,0,0,0,0,0,-1,860,820,0,0
-357,204,0,0,0,0,0,0,0,0,0,-1,867,820,0,0
-350,204,0,0,0,0,0,0,0,0,0,-1,874,820,0,0
-343,204,0,0,0,0,0,0,0,0,0,-1,881,820,0,0
-336,204,0,0,0,0,0,0,0,0,0,-1,888,820,0,0
-329,204,0,0,0,0,0,0,0,0,0,-1,895,820,0,0
-322,204,0,0,0,0,0,0,0,0,0,-1,902,820,0,0
-315,204,0,0,0,0,0,0,0,0,0,-1,909,820,0,0
-308,204,0,0,0,0,0,0,0,0,0,-1,916,820,0,0
-301,204,0,0,0,0,0,0,0,0,0,-1,923,820,0,0
-294,204,0,0,0,0,0,0,0,0,0,-1,930,820,0,0
-287,204,0,0,0,0,0,0,0,0,0,-1,937,820,0,0
-280,204,0,0,0,0,0,0,0,0,0,-1,944,820,0,0
-273,204,0,0,0,0,0,0,0,0,0,-1,951,820,0,0
-266,204,0,0,0,0,0,0,0,0,0,-1,958,820,0,0
-259,204,0,0,0,0,0,0,0,0,0,-1,965,820,0,0
-252,204,0,0,0,0,0,0,0,0,0,-1,972,820,0,0
-245,204,0,0,0,0,0,0,0,0,0,-1,979,820,0,0
-238,204,0,0,0,0,0,0,0,0,0,-1,986,820,0,0
-231,204,0,0,0,0,0,0,0,0,0,-1,993,820,0,0
-224,204,0,0,0,0,0,0,0,0,0,-1,1000,820,0,0
-217,204,0,0,0,0,0,0,0,0,0,-1,1007,820,0,0
-210,204,0,0,0,0,0,0,0,0,0,-1,1014,820,0,0
-203,204,0,0,0,0,0,0,0,0,0,-1,1021,820,0,0
-196,204,0,0,0,0,0,0,0,0,0,-1,1028,820,0,0
-189,204,0,0,0,0,0,0,0,0,0,-1,1035,820,0,0
-182,204,0,0,0,0,0,0,0,0,0,-1,1042,820,0,0
-175,204,0,0,0,0,0,0,0,0,0,-1,1049,820,0,0
-168,204,0,0,0,0,0,0,0,0,0,-1,1056,820,0,0
-161,204,0,0,0,0,0,0,0,0,0,-1,1063,820,0,0
-154,204,0,0,0,0,0,0,0,0,0,-1,1070,820,0,0
-147,204,0,0,0,0,0,0,0,0,0,-1,1077,820,0,0
-140,204,0,0,0,0,0,0,0,0,0,-1,1084,820,0,0
-133,204,0,0,0,0,0,0,0,0,0,-1,1091,820,0,0
-126,204,0,0,0,0,0,0,0,0,0,-1,1098,820,0,0
-119,204,0,0,0,0,0,0,0,0,0,-1,1105,820,0,0
-112,204,0,0,0,0,0,0,0,0,0,-1,1112,820,0,0
-105,204,0,0,0,0,0,0,0,0,0,-1,1119,820,0,0
-98,204,0,0,0,0,0,0,0,0,0,-1,1126,820,0,0
-91,204,0,0,0,0,0,0,0,0,0,-1,1133,820,0,0
-84,204,0,0,0,0,0,0,0,0,0,-1,1140,820,0,0
-77,204,0,0,0,0,0,0,0,0,0,-1,1147,820,0,0
-70,204,0,0,0,0,0,0,0,0,0,-1,1154,820,0,0
-63,204,0,0,0,0,0,0,0,0,0,-1,1161,820,0,0
-56,204,0,0,0,0,0,0,0,0,0,-1,1168,820,0,0
-49,204,0,0,0,0,0,0,0,0,0,-1,1175,820,0,0
-42,204,0,0,0,0,0,0,0,0,0,-1,1182,820,0,0
-35,204,0,0,0,0,0,0,0,0,0,-1,1189,820,0,0
-28,204,0,0,0,0,0,0,0,0,0,-1,1196,820,0,0
-21,204,0,0,0,0,0,0,0,0,0,-1,1203,820,0,0
-14,204,0,0,0,0,0,0,0,0,0,-1,1210,820,0,0
-7,204,0,0,0,0,0,0,0,0,0,-1,1217,820,0,0
0,204,0,0,0,0,0,0,0,0,0,-1,1224,820,0,0
7,204,0,0,0,0,0,0,0,0,0,-1,1231,820,0,0
14,204,0,0,0,0,0,0,0,0,0,-1,1238,820,0,0
21,204,0,0,0,0,0,0,0,0,0,-1,1245,820,0,0
28,204,0,0,0,0,0,0,0,0,0,-1,1252,820,0,0
35,204,0,0,0,0,0,0,0,0,0,-1,1259,820,0,0
42,204,0,0,0,0,0,0,0,0,0,-1,1266,820,0,0
49,204,0,0,0,0,0,0,0,0,0,-1,1273,820,0,0
56,204,0,0,0,0,0,0,0,0,0,-1,1280,820,0,0
63,204,0,0,0,0,0,0,0,0,0,-1,1287,820,0,0
70,204,0,0,0,0,0,0,0,0,0,-1,1294,820,0,0
77,204,0,0,0,0,0,0,0,0,0,-1,1301,820,0,0
84,204,0,0,0,0,0,0,0,0,0,-1,1308,820,0,0
91,204,0,0,0,0,0,0,0,0,0,-1,1315,820,0,0
98,204,0,0,0,0,0,0,0,0,0,-1,1322,820,0,0
105,204,0,0,0,0,0,0,0,0,0,-1,1329,820,0,0
112,204,0,0,0,0,0,0,0,0,0,-1,1336,820,0,0
119,204,0,0,0,0,0,0,0,0,0,-1,1343,820,0,0
126,204,0,0,0,0,0,0,0,0,0,-1,1350,820,0,0
133,204,0,0,0,0,0,0,0,0,0,-1,1357,820,0,0
140,204,0,0,0,0,0,0,0,0,0,-1,1364,820,0,0
147,204,0,0,0,0,0,0,0,0,0,-1,1371,820,0,0
154,204,0,0,0,0,0,0,0,0,0,-1,1378,820,0,0
161,204,0,0,0,0,0,0,0,0,0,-1,1385,820,0,0
168,204,0,0,0,0,0,0,0,0,0,-1,1392,820,0,0
175,204,0,0,0,0,0,0,0,0,0,-1,1399,820,0,0
182,204,0,0,0,0,0,0,0,0,0,-1,1406,820,0,0
189,204,0,0,0,0,0,0,0,0,0,-1,1413,820,0,0
196,204,0,0,0,0,0,0,0,0,0,-1,1420,820,0,0
203,204,0,0,0,0,0,0,0,0,0,-1,1427,820,0,0
210,204,0,0,0,0,0,0,0,0,0,-1,1434,820,0,0
217,204,0,0,0,0,0,0,0,0,0,-1,1441,820,0,0
224,204,0,0,0,0,0,0,0,0,0,-1,1448,820,0,0
231,204,0,0,0,0,0,0,0,0,0,-1,1455,820,0,0
238,204,0,0,0,0,0,0,0,0,0,-1,1462,820,0,0
245,204,0,0,0,0,0,0,0,0,0,-1,1469,820,0,0
252,204,0,0,0,0,0,0,0,0,0,-1,1476,820,0,0
259,204,0,0,0,0,0,0,0,0,0,-1,1483,820,0,0
266,204,0,0,0,0,0,0,0,0,0,-1,1490,820,0,0
273,204,0,0,0,0,0,0,0,0,0,-1,1497,820,0,0
280,204,0,0,0,0,0,0,0,0,0,-1,1504,820,0,0
287,204,0,0,0,0,0,0,0,0,0,-1,1511,820,0,0
294,204,0,0,0,0,0,0,0,0,0,-1,1518,820,0,0
301,204,0,0,0,0,0,0,0,0,0,-1,1525,820,0,0
308,204,0,0,0,0,0,0,0,0,0,-1,1532,820,0,0
315,204,0,0,0,0,0,0,0,0,0,-1,1539,820,0,0
322,204,0,0,0,0,0,0,0,0,0,-1,1546,820,0,0
329,204,0,0,0,0,0,0,0,0,0,-1,1553,820,0,0
336,204,0,0,0,0,0,0,0,0,0,-1,1560,820,0,0
343,204,0,0,0,0,0,0,0,0,0,-1,1567,820,0,0
350,204,0,0,0,0,0,0,0,0,0,-1,1574,820,0,0
357,204,0,0,0,0,0,0,0,0,0,-1,1581,820,0,0
364,204,0,0,0,0,0,0,0,0,0,-1,1588,820,0,0
371,204,0,0,0,0,0,0,0,0,0,-1,1595,820,0,0
378,204,0,0,0,0,0,0,0,0,0,-1,1602,820,0,0
385,204,0,0,0,0,0,0,0,0,0,-1,1609,820,0,0
392,204,0,0,0,0,0,0,0,0,0,-1,1616,820,0,0
399,204,0,0,0,0,0,0,0,0,0,-1,1623,820,0,0
406,204,0,0,0,0,0,0,0,0,0,-1,1630,820,0,0
413,204,0,0,0,0,0,0,0,0,0,-1,1637,820,0,0
420,204,0,0,0,0,0,0,0,0,0,-1,1644,820,0,0
427,204,0,0,0,0,0,0,0,0,0,-1,1651,820,0,0
434,204,0,0,0,0,0,0,0,0,0,-1,1658,820,0,0
441,204,0,0,0,0,0,0,0,0,0,-1,1665,820,0,0
448,204,0,0,0,0,0,0,0,0,0,-1,1672,820,0,0
455,204,0,0,0,0,0,0,0,0,0,-1,1679,820,0,0
462,204,0,0,0,0,0,0,0,0,0,-1,1686,820,0,0
469,204,0,0,0,0,0,0,0,0,0,-1,1693,820,0,0
476,204,0,0,0,0,0,0,0,0,0,-1,1700,820,0,0
483,204,0,0,0,0,0,0,0,0,0,-1,1707,820,0,0
490,204,0,0,0,0,0,0,0,0,0,-1,1714,820,0,0
497,204,0,0,0,0,0,0,0,0,0,-1,1721,820,0,0
504,204,0,0,0,0,0,0,0,0,0,-1,1728,820,0,0
511,204,0,0,0,0,0,0,0,0,0,-1,1735,820,0,0
518,204,0,0,0,0,0,0,0,0,0,-1,1742,820,0,0
525,204,0,0,0,0,0,0,0,0,0,-1,1749,820,0,0
532,204,0,0,0,0,0,0,0,0,0,-1,1756,820,0,0
539,204,0,0,0,0,0,0,0,0,0,-1,1763,820,0,0
546,204,0,0,0,0,0,0,0,0,0,-1,1770,820,0,0
553,204,0,0,0,0,0,0,0,0,0,-1,1777,820,0,0
560,204,0,0,0,0,0,0,0,0,0,-1,1784,820,0,0
567,204,0,0,0,0,0,0,0,0,0,-1,1791,820,0,0
574,204,0,0,0,0,0,0,0,0,0,-1,1798,820,0,0
581,204,0,0,0,0,0,0,0,0,0,-1,1805,820,0,0
588,204,0,0,0,0,0,0,0,0,0,-1,1812,820,0,0
595,204,0,0,0,0,0,0,0,0,0,-1,1819,820,0,0
602,204,35.8883,2.61987,0.00909548,0.00768627,-0.000647068,0.00934751,0.00743423,-0.371429,0.00570194,0.0373646,1826,820,35.8884,-2.6199
609,204,35.8524,2.61377,0.00657439,0.0055252,-0.000357516,0.00668463,0.00541496,-0.299104,0.00409927,0.0380393,1833,820,35.8525,-2.61376
616,204,35.8906,2.62506,0.00389881,0.00297331,-0.00106067,0.00459328,0.00227884,-0.579706,0.00265196,0.0348125,1840,820,35.8907,-2.62507
623,204,35.8229,2.66504,0.00134311,0.000664428,-0.00213768,0.00316822,-0.00116068,-0.706684,0.00258732,0.0262109,1847,820,35.8229,-2.66502
630,204,35.787,2.65344,-0.000579666,-0.00104214,-0.00312836,0.00232599,-0.0039478,-0.748507,0.00366229,0.0277016,1854,820,35.787,-2.65346
637,204,35.8176,2.62854,-0.00186306,-0.0021371,-0.00379483,0.00179723,-0.00579739,-0.767353,0.00458301,0.0338977,1861,820,35.8177,-2.62856
644,204,35.7112,2.60425,-0.00270823,-0.00284546,-0.00413706,0.00136078,-0.00691447,-0.777106,0.00512383,0.0376471,1868,820,35.7112,-2.60424
651,204,35.3262,2.0506,-0.00322593,-0.00334462,-0.00422582,0.000940964,-0.00751151,-0.778377,0.00534899,0.0472306,1875,820,35.3262,-2.05062
658,204,34.9631,1.64844,0,0,0,0,0,0,0,-1,1882,820,34.9631,-1.64842
665,204,21.8292,1.51099,0,0,0,0,0,0,0,-1,1889,820,21.8292,-1.51099
672,204,27.3776,0.928589,0,0,0,0,0,0,0,-1,1896,820,27.3776,-0.928582
679,204,27.3959,1.15833,-0.0032372,-0.00356426,-0.00403612,0.000638701,-0.00744015,-0.765151,0.00518613,0.0328594,1903,820,27.3959,-1.1583
686,204,27.3864,1.68024,-0.00272703,-0.00317871,-0.00347602,0.000530477,-0.00643622,-0.752958,0.00447812,0.0147746,1910,820,27.3863,-1.68025
693,204,27.3539,2.07635,-0.00185048,-0.00227413,-0.00277841,0.000724168,-0.00484878,-0.747352,0.00349898,0.0162846,1917,820,27.3539,-2.07635
700,204,27.3785,2.48901,-0.000321243,-0.00200467,-0.00199319,0.00100067,-0.00332658,-0.58561,0.00261587,0.016528,1924,820,27.3785,-2.48899
707,204,27.3463,2.9223,0.00192718,-0.00158973,-0.001036,0.00220967,-0.00187222,-0.266204,0.00235936,0.013921,1931,820,27.3463,-2.9223
714,204,27.3774,3.37354,0.00560204,-0.00237013,0.000374846,0.00561963,-0.00238771,0.0468815,0.0047469,0.0215788,1938,820,27.3775,-3.37355
721,204,27.348,3.70569,0.0103323,-0.00337298,0.00212039,0.0106528,-0.00369353,0.150042,0.00860159,0.0198267,1945,820,27.348,-3.7057
728,204,27.3289,4.04889,0.0158138,-0.00517405,0.00410317,0.0165875,-0.00594771,0.186363,0.0134854,0.0126861,1952,820,27.3288,-4.04887
735,204,27.3137,4.45099,0.0224323,-0.00767801,0.00664534,0.0238337,-0.00907941,0.20784,0.0196285,0.0154427,1959,820,27.3137,-4.45099
742,204,27.3901,4.76508,0.0307834,-0.0109364,0.0100588,0.033082,-0.013235,0.224657,0.0275473,0.0309998,1966,820,27.3902,-4.76505
749,204,27.6281,5.02924,0.041012,-0.0151473,0.0145177,0.044543,-0.0186783,0.238585,0.0375052,0.0451049,1973,820,27.6281,-5.02926
756,204,28.0194,5.26001,0.0529753,-0.0203175,0.0200787,0.0581154,-0.0254576,0.250616,0.0494636,0.0472618,1980,820,28.0194,-5.25999
763,204,28.6061,5.55194,0.0662994,-0.0263974,0.0267627,0.0734712,-0.0335692,0.261827,0.0632149,0.0441504,1987,820,28.6061,-5.55195
770,204,28.9928,6.3222,0.0800656,-0.0331228,0.0345926,0.0898005,-0.0428577,0.274321,0.0781723,0.04982,1994,820,28.9928,-6.32218
777,204,0,0,0,0,0,0,0,0,0,-1,2001,820,0,0
784,204,0,0,0,0,0,0,0,0,0,-1,2008,820,0,0
791,204,0,0,0,0,0,0,0,0,0,-1,2015,820,0,0
798,204,0,0,0,0,0,0,0,0,0,-1,2022,820,0,0
805,204,0,0,0,0,0,0,0,0,0,-1,2029,820,0,0
812,204,0,0,0,0,0,0,0,0,0,-1,2036,820,0,0
-700,197,0,0,0,0,0,0,0,0,0,-1,524,827,0,0
-693,197,0,0,0,0,0,0,0,0,0,-1,531,827,0,0
-686,197,0,0,0,0,0,0,0,0,0,-1,538,827,0,0
-679,197,0,0,0,0,0,0,0,0,0,-1,545,827,0,0
-672,197,0,0,0,0,0,0,0,0,0,-1,552,827,0,0
-665,197,0,0,0,0,0,0,0,0,0,-1,559,827,0,0
-658,197,-26.8396,4.3996,0,0,0,0,0,0,0,-1,566,827,-26.8396,-4.39962
-651,197,-22.9185,7.49762,0,0,0,0,0,0,0,-1,573,827,-22.9185,-7.49761
-644,197,-21.9223,6.22607,0,0,0,0,0,0,0,-1,580,827,-21.9223,-6.2261
-637,197,-20.8828,5.0556,0,0,0,0,0,0,0,-1,587,827,-20.8828,-5.05561
-630,197,-19.7324,3.77753,0,0,0,0,0,0,0,-1,594,827,-19.7323,-3.77751
-623,197,-18.5107,2.84125,0,0,0,0,0,0,0,-1,601,827,-18.5107,-2.84127
-616,197,-18.8181,2.60217,0.00312526,0.00149568,-0.0440947,0.0464127,-0.0417918,-0.77616,0.0509482,0.0475578,608,827,-18.8181,-2.60218
-609,197,-19.0748,2.25922,0.000940547,0.00157424,-0.0308595,0.0321185,-0.0296037,-0.790532,0.0356452,0.0332916,615,827,-19.0748,-2.25924
-602,197,-19.158,1.79974,-0.000275689,0.00153901,-0.0207089,0.0213604,-0.0200971,-0.807291,0.0239392,0.0172632,622,827,-19.1579,-1.79975
-595,197,-19.201,1.44189,-0.00125351,0.00088142,-0.0133351,0.0131917,-0.0135638,-0.825338,0.0154478,0.0182816,629,827,-19.201,-1.44192
-588,197,-19.2148,1.05939,-0.00144309,0.00095935,-0.00654566,0.0064131,-0.00689683,-0.876145,0.00768618,0.0177656,636,827,-19.2148,-1.05941
-581,197,-19.2068,0.721619,-0.00131477,0.000330444,-0.0022139,0.00186962,-0.00285395,-0.963276,0.00274682,0.0112474,643,827,-19.2068,-0.721646
-574,197,-19.202,0.374756,-0.00132825,-3.90632e-05,-0.000289656,2.30265e-05,-0.00139034,-1.35963,0.000934663,0.0128647,650,827,-19.202,-0.374766
-567,197,-19.1903,-0.00946045,-0.00109786,-0.000383175,0.000597976,-4.39052e-05,-0.00143713,1.05472,0.000943793,0.0140692,657,827,-19.1903,0.00945941
-560,197,-19.1926,-0.362976,-0.000330034,-0.000833854,0.00105996,0.000507536,-0.00167142,0.668732,0.00131649,0.0181309,664,827,-19.1926,0.362948
-553,197,-19.3636,-0.681396,0.000613894,-0.00125496,0.00146092,0.00141367,-0.00205473,0.500878,0.00201385,0.0205653,671,827,-19.3636,0.681415
-546,197,-19.2757,-1.02368,0.00149169,-0.000974075,0.00197559,0.00258754,-0.00206992,0.506438,0.00269451,0.0344617,678,827,-19.2757,1.02366
-539,197,-19.2611,-1.31091,0,0,0,0,0,0,0,-1,685,827,-19.2611,1.31094
-532,197,-16.0519,0.0410156,0,0,0,0,0,0,0,-1,692,827,-16.0519,-0.0410415
-525,197,-26.4667,0.442993,0,0,0,0,0,0,0,-1,699,827,-26.4667,-0.443017
-518,197,-26.3344,0.564453,0.00532696,-0.000566152,0.00331963,0.00681911,-0.00205831,0.422433,0.00536544,0.0446393,706,827,-26.3344,-0.564455
-511,197,-26.2161,0.674194,0.00645834,-0.000112411,0.00361403,0.00805711,-0.00171118,0.416498,0.00602337,0.0447,713,827,-26.2162,-0.674205
-504,197,-26.1401,0.836243,0.00766478,0.000520951,0.00374211,0.00926606,-0.00108033,0.404332,0.00656717,0.0418415,720,827,-26.14,-0.836253
-497,197,-26.3534,0.883423,0.00836792,0.00155193,0.00338828,0.00976563,0.000154216,0.391248,0.00645963,0.0397694,727,827,-26.3534,-0.883433
-490,197,-26.4022,0.733643,0.00823538,0.00299232,0.00207391,0.00895653,0.00227116,0.334648,0.00537632,0.0378963,734,827,-26.4022,-0.733671
-483,197,-26.3726,0.577942,0.00660719,0.00466563,-0.00112999,0.00712614,0.00414668,-0.430521,0.00413263,0.0402266,741,827,-26.3726,-0.577919
-476,197,0,0,0,0,0,0,0,0,0,-1,748,827,0,0
-469,197,0,0,0,0,0,0,0,0,0,-1,755,827,0,0
-462,197,0,0,0,0,0,0,0,0,0,-1,762,827,0,0
-455,197,0,0,0,0,0,0,0,0,0,-1,769,827,0,0
-448,197,0,0,0,0,0,0,0,0,0,-1,776,827,0,0
-441,197,0,0,0,0,0,0,0,0,0,-1,783,827,0,0
-434,197,0,0,0,0,0,0,0,0,0,-1,790,827,0,0
-427,197,0,0,0,0,0,0,0,0,0,-1,797,827,0,0
-420,197,0,0,0,0,0,0,0,0,0,-1,804,827,0,0
-413,197,0,0,0,0,0,0,0,0,0,-1,811,827,0,0
-406,197,0,0,0,0,0,0,0,0,0,-1,818,827,0,0
-399,197,0,0,0,0,0,0,0,0,0,-1,825,827,0,0
-392,197,0,0,0,0,0,0,0,0,0,-1,832,827,0,0
-385,197,0,0,0,0,0,0,0,0,0,-1,839,827,0,0
-378,197,0,0,0,0,0,0,0,0,0,-1,846,827,0,0
-371,197,0,0,0,0,0,0,0,0,0,-1,853,827,0,0
-364,197,0,0,0,0,0,0,0,0,0,-1,860,827,0,0
-357,197,0,0,0,0,0,0,0,0,0,-1,867,827,0,0
-350,197,0,0,0,0,0,0,0,0,0,-1,874,827,0,0
-343,197,0,0,0,0,0,0,0,0,0,-1,881,827,0,0
-336,197,0,0,0,0,0,0,0,0,0,-1,888,827,0,0
-329,197,0,0,0,0,0,0,0,0,0,-1,895,827,0,0
-322,197,0,0,0,0,0,0,0,0,0,-1,902,827,0,0
-315,197,0,0,0,0,0,0,0,0,0,-1,909,827,0,0
-308,197,0,0,0,0,0,0,0,0,0,-1,916,827,0,0
-301,197,0,0,0,0,0,0,0,0,0,-1,923,827,0,0
-294,197,0,0,0,0,0,0,0,0,0,-1,930,827,0,0
-287,197,0,0,0,0,0,0,0,0,0,-1,937,827,0,0
-280,197,0,0,0,0,0,0,0,0,0,-1,944,827,0,0
-273,197,0,0,0,0,0,0,0,0,0,-1,951,827,0,0
-266,197,0,0,0,0,0,0,0,0,0,-1,958,827,0,0
-259,197,0,0,0,0,0,0,0,0,0,-1,965,827,0,0
-252,197,0,0,0,0,0,0,0,0,0,-1,972,827,0,0
-245,197,0,0,0,0,0,0,0,0,0,-1,979,827,0,0
-238,197,0,0,0,0,0,0,0,0,0,-1,986,827,0,0
-231,197,0,0,0,0,0,0,0,0,0,-1,993,827,0,0
-224,197,0,0,0,0,0,0,0,0,0,-1,1000,827,0,0
-217,197,0,0,0,0,0,0,0,0,0,-1,1007,827,0,0
-210,197,0,0,0,0,0,0,0,0,0,-1,1014,827,0,0
-203,197,0,0,0,0,0,0,0,0,0,-1,1021,827,0,0
-196,197,0,0,0,0,0,0,0,0,0,-1,1028,827,0,0
-189,197,0,0,0,0,0,0,0,0,0,-1,1035,827,0,0
-182,197,0,0,0,0,0,0,0,0,0,-1,1042,827,0,0
-175,197,0,0,0,0,0,0,0,0,0,-1,1049,827,0,0
-168,197,0,0,0,0,0,0,0,0,0,-1,1056,827,0,0
-161,197,0,0,0,0,0,0,0,0,0,-1,1063,827,0,0
-154,197,0,0,0,0,0,0,0,0,0,-1,1070,827,0,0
-147,197,0,0,0,0,0,0,0,0,0,-1,1077,827,0,0
-140,197,0,0,0,0,0,0,0,0,0,-1,1084,827,0,0
-133,197,0,0,0,0,0,0,0,0,0,-1,1091,827,0,0
-126,197,0,0,0,0,0,0,0,0,0,-1,1098,827,0,0
-119,197,0,0,0,0,0,0,0,0,0,-1,1105,827,0,0
-112,197,0,0,0,0,0,0,0,0,0,-1,1112,827,0,0
-105,197,0,0,0,0,0,0,0,0,0,-1,1119,827,0,0
-98,197,0,0,0,0,0,0,0,0,0,-1,1126,827,0,0
-91,197,0,0,0,0,0,0,0,0,0,-1,1133,827,0,0
-84,197,0,0,0,0,0,0,0,0,0,-1,1140,827,0,0
-77,197,0,0,0,0,0,0,0,0,0,-1,1147,827,0,0
-70,197,0,0,0,0,0,0,0,0,0,-1,1154,827,0,0
-63,197,0,0,0,0,0,0,0,0,0,-1,1161,827,0,0
-56,197,0,0,0,0,0,0,0,0,0,-1,1168,827,0,0
-49,197,0,0,0,0,0,0,0,0,0,-1,1175,827,0,0
-42,197,0,0,0,0,0,0,0,0,0,-1,1182,827,0,0
-35,197,0,0,0,0,0,0,0,0,0,-1,1189,827,0,0
-28,197,0,0,0,0,0,0,0,0,0,-1,1196,827,0,0
-21,197,0,0,0,0,0,0,0,0,0,-1,1203,827,0,0
-14,197,0,0,0,0,0,0,0,0,0,-1,1210,827,0,0
-7,197,0,0,0,0,0,0,0,0,0,-1,1217,827,0,0
0,197,0,0,0,0,0,0,0,0,0,-1,1224,827,0,0
7,197,0,0,0,0,0,0,0,0,0,-1,1231,827,0,0
14,197,0,0,0,0,0,0,0,0,0,-1,1238,827,0,0
21,197,0,0,0,0,0,0,0,0,0,-1,1245,827,0,0
28,197,0,0,0,0,0,0,0,0,0,-1,1252,827,0,0
35,197,0,0,0,0,0,0,0,0,0,-1,1259,827,0,0
42,197,0,0,0,0,0,0,0,0,0,-1,1266,827,0,0
49,197,0,0,0,0,0,0,0,0,0,-1,1273,827,0,0
56,197,0,0,0,0,0,0,0,0,0,-1,1280,827,0,0
63,197,0,0,0,0,0,0,0,0,0,-1,1287,827,0,0
70,197,0,0,0,0,0,0,0,0,0,-1,1294,827,0,0
77,197,0,0,0,0,0,0,0,0,0,-1,1301,827,0,0
84,197,0,0,0,0,0,0,0,0,0,-1,1308,827,0,0
91,197,0,0,0,0,0,0,0,0,0,-1,1315,827,0,0
98,197,0,0,0,0,0,0,0,0,0,-1,1322,827,0,0
105,197,0,0,0,0,0,0,0,0,0,-1,1329,827,0,0
112,197,0,0,0,0,0,0,0,0,0,-1,1336,827,0,0
119,197,0,0,0,0,0,0,0,0,0,-1,1343,827,0,0
126,197,0,0,0,0,0,0,0,0,0,-1,1350,827,0,0
133,197,0,0,0,0,0,0,0,0,0,-1,1357,827,0,0
140,197,0,0,0,0,0,0,0,0,0,-1,1364,827,0,0
147,197,0,0,0,0,0,0,0,0,0,-1,1371,827,0,0
154,197,0,0,0,0,0,0,0,0,0,-1,1378,827,0,0
161,197,0,0,0,0,0,0,0,0,0,-1,1385,827,0,0
168,197,0,0,0,0,0,0,0,0,0,-1,1392,827,0,0
175,197,0,0,0,0,0,0,0,0,0,-1,1399,827,0,0
182,197,0,0,0,0,0,0,0,0,0,-1,1406,827,0,0
189,197,0,0,0,0,0,0,0,0,0,-1,1413,827,0,0
196,197,0,0,0,0,0,0,0,0,0,-1,1420,827,0,0
203,197,0,0,0,0,0,0,0,0,0,-1,1427,827,0,0
210,197,0,0,0,0,0,0,0,0,0,-1,1434,827,0,0
217,197,0,0,0,0,0,0,0,0,0,-1,1441,827,0,0
224,197,0,0,0,0,0,0,0,0,0,-1,1448,827,0,0
231,197,0,0,0,0,0,0,0,0,0,-1,1455,827,0,0
238,197,0,0,0,0,0,0,0,0,0,-1,1462,827,0,0
245,197,0,0,0,0,0,0,0,0,0,-1,1469,827,0,0
252,197,0,0,0,0,0,0,0,0,0,-1,1476,827,0,0
259,197,0,0,0,0,0,0,0,0,0,-1,1483,827,0,0
266,197,0,0,0,0,0,0,0,0,0,-1,1490,827,0,0
273,197,0,0,0,0,0,0,0,0,0,-1,1497,827,0,0
280,197,0,0,0,0,0,0,0,0,0,-1,1504,827,0,0
287,197,0,0,0,0,0,0,0,0,0,-1,1511,827,0,0
294,197,0,0,0,0,0,0,0,0,0,-1,1518,827,0,0
301,197,0,0,0,0,0,0,0,0,0,-1,1525,827,0,0
308,197,0,0,0,0,0,0,0,0,0,-1,1532,827,0,0
315,197,0,0,0,0,0,0,0,0,0,-1,1539,827,0,0
322,197,0,0,0,0,0,0,0,0,0,-1,1546,827,0,0
329,197,0,0,0,0,0,0,0,0,0,-1,1553,827,0,0
336,197,0,0,0,0,0,0,0,0,0,-1,1560,827,0,0
343,197,0,0,0,0,0,0,0,0,0,-1,1567,827,0,0
350,197,0,0,0,0,0,0,0,0,0,-1,1574,827,0,0
357,197,0,0,0,0,0,0,0,0,0,-1,1581,827,0,0
364,197,0,0,0,0,0,0,0,0,0,-1,1588,827,0,0
371,197,0,0,0,0,0,0,0,0,0,-1,1595,827,0,0
378,197,0,0,0,0,0,0,0,0,0,-1,1602,827,0,0
385,197,0,0,0,0,0,0,0,0,0,-1,1609,827,0,0
392,197,0,0,0,0,0,0,0,0,0,-1,1616,827,0,0
399,197,0,0,0,0,0,0,0,0,0,-1,1623,827,0,0
406,197,0,0,0,0,0,0,0,0,0,-1,1630,827,0,0
413,197,0,0,0,0,0,0,0,0,0,-1,1637,827,0,0
420,197,0,0,0,0,0,0,0,0,0,-1,1644,827,0,0
427,197,0,0,0,0,0,0,0,0,0,-1,1651,827,0,0
434,197,0,0,0,0,0,0,0,0,0,-1,1658,827,0,0
441,197,0,0,0,0,0,0,0,0,0,-1,1665,827,0,0
448,197,0,0,0,0,0,0,0,0,0,-1,1672,827,0,0
455,197,0,0,0,0,0,0,0,0,0,-1,1679,827,0,0
462,197,0,0,0,0,0,0,0,0,0,-1,1686,827,0,0
469,197,0,0,0,0,0,0,0,0,0,-1,1693,827,0,0
476,197,0,0,0,0,0,0,0,0,0,-1,1700,827,0,0
483,197,0,0,0,0,0,0,0,0,0,-1,1707,827,0,0
490,197,0,0,0,0,0,0,0,0,0,-1,1714,827,0,0
497,197,0,0,0,0,0,0,0,0,0,-1,1721,827,0,0
504,197,0,0,0,0,0,0,0,0,0,-1,1728,827,0,0
511,197,0,0,0,0,0,0,0,0,0,-1,1735,827,0,0
518,197,0,0,0,0,0,0,0,0,0,-1,1742,827,0,0
525,197,0,0,0,0,0,0,0,0,0,-1,1749,827,0,0
532,197,0,0,0,0,0,0,0,0,0,-1,1756,827,0,0
539,197,0,0,0,0,0,0,0,0,0,-1,1763,827,0,0
546,197,0,0,0,0,0,0,0,0,0,-1,1770,827,0,0
553,197,0,0,0,0,0,0,0,0,0,-1,1777,827,0,0
560,197,0,0,0,0,0,0,0,0,0,-1,1784,827,0,0
567,197,0,0,0,0,0,0,0,0,0,-1,1791,827,0,0
574,197,0,0,0,0,0,0,0,0,0,-1,1798,827,0,0
581,197,0,0,0,0,0,0,0,0,0,-1,1805,827,0,0
588,197,0,0,0,0,0,0,0,0,0,-1,1812,827,0,0
595,197,0,0,0,0,0,0,0,0,0,-1,1819,827,0,0
602,197,35.7474,2.59625,0.00996803,0.0100203,0.000256002,0.0102515,0.00973683,0.836252,0.0066694,0.0384391,1826,827,35.7475,-2.59623
609,197,35.8033,2.54315,0.00744494,0.00764936,0.000378737,0.00793943,0.00715486,0.917195,0.00505178,0.0394843,1833,827,35.8033,-2.54312
616,197,35.8854,2.51849,0.00490671,0.00482636,-0.000428897,0.00529731,0.00443576,-0.738695,0.00328227,0.0383248,1840,827,35.8854,-2.51848
623,197,35.8,2.55066,0.00231075,0.00217352,-0.00166984,0.00391338,0.000570882,-0.764864,0.00244098,0.0336093,1847,827,35.8,-2.55063
630,197,35.8311,2.56451,0.000226713,0.00012702,-0.00283921,0.00301651,-0.00266278,-0.776621,0.00328106,0.0308602,1854,827,35.831,-2.56452
637,197,35.845,2.57495,-0.00118638,-0.00119099,-0.00361468,0.00242599,-0.00480337,-0.785079,0.00424844,0.0277529,1861,827,35.845,-2.57496
644,197,35.7781,2.56903,-0.0020541,-0.00201627,-0.00399317,0.00195803,-0.0060284,-0.787766,0.00480645,0.0304071,1868,827,35.7781,-2.56901
651,197,35.7555,2.58093,-0.00251036,-0.00256105,-0.00407594,0.00154031,-0.00661172,-0.782289,0.00500096,0.0428027,1875,827,35.7555,-2.58091
658,197,35.767,2.64703,0,0,0,0,0,0,0,-1,1882,827,35.7669,-2.64703
665,197,14.0618,1.80304,0,0,0,0,0,0,0,-1,1889,827,14.0617,-1.80303
672,197,28.1475,0.528809,0,0,0,0,0,0,0,-1,1896,827,28.1475,-0.528812
679,197,27.9803,1.25677,-0.0028417,-0.00313157,-0.00373648,0.000752652,-0.00672592,-0.766013,0.00475473,0.0415694,1903,827,27.9804,-1.25678
686,197,27.7965,1.72144,-0.00251124,-0.00289334,-0.00324633,0.000549656,-0.00595424,-0.756006,0.00416482,0.0244954,1910,827,27.7965,-1.72142
693,197,27.7634,2.13062,-0.00185854,-0.00218188,-0.00266809,0.000652778,-0.0046932,-0.755138,0.00336755,0.0156044,1917,827,27.7634,-2.13059
700,197,27.748,2.53662,-0.000648242,-0.00198158,-0.00202362,0.000815701,-0.00344552,-0.626276,0.00261172,0.020802,1924,827,27.748,-2.53662
707,197,27.7965,2.93182,0.00110181,-0.00149824,-0.00120442,0.00157399,-0.00197041,-0.373622,0.00205062,0.00863398,1931,827,27.7965,-2.93181
714,197,27.7551,3.32391,0.00409863,-0.00202988,-8.39935e-05,0.00409978,-0.00203103,-0.0137019,0.00360617,0.0109697,1938,827,27.7551,-3.32393
721,197,27.7358,3.68909,0.00821477,-0.00277875,0.0013768,0.00838457,-0.00294856,0.122713,0.00678945,0.0118885,1945,827,27.7358,-3.68912
728,197,27.7268,4.06409,0.0129532,-0.0042628,0.00300434,0.0134624,-0.00477202,0.1679,0.0109189,0.0104073,1952,827,27.7268,-4.06407
735,197,27.7267,4.45856,0.0185383,-0.00631119,0.00493969,0.0194842,-0.00725712,0.189204,0.015968,0.0116487,1959,827,27.7266,-4.45858
742,197,27.7616,4.84161,0.0254141,-0.00910198,0.00724494,0.0268732,-0.010561,0.198729,0.0222861,0.0208609,1966,827,27.7616,-4.84162
749,197,27.797,5.18353,0.0336949,-0.012672,0.0103066,0.0358827,-0.0148598,0.209165,0.0301226,0.0440985,1973,827,27.797,-5.18355
756,197,28.0134,5.4834,0.0433359,-0.0171944,0.0139119,0.0463802,-0.0202387,0.215432,0.0394372,0.0478869,1980,827,28.0135,-5.48339
763,197,28.3733,5.81128,0.0539113,-0.0227109,0.0178068,0.0578474,-0.0266469,0.217544,0.0498791,0.0468182,1987,827,28.3733,-5.81125
770,197,28.907,6.26532,0.0646146,-0.0291065,0.0216791,0.0693863,-0.0338782,0.216654,0.0607833,0.0488961,1994,827,28.907,-6.26529
777,197,0,0,0,0,0,0,0,0,0,-1,2001,827,0,0
784,197,0,0,0,0,0,0,0,0,0,-1,2008,827,0,0
791,197,0,0,0,0,0,0,0,0,0,-1,2015,827,0,0
798,197,0,0,0,0,0,0,0,0,0,-1,2022,827,0,0
805,197,0,0,0,0,0,0,0,0,0,-1,2029,827,0,0
812,197,0,0,0,0,0,0,0,0,0,-1,2036,827,0,0
-700,190,0,0,0,0,0,0,0,0,0,-1,524,834,0,0
-693,190,0,0,0,0,0,0,0,0,0,-1,531,834,0,0
-686,190,0,0,0,0,0,0,0,0,0,-1,538,834,0,0
-679,190,0,0,0,0,0,0,0,0,0,-1,545,834,0,0
-672,190,0,0,0,0,0,0,0,0,0,-1,552,834,0,0
-665,190,0,0,0,0,0,0,0,0,0,-1,559,834,0,0
-658,190,-26.4458,3.51239,0,0,0,0,0,0,0,-1,566,834,-26.4458,-3.51236
-651,190,-26.6909,3.63422,0,0,0,0,0,0,0,-1,573,834,-26.6909,-3.63423
-644,190,-20.2998,5.552,0,0,0,0,0,0,0,-1,580,834,-20.2998,-5.55198
-637,190,-20.5225,3.9621,0,0,0,0,0,0,0,-1,587,834,-20.5225,-3.96209
-630,190,-19.7928,3.29468,0,0,0,0,0,0,0,-1,594,834,-19.7928,-3.29466
-623,190,-19.8394,2.18384,0,0,0,0,0,0,0,-1,601,834,-19.8393,-2.18385
-616,190,-19.4836,2.42566,0.00191109,0.000217873,-0.0401819,0.0412553,-0.0391264,-0.774865,0.0464138,0.0471174,608,834,-19.4837,-2.42568
-609,190,-19.5104,2.12793,9.79747e-05,0.000654102,-0.0276424,0.0280198,-0.0272677,-0.790428,0.0319213,0.0252884,615,834,-19.5104,-2.12794
-602,190,-19.5545,1.81232,-0.000865459,0.000838779,-0.0180557,0.0180624,-0.0180891,-0.808978,0.0208721,0.0157582,622,834,-19.5545,-1.8123
-595,190,-19.5726,1.45245,-0.00155064,0.000437867,-0.0111012,0.0105892,-0.011702,-0.830061,0.0128752,0.0187245,629,834,-19.5726,-1.45243
-588,190,-19.5776,1.09021,-0.00165746,0.000576152,-0.00486948,0.00445525,-0.00553656,-0.898123,0.00578003,0.0150395,636,834,-19.5775,-1.09023
-581,190,-19.5662,0.73645,-0.00143646,4.61524e-05,-0.00111406,0.000643003,-0.00203331,-1.07896,0.00161317,0.0109369,643,834,-19.5662,-0.736439
-574,190,-19.5621,0.357849,-0.00138051,-0.000146861,0.000228507,-0.000105895,-0.00142148,1.39341,0.000914399,0.010649,650,834,-19.5621,-0.357869
-567,190,-19.5426,-0.0604858,-0.00106875,-0.000341174,0.000663707,5.19053e-05,-0.00146183,1.0361,0.000992307,0.0158348,657,834,-19.5426,0.0605034
-560,190,-19.6165,-0.385437,-0.000199088,-0.00070384,0.000944121,0.000525807,-0.00142873,0.654795,0.0011679,0.0332908,664,834,-19.6165,0.385445
-553,190,-19.9191,-0.774414,0,0,0,0,0,0,0,-1,671,834,-19.9191,0.774397
-546,190,-19.69,-1.06927,0,0,0,0,0,0,0,-1,678,834,-19.69,1.0693
-539,190,-16.4624,-0.542542,0,0,0,0,0,0,0,-1,685,834,-16.4624,0.542527
-532,190,-21.6292,2.06122,0,0,0,0,0,0,0,-1,692,834,-21.6292,-2.06123
-525,190,-26.5988,0.257263,0,0,0,0,0,0,0,-1,699,834,-26.5988,-0.25725
-518,190,-26.3103,0.578918,0.00494377,-0.000561892,0.00224071,0.00574043,-0.00135855,0.341599,0.00435108,0.0468977,706,834,-26.3103,-0.578949
-511,190,-25.9416,0.950684,0.00596834,-0.000251435,0.00238895,0.00677999,-0.00106309,0.327517,0.00491285,0.04355,713,834,-25.9416,-0.950663
-504,190,-25.6414,1.48602,0.00697072,0.000148275,0.0023501,0.00770189,-0.000582896,0.30163,0.00533951,0.0447895,720,834,-25.6414,-1.48604
-497,190,-25.2855,2.08289,0,0,0,0,0,0,0,-1,727,834,-25.2855,-2.08287
-490,190,-25.8619,0.429626,0,0,0,0,0,0,0,-1,734,834,-25.8619,-0.429598
-483,190,0,0,0,0,0,0,0,0,0,-1,741,834,0,0
-476,190,0,0,0,0,0,0,0,0,0,-1,748,834,0,0
-469,190,0,0,0,0,0,0,0,0,0,-1,755,834,0,0
-462,190,0,0,0,0,0,0,0,0,0,-1,762,834,0,0
-455,190,0,0,0,0,0,0,0,0,0,-1,769,834,0,0
-448,190,0,0,0,0,0,0,0,0,0,-1,776,834,0,0
-441,190,0,0,0,0,0,0,0,0,0,-1,783,834,0,0
-434,190,0,0,0,0,0,0,0,0,0,-1,790,834,0,0
-427,190,0,0,0,0,0,0,0,0,0,-1,797,834,0,0
-420,190,0,0,0,0,0,0,0,0,0,-1,804,834,0,0
-413,190,0,0,0,0,0,0,0,0,0,-1,811,834,0,0
-406,190,0,0,0,0,0,0,0,0,0,-1,818,834,0,0
-399,190,0,0,0,0,0,0,0,0,0,-1,825,834,0,0
-392,190,0,0,0,0,0,0,0,0,0,-1,832,834,0,0
-385,190,0,0,0,0,0,0,0,0,0,-1,839,834,0,0
-378,190,0,0,0,0,0,0,0,0,0,-1,846,834,0,0
-371,190,0,0,0,0,0,0,0,0,0,-1,853,834,0,0
-364,190,0,0,0,0,0,0,0,0,0,-1,860,834,0,0
-357,190,0,0,0,0,0,0,0,0,0,-1,867,834,0,0
-350,190,0,0,0,0,0,0,0,0,0,-1,874,834,0,0
-343,190,0,0,0,0,0,0,0,0,0,-1,881,834,0,0
-336,190,0,0,0,0,0,0,0,0,0,-1,888,834,0,0
-329,190,0,0,0,0,0,0,0,0,0,-1,895,834,0,0
-322,190,0,0,0,0,0,0,0,0,0,-1,902,834,0,0
-315,190,0,0,0,0,0,0,0,0,0,-1,909,834,0,0
-308,190,0,0,0,0,0,0,0,0,0,-1,916,834,0,0
-301,190,0,0,0,0,0,0,0,0,0,-1,923,834,0,0
-294,190,0,0,0,0,0,0,0,0,0,-1,930,834,0,0
-287,190,0,0,0,0,0,0,0,0,0,-1,937,834,0,0
-280,190,0,0,0,0,0,0,0,0,0,-1,944,834,0,0
-273,190,0,0,0,0,0,0,0,0,0,-1,951,834,0,0
-266,190,0,0,0,0,0,0,0,0,0,-1,958,834,0,0
-259,190,0,0,0,0,0,0,0,0,0,-1,965,834,0,0
-252,190,0,0,0,0,0,0,0,0,0,-1,972,834,0,0
-245,190,0,0,0,0,0,0,0,0,0,-1,979,834,0,0
-238,190,0,0,0,0,0,0,0,0,0,-1,986,834,0,0
-231,190,0,0,0,0,0,0,0,0,0,-1,993,834,0,0
-224,190,0,0,0,0,0,0,0,0,0,-1,1000,834,0,0
-217,190,0,0,0,0,0,0,0,0,0,-1,1007,834,0,0
-210,190,0,0,0,0,0,0,0,0,0,-1,1014,834,0,0
-203,190,0,0,0,0,0,0,0,0,0,-1,1021,834,0,0
-196,190,0,0,0,0,0,0,0,0,0,-1,1028,834,0,0
-189,190,0,0,0,0,0,0,0,0,0,-1,1035,834,0,0
-182,190,0,0,0,0,0,0,0,0,0,-1,1042,834,0,0
-175,190,0,0,0,0,0,0,0,0,0,-1,1049,834,0,0
-168,190,0,0,0,0,0,0,0,0,0,-1,1056,834,0,0
-161,190,0,0,0,0,0,0,0,0,0,-1,1063,834,0,0
-154,190,0,0,0,0,0,0,0,0,0,-1,1070,834,0,0
-147,190,0,0,0,0,0,0,0,0,0,-1,1077,834,0,0
-140,190,0,0,0,0,0,0,0,0,0,-1,1084,834,0,0
-133,190,0,0,0,0,0,0,0,0,0,-1,1091,834,0,0
-126,190,0,0,0,0,0,0,0,0,0,-1,1098,834,0,0
-119,190,0,0,0,0,0,0,0,0,0,-1,1105,834,0,0
-112,190,0,0,0,0,0,0,0,0,0,-1,1112,834,0,0
-105,190,0,0,0,0,0,0,0,0,0,-1,1119,834,0,0
-98,190,0,0,0,0,0,0,0,0,0,-1,1126,834,0,0
-91,190,0,0,0,0,0,0,0,0,0,-1,1133,834,0,0
-84,190,0,0,0,0,0,0,0,0,0,-1,1140,834,0,0
-77,190,0,0,0,0,0,0,0,0,0,-1,1147,834,0,0
-70,190,0,0,0,0,0,0,0,0,0,-1,1154,834,0,0
-63,190,0,0,0,0,0,0,0,0,0,-1,1161,834,0,0
-56,190,0,0,0,0,0,0,0,0,0,-1,1168,834,0,0
-49,190,0,0,0,0,0,0,0,0,0,-1,1175,834,0,0
-42,190,0,0,0,0,0,0,0,0,0,-1,1182,834,0,0
-35,190,0,0,0,0,0,0,0,0,0,-1,1189,834,0,0
-28,190,0,0,0,0,0,0,0,0,0,-1,1196,834,0,0
-21,190,0,0,0,0,0,0,0,0,0,-1,1203,834,0,0
-14,190,0,0,0,0,0,0,0,0,0,-1,1210,834,0,0
-7,190,0,0,0,0,0,0,0,0,0,-1,1217,834,0,0
0,190,0,0,0,0,0,0,0,0,0,-1,1224,834,0,0
7,190,0,0,0,0,0,0,0,0,0,-1,1231,834,0,0
14,190,0,0,0,0,0,0,0,0,0,-1,1238,834,0,0
21,190,0,0,0,0,0,0,0,0,0,-1,1245,834,0,0
28,190,0,0,0,0,0,0,0,0,0,-1,1252,834,0,0
35,190,0,0,0,0,0,0,0,0,0,-1,1259,834,0,0
42,190,0,0,0,0,0,0,0,0,0,-1,1266,834,0,0
49,190,0,0,0,0,0,0,0,0,0,-1,1273,834,0,0
56,190,0,0,0,0,0,0,0,0,0,-1,1280,834,0,0
63,190,0,0,0,0,0,0,0,0,0,-1,1287,834,0,0
70,190,0,0,0,0,0,0,0,0,0,-1,1294,834,0,0
77,190,0,0,0,0,0,0,0,0,0,-1,1301,834,0,0
84,190,0,0,0,0,0,0,0,0,0,-1,1308,834,0,0
91,190,0,0,0,0,0,0,0,0,0,-1,1315,834,0,0
98,190,0,0,0,0,0,0,0,0,0,-1,1322,834,0,0
105,190,0,0,0,0,0,0,0,0,0,-1,1329,834,0,0
112,190,0,0,0,0,0,0,0,0,0,-1,1336,834,0,0
119,190,0,0,0,0,0,0,0,0,0,-1,1343,834,0,0
126,190,0,0,0,0,0,0,0,0,0,-1,1350,834,0,0
133,190,0,0,0,0,0,0,0,0,0,-1,1357,834,0,0
140,190,0,0,0,0,0,0,0,0,0,-1,1364,834,0,0
147,190,0,0,0,0,0,0,0,0,0,-1,1371,834,0,0
154,190,0,0,0,0,0,0,0,0,0,-1,1378,834,0,0
161,190,0,0,0,0,0,0,0,0,0,-1,1385,834,0,0
168,190,0,0,0,0,0,0,0,0,0,-1,1392,834,0,0
175,190,0,0,0,0,0,0,0,0,0,-1,1399,834,0,0
182,190,0,0,0,0,0,0,0,0,0,-1,1406,834,0,0
189,190,0,0,0,0,0,0,0,0,0,-1,1413,834,0,0
196,190,0,0,0,0,0,0,0,0,0,-1,1420,834,0,0
203,190,0,0,0,0,0,0,0,0,0,-1,1427,834,0,0
210,190,0,0,0,0,0,0,0,0,0,-1,1434,834,0,0
217,190,0,0,0,0,0,0,0,0,0,-1,1441,834,0,0
224,190,0,0,0,0,0,0,0,0,0,-1,1448,834,0,0
231,190,0,0,0,0,0,0,0,0,0,-1,1455,834,0,0
238,190,0,0,0,0,0,0,0,0,0,-1,1462,834,0,0
245,190,0,0,0,0,0,0,0,0,0,-1,1469,834,0,0
252,190,0,0,0,0,0,0,0,0,0,-1,1476,834,0,0
259,190,0,0,0,0,0,0,0,0,0,-1,1483,834,0,0
266,190,0,0,0,0,0,0,0,0,0,-1,1490,834,0,0
273,190,0,0,0,0,0,0,0,0,0,-1,1497,834,0,0
280,190,0,0,0,0,0,0,0,0,0,-1,1504,834,0,0
287,190,0,0,0,0,0,0,0,0,0,-1,1511,834,0,0
294,190,0,0,0,0,0,0,0,0,0,-1,1518,834,0,0
301,190,0,0,0,0,0,0,0,0,0,-1,1525,834,0,0
308,190,0,0,0,0,0,0,0,0,0,-1,1532,834,0,0
315,190,0,0,0,0,0,0,0,0,0,-1,1539,834,0,0
322,190,0,0,0,0,0,0,0,0,0,-1,1546,834,0,0
329,190,0,0,0,0,0,0,0,0,0,-1,1553,834,0,0
336,190,0,0,0,0,0,0,0,0,0,-1,1560,834,0,0
343,190,0,0,0,0,0,0,0,0,0,-1,1567,834,0,0
350,190,0,0,0,0,0,0,0,0,0,-1,1574,834,0,0
357,190,0,0,0,0,0,0,0,0,0,-1,1581,834,0,0
364,190,0,0,0,0,0,0,0,0,0,-1,1588,834,0,0
371,190,0,0,0,0,0,0,0,0,0,-1,1595,834,0,0
378,190,0,0,0,0,0,0,0,0,0,-1,1602,834,0,0
385,190,0,0,0,0,0,0,0,0,0,-1,1609,834,0,0
392,190,0,0,0,0,0,0,0,0,0,-1,1616,834,0,0
399,190,0,0,0,0,0,0,0,0,0,-1,1623,834,0,0
406,190,0,0,0,0,0,0,0,0,0,-1,1630,834,0,0
413,190,0,0,0,0,0,0,0,0,0,-1,1637,834,0,0
420,190,0,0,0,0,0,0,0,0,0,-1,1644,834,0,0
427,190,0,0,0,0,0,0,0,0,0,-1,1651,834,0,0
434,190,0,0,0,0,0,0,0,0,0,-1,1658,834,0,0
441,190,0,0,0,0,0,0,0,0,0,-1,1665,834,0,0
448,190,0,0,0,0,0,0,0,0,0,-1,1672,834,0,0
455,190,0,0,0,0,0,0,0,0,0,-1,1679,834,0,0
462,190,0,0,0,0,0,0,0,0,0,-1,1686,834,0,0
469,190,0,0,0,0,0,0,0,0,0,-1,1693,834,0,0
476,190,0,0,0,0,0,0,0,0,0,-1,1700,834,0,0
483,190,0,0,0,0,0,0,0,0,0,-1,1707,834,0,0
490,190,0,0,0,0,0,0,0,0,0,-1,1714,834,0,0
497,190,0,0,0,0,0,0,0,0,0,-1,1721,834,0,0
504,190,0,0,0,0,0,0,0,0,0,-1,1728,834,0,0
511,190,0,0,0,0,0,0,0,0,0,-1,1735,834,0,0
518,190,0,0,0,0,0,0,0,0,0,-1,1742,834,0,0
525,190,0,0,0,0,0,0,0,0,0,-1,1749,834,0,0
532,190,0,0,0,0,0,0,0,0,0,-1,1756,834,0,0
539,190,0,0,0,0,0,0,0,0,0,-1,1763,834,0,0
546,190,0,0,0,0,0,0,0,0,0,-1,1770,834,0,0
553,190,0,0,0,0,0,0,0,0,0,-1,1777,834,0,0
560,190,0,0,0,0,0,0,0,0,0,-1,1784,834,0,0
567,190,0,0,0,0,0,0,0,0,0,-1,1791,834,0,0
574,190,0,0,0,0,0,0,0,0,0,-1,1798,834,0,0
581,190,0,0,0,0,0,0,0,0,0,-1,1805,834,0,0
588,190,0,0,0,0,0,0,0,0,0,-1,1812,834,0,0
595,190,0,0,0,0,0,0,0,0,0,-1,1819,834,0,0
602,190,35.702,2.40668,0.0109812,0.0130363,0.000958494,0.0134139,0.0106036,1.19547,0.0081686,0.0405482,1826,834,35.7021,-2.40671
609,190,35.7955,2.60999,0.00849219,0.0102557,0.000874168,0.0106156,0.00813231,1.18026,0.00641165,0.0392182,1833,834,35.7955,-2.60996
616,190,35.9137,2.50287,0.0061196,0.00709686,2.94922e-05,0.00709775,0.00611871,1.54065,0.0044416,0.0378457,1840,834,35.9137,-2.50284
623,190,35.8458,2.99597,0,0,0,0,0,0,0,-1,1847,834,35.8458,-2.99595
630,190,35.874,2.73975,0.00129492,0.00150494,-0.00243831,0.0038405,-0.00104064,-0.806918,0.00296865,0.041861,1854,834,35.874,-2.73975
637,190,35.9161,2.61249,-0.000299159,-0.000173836,-0.00325797,0.00302207,-0.00349507,-0.795014,0.00376597,0.0344901,1861,834,35.9161,-2.6125
644,190,35.8076,2.58746,-0.00127362,-0.00121089,-0.00363942,0.0023973,-0.00488181,-0.789707,0.00428342,0.0249308,1868,834,35.8076,-2.58744
651,190,35.8512,2.63885,-0.00176417,-0.00186566,-0.00369719,0.00188263,-0.00551246,-0.778536,0.00443769,0.0341963,1875,834,35.8512,-2.63888
658,190,35.9109,2.72467,0,0,0,0,0,0,0,-1,1882,834,35.9109,-2.72464
665,190,25.9916,3.05157,0,0,0,0,0,0,0,-1,1889,834,25.9916,-3.05156
672,190,27.2662,1.70862,0,0,0,0,0,0,0,-1,1896,834,27.2662,-1.70861
679,190,28.5306,1.73804,0,0,0,0,0,0,0,-1,1903,834,28.5306,-1.73801
686,190,28.1521,1.83051,-0.0023024,-0.00246265,-0.00284457,0.000463171,-0.00522822,-0.771318,0.00364968,0.0210533,1910,834,28.1521,-1.83052
693,190,28.1797,2.15509,-0.00184056,-0.00189555,-0.00237977,0.000511878,-0.00424799,-0.779622,0.00301713,0.01444,1917,834,28.1796,-2.15506
700,190,28.1688,2.54034,-0.000950106,-0.00170926,-0.00187303,0.000581419,-0.00324078,-0.685425,0.00237814,0.0119044,1924,834,28.1689,-2.54034
707,190,28.181,2.91254,0.000348281,-0.0011762,-0.00121219,0.00101796,-0.00184589,-0.504729,0.00167632,0.0126766,1931,834,28.181,-2.91252
714,190,28.1625,3.28455,0.00270565,-0.00149049,-0.00039186,0.00274193,-0.00152677,-0.0923221,0.0024976,0.0116404,1938,834,28.1625,-3.28458
721,190,28.1478,3.67834,0.00616076,-0.00200974,0.000731061,0.00622566,-0.00207464,0.0885385,0.00498794,0.0108168,1945,834,28.1478,-3.67836
728,190,28.1281,4.05505,0.0102551,-0.00319459,0.00195996,0.0105349,-0.00347439,0.141797,0.0084237,0.0123222,1952,834,28.128,-4.05503
735,190,28.124,4.43317,0.0151218,-0.00486122,0.00323992,0.015634,-0.0053734,0.156784,0.0126016,0.0119911,1959,834,28.124,-4.43314
742,190,28.1091,4.83734,0.0211893,-0.00728336,0.004441,0.0218659,-0.00795997,0.151191,0.017833,0.0158868,1966,834,28.1091,-4.83737
749,190,28.155,5.20227,0.0283917,-0.0103334,0.00613534,0.0293405,-0.0112822,0.153429,0.0242136,0.0390827,1973,834,28.155,-5.20228
756,190,28.1628,5.46552,0.0369373,-0.0143081,0.00787876,0.0381213,-0.0154921,0.149158,0.0318595,0.0482273,1980,834,28.1629,-5.46549
763,190,28.126,5.70282,0,0,0,0,0,0,0,-1,1987,834,28.126,-5.70284
770,190,28.8694,5.91718,0,0,0,0,0,0,0,-1,1994,834,28.8694,-5.91715
777,190,29.37,5.19446,0,0,0,0,0,0,0,-1,2001,834,29.3699,-5.19447
784,190,0,0,0,0,0,0,0,0,0,-1,2008,834,0,0
791,190,0,0,0,0,0,0,0,0,0,-1,2015,834,0,0
798,190,0,0,0,0,0,0,0,0,0,-1,2022,834,0,0
805,190,0,0,0,0,0,0,0,0,0,-1,2029,834,0,0
812,190,0,0,0,0,0,0,0,0,0,-1,2036,834,0,0
-700,183,0,0,0,0,0,0,0,0,0,-1,524,841,0,0
-693,183,0,0,0,0,0,0,0,0,0,-1,531,841,0,0
-686,183,0,0,0,0,0,0,0,0,0,-1,538,841,0,0
-679,183,0,0,0,0,0,0,0,0,0,-1,545,841,0,0
-672,183,0,0,0,0,0,0,0,0,0,-1,552,841,0,0
-665,183,0,0,0,0,0,0,0,0,0,-1,559,841,0,0
-658,183,-26.1477,2.59845,0,0,0,0,0,0,0,-1,566,841,-26.1477,-2.59846
-651,183,-19.939,7.33667,0,0,0,0,0,0,0,-1,573,841,-19.939,-7.33667
-644,183,-20.0027,5.89099,0.030748,-0.00734638,-0.117564,0.130798,-0.107396,-0.705088,0.137742,0.0492753,580,841,-20.0027,-5.89097
-637,183,-20.0612,4.22852,0.0187884,-0.00537803,-0.0925249,0.100016,-0.0866054,-0.720469,0.107838,0.0458611,587,841,-20.0612,-4.22851
-630,183,-20.1786,2.85455,0.0105105,-0.00356756,-0.0703482,0.0741709,-0.067228,-0.735534,0.0816695,0.0429938,594,841,-20.1786,-2.85457
-623,183,-20.0858,2.3844,0.00491049,-0.0020331,-0.0515622,0.0531176,-0.0502402,-0.751783,0.0596814,0.0436125,601,841,-20.0858,-2.38438
-616,183,-19.9153,2.45093,0.00156023,-0.000822799,-0.0363524,0.0367407,-0.0360032,-0.769016,0.0419994,0.0392527,608,841,-19.9153,-2.45091
-609,183,-19.9078,2.13965,-0.000317819,-9.81035e-05,-0.0245799,0.0243722,-0.0247881,-0.787633,0.0283831,0.0166169,615,841,-19.9079,-2.13965
-602,183,-19.92,1.80939,-0.00142804,0.000313845,-0.015589,0.0150562,-0.0161704,-0.813304,0.0180325,0.0109167,622,841,-19.92,-1.80939
-595,183,-19.9348,1.45032,-0.00198087,0.000169937,-0.0090421,0.00820036,-0.0100113,-0.844586,0.0105318,0.0113263,629,841,-19.9348,-1.45034
-588,183,-19.9294,1.08826,-0.00197406,0.000370227,-0.00339637,0.00279103,-0.00439487,-0.951557,0.00418308,0.0115724,636,841,-19.9294,-1.08824
-581,183,-19.9501,0.73761,-0.00164241,-3.32331e-05,-0.000229778,-1.06561e-06,-0.00167458,-1.43171,0.00111603,0.0120857,643,841,-19.9501,-0.737633
-574,183,-19.9363,0.401001,-0.0014958,-7.77211e-05,0.000627183,0.000159863,-0.00173339,1.20869,0.0012124,0.0123258,650,841,-19.9362,-0.40101
-567,183,-19.8557,0.015564,-0.00107016,-0.000181506,0.00073781,0.000235439,-0.00148711,1.05642,0.00107848,0.0316205,657,841,-19.8557,-0.0155372
-560,183,-20.0545,-0.272949,-9.244e-05,-0.000469684,0.000897515,0.000636059,-0.00119818,0.681825,0.00107545,0.0374035,664,841,-20.0545,0.272974
-553,183,-20.3033,-0.797058,0,0,0,0,0,0,0,-1,671,841,-20.3034,0.797044
-546,183,-18.5858,-0.842224,0,0,0,0,0,0,0,-1,678,841,-18.5858,0.842224
-539,183,-16.8032,-0.417297,0,0,0,0,0,0,0,-1,685,841,-16.8032,0.41732
-532,183,-25.9383,1.07745,0,0,0,0,0,0,0,-1,692,841,-25.9383,-1.07747
-525,183,-26.0265,0.954773,0.0043532,-0.000304788,0.00166891,0.00488943,-0.000841013,0.310884,0.0035731,0.0477889,699,841,-26.0265,-0.954787
-518,183,-26.2443,0.584473,0.00532719,-0.000138637,0.00183642,0.00588688,-0.000698327,0.29583,0.00417687,0.0448676,706,841,-26.2443,-0.584489
-511,183,-26.1,0.681946,0.00647067,0.000138163,0.002073,0.00708892,-0.000480089,0.289842,0.00489383,0.0383962,713,841,-26.1,-0.681942
-504,183,-25.7478,1.25708,0.00749578,0.000397928,0.00216544,0.00810426,-0.000210551,0.273931,0.00547438,0.0410347,720,841,-25.7478,-1.2571
-497,183,-25.7151,1.61481,0.0078654,0.000760182,0.00193787,0.00835956,0.000266016,0.249683,0.00548652,0.0453895,727,841,-25.7152,-1.61482
-490,183,-26.0046,0.701782,0.00739372,0.0011649,0.000972627,0.00754206,0.00101655,0.151351,0.00472578,0.0400305,734,841,-26.0047,-0.701806
-483,183,0,0,0,0,0,0,0,0,0,-1,741,841,0,0
-476,183,0,0,0,0,0,0,0,0,0,-1,748,841,0,0
-469,183,0,0,0,0,0,0,0,0,0,-1,755,841,0,0
-462,183,0,0,0,0,0,0,0,0,0,-1,762,841,0,0
-455,183,0,0,0,0,0,0,0,0,0,-1,769,841,0,0
-448,183,0,0,0,0,0,0,0,0,0,-1,776,841,0,0
-441,183,0,0,0,0,0,0,0,0,0,-1,783,841,0,0
-434,183,0,0,0,0,0,0,0,0,0,-1,790,841,0,0
-427,183,0,0,0,0,0,0,0,0,0,-1,797,841,0,0
-420,183,0,0,0,0,0,0,0,0,0,-1,804,841,0,0
-413,183,0,0,0,0,0,0,0,0,0,-1,811,841,0,0
-406,183,0,0,0,0,0,0,0,0,0,-1,818,841,0,0
-399,183,0,0,0,0,0,0,0,0,0,-1,825,841,0,0
-392,183,0,0,0,0,0,0,0,0,0,-1,832,841,0,0
-385,183,0,0,0,0,0,0,0,0,0,-1,839,841,0,0
-378,183,0,0,0,0,0,0,0,0,0,-1,846,841,0,0
-371,183,0,0,0,0,0,0,0,0,0,-1,853,841,0,0
-364,183,0,0,0,0,0,0,0,0,0,-1,860,841,0,0
-357,183,0,0,0,0,0,0,0,0,0,-1,867,841,0,0
-350,183,0,0,0,0,0,0,0,0,0,-1,874,841,0,0
-343,183,0,0,0,0,0,0,0,0,0,-1,881,841,0,0
-336,183,0,0,0,0,0,0,0,0,0,-1,888,841,0,0
-329,183,0,0,0,0,0,0,0,0,0,-1,895,841,0,0
-322,183,0,0,0,0,0,0,0,0,0,-1,902,841,0,0
-315,183,0,0,0,0,0,0,0,0,0,-1,909,841,0,0
-308,183,0,0,0,0,0,0,0,0,0,-1,916,841,0,0
-301,183,0,0,0,0,0,0,0,0,0,-1,923,841,0,0
-294,183,0,0,0,0,0,0,0,0,0,-1,930,841,0,0
-287,183,0,0,0,0,0,0,0,0,0,-1,937,841,0,0
-280,183,0,0,0,0,0,0,0,0,0,-1,944,841,0,0
-273,183,0,0,0,0,0,0,0,0,0,-1,951,841,0,0
-266,183,0,0,0,0,0,0,0,0,0,-1,958,841,0,0
-259,183,0,0,0,0,0,0,0,0,0,-1,965,841,0,0
-252,183,0,0,0,0,0,0,0,0,0,-1,972,841,0,0
-245,183,0,0,0,0,0,0,0,0,0,-1,979,841,0,0
-238,183,0,0,0,0,0,0,0,0,0,-1,986,841,0,0
-231,183,0,0,0,0,0,0,0,0,0,-1,993,841,0,0
-224,183,0,0,0,0,0,0,0,0,0,-1,1000,841,0,0
-217,183,0,0,0,0,0,0,0,0,0,-1,1007,841,0,0
-210,183,0,0,0,0,0,0,0,0,0,-1,1014,841,0,0
-203,183,0,0,0,0,0,0,0,0,0,-1,1021,841,0,0
-196,183,0,0,0,0,0,0,0,0,0,-1,1028,841,0,0
-189,183,0,0,0,0,0,0,0,0,0,-1,1035,841,0,0
-182,183,0,0,0,0,0,0,0,0,0,-1,1042,841,0,0
-175,183,0,0,0,0,0,0,0,0,0,-1,1049,841,0,0
-168,183,0,0,0,0,0,0,0,0,0,-1,1056,841,0,0
-161,183,0,0,0,0,0,0,0,0,0,-1,1063,841,0,0
-154,183,0,0,0,0,0,0,0,0,0,-1,1070,841,0,0
-147,183,0,0,0,0,0,0,0,0,0,-1,1077,841,0,0
-140,183,0,0,0,0,0,0,0,0,0,-1,1084,841,0,0
-133,183,0,0,0,0,0,0,0,0,0,-1,1091,841,0,0
-126,183,0,0,0,0,0,0,0,0,0,-1,1098,841,0,0
-119,183,0,0,0,0,0,0,0,0,0,-1,1105,841,0,0
-112,183,0,0,0,0,0,0,0,0,0,-1,1112,841,0,0
-105,183,0,0,0,0,0,0,0,0,0,-1,1119,841,0,0
-98,183,0,0,0,0,0,0,0,0,0,-1,1126,841,0,0
-91,183,0,0,0,0,0,0,0,0,0,-1,1133,841,0,0
-84,183,0,0,0,0,0,0,0,0,0,-1,1140,841,0,0
-77,183,0,0,0,0,0,0,0,0,0,-1,1147,841,0,0
-70,183,0,0,0,0,0,0,0,0,0,-1,1154,841,0,0
-63,183,0,0,0,0,0,0,0,0,0,-1,1161,841,0,0
-56,183,0,0,0,0,0,0,0,0,0,-1,1168,841,0,0
-49,183,0,0,0,0,0,0,0,0,0,-1,1175,841,0,0
-42,183,0,0,0,0,0,0,0,0,0,-1,1182,841,0,0
-35,183,0,0,0,0,0,0,0,0,0,-1,1189,841,0,0
-28,183,0,0,0,0,0,0,0,0,0,-1,1196,841,0,0
-21,183,0,0,0,0,0,0,0,0,0,-1,1203,841,0,0
-14,183,0,0,0,0,0,0,0,0,0,-1,1210,841,0,0
-7,183,0,0,0,0,0,0,0,0,0,-1,1217,841,0,0
0,183,0,0,0,0,0,0,0,0,0,-1,1224,841,0,0
7,183,0,0,0,0,0,0,0,0,0,-1,1231,841,0,0
14,183,0,0,0,0,0,0,0,0,0,-1,1238,841,0,0
21,183,0,0,0,0,0,0,0,0,0,-1,1245,841,0,0
28,183,0,0,0,0,0,0,0,0,0,-1,1252,841,0,0
35,183,0,0,0,0,0,0,0,0,0,-1,1259,841,0,0
42,183,0,0,0,0,0,0,0,0,0,-1,1266,841,0,0
49,183,0,0,0,0,0,0,0,0,0,-1,1273,841,0,0
56,183,0,0,0,0,0,0,0,0,0,-1,1280,841,0,0
63,183,0,0,0,0,0,0,0,0,0,-1,1287,841,0,0
70,183,0,0,0,0,0,0,0,0,0,-1,1294,841,0,0
77,183,0,0,0,0,0,0,0,0,0,-1,1301,841,0,0
84,183,0,0,0,0,0,0,0,0,0,-1,1308,841,0,0
91,183,0,0,0,0,0,0,0,0,0,-1,1315,841,0,0
98,183,0,0,0,0,0,0,0,0,0,-1,1322,841,0,0
105,183,0,0,0,0,0,0,0,0,0,-1,1329,841,0,0
112,183,0,0,0,0,0,0,0,0,0,-1,1336,841,0,0
119,183,0,0,0,0,0,0,0,0,0,-1,1343,841,0,0
126,183,0,0,0,0,0,0,0,0,0,-1,1350,841,0,0
133,183,0,0,0,0,0,0,0,0,0,-1,1357,841,0,0
140,183,0,0,0,0,0,0,0,0,0,-1,1364,841,0,0
147,183,0,0,0,0,0,0,0,0,0,-1,1371,841,0,0
154,183,0,0,0,0,0,0,0,0,0,-1,1378,841,0,0
161,183,0,0,0,0,0,0,0,0,0,-1,1385,841,0,0
168,183,0,0,0,0,0,0,0,0,0,-1,1392,841,0,0
175,183,0,0,0,0,0,0,0,0,0,-1,1399,841,0,0
182,183,0,0,0,0,0,0,0,0,0,-1,1406,841,0,0
189,183,0,0,0,0,0,0,0,0,0,-1,1413,841,0,0
196,183,0,0,0,0,0,0,0,0,0,-1,1420,841,0,0
203,183,0,0,0,0,0,0,0,0,0,-1,1427,841,0,0
210,183,0,0,0,0,0,0,0,0,0,-1,1434,841,0,0
217,183,0,0,0,0,0,0,0,0,0,-1,1441,841,0,0
224,183,0,0,0,0,0,0,0,0,0,-1,1448,841,0,0
231,183,0,0,0,0,0,0,0,0,0,-1,1455,841,0,0
238,183,0,0,0,0,0,0,0,0,0,-1,1462,841,0,0
245,183,0,0,0,0,0,0,0,0,0,-1,1469,841,0,0
252,183,0,0,0,0,0,0,0,0,0,-1,1476,841,0,0
259,183,0,0,0,0,0,0,0,0,0,-1,1483,841,0,0
266,183,0,0,0,0,0,0,0,0,0,-1,1490,841,0,0
273,183,0,0,0,0,0,0,0,0,0,-1,1497,841,0,0
280,183,0,0,0,0,0,0,0,0,0,-1,1504,841,0,0
287,183,0,0,0,0,0,0,0,0,0,-1,1511,841,0,0
294,183,0,0,0,0,0,0,0,0,0,-1,1518,841,0,0
301,183,0,0,0,0,0,0,0,0,0,-1,1525,841,0,0
308,183,0,0,0,0,0,0,0,0,0,-1,1532,841,0,0
315,183,0,0,0,0,0,0,0,0,0,-1,1539,841,0,0
322,183,0,0,0,0,0,0,0,0,0,-1,1546,841,0,0
329,183,0,0,0,0,0,0,0,0,0,-1,1553,841,0,0
336,183,0,0,0,0,0,0,0,0,0,-1,1560,841,0,0
343,183,0,0,0,0,0,0,0,0,0,-1,1567,841,0,0
350,183,0,0,0,0,0,0,0,0,0,-1,1574,841,0,0
357,183,0,0,0,0,0,0,0,0,0,-1,1581,841,0,0
364,183,0,0,0,0,0,0,0,0,0,-1,1588,841,0,0
371,183,0,0,0,0,0,0,0,0,0,-1,1595,841,0,0
378,183,0,0,0,0,0,0,0,0,0,-1,1602,841,0,0
385,183,0,0,0,0,0,0,0,0,0,-1,1609,841,0,0
392,183,0,0,0,0,0,0,0,0,0,-1,1616,841,0,0
399,183,0,0,0,0,0,0,0,0,0,-1,1623,841,0,0
406,183,0,0,0,0,0,0,0,0,0,-1,1630,841,0,0
413,183,0,0,0,0,0,0,0,0,0,-1,1637,841,0,0
420,183,0,0,0,0,0,0,0,0,0,-1,1644,841,0,0
427,183,0,0,0,0,0,0,0,0,0,-1,1651,841,0,0
434,183,0,0,0,0,0,0,0,0,0,-1,1658,841,0,0
441,183,0,0,0,0,0,0,0,0,0,-1,1665,841,0,0
448,183,0,0,0,0,0,0,0,0,0,-1,1672,841,0,0
455,183,0,0,0,0,0,0,0,0,0,-1,1679,841,0,0
462,183,0,0,0,0,0,0,0,0,0,-1,1686,841,0,0
469,183,0,0,0,0,0,0,0,0,0,-1,1693,841,0,0
476,183,0,0,0,0,0,0,0,0,0,-1,1700,841,0,0
483,183,0,0,0,0,0,0,0,0,0,-1,1707,841,0,0
490,183,0,0,0,0,0,0,0,0,0,-1,1714,841,0,0
497,183,0,0,0,0,0,0,0,0,0,-1,1721,841,0,0
504,183,0,0,0,0,0,0,0,0,0,-1,1728,841,0,0
511,183,0,0,0,0,0,0,0,0,0,-1,1735,841,0,0
518,183,0,0,0,0,0,0,0,0,0,-1,1742,841,0,0
525,183,0,0,0,0,0,0,0,0,0,-1,1749,841,0,0
532,183,0,0,0,0,0,0,0,0,0,-1,1756,841,0,0
539,183,0,0,0,0,0,0,0,0,0,-1,1763,841,0,0
546,183,0,0,0,0,0,0,0,0,0,-1,1770,841,0,0
553,183,0,0,0,0,0,0,0,0,0,-1,1777,841,0,0
560,183,0,0,0,0,0,0,0,0,0,-1,1784,841,0,0
567,183,0,0,0,0,0,0,0,0,0,-1,1791,841,0,0
574,183,0,0,0,0,0,0,0,0,0,-1,1798,841,0,0
581,183,0,0,0,0,0,0,0,0,0,-1,1805,841,0,0
588,183,0,0,0,0,0,0,0,0,0,-1,1812,841,0,0
595,183,0,0,0,0,0,0,0,0,0,-1,1819,841,0,0
602,183,0,0,0,0,0,0,0,0,0,-1,1826,841,0,0
609,183,35.8356,2.40759,0,0,0,0,0,0,0,-1,1833,841,35.8355,-2.4076
616,183,35.7297,2.97015,0,0,0,0,0,0,0,-1,1840,841,35.7298,-2.97015
623,183,35.7729,2.87781,0.0046339,0.00535566,-0.000947009,0.00600822,0.00398134,-0.967439,0.0035295,0.042054,1847,841,35.7729,-2.8778
630,183,35.8662,2.70593,0.00250506,0.0024988,-0.00208227,0.0045842,0.000419658,-0.784646,0.00292629,0.042176,1854,841,35.8663,-2.70594
637,183,35.8568,2.61438,0.000823243,0.000515397,-0.00286094,0.0035344,-0.00219576,-0.758523,0.00333826,0.0345889,1861,841,35.8568,-2.61437
644,183,35.7599,2.57458,-0.000264968,-0.000698965,-0.00320565,0.00273102,-0.00369495,-0.751603,0.00372392,0.0256258,1868,841,35.7599,-2.57458
651,183,35.8086,2.63275,-0.000875267,-0.00143038,-0.00324691,0.00210593,-0.00441157,-0.74276,0.00384056,0.0231571,1875,841,35.8086,-2.63275
658,183,35.9642,2.55786,-0.00130027,-0.00184858,-0.00325353,0.00169064,-0.00483948,-0.743365,0.00391354,0.0448929,1882,841,35.9642,-2.55786
665,183,36.0956,2.46143,0,0,0,0,0,0,0,-1,1889,841,36.0956,-2.46145
672,183,28.8014,1.2843,0,0,0,0,0,0,0,-1,1896,841,28.8014,-1.28429
679,183,28.7338,1.55994,0,0,0,0,0,0,0,-1,1903,841,28.7338,-1.55995
686,183,28.6492,1.84326,-0.00197756,-0.00209177,-0.00238516,0.000351182,-0.00442051,-0.77343,0.00307077,0.0234962,1910,841,28.6491,-1.84327
693,183,28.6224,2.17346,-0.00166309,-0.00166039,-0.00204134,0.000379599,-0.00370308,-0.785728,0.00260449,0.0194277,1917,841,28.6224,-2.17349
700,183,28.5902,2.56708,-0.00103016,-0.00148693,-0.00168951,0.000446325,-0.00296342,-0.718215,0.00213996,0.0175774,1924,841,28.5902,-2.56707
707,183,28.5548,2.92328,-8.83624e-05,-0.000961232,-0.00120454,0.000756373,-0.00180597,-0.611592,0.00152018,0.0125227,1931,841,28.5548,-2.92331
714,183,28.5398,3.27057,0.00173227,-0.00109412,-0.000663513,0.00188028,-0.00124213,-0.219481,0.00181523,0.0162717,1938,841,28.5397,-3.27056
721,183,28.5516,3.66071,0.00456496,-0.00141249,0.00012622,0.00456763,-0.00141516,0.0211035,0.00361047,0.014557,1945,841,28.5516,-3.66071
728,183,28.5291,4.0528,0.00799223,-0.00235568,0.000981944,0.00808458,-0.00244804,0.0937777,0.00636465,0.0123976,1952,841,28.5291,-4.05281
735,183,28.5236,4.42535,0.0122543,-0.0036818,0.0016175,0.0124168,-0.00384432,0.100138,0.00981358,0.0117778,1959,841,28.5235,-4.42535
742,183,28.498,4.81519,0.017732,-0.00569489,0.00178855,0.0178678,-0.00583065,0.0757607,0.0142585,0.0108689,1966,841,28.4981,-4.81517
749,183,28.4448,5.20868,0.0240808,-0.00820175,0.00225035,0.0242369,-0.00835786,0.0692614,0.0195488,0.0314057,1973,841,28.4448,-5.20865
756,183,28.507,5.41766,0.0317438,-0.0115143,0.00233832,0.0318699,-0.0116403,0.053846,0.0260099,0.0474123,1980,841,28.507,-5.41765
763,183,28.7372,5.56769,0,0,0,0,0,0,0,-1,1987,841,28.7372,-5.56769
770,183,30.6621,6.45502,0,0,0,0,0,0,0,-1,1994,841,30.6621,-6.45499
777,183,31.4872,8.49878,0,0,0,0,0,0,0,-1,2001,841,31.4872,-8.49877
784,183,0,0,0,0,0,0,0,0,0,-1,2008,841,0,0
791,183,0,0,0,0,0,0,0,0,0,-1,2015,841,0,0
798,183,0,0,0,0,0,0,0,0,0,-1,2022,841,0,0
805,183,0,0,0,0,0,0,0,0,0,-1,2029,841,0,0
812,183,0,0,0,0,0,0,0,0,0,-1,2036,841,0,0
-700,176,0,0,0,0,0,0,0,0,0,-1,524,848,0,0
-693,176,0,0,0,0,0,0,0,0,0,-1,531,848,0,0
-686,176,0,0,0,0,0,0,0,0,0,-1,538,848,0,0
-679,176,0,0,0,0,0,0,0,0,0,-1,545,848,0,0
-672,176,0,0,0,0,0,0,0,0,0,-1,552,848,0,0
-665,176,-25.2612,1.42572,0,0,0,0,0,0,0,-1,559,848,-25.2612,-1.4257
-658,176,-25.8094,1.6579,0,0,0,0,0,0,0,-1,566,848,-25.8094,-1.65792
-651,176,-19.4514,7.71643,0,0,0,0,0,0,0,-1,573,848,-19.4514,-7.71643
-644,176,-19.5076,6.21332,0.0414504,-0.0136005,-0.106792,0.124207,-0.0963571,-0.659269,0.127681,0.0456693,580,848,-19.5076,-6.21333
-637,176,-19.5702,4.51123,0.0262819,-0.00942613,-0.0831919,0.093514,-0.0766583,-0.679695,0.0984095,0.0451694,587,848,-19.5702,-4.51123
-630,176,-20.073,3.17926,0.0155263,-0.00616538,-0.0625662,0.0681798,-0.0588189,-0.699576,0.0733891,0.0416683,594,848,-20.073,-3.17925
-623,176,-20.3492,2.65259,0.00817745,-0.00373726,-0.0453808,0.0479903,-0.0435501,-0.720134,0.0528716,0.0385379,601,848,-20.3492,-2.65258
-616,176,-20.3017,2.46893,0.00358596,-0.00198893,-0.0315665,0.0324878,-0.0308908,-0.74136,0.0365955,0.0277432,608,848,-20.3017,-2.46896
-609,176,-20.2672,2.15247,0.000853855,-0.000930603,-0.0209408,0.0209215,-0.0209982,-0.764107,0.0242024,0.0118312,615,848,-20.2672,-2.15245
-602,176,-20.2747,1.80206,-0.00104923,-0.000219476,-0.0128249,0.0121973,-0.013466,-0.801567,0.0148227,0.012143,622,848,-20.2747,-1.80205
-595,176,-20.2976,1.44183,-0.00190892,-0.000101921,-0.00693225,0.00598546,-0.0079963,-0.850199,0.00810015,0.0114916,629,848,-20.2976,-1.44184
-588,176,-20.2957,1.08722,-0.00194216,9.45117e-05,-0.00208976,0.00140084,-0.0032485,-1.01212,0.00275405,0.011724,636,848,-20.2957,-1.08719
-581,176,-20.3179,0.759888,-0.00170672,-0.000213735,0.000364556,-0.000129474,-0.00179098,1.34365,0.00115325,0.0115408,643,848,-20.3179,-0.759909
-574,176,-20.3225,0.408875,-0.00154477,-0.000169556,0.000821095,0.000213818,-0.00192814,1.13397,0.00136231,0.0164763,650,848,-20.3225,-0.408904
-567,176,-20.2169,0.175903,-0.00103806,-0.000246569,0.000738905,0.000195896,-0.00148052,1.03125,0.00105837,0.0405327,657,848,-20.2169,-0.175905
-560,176,-20.4124,-0.240417,2.11665e-05,-0.000419086,0.000782795,0.000614196,-0.00101212,0.648335,0.000948274,0.0307667,664,848,-20.4124,0.240429
-553,176,-20.42,-0.667847,0,0,0,0,0,0,0,-1,671,848,-20.42,0.667872
-546,176,-16.657,-0.403198,0,0,0,0,0,0,0,-1,678,848,-16.657,0.403182
-539,176,-22.7061,1.48657,0,0,0,0,0,0,0,-1,685,848,-22.7061,-1.48657
-532,176,-26.0372,0.926086,0,0,0,0,0,0,0,-1,692,848,-26.0372,-0.926088
-525,176,-26.2234,0.598877,0.00464171,1.85176e-05,0.00123708,0.00495192,-0.000291688,0.24569,0.00340268,0.0467397,699,848,-26.2234,-0.598873
-518,176,-26.4319,0.187927,0.00570051,0.000199031,0.00140244,0.00603739,-0.000137851,0.235745,0.00407166,0.0425761,706,848,-26.432,-0.187912
-511,176,-26.4471,0.307556,0.00696692,0.00044658,0.00167315,0.00737119,4.23077e-05,0.23708,0.00490009,0.0394027,713,848,-26.4471,-0.307556
-504,176,-26.2468,0.799988,0.00806413,0.000578345,0.00181521,0.00848108,0.000161401,0.225778,0.00560103,0.043312,720,848,-26.2468,-0.8
-497,176,-26.1876,1.05524,0.0084649,0.000666502,0.00164721,0.00879856,0.000332848,0.199853,0.00575796,0.0441839,727,848,-26.1875,-1.05521
-490,176,-26.1441,1.03455,0.00796518,0.000690874,0.000668359,0.00802608,0.000629975,0.0908657,0.00515358,0.0395643,734,848,-26.1441,-1.03456
-483,176,0,0,0,0,0,0,0,0,0,-1,741,848,0,0
-476,176,0,0,0,0,0,0,0,0,0,-1,748,848,0,0
-469,176,0,0,0,0,0,0,0,0,0,-1,755,848,0,0
-462,176,0,0,0,0,0,0,0,0,0,-1,762,848,0,0
-455,176,0,0,0,0,0,0,0,0,0,-1,769,848,0,0
-448,176,0,0,0,0,0,0,0,0,0,-1,776,848,0,0
-441,176,0,0,0,0,0,0,0,0,0,-1,783,848,0,0
-434,176,0,0,0,0,0,0,0,0,0,-1,790,848,0,0
-427,176,0,0,0,0,0,0,0,0,0,-1,797,848,0,0
-420,176,0,0,0,0,0,0,0,0,0,-1,804,848,0,0
-413,176,0,0,0,0,0,0,0,0,0,-1,811,848,0,0
-406,176,0,0,0,0,0,0,0,0,0,-1,818,848,0,0
-399,176,0,0,0,0,0,0,0,0,0,-1,825,848,0,0
-392,176,0,0,0,0,0,0,0,0,0,-1,832,848,0,0
-385,176,0,0,0,0,0,0,0,0,0,-1,839,848,0,0
-378,176,0,0,0,0,0,0,0,0,0,-1,846,848,0,0
-371,176,0,0,0,0,0,0,0,0,0,-1,853,848,0,0
-364,176,0,0,0,0,0,0,0,0,0,-1,860,848,0,0
-357,176,0,0,0,0,0,0,0,0,0,-1,867,848,0,0
-350,176,0,0,0,0,0,0,0,0,0,-1,874,848,0,0
-343,176,0,0,0,0,0,0,0,0,0,-1,881,848,0,0
-336,176,0,0,0,0,0,0,0,0,0,-1,888,848,0,0
-329,176,0,0,0,0,0,0,0,0,0,-1,895,848,0,0
-322,176,0,0,0,0,0,0,0,0,0,-1,902,848,0,0
-315,176,0,0,0,0,0,0,0,0,0,-1,909,848,0,0
-308,176,0,0,0,0,0,0,0,0,0,-1,916,848,0,0
-301,176,0,0,0,0,0,0,0,0,0,-1,923,848,0,0
-294,176,0,0,0,0,0,0,0,0,0,-1,930,848,0,0
-287,176,0,0,0,0,0,0,0,0,0,-1,937,848,0,0
-280,176,0,0,0,0,0,0,0,0,0,-1,944,848,0,0
-273,176,0,0,0,0,0,0,0,0,0,-1,951,848,0,0
-266,176,0,0,0,0,0,0,0,0,0,-1,958,848,0,0
-259,176,0,0,0,0,0,0,0,0,0,-1,965,848,0,0
-252,176,0,0,0,0,0,0,0,0,0,-1,972,848,0,0
-245,176,0,0,0,0,0,0,0,0,0,-1,979,848,0,0
-238,176,0,0,0,0,0,0,0,0,0,-1,986,848,0,0
-231,176,0,0,0,0,0,0,0,0,0,-1,993,848,0,0
-224,176,0,0,0,0,0,0,0,0,0,-1,1000,848,0,0
-217,176,0,0,0,0,0,0,0,0,0,-1,1007,848,0,0
-210,176,0,0,0,0,0,0,0,0,0,-1,1014,848,0,0
-203,176,0,0,0,0,0,0,0,0,0,-1,1021,848,0,0
-196,176,0,0,0,0,0,0,0,0,0,-1,1028,848,0,0
-189,176,0,0,0,0,0,0,0,0,0,-1,1035,848,0,0
-182,176,0,0,0,0,0,0,0,0,0,-1,1042,848,0,0
-175,176,0,0,0,0,0,0,0,0,0,-1,1049,848,0,0
-168,176,0,0,0,0,0,0,0,0,0,-1,1056,848,0,0
-161,176,0,0,0,0,0,0,0,0,0,-1,1063,848,0,0
-154,176,0,0,0,0,0,0,0,0,0,-1,1070,848,0,0
-147,176,0,0,0,0,0,0,0,0,0,-1,1077,848,0,0
-140,176,0,0,0,0,0,0,0,0,0,-1,1084,848,0,0
-133,176,0,0,0,0,0,0,0,0,0,-1,1091,848,0,0
-126,176,0,0,0,0,0,0,0,0,0,-1,1098,848,0,0
-119,176,0,0,0,0,0,0,0,0,0,-1,1105,848,0,0
-112,176,0,0,0,0,0,0,0,0,0,-1,1112,848,0,0
-105,176,0,0,0,0,0,0,0,0,0,-1,1119,848,0,0
-98,176,0,0,0,0,0,0,0,0,0,-1,1126,848,0,0
-91,176,0,0,0,0,0,0,0,0,0,-1,1133,848,0,0
-84,176,0,0,0,0,0,0,0,0,0,-1,1140,848,0,0
-77,176,0,0,0,0,0,0,0,0,0,-1,1147,848,0,0
-70,176,0,0,0,0,0,0,0,0,0,-1,1154,848,0,0
-63,176,0,0,0,0,0,0,0,0,0,-1,1161,848,0,0
-56,176,0,0,0,0,0,0,0,0,0,-1,1168,848,0,0
-49,176,0,0,0,0,0,0,0,0,0,-1,1175,848,0,0
-42,176,0,0,0,0,0,0,0,0,0,-1,1182,848,0,0
-35,176,0,0,0,0,0,0,0,0,0,-1,1189,848,0,0
-28,176,0,0,0,0,0,0,0,0,0,-1,1196,848,0,0
-21,176,0,0,0,0,0,0,0,0,0,-1,1203,848,0,0
-14,176,0,0,0,0,0,0,0,0,0,-1,1210,848,0,0
-7,176,0,0,0,0,0,0,0,0,0,-1,1217,848,0,0
0,176,0,0,0,0,0,0,0,0,0,-1,1224,848,0,0
7,176,0,0,0,0,0,0,0,0,0,-1,1231,848,0,0
14,176,0,0,0,0,0,0,0,0,0,-1,1238,848,0,0
21,176,0,0,0,0,0,0,0,0,0,-1,1245,848,0,0
28,176,0,0,0,0,0,0,0,0,0,-1,1252,848,0,0
35,176,0,0,0,0,0,0,0,0,0,-1,1259,848,0,0
42,176,0,0,0,0,0,0,0,0,0,-1,1266,848,0,0
49,176,0,0,0,0,0,0,0,0,0,-1,1273,848,0,0
56,176,0,0,0,0,0,0,0,0,0,-1,1280,848,0,0
63,176,0,0,0,0,0,0,0,0,0,-1,1287,848,0,0
70,176,0,0,0,0,0,0,0,0,0,-1,1294,848,0,0
77,176,0,0,0,0,0,0,0,0,0,-1,1301,848,0,0
84,176,0,0,0,0,0,0,0,0,0,-1,1308,848,0,0
91,176,0,0,0,0,0,0,0,0,0,-1,1315,848,0,0
98,176,0,0,0,0,0,0,0,0,0,-1,1322,848,0,0
105,176,0,0,0,0,0,0,0,0,0,-1,1329,848,0,0
112,176,0,0,0,0,0,0,0,0,0,-1,1336,848,0,0
119,176,0,0,0,0,0,0,0,0,0,-1,1343,848,0,0
126,176,0,0,0,0,0,0,0,0,0,-1,1350,848,0,0
133,176,0,0,0,0,0,0,0,0,0,-1,1357,848,0,0
140,176,0,0,0,0,0,0,0,0,0,-1,1364,848,0,0
147,176,0,0,0,0,0,0,0,0,0,-1,1371,848,0,0
154,176,0,0,0,0,0,0,0,0,0,-1,1378,848,0,0
161,176,0,0,0,0,0,0,0,0,0,-1,1385,848,0,0
168,176,0,0,0,0,0,0,0,0,0,-1,1392,848,0,0
175,176,0,0,0,0,0,0,0,0,0,-1,1399,848,0,0
182,176,0,0,0,0,0,0,0,0,0,-1,1406,848,0,0
189,176,0,0,0,0,0,0,0,0,0,-1,1413,848,0,0
196,176,0,0,0,0,0,0,0,0,0,-1,1420,848,0,0
203,176,0,0,0,0,0,0,0,0,0,-1,1427,848,0,0
210,176,0,0,0,0,0,0,0,0,0,-1,1434,848,0,0
217,176,0,0,0,0,0,0,0,0,0,-1,1441,848,0,0
224,176,0,0,0,0,0,0,0,0,0,-1,1448,848,0,0
231,176,0,0,0,0,0,0,0,0,0,-1,1455,848,0,0
238,176,0,0,0,0,0,0,0,0,0,-1,1462,848,0,0
245,176,0,0,0,0,0,0,0,0,0,-1,1469,848,0,0
252,176,0,0,0,0,0,0,0,0,0,-1,1476,848,0,0
259,176,0,0,0,0,0,0,0,0,0,-1,1483,848,0,0
266,176,0,0,0,0,0,0,0,0,0,-1,1490,848,0,0
273,176,0,0,0,0,0,0,0,0,0,-1,1497,848,0,0
280,176,0,0,0,0,0,0,0,0,0,-1,1504,848,0,0
287,176,0,0,0,0,0,0,0,0,0,-1,1511,848,0,0
294,176,0,0,0,0,0,0,0,0,0,-1,1518,848,0,0
301,176,0,0,0,0,0,0,0,0,0,-1,1525,848,0,0
308,176,0,0,0,0,0,0,0,0,0,-1,1532,848,0,0
315,176,0,0,0,0,0,0,0,0,0,-1,1539,848,0,0
322,176,0,0,0,0,0,0,0,0,0,-1,1546,848,0,0
329,176,0,0,0,0,0,0,0,0,0,-1,1553,848,0,0
336,176,0,0,0,0,0,0,0,0,0,-1,1560,848,0,0
343,176,0,0,0,0,0,0,0,0,0,-1,1567,848,0,0
350,176,0,0,0,0,0,0,0,0,0,-1,1574,848,0,0
357,176,0,0,0,0,0,0,0,0,0,-1,1581,848,0,0
364,176,0,0,0,0,0,0,0,0,0,-1,1588,848,0,0
371,176,0,0,0,0,0,0,0,0,0,-1,1595,848,0,0
378,176,0,0,0,0,0,0,0,0,0,-1,1602,848,0,0
385,176,0,0,0,0,0,0,0,0,0,-1,1609,848,0,0
392,176,0,0,0,0,0,0,0,0,0,-1,1616,848,0,0
399,176,0,0,0,0,0,0,0,0,0,-1,1623,848,0,0
406,176,0,0,0,0,0,0,0,0,0,-1,1630,848,0,0
413,176,0,0,0,0,0,0,0,0,0,-1,1637,848,0,0
420,176,0,0,0,0,0,0,0,0,0,-1,1644,848,0,0
427,176,0,0,0,0,0,0,0,0,0,-1,1651,848,0,0
434,176,0,0,0,0,0,0,0,0,0,-1,1658,848,0,0
441,176,0,0,0,0,0,0,0,0,0,-1,1665,848,0,0
448,176,0,0,0,0,0,0,0,0,0,-1,1672,848,0,0
455,176,0,0,0,0,0,0,0,0,0,-1,1679,848,0,0
462,176,0,0,0,0,0,0,0,0,0,-1,1686,848,0,0
469,176,0,0,0,0,0,0,0,0,0,-1,1693,848,0,0
476,176,0,0,0,0,0,0,0,0,0,-1,1700,848,0,0
483,176,0,0,0,0,0,0,0,0,0,-1,1707,848,0,0
490,176,0,0,0,0,0,0,0,0,0,-1,1714,848,0,0
497,176,0,0,0,0,0,0,0,0,0,-1,1721,848,0,0
504,176,0,0,0,0,0,0,0,0,0,-1,1728,848,0,0
511,176,0,0,0,0,0,0,0,0,0,-1,1735,848,0,0
518,176,0,0,0,0,0,0,0,0,0,-1,1742,848,0,0
525,176,0,0,0,0,0,0,0,0,0,-1,1749,848,0,0
532,176,0,0,0,0,0,0,0,0,0,-1,1756,848,0,0
539,176,0,0,0,0,0,0,0,0,0,-1,1763,848,0,0
546,176,0,0,0,0,0,0,0,0,0,-1,1770,848,0,0
553,176,0,0,0,0,0,0,0,0,0,-1,1777,848,0,0
560,176,0,0,0,0,0,0,0,0,0,-1,1784,848,0,0
567,176,0,0,0,0,0,0,0,0,0,-1,1791,848,0,0
574,176,0,0,0,0,0,0,0,0,0,-1,1798,848,0,0
581,176,0,0,0,0,0,0,0,0,0,-1,1805,848,0,0
588,176,0,0,0,0,0,0,0,0,0,-1,1812,848,0,0
595,176,0,0,0,0,0,0,0,0,0,-1,1819,848,0,0
602,176,0,0,0,0,0,0,0,0,0,-1,1826,848,0,0
609,176,35.7739,2.53186,0,0,0,0,0,0,0,-1,1833,848,35.774,-2.53184
616,176,35.5189,2.81799,0.00740664,0.0101226,0.000216054,0.0101397,0.00738956,1.49191,0.00605497,0.0374659,1840,848,35.519,-2.81802
623,176,35.4905,2.91443,0.00539638,0.00678693,-0.000712422,0.00708712,0.00509619,-1.17201,0.00422064,0.0418858,1847,848,35.4905,-2.91442
630,176,35.6741,2.75287,0.0034488,0.00378195,-0.00164891,0.00527268,0.00195807,-0.835739,0.00307758,0.041144,1854,848,35.674,-2.75285
637,176,35.83,2.56525,0.00177564,0.00156836,-0.00232115,0.00399546,-0.000651459,-0.763087,0.00290524,0.0323604,1861,848,35.83,-2.56526
644,176,35.7772,2.53918,0.000625817,0.000154357,-0.00261414,0.00301484,-0.00223466,-0.740432,0.00304194,0.0297758,1868,848,35.7773,-2.5392
651,176,35.7841,2.61322,-4.81775e-05,-0.000707624,-0.0026466,0.00228916,-0.00304496,-0.723426,0.00308995,0.0311966,1875,848,35.784,-2.61324
658,176,35.8666,2.51599,-0.000516207,-0.00122116,-0.00264955,0.00180421,-0.00354158,-0.719271,0.00314026,0.0370229,1882,848,35.8665,-2.51602
665,176,36.0289,2.34607,0,0,0,0,0,0,0,-1,1889,848,36.0289,-2.34609
672,176,16.9304,2.80719,0,0,0,0,0,0,0,-1,1896,848,16.9305,-2.80719
679,176,29.3809,1.4942,0,0,0,0,0,0,0,-1,1903,848,29.3808,-1.49423
686,176,29.1974,1.88123,-0.00143755,-0.00175386,-0.00189706,0.000307936,-0.00349935,-0.743811,0.00244202,0.0329377,1910,848,29.1974,-1.8812
693,176,29.0374,2.25903,-0.00122082,-0.00151107,-0.00164609,0.000286528,-0.00301842,-0.741429,0.00211427,0.0171002,1917,848,29.0374,-2.25902
700,176,28.9271,2.61584,-0.000793365,-0.00142358,-0.00142846,0.000354327,-0.00257128,-0.67684,0.00184368,0.0197908,1924,848,28.9271,-2.61587
707,176,28.9474,2.94971,-0.00013102,-0.000995923,-0.00110981,0.000627619,-0.00175456,-0.599617,0.00142573,0.0148459,1931,848,28.9474,-2.9497
714,176,28.9568,3.30505,0.00121634,-0.00099743,-0.000816858,0.00148512,-0.00126621,-0.317882,0.00159015,0.0131279,1938,848,28.9568,-3.30508
721,176,28.9457,3.66028,0.00345067,-0.00113106,-0.000324773,0.00347358,-0.00115396,-0.0704152,0.00278135,0.0120131,1945,848,28.9456,-3.66029
728,176,28.9285,4.05359,0.0062594,-0.00183057,0.000183032,0.00626354,-0.0018347,0.0226091,0.00490305,0.0138183,1952,848,28.9285,-4.05361
735,176,28.9032,4.43304,0.00995643,-0.00284568,0.000262826,0.00996183,-0.00285108,0.0205184,0.00776799,0.013,1959,848,28.9032,-4.43306
742,176,28.8938,4.79871,0.014907,-0.0045671,-0.000419602,0.014916,-0.00457614,-0.0215334,0.0117698,0.0164205,1966,848,28.8938,-4.79873
749,176,28.8356,5.11786,0.0205656,-0.00668743,-0.000967567,0.0205999,-0.00672174,-0.0354436,0.0164385,0.0273416,1973,848,28.8355,-5.11783
756,176,28.869,5.37659,0.0274371,-0.00954094,-0.0022064,0.0275683,-0.00967212,-0.059387,0.0223129,0.047297,1980,848,28.869,-5.37659
763,176,28.9941,5.5766,0,0,0,0,0,0,0,-1,1987,848,28.9941,-5.57657
770,176,30.2006,6.37524,0,0,0,0,0,0,0,-1,1994,848,30.2006,-6.37525
777,176,30.8901,8.27563,0,0,0,0,0,0,0,-1,2001,848,30.8902,-8.27563
784,176,0,0,0,0,0,0,0,0,0,-1,2008,848,0,0
791,176,0,0,0,0,0,0,0,0,0,-1,2015,848,0,0
798,176,0,0,0,0,0,0,0,0,0,-1,2022,848,0,0
805,176,0,0,0,0,0,0,0,0,0,-1,2029,848,0,0
812,176,0,0,0,0,0,0,0,0,0,-1,2036,848,0,0
-700,169,0,0,0,0,0,0,0,0,0,-1,524,855,0,0
-693,169,0,0,0,0,0,0,0,0,0,-1,531,855,0,0
-686,169,0,0,0,0,0,0,0,0,0,-1,538,855,0,0
-679,169,0,0,0,0,0,0,0,0,0,-1,545,855,0,0
-672,169,0,0,0,0,0,0,0,0,0,-1,552,855,0,0
-665,169,-17.709,2.77771,0,0,0,0,0,0,0,-1,559,855,-17.709,-2.7777
-658,169,-18.236,2.67969,0,0,0,0,0,0,0,-1,566,855,-18.236,-2.67968
-651,169,-18.9196,8.15277,0,0,0,0,0,0,0,-1,573,855,-18.9195,-8.1528
-644,169,-18.8881,6.60822,0.0496062,-0.0240409,-0.0910115,0.110961,-0.0853961,-0.593164,0.113687,0.04847,580,855,-18.8881,-6.60821
-637,169,-18.7406,4.22052,0.0338094,-0.0163283,-0.0703717,0.0834441,-0.0659631,-0.614289,0.0864569,0.0457916,587,855,-18.7406,-4.22053
-630,169,-20.4616,3.94049,0,0,0,0,0,0,0,-1,594,855,-20.4616,-3.9405
-623,169,-20.5991,3.00928,0.0124959,-0.00648314,-0.0376827,0.0418656,-0.0358528,-0.662049,0.0449154,0.0376992,601,855,-20.5991,-3.00926
-616,169,-20.6382,2.49268,0.00645795,-0.00355378,-0.0257999,0.0277331,-0.024829,-0.689575,0.0303622,0.0223278,608,855,-20.6383,-2.49266
-609,169,-20.629,2.16992,0.00252192,-0.00179353,-0.0166231,0.0171267,-0.0163983,-0.720858,0.0193572,0.0138601,615,855,-20.629,-2.1699
-602,169,-20.6407,1.81659,-0.000379752,-0.000676725,-0.00965528,0.00912818,-0.0101847,-0.777709,0.0111558,0.012913,622,855,-20.6407,-1.8166
-595,169,-20.6597,1.45044,-0.00174956,-0.0003226,-0.00470842,0.00372609,-0.00579825,-0.860592,0.00554209,0.0113393,629,855,-20.6596,-1.45045
-588,169,-20.6445,1.10394,-0.00192257,-0.000230754,-0.00084281,0.000117444,-0.00227077,-1.17901,0.00155447,0.00942545,636,855,-20.6445,-1.10397
-581,169,-20.6801,0.773132,-0.00190746,-0.000535544,0.000885652,-0.000101272,-0.00234174,1.11491,0.00152852,0.0116649,643,855,-20.6801,-0.773134
-574,169,-20.8088,0.414734,-0.00180523,-0.000503699,0.00107472,0.000101932,-0.00241086,1.05763,0.00164227,0.0205128,650,855,-20.8088,-0.414749
-567,169,-20.6624,0.178833,-0.00125984,-0.000598369,0.000871341,2.89344e-06,-0.0018611,0.966784,0.0012417,0.0338942,657,855,-20.6624,-0.178821
-560,169,-20.7186,-0.101563,-0.00019833,-0.000737099,0.000804749,0.000380925,-0.00131635,0.623889,0.00102834,0.0360188,664,855,-20.7186,0.101578
-553,169,-20.6874,-0.393738,0,0,0,0,0,0,0,-1,671,855,-20.6874,0.393739
-546,169,-19.0852,-1.05609,0,0,0,0,0,0,0,-1,678,855,-19.0852,1.05612
-539,169,-26.1402,0.710693,0,0,0,0,0,0,0,-1,685,855,-26.1402,-0.71072
-532,169,-26.1322,0.748413,0.00331882,-0.000348593,0.00089932,0.00352747,-0.000557252,0.227985,0.00255772,0.0400659,692,855,-26.1322,-0.748398
-525,169,-26.0964,0.800842,0.00437554,-0.000139966,0.000909845,0.00455197,-0.0003164,0.191539,0.00314543,0.0453504,699,855,-26.0964,-0.800864
-518,169,-26.2974,0.416016,0.0054879,4.39586e-05,0.00102881,0.00567584,-0.00014398,0.180683,0.00383279,0.0425857,706,855,-26.2973,-0.415988
-511,169,-26.3237,0.49646,0.00689499,0.000217601,0.00127464,0.00713003,-1.74397e-05,0.18235,0.00475918,0.0424743,713,855,-26.3237,-0.496461
-504,169,-26.3121,0.660339,0.00816658,0.000142618,0.00138458,0.00839877,-8.95793e-05,0.166156,0.00562928,0.0430818,720,855,-26.3121,-0.660324
-497,169,-26.2012,0.819031,0.00879335,-0.000211746,0.00126813,0.00896853,-0.00038692,0.137267,0.00611208,0.0407033,727,855,-26.2012,-0.819043
-490,169,0,0,0,0,0,0,0,0,0,-1,734,855,0,0
-483,169,0,0,0,0,0,0,0,0,0,-1,741,855,0,0
-476,169,0,0,0,0,0,0,0,0,0,-1,748,855,0,0
-469,169,0,0,0,0,0,0,0,0,0,-1,755,855,0,0
-462,169,0,0,0,0,0,0,0,0,0,-1,762,855,0,0
-455,169,0,0,0,0,0,0,0,0,0,-1,769,855,0,0
-448,169,0,0,0,0,0,0,0,0,0,-1,776,855,0,0
-441,169,0,0,0,0,0,0,0,0,0,-1,783,855,0,0
-434,169,0,0,0,0,0,0,0,0,0,-1,790,855,0,0
-427,169,0,0,0,0,0,0,0,0,0,-1,797,855,0,0
-420,169,0,0,0,0,0,0,0,0,0,-1,804,855,0,0
-413,169,0,0,0,0,0,0,0,0,0,-1,811,855,0,0
-406,169,0,0,0,0,0,0,0,0,0,-1,818,855,0,0
-399,169,0,0,0,0,0,0,0,0,0,-1,825,855,0,0
-392,169,0,0,0,0,0,0,0,0,0,-1,832,855,0,0
-385,169,0,0,0,0,0,0,0,0,0,-1,839,855,0,0
-378,169,0,0,0,0,0,0,0,0,0,-1,846,855,0,0
-371,169,0,0,0,0,0,0,0,0,0,-1,853,855,0,0
-364,169,0,0,0,0,0,0,0,0,0,-1,860,855,0,0
-357,169,0,0,0,0,0,0,0,0,0,-1,867,855,0,0
-350,169,0,0,0,0,0,0,0,0,0,-1,874,855,0,0
-343,169,0,0,0,0,0,0,0,0,0,-1,881,855,0,0
-336,169,0,0,0,0,0,0,0,0,0,-1,888,855,0,0
-329,169,0,0,0,0,0,0,0,0,0,-1,895,855,0,0
-322,169,0,0,0,0,0,0,0,0,0,-1,902,855,0,0
-315,169,0,0,0,0,0,0,0,0,0,-1,909,855,0,0
-308,169,0,0,0,0,0,0,0,0,0,-1,916,855,0,0
-301,169,0,0,0,0,0,0,0,0,0,-1,923,855,0,0
-294,169,0,0,0,0,0,0,0,0,0,-1,930,855,0,0
-287,169,0,0,0,0,0,0,0,0,0,-1,937,855,0,0
-280,169,0,0,0,0,0,0,0,0,0,-1,944,855,0,0
-273,169,0,0,0,0,0,0,0,0,0,-1,951,855,0,0
-266,169,0,0,0,0,0,0,0,0,0,-1,958,855,0,0
-259,169,0,0,0,0,0,0,0,0,0,-1,965,855,0,0
-252,169,0,0,0,0,0,0,0,0,0,-1,972,855,0,0
-245,169,0,0,0,0,0,0,0,0,0,-1,979,855,0,0
-238,169,0,0,0,0,0,0,0,0,0,-1,986,855,0,0
-231,169,0,0,0,0,0,0,0,0,0,-1,993,855,0,0
-224,169,0,0,0,0,0,0,0,0,0,-1,1000,855,0,0
-217,169,0,0,0,0,0,0,0,0,0,-1,1007,855,0,0
-210,169,0,0,0,0,0,0,0,0,0,-1,1014,855,0,0
-203,169,0,0,0,0,0,0,0,0,0,-1,1021,855,0,0
-196,169,0,0,0,0,0,0,0,0,0,-1,1028,855,0,0
-189,169,0,0,0,0,0,0,0,0,0,-1,1035,855,0,0
-182,169,0,0,0,0,0,0,0,0,0,-1,1042,855,0,0
-175,169,0,0,0,0,0,0,0,0,0,-1,1049,855,0,0
-168,169,0,0,0,0,0,0,0,0,0,-1,1056,855,0,0
-161,169,0,0,0,0,0,0,0,0,0,-1,1063,855,0,0
-154,169,0,0,0,0,0,0,0,0,0,-1,1070,855,0,0
-147,169,0,0,0,0,0,0,0,0,0,-1,1077,855,0,0
-140,169,0,0,0,0,0,0,0,0,0,-1,1084,855,0,0
-133,169,0,0,0,0,0,0,0,0,0,-1,1091,855,0,0
-126,169,0,0,0,0,0,0,0,0,0,-1,1098,855,0,0
-119,169,0,0,0,0,0,0,0,0,0,-1,1105,855,0,0
-112,169,0,0,0,0,0,0,0,0,0,-1,1112,855,0,0
-105,169,0,0,0,0,0,0,0,0,0,-1,1119,855,0,0
-98,169,0,0,0,0,0,0,0,0,0,-1,1126,855,0,0
-91,169,0,0,0,0,0,0,0,0,0,-1,1133,855,0,0
-84,169,0,0,0,0,0,0,0,0,0,-1,1140,855,0,0
-77,169,0,0,0,0,0,0,0,0,0,-1,1147,855,0,0
-70,169,0,0,0,0,0,0,0,0,0,-1,1154,855,0,0
-63,169,0,0,0,0,0,0,0,0,0,-1,1161,855,0,0
-56,169,0,0,0,0,0,0,0,0,0,-1,1168,855,0,0
-49,169,0,0,0,0,0,0,0,0,0,-1,1175,855,0,0
-42,169,0,0,0,0,0,0,0,0,0,-1,1182,855,0,0
-35,169,0,0,0,0,0,0,0,0,0,-1,1189,855,0,0
-28,169,0,0,0,0,0,0,0,0,0,-1,1196,855,0,0
-21,169,0,0,0,0,0,0,0,0,0,-1,1203,855,0,0
-14,169,0,0,0,0,0,0,0,0,0,-1,1210,855,0,0
-7,169,0,0,0,0,0,0,0,0,0,-1,1217,855,0,0
0,169,0,0,0,0,0,0,0,0,0,-1,1224,855,0,0
7,169,0,0,0,0,0,0,0,0,0,-1,1231,855,0,0
14,169,0,0,0,0,0,0,0,0,0,-1,1238,855,0,0
21,169,0,0,0,0,0,0,0,0,0,-1,1245,855,0,0
28,169,0,0,0,0,0,0,0,0,0,-1,1252,855,0,0
35,169,0,0,0,0,0,0,0,0,0,-1,1259,855,0,0
42,169,0,0,0,0,0,0,0,0,0,-1,1266,855,0,0
49,169,0,0,0,0,0,0,0,0,0,-1,1273,855,0,0
56,169,0,0,0,0,0,0,0,0,0,-1,1280,855,0,0
63,169,0,0,0,0,0,0,0,0,0,-1,1287,855,0,0
70,169,0,0,0,0,0,0,0,0,0,-1,1294,855,0,0
77,169,0,0,0,0,0,0,0,0,0,-1,1301,855,0,0
84,169,0,0,0,0,0,0,0,0,0,-1,1308,855,0,0
91,169,0,0,0,0,0,0,0,0,0,-1,1315,855,0,0
98,169,0,0,0,0,0,0,0,0,0,-1,1322,855,0,0
105,169,0,0,0,0,0,0,0,0,0,-1,1329,855,0,0
112,169,0,0,0,0,0,0,0,0,0,-1,1336,855,0,0
119,169,0,0,0,0,0,0,0,0,0,-1,1343,855,0,0
126,169,0,0,0,0,0,0,0,0,0,-1,1350,855,0,0
133,169,0,0,0,0,0,0,0,0,0,-1,1357,855,0,0
140,169,0,0,0,0,0,0,0,0,0,-1,1364,855,0,0
147,169,0,0,0,0,0,0,0,0,0,-1,1371,855,0,0
154,169,0,0,0,0,0,0,0,0,0,-1,1378,855,0,0
161,169,0,0,0,0,0,0,0,0,0,-1,1385,855,0,0
168,169,0,0,0,0,0,0,0,0,0,-1,1392,855,0,0
175,169,0,0,0,0,0,0,0,0,0,-1,1399,855,0,0
182,169,0,0,0,0,0,0,0,0,0,-1,1406,855,0,0
189,169,0,0,0,0,0,0,0,0,0,-1,1413,855,0,0
196,169,0,0,0,0,0,0,0,0,0,-1,1420,855,0,0
203,169,0,0,0,0,0,0,0,0,0,-1,1427,855,0,0
210,169,0,0,0,0,0,0,0,0,0,-1,1434,855,0,0
217,169,0,0,0,0,0,0,0,0,0,-1,1441,855,0,0
224,169,0,0,0,0,0,0,0,0,0,-1,1448,855,0,0
231,169,0,0,0,0,0,0,0,0,0,-1,1455,855,0,0
238,169,0,0,0,0,0,0,0,0,0,-1,1462,855,0,0
245,169,0,0,0,0,0,0,0,0,0,-1,1469,855,0,0
252,169,0,0,0,0,0,0,0,0,0,-1,1476,855,0,0
259,169,0,0,0,0,0,0,0,0,0,-1,1483,855,0,0
266,169,0,0,0,0,0,0,0,0,0,-1,1490,855,0,0
273,169,0,0,0,0,0,0,0,0,0,-1,1497,855,0,0
280,169,0,0,0,0,0,0,0,0,0,-1,1504,855,0,0
287,169,0,0,0,0,0,0,0,0,0,-1,1511,855,0,0
294,169,0,0,0,0,0,0,0,0,0,-1,1518,855,0,0
301,169,0,0,0,0,0,0,0,0,0,-1,1525,855,0,0
308,169,0,0,0,0,0,0,0,0,0,-1,1532,855,0,0
315,169,0,0,0,0,0,0,0,0,0,-1,1539,855,0,0
322,169,0,0,0,0,0,0,0,0,0,-1,1546,855,0,0
329,169,0,0,0,0,0,0,0,0,0,-1,1553,855,0,0
336,169,0,0,0,0,0,0,0,0,0,-1,1560,855,0,0
343,169,0,0,0,0,0,0,0,0,0,-1,1567,855,0,0
350,169,0,0,0,0,0,0,0,0,0,-1,1574,855,0,0
357,169,0,0,0,0,0,0,0,0,0,-1,1581,855,0,0
364,169,0,0,0,0,0,0,0,0,0,-1,1588,855,0,0
371,169,0,0,0,0,0,0,0,0,0,-1,1595,855,0,0
378,169,0,0,0,0,0,0,0,0,0,-1,1602,855,0,0
385,169,0,0,0,0,0,0,0,0,0,-1,1609,855,0,0
392,169,0,0,0,0,0,0,0,0,0,-1,1616,855,0,0
399,169,0,0,0,0,0,0,0,0,0,-1,1623,855,0,0
406,169,0,0,0,0,0,0,0,0,0,-1,1630,855,0,0
413,169,0,0,0,0,0,0,0,0,0,-1,1637,855,0,0
420,169,0,0,0,0,0,0,0,0,0,-1,1644,855,0,0
427,169,0,0,0,0,0,0,0,0,0,-1,1651,855,0,0
434,169,0,0,0,0,0,0,0,0,0,-1,1658,855,0,0
441,169,0,0,0,0,0,0,0,0,0,-1,1665,855,0,0
448,169,0,0,0,0,0,0,0,0,0,-1,1672,855,0,0
455,169,0,0,0,0,0,0,0,0,0,-1,1679,855,0,0
462,169,0,0,0,0,0,0,0,0,0,-1,1686,855,0,0
469,169,0,0,0,0,0,0,0,0,0,-1,1693,855,0,0
476,169,0,0,0,0,0,0,0,0,0,-1,1700,855,0,0
483,169,0,0,0,0,0,0,0,0,0,-1,1707,855,0,0
490,169,0,0,0,0,0,0,0,0,0,-1,1714,855,0,0
497,169,0,0,0,0,0,0,0,0,0,-1,1721,855,0,0
504,169,0,0,0,0,0,0,0,0,0,-1,1728,855,0,0
511,169,0,0,0,0,0,0,0,0,0,-1,1735,855,0,0
518,169,0,0,0,0,0,0,0,0,0,-1,1742,855,0,0
525,169,0,0,0,0,0,0,0,0,0,-1,1749,855,0,0
532,169,0,0,0,0,0,0,0,0,0,-1,1756,855,0,0
539,169,0,0,0,0,0,0,0,0,0,-1,1763,855,0,0
546,169,0,0,0,0,0,0,0,0,0,-1,1770,855,0,0
553,169,0,0,0,0,0,0,0,0,0,-1,1777,855,0,0
560,169,0,0,0,0,0,0,0,0,0,-1,1784,855,0,0
567,169,0,0,0,0,0,0,0,0,0,-1,1791,855,0,0
574,169,0,0,0,0,0,0,0,0,0,-1,1798,855,0,0
581,169,0,0,0,0,0,0,0,0,0,-1,1805,855,0,0
588,169,0,0,0,0,0,0,0,0,0,-1,1812,855,0,0
595,169,0,0,0,0,0,0,0,0,0,-1,1819,855,0,0
602,169,0,0,0,0,0,0,0,0,0,-1,1826,855,0,0
609,169,0,0,0,0,0,0,0,0,0,-1,1833,855,0,0
616,169,35.4606,2.79456,0.00811985,0.0112249,-0.000724716,0.0113857,0.00795903,-1.35243,0.00674491,0.0396372,1840,855,35.4605,-2.79456
623,169,35.5768,2.79431,0.00610665,0.0080253,-0.00120291,0.00860458,0.00552737,-1.12201,0.00503454,0.0430202,1847,855,35.5768,-2.79433
630,169,35.6677,2.72968,0.0042773,0.005098,-0.00166573,0.00640318,0.00297212,-0.906167,0.00370004,0.0431128,1854,855,35.6677,-2.72969
637,169,35.7864,2.66077,0.00267765,0.00279863,-0.00199214,0.0047312,0.000745084,-0.800575,0.00293744,0.0362513,1861,855,35.7864,-2.66075
644,169,35.7748,2.66162,0.001528,0.00122198,-0.00208872,0.0034693,-0.00071933,-0.748836,0.00258621,0.0348388,1868,855,35.7748,-2.66165
651,169,35.7058,2.69208,0.000830912,0.000226572,-0.00203577,0.00258682,-0.00152933,-0.711721,0.00240246,0.0364473,1875,855,35.7059,-2.69205
658,169,35.7773,2.5968,0.000355991,-0.000419786,-0.00200444,0.00200973,-0.00207352,-0.689822,0.00235756,0.0335594,1882,855,35.7774,-2.59679
665,169,35.9617,2.44684,0,0,0,0,0,0,0,-1,1889,855,35.9617,-2.44681
672,169,31.2465,2.96387,0,0,0,0,0,0,0,-1,1896,855,31.2464,-2.9639
679,169,29.4988,1.51318,0,0,0,0,0,0,0,-1,1903,855,29.4988,-1.51318
686,169,29.4681,1.89459,-0.000814087,-0.00132958,-0.00135506,0.000307525,-0.00245119,-0.691416,0.00174569,0.0356766,1910,855,29.4681,-1.8946
693,169,29.4301,2.27423,-0.000705,-0.00125468,-0.00117961,0.000231367,-0.00219105,-0.670944,0.00154361,0.0173177,1917,855,29.43,-2.27422
700,169,29.405,2.65662,-0.000437207,-0.00126487,-0.00110268,0.000326737,-0.00202882,-0.605883,0.00147358,0.0161851,1924,855,29.405,-2.6566
707,169,29.3651,2.99152,2.178e-06,-0.000968861,-0.000968901,0.000600402,-0.00156708,-0.553133,0.00129222,0.0166455,1931,855,29.3651,-2.99151
714,169,29.329,3.32623,0.000947151,-0.000922017,-0.000911394,0.00131797,-0.00129284,-0.386418,0.00150738,0.0151142,1938,855,29.329,-3.32625
721,169,29.3019,3.68805,0.00263474,-0.000929413,-0.000661348,0.0027535,-0.00104817,-0.177678,0.00226731,0.0157436,1945,855,29.3019,-3.68806
728,169,29.2997,4.05396,0.00490075,-0.00141921,-0.000441251,0.00493141,-0.00144987,-0.06937,0.00386269,0.0124698,1952,855,29.2996,-4.05393
735,169,29.2926,4.41937,0.00815881,-0.00216329,-0.000831109,0.0082253,-0.00222978,-0.0798321,0.00635848,0.017337,1959,855,29.2926,-4.41936
742,169,29.2688,4.76685,0.0127515,-0.00364377,-0.00222798,0.0130488,-0.00394114,-0.132687,0.0102682,0.0150924,1966,855,29.2688,-4.76683
749,169,29.217,5.00482,0.0179604,-0.00546012,-0.00359309,0.0184992,-0.00599897,-0.148857,0.014745,0.0253613,1973,855,29.2171,-5.0048
756,169,29.3044,5.05487,0.0243503,-0.00794094,-0.00589133,0.0253915,-0.0089822,-0.174938,0.0205857,0.0497131,1980,855,29.3045,-5.05487
763,169,29.4891,5.14447,0,0,0,0,0,0,0,-1,1987,855,29.4891,-5.14446
770,169,29.6245,6.18188,0,0,0,0,0,0,0,-1,1994,855,29.6245,-6.18186
777,169,29.498,6.25323,0,0,0,0,0,0,0,-1,2001,855,29.498,-6.25324
784,169,29.1117,6.62067,0,0,0,0,0,0,0,-1,2008,855,29.1117,-6.62069
791,169,0,0,0,0,0,0,0,0,0,-1,2015,855,0,0
798,169,0,0,0,0,0,0,0,0,0,-1,2022,855,0,0
805,169,0,0,0,0,0,0,0,0,0,-1,2029,855,0,0
812,169,0,0,0,0,0,0,0,0,0,-1,2036,855,0,0
-700,162,0,0,0,0,0,0,0,0,0,-1,524,862,0,0
-693,162,0,0,0,0,0,0,0,0,0,-1,531,862,0,0
-686,162,0,0,0,0,0,0,0,0,0,-1,538,862,0,0
-679,162,0,0,0,0,0,0,0,0,0,-1,545,862,0,0
-672,162,0,0,0,0,0,0,0,0,0,-1,552,862,0,0
-665,162,-18.7698,2.94873,0,0,0,0,0,0,0,-1,559,862,-18.7698,-2.94874
-658,162,-19.3259,2.52026,0,0,0,0,0,0,0,-1,566,862,-19.3259,-2.52028
-651,162,-19.7372,2.71161,0,0,0,0,0,0,0,-1,573,862,-19.7372,-2.71159
-644,162,-18.2328,7.00732,0,0,0,0,0,0,0,-1,580,862,-18.2328,-7.0073
-637,162,-20.3022,4.26746,0,0,0,0,0,0,0,-1,587,862,-20.3022,-4.26745
-630,162,-20.6247,3.74298,0.0277655,-0.0155259,-0.0434389,0.054653,-0.0424135,-0.554254,0.0561896,0.0437544,594,862,-20.6247,-3.74296
-623,162,-20.8421,3.05615,0.0169105,-0.00947191,-0.0308867,0.037305,-0.0298664,-0.583581,0.0388606,0.0327449,601,862,-20.8421,-3.05618
-616,162,-20.976,2.4787,0.00942585,-0.0052488,-0.0207826,0.0241283,-0.0199512,-0.615703,0.0254874,0.0194498,608,862,-20.976,-2.47871
-609,162,-20.9993,2.14185,0.00432734,-0.00261749,-0.0129085,0.0142223,-0.0125125,-0.654007,0.0154458,0.0135725,615,862,-20.9993,-2.14187
-602,162,-21.0087,1.81085,0.000393812,-0.000979593,-0.00698713,0.00672791,-0.00731369,-0.736415,0.00810927,0.0112173,622,862,-21.0087,-1.81084
-595,162,-21.0176,1.46234,-0.00151294,-0.000333419,-0.00293846,0.00207388,-0.00392024,-0.884434,0.00351501,0.010526,629,862,-21.0176,-1.46237
-588,162,-21.0154,1.12,-0.00181555,-0.00028905,2.60652e-05,-0.000288605,-0.00181599,1.55373,0.00112685,0.0108283,636,862,-21.0155,-1.12001
-581,162,-21.1249,0.791748,-0.00197713,-0.00051915,0.00120441,0.000159703,-0.00265598,1.05754,0.00182622,0.0167682,643,862,-21.1249,-0.791735
-574,162,-21.3004,0.441895,-0.00190544,-0.000452697,0.00124816,0.000265065,-0.0026232,1.04892,0.00184352,0.0260277,650,862,-21.3004,-0.441912
-567,162,-21.2286,0.0933838,-0.00131521,-0.000529256,0.00095398,0.000109517,-0.00195398,0.980774,0.00134065,0.0377123,657,862,-21.2287,-0.0933739
-560,162,-21.0809,-0.415344,-0.000293384,-0.000624674,0.000775736,0.000334195,-0.00125225,0.680212,0.000965705,0.0340088,664,862,-21.0809,0.415314
-553,162,-20.8573,-0.874512,0,0,0,0,0,0,0,-1,671,862,-20.8573,0.874516
-546,162,-20.6361,-1.35229,0,0,0,0,0,0,0,-1,678,862,-20.6361,1.35227
-539,162,-26.1272,0.701721,0,0,0,0,0,0,0,-1,685,862,-26.1272,-0.701701
-532,162,-26.092,0.724731,0.00312584,-0.000220959,0.000572833,0.00322117,-0.000316288,0.164907,0.00226026,0.0359321,692,862,-26.092,-0.724759
-525,162,-26.1263,0.670044,0.00419786,-7.58182e-05,0.000523985,0.00426117,-0.000139125,0.120235,0.00288827,0.0381887,699,862,-26.1263,-0.670042
-518,162,-26.1868,0.553955,0.00540099,-2.13336e-05,0.000573411,0.00546096,-8.13087e-05,0.104214,0.00366804,0.0395281,706,862,-26.1868,-0.553975
-511,162,-26.1859,0.475525,0.00702922,-0.00014999,0.000761268,0.00710906,-0.000229825,0.10449,0.00481781,0.0429372,713,862,-26.1859,-0.475535
-504,162,-25.973,0.695862,0.00866105,-0.00074902,0.00077032,0.00872369,-0.000811662,0.0811414,0.00610436,0.042574,720,862,-25.973,-0.695855
-497,162,-26.0049,0.850098,0.00970875,-0.00180612,0.000673818,0.00974804,-0.00184542,0.0582522,0.00719318,0.0402008,727,862,-26.0049,-0.850075
-490,162,0,0,0,0,0,0,0,0,0,-1,734,862,0,0
-483,162,0,0,0,0,0,0,0,0,0,-1,741,862,0,0
-476,162,0,0,0,0,0,0,0,0,0,-1,748,862,0,0
-469,162,0,0,0,0,0,0,0,0,0,-1,755,862,0,0
-462,162,0,0,0,0,0,0,0,0,0,-1,762,862,0,0
-455,162,0,0,0,0,0,0,0,0,0,-1,769,862,0,0
-448,162,0,0,0,0,0,0,0,0,0,-1,776,862,0,0
-441,162,0,0,0,0,0,0,0,0,0,-1,783,862,0,0
-434,162,0,0,0,0,0,0,0,0,0,-1,790,862,0,0
-427,162,0,0,0,0,0,0,0,0,0,-1,797,862,0,0
-420,162,0,0,0,0,0,0,0,0,0,-1,804,862,0,0
-413,162,0,0,0,0,0,0,0,0,0,-1,811,862,0,0
-406,162,0,0,0,0,0,0,0,0,0,-1,818,862,0,0
-399,162,0,0,0,0,0,0,0,0,0,-1,825,862,0,0
-392,162,0,0,0,0,0,0,0,0,0,-1,832,862,0,0
-385,162,0,0,0,0,0,0,0,0,0,-1,839,862,0,0
-378,162,0,0,0,0,0,0,0,0,0,-1,846,862,0,0
-371,162,0,0,0,0,0,0,0,0,0,-1,853,862,0,0
-364,162,0,0,0,0,0,0,0,0,0,-1,860,862,0,0
-357,162,0,0,0,0,0,0,0,0,0,-1,867,862,0,0
-350,162,0,0,0,0,0,0,0,0,0,-1,874,862,0,0
-343,162,0,0,0,0,0,0,0,0,0,-1,881,862,0,0
-336,162,0,0,0,0,0,0,0,0,0,-1,888,862,0,0
-329,162,0,0,0,0,0,0,0,0,0,-1,895,862,0,0
-322,162,0,0,0,0,0,0,0,0,0,-1,902,862,0,0
-315,162,0,0,0,0,0,0,0,0,0,-1,909,862,0,0
-308,162,0,0,0,0,0,0,0,0,0,-1,916,862,0,0
-301,162,0,0,0,0,0,0,0,0,0,-1,923,862,0,0
-294,162,0,0,0,0,0,0,0,0,0,-1,930,862,0,0
-287,162,0,0,0,0,0,0,0,0,0,-1,937,862,0,0
-280,162,0,0,0,0,0,0,0,0,0,-1,944,862,0,0
-273,162,0,0,0,0,0,0,0,0,0,-1,951,862,0,0
-266,162,0,0,0,0,0,0,0,0,0,-1,958,862,0,0
-259,162,0,0,0,0,0,0,0,0,0,-1,965,862,0,0
-252,162,0,0,0,0,0,0,0,0,0,-1,972,862,0,0
-245,162,0,0,0,0,0,0,0,0,0,-1,979,862,0,0
-238,162,0,0,0,0,0,0,0,0,0,-1,986,862,0,0
-231,162,0,0,0,0,0,0,0,0,0,-1,993,862,0,0
-224,162,0,0,0,0,0,0,0,0,0,-1,1000,862,0,0
-217,162,0,0,0,0,0,0,0,0,0,-1,1007,862,0,0
-210,162,0,0,0,0,0,0,0,0,0,-1,1014,862,0,0
-203,162,0,0,0,0,0,0,0,0,0,-1,1021,862,0,0
-196,162,0,0,0,0,0,0,0,0,0,-1,1028,862,0,0
-189,162,0,0,0,0,0,0,0,0,0,-1,1035,862,0,0
-182,162,0,0,0,0,0,0,0,0,0,-1,1042,862,0,0
-175,162,0,0,0,0,0,0,0,0,0,-1,1049,862,0,0
-168,162,0,0,0,0,0,0,0,0,0,-1,1056,862,0,0
-161,162,0,0,0,0,0,0,0,0,0,-1,1063,862,0,0
-154,162,0,0,0,0,0,0,0,0,0,-1,1070,862,0,0
-147,162,0,0,0,0,0,0,0,0,0,-1,1077,862,0,0
-140,162,0,0,0,0,0,0,0,0,0,-1,1084,862,0,0
-133,162,0,0,0,0,0,0,0,0,0,-1,1091,862,0,0
-126,162,0,0,0,0,0,0,0,0,0,-1,1098,862,0,0
-119,162,0,0,0,0,0,0,0,0,0,-1,1105,862,0,0
-112,162,0,0,0,0,0,0,0,0,0,-1,1112,862,0,0
-105,162,0,0,0,0,0,0,0,0,0,-1,1119,862,0,0
-98,162,0,0,0,0,0,0,0,0,0,-1,1126,862,0,0
-91,162,0,0,0,0,0,0,0,0,0,-1,1133,862,0,0
-84,162,0,0,0,0,0,0,0,0,0,-1,1140,862,0,0
-77,162,0,0,0,0,0,0,0,0,0,-1,1147,862,0,0
-70,162,0,0,0,0,0,0,0,0,0,-1,1154,862,0,0
-63,162,0,0,0,0,0,0,0,0,0,-1,1161,862,0,0
-56,162,0,0,0,0,0,0,0,0,0,-1,1168,862,0,0
-49,162,0,0,0,0,0,0,0,0,0,-1,1175,862,0,0
-42,162,0,0,0,0,0,0,0,0,0,-1,1182,862,0,0
-35,162,0,0,0,0,0,0,0,0,0,-1,1189,862,0,0
-28,162,0,0,0,0,0,0,0,0,0,-1,1196,862,0,0
-21,162,0,0,0,0,0,0,0,0,0,-1,1203,862,0,0
-14,162,0,0,0,0,0,0,0,0,0,-1,1210,862,0,0
-7,162,0,0,0,0,0,0,0,0,0,-1,1217,862,0,0
0,162,0,0,0,0,0,0,0,0,0,-1,1224,862,0,0
7,162,0,0,0,0,0,0,0,0,0,-1,1231,862,0,0
14,162,0,0,0,0,0,0,0,0,0,-1,1238,862,0,0
21,162,0,0,0,0,0,0,0,0,0,-1,1245,862,0,0
28,162,0,0,0,0,0,0,0,0,0,-1,1252,862,0,0
35,162,0,0,0,0,0,0,0,0,0,-1,1259,862,0,0
42,162,0,0,0,0,0,0,0,0,0,-1,1266,862,0,0
49,162,0,0,0,0,0,0,0,0,0,-1,1273,862,0,0
56,162,0,0,0,0,0,0,0,0,0,-1,1280,862,0,0
63,162,0,0,0,0,0,0,0,0,0,-1,1287,862,0,0
70,162,0,0,0,0,0,0,0,0,0,-1,1294,862,0,0
77,162,0,0,0,0,0,0,0,0,0,-1,1301,862,0,0
84,162,0,0,0,0,0,0,0,0,0,-1,1308,862,0,0
91,162,0,0,0,0,0,0,0,0,0,-1,1315,862,0,0
98,162,0,0,0,0,0,0,0,0,0,-1,1322,862,0,0
105,162,0,0,0,0,0,0,0,0,0,-1,1329,862,0,0
112,162,0,0,0,0,0,0,0,0,0,-1,1336,862,0,0
119,162,0,0,0,0,0,0,0,0,0,-1,1343,862,0,0
126,162,0,0,0,0,0,0,0,0,0,-1,1350,862,0,0
133,162,0,0,0,0,0,0,0,0,0,-1,1357,862,0,0
140,162,0,0,0,0,0,0,0,0,0,-1,1364,862,0,0
147,162,0,0,0,0,0,0,0,0,0,-1,1371,862,0,0
154,162,0,0,0,0,0,0,0,0,0,-1,1378,862,0,0
161,162,0,0,0,0,0,0,0,0,0,-1,1385,862,0,0
168,162,0,0,0,0,0,0,0,0,0,-1,1392,862,0,0
175,162,0,0,0,0,0,0,0,0,0,-1,1399,862,0,0
182,162,0,0,0,0,0,0,0,0,0,-1,1406,862,0,0
189,162,0,0,0,0,0,0,0,0,0,-1,1413,862,0,0
196,162,0,0,0,0,0,0,0,0,0,-1,1420,862,0,0
203,162,0,0,0,0,0,0,0,0,0,-1,1427,862,0,0
210,162,0,0,0,0,0,0,0,0,0,-1,1434,862,0,0
217,162,0,0,0,0,0,0,0,0,0,-1,1441,862,0,0
224,162,0,0,0,0,0,0,0,0,0,-1,1448,862,0,0
231,162,0,0,0,0,0,0,0,0,0,-1,1455,862,0,0
238,162,0,0,0,0,0,0,0,0,0,-1,1462,862,0,0
245,162,0,0,0,0,0,0,0,0,0,-1,1469,862,0,0
252,162,0,0,0,0,0,0,0,0,0,-1,1476,862,0,0
259,162,0,0,0,0,0,0,0,0,0,-1,1483,862,0,0
266,162,0,0,0,0,0,0,0,0,0,-1,1490,862,0,0
273,162,0,0,0,0,0,0,0,0,0,-1,1497,862,0,0
280,162,0,0,0,0,0,0,0,0,0,-1,1504,862,0,0
287,162,0,0,0,0,0,0,0,0,0,-1,1511,862,0,0
294,162,0,0,0,0,0,0,0,0,0,-1,1518,862,0,0
301,162,0,0,0,0,0,0,0,0,0,-1,1525,862,0,0
308,162,0,0,0,0,0,0,0,0,0,-1,1532,862,0,0
315,162,0,0,0,0,0,0,0,0,0,-1,1539,862,0,0
322,162,0,0,0,0,0,0,0,0,0,-1,1546,862,0,0
329,162,0,0,0,0,0,0,0,0,0,-1,1553,862,0,0
336,162,0,0,0,0,0,0,0,0,0,-1,1560,862,0,0
343,162,0,0,0,0,0,0,0,0,0,-1,1567,862,0,0
350,162,0,0,0,0,0,0,0,0,0,-1,1574,862,0,0
357,162,0,0,0,0,0,0,0,0,0,-1,1581,862,0,0
364,162,0,0,0,0,0,0,0,0,0,-1,1588,862,0,0
371,162,0,0,0,0,0,0,0,0,0,-1,1595,862,0,0
378,162,0,0,0,0,0,0,0,0,0,-1,1602,862,0,0
385,162,0,0,0,0,0,0,0,0,0,-1,1609,862,0,0
392,162,0,0,0,0,0,0,0,0,0,-1,1616,862,0,0
399,162,0,0,0,0,0,0,0,0,0,-1,1623,862,0,0
406,162,0,0,0,0,0,0,0,0,0,-1,1630,862,0,0
413,162,0,0,0,0,0,0,0,0,0,-1,1637,862,0,0
420,162,0,0,0,0,0,0,0,0,0,-1,1644,862,0,0
427,162,0,0,0,0,0,0,0,0,0,-1,1651,862,0,0
434,162,0,0,0,0,0,0,0,0,0,-1,1658,862,0,0
441,162,0,0,0,0,0,0,0,0,0,-1,1665,862,0,0
448,162,0,0,0,0,0,0,0,0,0,-1,1672,862,0,0
455,162,0,0,0,0,0,0,0,0,0,-1,1679,862,0,0
462,162,0,0,0,0,0,0,0,0,0,-1,1686,862,0,0
469,162,0,0,0,0,0,0,0,0,0,-1,1693,862,0,0
476,162,0,0,0,0,0,0,0,0,0,-1,1700,862,0,0
483,162,0,0,0,0,0,0,0,0,0,-1,1707,862,0,0
490,162,0,0,0,0,0,0,0,0,0,-1,1714,862,0,0
497,162,0,0,0,0,0,0,0,0,0,-1,1721,862,0,0
504,162,0,0,0,0,0,0,0,0,0,-1,1728,862,0,0
511,162,0,0,0,0,0,0,0,0,0,-1,1735,862,0,0
518,162,0,0,0,0,0,0,0,0,0,-1,1742,862,0,0
525,162,0,0,0,0,0,0,0,0,0,-1,1749,862,0,0
532,162,0,0,0,0,0,0,0,0,0,-1,1756,862,0,0
539,162,0,0,0,0,0,0,0,0,0,-1,1763,862,0,0
546,162,0,0,0,0,0,0,0,0,0,-1,1770,862,0,0
553,162,0,0,0,0,0,0,0,0,0,-1,1777,862,0,0
560,162,0,0,0,0,0,0,0,0,0,-1,1784,862,0,0
567,162,0,0,0,0,0,0,0,0,0,-1,1791,862,0,0
574,162,0,0,0,0,0,0,0,0,0,-1,1798,862,0,0
581,162,0,0,0,0,0,0,0,0,0,-1,1805,862,0,0
588,162,0,0,0,0,0,0,0,0,0,-1,1812,862,0,0
595,162,0,0,0,0,0,0,0,0,0,-1,1819,862,0,0
602,162,0,0,0,0,0,0,0,0,0,-1,1826,862,0,0
609,162,0,0,0,0,0,0,0,0,0,-1,1833,862,0,0
616,162,35.5659,2.63947,0.00934072,0.0109836,-0.0015867,0.0119489,0.00837544,-1.02425,0.00708195,0.0421216,1840,862,35.5659,-2.63946
623,162,35.7377,2.65601,0.00690264,0.00815456,-0.00165766,0.00930051,0.00575669,-0.965929,0.00542008,0.0440969,1847,862,35.7376,-2.65601
630,162,35.7892,2.76697,0.00487696,0.00559967,-0.00170351,0.00697973,0.0034969,-0.88991,0.00402975,0.0418721,1854,862,35.7892,-2.76697
637,162,35.7839,2.68787,0.00318344,0.00347165,-0.00171762,0.0050512,0.00160389,-0.82725,0.00298034,0.0401076,1861,862,35.784,-2.68788
644,162,35.7946,2.61554,0.00196875,0.00188062,-0.00165794,0.00358321,0.000266165,-0.772112,0.00230521,0.0385485,1868,862,35.7946,-2.61556
651,162,35.7975,2.61725,0.00123441,0.000806843,-0.00155584,0.00259109,-0.00054983,-0.717122,0.00193686,0.0350272,1875,862,35.7975,-2.61723
658,162,35.8678,2.53674,0.000764617,7.19557e-05,-0.00150861,0.00196614,-0.00112957,-0.672569,0.00180893,0.0336995,1882,862,35.8678,-2.53674
665,162,35.8687,2.5332,0.000326403,-0.000350644,-0.00141311,0.00144097,-0.00146521,-0.667834,0.0016779,0.0411154,1889,862,35.8686,-2.53318
672,162,35.8364,2.56677,0,0,0,0,0,0,0,-1,1896,862,35.8365,-2.56676
679,162,26.5077,2.54785,0,0,0,0,0,0,0,-1,1903,862,26.5077,-2.54787
686,162,29.813,1.83459,0,0,0,0,0,0,0,-1,1910,862,29.813,-1.83458
693,162,29.7581,2.31506,-0.00042064,-0.00108969,-0.000898216,0.000203321,-0.00171366,-0.607138,0.00121589,0.0212877,1917,862,29.758,-2.31505
700,162,29.7939,2.66168,-0.000250747,-0.00108852,-0.000921519,0.000342623,-0.00168189,-0.572078,0.0012512,0.019609,1924,862,29.794,-2.6617
707,162,29.7682,2.97681,2.73966e-05,-0.000849182,-0.000929389,0.000616658,-0.00143844,-0.565067,0.00121772,0.0144265,1931,862,29.7681,-2.97678
714,162,29.7135,3.32697,0.000678612,-0.000724469,-0.00100224,0.00120045,-0.0012463,-0.480045,0.00141271,0.0174945,1938,862,29.7135,-3.32696
721,162,29.6425,3.74432,0.00181566,-0.000652065,-0.000924419,0.00212353,-0.000959944,-0.321497,0.00182201,0.0296149,1945,862,29.6425,-3.7443
728,162,29.6118,4.0943,0.00347419,-0.000976013,-0.000934306,0.00366238,-0.00116421,-0.198769,0.00290839,0.021988,1952,862,29.6118,-4.09427
735,162,29.6676,4.43097,0.00621601,-0.00149533,-0.00170428,0.00657588,-0.0018552,-0.208099,0.00511571,0.0104922,1959,862,29.6676,-4.43098
742,162,29.6495,4.78973,0.0102368,-0.00281458,-0.0036154,0.0111714,-0.00374917,-0.252964,0.00896264,0.0127178,1966,862,29.6496,-4.78975
749,162,29.5773,5.11029,0.0148352,-0.00439861,-0.00557289,0.0163332,-0.00589665,-0.262601,0.0132975,0.0184041,1973,862,29.5773,-5.11027
756,162,29.5535,5.32709,0.0205686,-0.00659565,-0.00858283,0.0230532,-0.00908023,-0.28178,0.019128,0.0409733,1980,862,29.5535,-5.32708
763,162,29.5197,5.57434,0,0,0,0,0,0,0,-1,1987,862,29.5196,-5.57435
770,162,29.8353,5.85962,0,0,0,0,0,0,0,-1,1994,862,29.8353,-5.8596
777,162,29.8069,6.55664,0.044598,-0.0180192,-0.0277825,0.0551475,-0.0285686,-0.362898,0.0491388,0.0485314,2001,862,29.8069,-6.55664
784,162,29.5725,6.9259,0.0543867,-0.0236726,-0.03905,0.0705677,-0.0398536,-0.39283,0.0645686,0.0490228,2008,862,29.5725,-6.92593
791,162,0,0,0,0,0,0,0,0,0,-1,2015,862,0,0
798,162,0,0,0,0,0,0,0,0,0,-1,2022,862,0,0
805,162,0,0,0,0,0,0,0,0,0,-1,2029,862,0,0
812,162,0,0,0,0,0,0,0,0,0,-1,2036,862,0,0
-700,155,0,0,0,0,0,0,0,0,0,-1,524,869,0,0
-693,155,0,0,0,0,0,0,0,0,0,-1,531,869,0,0
-686,155,0,0,0,0,0,0,0,0,0,-1,538,869,0,0
-679,155,0,0,0,0,0,0,0,0,0,-1,545,869,0,0
-672,155,0,0,0,0,0,0,0,0,0,-1,552,869,0,0
-665,155,-20.0716,2.59686,0,0,0,0,0,0,0,-1,559,869,-20.0716,-2.59689
-658,155,-20.3701,2.44147,0,0,0,0,0,0,0,-1,566,869,-20.3701,-2.44149
-651,155,-20.6367,2.41095,0,0,0,0,0,0,0,-1,573,869,-20.6367,-2.41096
-644,155,-21.0766,2.45862,0,0,0,0,0,0,0,-1,580,869,-21.0766,-2.4586
-637,155,-20.4421,3.90955,0,0,0,0,0,0,0,-1,587,869,-20.4421,-3.90955
-630,155,-20.8088,3.48987,0.0314575,-0.0196541,-0.0370486,0.0509095,-0.0391061,-0.483477,0.0521192,0.0443936,594,869,-20.8088,-3.48988
-623,155,-21.2101,2.95398,0.01977,-0.0121269,-0.0259315,0.0342648,-0.0266218,-0.509702,0.0352451,0.0259721,601,869,-21.2101,-2.95401
-616,155,-21.3039,2.48468,0.0114774,-0.00680924,-0.017084,0.021711,-0.0170428,-0.539695,0.0224286,0.0146426,608,869,-21.3039,-2.48467
-609,155,-21.3536,2.12799,0.00553136,-0.00328097,-0.0101712,0.0122097,-0.00995933,-0.581,0.0128213,0.0136663,615,869,-21.3536,-2.12801
-602,155,-21.3723,1.80365,0.000836824,-0.00111051,-0.00508231,0.00503789,-0.00531158,-0.690755,0.00597597,0.0123578,622,869,-21.3723,-1.80364
-595,155,-21.3865,1.4693,-0.00134621,-0.000233307,-0.00177699,0.00107232,-0.00265183,-0.937133,0.00221366,0.0114244,629,869,-21.3866,-1.4693
-588,155,-21.386,1.14496,-0.00173111,-0.000191129,0.000430356,-7.90248e-05,-0.00184321,1.31597,0.00120333,0.0128571,636,869,-21.386,-1.14497
-581,155,-21.5376,0.895325,-0.00205244,-0.000317302,0.00125949,0.000344506,-0.00271425,1.08699,0.00193458,0.022119,643,869,-21.5376,-0.895325
-574,155,-21.6293,0.580872,-0.00198422,-0.000219153,0.00129029,0.000461555,-0.00266493,1.08534,0.00194878,0.0285954,650,869,-21.6292,-0.580883
-567,155,-21.5709,0.0960693,-0.00136877,-0.000280306,0.00103023,0.000340611,-0.00198968,1.0284,0.00145336,0.0304013,657,869,-21.5709,-0.0960527
-560,155,-21.4345,-0.333923,-0.000404961,-0.000333501,0.000824514,0.000456056,-0.00119452,0.807052,0.000984238,0.0262715,664,869,-21.4345,0.333929
-553,155,-21.2302,-1.11865,0,0,0,0,0,0,0,-1,671,869,-21.2302,1.11863
-546,155,-22.7988,0.873657,0,0,0,0,0,0,0,-1,678,869,-22.7988,-0.873645
-539,155,-26.1776,0.682495,0,0,0,0,0,0,0,-1,685,869,-26.1776,-0.68251
-532,155,-26.1477,0.651794,0.00288143,3.70764e-05,0.000402543,0.00293731,-1.87955e-05,0.137916,0.0019645,0.0330265,692,869,-26.1477,-0.651776
-525,155,-26.1319,0.712585,0.00399047,7.81718e-05,0.000295365,0.00401264,5.59986e-05,0.0749305,0.00265663,0.0373659,699,869,-26.1319,-0.712593
-518,155,-26.1506,0.671936,0.00540191,-7.80723e-05,0.000258189,0.00541404,-9.021e-05,0.0469762,0.00363981,0.0419145,706,869,-26.1505,-0.671913
-511,155,-25.999,0.530273,0.00744472,-0.000669764,0.000311004,0.00745662,-0.000681666,0.0382523,0.00521318,0.041108,713,869,-25.999,-0.530246
-504,155,-25.8381,0.343445,0.00975675,-0.00194049,9.72974e-05,0.00975756,-0.0019413,0.00831722,0.00723943,0.0418238,720,869,-25.8382,-0.343439
-497,155,0,0,0,0,0,0,0,0,0,-1,727,869,0,0
-490,155,0,0,0,0,0,0,0,0,0,-1,734,869,0,0
-483,155,0,0,0,0,0,0,0,0,0,-1,741,869,0,0
-476,155,0,0,0,0,0,0,0,0,0,-1,748,869,0,0
-469,155,0,0,0,0,0,0,0,0,0,-1,755,869,0,0
-462,155,0,0,0,0,0,0,0,0,0,-1,762,869,0,0
-455,155,0,0,0,0,0,0,0,0,0,-1,769,869,0,0
-448,155,0,0,0,0,0,0,0,0,0,-1,776,869,0,0
-441,155,0,0,0,0,0,0,0,0,0,-1,783,869,0,0
-434,155,0,0,0,0,0,0,0,0,0,-1,790,869,0,0
-427,155,0,0,0,0,0,0,0,0,0,-1,797,869,0,0
-420,155,0,0,0,0,0,0,0,0,0,-1,804,869,0,0
-413,155,0,0,0,0,0,0,0,0,0,-1,811,869,0,0
-406,155,0,0,0,0,0,0,0,0,0,-1,818,869,0,0
-399,155,0,0,0,0,0,0,0,0,0,-1,825,869,0,0
-392,155,0,0,0,0,0,0,0,0,0,-1,832,869,0,0
-385,155,0,0,0,0,0,0,0,0,0,-1,839,869,0,0
-378,155,0,0,0,0,0,0,0,0,0,-1,846,869,0,0
-371,155,0,0,0,0,0,0,0,0,0,-1,853,869,0,0
-364,155,0,0,0,0,0,0,0,0,0,-1,860,869,0,0
-357,155,0,0,0,0,0,0,0,0,0,-1,867,869,0,0
-350,155,0,0,0,0,0,0,0,0,0,-1,874,869,0,0
-343,155,0,0,0,0,0,0,0,0,0,-1,881,869,0,0
-336,155,0,0,0,0,0,0,0,0,0,-1,888,869,0,0
-329,155,0,0,0,0,0,0,0,0,0,-1,895,869,0,0
-322,155,0,0,0,0,0,0,0,0,0,-1,902,869,0,0
-315,155,0,0,0,0,0,0,0,0,0,-1,909,869,0,0
-308,155,0,0,0,0,0,0,0,0,0,-1,916,869,0,0
-301,155,0,0,0,0,0,0,0,0,0,-1,923,869,0,0
-294,155,0,0,0,0,0,0,0,0,0,-1,930,869,0,0
-287,155,0,0,0,0,0,0,0,0,0,-1,937,869,0,0
-280,155,0,0,0,0,0,0,0,0,0,-1,944,869,0,0
-273,155,0,0,0,0,0,0,0,0,0,-1,951,869,0,0
-266,155,0,0,0,0,0,0,0,0,0,-1,958,869,0,0
-259,155,0,0,0,0,0,0,0,0,0,-1,965,869,0,0
-252,155,0,0,0,0,0,0,0,0,0,-1,972,869,0,0
-245,155,0,0,0,0,0,0,0,0,0,-1,979,869,0,0
-238,155,0,0,0,0,0,0,0,0,0,-1,986,869,0,0
-231,155,0,0,0,0,0,0,0,0,0,-1,993,869,0,0
-224,155,0,0,0,0,0,0,0,0,0,-1,1000,869,0,0
-217,155,0,0,0,0,0,0,0,0,0,-1,1007,869,0,0
-210,155,0,0,0,0,0,0,0,0,0,-1,1014,869,0,0
-203,155,0,0,0,0,0,0,0,0,0,-1,1021,869,0,0
-196,155,0,0,0,0,0,0,0,0,0,-1,1028,869,0,0
-189,155,0,0,0,0,0,0,0,0,0,-1,1035,869,0,0
-182,155,0,0,0,0,0,0,0,0,0,-1,1042,869,0,0
-175,155,0,0,0,0,0,0,0,0,0,-1,1049,869,0,0
-168,155,0,0,0,0,0,0,0,0,0,-1,1056,869,0,0
-161,155,0,0,0,0,0,0,0,0,0,-1,1063,869,0,0
-154,155,0,0,0,0,0,0,0,0,0,-1,1070,869,0,0
-147,155,0,0,0,0,0,0,0,0,0,-1,1077,869,0,0
-140,155,0,0,0,0,0,0,0,0,0,-1,1084,869,0,0
-133,155,0,0,0,0,0,0,0,0,0,-1,1091,869,0,0
-126,155,0,0,0,0,0,0,0,0,0,-1,1098,869,0,0
-119,155,0,0,0,0,0,0,0,0,0,-1,1105,869,0,0
-112,155,0,0,0,0,0,0,0,0,0,-1,1112,869,0,0
-105,155,0,0,0,0,0,0,0,0,0,-1,1119,869,0,0
-98,155,0,0,0,0,0,0,0,0,0,-1,1126,869,0,0
-91,155,0,0,0,0,0,0,0,0,0,-1,1133,869,0,0
-84,155,0,0,0,0,0,0,0,0,0,-1,1140,869,0,0
-77,155,0,0,0,0,0,0,0,0,0,-1,1147,869,0,0
-70,155,0,0,0,0,0,0,0,0,0,-1,1154,869,0,0
-63,155,0,0,0,0,0,0,0,0,0,-1,1161,869,0,0
-56,155,0,0,0,0,0,0,0,0,0,-1,1168,869,0,0
-49,155,0,0,0,0,0,0,0,0,0,-1,1175,869,0,0
-42,155,0,0,0,0,0,0,0,0,0,-1,1182,869,0,0
-35,155,0,0,0,0,0,0,0,0,0,-1,1189,869,0,0
-28,155,0,0,0,0,0,0,0,0,0,-1,1196,869,0,0
-21,155,0,0,0,0,0,0,0,0,0,-1,1203,869,0,0
-14,155,0,0,0,0,0,0,0,0,0,-1,1210,869,0,0
-7,155,0,0,0,0,0,0,0,0,0,-1,1217,869,0,0
0,155,0,0,0,0,0,0,0,0,0,-1,1224,869,0,0
7,155,0,0,0,0,0,0,0,0,0,-1,1231,869,0,0
14,155,0,0,0,0,0,0,0,0,0,-1,1238,869,0,0
21,155,0,0,0,0,0,0,0,0,0,-1,1245,869,0,0
28,155,0,0,0,0,0,0,0,0,0,-1,1252,869,0,0
35,155,0,0,0,0,0,0,0,0,0,-1,1259,869,0,0
42,155,0,0,0,0,0,0,0,0,0,-1,1266,869,0,0
49,155,0,0,0,0,0,0,0,0,0,-1,1273,869,0,0
56,155,0,0,0,0,0,0,0,0,0,-1,1280,869,0,0
63,155,0,0,0,0,0,0,0,0,0,-1,1287,869,0,0
70,155,0,0,0,0,0,0,0,0,0,-1,1294,869,0,0
77,155,0,0,0,0,0,0,0,0,0,-1,1301,869,0,0
84,155,0,0,0,0,0,0,0,0,0,-1,1308,869,0,0
91,155,0,0,0,0,0,0,0,0,0,-1,1315,869,0,0
98,155,0,0,0,0,0,0,0,0,0,-1,1322,869,0,0
105,155,0,0,0,0,0,0,0,0,0,-1,1329,869,0,0
112,155,0,0,0,0,0,0,0,0,0,-1,1336,869,0,0
119,155,0,0,0,0,0,0,0,0,0,-1,1343,869,0,0
126,155,0,0,0,0,0,0,0,0,0,-1,1350,869,0,0
133,155,0,0,0,0,0,0,0,0,0,-1,1357,869,0,0
140,155,0,0,0,0,0,0,0,0,0,-1,1364,869,0,0
147,155,0,0,0,0,0,0,0,0,0,-1,1371,869,0,0
154,155,0,0,0,0,0,0,0,0,0,-1,1378,869,0,0
161,155,0,0,0,0,0,0,0,0,0,-1,1385,869,0,0
168,155,0,0,0,0,0,0,0,0,0,-1,1392,869,0,0
175,155,0,0,0,0,0,0,0,0,0,-1,1399,869,0,0
182,155,0,0,0,0,0,0,0,0,0,-1,1406,869,0,0
189,155,0,0,0,0,0,0,0,0,0,-1,1413,869,0,0
196,155,0,0,0,0,0,0,0,0,0,-1,1420,869,0,0
203,155,0,0,0,0,0,0,0,0,0,-1,1427,869,0,0
210,155,0,0,0,0,0,0,0,0,0,-1,1434,869,0,0
217,155,0,0,0,0,0,0,0,0,0,-1,1441,869,0,0
224,155,0,0,0,0,0,0,0,0,0,-1,1448,869,0,0
231,155,0,0,0,0,0,0,0,0,0,-1,1455,869,0,0
238,155,0,0,0,0,0,0,0,0,0,-1,1462,869,0,0
245,155,0,0,0,0,0,0,0,0,0,-1,1469,869,0,0
252,155,0,0,0,0,0,0,0,0,0,-1,1476,869,0,0
259,155,0,0,0,0,0,0,0,0,0,-1,1483,869,0,0
266,155,0,0,0,0,0,0,0,0,0,-1,1490,869,0,0
273,155,0,0,0,0,0,0,0,0,0,-1,1497,869,0,0
280,155,0,0,0,0,0,0,0,0,0,-1,1504,869,0,0
287,155,0,0,0,0,0,0,0,0,0,-1,1511,869,0,0
294,155,0,0,0,0,0,0,0,0,0,-1,1518,869,0,0
301,155,0,0,0,0,0,0,0,0,0,-1,1525,869,0,0
308,155,0,0,0,0,0,0,0,0,0,-1,1532,869,0,0
315,155,0,0,0,0,0,0,0,0,0,-1,1539,869,0,0
322,155,0,0,0,0,0,0,0,0,0,-1,1546,869,0,0
329,155,0,0,0,0,0,0,0,0,0,-1,1553,869,0,0
336,155,0,0,0,0,0,0,0,0,0,-1,1560,869,0,0
343,155,0,0,0,0,0,0,0,0,0,-1,1567,869,0,0
350,155,0,0,0,0,0,0,0,0,0,-1,1574,869,0,0
357,155,0,0,0,0,0,0,0,0,0,-1,1581,869,0,0
364,155,0,0,0,0,0,0,0,0,0,-1,1588,869,0,0
371,155,0,0,0,0,0,0,0,0,0,-1,1595,869,0,0
378,155,0,0,0,0,0,0,0,0,0,-1,1602,869,0,0
385,155,0,0,0,0,0,0,0,0,0,-1,1609,869,0,0
392,155,0,0,0,0,0,0,0,0,0,-1,1616,869,0,0
399,155,0,0,0,0,0,0,0,0,0,-1,1623,869,0,0
406,155,0,0,0,0,0,0,0,0,0,-1,1630,869,0,0
413,155,0,0,0,0,0,0,0,0,0,-1,1637,869,0,0
420,155,0,0,0,0,0,0,0,0,0,-1,1644,869,0,0
427,155,0,0,0,0,0,0,0,0,0,-1,1651,869,0,0
434,155,0,0,0,0,0,0,0,0,0,-1,1658,869,0,0
441,155,0,0,0,0,0,0,0,0,0,-1,1665,869,0,0
448,155,0,0,0,0,0,0,0,0,0,-1,1672,869,0,0
455,155,0,0,0,0,0,0,0,0,0,-1,1679,869,0,0
462,155,0,0,0,0,0,0,0,0,0,-1,1686,869,0,0
469,155,0,0,0,0,0,0,0,0,0,-1,1693,869,0,0
476,155,0,0,0,0,0,0,0,0,0,-1,1700,869,0,0
483,155,0,0,0,0,0,0,0,0,0,-1,1707,869,0,0
490,155,0,0,0,0,0,0,0,0,0,-1,1714,869,0,0
497,155,0,0,0,0,0,0,0,0,0,-1,1721,869,0,0
504,155,0,0,0,0,0,0,0,0,0,-1,1728,869,0,0
511,155,0,0,0,0,0,0,0,0,0,-1,1735,869,0,0
518,155,0,0,0,0,0,0,0,0,0,-1,1742,869,0,0
525,155,0,0,0,0,0,0,0,0,0,-1,1749,869,0,0
532,155,0,0,0,0,0,0,0,0,0,-1,1756,869,0,0
539,155,0,0,0,0,0,0,0,0,0,-1,1763,869,0,0
546,155,0,0,0,0,0,0,0,0,0,-1,1770,869,0,0
553,155,0,0,0,0,0,0,0,0,0,-1,1777,869,0,0
560,155,0,0,0,0,0,0,0,0,0,-1,1784,869,0,0
567,155,0,0,0,0,0,0,0,0,0,-1,1791,869,0,0
574,155,0,0,0,0,0,0,0,0,0,-1,1798,869,0,0
581,155,0,0,0,0,0,0,0,0,0,-1,1805,869,0,0
588,155,0,0,0,0,0,0,0,0,0,-1,1812,869,0,0
595,155,0,0,0,0,0,0,0,0,0,-1,1819,869,0,0
602,155,0,0,0,0,0,0,0,0,0,-1,1826,869,0,0
609,155,0,0,0,0,0,0,0,0,0,-1,1833,869,0,0
616,155,35.7649,2.42102,0.0105244,0.00998279,-0.00244775,0.0127163,0.00779091,-0.730307,0.00740362,0.0445905,1840,869,35.7649,-2.42102
623,155,35.8865,2.58167,0.0077472,0.00741972,-0.00217849,0.00976809,0.00539882,-0.747887,0.00565004,0.0420341,1847,869,35.8865,-2.58165
630,155,35.8369,2.65051,0.00557378,0.00521877,-0.00189907,0.00730363,0.00348893,-0.738799,0.00421815,0.0401557,1854,869,35.8369,-2.65054
637,155,35.7999,2.55481,0.00382425,0.0033555,-0.0016602,0.00526654,0.00191321,-0.715274,0.0030783,0.0390301,1861,869,35.7999,-2.55484
644,155,35.8406,2.48358,0.00252479,0.00186659,-0.00146404,0.00369626,0.000695117,-0.674841,0.00226825,0.036558,1868,869,35.8405,-2.48359
651,155,35.8663,2.47546,0.00169474,0.000813176,-0.00130725,0.00263352,-0.000125601,-0.622792,0.00179901,0.0338701,1875,869,35.8663,-2.47544
658,155,35.8737,2.48926,0.00117882,7.02473e-05,-0.00123693,0.00197998,-0.000730913,-0.574756,0.00161957,0.0284035,1882,869,35.8737,-2.48925
665,155,35.8237,2.54181,0.000722885,-0.000362175,-0.00115175,0.00145348,-0.00109278,-0.565288,0.00147499,0.0323365,1889,869,35.8237,-2.54183
672,155,35.7448,2.63568,0,0,0,0,0,0,0,-1,1896,869,35.7447,-2.63569
679,155,35.1565,2.78528,0,0,0,0,0,0,0,-1,1903,869,35.1565,-2.7853
686,155,29.9563,2.01434,0,0,0,0,0,0,0,-1,1910,869,29.9562,-2.01437
693,155,30.0659,2.31439,-0.000206553,-0.00106449,-0.000764202,0.000240845,-0.00151189,-0.529649,0.00109706,0.0316398,1917,869,30.0659,-2.31437
700,155,30.1837,2.7074,-0.000155675,-0.000983955,-0.000875229,0.000398451,-0.00153808,-0.564417,0.00118083,0.0227882,1924,869,30.1837,-2.7074
707,155,30.2488,3.1048,4.13907e-05,-0.000749155,-0.000993059,0.000714952,-0.00142272,-0.595992,0.00125653,0.0166782,1931,869,30.2487,-3.10482
714,155,30.1866,3.39484,0.000539066,-0.000508533,-0.00114966,0.00127862,-0.00124809,-0.571642,0.00145884,0.029714,1938,869,30.1867,-3.39481
721,155,30.0027,3.73602,0.00129412,-0.000318878,-0.00116957,0.0019083,-0.000933063,-0.483554,0.00167236,0.0270394,1945,869,30.0026,-3.73602
728,155,29.9833,4.09631,0.00249136,-0.000446847,-0.0013447,0.00301386,-0.00096935,-0.370609,0.00239856,0.0189403,1952,869,29.9832,-4.09633
735,155,30.0094,4.43811,0.00480371,-0.000768815,-0.00237931,0.00568137,-0.00164648,-0.353389,0.00443938,0.0149325,1959,869,30.0093,-4.43814
742,155,30.0239,4.79974,0.00837359,-0.0019141,-0.00463789,0.0101557,-0.00369623,-0.36686,0.00828221,0.0174317,1966,869,30.024,-4.79975
749,155,29.9617,5.13477,0.012528,-0.00327697,-0.00701134,0.01519,-0.00593896,-0.362858,0.0125825,0.015871,1973,869,29.9617,-5.13476
756,155,29.9603,5.46729,0.0178122,-0.00523846,-0.0104573,0.0218493,-0.00927556,-0.368426,0.0184523,0.0254807,1980,869,29.9604,-5.46728
763,155,30.1444,5.7373,0.0243611,-0.00793907,-0.0153385,0.0304842,-0.0140622,-0.379815,0.026295,0.040517,1987,869,30.1445,-5.7373
770,155,30.177,6.18658,0,0,0,0,0,0,0,-1,1994,869,30.177,-6.18659
777,155,30.1832,6.86523,0.0410486,-0.0159249,-0.0309719,0.0546422,-0.0295185,-0.413585,0.0493066,0.0456533,2001,869,30.1832,-6.86521
784,155,30.007,7.38416,0.0510553,-0.0213321,-0.0426407,0.070792,-0.0410688,-0.433498,0.0653384,0.0472045,2008,869,30.0069,-7.38413
791,155,0,0,0,0,0,0,0,0,0,-1,2015,869,0,0
798,155,0,0,0,0,0,0,0,0,0,-1,2022,869,0,0
805,155,0,0,0,0,0,0,0,0,0,-1,2029,869,0,0
812,155,0,0,0,0,0,0,0,0,0,-1,2036,869,0,0
-700,148,0,0,0,0,0,0,0,0,0,-1,524,876,0,0
-693,148,0,0,0,0,0,0,0,0,0,-1,531,876,0,0
-686,148,0,0,0,0,0,0,0,0,0,-1,538,876,0,0
-679,148,0,0,0,0,0,0,0,0,0,-1,545,876,0,0
-672,148,-21.1693,2.1568,0,0,0,0,0,0,0,-1,552,876,-21.1693,-2.15677
-665,148,-21.3365,2.4317,0,0,0,0,0,0,0,-1,559,876,-21.3366,-2.43167
-658,148,-21.5795,2.42114,0,0,0,0,0,0,0,-1,566,876,-21.5795,-2.42113
-651,148,-21.6953,2.34314,0,0,0,0,0,0,0,-1,573,876,-21.6953,-2.34316
-644,148,-22.3105,2.11597,0,0,0,0,0,0,0,-1,580,876,-22.3105,-2.11596
-637,148,-20.771,3.08594,0,0,0,0,0,0,0,-1,587,876,-20.771,-3.08592
-630,148,-21.1693,3.0545,0.0339862,-0.0217889,-0.0297736,0.0468931,-0.0346957,-0.409048,0.0472805,0.0484667,594,876,-21.1693,-3.0545
-623,148,-21.5375,2.89111,0.0219826,-0.0136007,-0.0203373,0.0312122,-0.0228303,-0.426032,0.0313263,0.0246459,601,876,-21.5376,-2.89114
-616,148,-21.6288,2.48572,0.0131119,-0.00768456,-0.0129265,0.0193034,-0.013876,-0.446685,0.0192414,0.0131873,608,876,-21.6288,-2.48574
-609,148,-21.6889,2.12915,0.00645876,-0.0036181,-0.00716969,0.0101833,-0.00734267,-0.479117,0.0101629,0.0121521,615,876,-21.6889,-2.12913
-602,148,-21.727,1.79974,0.00114242,-0.00122019,-0.00313262,0.00330907,-0.00338684,-0.605094,0.00386597,0.0131328,622,876,-21.727,-1.79973
-595,148,-21.7345,1.47296,-0.00137385,-0.000284032,-0.000716665,7.1356e-05,-0.00172924,-1.11044,0.00117733,0.0112607,629,876,-21.7345,-1.47297
-588,148,-21.7632,1.11969,-0.00186119,-0.000280346,0.000754204,2.17484e-05,-0.00216328,1.18982,0.00144949,0.0169213,636,876,-21.7633,-1.1197
-581,148,-21.869,0.846863,-0.0023304,-0.000371036,0.00127901,0.00026038,-0.00296181,1.11222,0.00206681,0.0298346,643,876,-21.8689,-0.846851
-574,148,-21.647,0.586243,-0.00225228,-0.000299378,0.00127243,0.000328083,-0.00287974,1.11267,0.00203801,0.0342831,650,876,-21.6471,-0.586254
-567,148,-21.7979,0.236877,-0.00160432,-0.000397251,0.00104619,0.000207008,-0.00220858,1.04702,0.00154601,0.0426869,657,876,-21.7978,-0.236887
-560,148,-21.8298,-0.292969,0,0,0,0,0,0,0,-1,664,876,-21.8298,0.292995
-553,148,-18.3896,-0.00280762,0,0,0,0,0,0,0,-1,671,876,-18.3897,0.00278524
-546,148,-26.0182,0.906006,0,0,0,0,0,0,0,-1,678,876,-26.0182,-0.905988
-539,148,-26.0889,0.720703,0.00152655,-4.65984e-05,0.000472018,0.00165731,-0.000177357,0.270244,0.00116849,0.0336056,685,876,-26.0889,-0.720733
-532,148,-26.1066,0.67572,0.00262845,8.79986e-05,0.000330302,0.00267069,4.5756e-05,0.1272,0.0017654,0.0326919,692,876,-26.1067,-0.675726
-525,148,-26.0847,0.760254,0.00386255,0.000104472,0.000201092,0.00387328,9.37418e-05,0.0533063,0.00255151,0.0373529,699,876,-26.0847,-0.760283
-518,148,-26.0266,0.764343,0.00560771,-0.000177732,0.00011513,0.00561,-0.000180022,0.0198895,0.00380143,0.0447239,706,876,-26.0265,-0.764369
-511,148,-25.8785,0.575989,0.00815356,-0.00123059,2.66069e-05,0.00815364,-0.00123067,0.00283527,0.005889,0.0417776,713,876,-25.8786,-0.575968
-504,148,-25.8231,0.318542,0.011226,-0.00320385,-0.000451478,0.0112401,-0.00321796,-0.0312471,0.00876521,0.0420578,720,876,-25.823,-0.318553
-497,148,0,0,0,0,0,0,0,0,0,-1,727,876,0,0
-490,148,0,0,0,0,0,0,0,0,0,-1,734,876,0,0
-483,148,0,0,0,0,0,0,0,0,0,-1,741,876,0,0
-476,148,0,0,0,0,0,0,0,0,0,-1,748,876,0,0
-469,148,0,0,0,0,0,0,0,0,0,-1,755,876,0,0
-462,148,0,0,0,0,0,0,0,0,0,-1,762,876,0,0
-455,148,0,0,0,0,0,0,0,0,0,-1,769,876,0,0
-448,148,0,0,0,0,0,0,0,0,0,-1,776,876,0,0
-441,148,0,0,0,0,0,0,0,0,0,-1,783,876,0,0
-434,148,0,0,0,0,0,0,0,0,0,-1,790,876,0,0
-427,148,0,0,0,0,0,0,0,0,0,-1,797,876,0,0
-420,148,0,0,0,0,0,0,0,0,0,-1,804,876,0,0
-413,148,0,0,0,0,0,0,0,0,0,-1,811,876,0,0
-406,148,0,0,0,0,0,0,0,0,0,-1,818,876,0,0
-399,148,0,0,0,0,0,0,0,0,0,-1,825,876,0,0
-392,148,0,0,0,0,0,0,0,0,0,-1,832,876,0,0
-385,148,0,0,0,0,0,0,0,0,0,-1,839,876,0,0
-378,148,0,0,0,0,0,0,0,0,0,-1,846,876,0,0
-371,148,0,0,0,0,0,0,0,0,0,-1,853,876,0,0
-364,148,0,0,0,0,0,0,0,0,0,-1,860,876,0,0
-357,148,0,0,0,0,0,0,0,0,0,-1,867,876,0,0
-350,148,0,0,0,0,0,0,0,0,0,-1,874,876,0,0
-343,148,0,0,0,0,0,0,0,0,0,-1,881,876,0,0
-336,148,0,0,0,0,0,0,0,0,0,-1,888,876,0,0
-329,148,0,0,0,0,0,0,0,0,0,-1,895,876,0,0
-322,148,0,0,0,0,0,0,0,0,0,-1,902,876,0,0
-315,148,0,0,0,0,0,0,0,0,0,-1,909,876,0,0
-308,148,0,0,0,0,0,0,0,0,0,-1,916,876,0,0
-301,148,0,0,0,0,0,0,0,0,0,-1,923,876,0,0
-294,148,0,0,0,0,0,0,0,0,0,-1,930,876,0,0
-287,148,0,0,0,0,0,0,0,0,0,-1,937,876,0,0
-280,148,0,0,0,0,0,0,0,0,0,-1,944,876,0,0
-273,148,0,0,0,0,0,0,0,0,0,-1,951,876,0,0
-266,148,0,0,0,0,0,0,0,0,0,-1,958,876,0,0
-259,148,0,0,0,0,0,0,0,0,0,-1,965,876,0,0
-252,148,0,0,0,0,0,0,0,0,0,-1,972,876,0,0
-245,148,0,0,0,0,0,0,0,0,0,-1,979,876,0,0
-238,148,0,0,0,0,0,0,0,0,0,-1,986,876,0,0
-231,148,0,0,0,0,0,0,0,0,0,-1,993,876,0,0
-224,148,0,0,0,0,0,0,0,0,0,-1,1000,876,0,0
-217,148,0,0,0,0,0,0,0,0,0,-1,1007,876,0,0
-210,148,0,0,0,0,0,0,0,0,0,-1,1014,876,0,0
-203,148,0,0,0,0,0,0,0,0,0,-1,1021,876,0,0
-196,148,0,0,0,0,0,0,0,0,0,-1,1028,876,0,0
-189,148,0,0,0,0,0,0,0,0,0,-1,1035,876,0,0
-182,148,0,0,0,0,0,0,0,0,0,-1,1042,876,0,0
-175,148,0,0,0,0,0,0,0,0,0,-1,1049,876,0,0
-168,148,0,0,0,0,0,0,0,0,0,-1,1056,876,0,0
-161,148,0,0,0,0,0,0,0,0,0,-1,1063,876,0,0
-154,148,0,0,0,0,0,0,0,0,0,-1,1070,876,0,0
-147,148,0,0,0,0,0,0,0,0,0,-1,1077,876,0,0
-140,148,0,0,0,0,0,0,0,0,0,-1,1084,876,0,0
-133,148,0,0,0,0,0,0,0,0,0,-1,1091,876,0,0
-126,148,0,0,0,0,0,0,0,0,0,-1,1098,876,0,0
-119,148,0,0,0,0,0,0,0,0,0,-1,1105,876,0,0
-112,148,0,0,0,0,0,0,0,0,0,-1,1112,876,0,0
-105,148,0,0,0,0,0,0,0,0,0,-1,1119,876,0,0
-98,148,0,0,0,0,0,0,0,0,0,-1,1126,876,0,0
-91,148,0,0,0,0,0,0,0,0,0,-1,1133,876,0,0
-84,148,0,0,0,0,0,0,0,0,0,-1,1140,876,0,0
-77,148,0,0,0,0,0,0,0,0,0,-1,1147,876,0,0
-70,148,0,0,0,0,0,0,0,0,0,-1,1154,876,0,0
-63,148,0,0,0,0,0,0,0,0,0,-1,1161,876,0,0
-56,148,0,0,0,0,0,0,0,0,0,-1,1168,876,0,0
-49,148,0,0,0,0,0,0,0,0,0,-1,1175,876,0,0
-42,148,0,0,0,0,0,0,0,0,0,-1,1182,876,0,0
-35,148,0,0,0,0,0,0,0,0,0,-1,1189,876,0,0
-28,148,0,0,0,0,0,0,0,0,0,-1,1196,876,0,0
-21,148,0,0,0,0,0,0,0,0,0,-1,1203,876,0,0
-14,148,0,0,0,0,0,0,0,0,0,-1,1210,876,0,0
-7,148,0,0,0,0,0,0,0,0,0,-1,1217,876,0,0
0,148,0,0,0,0,0,0,0,0,0,-1,1224,876,0,0
7,148,0,0,0,0,0,0,0,0,0,-1,1231,876,0,0
14,148,0,0,0,0,0,0,0,0,0,-1,1238,876,0,0
21,148,0,0,0,0,0,0,0,0,0,-1,1245,876,0,0
28,148,0,0,0,0,0,0,0,0,0,-1,1252,876,0,0
35,148,0,0,0,0,0,0,0,0,0,-1,1259,876,0,0
42,148,0,0,0,0,0,0,0,0,0,-1,1266,876,0,0
49,148,0,0,0,0,0,0,0,0,0,-1,1273,876,0,0
56,148,0,0,0,0,0,0,0,0,0,-1,1280,876,0,0
63,148,0,0,0,0,0,0,0,0,0,-1,1287,876,0,0
70,148,0,0,0,0,0,0,0,0,0,-1,1294,876,0,0
77,148,0,0,0,0,0,0,0,0,0,-1,1301,876,0,0
84,148,0,0,0,0,0,0,0,0,0,-1,1308,876,0,0
91,148,0,0,0,0,0,0,0,0,0,-1,1315,876,0,0
98,148,0,0,0,0,0,0,0,0,0,-1,1322,876,0,0
105,148,0,0,0,0,0,0,0,0,0,-1,1329,876,0,0
112,148,0,0,0,0,0,0,0,0,0,-1,1336,876,0,0
119,148,0,0,0,0,0,0,0,0,0,-1,1343,876,0,0
126,148,0,0,0,0,0,0,0,0,0,-1,1350,876,0,0
133,148,0,0,0,0,0,0,0,0,0,-1,1357,876,0,0
140,148,0,0,0,0,0,0,0,0,0,-1,1364,876,0,0
147,148,0,0,0,0,0,0,0,0,0,-1,1371,876,0,0
154,148,0,0,0,0,0,0,0,0,0,-1,1378,876,0,0
161,148,0,0,0,0,0,0,0,0,0,-1,1385,876,0,0
168,148,0,0,0,0,0,0,0,0,0,-1,1392,876,0,0
175,148,0,0,0,0,0,0,0,0,0,-1,1399,876,0,0
182,148,0,0,0,0,0,0,0,0,0,-1,1406,876,0,0
189,148,0,0,0,0,0,0,0,0,0,-1,1413,876,0,0
196,148,0,0,0,0,0,0,0,0,0,-1,1420,876,0,0
203,148,0,0,0,0,0,0,0,0,0,-1,1427,876,0,0
210,148,0,0,0,0,0,0,0,0,0,-1,1434,876,0,0
217,148,0,0,0,0,0,0,0,0,0,-1,1441,876,0,0
224,148,0,0,0,0,0,0,0,0,0,-1,1448,876,0,0
231,148,0,0,0,0,0,0,0,0,0,-1,1455,876,0,0
238,148,0,0,0,0,0,0,0,0,0,-1,1462,876,0,0
245,148,0,0,0,0,0,0,0,0,0,-1,1469,876,0,0
252,148,0,0,0,0,0,0,0,0,0,-1,1476,876,0,0
259,148,0,0,0,0,0,0,0,0,0,-1,1483,876,0,0
266,148,0,0,0,0,0,0,0,0,0,-1,1490,876,0,0
273,148,0,0,0,0,0,0,0,0,0,-1,1497,876,0,0
280,148,0,0,0,0,0,0,0,0,0,-1,1504,876,0,0
287,148,0,0,0,0,0,0,0,0,0,-1,1511,876,0,0
294,148,0,0,0,0,0,0,0,0,0,-1,1518,876,0,0
301,148,0,0,0,0,0,0,0,0,0,-1,1525,876,0,0
308,148,0,0,0,0,0,0,0,0,0,-1,1532,876,0,0
315,148,0,0,0,0,0,0,0,0,0,-1,1539,876,0,0
322,148,0,0,0,0,0,0,0,0,0,-1,1546,876,0,0
329,148,0,0,0,0,0,0,0,0,0,-1,1553,876,0,0
336,148,0,0,0,0,0,0,0,0,0,-1,1560,876,0,0
343,148,0,0,0,0,0,0,0,0,0,-1,1567,876,0,0
350,148,0,0,0,0,0,0,0,0,0,-1,1574,876,0,0
357,148,0,0,0,0,0,0,0,0,0,-1,1581,876,0,0
364,148,0,0,0,0,0,0,0,0,0,-1,1588,876,0,0
371,148,0,0,0,0,0,0,0,0,0,-1,1595,876,0,0
378,148,0,0,0,0,0,0,0,0,0,-1,1602,876,0,0
385,148,0,0,0,0,0,0,0,0,0,-1,1609,876,0,0
392,148,0,0,0,0,0,0,0,0,0,-1,1616,876,0,0
399,148,0,0,0,0,0,0,0,0,0,-1,1623,876,0,0
406,148,0,0,0,0,0,0,0,0,0,-1,1630,876,0,0
413,148,0,0,0,0,0,0,0,0,0,-1,1637,876,0,0
420,148,0,0,0,0,0,0,0,0,0,-1,1644,876,0,0
427,148,0,0,0,0,0,0,0,0,0,-1,1651,876,0,0
434,148,0,0,0,0,0,0,0,0,0,-1,1658,876,0,0
441,148,0,0,0,0,0,0,0,0,0,-1,1665,876,0,0
448,148,0,0,0,0,0,0,0,0,0,-1,1672,876,0,0
455,148,0,0,0,0,0,0,0,0,0,-1,1679,876,0,0
462,148,0,0,0,0,0,0,0,0,0,-1,1686,876,0,0
469,148,0,0,0,0,0,0,0,0,0,-1,1693,876,0,0
476,148,0,0,0,0,0,0,0,0,0,-1,1700,876,0,0
483,148,0,0,0,0,0,0,0,0,0,-1,1707,876,0,0
490,148,0,0,0,0,0,0,0,0,0,-1,1714,876,0,0
497,148,0,0,0,0,0,0,0,0,0,-1,1721,876,0,0
504,148,0,0,0,0,0,0,0,0,0,-1,1728,876,0,0
511,148,0,0,0,0,0,0,0,0,0,-1,1735,876,0,0
518,148,0,0,0,0,0,0,0,0,0,-1,1742,876,0,0
525,148,0,0,0,0,0,0,0,0,0,-1,1749,876,0,0
532,148,0,0,0,0,0,0,0,0,0,-1,1756,876,0,0
539,148,0,0,0,0,0,0,0,0,0,-1,1763,876,0,0
546,148,0,0,0,0,0,0,0,0,0,-1,1770,876,0,0
553,148,0,0,0,0,0,0,0,0,0,-1,1777,876,0,0
560,148,0,0,0,0,0,0,0,0,0,-1,1784,876,0,0
567,148,0,0,0,0,0,0,0,0,0,-1,1791,876,0,0
574,148,0,0,0,0,0,0,0,0,0,-1,1798,876,0,0
581,148,0,0,0,0,0,0,0,0,0,-1,1805,876,0,0
588,148,0,0,0,0,0,0,0,0,0,-1,1812,876,0,0
595,148,0,0,0,0,0,0,0,0,0,-1,1819,876,0,0
602,148,0,0,0,0,0,0,0,0,0,-1,1826,876,0,0
609,148,0,0,0,0,0,0,0,0,0,-1,1833,876,0,0
616,148,0,0,0,0,0,0,0,0,0,-1,1840,876,0,0
623,148,35.8779,2.46478,0.00823757,0.00627754,-0.00325331,0.0106553,0.00385984,-0.639103,0.00622916,0.0412581,1847,876,35.8779,-2.4648
630,148,35.8522,2.47021,0.00593541,0.00445706,-0.0023522,0.00766184,0.00273063,-0.63316,0.00448397,0.0400704,1854,876,35.8522,-2.47024
637,148,35.7717,2.45129,0.00418539,0.00297335,-0.00165003,0.00533717,0.00182157,-0.609405,0.00313273,0.0356345,1861,876,35.7717,-2.45129
644,148,35.8165,2.46436,0.00286031,0.00172371,-0.0011796,0.00360137,0.000982654,-0.560917,0.00214958,0.0358194,1868,876,35.8166,-2.46437
651,148,35.9193,2.38971,0.00197843,0.000776621,-0.000909374,0.0024675,0.00028755,-0.493437,0.00155802,0.0379407,1875,876,35.9194,-2.38972
658,148,35.8309,2.43896,0.00143534,7.32702e-05,-0.000808304,0.00181127,-0.000302654,-0.435321,0.00132001,0.0326619,1882,876,35.831,-2.43895
665,148,35.7493,2.5863,0.000979738,-0.000357397,-0.000762747,0.00132545,-0.000703111,-0.425551,0.00118942,0.0253522,1889,876,35.7493,-2.58628
672,148,35.7823,2.54047,0.000586345,-0.000761884,-0.000717958,0.000897062,-0.0010726,-0.408442,0.00113869,0.0301729,1896,876,35.7823,-2.54046
679,148,35.8436,2.45209,0,0,0,0,0,0,0,-1,1903,876,35.8437,-2.45211
686,148,21.6195,2.40845,0,0,0,0,0,0,0,-1,1910,876,21.6196,-2.40846
693,148,30.3558,2.3764,0,0,0,0,0,0,0,-1,1917,876,30.3558,-2.37638
700,148,30.5557,2.76166,-1.34422e-05,-0.000911172,-0.000798503,0.00045371,-0.00137832,-0.529343,0.00110171,0.024122,1924,876,30.5557,-2.76169
707,148,30.6866,3.22919,0.000116758,-0.00074418,-0.00105046,0.000821532,-0.00144895,-0.59094,0.00132744,0.0204108,1931,876,30.6867,-3.22919
714,148,30.5901,3.45337,0.00056492,-0.000418246,-0.00126511,0.0014306,-0.00128393,-0.600092,0.001568,0.0195918,1938,876,30.5901,-3.45338
721,148,30.3579,3.7403,0.00111526,-0.00015808,-0.00133822,0.00196054,-0.00100336,-0.563365,0.0017407,0.0181255,1945,876,30.3579,-3.74032
728,148,30.353,4.09399,0.00209197,-0.000135225,-0.00158969,0.0029193,-0.000962559,-0.479863,0.00233418,0.020005,1952,876,30.3531,-4.09398
735,148,30.3889,4.44574,0.00427702,-0.000321051,-0.0027507,0.00556295,-0.00160697,-0.437302,0.00434451,0.0181835,1959,876,30.3889,-4.44576
742,148,30.3738,4.78735,0.00769305,-0.00130038,-0.00521047,0.0100789,-0.00368621,-0.429397,0.008228,0.0204945,1966,876,30.3738,-4.78736
749,148,30.304,5.11633,0.0117688,-0.00248364,-0.0078744,0.0152628,-0.00597764,-0.417617,0.0126477,0.0194388,1973,876,30.3039,-5.11634
756,148,30.2997,5.49316,0.0170302,-0.00426175,-0.0116057,0.0221331,-0.00936469,-0.41425,0.0186767,0.0225866,1980,876,30.2997,-5.49318
763,148,30.6525,5.75293,0.023622,-0.00677075,-0.016732,0.0310284,-0.0141772,-0.416729,0.0266971,0.0413457,1987,876,30.6524,-5.75291
770,148,30.9958,6.01221,0,0,0,0,0,0,0,-1,1994,876,30.9958,-6.0122
777,148,30.5608,7.15826,0.0408525,-0.0144549,-0.03277,0.0560777,-0.0296801,-0.434935,0.0502881,0.0439652,2001,876,30.5607,-7.15826
784,148,30.8549,6.95325,0.0514056,-0.0197696,-0.0444726,0.0727767,-0.0411406,-0.447963,0.0666102,0.0427836,2008,876,30.8549,-6.95324
791,148,30.9332,6.56201,0.0628513,-0.0261506,-0.0593613,0.09254,-0.0558393,-0.463756,0.0865359,0.0462928,2015,876,30.9332,-6.56201
798,148,0,0,0,0,0,0,0,0,0,-1,2022,876,0,0
805,148,0,0,0,0,0,0,0,0,0,-1,2029,876,0,0
812,148,0,0,0,0,0,0,0,0,0,-1,2036,876,0,0
-700,141,0,0,0,0,0,0,0,0,0,-1,524,883,0,0
-693,141,0,0,0,0,0,0,0,0,0,-1,531,883,0,0
-686,141,0,0,0,0,0,0,0,0,0,-1,538,883,0,0
-679,141,0,0,0,0,0,0,0,0,0,-1,545,883,0,0
-672,141,-22.2333,2.10687,0,0,0,0,0,0,0,-1,552,883,-22.2333,-2.10687
-665,141,-22.3623,2.50317,0,0,0,0,0,0,0,-1,559,883,-22.3623,-2.50315
-658,141,-26.4724,-3.56158,0,0,0,0,0,0,0,-1,566,883,-26.4724,3.56156
-651,141,-25.7054,-3.61578,0,0,0,0,0,0,0,-1,573,883,-25.7054,3.61581
-644,141,-25.9384,-2.81348,0,0,0,0,0,0,0,-1,580,883,-25.9384,2.81349
-637,141,-21.2526,2.71228,0,0,0,0,0,0,0,-1,587,883,-21.2526,-2.71229
-630,141,-21.5839,2.83569,0,0,0,0,0,0,0,-1,594,883,-21.5839,-2.83569
-623,141,-21.9153,2.95911,0,0,0,0,0,0,0,-1,601,883,-21.9153,-2.95908
-616,141,-21.973,2.45361,0.0141763,-0.0083593,-0.00960212,0.0177127,-0.0118957,-0.352877,0.017204,0.0129211,608,883,-21.973,-2.45364
-609,141,-22.0308,2.12567,0.00700272,-0.00386533,-0.00480065,0.00881955,-0.00568216,-0.361796,0.00843762,0.0136904,615,883,-22.0308,-2.12569
-602,141,-22.0493,1.80212,0.00123748,-0.00133706,-0.00167405,0.00206197,-0.00216154,-0.457638,0.00243867,0.0132353,622,883,-22.0493,-1.80212
-595,141,-22.0455,1.48047,-0.00152151,-0.000368334,1.08871e-05,-0.000368231,-0.00152161,1.56136,0.000916661,0.0121631,629,883,-22.0455,-1.48046
-588,141,-22.2719,1.15204,-0.00212514,-0.000411252,0.000910359,-1.79536e-05,-0.00251844,1.16299,0.00167301,0.0219118,636,883,-22.2719,-1.15202
-581,141,-22.2499,0.849609,-0.00275093,-0.000473899,0.00122752,6.18114e-05,-0.00328664,1.1593,0.00221199,0.0301981,643,883,-22.2499,-0.8496
-574,141,-21.9702,0.670105,-0.00268985,-0.000411954,0.00123603,0.000129861,-0.00323166,1.15767,0.00219901,0.0388046,650,883,-21.9702,-0.670134
-567,141,-22.0111,0.393372,-0.00204093,-0.000498575,0.00106501,4.51468e-05,-0.00258465,1.09876,0.00173834,0.0385564,657,883,-22.0111,-0.393364
-560,141,-22.0159,0.173096,0,0,0,0,0,0,0,-1,664,883,-22.016,-0.173083
-553,141,-25.959,0.930969,0,0,0,0,0,0,0,-1,671,883,-25.9591,-0.930974
-546,141,-25.9908,0.834229,0.000157172,-9.54404e-06,0.000708279,0.000786981,-0.000639353,0.726822,0.000824963,0.0423665,678,883,-25.9908,-0.834244
-539,141,-26.0188,0.727234,0.00104444,9.95743e-05,0.00053921,0.0012889,-0.000144889,0.425655,0.000911413,0.0289624,685,883,-26.0188,-0.727234
-532,141,-26.1027,0.629883,0.00225196,0.000310976,0.000437643,0.00234607,0.000216862,0.211822,0.001497,0.0281246,692,883,-26.1027,-0.629902
-525,141,-26.1255,0.679321,0.00369729,0.000391276,0.000344593,0.00373283,0.00035574,0.10276,0.00237886,0.0369332,699,883,-26.1255,-0.679293
-518,141,-26.0457,0.777649,0.0058513,0.000145836,0.00032395,0.00586963,0.000127502,0.0565367,0.00387129,0.042124,706,883,-26.0456,-0.777663
-511,141,-25.9265,0.800537,0.00890272,-0.00109115,0.000250583,0.008909,-0.00109743,0.0250527,0.0063369,0.0396131,713,883,-25.9265,-0.800519
-504,141,-25.9286,0.794434,0.0127159,-0.00317294,-0.000198044,0.0127184,-0.00317541,-0.0124617,0.00971201,0.0407291,720,883,-25.9286,-0.794453
-497,141,0,0,0,0,0,0,0,0,0,-1,727,883,0,0
-490,141,0,0,0,0,0,0,0,0,0,-1,734,883,0,0
-483,141,0,0,0,0,0,0,0,0,0,-1,741,883,0,0
-476,141,0,0,0,0,0,0,0,0,0,-1,748,883,0,0
-469,141,0,0,0,0,0,0,0,0,0,-1,755,883,0,0
-462,141,0,0,0,0,0,0,0,0,0,-1,762,883,0,0
-455,141,0,0,0,0,0,0,0,0,0,-1,769,883,0,0
-448,141,0,0,0,0,0,0,0,0,0,-1,776,883,0,0
-441,141,0,0,0,0,0,0,0,0,0,-1,783,883,0,0
-434,141,0,0,0,0,0,0,0,0,0,-1,790,883,0,0
-427,141,0,0,0,0,0,0,0,0,0,-1,797,883,0,0
-420,141,0,0,0,0,0,0,0,0,0,-1,804,883,0,0
-413,141,0,0,0,0,0,0,0,0,0,-1,811,883,0,0
-406,141,0,0,0,0,0,0,0,0,0,-1,818,883,0,0
-399,141,0,0,0,0,0,0,0,0,0,-1,825,883,0,0
-392,141,0,0,0,0,0,0,0,0,0,-1,832,883,0,0
-385,141,0,0,0,0,0,0,0,0,0,-1,839,883,0,0
-378,141,0,0,0,0,0,0,0,0,0,-1,846,883,0,0
-371,141,0,0,0,0,0,0,0,0,0,-1,853,883,0,0
-364,141,0,0,0,0,0,0,0,0,0,-1,860,883,0,0
-357,141,0,0,0,0,0,0,0,0,0,-1,867,883,0,0
-350,141,0,0,0,0,0,0,0,0,0,-1,874,883,0,0
-343,141,0,0,0,0,0,0,0,0,0,-1,881,883,0,0
-336,141,0,0,0,0,0,0,0,0,0,-1,888,883,0,0
-329,141,0,0,0,0,0,0,0,0,0,-1,895,883,0,0
-322,141,0,0,0,0,0,0,0,0,0,-1,902,883,0,0
-315,141,0,0,0,0,0,0,0,0,0,-1,909,883,0,0
-308,141,0,0,0,0,0,0,0,0,0,-1,916,883,0,0
-301,141,0,0,0,0,0,0,0,0,0,-1,923,883,0,0
-294,141,0,0,0,0,0,0,0,0,0,-1,930,883,0,0
-287,141,0,0,0,0,0,0,0,0,0,-1,937,883,0,0
-280,141,0,0,0,0,0,0,0,0,0,-1,944,883,0,0
-273,141,0,0,0,0,0,0,0,0,0,-1,951,883,0,0
-266,141,0,0,0,0,0,0,0,0,0,-1,958,883,0,0
-259,141,0,0,0,0,0,0,0,0,0,-1,965,883,0,0
-252,141,0,0,0,0,0,0,0,0,0,-1,972,883,0,0
-245,141,0,0,0,0,0,0,0,0,0,-1,979,883,0,0
-238,141,0,0,0,0,0,0,0,0,0,-1,986,883,0,0
-231,141,0,0,0,0,0,0,0,0,0,-1,993,883,0,0
-224,141,0,0,0,0,0,0,0,0,0,-1,1000,883,0,0
-217,141,0,0,0,0,0,0,0,0,0,-1,1007,883,0,0
-210,141,0,0,0,0,0,0,0,0,0,-1,1014,883,0,0
-203,141,0,0,0,0,0,0,0,0,0,-1,1021,883,0,0
-196,141,0,0,0,0,0,0,0,0,0,-1,1028,883,0,0
-189,141,0,0,0,0,0,0,0,0,0,-1,1035,883,0,0
-182,141,0,0,0,0,0,0,0,0,0,-1,1042,883,0,0
-175,141,0,0,0,0,0,0,0,0,0,-1,1049,883,0,0
-168,141,0,0,0,0,0,0,0,0,0,-1,1056,883,0,0
-161,141,0,0,0,0,0,0,0,0,0,-1,1063,883,0,0
-154,141,0,0,0,0,0,0,0,0,0,-1,1070,883,0,0
-147,141,0,0,0,0,0,0,0,0,0,-1,1077,883,0,0
-140,141,0,0,0,0,0,0,0,0,0,-1,1084,883,0,0
-133,141,0,0,0,0,0,0,0,0,0,-1,1091,883,0,0
-126,141,0,0,0,0,0,0,0,0,0,-1,1098,883,0,0
-119,141,0,0,0,0,0,0,0,0,0,-1,1105,883,0,0
-112,141,0,0,0,0,0,0,0,0,0,-1,1112,883,0,0
-105,141,0,0,0,0,0,0,0,0,0,-1,1119,883,0,0
-98,141,0,0,0,0,0,0,0,0,0,-1,1126,883,0,0
-91,141,0,0,0,0,0,0,0,0,0,-1,1133,883,0,0
-84,141,0,0,0,0,0,0,0,0,0,-1,1140,883,0,0
-77,141,0,0,0,0,0,0,0,0,0,-1,1147,883,0,0
-70,141,0,0,0,0,0,0,0,0,0,-1,1154,883,0,0
-63,141,0,0,0,0,0,0,0,0,0,-1,1161,883,0,0
-56,141,0,0,0,0,0,0,0,0,0,-1,1168,883,0,0
-49,141,0,0,0,0,0,0,0,0,0,-1,1175,883,0,0
-42,141,0,0,0,0,0,0,0,0,0,-1,1182,883,0,0
-35,141,0,0,0,0,0,0,0,0,0,-1,1189,883,0,0
-28,141,0,0,0,0,0,0,0,0,0,-1,1196,883,0,0
-21,141,0,0,0,0,0,0,0,0,0,-1,1203,883,0,0
-14,141,0,0,0,0,0,0,0,0,0,-1,1210,883,0,0
-7,141,0,0,0,0,0,0,0,0,0,-1,1217,883,0,0
0,141,0,0,0,0,0,0,0,0,0,-1,1224,883,0,0
7,141,0,0,0,0,0,0,0,0,0,-1,1231,883,0,0
14,141,0,0,0,0,0,0,0,0,0,-1,1238,883,0,0
21,141,0,0,0,0,0,0,0,0,0,-1,1245,883,0,0
28,141,0,0,0,0,0,0,0,0,0,-1,1252,883,0,0
35,141,0,0,0,0,0,0,0,0,0,-1,1259,883,0,0
42,141,0,0,0,0,0,0,0,0,0,-1,1266,883,0,0
49,141,0,0,0,0,0,0,0,0,0,-1,1273,883,0,0
56,141,0,0,0,0,0,0,0,0,0,-1,1280,883,0,0
63,141,0,0,0,0,0,0,0,0,0,-1,1287,883,0,0
70,141,0,0,0,0,0,0,0,0,0,-1,1294,883,0,0
77,141,0,0,0,0,0,0,0,0,0,-1,1301,883,0,0
84,141,0,0,0,0,0,0,0,0,0,-1,1308,883,0,0
91,141,0,0,0,0,0,0,0,0,0,-1,1315,883,0,0
98,141,0,0,0,0,0,0,0,0,0,-1,1322,883,0,0
105,141,0,0,0,0,0,0,0,0,0,-1,1329,883,0,0
112,141,0,0,0,0,0,0,0,0,0,-1,1336,883,0,0
119,141,0,0,0,0,0,0,0,0,0,-1,1343,883,0,0
126,141,0,0,0,0,0,0,0,0,0,-1,1350,883,0,0
133,141,0,0,0,0,0,0,0,0,0,-1,1357,883,0,0
140,141,0,0,0,0,0,0,0,0,0,-1,1364,883,0,0
147,141,0,0,0,0,0,0,0,0,0,-1,1371,883,0,0
154,141,0,0,0,0,0,0,0,0,0,-1,1378,883,0,0
161,141,0,0,0,0,0,0,0,0,0,-1,1385,883,0,0
168,141,0,0,0,0,0,0,0,0,0,-1,1392,883,0,0
175,141,0,0,0,0,0,0,0,0,0,-1,1399,883,0,0
182,141,0,0,0,0,0,0,0,0,0,-1,1406,883,0,0
189,141,0,0,0,0,0,0,0,0,0,-1,1413,883,0,0
196,141,0,0,0,0,0,0,0,0,0,-1,1420,883,0,0
203,141,0,0,0,0,0,0,0,0,0,-1,1427,883,0,0
210,141,0,0,0,0,0,0,0,0,0,-1,1434,883,0,0
217,141,0,0,0,0,0,0,0,0,0,-1,1441,883,0,0
224,141,0,0,0,0,0,0,0,0,0,-1,1448,883,0,0
231,141,0,0,0,0,0,0,0,0,0,-1,1455,883,0,0
238,141,0,0,0,0,0,0,0,0,0,-1,1462,883,0,0
245,141,0,0,0,0,0,0,0,0,0,-1,1469,883,0,0
252,141,0,0,0,0,0,0,0,0,0,-1,1476,883,0,0
259,141,0,0,0,0,0,0,0,0,0,-1,1483,883,0,0
266,141,0,0,0,0,0,0,0,0,0,-1,1490,883,0,0
273,141,0,0,0,0,0,0,0,0,0,-1,1497,883,0,0
280,141,0,0,0,0,0,0,0,0,0,-1,1504,883,0,0
287,141,0,0,0,0,0,0,0,0,0,-1,1511,883,0,0
294,141,0,0,0,0,0,0,0,0,0,-1,1518,883,0,0
301,141,0,0,0,0,0,0,0,0,0,-1,1525,883,0,0
308,141,0,0,0,0,0,0,0,0,0,-1,1532,883,0,0
315,141,0,0,0,0,0,0,0,0,0,-1,1539,883,0,0
322,141,0,0,0,0,0,0,0,0,0,-1,1546,883,0,0
329,141,0,0,0,0,0,0,0,0,0,-1,1553,883,0,0
336,141,0,0,0,0,0,0,0,0,0,-1,1560,883,0,0
343,141,0,0,0,0,0,0,0,0,0,-1,1567,883,0,0
350,141,0,0,0,0,0,0,0,0,0,-1,1574,883,0,0
357,141,0,0,0,0,0,0,0,0,0,-1,1581,883,0,0
364,141,0,0,0,0,0,0,0,0,0,-1,1588,883,0,0
371,141,0,0,0,0,0,0,0,0,0,-1,1595,883,0,0
378,141,0,0,0,0,0,0,0,0,0,-1,1602,883,0,0
385,141,0,0,0,0,0,0,0,0,0,-1,1609,883,0,0
392,141,0,0,0,0,0,0,0,0,0,-1,1616,883,0,0
399,141,0,0,0,0,0,0,0,0,0,-1,1623,883,0,0
406,141,0,0,0,0,0,0,0,0,0,-1,1630,883,0,0
413,141,0,0,0,0,0,0,0,0,0,-1,1637,883,0,0
420,141,0,0,0,0,0,0,0,0,0,-1,1644,883,0,0
427,141,0,0,0,0,0,0,0,0,0,-1,1651,883,0,0
434,141,0,0,0,0,0,0,0,0,0,-1,1658,883,0,0
441,141,0,0,0,0,0,0,0,0,0,-1,1665,883,0,0
448,141,0,0,0,0,0,0,0,0,0,-1,1672,883,0,0
455,141,0,0,0,0,0,0,0,0,0,-1,1679,883,0,0
462,141,0,0,0,0,0,0,0,0,0,-1,1686,883,0,0
469,141,0,0,0,0,0,0,0,0,0,-1,1693,883,0,0
476,141,0,0,0,0,0,0,0,0,0,-1,1700,883,0,0
483,141,0,0,0,0,0,0,0,0,0,-1,1707,883,0,0
490,141,0,0,0,0,0,0,0,0,0,-1,1714,883,0,0
497,141,0,0,0,0,0,0,0,0,0,-1,1721,883,0,0
504,141,0,0,0,0,0,0,0,0,0,-1,1728,883,0,0
511,141,0,0,0,0,0,0,0,0,0,-1,1735,883,0,0
518,141,0,0,0,0,0,0,0,0,0,-1,1742,883,0,0
525,141,0,0,0,0,0,0,0,0,0,-1,1749,883,0,0
532,141,0,0,0,0,0,0,0,0,0,-1,1756,883,0,0
539,141,0,0,0,0,0,0,0,0,0,-1,1763,883,0,0
546,141,0,0,0,0,0,0,0,0,0,-1,1770,883,0,0
553,141,0,0,0,0,0,0,0,0,0,-1,1777,883,0,0
560,141,0,0,0,0,0,0,0,0,0,-1,1784,883,0,0
567,141,0,0,0,0,0,0,0,0,0,-1,1791,883,0,0
574,141,0,0,0,0,0,0,0,0,0,-1,1798,883,0,0
581,141,0,0,0,0,0,0,0,0,0,-1,1805,883,0,0
588,141,0,0,0,0,0,0,0,0,0,-1,1812,883,0,0
595,141,0,0,0,0,0,0,0,0,0,-1,1819,883,0,0
602,141,0,0,0,0,0,0,0,0,0,-1,1826,883,0,0
609,141,0,0,0,0,0,0,0,0,0,-1,1833,883,0,0
616,141,0,0,0,0,0,0,0,0,0,-1,1840,883,0,0
623,141,35.7657,2.19165,0.00871153,0.00475876,-0.00421321,0.0113889,0.00208141,-0.56609,0.00700266,0.0446889,1847,883,35.7658,-2.19167
630,141,35.8376,2.15808,0.00601721,0.00332608,-0.00284592,0.00781962,0.00152366,-0.56457,0.00478672,0.0457647,1854,883,35.8377,-2.15811
637,141,35.7035,2.45721,0.00412158,0.00225165,-0.00182266,0.00523509,0.00113814,-0.548413,0.00317933,0.041285,1861,883,35.7035,-2.45723
644,141,35.791,2.49091,0.00273799,0.00131378,-0.00114859,0.00337731,0.000674464,-0.507907,0.00206379,0.0394042,1868,883,35.7911,-2.49093
651,141,36.0117,2.52411,0.00184374,0.000546929,-0.000769721,0.00220176,0.000188905,-0.435369,0.0014091,0.0389808,1875,883,36.0117,-2.52409
658,141,35.9479,2.50201,0.00134637,-6.42782e-05,-0.000616651,0.00157793,-0.000295832,-0.35921,0.00116317,0.0348721,1882,883,35.9479,-2.50199
665,141,35.7086,2.55902,0.00099087,-0.000467905,-0.000571761,0.00118826,-0.000665295,-0.33242,0.00108426,0.0279565,1889,883,35.7086,-2.55902
672,141,35.7671,2.54077,0.00069765,-0.000836396,-0.000543707,0.000870809,-0.00100955,-0.308322,0.00108661,0.0215993,1896,883,35.7671,-2.54076
679,141,35.8074,2.47772,0.000563149,-0.0010284,-0.000536565,0.000727144,-0.0011924,-0.296623,0.00111905,0.03501,1903,883,35.8074,-2.47772
686,141,35.8379,2.34503,0,0,0,0,0,0,0,-1,1910,883,35.8379,-2.34506
693,141,30.5391,2.27325,0,0,0,0,0,0,0,-1,1917,883,30.5391,-2.27328
700,141,30.8673,2.74774,0.000206346,-0.000928095,-0.000704184,0.000543346,-0.00126509,-0.446355,0.00107146,0.023039,1924,883,30.8674,-2.74776
707,141,30.8811,3.15118,0.000352301,-0.000816111,-0.00101994,0.000943503,-0.00140731,-0.525315,0.00136602,0.0208113,1931,883,30.8811,-3.15118
714,141,30.7318,3.39532,0.000775905,-0.000470787,-0.00127391,0.0015708,-0.00126569,-0.557867,0.0016408,0.0203128,1938,883,30.7318,-3.39531
721,141,30.6965,3.71405,0.00117232,-0.000202074,-0.00132574,0.00197839,-0.00100814,-0.546289,0.00175434,0.0136407,1945,883,30.6966,-3.71406
728,141,30.7496,4.05591,0.00196181,-9.11769e-05,-0.00152604,0.00277447,-0.000903836,-0.489331,0.00221332,0.0155154,1952,883,30.7496,-4.05592
735,141,30.7935,4.47296,0.00400313,-0.000207359,-0.00262237,0.00526076,-0.00146498,-0.447174,0.00408404,0.0159297,1959,883,30.7934,-4.47298
742,141,30.7393,4.8031,0.00722873,-0.00106858,-0.00498033,0.00956197,-0.00340183,-0.438125,0.00776121,0.0166745,1966,883,30.7392,-4.80311
749,141,30.7068,5.11469,0.0112159,-0.00213369,-0.00761479,0.0146672,-0.005585,-0.425542,0.0120782,0.0146445,1973,883,30.7067,-5.11469
756,141,30.6869,5.48175,0.0164297,-0.00378087,-0.011258,0.0214526,-0.00880371,-0.419652,0.0179701,0.0201304,1980,883,30.6869,-5.48177
763,141,31.0543,5.67529,0.0229896,-0.00612865,-0.0161633,0.0301841,-0.0133232,-0.418783,0.0257401,0.0439812,1987,883,31.0544,-5.67528
770,141,30.3544,6.7868,0,0,0,0,0,0,0,-1,1994,883,30.3544,-6.78679
777,141,30.9818,7.0567,0.0404543,-0.0134791,-0.0312455,0.0547609,-0.0277858,-0.429385,0.0484991,0.0470139,2001,883,30.9818,-7.0567
784,141,31.8861,7.11249,0.0513225,-0.0186729,-0.0420857,0.0710609,-0.0384113,-0.438546,0.064134,0.043457,2008,883,31.8861,-7.11247
791,141,32.8181,7.50537,0.0632773,-0.0249497,-0.0556679,0.0901914,-0.0518638,-0.450341,0.0830047,0.0471161,2015,883,32.8181,-7.50535
798,141,0,0,0,0,0,0,0,0,0,-1,2022,883,0,0
805,141,0,0,0,0,0,0,0,0,0,-1,2029,883,0,0
812,141,0,0,0,0,0,0,0,0,0,-1,2036,883,0,0
-700,134,0,0,0,0,0,0,0,0,0,-1,524,890,0,0
-693,134,0,0,0,0,0,0,0,0,0,-1,531,890,0,0
-686,134,0,0,0,0,0,0,0,0,0,-1,538,890,0,0
-679,134,0,0,0,0,0,0,0,0,0,-1,545,890,0,0
-672,134,-28.9158,-1.57349,0,0,0,0,0,0,0,-1,552,890,-28.9158,1.5735
-665,134,-27.8965,-2.32574,0,0,0,0,0,0,0,-1,559,890,-27.8965,2.32576
-658,134,-26.4121,-3.1701,0.107041,-0.0847632,-0.063878,0.126367,-0.10409,-0.293797,0.133261,0.0444512,566,890,-26.4121,3.17012
-651,134,-25.4047,-3.63611,0.0860081,-0.0660185,-0.0497209,0.100825,-0.0808357,-0.289629,0.105094,0.0445067,573,890,-25.4046,3.63611
-644,134,-24.9218,-3.71948,0,0,0,0,0,0,0,-1,580,890,-24.9218,3.71949
-637,134,-21.7252,2.43457,0,0,0,0,0,0,0,-1,587,890,-21.7252,-2.43458
-630,134,-21.9862,2.64001,0,0,0,0,0,0,0,-1,594,890,-21.9862,-2.64
-623,134,-22.2472,2.8454,0,0,0,0,0,0,0,-1,601,890,-22.2472,-2.84541
-616,134,-22.3408,2.45081,0.0145959,-0.00894517,-0.00664111,0.0163402,-0.0106894,-0.256845,0.0157188,0.0124142,608,890,-22.3408,-2.45078
-609,134,-22.4028,2.13409,0.00703572,-0.00403229,-0.00271729,0.00766685,-0.00466342,-0.228218,0.00718894,0.0120232,615,890,-22.4028,-2.13409
-602,134,-22.3914,1.79761,0.000965066,-0.00135248,-0.000411525,0.00103597,-0.00142339,-0.170622,0.00142577,0.0122192,622,890,-22.3914,-1.79761
-595,134,-22.3567,1.52667,-0.00199249,-0.00038919,0.000645244,-0.000161771,-0.00221991,1.23194,0.00142907,0.0152444,629,890,-22.3567,-1.52665
-588,134,-22.6861,1.26624,-0.00269686,-0.000468908,0.00110912,-1.09132e-05,-0.00315486,1.17919,0.00209961,0.0270723,636,890,-22.6861,-1.26623
-581,134,-22.6226,0.785889,-0.00345214,-0.000512954,0.00125479,-5.01381e-05,-0.00391496,1.21744,0.00259342,0.0389212,643,890,-22.6226,-0.785893
-574,134,-22.613,0.496155,-0.00340568,-0.000438946,0.00126896,2.97712e-05,-0.0038744,1.21697,0.00259291,0.0401251,650,890,-22.613,-0.496147
-567,134,-22.2418,0.336426,0,0,0,0,0,0,0,-1,657,890,-22.2418,-0.336403
-560,134,-18.8884,0.498169,0,0,0,0,0,0,0,-1,664,890,-18.8883,-0.498162
-553,134,-26.1051,0.608521,0,0,0,0,0,0,0,-1,671,890,-26.1051,-0.608545
-546,134,-26.0759,0.645874,-0.000762593,4.65538e-05,0.00072089,0.000468637,-0.00118468,1.0411,0.000983929,0.0279381,678,890,-26.0759,-0.645863
-539,134,-26.0781,0.652466,0.000177725,0.00022975,0.000558914,0.000763257,-0.000355782,0.808652,0.0006602,0.0181912,685,890,-26.0781,-0.652471
-532,134,-26.0923,0.650208,0.00146463,0.000482716,0.000454666,0.00164282,0.000304525,0.373519,0.00100914,0.0223395,692,890,-26.0923,-0.650195
-525,134,-26.16,0.737549,0.00312979,0.000606932,0.000346109,0.00317641,0.000560311,0.133894,0.00195775,0.0326725,699,890,-26.16,-0.737532
-518,134,-26.0601,0.966553,0.00561239,0.000453318,0.000374948,0.0056395,0.00042621,0.072172,0.00362595,0.0388007,706,890,-26.06,-0.966542
-511,134,-25.9549,1.1347,0.00902137,-0.00061816,0.000369844,0.00903554,-0.000632329,0.0382924,0.00624515,0.0435558,713,890,-25.9549,-1.13471
-504,134,0,0,0,0,0,0,0,0,0,-1,720,890,0,0
-497,134,0,0,0,0,0,0,0,0,0,-1,727,890,0,0
-490,134,0,0,0,0,0,0,0,0,0,-1,734,890,0,0
-483,134,0,0,0,0,0,0,0,0,0,-1,741,890,0,0
-476,134,0,0,0,0,0,0,0,0,0,-1,748,890,0,0
-469,134,0,0,0,0,0,0,0,0,0,-1,755,890,0,0
-462,134,0,0,0,0,0,0,0,0,0,-1,762,890,0,0
-455,134,0,0,0,0,0,0,0,0,0,-1,769,890,0,0
-448,134,0,0,0,0,0,0,0,0,0,-1,776,890,0,0
-441,134,0,0,0,0,0,0,0,0,0,-1,783,890,0,0
-434,134,0,0,0,0,0,0,0,0,0,-1,790,890,0,0
-427,134,0,0,0,0,0,0,0,0,0,-1,797,890,0,0
-420,134,0,0,0,0,0,0,0,0,0,-1,804,890,0,0
-413,134,0,0,0,0,0,0,0,0,0,-1,811,890,0,0
-406,134,0,0,0,0,0,0,0,0,0,-1,818,890,0,0
-399,134,0,0,0,0,0,0,0,0,0,-1,825,890,0,0
-392,134,0,0,0,0,0,0,0,0,0,-1,832,890,0,0
-385,134,0,0,0,0,0,0,0,0,0,-1,839,890,0,0
-378,134,0,0,0,0,0,0,0,0,0,-1,846,890,0,0
-371,134,0,0,0,0,0,0,0,0,0,-1,853,890,0,0
-364,134,0,0,0,0,0,0,0,0,0,-1,860,890,0,0
-357,134,0,0,0,0,0,0,0,0,0,-1,867,890,0,0
-350,134,0,0,0,0,0,0,0,0,0,-1,874,890,0,0
-343,134,0,0,0,0,0,0,0,0,0,-1,881,890,0,0
-336,134,0,0,0,0,0,0,0,0,0,-1,888,890,0,0
-329,134,0,0,0,0,0,0,0,0,0,-1,895,890,0,0
-322,134,0,0,0,0,0,0,0,0,0,-1,902,890,0,0
-315,134,0,0,0,0,0,0,0,0,0,-1,909,890,0,0
-308,134,0,0,0,0,0,0,0,0,0,-1,916,890,0,0
-301,134,0,0,0,0,0,0,0,0,0,-1,923,890,0,0
-294,134,0,0,0,0,0,0,0,0,0,-1,930,890,0,0
-287,134,0,0,0,0,0,0,0,0,0,-1,937,890,0,0
-280,134,0,0,0,0,0,0,0,0,0,-1,944,890,0,0
-273,134,0,0,0,0,0,0,0,0,0,-1,951,890,0,0
-266,134,0,0,0,0,0,0,0,0,0,-1,958,890,0,0
-259,134,0,0,0,0,0,0,0,0,0,-1,965,890,0,0
-252,134,0,0,0,0,0,0,0,0,0,-1,972,890,0,0
-245,134,0,0,0,0,0,0,0,0,0,-1,979,890,0,0
-238,134,0,0,0,0,0,0,0,0,0,-1,986,890,0,0
-231,134,0,0,0,0,0,0,0,0,0,-1,993,890,0,0
-224,134,0,0,0,0,0,0,0,0,0,-1,1000,890,0,0
-217,134,0,0,0,0,0,0,0,0,0,-1,1007,890,0,0
-210,134,0,0,0,0,0,0,0,0,0,-1,1014,890,0,0
-203,134,0,0,0,0,0,0,0,0,0,-1,1021,890,0,0
-196,134,0,0,0,0,0,0,0,0,0,-1,1028,890,0,0
-189,134,0,0,0,0,0,0,0,0,0,-1,1035,890,0,0
-182,134,0,0,0,0,0,0,0,0,0,-1,1042,890,0,0
-175,134,0,0,0,0,0,0,0,0,0,-1,1049,890,0,0
-168,134,0,0,0,0,0,0,0,0,0,-1,1056,890,0,0
-161,134,0,0,0,0,0,0,0,0,0,-1,1063,890,0,0
-154,134,0,0,0,0,0,0,0,0,0,-1,1070,890,0,0
-147,134,0,0,0,0,0,0,0,0,0,-1,1077,890,0,0
-140,134,0,0,0,0,0,0,0,0,0,-1,1084,890,0,0
-133,134,0,0,0,0,0,0,0,0,0,-1,1091,890,0,0
-126,134,0,0,0,0,0,0,0,0,0,-1,1098,890,0,0
-119,134,0,0,0,0,0,0,0,0,0,-1,1105,890,0,0
-112,134,0,0,0,0,0,0,0,0,0,-1,1112,890,0,0
-105,134,0,0,0,0,0,0,0,0,0,-1,1119,890,0,0
-98,134,0,0,0,0,0,0,0,0,0,-1,1126,890,0,0
-91,134,0,0,0,0,0,0,0,0,0,-1,1133,890,0,0
-84,134,0,0,0,0,0,0,0,0,0,-1,1140,890,0,0
-77,134,0,0,0,0,0,0,0,0,0,-1,1147,890,0,0
-70,134,0,0,0,0,0,0,0,0,0,-1,1154,890,0,0
-63,134,0,0,0,0,0,0,0,0,0,-1,1161,890,0,0
-56,134,0,0,0,0,0,0,0,0,0,-1,1168,890,0,0
-49,134,0,0,0,0,0,0,0,0,0,-1,1175,890,0,0
-42,134,0,0,0,0,0,0,0,0,0,-1,1182,890,0,0
-35,134,0,0,0,0,0,0,0,0,0,-1,1189,890,0,0
-28,134,0,0,0,0,0,0,0,0,0,-1,1196,890,0,0
-21,134,0,0,0,0,0,0,0,0,0,-1,1203,890,0,0
-14,134,0,0,0,0,0,0,0,0,0,-1,1210,890,0,0
-7,134,0,0,0,0,0,0,0,0,0,-1,1217,890,0,0
0,134,0,0,0,0,0,0,0,0,0,-1,1224,890,0,0
7,134,0,0,0,0,0,0,0,0,0,-1,1231,890,0,0
14,134,0,0,0,0,0,0,0,0,0,-1,1238,890,0,0
21,134,0,0,0,0,0,0,0,0,0,-1,1245,890,0,0
28,134,0,0,0,0,0,0,0,0,0,-1,1252,890,0,0
35,134,0,0,0,0,0,0,0,0,0,-1,1259,890,0,0
42,134,0,0,0,0,0,0,0,0,0,-1,1266,890,0,0
49,134,0,0,0,0,0,0,0,0,0,-1,1273,890,0,0
56,134,0,0,0,0,0,0,0,0,0,-1,1280,890,0,0
63,134,0,0,0,0,0,0,0,0,0,-1,1287,890,0,0
70,134,0,0,0,0,0,0,0,0,0,-1,1294,890,0,0
77,134,0,0,0,0,0,0,0,0,0,-1,1301,890,0,0
84,134,0,0,0,0,0,0,0,0,0,-1,1308,890,0,0
91,134,0,0,0,0,0,0,0,0,0,-1,1315,890,0,0
98,134,0,0,0,0,0,0,0,0,0,-1,1322,890,0,0
105,134,0,0,0,0,0,0,0,0,0,-1,1329,890,0,0
112,134,0,0,0,0,0,0,0,0,0,-1,1336,890,0,0
119,134,0,0,0,0,0,0,0,0,0,-1,1343,890,0,0
126,134,0,0,0,0,0,0,0,0,0,-1,1350,890,0,0
133,134,0,0,0,0,0,0,0,0,0,-1,1357,890,0,0
140,134,0,0,0,0,0,0,0,0,0,-1,1364,890,0,0
147,134,0,0,0,0,0,0,0,0,0,-1,1371,890,0,0
154,134,0,0,0,0,0,0,0,0,0,-1,1378,890,0,0
161,134,0,0,0,0,0,0,0,0,0,-1,1385,890,0,0
168,134,0,0,0,0,0,0,0,0,0,-1,1392,890,0,0
175,134,0,0,0,0,0,0,0,0,0,-1,1399,890,0,0
182,134,0,0,0,0,0,0,0,0,0,-1,1406,890,0,0
189,134,0,0,0,0,0,0,0,0,0,-1,1413,890,0,0
196,134,0,0,0,0,0,0,0,0,0,-1,1420,890,0,0
203,134,0,0,0,0,0,0,0,0,0,-1,1427,890,0,0
210,134,0,0,0,0,0,0,0,0,0,-1,1434,890,0,0
217,134,0,0,0,0,0,0,0,0,0,-1,1441,890,0,0
224,134,0,0,0,0,0,0,0,0,0,-1,1448,890,0,0
231,134,0,0,0,0,0,0,0,0,0,-1,1455,890,0,0
238,134,0,0,0,0,0,0,0,0,0,-1,1462,890,0,0
245,134,0,0,0,0,0,0,0,0,0,-1,1469,890,0,0
252,134,0,0,0,0,0,0,0,0,0,-1,1476,890,0,0
259,134,0,0,0,0,0,0,0,0,0,-1,1483,890,0,0
266,134,0,0,0,0,0,0,0,0,0,-1,1490,890,0,0
273,134,0,0,0,0,0,0,0,0,0,-1,1497,890,0,0
280,134,0,0,0,0,0,0,0,0,0,-1,1504,890,0,0
287,134,0,0,0,0,0,0,0,0,0,-1,1511,890,0,0
294,134,0,0,0,0,0,0,0,0,0,-1,1518,890,0,0
301,134,0,0,0,0,0,0,0,0,0,-1,1525,890,0,0
308,134,0,0,0,0,0,0,0,0,0,-1,1532,890,0,0
315,134,0,0,0,0,0,0,0,0,0,-1,1539,890,0,0
322,134,0,0,0,0,0,0,0,0,0,-1,1546,890,0,0
329,134,0,0,0,0,0,0,0,0,0,-1,1553,890,0,0
336,134,0,0,0,0,0,0,0,0,0,-1,1560,890,0,0
343,134,0,0,0,0,0,0,0,0,0,-1,1567,890,0,0
350,134,0,0,0,0,0,0,0,0,0,-1,1574,890,0,0
357,134,0,0,0,0,0,0,0,0,0,-1,1581,890,0,0
364,134,0,0,0,0,0,0,0,0,0,-1,1588,890,0,0
371,134,0,0,0,0,0,0,0,0,0,-1,1595,890,0,0
378,134,0,0,0,0,0,0,0,0,0,-1,1602,890,0,0
385,134,0,0,0,0,0,0,0,0,0,-1,1609,890,0,0
392,134,0,0,0,0,0,0,0,0,0,-1,1616,890,0,0
399,134,0,0,0,0,0,0,0,0,0,-1,1623,890,0,0
406,134,0,0,0,0,0,0,0,0,0,-1,1630,890,0,0
413,134,0,0,0,0,0,0,0,0,0,-1,1637,890,0,0
420,134,0,0,0,0,0,0,0,0,0,-1,1644,890,0,0
427,134,0,0,0,0,0,0,0,0,0,-1,1651,890,0,0
434,134,0,0,0,0,0,0,0,0,0,-1,1658,890,0,0
441,134,0,0,0,0,0,0,0,0,0,-1,1665,890,0,0
448,134,0,0,0,0,0,0,0,0,0,-1,1672,890,0,0
455,134,0,0,0,0,0,0,0,0,0,-1,1679,890,0,0
462,134,0,0,0,0,0,0,0,0,0,-1,1686,890,0,0
469,134,0,0,0,0,0,0,0,0,0,-1,1693,890,0,0
476,134,0,0,0,0,0,0,0,0,0,-1,1700,890,0,0
483,134,0,0,0,0,0,0,0,0,0,-1,1707,890,0,0
490,134,0,0,0,0,0,0,0,0,0,-1,1714,890,0,0
497,134,0,0,0,0,0,0,0,0,0,-1,1721,890,0,0
504,134,0,0,0,0,0,0,0,0,0,-1,1728,890,0,0
511,134,0,0,0,0,0,0,0,0,0,-1,1735,890,0,0
518,134,0,0,0,0,0,0,0,0,0,-1,1742,890,0,0
525,134,0,0,0,0,0,0,0,0,0,-1,1749,890,0,0
532,134,0,0,0,0,0,0,0,0,0,-1,1756,890,0,0
539,134,0,0,0,0,0,0,0,0,0,-1,1763,890,0,0
546,134,0,0,0,0,0,0,0,0,0,-1,1770,890,0,0
553,134,0,0,0,0,0,0,0,0,0,-1,1777,890,0,0
560,134,0,0,0,0,0,0,0,0,0,-1,1784,890,0,0
567,134,0,0,0,0,0,0,0,0,0,-1,1791,890,0,0
574,134,0,0,0,0,0,0,0,0,0,-1,1798,890,0,0
581,134,0,0,0,0,0,0,0,0,0,-1,1805,890,0,0
588,134,0,0,0,0,0,0,0,0,0,-1,1812,890,0,0
595,134,0,0,0,0,0,0,0,0,0,-1,1819,890,0,0
602,134,0,0,0,0,0,0,0,0,0,-1,1826,890,0,0
609,134,0,0,0,0,0,0,0,0,0,-1,1833,890,0,0
616,134,0,0,0,0,0,0,0,0,0,-1,1840,890,0,0
623,134,35.8702,2.43481,0.00946979,0.004951,-0.00622089,0.0138289,0.00059191,-0.611207,0.00902842,0.0463288,1847,890,35.8702,-2.43482
630,134,35.863,2.31586,0.00633259,0.00374042,-0.00417043,0.00940369,0.000669316,-0.63474,0.00605836,0.0466957,1854,890,35.863,-2.31588
637,134,35.7501,2.36139,0.00419285,0.00271839,-0.00270401,0.00625833,0.000652909,-0.652311,0.00397251,0.0432496,1861,890,35.7501,-2.3614
644,134,35.8003,2.60138,0.00263574,0.00174649,-0.0016919,0.00394046,0.000441768,-0.656905,0.0024928,0.039009,1868,890,35.8003,-2.60139
651,134,35.8955,2.69672,0.00164912,0.00091412,-0.00108323,0.00242549,0.000137744,-0.62186,0.00157309,0.0402196,1875,890,35.8955,-2.69675
658,134,35.8309,2.71265,0.00113819,0.000239666,-0.000783753,0.00159231,-0.000214458,-0.525152,0.00113977,0.0377008,1882,890,35.8309,-2.71266
665,134,35.688,2.60602,0.00085176,-0.000236042,-0.000675576,0.00117517,-0.000559454,-0.446479,0.0010223,0.0327453,1889,890,35.688,-2.60602
672,134,35.7679,2.52411,0.00065877,-0.000640483,-0.000611425,0.00090125,-0.000882964,-0.377557,0.00103013,0.0224066,1896,890,35.7679,-2.52414
679,134,35.8062,2.46216,0.000601252,-0.000856661,-0.000580109,0.000803909,-0.00105932,-0.33609,0.0010791,0.0192198,1903,890,35.8062,-2.46216
686,134,35.8029,2.4295,0,0,0,0,0,0,0,-1,1910,890,35.8028,-2.42953
693,134,31.1143,2.46649,0,0,0,0,0,0,0,-1,1917,890,31.1143,-2.46651
700,134,31.1628,2.69061,0.000315798,-0.000917731,-0.000669715,0.000609482,-0.00121141,-0.413267,0.00107027,0.0409215,1924,890,31.1628,-2.69059
707,134,30.8834,2.85327,0.000511464,-0.00083854,-0.000991695,0.00103608,-0.00136316,-0.486586,0.00138949,0.0219721,1931,890,30.8834,-2.85327
714,134,30.9332,3.26965,0.000961731,-0.000518277,-0.00125525,0.00167887,-0.00123542,-0.519057,0.00168904,0.0223762,1938,890,30.9333,-3.26965
721,134,31.0914,3.72211,0.0013049,-0.000264547,-0.00123549,0.00198381,-0.000943458,-0.502465,0.00172527,0.0175087,1945,890,31.0915,-3.72208
728,134,31.1499,4.07355,0.00202882,-0.000100146,-0.00130325,0.00264707,-0.000718394,-0.44295,0.00204664,0.0166745,1952,890,31.1499,-4.07358
735,134,31.1473,4.46582,0.00406403,-0.000168157,-0.0021816,0.00498722,-0.00109134,-0.400319,0.00374202,0.0227148,1959,890,31.1473,-4.4658
742,134,31.0994,4.81219,0.00716764,-0.000899851,-0.00416092,0.00892909,-0.0026613,-0.400458,0.00701029,0.0160112,1966,890,31.0993,-4.8122
749,134,31.0931,5.11035,0.0111838,-0.00183194,-0.00642128,0.0138184,-0.00446657,-0.389351,0.0110075,0.0130413,1973,890,31.0932,-5.11034
756,134,31.0713,5.4422,0.0164934,-0.00331779,-0.00957756,0.0203664,-0.00719082,-0.384281,0.0165052,0.016665,1980,890,31.0713,-5.4422
763,134,31.0262,5.7583,0.0231364,-0.00544795,-0.0137879,0.028703,-0.0110146,-0.383721,0.0236769,0.0381261,1987,890,31.0263,-5.75828
770,134,30.9913,6.07593,0,0,0,0,0,0,0,-1,1994,890,30.9913,-6.07595
777,134,31.537,7.01312,0,0,0,0,0,0,0,-1,2001,890,31.537,-7.01313
784,134,33.4194,7.1853,0.0519944,-0.0172607,-0.0359918,0.0673116,-0.0325779,-0.402357,0.0588219,0.0470501,2008,890,33.4195,-7.18528
791,134,34.4551,7.89215,0.0641956,-0.0233781,-0.0477025,0.0851607,-0.0443432,-0.414086,0.075997,0.0404882,2015,890,34.4551,-7.89216
798,134,0,0,0,0,0,0,0,0,0,-1,2022,890,0,0
805,134,0,0,0,0,0,0,0,0,0,-1,2029,890,0,0
812,134,0,0,0,0,0,0,0,0,0,-1,2036,890,0,0
-700,127,0,0,0,0,0,0,0,0,0,-1,524,897,0,0
-693,127,0,0,0,0,0,0,0,0,0,-1,531,897,0,0
-686,127,0,0,0,0,0,0,0,0,0,-1,538,897,0,0
-679,127,-27.9732,-0.451416,0,0,0,0,0,0,0,-1,545,897,-27.9732,0.451443
-672,127,-28.225,-1.01068,0,0,0,0,0,0,0,-1,552,897,-28.225,1.01065
-665,127,-27.7776,-2.06995,0,0,0,0,0,0,0,-1,559,897,-27.7776,2.06996
-658,127,-26.5016,-2.88696,0.106368,-0.0852318,-0.0509593,0.119079,-0.0979421,-0.244433,0.125495,0.0459776,566,897,-26.5016,2.88696
-651,127,-25.1166,-3.44012,0.0855332,-0.0667267,-0.0391015,0.0949877,-0.0761812,-0.23724,0.099023,0.0444999,573,897,-25.1166,3.44015
-644,127,-24.9426,1.24841,0,0,0,0,0,0,0,-1,580,897,-24.9426,-1.24841
-637,127,-23.8256,1.97607,0.050152,-0.0367198,-0.0204174,0.0547114,-0.0412792,-0.219704,0.0556008,0.0480765,587,897,-23.8256,-1.97606
-630,127,-22.6866,2.58203,0.0361397,-0.0254836,-0.0136667,0.0390347,-0.0283786,-0.208741,0.0390828,0.0377972,594,897,-22.6866,-2.58203
-623,127,-22.633,2.68262,0.0240791,-0.0161506,-0.00792349,0.0255835,-0.0176549,-0.187624,0.0251032,0.0140373,601,897,-22.633,-2.68264
-616,127,-22.691,2.43237,0.0144584,-0.0090256,-0.00368607,0.0150234,-0.00959058,-0.15209,0.0143258,0.0101813,608,897,-22.691,-2.43238
-609,127,-22.7205,2.1153,0.00666558,-0.00384376,-0.000673652,0.00670859,-0.00388676,-0.0637526,0.00618912,0.0139342,615,897,-22.7205,-2.11528
-602,127,-22.7183,1.81116,0.00047384,-0.00111188,0.000829865,0.000828717,-0.00146676,0.404099,0.00134225,0.0153806,622,897,-22.7183,-1.81115
-595,127,-22.6987,1.54797,-0.00260818,-0.000188555,0.00131061,0.000385264,-0.003182,1.15811,0.00226072,0.0192348,629,897,-22.6987,-1.54798
-588,127,-22.8452,1.21405,-0.00338864,-0.00035032,0.00135068,0.000163299,-0.00390226,1.20742,0.00265761,0.0250147,636,897,-22.8452,-1.21403
-581,127,-22.8962,0.801331,-0.00422244,-0.000433427,0.00128152,-4.06967e-05,-0.00461517,1.27343,0.0030633,0.0437507,643,897,-22.8962,-0.801333
-574,127,-22.9284,0.195557,0,0,0,0,0,0,0,-1,650,897,-22.9284,-0.19557
-567,127,-21.9229,0.199768,0,0,0,0,0,0,0,-1,657,897,-21.9229,-0.199779
-560,127,-18.9678,1.21667,0,0,0,0,0,0,0,-1,664,897,-18.9677,-1.2167
-553,127,-26.1134,0.607239,0,0,0,0,0,0,0,-1,671,897,-26.1134,-0.60721
-546,127,-26.1025,0.636841,-0.00136342,-0.000173343,0.00077195,0.000206285,-0.00174305,1.11375,0.00123655,0.0238327,678,897,-26.1025,-0.63682
-539,127,-26.0776,0.670837,-0.000214559,3.62984e-06,0.000675359,0.000578649,-0.000789578,0.865474,0.000793069,0.0213256,685,897,-26.0776,-0.670833
-532,127,-26.0842,0.684448,0.0013282,0.000200518,0.000606946,0.00159279,-6.40732e-05,0.411099,0.00108385,0.0171038,692,897,-26.0841,-0.684449
-525,127,-26.1979,0.831787,0.0034169,0.000270812,0.000518704,0.00350021,0.000187498,0.159259,0.00227356,0.0318438,699,897,-26.1979,-0.831807
-518,127,-26.077,0.953613,0.00623733,0.000208184,0.000654653,0.0063076,0.00013792,0.106921,0.00415985,0.0388696,706,897,-26.0769,-0.953583
-511,127,-25.8774,0.719299,0.0099068,-0.000428266,0.000724754,0.00995737,-0.000478842,0.0696713,0.00680348,0.0410832,713,897,-25.8774,-0.719279
-504,127,0,0,0,0,0,0,0,0,0,-1,720,897,0,0
-497,127,0,0,0,0,0,0,0,0,0,-1,727,897,0,0
-490,127,0,0,0,0,0,0,0,0,0,-1,734,897,0,0
-483,127,0,0,0,0,0,0,0,0,0,-1,741,897,0,0
-476,127,0,0,0,0,0,0,0,0,0,-1,748,897,0,0
-469,127,0,0,0,0,0,0,0,0,0,-1,755,897,0,0
-462,127,0,0,0,0,0,0,0,0,0,-1,762,897,0,0
-455,127,0,0,0,0,0,0,0,0,0,-1,769,897,0,0
-448,127,0,0,0,0,0,0,0,0,0,-1,776,897,0,0
-441,127,0,0,0,0,0,0,0,0,0,-1,783,897,0,0
-434,127,0,0,0,0,0,0,0,0,0,-1,790,897,0,0
-427,127,0,0,0,0,0,0,0,0,0,-1,797,897,0,0
-420,127,0,0,0,0,0,0,0,0,0,-1,804,897,0,0
-413,127,0,0,0,0,0,0,0,0,0,-1,811,897,0,0
-406,127,0,0,0,0,0,0,0,0,0,-1,818,897,0,0
-399,127,0,0,0,0,0,0,0,0,0,-1,825,897,0,0
-392,127,0,0,0,0,0,0,0,0,0,-1,832,897,0,0
-385,127,0,0,0,0,0,0,0,0,0,-1,839,897,0,0
-378,127,0,0,0,0,0,0,0,0,0,-1,846,897,0,0
-371,127,0,0,0,0,0,0,0,0,0,-1,853,897,0,0
-364,127,0,0,0,0,0,0,0,0,0,-1,860,897,0,0
-357,127,0,0,0,0,0,0,0,0,0,-1,867,897,0,0
-350,127,0,0,0,0,0,0,0,0,0,-1,874,897,0,0
-343,127,0,0,0,0,0,0,0,0,0,-1,881,897,0,0
-336,127,0,0,0,0,0,0,0,0,0,-1,888,897,0,0
-329,127,0,0,0,0,0,0,0,0,0,-1,895,897,0,0
-322,127,0,0,0,0,0,0,0,0,0,-1,902,897,0,0
-315,127,0,0,0,0,0,0,0,0,0,-1,909,897,0,0
-308,127,0,0,0,0,0,0,0,0,0,-1,916,897,0,0
-301,127,0,0,0,0,0,0,0,0,0,-1,923,897,0,0
-294,127,0,0,0,0,0,0,0,0,0,-1,930,897,0,0
-287,127,0,0,0,0,0,0,0,0,0,-1,937,897,0,0
-280,127,0,0,0,0,0,0,0,0,0,-1,944,897,0,0
-273,127,0,0,0,0,0,0,0,0,0,-1,951,897,0,0
-266,127,0,0,0,0,0,0,0,0,0,-1,958,897,0,0
-259,127,0,0,0,0,0,0,0,0,0,-1,965,897,0,0
-252,127,0,0,0,0,0,0,0,0,0,-1,972,897,0,0
-245,127,0,0,0,0,0,0,0,0,0,-1,979,897,0,0
-238,127,0,0,0,0,0,0,0,0,0,-1,986,897,0,0
-231,127,0,0,0,0,0,0,0,0,0,-1,993,897,0,0
-224,127,0,0,0,0,0,0,0,0,0,-1,1000,897,0,0
-217,127,0,0,0,0,0,0,0,0,0,-1,1007,897,0,0
-210,127,0,0,0,0,0,0,0,0,0,-1,1014,897,0,0
-203,127,0,0,0,0,0,0,0,0,0,-1,1021,897,0,0
-196,127,0,0,0,0,0,0,0,0,0,-1,1028,897,0,0
-189,127,0,0,0,0,0,0,0,0,0,-1,1035,897,0,0
-182,127,0,0,0,0,0,0,0,0,0,-1,1042,897,0,0
-175,127,0,0,0,0,0,0,0,0,0,-1,1049,897,0,0
-168,127,0,0,0,0,0,0,0,0,0,-1,1056,897,0,0
-161,127,0,0,0,0,0,0,0,0,0,-1,1063,897,0,0
-154,127,0,0,0,0,0,0,0,0,0,-1,1070,897,0,0
-147,127,0,0,0,0,0,0,0,0,0,-1,1077,897,0,0
-140,127,0,0,0,0,0,0,0,0,0,-1,1084,897,0,0
-133,127,0,0,0,0,0,0,0,0,0,-1,1091,897,0,0
-126,127,0,0,0,0,0,0,0,0,0,-1,1098,897,0,0
-119,127,0,0,0,0,0,0,0,0,0,-1,1105,897,0,0
-112,127,0,0,0,0,0,0,0,0,0,-1,1112,897,0,0
-105,127,0,0,0,0,0,0,0,0,0,-1,1119,897,0,0
-98,127,0,0,0,0,0,0,0,0,0,-1,1126,897,0,0
-91,127,0,0,0,0,0,0,0,0,0,-1,1133,897,0,0
-84,127,0,0,0,0,0,0,0,0,0,-1,1140,897,0,0
-77,127,0,0,0,0,0,0,0,0,0,-1,1147,897,0,0
-70,127,0,0,0,0,0,0,0,0,0,-1,1154,897,0,0
-63,127,0,0,0,0,0,0,0,0,0,-1,1161,897,0,0
-56,127,0,0,0,0,0,0,0,0,0,-1,1168,897,0,0
-49,127,0,0,0,0,0,0,0,0,0,-1,1175,897,0,0
-42,127,0,0,0,0,0,0,0,0,0,-1,1182,897,0,0
-35,127,0,0,0,0,0,0,0,0,0,-1,1189,897,0,0
-28,127,0,0,0,0,0,0,0,0,0,-1,1196,897,0,0
-21,127,0,0,0,0,0,0,0,0,0,-1,1203,897,0,0
-14,127,0,0,0,0,0,0,0,0,0,-1,1210,897,0,0
-7,127,0,0,0,0,0,0,0,0,0,-1,1217,897,0,0
0,127,0,0,0,0,0,0,0,0,0,-1,1224,897,0,0
7,127,0,0,0,0,0,0,0,0,0,-1,1231,897,0,0
14,127,0,0,0,0,0,0,0,0,0,-1,1238,897,0,0
21,127,0,0,0,0,0,0,0,0,0,-1,1245,897,0,0
28,127,0,0,0,0,0,0,0,0,0,-1,1252,897,0,0
35,127,0,0,0,0,0,0,0,0,0,-1,1259,897,0,0
42,127,0,0,0,0,0,0,0,0,0,-1,1266,897,0,0
49,127,0,0,0,0,0,0,0,0,0,-1,1273,897,0,0
56,127,0,0,0,0,0,0,0,0,0,-1,1280,897,0,0
63,127,0,0,0,0,0,0,0,0,0,-1,1287,897,0,0
70,127,0,0,0,0,0,0,0,0,0,-1,1294,897,0,0
77,127,0,0,0,0,0,0,0,0,0,-1,1301,897,0,0
84,127,0,0,0,0,0,0,0,0,0,-1,1308,897,0,0
91,127,0,0,0,0,0,0,0,0,0,-1,1315,897,0,0
98,127,0,0,0,0,0,0,0,0,0,-1,1322,897,0,0
105,127,0,0,0,0,0,0,0,0,0,-1,1329,897,0,0
112,127,0,0,0,0,0,0,0,0,0,-1,1336,897,0,0
119,127,0,0,0,0,0,0,0,0,0,-1,1343,897,0,0
126,127,0,0,0,0,0,0,0,0,0,-1,1350,897,0,0
133,127,0,0,0,0,0,0,0,0,0,-1,1357,897,0,0
140,127,0,0,0,0,0,0,0,0,0,-1,1364,897,0,0
147,127,0,0,0,0,0,0,0,0,0,-1,1371,897,0,0
154,127,0,0,0,0,0,0,0,0,0,-1,1378,897,0,0
161,127,0,0,0,0,0,0,0,0,0,-1,1385,897,0,0
168,127,0,0,0,0,0,0,0,0,0,-1,1392,897,0,0
175,127,0,0,0,0,0,0,0,0,0,-1,1399,897,0,0
182,127,0,0,0,0,0,0,0,0,0,-1,1406,897,0,0
189,127,0,0,0,0,0,0,0,0,0,-1,1413,897,0,0
196,127,0,0,0,0,0,0,0,0,0,-1,1420,897,0,0
203,127,0,0,0,0,0,0,0,0,0,-1,1427,897,0,0
210,127,0,0,0,0,0,0,0,0,0,-1,1434,897,0,0
217,127,0,0,0,0,0,0,0,0,0,-1,1441,897,0,0
224,127,0,0,0,0,0,0,0,0,0,-1,1448,897,0,0
231,127,0,0,0,0,0,0,0,0,0,-1,1455,897,0,0
238,127,0,0,0,0,0,0,0,0,0,-1,1462,897,0,0
245,127,0,0,0,0,0,0,0,0,0,-1,1469,897,0,0
252,127,0,0,0,0,0,0,0,0,0,-1,1476,897,0,0
259,127,0,0,0,0,0,0,0,0,0,-1,1483,897,0,0
266,127,0,0,0,0,0,0,0,0,0,-1,1490,897,0,0
273,127,0,0,0,0,0,0,0,0,0,-1,1497,897,0,0
280,127,0,0,0,0,0,0,0,0,0,-1,1504,897,0,0
287,127,0,0,0,0,0,0,0,0,0,-1,1511,897,0,0
294,127,0,0,0,0,0,0,0,0,0,-1,1518,897,0,0
301,127,0,0,0,0,0,0,0,0,0,-1,1525,897,0,0
308,127,0,0,0,0,0,0,0,0,0,-1,1532,897,0,0
315,127,0,0,0,0,0,0,0,0,0,-1,1539,897,0,0
322,127,0,0,0,0,0,0,0,0,0,-1,1546,897,0,0
329,127,0,0,0,0,0,0,0,0,0,-1,1553,897,0,0
336,127,0,0,0,0,0,0,0,0,0,-1,1560,897,0,0
343,127,0,0,0,0,0,0,0,0,0,-1,1567,897,0,0
350,127,0,0,0,0,0,0,0,0,0,-1,1574,897,0,0
357,127,0,0,0,0,0,0,0,0,0,-1,1581,897,0,0
364,127,0,0,0,0,0,0,0,0,0,-1,1588,897,0,0
371,127,0,0,0,0,0,0,0,0,0,-1,1595,897,0,0
378,127,0,0,0,0,0,0,0,0,0,-1,1602,897,0,0
385,127,0,0,0,0,0,0,0,0,0,-1,1609,897,0,0
392,127,0,0,0,0,0,0,0,0,0,-1,1616,897,0,0
399,127,0,0,0,0,0,0,0,0,0,-1,1623,897,0,0
406,127,0,0,0,0,0,0,0,0,0,-1,1630,897,0,0
413,127,0,0,0,0,0,0,0,0,0,-1,1637,897,0,0
420,127,0,0,0,0,0,0,0,0,0,-1,1644,897,0,0
427,127,0,0,0,0,0,0,0,0,0,-1,1651,897,0,0
434,127,0,0,0,0,0,0,0,0,0,-1,1658,897,0,0
441,127,0,0,0,0,0,0,0,0,0,-1,1665,897,0,0
448,127,0,0,0,0,0,0,0,0,0,-1,1672,897,0,0
455,127,0,0,0,0,0,0,0,0,0,-1,1679,897,0,0
462,127,0,0,0,0,0,0,0,0,0,-1,1686,897,0,0
469,127,0,0,0,0,0,0,0,0,0,-1,1693,897,0,0
476,127,0,0,0,0,0,0,0,0,0,-1,1700,897,0,0
483,127,0,0,0,0,0,0,0,0,0,-1,1707,897,0,0
490,127,0,0,0,0,0,0,0,0,0,-1,1714,897,0,0
497,127,0,0,0,0,0,0,0,0,0,-1,1721,897,0,0
504,127,0,0,0,0,0,0,0,0,0,-1,1728,897,0,0
511,127,0,0,0,0,0,0,0,0,0,-1,1735,897,0,0
518,127,0,0,0,0,0,0,0,0,0,-1,1742,897,0,0
525,127,0,0,0,0,0,0,0,0,0,-1,1749,897,0,0
532,127,0,0,0,0,0,0,0,0,0,-1,1756,897,0,0
539,127,0,0,0,0,0,0,0,0,0,-1,1763,897,0,0
546,127,0,0,0,0,0,0,0,0,0,-1,1770,897,0,0
553,127,0,0,0,0,0,0,0,0,0,-1,1777,897,0,0
560,127,0,0,0,0,0,0,0,0,0,-1,1784,897,0,0
567,127,0,0,0,0,0,0,0,0,0,-1,1791,897,0,0
574,127,0,0,0,0,0,0,0,0,0,-1,1798,897,0,0
581,127,0,0,0,0,0,0,0,0,0,-1,1805,897,0,0
588,127,0,0,0,0,0,0,0,0,0,-1,1812,897,0,0
595,127,0,0,0,0,0,0,0,0,0,-1,1819,897,0,0
602,127,0,0,0,0,0,0,0,0,0,-1,1826,897,0,0
609,127,0,0,0,0,0,0,0,0,0,-1,1833,897,0,0
616,127,0,0,0,0,0,0,0,0,0,-1,1840,897,0,0
623,127,0,0,0,0,0,0,0,0,0,-1,1847,897,0,0
630,127,35.8619,2.4574,0.00707623,0.00439179,-0.00578407,0.0116718,-0.00020375,-0.671389,0.00784998,0.0428039,1854,897,35.862,-2.45738
637,127,35.8479,2.4328,0.0045099,0.0033523,-0.00382846,0.00780306,5.91385e-05,-0.710374,0.00518244,0.0405116,1861,897,35.8479,-2.43278
644,127,35.8256,2.59094,0.00265684,0.00230088,-0.00242293,0.00490832,4.94069e-05,-0.748736,0.00325587,0.0397488,1868,897,35.8256,-2.59095
651,127,35.7979,2.62323,0.00149544,0.00138225,-0.001524,0.00296389,-8.62053e-05,-0.766838,0.00200528,0.0427079,1875,897,35.7978,-2.62323
658,127,35.5979,2.89618,0.00090969,0.000638903,-0.00103912,0.0018222,-0.000273611,-0.720615,0.00131553,0.0419145,1882,897,35.598,-2.89618
665,127,35.6219,2.71625,0.000657048,0.000107709,-0.000833122,0.00125961,-0.000494854,-0.626166,0.00104452,0.0378702,1889,897,35.6219,-2.71626
672,127,35.6957,2.56512,0.000557385,-0.000329464,-0.000712911,0.000953524,-0.000725603,-0.507182,0.000972417,0.0319387,1896,897,35.6957,-2.56512
679,127,35.7982,2.49908,0.000592981,-0.00057545,-0.000646717,0.000880288,-0.000862756,-0.418065,0.00100636,0.0259033,1903,897,35.7983,-2.4991
686,127,35.8085,2.44116,0.000421123,-0.000629917,-0.000513408,0.000630286,-0.00083908,-0.386871,0.000851189,0.0388308,1910,897,35.8084,-2.44113
693,127,35.7461,2.31604,0,0,0,0,0,0,0,-1,1917,897,35.7461,-2.31606
700,127,31.3468,2.54779,0,0,0,0,0,0,0,-1,1924,897,31.3468,-2.54781
707,127,31.2412,2.8996,0.000652957,-0.000716677,-0.000986906,0.00116937,-0.00123309,-0.482087,0.00138723,0.0272154,1931,897,31.2413,-2.89961
714,127,31.3562,3.29608,0.00112615,-0.000441527,-0.0012648,0.00183031,-0.00114568,-0.507996,0.00173328,0.0230521,1938,897,31.3562,-3.29605
721,127,31.542,3.80908,0.00141749,-0.000235429,-0.00117782,0.00202988,-0.000847822,-0.47947,0.00170753,0.0163244,1945,897,31.5421,-3.80905
728,127,31.4872,4.09412,0.00202244,-4.29255e-05,-0.00111324,0.00250822,-0.000528706,-0.411459,0.00187342,0.0140845,1952,897,31.4872,-4.09409
735,127,31.4705,4.44397,0.00388621,-7.98717e-05,-0.00175673,0.00455243,-0.000746085,-0.362478,0.00331178,0.0218491,1959,897,31.4704,-4.44397
742,127,31.4476,4.78546,0.00665945,-0.000666913,-0.0032994,0.00792627,-0.00193373,-0.366598,0.00603296,0.0203031,1966,897,31.4476,-4.78547
749,127,31.4321,5.10242,0.0104427,-0.00144106,-0.00509624,0.0123288,-0.00332718,-0.354469,0.009524,0.0134878,1973,897,31.4321,-5.10243
756,127,31.4049,5.4043,0.0155581,-0.00273988,-0.00766298,0.0183433,-0.0055251,-0.348619,0.0144276,0.0154318,1980,897,31.405,-5.40431
763,127,31.3656,5.65985,0.021946,-0.0046361,-0.0110715,0.0259532,-0.00864334,-0.347273,0.020791,0.0242447,1987,897,31.3656,-5.65988
770,127,31.9259,5.62134,0.0297594,-0.00730752,-0.0155688,0.0354308,-0.0129789,-0.349341,0.028934,0.0445868,1994,897,31.9259,-5.62136
777,127,32.6648,5.69153,0,0,0,0,0,0,0,-1,2001,897,32.6648,-5.6915
784,127,34.9341,7.27429,0,0,0,0,0,0,0,-1,2008,897,34.934,-7.27431
791,127,35.9885,7.34357,0,0,0,0,0,0,0,-1,2015,897,35.9884,-7.34359
798,127,0,0,0,0,0,0,0,0,0,-1,2022,897,0,0
805,127,0,0,0,0,0,0,0,0,0,-1,2029,897,0,0
812,127,0,0,0,0,0,0,0,0,0,-1,2036,897,0,0
-700,120,0,0,0,0,0,0,0,0,0,-1,524,904,0,0
-693,120,0,0,0,0,0,0,0,0,0,-1,531,904,0,0
-686,120,0,0,0,0,0,0,0,0,0,-1,538,904,0,0
-679,120,-29.4822,-0.510071,0,0,0,0,0,0,0,-1,545,904,-29.4822,0.510054
-672,120,-27.6526,-0.467957,0.144874,-0.126306,-0.0655969,0.159908,-0.14134,-0.225297,0.174036,0.0429749,552,904,-27.6527,0.467967
-665,120,-27.4382,-1.12836,0.123861,-0.105023,-0.052448,0.135307,-0.116469,-0.214864,0.145498,0.0450012,559,904,-27.4382,1.12835
-658,120,-26.546,-1.86444,0.102881,-0.0848954,-0.0407693,0.11135,-0.093365,-0.204833,0.118344,0.0425057,566,904,-26.5459,1.86445
-651,120,-25.4358,-2.31647,0.0831341,-0.0666221,-0.0306387,0.08916,-0.072648,-0.194198,0.0935819,0.0440697,573,904,-25.4358,2.31645
-644,120,-25.4615,1.21057,0,0,0,0,0,0,0,-1,580,904,-25.4615,-1.21059
-637,120,-24.2461,2.03918,0.0490645,-0.0368336,-0.0150145,0.0516134,-0.0393824,-0.168154,0.0526944,0.0445825,587,904,-24.2461,-2.0392
-630,120,-23.0387,2.88739,0.0355353,-0.0256567,-0.00959389,0.0370042,-0.0271256,-0.151928,0.0371715,0.0256141,594,904,-23.0387,-2.88737
-623,120,-22.9929,2.66577,0.0236221,-0.0162264,-0.00484151,0.0242019,-0.0168062,-0.119188,0.0238041,0.0104481,601,904,-22.9929,-2.66575
-616,120,-23.0056,2.39764,0.0139403,-0.00896263,-0.00143544,0.0140299,-0.00905224,-0.06235,0.0134294,0.00982994,608,904,-23.0056,-2.39764
-609,120,-23.0256,2.11694,0.00608405,-0.00369396,0.000848348,0.00615711,-0.00376701,0.0859055,0.00578482,0.0141988,615,904,-23.0257,-2.11695
-602,120,-23.0506,1.83722,-0.000106144,-0.000978366,0.00173589,0.00124758,-0.00233209,0.662329,0.0020981,0.0159411,622,904,-23.0506,-1.83724
-595,120,-23.0141,1.56738,-0.00331681,-9.94053e-05,0.00181977,0.000720779,-0.00413699,1.14735,0.003027,0.0226698,629,904,-23.0141,-1.56738
-588,120,-23.0569,1.20917,-0.00422773,-0.000241751,0.00154951,0.000289734,-0.00475922,1.24037,0.00327367,0.0292424,636,904,-23.0569,-1.20917
-581,120,-23.2465,0.919678,-0.00516992,-0.000310544,0.00130071,1.57142e-05,-0.00549618,1.32504,0.00366937,0.0416186,643,904,-23.2465,-0.919647
-574,120,-23.3603,0.338989,0,0,0,0,0,0,0,-1,650,904,-23.3603,-0.339007
-567,120,-22.5042,-0.0649414,0,0,0,0,0,0,0,-1,657,904,-22.5042,0.0649541
-560,120,-26.0687,0.611267,0,0,0,0,0,0,0,-1,664,904,-26.0687,-0.611257
-553,120,-25.958,0.531616,-0.00312475,-6.2853e-05,0.000997753,0.000233578,-0.00342118,1.282,0.0023625,0.0495831,671,904,-25.958,-0.531609
-546,120,-26.0216,0.73938,-0.00223346,0.000212744,0.000937699,0.000530828,-0.00255155,1.24376,0.00190282,0.0335095,678,904,-26.0216,-0.739393
-539,120,-26.0116,0.738281,-0.000852054,0.000532098,0.000894779,0.000971215,-0.00129117,1.11457,0.00131054,0.0270142,685,904,-26.0116,-0.738263
-532,120,-26.0721,0.789856,0.00102634,0.000847242,0.000871778,0.00181315,6.04232e-05,0.734219,0.00118914,0.0293314,692,904,-26.0721,-0.789868
-525,120,-26.2969,0.917175,0.00360437,0.00100986,0.000755414,0.00380829,0.00080594,0.263657,0.00231741,0.0367696,699,904,-26.2969,-0.91718
-518,120,-26.2781,0.861755,0.00654507,0.00108129,0.000829547,0.00666824,0.000958116,0.147402,0.00416304,0.0383908,706,904,-26.2781,-0.861762
-511,120,-25.9626,0.5896,0,0,0,0,0,0,0,-1,713,904,-25.9626,-0.589586
-504,120,0,0,0,0,0,0,0,0,0,-1,720,904,0,0
-497,120,0,0,0,0,0,0,0,0,0,-1,727,904,0,0
-490,120,0,0,0,0,0,0,0,0,0,-1,734,904,0,0
-483,120,0,0,0,0,0,0,0,0,0,-1,741,904,0,0
-476,120,0,0,0,0,0,0,0,0,0,-1,748,904,0,0
-469,120,0,0,0,0,0,0,0,0,0,-1,755,904,0,0
-462,120,0,0,0,0,0,0,0,0,0,-1,762,904,0,0
-455,120,0,0,0,0,0,0,0,0,0,-1,769,904,0,0
-448,120,0,0,0,0,0,0,0,0,0,-1,776,904,0,0
-441,120,0,0,0,0,0,0,0,0,0,-1,783,904,0,0
-434,120,0,0,0,0,0,0,0,0,0,-1,790,904,0,0
-427,120,0,0,0,0,0,0,0,0,0,-1,797,904,0,0
-420,120,0,0,0,0,0,0,0,0,0,-1,804,904,0,0
-413,120,0,0,0,0,0,0,0,0,0,-1,811,904,0,0
-406,120,0,0,0,0,0,0,0,0,0,-1,818,904,0,0
-399,120,0,0,0,0,0,0,0,0,0,-1,825,904,0,0
-392,120,0,0,0,0,0,0,0,0,0,-1,832,904,0,0
-385,120,0,0,0,0,0,0,0,0,0,-1,839,904,0,0
-378,120,0,0,0,0,0,0,0,0,0,-1,846,904,0,0
-371,120,0,0,0,0,0,0,0,0,0,-1,853,904,0,0
-364,120,0,0,0,0,0,0,0,0,0,-1,860,904,0,0
-357,120,0,0,0,0,0,0,0,0,0,-1,867,904,0,0
-350,120,0,0,0,0,0,0,0,0,0,-1,874,904,0,0
-343,120,0,0,0,0,0,0,0,0,0,-1,881,904,0,0
-336,120,0,0,0,0,0,0,0,0,0,-1,888,904,0,0
-329,120,0,0,0,0,0,0,0,0,0,-1,895,904,0,0
-322,120,0,0,0,0,0,0,0,0,0,-1,902,904,0,0
-315,120,0,0,0,0,0,0,0,0,0,-1,909,904,0,0
-308,120,0,0,0,0,0,0,0,0,0,-1,916,904,0,0
-301,120,0,0,0,0,0,0,0,0,0,-1,923,904,0,0
-294,120,0,0,0,0,0,0,0,0,0,-1,930,904,0,0
-287,120,0,0,0,0,0,0,0,0,0,-1,937,904,0,0
-280,120,0,0,0,0,0,0,0,0,0,-1,944,904,0,0
-273,120,0,0,0,0,0,0,0,0,0,-1,951,904,0,0
-266,120,0,0,0,0,0,0,0,0,0,-1,958,904,0,0
-259,120,0,0,0,0,0,0,0,0,0,-1,965,904,0,0
-252,120,0,0,0,0,0,0,0,0,0,-1,972,904,0,0
-245,120,0,0,0,0,0,0,0,0,0,-1,979,904,0,0
-238,120,0,0,0,0,0,0,0,0,0,-1,986,904,0,0
-231,120,0,0,0,0,0,0,0,0,0,-1,993,904,0,0
-224,120,0,0,0,0,0,0,0,0,0,-1,1000,904,0,0
-217,120,0,0,0,0,0,0,0,0,0,-1,1007,904,0,0
-210,120,0,0,0,0,0,0,0,0,0,-1,1014,904,0,0
-203,120,0,0,0,0,0,0,0,0,0,-1,1021,904,0,0
-196,120,0,0,0,0,0,0,0,0,0,-1,1028,904,0,0
-189,120,0,0,0,0,0,0,0,0,0,-1,1035,904,0,0
-182,120,0,0,0,0,0,0,0,0,0,-1,1042,904,0,0
-175,120,0,0,0,0,0,0,0,0,0,-1,1049,904,0,0
-168,120,0,0,0,0,0,0,0,0,0,-1,1056,904,0,0
-161,120,0,0,0,0,0,0,0,0,0,-1,1063,904,0,0
-154,120,0,0,0,0,0,0,0,0,0,-1,1070,904,0,0
-147,120,0,0,0,0,0,0,0,0,0,-1,1077,904,0,0
-140,120,0,0,0,0,0,0,0,0,0,-1,1084,904,0,0
-133,120,0,0,0,0,0,0,0,0,0,-1,1091,904,0,0
-126,120,0,0,0,0,0,0,0,0,0,-1,1098,904,0,0
-119,120,0,0,0,0,0,0,0,0,0,-1,1105,904,0,0
-112,120,0,0,0,0,0,0,0,0,0,-1,1112,904,0,0
-105,120,0,0,0,0,0,0,0,0,0,-1,1119,904,0,0
-98,120,0,0,0,0,0,0,0,0,0,-1,1126,904,0,0
-91,120,0,0,0,0,0,0,0,0,0,-1,1133,904,0,0
-84,120,0,0,0,0,0,0,0,0,0,-1,1140,904,0,0
-77,120,0,0,0,0,0,0,0,0,0,-1,1147,904,0,0
-70,120,0,0,0,0,0,0,0,0,0,-1,1154,904,0,0
-63,120,0,0,0,0,0,0,0,0,0,-1,1161,904,0,0
-56,120,0,0,0,0,0,0,0,0,0,-1,1168,904,0,0
-49,120,0,0,0,0,0,0,0,0,0,-1,1175,904,0,0
-42,120,0,0,0,0,0,0,0,0,0,-1,1182,904,0,0
-35,120,0,0,0,0,0,0,0,0,0,-1,1189,904,0,0
-28,120,0,0,0,0,0,0,0,0,0,-1,1196,904,0,0
-21,120,0,0,0,0,0,0,0,0,0,-1,1203,904,0,0
-14,120,0,0,0,0,0,0,0,0,0,-1,1210,904,0,0
-7,120,0,0,0,0,0,0,0,0,0,-1,1217,904,0,0
0,120,0,0,0,0,0,0,0,0,0,-1,1224,904,0,0
7,120,0,0,0,0,0,0,0,0,0,-1,1231,904,0,0
14,120,0,0,0,0,0,0,0,0,0,-1,1238,904,0,0
21,120,0,0,0,0,0,0,0,0,0,-1,1245,904,0,0
28,120,0,0,0,0,0,0,0,0,0,-1,1252,904,0,0
35,120,0,0,0,0,0,0,0,0,0,-1,1259,904,0,0
42,120,0,0,0,0,0,0,0,0,0,-1,1266,904,0,0
49,120,0,0,0,0,0,0,0,0,0,-1,1273,904,0,0
56,120,0,0,0,0,0,0,0,0,0,-1,1280,904,0,0
63,120,0,0,0,0,0,0,0,0,0,-1,1287,904,0,0
70,120,0,0,0,0,0,0,0,0,0,-1,1294,904,0,0
77,120,0,0,0,0,0,0,0,0,0,-1,1301,904,0,0
84,120,0,0,0,0,0,0,0,0,0,-1,1308,904,0,0
91,120,0,0,0,0,0,0,0,0,0,-1,1315,904,0,0
98,120,0,0,0,0,0,0,0,0,0,-1,1322,904,0,0
105,120,0,0,0,0,0,0,0,0,0,-1,1329,904,0,0
112,120,0,0,0,0,0,0,0,0,0,-1,1336,904,0,0
119,120,0,0,0,0,0,0,0,0,0,-1,1343,904,0,0
126,120,0,0,0,0,0,0,0,0,0,-1,1350,904,0,0
133,120,0,0,0,0,0,0,0,0,0,-1,1357,904,0,0
140,120,0,0,0,0,0,0,0,0,0,-1,1364,904,0,0
147,120,0,0,0,0,0,0,0,0,0,-1,1371,904,0,0
154,120,0,0,0,0,0,0,0,0,0,-1,1378,904,0,0
161,120,0,0,0,0,0,0,0,0,0,-1,1385,904,0,0
168,120,0,0,0,0,0,0,0,0,0,-1,1392,904,0,0
175,120,0,0,0,0,0,0,0,0,0,-1,1399,904,0,0
182,120,0,0,0,0,0,0,0,0,0,-1,1406,904,0,0
189,120,0,0,0,0,0,0,0,0,0,-1,1413,904,0,0
196,120,0,0,0,0,0,0,0,0,0,-1,1420,904,0,0
203,120,0,0,0,0,0,0,0,0,0,-1,1427,904,0,0
210,120,0,0,0,0,0,0,0,0,0,-1,1434,904,0,0
217,120,0,0,0,0,0,0,0,0,0,-1,1441,904,0,0
224,120,0,0,0,0,0,0,0,0,0,-1,1448,904,0,0
231,120,0,0,0,0,0,0,0,0,0,-1,1455,904,0,0
238,120,0,0,0,0,0,0,0,0,0,-1,1462,904,0,0
245,120,0,0,0,0,0,0,0,0,0,-1,1469,904,0,0
252,120,0,0,0,0,0,0,0,0,0,-1,1476,904,0,0
259,120,0,0,0,0,0,0,0,0,0,-1,1483,904,0,0
266,120,0,0,0,0,0,0,0,0,0,-1,1490,904,0,0
273,120,0,0,0,0,0,0,0,0,0,-1,1497,904,0,0
280,120,0,0,0,0,0,0,0,0,0,-1,1504,904,0,0
287,120,0,0,0,0,0,0,0,0,0,-1,1511,904,0,0
294,120,0,0,0,0,0,0,0,0,0,-1,1518,904,0,0
301,120,0,0,0,0,0,0,0,0,0,-1,1525,904,0,0
308,120,0,0,0,0,0,0,0,0,0,-1,1532,904,0,0
315,120,0,0,0,0,0,0,0,0,0,-1,1539,904,0,0
322,120,0,0,0,0,0,0,0,0,0,-1,1546,904,0,0
329,120,0,0,0,0,0,0,0,0,0,-1,1553,904,0,0
336,120,0,0,0,0,0,0,0,0,0,-1,1560,904,0,0
343,120,0,0,0,0,0,0,0,0,0,-1,1567,904,0,0
350,120,0,0,0,0,0,0,0,0,0,-1,1574,904,0,0
357,120,0,0,0,0,0,0,0,0,0,-1,1581,904,0,0
364,120,0,0,0,0,0,0,0,0,0,-1,1588,904,0,0
371,120,0,0,0,0,0,0,0,0,0,-1,1595,904,0,0
378,120,0,0,0,0,0,0,0,0,0,-1,1602,904,0,0
385,120,0,0,0,0,0,0,0,0,0,-1,1609,904,0,0
392,120,0,0,0,0,0,0,0,0,0,-1,1616,904,0,0
399,120,0,0,0,0,0,0,0,0,0,-1,1623,904,0,0
406,120,0,0,0,0,0,0,0,0,0,-1,1630,904,0,0
413,120,0,0,0,0,0,0,0,0,0,-1,1637,904,0,0
420,120,0,0,0,0,0,0,0,0,0,-1,1644,904,0,0
427,120,0,0,0,0,0,0,0,0,0,-1,1651,904,0,0
434,120,0,0,0,0,0,0,0,0,0,-1,1658,904,0,0
441,120,0,0,0,0,0,0,0,0,0,-1,1665,904,0,0
448,120,0,0,0,0,0,0,0,0,0,-1,1672,904,0,0
455,120,0,0,0,0,0,0,0,0,0,-1,1679,904,0,0
462,120,0,0,0,0,0,0,0,0,0,-1,1686,904,0,0
469,120,0,0,0,0,0,0,0,0,0,-1,1693,904,0,0
476,120,0,0,0,0,0,0,0,0,0,-1,1700,904,0,0
483,120,0,0,0,0,0,0,0,0,0,-1,1707,904,0,0
490,120,0,0,0,0,0,0,0,0,0,-1,1714,904,0,0
497,120,0,0,0,0,0,0,0,0,0,-1,1721,904,0,0
504,120,0,0,0,0,0,0,0,0,0,-1,1728,904,0,0
511,120,0,0,0,0,0,0,0,0,0,-1,1735,904,0,0
518,120,0,0,0,0,0,0,0,0,0,-1,1742,904,0,0
525,120,0,0,0,0,0,0,0,0,0,-1,1749,904,0,0
532,120,0,0,0,0,0,0,0,0,0,-1,1756,904,0,0
539,120,0,0,0,0,0,0,0,0,0,-1,1763,904,0,0
546,120,0,0,0,0,0,0,0,0,0,-1,1770,904,0,0
553,120,0,0,0,0,0,0,0,0,0,-1,1777,904,0,0
560,120,0,0,0,0,0,0,0,0,0,-1,1784,904,0,0
567,120,0,0,0,0,0,0,0,0,0,-1,1791,904,0,0
574,120,0,0,0,0,0,0,0,0,0,-1,1798,904,0,0
581,120,0,0,0,0,0,0,0,0,0,-1,1805,904,0,0
588,120,0,0,0,0,0,0,0,0,0,-1,1812,904,0,0
595,120,0,0,0,0,0,0,0,0,0,-1,1819,904,0,0
602,120,0,0,0,0,0,0,0,0,0,-1,1826,904,0,0
609,120,0,0,0,0,0,0,0,0,0,-1,1833,904,0,0
616,120,0,0,0,0,0,0,0,0,0,-1,1840,904,0,0
623,120,0,0,0,0,0,0,0,0,0,-1,1847,904,0,0
630,120,35.7911,2.91797,0.00763722,0.0047279,-0.00685201,0.0131873,-0.000822157,-0.680803,0.00907799,0.0414901,1854,904,35.7911,-2.91798
637,120,36.2002,2.17645,0.00468861,0.00375944,-0.00450836,0.00875626,-0.000308214,-0.734055,0.00594291,0.0426649,1861,904,36.2002,-2.17647
644,120,35.8831,2.29553,0.00262194,0.00275144,-0.00285637,0.00554379,-0.00017041,-0.796731,0.00375395,0.0409456,1868,904,35.8831,-2.29553
651,120,35.7229,2.35712,0.0013659,0.00184591,-0.00179291,0.00341481,-0.000203003,-0.851934,0.00234713,0.0439996,1875,904,35.7229,-2.3571
658,120,35.6837,2.7572,0.000735257,0.00110437,-0.00120058,0.0021345,-0.000294872,-0.861662,0.00153078,0.0430682,1882,904,35.6838,-2.75719
665,120,35.6669,2.78448,0.000520242,0.000555485,-0.000944934,0.00148296,-0.000407235,-0.794721,0.00114871,0.0372925,1889,904,35.6669,-2.78446
672,120,35.7722,2.5788,0.000488104,9.64694e-05,-0.000800473,0.00111636,-0.000531789,-0.66544,0.000971307,0.0353361,1896,904,35.7722,-2.57883
679,120,35.8,2.50305,0.000589586,-0.000188442,-0.000721588,0.00102034,-0.000619197,-0.538177,0.000955985,0.0323901,1903,904,35.8,-2.50306
686,120,35.7899,2.52417,0.000464837,-0.000287667,-0.00058787,0.000786551,-0.00060938,-0.500732,0.000808102,0.023509,1910,904,35.7899,-2.52415
693,120,35.7643,2.48492,0,0,0,0,0,0,0,-1,1917,904,35.7643,-2.48494
700,120,31.8418,2.80536,0,0,0,0,0,0,0,-1,1924,904,31.8417,-2.80536
707,120,31.7301,3.10822,0.000698686,-0.000525524,-0.00101514,0.00127198,-0.00109882,-0.514096,0.00137,0.0311777,1931,904,31.7301,-3.10821
714,120,31.8799,3.51111,0.00112356,-0.000319303,-0.00129814,0.00188727,-0.00108301,-0.531778,0.00173572,0.019132,1938,904,31.8799,-3.51111
721,120,31.8737,3.83478,0.00134835,-0.000180365,-0.00115346,0.00196772,-0.000799737,-0.492785,0.00164454,0.0144926,1945,904,31.8736,-3.83476
728,120,31.8318,4.16675,0.00182335,1.13429e-05,-0.000961677,0.00223858,-0.000403889,-0.407599,0.00164364,0.0106768,1952,904,31.8318,-4.16674
735,120,31.7987,4.46606,0.00342911,3.20239e-05,-0.00138823,0.00392425,-0.000463113,-0.342602,0.00278341,0.0138256,1959,904,31.7987,-4.46605
742,120,31.7848,4.79425,0.00568413,-0.00029721,-0.00252476,0.00660735,-0.00122043,-0.350562,0.00486303,0.0154738,1966,904,31.7848,-4.79422
749,120,31.7743,5.09552,0.00898975,-0.000768978,-0.00386622,0.0103358,-0.00211503,-0.335033,0.00769308,0.0113295,1973,904,31.7743,-5.09549
756,120,31.7404,5.37555,0.0135992,-0.00167805,-0.00585028,0.0155821,-0.00366099,-0.326794,0.0117993,0.0141136,1980,904,31.7404,-5.37556
763,120,31.663,5.66589,0.0193213,-0.00306375,-0.00849345,0.0221791,-0.00592153,-0.32457,0.0171051,0.0273109,1987,904,31.6629,-5.66588
770,120,31.9829,5.97021,0.0262539,-0.00507171,-0.0119716,0.0303051,-0.0091229,-0.326305,0.0238336,0.0461335,1994,904,31.9829,-5.97019
777,120,32.5088,6.20496,0,0,0,0,0,0,0,-1,2001,904,32.5088,-6.20494
784,120,28.2545,3.00208,0,0,0,0,0,0,0,-1,2008,904,28.2545,-3.00207
791,120,37.3508,6.84418,0,0,0,0,0,0,0,-1,2015,904,37.3509,-6.8442
798,120,33.8569,6.19458,0,0,0,0,0,0,0,-1,2022,904,33.8568,-6.19461
805,120,0,0,0,0,0,0,0,0,0,-1,2029,904,0,0
812,120,0,0,0,0,0,0,0,0,0,-1,2036,904,0,0
-700,113,0,0,0,0,0,0,0,0,0,-1,524,911,0,0
-693,113,0,0,0,0,0,0,0,0,0,-1,531,911,0,0
-686,113,0,0,0,0,0,0,0,0,0,-1,538,911,0,0
-679,113,-28.869,0.640564,0.146256,-0.143954,-0.067993,0.161396,-0.159095,-0.219097,0.185037,0.0455196,545,911,-28.8689,-0.640546
-672,113,-27.4393,0.344666,0.130286,-0.123859,-0.0553001,0.141797,-0.13537,-0.205233,0.160037,0.0459443,552,911,-27.4393,-0.344662
-665,113,-27.1227,-0.145691,0.111924,-0.103188,-0.0436081,0.120428,-0.111692,-0.192596,0.134046,0.044806,559,911,-27.1227,0.145679
-658,113,-26.2985,-0.766174,0.0933533,-0.0835314,-0.0332776,0.0994067,-0.0895848,-0.179939,0.109163,0.0418382,566,911,-26.2985,0.76615
-651,113,-25.4852,-1.22711,0.0756822,-0.0656003,-0.0243944,0.0797756,-0.0696938,-0.166253,0.0863616,0.045949,573,911,-25.4852,1.22714
-644,113,-22.9771,3.4115,0,0,0,0,0,0,0,-1,580,911,-22.9771,-3.41153
-637,113,-24.5527,2.04456,0,0,0,0,0,0,0,-1,587,911,-24.5527,-2.04457
-630,113,-23.2758,2.92279,0.0324311,-0.0252893,-0.00661724,0.03318,-0.0260382,-0.112695,0.0342724,0.0179356,594,911,-23.2757,-2.92276
-623,113,-23.3133,2.64478,0.0212636,-0.0159469,-0.00262441,0.0214478,-0.0161311,-0.0700665,0.0217684,0.0106041,601,911,-23.3133,-2.64478
-616,113,-23.3271,2.37476,0.0120884,-0.00872574,0.000126714,0.0120892,-0.00872651,0.00608755,0.0120701,0.00975969,608,911,-23.3271,-2.37473
-609,113,-23.3345,2.12122,0.00469296,-0.00359281,0.0018378,0.00508229,-0.00398214,0.208761,0.00524618,0.0123215,615,911,-23.3345,-2.12124
-602,113,-23.3508,1.83765,-0.00110229,-0.00100856,0.00226868,0.00121374,-0.00332459,0.795725,0.00271303,0.0180078,622,911,-23.3507,-1.83762
-595,113,-23.361,1.60736,-0.00425939,-0.000221116,0.00207226,0.000653046,-0.00513355,1.17161,0.00365952,0.0224681,629,911,-23.361,-1.60734
-588,113,-23.3544,1.30426,-0.00520946,-0.000309856,0.00151528,0.000120899,-0.00564021,1.29383,0.00380108,0.0239964,636,911,-23.3545,-1.30426
-581,113,-23.3817,1.00964,-0.00616261,-0.000354798,0.00105921,-0.000167654,-0.00634976,1.39592,0.00417841,0.0243788,643,911,-23.3817,-1.00963
-574,113,-23.3316,0.600342,0,0,0,0,0,0,0,-1,650,911,-23.3316,-0.600329
-567,113,-21.8396,0.437378,0,0,0,0,0,0,0,-1,657,911,-21.8396,-0.437351
-560,113,-25.9871,0.845825,0,0,0,0,0,0,0,-1,664,911,-25.9871,-0.845812
-553,113,-26.0251,0.825928,-0.00414002,0.000332166,0.000826635,0.000480069,-0.00428792,1.39375,0.00303134,0.0400371,671,911,-26.0251,-0.825941
-546,113,-26.0129,0.793396,-0.00305405,0.000785811,0.000852376,0.000966518,-0.00323476,1.36189,0.00254071,0.0362543,678,911,-26.0129,-0.793387
-539,113,-26.0683,0.798706,-0.00136654,0.00133341,0.000935224,0.00162571,-0.00165884,1.26787,0.00189637,0.038158,685,911,-26.0683,-0.798686
-532,113,-26.1544,0.848816,0.000987579,0.00191077,0.00107555,0.00261959,0.00027876,0.988098,0.00166129,0.0396183,692,911,-26.1544,-0.848815
-525,113,-26.2369,0.911499,0.00418839,0.00233069,0.00114581,0.00473455,0.00178454,0.444797,0.00276096,0.0388101,699,911,-26.237,-0.911528
-518,113,-26.1529,0.842957,0.00722547,0.00263117,0.00146724,0.00765407,0.00220258,0.284203,0.00454985,0.0392686,706,911,-26.1529,-0.842963
-511,113,-25.9324,0.728821,0,0,0,0,0,0,0,-1,713,911,-25.9324,-0.728809
-504,113,0,0,0,0,0,0,0,0,0,-1,720,911,0,0
-497,113,0,0,0,0,0,0,0,0,0,-1,727,911,0,0
-490,113,0,0,0,0,0,0,0,0,0,-1,734,911,0,0
-483,113,0,0,0,0,0,0,0,0,0,-1,741,911,0,0
-476,113,0,0,0,0,0,0,0,0,0,-1,748,911,0,0
-469,113,0,0,0,0,0,0,0,0,0,-1,755,911,0,0
-462,113,0,0,0,0,0,0,0,0,0,-1,762,911,0,0
-455,113,0,0,0,0,0,0,0,0,0,-1,769,911,0,0
-448,113,0,0,0,0,0,0,0,0,0,-1,776,911,0,0
-441,113,0,0,0,0,0,0,0,0,0,-1,783,911,0,0
-434,113,0,0,0,0,0,0,0,0,0,-1,790,911,0,0
-427,113,0,0,0,0,0,0,0,0,0,-1,797,911,0,0
-420,113,0,0,0,0,0,0,0,0,0,-1,804,911,0,0
-413,113,0,0,0,0,0,0,0,0,0,-1,811,911,0,0
-406,113,0,0,0,0,0,0,0,0,0,-1,818,911,0,0
-399,113,0,0,0,0,0,0,0,0,0,-1,825,911,0,0
-392,113,0,0,0,0,0,0,0,0,0,-1,832,911,0,0
-385,113,0,0,0,0,0,0,0,0,0,-1,839,911,0,0
-378,113,0,0,0,0,0,0,0,0,0,-1,846,911,0,0
-371,113,0,0,0,0,0,0,0,0,0,-1,853,911,0,0
-364,113,0,0,0,0,0,0,0,0,0,-1,860,911,0,0
-357,113,0,0,0,0,0,0,0,0,0,-1,867,911,0,0
-350,113,0,0,0,0,0,0,0,0,0,-1,874,911,0,0
-343,113,0,0,0,0,0,0,0,0,0,-1,881,911,0,0
-336,113,0,0,0,0,0,0,0,0,0,-1,888,911,0,0
-329,113,0,0,0,0,0,0,0,0,0,-1,895,911,0,0
-322,113,0,0,0,0,0,0,0,0,0,-1,902,911,0,0
-315,113,0,0,0,0,0,0,0,0,0,-1,909,911,0,0
-308,113,0,0,0,0,0,0,0,0,0,-1,916,911,0,0
-301,113,0,0,0,0,0,0,0,0,0,-1,923,911,0,0
-294,113,0,0,0,0,0,0,0,0,0,-1,930,911,0,0
-287,113,0,0,0,0,0,0,0,0,0,-1,937,911,0,0
-280,113,0,0,0,0,0,0,0,0,0,-1,944,911,0,0
-273,113,0,0,0,0,0,0,0,0,0,-1,951,911,0,0
-266,113,0,0,0,0,0,0,0,0,0,-1,958,911,0,0
-259,113,0,0,0,0,0,0,0,0,0,-1,965,911,0,0
-252,113,0,0,0,0,0,0,0,0,0,-1,972,911,0,0
-245,113,0,0,0,0,0,0,0,0,0,-1,979,911,0,0
-238,113,0,0,0,0,0,0,0,0,0,-1,986,911,0,0
-231,113,0,0,0,0,0,0,0,0,0,-1,993,911,0,0
-224,113,0,0,0,0,0,0,0,0,0,-1,1000,911,0,0
-217,113,0,0,0,0,0,0,0,0,0,-1,1007,911,0,0
-210,113,0,0,0,0,0,0,0,0,0,-1,1014,911,0,0
-203,113,0,0,0,0,0,0,0,0,0,-1,1021,911,0,0
-196,113,0,0,0,0,0,0,0,0,0,-1,1028,911,0,0
-189,113,0,0,0,0,0,0,0,0,0,-1,1035,911,0,0
-182,113,0,0,0,0,0,0,0,0,0,-1,1042,911,0,0
-175,113,0,0,0,0,0,0,0,0,0,-1,1049,911,0,0
-168,113,0,0,0,0,0,0,0,0,0,-1,1056,911,0,0
-161,113,0,0,0,0,0,0,0,0,0,-1,1063,911,0,0
-154,113,0,0,0,0,0,0,0,0,0,-1,1070,911,0,0
-147,113,0,0,0,0,0,0,0,0,0,-1,1077,911,0,0
-140,113,0,0,0,0,0,0,0,0,0,-1,1084,911,0,0
-133,113,0,0,0,0,0,0,0,0,0,-1,1091,911,0,0
-126,113,0,0,0,0,0,0,0,0,0,-1,1098,911,0,0
-119,113,0,0,0,0,0,0,0,0,0,-1,1105,911,0,0
-112,113,0,0,0,0,0,0,0,0,0,-1,1112,911,0,0
-105,113,0,0,0,0,0,0,0,0,0,-1,1119,911,0,0
-98,113,0,0,0,0,0,0,0,0,0,-1,1126,911,0,0
-91,113,0,0,0,0,0,0,0,0,0,-1,1133,911,0,0
-84,113,0,0,0,0,0,0,0,0,0,-1,1140,911,0,0
-77,113,0,0,0,0,0,0,0,0,0,-1,1147,911,0,0
-70,113,0,0,0,0,0,0,0,0,0,-1,1154,911,0,0
-63,113,0,0,0,0,0,0,0,0,0,-1,1161,911,0,0
-56,113,0,0,0,0,0,0,0,0,0,-1,1168,911,0,0
-49,113,0,0,0,0,0,0,0,0,0,-1,1175,911,0,0
-42,113,0,0,0,0,0,0,0,0,0,-1,1182,911,0,0
-35,113,0,0,0,0,0,0,0,0,0,-1,1189,911,0,0
-28,113,0,0,0,0,0,0,0,0,0,-1,1196,911,0,0
-21,113,0,0,0,0,0,0,0,0,0,-1,1203,911,0,0
-14,113,0,0,0,0,0,0,0,0,0,-1,1210,911,0,0
-7,113,0,0,0,0,0,0,0,0,0,-1,1217,911,0,0
0,113,0,0,0,0,0,0,0,0,0,-1,1224,911,0,0
7,113,0,0,0,0,0,0,0,0,0,-1,1231,911,0,0
14,113,0,0,0,0,0,0,0,0,0,-1,1238,911,0,0
21,113,0,0,0,0,0,0,0,0,0,-1,1245,911,0,0
28,113,0,0,0,0,0,0,0,0,0,-1,1252,911,0,0
35,113,0,0,0,0,0,0,0,0,0,-1,1259,911,0,0
42,113,0,0,0,0,0,0,0,0,0,-1,1266,911,0,0
49,113,0,0,0,0,0,0,0,0,0,-1,1273,911,0,0
56,113,0,0,0,0,0,0,0,0,0,-1,1280,911,0,0
63,113,0,0,0,0,0,0,0,0,0,-1,1287,911,0,0
70,113,0,0,0,0,0,0,0,0,0,-1,1294,911,0,0
77,113,0,0,0,0,0,0,0,0,0,-1,1301,911,0,0
84,113,0,0,0,0,0,0,0,0,0,-1,1308,911,0,0
91,113,0,0,0,0,0,0,0,0,0,-1,1315,911,0,0
98,113,0,0,0,0,0,0,0,0,0,-1,1322,911,0,0
105,113,0,0,0,0,0,0,0,0,0,-1,1329,911,0,0
112,113,0,0,0,0,0,0,0,0,0,-1,1336,911,0,0
119,113,0,0,0,0,0,0,0,0,0,-1,1343,911,0,0
126,113,0,0,0,0,0,0,0,0,0,-1,1350,911,0,0
133,113,0,0,0,0,0,0,0,0,0,-1,1357,911,0,0
140,113,0,0,0,0,0,0,0,0,0,-1,1364,911,0,0
147,113,0,0,0,0,0,0,0,0,0,-1,1371,911,0,0
154,113,0,0,0,0,0,0,0,0,0,-1,1378,911,0,0
161,113,0,0,0,0,0,0,0,0,0,-1,1385,911,0,0
168,113,0,0,0,0,0,0,0,0,0,-1,1392,911,0,0
175,113,0,0,0,0,0,0,0,0,0,-1,1399,911,0,0
182,113,0,0,0,0,0,0,0,0,0,-1,1406,911,0,0
189,113,0,0,0,0,0,0,0,0,0,-1,1413,911,0,0
196,113,0,0,0,0,0,0,0,0,0,-1,1420,911,0,0
203,113,0,0,0,0,0,0,0,0,0,-1,1427,911,0,0
210,113,0,0,0,0,0,0,0,0,0,-1,1434,911,0,0
217,113,0,0,0,0,0,0,0,0,0,-1,1441,911,0,0
224,113,0,0,0,0,0,0,0,0,0,-1,1448,911,0,0
231,113,0,0,0,0,0,0,0,0,0,-1,1455,911,0,0
238,113,0,0,0,0,0,0,0,0,0,-1,1462,911,0,0
245,113,0,0,0,0,0,0,0,0,0,-1,1469,911,0,0
252,113,0,0,0,0,0,0,0,0,0,-1,1476,911,0,0
259,113,0,0,0,0,0,0,0,0,0,-1,1483,911,0,0
266,113,0,0,0,0,0,0,0,0,0,-1,1490,911,0,0
273,113,0,0,0,0,0,0,0,0,0,-1,1497,911,0,0
280,113,0,0,0,0,0,0,0,0,0,-1,1504,911,0,0
287,113,0,0,0,0,0,0,0,0,0,-1,1511,911,0,0
294,113,0,0,0,0,0,0,0,0,0,-1,1518,911,0,0
301,113,0,0,0,0,0,0,0,0,0,-1,1525,911,0,0
308,113,0,0,0,0,0,0,0,0,0,-1,1532,911,0,0
315,113,0,0,0,0,0,0,0,0,0,-1,1539,911,0,0
322,113,0,0,0,0,0,0,0,0,0,-1,1546,911,0,0
329,113,0,0,0,0,0,0,0,0,0,-1,1553,911,0,0
336,113,0,0,0,0,0,0,0,0,0,-1,1560,911,0,0
343,113,0,0,0,0,0,0,0,0,0,-1,1567,911,0,0
350,113,0,0,0,0,0,0,0,0,0,-1,1574,911,0,0
357,113,0,0,0,0,0,0,0,0,0,-1,1581,911,0,0
364,113,0,0,0,0,0,0,0,0,0,-1,1588,911,0,0
371,113,0,0,0,0,0,0,0,0,0,-1,1595,911,0,0
378,113,0,0,0,0,0,0,0,0,0,-1,1602,911,0,0
385,113,0,0,0,0,0,0,0,0,0,-1,1609,911,0,0
392,113,0,0,0,0,0,0,0,0,0,-1,1616,911,0,0
399,113,0,0,0,0,0,0,0,0,0,-1,1623,911,0,0
406,113,0,0,0,0,0,0,0,0,0,-1,1630,911,0,0
413,113,0,0,0,0,0,0,0,0,0,-1,1637,911,0,0
420,113,0,0,0,0,0,0,0,0,0,-1,1644,911,0,0
427,113,0,0,0,0,0,0,0,0,0,-1,1651,911,0,0
434,113,0,0,0,0,0,0,0,0,0,-1,1658,911,0,0
441,113,0,0,0,0,0,0,0,0,0,-1,1665,911,0,0
448,113,0,0,0,0,0,0,0,0,0,-1,1672,911,0,0
455,113,0,0,0,0,0,0,0,0,0,-1,1679,911,0,0
462,113,0,0,0,0,0,0,0,0,0,-1,1686,911,0,0
469,113,0,0,0,0,0,0,0,0,0,-1,1693,911,0,0
476,113,0,0,0,0,0,0,0,0,0,-1,1700,911,0,0
483,113,0,0,0,0,0,0,0,0,0,-1,1707,911,0,0
490,113,0,0,0,0,0,0,0,0,0,-1,1714,911,0,0
497,113,0,0,0,0,0,0,0,0,0,-1,1721,911,0,0
504,113,0,0,0,0,0,0,0,0,0,-1,1728,911,0,0
511,113,0,0,0,0,0,0,0,0,0,-1,1735,911,0,0
518,113,0,0,0,0,0,0,0,0,0,-1,1742,911,0,0
525,113,0,0,0,0,0,0,0,0,0,-1,1749,911,0,0
532,113,0,0,0,0,0,0,0,0,0,-1,1756,911,0,0
539,113,0,0,0,0,0,0,0,0,0,-1,1763,911,0,0
546,113,0,0,0,0,0,0,0,0,0,-1,1770,911,0,0
553,113,0,0,0,0,0,0,0,0,0,-1,1777,911,0,0
560,113,0,0,0,0,0,0,0,0,0,-1,1784,911,0,0
567,113,0,0,0,0,0,0,0,0,0,-1,1791,911,0,0
574,113,0,0,0,0,0,0,0,0,0,-1,1798,911,0,0
581,113,0,0,0,0,0,0,0,0,0,-1,1805,911,0,0
588,113,0,0,0,0,0,0,0,0,0,-1,1812,911,0,0
595,113,0,0,0,0,0,0,0,0,0,-1,1819,911,0,0
602,113,0,0,0,0,0,0,0,0,0,-1,1826,911,0,0
609,113,0,0,0,0,0,0,0,0,0,-1,1833,911,0,0
616,113,0,0,0,0,0,0,0,0,0,-1,1840,911,0,0
623,113,0,0,0,0,0,0,0,0,0,-1,1847,911,0,0
630,113,35.7531,2.81622,0.00857264,0.00512324,-0.00791981,0.0149534,-0.00125749,-0.678187,0.0104134,0.040193,1854,911,35.753,-2.81625
637,113,36.1107,2.37048,0.00525694,0.00426456,-0.00517945,0.00996391,-0.000442414,-0.737644,0.00679488,0.0389575,1861,911,36.1107,-2.37046
644,113,35.9611,2.26843,0.00293575,0.00333189,-0.00328798,0.00642776,-0.000160127,-0.815482,0.00433954,0.0378475,1868,911,35.9611,-2.26841
651,113,35.725,2.37823,0.00150623,0.00244575,-0.00206741,0.00409609,-0.000144113,-0.897112,0.00278001,0.0423462,1875,911,35.7249,-2.37826
658,113,35.7322,2.5929,0.000724461,0.00170215,-0.00134979,0.00264889,-0.000222275,-0.959134,0.00184449,0.0428919,1882,911,35.7322,-2.59291
665,113,35.7711,2.63623,0.000443485,0.00111915,-0.00102093,0.0018567,-0.000294059,-0.94518,0.00134656,0.0372057,1889,911,35.7711,-2.63621
672,113,35.7648,2.55902,0.000385848,0.000615475,-0.000835388,0.0013439,-0.00034258,-0.853689,0.00102931,0.0367972,1896,911,35.7647,-2.55904
679,113,35.7574,2.52911,0.000475126,0.00026075,-0.000727918,0.00110371,-0.00036783,-0.712297,0.000884293,0.0320593,1903,911,35.7574,-2.52909
686,113,35.7506,2.56207,0.000361426,8.07552e-05,-0.000583395,0.000821127,-0.000378946,-0.667366,0.000708366,0.0282108,1910,911,35.7506,-2.56209
693,113,35.7954,2.4339,0.000301671,-0.000149079,-0.000466096,0.000594021,-0.000441429,-0.560203,0.000599978,0.0463639,1917,911,35.7954,-2.43389
700,113,35.8845,2.02783,0,0,0,0,0,0,0,-1,1924,911,35.8845,-2.02783
707,113,32.2096,3.19476,0,0,0,0,0,0,0,-1,1931,911,32.2096,-3.19479
714,113,32.145,3.46094,0.000865584,-0.00016076,-0.00118593,0.00164461,-0.000939782,-0.581203,0.00151048,0.0193844,1938,911,32.145,-3.46091
721,113,32.1453,3.79242,0.00101199,-5.30148e-05,-0.00101091,0.00162208,-0.000663099,-0.542987,0.00135752,0.0187969,1945,911,32.1453,-3.79241
728,113,32.1699,4.1507,0.00138615,0.000140197,-0.000732263,0.00172458,-0.000198238,-0.432933,0.00122117,0.0191077,1952,911,32.1699,-4.15069
735,113,32.1343,4.49365,0.00277807,0.000225606,-0.00102942,0.0031415,-0.000137816,-0.339378,0.00214175,0.0166971,1959,911,32.1343,-4.49365
742,113,32.1121,4.79053,0.00453512,0.000193844,-0.00187826,0.00523493,-0.000505975,-0.356655,0.00367026,0.0125132,1966,911,32.112,-4.79052
749,113,32.1211,5.07349,0.00729584,9.13017e-05,-0.00286421,0.00829575,-0.000908605,-0.335877,0.00585691,0.00955302,1973,911,32.1211,-5.07348
756,113,32.0857,5.38037,0.0112953,-0.000345572,-0.00436252,0.0127487,-0.001799,-0.321597,0.00915789,0.0135724,1980,911,32.0857,-5.38037
763,113,31.9916,5.7533,0.0162646,-0.00115216,-0.0063759,0.0183492,-0.00323674,-0.315991,0.0134422,0.0273651,1987,911,31.9916,-5.75331
770,113,31.9032,6.18176,0.0222285,-0.00243193,-0.00904156,0.0251883,-0.00539171,-0.316359,0.0188483,0.0477503,1994,911,31.9032,-6.18176
777,113,31.9409,6.57416,0,0,0,0,0,0,0,-1,2001,911,31.9409,-6.57417
784,113,33.8761,5.66614,0,0,0,0,0,0,0,-1,2008,911,33.8761,-5.66615
791,113,33.7861,5.88489,0.0462407,-0.0107961,-0.0239389,0.0549563,-0.0195116,-0.349159,0.0445879,0.0468195,2015,911,33.7861,-5.88488
798,113,33.2717,6.18109,0,0,0,0,0,0,0,-1,2022,911,33.2718,-6.18106
805,113,0,0,0,0,0,0,0,0,0,-1,2029,911,0,0
812,113,0,0,0,0,0,0,0,0,0,-1,2036,911,0,0
-700,106,0,0,0,0,0,0,0,0,0,-1,524,918,0,0
-693,106,0,0,0,0,0,0,0,0,0,-1,531,918,0,0
-686,106,0,0,0,0,0,0,0,0,0,-1,538,918,0,0
-679,106,-28.0884,1.86108,0,0,0,0,0,0,0,-1,545,918,-28.0884,-1.86109
-672,106,-27.491,1.42114,0,0,0,0,0,0,0,-1,552,918,-27.491,-1.42117
-665,106,-26.8244,0.861572,0.0983865,-0.098354,-0.0401263,0.106256,-0.106223,-0.193654,0.122675,0.045574,559,918,-26.8244,-0.861561
-658,106,-25.9737,0.331055,0.0824026,-0.0795029,-0.0309177,0.0881058,-0.0852061,-0.182413,0.100066,0.0458762,566,918,-25.9737,-0.331076
-651,106,-22.9466,3.74817,0,0,0,0,0,0,0,-1,573,918,-22.9466,-3.74816
-644,106,-23.1512,3.4765,0.0527943,-0.0471719,-0.0159769,0.0552857,-0.0496633,-0.154691,0.0606213,0.0442333,580,918,-23.1512,-3.47649
-637,106,-23.3583,3.2204,0.0400015,-0.0343222,-0.0104382,0.0414396,-0.0357603,-0.136915,0.0446116,0.0291941,587,918,-23.3583,-3.2204
-630,106,-23.5546,2.96844,0.028962,-0.0238895,-0.00635746,0.0297159,-0.0246435,-0.118046,0.03143,0.012862,594,918,-23.5545,-2.96842
-623,106,-23.627,2.61938,0.0187328,-0.0149884,-0.00256053,0.0189261,-0.0151817,-0.0753566,0.0197317,0.0119779,601,918,-23.627,-2.61936
-616,106,-23.6494,2.3349,0.0102348,-0.00808749,9.26209e-05,0.0102353,-0.00808796,0.00505492,0.0106031,0.0120097,608,918,-23.6493,-2.33491
-609,106,-23.6542,2.09119,0.00341086,-0.00328326,0.001711,0.00382283,-0.00369523,0.236281,0.00434076,0.0118415,615,918,-23.6542,-2.09117
-602,106,-23.6476,1.82703,-0.00194935,-0.000881865,0.00208571,0.000737314,-0.00356853,0.910662,0.00265908,0.0164635,622,918,-23.6476,-1.82701
-595,106,-23.7356,1.57892,-0.0050798,-0.000189264,0.00192906,0.00048005,-0.00574912,1.23683,0.00400237,0.0202114,629,918,-23.7356,-1.57893
-588,106,-23.7137,1.28058,-0.00616966,-0.000214647,0.00138391,9.12515e-05,-0.00647556,1.35325,0.00434778,0.0231778,636,918,-23.7137,-1.28057
-581,106,-23.5817,0.959045,-0.00713794,-0.000271674,0.000925302,-0.000149166,-0.00726045,1.43916,0.00479135,0.0151319,643,918,-23.5817,-0.959027
-574,106,-23.5233,0.669495,0,0,0,0,0,0,0,-1,650,918,-23.5232,-0.669509
-567,106,-25.9592,0.600464,0,0,0,0,0,0,0,-1,657,918,-25.9593,-0.600435
-560,106,-25.9666,0.650024,-0.00604035,0.000418523,0.000751073,0.000504712,-0.00612654,1.45654,0.00426257,0.0465003,664,918,-25.9666,-0.65003
-553,106,-26.0306,0.774597,-0.0051828,0.000753587,0.000788978,0.000856657,-0.00528587,1.44089,0.00384144,0.0344844,671,918,-26.0306,-0.774579
-546,106,-26.079,0.592407,-0.00382533,0.00133768,0.000920532,0.0014969,-0.00398454,1.39953,0.00327154,0.038274,678,918,-26.079,-0.592386
-539,106,-26.2985,0.407776,-0.0017207,0.00203266,0.00114283,0.00235325,-0.00204129,1.2973,0.00253932,0.0426761,685,918,-26.2985,-0.407766
-532,106,-26.2529,0.553589,0.00128523,0.0027626,0.00146354,0.00366331,0.000384528,1.01911,0.00232465,0.0401647,692,918,-26.2529,-0.55357
-525,106,-26.1152,0.724731,0.00528748,0.00333555,0.00174567,0.00631148,0.00231155,0.530505,0.00368714,0.0374451,699,918,-26.1152,-0.724703
-518,106,-25.9555,0.467712,0,0,0,0,0,0,0,-1,706,918,-25.9555,-0.467686
-511,106,0,0,0,0,0,0,0,0,0,-1,713,918,0,0
-504,106,0,0,0,0,0,0,0,0,0,-1,720,918,0,0
-497,106,0,0,0,0,0,0,0,0,0,-1,727,918,0,0
-490,106,0,0,0,0,0,0,0,0,0,-1,734,918,0,0
-483,106,0,0,0,0,0,0,0,0,0,-1,741,918,0,0
-476,106,0,0,0,0,0,0,0,0,0,-1,748,918,0,0
-469,106,0,0,0,0,0,0,0,0,0,-1,755,918,0,0
-462,106,0,0,0,0,0,0,0,0,0,-1,762,918,0,0
-455,106,0,0,0,0,0,0,0,0,0,-1,769,918,0,0
-448,106,0,0,0,0,0,0,0,0,0,-1,776,918,0,0
-441,106,0,0,0,0,0,0,0,0,0,-1,783,918,0,0
-434,106,0,0,0,0,0,0,0,0,0,-1,790,918,0,0
-427,106,0,0,0,0,0,0,0,0,0,-1,797,918,0,0
-420,106,0,0,0,0,0,0,0,0,0,-1,804,918,0,0
-413,106,0,0,0,0,0,0,0,0,0,-1,811,918,0,0
-406,106,0,0,0,0,0,0,0,0,0,-1,818,918,0,0
-399,106,0,0,0,0,0,0,0,0,0,-1,825,918,0,0
-392,106,0,0,0,0,0,0,0,0,0,-1,832,918,0,0
-385,106,0,0,0,0,0,0,0,0,0,-1,839,918,0,0
-378,106,0,0,0,0,0,0,0,0,0,-1,846,918,0,0
-371,106,0,0,0,0,0,0,0,0,0,-1,853,918,0,0
-364,106,0,0,0,0,0,0,0,0,0,-1,860,918,0,0
-357,106,0,0,0,0,0,0,0,0,0,-1,867,918,0,0
-350,106,0,0,0,0,0,0,0,0,0,-1,874,918,0,0
-343,106,0,0,0,0,0,0,0,0,0,-1,881,918,0,0
-336,106,0,0,0,0,0,0,0,0,0,-1,888,918,0,0
-329,106,0,0,0,0,0,0,0,0,0,-1,895,918,0,0
-322,106,0,0,0,0,0,0,0,0,0,-1,902,918,0,0
-315,106,0,0,0,0,0,0,0,0,0,-1,909,918,0,0
-308,106,0,0,0,0,0,0,0,0,0,-1,916,918,0,0
-301,106,0,0,0,0,0,0,0,0,0,-1,923,918,0,0
-294,106,0,0,0,0,0,0,0,0,0,-1,930,918,0,0
-287,106,0,0,0,0,0,0,0,0,0,-1,937,918,0,0
-280,106,0,0,0,0,0,0,0,0,0,-1,944,918,0,0
-273,106,0,0,0,0,0,0,0,0,0,-1,951,918,0,0
-266,106,0,0,0,0,0,0,0,0,0,-1,958,918,0,0
-259,106,0,0,0,0,0,0,0,0,0,-1,965,918,0,0
-252,106,0,0,0,0,0,0,0,0,0,-1,972,918,0,0
-245,106,0,0,0,0,0,0,0,0,0,-1,979,918,0,0
-238,106,0,0,0,0,0,0,0,0,0,-1,986,918,0,0
-231,106,0,0,0,0,0,0,0,0,0,-1,993,918,0,0
-224,106,0,0,0,0,0,0,0,0,0,-1,1000,918,0,0
-217,106,0,0,0,0,0,0,0,0,0,-1,1007,918,0,0
-210,106,0,0,0,0,0,0,0,0,0,-1,1014,918,0,0
-203,106,0,0,0,0,0,0,0,0,0,-1,1021,918,0,0
-196,106,0,0,0,0,0,0,0,0,0,-1,1028,918,0,0
-189,106,0,0,0,0,0,0,0,0,0,-1,1035,918,0,0
-182,106,0,0,0,0,0,0,0,0,0,-1,1042,918,0,0
-175,106,0,0,0,0,0,0,0,0,0,-1,1049,918,0,0
-168,106,0,0,0,0,0,0,0,0,0,-1,1056,918,0,0
-161,106,0,0,0,0,0,0,0,0,0,-1,1063,918,0,0
-154,106,0,0,0,0,0,0,0,0,0,-1,1070,918,0,0
-147,106,0,0,0,0,0,0,0,0,0,-1,1077,918,0,0
-140,106,0,0,0,0,0,0,0,0,0,-1,1084,918,0,0
-133,106,0,0,0,0,0,0,0,0,0,-1,1091,918,0,0
-126,106,0,0,0,0,0,0,0,0,0,-1,1098,918,0,0
-119,106,0,0,0,0,0,0,0,0,0,-1,1105,918,0,0
-112,106,0,0,0,0,0,0,0,0,0,-1,1112,918,0,0
-105,106,0,0,0,0,0,0,0,0,0,-1,1119,918,0,0
-98,106,0,0,0,0,0,0,0,0,0,-1,1126,918,0,0
-91,106,0,0,0,0,0,0,0,0,0,-1,1133,918,0,0
-84,106,0,0,0,0,0,0,0,0,0,-1,1140,918,0,0
-77,106,0,0,0,0,0,0,0,0,0,-1,1147,918,0,0
-70,106,0,0,0,0,0,0,0,0,0,-1,1154,918,0,0
-63,106,0,0,0,0,0,0,0,0,0,-1,1161,918,0,0
-56,106,0,0,0,0,0,0,0,0,0,-1,1168,918,0,0
-49,106,0,0,0,0,0,0,0,0,0,-1,1175,918,0,0
-42,106,0,0,0,0,0,0,0,0,0,-1,1182,918,0,0
-35,106,0,0,0,0,0,0,0,0,0,-1,1189,918,0,0
-28,106,0,0,0,0,0,0,0,0,0,-1,1196,918,0,0
-21,106,0,0,0,0,0,0,0,0,0,-1,1203,918,0,0
-14,106,0,0,0,0,0,0,0,0,0,-1,1210,918,0,0
-7,106,0,0,0,0,0,0,0,0,0,-1,1217,918,0,0
0,106,0,0,0,0,0,0,0,0,0,-1,1224,918,0,0
7,106,0,0,0,0,0,0,0,0,0,-1,1231,918,0,0
14,106,0,0,0,0,0,0,0,0,0,-1,1238,918,0,0
21,106,0,0,0,0,0,0,0,0,0,-1,1245,918,0,0
28,106,0,0,0,0,0,0,0,0,0,-1,1252,918,0,0
35,106,0,0,0,0,0,0,0,0,0,-1,1259,918,0,0
42,106,0,0,0,0,0,0,0,0,0,-1,1266,918,0,0
49,106,0,0,0,0,0,0,0,0,0,-1,1273,918,0,0
56,106,0,0,0,0,0,0,0,0,0,-1,1280,918,0,0
63,106,0,0,0,0,0,0,0,0,0,-1,1287,918,0,0
70,106,0,0,0,0,0,0,0,0,0,-1,1294,918,0,0
77,106,0,0,0,0,0,0,0,0,0,-1,1301,918,0,0
84,106,0,0,0,0,0,0,0,0,0,-1,1308,918,0,0
91,106,0,0,0,0,0,0,0,0,0,-1,1315,918,0,0
98,106,0,0,0,0,0,0,0,0,0,-1,1322,918,0,0
105,106,0,0,0,0,0,0,0,0,0,-1,1329,918,0,0
112,106,0,0,0,0,0,0,0,0,0,-1,1336,918,0,0
119,106,0,0,0,0,0,0,0,0,0,-1,1343,918,0,0
126,106,0,0,0,0,0,0,0,0,0,-1,1350,918,0,0
133,106,0,0,0,0,0,0,0,0,0,-1,1357,918,0,0
140,106,0,0,0,0,0,0,0,0,0,-1,1364,918,0,0
147,106,0,0,0,0,0,0,0,0,0,-1,1371,918,0,0
154,106,0,0,0,0,0,0,0,0,0,-1,1378,918,0,0
161,106,0,0,0,0,0,0,0,0,0,-1,1385,918,0,0
168,106,0,0,0,0,0,0,0,0,0,-1,1392,918,0,0
175,106,0,0,0,0,0,0,0,0,0,-1,1399,918,0,0
182,106,0,0,0,0,0,0,0,0,0,-1,1406,918,0,0
189,106,0,0,0,0,0,0,0,0,0,-1,1413,918,0,0
196,106,0,0,0,0,0,0,0,0,0,-1,1420,918,0,0
203,106,0,0,0,0,0,0,0,0,0,-1,1427,918,0,0
210,106,0,0,0,0,0,0,0,0,0,-1,1434,918,0,0
217,106,0,0,0,0,0,0,0,0,0,-1,1441,918,0,0
224,106,0,0,0,0,0,0,0,0,0,-1,1448,918,0,0
231,106,0,0,0,0,0,0,0,0,0,-1,1455,918,0,0
238,106,0,0,0,0,0,0,0,0,0,-1,1462,918,0,0
245,106,0,0,0,0,0,0,0,0,0,-1,1469,918,0,0
252,106,0,0,0,0,0,0,0,0,0,-1,1476,918,0,0
259,106,0,0,0,0,0,0,0,0,0,-1,1483,918,0,0
266,106,0,0,0,0,0,0,0,0,0,-1,1490,918,0,0
273,106,0,0,0,0,0,0,0,0,0,-1,1497,918,0,0
280,106,0,0,0,0,0,0,0,0,0,-1,1504,918,0,0
287,106,0,0,0,0,0,0,0,0,0,-1,1511,918,0,0
294,106,0,0,0,0,0,0,0,0,0,-1,1518,918,0,0
301,106,0,0,0,0,0,0,0,0,0,-1,1525,918,0,0
308,106,0,0,0,0,0,0,0,0,0,-1,1532,918,0,0
315,106,0,0,0,0,0,0,0,0,0,-1,1539,918,0,0
322,106,0,0,0,0,0,0,0,0,0,-1,1546,918,0,0
329,106,0,0,0,0,0,0,0,0,0,-1,1553,918,0,0
336,106,0,0,0,0,0,0,0,0,0,-1,1560,918,0,0
343,106,0,0,0,0,0,0,0,0,0,-1,1567,918,0,0
350,106,0,0,0,0,0,0,0,0,0,-1,1574,918,0,0
357,106,0,0,0,0,0,0,0,0,0,-1,1581,918,0,0
364,106,0,0,0,0,0,0,0,0,0,-1,1588,918,0,0
371,106,0,0,0,0,0,0,0,0,0,-1,1595,918,0,0
378,106,0,0,0,0,0,0,0,0,0,-1,1602,918,0,0
385,106,0,0,0,0,0,0,0,0,0,-1,1609,918,0,0
392,106,0,0,0,0,0,0,0,0,0,-1,1616,918,0,0
399,106,0,0,0,0,0,0,0,0,0,-1,1623,918,0,0
406,106,0,0,0,0,0,0,0,0,0,-1,1630,918,0,0
413,106,0,0,0,0,0,0,0,0,0,-1,1637,918,0,0
420,106,0,0,0,0,0,0,0,0,0,-1,1644,918,0,0
427,106,0,0,0,0,0,0,0,0,0,-1,1651,918,0,0
434,106,0,0,0,0,0,0,0,0,0,-1,1658,918,0,0
441,106,0,0,0,0,0,0,0,0,0,-1,1665,918,0,0
448,106,0,0,0,0,0,0,0,0,0,-1,1672,918,0,0
455,106,0,0,0,0,0,0,0,0,0,-1,1679,918,0,0
462,106,0,0,0,0,0,0,0,0,0,-1,1686,918,0,0
469,106,0,0,0,0,0,0,0,0,0,-1,1693,918,0,0
476,106,0,0,0,0,0,0,0,0,0,-1,1700,918,0,0
483,106,0,0,0,0,0,0,0,0,0,-1,1707,918,0,0
490,106,0,0,0,0,0,0,0,0,0,-1,1714,918,0,0
497,106,0,0,0,0,0,0,0,0,0,-1,1721,918,0,0
504,106,0,0,0,0,0,0,0,0,0,-1,1728,918,0,0
511,106,0,0,0,0,0,0,0,0,0,-1,1735,918,0,0
518,106,0,0,0,0,0,0,0,0,0,-1,1742,918,0,0
525,106,0,0,0,0,0,0,0,0,0,-1,1749,918,0,0
532,106,0,0,0,0,0,0,0,0,0,-1,1756,918,0,0
539,106,0,0,0,0,0,0,0,0,0,-1,1763,918,0,0
546,106,0,0,0,0,0,0,0,0,0,-1,1770,918,0,0
553,106,0,0,0,0,0,0,0,0,0,-1,1777,918,0,0
560,106,0,0,0,0,0,0,0,0,0,-1,1784,918,0,0
567,106,0,0,0,0,0,0,0,0,0,-1,1791,918,0,0
574,106,0,0,0,0,0,0,0,0,0,-1,1798,918,0,0
581,106,0,0,0,0,0,0,0,0,0,-1,1805,918,0,0
588,106,0,0,0,0,0,0,0,0,0,-1,1812,918,0,0
595,106,0,0,0,0,0,0,0,0,0,-1,1819,918,0,0
602,106,0,0,0,0,0,0,0,0,0,-1,1826,918,0,0
609,106,0,0,0,0,0,0,0,0,0,-1,1833,918,0,0
616,106,0,0,0,0,0,0,0,0,0,-1,1840,918,0,0
623,106,0,0,0,0,0,0,0,0,0,-1,1847,918,0,0
630,106,35.7145,2.77112,0.00959358,0.00598161,-0.00915459,0.0171186,-0.00154344,-0.68801,0.0119601,0.0395655,1854,918,35.7145,-2.77111
637,106,35.8314,2.7204,0.00582836,0.00506874,-0.00594055,0.0114012,-0.000504126,-0.753474,0.00777431,0.0386197,1861,918,35.8315,-2.72041
644,106,35.848,2.59998,0.00323223,0.00411736,-0.00376154,0.00746228,-0.000112697,-0.843957,0.00501284,0.038141,1868,918,35.848,-2.6
651,106,35.7788,2.57642,0.00160971,0.00318409,-0.00234323,0.00486882,-7.50239e-05,-0.947446,0.00327118,0.0411517,1875,918,35.7788,-2.57643
658,106,35.7419,2.60406,0.000634863,0.00239331,-0.00145107,0.00321074,-0.000182571,-1.05778,0.00220387,0.0412509,1882,918,35.742,-2.60408
665,106,35.7244,2.67621,0.000228582,0.00175707,-0.000992271,0.00224529,-0.000259641,-1.11355,0.00159049,0.0397184,1889,918,35.7243,-2.67621
672,106,35.7489,2.65302,0.000118394,0.00120147,-0.000734138,0.00157219,-0.00025233,-1.10317,0.00114157,0.0402976,1896,918,35.7489,-2.65304
679,106,35.7711,2.57642,0.000193743,0.00076068,-0.000577354,0.0011204,-0.000165977,-1.0136,0.000807962,0.0349328,1903,918,35.7711,-2.57644
686,106,35.7646,2.53174,0.000110439,0.000490975,-0.000426708,0.000767913,-0.000166499,-0.995117,0.000575526,0.0315331,1910,918,35.7646,-2.53172
693,106,35.8145,2.37787,6.48931e-05,0.000176272,-0.000277092,0.000403215,-0.00016205,-0.884566,0.000336111,0.0303308,1917,918,35.8145,-2.37786
700,106,35.9581,2.02118,0,0,0,0,0,0,0,-1,1924,918,35.9581,-2.02118
707,106,32.3511,3.13898,0,0,0,0,0,0,0,-1,1931,918,32.351,-3.139
714,106,32.4714,3.46411,0.000557821,8.02377e-05,-0.000995888,0.00134315,-0.000705087,-0.667731,0.00120152,0.0258921,1938,918,32.4715,-3.46409
721,106,32.489,3.81396,0.000665023,0.000185296,-0.000839092,0.00129786,-0.000447543,-0.64618,0.00104681,0.021605,1945,918,32.489,-3.81398
728,106,32.5522,4.16754,0.00103397,0.000411619,-0.000550257,0.00135495,9.06449e-05,-0.528061,0.000874649,0.0209617,1952,918,32.5523,-4.16757
735,106,32.5067,4.47491,0.00227628,0.000606303,-0.000815097,0.00260816,0.00027442,-0.386673,0.0016549,0.0183655,1959,918,32.5067,-4.47492
742,106,32.4525,4.7522,0.00361104,0.000847543,-0.00148857,0.00426032,0.000198262,-0.411299,0.00277649,0.0118073,1966,918,32.4525,-4.75222
749,106,32.4471,5.04413,0.00589811,0.0011356,-0.00224261,0.0067879,0.000245815,-0.377712,0.00444559,0.0100101,1973,918,32.4471,-5.04415
756,106,32.4137,5.33929,0.00939165,0.00122292,-0.00338767,0.0106137,8.40053e-07,-0.346214,0.00707554,0.0120721,1980,918,32.4137,-5.33929
763,106,32.3373,5.74109,0.0138075,0.00102884,-0.00493008,0.0154884,-0.000652104,-0.328595,0.0105497,0.0213971,1987,918,32.3372,-5.74109
770,106,32.218,6.10638,0.0190912,0.000465154,-0.00699371,0.0214248,-0.00186847,-0.322058,0.014945,0.042281,1994,918,32.2181,-6.1064
777,106,32.1598,6.4101,0,0,0,0,0,0,0,-1,2001,918,32.1598,-6.41008
784,106,33.8778,6.03217,0.0326697,-0.00253276,-0.0136974,0.0373714,-0.00723448,-0.330655,0.0276431,0.0440455,2008,918,33.8778,-6.03217
791,106,33.5894,6.1864,0.0404889,-0.00513738,-0.0191189,0.047441,-0.0120895,-0.348762,0.0363339,0.0447999,2015,918,33.5892,-6.18639
798,106,33.1357,6.46802,0,0,0,0,0,0,0,-1,2022,918,33.1356,-6.468
805,106,0,0,0,0,0,0,0,0,0,-1,2029,918,0,0
812,106,0,0,0,0,0,0,0,0,0,-1,2036,918,0,0
-700,99,0,0,0,0,0,0,0,0,0,-1,524,925,0,0
-693,99,0,0,0,0,0,0,0,0,0,-1,531,925,0,0
-686,99,0,0,0,0,0,0,0,0,0,-1,538,925,0,0
-679,99,-27.313,2.97406,0.110882,-0.129176,-0.0531077,0.122106,-0.1404,-0.208282,0.151681,0.0472004,545,925,-27.3131,-2.97403
-672,99,-26.8345,2.38623,0.0989443,-0.110698,-0.0450935,0.108232,-0.119986,-0.203131,0.13182,0.0450764,552,925,-26.8345,-2.38625
-665,99,-26.2023,1.86273,0.0854657,-0.0919025,-0.0367444,0.0927765,-0.0992133,-0.196399,0.110866,0.0488892,559,925,-26.2023,-1.86274
-658,99,-22.8868,4.07819,0,0,0,0,0,0,0,-1,566,925,-22.8868,-4.0782
-651,99,-23.3071,3.88684,0.0583547,-0.0577682,-0.0215148,0.0622127,-0.0616262,-0.177433,0.0714987,0.0498184,573,925,-23.3071,-3.88683
-644,99,-23.408,3.52551,0.0459736,-0.0435059,-0.0152471,0.0485003,-0.0460326,-0.164225,0.0545848,0.0449244,580,925,-23.408,-3.52553
-637,99,-23.6552,3.21448,0.0348541,-0.0314989,-0.0101153,0.0363619,-0.0330067,-0.14797,0.0400656,0.0284754,587,925,-23.6552,-3.21445
-630,99,-23.8459,2.93719,0.0251126,-0.0217903,-0.00635794,0.0259591,-0.0226369,-0.132373,0.0280788,0.0142854,594,925,-23.8459,-2.93722
-623,99,-23.9534,2.62378,0.015892,-0.0135458,-0.00277512,0.0161513,-0.0138052,-0.0931768,0.017313,0.00948672,601,925,-23.9533,-2.62376
-616,99,-23.9663,2.35034,0.00821601,-0.00716278,-0.000215922,0.00821904,-0.00716581,-0.0140365,0.00888939,0.0104781,608,925,-23.9663,-2.35033
-609,99,-23.9614,2.10181,0.0020763,-0.00278314,0.00131775,0.00241064,-0.00311748,0.248474,0.00320034,0.0103804,615,925,-23.9614,-2.10182
-602,99,-23.9547,1.86401,-0.00280333,-0.000581401,0.00166266,0.000307302,-0.00369204,1.07993,0.00256992,0.0127774,622,925,-23.9547,-1.86402
-595,99,-24.0273,1.61639,-0.00582147,2.40086e-05,0.0015618,0.000415125,-0.00621259,1.32542,0.0042868,0.0177874,629,925,-24.0273,-1.61639
-588,99,-24.0131,1.32562,-0.00700272,8.82369e-05,0.00104707,0.000239618,-0.0071541,1.42721,0.00485125,0.0187133,636,925,-24.0131,-1.3256
-581,99,-23.8976,0.997742,-0.00791148,3.98587e-05,0.000594479,8.40588e-05,-0.00795568,1.49658,0.00533202,0.0122543,643,925,-23.8976,-0.997758
-574,99,-24.1693,0.713684,-0.00797947,0.000290929,0.000465692,0.000317069,-0.00800561,1.51472,0.00544584,0.0281639,650,925,-24.1693,-0.713706
-567,99,-26.0059,0.637634,0,0,0,0,0,0,0,-1,657,925,-26.0059,-0.63764
-560,99,-25.9633,0.641357,-0.00689712,0.00101804,0.000419011,0.00104016,-0.00691924,1.51806,0.00499578,0.0368765,664,925,-25.9633,-0.641328
-553,99,-25.9907,0.74353,-0.00588754,0.00147243,0.000515578,0.00150838,-0.00592348,1.5012,0.00453616,0.0376676,671,925,-25.9908,-0.743534
-546,99,-26.0366,0.620239,-0.00422453,0.00215771,0.000726018,0.00223925,-0.00430608,1.45894,0.00384124,0.0425675,678,925,-26.0366,-0.620257
-539,99,-26.2045,0.350159,-0.00166575,0.00292859,0.00107181,0.00316633,-0.00190349,1.35252,0.00295717,0.0405774,685,925,-26.2045,-0.35015
-532,99,-26.0776,0.534668,0.00198513,0.00367118,0.00157082,0.00461089,0.00104541,1.03168,0.00279149,0.0408048,692,925,-26.0776,-0.534668
-525,99,-26.0344,0.758728,0.00660393,0.00419469,0.0020884,0.00781023,0.00298839,0.523799,0.00455047,0.0431977,699,925,-26.0344,-0.758735
-518,99,-26.0334,0.841492,0.00967176,0.00456469,0.00313434,0.0111611,0.00307537,0.443579,0.00665676,0.0432393,706,925,-26.0334,-0.84151
-511,99,0,0,0,0,0,0,0,0,0,-1,713,925,0,0
-504,99,0,0,0,0,0,0,0,0,0,-1,720,925,0,0
-497,99,0,0,0,0,0,0,0,0,0,-1,727,925,0,0
-490,99,0,0,0,0,0,0,0,0,0,-1,734,925,0,0
-483,99,0,0,0,0,0,0,0,0,0,-1,741,925,0,0
-476,99,0,0,0,0,0,0,0,0,0,-1,748,925,0,0
-469,99,0,0,0,0,0,0,0,0,0,-1,755,925,0,0
-462,99,0,0,0,0,0,0,0,0,0,-1,762,925,0,0
-455,99,0,0,0,0,0,0,0,0,0,-1,769,925,0,0
-448,99,0,0,0,0,0,0,0,0,0,-1,776,925,0,0
-441,99,0,0,0,0,0,0,0,0,0,-1,783,925,0,0
-434,99,0,0,0,0,0,0,0,0,0,-1,790,925,0,0
-427,99,0,0,0,0,0,0,0,0,0,-1,797,925,0,0
-420,99,0,0,0,0,0,0,0,0,0,-1,804,925,0,0
-413,99,0,0,0,0,0,0,0,0,0,-1,811,925,0,0
-406,99,0,0,0,0,0,0,0,0,0,-1,818,925,0,0
-399,99,0,0,0,0,0,0,0,0,0,-1,825,925,0,0
-392,99,0,0,0,0,0,0,0,0,0,-1,832,925,0,0
-385,99,0,0,0,0,0,0,0,0,0,-1,839,925,0,0
-378,99,0,0,0,0,0,0,0,0,0,-1,846,925,0,0
-371,99,0,0,0,0,0,0,0,0,0,-1,853,925,0,0
-364,99,0,0,0,0,0,0,0,0,0,-1,860,925,0,0
-357,99,0,0,0,0,0,0,0,0,0,-1,867,925,0,0
-350,99,0,0,0,0,0,0,0,0,0,-1,874,925,0,0
-343,99,0,0,0,0,0,0,0,0,0,-1,881,925,0,0
-336,99,0,0,0,0,0,0,0,0,0,-1,888,925,0,0
-329,99,0,0,0,0,0,0,0,0,0,-1,895,925,0,0
-322,99,0,0,0,0,0,0,0,0,0,-1,902,925,0,0
-315,99,0,0,0,0,0,0,0,0,0,-1,909,925,0,0
-308,99,0,0,0,0,0,0,0,0,0,-1,916,925,0,0
-301,99,0,0,0,0,0,0,0,0,0,-1,923,925,0,0
-294,99,0,0,0,0,0,0,0,0,0,-1,930,925,0,0
-287,99,0,0,0,0,0,0,0,0,0,-1,937,925,0,0
-280,99,0,0,0,0,0,0,0,0,0,-1,944,925,0,0
-273,99,0,0,0,0,0,0,0,0,0,-1,951,925,0,0
-266,99,0,0,0,0,0,0,0,0,0,-1,958,925,0,0
-259,99,0,0,0,0,0,0,0,0,0,-1,965,925,0,0
-252,99,0,0,0,0,0,0,0,0,0,-1,972,925,0,0
-245,99,0,0,0,0,0,0,0,0,0,-1,979,925,0,0
-238,99,0,0,0,0,0,0,0,0,0,-1,986,925,0,0
-231,99,0,0,0,0,0,0,0,0,0,-1,993,925,0,0
-224,99,0,0,0,0,0,0,0,0,0,-1,1000,925,0,0
-217,99,0,0,0,0,0,0,0,0,0,-1,1007,925,0,0
-210,99,0,0,0,0,0,0,0,0,0,-1,1014,925,0,0
-203,99,0,0,0,0,0,0,0,0,0,-1,1021,925,0,0
-196,99,0,0,0,0,0,0,0,0,0,-1,1028,925,0,0
-189,99,0,0,0,0,0,0,0,0,0,-1,1035,925,0,0
-182,99,0,0,0,0,0,0,0,0,0,-1,1042,925,0,0
-175,99,0,0,0,0,0,0,0,0,0,-1,1049,925,0,0
-168,99,0,0,0,0,0,0,0,0,0,-1,1056,925,0,0
-161,99,0,0,0,0,0,0,0,0,0,-1,1063,925,0,0
-154,99,0,0,0,0,0,0,0,0,0,-1,1070,925,0,0
-147,99,0,0,0,0,0,0,0,0,0,-1,1077,925,0,0
-140,99,0,0,0,0,0,0,0,0,0,-1,1084,925,0,0
-133,99,0,0,0,0,0,0,0,0,0,-1,1091,925,0,0
-126,99,0,0,0,0,0,0,0,0,0,-1,1098,925,0,0
-119,99,0,0,0,0,0,0,0,0,0,-1,1105,925,0,0
-112,99,0,0,0,0,0,0,0,0,0,-1,1112,925,0,0
-105,99,0,0,0,0,0,0,0,0,0,-1,1119,925,0,0
-98,99,0,0,0,0,0,0,0,0,0,-1,1126,925,0,0
-91,99,0,0,0,0,0,0,0,0,0,-1,1133,925,0,0
-84,99,0,0,0,0,0,0,0,0,0,-1,1140,925,0,0
-77,99,0,0,0,0,0,0,0,0,0,-1,1147,925,0,0
-70,99,0,0,0,0,0,0,0,0,0,-1,1154,925,0,0
-63,99,0,0,0,0,0,0,0,0,0,-1,1161,925,0,0
-56,99,0,0,0,0,0,0,0,0,0,-1,1168,925,0,0
-49,99,0,0,0,0,0,0,0,0,0,-1,1175,925,0,0
-42,99,0,0,0,0,0,0,0,0,0,-1,1182,925,0,0
-35,99,0,0,0,0,0,0,0,0,0,-1,1189,925,0,0
-28,99,0,0,0,0,0,0,0,0,0,-1,1196,925,0,0
-21,99,0,0,0,0,0,0,0,0,0,-1,1203,925,0,0
-14,99,0,0,0,0,0,0,0,0,0,-1,1210,925,0,0
-7,99,0,0,0,0,0,0,0,0,0,-1,1217,925,0,0
0,99,0,0,0,0,0,0,0,0,0,-1,1224,925,0,0
7,99,0,0,0,0,0,0,0,0,0,-1,1231,925,0,0
14,99,0,0,0,0,0,0,0,0,0,-1,1238,925,0,0
21,99,0,0,0,0,0,0,0,0,0,-1,1245,925,0,0
28,99,0,0,0,0,0,0,0,0,0,-1,1252,925,0,0
35,99,0,0,0,0,0,0,0,0,0,-1,1259,925,0,0
42,99,0,0,0,0,0,0,0,0,0,-1,1266,925,0,0
49,99,0,0,0,0,0,0,0,0,0,-1,1273,925,0,0
56,99,0,0,0,0,0,0,0,0,0,-1,1280,925,0,0
63,99,0,0,0,0,0,0,0,0,0,-1,1287,925,0,0
70,99,0,0,0,0,0,0,0,0,0,-1,1294,925,0,0
77,99,0,0,0,0,0,0,0,0,0,-1,1301,925,0,0
84,99,0,0,0,0,0,0,0,0,0,-1,1308,925,0,0
91,99,0,0,0,0,0,0,0,0,0,-1,1315,925,0,0
98,99,0,0,0,0,0,0,0,0,0,-1,1322,925,0,0
105,99,0,0,0,0,0,0,0,0,0,-1,1329,925,0,0
112,99,0,0,0,0,0,0,0,0,0,-1,1336,925,0,0
119,99,0,0,0,0,0,0,0,0,0,-1,1343,925,0,0
126,99,0,0,0,0,0,0,0,0,0,-1,1350,925,0,0
133,99,0,0,0,0,0,0,0,0,0,-1,1357,925,0,0
140,99,0,0,0,0,0,0,0,0,0,-1,1364,925,0,0
147,99,0,0,0,0,0,0,0,0,0,-1,1371,925,0,0
154,99,0,0,0,0,0,0,0,0,0,-1,1378,925,0,0
161,99,0,0,0,0,0,0,0,0,0,-1,1385,925,0,0
168,99,0,0,0,0,0,0,0,0,0,-1,1392,925,0,0
175,99,0,0,0,0,0,0,0,0,0,-1,1399,925,0,0
182,99,0,0,0,0,0,0,0,0,0,-1,1406,925,0,0
189,99,0,0,0,0,0,0,0,0,0,-1,1413,925,0,0
196,99,0,0,0,0,0,0,0,0,0,-1,1420,925,0,0
203,99,0,0,0,0,0,0,0,0,0,-1,1427,925,0,0
210,99,0,0,0,0,0,0,0,0,0,-1,1434,925,0,0
217,99,0,0,0,0,0,0,0,0,0,-1,1441,925,0,0
224,99,0,0,0,0,0,0,0,0,0,-1,1448,925,0,0
231,99,0,0,0,0,0,0,0,0,0,-1,1455,925,0,0
238,99,0,0,0,0,0,0,0,0,0,-1,1462,925,0,0
245,99,0,0,0,0,0,0,0,0,0,-1,1469,925,0,0
252,99,0,0,0,0,0,0,0,0,0,-1,1476,925,0,0
259,99,0,0,0,0,0,0,0,0,0,-1,1483,925,0,0
266,99,0,0,0,0,0,0,0,0,0,-1,1490,925,0,0
273,99,0,0,0,0,0,0,0,0,0,-1,1497,925,0,0
280,99,0,0,0,0,0,0,0,0,0,-1,1504,925,0,0
287,99,0,0,0,0,0,0,0,0,0,-1,1511,925,0,0
294,99,0,0,0,0,0,0,0,0,0,-1,1518,925,0,0
301,99,0,0,0,0,0,0,0,0,0,-1,1525,925,0,0
308,99,0,0,0,0,0,0,0,0,0,-1,1532,925,0,0
315,99,0,0,0,0,0,0,0,0,0,-1,1539,925,0,0
322,99,0,0,0,0,0,0,0,0,0,-1,1546,925,0,0
329,99,0,0,0,0,0,0,0,0,0,-1,1553,925,0,0
336,99,0,0,0,0,0,0,0,0,0,-1,1560,925,0,0
343,99,0,0,0,0,0,0,0,0,0,-1,1567,925,0,0
350,99,0,0,0,0,0,0,0,0,0,-1,1574,925,0,0
357,99,0,0,0,0,0,0,0,0,0,-1,1581,925,0,0
364,99,0,0,0,0,0,0,0,0,0,-1,1588,925,0,0
371,99,0,0,0,0,0,0,0,0,0,-1,1595,925,0,0
378,99,0,0,0,0,0,0,0,0,0,-1,1602,925,0,0
385,99,0,0,0,0,0,0,0,0,0,-1,1609,925,0,0
392,99,0,0,0,0,0,0,0,0,0,-1,1616,925,0,0
399,99,0,0,0,0,0,0,0,0,0,-1,1623,925,0,0
406,99,0,0,0,0,0,0,0,0,0,-1,1630,925,0,0
413,99,0,0,0,0,0,0,0,0,0,-1,1637,925,0,0
420,99,0,0,0,0,0,0,0,0,0,-1,1644,925,0,0
427,99,0,0,0,0,0,0,0,0,0,-1,1651,925,0,0
434,99,0,0,0,0,0,0,0,0,0,-1,1658,925,0,0
441,99,0,0,0,0,0,0,0,0,0,-1,1665,925,0,0
448,99,0,0,0,0,0,0,0,0,0,-1,1672,925,0,0
455,99,0,0,0,0,0,0,0,0,0,-1,1679,925,0,0
462,99,0,0,0,0,0,0,0,0,0,-1,1686,925,0,0
469,99,0,0,0,0,0,0,0,0,0,-1,1693,925,0,0
476,99,0,0,0,0,0,0,0,0,0,-1,1700,925,0,0
483,99,0,0,0,0,0,0,0,0,0,-1,1707,925,0,0
490,99,0,0,0,0,0,0,0,0,0,-1,1714,925,0,0
497,99,0,0,0,0,0,0,0,0,0,-1,1721,925,0,0
504,99,0,0,0,0,0,0,0,0,0,-1,1728,925,0,0
511,99,0,0,0,0,0,0,0,0,0,-1,1735,925,0,0
518,99,0,0,0,0,0,0,0,0,0,-1,1742,925,0,0
525,99,0,0,0,0,0,0,0,0,0,-1,1749,925,0,0
532,99,0,0,0,0,0,0,0,0,0,-1,1756,925,0,0
539,99,0,0,0,0,0,0,0,0,0,-1,1763,925,0,0
546,99,0,0,0,0,0,0,0,0,0,-1,1770,925,0,0
553,99,0,0,0,0,0,0,0,0,0,-1,1777,925,0,0
560,99,0,0,0,0,0,0,0,0,0,-1,1784,925,0,0
567,99,0,0,0,0,0,0,0,0,0,-1,1791,925,0,0
574,99,0,0,0,0,0,0,0,0,0,-1,1798,925,0,0
581,99,0,0,0,0,0,0,0,0,0,-1,1805,925,0,0
588,99,0,0,0,0,0,0,0,0,0,-1,1812,925,0,0
595,99,0,0,0,0,0,0,0,0,0,-1,1819,925,0,0
602,99,0,0,0,0,0,0,0,0,0,-1,1826,925,0,0
609,99,0,0,0,0,0,0,0,0,0,-1,1833,925,0,0
616,99,0,0,0,0,0,0,0,0,0,-1,1840,925,0,0
623,99,0,0,0,0,0,0,0,0,0,-1,1847,925,0,0
630,99,0,0,0,0,0,0,0,0,0,-1,1854,925,0,0
637,99,35.7983,2.65894,0.00659658,0.00580745,-0.00692265,0.0131359,-0.000731871,-0.756931,0.00901114,0.0418514,1861,925,35.7983,-2.65896
644,99,35.8335,2.63129,0.00378503,0.00481756,-0.00445155,0.00878268,-0.000180084,-0.843128,0.00591606,0.039125,1868,925,35.8335,-2.63127
651,99,35.8086,2.58679,0.00201849,0.00383592,-0.00283625,0.00590547,-5.10626e-05,-0.940428,0.00395411,0.039656,1875,925,35.8086,-2.58679
658,99,35.7639,2.74463,0.000865457,0.0029939,-0.00175892,0.0039855,-0.000126136,-1.05746,0.00270003,0.0395671,1882,925,35.7639,-2.7446
665,99,35.6738,2.73871,0.000303454,0.00230289,-0.00113001,0.00281194,-0.000205592,-1.14755,0.00194678,0.0387279,1889,925,35.6738,-2.73873
672,99,35.7144,2.66821,8.60193e-05,0.00169963,-0.000751958,0.00199572,-0.000210069,-1.19568,0.00140575,0.0394438,1896,925,35.7144,-2.66824
679,99,35.7762,2.52203,0.000100561,0.00118183,-0.000514724,0.00138767,-0.00010528,-1.19037,0.00096213,0.035908,1903,925,35.7762,-2.52203
686,99,35.7499,2.47931,2.70378e-05,0.000834057,-0.000338145,0.000957009,-9.59141e-05,-1.22205,0.000672262,0.031126,1910,925,35.7498,-2.47929
693,99,35.7373,2.48486,-2.17767e-05,0.00043792,-0.00014507,0.000479873,-6.37292e-05,-1.28929,0.000343137,0.0297247,1917,925,35.7373,-2.48487
700,99,35.8204,2.38165,0,0,0,0,0,0,0,-1,1924,925,35.8204,-2.38167
707,99,32.8981,3.16119,0,0,0,0,0,0,0,-1,1931,925,32.8981,-3.16117
714,99,32.8792,3.51996,0.000312,0.00027076,-0.000822774,0.00111441,-0.000531652,-0.77287,0.000970006,0.0287871,1938,925,32.8791,-3.51996
721,99,32.7629,3.80133,0.000314071,0.000389166,-0.000673124,0.00102579,-0.000322552,-0.81326,0.000812993,0.0241862,1945,925,32.763,-3.80131
728,99,32.8274,4.14404,0.00065663,0.000646639,-0.000401734,0.0010534,0.000249869,-0.779181,0.000635566,0.0190856,1952,925,32.8274,-4.14407
735,99,32.8246,4.46204,0.00179438,0.00089829,-0.00066931,0.00215177,0.000540904,-0.490447,0.00129251,0.016748,1959,925,32.8246,-4.46201
742,99,32.7867,4.73981,0.00278807,0.00131318,-0.00124474,0.00349742,0.000603835,-0.517974,0.00215867,0.01374,1966,925,32.7867,-4.73979
749,99,32.7577,5.02753,0.00464159,0.00182717,-0.00185379,0.00556178,0.000906982,-0.460749,0.00344555,0.0119394,1973,925,32.7577,-5.02753
756,99,32.7312,5.2962,0.0076084,0.00222652,-0.00274239,0.00875957,0.00107534,-0.397433,0.00551632,0.0118482,1980,925,32.7313,-5.29621
763,99,32.697,5.59674,0.0114832,0.00240207,-0.00390716,0.0129329,0.00095243,-0.355279,0.00832262,0.0142384,1987,925,32.697,-5.59673
770,99,32.6763,5.96429,0.0161322,0.00222506,-0.00546768,0.0180244,0.000332857,-0.333169,0.0119069,0.0282801,1994,925,32.6762,-5.96432
777,99,33.2566,6.27039,0.0216471,0.00147307,-0.00760281,0.0241914,-0.00107126,-0.32294,0.0164963,0.0406532,2001,925,33.2566,-6.2704
784,99,33.8582,6.49896,0.0281361,-0.000136006,-0.0105889,0.0316622,-0.00366211,-0.321452,0.0224287,0.0432656,2008,925,33.8581,-6.49899
791,99,33.9224,6.83044,0,0,0,0,0,0,0,-1,2015,925,33.9223,-6.83047
798,99,31.7227,8.34302,0,0,0,0,0,0,0,-1,2022,925,31.7227,-8.34299
805,99,0,0,0,0,0,0,0,0,0,-1,2029,925,0,0
812,99,0,0,0,0,0,0,0,0,0,-1,2036,925,0,0
-700,92,0,0,0,0,0,0,0,0,0,-1,524,932,0,0
-693,92,0,0,0,0,0,0,0,0,0,-1,531,932,0,0
-686,92,-27.2068,4.28729,0,0,0,0,0,0,0,-1,538,932,-27.2069,-4.28726
-679,92,-26.6923,3.75134,0.0981596,-0.119033,-0.0458922,0.107458,-0.128332,-0.199916,0.136311,0.04494,545,932,-26.6923,-3.75135
-672,92,-26.1708,3.2038,0.0868513,-0.101325,-0.0400167,0.0950076,-0.109482,-0.201066,0.11816,0.045645,552,932,-26.1708,-3.20381
-665,92,-25.6399,2.57867,0.0746055,-0.0836071,-0.0333766,0.0813584,-0.09036,-0.19963,0.0991871,0.0478342,559,932,-25.6399,-2.57866
-658,92,-22.4871,4.16614,0,0,0,0,0,0,0,-1,566,932,-22.4871,-4.16614
-651,92,-23.2081,3.91394,0.0504353,-0.051695,-0.0203091,0.0543257,-0.0555854,-0.189265,0.0634586,0.0478407,573,932,-23.2081,-3.91393
-644,92,-23.8212,3.54114,0.0395443,-0.0385308,-0.0146628,0.0422072,-0.0411937,-0.179652,0.0481527,0.0430882,580,932,-23.8211,-3.54116
-637,92,-24.0595,3.13098,0.0297843,-0.0275824,-0.0099646,0.0314658,-0.029264,-0.167178,0.0350701,0.0236525,587,932,-24.0595,-3.13101
-630,92,-24.1602,2.85419,0.0211917,-0.0187992,-0.00654659,0.0222361,-0.0198436,-0.158202,0.0243079,0.0122666,594,932,-24.1601,-2.85417
-623,92,-24.2214,2.60492,0.0129492,-0.0114493,-0.00323749,0.0133715,-0.0118715,-0.129703,0.0145826,0.00962749,601,932,-24.2214,-2.60495
-616,92,-24.2358,2.36285,0.00616126,-0.00585918,-0.000818266,0.00621671,-0.00591463,-0.0676569,0.00700475,0.00896901,608,932,-24.2358,-2.36283
-609,92,-24.2421,2.11462,0.000747543,-0.00208404,0.000606219,0.000871871,-0.00220837,0.202282,0.00183333,0.00821495,615,932,-24.2421,-2.1146
-602,92,-24.2279,1.8457,-0.00362847,-0.000229285,0.000941609,1.41208e-05,-0.00387187,1.31783,0.00258597,0.00929374,622,932,-24.2279,-1.8457
-595,92,-24.1721,1.55383,-0.00650211,0.000208129,0.000936359,0.000336341,-0.00663032,1.43472,0.00453648,0.0189172,629,932,-24.1721,-1.55384
-588,92,-24.1834,1.32507,-0.00775189,0.000305123,0.000488152,0.000334591,-0.00778136,1.5105,0.00530262,0.0204882,636,932,-24.1834,-1.32507
-581,92,-24.2195,1.05591,-0.00856508,0.00023156,7.35954e-05,0.000232176,-0.00856569,1.56243,0.00578941,0.0173076,643,932,-24.2195,-1.0559
-574,92,-24.6667,0.818848,-0.00861489,0.000513507,-4.81901e-05,0.000513761,-0.00861515,-1.56552,0.00592212,0.0347926,650,932,-24.6667,-0.81886
-567,92,-25.4399,0.593384,0,0,0,0,0,0,0,-1,657,932,-25.4399,-0.593409
-560,92,-25.9053,0.707458,-0.00754847,0.0013854,-3.9375e-05,0.00138557,-0.00754864,-1.56639,0.00555222,0.0360469,664,932,-25.9053,-0.707442
-553,92,-25.9312,0.74054,-0.00635125,0.00196672,0.000127947,0.00196869,-0.00635322,1.55542,0.00502203,0.0397251,671,932,-25.9312,-0.740535
-546,92,-25.9769,0.625122,-0.00437411,0.00272627,0.000432275,0.00275249,-0.00440033,1.51021,0.00416605,0.0416759,678,932,-25.9769,-0.625095
-539,92,-26.0094,0.424561,-0.00138815,0.00354788,0.000908678,0.00370984,-0.00155012,1.39441,0.003121,0.0381009,685,932,-26.0094,-0.424561
-532,92,-25.9452,0.544678,0.00280759,0.00430445,0.00155731,0.00528384,0.0018282,1.0094,0.00309848,0.0419045,692,932,-25.9452,-0.544672
-525,92,-25.8602,0.780579,0.00776242,0.00488298,0.00221397,0.00896362,0.00368178,0.49711,0.00520256,0.0426734,699,932,-25.8602,-0.780587
-518,92,-25.9793,1.03082,0.010521,0.00545332,0.00347308,0.0122863,0.00368801,0.470253,0.00727987,0.0412791,706,932,-25.9793,-1.03085
-511,92,0,0,0,0,0,0,0,0,0,-1,713,932,0,0
-504,92,0,0,0,0,0,0,0,0,0,-1,720,932,0,0
-497,92,0,0,0,0,0,0,0,0,0,-1,727,932,0,0
-490,92,0,0,0,0,0,0,0,0,0,-1,734,932,0,0
-483,92,0,0,0,0,0,0,0,0,0,-1,741,932,0,0
-476,92,0,0,0,0,0,0,0,0,0,-1,748,932,0,0
-469,92,0,0,0,0,0,0,0,0,0,-1,755,932,0,0
-462,92,0,0,0,0,0,0,0,0,0,-1,762,932,0,0
-455,92,0,0,0,0,0,0,0,0,0,-1,769,932,0,0
-448,92,0,0,0,0,0,0,0,0,0,-1,776,932,0,0
-441,92,0,0,0,0,0,0,0,0,0,-1,783,932,0,0
-434,92,0,0,0,0,0,0,0,0,0,-1,790,932,0,0
-427,92,0,0,0,0,0,0,0,0,0,-1,797,932,0,0
-420,92,0,0,0,0,0,0,0,0,0,-1,804,932,0,0
-413,92,0,0,0,0,0,0,0,0,0,-1,811,932,0,0
-406,92,0,0,0,0,0,0,0,0,0,-1,818,932,0,0
-399,92,0,0,0,0,0,0,0,0,0,-1,825,932,0,0
-392,92,0,0,0,0,0,0,0,0,0,-1,832,932,0,0
-385,92,0,0,0,0,0,0,0,0,0,-1,839,932,0,0
-378,92,0,0,0,0,0,0,0,0,0,-1,846,932,0,0
-371,92,0,0,0,0,0,0,0,0,0,-1,853,932,0,0
-364,92,0,0,0,0,0,0,0,0,0,-1,860,932,0,0
-357,92,0,0,0,0,0,0,0,0,0,-1,867,932,0,0
-350,92,0,0,0,0,0,0,0,0,0,-1,874,932,0,0
-343,92,0,0,0,0,0,0,0,0,0,-1,881,932,0,0
-336,92,0,0,0,0,0,0,0,0,0,-1,888,932,0,0
-329,92,0,0,0,0,0,0,0,0,0,-1,895,932,0,0
-322,92,0,0,0,0,0,0,0,0,0,-1,902,932,0,0
-315,92,0,0,0,0,0,0,0,0,0,-1,909,932,0,0
-308,92,0,0,0,0,0,0,0,0,0,-1,916,932,0,0
-301,92,0,0,0,0,0,0,0,0,0,-1,923,932,0,0
-294,92,0,0,0,0,0,0,0,0,0,-1,930,932,0,0
-287,92,0,0,0,0,0,0,0,0,0,-1,937,932,0,0
-280,92,0,0,0,0,0,0,0,0,0,-1,944,932,0,0
-273,92,0,0,0,0,0,0,0,0,0,-1,951,932,0,0
-266,92,0,0,0,0,0,0,0,0,0,-1,958,932,0,0
-259,92,0,0,0,0,0,0,0,0,0,-1,965,932,0,0
-252,92,0,0,0,0,0,0,0,0,0,-1,972,932,0,0
-245,92,0,0,0,0,0,0,0,0,0,-1,979,932,0,0
-238,92,0,0,0,0,0,0,0,0,0,-1,986,932,0,0
-231,92,0,0,0,0,0,0,0,0,0,-1,993,932,0,0
-224,92,0,0,0,0,0,0,0,0,0,-1,1000,932,0,0
-217,92,0,0,0,0,0,0,0,0,0,-1,1007,932,0,0
-210,92,0,0,0,0,0,0,0,0,0,-1,1014,932,0,0
-203,92,0,0,0,0,0,0,0,0,0,-1,1021,932,0,0
-196,92,0,0,0,0,0,0,0,0,0,-1,1028,932,0,0
-189,92,0,0,0,0,0,0,0,0,0,-1,1035,932,0,0
-182,92,0,0,0,0,0,0,0,0,0,-1,1042,932,0,0
-175,92,0,0,0,0,0,0,0,0,0,-1,1049,932,0,0
-168,92,0,0,0,0,0,0,0,0,0,-1,1056,932,0,0
-161,92,0,0,0,0,0,0,0,0,0,-1,1063,932,0,0
-154,92,0,0,0,0,0,0,0,0,0,-1,1070,932,0,0
-147,92,0,0,0,0,0,0,0,0,0,-1,1077,932,0,0
-140,92,0,0,0,0,0,0,0,0,0,-1,1084,932,0,0
-133,92,0,0,0,0,0,0,0,0,0,-1,1091,932,0,0
-126,92,0,0,0,0,0,0,0,0,0,-1,1098,932,0,0
-119,92,0,0,0,0,0,0,0,0,0,-1,1105,932,0,0
-112,92,0,0,0,0,0,0,0,0,0,-1,1112,932,0,0
-105,92,0,0,0,0,0,0,0,0,0,-1,1119,932,0,0
-98,92,0,0,0,0,0,0,0,0,0,-1,1126,932,0,0
-91,92,0,0,0,0,0,0,0,0,0,-1,1133,932,0,0
-84,92,0,0,0,0,0,0,0,0,0,-1,1140,932,0,0
-77,92,0,0,0,0,0,0,0,0,0,-1,1147,932,0,0
-70,92,0,0,0,0,0,0,0,0,0,-1,1154,932,0,0
-63,92,0,0,0,0,0,0,0,0,0,-1,1161,932,0,0
-56,92,0,0,0,0,0,0,0,0,0,-1,1168,932,0,0
-49,92,0,0,0,0,0,0,0,0,0,-1,1175,932,0,0
-42,92,0,0,0,0,0,0,0,0,0,-1,1182,932,0,0
-35,92,0,0,0,0,0,0,0,0,0,-1,1189,932,0,0
-28,92,0,0,0,0,0,0,0,0,0,-1,1196,932,0,0
-21,92,0,0,0,0,0,0,0,0,0,-1,1203,932,0,0
-14,92,0,0,0,0,0,0,0,0,0,-1,1210,932,0,0
-7,92,0,0,0,0,0,0,0,0,0,-1,1217,932,0,0
0,92,0,0,0,0,0,0,0,0,0,-1,1224,932,0,0
7,92,0,0,0,0,0,0,0,0,0,-1,1231,932,0,0
14,92,0,0,0,0,0,0,0,0,0,-1,1238,932,0,0
21,92,0,0,0,0,0,0,0,0,0,-1,1245,932,0,0
28,92,0,0,0,0,0,0,0,0,0,-1,1252,932,0,0
35,92,0,0,0,0,0,0,0,0,0,-1,1259,932,0,0
42,92,0,0,0,0,0,0,0,0,0,-1,1266,932,0,0
49,92,0,0,0,0,0,0,0,0,0,-1,1273,932,0,0
56,92,0,0,0,0,0,0,0,0,0,-1,1280,932,0,0
63,92,0,0,0,0,0,0,0,0,0,-1,1287,932,0,0
70,92,0,0,0,0,0,0,0,0,0,-1,1294,932,0,0
77,92,0,0,0,0,0,0,0,0,0,-1,1301,932,0,0
84,92,0,0,0,0,0,0,0,0,0,-1,1308,932,0,0
91,92,0,0,0,0,0,0,0,0,0,-1,1315,932,0,0
98,92,0,0,0,0,0,0,0,0,0,-1,1322,932,0,0
105,92,0,0,0,0,0,0,0,0,0,-1,1329,932,0,0
112,92,0,0,0,0,0,0,0,0,0,-1,1336,932,0,0
119,92,0,0,0,0,0,0,0,0,0,-1,1343,932,0,0
126,92,0,0,0,0,0,0,0,0,0,-1,1350,932,0,0
133,92,0,0,0,0,0,0,0,0,0,-1,1357,932,0,0
140,92,0,0,0,0,0,0,0,0,0,-1,1364,932,0,0
147,92,0,0,0,0,0,0,0,0,0,-1,1371,932,0,0
154,92,0,0,0,0,0,0,0,0,0,-1,1378,932,0,0
161,92,0,0,0,0,0,0,0,0,0,-1,1385,932,0,0
168,92,0,0,0,0,0,0,0,0,0,-1,1392,932,0,0
175,92,0,0,0,0,0,0,0,0,0,-1,1399,932,0,0
182,92,0,0,0,0,0,0,0,0,0,-1,1406,932,0,0
189,92,0,0,0,0,0,0,0,0,0,-1,1413,932,0,0
196,92,0,0,0,0,0,0,0,0,0,-1,1420,932,0,0
203,92,0,0,0,0,0,0,0,0,0,-1,1427,932,0,0
210,92,0,0,0,0,0,0,0,0,0,-1,1434,932,0,0
217,92,0,0,0,0,0,0,0,0,0,-1,1441,932,0,0
224,92,0,0,0,0,0,0,0,0,0,-1,1448,932,0,0
231,92,0,0,0,0,0,0,0,0,0,-1,1455,932,0,0
238,92,0,0,0,0,0,0,0,0,0,-1,1462,932,0,0
245,92,0,0,0,0,0,0,0,0,0,-1,1469,932,0,0
252,92,0,0,0,0,0,0,0,0,0,-1,1476,932,0,0
259,92,0,0,0,0,0,0,0,0,0,-1,1483,932,0,0
266,92,0,0,0,0,0,0,0,0,0,-1,1490,932,0,0
273,92,0,0,0,0,0,0,0,0,0,-1,1497,932,0,0
280,92,0,0,0,0,0,0,0,0,0,-1,1504,932,0,0
287,92,0,0,0,0,0,0,0,0,0,-1,1511,932,0,0
294,92,0,0,0,0,0,0,0,0,0,-1,1518,932,0,0
301,92,0,0,0,0,0,0,0,0,0,-1,1525,932,0,0
308,92,0,0,0,0,0,0,0,0,0,-1,1532,932,0,0
315,92,0,0,0,0,0,0,0,0,0,-1,1539,932,0,0
322,92,0,0,0,0,0,0,0,0,0,-1,1546,932,0,0
329,92,0,0,0,0,0,0,0,0,0,-1,1553,932,0,0
336,92,0,0,0,0,0,0,0,0,0,-1,1560,932,0,0
343,92,0,0,0,0,0,0,0,0,0,-1,1567,932,0,0
350,92,0,0,0,0,0,0,0,0,0,-1,1574,932,0,0
357,92,0,0,0,0,0,0,0,0,0,-1,1581,932,0,0
364,92,0,0,0,0,0,0,0,0,0,-1,1588,932,0,0
371,92,0,0,0,0,0,0,0,0,0,-1,1595,932,0,0
378,92,0,0,0,0,0,0,0,0,0,-1,1602,932,0,0
385,92,0,0,0,0,0,0,0,0,0,-1,1609,932,0,0
392,92,0,0,0,0,0,0,0,0,0,-1,1616,932,0,0
399,92,0,0,0,0,0,0,0,0,0,-1,1623,932,0,0
406,92,0,0,0,0,0,0,0,0,0,-1,1630,932,0,0
413,92,0,0,0,0,0,0,0,0,0,-1,1637,932,0,0
420,92,0,0,0,0,0,0,0,0,0,-1,1644,932,0,0
427,92,0,0,0,0,0,0,0,0,0,-1,1651,932,0,0
434,92,0,0,0,0,0,0,0,0,0,-1,1658,932,0,0
441,92,0,0,0,0,0,0,0,0,0,-1,1665,932,0,0
448,92,0,0,0,0,0,0,0,0,0,-1,1672,932,0,0
455,92,0,0,0,0,0,0,0,0,0,-1,1679,932,0,0
462,92,0,0,0,0,0,0,0,0,0,-1,1686,932,0,0
469,92,0,0,0,0,0,0,0,0,0,-1,1693,932,0,0
476,92,0,0,0,0,0,0,0,0,0,-1,1700,932,0,0
483,92,0,0,0,0,0,0,0,0,0,-1,1707,932,0,0
490,92,0,0,0,0,0,0,0,0,0,-1,1714,932,0,0
497,92,0,0,0,0,0,0,0,0,0,-1,1721,932,0,0
504,92,0,0,0,0,0,0,0,0,0,-1,1728,932,0,0
511,92,0,0,0,0,0,0,0,0,0,-1,1735,932,0,0
518,92,0,0,0,0,0,0,0,0,0,-1,1742,932,0,0
525,92,0,0,0,0,0,0,0,0,0,-1,1749,932,0,0
532,92,0,0,0,0,0,0,0,0,0,-1,1756,932,0,0
539,92,0,0,0,0,0,0,0,0,0,-1,1763,932,0,0
546,92,0,0,0,0,0,0,0,0,0,-1,1770,932,0,0
553,92,0,0,0,0,0,0,0,0,0,-1,1777,932,0,0
560,92,0,0,0,0,0,0,0,0,0,-1,1784,932,0,0
567,92,0,0,0,0,0,0,0,0,0,-1,1791,932,0,0
574,92,0,0,0,0,0,0,0,0,0,-1,1798,932,0,0
581,92,0,0,0,0,0,0,0,0,0,-1,1805,932,0,0
588,92,0,0,0,0,0,0,0,0,0,-1,1812,932,0,0
595,92,0,0,0,0,0,0,0,0,0,-1,1819,932,0,0
602,92,0,0,0,0,0,0,0,0,0,-1,1826,932,0,0
609,92,0,0,0,0,0,0,0,0,0,-1,1833,932,0,0
616,92,0,0,0,0,0,0,0,0,0,-1,1840,932,0,0
623,92,0,0,0,0,0,0,0,0,0,-1,1847,932,0,0
630,92,0,0,0,0,0,0,0,0,0,-1,1854,932,0,0
637,92,35.8723,2.55817,0,0,0,0,0,0,0,-1,1861,932,35.8723,-2.55817
644,92,35.8073,2.5578,0,0,0,0,0,0,0,-1,1868,932,35.8072,-2.55777
651,92,35.8531,2.45001,0.00251086,0.0043232,-0.00334544,0.00688302,-4.89613e-05,-0.917658,0.00460509,0.0374853,1875,932,35.8531,-2.45002
658,92,35.7198,2.7453,0.00115829,0.00340747,-0.00212128,0.00468382,-0.000118057,-1.02913,0.00316263,0.0418678,1882,932,35.7198,-2.74529
665,92,35.6388,2.86243,0.000410498,0.0026362,-0.00134309,0.00326757,-0.000220876,-1.13136,0.00225561,0.04151,1889,932,35.6388,-2.86244
672,92,35.7177,2.75171,5.29678e-05,0.0019576,-0.000851524,0.00228278,-0.000272213,-1.20601,0.00162023,0.0405135,1896,932,35.7176,-2.7517
679,92,35.7488,2.54291,-2.36128e-05,0.0013698,-0.000539348,0.00155417,-0.000207983,-1.24141,0.00111194,0.03531,1903,932,35.7488,-2.54292
686,92,35.7271,2.4754,-9.7738e-05,0.000946205,-0.000336215,0.00104512,-0.000196649,-1.28468,0.000770702,0.0287263,1910,932,35.7271,-2.47541
693,92,35.7133,2.55957,-0.000153815,0.000467384,-0.000103686,0.000484233,-0.000170664,-1.4097,0.000392286,0.0249559,1917,932,35.7133,-2.5596
700,92,35.7363,2.51294,0,0,0,0,0,0,0,-1,1924,932,35.7363,-2.51296
707,92,32.9893,3.26874,0,0,0,0,0,0,0,-1,1931,932,32.9893,-3.26874
714,92,33.2019,3.50146,0,0,0,0,0,0,0,-1,1938,932,33.2019,-3.50144
721,92,33.1342,3.89325,-0.00010804,0.000416316,-0.000589546,0.000799353,-0.000491076,-0.994622,0.000752083,0.0266157,1945,932,33.1341,-3.89324
728,92,33.082,4.22388,0.000172993,0.000706172,-0.000317535,0.000854189,2.49767e-05,-1.1346,0.000561319,0.0207019,1952,932,33.082,-4.22387
735,92,33.0938,4.47107,0.00116882,0.0010051,-0.000537574,0.00163073,0.000543189,-0.709844,0.000958828,0.0174869,1959,932,33.0938,-4.47104
742,92,33.1248,4.71954,0.00184115,0.00160654,-0.000936852,0.00266801,0.000779676,-0.723116,0.00158409,0.0187686,1966,932,33.1248,-4.71955
749,92,33.0823,5.00366,0.00325548,0.0023108,-0.00130843,0.00417422,0.00139207,-0.612179,0.00245413,0.0160886,1973,932,33.0823,-5.00367
756,92,33.047,5.28333,0.00569007,0.00299826,-0.00177203,0.00656937,0.00211896,-0.460612,0.00387163,0.0132373,1980,932,33.047,-5.28331
763,92,33.0415,5.56628,0.0090064,0.00354705,-0.00228031,0.00983354,0.00271991,-0.347972,0.00586326,0.0152775,1987,932,33.0415,-5.56626
770,92,33.0338,5.90778,0.0130872,0.00376874,-0.00295826,0.013947,0.00290893,-0.282853,0.00849601,0.0252267,1994,932,33.0338,-5.9078
777,92,33.2621,6.26727,0.0179943,0.00344135,-0.0038894,0.0189686,0.00246709,-0.245439,0.0119088,0.0417898,2001,932,33.2621,-6.26729
784,92,33.5612,6.66364,0.0240324,0.00220683,-0.00522578,0.0252191,0.00102013,-0.223299,0.0164832,0.0460304,2008,932,33.5612,-6.66361
791,92,34.0959,6.83447,0,0,0,0,0,0,0,-1,2015,932,34.0959,-6.83445
798,92,34.3875,7.20984,0,0,0,0,0,0,0,-1,2022,932,34.3874,-7.20984
805,92,0,0,0,0,0,0,0,0,0,-1,2029,932,0,0
812,92,0,0,0,0,0,0,0,0,0,-1,2036,932,0,0
-700,85,0,0,0,0,0,0,0,0,0,-1,524,939,0,0
-693,85,0,0,0,0,0,0,0,0,0,-1,531,939,0,0
-686,85,-26.7195,4.84998,0,0,0,0,0,0,0,-1,538,939,-26.7195,-4.85
-679,85,-26.3242,4.4068,0.0889246,-0.105959,-0.0376634,0.0959502,-0.112984,-0.184417,0.120762,0.0476993,545,939,-26.3241,-4.40678
-672,85,-25.9346,3.9303,0.0779632,-0.0889465,-0.0334901,0.0844322,-0.0954155,-0.190812,0.1039,0.046978,552,939,-25.9346,-3.93029
-665,85,-25.4659,3.39154,0.0662254,-0.0723584,-0.0284049,0.0718214,-0.0779545,-0.194519,0.0864973,0.0442494,559,939,-25.4659,-3.39156
-658,85,-25.0341,3.01147,0.0545954,-0.0569435,-0.0230082,0.0591551,-0.0615032,-0.195643,0.0696665,0.0428003,566,939,-25.0341,-3.0115
-651,85,-22.9861,4.20148,0,0,0,0,0,0,0,-1,573,939,-22.9861,-4.2015
-644,85,-24.2698,3.24091,0.0337634,-0.0315338,-0.0129767,0.0362478,-0.0340182,-0.18916,0.0405749,0.0324836,580,939,-24.2698,-3.24088
-637,85,-24.3896,3.04706,0.0250271,-0.0219958,-0.00895673,0.0266753,-0.023644,-0.18199,0.0290695,0.016126,587,939,-24.3896,-3.04706
-630,85,-24.4474,2.79895,0.0173772,-0.0144776,-0.00609618,0.018504,-0.0156044,-0.182773,0.0197162,0.0105354,594,939,-24.4475,-2.79896
-623,85,-24.4929,2.55975,0.0100247,-0.00835071,-0.00330431,0.0106008,-0.00892684,-0.172621,0.0112881,0.0100339,601,939,-24.4929,-2.55975
-616,85,-24.4918,2.3327,0.00406398,-0.0039353,-0.00126584,0.00425951,-0.00413084,-0.153257,0.00484436,0.00994681,608,939,-24.4917,-2.33269
-609,85,-24.4971,2.08563,-0.000624982,-0.00100672,-0.000165457,-0.00056325,-0.00106845,-0.357104,0.000617172,0.0115327,615,939,-24.4972,-2.08564
-602,85,-24.5042,1.85114,-0.00445693,0.000298863,5.7105e-05,0.000299548,-0.00445761,1.55879,0.00307645,0.0150183,622,939,-24.5042,-1.85114
-595,85,-24.4589,1.61304,-0.00714994,0.00041101,0.000101337,0.000412368,-0.0071513,1.5574,0.00491076,0.0181685,629,939,-24.4588,-1.61302
-588,85,-24.4571,1.35516,-0.00842404,0.000411323,-0.000299388,0.000421457,-0.00843417,-1.53696,0.0057684,0.0170579,636,939,-24.4571,-1.35514
-581,85,-24.4977,1.12903,-0.00911663,0.000241567,-0.000677315,0.000290335,-0.0091654,-1.49892,0.00620931,0.0211608,643,939,-24.4977,-1.12901
-574,85,-24.9678,0.976868,-0.00909953,0.000458518,-0.000796492,0.000524437,-0.00916545,-1.48822,0.0062924,0.038304,650,939,-24.9678,-0.976839
-567,85,-25.8041,0.926941,0,0,0,0,0,0,0,-1,657,939,-25.8041,-0.926944
-560,85,-25.8928,0.727234,-0.00796783,0.00133286,-0.000734165,0.00139046,-0.00802543,-1.49251,0.00586893,0.033665,664,939,-25.8928,-0.727228
-553,85,-26.0129,0.6203,-0.00655607,0.00197242,-0.000504241,0.00200213,-0.00658578,-1.51195,0.0051883,0.0393637,671,939,-26.0129,-0.620303
-546,85,-26.0899,0.410706,-0.00425256,0.00273819,-0.00010814,0.00273987,-0.00425423,-1.55533,0.00406947,0.0421987,678,939,-26.0899,-0.410705
-539,85,-26.0568,0.455261,-0.0008361,0.00357328,0.000485028,0.003626,-0.000888822,1.46252,0.0027617,0.0392753,685,939,-26.0568,-0.455254
-532,85,-25.9717,0.529175,0.00388959,0.0043915,0.00122168,0.00538773,0.00289336,0.886699,0.00311345,0.0395503,692,939,-25.9717,-0.529166
-525,85,-25.9231,0.611755,0.00912707,0.00523952,0.001871,0.00988124,0.00448535,0.383162,0.005713,0.0389498,699,939,-25.9231,-0.611731
-518,85,-25.9288,0.691528,0.0116774,0.00648066,0.00301545,0.0130595,0.00509852,0.429779,0.00760006,0.0381674,706,939,-25.9288,-0.691511
-511,85,0,0,0,0,0,0,0,0,0,-1,713,939,0,0
-504,85,0,0,0,0,0,0,0,0,0,-1,720,939,0,0
-497,85,0,0,0,0,0,0,0,0,0,-1,727,939,0,0
-490,85,0,0,0,0,0,0,0,0,0,-1,734,939,0,0
-483,85,0,0,0,0,0,0,0,0,0,-1,741,939,0,0
-476,85,0,0,0,0,0,0,0,0,0,-1,748,939,0,0
-469,85,0,0,0,0,0,0,0,0,0,-1,755,939,0,0
-462,85,0,0,0,0,0,0,0,0,0,-1,762,939,0,0
-455,85,0,0,0,0,0,0,0,0,0,-1,769,939,0,0
-448,85,0,0,0,0,0,0,0,0,0,-1,776,939,0,0
-441,85,0,0,0,0,0,0,0,0,0,-1,783,939,0,0
-434,85,0,0,0,0,0,0,0,0,0,-1,790,939,0,0
-427,85,0,0,0,0,0,0,0,0,0,-1,797,939,0,0
-420,85,0,0,0,0,0,0,0,0,0,-1,804,939,0,0
-413,85,0,0,0,0,0,0,0,0,0,-1,811,939,0,0
-406,85,0,0,0,0,0,0,0,0,0,-1,818,939,0,0
-399,85,0,0,0,0,0,0,0,0,0,-1,825,939,0,0
-392,85,0,0,0,0,0,0,0,0,0,-1,832,939,0,0
-385,85,0,0,0,0,0,0,0,0,0,-1,839,939,0,0
-378,85,0,0,0,0,0,0,0,0,0,-1,846,939,0,0
-371,85,0,0,0,0,0,0,0,0,0,-1,853,939,0,0
-364,85,0,0,0,0,0,0,0,0,0,-1,860,939,0,0
-357,85,0,0,0,0,0,0,0,0,0,-1,867,939,0,0
-350,85,0,0,0,0,0,0,0,0,0,-1,874,939,0,0
-343,85,0,0,0,0,0,0,0,0,0,-1,881,939,0,0
-336,85,0,0,0,0,0,0,0,0,0,-1,888,939,0,0
-329,85,0,0,0,0,0,0,0,0,0,-1,895,939,0,0
-322,85,0,0,0,0,0,0,0,0,0,-1,902,939,0,0
-315,85,0,0,0,0,0,0,0,0,0,-1,909,939,0,0
-308,85,0,0,0,0,0,0,0,0,0,-1,916,939,0,0
-301,85,0,0,0,0,0,0,0,0,0,-1,923,939,0,0
-294,85,0,0,0,0,0,0,0,0,0,-1,930,939,0,0
-287,85,0,0,0,0,0,0,0,0,0,-1,937,939,0,0
-280,85,0,0,0,0,0,0,0,0,0,-1,944,939,0,0
-273,85,0,0,0,0,0,0,0,0,0,-1,951,939,0,0
-266,85,0,0,0,0,0,0,0,0,0,-1,958,939,0,0
-259,85,0,0,0,0,0,0,0,0,0,-1,965,939,0,0
-252,85,0,0,0,0,0,0,0,0,0,-1,972,939,0,0
-245,85,0,0,0,0,0,0,0,0,0,-1,979,939,0,0
-238,85,0,0,0,0,0,0,0,0,0,-1,986,939,0,0
-231,85,0,0,0,0,0,0,0,0,0,-1,993,939,0,0
-224,85,0,0,0,0,0,0,0,0,0,-1,1000,939,0,0
-217,85,0,0,0,0,0,0,0,0,0,-1,1007,939,0,0
-210,85,0,0,0,0,0,0,0,0,0,-1,1014,939,0,0
-203,85,0,0,0,0,0,0,0,0,0,-1,1021,939,0,0
-196,85,0,0,0,0,0,0,0,0,0,-1,1028,939,0,0
-189,85,0,0,0,0,0,0,0,0,0,-1,1035,939,0,0
-182,85,0,0,0,0,0,0,0,0,0,-1,1042,939,0,0
-175,85,0,0,0,0,0,0,0,0,0,-1,1049,939,0,0
-168,85,0,0,0,0,0,0,0,0,0,-1,1056,939,0,0
-161,85,0,0,0,0,0,0,0,0,0,-1,1063,939,0,0
-154,85,0,0,0,0,0,0,0,0,0,-1,1070,939,0,0
-147,85,0,0,0,0,0,0,0,0,0,-1,1077,939,0,0
-140,85,0,0,0,0,0,0,0,0,0,-1,1084,939,0,0
-133,85,0,0,0,0,0,0,0,0,0,-1,1091,939,0,0
-126,85,0,0,0,0,0,0,0,0,0,-1,1098,939,0,0
-119,85,0,0,0,0,0,0,0,0,0,-1,1105,939,0,0
-112,85,0,0,0,0,0,0,0,0,0,-1,1112,939,0,0
-105,85,0,0,0,0,0,0,0,0,0,-1,1119,939,0,0
-98,85,0,0,0,0,0,0,0,0,0,-1,1126,939,0,0
-91,85,0,0,0,0,0,0,0,0,0,-1,1133,939,0,0
-84,85,0,0,0,0,0,0,0,0,0,-1,1140,939,0,0
-77,85,0,0,0,0,0,0,0,0,0,-1,1147,939,0,0
-70,85,0,0,0,0,0,0,0,0,0,-1,1154,939,0,0
-63,85,0,0,0,0,0,0,0,0,0,-1,1161,939,0,0
-56,85,0,0,0,0,0,0,0,0,0,-1,1168,939,0,0
-49,85,0,0,0,0,0,0,0,0,0,-1,1175,939,0,0
-42,85,0,0,0,0,0,0,0,0,0,-1,1182,939,0,0
-35,85,0,0,0,0,0,0,0,0,0,-1,1189,939,0,0
-28,85,0,0,0,0,0,0,0,0,0,-1,1196,939,0,0
-21,85,0,0,0,0,0,0,0,0,0,-1,1203,939,0,0
-14,85,0,0,0,0,0,0,0,0,0,-1,1210,939,0,0
-7,85,0,0,0,0,0,0,0,0,0,-1,1217,939,0,0
0,85,0,0,0,0,0,0,0,0,0,-1,1224,939,0,0
7,85,0,0,0,0,0,0,0,0,0,-1,1231,939,0,0
14,85,0,0,0,0,0,0,0,0,0,-1,1238,939,0,0
21,85,0,0,0,0,0,0,0,0,0,-1,1245,939,0,0
28,85,0,0,0,0,0,0,0,0,0,-1,1252,939,0,0
35,85,0,0,0,0,0,0,0,0,0,-1,1259,939,0,0
42,85,0,0,0,0,0,0,0,0,0,-1,1266,939,0,0
49,85,0,0,0,0,0,0,0,0,0,-1,1273,939,0,0
56,85,0,0,0,0,0,0,0,0,0,-1,1280,939,0,0
63,85,0,0,0,0,0,0,0,0,0,-1,1287,939,0,0
70,85,0,0,0,0,0,0,0,0,0,-1,1294,939,0,0
77,85,0,0,0,0,0,0,0,0,0,-1,1301,939,0,0
84,85,0,0,0,0,0,0,0,0,0,-1,1308,939,0,0
91,85,0,0,0,0,0,0,0,0,0,-1,1315,939,0,0
98,85,0,0,0,0,0,0,0,0,0,-1,1322,939,0,0
105,85,0,0,0,0,0,0,0,0,0,-1,1329,939,0,0
112,85,0,0,0,0,0,0,0,0,0,-1,1336,939,0,0
119,85,0,0,0,0,0,0,0,0,0,-1,1343,939,0,0
126,85,0,0,0,0,0,0,0,0,0,-1,1350,939,0,0
133,85,0,0,0,0,0,0,0,0,0,-1,1357,939,0,0
140,85,0,0,0,0,0,0,0,0,0,-1,1364,939,0,0
147,85,0,0,0,0,0,0,0,0,0,-1,1371,939,0,0
154,85,0,0,0,0,0,0,0,0,0,-1,1378,939,0,0
161,85,0,0,0,0,0,0,0,0,0,-1,1385,939,0,0
168,85,0,0,0,0,0,0,0,0,0,-1,1392,939,0,0
175,85,0,0,0,0,0,0,0,0,0,-1,1399,939,0,0
182,85,0,0,0,0,0,0,0,0,0,-1,1406,939,0,0
189,85,0,0,0,0,0,0,0,0,0,-1,1413,939,0,0
196,85,0,0,0,0,0,0,0,0,0,-1,1420,939,0,0
203,85,0,0,0,0,0,0,0,0,0,-1,1427,939,0,0
210,85,0,0,0,0,0,0,0,0,0,-1,1434,939,0,0
217,85,0,0,0,0,0,0,0,0,0,-1,1441,939,0,0
224,85,0,0,0,0,0,0,0,0,0,-1,1448,939,0,0
231,85,0,0,0,0,0,0,0,0,0,-1,1455,939,0,0
238,85,0,0,0,0,0,0,0,0,0,-1,1462,939,0,0
245,85,0,0,0,0,0,0,0,0,0,-1,1469,939,0,0
252,85,0,0,0,0,0,0,0,0,0,-1,1476,939,0,0
259,85,0,0,0,0,0,0,0,0,0,-1,1483,939,0,0
266,85,0,0,0,0,0,0,0,0,0,-1,1490,939,0,0
273,85,0,0,0,0,0,0,0,0,0,-1,1497,939,0,0
280,85,0,0,0,0,0,0,0,0,0,-1,1504,939,0,0
287,85,0,0,0,0,0,0,0,0,0,-1,1511,939,0,0
294,85,0,0,0,0,0,0,0,0,0,-1,1518,939,0,0
301,85,0,0,0,0,0,0,0,0,0,-1,1525,939,0,0
308,85,0,0,0,0,0,0,0,0,0,-1,1532,939,0,0
315,85,0,0,0,0,0,0,0,0,0,-1,1539,939,0,0
322,85,0,0,0,0,0,0,0,0,0,-1,1546,939,0,0
329,85,0,0,0,0,0,0,0,0,0,-1,1553,939,0,0
336,85,0,0,0,0,0,0,0,0,0,-1,1560,939,0,0
343,85,0,0,0,0,0,0,0,0,0,-1,1567,939,0,0
350,85,0,0,0,0,0,0,0,0,0,-1,1574,939,0,0
357,85,0,0,0,0,0,0,0,0,0,-1,1581,939,0,0
364,85,0,0,0,0,0,0,0,0,0,-1,1588,939,0,0
371,85,0,0,0,0,0,0,0,0,0,-1,1595,939,0,0
378,85,0,0,0,0,0,0,0,0,0,-1,1602,939,0,0
385,85,0,0,0,0,0,0,0,0,0,-1,1609,939,0,0
392,85,0,0,0,0,0,0,0,0,0,-1,1616,939,0,0
399,85,0,0,0,0,0,0,0,0,0,-1,1623,939,0,0
406,85,0,0,0,0,0,0,0,0,0,-1,1630,939,0,0
413,85,0,0,0,0,0,0,0,0,0,-1,1637,939,0,0
420,85,0,0,0,0,0,0,0,0,0,-1,1644,939,0,0
427,85,0,0,0,0,0,0,0,0,0,-1,1651,939,0,0
434,85,0,0,0,0,0,0,0,0,0,-1,1658,939,0,0
441,85,0,0,0,0,0,0,0,0,0,-1,1665,939,0,0
448,85,0,0,0,0,0,0,0,0,0,-1,1672,939,0,0
455,85,0,0,0,0,0,0,0,0,0,-1,1679,939,0,0
462,85,0,0,0,0,0,0,0,0,0,-1,1686,939,0,0
469,85,0,0,0,0,0,0,0,0,0,-1,1693,939,0,0
476,85,0,0,0,0,0,0,0,0,0,-1,1700,939,0,0
483,85,0,0,0,0,0,0,0,0,0,-1,1707,939,0,0
490,85,0,0,0,0,0,0,0,0,0,-1,1714,939,0,0
497,85,0,0,0,0,0,0,0,0,0,-1,1721,939,0,0
504,85,0,0,0,0,0,0,0,0,0,-1,1728,939,0,0
511,85,0,0,0,0,0,0,0,0,0,-1,1735,939,0,0
518,85,0,0,0,0,0,0,0,0,0,-1,1742,939,0,0
525,85,0,0,0,0,0,0,0,0,0,-1,1749,939,0,0
532,85,0,0,0,0,0,0,0,0,0,-1,1756,939,0,0
539,85,0,0,0,0,0,0,0,0,0,-1,1763,939,0,0
546,85,0,0,0,0,0,0,0,0,0,-1,1770,939,0,0
553,85,0,0,0,0,0,0,0,0,0,-1,1777,939,0,0
560,85,0,0,0,0,0,0,0,0,0,-1,1784,939,0,0
567,85,0,0,0,0,0,0,0,0,0,-1,1791,939,0,0
574,85,0,0,0,0,0,0,0,0,0,-1,1798,939,0,0
581,85,0,0,0,0,0,0,0,0,0,-1,1805,939,0,0
588,85,0,0,0,0,0,0,0,0,0,-1,1812,939,0,0
595,85,0,0,0,0,0,0,0,0,0,-1,1819,939,0,0
602,85,0,0,0,0,0,0,0,0,0,-1,1826,939,0,0
609,85,0,0,0,0,0,0,0,0,0,-1,1833,939,0,0
616,85,0,0,0,0,0,0,0,0,0,-1,1840,939,0,0
623,85,0,0,0,0,0,0,0,0,0,-1,1847,939,0,0
630,85,0,0,0,0,0,0,0,0,0,-1,1854,939,0,0
637,85,35.7489,3.07581,0.00835657,0.00729269,-0.00822883,0.0160706,-0.000421373,-0.753121,0.0108569,0.0453085,1861,939,35.7489,-3.07581
644,85,35.918,2.61438,0.0049517,0.00586808,-0.00537595,0.0108053,1.44509e-05,-0.82791,0.00719874,0.0412612,1868,939,35.9179,-2.61436
651,85,35.9419,2.25494,0.00286362,0.00466855,-0.00353305,0.00741257,0.000119599,-0.910442,0.00490234,0.0396848,1875,939,35.9419,-2.25493
658,85,35.663,2.70068,0.00139061,0.00367678,-0.00223493,0.00504398,2.34067e-05,-1.02179,0.00335488,0.039823,1882,939,35.663,-2.7007
665,85,35.6398,2.88031,0.000510886,0.00280498,-0.00135603,0.00343404,-0.000118168,-1.13645,0.00232975,0.0410978,1889,939,35.6398,-2.88031
672,85,35.7661,2.77509,2.38954e-05,0.00202603,-0.000775847,0.00229149,-0.000241557,-1.24114,0.00161421,0.0405018,1896,939,35.7661,-2.77509
679,85,35.7822,2.56311,-0.0001552,0.00134332,-0.000403601,0.00144511,-0.000256989,-1.32375,0.00105951,0.035732,1903,939,35.7822,-2.56309
686,85,35.7211,2.51385,-0.00025185,0.000824225,-0.000179237,0.000853294,-0.00028092,-1.41001,0.000682067,0.0308071,1910,939,35.721,-2.51387
693,85,35.7227,2.52753,-0.000326267,0.00026403,7.73498e-05,0.000273997,-0.000336234,1.44264,0.000352927,0.0271803,1917,939,35.7227,-2.52756
700,85,35.7437,2.4892,-0.000404704,-4.37953e-05,8.64774e-05,-2.41444e-05,-0.000424355,1.34735,0.000275208,0.0383025,1924,939,35.7437,-2.48918
707,85,35.8054,2.46002,0,0,0,0,0,0,0,-1,1931,939,35.8054,-2.46003
714,85,33.4095,3.57562,0,0,0,0,0,0,0,-1,1938,939,33.4095,-3.57565
721,85,33.3888,3.92114,-0.000597825,0.000229989,-0.00042388,0.000408529,-0.000776365,-1.17215,0.000695,0.0247304,1945,939,33.3888,-3.92116
728,85,33.3488,4.28973,-0.000405954,0.000556762,-0.000185742,0.000591356,-0.000440547,-1.38666,0.000597886,0.0220178,1952,939,33.3488,-4.28972
735,85,33.3763,4.48187,0.0003949,0.000943972,-0.000419161,0.0011705,0.000168371,-1.07533,0.000730705,0.0220861,1959,939,33.3764,-4.48187
742,85,33.4365,4.72107,0.000672813,0.00173257,-0.000780418,0.00214599,0.000259386,-1.08363,0.00135252,0.0169142,1966,939,33.4365,-4.72106
749,85,33.3917,4.9989,0.00151512,0.00265144,-0.00109705,0.00331872,0.00084784,-1.02433,0.00199098,0.012914,1973,939,33.3918,-4.99892
756,85,33.3258,5.25403,0.00311912,0.00367138,-0.00141605,0.00483797,0.00195253,-0.881689,0.00281046,0.012388,1980,939,33.3258,-5.25406
763,85,33.314,5.53119,0.00539213,0.00465893,-0.00163273,0.00669891,0.00335215,-0.674963,0.00386762,0.0132992,1987,939,33.3139,-5.53119
770,85,33.2847,5.81647,0.00825565,0.0053556,-0.0018614,0.00916516,0.00444609,-0.454497,0.00529229,0.0192849,1994,939,33.2847,-5.81647
777,85,33.2169,6.12537,0.0116337,0.00558912,-0.00216622,0.0123298,0.00489298,-0.310939,0.00716896,0.0417952,2001,939,33.217,-6.12534
784,85,34.0986,6.62598,0.015796,0.00499865,-0.00255767,0.0163712,0.00442344,-0.221217,0.00977904,0.049499,2008,939,34.0986,-6.62598
791,85,34.2695,6.83844,0,0,0,0,0,0,0,-1,2015,939,34.2695,-6.83843
798,85,33.0652,9.08673,0,0,0,0,0,0,0,-1,2022,939,33.0651,-9.08672
805,85,31.3491,6.67969,0,0,0,0,0,0,0,-1,2029,939,31.3492,-6.67967
812,85,0,0,0,0,0,0,0,0,0,-1,2036,939,0,0
-700,78,0,0,0,0,0,0,0,0,0,-1,524,946,0,0
-693,78,0,0,0,0,0,0,0,0,0,-1,531,946,0,0
-686,78,-26.8696,5.48901,0.0896131,-0.108774,-0.0330017,0.0949589,-0.114119,-0.16059,0.12088,0.0445955,538,946,-26.8696,-5.489
-679,78,-26.4122,5.09369,0.0796147,-0.0918654,-0.0309215,0.0850201,-0.0972708,-0.173062,0.105325,0.0483149,545,946,-26.4122,-5.09371
-672,78,-26.0451,4.77002,0.0686816,-0.0754173,-0.0274007,0.0737161,-0.0804517,-0.181707,0.0890371,0.0477789,552,946,-26.0451,-4.76999
-665,78,-25.5745,4.53302,0.0575151,-0.0600415,-0.023297,0.0619637,-0.0644901,-0.18868,0.073013,0.0456022,559,946,-25.5745,-4.53302
-658,78,-25.2522,4.0498,0.0467817,-0.0461781,-0.0189801,0.0505076,-0.049904,-0.193842,0.057973,0.044473,566,946,-25.2522,-4.04979
-651,78,-24.8878,3.56427,0.0368885,-0.0341348,-0.0147492,0.0398296,-0.0370759,-0.196827,0.0444109,0.0417752,573,946,-24.8878,-3.56425
-644,78,-24.5314,3.18634,0.0281152,-0.0241173,-0.0108604,0.0302833,-0.0262854,-0.197046,0.0326871,0.0268981,580,946,-24.5314,-3.18635
-637,78,-24.6461,2.95465,0.0204254,-0.0161002,-0.00756698,0.021931,-0.0176058,-0.196403,0.022872,0.0134518,587,946,-24.6461,-2.95465
-630,78,-24.7139,2.72729,0.0137771,-0.00992153,-0.00531067,0.0149128,-0.0110572,-0.210671,0.0150487,0.0122362,594,946,-24.7139,-2.72728
-623,78,-24.7462,2.50525,0.00738227,-0.00509381,-0.00311667,0.00811752,-0.00582906,-0.231673,0.00808811,0.0119465,601,946,-24.7462,-2.50523
-616,78,-24.7463,2.29187,0.00238654,-0.00193757,-0.00157783,0.00290105,-0.00245209,-0.315218,0.00309426,0.0110242,608,946,-24.7463,-2.29188
-609,78,-24.731,2.08514,-0.00158103,0.000124899,-0.000844733,0.000472402,-0.00192853,-1.18052,0.0014687,0.0115557,615,946,-24.7309,-2.08513
-602,78,-24.7335,1.8573,-0.00485088,0.000804627,-0.000787042,0.000912111,-0.00495837,-1.43507,0.00364782,0.0155924,622,946,-24.7335,-1.85733
-595,78,-24.7064,1.60168,-0.007337,0.000596786,-0.000735857,0.00066446,-0.00740467,-1.47909,0.00517218,0.0148859,629,946,-24.7064,-1.60167
-588,78,-24.7045,1.42169,-0.00864498,0.000469965,-0.00111579,0.000604565,-0.00877958,-1.45074,0.00606463,0.0136584,636,946,-24.7044,-1.4217
-581,78,-24.794,1.24945,-0.00924565,0.00019804,-0.00148306,0.000425467,-0.00947307,-1.41863,0.00646188,0.0266219,643,946,-24.794,-1.24944
-574,78,-25.3304,0.977539,-0.00918658,0.000340436,-0.0016155,0.000606922,-0.00945307,-1.40731,0.00651378,0.0329669,650,946,-25.3304,-0.977526
-567,78,-25.9564,0.803284,0,0,0,0,0,0,0,-1,657,946,-25.9564,-0.803303
-560,78,-25.9222,0.701111,-0.00803482,0.00112247,-0.00151065,0.00136524,-0.0082776,-1.41145,0.00602526,0.0301846,664,946,-25.9223,-0.701103
-553,78,-25.9315,0.535095,-0.00647251,0.00168389,-0.00121857,0.00186205,-0.00665067,-1.42562,0.00516753,0.0399137,671,946,-25.9315,-0.535112
-546,78,-25.9806,0.525146,-0.00394366,0.00233179,-0.000737831,0.00241737,-0.00402924,-1.45532,0.00376053,0.0436809,678,946,-25.9806,-0.525152
-539,78,-25.9922,0.774536,0,0,0,0,0,0,0,-1,685,946,-25.9922,-0.774564
-532,78,-26.1026,0.61615,0.00479907,0.0035952,0.000720309,0.00513585,0.00325843,0.437343,0.0030007,0.0409221,692,946,-26.1026,-0.616173
-525,78,-26.0916,0.550537,0.0100821,0.00424987,0.00127446,0.0103484,0.00398354,0.206013,0.00602716,0.0399822,699,946,-26.0916,-0.550554
-518,78,-25.9603,0.580688,0.0125143,0.00532456,0.00211757,0.0130916,0.00474723,0.266166,0.00765295,0.0404755,706,946,-25.9603,-0.580685
-511,78,0,0,0,0,0,0,0,0,0,-1,713,946,0,0
-504,78,0,0,0,0,0,0,0,0,0,-1,720,946,0,0
-497,78,0,0,0,0,0,0,0,0,0,-1,727,946,0,0
-490,78,0,0,0,0,0,0,0,0,0,-1,734,946,0,0
-483,78,0,0,0,0,0,0,0,0,0,-1,741,946,0,0
-476,78,0,0,0,0,0,0,0,0,0,-1,748,946,0,0
-469,78,0,0,0,0,0,0,0,0,0,-1,755,946,0,0
-462,78,0,0,0,0,0,0,0,0,0,-1,762,946,0,0
-455,78,0,0,0,0,0,0,0,0,0,-1,769,946,0,0
-448,78,0,0,0,0,0,0,0,0,0,-1,776,946,0,0
-441,78,0,0,0,0,0,0,0,0,0,-1,783,946,0,0
-434,78,0,0,0,0,0,0,0,0,0,-1,790,946,0,0
-427,78,0,0,0,0,0,0,0,0,0,-1,797,946,0,0
-420,78,0,0,0,0,0,0,0,0,0,-1,804,946,0,0
-413,78,0,0,0,0,0,0,0,0,0,-1,811,946,0,0
-406,78,0,0,0,0,0,0,0,0,0,-1,818,946,0,0
-399,78,0,0,0,0,0,0,0,0,0,-1,825,946,0,0
-392,78,0,0,0,0,0,0,0,0,0,-1,832,946,0,0
-385,78,0,0,0,0,0,0,0,0,0,-1,839,946,0,0
-378,78,0,0,0,0,0,0,0,0,0,-1,846,946,0,0
-371,78,0,0,0,0,0,0,0,0,0,-1,853,946,0,0
-364,78,0,0,0,0,0,0,0,0,0,-1,860,946,0,0
-357,78,0,0,0,0,0,0,0,0,0,-1,867,946,0,0
-350,78,0,0,0,0,0,0,0,0,0,-1,874,946,0,0
-343,78,0,0,0,0,0,0,0,0,0,-1,881,946,0,0
-336,78,0,0,0,0,0,0,0,0,0,-1,888,946,0,0
-329,78,0,0,0,0,0,0,0,0,0,-1,895,946,0,0
-322,78,0,0,0,0,0,0,0,0,0,-1,902,946,0,0
-315,78,0,0,0,0,0,0,0,0,0,-1,909,946,0,0
-308,78,0,0,0,0,0,0,0,0,0,-1,916,946,0,0
-301,78,0,0,0,0,0,0,0,0,0,-1,923,946,0,0
-294,78,0,0,0,0,0,0,0,0,0,-1,930,946,0,0
-287,78,0,0,0,0,0,0,0,0,0,-1,937,946,0,0
-280,78,0,0,0,0,0,0,0,0,0,-1,944,946,0,0
-273,78,0,0,0,0,0,0,0,0,0,-1,951,946,0,0
-266,78,0,0,0,0,0,0,0,0,0,-1,958,946,0,0
-259,78,0,0,0,0,0,0,0,0,0,-1,965,946,0,0
-252,78,0,0,0,0,0,0,0,0,0,-1,972,946,0,0
-245,78,0,0,0,0,0,0,0,0,0,-1,979,946,0,0
-238,78,0,0,0,0,0,0,0,0,0,-1,986,946,0,0
-231,78,0,0,0,0,0,0,0,0,0,-1,993,946,0,0
-224,78,0,0,0,0,0,0,0,0,0,-1,1000,946,0,0
-217,78,0,0,0,0,0,0,0,0,0,-1,1007,946,0,0
-210,78,0,0,0,0,0,0,0,0,0,-1,1014,946,0,0
-203,78,0,0,0,0,0,0,0,0,0,-1,1021,946,0,0
-196,78,0,0,0,0,0,0,0,0,0,-1,1028,946,0,0
-189,78,0,0,0,0,0,0,0,0,0,-1,1035,946,0,0
-182,78,0,0,0,0,0,0,0,0,0,-1,1042,946,0,0
-175,78,0,0,0,0,0,0,0,0,0,-1,1049,946,0,0
-168,78,0,0,0,0,0,0,0,0,0,-1,1056,946,0,0
-161,78,0,0,0,0,0,0,0,0,0,-1,1063,946,0,0
-154,78,0,0,0,0,0,0,0,0,0,-1,1070,946,0,0
-147,78,0,0,0,0,0,0,0,0,0,-1,1077,946,0,0
-140,78,0,0,0,0,0,0,0,0,0,-1,1084,946,0,0
-133,78,0,0,0,0,0,0,0,0,0,-1,1091,946,0,0
-126,78,0,0,0,0,0,0,0,0,0,-1,1098,946,0,0
-119,78,0,0,0,0,0,0,0,0,0,-1,1105,946,0,0
-112,78,0,0,0,0,0,0,0,0,0,-1,1112,946,0,0
-105,78,0,0,0,0,0,0,0,0,0,-1,1119,946,0,0
-98,78,0,0,0,0,0,0,0,0,0,-1,1126,946,0,0
-91,78,0,0,0,0,0,0,0,0,0,-1,1133,946,0,0
-84,78,0,0,0,0,0,0,0,0,0,-1,1140,946,0,0
-77,78,0,0,0,0,0,0,0,0,0,-1,1147,946,0,0
-70,78,0,0,0,0,0,0,0,0,0,-1,1154,946,0,0
-63,78,0,0,0,0,0,0,0,0,0,-1,1161,946,0,0
-56,78,0,0,0,0,0,0,0,0,0,-1,1168,946,0,0
-49,78,0,0,0,0,0,0,0,0,0,-1,1175,946,0,0
-42,78,0,0,0,0,0,0,0,0,0,-1,1182,946,0,0
-35,78,0,0,0,0,0,0,0,0,0,-1,1189,946,0,0
-28,78,0,0,0,0,0,0,0,0,0,-1,1196,946,0,0
-21,78,0,0,0,0,0,0,0,0,0,-1,1203,946,0,0
-14,78,0,0,0,0,0,0,0,0,0,-1,1210,946,0,0
-7,78,0,0,0,0,0,0,0,0,0,-1,1217,946,0,0
0,78,0,0,0,0,0,0,0,0,0,-1,1224,946,0,0
7,78,0,0,0,0,0,0,0,0,0,-1,1231,946,0,0
14,78,0,0,0,0,0,0,0,0,0,-1,1238,946,0,0
21,78,0,0,0,0,0,0,0,0,0,-1,1245,946,0,0
28,78,0,0,0,0,0,0,0,0,0,-1,1252,946,0,0
35,78,0,0,0,0,0,0,0,0,0,-1,1259,946,0,0
42,78,0,0,0,0,0,0,0,0,0,-1,1266,946,0,0
49,78,0,0,0,0,0,0,0,0,0,-1,1273,946,0,0
56,78,0,0,0,0,0,0,0,0,0,-1,1280,946,0,0
63,78,0,0,0,0,0,0,0,0,0,-1,1287,946,0,0
70,78,0,0,0,0,0,0,0,0,0,-1,1294,946,0,0
77,78,0,0,0,0,0,0,0,0,0,-1,1301,946,0,0
84,78,0,0,0,0,0,0,0,0,0,-1,1308,946,0,0
91,78,0,0,0,0,0,0,0,0,0,-1,1315,946,0,0
98,78,0,0,0,0,0,0,0,0,0,-1,1322,946,0,0
105,78,0,0,0,0,0,0,0,0,0,-1,1329,946,0,0
112,78,0,0,0,0,0,0,0,0,0,-1,1336,946,0,0
119,78,0,0,0,0,0,0,0,0,0,-1,1343,946,0,0
126,78,0,0,0,0,0,0,0,0,0,-1,1350,946,0,0
133,78,0,0,0,0,0,0,0,0,0,-1,1357,946,0,0
140,78,0,0,0,0,0,0,0,0,0,-1,1364,946,0,0
147,78,0,0,0,0,0,0,0,0,0,-1,1371,946,0,0
154,78,0,0,0,0,0,0,0,0,0,-1,1378,946,0,0
161,78,0,0,0,0,0,0,0,0,0,-1,1385,946,0,0
168,78,0,0,0,0,0,0,0,0,0,-1,1392,946,0,0
175,78,0,0,0,0,0,0,0,0,0,-1,1399,946,0,0
182,78,0,0,0,0,0,0,0,0,0,-1,1406,946,0,0
189,78,0,0,0,0,0,0,0,0,0,-1,1413,946,0,0
196,78,0,0,0,0,0,0,0,0,0,-1,1420,946,0,0
203,78,0,0,0,0,0,0,0,0,0,-1,1427,946,0,0
210,78,0,0,0,0,0,0,0,0,0,-1,1434,946,0,0
217,78,0,0,0,0,0,0,0,0,0,-1,1441,946,0,0
224,78,0,0,0,0,0,0,0,0,0,-1,1448,946,0,0
231,78,0,0,0,0,0,0,0,0,0,-1,1455,946,0,0
238,78,0,0,0,0,0,0,0,0,0,-1,1462,946,0,0
245,78,0,0,0,0,0,0,0,0,0,-1,1469,946,0,0
252,78,0,0,0,0,0,0,0,0,0,-1,1476,946,0,0
259,78,0,0,0,0,0,0,0,0,0,-1,1483,946,0,0
266,78,0,0,0,0,0,0,0,0,0,-1,1490,946,0,0
273,78,0,0,0,0,0,0,0,0,0,-1,1497,946,0,0
280,78,0,0,0,0,0,0,0,0,0,-1,1504,946,0,0
287,78,0,0,0,0,0,0,0,0,0,-1,1511,946,0,0
294,78,0,0,0,0,0,0,0,0,0,-1,1518,946,0,0
301,78,0,0,0,0,0,0,0,0,0,-1,1525,946,0,0
308,78,0,0,0,0,0,0,0,0,0,-1,1532,946,0,0
315,78,0,0,0,0,0,0,0,0,0,-1,1539,946,0,0
322,78,0,0,0,0,0,0,0,0,0,-1,1546,946,0,0
329,78,0,0,0,0,0,0,0,0,0,-1,1553,946,0,0
336,78,0,0,0,0,0,0,0,0,0,-1,1560,946,0,0
343,78,0,0,0,0,0,0,0,0,0,-1,1567,946,0,0
350,78,0,0,0,0,0,0,0,0,0,-1,1574,946,0,0
357,78,0,0,0,0,0,0,0,0,0,-1,1581,946,0,0
364,78,0,0,0,0,0,0,0,0,0,-1,1588,946,0,0
371,78,0,0,0,0,0,0,0,0,0,-1,1595,946,0,0
378,78,0,0,0,0,0,0,0,0,0,-1,1602,946,0,0
385,78,0,0,0,0,0,0,0,0,0,-1,1609,946,0,0
392,78,0,0,0,0,0,0,0,0,0,-1,1616,946,0,0
399,78,0,0,0,0,0,0,0,0,0,-1,1623,946,0,0
406,78,0,0,0,0,0,0,0,0,0,-1,1630,946,0,0
413,78,0,0,0,0,0,0,0,0,0,-1,1637,946,0,0
420,78,0,0,0,0,0,0,0,0,0,-1,1644,946,0,0
427,78,0,0,0,0,0,0,0,0,0,-1,1651,946,0,0
434,78,0,0,0,0,0,0,0,0,0,-1,1658,946,0,0
441,78,0,0,0,0,0,0,0,0,0,-1,1665,946,0,0
448,78,0,0,0,0,0,0,0,0,0,-1,1672,946,0,0
455,78,0,0,0,0,0,0,0,0,0,-1,1679,946,0,0
462,78,0,0,0,0,0,0,0,0,0,-1,1686,946,0,0
469,78,0,0,0,0,0,0,0,0,0,-1,1693,946,0,0
476,78,0,0,0,0,0,0,0,0,0,-1,1700,946,0,0
483,78,0,0,0,0,0,0,0,0,0,-1,1707,946,0,0
490,78,0,0,0,0,0,0,0,0,0,-1,1714,946,0,0
497,78,0,0,0,0,0,0,0,0,0,-1,1721,946,0,0
504,78,0,0,0,0,0,0,0,0,0,-1,1728,946,0,0
511,78,0,0,0,0,0,0,0,0,0,-1,1735,946,0,0
518,78,0,0,0,0,0,0,0,0,0,-1,1742,946,0,0
525,78,0,0,0,0,0,0,0,0,0,-1,1749,946,0,0
532,78,0,0,0,0,0,0,0,0,0,-1,1756,946,0,0
539,78,0,0,0,0,0,0,0,0,0,-1,1763,946,0,0
546,78,0,0,0,0,0,0,0,0,0,-1,1770,946,0,0
553,78,0,0,0,0,0,0,0,0,0,-1,1777,946,0,0
560,78,0,0,0,0,0,0,0,0,0,-1,1784,946,0,0
567,78,0,0,0,0,0,0,0,0,0,-1,1791,946,0,0
574,78,0,0,0,0,0,0,0,0,0,-1,1798,946,0,0
581,78,0,0,0,0,0,0,0,0,0,-1,1805,946,0,0
588,78,0,0,0,0,0,0,0,0,0,-1,1812,946,0,0
595,78,0,0,0,0,0,0,0,0,0,-1,1819,946,0,0
602,78,0,0,0,0,0,0,0,0,0,-1,1826,946,0,0
609,78,0,0,0,0,0,0,0,0,0,-1,1833,946,0,0
616,78,0,0,0,0,0,0,0,0,0,-1,1840,946,0,0
623,78,0,0,0,0,0,0,0,0,0,-1,1847,946,0,0
630,78,0,0,0,0,0,0,0,0,0,-1,1854,946,0,0
637,78,35.889,2.73743,0.00866482,0.00804133,-0.00808595,0.016445,0.000261117,-0.766131,0.0108774,0.0446476,1861,946,35.889,-2.73744
644,78,36.0496,1.78864,0.00514286,0.00626167,-0.00528423,0.011016,0.000388509,-0.838134,0.007218,0.0436972,1868,946,36.0496,-1.78861
651,78,36.0355,2.06116,0.00298595,0.00487517,-0.00348696,0.0075432,0.00031792,-0.917673,0.00492625,0.0396855,1875,946,36.0355,-2.06116
658,78,35.7885,2.55035,0.00149751,0.00379784,-0.00218415,0.00511615,0.0001792,-1.02775,0.00335263,0.0366025,1882,946,35.7884,-2.55036
665,78,35.687,2.95044,0.000580725,0.00289539,-0.00122839,0.00342577,5.03478e-05,-1.16321,0.00226725,0.0393476,1889,946,35.687,-2.95043
672,78,35.7599,2.62964,1.88923e-05,0.0020814,-0.000547936,0.00221793,-0.000117637,-1.3266,0.00151935,0.0411863,1896,946,35.7599,-2.62965
679,78,35.7239,2.51764,-0.000238562,0.00136911,-9.2178e-05,0.00137438,-0.00024383,-1.51371,0.00100741,0.0378349,1903,946,35.7239,-2.51765
686,78,35.7035,2.4635,-0.000348977,0.000802948,0.000173909,0.000828631,-0.00037466,1.42418,0.00071101,0.03418,1910,946,35.7036,-2.46347
693,78,35.7367,2.42731,-0.000436987,0.000208756,0.000454351,0.000443272,-0.000671503,1.09431,0.000648097,0.0300127,1917,946,35.7367,-2.42731
700,78,35.7087,2.44586,-0.000541681,-8.73291e-05,0.000479813,0.000216371,-0.000845381,1.0065,0.000647869,0.0284667,1924,946,35.7087,-2.44584
707,78,35.7778,2.50177,0,0,0,0,0,0,0,-1,1931,946,35.7778,-2.50179
714,78,33.5388,3.73016,0,0,0,0,0,0,0,-1,1938,946,33.5389,-3.73014
721,78,33.5995,3.96606,-0.000932731,0.000232034,-8.45505e-05,0.00023814,-0.000938837,-1.49871,0.000718548,0.0247069,1945,946,33.5995,-3.96605
728,78,33.6448,4.30219,-0.000744617,0.000595298,7.37214e-05,0.000599342,-0.000748661,1.516,0.00077986,0.0256245,1952,946,33.6447,-4.30216
735,78,33.6949,4.52643,-7.07328e-05,0.00105286,-0.000234453,0.00109982,-0.000117692,-1.37312,0.000775425,0.0197241,1959,946,33.6949,-4.52644
742,78,33.7314,4.75507,-2.88515e-05,0.00192943,-0.000666566,0.00213479,-0.000234205,-1.27195,0.00150734,0.0161681,1966,946,33.7314,-4.75508
749,78,33.6611,5.00037,0.000477483,0.00294181,-0.00107425,0.00334435,7.49474e-05,-1.21228,0.00220501,0.012809,1973,946,33.6612,-5.00035
756,78,33.6222,5.22699,0.00156366,0.00410732,-0.00149108,0.0047953,0.000875674,-1.1385,0.00294864,0.0139513,1980,946,33.6221,-5.22699
763,78,33.5664,5.46979,0.00318529,0.00530102,-0.00175603,0.00629321,0.0021931,-1.0565,0.00368857,0.0146515,1987,946,33.5664,-5.4698
770,78,33.5347,5.70233,0.00527253,0.00623367,-0.00194356,0.00775519,0.003751,-0.906598,0.00447826,0.019706,1994,946,33.5347,-5.70233
777,78,33.4233,5.93951,0.00764156,0.00670771,-0.00215615,0.00938076,0.0049685,-0.678767,0.00541916,0.0407165,2001,946,33.4234,-5.93953
784,78,33.3173,6.19421,0,0,0,0,0,0,0,-1,2008,946,33.3173,-6.1942
791,78,32.4103,6.9848,0,0,0,0,0,0,0,-1,2015,946,32.4103,-6.9848
798,78,33.4534,6.76624,0,0,0,0,0,0,0,-1,2022,946,33.4534,-6.76623
805,78,33.4985,6.56982,0,0,0,0,0,0,0,-1,2029,946,33.4986,-6.56983
812,78,0,0,0,0,0,0,0,0,0,-1,2036,946,0,0
-700,71,0,0,0,0,0,0,0,0,0,-1,524,953,0,0
-693,71,0,0,0,0,0,0,0,0,0,-1,531,953,0,0
-686,71,-27.4703,6.14514,0.084964,-0.0962796,-0.0268846,0.0888678,-0.100183,-0.144199,0.109214,0.0440565,538,953,-27.4703,-6.14513
-679,71,-27.1177,5.69427,0.0729261,-0.0777891,-0.0240246,0.076663,-0.0815261,-0.15431,0.0913449,0.0498758,545,953,-27.1177,-5.6943
-672,71,-26.2444,5.48187,0,0,0,0,0,0,0,-1,552,953,-26.2444,-5.48187
-665,71,-25.9673,5.07416,0.0497023,-0.0468377,-0.0176378,0.0528238,-0.0499592,-0.175163,0.0593494,0.0492254,559,953,-25.9673,-5.07416
-658,71,-25.6886,4.60321,0.0393922,-0.0344905,-0.0144333,0.0421117,-0.03721,-0.186235,0.0458255,0.0493323,566,953,-25.6886,-4.60322
-651,71,-25.2363,4.03772,0.0302592,-0.0242529,-0.0113411,0.0325245,-0.0265182,-0.197151,0.0341471,0.0445272,573,953,-25.2363,-4.03769
-644,71,-24.8091,3.20978,0.022444,-0.0161109,-0.00850304,0.024236,-0.0179029,-0.207709,0.0244203,0.033536,580,953,-24.8091,-3.20977
-637,71,-24.8942,2.8963,0.0156671,-0.00972994,-0.00606187,0.0170398,-0.0111026,-0.222689,0.0163681,0.0141825,587,953,-24.8942,-2.89631
-630,71,-24.9528,2.68341,0.00997266,-0.00500795,-0.00452082,0.0112312,-0.00626651,-0.271515,0.010237,0.0130075,594,953,-24.9528,-2.68341
-623,71,-24.9858,2.47449,0.00460022,-0.00156508,-0.00301199,0.00582742,-0.00279228,-0.386903,0.00507839,0.0126986,601,953,-24.9859,-2.47448
-616,71,-24.9939,2.26715,0.000633584,0.000316641,-0.00205069,0.00253192,-0.00158169,-0.746836,0.00239602,0.0128227,608,953,-24.9939,-2.26713
-609,71,-24.9692,2.1015,-0.00254638,0.00153933,-0.00168556,0.00214494,-0.00315199,-1.22587,0.00307655,0.0148226,615,953,-24.9692,-2.1015
-602,71,-24.9301,1.87689,-0.00516238,0.00159465,-0.00178387,0.00203667,-0.00560441,-1.3279,0.00456907,0.0161861,622,953,-24.9301,-1.87688
-595,71,-24.9377,1.64886,-0.00733636,0.00112795,-0.00170412,0.00145816,-0.00766657,-1.3794,0.00566006,0.0163363,629,953,-24.9378,-1.64888
-588,71,-24.918,1.50153,-0.00857691,0.000906527,-0.00204576,0.00132901,-0.0089994,-1.36714,0.00648814,0.0190369,636,953,-24.918,-1.50153
-581,71,-25.1135,1.14148,-0.00899544,0.000580295,-0.00235416,0.00112776,-0.0095429,-1.34231,0.00676924,0.03084,643,953,-25.1135,-1.14146
-574,71,-25.732,0.796326,-0.0088686,0.000647169,-0.00246331,0.00124702,-0.00946845,-1.33193,0.00676639,0.0369554,650,953,-25.732,-0.796339
-567,71,-26.2252,0.567505,0,0,0,0,0,0,0,-1,657,953,-26.2252,-0.567534
-560,71,-25.9968,0.640625,-0.0077623,0.00128003,-0.00221016,0.00179133,-0.0082736,-1.34345,0.00619972,0.026736,664,953,-25.9968,-0.640633
-553,71,-26.0656,0.603088,-0.00614914,0.00171745,-0.00180119,0.00211025,-0.00654194,-1.35608,0.00520919,0.0384721,671,953,-26.0655,-0.603059
-546,71,-26.1108,0.720093,-0.00355171,0.00217899,-0.00118072,0.00241273,-0.00378545,-1.37536,0.00360765,0.0397531,678,953,-26.1108,-0.720074
-539,71,-26.1461,0.671204,0.000225671,0.00257528,-0.000349672,0.00262621,0.000174736,-1.42615,0.00169557,0.0415964,685,953,-26.1461,-0.671209
-532,71,-26.561,0.157104,0,0,0,0,0,0,0,-1,692,953,-26.561,-0.157127
-525,71,-26.2125,0.403931,0,0,0,0,0,0,0,-1,699,953,-26.2125,-0.403926
-518,71,0,0,0,0,0,0,0,0,0,-1,706,953,0,0
-511,71,0,0,0,0,0,0,0,0,0,-1,713,953,0,0
-504,71,0,0,0,0,0,0,0,0,0,-1,720,953,0,0
-497,71,0,0,0,0,0,0,0,0,0,-1,727,953,0,0
-490,71,0,0,0,0,0,0,0,0,0,-1,734,953,0,0
-483,71,0,0,0,0,0,0,0,0,0,-1,741,953,0,0
-476,71,0,0,0,0,0,0,0,0,0,-1,748,953,0,0
-469,71,0,0,0,0,0,0,0,0,0,-1,755,953,0,0
-462,71,0,0,0,0,0,0,0,0,0,-1,762,953,0,0
-455,71,0,0,0,0,0,0,0,0,0,-1,769,953,0,0
-448,71,0,0,0,0,0,0,0,0,0,-1,776,953,0,0
-441,71,0,0,0,0,0,0,0,0,0,-1,783,953,0,0
-434,71,0,0,0,0,0,0,0,0,0,-1,790,953,0,0
-427,71,0,0,0,0,0,0,0,0,0,-1,797,953,0,0
-420,71,0,0,0,0,0,0,0,0,0,-1,804,953,0,0
-413,71,0,0,0,0,0,0,0,0,0,-1,811,953,0,0
-406,71,0,0,0,0,0,0,0,0,0,-1,818,953,0,0
-399,71,0,0,0,0,0,0,0,0,0,-1,825,953,0,0
-392,71,0,0,0,0,0,0,0,0,0,-1,832,953,0,0
-385,71,0,0,0,0,0,0,0,0,0,-1,839,953,0,0
-378,71,0,0,0,0,0,0,0,0,0,-1,846,953,0,0
-371,71,0,0,0,0,0,0,0,0,0,-1,853,953,0,0
-364,71,0,0,0,0,0,0,0,0,0,-1,860,953,0,0
-357,71,0,0,0,0,0,0,0,0,0,-1,867,953,0,0
-350,71,0,0,0,0,0,0,0,0,0,-1,874,953,0,0
-343,71,0,0,0,0,0,0,0,0,0,-1,881,953,0,0
-336,71,0,0,0,0,0,0,0,0,0,-1,888,953,0,0
-329,71,0,0,0,0,0,0,0,0,0,-1,895,953,0,0
-322,71,0,0,0,0,0,0,0,0,0,-1,902,953,0,0
-315,71,0,0,0,0,0,0,0,0,0,-1,909,953,0,0
-308,71,0,0,0,0,0,0,0,0,0,-1,916,953,0,0
-301,71,0,0,0,0,0,0,0,0,0,-1,923,953,0,0
-294,71,0,0,0,0,0,0,0,0,0,-1,930,953,0,0
-287,71,0,0,0,0,0,0,0,0,0,-1,937,953,0,0
-280,71,0,0,0,0,0,0,0,0,0,-1,944,953,0,0
-273,71,0,0,0,0,0,0,0,0,0,-1,951,953,0,0
-266,71,0,0,0,0,0,0,0,0,0,-1,958,953,0,0
-259,71,0,0,0,0,0,0,0,0,0,-1,965,953,0,0
-252,71,0,0,0,0,0,0,0,0,0,-1,972,953,0,0
-245,71,0,0,0,0,0,0,0,0,0,-1,979,953,0,0
-238,71,0,0,0,0,0,0,0,0,0,-1,986,953,0,0
-231,71,0,0,0,0,0,0,0,0,0,-1,993,953,0,0
-224,71,0,0,0,0,0,0,0,0,0,-1,1000,953,0,0
-217,71,0,0,0,0,0,0,0,0,0,-1,1007,953,0,0
-210,71,0,0,0,0,0,0,0,0,0,-1,1014,953,0,0
-203,71,0,0,0,0,0,0,0,0,0,-1,1021,953,0,0
-196,71,0,0,0,0,0,0,0,0,0,-1,1028,953,0,0
-189,71,0,0,0,0,0,0,0,0,0,-1,1035,953,0,0
-182,71,0,0,0,0,0,0,0,0,0,-1,1042,953,0,0
-175,71,0,0,0,0,0,0,0,0,0,-1,1049,953,0,0
-168,71,0,0,0,0,0,0,0,0,0,-1,1056,953,0,0
-161,71,0,0,0,0,0,0,0,0,0,-1,1063,953,0,0
-154,71,0,0,0,0,0,0,0,0,0,-1,1070,953,0,0
-147,71,0,0,0,0,0,0,0,0,0,-1,1077,953,0,0
-140,71,0,0,0,0,0,0,0,0,0,-1,1084,953,0,0
-133,71,0,0,0,0,0,0,0,0,0,-1,1091,953,0,0
-126,71,0,0,0,0,0,0,0,0,0,-1,1098,953,0,0
-119,71,0,0,0,0,0,0,0,0,0,-1,1105,953,0,0
-112,71,0,0,0,0,0,0,0,0,0,-1,1112,953,0,0
-105,71,0,0,0,0,0,0,0,0,0,-1,1119,953,0,0
-98,71,0,0,0,0,0,0,0,0,0,-1,1126,953,0,0
-91,71,0,0,0,0,0,0,0,0,0,-1,1133,953,0,0
-84,71,0,0,0,0,0,0,0,0,0,-1,1140,953,0,0
-77,71,0,0,0,0,0,0,0,0,0,-1,1147,953,0,0
-70,71,0,0,0,0,0,0,0,0,0,-1,1154,953,0,0
-63,71,0,0,0,0,0,0,0,0,0,-1,1161,953,0,0
-56,71,0,0,0,0,0,0,0,0,0,-1,1168,953,0,0
-49,71,0,0,0,0,0,0,0,0,0,-1,1175,953,0,0
-42,71,0,0,0,0,0,0,0,0,0,-1,1182,953,0,0
-35,71,0,0,0,0,0,0,0,0,0,-1,1189,953,0,0
-28,71,0,0,0,0,0,0,0,0,0,-1,1196,953,0,0
-21,71,0,0,0,0,0,0,0,0,0,-1,1203,953,0,0
-14,71,0,0,0,0,0,0,0,0,0,-1,1210,953,0,0
-7,71,0,0,0,0,0,0,0,0,0,-1,1217,953,0,0
0,71,0,0,0,0,0,0,0,0,0,-1,1224,953,0,0
7,71,0,0,0,0,0,0,0,0,0,-1,1231,953,0,0
14,71,0,0,0,0,0,0,0,0,0,-1,1238,953,0,0
21,71,0,0,0,0,0,0,0,0,0,-1,1245,953,0,0
28,71,0,0,0,0,0,0,0,0,0,-1,1252,953,0,0
35,71,0,0,0,0,0,0,0,0,0,-1,1259,953,0,0
42,71,0,0,0,0,0,0,0,0,0,-1,1266,953,0,0
49,71,0,0,0,0,0,0,0,0,0,-1,1273,953,0,0
56,71,0,0,0,0,0,0,0,0,0,-1,1280,953,0,0
63,71,0,0,0,0,0,0,0,0,0,-1,1287,953,0,0
70,71,0,0,0,0,0,0,0,0,0,-1,1294,953,0,0
77,71,0,0,0,0,0,0,0,0,0,-1,1301,953,0,0
84,71,0,0,0,0,0,0,0,0,0,-1,1308,953,0,0
91,71,0,0,0,0,0,0,0,0,0,-1,1315,953,0,0
98,71,0,0,0,0,0,0,0,0,0,-1,1322,953,0,0
105,71,0,0,0,0,0,0,0,0,0,-1,1329,953,0,0
112,71,0,0,0,0,0,0,0,0,0,-1,1336,953,0,0
119,71,0,0,0,0,0,0,0,0,0,-1,1343,953,0,0
126,71,0,0,0,0,0,0,0,0,0,-1,1350,953,0,0
133,71,0,0,0,0,0,0,0,0,0,-1,1357,953,0,0
140,71,0,0,0,0,0,0,0,0,0,-1,1364,953,0,0
147,71,0,0,0,0,0,0,0,0,0,-1,1371,953,0,0
154,71,0,0,0,0,0,0,0,0,0,-1,1378,953,0,0
161,71,0,0,0,0,0,0,0,0,0,-1,1385,953,0,0
168,71,0,0,0,0,0,0,0,0,0,-1,1392,953,0,0
175,71,0,0,0,0,0,0,0,0,0,-1,1399,953,0,0
182,71,0,0,0,0,0,0,0,0,0,-1,1406,953,0,0
189,71,0,0,0,0,0,0,0,0,0,-1,1413,953,0,0
196,71,0,0,0,0,0,0,0,0,0,-1,1420,953,0,0
203,71,0,0,0,0,0,0,0,0,0,-1,1427,953,0,0
210,71,0,0,0,0,0,0,0,0,0,-1,1434,953,0,0
217,71,0,0,0,0,0,0,0,0,0,-1,1441,953,0,0
224,71,0,0,0,0,0,0,0,0,0,-1,1448,953,0,0
231,71,0,0,0,0,0,0,0,0,0,-1,1455,953,0,0
238,71,0,0,0,0,0,0,0,0,0,-1,1462,953,0,0
245,71,0,0,0,0,0,0,0,0,0,-1,1469,953,0,0
252,71,0,0,0,0,0,0,0,0,0,-1,1476,953,0,0
259,71,0,0,0,0,0,0,0,0,0,-1,1483,953,0,0
266,71,0,0,0,0,0,0,0,0,0,-1,1490,953,0,0
273,71,0,0,0,0,0,0,0,0,0,-1,1497,953,0,0
280,71,0,0,0,0,0,0,0,0,0,-1,1504,953,0,0
287,71,0,0,0,0,0,0,0,0,0,-1,1511,953,0,0
294,71,0,0,0,0,0,0,0,0,0,-1,1518,953,0,0
301,71,0,0,0,0,0,0,0,0,0,-1,1525,953,0,0
308,71,0,0,0,0,0,0,0,0,0,-1,1532,953,0,0
315,71,0,0,0,0,0,0,0,0,0,-1,1539,953,0,0
322,71,0,0,0,0,0,0,0,0,0,-1,1546,953,0,0
329,71,0,0,0,0,0,0,0,0,0,-1,1553,953,0,0
336,71,0,0,0,0,0,0,0,0,0,-1,1560,953,0,0
343,71,0,0,0,0,0,0,0,0,0,-1,1567,953,0,0
350,71,0,0,0,0,0,0,0,0,0,-1,1574,953,0,0
357,71,0,0,0,0,0,0,0,0,0,-1,1581,953,0,0
364,71,0,0,0,0,0,0,0,0,0,-1,1588,953,0,0
371,71,0,0,0,0,0,0,0,0,0,-1,1595,953,0,0
378,71,0,0,0,0,0,0,0,0,0,-1,1602,953,0,0
385,71,0,0,0,0,0,0,0,0,0,-1,1609,953,0,0
392,71,0,0,0,0,0,0,0,0,0,-1,1616,953,0,0
399,71,0,0,0,0,0,0,0,0,0,-1,1623,953,0,0
406,71,0,0,0,0,0,0,0,0,0,-1,1630,953,0,0
413,71,0,0,0,0,0,0,0,0,0,-1,1637,953,0,0
420,71,0,0,0,0,0,0,0,0,0,-1,1644,953,0,0
427,71,0,0,0,0,0,0,0,0,0,-1,1651,953,0,0
434,71,0,0,0,0,0,0,0,0,0,-1,1658,953,0,0
441,71,0,0,0,0,0,0,0,0,0,-1,1665,953,0,0
448,71,0,0,0,0,0,0,0,0,0,-1,1672,953,0,0
455,71,0,0,0,0,0,0,0,0,0,-1,1679,953,0,0
462,71,0,0,0,0,0,0,0,0,0,-1,1686,953,0,0
469,71,0,0,0,0,0,0,0,0,0,-1,1693,953,0,0
476,71,0,0,0,0,0,0,0,0,0,-1,1700,953,0,0
483,71,0,0,0,0,0,0,0,0,0,-1,1707,953,0,0
490,71,0,0,0,0,0,0,0,0,0,-1,1714,953,0,0
497,71,0,0,0,0,0,0,0,0,0,-1,1721,953,0,0
504,71,0,0,0,0,0,0,0,0,0,-1,1728,953,0,0
511,71,0,0,0,0,0,0,0,0,0,-1,1735,953,0,0
518,71,0,0,0,0,0,0,0,0,0,-1,1742,953,0,0
525,71,0,0,0,0,0,0,0,0,0,-1,1749,953,0,0
532,71,0,0,0,0,0,0,0,0,0,-1,1756,953,0,0
539,71,0,0,0,0,0,0,0,0,0,-1,1763,953,0,0
546,71,0,0,0,0,0,0,0,0,0,-1,1770,953,0,0
553,71,0,0,0,0,0,0,0,0,0,-1,1777,953,0,0
560,71,0,0,0,0,0,0,0,0,0,-1,1784,953,0,0
567,71,0,0,0,0,0,0,0,0,0,-1,1791,953,0,0
574,71,0,0,0,0,0,0,0,0,0,-1,1798,953,0,0
581,71,0,0,0,0,0,0,0,0,0,-1,1805,953,0,0
588,71,0,0,0,0,0,0,0,0,0,-1,1812,953,0,0
595,71,0,0,0,0,0,0,0,0,0,-1,1819,953,0,0
602,71,0,0,0,0,0,0,0,0,0,-1,1826,953,0,0
609,71,0,0,0,0,0,0,0,0,0,-1,1833,953,0,0
616,71,0,0,0,0,0,0,0,0,0,-1,1840,953,0,0
623,71,0,0,0,0,0,0,0,0,0,-1,1847,953,0,0
630,71,0,0,0,0,0,0,0,0,0,-1,1854,953,0,0
637,71,35.7769,2.44171,0.00855348,0.00786829,-0.00785259,0.0160709,0.000350827,-0.763598,0.010599,0.0400601,1861,953,35.7768,-2.44169
644,71,35.7175,2.1925,0.00508987,0.00596105,-0.00517615,0.0107199,0.000331017,-0.827376,0.00703886,0.0399764,1868,953,35.7176,-2.19252
651,71,35.8018,2.30164,0.00296742,0.00452889,-0.00343523,0.00727098,0.000225323,-0.897137,0.00477399,0.0388404,1875,953,35.8017,-2.30162
658,71,35.8541,2.56104,0.00150135,0.00345623,-0.00215409,0.00484428,0.000113306,-0.998387,0.00319242,0.0379553,1882,953,35.8542,-2.56106
665,71,35.8293,2.63812,0.00055177,0.00265775,-0.00114732,0.00316205,4.74772e-05,-1.15667,0.00209238,0.0407078,1889,953,35.8294,-2.63814
672,71,35.83,2.46747,-9.12911e-05,0.00194783,-0.000375621,0.00201482,-0.000158282,-1.3943,0.00139896,0.0406983,1896,953,35.8299,-2.46749
679,71,35.6567,2.47736,-0.00042781,0.0013601,0.000187251,0.0013795,-0.000447211,1.46756,0.00109948,0.038775,1903,953,35.6567,-2.47735
686,71,35.6345,2.38165,-0.000563452,0.000845204,0.000525807,0.00101982,-0.000738073,1.25016,0.00101926,0.0368107,1910,953,35.6346,-2.38168
693,71,35.7507,2.32623,-0.000667224,0.000302846,0.00083685,0.000785063,-0.00114944,1.04804,0.00112347,0.0330857,1917,953,35.7507,-2.32622
700,71,35.7145,2.3891,-0.00078869,7.54679e-05,0.00088582,0.00062897,-0.00134219,1.01231,0.00116262,0.0343363,1924,953,35.7145,-2.38911
707,71,35.7421,2.52039,0,0,0,0,0,0,0,-1,1931,953,35.7421,-2.52036
714,71,34.1843,3.84753,0,0,0,0,0,0,0,-1,1938,953,34.1843,-3.84755
721,71,34.0265,4.0296,-0.00138306,0.000511106,0.000349131,0.000573409,-0.00144536,1.39421,0.00120123,0.0371253,1945,953,34.0265,-4.02958
728,71,33.9053,4.32623,-0.00123223,0.000909301,0.000427843,0.000991614,-0.00131454,1.38073,0.0013358,0.021721,1952,953,33.9053,-4.32624
735,71,33.9366,4.56915,-0.000622551,0.00143329,2.22209e-05,0.00143353,-0.000622791,1.55999,0.00121759,0.0162972,1959,953,33.9366,-4.56916
742,71,33.972,4.78564,-0.000677703,0.00237719,-0.000533054,0.00246753,-0.000768045,-1.40291,0.00195207,0.0163126,1966,953,33.9721,-4.78566
749,71,33.948,5.00958,-0.00035559,0.00342664,-0.00109448,0.00372052,-0.000649471,-1.30847,0.00272278,0.0165754,1973,953,33.9481,-5.00959
756,71,33.9139,5.22186,0.000484523,0.00465143,-0.00173578,0.00527975,-0.000143795,-1.22349,0.00356873,0.0163647,1980,953,33.914,-5.22184
763,71,33.8655,5.43384,0.00185694,0.00597774,-0.00231654,0.0070176,0.000817077,-1.14887,0.00443122,0.0171709,1987,953,33.8654,-5.43386
770,71,33.762,5.59613,0.00376067,0.00713962,-0.00285683,0.00876915,0.00213114,-1.05243,0.00528105,0.0202965,1994,953,33.762,-5.59615
777,71,33.5687,5.75732,0.00600954,0.00787456,-0.00347964,0.0105445,0.00333962,-0.916317,0.0062227,0.0388707,2001,953,33.5688,-5.75734
784,71,33.1545,6.03986,0.00882591,0.00791927,-0.00413877,0.0125361,0.00420907,-0.730851,0.00736674,0.043659,2008,953,33.1545,-6.03986
791,71,32.8403,6.04028,0.0123943,0.00673314,-0.00503943,0.0153437,0.00378374,-0.529513,0.00923011,0.0494029,2015,953,32.8404,-6.04027
798,71,32.51,5.93262,0,0,0,0,0,0,0,-1,2022,953,32.5101,-5.93259
805,71,31.5969,4.77124,0,0,0,0,0,0,0,-1,2029,953,31.5969,-4.77121
812,71,0,0,0,0,0,0,0,0,0,-1,2036,953,0,0
-700,64,0,0,0,0,0,0,0,0,0,-1,524,960,0,0
-693,64,0,0,0,0,0,0,0,0,0,-1,531,960,0,0
-686,64,-28.0703,6.77759,0,0,0,0,0,0,0,-1,538,960,-28.0703,-6.77759
-679,64,-27.6791,6.28613,0,0,0,0,0,0,0,-1,545,960,-27.6791,-6.2861
-672,64,-26.119,5.61255,0,0,0,0,0,0,0,-1,552,960,-26.119,-5.61252
-665,64,-25.9946,5.32806,0,0,0,0,0,0,0,-1,559,960,-25.9945,-5.32809
-658,64,-25.9944,4.72968,0,0,0,0,0,0,0,-1,566,960,-25.9944,-4.72968
-651,64,-25.6885,4.09686,0.025729,-0.0157545,-0.00779783,0.0271464,-0.0171719,-0.179801,0.0258022,0.0429789,573,960,-25.6885,-4.09685
-644,64,-25.2665,3.20721,0.0184405,-0.00895258,-0.00593852,0.0196725,-0.0101846,-0.204557,0.0175257,0.0301014,580,960,-25.2666,-3.20721
-637,64,-25.1261,2.81256,0.0121486,-0.00378217,-0.00431855,0.013244,-0.00487754,-0.248403,0.0108278,0.0160139,587,960,-25.1261,-2.81254
-630,64,-25.1776,2.62885,0.00713496,-0.000256962,-0.00353223,0.00855141,-0.00167342,-0.381376,0.00633288,0.0129299,594,960,-25.1776,-2.62887
-623,64,-25.1986,2.46259,0.00261137,0.00198869,-0.00279904,0.00511633,-0.000516267,-0.73001,0.00359535,0.0133213,601,960,-25.1986,-2.46258
-616,64,-25.21,2.2804,-0.000469742,0.00263931,-0.00245111,0.00398728,-0.00181771,-1.068,0.00342865,0.0173942,608,960,-25.2099,-2.28038
-609,64,-25.1874,2.11639,-0.00291986,0.00301445,-0.00252603,0.00394406,-0.00384947,-1.21816,0.00449971,0.017982,615,960,-25.1875,-2.11637
-602,64,-25.1683,1.9176,-0.00499556,0.0024816,-0.00283237,0.00343336,-0.00594732,-1.24662,0.00548038,0.0172634,622,960,-25.1684,-1.91758
-595,64,-25.1737,1.71643,-0.00689755,0.00181547,-0.00278092,0.00262739,-0.00770947,-1.28673,0.00620376,0.0174117,629,960,-25.1737,-1.71645
-588,64,-25.1464,1.62268,-0.0080351,0.00151158,-0.00312638,0.0024443,-0.00896781,-1.28087,0.00693834,0.0263846,636,960,-25.1464,-1.62267
-581,64,-25.3997,1.19727,-0.00829929,0.00114633,-0.00339019,0.00223716,-0.00939011,-1.2595,0.00712386,0.0366871,643,960,-25.3997,-1.19727
-574,64,-25.8653,0.800476,-0.00812629,0.0011322,-0.00346374,0.0022846,-0.00927869,-1.24961,0.00707143,0.0412361,650,960,-25.8653,-0.800489
-567,64,-25.9178,0.618225,-0.00785721,0.00133055,-0.00333816,0.00241532,-0.00894198,-1.2566,0.00690863,0.024909,657,960,-25.9179,-0.618251
-560,64,-25.9451,0.635986,-0.00707304,0.00155224,-0.0030075,0.00249735,-0.00801815,-1.26632,0.0063439,0.0332908,664,960,-25.9451,-0.635967
-553,64,-25.9037,0.47229,-0.00547974,0.00180184,-0.00244355,0.00254583,-0.00622373,-1.27524,0.00520942,0.0380447,671,960,-25.9038,-0.472268
-546,64,-26.2822,0.883911,-0.00290767,0.00200979,-0.0016539,0.00251429,-0.00341217,-1.27473,0.00343471,0.0404299,678,960,-26.2822,-0.883896
-539,64,-26.3212,0.215088,0.000842409,0.00208173,-0.000677939,0.00238054,0.000543603,-1.15566,0.00144043,0.0417287,685,960,-26.3212,-0.215086
-532,64,-26.3278,0.258728,0.00583837,0.00201928,0.000166282,0.0058456,0.00201205,0.04343,0.00342914,0.0424312,692,960,-26.3278,-0.258712
-525,64,-26.1497,0.4198,0.0107234,0.00208148,0.000454228,0.0107472,0.00205768,0.0523686,0.00658695,0.0424582,699,960,-26.1497,-0.419815
-518,64,0,0,0,0,0,0,0,0,0,-1,706,960,0,0
-511,64,0,0,0,0,0,0,0,0,0,-1,713,960,0,0
-504,64,0,0,0,0,0,0,0,0,0,-1,720,960,0,0
-497,64,0,0,0,0,0,0,0,0,0,-1,727,960,0,0
-490,64,0,0,0,0,0,0,0,0,0,-1,734,960,0,0
-483,64,0,0,0,0,0,0,0,0,0,-1,741,960,0,0
-476,64,0,0,0,0,0,0,0,0,0,-1,748,960,0,0
-469,64,0,0,0,0,0,0,0,0,0,-1,755,960,0,0
-462,64,0,0,0,0,0,0,0,0,0,-1,762,960,0,0
-455,64,0,0,0,0,0,0,0,0,0,-1,769,960,0,0
-448,64,0,0,0,0,0,0,0,0,0,-1,776,960,0,0
-441,64,0,0,0,0,0,0,0,0,0,-1,783,960,0,0
-434,64,0,0,0,0,0,0,0,0,0,-1,790,960,0,0
-427,64,0,0,0,0,0,0,0,0,0,-1,797,960,0,0
-420,64,0,0,0,0,0,0,0,0,0,-1,804,960,0,0
-413,64,0,0,0,0,0,0,0,0,0,-1,811,960,0,0
-406,64,0,0,0,0,0,0,0,0,0,-1,818,960,0,0
-399,64,0,0,0,0,0,0,0,0,0,-1,825,960,0,0
-392,64,0,0,0,0,0,0,0,0,0,-1,832,960,0,0
-385,64,0,0,0,0,0,0,0,0,0,-1,839,960,0,0
-378,64,0,0,0,0,0,0,0,0,0,-1,846,960,0,0
-371,64,0,0,0,0,0,0,0,0,0,-1,853,960,0,0
-364,64,0,0,0,0,0,0,0,0,0,-1,860,960,0,0
-357,64,0,0,0,0,0,0,0,0,0,-1,867,960,0,0
-350,64,0,0,0,0,0,0,0,0,0,-1,874,960,0,0
-343,64,0,0,0,0,0,0,0,0,0,-1,881,960,0,0
-336,64,0,0,0,0,0,0,0,0,0,-1,888,960,0,0
-329,64,0,0,0,0,0,0,0,0,0,-1,895,960,0,0
-322,64,0,0,0,0,0,0,0,0,0,-1,902,960,0,0
-315,64,0,0,0,0,0,0,0,0,0,-1,909,960,0,0
-308,64,0,0,0,0,0,0,0,0,0,-1,916,960,0,0
-301,64,0,0,0,0,0,0,0,0,0,-1,923,960,0,0
-294,64,0,0,0,0,0,0,0,0,0,-1,930,960,0,0
-287,64,0,0,0,0,0,0,0,0,0,-1,937,960,0,0
-280,64,0,0,0,0,0,0,0,0,0,-1,944,960,0,0
-273,64,0,0,0,0,0,0,0,0,0,-1,951,960,0,0
-266,64,0,0,0,0,0,0,0,0,0,-1,958,960,0,0
-259,64,0,0,0,0,0,0,0,0,0,-1,965,960,0,0
-252,64,0,0,0,0,0,0,0,0,0,-1,972,960,0,0
-245,64,0,0,0,0,0,0,0,0,0,-1,979,960,0,0
-238,64,0,0,0,0,0,0,0,0,0,-1,986,960,0,0
-231,64,0,0,0,0,0,0,0,0,0,-1,993,960,0,0
-224,64,0,0,0,0,0,0,0,0,0,-1,1000,960,0,0
-217,64,0,0,0,0,0,0,0,0,0,-1,1007,960,0,0
-210,64,0,0,0,0,0,0,0,0,0,-1,1014,960,0,0
-203,64,0,0,0,0,0,0,0,0,0,-1,1021,960,0,0
-196,64,0,0,0,0,0,0,0,0,0,-1,1028,960,0,0
-189,64,0,0,0,0,0,0,0,0,0,-1,1035,960,0,0
-182,64,0,0,0,0,0,0,0,0,0,-1,1042,960,0,0
-175,64,0,0,0,0,0,0,0,0,0,-1,1049,960,0,0
-168,64,0,0,0,0,0,0,0,0,0,-1,1056,960,0,0
-161,64,0,0,0,0,0,0,0,0,0,-1,1063,960,0,0
-154,64,0,0,0,0,0,0,0,0,0,-1,1070,960,0,0
-147,64,0,0,0,0,0,0,0,0,0,-1,1077,960,0,0
-140,64,0,0,0,0,0,0,0,0,0,-1,1084,960,0,0
-133,64,0,0,0,0,0,0,0,0,0,-1,1091,960,0,0
-126,64,0,0,0,0,0,0,0,0,0,-1,1098,960,0,0
-119,64,0,0,0,0,0,0,0,0,0,-1,1105,960,0,0
-112,64,0,0,0,0,0,0,0,0,0,-1,1112,960,0,0
-105,64,0,0,0,0,0,0,0,0,0,-1,1119,960,0,0
-98,64,0,0,0,0,0,0,0,0,0,-1,1126,960,0,0
-91,64,0,0,0,0,0,0,0,0,0,-1,1133,960,0,0
-84,64,0,0,0,0,0,0,0,0,0,-1,1140,960,0,0
-77,64,0,0,0,0,0,0,0,0,0,-1,1147,960,0,0
-70,64,0,0,0,0,0,0,0,0,0,-1,1154,960,0,0
-63,64,0,0,0,0,0,0,0,0,0,-1,1161,960,0,0
-56,64,0,0,0,0,0,0,0,0,0,-1,1168,960,0,0
-49,64,0,0,0,0,0,0,0,0,0,-1,1175,960,0,0
-42,64,0,0,0,0,0,0,0,0,0,-1,1182,960,0,0
-35,64,0,0,0,0,0,0,0,0,0,-1,1189,960,0,0
-28,64,0,0,0,0,0,0,0,0,0,-1,1196,960,0,0
-21,64,0,0,0,0,0,0,0,0,0,-1,1203,960,0,0
-14,64,0,0,0,0,0,0,0,0,0,-1,1210,960,0,0
-7,64,0,0,0,0,0,0,0,0,0,-1,1217,960,0,0
0,64,0,0,0,0,0,0,0,0,0,-1,1224,960,0,0
7,64,0,0,0,0,0,0,0,0,0,-1,1231,960,0,0
14,64,0,0,0,0,0,0,0,0,0,-1,1238,960,0,0
21,64,0,0,0,0,0,0,0,0,0,-1,1245,960,0,0
28,64,0,0,0,0,0,0,0,0,0,-1,1252,960,0,0
35,64,0,0,0,0,0,0,0,0,0,-1,1259,960,0,0
42,64,0,0,0,0,0,0,0,0,0,-1,1266,960,0,0
49,64,0,0,0,0,0,0,0,0,0,-1,1273,960,0,0
56,64,0,0,0,0,0,0,0,0,0,-1,1280,960,0,0
63,64,0,0,0,0,0,0,0,0,0,-1,1287,960,0,0
70,64,0,0,0,0,0,0,0,0,0,-1,1294,960,0,0
77,64,0,0,0,0,0,0,0,0,0,-1,1301,960,0,0
84,64,0,0,0,0,0,0,0,0,0,-1,1308,960,0,0
91,64,0,0,0,0,0,0,0,0,0,-1,1315,960,0,0
98,64,0,0,0,0,0,0,0,0,0,-1,1322,960,0,0
105,64,0,0,0,0,0,0,0,0,0,-1,1329,960,0,0
112,64,0,0,0,0,0,0,0,0,0,-1,1336,960,0,0
119,64,0,0,0,0,0,0,0,0,0,-1,1343,960,0,0
126,64,0,0,0,0,0,0,0,0,0,-1,1350,960,0,0
133,64,0,0,0,0,0,0,0,0,0,-1,1357,960,0,0
140,64,0,0,0,0,0,0,0,0,0,-1,1364,960,0,0
147,64,0,0,0,0,0,0,0,0,0,-1,1371,960,0,0
154,64,0,0,0,0,0,0,0,0,0,-1,1378,960,0,0
161,64,0,0,0,0,0,0,0,0,0,-1,1385,960,0,0
168,64,0,0,0,0,0,0,0,0,0,-1,1392,960,0,0
175,64,0,0,0,0,0,0,0,0,0,-1,1399,960,0,0
182,64,0,0,0,0,0,0,0,0,0,-1,1406,960,0,0
189,64,0,0,0,0,0,0,0,0,0,-1,1413,960,0,0
196,64,0,0,0,0,0,0,0,0,0,-1,1420,960,0,0
203,64,0,0,0,0,0,0,0,0,0,-1,1427,960,0,0
210,64,0,0,0,0,0,0,0,0,0,-1,1434,960,0,0
217,64,0,0,0,0,0,0,0,0,0,-1,1441,960,0,0
224,64,0,0,0,0,0,0,0,0,0,-1,1448,960,0,0
231,64,0,0,0,0,0,0,0,0,0,-1,1455,960,0,0
238,64,0,0,0,0,0,0,0,0,0,-1,1462,960,0,0
245,64,0,0,0,0,0,0,0,0,0,-1,1469,960,0,0
252,64,0,0,0,0,0,0,0,0,0,-1,1476,960,0,0
259,64,0,0,0,0,0,0,0,0,0,-1,1483,960,0,0
266,64,0,0,0,0,0,0,0,0,0,-1,1490,960,0,0
273,64,0,0,0,0,0,0,0,0,0,-1,1497,960,0,0
280,64,0,0,0,0,0,0,0,0,0,-1,1504,960,0,0
287,64,0,0,0,0,0,0,0,0,0,-1,1511,960,0,0
294,64,0,0,0,0,0,0,0,0,0,-1,1518,960,0,0
301,64,0,0,0,0,0,0,0,0,0,-1,1525,960,0,0
308,64,0,0,0,0,0,0,0,0,0,-1,1532,960,0,0
315,64,0,0,0,0,0,0,0,0,0,-1,1539,960,0,0
322,64,0,0,0,0,0,0,0,0,0,-1,1546,960,0,0
329,64,0,0,0,0,0,0,0,0,0,-1,1553,960,0,0
336,64,0,0,0,0,0,0,0,0,0,-1,1560,960,0,0
343,64,0,0,0,0,0,0,0,0,0,-1,1567,960,0,0
350,64,0,0,0,0,0,0,0,0,0,-1,1574,960,0,0
357,64,0,0,0,0,0,0,0,0,0,-1,1581,960,0,0
364,64,0,0,0,0,0,0,0,0,0,-1,1588,960,0,0
371,64,0,0,0,0,0,0,0,0,0,-1,1595,960,0,0
378,64,0,0,0,0,0,0,0,0,0,-1,1602,960,0,0
385,64,0,0,0,0,0,0,0,0,0,-1,1609,960,0,0
392,64,0,0,0,0,0,0,0,0,0,-1,1616,960,0,0
399,64,0,0,0,0,0,0,0,0,0,-1,1623,960,0,0
406,64,0,0,0,0,0,0,0,0,0,-1,1630,960,0,0
413,64,0,0,0,0,0,0,0,0,0,-1,1637,960,0,0
420,64,0,0,0,0,0,0,0,0,0,-1,1644,960,0,0
427,64,0,0,0,0,0,0,0,0,0,-1,1651,960,0,0
434,64,0,0,0,0,0,0,0,0,0,-1,1658,960,0,0
441,64,0,0,0,0,0,0,0,0,0,-1,1665,960,0,0
448,64,0,0,0,0,0,0,0,0,0,-1,1672,960,0,0
455,64,0,0,0,0,0,0,0,0,0,-1,1679,960,0,0
462,64,0,0,0,0,0,0,0,0,0,-1,1686,960,0,0
469,64,0,0,0,0,0,0,0,0,0,-1,1693,960,0,0
476,64,0,0,0,0,0,0,0,0,0,-1,1700,960,0,0
483,64,0,0,0,0,0,0,0,0,0,-1,1707,960,0,0
490,64,0,0,0,0,0,0,0,0,0,-1,1714,960,0,0
497,64,0,0,0,0,0,0,0,0,0,-1,1721,960,0,0
504,64,0,0,0,0,0,0,0,0,0,-1,1728,960,0,0
511,64,0,0,0,0,0,0,0,0,0,-1,1735,960,0,0
518,64,0,0,0,0,0,0,0,0,0,-1,1742,960,0,0
525,64,0,0,0,0,0,0,0,0,0,-1,1749,960,0,0
532,64,0,0,0,0,0,0,0,0,0,-1,1756,960,0,0
539,64,0,0,0,0,0,0,0,0,0,-1,1763,960,0,0
546,64,0,0,0,0,0,0,0,0,0,-1,1770,960,0,0
553,64,0,0,0,0,0,0,0,0,0,-1,1777,960,0,0
560,64,0,0,0,0,0,0,0,0,0,-1,1784,960,0,0
567,64,0,0,0,0,0,0,0,0,0,-1,1791,960,0,0
574,64,0,0,0,0,0,0,0,0,0,-1,1798,960,0,0
581,64,0,0,0,0,0,0,0,0,0,-1,1805,960,0,0
588,64,0,0,0,0,0,0,0,0,0,-1,1812,960,0,0
595,64,0,0,0,0,0,0,0,0,0,-1,1819,960,0,0
602,64,0,0,0,0,0,0,0,0,0,-1,1826,960,0,0
609,64,0,0,0,0,0,0,0,0,0,-1,1833,960,0,0
616,64,0,0,0,0,0,0,0,0,0,-1,1840,960,0,0
623,64,0,0,0,0,0,0,0,0,0,-1,1847,960,0,0
630,64,0,0,0,0,0,0,0,0,0,-1,1854,960,0,0
637,64,0,0,0,0,0,0,0,0,0,-1,1861,960,0,0
644,64,35.5679,2.55475,0.00434824,0.00535924,-0.00438242,0.00926522,0.000442263,-0.842818,0.0060348,0.0409958,1868,960,35.5679,-2.55477
651,64,35.7175,2.51801,0.00252582,0.0038539,-0.00293543,0.00619946,0.000180256,-0.896633,0.00407422,0.0390416,1875,960,35.7176,-2.51801
658,64,35.746,2.54834,0.00125959,0.00275772,-0.00184099,0.0039962,2.11096e-05,-0.978612,0.00265712,0.0369864,1882,960,35.746,-2.54833
665,64,35.7301,2.60858,0.000423351,0.0020432,-0.000916423,0.00245631,1.02426e-05,-1.14729,0.00163413,0.0421084,1889,960,35.7301,-2.60861
672,64,36.007,2.29425,-0.000178114,0.00144547,-0.000146396,0.00145856,-0.000191209,-1.48159,0.00104197,0.0444566,1896,960,36.0069,-2.29426
679,64,35.7085,2.21381,-0.000526717,0.000987103,0.000457917,0.00111484,-0.000654454,1.29876,0.00103297,0.0410629,1903,960,35.7084,-2.21381
686,64,35.6091,2.30103,-0.000638154,0.000568244,0.000826516,0.000988264,-0.00105817,1.10062,0.00118174,0.0373222,1910,960,35.6092,-2.30105
693,64,35.7318,2.37128,-0.000743407,0.000124267,0.00114847,0.000918106,-0.00153725,0.96599,0.00143254,0.0336383,1917,960,35.7319,-2.37129
700,64,35.7189,2.45471,-0.000880343,-1.0362e-05,0.00121104,0.000841444,-0.00173215,0.957816,0.00151524,0.0317348,1924,960,35.7188,-2.4547
707,64,35.6624,2.71313,-0.000995354,0.000120832,0.000984904,0.000694775,-0.0015693,1.04317,0.00133927,0.0469505,1931,960,35.6623,-2.71316
714,64,34.8976,3.99146,0,0,0,0,0,0,0,-1,1938,960,34.8975,-3.99145
721,64,34.3187,4.06293,-0.00163352,0.000650946,0.000681274,0.000838687,-0.00182126,1.3019,0.00157026,0.0365999,1945,960,34.3187,-4.0629
728,64,34.1298,4.35876,-0.00154802,0.0011182,0.000660205,0.00127272,-0.00170254,1.34088,0.00172373,0.016439,1952,960,34.1297,-4.35875
735,64,34.129,4.60541,-0.00101689,0.00172121,0.000164269,0.00173103,-0.00102671,1.51109,0.0016094,0.0221998,1959,960,34.1291,-4.60543
742,64,34.1887,4.78406,-0.0011363,0.0027167,-0.000480538,0.00277573,-0.00119533,-1.44857,0.00235243,0.0200394,1966,960,34.1887,-4.78405
749,64,34.171,4.99164,-0.000960544,0.00376229,-0.00115953,0.00403162,-0.00122987,-1.34257,0.00317804,0.0150713,1973,960,34.171,-4.99161
756,64,34.1517,5.20282,-0.000321562,0.00496592,-0.00196012,0.0056133,-0.000968936,-1.2518,0.00410349,0.0147657,1980,960,34.1517,-5.20284
763,64,34.135,5.40369,0.000852655,0.0062932,-0.00277535,0.00745912,-0.00031326,-1.17309,0.00508039,0.0149609,1987,960,34.135,-5.40371
770,64,34.019,5.53137,0.00262807,0.00750131,-0.00358673,0.00940079,0.000728593,-1.08376,0.006039,0.0156786,1994,960,34.019,-5.53136
777,64,33.8252,5.67426,0.00482671,0.00825513,-0.00448811,0.0113453,0.00173659,-0.967821,0.00705623,0.0317495,2001,960,33.8253,-5.67425
784,64,33.5364,5.54791,0.00766557,0.00830952,-0.00548128,0.0134783,0.00249681,-0.814735,0.0082797,0.0415528,2008,960,33.5364,-5.54792
791,64,33.4053,5.5058,0.011431,0.00709906,-0.00673005,0.016335,0.00219501,-0.629715,0.0102371,0.049095,2015,960,33.4052,-5.50583
798,64,33.2603,5.49829,0,0,0,0,0,0,0,-1,2022,960,33.2603,-5.49832
805,64,33.3315,6.31775,0,0,0,0,0,0,0,-1,2029,960,33.3316,-6.31777
812,64,0,0,0,0,0,0,0,0,0,-1,2036,960,0,0
-700,57,0,0,0,0,0,0,0,0,0,-1,524,967,0,0
-693,57,0,0,0,0,0,0,0,0,0,-1,531,967,0,0
-686,57,-25.8268,-4.91101,0,0,0,0,0,0,0,-1,538,967,-25.8268,4.91099
-679,57,-28.2505,6.98157,0,0,0,0,0,0,0,-1,545,967,-28.2505,-6.98157
-672,57,-24.6556,2.60748,0,0,0,0,0,0,0,-1,552,967,-24.6556,-2.60747
-665,57,-25.7903,5.33929,0,0,0,0,0,0,0,-1,559,967,-25.7903,-5.3393
-658,57,-25.7603,3.89911,0,0,0,0,0,0,0,-1,566,967,-25.7603,-3.89912
-651,57,-25.6438,3.50867,0.0200089,-0.00886199,-0.00306797,0.0203313,-0.0091844,-0.104707,0.0174413,0.0460734,573,967,-25.6438,-3.50867
-644,57,-25.4313,3.04816,0.0139453,-0.00305114,-0.00223863,0.0142352,-0.00334105,-0.128786,0.0107779,0.0293583,580,967,-25.4313,-3.04813
-637,57,-25.3306,2.72736,0.00858989,0.00115431,-0.00150531,0.00888308,0.000861123,-0.192359,0.0056569,0.0172658,587,967,-25.3306,-2.72737
-630,57,-25.3949,2.56732,0.00456844,0.00375958,-0.00160958,0.00582362,0.0025044,-0.662313,0.00337322,0.0137506,594,967,-25.3949,-2.56734
-623,57,-25.3954,2.4422,0.00121376,0.00490393,-0.00187817,0.00569169,0.000426006,-1.17366,0.00366073,0.0128893,601,967,-25.3955,-2.44219
-616,57,-25.4011,2.29126,-0.000915639,0.00447249,-0.00226841,0.00530031,-0.00174346,-1.22088,0.00423603,0.0151076,608,967,-25.4011,-2.29126
-609,57,-25.3998,2.10254,-0.00269914,0.00408768,-0.00286949,0.00513828,-0.00374974,-1.21983,0.00515233,0.0152754,615,967,-25.3999,-2.10257
-602,57,-25.3702,1.91815,-0.0043536,0.00300242,-0.00346605,0.00437825,-0.00572943,-1.19293,0.00585302,0.011022,622,967,-25.3702,-1.91818
-595,57,-25.3676,1.76355,-0.00608324,0.00217568,-0.0035127,0.00346761,-0.00737518,-1.21836,0.00639416,0.0121587,629,967,-25.3676,-1.76357
-588,57,-25.3791,1.69208,-0.00714513,0.00174944,-0.0039069,0.0032218,-0.00861749,-1.21039,0.00706808,0.0195893,636,967,-25.3791,-1.69209
-581,57,-25.6241,1.17682,-0.00740832,0.0012912,-0.00419878,0.00298711,-0.00910424,-1.18693,0.00727264,0.0303485,643,967,-25.6241,-1.17684
-574,57,-25.9244,0.683411,-0.00728808,0.00114009,-0.00425055,0.00291146,-0.00905945,-1.17594,0.00720884,0.0297265,650,967,-25.9244,-0.683408
-567,57,-25.9121,0.645203,-0.00711157,0.00117173,-0.00402429,0.00280487,-0.00874471,-1.18528,0.00695589,0.0309261,657,967,-25.9121,-0.645229
-560,57,-25.829,0.561707,-0.00642037,0.00117212,-0.00355679,0.00257801,-0.00782626,-1.19437,0.00625647,0.0385333,664,967,-25.829,-0.561698
-553,57,-25.7349,0.444824,-0.00495201,0.00114426,-0.0028439,0.00226493,-0.00607267,-1.19542,0.00497824,0.0402182,671,967,-25.7349,-0.444827
-546,57,-26.1752,1.07227,-0.00252891,0.00101641,-0.00191499,0.00185325,-0.00336575,-1.15881,0.00305508,0.0446167,678,967,-26.1752,-1.07225
-539,57,-26.3085,1.1106,0,0,0,0,0,0,0,-1,685,967,-26.3085,-1.11058
-532,57,-26.1105,0.35199,0.00580949,0.000324023,-0.000145888,0.00581337,0.000320145,-0.0265703,0.00377339,0.0386963,692,967,-26.1106,-0.35199
-525,57,-25.8582,0.489563,0.0103515,0.000148437,-0.000197048,0.0103553,0.000144633,-0.0193029,0.00685585,0.0393812,699,967,-25.8582,-0.489582
-518,57,0,0,0,0,0,0,0,0,0,-1,706,967,0,0
-511,57,0,0,0,0,0,0,0,0,0,-1,713,967,0,0
-504,57,0,0,0,0,0,0,0,0,0,-1,720,967,0,0
-497,57,0,0,0,0,0,0,0,0,0,-1,727,967,0,0
-490,57,0,0,0,0,0,0,0,0,0,-1,734,967,0,0
-483,57,0,0,0,0,0,0,0,0,0,-1,741,967,0,0
-476,57,0,0,0,0,0,0,0,0,0,-1,748,967,0,0
-469,57,0,0,0,0,0,0,0,0,0,-1,755,967,0,0
-462,57,0,0,0,0,0,0,0,0,0,-1,762,967,0,0
-455,57,0,0,0,0,0,0,0,0,0,-1,769,967,0,0
-448,57,0,0,0,0,0,0,0,0,0,-1,776,967,0,0
-441,57,0,0,0,0,0,0,0,0,0,-1,783,967,0,0
-434,57,0,0,0,0,0,0,0,0,0,-1,790,967,0,0
-427,57,0,0,0,0,0,0,0,0,0,-1,797,967,0,0
-420,57,0,0,0,0,0,0,0,0,0,-1,804,967,0,0
-413,57,0,0,0,0,0,0,0,0,0,-1,811,967,0,0
-406,57,0,0,0,0,0,0,0,0,0,-1,818,967,0,0
-399,57,0,0,0,0,0,0,0,0,0,-1,825,967,0,0
-392,57,0,0,0,0,0,0,0,0,0,-1,832,967,0,0
-385,57,0,0,0,0,0,0,0,0,0,-1,839,967,0,0
-378,57,0,0,0,0,0,0,0,0,0,-1,846,967,0,0
-371,57,0,0,0,0,0,0,0,0,0,-1,853,967,0,0
-364,57,0,0,0,0,0,0,0,0,0,-1,860,967,0,0
-357,57,0,0,0,0,0,0,0,0,0,-1,867,967,0,0
-350,57,0,0,0,0,0,0,0,0,0,-1,874,967,0,0
-343,57,0,0,0,0,0,0,0,0,0,-1,881,967,0,0
-336,57,0,0,0,0,0,0,0,0,0,-1,888,967,0,0
-329,57,0,0,0,0,0,0,0,0,0,-1,895,967,0,0
-322,57,0,0,0,0,0,0,0,0,0,-1,902,967,0,0
-315,57,0,0,0,0,0,0,0,0,0,-1,909,967,0,0
-308,57,0,0,0,0,0,0,0,0,0,-1,916,967,0,0
-301,57,0,0,0,0,0,0,0,0,0,-1,923,967,0,0
-294,57,0,0,0,0,0,0,0,0,0,-1,930,967,0,0
-287,57,0,0,0,0,0,0,0,0,0,-1,937,967,0,0
-280,57,0,0,0,0,0,0,0,0,0,-1,944,967,0,0
-273,57,0,0,0,0,0,0,0,0,0,-1,951,967,0,0
-266,57,0,0,0,0,0,0,0,0,0,-1,958,967,0,0
-259,57,0,0,0,0,0,0,0,0,0,-1,965,967,0,0
-252,57,0,0,0,0,0,0,0,0,0,-1,972,967,0,0
-245,57,0,0,0,0,0,0,0,0,0,-1,979,967,0,0
-238,57,0,0,0,0,0,0,0,0,0,-1,986,967,0,0
-231,57,0,0,0,0,0,0,0,0,0,-1,993,967,0,0
-224,57,0,0,0,0,0,0,0,0,0,-1,1000,967,0,0
-217,57,0,0,0,0,0,0,0,0,0,-1,1007,967,0,0
-210,57,0,0,0,0,0,0,0,0,0,-1,1014,967,0,0
-203,57,0,0,0,0,0,0,0,0,0,-1,1021,967,0,0
-196,57,0,0,0,0,0,0,0,0,0,-1,1028,967,0,0
-189,57,0,0,0,0,0,0,0,0,0,-1,1035,967,0,0
-182,57,0,0,0,0,0,0,0,0,0,-1,1042,967,0,0
-175,57,0,0,0,0,0,0,0,0,0,-1,1049,967,0,0
-168,57,0,0,0,0,0,0,0,0,0,-1,1056,967,0,0
-161,57,0,0,0,0,0,0,0,0,0,-1,1063,967,0,0
-154,57,0,0,0,0,0,0,0,0,0,-1,1070,967,0,0
-147,57,0,0,0,0,0,0,0,0,0,-1,1077,967,0,0
-140,57,0,0,0,0,0,0,0,0,0,-1,1084,967,0,0
-133,57,0,0,0,0,0,0,0,0,0,-1,1091,967,0,0
-126,57,0,0,0,0,0,0,0,0,0,-1,1098,967,0,0
-119,57,0,0,0,0,0,0,0,0,0,-1,1105,967,0,0
-112,57,0,0,0,0,0,0,0,0,0,-1,1112,967,0,0
-105,57,0,0,0,0,0,0,0,0,0,-1,1119,967,0,0
-98,57,0,0,0,0,0,0,0,0,0,-1,1126,967,0,0
-91,57,0,0,0,0,0,0,0,0,0,-1,1133,967,0,0
-84,57,0,0,0,0,0,0,0,0,0,-1,1140,967,0,0
-77,57,0,0,0,0,0,0,0,0,0,-1,1147,967,0,0
-70,57,0,0,0,0,0,0,0,0,0,-1,1154,967,0,0
-63,57,0,0,0,0,0,0,0,0,0,-1,1161,967,0,0
-56,57,0,0,0,0,0,0,0,0,0,-1,1168,967,0,0
-49,57,0,0,0,0,0,0,0,0,0,-1,1175,967,0,0
-42,57,0,0,0,0,0,0,0,0,0,-1,1182,967,0,0
-35,57,0,0,0,0,0,0,0,0,0,-1,1189,967,0,0
-28,57,0,0,0,0,0,0,0,0,0,-1,1196,967,0,0
-21,57,0,0,0,0,0,0,0,0,0,-1,1203,967,0,0
-14,57,0,0,0,0,0,0,0,0,0,-1,1210,967,0,0
-7,57,0,0,0,0,0,0,0,0,0,-1,1217,967,0,0
0,57,0,0,0,0,0,0,0,0,0,-1,1224,967,0,0
7,57,0,0,0,0,0,0,0,0,0,-1,1231,967,0,0
14,57,0,0,0,0,0,0,0,0,0,-1,1238,967,0,0
21,57,0,0,0,0,0,0,0,0,0,-1,1245,967,0,0
28,57,0,0,0,0,0,0,0,0,0,-1,1252,967,0,0
35,57,0,0,0,0,0,0,0,0,0,-1,1259,967,0,0
42,57,0,0,0,0,0,0,0,0,0,-1,1266,967,0,0
49,57,0,0,0,0,0,0,0,0,0,-1,1273,967,0,0
56,57,0,0,0,0,0,0,0,0,0,-1,1280,967,0,0
63,57,0,0,0,0,0,0,0,0,0,-1,1287,967,0,0
70,57,0,0,0,0,0,0,0,0,0,-1,1294,967,0,0
77,57,0,0,0,0,0,0,0,0,0,-1,1301,967,0,0
84,57,0,0,0,0,0,0,0,0,0,-1,1308,967,0,0
91,57,0,0,0,0,0,0,0,0,0,-1,1315,967,0,0
98,57,0,0,0,0,0,0,0,0,0,-1,1322,967,0,0
105,57,0,0,0,0,0,0,0,0,0,-1,1329,967,0,0
112,57,0,0,0,0,0,0,0,0,0,-1,1336,967,0,0
119,57,0,0,0,0,0,0,0,0,0,-1,1343,967,0,0
126,57,0,0,0,0,0,0,0,0,0,-1,1350,967,0,0
133,57,0,0,0,0,0,0,0,0,0,-1,1357,967,0,0
140,57,0,0,0,0,0,0,0,0,0,-1,1364,967,0,0
147,57,0,0,0,0,0,0,0,0,0,-1,1371,967,0,0
154,57,0,0,0,0,0,0,0,0,0,-1,1378,967,0,0
161,57,0,0,0,0,0,0,0,0,0,-1,1385,967,0,0
168,57,0,0,0,0,0,0,0,0,0,-1,1392,967,0,0
175,57,0,0,0,0,0,0,0,0,0,-1,1399,967,0,0
182,57,0,0,0,0,0,0,0,0,0,-1,1406,967,0,0
189,57,0,0,0,0,0,0,0,0,0,-1,1413,967,0,0
196,57,0,0,0,0,0,0,0,0,0,-1,1420,967,0,0
203,57,0,0,0,0,0,0,0,0,0,-1,1427,967,0,0
210,57,0,0,0,0,0,0,0,0,0,-1,1434,967,0,0
217,57,0,0,0,0,0,0,0,0,0,-1,1441,967,0,0
224,57,0,0,0,0,0,0,0,0,0,-1,1448,967,0,0
231,57,0,0,0,0,0,0,0,0,0,-1,1455,967,0,0
238,57,0,0,0,0,0,0,0,0,0,-1,1462,967,0,0
245,57,0,0,0,0,0,0,0,0,0,-1,1469,967,0,0
252,57,0,0,0,0,0,0,0,0,0,-1,1476,967,0,0
259,57,0,0,0,0,0,0,0,0,0,-1,1483,967,0,0
266,57,0,0,0,0,0,0,0,0,0,-1,1490,967,0,0
273,57,0,0,0,0,0,0,0,0,0,-1,1497,967,0,0
280,57,0,0,0,0,0,0,0,0,0,-1,1504,967,0,0
287,57,0,0,0,0,0,0,0,0,0,-1,1511,967,0,0
294,57,0,0,0,0,0,0,0,0,0,-1,1518,967,0,0
301,57,0,0,0,0,0,0,0,0,0,-1,1525,967,0,0
308,57,0,0,0,0,0,0,0,0,0,-1,1532,967,0,0
315,57,0,0,0,0,0,0,0,0,0,-1,1539,967,0,0
322,57,0,0,0,0,0,0,0,0,0,-1,1546,967,0,0
329,57,0,0,0,0,0,0,0,0,0,-1,1553,967,0,0
336,57,0,0,0,0,0,0,0,0,0,-1,1560,967,0,0
343,57,0,0,0,0,0,0,0,0,0,-1,1567,967,0,0
350,57,0,0,0,0,0,0,0,0,0,-1,1574,967,0,0
357,57,0,0,0,0,0,0,0,0,0,-1,1581,967,0,0
364,57,0,0,0,0,0,0,0,0,0,-1,1588,967,0,0
371,57,0,0,0,0,0,0,0,0,0,-1,1595,967,0,0
378,57,0,0,0,0,0,0,0,0,0,-1,1602,967,0,0
385,57,0,0,0,0,0,0,0,0,0,-1,1609,967,0,0
392,57,0,0,0,0,0,0,0,0,0,-1,1616,967,0,0
399,57,0,0,0,0,0,0,0,0,0,-1,1623,967,0,0
406,57,0,0,0,0,0,0,0,0,0,-1,1630,967,0,0
413,57,0,0,0,0,0,0,0,0,0,-1,1637,967,0,0
420,57,0,0,0,0,0,0,0,0,0,-1,1644,967,0,0
427,57,0,0,0,0,0,0,0,0,0,-1,1651,967,0,0
434,57,0,0,0,0,0,0,0,0,0,-1,1658,967,0,0
441,57,0,0,0,0,0,0,0,0,0,-1,1665,967,0,0
448,57,0,0,0,0,0,0,0,0,0,-1,1672,967,0,0
455,57,0,0,0,0,0,0,0,0,0,-1,1679,967,0,0
462,57,0,0,0,0,0,0,0,0,0,-1,1686,967,0,0
469,57,0,0,0,0,0,0,0,0,0,-1,1693,967,0,0
476,57,0,0,0,0,0,0,0,0,0,-1,1700,967,0,0
483,57,0,0,0,0,0,0,0,0,0,-1,1707,967,0,0
490,57,0,0,0,0,0,0,0,0,0,-1,1714,967,0,0
497,57,0,0,0,0,0,0,0,0,0,-1,1721,967,0,0
504,57,0,0,0,0,0,0,0,0,0,-1,1728,967,0,0
511,57,0,0,0,0,0,0,0,0,0,-1,1735,967,0,0
518,57,0,0,0,0,0,0,0,0,0,-1,1742,967,0,0
525,57,0,0,0,0,0,0,0,0,0,-1,1749,967,0,0
532,57,0,0,0,0,0,0,0,0,0,-1,1756,967,0,0
539,57,0,0,0,0,0,0,0,0,0,-1,1763,967,0,0
546,57,0,0,0,0,0,0,0,0,0,-1,1770,967,0,0
553,57,0,0,0,0,0,0,0,0,0,-1,1777,967,0,0
560,57,0,0,0,0,0,0,0,0,0,-1,1784,967,0,0
567,57,0,0,0,0,0,0,0,0,0,-1,1791,967,0,0
574,57,0,0,0,0,0,0,0,0,0,-1,1798,967,0,0
581,57,0,0,0,0,0,0,0,0,0,-1,1805,967,0,0
588,57,0,0,0,0,0,0,0,0,0,-1,1812,967,0,0
595,57,0,0,0,0,0,0,0,0,0,-1,1819,967,0,0
602,57,0,0,0,0,0,0,0,0,0,-1,1826,967,0,0
609,57,0,0,0,0,0,0,0,0,0,-1,1833,967,0,0
616,57,0,0,0,0,0,0,0,0,0,-1,1840,967,0,0
623,57,0,0,0,0,0,0,0,0,0,-1,1847,967,0,0
630,57,0,0,0,0,0,0,0,0,0,-1,1854,967,0,0
637,57,0,0,0,0,0,0,0,0,0,-1,1861,967,0,0
644,57,35.6097,2.60651,0.00342464,0.00500702,-0.00379992,0.00809724,0.000334416,-0.888037,0.00529021,0.0403174,1868,967,35.6097,-2.60652
651,57,35.6808,2.53052,0.00192593,0.00339267,-0.00255092,0.00531355,5.05266e-06,-0.92537,0.00354069,0.0338404,1875,967,35.6808,-2.53055
658,57,35.755,2.45087,0.000888801,0.00222584,-0.00158505,0.00327758,-0.000162941,-0.984963,0.00224134,0.0328405,1882,967,35.755,-2.45089
665,57,36.0529,2.15503,0,0,0,0,0,0,0,-1,1889,967,36.0528,-2.15503
672,57,35.9406,2.14282,-0.00023491,0.000928648,3.65237e-05,0.000929793,-0.000236055,1.53945,0.000711718,0.0461143,1896,967,35.9405,-2.1428
679,57,35.6183,2.17499,-0.000526854,0.000527585,0.000674534,0.000856494,-0.000855763,1.11711,0.000988572,0.0441076,1903,967,35.6183,-2.17498
686,57,35.5928,2.31976,-0.000573528,0.000168911,0.00107852,0.000938311,-0.00134293,0.951144,0.00132396,0.0388734,1910,967,35.5927,-2.31978
693,57,35.6726,2.40704,-0.000639143,-0.000213138,0.00141661,0.0010064,-0.00185868,0.860019,0.00167837,0.0321038,1917,967,35.6726,-2.40702
700,57,35.6876,2.49597,-0.000756825,-0.000283966,0.00149101,0.000989245,-0.00203004,0.864029,0.00177737,0.0254965,1924,967,35.6876,-2.49596
707,57,35.6935,2.65326,-0.000888906,-9.9996e-05,0.00130434,0.000868225,-0.00185713,0.932235,0.00160764,0.048291,1931,967,35.6935,-2.65326
714,57,35.6819,2.98126,0,0,0,0,0,0,0,-1,1938,967,35.6819,-2.98125
721,57,34.4108,4.18158,0,0,0,0,0,0,0,-1,1945,967,34.4107,-4.1816
728,57,34.3502,4.41638,-0.0015773,0.00113043,0.000876449,0.00138936,-0.00183623,1.28353,0.00186824,0.0201621,1952,967,34.3502,-4.41635
735,57,34.4012,4.62988,-0.00112687,0.00179437,0.000304788,0.00182583,-0.00115833,1.46794,0.00173722,0.0242818,1959,967,34.4012,-4.62986
742,57,34.4397,4.75836,-0.00126281,0.00284636,-0.000413332,0.00288752,-0.00130397,-1.47153,0.00247686,0.0197656,1966,967,34.4397,-4.75837
749,57,34.3931,4.96014,-0.00115711,0.00389342,-0.00119656,0.00416257,-0.00142625,-1.34955,0.00335314,0.0155324,1973,967,34.393,-4.96017
756,57,34.3534,5.14935,-0.000582594,0.00506683,-0.00214067,0.00578634,-0.0013021,-1.24655,0.00435694,0.0113479,1980,967,34.3534,-5.14934
763,57,34.3242,5.34131,0.000560649,0.00637624,-0.00318326,0.00777987,-0.000842989,-1.1555,0.0054892,0.0104024,1987,967,34.3243,-5.34129
770,57,34.2686,5.48212,0.00244747,0.00760663,-0.00429535,0.0100375,1.66334e-05,-1.05581,0.0066861,0.0106145,1994,967,34.2685,-5.48212
777,57,34.2,5.61731,0.00490358,0.0084002,-0.00552537,0.0124473,0.000856523,-0.938622,0.00802791,0.0262216,2001,967,34.2,-5.61731
784,57,34.1563,5.49829,0.00814475,0.00854532,-0.00690996,0.0152579,0.00143217,-0.799887,0.00972974,0.044686,2008,967,34.1563,-5.49826
791,57,34.2217,5.4325,0,0,0,0,0,0,0,-1,2015,967,34.2216,-5.43248
798,57,35.3804,5.72687,0,0,0,0,0,0,0,-1,2022,967,35.3804,-5.72685
805,57,35.4773,5.97009,0,0,0,0,0,0,0,-1,2029,967,35.4774,-5.97011
812,57,0,0,0,0,0,0,0,0,0,-1,2036,967,0,0
-700,50,0,0,0,0,0,0,0,0,0,-1,524,974,0,0
-693,50,-25.4626,-3.2821,0,0,0,0,0,0,0,-1,531,974,-25.4626,3.28212
-686,50,-25.2706,-4.13525,0,0,0,0,0,0,0,-1,538,974,-25.2706,4.13524
-679,50,-24.2188,-4.98383,0,0,0,0,0,0,0,-1,545,974,-24.2188,4.9838
-672,50,-25.0299,2.10059,0,0,0,0,0,0,0,-1,552,974,-25.0299,-2.10056
-665,50,-24.933,2.3028,0,0,0,0,0,0,0,-1,559,974,-24.933,-2.30279
-658,50,-25.7421,3.44617,0,0,0,0,0,0,0,-1,566,974,-25.7421,-3.44616
-651,50,-25.6365,3.13647,0.0161771,-0.00443686,0.0012828,0.0162566,-0.00451639,0.0619114,0.0126156,0.0441221,573,974,-25.6365,-3.1365
-644,50,-25.446,2.78369,0.0109617,0.000649956,0.00115524,0.0110895,0.000522117,0.110212,0.00722525,0.0282633,580,974,-25.446,-2.7837
-637,50,-25.5142,2.64655,0.00622879,0.00431699,0.000996411,0.00665368,0.0038921,0.403073,0.00385995,0.0158495,587,974,-25.5141,-2.64654
-630,50,-25.5618,2.526,0.00289723,0.00638242,5.08068e-05,0.00638316,0.00289649,1.55622,0.00369057,0.0111776,594,974,-25.5618,-2.52602
-623,50,-25.56,2.41705,0.000361097,0.00686084,-0.001112,0.00704582,0.000176117,-1.40596,0.00463962,0.0116441,601,974,-25.56,-2.41704
-616,50,-25.5685,2.28156,-0.00102504,0.00571574,-0.00217417,0.00635616,-0.00166545,-1.28434,0.0048881,0.0115587,608,974,-25.5686,-2.28153
-609,50,-25.572,2.09192,-0.0022056,0.00478208,-0.00329134,0.00608822,-0.00351174,-1.19301,0.00560868,0.0104051,615,974,-25.5719,-2.09192
-602,50,-25.572,1.91779,-0.00347381,0.00329923,-0.00417886,0.0052915,-0.00546608,-1.12592,0.00621116,0.0103278,622,974,-25.572,-1.91776
-595,50,-25.5552,1.78314,-0.00504252,0.00243902,-0.00434258,0.00442986,-0.00703336,-1.14094,0.00667495,0.0108604,629,974,-25.5551,-1.78315
-588,50,-25.5992,1.60223,-0.00599872,0.00190953,-0.00477912,0.00415824,-0.00824743,-1.131,0.00729096,0.0145445,636,974,-25.5992,-1.60226
-581,50,-25.8196,0.994568,-0.00627556,0.00135531,-0.00505484,0.00387304,-0.00879329,-1.10868,0.00749457,0.0212778,643,974,-25.8196,-0.994565
-574,50,-25.9443,0.59436,-0.00625104,0.00106453,-0.00504337,0.00363691,-0.00882342,-1.09914,0.0073988,0.0261416,650,974,-25.9444,-0.594376
-567,50,-25.8566,0.529846,-0.00619855,0.000902523,-0.00467942,0.00322594,-0.00852196,-1.10994,0.00700862,0.034706,657,974,-25.8566,-0.529829
-560,50,-25.6924,0.453796,-0.00569119,0.00065829,-0.0040192,0.00260537,-0.00763826,-1.11967,0.0061475,0.0393925,664,974,-25.6924,-0.453782
-553,50,-25.9045,0.868225,0,0,0,0,0,0,0,-1,671,974,-25.9045,-0.868201
-546,50,-25.9697,0.884216,-0.00238582,-0.000159656,-0.0019678,0.000988058,-0.00353353,-1.04279,0.00274497,0.0419128,678,974,-25.9697,-0.884219
-539,50,-26.1019,0.83905,0,0,0,0,0,0,0,-1,685,974,-26.1018,-0.839073
-532,50,-25.9772,0.528625,0.00509269,-0.00156916,-0.000223538,0.00510018,-0.00157665,-0.0335047,0.00402983,0.0419332,692,974,-25.9773,-0.528642
-525,50,-25.7621,0.483032,0.00907704,-0.00203208,-0.000668779,0.00911716,-0.0020722,-0.0599125,0.00687376,0.0389445,699,974,-25.7621,-0.483048
-518,50,0,0,0,0,0,0,0,0,0,-1,706,974,0,0
-511,50,0,0,0,0,0,0,0,0,0,-1,713,974,0,0
-504,50,0,0,0,0,0,0,0,0,0,-1,720,974,0,0
-497,50,0,0,0,0,0,0,0,0,0,-1,727,974,0,0
-490,50,0,0,0,0,0,0,0,0,0,-1,734,974,0,0
-483,50,0,0,0,0,0,0,0,0,0,-1,741,974,0,0
-476,50,0,0,0,0,0,0,0,0,0,-1,748,974,0,0
-469,50,0,0,0,0,0,0,0,0,0,-1,755,974,0,0
-462,50,0,0,0,0,0,0,0,0,0,-1,762,974,0,0
-455,50,0,0,0,0,0,0,0,0,0,-1,769,974,0,0
-448,50,0,0,0,0,0,0,0,0,0,-1,776,974,0,0
-441,50,0,0,0,0,0,0,0,0,0,-1,783,974,0,0
-434,50,0,0,0,0,0,0,0,0,0,-1,790,974,0,0
-427,50,0,0,0,0,0,0,0,0,0,-1,797,974,0,0
-420,50,0,0,0,0,0,0,0,0,0,-1,804,974,0,0
-413,50,0,0,0,0,0,0,0,0,0,-1,811,974,0,0
-406,50,0,0,0,0,0,0,0,0,0,-1,818,974,0,0
-399,50,0,0,0,0,0,0,0,0,0,-1,825,974,0,0
-392,50,0,0,0,0,0,0,0,0,0,-1,832,974,0,0
-385,50,0,0,0,0,0,0,0,0,0,-1,839,974,0,0
-378,50,0,0,0,0,0,0,0,0,0,-1,846,974,0,0
-371,50,0,0,0,0,0,0,0,0,0,-1,853,974,0,0
-364,50,0,0,0,0,0,0,0,0,0,-1,860,974,0,0
-357,50,0,0,0,0,0,0,0,0,0,-1,867,974,0,0
-350,50,0,0,0,0,0,0,0,0,0,-1,874,974,0,0
-343,50,0,0,0,0,0,0,0,0,0,-1,881,974,0,0
-336,50,0,0,0,0,0,0,0,0,0,-1,888,974,0,0
-329,50,0,0,0,0,0,0,0,0,0,-1,895,974,0,0
-322,50,0,0,0,0,0,0,0,0,0,-1,902,974,0,0
-315,50,0,0,0,0,0,0,0,0,0,-1,909,974,0,0
-308,50,0,0,0,0,0,0,0,0,0,-1,916,974,0,0
-301,50,0,0,0,0,0,0,0,0,0,-1,923,974,0,0
-294,50,0,0,0,0,0,0,0,0,0,-1,930,974,0,0
-287,50,0,0,0,0,0,0,0,0,0,-1,937,974,0,0
-280,50,0,0,0,0,0,0,0,0,0,-1,944,974,0,0
-273,50,0,0,0,0,0,0,0,0,0,-1,951,974,0,0
-266,50,0,0,0,0,0,0,0,0,0,-1,958,974,0,0
-259,50,0,0,0,0,0,0,0,0,0,-1,965,974,0,0
-252,50,0,0,0,0,0,0,0,0,0,-1,972,974,0,0
-245,50,0,0,0,0,0,0,0,0,0,-1,979,974,0,0
-238,50,0,0,0,0,0,0,0,0,0,-1,986,974,0,0
-231,50,0,0,0,0,0,0,0,0,0,-1,993,974,0,0
-224,50,0,0,0,0,0,0,0,0,0,-1,1000,974,0,0
-217,50,0,0,0,0,0,0,0,0,0,-1,1007,974,0,0
-210,50,0,0,0,0,0,0,0,0,0,-1,1014,974,0,0
-203,50,0,0,0,0,0,0,0,0,0,-1,1021,974,0,0
-196,50,0,0,0,0,0,0,0,0,0,-1,1028,974,0,0
-189,50,0,0,0,0,0,0,0,0,0,-1,1035,974,0,0
-182,50,0,0,0,0,0,0,0,0,0,-1,1042,974,0,0
-175,50,0,0,0,0,0,0,0,0,0,-1,1049,974,0,0
-168,50,0,0,0,0,0,0,0,0,0,-1,1056,974,0,0
-161,50,0,0,0,0,0,0,0,0,0,-1,1063,974,0,0
-154,50,0,0,0,0,0,0,0,0,0,-1,1070,974,0,0
-147,50,0,0,0,0,0,0,0,0,0,-1,1077,974,0,0
-140,50,0,0,0,0,0,0,0,0,0,-1,1084,974,0,0
-133,50,0,0,0,0,0,0,0,0,0,-1,1091,974,0,0
-126,50,0,0,0,0,0,0,0,0,0,-1,1098,974,0,0
-119,50,0,0,0,0,0,0,0,0,0,-1,1105,974,0,0
-112,50,0,0,0,0,0,0,0,0,0,-1,1112,974,0,0
-105,50,0,0,0,0,0,0,0,0,0,-1,1119,974,0,0
-98,50,0,0,0,0,0,0,0,0,0,-1,1126,974,0,0
-91,50,0,0,0,0,0,0,0,0,0,-1,1133,974,0,0
-84,50,0,0,0,0,0,0,0,0,0,-1,1140,974,0,0
-77,50,0,0,0,0,0,0,0,0,0,-1,1147,974,0,0
-70,50,0,0,0,0,0,0,0,0,0,-1,1154,974,0,0
-63,50,0,0,0,0,0,0,0,0,0,-1,1161,974,0,0
-56,50,0,0,0,0,0,0,0,0,0,-1,1168,974,0,0
-49,50,0,0,0,0,0,0,0,0,0,-1,1175,974,0,0
-42,50,0,0,0,0,0,0,0,0,0,-1,1182,974,0,0
-35,50,0,0,0,0,0,0,0,0,0,-1,1189,974,0,0
-28,50,0,0,0,0,0,0,0,0,0,-1,1196,974,0,0
-21,50,0,0,0,0,0,0,0,0,0,-1,1203,974,0,0
-14,50,0,0,0,0,0,0,0,0,0,-1,1210,974,0,0
-7,50,0,0,0,0,0,0,0,0,0,-1,1217,974,0,0
0,50,0,0,0,0,0,0,0,0,0,-1,1224,974,0,0
7,50,0,0,0,0,0,0,0,0,0,-1,1231,974,0,0
14,50,0,0,0,0,0,0,0,0,0,-1,1238,974,0,0
21,50,0,0,0,0,0,0,0,0,0,-1,1245,974,0,0
28,50,0,0,0,0,0,0,0,0,0,-1,1252,974,0,0
35,50,0,0,0,0,0,0,0,0,0,-1,1259,974,0,0
42,50,0,0,0,0,0,0,0,0,0,-1,1266,974,0,0
49,50,0,0,0,0,0,0,0,0,0,-1,1273,974,0,0
56,50,0,0,0,0,0,0,0,0,0,-1,1280,974,0,0
63,50,0,0,0,0,0,0,0,0,0,-1,1287,974,0,0
70,50,0,0,0,0,0,0,0,0,0,-1,1294,974,0,0
77,50,0,0,0,0,0,0,0,0,0,-1,1301,974,0,0
84,50,0,0,0,0,0,0,0,0,0,-1,1308,974,0,0
91,50,0,0,0,0,0,0,0,0,0,-1,1315,974,0,0
98,50,0,0,0,0,0,0,0,0,0,-1,1322,974,0,0
105,50,0,0,0,0,0,0,0,0,0,-1,1329,974,0,0
112,50,0,0,0,0,0,0,0,0,0,-1,1336,974,0,0
119,50,0,0,0,0,0,0,0,0,0,-1,1343,974,0,0
126,50,0,0,0,0,0,0,0,0,0,-1,1350,974,0,0
133,50,0,0,0,0,0,0,0,0,0,-1,1357,974,0,0
140,50,0,0,0,0,0,0,0,0,0,-1,1364,974,0,0
147,50,0,0,0,0,0,0,0,0,0,-1,1371,974,0,0
154,50,0,0,0,0,0,0,0,0,0,-1,1378,974,0,0
161,50,0,0,0,0,0,0,0,0,0,-1,1385,974,0,0
168,50,0,0,0,0,0,0,0,0,0,-1,1392,974,0,0
175,50,0,0,0,0,0,0,0,0,0,-1,1399,974,0,0
182,50,0,0,0,0,0,0,0,0,0,-1,1406,974,0,0
189,50,0,0,0,0,0,0,0,0,0,-1,1413,974,0,0
196,50,0,0,0,0,0,0,0,0,0,-1,1420,974,0,0
203,50,0,0,0,0,0,0,0,0,0,-1,1427,974,0,0
210,50,0,0,0,0,0,0,0,0,0,-1,1434,974,0,0
217,50,0,0,0,0,0,0,0,0,0,-1,1441,974,0,0
224,50,0,0,0,0,0,0,0,0,0,-1,1448,974,0,0
231,50,0,0,0,0,0,0,0,0,0,-1,1455,974,0,0
238,50,0,0,0,0,0,0,0,0,0,-1,1462,974,0,0
245,50,0,0,0,0,0,0,0,0,0,-1,1469,974,0,0
252,50,0,0,0,0,0,0,0,0,0,-1,1476,974,0,0
259,50,0,0,0,0,0,0,0,0,0,-1,1483,974,0,0
266,50,0,0,0,0,0,0,0,0,0,-1,1490,974,0,0
273,50,0,0,0,0,0,0,0,0,0,-1,1497,974,0,0
280,50,0,0,0,0,0,0,0,0,0,-1,1504,974,0,0
287,50,0,0,0,0,0,0,0,0,0,-1,1511,974,0,0
294,50,0,0,0,0,0,0,0,0,0,-1,1518,974,0,0
301,50,0,0,0,0,0,0,0,0,0,-1,1525,974,0,0
308,50,0,0,0,0,0,0,0,0,0,-1,1532,974,0,0
315,50,0,0,0,0,0,0,0,0,0,-1,1539,974,0,0
322,50,0,0,0,0,0,0,0,0,0,-1,1546,974,0,0
329,50,0,0,0,0,0,0,0,0,0,-1,1553,974,0,0
336,50,0,0,0,0,0,0,0,0,0,-1,1560,974,0,0
343,50,0,0,0,0,0,0,0,0,0,-1,1567,974,0,0
350,50,0,0,0,0,0,0,0,0,0,-1,1574,974,0,0
357,50,0,0,0,0,0,0,0,0,0,-1,1581,974,0,0
364,50,0,0,0,0,0,0,0,0,0,-1,1588,974,0,0
371,50,0,0,0,0,0,0,0,0,0,-1,1595,974,0,0
378,50,0,0,0,0,0,0,0,0,0,-1,1602,974,0,0
385,50,0,0,0,0,0,0,0,0,0,-1,1609,974,0,0
392,50,0,0,0,0,0,0,0,0,0,-1,1616,974,0,0
399,50,0,0,0,0,0,0,0,0,0,-1,1623,974,0,0
406,50,0,0,0,0,0,0,0,0,0,-1,1630,974,0,0
413,50,0,0,0,0,0,0,0,0,0,-1,1637,974,0,0
420,50,0,0,0,0,0,0,0,0,0,-1,1644,974,0,0
427,50,0,0,0,0,0,0,0,0,0,-1,1651,974,0,0
434,50,0,0,0,0,0,0,0,0,0,-1,1658,974,0,0
441,50,0,0,0,0,0,0,0,0,0,-1,1665,974,0,0
448,50,0,0,0,0,0,0,0,0,0,-1,1672,974,0,0
455,50,0,0,0,0,0,0,0,0,0,-1,1679,974,0,0
462,50,0,0,0,0,0,0,0,0,0,-1,1686,974,0,0
469,50,0,0,0,0,0,0,0,0,0,-1,1693,974,0,0
476,50,0,0,0,0,0,0,0,0,0,-1,1700,974,0,0
483,50,0,0,0,0,0,0,0,0,0,-1,1707,974,0,0
490,50,0,0,0,0,0,0,0,0,0,-1,1714,974,0,0
497,50,0,0,0,0,0,0,0,0,0,-1,1721,974,0,0
504,50,0,0,0,0,0,0,0,0,0,-1,1728,974,0,0
511,50,0,0,0,0,0,0,0,0,0,-1,1735,974,0,0
518,50,0,0,0,0,0,0,0,0,0,-1,1742,974,0,0
525,50,0,0,0,0,0,0,0,0,0,-1,1749,974,0,0
532,50,0,0,0,0,0,0,0,0,0,-1,1756,974,0,0
539,50,0,0,0,0,0,0,0,0,0,-1,1763,974,0,0
546,50,0,0,0,0,0,0,0,0,0,-1,1770,974,0,0
553,50,0,0,0,0,0,0,0,0,0,-1,1777,974,0,0
560,50,0,0,0,0,0,0,0,0,0,-1,1784,974,0,0
567,50,0,0,0,0,0,0,0,0,0,-1,1791,974,0,0
574,50,0,0,0,0,0,0,0,0,0,-1,1798,974,0,0
581,50,0,0,0,0,0,0,0,0,0,-1,1805,974,0,0
588,50,0,0,0,0,0,0,0,0,0,-1,1812,974,0,0
595,50,0,0,0,0,0,0,0,0,0,-1,1819,974,0,0
602,50,0,0,0,0,0,0,0,0,0,-1,1826,974,0,0
609,50,0,0,0,0,0,0,0,0,0,-1,1833,974,0,0
616,50,0,0,0,0,0,0,0,0,0,-1,1840,974,0,0
623,50,0,0,0,0,0,0,0,0,0,-1,1847,974,0,0
630,50,0,0,0,0,0,0,0,0,0,-1,1854,974,0,0
637,50,0,0,0,0,0,0,0,0,0,-1,1861,974,0,0
644,50,35.6219,2.63495,0.00257817,0.00444004,-0.00349259,0.00712364,-0.000105426,-0.915643,0.00478462,0.0373646,1868,974,35.6219,-2.63493
651,50,35.6244,2.51978,0.00132757,0.00289619,-0.00237349,0.0046116,-0.000387847,-0.944973,0.0032115,0.0316491,1875,974,35.6244,-2.5198
658,50,35.8783,2.37537,0,0,0,0,0,0,0,-1,1882,974,35.8783,-2.37537
665,50,35.4822,2.33405,-3.63863e-06,0.00109267,-0.000706078,0.0014384,-0.000349363,-1.11547,0.00109414,0.0404077,1889,974,35.4821,-2.33402
672,50,35.733,2.19366,-0.000337714,0.000578175,4.61758e-05,0.000580497,-0.000340036,1.52055,0.00053748,0.043096,1896,974,35.733,-2.19367
679,50,35.5331,2.33099,-0.000556042,0.000247214,0.00071359,0.000664436,-0.000973264,1.04172,0.000951114,0.0438952,1903,974,35.5331,-2.33098
686,50,35.5352,2.2887,-0.00054486,-5.27745e-05,0.00116799,0.000894802,-0.00149244,0.889208,0.00139259,0.0436049,1910,974,35.5351,-2.28868
693,50,35.6384,2.3562,-0.000556304,-0.000366168,0.00152813,0.00106985,-0.00199232,0.816464,0.00179449,0.0385417,1917,974,35.6385,-2.35623
700,50,35.6587,2.50385,-0.000622619,-0.000385365,0.00162116,0.00112151,-0.00212949,0.82192,0.0019068,0.0225895,1924,974,35.6587,-2.50382
707,50,35.7181,2.5752,-0.000754535,-0.000173043,0.00148555,0.00104995,-0.00197753,0.882034,0.00177505,0.0367447,1931,974,35.7181,-2.57521
714,50,35.7108,2.71692,0,0,0,0,0,0,0,-1,1938,974,35.7108,-2.71693
721,50,34.5793,4.16394,0,0,0,0,0,0,0,-1,1945,974,34.5794,-4.16393
728,50,34.5676,4.41852,-0.00156203,0.00117606,0.0010532,0.0015343,-0.00192027,1.24293,0.00199864,0.0216758,1952,974,34.5676,-4.41853
735,50,34.619,4.58569,-0.00117826,0.00188589,0.000460346,0.00195355,-0.00124593,1.42485,0.00186222,0.0197889,1959,974,34.6191,-4.58568
742,50,34.6481,4.75665,-0.00135603,0.00294181,-0.000258885,0.00295735,-0.00137157,-1.51085,0.00255459,0.0163098,1966,974,34.6481,-4.75666
749,50,34.6166,4.91852,-0.00134676,0.00395422,-0.0010841,0.00416736,-0.0015599,-1.37667,0.00341896,0.0173758,1973,974,34.6166,-4.91854
756,50,34.5649,5.09418,-0.000895235,0.00509162,-0.00209751,0.00575335,-0.00155697,-1.2652,0.00444637,0.0126298,1980,974,34.5649,-5.09418
763,50,34.5168,5.28381,4.96183e-05,0.00636295,-0.00328482,0.00776201,-0.00134944,-1.16815,0.00567819,0.0116633,1987,974,34.5168,-5.2838
770,50,34.4761,5.4245,0.00178498,0.00760087,-0.00461181,0.010145,-0.000759137,-1.06669,0.00703005,0.0110133,1994,974,34.4761,-5.42453
777,50,34.4463,5.52454,0.00410011,0.00845538,-0.00608987,0.0127452,-0.000189758,-0.957105,0.00856079,0.0221332,2001,974,34.4463,-5.52451
784,50,34.9941,5.46063,0.00709654,0.00874649,-0.00776945,0.0157346,0.000108388,-0.838291,0.0104538,0.0392905,2008,974,34.9942,-5.46063
791,50,35.4375,5.52771,0.0112098,0.00797627,-0.00981794,0.0195432,-0.000357115,-0.703792,0.0131495,0.0444339,2015,974,35.4375,-5.5277
798,50,35.6243,5.61774,0.0162767,0.00590707,-0.0123146,0.0244534,-0.00226964,-0.586146,0.0171091,0.0445436,2022,974,35.6243,-5.61776
805,50,35.4875,6.07172,0.0217775,0.0021519,-0.0150835,0.0299592,-0.0060298,-0.497011,0.0222567,0.044961,2029,974,35.4875,-6.07174
812,50,0,0,0,0,0,0,0,0,0,-1,2036,974,0,0
-700,43,0,0,0,0,0,0,0,0,0,-1,524,981,0,0
-693,43,-25.4067,-2.71295,0.0847119,-0.104704,-0.00639657,0.0849277,-0.10492,-0.0337187,0.109811,0.0448144,531,981,-25.4067,2.71298
-686,43,-24.6541,-3.32031,0,0,0,0,0,0,0,-1,538,981,-24.6541,3.32029
-679,43,-23.5726,-4.31067,0,0,0,0,0,0,0,-1,545,981,-23.5725,4.31064
-672,43,-22.522,-5.49542,0,0,0,0,0,0,0,-1,552,981,-22.522,5.49545
-665,43,-25.8375,3.8905,0,0,0,0,0,0,0,-1,559,981,-25.8375,-3.8905
-658,43,-25.6194,3.6001,0.0196835,-0.00889593,0.00637054,0.0210392,-0.0102517,0.209683,0.0184202,0.048032,566,981,-25.6194,-3.60013
-651,43,-25.517,3.16919,0.0133956,-0.001556,0.00557484,0.0152454,-0.00340579,0.320378,0.0114687,0.0399922,573,981,-25.5171,-3.16918
-644,43,-25.6272,2.74695,0.00873368,0.00297223,0.00446061,0.0111629,0.000542997,0.498685,0.00726771,0.021869,580,981,-25.6272,-2.74696
-637,43,-25.6825,2.59985,0.00439098,0.00633819,0.00338929,0.00889094,0.00183823,0.925263,0.00541948,0.0155041,587,981,-25.6825,-2.59984
-630,43,-25.707,2.47614,0.0015558,0.00814265,0.00160443,0.00851267,0.00118578,1.34413,0.00532406,0.0132979,594,981,-25.707,-2.47614
-623,43,-25.7106,2.36688,-0.000268656,0.00818141,-0.000478276,0.00820839,-0.00029564,-1.51444,0.00557342,0.0119546,601,981,-25.7106,-2.36686
-616,43,-25.712,2.23688,-0.00100247,0.00656903,-0.00219193,0.0071578,-0.00159124,-1.30838,0.00538128,0.0107056,608,981,-25.712,-2.23691
-609,43,-25.7251,2.09985,-0.00166268,0.00531086,-0.00374608,0.00694178,-0.00329359,-1.16018,0.00603322,0.0123113,615,981,-25.7251,-2.09984
-602,43,-25.7096,1.98071,-0.00257088,0.0036223,-0.004863,0.00629092,-0.0052395,-1.06891,0.00666631,0.0148045,622,981,-25.7096,-1.98072
-595,43,-25.7206,1.85089,-0.00388518,0.00276927,-0.00514467,0.00556887,-0.00668478,-1.07244,0.00708442,0.0137901,629,981,-25.7207,-1.85087
-588,43,-25.7196,1.51923,-0.00467634,0.00218298,-0.00557986,0.00530293,-0.00779629,-1.06096,0.00760837,0.0157138,636,981,-25.7196,-1.51924
-581,43,-25.8464,0.899475,-0.00493785,0.00162979,-0.00578859,0.00500114,-0.0083092,-1.04341,0.00776343,0.021586,643,981,-25.8464,-0.899464
-574,43,-25.9248,0.600525,-0.00500512,0.0012723,-0.0056608,0.00460632,-0.00833914,-1.03853,0.00757693,0.0266049,650,981,-25.9248,-0.600536
-567,43,-25.8639,0.496399,-0.00511919,0.0010063,-0.00510034,0.00389283,-0.00800573,-1.05579,0.0070051,0.03517,657,981,-25.8639,-0.496405
-560,43,-25.7157,0.40271,-0.00485773,0.000629346,-0.0041789,0.00288483,-0.00711321,-1.07587,0.00594195,0.0392584,664,981,-25.7157,-0.402718
-553,43,-25.7917,0.516174,-0.00400127,0.000141636,-0.00295834,0.00168165,-0.00554128,-1.09083,0.00436411,0.0397862,671,981,-25.7917,-0.516156
-546,43,-26.0333,0.64447,-0.00232818,-0.000534693,-0.00152154,0.000334698,-0.00319757,-1.05168,0.00225159,0.0420252,678,981,-26.0333,-0.644477
-539,43,-26.0071,0.0990601,0,0,0,0,0,0,0,-1,685,981,-26.0071,-0.0990547
-532,43,-25.8721,0.622314,0.00412215,-0.00208654,0.000388685,0.00414638,-0.00211078,0.0622793,0.00367574,0.0442093,692,981,-25.8721,-0.622344
-525,43,-25.7903,0.510498,0.00765809,-0.00244066,-0.000354319,0.00767051,-0.00245307,-0.035028,0.00609811,0.0403318,699,981,-25.7904,-0.510472
-518,43,0,0,0,0,0,0,0,0,0,-1,706,981,0,0
-511,43,0,0,0,0,0,0,0,0,0,-1,713,981,0,0
-504,43,0,0,0,0,0,0,0,0,0,-1,720,981,0,0
-497,43,0,0,0,0,0,0,0,0,0,-1,727,981,0,0
-490,43,0,0,0,0,0,0,0,0,0,-1,734,981,0,0
-483,43,0,0,0,0,0,0,0,0,0,-1,741,981,0,0
-476,43,0,0,0,0,0,0,0,0,0,-1,748,981,0,0
-469,43,0,0,0,0,0,0,0,0,0,-1,755,981,0,0
-462,43,0,0,0,0,0,0,0,0,0,-1,762,981,0,0
-455,43,0,0,0,0,0,0,0,0,0,-1,769,981,0,0
-448,43,0,0,0,0,0,0,0,0,0,-1,776,981,0,0
-441,43,0,0,0,0,0,0,0,0,0,-1,783,981,0,0
-434,43,0,0,0,0,0,0,0,0,0,-1,790,981,0,0
-427,43,0,0,0,0,0,0,0,0,0,-1,797,981,0,0
-420,43,0,0,0,0,0,0,0,0,0,-1,804,981,0,0
-413,43,0,0,0,0,0,0,0,0,0,-1,811,981,0,0
-406,43,0,0,0,0,0,0,0,0,0,-1,818,981,0,0
-399,43,0,0,0,0,0,0,0,0,0,-1,825,981,0,0
-392,43,0,0,0,0,0,0,0,0,0,-1,832,981,0,0
-385,43,0,0,0,0,0,0,0,0,0,-1,839,981,0,0
-378,43,0,0,0,0,0,0,0,0,0,-1,846,981,0,0
-371,43,0,0,0,0,0,0,0,0,0,-1,853,981,0,0
-364,43,0,0,0,0,0,0,0,0,0,-1,860,981,0,0
-357,43,0,0,0,0,0,0,0,0,0,-1,867,981,0,0
-350,43,0,0,0,0,0,0,0,0,0,-1,874,981,0,0
-343,43,0,0,0,0,0,0,0,0,0,-1,881,981,0,0
-336,43,0,0,0,0,0,0,0,0,0,-1,888,981,0,0
-329,43,0,0,0,0,0,0,0,0,0,-1,895,981,0,0
-322,43,0,0,0,0,0,0,0,0,0,-1,902,981,0,0
-315,43,0,0,0,0,0,0,0,0,0,-1,909,981,0,0
-308,43,0,0,0,0,0,0,0,0,0,-1,916,981,0,0
-301,43,0,0,0,0,0,0,0,0,0,-1,923,981,0,0
-294,43,0,0,0,0,0,0,0,0,0,-1,930,981,0,0
-287,43,0,0,0,0,0,0,0,0,0,-1,937,981,0,0
-280,43,0,0,0,0,0,0,0,0,0,-1,944,981,0,0
-273,43,0,0,0,0,0,0,0,0,0,-1,951,981,0,0
-266,43,0,0,0,0,0,0,0,0,0,-1,958,981,0,0
-259,43,0,0,0,0,0,0,0,0,0,-1,965,981,0,0
-252,43,0,0,0,0,0,0,0,0,0,-1,972,981,0,0
-245,43,0,0,0,0,0,0,0,0,0,-1,979,981,0,0
-238,43,0,0,0,0,0,0,0,0,0,-1,986,981,0,0
-231,43,0,0,0,0,0,0,0,0,0,-1,993,981,0,0
-224,43,0,0,0,0,0,0,0,0,0,-1,1000,981,0,0
-217,43,0,0,0,0,0,0,0,0,0,-1,1007,981,0,0
-210,43,0,0,0,0,0,0,0,0,0,-1,1014,981,0,0
-203,43,0,0,0,0,0,0,0,0,0,-1,1021,981,0,0
-196,43,0,0,0,0,0,0,0,0,0,-1,1028,981,0,0
-189,43,0,0,0,0,0,0,0,0,0,-1,1035,981,0,0
-182,43,0,0,0,0,0,0,0,0,0,-1,1042,981,0,0
-175,43,0,0,0,0,0,0,0,0,0,-1,1049,981,0,0
-168,43,0,0,0,0,0,0,0,0,0,-1,1056,981,0,0
-161,43,0,0,0,0,0,0,0,0,0,-1,1063,981,0,0
-154,43,0,0,0,0,0,0,0,0,0,-1,1070,981,0,0
-147,43,0,0,0,0,0,0,0,0,0,-1,1077,981,0,0
-140,43,0,0,0,0,0,0,0,0,0,-1,1084,981,0,0
-133,43,0,0,0,0,0,0,0,0,0,-1,1091,981,0,0
-126,43,0,0,0,0,0,0,0,0,0,-1,1098,981,0,0
-119,43,0,0,0,0,0,0,0,0,0,-1,1105,981,0,0
-112,43,0,0,0,0,0,0,0,0,0,-1,1112,981,0,0
-105,43,0,0,0,0,0,0,0,0,0,-1,1119,981,0,0
-98,43,0,0,0,0,0,0,0,0,0,-1,1126,981,0,0
-91,43,0,0,0,0,0,0,0,0,0,-1,1133,981,0,0
-84,43,0,0,0,0,0,0,0,0,0,-1,1140,981,0,0
-77,43,0,0,0,0,0,0,0,0,0,-1,1147,981,0,0
-70,43,0,0,0,0,0,0,0,0,0,-1,1154,981,0,0
-63,43,0,0,0,0,0,0,0,0,0,-1,1161,981,0,0
-56,43,0,0,0,0,0,0,0,0,0,-1,1168,981,0,0
-49,43,0,0,0,0,0,0,0,0,0,-1,1175,981,0,0
-42,43,0,0,0,0,0,0,0,0,0,-1,1182,981,0,0
-35,43,0,0,0,0,0,0,0,0,0,-1,1189,981,0,0
-28,43,0,0,0,0,0,0,0,0,0,-1,1196,981,0,0
-21,43,0,0,0,0,0,0,0,0,0,-1,1203,981,0,0
-14,43,0,0,0,0,0,0,0,0,0,-1,1210,981,0,0
-7,43,0,0,0,0,0,0,0,0,0,-1,1217,981,0,0
0,43,0,0,0,0,0,0,0,0,0,-1,1224,981,0,0
7,43,0,0,0,0,0,0,0,0,0,-1,1231,981,0,0
14,43,0,0,0,0,0,0,0,0,0,-1,1238,981,0,0
21,43,0,0,0,0,0,0,0,0,0,-1,1245,981,0,0
28,43,0,0,0,0,0,0,0,0,0,-1,1252,981,0,0
35,43,0,0,0,0,0,0,0,0,0,-1,1259,981,0,0
42,43,0,0,0,0,0,0,0,0,0,-1,1266,981,0,0
49,43,0,0,0,0,0,0,0,0,0,-1,1273,981,0,0
56,43,0,0,0,0,0,0,0,0,0,-1,1280,981,0,0
63,43,0,0,0,0,0,0,0,0,0,-1,1287,981,0,0
70,43,0,0,0,0,0,0,0,0,0,-1,1294,981,0,0
77,43,0,0,0,0,0,0,0,0,0,-1,1301,981,0,0
84,43,0,0,0,0,0,0,0,0,0,-1,1308,981,0,0
91,43,0,0,0,0,0,0,0,0,0,-1,1315,981,0,0
98,43,0,0,0,0,0,0,0,0,0,-1,1322,981,0,0
105,43,0,0,0,0,0,0,0,0,0,-1,1329,981,0,0
112,43,0,0,0,0,0,0,0,0,0,-1,1336,981,0,0
119,43,0,0,0,0,0,0,0,0,0,-1,1343,981,0,0
126,43,0,0,0,0,0,0,0,0,0,-1,1350,981,0,0
133,43,0,0,0,0,0,0,0,0,0,-1,1357,981,0,0
140,43,0,0,0,0,0,0,0,0,0,-1,1364,981,0,0
147,43,0,0,0,0,0,0,0,0,0,-1,1371,981,0,0
154,43,0,0,0,0,0,0,0,0,0,-1,1378,981,0,0
161,43,0,0,0,0,0,0,0,0,0,-1,1385,981,0,0
168,43,0,0,0,0,0,0,0,0,0,-1,1392,981,0,0
175,43,0,0,0,0,0,0,0,0,0,-1,1399,981,0,0
182,43,0,0,0,0,0,0,0,0,0,-1,1406,981,0,0
189,43,0,0,0,0,0,0,0,0,0,-1,1413,981,0,0
196,43,0,0,0,0,0,0,0,0,0,-1,1420,981,0,0
203,43,0,0,0,0,0,0,0,0,0,-1,1427,981,0,0
210,43,0,0,0,0,0,0,0,0,0,-1,1434,981,0,0
217,43,0,0,0,0,0,0,0,0,0,-1,1441,981,0,0
224,43,0,0,0,0,0,0,0,0,0,-1,1448,981,0,0
231,43,0,0,0,0,0,0,0,0,0,-1,1455,981,0,0
238,43,0,0,0,0,0,0,0,0,0,-1,1462,981,0,0
245,43,0,0,0,0,0,0,0,0,0,-1,1469,981,0,0
252,43,0,0,0,0,0,0,0,0,0,-1,1476,981,0,0
259,43,0,0,0,0,0,0,0,0,0,-1,1483,981,0,0
266,43,0,0,0,0,0,0,0,0,0,-1,1490,981,0,0
273,43,0,0,0,0,0,0,0,0,0,-1,1497,981,0,0
280,43,0,0,0,0,0,0,0,0,0,-1,1504,981,0,0
287,43,0,0,0,0,0,0,0,0,0,-1,1511,981,0,0
294,43,0,0,0,0,0,0,0,0,0,-1,1518,981,0,0
301,43,0,0,0,0,0,0,0,0,0,-1,1525,981,0,0
308,43,0,0,0,0,0,0,0,0,0,-1,1532,981,0,0
315,43,0,0,0,0,0,0,0,0,0,-1,1539,981,0,0
322,43,0,0,0,0,0,0,0,0,0,-1,1546,981,0,0
329,43,0,0,0,0,0,0,0,0,0,-1,1553,981,0,0
336,43,0,0,0,0,0,0,0,0,0,-1,1560,981,0,0
343,43,0,0,0,0,0,0,0,0,0,-1,1567,981,0,0
350,43,0,0,0,0,0,0,0,0,0,-1,1574,981,0,0
357,43,0,0,0,0,0,0,0,0,0,-1,1581,981,0,0
364,43,0,0,0,0,0,0,0,0,0,-1,1588,981,0,0
371,43,0,0,0,0,0,0,0,0,0,-1,1595,981,0,0
378,43,0,0,0,0,0,0,0,0,0,-1,1602,981,0,0
385,43,0,0,0,0,0,0,0,0,0,-1,1609,981,0,0
392,43,0,0,0,0,0,0,0,0,0,-1,1616,981,0,0
399,43,0,0,0,0,0,0,0,0,0,-1,1623,981,0,0
406,43,0,0,0,0,0,0,0,0,0,-1,1630,981,0,0
413,43,0,0,0,0,0,0,0,0,0,-1,1637,981,0,0
420,43,0,0,0,0,0,0,0,0,0,-1,1644,981,0,0
427,43,0,0,0,0,0,0,0,0,0,-1,1651,981,0,0
434,43,0,0,0,0,0,0,0,0,0,-1,1658,981,0,0
441,43,0,0,0,0,0,0,0,0,0,-1,1665,981,0,0
448,43,0,0,0,0,0,0,0,0,0,-1,1672,981,0,0
455,43,0,0,0,0,0,0,0,0,0,-1,1679,981,0,0
462,43,0,0,0,0,0,0,0,0,0,-1,1686,981,0,0
469,43,0,0,0,0,0,0,0,0,0,-1,1693,981,0,0
476,43,0,0,0,0,0,0,0,0,0,-1,1700,981,0,0
483,43,0,0,0,0,0,0,0,0,0,-1,1707,981,0,0
490,43,0,0,0,0,0,0,0,0,0,-1,1714,981,0,0
497,43,0,0,0,0,0,0,0,0,0,-1,1721,981,0,0
504,43,0,0,0,0,0,0,0,0,0,-1,1728,981,0,0
511,43,0,0,0,0,0,0,0,0,0,-1,1735,981,0,0
518,43,0,0,0,0,0,0,0,0,0,-1,1742,981,0,0
525,43,0,0,0,0,0,0,0,0,0,-1,1749,981,0,0
532,43,0,0,0,0,0,0,0,0,0,-1,1756,981,0,0
539,43,0,0,0,0,0,0,0,0,0,-1,1763,981,0,0
546,43,0,0,0,0,0,0,0,0,0,-1,1770,981,0,0
553,43,0,0,0,0,0,0,0,0,0,-1,1777,981,0,0
560,43,0,0,0,0,0,0,0,0,0,-1,1784,981,0,0
567,43,0,0,0,0,0,0,0,0,0,-1,1791,981,0,0
574,43,0,0,0,0,0,0,0,0,0,-1,1798,981,0,0
581,43,0,0,0,0,0,0,0,0,0,-1,1805,981,0,0
588,43,0,0,0,0,0,0,0,0,0,-1,1812,981,0,0
595,43,0,0,0,0,0,0,0,0,0,-1,1819,981,0,0
602,43,0,0,0,0,0,0,0,0,0,-1,1826,981,0,0
609,43,0,0,0,0,0,0,0,0,0,-1,1833,981,0,0
616,43,0,0,0,0,0,0,0,0,0,-1,1840,981,0,0
623,43,0,0,0,0,0,0,0,0,0,-1,1847,981,0,0
630,43,0,0,0,0,0,0,0,0,0,-1,1854,981,0,0
637,43,0,0,0,0,0,0,0,0,0,-1,1861,981,0,0
644,43,35.611,2.60333,0.00141074,0.00349375,-0.00309706,0.00571974,-0.000815248,-0.947602,0.00411194,0.0386041,1868,981,35.611,-2.60336
651,43,35.6698,2.52136,0.000506451,0.00220801,-0.00218866,0.00370544,-0.000990975,-0.970771,0.00285846,0.0385459,1875,981,35.6699,-2.52135
658,43,35.9496,2.50714,-7.21191e-05,0.00125255,-0.00145318,0.00218722,-0.00100678,-0.999225,0.00188557,0.0397197,1882,981,35.9495,-2.50714
665,43,35.6749,2.4162,-0.000344932,0.000684363,-0.000743457,0.00107392,-0.000734491,-1.08815,0.0010502,0.0401033,1889,981,35.6749,-2.41618
672,43,35.6591,2.39752,-0.000480839,0.000266685,-3.14291e-05,0.000268004,-0.000482158,-1.52885,0.00043895,0.0406277,1896,981,35.659,-2.3975
679,43,35.6306,2.48938,-0.000569927,3.11903e-05,0.000642121,0.000439613,-0.00097835,1.00429,0.000838126,0.041921,1903,981,35.6306,-2.4894
686,43,35.6483,2.44464,-0.000470218,-0.000198492,0.00112761,0.000801415,-0.00147013,0.845353,0.00133028,0.0430969,1910,981,35.6484,-2.44465
693,43,35.6698,2.43127,-0.000401409,-0.000425361,0.00150225,0.00108891,-0.00191568,0.781412,0.00175646,0.0391127,1917,981,35.6698,-2.43125
700,43,35.6227,2.51788,-0.000395567,-0.000393037,0.00161754,0.00122324,-0.00201185,0.785789,0.00188619,0.0331821,1924,981,35.6226,-2.51788
707,43,35.7227,2.44965,-0.000508534,-0.000160696,0.00154735,0.00122248,-0.00189171,0.841362,0.00181176,0.0306866,1931,981,35.7227,-2.44967
714,43,35.7766,2.38049,0,0,0,0,0,0,0,-1,1938,981,35.7766,-2.38047
721,43,34.9102,4.21344,0,0,0,0,0,0,0,-1,1945,981,34.9102,-4.21345
728,43,34.8849,4.41882,-0.00154704,0.00127651,0.00115445,0.00168844,-0.00195896,1.22807,0.00210775,0.0211982,1952,981,34.8848,-4.41885
735,43,34.8096,4.5976,-0.00133207,0.00199976,0.000573728,0.00209579,-0.00142809,1.40496,0.00204665,0.0140682,1959,981,34.8095,-4.59761
742,43,34.788,4.7381,-0.00164538,0.00301513,-8.83615e-05,0.0030168,-0.00164705,-1.55185,0.00273111,0.0155116,1966,981,34.7879,-4.73808
749,43,34.7676,4.91663,-0.00184151,0.00396566,-0.000905825,0.00410367,-0.00197952,-1.4196,0.0035828,0.017289,1973,981,34.7676,-4.9166
756,43,34.7601,5.05396,-0.00167074,0.0050444,-0.00192502,0.0055571,-0.00218344,-1.3105,0.00460832,0.0171802,1980,981,34.7602,-5.05397
763,43,34.7339,5.20715,-0.00119085,0.00623916,-0.00315304,0.00739682,-0.00234852,-1.21892,0.00587273,0.0205836,1987,981,34.7339,-5.20717
770,43,34.6686,5.4104,3.31964e-05,0.00741343,-0.00457314,0.00959959,-0.00215296,-1.12487,0.00722511,0.0166398,1994,981,34.6686,-5.4104
777,43,34.6238,5.50299,0.0017968,0.00824588,-0.00615768,0.0119722,-0.00192954,-1.0266,0.00869631,0.0207985,2001,981,34.6238,-5.50299
784,43,35.0643,5.60425,0.00406955,0.00858903,-0.00794071,0.0145853,-0.0019267,-0.924022,0.0104253,0.0384682,2008,981,35.0643,-5.60424
791,43,35.4983,5.70691,0.00723256,0.00798025,-0.0100978,0.0177111,-0.00249829,-0.803901,0.0127222,0.04408,2015,981,35.4984,-5.70691
798,43,35.8157,5.83667,0.0111068,0.00623865,-0.0127035,0.0216074,-0.00426189,-0.690742,0.0160157,0.0441818,2022,981,35.8156,-5.83667
805,43,36.0393,6.22638,0.0152157,0.00307631,-0.0156259,0.0259094,-0.00761737,-0.600149,0.0202943,0.0444777,2029,981,36.0392,-6.22635
812,43,36.2383,6.51447,0,0,0,0,0,0,0,-1,2036,981,36.2382,-6.51445
-700,36,0,0,0,0,0,0,0,0,0,-1,524,988,0,0
-693,36,-25.3313,-2.14026,0,0,0,0,0,0,0,-1,531,988,-25.3313,2.14023
-686,36,-24.6704,-2.69519,0,0,0,0,0,0,0,-1,538,988,-24.6704,2.69521
-679,36,-24.5733,-3.30353,0,0,0,0,0,0,0,-1,545,988,-24.5733,3.30354
-672,36,-25.8641,0.0166626,0.0354391,-0.0309313,0.0125987,0.0377501,-0.0332424,0.181419,0.0410151,0.045137,552,988,-25.8641,-0.0166902
-665,36,-25.3085,1.13812,0.0256826,-0.0173076,0.0122813,0.0289437,-0.0205687,0.259544,0.028722,0.0456479,559,988,-25.3085,-1.13812
-658,36,-25.7448,2.88507,0.0179575,-0.00727774,0.0110613,0.0221196,-0.0114398,0.359883,0.0196998,0.0454936,566,988,-25.7448,-2.88506
-651,36,-25.7426,2.69318,0.012047,-0.000468696,0.00933719,0.0170294,-0.00545113,0.490174,0.0135408,0.0363482,573,988,-25.7426,-2.69315
-644,36,-25.8137,2.58752,0.0076838,0.00371125,0.00732594,0.013288,-0.00189291,0.653016,0.00955233,0.0216969,580,988,-25.8137,-2.58755
-637,36,-25.8407,2.49921,0.00353014,0.00701269,0.00542637,0.0109703,-0.000427495,0.940654,0.00746013,0.0171572,587,988,-25.8407,-2.49921
-630,36,-25.8489,2.45007,0.000920546,0.0088493,0.00291544,0.00980591,-3.60617e-05,1.25375,0.00654933,0.0143767,594,988,-25.8489,-2.45008
-623,36,-25.8608,2.34192,-0.000494201,0.00880294,6.69203e-05,0.00880342,-0.000494682,1.5636,0.0060406,0.0128083,601,988,-25.8608,-2.34191
-616,36,-25.8503,2.22644,-0.000843581,0.00703967,-0.00213871,0.00758252,-0.00138643,-1.32223,0.00557492,0.0104915,608,988,-25.8503,-2.22646
-609,36,-25.8405,2.13934,-0.00115818,0.00565497,-0.00398736,0.0074928,-0.00299601,-1.1389,0.00623847,0.0147781,615,988,-25.8405,-2.13932
-602,36,-25.8351,2.05182,-0.00170805,0.0038598,-0.00528795,0.00705189,-0.00490013,-1.0277,0.00693768,0.0190576,622,988,-25.8352,-2.05184
-595,36,-25.83,1.92468,-0.00275767,0.00303717,-0.00568272,0.00651849,-0.00623899,-1.02115,0.00736612,0.0204225,629,988,-25.83,-1.92465
-588,36,-25.8407,1.42249,-0.0033498,0.00242732,-0.00611567,0.00630228,-0.00722476,-1.00603,0.00781589,0.0210766,636,988,-25.8407,-1.42249
-581,36,-25.8683,0.840698,-0.00356743,0.00193505,-0.00628104,0.00604098,-0.00767336,-0.991823,0.00793665,0.0238565,643,988,-25.8683,-0.840691
-574,36,-25.9113,0.645447,-0.00372498,0.00154063,-0.00606076,0.00551574,-0.00770009,-0.990302,0.00766482,0.0251538,650,988,-25.9112,-0.645472
-567,36,-25.9381,0.584839,-0.00401602,0.00118991,-0.00536449,0.00454959,-0.0073757,-1.01128,0.00694922,0.0347403,657,988,-25.9381,-0.584823
-560,36,-25.8005,0.519836,-0.00404897,0.000727397,-0.00427079,0.00323238,-0.00655395,-1.04033,0.0057576,0.0411897,664,988,-25.8005,-0.51984
-553,36,-25.7809,0.681885,-0.00362316,0.000140557,-0.00286942,0.00169017,-0.00517277,-1.07563,0.00412887,0.041712,671,988,-25.7809,-0.681878
-546,36,-25.939,0.622131,-0.00249079,-0.000639475,-0.00127049,6.80506e-06,-0.00313707,-1.10022,0.00209365,0.0447788,678,988,-25.939,-0.62212
-539,36,-26.0684,0.392944,-0.000399143,-0.00147023,0.000160314,-0.000375663,-0.00149371,0.14543,0.000897193,0.0471223,685,988,-26.0684,-0.392947
-532,36,-26.1728,0.248413,0,0,0,0,0,0,0,-1,692,988,-26.1728,-0.248385
-525,36,-25.7446,0.569702,0,0,0,0,0,0,0,-1,699,988,-25.7446,-0.569686
-518,36,0,0,0,0,0,0,0,0,0,-1,706,988,0,0
-511,36,0,0,0,0,0,0,0,0,0,-1,713,988,0,0
-504,36,0,0,0,0,0,0,0,0,0,-1,720,988,0,0
-497,36,0,0,0,0,0,0,0,0,0,-1,727,988,0,0
-490,36,0,0,0,0,0,0,0,0,0,-1,734,988,0,0
-483,36,0,0,0,0,0,0,0,0,0,-1,741,988,0,0
-476,36,0,0,0,0,0,0,0,0,0,-1,748,988,0,0
-469,36,0,0,0,0,0,0,0,0,0,-1,755,988,0,0
-462,36,0,0,0,0,0,0,0,0,0,-1,762,988,0,0
-455,36,0,0,0,0,0,0,0,0,0,-1,769,988,0,0
-448,36,0,0,0,0,0,0,0,0,0,-1,776,988,0,0
-441,36,0,0,0,0,0,0,0,0,0,-1,783,988,0,0
-434,36,0,0,0,0,0,0,0,0,0,-1,790,988,0,0
-427,36,0,0,0,0,0,0,0,0,0,-1,797,988,0,0
-420,36,0,0,0,0,0,0,0,0,0,-1,804,988,0,0
-413,36,0,0,0,0,0,0,0,0,0,-1,811,988,0,0
-406,36,0,0,0,0,0,0,0,0,0,-1,818,988,0,0
-399,36,0,0,0,0,0,0,0,0,0,-1,825,988,0,0
-392,36,0,0,0,0,0,0,0,0,0,-1,832,988,0,0
-385,36,0,0,0,0,0,0,0,0,0,-1,839,988,0,0
-378,36,0,0,0,0,0,0,0,0,0,-1,846,988,0,0
-371,36,0,0,0,0,0,0,0,0,0,-1,853,988,0,0
-364,36,0,0,0,0,0,0,0,0,0,-1,860,988,0,0
-357,36,0,0,0,0,0,0,0,0,0,-1,867,988,0,0
-350,36,0,0,0,0,0,0,0,0,0,-1,874,988,0,0
-343,36,0,0,0,0,0,0,0,0,0,-1,881,988,0,0
-336,36,0,0,0,0,0,0,0,0,0,-1,888,988,0,0
-329,36,0,0,0,0,0,0,0,0,0,-1,895,988,0,0
-322,36,0,0,0,0,0,0,0,0,0,-1,902,988,0,0
-315,36,0,0,0,0,0,0,0,0,0,-1,909,988,0,0
-308,36,0,0,0,0,0,0,0,0,0,-1,916,988,0,0
-301,36,0,0,0,0,0,0,0,0,0,-1,923,988,0,0
-294,36,0,0,0,0,0,0,0,0,0,-1,930,988,0,0
-287,36,0,0,0,0,0,0,0,0,0,-1,937,988,0,0
-280,36,0,0,0,0,0,0,0,0,0,-1,944,988,0,0
-273,36,0,0,0,0,0,0,0,0,0,-1,951,988,0,0
-266,36,0,0,0,0,0,0,0,0,0,-1,958,988,0,0
-259,36,0,0,0,0,0,0,0,0,0,-1,965,988,0,0
-252,36,0,0,0,0,0,0,0,0,0,-1,972,988,0,0
-245,36,0,0,0,0,0,0,0,0,0,-1,979,988,0,0
-238,36,0,0,0,0,0,0,0,0,0,-1,986,988,0,0
-231,36,0,0,0,0,0,0,0,0,0,-1,993,988,0,0
-224,36,0,0,0,0,0,0,0,0,0,-1,1000,988,0,0
-217,36,0,0,0,0,0,0,0,0,0,-1,1007,988,0,0
-210,36,0,0,0,0,0,0,0,0,0,-1,1014,988,0,0
-203,36,0,0,0,0,0,0,0,0,0,-1,1021,988,0,0
-196,36,0,0,0,0,0,0,0,0,0,-1,1028,988,0,0
-189,36,0,0,0,0,0,0,0,0,0,-1,1035,988,0,0
-182,36,0,0,0,0,0,0,0,0,0,-1,1042,988,0,0
-175,36,0,0,0,0,0,0,0,0,0,-1,1049,988,0,0
-168,36,0,0,0,0,0,0,0,0,0,-1,1056,988,0,0
-161,36,0,0,0,0,0,0,0,0,0,-1,1063,988,0,0
-154,36,0,0,0,0,0,0,0,0,0,-1,1070,988,0,0
-147,36,0,0,0,0,0,0,0,0,0,-1,1077,988,0,0
-140,36,0,0,0,0,0,0,0,0,0,-1,1084,988,0,0
-133,36,0,0,0,0,0,0,0,0,0,-1,1091,988,0,0
-126,36,0,0,0,0,0,0,0,0,0,-1,1098,988,0,0
-119,36,0,0,0,0,0,0,0,0,0,-1,1105,988,0,0
-112,36,0,0,0,0,0,0,0,0,0,-1,1112,988,0,0
-105,36,0,0,0,0,0,0,0,0,0,-1,1119,988,0,0
-98,36,0,0,0,0,0,0,0,0,0,-1,1126,988,0,0
-91,36,0,0,0,0,0,0,0,0,0,-1,1133,988,0,0
-84,36,0,0,0,0,0,0,0,0,0,-1,1140,988,0,0
-77,36,0,0,0,0,0,0,0,0,0,-1,1147,988,0,0
-70,36,0,0,0,0,0,0,0,0,0,-1,1154,988,0,0
-63,36,0,0,0,0,0,0,0,0,0,-1,1161,988,0,0
-56,36,0,0,0,0,0,0,0,0,0,-1,1168,988,0,0
-49,36,0,0,0,0,0,0,0,0,0,-1,1175,988,0,0
-42,36,0,0,0,0,0,0,0,0,0,-1,1182,988,0,0
-35,36,0,0,0,0,0,0,0,0,0,-1,1189,988,0,0
-28,36,0,0,0,0,0,0,0,0,0,-1,1196,988,0,0
-21,36,0,0,0,0,0,0,0,0,0,-1,1203,988,0,0
-14,36,0,0,0,0,0,0,0,0,0,-1,1210,988,0,0
-7,36,0,0,0,0,0,0,0,0,0,-1,1217,988,0,0
0,36,0,0,0,0,0,0,0,0,0,-1,1224,988,0,0
7,36,0,0,0,0,0,0,0,0,0,-1,1231,988,0,0
14,36,0,0,0,0,0,0,0,0,0,-1,1238,988,0,0
21,36,0,0,0,0,0,0,0,0,0,-1,1245,988,0,0
28,36,0,0,0,0,0,0,0,0,0,-1,1252,988,0,0
35,36,0,0,0,0,0,0,0,0,0,-1,1259,988,0,0
42,36,0,0,0,0,0,0,0,0,0,-1,1266,988,0,0
49,36,0,0,0,0,0,0,0,0,0,-1,1273,988,0,0
56,36,0,0,0,0,0,0,0,0,0,-1,1280,988,0,0
63,36,0,0,0,0,0,0,0,0,0,-1,1287,988,0,0
70,36,0,0,0,0,0,0,0,0,0,-1,1294,988,0,0
77,36,0,0,0,0,0,0,0,0,0,-1,1301,988,0,0
84,36,0,0,0,0,0,0,0,0,0,-1,1308,988,0,0
91,36,0,0,0,0,0,0,0,0,0,-1,1315,988,0,0
98,36,0,0,0,0,0,0,0,0,0,-1,1322,988,0,0
105,36,0,0,0,0,0,0,0,0,0,-1,1329,988,0,0
112,36,0,0,0,0,0,0,0,0,0,-1,1336,988,0,0
119,36,0,0,0,0,0,0,0,0,0,-1,1343,988,0,0
126,36,0,0,0,0,0,0,0,0,0,-1,1350,988,0,0
133,36,0,0,0,0,0,0,0,0,0,-1,1357,988,0,0
140,36,0,0,0,0,0,0,0,0,0,-1,1364,988,0,0
147,36,0,0,0,0,0,0,0,0,0,-1,1371,988,0,0
154,36,0,0,0,0,0,0,0,0,0,-1,1378,988,0,0
161,36,0,0,0,0,0,0,0,0,0,-1,1385,988,0,0
168,36,0,0,0,0,0,0,0,0,0,-1,1392,988,0,0
175,36,0,0,0,0,0,0,0,0,0,-1,1399,988,0,0
182,36,0,0,0,0,0,0,0,0,0,-1,1406,988,0,0
189,36,0,0,0,0,0,0,0,0,0,-1,1413,988,0,0
196,36,0,0,0,0,0,0,0,0,0,-1,1420,988,0,0
203,36,0,0,0,0,0,0,0,0,0,-1,1427,988,0,0
210,36,0,0,0,0,0,0,0,0,0,-1,1434,988,0,0
217,36,0,0,0,0,0,0,0,0,0,-1,1441,988,0,0
224,36,0,0,0,0,0,0,0,0,0,-1,1448,988,0,0
231,36,0,0,0,0,0,0,0,0,0,-1,1455,988,0,0
238,36,0,0,0,0,0,0,0,0,0,-1,1462,988,0,0
245,36,0,0,0,0,0,0,0,0,0,-1,1469,988,0,0
252,36,0,0,0,0,0,0,0,0,0,-1,1476,988,0,0
259,36,0,0,0,0,0,0,0,0,0,-1,1483,988,0,0
266,36,0,0,0,0,0,0,0,0,0,-1,1490,988,0,0
273,36,0,0,0,0,0,0,0,0,0,-1,1497,988,0,0
280,36,0,0,0,0,0,0,0,0,0,-1,1504,988,0,0
287,36,0,0,0,0,0,0,0,0,0,-1,1511,988,0,0
294,36,0,0,0,0,0,0,0,0,0,-1,1518,988,0,0
301,36,0,0,0,0,0,0,0,0,0,-1,1525,988,0,0
308,36,0,0,0,0,0,0,0,0,0,-1,1532,988,0,0
315,36,0,0,0,0,0,0,0,0,0,-1,1539,988,0,0
322,36,0,0,0,0,0,0,0,0,0,-1,1546,988,0,0
329,36,0,0,0,0,0,0,0,0,0,-1,1553,988,0,0
336,36,0,0,0,0,0,0,0,0,0,-1,1560,988,0,0
343,36,0,0,0,0,0,0,0,0,0,-1,1567,988,0,0
350,36,0,0,0,0,0,0,0,0,0,-1,1574,988,0,0
357,36,0,0,0,0,0,0,0,0,0,-1,1581,988,0,0
364,36,0,0,0,0,0,0,0,0,0,-1,1588,988,0,0
371,36,0,0,0,0,0,0,0,0,0,-1,1595,988,0,0
378,36,0,0,0,0,0,0,0,0,0,-1,1602,988,0,0
385,36,0,0,0,0,0,0,0,0,0,-1,1609,988,0,0
392,36,0,0,0,0,0,0,0,0,0,-1,1616,988,0,0
399,36,0,0,0,0,0,0,0,0,0,-1,1623,988,0,0
406,36,0,0,0,0,0,0,0,0,0,-1,1630,988,0,0
413,36,0,0,0,0,0,0,0,0,0,-1,1637,988,0,0
420,36,0,0,0,0,0,0,0,0,0,-1,1644,988,0,0
427,36,0,0,0,0,0,0,0,0,0,-1,1651,988,0,0
434,36,0,0,0,0,0,0,0,0,0,-1,1658,988,0,0
441,36,0,0,0,0,0,0,0,0,0,-1,1665,988,0,0
448,36,0,0,0,0,0,0,0,0,0,-1,1672,988,0,0
455,36,0,0,0,0,0,0,0,0,0,-1,1679,988,0,0
462,36,0,0,0,0,0,0,0,0,0,-1,1686,988,0,0
469,36,0,0,0,0,0,0,0,0,0,-1,1693,988,0,0
476,36,0,0,0,0,0,0,0,0,0,-1,1700,988,0,0
483,36,0,0,0,0,0,0,0,0,0,-1,1707,988,0,0
490,36,0,0,0,0,0,0,0,0,0,-1,1714,988,0,0
497,36,0,0,0,0,0,0,0,0,0,-1,1721,988,0,0
504,36,0,0,0,0,0,0,0,0,0,-1,1728,988,0,0
511,36,0,0,0,0,0,0,0,0,0,-1,1735,988,0,0
518,36,0,0,0,0,0,0,0,0,0,-1,1742,988,0,0
525,36,0,0,0,0,0,0,0,0,0,-1,1749,988,0,0
532,36,0,0,0,0,0,0,0,0,0,-1,1756,988,0,0
539,36,0,0,0,0,0,0,0,0,0,-1,1763,988,0,0
546,36,0,0,0,0,0,0,0,0,0,-1,1770,988,0,0
553,36,0,0,0,0,0,0,0,0,0,-1,1777,988,0,0
560,36,0,0,0,0,0,0,0,0,0,-1,1784,988,0,0
567,36,0,0,0,0,0,0,0,0,0,-1,1791,988,0,0
574,36,0,0,0,0,0,0,0,0,0,-1,1798,988,0,0
581,36,0,0,0,0,0,0,0,0,0,-1,1805,988,0,0
588,36,0,0,0,0,0,0,0,0,0,-1,1812,988,0,0
595,36,0,0,0,0,0,0,0,0,0,-1,1819,988,0,0
602,36,0,0,0,0,0,0,0,0,0,-1,1826,988,0,0
609,36,0,0,0,0,0,0,0,0,0,-1,1833,988,0,0
616,36,0,0,0,0,0,0,0,0,0,-1,1840,988,0,0
623,36,0,0,0,0,0,0,0,0,0,-1,1847,988,0,0
630,36,0,0,0,0,0,0,0,0,0,-1,1854,988,0,0
637,36,0,0,0,0,0,0,0,0,0,-1,1861,988,0,0
644,36,35.6998,2.39166,3.88057e-05,0.00255658,-0.00263539,0.00421833,-0.00162294,-1.00822,0.00348165,0.0419308,1868,988,35.6999,-2.39169
651,36,35.6129,2.64014,-0.000482532,0.00148336,-0.00194971,0.00268389,-0.00168306,-1.01888,0.00254323,0.0412803,1875,988,35.6129,-2.64014
658,36,35.8356,2.66394,-0.000761336,0.000694659,-0.00134684,0.00149766,-0.00156434,-1.03317,0.00176799,0.0392476,1882,988,35.8355,-2.66394
665,36,35.99,2.63812,-0.000808898,0.000241965,-0.000714777,0.000603655,-0.00117059,-1.10235,0.00104165,0.0379807,1889,988,35.99,-2.63815
672,36,35.826,2.53192,-0.000748594,-7.39168e-05,-2.95072e-05,-7.26287e-05,-0.000749882,-1.52717,0.000477557,0.0386566,1896,988,35.8261,-2.53194
679,36,35.7631,2.50385,-0.000696104,-0.000199358,0.000665319,0.000262437,-0.0011579,0.964044,0.000872667,0.0402656,1903,988,35.7631,-2.50383
686,36,35.6934,2.54816,-0.000505597,-0.000348075,0.0011913,0.000767062,-0.00162073,0.818407,0.00140766,0.0390028,1910,988,35.6934,-2.54816
693,36,35.6719,2.534,-0.000359052,-0.000482024,0.00158922,0.00116987,-0.00201095,0.766063,0.00185773,0.0381077,1917,988,35.6718,-2.53401
700,36,35.6576,2.5639,-0.000278501,-0.000399918,0.00173778,0.00139963,-0.00207805,0.767938,0.00202053,0.0346683,1924,988,35.6576,-2.5639
707,36,35.707,2.52563,-0.000366412,-0.000152609,0.00173979,0.00148356,-0.00200258,0.816082,0.00202014,0.0270563,1931,988,35.7071,-2.52564
714,36,35.7384,2.66089,-0.000677974,0.000171303,0.00164054,0.00144127,-0.00194794,0.912039,0.00196404,0.0382612,1938,988,35.7385,-2.66091
721,36,35.2565,4.24323,0,0,0,0,0,0,0,-1,1945,988,35.2565,-4.24323
728,36,35.1072,4.45587,-0.00152627,0.00137268,0.00137369,0.00192021,-0.00207379,1.19152,0.0023065,0.0219349,1952,988,35.1072,-4.45586
735,36,34.9712,4.65002,-0.00142687,0.00206717,0.000814245,0.0022476,-0.0016073,1.35273,0.00223584,0.0181339,1959,988,34.9712,-4.65
742,36,34.927,4.76257,-0.00182023,0.00301724,0.000204472,0.00302586,-0.00182885,1.52863,0.00283113,0.014679,1966,988,34.927,-4.76258
749,36,34.9486,4.89404,-0.00214374,0.00391152,-0.000609294,0.00397222,-0.00220444,-1.4715,0.00361445,0.0154091,1973,988,34.9486,-4.89401
756,36,34.9386,5.02948,-0.00215898,0.00495468,-0.00162946,0.00531016,-0.00251446,-1.356,0.00461266,0.0142439,1980,988,34.9386,-5.02948
763,36,34.8832,5.15063,-0.00201379,0.00613162,-0.00287198,0.00704241,-0.00292458,-1.2637,0.00591588,0.0169447,1987,988,34.8832,-5.15063
770,36,34.8207,5.2995,-0.001173,0.00732295,-0.00433128,0.00914171,-0.00299176,-1.17324,0.00729905,0.0147253,1994,988,34.8206,-5.29947
777,36,34.7589,5.50793,0.00015307,0.00825569,-0.00593945,0.011394,-0.00298521,-1.0847,0.00876222,0.0226636,2001,988,34.759,-5.50795
784,36,34.7458,5.74268,0.00184268,0.00883625,-0.00771943,0.013814,-0.00313503,-0.998065,0.0104128,0.0432844,2008,988,34.7458,-5.7427
791,36,34.7183,5.97565,0,0,0,0,0,0,0,-1,2015,988,34.7182,-5.97562
798,36,36.1985,6.15082,0,0,0,0,0,0,0,-1,2022,988,36.1985,-6.15079
805,36,36.749,6.70001,0,0,0,0,0,0,0,-1,2029,988,36.7491,-6.70002
812,36,34.8235,5.76257,0,0,0,0,0,0,0,-1,2036,988,34.8235,-5.76257
-700,29,0,0,0,0,0,0,0,0,0,-1,524,995,0,0
-693,29,-25.295,-1.63397,0.0733952,-0.091654,0.0105494,0.0740667,-0.0923255,0.0635719,0.0962592,0.0439135,531,995,-25.295,1.634
-686,29,-24.7255,-2.20758,0.0577588,-0.065492,0.0157577,0.0597415,-0.0674747,0.125169,0.0734936,0.0442947,538,995,-24.7255,2.20757
-679,29,-24.6411,-2.87537,0,0,0,0,0,0,0,-1,545,995,-24.6411,2.87539
-672,29,-24.5287,-0.164063,0.0331995,-0.0284069,0.0179554,0.0380506,-0.0332581,0.263877,0.0412011,0.0439974,552,995,-24.5288,0.164087
-665,29,-25.4595,0.7854,0.0242099,-0.0158687,0.016663,0.0302326,-0.0218915,0.346832,0.030222,0.0423402,559,995,-25.4595,-0.785377
-658,29,-25.4171,1.47107,0.0170116,-0.00667126,0.0145477,0.023928,-0.0135876,0.443796,0.0219322,0.0430069,566,995,-25.4171,-1.47108
-651,29,-25.985,2.47571,0,0,0,0,0,0,0,-1,573,995,-25.985,-2.47573
-644,29,-25.8777,2.22345,0.00724347,0.00348033,0.00927208,0.014823,-0.00409917,0.685293,0.0114946,0.0240961,580,995,-25.8777,-2.22344
-637,29,-25.9459,2.39148,0.00324442,0.00677352,0.00663687,0.0118764,-0.00185846,0.915328,0.00860426,0.0162667,587,995,-25.9459,-2.39149
-630,29,-25.9688,2.38977,0.00071572,0.00875642,0.00354015,0.0100929,-0.000620787,1.20981,0.0069448,0.01292,594,995,-25.9687,-2.38976
-623,29,-25.9688,2.33337,-0.000539662,0.00880859,0.000133929,0.00881051,-0.00054158,1.55647,0.00606227,0.0116765,601,995,-25.9687,-2.33339
-616,29,-25.965,2.2312,-0.0007514,0.00708889,-0.00238635,0.0077581,-0.00142062,-1.29739,0.00570487,0.0133757,608,995,-25.965,-2.2312
-609,29,-25.9776,2.16113,-0.000877449,0.00568554,-0.00437597,0.00787372,-0.00306563,-1.10711,0.00651601,0.019459,615,995,-25.9776,-2.16111
-602,29,-25.9642,2.08087,-0.00102226,0.0038403,-0.00582177,0.00771807,-0.00490003,-0.983199,0.00734538,0.0204879,622,995,-25.9642,-2.08085
-595,29,-25.9318,1.94043,-0.00175599,0.00308221,-0.00629291,0.00740498,-0.00607876,-0.968899,0.00779738,0.0201988,629,995,-25.9318,-1.94045
-588,29,-25.8741,1.43201,-0.00213284,0.00247738,-0.00670779,0.00726508,-0.00692055,-0.9509,0.00819088,0.0272073,636,995,-25.8741,-1.43202
-581,29,-25.8713,0.841064,-0.00227117,0.00202507,-0.00681653,0.00702394,-0.00727004,-0.93804,0.00825304,0.0353154,643,995,-25.8713,-0.841042
-574,29,-25.9211,0.653381,-0.00249677,0.00160626,-0.00648454,0.00635607,-0.00724658,-0.938602,0.0078591,0.0292179,650,995,-25.9211,-0.65336
-567,29,-25.9594,0.673035,-0.00294659,0.00117707,-0.00561837,0.00509999,-0.00686951,-0.961259,0.00693572,0.034302,657,995,-25.9594,-0.673011
-560,29,-25.9179,0.785339,-0.00326978,0.000624711,-0.0043066,0.00340384,-0.00604891,-0.99772,0.00552831,0.0398758,664,995,-25.9179,-0.785314
-553,29,-25.9311,0.965149,-0.00330704,-9.83122e-05,-0.00265664,0.00140082,-0.00480617,-1.05704,0.00375909,0.0414824,671,995,-25.9311,-0.96516
-546,29,-25.9833,0.827148,-0.00280068,-0.00107353,-0.000801549,-0.000758868,-0.00311534,-1.19671,0.00187582,0.043886,678,995,-25.9832,-0.827139
-539,29,-26.1497,0.698975,-0.00149265,-0.00203581,0.000767599,-0.000950008,-0.00257846,0.615368,0.00150575,0.0446465,685,995,-26.1496,-0.698984
-532,29,-26.3782,0.881775,0,0,0,0,0,0,0,-1,692,995,-26.3782,-0.881765
-525,29,-25.7151,0.67572,0,0,0,0,0,0,0,-1,699,995,-25.7151,-0.675724
-518,29,0,0,0,0,0,0,0,0,0,-1,706,995,0,0
-511,29,0,0,0,0,0,0,0,0,0,-1,713,995,0,0
-504,29,0,0,0,0,0,0,0,0,0,-1,720,995,0,0
-497,29,0,0,0,0,0,0,0,0,0,-1,727,995,0,0
-490,29,0,0,0,0,0,0,0,0,0,-1,734,995,0,0
-483,29,0,0,0,0,0,0,0,0,0,-1,741,995,0,0
-476,29,0,0,0,0,0,0,0,0,0,-1,748,995,0,0
-469,29,0,0,0,0,0,0,0,0,0,-1,755,995,0,0
-462,29,0,0,0,0,0,0,0,0,0,-1,762,995,0,0
-455,29,0,0,0,0,0,0,0,0,0,-1,769,995,0,0
-448,29,0,0,0,0,0,0,0,0,0,-1,776,995,0,0
-441,29,0,0,0,0,0,0,0,0,0,-1,783,995,0,0
-434,29,0,0,0,0,0,0,0,0,0,-1,790,995,0,0
-427,29,0,0,0,0,0,0,0,0,0,-1,797,995,0,0
-420,29,0,0,0,0,0,0,0,0,0,-1,804,995,0,0
-413,29,0,0,0,0,0,0,0,0,0,-1,811,995,0,0
-406,29,0,0,0,0,0,0,0,0,0,-1,818,995,0,0
-399,29,0,0,0,0,0,0,0,0,0,-1,825,995,0,0
-392,29,0,0,0,0,0,0,0,0,0,-1,832,995,0,0
-385,29,0,0,0,0,0,0,0,0,0,-1,839,995,0,0
-378,29,0,0,0,0,0,0,0,0,0,-1,846,995,0,0
-371,29,0,0,0,0,0,0,0,0,0,-1,853,995,0,0
-364,29,0,0,0,0,0,0,0,0,0,-1,860,995,0,0
-357,29,0,0,0,0,0,0,0,0,0,-1,867,995,0,0
-350,29,0,0,0,0,0,0,0,0,0,-1,874,995,0,0
-343,29,0,0,0,0,0,0,0,0,0,-1,881,995,0,0
-336,29,0,0,0,0,0,0,0,0,0,-1,888,995,0,0
-329,29,0,0,0,0,0,0,0,0,0,-1,895,995,0,0
-322,29,0,0,0,0,0,0,0,0,0,-1,902,995,0,0
-315,29,0,0,0,0,0,0,0,0,0,-1,909,995,0,0
-308,29,0,0,0,0,0,0,0,0,0,-1,916,995,0,0
-301,29,0,0,0,0,0,0,0,0,0,-1,923,995,0,0
-294,29,0,0,0,0,0,0,0,0,0,-1,930,995,0,0
-287,29,0,0,0,0,0,0,0,0,0,-1,937,995,0,0
-280,29,0,0,0,0,0,0,0,0,0,-1,944,995,0,0
-273,29,0,0,0,0,0,0,0,0,0,-1,951,995,0,0
-266,29,0,0,0,0,0,0,0,0,0,-1,958,995,0,0
-259,29,0,0,0,0,0,0,0,0,0,-1,965,995,0,0
-252,29,0,0,0,0,0,0,0,0,0,-1,972,995,0,0
-245,29,0,0,0,0,0,0,0,0,0,-1,979,995,0,0
-238,29,0,0,0,0,0,0,0,0,0,-1,986,995,0,0
-231,29,0,0,0,0,0,0,0,0,0,-1,993,995,0,0
-224,29,0,0,0,0,0,0,0,0,0,-1,1000,995,0,0
-217,29,0,0,0,0,0,0,0,0,0,-1,1007,995,0,0
-210,29,0,0,0,0,0,0,0,0,0,-1,1014,995,0,0
-203,29,0,0,0,0,0,0,0,0,0,-1,1021,995,0,0
-196,29,0,0,0,0,0,0,0,0,0,-1,1028,995,0,0
-189,29,0,0,0,0,0,0,0,0,0,-1,1035,995,0,0
-182,29,0,0,0,0,0,0,0,0,0,-1,1042,995,0,0
-175,29,0,0,0,0,0,0,0,0,0,-1,1049,995,0,0
-168,29,0,0,0,0,0,0,0,0,0,-1,1056,995,0,0
-161,29,0,0,0,0,0,0,0,0,0,-1,1063,995,0,0
-154,29,0,0,0,0,0,0,0,0,0,-1,1070,995,0,0
-147,29,0,0,0,0,0,0,0,0,0,-1,1077,995,0,0
-140,29,0,0,0,0,0,0,0,0,0,-1,1084,995,0,0
-133,29,0,0,0,0,0,0,0,0,0,-1,1091,995,0,0
-126,29,0,0,0,0,0,0,0,0,0,-1,1098,995,0,0
-119,29,0,0,0,0,0,0,0,0,0,-1,1105,995,0,0
-112,29,0,0,0,0,0,0,0,0,0,-1,1112,995,0,0
-105,29,0,0,0,0,0,0,0,0,0,-1,1119,995,0,0
-98,29,0,0,0,0,0,0,0,0,0,-1,1126,995,0,0
-91,29,0,0,0,0,0,0,0,0,0,-1,1133,995,0,0
-84,29,0,0,0,0,0,0,0,0,0,-1,1140,995,0,0
-77,29,0,0,0,0,0,0,0,0,0,-1,1147,995,0,0
-70,29,0,0,0,0,0,0,0,0,0,-1,1154,995,0,0
-63,29,0,0,0,0,0,0,0,0,0,-1,1161,995,0,0
-56,29,0,0,0,0,0,0,0,0,0,-1,1168,995,0,0
-49,29,0,0,0,0,0,0,0,0,0,-1,1175,995,0,0
-42,29,0,0,0,0,0,0,0,0,0,-1,1182,995,0,0
-35,29,0,0,0,0,0,0,0,0,0,-1,1189,995,0,0
-28,29,0,0,0,0,0,0,0,0,0,-1,1196,995,0,0
-21,29,0,0,0,0,0,0,0,0,0,-1,1203,995,0,0
-14,29,0,0,0,0,0,0,0,0,0,-1,1210,995,0,0
-7,29,0,0,0,0,0,0,0,0,0,-1,1217,995,0,0
0,29,0,0,0,0,0,0,0,0,0,-1,1224,995,0,0
7,29,0,0,0,0,0,0,0,0,0,-1,1231,995,0,0
14,29,0,0,0,0,0,0,0,0,0,-1,1238,995,0,0
21,29,0,0,0,0,0,0,0,0,0,-1,1245,995,0,0
28,29,0,0,0,0,0,0,0,0,0,-1,1252,995,0,0
35,29,0,0,0,0,0,0,0,0,0,-1,1259,995,0,0
42,29,0,0,0,0,0,0,0,0,0,-1,1266,995,0,0
49,29,0,0,0,0,0,0,0,0,0,-1,1273,995,0,0
56,29,0,0,0,0,0,0,0,0,0,-1,1280,995,0,0
63,29,0,0,0,0,0,0,0,0,0,-1,1287,995,0,0
70,29,0,0,0,0,0,0,0,0,0,-1,1294,995,0,0
77,29,0,0,0,0,0,0,0,0,0,-1,1301,995,0,0
84,29,0,0,0,0,0,0,0,0,0,-1,1308,995,0,0
91,29,0,0,0,0,0,0,0,0,0,-1,1315,995,0,0
98,29,0,0,0,0,0,0,0,0,0,-1,1322,995,0,0
105,29,0,0,0,0,0,0,0,0,0,-1,1329,995,0,0
112,29,0,0,0,0,0,0,0,0,0,-1,1336,995,0,0
119,29,0,0,0,0,0,0,0,0,0,-1,1343,995,0,0
126,29,0,0,0,0,0,0,0,0,0,-1,1350,995,0,0
133,29,0,0,0,0,0,0,0,0,0,-1,1357,995,0,0
140,29,0,0,0,0,0,0,0,0,0,-1,1364,995,0,0
147,29,0,0,0,0,0,0,0,0,0,-1,1371,995,0,0
154,29,0,0,0,0,0,0,0,0,0,-1,1378,995,0,0
161,29,0,0,0,0,0,0,0,0,0,-1,1385,995,0,0
168,29,0,0,0,0,0,0,0,0,0,-1,1392,995,0,0
175,29,0,0,0,0,0,0,0,0,0,-1,1399,995,0,0
182,29,0,0,0,0,0,0,0,0,0,-1,1406,995,0,0
189,29,0,0,0,0,0,0,0,0,0,-1,1413,995,0,0
196,29,0,0,0,0,0,0,0,0,0,-1,1420,995,0,0
203,29,0,0,0,0,0,0,0,0,0,-1,1427,995,0,0
210,29,0,0,0,0,0,0,0,0,0,-1,1434,995,0,0
217,29,0,0,0,0,0,0,0,0,0,-1,1441,995,0,0
224,29,0,0,0,0,0,0,0,0,0,-1,1448,995,0,0
231,29,0,0,0,0,0,0,0,0,0,-1,1455,995,0,0
238,29,0,0,0,0,0,0,0,0,0,-1,1462,995,0,0
245,29,0,0,0,0,0,0,0,0,0,-1,1469,995,0,0
252,29,0,0,0,0,0,0,0,0,0,-1,1476,995,0,0
259,29,0,0,0,0,0,0,0,0,0,-1,1483,995,0,0
266,29,0,0,0,0,0,0,0,0,0,-1,1490,995,0,0
273,29,0,0,0,0,0,0,0,0,0,-1,1497,995,0,0
280,29,0,0,0,0,0,0,0,0,0,-1,1504,995,0,0
287,29,0,0,0,0,0,0,0,0,0,-1,1511,995,0,0
294,29,0,0,0,0,0,0,0,0,0,-1,1518,995,0,0
301,29,0,0,0,0,0,0,0,0,0,-1,1525,995,0,0
308,29,0,0,0,0,0,0,0,0,0,-1,1532,995,0,0
315,29,0,0,0,0,0,0,0,0,0,-1,1539,995,0,0
322,29,0,0,0,0,0,0,0,0,0,-1,1546,995,0,0
329,29,0,0,0,0,0,0,0,0,0,-1,1553,995,0,0
336,29,0,0,0,0,0,0,0,0,0,-1,1560,995,0,0
343,29,0,0,0,0,0,0,0,0,0,-1,1567,995,0,0
350,29,0,0,0,0,0,0,0,0,0,-1,1574,995,0,0
357,29,0,0,0,0,0,0,0,0,0,-1,1581,995,0,0
364,29,0,0,0,0,0,0,0,0,0,-1,1588,995,0,0
371,29,0,0,0,0,0,0,0,0,0,-1,1595,995,0,0
378,29,0,0,0,0,0,0,0,0,0,-1,1602,995,0,0
385,29,0,0,0,0,0,0,0,0,0,-1,1609,995,0,0
392,29,0,0,0,0,0,0,0,0,0,-1,1616,995,0,0
399,29,0,0,0,0,0,0,0,0,0,-1,1623,995,0,0
406,29,0,0,0,0,0,0,0,0,0,-1,1630,995,0,0
413,29,0,0,0,0,0,0,0,0,0,-1,1637,995,0,0
420,29,0,0,0,0,0,0,0,0,0,-1,1644,995,0,0
427,29,0,0,0,0,0,0,0,0,0,-1,1651,995,0,0
434,29,0,0,0,0,0,0,0,0,0,-1,1658,995,0,0
441,29,0,0,0,0,0,0,0,0,0,-1,1665,995,0,0
448,29,0,0,0,0,0,0,0,0,0,-1,1672,995,0,0
455,29,0,0,0,0,0,0,0,0,0,-1,1679,995,0,0
462,29,0,0,0,0,0,0,0,0,0,-1,1686,995,0,0
469,29,0,0,0,0,0,0,0,0,0,-1,1693,995,0,0
476,29,0,0,0,0,0,0,0,0,0,-1,1700,995,0,0
483,29,0,0,0,0,0,0,0,0,0,-1,1707,995,0,0
490,29,0,0,0,0,0,0,0,0,0,-1,1714,995,0,0
497,29,0,0,0,0,0,0,0,0,0,-1,1721,995,0,0
504,29,0,0,0,0,0,0,0,0,0,-1,1728,995,0,0
511,29,0,0,0,0,0,0,0,0,0,-1,1735,995,0,0
518,29,0,0,0,0,0,0,0,0,0,-1,1742,995,0,0
525,29,0,0,0,0,0,0,0,0,0,-1,1749,995,0,0
532,29,0,0,0,0,0,0,0,0,0,-1,1756,995,0,0
539,29,0,0,0,0,0,0,0,0,0,-1,1763,995,0,0
546,29,0,0,0,0,0,0,0,0,0,-1,1770,995,0,0
553,29,0,0,0,0,0,0,0,0,0,-1,1777,995,0,0
560,29,0,0,0,0,0,0,0,0,0,-1,1784,995,0,0
567,29,0,0,0,0,0,0,0,0,0,-1,1791,995,0,0
574,29,0,0,0,0,0,0,0,0,0,-1,1798,995,0,0
581,29,0,0,0,0,0,0,0,0,0,-1,1805,995,0,0
588,29,0,0,0,0,0,0,0,0,0,-1,1812,995,0,0
595,29,0,0,0,0,0,0,0,0,0,-1,1819,995,0,0
602,29,0,0,0,0,0,0,0,0,0,-1,1826,995,0,0
609,29,0,0,0,0,0,0,0,0,0,-1,1833,995,0,0
616,29,0,0,0,0,0,0,0,0,0,-1,1840,995,0,0
623,29,0,0,0,0,0,0,0,0,0,-1,1847,995,0,0
630,29,0,0,0,0,0,0,0,0,0,-1,1854,995,0,0
637,29,0,0,0,0,0,0,0,0,0,-1,1861,995,0,0
644,29,35.795,2.55396,-0.00167083,0.000375908,-0.0010408,0.00081218,-0.0021071,-1.17387,0.00173984,0.0407169,1868,995,35.795,-2.55398
651,29,35.546,2.7771,-0.00177013,-0.000210304,-0.000858593,0.000169716,-0.00215015,-1.15411,0.00149323,0.0405971,1875,995,35.546,-2.7771
658,29,35.6227,2.72717,-0.00169518,-0.000612952,-0.000617142,-0.000333294,-0.00197484,-1.14533,0.00122073,0.0398977,1882,995,35.6227,-2.72716
665,29,35.8107,2.70233,-0.00147184,-0.000771974,-0.000249017,-0.000692416,-0.00155139,-1.26156,0.000897417,0.0388687,1889,995,35.8107,-2.70234
672,29,35.7415,2.60791,-0.001171,-0.00083807,0.000245902,-0.000707585,-0.00130148,1.08294,0.000752365,0.0363154,1896,995,35.7415,-2.60788
679,29,35.6578,2.48907,-0.00092472,-0.000741076,0.000827857,3.54485e-08,-0.00166583,0.84063,0.00111057,0.0374792,1903,995,35.6578,-2.48904
686,29,35.6382,2.55286,-0.000614634,-0.000724678,0.00130195,0.000633456,-0.00197277,0.76428,0.00156954,0.0373035,1910,995,35.6381,-2.55287
693,29,35.6129,2.53503,-0.000368632,-0.000698818,0.00165924,0.0011337,-0.00220115,0.735812,0.00195798,0.0369013,1917,995,35.6129,-2.53506
700,29,35.6245,2.53851,-0.00020406,-0.000511441,0.00180622,0.001455,-0.0021705,0.742956,0.00210673,0.0337267,1924,995,35.6245,-2.53853
707,29,35.6549,2.55475,-0.000256001,-0.000234122,0.00184294,0.00159791,-0.00208804,0.788366,0.00213435,0.0229625,1931,995,35.6549,-2.55473
714,29,35.6824,2.85797,-0.000565191,0.000144069,0.00179274,0.00161692,-0.00203804,0.883045,0.00211486,0.0345052,1938,995,35.6824,-2.85797
721,29,35.3221,4.19659,0,0,0,0,0,0,0,-1,1945,995,35.3221,-4.19658
728,29,35.1681,4.48224,-0.00147756,0.00141368,0.00152903,0.00207228,-0.00213616,1.16408,0.00242984,0.0258556,1952,995,35.1681,-4.48226
735,29,35.0726,4.71094,-0.00150834,0.00207758,0.00103134,0.00235304,-0.0017838,1.3098,0.00239593,0.0163575,1959,995,35.0726,-4.71092
742,29,35.0817,4.77612,-0.00199088,0.00296158,0.000504066,0.00301236,-0.00204167,1.47039,0.00293583,0.0128072,1966,995,35.0817,-4.77614
749,29,35.0841,4.88055,-0.00245322,0.00381701,-0.000285717,0.00383,-0.00246621,-1.52535,0.00366344,0.0129913,1973,995,35.0841,-4.88058
756,29,35.0812,5.02466,-0.00267338,0.0048642,-0.00128673,0.00507781,-0.00288698,-1.40629,0.0046561,0.0125734,1980,995,35.0812,-5.02468
763,29,35.0555,5.10486,-0.00287797,0.00620443,-0.00252394,0.00685869,-0.00353223,-1.31716,0.00610081,0.0125924,1987,995,35.0556,-5.10489
770,29,34.9771,5.18793,-0.00246877,0.00758578,-0.00400946,0.00898885,-0.00387183,-1.23418,0.00761851,0.0155065,1994,995,34.9771,-5.18791
777,29,34.8732,5.42072,-0.00164455,0.00888776,-0.00565453,0.0113486,-0.00410536,-1.16032,0.00924324,0.0253188,2001,995,34.8732,-5.42069
784,29,34.8286,5.70264,-0.000572386,0.0100709,-0.0074715,0.0139222,-0.00442369,-1.09485,0.0110551,0.0450679,2008,995,34.8286,-5.70261
791,29,34.8484,5.9472,0,0,0,0,0,0,0,-1,2015,995,34.8483,-5.94718
798,29,34.8279,6.17615,0,0,0,0,0,0,0,-1,2022,995,34.828,-6.17613
805,29,34.2288,4.62946,0,0,0,0,0,0,0,-1,2029,995,34.2289,-4.62948
812,29,34.4919,4.64191,0,0,0,0,0,0,0,-1,2036,995,34.4919,-4.6419
-700,22,0,0,0,0,0,0,0,0,0,-1,524,1002,0,0
-693,22,-25.2644,-1.16852,0.0672917,-0.0874229,0.0180321,0.0693655,-0.0894967,0.114506,0.0919643,0.0433554,531,1002,-25.2644,1.16851
-686,22,-24.5378,-1.68127,0.052776,-0.0625679,0.022169,0.0568901,-0.066682,0.183493,0.071419,0.0437293,538,1002,-24.5378,1.68128
-679,22,-24.2178,-1.66711,0,0,0,0,0,0,0,-1,545,1002,-24.2178,1.66712
-672,22,-24.6107,-0.827881,0.0300544,-0.0277388,0.0223593,0.0376947,-0.0353792,0.32927,0.0421963,0.0476458,552,1002,-24.6106,0.827889
-665,22,-25.1703,0.167908,0.0217862,-0.0159796,0.0201597,0.0305254,-0.0247187,0.409045,0.0319539,0.0447191,559,1002,-25.1703,-0.167915
-658,22,-25.4943,0.778809,0.0151641,-0.00728664,0.0172374,0.024509,-0.0166316,0.496781,0.0238972,0.0452493,566,1002,-25.4943,-0.778782
-651,22,-25.645,1.39008,0,0,0,0,0,0,0,-1,573,1002,-25.645,-1.39005
-644,22,-25.8588,1.99457,0.00615078,0.00259826,0.0106316,0.0151535,-0.00640447,0.702626,0.0127836,0.0266507,580,1002,-25.8588,-1.99458
-637,22,-26.0107,2.32727,0.00244554,0.0060351,0.0073552,0.0118113,-0.00333068,0.905067,0.00918793,0.0181526,587,1002,-26.0108,-2.32726
-630,22,-26.0425,2.32227,0.000193982,0.00817762,0.00377897,0.00968264,-0.00131104,1.19179,0.00693355,0.0121974,594,1002,-26.0425,-2.32229
-623,22,-26.0604,2.27655,-0.000783298,0.00840694,-1.54558e-05,0.00840696,-0.000783324,-1.56911,0.00588316,0.0101495,601,1002,-26.0604,-2.27654
-616,22,-26.0631,2.19617,-0.000790863,0.0067834,-0.00274865,0.00767574,-0.0016832,-1.25688,0.00576078,0.0163739,608,1002,-26.0631,-2.19618
-609,22,-26.0773,2.12915,-0.000699436,0.0054314,-0.00481244,0.0080718,-0.00333984,-1.06898,0.00677469,0.0252698,615,1002,-26.0773,-2.12915
-602,22,-26.0803,2.05658,-0.000494439,0.00363606,-0.00635883,0.00825662,-0.00511499,-0.942417,0.0077908,0.0243915,622,1002,-26.0803,-2.05661
-595,22,-26.0235,1.90924,-0.000918321,0.00291016,-0.00687746,0.00813481,-0.00614297,-0.92113,0.00826998,0.0224576,629,1002,-26.0235,-1.90922
-588,22,-25.9156,1.41461,-0.00108453,0.00234629,-0.0072726,0.00810305,-0.00684129,-0.901218,0.00863837,0.0334989,636,1002,-25.9156,-1.41463
-581,22,-25.8819,0.869873,-0.00113487,0.0019982,-0.00734101,0.00793796,-0.00707463,-0.890519,0.0086723,0.0419117,643,1002,-25.8819,-0.86986
-574,22,-25.9323,0.603821,-0.00140835,0.00164002,-0.00691472,0.00719655,-0.00696488,-0.893876,0.00817647,0.0337715,650,1002,-25.9323,-0.603832
-567,22,-25.9008,0.65509,-0.00198843,0.00128679,-0.00590381,0.00577591,-0.00647754,-0.920688,0.0070784,0.0324533,657,1002,-25.9008,-0.655092
-560,22,-25.8671,0.851807,-0.00256203,0.000843819,-0.00439928,0.00385826,-0.00557648,-0.970063,0.00547718,0.0382916,664,1002,-25.8671,-0.851792
-553,22,-26.0031,0.998413,-0.00302795,0.000244047,-0.00252231,0.00161446,-0.00439837,-1.0731,0.0035934,0.0418128,671,1002,-26.0031,-0.99843
-546,22,-25.98,0.765869,-0.00313995,-0.000603109,-0.000424606,-0.000533926,-0.00320913,-1.40928,0.00198552,0.0436355,678,1002,-25.98,-0.765843
-539,22,-26.0648,0.636963,-0.002632,-0.00130899,0.0012609,-0.000546604,-0.00339439,1.02698,0.00210452,0.0437687,685,1002,-26.0648,-0.63699
-532,22,-26.1554,0.910278,-0.0014149,-0.00150559,0.0009305,-0.000528639,-0.00239185,0.761051,0.00145082,0.0455071,692,1002,-26.1554,-0.910257
-525,22,0,0,0,0,0,0,0,0,0,-1,699,1002,0,0
-518,22,0,0,0,0,0,0,0,0,0,-1,706,1002,0,0
-511,22,0,0,0,0,0,0,0,0,0,-1,713,1002,0,0
-504,22,0,0,0,0,0,0,0,0,0,-1,720,1002,0,0
-497,22,0,0,0,0,0,0,0,0,0,-1,727,1002,0,0
-490,22,0,0,0,0,0,0,0,0,0,-1,734,1002,0,0
-483,22,0,0,0,0,0,0,0,0,0,-1,741,1002,0,0
-476,22,0,0,0,0,0,0,0,0,0,-1,748,1002,0,0
-469,22,0,0,0,0,0,0,0,0,0,-1,755,1002,0,0
-462,22,0,0,0,0,0,0,0,0,0,-1,762,1002,0,0
-455,22,0,0,0,0,0,0,0,0,0,-1,769,1002,0,0
-448,22,0,0,0,0,0,0,0,0,0,-1,776,1002,0,0
-441,22,0,0,0,0,0,0,0,0,0,-1,783,1002,0,0
-434,22,0,0,0,0,0,0,0,0,0,-1,790,1002,0,0
-427,22,0,0,0,0,0,0,0,0,0,-1,797,1002,0,0
-420,22,0,0,0,0,0,0,0,0,0,-1,804,1002,0,0
-413,22,0,0,0,0,0,0,0,0,0,-1,811,1002,0,0
-406,22,0,0,0,0,0,0,0,0,0,-1,818,1002,0,0
-399,22,0,0,0,0,0,0,0,0,0,-1,825,1002,0,0
-392,22,0,0,0,0,0,0,0,0,0,-1,832,1002,0,0
-385,22,0,0,0,0,0,0,0,0,0,-1,839,1002,0,0
-378,22,0,0,0,0,0,0,0,0,0,-1,846,1002,0,0
-371,22,0,0,0,0,0,0,0,0,0,-1,853,1002,0,0
-364,22,0,0,0,0,0,0,0,0,0,-1,860,1002,0,0
-357,22,0,0,0,0,0,0,0,0,0,-1,867,1002,0,0
-350,22,0,0,0,0,0,0,0,0,0,-1,874,1002,0,0
-343,22,0,0,0,0,0,0,0,0,0,-1,881,1002,0,0
-336,22,0,0,0,0,0,0,0,0,0,-1,888,1002,0,0
-329,22,0,0,0,0,0,0,0,0,0,-1,895,1002,0,0
-322,22,0,0,0,0,0,0,0,0,0,-1,902,1002,0,0
-315,22,0,0,0,0,0,0,0,0,0,-1,909,1002,0,0
-308,22,0,0,0,0,0,0,0,0,0,-1,916,1002,0,0
-301,22,0,0,0,0,0,0,0,0,0,-1,923,1002,0,0
-294,22,0,0,0,0,0,0,0,0,0,-1,930,1002,0,0
-287,22,0,0,0,0,0,0,0,0,0,-1,937,1002,0,0
-280,22,0,0,0,0,0,0,0,0,0,-1,944,1002,0,0
-273,22,0,0,0,0,0,0,0,0,0,-1,951,1002,0,0
-266,22,0,0,0,0,0,0,0,0,0,-1,958,1002,0,0
-259,22,0,0,0,0,0,0,0,0,0,-1,965,1002,0,0
-252,22,0,0,0,0,0,0,0,0,0,-1,972,1002,0,0
-245,22,0,0,0,0,0,0,0,0,0,-1,979,1002,0,0
-238,22,0,0,0,0,0,0,0,0,0,-1,986,1002,0,0
-231,22,0,0,0,0,0,0,0,0,0,-1,993,1002,0,0
-224,22,0,0,0,0,0,0,0,0,0,-1,1000,1002,0,0
-217,22,0,0,0,0,0,0,0,0,0,-1,1007,1002,0,0
-210,22,0,0,0,0,0,0,0,0,0,-1,1014,1002,0,0
-203,22,0,0,0,0,0,0,0,0,0,-1,1021,1002,0,0
-196,22,0,0,0,0,0,0,0,0,0,-1,1028,1002,0,0
-189,22,0,0,0,0,0,0,0,0,0,-1,1035,1002,0,0
-182,22,0,0,0,0,0,0,0,0,0,-1,1042,1002,0,0
-175,22,0,0,0,0,0,0,0,0,0,-1,1049,1002,0,0
-168,22,0,0,0,0,0,0,0,0,0,-1,1056,1002,0,0
-161,22,0,0,0,0,0,0,0,0,0,-1,1063,1002,0,0
-154,22,0,0,0,0,0,0,0,0,0,-1,1070,1002,0,0
-147,22,0,0,0,0,0,0,0,0,0,-1,1077,1002,0,0
-140,22,0,0,0,0,0,0,0,0,0,-1,1084,1002,0,0
-133,22,0,0,0,0,0,0,0,0,0,-1,1091,1002,0,0
-126,22,0,0,0,0,0,0,0,0,0,-1,1098,1002,0,0
-119,22,0,0,0,0,0,0,0,0,0,-1,1105,1002,0,0
-112,22,0,0,0,0,0,0,0,0,0,-1,1112,1002,0,0
-105,22,0,0,0,0,0,0,0,0,0,-1,1119,1002,0,0
-98,22,0,0,0,0,0,0,0,0,0,-1,1126,1002,0,0
-91,22,0,0,0,0,0,0,0,0,0,-1,1133,1002,0,0
-84,22,0,0,0,0,0,0,0,0,0,-1,1140,1002,0,0
-77,22,0,0,0,0,0,0,0,0,0,-1,1147,1002,0,0
-70,22,0,0,0,0,0,0,0,0,0,-1,1154,1002,0,0
-63,22,0,0,0,0,0,0,0,0,0,-1,1161,1002,0,0
-56,22,0,0,0,0,0,0,0,0,0,-1,1168,1002,0,0
-49,22,0,0,0,0,0,0,0,0,0,-1,1175,1002,0,0
-42,22,0,0,0,0,0,0,0,0,0,-1,1182,1002,0,0
-35,22,0,0,0,0,0,0,0,0,0,-1,1189,1002,0,0
-28,22,0,0,0,0,0,0,0,0,0,-1,1196,1002,0,0
-21,22,0,0,0,0,0,0,0,0,0,-1,1203,1002,0,0
-14,22,0,0,0,0,0,0,0,0,0,-1,1210,1002,0,0
-7,22,0,0,0,0,0,0,0,0,0,-1,1217,1002,0,0
0,22,0,0,0,0,0,0,0,0,0,-1,1224,1002,0,0
7,22,0,0,0,0,0,0,0,0,0,-1,1231,1002,0,0
14,22,0,0,0,0,0,0,0,0,0,-1,1238,1002,0,0
21,22,0,0,0,0,0,0,0,0,0,-1,1245,1002,0,0
28,22,0,0,0,0,0,0,0,0,0,-1,1252,1002,0,0
35,22,0,0,0,0,0,0,0,0,0,-1,1259,1002,0,0
42,22,0,0,0,0,0,0,0,0,0,-1,1266,1002,0,0
49,22,0,0,0,0,0,0,0,0,0,-1,1273,1002,0,0
56,22,0,0,0,0,0,0,0,0,0,-1,1280,1002,0,0
63,22,0,0,0,0,0,0,0,0,0,-1,1287,1002,0,0
70,22,0,0,0,0,0,0,0,0,0,-1,1294,1002,0,0
77,22,0,0,0,0,0,0,0,0,0,-1,1301,1002,0,0
84,22,0,0,0,0,0,0,0,0,0,-1,1308,1002,0,0
91,22,0,0,0,0,0,0,0,0,0,-1,1315,1002,0,0
98,22,0,0,0,0,0,0,0,0,0,-1,1322,1002,0,0
105,22,0,0,0,0,0,0,0,0,0,-1,1329,1002,0,0
112,22,0,0,0,0,0,0,0,0,0,-1,1336,1002,0,0
119,22,0,0,0,0,0,0,0,0,0,-1,1343,1002,0,0
126,22,0,0,0,0,0,0,0,0,0,-1,1350,1002,0,0
133,22,0,0,0,0,0,0,0,0,0,-1,1357,1002,0,0
140,22,0,0,0,0,0,0,0,0,0,-1,1364,1002,0,0
147,22,0,0,0,0,0,0,0,0,0,-1,1371,1002,0,0
154,22,0,0,0,0,0,0,0,0,0,-1,1378,1002,0,0
161,22,0,0,0,0,0,0,0,0,0,-1,1385,1002,0,0
168,22,0,0,0,0,0,0,0,0,0,-1,1392,1002,0,0
175,22,0,0,0,0,0,0,0,0,0,-1,1399,1002,0,0
182,22,0,0,0,0,0,0,0,0,0,-1,1406,1002,0,0
189,22,0,0,0,0,0,0,0,0,0,-1,1413,1002,0,0
196,22,0,0,0,0,0,0,0,0,0,-1,1420,1002,0,0
203,22,0,0,0,0,0,0,0,0,0,-1,1427,1002,0,0
210,22,0,0,0,0,0,0,0,0,0,-1,1434,1002,0,0
217,22,0,0,0,0,0,0,0,0,0,-1,1441,1002,0,0
224,22,0,0,0,0,0,0,0,0,0,-1,1448,1002,0,0
231,22,0,0,0,0,0,0,0,0,0,-1,1455,1002,0,0
238,22,0,0,0,0,0,0,0,0,0,-1,1462,1002,0,0
245,22,0,0,0,0,0,0,0,0,0,-1,1469,1002,0,0
252,22,0,0,0,0,0,0,0,0,0,-1,1476,1002,0,0
259,22,0,0,0,0,0,0,0,0,0,-1,1483,1002,0,0
266,22,0,0,0,0,0,0,0,0,0,-1,1490,1002,0,0
273,22,0,0,0,0,0,0,0,0,0,-1,1497,1002,0,0
280,22,0,0,0,0,0,0,0,0,0,-1,1504,1002,0,0
287,22,0,0,0,0,0,0,0,0,0,-1,1511,1002,0,0
294,22,0,0,0,0,0,0,0,0,0,-1,1518,1002,0,0
301,22,0,0,0,0,0,0,0,0,0,-1,1525,1002,0,0
308,22,0,0,0,0,0,0,0,0,0,-1,1532,1002,0,0
315,22,0,0,0,0,0,0,0,0,0,-1,1539,1002,0,0
322,22,0,0,0,0,0,0,0,0,0,-1,1546,1002,0,0
329,22,0,0,0,0,0,0,0,0,0,-1,1553,1002,0,0
336,22,0,0,0,0,0,0,0,0,0,-1,1560,1002,0,0
343,22,0,0,0,0,0,0,0,0,0,-1,1567,1002,0,0
350,22,0,0,0,0,0,0,0,0,0,-1,1574,1002,0,0
357,22,0,0,0,0,0,0,0,0,0,-1,1581,1002,0,0
364,22,0,0,0,0,0,0,0,0,0,-1,1588,1002,0,0
371,22,0,0,0,0,0,0,0,0,0,-1,1595,1002,0,0
378,22,0,0,0,0,0,0,0,0,0,-1,1602,1002,0,0
385,22,0,0,0,0,0,0,0,0,0,-1,1609,1002,0,0
392,22,0,0,0,0,0,0,0,0,0,-1,1616,1002,0,0
399,22,0,0,0,0,0,0,0,0,0,-1,1623,1002,0,0
406,22,0,0,0,0,0,0,0,0,0,-1,1630,1002,0,0
413,22,0,0,0,0,0,0,0,0,0,-1,1637,1002,0,0
420,22,0,0,0,0,0,0,0,0,0,-1,1644,1002,0,0
427,22,0,0,0,0,0,0,0,0,0,-1,1651,1002,0,0
434,22,0,0,0,0,0,0,0,0,0,-1,1658,1002,0,0
441,22,0,0,0,0,0,0,0,0,0,-1,1665,1002,0,0
448,22,0,0,0,0,0,0,0,0,0,-1,1672,1002,0,0
455,22,0,0,0,0,0,0,0,0,0,-1,1679,1002,0,0
462,22,0,0,0,0,0,0,0,0,0,-1,1686,1002,0,0
469,22,0,0,0,0,0,0,0,0,0,-1,1693,1002,0,0
476,22,0,0,0,0,0,0,0,0,0,-1,1700,1002,0,0
483,22,0,0,0,0,0,0,0,0,0,-1,1707,1002,0,0
490,22,0,0,0,0,0,0,0,0,0,-1,1714,1002,0,0
497,22,0,0,0,0,0,0,0,0,0,-1,1721,1002,0,0
504,22,0,0,0,0,0,0,0,0,0,-1,1728,1002,0,0
511,22,0,0,0,0,0,0,0,0,0,-1,1735,1002,0,0
518,22,0,0,0,0,0,0,0,0,0,-1,1742,1002,0,0
525,22,0,0,0,0,0,0,0,0,0,-1,1749,1002,0,0
532,22,0,0,0,0,0,0,0,0,0,-1,1756,1002,0,0
539,22,0,0,0,0,0,0,0,0,0,-1,1763,1002,0,0
546,22,0,0,0,0,0,0,0,0,0,-1,1770,1002,0,0
553,22,0,0,0,0,0,0,0,0,0,-1,1777,1002,0,0
560,22,0,0,0,0,0,0,0,0,0,-1,1784,1002,0,0
567,22,0,0,0,0,0,0,0,0,0,-1,1791,1002,0,0
574,22,0,0,0,0,0,0,0,0,0,-1,1798,1002,0,0
581,22,0,0,0,0,0,0,0,0,0,-1,1805,1002,0,0
588,22,0,0,0,0,0,0,0,0,0,-1,1812,1002,0,0
595,22,0,0,0,0,0,0,0,0,0,-1,1819,1002,0,0
602,22,0,0,0,0,0,0,0,0,0,-1,1826,1002,0,0
609,22,0,0,0,0,0,0,0,0,0,-1,1833,1002,0,0
616,22,0,0,0,0,0,0,0,0,0,-1,1840,1002,0,0
623,22,0,0,0,0,0,0,0,0,0,-1,1847,1002,0,0
630,22,0,0,0,0,0,0,0,0,0,-1,1854,1002,0,0
637,22,0,0,0,0,0,0,0,0,0,-1,1861,1002,0,0
644,22,35.826,2.71796,-0.00313715,-9.1196e-05,0.000527906,-2.29687e-06,-0.00322604,1.40396,0.00214993,0.0393695,1868,1002,35.8261,-2.71793
651,22,35.7007,2.79083,-0.00284344,-0.000622579,0.000184936,-0.000607285,-0.00285873,1.48828,0.0017391,0.0408558,1875,1002,35.7007,-2.79082
658,22,35.6609,2.62689,-0.00243435,-0.000991039,4.67175e-05,-0.000989529,-0.00243586,1.53847,0.00141457,0.0405584,1882,1002,35.6609,-2.62691
665,22,35.6573,2.54071,-0.00197129,-0.00113368,0.000141169,-0.00111053,-0.00199444,1.40824,0.00115397,0.0374385,1889,1002,35.6574,-2.5407
672,22,35.6818,2.44324,-0.00147101,-0.00118005,0.000440933,-0.00086122,-0.00178985,0.944744,0.00103361,0.0357551,1896,1002,35.6817,-2.44321
679,22,35.6396,2.45197,-0.00105973,-0.00104756,0.000901037,-0.000152589,-0.0019547,0.788776,0.00125537,0.0373333,1903,1002,35.6396,-2.45195
686,22,35.641,2.56238,-0.000659583,-0.00099191,0.00132141,0.00050607,-0.00215756,0.722853,0.00163341,0.0377295,1910,1002,35.641,-2.56239
693,22,35.614,2.67395,-0.000342364,-0.00090267,0.00164501,0.00104617,-0.00229121,0.701055,0.00197103,0.0378669,1917,1002,35.614,-2.67396
700,22,35.626,2.63434,-0.000120897,-0.00069744,0.00181402,0.00142761,-0.00224595,0.7066,0.0021384,0.0331931,1924,1002,35.626,-2.63433
707,22,35.6206,2.49298,-0.000148728,-0.000417802,0.00189076,0.00161228,-0.00217881,0.749881,0.00219692,0.0306998,1931,1002,35.6205,-2.493
714,22,35.6536,2.62415,-0.000452949,-2.86302e-06,0.00188317,0.00166866,-0.00212447,0.844867,0.00219523,0.0333286,1938,1002,35.6536,-2.62413
721,22,35.5093,3.55865,0,0,0,0,0,0,0,-1,1945,1002,35.5093,-3.55868
728,22,35.1995,4.29108,-0.00138791,0.00134128,0.00167279,0.00213547,-0.0021821,1.12754,0.00249279,0.0350081,1952,1002,35.1994,-4.29111
735,22,35.2177,4.72845,-0.0014538,0.00199502,0.00126662,0.00241022,-0.001869,1.25404,0.00247718,0.0165717,1959,1002,35.2177,-4.72848
742,22,35.2397,4.80463,-0.00195513,0.00285835,0.000846865,0.003003,-0.00209977,1.40163,0.00296143,0.0158429,1966,1002,35.2397,-4.8046
749,22,35.198,4.87842,-0.00246054,0.00372733,0.000116858,0.00372954,-0.00246275,1.55192,0.00359997,0.0122803,1973,1002,35.198,-4.87841
756,22,35.1837,4.98151,-0.0027567,0.004813,-0.000824952,0.00490187,-0.00284556,-1.46349,0.00452519,0.0175064,1980,1002,35.1837,-4.9815
763,22,35.1404,5.09003,-0.00311212,0.00624226,-0.00201139,0.00665642,-0.00352627,-1.36773,0.00597085,0.0192865,1987,1002,35.1404,-5.09005
770,22,35.0284,5.14264,-0.00290852,0.00773945,-0.00346928,0.00877005,-0.00393912,-1.28204,0.00751226,0.0180342,1994,1002,35.0285,-5.14264
777,22,34.791,5.17841,-0.00234392,0.00926921,-0.00510111,0.0111917,-0.00426636,-1.21039,0.0092184,0.0376774,2001,1002,34.791,-5.17841
784,22,34.7549,5.37811,0,0,0,0,0,0,0,-1,2008,1002,34.7549,-5.37809
791,22,34.7573,5.57886,0,0,0,0,0,0,0,-1,2015,1002,34.7573,-5.57886
798,22,34.146,3.8313,0,0,0,0,0,0,0,-1,2022,1002,34.1459,-3.83128
805,22,34.4006,3.71271,0,0,0,0,0,0,0,-1,2029,1002,34.4005,-3.71272
812,22,34.5718,3.5058,0,0,0,0,0,0,0,-1,2036,1002,34.5717,-3.50581
-700,15,0,0,0,0,0,0,0,0,0,-1,524,1009,0,0
-693,15,-25.4318,-0.667664,0.062715,-0.091819,0.0284271,0.0677784,-0.0968823,0.176269,0.0955606,0.0462361,531,1009,-25.4318,0.667667
-686,15,-24.6497,-1.05676,0.0497887,-0.0673122,0.030043,0.0570466,-0.0745701,0.237041,0.0762131,0.0437263,538,1009,-24.6497,1.05678
-679,15,-24.0385,-1.37518,0.0384202,-0.0477968,0.029139,0.0473446,-0.0567212,0.297199,0.0601637,0.0482414,545,1009,-24.0385,1.3752
-672,15,-24.4858,-1.69342,0,0,0,0,0,0,0,-1,552,1009,-24.4858,1.69344
-665,15,-25.1012,-0.713074,0,0,0,0,0,0,0,-1,559,1009,-25.1012,0.713096
-658,15,-25.5741,0.317322,0,0,0,0,0,0,0,-1,566,1009,-25.5741,-0.317322
-651,15,-25.7414,1.08948,0,0,0,0,0,0,0,-1,573,1009,-25.7414,-1.08947
-644,15,-25.7888,1.8183,0.00604563,0.00027751,0.0114876,0.0150057,-0.00868257,0.662411,0.0138379,0.0443954,580,1009,-25.7888,-1.81829
-637,15,-26.0269,2.26532,0.00247121,0.00426821,0.00760527,0.0110279,-0.00428844,0.844196,0.00912377,0.0244754,587,1009,-26.0269,-2.2653
-630,15,-26.0563,2.27838,0.000293367,0.00687743,0.00363661,0.00849074,-0.00131995,1.15325,0.00614789,0.0127803,594,1009,-26.0563,-2.27837
-623,15,-26.0948,2.24182,-0.000641317,0.00752272,-0.000393653,0.00754166,-0.000660254,-1.52273,0.00526169,0.00887282,601,1009,-26.0948,-2.24181
-616,15,-26.1271,2.19788,-0.000675956,0.0062132,-0.00322976,0.00749054,-0.00195329,-1.19418,0.00575634,0.0141174,608,1009,-26.1271,-2.19786
-609,15,-26.1196,2.15234,-0.000518721,0.00500308,-0.00532798,0.008243,-0.00375865,-1.02444,0.00708855,0.0203844,615,1009,-26.1196,-2.15235
-602,15,-26.09,2.08423,-9.99832e-05,0.00330038,-0.00692522,0.00873107,-0.00553068,-0.90577,0.00830284,0.0200705,622,1009,-26.09,-2.08422
-595,15,-25.9889,1.62244,-0.000293608,0.00258972,-0.00749411,0.00877957,-0.00648346,-0.880424,0.00884529,0.0332947,629,1009,-25.9889,-1.62244
-588,15,-25.7733,1.08643,-0.000299569,0.00205392,-0.00786417,0.0088289,-0.00707455,-0.859664,0.00920046,0.0394777,636,1009,-25.7733,-1.08641
-581,15,-25.9037,0.662292,-0.000281759,0.00179288,-0.00787931,0.00870286,-0.00719174,-0.850847,0.00919056,0.0381081,643,1009,-25.9037,-0.662307
-574,15,-25.8975,0.598938,-0.000577421,0.00150072,-0.00735607,0.00789074,-0.00696744,-0.855561,0.00858389,0.0326575,650,1009,-25.8975,-0.598945
-567,15,-25.9067,0.64624,-0.00121994,0.00125951,-0.00620833,0.00635069,-0.00631112,-0.883946,0.00731031,0.0321687,657,1009,-25.9067,-0.646255
-560,15,-25.8527,0.839478,-0.00195984,0.000987402,-0.00452389,0.00427163,-0.00524407,-0.94285,0.00550345,0.0379628,664,1009,-25.8527,-0.839447
-553,15,-25.8749,0.924438,-0.00274293,0.000620565,-0.00243164,0.00189536,-0.00401772,-1.08793,0.00348645,0.0423481,671,1009,-25.8749,-0.924444
-546,15,-25.9088,0.47345,-0.00335821,7.89706e-05,-9.04849e-05,8.13509e-05,-0.00336059,-1.5445,0.002268,0.0456882,678,1009,-25.9088,-0.473446
-539,15,-25.9995,0.519836,-0.00354698,-0.000176415,0.00174675,0.000565507,-0.0042889,1.16914,0.00306521,0.0456386,685,1009,-25.9995,-0.519831
-532,15,-26.0232,0.759766,-0.00316785,0.00023162,0.00130665,0.000675813,-0.00361204,1.2431,0.00266205,0.0451648,692,1009,-26.0232,-0.75978
-525,15,0,0,0,0,0,0,0,0,0,-1,699,1009,0,0
-518,15,0,0,0,0,0,0,0,0,0,-1,706,1009,0,0
-511,15,0,0,0,0,0,0,0,0,0,-1,713,1009,0,0
-504,15,0,0,0,0,0,0,0,0,0,-1,720,1009,0,0
-497,15,0,0,0,0,0,0,0,0,0,-1,727,1009,0,0
-490,15,0,0,0,0,0,0,0,0,0,-1,734,1009,0,0
-483,15,0,0,0,0,0,0,0,0,0,-1,741,1009,0,0
-476,15,0,0,0,0,0,0,0,0,0,-1,748,1009,0,0
-469,15,0,0,0,0,0,0,0,0,0,-1,755,1009,0,0
-462,15,0,0,0,0,0,0,0,0,0,-1,762,1009,0,0
-455,15,0,0,0,0,0,0,0,0,0,-1,769,1009,0,0
-448,15,0,0,0,0,0,0,0,0,0,-1,776,1009,0,0
-441,15,0,0,0,0,0,0,0,0,0,-1,783,1009,0,0
-434,15,0,0,0,0,0,0,0,0,0,-1,790,1009,0,0
-427,15,0,0,0,0,0,0,0,0,0,-1,797,1009,0,0
-420,15,0,0,0,0,0,0,0,0,0,-1,804,1009,0,0
-413,15,0,0,0,0,0,0,0,0,0,-1,811,1009,0,0
-406,15,0,0,0,0,0,0,0,0,0,-1,818,1009,0,0
-399,15,0,0,0,0,0,0,0,0,0,-1,825,1009,0,0
-392,15,0,0,0,0,0,0,0,0,0,-1,832,1009,0,0
-385,15,0,0,0,0,0,0,0,0,0,-1,839,1009,0,0
-378,15,0,0,0,0,0,0,0,0,0,-1,846,1009,0,0
-371,15,0,0,0,0,0,0,0,0,0,-1,853,1009,0,0
-364,15,0,0,0,0,0,0,0,0,0,-1,860,1009,0,0
-357,15,0,0,0,0,0,0,0,0,0,-1,867,1009,0,0
-350,15,0,0,0,0,0,0,0,0,0,-1,874,1009,0,0
-343,15,0,0,0,0,0,0,0,0,0,-1,881,1009,0,0
-336,15,0,0,0,0,0,0,0,0,0,-1,888,1009,0,0
-329,15,0,0,0,0,0,0,0,0,0,-1,895,1009,0,0
-322,15,0,0,0,0,0,0,0,0,0,-1,902,1009,0,0
-315,15,0,0,0,0,0,0,0,0,0,-1,909,1009,0,0
-308,15,0,0,0,0,0,0,0,0,0,-1,916,1009,0,0
-301,15,0,0,0,0,0,0,0,0,0,-1,923,1009,0,0
-294,15,0,0,0,0,0,0,0,0,0,-1,930,1009,0,0
-287,15,0,0,0,0,0,0,0,0,0,-1,937,1009,0,0
-280,15,0,0,0,0,0,0,0,0,0,-1,944,1009,0,0
-273,15,0,0,0,0,0,0,0,0,0,-1,951,1009,0,0
-266,15,0,0,0,0,0,0,0,0,0,-1,958,1009,0,0
-259,15,0,0,0,0,0,0,0,0,0,-1,965,1009,0,0
-252,15,0,0,0,0,0,0,0,0,0,-1,972,1009,0,0
-245,15,0,0,0,0,0,0,0,0,0,-1,979,1009,0,0
-238,15,0,0,0,0,0,0,0,0,0,-1,986,1009,0,0
-231,15,0,0,0,0,0,0,0,0,0,-1,993,1009,0,0
-224,15,0,0,0,0,0,0,0,0,0,-1,1000,1009,0,0
-217,15,0,0,0,0,0,0,0,0,0,-1,1007,1009,0,0
-210,15,0,0,0,0,0,0,0,0,0,-1,1014,1009,0,0
-203,15,0,0,0,0,0,0,0,0,0,-1,1021,1009,0,0
-196,15,0,0,0,0,0,0,0,0,0,-1,1028,1009,0,0
-189,15,0,0,0,0,0,0,0,0,0,-1,1035,1009,0,0
-182,15,0,0,0,0,0,0,0,0,0,-1,1042,1009,0,0
-175,15,0,0,0,0,0,0,0,0,0,-1,1049,1009,0,0
-168,15,0,0,0,0,0,0,0,0,0,-1,1056,1009,0,0
-161,15,0,0,0,0,0,0,0,0,0,-1,1063,1009,0,0
-154,15,0,0,0,0,0,0,0,0,0,-1,1070,1009,0,0
-147,15,0,0,0,0,0,0,0,0,0,-1,1077,1009,0,0
-140,15,0,0,0,0,0,0,0,0,0,-1,1084,1009,0,0
-133,15,0,0,0,0,0,0,0,0,0,-1,1091,1009,0,0
-126,15,0,0,0,0,0,0,0,0,0,-1,1098,1009,0,0
-119,15,0,0,0,0,0,0,0,0,0,-1,1105,1009,0,0
-112,15,0,0,0,0,0,0,0,0,0,-1,1112,1009,0,0
-105,15,0,0,0,0,0,0,0,0,0,-1,1119,1009,0,0
-98,15,0,0,0,0,0,0,0,0,0,-1,1126,1009,0,0
-91,15,0,0,0,0,0,0,0,0,0,-1,1133,1009,0,0
-84,15,0,0,0,0,0,0,0,0,0,-1,1140,1009,0,0
-77,15,0,0,0,0,0,0,0,0,0,-1,1147,1009,0,0
-70,15,0,0,0,0,0,0,0,0,0,-1,1154,1009,0,0
-63,15,0,0,0,0,0,0,0,0,0,-1,1161,1009,0,0
-56,15,0,0,0,0,0,0,0,0,0,-1,1168,1009,0,0
-49,15,0,0,0,0,0,0,0,0,0,-1,1175,1009,0,0
-42,15,0,0,0,0,0,0,0,0,0,-1,1182,1009,0,0
-35,15,0,0,0,0,0,0,0,0,0,-1,1189,1009,0,0
-28,15,0,0,0,0,0,0,0,0,0,-1,1196,1009,0,0
-21,15,0,0,0,0,0,0,0,0,0,-1,1203,1009,0,0
-14,15,0,0,0,0,0,0,0,0,0,-1,1210,1009,0,0
-7,15,0,0,0,0,0,0,0,0,0,-1,1217,1009,0,0
0,15,0,0,0,0,0,0,0,0,0,-1,1224,1009,0,0
7,15,0,0,0,0,0,0,0,0,0,-1,1231,1009,0,0
14,15,0,0,0,0,0,0,0,0,0,-1,1238,1009,0,0
21,15,0,0,0,0,0,0,0,0,0,-1,1245,1009,0,0
28,15,0,0,0,0,0,0,0,0,0,-1,1252,1009,0,0
35,15,0,0,0,0,0,0,0,0,0,-1,1259,1009,0,0
42,15,0,0,0,0,0,0,0,0,0,-1,1266,1009,0,0
49,15,0,0,0,0,0,0,0,0,0,-1,1273,1009,0,0
56,15,0,0,0,0,0,0,0,0,0,-1,1280,1009,0,0
63,15,0,0,0,0,0,0,0,0,0,-1,1287,1009,0,0
70,15,0,0,0,0,0,0,0,0,0,-1,1294,1009,0,0
77,15,0,0,0,0,0,0,0,0,0,-1,1301,1009,0,0
84,15,0,0,0,0,0,0,0,0,0,-1,1308,1009,0,0
91,15,0,0,0,0,0,0,0,0,0,-1,1315,1009,0,0
98,15,0,0,0,0,0,0,0,0,0,-1,1322,1009,0,0
105,15,0,0,0,0,0,0,0,0,0,-1,1329,1009,0,0
112,15,0,0,0,0,0,0,0,0,0,-1,1336,1009,0,0
119,15,0,0,0,0,0,0,0,0,0,-1,1343,1009,0,0
126,15,0,0,0,0,0,0,0,0,0,-1,1350,1009,0,0
133,15,0,0,0,0,0,0,0,0,0,-1,1357,1009,0,0
140,15,0,0,0,0,0,0,0,0,0,-1,1364,1009,0,0
147,15,0,0,0,0,0,0,0,0,0,-1,1371,1009,0,0
154,15,0,0,0,0,0,0,0,0,0,-1,1378,1009,0,0
161,15,0,0,0,0,0,0,0,0,0,-1,1385,1009,0,0
168,15,0,0,0,0,0,0,0,0,0,-1,1392,1009,0,0
175,15,0,0,0,0,0,0,0,0,0,-1,1399,1009,0,0
182,15,0,0,0,0,0,0,0,0,0,-1,1406,1009,0,0
189,15,0,0,0,0,0,0,0,0,0,-1,1413,1009,0,0
196,15,0,0,0,0,0,0,0,0,0,-1,1420,1009,0,0
203,15,0,0,0,0,0,0,0,0,0,-1,1427,1009,0,0
210,15,0,0,0,0,0,0,0,0,0,-1,1434,1009,0,0
217,15,0,0,0,0,0,0,0,0,0,-1,1441,1009,0,0
224,15,0,0,0,0,0,0,0,0,0,-1,1448,1009,0,0
231,15,0,0,0,0,0,0,0,0,0,-1,1455,1009,0,0
238,15,0,0,0,0,0,0,0,0,0,-1,1462,1009,0,0
245,15,0,0,0,0,0,0,0,0,0,-1,1469,1009,0,0
252,15,0,0,0,0,0,0,0,0,0,-1,1476,1009,0,0
259,15,0,0,0,0,0,0,0,0,0,-1,1483,1009,0,0
266,15,0,0,0,0,0,0,0,0,0,-1,1490,1009,0,0
273,15,0,0,0,0,0,0,0,0,0,-1,1497,1009,0,0
280,15,0,0,0,0,0,0,0,0,0,-1,1504,1009,0,0
287,15,0,0,0,0,0,0,0,0,0,-1,1511,1009,0,0
294,15,0,0,0,0,0,0,0,0,0,-1,1518,1009,0,0
301,15,0,0,0,0,0,0,0,0,0,-1,1525,1009,0,0
308,15,0,0,0,0,0,0,0,0,0,-1,1532,1009,0,0
315,15,0,0,0,0,0,0,0,0,0,-1,1539,1009,0,0
322,15,0,0,0,0,0,0,0,0,0,-1,1546,1009,0,0
329,15,0,0,0,0,0,0,0,0,0,-1,1553,1009,0,0
336,15,0,0,0,0,0,0,0,0,0,-1,1560,1009,0,0
343,15,0,0,0,0,0,0,0,0,0,-1,1567,1009,0,0
350,15,0,0,0,0,0,0,0,0,0,-1,1574,1009,0,0
357,15,0,0,0,0,0,0,0,0,0,-1,1581,1009,0,0
364,15,0,0,0,0,0,0,0,0,0,-1,1588,1009,0,0
371,15,0,0,0,0,0,0,0,0,0,-1,1595,1009,0,0
378,15,0,0,0,0,0,0,0,0,0,-1,1602,1009,0,0
385,15,0,0,0,0,0,0,0,0,0,-1,1609,1009,0,0
392,15,0,0,0,0,0,0,0,0,0,-1,1616,1009,0,0
399,15,0,0,0,0,0,0,0,0,0,-1,1623,1009,0,0
406,15,0,0,0,0,0,0,0,0,0,-1,1630,1009,0,0
413,15,0,0,0,0,0,0,0,0,0,-1,1637,1009,0,0
420,15,0,0,0,0,0,0,0,0,0,-1,1644,1009,0,0
427,15,0,0,0,0,0,0,0,0,0,-1,1651,1009,0,0
434,15,0,0,0,0,0,0,0,0,0,-1,1658,1009,0,0
441,15,0,0,0,0,0,0,0,0,0,-1,1665,1009,0,0
448,15,0,0,0,0,0,0,0,0,0,-1,1672,1009,0,0
455,15,0,0,0,0,0,0,0,0,0,-1,1679,1009,0,0
462,15,0,0,0,0,0,0,0,0,0,-1,1686,1009,0,0
469,15,0,0,0,0,0,0,0,0,0,-1,1693,1009,0,0
476,15,0,0,0,0,0,0,0,0,0,-1,1700,1009,0,0
483,15,0,0,0,0,0,0,0,0,0,-1,1707,1009,0,0
490,15,0,0,0,0,0,0,0,0,0,-1,1714,1009,0,0
497,15,0,0,0,0,0,0,0,0,0,-1,1721,1009,0,0
504,15,0,0,0,0,0,0,0,0,0,-1,1728,1009,0,0
511,15,0,0,0,0,0,0,0,0,0,-1,1735,1009,0,0
518,15,0,0,0,0,0,0,0,0,0,-1,1742,1009,0,0
525,15,0,0,0,0,0,0,0,0,0,-1,1749,1009,0,0
532,15,0,0,0,0,0,0,0,0,0,-1,1756,1009,0,0
539,15,0,0,0,0,0,0,0,0,0,-1,1763,1009,0,0
546,15,0,0,0,0,0,0,0,0,0,-1,1770,1009,0,0
553,15,0,0,0,0,0,0,0,0,0,-1,1777,1009,0,0
560,15,0,0,0,0,0,0,0,0,0,-1,1784,1009,0,0
567,15,0,0,0,0,0,0,0,0,0,-1,1791,1009,0,0
574,15,0,0,0,0,0,0,0,0,0,-1,1798,1009,0,0
581,15,0,0,0,0,0,0,0,0,0,-1,1805,1009,0,0
588,15,0,0,0,0,0,0,0,0,0,-1,1812,1009,0,0
595,15,0,0,0,0,0,0,0,0,0,-1,1819,1009,0,0
602,15,0,0,0,0,0,0,0,0,0,-1,1826,1009,0,0
609,15,0,0,0,0,0,0,0,0,0,-1,1833,1009,0,0
616,15,0,0,0,0,0,0,0,0,0,-1,1840,1009,0,0
623,15,0,0,0,0,0,0,0,0,0,-1,1847,1009,0,0
630,15,0,0,0,0,0,0,0,0,0,-1,1854,1009,0,0
637,15,0,0,0,0,0,0,0,0,0,-1,1861,1009,0,0
644,15,35.7894,2.66528,-0.00385554,0.00122066,0.000927569,0.00138484,-0.00401972,1.39561,0.00324158,0.04016,1868,1009,35.7894,-2.66529
651,15,35.7272,2.66687,-0.00338545,0.00043759,0.000433469,0.000486122,-0.00343398,1.4593,0.00246738,0.0379098,1875,1009,35.7271,-2.66684
658,15,35.645,2.53223,-0.00279094,-0.000152628,0.000157065,-0.00014331,-0.00280026,1.51154,0.00182095,0.0385564,1882,1009,35.645,-2.53222
665,15,35.5991,2.39899,-0.00219893,-0.000496447,0.000140318,-0.00048496,-0.00221041,1.48911,0.0013415,0.0377401,1889,1009,35.5991,-2.39901
672,15,35.7053,2.37726,-0.00158028,-0.000731518,0.000386981,-0.000581571,-0.00173023,1.20113,0.00101667,0.0356065,1896,1009,35.7053,-2.37724
679,15,35.7764,2.54449,-0.00103662,-0.000767218,0.000830125,-6.09366e-05,-0.0017429,0.86583,0.00114216,0.0381452,1903,1009,35.7764,-2.54449
686,15,35.687,2.60425,-0.000561891,-0.000837072,0.00126964,0.000577593,-0.00197656,0.731424,0.00154661,0.0423264,1910,1009,35.687,-2.60423
693,15,35.6018,2.61047,-0.000195644,-0.000829424,0.00164011,0.00115791,-0.00218298,0.689968,0.0019589,0.0389212,1917,1009,35.6018,-2.61047
700,15,35.6587,2.59741,7.50543e-05,-0.000722121,0.00186972,0.0015882,-0.00223527,0.68038,0.002218,0.0297693,1924,1009,35.6587,-2.59739
707,15,35.6479,2.54095,8.70511e-05,-0.000512337,0.00199421,0.00180396,-0.00222925,0.710815,0.00233288,0.0276795,1931,1009,35.6479,-2.54093
714,15,35.6681,2.56671,-0.000195976,-0.000129026,0.0020351,0.00187287,-0.00219788,0.793622,0.00235274,0.0327522,1938,1009,35.6681,-2.5667
721,15,35.7627,2.45129,0,0,0,0,0,0,0,-1,1945,1009,35.7627,-2.45127
728,15,35.3335,4.6214,0,0,0,0,0,0,0,-1,1952,1009,35.3335,-4.62137
735,15,35.2974,4.74127,-0.00125538,0.00180074,0.00159595,0.00248222,-0.00193685,1.16723,0.00255782,0.0173169,1959,1009,35.2973,-4.74125
742,15,35.3005,4.85791,-0.0017531,0.00265517,0.00127644,0.00299809,-0.00209602,1.30834,0.00295642,0.0216773,1966,1009,35.3006,-4.85794
749,15,35.2686,4.91199,-0.00228838,0.00354158,0.000597614,0.00360221,-0.00234901,1.46969,0.00346123,0.0134905,1973,1009,35.2685,-4.91201
756,15,35.2756,4.92926,-0.0026739,0.00463394,-0.000312049,0.00464725,-0.0026872,-1.5282,0.00428465,0.0136771,1980,1009,35.2757,-4.92925
763,15,35.2252,5.01617,-0.00317109,0.00613967,-0.00145549,0.00636189,-0.00339331,-1.41929,0.00571844,0.0130693,1987,1009,35.2253,-5.01619
770,15,35.1266,5.05579,-0.0031739,0.00770392,-0.00289473,0.00842627,-0.00389625,-1.32625,0.0072729,0.0184532,1994,1009,35.1266,-5.05581
777,15,34.8538,5.12354,-0.00286854,0.0093654,-0.00451269,0.0108499,-0.004353,-1.25299,0.00904059,0.0421903,2001,1009,34.8537,-5.12351
784,15,34.6499,5.23242,0,0,0,0,0,0,0,-1,2008,1009,34.6499,-5.2324
791,15,34.2517,3.28363,0,0,0,0,0,0,0,-1,2015,1009,34.2516,-3.28363
798,15,33.9614,5.12415,0,0,0,0,0,0,0,-1,2022,1009,33.9615,-5.12415
805,15,34.4849,5.10919,0,0,0,0,0,0,0,-1,2029,1009,34.4848,-5.10921
812,15,34.8926,2.44061,0,0,0,0,0,0,0,-1,2036,1009,34.8926,-2.44059
-700,8,0,0,0,0,0,0,0,0,0,-1,524,1016,0,0
-693,8,-25.0685,0.237305,0,0,0,0,0,0,0,-1,531,1016,-25.0685,-0.237307
-686,8,-25.0753,0.0182495,0.0485015,-0.0744295,0.0358297,0.0581822,-0.0841102,0.263885,0.0826059,0.044322,538,1016,-25.0753,-0.0182611
-679,8,-24.9711,-0.101318,0.0383873,-0.0544514,0.0328406,0.0488297,-0.0648938,0.307863,0.0658762,0.0439306,545,1016,-24.971,0.101291
-672,8,-25.6445,1.3988,0.0295933,-0.0382089,0.0289159,0.0402501,-0.0488658,0.353102,0.0515312,0.04391,552,1016,-25.6445,-1.39882
-665,8,-25.7735,1.46301,0.0221235,-0.0252541,0.0245599,0.0325572,-0.0356878,0.401725,0.0394151,0.0431564,559,1016,-25.7735,-1.46299
-658,8,-25.9338,1.82098,0.0158744,-0.0152482,0.0201315,0.0257578,-0.0251315,0.456373,0.0293817,0.0402812,566,1016,-25.9338,-1.82096
-651,8,-25.3671,1.56506,0,0,0,0,0,0,0,-1,573,1016,-25.367,-1.56504
-644,8,-25.6615,1.94318,0.00677937,-0.00249916,0.0115898,0.0146239,-0.0103437,0.59502,0.0144855,0.0498525,580,1016,-25.6615,-1.94315
-637,8,-25.944,2.17468,0.00324129,0.00201735,0.00730908,0.00996398,-0.00470533,0.743632,0.00864882,0.031434,587,1016,-25.944,-2.17471
-630,8,-26.0861,2.2348,0.000959508,0.00517361,0.0031664,0.00686994,-0.000736826,1.07897,0.00484429,0.0182167,594,1016,-26.0862,-2.23483
-623,8,-26.0878,2.26538,-0.000175569,0.00633786,-0.00089458,0.00645849,-0.0002962,-1.43676,0.00440771,0.0140813,601,1016,-26.0877,-2.26536
-616,8,-26.1064,2.21503,-0.000426831,0.00544206,-0.00376714,0.0072828,-0.00226757,-1.11629,0.00576176,0.0141345,608,1016,-26.1064,-2.21505
-609,8,-26.1345,2.13293,-0.000417097,0.0044645,-0.00585657,0.00836854,-0.00432113,-0.982835,0.00744957,0.0163378,615,1016,-26.1345,-2.13294
-602,8,-26.1116,2.13361,8.9495e-05,0.00296109,-0.00748776,0.00914947,-0.00609888,-0.880125,0.00886217,0.0209684,622,1016,-26.1116,-2.13358
-595,8,-25.912,1.52142,0,0,0,0,0,0,0,-1,629,1016,-25.9121,-1.52143
-588,8,-25.8051,0.648071,0,0,0,0,0,0,0,-1,636,1016,-25.805,-0.648087
-581,8,-25.84,0.598999,0.000236261,0.00165273,-0.00835294,0.00932741,-0.00743842,-0.827691,0.00970021,0.0314199,643,1016,-25.84,-0.598976
-574,8,-25.8587,0.538879,-8.50554e-05,0.00145078,-0.00771215,0.00843315,-0.00706742,-0.835021,0.00896083,0.0366473,650,1016,-25.8587,-0.538877
-567,8,-25.9224,0.588257,-0.000767946,0.00133941,-0.00640449,0.00677632,-0.00620486,-0.866929,0.00749711,0.0370289,657,1016,-25.9224,-0.588233
-560,8,-25.9183,0.765381,-0.00162297,0.00124972,-0.00450345,0.00454034,-0.00491359,-0.93977,0.00545964,0.0383111,664,1016,-25.9183,-0.765366
-553,8,-25.8024,0.853943,-0.00264152,0.00111969,-0.00213906,0.00208728,-0.00360911,-1.14599,0.00332771,0.0410361,671,1016,-25.8024,-0.853954
-546,8,-25.9033,0.453674,-0.00366093,0.000867587,0.00052244,0.000927078,-0.00372042,1.45741,0.0028402,0.0430849,678,1016,-25.9032,-0.453673
-539,8,-25.9677,0.966797,-0.00443595,0.000986209,0.0025526,0.0019988,-0.00544854,1.19315,0.00445083,0.0416039,685,1016,-25.9677,-0.966788
-532,8,-25.957,0.771851,-0.00477977,0.00180184,0.00196422,0.00234347,-0.0053214,1.30174,0.00453528,0.0426096,692,1016,-25.9569,-0.771853
-525,8,0,0,0,0,0,0,0,0,0,-1,699,1016,0,0
-518,8,0,0,0,0,0,0,0,0,0,-1,706,1016,0,0
-511,8,0,0,0,0,0,0,0,0,0,-1,713,1016,0,0
-504,8,0,0,0,0,0,0,0,0,0,-1,720,1016,0,0
-497,8,0,0,0,0,0,0,0,0,0,-1,727,1016,0,0
-490,8,0,0,0,0,0,0,0,0,0,-1,734,1016,0,0
-483,8,0,0,0,0,0,0,0,0,0,-1,741,1016,0,0
-476,8,0,0,0,0,0,0,0,0,0,-1,748,1016,0,0
-469,8,0,0,0,0,0,0,0,0,0,-1,755,1016,0,0
-462,8,0,0,0,0,0,0,0,0,0,-1,762,1016,0,0
-455,8,0,0,0,0,0,0,0,0,0,-1,769,1016,0,0
-448,8,0,0,0,0,0,0,0,0,0,-1,776,1016,0,0
-441,8,0,0,0,0,0,0,0,0,0,-1,783,1016,0,0
-434,8,0,0,0,0,0,0,0,0,0,-1,790,1016,0,0
-427,8,0,0,0,0,0,0,0,0,0,-1,797,1016,0,0
-420,8,0,0,0,0,0,0,0,0,0,-1,804,1016,0,0
-413,8,0,0,0,0,0,0,0,0,0,-1,811,1016,0,0
-406,8,0,0,0,0,0,0,0,0,0,-1,818,1016,0,0
-399,8,0,0,0,0,0,0,0,0,0,-1,825,1016,0,0
-392,8,0,0,0,0,0,0,0,0,0,-1,832,1016,0,0
-385,8,0,0,0,0,0,0,0,0,0,-1,839,1016,0,0
-378,8,0,0,0,0,0,0,0,0,0,-1,846,1016,0,0
-371,8,0,0,0,0,0,0,0,0,0,-1,853,1016,0,0
-364,8,0,0,0,0,0,0,0,0,0,-1,860,1016,0,0
-357,8,0,0,0,0,0,0,0,0,0,-1,867,1016,0,0
-350,8,0,0,0,0,0,0,0,0,0,-1,874,1016,0,0
-343,8,0,0,0,0,0,0,0,0,0,-1,881,1016,0,0
-336,8,0,0,0,0,0,0,0,0,0,-1,888,1016,0,0
-329,8,0,0,0,0,0,0,0,0,0,-1,895,1016,0,0
-322,8,0,0,0,0,0,0,0,0,0,-1,902,1016,0,0
-315,8,0,0,0,0,0,0,0,0,0,-1,909,1016,0,0
-308,8,0,0,0,0,0,0,0,0,0,-1,916,1016,0,0
-301,8,0,0,0,0,0,0,0,0,0,-1,923,1016,0,0
-294,8,0,0,0,0,0,0,0,0,0,-1,930,1016,0,0
-287,8,0,0,0,0,0,0,0,0,0,-1,937,1016,0,0
-280,8,0,0,0,0,0,0,0,0,0,-1,944,1016,0,0
-273,8,0,0,0,0,0,0,0,0,0,-1,951,1016,0,0
-266,8,0,0,0,0,0,0,0,0,0,-1,958,1016,0,0
-259,8,0,0,0,0,0,0,0,0,0,-1,965,1016,0,0
-252,8,0,0,0,0,0,0,0,0,0,-1,972,1016,0,0
-245,8,0,0,0,0,0,0,0,0,0,-1,979,1016,0,0
-238,8,0,0,0,0,0,0,0,0,0,-1,986,1016,0,0
-231,8,0,0,0,0,0,0,0,0,0,-1,993,1016,0,0
-224,8,0,0,0,0,0,0,0,0,0,-1,1000,1016,0,0
-217,8,0,0,0,0,0,0,0,0,0,-1,1007,1016,0,0
-210,8,0,0,0,0,0,0,0,0,0,-1,1014,1016,0,0
-203,8,0,0,0,0,0,0,0,0,0,-1,1021,1016,0,0
-196,8,0,0,0,0,0,0,0,0,0,-1,1028,1016,0,0
-189,8,0,0,0,0,0,0,0,0,0,-1,1035,1016,0,0
-182,8,0,0,0,0,0,0,0,0,0,-1,1042,1016,0,0
-175,8,0,0,0,0,0,0,0,0,0,-1,1049,1016,0,0
-168,8,0,0,0,0,0,0,0,0,0,-1,1056,1016,0,0
-161,8,0,0,0,0,0,0,0,0,0,-1,1063,1016,0,0
-154,8,0,0,0,0,0,0,0,0,0,-1,1070,1016,0,0
-147,8,0,0,0,0,0,0,0,0,0,-1,1077,1016,0,0
-140,8,0,0,0,0,0,0,0,0,0,-1,1084,1016,0,0
-133,8,0,0,0,0,0,0,0,0,0,-1,1091,1016,0,0
-126,8,0,0,0,0,0,0,0,0,0,-1,1098,1016,0,0
-119,8,0,0,0,0,0,0,0,0,0,-1,1105,1016,0,0
-112,8,0,0,0,0,0,0,0,0,0,-1,1112,1016,0,0
-105,8,0,0,0,0,0,0,0,0,0,-1,1119,1016,0,0
-98,8,0,0,0,0,0,0,0,0,0,-1,1126,1016,0,0
-91,8,0,0,0,0,0,0,0,0,0,-1,1133,1016,0,0
-84,8,0,0,0,0,0,0,0,0,0,-1,1140,1016,0,0
-77,8,0,0,0,0,0,0,0,0,0,-1,1147,1016,0,0
-70,8,0,0,0,0,0,0,0,0,0,-1,1154,1016,0,0
-63,8,0,0,0,0,0,0,0,0,0,-1,1161,1016,0,0
-56,8,0,0,0,0,0,0,0,0,0,-1,1168,1016,0,0
-49,8,0,0,0,0,0,0,0,0,0,-1,1175,1016,0,0
-42,8,0,0,0,0,0,0,0,0,0,-1,1182,1016,0,0
-35,8,0,0,0,0,0,0,0,0,0,-1,1189,1016,0,0
-28,8,0,0,0,0,0,0,0,0,0,-1,1196,1016,0,0
-21,8,0,0,0,0,0,0,0,0,0,-1,1203,1016,0,0
-14,8,0,0,0,0,0,0,0,0,0,-1,1210,1016,0,0
-7,8,0,0,0,0,0,0,0,0,0,-1,1217,1016,0,0
0,8,0,0,0,0,0,0,0,0,0,-1,1224,1016,0,0
7,8,0,0,0,0,0,0,0,0,0,-1,1231,1016,0,0
14,8,0,0,0,0,0,0,0,0,0,-1,1238,1016,0,0
21,8,0,0,0,0,0,0,0,0,0,-1,1245,1016,0,0
28,8,0,0,0,0,0,0,0,0,0,-1,1252,1016,0,0
35,8,0,0,0,0,0,0,0,0,0,-1,1259,1016,0,0
42,8,0,0,0,0,0,0,0,0,0,-1,1266,1016,0,0
49,8,0,0,0,0,0,0,0,0,0,-1,1273,1016,0,0
56,8,0,0,0,0,0,0,0,0,0,-1,1280,1016,0,0
63,8,0,0,0,0,0,0,0,0,0,-1,1287,1016,0,0
70,8,0,0,0,0,0,0,0,0,0,-1,1294,1016,0,0
77,8,0,0,0,0,0,0,0,0,0,-1,1301,1016,0,0
84,8,0,0,0,0,0,0,0,0,0,-1,1308,1016,0,0
91,8,0,0,0,0,0,0,0,0,0,-1,1315,1016,0,0
98,8,0,0,0,0,0,0,0,0,0,-1,1322,1016,0,0
105,8,0,0,0,0,0,0,0,0,0,-1,1329,1016,0,0
112,8,0,0,0,0,0,0,0,0,0,-1,1336,1016,0,0
119,8,0,0,0,0,0,0,0,0,0,-1,1343,1016,0,0
126,8,0,0,0,0,0,0,0,0,0,-1,1350,1016,0,0
133,8,0,0,0,0,0,0,0,0,0,-1,1357,1016,0,0
140,8,0,0,0,0,0,0,0,0,0,-1,1364,1016,0,0
147,8,0,0,0,0,0,0,0,0,0,-1,1371,1016,0,0
154,8,0,0,0,0,0,0,0,0,0,-1,1378,1016,0,0
161,8,0,0,0,0,0,0,0,0,0,-1,1385,1016,0,0
168,8,0,0,0,0,0,0,0,0,0,-1,1392,1016,0,0
175,8,0,0,0,0,0,0,0,0,0,-1,1399,1016,0,0
182,8,0,0,0,0,0,0,0,0,0,-1,1406,1016,0,0
189,8,0,0,0,0,0,0,0,0,0,-1,1413,1016,0,0
196,8,0,0,0,0,0,0,0,0,0,-1,1420,1016,0,0
203,8,0,0,0,0,0,0,0,0,0,-1,1427,1016,0,0
210,8,0,0,0,0,0,0,0,0,0,-1,1434,1016,0,0
217,8,0,0,0,0,0,0,0,0,0,-1,1441,1016,0,0
224,8,0,0,0,0,0,0,0,0,0,-1,1448,1016,0,0
231,8,0,0,0,0,0,0,0,0,0,-1,1455,1016,0,0
238,8,0,0,0,0,0,0,0,0,0,-1,1462,1016,0,0
245,8,0,0,0,0,0,0,0,0,0,-1,1469,1016,0,0
252,8,0,0,0,0,0,0,0,0,0,-1,1476,1016,0,0
259,8,0,0,0,0,0,0,0,0,0,-1,1483,1016,0,0
266,8,0,0,0,0,0,0,0,0,0,-1,1490,1016,0,0
273,8,0,0,0,0,0,0,0,0,0,-1,1497,1016,0,0
280,8,0,0,0,0,0,0,0,0,0,-1,1504,1016,0,0
287,8,0,0,0,0,0,0,0,0,0,-1,1511,1016,0,0
294,8,0,0,0,0,0,0,0,0,0,-1,1518,1016,0,0
301,8,0,0,0,0,0,0,0,0,0,-1,1525,1016,0,0
308,8,0,0,0,0,0,0,0,0,0,-1,1532,1016,0,0
315,8,0,0,0,0,0,0,0,0,0,-1,1539,1016,0,0
322,8,0,0,0,0,0,0,0,0,0,-1,1546,1016,0,0
329,8,0,0,0,0,0,0,0,0,0,-1,1553,1016,0,0
336,8,0,0,0,0,0,0,0,0,0,-1,1560,1016,0,0
343,8,0,0,0,0,0,0,0,0,0,-1,1567,1016,0,0
350,8,0,0,0,0,0,0,0,0,0,-1,1574,1016,0,0
357,8,0,0,0,0,0,0,0,0,0,-1,1581,1016,0,0
364,8,0,0,0,0,0,0,0,0,0,-1,1588,1016,0,0
371,8,0,0,0,0,0,0,0,0,0,-1,1595,1016,0,0
378,8,0,0,0,0,0,0,0,0,0,-1,1602,1016,0,0
385,8,0,0,0,0,0,0,0,0,0,-1,1609,1016,0,0
392,8,0,0,0,0,0,0,0,0,0,-1,1616,1016,0,0
399,8,0,0,0,0,0,0,0,0,0,-1,1623,1016,0,0
406,8,0,0,0,0,0,0,0,0,0,-1,1630,1016,0,0
413,8,0,0,0,0,0,0,0,0,0,-1,1637,1016,0,0
420,8,0,0,0,0,0,0,0,0,0,-1,1644,1016,0,0
427,8,0,0,0,0,0,0,0,0,0,-1,1651,1016,0,0
434,8,0,0,0,0,0,0,0,0,0,-1,1658,1016,0,0
441,8,0,0,0,0,0,0,0,0,0,-1,1665,1016,0,0
448,8,0,0,0,0,0,0,0,0,0,-1,1672,1016,0,0
455,8,0,0,0,0,0,0,0,0,0,-1,1679,1016,0,0
462,8,0,0,0,0,0,0,0,0,0,-1,1686,1016,0,0
469,8,0,0,0,0,0,0,0,0,0,-1,1693,1016,0,0
476,8,0,0,0,0,0,0,0,0,0,-1,1700,1016,0,0
483,8,0,0,0,0,0,0,0,0,0,-1,1707,1016,0,0
490,8,0,0,0,0,0,0,0,0,0,-1,1714,1016,0,0
497,8,0,0,0,0,0,0,0,0,0,-1,1721,1016,0,0
504,8,0,0,0,0,0,0,0,0,0,-1,1728,1016,0,0
511,8,0,0,0,0,0,0,0,0,0,-1,1735,1016,0,0
518,8,0,0,0,0,0,0,0,0,0,-1,1742,1016,0,0
525,8,0,0,0,0,0,0,0,0,0,-1,1749,1016,0,0
532,8,0,0,0,0,0,0,0,0,0,-1,1756,1016,0,0
539,8,0,0,0,0,0,0,0,0,0,-1,1763,1016,0,0
546,8,0,0,0,0,0,0,0,0,0,-1,1770,1016,0,0
553,8,0,0,0,0,0,0,0,0,0,-1,1777,1016,0,0
560,8,0,0,0,0,0,0,0,0,0,-1,1784,1016,0,0
567,8,0,0,0,0,0,0,0,0,0,-1,1791,1016,0,0
574,8,0,0,0,0,0,0,0,0,0,-1,1798,1016,0,0
581,8,0,0,0,0,0,0,0,0,0,-1,1805,1016,0,0
588,8,0,0,0,0,0,0,0,0,0,-1,1812,1016,0,0
595,8,0,0,0,0,0,0,0,0,0,-1,1819,1016,0,0
602,8,0,0,0,0,0,0,0,0,0,-1,1826,1016,0,0
609,8,0,0,0,0,0,0,0,0,0,-1,1833,1016,0,0
616,8,0,0,0,0,0,0,0,0,0,-1,1840,1016,0,0
623,8,0,0,0,0,0,0,0,0,0,-1,1847,1016,0,0
630,8,0,0,0,0,0,0,0,0,0,-1,1854,1016,0,0
637,8,0,0,0,0,0,0,0,0,0,-1,1861,1016,0,0
644,8,35.7373,2.60291,-0.00422875,0.00260184,0.00114548,0.00278882,-0.00441572,1.40899,0.00419474,0.0431658,1868,1016,35.7373,-2.60292
651,8,35.7076,2.61157,-0.0037035,0.00151756,0.000609761,0.00158783,-0.00377376,1.45606,0.00318012,0.0386793,1875,1016,35.7077,-2.61159
658,8,35.6288,2.53503,-0.00302279,0.000732357,0.000255109,0.000749609,-0.00304004,1.50327,0.00231734,0.0380254,1882,1016,35.6287,-2.53506
665,8,35.6144,2.40924,-0.00236959,0.000217413,0.000144779,0.000225491,-0.00237767,1.51506,0.00166537,0.0391748,1889,1016,35.6144,-2.40926
672,8,35.657,2.52618,-0.00168786,-0.000177023,0.000363939,-9.39258e-05,-0.00177095,1.34632,0.00115061,0.03629,1896,1016,35.6569,-2.5262
679,8,35.561,2.66724,-0.00104098,-0.000377289,0.000810428,0.000166603,-0.00158487,0.979719,0.00111627,0.0350181,1903,1016,35.561,-2.66721
686,8,35.2251,2.67438,0,0,0,0,0,0,0,-1,1910,1016,35.225,-2.67436
693,8,35.553,2.59717,-9.46528e-05,-0.000697272,0.00172133,0.00135154,-0.00214346,0.698753,0.00203503,0.0368197,1917,1016,35.5529,-2.59718
700,8,35.6909,2.50562,0.000227301,-0.000691011,0.00201664,0.0018364,-0.00230011,0.673465,0.00239321,0.0293486,1924,1016,35.6909,-2.50563
707,8,35.6788,2.53156,0.00027618,-0.000564007,0.00219277,0.00208873,-0.00237656,0.690754,0.00257982,0.0251078,1931,1016,35.6788,-2.53154
714,8,35.6956,2.51581,8.11998e-06,-0.000239728,0.00229437,0.00218191,-0.00241352,0.758418,0.0026543,0.0287246,1938,1016,35.6956,-2.51578
721,8,35.8,2.33081,0,0,0,0,0,0,0,-1,1945,1016,35.8,-2.33083
728,8,35.2816,4.69275,0,0,0,0,0,0,0,-1,1952,1016,35.2816,-4.69273
735,8,35.2549,4.75494,-0.00108066,0.00158957,0.0019936,0.00265382,-0.00214491,1.08045,0.00277574,0.0272191,1959,1016,35.2548,-4.75497
742,8,35.3606,4.74646,-0.00158766,0.00246833,0.00173668,0.00311032,-0.00222965,1.21671,0.00309698,0.0316227,1966,1016,35.3606,-4.74645
749,8,35.3533,4.89075,-0.00217455,0.00341147,0.00108379,0.00361437,-0.00237745,1.38572,0.00348387,0.0238403,1973,1016,35.3533,-4.89077
756,8,35.3175,4.88062,-0.00266997,0.0045537,0.0001948,0.00455895,-0.00267522,1.54386,0.00422358,0.0190554,1980,1016,35.3175,-4.8806
763,8,35.282,4.94916,-0.00333743,0.0062319,-0.000927505,0.00632097,-0.0034265,-1.47506,0.00570981,0.0138007,1987,1016,35.282,-4.94917
770,8,35.205,4.96136,-0.00359654,0.00799181,-0.00237342,0.00845907,-0.0040638,-1.37641,0.00737704,0.0168961,1994,1016,35.205,-4.96138
777,8,35.0159,5.00458,-0.00363355,0.00994484,-0.00397121,0.011021,-0.0047097,-1.30616,0.00932259,0.0295309,2001,1016,35.0158,-5.00458
784,8,34.9974,4.8869,-0.00362307,0.011927,-0.00575545,0.0138254,-0.00552152,-1.25218,0.0115078,0.0485168,2008,1016,34.9974,-4.8869
791,8,34.1045,5.01349,0,0,0,0,0,0,0,-1,2015,1016,34.1045,-5.01351
798,8,34.3308,4.99585,-0.00388909,0.0162,-0.0105083,0.0206923,-0.00838131,-1.16682,0.01728,0.0490427,2022,1016,34.3309,-4.99587
805,8,34.6396,4.97662,-0.00458724,0.0187627,-0.0136407,0.0250425,-0.010867,-1.13935,0.021264,0.0452878,2029,1016,34.6395,-4.97663
812,8,34.4736,4.69958,0,0,0,0,0,0,0,-1,2036,1016,34.4735,-4.69961
-700,1,0,0,0,0,0,0,0,0,0,-1,524,1023,0,0
-693,1,-26.0204,1.034,0.0548903,-0.0955759,0.0400355,0.0648796,-0.105565,0.244519,0.0993365,0.0428734,531,1023,-26.0204,-1.03398
-686,1,-25.8969,1.14685,0.0471967,-0.0742569,0.0375656,0.0578766,-0.0849368,0.276992,0.0829453,0.0440549,538,1023,-25.8968,-1.14686
-679,1,-25.7866,1.47119,0.0387788,-0.0558387,0.0337151,0.0495633,-0.0666232,0.309586,0.0673209,0.0486882,545,1023,-25.7866,-1.47121
-672,1,-25.7749,1.56122,0.030881,-0.0403493,0.0292295,0.0413398,-0.050808,0.34362,0.0532951,0.0467172,552,1023,-25.7749,-1.56121
-665,1,-25.8369,1.74255,0.0237882,-0.02767,0.0245473,0.0336197,-0.0375015,0.380948,0.0410822,0.0438999,559,1023,-25.8369,-1.74257
-658,1,-26.0138,1.98633,0.0175953,-0.0176511,0.0199567,0.0265963,-0.0266521,0.423706,0.030743,0.0332245,566,1023,-26.0138,-1.98631
-651,1,-25.9102,2.09271,0.012407,-0.0101267,0.0156243,0.0204031,-0.0181229,0.473021,0.022256,0.0255219,573,1023,-25.9102,-2.09274
-644,1,-25.7586,2.23865,0.00805875,-0.0044042,0.0113203,0.0147494,-0.0110948,0.533796,0.0149708,0.0364486,580,1023,-25.7586,-2.23867
-637,1,-25.9603,2.1684,0.00441751,0.000329902,0.00678855,0.00946324,-0.00471583,0.639181,0.00833784,0.0283673,587,1023,-25.9603,-2.16838
-630,1,-26.138,2.16382,0.00192477,0.00374661,0.00255953,0.00555249,0.000118894,0.956356,0.00366267,0.0245096,594,1023,-26.138,-2.16381
-623,1,-26.0772,2.24207,0.000479428,0.005227,-0.00144944,0.00563453,7.18967e-05,-1.29671,0.00373262,0.0146243,601,1023,-26.0772,-2.24206
-616,1,-26.1375,2.19019,-0.000109705,0.0046629,-0.00433845,0.00722802,-0.00267483,-1.03683,0.00591543,0.0166517,608,1023,-26.1374,-2.19018
-609,1,-26.149,2.19922,-0.000363951,0.00386531,-0.00644486,0.00853359,-0.00503224,-0.94392,0.00791871,0.0173471,615,1023,-26.1491,-2.19924
-602,1,-26.0479,2.20935,0.000129082,0.00253393,-0.00812487,0.00954487,-0.00688186,-0.858862,0.00952543,0.0135333,622,1023,-26.0478,-2.20935
-595,1,-25.9612,2.25653,0,0,0,0,0,0,0,-1,629,1023,-25.9612,-2.25654
-588,1,-25.8845,1.38812,0.000313485,0.00153065,-0.00906832,0.0100108,-0.00816665,-0.818903,0.0105127,0.0364602,636,1023,-25.8845,-1.38811
-581,1,-25.8325,0.642151,0.000406814,0.00146579,-0.00896983,0.00992175,-0.00804914,-0.814879,0.0103943,0.0288619,643,1023,-25.8325,-0.642169
-574,1,-25.8121,0.691833,6.52267e-05,0.00139082,-0.00825264,0.00900724,-0.00755119,-0.825469,0.00957233,0.0377595,650,1023,-25.8121,-0.691833
-567,1,-25.8755,0.491089,-0.000635161,0.00145698,-0.00683559,0.00732608,-0.00650426,-0.861325,0.00798965,0.0407658,657,1023,-25.8755,-0.491077
-560,1,-25.8619,0.600891,-0.0015531,0.00160814,-0.00477829,0.00506045,-0.00500541,-0.945129,0.00581156,0.0394989,664,1023,-25.8619,-0.60087
-553,1,-25.8915,0.631592,-0.00271441,0.00178635,-0.00220933,0.00268959,-0.00361766,-1.1827,0.00365461,0.039598,671,1023,-25.8915,-0.631562
-546,1,-25.7764,0.548096,-0.00401267,0.00190547,0.00070442,0.00198816,-0.00409536,1.45394,0.00358187,0.0428462,678,1023,-25.7764,-0.548068
-539,1,-25.8712,1.02301,-0.00524021,0.00241004,0.00287768,0.00337163,-0.00620179,1.24831,0.00560715,0.0430707,685,1023,-25.8712,-1.023
-532,1,-25.9382,1.0957,-0.00619985,0.0035369,0.00210927,0.0039742,-0.00663714,1.36637,0.00619043,0.0430378,692,1023,-25.9382,-1.09568
-525,1,0,0,0,0,0,0,0,0,0,-1,699,1023,0,0
-518,1,0,0,0,0,0,0,0,0,0,-1,706,1023,0,0
-511,1,0,0,0,0,0,0,0,0,0,-1,713,1023,0,0
-504,1,0,0,0,0,0,0,0,0,0,-1,720,1023,0,0
-497,1,0,0,0,0,0,0,0,0,0,-1,727,1023,0,0
-490,1,0,0,0,0,0,0,0,0,0,-1,734,1023,0,0
-483,1,0,0,0,0,0,0,0,0,0,-1,741,1023,0,0
-476,1,0,0,0,0,0,0,0,0,0,-1,748,1023,0,0
-469,1,0,0,0,0,0,0,0,0,0,-1,755,1023,0,0
-462,1,0,0,0,0,0,0,0,0,0,-1,762,1023,0,0
-455,1,0,0,0,0,0,0,0,0,0,-1,769,1023,0,0
-448,1,0,0,0,0,0,0,0,0,0,-1,776,1023,0,0
-441,1,0,0,0,0,0,0,0,0,0,-1,783,1023,0,0
-434,1,0,0,0,0,0,0,0,0,0,-1,790,1023,0,0
-427,1,0,0,0,0,0,0,0,0,0,-1,797,1023,0,0
-420,1,0,0,0,0,0,0,0,0,0,-1,804,1023,0,0
-413,1,0,0,0,0,0,0,0,0,0,-1,811,1023,0,0
-406,1,0,0,0,0,0,0,0,0,0,-1,818,1023,0,0
-399,1,0,0,0,0,0,0,0,0,0,-1,825,1023,0,0
-392,1,0,0,0,0,0,0,0,0,0,-1,832,1023,0,0
-385,1,0,0,0,0,0,0,0,0,0,-1,839,1023,0,0
-378,1,0,0,0,0,0,0,0,0,0,-1,846,1023,0,0
-371,1,0,0,0,0,0,0,0,0,0,-1,853,1023,0,0
-364,1,0,0,0,0,0,0,0,0,0,-1,860,1023,0,0
-357,1,0,0,0,0,0,0,0,0,0,-1,867,1023,0,0
-350,1,0,0,0,0,0,0,0,0,0,-1,874,1023,0,0
-343,1,0,0,0,0,0,0,0,0,0,-1,881,1023,0,0
-336,1,0,0,0,0,0,0,0,0,0,-1,888,1023,0,0
-329,1,0,0,0,0,0,0,0,0,0,-1,895,1023,0,0
-322,1,0,0,0,0,0,0,0,0,0,-1,902,1023,0,0
-315,1,0,0,0,0,0,0,0,0,0,-1,909,1023,0,0
-308,1,0,0,0,0,0,0,0,0,0,-1,916,1023,0,0
-301,1,0,0,0,0,0,0,0,0,0,-1,923,1023,0,0
-294,1,0,0,0,0,0,0,0,0,0,-1,930,1023,0,0
-287,1,0,0,0,0,0,0,0,0,0,-1,937,1023,0,0
-280,1,0,0,0,0,0,0,0,0,0,-1,944,1023,0,0
-273,1,0,0,0,0,0,0,0,0,0,-1,951,1023,0,0
-266,1,0,0,0,0,0,0,0,0,0,-1,958,1023,0,0
-259,1,0,0,0,0,0,0,0,0,0,-1,965,1023,0,0
-252,1,0,0,0,0,0,0,0,0,0,-1,972,1023,0,0
-245,1,0,0,0,0,0,0,0,0,0,-1,979,1023,0,0
-238,1,0,0,0,0,0,0,0,0,0,-1,986,1023,0,0
-231,1,0,0,0,0,0,0,0,0,0,-1,993,1023,0,0
-224,1,0,0,0,0,0,0,0,0,0,-1,1000,1023,0,0
-217,1,0,0,0,0,0,0,0,0,0,-1,1007,1023,0,0
-210,1,0,0,0,0,0,0,0,0,0,-1,1014,1023,0,0
-203,1,0,0,0,0,0,0,0,0,0,-1,1021,1023,0,0
-196,1,0,0,0,0,0,0,0,0,0,-1,1028,1023,0,0
-189,1,0,0,0,0,0,0,0,0,0,-1,1035,1023,0,0
-182,1,0,0,0,0,0,0,0,0,0,-1,1042,1023,0,0
-175,1,0,0,0,0,0,0,0,0,0,-1,1049,1023,0,0
-168,1,0,0,0,0,0,0,0,0,0,-1,1056,1023,0,0
-161,1,0,0,0,0,0,0,0,0,0,-1,1063,1023,0,0
-154,1,0,0,0,0,0,0,0,0,0,-1,1070,1023,0,0
-147,1,0,0,0,0,0,0,0,0,0,-1,1077,1023,0,0
-140,1,0,0,0,0,0,0,0,0,0,-1,1084,1023,0,0
-133,1,0,0,0,0,0,0,0,0,0,-1,1091,1023,0,0
-126,1,0,0,0,0,0,0,0,0,0,-1,1098,1023,0,0
-119,1,0,0,0,0,0,0,0,0,0,-1,1105,1023,0,0
-112,1,0,0,0,0,0,0,0,0,0,-1,1112,1023,0,0
-105,1,0,0,0,0,0,0,0,0,0,-1,1119,1023,0,0
-98,1,0,0,0,0,0,0,0,0,0,-1,1126,1023,0,0
-91,1,0,0,0,0,0,0,0,0,0,-1,1133,1023,0,0
-84,1,0,0,0,0,0,0,0,0,0,-1,1140,1023,0,0
-77,1,0,0,0,0,0,0,0,0,0,-1,1147,1023,0,0
-70,1,0,0,0,0,0,0,0,0,0,-1,1154,1023,0,0
-63,1,0,0,0,0,0,0,0,0,0,-1,1161,1023,0,0
-56,1,0,0,0,0,0,0,0,0,0,-1,1168,1023,0,0
-49,1,0,0,0,0,0,0,0,0,0,-1,1175,1023,0,0
-42,1,0,0,0,0,0,0,0,0,0,-1,1182,1023,0,0
-35,1,0,0,0,0,0,0,0,0,0,-1,1189,1023,0,0
-28,1,0,0,0,0,0,0,0,0,0,-1,1196,1023,0,0
-21,1,0,0,0,0,0,0,0,0,0,-1,1203,1023,0,0
-14,1,0,0,0,0,0,0,0,0,0,-1,1210,1023,0,0
-7,1,0,0,0,0,0,0,0,0,0,-1,1217,1023,0,0
0,1,0,0,0,0,0,0,0,0,0,-1,1224,1023,0,0
7,1,0,0,0,0,0,0,0,0,0,-1,1231,1023,0,0
14,1,0,0,0,0,0,0,0,0,0,-1,1238,1023,0,0
21,1,0,0,0,0,0,0,0,0,0,-1,1245,1023,0,0
28,1,0,0,0,0,0,0,0,0,0,-1,1252,1023,0,0
35,1,0,0,0,0,0,0,0,0,0,-1,1259,1023,0,0
42,1,0,0,0,0,0,0,0,0,0,-1,1266,1023,0,0
49,1,0,0,0,0,0,0,0,0,0,-1,1273,1023,0,0
56,1,0,0,0,0,0,0,0,0,0,-1,1280,1023,0,0
63,1,0,0,0,0,0,0,0,0,0,-1,1287,1023,0,0
70,1,0,0,0,0,0,0,0,0,0,-1,1294,1023,0,0
77,1,0,0,0,0,0,0,0,0,0,-1,1301,1023,0,0
84,1,0,0,0,0,0,0,0,0,0,-1,1308,1023,0,0
91,1,0,0,0,0,0,0,0,0,0,-1,1315,1023,0,0
98,1,0,0,0,0,0,0,0,0,0,-1,1322,1023,0,0
105,1,0,0,0,0,0,0,0,0,0,-1,1329,1023,0,0
112,1,0,0,0,0,0,0,0,0,0,-1,1336,1023,0,0
119,1,0,0,0,0,0,0,0,0,0,-1,1343,1023,0,0
126,1,0,0,0,0,0,0,0,0,0,-1,1350,1023,0,0
133,1,0,0,0,0,0,0,0,0,0,-1,1357,1023,0,0
140,1,0,0,0,0,0,0,0,0,0,-1,1364,1023,0,0
147,1,0,0,0,0,0,0,0,0,0,-1,1371,1023,0,0
154,1,0,0,0,0,0,0,0,0,0,-1,1378,1023,0,0
161,1,0,0,0,0,0,0,0,0,0,-1,1385,1023,0,0
168,1,0,0,0,0,0,0,0,0,0,-1,1392,1023,0,0
175,1,0,0,0,0,0,0,0,0,0,-1,1399,1023,0,0
182,1,0,0,0,0,0,0,0,0,0,-1,1406,1023,0,0
189,1,0,0,0,0,0,0,0,0,0,-1,1413,1023,0,0
196,1,0,0,0,0,0,0,0,0,0,-1,1420,1023,0,0
203,1,0,0,0,0,0,0,0,0,0,-1,1427,1023,0,0
210,1,0,0,0,0,0,0,0,0,0,-1,1434,1023,0,0
217,1,0,0,0,0,0,0,0,0,0,-1,1441,1023,0,0
224,1,0,0,0,0,0,0,0,0,0,-1,1448,1023,0,0
231,1,0,0,0,0,0,0,0,0,0,-1,1455,1023,0,0
238,1,0,0,0,0,0,0,0,0,0,-1,1462,1023,0,0
245,1,0,0,0,0,0,0,0,0,0,-1,1469,1023,0,0
252,1,0,0,0,0,0,0,0,0,0,-1,1476,1023,0,0
259,1,0,0,0,0,0,0,0,0,0,-1,1483,1023,0,0
266,1,0,0,0,0,0,0,0,0,0,-1,1490,1023,0,0
273,1,0,0,0,0,0,0,0,0,0,-1,1497,1023,0,0
280,1,0,0,0,0,0,0,0,0,0,-1,1504,1023,0,0
287,1,0,0,0,0,0,0,0,0,0,-1,1511,1023,0,0
294,1,0,0,0,0,0,0,0,0,0,-1,1518,1023,0,0
301,1,0,0,0,0,0,0,0,0,0,-1,1525,1023,0,0
308,1,0,0,0,0,0,0,0,0,0,-1,1532,1023,0,0
315,1,0,0,0,0,0,0,0,0,0,-1,1539,1023,0,0
322,1,0,0,0,0,0,0,0,0,0,-1,1546,1023,0,0
329,1,0,0,0,0,0,0,0,0,0,-1,1553,1023,0,0
336,1,0,0,0,0,0,0,0,0,0,-1,1560,1023,0,0
343,1,0,0,0,0,0,0,0,0,0,-1,1567,1023,0,0
350,1,0,0,0,0,0,0,0,0,0,-1,1574,1023,0,0
357,1,0,0,0,0,0,0,0,0,0,-1,1581,1023,0,0
364,1,0,0,0,0,0,0,0,0,0,-1,1588,1023,0,0
371,1,0,0,0,0,0,0,0,0,0,-1,1595,1023,0,0
378,1,0,0,0,0,0,0,0,0,0,-1,1602,1023,0,0
385,1,0,0,0,0,0,0,0,0,0,-1,1609,1023,0,0
392,1,0,0,0,0,0,0,0,0,0,-1,1616,1023,0,0
399,1,0,0,0,0,0,0,0,0,0,-1,1623,1023,0,0
406,1,0,0,0,0,0,0,0,0,0,-1,1630,1023,0,0
413,1,0,0,0,0,0,0,0,0,0,-1,1637,1023,0,0
420,1,0,0,0,0,0,0,0,0,0,-1,1644,1023,0,0
427,1,0,0,0,0,0,0,0,0,0,-1,1651,1023,0,0
434,1,0,0,0,0,0,0,0,0,0,-1,1658,1023,0,0
441,1,0,0,0,0,0,0,0,0,0,-1,1665,1023,0,0
448,1,0,0,0,0,0,0,0,0,0,-1,1672,1023,0,0
455,1,0,0,0,0,0,0,0,0,0,-1,1679,1023,0,0
462,1,0,0,0,0,0,0,0,0,0,-1,1686,1023,0,0
469,1,0,0,0,0,0,0,0,0,0,-1,1693,1023,0,0
476,1,0,0,0,0,0,0,0,0,0,-1,1700,1023,0,0
483,1,0,0,0,0,0,0,0,0,0,-1,1707,1023,0,0
490,1,0,0,0,0,0,0,0,0,0,-1,1714,1023,0,0
497,1,0,0,0,0,0,0,0,0,0,-1,1721,1023,0,0
504,1,0,0,0,0,0,0,0,0,0,-1,1728,1023,0,0
511,1,0,0,0,0,0,0,0,0,0,-1,1735,1023,0,0
518,1,0,0,0,0,0,0,0,0,0,-1,1742,1023,0,0
525,1,0,0,0,0,0,0,0,0,0,-1,1749,1023,0,0
532,1,0,0,0,0,0,0,0,0,0,-1,1756,1023,0,0
539,1,0,0,0,0,0,0,0,0,0,-1,1763,1023,0,0
546,1,0,0,0,0,0,0,0,0,0,-1,1770,1023,0,0
553,1,0,0,0,0,0,0,0,0,0,-1,1777,1023,0,0
560,1,0,0,0,0,0,0,0,0,0,-1,1784,1023,0,0
567,1,0,0,0,0,0,0,0,0,0,-1,1791,1023,0,0
574,1,0,0,0,0,0,0,0,0,0,-1,1798,1023,0,0
581,1,0,0,0,0,0,0,0,0,0,-1,1805,1023,0,0
588,1,0,0,0,0,0,0,0,0,0,-1,1812,1023,0,0
595,1,0,0,0,0,0,0,0,0,0,-1,1819,1023,0,0
602,1,0,0,0,0,0,0,0,0,0,-1,1826,1023,0,0
609,1,0,0,0,0,0,0,0,0,0,-1,1833,1023,0,0
616,1,0,0,0,0,0,0,0,0,0,-1,1840,1023,0,0
623,1,0,0,0,0,0,0,0,0,0,-1,1847,1023,0,0
630,1,0,0,0,0,0,0,0,0,0,-1,1854,1023,0,0
637,1,0,0,0,0,0,0,0,0,0,-1,1861,1023,0,0
644,1,0,0,0,0,0,0,0,0,0,-1,1868,1023,0,0
651,1,35.6864,2.56451,-0.00349456,0.00157747,0.00122555,0.00185807,-0.00377516,1.34571,0.00331454,0.0390705,1875,1023,35.6864,-2.5645
658,1,35.6697,2.55304,-0.00281075,0.000831249,0.000671189,0.000951005,-0.00293051,1.39423,0.00233611,0.0405259,1882,1023,35.6697,-2.55303
665,1,35.7113,2.49988,-0.00218562,0.000341132,0.000386375,0.000398894,-0.00224338,1.4224,0.00164475,0.0412761,1889,1023,35.7113,-2.49989
672,1,35.6354,2.50934,-0.00154402,-3.57505e-05,0.00050517,0.000117813,-0.00169758,1.27569,0.00117297,0.0386795,1896,1023,35.6353,-2.50934
679,1,35.4916,2.53687,-0.000920684,-0.000262673,0.000890743,0.000357884,-0.00154124,0.962307,0.00116525,0.0361253,1903,1023,35.4916,-2.53687
686,1,35.4264,2.51807,-0.000444531,-0.000512659,0.00134999,0.000871829,-0.00182902,0.772785,0.00159164,0.0377813,1910,1023,35.4264,-2.51804
693,1,35.649,2.58142,-8.55677e-05,-0.000686851,0.00181249,0.00145105,-0.00222347,0.70321,0.00213705,0.0341485,1917,1023,35.649,-2.58141
700,1,35.762,2.55463,0.000213476,-0.00073875,0.0021447,0.00193428,-0.00245955,0.676172,0.00254282,0.0294879,1924,1023,35.762,-2.55464
707,1,35.6755,2.55792,0.000250046,-0.0006709,0.00234627,0.0021806,-0.00260146,0.688501,0.00276449,0.0274987,1931,1023,35.6756,-2.55789
714,1,35.6487,2.45984,-1.70161e-05,-0.000393296,0.00247973,0.0022817,-0.00269201,0.747535,0.00287483,0.0300133,1938,1023,35.6487,-2.45986
721,1,35.7706,2.33813,0,0,0,0,0,0,0,-1,1945,1023,35.7706,-2.33812
728,1,35.2235,4.86981,0,0,0,0,0,0,0,-1,1952,1023,35.2235,-4.8698
735,1,35.2227,4.81989,-0.00117815,0.00135999,0.00228789,0.00270722,-0.00252537,1.03862,0.00302164,0.0248316,1959,1023,35.2227,-4.81988
742,1,35.2998,4.83209,-0.00167509,0.00228179,0.0020464,0.00314975,-0.00254305,1.16966,0.00329296,0.0291435,1966,1023,35.2998,-4.8321
749,1,35.297,4.8844,-0.00229265,0.00327509,0.00141286,0.00361309,-0.00263065,1.33597,0.00361967,0.0270327,1973,1023,35.297,-4.8844
756,1,35.3279,4.90704,-0.00286667,0.00446303,0.000537195,0.00450219,-0.00290583,1.49802,0.00431,0.0189456,1980,1023,35.3279,-4.90705
763,1,35.2976,4.89697,-0.00363014,0.00627877,-0.000557571,0.00631005,-0.00366142,-1.51476,0.00582433,0.0140947,1987,1023,35.2977,-4.897
770,1,35.2666,4.89685,-0.00409556,0.00821531,-0.00200368,0.00853321,-0.00441347,-1.41345,0.00759986,0.0143027,1994,1023,35.2665,-4.89684
777,1,35.1431,4.86182,-0.00444026,0.0104427,-0.00357683,0.0112577,-0.00525525,-1.34677,0.00974145,0.0204405,2001,1023,35.1431,-4.86184
784,1,35.1245,4.87616,-0.00477891,0.0126997,-0.00529795,0.0141802,-0.00625937,-1.29831,0.0120925,0.0425038,2008,1023,35.1246,-4.87617
791,1,35.1433,4.91638,-0.0052964,0.0151291,-0.00733354,0.0174894,-0.00765668,-1.25942,0.0148834,0.0465121,2015,1023,35.1433,-4.91636
798,1,34.8936,4.82458,-0.00609129,0.0177907,-0.0097641,0.0212745,-0.00957512,-1.22808,0.018233,0.0482845,2022,1023,34.8936,-4.82458
805,1,34.9873,4.81012,-0.0073944,0.0209267,-0.0126595,0.0257605,-0.0122282,-1.20605,0.0223918,0.047906,2029,1023,34.9873,-4.81013
812,1,34.6785,4.63776,-0.00996512,0.024923,-0.0161284,0.0312365,-0.0162786,-1.19768,0.0278823,0.0465657,2036,1023,34.6784,-4.63778
-700,-6,0,0,0,0,0,0,0,0,0,-1,524,1030,0,0
-693,-6,-27.0421,1.83228,0.0487538,-0.086153,0.0403418,0.059897,-0.0972962,0.269499,0.0916078,0.0441062,531,1030,-27.0421,-1.83233
-686,-6,-26.8799,1.93872,0.0438492,-0.0682683,0.0373409,0.0551472,-0.0795662,0.293806,0.0782016,0.0438019,538,1030,-26.8799,-1.93876
-679,-6,-26.6745,1.84497,0.0373135,-0.0521997,0.033196,0.0482806,-0.0631668,0.319084,0.0645352,0.0466296,545,1030,-26.6745,-1.84492
-672,-6,-26.3642,1.7522,0.0306184,-0.0383274,0.0285883,0.0409303,-0.0486392,0.346176,0.0517767,0.049226,552,1030,-26.3642,-1.75225
-665,-6,-26.0162,1.92896,0.0242437,-0.026746,0.0238917,0.0336888,-0.0361911,0.376474,0.0403538,0.0466453,559,1030,-26.0162,-1.92898
-658,-6,-26.009,2.13025,0.0184299,-0.0174485,0.01935,0.026877,-0.0258956,0.411608,0.03047,0.0417755,566,1030,-26.009,-2.13024
-651,-6,-26.0072,1.97717,0.0133807,-0.0103667,0.0150998,0.0207161,-0.0177021,0.452218,0.0222035,0.0402535,573,1030,-26.0072,-1.9772
-644,-6,-25.9476,2.40137,0,0,0,0,0,0,0,-1,580,1030,-25.9476,-2.40131
-637,-6,-25.978,2.22974,0.0053852,-0.000420049,0.00618757,0.00931714,-0.00435199,0.566084,0.00806355,0.0299147,587,1030,-25.978,-2.22973
-630,-6,-26.0538,2.15857,0.0027864,0.00288601,0.00192593,0.00476277,0.000909629,0.798325,0.0029196,0.0184383,594,1030,-26.0538,-2.15853
-623,-6,-26.0344,2.17285,0.00115164,0.00430178,-0.00202787,0.00529441,0.000159011,-1.11559,0.00347781,0.0153336,601,1030,-26.0344,-2.17287
-616,-6,-26.0743,2.18115,0.000260107,0.0038954,-0.00491325,0.00731644,-0.00316093,-0.962565,0.00620568,0.0151073,608,1030,-26.0743,-2.18119
-609,-6,-26.0594,2.22302,-0.00028295,0.00316973,-0.00705493,0.00870647,-0.00581969,-0.90539,0.0084417,0.0158056,615,1030,-26.0594,-2.22299
-602,-6,-26.0137,2.2655,0.000109988,0.00195716,-0.00876877,0.00985085,-0.0077837,-0.837868,0.0102046,0.0131015,622,1030,-26.0137,-2.26556
-595,-6,-25.8359,2.25879,0,0,0,0,0,0,0,-1,629,1030,-25.836,-2.25874
-588,-6,-25.8638,1.37158,0.000163494,0.0010261,-0.00970584,0.0103102,-0.00912062,-0.807602,0.0112254,0.0222901,636,1030,-25.8638,-1.37155
-581,-6,-25.8622,0.638916,0.000203172,0.00105581,-0.00955907,0.0101981,-0.00893908,-0.807683,0.0110568,0.0217025,643,1030,-25.8622,-0.638902
-574,-6,-25.8303,0.676758,-0.000210041,0.00111171,-0.00877007,0.00924577,-0.0083441,-0.823005,0.01016,0.0308119,650,1030,-25.8303,-0.67679
-567,-6,-25.8288,0.605469,-0.000977771,0.00136809,-0.00724821,0.00753766,-0.00714734,-0.865615,0.00847938,0.0411984,657,1030,-25.8288,-0.605489
-560,-6,-25.8824,0.526489,-0.0019849,0.00177943,-0.00504044,0.00527765,-0.00548312,-0.964087,0.00621312,0.042668,664,1030,-25.8824,-0.526462
-553,-6,-25.8693,0.489136,-0.00327115,0.00228653,-0.00227316,0.00309784,-0.00408246,-1.22798,0.00415852,0.0430375,671,1030,-25.8693,-0.489172
-546,-6,-25.8019,0.615967,-0.00476724,0.00279933,0.000884723,0.0029014,-0.00486931,1.45594,0.00453412,0.0455011,678,1030,-25.8019,-0.615991
-539,-6,-25.781,1.17493,-0.00630129,0.00366687,0.00318875,0.00459964,-0.00723407,1.28622,0.0068884,0.0455008,685,1030,-25.781,-1.17495
-532,-6,-25.8251,1.3446,-0.00765687,0.00500376,0.00217442,0.0053668,-0.0080199,1.40536,0.00777925,0.0435831,692,1030,-25.8251,-1.34461
-525,-6,0,0,0,0,0,0,0,0,0,-1,699,1030,0,0
-518,-6,0,0,0,0,0,0,0,0,0,-1,706,1030,0,0
-511,-6,0,0,0,0,0,0,0,0,0,-1,713,1030,0,0
-504,-6,0,0,0,0,0,0,0,0,0,-1,720,1030,0,0
-497,-6,0,0,0,0,0,0,0,0,0,-1,727,1030,0,0
-490,-6,0,0,0,0,0,0,0,0,0,-1,734,1030,0,0
-483,-6,0,0,0,0,0,0,0,0,0,-1,741,1030,0,0
-476,-6,0,0,0,0,0,0,0,0,0,-1,748,1030,0,0
-469,-6,0,0,0,0,0,0,0,0,0,-1,755,1030,0,0
-462,-6,0,0,0,0,0,0,0,0,0,-1,762,1030,0,0
-455,-6,0,0,0,0,0,0,0,0,0,-1,769,1030,0,0
-448,-6,0,0,0,0,0,0,0,0,0,-1,776,1030,0,0
-441,-6,0,0,0,0,0,0,0,0,0,-1,783,1030,0,0
-434,-6,0,0,0,0,0,0,0,0,0,-1,790,1030,0,0
-427,-6,0,0,0,0,0,0,0,0,0,-1,797,1030,0,0
-420,-6,0,0,0,0,0,0,0,0,0,-1,804,1030,0,0
-413,-6,0,0,0,0,0,0,0,0,0,-1,811,1030,0,0
-406,-6,0,0,0,0,0,0,0,0,0,-1,818,1030,0,0
-399,-6,0,0,0,0,0,0,0,0,0,-1,825,1030,0,0
-392,-6,0,0,0,0,0,0,0,0,0,-1,832,1030,0,0
-385,-6,0,0,0,0,0,0,0,0,0,-1,839,1030,0,0
-378,-6,0,0,0,0,0,0,0,0,0,-1,846,1030,0,0
-371,-6,0,0,0,0,0,0,0,0,0,-1,853,1030,0,0
-364,-6,0,0,0,0,0,0,0,0,0,-1,860,1030,0,0
-357,-6,0,0,0,0,0,0,0,0,0,-1,867,1030,0,0
-350,-6,0,0,0,0,0,0,0,0,0,-1,874,1030,0,0
-343,-6,0,0,0,0,0,0,0,0,0,-1,881,1030,0,0
-336,-6,0,0,0,0,0,0,0,0,0,-1,888,1030,0,0
-329,-6,0,0,0,0,0,0,0,0,0,-1,895,1030,0,0
-322,-6,0,0,0,0,0,0,0,0,0,-1,902,1030,0,0
-315,-6,0,0,0,0,0,0,0,0,0,-1,909,1030,0,0
-308,-6,0,0,0,0,0,0,0,0,0,-1,916,1030,0,0
-301,-6,0,0,0,0,0,0,0,0,0,-1,923,1030,0,0
-294,-6,0,0,0,0,0,0,0,0,0,-1,930,1030,0,0
-287,-6,0,0,0,0,0,0,0,0,0,-1,937,1030,0,0
-280,-6,0,0,0,0,0,0,0,0,0,-1,944,1030,0,0
-273,-6,0,0,0,0,0,0,0,0,0,-1,951,1030,0,0
-266,-6,0,0,0,0,0,0,0,0,0,-1,958,1030,0,0
-259,-6,0,0,0,0,0,0,0,0,0,-1,965,1030,0,0
-252,-6,0,0,0,0,0,0,0,0,0,-1,972,1030,0,0
-245,-6,0,0,0,0,0,0,0,0,0,-1,979,1030,0,0
-238,-6,0,0,0,0,0,0,0,0,0,-1,986,1030,0,0
-231,-6,0,0,0,0,0,0,0,0,0,-1,993,1030,0,0
-224,-6,0,0,0,0,0,0,0,0,0,-1,1000,1030,0,0
-217,-6,0,0,0,0,0,0,0,0,0,-1,1007,1030,0,0
-210,-6,0,0,0,0,0,0,0,0,0,-1,1014,1030,0,0
-203,-6,0,0,0,0,0,0,0,0,0,-1,1021,1030,0,0
-196,-6,0,0,0,0,0,0,0,0,0,-1,1028,1030,0,0
-189,-6,0,0,0,0,0,0,0,0,0,-1,1035,1030,0,0
-182,-6,0,0,0,0,0,0,0,0,0,-1,1042,1030,0,0
-175,-6,0,0,0,0,0,0,0,0,0,-1,1049,1030,0,0
-168,-6,0,0,0,0,0,0,0,0,0,-1,1056,1030,0,0
-161,-6,0,0,0,0,0,0,0,0,0,-1,1063,1030,0,0
-154,-6,0,0,0,0,0,0,0,0,0,-1,1070,1030,0,0
-147,-6,0,0,0,0,0,0,0,0,0,-1,1077,1030,0,0
-140,-6,0,0,0,0,0,0,0,0,0,-1,1084,1030,0,0
-133,-6,0,0,0,0,0,0,0,0,0,-1,1091,1030,0,0
-126,-6,0,0,0,0,0,0,0,0,0,-1,1098,1030,0,0
-119,-6,0,0,0,0,0,0,0,0,0,-1,1105,1030,0,0
-112,-6,0,0,0,0,0,0,0,0,0,-1,1112,1030,0,0
-105,-6,0,0,0,0,0,0,0,0,0,-1,1119,1030,0,0
-98,-6,0,0,0,0,0,0,0,0,0,-1,1126,1030,0,0
-91,-6,0,0,0,0,0,0,0,0,0,-1,1133,1030,0,0
-84,-6,0,0,0,0,0,0,0,0,0,-1,1140,1030,0,0
-77,-6,0,0,0,0,0,0,0,0,0,-1,1147,1030,0,0
-70,-6,0,0,0,0,0,0,0,0,0,-1,1154,1030,0,0
-63,-6,0,0,0,0,0,0,0,0,0,-1,1161,1030,0,0
-56,-6,0,0,0,0,0,0,0,0,0,-1,1168,1030,0,0
-49,-6,0,0,0,0,0,0,0,0,0,-1,1175,1030,0,0
-42,-6,0,0,0,0,0,0,0,0,0,-1,1182,1030,0,0
-35,-6,0,0,0,0,0,0,0,0,0,-1,1189,1030,0,0
-28,-6,0,0,0,0,0,0,0,0,0,-1,1196,1030,0,0
-21,-6,0,0,0,0,0,0,0,0,0,-1,1203,1030,0,0
-14,-6,0,0,0,0,0,0,0,0,0,-1,1210,1030,0,0
-7,-6,0,0,0,0,0,0,0,0,0,-1,1217,1030,0,0
0,-6,0,0,0,0,0,0,0,0,0,-1,1224,1030,0,0
7,-6,0,0,0,0,0,0,0,0,0,-1,1231,1030,0,0
14,-6,0,0,0,0,0,0,0,0,0,-1,1238,1030,0,0
21,-6,0,0,0,0,0,0,0,0,0,-1,1245,1030,0,0
28,-6,0,0,0,0,0,0,0,0,0,-1,1252,1030,0,0
35,-6,0,0,0,0,0,0,0,0,0,-1,1259,1030,0,0
42,-6,0,0,0,0,0,0,0,0,0,-1,1266,1030,0,0
49,-6,0,0,0,0,0,0,0,0,0,-1,1273,1030,0,0
56,-6,0,0,0,0,0,0,0,0,0,-1,1280,1030,0,0
63,-6,0,0,0,0,0,0,0,0,0,-1,1287,1030,0,0
70,-6,0,0,0,0,0,0,0,0,0,-1,1294,1030,0,0
77,-6,0,0,0,0,0,0,0,0,0,-1,1301,1030,0,0
84,-6,0,0,0,0,0,0,0,0,0,-1,1308,1030,0,0
91,-6,0,0,0,0,0,0,0,0,0,-1,1315,1030,0,0
98,-6,0,0,0,0,0,0,0,0,0,-1,1322,1030,0,0
105,-6,0,0,0,0,0,0,0,0,0,-1,1329,1030,0,0
112,-6,0,0,0,0,0,0,0,0,0,-1,1336,1030,0,0
119,-6,0,0,0,0,0,0,0,0,0,-1,1343,1030,0,0
126,-6,0,0,0,0,0,0,0,0,0,-1,1350,1030,0,0
133,-6,0,0,0,0,0,0,0,0,0,-1,1357,1030,0,0
140,-6,0,0,0,0,0,0,0,0,0,-1,1364,1030,0,0
147,-6,0,0,0,0,0,0,0,0,0,-1,1371,1030,0,0
154,-6,0,0,0,0,0,0,0,0,0,-1,1378,1030,0,0
161,-6,0,0,0,0,0,0,0,0,0,-1,1385,1030,0,0
168,-6,0,0,0,0,0,0,0,0,0,-1,1392,1030,0,0
175,-6,0,0,0,0,0,0,0,0,0,-1,1399,1030,0,0
182,-6,0,0,0,0,0,0,0,0,0,-1,1406,1030,0,0
189,-6,0,0,0,0,0,0,0,0,0,-1,1413,1030,0,0
196,-6,0,0,0,0,0,0,0,0,0,-1,1420,1030,0,0
203,-6,0,0,0,0,0,0,0,0,0,-1,1427,1030,0,0
210,-6,0,0,0,0,0,0,0,0,0,-1,1434,1030,0,0
217,-6,0,0,0,0,0,0,0,0,0,-1,1441,1030,0,0
224,-6,0,0,0,0,0,0,0,0,0,-1,1448,1030,0,0
231,-6,0,0,0,0,0,0,0,0,0,-1,1455,1030,0,0
238,-6,0,0,0,0,0,0,0,0,0,-1,1462,1030,0,0
245,-6,0,0,0,0,0,0,0,0,0,-1,1469,1030,0,0
252,-6,0,0,0,0,0,0,0,0,0,-1,1476,1030,0,0
259,-6,0,0,0,0,0,0,0,0,0,-1,1483,1030,0,0
266,-6,0,0,0,0,0,0,0,0,0,-1,1490,1030,0,0
273,-6,0,0,0,0,0,0,0,0,0,-1,1497,1030,0,0
280,-6,0,0,0,0,0,0,0,0,0,-1,1504,1030,0,0
287,-6,0,0,0,0,0,0,0,0,0,-1,1511,1030,0,0
294,-6,0,0,0,0,0,0,0,0,0,-1,1518,1030,0,0
301,-6,0,0,0,0,0,0,0,0,0,-1,1525,1030,0,0
308,-6,0,0,0,0,0,0,0,0,0,-1,1532,1030,0,0
315,-6,0,0,0,0,0,0,0,0,0,-1,1539,1030,0,0
322,-6,0,0,0,0,0,0,0,0,0,-1,1546,1030,0,0
329,-6,0,0,0,0,0,0,0,0,0,-1,1553,1030,0,0
336,-6,0,0,0,0,0,0,0,0,0,-1,1560,1030,0,0
343,-6,0,0,0,0,0,0,0,0,0,-1,1567,1030,0,0
350,-6,0,0,0,0,0,0,0,0,0,-1,1574,1030,0,0
357,-6,0,0,0,0,0,0,0,0,0,-1,1581,1030,0,0
364,-6,0,0,0,0,0,0,0,0,0,-1,1588,1030,0,0
371,-6,0,0,0,0,0,0,0,0,0,-1,1595,1030,0,0
378,-6,0,0,0,0,0,0,0,0,0,-1,1602,1030,0,0
385,-6,0,0,0,0,0,0,0,0,0,-1,1609,1030,0,0
392,-6,0,0,0,0,0,0,0,0,0,-1,1616,1030,0,0
399,-6,0,0,0,0,0,0,0,0,0,-1,1623,1030,0,0
406,-6,0,0,0,0,0,0,0,0,0,-1,1630,1030,0,0
413,-6,0,0,0,0,0,0,0,0,0,-1,1637,1030,0,0
420,-6,0,0,0,0,0,0,0,0,0,-1,1644,1030,0,0
427,-6,0,0,0,0,0,0,0,0,0,-1,1651,1030,0,0
434,-6,0,0,0,0,0,0,0,0,0,-1,1658,1030,0,0
441,-6,0,0,0,0,0,0,0,0,0,-1,1665,1030,0,0
448,-6,0,0,0,0,0,0,0,0,0,-1,1672,1030,0,0
455,-6,0,0,0,0,0,0,0,0,0,-1,1679,1030,0,0
462,-6,0,0,0,0,0,0,0,0,0,-1,1686,1030,0,0
469,-6,0,0,0,0,0,0,0,0,0,-1,1693,1030,0,0
476,-6,0,0,0,0,0,0,0,0,0,-1,1700,1030,0,0
483,-6,0,0,0,0,0,0,0,0,0,-1,1707,1030,0,0
490,-6,0,0,0,0,0,0,0,0,0,-1,1714,1030,0,0
497,-6,0,0,0,0,0,0,0,0,0,-1,1721,1030,0,0
504,-6,0,0,0,0,0,0,0,0,0,-1,1728,1030,0,0
511,-6,0,0,0,0,0,0,0,0,0,-1,1735,1030,0,0
518,-6,0,0,0,0,0,0,0,0,0,-1,1742,1030,0,0
525,-6,0,0,0,0,0,0,0,0,0,-1,1749,1030,0,0
532,-6,0,0,0,0,0,0,0,0,0,-1,1756,1030,0,0
539,-6,0,0,0,0,0,0,0,0,0,-1,1763,1030,0,0
546,-6,0,0,0,0,0,0,0,0,0,-1,1770,1030,0,0
553,-6,0,0,0,0,0,0,0,0,0,-1,1777,1030,0,0
560,-6,0,0,0,0,0,0,0,0,0,-1,1784,1030,0,0
567,-6,0,0,0,0,0,0,0,0,0,-1,1791,1030,0,0
574,-6,0,0,0,0,0,0,0,0,0,-1,1798,1030,0,0
581,-6,0,0,0,0,0,0,0,0,0,-1,1805,1030,0,0
588,-6,0,0,0,0,0,0,0,0,0,-1,1812,1030,0,0
595,-6,0,0,0,0,0,0,0,0,0,-1,1819,1030,0,0
602,-6,0,0,0,0,0,0,0,0,0,-1,1826,1030,0,0
609,-6,0,0,0,0,0,0,0,0,0,-1,1833,1030,0,0
616,-6,0,0,0,0,0,0,0,0,0,-1,1840,1030,0,0
623,-6,0,0,0,0,0,0,0,0,0,-1,1847,1030,0,0
630,-6,0,0,0,0,0,0,0,0,0,-1,1854,1030,0,0
637,-6,0,0,0,0,0,0,0,0,0,-1,1861,1030,0,0
644,-6,0,0,0,0,0,0,0,0,0,-1,1868,1030,0,0
651,-6,35.8136,2.505,-0.00250867,0.00140404,0.00202661,0.0022645,-0.00336914,1.16928,0.00327336,0.0360038,1875,1030,35.8135,-2.50506
658,-6,35.7209,2.47717,-0.00214761,0.000786693,0.00125111,0.00124771,-0.00260862,1.21775,0.00227219,0.0406269,1882,1030,35.7209,-2.47718
665,-6,35.7195,2.47522,-0.00177891,0.000373649,0.000781316,0.000627344,-0.00203261,1.25683,0.00160557,0.0428819,1889,1030,35.7194,-2.47517
672,-6,35.7534,2.45117,-0.00133043,4.44859e-05,0.000801237,0.000412765,-0.00169871,1.13996,0.00129222,0.0397076,1896,1030,35.7534,-2.4512
679,-6,35.6276,2.40747,-0.000834721,-0.000199825,0.00113187,0.000658269,-0.00169281,0.922118,0.00140052,0.0398024,1903,1030,35.6275,-2.40745
686,-6,35.5658,2.4425,-0.000462343,-0.000491734,0.00157585,0.00109888,-0.00205295,0.780736,0.00184729,0.037456,1910,1030,35.5658,-2.44245
693,-6,35.7054,2.48767,-0.000168351,-0.000728846,0.00205194,0.0016224,-0.00251959,0.71753,0.00241001,0.035007,1917,1030,35.7055,-2.4877
700,-6,35.811,2.53625,9.94489e-05,-0.000835541,0.00241192,0.00208877,-0.00282486,0.689672,0.00284747,0.0310955,1924,1030,35.8111,-2.53628
707,-6,35.6764,2.5918,0.000117009,-0.000824303,0.00262105,0.00230932,-0.00301662,0.696561,0.00308396,0.0287696,1931,1030,35.6764,-2.59175
714,-6,35.6686,2.39673,-0.000141935,-0.000597644,0.00276948,0.00240905,-0.00314863,0.744354,0.00321818,0.0385746,1938,1030,35.6686,-2.39678
721,-6,35.1934,4.38025,0,0,0,0,0,0,0,-1,1945,1030,35.1934,-4.38019
728,-6,35.1992,4.74902,0,0,0,0,0,0,0,-1,1952,1030,35.1992,-4.74907
735,-6,35.2675,4.7981,-0.0013004,0.00109754,0.00260933,0.00277018,-0.00297304,1.00076,0.00331654,0.0238378,1959,1030,35.2674,-4.79806
742,-6,35.3328,4.81946,-0.00178423,0.00207269,0.00233674,0.00317397,-0.00288551,1.13038,0.00349976,0.0217481,1966,1030,35.3328,-4.81946
749,-6,35.3167,4.89136,-0.0024387,0.00312345,0.00168677,0.003595,-0.00291025,1.2982,0.00376273,0.0189815,1973,1030,35.3167,-4.89141
756,-6,35.3586,4.85034,-0.00311126,0.00438797,0.000770814,0.00446638,-0.00318966,1.46942,0.00444066,0.0159777,1980,1030,35.3587,-4.85036
763,-6,35.286,4.79211,-0.0040151,0.00640413,-0.000378074,0.00641783,-0.0040288,-1.53457,0.00608371,0.0159747,1987,1030,35.286,-4.79211
770,-6,35.2491,4.77344,-0.00473995,0.00857891,-0.00190837,0.00884695,-0.005008,-1.43125,0.00810087,0.0144371,1994,1030,35.2492,-4.77347
777,-6,35.1841,4.81531,-0.00546725,0.0111793,-0.00356333,0.01191,-0.00619794,-1.36854,0.0106266,0.0154021,2001,1030,35.1841,-4.8153
784,-6,35.1586,4.71155,-0.00624737,0.0138489,-0.00533706,0.0151783,-0.00757681,-1.32667,0.0133798,0.0371107,2008,1030,35.1586,-4.71151
791,-6,35.2056,4.84888,-0.00731501,0.0167951,-0.00739917,0.0188847,-0.00940464,-1.29555,0.0166358,0.0461769,2015,1030,35.2057,-4.84883
798,-6,35.2791,4.87244,-0.00875627,0.0201025,-0.00983503,0.0231355,-0.0117893,-1.27166,0.0205154,0.0463091,2022,1030,35.2791,-4.87243
805,-6,35.2773,4.67664,-0.0107407,0.0240364,-0.0126888,0.0281738,-0.0148781,-1.2556,0.0252481,0.0451597,2029,1030,35.2774,-4.67662
812,-6,34.7852,4.59412,-0.0139724,0.0289496,-0.0160073,0.0342619,-0.0192847,-1.25037,0.0313156,0.0430858,2036,1030,34.7852,-4.59416
-700,-13,0,0,0,0,0,0,0,0,0,-1,524,1037,0,0
-693,-13,-28.0377,2.6283,0.0401575,-0.0743858,0.0406085,0.0530934,-0.0873217,0.308387,0.0818676,0.0487014,531,1037,-28.0377,-2.62832
-686,-13,-27.8734,2.72961,0.0381662,-0.05966,0.0370204,0.0505964,-0.0720902,0.323939,0.0711946,0.043247,538,1037,-27.8734,-2.72964
-679,-13,-27.5329,2.63708,0.0338508,-0.046162,0.0326165,0.0454617,-0.0577729,0.341995,0.0597436,0.0462575,545,1037,-27.5329,-2.63712
-672,-13,-26.8055,2.6405,0.0287659,-0.034321,0.0279386,0.0393598,-0.0449149,0.362434,0.0486912,0.049567,552,1037,-26.8056,-2.64055
-665,-13,-25.9232,2.68396,0.0235125,-0.0242907,0.0232658,0.0329663,-0.0337445,0.38596,0.0385164,0.0481849,559,1037,-25.9231,-2.68392
-658,-13,-25.9974,2.31238,0,0,0,0,0,0,0,-1,566,1037,-25.9975,-2.31238
-651,-13,-26.0189,1.85657,0.0138005,-0.00981652,0.0146175,0.0207833,-0.0167993,0.445649,0.0217389,0.0440223,573,1037,-26.0189,-1.85654
-644,-13,-25.8278,1.99329,0.00962531,-0.00500528,0.0104381,0.0150563,-0.0104362,0.479758,0.0147985,0.030085,580,1037,-25.8278,-1.99334
-637,-13,-25.8978,2.10864,0.00616971,-0.000899283,0.00561853,0.00927303,-0.0040026,0.504635,0.00786345,0.0230987,587,1037,-25.8978,-2.1087
-630,-13,-25.972,2.08606,0.00355537,0.00216346,0.00139014,0.00441404,0.00130479,0.553319,0.00261846,0.0146412,594,1037,-25.972,-2.08605
-623,-13,-25.9694,2.14343,0.00176358,0.00332705,-0.00252589,0.00518941,-9.87782e-05,-0.935468,0.003493,0.0120893,601,1037,-25.9694,-2.14346
-616,-13,-25.9554,2.18689,0.000546477,0.00305274,-0.00543381,0.00737604,-0.00377683,-0.898725,0.00654993,0.0110701,608,1037,-25.9554,-2.18685
-609,-13,-25.9367,2.23071,-0.000257247,0.00239882,-0.00762787,0.0088134,-0.00667183,-0.871586,0.00896886,0.0155123,615,1037,-25.9367,-2.23074
-602,-13,-25.9376,2.28894,3.1239e-05,0.00137639,-0.0094085,0.0101363,-0.0087287,-0.82108,0.0109018,0.0120281,622,1037,-25.9376,-2.28892
-595,-13,-25.9637,2.33789,0,0,0,0,0,0,0,-1,629,1037,-25.9637,-2.33791
-588,-13,-25.7686,0.72583,0,0,0,0,0,0,0,-1,636,1037,-25.7686,-0.725876
-581,-13,-25.8517,0.597412,-3.17714e-05,0.000644387,-0.0102171,0.010529,-0.00991635,-0.801937,0.0118059,0.0182827,643,1037,-25.8517,-0.597354
-574,-13,-25.842,0.500488,-0.000449159,0.000830521,-0.00940361,0.00961603,-0.00923467,-0.819367,0.0108842,0.0302609,650,1037,-25.8421,-0.500542
-567,-13,-25.8352,0.527222,-0.00120196,0.00127385,-0.0078409,0.00797397,-0.00790208,-0.863691,0.00916607,0.0386697,657,1037,-25.8352,-0.527271
-560,-13,-25.8697,0.622925,-0.00218503,0.00194088,-0.00556718,0.00581503,-0.00605919,-0.962833,0.00685607,0.0430562,664,1037,-25.8697,-0.622896
-553,-13,-25.8342,0.508667,-0.00344347,0.00277359,-0.00270712,0.00378713,-0.00445701,-1.21255,0.00476499,0.0440736,671,1037,-25.8342,-0.508682
-546,-13,-25.8048,0.638428,-0.00493838,0.00368469,0.000572955,0.00372259,-0.00497628,1.50474,0.00503965,0.0427719,678,1037,-25.8048,-0.638425
-539,-13,-25.8004,1.05359,-0.00656669,0.00490758,0.0029253,0.00561033,-0.00726944,1.33503,0.00745668,0.0431264,685,1037,-25.8004,-1.05356
-532,-13,-25.9399,0.702515,-0.00814976,0.00639625,0.00165385,0.00658192,-0.00833543,1.459,0.00863235,0.0411525,692,1037,-25.94,-0.70248
-525,-13,0,0,0,0,0,0,0,0,0,-1,699,1037,0,0
-518,-13,0,0,0,0,0,0,0,0,0,-1,706,1037,0,0
-511,-13,0,0,0,0,0,0,0,0,0,-1,713,1037,0,0
-504,-13,0,0,0,0,0,0,0,0,0,-1,720,1037,0,0
-497,-13,0,0,0,0,0,0,0,0,0,-1,727,1037,0,0
-490,-13,0,0,0,0,0,0,0,0,0,-1,734,1037,0,0
-483,-13,0,0,0,0,0,0,0,0,0,-1,741,1037,0,0
-476,-13,0,0,0,0,0,0,0,0,0,-1,748,1037,0,0
-469,-13,0,0,0,0,0,0,0,0,0,-1,755,1037,0,0
-462,-13,0,0,0,0,0,0,0,0,0,-1,762,1037,0,0
-455,-13,0,0,0,0,0,0,0,0,0,-1,769,1037,0,0
-448,-13,0,0,0,0,0,0,0,0,0,-1,776,1037,0,0
-441,-13,0,0,0,0,0,0,0,0,0,-1,783,1037,0,0
-434,-13,0,0,0,0,0,0,0,0,0,-1,790,1037,0,0
-427,-13,0,0,0,0,0,0,0,0,0,-1,797,1037,0,0
-420,-13,0,0,0,0,0,0,0,0,0,-1,804,1037,0,0
-413,-13,0,0,0,0,0,0,0,0,0,-1,811,1037,0,0
-406,-13,0,0,0,0,0,0,0,0,0,-1,818,1037,0,0
-399,-13,0,0,0,0,0,0,0,0,0,-1,825,1037,0,0
-392,-13,0,0,0,0,0,0,0,0,0,-1,832,1037,0,0
-385,-13,0,0,0,0,0,0,0,0,0,-1,839,1037,0,0
-378,-13,0,0,0,0,0,0,0,0,0,-1,846,1037,0,0
-371,-13,0,0,0,0,0,0,0,0,0,-1,853,1037,0,0
-364,-13,0,0,0,0,0,0,0,0,0,-1,860,1037,0,0
-357,-13,0,0,0,0,0,0,0,0,0,-1,867,1037,0,0
-350,-13,0,0,0,0,0,0,0,0,0,-1,874,1037,0,0
-343,-13,0,0,0,0,0,0,0,0,0,-1,881,1037,0,0
-336,-13,0,0,0,0,0,0,0,0,0,-1,888,1037,0,0
-329,-13,0,0,0,0,0,0,0,0,0,-1,895,1037,0,0
-322,-13,0,0,0,0,0,0,0,0,0,-1,902,1037,0,0
-315,-13,0,0,0,0,0,0,0,0,0,-1,909,1037,0,0
-308,-13,0,0,0,0,0,0,0,0,0,-1,916,1037,0,0
-301,-13,0,0,0,0,0,0,0,0,0,-1,923,1037,0,0
-294,-13,0,0,0,0,0,0,0,0,0,-1,930,1037,0,0
-287,-13,0,0,0,0,0,0,0,0,0,-1,937,1037,0,0
-280,-13,0,0,0,0,0,0,0,0,0,-1,944,1037,0,0
-273,-13,0,0,0,0,0,0,0,0,0,-1,951,1037,0,0
-266,-13,0,0,0,0,0,0,0,0,0,-1,958,1037,0,0
-259,-13,0,0,0,0,0,0,0,0,0,-1,965,1037,0,0
-252,-13,0,0,0,0,0,0,0,0,0,-1,972,1037,0,0
-245,-13,0,0,0,0,0,0,0,0,0,-1,979,1037,0,0
-238,-13,0,0,0,0,0,0,0,0,0,-1,986,1037,0,0
-231,-13,0,0,0,0,0,0,0,0,0,-1,993,1037,0,0
-224,-13,0,0,0,0,0,0,0,0,0,-1,1000,1037,0,0
-217,-13,0,0,0,0,0,0,0,0,0,-1,1007,1037,0,0
-210,-13,0,0,0,0,0,0,0,0,0,-1,1014,1037,0,0
-203,-13,0,0,0,0,0,0,0,0,0,-1,1021,1037,0,0
-196,-13,0,0,0,0,0,0,0,0,0,-1,1028,1037,0,0
-189,-13,0,0,0,0,0,0,0,0,0,-1,1035,1037,0,0
-182,-13,0,0,0,0,0,0,0,0,0,-1,1042,1037,0,0
-175,-13,0,0,0,0,0,0,0,0,0,-1,1049,1037,0,0
-168,-13,0,0,0,0,0,0,0,0,0,-1,1056,1037,0,0
-161,-13,0,0,0,0,0,0,0,0,0,-1,1063,1037,0,0
-154,-13,0,0,0,0,0,0,0,0,0,-1,1070,1037,0,0
-147,-13,0,0,0,0,0,0,0,0,0,-1,1077,1037,0,0
-140,-13,0,0,0,0,0,0,0,0,0,-1,1084,1037,0,0
-133,-13,0,0,0,0,0,0,0,0,0,-1,1091,1037,0,0
-126,-13,0,0,0,0,0,0,0,0,0,-1,1098,1037,0,0
-119,-13,0,0,0,0,0,0,0,0,0,-1,1105,1037,0,0
-112,-13,0,0,0,0,0,0,0,0,0,-1,1112,1037,0,0
-105,-13,0,0,0,0,0,0,0,0,0,-1,1119,1037,0,0
-98,-13,0,0,0,0,0,0,0,0,0,-1,1126,1037,0,0
-91,-13,0,0,0,0,0,0,0,0,0,-1,1133,1037,0,0
-84,-13,0,0,0,0,0,0,0,0,0,-1,1140,1037,0,0
-77,-13,0,0,0,0,0,0,0,0,0,-1,1147,1037,0,0
-70,-13,0,0,0,0,0,0,0,0,0,-1,1154,1037,0,0
-63,-13,0,0,0,0,0,0,0,0,0,-1,1161,1037,0,0
-56,-13,0,0,0,0,0,0,0,0,0,-1,1168,1037,0,0
-49,-13,0,0,0,0,0,0,0,0,0,-1,1175,1037,0,0
-42,-13,0,0,0,0,0,0,0,0,0,-1,1182,1037,0,0
-35,-13,0,0,0,0,0,0,0,0,0,-1,1189,1037,0,0
-28,-13,0,0,0,0,0,0,0,0,0,-1,1196,1037,0,0
-21,-13,0,0,0,0,0,0,0,0,0,-1,1203,1037,0,0
-14,-13,0,0,0,0,0,0,0,0,0,-1,1210,1037,0,0
-7,-13,0,0,0,0,0,0,0,0,0,-1,1217,1037,0,0
0,-13,0,0,0,0,0,0,0,0,0,-1,1224,1037,0,0
7,-13,0,0,0,0,0,0,0,0,0,-1,1231,1037,0,0
14,-13,0,0,0,0,0,0,0,0,0,-1,1238,1037,0,0
21,-13,0,0,0,0,0,0,0,0,0,-1,1245,1037,0,0
28,-13,0,0,0,0,0,0,0,0,0,-1,1252,1037,0,0
35,-13,0,0,0,0,0,0,0,0,0,-1,1259,1037,0,0
42,-13,0,0,0,0,0,0,0,0,0,-1,1266,1037,0,0
49,-13,0,0,0,0,0,0,0,0,0,-1,1273,1037,0,0
56,-13,0,0,0,0,0,0,0,0,0,-1,1280,1037,0,0
63,-13,0,0,0,0,0,0,0,0,0,-1,1287,1037,0,0
70,-13,0,0,0,0,0,0,0,0,0,-1,1294,1037,0,0
77,-13,0,0,0,0,0,0,0,0,0,-1,1301,1037,0,0
84,-13,0,0,0,0,0,0,0,0,0,-1,1308,1037,0,0
91,-13,0,0,0,0,0,0,0,0,0,-1,1315,1037,0,0
98,-13,0,0,0,0,0,0,0,0,0,-1,1322,1037,0,0
105,-13,0,0,0,0,0,0,0,0,0,-1,1329,1037,0,0
112,-13,0,0,0,0,0,0,0,0,0,-1,1336,1037,0,0
119,-13,0,0,0,0,0,0,0,0,0,-1,1343,1037,0,0
126,-13,0,0,0,0,0,0,0,0,0,-1,1350,1037,0,0
133,-13,0,0,0,0,0,0,0,0,0,-1,1357,1037,0,0
140,-13,0,0,0,0,0,0,0,0,0,-1,1364,1037,0,0
147,-13,0,0,0,0,0,0,0,0,0,-1,1371,1037,0,0
154,-13,0,0,0,0,0,0,0,0,0,-1,1378,1037,0,0
161,-13,0,0,0,0,0,0,0,0,0,-1,1385,1037,0,0
168,-13,0,0,0,0,0,0,0,0,0,-1,1392,1037,0,0
175,-13,0,0,0,0,0,0,0,0,0,-1,1399,1037,0,0
182,-13,0,0,0,0,0,0,0,0,0,-1,1406,1037,0,0
189,-13,0,0,0,0,0,0,0,0,0,-1,1413,1037,0,0
196,-13,0,0,0,0,0,0,0,0,0,-1,1420,1037,0,0
203,-13,0,0,0,0,0,0,0,0,0,-1,1427,1037,0,0
210,-13,0,0,0,0,0,0,0,0,0,-1,1434,1037,0,0
217,-13,0,0,0,0,0,0,0,0,0,-1,1441,1037,0,0
224,-13,0,0,0,0,0,0,0,0,0,-1,1448,1037,0,0
231,-13,0,0,0,0,0,0,0,0,0,-1,1455,1037,0,0
238,-13,0,0,0,0,0,0,0,0,0,-1,1462,1037,0,0
245,-13,0,0,0,0,0,0,0,0,0,-1,1469,1037,0,0
252,-13,0,0,0,0,0,0,0,0,0,-1,1476,1037,0,0
259,-13,0,0,0,0,0,0,0,0,0,-1,1483,1037,0,0
266,-13,0,0,0,0,0,0,0,0,0,-1,1490,1037,0,0
273,-13,0,0,0,0,0,0,0,0,0,-1,1497,1037,0,0
280,-13,0,0,0,0,0,0,0,0,0,-1,1504,1037,0,0
287,-13,0,0,0,0,0,0,0,0,0,-1,1511,1037,0,0
294,-13,0,0,0,0,0,0,0,0,0,-1,1518,1037,0,0
301,-13,0,0,0,0,0,0,0,0,0,-1,1525,1037,0,0
308,-13,0,0,0,0,0,0,0,0,0,-1,1532,1037,0,0
315,-13,0,0,0,0,0,0,0,0,0,-1,1539,1037,0,0
322,-13,0,0,0,0,0,0,0,0,0,-1,1546,1037,0,0
329,-13,0,0,0,0,0,0,0,0,0,-1,1553,1037,0,0
336,-13,0,0,0,0,0,0,0,0,0,-1,1560,1037,0,0
343,-13,0,0,0,0,0,0,0,0,0,-1,1567,1037,0,0
350,-13,0,0,0,0,0,0,0,0,0,-1,1574,1037,0,0
357,-13,0,0,0,0,0,0,0,0,0,-1,1581,1037,0,0
364,-13,0,0,0,0,0,0,0,0,0,-1,1588,1037,0,0
371,-13,0,0,0,0,0,0,0,0,0,-1,1595,1037,0,0
378,-13,0,0,0,0,0,0,0,0,0,-1,1602,1037,0,0
385,-13,0,0,0,0,0,0,0,0,0,-1,1609,1037,0,0
392,-13,0,0,0,0,0,0,0,0,0,-1,1616,1037,0,0
399,-13,0,0,0,0,0,0,0,0,0,-1,1623,1037,0,0
406,-13,0,0,0,0,0,0,0,0,0,-1,1630,1037,0,0
413,-13,0,0,0,0,0,0,0,0,0,-1,1637,1037,0,0
420,-13,0,0,0,0,0,0,0,0,0,-1,1644,1037,0,0
427,-13,0,0,0,0,0,0,0,0,0,-1,1651,1037,0,0
434,-13,0,0,0,0,0,0,0,0,0,-1,1658,1037,0,0
441,-13,0,0,0,0,0,0,0,0,0,-1,1665,1037,0,0
448,-13,0,0,0,0,0,0,0,0,0,-1,1672,1037,0,0
455,-13,0,0,0,0,0,0,0,0,0,-1,1679,1037,0,0
462,-13,0,0,0,0,0,0,0,0,0,-1,1686,1037,0,0
469,-13,0,0,0,0,0,0,0,0,0,-1,1693,1037,0,0
476,-13,0,0,0,0,0,0,0,0,0,-1,1700,1037,0,0
483,-13,0,0,0,0,0,0,0,0,0,-1,1707,1037,0,0
490,-13,0,0,0,0,0,0,0,0,0,-1,1714,1037,0,0
497,-13,0,0,0,0,0,0,0,0,0,-1,1721,1037,0,0
504,-13,0,0,0,0,0,0,0,0,0,-1,1728,1037,0,0
511,-13,0,0,0,0,0,0,0,0,0,-1,1735,1037,0,0
518,-13,0,0,0,0,0,0,0,0,0,-1,1742,1037,0,0
525,-13,0,0,0,0,0,0,0,0,0,-1,1749,1037,0,0
532,-13,0,0,0,0,0,0,0,0,0,-1,1756,1037,0,0
539,-13,0,0,0,0,0,0,0,0,0,-1,1763,1037,0,0
546,-13,0,0,0,0,0,0,0,0,0,-1,1770,1037,0,0
553,-13,0,0,0,0,0,0,0,0,0,-1,1777,1037,0,0
560,-13,0,0,0,0,0,0,0,0,0,-1,1784,1037,0,0
567,-13,0,0,0,0,0,0,0,0,0,-1,1791,1037,0,0
574,-13,0,0,0,0,0,0,0,0,0,-1,1798,1037,0,0
581,-13,0,0,0,0,0,0,0,0,0,-1,1805,1037,0,0
588,-13,0,0,0,0,0,0,0,0,0,-1,1812,1037,0,0
595,-13,0,0,0,0,0,0,0,0,0,-1,1819,1037,0,0
602,-13,0,0,0,0,0,0,0,0,0,-1,1826,1037,0,0
609,-13,0,0,0,0,0,0,0,0,0,-1,1833,1037,0,0
616,-13,0,0,0,0,0,0,0,0,0,-1,1840,1037,0,0
623,-13,0,0,0,0,0,0,0,0,0,-1,1847,1037,0,0
630,-13,0,0,0,0,0,0,0,0,0,-1,1854,1037,0,0
637,-13,0,0,0,0,0,0,0,0,0,-1,1861,1037,0,0
644,-13,0,0,0,0,0,0,0,0,0,-1,1868,1037,0,0
651,-13,35.9146,2.29297,-0.00111369,0.00134448,0.0027822,0.00315699,-0.0029262,0.993391,0.00351297,0.0383091,1875,1037,35.9146,-2.29295
658,-13,35.8898,2.33472,-0.00109686,0.000903749,0.00181973,0.00197999,-0.0021731,1.0367,0.00239865,0.0447081,1882,1037,35.8898,-2.33469
665,-13,35.8356,2.49683,-0.00102867,0.000598897,0.00119067,0.00122731,-0.00165708,1.08517,0.00167145,0.0453345,1889,1037,35.8355,-2.49681
672,-13,35.7898,2.44714,-0.000816996,0.000325089,0.00112992,0.00102007,-0.00151197,1.01937,0.00147104,0.0355044,1896,1037,35.7898,-2.44714
679,-13,35.5973,2.40076,-0.000498184,6.24691e-05,0.00142339,0.00123288,-0.00166859,0.882625,0.00168145,0.0352853,1903,1037,35.5973,-2.40079
686,-13,35.5553,2.47729,-0.000269003,-0.000282569,0.00186098,0.00158521,-0.00213678,0.783576,0.00215674,0.0380175,1910,1037,35.5553,-2.47727
693,-13,35.5916,2.4541,-7.75946e-05,-0.000597615,0.00234864,0.00202538,-0.00270059,0.730269,0.00273781,0.038249,1917,1037,35.5916,-2.45404
700,-13,35.7167,2.45984,0.000125947,-0.000775143,0.00273752,0.00244975,-0.00309895,0.703839,0.00321085,0.0362859,1924,1037,35.7166,-2.45985
707,-13,35.7095,2.5575,9.69583e-05,-0.000831998,0.00295509,0.00262385,-0.00335889,0.707446,0.00346281,0.0297669,1931,1037,35.7095,-2.5575
714,-13,35.6611,2.67053,-0.000175519,-0.000679146,0.00310685,0.00268971,-0.00354437,0.744961,0.00361051,0.0322231,1938,1037,35.6611,-2.67051
721,-13,35.3972,3.71191,0,0,0,0,0,0,0,-1,1945,1037,35.3972,-3.71196
728,-13,35.3479,4.87231,0,0,0,0,0,0,0,-1,1952,1037,35.3479,-4.87227
735,-13,35.3276,4.88867,-0.00133825,0.0009,0.00292129,0.00290919,-0.00334744,0.968322,0.00361522,0.022124,1959,1037,35.3276,-4.88872
742,-13,35.3134,4.88342,-0.00180574,0.00190018,0.00260324,0.00324258,-0.00314814,1.0947,0.00368981,0.0140572,1966,1037,35.3133,-4.88346
749,-13,35.3221,4.85913,-0.00248127,0.00295469,0.00190081,0.00355341,-0.00307999,1.26565,0.00383305,0.0192613,1973,1037,35.3222,-4.85919
756,-13,35.3182,4.82568,-0.00322672,0.00426303,0.000887397,0.00436674,-0.00333042,1.45446,0.00445736,0.0141175,1980,1037,35.3183,-4.82569
763,-13,35.287,4.77979,-0.00418599,0.00647103,-0.000426104,0.00648804,-0.004203,-1.5309,0.00621929,0.0196147,1987,1037,35.2869,-4.77973
770,-13,35.2419,4.75342,-0.0050829,0.00885024,-0.0021584,0.00917694,-0.0054096,-1.42057,0.00851466,0.0176251,1994,1037,35.2419,-4.75347
777,-13,35.1471,4.71484,-0.00606638,0.0117907,-0.00407188,0.0126754,-0.00695105,-1.35686,0.0114909,0.0138585,2001,1037,35.1471,-4.71486
784,-13,35.1527,4.62183,-0.00715452,0.0148436,-0.00608672,0.0164154,-0.00872636,-1.31808,0.0147402,0.0295279,2008,1037,35.1527,-4.62185
791,-13,35.1787,4.59241,-0.00859646,0.0182595,-0.00839168,0.020666,-0.011003,-1.29152,0.0185656,0.0461438,2015,1037,35.1788,-4.5924
798,-13,35.2273,4.70764,-0.0104822,0.0221677,-0.0110939,0.0255805,-0.013895,-1.27236,0.0231216,0.046953,2022,1037,35.2274,-4.70765
805,-13,35.1694,4.50891,-0.0129185,0.0268594,-0.0142098,0.0314141,-0.0174731,-1.26061,0.028605,0.0418749,2029,1037,35.1695,-4.50887
812,-13,34.8245,4.47571,-0.0164949,0.032695,-0.0177703,0.038443,-0.0222429,-1.25796,0.0354507,0.0403638,2036,1037,34.8245,-4.47575
-700,-20,-29.475,2.84009,0,0,0,0,0,0,0,-1,524,1044,-29.475,-2.84009
-693,-20,-29.0223,3.38074,0.0351513,-0.0633503,0.0402415,0.049501,-0.0776999,0.342533,0.0740386,0.0439737,531,1044,-29.0223,-3.38072
-686,-20,-28.8609,3.49146,0.0348532,-0.0511697,0.0365533,0.0482875,-0.064604,0.352204,0.0654045,0.04224,538,1044,-28.8609,-3.49142
-679,-20,-28.3848,3.32739,0.0319326,-0.0398427,0.0321108,0.0442013,-0.0521114,0.364956,0.0556686,0.0465165,545,1044,-28.3847,-3.32741
-672,-20,-27.0819,3.45825,0.0278858,-0.0297824,0.0274212,0.0388428,-0.0407394,0.380144,0.0459511,0.0491243,552,1044,-27.0819,-3.45829
-665,-20,-25.6008,3.14429,0.0233561,-0.0211647,0.0227422,0.0329192,-0.0307278,0.398052,0.0367538,0.0452558,559,1044,-25.6008,-3.14425
-658,-20,-26.1878,1.82019,0,0,0,0,0,0,0,-1,566,1044,-26.1878,-1.82019
-651,-20,-25.9337,1.81812,0.0143493,-0.00856421,0.0140973,0.0210583,-0.0152731,0.444183,0.0210644,0.0432684,573,1044,-25.9337,-1.81815
-644,-20,-25.7533,1.85498,0.0102744,-0.00443997,0.00989787,0.0152499,-0.00941551,0.465796,0.0143728,0.0279554,580,1044,-25.7533,-1.85501
-637,-20,-25.8229,1.9104,0.00682138,-0.000826666,0.0050123,0.00930182,-0.00330711,0.459536,0.00754904,0.0181002,587,1044,-25.823,-1.91038
-630,-20,-25.8806,2.03015,0.00412947,0.00183635,0.000785539,0.00437276,0.00159307,0.300337,0.00255541,0.0147169,594,1044,-25.8806,-2.03011
-623,-20,-25.8809,2.11792,0.00219002,0.00266379,-0.00307272,0.00550875,-0.000654934,-0.823868,0.00390914,0.0130126,601,1044,-25.8809,-2.11796
-616,-20,-25.8702,2.17651,0.000685897,0.00239826,-0.00609142,0.00769338,-0.00460922,-0.855218,0.00717692,0.0126158,608,1044,-25.8702,-2.17648
-609,-20,-25.8818,2.24023,-0.000367397,0.00168116,-0.00832259,0.00904226,-0.0077285,-0.846626,0.0096925,0.0140513,615,1044,-25.8818,-2.2402
-602,-20,-25.8718,2.31421,-0.000219643,0.000826419,-0.0100744,0.0103913,-0.00978454,-0.811333,0.0116503,0.0118921,622,1044,-25.8718,-2.31419
-595,-20,-25.8248,2.63965,0,0,0,0,0,0,0,-1,629,1044,-25.8248,-2.63962
-588,-20,-25.8311,1.40344,-0.000430293,0.000144762,-0.0110268,0.0108877,-0.0111733,-0.798433,0.0127373,0.0202266,636,1044,-25.8311,-1.40349
-581,-20,-25.8325,0.533447,-0.000419702,0.000345633,-0.0108661,0.0108358,-0.0109098,-0.802999,0.0125548,0.0245505,643,1044,-25.8325,-0.533495
-574,-20,-25.8714,0.46521,-0.000809562,0.000670101,-0.0100521,0.0100095,-0.010149,-0.822132,0.0116386,0.0346532,650,1044,-25.8714,-0.465149
-567,-20,-25.8663,0.554443,-0.00149509,0.00130047,-0.00848056,0.00849767,-0.00869228,-0.867075,0.00992484,0.0405314,657,1044,-25.8663,-0.554389
-560,-20,-25.905,0.704224,-0.00237165,0.00220586,-0.0061875,0.00651434,-0.00668013,-0.962544,0.00761803,0.0423362,664,1044,-25.905,-0.704231
-553,-20,-25.7912,0.599243,-0.00347693,0.00332365,-0.00330129,0.00466261,-0.00481589,-1.18548,0.00547265,0.0415603,671,1044,-25.7912,-0.599203
-546,-20,-25.7505,0.765991,-0.00478335,0.00455709,1.05465e-05,0.0045571,-0.00478336,1.56967,0.00539324,0.0403874,678,1044,-25.7505,-0.766001
-539,-20,-25.9243,0.911621,-0.00626561,0.0060301,0.00236335,0.00646871,-0.00670422,1.3873,0.0076058,0.0416688,685,1044,-25.9243,-0.911674
-532,-20,-26.0211,-0.0672607,0,0,0,0,0,0,0,-1,692,1044,-26.0211,0.067222
-525,-20,0,0,0,0,0,0,0,0,0,-1,699,1044,0,0
-518,-20,0,0,0,0,0,0,0,0,0,-1,706,1044,0,0
-511,-20,0,0,0,0,0,0,0,0,0,-1,713,1044,0,0
-504,-20,0,0,0,0,0,0,0,0,0,-1,720,1044,0,0
-497,-20,0,0,0,0,0,0,0,0,0,-1,727,1044,0,0
-490,-20,0,0,0,0,0,0,0,0,0,-1,734,1044,0,0
-483,-20,0,0,0,0,0,0,0,0,0,-1,741,1044,0,0
-476,-20,0,0,0,0,0,0,0,0,0,-1,748,1044,0,0
-469,-20,0,0,0,0,0,0,0,0,0,-1,755,1044,0,0
-462,-20,0,0,0,0,0,0,0,0,0,-1,762,1044,0,0
-455,-20,0,0,0,0,0,0,0,0,0,-1,769,1044,0,0
-448,-20,0,0,0,0,0,0,0,0,0,-1,776,1044,0,0
-441,-20,0,0,0,0,0,0,0,0,0,-1,783,1044,0,0
-434,-20,0,0,0,0,0,0,0,0,0,-1,790,1044,0,0
-427,-20,0,0,0,0,0,0,0,0,0,-1,797,1044,0,0
-420,-20,0,0,0,0,0,0,0,0,0,-1,804,1044,0,0
-413,-20,0,0,0,0,0,0,0,0,0,-1,811,1044,0,0
-406,-20,0,0,0,0,0,0,0,0,0,-1,818,1044,0,0
-399,-20,0,0,0,0,0,0,0,0,0,-1,825,1044,0,0
-392,-20,0,0,0,0,0,0,0,0,0,-1,832,1044,0,0
-385,-20,0,0,0,0,0,0,0,0,0,-1,839,1044,0,0
-378,-20,0,0,0,0,0,0,0,0,0,-1,846,1044,0,0
-371,-20,0,0,0,0,0,0,0,0,0,-1,853,1044,0,0
-364,-20,0,0,0,0,0,0,0,0,0,-1,860,1044,0,0
-357,-20,0,0,0,0,0,0,0,0,0,-1,867,1044,0,0
-350,-20,0,0,0,0,0,0,0,0,0,-1,874,1044,0,0
-343,-20,0,0,0,0,0,0,0,0,0,-1,881,1044,0,0
-336,-20,0,0,0,0,0,0,0,0,0,-1,888,1044,0,0
-329,-20,0,0,0,0,0,0,0,0,0,-1,895,1044,0,0
-322,-20,0,0,0,0,0,0,0,0,0,-1,902,1044,0,0
-315,-20,0,0,0,0,0,0,0,0,0,-1,909,1044,0,0
-308,-20,0,0,0,0,0,0,0,0,0,-1,916,1044,0,0
-301,-20,0,0,0,0,0,0,0,0,0,-1,923,1044,0,0
-294,-20,0,0,0,0,0,0,0,0,0,-1,930,1044,0,0
-287,-20,0,0,0,0,0,0,0,0,0,-1,937,1044,0,0
-280,-20,0,0,0,0,0,0,0,0,0,-1,944,1044,0,0
-273,-20,0,0,0,0,0,0,0,0,0,-1,951,1044,0,0
-266,-20,0,0,0,0,0,0,0,0,0,-1,958,1044,0,0
-259,-20,0,0,0,0,0,0,0,0,0,-1,965,1044,0,0
-252,-20,0,0,0,0,0,0,0,0,0,-1,972,1044,0,0
-245,-20,0,0,0,0,0,0,0,0,0,-1,979,1044,0,0
-238,-20,0,0,0,0,0,0,0,0,0,-1,986,1044,0,0
-231,-20,0,0,0,0,0,0,0,0,0,-1,993,1044,0,0
-224,-20,0,0,0,0,0,0,0,0,0,-1,1000,1044,0,0
-217,-20,0,0,0,0,0,0,0,0,0,-1,1007,1044,0,0
-210,-20,0,0,0,0,0,0,0,0,0,-1,1014,1044,0,0
-203,-20,0,0,0,0,0,0,0,0,0,-1,1021,1044,0,0
-196,-20,0,0,0,0,0,0,0,0,0,-1,1028,1044,0,0
-189,-20,0,0,0,0,0,0,0,0,0,-1,1035,1044,0,0
-182,-20,0,0,0,0,0,0,0,0,0,-1,1042,1044,0,0
-175,-20,0,0,0,0,0,0,0,0,0,-1,1049,1044,0,0
-168,-20,0,0,0,0,0,0,0,0,0,-1,1056,1044,0,0
-161,-20,0,0,0,0,0,0,0,0,0,-1,1063,1044,0,0
-154,-20,0,0,0,0,0,0,0,0,0,-1,1070,1044,0,0
-147,-20,0,0,0,0,0,0,0,0,0,-1,1077,1044,0,0
-140,-20,0,0,0,0,0,0,0,0,0,-1,1084,1044,0,0
-133,-20,0,0,0,0,0,0,0,0,0,-1,1091,1044,0,0
-126,-20,0,0,0,0,0,0,0,0,0,-1,1098,1044,0,0
-119,-20,0,0,0,0,0,0,0,0,0,-1,1105,1044,0,0
-112,-20,0,0,0,0,0,0,0,0,0,-1,1112,1044,0,0
-105,-20,0,0,0,0,0,0,0,0,0,-1,1119,1044,0,0
-98,-20,0,0,0,0,0,0,0,0,0,-1,1126,1044,0,0
-91,-20,0,0,0,0,0,0,0,0,0,-1,1133,1044,0,0
-84,-20,0,0,0,0,0,0,0,0,0,-1,1140,1044,0,0
-77,-20,0,0,0,0,0,0,0,0,0,-1,1147,1044,0,0
-70,-20,0,0,0,0,0,0,0,0,0,-1,1154,1044,0,0
-63,-20,0,0,0,0,0,0,0,0,0,-1,1161,1044,0,0
-56,-20,0,0,0,0,0,0,0,0,0,-1,1168,1044,0,0
-49,-20,0,0,0,0,0,0,0,0,0,-1,1175,1044,0,0
-42,-20,0,0,0,0,0,0,0,0,0,-1,1182,1044,0,0
-35,-20,0,0,0,0,0,0,0,0,0,-1,1189,1044,0,0
-28,-20,0,0,0,0,0,0,0,0,0,-1,1196,1044,0,0
-21,-20,0,0,0,0,0,0,0,0,0,-1,1203,1044,0,0
-14,-20,0,0,0,0,0,0,0,0,0,-1,1210,1044,0,0
-7,-20,0,0,0,0,0,0,0,0,0,-1,1217,1044,0,0
0,-20,0,0,0,0,0,0,0,0,0,-1,1224,1044,0,0
7,-20,0,0,0,0,0,0,0,0,0,-1,1231,1044,0,0
14,-20,0,0,0,0,0,0,0,0,0,-1,1238,1044,0,0
21,-20,0,0,0,0,0,0,0,0,0,-1,1245,1044,0,0
28,-20,0,0,0,0,0,0,0,0,0,-1,1252,1044,0,0
35,-20,0,0,0,0,0,0,0,0,0,-1,1259,1044,0,0
42,-20,0,0,0,0,0,0,0,0,0,-1,1266,1044,0,0
49,-20,0,0,0,0,0,0,0,0,0,-1,1273,1044,0,0
56,-20,0,0,0,0,0,0,0,0,0,-1,1280,1044,0,0
63,-20,0,0,0,0,0,0,0,0,0,-1,1287,1044,0,0
70,-20,0,0,0,0,0,0,0,0,0,-1,1294,1044,0,0
77,-20,0,0,0,0,0,0,0,0,0,-1,1301,1044,0,0
84,-20,0,0,0,0,0,0,0,0,0,-1,1308,1044,0,0
91,-20,0,0,0,0,0,0,0,0,0,-1,1315,1044,0,0
98,-20,0,0,0,0,0,0,0,0,0,-1,1322,1044,0,0
105,-20,0,0,0,0,0,0,0,0,0,-1,1329,1044,0,0
112,-20,0,0,0,0,0,0,0,0,0,-1,1336,1044,0,0
119,-20,0,0,0,0,0,0,0,0,0,-1,1343,1044,0,0
126,-20,0,0,0,0,0,0,0,0,0,-1,1350,1044,0,0
133,-20,0,0,0,0,0,0,0,0,0,-1,1357,1044,0,0
140,-20,0,0,0,0,0,0,0,0,0,-1,1364,1044,0,0
147,-20,0,0,0,0,0,0,0,0,0,-1,1371,1044,0,0
154,-20,0,0,0,0,0,0,0,0,0,-1,1378,1044,0,0
161,-20,0,0,0,0,0,0,0,0,0,-1,1385,1044,0,0
168,-20,0,0,0,0,0,0,0,0,0,-1,1392,1044,0,0
175,-20,0,0,0,0,0,0,0,0,0,-1,1399,1044,0,0
182,-20,0,0,0,0,0,0,0,0,0,-1,1406,1044,0,0
189,-20,0,0,0,0,0,0,0,0,0,-1,1413,1044,0,0
196,-20,0,0,0,0,0,0,0,0,0,-1,1420,1044,0,0
203,-20,0,0,0,0,0,0,0,0,0,-1,1427,1044,0,0
210,-20,0,0,0,0,0,0,0,0,0,-1,1434,1044,0,0
217,-20,0,0,0,0,0,0,0,0,0,-1,1441,1044,0,0
224,-20,0,0,0,0,0,0,0,0,0,-1,1448,1044,0,0
231,-20,0,0,0,0,0,0,0,0,0,-1,1455,1044,0,0
238,-20,0,0,0,0,0,0,0,0,0,-1,1462,1044,0,0
245,-20,0,0,0,0,0,0,0,0,0,-1,1469,1044,0,0
252,-20,0,0,0,0,0,0,0,0,0,-1,1476,1044,0,0
259,-20,0,0,0,0,0,0,0,0,0,-1,1483,1044,0,0
266,-20,0,0,0,0,0,0,0,0,0,-1,1490,1044,0,0
273,-20,0,0,0,0,0,0,0,0,0,-1,1497,1044,0,0
280,-20,0,0,0,0,0,0,0,0,0,-1,1504,1044,0,0
287,-20,0,0,0,0,0,0,0,0,0,-1,1511,1044,0,0
294,-20,0,0,0,0,0,0,0,0,0,-1,1518,1044,0,0
301,-20,0,0,0,0,0,0,0,0,0,-1,1525,1044,0,0
308,-20,0,0,0,0,0,0,0,0,0,-1,1532,1044,0,0
315,-20,0,0,0,0,0,0,0,0,0,-1,1539,1044,0,0
322,-20,0,0,0,0,0,0,0,0,0,-1,1546,1044,0,0
329,-20,0,0,0,0,0,0,0,0,0,-1,1553,1044,0,0
336,-20,0,0,0,0,0,0,0,0,0,-1,1560,1044,0,0
343,-20,0,0,0,0,0,0,0,0,0,-1,1567,1044,0,0
350,-20,0,0,0,0,0,0,0,0,0,-1,1574,1044,0,0
357,-20,0,0,0,0,0,0,0,0,0,-1,1581,1044,0,0
364,-20,0,0,0,0,0,0,0,0,0,-1,1588,1044,0,0
371,-20,0,0,0,0,0,0,0,0,0,-1,1595,1044,0,0
378,-20,0,0,0,0,0,0,0,0,0,-1,1602,1044,0,0
385,-20,0,0,0,0,0,0,0,0,0,-1,1609,1044,0,0
392,-20,0,0,0,0,0,0,0,0,0,-1,1616,1044,0,0
399,-20,0,0,0,0,0,0,0,0,0,-1,1623,1044,0,0
406,-20,0,0,0,0,0,0,0,0,0,-1,1630,1044,0,0
413,-20,0,0,0,0,0,0,0,0,0,-1,1637,1044,0,0
420,-20,0,0,0,0,0,0,0,0,0,-1,1644,1044,0,0
427,-20,0,0,0,0,0,0,0,0,0,-1,1651,1044,0,0
434,-20,0,0,0,0,0,0,0,0,0,-1,1658,1044,0,0
441,-20,0,0,0,0,0,0,0,0,0,-1,1665,1044,0,0
448,-20,0,0,0,0,0,0,0,0,0,-1,1672,1044,0,0
455,-20,0,0,0,0,0,0,0,0,0,-1,1679,1044,0,0
462,-20,0,0,0,0,0,0,0,0,0,-1,1686,1044,0,0
469,-20,0,0,0,0,0,0,0,0,0,-1,1693,1044,0,0
476,-20,0,0,0,0,0,0,0,0,0,-1,1700,1044,0,0
483,-20,0,0,0,0,0,0,0,0,0,-1,1707,1044,0,0
490,-20,0,0,0,0,0,0,0,0,0,-1,1714,1044,0,0
497,-20,0,0,0,0,0,0,0,0,0,-1,1721,1044,0,0
504,-20,0,0,0,0,0,0,0,0,0,-1,1728,1044,0,0
511,-20,0,0,0,0,0,0,0,0,0,-1,1735,1044,0,0
518,-20,0,0,0,0,0,0,0,0,0,-1,1742,1044,0,0
525,-20,0,0,0,0,0,0,0,0,0,-1,1749,1044,0,0
532,-20,0,0,0,0,0,0,0,0,0,-1,1756,1044,0,0
539,-20,0,0,0,0,0,0,0,0,0,-1,1763,1044,0,0
546,-20,0,0,0,0,0,0,0,0,0,-1,1770,1044,0,0
553,-20,0,0,0,0,0,0,0,0,0,-1,1777,1044,0,0
560,-20,0,0,0,0,0,0,0,0,0,-1,1784,1044,0,0
567,-20,0,0,0,0,0,0,0,0,0,-1,1791,1044,0,0
574,-20,0,0,0,0,0,0,0,0,0,-1,1798,1044,0,0
581,-20,0,0,0,0,0,0,0,0,0,-1,1805,1044,0,0
588,-20,0,0,0,0,0,0,0,0,0,-1,1812,1044,0,0
595,-20,0,0,0,0,0,0,0,0,0,-1,1819,1044,0,0
602,-20,0,0,0,0,0,0,0,0,0,-1,1826,1044,0,0
609,-20,0,0,0,0,0,0,0,0,0,-1,1833,1044,0,0
616,-20,0,0,0,0,0,0,0,0,0,-1,1840,1044,0,0
623,-20,0,0,0,0,0,0,0,0,0,-1,1847,1044,0,0
630,-20,0,0,0,0,0,0,0,0,0,-1,1854,1044,0,0
637,-20,0,0,0,0,0,0,0,0,0,-1,1861,1044,0,0
644,-20,0,0,0,0,0,0,0,0,0,-1,1868,1044,0,0
651,-20,35.8605,2.33447,0.00070946,0.00130576,0.00301972,0.00404201,-0.00202679,0.834606,0.00356763,0.0422067,1875,1044,35.8605,-2.33451
658,-20,35.8904,2.53052,0.000264271,0.00104916,0.00198923,0.00268428,-0.00137086,0.882789,0.00238182,0.0444453,1882,1044,35.8903,-2.53055
665,-20,35.787,2.69006,-3.86043e-05,0.000869821,0.00128451,0.00177806,-0.000946847,0.95534,0.00159744,0.0409805,1889,1044,35.787,-2.69005
672,-20,35.7057,2.52576,-0.00011394,0.000670376,0.00119597,0.00153684,-0.000980401,0.943825,0.00146512,0.0245376,1896,1044,35.7056,-2.52575
679,-20,35.5747,2.45532,-1.52421e-05,0.000412895,0.00149206,0.00170617,-0.00130851,0.856648,0.00174557,0.0263643,1903,1044,35.5746,-2.45536
686,-20,35.5328,2.47327,4.33832e-05,2.73732e-05,0.0019546,0.00198999,-0.00191924,0.78335,0.00225712,0.0366793,1910,1044,35.5328,-2.47327
693,-20,35.5519,2.39844,0.000103933,-0.000356538,0.00247467,0.00235906,-0.00261166,0.739013,0.00287108,0.0426525,1917,1044,35.5519,-2.39847
700,-20,35.5858,2.44495,0.000215338,-0.000614654,0.00291259,0.00274235,-0.00314167,0.714633,0.00339974,0.038375,1924,1044,35.5858,-2.44497
707,-20,35.6626,2.47278,0.000126763,-0.000733515,0.00315596,0.00288176,-0.00348851,0.717668,0.00368343,0.0295056,1931,1044,35.6626,-2.47278
714,-20,35.678,2.63147,-0.000162602,-0.000644982,0.00332797,0.00293291,-0.00374049,0.749225,0.00386228,0.0281988,1938,1044,35.678,-2.63144
721,-20,35.6183,2.7395,0,0,0,0,0,0,0,-1,1945,1044,35.6183,-2.73948
728,-20,35.5271,4.88782,0,0,0,0,0,0,0,-1,1952,1044,35.5271,-4.88776
735,-20,35.358,4.89978,-0.00128174,0.000713838,0.00314131,0.00301202,-0.00357992,0.939176,0.00381056,0.0217215,1959,1044,35.358,-4.89973
742,-20,35.2428,4.85034,-0.00167201,0.00167791,0.0027933,0.00325994,-0.00325404,1.05547,0.00376085,0.0178598,1966,1044,35.2428,-4.85036
749,-20,35.2739,4.84692,-0.00227764,0.00266647,0.0020756,0.00342229,-0.00303346,1.22158,0.00372948,0.0196109,1973,1044,35.2739,-4.84695
756,-20,35.271,4.81592,-0.00296592,0.00389505,0.0010111,0.00404095,-0.00311182,1.42748,0.00414126,0.0145774,1980,1044,35.271,-4.81588
763,-20,35.2338,4.77783,-0.0038121,0.00608428,-0.000390579,0.00609967,-0.00382749,-1.53141,0.00578128,0.0209668,1987,1044,35.2338,-4.7778
770,-20,35.1917,4.77454,-0.00461495,0.00842315,-0.00225104,0.00880085,-0.00499265,-1.40455,0.00806422,0.018865,1994,1044,35.1916,-4.77451
777,-20,35.1239,4.66699,-0.00549203,0.0113415,-0.00431781,0.0123844,-0.00653494,-1.3338,0.0110958,0.0138093,2001,1044,35.1239,-4.66695
784,-20,35.1179,4.63123,-0.00645836,0.0143333,-0.00643695,0.0161648,-0.00828986,-1.29359,0.0143609,0.0189677,2008,1044,35.1179,-4.63127
791,-20,35.1702,4.59607,-0.00774527,0.0176484,-0.00882768,0.0204156,-0.0105125,-1.26703,0.0181589,0.0372166,2015,1044,35.1701,-4.59603
798,-20,35.1873,4.54517,-0.00948049,0.0214385,-0.0116085,0.0253117,-0.0133537,-1.24876,0.0226766,0.0448421,2022,1044,35.1873,-4.54515
805,-20,35.0554,4.10388,-0.011736,0.0259961,-0.0147714,0.031091,-0.0168308,-1.23866,0.028073,0.0440325,2029,1044,35.0553,-4.10383
812,-20,34.885,3.99414,-0.0150133,0.0317089,-0.0183329,0.0380435,-0.0213479,-1.23811,0.0347383,0.0448501,2036,1044,34.8849,-3.99417
-700,-27,-30.3591,3.90503,0,0,0,0,0,0,0,-1,524,1051,-30.3591,-3.90503
-693,-27,-30.0355,4.04529,0,0,0,0,0,0,0,-1,531,1051,-30.0355,-4.0453
-686,-27,-29.8536,4.18896,0,0,0,0,0,0,0,-1,538,1051,-29.8536,-4.18902
-679,-27,-29.2215,4.00964,0,0,0,0,0,0,0,-1,545,1051,-29.2215,-4.00965
-672,-27,-25.5698,2.92871,0,0,0,0,0,0,0,-1,552,1051,-25.5697,-2.92877
-665,-27,-25.3646,3.41016,0,0,0,0,0,0,0,-1,559,1051,-25.3646,-3.4102
-658,-27,-25.1595,3.8916,0,0,0,0,0,0,0,-1,566,1051,-25.1595,-3.89162
-651,-27,-25.6284,1.93542,0.0145587,-0.00565789,0.0136311,0.0214205,-0.0125197,0.466358,0.0198187,0.0373906,573,1051,-25.6284,-1.93537
-644,-27,-25.6733,1.75537,0.0106727,-0.00253631,0.00949396,0.0156334,-0.00749705,0.481497,0.013627,0.0174402,580,1051,-25.6733,-1.75536
-637,-27,-25.728,1.80603,0.00730996,0.000299738,0.00458285,0.00957445,-0.00196475,0.458935,0.00712872,0.0140341,587,1051,-25.728,-1.80609
-630,-27,-25.8018,2.00623,0.00459874,0.0022461,0.000356731,0.00465164,0.0021932,0.147222,0.00268708,0.0187042,594,1051,-25.8018,-2.00628
-623,-27,-25.7825,2.12012,0.00259364,0.00247603,-0.00342065,0.005956,-0.000886323,-0.776803,0.00429669,0.015868,601,1051,-25.7825,-2.12012
-616,-27,-25.7372,2.21545,0.000831715,0.00204912,-0.00646126,0.00793029,-0.00504945,-0.832364,0.00755513,0.0129331,608,1051,-25.7372,-2.21545
-609,-27,-25.7667,2.30688,-0.000399879,0.00116791,-0.00877553,0.00919449,-0.00842646,-0.829944,0.0101767,0.0137502,615,1051,-25.7667,-2.30682
-602,-27,-25.7521,2.41858,-0.000374494,0.000367441,-0.0105149,0.0105179,-0.0105249,-0.803031,0.0121491,0.0116319,622,1051,-25.7521,-2.41858
-595,-27,-25.8242,2.86633,0,0,0,0,0,0,0,-1,629,1051,-25.8241,-2.86628
-588,-27,-25.8386,1.5542,-0.000704925,-0.000219134,-0.0114557,0.0109963,-0.0119204,-0.795998,0.0132345,0.0190314,636,1051,-25.8385,-1.55419
-581,-27,-25.7966,0.582764,-0.000705003,4.6736e-05,-0.0112837,0.0109608,-0.0116191,-0.802047,0.0130384,0.0212515,643,1051,-25.7966,-0.582762
-574,-27,-25.7949,0.482544,-0.00107555,0.000476581,-0.0104846,0.0102138,-0.0108128,-0.822341,0.0121413,0.0335635,650,1051,-25.7949,-0.482542
-567,-27,-25.8275,0.487305,-0.00170716,0.0012315,-0.00893706,0.00881921,-0.00929487,-0.866874,0.0104594,0.0451767,657,1051,-25.8274,-0.487359
-560,-27,-25.7861,0.710815,-0.00250252,0.00227789,-0.00667363,0.00697644,-0.00720107,-0.957359,0.00818573,0.0480016,664,1051,-25.7861,-0.71076
-553,-27,-25.5861,0.694336,-0.00348937,0.00354437,-0.00382,0.00521988,-0.00516488,-1.15745,0.00599567,0.0427795,671,1051,-25.5861,-0.69431
-546,-27,-25.6628,0.786377,-0.00465009,0.00491842,-0.000539295,0.00494872,-0.00468039,-1.51467,0.00556009,0.0404561,678,1051,-25.6628,-0.786368
-539,-27,-25.8976,0.850342,-0.00601297,0.00643847,0.00177763,0.00668728,-0.00626179,1.43173,0.00747749,0.0408048,685,1051,-25.8976,-0.850353
-532,-27,-25.8301,0.598389,-0.00752612,0.00771594,0.00010194,0.00771662,-0.0075268,1.56411,0.00880102,0.0414424,692,1051,-25.8302,-0.598328
-525,-27,0,0,0,0,0,0,0,0,0,-1,699,1051,0,0
-518,-27,0,0,0,0,0,0,0,0,0,-1,706,1051,0,0
-511,-27,0,0,0,0,0,0,0,0,0,-1,713,1051,0,0
-504,-27,0,0,0,0,0,0,0,0,0,-1,720,1051,0,0
-497,-27,0,0,0,0,0,0,0,0,0,-1,727,1051,0,0
-490,-27,0,0,0,0,0,0,0,0,0,-1,734,1051,0,0
-483,-27,0,0,0,0,0,0,0,0,0,-1,741,1051,0,0
-476,-27,0,0,0,0,0,0,0,0,0,-1,748,1051,0,0
-469,-27,0,0,0,0,0,0,0,0,0,-1,755,1051,0,0
-462,-27,0,0,0,0,0,0,0,0,0,-1,762,1051,0,0
-455,-27,0,0,0,0,0,0,0,0,0,-1,769,1051,0,0
-448,-27,0,0,0,0,0,0,0,0,0,-1,776,1051,0,0
-441,-27,0,0,0,0,0,0,0,0,0,-1,783,1051,0,0
-434,-27,0,0,0,0,0,0,0,0,0,-1,790,1051,0,0
-427,-27,0,0,0,0,0,0,0,0,0,-1,797,1051,0,0
-420,-27,0,0,0,0,0,0,0,0,0,-1,804,1051,0,0
-413,-27,0,0,0,0,0,0,0,0,0,-1,811,1051,0,0
-406,-27,0,0,0,0,0,0,0,0,0,-1,818,1051,0,0
-399,-27,0,0,0,0,0,0,0,0,0,-1,825,1051,0,0
-392,-27,0,0,0,0,0,0,0,0,0,-1,832,1051,0,0
-385,-27,0,0,0,0,0,0,0,0,0,-1,839,1051,0,0
-378,-27,0,0,0,0,0,0,0,0,0,-1,846,1051,0,0
-371,-27,0,0,0,0,0,0,0,0,0,-1,853,1051,0,0
-364,-27,0,0,0,0,0,0,0,0,0,-1,860,1051,0,0
-357,-27,0,0,0,0,0,0,0,0,0,-1,867,1051,0,0
-350,-27,0,0,0,0,0,0,0,0,0,-1,874,1051,0,0
-343,-27,0,0,0,0,0,0,0,0,0,-1,881,1051,0,0
-336,-27,0,0,0,0,0,0,0,0,0,-1,888,1051,0,0
-329,-27,0,0,0,0,0,0,0,0,0,-1,895,1051,0,0
-322,-27,0,0,0,0,0,0,0,0,0,-1,902,1051,0,0
-315,-27,0,0,0,0,0,0,0,0,0,-1,909,1051,0,0
-308,-27,0,0,0,0,0,0,0,0,0,-1,916,1051,0,0
-301,-27,0,0,0,0,0,0,0,0,0,-1,923,1051,0,0
-294,-27,0,0,0,0,0,0,0,0,0,-1,930,1051,0,0
-287,-27,0,0,0,0,0,0,0,0,0,-1,937,1051,0,0
-280,-27,0,0,0,0,0,0,0,0,0,-1,944,1051,0,0
-273,-27,0,0,0,0,0,0,0,0,0,-1,951,1051,0,0
-266,-27,0,0,0,0,0,0,0,0,0,-1,958,1051,0,0
-259,-27,0,0,0,0,0,0,0,0,0,-1,965,1051,0,0
-252,-27,0,0,0,0,0,0,0,0,0,-1,972,1051,0,0
-245,-27,0,0,0,0,0,0,0,0,0,-1,979,1051,0,0
-238,-27,0,0,0,0,0,0,0,0,0,-1,986,1051,0,0
-231,-27,0,0,0,0,0,0,0,0,0,-1,993,1051,0,0
-224,-27,0,0,0,0,0,0,0,0,0,-1,1000,1051,0,0
-217,-27,0,0,0,0,0,0,0,0,0,-1,1007,1051,0,0
-210,-27,0,0,0,0,0,0,0,0,0,-1,1014,1051,0,0
-203,-27,0,0,0,0,0,0,0,0,0,-1,1021,1051,0,0
-196,-27,0,0,0,0,0,0,0,0,0,-1,1028,1051,0,0
-189,-27,0,0,0,0,0,0,0,0,0,-1,1035,1051,0,0
-182,-27,0,0,0,0,0,0,0,0,0,-1,1042,1051,0,0
-175,-27,0,0,0,0,0,0,0,0,0,-1,1049,1051,0,0
-168,-27,0,0,0,0,0,0,0,0,0,-1,1056,1051,0,0
-161,-27,0,0,0,0,0,0,0,0,0,-1,1063,1051,0,0
-154,-27,0,0,0,0,0,0,0,0,0,-1,1070,1051,0,0
-147,-27,0,0,0,0,0,0,0,0,0,-1,1077,1051,0,0
-140,-27,0,0,0,0,0,0,0,0,0,-1,1084,1051,0,0
-133,-27,0,0,0,0,0,0,0,0,0,-1,1091,1051,0,0
-126,-27,0,0,0,0,0,0,0,0,0,-1,1098,1051,0,0
-119,-27,0,0,0,0,0,0,0,0,0,-1,1105,1051,0,0
-112,-27,0,0,0,0,0,0,0,0,0,-1,1112,1051,0,0
-105,-27,0,0,0,0,0,0,0,0,0,-1,1119,1051,0,0
-98,-27,0,0,0,0,0,0,0,0,0,-1,1126,1051,0,0
-91,-27,0,0,0,0,0,0,0,0,0,-1,1133,1051,0,0
-84,-27,0,0,0,0,0,0,0,0,0,-1,1140,1051,0,0
-77,-27,0,0,0,0,0,0,0,0,0,-1,1147,1051,0,0
-70,-27,0,0,0,0,0,0,0,0,0,-1,1154,1051,0,0
-63,-27,0,0,0,0,0,0,0,0,0,-1,1161,1051,0,0
-56,-27,0,0,0,0,0,0,0,0,0,-1,1168,1051,0,0
-49,-27,0,0,0,0,0,0,0,0,0,-1,1175,1051,0,0
-42,-27,0,0,0,0,0,0,0,0,0,-1,1182,1051,0,0
-35,-27,0,0,0,0,0,0,0,0,0,-1,1189,1051,0,0
-28,-27,0,0,0,0,0,0,0,0,0,-1,1196,1051,0,0
-21,-27,0,0,0,0,0,0,0,0,0,-1,1203,1051,0,0
-14,-27,0,0,0,0,0,0,0,0,0,-1,1210,1051,0,0
-7,-27,0,0,0,0,0,0,0,0,0,-1,1217,1051,0,0
0,-27,0,0,0,0,0,0,0,0,0,-1,1224,1051,0,0
7,-27,0,0,0,0,0,0,0,0,0,-1,1231,1051,0,0
14,-27,0,0,0,0,0,0,0,0,0,-1,1238,1051,0,0
21,-27,0,0,0,0,0,0,0,0,0,-1,1245,1051,0,0
28,-27,0,0,0,0,0,0,0,0,0,-1,1252,1051,0,0
35,-27,0,0,0,0,0,0,0,0,0,-1,1259,1051,0,0
42,-27,0,0,0,0,0,0,0,0,0,-1,1266,1051,0,0
49,-27,0,0,0,0,0,0,0,0,0,-1,1273,1051,0,0
56,-27,0,0,0,0,0,0,0,0,0,-1,1280,1051,0,0
63,-27,0,0,0,0,0,0,0,0,0,-1,1287,1051,0,0
70,-27,0,0,0,0,0,0,0,0,0,-1,1294,1051,0,0
77,-27,0,0,0,0,0,0,0,0,0,-1,1301,1051,0,0
84,-27,0,0,0,0,0,0,0,0,0,-1,1308,1051,0,0
91,-27,0,0,0,0,0,0,0,0,0,-1,1315,1051,0,0
98,-27,0,0,0,0,0,0,0,0,0,-1,1322,1051,0,0
105,-27,0,0,0,0,0,0,0,0,0,-1,1329,1051,0,0
112,-27,0,0,0,0,0,0,0,0,0,-1,1336,1051,0,0
119,-27,0,0,0,0,0,0,0,0,0,-1,1343,1051,0,0
126,-27,0,0,0,0,0,0,0,0,0,-1,1350,1051,0,0
133,-27,0,0,0,0,0,0,0,0,0,-1,1357,1051,0,0
140,-27,0,0,0,0,0,0,0,0,0,-1,1364,1051,0,0
147,-27,0,0,0,0,0,0,0,0,0,-1,1371,1051,0,0
154,-27,0,0,0,0,0,0,0,0,0,-1,1378,1051,0,0
161,-27,0,0,0,0,0,0,0,0,0,-1,1385,1051,0,0
168,-27,0,0,0,0,0,0,0,0,0,-1,1392,1051,0,0
175,-27,0,0,0,0,0,0,0,0,0,-1,1399,1051,0,0
182,-27,0,0,0,0,0,0,0,0,0,-1,1406,1051,0,0
189,-27,0,0,0,0,0,0,0,0,0,-1,1413,1051,0,0
196,-27,0,0,0,0,0,0,0,0,0,-1,1420,1051,0,0
203,-27,0,0,0,0,0,0,0,0,0,-1,1427,1051,0,0
210,-27,0,0,0,0,0,0,0,0,0,-1,1434,1051,0,0
217,-27,0,0,0,0,0,0,0,0,0,-1,1441,1051,0,0
224,-27,0,0,0,0,0,0,0,0,0,-1,1448,1051,0,0
231,-27,0,0,0,0,0,0,0,0,0,-1,1455,1051,0,0
238,-27,0,0,0,0,0,0,0,0,0,-1,1462,1051,0,0
245,-27,0,0,0,0,0,0,0,0,0,-1,1469,1051,0,0
252,-27,0,0,0,0,0,0,0,0,0,-1,1476,1051,0,0
259,-27,0,0,0,0,0,0,0,0,0,-1,1483,1051,0,0
266,-27,0,0,0,0,0,0,0,0,0,-1,1490,1051,0,0
273,-27,0,0,0,0,0,0,0,0,0,-1,1497,1051,0,0
280,-27,0,0,0,0,0,0,0,0,0,-1,1504,1051,0,0
287,-27,0,0,0,0,0,0,0,0,0,-1,1511,1051,0,0
294,-27,0,0,0,0,0,0,0,0,0,-1,1518,1051,0,0
301,-27,0,0,0,0,0,0,0,0,0,-1,1525,1051,0,0
308,-27,0,0,0,0,0,0,0,0,0,-1,1532,1051,0,0
315,-27,0,0,0,0,0,0,0,0,0,-1,1539,1051,0,0
322,-27,0,0,0,0,0,0,0,0,0,-1,1546,1051,0,0
329,-27,0,0,0,0,0,0,0,0,0,-1,1553,1051,0,0
336,-27,0,0,0,0,0,0,0,0,0,-1,1560,1051,0,0
343,-27,0,0,0,0,0,0,0,0,0,-1,1567,1051,0,0
350,-27,0,0,0,0,0,0,0,0,0,-1,1574,1051,0,0
357,-27,0,0,0,0,0,0,0,0,0,-1,1581,1051,0,0
364,-27,0,0,0,0,0,0,0,0,0,-1,1588,1051,0,0
371,-27,0,0,0,0,0,0,0,0,0,-1,1595,1051,0,0
378,-27,0,0,0,0,0,0,0,0,0,-1,1602,1051,0,0
385,-27,0,0,0,0,0,0,0,0,0,-1,1609,1051,0,0
392,-27,0,0,0,0,0,0,0,0,0,-1,1616,1051,0,0
399,-27,0,0,0,0,0,0,0,0,0,-1,1623,1051,0,0
406,-27,0,0,0,0,0,0,0,0,0,-1,1630,1051,0,0
413,-27,0,0,0,0,0,0,0,0,0,-1,1637,1051,0,0
420,-27,0,0,0,0,0,0,0,0,0,-1,1644,1051,0,0
427,-27,0,0,0,0,0,0,0,0,0,-1,1651,1051,0,0
434,-27,0,0,0,0,0,0,0,0,0,-1,1658,1051,0,0
441,-27,0,0,0,0,0,0,0,0,0,-1,1665,1051,0,0
448,-27,0,0,0,0,0,0,0,0,0,-1,1672,1051,0,0
455,-27,0,0,0,0,0,0,0,0,0,-1,1679,1051,0,0
462,-27,0,0,0,0,0,0,0,0,0,-1,1686,1051,0,0
469,-27,0,0,0,0,0,0,0,0,0,-1,1693,1051,0,0
476,-27,0,0,0,0,0,0,0,0,0,-1,1700,1051,0,0
483,-27,0,0,0,0,0,0,0,0,0,-1,1707,1051,0,0
490,-27,0,0,0,0,0,0,0,0,0,-1,1714,1051,0,0
497,-27,0,0,0,0,0,0,0,0,0,-1,1721,1051,0,0
504,-27,0,0,0,0,0,0,0,0,0,-1,1728,1051,0,0
511,-27,0,0,0,0,0,0,0,0,0,-1,1735,1051,0,0
518,-27,0,0,0,0,0,0,0,0,0,-1,1742,1051,0,0
525,-27,0,0,0,0,0,0,0,0,0,-1,1749,1051,0,0
532,-27,0,0,0,0,0,0,0,0,0,-1,1756,1051,0,0
539,-27,0,0,0,0,0,0,0,0,0,-1,1763,1051,0,0
546,-27,0,0,0,0,0,0,0,0,0,-1,1770,1051,0,0
553,-27,0,0,0,0,0,0,0,0,0,-1,1777,1051,0,0
560,-27,0,0,0,0,0,0,0,0,0,-1,1784,1051,0,0
567,-27,0,0,0,0,0,0,0,0,0,-1,1791,1051,0,0
574,-27,0,0,0,0,0,0,0,0,0,-1,1798,1051,0,0
581,-27,0,0,0,0,0,0,0,0,0,-1,1805,1051,0,0
588,-27,0,0,0,0,0,0,0,0,0,-1,1812,1051,0,0
595,-27,0,0,0,0,0,0,0,0,0,-1,1819,1051,0,0
602,-27,0,0,0,0,0,0,0,0,0,-1,1826,1051,0,0
609,-27,0,0,0,0,0,0,0,0,0,-1,1833,1051,0,0
616,-27,0,0,0,0,0,0,0,0,0,-1,1840,1051,0,0
623,-27,0,0,0,0,0,0,0,0,0,-1,1847,1051,0,0
630,-27,0,0,0,0,0,0,0,0,0,-1,1854,1051,0,0
637,-27,0,0,0,0,0,0,0,0,0,-1,1861,1051,0,0
644,-27,0,0,0,0,0,0,0,0,0,-1,1868,1051,0,0
651,-27,35.6088,2.49756,0.00308078,0.000955758,0.00317989,0.00537097,-0.00133443,0.624163,0.00409852,0.0451324,1875,1051,35.6088,-2.49758
658,-27,35.6703,2.64355,0.00201865,0.000862474,0.00207818,0.00359764,-0.000716523,0.649743,0.00266952,0.0442484,1882,1051,35.6703,-2.64355
665,-27,35.6467,2.77539,0.00122662,0.000823955,0.00131225,0.00235289,-0.00030232,0.70928,0.00167847,0.0399278,1889,1051,35.6467,-2.77538
672,-27,35.5864,2.62671,0.000781862,0.000692804,0.00121084,0.00194899,-0.000474323,0.767019,0.00148294,0.030256,1896,1051,35.5865,-2.62675
679,-27,35.6426,2.55273,0.000541919,0.000425,0.00153723,0.0020218,-0.00105488,0.766393,0.00180532,0.0288757,1903,1051,35.6425,-2.55269
686,-27,35.611,2.57581,0.000317044,-6.09735e-06,0.00205224,0.00221407,-0.00190312,0.746115,0.00237932,0.0391216,1910,1051,35.6109,-2.57583
693,-27,35.5992,2.56287,0.000170496,-0.000457719,0.00262566,0.00250077,-0.00278799,0.725866,0.00305497,0.0432571,1917,1051,35.5993,-2.56289
700,-27,35.5852,2.48499,0.000121265,-0.000796953,0.0031203,0.00281605,-0.00349174,0.712354,0.00364876,0.0396817,1924,1051,35.5852,-2.48504
707,-27,35.6001,2.49951,-7.53492e-05,-0.000961244,0.00339457,0.00290505,-0.00394164,0.720521,0.00396801,0.024245,1931,1051,35.6001,-2.49948
714,-27,35.6733,2.63599,-0.000417082,-0.000904446,0.00359472,0.0029422,-0.00426373,0.751555,0.0041836,0.0234194,1938,1051,35.6734,-2.63598
721,-27,35.6692,2.78918,0,0,0,0,0,0,0,-1,1945,1051,35.6692,-2.78924
728,-27,35.55,4.94971,0,0,0,0,0,0,0,-1,1952,1051,35.5501,-4.94974
735,-27,35.2728,4.93652,-0.00148929,0.000290317,0.003426,0.00294018,-0.00413915,0.912451,0.00410674,0.0237692,1959,1051,35.2729,-4.93649
742,-27,35.156,4.90271,-0.00179303,0.00124184,0.00304001,0.00312209,-0.00367328,1.01688,0.00392761,0.0177014,1966,1051,35.156,-4.90273
749,-27,35.192,4.84583,-0.00231129,0.00216261,0.0022623,0.00310716,-0.00325584,1.17528,0.00367401,0.0131702,1973,1051,35.1921,-4.84588
756,-27,35.1824,4.78662,-0.00296722,0.00355377,0.00113474,0.00374559,-0.00315904,1.40334,0.00399118,0.012682,1980,1051,35.1824,-4.78661
763,-27,35.1545,4.70508,-0.00383542,0.00584885,-0.000528935,0.00587765,-0.00386422,-1.51639,0.00566437,0.014719,1987,1051,35.1545,-4.70506
770,-27,35.1285,4.63037,-0.00469009,0.00837275,-0.00266299,0.00889477,-0.00521211,-1.37722,0.0082366,0.016452,1994,1051,35.1285,-4.63043
777,-27,35.0868,4.62292,-0.00572595,0.0115617,-0.00512754,0.0129681,-0.00713237,-1.30309,0.0117669,0.0174458,2001,1051,35.0868,-4.62293
784,-27,35.0428,4.62805,-0.00696166,0.0148805,-0.00769698,0.0173203,-0.00940148,-1.26383,0.015652,0.0257325,2008,1051,35.0428,-4.62808
791,-27,35.0547,4.6217,-0.00866984,0.0185954,-0.0106397,0.0222559,-0.0123303,-1.23944,0.0202406,0.0428646,2015,1051,35.0547,-4.62174
798,-27,35.0479,4.51318,-0.0110328,0.0229285,-0.0141483,0.0280503,-0.0161546,-1.22347,0.0258279,0.0478898,2022,1051,35.0479,-4.51324
805,-27,34.9905,3.67664,0,0,0,0,0,0,0,-1,2029,1051,34.9905,-3.67663
812,-27,34.9248,2.09644,0,0,0,0,0,0,0,-1,2036,1051,34.9248,-2.09641
-700,-34,-24.748,-5.22815,0,0,0,0,0,0,0,-1,524,1058,-24.748,5.22813
-693,-34,-26.1339,-2.07629,0,0,0,0,0,0,0,-1,531,1058,-26.1339,2.07626
-686,-34,-26.2512,-1.65613,0,0,0,0,0,0,0,-1,538,1058,-26.2512,1.65614
-679,-34,-26.6731,-0.894287,0,0,0,0,0,0,0,-1,545,1058,-26.6731,0.894253
-672,-34,-26.5097,-0.22168,0,0,0,0,0,0,0,-1,552,1058,-26.5097,0.221631
-665,-34,-25.1182,3.65491,0,0,0,0,0,0,0,-1,559,1058,-25.1182,-3.65488
-658,-34,-25.6688,1.43518,0.018121,-0.00581804,0.0172165,0.02712,-0.014817,0.481639,0.0245572,0.0425037,566,1058,-25.6688,-1.43518
-651,-34,-25.406,1.6217,0.0144636,-0.00240658,0.0132884,0.021768,-0.00971101,0.502601,0.0186135,0.0289173,573,1058,-25.406,-1.62165
-644,-34,-25.5932,1.6532,0.0108911,-0.000315649,0.00926501,0.0161154,-0.00553993,0.513431,0.0129902,0.0147815,580,1058,-25.5932,-1.65314
-637,-34,-25.6403,1.74329,0.00767712,0.00168004,0.00441468,0.0100153,-0.000658139,0.487077,0.00690671,0.0162794,587,1058,-25.6403,-1.7433
-630,-34,-25.6837,1.93909,0.00501088,0.00281312,0.000238642,0.00503649,0.00278751,0.106924,0.00291336,0.017717,594,1058,-25.6837,-1.93906
-623,-34,-25.6273,2.08887,0.00297911,0.00235394,-0.00347615,0.00615671,-0.000823653,-0.740558,0.00440477,0.0136084,601,1058,-25.6273,-2.0889
-616,-34,-25.595,2.25635,0.00101787,0.00171979,-0.00654133,0.00791957,-0.00518191,-0.812198,0.00761899,0.0192967,608,1058,-25.595,-2.25634
-609,-34,-25.5947,2.3772,-0.000382505,0.000610651,-0.00895802,0.00908585,-0.0088577,-0.813087,0.01036,0.0188158,615,1058,-25.5947,-2.37725
-602,-34,-25.6129,2.47766,-0.000538016,-0.000239797,-0.0106943,0.0103064,-0.0110842,-0.792369,0.0123526,0.0138931,622,1058,-25.6129,-2.47767
-595,-34,-25.6871,2.53931,-0.000862158,-0.000830393,-0.011453,0.0106067,-0.0122993,-0.786092,0.0132368,0.0145041,629,1058,-25.687,-2.53927
-588,-34,-25.8126,1.5564,-0.00103173,-0.000855011,-0.011659,0.0107159,-0.0126027,-0.789187,0.0134777,0.0244418,636,1058,-25.8126,-1.55642
-581,-34,-25.7833,0.627686,-0.00104667,-0.000585217,-0.0114908,0.0106772,-0.012309,-0.795437,0.0132822,0.0224251,643,1058,-25.7833,-0.627632
-574,-34,-25.7191,0.556763,-0.00140222,-0.000119582,-0.0107328,0.00999107,-0.0115129,-0.815239,0.0124257,0.0360206,650,1058,-25.719,-0.556816
-567,-34,-25.7219,0.817871,-0.00197972,0.000679346,-0.00925425,0.00869908,-0.00999946,-0.856744,0.0108043,0.0442716,657,1058,-25.7219,-0.817921
-560,-34,-25.8375,0.874756,0,0,0,0,0,0,0,-1,664,1058,-25.8375,-0.874743
-553,-34,-25.5614,0.767456,-0.00356292,0.00308457,-0.00435526,0.00523947,-0.00571782,-1.11133,0.0063282,0.0440229,671,1058,-25.5614,-0.767462
-546,-34,-25.686,0.637817,-0.00457735,0.00449271,-0.00120627,0.00465039,-0.00473504,-1.44081,0.00541876,0.0425209,678,1058,-25.6861,-0.637839
-539,-34,-25.7787,0.431641,-0.00581926,0.00593809,0.000979605,0.00601915,-0.00590032,1.48824,0.00688182,0.0397201,685,1058,-25.7787,-0.431695
-532,-34,-25.8293,0.366821,-0.00732962,0.00686071,-0.000994985,0.00693014,-0.00739905,-1.50113,0.00827444,0.0400646,692,1058,-25.8294,-0.366775
-525,-34,0,0,0,0,0,0,0,0,0,-1,699,1058,0,0
-518,-34,0,0,0,0,0,0,0,0,0,-1,706,1058,0,0
-511,-34,0,0,0,0,0,0,0,0,0,-1,713,1058,0,0
-504,-34,0,0,0,0,0,0,0,0,0,-1,720,1058,0,0
-497,-34,0,0,0,0,0,0,0,0,0,-1,727,1058,0,0
-490,-34,0,0,0,0,0,0,0,0,0,-1,734,1058,0,0
-483,-34,0,0,0,0,0,0,0,0,0,-1,741,1058,0,0
-476,-34,0,0,0,0,0,0,0,0,0,-1,748,1058,0,0
-469,-34,0,0,0,0,0,0,0,0,0,-1,755,1058,0,0
-462,-34,0,0,0,0,0,0,0,0,0,-1,762,1058,0,0
-455,-34,0,0,0,0,0,0,0,0,0,-1,769,1058,0,0
-448,-34,0,0,0,0,0,0,0,0,0,-1,776,1058,0,0
-441,-34,0,0,0,0,0,0,0,0,0,-1,783,1058,0,0
-434,-34,0,0,0,0,0,0,0,0,0,-1,790,1058,0,0
-427,-34,0,0,0,0,0,0,0,0,0,-1,797,1058,0,0
-420,-34,0,0,0,0,0,0,0,0,0,-1,804,1058,0,0
-413,-34,0,0,0,0,0,0,0,0,0,-1,811,1058,0,0
-406,-34,0,0,0,0,0,0,0,0,0,-1,818,1058,0,0
-399,-34,0,0,0,0,0,0,0,0,0,-1,825,1058,0,0
-392,-34,0,0,0,0,0,0,0,0,0,-1,832,1058,0,0
-385,-34,0,0,0,0,0,0,0,0,0,-1,839,1058,0,0
-378,-34,0,0,0,0,0,0,0,0,0,-1,846,1058,0,0
-371,-34,0,0,0,0,0,0,0,0,0,-1,853,1058,0,0
-364,-34,0,0,0,0,0,0,0,0,0,-1,860,1058,0,0
-357,-34,0,0,0,0,0,0,0,0,0,-1,867,1058,0,0
-350,-34,0,0,0,0,0,0,0,0,0,-1,874,1058,0,0
-343,-34,0,0,0,0,0,0,0,0,0,-1,881,1058,0,0
-336,-34,0,0,0,0,0,0,0,0,0,-1,888,1058,0,0
-329,-34,0,0,0,0,0,0,0,0,0,-1,895,1058,0,0
-322,-34,0,0,0,0,0,0,0,0,0,-1,902,1058,0,0
-315,-34,0,0,0,0,0,0,0,0,0,-1,909,1058,0,0
-308,-34,0,0,0,0,0,0,0,0,0,-1,916,1058,0,0
-301,-34,0,0,0,0,0,0,0,0,0,-1,923,1058,0,0
-294,-34,0,0,0,0,0,0,0,0,0,-1,930,1058,0,0
-287,-34,0,0,0,0,0,0,0,0,0,-1,937,1058,0,0
-280,-34,0,0,0,0,0,0,0,0,0,-1,944,1058,0,0
-273,-34,0,0,0,0,0,0,0,0,0,-1,951,1058,0,0
-266,-34,0,0,0,0,0,0,0,0,0,-1,958,1058,0,0
-259,-34,0,0,0,0,0,0,0,0,0,-1,965,1058,0,0
-252,-34,0,0,0,0,0,0,0,0,0,-1,972,1058,0,0
-245,-34,0,0,0,0,0,0,0,0,0,-1,979,1058,0,0
-238,-34,0,0,0,0,0,0,0,0,0,-1,986,1058,0,0
-231,-34,0,0,0,0,0,0,0,0,0,-1,993,1058,0,0
-224,-34,0,0,0,0,0,0,0,0,0,-1,1000,1058,0,0
-217,-34,0,0,0,0,0,0,0,0,0,-1,1007,1058,0,0
-210,-34,0,0,0,0,0,0,0,0,0,-1,1014,1058,0,0
-203,-34,0,0,0,0,0,0,0,0,0,-1,1021,1058,0,0
-196,-34,0,0,0,0,0,0,0,0,0,-1,1028,1058,0,0
-189,-34,0,0,0,0,0,0,0,0,0,-1,1035,1058,0,0
-182,-34,0,0,0,0,0,0,0,0,0,-1,1042,1058,0,0
-175,-34,0,0,0,0,0,0,0,0,0,-1,1049,1058,0,0
-168,-34,0,0,0,0,0,0,0,0,0,-1,1056,1058,0,0
-161,-34,0,0,0,0,0,0,0,0,0,-1,1063,1058,0,0
-154,-34,0,0,0,0,0,0,0,0,0,-1,1070,1058,0,0
-147,-34,0,0,0,0,0,0,0,0,0,-1,1077,1058,0,0
-140,-34,0,0,0,0,0,0,0,0,0,-1,1084,1058,0,0
-133,-34,0,0,0,0,0,0,0,0,0,-1,1091,1058,0,0
-126,-34,0,0,0,0,0,0,0,0,0,-1,1098,1058,0,0
-119,-34,0,0,0,0,0,0,0,0,0,-1,1105,1058,0,0
-112,-34,0,0,0,0,0,0,0,0,0,-1,1112,1058,0,0
-105,-34,0,0,0,0,0,0,0,0,0,-1,1119,1058,0,0
-98,-34,0,0,0,0,0,0,0,0,0,-1,1126,1058,0,0
-91,-34,0,0,0,0,0,0,0,0,0,-1,1133,1058,0,0
-84,-34,0,0,0,0,0,0,0,0,0,-1,1140,1058,0,0
-77,-34,0,0,0,0,0,0,0,0,0,-1,1147,1058,0,0
-70,-34,0,0,0,0,0,0,0,0,0,-1,1154,1058,0,0
-63,-34,0,0,0,0,0,0,0,0,0,-1,1161,1058,0,0
-56,-34,0,0,0,0,0,0,0,0,0,-1,1168,1058,0,0
-49,-34,0,0,0,0,0,0,0,0,0,-1,1175,1058,0,0
-42,-34,0,0,0,0,0,0,0,0,0,-1,1182,1058,0,0
-35,-34,0,0,0,0,0,0,0,0,0,-1,1189,1058,0,0
-28,-34,0,0,0,0,0,0,0,0,0,-1,1196,1058,0,0
-21,-34,0,0,0,0,0,0,0,0,0,-1,1203,1058,0,0
-14,-34,0,0,0,0,0,0,0,0,0,-1,1210,1058,0,0
-7,-34,0,0,0,0,0,0,0,0,0,-1,1217,1058,0,0
0,-34,0,0,0,0,0,0,0,0,0,-1,1224,1058,0,0
7,-34,0,0,0,0,0,0,0,0,0,-1,1231,1058,0,0
14,-34,0,0,0,0,0,0,0,0,0,-1,1238,1058,0,0
21,-34,0,0,0,0,0,0,0,0,0,-1,1245,1058,0,0
28,-34,0,0,0,0,0,0,0,0,0,-1,1252,1058,0,0
35,-34,0,0,0,0,0,0,0,0,0,-1,1259,1058,0,0
42,-34,0,0,0,0,0,0,0,0,0,-1,1266,1058,0,0
49,-34,0,0,0,0,0,0,0,0,0,-1,1273,1058,0,0
56,-34,0,0,0,0,0,0,0,0,0,-1,1280,1058,0,0
63,-34,0,0,0,0,0,0,0,0,0,-1,1287,1058,0,0
70,-34,0,0,0,0,0,0,0,0,0,-1,1294,1058,0,0
77,-34,0,0,0,0,0,0,0,0,0,-1,1301,1058,0,0
84,-34,0,0,0,0,0,0,0,0,0,-1,1308,1058,0,0
91,-34,0,0,0,0,0,0,0,0,0,-1,1315,1058,0,0
98,-34,0,0,0,0,0,0,0,0,0,-1,1322,1058,0,0
105,-34,0,0,0,0,0,0,0,0,0,-1,1329,1058,0,0
112,-34,0,0,0,0,0,0,0,0,0,-1,1336,1058,0,0
119,-34,0,0,0,0,0,0,0,0,0,-1,1343,1058,0,0
126,-34,0,0,0,0,0,0,0,0,0,-1,1350,1058,0,0
133,-34,0,0,0,0,0,0,0,0,0,-1,1357,1058,0,0
140,-34,0,0,0,0,0,0,0,0,0,-1,1364,1058,0,0
147,-34,0,0,0,0,0,0,0,0,0,-1,1371,1058,0,0
154,-34,0,0,0,0,0,0,0,0,0,-1,1378,1058,0,0
161,-34,0,0,0,0,0,0,0,0,0,-1,1385,1058,0,0
168,-34,0,0,0,0,0,0,0,0,0,-1,1392,1058,0,0
175,-34,0,0,0,0,0,0,0,0,0,-1,1399,1058,0,0
182,-34,0,0,0,0,0,0,0,0,0,-1,1406,1058,0,0
189,-34,0,0,0,0,0,0,0,0,0,-1,1413,1058,0,0
196,-34,0,0,0,0,0,0,0,0,0,-1,1420,1058,0,0
203,-34,0,0,0,0,0,0,0,0,0,-1,1427,1058,0,0
210,-34,0,0,0,0,0,0,0,0,0,-1,1434,1058,0,0
217,-34,0,0,0,0,0,0,0,0,0,-1,1441,1058,0,0
224,-34,0,0,0,0,0,0,0,0,0,-1,1448,1058,0,0
231,-34,0,0,0,0,0,0,0,0,0,-1,1455,1058,0,0
238,-34,0,0,0,0,0,0,0,0,0,-1,1462,1058,0,0
245,-34,0,0,0,0,0,0,0,0,0,-1,1469,1058,0,0
252,-34,0,0,0,0,0,0,0,0,0,-1,1476,1058,0,0
259,-34,0,0,0,0,0,0,0,0,0,-1,1483,1058,0,0
266,-34,0,0,0,0,0,0,0,0,0,-1,1490,1058,0,0
273,-34,0,0,0,0,0,0,0,0,0,-1,1497,1058,0,0
280,-34,0,0,0,0,0,0,0,0,0,-1,1504,1058,0,0
287,-34,0,0,0,0,0,0,0,0,0,-1,1511,1058,0,0
294,-34,0,0,0,0,0,0,0,0,0,-1,1518,1058,0,0
301,-34,0,0,0,0,0,0,0,0,0,-1,1525,1058,0,0
308,-34,0,0,0,0,0,0,0,0,0,-1,1532,1058,0,0
315,-34,0,0,0,0,0,0,0,0,0,-1,1539,1058,0,0
322,-34,0,0,0,0,0,0,0,0,0,-1,1546,1058,0,0
329,-34,0,0,0,0,0,0,0,0,0,-1,1553,1058,0,0
336,-34,0,0,0,0,0,0,0,0,0,-1,1560,1058,0,0
343,-34,0,0,0,0,0,0,0,0,0,-1,1567,1058,0,0
350,-34,0,0,0,0,0,0,0,0,0,-1,1574,1058,0,0
357,-34,0,0,0,0,0,0,0,0,0,-1,1581,1058,0,0
364,-34,0,0,0,0,0,0,0,0,0,-1,1588,1058,0,0
371,-34,0,0,0,0,0,0,0,0,0,-1,1595,1058,0,0
378,-34,0,0,0,0,0,0,0,0,0,-1,1602,1058,0,0
385,-34,0,0,0,0,0,0,0,0,0,-1,1609,1058,0,0
392,-34,0,0,0,0,0,0,0,0,0,-1,1616,1058,0,0
399,-34,0,0,0,0,0,0,0,0,0,-1,1623,1058,0,0
406,-34,0,0,0,0,0,0,0,0,0,-1,1630,1058,0,0
413,-34,0,0,0,0,0,0,0,0,0,-1,1637,1058,0,0
420,-34,0,0,0,0,0,0,0,0,0,-1,1644,1058,0,0
427,-34,0,0,0,0,0,0,0,0,0,-1,1651,1058,0,0
434,-34,0,0,0,0,0,0,0,0,0,-1,1658,1058,0,0
441,-34,0,0,0,0,0,0,0,0,0,-1,1665,1058,0,0
448,-34,0,0,0,0,0,0,0,0,0,-1,1672,1058,0,0
455,-34,0,0,0,0,0,0,0,0,0,-1,1679,1058,0,0
462,-34,0,0,0,0,0,0,0,0,0,-1,1686,1058,0,0
469,-34,0,0,0,0,0,0,0,0,0,-1,1693,1058,0,0
476,-34,0,0,0,0,0,0,0,0,0,-1,1700,1058,0,0
483,-34,0,0,0,0,0,0,0,0,0,-1,1707,1058,0,0
490,-34,0,0,0,0,0,0,0,0,0,-1,1714,1058,0,0
497,-34,0,0,0,0,0,0,0,0,0,-1,1721,1058,0,0
504,-34,0,0,0,0,0,0,0,0,0,-1,1728,1058,0,0
511,-34,0,0,0,0,0,0,0,0,0,-1,1735,1058,0,0
518,-34,0,0,0,0,0,0,0,0,0,-1,1742,1058,0,0
525,-34,0,0,0,0,0,0,0,0,0,-1,1749,1058,0,0
532,-34,0,0,0,0,0,0,0,0,0,-1,1756,1058,0,0
539,-34,0,0,0,0,0,0,0,0,0,-1,1763,1058,0,0
546,-34,0,0,0,0,0,0,0,0,0,-1,1770,1058,0,0
553,-34,0,0,0,0,0,0,0,0,0,-1,1777,1058,0,0
560,-34,0,0,0,0,0,0,0,0,0,-1,1784,1058,0,0
567,-34,0,0,0,0,0,0,0,0,0,-1,1791,1058,0,0
574,-34,0,0,0,0,0,0,0,0,0,-1,1798,1058,0,0
581,-34,0,0,0,0,0,0,0,0,0,-1,1805,1058,0,0
588,-34,0,0,0,0,0,0,0,0,0,-1,1812,1058,0,0
595,-34,0,0,0,0,0,0,0,0,0,-1,1819,1058,0,0
602,-34,0,0,0,0,0,0,0,0,0,-1,1826,1058,0,0
609,-34,0,0,0,0,0,0,0,0,0,-1,1833,1058,0,0
616,-34,0,0,0,0,0,0,0,0,0,-1,1840,1058,0,0
623,-34,0,0,0,0,0,0,0,0,0,-1,1847,1058,0,0
630,-34,0,0,0,0,0,0,0,0,0,-1,1854,1058,0,0
637,-34,0,0,0,0,0,0,0,0,0,-1,1861,1058,0,0
644,-34,0,0,0,0,0,0,0,0,0,-1,1868,1058,0,0
651,-34,35.3688,2.53699,0.00512251,0.0006409,0.00375725,0.00725642,-0.00149301,0.516516,0.00540447,0.0450554,1875,1058,35.3687,-2.53705
658,-34,35.3838,2.62817,0.00361279,0.00068123,0.00251147,0.00505493,-0.00076091,0.521249,0.00365012,0.0477215,1882,1058,35.3838,-2.62812
665,-34,35.4539,2.73352,0.00241839,0.000760201,0.00164173,0.0034285,-0.00024991,0.551574,0.00237336,0.045882,1889,1058,35.4539,-2.73354
672,-34,35.6182,2.62048,0.00164746,0.00068402,0.00148064,0.00272277,-0.000391294,0.628127,0.00195868,0.0392229,1896,1058,35.6181,-2.62043
679,-34,35.812,2.45166,0.001084,0.000399105,0.00177931,0.00255352,-0.00107041,0.69033,0.00214989,0.039064,1903,1058,35.812,-2.45168
686,-34,35.6831,2.64148,0.000575626,-8.12271e-05,0.00228386,0.00255455,-0.00206015,0.713986,0.00266939,0.0431537,1910,1058,35.6832,-2.64145
693,-34,35.6548,2.72144,0.000223263,-0.000594659,0.00285247,0.00269594,-0.00306734,0.714198,0.00332973,0.0440468,1917,1058,35.6547,-2.7215
700,-34,35.5876,2.63428,1.77957e-05,-0.000996947,0.00334148,0.00289021,-0.00386936,0.710054,0.00391626,0.0405485,1924,1058,35.5876,-2.63429
707,-34,35.5775,2.55042,-0.000286848,-0.00119403,0.00360501,0.00289299,-0.00437387,0.722815,0.00422446,0.0262931,1931,1058,35.5775,-2.55045
714,-34,35.6229,2.63135,-0.00068327,-0.00116937,0.00379673,0.00287818,-0.00473082,0.753434,0.00443625,0.0218037,1938,1058,35.6229,-2.63133
721,-34,35.7423,3.17212,-0.00114506,-0.001028,0.00394309,0.00285699,-0.00503005,0.792819,0.00461084,0.0365294,1945,1058,35.7423,-3.17212
728,-34,35.2511,5.01733,0,0,0,0,0,0,0,-1,1952,1058,35.2511,-5.01732
735,-34,35.1271,4.98877,-0.00167982,-0.000105007,0.00360815,0.00280065,-0.00458548,0.892829,0.00430568,0.0170322,1959,1058,35.1271,-4.98879
742,-34,35.0583,4.93188,-0.00189808,0.000838146,0.00318517,0.0029366,-0.00399653,0.988247,0.0040184,0.0153711,1966,1058,35.0583,-4.93194
749,-34,35.0801,4.84607,-0.00253018,0.00180819,0.00231552,0.00281185,-0.00353385,1.16179,0.00367159,0.0130915,1973,1058,35.0801,-4.84606
756,-34,35.1031,4.75134,-0.00331612,0.00341293,0.00108226,0.00358271,-0.0034859,1.41519,0.00408119,0.0104953,1980,1058,35.1032,-4.75139
763,-34,35.0692,4.66418,-0.00432884,0.00587377,-0.000854381,0.00594482,-0.00439989,-1.48783,0.00599469,0.0120033,1987,1058,35.0692,-4.66413
770,-34,35.0033,4.57678,-0.0055204,0.00870513,-0.00330991,0.00943755,-0.00625282,-1.35302,0.00912083,0.018083,1994,1058,35.0033,-4.57682
777,-34,34.9316,4.53638,-0.00710585,0.0123174,-0.00625125,0.0141554,-0.00894384,-1.28483,0.013449,0.0189282,2001,1058,34.9316,-4.53644
784,-34,34.9139,4.45276,-0.00902845,0.0161508,-0.00941142,0.0192797,-0.0121574,-1.24983,0.0183049,0.034978,2008,1058,34.9139,-4.45272
791,-34,34.8022,4.5697,-0.0115796,0.0204637,-0.0130858,0.0251285,-0.0162445,-1.22836,0.0240696,0.0470523,2015,1058,34.8022,-4.56966
798,-34,34.9517,4.47656,0,0,0,0,0,0,0,-1,2022,1058,34.9516,-4.47651
805,-34,35.0869,3.03894,-0.0191643,0.0316849,-0.0227945,0.040407,-0.0278864,-1.20534,0.0396495,0.044576,2029,1058,35.0869,-3.0389
812,-34,34.7588,2.05127,0,0,0,0,0,0,0,-1,2036,1058,34.7588,-2.0513
-700,-41,-25.3875,-2.47925,0,0,0,0,0,0,0,-1,524,1065,-25.3875,2.47923
-693,-41,-25.4297,-2.17932,0.019832,-0.0254083,0.0326405,0.0369243,-0.0425006,0.48239,0.0458936,0.0444374,531,1065,-25.4297,2.17932
-686,-41,-25.5395,-1.81531,0.0231254,-0.0183055,0.0305341,0.0393079,-0.0344881,0.487344,0.0426364,0.0433599,538,1065,-25.5395,1.81527
-679,-41,-25.7762,-1.29077,0.0236576,-0.012104,0.0275112,0.0385882,-0.0270345,0.497229,0.0380826,0.0442049,545,1065,-25.7762,1.29083
-672,-41,-25.9102,-0.554932,0,0,0,0,0,0,0,-1,552,1065,-25.9102,0.554902
-665,-41,-25.7798,0.319702,0.0202364,-0.0027391,0.0202894,0.0320645,-0.0145672,0.527802,0.0275473,0.0421452,559,1065,-25.7798,-0.319688
-658,-41,-25.3102,1.03943,0.0172833,0.000333686,0.016527,0.0273817,-0.00976469,0.548486,0.0222359,0.0384503,566,1065,-25.3102,-1.03939
-651,-41,-25.2039,1.3905,0.0140272,0.00231434,0.0129111,0.022348,-0.00600647,0.572477,0.0172529,0.0281557,573,1065,-25.2039,-1.39045
-644,-41,-25.447,1.61267,0.0107893,0.00309672,0.00910143,0.0168238,-0.00293779,0.58548,0.0123125,0.0161109,580,1065,-25.447,-1.61269
-637,-41,-25.5063,1.72144,0.00774114,0.00394231,0.00443518,0.0106665,0.00101694,0.583083,0.00679743,0.0175793,587,1065,-25.5063,-1.72144
-630,-41,-25.5209,1.89282,0.00514315,0.00393797,0.000418758,0.00527436,0.00380676,0.30366,0.00314339,0.0140914,594,1065,-25.5209,-1.89278
-623,-41,-25.4742,2.07141,0.00318324,0.00254379,-0.00319446,0.00607393,-0.0003469,-0.73552,0.00416973,0.0123,601,1065,-25.4742,-2.07141
-616,-41,-25.447,2.25354,0.00115145,0.00154263,-0.00630225,0.00765233,-0.00495824,-0.800911,0.00733589,0.0156978,608,1065,-25.447,-2.25358
-609,-41,-25.4248,2.39905,-0.000327704,0.000133058,-0.00880095,0.00870664,-0.00890129,-0.798484,0.0101661,0.0198884,615,1065,-25.4248,-2.399
-602,-41,-25.4697,2.49756,-0.000636529,-0.000806563,-0.0105098,0.00978865,-0.0112317,-0.781354,0.0121457,0.0124916,622,1065,-25.4698,-2.49761
-595,-41,-25.5594,2.56018,-0.00104039,-0.00141507,-0.0112948,0.0100686,-0.0125241,-0.777106,0.0130695,0.0192543,629,1065,-25.5594,-2.56015
-588,-41,-25.7301,1.49683,-0.00126659,-0.0014313,-0.0115253,0.0101767,-0.0128745,-0.781826,0.013339,0.0296189,636,1065,-25.7301,-1.49688
-581,-41,-25.7868,0.603149,-0.00130466,-0.0011616,-0.0113735,0.0101406,-0.0126069,-0.788543,0.013159,0.0341693,643,1065,-25.7868,-0.603179
-574,-41,-25.6653,0.835938,-0.00163941,-0.000668227,-0.0106831,0.00954033,-0.011848,-0.808109,0.0123725,0.0391403,650,1065,-25.6653,-0.835914
-567,-41,-25.6036,1.13159,-0.00216365,0.000167692,-0.00931574,0.00839041,-0.0103864,-0.847639,0.0108612,0.0439808,657,1065,-25.6037,-1.13155
-560,-41,-25.6918,1.005,-0.00280992,0.00131186,-0.00729987,0.00683618,-0.00833424,-0.922977,0.00877287,0.0425303,664,1065,-25.6917,-1.00502
-553,-41,-25.6584,0.659668,-0.00359526,0.00268612,-0.0047448,0.00523551,-0.00614465,-1.07775,0.00657733,0.0424253,671,1065,-25.6584,-0.659687
-546,-41,-25.7941,0.533203,-0.0045267,0.00416859,-0.00178178,0.00451954,-0.00487764,-1.37632,0.00542678,0.0426324,678,1065,-25.794,-0.533246
-539,-41,-25.9472,0.45813,-0.00572995,0.00561318,0.000257479,0.00561903,-0.00573579,1.54811,0.00655582,0.0406586,685,1065,-25.9472,-0.458095
-532,-41,-25.879,0.294312,-0.00736667,0.00626542,-0.00195002,0.00653888,-0.00764013,-1.43147,0.00819449,0.038292,692,1065,-25.879,-0.294271
-525,-41,0,0,0,0,0,0,0,0,0,-1,699,1065,0,0
-518,-41,0,0,0,0,0,0,0,0,0,-1,706,1065,0,0
-511,-41,0,0,0,0,0,0,0,0,0,-1,713,1065,0,0
-504,-41,0,0,0,0,0,0,0,0,0,-1,720,1065,0,0
-497,-41,0,0,0,0,0,0,0,0,0,-1,727,1065,0,0
-490,-41,0,0,0,0,0,0,0,0,0,-1,734,1065,0,0
-483,-41,0,0,0,0,0,0,0,0,0,-1,741,1065,0,0
-476,-41,0,0,0,0,0,0,0,0,0,-1,748,1065,0,0
-469,-41,0,0,0,0,0,0,0,0,0,-1,755,1065,0,0
-462,-41,0,0,0,0,0,0,0,0,0,-1,762,1065,0,0
-455,-41,0,0,0,0,0,0,0,0,0,-1,769,1065,0,0
-448,-41,0,0,0,0,0,0,0,0,0,-1,776,1065,0,0
-441,-41,0,0,0,0,0,0,0,0,0,-1,783,1065,0,0
-434,-41,0,0,0,0,0,0,0,0,0,-1,790,1065,0,0
-427,-41,0,0,0,0,0,0,0,0,0,-1,797,1065,0,0
-420,-41,0,0,0,0,0,0,0,0,0,-1,804,1065,0,0
-413,-41,0,0,0,0,0,0,0,0,0,-1,811,1065,0,0
-406,-41,0,0,0,0,0,0,0,0,0,-1,818,1065,0,0
-399,-41,0,0,0,0,0,0,0,0,0,-1,825,1065,0,0
-392,-41,0,0,0,0,0,0,0,0,0,-1,832,1065,0,0
-385,-41,0,0,0,0,0,0,0,0,0,-1,839,1065,0,0
-378,-41,0,0,0,0,0,0,0,0,0,-1,846,1065,0,0
-371,-41,0,0,0,0,0,0,0,0,0,-1,853,1065,0,0
-364,-41,0,0,0,0,0,0,0,0,0,-1,860,1065,0,0
-357,-41,0,0,0,0,0,0,0,0,0,-1,867,1065,0,0
-350,-41,0,0,0,0,0,0,0,0,0,-1,874,1065,0,0
-343,-41,0,0,0,0,0,0,0,0,0,-1,881,1065,0,0
-336,-41,0,0,0,0,0,0,0,0,0,-1,888,1065,0,0
-329,-41,0,0,0,0,0,0,0,0,0,-1,895,1065,0,0
-322,-41,0,0,0,0,0,0,0,0,0,-1,902,1065,0,0
-315,-41,0,0,0,0,0,0,0,0,0,-1,909,1065,0,0
-308,-41,0,0,0,0,0,0,0,0,0,-1,916,1065,0,0
-301,-41,0,0,0,0,0,0,0,0,0,-1,923,1065,0,0
-294,-41,0,0,0,0,0,0,0,0,0,-1,930,1065,0,0
-287,-41,0,0,0,0,0,0,0,0,0,-1,937,1065,0,0
-280,-41,0,0,0,0,0,0,0,0,0,-1,944,1065,0,0
-273,-41,0,0,0,0,0,0,0,0,0,-1,951,1065,0,0
-266,-41,0,0,0,0,0,0,0,0,0,-1,958,1065,0,0
-259,-41,0,0,0,0,0,0,0,0,0,-1,965,1065,0,0
-252,-41,0,0,0,0,0,0,0,0,0,-1,972,1065,0,0
-245,-41,0,0,0,0,0,0,0,0,0,-1,979,1065,0,0
-238,-41,0,0,0,0,0,0,0,0,0,-1,986,1065,0,0
-231,-41,0,0,0,0,0,0,0,0,0,-1,993,1065,0,0
-224,-41,0,0,0,0,0,0,0,0,0,-1,1000,1065,0,0
-217,-41,0,0,0,0,0,0,0,0,0,-1,1007,1065,0,0
-210,-41,0,0,0,0,0,0,0,0,0,-1,1014,1065,0,0
-203,-41,0,0,0,0,0,0,0,0,0,-1,1021,1065,0,0
-196,-41,0,0,0,0,0,0,0,0,0,-1,1028,1065,0,0
-189,-41,0,0,0,0,0,0,0,0,0,-1,1035,1065,0,0
-182,-41,0,0,0,0,0,0,0,0,0,-1,1042,1065,0,0
-175,-41,0,0,0,0,0,0,0,0,0,-1,1049,1065,0,0
-168,-41,0,0,0,0,0,0,0,0,0,-1,1056,1065,0,0
-161,-41,0,0,0,0,0,0,0,0,0,-1,1063,1065,0,0
-154,-41,0,0,0,0,0,0,0,0,0,-1,1070,1065,0,0
-147,-41,0,0,0,0,0,0,0,0,0,-1,1077,1065,0,0
-140,-41,0,0,0,0,0,0,0,0,0,-1,1084,1065,0,0
-133,-41,0,0,0,0,0,0,0,0,0,-1,1091,1065,0,0
-126,-41,0,0,0,0,0,0,0,0,0,-1,1098,1065,0,0
-119,-41,0,0,0,0,0,0,0,0,0,-1,1105,1065,0,0
-112,-41,0,0,0,0,0,0,0,0,0,-1,1112,1065,0,0
-105,-41,0,0,0,0,0,0,0,0,0,-1,1119,1065,0,0
-98,-41,0,0,0,0,0,0,0,0,0,-1,1126,1065,0,0
-91,-41,0,0,0,0,0,0,0,0,0,-1,1133,1065,0,0
-84,-41,0,0,0,0,0,0,0,0,0,-1,1140,1065,0,0
-77,-41,0,0,0,0,0,0,0,0,0,-1,1147,1065,0,0
-70,-41,0,0,0,0,0,0,0,0,0,-1,1154,1065,0,0
-63,-41,0,0,0,0,0,0,0,0,0,-1,1161,1065,0,0
-56,-41,0,0,0,0,0,0,0,0,0,-1,1168,1065,0,0
-49,-41,0,0,0,0,0,0,0,0,0,-1,1175,1065,0,0
-42,-41,0,0,0,0,0,0,0,0,0,-1,1182,1065,0,0
-35,-41,0,0,0,0,0,0,0,0,0,-1,1189,1065,0,0
-28,-41,0,0,0,0,0,0,0,0,0,-1,1196,1065,0,0
-21,-41,0,0,0,0,0,0,0,0,0,-1,1203,1065,0,0
-14,-41,0,0,0,0,0,0,0,0,0,-1,1210,1065,0,0
-7,-41,0,0,0,0,0,0,0,0,0,-1,1217,1065,0,0
0,-41,0,0,0,0,0,0,0,0,0,-1,1224,1065,0,0
7,-41,0,0,0,0,0,0,0,0,0,-1,1231,1065,0,0
14,-41,0,0,0,0,0,0,0,0,0,-1,1238,1065,0,0
21,-41,0,0,0,0,0,0,0,0,0,-1,1245,1065,0,0
28,-41,0,0,0,0,0,0,0,0,0,-1,1252,1065,0,0
35,-41,0,0,0,0,0,0,0,0,0,-1,1259,1065,0,0
42,-41,0,0,0,0,0,0,0,0,0,-1,1266,1065,0,0
49,-41,0,0,0,0,0,0,0,0,0,-1,1273,1065,0,0
56,-41,0,0,0,0,0,0,0,0,0,-1,1280,1065,0,0
63,-41,0,0,0,0,0,0,0,0,0,-1,1287,1065,0,0
70,-41,0,0,0,0,0,0,0,0,0,-1,1294,1065,0,0
77,-41,0,0,0,0,0,0,0,0,0,-1,1301,1065,0,0
84,-41,0,0,0,0,0,0,0,0,0,-1,1308,1065,0,0
91,-41,0,0,0,0,0,0,0,0,0,-1,1315,1065,0,0
98,-41,0,0,0,0,0,0,0,0,0,-1,1322,1065,0,0
105,-41,0,0,0,0,0,0,0,0,0,-1,1329,1065,0,0
112,-41,0,0,0,0,0,0,0,0,0,-1,1336,1065,0,0
119,-41,0,0,0,0,0,0,0,0,0,-1,1343,1065,0,0
126,-41,0,0,0,0,0,0,0,0,0,-1,1350,1065,0,0
133,-41,0,0,0,0,0,0,0,0,0,-1,1357,1065,0,0
140,-41,0,0,0,0,0,0,0,0,0,-1,1364,1065,0,0
147,-41,0,0,0,0,0,0,0,0,0,-1,1371,1065,0,0
154,-41,0,0,0,0,0,0,0,0,0,-1,1378,1065,0,0
161,-41,0,0,0,0,0,0,0,0,0,-1,1385,1065,0,0
168,-41,0,0,0,0,0,0,0,0,0,-1,1392,1065,0,0
175,-41,0,0,0,0,0,0,0,0,0,-1,1399,1065,0,0
182,-41,0,0,0,0,0,0,0,0,0,-1,1406,1065,0,0
189,-41,0,0,0,0,0,0,0,0,0,-1,1413,1065,0,0
196,-41,0,0,0,0,0,0,0,0,0,-1,1420,1065,0,0
203,-41,0,0,0,0,0,0,0,0,0,-1,1427,1065,0,0
210,-41,0,0,0,0,0,0,0,0,0,-1,1434,1065,0,0
217,-41,0,0,0,0,0,0,0,0,0,-1,1441,1065,0,0
224,-41,0,0,0,0,0,0,0,0,0,-1,1448,1065,0,0
231,-41,0,0,0,0,0,0,0,0,0,-1,1455,1065,0,0
238,-41,0,0,0,0,0,0,0,0,0,-1,1462,1065,0,0
245,-41,0,0,0,0,0,0,0,0,0,-1,1469,1065,0,0
252,-41,0,0,0,0,0,0,0,0,0,-1,1476,1065,0,0
259,-41,0,0,0,0,0,0,0,0,0,-1,1483,1065,0,0
266,-41,0,0,0,0,0,0,0,0,0,-1,1490,1065,0,0
273,-41,0,0,0,0,0,0,0,0,0,-1,1497,1065,0,0
280,-41,0,0,0,0,0,0,0,0,0,-1,1504,1065,0,0
287,-41,0,0,0,0,0,0,0,0,0,-1,1511,1065,0,0
294,-41,0,0,0,0,0,0,0,0,0,-1,1518,1065,0,0
301,-41,0,0,0,0,0,0,0,0,0,-1,1525,1065,0,0
308,-41,0,0,0,0,0,0,0,0,0,-1,1532,1065,0,0
315,-41,0,0,0,0,0,0,0,0,0,-1,1539,1065,0,0
322,-41,0,0,0,0,0,0,0,0,0,-1,1546,1065,0,0
329,-41,0,0,0,0,0,0,0,0,0,-1,1553,1065,0,0
336,-41,0,0,0,0,0,0,0,0,0,-1,1560,1065,0,0
343,-41,0,0,0,0,0,0,0,0,0,-1,1567,1065,0,0
350,-41,0,0,0,0,0,0,0,0,0,-1,1574,1065,0,0
357,-41,0,0,0,0,0,0,0,0,0,-1,1581,1065,0,0
364,-41,0,0,0,0,0,0,0,0,0,-1,1588,1065,0,0
371,-41,0,0,0,0,0,0,0,0,0,-1,1595,1065,0,0
378,-41,0,0,0,0,0,0,0,0,0,-1,1602,1065,0,0
385,-41,0,0,0,0,0,0,0,0,0,-1,1609,1065,0,0
392,-41,0,0,0,0,0,0,0,0,0,-1,1616,1065,0,0
399,-41,0,0,0,0,0,0,0,0,0,-1,1623,1065,0,0
406,-41,0,0,0,0,0,0,0,0,0,-1,1630,1065,0,0
413,-41,0,0,0,0,0,0,0,0,0,-1,1637,1065,0,0
420,-41,0,0,0,0,0,0,0,0,0,-1,1644,1065,0,0
427,-41,0,0,0,0,0,0,0,0,0,-1,1651,1065,0,0
434,-41,0,0,0,0,0,0,0,0,0,-1,1658,1065,0,0
441,-41,0,0,0,0,0,0,0,0,0,-1,1665,1065,0,0
448,-41,0,0,0,0,0,0,0,0,0,-1,1672,1065,0,0
455,-41,0,0,0,0,0,0,0,0,0,-1,1679,1065,0,0
462,-41,0,0,0,0,0,0,0,0,0,-1,1686,1065,0,0
469,-41,0,0,0,0,0,0,0,0,0,-1,1693,1065,0,0
476,-41,0,0,0,0,0,0,0,0,0,-1,1700,1065,0,0
483,-41,0,0,0,0,0,0,0,0,0,-1,1707,1065,0,0
490,-41,0,0,0,0,0,0,0,0,0,-1,1714,1065,0,0
497,-41,0,0,0,0,0,0,0,0,0,-1,1721,1065,0,0
504,-41,0,0,0,0,0,0,0,0,0,-1,1728,1065,0,0
511,-41,0,0,0,0,0,0,0,0,0,-1,1735,1065,0,0
518,-41,0,0,0,0,0,0,0,0,0,-1,1742,1065,0,0
525,-41,0,0,0,0,0,0,0,0,0,-1,1749,1065,0,0
532,-41,0,0,0,0,0,0,0,0,0,-1,1756,1065,0,0
539,-41,0,0,0,0,0,0,0,0,0,-1,1763,1065,0,0
546,-41,0,0,0,0,0,0,0,0,0,-1,1770,1065,0,0
553,-41,0,0,0,0,0,0,0,0,0,-1,1777,1065,0,0
560,-41,0,0,0,0,0,0,0,0,0,-1,1784,1065,0,0
567,-41,0,0,0,0,0,0,0,0,0,-1,1791,1065,0,0
574,-41,0,0,0,0,0,0,0,0,0,-1,1798,1065,0,0
581,-41,0,0,0,0,0,0,0,0,0,-1,1805,1065,0,0
588,-41,0,0,0,0,0,0,0,0,0,-1,1812,1065,0,0
595,-41,0,0,0,0,0,0,0,0,0,-1,1819,1065,0,0
602,-41,0,0,0,0,0,0,0,0,0,-1,1826,1065,0,0
609,-41,0,0,0,0,0,0,0,0,0,-1,1833,1065,0,0
616,-41,0,0,0,0,0,0,0,0,0,-1,1840,1065,0,0
623,-41,0,0,0,0,0,0,0,0,0,-1,1847,1065,0,0
630,-41,0,0,0,0,0,0,0,0,0,-1,1854,1065,0,0
637,-41,0,0,0,0,0,0,0,0,0,-1,1861,1065,0,0
644,-41,0,0,0,0,0,0,0,0,0,-1,1868,1065,0,0
651,-41,35.5546,2.51794,0.00686753,0.000137399,0.00451907,0.0091368,-0.00213186,0.465368,0.00691228,0.0375678,1875,1065,35.5546,-2.51791
658,-41,35.5594,2.47412,0.00499945,0.000484247,0.00313731,0.00660701,-0.00112332,0.473519,0.00482291,0.0430151,1882,1065,35.5595,-2.47417
665,-41,35.8805,2.08459,0.00346878,0.000750481,0.00215745,0.00465951,-0.000440251,0.504312,0.00326301,0.0428829,1889,1065,35.8805,-2.08457
672,-41,35.8871,2.17188,0.0024203,0.00076192,0.00190801,0.00367151,-0.000489286,0.580418,0.00262601,0.0409,1896,1065,35.887,-2.17184
679,-41,35.9279,2.48218,0.00157208,0.000494381,0.00213857,0.00323865,-0.00117218,0.661984,0.00263811,0.040135,1903,1065,35.9279,-2.48219
686,-41,35.7834,2.76758,0.000812831,-1.18385e-05,0.00258974,0.00302285,-0.00222186,0.706451,0.00303979,0.0414171,1910,1065,35.7835,-2.76763
693,-41,35.6385,2.72217,0.000285627,-0.000572624,0.00310591,0.00299192,-0.00327891,0.716751,0.00362173,0.0444568,1917,1065,35.6385,-2.72214
700,-41,35.6677,2.56555,-5.77148e-05,-0.00101369,0.00355063,0.00304695,-0.00411836,0.71849,0.00415228,0.0402522,1924,1065,35.6677,-2.56552
707,-41,35.6304,2.50024,-0.000468274,-0.00123664,0.00379123,0.00295818,-0.0046631,0.734903,0.0044367,0.0314608,1931,1065,35.6304,-2.50029
714,-41,35.616,2.55811,-0.00091614,-0.00125367,0.00397072,0.0028894,-0.00505921,0.76416,0.00464578,0.0204748,1938,1065,35.6159,-2.55809
721,-41,35.7158,3.44116,-0.0013554,-0.00120986,0.00410192,0.00281993,-0.00538519,0.794267,0.00481378,0.0472518,1945,1065,35.7158,-3.4412
728,-41,35.1172,5.04102,0,0,0,0,0,0,0,-1,1952,1065,35.1172,-5.04105
735,-41,35.0229,4.98779,-0.00184477,-0.000363387,0.00375014,0.00271851,-0.00492667,0.882899,0.00447489,0.0170363,1959,1065,35.023,-4.98782
742,-41,34.9626,4.92578,-0.00201109,0.000604499,0.00330982,0.00285553,-0.00426212,0.973547,0.00413604,0.0147412,1966,1065,34.9626,-4.92577
749,-41,34.9635,4.84326,-0.00265199,0.00170021,0.00247989,0.0028234,-0.00377517,1.14552,0.00382287,0.0136931,1973,1065,34.9635,-4.84325
756,-41,35.0034,4.74487,-0.00345798,0.00349051,0.00123652,0.00370399,-0.00367147,1.39983,0.00425824,0.0136221,1980,1065,35.0034,-4.74483
763,-41,34.9667,4.63379,-0.00453417,0.00612575,-0.000829863,0.00618997,-0.00459838,-1.49357,0.00625121,0.0122,1987,1065,34.9667,-4.63379
770,-41,34.896,4.54114,-0.00590163,0.00927963,-0.00339439,0.010004,-0.00662602,-1.36054,0.00966716,0.0137151,1994,1065,34.8959,-4.54119
777,-41,34.8164,4.43469,-0.00778059,0.0133169,-0.0065148,0.0151665,-0.00963018,-1.29417,0.0144348,0.0150703,2001,1065,34.8165,-4.43466
784,-41,34.7963,4.26514,-0.0100982,0.0176656,-0.00996084,0.0208695,-0.0133021,-1.2596,0.0198896,0.0262056,2008,1065,34.7962,-4.26518
791,-41,34.8003,4.02344,-0.0131754,0.0225693,-0.0140623,0.0274383,-0.0180444,-1.23747,0.0264455,0.045002,2015,1065,34.8003,-4.02338
798,-41,34.7041,3.73206,-0.0171736,0.0283166,-0.0191343,0.0352945,-0.0241515,-1.2211,0.0345216,0.0475635,2022,1065,34.7042,-3.73205
805,-41,34.7031,3.36938,-0.0221048,0.0351839,-0.0253277,0.0447755,-0.0316964,-1.20878,0.0443658,0.0465889,2029,1065,34.7032,-3.36934
812,-41,34.7378,3.03906,0,0,0,0,0,0,0,-1,2036,1065,34.7377,-3.03907
-700,-48,-25.0407,-2.57983,0.0119345,-0.0194644,0.0279212,0.0282674,-0.0357972,0.529288,0.0370728,0.0484861,524,1072,-25.0407,2.57987
-693,-48,-24.8816,-2.27136,0.0195514,-0.0124969,0.0280577,0.0358384,-0.0287839,0.525944,0.0373837,0.0429738,531,1072,-24.8816,2.27135
-686,-48,-24.8074,-1.72314,0.0230739,-0.00678243,0.0268746,0.0388882,-0.0225966,0.53188,0.0359112,0.0445916,538,1072,-24.8074,1.72318
-679,-48,-24.8309,-1.34082,0.0238595,-0.00208716,0.0247078,0.0387929,-0.0170205,0.543647,0.033031,0.0451031,545,1072,-24.831,1.34076
-672,-48,-25.8589,-1.13599,0,0,0,0,0,0,0,-1,552,1072,-25.8589,1.13594
-665,-48,-25.5397,-0.268921,0.0207712,0.00424294,0.0188789,0.0331155,-0.00810139,0.57909,0.0252151,0.0456297,559,1072,-25.5397,0.268903
-658,-48,-25.1346,0.634766,0.0178887,0.00588692,0.0156363,0.028636,-0.00486043,0.602175,0.0209001,0.0447565,566,1072,-25.1346,-0.634777
-651,-48,-25.0783,1.14539,0.0146554,0.00656173,0.0124163,0.0236677,-0.0024506,0.627863,0.0166555,0.0327995,573,1072,-25.0783,-1.14541
-644,-48,-25.238,1.59668,0.0114691,0.00625769,0.00886941,0.0181076,-0.000380847,0.642525,0.0122007,0.0180203,580,1072,-25.238,-1.59673
-637,-48,-25.2722,1.6781,0.00833283,0.00615809,0.00448467,0.0118601,0.00263084,0.666462,0.00719199,0.017978,587,1072,-25.2721,-1.67813
-630,-48,-25.275,1.85144,0.00558122,0.00513872,0.000701409,0.00609545,0.00462449,0.632618,0.00367285,0.0186508,594,1072,-25.275,-1.8514
-623,-48,-25.3156,2.05054,0.00355018,0.00297432,-0.00278786,0.00606494,0.000459554,-0.733941,0.00389915,0.011038,601,1072,-25.3156,-2.05056
-616,-48,-25.3111,2.21289,0.00142856,0.00166575,-0.00590625,0.00745459,-0.00436029,-0.795437,0.00689887,0.0102588,608,1072,-25.3111,-2.21284
-609,-48,-25.2893,2.36975,-7.05888e-05,1.66063e-05,-0.00847614,0.00844926,-0.00850325,-0.78797,0.00978755,0.0115112,615,1072,-25.2893,-2.36979
-602,-48,-25.3308,2.50562,-0.000525963,-0.000937274,-0.0101534,0.00942391,-0.0108871,-0.775272,0.0117367,0.0124675,622,1072,-25.3308,-2.50566
-595,-48,-25.385,2.59119,-0.000987465,-0.00147912,-0.0109843,0.00975376,-0.0122204,-0.77421,0.0127134,0.024013,629,1072,-25.385,-2.59117
-588,-48,-25.5955,1.57666,-0.00125484,-0.00147282,-0.0112437,0.00988038,-0.012608,-0.780552,0.0130155,0.042227,636,1072,-25.5955,-1.57668
-581,-48,-25.7665,0.61145,-0.00132954,-0.00118151,-0.011096,0.00984074,-0.0123518,-0.788733,0.0128402,0.0409023,643,1072,-25.7665,-0.611426
-574,-48,-25.6029,0.64856,-0.00165422,-0.000657116,-0.0104734,0.0093296,-0.0116409,-0.809181,0.0121318,0.042028,650,1072,-25.6029,-0.648581
-567,-48,-25.529,0.930054,-0.0021483,0.000198313,-0.00922618,0.00832549,-0.0102755,-0.848644,0.0107589,0.0423839,657,1072,-25.529,-0.930029
-560,-48,-25.824,0.784424,-0.00277122,0.00135818,-0.00737114,0.00694832,-0.00836137,-0.921952,0.0088516,0.0410876,664,1072,-25.824,-0.784474
-553,-48,-25.7409,0.554565,-0.00354301,0.00274326,-0.00499115,0.0054985,-0.00629826,-1.0664,0.00681608,0.0415625,671,1072,-25.7409,-0.55451
-546,-48,-25.7969,0.714355,-0.00448259,0.00423981,-0.00219167,0.00475955,-0.00500232,-1.33796,0.0056366,0.0414029,678,1072,-25.7969,-0.714332
-539,-48,-26.0892,0.576294,-0.0057232,0.00567371,-0.000233607,0.0056785,-0.00572799,-1.55031,0.00658556,0.0415037,685,1072,-26.0892,-0.576324
-532,-48,-26.0013,0.440796,-0.00757695,0.00613186,-0.00247369,0.00656457,-0.00800966,-1.39762,0.00842821,0.0394308,692,1072,-26.0013,-0.440804
-525,-48,0,0,0,0,0,0,0,0,0,-1,699,1072,0,0
-518,-48,0,0,0,0,0,0,0,0,0,-1,706,1072,0,0
-511,-48,0,0,0,0,0,0,0,0,0,-1,713,1072,0,0
-504,-48,0,0,0,0,0,0,0,0,0,-1,720,1072,0,0
-497,-48,0,0,0,0,0,0,0,0,0,-1,727,1072,0,0
-490,-48,0,0,0,0,0,0,0,0,0,-1,734,1072,0,0
-483,-48,0,0,0,0,0,0,0,0,0,-1,741,1072,0,0
-476,-48,0,0,0,0,0,0,0,0,0,-1,748,1072,0,0
-469,-48,0,0,0,0,0,0,0,0,0,-1,755,1072,0,0
-462,-48,0,0,0,0,0,0,0,0,0,-1,762,1072,0,0
-455,-48,0,0,0,0,0,0,0,0,0,-1,769,1072,0,0
-448,-48,0,0,0,0,0,0,0,0,0,-1,776,1072,0,0
-441,-48,0,0,0,0,0,0,0,0,0,-1,783,1072,0,0
-434,-48,0,0,0,0,0,0,0,0,0,-1,790,1072,0,0
-427,-48,0,0,0,0,0,0,0,0,0,-1,797,1072,0,0
-420,-48,0,0,0,0,0,0,0,0,0,-1,804,1072,0,0
-413,-48,0,0,0,0,0,0,0,0,0,-1,811,1072,0,0
-406,-48,0,0,0,0,0,0,0,0,0,-1,818,1072,0,0
-399,-48,0,0,0,0,0,0,0,0,0,-1,825,1072,0,0
-392,-48,0,0,0,0,0,0,0,0,0,-1,832,1072,0,0
-385,-48,0,0,0,0,0,0,0,0,0,-1,839,1072,0,0
-378,-48,0,0,0,0,0,0,0,0,0,-1,846,1072,0,0
-371,-48,0,0,0,0,0,0,0,0,0,-1,853,1072,0,0
-364,-48,0,0,0,0,0,0,0,0,0,-1,860,1072,0,0
-357,-48,0,0,0,0,0,0,0,0,0,-1,867,1072,0,0
-350,-48,0,0,0,0,0,0,0,0,0,-1,874,1072,0,0
-343,-48,0,0,0,0,0,0,0,0,0,-1,881,1072,0,0
-336,-48,0,0,0,0,0,0,0,0,0,-1,888,1072,0,0
-329,-48,0,0,0,0,0,0,0,0,0,-1,895,1072,0,0
-322,-48,0,0,0,0,0,0,0,0,0,-1,902,1072,0,0
-315,-48,0,0,0,0,0,0,0,0,0,-1,909,1072,0,0
-308,-48,0,0,0,0,0,0,0,0,0,-1,916,1072,0,0
-301,-48,0,0,0,0,0,0,0,0,0,-1,923,1072,0,0
-294,-48,0,0,0,0,0,0,0,0,0,-1,930,1072,0,0
-287,-48,0,0,0,0,0,0,0,0,0,-1,937,1072,0,0
-280,-48,0,0,0,0,0,0,0,0,0,-1,944,1072,0,0
-273,-48,0,0,0,0,0,0,0,0,0,-1,951,1072,0,0
-266,-48,0,0,0,0,0,0,0,0,0,-1,958,1072,0,0
-259,-48,0,0,0,0,0,0,0,0,0,-1,965,1072,0,0
-252,-48,0,0,0,0,0,0,0,0,0,-1,972,1072,0,0
-245,-48,0,0,0,0,0,0,0,0,0,-1,979,1072,0,0
-238,-48,0,0,0,0,0,0,0,0,0,-1,986,1072,0,0
-231,-48,0,0,0,0,0,0,0,0,0,-1,993,1072,0,0
-224,-48,0,0,0,0,0,0,0,0,0,-1,1000,1072,0,0
-217,-48,0,0,0,0,0,0,0,0,0,-1,1007,1072,0,0
-210,-48,0,0,0,0,0,0,0,0,0,-1,1014,1072,0,0
-203,-48,0,0,0,0,0,0,0,0,0,-1,1021,1072,0,0
-196,-48,0,0,0,0,0,0,0,0,0,-1,1028,1072,0,0
-189,-48,0,0,0,0,0,0,0,0,0,-1,1035,1072,0,0
-182,-48,0,0,0,0,0,0,0,0,0,-1,1042,1072,0,0
-175,-48,0,0,0,0,0,0,0,0,0,-1,1049,1072,0,0
-168,-48,0,0,0,0,0,0,0,0,0,-1,1056,1072,0,0
-161,-48,0,0,0,0,0,0,0,0,0,-1,1063,1072,0,0
-154,-48,0,0,0,0,0,0,0,0,0,-1,1070,1072,0,0
-147,-48,0,0,0,0,0,0,0,0,0,-1,1077,1072,0,0
-140,-48,0,0,0,0,0,0,0,0,0,-1,1084,1072,0,0
-133,-48,0,0,0,0,0,0,0,0,0,-1,1091,1072,0,0
-126,-48,0,0,0,0,0,0,0,0,0,-1,1098,1072,0,0
-119,-48,0,0,0,0,0,0,0,0,0,-1,1105,1072,0,0
-112,-48,0,0,0,0,0,0,0,0,0,-1,1112,1072,0,0
-105,-48,0,0,0,0,0,0,0,0,0,-1,1119,1072,0,0
-98,-48,0,0,0,0,0,0,0,0,0,-1,1126,1072,0,0
-91,-48,0,0,0,0,0,0,0,0,0,-1,1133,1072,0,0
-84,-48,0,0,0,0,0,0,0,0,0,-1,1140,1072,0,0
-77,-48,0,0,0,0,0,0,0,0,0,-1,1147,1072,0,0
-70,-48,0,0,0,0,0,0,0,0,0,-1,1154,1072,0,0
-63,-48,0,0,0,0,0,0,0,0,0,-1,1161,1072,0,0
-56,-48,0,0,0,0,0,0,0,0,0,-1,1168,1072,0,0
-49,-48,0,0,0,0,0,0,0,0,0,-1,1175,1072,0,0
-42,-48,0,0,0,0,0,0,0,0,0,-1,1182,1072,0,0
-35,-48,0,0,0,0,0,0,0,0,0,-1,1189,1072,0,0
-28,-48,0,0,0,0,0,0,0,0,0,-1,1196,1072,0,0
-21,-48,0,0,0,0,0,0,0,0,0,-1,1203,1072,0,0
-14,-48,0,0,0,0,0,0,0,0,0,-1,1210,1072,0,0
-7,-48,0,0,0,0,0,0,0,0,0,-1,1217,1072,0,0
0,-48,0,0,0,0,0,0,0,0,0,-1,1224,1072,0,0
7,-48,0,0,0,0,0,0,0,0,0,-1,1231,1072,0,0
14,-48,0,0,0,0,0,0,0,0,0,-1,1238,1072,0,0
21,-48,0,0,0,0,0,0,0,0,0,-1,1245,1072,0,0
28,-48,0,0,0,0,0,0,0,0,0,-1,1252,1072,0,0
35,-48,0,0,0,0,0,0,0,0,0,-1,1259,1072,0,0
42,-48,0,0,0,0,0,0,0,0,0,-1,1266,1072,0,0
49,-48,0,0,0,0,0,0,0,0,0,-1,1273,1072,0,0
56,-48,0,0,0,0,0,0,0,0,0,-1,1280,1072,0,0
63,-48,0,0,0,0,0,0,0,0,0,-1,1287,1072,0,0
70,-48,0,0,0,0,0,0,0,0,0,-1,1294,1072,0,0
77,-48,0,0,0,0,0,0,0,0,0,-1,1301,1072,0,0
84,-48,0,0,0,0,0,0,0,0,0,-1,1308,1072,0,0
91,-48,0,0,0,0,0,0,0,0,0,-1,1315,1072,0,0
98,-48,0,0,0,0,0,0,0,0,0,-1,1322,1072,0,0
105,-48,0,0,0,0,0,0,0,0,0,-1,1329,1072,0,0
112,-48,0,0,0,0,0,0,0,0,0,-1,1336,1072,0,0
119,-48,0,0,0,0,0,0,0,0,0,-1,1343,1072,0,0
126,-48,0,0,0,0,0,0,0,0,0,-1,1350,1072,0,0
133,-48,0,0,0,0,0,0,0,0,0,-1,1357,1072,0,0
140,-48,0,0,0,0,0,0,0,0,0,-1,1364,1072,0,0
147,-48,0,0,0,0,0,0,0,0,0,-1,1371,1072,0,0
154,-48,0,0,0,0,0,0,0,0,0,-1,1378,1072,0,0
161,-48,0,0,0,0,0,0,0,0,0,-1,1385,1072,0,0
168,-48,0,0,0,0,0,0,0,0,0,-1,1392,1072,0,0
175,-48,0,0,0,0,0,0,0,0,0,-1,1399,1072,0,0
182,-48,0,0,0,0,0,0,0,0,0,-1,1406,1072,0,0
189,-48,0,0,0,0,0,0,0,0,0,-1,1413,1072,0,0
196,-48,0,0,0,0,0,0,0,0,0,-1,1420,1072,0,0
203,-48,0,0,0,0,0,0,0,0,0,-1,1427,1072,0,0
210,-48,0,0,0,0,0,0,0,0,0,-1,1434,1072,0,0
217,-48,0,0,0,0,0,0,0,0,0,-1,1441,1072,0,0
224,-48,0,0,0,0,0,0,0,0,0,-1,1448,1072,0,0
231,-48,0,0,0,0,0,0,0,0,0,-1,1455,1072,0,0
238,-48,0,0,0,0,0,0,0,0,0,-1,1462,1072,0,0
245,-48,0,0,0,0,0,0,0,0,0,-1,1469,1072,0,0
252,-48,0,0,0,0,0,0,0,0,0,-1,1476,1072,0,0
259,-48,0,0,0,0,0,0,0,0,0,-1,1483,1072,0,0
266,-48,0,0,0,0,0,0,0,0,0,-1,1490,1072,0,0
273,-48,0,0,0,0,0,0,0,0,0,-1,1497,1072,0,0
280,-48,0,0,0,0,0,0,0,0,0,-1,1504,1072,0,0
287,-48,0,0,0,0,0,0,0,0,0,-1,1511,1072,0,0
294,-48,0,0,0,0,0,0,0,0,0,-1,1518,1072,0,0
301,-48,0,0,0,0,0,0,0,0,0,-1,1525,1072,0,0
308,-48,0,0,0,0,0,0,0,0,0,-1,1532,1072,0,0
315,-48,0,0,0,0,0,0,0,0,0,-1,1539,1072,0,0
322,-48,0,0,0,0,0,0,0,0,0,-1,1546,1072,0,0
329,-48,0,0,0,0,0,0,0,0,0,-1,1553,1072,0,0
336,-48,0,0,0,0,0,0,0,0,0,-1,1560,1072,0,0
343,-48,0,0,0,0,0,0,0,0,0,-1,1567,1072,0,0
350,-48,0,0,0,0,0,0,0,0,0,-1,1574,1072,0,0
357,-48,0,0,0,0,0,0,0,0,0,-1,1581,1072,0,0
364,-48,0,0,0,0,0,0,0,0,0,-1,1588,1072,0,0
371,-48,0,0,0,0,0,0,0,0,0,-1,1595,1072,0,0
378,-48,0,0,0,0,0,0,0,0,0,-1,1602,1072,0,0
385,-48,0,0,0,0,0,0,0,0,0,-1,1609,1072,0,0
392,-48,0,0,0,0,0,0,0,0,0,-1,1616,1072,0,0
399,-48,0,0,0,0,0,0,0,0,0,-1,1623,1072,0,0
406,-48,0,0,0,0,0,0,0,0,0,-1,1630,1072,0,0
413,-48,0,0,0,0,0,0,0,0,0,-1,1637,1072,0,0
420,-48,0,0,0,0,0,0,0,0,0,-1,1644,1072,0,0
427,-48,0,0,0,0,0,0,0,0,0,-1,1651,1072,0,0
434,-48,0,0,0,0,0,0,0,0,0,-1,1658,1072,0,0
441,-48,0,0,0,0,0,0,0,0,0,-1,1665,1072,0,0
448,-48,0,0,0,0,0,0,0,0,0,-1,1672,1072,0,0
455,-48,0,0,0,0,0,0,0,0,0,-1,1679,1072,0,0
462,-48,0,0,0,0,0,0,0,0,0,-1,1686,1072,0,0
469,-48,0,0,0,0,0,0,0,0,0,-1,1693,1072,0,0
476,-48,0,0,0,0,0,0,0,0,0,-1,1700,1072,0,0
483,-48,0,0,0,0,0,0,0,0,0,-1,1707,1072,0,0
490,-48,0,0,0,0,0,0,0,0,0,-1,1714,1072,0,0
497,-48,0,0,0,0,0,0,0,0,0,-1,1721,1072,0,0
504,-48,0,0,0,0,0,0,0,0,0,-1,1728,1072,0,0
511,-48,0,0,0,0,0,0,0,0,0,-1,1735,1072,0,0
518,-48,0,0,0,0,0,0,0,0,0,-1,1742,1072,0,0
525,-48,0,0,0,0,0,0,0,0,0,-1,1749,1072,0,0
532,-48,0,0,0,0,0,0,0,0,0,-1,1756,1072,0,0
539,-48,0,0,0,0,0,0,0,0,0,-1,1763,1072,0,0
546,-48,0,0,0,0,0,0,0,0,0,-1,1770,1072,0,0
553,-48,0,0,0,0,0,0,0,0,0,-1,1777,1072,0,0
560,-48,0,0,0,0,0,0,0,0,0,-1,1784,1072,0,0
567,-48,0,0,0,0,0,0,0,0,0,-1,1791,1072,0,0
574,-48,0,0,0,0,0,0,0,0,0,-1,1798,1072,0,0
581,-48,0,0,0,0,0,0,0,0,0,-1,1805,1072,0,0
588,-48,0,0,0,0,0,0,0,0,0,-1,1812,1072,0,0
595,-48,0,0,0,0,0,0,0,0,0,-1,1819,1072,0,0
602,-48,0,0,0,0,0,0,0,0,0,-1,1826,1072,0,0
609,-48,0,0,0,0,0,0,0,0,0,-1,1833,1072,0,0
616,-48,0,0,0,0,0,0,0,0,0,-1,1840,1072,0,0
623,-48,0,0,0,0,0,0,0,0,0,-1,1847,1072,0,0
630,-48,0,0,0,0,0,0,0,0,0,-1,1854,1072,0,0
637,-48,0,0,0,0,0,0,0,0,0,-1,1861,1072,0,0
644,-48,0,0,0,0,0,0,0,0,0,-1,1868,1072,0,0
651,-48,35.614,2.47534,0.00842762,-0.000823048,0.0045805,0.0103119,-0.0027073,0.390264,0.00793253,0.0313519,1875,1072,35.614,-2.47532
658,-48,35.6646,2.41516,0.00626885,2.73337e-05,0.0032651,0.00766473,-0.00136855,0.403999,0.0056218,0.035696,1882,1072,35.6646,-2.41518
665,-48,35.6735,2.36792,0.00444839,0.000604396,0.00233154,0.00554801,-0.000495222,0.440693,0.00387431,0.0400351,1889,1072,35.6734,-2.36787
672,-48,35.7009,2.36658,0.00314191,0.000793921,0.00208868,0.00436393,-0.000428094,0.529365,0.00306198,0.0398657,1896,1072,35.7009,-2.36663
679,-48,35.7437,2.54431,0.00201553,0.000624624,0.0023048,0.00372751,-0.00108736,0.638871,0.00291584,0.0389167,1903,1072,35.7437,-2.54436
686,-48,35.8063,2.74963,0.00100943,0.000152529,0.00272424,0.00333871,-0.00217675,0.7074,0.00320782,0.0396942,1910,1072,35.8062,-2.74962
693,-48,35.6786,2.6178,0.000303421,-0.000413817,0.00318824,0.00315315,-0.00326354,0.729393,0.00370486,0.0400744,1917,1072,35.6786,-2.61784
700,-48,35.6442,2.45801,-0.0001818,-0.000866661,0.00357565,0.00306778,-0.00411624,0.73766,0.0041624,0.0353882,1924,1072,35.6441,-2.45799
707,-48,35.6639,2.43909,-0.000697501,-0.00110794,0.00379684,0.00289966,-0.0047051,0.7584,0.00443167,0.0299025,1931,1072,35.6639,-2.43904
714,-48,35.626,2.64758,-0.00120323,-0.00116131,0.00397433,0.00279211,-0.00515665,0.788035,0.00465641,0.0313476,1938,1072,35.6259,-2.64762
721,-48,35.5948,3.00049,0,0,0,0,0,0,0,-1,1945,1072,35.5948,-3.00043
728,-48,35.015,5.15588,0,0,0,0,0,0,0,-1,1952,1072,35.0151,-5.15588
735,-48,34.9137,5.0592,-0.00211591,-0.000470906,0.00373962,0.00253559,-0.00512241,0.893646,0.00450465,0.0180588,1959,1072,34.9138,-5.05915
742,-48,34.8125,4.9491,-0.00227028,0.000509852,0.00331608,0.00271543,-0.00447586,0.983867,0.00419316,0.0153941,1966,1072,34.8126,-4.94908
749,-48,34.8309,4.83191,-0.00300273,0.00173427,0.00254728,0.00284404,-0.00411251,1.15992,0.00403856,0.0137686,1973,1072,34.8309,-4.83187
756,-48,34.85,4.70447,-0.00393037,0.00367975,0.00138718,0.00392472,-0.00417534,1.396,0.00467732,0.0126063,1980,1072,34.8499,-4.70449
763,-48,34.8229,4.60217,-0.00518678,0.00646417,-0.000703445,0.00650648,-0.00522909,-1.51071,0.00678891,0.0124856,1987,1072,34.8228,-4.60222
770,-48,34.8186,4.49146,-0.00689008,0.00989725,-0.00323345,0.0104985,-0.00749135,-1.38694,0.0104347,0.0129071,1994,1072,34.8186,-4.4915
777,-48,34.7347,4.36182,-0.00925798,0.0142594,-0.00632631,0.0158532,-0.0108518,-1.324,0.015508,0.011911,2001,1072,34.7347,-4.36178
784,-48,34.7006,4.19104,-0.012176,0.018983,-0.00980014,0.021809,-0.015002,-1.29005,0.0213737,0.0243087,2008,1072,34.7006,-4.19106
791,-48,34.8738,3.75403,-0.0159639,0.024276,-0.0140008,0.028668,-0.0203559,-1.26682,0.0284392,0.0394856,2015,1072,34.8737,-3.754
798,-48,34.6755,3.44971,-0.0207462,0.0303969,-0.0192816,0.0368517,-0.0272009,-1.24776,0.0371205,0.0447303,2022,1072,34.6756,-3.44976
805,-48,34.5403,3.60559,-0.0264829,0.0375354,-0.0258394,0.0466634,-0.0356108,-1.23122,0.0476437,0.0448379,2029,1072,34.5403,-3.60565
812,-48,34.7971,3.92993,-0.0333863,0.0458546,-0.0339138,0.058387,-0.0459187,-1.21682,0.0603642,0.0445702,2036,1072,34.7972,-3.92994
-700,-55,-24.4033,-2.94958,0.0125574,-0.00801103,0.0234428,0.0278726,-0.0233262,0.578692,0.0295985,0.0470517,524,1079,-24.4033,2.94957
-693,-55,-24.3629,-2.29395,0.0202722,-0.00197059,0.0243248,0.0358974,-0.0175958,0.570984,0.031481,0.0479392,531,1079,-24.3629,2.29399
-686,-55,-24.2845,-1.58765,0.0238072,0.00267756,0.0239134,0.0393856,-0.0129009,0.577394,0.031452,0.0458384,538,1079,-24.2845,1.58766
-679,-55,-24.0966,-1.23096,0.0246292,0.00614695,0.0224817,0.039695,-0.00891886,0.5904,0.0298833,0.0462503,545,1079,-24.0966,1.23095
-672,-55,-25.3896,-1.44226,0.0236799,0.00853192,0.0203931,0.0378601,-0.00564827,0.607593,0.0273182,0.0483581,552,1079,-25.3896,1.44225
-665,-55,-25.2886,-0.641602,0.0215291,0.00989663,0.0178524,0.0344888,-0.00306316,0.627923,0.0240787,0.0453628,559,1079,-25.2886,0.641601
-658,-55,-25.2411,0.194702,0.0185957,0.0103144,0.0150469,0.0300613,-0.00115111,0.65113,0.0204354,0.046048,566,1079,-25.2411,-0.194706
-651,-55,-25.1295,0.945923,0.0153011,0.0098814,0.0121532,0.0250429,0.000139567,0.675706,0.016649,0.0368027,573,1079,-25.1295,-0.945972
-644,-55,-25.0978,1.51062,0.0120935,0.00871574,0.00881886,0.0193837,0.00142551,0.690789,0.0124745,0.0199702,580,1079,-25.0979,-1.51063
-637,-55,-25.1027,1.63977,0.008804,0.00774984,0.00473974,0.0130459,0.00350796,0.730024,0.00779562,0.0164886,587,1079,-25.1027,-1.63982
-630,-55,-25.0883,1.84058,0.00588727,0.00590658,0.00118391,0.00708088,0.00471297,0.789475,0.00416221,0.0180597,594,1079,-25.0883,-1.84063
-623,-55,-25.1672,2.04932,0.00374423,0.00318811,-0.00217142,0.00565532,0.00127702,-0.721717,0.00342484,0.0154009,601,1079,-25.1672,-2.0493
-616,-55,-25.1684,2.19897,0.00156704,0.00167136,-0.00522023,0.00683968,-0.00360129,-0.790394,0.00612399,0.0143854,608,1079,-25.1684,-2.19898
-609,-55,-25.1557,2.4021,0.000108523,-9.74204e-05,-0.00775352,0.00775976,-0.00774866,-0.778758,0.00895379,0.0153478,615,1079,-25.1557,-2.40208
-602,-55,-25.1513,2.55542,-0.000456053,-0.000997475,-0.00935644,0.00863359,-0.0100871,-0.770936,0.0108193,0.0136628,622,1079,-25.1513,-2.55546
-595,-55,-25.1136,2.71521,-0.000971102,-0.00145798,-0.0101904,0.00897872,-0.0114078,-0.773456,0.011798,0.0240506,629,1079,-25.1136,-2.71516
-588,-55,-25.2253,1.72852,-0.00125355,-0.00143648,-0.0104765,0.00913186,-0.0118219,-0.781033,0.0121308,0.049335,636,1079,-25.2253,-1.7285
-581,-55,-25.4284,0.67981,0,0,0,0,0,0,0,-1,643,1079,-25.4284,-0.67975
-574,-55,-25.4683,0.703735,0,0,0,0,0,0,0,-1,650,1079,-25.4683,-0.703757
-567,-55,-25.5754,0.579712,-0.00210378,0.000221865,-0.0088141,0.00794951,-0.00983143,-0.850983,0.010285,0.0415044,657,1079,-25.5754,-0.579773
-560,-55,-25.825,0.508301,-0.00269732,0.00134587,-0.00722477,0.00682656,-0.008178,-0.921817,0.00867459,0.0427518,664,1079,-25.825,-0.508275
-553,-55,-25.7297,0.571167,-0.00346216,0.00267751,-0.00514132,0.00559575,-0.0063804,-1.05454,0.00691938,0.0416862,671,1079,-25.7297,-0.57115
-546,-55,-25.6734,0.74353,-0.00441155,0.00410671,-0.00262681,0.0048516,-0.00515645,-1.29447,0.00577905,0.0398297,678,1079,-25.6734,-0.743481
-539,-55,-26.1678,0.699463,-0.00568028,0.00541614,-0.000812887,0.00547537,-0.00573951,-1.49806,0.00647551,0.0411297,685,1079,-26.1678,-0.699482
-532,-55,-26.2057,0.572876,-0.00772482,0.00556878,-0.00287136,0.00616247,-0.00831851,-1.36691,0.00839143,0.039783,692,1079,-26.2057,-0.572841
-525,-55,0,0,0,0,0,0,0,0,0,-1,699,1079,0,0
-518,-55,0,0,0,0,0,0,0,0,0,-1,706,1079,0,0
-511,-55,0,0,0,0,0,0,0,0,0,-1,713,1079,0,0
-504,-55,0,0,0,0,0,0,0,0,0,-1,720,1079,0,0
-497,-55,0,0,0,0,0,0,0,0,0,-1,727,1079,0,0
-490,-55,0,0,0,0,0,0,0,0,0,-1,734,1079,0,0
-483,-55,0,0,0,0,0,0,0,0,0,-1,741,1079,0,0
-476,-55,0,0,0,0,0,0,0,0,0,-1,748,1079,0,0
-469,-55,0,0,0,0,0,0,0,0,0,-1,755,1079,0,0
-462,-55,0,0,0,0,0,0,0,0,0,-1,762,1079,0,0
-455,-55,0,0,0,0,0,0,0,0,0,-1,769,1079,0,0
-448,-55,0,0,0,0,0,0,0,0,0,-1,776,1079,0,0
-441,-55,0,0,0,0,0,0,0,0,0,-1,783,1079,0,0
-434,-55,0,0,0,0,0,0,0,0,0,-1,790,1079,0,0
-427,-55,0,0,0,0,0,0,0,0,0,-1,797,1079,0,0
-420,-55,0,0,0,0,0,0,0,0,0,-1,804,1079,0,0
-413,-55,0,0,0,0,0,0,0,0,0,-1,811,1079,0,0
-406,-55,0,0,0,0,0,0,0,0,0,-1,818,1079,0,0
-399,-55,0,0,0,0,0,0,0,0,0,-1,825,1079,0,0
-392,-55,0,0,0,0,0,0,0,0,0,-1,832,1079,0,0
-385,-55,0,0,0,0,0,0,0,0,0,-1,839,1079,0,0
-378,-55,0,0,0,0,0,0,0,0,0,-1,846,1079,0,0
-371,-55,0,0,0,0,0,0,0,0,0,-1,853,1079,0,0
-364,-55,0,0,0,0,0,0,0,0,0,-1,860,1079,0,0
-357,-55,0,0,0,0,0,0,0,0,0,-1,867,1079,0,0
-350,-55,0,0,0,0,0,0,0,0,0,-1,874,1079,0,0
-343,-55,0,0,0,0,0,0,0,0,0,-1,881,1079,0,0
-336,-55,0,0,0,0,0,0,0,0,0,-1,888,1079,0,0
-329,-55,0,0,0,0,0,0,0,0,0,-1,895,1079,0,0
-322,-55,0,0,0,0,0,0,0,0,0,-1,902,1079,0,0
-315,-55,0,0,0,0,0,0,0,0,0,-1,909,1079,0,0
-308,-55,0,0,0,0,0,0,0,0,0,-1,916,1079,0,0
-301,-55,0,0,0,0,0,0,0,0,0,-1,923,1079,0,0
-294,-55,0,0,0,0,0,0,0,0,0,-1,930,1079,0,0
-287,-55,0,0,0,0,0,0,0,0,0,-1,937,1079,0,0
-280,-55,0,0,0,0,0,0,0,0,0,-1,944,1079,0,0
-273,-55,0,0,0,0,0,0,0,0,0,-1,951,1079,0,0
-266,-55,0,0,0,0,0,0,0,0,0,-1,958,1079,0,0
-259,-55,0,0,0,0,0,0,0,0,0,-1,965,1079,0,0
-252,-55,0,0,0,0,0,0,0,0,0,-1,972,1079,0,0
-245,-55,0,0,0,0,0,0,0,0,0,-1,979,1079,0,0
-238,-55,0,0,0,0,0,0,0,0,0,-1,986,1079,0,0
-231,-55,0,0,0,0,0,0,0,0,0,-1,993,1079,0,0
-224,-55,0,0,0,0,0,0,0,0,0,-1,1000,1079,0,0
-217,-55,0,0,0,0,0,0,0,0,0,-1,1007,1079,0,0
-210,-55,0,0,0,0,0,0,0,0,0,-1,1014,1079,0,0
-203,-55,0,0,0,0,0,0,0,0,0,-1,1021,1079,0,0
-196,-55,0,0,0,0,0,0,0,0,0,-1,1028,1079,0,0
-189,-55,0,0,0,0,0,0,0,0,0,-1,1035,1079,0,0
-182,-55,0,0,0,0,0,0,0,0,0,-1,1042,1079,0,0
-175,-55,0,0,0,0,0,0,0,0,0,-1,1049,1079,0,0
-168,-55,0,0,0,0,0,0,0,0,0,-1,1056,1079,0,0
-161,-55,0,0,0,0,0,0,0,0,0,-1,1063,1079,0,0
-154,-55,0,0,0,0,0,0,0,0,0,-1,1070,1079,0,0
-147,-55,0,0,0,0,0,0,0,0,0,-1,1077,1079,0,0
-140,-55,0,0,0,0,0,0,0,0,0,-1,1084,1079,0,0
-133,-55,0,0,0,0,0,0,0,0,0,-1,1091,1079,0,0
-126,-55,0,0,0,0,0,0,0,0,0,-1,1098,1079,0,0
-119,-55,0,0,0,0,0,0,0,0,0,-1,1105,1079,0,0
-112,-55,0,0,0,0,0,0,0,0,0,-1,1112,1079,0,0
-105,-55,0,0,0,0,0,0,0,0,0,-1,1119,1079,0,0
-98,-55,0,0,0,0,0,0,0,0,0,-1,1126,1079,0,0
-91,-55,0,0,0,0,0,0,0,0,0,-1,1133,1079,0,0
-84,-55,0,0,0,0,0,0,0,0,0,-1,1140,1079,0,0
-77,-55,0,0,0,0,0,0,0,0,0,-1,1147,1079,0,0
-70,-55,0,0,0,0,0,0,0,0,0,-1,1154,1079,0,0
-63,-55,0,0,0,0,0,0,0,0,0,-1,1161,1079,0,0
-56,-55,0,0,0,0,0,0,0,0,0,-1,1168,1079,0,0
-49,-55,0,0,0,0,0,0,0,0,0,-1,1175,1079,0,0
-42,-55,0,0,0,0,0,0,0,0,0,-1,1182,1079,0,0
-35,-55,0,0,0,0,0,0,0,0,0,-1,1189,1079,0,0
-28,-55,0,0,0,0,0,0,0,0,0,-1,1196,1079,0,0
-21,-55,0,0,0,0,0,0,0,0,0,-1,1203,1079,0,0
-14,-55,0,0,0,0,0,0,0,0,0,-1,1210,1079,0,0
-7,-55,0,0,0,0,0,0,0,0,0,-1,1217,1079,0,0
0,-55,0,0,0,0,0,0,0,0,0,-1,1224,1079,0,0
7,-55,0,0,0,0,0,0,0,0,0,-1,1231,1079,0,0
14,-55,0,0,0,0,0,0,0,0,0,-1,1238,1079,0,0
21,-55,0,0,0,0,0,0,0,0,0,-1,1245,1079,0,0
28,-55,0,0,0,0,0,0,0,0,0,-1,1252,1079,0,0
35,-55,0,0,0,0,0,0,0,0,0,-1,1259,1079,0,0
42,-55,0,0,0,0,0,0,0,0,0,-1,1266,1079,0,0
49,-55,0,0,0,0,0,0,0,0,0,-1,1273,1079,0,0
56,-55,0,0,0,0,0,0,0,0,0,-1,1280,1079,0,0
63,-55,0,0,0,0,0,0,0,0,0,-1,1287,1079,0,0
70,-55,0,0,0,0,0,0,0,0,0,-1,1294,1079,0,0
77,-55,0,0,0,0,0,0,0,0,0,-1,1301,1079,0,0
84,-55,0,0,0,0,0,0,0,0,0,-1,1308,1079,0,0
91,-55,0,0,0,0,0,0,0,0,0,-1,1315,1079,0,0
98,-55,0,0,0,0,0,0,0,0,0,-1,1322,1079,0,0
105,-55,0,0,0,0,0,0,0,0,0,-1,1329,1079,0,0
112,-55,0,0,0,0,0,0,0,0,0,-1,1336,1079,0,0
119,-55,0,0,0,0,0,0,0,0,0,-1,1343,1079,0,0
126,-55,0,0,0,0,0,0,0,0,0,-1,1350,1079,0,0
133,-55,0,0,0,0,0,0,0,0,0,-1,1357,1079,0,0
140,-55,0,0,0,0,0,0,0,0,0,-1,1364,1079,0,0
147,-55,0,0,0,0,0,0,0,0,0,-1,1371,1079,0,0
154,-55,0,0,0,0,0,0,0,0,0,-1,1378,1079,0,0
161,-55,0,0,0,0,0,0,0,0,0,-1,1385,1079,0,0
168,-55,0,0,0,0,0,0,0,0,0,-1,1392,1079,0,0
175,-55,0,0,0,0,0,0,0,0,0,-1,1399,1079,0,0
182,-55,0,0,0,0,0,0,0,0,0,-1,1406,1079,0,0
189,-55,0,0,0,0,0,0,0,0,0,-1,1413,1079,0,0
196,-55,0,0,0,0,0,0,0,0,0,-1,1420,1079,0,0
203,-55,0,0,0,0,0,0,0,0,0,-1,1427,1079,0,0
210,-55,0,0,0,0,0,0,0,0,0,-1,1434,1079,0,0
217,-55,0,0,0,0,0,0,0,0,0,-1,1441,1079,0,0
224,-55,0,0,0,0,0,0,0,0,0,-1,1448,1079,0,0
231,-55,0,0,0,0,0,0,0,0,0,-1,1455,1079,0,0
238,-55,0,0,0,0,0,0,0,0,0,-1,1462,1079,0,0
245,-55,0,0,0,0,0,0,0,0,0,-1,1469,1079,0,0
252,-55,0,0,0,0,0,0,0,0,0,-1,1476,1079,0,0
259,-55,0,0,0,0,0,0,0,0,0,-1,1483,1079,0,0
266,-55,0,0,0,0,0,0,0,0,0,-1,1490,1079,0,0
273,-55,0,0,0,0,0,0,0,0,0,-1,1497,1079,0,0
280,-55,0,0,0,0,0,0,0,0,0,-1,1504,1079,0,0
287,-55,0,0,0,0,0,0,0,0,0,-1,1511,1079,0,0
294,-55,0,0,0,0,0,0,0,0,0,-1,1518,1079,0,0
301,-55,0,0,0,0,0,0,0,0,0,-1,1525,1079,0,0
308,-55,0,0,0,0,0,0,0,0,0,-1,1532,1079,0,0
315,-55,0,0,0,0,0,0,0,0,0,-1,1539,1079,0,0
322,-55,0,0,0,0,0,0,0,0,0,-1,1546,1079,0,0
329,-55,0,0,0,0,0,0,0,0,0,-1,1553,1079,0,0
336,-55,0,0,0,0,0,0,0,0,0,-1,1560,1079,0,0
343,-55,0,0,0,0,0,0,0,0,0,-1,1567,1079,0,0
350,-55,0,0,0,0,0,0,0,0,0,-1,1574,1079,0,0
357,-55,0,0,0,0,0,0,0,0,0,-1,1581,1079,0,0
364,-55,0,0,0,0,0,0,0,0,0,-1,1588,1079,0,0
371,-55,0,0,0,0,0,0,0,0,0,-1,1595,1079,0,0
378,-55,0,0,0,0,0,0,0,0,0,-1,1602,1079,0,0
385,-55,0,0,0,0,0,0,0,0,0,-1,1609,1079,0,0
392,-55,0,0,0,0,0,0,0,0,0,-1,1616,1079,0,0
399,-55,0,0,0,0,0,0,0,0,0,-1,1623,1079,0,0
406,-55,0,0,0,0,0,0,0,0,0,-1,1630,1079,0,0
413,-55,0,0,0,0,0,0,0,0,0,-1,1637,1079,0,0
420,-55,0,0,0,0,0,0,0,0,0,-1,1644,1079,0,0
427,-55,0,0,0,0,0,0,0,0,0,-1,1651,1079,0,0
434,-55,0,0,0,0,0,0,0,0,0,-1,1658,1079,0,0
441,-55,0,0,0,0,0,0,0,0,0,-1,1665,1079,0,0
448,-55,0,0,0,0,0,0,0,0,0,-1,1672,1079,0,0
455,-55,0,0,0,0,0,0,0,0,0,-1,1679,1079,0,0
462,-55,0,0,0,0,0,0,0,0,0,-1,1686,1079,0,0
469,-55,0,0,0,0,0,0,0,0,0,-1,1693,1079,0,0
476,-55,0,0,0,0,0,0,0,0,0,-1,1700,1079,0,0
483,-55,0,0,0,0,0,0,0,0,0,-1,1707,1079,0,0
490,-55,0,0,0,0,0,0,0,0,0,-1,1714,1079,0,0
497,-55,0,0,0,0,0,0,0,0,0,-1,1721,1079,0,0
504,-55,0,0,0,0,0,0,0,0,0,-1,1728,1079,0,0
511,-55,0,0,0,0,0,0,0,0,0,-1,1735,1079,0,0
518,-55,0,0,0,0,0,0,0,0,0,-1,1742,1079,0,0
525,-55,0,0,0,0,0,0,0,0,0,-1,1749,1079,0,0
532,-55,0,0,0,0,0,0,0,0,0,-1,1756,1079,0,0
539,-55,0,0,0,0,0,0,0,0,0,-1,1763,1079,0,0
546,-55,0,0,0,0,0,0,0,0,0,-1,1770,1079,0,0
553,-55,0,0,0,0,0,0,0,0,0,-1,1777,1079,0,0
560,-55,0,0,0,0,0,0,0,0,0,-1,1784,1079,0,0
567,-55,0,0,0,0,0,0,0,0,0,-1,1791,1079,0,0
574,-55,0,0,0,0,0,0,0,0,0,-1,1798,1079,0,0
581,-55,0,0,0,0,0,0,0,0,0,-1,1805,1079,0,0
588,-55,0,0,0,0,0,0,0,0,0,-1,1812,1079,0,0
595,-55,0,0,0,0,0,0,0,0,0,-1,1819,1079,0,0
602,-55,0,0,0,0,0,0,0,0,0,-1,1826,1079,0,0
609,-55,0,0,0,0,0,0,0,0,0,-1,1833,1079,0,0
616,-55,0,0,0,0,0,0,0,0,0,-1,1840,1079,0,0
623,-55,0,0,0,0,0,0,0,0,0,-1,1847,1079,0,0
630,-55,0,0,0,0,0,0,0,0,0,-1,1854,1079,0,0
637,-55,0,0,0,0,0,0,0,0,0,-1,1861,1079,0,0
644,-55,0,0,0,0,0,0,0,0,0,-1,1868,1079,0,0
651,-55,35.4817,2.45044,0.00942607,-0.00144657,0.00408486,0.0107897,-0.00281022,0.322199,0.00829021,0.0331652,1875,1079,35.4817,-2.45044
658,-55,35.6595,2.52722,0.00711048,-0.00023538,0.00300424,0.00818264,-0.00130754,0.342792,0.00593911,0.0316472,1882,1079,35.6596,-2.52726
665,-55,35.6807,2.62231,0.0051284,0.000554648,0.00226646,0.00606125,-0.0003782,0.390457,0.00417262,0.0381806,1889,1079,35.6807,-2.6223
672,-55,35.6578,2.68896,0.00365961,0.00086762,0.00212792,0.00480859,-0.000281351,0.495094,0.0033035,0.0390912,1896,1079,35.6578,-2.68895
679,-55,35.6344,2.62244,0.0023372,0.000769126,0.00239223,0.0040706,-0.000964272,0.627042,0.00308579,0.0369031,1903,1079,35.6344,-2.62249
686,-55,35.731,2.5603,0.00116046,0.000322095,0.0028102,0.00358257,-0.00210001,0.711362,0.00331785,0.0391619,1910,1079,35.731,-2.56034
693,-55,35.6833,2.4646,0.000328911,-0.000241701,0.00323575,0.00329191,-0.0032047,0.741425,0.00375093,0.0404545,1917,1079,35.6833,-2.4646
700,-55,35.6686,2.42261,-0.000268035,-0.000695229,0.0035654,0.00309016,-0.00405343,0.75548,0.00413683,0.033533,1924,1079,35.6686,-2.42257
707,-55,35.6418,2.46875,-0.000870091,-0.000950518,0.0037672,0.00285711,-0.00467772,0.780061,0.00439236,0.0270841,1931,1079,35.6418,-2.4688
714,-55,35.6322,2.65991,-0.0014231,-0.00102758,0.0039448,0.00272442,-0.00517509,0.810443,0.00463336,0.0389843,1938,1079,35.6322,-2.65988
721,-55,35.6624,2.95959,0,0,0,0,0,0,0,-1,1945,1079,35.6623,-2.95959
728,-55,34.8281,5.21887,0,0,0,0,0,0,0,-1,1952,1079,34.8281,-5.21888
735,-55,34.7549,5.09033,-0.00238335,-0.00053077,0.00365898,0.00231735,-0.00523147,0.909371,0.00446525,0.0184616,1959,1079,34.7549,-5.09036
742,-55,34.7389,4.97205,-0.00256579,0.000502469,0.00323866,0.00255198,-0.0046153,1.00659,0.0041948,0.0179792,1966,1079,34.7388,-4.97199
749,-55,34.7426,4.82837,-0.00342613,0.00197951,0.00249371,0.00295416,-0.00440079,1.19821,0.00427368,0.0132487,1973,1079,34.7426,-4.82836
756,-55,34.6942,4.69385,-0.00448528,0.00422571,0.0013677,0.0044354,-0.00469497,1.41866,0.00527213,0.0115294,1980,1079,34.6943,-4.69391
763,-55,34.6577,4.59509,-0.00593796,0.0073247,-0.000817694,0.00737493,-0.00598818,-1.50945,0.00772903,0.0145388,1987,1079,34.6578,-4.59508
770,-55,34.6512,4.4541,-0.00798651,0.0113075,-0.00342013,0.0118958,-0.00857484,-1.40044,0.0118705,0.0156281,1994,1079,34.6513,-4.45407
777,-55,34.606,4.32251,-0.0108288,0.0163638,-0.00664307,0.0178999,-0.0123649,-1.34356,0.0175705,0.01265,2001,1079,34.606,-4.32252
784,-55,34.6218,4.12146,-0.0143275,0.0219131,-0.0103505,0.0246609,-0.0170753,-1.31131,0.0242287,0.027716,2008,1079,34.6219,-4.12144
791,-55,35.1665,3.68298,-0.0188054,0.0281389,-0.0149209,0.03248,-0.0231465,-1.28767,0.0322663,0.0392471,2015,1079,35.1665,-3.68301
798,-55,35.1172,3.80579,-0.0243486,0.0352886,-0.0207564,0.0418015,-0.0308615,-1.26675,0.0421102,0.0463519,2022,1079,35.1172,-3.80578
805,-55,34.877,4.02917,-0.0308963,0.0434572,-0.028119,0.0528937,-0.0403328,-1.24702,0.0539869,0.0464791,2029,1079,34.8769,-4.02919
812,-55,34.6853,4.18579,-0.0385619,0.0526613,-0.0373379,0.0659949,-0.0518955,-1.2278,0.0682261,0.045654,2036,1079,34.6854,-4.18579
-700,-62,-23.7531,-3.35364,0.0192888,0.00185327,0.0160982,0.0288782,-0.00773614,0.537237,0.0222831,0.0476961,524,1086,-23.7531,3.35358
-693,-62,-23.9569,-2.03442,0.0252687,0.0075182,0.0184272,0.0368466,-0.00405969,0.560972,0.0260234,0.0466573,531,1086,-23.9569,2.03448
-686,-62,-23.7098,-1.34766,0.0274341,0.0113069,0.0193401,0.0403242,-0.00158323,0.587888,0.0274258,0.0463654,538,1086,-23.7098,1.34769
-679,-62,-25.2086,-2.50757,0.0272747,0.0136248,0.0191003,0.0407327,0.000166731,0.613807,0.0270997,0.0464507,545,1086,-25.2086,2.50756
-672,-62,-25.1082,-1.61768,0.0256136,0.0147369,0.0180338,0.0390112,0.00133931,0.638952,0.0255727,0.0450524,552,1086,-25.1082,1.61765
-665,-62,-25.0775,-0.974731,0,0,0,0,0,0,0,-1,559,1086,-25.0774,0.974685
-658,-62,-24.9356,0.266113,0.0196122,0.0140307,0.0141614,0.0312552,0.00238768,0.688111,0.0200882,0.0446691,566,1086,-24.9356,-0.266136
-651,-62,-24.9398,1.18921,0.0160483,0.01254,0.0117317,0.0261563,0.00243204,0.711188,0.016686,0.0375532,573,1086,-24.9398,-1.18917
-644,-62,-24.9308,1.44519,0.0126972,0.0106107,0.00871377,0.02043,0.00287797,0.725821,0.0127692,0.0140363,580,1086,-24.9308,-1.44515
-637,-62,-24.9303,1.64246,0.00916105,0.00880845,0.0050992,0.014087,0.0038825,0.768118,0.0084017,0.0127585,587,1086,-24.9303,-1.64243
-630,-62,-24.956,1.84253,0.00604278,0.00625081,0.00184529,0.00799502,0.00429857,0.813552,0.00462029,0.0136963,594,1086,-24.956,-1.84249
-623,-62,-24.9861,2.04639,0.00384909,0.00316759,-0.00139971,0.00494893,0.00206775,-0.665998,0.0028701,0.0146017,601,1086,-24.9861,-2.04636
-616,-62,-24.9709,2.22144,0.0017364,0.00152205,-0.00434163,0.00597218,-0.00271373,-0.773058,0.00513109,0.0144133,608,1086,-24.971,-2.22142
-609,-62,-24.9567,2.42224,0.000417356,-0.000278591,-0.00677027,0.00684858,-0.00670982,-0.759722,0.00782809,0.0149409,615,1086,-24.9566,-2.42225
-602,-62,-24.9111,2.59106,-0.00016906,-0.00110769,-0.00826921,0.00764414,-0.00892089,-0.757051,0.00957329,0.0151783,622,1086,-24.9111,-2.59103
-595,-62,-24.8305,2.78821,-0.000704994,-0.00152068,-0.00910888,0.00800517,-0.0102308,-0.763026,0.0105547,0.0254949,629,1086,-24.8305,-2.78819
-588,-62,-25.0963,2.0509,-0.000993602,-0.00150626,-0.00944596,0.0081995,-0.0106994,-0.771833,0.010943,0.0473419,636,1086,-25.0963,-2.05094
-581,-62,-25.4528,1.18054,0,0,0,0,0,0,0,-1,643,1086,-25.4528,-1.1805
-574,-62,-25.797,0.661987,-0.00140309,-0.000844285,-0.00902835,0.00790899,-0.0101564,-0.800867,0.0104569,0.0355319,650,1086,-25.797,-0.661948
-567,-62,-25.8146,0.562988,-0.00185513,-0.000118674,-0.00823359,0.00729234,-0.00926615,-0.837929,0.00958266,0.038166,657,1086,-25.8146,-0.563011
-560,-62,-25.8179,0.540039,-0.00248156,0.00085816,-0.00696865,0.00635422,-0.00797763,-0.902993,0.00829217,0.0402616,664,1086,-25.8179,-0.539984
-553,-62,-25.7533,0.574829,-0.00334808,0.00201092,-0.00526027,0.00523482,-0.00657198,-1.02096,0.00683122,0.0381454,671,1086,-25.7533,-0.574879
-546,-62,-25.7324,0.636353,-0.0044587,0.00321857,-0.00312733,0.00433123,-0.00557135,-1.22898,0.00573218,0.0336747,678,1086,-25.7324,-0.636335
-539,-62,-25.9122,0.693481,-0.00591478,0.00420819,-0.00152164,0.00443197,-0.00613856,-1.42478,0.00612935,0.0384843,685,1086,-25.9122,-0.693455
-532,-62,-25.9703,0.645386,-0.00829004,0.00387949,-0.00333616,0.00473406,-0.00914461,-1.32004,0.00814661,0.038792,692,1086,-25.9703,-0.645416
-525,-62,0,0,0,0,0,0,0,0,0,-1,699,1086,0,0
-518,-62,0,0,0,0,0,0,0,0,0,-1,706,1086,0,0
-511,-62,0,0,0,0,0,0,0,0,0,-1,713,1086,0,0
-504,-62,0,0,0,0,0,0,0,0,0,-1,720,1086,0,0
-497,-62,0,0,0,0,0,0,0,0,0,-1,727,1086,0,0
-490,-62,0,0,0,0,0,0,0,0,0,-1,734,1086,0,0
-483,-62,0,0,0,0,0,0,0,0,0,-1,741,1086,0,0
-476,-62,0,0,0,0,0,0,0,0,0,-1,748,1086,0,0
-469,-62,0,0,0,0,0,0,0,0,0,-1,755,1086,0,0
-462,-62,0,0,0,0,0,0,0,0,0,-1,762,1086,0,0
-455,-62,0,0,0,0,0,0,0,0,0,-1,769,1086,0,0
-448,-62,0,0,0,0,0,0,0,0,0,-1,776,1086,0,0
-441,-62,0,0,0,0,0,0,0,0,0,-1,783,1086,0,0
-434,-62,0,0,0,0,0,0,0,0,0,-1,790,1086,0,0
-427,-62,0,0,0,0,0,0,0,0,0,-1,797,1086,0,0
-420,-62,0,0,0,0,0,0,0,0,0,-1,804,1086,0,0
-413,-62,0,0,0,0,0,0,0,0,0,-1,811,1086,0,0
-406,-62,0,0,0,0,0,0,0,0,0,-1,818,1086,0,0
-399,-62,0,0,0,0,0,0,0,0,0,-1,825,1086,0,0
-392,-62,0,0,0,0,0,0,0,0,0,-1,832,1086,0,0
-385,-62,0,0,0,0,0,0,0,0,0,-1,839,1086,0,0
-378,-62,0,0,0,0,0,0,0,0,0,-1,846,1086,0,0
-371,-62,0,0,0,0,0,0,0,0,0,-1,853,1086,0,0
-364,-62,0,0,0,0,0,0,0,0,0,-1,860,1086,0,0
-357,-62,0,0,0,0,0,0,0,0,0,-1,867,1086,0,0
-350,-62,0,0,0,0,0,0,0,0,0,-1,874,1086,0,0
-343,-62,0,0,0,0,0,0,0,0,0,-1,881,1086,0,0
-336,-62,0,0,0,0,0,0,0,0,0,-1,888,1086,0,0
-329,-62,0,0,0,0,0,0,0,0,0,-1,895,1086,0,0
-322,-62,0,0,0,0,0,0,0,0,0,-1,902,1086,0,0
-315,-62,0,0,0,0,0,0,0,0,0,-1,909,1086,0,0
-308,-62,0,0,0,0,0,0,0,0,0,-1,916,1086,0,0
-301,-62,0,0,0,0,0,0,0,0,0,-1,923,1086,0,0
-294,-62,0,0,0,0,0,0,0,0,0,-1,930,1086,0,0
-287,-62,0,0,0,0,0,0,0,0,0,-1,937,1086,0,0
-280,-62,0,0,0,0,0,0,0,0,0,-1,944,1086,0,0
-273,-62,0,0,0,0,0,0,0,0,0,-1,951,1086,0,0
-266,-62,0,0,0,0,0,0,0,0,0,-1,958,1086,0,0
-259,-62,0,0,0,0,0,0,0,0,0,-1,965,1086,0,0
-252,-62,0,0,0,0,0,0,0,0,0,-1,972,1086,0,0
-245,-62,0,0,0,0,0,0,0,0,0,-1,979,1086,0,0
-238,-62,0,0,0,0,0,0,0,0,0,-1,986,1086,0,0
-231,-62,0,0,0,0,0,0,0,0,0,-1,993,1086,0,0
-224,-62,0,0,0,0,0,0,0,0,0,-1,1000,1086,0,0
-217,-62,0,0,0,0,0,0,0,0,0,-1,1007,1086,0,0
-210,-62,0,0,0,0,0,0,0,0,0,-1,1014,1086,0,0
-203,-62,0,0,0,0,0,0,0,0,0,-1,1021,1086,0,0
-196,-62,0,0,0,0,0,0,0,0,0,-1,1028,1086,0,0
-189,-62,0,0,0,0,0,0,0,0,0,-1,1035,1086,0,0
-182,-62,0,0,0,0,0,0,0,0,0,-1,1042,1086,0,0
-175,-62,0,0,0,0,0,0,0,0,0,-1,1049,1086,0,0
-168,-62,0,0,0,0,0,0,0,0,0,-1,1056,1086,0,0
-161,-62,0,0,0,0,0,0,0,0,0,-1,1063,1086,0,0
-154,-62,0,0,0,0,0,0,0,0,0,-1,1070,1086,0,0
-147,-62,0,0,0,0,0,0,0,0,0,-1,1077,1086,0,0
-140,-62,0,0,0,0,0,0,0,0,0,-1,1084,1086,0,0
-133,-62,0,0,0,0,0,0,0,0,0,-1,1091,1086,0,0
-126,-62,0,0,0,0,0,0,0,0,0,-1,1098,1086,0,0
-119,-62,0,0,0,0,0,0,0,0,0,-1,1105,1086,0,0
-112,-62,0,0,0,0,0,0,0,0,0,-1,1112,1086,0,0
-105,-62,0,0,0,0,0,0,0,0,0,-1,1119,1086,0,0
-98,-62,0,0,0,0,0,0,0,0,0,-1,1126,1086,0,0
-91,-62,0,0,0,0,0,0,0,0,0,-1,1133,1086,0,0
-84,-62,0,0,0,0,0,0,0,0,0,-1,1140,1086,0,0
-77,-62,0,0,0,0,0,0,0,0,0,-1,1147,1086,0,0
-70,-62,0,0,0,0,0,0,0,0,0,-1,1154,1086,0,0
-63,-62,0,0,0,0,0,0,0,0,0,-1,1161,1086,0,0
-56,-62,0,0,0,0,0,0,0,0,0,-1,1168,1086,0,0
-49,-62,0,0,0,0,0,0,0,0,0,-1,1175,1086,0,0
-42,-62,0,0,0,0,0,0,0,0,0,-1,1182,1086,0,0
-35,-62,0,0,0,0,0,0,0,0,0,-1,1189,1086,0,0
-28,-62,0,0,0,0,0,0,0,0,0,-1,1196,1086,0,0
-21,-62,0,0,0,0,0,0,0,0,0,-1,1203,1086,0,0
-14,-62,0,0,0,0,0,0,0,0,0,-1,1210,1086,0,0
-7,-62,0,0,0,0,0,0,0,0,0,-1,1217,1086,0,0
0,-62,0,0,0,0,0,0,0,0,0,-1,1224,1086,0,0
7,-62,0,0,0,0,0,0,0,0,0,-1,1231,1086,0,0
14,-62,0,0,0,0,0,0,0,0,0,-1,1238,1086,0,0
21,-62,0,0,0,0,0,0,0,0,0,-1,1245,1086,0,0
28,-62,0,0,0,0,0,0,0,0,0,-1,1252,1086,0,0
35,-62,0,0,0,0,0,0,0,0,0,-1,1259,1086,0,0
42,-62,0,0,0,0,0,0,0,0,0,-1,1266,1086,0,0
49,-62,0,0,0,0,0,0,0,0,0,-1,1273,1086,0,0
56,-62,0,0,0,0,0,0,0,0,0,-1,1280,1086,0,0
63,-62,0,0,0,0,0,0,0,0,0,-1,1287,1086,0,0
70,-62,0,0,0,0,0,0,0,0,0,-1,1294,1086,0,0
77,-62,0,0,0,0,0,0,0,0,0,-1,1301,1086,0,0
84,-62,0,0,0,0,0,0,0,0,0,-1,1308,1086,0,0
91,-62,0,0,0,0,0,0,0,0,0,-1,1315,1086,0,0
98,-62,0,0,0,0,0,0,0,0,0,-1,1322,1086,0,0
105,-62,0,0,0,0,0,0,0,0,0,-1,1329,1086,0,0
112,-62,0,0,0,0,0,0,0,0,0,-1,1336,1086,0,0
119,-62,0,0,0,0,0,0,0,0,0,-1,1343,1086,0,0
126,-62,0,0,0,0,0,0,0,0,0,-1,1350,1086,0,0
133,-62,0,0,0,0,0,0,0,0,0,-1,1357,1086,0,0
140,-62,0,0,0,0,0,0,0,0,0,-1,1364,1086,0,0
147,-62,0,0,0,0,0,0,0,0,0,-1,1371,1086,0,0
154,-62,0,0,0,0,0,0,0,0,0,-1,1378,1086,0,0
161,-62,0,0,0,0,0,0,0,0,0,-1,1385,1086,0,0
168,-62,0,0,0,0,0,0,0,0,0,-1,1392,1086,0,0
175,-62,0,0,0,0,0,0,0,0,0,-1,1399,1086,0,0
182,-62,0,0,0,0,0,0,0,0,0,-1,1406,1086,0,0
189,-62,0,0,0,0,0,0,0,0,0,-1,1413,1086,0,0
196,-62,0,0,0,0,0,0,0,0,0,-1,1420,1086,0,0
203,-62,0,0,0,0,0,0,0,0,0,-1,1427,1086,0,0
210,-62,0,0,0,0,0,0,0,0,0,-1,1434,1086,0,0
217,-62,0,0,0,0,0,0,0,0,0,-1,1441,1086,0,0
224,-62,0,0,0,0,0,0,0,0,0,-1,1448,1086,0,0
231,-62,0,0,0,0,0,0,0,0,0,-1,1455,1086,0,0
238,-62,0,0,0,0,0,0,0,0,0,-1,1462,1086,0,0
245,-62,0,0,0,0,0,0,0,0,0,-1,1469,1086,0,0
252,-62,0,0,0,0,0,0,0,0,0,-1,1476,1086,0,0
259,-62,0,0,0,0,0,0,0,0,0,-1,1483,1086,0,0
266,-62,0,0,0,0,0,0,0,0,0,-1,1490,1086,0,0
273,-62,0,0,0,0,0,0,0,0,0,-1,1497,1086,0,0
280,-62,0,0,0,0,0,0,0,0,0,-1,1504,1086,0,0
287,-62,0,0,0,0,0,0,0,0,0,-1,1511,1086,0,0
294,-62,0,0,0,0,0,0,0,0,0,-1,1518,1086,0,0
301,-62,0,0,0,0,0,0,0,0,0,-1,1525,1086,0,0
308,-62,0,0,0,0,0,0,0,0,0,-1,1532,1086,0,0
315,-62,0,0,0,0,0,0,0,0,0,-1,1539,1086,0,0
322,-62,0,0,0,0,0,0,0,0,0,-1,1546,1086,0,0
329,-62,0,0,0,0,0,0,0,0,0,-1,1553,1086,0,0
336,-62,0,0,0,0,0,0,0,0,0,-1,1560,1086,0,0
343,-62,0,0,0,0,0,0,0,0,0,-1,1567,1086,0,0
350,-62,0,0,0,0,0,0,0,0,0,-1,1574,1086,0,0
357,-62,0,0,0,0,0,0,0,0,0,-1,1581,1086,0,0
364,-62,0,0,0,0,0,0,0,0,0,-1,1588,1086,0,0
371,-62,0,0,0,0,0,0,0,0,0,-1,1595,1086,0,0
378,-62,0,0,0,0,0,0,0,0,0,-1,1602,1086,0,0
385,-62,0,0,0,0,0,0,0,0,0,-1,1609,1086,0,0
392,-62,0,0,0,0,0,0,0,0,0,-1,1616,1086,0,0
399,-62,0,0,0,0,0,0,0,0,0,-1,1623,1086,0,0
406,-62,0,0,0,0,0,0,0,0,0,-1,1630,1086,0,0
413,-62,0,0,0,0,0,0,0,0,0,-1,1637,1086,0,0
420,-62,0,0,0,0,0,0,0,0,0,-1,1644,1086,0,0
427,-62,0,0,0,0,0,0,0,0,0,-1,1651,1086,0,0
434,-62,0,0,0,0,0,0,0,0,0,-1,1658,1086,0,0
441,-62,0,0,0,0,0,0,0,0,0,-1,1665,1086,0,0
448,-62,0,0,0,0,0,0,0,0,0,-1,1672,1086,0,0
455,-62,0,0,0,0,0,0,0,0,0,-1,1679,1086,0,0
462,-62,0,0,0,0,0,0,0,0,0,-1,1686,1086,0,0
469,-62,0,0,0,0,0,0,0,0,0,-1,1693,1086,0,0
476,-62,0,0,0,0,0,0,0,0,0,-1,1700,1086,0,0
483,-62,0,0,0,0,0,0,0,0,0,-1,1707,1086,0,0
490,-62,0,0,0,0,0,0,0,0,0,-1,1714,1086,0,0
497,-62,0,0,0,0,0,0,0,0,0,-1,1721,1086,0,0
504,-62,0,0,0,0,0,0,0,0,0,-1,1728,1086,0,0
511,-62,0,0,0,0,0,0,0,0,0,-1,1735,1086,0,0
518,-62,0,0,0,0,0,0,0,0,0,-1,1742,1086,0,0
525,-62,0,0,0,0,0,0,0,0,0,-1,1749,1086,0,0
532,-62,0,0,0,0,0,0,0,0,0,-1,1756,1086,0,0
539,-62,0,0,0,0,0,0,0,0,0,-1,1763,1086,0,0
546,-62,0,0,0,0,0,0,0,0,0,-1,1770,1086,0,0
553,-62,0,0,0,0,0,0,0,0,0,-1,1777,1086,0,0
560,-62,0,0,0,0,0,0,0,0,0,-1,1784,1086,0,0
567,-62,0,0,0,0,0,0,0,0,0,-1,1791,1086,0,0
574,-62,0,0,0,0,0,0,0,0,0,-1,1798,1086,0,0
581,-62,0,0,0,0,0,0,0,0,0,-1,1805,1086,0,0
588,-62,0,0,0,0,0,0,0,0,0,-1,1812,1086,0,0
595,-62,0,0,0,0,0,0,0,0,0,-1,1819,1086,0,0
602,-62,0,0,0,0,0,0,0,0,0,-1,1826,1086,0,0
609,-62,0,0,0,0,0,0,0,0,0,-1,1833,1086,0,0
616,-62,0,0,0,0,0,0,0,0,0,-1,1840,1086,0,0
623,-62,0,0,0,0,0,0,0,0,0,-1,1847,1086,0,0
630,-62,0,0,0,0,0,0,0,0,0,-1,1854,1086,0,0
637,-62,0,0,0,0,0,0,0,0,0,-1,1861,1086,0,0
644,-62,0,0,0,0,0,0,0,0,0,-1,1868,1086,0,0
651,-62,35.4771,2.44702,0.0101601,-0.0018381,0.00338771,0.0110506,-0.00272854,0.25703,0.00842514,0.0387184,1875,1086,35.4771,-2.44707
658,-62,35.6818,2.52393,0.00772757,-0.000446623,0.00257681,0.00847207,-0.00119112,0.281263,0.00608408,0.0371063,1882,1086,35.6818,-2.52391
665,-62,35.6859,2.78992,0.00563902,0.00044353,0.00206179,0.00635779,-0.000275239,0.33544,0.00433318,0.0378901,1889,1086,35.6859,-2.78987
672,-62,35.6292,2.83508,0.0040529,0.000817062,0.00204385,0.0050417,-0.000171737,0.450598,0.00341982,0.0373499,1896,1086,35.6291,-2.83504
679,-62,35.6525,2.62927,0.00258878,0.000745162,0.00236027,0.00420086,-0.000866919,0.59923,0.00312983,0.0378772,1903,1086,35.6524,-2.62931
686,-62,35.6853,2.52026,0.00130095,0.000311348,0.00277644,0.00362633,-0.00201403,0.697217,0.00330052,0.0398,1910,1086,35.6853,-2.52031
693,-62,35.6492,2.58044,0.000394798,-0.000245813,0.00316326,0.00325393,-0.00310494,0.734941,0.00367163,0.0395635,1917,1086,35.6492,-2.58039
700,-62,35.657,2.53552,-0.000276481,-0.000688242,0.00343932,0.00296312,-0.00392784,0.755503,0.00399147,0.0321899,1924,1086,35.657,-2.53546
707,-62,35.6227,2.50232,-0.0009402,-0.000944724,0.00362571,0.00268324,-0.00456817,0.785086,0.00423349,0.0239449,1931,1086,35.6227,-2.50236
714,-62,35.6614,2.55908,-0.00153057,-0.00102219,0.00380866,0.00254076,-0.00509351,0.818718,0.00448903,0.034705,1938,1086,35.6613,-2.55912
721,-62,35.7928,2.83875,0,0,0,0,0,0,0,-1,1945,1086,35.7928,-2.83874
728,-62,34.6337,5.3252,0,0,0,0,0,0,0,-1,1952,1086,34.6336,-5.32513
735,-62,34.6227,5.11426,-0.00255038,-0.000685842,0.00345935,0.00196465,-0.00520088,0.917018,0.00427535,0.0216912,1959,1086,34.6227,-5.11421
742,-62,34.5891,5.00012,-0.00282842,0.000451412,0.00302476,0.00225221,-0.00462922,1.0338,0.00405123,0.0202268,1966,1086,34.5891,-5.00007
749,-62,34.5525,4.81604,-0.00386585,0.00224881,0.00229577,0.00301481,-0.00463185,1.24876,0.00444758,0.0164663,1973,1086,34.5525,-4.81605
756,-62,34.49,4.72742,-0.00508941,0.00496481,0.0011462,0.00509383,-0.00521842,1.45871,0.00595393,0.0145701,1980,1086,34.49,-4.72741
763,-62,34.4895,4.58264,-0.00677634,0.00850596,-0.00117737,0.00859614,-0.00686651,-1.49436,0.00894596,0.0159423,1987,1086,34.4896,-4.58259
770,-62,34.4904,4.40833,-0.00920819,0.0132495,-0.003924,0.0139154,-0.00987408,-1.4027,0.0138007,0.0130347,1994,1086,34.4903,-4.40828
777,-62,34.4303,4.22217,-0.0125299,0.019296,-0.00735408,0.0209131,-0.0141471,-1.35434,0.0203673,0.0140231,2001,1086,34.4303,-4.22213
784,-62,34.4629,3.96277,-0.0165693,0.0260193,-0.0113774,0.0288682,-0.0194181,-1.32544,0.0280555,0.0274327,2008,1086,34.4629,-3.9628
791,-62,35.4944,3.9425,0,0,0,0,0,0,0,-1,2015,1086,35.4945,-3.94255
798,-62,35.4243,4.04944,-0.0278119,0.0422581,-0.0228257,0.0490377,-0.0345915,-1.28208,0.0485229,0.0454854,2022,1086,35.4242,-4.04943
805,-62,35.4578,3.72778,-0.0349779,0.0520131,-0.0310005,0.06193,-0.0448949,-1.26119,0.0619362,0.0439192,2029,1086,35.4578,-3.72783
812,-62,35.5681,3.17139,-0.0431674,0.0627144,-0.0413195,0.0769303,-0.0573834,-1.23943,0.0778193,0.0487353,2036,1086,35.5681,-3.17141
-700,-69,-23.6531,-3.04614,0.0305442,0.0129317,0.00649926,0.0326828,0.010793,0.317897,0.0192286,0.0499657,524,1093,-23.6531,3.04619
-693,-69,-23.5409,-1.47314,0.0340679,0.0176502,0.0106237,0.0392847,0.0124334,0.456463,0.0231846,0.0472956,531,1093,-23.5409,1.47318
-686,-69,-23.0573,-0.923462,0,0,0,0,0,0,0,-1,538,1093,-23.0572,0.923442
-679,-69,-24.9703,-2.71802,0,0,0,0,0,0,0,-1,545,1093,-24.9704,2.71804
-672,-69,-24.6998,-1.64307,0.0296154,0.020392,0.0145774,0.0402932,0.00971417,0.632199,0.0242807,0.0496664,552,1093,-24.6998,1.64304
-665,-69,-24.54,1.43359,0.0259,0.0190184,0.013882,0.0367613,0.0081571,0.663917,0.0222917,0.0452719,559,1093,-24.54,-1.43358
-658,-69,-24.613,1.33472,0.0217482,0.0169613,0.0125201,0.0321016,0.00660787,0.690954,0.0195738,0.0463076,566,1093,-24.613,-1.3347
-651,-69,-24.6934,1.26892,0.0175606,0.0144372,0.0107052,0.0268174,0.00518034,0.712968,0.0164261,0.0324801,573,1093,-24.6934,-1.2689
-644,-69,-24.7088,1.41931,0.0137766,0.0118209,0.00813328,0.0209906,0.00460689,0.725574,0.0127389,0.0101018,580,1093,-24.7088,-1.41937
-637,-69,-24.7228,1.64392,0.00982119,0.00921563,0.0051066,0.014634,0.00440284,0.755787,0.00866942,0.0124025,587,1093,-24.7228,-1.64391
-630,-69,-24.7202,1.82458,0.00636981,0.00610795,0.0022335,0.00847621,0.00400155,0.756121,0.00489628,0.0148606,594,1093,-24.7202,-1.82453
-623,-69,-24.7227,2.03479,0.00399288,0.00287297,-0.000792885,0.0044036,0.00246225,-0.477952,0.00254834,0.0146073,601,1093,-24.7226,-2.03476
-616,-69,-24.7131,2.20752,0.00188056,0.00122545,-0.00353597,0.00510411,-0.00199811,-0.739213,0.00422915,0.0153604,608,1093,-24.7131,-2.20746
-609,-69,-24.7101,2.36499,0.000746863,-0.000472994,-0.00578367,0.00595267,-0.0056788,-0.732864,0.00671606,0.0142727,615,1093,-24.7101,-2.36504
-602,-69,-24.6985,2.63892,0.000177625,-0.0011636,-0.00713163,0.0066701,-0.00765608,-0.738519,0.00827775,0.0180208,622,1093,-24.6986,-2.63887
-595,-69,-24.6241,2.81201,-0.000336919,-0.00147421,-0.00792945,0.00704425,-0.00885538,-0.749603,0.00919949,0.025568,629,1093,-24.6241,-2.81197
-588,-69,-25.0085,2.33435,-0.000605183,-0.00146507,-0.00827735,0.00725338,-0.00932364,-0.75945,0.00959559,0.0418819,636,1093,-25.0085,-2.33433
-581,-69,-25.4857,1.49902,0,0,0,0,0,0,0,-1,643,1093,-25.4857,-1.49896
-574,-69,-25.7858,0.741577,-0.00101338,-0.00100484,-0.00800692,0.00699782,-0.00901603,-0.785665,0.00927004,0.0346056,650,1093,-25.7858,-0.741588
-567,-69,-25.6829,0.616089,-0.00145023,-0.000424503,-0.00742634,0.00650666,-0.00838139,-0.819873,0.00861831,0.038861,657,1093,-25.6829,-0.616142
-560,-69,-25.6399,0.601563,-0.00209741,0.000359286,-0.00643795,0.00568503,-0.00742315,-0.879664,0.00759016,0.0389256,664,1093,-25.6399,-0.601577
-553,-69,-25.6566,0.617676,-0.00307164,0.00125955,-0.00504441,0.00458357,-0.00639566,-0.988154,0.00636757,0.0385268,671,1093,-25.6566,-0.617726
-546,-69,-25.6849,0.593994,-0.00437899,0.00212999,-0.0032098,0.00344655,-0.00569555,-1.18155,0.00533117,0.0362869,678,1093,-25.6849,-0.593942
-539,-69,-25.7209,0.601929,-0.00608848,0.00261149,-0.00169497,0.00293005,-0.00640704,-1.38502,0.00551395,0.0390927,685,1093,-25.7209,-0.601908
-532,-69,-25.6309,0.691406,-0.0088279,0.00166081,-0.00307834,0.00249752,-0.00966461,-1.3054,0.0074171,0.0406969,692,1093,-25.6309,-0.691363
-525,-69,0,0,0,0,0,0,0,0,0,-1,699,1093,0,0
-518,-69,0,0,0,0,0,0,0,0,0,-1,706,1093,0,0
-511,-69,0,0,0,0,0,0,0,0,0,-1,713,1093,0,0
-504,-69,0,0,0,0,0,0,0,0,0,-1,720,1093,0,0
-497,-69,0,0,0,0,0,0,0,0,0,-1,727,1093,0,0
-490,-69,0,0,0,0,0,0,0,0,0,-1,734,1093,0,0
-483,-69,0,0,0,0,0,0,0,0,0,-1,741,1093,0,0
-476,-69,0,0,0,0,0,0,0,0,0,-1,748,1093,0,0
-469,-69,0,0,0,0,0,0,0,0,0,-1,755,1093,0,0
-462,-69,0,0,0,0,0,0,0,0,0,-1,762,1093,0,0
-455,-69,0,0,0,0,0,0,0,0,0,-1,769,1093,0,0
-448,-69,0,0,0,0,0,0,0,0,0,-1,776,1093,0,0
-441,-69,0,0,0,0,0,0,0,0,0,-1,783,1093,0,0
-434,-69,0,0,0,0,0,0,0,0,0,-1,790,1093,0,0
-427,-69,0,0,0,0,0,0,0,0,0,-1,797,1093,0,0
-420,-69,0,0,0,0,0,0,0,0,0,-1,804,1093,0,0
-413,-69,0,0,0,0,0,0,0,0,0,-1,811,1093,0,0
-406,-69,0,0,0,0,0,0,0,0,0,-1,818,1093,0,0
-399,-69,0,0,0,0,0,0,0,0,0,-1,825,1093,0,0
-392,-69,0,0,0,0,0,0,0,0,0,-1,832,1093,0,0
-385,-69,0,0,0,0,0,0,0,0,0,-1,839,1093,0,0
-378,-69,0,0,0,0,0,0,0,0,0,-1,846,1093,0,0
-371,-69,0,0,0,0,0,0,0,0,0,-1,853,1093,0,0
-364,-69,0,0,0,0,0,0,0,0,0,-1,860,1093,0,0
-357,-69,0,0,0,0,0,0,0,0,0,-1,867,1093,0,0
-350,-69,0,0,0,0,0,0,0,0,0,-1,874,1093,0,0
-343,-69,0,0,0,0,0,0,0,0,0,-1,881,1093,0,0
-336,-69,0,0,0,0,0,0,0,0,0,-1,888,1093,0,0
-329,-69,0,0,0,0,0,0,0,0,0,-1,895,1093,0,0
-322,-69,0,0,0,0,0,0,0,0,0,-1,902,1093,0,0
-315,-69,0,0,0,0,0,0,0,0,0,-1,909,1093,0,0
-308,-69,0,0,0,0,0,0,0,0,0,-1,916,1093,0,0
-301,-69,0,0,0,0,0,0,0,0,0,-1,923,1093,0,0
-294,-69,0,0,0,0,0,0,0,0,0,-1,930,1093,0,0
-287,-69,0,0,0,0,0,0,0,0,0,-1,937,1093,0,0
-280,-69,0,0,0,0,0,0,0,0,0,-1,944,1093,0,0
-273,-69,0,0,0,0,0,0,0,0,0,-1,951,1093,0,0
-266,-69,0,0,0,0,0,0,0,0,0,-1,958,1093,0,0
-259,-69,0,0,0,0,0,0,0,0,0,-1,965,1093,0,0
-252,-69,0,0,0,0,0,0,0,0,0,-1,972,1093,0,0
-245,-69,0,0,0,0,0,0,0,0,0,-1,979,1093,0,0
-238,-69,0,0,0,0,0,0,0,0,0,-1,986,1093,0,0
-231,-69,0,0,0,0,0,0,0,0,0,-1,993,1093,0,0
-224,-69,0,0,0,0,0,0,0,0,0,-1,1000,1093,0,0
-217,-69,0,0,0,0,0,0,0,0,0,-1,1007,1093,0,0
-210,-69,0,0,0,0,0,0,0,0,0,-1,1014,1093,0,0
-203,-69,0,0,0,0,0,0,0,0,0,-1,1021,1093,0,0
-196,-69,0,0,0,0,0,0,0,0,0,-1,1028,1093,0,0
-189,-69,0,0,0,0,0,0,0,0,0,-1,1035,1093,0,0
-182,-69,0,0,0,0,0,0,0,0,0,-1,1042,1093,0,0
-175,-69,0,0,0,0,0,0,0,0,0,-1,1049,1093,0,0
-168,-69,0,0,0,0,0,0,0,0,0,-1,1056,1093,0,0
-161,-69,0,0,0,0,0,0,0,0,0,-1,1063,1093,0,0
-154,-69,0,0,0,0,0,0,0,0,0,-1,1070,1093,0,0
-147,-69,0,0,0,0,0,0,0,0,0,-1,1077,1093,0,0
-140,-69,0,0,0,0,0,0,0,0,0,-1,1084,1093,0,0
-133,-69,0,0,0,0,0,0,0,0,0,-1,1091,1093,0,0
-126,-69,0,0,0,0,0,0,0,0,0,-1,1098,1093,0,0
-119,-69,0,0,0,0,0,0,0,0,0,-1,1105,1093,0,0
-112,-69,0,0,0,0,0,0,0,0,0,-1,1112,1093,0,0
-105,-69,0,0,0,0,0,0,0,0,0,-1,1119,1093,0,0
-98,-69,0,0,0,0,0,0,0,0,0,-1,1126,1093,0,0
-91,-69,0,0,0,0,0,0,0,0,0,-1,1133,1093,0,0
-84,-69,0,0,0,0,0,0,0,0,0,-1,1140,1093,0,0
-77,-69,0,0,0,0,0,0,0,0,0,-1,1147,1093,0,0
-70,-69,0,0,0,0,0,0,0,0,0,-1,1154,1093,0,0
-63,-69,0,0,0,0,0,0,0,0,0,-1,1161,1093,0,0
-56,-69,0,0,0,0,0,0,0,0,0,-1,1168,1093,0,0
-49,-69,0,0,0,0,0,0,0,0,0,-1,1175,1093,0,0
-42,-69,0,0,0,0,0,0,0,0,0,-1,1182,1093,0,0
-35,-69,0,0,0,0,0,0,0,0,0,-1,1189,1093,0,0
-28,-69,0,0,0,0,0,0,0,0,0,-1,1196,1093,0,0
-21,-69,0,0,0,0,0,0,0,0,0,-1,1203,1093,0,0
-14,-69,0,0,0,0,0,0,0,0,0,-1,1210,1093,0,0
-7,-69,0,0,0,0,0,0,0,0,0,-1,1217,1093,0,0
0,-69,0,0,0,0,0,0,0,0,0,-1,1224,1093,0,0
7,-69,0,0,0,0,0,0,0,0,0,-1,1231,1093,0,0
14,-69,0,0,0,0,0,0,0,0,0,-1,1238,1093,0,0
21,-69,0,0,0,0,0,0,0,0,0,-1,1245,1093,0,0
28,-69,0,0,0,0,0,0,0,0,0,-1,1252,1093,0,0
35,-69,0,0,0,0,0,0,0,0,0,-1,1259,1093,0,0
42,-69,0,0,0,0,0,0,0,0,0,-1,1266,1093,0,0
49,-69,0,0,0,0,0,0,0,0,0,-1,1273,1093,0,0
56,-69,0,0,0,0,0,0,0,0,0,-1,1280,1093,0,0
63,-69,0,0,0,0,0,0,0,0,0,-1,1287,1093,0,0
70,-69,0,0,0,0,0,0,0,0,0,-1,1294,1093,0,0
77,-69,0,0,0,0,0,0,0,0,0,-1,1301,1093,0,0
84,-69,0,0,0,0,0,0,0,0,0,-1,1308,1093,0,0
91,-69,0,0,0,0,0,0,0,0,0,-1,1315,1093,0,0
98,-69,0,0,0,0,0,0,0,0,0,-1,1322,1093,0,0
105,-69,0,0,0,0,0,0,0,0,0,-1,1329,1093,0,0
112,-69,0,0,0,0,0,0,0,0,0,-1,1336,1093,0,0
119,-69,0,0,0,0,0,0,0,0,0,-1,1343,1093,0,0
126,-69,0,0,0,0,0,0,0,0,0,-1,1350,1093,0,0
133,-69,0,0,0,0,0,0,0,0,0,-1,1357,1093,0,0
140,-69,0,0,0,0,0,0,0,0,0,-1,1364,1093,0,0
147,-69,0,0,0,0,0,0,0,0,0,-1,1371,1093,0,0
154,-69,0,0,0,0,0,0,0,0,0,-1,1378,1093,0,0
161,-69,0,0,0,0,0,0,0,0,0,-1,1385,1093,0,0
168,-69,0,0,0,0,0,0,0,0,0,-1,1392,1093,0,0
175,-69,0,0,0,0,0,0,0,0,0,-1,1399,1093,0,0
182,-69,0,0,0,0,0,0,0,0,0,-1,1406,1093,0,0
189,-69,0,0,0,0,0,0,0,0,0,-1,1413,1093,0,0
196,-69,0,0,0,0,0,0,0,0,0,-1,1420,1093,0,0
203,-69,0,0,0,0,0,0,0,0,0,-1,1427,1093,0,0
210,-69,0,0,0,0,0,0,0,0,0,-1,1434,1093,0,0
217,-69,0,0,0,0,0,0,0,0,0,-1,1441,1093,0,0
224,-69,0,0,0,0,0,0,0,0,0,-1,1448,1093,0,0
231,-69,0,0,0,0,0,0,0,0,0,-1,1455,1093,0,0
238,-69,0,0,0,0,0,0,0,0,0,-1,1462,1093,0,0
245,-69,0,0,0,0,0,0,0,0,0,-1,1469,1093,0,0
252,-69,0,0,0,0,0,0,0,0,0,-1,1476,1093,0,0
259,-69,0,0,0,0,0,0,0,0,0,-1,1483,1093,0,0
266,-69,0,0,0,0,0,0,0,0,0,-1,1490,1093,0,0
273,-69,0,0,0,0,0,0,0,0,0,-1,1497,1093,0,0
280,-69,0,0,0,0,0,0,0,0,0,-1,1504,1093,0,0
287,-69,0,0,0,0,0,0,0,0,0,-1,1511,1093,0,0
294,-69,0,0,0,0,0,0,0,0,0,-1,1518,1093,0,0
301,-69,0,0,0,0,0,0,0,0,0,-1,1525,1093,0,0
308,-69,0,0,0,0,0,0,0,0,0,-1,1532,1093,0,0
315,-69,0,0,0,0,0,0,0,0,0,-1,1539,1093,0,0
322,-69,0,0,0,0,0,0,0,0,0,-1,1546,1093,0,0
329,-69,0,0,0,0,0,0,0,0,0,-1,1553,1093,0,0
336,-69,0,0,0,0,0,0,0,0,0,-1,1560,1093,0,0
343,-69,0,0,0,0,0,0,0,0,0,-1,1567,1093,0,0
350,-69,0,0,0,0,0,0,0,0,0,-1,1574,1093,0,0
357,-69,0,0,0,0,0,0,0,0,0,-1,1581,1093,0,0
364,-69,0,0,0,0,0,0,0,0,0,-1,1588,1093,0,0
371,-69,0,0,0,0,0,0,0,0,0,-1,1595,1093,0,0
378,-69,0,0,0,0,0,0,0,0,0,-1,1602,1093,0,0
385,-69,0,0,0,0,0,0,0,0,0,-1,1609,1093,0,0
392,-69,0,0,0,0,0,0,0,0,0,-1,1616,1093,0,0
399,-69,0,0,0,0,0,0,0,0,0,-1,1623,1093,0,0
406,-69,0,0,0,0,0,0,0,0,0,-1,1630,1093,0,0
413,-69,0,0,0,0,0,0,0,0,0,-1,1637,1093,0,0
420,-69,0,0,0,0,0,0,0,0,0,-1,1644,1093,0,0
427,-69,0,0,0,0,0,0,0,0,0,-1,1651,1093,0,0
434,-69,0,0,0,0,0,0,0,0,0,-1,1658,1093,0,0
441,-69,0,0,0,0,0,0,0,0,0,-1,1665,1093,0,0
448,-69,0,0,0,0,0,0,0,0,0,-1,1672,1093,0,0
455,-69,0,0,0,0,0,0,0,0,0,-1,1679,1093,0,0
462,-69,0,0,0,0,0,0,0,0,0,-1,1686,1093,0,0
469,-69,0,0,0,0,0,0,0,0,0,-1,1693,1093,0,0
476,-69,0,0,0,0,0,0,0,0,0,-1,1700,1093,0,0
483,-69,0,0,0,0,0,0,0,0,0,-1,1707,1093,0,0
490,-69,0,0,0,0,0,0,0,0,0,-1,1714,1093,0,0
497,-69,0,0,0,0,0,0,0,0,0,-1,1721,1093,0,0
504,-69,0,0,0,0,0,0,0,0,0,-1,1728,1093,0,0
511,-69,0,0,0,0,0,0,0,0,0,-1,1735,1093,0,0
518,-69,0,0,0,0,0,0,0,0,0,-1,1742,1093,0,0
525,-69,0,0,0,0,0,0,0,0,0,-1,1749,1093,0,0
532,-69,0,0,0,0,0,0,0,0,0,-1,1756,1093,0,0
539,-69,0,0,0,0,0,0,0,0,0,-1,1763,1093,0,0
546,-69,0,0,0,0,0,0,0,0,0,-1,1770,1093,0,0
553,-69,0,0,0,0,0,0,0,0,0,-1,1777,1093,0,0
560,-69,0,0,0,0,0,0,0,0,0,-1,1784,1093,0,0
567,-69,0,0,0,0,0,0,0,0,0,-1,1791,1093,0,0
574,-69,0,0,0,0,0,0,0,0,0,-1,1798,1093,0,0
581,-69,0,0,0,0,0,0,0,0,0,-1,1805,1093,0,0
588,-69,0,0,0,0,0,0,0,0,0,-1,1812,1093,0,0
595,-69,0,0,0,0,0,0,0,0,0,-1,1819,1093,0,0
602,-69,0,0,0,0,0,0,0,0,0,-1,1826,1093,0,0
609,-69,0,0,0,0,0,0,0,0,0,-1,1833,1093,0,0
616,-69,0,0,0,0,0,0,0,0,0,-1,1840,1093,0,0
623,-69,0,0,0,0,0,0,0,0,0,-1,1847,1093,0,0
630,-69,0,0,0,0,0,0,0,0,0,-1,1854,1093,0,0
637,-69,0,0,0,0,0,0,0,0,0,-1,1861,1093,0,0
644,-69,0,0,0,0,0,0,0,0,0,-1,1868,1093,0,0
651,-69,35.4589,2.52905,0.0103455,-0.00237983,0.00219112,0.0107122,-0.00274654,0.165826,0.00821155,0.0397465,1875,1093,35.4589,-2.52911
658,-69,35.6012,2.54346,0.00794859,-0.00085194,0.00176987,0.00829119,-0.00119454,0.191209,0.00596564,0.0421449,1882,1093,35.6012,-2.54351
665,-69,35.6871,2.5271,0.00586722,0.000122,0.00155531,0.00626124,-0.000272019,0.248118,0.00426772,0.0415964,1889,1093,35.6871,-2.5271
672,-69,35.5886,2.61011,0.0042509,0.000547117,0.00168969,0.00490591,-0.000107894,0.369816,0.00330716,0.037591,1896,1093,35.5887,-2.61005
679,-69,35.6292,2.46802,0.00272536,0.000509662,0.00206138,0.00395772,-0.000722703,0.538827,0.00290946,0.0383722,1903,1093,35.6291,-2.46801
686,-69,35.682,2.3634,0.00140043,0.000111568,0.00246466,0.00330351,-0.00179152,0.657527,0.00298448,0.0389101,1910,1093,35.682,-2.36343
693,-69,35.6555,2.46399,0.000475441,-0.000410373,0.00280385,0.00287115,-0.00280608,0.707063,0.00327782,0.0361602,1917,1093,35.6555,-2.46396
700,-69,35.6412,2.47803,-0.000232468,-0.000807971,0.00302967,0.00252308,-0.00356352,0.738051,0.00353118,0.0297807,1924,1093,35.6412,-2.47807
707,-69,35.6122,2.47424,-0.000916585,-0.00103853,0.00320539,0.00222841,-0.00418353,0.775888,0.00375886,0.0234498,1931,1093,35.6122,-2.47418
714,-69,35.6753,2.51794,-0.00151958,-0.00109247,0.00339449,0.00209518,-0.00470723,0.816813,0.00402273,0.0300996,1938,1093,35.6753,-2.518
721,-69,35.7859,2.6604,0,0,0,0,0,0,0,-1,1945,1093,35.7859,-2.6604
728,-69,34.2162,5.44226,0,0,0,0,0,0,0,-1,1952,1093,34.2162,-5.44232
735,-69,34.3926,5.203,-0.00261029,-0.000859855,0.00300708,0.00139678,-0.00486693,0.927013,0.00379684,0.0262266,1959,1093,34.3926,-5.20304
742,-69,34.3784,5.03601,-0.0029841,0.000426206,0.00250133,0.0017483,-0.00430619,1.08457,0.00359804,0.0200521,1966,1093,34.3784,-5.03602
749,-69,34.2573,4.85449,-0.00419008,0.00251492,0.00179068,0.00296319,-0.00463834,1.32551,0.00442412,0.0213413,1973,1093,34.2573,-4.85446
756,-69,34.3073,4.73706,-0.00558936,0.00560101,0.000623389,0.00563563,-0.00562398,1.51532,0.00650074,0.0159122,1980,1093,34.3072,-4.73709
763,-69,34.3037,4.55017,-0.00754946,0.00953139,-0.00183724,0.00972677,-0.00774485,-1.46485,0.0101088,0.0162839,1987,1093,34.3038,-4.55011
770,-69,34.2737,4.40515,-0.0104221,0.0149418,-0.00474295,0.0157997,-0.01128,-1.39185,0.0157069,0.0164226,1994,1093,34.2737,-4.40519
777,-69,34.2072,4.22729,-0.014274,0.0217833,-0.00841284,0.0236496,-0.0161403,-1.35249,0.0231087,0.0218949,2001,1093,34.2071,-4.22726
784,-69,34.1802,3.77209,-0.0189369,0.0294555,-0.0127657,0.0326166,-0.022098,-1.32806,0.0317835,0.034151,2008,1093,34.1801,-3.77205
791,-69,35.7363,4.48181,0,0,0,0,0,0,0,-1,2015,1093,35.7364,-4.48182
798,-69,35.8044,4.63342,0,0,0,0,0,0,0,-1,2022,1093,35.8045,-4.63345
805,-69,35.8726,4.78503,0,0,0,0,0,0,0,-1,2029,1093,35.8726,-4.78508
812,-69,36.3735,2.59631,0,0,0,0,0,0,0,-1,2036,1093,36.3735,-2.59629
-700,-76,0,0,0,0,0,0,0,0,0,-1,524,1100,0,0
-693,-76,-22.98,-0.882446,0,0,0,0,0,0,0,-1,531,1100,-22.98,0.882483
-686,-76,-27.3309,1.19446,0,0,0,0,0,0,0,-1,538,1100,-27.3309,-1.19445
-679,-76,-23.7034,-0.580322,0,0,0,0,0,0,0,-1,545,1100,-23.7034,0.580359
-672,-76,-24.6415,0.237793,0,0,0,0,0,0,0,-1,552,1100,-24.6415,-0.23774
-665,-76,-24.4651,0.362793,0.0291424,0.0222288,0.0106386,0.0368717,0.0144995,0.628315,0.0214491,0.0485726,559,1100,-24.4652,-0.362788
-658,-76,-24.4594,0.742188,0.0241407,0.0188341,0.0101078,0.0319376,0.0110372,0.657043,0.01873,0.0468913,566,1100,-24.4594,-0.742245
-651,-76,-24.3911,1.12122,0.0192658,0.0153606,0.0089839,0.0265068,0.00811956,0.678392,0.0156818,0.0296197,573,1100,-24.391,-1.12117
-644,-76,-24.4219,1.38477,0.0149611,0.0121783,0.00697314,0.0206803,0.00645913,0.686923,0.0122169,0.0108761,580,1100,-24.4219,-1.3848
-637,-76,-24.4818,1.59814,0.010533,0.00886463,0.00466366,0.0144365,0.00496114,0.696898,0.00846966,0.0142052,587,1100,-24.4817,-1.59813
-630,-76,-24.4908,1.79016,0.00669231,0.00546375,0.00228673,0.00844583,0.00371022,0.654181,0.00488817,0.015787,594,1100,-24.4908,-1.79013
-623,-76,-24.4824,2.01208,0.00408315,0.00234855,-0.00040437,0.00417279,0.00225891,-0.218138,0.0024119,0.0155563,601,1100,-24.4823,-2.0121
-616,-76,-24.489,2.22375,0.00196196,0.000856254,-0.00280492,0.00426799,-0.00144978,-0.688095,0.00343221,0.0139254,608,1100,-24.4889,-2.22379
-609,-76,-24.4922,2.42188,0.000963427,-0.000539353,-0.00471102,0.00498261,-0.00455853,-0.706316,0.00551039,0.0137387,615,1100,-24.4922,-2.42187
-602,-76,-24.4701,2.68738,0.000440639,-0.00106352,-0.00586363,0.00560023,-0.00622311,-0.721616,0.00682936,0.018189,622,1100,-24.4701,-2.68735
-595,-76,-24.431,2.85706,-1.78917e-05,-0.00123245,-0.00655827,0.00596116,-0.0072115,-0.739231,0.00761665,0.025002,629,1100,-24.4311,-2.85711
-588,-76,-24.4032,2.96985,0,0,0,0,0,0,0,-1,636,1100,-24.4032,-2.96982
-581,-76,-25.708,0.562622,0,0,0,0,0,0,0,-1,643,1100,-25.708,-0.562622
-574,-76,-25.7772,0.555908,-0.000638958,-0.000847086,-0.00670156,0.00595935,-0.00744539,-0.777635,0.00775506,0.0368867,650,1100,-25.7771,-0.555885
-567,-76,-25.647,0.613525,-0.00104141,-0.000354977,-0.00630925,0.00562039,-0.00701677,-0.812571,0.0073109,0.0423987,657,1100,-25.647,-0.613533
-560,-76,-25.5848,0.612305,-0.00167319,0.000316036,-0.00558501,0.00499431,-0.00635146,-0.873517,0.00656609,0.0413416,664,1100,-25.5848,-0.612287
-553,-76,-25.6295,0.591919,-0.00271223,0.00108707,-0.00451944,0.00408987,-0.00571503,-0.984352,0.00568672,0.0411891,671,1100,-25.6295,-0.59192
-546,-76,-25.6939,0.581421,-0.0041886,0.00181008,-0.0030385,0.00308023,-0.00545875,-1.17485,0.00499332,0.0401647,678,1100,-25.6939,-0.581421
-539,-76,-25.7065,0.531006,-0.0061211,0.00208733,-0.00170048,0.00242566,-0.00645943,-1.3744,0.0053031,0.0403075,685,1100,-25.7066,-0.530973
-532,-76,-25.6346,0.62793,-0.00911462,0.001027,-0.00262851,0.00166777,-0.00975539,-1.33168,0.00712488,0.0412204,692,1100,-25.6346,-0.627894
-525,-76,0,0,0,0,0,0,0,0,0,-1,699,1100,0,0
-518,-76,0,0,0,0,0,0,0,0,0,-1,706,1100,0,0
-511,-76,0,0,0,0,0,0,0,0,0,-1,713,1100,0,0
-504,-76,0,0,0,0,0,0,0,0,0,-1,720,1100,0,0
-497,-76,0,0,0,0,0,0,0,0,0,-1,727,1100,0,0
-490,-76,0,0,0,0,0,0,0,0,0,-1,734,1100,0,0
-483,-76,0,0,0,0,0,0,0,0,0,-1,741,1100,0,0
-476,-76,0,0,0,0,0,0,0,0,0,-1,748,1100,0,0
-469,-76,0,0,0,0,0,0,0,0,0,-1,755,1100,0,0
-462,-76,0,0,0,0,0,0,0,0,0,-1,762,1100,0,0
-455,-76,0,0,0,0,0,0,0,0,0,-1,769,1100,0,0
-448,-76,0,0,0,0,0,0,0,0,0,-1,776,1100,0,0
-441,-76,0,0,0,0,0,0,0,0,0,-1,783,1100,0,0
-434,-76,0,0,0,0,0,0,0,0,0,-1,790,1100,0,0
-427,-76,0,0,0,0,0,0,0,0,0,-1,797,1100,0,0
-420,-76,0,0,0,0,0,0,0,0,0,-1,804,1100,0,0
-413,-76,0,0,0,0,0,0,0,0,0,-1,811,1100,0,0
-406,-76,0,0,0,0,0,0,0,0,0,-1,818,1100,0,0
-399,-76,0,0,0,0,0,0,0,0,0,-1,825,1100,0,0
-392,-76,0,0,0,0,0,0,0,0,0,-1,832,1100,0,0
-385,-76,0,0,0,0,0,0,0,0,0,-1,839,1100,0,0
-378,-76,0,0,0,0,0,0,0,0,0,-1,846,1100,0,0
-371,-76,0,0,0,0,0,0,0,0,0,-1,853,1100,0,0
-364,-76,0,0,0,0,0,0,0,0,0,-1,860,1100,0,0
-357,-76,0,0,0,0,0,0,0,0,0,-1,867,1100,0,0
-350,-76,0,0,0,0,0,0,0,0,0,-1,874,1100,0,0
-343,-76,0,0,0,0,0,0,0,0,0,-1,881,1100,0,0
-336,-76,0,0,0,0,0,0,0,0,0,-1,888,1100,0,0
-329,-76,0,0,0,0,0,0,0,0,0,-1,895,1100,0,0
-322,-76,0,0,0,0,0,0,0,0,0,-1,902,1100,0,0
-315,-76,0,0,0,0,0,0,0,0,0,-1,909,1100,0,0
-308,-76,0,0,0,0,0,0,0,0,0,-1,916,1100,0,0
-301,-76,0,0,0,0,0,0,0,0,0,-1,923,1100,0,0
-294,-76,0,0,0,0,0,0,0,0,0,-1,930,1100,0,0
-287,-76,0,0,0,0,0,0,0,0,0,-1,937,1100,0,0
-280,-76,0,0,0,0,0,0,0,0,0,-1,944,1100,0,0
-273,-76,0,0,0,0,0,0,0,0,0,-1,951,1100,0,0
-266,-76,0,0,0,0,0,0,0,0,0,-1,958,1100,0,0
-259,-76,0,0,0,0,0,0,0,0,0,-1,965,1100,0,0
-252,-76,0,0,0,0,0,0,0,0,0,-1,972,1100,0,0
-245,-76,0,0,0,0,0,0,0,0,0,-1,979,1100,0,0
-238,-76,0,0,0,0,0,0,0,0,0,-1,986,1100,0,0
-231,-76,0,0,0,0,0,0,0,0,0,-1,993,1100,0,0
-224,-76,0,0,0,0,0,0,0,0,0,-1,1000,1100,0,0
-217,-76,0,0,0,0,0,0,0,0,0,-1,1007,1100,0,0
-210,-76,0,0,0,0,0,0,0,0,0,-1,1014,1100,0,0
-203,-76,0,0,0,0,0,0,0,0,0,-1,1021,1100,0,0
-196,-76,0,0,0,0,0,0,0,0,0,-1,1028,1100,0,0
-189,-76,0,0,0,0,0,0,0,0,0,-1,1035,1100,0,0
-182,-76,0,0,0,0,0,0,0,0,0,-1,1042,1100,0,0
-175,-76,0,0,0,0,0,0,0,0,0,-1,1049,1100,0,0
-168,-76,0,0,0,0,0,0,0,0,0,-1,1056,1100,0,0
-161,-76,0,0,0,0,0,0,0,0,0,-1,1063,1100,0,0
-154,-76,0,0,0,0,0,0,0,0,0,-1,1070,1100,0,0
-147,-76,0,0,0,0,0,0,0,0,0,-1,1077,1100,0,0
-140,-76,0,0,0,0,0,0,0,0,0,-1,1084,1100,0,0
-133,-76,0,0,0,0,0,0,0,0,0,-1,1091,1100,0,0
-126,-76,0,0,0,0,0,0,0,0,0,-1,1098,1100,0,0
-119,-76,0,0,0,0,0,0,0,0,0,-1,1105,1100,0,0
-112,-76,0,0,0,0,0,0,0,0,0,-1,1112,1100,0,0
-105,-76,0,0,0,0,0,0,0,0,0,-1,1119,1100,0,0
-98,-76,0,0,0,0,0,0,0,0,0,-1,1126,1100,0,0
-91,-76,0,0,0,0,0,0,0,0,0,-1,1133,1100,0,0
-84,-76,0,0,0,0,0,0,0,0,0,-1,1140,1100,0,0
-77,-76,0,0,0,0,0,0,0,0,0,-1,1147,1100,0,0
-70,-76,0,0,0,0,0,0,0,0,0,-1,1154,1100,0,0
-63,-76,0,0,0,0,0,0,0,0,0,-1,1161,1100,0,0
-56,-76,0,0,0,0,0,0,0,0,0,-1,1168,1100,0,0
-49,-76,0,0,0,0,0,0,0,0,0,-1,1175,1100,0,0
-42,-76,0,0,0,0,0,0,0,0,0,-1,1182,1100,0,0
-35,-76,0,0,0,0,0,0,0,0,0,-1,1189,1100,0,0
-28,-76,0,0,0,0,0,0,0,0,0,-1,1196,1100,0,0
-21,-76,0,0,0,0,0,0,0,0,0,-1,1203,1100,0,0
-14,-76,0,0,0,0,0,0,0,0,0,-1,1210,1100,0,0
-7,-76,0,0,0,0,0,0,0,0,0,-1,1217,1100,0,0
0,-76,0,0,0,0,0,0,0,0,0,-1,1224,1100,0,0
7,-76,0,0,0,0,0,0,0,0,0,-1,1231,1100,0,0
14,-76,0,0,0,0,0,0,0,0,0,-1,1238,1100,0,0
21,-76,0,0,0,0,0,0,0,0,0,-1,1245,1100,0,0
28,-76,0,0,0,0,0,0,0,0,0,-1,1252,1100,0,0
35,-76,0,0,0,0,0,0,0,0,0,-1,1259,1100,0,0
42,-76,0,0,0,0,0,0,0,0,0,-1,1266,1100,0,0
49,-76,0,0,0,0,0,0,0,0,0,-1,1273,1100,0,0
56,-76,0,0,0,0,0,0,0,0,0,-1,1280,1100,0,0
63,-76,0,0,0,0,0,0,0,0,0,-1,1287,1100,0,0
70,-76,0,0,0,0,0,0,0,0,0,-1,1294,1100,0,0
77,-76,0,0,0,0,0,0,0,0,0,-1,1301,1100,0,0
84,-76,0,0,0,0,0,0,0,0,0,-1,1308,1100,0,0
91,-76,0,0,0,0,0,0,0,0,0,-1,1315,1100,0,0
98,-76,0,0,0,0,0,0,0,0,0,-1,1322,1100,0,0
105,-76,0,0,0,0,0,0,0,0,0,-1,1329,1100,0,0
112,-76,0,0,0,0,0,0,0,0,0,-1,1336,1100,0,0
119,-76,0,0,0,0,0,0,0,0,0,-1,1343,1100,0,0
126,-76,0,0,0,0,0,0,0,0,0,-1,1350,1100,0,0
133,-76,0,0,0,0,0,0,0,0,0,-1,1357,1100,0,0
140,-76,0,0,0,0,0,0,0,0,0,-1,1364,1100,0,0
147,-76,0,0,0,0,0,0,0,0,0,-1,1371,1100,0,0
154,-76,0,0,0,0,0,0,0,0,0,-1,1378,1100,0,0
161,-76,0,0,0,0,0,0,0,0,0,-1,1385,1100,0,0
168,-76,0,0,0,0,0,0,0,0,0,-1,1392,1100,0,0
175,-76,0,0,0,0,0,0,0,0,0,-1,1399,1100,0,0
182,-76,0,0,0,0,0,0,0,0,0,-1,1406,1100,0,0
189,-76,0,0,0,0,0,0,0,0,0,-1,1413,1100,0,0
196,-76,0,0,0,0,0,0,0,0,0,-1,1420,1100,0,0
203,-76,0,0,0,0,0,0,0,0,0,-1,1427,1100,0,0
210,-76,0,0,0,0,0,0,0,0,0,-1,1434,1100,0,0
217,-76,0,0,0,0,0,0,0,0,0,-1,1441,1100,0,0
224,-76,0,0,0,0,0,0,0,0,0,-1,1448,1100,0,0
231,-76,0,0,0,0,0,0,0,0,0,-1,1455,1100,0,0
238,-76,0,0,0,0,0,0,0,0,0,-1,1462,1100,0,0
245,-76,0,0,0,0,0,0,0,0,0,-1,1469,1100,0,0
252,-76,0,0,0,0,0,0,0,0,0,-1,1476,1100,0,0
259,-76,0,0,0,0,0,0,0,0,0,-1,1483,1100,0,0
266,-76,0,0,0,0,0,0,0,0,0,-1,1490,1100,0,0
273,-76,0,0,0,0,0,0,0,0,0,-1,1497,1100,0,0
280,-76,0,0,0,0,0,0,0,0,0,-1,1504,1100,0,0
287,-76,0,0,0,0,0,0,0,0,0,-1,1511,1100,0,0
294,-76,0,0,0,0,0,0,0,0,0,-1,1518,1100,0,0
301,-76,0,0,0,0,0,0,0,0,0,-1,1525,1100,0,0
308,-76,0,0,0,0,0,0,0,0,0,-1,1532,1100,0,0
315,-76,0,0,0,0,0,0,0,0,0,-1,1539,1100,0,0
322,-76,0,0,0,0,0,0,0,0,0,-1,1546,1100,0,0
329,-76,0,0,0,0,0,0,0,0,0,-1,1553,1100,0,0
336,-76,0,0,0,0,0,0,0,0,0,-1,1560,1100,0,0
343,-76,0,0,0,0,0,0,0,0,0,-1,1567,1100,0,0
350,-76,0,0,0,0,0,0,0,0,0,-1,1574,1100,0,0
357,-76,0,0,0,0,0,0,0,0,0,-1,1581,1100,0,0
364,-76,0,0,0,0,0,0,0,0,0,-1,1588,1100,0,0
371,-76,0,0,0,0,0,0,0,0,0,-1,1595,1100,0,0
378,-76,0,0,0,0,0,0,0,0,0,-1,1602,1100,0,0
385,-76,0,0,0,0,0,0,0,0,0,-1,1609,1100,0,0
392,-76,0,0,0,0,0,0,0,0,0,-1,1616,1100,0,0
399,-76,0,0,0,0,0,0,0,0,0,-1,1623,1100,0,0
406,-76,0,0,0,0,0,0,0,0,0,-1,1630,1100,0,0
413,-76,0,0,0,0,0,0,0,0,0,-1,1637,1100,0,0
420,-76,0,0,0,0,0,0,0,0,0,-1,1644,1100,0,0
427,-76,0,0,0,0,0,0,0,0,0,-1,1651,1100,0,0
434,-76,0,0,0,0,0,0,0,0,0,-1,1658,1100,0,0
441,-76,0,0,0,0,0,0,0,0,0,-1,1665,1100,0,0
448,-76,0,0,0,0,0,0,0,0,0,-1,1672,1100,0,0
455,-76,0,0,0,0,0,0,0,0,0,-1,1679,1100,0,0
462,-76,0,0,0,0,0,0,0,0,0,-1,1686,1100,0,0
469,-76,0,0,0,0,0,0,0,0,0,-1,1693,1100,0,0
476,-76,0,0,0,0,0,0,0,0,0,-1,1700,1100,0,0
483,-76,0,0,0,0,0,0,0,0,0,-1,1707,1100,0,0
490,-76,0,0,0,0,0,0,0,0,0,-1,1714,1100,0,0
497,-76,0,0,0,0,0,0,0,0,0,-1,1721,1100,0,0
504,-76,0,0,0,0,0,0,0,0,0,-1,1728,1100,0,0
511,-76,0,0,0,0,0,0,0,0,0,-1,1735,1100,0,0
518,-76,0,0,0,0,0,0,0,0,0,-1,1742,1100,0,0
525,-76,0,0,0,0,0,0,0,0,0,-1,1749,1100,0,0
532,-76,0,0,0,0,0,0,0,0,0,-1,1756,1100,0,0
539,-76,0,0,0,0,0,0,0,0,0,-1,1763,1100,0,0
546,-76,0,0,0,0,0,0,0,0,0,-1,1770,1100,0,0
553,-76,0,0,0,0,0,0,0,0,0,-1,1777,1100,0,0
560,-76,0,0,0,0,0,0,0,0,0,-1,1784,1100,0,0
567,-76,0,0,0,0,0,0,0,0,0,-1,1791,1100,0,0
574,-76,0,0,0,0,0,0,0,0,0,-1,1798,1100,0,0
581,-76,0,0,0,0,0,0,0,0,0,-1,1805,1100,0,0
588,-76,0,0,0,0,0,0,0,0,0,-1,1812,1100,0,0
595,-76,0,0,0,0,0,0,0,0,0,-1,1819,1100,0,0
602,-76,0,0,0,0,0,0,0,0,0,-1,1826,1100,0,0
609,-76,0,0,0,0,0,0,0,0,0,-1,1833,1100,0,0
616,-76,0,0,0,0,0,0,0,0,0,-1,1840,1100,0,0
623,-76,0,0,0,0,0,0,0,0,0,-1,1847,1100,0,0
630,-76,0,0,0,0,0,0,0,0,0,-1,1854,1100,0,0
637,-76,0,0,0,0,0,0,0,0,0,-1,1861,1100,0,0
644,-76,0,0,0,0,0,0,0,0,0,-1,1868,1100,0,0
651,-76,35.4971,2.61353,0.0100875,-0.00280161,0.000398608,0.0100998,-0.00281392,0.0308866,0.00784133,0.0414901,1875,1100,35.4971,-2.61356
658,-76,35.5995,2.73059,0.00788003,-0.00117121,0.00047697,0.00790509,-0.00119627,0.0525028,0.00571074,0.0438117,1882,1100,35.5995,-2.73057
665,-76,35.6818,2.48755,0.00592198,-0.000129283,0.000658733,0.00599286,-0.000200162,0.107186,0.0040636,0.041614,1889,1100,35.6818,-2.48752
672,-76,35.5868,2.31775,0.00435997,0.000338051,0.00106373,0.00462397,7.40436e-05,0.243275,0.00305827,0.0396743,1896,1100,35.5869,-2.31775
679,-76,35.6234,2.30432,0.00284536,0.000340894,0.00160256,0.00362691,-0.000440656,0.453751,0.00257741,0.0394554,1903,1100,35.6235,-2.30434
686,-76,35.7484,2.29822,0.00153874,-1.32657e-05,0.00207597,0.002979,-0.00145353,0.606538,0.00260915,0.0376336,1910,1100,35.7484,-2.29824
693,-76,35.7734,2.34534,0.000624617,-0.000487601,0.00243172,0.00256301,-0.00242599,0.672986,0.00288076,0.0374981,1917,1100,35.7735,-2.3454
700,-76,35.6797,2.40845,-0.000107119,-0.000824055,0.00264927,0.00220782,-0.003139,0.718152,0.00310255,0.0325613,1924,1100,35.6797,-2.40846
707,-76,35.6108,2.47107,-0.000790845,-0.00102987,0.0028415,0.00193366,-0.00375437,0.76438,0.0033396,0.0251973,1931,1100,35.6109,-2.47109
714,-76,35.7156,2.77063,-0.00138268,-0.00106793,0.00304986,0.00182861,-0.00427922,0.811176,0.00361973,0.0452221,1938,1100,35.7156,-2.77062
721,-76,34.7654,5.28625,0,0,0,0,0,0,0,-1,1945,1100,34.7653,-5.28625
728,-76,34.464,5.33716,-0.00219641,-0.00128598,0.00302512,0.00131799,-0.00480038,0.860077,0.00371828,0.0382913,1952,1100,34.464,-5.33714
735,-76,33.9668,5.2655,-0.0026029,-0.000957922,0.00265557,0.000999615,-0.00456044,0.935574,0.00342251,0.030727,1959,1100,33.9668,-5.26553
742,-76,34.1469,5.04749,-0.0030723,0.000424021,0.00215149,0.00144804,-0.00409632,1.12657,0.00332053,0.0200962,1966,1100,34.1468,-5.04749
749,-76,34.0782,4.86365,-0.0044321,0.00279341,0.00151278,0.00309735,-0.00473604,1.37252,0.00455547,0.0197669,1973,1100,34.0783,-4.86367
756,-76,34.1171,4.73547,-0.00601058,0.00621232,0.000405511,0.00622575,-0.00602402,1.53767,0.00707273,0.0153168,1980,1100,34.1171,-4.73544
763,-76,34.1158,4.51501,-0.00826193,0.0104793,-0.00203712,0.0106981,-0.0084808,-1.46376,0.0110976,0.0150843,1987,1100,34.1158,-4.51503
770,-76,34.0359,4.38086,-0.0115821,0.0165175,-0.00491053,0.0173509,-0.0124156,-1.40268,0.0172643,0.0159957,1994,1100,34.0359,-4.3809
777,-76,33.9625,4.2782,-0.0159536,0.0240452,-0.0085443,0.025794,-0.0177023,-1.36892,0.025257,0.0216085,2001,1100,33.9625,-4.27822
784,-76,34.0903,3.99963,-0.0212389,0.0325598,-0.0129447,0.0355125,-0.0241915,-1.34654,0.0346761,0.0343818,2008,1100,34.0903,-3.9996
791,-76,37.0376,5.06702,0,0,0,0,0,0,0,-1,2015,1100,37.0376,-5.06703
798,-76,36.7131,5.2218,-0.0357202,0.0534592,-0.0257159,0.0603433,-0.0426043,-1.30923,0.0597302,0.0438873,2022,1100,36.7131,-5.22175
805,-76,36.377,5.38721,-0.0448231,0.0657809,-0.0348646,0.0758536,-0.0548958,-1.28955,0.0758107,0.0473274,2029,1100,36.3769,-5.38716
812,-76,33.489,2.08557,-0.0550792,0.078856,-0.0464397,0.0933826,-0.0696058,-1.26763,0.0944346,0.0472806,2036,1100,33.489,-2.08561
-700,-83,0,0,0,0,0,0,0,0,0,-1,524,1107,0,0
-693,-83,-27.6174,0.666016,0,0,0,0,0,0,0,-1,531,1107,-27.6174,-0.665983
-686,-83,-26.9863,0.816528,0,0,0,0,0,0,0,-1,538,1107,-26.9863,-0.816544
-679,-83,-26.3748,0.849731,0,0,0,0,0,0,0,-1,545,1107,-26.3748,-0.849786
-672,-83,-25.3276,0.0388184,0.0413795,0.0263367,0.00606771,0.0435219,0.0241943,0.339415,0.0251797,0.0452804,552,1107,-25.3276,-0.0387946
-665,-83,-25.0763,0.146973,0.0351278,0.0221188,0.00738019,0.0384607,0.0187859,0.424193,0.0222073,0.0455782,559,1107,-25.0763,-0.147018
-658,-83,-24.5497,0.453125,0.0287268,0.0180804,0.00769657,0.0327617,0.0140455,0.482853,0.0189789,0.0417434,566,1107,-24.5498,-0.453143
-651,-83,-24.183,1.00391,0.0226671,0.0143331,0.00726526,0.0268755,0.0101246,0.525024,0.015673,0.0308179,573,1107,-24.183,-1.00393
-644,-83,-24.1557,1.32251,0.0174478,0.0111012,0.00585095,0.0209306,0.00761843,0.536922,0.0122324,0.0152302,580,1107,-24.1557,-1.32252
-637,-83,-24.217,1.56348,0.0121813,0.00768979,0.00421968,0.0147156,0.00515547,0.540857,0.008622,0.0119526,587,1107,-24.217,-1.56351
-630,-83,-24.2408,1.79138,0.00760991,0.00447841,0.00231835,0.00884171,0.0032466,0.488395,0.00516444,0.0167483,594,1107,-24.2408,-1.79137
-623,-83,-24.2407,1.99988,0.00449281,0.00175079,-3.48956e-05,0.00449325,0.00175035,-0.0127235,0.00261519,0.0161158,601,1107,-24.2407,-1.99984
-616,-83,-24.2518,2.21997,0.00222106,0.000517031,-0.00208128,0.00361797,-0.000879874,-0.591118,0.00275255,0.013257,608,1107,-24.2518,-2.21999
-609,-83,-24.2617,2.43225,0.00127902,-0.000540336,-0.00363612,0.00411753,-0.00337884,-0.662825,0.00433503,0.013726,615,1107,-24.2617,-2.43228
-602,-83,-24.2714,2.69128,0.000734792,-0.00093235,-0.00462972,0.00460538,-0.00480294,-0.696329,0.0054323,0.0161203,622,1107,-24.2714,-2.69134
-595,-83,-24.2065,2.92004,0.00024472,-0.00104791,-0.00527059,0.00490848,-0.00571167,-0.724389,0.00613739,0.0197168,629,1107,-24.2065,-2.92009
-588,-83,-24.1628,3.10632,0,0,0,0,0,0,0,-1,636,1107,-24.1628,-3.10628
-581,-83,-25.6889,0.510376,0,0,0,0,0,0,0,-1,643,1107,-25.6889,-0.510344
-574,-83,-25.7465,0.486572,-0.000349679,-0.000829399,-0.00537729,0.0047931,-0.00597218,-0.76311,0.00622775,0.0358669,650,1107,-25.7465,-0.486556
-567,-83,-25.7484,0.563232,-0.000712978,-0.000447172,-0.00511054,0.0045322,-0.00569235,-0.798398,0.00591579,0.0406421,657,1107,-25.7484,-0.563236
-560,-83,-25.65,0.529785,-0.00131708,8.32631e-05,-0.00457641,0.00401275,-0.00524657,-0.861308,0.00536167,0.0416077,664,1107,-25.65,-0.529834
-553,-83,-25.5035,0.47522,0,0,0,0,0,0,0,-1,671,1107,-25.5035,-0.475208
-546,-83,-25.6069,0.665771,-0.0040216,0.00122568,-0.00252957,0.00224651,-0.00504243,-1.18722,0.00431024,0.0390023,678,1107,-25.6069,-0.665755
-539,-83,-25.6585,0.490845,-0.00617036,0.00125657,-0.00123215,0.00145565,-0.00636944,-1.41061,0.00480557,0.0417246,685,1107,-25.6585,-0.490804
-532,-83,-25.6431,0.523315,-0.00933859,9.02459e-05,-0.00157566,0.000346586,-0.00959493,-1.40952,0.00651522,0.0431356,692,1107,-25.643,-0.523376
-525,-83,0,0,0,0,0,0,0,0,0,-1,699,1107,0,0
-518,-83,0,0,0,0,0,0,0,0,0,-1,706,1107,0,0
-511,-83,0,0,0,0,0,0,0,0,0,-1,713,1107,0,0
-504,-83,0,0,0,0,0,0,0,0,0,-1,720,1107,0,0
-497,-83,0,0,0,0,0,0,0,0,0,-1,727,1107,0,0
-490,-83,0,0,0,0,0,0,0,0,0,-1,734,1107,0,0
-483,-83,0,0,0,0,0,0,0,0,0,-1,741,1107,0,0
-476,-83,0,0,0,0,0,0,0,0,0,-1,748,1107,0,0
-469,-83,0,0,0,0,0,0,0,0,0,-1,755,1107,0,0
-462,-83,0,0,0,0,0,0,0,0,0,-1,762,1107,0,0
-455,-83,0,0,0,0,0,0,0,0,0,-1,769,1107,0,0
-448,-83,0,0,0,0,0,0,0,0,0,-1,776,1107,0,0
-441,-83,0,0,0,0,0,0,0,0,0,-1,783,1107,0,0
-434,-83,0,0,0,0,0,0,0,0,0,-1,790,1107,0,0
-427,-83,0,0,0,0,0,0,0,0,0,-1,797,1107,0,0
-420,-83,0,0,0,0,0,0,0,0,0,-1,804,1107,0,0
-413,-83,0,0,0,0,0,0,0,0,0,-1,811,1107,0,0
-406,-83,0,0,0,0,0,0,0,0,0,-1,818,1107,0,0
-399,-83,0,0,0,0,0,0,0,0,0,-1,825,1107,0,0
-392,-83,0,0,0,0,0,0,0,0,0,-1,832,1107,0,0
-385,-83,0,0,0,0,0,0,0,0,0,-1,839,1107,0,0
-378,-83,0,0,0,0,0,0,0,0,0,-1,846,1107,0,0
-371,-83,0,0,0,0,0,0,0,0,0,-1,853,1107,0,0
-364,-83,0,0,0,0,0,0,0,0,0,-1,860,1107,0,0
-357,-83,0,0,0,0,0,0,0,0,0,-1,867,1107,0,0
-350,-83,0,0,0,0,0,0,0,0,0,-1,874,1107,0,0
-343,-83,0,0,0,0,0,0,0,0,0,-1,881,1107,0,0
-336,-83,0,0,0,0,0,0,0,0,0,-1,888,1107,0,0
-329,-83,0,0,0,0,0,0,0,0,0,-1,895,1107,0,0
-322,-83,0,0,0,0,0,0,0,0,0,-1,902,1107,0,0
-315,-83,0,0,0,0,0,0,0,0,0,-1,909,1107,0,0
-308,-83,0,0,0,0,0,0,0,0,0,-1,916,1107,0,0
-301,-83,0,0,0,0,0,0,0,0,0,-1,923,1107,0,0
-294,-83,0,0,0,0,0,0,0,0,0,-1,930,1107,0,0
-287,-83,0,0,0,0,0,0,0,0,0,-1,937,1107,0,0
-280,-83,0,0,0,0,0,0,0,0,0,-1,944,1107,0,0
-273,-83,0,0,0,0,0,0,0,0,0,-1,951,1107,0,0
-266,-83,0,0,0,0,0,0,0,0,0,-1,958,1107,0,0
-259,-83,0,0,0,0,0,0,0,0,0,-1,965,1107,0,0
-252,-83,0,0,0,0,0,0,0,0,0,-1,972,1107,0,0
-245,-83,0,0,0,0,0,0,0,0,0,-1,979,1107,0,0
-238,-83,0,0,0,0,0,0,0,0,0,-1,986,1107,0,0
-231,-83,0,0,0,0,0,0,0,0,0,-1,993,1107,0,0
-224,-83,0,0,0,0,0,0,0,0,0,-1,1000,1107,0,0
-217,-83,0,0,0,0,0,0,0,0,0,-1,1007,1107,0,0
-210,-83,0,0,0,0,0,0,0,0,0,-1,1014,1107,0,0
-203,-83,0,0,0,0,0,0,0,0,0,-1,1021,1107,0,0
-196,-83,0,0,0,0,0,0,0,0,0,-1,1028,1107,0,0
-189,-83,0,0,0,0,0,0,0,0,0,-1,1035,1107,0,0
-182,-83,0,0,0,0,0,0,0,0,0,-1,1042,1107,0,0
-175,-83,0,0,0,0,0,0,0,0,0,-1,1049,1107,0,0
-168,-83,0,0,0,0,0,0,0,0,0,-1,1056,1107,0,0
-161,-83,0,0,0,0,0,0,0,0,0,-1,1063,1107,0,0
-154,-83,0,0,0,0,0,0,0,0,0,-1,1070,1107,0,0
-147,-83,0,0,0,0,0,0,0,0,0,-1,1077,1107,0,0
-140,-83,0,0,0,0,0,0,0,0,0,-1,1084,1107,0,0
-133,-83,0,0,0,0,0,0,0,0,0,-1,1091,1107,0,0
-126,-83,0,0,0,0,0,0,0,0,0,-1,1098,1107,0,0
-119,-83,0,0,0,0,0,0,0,0,0,-1,1105,1107,0,0
-112,-83,0,0,0,0,0,0,0,0,0,-1,1112,1107,0,0
-105,-83,0,0,0,0,0,0,0,0,0,-1,1119,1107,0,0
-98,-83,0,0,0,0,0,0,0,0,0,-1,1126,1107,0,0
-91,-83,0,0,0,0,0,0,0,0,0,-1,1133,1107,0,0
-84,-83,0,0,0,0,0,0,0,0,0,-1,1140,1107,0,0
-77,-83,0,0,0,0,0,0,0,0,0,-1,1147,1107,0,0
-70,-83,0,0,0,0,0,0,0,0,0,-1,1154,1107,0,0
-63,-83,0,0,0,0,0,0,0,0,0,-1,1161,1107,0,0
-56,-83,0,0,0,0,0,0,0,0,0,-1,1168,1107,0,0
-49,-83,0,0,0,0,0,0,0,0,0,-1,1175,1107,0,0
-42,-83,0,0,0,0,0,0,0,0,0,-1,1182,1107,0,0
-35,-83,0,0,0,0,0,0,0,0,0,-1,1189,1107,0,0
-28,-83,0,0,0,0,0,0,0,0,0,-1,1196,1107,0,0
-21,-83,0,0,0,0,0,0,0,0,0,-1,1203,1107,0,0
-14,-83,0,0,0,0,0,0,0,0,0,-1,1210,1107,0,0
-7,-83,0,0,0,0,0,0,0,0,0,-1,1217,1107,0,0
0,-83,0,0,0,0,0,0,0,0,0,-1,1224,1107,0,0
7,-83,0,0,0,0,0,0,0,0,0,-1,1231,1107,0,0
14,-83,0,0,0,0,0,0,0,0,0,-1,1238,1107,0,0
21,-83,0,0,0,0,0,0,0,0,0,-1,1245,1107,0,0
28,-83,0,0,0,0,0,0,0,0,0,-1,1252,1107,0,0
35,-83,0,0,0,0,0,0,0,0,0,-1,1259,1107,0,0
42,-83,0,0,0,0,0,0,0,0,0,-1,1266,1107,0,0
49,-83,0,0,0,0,0,0,0,0,0,-1,1273,1107,0,0
56,-83,0,0,0,0,0,0,0,0,0,-1,1280,1107,0,0
63,-83,0,0,0,0,0,0,0,0,0,-1,1287,1107,0,0
70,-83,0,0,0,0,0,0,0,0,0,-1,1294,1107,0,0
77,-83,0,0,0,0,0,0,0,0,0,-1,1301,1107,0,0
84,-83,0,0,0,0,0,0,0,0,0,-1,1308,1107,0,0
91,-83,0,0,0,0,0,0,0,0,0,-1,1315,1107,0,0
98,-83,0,0,0,0,0,0,0,0,0,-1,1322,1107,0,0
105,-83,0,0,0,0,0,0,0,0,0,-1,1329,1107,0,0
112,-83,0,0,0,0,0,0,0,0,0,-1,1336,1107,0,0
119,-83,0,0,0,0,0,0,0,0,0,-1,1343,1107,0,0
126,-83,0,0,0,0,0,0,0,0,0,-1,1350,1107,0,0
133,-83,0,0,0,0,0,0,0,0,0,-1,1357,1107,0,0
140,-83,0,0,0,0,0,0,0,0,0,-1,1364,1107,0,0
147,-83,0,0,0,0,0,0,0,0,0,-1,1371,1107,0,0
154,-83,0,0,0,0,0,0,0,0,0,-1,1378,1107,0,0
161,-83,0,0,0,0,0,0,0,0,0,-1,1385,1107,0,0
168,-83,0,0,0,0,0,0,0,0,0,-1,1392,1107,0,0
175,-83,0,0,0,0,0,0,0,0,0,-1,1399,1107,0,0
182,-83,0,0,0,0,0,0,0,0,0,-1,1406,1107,0,0
189,-83,0,0,0,0,0,0,0,0,0,-1,1413,1107,0,0
196,-83,0,0,0,0,0,0,0,0,0,-1,1420,1107,0,0
203,-83,0,0,0,0,0,0,0,0,0,-1,1427,1107,0,0
210,-83,0,0,0,0,0,0,0,0,0,-1,1434,1107,0,0
217,-83,0,0,0,0,0,0,0,0,0,-1,1441,1107,0,0
224,-83,0,0,0,0,0,0,0,0,0,-1,1448,1107,0,0
231,-83,0,0,0,0,0,0,0,0,0,-1,1455,1107,0,0
238,-83,0,0,0,0,0,0,0,0,0,-1,1462,1107,0,0
245,-83,0,0,0,0,0,0,0,0,0,-1,1469,1107,0,0
252,-83,0,0,0,0,0,0,0,0,0,-1,1476,1107,0,0
259,-83,0,0,0,0,0,0,0,0,0,-1,1483,1107,0,0
266,-83,0,0,0,0,0,0,0,0,0,-1,1490,1107,0,0
273,-83,0,0,0,0,0,0,0,0,0,-1,1497,1107,0,0
280,-83,0,0,0,0,0,0,0,0,0,-1,1504,1107,0,0
287,-83,0,0,0,0,0,0,0,0,0,-1,1511,1107,0,0
294,-83,0,0,0,0,0,0,0,0,0,-1,1518,1107,0,0
301,-83,0,0,0,0,0,0,0,0,0,-1,1525,1107,0,0
308,-83,0,0,0,0,0,0,0,0,0,-1,1532,1107,0,0
315,-83,0,0,0,0,0,0,0,0,0,-1,1539,1107,0,0
322,-83,0,0,0,0,0,0,0,0,0,-1,1546,1107,0,0
329,-83,0,0,0,0,0,0,0,0,0,-1,1553,1107,0,0
336,-83,0,0,0,0,0,0,0,0,0,-1,1560,1107,0,0
343,-83,0,0,0,0,0,0,0,0,0,-1,1567,1107,0,0
350,-83,0,0,0,0,0,0,0,0,0,-1,1574,1107,0,0
357,-83,0,0,0,0,0,0,0,0,0,-1,1581,1107,0,0
364,-83,0,0,0,0,0,0,0,0,0,-1,1588,1107,0,0
371,-83,0,0,0,0,0,0,0,0,0,-1,1595,1107,0,0
378,-83,0,0,0,0,0,0,0,0,0,-1,1602,1107,0,0
385,-83,0,0,0,0,0,0,0,0,0,-1,1609,1107,0,0
392,-83,0,0,0,0,0,0,0,0,0,-1,1616,1107,0,0
399,-83,0,0,0,0,0,0,0,0,0,-1,1623,1107,0,0
406,-83,0,0,0,0,0,0,0,0,0,-1,1630,1107,0,0
413,-83,0,0,0,0,0,0,0,0,0,-1,1637,1107,0,0
420,-83,0,0,0,0,0,0,0,0,0,-1,1644,1107,0,0
427,-83,0,0,0,0,0,0,0,0,0,-1,1651,1107,0,0
434,-83,0,0,0,0,0,0,0,0,0,-1,1658,1107,0,0
441,-83,0,0,0,0,0,0,0,0,0,-1,1665,1107,0,0
448,-83,0,0,0,0,0,0,0,0,0,-1,1672,1107,0,0
455,-83,0,0,0,0,0,0,0,0,0,-1,1679,1107,0,0
462,-83,0,0,0,0,0,0,0,0,0,-1,1686,1107,0,0
469,-83,0,0,0,0,0,0,0,0,0,-1,1693,1107,0,0
476,-83,0,0,0,0,0,0,0,0,0,-1,1700,1107,0,0
483,-83,0,0,0,0,0,0,0,0,0,-1,1707,1107,0,0
490,-83,0,0,0,0,0,0,0,0,0,-1,1714,1107,0,0
497,-83,0,0,0,0,0,0,0,0,0,-1,1721,1107,0,0
504,-83,0,0,0,0,0,0,0,0,0,-1,1728,1107,0,0
511,-83,0,0,0,0,0,0,0,0,0,-1,1735,1107,0,0
518,-83,0,0,0,0,0,0,0,0,0,-1,1742,1107,0,0
525,-83,0,0,0,0,0,0,0,0,0,-1,1749,1107,0,0
532,-83,0,0,0,0,0,0,0,0,0,-1,1756,1107,0,0
539,-83,0,0,0,0,0,0,0,0,0,-1,1763,1107,0,0
546,-83,0,0,0,0,0,0,0,0,0,-1,1770,1107,0,0
553,-83,0,0,0,0,0,0,0,0,0,-1,1777,1107,0,0
560,-83,0,0,0,0,0,0,0,0,0,-1,1784,1107,0,0
567,-83,0,0,0,0,0,0,0,0,0,-1,1791,1107,0,0
574,-83,0,0,0,0,0,0,0,0,0,-1,1798,1107,0,0
581,-83,0,0,0,0,0,0,0,0,0,-1,1805,1107,0,0
588,-83,0,0,0,0,0,0,0,0,0,-1,1812,1107,0,0
595,-83,0,0,0,0,0,0,0,0,0,-1,1819,1107,0,0
602,-83,0,0,0,0,0,0,0,0,0,-1,1826,1107,0,0
609,-83,0,0,0,0,0,0,0,0,0,-1,1833,1107,0,0
616,-83,0,0,0,0,0,0,0,0,0,-1,1840,1107,0,0
623,-83,0,0,0,0,0,0,0,0,0,-1,1847,1107,0,0
630,-83,0,0,0,0,0,0,0,0,0,-1,1854,1107,0,0
637,-83,0,0,0,0,0,0,0,0,0,-1,1861,1107,0,0
644,-83,35.5737,2.46033,0.0113444,-0.00513693,-0.00226588,0.0116502,-0.00544277,-0.134166,0.0100832,0.0369429,1868,1107,35.5738,-2.46029
651,-83,35.6151,2.62231,0.00896964,-0.00280879,-0.00160213,0.00918368,-0.00302283,-0.132809,0.00734054,0.0438007,1875,1107,35.6151,-2.62228
658,-83,35.6833,2.84033,0,0,0,0,0,0,0,-1,1882,1107,35.6833,-2.84035
665,-83,35.5498,2.32983,0.00533573,-0.00025848,-0.000463744,0.00537391,-0.000296663,-0.0821499,0.00368548,0.0417708,1889,1107,35.5498,-2.32982
672,-83,35.4641,2.18286,0.00396423,0.000196618,0.000239318,0.00397937,0.000181478,0.0631812,0.00259454,0.0406852,1896,1107,35.4641,-2.1828
679,-83,35.5743,2.3125,0.00260886,0.000215867,0.000979119,0.00295841,-0.00013369,0.342907,0.00201831,0.0394684,1903,1107,35.5744,-2.31251
686,-83,35.7096,2.39319,0.00144354,-9.44096e-05,0.00155622,0.0024104,-0.00106127,0.555928,0.0020542,0.0361123,1910,1107,35.7095,-2.39313
693,-83,35.7709,2.37476,0.000635912,-0.000505649,0.00196448,0.00211086,-0.00198059,0.644016,0.0023626,0.0364235,1917,1107,35.7709,-2.37477
700,-83,35.679,2.44312,-4.44428e-05,-0.000779559,0.00221044,0.00182879,-0.00265279,0.70301,0.00260198,0.031714,1924,1107,35.679,-2.44312
707,-83,35.6078,2.46497,-0.000668565,-0.000955267,0.00244391,0.00163619,-0.00326002,0.756103,0.00287818,0.0250199,1931,1107,35.6078,-2.46501
714,-83,35.5959,2.44006,0,0,0,0,0,0,0,-1,1938,1107,35.596,-2.44008
721,-83,33.9894,5.65076,0,0,0,0,0,0,0,-1,1945,1107,33.9894,-5.6507
728,-83,33.9534,5.4823,-0.0020353,-0.00122092,0.00269413,0.00109662,-0.00435283,0.860401,0.0033282,0.0286098,1952,1107,33.9534,-5.48231
735,-83,33.7605,5.2489,-0.00252139,-0.000941409,0.00233204,0.000730818,-0.00419361,0.948709,0.0030685,0.0311994,1959,1107,33.7605,-5.24891
742,-83,33.9126,5.06165,-0.00309784,0.000506955,0.0018198,0.00126587,-0.00385675,1.1757,0.00308106,0.0185627,1966,1107,33.9126,-5.0616
749,-83,33.9463,4.87488,-0.00464106,0.00309945,0.00124711,0.00329542,-0.00483703,1.41493,0.00472331,0.0137623,1973,1107,33.9463,-4.87486
756,-83,33.9666,4.68481,-0.00645372,0.00675917,0.00018673,0.00676181,-0.00645636,1.55667,0.00763219,0.0148167,1980,1107,33.9665,-4.68476
763,-83,33.9517,4.48193,-0.00902611,0.0113985,-0.00217927,0.0116284,-0.00925605,-1.46567,0.0120836,0.0112409,1987,1107,33.9517,-4.48199
770,-83,33.8768,4.35461,-0.012807,0.0180098,-0.00496281,0.0187893,-0.0135865,-1.415,0.0187725,0.0139654,1994,1107,33.8768,-4.35461
777,-83,33.8037,4.20508,-0.0176772,0.0261384,-0.0084686,0.0277183,-0.019257,-1.38636,0.0272675,0.0163699,2001,1107,33.8037,-4.20512
784,-83,33.7717,4.08105,-0.0235448,0.0354372,-0.0127795,0.038087,-0.0261947,-1.36634,0.0373242,0.0253376,2008,1107,33.7718,-4.08103
791,-83,33.6387,4.7157,0,0,0,0,0,0,0,-1,2015,1107,33.6387,-4.71568
798,-83,37.825,5.42603,-0.039458,0.0585885,-0.0253988,0.0647774,-0.0456469,-1.33179,0.0640716,0.0465786,2022,1107,37.8251,-5.42604
805,-83,33.5593,3.33862,-0.0493692,0.0722723,-0.0344353,0.081344,-0.0584409,-1.31321,0.0810652,0.0450988,2029,1107,33.5594,-3.33863
812,-83,33.418,1.97913,-0.0604468,0.0867662,-0.0458555,0.0998814,-0.0735619,-1.29222,0.100521,0.0468289,2036,1107,33.4179,-1.97917
-700,-90,0,0,0,0,0,0,0,0,0,-1,524,1114,0,0
-693,-90,-27.249,0.349976,0,0,0,0,0,0,0,-1,531,1114,-27.249,-0.349988
-686,-90,-26.6511,0.442505,0.0625156,0.0412125,-0.00847839,0.0654779,0.0382501,-0.336142,0.0379818,0.0449963,538,1114,-26.6511,-0.442529
-679,-90,-26.0767,0.526611,0.0563819,0.0344155,-0.00294092,0.0567688,0.0340286,-0.130814,0.0329908,0.0430857,545,1114,-26.0767,-0.526631
-672,-90,-25.4769,0.565796,0.0490953,0.0281817,0.000974505,0.0491406,0.0281364,0.0464626,0.0284708,0.0422369,552,1114,-25.4768,-0.565743
-665,-90,-25.0223,0.275391,0.0412893,0.02262,0.0034877,0.0419196,0.0219897,0.178784,0.024212,0.0452295,559,1114,-25.0224,-0.275407
-658,-90,-24.488,0.287842,0.0334793,0.0177682,0.00479873,0.034829,0.0164185,0.274189,0.0201195,0.0443085,566,1114,-24.488,-0.287837
-651,-90,-23.9641,0.84436,0.0262031,0.013606,0.00517744,0.0280579,0.0117512,0.344008,0.0162703,0.0302536,573,1114,-23.9641,-0.844348
-644,-90,-23.9651,1.23218,0.0199812,0.010215,0.00447858,0.021724,0.00847219,0.371107,0.0126431,0.0137825,580,1114,-23.9651,-1.23217
-637,-90,-23.9875,1.54126,0.013841,0.00662315,0.00362535,0.0153475,0.00511665,0.393835,0.00902337,0.0124542,587,1114,-23.9875,-1.54132
-630,-90,-23.9958,1.78235,0.00851402,0.00356984,0.00226807,0.00939683,0.00268703,0.371192,0.00558852,0.0120048,594,1114,-23.9959,-1.78229
-623,-90,-23.9907,2.01172,0.0048456,0.00119852,0.000283104,0.00486744,0.00117667,0.0770102,0.00293251,0.00998307,601,1114,-23.9907,-2.01174
-616,-90,-24.0023,2.26904,0.00241725,0.000171592,-0.00142597,0.0031094,-0.000520549,-0.451887,0.00226646,0.0104389,608,1114,-24.0023,-2.26901
-609,-90,-24.0121,2.46704,0.00153837,-0.000621723,-0.0026565,0.00332598,-0.00240933,-0.59232,0.00332536,0.0143886,615,1114,-24.0121,-2.46706
-602,-90,-24.0703,2.68933,0.00100311,-0.000885786,-0.0035124,0.00369582,-0.0035785,-0.65406,0.00420001,0.0156973,622,1114,-24.0703,-2.68936
-595,-90,-23.9456,2.99585,0.000468632,-0.000948292,-0.00411324,0.00393397,-0.00441364,-0.700115,0.00482215,0.0136813,629,1114,-23.9455,-2.9958
-588,-90,-23.8705,3.25464,0,0,0,0,0,0,0,-1,636,1114,-23.8705,-3.25465
-581,-90,-25.7434,0.618774,0,0,0,0,0,0,0,-1,643,1114,-25.7434,-0.618748
-574,-90,-25.7246,0.669556,-1.69167e-05,-0.00076636,-0.00422656,0.0038515,-0.00463478,-0.741184,0.00490651,0.0351438,650,1114,-25.7246,-0.669498
-567,-90,-25.7565,0.681396,-0.000283648,-0.000432489,-0.00407673,0.00371935,-0.00443548,-0.776272,0.00471424,0.0351972,657,1114,-25.7565,-0.68136
-560,-90,-25.7489,0.594604,-0.0007847,3.37809e-05,-0.00371828,0.00336527,-0.00411619,-0.840208,0.00432667,0.0386673,664,1114,-25.7489,-0.594571
-553,-90,-25.5402,0.702759,-0.00180738,0.000569398,-0.00311785,0.00271766,-0.00395565,-0.967477,0.00387487,0.0395084,671,1114,-25.5402,-0.702805
-546,-90,-25.4902,0.783203,-0.00348696,0.00101149,-0.00212691,0.00185787,-0.00433333,-1.19207,0.0036685,0.0416254,678,1114,-25.4901,-0.783245
-539,-90,-25.5347,0.459229,-0.00577638,0.000917203,-0.000831075,0.00101885,-0.00587802,-1.4491,0.00429873,0.0439424,685,1114,-25.5347,-0.459186
-532,-90,-25.6542,0.525635,-0.00895538,-0.000206307,-0.000609384,-0.000164066,-0.00899762,-1.50159,0.00594448,0.0443456,692,1114,-25.6542,-0.525667
-525,-90,0,0,0,0,0,0,0,0,0,-1,699,1114,0,0
-518,-90,0,0,0,0,0,0,0,0,0,-1,706,1114,0,0
-511,-90,0,0,0,0,0,0,0,0,0,-1,713,1114,0,0
-504,-90,0,0,0,0,0,0,0,0,0,-1,720,1114,0,0
-497,-90,0,0,0,0,0,0,0,0,0,-1,727,1114,0,0
-490,-90,0,0,0,0,0,0,0,0,0,-1,734,1114,0,0
-483,-90,0,0,0,0,0,0,0,0,0,-1,741,1114,0,0
-476,-90,0,0,0,0,0,0,0,0,0,-1,748,1114,0,0
-469,-90,0,0,0,0,0,0,0,0,0,-1,755,1114,0,0
-462,-90,0,0,0,0,0,0,0,0,0,-1,762,1114,0,0
-455,-90,0,0,0,0,0,0,0,0,0,-1,769,1114,0,0
-448,-90,0,0,0,0,0,0,0,0,0,-1,776,1114,0,0
-441,-90,0,0,0,0,0,0,0,0,0,-1,783,1114,0,0
-434,-90,0,0,0,0,0,0,0,0,0,-1,790,1114,0,0
-427,-90,0,0,0,0,0,0,0,0,0,-1,797,1114,0,0
-420,-90,0,0,0,0,0,0,0,0,0,-1,804,1114,0,0
-413,-90,0,0,0,0,0,0,0,0,0,-1,811,1114,0,0
-406,-90,0,0,0,0,0,0,0,0,0,-1,818,1114,0,0
-399,-90,0,0,0,0,0,0,0,0,0,-1,825,1114,0,0
-392,-90,0,0,0,0,0,0,0,0,0,-1,832,1114,0,0
-385,-90,0,0,0,0,0,0,0,0,0,-1,839,1114,0,0
-378,-90,0,0,0,0,0,0,0,0,0,-1,846,1114,0,0
-371,-90,0,0,0,0,0,0,0,0,0,-1,853,1114,0,0
-364,-90,0,0,0,0,0,0,0,0,0,-1,860,1114,0,0
-357,-90,0,0,0,0,0,0,0,0,0,-1,867,1114,0,0
-350,-90,0,0,0,0,0,0,0,0,0,-1,874,1114,0,0
-343,-90,0,0,0,0,0,0,0,0,0,-1,881,1114,0,0
-336,-90,0,0,0,0,0,0,0,0,0,-1,888,1114,0,0
-329,-90,0,0,0,0,0,0,0,0,0,-1,895,1114,0,0
-322,-90,0,0,0,0,0,0,0,0,0,-1,902,1114,0,0
-315,-90,0,0,0,0,0,0,0,0,0,-1,909,1114,0,0
-308,-90,0,0,0,0,0,0,0,0,0,-1,916,1114,0,0
-301,-90,0,0,0,0,0,0,0,0,0,-1,923,1114,0,0
-294,-90,0,0,0,0,0,0,0,0,0,-1,930,1114,0,0
-287,-90,0,0,0,0,0,0,0,0,0,-1,937,1114,0,0
-280,-90,0,0,0,0,0,0,0,0,0,-1,944,1114,0,0
-273,-90,0,0,0,0,0,0,0,0,0,-1,951,1114,0,0
-266,-90,0,0,0,0,0,0,0,0,0,-1,958,1114,0,0
-259,-90,0,0,0,0,0,0,0,0,0,-1,965,1114,0,0
-252,-90,0,0,0,0,0,0,0,0,0,-1,972,1114,0,0
-245,-90,0,0,0,0,0,0,0,0,0,-1,979,1114,0,0
-238,-90,0,0,0,0,0,0,0,0,0,-1,986,1114,0,0
-231,-90,0,0,0,0,0,0,0,0,0,-1,993,1114,0,0
-224,-90,0,0,0,0,0,0,0,0,0,-1,1000,1114,0,0
-217,-90,0,0,0,0,0,0,0,0,0,-1,1007,1114,0,0
-210,-90,0,0,0,0,0,0,0,0,0,-1,1014,1114,0,0
-203,-90,0,0,0,0,0,0,0,0,0,-1,1021,1114,0,0
-196,-90,0,0,0,0,0,0,0,0,0,-1,1028,1114,0,0
-189,-90,0,0,0,0,0,0,0,0,0,-1,1035,1114,0,0
-182,-90,0,0,0,0,0,0,0,0,0,-1,1042,1114,0,0
-175,-90,0,0,0,0,0,0,0,0,0,-1,1049,1114,0,0
-168,-90,0,0,0,0,0,0,0,0,0,-1,1056,1114,0,0
-161,-90,0,0,0,0,0,0,0,0,0,-1,1063,1114,0,0
-154,-90,0,0,0,0,0,0,0,0,0,-1,1070,1114,0,0
-147,-90,0,0,0,0,0,0,0,0,0,-1,1077,1114,0,0
-140,-90,0,0,0,0,0,0,0,0,0,-1,1084,1114,0,0
-133,-90,0,0,0,0,0,0,0,0,0,-1,1091,1114,0,0
-126,-90,0,0,0,0,0,0,0,0,0,-1,1098,1114,0,0
-119,-90,0,0,0,0,0,0,0,0,0,-1,1105,1114,0,0
-112,-90,0,0,0,0,0,0,0,0,0,-1,1112,1114,0,0
-105,-90,0,0,0,0,0,0,0,0,0,-1,1119,1114,0,0
-98,-90,0,0,0,0,0,0,0,0,0,-1,1126,1114,0,0
-91,-90,0,0,0,0,0,0,0,0,0,-1,1133,1114,0,0
-84,-90,0,0,0,0,0,0,0,0,0,-1,1140,1114,0,0
-77,-90,0,0,0,0,0,0,0,0,0,-1,1147,1114,0,0
-70,-90,0,0,0,0,0,0,0,0,0,-1,1154,1114,0,0
-63,-90,0,0,0,0,0,0,0,0,0,-1,1161,1114,0,0
-56,-90,0,0,0,0,0,0,0,0,0,-1,1168,1114,0,0
-49,-90,0,0,0,0,0,0,0,0,0,-1,1175,1114,0,0
-42,-90,0,0,0,0,0,0,0,0,0,-1,1182,1114,0,0
-35,-90,0,0,0,0,0,0,0,0,0,-1,1189,1114,0,0
-28,-90,0,0,0,0,0,0,0,0,0,-1,1196,1114,0,0
-21,-90,0,0,0,0,0,0,0,0,0,-1,1203,1114,0,0
-14,-90,0,0,0,0,0,0,0,0,0,-1,1210,1114,0,0
-7,-90,0,0,0,0,0,0,0,0,0,-1,1217,1114,0,0
0,-90,0,0,0,0,0,0,0,0,0,-1,1224,1114,0,0
7,-90,0,0,0,0,0,0,0,0,0,-1,1231,1114,0,0
14,-90,0,0,0,0,0,0,0,0,0,-1,1238,1114,0,0
21,-90,0,0,0,0,0,0,0,0,0,-1,1245,1114,0,0
28,-90,0,0,0,0,0,0,0,0,0,-1,1252,1114,0,0
35,-90,0,0,0,0,0,0,0,0,0,-1,1259,1114,0,0
42,-90,0,0,0,0,0,0,0,0,0,-1,1266,1114,0,0
49,-90,0,0,0,0,0,0,0,0,0,-1,1273,1114,0,0
56,-90,0,0,0,0,0,0,0,0,0,-1,1280,1114,0,0
63,-90,0,0,0,0,0,0,0,0,0,-1,1287,1114,0,0
70,-90,0,0,0,0,0,0,0,0,0,-1,1294,1114,0,0
77,-90,0,0,0,0,0,0,0,0,0,-1,1301,1114,0,0
84,-90,0,0,0,0,0,0,0,0,0,-1,1308,1114,0,0
91,-90,0,0,0,0,0,0,0,0,0,-1,1315,1114,0,0
98,-90,0,0,0,0,0,0,0,0,0,-1,1322,1114,0,0
105,-90,0,0,0,0,0,0,0,0,0,-1,1329,1114,0,0
112,-90,0,0,0,0,0,0,0,0,0,-1,1336,1114,0,0
119,-90,0,0,0,0,0,0,0,0,0,-1,1343,1114,0,0
126,-90,0,0,0,0,0,0,0,0,0,-1,1350,1114,0,0
133,-90,0,0,0,0,0,0,0,0,0,-1,1357,1114,0,0
140,-90,0,0,0,0,0,0,0,0,0,-1,1364,1114,0,0
147,-90,0,0,0,0,0,0,0,0,0,-1,1371,1114,0,0
154,-90,0,0,0,0,0,0,0,0,0,-1,1378,1114,0,0
161,-90,0,0,0,0,0,0,0,0,0,-1,1385,1114,0,0
168,-90,0,0,0,0,0,0,0,0,0,-1,1392,1114,0,0
175,-90,0,0,0,0,0,0,0,0,0,-1,1399,1114,0,0
182,-90,0,0,0,0,0,0,0,0,0,-1,1406,1114,0,0
189,-90,0,0,0,0,0,0,0,0,0,-1,1413,1114,0,0
196,-90,0,0,0,0,0,0,0,0,0,-1,1420,1114,0,0
203,-90,0,0,0,0,0,0,0,0,0,-1,1427,1114,0,0
210,-90,0,0,0,0,0,0,0,0,0,-1,1434,1114,0,0
217,-90,0,0,0,0,0,0,0,0,0,-1,1441,1114,0,0
224,-90,0,0,0,0,0,0,0,0,0,-1,1448,1114,0,0
231,-90,0,0,0,0,0,0,0,0,0,-1,1455,1114,0,0
238,-90,0,0,0,0,0,0,0,0,0,-1,1462,1114,0,0
245,-90,0,0,0,0,0,0,0,0,0,-1,1469,1114,0,0
252,-90,0,0,0,0,0,0,0,0,0,-1,1476,1114,0,0
259,-90,0,0,0,0,0,0,0,0,0,-1,1483,1114,0,0
266,-90,0,0,0,0,0,0,0,0,0,-1,1490,1114,0,0
273,-90,0,0,0,0,0,0,0,0,0,-1,1497,1114,0,0
280,-90,0,0,0,0,0,0,0,0,0,-1,1504,1114,0,0
287,-90,0,0,0,0,0,0,0,0,0,-1,1511,1114,0,0
294,-90,0,0,0,0,0,0,0,0,0,-1,1518,1114,0,0
301,-90,0,0,0,0,0,0,0,0,0,-1,1525,1114,0,0
308,-90,0,0,0,0,0,0,0,0,0,-1,1532,1114,0,0
315,-90,0,0,0,0,0,0,0,0,0,-1,1539,1114,0,0
322,-90,0,0,0,0,0,0,0,0,0,-1,1546,1114,0,0
329,-90,0,0,0,0,0,0,0,0,0,-1,1553,1114,0,0
336,-90,0,0,0,0,0,0,0,0,0,-1,1560,1114,0,0
343,-90,0,0,0,0,0,0,0,0,0,-1,1567,1114,0,0
350,-90,0,0,0,0,0,0,0,0,0,-1,1574,1114,0,0
357,-90,0,0,0,0,0,0,0,0,0,-1,1581,1114,0,0
364,-90,0,0,0,0,0,0,0,0,0,-1,1588,1114,0,0
371,-90,0,0,0,0,0,0,0,0,0,-1,1595,1114,0,0
378,-90,0,0,0,0,0,0,0,0,0,-1,1602,1114,0,0
385,-90,0,0,0,0,0,0,0,0,0,-1,1609,1114,0,0
392,-90,0,0,0,0,0,0,0,0,0,-1,1616,1114,0,0
399,-90,0,0,0,0,0,0,0,0,0,-1,1623,1114,0,0
406,-90,0,0,0,0,0,0,0,0,0,-1,1630,1114,0,0
413,-90,0,0,0,0,0,0,0,0,0,-1,1637,1114,0,0
420,-90,0,0,0,0,0,0,0,0,0,-1,1644,1114,0,0
427,-90,0,0,0,0,0,0,0,0,0,-1,1651,1114,0,0
434,-90,0,0,0,0,0,0,0,0,0,-1,1658,1114,0,0
441,-90,0,0,0,0,0,0,0,0,0,-1,1665,1114,0,0
448,-90,0,0,0,0,0,0,0,0,0,-1,1672,1114,0,0
455,-90,0,0,0,0,0,0,0,0,0,-1,1679,1114,0,0
462,-90,0,0,0,0,0,0,0,0,0,-1,1686,1114,0,0
469,-90,0,0,0,0,0,0,0,0,0,-1,1693,1114,0,0
476,-90,0,0,0,0,0,0,0,0,0,-1,1700,1114,0,0
483,-90,0,0,0,0,0,0,0,0,0,-1,1707,1114,0,0
490,-90,0,0,0,0,0,0,0,0,0,-1,1714,1114,0,0
497,-90,0,0,0,0,0,0,0,0,0,-1,1721,1114,0,0
504,-90,0,0,0,0,0,0,0,0,0,-1,1728,1114,0,0
511,-90,0,0,0,0,0,0,0,0,0,-1,1735,1114,0,0
518,-90,0,0,0,0,0,0,0,0,0,-1,1742,1114,0,0
525,-90,0,0,0,0,0,0,0,0,0,-1,1749,1114,0,0
532,-90,0,0,0,0,0,0,0,0,0,-1,1756,1114,0,0
539,-90,0,0,0,0,0,0,0,0,0,-1,1763,1114,0,0
546,-90,0,0,0,0,0,0,0,0,0,-1,1770,1114,0,0
553,-90,0,0,0,0,0,0,0,0,0,-1,1777,1114,0,0
560,-90,0,0,0,0,0,0,0,0,0,-1,1784,1114,0,0
567,-90,0,0,0,0,0,0,0,0,0,-1,1791,1114,0,0
574,-90,0,0,0,0,0,0,0,0,0,-1,1798,1114,0,0
581,-90,0,0,0,0,0,0,0,0,0,-1,1805,1114,0,0
588,-90,0,0,0,0,0,0,0,0,0,-1,1812,1114,0,0
595,-90,0,0,0,0,0,0,0,0,0,-1,1819,1114,0,0
602,-90,0,0,0,0,0,0,0,0,0,-1,1826,1114,0,0
609,-90,0,0,0,0,0,0,0,0,0,-1,1833,1114,0,0
616,-90,0,0,0,0,0,0,0,0,0,-1,1840,1114,0,0
623,-90,0,0,0,0,0,0,0,0,0,-1,1847,1114,0,0
630,-90,0,0,0,0,0,0,0,0,0,-1,1854,1114,0,0
637,-90,0,0,0,0,0,0,0,0,0,-1,1861,1114,0,0
644,-90,35.5221,2.38916,0.0102307,-0.00474902,-0.00354442,0.0110271,-0.00554534,-0.221001,0.00974099,0.0356788,1868,1114,35.522,-2.3891
651,-90,35.5878,2.59082,0.00790014,-0.00277298,-0.00267282,0.00853207,-0.0034049,-0.232164,0.00710056,0.040777,1875,1114,35.5878,-2.59076
658,-90,35.71,2.70215,0,0,0,0,0,0,0,-1,1882,1114,35.71,-2.70209
665,-90,35.5647,1.95105,0.00461478,-0.000587273,-0.00113236,0.00485058,-0.00082307,-0.205302,0.00354012,0.042859,1889,1114,35.5647,-1.95107
672,-90,35.4739,2.17419,0.00340277,-0.000175838,-0.000319616,0.00343109,-0.000204159,-0.0883807,0.00235839,0.0434892,1896,1114,35.4738,-2.17425
679,-90,35.5303,2.41846,0.00219912,-0.000156954,0.000465136,0.00228762,-0.000245457,0.188025,0.00161314,0.0394673,1903,1114,35.5303,-2.41843
686,-90,35.6569,2.53906,0.00119963,-0.0004149,0.00103615,0.00170587,-0.000921135,0.454464,0.00153909,0.0348359,1910,1114,35.6568,-2.53902
693,-90,35.6798,2.52051,0.000535468,-0.000744898,0.00142794,0.00146016,-0.00166959,0.574667,0.00180831,0.0346963,1917,1114,35.6798,-2.52048
700,-90,35.6563,2.48425,-6.54502e-05,-0.000947665,0.00166495,0.00121583,-0.00222895,0.655904,0.00201731,0.0307729,1924,1114,35.6563,-2.48429
707,-90,35.5873,2.4176,-0.000599848,-0.00106889,0.00191156,0.00109152,-0.00276026,0.72436,0.00229234,0.0252116,1931,1114,35.5872,-2.41755
714,-90,35.5648,2.29419,0,0,0,0,0,0,0,-1,1938,1114,35.5648,-2.29413
721,-90,33.759,5.71643,0,0,0,0,0,0,0,-1,1945,1114,33.759,-5.71637
728,-90,33.719,5.5647,-0.00183407,-0.00116832,0.0022518,0.000775077,-0.00377746,0.85878,0.0028125,0.0229483,1952,1114,33.719,-5.56464
735,-90,33.5939,5.32153,-0.00239289,-0.000929355,0.00194071,0.000412961,-0.00373521,0.965687,0.00263859,0.0269355,1959,1114,33.5939,-5.32156
742,-90,33.6752,5.07458,-0.00306328,0.000547245,0.00145036,0.00105769,-0.00357373,1.23239,0.00280239,0.0232867,1966,1114,33.6752,-5.07461
749,-90,33.8306,4.80994,-0.00471582,0.00327197,0.000991701,0.00339325,-0.0048371,1.44911,0.0047761,0.0166757,1973,1114,33.8306,-4.8099
756,-90,33.8046,4.63245,-0.00669123,0.00709728,1.62929e-05,0.0070973,-0.00669125,1.56961,0.00796197,0.0154939,1980,1114,33.8046,-4.63248
763,-90,33.757,4.4613,-0.00950495,0.0120419,-0.00218748,0.0122618,-0.00972478,-1.47064,0.0127221,0.0118064,1987,1114,33.757,-4.46127
770,-90,33.7175,4.27795,-0.0136067,0.0190889,-0.0048124,0.0197825,-0.0143003,-1.42765,0.0197624,0.0147046,1994,1114,33.7175,-4.27793
777,-90,33.6649,4.13635,-0.0187775,0.0276426,-0.00813469,0.0290268,-0.0201617,-1.40224,0.0285523,0.0148455,2001,1114,33.6649,-4.13635
784,-90,33.6401,4.01575,-0.0250017,0.0375359,-0.0123003,0.0398682,-0.027334,-1.38341,0.0390235,0.027101,2008,1114,33.6401,-4.01572
791,-90,33.4595,4.40222,-0.0326907,0.0491295,-0.0176777,0.0527855,-0.0363467,-1.36686,0.0517514,0.0416047,2015,1114,33.4595,-4.40218
798,-90,33.3647,4.35608,-0.0416875,0.0624316,-0.0246172,0.0679585,-0.0472145,-1.34994,0.0668537,0.0448088,2022,1114,33.3648,-4.35612
805,-90,33.3882,3.28918,-0.0519661,0.0771347,-0.0334505,0.085287,-0.0601184,-1.33174,0.084368,0.0458001,2029,1114,33.3882,-3.2892
812,-90,33.3884,2.23254,0,0,0,0,0,0,0,-1,2036,1114,33.3883,-2.2325
-700,-97,0,0,0,0,0,0,0,0,0,-1,524,1121,0,0
-693,-97,-26.9526,0.0187988,0,0,0,0,0,0,0,-1,531,1121,-26.9526,-0.0188476
-686,-97,-26.3124,0.101074,0.0732291,0.0491099,-0.016684,0.0817557,0.0405834,-0.472457,0.0472021,0.0486126,538,1121,-26.3124,-0.101025
-679,-97,-25.7684,0.189453,0.0654682,0.0391119,-0.00963389,0.0686141,0.035966,-0.315632,0.0396298,0.0466666,545,1121,-25.7684,-0.189503
-672,-97,-25.1757,0.263794,0.0565432,0.0305855,-0.00438424,0.0572637,0.029865,-0.162882,0.0330714,0.042824,552,1121,-25.1756,-0.263849
-665,-97,-24.5603,-0.297119,0,0,0,0,0,0,0,-1,559,1121,-24.5603,0.297156
-658,-97,-24.2009,0.23291,0.0379848,0.0176368,0.00158564,0.0381076,0.017514,0.0773043,0.0220254,0.0455778,566,1121,-24.2009,-0.232863
-651,-97,-23.7367,0.817749,0.0294717,0.0129321,0.00277002,0.0299233,0.0124805,0.161605,0.0173552,0.030136,573,1121,-23.7367,-0.817713
-644,-97,-23.7343,1.2323,0.022201,0.00930151,0.00279456,0.0227804,0.00872211,0.204432,0.013272,0.0112327,580,1121,-23.7343,-1.23229
-637,-97,-23.7504,1.52173,0.0151479,0.00546922,0.00272608,0.0158629,0.00475421,0.256504,0.00940023,0.0123545,587,1121,-23.7504,-1.52177
-630,-97,-23.7603,1.75061,0.00906355,0.00257085,0.0019086,0.00958304,0.00205136,0.265746,0.00582655,0.0104195,594,1121,-23.7602,-1.75058
-623,-97,-23.752,1.99109,0.00481526,0.000557676,0.000288584,0.00483473,0.000538205,0.0673706,0.00305957,0.0113736,601,1121,-23.752,-1.99103
-616,-97,-23.7595,2.26282,0.00224213,-0.000305062,-0.00109238,0.00264644,-0.000709365,-0.354478,0.00204223,0.0149709,608,1121,-23.7595,-2.26284
-609,-97,-23.8078,2.51501,0.0014161,-0.000885879,-0.00203203,0.00260048,-0.00207026,-0.527716,0.00270243,0.0197815,615,1121,-23.8078,-2.51496
-602,-97,-23.8317,2.70886,0.000929962,-0.00108208,-0.00274813,0.00285042,-0.00300254,-0.609936,0.00337959,0.0183581,622,1121,-23.8317,-2.70882
-595,-97,-23.73,2.96838,0.000342141,-0.00107197,-0.00328212,0.0029925,-0.00372233,-0.679306,0.00388443,0.0159711,629,1121,-23.7301,-2.96844
-588,-97,-23.7222,3.23254,0,0,0,0,0,0,0,-1,636,1121,-23.7222,-3.23259
-581,-97,-25.7965,0.562622,0,0,0,0,0,0,0,-1,643,1121,-25.7965,-0.562602
-574,-97,-25.7311,0.643677,-6.53892e-05,-0.000851721,-0.00324606,0.00281123,-0.00372834,-0.725131,0.00378797,0.0426639,650,1121,-25.7311,-0.643664
-567,-97,-25.6916,0.65332,-0.000222967,-0.000535384,-0.00312756,0.00275228,-0.00351063,-0.760446,0.00362472,0.0377952,657,1121,-25.6916,-0.653301
-560,-97,-25.6658,0.70166,-0.000583271,-7.66363e-05,-0.00284552,0.00252682,-0.00318673,-0.829793,0.00330604,0.040692,664,1121,-25.6658,-0.701613
-553,-97,-25.5849,0.682373,-0.00151257,0.00048756,-0.00236204,0.00205252,-0.00307753,-0.985651,0.00298148,0.0426231,671,1121,-25.5849,-0.682421
-546,-97,-25.5148,0.625366,-0.00318621,0.00101446,-0.00151708,0.00150506,-0.00367681,-1.25803,0.00307809,0.0425625,678,1121,-25.5148,-0.625333
-539,-97,-25.5242,0.421753,-0.00562749,0.00106139,-0.000200714,0.0010674,-0.00563351,-1.54083,0.0041574,0.0423179,685,1121,-25.5243,-0.4218
-532,-97,-25.7014,0.46167,-0.00882598,0.000276197,0.000534179,0.00030744,-0.00885723,1.51238,0.00600992,0.0406233,692,1121,-25.7014,-0.461688
-525,-97,0,0,0,0,0,0,0,0,0,-1,699,1121,0,0
-518,-97,0,0,0,0,0,0,0,0,0,-1,706,1121,0,0
-511,-97,0,0,0,0,0,0,0,0,0,-1,713,1121,0,0
-504,-97,0,0,0,0,0,0,0,0,0,-1,720,1121,0,0
-497,-97,0,0,0,0,0,0,0,0,0,-1,727,1121,0,0
-490,-97,0,0,0,0,0,0,0,0,0,-1,734,1121,0,0
-483,-97,0,0,0,0,0,0,0,0,0,-1,741,1121,0,0
-476,-97,0,0,0,0,0,0,0,0,0,-1,748,1121,0,0
-469,-97,0,0,0,0,0,0,0,0,0,-1,755,1121,0,0
-462,-97,0,0,0,0,0,0,0,0,0,-1,762,1121,0,0
-455,-97,0,0,0,0,0,0,0,0,0,-1,769,1121,0,0
-448,-97,0,0,0,0,0,0,0,0,0,-1,776,1121,0,0
-441,-97,0,0,0,0,0,0,0,0,0,-1,783,1121,0,0
-434,-97,0,0,0,0,0,0,0,0,0,-1,790,1121,0,0
-427,-97,0,0,0,0,0,0,0,0,0,-1,797,1121,0,0
-420,-97,0,0,0,0,0,0,0,0,0,-1,804,1121,0,0
-413,-97,0,0,0,0,0,0,0,0,0,-1,811,1121,0,0
-406,-97,0,0,0,0,0,0,0,0,0,-1,818,1121,0,0
-399,-97,0,0,0,0,0,0,0,0,0,-1,825,1121,0,0
-392,-97,0,0,0,0,0,0,0,0,0,-1,832,1121,0,0
-385,-97,0,0,0,0,0,0,0,0,0,-1,839,1121,0,0
-378,-97,0,0,0,0,0,0,0,0,0,-1,846,1121,0,0
-371,-97,0,0,0,0,0,0,0,0,0,-1,853,1121,0,0
-364,-97,0,0,0,0,0,0,0,0,0,-1,860,1121,0,0
-357,-97,0,0,0,0,0,0,0,0,0,-1,867,1121,0,0
-350,-97,0,0,0,0,0,0,0,0,0,-1,874,1121,0,0
-343,-97,0,0,0,0,0,0,0,0,0,-1,881,1121,0,0
-336,-97,0,0,0,0,0,0,0,0,0,-1,888,1121,0,0
-329,-97,0,0,0,0,0,0,0,0,0,-1,895,1121,0,0
-322,-97,0,0,0,0,0,0,0,0,0,-1,902,1121,0,0
-315,-97,0,0,0,0,0,0,0,0,0,-1,909,1121,0,0
-308,-97,0,0,0,0,0,0,0,0,0,-1,916,1121,0,0
-301,-97,0,0,0,0,0,0,0,0,0,-1,923,1121,0,0
-294,-97,0,0,0,0,0,0,0,0,0,-1,930,1121,0,0
-287,-97,0,0,0,0,0,0,0,0,0,-1,937,1121,0,0
-280,-97,0,0,0,0,0,0,0,0,0,-1,944,1121,0,0
-273,-97,0,0,0,0,0,0,0,0,0,-1,951,1121,0,0
-266,-97,0,0,0,0,0,0,0,0,0,-1,958,1121,0,0
-259,-97,0,0,0,0,0,0,0,0,0,-1,965,1121,0,0
-252,-97,0,0,0,0,0,0,0,0,0,-1,972,1121,0,0
-245,-97,0,0,0,0,0,0,0,0,0,-1,979,1121,0,0
-238,-97,0,0,0,0,0,0,0,0,0,-1,986,1121,0,0
-231,-97,0,0,0,0,0,0,0,0,0,-1,993,1121,0,0
-224,-97,0,0,0,0,0,0,0,0,0,-1,1000,1121,0,0
-217,-97,0,0,0,0,0,0,0,0,0,-1,1007,1121,0,0
-210,-97,0,0,0,0,0,0,0,0,0,-1,1014,1121,0,0
-203,-97,0,0,0,0,0,0,0,0,0,-1,1021,1121,0,0
-196,-97,0,0,0,0,0,0,0,0,0,-1,1028,1121,0,0
-189,-97,0,0,0,0,0,0,0,0,0,-1,1035,1121,0,0
-182,-97,0,0,0,0,0,0,0,0,0,-1,1042,1121,0,0
-175,-97,0,0,0,0,0,0,0,0,0,-1,1049,1121,0,0
-168,-97,0,0,0,0,0,0,0,0,0,-1,1056,1121,0,0
-161,-97,0,0,0,0,0,0,0,0,0,-1,1063,1121,0,0
-154,-97,0,0,0,0,0,0,0,0,0,-1,1070,1121,0,0
-147,-97,0,0,0,0,0,0,0,0,0,-1,1077,1121,0,0
-140,-97,0,0,0,0,0,0,0,0,0,-1,1084,1121,0,0
-133,-97,0,0,0,0,0,0,0,0,0,-1,1091,1121,0,0
-126,-97,0,0,0,0,0,0,0,0,0,-1,1098,1121,0,0
-119,-97,0,0,0,0,0,0,0,0,0,-1,1105,1121,0,0
-112,-97,0,0,0,0,0,0,0,0,0,-1,1112,1121,0,0
-105,-97,0,0,0,0,0,0,0,0,0,-1,1119,1121,0,0
-98,-97,0,0,0,0,0,0,0,0,0,-1,1126,1121,0,0
-91,-97,0,0,0,0,0,0,0,0,0,-1,1133,1121,0,0
-84,-97,0,0,0,0,0,0,0,0,0,-1,1140,1121,0,0
-77,-97,0,0,0,0,0,0,0,0,0,-1,1147,1121,0,0
-70,-97,0,0,0,0,0,0,0,0,0,-1,1154,1121,0,0
-63,-97,0,0,0,0,0,0,0,0,0,-1,1161,1121,0,0
-56,-97,0,0,0,0,0,0,0,0,0,-1,1168,1121,0,0
-49,-97,0,0,0,0,0,0,0,0,0,-1,1175,1121,0,0
-42,-97,0,0,0,0,0,0,0,0,0,-1,1182,1121,0,0
-35,-97,0,0,0,0,0,0,0,0,0,-1,1189,1121,0,0
-28,-97,0,0,0,0,0,0,0,0,0,-1,1196,1121,0,0
-21,-97,0,0,0,0,0,0,0,0,0,-1,1203,1121,0,0
-14,-97,0,0,0,0,0,0,0,0,0,-1,1210,1121,0,0
-7,-97,0,0,0,0,0,0,0,0,0,-1,1217,1121,0,0
0,-97,0,0,0,0,0,0,0,0,0,-1,1224,1121,0,0
7,-97,0,0,0,0,0,0,0,0,0,-1,1231,1121,0,0
14,-97,0,0,0,0,0,0,0,0,0,-1,1238,1121,0,0
21,-97,0,0,0,0,0,0,0,0,0,-1,1245,1121,0,0
28,-97,0,0,0,0,0,0,0,0,0,-1,1252,1121,0,0
35,-97,0,0,0,0,0,0,0,0,0,-1,1259,1121,0,0
42,-97,0,0,0,0,0,0,0,0,0,-1,1266,1121,0,0
49,-97,0,0,0,0,0,0,0,0,0,-1,1273,1121,0,0
56,-97,0,0,0,0,0,0,0,0,0,-1,1280,1121,0,0
63,-97,0,0,0,0,0,0,0,0,0,-1,1287,1121,0,0
70,-97,0,0,0,0,0,0,0,0,0,-1,1294,1121,0,0
77,-97,0,0,0,0,0,0,0,0,0,-1,1301,1121,0,0
84,-97,0,0,0,0,0,0,0,0,0,-1,1308,1121,0,0
91,-97,0,0,0,0,0,0,0,0,0,-1,1315,1121,0,0
98,-97,0,0,0,0,0,0,0,0,0,-1,1322,1121,0,0
105,-97,0,0,0,0,0,0,0,0,0,-1,1329,1121,0,0
112,-97,0,0,0,0,0,0,0,0,0,-1,1336,1121,0,0
119,-97,0,0,0,0,0,0,0,0,0,-1,1343,1121,0,0
126,-97,0,0,0,0,0,0,0,0,0,-1,1350,1121,0,0
133,-97,0,0,0,0,0,0,0,0,0,-1,1357,1121,0,0
140,-97,0,0,0,0,0,0,0,0,0,-1,1364,1121,0,0
147,-97,0,0,0,0,0,0,0,0,0,-1,1371,1121,0,0
154,-97,0,0,0,0,0,0,0,0,0,-1,1378,1121,0,0
161,-97,0,0,0,0,0,0,0,0,0,-1,1385,1121,0,0
168,-97,0,0,0,0,0,0,0,0,0,-1,1392,1121,0,0
175,-97,0,0,0,0,0,0,0,0,0,-1,1399,1121,0,0
182,-97,0,0,0,0,0,0,0,0,0,-1,1406,1121,0,0
189,-97,0,0,0,0,0,0,0,0,0,-1,1413,1121,0,0
196,-97,0,0,0,0,0,0,0,0,0,-1,1420,1121,0,0
203,-97,0,0,0,0,0,0,0,0,0,-1,1427,1121,0,0
210,-97,0,0,0,0,0,0,0,0,0,-1,1434,1121,0,0
217,-97,0,0,0,0,0,0,0,0,0,-1,1441,1121,0,0
224,-97,0,0,0,0,0,0,0,0,0,-1,1448,1121,0,0
231,-97,0,0,0,0,0,0,0,0,0,-1,1455,1121,0,0
238,-97,0,0,0,0,0,0,0,0,0,-1,1462,1121,0,0
245,-97,0,0,0,0,0,0,0,0,0,-1,1469,1121,0,0
252,-97,0,0,0,0,0,0,0,0,0,-1,1476,1121,0,0
259,-97,0,0,0,0,0,0,0,0,0,-1,1483,1121,0,0
266,-97,0,0,0,0,0,0,0,0,0,-1,1490,1121,0,0
273,-97,0,0,0,0,0,0,0,0,0,-1,1497,1121,0,0
280,-97,0,0,0,0,0,0,0,0,0,-1,1504,1121,0,0
287,-97,0,0,0,0,0,0,0,0,0,-1,1511,1121,0,0
294,-97,0,0,0,0,0,0,0,0,0,-1,1518,1121,0,0
301,-97,0,0,0,0,0,0,0,0,0,-1,1525,1121,0,0
308,-97,0,0,0,0,0,0,0,0,0,-1,1532,1121,0,0
315,-97,0,0,0,0,0,0,0,0,0,-1,1539,1121,0,0
322,-97,0,0,0,0,0,0,0,0,0,-1,1546,1121,0,0
329,-97,0,0,0,0,0,0,0,0,0,-1,1553,1121,0,0
336,-97,0,0,0,0,0,0,0,0,0,-1,1560,1121,0,0
343,-97,0,0,0,0,0,0,0,0,0,-1,1567,1121,0,0
350,-97,0,0,0,0,0,0,0,0,0,-1,1574,1121,0,0
357,-97,0,0,0,0,0,0,0,0,0,-1,1581,1121,0,0
364,-97,0,0,0,0,0,0,0,0,0,-1,1588,1121,0,0
371,-97,0,0,0,0,0,0,0,0,0,-1,1595,1121,0,0
378,-97,0,0,0,0,0,0,0,0,0,-1,1602,1121,0,0
385,-97,0,0,0,0,0,0,0,0,0,-1,1609,1121,0,0
392,-97,0,0,0,0,0,0,0,0,0,-1,1616,1121,0,0
399,-97,0,0,0,0,0,0,0,0,0,-1,1623,1121,0,0
406,-97,0,0,0,0,0,0,0,0,0,-1,1630,1121,0,0
413,-97,0,0,0,0,0,0,0,0,0,-1,1637,1121,0,0
420,-97,0,0,0,0,0,0,0,0,0,-1,1644,1121,0,0
427,-97,0,0,0,0,0,0,0,0,0,-1,1651,1121,0,0
434,-97,0,0,0,0,0,0,0,0,0,-1,1658,1121,0,0
441,-97,0,0,0,0,0,0,0,0,0,-1,1665,1121,0,0
448,-97,0,0,0,0,0,0,0,0,0,-1,1672,1121,0,0
455,-97,0,0,0,0,0,0,0,0,0,-1,1679,1121,0,0
462,-97,0,0,0,0,0,0,0,0,0,-1,1686,1121,0,0
469,-97,0,0,0,0,0,0,0,0,0,-1,1693,1121,0,0
476,-97,0,0,0,0,0,0,0,0,0,-1,1700,1121,0,0
483,-97,0,0,0,0,0,0,0,0,0,-1,1707,1121,0,0
490,-97,0,0,0,0,0,0,0,0,0,-1,1714,1121,0,0
497,-97,0,0,0,0,0,0,0,0,0,-1,1721,1121,0,0
504,-97,0,0,0,0,0,0,0,0,0,-1,1728,1121,0,0
511,-97,0,0,0,0,0,0,0,0,0,-1,1735,1121,0,0
518,-97,0,0,0,0,0,0,0,0,0,-1,1742,1121,0,0
525,-97,0,0,0,0,0,0,0,0,0,-1,1749,1121,0,0
532,-97,0,0,0,0,0,0,0,0,0,-1,1756,1121,0,0
539,-97,0,0,0,0,0,0,0,0,0,-1,1763,1121,0,0
546,-97,0,0,0,0,0,0,0,0,0,-1,1770,1121,0,0
553,-97,0,0,0,0,0,0,0,0,0,-1,1777,1121,0,0
560,-97,0,0,0,0,0,0,0,0,0,-1,1784,1121,0,0
567,-97,0,0,0,0,0,0,0,0,0,-1,1791,1121,0,0
574,-97,0,0,0,0,0,0,0,0,0,-1,1798,1121,0,0
581,-97,0,0,0,0,0,0,0,0,0,-1,1805,1121,0,0
588,-97,0,0,0,0,0,0,0,0,0,-1,1812,1121,0,0
595,-97,0,0,0,0,0,0,0,0,0,-1,1819,1121,0,0
602,-97,0,0,0,0,0,0,0,0,0,-1,1826,1121,0,0
609,-97,0,0,0,0,0,0,0,0,0,-1,1833,1121,0,0
616,-97,0,0,0,0,0,0,0,0,0,-1,1840,1121,0,0
623,-97,0,0,0,0,0,0,0,0,0,-1,1847,1121,0,0
630,-97,0,0,0,0,0,0,0,0,0,-1,1854,1121,0,0
637,-97,0,0,0,0,0,0,0,0,0,-1,1861,1121,0,0
644,-97,35.4471,2.61377,0.0086196,-0.0040344,-0.00403986,0.00979936,-0.00521416,-0.284128,0.00880178,0.0352189,1868,1121,35.4471,-2.61381
651,-97,35.5216,2.7395,0.00658456,-0.00241348,-0.00317101,0.00758976,-0.00341869,-0.306978,0.00650603,0.0379303,1875,1121,35.5216,-2.73954
658,-97,35.62,2.36523,0.00513615,-0.00133467,-0.00236484,0.00590828,-0.00210679,-0.31559,0.00479786,0.0405487,1882,1121,35.62,-2.36526
665,-97,35.6343,1.7865,0,0,0,0,0,0,0,-1,1889,1121,35.6342,-1.78649
672,-97,35.5657,2.27295,0.00288827,-0.000309121,-0.000778295,0.00306766,-0.000488506,-0.226528,0.00222588,0.0425038,1896,1121,35.5657,-2.27296
679,-97,35.4656,2.54773,0.00188129,-0.000334457,-4.69404e-05,0.00188229,-0.000335451,-0.0211722,0.00138033,0.0408631,1903,1121,35.4656,-2.54769
686,-97,35.4679,2.69226,0.00107174,-0.000576736,0.0004651,0.00119391,-0.000698905,0.25687,0.0011052,0.0363052,1910,1121,35.4679,-2.69222
693,-97,35.6113,2.54517,0.000562184,-0.000868799,0.000814518,0.000930836,-0.00123745,0.425015,0.00125603,0.0328227,1917,1121,35.6113,-2.54514
700,-97,35.6251,2.47327,4.81741e-05,-0.00103176,0.00105059,0.000689435,-0.00167302,0.548019,0.00140281,0.0270187,1924,1121,35.6251,-2.47331
707,-97,35.5779,2.45349,-0.000389343,-0.0011254,0.00129946,0.000593197,-0.00210794,0.647403,0.0016392,0.0230853,1931,1121,35.5779,-2.45349
714,-97,35.5409,2.38684,0,0,0,0,0,0,0,-1,1938,1121,35.5409,-2.38688
721,-97,33.5905,5.67651,0,0,0,0,0,0,0,-1,1945,1121,33.5904,-5.67651
728,-97,33.5529,5.53833,-0.00153692,-0.00112469,0.00178628,0.00046733,-0.00312894,0.842837,0.00225791,0.0206278,1952,1121,33.5528,-5.53834
735,-97,33.527,5.29236,-0.00217381,-0.000892397,0.00158172,0.000173456,-0.00323966,0.977833,0.00221985,0.0219468,1959,1121,33.527,-5.2923
742,-97,33.5258,5.0675,-0.00293973,0.000702836,0.00114912,0.00103505,-0.00327194,1.28937,0.00259603,0.0178699,1966,1121,33.5257,-5.06755
749,-97,33.5652,4.82983,-0.00464408,0.00352514,0.000843959,0.00361142,-0.00473036,1.46892,0.00483055,0.0200446,1973,1121,33.5652,-4.82989
756,-97,33.5609,4.6178,-0.00673376,0.00752017,-3.52753e-05,0.00752025,-0.00673385,-1.56832,0.00823379,0.0150436,1980,1121,33.5609,-4.61779
763,-97,33.5336,4.44995,-0.00971558,0.0128199,-0.00200932,0.0129977,-0.00989333,-1.48256,0.0132566,0.0116561,1987,1121,33.5335,-4.44994
770,-97,33.5118,4.28076,-0.0139693,0.0202883,-0.00442325,0.0208502,-0.0145312,-1.44444,0.0205357,0.0106699,1994,1121,33.5118,-4.28077
777,-97,33.4915,4.10095,-0.0191951,0.0292474,-0.00753405,0.0303921,-0.0203397,-1.42001,0.0294811,0.0151263,2001,1121,33.4914,-4.10091
784,-97,33.4634,3.90466,-0.0254701,0.0396898,-0.0115415,0.0416737,-0.027454,-1.40057,0.0401914,0.0353307,2008,1121,33.4634,-3.90463
791,-97,33.083,3.87109,-0.0331239,0.0519551,-0.0167793,0.0551448,-0.0363135,-1.38294,0.0531753,0.0432867,2015,1121,33.0829,-3.87104
798,-97,32.8494,4.02441,-0.0419448,0.0659801,-0.0235821,0.0709079,-0.0468726,-1.3648,0.0684709,0.0461827,2022,1121,32.8494,-4.02444
805,-97,32.6309,4.37866,-0.0518673,0.0813576,-0.0322807,0.0887672,-0.0592769,-1.34517,0.0860367,0.0448604,2029,1121,32.6308,-4.37867
812,-97,32.5298,4.45532,-0.0625935,0.0973049,-0.0432917,0.108273,-0.0735621,-1.32265,0.105618,0.0460958,2036,1121,32.5298,-4.45533
-700,-104,0,0,0,0,0,0,0,0,0,-1,524,1128,0,0
-693,-104,-26.5674,-0.23645,0,0,0,0,0,0,0,-1,531,1128,-26.5674,0.236455
-686,-104,-25.9725,-0.170532,0,0,0,0,0,0,0,-1,538,1128,-25.9725,0.170473
-679,-104,-25.3396,-0.179077,0.073413,0.0442073,-0.0167572,0.0810373,0.036583,-0.426993,0.0468604,0.0483612,545,1128,-25.3396,0.179079
-672,-104,-24.6768,0.0996094,0.0629511,0.0332495,-0.0101364,0.0660807,0.03012,-0.299459,0.0382013,0.0468684,552,1128,-24.6768,-0.0995845
-665,-104,-24.4413,-0.20166,0,0,0,0,0,0,0,-1,559,1128,-24.4414,0.201694
-658,-104,-24.0942,0.328491,0.0417403,0.0176266,-0.00189241,0.0418879,0.017479,-0.0778434,0.024294,0.0459166,566,1128,-24.0942,-0.328431
-651,-104,-23.6643,0.832642,0.0321235,0.0123473,0.000153184,0.0321247,0.0123461,0.00774525,0.0187119,0.035553,573,1128,-23.6643,-0.832702
-644,-104,-23.4604,1.21643,0.0238837,0.00846543,0.000928564,0.0239394,0.00840971,0.0599361,0.0140237,0.014227,580,1128,-23.4604,-1.21647
-637,-104,-23.4661,1.49744,0.0161202,0.00440205,0.00168912,0.0163588,0.00416343,0.14034,0.0098169,0.010912,587,1128,-23.4661,-1.4974
-630,-104,-23.4791,1.71155,0.00953549,0.00170677,0.00146195,0.00979959,0.00144267,0.17872,0.00610921,0.013795,594,1128,-23.4792,-1.7115
-623,-104,-23.4837,1.97754,0.00486365,4.87557e-05,0.000265661,0.00487826,3.41423e-05,0.0549524,0.00324086,0.0158544,601,1128,-23.4837,-1.97754
-616,-104,-23.6079,2.29199,0.00223542,-0.000692681,-0.000800247,0.00243986,-0.000897114,-0.250113,0.00199405,0.0176816,608,1128,-23.6079,-2.29197
-609,-104,-23.7186,2.44751,0.00153193,-0.00107645,-0.00152145,0.00223167,-0.00177619,-0.431068,0.00231891,0.0225174,615,1128,-23.7186,-2.44748
-602,-104,-23.5706,2.72339,0.0011481,-0.00120077,-0.00217669,0.00244697,-0.00249964,-0.538006,0.00285598,0.0202906,622,1128,-23.5706,-2.72345
-595,-104,-23.4624,3.01709,0.000569643,-0.00116132,-0.00269787,0.00253745,-0.00312913,-0.630183,0.00327754,0.0168942,629,1128,-23.4624,-3.01708
-588,-104,-23.631,3.0863,0,0,0,0,0,0,0,-1,636,1128,-23.631,-3.08636
-581,-104,-23.9373,2.85864,0,0,0,0,0,0,0,-1,643,1128,-23.9373,-2.85861
-574,-104,-25.7212,0.602417,0,0,0,0,0,0,0,-1,650,1128,-25.7212,-0.60239
-567,-104,-25.6202,0.629028,0.000152006,-0.000673057,-0.00249637,0.0022697,-0.00279075,-0.703512,0.00292681,0.0377833,657,1128,-25.6202,-0.62899
-560,-104,-25.5628,0.561279,-0.000129749,-0.000251089,-0.00226175,0.00207214,-0.00245298,-0.771989,0.00261566,0.0421607,664,1128,-25.5628,-0.56122
-553,-104,-25.6002,0.489868,-0.00100914,0.000301486,-0.00184654,0.00160555,-0.0023132,-0.955909,0.00227475,0.0453141,671,1128,-25.6002,-0.489873
-546,-104,-25.5515,0.386475,-0.00269276,0.000860539,-0.00108317,0.00116469,-0.00299692,-1.29705,0.00247912,0.0435225,678,1128,-25.5515,-0.386523
-539,-104,-25.7223,0.420166,-0.0052718,0.000995915,0.000289728,0.00100928,-0.00528517,1.5247,0.00390361,0.0394367,685,1128,-25.7223,-0.420141
-532,-104,-25.8285,0.383423,-0.00845722,0.000483375,0.00150657,0.000730418,-0.00870427,1.40827,0.00606101,0.0408732,692,1128,-25.8285,-0.383376
-525,-104,-25.9106,0.493774,-0.0114423,-0.000192852,0.00301205,0.000562856,-0.012198,1.32498,0.00832599,0.0381513,699,1128,-25.9106,-0.493739
-518,-104,0,0,0,0,0,0,0,0,0,-1,706,1128,0,0
-511,-104,0,0,0,0,0,0,0,0,0,-1,713,1128,0,0
-504,-104,0,0,0,0,0,0,0,0,0,-1,720,1128,0,0
-497,-104,0,0,0,0,0,0,0,0,0,-1,727,1128,0,0
-490,-104,0,0,0,0,0,0,0,0,0,-1,734,1128,0,0
-483,-104,0,0,0,0,0,0,0,0,0,-1,741,1128,0,0
-476,-104,0,0,0,0,0,0,0,0,0,-1,748,1128,0,0
-469,-104,0,0,0,0,0,0,0,0,0,-1,755,1128,0,0
-462,-104,0,0,0,0,0,0,0,0,0,-1,762,1128,0,0
-455,-104,0,0,0,0,0,0,0,0,0,-1,769,1128,0,0
-448,-104,0,0,0,0,0,0,0,0,0,-1,776,1128,0,0
-441,-104,0,0,0,0,0,0,0,0,0,-1,783,1128,0,0
-434,-104,0,0,0,0,0,0,0,0,0,-1,790,1128,0,0
-427,-104,0,0,0,0,0,0,0,0,0,-1,797,1128,0,0
-420,-104,0,0,0,0,0,0,0,0,0,-1,804,1128,0,0
-413,-104,0,0,0,0,0,0,0,0,0,-1,811,1128,0,0
-406,-104,0,0,0,0,0,0,0,0,0,-1,818,1128,0,0
-399,-104,0,0,0,0,0,0,0,0,0,-1,825,1128,0,0
-392,-104,0,0,0,0,0,0,0,0,0,-1,832,1128,0,0
-385,-104,0,0,0,0,0,0,0,0,0,-1,839,1128,0,0
-378,-104,0,0,0,0,0,0,0,0,0,-1,846,1128,0,0
-371,-104,0,0,0,0,0,0,0,0,0,-1,853,1128,0,0
-364,-104,0,0,0,0,0,0,0,0,0,-1,860,1128,0,0
-357,-104,0,0,0,0,0,0,0,0,0,-1,867,1128,0,0
-350,-104,0,0,0,0,0,0,0,0,0,-1,874,1128,0,0
-343,-104,0,0,0,0,0,0,0,0,0,-1,881,1128,0,0
-336,-104,0,0,0,0,0,0,0,0,0,-1,888,1128,0,0
-329,-104,0,0,0,0,0,0,0,0,0,-1,895,1128,0,0
-322,-104,0,0,0,0,0,0,0,0,0,-1,902,1128,0,0
-315,-104,0,0,0,0,0,0,0,0,0,-1,909,1128,0,0
-308,-104,0,0,0,0,0,0,0,0,0,-1,916,1128,0,0
-301,-104,0,0,0,0,0,0,0,0,0,-1,923,1128,0,0
-294,-104,0,0,0,0,0,0,0,0,0,-1,930,1128,0,0
-287,-104,0,0,0,0,0,0,0,0,0,-1,937,1128,0,0
-280,-104,0,0,0,0,0,0,0,0,0,-1,944,1128,0,0
-273,-104,0,0,0,0,0,0,0,0,0,-1,951,1128,0,0
-266,-104,0,0,0,0,0,0,0,0,0,-1,958,1128,0,0
-259,-104,0,0,0,0,0,0,0,0,0,-1,965,1128,0,0
-252,-104,0,0,0,0,0,0,0,0,0,-1,972,1128,0,0
-245,-104,0,0,0,0,0,0,0,0,0,-1,979,1128,0,0
-238,-104,0,0,0,0,0,0,0,0,0,-1,986,1128,0,0
-231,-104,0,0,0,0,0,0,0,0,0,-1,993,1128,0,0
-224,-104,0,0,0,0,0,0,0,0,0,-1,1000,1128,0,0
-217,-104,0,0,0,0,0,0,0,0,0,-1,1007,1128,0,0
-210,-104,0,0,0,0,0,0,0,0,0,-1,1014,1128,0,0
-203,-104,0,0,0,0,0,0,0,0,0,-1,1021,1128,0,0
-196,-104,0,0,0,0,0,0,0,0,0,-1,1028,1128,0,0
-189,-104,0,0,0,0,0,0,0,0,0,-1,1035,1128,0,0
-182,-104,0,0,0,0,0,0,0,0,0,-1,1042,1128,0,0
-175,-104,0,0,0,0,0,0,0,0,0,-1,1049,1128,0,0
-168,-104,0,0,0,0,0,0,0,0,0,-1,1056,1128,0,0
-161,-104,0,0,0,0,0,0,0,0,0,-1,1063,1128,0,0
-154,-104,0,0,0,0,0,0,0,0,0,-1,1070,1128,0,0
-147,-104,0,0,0,0,0,0,0,0,0,-1,1077,1128,0,0
-140,-104,0,0,0,0,0,0,0,0,0,-1,1084,1128,0,0
-133,-104,0,0,0,0,0,0,0,0,0,-1,1091,1128,0,0
-126,-104,0,0,0,0,0,0,0,0,0,-1,1098,1128,0,0
-119,-104,0,0,0,0,0,0,0,0,0,-1,1105,1128,0,0
-112,-104,0,0,0,0,0,0,0,0,0,-1,1112,1128,0,0
-105,-104,0,0,0,0,0,0,0,0,0,-1,1119,1128,0,0
-98,-104,0,0,0,0,0,0,0,0,0,-1,1126,1128,0,0
-91,-104,0,0,0,0,0,0,0,0,0,-1,1133,1128,0,0
-84,-104,0,0,0,0,0,0,0,0,0,-1,1140,1128,0,0
-77,-104,0,0,0,0,0,0,0,0,0,-1,1147,1128,0,0
-70,-104,0,0,0,0,0,0,0,0,0,-1,1154,1128,0,0
-63,-104,0,0,0,0,0,0,0,0,0,-1,1161,1128,0,0
-56,-104,0,0,0,0,0,0,0,0,0,-1,1168,1128,0,0
-49,-104,0,0,0,0,0,0,0,0,0,-1,1175,1128,0,0
-42,-104,0,0,0,0,0,0,0,0,0,-1,1182,1128,0,0
-35,-104,0,0,0,0,0,0,0,0,0,-1,1189,1128,0,0
-28,-104,0,0,0,0,0,0,0,0,0,-1,1196,1128,0,0
-21,-104,0,0,0,0,0,0,0,0,0,-1,1203,1128,0,0
-14,-104,0,0,0,0,0,0,0,0,0,-1,1210,1128,0,0
-7,-104,0,0,0,0,0,0,0,0,0,-1,1217,1128,0,0
0,-104,0,0,0,0,0,0,0,0,0,-1,1224,1128,0,0
7,-104,0,0,0,0,0,0,0,0,0,-1,1231,1128,0,0
14,-104,0,0,0,0,0,0,0,0,0,-1,1238,1128,0,0
21,-104,0,0,0,0,0,0,0,0,0,-1,1245,1128,0,0
28,-104,0,0,0,0,0,0,0,0,0,-1,1252,1128,0,0
35,-104,0,0,0,0,0,0,0,0,0,-1,1259,1128,0,0
42,-104,0,0,0,0,0,0,0,0,0,-1,1266,1128,0,0
49,-104,0,0,0,0,0,0,0,0,0,-1,1273,1128,0,0
56,-104,0,0,0,0,0,0,0,0,0,-1,1280,1128,0,0
63,-104,0,0,0,0,0,0,0,0,0,-1,1287,1128,0,0
70,-104,0,0,0,0,0,0,0,0,0,-1,1294,1128,0,0
77,-104,0,0,0,0,0,0,0,0,0,-1,1301,1128,0,0
84,-104,0,0,0,0,0,0,0,0,0,-1,1308,1128,0,0
91,-104,0,0,0,0,0,0,0,0,0,-1,1315,1128,0,0
98,-104,0,0,0,0,0,0,0,0,0,-1,1322,1128,0,0
105,-104,0,0,0,0,0,0,0,0,0,-1,1329,1128,0,0
112,-104,0,0,0,0,0,0,0,0,0,-1,1336,1128,0,0
119,-104,0,0,0,0,0,0,0,0,0,-1,1343,1128,0,0
126,-104,0,0,0,0,0,0,0,0,0,-1,1350,1128,0,0
133,-104,0,0,0,0,0,0,0,0,0,-1,1357,1128,0,0
140,-104,0,0,0,0,0,0,0,0,0,-1,1364,1128,0,0
147,-104,0,0,0,0,0,0,0,0,0,-1,1371,1128,0,0
154,-104,0,0,0,0,0,0,0,0,0,-1,1378,1128,0,0
161,-104,0,0,0,0,0,0,0,0,0,-1,1385,1128,0,0
168,-104,0,0,0,0,0,0,0,0,0,-1,1392,1128,0,0
175,-104,0,0,0,0,0,0,0,0,0,-1,1399,1128,0,0
182,-104,0,0,0,0,0,0,0,0,0,-1,1406,1128,0,0
189,-104,0,0,0,0,0,0,0,0,0,-1,1413,1128,0,0
196,-104,0,0,0,0,0,0,0,0,0,-1,1420,1128,0,0
203,-104,0,0,0,0,0,0,0,0,0,-1,1427,1128,0,0
210,-104,0,0,0,0,0,0,0,0,0,-1,1434,1128,0,0
217,-104,0,0,0,0,0,0,0,0,0,-1,1441,1128,0,0
224,-104,0,0,0,0,0,0,0,0,0,-1,1448,1128,0,0
231,-104,0,0,0,0,0,0,0,0,0,-1,1455,1128,0,0
238,-104,0,0,0,0,0,0,0,0,0,-1,1462,1128,0,0
245,-104,0,0,0,0,0,0,0,0,0,-1,1469,1128,0,0
252,-104,0,0,0,0,0,0,0,0,0,-1,1476,1128,0,0
259,-104,0,0,0,0,0,0,0,0,0,-1,1483,1128,0,0
266,-104,0,0,0,0,0,0,0,0,0,-1,1490,1128,0,0
273,-104,0,0,0,0,0,0,0,0,0,-1,1497,1128,0,0
280,-104,0,0,0,0,0,0,0,0,0,-1,1504,1128,0,0
287,-104,0,0,0,0,0,0,0,0,0,-1,1511,1128,0,0
294,-104,0,0,0,0,0,0,0,0,0,-1,1518,1128,0,0
301,-104,0,0,0,0,0,0,0,0,0,-1,1525,1128,0,0
308,-104,0,0,0,0,0,0,0,0,0,-1,1532,1128,0,0
315,-104,0,0,0,0,0,0,0,0,0,-1,1539,1128,0,0
322,-104,0,0,0,0,0,0,0,0,0,-1,1546,1128,0,0
329,-104,0,0,0,0,0,0,0,0,0,-1,1553,1128,0,0
336,-104,0,0,0,0,0,0,0,0,0,-1,1560,1128,0,0
343,-104,0,0,0,0,0,0,0,0,0,-1,1567,1128,0,0
350,-104,0,0,0,0,0,0,0,0,0,-1,1574,1128,0,0
357,-104,0,0,0,0,0,0,0,0,0,-1,1581,1128,0,0
364,-104,0,0,0,0,0,0,0,0,0,-1,1588,1128,0,0
371,-104,0,0,0,0,0,0,0,0,0,-1,1595,1128,0,0
378,-104,0,0,0,0,0,0,0,0,0,-1,1602,1128,0,0
385,-104,0,0,0,0,0,0,0,0,0,-1,1609,1128,0,0
392,-104,0,0,0,0,0,0,0,0,0,-1,1616,1128,0,0
399,-104,0,0,0,0,0,0,0,0,0,-1,1623,1128,0,0
406,-104,0,0,0,0,0,0,0,0,0,-1,1630,1128,0,0
413,-104,0,0,0,0,0,0,0,0,0,-1,1637,1128,0,0
420,-104,0,0,0,0,0,0,0,0,0,-1,1644,1128,0,0
427,-104,0,0,0,0,0,0,0,0,0,-1,1651,1128,0,0
434,-104,0,0,0,0,0,0,0,0,0,-1,1658,1128,0,0
441,-104,0,0,0,0,0,0,0,0,0,-1,1665,1128,0,0
448,-104,0,0,0,0,0,0,0,0,0,-1,1672,1128,0,0
455,-104,0,0,0,0,0,0,0,0,0,-1,1679,1128,0,0
462,-104,0,0,0,0,0,0,0,0,0,-1,1686,1128,0,0
469,-104,0,0,0,0,0,0,0,0,0,-1,1693,1128,0,0
476,-104,0,0,0,0,0,0,0,0,0,-1,1700,1128,0,0
483,-104,0,0,0,0,0,0,0,0,0,-1,1707,1128,0,0
490,-104,0,0,0,0,0,0,0,0,0,-1,1714,1128,0,0
497,-104,0,0,0,0,0,0,0,0,0,-1,1721,1128,0,0
504,-104,0,0,0,0,0,0,0,0,0,-1,1728,1128,0,0
511,-104,0,0,0,0,0,0,0,0,0,-1,1735,1128,0,0
518,-104,0,0,0,0,0,0,0,0,0,-1,1742,1128,0,0
525,-104,0,0,0,0,0,0,0,0,0,-1,1749,1128,0,0
532,-104,0,0,0,0,0,0,0,0,0,-1,1756,1128,0,0
539,-104,0,0,0,0,0,0,0,0,0,-1,1763,1128,0,0
546,-104,0,0,0,0,0,0,0,0,0,-1,1770,1128,0,0
553,-104,0,0,0,0,0,0,0,0,0,-1,1777,1128,0,0
560,-104,0,0,0,0,0,0,0,0,0,-1,1784,1128,0,0
567,-104,0,0,0,0,0,0,0,0,0,-1,1791,1128,0,0
574,-104,0,0,0,0,0,0,0,0,0,-1,1798,1128,0,0
581,-104,0,0,0,0,0,0,0,0,0,-1,1805,1128,0,0
588,-104,0,0,0,0,0,0,0,0,0,-1,1812,1128,0,0
595,-104,0,0,0,0,0,0,0,0,0,-1,1819,1128,0,0
602,-104,0,0,0,0,0,0,0,0,0,-1,1826,1128,0,0
609,-104,0,0,0,0,0,0,0,0,0,-1,1833,1128,0,0
616,-104,0,0,0,0,0,0,0,0,0,-1,1840,1128,0,0
623,-104,0,0,0,0,0,0,0,0,0,-1,1847,1128,0,0
630,-104,0,0,0,0,0,0,0,0,0,-1,1854,1128,0,0
637,-104,0,0,0,0,0,0,0,0,0,-1,1861,1128,0,0
644,-104,35.4109,2.84875,0.00716216,-0.00304659,-0.0048965,0.009131,-0.00501543,-0.382308,0.00828186,0.0370723,1868,1128,35.4109,-2.84877
651,-104,35.4806,2.79407,0.00541881,-0.00169508,-0.0039741,0.00719528,-0.00347156,-0.420366,0.00628234,0.0389404,1875,1128,35.4806,-2.79404
658,-104,35.5775,2.44104,0.00423403,-0.000817261,-0.00309557,0.00570356,-0.00228679,-0.443221,0.00475174,0.042607,1882,1128,35.5776,-2.44109
665,-104,35.6116,2.07349,0.00320933,-0.000275681,-0.00222727,0.00429473,-0.00136108,-0.453455,0.00340867,0.0460573,1889,1128,35.6116,-2.07347
672,-104,35.6788,2.09888,0.0024442,-6.92489e-05,-0.00137303,0.00304881,-0.000673857,-0.414797,0.00229044,0.0436897,1896,1128,35.6788,-2.09886
679,-104,35.5409,2.34998,0.00163491,-0.000183791,-0.000621126,0.00182679,-0.000375675,-0.299628,0.00136049,0.0406233,1903,1128,35.5409,-2.34992
686,-104,35.4209,2.47998,0.00102228,-0.000467826,-9.76464e-05,0.00102865,-0.000474197,-0.0651584,0.000887137,0.037971,1910,1128,35.4209,-2.47995
693,-104,35.5422,2.49744,0.000672857,-0.000771129,0.000270502,0.000721867,-0.000820139,0.179236,0.00089088,0.0345281,1917,1128,35.5423,-2.49742
700,-104,35.6276,2.4624,0.000257845,-0.000933476,0.000550082,0.000472988,-0.00114862,0.372819,0.000962941,0.0285899,1924,1128,35.6276,-2.46241
707,-104,35.5887,2.5127,-6.49338e-05,-0.00102396,0.000836068,0.000419371,-0.00150826,0.525033,0.00117061,0.0380014,1931,1128,35.5888,-2.51274
714,-104,35.5675,2.67847,0,0,0,0,0,0,0,-1,1938,1128,35.5674,-2.67846
721,-104,33.2939,5.72229,0,0,0,0,0,0,0,-1,1945,1128,33.294,-5.72225
728,-104,33.4202,5.47778,-0.00110009,-0.00107658,0.00154328,0.000454992,-0.00263166,0.789205,0.00192412,0.0229308,1952,1128,33.4202,-5.47777
735,-104,33.4315,5.25916,-0.00175684,-0.000837309,0.00143031,0.000205316,-0.00279946,0.940904,0.00193837,0.0242806,1959,1128,33.4315,-5.25913
742,-104,33.3474,5.04846,-0.00254978,0.000898149,0.00102192,0.00117827,-0.0028299,1.30325,0.00237871,0.015714,1966,1128,33.3474,-5.04842
749,-104,33.2964,4.84082,-0.00424384,0.00374108,0.000808594,0.00382214,-0.0043249,1.47088,0.00470668,0.0170286,1973,1128,33.2963,-4.84076
756,-104,33.2899,4.63428,-0.006421,0.00788966,-4.4951e-05,0.0078898,-0.00642114,-1.56766,0.00827692,0.0156528,1980,1128,33.2899,-4.63425
763,-104,33.2999,4.43213,-0.00954179,0.0136224,-0.0018949,0.0137764,-0.00969577,-1.48971,0.0136197,0.0141149,1987,1128,33.2999,-4.43213
770,-104,33.2877,4.23804,-0.013868,0.0215386,-0.00423819,0.0220388,-0.0143683,-1.45331,0.0211746,0.0121965,1994,1128,33.2877,-4.23805
777,-104,33.2313,4.02515,-0.019093,0.0309726,-0.00728856,0.0320121,-0.0201325,-1.42913,0.030365,0.0198987,2001,1128,33.2314,-4.02515
784,-104,33.0814,3.76013,-0.0254171,0.0420976,-0.0112813,0.0439328,-0.0272522,-1.40954,0.0414731,0.0377525,2008,1128,33.0814,-3.76013
791,-104,32.7406,3.35999,-0.0330923,0.0552314,-0.0165562,0.0582328,-0.0360938,-1.39146,0.0549572,0.0445183,2015,1128,32.7406,-3.36
798,-104,32.4436,2.66455,-0.0419139,0.0702714,-0.0234407,0.0749723,-0.0466148,-1.37288,0.0708319,0.0458929,2022,1128,32.4437,-2.66453
805,-104,32.3191,1.99219,0,0,0,0,0,0,0,-1,2029,1128,32.3191,-1.99221
812,-104,32.1567,4.44031,0,0,0,0,0,0,0,-1,2036,1128,32.1568,-4.44029
-700,-111,0,0,0,0,0,0,0,0,0,-1,524,1135,0,0
-693,-111,-27.006,1.04761,0.0964361,0.0858511,-0.0468503,0.138292,0.0439953,-0.729153,0.0815844,0.047434,531,1135,-27.0059,-1.04757
-686,-111,-26.2169,0.282227,0.0888734,0.0647177,-0.0341368,0.113006,0.0405851,-0.615367,0.0661014,0.0497624,538,1135,-26.217,-0.282217
-679,-111,-24.7687,-0.228271,0,0,0,0,0,0,0,-1,545,1135,-24.7686,0.228234
-672,-111,-24.3821,-0.169678,0,0,0,0,0,0,0,-1,552,1135,-24.3821,0.169696
-665,-111,-23.4832,-0.133667,0,0,0,0,0,0,0,-1,559,1135,-23.4832,0.133708
-658,-111,-23.9974,0.402588,0,0,0,0,0,0,0,-1,566,1135,-23.9974,-0.402538
-651,-111,-23.2998,0.556396,0.0337774,0.0115598,-0.00246012,0.0340466,0.0112906,-0.108969,0.0200249,0.0385561,573,1135,-23.2998,-0.556398
-644,-111,-23.1447,1.20251,0.0248374,0.00758404,-0.000928727,0.0248873,0.00753419,-0.0536222,0.0147367,0.0242978,580,1135,-23.1447,-1.20251
-637,-111,-23.1853,1.49878,0.0165959,0.0034201,0.000592828,0.0166225,0.00339348,0.0448729,0.0101415,0.00984755,587,1135,-23.1853,-1.49881
-630,-111,-23.2,1.70935,0.00973388,0.00103652,0.000906351,0.00982733,0.00094307,0.102739,0.00626092,0.0167756,594,1135,-23.2,-1.70934
-623,-111,-23.2198,1.97668,0.00473871,-0.000154461,0.00015089,0.00474336,-0.000159109,0.0307978,0.00321659,0.0149066,601,1135,-23.2198,-1.97672
-616,-111,-23.3353,2.22546,0.00207543,-0.000695915,-0.000625505,0.00221006,-0.000830553,-0.212013,0.00181473,0.0156782,608,1135,-23.3354,-2.22549
-609,-111,-23.4908,2.45679,0.00141662,-0.000847118,-0.00118069,0.00192034,-0.00135084,-0.403254,0.00189813,0.0227391,615,1135,-23.4908,-2.4568
-602,-111,-23.3838,2.74744,0.00108033,-0.000851831,-0.0017987,0.00215597,-0.00192747,-0.538956,0.00235881,0.0241374,622,1135,-23.3838,-2.74748
-595,-111,-23.2619,3.0603,0.000505442,-0.00079366,-0.0022917,0.00223787,-0.00252609,-0.647302,0.00275215,0.0151253,629,1135,-23.2619,-3.06026
-588,-111,-23.109,3.43359,0,0,0,0,0,0,0,-1,636,1135,-23.109,-3.43364
-581,-111,-21.0555,3.14551,0,0,0,0,0,0,0,-1,643,1135,-21.0555,-3.14548
-574,-111,-25.726,0.770386,0,0,0,0,0,0,0,-1,650,1135,-25.726,-0.770384
-567,-111,-25.6385,0.718384,0.000335387,-0.000396411,-0.00204201,0.00204402,-0.00210505,-0.696746,0.00239555,0.0380459,657,1135,-25.6385,-0.718407
-560,-111,-25.5244,0.570068,0.000169695,-5.94075e-05,-0.00184206,0.00190076,-0.00179047,-0.754345,0.00213145,0.0385353,664,1135,-25.5244,-0.570116
-553,-111,-25.4882,0.437012,-0.000544566,0.000376008,-0.00146979,0.0014559,-0.00162446,-0.937143,0.00177933,0.0415971,671,1135,-25.4882,-0.43702
-546,-111,-25.4968,0.398315,-0.00198618,0.000777626,-0.000757157,0.000971458,-0.00218002,-1.32018,0.00186357,0.037738,678,1135,-25.4968,-0.398321
-539,-111,-25.6453,0.419312,-0.00433049,0.000737601,0.000657019,0.000821391,-0.00441428,1.44395,0.00325142,0.0380254,685,1135,-25.6453,-0.419294
-532,-111,-25.8735,0.407471,-0.00716718,0.000226558,0.00222042,0.000842126,-0.00778274,1.30036,0.00549077,0.0406231,692,1135,-25.8736,-0.407511
-525,-111,-25.9492,0.574341,-0.0096753,-0.00045962,0.00404391,0.00106323,-0.0111981,1.21064,0.0078439,0.0365521,699,1135,-25.9491,-0.574382
-518,-111,0,0,0,0,0,0,0,0,0,-1,706,1135,0,0
-511,-111,0,0,0,0,0,0,0,0,0,-1,713,1135,0,0
-504,-111,0,0,0,0,0,0,0,0,0,-1,720,1135,0,0
-497,-111,0,0,0,0,0,0,0,0,0,-1,727,1135,0,0
-490,-111,0,0,0,0,0,0,0,0,0,-1,734,1135,0,0
-483,-111,0,0,0,0,0,0,0,0,0,-1,741,1135,0,0
-476,-111,0,0,0,0,0,0,0,0,0,-1,748,1135,0,0
-469,-111,0,0,0,0,0,0,0,0,0,-1,755,1135,0,0
-462,-111,0,0,0,0,0,0,0,0,0,-1,762,1135,0,0
-455,-111,0,0,0,0,0,0,0,0,0,-1,769,1135,0,0
-448,-111,0,0,0,0,0,0,0,0,0,-1,776,1135,0,0
-441,-111,0,0,0,0,0,0,0,0,0,-1,783,1135,0,0
-434,-111,0,0,0,0,0,0,0,0,0,-1,790,1135,0,0
-427,-111,0,0,0,0,0,0,0,0,0,-1,797,1135,0,0
-420,-111,0,0,0,0,0,0,0,0,0,-1,804,1135,0,0
-413,-111,0,0,0,0,0,0,0,0,0,-1,811,1135,0,0
-406,-111,0,0,0,0,0,0,0,0,0,-1,818,1135,0,0
-399,-111,0,0,0,0,0,0,0,0,0,-1,825,1135,0,0
-392,-111,0,0,0,0,0,0,0,0,0,-1,832,1135,0,0
-385,-111,0,0,0,0,0,0,0,0,0,-1,839,1135,0,0
-378,-111,0,0,0,0,0,0,0,0,0,-1,846,1135,0,0
-371,-111,0,0,0,0,0,0,0,0,0,-1,853,1135,0,0
-364,-111,0,0,0,0,0,0,0,0,0,-1,860,1135,0,0
-357,-111,0,0,0,0,0,0,0,0,0,-1,867,1135,0,0
-350,-111,0,0,0,0,0,0,0,0,0,-1,874,1135,0,0
-343,-111,0,0,0,0,0,0,0,0,0,-1,881,1135,0,0
-336,-111,0,0,0,0,0,0,0,0,0,-1,888,1135,0,0
-329,-111,0,0,0,0,0,0,0,0,0,-1,895,1135,0,0
-322,-111,0,0,0,0,0,0,0,0,0,-1,902,1135,0,0
-315,-111,0,0,0,0,0,0,0,0,0,-1,909,1135,0,0
-308,-111,0,0,0,0,0,0,0,0,0,-1,916,1135,0,0
-301,-111,0,0,0,0,0,0,0,0,0,-1,923,1135,0,0
-294,-111,0,0,0,0,0,0,0,0,0,-1,930,1135,0,0
-287,-111,0,0,0,0,0,0,0,0,0,-1,937,1135,0,0
-280,-111,0,0,0,0,0,0,0,0,0,-1,944,1135,0,0
-273,-111,0,0,0,0,0,0,0,0,0,-1,951,1135,0,0
-266,-111,0,0,0,0,0,0,0,0,0,-1,958,1135,0,0
-259,-111,0,0,0,0,0,0,0,0,0,-1,965,1135,0,0
-252,-111,0,0,0,0,0,0,0,0,0,-1,972,1135,0,0
-245,-111,0,0,0,0,0,0,0,0,0,-1,979,1135,0,0
-238,-111,0,0,0,0,0,0,0,0,0,-1,986,1135,0,0
-231,-111,0,0,0,0,0,0,0,0,0,-1,993,1135,0,0
-224,-111,0,0,0,0,0,0,0,0,0,-1,1000,1135,0,0
-217,-111,0,0,0,0,0,0,0,0,0,-1,1007,1135,0,0
-210,-111,0,0,0,0,0,0,0,0,0,-1,1014,1135,0,0
-203,-111,0,0,0,0,0,0,0,0,0,-1,1021,1135,0,0
-196,-111,0,0,0,0,0,0,0,0,0,-1,1028,1135,0,0
-189,-111,0,0,0,0,0,0,0,0,0,-1,1035,1135,0,0
-182,-111,0,0,0,0,0,0,0,0,0,-1,1042,1135,0,0
-175,-111,0,0,0,0,0,0,0,0,0,-1,1049,1135,0,0
-168,-111,0,0,0,0,0,0,0,0,0,-1,1056,1135,0,0
-161,-111,0,0,0,0,0,0,0,0,0,-1,1063,1135,0,0
-154,-111,0,0,0,0,0,0,0,0,0,-1,1070,1135,0,0
-147,-111,0,0,0,0,0,0,0,0,0,-1,1077,1135,0,0
-140,-111,0,0,0,0,0,0,0,0,0,-1,1084,1135,0,0
-133,-111,0,0,0,0,0,0,0,0,0,-1,1091,1135,0,0
-126,-111,0,0,0,0,0,0,0,0,0,-1,1098,1135,0,0
-119,-111,0,0,0,0,0,0,0,0,0,-1,1105,1135,0,0
-112,-111,0,0,0,0,0,0,0,0,0,-1,1112,1135,0,0
-105,-111,0,0,0,0,0,0,0,0,0,-1,1119,1135,0,0
-98,-111,0,0,0,0,0,0,0,0,0,-1,1126,1135,0,0
-91,-111,0,0,0,0,0,0,0,0,0,-1,1133,1135,0,0
-84,-111,0,0,0,0,0,0,0,0,0,-1,1140,1135,0,0
-77,-111,0,0,0,0,0,0,0,0,0,-1,1147,1135,0,0
-70,-111,0,0,0,0,0,0,0,0,0,-1,1154,1135,0,0
-63,-111,0,0,0,0,0,0,0,0,0,-1,1161,1135,0,0
-56,-111,0,0,0,0,0,0,0,0,0,-1,1168,1135,0,0
-49,-111,0,0,0,0,0,0,0,0,0,-1,1175,1135,0,0
-42,-111,0,0,0,0,0,0,0,0,0,-1,1182,1135,0,0
-35,-111,0,0,0,0,0,0,0,0,0,-1,1189,1135,0,0
-28,-111,0,0,0,0,0,0,0,0,0,-1,1196,1135,0,0
-21,-111,0,0,0,0,0,0,0,0,0,-1,1203,1135,0,0
-14,-111,0,0,0,0,0,0,0,0,0,-1,1210,1135,0,0
-7,-111,0,0,0,0,0,0,0,0,0,-1,1217,1135,0,0
0,-111,0,0,0,0,0,0,0,0,0,-1,1224,1135,0,0
7,-111,0,0,0,0,0,0,0,0,0,-1,1231,1135,0,0
14,-111,0,0,0,0,0,0,0,0,0,-1,1238,1135,0,0
21,-111,0,0,0,0,0,0,0,0,0,-1,1245,1135,0,0
28,-111,0,0,0,0,0,0,0,0,0,-1,1252,1135,0,0
35,-111,0,0,0,0,0,0,0,0,0,-1,1259,1135,0,0
42,-111,0,0,0,0,0,0,0,0,0,-1,1266,1135,0,0
49,-111,0,0,0,0,0,0,0,0,0,-1,1273,1135,0,0
56,-111,0,0,0,0,0,0,0,0,0,-1,1280,1135,0,0
63,-111,0,0,0,0,0,0,0,0,0,-1,1287,1135,0,0
70,-111,0,0,0,0,0,0,0,0,0,-1,1294,1135,0,0
77,-111,0,0,0,0,0,0,0,0,0,-1,1301,1135,0,0
84,-111,0,0,0,0,0,0,0,0,0,-1,1308,1135,0,0
91,-111,0,0,0,0,0,0,0,0,0,-1,1315,1135,0,0
98,-111,0,0,0,0,0,0,0,0,0,-1,1322,1135,0,0
105,-111,0,0,0,0,0,0,0,0,0,-1,1329,1135,0,0
112,-111,0,0,0,0,0,0,0,0,0,-1,1336,1135,0,0
119,-111,0,0,0,0,0,0,0,0,0,-1,1343,1135,0,0
126,-111,0,0,0,0,0,0,0,0,0,-1,1350,1135,0,0
133,-111,0,0,0,0,0,0,0,0,0,-1,1357,1135,0,0
140,-111,0,0,0,0,0,0,0,0,0,-1,1364,1135,0,0
147,-111,0,0,0,0,0,0,0,0,0,-1,1371,1135,0,0
154,-111,0,0,0,0,0,0,0,0,0,-1,1378,1135,0,0
161,-111,0,0,0,0,0,0,0,0,0,-1,1385,1135,0,0
168,-111,0,0,0,0,0,0,0,0,0,-1,1392,1135,0,0
175,-111,0,0,0,0,0,0,0,0,0,-1,1399,1135,0,0
182,-111,0,0,0,0,0,0,0,0,0,-1,1406,1135,0,0
189,-111,0,0,0,0,0,0,0,0,0,-1,1413,1135,0,0
196,-111,0,0,0,0,0,0,0,0,0,-1,1420,1135,0,0
203,-111,0,0,0,0,0,0,0,0,0,-1,1427,1135,0,0
210,-111,0,0,0,0,0,0,0,0,0,-1,1434,1135,0,0
217,-111,0,0,0,0,0,0,0,0,0,-1,1441,1135,0,0
224,-111,0,0,0,0,0,0,0,0,0,-1,1448,1135,0,0
231,-111,0,0,0,0,0,0,0,0,0,-1,1455,1135,0,0
238,-111,0,0,0,0,0,0,0,0,0,-1,1462,1135,0,0
245,-111,0,0,0,0,0,0,0,0,0,-1,1469,1135,0,0
252,-111,0,0,0,0,0,0,0,0,0,-1,1476,1135,0,0
259,-111,0,0,0,0,0,0,0,0,0,-1,1483,1135,0,0
266,-111,0,0,0,0,0,0,0,0,0,-1,1490,1135,0,0
273,-111,0,0,0,0,0,0,0,0,0,-1,1497,1135,0,0
280,-111,0,0,0,0,0,0,0,0,0,-1,1504,1135,0,0
287,-111,0,0,0,0,0,0,0,0,0,-1,1511,1135,0,0
294,-111,0,0,0,0,0,0,0,0,0,-1,1518,1135,0,0
301,-111,0,0,0,0,0,0,0,0,0,-1,1525,1135,0,0
308,-111,0,0,0,0,0,0,0,0,0,-1,1532,1135,0,0
315,-111,0,0,0,0,0,0,0,0,0,-1,1539,1135,0,0
322,-111,0,0,0,0,0,0,0,0,0,-1,1546,1135,0,0
329,-111,0,0,0,0,0,0,0,0,0,-1,1553,1135,0,0
336,-111,0,0,0,0,0,0,0,0,0,-1,1560,1135,0,0
343,-111,0,0,0,0,0,0,0,0,0,-1,1567,1135,0,0
350,-111,0,0,0,0,0,0,0,0,0,-1,1574,1135,0,0
357,-111,0,0,0,0,0,0,0,0,0,-1,1581,1135,0,0
364,-111,0,0,0,0,0,0,0,0,0,-1,1588,1135,0,0
371,-111,0,0,0,0,0,0,0,0,0,-1,1595,1135,0,0
378,-111,0,0,0,0,0,0,0,0,0,-1,1602,1135,0,0
385,-111,0,0,0,0,0,0,0,0,0,-1,1609,1135,0,0
392,-111,0,0,0,0,0,0,0,0,0,-1,1616,1135,0,0
399,-111,0,0,0,0,0,0,0,0,0,-1,1623,1135,0,0
406,-111,0,0,0,0,0,0,0,0,0,-1,1630,1135,0,0
413,-111,0,0,0,0,0,0,0,0,0,-1,1637,1135,0,0
420,-111,0,0,0,0,0,0,0,0,0,-1,1644,1135,0,0
427,-111,0,0,0,0,0,0,0,0,0,-1,1651,1135,0,0
434,-111,0,0,0,0,0,0,0,0,0,-1,1658,1135,0,0
441,-111,0,0,0,0,0,0,0,0,0,-1,1665,1135,0,0
448,-111,0,0,0,0,0,0,0,0,0,-1,1672,1135,0,0
455,-111,0,0,0,0,0,0,0,0,0,-1,1679,1135,0,0
462,-111,0,0,0,0,0,0,0,0,0,-1,1686,1135,0,0
469,-111,0,0,0,0,0,0,0,0,0,-1,1693,1135,0,0
476,-111,0,0,0,0,0,0,0,0,0,-1,1700,1135,0,0
483,-111,0,0,0,0,0,0,0,0,0,-1,1707,1135,0,0
490,-111,0,0,0,0,0,0,0,0,0,-1,1714,1135,0,0
497,-111,0,0,0,0,0,0,0,0,0,-1,1721,1135,0,0
504,-111,0,0,0,0,0,0,0,0,0,-1,1728,1135,0,0
511,-111,0,0,0,0,0,0,0,0,0,-1,1735,1135,0,0
518,-111,0,0,0,0,0,0,0,0,0,-1,1742,1135,0,0
525,-111,0,0,0,0,0,0,0,0,0,-1,1749,1135,0,0
532,-111,0,0,0,0,0,0,0,0,0,-1,1756,1135,0,0
539,-111,0,0,0,0,0,0,0,0,0,-1,1763,1135,0,0
546,-111,0,0,0,0,0,0,0,0,0,-1,1770,1135,0,0
553,-111,0,0,0,0,0,0,0,0,0,-1,1777,1135,0,0
560,-111,0,0,0,0,0,0,0,0,0,-1,1784,1135,0,0
567,-111,0,0,0,0,0,0,0,0,0,-1,1791,1135,0,0
574,-111,0,0,0,0,0,0,0,0,0,-1,1798,1135,0,0
581,-111,0,0,0,0,0,0,0,0,0,-1,1805,1135,0,0
588,-111,0,0,0,0,0,0,0,0,0,-1,1812,1135,0,0
595,-111,0,0,0,0,0,0,0,0,0,-1,1819,1135,0,0
602,-111,0,0,0,0,0,0,0,0,0,-1,1826,1135,0,0
609,-111,0,0,0,0,0,0,0,0,0,-1,1833,1135,0,0
616,-111,0,0,0,0,0,0,0,0,0,-1,1840,1135,0,0
623,-111,0,0,0,0,0,0,0,0,0,-1,1847,1135,0,0
630,-111,0,0,0,0,0,0,0,0,0,-1,1854,1135,0,0
637,-111,0,0,0,0,0,0,0,0,0,-1,1861,1135,0,0
644,-111,35.4644,2.79541,0.00520651,-0.00166399,-0.00556317,0.00830959,-0.00476707,-0.508804,0.0076416,0.0395434,1868,1135,35.4644,-2.79543
651,-111,35.5321,2.72351,0.00390708,-0.000762771,-0.00459531,0.00672664,-0.00358234,-0.550341,0.00604347,0.0402865,1875,1135,35.5321,-2.72355
658,-111,35.6024,2.48291,0.00308124,-0.000180527,-0.00365908,0.00545643,-0.00255572,-0.575759,0.00472579,0.0424916,1882,1135,35.6024,-2.48293
665,-111,35.7894,2.19141,0.00237901,0.00015495,-0.00272895,0.0042138,-0.00167984,-0.591923,0.00350596,0.0460681,1889,1135,35.7894,-2.19146
672,-111,35.7271,1.96423,0.00189211,0.000214058,-0.00183982,0.00307519,-0.000969019,-0.571467,0.00243819,0.0454923,1896,1135,35.7271,-1.96424
679,-111,35.561,2.24524,0.00131662,2.00856e-05,-0.00109102,0.00193744,-0.000600731,-0.517332,0.00153165,0.0415894,1903,1135,35.5611,-2.24523
686,-111,35.4436,2.474,0.000899555,-0.00030106,-0.000585319,0.00113768,-0.000539184,-0.386379,0.000988479,0.0384681,1910,1135,35.4435,-2.47405
693,-111,35.54,2.57263,0.00070658,-0.000608532,-0.000226165,0.000744388,-0.000646339,-0.165636,0.000803601,0.0366812,1917,1135,35.54,-2.57259
700,-111,35.634,2.50696,0.000397973,-0.000782979,7.83539e-05,0.000403149,-0.000788155,0.0659627,0.00069967,0.0298186,1924,1135,35.634,-2.50698
707,-111,35.5701,2.4834,0,0,0,0,0,0,0,-1,1931,1135,35.57,-2.48343
714,-111,33.3687,5.83325,0,0,0,0,0,0,0,-1,1938,1135,33.3687,-5.83323
721,-111,33.1318,5.70544,-0.000227636,-0.000808946,0.00100707,0.000529882,-0.00156646,0.644909,0.00125868,0.0207245,1945,1135,33.1318,-5.70543
728,-111,33.1348,5.4762,-0.000726402,-0.000926513,0.00130343,0.000480803,-0.00213372,0.747091,0.00160691,0.0202489,1952,1135,33.1347,-5.47619
735,-111,33.1532,5.26819,-0.00134719,-0.000661255,0.00128769,0.000328359,-0.00233681,0.915549,0.00167807,0.0198585,1959,1135,33.1532,-5.26816
742,-111,33.0884,5.07813,-0.0021109,0.00105343,0.000948727,0.00131608,-0.00237354,1.30072,0.00215917,0.0125157,1966,1135,33.0883,-5.07809
749,-111,33.068,4.85864,-0.00372268,0.00375947,0.000834934,0.0038515,-0.00381472,1.46101,0.00442611,0.0147906,1973,1135,33.068,-4.85863
756,-111,33.0653,4.63135,-0.00593044,0.00795335,3.35478e-05,0.00795343,-0.00593052,1.56838,0.00804421,0.0156526,1980,1135,33.0653,-4.63135
763,-111,33.074,4.42297,-0.00906159,0.0139367,-0.0016346,0.0140523,-0.00917719,-1.50019,0.0135097,0.0131315,1987,1135,33.074,-4.42294
770,-111,33.0582,4.20703,-0.0132916,0.0220349,-0.00384379,0.0224483,-0.013705,-1.46366,0.0210756,0.0105602,1994,1135,33.0582,-4.20707
777,-111,32.9492,3.95068,-0.0183416,0.031635,-0.00675693,0.0325324,-0.019239,-1.43875,0.0302169,0.021579,2001,1135,32.9493,-3.9507
784,-111,32.7764,3.6582,-0.0244769,0.0430492,-0.0106306,0.0446833,-0.0261109,-1.41828,0.0413392,0.0392372,2008,1135,32.7764,-3.65824
791,-111,32.2358,2.38843,-0.0318646,0.0565427,-0.0158025,0.0592824,-0.0346044,-1.39913,0.0548262,0.044378,2015,1135,32.2358,-2.38842
798,-111,32.0024,1.56726,-0.0403133,0.0719873,-0.0225873,0.0763601,-0.044686,-1.37957,0.070679,0.0452124,2022,1135,32.0025,-1.56729
805,-111,32.0105,0.979492,-0.0497397,0.0888008,-0.0313344,0.0955582,-0.0564971,-1.35839,0.0887495,0.0451336,2029,1135,32.0104,-0.97944
812,-111,32.0383,0.565186,0,0,0,0,0,0,0,-1,2036,1135,32.0384,-0.565209
-700,-118,0,0,0,0,0,0,0,0,0,-1,524,1142,0,0
-693,-118,-26.5419,0.415039,0.0947659,0.0933501,-0.0546813,0.148744,0.0393721,-0.778926,0.0889907,0.0485261,531,1142,-26.5419,-0.415009
-686,-118,-25.8633,-0.268311,0.0864123,0.0684176,-0.0406111,0.119011,0.0358191,-0.676384,0.0705021,0.0483056,538,1142,-25.8633,0.268343
-679,-118,-25.2684,-0.523926,0.0758718,0.0496706,-0.0294086,0.0949658,0.0305766,-0.575859,0.055975,0.0438002,545,1142,-25.2684,0.523881
-672,-118,-24.3012,-0.651489,0.0647687,0.0353842,-0.0205376,0.0753283,0.0248246,-0.474911,0.0443251,0.0468898,552,1142,-24.3012,0.651442
-665,-118,-23.3682,-0.695923,0,0,0,0,0,0,0,-1,559,1142,-23.3681,0.69587
-658,-118,-23.1521,-0.103149,0,0,0,0,0,0,0,-1,566,1142,-23.1521,0.103116
-651,-118,-22.9531,0.499756,0.0328956,0.0108457,-0.00487744,0.0339263,0.00981498,-0.208258,0.0201588,0.0416336,573,1142,-22.953,-0.499749
-644,-118,-22.7842,1.15259,0.0240511,0.00688757,-0.00263925,0.0244478,0.0064909,-0.149181,0.0146233,0.028406,580,1142,-22.7842,-1.15264
-637,-118,-22.8829,1.48828,0.0159809,0.00272718,-0.000505737,0.0160001,0.00270791,-0.0380844,0.00988849,0.0152399,587,1142,-22.8829,-1.48832
-630,-118,-22.9259,1.73413,0.00934082,0.000626387,0.000258804,0.0093485,0.000618708,0.0296635,0.00603667,0.0195189,594,1142,-22.9259,-1.73415
-623,-118,-22.937,1.97913,0.00439408,-0.000112687,-7.01284e-05,0.00439517,-0.000113778,-0.0155557,0.00296877,0.0161076,601,1142,-22.937,-1.97914
-616,-118,-22.9709,2.21484,0.00179377,-0.000453171,-0.000578618,0.00193402,-0.000593419,-0.237798,0.00152611,0.0159217,608,1142,-22.9709,-2.21486
-609,-118,-23.087,2.39026,0.00113355,-0.00035873,-0.00101187,0.00164463,-0.000869811,-0.467708,0.00147451,0.0247591,615,1142,-23.087,-2.39023
-602,-118,-23.0575,2.78748,0.000796243,-0.000233091,-0.00157185,0.00193554,-0.00137239,-0.627185,0.00191903,0.0237782,622,1142,-23.0575,-2.78745
-595,-118,-23.2471,3.14954,0,0,0,0,0,0,0,-1,629,1142,-23.2471,-3.14959
-588,-118,-22.7999,3.35205,0,0,0,0,0,0,0,-1,636,1142,-22.7998,-3.35211
-581,-118,-22.5198,3.5542,0,0,0,0,0,0,0,-1,643,1142,-22.5198,-3.55417
-574,-118,-25.6659,0.677246,0,0,0,0,0,0,0,-1,650,1142,-25.6659,-0.677276
-567,-118,-25.6627,0.726563,0.000216225,0.000263335,-0.00166871,0.00190866,-0.0014291,-0.792456,0.00193367,0.0415882,657,1142,-25.6627,-0.726611
-560,-118,-25.6807,0.723022,0.000139297,0.000546821,-0.00148743,0.00184439,-0.00115827,-0.853469,0.0017486,0.0381522,664,1142,-25.6807,-0.722976
-553,-118,-25.5682,0.696899,-0.00039565,0.000871827,-0.0011418,0.00154397,-0.0010678,-1.03875,0.00151624,0.0389213,671,1142,-25.5683,-0.696876
-546,-118,-25.4391,0.546143,-0.00149585,0.00108898,-0.000475157,0.00117355,-0.00158043,-1.39464,0.00159579,0.03681,678,1142,-25.4391,-0.546125
-539,-118,-25.4537,0.574829,-0.00336755,0.000811835,0.000905873,0.000999734,-0.00355544,1.36627,0.00276447,0.040478,685,1142,-25.4538,-0.57481
-532,-118,-25.6702,0.555908,-0.00560539,0.000191729,0.00263687,0.00121168,-0.00662534,1.20172,0.00487128,0.0399773,692,1142,-25.6702,-0.555859
-525,-118,-25.8389,0.654541,-0.00742115,-0.000577508,0.00467706,0.00179582,-0.00979447,1.10121,0.00720326,0.0389912,699,1142,-25.8389,-0.654595
-518,-118,0,0,0,0,0,0,0,0,0,-1,706,1142,0,0
-511,-118,0,0,0,0,0,0,0,0,0,-1,713,1142,0,0
-504,-118,0,0,0,0,0,0,0,0,0,-1,720,1142,0,0
-497,-118,0,0,0,0,0,0,0,0,0,-1,727,1142,0,0
-490,-118,0,0,0,0,0,0,0,0,0,-1,734,1142,0,0
-483,-118,0,0,0,0,0,0,0,0,0,-1,741,1142,0,0
-476,-118,0,0,0,0,0,0,0,0,0,-1,748,1142,0,0
-469,-118,0,0,0,0,0,0,0,0,0,-1,755,1142,0,0
-462,-118,0,0,0,0,0,0,0,0,0,-1,762,1142,0,0
-455,-118,0,0,0,0,0,0,0,0,0,-1,769,1142,0,0
-448,-118,0,0,0,0,0,0,0,0,0,-1,776,1142,0,0
-441,-118,0,0,0,0,0,0,0,0,0,-1,783,1142,0,0
-434,-118,0,0,0,0,0,0,0,0,0,-1,790,1142,0,0
-427,-118,0,0,0,0,0,0,0,0,0,-1,797,1142,0,0
-420,-118,0,0,0,0,0,0,0,0,0,-1,804,1142,0,0
-413,-118,0,0,0,0,0,0,0,0,0,-1,811,1142,0,0
-406,-118,0,0,0,0,0,0,0,0,0,-1,818,1142,0,0
-399,-118,0,0,0,0,0,0,0,0,0,-1,825,1142,0,0
-392,-118,0,0,0,0,0,0,0,0,0,-1,832,1142,0,0
-385,-118,0,0,0,0,0,0,0,0,0,-1,839,1142,0,0
-378,-118,0,0,0,0,0,0,0,0,0,-1,846,1142,0,0
-371,-118,0,0,0,0,0,0,0,0,0,-1,853,1142,0,0
-364,-118,0,0,0,0,0,0,0,0,0,-1,860,1142,0,0
-357,-118,0,0,0,0,0,0,0,0,0,-1,867,1142,0,0
-350,-118,0,0,0,0,0,0,0,0,0,-1,874,1142,0,0
-343,-118,0,0,0,0,0,0,0,0,0,-1,881,1142,0,0
-336,-118,0,0,0,0,0,0,0,0,0,-1,888,1142,0,0
-329,-118,0,0,0,0,0,0,0,0,0,-1,895,1142,0,0
-322,-118,0,0,0,0,0,0,0,0,0,-1,902,1142,0,0
-315,-118,0,0,0,0,0,0,0,0,0,-1,909,1142,0,0
-308,-118,0,0,0,0,0,0,0,0,0,-1,916,1142,0,0
-301,-118,0,0,0,0,0,0,0,0,0,-1,923,1142,0,0
-294,-118,0,0,0,0,0,0,0,0,0,-1,930,1142,0,0
-287,-118,0,0,0,0,0,0,0,0,0,-1,937,1142,0,0
-280,-118,0,0,0,0,0,0,0,0,0,-1,944,1142,0,0
-273,-118,0,0,0,0,0,0,0,0,0,-1,951,1142,0,0
-266,-118,0,0,0,0,0,0,0,0,0,-1,958,1142,0,0
-259,-118,0,0,0,0,0,0,0,0,0,-1,965,1142,0,0
-252,-118,0,0,0,0,0,0,0,0,0,-1,972,1142,0,0
-245,-118,0,0,0,0,0,0,0,0,0,-1,979,1142,0,0
-238,-118,0,0,0,0,0,0,0,0,0,-1,986,1142,0,0
-231,-118,0,0,0,0,0,0,0,0,0,-1,993,1142,0,0
-224,-118,0,0,0,0,0,0,0,0,0,-1,1000,1142,0,0
-217,-118,0,0,0,0,0,0,0,0,0,-1,1007,1142,0,0
-210,-118,0,0,0,0,0,0,0,0,0,-1,1014,1142,0,0
-203,-118,0,0,0,0,0,0,0,0,0,-1,1021,1142,0,0
-196,-118,0,0,0,0,0,0,0,0,0,-1,1028,1142,0,0
-189,-118,0,0,0,0,0,0,0,0,0,-1,1035,1142,0,0
-182,-118,0,0,0,0,0,0,0,0,0,-1,1042,1142,0,0
-175,-118,0,0,0,0,0,0,0,0,0,-1,1049,1142,0,0
-168,-118,0,0,0,0,0,0,0,0,0,-1,1056,1142,0,0
-161,-118,0,0,0,0,0,0,0,0,0,-1,1063,1142,0,0
-154,-118,0,0,0,0,0,0,0,0,0,-1,1070,1142,0,0
-147,-118,0,0,0,0,0,0,0,0,0,-1,1077,1142,0,0
-140,-118,0,0,0,0,0,0,0,0,0,-1,1084,1142,0,0
-133,-118,0,0,0,0,0,0,0,0,0,-1,1091,1142,0,0
-126,-118,0,0,0,0,0,0,0,0,0,-1,1098,1142,0,0
-119,-118,0,0,0,0,0,0,0,0,0,-1,1105,1142,0,0
-112,-118,0,0,0,0,0,0,0,0,0,-1,1112,1142,0,0
-105,-118,0,0,0,0,0,0,0,0,0,-1,1119,1142,0,0
-98,-118,0,0,0,0,0,0,0,0,0,-1,1126,1142,0,0
-91,-118,0,0,0,0,0,0,0,0,0,-1,1133,1142,0,0
-84,-118,0,0,0,0,0,0,0,0,0,-1,1140,1142,0,0
-77,-118,0,0,0,0,0,0,0,0,0,-1,1147,1142,0,0
-70,-118,0,0,0,0,0,0,0,0,0,-1,1154,1142,0,0
-63,-118,0,0,0,0,0,0,0,0,0,-1,1161,1142,0,0
-56,-118,0,0,0,0,0,0,0,0,0,-1,1168,1142,0,0
-49,-118,0,0,0,0,0,0,0,0,0,-1,1175,1142,0,0
-42,-118,0,0,0,0,0,0,0,0,0,-1,1182,1142,0,0
-35,-118,0,0,0,0,0,0,0,0,0,-1,1189,1142,0,0
-28,-118,0,0,0,0,0,0,0,0,0,-1,1196,1142,0,0
-21,-118,0,0,0,0,0,0,0,0,0,-1,1203,1142,0,0
-14,-118,0,0,0,0,0,0,0,0,0,-1,1210,1142,0,0
-7,-118,0,0,0,0,0,0,0,0,0,-1,1217,1142,0,0
0,-118,0,0,0,0,0,0,0,0,0,-1,1224,1142,0,0
7,-118,0,0,0,0,0,0,0,0,0,-1,1231,1142,0,0
14,-118,0,0,0,0,0,0,0,0,0,-1,1238,1142,0,0
21,-118,0,0,0,0,0,0,0,0,0,-1,1245,1142,0,0
28,-118,0,0,0,0,0,0,0,0,0,-1,1252,1142,0,0
35,-118,0,0,0,0,0,0,0,0,0,-1,1259,1142,0,0
42,-118,0,0,0,0,0,0,0,0,0,-1,1266,1142,0,0
49,-118,0,0,0,0,0,0,0,0,0,-1,1273,1142,0,0
56,-118,0,0,0,0,0,0,0,0,0,-1,1280,1142,0,0
63,-118,0,0,0,0,0,0,0,0,0,-1,1287,1142,0,0
70,-118,0,0,0,0,0,0,0,0,0,-1,1294,1142,0,0
77,-118,0,0,0,0,0,0,0,0,0,-1,1301,1142,0,0
84,-118,0,0,0,0,0,0,0,0,0,-1,1308,1142,0,0
91,-118,0,0,0,0,0,0,0,0,0,-1,1315,1142,0,0
98,-118,0,0,0,0,0,0,0,0,0,-1,1322,1142,0,0
105,-118,0,0,0,0,0,0,0,0,0,-1,1329,1142,0,0
112,-118,0,0,0,0,0,0,0,0,0,-1,1336,1142,0,0
119,-118,0,0,0,0,0,0,0,0,0,-1,1343,1142,0,0
126,-118,0,0,0,0,0,0,0,0,0,-1,1350,1142,0,0
133,-118,0,0,0,0,0,0,0,0,0,-1,1357,1142,0,0
140,-118,0,0,0,0,0,0,0,0,0,-1,1364,1142,0,0
147,-118,0,0,0,0,0,0,0,0,0,-1,1371,1142,0,0
154,-118,0,0,0,0,0,0,0,0,0,-1,1378,1142,0,0
161,-118,0,0,0,0,0,0,0,0,0,-1,1385,1142,0,0
168,-118,0,0,0,0,0,0,0,0,0,-1,1392,1142,0,0
175,-118,0,0,0,0,0,0,0,0,0,-1,1399,1142,0,0
182,-118,0,0,0,0,0,0,0,0,0,-1,1406,1142,0,0
189,-118,0,0,0,0,0,0,0,0,0,-1,1413,1142,0,0
196,-118,0,0,0,0,0,0,0,0,0,-1,1420,1142,0,0
203,-118,0,0,0,0,0,0,0,0,0,-1,1427,1142,0,0
210,-118,0,0,0,0,0,0,0,0,0,-1,1434,1142,0,0
217,-118,0,0,0,0,0,0,0,0,0,-1,1441,1142,0,0
224,-118,0,0,0,0,0,0,0,0,0,-1,1448,1142,0,0
231,-118,0,0,0,0,0,0,0,0,0,-1,1455,1142,0,0
238,-118,0,0,0,0,0,0,0,0,0,-1,1462,1142,0,0
245,-118,0,0,0,0,0,0,0,0,0,-1,1469,1142,0,0
252,-118,0,0,0,0,0,0,0,0,0,-1,1476,1142,0,0
259,-118,0,0,0,0,0,0,0,0,0,-1,1483,1142,0,0
266,-118,0,0,0,0,0,0,0,0,0,-1,1490,1142,0,0
273,-118,0,0,0,0,0,0,0,0,0,-1,1497,1142,0,0
280,-118,0,0,0,0,0,0,0,0,0,-1,1504,1142,0,0
287,-118,0,0,0,0,0,0,0,0,0,-1,1511,1142,0,0
294,-118,0,0,0,0,0,0,0,0,0,-1,1518,1142,0,0
301,-118,0,0,0,0,0,0,0,0,0,-1,1525,1142,0,0
308,-118,0,0,0,0,0,0,0,0,0,-1,1532,1142,0,0
315,-118,0,0,0,0,0,0,0,0,0,-1,1539,1142,0,0
322,-118,0,0,0,0,0,0,0,0,0,-1,1546,1142,0,0
329,-118,0,0,0,0,0,0,0,0,0,-1,1553,1142,0,0
336,-118,0,0,0,0,0,0,0,0,0,-1,1560,1142,0,0
343,-118,0,0,0,0,0,0,0,0,0,-1,1567,1142,0,0
350,-118,0,0,0,0,0,0,0,0,0,-1,1574,1142,0,0
357,-118,0,0,0,0,0,0,0,0,0,-1,1581,1142,0,0
364,-118,0,0,0,0,0,0,0,0,0,-1,1588,1142,0,0
371,-118,0,0,0,0,0,0,0,0,0,-1,1595,1142,0,0
378,-118,0,0,0,0,0,0,0,0,0,-1,1602,1142,0,0
385,-118,0,0,0,0,0,0,0,0,0,-1,1609,1142,0,0
392,-118,0,0,0,0,0,0,0,0,0,-1,1616,1142,0,0
399,-118,0,0,0,0,0,0,0,0,0,-1,1623,1142,0,0
406,-118,0,0,0,0,0,0,0,0,0,-1,1630,1142,0,0
413,-118,0,0,0,0,0,0,0,0,0,-1,1637,1142,0,0
420,-118,0,0,0,0,0,0,0,0,0,-1,1644,1142,0,0
427,-118,0,0,0,0,0,0,0,0,0,-1,1651,1142,0,0
434,-118,0,0,0,0,0,0,0,0,0,-1,1658,1142,0,0
441,-118,0,0,0,0,0,0,0,0,0,-1,1665,1142,0,0
448,-118,0,0,0,0,0,0,0,0,0,-1,1672,1142,0,0
455,-118,0,0,0,0,0,0,0,0,0,-1,1679,1142,0,0
462,-118,0,0,0,0,0,0,0,0,0,-1,1686,1142,0,0
469,-118,0,0,0,0,0,0,0,0,0,-1,1693,1142,0,0
476,-118,0,0,0,0,0,0,0,0,0,-1,1700,1142,0,0
483,-118,0,0,0,0,0,0,0,0,0,-1,1707,1142,0,0
490,-118,0,0,0,0,0,0,0,0,0,-1,1714,1142,0,0
497,-118,0,0,0,0,0,0,0,0,0,-1,1721,1142,0,0
504,-118,0,0,0,0,0,0,0,0,0,-1,1728,1142,0,0
511,-118,0,0,0,0,0,0,0,0,0,-1,1735,1142,0,0
518,-118,0,0,0,0,0,0,0,0,0,-1,1742,1142,0,0
525,-118,0,0,0,0,0,0,0,0,0,-1,1749,1142,0,0
532,-118,0,0,0,0,0,0,0,0,0,-1,1756,1142,0,0
539,-118,0,0,0,0,0,0,0,0,0,-1,1763,1142,0,0
546,-118,0,0,0,0,0,0,0,0,0,-1,1770,1142,0,0
553,-118,0,0,0,0,0,0,0,0,0,-1,1777,1142,0,0
560,-118,0,0,0,0,0,0,0,0,0,-1,1784,1142,0,0
567,-118,0,0,0,0,0,0,0,0,0,-1,1791,1142,0,0
574,-118,0,0,0,0,0,0,0,0,0,-1,1798,1142,0,0
581,-118,0,0,0,0,0,0,0,0,0,-1,1805,1142,0,0
588,-118,0,0,0,0,0,0,0,0,0,-1,1812,1142,0,0
595,-118,0,0,0,0,0,0,0,0,0,-1,1819,1142,0,0
602,-118,0,0,0,0,0,0,0,0,0,-1,1826,1142,0,0
609,-118,0,0,0,0,0,0,0,0,0,-1,1833,1142,0,0
616,-118,0,0,0,0,0,0,0,0,0,-1,1840,1142,0,0
623,-118,0,0,0,0,0,0,0,0,0,-1,1847,1142,0,0
630,-118,0,0,0,0,0,0,0,0,0,-1,1854,1142,0,0
637,-118,0,0,0,0,0,0,0,0,0,-1,1861,1142,0,0
644,-118,35.5911,2.83521,0.00309721,-0.000336622,-0.00564209,0.00727784,-0.00451724,-0.637697,0.00687178,0.0405121,1868,1142,35.591,-2.83517
651,-118,35.6919,2.63025,0.00230797,2.31271e-05,-0.00473761,0.00603895,-0.00370786,-0.667088,0.00568072,0.0403162,1875,1142,35.6919,-2.6302
658,-118,35.5542,2.427,0.00188083,0.000270863,-0.00383383,0.00499327,-0.00284158,-0.681917,0.00457996,0.042746,1882,1142,35.5543,-2.42704
665,-118,35.5922,2.37439,0.001539,0.000396582,-0.00292104,0.00394416,-0.00200857,-0.688842,0.00349685,0.0426767,1889,1142,35.5922,-2.3744
672,-118,35.9033,2.43066,0,0,0,0,0,0,0,-1,1896,1142,35.9033,-2.4306
679,-118,35.6119,2.52234,0.000976114,0.000118807,-0.00133992,0.00195427,-0.000859353,-0.630587,0.00166494,0.0405282,1903,1142,35.612,-2.5223
686,-118,35.5635,2.70386,0.000694025,-0.000190385,-0.000863414,0.00122189,-0.000718246,-0.548734,0.00113265,0.0358359,1910,1142,35.5635,-2.70386
693,-118,35.5427,2.60535,0.000601703,-0.000471492,-0.000523977,0.000815098,-0.000684887,-0.38675,0.000867104,0.0361227,1917,1142,35.5427,-2.60538
700,-118,35.6167,2.55212,0.000369119,-0.000668266,-0.000209958,0.000410001,-0.000709149,-0.192312,0.000653791,0.0249326,1924,1142,35.6166,-2.55214
707,-118,35.6597,2.6156,0,0,0,0,0,0,0,-1,1931,1142,35.6596,-2.61564
714,-118,32.9871,6.06494,0,0,0,0,0,0,0,-1,1938,1142,32.9871,-6.06499
721,-118,32.89,5.80664,-0.000144643,-0.000634529,0.000765255,0.000413914,-0.00119309,0.63051,0.000963469,0.0150439,1945,1142,32.8901,-5.80666
728,-118,32.892,5.54639,-0.000585824,-0.00074617,0.00114129,0.000478104,-0.0018101,0.750332,0.00139371,0.0171986,1952,1142,32.8919,-5.54642
735,-118,32.8516,5.31848,-0.00107172,-0.000379294,0.00117267,0.000497199,-0.00194821,0.928938,0.00149241,0.0163078,1959,1142,32.8516,-5.31849
742,-118,32.8647,5.14172,-0.00168858,0.00124667,0.000895851,0.00149848,-0.00194039,1.29678,0.00199089,0.0212044,1966,1142,32.8647,-5.1417
749,-118,32.8239,4.90613,-0.00308376,0.00376471,0.000817202,0.00386087,-0.00317992,1.45366,0.00407134,0.0203059,1973,1142,32.8239,-4.90614
756,-118,32.8536,4.65271,-0.0051618,0.0080056,8.39706e-06,0.00800561,-0.0051618,1.57016,0.00766108,0.0178538,1980,1142,32.8536,-4.65266
763,-118,32.8582,4.41833,-0.00809771,0.0141413,-0.00151008,0.0142434,-0.00819978,-1.50331,0.0131132,0.0099096,1987,1142,32.8582,-4.41829
770,-118,32.8042,4.20288,-0.0120073,0.0222613,-0.00358687,0.0226327,-0.0123787,-1.46762,0.0205008,0.0118139,1994,1142,32.8042,-4.20291
777,-118,32.7181,3.97192,-0.0167152,0.031844,-0.00632227,0.0326536,-0.0175248,-1.44343,0.0294062,0.0249006,2001,1142,32.7182,-3.97188
784,-118,32.5356,4.06604,-0.0225134,0.0432695,-0.00996885,0.044747,-0.0239909,-1.42365,0.0402844,0.0416081,2008,1142,32.5356,-4.06601
791,-118,32.0062,1.49255,-0.0295681,0.0567681,-0.0148504,0.0592511,-0.032051,-1.40513,0.0534873,0.0492034,2015,1142,32.0063,-1.49254
798,-118,31.4968,0.638184,0,0,0,0,0,0,0,-1,2022,1142,31.4968,-0.638205
805,-118,32.583,-0.574219,0,0,0,0,0,0,0,-1,2029,1142,32.5831,0.574246
812,-118,32.3894,-0.85144,0,0,0,0,0,0,0,-1,2036,1142,32.3895,0.851494
-700,-125,0,0,0,0,0,0,0,0,0,-1,524,1149,0,0
-693,-125,-25.7125,-1.0304,0.0835524,0.0985406,-0.0605706,0.152079,0.030014,-0.846948,0.0930098,0.0491783,531,1149,-25.7125,1.03036
-686,-125,-25.2907,-1.12024,0.0752688,0.0701305,-0.045082,0.117855,0.0275445,-0.756935,0.0711874,0.0460166,538,1149,-25.2907,1.12021
-679,-125,-25.0803,-0.709961,0.0657361,0.049888,-0.0332164,0.0919605,0.0236636,-0.668307,0.0551386,0.0432356,545,1149,-25.0803,0.709981
-672,-125,-24.3907,-0.779907,0.0560819,0.0349581,-0.0239213,0.0716692,0.0193708,-0.577505,0.0428092,0.0464317,552,1149,-24.3907,0.779935
-665,-125,-23.649,-1.17822,0.0466065,0.0239265,-0.0166262,0.0553918,0.0151412,-0.486108,0.0330576,0.0453271,559,1149,-23.649,1.17822
-658,-125,-22.4402,0.957886,0,0,0,0,0,0,0,-1,566,1149,-22.4402,-0.957925
-651,-125,-22.4426,1.09192,0.0288269,0.01019,-0.00696892,0.0311446,0.0078723,-0.321066,0.0186997,0.0390371,573,1149,-22.4425,-1.09196
-644,-125,-22.5265,1.20508,0.0210718,0.00627056,-0.00416753,0.0221645,0.0051778,-0.256435,0.0133884,0.0262911,580,1149,-22.5265,-1.20507
-637,-125,-22.6064,1.46265,0.0139626,0.00221775,-0.00159577,0.0141756,0.00200479,-0.132666,0.00885805,0.013444,587,1149,-22.6064,-1.46271
-630,-125,-22.6256,1.7356,0.00825369,0.000326522,-0.000439868,0.00827803,0.000302189,-0.0552625,0.00542076,0.0147172,594,1149,-22.6256,-1.73556
-623,-125,-22.6396,1.99829,0.00387674,-0.000182091,-0.000377414,0.00391153,-0.000216887,-0.0919357,0.00268291,0.0128119,601,1149,-22.6396,-1.99831
-616,-125,-22.627,2.22693,0.00152741,-0.000382351,-0.000581348,0.00169046,-0.000545398,-0.273439,0.00134612,0.0142356,608,1149,-22.627,-2.22693
-609,-125,-22.7347,2.43921,0.000933864,-0.000134693,-0.000898798,0.00144519,-0.00064602,-0.517239,0.0012364,0.0268676,615,1149,-22.7347,-2.43922
-602,-125,-22.788,2.81616,0.000617794,3.45159e-05,-0.00138033,0.00173696,-0.00108465,-0.681289,0.0016435,0.0239989,622,1149,-22.788,-2.81612
-595,-125,-22.9609,3.19531,0,0,0,0,0,0,0,-1,629,1149,-22.961,-3.1953
-588,-125,-22.5137,3.45605,0,0,0,0,0,0,0,-1,636,1149,-22.5137,-3.45611
-581,-125,-22.2248,3.8313,0,0,0,0,0,0,0,-1,643,1149,-22.2248,-3.83124
-574,-125,-25.5714,0.62439,0,0,0,0,0,0,0,-1,650,1149,-25.5714,-0.624329
-567,-125,-25.6314,0.63208,0.000206389,0.00050371,-0.00133081,0.00169414,-0.000984042,-0.841021,0.00156426,0.0401826,657,1149,-25.6314,-0.632085
-560,-125,-25.6802,0.600342,0.000189723,0.000775505,-0.0011676,0.00168639,-0.000721161,-0.908287,0.00142675,0.0397998,664,1149,-25.6803,-0.60029
-553,-125,-25.6523,0.496216,-0.000209077,0.00107746,-0.000864532,0.00151179,-0.000643403,-1.10524,0.00127752,0.0405903,671,1149,-25.6523,-0.496266
-546,-125,-25.613,0.450317,-0.00101439,0.00126341,-0.000298909,0.00130198,-0.00105296,-1.44246,0.00136216,0.0399339,678,1149,-25.613,-0.450287
-539,-125,-25.591,0.611694,-0.00247721,0.000960188,0.000881528,0.00117307,-0.0026901,1.33384,0.00228701,0.0404705,685,1149,-25.591,-0.611703
-532,-125,-25.5753,0.65564,-0.00421479,0.000373954,0.00249368,0.00146818,-0.00530901,1.1573,0.00411694,0.0372232,692,1149,-25.5753,-0.65567
-525,-125,-25.7008,0.733398,-0.00544222,-0.00038344,0.00448771,0.00223861,-0.00806427,1.04202,0.00625732,0.0409296,699,1149,-25.7008,-0.733428
-518,-125,0,0,0,0,0,0,0,0,0,-1,706,1149,0,0
-511,-125,0,0,0,0,0,0,0,0,0,-1,713,1149,0,0
-504,-125,0,0,0,0,0,0,0,0,0,-1,720,1149,0,0
-497,-125,0,0,0,0,0,0,0,0,0,-1,727,1149,0,0
-490,-125,0,0,0,0,0,0,0,0,0,-1,734,1149,0,0
-483,-125,0,0,0,0,0,0,0,0,0,-1,741,1149,0,0
-476,-125,0,0,0,0,0,0,0,0,0,-1,748,1149,0,0
-469,-125,0,0,0,0,0,0,0,0,0,-1,755,1149,0,0
-462,-125,0,0,0,0,0,0,0,0,0,-1,762,1149,0,0
-455,-125,0,0,0,0,0,0,0,0,0,-1,769,1149,0,0
-448,-125,0,0,0,0,0,0,0,0,0,-1,776,1149,0,0
-441,-125,0,0,0,0,0,0,0,0,0,-1,783,1149,0,0
-434,-125,0,0,0,0,0,0,0,0,0,-1,790,1149,0,0
-427,-125,0,0,0,0,0,0,0,0,0,-1,797,1149,0,0
-420,-125,0,0,0,0,0,0,0,0,0,-1,804,1149,0,0
-413,-125,0,0,0,0,0,0,0,0,0,-1,811,1149,0,0
-406,-125,0,0,0,0,0,0,0,0,0,-1,818,1149,0,0
-399,-125,0,0,0,0,0,0,0,0,0,-1,825,1149,0,0
-392,-125,0,0,0,0,0,0,0,0,0,-1,832,1149,0,0
-385,-125,0,0,0,0,0,0,0,0,0,-1,839,1149,0,0
-378,-125,0,0,0,0,0,0,0,0,0,-1,846,1149,0,0
-371,-125,0,0,0,0,0,0,0,0,0,-1,853,1149,0,0
-364,-125,0,0,0,0,0,0,0,0,0,-1,860,1149,0,0
-357,-125,0,0,0,0,0,0,0,0,0,-1,867,1149,0,0
-350,-125,0,0,0,0,0,0,0,0,0,-1,874,1149,0,0
-343,-125,0,0,0,0,0,0,0,0,0,-1,881,1149,0,0
-336,-125,0,0,0,0,0,0,0,0,0,-1,888,1149,0,0
-329,-125,0,0,0,0,0,0,0,0,0,-1,895,1149,0,0
-322,-125,0,0,0,0,0,0,0,0,0,-1,902,1149,0,0
-315,-125,0,0,0,0,0,0,0,0,0,-1,909,1149,0,0
-308,-125,0,0,0,0,0,0,0,0,0,-1,916,1149,0,0
-301,-125,0,0,0,0,0,0,0,0,0,-1,923,1149,0,0
-294,-125,0,0,0,0,0,0,0,0,0,-1,930,1149,0,0
-287,-125,0,0,0,0,0,0,0,0,0,-1,937,1149,0,0
-280,-125,0,0,0,0,0,0,0,0,0,-1,944,1149,0,0
-273,-125,0,0,0,0,0,0,0,0,0,-1,951,1149,0,0
-266,-125,0,0,0,0,0,0,0,0,0,-1,958,1149,0,0
-259,-125,0,0,0,0,0,0,0,0,0,-1,965,1149,0,0
-252,-125,0,0,0,0,0,0,0,0,0,-1,972,1149,0,0
-245,-125,0,0,0,0,0,0,0,0,0,-1,979,1149,0,0
-238,-125,0,0,0,0,0,0,0,0,0,-1,986,1149,0,0
-231,-125,0,0,0,0,0,0,0,0,0,-1,993,1149,0,0
-224,-125,0,0,0,0,0,0,0,0,0,-1,1000,1149,0,0
-217,-125,0,0,0,0,0,0,0,0,0,-1,1007,1149,0,0
-210,-125,0,0,0,0,0,0,0,0,0,-1,1014,1149,0,0
-203,-125,0,0,0,0,0,0,0,0,0,-1,1021,1149,0,0
-196,-125,0,0,0,0,0,0,0,0,0,-1,1028,1149,0,0
-189,-125,0,0,0,0,0,0,0,0,0,-1,1035,1149,0,0
-182,-125,0,0,0,0,0,0,0,0,0,-1,1042,1149,0,0
-175,-125,0,0,0,0,0,0,0,0,0,-1,1049,1149,0,0
-168,-125,0,0,0,0,0,0,0,0,0,-1,1056,1149,0,0
-161,-125,0,0,0,0,0,0,0,0,0,-1,1063,1149,0,0
-154,-125,0,0,0,0,0,0,0,0,0,-1,1070,1149,0,0
-147,-125,0,0,0,0,0,0,0,0,0,-1,1077,1149,0,0
-140,-125,0,0,0,0,0,0,0,0,0,-1,1084,1149,0,0
-133,-125,0,0,0,0,0,0,0,0,0,-1,1091,1149,0,0
-126,-125,0,0,0,0,0,0,0,0,0,-1,1098,1149,0,0
-119,-125,0,0,0,0,0,0,0,0,0,-1,1105,1149,0,0
-112,-125,0,0,0,0,0,0,0,0,0,-1,1112,1149,0,0
-105,-125,0,0,0,0,0,0,0,0,0,-1,1119,1149,0,0
-98,-125,0,0,0,0,0,0,0,0,0,-1,1126,1149,0,0
-91,-125,0,0,0,0,0,0,0,0,0,-1,1133,1149,0,0
-84,-125,0,0,0,0,0,0,0,0,0,-1,1140,1149,0,0
-77,-125,0,0,0,0,0,0,0,0,0,-1,1147,1149,0,0
-70,-125,0,0,0,0,0,0,0,0,0,-1,1154,1149,0,0
-63,-125,0,0,0,0,0,0,0,0,0,-1,1161,1149,0,0
-56,-125,0,0,0,0,0,0,0,0,0,-1,1168,1149,0,0
-49,-125,0,0,0,0,0,0,0,0,0,-1,1175,1149,0,0
-42,-125,0,0,0,0,0,0,0,0,0,-1,1182,1149,0,0
-35,-125,0,0,0,0,0,0,0,0,0,-1,1189,1149,0,0
-28,-125,0,0,0,0,0,0,0,0,0,-1,1196,1149,0,0
-21,-125,0,0,0,0,0,0,0,0,0,-1,1203,1149,0,0
-14,-125,0,0,0,0,0,0,0,0,0,-1,1210,1149,0,0
-7,-125,0,0,0,0,0,0,0,0,0,-1,1217,1149,0,0
0,-125,0,0,0,0,0,0,0,0,0,-1,1224,1149,0,0
7,-125,0,0,0,0,0,0,0,0,0,-1,1231,1149,0,0
14,-125,0,0,0,0,0,0,0,0,0,-1,1238,1149,0,0
21,-125,0,0,0,0,0,0,0,0,0,-1,1245,1149,0,0
28,-125,0,0,0,0,0,0,0,0,0,-1,1252,1149,0,0
35,-125,0,0,0,0,0,0,0,0,0,-1,1259,1149,0,0
42,-125,0,0,0,0,0,0,0,0,0,-1,1266,1149,0,0
49,-125,0,0,0,0,0,0,0,0,0,-1,1273,1149,0,0
56,-125,0,0,0,0,0,0,0,0,0,-1,1280,1149,0,0
63,-125,0,0,0,0,0,0,0,0,0,-1,1287,1149,0,0
70,-125,0,0,0,0,0,0,0,0,0,-1,1294,1149,0,0
77,-125,0,0,0,0,0,0,0,0,0,-1,1301,1149,0,0
84,-125,0,0,0,0,0,0,0,0,0,-1,1308,1149,0,0
91,-125,0,0,0,0,0,0,0,0,0,-1,1315,1149,0,0
98,-125,0,0,0,0,0,0,0,0,0,-1,1322,1149,0,0
105,-125,0,0,0,0,0,0,0,0,0,-1,1329,1149,0,0
112,-125,0,0,0,0,0,0,0,0,0,-1,1336,1149,0,0
119,-125,0,0,0,0,0,0,0,0,0,-1,1343,1149,0,0
126,-125,0,0,0,0,0,0,0,0,0,-1,1350,1149,0,0
133,-125,0,0,0,0,0,0,0,0,0,-1,1357,1149,0,0
140,-125,0,0,0,0,0,0,0,0,0,-1,1364,1149,0,0
147,-125,0,0,0,0,0,0,0,0,0,-1,1371,1149,0,0
154,-125,0,0,0,0,0,0,0,0,0,-1,1378,1149,0,0
161,-125,0,0,0,0,0,0,0,0,0,-1,1385,1149,0,0
168,-125,0,0,0,0,0,0,0,0,0,-1,1392,1149,0,0
175,-125,0,0,0,0,0,0,0,0,0,-1,1399,1149,0,0
182,-125,0,0,0,0,0,0,0,0,0,-1,1406,1149,0,0
189,-125,0,0,0,0,0,0,0,0,0,-1,1413,1149,0,0
196,-125,0,0,0,0,0,0,0,0,0,-1,1420,1149,0,0
203,-125,0,0,0,0,0,0,0,0,0,-1,1427,1149,0,0
210,-125,0,0,0,0,0,0,0,0,0,-1,1434,1149,0,0
217,-125,0,0,0,0,0,0,0,0,0,-1,1441,1149,0,0
224,-125,0,0,0,0,0,0,0,0,0,-1,1448,1149,0,0
231,-125,0,0,0,0,0,0,0,0,0,-1,1455,1149,0,0
238,-125,0,0,0,0,0,0,0,0,0,-1,1462,1149,0,0
245,-125,0,0,0,0,0,0,0,0,0,-1,1469,1149,0,0
252,-125,0,0,0,0,0,0,0,0,0,-1,1476,1149,0,0
259,-125,0,0,0,0,0,0,0,0,0,-1,1483,1149,0,0
266,-125,0,0,0,0,0,0,0,0,0,-1,1490,1149,0,0
273,-125,0,0,0,0,0,0,0,0,0,-1,1497,1149,0,0
280,-125,0,0,0,0,0,0,0,0,0,-1,1504,1149,0,0
287,-125,0,0,0,0,0,0,0,0,0,-1,1511,1149,0,0
294,-125,0,0,0,0,0,0,0,0,0,-1,1518,1149,0,0
301,-125,0,0,0,0,0,0,0,0,0,-1,1525,1149,0,0
308,-125,0,0,0,0,0,0,0,0,0,-1,1532,1149,0,0
315,-125,0,0,0,0,0,0,0,0,0,-1,1539,1149,0,0
322,-125,0,0,0,0,0,0,0,0,0,-1,1546,1149,0,0
329,-125,0,0,0,0,0,0,0,0,0,-1,1553,1149,0,0
336,-125,0,0,0,0,0,0,0,0,0,-1,1560,1149,0,0
343,-125,0,0,0,0,0,0,0,0,0,-1,1567,1149,0,0
350,-125,0,0,0,0,0,0,0,0,0,-1,1574,1149,0,0
357,-125,0,0,0,0,0,0,0,0,0,-1,1581,1149,0,0
364,-125,0,0,0,0,0,0,0,0,0,-1,1588,1149,0,0
371,-125,0,0,0,0,0,0,0,0,0,-1,1595,1149,0,0
378,-125,0,0,0,0,0,0,0,0,0,-1,1602,1149,0,0
385,-125,0,0,0,0,0,0,0,0,0,-1,1609,1149,0,0
392,-125,0,0,0,0,0,0,0,0,0,-1,1616,1149,0,0
399,-125,0,0,0,0,0,0,0,0,0,-1,1623,1149,0,0
406,-125,0,0,0,0,0,0,0,0,0,-1,1630,1149,0,0
413,-125,0,0,0,0,0,0,0,0,0,-1,1637,1149,0,0
420,-125,0,0,0,0,0,0,0,0,0,-1,1644,1149,0,0
427,-125,0,0,0,0,0,0,0,0,0,-1,1651,1149,0,0
434,-125,0,0,0,0,0,0,0,0,0,-1,1658,1149,0,0
441,-125,0,0,0,0,0,0,0,0,0,-1,1665,1149,0,0
448,-125,0,0,0,0,0,0,0,0,0,-1,1672,1149,0,0
455,-125,0,0,0,0,0,0,0,0,0,-1,1679,1149,0,0
462,-125,0,0,0,0,0,0,0,0,0,-1,1686,1149,0,0
469,-125,0,0,0,0,0,0,0,0,0,-1,1693,1149,0,0
476,-125,0,0,0,0,0,0,0,0,0,-1,1700,1149,0,0
483,-125,0,0,0,0,0,0,0,0,0,-1,1707,1149,0,0
490,-125,0,0,0,0,0,0,0,0,0,-1,1714,1149,0,0
497,-125,0,0,0,0,0,0,0,0,0,-1,1721,1149,0,0
504,-125,0,0,0,0,0,0,0,0,0,-1,1728,1149,0,0
511,-125,0,0,0,0,0,0,0,0,0,-1,1735,1149,0,0
518,-125,0,0,0,0,0,0,0,0,0,-1,1742,1149,0,0
525,-125,0,0,0,0,0,0,0,0,0,-1,1749,1149,0,0
532,-125,0,0,0,0,0,0,0,0,0,-1,1756,1149,0,0
539,-125,0,0,0,0,0,0,0,0,0,-1,1763,1149,0,0
546,-125,0,0,0,0,0,0,0,0,0,-1,1770,1149,0,0
553,-125,0,0,0,0,0,0,0,0,0,-1,1777,1149,0,0
560,-125,0,0,0,0,0,0,0,0,0,-1,1784,1149,0,0
567,-125,0,0,0,0,0,0,0,0,0,-1,1791,1149,0,0
574,-125,0,0,0,0,0,0,0,0,0,-1,1798,1149,0,0
581,-125,0,0,0,0,0,0,0,0,0,-1,1805,1149,0,0
588,-125,0,0,0,0,0,0,0,0,0,-1,1812,1149,0,0
595,-125,0,0,0,0,0,0,0,0,0,-1,1819,1149,0,0
602,-125,0,0,0,0,0,0,0,0,0,-1,1826,1149,0,0
609,-125,0,0,0,0,0,0,0,0,0,-1,1833,1149,0,0
616,-125,0,0,0,0,0,0,0,0,0,-1,1840,1149,0,0
623,-125,0,0,0,0,0,0,0,0,0,-1,1847,1149,0,0
630,-125,0,0,0,0,0,0,0,0,0,-1,1854,1149,0,0
637,-125,0,0,0,0,0,0,0,0,0,-1,1861,1149,0,0
644,-125,35.7064,3.08167,0.00113944,0.000757554,-0.00496527,0.00591744,-0.00402045,-0.76618,0.00577238,0.0428958,1868,1149,35.7065,-3.08166
651,-125,35.8749,2.89722,0.000835369,0.000715699,-0.00429287,0.00506882,-0.00351775,-0.77843,0.00498435,0.0423157,1875,1149,35.8748,-2.89721
658,-125,35.5985,2.73328,0.000791996,0.000695647,-0.00356372,0.00430787,-0.00282023,-0.77864,0.00414518,0.0444343,1882,1149,35.5985,-2.73331
665,-125,35.3044,2.66467,0,0,0,0,0,0,0,-1,1889,1149,35.3045,-2.66472
672,-125,35.3364,2.72778,0.000893388,0.000527206,-0.00211087,0.00282909,-0.0014085,-0.742138,0.00249197,0.043677,1896,1149,35.3364,-2.72779
679,-125,35.6636,2.65942,0.000660349,0.000314615,-0.00146421,0.00196186,-0.0009869,-0.726639,0.00173321,0.038874,1903,1149,35.6636,-2.6594
686,-125,35.6127,2.68518,0.000446495,4.12411e-05,-0.00105269,0.00131588,-0.000828144,-0.690318,0.00124848,0.0358154,1910,1149,35.6127,-2.68523
693,-125,35.5406,2.56909,0.000391563,-0.000198019,-0.000744354,0.000897374,-0.000703831,-0.596856,0.000926704,0.0351509,1917,1149,35.5406,-2.56904
700,-125,35.6143,2.60547,0.000194808,-0.000414068,-0.000444204,0.000428886,-0.000648146,-0.484983,0.000626105,0.0188625,1924,1149,35.6142,-2.60548
707,-125,35.8126,2.83948,0,0,0,0,0,0,0,-1,1931,1149,35.8126,-2.83948
714,-125,32.6095,6.11755,0,0,0,0,0,0,0,-1,1938,1149,32.6095,-6.11756
721,-125,32.6107,5.84399,-0.000291969,-0.000402927,0.000530423,0.000185869,-0.000880764,0.733291,0.000657943,0.0225626,1945,1149,32.6107,-5.84402
728,-125,32.6028,5.59351,-0.000639738,-0.000491165,0.000941127,0.000378603,-0.00150951,0.824783,0.00115344,0.0180802,1952,1149,32.6027,-5.59348
735,-125,32.5946,5.35803,-0.000988504,-6.54078e-05,0.00103106,0.000602696,-0.00165661,0.995844,0.00135089,0.0202852,1959,1149,32.5947,-5.35806
742,-125,32.5989,5.14917,-0.00141975,0.00142639,0.000837499,0.00165455,-0.0016479,1.30483,0.00190667,0.0235897,1966,1149,32.5989,-5.14911
749,-125,32.5884,4.9397,-0.0025399,0.00377865,0.000771032,0.00387138,-0.00263262,1.45111,0.00377772,0.025821,1973,1149,32.5884,-4.93974
756,-125,32.5928,4.65637,-0.00434457,0.00803824,-8.11565e-05,0.00803877,-0.0043451,-1.56424,0.00725507,0.0211783,1980,1149,32.5928,-4.65636
763,-125,32.6074,4.42151,-0.00684,0.014216,-0.00157289,0.0143329,-0.00695684,-1.49664,0.0125351,0.0110795,1987,1149,32.6074,-4.42151
770,-125,32.5752,4.16711,-0.0101559,0.0221677,-0.00362697,0.0225696,-0.0105579,-1.46042,0.0195408,0.0134577,1994,1149,32.5752,-4.16706
777,-125,32.5103,3.98657,-0.0142249,0.0315864,-0.00636093,0.0324532,-0.0150917,-1.43536,0.0280535,0.026416,2001,1149,32.5103,-3.98658
784,-125,32.4396,4.22266,-0.0193124,0.0428396,-0.0100178,0.0444143,-0.0208872,-1.41487,0.0385089,0.0434164,2008,1149,32.4395,-4.2226
791,-125,31.8243,0.614746,0,0,0,0,0,0,0,-1,2015,1149,31.8243,-0.614727
798,-125,31.2998,5.5686,0,0,0,0,0,0,0,-1,2022,1149,31.2997,-5.56859
805,-125,30.5833,5.58984,0,0,0,0,0,0,0,-1,2029,1149,30.5833,-5.58988
812,-125,30.5269,4.67078,0,0,0,0,0,0,0,-1,2036,1149,30.5268,-4.67076
-700,-132,0,0,0,0,0,0,0,0,0,-1,524,1156,0,0
-693,-132,-25.1543,-2.2793,0,0,0,0,0,0,0,-1,531,1156,-25.1543,2.27928
-686,-132,-25.5678,-1.24023,0,0,0,0,0,0,0,-1,538,1156,-25.5678,1.24028
-679,-132,-25.1791,-1.06714,0,0,0,0,0,0,0,-1,545,1156,-25.1791,1.06712
-672,-132,-24.2081,-1.14856,0,0,0,0,0,0,0,-1,552,1156,-24.2081,1.14855
-665,-132,-22.8923,-0.258179,0.0372894,0.0214909,-0.0170284,0.0481615,0.0106188,-0.568228,0.0292185,0.0447555,559,1156,-22.8923,0.258196
-658,-132,-23.3741,0.0148926,0.0301729,0.0141494,-0.011808,0.0364306,0.00789165,-0.487323,0.0221306,0.0442375,566,1156,-23.3741,-0.0148656
-651,-132,-22.3117,1.37256,0.0234049,0.00897042,-0.00787026,0.0268661,0.0055092,-0.414327,0.016386,0.0400741,573,1156,-22.3117,-1.37261
-644,-132,-22.2922,1.24524,0.0171763,0.00544787,-0.00506013,0.0190576,0.0035665,-0.355964,0.0116989,0.0216552,580,1156,-22.2922,-1.24524
-637,-132,-22.3231,1.46033,0.011342,0.0017389,-0.00244657,0.0119294,0.00115152,-0.235625,0.00759822,0.0116477,587,1156,-22.3231,-1.46028
-630,-132,-22.3183,1.72961,0.00677388,2.9555e-05,-0.00112812,0.00695758,-0.000154142,-0.161418,0.00469061,0.0101609,594,1156,-22.3183,-1.72967
-623,-132,-22.3047,2.00647,0.00313666,-0.000348792,-0.000847839,0.00333196,-0.000544087,-0.226395,0.00242312,0.0147879,601,1156,-22.3047,-2.00647
-616,-132,-22.3151,2.22058,0.00103831,-0.000479304,-0.000881289,0.00144245,-0.00088345,-0.42997,0.00135573,0.0210894,608,1156,-22.3151,-2.22053
-609,-132,-22.2516,2.50024,0.000447539,-0.000129218,-0.00112994,0.00132532,-0.001007,-0.660458,0.00135074,0.0238844,615,1156,-22.2516,-2.5002
-602,-132,-22.4079,2.75623,0.000117401,5.74691e-05,-0.00153499,0.00162272,-0.00144785,-0.775638,0.00177375,0.0222648,622,1156,-22.4079,-2.75626
-595,-132,-22.4807,3.08972,-0.000543456,9.12909e-05,-0.00180521,0.00160682,-0.00205898,-0.872414,0.00212181,0.0293134,629,1156,-22.4807,-3.08972
-588,-132,-22.3327,3.50439,0,0,0,0,0,0,0,-1,636,1156,-22.3327,-3.50443
-581,-132,-22.026,3.9823,0,0,0,0,0,0,0,-1,643,1156,-22.026,-3.98231
-574,-132,-25.5016,0.677612,0,0,0,0,0,0,0,-1,650,1156,-25.5016,-0.677586
-567,-132,-25.6409,0.661621,-1.29539e-05,0.000431989,-0.00127512,0.0015039,-0.00108486,-0.871764,0.00150114,0.0461069,657,1156,-25.6409,-0.661575
-560,-132,-25.6714,0.632935,5.76852e-05,0.000678918,-0.00108229,0.00149428,-0.000757677,-0.925142,0.00132315,0.0359798,664,1156,-25.6715,-0.632942
-553,-132,-25.7096,0.546021,-0.000146473,0.000946795,-0.000755498,0.00133268,-0.000532355,-1.09857,0.00110933,0.0379902,671,1156,-25.7096,-0.546008
-546,-132,-25.7956,0.414551,-0.00055587,0.00109668,-0.000200167,0.00112058,-0.000579769,-1.45196,0.000998112,0.0419363,678,1156,-25.7956,-0.414576
-539,-132,-25.7421,0.55127,-0.00145955,0.000757048,0.000863039,0.00105344,-0.00175595,1.23999,0.00163882,0.0415336,685,1156,-25.7421,-0.551238
-532,-132,-25.5145,0.59314,-0.00263982,0.000111379,0.00230925,0.0014237,-0.00395214,1.05402,0.00321614,0.0381872,692,1156,-25.5145,-0.593144
-525,-132,-25.5824,0.817505,-0.00315896,-0.000722989,0.00418301,0.00241576,-0.0062977,0.927068,0.00519447,0.0398519,699,1156,-25.5824,-0.817528
-518,-132,0,0,0,0,0,0,0,0,0,-1,706,1156,0,0
-511,-132,0,0,0,0,0,0,0,0,0,-1,713,1156,0,0
-504,-132,0,0,0,0,0,0,0,0,0,-1,720,1156,0,0
-497,-132,0,0,0,0,0,0,0,0,0,-1,727,1156,0,0
-490,-132,0,0,0,0,0,0,0,0,0,-1,734,1156,0,0
-483,-132,0,0,0,0,0,0,0,0,0,-1,741,1156,0,0
-476,-132,0,0,0,0,0,0,0,0,0,-1,748,1156,0,0
-469,-132,0,0,0,0,0,0,0,0,0,-1,755,1156,0,0
-462,-132,0,0,0,0,0,0,0,0,0,-1,762,1156,0,0
-455,-132,0,0,0,0,0,0,0,0,0,-1,769,1156,0,0
-448,-132,0,0,0,0,0,0,0,0,0,-1,776,1156,0,0
-441,-132,0,0,0,0,0,0,0,0,0,-1,783,1156,0,0
-434,-132,0,0,0,0,0,0,0,0,0,-1,790,1156,0,0
-427,-132,0,0,0,0,0,0,0,0,0,-1,797,1156,0,0
-420,-132,0,0,0,0,0,0,0,0,0,-1,804,1156,0,0
-413,-132,0,0,0,0,0,0,0,0,0,-1,811,1156,0,0
-406,-132,0,0,0,0,0,0,0,0,0,-1,818,1156,0,0
-399,-132,0,0,0,0,0,0,0,0,0,-1,825,1156,0,0
-392,-132,0,0,0,0,0,0,0,0,0,-1,832,1156,0,0
-385,-132,0,0,0,0,0,0,0,0,0,-1,839,1156,0,0
-378,-132,0,0,0,0,0,0,0,0,0,-1,846,1156,0,0
-371,-132,0,0,0,0,0,0,0,0,0,-1,853,1156,0,0
-364,-132,0,0,0,0,0,0,0,0,0,-1,860,1156,0,0
-357,-132,0,0,0,0,0,0,0,0,0,-1,867,1156,0,0
-350,-132,0,0,0,0,0,0,0,0,0,-1,874,1156,0,0
-343,-132,0,0,0,0,0,0,0,0,0,-1,881,1156,0,0
-336,-132,0,0,0,0,0,0,0,0,0,-1,888,1156,0,0
-329,-132,0,0,0,0,0,0,0,0,0,-1,895,1156,0,0
-322,-132,0,0,0,0,0,0,0,0,0,-1,902,1156,0,0
-315,-132,0,0,0,0,0,0,0,0,0,-1,909,1156,0,0
-308,-132,0,0,0,0,0,0,0,0,0,-1,916,1156,0,0
-301,-132,0,0,0,0,0,0,0,0,0,-1,923,1156,0,0
-294,-132,0,0,0,0,0,0,0,0,0,-1,930,1156,0,0
-287,-132,0,0,0,0,0,0,0,0,0,-1,937,1156,0,0
-280,-132,0,0,0,0,0,0,0,0,0,-1,944,1156,0,0
-273,-132,0,0,0,0,0,0,0,0,0,-1,951,1156,0,0
-266,-132,0,0,0,0,0,0,0,0,0,-1,958,1156,0,0
-259,-132,0,0,0,0,0,0,0,0,0,-1,965,1156,0,0
-252,-132,0,0,0,0,0,0,0,0,0,-1,972,1156,0,0
-245,-132,0,0,0,0,0,0,0,0,0,-1,979,1156,0,0
-238,-132,0,0,0,0,0,0,0,0,0,-1,986,1156,0,0
-231,-132,0,0,0,0,0,0,0,0,0,-1,993,1156,0,0
-224,-132,0,0,0,0,0,0,0,0,0,-1,1000,1156,0,0
-217,-132,0,0,0,0,0,0,0,0,0,-1,1007,1156,0,0
-210,-132,0,0,0,0,0,0,0,0,0,-1,1014,1156,0,0
-203,-132,0,0,0,0,0,0,0,0,0,-1,1021,1156,0,0
-196,-132,0,0,0,0,0,0,0,0,0,-1,1028,1156,0,0
-189,-132,0,0,0,0,0,0,0,0,0,-1,1035,1156,0,0
-182,-132,0,0,0,0,0,0,0,0,0,-1,1042,1156,0,0
-175,-132,0,0,0,0,0,0,0,0,0,-1,1049,1156,0,0
-168,-132,0,0,0,0,0,0,0,0,0,-1,1056,1156,0,0
-161,-132,0,0,0,0,0,0,0,0,0,-1,1063,1156,0,0
-154,-132,0,0,0,0,0,0,0,0,0,-1,1070,1156,0,0
-147,-132,0,0,0,0,0,0,0,0,0,-1,1077,1156,0,0
-140,-132,0,0,0,0,0,0,0,0,0,-1,1084,1156,0,0
-133,-132,0,0,0,0,0,0,0,0,0,-1,1091,1156,0,0
-126,-132,0,0,0,0,0,0,0,0,0,-1,1098,1156,0,0
-119,-132,0,0,0,0,0,0,0,0,0,-1,1105,1156,0,0
-112,-132,0,0,0,0,0,0,0,0,0,-1,1112,1156,0,0
-105,-132,0,0,0,0,0,0,0,0,0,-1,1119,1156,0,0
-98,-132,0,0,0,0,0,0,0,0,0,-1,1126,1156,0,0
-91,-132,0,0,0,0,0,0,0,0,0,-1,1133,1156,0,0
-84,-132,0,0,0,0,0,0,0,0,0,-1,1140,1156,0,0
-77,-132,0,0,0,0,0,0,0,0,0,-1,1147,1156,0,0
-70,-132,0,0,0,0,0,0,0,0,0,-1,1154,1156,0,0
-63,-132,0,0,0,0,0,0,0,0,0,-1,1161,1156,0,0
-56,-132,0,0,0,0,0,0,0,0,0,-1,1168,1156,0,0
-49,-132,0,0,0,0,0,0,0,0,0,-1,1175,1156,0,0
-42,-132,0,0,0,0,0,0,0,0,0,-1,1182,1156,0,0
-35,-132,0,0,0,0,0,0,0,0,0,-1,1189,1156,0,0
-28,-132,0,0,0,0,0,0,0,0,0,-1,1196,1156,0,0
-21,-132,0,0,0,0,0,0,0,0,0,-1,1203,1156,0,0
-14,-132,0,0,0,0,0,0,0,0,0,-1,1210,1156,0,0
-7,-132,0,0,0,0,0,0,0,0,0,-1,1217,1156,0,0
0,-132,0,0,0,0,0,0,0,0,0,-1,1224,1156,0,0
7,-132,0,0,0,0,0,0,0,0,0,-1,1231,1156,0,0
14,-132,0,0,0,0,0,0,0,0,0,-1,1238,1156,0,0
21,-132,0,0,0,0,0,0,0,0,0,-1,1245,1156,0,0
28,-132,0,0,0,0,0,0,0,0,0,-1,1252,1156,0,0
35,-132,0,0,0,0,0,0,0,0,0,-1,1259,1156,0,0
42,-132,0,0,0,0,0,0,0,0,0,-1,1266,1156,0,0
49,-132,0,0,0,0,0,0,0,0,0,-1,1273,1156,0,0
56,-132,0,0,0,0,0,0,0,0,0,-1,1280,1156,0,0
63,-132,0,0,0,0,0,0,0,0,0,-1,1287,1156,0,0
70,-132,0,0,0,0,0,0,0,0,0,-1,1294,1156,0,0
77,-132,0,0,0,0,0,0,0,0,0,-1,1301,1156,0,0
84,-132,0,0,0,0,0,0,0,0,0,-1,1308,1156,0,0
91,-132,0,0,0,0,0,0,0,0,0,-1,1315,1156,0,0
98,-132,0,0,0,0,0,0,0,0,0,-1,1322,1156,0,0
105,-132,0,0,0,0,0,0,0,0,0,-1,1329,1156,0,0
112,-132,0,0,0,0,0,0,0,0,0,-1,1336,1156,0,0
119,-132,0,0,0,0,0,0,0,0,0,-1,1343,1156,0,0
126,-132,0,0,0,0,0,0,0,0,0,-1,1350,1156,0,0
133,-132,0,0,0,0,0,0,0,0,0,-1,1357,1156,0,0
140,-132,0,0,0,0,0,0,0,0,0,-1,1364,1156,0,0
147,-132,0,0,0,0,0,0,0,0,0,-1,1371,1156,0,0
154,-132,0,0,0,0,0,0,0,0,0,-1,1378,1156,0,0
161,-132,0,0,0,0,0,0,0,0,0,-1,1385,1156,0,0
168,-132,0,0,0,0,0,0,0,0,0,-1,1392,1156,0,0
175,-132,0,0,0,0,0,0,0,0,0,-1,1399,1156,0,0
182,-132,0,0,0,0,0,0,0,0,0,-1,1406,1156,0,0
189,-132,0,0,0,0,0,0,0,0,0,-1,1413,1156,0,0
196,-132,0,0,0,0,0,0,0,0,0,-1,1420,1156,0,0
203,-132,0,0,0,0,0,0,0,0,0,-1,1427,1156,0,0
210,-132,0,0,0,0,0,0,0,0,0,-1,1434,1156,0,0
217,-132,0,0,0,0,0,0,0,0,0,-1,1441,1156,0,0
224,-132,0,0,0,0,0,0,0,0,0,-1,1448,1156,0,0
231,-132,0,0,0,0,0,0,0,0,0,-1,1455,1156,0,0
238,-132,0,0,0,0,0,0,0,0,0,-1,1462,1156,0,0
245,-132,0,0,0,0,0,0,0,0,0,-1,1469,1156,0,0
252,-132,0,0,0,0,0,0,0,0,0,-1,1476,1156,0,0
259,-132,0,0,0,0,0,0,0,0,0,-1,1483,1156,0,0
266,-132,0,0,0,0,0,0,0,0,0,-1,1490,1156,0,0
273,-132,0,0,0,0,0,0,0,0,0,-1,1497,1156,0,0
280,-132,0,0,0,0,0,0,0,0,0,-1,1504,1156,0,0
287,-132,0,0,0,0,0,0,0,0,0,-1,1511,1156,0,0
294,-132,0,0,0,0,0,0,0,0,0,-1,1518,1156,0,0
301,-132,0,0,0,0,0,0,0,0,0,-1,1525,1156,0,0
308,-132,0,0,0,0,0,0,0,0,0,-1,1532,1156,0,0
315,-132,0,0,0,0,0,0,0,0,0,-1,1539,1156,0,0
322,-132,0,0,0,0,0,0,0,0,0,-1,1546,1156,0,0
329,-132,0,0,0,0,0,0,0,0,0,-1,1553,1156,0,0
336,-132,0,0,0,0,0,0,0,0,0,-1,1560,1156,0,0
343,-132,0,0,0,0,0,0,0,0,0,-1,1567,1156,0,0
350,-132,0,0,0,0,0,0,0,0,0,-1,1574,1156,0,0
357,-132,0,0,0,0,0,0,0,0,0,-1,1581,1156,0,0
364,-132,0,0,0,0,0,0,0,0,0,-1,1588,1156,0,0
371,-132,0,0,0,0,0,0,0,0,0,-1,1595,1156,0,0
378,-132,0,0,0,0,0,0,0,0,0,-1,1602,1156,0,0
385,-132,0,0,0,0,0,0,0,0,0,-1,1609,1156,0,0
392,-132,0,0,0,0,0,0,0,0,0,-1,1616,1156,0,0
399,-132,0,0,0,0,0,0,0,0,0,-1,1623,1156,0,0
406,-132,0,0,0,0,0,0,0,0,0,-1,1630,1156,0,0
413,-132,0,0,0,0,0,0,0,0,0,-1,1637,1156,0,0
420,-132,0,0,0,0,0,0,0,0,0,-1,1644,1156,0,0
427,-132,0,0,0,0,0,0,0,0,0,-1,1651,1156,0,0
434,-132,0,0,0,0,0,0,0,0,0,-1,1658,1156,0,0
441,-132,0,0,0,0,0,0,0,0,0,-1,1665,1156,0,0
448,-132,0,0,0,0,0,0,0,0,0,-1,1672,1156,0,0
455,-132,0,0,0,0,0,0,0,0,0,-1,1679,1156,0,0
462,-132,0,0,0,0,0,0,0,0,0,-1,1686,1156,0,0
469,-132,0,0,0,0,0,0,0,0,0,-1,1693,1156,0,0
476,-132,0,0,0,0,0,0,0,0,0,-1,1700,1156,0,0
483,-132,0,0,0,0,0,0,0,0,0,-1,1707,1156,0,0
490,-132,0,0,0,0,0,0,0,0,0,-1,1714,1156,0,0
497,-132,0,0,0,0,0,0,0,0,0,-1,1721,1156,0,0
504,-132,0,0,0,0,0,0,0,0,0,-1,1728,1156,0,0
511,-132,0,0,0,0,0,0,0,0,0,-1,1735,1156,0,0
518,-132,0,0,0,0,0,0,0,0,0,-1,1742,1156,0,0
525,-132,0,0,0,0,0,0,0,0,0,-1,1749,1156,0,0
532,-132,0,0,0,0,0,0,0,0,0,-1,1756,1156,0,0
539,-132,0,0,0,0,0,0,0,0,0,-1,1763,1156,0,0
546,-132,0,0,0,0,0,0,0,0,0,-1,1770,1156,0,0
553,-132,0,0,0,0,0,0,0,0,0,-1,1777,1156,0,0
560,-132,0,0,0,0,0,0,0,0,0,-1,1784,1156,0,0
567,-132,0,0,0,0,0,0,0,0,0,-1,1791,1156,0,0
574,-132,0,0,0,0,0,0,0,0,0,-1,1798,1156,0,0
581,-132,0,0,0,0,0,0,0,0,0,-1,1805,1156,0,0
588,-132,0,0,0,0,0,0,0,0,0,-1,1812,1156,0,0
595,-132,0,0,0,0,0,0,0,0,0,-1,1819,1156,0,0
602,-132,0,0,0,0,0,0,0,0,0,-1,1826,1156,0,0
609,-132,0,0,0,0,0,0,0,0,0,-1,1833,1156,0,0
616,-132,0,0,0,0,0,0,0,0,0,-1,1840,1156,0,0
623,-132,0,0,0,0,0,0,0,0,0,-1,1847,1156,0,0
630,-132,0,0,0,0,0,0,0,0,0,-1,1854,1156,0,0
637,-132,0,0,0,0,0,0,0,0,0,-1,1861,1156,0,0
644,-132,35.9155,3.19568,-0.000450841,0.00216563,-0.00403393,0.00509816,-0.00338337,-0.942201,0.00493006,0.0442402,1868,1156,35.9156,-3.19564
651,-132,35.9542,2.90259,-0.000347499,0.00177515,-0.00357851,0.00444641,-0.00301875,-0.929558,0.0043362,0.0433959,1875,1156,35.9542,-2.90262
658,-132,35.6221,2.72339,-5.38081e-05,0.00150115,-0.00305498,0.00387603,-0.00242869,-0.910001,0.00367186,0.0429165,1882,1156,35.622,-2.72343
665,-132,35.3066,2.79492,0.000276723,0.001288,-0.00253218,0.00336453,-0.0017998,-0.883945,0.00302691,0.0431403,1889,1156,35.3066,-2.79495
672,-132,35.368,2.7561,0.000537022,0.00104196,-0.0020222,0.00282739,-0.00124841,-0.847501,0.0024113,0.0425899,1896,1156,35.368,-2.75615
679,-132,35.5551,2.66028,0.000383955,0.00077001,-0.00147873,0.00206826,-0.000914294,-0.850299,0.00176442,0.0404447,1903,1156,35.555,-2.66026
686,-132,35.619,2.59717,0.00018058,0.000448792,-0.00112217,0.00144484,-0.000815467,-0.844869,0.00132174,0.0355646,1910,1156,35.619,-2.59717
693,-132,35.5475,2.55261,8.76673e-05,0.000190353,-0.000829334,0.000969932,-0.000691912,-0.816313,0.000963931,0.0302774,1917,1156,35.5474,-2.55256
700,-132,35.5872,2.54968,-0.000123203,-6.80333e-05,-0.000540294,0.00044538,-0.000636616,-0.810904,0.000627935,0.0369835,1924,1156,35.5871,-2.54972
707,-132,35.6591,2.61938,0,0,0,0,0,0,0,-1,1931,1156,35.6591,-2.61938
714,-132,32.2389,6.08179,0,0,0,0,0,0,0,-1,1938,1156,32.2389,-6.08176
721,-132,32.3463,5.81543,-0.000616936,-0.000166415,0.00038559,5.48917e-05,-0.000838243,1.04976,0.000577995,0.0287159,1945,1156,32.3463,-5.81537
728,-132,32.3607,5.57996,-0.000897888,-0.000236279,0.000814915,0.000312415,-0.00144658,0.978206,0.00108364,0.0201873,1952,1156,32.3608,-5.58001
735,-132,32.3082,5.36597,-0.00111668,0.000230037,0.000948282,0.000719713,-0.00160636,1.09413,0.00137509,0.0219932,1959,1156,32.3082,-5.36602
742,-132,32.3337,5.11243,-0.00134082,0.00155697,0.000835582,0.00178065,-0.0015645,1.30924,0.00193266,0.0199103,1966,1156,32.3337,-5.11239
749,-132,32.3624,4.93225,-0.00215254,0.00382014,0.000777508,0.0039197,-0.00225209,1.44345,0.00360638,0.0238214,1973,1156,32.3624,-4.93228
756,-132,32.3684,4.65344,-0.00357469,0.00803057,-0.000107037,0.00803155,-0.00357567,-1.56157,0.00686406,0.0219395,1980,1156,32.3684,-4.65346
763,-132,32.3458,4.41711,-0.00542049,0.0141449,-0.00144602,0.0142512,-0.00552678,-1.49742,0.0117833,0.0126414,1987,1156,32.3458,-4.41712
770,-132,32.344,4.1897,-0.00794929,0.0218242,-0.00335394,0.0221973,-0.00832243,-1.46,0.0182175,0.0127591,1994,1156,32.3439,-4.18969
777,-132,32.2856,3.99756,-0.0111601,0.0309848,-0.0059191,0.0318003,-0.0119756,-1.43388,0.0261237,0.0224594,2001,1156,32.2857,-3.99752
784,-132,32.1552,4.23596,-0.015228,0.0419284,-0.00935327,0.0434201,-0.0167196,-1.41265,0.0358442,0.0449358,2008,1156,32.1551,-4.23601
791,-132,32.0471,4.48535,0,0,0,0,0,0,0,-1,2015,1156,32.0472,-4.48536
798,-132,31.3877,5.42957,-0.0263162,0.0695562,-0.0200109,0.0735653,-0.0303253,-1.37307,0.0616887,0.0493029,2022,1156,31.3876,-5.42961
805,-132,30.6663,5.18994,-0.0333036,0.085377,-0.027742,0.0915416,-0.0394682,-1.35214,0.0776047,0.0487284,2029,1156,30.6663,-5.18988
812,-132,30.3906,4.97888,0,0,0,0,0,0,0,-1,2036,1156,30.3906,-4.97882
-700,-139,0,0,0,0,0,0,0,0,0,-1,524,1163,0,0
-693,-139,-18.1703,-0.545288,0,0,0,0,0,0,0,-1,531,1163,-18.1703,0.545308
-686,-139,-18.8467,-0.232056,0,0,0,0,0,0,0,-1,538,1163,-18.8468,0.232008
-679,-139,-20.661,-1.8252,0,0,0,0,0,0,0,-1,545,1163,-20.661,1.82523
-672,-139,-22.2432,-1.2478,0,0,0,0,0,0,0,-1,552,1163,-22.2431,1.24774
-665,-139,-23.124,-0.121338,0,0,0,0,0,0,0,-1,559,1163,-23.1239,0.121397
-658,-139,-22.9046,0.276489,0.022093,0.0129331,-0.0119464,0.0303073,0.00471881,-0.602352,0.0188301,0.0491892,566,1163,-22.9046,-0.276445
-651,-139,-22.4338,0.755493,0.0171875,0.0082023,-0.00821942,0.022062,0.00332782,-0.535289,0.0137338,0.0422708,573,1163,-22.4338,-0.755533
-644,-139,-21.9991,1.13513,0.012589,0.00498627,-0.00549378,0.0154684,0.00210691,-0.48275,0.00968662,0.0229469,580,1163,-21.9991,-1.13513
-637,-139,-22.0044,1.42419,0.00816746,0.00158577,-0.00296921,0.00930898,0.000444251,-0.367032,0.00606333,0.0127012,587,1163,-22.0044,-1.42419
-630,-139,-22.015,1.71545,0.00482772,-2.14451e-06,-0.00161087,0.00531568,-0.000490108,-0.294133,0.00371794,0.0105778,594,1163,-22.015,-1.71546
-623,-139,-22.0201,1.99072,0.00220555,-0.000328357,-0.00121124,0.00269139,-0.000814194,-0.38146,0.00211847,0.0159999,601,1163,-22.0201,-1.99076
-616,-139,-22.043,2.22766,0.000575235,-0.000439432,-0.00112019,0.00129762,-0.00116182,-0.572768,0.00142068,0.0177881,608,1163,-22.043,-2.22765
-609,-139,-21.9519,2.55408,2.73868e-05,1.90905e-05,-0.00133165,0.00135489,-0.00130841,-0.783841,0.00153774,0.0310507,615,1163,-21.9519,-2.55406
-602,-139,-22.0969,2.85437,-0.000315916,0.000277491,-0.00168567,0.00169237,-0.0017308,-0.872513,0.00197641,0.0271425,622,1163,-22.0968,-2.85442
-595,-139,-22.2092,3.14832,-0.000986762,0.000327648,-0.00188075,0.00166271,-0.00232182,-0.953485,0.00231094,0.0274846,629,1163,-22.2091,-3.14836
-588,-139,-22.3061,3.43457,0,0,0,0,0,0,0,-1,636,1163,-22.3061,-3.4346
-581,-139,-21.2773,3.96985,0,0,0,0,0,0,0,-1,643,1163,-21.2774,-3.96982
-574,-139,-23.0725,2.4043,0,0,0,0,0,0,0,-1,650,1163,-23.0725,-2.40433
-567,-139,-25.7045,0.849487,0,0,0,0,0,0,0,-1,657,1163,-25.7045,-0.849433
-560,-139,-25.6552,0.72937,-2.98298e-05,0.0009297,-0.00094814,0.00151255,-0.000612677,-1.01962,0.00126313,0.0342713,664,1163,-25.6552,-0.729411
-553,-139,-25.548,0.535522,-6.41599e-05,0.00118202,-0.000574577,0.00140651,-0.000288642,-1.19834,0.00104723,0.0392004,671,1163,-25.548,-0.535552
-546,-139,-25.8008,0.457275,-0.000117574,0.00132335,1.48228e-05,0.0013235,-0.000117726,1.56051,0.000924079,0.0441794,678,1163,-25.8008,-0.457249
-539,-139,-25.8285,0.512817,-0.000497844,0.00103428,0.00103698,0.00155748,-0.00102104,1.10353,0.00149941,0.0438619,685,1163,-25.8285,-0.512758
-532,-139,-25.4974,0.56604,-0.00114959,0.000526377,0.00239041,0.00222144,-0.00284464,0.953985,0.00293227,0.03946,692,1163,-25.4975,-0.566096
-525,-139,-25.4545,0.759888,-0.0010312,-3.3278e-05,0.00421684,0.00371402,-0.0047785,0.844287,0.00491598,0.0389574,699,1163,-25.4545,-0.759857
-518,-139,0,0,0,0,0,0,0,0,0,-1,706,1163,0,0
-511,-139,0,0,0,0,0,0,0,0,0,-1,713,1163,0,0
-504,-139,0,0,0,0,0,0,0,0,0,-1,720,1163,0,0
-497,-139,0,0,0,0,0,0,0,0,0,-1,727,1163,0,0
-490,-139,0,0,0,0,0,0,0,0,0,-1,734,1163,0,0
-483,-139,0,0,0,0,0,0,0,0,0,-1,741,1163,0,0
-476,-139,0,0,0,0,0,0,0,0,0,-1,748,1163,0,0
-469,-139,0,0,0,0,0,0,0,0,0,-1,755,1163,0,0
-462,-139,0,0,0,0,0,0,0,0,0,-1,762,1163,0,0
-455,-139,0,0,0,0,0,0,0,0,0,-1,769,1163,0,0
-448,-139,0,0,0,0,0,0,0,0,0,-1,776,1163,0,0
-441,-139,0,0,0,0,0,0,0,0,0,-1,783,1163,0,0
-434,-139,0,0,0,0,0,0,0,0,0,-1,790,1163,0,0
-427,-139,0,0,0,0,0,0,0,0,0,-1,797,1163,0,0
-420,-139,0,0,0,0,0,0,0,0,0,-1,804,1163,0,0
-413,-139,0,0,0,0,0,0,0,0,0,-1,811,1163,0,0
-406,-139,0,0,0,0,0,0,0,0,0,-1,818,1163,0,0
-399,-139,0,0,0,0,0,0,0,0,0,-1,825,1163,0,0
-392,-139,0,0,0,0,0,0,0,0,0,-1,832,1163,0,0
-385,-139,0,0,0,0,0,0,0,0,0,-1,839,1163,0,0
-378,-139,0,0,0,0,0,0,0,0,0,-1,846,1163,0,0
-371,-139,0,0,0,0,0,0,0,0,0,-1,853,1163,0,0
-364,-139,0,0,0,0,0,0,0,0,0,-1,860,1163,0,0
-357,-139,0,0,0,0,0,0,0,0,0,-1,867,1163,0,0
-350,-139,0,0,0,0,0,0,0,0,0,-1,874,1163,0,0
-343,-139,0,0,0,0,0,0,0,0,0,-1,881,1163,0,0
-336,-139,0,0,0,0,0,0,0,0,0,-1,888,1163,0,0
-329,-139,0,0,0,0,0,0,0,0,0,-1,895,1163,0,0
-322,-139,0,0,0,0,0,0,0,0,0,-1,902,1163,0,0
-315,-139,0,0,0,0,0,0,0,0,0,-1,909,1163,0,0
-308,-139,0,0,0,0,0,0,0,0,0,-1,916,1163,0,0
-301,-139,0,0,0,0,0,0,0,0,0,-1,923,1163,0,0
-294,-139,0,0,0,0,0,0,0,0,0,-1,930,1163,0,0
-287,-139,0,0,0,0,0,0,0,0,0,-1,937,1163,0,0
-280,-139,0,0,0,0,0,0,0,0,0,-1,944,1163,0,0
-273,-139,0,0,0,0,0,0,0,0,0,-1,951,1163,0,0
-266,-139,0,0,0,0,0,0,0,0,0,-1,958,1163,0,0
-259,-139,0,0,0,0,0,0,0,0,0,-1,965,1163,0,0
-252,-139,0,0,0,0,0,0,0,0,0,-1,972,1163,0,0
-245,-139,0,0,0,0,0,0,0,0,0,-1,979,1163,0,0
-238,-139,0,0,0,0,0,0,0,0,0,-1,986,1163,0,0
-231,-139,0,0,0,0,0,0,0,0,0,-1,993,1163,0,0
-224,-139,0,0,0,0,0,0,0,0,0,-1,1000,1163,0,0
-217,-139,0,0,0,0,0,0,0,0,0,-1,1007,1163,0,0
-210,-139,0,0,0,0,0,0,0,0,0,-1,1014,1163,0,0
-203,-139,0,0,0,0,0,0,0,0,0,-1,1021,1163,0,0
-196,-139,0,0,0,0,0,0,0,0,0,-1,1028,1163,0,0
-189,-139,0,0,0,0,0,0,0,0,0,-1,1035,1163,0,0
-182,-139,0,0,0,0,0,0,0,0,0,-1,1042,1163,0,0
-175,-139,0,0,0,0,0,0,0,0,0,-1,1049,1163,0,0
-168,-139,0,0,0,0,0,0,0,0,0,-1,1056,1163,0,0
-161,-139,0,0,0,0,0,0,0,0,0,-1,1063,1163,0,0
-154,-139,0,0,0,0,0,0,0,0,0,-1,1070,1163,0,0
-147,-139,0,0,0,0,0,0,0,0,0,-1,1077,1163,0,0
-140,-139,0,0,0,0,0,0,0,0,0,-1,1084,1163,0,0
-133,-139,0,0,0,0,0,0,0,0,0,-1,1091,1163,0,0
-126,-139,0,0,0,0,0,0,0,0,0,-1,1098,1163,0,0
-119,-139,0,0,0,0,0,0,0,0,0,-1,1105,1163,0,0
-112,-139,0,0,0,0,0,0,0,0,0,-1,1112,1163,0,0
-105,-139,0,0,0,0,0,0,0,0,0,-1,1119,1163,0,0
-98,-139,0,0,0,0,0,0,0,0,0,-1,1126,1163,0,0
-91,-139,0,0,0,0,0,0,0,0,0,-1,1133,1163,0,0
-84,-139,0,0,0,0,0,0,0,0,0,-1,1140,1163,0,0
-77,-139,0,0,0,0,0,0,0,0,0,-1,1147,1163,0,0
-70,-139,0,0,0,0,0,0,0,0,0,-1,1154,1163,0,0
-63,-139,0,0,0,0,0,0,0,0,0,-1,1161,1163,0,0
-56,-139,0,0,0,0,0,0,0,0,0,-1,1168,1163,0,0
-49,-139,0,0,0,0,0,0,0,0,0,-1,1175,1163,0,0
-42,-139,0,0,0,0,0,0,0,0,0,-1,1182,1163,0,0
-35,-139,0,0,0,0,0,0,0,0,0,-1,1189,1163,0,0
-28,-139,0,0,0,0,0,0,0,0,0,-1,1196,1163,0,0
-21,-139,0,0,0,0,0,0,0,0,0,-1,1203,1163,0,0
-14,-139,0,0,0,0,0,0,0,0,0,-1,1210,1163,0,0
-7,-139,0,0,0,0,0,0,0,0,0,-1,1217,1163,0,0
0,-139,0,0,0,0,0,0,0,0,0,-1,1224,1163,0,0
7,-139,0,0,0,0,0,0,0,0,0,-1,1231,1163,0,0
14,-139,0,0,0,0,0,0,0,0,0,-1,1238,1163,0,0
21,-139,0,0,0,0,0,0,0,0,0,-1,1245,1163,0,0
28,-139,0,0,0,0,0,0,0,0,0,-1,1252,1163,0,0
35,-139,0,0,0,0,0,0,0,0,0,-1,1259,1163,0,0
42,-139,0,0,0,0,0,0,0,0,0,-1,1266,1163,0,0
49,-139,0,0,0,0,0,0,0,0,0,-1,1273,1163,0,0
56,-139,0,0,0,0,0,0,0,0,0,-1,1280,1163,0,0
63,-139,0,0,0,0,0,0,0,0,0,-1,1287,1163,0,0
70,-139,0,0,0,0,0,0,0,0,0,-1,1294,1163,0,0
77,-139,0,0,0,0,0,0,0,0,0,-1,1301,1163,0,0
84,-139,0,0,0,0,0,0,0,0,0,-1,1308,1163,0,0
91,-139,0,0,0,0,0,0,0,0,0,-1,1315,1163,0,0
98,-139,0,0,0,0,0,0,0,0,0,-1,1322,1163,0,0
105,-139,0,0,0,0,0,0,0,0,0,-1,1329,1163,0,0
112,-139,0,0,0,0,0,0,0,0,0,-1,1336,1163,0,0
119,-139,0,0,0,0,0,0,0,0,0,-1,1343,1163,0,0
126,-139,0,0,0,0,0,0,0,0,0,-1,1350,1163,0,0
133,-139,0,0,0,0,0,0,0,0,0,-1,1357,1163,0,0
140,-139,0,0,0,0,0,0,0,0,0,-1,1364,1163,0,0
147,-139,0,0,0,0,0,0,0,0,0,-1,1371,1163,0,0
154,-139,0,0,0,0,0,0,0,0,0,-1,1378,1163,0,0
161,-139,0,0,0,0,0,0,0,0,0,-1,1385,1163,0,0
168,-139,0,0,0,0,0,0,0,0,0,-1,1392,1163,0,0
175,-139,0,0,0,0,0,0,0,0,0,-1,1399,1163,0,0
182,-139,0,0,0,0,0,0,0,0,0,-1,1406,1163,0,0
189,-139,0,0,0,0,0,0,0,0,0,-1,1413,1163,0,0
196,-139,0,0,0,0,0,0,0,0,0,-1,1420,1163,0,0
203,-139,0,0,0,0,0,0,0,0,0,-1,1427,1163,0,0
210,-139,0,0,0,0,0,0,0,0,0,-1,1434,1163,0,0
217,-139,0,0,0,0,0,0,0,0,0,-1,1441,1163,0,0
224,-139,0,0,0,0,0,0,0,0,0,-1,1448,1163,0,0
231,-139,0,0,0,0,0,0,0,0,0,-1,1455,1163,0,0
238,-139,0,0,0,0,0,0,0,0,0,-1,1462,1163,0,0
245,-139,0,0,0,0,0,0,0,0,0,-1,1469,1163,0,0
252,-139,0,0,0,0,0,0,0,0,0,-1,1476,1163,0,0
259,-139,0,0,0,0,0,0,0,0,0,-1,1483,1163,0,0
266,-139,0,0,0,0,0,0,0,0,0,-1,1490,1163,0,0
273,-139,0,0,0,0,0,0,0,0,0,-1,1497,1163,0,0
280,-139,0,0,0,0,0,0,0,0,0,-1,1504,1163,0,0
287,-139,0,0,0,0,0,0,0,0,0,-1,1511,1163,0,0
294,-139,0,0,0,0,0,0,0,0,0,-1,1518,1163,0,0
301,-139,0,0,0,0,0,0,0,0,0,-1,1525,1163,0,0
308,-139,0,0,0,0,0,0,0,0,0,-1,1532,1163,0,0
315,-139,0,0,0,0,0,0,0,0,0,-1,1539,1163,0,0
322,-139,0,0,0,0,0,0,0,0,0,-1,1546,1163,0,0
329,-139,0,0,0,0,0,0,0,0,0,-1,1553,1163,0,0
336,-139,0,0,0,0,0,0,0,0,0,-1,1560,1163,0,0
343,-139,0,0,0,0,0,0,0,0,0,-1,1567,1163,0,0
350,-139,0,0,0,0,0,0,0,0,0,-1,1574,1163,0,0
357,-139,0,0,0,0,0,0,0,0,0,-1,1581,1163,0,0
364,-139,0,0,0,0,0,0,0,0,0,-1,1588,1163,0,0
371,-139,0,0,0,0,0,0,0,0,0,-1,1595,1163,0,0
378,-139,0,0,0,0,0,0,0,0,0,-1,1602,1163,0,0
385,-139,0,0,0,0,0,0,0,0,0,-1,1609,1163,0,0
392,-139,0,0,0,0,0,0,0,0,0,-1,1616,1163,0,0
399,-139,0,0,0,0,0,0,0,0,0,-1,1623,1163,0,0
406,-139,0,0,0,0,0,0,0,0,0,-1,1630,1163,0,0
413,-139,0,0,0,0,0,0,0,0,0,-1,1637,1163,0,0
420,-139,0,0,0,0,0,0,0,0,0,-1,1644,1163,0,0
427,-139,0,0,0,0,0,0,0,0,0,-1,1651,1163,0,0
434,-139,0,0,0,0,0,0,0,0,0,-1,1658,1163,0,0
441,-139,0,0,0,0,0,0,0,0,0,-1,1665,1163,0,0
448,-139,0,0,0,0,0,0,0,0,0,-1,1672,1163,0,0
455,-139,0,0,0,0,0,0,0,0,0,-1,1679,1163,0,0
462,-139,0,0,0,0,0,0,0,0,0,-1,1686,1163,0,0
469,-139,0,0,0,0,0,0,0,0,0,-1,1693,1163,0,0
476,-139,0,0,0,0,0,0,0,0,0,-1,1700,1163,0,0
483,-139,0,0,0,0,0,0,0,0,0,-1,1707,1163,0,0
490,-139,0,0,0,0,0,0,0,0,0,-1,1714,1163,0,0
497,-139,0,0,0,0,0,0,0,0,0,-1,1721,1163,0,0
504,-139,0,0,0,0,0,0,0,0,0,-1,1728,1163,0,0
511,-139,0,0,0,0,0,0,0,0,0,-1,1735,1163,0,0
518,-139,0,0,0,0,0,0,0,0,0,-1,1742,1163,0,0
525,-139,0,0,0,0,0,0,0,0,0,-1,1749,1163,0,0
532,-139,0,0,0,0,0,0,0,0,0,-1,1756,1163,0,0
539,-139,0,0,0,0,0,0,0,0,0,-1,1763,1163,0,0
546,-139,0,0,0,0,0,0,0,0,0,-1,1770,1163,0,0
553,-139,0,0,0,0,0,0,0,0,0,-1,1777,1163,0,0
560,-139,0,0,0,0,0,0,0,0,0,-1,1784,1163,0,0
567,-139,0,0,0,0,0,0,0,0,0,-1,1791,1163,0,0
574,-139,0,0,0,0,0,0,0,0,0,-1,1798,1163,0,0
581,-139,0,0,0,0,0,0,0,0,0,-1,1805,1163,0,0
588,-139,0,0,0,0,0,0,0,0,0,-1,1812,1163,0,0
595,-139,0,0,0,0,0,0,0,0,0,-1,1819,1163,0,0
602,-139,0,0,0,0,0,0,0,0,0,-1,1826,1163,0,0
609,-139,0,0,0,0,0,0,0,0,0,-1,1833,1163,0,0
616,-139,0,0,0,0,0,0,0,0,0,-1,1840,1163,0,0
623,-139,0,0,0,0,0,0,0,0,0,-1,1847,1163,0,0
630,-139,0,0,0,0,0,0,0,0,0,-1,1854,1163,0,0
637,-139,0,0,0,0,0,0,0,0,0,-1,1861,1163,0,0
644,-139,35.7845,2.73608,-0.00191557,0.00285248,-0.00312281,0.00439727,-0.00346035,-1.11142,0.00454733,0.0433177,1868,1163,35.7845,-2.73609
651,-139,35.9102,2.70093,-0.00136582,0.00236531,-0.00282931,0.00388875,-0.00288925,-1.07687,0.00392744,0.044366,1875,1163,35.9101,-2.70093
658,-139,35.814,2.67639,-0.000715512,0.00204294,-0.00249076,0.00351085,-0.00218342,-1.03825,0.00331723,0.0436525,1882,1163,35.814,-2.67644
665,-139,35.625,2.76953,-7.81485e-05,0.00177181,-0.00214988,0.00318725,-0.00149359,-0.988551,0.00276083,0.0400342,1889,1163,35.625,-2.76957
672,-139,35.5868,2.81775,0.000310971,0.00144577,-0.00174713,0.00271532,-0.000958583,-0.942406,0.00220048,0.0375276,1896,1163,35.5868,-2.81775
679,-139,35.6179,2.67407,0.000136956,0.00107963,-0.00121322,0.00190985,-0.000693266,-0.970675,0.00155666,0.0354604,1903,1163,35.618,-2.67402
686,-139,35.5884,2.57446,-0.000126307,0.00068461,-0.000845768,0.00121709,-0.000658783,-1.00891,0.00109891,0.0332872,1910,1163,35.5883,-2.57442
693,-139,35.5422,2.50732,-0.000280033,0.00038156,-0.000541746,0.000685519,-0.000583993,-1.05949,0.000733734,0.0243052,1917,1163,35.5422,-2.50737
700,-139,35.6084,2.50037,0,0,0,0,0,0,0,-1,1924,1163,35.6084,-2.50031
707,-139,32.116,6.54346,0,0,0,0,0,0,0,-1,1931,1163,32.116,-6.54343
714,-139,32.0138,6.17029,0,0,0,0,0,0,0,-1,1938,1163,32.0138,-6.17029
721,-139,32.1246,5.78979,0,0,0,0,0,0,0,-1,1945,1163,32.1247,-5.78975
728,-139,32.2238,5.58765,0,0,0,0,0,0,0,-1,1952,1163,32.2237,-5.58763
735,-139,32.005,5.45251,-0.00143889,0.00026161,0.00118228,0.000867622,-0.00204491,1.09713,0.00172673,0.0226645,1959,1163,32.0051,-5.45256
742,-139,32.0782,5.11621,-0.00148797,0.00148494,0.00109745,0.00184617,-0.0018492,1.25281,0.00213353,0.0220109,1966,1163,32.0783,-5.11621
749,-139,32.1222,4.88257,-0.00188967,0.00374769,0.000981472,0.00391368,-0.00205566,1.40326,0.00350161,0.0182621,1973,1163,32.1223,-4.88252
756,-139,32.0753,4.63062,-0.00266494,0.00798248,2.53096e-05,0.00798254,-0.002665,1.56842,0.0063978,0.010591,1980,1163,32.0753,-4.63057
763,-139,32.0365,4.38574,-0.00364537,0.0140171,-0.0013031,0.0141128,-0.00374099,-1.49755,0.0108722,0.0104302,1987,1163,32.0365,-4.38569
770,-139,32.0415,4.15759,-0.00515068,0.0214784,-0.00315158,0.0218463,-0.0055186,-1.45458,0.0167103,0.0113685,1994,1163,32.0415,-4.15765
777,-139,32.0448,4.03564,-0.00727942,0.0304886,-0.0056444,0.0313141,-0.00810493,-1.42557,0.0240376,0.022225,2001,1163,32.0448,-4.03568
784,-139,31.848,4.3252,-0.0102129,0.0412943,-0.00898829,0.0428177,-0.0117363,-1.4029,0.033157,0.041234,2008,1163,31.848,-4.32518
791,-139,31.6761,4.58508,0,0,0,0,0,0,0,-1,2015,1163,31.6761,-4.58512
798,-139,31.3501,5.29578,-0.0192065,0.0688829,-0.0195734,0.0730362,-0.0233599,-1.3617,0.0580654,0.0484127,2022,1163,31.35,-5.29583
805,-139,30.9114,5.0011,-0.0255781,0.0848026,-0.027348,0.0912068,-0.0319823,-1.34077,0.0738123,0.0469707,2029,1163,30.9115,-5.00113
812,-139,0,0,0,0,0,0,0,0,0,-1,2036,1163,0,0
-700,-146,0,0,0,0,0,0,0,0,0,-1,524,1170,0,0
-693,-146,-18.1063,-0.906128,0,0,0,0,0,0,0,-1,531,1170,-18.1063,0.906186
-686,-146,-19.1865,-1.82141,0,0,0,0,0,0,0,-1,538,1170,-19.1864,1.82135
-679,-146,-20.4251,-1.49048,0,0,0,0,0,0,0,-1,545,1170,-20.4251,1.49051
-672,-146,-21.7156,-1.05945,0,0,0,0,0,0,0,-1,552,1170,-21.7156,1.05943
-665,-146,-22.4994,-0.725342,0,0,0,0,0,0,0,-1,559,1170,-22.4994,0.725377
-658,-146,-22.3951,0.242554,0,0,0,0,0,0,0,-1,566,1170,-22.3951,-0.242529
-651,-146,-22.0078,0.735474,0.0116764,0.00705869,-0.0089941,0.0186533,8.18223e-05,-0.659757,0.0124083,0.0406687,573,1170,-22.0077,-0.735449
-644,-146,-21.6699,1.05591,0.00846002,0.00432355,-0.00630043,0.013023,-0.000239429,-0.626805,0.0087629,0.0212969,580,1170,-21.6699,-1.05589
-637,-146,-21.6826,1.38306,0.00525138,0.00140684,-0.00381655,0.00760242,-0.0009442,-0.55211,0.00541055,0.0112101,587,1170,-21.6825,-1.38305
-630,-146,-21.7115,1.70313,0.00297152,6.22423e-05,-0.00238233,0.0043082,-0.00127444,-0.511311,0.00337805,0.0101321,594,1170,-21.7115,-1.70307
-623,-146,-21.728,1.96826,0.00123698,-0.000189823,-0.00182928,0.00248705,-0.00143989,-0.599474,0.00229393,0.0126522,601,1170,-21.728,-1.96826
-616,-146,-21.8,2.27625,6.06396e-05,-0.000297486,-0.00157078,0.00146253,-0.00169937,-0.728645,0.00182723,0.0201354,608,1170,-21.8,-2.2762
-609,-146,-21.4937,3.13916,0,0,0,0,0,0,0,-1,615,1170,-21.4937,-3.1392
-602,-146,-21.7603,3.10168,-0.00094006,0.000490649,-0.00200962,0.00190844,-0.00235785,-0.956387,0.0024677,0.043766,622,1170,-21.7603,-3.10169
-595,-146,-21.985,3.16785,-0.00164774,0.000522036,-0.00213984,0.00183629,-0.002962,-1.02001,0.00279559,0.0271261,629,1170,-21.985,-3.16789
-588,-146,-22.012,3.34802,0,0,0,0,0,0,0,-1,636,1170,-22.012,-3.34801
-581,-146,-21.6071,3.85474,0,0,0,0,0,0,0,-1,643,1170,-21.6071,-3.85478
-574,-146,-17.9915,3.79114,0,0,0,0,0,0,0,-1,650,1170,-17.9915,-3.79118
-567,-146,-25.7145,0.717285,0,0,0,0,0,0,0,-1,657,1170,-25.7145,-0.717314
-560,-146,-25.7059,0.826416,0,0,0,0,0,0,0,-1,664,1170,-25.7059,-0.826401
-553,-146,-25.4432,0.105469,0,0,0,0,0,0,0,-1,671,1170,-25.4432,-0.105492
-546,-146,-25.5341,0.194702,0.000141277,0.00144864,-0.000103994,0.00145686,0.000133056,-1.49191,0.000930068,0.0455339,678,1170,-25.5341,-0.194699
-539,-146,-25.6702,0.211792,0.000340226,0.00130657,0.000895682,0.00184109,-0.000194296,1.03275,0.00129702,0.0438673,685,1170,-25.6702,-0.211802
-532,-146,-25.5319,0.451294,0.000329654,0.00110635,0.0021769,0.00292927,-0.00149326,0.873667,0.00259783,0.0393729,692,1170,-25.5319,-0.451355
-525,-146,-25.5442,0.617798,0.00111327,0.00105462,0.00390225,0.00498631,-0.00281841,0.781641,0.00456363,0.038823,699,1170,-25.5442,-0.617851
-518,-146,0,0,0,0,0,0,0,0,0,-1,706,1170,0,0
-511,-146,0,0,0,0,0,0,0,0,0,-1,713,1170,0,0
-504,-146,0,0,0,0,0,0,0,0,0,-1,720,1170,0,0
-497,-146,0,0,0,0,0,0,0,0,0,-1,727,1170,0,0
-490,-146,0,0,0,0,0,0,0,0,0,-1,734,1170,0,0
-483,-146,0,0,0,0,0,0,0,0,0,-1,741,1170,0,0
-476,-146,0,0,0,0,0,0,0,0,0,-1,748,1170,0,0
-469,-146,0,0,0,0,0,0,0,0,0,-1,755,1170,0,0
-462,-146,0,0,0,0,0,0,0,0,0,-1,762,1170,0,0
-455,-146,0,0,0,0,0,0,0,0,0,-1,769,1170,0,0
-448,-146,0,0,0,0,0,0,0,0,0,-1,776,1170,0,0
-441,-146,0,0,0,0,0,0,0,0,0,-1,783,1170,0,0
-434,-146,0,0,0,0,0,0,0,0,0,-1,790,1170,0,0
-427,-146,0,0,0,0,0,0,0,0,0,-1,797,1170,0,0
-420,-146,0,0,0,0,0,0,0,0,0,-1,804,1170,0,0
-413,-146,0,0,0,0,0,0,0,0,0,-1,811,1170,0,0
-406,-146,0,0,0,0,0,0,0,0,0,-1,818,1170,0,0
-399,-146,0,0,0,0,0,0,0,0,0,-1,825,1170,0,0
-392,-146,0,0,0,0,0,0,0,0,0,-1,832,1170,0,0
-385,-146,0,0,0,0,0,0,0,0,0,-1,839,1170,0,0
-378,-146,0,0,0,0,0,0,0,0,0,-1,846,1170,0,0
-371,-146,0,0,0,0,0,0,0,0,0,-1,853,1170,0,0
-364,-146,0,0,0,0,0,0,0,0,0,-1,860,1170,0,0
-357,-146,0,0,0,0,0,0,0,0,0,-1,867,1170,0,0
-350,-146,0,0,0,0,0,0,0,0,0,-1,874,1170,0,0
-343,-146,0,0,0,0,0,0,0,0,0,-1,881,1170,0,0
-336,-146,0,0,0,0,0,0,0,0,0,-1,888,1170,0,0
-329,-146,0,0,0,0,0,0,0,0,0,-1,895,1170,0,0
-322,-146,0,0,0,0,0,0,0,0,0,-1,902,1170,0,0
-315,-146,0,0,0,0,0,0,0,0,0,-1,909,1170,0,0
-308,-146,0,0,0,0,0,0,0,0,0,-1,916,1170,0,0
-301,-146,0,0,0,0,0,0,0,0,0,-1,923,1170,0,0
-294,-146,0,0,0,0,0,0,0,0,0,-1,930,1170,0,0
-287,-146,0,0,0,0,0,0,0,0,0,-1,937,1170,0,0
-280,-146,0,0,0,0,0,0,0,0,0,-1,944,1170,0,0
-273,-146,0,0,0,0,0,0,0,0,0,-1,951,1170,0,0
-266,-146,0,0,0,0,0,0,0,0,0,-1,958,1170,0,0
-259,-146,0,0,0,0,0,0,0,0,0,-1,965,1170,0,0
-252,-146,0,0,0,0,0,0,0,0,0,-1,972,1170,0,0
-245,-146,0,0,0,0,0,0,0,0,0,-1,979,1170,0,0
-238,-146,0,0,0,0,0,0,0,0,0,-1,986,1170,0,0
-231,-146,0,0,0,0,0,0,0,0,0,-1,993,1170,0,0
-224,-146,0,0,0,0,0,0,0,0,0,-1,1000,1170,0,0
-217,-146,0,0,0,0,0,0,0,0,0,-1,1007,1170,0,0
-210,-146,0,0,0,0,0,0,0,0,0,-1,1014,1170,0,0
-203,-146,0,0,0,0,0,0,0,0,0,-1,1021,1170,0,0
-196,-146,0,0,0,0,0,0,0,0,0,-1,1028,1170,0,0
-189,-146,0,0,0,0,0,0,0,0,0,-1,1035,1170,0,0
-182,-146,0,0,0,0,0,0,0,0,0,-1,1042,1170,0,0
-175,-146,0,0,0,0,0,0,0,0,0,-1,1049,1170,0,0
-168,-146,0,0,0,0,0,0,0,0,0,-1,1056,1170,0,0
-161,-146,0,0,0,0,0,0,0,0,0,-1,1063,1170,0,0
-154,-146,0,0,0,0,0,0,0,0,0,-1,1070,1170,0,0
-147,-146,0,0,0,0,0,0,0,0,0,-1,1077,1170,0,0
-140,-146,0,0,0,0,0,0,0,0,0,-1,1084,1170,0,0
-133,-146,0,0,0,0,0,0,0,0,0,-1,1091,1170,0,0
-126,-146,0,0,0,0,0,0,0,0,0,-1,1098,1170,0,0
-119,-146,0,0,0,0,0,0,0,0,0,-1,1105,1170,0,0
-112,-146,0,0,0,0,0,0,0,0,0,-1,1112,1170,0,0
-105,-146,0,0,0,0,0,0,0,0,0,-1,1119,1170,0,0
-98,-146,0,0,0,0,0,0,0,0,0,-1,1126,1170,0,0
-91,-146,0,0,0,0,0,0,0,0,0,-1,1133,1170,0,0
-84,-146,0,0,0,0,0,0,0,0,0,-1,1140,1170,0,0
-77,-146,0,0,0,0,0,0,0,0,0,-1,1147,1170,0,0
-70,-146,0,0,0,0,0,0,0,0,0,-1,1154,1170,0,0
-63,-146,0,0,0,0,0,0,0,0,0,-1,1161,1170,0,0
-56,-146,0,0,0,0,0,0,0,0,0,-1,1168,1170,0,0
-49,-146,0,0,0,0,0,0,0,0,0,-1,1175,1170,0,0
-42,-146,0,0,0,0,0,0,0,0,0,-1,1182,1170,0,0
-35,-146,0,0,0,0,0,0,0,0,0,-1,1189,1170,0,0
-28,-146,0,0,0,0,0,0,0,0,0,-1,1196,1170,0,0
-21,-146,0,0,0,0,0,0,0,0,0,-1,1203,1170,0,0
-14,-146,0,0,0,0,0,0,0,0,0,-1,1210,1170,0,0
-7,-146,0,0,0,0,0,0,0,0,0,-1,1217,1170,0,0
0,-146,0,0,0,0,0,0,0,0,0,-1,1224,1170,0,0
7,-146,0,0,0,0,0,0,0,0,0,-1,1231,1170,0,0
14,-146,0,0,0,0,0,0,0,0,0,-1,1238,1170,0,0
21,-146,0,0,0,0,0,0,0,0,0,-1,1245,1170,0,0
28,-146,0,0,0,0,0,0,0,0,0,-1,1252,1170,0,0
35,-146,0,0,0,0,0,0,0,0,0,-1,1259,1170,0,0
42,-146,0,0,0,0,0,0,0,0,0,-1,1266,1170,0,0
49,-146,0,0,0,0,0,0,0,0,0,-1,1273,1170,0,0
56,-146,0,0,0,0,0,0,0,0,0,-1,1280,1170,0,0
63,-146,0,0,0,0,0,0,0,0,0,-1,1287,1170,0,0
70,-146,0,0,0,0,0,0,0,0,0,-1,1294,1170,0,0
77,-146,0,0,0,0,0,0,0,0,0,-1,1301,1170,0,0
84,-146,0,0,0,0,0,0,0,0,0,-1,1308,1170,0,0
91,-146,0,0,0,0,0,0,0,0,0,-1,1315,1170,0,0
98,-146,0,0,0,0,0,0,0,0,0,-1,1322,1170,0,0
105,-146,0,0,0,0,0,0,0,0,0,-1,1329,1170,0,0
112,-146,0,0,0,0,0,0,0,0,0,-1,1336,1170,0,0
119,-146,0,0,0,0,0,0,0,0,0,-1,1343,1170,0,0
126,-146,0,0,0,0,0,0,0,0,0,-1,1350,1170,0,0
133,-146,0,0,0,0,0,0,0,0,0,-1,1357,1170,0,0
140,-146,0,0,0,0,0,0,0,0,0,-1,1364,1170,0,0
147,-146,0,0,0,0,0,0,0,0,0,-1,1371,1170,0,0
154,-146,0,0,0,0,0,0,0,0,0,-1,1378,1170,0,0
161,-146,0,0,0,0,0,0,0,0,0,-1,1385,1170,0,0
168,-146,0,0,0,0,0,0,0,0,0,-1,1392,1170,0,0
175,-146,0,0,0,0,0,0,0,0,0,-1,1399,1170,0,0
182,-146,0,0,0,0,0,0,0,0,0,-1,1406,1170,0,0
189,-146,0,0,0,0,0,0,0,0,0,-1,1413,1170,0,0
196,-146,0,0,0,0,0,0,0,0,0,-1,1420,1170,0,0
203,-146,0,0,0,0,0,0,0,0,0,-1,1427,1170,0,0
210,-146,0,0,0,0,0,0,0,0,0,-1,1434,1170,0,0
217,-146,0,0,0,0,0,0,0,0,0,-1,1441,1170,0,0
224,-146,0,0,0,0,0,0,0,0,0,-1,1448,1170,0,0
231,-146,0,0,0,0,0,0,0,0,0,-1,1455,1170,0,0
238,-146,0,0,0,0,0,0,0,0,0,-1,1462,1170,0,0
245,-146,0,0,0,0,0,0,0,0,0,-1,1469,1170,0,0
252,-146,0,0,0,0,0,0,0,0,0,-1,1476,1170,0,0
259,-146,0,0,0,0,0,0,0,0,0,-1,1483,1170,0,0
266,-146,0,0,0,0,0,0,0,0,0,-1,1490,1170,0,0
273,-146,0,0,0,0,0,0,0,0,0,-1,1497,1170,0,0
280,-146,0,0,0,0,0,0,0,0,0,-1,1504,1170,0,0
287,-146,0,0,0,0,0,0,0,0,0,-1,1511,1170,0,0
294,-146,0,0,0,0,0,0,0,0,0,-1,1518,1170,0,0
301,-146,0,0,0,0,0,0,0,0,0,-1,1525,1170,0,0
308,-146,0,0,0,0,0,0,0,0,0,-1,1532,1170,0,0
315,-146,0,0,0,0,0,0,0,0,0,-1,1539,1170,0,0
322,-146,0,0,0,0,0,0,0,0,0,-1,1546,1170,0,0
329,-146,0,0,0,0,0,0,0,0,0,-1,1553,1170,0,0
336,-146,0,0,0,0,0,0,0,0,0,-1,1560,1170,0,0
343,-146,0,0,0,0,0,0,0,0,0,-1,1567,1170,0,0
350,-146,0,0,0,0,0,0,0,0,0,-1,1574,1170,0,0
357,-146,0,0,0,0,0,0,0,0,0,-1,1581,1170,0,0
364,-146,0,0,0,0,0,0,0,0,0,-1,1588,1170,0,0
371,-146,0,0,0,0,0,0,0,0,0,-1,1595,1170,0,0
378,-146,0,0,0,0,0,0,0,0,0,-1,1602,1170,0,0
385,-146,0,0,0,0,0,0,0,0,0,-1,1609,1170,0,0
392,-146,0,0,0,0,0,0,0,0,0,-1,1616,1170,0,0
399,-146,0,0,0,0,0,0,0,0,0,-1,1623,1170,0,0
406,-146,0,0,0,0,0,0,0,0,0,-1,1630,1170,0,0
413,-146,0,0,0,0,0,0,0,0,0,-1,1637,1170,0,0
420,-146,0,0,0,0,0,0,0,0,0,-1,1644,1170,0,0
427,-146,0,0,0,0,0,0,0,0,0,-1,1651,1170,0,0
434,-146,0,0,0,0,0,0,0,0,0,-1,1658,1170,0,0
441,-146,0,0,0,0,0,0,0,0,0,-1,1665,1170,0,0
448,-146,0,0,0,0,0,0,0,0,0,-1,1672,1170,0,0
455,-146,0,0,0,0,0,0,0,0,0,-1,1679,1170,0,0
462,-146,0,0,0,0,0,0,0,0,0,-1,1686,1170,0,0
469,-146,0,0,0,0,0,0,0,0,0,-1,1693,1170,0,0
476,-146,0,0,0,0,0,0,0,0,0,-1,1700,1170,0,0
483,-146,0,0,0,0,0,0,0,0,0,-1,1707,1170,0,0
490,-146,0,0,0,0,0,0,0,0,0,-1,1714,1170,0,0
497,-146,0,0,0,0,0,0,0,0,0,-1,1721,1170,0,0
504,-146,0,0,0,0,0,0,0,0,0,-1,1728,1170,0,0
511,-146,0,0,0,0,0,0,0,0,0,-1,1735,1170,0,0
518,-146,0,0,0,0,0,0,0,0,0,-1,1742,1170,0,0
525,-146,0,0,0,0,0,0,0,0,0,-1,1749,1170,0,0
532,-146,0,0,0,0,0,0,0,0,0,-1,1756,1170,0,0
539,-146,0,0,0,0,0,0,0,0,0,-1,1763,1170,0,0
546,-146,0,0,0,0,0,0,0,0,0,-1,1770,1170,0,0
553,-146,0,0,0,0,0,0,0,0,0,-1,1777,1170,0,0
560,-146,0,0,0,0,0,0,0,0,0,-1,1784,1170,0,0
567,-146,0,0,0,0,0,0,0,0,0,-1,1791,1170,0,0
574,-146,0,0,0,0,0,0,0,0,0,-1,1798,1170,0,0
581,-146,0,0,0,0,0,0,0,0,0,-1,1805,1170,0,0
588,-146,0,0,0,0,0,0,0,0,0,-1,1812,1170,0,0
595,-146,0,0,0,0,0,0,0,0,0,-1,1819,1170,0,0
602,-146,0,0,0,0,0,0,0,0,0,-1,1826,1170,0,0
609,-146,0,0,0,0,0,0,0,0,0,-1,1833,1170,0,0
616,-146,0,0,0,0,0,0,0,0,0,-1,1840,1170,0,0
623,-146,0,0,0,0,0,0,0,0,0,-1,1847,1170,0,0
630,-146,0,0,0,0,0,0,0,0,0,-1,1854,1170,0,0
637,-146,35.6627,2.5332,-0.00429438,0.00450126,-0.00226141,0.00504862,-0.00484174,-1.33332,0.00571062,0.0397624,1861,1170,35.6627,-2.53324
644,-146,35.6262,2.45654,-0.00319012,0.00353724,-0.00212653,0.00415307,-0.00380595,-1.28891,0.00459659,0.0395623,1868,1170,35.6262,-2.45651
651,-146,35.5673,2.40649,-0.00220523,0.00293855,-0.00210335,0.00368911,-0.00295579,-1.22804,0.00384422,0.0386378,1875,1170,35.5672,-2.40645
658,-146,35.6003,2.60938,-0.00119558,0.00249939,-0.00203703,0.00340195,-0.00209813,-1.15372,0.00320507,0.0410867,1882,1170,35.6004,-2.60939
665,-146,35.6495,2.79419,-0.000294332,0.00212281,-0.00195399,0.00321178,-0.0013833,-1.06236,0.00272209,0.0398983,1889,1170,35.6495,-2.79414
672,-146,35.6583,2.82141,0.000163631,0.0016882,-0.00169551,0.0027849,-0.000933069,-0.996655,0.00223356,0.0366205,1896,1170,35.6583,-2.82144
679,-146,35.6544,2.63269,-8.61365e-05,0.00121967,-0.00118635,0.00192091,-0.000787378,-1.03695,0.00160864,0.0309578,1903,1170,35.6544,-2.63274
686,-146,35.569,2.5238,-0.000426603,0.000796031,-0.00079527,0.00118779,-0.000818363,-1.11308,0.00116478,0.0243083,1910,1170,35.5689,-2.52374
693,-146,35.5847,2.48157,-0.000636701,0.000492057,-0.00045747,0.000654178,-0.000798822,-1.23022,0.000840274,0.0177732,1917,1170,35.5848,-2.48158
700,-146,35.6954,2.37207,0,0,0,0,0,0,0,-1,1924,1170,35.6954,-2.37204
707,-146,29.9441,6.94653,0,0,0,0,0,0,0,-1,1931,1170,29.9441,-6.94652
714,-146,31.325,6.13245,0,0,0,0,0,0,0,-1,1938,1170,31.325,-6.1325
721,-146,32.3667,5.2052,0,0,0,0,0,0,0,-1,1945,1170,32.3667,-5.20524
728,-146,32.0682,5.46985,0,0,0,0,0,0,0,-1,1952,1170,32.0682,-5.46983
735,-146,31.7953,5.41602,-0.00184694,0.000302396,0.00143556,0.00102098,-0.00256552,1.1067,0.00213371,0.0207338,1959,1170,31.7953,-5.41607
742,-146,31.8375,5.13538,-0.00174056,0.00144646,0.00134708,0.00193955,-0.00223365,1.2199,0.00241139,0.0174554,1966,1170,31.8376,-5.13535
749,-146,31.839,4.88293,-0.00180111,0.00374247,0.00105958,0.0039381,-0.00199673,1.38823,0.00348705,0.015218,1973,1170,31.839,-4.88293
756,-146,31.7966,4.61584,-0.00210262,0.00807258,-0.000132077,0.00807429,-0.00210433,-1.55782,0.00620442,0.0116604,1980,1170,31.7966,-4.61584
763,-146,31.7589,4.36523,-0.00249563,0.0140492,-0.00171065,0.0142242,-0.00267065,-1.46884,0.010487,0.0110263,1987,1170,31.7589,-4.36521
770,-146,31.7456,4.12122,-0.00338619,0.0214383,-0.00381182,0.0220105,-0.00395831,-1.42182,0.0161555,0.0111739,1994,1170,31.7455,-4.12118
777,-146,31.7777,4.00122,-0.00492249,0.0305176,-0.00661412,0.0317118,-0.00611663,-1.39218,0.0234475,0.0197134,2001,1170,31.7777,-4.00118
784,-146,31.5717,4.3949,-0.00730617,0.0414673,-0.0102884,0.0435487,-0.00938759,-1.37118,0.0326152,0.0372919,2008,1170,31.5717,-4.39494
791,-146,31.3806,4.79126,-0.0107774,0.0546967,-0.0152966,0.0580942,-0.0141748,-1.35224,0.0442183,0.0435569,2015,1170,31.3806,-4.7913
798,-146,31.291,4.99011,-0.0154763,0.0699721,-0.0218641,0.0752416,-0.0207458,-1.33429,0.0583196,0.0431437,2022,1170,31.2909,-4.9901
805,-146,31.3857,4.70642,-0.0217397,0.0866253,-0.0302806,0.0945126,-0.029627,-1.31598,0.0748643,0.0455034,2029,1170,31.3856,-4.70643
812,-146,0,0,0,0,0,0,0,0,0,-1,2036,1170,0,0
-700,-153,0,0,0,0,0,0,0,0,0,-1,524,1177,0,0
-693,-153,0,0,0,0,0,0,0,0,0,-1,531,1177,0,0
-686,-153,-19.7211,-0.475098,0,0,0,0,0,0,0,-1,538,1177,-19.7211,0.475055
-679,-153,-20.441,-1.2738,0,0,0,0,0,0,0,-1,545,1177,-20.441,1.27383
-672,-153,-21.1995,-0.893677,0,0,0,0,0,0,0,-1,552,1177,-21.1995,0.893716
-665,-153,-21.958,-0.51355,0,0,0,0,0,0,0,-1,559,1177,-21.958,0.513606
-658,-153,-20.8996,0.608765,0,0,0,0,0,0,0,-1,566,1177,-20.8996,-0.608802
-651,-153,-21.3303,0.725708,0,0,0,0,0,0,0,-1,573,1177,-21.3303,-0.72574
-644,-153,-21.3433,1.05151,0.00502031,0.00376629,-0.00743532,0.011855,-0.00306841,-0.743333,0.00910024,0.0298282,580,1177,-21.3433,-1.05151
-637,-153,-21.3671,1.37708,0.00285222,0.00146186,-0.00494147,0.00714717,-0.00283309,-0.715515,0.00593884,0.0119009,587,1177,-21.3671,-1.37711
-630,-153,-21.4049,1.68945,0.00143956,0.000365403,-0.0033665,0.00431156,-0.00250659,-0.706296,0.00398217,0.00982654,594,1177,-21.4049,-1.6895
-623,-153,-21.4276,1.97217,0.000413296,0.000105103,-0.00258347,0.00284726,-0.00232886,-0.75561,0.00299342,0.00958353,601,1177,-21.4276,-1.97223
-616,-153,-21.4584,2.27576,-0.000369177,-7.47283e-05,-0.00208471,0.00186795,-0.00231186,-0.82065,0.00241774,0.0123841,608,1177,-21.4584,-2.27576
-609,-153,-21.3994,2.58606,-0.000987971,0.000335761,-0.00209771,0.00187354,-0.00252575,-0.938214,0.00254922,0.0171051,615,1177,-21.3994,-2.5861
-602,-153,-21.4928,3.15759,0,0,0,0,0,0,0,-1,622,1177,-21.4928,-3.15754
-595,-153,-21.6149,3.23572,-0.00223768,0.000437314,-0.00236651,0.00181814,-0.0036185,-1.04261,0.0031957,0.0432136,629,1177,-21.6149,-3.23575
-588,-153,-21.7111,3.51135,-0.00200377,0.000301602,-0.00228822,0.00171107,-0.00341324,-1.01872,0.00301244,0.0269233,636,1177,-21.7111,-3.5113
-581,-153,-21.3999,3.81421,-0.00126921,0.000238844,-0.00212084,0.00173571,-0.00276608,-0.956195,0.0026217,0.0323302,643,1177,-21.3999,-3.81419
-574,-153,-21.4203,4.07483,0,0,0,0,0,0,0,-1,650,1177,-21.4204,-4.07486
-567,-153,-25.6668,0.740356,0,0,0,0,0,0,0,-1,657,1177,-25.6668,-0.740306
-560,-153,-25.6497,0.748535,-0.000514209,0.000655514,-0.00137834,0.00156795,-0.00142664,-0.986046,0.00172957,0.0370524,664,1177,-25.6497,-0.748536
-553,-153,-25.5734,0.669556,-0.000222131,0.00084052,-0.000982476,0.00142614,-0.00080775,-1.03328,0.0013061,0.0361148,671,1177,-25.5734,-0.669607
-546,-153,-25.5071,0.419678,0.000370812,0.00100113,-0.000381747,0.001181,0.00019094,-1.13047,0.000732037,0.0408743,678,1177,-25.5071,-0.419676
-539,-153,-25.7712,0.354736,0.000996236,0.000995555,0.000557961,0.00155386,0.000437934,0.785093,0.000925148,0.0425013,685,1177,-25.7712,-0.354719
-532,-153,-25.7098,0.35498,0.00145683,0.00111319,0.00172872,0.00302224,-0.000452226,0.735866,0.00218125,0.0433229,692,1177,-25.7098,-0.355039
-525,-153,-25.6612,0.530762,0.0026932,0.00157998,0.00328859,0.00547195,-0.00119877,0.701565,0.0041063,0.0397213,699,1177,-25.6612,-0.530714
-518,-153,0,0,0,0,0,0,0,0,0,-1,706,1177,0,0
-511,-153,0,0,0,0,0,0,0,0,0,-1,713,1177,0,0
-504,-153,0,0,0,0,0,0,0,0,0,-1,720,1177,0,0
-497,-153,0,0,0,0,0,0,0,0,0,-1,727,1177,0,0
-490,-153,0,0,0,0,0,0,0,0,0,-1,734,1177,0,0
-483,-153,0,0,0,0,0,0,0,0,0,-1,741,1177,0,0
-476,-153,0,0,0,0,0,0,0,0,0,-1,748,1177,0,0
-469,-153,0,0,0,0,0,0,0,0,0,-1,755,1177,0,0
-462,-153,0,0,0,0,0,0,0,0,0,-1,762,1177,0,0
-455,-153,0,0,0,0,0,0,0,0,0,-1,769,1177,0,0
-448,-153,0,0,0,0,0,0,0,0,0,-1,776,1177,0,0
-441,-153,0,0,0,0,0,0,0,0,0,-1,783,1177,0,0
-434,-153,0,0,0,0,0,0,0,0,0,-1,790,1177,0,0
-427,-153,0,0,0,0,0,0,0,0,0,-1,797,1177,0,0
-420,-153,0,0,0,0,0,0,0,0,0,-1,804,1177,0,0
-413,-153,0,0,0,0,0,0,0,0,0,-1,811,1177,0,0
-406,-153,0,0,0,0,0,0,0,0,0,-1,818,1177,0,0
-399,-153,0,0,0,0,0,0,0,0,0,-1,825,1177,0,0
-392,-153,0,0,0,0,0,0,0,0,0,-1,832,1177,0,0
-385,-153,0,0,0,0,0,0,0,0,0,-1,839,1177,0,0
-378,-153,0,0,0,0,0,0,0,0,0,-1,846,1177,0,0
-371,-153,0,0,0,0,0,0,0,0,0,-1,853,1177,0,0
-364,-153,0,0,0,0,0,0,0,0,0,-1,860,1177,0,0
-357,-153,0,0,0,0,0,0,0,0,0,-1,867,1177,0,0
-350,-153,0,0,0,0,0,0,0,0,0,-1,874,1177,0,0
-343,-153,0,0,0,0,0,0,0,0,0,-1,881,1177,0,0
-336,-153,0,0,0,0,0,0,0,0,0,-1,888,1177,0,0
-329,-153,0,0,0,0,0,0,0,0,0,-1,895,1177,0,0
-322,-153,0,0,0,0,0,0,0,0,0,-1,902,1177,0,0
-315,-153,0,0,0,0,0,0,0,0,0,-1,909,1177,0,0
-308,-153,0,0,0,0,0,0,0,0,0,-1,916,1177,0,0
-301,-153,0,0,0,0,0,0,0,0,0,-1,923,1177,0,0
-294,-153,0,0,0,0,0,0,0,0,0,-1,930,1177,0,0
-287,-153,0,0,0,0,0,0,0,0,0,-1,937,1177,0,0
-280,-153,0,0,0,0,0,0,0,0,0,-1,944,1177,0,0
-273,-153,0,0,0,0,0,0,0,0,0,-1,951,1177,0,0
-266,-153,0,0,0,0,0,0,0,0,0,-1,958,1177,0,0
-259,-153,0,0,0,0,0,0,0,0,0,-1,965,1177,0,0
-252,-153,0,0,0,0,0,0,0,0,0,-1,972,1177,0,0
-245,-153,0,0,0,0,0,0,0,0,0,-1,979,1177,0,0
-238,-153,0,0,0,0,0,0,0,0,0,-1,986,1177,0,0
-231,-153,0,0,0,0,0,0,0,0,0,-1,993,1177,0,0
-224,-153,0,0,0,0,0,0,0,0,0,-1,1000,1177,0,0
-217,-153,0,0,0,0,0,0,0,0,0,-1,1007,1177,0,0
-210,-153,0,0,0,0,0,0,0,0,0,-1,1014,1177,0,0
-203,-153,0,0,0,0,0,0,0,0,0,-1,1021,1177,0,0
-196,-153,0,0,0,0,0,0,0,0,0,-1,1028,1177,0,0
-189,-153,0,0,0,0,0,0,0,0,0,-1,1035,1177,0,0
-182,-153,0,0,0,0,0,0,0,0,0,-1,1042,1177,0,0
-175,-153,0,0,0,0,0,0,0,0,0,-1,1049,1177,0,0
-168,-153,0,0,0,0,0,0,0,0,0,-1,1056,1177,0,0
-161,-153,0,0,0,0,0,0,0,0,0,-1,1063,1177,0,0
-154,-153,0,0,0,0,0,0,0,0,0,-1,1070,1177,0,0
-147,-153,0,0,0,0,0,0,0,0,0,-1,1077,1177,0,0
-140,-153,0,0,0,0,0,0,0,0,0,-1,1084,1177,0,0
-133,-153,0,0,0,0,0,0,0,0,0,-1,1091,1177,0,0
-126,-153,0,0,0,0,0,0,0,0,0,-1,1098,1177,0,0
-119,-153,0,0,0,0,0,0,0,0,0,-1,1105,1177,0,0
-112,-153,0,0,0,0,0,0,0,0,0,-1,1112,1177,0,0
-105,-153,0,0,0,0,0,0,0,0,0,-1,1119,1177,0,0
-98,-153,0,0,0,0,0,0,0,0,0,-1,1126,1177,0,0
-91,-153,0,0,0,0,0,0,0,0,0,-1,1133,1177,0,0
-84,-153,0,0,0,0,0,0,0,0,0,-1,1140,1177,0,0
-77,-153,0,0,0,0,0,0,0,0,0,-1,1147,1177,0,0
-70,-153,0,0,0,0,0,0,0,0,0,-1,1154,1177,0,0
-63,-153,0,0,0,0,0,0,0,0,0,-1,1161,1177,0,0
-56,-153,0,0,0,0,0,0,0,0,0,-1,1168,1177,0,0
-49,-153,0,0,0,0,0,0,0,0,0,-1,1175,1177,0,0
-42,-153,0,0,0,0,0,0,0,0,0,-1,1182,1177,0,0
-35,-153,0,0,0,0,0,0,0,0,0,-1,1189,1177,0,0
-28,-153,0,0,0,0,0,0,0,0,0,-1,1196,1177,0,0
-21,-153,0,0,0,0,0,0,0,0,0,-1,1203,1177,0,0
-14,-153,0,0,0,0,0,0,0,0,0,-1,1210,1177,0,0
-7,-153,0,0,0,0,0,0,0,0,0,-1,1217,1177,0,0
0,-153,0,0,0,0,0,0,0,0,0,-1,1224,1177,0,0
7,-153,0,0,0,0,0,0,0,0,0,-1,1231,1177,0,0
14,-153,0,0,0,0,0,0,0,0,0,-1,1238,1177,0,0
21,-153,0,0,0,0,0,0,0,0,0,-1,1245,1177,0,0
28,-153,0,0,0,0,0,0,0,0,0,-1,1252,1177,0,0
35,-153,0,0,0,0,0,0,0,0,0,-1,1259,1177,0,0
42,-153,0,0,0,0,0,0,0,0,0,-1,1266,1177,0,0
49,-153,0,0,0,0,0,0,0,0,0,-1,1273,1177,0,0
56,-153,0,0,0,0,0,0,0,0,0,-1,1280,1177,0,0
63,-153,0,0,0,0,0,0,0,0,0,-1,1287,1177,0,0
70,-153,0,0,0,0,0,0,0,0,0,-1,1294,1177,0,0
77,-153,0,0,0,0,0,0,0,0,0,-1,1301,1177,0,0
84,-153,0,0,0,0,0,0,0,0,0,-1,1308,1177,0,0
91,-153,0,0,0,0,0,0,0,0,0,-1,1315,1177,0,0
98,-153,0,0,0,0,0,0,0,0,0,-1,1322,1177,0,0
105,-153,0,0,0,0,0,0,0,0,0,-1,1329,1177,0,0
112,-153,0,0,0,0,0,0,0,0,0,-1,1336,1177,0,0
119,-153,0,0,0,0,0,0,0,0,0,-1,1343,1177,0,0
126,-153,0,0,0,0,0,0,0,0,0,-1,1350,1177,0,0
133,-153,0,0,0,0,0,0,0,0,0,-1,1357,1177,0,0
140,-153,0,0,0,0,0,0,0,0,0,-1,1364,1177,0,0
147,-153,0,0,0,0,0,0,0,0,0,-1,1371,1177,0,0
154,-153,0,0,0,0,0,0,0,0,0,-1,1378,1177,0,0
161,-153,0,0,0,0,0,0,0,0,0,-1,1385,1177,0,0
168,-153,0,0,0,0,0,0,0,0,0,-1,1392,1177,0,0
175,-153,0,0,0,0,0,0,0,0,0,-1,1399,1177,0,0
182,-153,0,0,0,0,0,0,0,0,0,-1,1406,1177,0,0
189,-153,0,0,0,0,0,0,0,0,0,-1,1413,1177,0,0
196,-153,0,0,0,0,0,0,0,0,0,-1,1420,1177,0,0
203,-153,0,0,0,0,0,0,0,0,0,-1,1427,1177,0,0
210,-153,0,0,0,0,0,0,0,0,0,-1,1434,1177,0,0
217,-153,0,0,0,0,0,0,0,0,0,-1,1441,1177,0,0
224,-153,0,0,0,0,0,0,0,0,0,-1,1448,1177,0,0
231,-153,0,0,0,0,0,0,0,0,0,-1,1455,1177,0,0
238,-153,0,0,0,0,0,0,0,0,0,-1,1462,1177,0,0
245,-153,0,0,0,0,0,0,0,0,0,-1,1469,1177,0,0
252,-153,0,0,0,0,0,0,0,0,0,-1,1476,1177,0,0
259,-153,0,0,0,0,0,0,0,0,0,-1,1483,1177,0,0
266,-153,0,0,0,0,0,0,0,0,0,-1,1490,1177,0,0
273,-153,0,0,0,0,0,0,0,0,0,-1,1497,1177,0,0
280,-153,0,0,0,0,0,0,0,0,0,-1,1504,1177,0,0
287,-153,0,0,0,0,0,0,0,0,0,-1,1511,1177,0,0
294,-153,0,0,0,0,0,0,0,0,0,-1,1518,1177,0,0
301,-153,0,0,0,0,0,0,0,0,0,-1,1525,1177,0,0
308,-153,0,0,0,0,0,0,0,0,0,-1,1532,1177,0,0
315,-153,0,0,0,0,0,0,0,0,0,-1,1539,1177,0,0
322,-153,0,0,0,0,0,0,0,0,0,-1,1546,1177,0,0
329,-153,0,0,0,0,0,0,0,0,0,-1,1553,1177,0,0
336,-153,0,0,0,0,0,0,0,0,0,-1,1560,1177,0,0
343,-153,0,0,0,0,0,0,0,0,0,-1,1567,1177,0,0
350,-153,0,0,0,0,0,0,0,0,0,-1,1574,1177,0,0
357,-153,0,0,0,0,0,0,0,0,0,-1,1581,1177,0,0
364,-153,0,0,0,0,0,0,0,0,0,-1,1588,1177,0,0
371,-153,0,0,0,0,0,0,0,0,0,-1,1595,1177,0,0
378,-153,0,0,0,0,0,0,0,0,0,-1,1602,1177,0,0
385,-153,0,0,0,0,0,0,0,0,0,-1,1609,1177,0,0
392,-153,0,0,0,0,0,0,0,0,0,-1,1616,1177,0,0
399,-153,0,0,0,0,0,0,0,0,0,-1,1623,1177,0,0
406,-153,0,0,0,0,0,0,0,0,0,-1,1630,1177,0,0
413,-153,0,0,0,0,0,0,0,0,0,-1,1637,1177,0,0
420,-153,0,0,0,0,0,0,0,0,0,-1,1644,1177,0,0
427,-153,0,0,0,0,0,0,0,0,0,-1,1651,1177,0,0
434,-153,0,0,0,0,0,0,0,0,0,-1,1658,1177,0,0
441,-153,0,0,0,0,0,0,0,0,0,-1,1665,1177,0,0
448,-153,0,0,0,0,0,0,0,0,0,-1,1672,1177,0,0
455,-153,0,0,0,0,0,0,0,0,0,-1,1679,1177,0,0
462,-153,0,0,0,0,0,0,0,0,0,-1,1686,1177,0,0
469,-153,0,0,0,0,0,0,0,0,0,-1,1693,1177,0,0
476,-153,0,0,0,0,0,0,0,0,0,-1,1700,1177,0,0
483,-153,0,0,0,0,0,0,0,0,0,-1,1707,1177,0,0
490,-153,0,0,0,0,0,0,0,0,0,-1,1714,1177,0,0
497,-153,0,0,0,0,0,0,0,0,0,-1,1721,1177,0,0
504,-153,0,0,0,0,0,0,0,0,0,-1,1728,1177,0,0
511,-153,0,0,0,0,0,0,0,0,0,-1,1735,1177,0,0
518,-153,0,0,0,0,0,0,0,0,0,-1,1742,1177,0,0
525,-153,0,0,0,0,0,0,0,0,0,-1,1749,1177,0,0
532,-153,0,0,0,0,0,0,0,0,0,-1,1756,1177,0,0
539,-153,0,0,0,0,0,0,0,0,0,-1,1763,1177,0,0
546,-153,0,0,0,0,0,0,0,0,0,-1,1770,1177,0,0
553,-153,0,0,0,0,0,0,0,0,0,-1,1777,1177,0,0
560,-153,0,0,0,0,0,0,0,0,0,-1,1784,1177,0,0
567,-153,0,0,0,0,0,0,0,0,0,-1,1791,1177,0,0
574,-153,0,0,0,0,0,0,0,0,0,-1,1798,1177,0,0
581,-153,0,0,0,0,0,0,0,0,0,-1,1805,1177,0,0
588,-153,0,0,0,0,0,0,0,0,0,-1,1812,1177,0,0
595,-153,0,0,0,0,0,0,0,0,0,-1,1819,1177,0,0
602,-153,0,0,0,0,0,0,0,0,0,-1,1826,1177,0,0
609,-153,0,0,0,0,0,0,0,0,0,-1,1833,1177,0,0
616,-153,0,0,0,0,0,0,0,0,0,-1,1840,1177,0,0
623,-153,0,0,0,0,0,0,0,0,0,-1,1847,1177,0,0
630,-153,0,0,0,0,0,0,0,0,0,-1,1854,1177,0,0
637,-153,35.5677,2.47107,-0.00581396,0.00582578,-0.000568255,0.00585345,-0.00584164,-1.52213,0.00675217,0.0398106,1861,1177,35.5677,-2.47104
644,-153,35.5259,2.4812,-0.004188,0.00457937,-0.000762066,0.00464511,-0.00425375,-1.48474,0.00513942,0.0373256,1868,1177,35.5259,-2.48126
651,-153,35.4902,2.48438,-0.00274479,0.00367964,-0.00104878,0.00384651,-0.00291167,-1.413,0.00391426,0.0307452,1875,1177,35.4902,-2.48437
658,-153,35.5394,2.58008,-0.00131539,0.00291178,-0.00135717,0.00331,-0.0017136,-1.28539,0.00294879,0.0361121,1882,1177,35.5394,-2.58004
665,-153,35.6726,2.64392,-0.000128676,0.00226538,-0.00161187,0.00307608,-0.000939379,-1.10478,0.00242527,0.0395159,1889,1177,35.6726,-2.64392
672,-153,35.6472,2.61121,0.000396541,0.00161816,-0.00155785,0.00268067,-0.000665968,-0.97223,0.00204556,0.0377461,1896,1177,35.6473,-2.61115
679,-153,35.5465,2.50903,5.82849e-05,0.00101882,-0.00113189,0.00176812,-0.000691011,-0.98604,0.00146447,0.030171,1903,1177,35.5466,-2.50906
686,-153,35.5587,2.51196,-0.000378678,0.000577882,-0.000741937,0.000982338,-0.000783134,-1.0717,0.00102146,0.0197953,1910,1177,35.5587,-2.51192
693,-153,35.6105,2.44287,-0.000650817,0.000295407,-0.000388057,0.000434196,-0.000789606,-1.22732,0.000716426,0.0313218,1917,1177,35.6104,-2.44289
700,-153,35.6915,2.31458,0,0,0,0,0,0,0,-1,1924,1177,35.6915,-2.31456
707,-153,29.6483,6.6842,0,0,0,0,0,0,0,-1,1931,1177,29.6483,-6.68415
714,-153,31.0665,5.979,0,0,0,0,0,0,0,-1,1938,1177,31.0665,-5.97905
721,-153,31.3344,5.8031,0,0,0,0,0,0,0,-1,1945,1177,31.3344,-5.80306
728,-153,31.6044,5.51636,0,0,0,0,0,0,0,-1,1952,1177,31.6043,-5.51631
735,-153,31.5627,5.37585,-0.00220475,0.000192978,0.00165719,0.00103949,-0.00305126,1.09854,0.00245515,0.0210874,1959,1177,31.5628,-5.37586
742,-153,31.5566,5.15747,-0.00193581,0.00139624,0.00152258,0.00198718,-0.00252675,1.20058,0.00261231,0.015132,1966,1177,31.5567,-5.15747
749,-153,31.5587,4.89734,-0.00159941,0.00381411,0.00107456,0.00401961,-0.00180491,1.38184,0.00344287,0.0166123,1973,1177,31.5587,-4.89738
756,-153,31.5511,4.62048,-0.0013285,0.00825262,-0.000313328,0.00826285,-0.00133873,-1.53814,0.00600476,0.0109824,1980,1177,31.5512,-4.6205
763,-153,31.5155,4.36609,-0.00102055,0.0142318,-0.00210232,0.0145162,-0.00130503,-1.4363,0.0101405,0.0102236,1987,1177,31.5155,-4.36614
770,-153,31.5026,4.10571,-0.0011525,0.0216987,-0.00442854,0.022527,-0.00198073,-1.38591,0.0157199,0.0103793,1994,1177,31.5025,-4.10572
777,-153,31.5264,3.86646,-0.00189996,0.0310663,-0.00753256,0.0327059,-0.00353955,-1.35647,0.0230744,0.0209554,2001,1177,31.5263,-3.86648
784,-153,31.6669,3.72974,-0.003554,0.042475,-0.0115622,0.0452161,-0.00629514,-1.33802,0.0324467,0.0421545,2008,1177,31.6668,-3.72976
791,-153,31.8173,3.57483,-0.00629067,0.056625,-0.017171,0.0610063,-0.0106719,-1.32097,0.0446553,0.0472711,2015,1177,31.8172,-3.57477
798,-153,31.9673,3.36218,0,0,0,0,0,0,0,-1,2022,1177,31.9674,-3.36217
805,-153,31.7874,4.25061,0,0,0,0,0,0,0,-1,2029,1177,31.7874,-4.25064
812,-153,0,0,0,0,0,0,0,0,0,-1,2036,1177,0,0
-700,-160,0,0,0,0,0,0,0,0,0,-1,524,1184,0,0
-693,-160,0,0,0,0,0,0,0,0,0,-1,531,1184,0,0
-686,-160,-19.5965,-0.33728,0,0,0,0,0,0,0,-1,538,1184,-19.5965,0.337269
-679,-160,-19.4777,-0.32605,0,0,0,0,0,0,0,-1,545,1184,-19.4777,0.326106
-672,-160,-20.5996,-0.729004,0.00546539,0.0158365,-0.023203,0.0344263,-0.0131245,-0.895334,0.0283569,0.0440889,552,1184,-20.5996,0.728984
-665,-160,-21.192,-0.460938,0,0,0,0,0,0,0,-1,559,1184,-21.192,0.460985
-658,-160,-21.504,-0.323608,0,0,0,0,0,0,0,-1,566,1184,-21.504,0.323665
-651,-160,-21.0251,0.758423,0,0,0,0,0,0,0,-1,573,1184,-21.0251,-0.75839
-644,-160,-21.0077,1.0658,0.00297491,0.00334905,-0.00863388,0.0117979,-0.00547392,-0.79623,0.0101923,0.0400793,580,1184,-21.0077,-1.06577
-637,-160,-21.0399,1.37439,0.00159701,0.00166405,-0.00603539,0.00766602,-0.00440496,-0.788175,0.00705344,0.014884,587,1184,-21.0399,-1.37433
-630,-160,-21.1077,1.66187,0.00072481,0.00076184,-0.00424979,0.00499316,-0.00350651,-0.787577,0.00493224,0.00891828,594,1184,-21.1077,-1.66183
-623,-160,-21.1544,1.93286,0.000138247,0.000492872,-0.0031932,0.00351367,-0.00288256,-0.813134,0.00369885,0.0111855,601,1184,-21.1544,-1.93288
-616,-160,-21.1665,2.24683,-0.000430585,0.000242473,-0.0024347,0.0023638,-0.00255191,-0.854074,0.00283878,0.00967898,608,1184,-21.1665,-2.24685
-609,-160,-21.1143,2.62073,-0.00122962,0.000480115,-0.00229957,0.00207858,-0.00282809,-0.963358,0.00284386,0.0116002,615,1184,-21.1143,-2.62068
-602,-160,-21.0495,3.02258,-0.00187151,0.000492756,-0.00237889,0.00196704,-0.0033458,-1.01599,0.00310161,0.03082,622,1184,-21.0495,-3.02264
-595,-160,-21.1428,3.40808,-0.00260458,0.000315303,-0.00241818,0.00168008,-0.00396935,-1.05698,0.00334978,0.0439597,629,1184,-21.1428,-3.40805
-588,-160,-21.4153,3.53491,-0.00223103,6.25715e-05,-0.0024035,0.00157884,-0.0037473,-1.00799,0.00315886,0.0393254,636,1184,-21.4153,-3.53486
-581,-160,-21.1202,3.86975,-0.00135589,-7.84059e-05,-0.00229743,0.00166742,-0.00310172,-0.920986,0.00279467,0.0225357,643,1184,-21.1202,-3.86978
-574,-160,-21.3502,4.30029,0,0,0,0,0,0,0,-1,650,1184,-21.3501,-4.30028
-567,-160,-25.2946,0.200317,0,0,0,0,0,0,0,-1,657,1184,-25.2946,-0.200266
-560,-160,-25.4526,0.44458,-0.000396355,0.000195202,-0.0016317,0.00155771,-0.00175887,-0.87506,0.001916,0.0412503,664,1184,-25.4525,-0.444557
-553,-160,-25.56,0.587891,3.99921e-05,0.000334336,-0.00129104,0.00148656,-0.00111223,-0.842151,0.0015056,0.0388537,671,1184,-25.56,-0.587925
-546,-160,-25.5956,0.562134,0.000829253,0.00050136,-0.000760047,0.00144284,-0.000112222,-0.679173,0.0010014,0.0389006,678,1184,-25.5956,-0.562144
-539,-160,-25.8013,0.594727,0.00170379,0.000640827,6.4863e-05,0.00170774,0.000636884,0.0607205,0.000996517,0.0423389,685,1184,-25.8014,-0.594756
-532,-160,-25.6378,0.441895,0.00238229,0.00109545,0.00108896,0.00300371,0.000474023,0.518564,0.00186466,0.0459829,692,1184,-25.6378,-0.441929
-525,-160,-25.4776,0.578613,0.00367058,0.00213983,0.00250826,0.00552764,0.000282767,0.637315,0.00359454,0.0440994,699,1184,-25.4776,-0.578661
-518,-160,-25.4694,0.859375,0.00315115,0.00331857,0.00322244,0.00645838,1.13309e-05,0.798384,0.00430182,0.0407018,706,1184,-25.4694,-0.859341
-511,-160,0,0,0,0,0,0,0,0,0,-1,713,1184,0,0
-504,-160,0,0,0,0,0,0,0,0,0,-1,720,1184,0,0
-497,-160,0,0,0,0,0,0,0,0,0,-1,727,1184,0,0
-490,-160,0,0,0,0,0,0,0,0,0,-1,734,1184,0,0
-483,-160,0,0,0,0,0,0,0,0,0,-1,741,1184,0,0
-476,-160,0,0,0,0,0,0,0,0,0,-1,748,1184,0,0
-469,-160,0,0,0,0,0,0,0,0,0,-1,755,1184,0,0
-462,-160,0,0,0,0,0,0,0,0,0,-1,762,1184,0,0
-455,-160,0,0,0,0,0,0,0,0,0,-1,769,1184,0,0
-448,-160,0,0,0,0,0,0,0,0,0,-1,776,1184,0,0
-441,-160,0,0,0,0,0,0,0,0,0,-1,783,1184,0,0
-434,-160,0,0,0,0,0,0,0,0,0,-1,790,1184,0,0
-427,-160,0,0,0,0,0,0,0,0,0,-1,797,1184,0,0
-420,-160,0,0,0,0,0,0,0,0,0,-1,804,1184,0,0
-413,-160,0,0,0,0,0,0,0,0,0,-1,811,1184,0,0
-406,-160,0,0,0,0,0,0,0,0,0,-1,818,1184,0,0
-399,-160,0,0,0,0,0,0,0,0,0,-1,825,1184,0,0
-392,-160,0,0,0,0,0,0,0,0,0,-1,832,1184,0,0
-385,-160,0,0,0,0,0,0,0,0,0,-1,839,1184,0,0
-378,-160,0,0,0,0,0,0,0,0,0,-1,846,1184,0,0
-371,-160,0,0,0,0,0,0,0,0,0,-1,853,1184,0,0
-364,-160,0,0,0,0,0,0,0,0,0,-1,860,1184,0,0
-357,-160,0,0,0,0,0,0,0,0,0,-1,867,1184,0,0
-350,-160,0,0,0,0,0,0,0,0,0,-1,874,1184,0,0
-343,-160,0,0,0,0,0,0,0,0,0,-1,881,1184,0,0
-336,-160,0,0,0,0,0,0,0,0,0,-1,888,1184,0,0
-329,-160,0,0,0,0,0,0,0,0,0,-1,895,1184,0,0
-322,-160,0,0,0,0,0,0,0,0,0,-1,902,1184,0,0
-315,-160,0,0,0,0,0,0,0,0,0,-1,909,1184,0,0
-308,-160,0,0,0,0,0,0,0,0,0,-1,916,1184,0,0
-301,-160,0,0,0,0,0,0,0,0,0,-1,923,1184,0,0
-294,-160,0,0,0,0,0,0,0,0,0,-1,930,1184,0,0
-287,-160,0,0,0,0,0,0,0,0,0,-1,937,1184,0,0
-280,-160,0,0,0,0,0,0,0,0,0,-1,944,1184,0,0
-273,-160,0,0,0,0,0,0,0,0,0,-1,951,1184,0,0
-266,-160,0,0,0,0,0,0,0,0,0,-1,958,1184,0,0
-259,-160,0,0,0,0,0,0,0,0,0,-1,965,1184,0,0
-252,-160,0,0,0,0,0,0,0,0,0,-1,972,1184,0,0
-245,-160,0,0,0,0,0,0,0,0,0,-1,979,1184,0,0
-238,-160,0,0,0,0,0,0,0,0,0,-1,986,1184,0,0
-231,-160,0,0,0,0,0,0,0,0,0,-1,993,1184,0,0
-224,-160,0,0,0,0,0,0,0,0,0,-1,1000,1184,0,0
-217,-160,0,0,0,0,0,0,0,0,0,-1,1007,1184,0,0
-210,-160,0,0,0,0,0,0,0,0,0,-1,1014,1184,0,0
-203,-160,0,0,0,0,0,0,0,0,0,-1,1021,1184,0,0
-196,-160,0,0,0,0,0,0,0,0,0,-1,1028,1184,0,0
-189,-160,0,0,0,0,0,0,0,0,0,-1,1035,1184,0,0
-182,-160,0,0,0,0,0,0,0,0,0,-1,1042,1184,0,0
-175,-160,0,0,0,0,0,0,0,0,0,-1,1049,1184,0,0
-168,-160,0,0,0,0,0,0,0,0,0,-1,1056,1184,0,0
-161,-160,0,0,0,0,0,0,0,0,0,-1,1063,1184,0,0
-154,-160,0,0,0,0,0,0,0,0,0,-1,1070,1184,0,0
-147,-160,0,0,0,0,0,0,0,0,0,-1,1077,1184,0,0
-140,-160,0,0,0,0,0,0,0,0,0,-1,1084,1184,0,0
-133,-160,0,0,0,0,0,0,0,0,0,-1,1091,1184,0,0
-126,-160,0,0,0,0,0,0,0,0,0,-1,1098,1184,0,0
-119,-160,0,0,0,0,0,0,0,0,0,-1,1105,1184,0,0
-112,-160,0,0,0,0,0,0,0,0,0,-1,1112,1184,0,0
-105,-160,0,0,0,0,0,0,0,0,0,-1,1119,1184,0,0
-98,-160,0,0,0,0,0,0,0,0,0,-1,1126,1184,0,0
-91,-160,0,0,0,0,0,0,0,0,0,-1,1133,1184,0,0
-84,-160,0,0,0,0,0,0,0,0,0,-1,1140,1184,0,0
-77,-160,0,0,0,0,0,0,0,0,0,-1,1147,1184,0,0
-70,-160,0,0,0,0,0,0,0,0,0,-1,1154,1184,0,0
-63,-160,0,0,0,0,0,0,0,0,0,-1,1161,1184,0,0
-56,-160,0,0,0,0,0,0,0,0,0,-1,1168,1184,0,0
-49,-160,0,0,0,0,0,0,0,0,0,-1,1175,1184,0,0
-42,-160,0,0,0,0,0,0,0,0,0,-1,1182,1184,0,0
-35,-160,0,0,0,0,0,0,0,0,0,-1,1189,1184,0,0
-28,-160,0,0,0,0,0,0,0,0,0,-1,1196,1184,0,0
-21,-160,0,0,0,0,0,0,0,0,0,-1,1203,1184,0,0
-14,-160,0,0,0,0,0,0,0,0,0,-1,1210,1184,0,0
-7,-160,0,0,0,0,0,0,0,0,0,-1,1217,1184,0,0
0,-160,0,0,0,0,0,0,0,0,0,-1,1224,1184,0,0
7,-160,0,0,0,0,0,0,0,0,0,-1,1231,1184,0,0
14,-160,0,0,0,0,0,0,0,0,0,-1,1238,1184,0,0
21,-160,0,0,0,0,0,0,0,0,0,-1,1245,1184,0,0
28,-160,0,0,0,0,0,0,0,0,0,-1,1252,1184,0,0
35,-160,0,0,0,0,0,0,0,0,0,-1,1259,1184,0,0
42,-160,0,0,0,0,0,0,0,0,0,-1,1266,1184,0,0
49,-160,0,0,0,0,0,0,0,0,0,-1,1273,1184,0,0
56,-160,0,0,0,0,0,0,0,0,0,-1,1280,1184,0,0
63,-160,0,0,0,0,0,0,0,0,0,-1,1287,1184,0,0
70,-160,0,0,0,0,0,0,0,0,0,-1,1294,1184,0,0
77,-160,0,0,0,0,0,0,0,0,0,-1,1301,1184,0,0
84,-160,0,0,0,0,0,0,0,0,0,-1,1308,1184,0,0
91,-160,0,0,0,0,0,0,0,0,0,-1,1315,1184,0,0
98,-160,0,0,0,0,0,0,0,0,0,-1,1322,1184,0,0
105,-160,0,0,0,0,0,0,0,0,0,-1,1329,1184,0,0
112,-160,0,0,0,0,0,0,0,0,0,-1,1336,1184,0,0
119,-160,0,0,0,0,0,0,0,0,0,-1,1343,1184,0,0
126,-160,0,0,0,0,0,0,0,0,0,-1,1350,1184,0,0
133,-160,0,0,0,0,0,0,0,0,0,-1,1357,1184,0,0
140,-160,0,0,0,0,0,0,0,0,0,-1,1364,1184,0,0
147,-160,0,0,0,0,0,0,0,0,0,-1,1371,1184,0,0
154,-160,0,0,0,0,0,0,0,0,0,-1,1378,1184,0,0
161,-160,0,0,0,0,0,0,0,0,0,-1,1385,1184,0,0
168,-160,0,0,0,0,0,0,0,0,0,-1,1392,1184,0,0
175,-160,0,0,0,0,0,0,0,0,0,-1,1399,1184,0,0
182,-160,0,0,0,0,0,0,0,0,0,-1,1406,1184,0,0
189,-160,0,0,0,0,0,0,0,0,0,-1,1413,1184,0,0
196,-160,0,0,0,0,0,0,0,0,0,-1,1420,1184,0,0
203,-160,0,0,0,0,0,0,0,0,0,-1,1427,1184,0,0
210,-160,0,0,0,0,0,0,0,0,0,-1,1434,1184,0,0
217,-160,0,0,0,0,0,0,0,0,0,-1,1441,1184,0,0
224,-160,0,0,0,0,0,0,0,0,0,-1,1448,1184,0,0
231,-160,0,0,0,0,0,0,0,0,0,-1,1455,1184,0,0
238,-160,0,0,0,0,0,0,0,0,0,-1,1462,1184,0,0
245,-160,0,0,0,0,0,0,0,0,0,-1,1469,1184,0,0
252,-160,0,0,0,0,0,0,0,0,0,-1,1476,1184,0,0
259,-160,0,0,0,0,0,0,0,0,0,-1,1483,1184,0,0
266,-160,0,0,0,0,0,0,0,0,0,-1,1490,1184,0,0
273,-160,0,0,0,0,0,0,0,0,0,-1,1497,1184,0,0
280,-160,0,0,0,0,0,0,0,0,0,-1,1504,1184,0,0
287,-160,0,0,0,0,0,0,0,0,0,-1,1511,1184,0,0
294,-160,0,0,0,0,0,0,0,0,0,-1,1518,1184,0,0
301,-160,0,0,0,0,0,0,0,0,0,-1,1525,1184,0,0
308,-160,0,0,0,0,0,0,0,0,0,-1,1532,1184,0,0
315,-160,0,0,0,0,0,0,0,0,0,-1,1539,1184,0,0
322,-160,0,0,0,0,0,0,0,0,0,-1,1546,1184,0,0
329,-160,0,0,0,0,0,0,0,0,0,-1,1553,1184,0,0
336,-160,0,0,0,0,0,0,0,0,0,-1,1560,1184,0,0
343,-160,0,0,0,0,0,0,0,0,0,-1,1567,1184,0,0
350,-160,0,0,0,0,0,0,0,0,0,-1,1574,1184,0,0
357,-160,0,0,0,0,0,0,0,0,0,-1,1581,1184,0,0
364,-160,0,0,0,0,0,0,0,0,0,-1,1588,1184,0,0
371,-160,0,0,0,0,0,0,0,0,0,-1,1595,1184,0,0
378,-160,0,0,0,0,0,0,0,0,0,-1,1602,1184,0,0
385,-160,0,0,0,0,0,0,0,0,0,-1,1609,1184,0,0
392,-160,0,0,0,0,0,0,0,0,0,-1,1616,1184,0,0
399,-160,0,0,0,0,0,0,0,0,0,-1,1623,1184,0,0
406,-160,0,0,0,0,0,0,0,0,0,-1,1630,1184,0,0
413,-160,0,0,0,0,0,0,0,0,0,-1,1637,1184,0,0
420,-160,0,0,0,0,0,0,0,0,0,-1,1644,1184,0,0
427,-160,0,0,0,0,0,0,0,0,0,-1,1651,1184,0,0
434,-160,0,0,0,0,0,0,0,0,0,-1,1658,1184,0,0
441,-160,0,0,0,0,0,0,0,0,0,-1,1665,1184,0,0
448,-160,0,0,0,0,0,0,0,0,0,-1,1672,1184,0,0
455,-160,0,0,0,0,0,0,0,0,0,-1,1679,1184,0,0
462,-160,0,0,0,0,0,0,0,0,0,-1,1686,1184,0,0
469,-160,0,0,0,0,0,0,0,0,0,-1,1693,1184,0,0
476,-160,0,0,0,0,0,0,0,0,0,-1,1700,1184,0,0
483,-160,0,0,0,0,0,0,0,0,0,-1,1707,1184,0,0
490,-160,0,0,0,0,0,0,0,0,0,-1,1714,1184,0,0
497,-160,0,0,0,0,0,0,0,0,0,-1,1721,1184,0,0
504,-160,0,0,0,0,0,0,0,0,0,-1,1728,1184,0,0
511,-160,0,0,0,0,0,0,0,0,0,-1,1735,1184,0,0
518,-160,0,0,0,0,0,0,0,0,0,-1,1742,1184,0,0
525,-160,0,0,0,0,0,0,0,0,0,-1,1749,1184,0,0
532,-160,0,0,0,0,0,0,0,0,0,-1,1756,1184,0,0
539,-160,0,0,0,0,0,0,0,0,0,-1,1763,1184,0,0
546,-160,0,0,0,0,0,0,0,0,0,-1,1770,1184,0,0
553,-160,0,0,0,0,0,0,0,0,0,-1,1777,1184,0,0
560,-160,0,0,0,0,0,0,0,0,0,-1,1784,1184,0,0
567,-160,0,0,0,0,0,0,0,0,0,-1,1791,1184,0,0
574,-160,0,0,0,0,0,0,0,0,0,-1,1798,1184,0,0
581,-160,0,0,0,0,0,0,0,0,0,-1,1805,1184,0,0
588,-160,0,0,0,0,0,0,0,0,0,-1,1812,1184,0,0
595,-160,0,0,0,0,0,0,0,0,0,-1,1819,1184,0,0
602,-160,0,0,0,0,0,0,0,0,0,-1,1826,1184,0,0
609,-160,0,0,0,0,0,0,0,0,0,-1,1833,1184,0,0
616,-160,0,0,0,0,0,0,0,0,0,-1,1840,1184,0,0
623,-160,0,0,0,0,0,0,0,0,0,-1,1847,1184,0,0
630,-160,0,0,0,0,0,0,0,0,0,-1,1854,1184,0,0
637,-160,35.6455,2.45166,-0.00640289,0.00647409,0.00109602,0.00656671,-0.00649551,1.48649,0.00754151,0.0421247,1861,1184,35.6455,-2.4516
644,-160,35.5182,2.5647,-0.00449072,0.00494801,0.000626096,0.00498936,-0.00453207,1.50485,0.00549931,0.0414466,1868,1184,35.5182,-2.5647
651,-160,35.4463,2.68311,-0.0027161,0.00375099,3.44201e-05,0.00375117,-0.00271628,1.56547,0.00374989,0.0383675,1875,1184,35.4463,-2.68306
658,-160,35.4205,2.59851,-0.000984958,0.00270799,-0.000644345,0.00281718,-0.00109415,-1.40292,0.00233011,0.0400418,1882,1184,35.4206,-2.59847
665,-160,35.6407,2.52734,0.000324339,0.00189153,-0.00119111,0.00253368,-0.000317812,-1.07634,0.00180441,0.039821,1889,1184,35.6407,-2.52736
672,-160,35.5699,2.46399,0.000781527,0.00114443,-0.00130008,0.00227566,-0.000349704,-0.854734,0.0016461,0.0341947,1896,1184,35.57,-2.46394
679,-160,35.5259,2.48401,0.000284159,0.000531671,-0.000962119,0.00137796,-0.000562131,-0.849361,0.00115265,0.0270933,1903,1184,35.5259,-2.48402
686,-160,35.5704,2.4928,-0.000254143,0.000134327,-0.00061561,0.000585618,-0.000705434,-0.938213,0.000746458,0.0187933,1910,1184,35.5704,-2.4928
693,-160,35.603,2.46411,0,0,0,0,0,0,0,-1,1917,1184,35.603,-2.46415
700,-160,35.0981,2.66394,0,0,0,0,0,0,0,-1,1924,1184,35.0981,-2.66391
707,-160,24.5115,6.27405,0,0,0,0,0,0,0,-1,1931,1184,24.5115,-6.27401
714,-160,30.8217,6.02771,0,0,0,0,0,0,0,-1,1938,1184,30.8217,-6.02769
721,-160,31.1235,5.71399,0,0,0,0,0,0,0,-1,1945,1184,31.1235,-5.71403
728,-160,31.3497,5.67029,0,0,0,0,0,0,0,-1,1952,1184,31.3498,-5.67031
735,-160,31.3472,5.42517,-0.0024283,1.03477e-05,0.00175694,0.00092962,-0.00334757,1.08874,0.00259764,0.0167309,1959,1184,31.3471,-5.42518
742,-160,31.2808,5.13135,-0.00195942,0.00132815,0.00157059,0.00195786,-0.00258912,1.18948,0.00263362,0.0162918,1966,1184,31.2807,-5.13129
749,-160,31.2953,4.86023,-0.00118249,0.00378208,0.00103598,0.00398959,-0.00139,1.37311,0.00322452,0.0182646,1973,1184,31.2953,-4.86024
756,-160,31.2964,4.61768,-0.000339345,0.00804324,-0.000369961,0.00805954,-0.000355641,-1.52678,0.00549541,0.0108235,1980,1184,31.2964,-4.61771
763,-160,31.2346,4.36682,0.000659329,0.0136621,-0.00211236,0.0139966,0.000324775,-1.41372,0.00922473,0.0106272,1987,1184,31.2346,-4.36688
770,-160,31.156,4.05127,0.00131168,0.0207806,-0.00437097,0.0217169,0.000375384,-1.35978,0.0143544,0.0208828,1994,1184,31.1561,-4.05131
777,-160,31.2596,3.7959,0.0014217,0.0298361,-0.0073791,0.0316381,-0.000380337,-1.33128,0.02122,0.03222,2001,1184,31.2596,-3.79589
784,-160,31.5831,3.78552,0.000588711,0.0409395,-0.0112622,0.04387,-0.0023418,-1.31623,0.0300577,0.0420935,2008,1184,31.5831,-3.78547
791,-160,31.7513,3.57104,0,0,0,0,0,0,0,-1,2015,1184,31.7513,-3.57107
798,-160,31.7305,4.55115,0,0,0,0,0,0,0,-1,2022,1184,31.7304,-4.55115
805,-160,32.1174,3.90161,0,0,0,0,0,0,0,-1,2029,1184,32.1175,-3.90161
812,-160,0,0,0,0,0,0,0,0,0,-1,2036,1184,0,0
-700,-167,0,0,0,0,0,0,0,0,0,-1,524,1191,0,0
-693,-167,0,0,0,0,0,0,0,0,0,-1,531,1191,0,0
-686,-167,-19.3091,-0.418213,-0.0112646,0.0244578,-0.0290858,0.0407288,-0.0275356,-1.06076,0.0396571,0.0466294,538,1191,-19.3091,0.418256
-679,-167,-19.2108,-0.358032,-0.00648734,0.0160432,-0.0256498,0.0327925,-0.0232367,-0.992314,0.0325049,0.0439062,545,1191,-19.2108,0.358007
-672,-167,-20.0817,-0.520508,-0.00326986,0.0107405,-0.0219828,0.0268073,-0.0193367,-0.939644,0.0267574,0.0461007,552,1191,-20.0817,0.520516
-665,-167,-20.7657,0.208618,0,0,0,0,0,0,0,-1,559,1191,-20.7657,-0.208638
-658,-167,-20.6663,0.54248,0,0,0,0,0,0,0,-1,566,1191,-20.6663,-0.542445
-651,-167,-20.5247,0.969604,0,0,0,0,0,0,0,-1,573,1191,-20.5247,-0.969596
-644,-167,-20.5889,1.18188,0.00112814,0.00313683,-0.00897007,0.0111586,-0.00689363,-0.841149,0.010519,0.0412533,580,1191,-20.5889,-1.18189
-637,-167,-20.703,1.3783,0.000646695,0.00206487,-0.00646515,0.0078597,-0.00514814,-0.840019,0.00756428,0.017697,587,1191,-20.703,-1.37835
-630,-167,-20.7825,1.65198,0.000316596,0.00133286,-0.00462892,0.00548146,-0.003832,-0.840066,0.00540517,0.00888478,594,1191,-20.7825,-1.65198
-623,-167,-20.8039,1.93323,4.42854e-05,0.000960008,-0.00341703,0.00394972,-0.00294542,-0.851998,0.00399496,0.0110155,601,1191,-20.8039,-1.93325
-616,-167,-20.8263,2.24548,-0.000361641,0.000617561,-0.00249473,0.00267028,-0.00241436,-0.882294,0.00293686,0.0146921,608,1191,-20.8263,-2.24551
-609,-167,-20.8325,2.60034,-0.001333,0.000676999,-0.00226396,0.002149,-0.00280501,-0.994288,0.00286854,0.0143955,615,1191,-20.8324,-2.60031
-602,-167,-20.8251,2.90259,-0.00212006,0.000557024,-0.00226585,0.00185017,-0.0034132,-1.05219,0.00308315,0.0151458,622,1191,-20.8251,-2.90263
-595,-167,-20.8276,3.15906,-0.00285966,0.000325744,-0.00229363,0.00152543,-0.00405935,-1.08888,0.00333317,0.0291485,629,1191,-20.8276,-3.15906
-588,-167,-20.9365,3.48145,-0.00240186,-1.85269e-05,-0.00233449,0.00141086,-0.00383124,-1.02139,0.00313222,0.0288911,636,1191,-20.9365,-3.48144
-581,-167,-20.8646,3.76062,-0.00143609,-0.00022385,-0.00229111,0.00153996,-0.0031999,-0.914713,0.00279194,0.0304524,643,1191,-20.8646,-3.76065
-574,-167,-21.0272,4.521,0,0,0,0,0,0,0,-1,650,1191,-21.0271,-4.52097
-567,-167,-25.0102,-0.140869,0,0,0,0,0,0,0,-1,657,1191,-25.0102,0.140898
-560,-167,-25.226,0.156738,-0.000379917,-1.72735e-05,-0.00173547,0.00154632,-0.00194351,-0.837449,0.0020192,0.0496245,664,1191,-25.226,-0.156798
-553,-167,-25.394,0.34021,0.000163047,8.07752e-05,-0.00147038,0.00159287,-0.00134905,-0.771414,0.00170046,0.0405262,671,1191,-25.3941,-0.340235
-546,-167,-25.618,0.616699,0.00105402,0.000241422,-0.00103818,0.00176258,-0.000467132,-0.598881,0.00135782,0.0352218,678,1191,-25.618,-0.616644
-539,-167,-25.6136,0.779175,0.0020932,0.000475105,-0.000368742,0.00217327,0.000395036,-0.213822,0.00133677,0.0376083,685,1191,-25.6136,-0.779204
-532,-167,-25.4214,0.658081,0.00293058,0.00114047,0.000425619,0.00302662,0.00104442,0.221937,0.00177516,0.0437107,692,1191,-25.4214,-0.658124
-525,-167,-25.2587,0.605103,0.00431185,0.00258944,0.00157557,0.00524622,0.00165507,0.535284,0.0030969,0.0473449,699,1191,-25.2586,-0.605071
-518,-167,-25.2117,0.781494,0.00394557,0.00414136,0.00209515,0.0061409,0.00194603,0.808743,0.00362383,0.0458131,706,1191,-25.2117,-0.781456
-511,-167,0,0,0,0,0,0,0,0,0,-1,713,1191,0,0
-504,-167,0,0,0,0,0,0,0,0,0,-1,720,1191,0,0
-497,-167,0,0,0,0,0,0,0,0,0,-1,727,1191,0,0
-490,-167,0,0,0,0,0,0,0,0,0,-1,734,1191,0,0
-483,-167,0,0,0,0,0,0,0,0,0,-1,741,1191,0,0
-476,-167,0,0,0,0,0,0,0,0,0,-1,748,1191,0,0
-469,-167,0,0,0,0,0,0,0,0,0,-1,755,1191,0,0
-462,-167,0,0,0,0,0,0,0,0,0,-1,762,1191,0,0
-455,-167,0,0,0,0,0,0,0,0,0,-1,769,1191,0,0
-448,-167,0,0,0,0,0,0,0,0,0,-1,776,1191,0,0
-441,-167,0,0,0,0,0,0,0,0,0,-1,783,1191,0,0
-434,-167,0,0,0,0,0,0,0,0,0,-1,790,1191,0,0
-427,-167,0,0,0,0,0,0,0,0,0,-1,797,1191,0,0
-420,-167,0,0,0,0,0,0,0,0,0,-1,804,1191,0,0
-413,-167,0,0,0,0,0,0,0,0,0,-1,811,1191,0,0
-406,-167,0,0,0,0,0,0,0,0,0,-1,818,1191,0,0
-399,-167,0,0,0,0,0,0,0,0,0,-1,825,1191,0,0
-392,-167,0,0,0,0,0,0,0,0,0,-1,832,1191,0,0
-385,-167,0,0,0,0,0,0,0,0,0,-1,839,1191,0,0
-378,-167,0,0,0,0,0,0,0,0,0,-1,846,1191,0,0
-371,-167,0,0,0,0,0,0,0,0,0,-1,853,1191,0,0
-364,-167,0,0,0,0,0,0,0,0,0,-1,860,1191,0,0
-357,-167,0,0,0,0,0,0,0,0,0,-1,867,1191,0,0
-350,-167,0,0,0,0,0,0,0,0,0,-1,874,1191,0,0
-343,-167,0,0,0,0,0,0,0,0,0,-1,881,1191,0,0
-336,-167,0,0,0,0,0,0,0,0,0,-1,888,1191,0,0
-329,-167,0,0,0,0,0,0,0,0,0,-1,895,1191,0,0
-322,-167,0,0,0,0,0,0,0,0,0,-1,902,1191,0,0
-315,-167,0,0,0,0,0,0,0,0,0,-1,909,1191,0,0
-308,-167,0,0,0,0,0,0,0,0,0,-1,916,1191,0,0
-301,-167,0,0,0,0,0,0,0,0,0,-1,923,1191,0,0
-294,-167,0,0,0,0,0,0,0,0,0,-1,930,1191,0,0
-287,-167,0,0,0,0,0,0,0,0,0,-1,937,1191,0,0
-280,-167,0,0,0,0,0,0,0,0,0,-1,944,1191,0,0
-273,-167,0,0,0,0,0,0,0,0,0,-1,951,1191,0,0
-266,-167,0,0,0,0,0,0,0,0,0,-1,958,1191,0,0
-259,-167,0,0,0,0,0,0,0,0,0,-1,965,1191,0,0
-252,-167,0,0,0,0,0,0,0,0,0,-1,972,1191,0,0
-245,-167,0,0,0,0,0,0,0,0,0,-1,979,1191,0,0
-238,-167,0,0,0,0,0,0,0,0,0,-1,986,1191,0,0
-231,-167,0,0,0,0,0,0,0,0,0,-1,993,1191,0,0
-224,-167,0,0,0,0,0,0,0,0,0,-1,1000,1191,0,0
-217,-167,0,0,0,0,0,0,0,0,0,-1,1007,1191,0,0
-210,-167,0,0,0,0,0,0,0,0,0,-1,1014,1191,0,0
-203,-167,0,0,0,0,0,0,0,0,0,-1,1021,1191,0,0
-196,-167,0,0,0,0,0,0,0,0,0,-1,1028,1191,0,0
-189,-167,0,0,0,0,0,0,0,0,0,-1,1035,1191,0,0
-182,-167,0,0,0,0,0,0,0,0,0,-1,1042,1191,0,0
-175,-167,0,0,0,0,0,0,0,0,0,-1,1049,1191,0,0
-168,-167,0,0,0,0,0,0,0,0,0,-1,1056,1191,0,0
-161,-167,0,0,0,0,0,0,0,0,0,-1,1063,1191,0,0
-154,-167,0,0,0,0,0,0,0,0,0,-1,1070,1191,0,0
-147,-167,0,0,0,0,0,0,0,0,0,-1,1077,1191,0,0
-140,-167,0,0,0,0,0,0,0,0,0,-1,1084,1191,0,0
-133,-167,0,0,0,0,0,0,0,0,0,-1,1091,1191,0,0
-126,-167,0,0,0,0,0,0,0,0,0,-1,1098,1191,0,0
-119,-167,0,0,0,0,0,0,0,0,0,-1,1105,1191,0,0
-112,-167,0,0,0,0,0,0,0,0,0,-1,1112,1191,0,0
-105,-167,0,0,0,0,0,0,0,0,0,-1,1119,1191,0,0
-98,-167,0,0,0,0,0,0,0,0,0,-1,1126,1191,0,0
-91,-167,0,0,0,0,0,0,0,0,0,-1,1133,1191,0,0
-84,-167,0,0,0,0,0,0,0,0,0,-1,1140,1191,0,0
-77,-167,0,0,0,0,0,0,0,0,0,-1,1147,1191,0,0
-70,-167,0,0,0,0,0,0,0,0,0,-1,1154,1191,0,0
-63,-167,0,0,0,0,0,0,0,0,0,-1,1161,1191,0,0
-56,-167,0,0,0,0,0,0,0,0,0,-1,1168,1191,0,0
-49,-167,0,0,0,0,0,0,0,0,0,-1,1175,1191,0,0
-42,-167,0,0,0,0,0,0,0,0,0,-1,1182,1191,0,0
-35,-167,0,0,0,0,0,0,0,0,0,-1,1189,1191,0,0
-28,-167,0,0,0,0,0,0,0,0,0,-1,1196,1191,0,0
-21,-167,0,0,0,0,0,0,0,0,0,-1,1203,1191,0,0
-14,-167,0,0,0,0,0,0,0,0,0,-1,1210,1191,0,0
-7,-167,0,0,0,0,0,0,0,0,0,-1,1217,1191,0,0
0,-167,0,0,0,0,0,0,0,0,0,-1,1224,1191,0,0
7,-167,0,0,0,0,0,0,0,0,0,-1,1231,1191,0,0
14,-167,0,0,0,0,0,0,0,0,0,-1,1238,1191,0,0
21,-167,0,0,0,0,0,0,0,0,0,-1,1245,1191,0,0
28,-167,0,0,0,0,0,0,0,0,0,-1,1252,1191,0,0
35,-167,0,0,0,0,0,0,0,0,0,-1,1259,1191,0,0
42,-167,0,0,0,0,0,0,0,0,0,-1,1266,1191,0,0
49,-167,0,0,0,0,0,0,0,0,0,-1,1273,1191,0,0
56,-167,0,0,0,0,0,0,0,0,0,-1,1280,1191,0,0
63,-167,0,0,0,0,0,0,0,0,0,-1,1287,1191,0,0
70,-167,0,0,0,0,0,0,0,0,0,-1,1294,1191,0,0
77,-167,0,0,0,0,0,0,0,0,0,-1,1301,1191,0,0
84,-167,0,0,0,0,0,0,0,0,0,-1,1308,1191,0,0
91,-167,0,0,0,0,0,0,0,0,0,-1,1315,1191,0,0
98,-167,0,0,0,0,0,0,0,0,0,-1,1322,1191,0,0
105,-167,0,0,0,0,0,0,0,0,0,-1,1329,1191,0,0
112,-167,0,0,0,0,0,0,0,0,0,-1,1336,1191,0,0
119,-167,0,0,0,0,0,0,0,0,0,-1,1343,1191,0,0
126,-167,0,0,0,0,0,0,0,0,0,-1,1350,1191,0,0
133,-167,0,0,0,0,0,0,0,0,0,-1,1357,1191,0,0
140,-167,0,0,0,0,0,0,0,0,0,-1,1364,1191,0,0
147,-167,0,0,0,0,0,0,0,0,0,-1,1371,1191,0,0
154,-167,0,0,0,0,0,0,0,0,0,-1,1378,1191,0,0
161,-167,0,0,0,0,0,0,0,0,0,-1,1385,1191,0,0
168,-167,0,0,0,0,0,0,0,0,0,-1,1392,1191,0,0
175,-167,0,0,0,0,0,0,0,0,0,-1,1399,1191,0,0
182,-167,0,0,0,0,0,0,0,0,0,-1,1406,1191,0,0
189,-167,0,0,0,0,0,0,0,0,0,-1,1413,1191,0,0
196,-167,0,0,0,0,0,0,0,0,0,-1,1420,1191,0,0
203,-167,0,0,0,0,0,0,0,0,0,-1,1427,1191,0,0
210,-167,0,0,0,0,0,0,0,0,0,-1,1434,1191,0,0
217,-167,0,0,0,0,0,0,0,0,0,-1,1441,1191,0,0
224,-167,0,0,0,0,0,0,0,0,0,-1,1448,1191,0,0
231,-167,0,0,0,0,0,0,0,0,0,-1,1455,1191,0,0
238,-167,0,0,0,0,0,0,0,0,0,-1,1462,1191,0,0
245,-167,0,0,0,0,0,0,0,0,0,-1,1469,1191,0,0
252,-167,0,0,0,0,0,0,0,0,0,-1,1476,1191,0,0
259,-167,0,0,0,0,0,0,0,0,0,-1,1483,1191,0,0
266,-167,0,0,0,0,0,0,0,0,0,-1,1490,1191,0,0
273,-167,0,0,0,0,0,0,0,0,0,-1,1497,1191,0,0
280,-167,0,0,0,0,0,0,0,0,0,-1,1504,1191,0,0
287,-167,0,0,0,0,0,0,0,0,0,-1,1511,1191,0,0
294,-167,0,0,0,0,0,0,0,0,0,-1,1518,1191,0,0
301,-167,0,0,0,0,0,0,0,0,0,-1,1525,1191,0,0
308,-167,0,0,0,0,0,0,0,0,0,-1,1532,1191,0,0
315,-167,0,0,0,0,0,0,0,0,0,-1,1539,1191,0,0
322,-167,0,0,0,0,0,0,0,0,0,-1,1546,1191,0,0
329,-167,0,0,0,0,0,0,0,0,0,-1,1553,1191,0,0
336,-167,0,0,0,0,0,0,0,0,0,-1,1560,1191,0,0
343,-167,0,0,0,0,0,0,0,0,0,-1,1567,1191,0,0
350,-167,0,0,0,0,0,0,0,0,0,-1,1574,1191,0,0
357,-167,0,0,0,0,0,0,0,0,0,-1,1581,1191,0,0
364,-167,0,0,0,0,0,0,0,0,0,-1,1588,1191,0,0
371,-167,0,0,0,0,0,0,0,0,0,-1,1595,1191,0,0
378,-167,0,0,0,0,0,0,0,0,0,-1,1602,1191,0,0
385,-167,0,0,0,0,0,0,0,0,0,-1,1609,1191,0,0
392,-167,0,0,0,0,0,0,0,0,0,-1,1616,1191,0,0
399,-167,0,0,0,0,0,0,0,0,0,-1,1623,1191,0,0
406,-167,0,0,0,0,0,0,0,0,0,-1,1630,1191,0,0
413,-167,0,0,0,0,0,0,0,0,0,-1,1637,1191,0,0
420,-167,0,0,0,0,0,0,0,0,0,-1,1644,1191,0,0
427,-167,0,0,0,0,0,0,0,0,0,-1,1651,1191,0,0
434,-167,0,0,0,0,0,0,0,0,0,-1,1658,1191,0,0
441,-167,0,0,0,0,0,0,0,0,0,-1,1665,1191,0,0
448,-167,0,0,0,0,0,0,0,0,0,-1,1672,1191,0,0
455,-167,0,0,0,0,0,0,0,0,0,-1,1679,1191,0,0
462,-167,0,0,0,0,0,0,0,0,0,-1,1686,1191,0,0
469,-167,0,0,0,0,0,0,0,0,0,-1,1693,1191,0,0
476,-167,0,0,0,0,0,0,0,0,0,-1,1700,1191,0,0
483,-167,0,0,0,0,0,0,0,0,0,-1,1707,1191,0,0
490,-167,0,0,0,0,0,0,0,0,0,-1,1714,1191,0,0
497,-167,0,0,0,0,0,0,0,0,0,-1,1721,1191,0,0
504,-167,0,0,0,0,0,0,0,0,0,-1,1728,1191,0,0
511,-167,0,0,0,0,0,0,0,0,0,-1,1735,1191,0,0
518,-167,0,0,0,0,0,0,0,0,0,-1,1742,1191,0,0
525,-167,0,0,0,0,0,0,0,0,0,-1,1749,1191,0,0
532,-167,0,0,0,0,0,0,0,0,0,-1,1756,1191,0,0
539,-167,0,0,0,0,0,0,0,0,0,-1,1763,1191,0,0
546,-167,0,0,0,0,0,0,0,0,0,-1,1770,1191,0,0
553,-167,0,0,0,0,0,0,0,0,0,-1,1777,1191,0,0
560,-167,0,0,0,0,0,0,0,0,0,-1,1784,1191,0,0
567,-167,0,0,0,0,0,0,0,0,0,-1,1791,1191,0,0
574,-167,0,0,0,0,0,0,0,0,0,-1,1798,1191,0,0
581,-167,0,0,0,0,0,0,0,0,0,-1,1805,1191,0,0
588,-167,0,0,0,0,0,0,0,0,0,-1,1812,1191,0,0
595,-167,0,0,0,0,0,0,0,0,0,-1,1819,1191,0,0
602,-167,0,0,0,0,0,0,0,0,0,-1,1826,1191,0,0
609,-167,0,0,0,0,0,0,0,0,0,-1,1833,1191,0,0
616,-167,0,0,0,0,0,0,0,0,0,-1,1840,1191,0,0
623,-167,0,0,0,0,0,0,0,0,0,-1,1847,1191,0,0
630,-167,0,0,0,0,0,0,0,0,0,-1,1854,1191,0,0
637,-167,35.7441,2.32568,-0.00661117,0.00624754,0.00251006,0.00672014,-0.00708377,1.38469,0.00797062,0.0415254,1861,1191,35.7442,-2.32563
644,-167,35.6578,2.3573,-0.00429621,0.00460633,0.00178443,0.00495069,-0.00464056,1.38016,0.00553848,0.0423799,1868,1191,35.6578,-2.35724
651,-167,35.4182,2.50195,-0.00206244,0.00321943,0.000909003,0.00337149,-0.0022145,1.40505,0.00324805,0.0431477,1875,1191,35.4183,-2.50199
658,-167,35.3459,2.54797,-3.34987e-05,0.00204982,-6.31845e-05,0.00205173,-3.54133e-05,-1.5405,0.00137978,0.0444966,1882,1191,35.3459,-2.54793
665,-167,35.563,2.7063,0.00127943,0.00125098,-0.00079152,0.00205685,0.000473555,-0.776415,0.0012438,0.0392885,1889,1191,35.563,-2.70625
672,-167,35.5592,2.53528,0.00154761,0.000593554,-0.000994444,0.00217352,-3.23566e-05,-0.561763,0.00145992,0.0286389,1896,1191,35.5593,-2.53524
679,-167,35.5426,2.50647,0.000820608,0.000130913,-0.000728885,0.00128211,-0.000330585,-0.564443,0.000983627,0.0220965,1903,1191,35.5426,-2.50646
686,-167,35.5791,2.49097,0.000138672,-0.000157339,-0.000445175,0.0004598,-0.000478467,-0.624914,0.000541745,0.0327278,1910,1191,35.5792,-2.49101
693,-167,35.5695,2.46594,0,0,0,0,0,0,0,-1,1917,1191,35.5695,-2.46599
700,-167,28.0459,2.70508,0,0,0,0,0,0,0,-1,1924,1191,28.0459,-2.70513
707,-167,29.4708,7.10168,0,0,0,0,0,0,0,-1,1931,1191,29.4708,-7.10172
714,-167,31.4193,6.48035,0,0,0,0,0,0,0,-1,1938,1191,31.4194,-6.48037
721,-167,31.2819,5.59167,0,0,0,0,0,0,0,-1,1945,1191,31.2819,-5.59173
728,-167,31.2988,5.59277,-0.00248326,-0.000533465,0.00139024,0.000189636,-0.00320636,1.09118,0.00220351,0.033418,1952,1191,31.2989,-5.59277
735,-167,31.0443,5.46313,-0.00262388,0.000100134,0.00185287,0.00103773,-0.00356148,1.10234,0.00278543,0.0153992,1959,1191,31.0443,-5.46319
742,-167,30.9963,5.1676,-0.00189618,0.00147386,0.00164463,0.00214343,-0.00256575,1.18416,0.00272249,0.0161965,1966,1191,30.9964,-5.16756
749,-167,30.9915,4.87573,-0.000682878,0.00383258,0.00110545,0.00408868,-0.000938981,1.34314,0.00308676,0.0147538,1973,1191,30.9915,-4.87569
756,-167,31.0083,4.625,0.000682783,0.00758316,-0.000130192,0.00758561,0.000680328,-1.55194,0.00484624,0.0108111,1980,1191,31.0083,-4.62499
763,-167,30.9341,4.33264,0.00228453,0.0125728,-0.00164229,0.0128286,0.00202873,-1.41628,0.00796277,0.0115901,1987,1191,30.934,-4.33269
770,-167,30.8152,4.04578,0.00364036,0.0190476,-0.00363544,0.0198624,0.00282564,-1.35033,0.0124074,0.0258707,1994,1191,30.8152,-4.04575
777,-167,31.1349,3.57104,0.00445719,0.0273507,-0.00629504,0.0289675,0.00284042,-1.3194,0.0184379,0.0393834,2001,1191,31.1349,-3.57103
784,-167,31.5411,2.98145,0.00421523,0.0376539,-0.00979454,0.0403116,0.00155754,-1.30583,0.0263705,0.0456536,2008,1191,31.5411,-2.98149
791,-167,31.8447,2.45313,0,0,0,0,0,0,0,-1,2015,1191,31.8447,-2.45318
798,-167,31.9128,4.17004,0,0,0,0,0,0,0,-1,2022,1191,31.9129,-4.17001
805,-167,32.3372,3.52332,0,0,0,0,0,0,0,-1,2029,1191,32.3371,-3.52333
812,-167,0,0,0,0,0,0,0,0,0,-1,2036,1191,0,0
-700,-174,0,0,0,0,0,0,0,0,0,-1,524,1198,0,0
-693,-174,0,0,0,0,0,0,0,0,0,-1,531,1198,0,0
-686,-174,-18.9224,-0.665039,-0.0244389,0.0130071,-0.0258671,0.0262161,-0.037648,-1.09866,0.0370683,0.0444226,538,1198,-18.9223,0.66498
-679,-174,-18.9601,-0.386963,-0.0156869,0.00824791,-0.0246423,0.023675,-0.031114,-1.01145,0.0317295,0.0411391,545,1198,-18.9601,0.386942
-672,-174,-19.8195,-0.352051,-0.0093647,0.0056414,-0.0222085,0.02158,-0.0253033,-0.948302,0.0270965,0.0480787,552,1198,-19.8195,0.352
-665,-174,-20.0942,0.196167,-0.00485554,0.00425253,-0.0192738,0.019503,-0.020106,-0.901411,0.0228691,0.0490491,559,1198,-20.0942,-0.196218
-658,-174,-20.2646,0.427124,-0.00179545,0.00353489,-0.0161029,0.0171917,-0.0154522,-0.867409,0.0188559,0.0476237,566,1198,-20.2647,-0.427087
-651,-174,-20.3217,0.685669,3.98256e-05,0.00314336,-0.0129225,0.0146069,-0.0114237,-0.845153,0.0150662,0.0483055,573,1198,-20.3217,-0.685729
-644,-174,-20.3364,0.997559,0.000785542,0.00289464,-0.00997943,0.0118751,-0.0081949,-0.838039,0.0116522,0.0463559,580,1198,-20.3363,-0.997552
-637,-174,-20.3513,1.35864,0.000807935,0.00240278,-0.00736712,0.00901551,-0.0058048,-0.839309,0.00862318,0.0236616,587,1198,-20.3513,-1.35864
-630,-174,-20.426,1.66089,0.000692899,0.00183853,-0.00533707,0.00663344,-0.00410201,-0.838857,0.00625529,0.0120101,594,1198,-20.426,-1.66094
-623,-174,-20.4493,1.95776,0.000561069,0.00141844,-0.00388792,0.00490124,-0.00292173,-0.840307,0.00456454,0.0139311,601,1198,-20.4493,-1.95782
-616,-174,-20.4927,2.27319,0.000204738,0.00101986,-0.00268969,0.00333269,-0.00210809,-0.86059,0.00316765,0.0196624,608,1198,-20.4927,-2.27316
-609,-174,-20.5242,2.59595,-0.00104084,0.000869502,-0.00226731,0.00237463,-0.00254596,-0.984755,0.00284148,0.0217253,615,1198,-20.5242,-2.5959
-602,-174,-20.5359,2.89417,-0.00199983,0.000546533,-0.00215948,0.00178021,-0.00323351,-1.05176,0.00293492,0.0146808,622,1198,-20.5359,-2.89415
-595,-174,-20.4416,3.1792,0,0,0,0,0,0,0,-1,629,1198,-20.4416,-3.17918
-588,-174,-20.774,3.43884,-0.00220983,-0.000272248,-0.00233733,0.00128911,-0.00377119,-0.981864,0.00303646,0.0230329,636,1198,-20.7741,-3.43881
-581,-174,-20.6945,3.81738,-0.00117047,-0.000544975,-0.00235355,0.00151651,-0.00323196,-0.851453,0.00280053,0.0288235,643,1198,-20.6944,-3.81739
-574,-174,-20.649,4.2915,0,0,0,0,0,0,0,-1,650,1198,-20.649,-4.29153
-567,-174,-22.5471,1.97351,0,0,0,0,0,0,0,-1,657,1198,-22.5471,-1.97355
-560,-174,-25.2238,-0.00366211,0,0,0,0,0,0,0,-1,664,1198,-25.2238,0.00363892
-553,-174,-25.3655,0.337402,0.000549553,-0.000381464,-0.00171688,0.00186291,-0.00169482,-0.653013,0.00205482,0.0368174,671,1198,-25.3655,-0.337349
-546,-174,-25.5287,0.666748,0.00143457,-0.000234973,-0.0013785,0.00221135,-0.00101176,-0.513148,0.00190334,0.0294756,678,1198,-25.5287,-0.666746
-539,-174,-25.5115,0.611084,0.00245629,6.83916e-05,-0.00085381,0.00273017,-0.000205483,-0.310399,0.00189233,0.0328224,685,1198,-25.5115,-0.611043
-532,-174,-25.2019,0.609619,0.0032312,0.0008658,-0.00023635,0.00325459,0.000842416,-0.0986205,0.00195053,0.0430669,692,1198,-25.2019,-0.609613
-525,-174,-25.0124,0.648193,0.00433246,0.00258396,0.000691953,0.00457316,0.00234326,0.334763,0.00264059,0.0474295,699,1198,-25.0124,-0.648185
-518,-174,-25.1147,0.423584,0.00391207,0.00467721,0.00116864,0.00552431,0.00306497,0.943581,0.00319584,0.0463549,706,1198,-25.1147,-0.423541
-511,-174,0,0,0,0,0,0,0,0,0,-1,713,1198,0,0
-504,-174,0,0,0,0,0,0,0,0,0,-1,720,1198,0,0
-497,-174,0,0,0,0,0,0,0,0,0,-1,727,1198,0,0
-490,-174,0,0,0,0,0,0,0,0,0,-1,734,1198,0,0
-483,-174,0,0,0,0,0,0,0,0,0,-1,741,1198,0,0
-476,-174,0,0,0,0,0,0,0,0,0,-1,748,1198,0,0
-469,-174,0,0,0,0,0,0,0,0,0,-1,755,1198,0,0
-462,-174,0,0,0,0,0,0,0,0,0,-1,762,1198,0,0
-455,-174,0,0,0,0,0,0,0,0,0,-1,769,1198,0,0
-448,-174,0,0,0,0,0,0,0,0,0,-1,776,1198,0,0
-441,-174,0,0,0,0,0,0,0,0,0,-1,783,1198,0,0
-434,-174,0,0,0,0,0,0,0,0,0,-1,790,1198,0,0
-427,-174,0,0,0,0,0,0,0,0,0,-1,797,1198,0,0
-420,-174,0,0,0,0,0,0,0,0,0,-1,804,1198,0,0
-413,-174,0,0,0,0,0,0,0,0,0,-1,811,1198,0,0
-406,-174,0,0,0,0,0,0,0,0,0,-1,818,1198,0,0
-399,-174,0,0,0,0,0,0,0,0,0,-1,825,1198,0,0
-392,-174,0,0,0,0,0,0,0,0,0,-1,832,1198,0,0
-385,-174,0,0,0,0,0,0,0,0,0,-1,839,1198,0,0
-378,-174,0,0,0,0,0,0,0,0,0,-1,846,1198,0,0
-371,-174,0,0,0,0,0,0,0,0,0,-1,853,1198,0,0
-364,-174,0,0,0,0,0,0,0,0,0,-1,860,1198,0,0
-357,-174,0,0,0,0,0,0,0,0,0,-1,867,1198,0,0
-350,-174,0,0,0,0,0,0,0,0,0,-1,874,1198,0,0
-343,-174,0,0,0,0,0,0,0,0,0,-1,881,1198,0,0
-336,-174,0,0,0,0,0,0,0,0,0,-1,888,1198,0,0
-329,-174,0,0,0,0,0,0,0,0,0,-1,895,1198,0,0
-322,-174,0,0,0,0,0,0,0,0,0,-1,902,1198,0,0
-315,-174,0,0,0,0,0,0,0,0,0,-1,909,1198,0,0
-308,-174,0,0,0,0,0,0,0,0,0,-1,916,1198,0,0
-301,-174,0,0,0,0,0,0,0,0,0,-1,923,1198,0,0
-294,-174,0,0,0,0,0,0,0,0,0,-1,930,1198,0,0
-287,-174,0,0,0,0,0,0,0,0,0,-1,937,1198,0,0
-280,-174,0,0,0,0,0,0,0,0,0,-1,944,1198,0,0
-273,-174,0,0,0,0,0,0,0,0,0,-1,951,1198,0,0
-266,-174,0,0,0,0,0,0,0,0,0,-1,958,1198,0,0
-259,-174,0,0,0,0,0,0,0,0,0,-1,965,1198,0,0
-252,-174,0,0,0,0,0,0,0,0,0,-1,972,1198,0,0
-245,-174,0,0,0,0,0,0,0,0,0,-1,979,1198,0,0
-238,-174,0,0,0,0,0,0,0,0,0,-1,986,1198,0,0
-231,-174,0,0,0,0,0,0,0,0,0,-1,993,1198,0,0
-224,-174,0,0,0,0,0,0,0,0,0,-1,1000,1198,0,0
-217,-174,0,0,0,0,0,0,0,0,0,-1,1007,1198,0,0
-210,-174,0,0,0,0,0,0,0,0,0,-1,1014,1198,0,0
-203,-174,0,0,0,0,0,0,0,0,0,-1,1021,1198,0,0
-196,-174,0,0,0,0,0,0,0,0,0,-1,1028,1198,0,0
-189,-174,0,0,0,0,0,0,0,0,0,-1,1035,1198,0,0
-182,-174,0,0,0,0,0,0,0,0,0,-1,1042,1198,0,0
-175,-174,0,0,0,0,0,0,0,0,0,-1,1049,1198,0,0
-168,-174,0,0,0,0,0,0,0,0,0,-1,1056,1198,0,0
-161,-174,0,0,0,0,0,0,0,0,0,-1,1063,1198,0,0
-154,-174,0,0,0,0,0,0,0,0,0,-1,1070,1198,0,0
-147,-174,0,0,0,0,0,0,0,0,0,-1,1077,1198,0,0
-140,-174,0,0,0,0,0,0,0,0,0,-1,1084,1198,0,0
-133,-174,0,0,0,0,0,0,0,0,0,-1,1091,1198,0,0
-126,-174,0,0,0,0,0,0,0,0,0,-1,1098,1198,0,0
-119,-174,0,0,0,0,0,0,0,0,0,-1,1105,1198,0,0
-112,-174,0,0,0,0,0,0,0,0,0,-1,1112,1198,0,0
-105,-174,0,0,0,0,0,0,0,0,0,-1,1119,1198,0,0
-98,-174,0,0,0,0,0,0,0,0,0,-1,1126,1198,0,0
-91,-174,0,0,0,0,0,0,0,0,0,-1,1133,1198,0,0
-84,-174,0,0,0,0,0,0,0,0,0,-1,1140,1198,0,0
-77,-174,0,0,0,0,0,0,0,0,0,-1,1147,1198,0,0
-70,-174,0,0,0,0,0,0,0,0,0,-1,1154,1198,0,0
-63,-174,0,0,0,0,0,0,0,0,0,-1,1161,1198,0,0
-56,-174,0,0,0,0,0,0,0,0,0,-1,1168,1198,0,0
-49,-174,0,0,0,0,0,0,0,0,0,-1,1175,1198,0,0
-42,-174,0,0,0,0,0,0,0,0,0,-1,1182,1198,0,0
-35,-174,0,0,0,0,0,0,0,0,0,-1,1189,1198,0,0
-28,-174,0,0,0,0,0,0,0,0,0,-1,1196,1198,0,0
-21,-174,0,0,0,0,0,0,0,0,0,-1,1203,1198,0,0
-14,-174,0,0,0,0,0,0,0,0,0,-1,1210,1198,0,0
-7,-174,0,0,0,0,0,0,0,0,0,-1,1217,1198,0,0
0,-174,0,0,0,0,0,0,0,0,0,-1,1224,1198,0,0
7,-174,0,0,0,0,0,0,0,0,0,-1,1231,1198,0,0
14,-174,0,0,0,0,0,0,0,0,0,-1,1238,1198,0,0
21,-174,0,0,0,0,0,0,0,0,0,-1,1245,1198,0,0
28,-174,0,0,0,0,0,0,0,0,0,-1,1252,1198,0,0
35,-174,0,0,0,0,0,0,0,0,0,-1,1259,1198,0,0
42,-174,0,0,0,0,0,0,0,0,0,-1,1266,1198,0,0
49,-174,0,0,0,0,0,0,0,0,0,-1,1273,1198,0,0
56,-174,0,0,0,0,0,0,0,0,0,-1,1280,1198,0,0
63,-174,0,0,0,0,0,0,0,0,0,-1,1287,1198,0,0
70,-174,0,0,0,0,0,0,0,0,0,-1,1294,1198,0,0
77,-174,0,0,0,0,0,0,0,0,0,-1,1301,1198,0,0
84,-174,0,0,0,0,0,0,0,0,0,-1,1308,1198,0,0
91,-174,0,0,0,0,0,0,0,0,0,-1,1315,1198,0,0
98,-174,0,0,0,0,0,0,0,0,0,-1,1322,1198,0,0
105,-174,0,0,0,0,0,0,0,0,0,-1,1329,1198,0,0
112,-174,0,0,0,0,0,0,0,0,0,-1,1336,1198,0,0
119,-174,0,0,0,0,0,0,0,0,0,-1,1343,1198,0,0
126,-174,0,0,0,0,0,0,0,0,0,-1,1350,1198,0,0
133,-174,0,0,0,0,0,0,0,0,0,-1,1357,1198,0,0
140,-174,0,0,0,0,0,0,0,0,0,-1,1364,1198,0,0
147,-174,0,0,0,0,0,0,0,0,0,-1,1371,1198,0,0
154,-174,0,0,0,0,0,0,0,0,0,-1,1378,1198,0,0
161,-174,0,0,0,0,0,0,0,0,0,-1,1385,1198,0,0
168,-174,0,0,0,0,0,0,0,0,0,-1,1392,1198,0,0
175,-174,0,0,0,0,0,0,0,0,0,-1,1399,1198,0,0
182,-174,0,0,0,0,0,0,0,0,0,-1,1406,1198,0,0
189,-174,0,0,0,0,0,0,0,0,0,-1,1413,1198,0,0
196,-174,0,0,0,0,0,0,0,0,0,-1,1420,1198,0,0
203,-174,0,0,0,0,0,0,0,0,0,-1,1427,1198,0,0
210,-174,0,0,0,0,0,0,0,0,0,-1,1434,1198,0,0
217,-174,0,0,0,0,0,0,0,0,0,-1,1441,1198,0,0
224,-174,0,0,0,0,0,0,0,0,0,-1,1448,1198,0,0
231,-174,0,0,0,0,0,0,0,0,0,-1,1455,1198,0,0
238,-174,0,0,0,0,0,0,0,0,0,-1,1462,1198,0,0
245,-174,0,0,0,0,0,0,0,0,0,-1,1469,1198,0,0
252,-174,0,0,0,0,0,0,0,0,0,-1,1476,1198,0,0
259,-174,0,0,0,0,0,0,0,0,0,-1,1483,1198,0,0
266,-174,0,0,0,0,0,0,0,0,0,-1,1490,1198,0,0
273,-174,0,0,0,0,0,0,0,0,0,-1,1497,1198,0,0
280,-174,0,0,0,0,0,0,0,0,0,-1,1504,1198,0,0
287,-174,0,0,0,0,0,0,0,0,0,-1,1511,1198,0,0
294,-174,0,0,0,0,0,0,0,0,0,-1,1518,1198,0,0
301,-174,0,0,0,0,0,0,0,0,0,-1,1525,1198,0,0
308,-174,0,0,0,0,0,0,0,0,0,-1,1532,1198,0,0
315,-174,0,0,0,0,0,0,0,0,0,-1,1539,1198,0,0
322,-174,0,0,0,0,0,0,0,0,0,-1,1546,1198,0,0
329,-174,0,0,0,0,0,0,0,0,0,-1,1553,1198,0,0
336,-174,0,0,0,0,0,0,0,0,0,-1,1560,1198,0,0
343,-174,0,0,0,0,0,0,0,0,0,-1,1567,1198,0,0
350,-174,0,0,0,0,0,0,0,0,0,-1,1574,1198,0,0
357,-174,0,0,0,0,0,0,0,0,0,-1,1581,1198,0,0
364,-174,0,0,0,0,0,0,0,0,0,-1,1588,1198,0,0
371,-174,0,0,0,0,0,0,0,0,0,-1,1595,1198,0,0
378,-174,0,0,0,0,0,0,0,0,0,-1,1602,1198,0,0
385,-174,0,0,0,0,0,0,0,0,0,-1,1609,1198,0,0
392,-174,0,0,0,0,0,0,0,0,0,-1,1616,1198,0,0
399,-174,0,0,0,0,0,0,0,0,0,-1,1623,1198,0,0
406,-174,0,0,0,0,0,0,0,0,0,-1,1630,1198,0,0
413,-174,0,0,0,0,0,0,0,0,0,-1,1637,1198,0,0
420,-174,0,0,0,0,0,0,0,0,0,-1,1644,1198,0,0
427,-174,0,0,0,0,0,0,0,0,0,-1,1651,1198,0,0
434,-174,0,0,0,0,0,0,0,0,0,-1,1658,1198,0,0
441,-174,0,0,0,0,0,0,0,0,0,-1,1665,1198,0,0
448,-174,0,0,0,0,0,0,0,0,0,-1,1672,1198,0,0
455,-174,0,0,0,0,0,0,0,0,0,-1,1679,1198,0,0
462,-174,0,0,0,0,0,0,0,0,0,-1,1686,1198,0,0
469,-174,0,0,0,0,0,0,0,0,0,-1,1693,1198,0,0
476,-174,0,0,0,0,0,0,0,0,0,-1,1700,1198,0,0
483,-174,0,0,0,0,0,0,0,0,0,-1,1707,1198,0,0
490,-174,0,0,0,0,0,0,0,0,0,-1,1714,1198,0,0
497,-174,0,0,0,0,0,0,0,0,0,-1,1721,1198,0,0
504,-174,0,0,0,0,0,0,0,0,0,-1,1728,1198,0,0
511,-174,0,0,0,0,0,0,0,0,0,-1,1735,1198,0,0
518,-174,0,0,0,0,0,0,0,0,0,-1,1742,1198,0,0
525,-174,0,0,0,0,0,0,0,0,0,-1,1749,1198,0,0
532,-174,0,0,0,0,0,0,0,0,0,-1,1756,1198,0,0
539,-174,0,0,0,0,0,0,0,0,0,-1,1763,1198,0,0
546,-174,0,0,0,0,0,0,0,0,0,-1,1770,1198,0,0
553,-174,0,0,0,0,0,0,0,0,0,-1,1777,1198,0,0
560,-174,0,0,0,0,0,0,0,0,0,-1,1784,1198,0,0
567,-174,0,0,0,0,0,0,0,0,0,-1,1791,1198,0,0
574,-174,0,0,0,0,0,0,0,0,0,-1,1798,1198,0,0
581,-174,0,0,0,0,0,0,0,0,0,-1,1805,1198,0,0
588,-174,0,0,0,0,0,0,0,0,0,-1,1812,1198,0,0
595,-174,0,0,0,0,0,0,0,0,0,-1,1819,1198,0,0
602,-174,0,0,0,0,0,0,0,0,0,-1,1826,1198,0,0
609,-174,0,0,0,0,0,0,0,0,0,-1,1833,1198,0,0
616,-174,0,0,0,0,0,0,0,0,0,-1,1840,1198,0,0
623,-174,0,0,0,0,0,0,0,0,0,-1,1847,1198,0,0
630,-174,0,0,0,0,0,0,0,0,0,-1,1854,1198,0,0
637,-174,35.6838,2.3363,-0.00614849,0.00587155,0.00340534,0.00676926,-0.00704619,1.31304,0.00797689,0.0402565,1861,1198,35.6838,-2.33625
644,-174,35.6752,2.22705,-0.00356335,0.00421342,0.002452,0.00492198,-0.00427191,1.28949,0.00531251,0.0405277,1868,1198,35.6751,-2.227
651,-174,35.3735,2.77686,-0.00108862,0.00274412,0.00136156,0.00317856,-0.00152306,1.26193,0.00277001,0.0425145,1875,1198,35.3735,-2.7769
658,-174,35.2405,2.8241,0.000960966,0.00155009,0.000244629,0.00163842,0.000872631,1.22427,0.000946615,0.0401545,1882,1198,35.2405,-2.8241
665,-174,35.4232,2.54907,0.00208034,0.000833665,-0.000506237,0.00226001,0.000653992,-0.341051,0.00134285,0.0352808,1889,1198,35.4232,-2.54902
672,-174,35.4794,2.48071,0.00210843,0.000286927,-0.00069934,0.00234595,4.93985e-05,-0.327421,0.00154777,0.0277368,1896,1198,35.4793,-2.48071
679,-174,35.5332,2.47864,0.00123618,-4.0235e-05,-0.000459464,0.00138436,-0.000188422,-0.311989,0.000991702,0.0240875,1903,1198,35.5332,-2.47864
686,-174,35.5801,2.48206,0,0,0,0,0,0,0,-1,1910,1198,35.5801,-2.48207
693,-174,35.0841,2.66296,0,0,0,0,0,0,0,-1,1917,1198,35.0841,-2.66293
700,-174,25.4004,6.11792,0,0,0,0,0,0,0,-1,1924,1198,25.4004,-6.11797
707,-174,31.0847,6.77014,0,0,0,0,0,0,0,-1,1931,1198,31.0848,-6.77011
714,-174,31.225,6.2594,-0.00130537,-0.000588632,0.00048492,-0.000344029,-0.00154998,1.10362,0.000939869,0.0430084,1938,1198,31.225,-6.25934
721,-174,31.2317,5.80359,-0.00218349,-0.000536876,0.000967663,-8.96681e-05,-0.00263069,1.13788,0.00172468,0.0384379,1945,1198,31.2317,-5.80361
728,-174,30.8843,5.67676,-0.0026143,-0.000491459,0.00152409,0.000304394,-0.00341015,1.08956,0.00238139,0.0256265,1952,1198,30.8843,-5.6768
735,-174,30.7565,5.45874,-0.0026457,0.000231107,0.00200175,0.00125766,-0.00367225,1.09694,0.0029579,0.0125887,1959,1198,30.7565,-5.45877
742,-174,30.7183,5.16248,-0.00166309,0.00164866,0.00182397,0.00245627,-0.00247071,1.15396,0.0028446,0.020509,1966,1198,30.7182,-5.16244
749,-174,30.723,4.89233,-0.000111879,0.00389164,0.00136153,0.00431079,-0.000531026,1.27215,0.00306623,0.0177282,1973,1198,30.7231,-4.89229
756,-174,30.708,4.61072,0.00165396,0.00729396,0.000378676,0.00731927,0.00162865,1.50405,0.0044374,0.0105018,1980,1198,30.708,-4.61077
763,-174,30.6755,4.31763,0.00373541,0.0118396,-0.000786005,0.0119151,0.00365988,-1.475,0.00704768,0.0124276,1987,1198,30.6755,-4.31769
770,-174,30.7003,3.98718,0.00570916,0.0179511,-0.00237279,0.0183949,0.00526535,-1.38589,0.010939,0.0268365,1994,1198,30.7003,-3.98718
777,-174,31.0618,3.44751,0.00716187,0.0258781,-0.00451808,0.0269116,0.00612828,-1.3459,0.0162873,0.045984,2001,1198,31.0618,-3.44753
784,-174,31.4668,2.91309,0,0,0,0,0,0,0,-1,2008,1198,31.4669,-2.91303
791,-174,31.8873,4.30676,0,0,0,0,0,0,0,-1,2015,1198,31.8873,-4.30673
798,-174,31.7947,5.80371,0,0,0,0,0,0,0,-1,2022,1198,31.7946,-5.80366
805,-174,32.2097,5.98657,0,0,0,0,0,0,0,-1,2029,1198,32.2098,-5.98656
812,-174,0,0,0,0,0,0,0,0,0,-1,2036,1198,0,0
-700,-181,0,0,0,0,0,0,0,0,0,-1,524,1205,0,0
-693,-181,0,0,0,0,0,0,0,0,0,-1,531,1205,0,0
-686,-181,-18.3246,-0.75354,-0.0314845,0.00150662,-0.0259106,0.0157269,-0.0457048,-1.06886,0.0368484,0.0461236,538,1205,-18.3246,0.753502
-679,-181,-18.5341,-0.317505,-0.0190749,0.00124305,-0.0257839,0.0187972,-0.036629,-0.973061,0.0325477,0.0457836,545,1205,-18.5341,0.317545
-672,-181,-19.0222,-0.0550537,-0.0102705,0.00160433,-0.0238805,0.0202745,-0.0289406,-0.907243,0.0285608,0.0468723,552,1205,-19.0222,0.055048
-665,-181,-19.4119,0.102905,-0.00423327,0.00214468,-0.021087,0.0202825,-0.0223711,-0.860444,0.0246359,0.0488801,559,1205,-19.4119,-0.102866
-658,-181,-19.7996,0.259155,-0.000373072,0.00263571,-0.017826,0.0190206,-0.016758,-0.827495,0.0206706,0.0471139,566,1205,-19.7996,-0.259135
-651,-181,-19.8282,0.366333,0.00176804,0.00296588,-0.0144332,0.0168126,-0.0120787,-0.806134,0.0167549,0.0459979,573,1205,-19.8282,-0.366341
-644,-181,-19.9918,0.882935,0,0,0,0,0,0,0,-1,580,1205,-19.9918,-0.882928
-637,-181,-20.0452,1.32642,0.00247477,0.00301552,-0.00838011,0.0111296,-0.00563932,-0.801524,0.00985301,0.0246076,587,1205,-20.0451,-1.32643
-630,-181,-20.1087,1.65686,0.00213265,0.0025214,-0.00610887,0.00843899,-0.00378494,-0.801302,0.00722598,0.0126802,594,1205,-20.1087,-1.65681
-623,-181,-20.1362,1.95447,0.00178631,0.0019971,-0.00442066,0.00631362,-0.00253021,-0.797316,0.00525943,0.0156042,601,1205,-20.1362,-1.9545
-616,-181,-20.1567,2.27905,0.00118341,0.00148519,-0.00295422,0.00429237,-0.00162377,-0.810914,0.00352961,0.0150388,608,1205,-20.1567,-2.27901
-609,-181,-20.1813,2.62219,-0.000433111,0.00104817,-0.00232091,0.00274375,-0.00212869,-0.939849,0.00282056,0.0139642,615,1205,-20.1814,-2.6222
-602,-181,-20.178,2.95178,-0.00162834,0.000472786,-0.00206041,0.001735,-0.00289056,-1.02116,0.0026982,0.0120051,622,1205,-20.178,-2.95175
-595,-181,-20.2697,3.20581,-0.00234244,-6.16344e-05,-0.00215902,0.00123966,-0.00364373,-1.02838,0.0029311,0.0189998,629,1205,-20.2696,-3.2058
-588,-181,-20.412,3.5542,-0.00180281,-0.000698712,-0.00239024,0.0012024,-0.00370392,-0.898888,0.00295284,0.0215091,636,1205,-20.412,-3.55418
-581,-181,-20.3401,3.95605,-0.000727411,-0.00107452,-0.00247921,0.00158431,-0.00338625,-0.750453,0.00293194,0.022082,643,1205,-20.3402,-3.95607
-574,-181,-20.311,4.30127,0,0,0,0,0,0,0,-1,650,1205,-20.311,-4.30128
-567,-181,-21.7781,2.03772,0,0,0,0,0,0,0,-1,657,1205,-21.7781,-2.03772
-560,-181,-25.3676,0.306396,0,0,0,0,0,0,0,-1,664,1205,-25.3675,-0.306393
-553,-181,-25.4221,0.479126,0.000988018,-0.00111155,-0.00204313,0.00223528,-0.00235882,-0.54808,0.00265272,0.0411567,671,1205,-25.4221,-0.47918
-546,-181,-25.5037,0.664673,0.00179516,-0.00099664,-0.00183287,0.00270316,-0.00190464,-0.459958,0.0026736,0.0349019,678,1205,-25.5037,-0.664647
-539,-181,-25.5179,0.631104,0.00268034,-0.000686154,-0.00149262,0.00324682,-0.00125262,-0.362723,0.00268145,0.0364063,685,1205,-25.518,-0.631089
-532,-181,-25.1913,0.732178,0.00324764,0.000114045,-0.00108712,0.00358785,-0.000226166,-0.303293,0.00247074,0.0437168,692,1205,-25.1914,-0.732126
-525,-181,-25.2009,0.718262,0.00387718,0.00184519,-0.000424994,0.00396249,0.00175988,-0.198092,0.0022925,0.0431039,699,1205,-25.2009,-0.718217
-518,-181,-25.2377,0.460815,0.00309068,0.00424773,-1.50667e-05,0.00424792,0.00309048,-1.55778,0.00253577,0.0440923,706,1205,-25.2377,-0.460828
-511,-181,0,0,0,0,0,0,0,0,0,-1,713,1205,0,0
-504,-181,0,0,0,0,0,0,0,0,0,-1,720,1205,0,0
-497,-181,0,0,0,0,0,0,0,0,0,-1,727,1205,0,0
-490,-181,0,0,0,0,0,0,0,0,0,-1,734,1205,0,0
-483,-181,0,0,0,0,0,0,0,0,0,-1,741,1205,0,0
-476,-181,0,0,0,0,0,0,0,0,0,-1,748,1205,0,0
-469,-181,0,0,0,0,0,0,0,0,0,-1,755,1205,0,0
-462,-181,0,0,0,0,0,0,0,0,0,-1,762,1205,0,0
-455,-181,0,0,0,0,0,0,0,0,0,-1,769,1205,0,0
-448,-181,0,0,0,0,0,0,0,0,0,-1,776,1205,0,0
-441,-181,0,0,0,0,0,0,0,0,0,-1,783,1205,0,0
-434,-181,0,0,0,0,0,0,0,0,0,-1,790,1205,0,0
-427,-181,0,0,0,0,0,0,0,0,0,-1,797,1205,0,0
-420,-181,0,0,0,0,0,0,0,0,0,-1,804,1205,0,0
-413,-181,0,0,0,0,0,0,0,0,0,-1,811,1205,0,0
-406,-181,0,0,0,0,0,0,0,0,0,-1,818,1205,0,0
-399,-181,0,0,0,0,0,0,0,0,0,-1,825,1205,0,0
-392,-181,0,0,0,0,0,0,0,0,0,-1,832,1205,0,0
-385,-181,0,0,0,0,0,0,0,0,0,-1,839,1205,0,0
-378,-181,0,0,0,0,0,0,0,0,0,-1,846,1205,0,0
-371,-181,0,0,0,0,0,0,0,0,0,-1,853,1205,0,0
-364,-181,0,0,0,0,0,0,0,0,0,-1,860,1205,0,0
-357,-181,0,0,0,0,0,0,0,0,0,-1,867,1205,0,0
-350,-181,0,0,0,0,0,0,0,0,0,-1,874,1205,0,0
-343,-181,0,0,0,0,0,0,0,0,0,-1,881,1205,0,0
-336,-181,0,0,0,0,0,0,0,0,0,-1,888,1205,0,0
-329,-181,0,0,0,0,0,0,0,0,0,-1,895,1205,0,0
-322,-181,0,0,0,0,0,0,0,0,0,-1,902,1205,0,0
-315,-181,0,0,0,0,0,0,0,0,0,-1,909,1205,0,0
-308,-181,0,0,0,0,0,0,0,0,0,-1,916,1205,0,0
-301,-181,0,0,0,0,0,0,0,0,0,-1,923,1205,0,0
-294,-181,0,0,0,0,0,0,0,0,0,-1,930,1205,0,0
-287,-181,0,0,0,0,0,0,0,0,0,-1,937,1205,0,0
-280,-181,0,0,0,0,0,0,0,0,0,-1,944,1205,0,0
-273,-181,0,0,0,0,0,0,0,0,0,-1,951,1205,0,0
-266,-181,0,0,0,0,0,0,0,0,0,-1,958,1205,0,0
-259,-181,0,0,0,0,0,0,0,0,0,-1,965,1205,0,0
-252,-181,0,0,0,0,0,0,0,0,0,-1,972,1205,0,0
-245,-181,0,0,0,0,0,0,0,0,0,-1,979,1205,0,0
-238,-181,0,0,0,0,0,0,0,0,0,-1,986,1205,0,0
-231,-181,0,0,0,0,0,0,0,0,0,-1,993,1205,0,0
-224,-181,0,0,0,0,0,0,0,0,0,-1,1000,1205,0,0
-217,-181,0,0,0,0,0,0,0,0,0,-1,1007,1205,0,0
-210,-181,0,0,0,0,0,0,0,0,0,-1,1014,1205,0,0
-203,-181,0,0,0,0,0,0,0,0,0,-1,1021,1205,0,0
-196,-181,0,0,0,0,0,0,0,0,0,-1,1028,1205,0,0
-189,-181,0,0,0,0,0,0,0,0,0,-1,1035,1205,0,0
-182,-181,0,0,0,0,0,0,0,0,0,-1,1042,1205,0,0
-175,-181,0,0,0,0,0,0,0,0,0,-1,1049,1205,0,0
-168,-181,0,0,0,0,0,0,0,0,0,-1,1056,1205,0,0
-161,-181,0,0,0,0,0,0,0,0,0,-1,1063,1205,0,0
-154,-181,0,0,0,0,0,0,0,0,0,-1,1070,1205,0,0
-147,-181,0,0,0,0,0,0,0,0,0,-1,1077,1205,0,0
-140,-181,0,0,0,0,0,0,0,0,0,-1,1084,1205,0,0
-133,-181,0,0,0,0,0,0,0,0,0,-1,1091,1205,0,0
-126,-181,0,0,0,0,0,0,0,0,0,-1,1098,1205,0,0
-119,-181,0,0,0,0,0,0,0,0,0,-1,1105,1205,0,0
-112,-181,0,0,0,0,0,0,0,0,0,-1,1112,1205,0,0
-105,-181,0,0,0,0,0,0,0,0,0,-1,1119,1205,0,0
-98,-181,0,0,0,0,0,0,0,0,0,-1,1126,1205,0,0
-91,-181,0,0,0,0,0,0,0,0,0,-1,1133,1205,0,0
-84,-181,0,0,0,0,0,0,0,0,0,-1,1140,1205,0,0
-77,-181,0,0,0,0,0,0,0,0,0,-1,1147,1205,0,0
-70,-181,0,0,0,0,0,0,0,0,0,-1,1154,1205,0,0
-63,-181,0,0,0,0,0,0,0,0,0,-1,1161,1205,0,0
-56,-181,0,0,0,0,0,0,0,0,0,-1,1168,1205,0,0
-49,-181,0,0,0,0,0,0,0,0,0,-1,1175,1205,0,0
-42,-181,0,0,0,0,0,0,0,0,0,-1,1182,1205,0,0
-35,-181,0,0,0,0,0,0,0,0,0,-1,1189,1205,0,0
-28,-181,0,0,0,0,0,0,0,0,0,-1,1196,1205,0,0
-21,-181,0,0,0,0,0,0,0,0,0,-1,1203,1205,0,0
-14,-181,0,0,0,0,0,0,0,0,0,-1,1210,1205,0,0
-7,-181,0,0,0,0,0,0,0,0,0,-1,1217,1205,0,0
0,-181,0,0,0,0,0,0,0,0,0,-1,1224,1205,0,0
7,-181,0,0,0,0,0,0,0,0,0,-1,1231,1205,0,0
14,-181,0,0,0,0,0,0,0,0,0,-1,1238,1205,0,0
21,-181,0,0,0,0,0,0,0,0,0,-1,1245,1205,0,0
28,-181,0,0,0,0,0,0,0,0,0,-1,1252,1205,0,0
35,-181,0,0,0,0,0,0,0,0,0,-1,1259,1205,0,0
42,-181,0,0,0,0,0,0,0,0,0,-1,1266,1205,0,0
49,-181,0,0,0,0,0,0,0,0,0,-1,1273,1205,0,0
56,-181,0,0,0,0,0,0,0,0,0,-1,1280,1205,0,0
63,-181,0,0,0,0,0,0,0,0,0,-1,1287,1205,0,0
70,-181,0,0,0,0,0,0,0,0,0,-1,1294,1205,0,0
77,-181,0,0,0,0,0,0,0,0,0,-1,1301,1205,0,0
84,-181,0,0,0,0,0,0,0,0,0,-1,1308,1205,0,0
91,-181,0,0,0,0,0,0,0,0,0,-1,1315,1205,0,0
98,-181,0,0,0,0,0,0,0,0,0,-1,1322,1205,0,0
105,-181,0,0,0,0,0,0,0,0,0,-1,1329,1205,0,0
112,-181,0,0,0,0,0,0,0,0,0,-1,1336,1205,0,0
119,-181,0,0,0,0,0,0,0,0,0,-1,1343,1205,0,0
126,-181,0,0,0,0,0,0,0,0,0,-1,1350,1205,0,0
133,-181,0,0,0,0,0,0,0,0,0,-1,1357,1205,0,0
140,-181,0,0,0,0,0,0,0,0,0,-1,1364,1205,0,0
147,-181,0,0,0,0,0,0,0,0,0,-1,1371,1205,0,0
154,-181,0,0,0,0,0,0,0,0,0,-1,1378,1205,0,0
161,-181,0,0,0,0,0,0,0,0,0,-1,1385,1205,0,0
168,-181,0,0,0,0,0,0,0,0,0,-1,1392,1205,0,0
175,-181,0,0,0,0,0,0,0,0,0,-1,1399,1205,0,0
182,-181,0,0,0,0,0,0,0,0,0,-1,1406,1205,0,0
189,-181,0,0,0,0,0,0,0,0,0,-1,1413,1205,0,0
196,-181,0,0,0,0,0,0,0,0,0,-1,1420,1205,0,0
203,-181,0,0,0,0,0,0,0,0,0,-1,1427,1205,0,0
210,-181,0,0,0,0,0,0,0,0,0,-1,1434,1205,0,0
217,-181,0,0,0,0,0,0,0,0,0,-1,1441,1205,0,0
224,-181,0,0,0,0,0,0,0,0,0,-1,1448,1205,0,0
231,-181,0,0,0,0,0,0,0,0,0,-1,1455,1205,0,0
238,-181,0,0,0,0,0,0,0,0,0,-1,1462,1205,0,0
245,-181,0,0,0,0,0,0,0,0,0,-1,1469,1205,0,0
252,-181,0,0,0,0,0,0,0,0,0,-1,1476,1205,0,0
259,-181,0,0,0,0,0,0,0,0,0,-1,1483,1205,0,0
266,-181,0,0,0,0,0,0,0,0,0,-1,1490,1205,0,0
273,-181,0,0,0,0,0,0,0,0,0,-1,1497,1205,0,0
280,-181,0,0,0,0,0,0,0,0,0,-1,1504,1205,0,0
287,-181,0,0,0,0,0,0,0,0,0,-1,1511,1205,0,0
294,-181,0,0,0,0,0,0,0,0,0,-1,1518,1205,0,0
301,-181,0,0,0,0,0,0,0,0,0,-1,1525,1205,0,0
308,-181,0,0,0,0,0,0,0,0,0,-1,1532,1205,0,0
315,-181,0,0,0,0,0,0,0,0,0,-1,1539,1205,0,0
322,-181,0,0,0,0,0,0,0,0,0,-1,1546,1205,0,0
329,-181,0,0,0,0,0,0,0,0,0,-1,1553,1205,0,0
336,-181,0,0,0,0,0,0,0,0,0,-1,1560,1205,0,0
343,-181,0,0,0,0,0,0,0,0,0,-1,1567,1205,0,0
350,-181,0,0,0,0,0,0,0,0,0,-1,1574,1205,0,0
357,-181,0,0,0,0,0,0,0,0,0,-1,1581,1205,0,0
364,-181,0,0,0,0,0,0,0,0,0,-1,1588,1205,0,0
371,-181,0,0,0,0,0,0,0,0,0,-1,1595,1205,0,0
378,-181,0,0,0,0,0,0,0,0,0,-1,1602,1205,0,0
385,-181,0,0,0,0,0,0,0,0,0,-1,1609,1205,0,0
392,-181,0,0,0,0,0,0,0,0,0,-1,1616,1205,0,0
399,-181,0,0,0,0,0,0,0,0,0,-1,1623,1205,0,0
406,-181,0,0,0,0,0,0,0,0,0,-1,1630,1205,0,0
413,-181,0,0,0,0,0,0,0,0,0,-1,1637,1205,0,0
420,-181,0,0,0,0,0,0,0,0,0,-1,1644,1205,0,0
427,-181,0,0,0,0,0,0,0,0,0,-1,1651,1205,0,0
434,-181,0,0,0,0,0,0,0,0,0,-1,1658,1205,0,0
441,-181,0,0,0,0,0,0,0,0,0,-1,1665,1205,0,0
448,-181,0,0,0,0,0,0,0,0,0,-1,1672,1205,0,0
455,-181,0,0,0,0,0,0,0,0,0,-1,1679,1205,0,0
462,-181,0,0,0,0,0,0,0,0,0,-1,1686,1205,0,0
469,-181,0,0,0,0,0,0,0,0,0,-1,1693,1205,0,0
476,-181,0,0,0,0,0,0,0,0,0,-1,1700,1205,0,0
483,-181,0,0,0,0,0,0,0,0,0,-1,1707,1205,0,0
490,-181,0,0,0,0,0,0,0,0,0,-1,1714,1205,0,0
497,-181,0,0,0,0,0,0,0,0,0,-1,1721,1205,0,0
504,-181,0,0,0,0,0,0,0,0,0,-1,1728,1205,0,0
511,-181,0,0,0,0,0,0,0,0,0,-1,1735,1205,0,0
518,-181,0,0,0,0,0,0,0,0,0,-1,1742,1205,0,0
525,-181,0,0,0,0,0,0,0,0,0,-1,1749,1205,0,0
532,-181,0,0,0,0,0,0,0,0,0,-1,1756,1205,0,0
539,-181,0,0,0,0,0,0,0,0,0,-1,1763,1205,0,0
546,-181,0,0,0,0,0,0,0,0,0,-1,1770,1205,0,0
553,-181,0,0,0,0,0,0,0,0,0,-1,1777,1205,0,0
560,-181,0,0,0,0,0,0,0,0,0,-1,1784,1205,0,0
567,-181,0,0,0,0,0,0,0,0,0,-1,1791,1205,0,0
574,-181,0,0,0,0,0,0,0,0,0,-1,1798,1205,0,0
581,-181,0,0,0,0,0,0,0,0,0,-1,1805,1205,0,0
588,-181,0,0,0,0,0,0,0,0,0,-1,1812,1205,0,0
595,-181,0,0,0,0,0,0,0,0,0,-1,1819,1205,0,0
602,-181,0,0,0,0,0,0,0,0,0,-1,1826,1205,0,0
609,-181,0,0,0,0,0,0,0,0,0,-1,1833,1205,0,0
616,-181,0,0,0,0,0,0,0,0,0,-1,1840,1205,0,0
623,-181,0,0,0,0,0,0,0,0,0,-1,1847,1205,0,0
630,-181,35.5511,2.63904,-0.0080012,0.0071178,0.00427309,0.00824192,-0.00912533,1.31355,0.0100313,0.0398009,1854,1205,35.5511,-2.63906
637,-181,35.5087,2.49768,-0.00539479,0.00539313,0.00356671,0.00646571,-0.00646738,1.27868,0.00746692,0.0380964,1861,1205,35.5087,-2.4977
644,-181,35.5411,2.36694,-0.002693,0.00368236,0.00254568,0.00457412,-0.00358476,1.23385,0.00472206,0.038282,1868,1205,35.5411,-2.36697
651,-181,35.6364,2.49548,-0.000128831,0.00214632,0.00140089,0.00281335,-0.000795855,1.12642,0.0021896,0.0378245,1875,1205,35.6363,-2.49554
658,-181,35.3971,2.62878,0.00182451,0.000927487,0.000328193,0.00193176,0.000820235,0.315856,0.00111952,0.0331289,1882,1205,35.3971,-2.62878
665,-181,35.4382,2.56592,0.00274471,0.000249092,-0.000312273,0.00278319,0.000210611,-0.12261,0.00178939,0.0322249,1889,1205,35.4383,-2.56591
672,-181,35.5111,2.52649,0.0026188,-0.000260529,-0.000426318,0.0026806,-0.000322324,-0.143948,0.00190362,0.0260235,1896,1205,35.5111,-2.52651
679,-181,35.6077,2.54761,0.00171244,-0.000524894,-0.00020023,0.00173022,-0.000542672,-0.0885571,0.00137066,0.0330789,1903,1205,35.6076,-2.54762
686,-181,35.7137,2.5824,0,0,0,0,0,0,0,-1,1910,1205,35.7137,-2.58238
693,-181,35.2159,2.54272,0,0,0,0,0,0,0,-1,1917,1205,35.2159,-2.54272
700,-181,29.5845,6.58398,0,0,0,0,0,0,0,-1,1924,1205,29.5844,-6.58395
707,-181,30.9471,6.46753,0,0,0,0,0,0,0,-1,1931,1205,30.9471,-6.46748
714,-181,30.9568,6.14185,-0.00116406,-0.00102451,0.000589767,-0.00050041,-0.00168817,0.844279,0.00100123,0.0382689,1938,1205,30.9567,-6.14184
721,-181,30.7936,5.88245,-0.00219766,-0.000857632,0.00108931,-0.000248773,-0.00280652,1.06112,0.00179385,0.0301212,1945,1205,30.7935,-5.8825
728,-181,30.4684,5.73291,-0.00255598,-0.000736616,0.00159544,0.000190264,-0.00348286,1.0445,0.00238786,0.0149578,1952,1205,30.4684,-5.73291
735,-181,30.4777,5.45947,-0.00242324,0.000129393,0.00199508,0.00122148,-0.00351533,1.06996,0.00283968,0.0116275,1959,1205,30.4777,-5.45945
742,-181,30.4424,5.18933,-0.0012586,0.00162648,0.00171896,0.00242799,-0.00206011,1.13449,0.00259411,0.0173941,1966,1205,30.4424,-5.18938
749,-181,30.4165,4.87292,0.000480255,0.00371681,0.00122034,0.00412537,7.16972e-05,1.24774,0.00272666,0.0155965,1973,1205,30.4165,-4.87293
756,-181,30.4268,4.58594,0.00249107,0.00675306,0.000323676,0.0067775,0.00246663,1.49543,0.00396099,0.0112457,1980,1205,30.4267,-4.5859
763,-181,30.453,4.31836,0.00492118,0.010834,-0.000740202,0.0109252,0.00482992,-1.44813,0.00632177,0.0123571,1987,1205,30.453,-4.31841
770,-181,30.505,3.92908,0.00742462,0.0165307,-0.00220493,0.0170365,0.00691882,-1.3453,0.00989367,0.0299363,1994,1205,30.505,-3.92904
777,-181,30.8918,3.31128,0,0,0,0,0,0,0,-1,2001,1205,30.8918,-3.31132
784,-181,28.9574,1.25378,0,0,0,0,0,0,0,-1,2008,1205,28.9574,-1.25381
791,-181,32.0007,3.28223,0,0,0,0,0,0,0,-1,2015,1205,32.0007,-3.28223
798,-181,31.3245,3.474,0,0,0,0,0,0,0,-1,2022,1205,31.3245,-3.47394
805,-181,0,0,0,0,0,0,0,0,0,-1,2029,1205,0,0
812,-181,0,0,0,0,0,0,0,0,0,-1,2036,1205,0,0
-700,-188,0,0,0,0,0,0,0,0,0,-1,524,1212,0,0
-693,-188,0,0,0,0,0,0,0,0,0,-1,531,1212,0,0
-686,-188,0,0,0,0,0,0,0,0,0,-1,538,1212,0,0
-679,-188,-18.376,-0.37561,-0.00717966,0.00153788,-0.0305025,0.0279915,-0.0336333,-0.856367,0.0356287,0.047547,545,1212,-18.376,0.375614
-672,-188,-18.8986,-0.243652,-0.00051606,0.00216417,-0.0279931,0.0288492,-0.0272011,-0.809316,0.0323653,0.0486266,552,1212,-18.8986,0.243594
-665,-188,-19.1461,-0.321411,0,0,0,0,0,0,0,-1,559,1212,-19.1461,0.321435
-658,-188,-19.4696,-0.0462646,0,0,0,0,0,0,0,-1,566,1212,-19.4696,0.046274
-651,-188,-19.6173,0.357178,0.00597391,0.00358676,-0.0167029,0.0215259,-0.0119652,-0.749729,0.0195969,0.045768,573,1212,-19.6173,-0.35723
-644,-188,-19.6611,1.02246,0.00547118,0.00367953,-0.0129623,0.0175686,-0.00841786,-0.750898,0.0153102,0.041827,580,1212,-19.6611,-1.02245
-637,-188,-19.7606,1.3396,0.00443524,0.00352983,-0.00967259,0.0136657,-0.00570064,-0.762014,0.0114921,0.0216602,587,1212,-19.7606,-1.3396
-630,-188,-19.8117,1.64954,0.00336423,0.00300342,-0.00705361,0.0102397,-0.00387209,-0.772613,0.00841941,0.0103252,594,1212,-19.8117,-1.64955
-623,-188,-19.8071,1.97058,0.00253591,0.00241471,-0.0050782,0.00755387,-0.00260326,-0.779432,0.00609198,0.0114142,601,1212,-19.8071,-1.97055
-616,-188,-19.7998,2.30884,0.00157421,0.00185402,-0.00330061,0.00501769,-0.00158946,-0.80658,0.00398212,0.0113163,608,1212,-19.7998,-2.30886
-609,-188,-19.8033,2.65479,-0.000320292,0.00124466,-0.00234872,0.00293782,-0.00201345,-0.946191,0.00287517,0.0135444,615,1212,-19.8033,-2.65475
-602,-188,-19.8181,2.99731,-0.00151064,0.000480217,-0.00186661,0.00160023,-0.00263066,-1.03036,0.00246674,0.0157652,622,1212,-19.8181,-2.99735
-595,-188,-19.8471,3.29553,-0.00198229,-0.000156945,-0.00193295,0.00106796,-0.0032072,-1.00596,0.0025692,0.0131759,629,1212,-19.8471,-3.29554
-588,-188,-19.9205,3.59705,-0.00131648,-0.000928483,-0.00220836,0.00109438,-0.00333934,-0.829209,0.00266695,0.0170809,636,1212,-19.9206,-3.59699
-581,-188,-19.9703,3.90955,-0.000149732,-0.0013822,-0.00233009,0.00164423,-0.00317617,-0.656123,0.00282952,0.0192088,643,1212,-19.9703,-3.9096
-574,-188,-20.2742,4.19006,0,0,0,0,0,0,0,-1,650,1212,-20.2743,-4.19001
-567,-188,-19.5786,4.10388,0,0,0,0,0,0,0,-1,657,1212,-19.5785,-4.10383
-560,-188,-23.9507,0.416626,0,0,0,0,0,0,0,-1,664,1212,-23.9508,-0.416602
-553,-188,-25.434,0.504028,0,0,0,0,0,0,0,-1,671,1212,-25.4339,-0.504056
-546,-188,-25.5157,0.702515,0.0024339,-0.00169737,-0.00198645,0.00323407,-0.00249754,-0.38293,0.00331825,0.0418695,678,1212,-25.5158,-0.702529
-539,-188,-25.5437,0.680786,0.00306353,-0.0015555,-0.00187239,0.00372718,-0.00221915,-0.340624,0.00346972,0.0357422,685,1212,-25.5437,-0.680762
-532,-188,-25.4738,0.716675,0.00324832,-0.00105747,-0.00176124,0.00387696,-0.00168611,-0.342835,0.00329382,0.0385264,692,1212,-25.4738,-0.716722
-525,-188,-25.4425,0.777222,0.00318223,9.97977e-05,-0.00152499,0.00380918,-0.000527151,-0.390053,0.00273218,0.0407152,699,1212,-25.4425,-0.777187
-518,-188,-25.4115,0.941162,0.00160894,0.00194412,-0.00143538,0.00322166,0.0003314,-0.843514,0.00204627,0.0440628,706,1212,-25.4115,-0.941141
-511,-188,-25.4744,1,0.000496839,0.00536078,-0.000328934,0.00538292,0.000474696,-1.50358,0.00344131,0.0386983,713,1212,-25.4744,-1.00005
-504,-188,0,0,0,0,0,0,0,0,0,-1,720,1212,0,0
-497,-188,0,0,0,0,0,0,0,0,0,-1,727,1212,0,0
-490,-188,0,0,0,0,0,0,0,0,0,-1,734,1212,0,0
-483,-188,0,0,0,0,0,0,0,0,0,-1,741,1212,0,0
-476,-188,0,0,0,0,0,0,0,0,0,-1,748,1212,0,0
-469,-188,0,0,0,0,0,0,0,0,0,-1,755,1212,0,0
-462,-188,0,0,0,0,0,0,0,0,0,-1,762,1212,0,0
-455,-188,0,0,0,0,0,0,0,0,0,-1,769,1212,0,0
-448,-188,0,0,0,0,0,0,0,0,0,-1,776,1212,0,0
-441,-188,0,0,0,0,0,0,0,0,0,-1,783,1212,0,0
-434,-188,0,0,0,0,0,0,0,0,0,-1,790,1212,0,0
-427,-188,0,0,0,0,0,0,0,0,0,-1,797,1212,0,0
-420,-188,0,0,0,0,0,0,0,0,0,-1,804,1212,0,0
-413,-188,0,0,0,0,0,0,0,0,0,-1,811,1212,0,0
-406,-188,0,0,0,0,0,0,0,0,0,-1,818,1212,0,0
-399,-188,0,0,0,0,0,0,0,0,0,-1,825,1212,0,0
-392,-188,0,0,0,0,0,0,0,0,0,-1,832,1212,0,0
-385,-188,0,0,0,0,0,0,0,0,0,-1,839,1212,0,0
-378,-188,0,0,0,0,0,0,0,0,0,-1,846,1212,0,0
-371,-188,0,0,0,0,0,0,0,0,0,-1,853,1212,0,0
-364,-188,0,0,0,0,0,0,0,0,0,-1,860,1212,0,0
-357,-188,0,0,0,0,0,0,0,0,0,-1,867,1212,0,0
-350,-188,0,0,0,0,0,0,0,0,0,-1,874,1212,0,0
-343,-188,0,0,0,0,0,0,0,0,0,-1,881,1212,0,0
-336,-188,0,0,0,0,0,0,0,0,0,-1,888,1212,0,0
-329,-188,0,0,0,0,0,0,0,0,0,-1,895,1212,0,0
-322,-188,0,0,0,0,0,0,0,0,0,-1,902,1212,0,0
-315,-188,0,0,0,0,0,0,0,0,0,-1,909,1212,0,0
-308,-188,0,0,0,0,0,0,0,0,0,-1,916,1212,0,0
-301,-188,0,0,0,0,0,0,0,0,0,-1,923,1212,0,0
-294,-188,0,0,0,0,0,0,0,0,0,-1,930,1212,0,0
-287,-188,0,0,0,0,0,0,0,0,0,-1,937,1212,0,0
-280,-188,0,0,0,0,0,0,0,0,0,-1,944,1212,0,0
-273,-188,0,0,0,0,0,0,0,0,0,-1,951,1212,0,0
-266,-188,0,0,0,0,0,0,0,0,0,-1,958,1212,0,0
-259,-188,0,0,0,0,0,0,0,0,0,-1,965,1212,0,0
-252,-188,0,0,0,0,0,0,0,0,0,-1,972,1212,0,0
-245,-188,0,0,0,0,0,0,0,0,0,-1,979,1212,0,0
-238,-188,0,0,0,0,0,0,0,0,0,-1,986,1212,0,0
-231,-188,0,0,0,0,0,0,0,0,0,-1,993,1212,0,0
-224,-188,0,0,0,0,0,0,0,0,0,-1,1000,1212,0,0
-217,-188,0,0,0,0,0,0,0,0,0,-1,1007,1212,0,0
-210,-188,0,0,0,0,0,0,0,0,0,-1,1014,1212,0,0
-203,-188,0,0,0,0,0,0,0,0,0,-1,1021,1212,0,0
-196,-188,0,0,0,0,0,0,0,0,0,-1,1028,1212,0,0
-189,-188,0,0,0,0,0,0,0,0,0,-1,1035,1212,0,0
-182,-188,0,0,0,0,0,0,0,0,0,-1,1042,1212,0,0
-175,-188,0,0,0,0,0,0,0,0,0,-1,1049,1212,0,0
-168,-188,0,0,0,0,0,0,0,0,0,-1,1056,1212,0,0
-161,-188,0,0,0,0,0,0,0,0,0,-1,1063,1212,0,0
-154,-188,0,0,0,0,0,0,0,0,0,-1,1070,1212,0,0
-147,-188,0,0,0,0,0,0,0,0,0,-1,1077,1212,0,0
-140,-188,0,0,0,0,0,0,0,0,0,-1,1084,1212,0,0
-133,-188,0,0,0,0,0,0,0,0,0,-1,1091,1212,0,0
-126,-188,0,0,0,0,0,0,0,0,0,-1,1098,1212,0,0
-119,-188,0,0,0,0,0,0,0,0,0,-1,1105,1212,0,0
-112,-188,0,0,0,0,0,0,0,0,0,-1,1112,1212,0,0
-105,-188,0,0,0,0,0,0,0,0,0,-1,1119,1212,0,0
-98,-188,0,0,0,0,0,0,0,0,0,-1,1126,1212,0,0
-91,-188,0,0,0,0,0,0,0,0,0,-1,1133,1212,0,0
-84,-188,0,0,0,0,0,0,0,0,0,-1,1140,1212,0,0
-77,-188,0,0,0,0,0,0,0,0,0,-1,1147,1212,0,0
-70,-188,0,0,0,0,0,0,0,0,0,-1,1154,1212,0,0
-63,-188,0,0,0,0,0,0,0,0,0,-1,1161,1212,0,0
-56,-188,0,0,0,0,0,0,0,0,0,-1,1168,1212,0,0
-49,-188,0,0,0,0,0,0,0,0,0,-1,1175,1212,0,0
-42,-188,0,0,0,0,0,0,0,0,0,-1,1182,1212,0,0
-35,-188,0,0,0,0,0,0,0,0,0,-1,1189,1212,0,0
-28,-188,0,0,0,0,0,0,0,0,0,-1,1196,1212,0,0
-21,-188,0,0,0,0,0,0,0,0,0,-1,1203,1212,0,0
-14,-188,0,0,0,0,0,0,0,0,0,-1,1210,1212,0,0
-7,-188,0,0,0,0,0,0,0,0,0,-1,1217,1212,0,0
0,-188,0,0,0,0,0,0,0,0,0,-1,1224,1212,0,0
7,-188,0,0,0,0,0,0,0,0,0,-1,1231,1212,0,0
14,-188,0,0,0,0,0,0,0,0,0,-1,1238,1212,0,0
21,-188,0,0,0,0,0,0,0,0,0,-1,1245,1212,0,0
28,-188,0,0,0,0,0,0,0,0,0,-1,1252,1212,0,0
35,-188,0,0,0,0,0,0,0,0,0,-1,1259,1212,0,0
42,-188,0,0,0,0,0,0,0,0,0,-1,1266,1212,0,0
49,-188,0,0,0,0,0,0,0,0,0,-1,1273,1212,0,0
56,-188,0,0,0,0,0,0,0,0,0,-1,1280,1212,0,0
63,-188,0,0,0,0,0,0,0,0,0,-1,1287,1212,0,0
70,-188,0,0,0,0,0,0,0,0,0,-1,1294,1212,0,0
77,-188,0,0,0,0,0,0,0,0,0,-1,1301,1212,0,0
84,-188,0,0,0,0,0,0,0,0,0,-1,1308,1212,0,0
91,-188,0,0,0,0,0,0,0,0,0,-1,1315,1212,0,0
98,-188,0,0,0,0,0,0,0,0,0,-1,1322,1212,0,0
105,-188,0,0,0,0,0,0,0,0,0,-1,1329,1212,0,0
112,-188,0,0,0,0,0,0,0,0,0,-1,1336,1212,0,0
119,-188,0,0,0,0,0,0,0,0,0,-1,1343,1212,0,0
126,-188,0,0,0,0,0,0,0,0,0,-1,1350,1212,0,0
133,-188,0,0,0,0,0,0,0,0,0,-1,1357,1212,0,0
140,-188,0,0,0,0,0,0,0,0,0,-1,1364,1212,0,0
147,-188,0,0,0,0,0,0,0,0,0,-1,1371,1212,0,0
154,-188,0,0,0,0,0,0,0,0,0,-1,1378,1212,0,0
161,-188,0,0,0,0,0,0,0,0,0,-1,1385,1212,0,0
168,-188,0,0,0,0,0,0,0,0,0,-1,1392,1212,0,0
175,-188,0,0,0,0,0,0,0,0,0,-1,1399,1212,0,0
182,-188,0,0,0,0,0,0,0,0,0,-1,1406,1212,0,0
189,-188,0,0,0,0,0,0,0,0,0,-1,1413,1212,0,0
196,-188,0,0,0,0,0,0,0,0,0,-1,1420,1212,0,0
203,-188,0,0,0,0,0,0,0,0,0,-1,1427,1212,0,0
210,-188,0,0,0,0,0,0,0,0,0,-1,1434,1212,0,0
217,-188,0,0,0,0,0,0,0,0,0,-1,1441,1212,0,0
224,-188,0,0,0,0,0,0,0,0,0,-1,1448,1212,0,0
231,-188,0,0,0,0,0,0,0,0,0,-1,1455,1212,0,0
238,-188,0,0,0,0,0,0,0,0,0,-1,1462,1212,0,0
245,-188,0,0,0,0,0,0,0,0,0,-1,1469,1212,0,0
252,-188,0,0,0,0,0,0,0,0,0,-1,1476,1212,0,0
259,-188,0,0,0,0,0,0,0,0,0,-1,1483,1212,0,0
266,-188,0,0,0,0,0,0,0,0,0,-1,1490,1212,0,0
273,-188,0,0,0,0,0,0,0,0,0,-1,1497,1212,0,0
280,-188,0,0,0,0,0,0,0,0,0,-1,1504,1212,0,0
287,-188,0,0,0,0,0,0,0,0,0,-1,1511,1212,0,0
294,-188,0,0,0,0,0,0,0,0,0,-1,1518,1212,0,0
301,-188,0,0,0,0,0,0,0,0,0,-1,1525,1212,0,0
308,-188,0,0,0,0,0,0,0,0,0,-1,1532,1212,0,0
315,-188,0,0,0,0,0,0,0,0,0,-1,1539,1212,0,0
322,-188,0,0,0,0,0,0,0,0,0,-1,1546,1212,0,0
329,-188,0,0,0,0,0,0,0,0,0,-1,1553,1212,0,0
336,-188,0,0,0,0,0,0,0,0,0,-1,1560,1212,0,0
343,-188,0,0,0,0,0,0,0,0,0,-1,1567,1212,0,0
350,-188,0,0,0,0,0,0,0,0,0,-1,1574,1212,0,0
357,-188,0,0,0,0,0,0,0,0,0,-1,1581,1212,0,0
364,-188,0,0,0,0,0,0,0,0,0,-1,1588,1212,0,0
371,-188,0,0,0,0,0,0,0,0,0,-1,1595,1212,0,0
378,-188,0,0,0,0,0,0,0,0,0,-1,1602,1212,0,0
385,-188,0,0,0,0,0,0,0,0,0,-1,1609,1212,0,0
392,-188,0,0,0,0,0,0,0,0,0,-1,1616,1212,0,0
399,-188,0,0,0,0,0,0,0,0,0,-1,1623,1212,0,0
406,-188,0,0,0,0,0,0,0,0,0,-1,1630,1212,0,0
413,-188,0,0,0,0,0,0,0,0,0,-1,1637,1212,0,0
420,-188,0,0,0,0,0,0,0,0,0,-1,1644,1212,0,0
427,-188,0,0,0,0,0,0,0,0,0,-1,1651,1212,0,0
434,-188,0,0,0,0,0,0,0,0,0,-1,1658,1212,0,0
441,-188,0,0,0,0,0,0,0,0,0,-1,1665,1212,0,0
448,-188,0,0,0,0,0,0,0,0,0,-1,1672,1212,0,0
455,-188,0,0,0,0,0,0,0,0,0,-1,1679,1212,0,0
462,-188,0,0,0,0,0,0,0,0,0,-1,1686,1212,0,0
469,-188,0,0,0,0,0,0,0,0,0,-1,1693,1212,0,0
476,-188,0,0,0,0,0,0,0,0,0,-1,1700,1212,0,0
483,-188,0,0,0,0,0,0,0,0,0,-1,1707,1212,0,0
490,-188,0,0,0,0,0,0,0,0,0,-1,1714,1212,0,0
497,-188,0,0,0,0,0,0,0,0,0,-1,1721,1212,0,0
504,-188,0,0,0,0,0,0,0,0,0,-1,1728,1212,0,0
511,-188,0,0,0,0,0,0,0,0,0,-1,1735,1212,0,0
518,-188,0,0,0,0,0,0,0,0,0,-1,1742,1212,0,0
525,-188,0,0,0,0,0,0,0,0,0,-1,1749,1212,0,0
532,-188,0,0,0,0,0,0,0,0,0,-1,1756,1212,0,0
539,-188,0,0,0,0,0,0,0,0,0,-1,1763,1212,0,0
546,-188,0,0,0,0,0,0,0,0,0,-1,1770,1212,0,0
553,-188,0,0,0,0,0,0,0,0,0,-1,1777,1212,0,0
560,-188,0,0,0,0,0,0,0,0,0,-1,1784,1212,0,0
567,-188,0,0,0,0,0,0,0,0,0,-1,1791,1212,0,0
574,-188,0,0,0,0,0,0,0,0,0,-1,1798,1212,0,0
581,-188,0,0,0,0,0,0,0,0,0,-1,1805,1212,0,0
588,-188,0,0,0,0,0,0,0,0,0,-1,1812,1212,0,0
595,-188,0,0,0,0,0,0,0,0,0,-1,1819,1212,0,0
602,-188,0,0,0,0,0,0,0,0,0,-1,1826,1212,0,0
609,-188,0,0,0,0,0,0,0,0,0,-1,1833,1212,0,0
616,-188,0,0,0,0,0,0,0,0,0,-1,1840,1212,0,0
623,-188,0,0,0,0,0,0,0,0,0,-1,1847,1212,0,0
630,-188,35.5576,2.43018,-0.00676998,0.00586917,0.00411677,0.0070918,-0.00799261,1.28211,0.00871416,0.040805,1854,1212,35.5577,-2.43022
637,-188,35.4297,2.43738,-0.00429806,0.00424524,0.003445,0.0054613,-0.00551412,1.23146,0.00633669,0.0400438,1861,1212,35.4297,-2.43736
644,-188,35.3481,2.42725,-0.00163079,0.00255931,0.00241757,0.0036633,-0.00273478,1.14242,0.00370688,0.0350306,1868,1212,35.3481,-2.42725
651,-188,35.4449,2.48987,0.000848993,0.00107082,0.00130998,0.00227458,-0.000354763,0.827632,0.00164742,0.0285836,1875,1212,35.445,-2.48983
658,-188,35.5122,2.53809,0.00261586,-7.3301e-05,0.000374186,0.00266695,-0.000124397,0.135712,0.00182085,0.02771,1882,1212,35.5122,-2.53804
665,-188,35.4764,2.5708,0.00336932,-0.000666146,-0.000126254,0.00337327,-0.000670092,-0.0312453,0.0025023,0.0297306,1889,1212,35.4765,-2.57078
672,-188,35.5271,2.56812,0.00319671,-0.00111583,-0.000170313,0.00320342,-0.00112255,-0.0394106,0.00259213,0.0267754,1896,1212,35.5272,-2.5681
679,-188,35.7047,2.71533,0,0,0,0,0,0,0,-1,1903,1212,35.7047,-2.71532
686,-188,35.146,2.62573,0,0,0,0,0,0,0,-1,1910,1212,35.146,-2.62577
693,-188,34.6394,2.09143,0,0,0,0,0,0,0,-1,1917,1212,34.6393,-2.09146
700,-188,30.7421,6.74353,0,0,0,0,0,0,0,-1,1924,1212,30.7421,-6.74357
707,-188,30.4391,6.4978,0.00027907,-0.00165281,0.00039334,0.000356085,-0.00172982,0.193353,0.00128842,0.0283499,1931,1212,30.4391,-6.49777
714,-188,30.4487,6.28455,-0.000739599,-0.0015681,0.00065518,-0.000378695,-0.001929,0.503493,0.0011802,0.0249174,1938,1212,30.4487,-6.28452
721,-188,30.2975,6.02673,-0.00196328,-0.00124624,0.00114915,-0.000400979,-0.00280854,0.936606,0.00175405,0.0214468,1945,1212,30.2975,-6.0267
728,-188,30.1749,5.73901,-0.00229521,-0.00102875,0.00160245,6.10478e-05,-0.00338501,0.973563,0.00227729,0.0106905,1952,1212,30.1749,-5.73899
735,-188,30.1583,5.46069,-0.00201328,-4.50055e-05,0.00192701,0.00113462,-0.00319291,1.02149,0.00259099,0.0133856,1959,1212,30.1584,-5.46071
742,-188,30.1312,5.17102,-0.000758905,0.00140101,0.00163898,0.00228385,-0.00164174,1.07671,0.00227652,0.0154511,1966,1212,30.1313,-5.17108
749,-188,30.12,4.88269,0.00109525,0.00322149,0.00122073,0.00377714,0.000539609,1.14365,0.00235889,0.0148071,1973,1212,30.12,-4.88268
756,-188,30.1163,4.57239,0.00339415,0.00580072,0.000526962,0.00591104,0.00328382,1.36441,0.00341975,0.0132005,1980,1212,30.1164,-4.57243
763,-188,30.1533,4.2876,0.00628869,0.00933535,-0.000322464,0.00936911,0.00625494,-1.46649,0.00550964,0.0150375,1987,1212,30.1534,-4.2876
770,-188,30.1805,3.97766,0.0096469,0.014537,-0.00150245,0.0149618,0.00922217,-1.2953,0.00871583,0.0265174,1994,1212,30.1806,-3.97767
777,-188,30.2377,3.62988,0,0,0,0,0,0,0,-1,2001,1212,30.2377,-3.62991
784,-188,31.6635,2.94006,0,0,0,0,0,0,0,-1,2008,1212,31.6634,-2.94008
791,-188,32.6324,2.58765,0,0,0,0,0,0,0,-1,2015,1212,32.6325,-2.58764
798,-188,32.2839,3.13867,0,0,0,0,0,0,0,-1,2022,1212,32.284,-3.13868
805,-188,0,0,0,0,0,0,0,0,0,-1,2029,1212,0,0
812,-188,0,0,0,0,0,0,0,0,0,-1,2036,1212,0,0
-700,-195,0,0,0,0,0,0,0,0,0,-1,524,1219,0,0
-693,-195,0,0,0,0,0,0,0,0,0,-1,531,1219,0,0
-686,-195,0,0,0,0,0,0,0,0,0,-1,538,1219,0,0
-679,-195,-18.2896,-0.481201,0,0,0,0,0,0,0,-1,545,1219,-18.2895,0.481224
-672,-195,-18.787,-0.433472,0,0,0,0,0,0,0,-1,552,1219,-18.7871,0.433448
-665,-195,-20.0489,1.58984,0.0136389,0.00220225,-0.0282412,0.0367349,-0.0208937,-0.685508,0.0336883,0.0466033,559,1219,-20.0489,-1.5898
-658,-195,-19.4126,1.10425,0.0130421,0.00292838,-0.0235043,0.0320274,-0.0160569,-0.679441,0.0282673,0.0441386,566,1219,-19.4126,-1.10422
-651,-195,-19.2437,0.956421,0.0114427,0.00341446,-0.0188061,0.0266582,-0.0118011,-0.680252,0.0227501,0.0429254,573,1219,-19.2437,-0.956405
-644,-195,-19.2459,1.0625,0.00924694,0.00364588,-0.0144422,0.0211576,-0.0082648,-0.68963,0.0175222,0.0399427,580,1219,-19.2459,-1.06245
-637,-195,-19.3568,1.34766,0.00692897,0.00360511,-0.010662,0.0160578,-0.00552372,-0.708083,0.0129454,0.0215451,587,1219,-19.3567,-1.34768
-630,-195,-19.4708,1.6554,0.00492227,0.0031728,-0.00768445,0.0117816,-0.00368654,-0.728726,0.00932929,0.00834864,594,1219,-19.4708,-1.65536
-623,-195,-19.4766,1.97729,0.00350169,0.00262903,-0.00544624,0.00852905,-0.00239834,-0.745426,0.00663165,0.00854223,601,1219,-19.4766,-1.97734
-616,-195,-19.4683,2.32129,0.00209447,0.00210097,-0.003425,0.00552273,-0.00132728,-0.785873,0.00419483,0.0103169,608,1219,-19.4683,-2.32134
-609,-195,-19.4662,2.68701,-0.000100277,0.00146604,-0.0022074,0.00302509,-0.00165933,-0.955865,0.0027426,0.0185044,615,1219,-19.4663,-2.68696
-602,-195,-19.4897,2.96631,-0.00133818,0.000546465,-0.00155054,0.00141857,-0.00221029,-1.05844,0.00211168,0.0218514,622,1219,-19.4898,-2.96636
-595,-195,-19.5211,3.31055,-0.00155263,-0.000216458,-0.00159938,0.000848765,-0.00261786,-0.98324,0.00208652,0.0164444,629,1219,-19.5211,-3.31059
-588,-195,-19.5234,3.63098,-0.000771297,-0.00114696,-0.00188035,0.000930581,-0.00284884,-0.735617,0.00227381,0.0144695,636,1219,-19.5234,-3.63098
-581,-195,-19.605,3.85864,0.000438173,-0.00169285,-0.00201484,0.00165189,-0.00290657,-0.542175,0.00266486,0.0228954,643,1219,-19.605,-3.85865
-574,-195,-19.9749,3.73743,0.00122211,-0.00199771,-0.00185505,0.00206842,-0.00284402,-0.428015,0.00284796,0.0491614,650,1219,-19.9748,-3.73738
-567,-195,-20.3246,3.58032,0,0,0,0,0,0,0,-1,657,1219,-20.3246,-3.58036
-560,-195,-20.878,2.10388,0,0,0,0,0,0,0,-1,664,1219,-20.878,-2.10385
-553,-195,-25.0575,0.620605,0,0,0,0,0,0,0,-1,671,1219,-25.0575,-0.620592
-546,-195,-25.7256,1.08887,0,0,0,0,0,0,0,-1,678,1219,-25.7256,-1.08891
-539,-195,-25.5795,0.841675,0.00333959,-0.00253901,-0.00200866,0.00396037,-0.00315979,-0.299742,0.00411948,0.0398213,685,1219,-25.5795,-0.841648
-532,-195,-25.5376,0.642456,0.00324168,-0.00241416,-0.00210283,0.00393782,-0.0031103,-0.319695,0.00407858,0.0330686,692,1219,-25.5376,-0.642407
-525,-195,-25.4553,0.606689,0.00277931,-0.001929,-0.00214296,0.0036086,-0.00275829,-0.369235,0.00368684,0.0384428,699,1219,-25.4553,-0.606678
-518,-195,-25.4455,0.667114,0.000791618,-0.00091913,-0.00224888,0.00234231,-0.00246982,-0.603669,0.00277861,0.0428946,706,1219,-25.4455,-0.667059
-511,-195,-25.4936,0.682739,-0.00116283,0.00165268,-0.001291,0.00215501,-0.00166517,-1.19972,0.00221162,0.0428561,713,1219,-25.4936,-0.68278
-504,-195,0,0,0,0,0,0,0,0,0,-1,720,1219,0,0
-497,-195,0,0,0,0,0,0,0,0,0,-1,727,1219,0,0
-490,-195,0,0,0,0,0,0,0,0,0,-1,734,1219,0,0
-483,-195,0,0,0,0,0,0,0,0,0,-1,741,1219,0,0
-476,-195,0,0,0,0,0,0,0,0,0,-1,748,1219,0,0
-469,-195,0,0,0,0,0,0,0,0,0,-1,755,1219,0,0
-462,-195,0,0,0,0,0,0,0,0,0,-1,762,1219,0,0
-455,-195,0,0,0,0,0,0,0,0,0,-1,769,1219,0,0
-448,-195,0,0,0,0,0,0,0,0,0,-1,776,1219,0,0
-441,-195,0,0,0,0,0,0,0,0,0,-1,783,1219,0,0
-434,-195,0,0,0,0,0,0,0,0,0,-1,790,1219,0,0
-427,-195,0,0,0,0,0,0,0,0,0,-1,797,1219,0,0
-420,-195,0,0,0,0,0,0,0,0,0,-1,804,1219,0,0
-413,-195,0,0,0,0,0,0,0,0,0,-1,811,1219,0,0
-406,-195,0,0,0,0,0,0,0,0,0,-1,818,1219,0,0
-399,-195,0,0,0,0,0,0,0,0,0,-1,825,1219,0,0
-392,-195,0,0,0,0,0,0,0,0,0,-1,832,1219,0,0
-385,-195,0,0,0,0,0,0,0,0,0,-1,839,1219,0,0
-378,-195,0,0,0,0,0,0,0,0,0,-1,846,1219,0,0
-371,-195,0,0,0,0,0,0,0,0,0,-1,853,1219,0,0
-364,-195,0,0,0,0,0,0,0,0,0,-1,860,1219,0,0
-357,-195,0,0,0,0,0,0,0,0,0,-1,867,1219,0,0
-350,-195,0,0,0,0,0,0,0,0,0,-1,874,1219,0,0
-343,-195,0,0,0,0,0,0,0,0,0,-1,881,1219,0,0
-336,-195,0,0,0,0,0,0,0,0,0,-1,888,1219,0,0
-329,-195,0,0,0,0,0,0,0,0,0,-1,895,1219,0,0
-322,-195,0,0,0,0,0,0,0,0,0,-1,902,1219,0,0
-315,-195,0,0,0,0,0,0,0,0,0,-1,909,1219,0,0
-308,-195,0,0,0,0,0,0,0,0,0,-1,916,1219,0,0
-301,-195,0,0,0,0,0,0,0,0,0,-1,923,1219,0,0
-294,-195,0,0,0,0,0,0,0,0,0,-1,930,1219,0,0
-287,-195,0,0,0,0,0,0,0,0,0,-1,937,1219,0,0
-280,-195,0,0,0,0,0,0,0,0,0,-1,944,1219,0,0
-273,-195,0,0,0,0,0,0,0,0,0,-1,951,1219,0,0
-266,-195,0,0,0,0,0,0,0,0,0,-1,958,1219,0,0
-259,-195,0,0,0,0,0,0,0,0,0,-1,965,1219,0,0
-252,-195,0,0,0,0,0,0,0,0,0,-1,972,1219,0,0
-245,-195,0,0,0,0,0,0,0,0,0,-1,979,1219,0,0
-238,-195,0,0,0,0,0,0,0,0,0,-1,986,1219,0,0
-231,-195,0,0,0,0,0,0,0,0,0,-1,993,1219,0,0
-224,-195,0,0,0,0,0,0,0,0,0,-1,1000,1219,0,0
-217,-195,0,0,0,0,0,0,0,0,0,-1,1007,1219,0,0
-210,-195,0,0,0,0,0,0,0,0,0,-1,1014,1219,0,0
-203,-195,0,0,0,0,0,0,0,0,0,-1,1021,1219,0,0
-196,-195,0,0,0,0,0,0,0,0,0,-1,1028,1219,0,0
-189,-195,0,0,0,0,0,0,0,0,0,-1,1035,1219,0,0
-182,-195,0,0,0,0,0,0,0,0,0,-1,1042,1219,0,0
-175,-195,0,0,0,0,0,0,0,0,0,-1,1049,1219,0,0
-168,-195,0,0,0,0,0,0,0,0,0,-1,1056,1219,0,0
-161,-195,0,0,0,0,0,0,0,0,0,-1,1063,1219,0,0
-154,-195,0,0,0,0,0,0,0,0,0,-1,1070,1219,0,0
-147,-195,0,0,0,0,0,0,0,0,0,-1,1077,1219,0,0
-140,-195,0,0,0,0,0,0,0,0,0,-1,1084,1219,0,0
-133,-195,0,0,0,0,0,0,0,0,0,-1,1091,1219,0,0
-126,-195,0,0,0,0,0,0,0,0,0,-1,1098,1219,0,0
-119,-195,0,0,0,0,0,0,0,0,0,-1,1105,1219,0,0
-112,-195,0,0,0,0,0,0,0,0,0,-1,1112,1219,0,0
-105,-195,0,0,0,0,0,0,0,0,0,-1,1119,1219,0,0
-98,-195,0,0,0,0,0,0,0,0,0,-1,1126,1219,0,0
-91,-195,0,0,0,0,0,0,0,0,0,-1,1133,1219,0,0
-84,-195,0,0,0,0,0,0,0,0,0,-1,1140,1219,0,0
-77,-195,0,0,0,0,0,0,0,0,0,-1,1147,1219,0,0
-70,-195,0,0,0,0,0,0,0,0,0,-1,1154,1219,0,0
-63,-195,0,0,0,0,0,0,0,0,0,-1,1161,1219,0,0
-56,-195,0,0,0,0,0,0,0,0,0,-1,1168,1219,0,0
-49,-195,0,0,0,0,0,0,0,0,0,-1,1175,1219,0,0
-42,-195,0,0,0,0,0,0,0,0,0,-1,1182,1219,0,0
-35,-195,0,0,0,0,0,0,0,0,0,-1,1189,1219,0,0
-28,-195,0,0,0,0,0,0,0,0,0,-1,1196,1219,0,0
-21,-195,0,0,0,0,0,0,0,0,0,-1,1203,1219,0,0
-14,-195,0,0,0,0,0,0,0,0,0,-1,1210,1219,0,0
-7,-195,0,0,0,0,0,0,0,0,0,-1,1217,1219,0,0
0,-195,0,0,0,0,0,0,0,0,0,-1,1224,1219,0,0
7,-195,0,0,0,0,0,0,0,0,0,-1,1231,1219,0,0
14,-195,0,0,0,0,0,0,0,0,0,-1,1238,1219,0,0
21,-195,0,0,0,0,0,0,0,0,0,-1,1245,1219,0,0
28,-195,0,0,0,0,0,0,0,0,0,-1,1252,1219,0,0
35,-195,0,0,0,0,0,0,0,0,0,-1,1259,1219,0,0
42,-195,0,0,0,0,0,0,0,0,0,-1,1266,1219,0,0
49,-195,0,0,0,0,0,0,0,0,0,-1,1273,1219,0,0
56,-195,0,0,0,0,0,0,0,0,0,-1,1280,1219,0,0
63,-195,0,0,0,0,0,0,0,0,0,-1,1287,1219,0,0
70,-195,0,0,0,0,0,0,0,0,0,-1,1294,1219,0,0
77,-195,0,0,0,0,0,0,0,0,0,-1,1301,1219,0,0
84,-195,0,0,0,0,0,0,0,0,0,-1,1308,1219,0,0
91,-195,0,0,0,0,0,0,0,0,0,-1,1315,1219,0,0
98,-195,0,0,0,0,0,0,0,0,0,-1,1322,1219,0,0
105,-195,0,0,0,0,0,0,0,0,0,-1,1329,1219,0,0
112,-195,0,0,0,0,0,0,0,0,0,-1,1336,1219,0,0
119,-195,0,0,0,0,0,0,0,0,0,-1,1343,1219,0,0
126,-195,0,0,0,0,0,0,0,0,0,-1,1350,1219,0,0
133,-195,0,0,0,0,0,0,0,0,0,-1,1357,1219,0,0
140,-195,0,0,0,0,0,0,0,0,0,-1,1364,1219,0,0
147,-195,0,0,0,0,0,0,0,0,0,-1,1371,1219,0,0
154,-195,0,0,0,0,0,0,0,0,0,-1,1378,1219,0,0
161,-195,0,0,0,0,0,0,0,0,0,-1,1385,1219,0,0
168,-195,0,0,0,0,0,0,0,0,0,-1,1392,1219,0,0
175,-195,0,0,0,0,0,0,0,0,0,-1,1399,1219,0,0
182,-195,0,0,0,0,0,0,0,0,0,-1,1406,1219,0,0
189,-195,0,0,0,0,0,0,0,0,0,-1,1413,1219,0,0
196,-195,0,0,0,0,0,0,0,0,0,-1,1420,1219,0,0
203,-195,0,0,0,0,0,0,0,0,0,-1,1427,1219,0,0
210,-195,0,0,0,0,0,0,0,0,0,-1,1434,1219,0,0
217,-195,0,0,0,0,0,0,0,0,0,-1,1441,1219,0,0
224,-195,0,0,0,0,0,0,0,0,0,-1,1448,1219,0,0
231,-195,0,0,0,0,0,0,0,0,0,-1,1455,1219,0,0
238,-195,0,0,0,0,0,0,0,0,0,-1,1462,1219,0,0
245,-195,0,0,0,0,0,0,0,0,0,-1,1469,1219,0,0
252,-195,0,0,0,0,0,0,0,0,0,-1,1476,1219,0,0
259,-195,0,0,0,0,0,0,0,0,0,-1,1483,1219,0,0
266,-195,0,0,0,0,0,0,0,0,0,-1,1490,1219,0,0
273,-195,0,0,0,0,0,0,0,0,0,-1,1497,1219,0,0
280,-195,0,0,0,0,0,0,0,0,0,-1,1504,1219,0,0
287,-195,0,0,0,0,0,0,0,0,0,-1,1511,1219,0,0
294,-195,0,0,0,0,0,0,0,0,0,-1,1518,1219,0,0
301,-195,0,0,0,0,0,0,0,0,0,-1,1525,1219,0,0
308,-195,0,0,0,0,0,0,0,0,0,-1,1532,1219,0,0
315,-195,0,0,0,0,0,0,0,0,0,-1,1539,1219,0,0
322,-195,0,0,0,0,0,0,0,0,0,-1,1546,1219,0,0
329,-195,0,0,0,0,0,0,0,0,0,-1,1553,1219,0,0
336,-195,0,0,0,0,0,0,0,0,0,-1,1560,1219,0,0
343,-195,0,0,0,0,0,0,0,0,0,-1,1567,1219,0,0
350,-195,0,0,0,0,0,0,0,0,0,-1,1574,1219,0,0
357,-195,0,0,0,0,0,0,0,0,0,-1,1581,1219,0,0
364,-195,0,0,0,0,0,0,0,0,0,-1,1588,1219,0,0
371,-195,0,0,0,0,0,0,0,0,0,-1,1595,1219,0,0
378,-195,0,0,0,0,0,0,0,0,0,-1,1602,1219,0,0
385,-195,0,0,0,0,0,0,0,0,0,-1,1609,1219,0,0
392,-195,0,0,0,0,0,0,0,0,0,-1,1616,1219,0,0
399,-195,0,0,0,0,0,0,0,0,0,-1,1623,1219,0,0
406,-195,0,0,0,0,0,0,0,0,0,-1,1630,1219,0,0
413,-195,0,0,0,0,0,0,0,0,0,-1,1637,1219,0,0
420,-195,0,0,0,0,0,0,0,0,0,-1,1644,1219,0,0
427,-195,0,0,0,0,0,0,0,0,0,-1,1651,1219,0,0
434,-195,0,0,0,0,0,0,0,0,0,-1,1658,1219,0,0
441,-195,0,0,0,0,0,0,0,0,0,-1,1665,1219,0,0
448,-195,0,0,0,0,0,0,0,0,0,-1,1672,1219,0,0
455,-195,0,0,0,0,0,0,0,0,0,-1,1679,1219,0,0
462,-195,0,0,0,0,0,0,0,0,0,-1,1686,1219,0,0
469,-195,0,0,0,0,0,0,0,0,0,-1,1693,1219,0,0
476,-195,0,0,0,0,0,0,0,0,0,-1,1700,1219,0,0
483,-195,0,0,0,0,0,0,0,0,0,-1,1707,1219,0,0
490,-195,0,0,0,0,0,0,0,0,0,-1,1714,1219,0,0
497,-195,0,0,0,0,0,0,0,0,0,-1,1721,1219,0,0
504,-195,0,0,0,0,0,0,0,0,0,-1,1728,1219,0,0
511,-195,0,0,0,0,0,0,0,0,0,-1,1735,1219,0,0
518,-195,0,0,0,0,0,0,0,0,0,-1,1742,1219,0,0
525,-195,0,0,0,0,0,0,0,0,0,-1,1749,1219,0,0
532,-195,0,0,0,0,0,0,0,0,0,-1,1756,1219,0,0
539,-195,0,0,0,0,0,0,0,0,0,-1,1763,1219,0,0
546,-195,0,0,0,0,0,0,0,0,0,-1,1770,1219,0,0
553,-195,0,0,0,0,0,0,0,0,0,-1,1777,1219,0,0
560,-195,0,0,0,0,0,0,0,0,0,-1,1784,1219,0,0
567,-195,0,0,0,0,0,0,0,0,0,-1,1791,1219,0,0
574,-195,0,0,0,0,0,0,0,0,0,-1,1798,1219,0,0
581,-195,0,0,0,0,0,0,0,0,0,-1,1805,1219,0,0
588,-195,0,0,0,0,0,0,0,0,0,-1,1812,1219,0,0
595,-195,0,0,0,0,0,0,0,0,0,-1,1819,1219,0,0
602,-195,0,0,0,0,0,0,0,0,0,-1,1826,1219,0,0
609,-195,0,0,0,0,0,0,0,0,0,-1,1833,1219,0,0
616,-195,0,0,0,0,0,0,0,0,0,-1,1840,1219,0,0
623,-195,0,0,0,0,0,0,0,0,0,-1,1847,1219,0,0
630,-195,35.5853,2.40942,-0.00540792,0.00442795,0.00336527,0.00546913,-0.00644911,1.27075,0.00688875,0.0401121,1854,1219,35.5853,-2.40945
637,-195,35.5259,2.58472,-0.00348353,0.00289284,0.00285981,0.00398753,-0.00457823,1.20522,0.00494936,0.0383452,1861,1219,35.5259,-2.58467
644,-195,35.4503,2.51672,-0.00122817,0.0012467,0.00205137,0.00240496,-0.00238643,1.05679,0.00276632,0.0352284,1868,1219,35.4503,-2.51673
651,-195,35.5161,2.48462,0.000939248,-0.000129326,0.00115597,0.00167844,-0.000868515,0.568923,0.00149506,0.0260308,1875,1219,35.5161,-2.4846
658,-195,35.5117,2.55493,0.00251403,-0.00113598,0.000424846,0.00256283,-0.00118478,0.114359,0.0022119,0.0233442,1882,1219,35.5117,-2.55488
665,-195,35.5258,2.56323,0.00324538,-0.00161211,4.41512e-05,0.00324579,-0.00161251,0.0090883,0.00285728,0.0239581,1889,1219,35.5257,-2.56322
672,-195,35.5826,2.49939,0.00322193,-0.00196819,1.58127e-05,0.00322198,-0.00196824,0.00304666,0.00302558,0.0374335,1896,1219,35.5826,-2.49937
679,-195,35.554,2.427,0.00269315,-0.00206732,0.000131251,0.00269676,-0.00207094,0.027543,0.00276053,0.0499295,1903,1219,35.554,-2.42701
686,-195,35.5726,2.36243,0,0,0,0,0,0,0,-1,1910,1219,35.5726,-2.36246
693,-195,24.4368,5.68298,0,0,0,0,0,0,0,-1,1917,1219,24.4368,-5.68293
700,-195,30.1897,6.96924,0,0,0,0,0,0,0,-1,1924,1219,30.1897,-6.96925
707,-195,29.9247,6.7002,0.0010752,-0.00219384,0.000401909,0.00112389,-0.00224253,0.120553,0.00197904,0.0291265,1931,1219,29.9247,-6.70018
714,-195,29.8988,6.28113,-7.99473e-06,-0.00196541,0.000663604,0.000195769,-0.00216917,0.297918,0.00151559,0.0296718,1938,1219,29.8988,-6.28109
721,-195,29.8857,6.04651,-0.00141192,-0.00146331,0.00118936,-0.000247985,-0.00262725,0.774597,0.00167497,0.0143591,1945,1219,29.8858,-6.04655
728,-195,29.8726,5.75,-0.00177141,-0.00116231,0.00161786,0.000179411,-0.00311314,0.878431,0.00213774,0.0112754,1952,1219,29.8725,-5.74995
735,-195,29.8605,5.4375,-0.00143473,-0.00018336,0.00189947,0.00119083,-0.00280892,0.944501,0.00237141,0.0135811,1959,1219,29.8605,-5.43746
742,-195,29.8546,5.17566,-0.000234435,0.00104205,0.00169476,0.00221476,-0.00140715,0.965484,0.00210837,0.0158142,1966,1219,29.8546,-5.17561
749,-195,29.8257,4.89954,0.00155578,0.00247164,0.00143422,0.00351926,0.000508156,0.939927,0.00219647,0.0156161,1973,1219,29.8256,-4.89952
756,-195,29.818,4.57727,0.00396044,0.00450317,0.000990389,0.0052587,0.00320491,0.919115,0.00306026,0.0147544,1980,1219,29.818,-4.57723
763,-195,29.8457,4.30151,0.00715556,0.00737051,0.000395706,0.00767308,0.00685299,0.918,0.00486512,0.0172251,1987,1219,29.8457,-4.30153
770,-195,29.8181,4.07788,0.0112047,0.0118297,-0.000425327,0.012045,0.0109894,-1.10225,0.00770229,0.0326806,1994,1219,29.8182,-4.07782
777,-195,29.7839,3.87732,0,0,0,0,0,0,0,-1,2001,1219,29.784,-3.87726
784,-195,33.4717,2.00452,0,0,0,0,0,0,0,-1,2008,1219,33.4717,-2.00449
791,-195,33.4631,2.66418,0,0,0,0,0,0,0,-1,2015,1219,33.4632,-2.66422
798,-195,33.2454,3.11206,0,0,0,0,0,0,0,-1,2022,1219,33.2453,-3.11208
805,-195,0,0,0,0,0,0,0,0,0,-1,2029,1219,0,0
812,-195,0,0,0,0,0,0,0,0,0,-1,2036,1219,0,0
-700,-202,0,0,0,0,0,0,0,0,0,-1,524,1226,0,0
-693,-202,0,0,0,0,0,0,0,0,0,-1,531,1226,0,0
-686,-202,0,0,0,0,0,0,0,0,0,-1,538,1226,0,0
-679,-202,-18.1926,-0.641602,0,0,0,0,0,0,0,-1,545,1226,-18.1926,0.641645
-672,-202,-20.337,2.26501,0.0278122,0.000284581,-0.0374875,0.0539828,-0.025886,-0.60946,0.0470538,0.0444499,552,1226,-20.3371,-2.26498
-665,-202,-19.9987,1.77783,0.0255592,0.00154582,-0.0319327,0.0476679,-0.0205629,-0.605575,0.0404159,0.0452989,559,1226,-19.9987,-1.77783
-658,-202,-18.747,1.06067,0.0219638,0.00253116,-0.0262123,0.0402026,-0.0157076,-0.60791,0.0332964,0.0452695,566,1226,-18.747,-1.0607
-651,-202,-18.517,0.873169,0.0178843,0.00318677,-0.02074,0.032539,-0.0114679,-0.615135,0.0263604,0.0459033,573,1226,-18.517,-0.87312
-644,-202,-18.867,0.987305,0.0137464,0.00355407,-0.0157404,0.025195,-0.00789458,-0.628842,0.0199557,0.0441635,580,1226,-18.867,-0.98727
-637,-202,-18.9764,1.29077,0.00993448,0.00362642,-0.0114561,0.0186628,-0.00510192,-0.651069,0.014446,0.0321747,587,1226,-18.9764,-1.29077
-630,-202,-19.0978,1.63306,0.0068512,0.0032957,-0.00810375,0.0133699,-0.00322301,-0.677422,0.0101595,0.0144353,594,1226,-19.0978,-1.63302
-623,-202,-19.134,1.96228,0.00476602,0.00281649,-0.00559387,0.00946942,-0.00188691,-0.699136,0.00702688,0.00875467,601,1226,-19.134,-1.96222
-616,-202,-19.1389,2.29858,0.00283497,0.00231412,-0.00334429,0.00592896,-0.000779873,-0.746541,0.00423659,0.00877163,608,1226,-19.1389,-2.29855
-609,-202,-19.1228,2.66675,0.000357173,0.00167814,-0.00189655,0.00302592,-0.000990612,-0.952958,0.00241615,0.0211997,615,1226,-19.1228,-2.66674
-602,-202,-19.1527,2.96094,-0.000959836,0.000669539,-0.00109238,0.00121757,-0.00150787,-1.1058,0.00157651,0.0216578,622,1226,-19.1527,-2.96096
-595,-202,-19.1871,3.31384,-0.000879271,-0.000202812,-0.0011589,0.000666206,-0.00174829,-0.927382,0.00143992,0.0174206,629,1226,-19.1871,-3.31385
-588,-202,-19.1426,3.65881,4.69046e-05,-0.00123964,-0.00147005,0.00100827,-0.002201,-0.579158,0.00189504,0.0106622,636,1226,-19.1427,-3.65883
-581,-202,-19.1108,3.87744,0.00131742,-0.00186004,-0.00165105,0.00201998,-0.0025626,-0.402316,0.00265193,0.0306839,643,1226,-19.1108,-3.87742
-574,-202,-19.4071,3.93433,0.00221774,-0.00218175,-0.00154514,0.00270618,-0.00267019,-0.306173,0.00310407,0.0412189,650,1226,-19.4071,-3.93433
-567,-202,-19.6571,4.03674,0,0,0,0,0,0,0,-1,657,1226,-19.6571,-4.03673
-560,-202,-10.929,2.73096,0,0,0,0,0,0,0,-1,664,1226,-10.929,-2.73092
-553,-202,-24.5665,1.09412,0,0,0,0,0,0,0,-1,671,1226,-24.5665,-1.09408
-546,-202,-25.8743,1.3103,0,0,0,0,0,0,0,-1,678,1226,-25.8743,-1.31034
-539,-202,-25.6727,1.0343,0.00386147,-0.0031925,-0.00220536,0.0044942,-0.00382523,-0.279402,0.0048084,0.0479505,685,1226,-25.6727,-1.03434
-532,-202,-25.5612,0.726196,0.00353267,-0.00339708,-0.00250526,0.00434351,-0.00420791,-0.313013,0.00493737,0.0311326,692,1226,-25.5612,-0.726188
-525,-202,-25.4806,0.606323,0.00285199,-0.00347484,-0.0028087,0.00391894,-0.00454179,-0.363036,0.00488922,0.0345103,699,1226,-25.4806,-0.606309
-518,-202,-25.525,0.595337,0.00080384,-0.00323715,-0.0031456,0.00252195,-0.00495526,-0.499918,0.00439251,0.041082,706,1226,-25.525,-0.595376
-511,-202,-25.5992,0.558472,-0.00178172,-0.00172355,-0.00259611,0.000843638,-0.00434891,-0.791,0.00321757,0.0438541,713,1226,-25.5993,-0.558475
-504,-202,0,0,0,0,0,0,0,0,0,-1,720,1226,0,0
-497,-202,0,0,0,0,0,0,0,0,0,-1,727,1226,0,0
-490,-202,0,0,0,0,0,0,0,0,0,-1,734,1226,0,0
-483,-202,0,0,0,0,0,0,0,0,0,-1,741,1226,0,0
-476,-202,0,0,0,0,0,0,0,0,0,-1,748,1226,0,0
-469,-202,0,0,0,0,0,0,0,0,0,-1,755,1226,0,0
-462,-202,0,0,0,0,0,0,0,0,0,-1,762,1226,0,0
-455,-202,0,0,0,0,0,0,0,0,0,-1,769,1226,0,0
-448,-202,0,0,0,0,0,0,0,0,0,-1,776,1226,0,0
-441,-202,0,0,0,0,0,0,0,0,0,-1,783,1226,0,0
-434,-202,0,0,0,0,0,0,0,0,0,-1,790,1226,0,0
-427,-202,0,0,0,0,0,0,0,0,0,-1,797,1226,0,0
-420,-202,0,0,0,0,0,0,0,0,0,-1,804,1226,0,0
-413,-202,0,0,0,0,0,0,0,0,0,-1,811,1226,0,0
-406,-202,0,0,0,0,0,0,0,0,0,-1,818,1226,0,0
-399,-202,0,0,0,0,0,0,0,0,0,-1,825,1226,0,0
-392,-202,0,0,0,0,0,0,0,0,0,-1,832,1226,0,0
-385,-202,0,0,0,0,0,0,0,0,0,-1,839,1226,0,0
-378,-202,0,0,0,0,0,0,0,0,0,-1,846,1226,0,0
-371,-202,0,0,0,0,0,0,0,0,0,-1,853,1226,0,0
-364,-202,0,0,0,0,0,0,0,0,0,-1,860,1226,0,0
-357,-202,0,0,0,0,0,0,0,0,0,-1,867,1226,0,0
-350,-202,0,0,0,0,0,0,0,0,0,-1,874,1226,0,0
-343,-202,0,0,0,0,0,0,0,0,0,-1,881,1226,0,0
-336,-202,0,0,0,0,0,0,0,0,0,-1,888,1226,0,0
-329,-202,0,0,0,0,0,0,0,0,0,-1,895,1226,0,0
-322,-202,0,0,0,0,0,0,0,0,0,-1,902,1226,0,0
-315,-202,0,0,0,0,0,0,0,0,0,-1,909,1226,0,0
-308,-202,0,0,0,0,0,0,0,0,0,-1,916,1226,0,0
-301,-202,0,0,0,0,0,0,0,0,0,-1,923,1226,0,0
-294,-202,0,0,0,0,0,0,0,0,0,-1,930,1226,0,0
-287,-202,0,0,0,0,0,0,0,0,0,-1,937,1226,0,0
-280,-202,0,0,0,0,0,0,0,0,0,-1,944,1226,0,0
-273,-202,0,0,0,0,0,0,0,0,0,-1,951,1226,0,0
-266,-202,0,0,0,0,0,0,0,0,0,-1,958,1226,0,0
-259,-202,0,0,0,0,0,0,0,0,0,-1,965,1226,0,0
-252,-202,0,0,0,0,0,0,0,0,0,-1,972,1226,0,0
-245,-202,0,0,0,0,0,0,0,0,0,-1,979,1226,0,0
-238,-202,0,0,0,0,0,0,0,0,0,-1,986,1226,0,0
-231,-202,0,0,0,0,0,0,0,0,0,-1,993,1226,0,0
-224,-202,0,0,0,0,0,0,0,0,0,-1,1000,1226,0,0
-217,-202,0,0,0,0,0,0,0,0,0,-1,1007,1226,0,0
-210,-202,0,0,0,0,0,0,0,0,0,-1,1014,1226,0,0
-203,-202,0,0,0,0,0,0,0,0,0,-1,1021,1226,0,0
-196,-202,0,0,0,0,0,0,0,0,0,-1,1028,1226,0,0
-189,-202,0,0,0,0,0,0,0,0,0,-1,1035,1226,0,0
-182,-202,0,0,0,0,0,0,0,0,0,-1,1042,1226,0,0
-175,-202,0,0,0,0,0,0,0,0,0,-1,1049,1226,0,0
-168,-202,0,0,0,0,0,0,0,0,0,-1,1056,1226,0,0
-161,-202,0,0,0,0,0,0,0,0,0,-1,1063,1226,0,0
-154,-202,0,0,0,0,0,0,0,0,0,-1,1070,1226,0,0
-147,-202,0,0,0,0,0,0,0,0,0,-1,1077,1226,0,0
-140,-202,0,0,0,0,0,0,0,0,0,-1,1084,1226,0,0
-133,-202,0,0,0,0,0,0,0,0,0,-1,1091,1226,0,0
-126,-202,0,0,0,0,0,0,0,0,0,-1,1098,1226,0,0
-119,-202,0,0,0,0,0,0,0,0,0,-1,1105,1226,0,0
-112,-202,0,0,0,0,0,0,0,0,0,-1,1112,1226,0,0
-105,-202,0,0,0,0,0,0,0,0,0,-1,1119,1226,0,0
-98,-202,0,0,0,0,0,0,0,0,0,-1,1126,1226,0,0
-91,-202,0,0,0,0,0,0,0,0,0,-1,1133,1226,0,0
-84,-202,0,0,0,0,0,0,0,0,0,-1,1140,1226,0,0
-77,-202,0,0,0,0,0,0,0,0,0,-1,1147,1226,0,0
-70,-202,0,0,0,0,0,0,0,0,0,-1,1154,1226,0,0
-63,-202,0,0,0,0,0,0,0,0,0,-1,1161,1226,0,0
-56,-202,0,0,0,0,0,0,0,0,0,-1,1168,1226,0,0
-49,-202,0,0,0,0,0,0,0,0,0,-1,1175,1226,0,0
-42,-202,0,0,0,0,0,0,0,0,0,-1,1182,1226,0,0
-35,-202,0,0,0,0,0,0,0,0,0,-1,1189,1226,0,0
-28,-202,0,0,0,0,0,0,0,0,0,-1,1196,1226,0,0
-21,-202,0,0,0,0,0,0,0,0,0,-1,1203,1226,0,0
-14,-202,0,0,0,0,0,0,0,0,0,-1,1210,1226,0,0
-7,-202,0,0,0,0,0,0,0,0,0,-1,1217,1226,0,0
0,-202,0,0,0,0,0,0,0,0,0,-1,1224,1226,0,0
7,-202,0,0,0,0,0,0,0,0,0,-1,1231,1226,0,0
14,-202,0,0,0,0,0,0,0,0,0,-1,1238,1226,0,0
21,-202,0,0,0,0,0,0,0,0,0,-1,1245,1226,0,0
28,-202,0,0,0,0,0,0,0,0,0,-1,1252,1226,0,0
35,-202,0,0,0,0,0,0,0,0,0,-1,1259,1226,0,0
42,-202,0,0,0,0,0,0,0,0,0,-1,1266,1226,0,0
49,-202,0,0,0,0,0,0,0,0,0,-1,1273,1226,0,0
56,-202,0,0,0,0,0,0,0,0,0,-1,1280,1226,0,0
63,-202,0,0,0,0,0,0,0,0,0,-1,1287,1226,0,0
70,-202,0,0,0,0,0,0,0,0,0,-1,1294,1226,0,0
77,-202,0,0,0,0,0,0,0,0,0,-1,1301,1226,0,0
84,-202,0,0,0,0,0,0,0,0,0,-1,1308,1226,0,0
91,-202,0,0,0,0,0,0,0,0,0,-1,1315,1226,0,0
98,-202,0,0,0,0,0,0,0,0,0,-1,1322,1226,0,0
105,-202,0,0,0,0,0,0,0,0,0,-1,1329,1226,0,0
112,-202,0,0,0,0,0,0,0,0,0,-1,1336,1226,0,0
119,-202,0,0,0,0,0,0,0,0,0,-1,1343,1226,0,0
126,-202,0,0,0,0,0,0,0,0,0,-1,1350,1226,0,0
133,-202,0,0,0,0,0,0,0,0,0,-1,1357,1226,0,0
140,-202,0,0,0,0,0,0,0,0,0,-1,1364,1226,0,0
147,-202,0,0,0,0,0,0,0,0,0,-1,1371,1226,0,0
154,-202,0,0,0,0,0,0,0,0,0,-1,1378,1226,0,0
161,-202,0,0,0,0,0,0,0,0,0,-1,1385,1226,0,0
168,-202,0,0,0,0,0,0,0,0,0,-1,1392,1226,0,0
175,-202,0,0,0,0,0,0,0,0,0,-1,1399,1226,0,0
182,-202,0,0,0,0,0,0,0,0,0,-1,1406,1226,0,0
189,-202,0,0,0,0,0,0,0,0,0,-1,1413,1226,0,0
196,-202,0,0,0,0,0,0,0,0,0,-1,1420,1226,0,0
203,-202,0,0,0,0,0,0,0,0,0,-1,1427,1226,0,0
210,-202,0,0,0,0,0,0,0,0,0,-1,1434,1226,0,0
217,-202,0,0,0,0,0,0,0,0,0,-1,1441,1226,0,0
224,-202,0,0,0,0,0,0,0,0,0,-1,1448,1226,0,0
231,-202,0,0,0,0,0,0,0,0,0,-1,1455,1226,0,0
238,-202,0,0,0,0,0,0,0,0,0,-1,1462,1226,0,0
245,-202,0,0,0,0,0,0,0,0,0,-1,1469,1226,0,0
252,-202,0,0,0,0,0,0,0,0,0,-1,1476,1226,0,0
259,-202,0,0,0,0,0,0,0,0,0,-1,1483,1226,0,0
266,-202,0,0,0,0,0,0,0,0,0,-1,1490,1226,0,0
273,-202,0,0,0,0,0,0,0,0,0,-1,1497,1226,0,0
280,-202,0,0,0,0,0,0,0,0,0,-1,1504,1226,0,0
287,-202,0,0,0,0,0,0,0,0,0,-1,1511,1226,0,0
294,-202,0,0,0,0,0,0,0,0,0,-1,1518,1226,0,0
301,-202,0,0,0,0,0,0,0,0,0,-1,1525,1226,0,0
308,-202,0,0,0,0,0,0,0,0,0,-1,1532,1226,0,0
315,-202,0,0,0,0,0,0,0,0,0,-1,1539,1226,0,0
322,-202,0,0,0,0,0,0,0,0,0,-1,1546,1226,0,0
329,-202,0,0,0,0,0,0,0,0,0,-1,1553,1226,0,0
336,-202,0,0,0,0,0,0,0,0,0,-1,1560,1226,0,0
343,-202,0,0,0,0,0,0,0,0,0,-1,1567,1226,0,0
350,-202,0,0,0,0,0,0,0,0,0,-1,1574,1226,0,0
357,-202,0,0,0,0,0,0,0,0,0,-1,1581,1226,0,0
364,-202,0,0,0,0,0,0,0,0,0,-1,1588,1226,0,0
371,-202,0,0,0,0,0,0,0,0,0,-1,1595,1226,0,0
378,-202,0,0,0,0,0,0,0,0,0,-1,1602,1226,0,0
385,-202,0,0,0,0,0,0,0,0,0,-1,1609,1226,0,0
392,-202,0,0,0,0,0,0,0,0,0,-1,1616,1226,0,0
399,-202,0,0,0,0,0,0,0,0,0,-1,1623,1226,0,0
406,-202,0,0,0,0,0,0,0,0,0,-1,1630,1226,0,0
413,-202,0,0,0,0,0,0,0,0,0,-1,1637,1226,0,0
420,-202,0,0,0,0,0,0,0,0,0,-1,1644,1226,0,0
427,-202,0,0,0,0,0,0,0,0,0,-1,1651,1226,0,0
434,-202,0,0,0,0,0,0,0,0,0,-1,1658,1226,0,0
441,-202,0,0,0,0,0,0,0,0,0,-1,1665,1226,0,0
448,-202,0,0,0,0,0,0,0,0,0,-1,1672,1226,0,0
455,-202,0,0,0,0,0,0,0,0,0,-1,1679,1226,0,0
462,-202,0,0,0,0,0,0,0,0,0,-1,1686,1226,0,0
469,-202,0,0,0,0,0,0,0,0,0,-1,1693,1226,0,0
476,-202,0,0,0,0,0,0,0,0,0,-1,1700,1226,0,0
483,-202,0,0,0,0,0,0,0,0,0,-1,1707,1226,0,0
490,-202,0,0,0,0,0,0,0,0,0,-1,1714,1226,0,0
497,-202,0,0,0,0,0,0,0,0,0,-1,1721,1226,0,0
504,-202,0,0,0,0,0,0,0,0,0,-1,1728,1226,0,0
511,-202,0,0,0,0,0,0,0,0,0,-1,1735,1226,0,0
518,-202,0,0,0,0,0,0,0,0,0,-1,1742,1226,0,0
525,-202,0,0,0,0,0,0,0,0,0,-1,1749,1226,0,0
532,-202,0,0,0,0,0,0,0,0,0,-1,1756,1226,0,0
539,-202,0,0,0,0,0,0,0,0,0,-1,1763,1226,0,0
546,-202,0,0,0,0,0,0,0,0,0,-1,1770,1226,0,0
553,-202,0,0,0,0,0,0,0,0,0,-1,1777,1226,0,0
560,-202,0,0,0,0,0,0,0,0,0,-1,1784,1226,0,0
567,-202,0,0,0,0,0,0,0,0,0,-1,1791,1226,0,0
574,-202,0,0,0,0,0,0,0,0,0,-1,1798,1226,0,0
581,-202,0,0,0,0,0,0,0,0,0,-1,1805,1226,0,0
588,-202,0,0,0,0,0,0,0,0,0,-1,1812,1226,0,0
595,-202,0,0,0,0,0,0,0,0,0,-1,1819,1226,0,0
602,-202,0,0,0,0,0,0,0,0,0,-1,1826,1226,0,0
609,-202,0,0,0,0,0,0,0,0,0,-1,1833,1226,0,0
616,-202,0,0,0,0,0,0,0,0,0,-1,1840,1226,0,0
623,-202,0,0,0,0,0,0,0,0,0,-1,1847,1226,0,0
630,-202,35.52,2.49536,-0.00345883,0.00349056,0.00248993,0.00429059,-0.00425886,1.25991,0.00493604,0.0371454,1854,1226,35.52,-2.49535
637,-202,35.5737,2.57751,-0.00279706,0.00202217,0.00230856,0.00294957,-0.00372447,1.18881,0.00386191,0.0342976,1861,1226,35.5737,-2.57757
644,-202,35.5289,2.52344,-0.00161515,0.000373268,0.00189995,0.00152342,-0.0027653,1.02645,0.00251046,0.0334761,1868,1226,35.5289,-2.52341
651,-202,35.5531,2.48132,-7.4974e-05,-0.000926013,0.0012828,0.000851043,-0.00185203,0.625253,0.00159589,0.026448,1875,1226,35.5531,-2.48136
658,-202,35.5402,2.4989,0.00128909,-0.00184067,0.000720973,0.00144719,-0.00199877,0.215867,0.001998,0.0228359,1882,1226,35.5401,-2.49892
665,-202,35.5752,2.49805,0.00210457,-0.00224861,0.000391115,0.00213943,-0.00228347,0.0888973,0.00255401,0.0225272,1889,1226,35.5752,-2.49804
672,-202,35.7256,2.53711,0.00235219,-0.00254703,0.000314093,0.00237225,-0.00256708,0.0637629,0.00285247,0.0453437,1896,1226,35.7256,-2.53713
679,-202,35.8912,2.62354,0.0021992,-0.00259613,0.000319862,0.00222044,-0.00261737,0.0663112,0.00279624,0.0482353,1903,1226,35.8912,-2.62352
686,-202,36.1324,2.72266,0,0,0,0,0,0,0,-1,1910,1226,36.1325,-2.72267
693,-202,29.4371,7.5542,0,0,0,0,0,0,0,-1,1917,1226,29.4372,-7.55417
700,-202,29.4684,7.07532,0.00189063,-0.00261956,0.000344771,0.00191683,-0.00264576,0.0758552,0.0026454,0.0431737,1924,1226,29.4684,-7.07531
707,-202,29.533,6.57178,0.00160262,-0.00267479,0.000341094,0.00162964,-0.00270182,0.0790773,0.00252618,0.0341468,1931,1226,29.5329,-6.57184
714,-202,29.5698,6.28198,0.000667154,-0.00226043,0.000568648,0.000773728,-0.00236701,0.185266,0.00188948,0.019396,1938,1226,29.5698,-6.28195
721,-202,29.5923,6.02869,-0.000823404,-0.00157155,0.00113984,2.17848e-06,-0.00239713,0.626846,0.00159881,0.0128828,1945,1226,29.5923,-6.02872
728,-202,29.579,5.74451,-0.0012173,-0.00119353,0.00158839,0.000383022,-0.00279386,0.789139,0.00200249,0.0109106,1952,1226,29.579,-5.74456
735,-202,29.5638,5.45325,-0.000928619,-0.00032806,0.0019023,0.00129751,-0.00255419,0.863678,0.00226289,0.0115415,1959,1226,29.5639,-5.4532
742,-202,29.5557,5.16394,9.72611e-05,0.000468364,0.00186926,0.00216126,-0.00159564,0.834868,0.00217723,0.011545,1966,1226,29.5557,-5.1639
749,-202,29.5227,4.86682,0.0016633,0.0013486,0.0018152,0.00332796,-0.000316048,0.742164,0.00233114,0.0116263,1973,1226,29.5227,-4.86677
756,-202,29.5375,4.56543,0.00392776,0.00255128,0.00166493,0.00504109,0.00143795,0.589406,0.00299863,0.0121581,1980,1226,29.5374,-4.56541
763,-202,29.5842,4.32324,0.00715606,0.00424101,0.0013772,0.0077038,0.00369327,0.378536,0.00444905,0.0186312,1987,1226,29.5842,-4.32325
770,-202,29.5485,4.17041,0.0115222,0.00700974,0.000974385,0.0117236,0.00680833,0.203835,0.00679799,0.0474234,1994,1226,29.5485,-4.17037
777,-202,29.5226,4.01782,0,0,0,0,0,0,0,-1,2001,1226,29.5226,-4.01782
784,-202,34.0176,2.00122,0,0,0,0,0,0,0,-1,2008,1226,34.0175,-2.00124
791,-202,34.1589,2.83984,0,0,0,0,0,0,0,-1,2015,1226,34.1589,-2.8398
798,-202,34.1953,3.11951,0,0,0,0,0,0,0,-1,2022,1226,34.1954,-3.11949
805,-202,0,0,0,0,0,0,0,0,0,-1,2029,1226,0,0
812,-202,0,0,0,0,0,0,0,0,0,-1,2036,1226,0,0
-700,-209,0,0,0,0,0,0,0,0,0,-1,524,1233,0,0
-693,-209,0,0,0,0,0,0,0,0,0,-1,531,1233,0,0
-686,-209,0,0,0,0,0,0,0,0,0,-1,538,1233,0,0
-679,-209,-19.8584,3.03027,0.0375533,-0.000380103,-0.0458906,0.0682422,-0.0310691,-0.589438,0.058661,0.0453931,545,1233,-19.8584,-3.03027
-672,-209,-20.1268,2.43823,0.0365916,0.00115926,-0.0404668,0.0630504,-0.0252995,-0.579069,0.0525381,0.0469547,552,1233,-20.1268,-2.43826
-665,-209,-19.8848,1.99316,0.0324594,0.0024226,-0.0341583,0.0547551,-0.0198731,-0.578283,0.0446279,0.0413881,559,1233,-19.8848,-1.99317
-658,-209,-18.1731,1.00085,0.0270758,0.00334165,-0.0277932,0.0454294,-0.0150119,-0.583625,0.0363389,0.0499344,566,1233,-18.1731,-1.00084
-651,-209,-18.642,0.355957,0,0,0,0,0,0,0,-1,573,1233,-18.642,-0.355904
-644,-209,-18.7808,0.73938,0.0160731,0.00417057,-0.0164028,0.0275709,-0.00732725,-0.611374,0.0212484,0.0481965,580,1233,-18.7808,-0.739343
-637,-209,-18.6927,1.15955,0.0113228,0.0041552,-0.0118067,0.0200776,-0.00459964,-0.638048,0.0151528,0.042035,587,1233,-18.6927,-1.15955
-630,-209,-18.6971,1.53723,0.00756165,0.00377162,-0.00820946,0.014092,-0.0027587,-0.671969,0.0104365,0.0237833,594,1233,-18.6971,-1.53722
-623,-209,-18.7731,1.94885,0.00506174,0.00324347,-0.00552117,0.00974813,-0.00144292,-0.703799,0.00702926,0.0118691,601,1233,-18.7731,-1.94883
-616,-209,-18.7817,2.29382,0.00279077,0.00266069,-0.00314506,0.00587146,-0.000420007,-0.77506,0.00406156,0.0118553,608,1233,-18.7817,-2.2938
-609,-209,-18.7914,2.64087,0.000234506,0.00193127,-0.00153989,0.00284102,-0.000675239,-1.03718,0.00215465,0.0138332,615,1233,-18.7914,-2.6409
-602,-209,-18.8001,2.97949,-0.00105388,0.000805487,-0.000627559,0.000997473,-0.00124587,-1.27391,0.00129784,0.016053,622,1233,-18.8001,-2.97953
-595,-209,-18.7961,3.30725,-0.000665536,-0.000174524,-0.000693436,0.000315584,-0.00115564,-0.955534,0.000894379,0.0123042,629,1233,-18.7962,-3.30722
-588,-209,-18.7775,3.67065,0.000464803,-0.00125887,-0.0009789,0.000907194,-0.00170126,-0.424455,0.00152907,0.0140953,636,1233,-18.7775,-3.67064
-581,-209,-18.6154,4.06152,0.00188487,-0.00189808,-0.00113206,0.00219776,-0.00221097,-0.26966,0.00254538,0.0305546,643,1233,-18.6154,-4.06158
-574,-209,-18.835,4.33105,0.00295593,-0.00216737,-0.00103625,0.00315759,-0.00236903,-0.192201,0.0032016,0.0372759,650,1233,-18.835,-4.3311
-567,-209,-19.0283,4.43567,0,0,0,0,0,0,0,-1,657,1233,-19.0283,-4.43573
-560,-209,-13.9294,4.16626,0,0,0,0,0,0,0,-1,664,1233,-13.9294,-4.16621
-553,-209,-22.7542,0.748779,0,0,0,0,0,0,0,-1,671,1233,-22.7541,-0.748796
-546,-209,-26.2794,1.53918,0,0,0,0,0,0,0,-1,678,1233,-26.2794,-1.53914
-539,-209,-25.8524,1.1521,0.00424236,-0.00365412,-0.0021072,0.00476948,-0.00418124,-0.245124,0.00517142,0.0446108,685,1233,-25.8523,-1.15207
-532,-209,-25.4387,0.717896,0.00370394,-0.00425096,-0.00259033,0.00447306,-0.00502008,-0.288628,0.0054839,0.036238,692,1233,-25.4387,-0.717835
-525,-209,-25.5439,0.819702,0.00284124,-0.00493754,-0.00312398,0.0039405,-0.0060368,-0.338347,0.00580262,0.0358606,699,1233,-25.5439,-0.819761
-518,-209,-25.5317,0.560547,0.000851168,-0.00554479,-0.00367902,0.00252785,-0.00722147,-0.427617,0.00584216,0.045644,706,1233,-25.5316,-0.560557
-511,-209,-25.6542,0.639771,-0.00216454,-0.00538242,-0.0036415,0.000207627,-0.00775459,-0.577377,0.00524031,0.0472602,713,1233,-25.6542,-0.6398
-504,-209,0,0,0,0,0,0,0,0,0,-1,720,1233,0,0
-497,-209,0,0,0,0,0,0,0,0,0,-1,727,1233,0,0
-490,-209,0,0,0,0,0,0,0,0,0,-1,734,1233,0,0
-483,-209,0,0,0,0,0,0,0,0,0,-1,741,1233,0,0
-476,-209,0,0,0,0,0,0,0,0,0,-1,748,1233,0,0
-469,-209,0,0,0,0,0,0,0,0,0,-1,755,1233,0,0
-462,-209,0,0,0,0,0,0,0,0,0,-1,762,1233,0,0
-455,-209,0,0,0,0,0,0,0,0,0,-1,769,1233,0,0
-448,-209,0,0,0,0,0,0,0,0,0,-1,776,1233,0,0
-441,-209,0,0,0,0,0,0,0,0,0,-1,783,1233,0,0
-434,-209,0,0,0,0,0,0,0,0,0,-1,790,1233,0,0
-427,-209,0,0,0,0,0,0,0,0,0,-1,797,1233,0,0
-420,-209,0,0,0,0,0,0,0,0,0,-1,804,1233,0,0
-413,-209,0,0,0,0,0,0,0,0,0,-1,811,1233,0,0
-406,-209,0,0,0,0,0,0,0,0,0,-1,818,1233,0,0
-399,-209,0,0,0,0,0,0,0,0,0,-1,825,1233,0,0
-392,-209,0,0,0,0,0,0,0,0,0,-1,832,1233,0,0
-385,-209,0,0,0,0,0,0,0,0,0,-1,839,1233,0,0
-378,-209,0,0,0,0,0,0,0,0,0,-1,846,1233,0,0
-371,-209,0,0,0,0,0,0,0,0,0,-1,853,1233,0,0
-364,-209,0,0,0,0,0,0,0,0,0,-1,860,1233,0,0
-357,-209,0,0,0,0,0,0,0,0,0,-1,867,1233,0,0
-350,-209,0,0,0,0,0,0,0,0,0,-1,874,1233,0,0
-343,-209,0,0,0,0,0,0,0,0,0,-1,881,1233,0,0
-336,-209,0,0,0,0,0,0,0,0,0,-1,888,1233,0,0
-329,-209,0,0,0,0,0,0,0,0,0,-1,895,1233,0,0
-322,-209,0,0,0,0,0,0,0,0,0,-1,902,1233,0,0
-315,-209,0,0,0,0,0,0,0,0,0,-1,909,1233,0,0
-308,-209,0,0,0,0,0,0,0,0,0,-1,916,1233,0,0
-301,-209,0,0,0,0,0,0,0,0,0,-1,923,1233,0,0
-294,-209,0,0,0,0,0,0,0,0,0,-1,930,1233,0,0
-287,-209,0,0,0,0,0,0,0,0,0,-1,937,1233,0,0
-280,-209,0,0,0,0,0,0,0,0,0,-1,944,1233,0,0
-273,-209,0,0,0,0,0,0,0,0,0,-1,951,1233,0,0
-266,-209,0,0,0,0,0,0,0,0,0,-1,958,1233,0,0
-259,-209,0,0,0,0,0,0,0,0,0,-1,965,1233,0,0
-252,-209,0,0,0,0,0,0,0,0,0,-1,972,1233,0,0
-245,-209,0,0,0,0,0,0,0,0,0,-1,979,1233,0,0
-238,-209,0,0,0,0,0,0,0,0,0,-1,986,1233,0,0
-231,-209,0,0,0,0,0,0,0,0,0,-1,993,1233,0,0
-224,-209,0,0,0,0,0,0,0,0,0,-1,1000,1233,0,0
-217,-209,0,0,0,0,0,0,0,0,0,-1,1007,1233,0,0
-210,-209,0,0,0,0,0,0,0,0,0,-1,1014,1233,0,0
-203,-209,0,0,0,0,0,0,0,0,0,-1,1021,1233,0,0
-196,-209,0,0,0,0,0,0,0,0,0,-1,1028,1233,0,0
-189,-209,0,0,0,0,0,0,0,0,0,-1,1035,1233,0,0
-182,-209,0,0,0,0,0,0,0,0,0,-1,1042,1233,0,0
-175,-209,0,0,0,0,0,0,0,0,0,-1,1049,1233,0,0
-168,-209,0,0,0,0,0,0,0,0,0,-1,1056,1233,0,0
-161,-209,0,0,0,0,0,0,0,0,0,-1,1063,1233,0,0
-154,-209,0,0,0,0,0,0,0,0,0,-1,1070,1233,0,0
-147,-209,0,0,0,0,0,0,0,0,0,-1,1077,1233,0,0
-140,-209,0,0,0,0,0,0,0,0,0,-1,1084,1233,0,0
-133,-209,0,0,0,0,0,0,0,0,0,-1,1091,1233,0,0
-126,-209,0,0,0,0,0,0,0,0,0,-1,1098,1233,0,0
-119,-209,0,0,0,0,0,0,0,0,0,-1,1105,1233,0,0
-112,-209,0,0,0,0,0,0,0,0,0,-1,1112,1233,0,0
-105,-209,0,0,0,0,0,0,0,0,0,-1,1119,1233,0,0
-98,-209,0,0,0,0,0,0,0,0,0,-1,1126,1233,0,0
-91,-209,0,0,0,0,0,0,0,0,0,-1,1133,1233,0,0
-84,-209,0,0,0,0,0,0,0,0,0,-1,1140,1233,0,0
-77,-209,0,0,0,0,0,0,0,0,0,-1,1147,1233,0,0
-70,-209,0,0,0,0,0,0,0,0,0,-1,1154,1233,0,0
-63,-209,0,0,0,0,0,0,0,0,0,-1,1161,1233,0,0
-56,-209,0,0,0,0,0,0,0,0,0,-1,1168,1233,0,0
-49,-209,0,0,0,0,0,0,0,0,0,-1,1175,1233,0,0
-42,-209,0,0,0,0,0,0,0,0,0,-1,1182,1233,0,0
-35,-209,0,0,0,0,0,0,0,0,0,-1,1189,1233,0,0
-28,-209,0,0,0,0,0,0,0,0,0,-1,1196,1233,0,0
-21,-209,0,0,0,0,0,0,0,0,0,-1,1203,1233,0,0
-14,-209,0,0,0,0,0,0,0,0,0,-1,1210,1233,0,0
-7,-209,0,0,0,0,0,0,0,0,0,-1,1217,1233,0,0
0,-209,0,0,0,0,0,0,0,0,0,-1,1224,1233,0,0
7,-209,0,0,0,0,0,0,0,0,0,-1,1231,1233,0,0
14,-209,0,0,0,0,0,0,0,0,0,-1,1238,1233,0,0
21,-209,0,0,0,0,0,0,0,0,0,-1,1245,1233,0,0
28,-209,0,0,0,0,0,0,0,0,0,-1,1252,1233,0,0
35,-209,0,0,0,0,0,0,0,0,0,-1,1259,1233,0,0
42,-209,0,0,0,0,0,0,0,0,0,-1,1266,1233,0,0
49,-209,0,0,0,0,0,0,0,0,0,-1,1273,1233,0,0
56,-209,0,0,0,0,0,0,0,0,0,-1,1280,1233,0,0
63,-209,0,0,0,0,0,0,0,0,0,-1,1287,1233,0,0
70,-209,0,0,0,0,0,0,0,0,0,-1,1294,1233,0,0
77,-209,0,0,0,0,0,0,0,0,0,-1,1301,1233,0,0
84,-209,0,0,0,0,0,0,0,0,0,-1,1308,1233,0,0
91,-209,0,0,0,0,0,0,0,0,0,-1,1315,1233,0,0
98,-209,0,0,0,0,0,0,0,0,0,-1,1322,1233,0,0
105,-209,0,0,0,0,0,0,0,0,0,-1,1329,1233,0,0
112,-209,0,0,0,0,0,0,0,0,0,-1,1336,1233,0,0
119,-209,0,0,0,0,0,0,0,0,0,-1,1343,1233,0,0
126,-209,0,0,0,0,0,0,0,0,0,-1,1350,1233,0,0
133,-209,0,0,0,0,0,0,0,0,0,-1,1357,1233,0,0
140,-209,0,0,0,0,0,0,0,0,0,-1,1364,1233,0,0
147,-209,0,0,0,0,0,0,0,0,0,-1,1371,1233,0,0
154,-209,0,0,0,0,0,0,0,0,0,-1,1378,1233,0,0
161,-209,0,0,0,0,0,0,0,0,0,-1,1385,1233,0,0
168,-209,0,0,0,0,0,0,0,0,0,-1,1392,1233,0,0
175,-209,0,0,0,0,0,0,0,0,0,-1,1399,1233,0,0
182,-209,0,0,0,0,0,0,0,0,0,-1,1406,1233,0,0
189,-209,0,0,0,0,0,0,0,0,0,-1,1413,1233,0,0
196,-209,0,0,0,0,0,0,0,0,0,-1,1420,1233,0,0
203,-209,0,0,0,0,0,0,0,0,0,-1,1427,1233,0,0
210,-209,0,0,0,0,0,0,0,0,0,-1,1434,1233,0,0
217,-209,0,0,0,0,0,0,0,0,0,-1,1441,1233,0,0
224,-209,0,0,0,0,0,0,0,0,0,-1,1448,1233,0,0
231,-209,0,0,0,0,0,0,0,0,0,-1,1455,1233,0,0
238,-209,0,0,0,0,0,0,0,0,0,-1,1462,1233,0,0
245,-209,0,0,0,0,0,0,0,0,0,-1,1469,1233,0,0
252,-209,0,0,0,0,0,0,0,0,0,-1,1476,1233,0,0
259,-209,0,0,0,0,0,0,0,0,0,-1,1483,1233,0,0
266,-209,0,0,0,0,0,0,0,0,0,-1,1490,1233,0,0
273,-209,0,0,0,0,0,0,0,0,0,-1,1497,1233,0,0
280,-209,0,0,0,0,0,0,0,0,0,-1,1504,1233,0,0
287,-209,0,0,0,0,0,0,0,0,0,-1,1511,1233,0,0
294,-209,0,0,0,0,0,0,0,0,0,-1,1518,1233,0,0
301,-209,0,0,0,0,0,0,0,0,0,-1,1525,1233,0,0
308,-209,0,0,0,0,0,0,0,0,0,-1,1532,1233,0,0
315,-209,0,0,0,0,0,0,0,0,0,-1,1539,1233,0,0
322,-209,0,0,0,0,0,0,0,0,0,-1,1546,1233,0,0
329,-209,0,0,0,0,0,0,0,0,0,-1,1553,1233,0,0
336,-209,0,0,0,0,0,0,0,0,0,-1,1560,1233,0,0
343,-209,0,0,0,0,0,0,0,0,0,-1,1567,1233,0,0
350,-209,0,0,0,0,0,0,0,0,0,-1,1574,1233,0,0
357,-209,0,0,0,0,0,0,0,0,0,-1,1581,1233,0,0
364,-209,0,0,0,0,0,0,0,0,0,-1,1588,1233,0,0
371,-209,0,0,0,0,0,0,0,0,0,-1,1595,1233,0,0
378,-209,0,0,0,0,0,0,0,0,0,-1,1602,1233,0,0
385,-209,0,0,0,0,0,0,0,0,0,-1,1609,1233,0,0
392,-209,0,0,0,0,0,0,0,0,0,-1,1616,1233,0,0
399,-209,0,0,0,0,0,0,0,0,0,-1,1623,1233,0,0
406,-209,0,0,0,0,0,0,0,0,0,-1,1630,1233,0,0
413,-209,0,0,0,0,0,0,0,0,0,-1,1637,1233,0,0
420,-209,0,0,0,0,0,0,0,0,0,-1,1644,1233,0,0
427,-209,0,0,0,0,0,0,0,0,0,-1,1651,1233,0,0
434,-209,0,0,0,0,0,0,0,0,0,-1,1658,1233,0,0
441,-209,0,0,0,0,0,0,0,0,0,-1,1665,1233,0,0
448,-209,0,0,0,0,0,0,0,0,0,-1,1672,1233,0,0
455,-209,0,0,0,0,0,0,0,0,0,-1,1679,1233,0,0
462,-209,0,0,0,0,0,0,0,0,0,-1,1686,1233,0,0
469,-209,0,0,0,0,0,0,0,0,0,-1,1693,1233,0,0
476,-209,0,0,0,0,0,0,0,0,0,-1,1700,1233,0,0
483,-209,0,0,0,0,0,0,0,0,0,-1,1707,1233,0,0
490,-209,0,0,0,0,0,0,0,0,0,-1,1714,1233,0,0
497,-209,0,0,0,0,0,0,0,0,0,-1,1721,1233,0,0
504,-209,0,0,0,0,0,0,0,0,0,-1,1728,1233,0,0
511,-209,0,0,0,0,0,0,0,0,0,-1,1735,1233,0,0
518,-209,0,0,0,0,0,0,0,0,0,-1,1742,1233,0,0
525,-209,0,0,0,0,0,0,0,0,0,-1,1749,1233,0,0
532,-209,0,0,0,0,0,0,0,0,0,-1,1756,1233,0,0
539,-209,0,0,0,0,0,0,0,0,0,-1,1763,1233,0,0
546,-209,0,0,0,0,0,0,0,0,0,-1,1770,1233,0,0
553,-209,0,0,0,0,0,0,0,0,0,-1,1777,1233,0,0
560,-209,0,0,0,0,0,0,0,0,0,-1,1784,1233,0,0
567,-209,0,0,0,0,0,0,0,0,0,-1,1791,1233,0,0
574,-209,0,0,0,0,0,0,0,0,0,-1,1798,1233,0,0
581,-209,0,0,0,0,0,0,0,0,0,-1,1805,1233,0,0
588,-209,0,0,0,0,0,0,0,0,0,-1,1812,1233,0,0
595,-209,0,0,0,0,0,0,0,0,0,-1,1819,1233,0,0
602,-209,0,0,0,0,0,0,0,0,0,-1,1826,1233,0,0
609,-209,0,0,0,0,0,0,0,0,0,-1,1833,1233,0,0
616,-209,0,0,0,0,0,0,0,0,0,-1,1840,1233,0,0
623,-209,35.4193,2.28833,0.000107996,0.00395071,0.000373667,0.00398671,7.19978e-05,1.47475,0.00263413,0.0323205,1847,1233,35.4193,-2.2883
630,-209,35.5084,2.30591,-0.0019405,0.0032209,0.00159548,0.00367427,-0.00239387,1.29394,0.00352934,0.0350189,1854,1233,35.5085,-2.30591
637,-209,35.6057,2.45654,-0.00308128,0.00166684,0.00208395,0.00245174,-0.00386618,1.21059,0.003678,0.0340247,1861,1233,35.6057,-2.45658
644,-209,35.5486,2.49207,-0.00324376,-0.000105889,0.00228342,0.00109565,-0.0044453,1.08641,0.00338833,0.0300055,1868,1233,35.5486,-2.49206
651,-209,35.5513,2.47852,-0.00227539,-0.00141031,0.00195833,0.000162677,-0.00384838,0.894088,0.00262149,0.0244608,1875,1233,35.5512,-2.47846
658,-209,35.5793,2.50024,-0.000967434,-0.0022866,0.00149309,5.27012e-06,-0.0032593,0.577409,0.00217463,0.0222576,1882,1233,35.5794,-2.50025
665,-209,35.803,2.74231,5.92609e-05,-0.00266112,0.00113516,0.000470707,-0.00307257,0.34773,0.00222196,0.0373575,1889,1233,35.803,-2.74236
672,-209,35.7463,2.48352,0,0,0,0,0,0,0,-1,1896,1233,35.7463,-2.48355
679,-209,35.9739,2.62354,0,0,0,0,0,0,0,-1,1903,1233,35.9738,-2.62351
686,-209,33.3711,3.89856,0,0,0,0,0,0,0,-1,1910,1233,33.3711,-3.89855
693,-209,29.0774,7.64221,0,0,0,0,0,0,0,-1,1917,1233,29.0774,-7.64224
700,-209,29.1448,7.13672,0.001793,-0.00303336,0.000469466,0.00183824,-0.0030786,0.0960711,0.00286869,0.0382059,1924,1233,29.1448,-7.13668
707,-209,29.2391,6.66174,0.00189135,-0.00305245,0.000312054,0.00191097,-0.00307207,0.0627881,0.00290287,0.0296512,1931,1233,29.2391,-6.6617
714,-209,29.2617,6.35901,0.00127181,-0.00236663,0.000399806,0.00131523,-0.00241004,0.108164,0.00218153,0.0146359,1938,1233,29.2617,-6.35904
721,-209,29.2789,6.04285,-0.000263244,-0.00151811,0.00100425,0.000293464,-0.00207482,0.506178,0.00149069,0.0123248,1945,1233,29.279,-6.0429
728,-209,29.293,5.75476,-0.000728955,-0.00109418,0.00151531,0.000614707,-0.00243784,0.725431,0.00186423,0.012145,1952,1233,29.293,-5.7548
735,-209,29.2733,5.47266,-0.000587566,-0.000389556,0.00193732,0.00145129,-0.00242841,0.810928,0.0022635,0.0132625,1959,1233,29.2733,-5.4727
742,-209,29.2528,5.16895,0.000136829,2.20759e-05,0.00216278,0.002243,-0.00208409,0.772137,0.00249881,0.0115877,1966,1233,29.2528,-5.16895
749,-209,29.2289,4.86829,0.00135652,0.000461229,0.00240755,0.00335769,-0.00153994,0.693481,0.00289184,0.0104952,1973,1233,29.2289,-4.86823
756,-209,29.2296,4.57922,0.00328526,0.000999596,0.00260863,0.00499041,-0.000705556,0.578943,0.00358534,0.0108766,1980,1233,29.2296,-4.57918
763,-209,29.2286,4.33179,0.00617406,0.00162716,0.00281489,0.00751892,0.000282292,0.445704,0.00492122,0.0197776,1987,1233,29.2287,-4.33173
770,-209,29.314,4.16296,0.0102006,0.00269971,0.00313562,0.0113387,0.00156161,0.348173,0.00709612,0.0490075,1994,1233,29.314,-4.16298
777,-209,29.4442,3.97546,0,0,0,0,0,0,0,-1,2001,1233,29.4442,-3.97547
784,-209,34.295,2.21448,0,0,0,0,0,0,0,-1,2008,1233,34.2951,-2.21446
791,-209,34.4851,3.04919,0,0,0,0,0,0,0,-1,2015,1233,34.4852,-3.04918
798,-209,34.6123,3.95276,0,0,0,0,0,0,0,-1,2022,1233,34.6124,-3.95278
805,-209,0,0,0,0,0,0,0,0,0,-1,2029,1233,0,0
812,-209,0,0,0,0,0,0,0,0,0,-1,2036,1233,0,0
-700,-216,0,0,0,0,0,0,0,0,0,-1,524,1240,0,0
-693,-216,0,0,0,0,0,0,0,0,0,-1,531,1240,0,0
-686,-216,0,0,0,0,0,0,0,0,0,-1,538,1240,0,0
-679,-216,-19.7915,3.13367,0,0,0,0,0,0,0,-1,545,1240,-19.7915,-3.13365
-672,-216,-20.3737,2.57056,0,0,0,0,0,0,0,-1,552,1240,-20.3737,-2.57057
-665,-216,-19.9266,2.10925,0,0,0,0,0,0,0,-1,559,1240,-19.9266,-2.1093
-658,-216,-17.6124,1.0033,0,0,0,0,0,0,0,-1,566,1240,-17.6124,-1.00333
-651,-216,-18.6517,0.335327,0,0,0,0,0,0,0,-1,573,1240,-18.6517,-0.33537
-644,-216,-18.7947,0.602783,0.0157511,0.00530125,-0.0165317,0.0278639,-0.00681153,-0.632338,0.0212141,0.0475724,580,1240,-18.7947,-0.602749
-637,-216,-18.9499,0.938232,0.0107844,0.00504165,-0.0118245,0.0200812,-0.0042551,-0.666287,0.0150082,0.0439404,587,1240,-18.9499,-0.93822
-630,-216,-18.4234,1.41833,0.00692777,0.00446652,-0.00811093,0.0139009,-0.00250661,-0.71011,0.0102059,0.0309386,594,1240,-18.4234,-1.41834
-623,-216,-18.4058,1.94983,0.00442645,0.00378286,-0.00531695,0.00943133,-0.00122202,-0.755174,0.00673197,0.0134395,601,1240,-18.4058,-1.94977
-616,-216,-18.4427,2.30603,0.00211138,0.00300977,-0.00287726,0.00547269,-0.000351537,-0.862832,0.0037711,0.014503,608,1240,-18.4427,-2.30603
-609,-216,-18.4537,2.64197,-0.000144552,0.00213017,-0.00117247,0.0026263,-0.000640679,-1.1705,0.00199895,0.0138934,615,1240,-18.4537,-2.64192
-602,-216,-18.4496,2.95691,-0.00111476,0.000906043,-0.000172293,0.000920628,-0.00112934,-1.48635,0.00118559,0.0130421,622,1240,-18.4496,-2.95691
-595,-216,-18.4424,3.27417,-0.000232942,-0.000195237,-0.000231829,1.85048e-05,-0.000446684,-0.825969,0.000304145,0.0176165,629,1240,-18.4424,-3.27416
-588,-216,-18.4255,3.65405,0.00118786,-0.00131505,-0.000469832,0.00127315,-0.00140033,-0.179573,0.00154412,0.019919,636,1240,-18.4256,-3.6541
-581,-216,-18.3969,4.07007,0.0027569,-0.00192669,-0.000554122,0.00282156,-0.00199135,-0.116175,0.00279248,0.0231749,643,1240,-18.3969,-4.07013
-574,-216,-18.3444,4.65735,0.00393551,-0.00210272,-0.000429073,0.00396584,-0.00213306,-0.0705868,0.00357381,0.0382742,650,1240,-18.3444,-4.65739
-567,-216,-18.2896,5.13123,0,0,0,0,0,0,0,-1,657,1240,-18.2896,-5.13125
-560,-216,-16.5087,5.4574,0,0,0,0,0,0,0,-1,664,1240,-16.5087,-5.45746
-553,-216,-16.2355,1.22351,0,0,0,0,0,0,0,-1,671,1240,-16.2356,-1.22356
-546,-216,-26.466,1.53979,0,0,0,0,0,0,0,-1,678,1240,-26.466,-1.53981
-539,-216,-25.8973,1.16809,0,0,0,0,0,0,0,-1,685,1240,-25.8973,-1.16811
-532,-216,-25.3286,0.796387,0,0,0,0,0,0,0,-1,692,1240,-25.3286,-0.796412
-525,-216,-25.3875,0.700073,0.00270028,-0.00639856,-0.00306959,0.00363899,-0.00733727,-0.296779,0.00645594,0.0452238,699,1240,-25.3874,-0.700099
-518,-216,-25.425,0.697632,0.000659349,-0.00798203,-0.0038325,0.00211416,-0.00943684,-0.362796,0.00710163,0.0467795,706,1240,-25.425,-0.697683
-511,-216,-25.6233,0.657959,-0.00258391,-0.00949392,-0.00432575,-0.000502747,-0.0115751,-0.448422,0.00755472,0.0467424,713,1240,-25.6233,-0.657927
-504,-216,-25.3898,0.415894,-0.00582813,-0.00775864,-0.00201138,-0.00456239,-0.00902439,-0.561681,0.00521034,0.0420356,720,1240,-25.3898,-0.415861
-497,-216,0,0,0,0,0,0,0,0,0,-1,727,1240,0,0
-490,-216,0,0,0,0,0,0,0,0,0,-1,734,1240,0,0
-483,-216,0,0,0,0,0,0,0,0,0,-1,741,1240,0,0
-476,-216,0,0,0,0,0,0,0,0,0,-1,748,1240,0,0
-469,-216,0,0,0,0,0,0,0,0,0,-1,755,1240,0,0
-462,-216,0,0,0,0,0,0,0,0,0,-1,762,1240,0,0
-455,-216,0,0,0,0,0,0,0,0,0,-1,769,1240,0,0
-448,-216,0,0,0,0,0,0,0,0,0,-1,776,1240,0,0
-441,-216,0,0,0,0,0,0,0,0,0,-1,783,1240,0,0
-434,-216,0,0,0,0,0,0,0,0,0,-1,790,1240,0,0
-427,-216,0,0,0,0,0,0,0,0,0,-1,797,1240,0,0
-420,-216,0,0,0,0,0,0,0,0,0,-1,804,1240,0,0
-413,-216,0,0,0,0,0,0,0,0,0,-1,811,1240,0,0
-406,-216,0,0,0,0,0,0,0,0,0,-1,818,1240,0,0
-399,-216,0,0,0,0,0,0,0,0,0,-1,825,1240,0,0
-392,-216,0,0,0,0,0,0,0,0,0,-1,832,1240,0,0
-385,-216,0,0,0,0,0,0,0,0,0,-1,839,1240,0,0
-378,-216,0,0,0,0,0,0,0,0,0,-1,846,1240,0,0
-371,-216,0,0,0,0,0,0,0,0,0,-1,853,1240,0,0
-364,-216,0,0,0,0,0,0,0,0,0,-1,860,1240,0,0
-357,-216,0,0,0,0,0,0,0,0,0,-1,867,1240,0,0
-350,-216,0,0,0,0,0,0,0,0,0,-1,874,1240,0,0
-343,-216,0,0,0,0,0,0,0,0,0,-1,881,1240,0,0
-336,-216,0,0,0,0,0,0,0,0,0,-1,888,1240,0,0
-329,-216,0,0,0,0,0,0,0,0,0,-1,895,1240,0,0
-322,-216,0,0,0,0,0,0,0,0,0,-1,902,1240,0,0
-315,-216,0,0,0,0,0,0,0,0,0,-1,909,1240,0,0
-308,-216,0,0,0,0,0,0,0,0,0,-1,916,1240,0,0
-301,-216,0,0,0,0,0,0,0,0,0,-1,923,1240,0,0
-294,-216,0,0,0,0,0,0,0,0,0,-1,930,1240,0,0
-287,-216,0,0,0,0,0,0,0,0,0,-1,937,1240,0,0
-280,-216,0,0,0,0,0,0,0,0,0,-1,944,1240,0,0
-273,-216,0,0,0,0,0,0,0,0,0,-1,951,1240,0,0
-266,-216,0,0,0,0,0,0,0,0,0,-1,958,1240,0,0
-259,-216,0,0,0,0,0,0,0,0,0,-1,965,1240,0,0
-252,-216,0,0,0,0,0,0,0,0,0,-1,972,1240,0,0
-245,-216,0,0,0,0,0,0,0,0,0,-1,979,1240,0,0
-238,-216,0,0,0,0,0,0,0,0,0,-1,986,1240,0,0
-231,-216,0,0,0,0,0,0,0,0,0,-1,993,1240,0,0
-224,-216,0,0,0,0,0,0,0,0,0,-1,1000,1240,0,0
-217,-216,0,0,0,0,0,0,0,0,0,-1,1007,1240,0,0
-210,-216,0,0,0,0,0,0,0,0,0,-1,1014,1240,0,0
-203,-216,0,0,0,0,0,0,0,0,0,-1,1021,1240,0,0
-196,-216,0,0,0,0,0,0,0,0,0,-1,1028,1240,0,0
-189,-216,0,0,0,0,0,0,0,0,0,-1,1035,1240,0,0
-182,-216,0,0,0,0,0,0,0,0,0,-1,1042,1240,0,0
-175,-216,0,0,0,0,0,0,0,0,0,-1,1049,1240,0,0
-168,-216,0,0,0,0,0,0,0,0,0,-1,1056,1240,0,0
-161,-216,0,0,0,0,0,0,0,0,0,-1,1063,1240,0,0
-154,-216,0,0,0,0,0,0,0,0,0,-1,1070,1240,0,0
-147,-216,0,0,0,0,0,0,0,0,0,-1,1077,1240,0,0
-140,-216,0,0,0,0,0,0,0,0,0,-1,1084,1240,0,0
-133,-216,0,0,0,0,0,0,0,0,0,-1,1091,1240,0,0
-126,-216,0,0,0,0,0,0,0,0,0,-1,1098,1240,0,0
-119,-216,0,0,0,0,0,0,0,0,0,-1,1105,1240,0,0
-112,-216,0,0,0,0,0,0,0,0,0,-1,1112,1240,0,0
-105,-216,0,0,0,0,0,0,0,0,0,-1,1119,1240,0,0
-98,-216,0,0,0,0,0,0,0,0,0,-1,1126,1240,0,0
-91,-216,0,0,0,0,0,0,0,0,0,-1,1133,1240,0,0
-84,-216,0,0,0,0,0,0,0,0,0,-1,1140,1240,0,0
-77,-216,0,0,0,0,0,0,0,0,0,-1,1147,1240,0,0
-70,-216,0,0,0,0,0,0,0,0,0,-1,1154,1240,0,0
-63,-216,0,0,0,0,0,0,0,0,0,-1,1161,1240,0,0
-56,-216,0,0,0,0,0,0,0,0,0,-1,1168,1240,0,0
-49,-216,0,0,0,0,0,0,0,0,0,-1,1175,1240,0,0
-42,-216,0,0,0,0,0,0,0,0,0,-1,1182,1240,0,0
-35,-216,0,0,0,0,0,0,0,0,0,-1,1189,1240,0,0
-28,-216,0,0,0,0,0,0,0,0,0,-1,1196,1240,0,0
-21,-216,0,0,0,0,0,0,0,0,0,-1,1203,1240,0,0
-14,-216,0,0,0,0,0,0,0,0,0,-1,1210,1240,0,0
-7,-216,0,0,0,0,0,0,0,0,0,-1,1217,1240,0,0
0,-216,0,0,0,0,0,0,0,0,0,-1,1224,1240,0,0
7,-216,0,0,0,0,0,0,0,0,0,-1,1231,1240,0,0
14,-216,0,0,0,0,0,0,0,0,0,-1,1238,1240,0,0
21,-216,0,0,0,0,0,0,0,0,0,-1,1245,1240,0,0
28,-216,0,0,0,0,0,0,0,0,0,-1,1252,1240,0,0
35,-216,0,0,0,0,0,0,0,0,0,-1,1259,1240,0,0
42,-216,0,0,0,0,0,0,0,0,0,-1,1266,1240,0,0
49,-216,0,0,0,0,0,0,0,0,0,-1,1273,1240,0,0
56,-216,0,0,0,0,0,0,0,0,0,-1,1280,1240,0,0
63,-216,0,0,0,0,0,0,0,0,0,-1,1287,1240,0,0
70,-216,0,0,0,0,0,0,0,0,0,-1,1294,1240,0,0
77,-216,0,0,0,0,0,0,0,0,0,-1,1301,1240,0,0
84,-216,0,0,0,0,0,0,0,0,0,-1,1308,1240,0,0
91,-216,0,0,0,0,0,0,0,0,0,-1,1315,1240,0,0
98,-216,0,0,0,0,0,0,0,0,0,-1,1322,1240,0,0
105,-216,0,0,0,0,0,0,0,0,0,-1,1329,1240,0,0
112,-216,0,0,0,0,0,0,0,0,0,-1,1336,1240,0,0
119,-216,0,0,0,0,0,0,0,0,0,-1,1343,1240,0,0
126,-216,0,0,0,0,0,0,0,0,0,-1,1350,1240,0,0
133,-216,0,0,0,0,0,0,0,0,0,-1,1357,1240,0,0
140,-216,0,0,0,0,0,0,0,0,0,-1,1364,1240,0,0
147,-216,0,0,0,0,0,0,0,0,0,-1,1371,1240,0,0
154,-216,0,0,0,0,0,0,0,0,0,-1,1378,1240,0,0
161,-216,0,0,0,0,0,0,0,0,0,-1,1385,1240,0,0
168,-216,0,0,0,0,0,0,0,0,0,-1,1392,1240,0,0
175,-216,0,0,0,0,0,0,0,0,0,-1,1399,1240,0,0
182,-216,0,0,0,0,0,0,0,0,0,-1,1406,1240,0,0
189,-216,0,0,0,0,0,0,0,0,0,-1,1413,1240,0,0
196,-216,0,0,0,0,0,0,0,0,0,-1,1420,1240,0,0
203,-216,0,0,0,0,0,0,0,0,0,-1,1427,1240,0,0
210,-216,0,0,0,0,0,0,0,0,0,-1,1434,1240,0,0
217,-216,0,0,0,0,0,0,0,0,0,-1,1441,1240,0,0
224,-216,0,0,0,0,0,0,0,0,0,-1,1448,1240,0,0
231,-216,0,0,0,0,0,0,0,0,0,-1,1455,1240,0,0
238,-216,0,0,0,0,0,0,0,0,0,-1,1462,1240,0,0
245,-216,0,0,0,0,0,0,0,0,0,-1,1469,1240,0,0
252,-216,0,0,0,0,0,0,0,0,0,-1,1476,1240,0,0
259,-216,0,0,0,0,0,0,0,0,0,-1,1483,1240,0,0
266,-216,0,0,0,0,0,0,0,0,0,-1,1490,1240,0,0
273,-216,0,0,0,0,0,0,0,0,0,-1,1497,1240,0,0
280,-216,0,0,0,0,0,0,0,0,0,-1,1504,1240,0,0
287,-216,0,0,0,0,0,0,0,0,0,-1,1511,1240,0,0
294,-216,0,0,0,0,0,0,0,0,0,-1,1518,1240,0,0
301,-216,0,0,0,0,0,0,0,0,0,-1,1525,1240,0,0
308,-216,0,0,0,0,0,0,0,0,0,-1,1532,1240,0,0
315,-216,0,0,0,0,0,0,0,0,0,-1,1539,1240,0,0
322,-216,0,0,0,0,0,0,0,0,0,-1,1546,1240,0,0
329,-216,0,0,0,0,0,0,0,0,0,-1,1553,1240,0,0
336,-216,0,0,0,0,0,0,0,0,0,-1,1560,1240,0,0
343,-216,0,0,0,0,0,0,0,0,0,-1,1567,1240,0,0
350,-216,0,0,0,0,0,0,0,0,0,-1,1574,1240,0,0
357,-216,0,0,0,0,0,0,0,0,0,-1,1581,1240,0,0
364,-216,0,0,0,0,0,0,0,0,0,-1,1588,1240,0,0
371,-216,0,0,0,0,0,0,0,0,0,-1,1595,1240,0,0
378,-216,0,0,0,0,0,0,0,0,0,-1,1602,1240,0,0
385,-216,0,0,0,0,0,0,0,0,0,-1,1609,1240,0,0
392,-216,0,0,0,0,0,0,0,0,0,-1,1616,1240,0,0
399,-216,0,0,0,0,0,0,0,0,0,-1,1623,1240,0,0
406,-216,0,0,0,0,0,0,0,0,0,-1,1630,1240,0,0
413,-216,0,0,0,0,0,0,0,0,0,-1,1637,1240,0,0
420,-216,0,0,0,0,0,0,0,0,0,-1,1644,1240,0,0
427,-216,0,0,0,0,0,0,0,0,0,-1,1651,1240,0,0
434,-216,0,0,0,0,0,0,0,0,0,-1,1658,1240,0,0
441,-216,0,0,0,0,0,0,0,0,0,-1,1665,1240,0,0
448,-216,0,0,0,0,0,0,0,0,0,-1,1672,1240,0,0
455,-216,0,0,0,0,0,0,0,0,0,-1,1679,1240,0,0
462,-216,0,0,0,0,0,0,0,0,0,-1,1686,1240,0,0
469,-216,0,0,0,0,0,0,0,0,0,-1,1693,1240,0,0
476,-216,0,0,0,0,0,0,0,0,0,-1,1700,1240,0,0
483,-216,0,0,0,0,0,0,0,0,0,-1,1707,1240,0,0
490,-216,0,0,0,0,0,0,0,0,0,-1,1714,1240,0,0
497,-216,0,0,0,0,0,0,0,0,0,-1,1721,1240,0,0
504,-216,0,0,0,0,0,0,0,0,0,-1,1728,1240,0,0
511,-216,0,0,0,0,0,0,0,0,0,-1,1735,1240,0,0
518,-216,0,0,0,0,0,0,0,0,0,-1,1742,1240,0,0
525,-216,0,0,0,0,0,0,0,0,0,-1,1749,1240,0,0
532,-216,0,0,0,0,0,0,0,0,0,-1,1756,1240,0,0
539,-216,0,0,0,0,0,0,0,0,0,-1,1763,1240,0,0
546,-216,0,0,0,0,0,0,0,0,0,-1,1770,1240,0,0
553,-216,0,0,0,0,0,0,0,0,0,-1,1777,1240,0,0
560,-216,0,0,0,0,0,0,0,0,0,-1,1784,1240,0,0
567,-216,0,0,0,0,0,0,0,0,0,-1,1791,1240,0,0
574,-216,0,0,0,0,0,0,0,0,0,-1,1798,1240,0,0
581,-216,0,0,0,0,0,0,0,0,0,-1,1805,1240,0,0
588,-216,0,0,0,0,0,0,0,0,0,-1,1812,1240,0,0
595,-216,0,0,0,0,0,0,0,0,0,-1,1819,1240,0,0
602,-216,0,0,0,0,0,0,0,0,0,-1,1826,1240,0,0
609,-216,0,0,0,0,0,0,0,0,0,-1,1833,1240,0,0
616,-216,0,0,0,0,0,0,0,0,0,-1,1840,1240,0,0
623,-216,35.4207,2.1947,0.00323121,0.00410682,-0.00135486,0.00509285,0.00224517,-0.94167,0.00294721,0.0388754,1847,1240,35.4207,-2.19467
630,-216,35.4879,2.31653,-0.00114151,0.00322443,0.000868938,0.00339102,-0.00130809,1.38138,0.00280047,0.0384534,1854,1240,35.4879,-2.31656
637,-216,35.5625,2.45581,-0.00465959,0.00146458,0.00256996,0.00240013,-0.00559514,1.22168,0.00473733,0.031851,1861,1240,35.5625,-2.45585
644,-216,35.5667,2.52856,-0.00628234,-0.000477684,0.00364628,0.00128034,-0.00804036,1.12154,0.00583404,0.0254523,1868,1240,35.5666,-2.52853
651,-216,35.5807,2.55579,-0.00575253,-0.00180342,0.00361944,0.000345033,-0.00790098,1.03511,0.00538602,0.0229663,1875,1240,35.5807,-2.55573
658,-216,35.6539,2.61218,-0.00437368,-0.00264441,0.00315988,-0.000233008,-0.00678509,0.918944,0.00444776,0.0337131,1882,1240,35.6539,-2.61218
665,-216,36.2148,3.15686,-0.00304685,-0.00298641,0.00266907,-0.000347385,-0.00568588,0.791059,0.00368026,0.0468415,1889,1240,36.2148,-3.1569
672,-216,36.6439,3.75903,0,0,0,0,0,0,0,-1,1896,1240,36.644,-3.75909
679,-216,36.9481,4.24976,0,0,0,0,0,0,0,-1,1903,1240,36.9482,-4.24972
686,-216,21.5172,6.19458,0,0,0,0,0,0,0,-1,1910,1240,21.5172,-6.19453
693,-216,29.0499,7.38782,0,0,0,0,0,0,0,-1,1917,1240,29.0499,-7.38785
700,-216,28.9293,7.11316,0.00111193,-0.00333938,0.000975156,0.00131619,-0.00354363,0.206475,0.0029024,0.0339262,1924,1240,28.9293,-7.11319
707,-216,28.9309,6.72656,0.00185736,-0.00323189,0.000487911,0.00190371,-0.00327824,0.0947214,0.00302668,0.0243171,1931,1240,28.931,-6.72656
714,-216,28.9694,6.38416,0.00174037,-0.00218429,0.000264258,0.00175808,-0.00220201,0.06693,0.00229114,0.0131348,1938,1240,28.9694,-6.38411
721,-216,28.985,6.07568,0.00022152,-0.0013007,0.000892305,0.000633225,-0.00171241,0.432289,0.00140122,0.0128917,1945,1240,28.985,-6.07571
728,-216,29.0054,5.76746,-0.000311579,-0.000915423,0.00146806,0.000885279,-0.00211228,0.683982,0.00177832,0.0117097,1952,1240,29.0054,-5.76749
735,-216,29.0122,5.47656,-0.00034104,-0.000415349,0.00198165,0.0016038,-0.00236019,0.776025,0.00230246,0.0114235,1959,1240,29.0123,-5.47652
742,-216,28.972,5.20544,0.000101934,-0.000179466,0.0023797,0.00234509,-0.00242262,0.75587,0.00275276,0.0118775,1966,1240,28.9721,-5.2055
749,-216,28.9479,4.88489,0.00100248,1.86434e-05,0.0028304,0.00338339,-0.00236227,0.699359,0.00333467,0.009799,1973,1240,28.9479,-4.88484
756,-216,28.9186,4.57654,0.00258327,0.000217466,0.00325511,0.00486375,-0.00206301,0.611118,0.0041067,0.010729,1980,1240,28.9186,-4.57649
763,-216,28.9119,4.32922,0.00504195,0.000317277,0.00376797,0.00712689,-0.00176766,0.505397,0.00543712,0.0179752,1987,1240,28.9118,-4.32924
770,-216,28.9626,4.43445,0.00851862,0.000571047,0.00452182,0.0105646,-0.00147495,0.424908,0.0075827,0.0398157,1994,1240,28.9627,-4.43448
777,-216,29.0521,4.52502,0,0,0,0,0,0,0,-1,2001,1240,29.0521,-4.52507
784,-216,34.6017,2.20264,0,0,0,0,0,0,0,-1,2008,1240,34.6017,-2.20259
791,-216,34.4995,2.99756,0,0,0,0,0,0,0,-1,2015,1240,34.4996,-2.9976
798,-216,0,0,0,0,0,0,0,0,0,-1,2022,1240,0,0
805,-216,0,0,0,0,0,0,0,0,0,-1,2029,1240,0,0
812,-216,0,0,0,0,0,0,0,0,0,-1,2036,1240,0,0
-700,-223,0,0,0,0,0,0,0,0,0,-1,524,1247,0,0
-693,-223,0,0,0,0,0,0,0,0,0,-1,531,1247,0,0
-686,-223,0,0,0,0,0,0,0,0,0,-1,538,1247,0,0
-679,-223,0,0,0,0,0,0,0,0,0,-1,545,1247,0,0
-672,-223,-20.3073,2.68079,0.0388592,0.00496099,-0.0437732,0.0688501,-0.0250299,-0.600685,0.0561353,0.0495112,552,1247,-20.3072,-2.68081
-665,-223,-19.8355,2.20105,0.0326061,0.00612007,-0.0366681,0.0583493,-0.0196231,-0.612107,0.0468316,0.0482167,559,1247,-19.8355,-2.20107
-658,-223,-19.33,1.74292,0.0258087,0.00667588,-0.0296748,0.047421,-0.0149364,-0.62947,0.0375952,0.0495191,566,1247,-19.33,-1.74289
-651,-223,-18.918,1.33472,0,0,0,0,0,0,0,-1,573,1247,-18.918,-1.33478
-644,-223,-18.5858,0.625732,0,0,0,0,0,0,0,-1,580,1247,-18.5858,-0.625792
-637,-223,-19.0294,0.93811,0,0,0,0,0,0,0,-1,587,1247,-19.0294,-0.938165
-630,-223,-18.4488,1.58276,0.00499408,0.00526304,-0.00859283,0.0137224,-0.00346532,-0.793223,0.0104959,0.0385323,594,1247,-18.4488,-1.58275
-623,-223,-18.091,1.93176,0.00272287,0.00436902,-0.00558287,0.00918915,-0.00209727,-0.858585,0.00693177,0.0209162,601,1247,-18.091,-1.93179
-616,-223,-18.1121,2.302,0.000644515,0.00337458,-0.00300257,0.00530784,-0.00128875,-0.998743,0.0040373,0.0159124,608,1247,-18.1121,-2.30194
-609,-223,-18.1023,2.63074,-0.00104888,0.00234078,-0.00111931,0.00267704,-0.00138514,-1.27896,0.00238451,0.0123603,615,1247,-18.1023,-2.6307
-602,-223,-18.1042,2.95886,-0.00146128,0.00106531,7.10933e-05,0.00106731,-0.00146328,1.54269,0.00146698,0.0147249,622,1247,-18.1043,-2.95882
-595,-223,-18.1041,3.31812,6.91501e-05,-0.000117296,0.000140817,0.000144805,-0.000192951,0.493009,0.000195663,0.0202667,629,1247,-18.1041,-3.31808
-588,-223,-18.1007,3.69263,0.00186832,-0.00126981,-1.64301e-05,0.00186841,-0.0012699,-0.00523546,0.00182285,0.0226876,636,1247,-18.1007,-3.69264
-581,-223,-18.1098,4.06213,0.00363308,-0.00188661,-3.13276e-05,0.00363326,-0.00188679,-0.00567536,0.00323974,0.0204533,643,1247,-18.1098,-4.06213
-574,-223,-18.0891,4.45178,0.00489369,-0.0020173,0.000135157,0.00489634,-0.00201994,0.0195469,0.00410661,0.0197427,650,1247,-18.0891,-4.4518
-567,-223,-17.8041,4.91467,0.00565432,-0.00206202,0.000256891,0.00566287,-0.00207056,0.0332427,0.00462268,0.0331753,657,1247,-17.8041,-4.91467
-560,-223,-17.629,5.40576,0,0,0,0,0,0,0,-1,664,1247,-17.629,-5.40577
-553,-223,-11.4025,4.14722,0,0,0,0,0,0,0,-1,671,1247,-11.4025,-4.14719
-546,-223,-24.8566,0.168579,0,0,0,0,0,0,0,-1,678,1247,-24.8566,-0.168552
-539,-223,-25.8298,1.20605,0,0,0,0,0,0,0,-1,685,1247,-25.8298,-1.20601
-532,-223,-24.6624,0.659668,0,0,0,0,0,0,0,-1,692,1247,-24.6624,-0.659697
-525,-223,-25.2888,0.593628,0,0,0,0,0,0,0,-1,699,1247,-25.2888,-0.59362
-518,-223,-25.3724,0.572876,0,0,0,0,0,0,0,-1,706,1247,-25.3724,-0.572848
-511,-223,-25.5085,0.601074,-0.00306199,-0.0134878,-0.00439498,-0.00145652,-0.0150933,-0.350236,0.00961352,0.0423245,713,1247,-25.5085,-0.60112
-504,-223,-25.4702,0.480713,-0.00639899,-0.0152322,-0.00339397,-0.00524554,-0.0163856,-0.327606,0.00966212,0.0413844,720,1247,-25.4702,-0.48077
-497,-223,0,0,0,0,0,0,0,0,0,-1,727,1247,0,0
-490,-223,0,0,0,0,0,0,0,0,0,-1,734,1247,0,0
-483,-223,0,0,0,0,0,0,0,0,0,-1,741,1247,0,0
-476,-223,0,0,0,0,0,0,0,0,0,-1,748,1247,0,0
-469,-223,0,0,0,0,0,0,0,0,0,-1,755,1247,0,0
-462,-223,0,0,0,0,0,0,0,0,0,-1,762,1247,0,0
-455,-223,0,0,0,0,0,0,0,0,0,-1,769,1247,0,0
-448,-223,0,0,0,0,0,0,0,0,0,-1,776,1247,0,0
-441,-223,0,0,0,0,0,0,0,0,0,-1,783,1247,0,0
-434,-223,0,0,0,0,0,0,0,0,0,-1,790,1247,0,0
-427,-223,0,0,0,0,0,0,0,0,0,-1,797,1247,0,0
-420,-223,0,0,0,0,0,0,0,0,0,-1,804,1247,0,0
-413,-223,0,0,0,0,0,0,0,0,0,-1,811,1247,0,0
-406,-223,0,0,0,0,0,0,0,0,0,-1,818,1247,0,0
-399,-223,0,0,0,0,0,0,0,0,0,-1,825,1247,0,0
-392,-223,0,0,0,0,0,0,0,0,0,-1,832,1247,0,0
-385,-223,0,0,0,0,0,0,0,0,0,-1,839,1247,0,0
-378,-223,0,0,0,0,0,0,0,0,0,-1,846,1247,0,0
-371,-223,0,0,0,0,0,0,0,0,0,-1,853,1247,0,0
-364,-223,0,0,0,0,0,0,0,0,0,-1,860,1247,0,0
-357,-223,0,0,0,0,0,0,0,0,0,-1,867,1247,0,0
-350,-223,0,0,0,0,0,0,0,0,0,-1,874,1247,0,0
-343,-223,0,0,0,0,0,0,0,0,0,-1,881,1247,0,0
-336,-223,0,0,0,0,0,0,0,0,0,-1,888,1247,0,0
-329,-223,0,0,0,0,0,0,0,0,0,-1,895,1247,0,0
-322,-223,0,0,0,0,0,0,0,0,0,-1,902,1247,0,0
-315,-223,0,0,0,0,0,0,0,0,0,-1,909,1247,0,0
-308,-223,0,0,0,0,0,0,0,0,0,-1,916,1247,0,0
-301,-223,0,0,0,0,0,0,0,0,0,-1,923,1247,0,0
-294,-223,0,0,0,0,0,0,0,0,0,-1,930,1247,0,0
-287,-223,0,0,0,0,0,0,0,0,0,-1,937,1247,0,0
-280,-223,0,0,0,0,0,0,0,0,0,-1,944,1247,0,0
-273,-223,0,0,0,0,0,0,0,0,0,-1,951,1247,0,0
-266,-223,0,0,0,0,0,0,0,0,0,-1,958,1247,0,0
-259,-223,0,0,0,0,0,0,0,0,0,-1,965,1247,0,0
-252,-223,0,0,0,0,0,0,0,0,0,-1,972,1247,0,0
-245,-223,0,0,0,0,0,0,0,0,0,-1,979,1247,0,0
-238,-223,0,0,0,0,0,0,0,0,0,-1,986,1247,0,0
-231,-223,0,0,0,0,0,0,0,0,0,-1,993,1247,0,0
-224,-223,0,0,0,0,0,0,0,0,0,-1,1000,1247,0,0
-217,-223,0,0,0,0,0,0,0,0,0,-1,1007,1247,0,0
-210,-223,0,0,0,0,0,0,0,0,0,-1,1014,1247,0,0
-203,-223,0,0,0,0,0,0,0,0,0,-1,1021,1247,0,0
-196,-223,0,0,0,0,0,0,0,0,0,-1,1028,1247,0,0
-189,-223,0,0,0,0,0,0,0,0,0,-1,1035,1247,0,0
-182,-223,0,0,0,0,0,0,0,0,0,-1,1042,1247,0,0
-175,-223,0,0,0,0,0,0,0,0,0,-1,1049,1247,0,0
-168,-223,0,0,0,0,0,0,0,0,0,-1,1056,1247,0,0
-161,-223,0,0,0,0,0,0,0,0,0,-1,1063,1247,0,0
-154,-223,0,0,0,0,0,0,0,0,0,-1,1070,1247,0,0
-147,-223,0,0,0,0,0,0,0,0,0,-1,1077,1247,0,0
-140,-223,0,0,0,0,0,0,0,0,0,-1,1084,1247,0,0
-133,-223,0,0,0,0,0,0,0,0,0,-1,1091,1247,0,0
-126,-223,0,0,0,0,0,0,0,0,0,-1,1098,1247,0,0
-119,-223,0,0,0,0,0,0,0,0,0,-1,1105,1247,0,0
-112,-223,0,0,0,0,0,0,0,0,0,-1,1112,1247,0,0
-105,-223,0,0,0,0,0,0,0,0,0,-1,1119,1247,0,0
-98,-223,0,0,0,0,0,0,0,0,0,-1,1126,1247,0,0
-91,-223,0,0,0,0,0,0,0,0,0,-1,1133,1247,0,0
-84,-223,0,0,0,0,0,0,0,0,0,-1,1140,1247,0,0
-77,-223,0,0,0,0,0,0,0,0,0,-1,1147,1247,0,0
-70,-223,0,0,0,0,0,0,0,0,0,-1,1154,1247,0,0
-63,-223,0,0,0,0,0,0,0,0,0,-1,1161,1247,0,0
-56,-223,0,0,0,0,0,0,0,0,0,-1,1168,1247,0,0
-49,-223,0,0,0,0,0,0,0,0,0,-1,1175,1247,0,0
-42,-223,0,0,0,0,0,0,0,0,0,-1,1182,1247,0,0
-35,-223,0,0,0,0,0,0,0,0,0,-1,1189,1247,0,0
-28,-223,0,0,0,0,0,0,0,0,0,-1,1196,1247,0,0
-21,-223,0,0,0,0,0,0,0,0,0,-1,1203,1247,0,0
-14,-223,0,0,0,0,0,0,0,0,0,-1,1210,1247,0,0
-7,-223,0,0,0,0,0,0,0,0,0,-1,1217,1247,0,0
0,-223,0,0,0,0,0,0,0,0,0,-1,1224,1247,0,0
7,-223,0,0,0,0,0,0,0,0,0,-1,1231,1247,0,0
14,-223,0,0,0,0,0,0,0,0,0,-1,1238,1247,0,0
21,-223,0,0,0,0,0,0,0,0,0,-1,1245,1247,0,0
28,-223,0,0,0,0,0,0,0,0,0,-1,1252,1247,0,0
35,-223,0,0,0,0,0,0,0,0,0,-1,1259,1247,0,0
42,-223,0,0,0,0,0,0,0,0,0,-1,1266,1247,0,0
49,-223,0,0,0,0,0,0,0,0,0,-1,1273,1247,0,0
56,-223,0,0,0,0,0,0,0,0,0,-1,1280,1247,0,0
63,-223,0,0,0,0,0,0,0,0,0,-1,1287,1247,0,0
70,-223,0,0,0,0,0,0,0,0,0,-1,1294,1247,0,0
77,-223,0,0,0,0,0,0,0,0,0,-1,1301,1247,0,0
84,-223,0,0,0,0,0,0,0,0,0,-1,1308,1247,0,0
91,-223,0,0,0,0,0,0,0,0,0,-1,1315,1247,0,0
98,-223,0,0,0,0,0,0,0,0,0,-1,1322,1247,0,0
105,-223,0,0,0,0,0,0,0,0,0,-1,1329,1247,0,0
112,-223,0,0,0,0,0,0,0,0,0,-1,1336,1247,0,0
119,-223,0,0,0,0,0,0,0,0,0,-1,1343,1247,0,0
126,-223,0,0,0,0,0,0,0,0,0,-1,1350,1247,0,0
133,-223,0,0,0,0,0,0,0,0,0,-1,1357,1247,0,0
140,-223,0,0,0,0,0,0,0,0,0,-1,1364,1247,0,0
147,-223,0,0,0,0,0,0,0,0,0,-1,1371,1247,0,0
154,-223,0,0,0,0,0,0,0,0,0,-1,1378,1247,0,0
161,-223,0,0,0,0,0,0,0,0,0,-1,1385,1247,0,0
168,-223,0,0,0,0,0,0,0,0,0,-1,1392,1247,0,0
175,-223,0,0,0,0,0,0,0,0,0,-1,1399,1247,0,0
182,-223,0,0,0,0,0,0,0,0,0,-1,1406,1247,0,0
189,-223,0,0,0,0,0,0,0,0,0,-1,1413,1247,0,0
196,-223,0,0,0,0,0,0,0,0,0,-1,1420,1247,0,0
203,-223,0,0,0,0,0,0,0,0,0,-1,1427,1247,0,0
210,-223,0,0,0,0,0,0,0,0,0,-1,1434,1247,0,0
217,-223,0,0,0,0,0,0,0,0,0,-1,1441,1247,0,0
224,-223,0,0,0,0,0,0,0,0,0,-1,1448,1247,0,0
231,-223,0,0,0,0,0,0,0,0,0,-1,1455,1247,0,0
238,-223,0,0,0,0,0,0,0,0,0,-1,1462,1247,0,0
245,-223,0,0,0,0,0,0,0,0,0,-1,1469,1247,0,0
252,-223,0,0,0,0,0,0,0,0,0,-1,1476,1247,0,0
259,-223,0,0,0,0,0,0,0,0,0,-1,1483,1247,0,0
266,-223,0,0,0,0,0,0,0,0,0,-1,1490,1247,0,0
273,-223,0,0,0,0,0,0,0,0,0,-1,1497,1247,0,0
280,-223,0,0,0,0,0,0,0,0,0,-1,1504,1247,0,0
287,-223,0,0,0,0,0,0,0,0,0,-1,1511,1247,0,0
294,-223,0,0,0,0,0,0,0,0,0,-1,1518,1247,0,0
301,-223,0,0,0,0,0,0,0,0,0,-1,1525,1247,0,0
308,-223,0,0,0,0,0,0,0,0,0,-1,1532,1247,0,0
315,-223,0,0,0,0,0,0,0,0,0,-1,1539,1247,0,0
322,-223,0,0,0,0,0,0,0,0,0,-1,1546,1247,0,0
329,-223,0,0,0,0,0,0,0,0,0,-1,1553,1247,0,0
336,-223,0,0,0,0,0,0,0,0,0,-1,1560,1247,0,0
343,-223,0,0,0,0,0,0,0,0,0,-1,1567,1247,0,0
350,-223,0,0,0,0,0,0,0,0,0,-1,1574,1247,0,0
357,-223,0,0,0,0,0,0,0,0,0,-1,1581,1247,0,0
364,-223,0,0,0,0,0,0,0,0,0,-1,1588,1247,0,0
371,-223,0,0,0,0,0,0,0,0,0,-1,1595,1247,0,0
378,-223,0,0,0,0,0,0,0,0,0,-1,1602,1247,0,0
385,-223,0,0,0,0,0,0,0,0,0,-1,1609,1247,0,0
392,-223,0,0,0,0,0,0,0,0,0,-1,1616,1247,0,0
399,-223,0,0,0,0,0,0,0,0,0,-1,1623,1247,0,0
406,-223,0,0,0,0,0,0,0,0,0,-1,1630,1247,0,0
413,-223,0,0,0,0,0,0,0,0,0,-1,1637,1247,0,0
420,-223,0,0,0,0,0,0,0,0,0,-1,1644,1247,0,0
427,-223,0,0,0,0,0,0,0,0,0,-1,1651,1247,0,0
434,-223,0,0,0,0,0,0,0,0,0,-1,1658,1247,0,0
441,-223,0,0,0,0,0,0,0,0,0,-1,1665,1247,0,0
448,-223,0,0,0,0,0,0,0,0,0,-1,1672,1247,0,0
455,-223,0,0,0,0,0,0,0,0,0,-1,1679,1247,0,0
462,-223,0,0,0,0,0,0,0,0,0,-1,1686,1247,0,0
469,-223,0,0,0,0,0,0,0,0,0,-1,1693,1247,0,0
476,-223,0,0,0,0,0,0,0,0,0,-1,1700,1247,0,0
483,-223,0,0,0,0,0,0,0,0,0,-1,1707,1247,0,0
490,-223,0,0,0,0,0,0,0,0,0,-1,1714,1247,0,0
497,-223,0,0,0,0,0,0,0,0,0,-1,1721,1247,0,0
504,-223,0,0,0,0,0,0,0,0,0,-1,1728,1247,0,0
511,-223,0,0,0,0,0,0,0,0,0,-1,1735,1247,0,0
518,-223,0,0,0,0,0,0,0,0,0,-1,1742,1247,0,0
525,-223,0,0,0,0,0,0,0,0,0,-1,1749,1247,0,0
532,-223,0,0,0,0,0,0,0,0,0,-1,1756,1247,0,0
539,-223,0,0,0,0,0,0,0,0,0,-1,1763,1247,0,0
546,-223,0,0,0,0,0,0,0,0,0,-1,1770,1247,0,0
553,-223,0,0,0,0,0,0,0,0,0,-1,1777,1247,0,0
560,-223,0,0,0,0,0,0,0,0,0,-1,1784,1247,0,0
567,-223,0,0,0,0,0,0,0,0,0,-1,1791,1247,0,0
574,-223,0,0,0,0,0,0,0,0,0,-1,1798,1247,0,0
581,-223,0,0,0,0,0,0,0,0,0,-1,1805,1247,0,0
588,-223,0,0,0,0,0,0,0,0,0,-1,1812,1247,0,0
595,-223,0,0,0,0,0,0,0,0,0,-1,1819,1247,0,0
602,-223,0,0,0,0,0,0,0,0,0,-1,1826,1247,0,0
609,-223,0,0,0,0,0,0,0,0,0,-1,1833,1247,0,0
616,-223,0,0,0,0,0,0,0,0,0,-1,1840,1247,0,0
623,-223,35.4553,2.35925,0.00334319,0.00393749,-0.00208666,0.00574805,0.00153263,-0.856125,0.00343701,0.0397598,1847,1247,35.4554,-2.35921
630,-223,35.4156,2.37329,-0.0024131,0.0030044,0.000628491,0.00307635,-0.00248505,1.4568,0.00321692,0.0388381,1854,1247,35.4157,-2.37334
637,-223,35.5038,2.43604,-0.00740896,0.00118611,0.00307761,0.00217446,-0.0083973,1.26006,0.00644644,0.029997,1861,1247,35.5037,-2.43601
644,-223,35.5096,2.49768,-0.0094749,-0.000706105,0.00455666,0.00123295,-0.011414,1.16847,0.00805182,0.022595,1868,1247,35.5096,-2.49766
651,-223,35.5223,2.52209,-0.0088771,-0.00190693,0.00462949,0.000402635,-0.0111867,1.10804,0.00759555,0.0292335,1875,1247,35.5223,-2.52204
658,-223,35.7256,2.70789,0,0,0,0,0,0,0,-1,1882,1247,35.7256,-2.70788
665,-223,36.4475,3.53345,0,0,0,0,0,0,0,-1,1889,1247,36.4475,-3.5335
672,-223,37.0593,4.04211,0,0,0,0,0,0,0,-1,1896,1247,37.0593,-4.04217
679,-223,33.2679,1.37097,0,0,0,0,0,0,0,-1,1903,1247,33.2679,-1.371
686,-223,28.7023,7.52661,0,0,0,0,0,0,0,-1,1910,1247,28.7022,-7.52661
693,-223,28.7347,7.28284,-0.0011971,-0.00366965,0.00195845,-0.000117361,-0.00474939,0.503858,0.00312787,0.0387777,1917,1247,28.7347,-7.28289
700,-223,28.7124,6.99475,0.000390851,-0.00343138,0.00138413,0.000839437,-0.00387997,0.31341,0.00290714,0.0183,1924,1247,28.7124,-6.99481
707,-223,28.6509,6.70105,0.00172288,-0.00320397,0.000627284,0.0018015,-0.00328258,0.12467,0.00297652,0.0150965,1931,1247,28.6509,-6.70104
714,-223,28.6705,6.38599,0.00206729,-0.00191113,0.00017114,0.00207464,-0.00191848,0.0429114,0.00230602,0.0113103,1938,1247,28.6705,-6.38598
721,-223,28.6915,6.07849,0.000607052,-0.00104722,0.00080848,0.000936547,-0.00137671,0.386997,0.0013436,0.0144238,1945,1247,28.6915,-6.07851
728,-223,28.6718,5.77393,-5.17637e-06,-0.000721076,0.00144258,0.0011232,-0.00184946,0.663789,0.00173326,0.0166375,1952,1247,28.6717,-5.77388
735,-223,28.6627,5.48096,-0.000237931,-0.000446533,0.0020849,0.00174528,-0.00242974,0.760406,0.00242122,0.0149697,1959,1247,28.6627,-5.48097
742,-223,28.6348,5.20667,-8.87026e-05,-0.000393341,0.00268763,0.00245092,-0.00293296,0.757091,0.00311254,0.0129323,1966,1247,28.6348,-5.20668
749,-223,28.6162,4.86206,0.000476915,-0.000462271,0.00341636,0.0034558,-0.00344116,0.717099,0.00398196,0.0116045,1973,1247,28.6162,-4.86208
756,-223,28.5889,4.55798,0.00164799,-0.000667988,0.00420094,0.00484762,-0.00386762,0.650913,0.00504233,0.0151308,1980,1247,28.5889,-4.55799
763,-223,28.5907,4.30444,0.00355729,-0.00123226,0.0052512,0.006934,-0.00460898,0.571464,0.00670925,0.0194067,1987,1247,28.5907,-4.30448
770,-223,28.713,4.41187,0.00628509,-0.00207852,0.00682931,0.0101112,-0.00590465,0.510679,0.00935247,0.0405714,1994,1247,28.713,-4.41188
777,-223,28.8257,4.52246,0,0,0,0,0,0,0,-1,2001,1247,28.8257,-4.52249
784,-223,35.1801,2.14172,0,0,0,0,0,0,0,-1,2008,1247,35.1801,-2.14178
791,-223,34.7136,2.92554,0,0,0,0,0,0,0,-1,2015,1247,34.7137,-2.92555
798,-223,0,0,0,0,0,0,0,0,0,-1,2022,1247,0,0
805,-223,0,0,0,0,0,0,0,0,0,-1,2029,1247,0,0
812,-223,0,0,0,0,0,0,0,0,0,-1,2036,1247,0,0
-700,-230,0,0,0,0,0,0,0,0,0,-1,524,1254,0,0
-693,-230,0,0,0,0,0,0,0,0,0,-1,531,1254,0,0
-686,-230,0,0,0,0,0,0,0,0,0,-1,538,1254,0,0
-679,-230,0,0,0,0,0,0,0,0,0,-1,545,1254,0,0
-672,-230,-20.1904,2.59778,0.0402618,0.00748316,-0.0454508,0.0721879,-0.024443,-0.612357,0.0580155,0.048394,552,1254,-20.1904,-2.59782
-665,-230,-19.5718,2.21167,0.0319769,0.00837405,-0.0377844,0.05976,-0.019409,-0.63403,0.0476461,0.0484651,559,1254,-19.5719,-2.2117
-658,-230,-19.1362,1.83374,0.0241293,0.0085794,-0.0304345,0.0477663,-0.0150576,-0.66034,0.0378746,0.0484845,566,1254,-19.1362,-1.83373
-651,-230,-18.7805,1.54663,0,0,0,0,0,0,0,-1,573,1254,-18.7804,-1.5466
-644,-230,-18.2699,0.361084,0,0,0,0,0,0,0,-1,580,1254,-18.2699,-0.361039
-637,-230,-18.6268,1.35339,0,0,0,0,0,0,0,-1,587,1254,-18.6268,-1.35344
-630,-230,-18.1589,1.6123,0.00292271,0.00603015,-0.00863399,0.0132491,-0.00429624,-0.874422,0.0105603,0.0479022,594,1254,-18.1589,-1.61235
-623,-230,-17.7124,1.90088,0.000905914,0.00499197,-0.00547108,0.00878904,-0.00289115,-0.964092,0.00702429,0.027831,601,1254,-17.7124,-1.90092
-616,-230,-17.7487,2.28613,-0.000910239,0.00385123,-0.00281445,0.00515683,-0.00221583,-1.13645,0.00436804,0.0159881,608,1254,-17.7486,-2.2861
-609,-230,-17.7197,2.64746,-0.00210667,0.00275574,-0.000860229,0.00290344,-0.00225437,-1.40076,0.00298571,0.0122325,615,1254,-17.7197,-2.64749
-602,-230,-17.7291,2.98218,-0.0020204,0.0015769,0.000397582,0.00162032,-0.00206381,1.46202,0.00213217,0.0119558,622,1254,-17.729,-2.98212
-595,-230,-17.7579,3.349,3.81363e-05,0.000469758,0.000534115,0.000830014,-0.00032212,0.977396,0.000686391,0.0193627,629,1254,-17.7579,-3.34898
-588,-230,-17.731,3.68738,0.00214269,-0.000589887,0.000454544,0.00221632,-0.000663514,0.160584,0.00174137,0.0263581,636,1254,-17.731,-3.68736
-581,-230,-17.7281,4.04456,0.004048,-0.0011926,0.000468678,0.00408958,-0.00123418,0.0884964,0.00321767,0.0239934,643,1254,-17.7281,-4.04462
-574,-230,-17.7616,4.4198,0.00538526,-0.0013342,0.000648354,0.00544725,-0.00139619,0.0953173,0.00417544,0.0174397,650,1254,-17.7616,-4.41981
-567,-230,-17.5435,4.83472,0.00618435,-0.00146342,0.000796859,0.0062665,-0.00154557,0.102725,0.00477694,0.0304159,657,1254,-17.5434,-4.83466
-560,-230,-17.0629,5.53491,0,0,0,0,0,0,0,-1,664,1254,-17.0629,-5.53497
-553,-230,-13.1939,4.9718,0,0,0,0,0,0,0,-1,671,1254,-13.1939,-4.97175
-546,-230,-15.23,0.453979,0,0,0,0,0,0,0,-1,678,1254,-15.23,-0.453996
-539,-230,-24.1986,0.533569,0,0,0,0,0,0,0,-1,685,1254,-24.1986,-0.533554
-532,-230,-21.1644,1.52966,0,0,0,0,0,0,0,-1,692,1254,-21.1644,-1.52969
-525,-230,-24.1401,0.738647,0,0,0,0,0,0,0,-1,699,1254,-24.1401,-0.738616
-518,-230,-25.4326,0.77063,0,0,0,0,0,0,0,-1,706,1254,-25.4325,-0.770591
-511,-230,-25.4472,0.533691,-0.00383356,-0.0168097,-0.00374755,-0.00282901,-0.0178142,-0.261896,0.0110545,0.0406401,713,1254,-25.4472,-0.533697
-504,-230,-25.4783,0.382202,-0.00684976,-0.0214756,-0.00364435,-0.00599199,-0.0223334,-0.231161,0.0133477,0.0388873,720,1254,-25.4784,-0.382262
-497,-230,0,0,0,0,0,0,0,0,0,-1,727,1254,0,0
-490,-230,0,0,0,0,0,0,0,0,0,-1,734,1254,0,0
-483,-230,0,0,0,0,0,0,0,0,0,-1,741,1254,0,0
-476,-230,0,0,0,0,0,0,0,0,0,-1,748,1254,0,0
-469,-230,0,0,0,0,0,0,0,0,0,-1,755,1254,0,0
-462,-230,0,0,0,0,0,0,0,0,0,-1,762,1254,0,0
-455,-230,0,0,0,0,0,0,0,0,0,-1,769,1254,0,0
-448,-230,0,0,0,0,0,0,0,0,0,-1,776,1254,0,0
-441,-230,0,0,0,0,0,0,0,0,0,-1,783,1254,0,0
-434,-230,0,0,0,0,0,0,0,0,0,-1,790,1254,0,0
-427,-230,0,0,0,0,0,0,0,0,0,-1,797,1254,0,0
-420,-230,0,0,0,0,0,0,0,0,0,-1,804,1254,0,0
-413,-230,0,0,0,0,0,0,0,0,0,-1,811,1254,0,0
-406,-230,0,0,0,0,0,0,0,0,0,-1,818,1254,0,0
-399,-230,0,0,0,0,0,0,0,0,0,-1,825,1254,0,0
-392,-230,0,0,0,0,0,0,0,0,0,-1,832,1254,0,0
-385,-230,0,0,0,0,0,0,0,0,0,-1,839,1254,0,0
-378,-230,0,0,0,0,0,0,0,0,0,-1,846,1254,0,0
-371,-230,0,0,0,0,0,0,0,0,0,-1,853,1254,0,0
-364,-230,0,0,0,0,0,0,0,0,0,-1,860,1254,0,0
-357,-230,0,0,0,0,0,0,0,0,0,-1,867,1254,0,0
-350,-230,0,0,0,0,0,0,0,0,0,-1,874,1254,0,0
-343,-230,0,0,0,0,0,0,0,0,0,-1,881,1254,0,0
-336,-230,0,0,0,0,0,0,0,0,0,-1,888,1254,0,0
-329,-230,0,0,0,0,0,0,0,0,0,-1,895,1254,0,0
-322,-230,0,0,0,0,0,0,0,0,0,-1,902,1254,0,0
-315,-230,0,0,0,0,0,0,0,0,0,-1,909,1254,0,0
-308,-230,0,0,0,0,0,0,0,0,0,-1,916,1254,0,0
-301,-230,0,0,0,0,0,0,0,0,0,-1,923,1254,0,0
-294,-230,0,0,0,0,0,0,0,0,0,-1,930,1254,0,0
-287,-230,0,0,0,0,0,0,0,0,0,-1,937,1254,0,0
-280,-230,0,0,0,0,0,0,0,0,0,-1,944,1254,0,0
-273,-230,0,0,0,0,0,0,0,0,0,-1,951,1254,0,0
-266,-230,0,0,0,0,0,0,0,0,0,-1,958,1254,0,0
-259,-230,0,0,0,0,0,0,0,0,0,-1,965,1254,0,0
-252,-230,0,0,0,0,0,0,0,0,0,-1,972,1254,0,0
-245,-230,0,0,0,0,0,0,0,0,0,-1,979,1254,0,0
-238,-230,0,0,0,0,0,0,0,0,0,-1,986,1254,0,0
-231,-230,0,0,0,0,0,0,0,0,0,-1,993,1254,0,0
-224,-230,0,0,0,0,0,0,0,0,0,-1,1000,1254,0,0
-217,-230,0,0,0,0,0,0,0,0,0,-1,1007,1254,0,0
-210,-230,0,0,0,0,0,0,0,0,0,-1,1014,1254,0,0
-203,-230,0,0,0,0,0,0,0,0,0,-1,1021,1254,0,0
-196,-230,0,0,0,0,0,0,0,0,0,-1,1028,1254,0,0
-189,-230,0,0,0,0,0,0,0,0,0,-1,1035,1254,0,0
-182,-230,0,0,0,0,0,0,0,0,0,-1,1042,1254,0,0
-175,-230,0,0,0,0,0,0,0,0,0,-1,1049,1254,0,0
-168,-230,0,0,0,0,0,0,0,0,0,-1,1056,1254,0,0
-161,-230,0,0,0,0,0,0,0,0,0,-1,1063,1254,0,0
-154,-230,0,0,0,0,0,0,0,0,0,-1,1070,1254,0,0
-147,-230,0,0,0,0,0,0,0,0,0,-1,1077,1254,0,0
-140,-230,0,0,0,0,0,0,0,0,0,-1,1084,1254,0,0
-133,-230,0,0,0,0,0,0,0,0,0,-1,1091,1254,0,0
-126,-230,0,0,0,0,0,0,0,0,0,-1,1098,1254,0,0
-119,-230,0,0,0,0,0,0,0,0,0,-1,1105,1254,0,0
-112,-230,0,0,0,0,0,0,0,0,0,-1,1112,1254,0,0
-105,-230,0,0,0,0,0,0,0,0,0,-1,1119,1254,0,0
-98,-230,0,0,0,0,0,0,0,0,0,-1,1126,1254,0,0
-91,-230,0,0,0,0,0,0,0,0,0,-1,1133,1254,0,0
-84,-230,0,0,0,0,0,0,0,0,0,-1,1140,1254,0,0
-77,-230,0,0,0,0,0,0,0,0,0,-1,1147,1254,0,0
-70,-230,0,0,0,0,0,0,0,0,0,-1,1154,1254,0,0
-63,-230,0,0,0,0,0,0,0,0,0,-1,1161,1254,0,0
-56,-230,0,0,0,0,0,0,0,0,0,-1,1168,1254,0,0
-49,-230,0,0,0,0,0,0,0,0,0,-1,1175,1254,0,0
-42,-230,0,0,0,0,0,0,0,0,0,-1,1182,1254,0,0
-35,-230,0,0,0,0,0,0,0,0,0,-1,1189,1254,0,0
-28,-230,0,0,0,0,0,0,0,0,0,-1,1196,1254,0,0
-21,-230,0,0,0,0,0,0,0,0,0,-1,1203,1254,0,0
-14,-230,0,0,0,0,0,0,0,0,0,-1,1210,1254,0,0
-7,-230,0,0,0,0,0,0,0,0,0,-1,1217,1254,0,0
0,-230,0,0,0,0,0,0,0,0,0,-1,1224,1254,0,0
7,-230,0,0,0,0,0,0,0,0,0,-1,1231,1254,0,0
14,-230,0,0,0,0,0,0,0,0,0,-1,1238,1254,0,0
21,-230,0,0,0,0,0,0,0,0,0,-1,1245,1254,0,0
28,-230,0,0,0,0,0,0,0,0,0,-1,1252,1254,0,0
35,-230,0,0,0,0,0,0,0,0,0,-1,1259,1254,0,0
42,-230,0,0,0,0,0,0,0,0,0,-1,1266,1254,0,0
49,-230,0,0,0,0,0,0,0,0,0,-1,1273,1254,0,0
56,-230,0,0,0,0,0,0,0,0,0,-1,1280,1254,0,0
63,-230,0,0,0,0,0,0,0,0,0,-1,1287,1254,0,0
70,-230,0,0,0,0,0,0,0,0,0,-1,1294,1254,0,0
77,-230,0,0,0,0,0,0,0,0,0,-1,1301,1254,0,0
84,-230,0,0,0,0,0,0,0,0,0,-1,1308,1254,0,0
91,-230,0,0,0,0,0,0,0,0,0,-1,1315,1254,0,0
98,-230,0,0,0,0,0,0,0,0,0,-1,1322,1254,0,0
105,-230,0,0,0,0,0,0,0,0,0,-1,1329,1254,0,0
112,-230,0,0,0,0,0,0,0,0,0,-1,1336,1254,0,0
119,-230,0,0,0,0,0,0,0,0,0,-1,1343,1254,0,0
126,-230,0,0,0,0,0,0,0,0,0,-1,1350,1254,0,0
133,-230,0,0,0,0,0,0,0,0,0,-1,1357,1254,0,0
140,-230,0,0,0,0,0,0,0,0,0,-1,1364,1254,0,0
147,-230,0,0,0,0,0,0,0,0,0,-1,1371,1254,0,0
154,-230,0,0,0,0,0,0,0,0,0,-1,1378,1254,0,0
161,-230,0,0,0,0,0,0,0,0,0,-1,1385,1254,0,0
168,-230,0,0,0,0,0,0,0,0,0,-1,1392,1254,0,0
175,-230,0,0,0,0,0,0,0,0,0,-1,1399,1254,0,0
182,-230,0,0,0,0,0,0,0,0,0,-1,1406,1254,0,0
189,-230,0,0,0,0,0,0,0,0,0,-1,1413,1254,0,0
196,-230,0,0,0,0,0,0,0,0,0,-1,1420,1254,0,0
203,-230,0,0,0,0,0,0,0,0,0,-1,1427,1254,0,0
210,-230,0,0,0,0,0,0,0,0,0,-1,1434,1254,0,0
217,-230,0,0,0,0,0,0,0,0,0,-1,1441,1254,0,0
224,-230,0,0,0,0,0,0,0,0,0,-1,1448,1254,0,0
231,-230,0,0,0,0,0,0,0,0,0,-1,1455,1254,0,0
238,-230,0,0,0,0,0,0,0,0,0,-1,1462,1254,0,0
245,-230,0,0,0,0,0,0,0,0,0,-1,1469,1254,0,0
252,-230,0,0,0,0,0,0,0,0,0,-1,1476,1254,0,0
259,-230,0,0,0,0,0,0,0,0,0,-1,1483,1254,0,0
266,-230,0,0,0,0,0,0,0,0,0,-1,1490,1254,0,0
273,-230,0,0,0,0,0,0,0,0,0,-1,1497,1254,0,0
280,-230,0,0,0,0,0,0,0,0,0,-1,1504,1254,0,0
287,-230,0,0,0,0,0,0,0,0,0,-1,1511,1254,0,0
294,-230,0,0,0,0,0,0,0,0,0,-1,1518,1254,0,0
301,-230,0,0,0,0,0,0,0,0,0,-1,1525,1254,0,0
308,-230,0,0,0,0,0,0,0,0,0,-1,1532,1254,0,0
315,-230,0,0,0,0,0,0,0,0,0,-1,1539,1254,0,0
322,-230,0,0,0,0,0,0,0,0,0,-1,1546,1254,0,0
329,-230,0,0,0,0,0,0,0,0,0,-1,1553,1254,0,0
336,-230,0,0,0,0,0,0,0,0,0,-1,1560,1254,0,0
343,-230,0,0,0,0,0,0,0,0,0,-1,1567,1254,0,0
350,-230,0,0,0,0,0,0,0,0,0,-1,1574,1254,0,0
357,-230,0,0,0,0,0,0,0,0,0,-1,1581,1254,0,0
364,-230,0,0,0,0,0,0,0,0,0,-1,1588,1254,0,0
371,-230,0,0,0,0,0,0,0,0,0,-1,1595,1254,0,0
378,-230,0,0,0,0,0,0,0,0,0,-1,1602,1254,0,0
385,-230,0,0,0,0,0,0,0,0,0,-1,1609,1254,0,0
392,-230,0,0,0,0,0,0,0,0,0,-1,1616,1254,0,0
399,-230,0,0,0,0,0,0,0,0,0,-1,1623,1254,0,0
406,-230,0,0,0,0,0,0,0,0,0,-1,1630,1254,0,0
413,-230,0,0,0,0,0,0,0,0,0,-1,1637,1254,0,0
420,-230,0,0,0,0,0,0,0,0,0,-1,1644,1254,0,0
427,-230,0,0,0,0,0,0,0,0,0,-1,1651,1254,0,0
434,-230,0,0,0,0,0,0,0,0,0,-1,1658,1254,0,0
441,-230,0,0,0,0,0,0,0,0,0,-1,1665,1254,0,0
448,-230,0,0,0,0,0,0,0,0,0,-1,1672,1254,0,0
455,-230,0,0,0,0,0,0,0,0,0,-1,1679,1254,0,0
462,-230,0,0,0,0,0,0,0,0,0,-1,1686,1254,0,0
469,-230,0,0,0,0,0,0,0,0,0,-1,1693,1254,0,0
476,-230,0,0,0,0,0,0,0,0,0,-1,1700,1254,0,0
483,-230,0,0,0,0,0,0,0,0,0,-1,1707,1254,0,0
490,-230,0,0,0,0,0,0,0,0,0,-1,1714,1254,0,0
497,-230,0,0,0,0,0,0,0,0,0,-1,1721,1254,0,0
504,-230,0,0,0,0,0,0,0,0,0,-1,1728,1254,0,0
511,-230,0,0,0,0,0,0,0,0,0,-1,1735,1254,0,0
518,-230,0,0,0,0,0,0,0,0,0,-1,1742,1254,0,0
525,-230,0,0,0,0,0,0,0,0,0,-1,1749,1254,0,0
532,-230,0,0,0,0,0,0,0,0,0,-1,1756,1254,0,0
539,-230,0,0,0,0,0,0,0,0,0,-1,1763,1254,0,0
546,-230,0,0,0,0,0,0,0,0,0,-1,1770,1254,0,0
553,-230,0,0,0,0,0,0,0,0,0,-1,1777,1254,0,0
560,-230,0,0,0,0,0,0,0,0,0,-1,1784,1254,0,0
567,-230,0,0,0,0,0,0,0,0,0,-1,1791,1254,0,0
574,-230,0,0,0,0,0,0,0,0,0,-1,1798,1254,0,0
581,-230,0,0,0,0,0,0,0,0,0,-1,1805,1254,0,0
588,-230,0,0,0,0,0,0,0,0,0,-1,1812,1254,0,0
595,-230,0,0,0,0,0,0,0,0,0,-1,1819,1254,0,0
602,-230,0,0,0,0,0,0,0,0,0,-1,1826,1254,0,0
609,-230,0,0,0,0,0,0,0,0,0,-1,1833,1254,0,0
616,-230,35.5449,2.5929,0.00976031,0.00456212,-0.00513932,0.0129204,0.00140206,-0.551289,0.00818635,0.0365224,1840,1254,35.5449,-2.59294
623,-230,35.522,2.53931,0.00229768,0.00400894,-0.00226398,0.00557358,0.000733036,-0.966068,0.00349708,0.0364602,1847,1254,35.522,-2.53936
630,-230,35.5057,2.49719,-0.00484076,0.00277181,0.00090141,0.00287709,-0.00494604,1.45453,0.00456904,0.0334259,1854,1254,35.5057,-2.49715
637,-230,35.4987,2.51001,-0.0110836,0.000719305,0.00395299,0.0019209,-0.0122852,1.2757,0.0088998,0.0293475,1861,1254,35.4986,-2.51
644,-230,35.391,2.4425,-0.013261,-0.00113421,0.00563183,0.00107779,-0.015473,1.19654,0.0106927,0.0235127,1868,1254,35.391,-2.44246
651,-230,35.1986,2.18115,-0.0124838,-0.00218947,0.00573888,0.000372328,-0.0150456,1.15095,0.0101568,0.0469821,1875,1254,35.1986,-2.1811
658,-230,35.0199,1.93188,0,0,0,0,0,0,0,-1,1882,1254,35.0199,-1.93187
665,-230,34.8954,2.06421,0,0,0,0,0,0,0,-1,1889,1254,34.8954,-2.06419
672,-230,34.6348,2.4574,0,0,0,0,0,0,0,-1,1896,1254,34.6347,-2.45738
679,-230,27.9967,2.37708,0,0,0,0,0,0,0,-1,1903,1254,27.9967,-2.3771
686,-230,28.1342,7.40649,0,0,0,0,0,0,0,-1,1910,1254,28.1342,-7.40654
693,-230,28.2552,7.26025,-0.00292063,-0.00390813,0.002802,-0.000569205,-0.00625955,0.698187,0.00399683,0.0367941,1917,1254,28.2553,-7.26031
700,-230,28.3745,7.04126,-0.0006441,-0.00358022,0.00198186,0.000354208,-0.00457853,0.466621,0.00317701,0.01263,1924,1254,28.3745,-7.04128
707,-230,28.3505,6.71887,0.00134535,-0.00318172,0.000919106,0.00152484,-0.0033612,0.192855,0.0028866,0.00995953,1931,1254,28.3504,-6.71882
714,-230,28.3682,6.39307,0.00216545,-0.00164881,0.000192764,0.00217517,-0.00165853,0.0503667,0.00222008,0.0124542,1938,1254,28.3682,-6.39304
721,-230,28.3792,6.07886,0.000762049,-0.000841214,0.000810403,0.00110031,-0.00117948,0.395419,0.0013165,0.0137753,1945,1254,28.3791,-6.07889
728,-230,28.3438,5.79248,4.33186e-05,-0.000557785,0.00147277,0.00124589,-0.00176036,0.684744,0.00174411,0.0148011,1952,1254,28.3437,-5.7925
735,-230,28.3384,5.48987,-0.000361459,-0.000355471,0.00215444,0.00179597,-0.0025129,0.786093,0.00249918,0.0151897,1959,1254,28.3384,-5.4899
742,-230,28.313,5.17065,-0.000455903,-0.000334705,0.00285625,0.00246159,-0.0032522,0.796005,0.00330937,0.0117094,1966,1254,28.3129,-5.17071
749,-230,28.2986,4.83911,-0.000142111,-0.000453096,0.00373401,0.00343965,-0.00403485,0.764589,0.00431996,0.0107043,1973,1254,28.2986,-4.83912
756,-230,28.2964,4.54321,0.000740677,-0.000718307,0.00469987,0.00476733,-0.00474496,0.708405,0.00549193,0.0158237,1980,1254,28.2963,-4.54319
763,-230,28.2162,4.20764,0,0,0,0,0,0,0,-1,1987,1254,28.2162,-4.20768
770,-230,28.298,3.61792,0,0,0,0,0,0,0,-1,1994,1254,28.298,-3.6179
777,-230,28.6132,3.5238,0,0,0,0,0,0,0,-1,2001,1254,28.6131,-3.52379
784,-230,35.8896,1.80334,0,0,0,0,0,0,0,-1,2008,1254,35.8897,-1.80338
791,-230,35.6028,2.20642,0,0,0,0,0,0,0,-1,2015,1254,35.6027,-2.2064
798,-230,0,0,0,0,0,0,0,0,0,-1,2022,1254,0,0
805,-230,0,0,0,0,0,0,0,0,0,-1,2029,1254,0,0
812,-230,0,0,0,0,0,0,0,0,0,-1,2036,1254,0,0
-700,-237,0,0,0,0,0,0,0,0,0,-1,524,1261,0,0
-693,-237,0,0,0,0,0,0,0,0,0,-1,531,1261,0,0
-686,-237,0,0,0,0,0,0,0,0,0,-1,538,1261,0,0
-679,-237,0,0,0,0,0,0,0,0,0,-1,545,1261,0,0
-672,-237,-19.796,2.22424,0,0,0,0,0,0,0,-1,552,1261,-19.7959,-2.22424
-665,-237,-19.4488,2.22021,0,0,0,0,0,0,0,-1,559,1261,-19.4488,-2.2202
-658,-237,-19.1752,1.76318,0,0,0,0,0,0,0,-1,566,1261,-19.1752,-1.76319
-651,-237,-23.4221,3.70325,0,0,0,0,0,0,0,-1,573,1261,-23.4221,-3.70322
-644,-237,-18.5191,1.15417,0,0,0,0,0,0,0,-1,580,1261,-18.5191,-1.15418
-637,-237,-15.4469,1.56018,0,0,0,0,0,0,0,-1,587,1261,-15.4469,-1.56022
-630,-237,-16.3058,1.71167,-0.000510136,0.00820056,-0.00947929,0.0142772,-0.00658676,-1.00074,0.0123155,0.0459626,594,1261,-16.3059,-1.71162
-623,-237,-17.2048,1.90283,-0.00197142,0.00669515,-0.00606341,0.00981453,-0.0050908,-1.09565,0.00874847,0.0308371,601,1261,-17.2048,-1.90281
-616,-237,-17.3317,2.28918,-0.00319623,0.00514302,-0.0032326,0.00624933,-0.00430254,-1.24106,0.00612659,0.0145852,608,1261,-17.3317,-2.2892
-609,-237,-17.3576,2.6499,-0.00364975,0.00369489,-0.00110598,0.00385782,-0.00381267,-1.42453,0.00442859,0.0166074,615,1261,-17.3576,-2.6499
-602,-237,-17.3675,3.0022,-0.0029043,0.00237234,0.000360458,0.00239685,-0.00292881,1.5029,0.00307988,0.0121157,622,1261,-17.3675,-3.00222
-595,-237,-17.4195,3.3689,-0.000319104,0.0011323,0.000766695,0.00146228,-0.000649084,1.16437,0.00124877,0.0154718,629,1261,-17.4195,-3.36895
-588,-237,-17.409,3.69165,0.00211157,7.29896e-05,0.000890452,0.00244574,-0.000261181,0.359018,0.00172416,0.0260677,636,1261,-17.409,-3.69162
-581,-237,-17.4293,4.03333,0.00421125,-0.000510139,0.00094405,0.00439301,-0.000691906,0.190212,0.00318447,0.0239094,643,1261,-17.4293,-4.03337
-574,-237,-17.4075,4.42896,0.00567023,-0.000625764,0.00108959,0.00585346,-0.000808998,0.166608,0.00419804,0.0156077,650,1261,-17.4075,-4.42894
-567,-237,-17.3431,4.8396,0.00652056,-0.000689355,0.00117617,0.00670758,-0.000876376,0.157688,0.00479064,0.0206731,657,1261,-17.3431,-4.83954
-560,-237,-16.9749,5.32959,0.00620097,-0.0005657,0.000650466,0.00626294,-0.000627661,0.0949691,0.00439946,0.0449288,664,1261,-16.9748,-5.32961
-553,-237,-16.5607,5.69727,0,0,0,0,0,0,0,-1,671,1261,-16.5607,-5.69729
-546,-237,-11.192,1.14014,0,0,0,0,0,0,0,-1,678,1261,-11.192,-1.14011
-539,-237,-16.512,1.53455,0,0,0,0,0,0,0,-1,685,1261,-16.512,-1.53457
-532,-237,-22.1423,1.43213,0,0,0,0,0,0,0,-1,692,1261,-22.1423,-1.43207
-525,-237,-24.471,0.493042,0,0,0,0,0,0,0,-1,699,1261,-24.471,-0.492993
-518,-237,-25.291,0.859253,0,0,0,0,0,0,0,-1,706,1261,-25.291,-0.859231
-511,-237,-25.4193,0.731201,-0.00514556,-0.0202381,-0.00279372,-0.00464502,-0.0207386,-0.177283,0.0125669,0.0420941,713,1261,-25.4193,-0.731185
-504,-237,-25.5555,0.533447,-0.00795753,-0.0269314,-0.00254879,-0.00762111,-0.0272678,-0.131232,0.0162454,0.0396034,720,1261,-25.5555,-0.533434
-497,-237,-25.6148,0.528931,-0.0106295,-0.0340518,-0.00153557,-0.0105292,-0.034152,-0.0651881,0.020195,0.0450236,727,1261,-25.6148,-0.528948
-490,-237,0,0,0,0,0,0,0,0,0,-1,734,1261,0,0
-483,-237,0,0,0,0,0,0,0,0,0,-1,741,1261,0,0
-476,-237,0,0,0,0,0,0,0,0,0,-1,748,1261,0,0
-469,-237,0,0,0,0,0,0,0,0,0,-1,755,1261,0,0
-462,-237,0,0,0,0,0,0,0,0,0,-1,762,1261,0,0
-455,-237,0,0,0,0,0,0,0,0,0,-1,769,1261,0,0
-448,-237,0,0,0,0,0,0,0,0,0,-1,776,1261,0,0
-441,-237,0,0,0,0,0,0,0,0,0,-1,783,1261,0,0
-434,-237,0,0,0,0,0,0,0,0,0,-1,790,1261,0,0
-427,-237,0,0,0,0,0,0,0,0,0,-1,797,1261,0,0
-420,-237,0,0,0,0,0,0,0,0,0,-1,804,1261,0,0
-413,-237,0,0,0,0,0,0,0,0,0,-1,811,1261,0,0
-406,-237,0,0,0,0,0,0,0,0,0,-1,818,1261,0,0
-399,-237,0,0,0,0,0,0,0,0,0,-1,825,1261,0,0
-392,-237,0,0,0,0,0,0,0,0,0,-1,832,1261,0,0
-385,-237,0,0,0,0,0,0,0,0,0,-1,839,1261,0,0
-378,-237,0,0,0,0,0,0,0,0,0,-1,846,1261,0,0
-371,-237,0,0,0,0,0,0,0,0,0,-1,853,1261,0,0
-364,-237,0,0,0,0,0,0,0,0,0,-1,860,1261,0,0
-357,-237,0,0,0,0,0,0,0,0,0,-1,867,1261,0,0
-350,-237,0,0,0,0,0,0,0,0,0,-1,874,1261,0,0
-343,-237,0,0,0,0,0,0,0,0,0,-1,881,1261,0,0
-336,-237,0,0,0,0,0,0,0,0,0,-1,888,1261,0,0
-329,-237,0,0,0,0,0,0,0,0,0,-1,895,1261,0,0
-322,-237,0,0,0,0,0,0,0,0,0,-1,902,1261,0,0
-315,-237,0,0,0,0,0,0,0,0,0,-1,909,1261,0,0
-308,-237,0,0,0,0,0,0,0,0,0,-1,916,1261,0,0
-301,-237,0,0,0,0,0,0,0,0,0,-1,923,1261,0,0
-294,-237,0,0,0,0,0,0,0,0,0,-1,930,1261,0,0
-287,-237,0,0,0,0,0,0,0,0,0,-1,937,1261,0,0
-280,-237,0,0,0,0,0,0,0,0,0,-1,944,1261,0,0
-273,-237,0,0,0,0,0,0,0,0,0,-1,951,1261,0,0
-266,-237,0,0,0,0,0,0,0,0,0,-1,958,1261,0,0
-259,-237,0,0,0,0,0,0,0,0,0,-1,965,1261,0,0
-252,-237,0,0,0,0,0,0,0,0,0,-1,972,1261,0,0
-245,-237,0,0,0,0,0,0,0,0,0,-1,979,1261,0,0
-238,-237,0,0,0,0,0,0,0,0,0,-1,986,1261,0,0
-231,-237,0,0,0,0,0,0,0,0,0,-1,993,1261,0,0
-224,-237,0,0,0,0,0,0,0,0,0,-1,1000,1261,0,0
-217,-237,0,0,0,0,0,0,0,0,0,-1,1007,1261,0,0
-210,-237,0,0,0,0,0,0,0,0,0,-1,1014,1261,0,0
-203,-237,0,0,0,0,0,0,0,0,0,-1,1021,1261,0,0
-196,-237,0,0,0,0,0,0,0,0,0,-1,1028,1261,0,0
-189,-237,0,0,0,0,0,0,0,0,0,-1,1035,1261,0,0
-182,-237,0,0,0,0,0,0,0,0,0,-1,1042,1261,0,0
-175,-237,0,0,0,0,0,0,0,0,0,-1,1049,1261,0,0
-168,-237,0,0,0,0,0,0,0,0,0,-1,1056,1261,0,0
-161,-237,0,0,0,0,0,0,0,0,0,-1,1063,1261,0,0
-154,-237,0,0,0,0,0,0,0,0,0,-1,1070,1261,0,0
-147,-237,0,0,0,0,0,0,0,0,0,-1,1077,1261,0,0
-140,-237,0,0,0,0,0,0,0,0,0,-1,1084,1261,0,0
-133,-237,0,0,0,0,0,0,0,0,0,-1,1091,1261,0,0
-126,-237,0,0,0,0,0,0,0,0,0,-1,1098,1261,0,0
-119,-237,0,0,0,0,0,0,0,0,0,-1,1105,1261,0,0
-112,-237,0,0,0,0,0,0,0,0,0,-1,1112,1261,0,0
-105,-237,0,0,0,0,0,0,0,0,0,-1,1119,1261,0,0
-98,-237,0,0,0,0,0,0,0,0,0,-1,1126,1261,0,0
-91,-237,0,0,0,0,0,0,0,0,0,-1,1133,1261,0,0
-84,-237,0,0,0,0,0,0,0,0,0,-1,1140,1261,0,0
-77,-237,0,0,0,0,0,0,0,0,0,-1,1147,1261,0,0
-70,-237,0,0,0,0,0,0,0,0,0,-1,1154,1261,0,0
-63,-237,0,0,0,0,0,0,0,0,0,-1,1161,1261,0,0
-56,-237,0,0,0,0,0,0,0,0,0,-1,1168,1261,0,0
-49,-237,0,0,0,0,0,0,0,0,0,-1,1175,1261,0,0
-42,-237,0,0,0,0,0,0,0,0,0,-1,1182,1261,0,0
-35,-237,0,0,0,0,0,0,0,0,0,-1,1189,1261,0,0
-28,-237,0,0,0,0,0,0,0,0,0,-1,1196,1261,0,0
-21,-237,0,0,0,0,0,0,0,0,0,-1,1203,1261,0,0
-14,-237,0,0,0,0,0,0,0,0,0,-1,1210,1261,0,0
-7,-237,0,0,0,0,0,0,0,0,0,-1,1217,1261,0,0
0,-237,0,0,0,0,0,0,0,0,0,-1,1224,1261,0,0
7,-237,0,0,0,0,0,0,0,0,0,-1,1231,1261,0,0
14,-237,0,0,0,0,0,0,0,0,0,-1,1238,1261,0,0
21,-237,0,0,0,0,0,0,0,0,0,-1,1245,1261,0,0
28,-237,0,0,0,0,0,0,0,0,0,-1,1252,1261,0,0
35,-237,0,0,0,0,0,0,0,0,0,-1,1259,1261,0,0
42,-237,0,0,0,0,0,0,0,0,0,-1,1266,1261,0,0
49,-237,0,0,0,0,0,0,0,0,0,-1,1273,1261,0,0
56,-237,0,0,0,0,0,0,0,0,0,-1,1280,1261,0,0
63,-237,0,0,0,0,0,0,0,0,0,-1,1287,1261,0,0
70,-237,0,0,0,0,0,0,0,0,0,-1,1294,1261,0,0
77,-237,0,0,0,0,0,0,0,0,0,-1,1301,1261,0,0
84,-237,0,0,0,0,0,0,0,0,0,-1,1308,1261,0,0
91,-237,0,0,0,0,0,0,0,0,0,-1,1315,1261,0,0
98,-237,0,0,0,0,0,0,0,0,0,-1,1322,1261,0,0
105,-237,0,0,0,0,0,0,0,0,0,-1,1329,1261,0,0
112,-237,0,0,0,0,0,0,0,0,0,-1,1336,1261,0,0
119,-237,0,0,0,0,0,0,0,0,0,-1,1343,1261,0,0
126,-237,0,0,0,0,0,0,0,0,0,-1,1350,1261,0,0
133,-237,0,0,0,0,0,0,0,0,0,-1,1357,1261,0,0
140,-237,0,0,0,0,0,0,0,0,0,-1,1364,1261,0,0
147,-237,0,0,0,0,0,0,0,0,0,-1,1371,1261,0,0
154,-237,0,0,0,0,0,0,0,0,0,-1,1378,1261,0,0
161,-237,0,0,0,0,0,0,0,0,0,-1,1385,1261,0,0
168,-237,0,0,0,0,0,0,0,0,0,-1,1392,1261,0,0
175,-237,0,0,0,0,0,0,0,0,0,-1,1399,1261,0,0
182,-237,0,0,0,0,0,0,0,0,0,-1,1406,1261,0,0
189,-237,0,0,0,0,0,0,0,0,0,-1,1413,1261,0,0
196,-237,0,0,0,0,0,0,0,0,0,-1,1420,1261,0,0
203,-237,0,0,0,0,0,0,0,0,0,-1,1427,1261,0,0
210,-237,0,0,0,0,0,0,0,0,0,-1,1434,1261,0,0
217,-237,0,0,0,0,0,0,0,0,0,-1,1441,1261,0,0
224,-237,0,0,0,0,0,0,0,0,0,-1,1448,1261,0,0
231,-237,0,0,0,0,0,0,0,0,0,-1,1455,1261,0,0
238,-237,0,0,0,0,0,0,0,0,0,-1,1462,1261,0,0
245,-237,0,0,0,0,0,0,0,0,0,-1,1469,1261,0,0
252,-237,0,0,0,0,0,0,0,0,0,-1,1476,1261,0,0
259,-237,0,0,0,0,0,0,0,0,0,-1,1483,1261,0,0
266,-237,0,0,0,0,0,0,0,0,0,-1,1490,1261,0,0
273,-237,0,0,0,0,0,0,0,0,0,-1,1497,1261,0,0
280,-237,0,0,0,0,0,0,0,0,0,-1,1504,1261,0,0
287,-237,0,0,0,0,0,0,0,0,0,-1,1511,1261,0,0
294,-237,0,0,0,0,0,0,0,0,0,-1,1518,1261,0,0
301,-237,0,0,0,0,0,0,0,0,0,-1,1525,1261,0,0
308,-237,0,0,0,0,0,0,0,0,0,-1,1532,1261,0,0
315,-237,0,0,0,0,0,0,0,0,0,-1,1539,1261,0,0
322,-237,0,0,0,0,0,0,0,0,0,-1,1546,1261,0,0
329,-237,0,0,0,0,0,0,0,0,0,-1,1553,1261,0,0
336,-237,0,0,0,0,0,0,0,0,0,-1,1560,1261,0,0
343,-237,0,0,0,0,0,0,0,0,0,-1,1567,1261,0,0
350,-237,0,0,0,0,0,0,0,0,0,-1,1574,1261,0,0
357,-237,0,0,0,0,0,0,0,0,0,-1,1581,1261,0,0
364,-237,0,0,0,0,0,0,0,0,0,-1,1588,1261,0,0
371,-237,0,0,0,0,0,0,0,0,0,-1,1595,1261,0,0
378,-237,0,0,0,0,0,0,0,0,0,-1,1602,1261,0,0
385,-237,0,0,0,0,0,0,0,0,0,-1,1609,1261,0,0
392,-237,0,0,0,0,0,0,0,0,0,-1,1616,1261,0,0
399,-237,0,0,0,0,0,0,0,0,0,-1,1623,1261,0,0
406,-237,0,0,0,0,0,0,0,0,0,-1,1630,1261,0,0
413,-237,0,0,0,0,0,0,0,0,0,-1,1637,1261,0,0
420,-237,0,0,0,0,0,0,0,0,0,-1,1644,1261,0,0
427,-237,0,0,0,0,0,0,0,0,0,-1,1651,1261,0,0
434,-237,0,0,0,0,0,0,0,0,0,-1,1658,1261,0,0
441,-237,0,0,0,0,0,0,0,0,0,-1,1665,1261,0,0
448,-237,0,0,0,0,0,0,0,0,0,-1,1672,1261,0,0
455,-237,0,0,0,0,0,0,0,0,0,-1,1679,1261,0,0
462,-237,0,0,0,0,0,0,0,0,0,-1,1686,1261,0,0
469,-237,0,0,0,0,0,0,0,0,0,-1,1693,1261,0,0
476,-237,0,0,0,0,0,0,0,0,0,-1,1700,1261,0,0
483,-237,0,0,0,0,0,0,0,0,0,-1,1707,1261,0,0
490,-237,0,0,0,0,0,0,0,0,0,-1,1714,1261,0,0
497,-237,0,0,0,0,0,0,0,0,0,-1,1721,1261,0,0
504,-237,0,0,0,0,0,0,0,0,0,-1,1728,1261,0,0
511,-237,0,0,0,0,0,0,0,0,0,-1,1735,1261,0,0
518,-237,0,0,0,0,0,0,0,0,0,-1,1742,1261,0,0
525,-237,0,0,0,0,0,0,0,0,0,-1,1749,1261,0,0
532,-237,0,0,0,0,0,0,0,0,0,-1,1756,1261,0,0
539,-237,0,0,0,0,0,0,0,0,0,-1,1763,1261,0,0
546,-237,0,0,0,0,0,0,0,0,0,-1,1770,1261,0,0
553,-237,0,0,0,0,0,0,0,0,0,-1,1777,1261,0,0
560,-237,0,0,0,0,0,0,0,0,0,-1,1784,1261,0,0
567,-237,0,0,0,0,0,0,0,0,0,-1,1791,1261,0,0
574,-237,0,0,0,0,0,0,0,0,0,-1,1798,1261,0,0
581,-237,0,0,0,0,0,0,0,0,0,-1,1805,1261,0,0
588,-237,0,0,0,0,0,0,0,0,0,-1,1812,1261,0,0
595,-237,0,0,0,0,0,0,0,0,0,-1,1819,1261,0,0
602,-237,0,0,0,0,0,0,0,0,0,-1,1826,1261,0,0
609,-237,0,0,0,0,0,0,0,0,0,-1,1833,1261,0,0
616,-237,35.6626,2.50769,0.00870153,0.00479538,-0.0050732,0.0121846,0.00131229,-0.601653,0.0077229,0.0386308,1840,1261,35.6626,-2.50774
623,-237,35.6465,2.52197,0.000506317,0.00415619,-0.00191766,0.00497848,-0.000315975,-1.16571,0.00342917,0.0347729,1847,1261,35.6465,-2.52195
630,-237,35.5801,2.55725,-0.0079684,0.00267241,0.00181844,0.00297459,-0.00827058,1.40613,0.00672812,0.0273121,1854,1261,35.5801,-2.55729
637,-237,35.4059,2.43994,-0.0147914,0.000517922,0.00522532,0.00213137,-0.0164048,1.27131,0.0117118,0.023776,1861,1261,35.4059,-2.43993
644,-237,35.1899,2.19324,-0.0166937,-0.001241,0.00683879,0.00135087,-0.0192855,1.20853,0.0133301,0.047219,1868,1261,35.1899,-2.19321
651,-237,34.9882,1.93848,0,0,0,0,0,0,0,-1,1875,1261,34.9882,-1.9385
658,-237,34.7426,2.07385,-0.0137551,-0.00275892,0.00637449,0.000161019,-0.016675,1.14125,0.0111707,0.047763,1882,1261,34.7426,-2.07383
665,-237,34.568,1.97449,0,0,0,0,0,0,0,-1,1889,1261,34.568,-1.97448
672,-237,34.3209,1.89246,0,0,0,0,0,0,0,-1,1896,1261,34.3209,-1.89241
679,-237,23.1501,7.37488,0,0,0,0,0,0,0,-1,1903,1261,23.1502,-7.37493
686,-237,27.9463,7.65796,0,0,0,0,0,0,0,-1,1910,1261,27.9463,-7.65802
693,-237,27.957,7.35034,-0.00470466,-0.00404767,0.00356399,-0.00079707,-0.00795526,0.831353,0.00505879,0.0388203,1917,1261,27.957,-7.35029
700,-237,28.0417,7.06116,-0.00167729,-0.00359417,0.00245307,-2.06963e-06,-0.00526939,0.599161,0.00351224,0.0121098,1924,1261,28.0418,-7.06112
707,-237,28.0509,6.74353,0.000981607,-0.00297351,0.00108097,0.00125776,-0.00324967,0.250122,0.00268574,0.00968018,1931,1261,28.0509,-6.74353
714,-237,28.04,6.39978,0.00220894,-0.00124096,0.000137834,0.00221444,-0.00124646,0.0398683,0.00202403,0.0138159,1938,1261,28.0401,-6.39975
721,-237,28.0111,6.09619,0.000867763,-0.000552419,0.00074435,0.0011864,-0.000871058,0.404474,0.00119252,0.0177458,1945,1261,28.0111,-6.09617
728,-237,28.0323,5.7821,9.20007e-05,-0.000308547,0.00139969,0.00130567,-0.00152222,0.714338,0.00163428,0.0162145,1952,1261,28.0323,-5.7821
735,-237,28.0431,5.43555,-0.000425353,-0.000151377,0.00208189,0.00179803,-0.00237476,0.818251,0.00241682,0.0202115,1959,1261,28.0431,-5.43553
742,-237,28.0054,5.17297,-0.000656346,-0.000125054,0.00280496,0.00242681,-0.00320821,0.83261,0.0032638,0.0152572,1966,1261,28.0053,-5.17298
749,-237,27.9701,4.89197,-0.000463071,-0.000239026,0.00371639,0.00336703,-0.00406912,0.800465,0.00429964,0.0097375,1973,1261,27.9701,-4.89201
756,-237,27.9485,4.56128,0.000291602,-0.000477899,0.0046927,0.00461529,-0.00480159,0.744495,0.00543719,0.0158914,1980,1261,27.9485,-4.56125
763,-237,27.8904,4.17834,0.00175096,-0.00110822,0.00600375,0.00649298,-0.00585024,0.668517,0.00712958,0.0319993,1987,1261,27.8904,-4.17831
770,-237,27.9781,3.62122,0,0,0,0,0,0,0,-1,1994,1261,27.9782,-3.6212
777,-237,28.0172,3.12537,0,0,0,0,0,0,0,-1,2001,1261,28.0172,-3.12543
784,-237,36.3441,1.68591,0,0,0,0,0,0,0,-1,2008,1261,36.3441,-1.68592
791,-237,32.3025,6.03235,0,0,0,0,0,0,0,-1,2015,1261,32.3025,-6.03229
798,-237,0,0,0,0,0,0,0,0,0,-1,2022,1261,0,0
805,-237,0,0,0,0,0,0,0,0,0,-1,2029,1261,0,0
812,-237,0,0,0,0,0,0,0,0,0,-1,2036,1261,0,0
-700,-244,0,0,0,0,0,0,0,0,0,-1,524,1268,0,0
-693,-244,0,0,0,0,0,0,0,0,0,-1,531,1268,0,0
-686,-244,0,0,0,0,0,0,0,0,0,-1,538,1268,0,0
-679,-244,0,0,0,0,0,0,0,0,0,-1,545,1268,0,0
-672,-244,-19.273,2.0116,0,0,0,0,0,0,0,-1,552,1268,-19.273,-2.01165
-665,-244,-22.6405,-2.31299,0,0,0,0,0,0,0,-1,559,1268,-22.6405,2.31297
-658,-244,-16.2476,1.85156,0,0,0,0,0,0,0,-1,566,1268,-16.2476,-1.85155
-651,-244,-25.0366,-1.09399,0,0,0,0,0,0,0,-1,573,1268,-25.0365,1.09405
-644,-244,-18.29,0.781738,0,0,0,0,0,0,0,-1,580,1268,-18.2901,-0.781769
-637,-244,-15.5786,1.04504,0,0,0,0,0,0,0,-1,587,1268,-15.5786,-1.04502
-630,-244,-16.3036,1.40198,-0.00468193,0.0111113,-0.0109969,0.0167532,-0.0103237,-1.09678,0.0157791,0.0424477,594,1268,-16.3037,-1.40199
-623,-244,-16.9766,1.89136,-0.0053977,0.00898384,-0.00726311,0.0120136,-0.00842749,-1.17559,0.0118621,0.0336375,601,1268,-16.9766,-1.8913
-616,-244,-16.9902,2.3158,-0.0058458,0.00688846,-0.00415871,0.00812627,-0.00708361,-1.2815,0.00878831,0.0173656,608,1268,-16.9902,-2.31579
-609,-244,-17.0019,2.64758,-0.0054438,0.004922,-0.00176861,0.00521545,-0.00573725,-1.40637,0.00632594,0.0145513,615,1268,-17.0019,-2.64758
-602,-244,-17.0234,2.99622,-0.00403979,0.00329084,-1.35336e-05,0.00329086,-0.00403981,-1.56895,0.00423972,0.0141992,622,1268,-17.0234,-2.99625
-595,-244,-17.0535,3.37598,-0.00104018,0.00174849,0.000782275,0.00195294,-0.00124464,1.31516,0.00186116,0.0152654,629,1268,-17.0535,-3.37599
-588,-244,-17.0555,3.73547,0.00168643,0.000564475,0.00122785,0.00247538,-0.000224474,0.571118,0.00172994,0.0196248,636,1268,-17.0556,-3.73546
-581,-244,-17.0692,4.06323,0.00403061,-9.48014e-05,0.00141275,0.00446803,-0.000532218,0.30026,0.00317102,0.0170241,643,1268,-17.0692,-4.06322
-574,-244,-17.0551,4.4425,0.00569542,-0.000209923,0.00157622,0.0060898,-0.000604299,0.245171,0.00427556,0.0133551,650,1268,-17.0551,-4.44248
-567,-244,-17.0437,4.82629,0.00673003,-0.000255388,0.0016154,0.00708551,-0.000610866,0.216603,0.0049399,0.0114918,657,1268,-17.0437,-4.82627
-560,-244,-16.9834,5.21167,0.00649859,-0.000380988,0.000948658,0.006627,-0.000509406,0.13455,0.00459722,0.0278726,664,1268,-16.9834,-5.21162
-553,-244,-16.8682,5.62952,0,0,0,0,0,0,0,-1,671,1268,-16.8682,-5.62949
-546,-244,-11.2686,4.41772,0,0,0,0,0,0,0,-1,678,1268,-11.2686,-4.41767
-539,-244,-12.8706,0.3302,0,0,0,0,0,0,0,-1,685,1268,-12.8706,-0.330156
-532,-244,-18.1502,0.816528,0,0,0,0,0,0,0,-1,692,1268,-18.1502,-0.816514
-525,-244,-23.8385,0.596191,0,0,0,0,0,0,0,-1,699,1268,-23.8385,-0.59625
-518,-244,-24.6578,0.593018,0,0,0,0,0,0,0,-1,706,1268,-24.6579,-0.593015
-511,-244,-25.5053,1.05762,0,0,0,0,0,0,0,-1,713,1268,-25.5053,-1.05767
-504,-244,-25.5177,0.828857,-0.0095495,-0.0319997,-0.000373754,-0.00954328,-0.0320059,-0.016642,0.0189738,0.047581,720,1268,-25.5177,-0.828831
-497,-244,-25.6229,1.01318,-0.0124233,-0.0416028,0.000852338,-0.0123984,-0.0416277,0.0291769,0.0246799,0.0440658,727,1268,-25.6229,-1.01315
-490,-244,0,0,0,0,0,0,0,0,0,-1,734,1268,0,0
-483,-244,0,0,0,0,0,0,0,0,0,-1,741,1268,0,0
-476,-244,0,0,0,0,0,0,0,0,0,-1,748,1268,0,0
-469,-244,0,0,0,0,0,0,0,0,0,-1,755,1268,0,0
-462,-244,0,0,0,0,0,0,0,0,0,-1,762,1268,0,0
-455,-244,0,0,0,0,0,0,0,0,0,-1,769,1268,0,0
-448,-244,0,0,0,0,0,0,0,0,0,-1,776,1268,0,0
-441,-244,0,0,0,0,0,0,0,0,0,-1,783,1268,0,0
-434,-244,0,0,0,0,0,0,0,0,0,-1,790,1268,0,0
-427,-244,0,0,0,0,0,0,0,0,0,-1,797,1268,0,0
-420,-244,0,0,0,0,0,0,0,0,0,-1,804,1268,0,0
-413,-244,0,0,0,0,0,0,0,0,0,-1,811,1268,0,0
-406,-244,0,0,0,0,0,0,0,0,0,-1,818,1268,0,0
-399,-244,0,0,0,0,0,0,0,0,0,-1,825,1268,0,0
-392,-244,0,0,0,0,0,0,0,0,0,-1,832,1268,0,0
-385,-244,0,0,0,0,0,0,0,0,0,-1,839,1268,0,0
-378,-244,0,0,0,0,0,0,0,0,0,-1,846,1268,0,0
-371,-244,0,0,0,0,0,0,0,0,0,-1,853,1268,0,0
-364,-244,0,0,0,0,0,0,0,0,0,-1,860,1268,0,0
-357,-244,0,0,0,0,0,0,0,0,0,-1,867,1268,0,0
-350,-244,0,0,0,0,0,0,0,0,0,-1,874,1268,0,0
-343,-244,0,0,0,0,0,0,0,0,0,-1,881,1268,0,0
-336,-244,0,0,0,0,0,0,0,0,0,-1,888,1268,0,0
-329,-244,0,0,0,0,0,0,0,0,0,-1,895,1268,0,0
-322,-244,0,0,0,0,0,0,0,0,0,-1,902,1268,0,0
-315,-244,0,0,0,0,0,0,0,0,0,-1,909,1268,0,0
-308,-244,0,0,0,0,0,0,0,0,0,-1,916,1268,0,0
-301,-244,0,0,0,0,0,0,0,0,0,-1,923,1268,0,0
-294,-244,0,0,0,0,0,0,0,0,0,-1,930,1268,0,0
-287,-244,0,0,0,0,0,0,0,0,0,-1,937,1268,0,0
-280,-244,0,0,0,0,0,0,0,0,0,-1,944,1268,0,0
-273,-244,0,0,0,0,0,0,0,0,0,-1,951,1268,0,0
-266,-244,0,0,0,0,0,0,0,0,0,-1,958,1268,0,0
-259,-244,0,0,0,0,0,0,0,0,0,-1,965,1268,0,0
-252,-244,0,0,0,0,0,0,0,0,0,-1,972,1268,0,0
-245,-244,0,0,0,0,0,0,0,0,0,-1,979,1268,0,0
-238,-244,0,0,0,0,0,0,0,0,0,-1,986,1268,0,0
-231,-244,0,0,0,0,0,0,0,0,0,-1,993,1268,0,0
-224,-244,0,0,0,0,0,0,0,0,0,-1,1000,1268,0,0
-217,-244,0,0,0,0,0,0,0,0,0,-1,1007,1268,0,0
-210,-244,0,0,0,0,0,0,0,0,0,-1,1014,1268,0,0
-203,-244,0,0,0,0,0,0,0,0,0,-1,1021,1268,0,0
-196,-244,0,0,0,0,0,0,0,0,0,-1,1028,1268,0,0
-189,-244,0,0,0,0,0,0,0,0,0,-1,1035,1268,0,0
-182,-244,0,0,0,0,0,0,0,0,0,-1,1042,1268,0,0
-175,-244,0,0,0,0,0,0,0,0,0,-1,1049,1268,0,0
-168,-244,0,0,0,0,0,0,0,0,0,-1,1056,1268,0,0
-161,-244,0,0,0,0,0,0,0,0,0,-1,1063,1268,0,0
-154,-244,0,0,0,0,0,0,0,0,0,-1,1070,1268,0,0
-147,-244,0,0,0,0,0,0,0,0,0,-1,1077,1268,0,0
-140,-244,0,0,0,0,0,0,0,0,0,-1,1084,1268,0,0
-133,-244,0,0,0,0,0,0,0,0,0,-1,1091,1268,0,0
-126,-244,0,0,0,0,0,0,0,0,0,-1,1098,1268,0,0
-119,-244,0,0,0,0,0,0,0,0,0,-1,1105,1268,0,0
-112,-244,0,0,0,0,0,0,0,0,0,-1,1112,1268,0,0
-105,-244,0,0,0,0,0,0,0,0,0,-1,1119,1268,0,0
-98,-244,0,0,0,0,0,0,0,0,0,-1,1126,1268,0,0
-91,-244,0,0,0,0,0,0,0,0,0,-1,1133,1268,0,0
-84,-244,0,0,0,0,0,0,0,0,0,-1,1140,1268,0,0
-77,-244,0,0,0,0,0,0,0,0,0,-1,1147,1268,0,0
-70,-244,0,0,0,0,0,0,0,0,0,-1,1154,1268,0,0
-63,-244,0,0,0,0,0,0,0,0,0,-1,1161,1268,0,0
-56,-244,0,0,0,0,0,0,0,0,0,-1,1168,1268,0,0
-49,-244,0,0,0,0,0,0,0,0,0,-1,1175,1268,0,0
-42,-244,0,0,0,0,0,0,0,0,0,-1,1182,1268,0,0
-35,-244,0,0,0,0,0,0,0,0,0,-1,1189,1268,0,0
-28,-244,0,0,0,0,0,0,0,0,0,-1,1196,1268,0,0
-21,-244,0,0,0,0,0,0,0,0,0,-1,1203,1268,0,0
-14,-244,0,0,0,0,0,0,0,0,0,-1,1210,1268,0,0
-7,-244,0,0,0,0,0,0,0,0,0,-1,1217,1268,0,0
0,-244,0,0,0,0,0,0,0,0,0,-1,1224,1268,0,0
7,-244,0,0,0,0,0,0,0,0,0,-1,1231,1268,0,0
14,-244,0,0,0,0,0,0,0,0,0,-1,1238,1268,0,0
21,-244,0,0,0,0,0,0,0,0,0,-1,1245,1268,0,0
28,-244,0,0,0,0,0,0,0,0,0,-1,1252,1268,0,0
35,-244,0,0,0,0,0,0,0,0,0,-1,1259,1268,0,0
42,-244,0,0,0,0,0,0,0,0,0,-1,1266,1268,0,0
49,-244,0,0,0,0,0,0,0,0,0,-1,1273,1268,0,0
56,-244,0,0,0,0,0,0,0,0,0,-1,1280,1268,0,0
63,-244,0,0,0,0,0,0,0,0,0,-1,1287,1268,0,0
70,-244,0,0,0,0,0,0,0,0,0,-1,1294,1268,0,0
77,-244,0,0,0,0,0,0,0,0,0,-1,1301,1268,0,0
84,-244,0,0,0,0,0,0,0,0,0,-1,1308,1268,0,0
91,-244,0,0,0,0,0,0,0,0,0,-1,1315,1268,0,0
98,-244,0,0,0,0,0,0,0,0,0,-1,1322,1268,0,0
105,-244,0,0,0,0,0,0,0,0,0,-1,1329,1268,0,0
112,-244,0,0,0,0,0,0,0,0,0,-1,1336,1268,0,0
119,-244,0,0,0,0,0,0,0,0,0,-1,1343,1268,0,0
126,-244,0,0,0,0,0,0,0,0,0,-1,1350,1268,0,0
133,-244,0,0,0,0,0,0,0,0,0,-1,1357,1268,0,0
140,-244,0,0,0,0,0,0,0,0,0,-1,1364,1268,0,0
147,-244,0,0,0,0,0,0,0,0,0,-1,1371,1268,0,0
154,-244,0,0,0,0,0,0,0,0,0,-1,1378,1268,0,0
161,-244,0,0,0,0,0,0,0,0,0,-1,1385,1268,0,0
168,-244,0,0,0,0,0,0,0,0,0,-1,1392,1268,0,0
175,-244,0,0,0,0,0,0,0,0,0,-1,1399,1268,0,0
182,-244,0,0,0,0,0,0,0,0,0,-1,1406,1268,0,0
189,-244,0,0,0,0,0,0,0,0,0,-1,1413,1268,0,0
196,-244,0,0,0,0,0,0,0,0,0,-1,1420,1268,0,0
203,-244,0,0,0,0,0,0,0,0,0,-1,1427,1268,0,0
210,-244,0,0,0,0,0,0,0,0,0,-1,1434,1268,0,0
217,-244,0,0,0,0,0,0,0,0,0,-1,1441,1268,0,0
224,-244,0,0,0,0,0,0,0,0,0,-1,1448,1268,0,0
231,-244,0,0,0,0,0,0,0,0,0,-1,1455,1268,0,0
238,-244,0,0,0,0,0,0,0,0,0,-1,1462,1268,0,0
245,-244,0,0,0,0,0,0,0,0,0,-1,1469,1268,0,0
252,-244,0,0,0,0,0,0,0,0,0,-1,1476,1268,0,0
259,-244,0,0,0,0,0,0,0,0,0,-1,1483,1268,0,0
266,-244,0,0,0,0,0,0,0,0,0,-1,1490,1268,0,0
273,-244,0,0,0,0,0,0,0,0,0,-1,1497,1268,0,0
280,-244,0,0,0,0,0,0,0,0,0,-1,1504,1268,0,0
287,-244,0,0,0,0,0,0,0,0,0,-1,1511,1268,0,0
294,-244,0,0,0,0,0,0,0,0,0,-1,1518,1268,0,0
301,-244,0,0,0,0,0,0,0,0,0,-1,1525,1268,0,0
308,-244,0,0,0,0,0,0,0,0,0,-1,1532,1268,0,0
315,-244,0,0,0,0,0,0,0,0,0,-1,1539,1268,0,0
322,-244,0,0,0,0,0,0,0,0,0,-1,1546,1268,0,0
329,-244,0,0,0,0,0,0,0,0,0,-1,1553,1268,0,0
336,-244,0,0,0,0,0,0,0,0,0,-1,1560,1268,0,0
343,-244,0,0,0,0,0,0,0,0,0,-1,1567,1268,0,0
350,-244,0,0,0,0,0,0,0,0,0,-1,1574,1268,0,0
357,-244,0,0,0,0,0,0,0,0,0,-1,1581,1268,0,0
364,-244,0,0,0,0,0,0,0,0,0,-1,1588,1268,0,0
371,-244,0,0,0,0,0,0,0,0,0,-1,1595,1268,0,0
378,-244,0,0,0,0,0,0,0,0,0,-1,1602,1268,0,0
385,-244,0,0,0,0,0,0,0,0,0,-1,1609,1268,0,0
392,-244,0,0,0,0,0,0,0,0,0,-1,1616,1268,0,0
399,-244,0,0,0,0,0,0,0,0,0,-1,1623,1268,0,0
406,-244,0,0,0,0,0,0,0,0,0,-1,1630,1268,0,0
413,-244,0,0,0,0,0,0,0,0,0,-1,1637,1268,0,0
420,-244,0,0,0,0,0,0,0,0,0,-1,1644,1268,0,0
427,-244,0,0,0,0,0,0,0,0,0,-1,1651,1268,0,0
434,-244,0,0,0,0,0,0,0,0,0,-1,1658,1268,0,0
441,-244,0,0,0,0,0,0,0,0,0,-1,1665,1268,0,0
448,-244,0,0,0,0,0,0,0,0,0,-1,1672,1268,0,0
455,-244,0,0,0,0,0,0,0,0,0,-1,1679,1268,0,0
462,-244,0,0,0,0,0,0,0,0,0,-1,1686,1268,0,0
469,-244,0,0,0,0,0,0,0,0,0,-1,1693,1268,0,0
476,-244,0,0,0,0,0,0,0,0,0,-1,1700,1268,0,0
483,-244,0,0,0,0,0,0,0,0,0,-1,1707,1268,0,0
490,-244,0,0,0,0,0,0,0,0,0,-1,1714,1268,0,0
497,-244,0,0,0,0,0,0,0,0,0,-1,1721,1268,0,0
504,-244,0,0,0,0,0,0,0,0,0,-1,1728,1268,0,0
511,-244,0,0,0,0,0,0,0,0,0,-1,1735,1268,0,0
518,-244,0,0,0,0,0,0,0,0,0,-1,1742,1268,0,0
525,-244,0,0,0,0,0,0,0,0,0,-1,1749,1268,0,0
532,-244,0,0,0,0,0,0,0,0,0,-1,1756,1268,0,0
539,-244,0,0,0,0,0,0,0,0,0,-1,1763,1268,0,0
546,-244,0,0,0,0,0,0,0,0,0,-1,1770,1268,0,0
553,-244,0,0,0,0,0,0,0,0,0,-1,1777,1268,0,0
560,-244,0,0,0,0,0,0,0,0,0,-1,1784,1268,0,0
567,-244,0,0,0,0,0,0,0,0,0,-1,1791,1268,0,0
574,-244,0,0,0,0,0,0,0,0,0,-1,1798,1268,0,0
581,-244,0,0,0,0,0,0,0,0,0,-1,1805,1268,0,0
588,-244,0,0,0,0,0,0,0,0,0,-1,1812,1268,0,0
595,-244,0,0,0,0,0,0,0,0,0,-1,1819,1268,0,0
602,-244,0,0,0,0,0,0,0,0,0,-1,1826,1268,0,0
609,-244,0,0,0,0,0,0,0,0,0,-1,1833,1268,0,0
616,-244,35.626,2.42444,0.00715959,0.00583679,-0.00469297,0.0112375,0.00175884,-0.715392,0.00697968,0.0354669,1840,1268,35.626,-2.42444
623,-244,35.6011,2.51147,-0.00214782,0.0050323,-0.00104172,0.00518038,-0.0022959,-1.42959,0.00442222,0.0289228,1847,1268,35.601,-2.51143
630,-244,35.5065,2.53223,-0.0117145,0.00323201,0.00321083,0.00389257,-0.012375,1.3679,0.00980848,0.0259997,1854,1268,35.5065,-2.53226
637,-244,35.3868,2.40027,-0.0183923,0.00093701,0.00661507,0.00298409,-0.0204393,1.27069,0.0147221,0.0420581,1861,1268,35.3868,-2.40026
644,-244,35.2668,2.20569,-0.0197986,-0.000811324,0.00797025,0.00209076,-0.0227007,1.2216,0.0158767,0.048969,1868,1268,35.2669,-2.20574
651,-244,34.9006,2.30139,-0.0185739,-0.00178637,0.00789039,0.00134001,-0.0217003,1.19355,0.0149336,0.0465034,1875,1268,34.9007,-2.30139
658,-244,34.4153,2.19885,-0.0165154,-0.00237893,0.00732599,0.000732714,-0.0196271,1.16915,0.0133357,0.0473077,1882,1268,34.4153,-2.19888
665,-244,34.1017,1.93958,0,0,0,0,0,0,0,-1,1889,1268,34.1016,-1.93961
672,-244,32.224,3.6123,0,0,0,0,0,0,0,-1,1896,1268,32.224,-3.6123
679,-244,27.2593,7.90649,0,0,0,0,0,0,0,-1,1903,1268,27.2592,-7.9065
686,-244,27.6824,7.85718,0,0,0,0,0,0,0,-1,1910,1268,27.6824,-7.85716
693,-244,27.6763,7.46826,-0.0064726,-0.00407534,0.00416624,-0.000938727,-0.00960921,0.925465,0.00611729,0.0202628,1917,1268,27.6763,-7.46823
700,-244,27.7086,7.07751,-0.00276784,-0.00345543,0.00274872,-0.0003415,-0.00588177,0.723184,0.00381245,0.00932651,1924,1268,27.7086,-7.07757
707,-244,27.728,6.75977,0.000466319,-0.00264052,0.00112769,0.000832482,-0.00300669,0.313962,0.00233202,0.0098798,1931,1268,27.728,-6.75982
714,-244,27.7517,6.43408,0.00202131,-0.000808494,5.60556e-05,0.00202242,-0.000809604,0.0197986,0.00168431,0.0129337,1938,1268,27.7517,-6.43412
721,-244,27.6942,6.10986,0.000799414,-0.000227967,0.000648251,0.00111283,-0.000541385,0.450346,0.000973872,0.0169289,1945,1268,27.6942,-6.1099
728,-244,27.6796,5.76099,4.33534e-05,6.57941e-06,0.00127593,0.00130103,-0.0012511,0.778193,0.00147357,0.021036,1952,1268,27.6796,-5.761
735,-244,27.6624,5.38708,-0.000493278,0.000155829,0.00193298,0.00179132,-0.00212877,0.868574,0.00226605,0.0247908,1959,1268,27.6624,-5.38703
742,-244,27.624,5.18152,-0.000754879,0.000215443,0.0026346,0.00240918,-0.00294862,0.876453,0.00309855,0.0170434,1966,1268,27.6241,-5.18157
749,-244,27.5393,4.98816,-0.000580371,0.000142464,0.00352114,0.00332069,-0.00375859,0.83654,0.00408983,0.0229567,1973,1268,27.5393,-4.98816
756,-244,27.4318,4.69641,0.000147518,-1.81418e-05,0.00443134,0.00449681,-0.00436743,0.776053,0.00511795,0.0310817,1980,1268,27.4318,-4.69646
763,-244,27.5669,4.17432,0.00160947,-0.000462647,0.00555254,0.00622178,-0.00507496,0.693163,0.00653337,0.0431836,1987,1268,27.5669,-4.17426
770,-244,27.7534,3.651,0,0,0,0,0,0,0,-1,1994,1268,27.7534,-3.65099
777,-244,25.7045,3.07898,0,0,0,0,0,0,0,-1,2001,1268,25.7045,-3.07899
784,-244,31.7908,5.20081,0,0,0,0,0,0,0,-1,2008,1268,31.7907,-5.20083
791,-244,0,0,0,0,0,0,0,0,0,-1,2015,1268,0,0
798,-244,0,0,0,0,0,0,0,0,0,-1,2022,1268,0,0
805,-244,0,0,0,0,0,0,0,0,0,-1,2029,1268,0,0
812,-244,0,0,0,0,0,0,0,0,0,-1,2036,1268,0,0
-700,-251,0,0,0,0,0,0,0,0,0,-1,524,1275,0,0
-693,-251,0,0,0,0,0,0,0,0,0,-1,531,1275,0,0
-686,-251,0,0,0,0,0,0,0,0,0,-1,538,1275,0,0
-679,-251,0,0,0,0,0,0,0,0,0,-1,545,1275,0,0
-672,-251,0,0,0,0,0,0,0,0,0,-1,552,1275,0,0
-665,-251,-15.1776,1.15039,0,0,0,0,0,0,0,-1,559,1275,-15.1775,-1.15043
-658,-251,-15.4988,1.38733,0,0,0,0,0,0,0,-1,566,1275,-15.4988,-1.38728
-651,-251,-15.82,1.62415,0,0,0,0,0,0,0,-1,573,1275,-15.82,-1.62413
-644,-251,-16.1721,1.95581,0,0,0,0,0,0,0,-1,580,1275,-16.1721,-1.95586
-637,-251,-15.7729,1.00037,0,0,0,0,0,0,0,-1,587,1275,-15.7729,-1.00032
-630,-251,-16.2769,1.47681,-0.00973392,0.0144866,-0.0124853,0.01977,-0.0150174,-1.17047,0.0201469,0.0449267,594,1275,-16.2769,-1.47682
-623,-251,-16.6276,1.88794,-0.00928991,0.0116423,-0.00859133,0.0147169,-0.0123645,-1.22713,0.0156551,0.0366361,601,1275,-16.6276,-1.88793
-616,-251,-16.6305,2.29846,-0.00866579,0.00890055,-0.00526176,0.010356,-0.0101213,-1.30093,0.0118228,0.0210957,608,1275,-16.6305,-2.29844
-609,-251,-16.6432,2.63745,-0.00725187,0.00632039,-0.00264037,0.00681596,-0.00774744,-1.38527,0.00841391,0.0197111,615,1275,-16.6432,-2.63745
-602,-251,-16.6675,2.99854,-0.00510687,0.00432297,-0.000629414,0.0043648,-0.0051487,-1.50444,0.00549883,0.0137813,622,1275,-16.6675,-2.99853
-595,-251,-16.653,3.36377,-0.00175642,0.002438,0.000584469,0.00251792,-0.00183634,1.4349,0.00252418,0.0130746,629,1275,-16.6529,-3.36373
-588,-251,-16.6501,3.72803,0.00121379,0.00105037,0.00147158,0.00260592,-0.000341768,0.757665,0.00186169,0.0158408,636,1275,-16.6501,-3.72806
-581,-251,-16.6721,4.10754,0.00376798,0.000284288,0.00192518,0.00462235,-0.000570081,0.417675,0.00328811,0.0147457,643,1275,-16.6721,-4.10757
-574,-251,-16.6779,4.48828,0.00562562,0.000243742,0.00223198,0.00643081,-0.000561446,0.346219,0.00448608,0.013225,650,1275,-16.6779,-4.4883
-567,-251,-16.6812,4.85034,0.0068657,0.000205762,0.00241835,0.00765121,-0.000579741,0.314059,0.00530462,0.0113295,657,1275,-16.6812,-4.8504
-560,-251,-16.6522,5.25171,0.00682537,-0.000103306,0.00176018,0.00724689,-0.000524824,0.235048,0.00501536,0.0242738,664,1275,-16.6522,-5.25175
-553,-251,-16.5418,5.6687,0,0,0,0,0,0,0,-1,671,1275,-16.5418,-5.66875
-546,-251,-12.995,4.5675,0,0,0,0,0,0,0,-1,678,1275,-12.995,-4.56745
-539,-251,-10.7916,0.366333,0,0,0,0,0,0,0,-1,685,1275,-10.7916,-0.366282
-532,-251,-10.7391,-0.00769043,0,0,0,0,0,0,0,-1,692,1275,-10.7391,0.00773227
-525,-251,-24.3091,0.594604,0,0,0,0,0,0,0,-1,699,1275,-24.3092,-0.59457
-518,-251,-24.3631,1.26343,0,0,0,0,0,0,0,-1,706,1275,-24.3631,-1.26339
-511,-251,-23.9193,1.18054,0,0,0,0,0,0,0,-1,713,1275,-23.9192,-1.18056
-504,-251,-25.4255,0.777222,0,0,0,0,0,0,0,-1,720,1275,-25.4255,-0.777227
-497,-251,-25.1854,0.514893,0,0,0,0,0,0,0,-1,727,1275,-25.1855,-0.514836
-490,-251,0,0,0,0,0,0,0,0,0,-1,734,1275,0,0
-483,-251,0,0,0,0,0,0,0,0,0,-1,741,1275,0,0
-476,-251,0,0,0,0,0,0,0,0,0,-1,748,1275,0,0
-469,-251,0,0,0,0,0,0,0,0,0,-1,755,1275,0,0
-462,-251,0,0,0,0,0,0,0,0,0,-1,762,1275,0,0
-455,-251,0,0,0,0,0,0,0,0,0,-1,769,1275,0,0
-448,-251,0,0,0,0,0,0,0,0,0,-1,776,1275,0,0
-441,-251,0,0,0,0,0,0,0,0,0,-1,783,1275,0,0
-434,-251,0,0,0,0,0,0,0,0,0,-1,790,1275,0,0
-427,-251,0,0,0,0,0,0,0,0,0,-1,797,1275,0,0
-420,-251,0,0,0,0,0,0,0,0,0,-1,804,1275,0,0
-413,-251,0,0,0,0,0,0,0,0,0,-1,811,1275,0,0
-406,-251,0,0,0,0,0,0,0,0,0,-1,818,1275,0,0
-399,-251,0,0,0,0,0,0,0,0,0,-1,825,1275,0,0
-392,-251,0,0,0,0,0,0,0,0,0,-1,832,1275,0,0
-385,-251,0,0,0,0,0,0,0,0,0,-1,839,1275,0,0
-378,-251,0,0,0,0,0,0,0,0,0,-1,846,1275,0,0
-371,-251,0,0,0,0,0,0,0,0,0,-1,853,1275,0,0
-364,-251,0,0,0,0,0,0,0,0,0,-1,860,1275,0,0
-357,-251,0,0,0,0,0,0,0,0,0,-1,867,1275,0,0
-350,-251,0,0,0,0,0,0,0,0,0,-1,874,1275,0,0
-343,-251,0,0,0,0,0,0,0,0,0,-1,881,1275,0,0
-336,-251,0,0,0,0,0,0,0,0,0,-1,888,1275,0,0
-329,-251,0,0,0,0,0,0,0,0,0,-1,895,1275,0,0
-322,-251,0,0,0,0,0,0,0,0,0,-1,902,1275,0,0
-315,-251,0,0,0,0,0,0,0,0,0,-1,909,1275,0,0
-308,-251,0,0,0,0,0,0,0,0,0,-1,916,1275,0,0
-301,-251,0,0,0,0,0,0,0,0,0,-1,923,1275,0,0
-294,-251,0,0,0,0,0,0,0,0,0,-1,930,1275,0,0
-287,-251,0,0,0,0,0,0,0,0,0,-1,937,1275,0,0
-280,-251,0,0,0,0,0,0,0,0,0,-1,944,1275,0,0
-273,-251,0,0,0,0,0,0,0,0,0,-1,951,1275,0,0
-266,-251,0,0,0,0,0,0,0,0,0,-1,958,1275,0,0
-259,-251,0,0,0,0,0,0,0,0,0,-1,965,1275,0,0
-252,-251,0,0,0,0,0,0,0,0,0,-1,972,1275,0,0
-245,-251,0,0,0,0,0,0,0,0,0,-1,979,1275,0,0
-238,-251,0,0,0,0,0,0,0,0,0,-1,986,1275,0,0
-231,-251,0,0,0,0,0,0,0,0,0,-1,993,1275,0,0
-224,-251,0,0,0,0,0,0,0,0,0,-1,1000,1275,0,0
-217,-251,0,0,0,0,0,0,0,0,0,-1,1007,1275,0,0
-210,-251,0,0,0,0,0,0,0,0,0,-1,1014,1275,0,0
-203,-251,0,0,0,0,0,0,0,0,0,-1,1021,1275,0,0
-196,-251,0,0,0,0,0,0,0,0,0,-1,1028,1275,0,0
-189,-251,0,0,0,0,0,0,0,0,0,-1,1035,1275,0,0
-182,-251,0,0,0,0,0,0,0,0,0,-1,1042,1275,0,0
-175,-251,0,0,0,0,0,0,0,0,0,-1,1049,1275,0,0
-168,-251,0,0,0,0,0,0,0,0,0,-1,1056,1275,0,0
-161,-251,0,0,0,0,0,0,0,0,0,-1,1063,1275,0,0
-154,-251,0,0,0,0,0,0,0,0,0,-1,1070,1275,0,0
-147,-251,0,0,0,0,0,0,0,0,0,-1,1077,1275,0,0
-140,-251,0,0,0,0,0,0,0,0,0,-1,1084,1275,0,0
-133,-251,0,0,0,0,0,0,0,0,0,-1,1091,1275,0,0
-126,-251,0,0,0,0,0,0,0,0,0,-1,1098,1275,0,0
-119,-251,0,0,0,0,0,0,0,0,0,-1,1105,1275,0,0
-112,-251,0,0,0,0,0,0,0,0,0,-1,1112,1275,0,0
-105,-251,0,0,0,0,0,0,0,0,0,-1,1119,1275,0,0
-98,-251,0,0,0,0,0,0,0,0,0,-1,1126,1275,0,0
-91,-251,0,0,0,0,0,0,0,0,0,-1,1133,1275,0,0
-84,-251,0,0,0,0,0,0,0,0,0,-1,1140,1275,0,0
-77,-251,0,0,0,0,0,0,0,0,0,-1,1147,1275,0,0
-70,-251,0,0,0,0,0,0,0,0,0,-1,1154,1275,0,0
-63,-251,0,0,0,0,0,0,0,0,0,-1,1161,1275,0,0
-56,-251,0,0,0,0,0,0,0,0,0,-1,1168,1275,0,0
-49,-251,0,0,0,0,0,0,0,0,0,-1,1175,1275,0,0
-42,-251,0,0,0,0,0,0,0,0,0,-1,1182,1275,0,0
-35,-251,0,0,0,0,0,0,0,0,0,-1,1189,1275,0,0
-28,-251,0,0,0,0,0,0,0,0,0,-1,1196,1275,0,0
-21,-251,0,0,0,0,0,0,0,0,0,-1,1203,1275,0,0
-14,-251,0,0,0,0,0,0,0,0,0,-1,1210,1275,0,0
-7,-251,0,0,0,0,0,0,0,0,0,-1,1217,1275,0,0
0,-251,0,0,0,0,0,0,0,0,0,-1,1224,1275,0,0
7,-251,0,0,0,0,0,0,0,0,0,-1,1231,1275,0,0
14,-251,0,0,0,0,0,0,0,0,0,-1,1238,1275,0,0
21,-251,0,0,0,0,0,0,0,0,0,-1,1245,1275,0,0
28,-251,0,0,0,0,0,0,0,0,0,-1,1252,1275,0,0
35,-251,0,0,0,0,0,0,0,0,0,-1,1259,1275,0,0
42,-251,0,0,0,0,0,0,0,0,0,-1,1266,1275,0,0
49,-251,0,0,0,0,0,0,0,0,0,-1,1273,1275,0,0
56,-251,0,0,0,0,0,0,0,0,0,-1,1280,1275,0,0
63,-251,0,0,0,0,0,0,0,0,0,-1,1287,1275,0,0
70,-251,0,0,0,0,0,0,0,0,0,-1,1294,1275,0,0
77,-251,0,0,0,0,0,0,0,0,0,-1,1301,1275,0,0
84,-251,0,0,0,0,0,0,0,0,0,-1,1308,1275,0,0
91,-251,0,0,0,0,0,0,0,0,0,-1,1315,1275,0,0
98,-251,0,0,0,0,0,0,0,0,0,-1,1322,1275,0,0
105,-251,0,0,0,0,0,0,0,0,0,-1,1329,1275,0,0
112,-251,0,0,0,0,0,0,0,0,0,-1,1336,1275,0,0
119,-251,0,0,0,0,0,0,0,0,0,-1,1343,1275,0,0
126,-251,0,0,0,0,0,0,0,0,0,-1,1350,1275,0,0
133,-251,0,0,0,0,0,0,0,0,0,-1,1357,1275,0,0
140,-251,0,0,0,0,0,0,0,0,0,-1,1364,1275,0,0
147,-251,0,0,0,0,0,0,0,0,0,-1,1371,1275,0,0
154,-251,0,0,0,0,0,0,0,0,0,-1,1378,1275,0,0
161,-251,0,0,0,0,0,0,0,0,0,-1,1385,1275,0,0
168,-251,0,0,0,0,0,0,0,0,0,-1,1392,1275,0,0
175,-251,0,0,0,0,0,0,0,0,0,-1,1399,1275,0,0
182,-251,0,0,0,0,0,0,0,0,0,-1,1406,1275,0,0
189,-251,0,0,0,0,0,0,0,0,0,-1,1413,1275,0,0
196,-251,0,0,0,0,0,0,0,0,0,-1,1420,1275,0,0
203,-251,0,0,0,0,0,0,0,0,0,-1,1427,1275,0,0
210,-251,0,0,0,0,0,0,0,0,0,-1,1434,1275,0,0
217,-251,0,0,0,0,0,0,0,0,0,-1,1441,1275,0,0
224,-251,0,0,0,0,0,0,0,0,0,-1,1448,1275,0,0
231,-251,0,0,0,0,0,0,0,0,0,-1,1455,1275,0,0
238,-251,0,0,0,0,0,0,0,0,0,-1,1462,1275,0,0
245,-251,0,0,0,0,0,0,0,0,0,-1,1469,1275,0,0
252,-251,0,0,0,0,0,0,0,0,0,-1,1476,1275,0,0
259,-251,0,0,0,0,0,0,0,0,0,-1,1483,1275,0,0
266,-251,0,0,0,0,0,0,0,0,0,-1,1490,1275,0,0
273,-251,0,0,0,0,0,0,0,0,0,-1,1497,1275,0,0
280,-251,0,0,0,0,0,0,0,0,0,-1,1504,1275,0,0
287,-251,0,0,0,0,0,0,0,0,0,-1,1511,1275,0,0
294,-251,0,0,0,0,0,0,0,0,0,-1,1518,1275,0,0
301,-251,0,0,0,0,0,0,0,0,0,-1,1525,1275,0,0
308,-251,0,0,0,0,0,0,0,0,0,-1,1532,1275,0,0
315,-251,0,0,0,0,0,0,0,0,0,-1,1539,1275,0,0
322,-251,0,0,0,0,0,0,0,0,0,-1,1546,1275,0,0
329,-251,0,0,0,0,0,0,0,0,0,-1,1553,1275,0,0
336,-251,0,0,0,0,0,0,0,0,0,-1,1560,1275,0,0
343,-251,0,0,0,0,0,0,0,0,0,-1,1567,1275,0,0
350,-251,0,0,0,0,0,0,0,0,0,-1,1574,1275,0,0
357,-251,0,0,0,0,0,0,0,0,0,-1,1581,1275,0,0
364,-251,0,0,0,0,0,0,0,0,0,-1,1588,1275,0,0
371,-251,0,0,0,0,0,0,0,0,0,-1,1595,1275,0,0
378,-251,0,0,0,0,0,0,0,0,0,-1,1602,1275,0,0
385,-251,0,0,0,0,0,0,0,0,0,-1,1609,1275,0,0
392,-251,0,0,0,0,0,0,0,0,0,-1,1616,1275,0,0
399,-251,0,0,0,0,0,0,0,0,0,-1,1623,1275,0,0
406,-251,0,0,0,0,0,0,0,0,0,-1,1630,1275,0,0
413,-251,0,0,0,0,0,0,0,0,0,-1,1637,1275,0,0
420,-251,0,0,0,0,0,0,0,0,0,-1,1644,1275,0,0
427,-251,0,0,0,0,0,0,0,0,0,-1,1651,1275,0,0
434,-251,0,0,0,0,0,0,0,0,0,-1,1658,1275,0,0
441,-251,0,0,0,0,0,0,0,0,0,-1,1665,1275,0,0
448,-251,0,0,0,0,0,0,0,0,0,-1,1672,1275,0,0
455,-251,0,0,0,0,0,0,0,0,0,-1,1679,1275,0,0
462,-251,0,0,0,0,0,0,0,0,0,-1,1686,1275,0,0
469,-251,0,0,0,0,0,0,0,0,0,-1,1693,1275,0,0
476,-251,0,0,0,0,0,0,0,0,0,-1,1700,1275,0,0
483,-251,0,0,0,0,0,0,0,0,0,-1,1707,1275,0,0
490,-251,0,0,0,0,0,0,0,0,0,-1,1714,1275,0,0
497,-251,0,0,0,0,0,0,0,0,0,-1,1721,1275,0,0
504,-251,0,0,0,0,0,0,0,0,0,-1,1728,1275,0,0
511,-251,0,0,0,0,0,0,0,0,0,-1,1735,1275,0,0
518,-251,0,0,0,0,0,0,0,0,0,-1,1742,1275,0,0
525,-251,0,0,0,0,0,0,0,0,0,-1,1749,1275,0,0
532,-251,0,0,0,0,0,0,0,0,0,-1,1756,1275,0,0
539,-251,0,0,0,0,0,0,0,0,0,-1,1763,1275,0,0
546,-251,0,0,0,0,0,0,0,0,0,-1,1770,1275,0,0
553,-251,0,0,0,0,0,0,0,0,0,-1,1777,1275,0,0
560,-251,0,0,0,0,0,0,0,0,0,-1,1784,1275,0,0
567,-251,0,0,0,0,0,0,0,0,0,-1,1791,1275,0,0
574,-251,0,0,0,0,0,0,0,0,0,-1,1798,1275,0,0
581,-251,0,0,0,0,0,0,0,0,0,-1,1805,1275,0,0
588,-251,0,0,0,0,0,0,0,0,0,-1,1812,1275,0,0
595,-251,0,0,0,0,0,0,0,0,0,-1,1819,1275,0,0
602,-251,0,0,0,0,0,0,0,0,0,-1,1826,1275,0,0
609,-251,35.5198,2.46826,0.0160627,0.00672678,-0.0077902,0.0204764,0.00231305,-0.515479,0.012949,0.0304999,1833,1275,35.5198,-2.46826
616,-251,35.5203,2.5365,0.00645728,0.00711667,-0.00468343,0.011482,0.00209195,-0.820538,0.0070614,0.0281462,1840,1275,35.5203,-2.53654
623,-251,35.4677,2.5033,-0.00392505,0.00608975,-0.000484795,0.00611316,-0.00394846,-1.52254,0.00585372,0.0256264,1847,1275,35.4677,-2.50325
630,-251,35.451,2.44812,-0.0142092,0.00397112,0.00418001,0.00488614,-0.0151242,1.35529,0.0120465,0.0386054,1854,1275,35.4511,-2.44817
637,-251,35.4973,2.34509,-0.020325,0.00158554,0.00741704,0.00386018,-0.0225996,1.27322,0.0165043,0.0414158,1861,1275,35.4973,-2.3451
644,-251,35.1218,2.37805,-0.0213553,-0.000150442,0.00856759,0.00287853,-0.0243843,1.23097,0.0172957,0.0441261,1868,1275,35.1219,-2.37802
651,-251,34.6278,2.44849,-0.020136,-0.00118469,0.00848099,0.00205639,-0.0233771,1.20577,0.0163134,0.0476059,1875,1275,34.6278,-2.44849
658,-251,33.7794,2.43726,-0.0181743,-0.00186765,0.00797457,0.00138387,-0.0214258,1.18364,0.0147668,0.0495419,1882,1275,33.7794,-2.43726
665,-251,32.9579,2.60229,0,0,0,0,0,0,0,-1,1889,1275,32.9579,-2.60231
672,-251,26.0721,4.53064,0,0,0,0,0,0,0,-1,1896,1275,26.0721,-4.53063
679,-251,27.2721,7.99854,0,0,0,0,0,0,0,-1,1903,1275,27.2722,-7.99859
686,-251,27.3407,7.76953,-0.0109023,-0.00346611,0.0064976,0.000301972,-0.0146704,1.04527,0.00988248,0.0449247,1910,1275,27.3407,-7.76957
693,-251,27.3986,7.44885,-0.00788293,-0.00413406,0.00488587,-0.000775411,-0.0112416,0.968562,0.00724975,0.0117386,1917,1275,27.3986,-7.4488
700,-251,27.3977,7.09998,-0.00359863,-0.00335591,0.00316601,-0.000308936,-0.0066456,0.804555,0.0043311,0.00944834,1924,1275,27.3977,-7.09993
707,-251,27.4047,6.75488,3.63897e-05,-0.00239113,0.00133155,0.000624364,-0.0029791,0.415822,0.0022236,0.0116724,1931,1275,27.4047,-6.7549
714,-251,27.4106,6.43909,0.00176166,-0.000553162,0.000169203,0.00177396,-0.000565464,0.0725815,0.00140946,0.0133695,1938,1275,27.4107,-6.43906
721,-251,27.3483,6.12866,0.000662418,-6.40516e-05,0.000676486,0.00106702,-0.000468653,0.539016,0.000908779,0.0169178,1945,1275,27.3482,-6.1287
728,-251,27.3134,5.79138,-6.09249e-05,0.00018731,0.0012059,0.00127547,-0.00114908,0.83668,0.00140045,0.0186544,1952,1275,27.3133,-5.79142
735,-251,27.3386,5.43726,-0.000580767,0.000383372,0.00177179,0.0017375,-0.00193489,0.918223,0.00212128,0.0165007,1959,1275,27.3387,-5.43723
742,-251,27.2947,5.22314,-0.000821715,0.000531547,0.00238074,0.00232995,-0.00262011,0.923852,0.00285955,0.0182339,1966,1275,27.2947,-5.22318
749,-251,27.1005,5.06836,-0.000608717,0.000572235,0.0031538,0.00319036,-0.00322684,0.87794,0.00370499,0.0344744,1973,1275,27.1004,-5.0684
756,-251,26.5818,4.48743,0,0,0,0,0,0,0,-1,1980,1275,26.5818,-4.48739
763,-251,27.2196,4.16125,0,0,0,0,0,0,0,-1,1987,1275,27.2197,-4.16126
770,-251,27.8574,3.83508,0,0,0,0,0,0,0,-1,1994,1275,27.8575,-3.83513
777,-251,31.5731,4.33252,0,0,0,0,0,0,0,-1,2001,1275,31.5731,-4.33251
784,-251,32.0776,5.78247,0,0,0,0,0,0,0,-1,2008,1275,32.0776,-5.78247
791,-251,0,0,0,0,0,0,0,0,0,-1,2015,1275,0,0
798,-251,0,0,0,0,0,0,0,0,0,-1,2022,1275,0,0
805,-251,0,0,0,0,0,0,0,0,0,-1,2029,1275,0,0
812,-251,0,0,0,0,0,0,0,0,0,-1,2036,1275,0,0
-700,-258,0,0,0,0,0,0,0,0,0,-1,524,1282,0,0
-693,-258,0,0,0,0,0,0,0,0,0,-1,531,1282,0,0
-686,-258,0,0,0,0,0,0,0,0,0,-1,538,1282,0,0
-679,-258,0,0,0,0,0,0,0,0,0,-1,545,1282,0,0
-672,-258,0,0,0,0,0,0,0,0,0,-1,552,1282,0,0
-665,-258,-14.6733,0.396118,0.00431525,0.0298618,-0.0417513,0.0607501,-0.026573,-0.933845,0.0516871,0.0436513,559,1282,-14.6733,-0.396158
-658,-258,-14.777,0.798096,-0.00513626,0.0290724,-0.0355486,0.0514175,-0.0274814,-1.00963,0.0462458,0.0479456,566,1282,-14.777,-0.798096
-651,-258,-15.075,1.06702,0,0,0,0,0,0,0,-1,573,1282,-15.0749,-1.06697
-644,-258,-15.1634,0.703247,0,0,0,0,0,0,0,-1,580,1282,-15.1634,-0.703226
-637,-258,-15.6735,1.14539,-0.0152974,0.02139,-0.0187975,0.0293111,-0.0232185,-1.17199,0.0303959,0.0481411,587,1282,-15.6735,-1.14544
-630,-258,-16.201,1.58984,-0.0147015,0.0178472,-0.0142101,0.023178,-0.0200323,-1.2119,0.0249695,0.047868,594,1282,-16.201,-1.58982
-623,-258,-16.2402,1.84143,0,0,0,0,0,0,0,-1,601,1282,-16.2402,-1.84137
-616,-258,-16.2785,2.23853,-0.0111804,0.0108701,-0.00660318,0.0126963,-0.0130066,-1.30099,0.0148399,0.0364892,608,1282,-16.2785,-2.2385
-609,-258,-16.2702,2.63452,-0.00883278,0.00770554,-0.00374081,0.00851232,-0.00963956,-1.35838,0.0104867,0.0169407,615,1282,-16.2702,-2.63455
-602,-258,-16.2704,3.02307,-0.00605487,0.00536835,-0.00148286,0.0055577,-0.00624422,-1.44379,0.00681769,0.0124054,622,1282,-16.2704,-3.0231
-595,-258,-16.2679,3.38013,-0.00253886,0.00318561,0.000102678,0.00318745,-0.0025407,1.55287,0.00331417,0.0113063,629,1282,-16.2679,-3.38017
-588,-258,-16.268,3.74609,0.000503551,0.00154711,0.00140309,0.0025223,-0.000471639,0.963414,0.0018588,0.0135593,636,1282,-16.268,-3.74615
-581,-258,-16.2938,4.12036,0.00312134,0.000601267,0.0021163,0.00432432,-0.000601707,0.516885,0.00310295,0.0153136,643,1282,-16.2938,-4.12033
-574,-258,-16.2932,4.50183,0.00504424,0.000701885,0.00253093,0.00620768,-0.000461548,0.430879,0.00430057,0.0150879,650,1282,-16.2932,-4.50179
-567,-258,-16.3163,4.87354,0.00642704,0.000812021,0.00294071,0.00768522,-0.000446165,0.404283,0.00527849,0.0143287,657,1282,-16.3163,-4.87353
-560,-258,-16.3011,5.23315,0.00672988,0.000569418,0.00252962,0.00763547,-0.000336172,0.34378,0.00520599,0.0288342,664,1282,-16.3011,-5.23315
-553,-258,-16.2329,5.59705,0,0,0,0,0,0,0,-1,671,1282,-16.2329,-5.59707
-546,-258,-14.2231,5.92029,0,0,0,0,0,0,0,-1,678,1282,-14.2231,-5.92028
-539,-258,-10.2228,4.05823,0,0,0,0,0,0,0,-1,685,1282,-10.2228,-4.05823
-532,-258,-10.2173,-0.353882,0,0,0,0,0,0,0,-1,692,1282,-10.2173,0.353836
-525,-258,-21.8661,-1.5929,0,0,0,0,0,0,0,-1,699,1282,-21.8661,1.59285
-518,-258,-24.0945,1.85254,0,0,0,0,0,0,0,-1,706,1282,-24.0945,-1.85256
-511,-258,-23.5061,1.16833,0,0,0,0,0,0,0,-1,713,1282,-23.5061,-1.16833
-504,-258,-22.9178,0.484131,0,0,0,0,0,0,0,-1,720,1282,-22.9178,-0.484106
-497,-258,-17.8047,0.730469,0,0,0,0,0,0,0,-1,727,1282,-17.8048,-0.730489
-490,-258,-15.4346,0.632935,0,0,0,0,0,0,0,-1,734,1282,-15.4346,-0.632917
-483,-258,0,0,0,0,0,0,0,0,0,-1,741,1282,0,0
-476,-258,0,0,0,0,0,0,0,0,0,-1,748,1282,0,0
-469,-258,0,0,0,0,0,0,0,0,0,-1,755,1282,0,0
-462,-258,0,0,0,0,0,0,0,0,0,-1,762,1282,0,0
-455,-258,0,0,0,0,0,0,0,0,0,-1,769,1282,0,0
-448,-258,0,0,0,0,0,0,0,0,0,-1,776,1282,0,0
-441,-258,0,0,0,0,0,0,0,0,0,-1,783,1282,0,0
-434,-258,0,0,0,0,0,0,0,0,0,-1,790,1282,0,0
-427,-258,0,0,0,0,0,0,0,0,0,-1,797,1282,0,0
-420,-258,0,0,0,0,0,0,0,0,0,-1,804,1282,0,0
-413,-258,0,0,0,0,0,0,0,0,0,-1,811,1282,0,0
-406,-258,0,0,0,0,0,0,0,0,0,-1,818,1282,0,0
-399,-258,0,0,0,0,0,0,0,0,0,-1,825,1282,0,0
-392,-258,0,0,0,0,0,0,0,0,0,-1,832,1282,0,0
-385,-258,0,0,0,0,0,0,0,0,0,-1,839,1282,0,0
-378,-258,0,0,0,0,0,0,0,0,0,-1,846,1282,0,0
-371,-258,0,0,0,0,0,0,0,0,0,-1,853,1282,0,0
-364,-258,0,0,0,0,0,0,0,0,0,-1,860,1282,0,0
-357,-258,0,0,0,0,0,0,0,0,0,-1,867,1282,0,0
-350,-258,0,0,0,0,0,0,0,0,0,-1,874,1282,0,0
-343,-258,0,0,0,0,0,0,0,0,0,-1,881,1282,0,0
-336,-258,0,0,0,0,0,0,0,0,0,-1,888,1282,0,0
-329,-258,0,0,0,0,0,0,0,0,0,-1,895,1282,0,0
-322,-258,0,0,0,0,0,0,0,0,0,-1,902,1282,0,0
-315,-258,0,0,0,0,0,0,0,0,0,-1,909,1282,0,0
-308,-258,0,0,0,0,0,0,0,0,0,-1,916,1282,0,0
-301,-258,0,0,0,0,0,0,0,0,0,-1,923,1282,0,0
-294,-258,0,0,0,0,0,0,0,0,0,-1,930,1282,0,0
-287,-258,0,0,0,0,0,0,0,0,0,-1,937,1282,0,0
-280,-258,0,0,0,0,0,0,0,0,0,-1,944,1282,0,0
-273,-258,0,0,0,0,0,0,0,0,0,-1,951,1282,0,0
-266,-258,0,0,0,0,0,0,0,0,0,-1,958,1282,0,0
-259,-258,0,0,0,0,0,0,0,0,0,-1,965,1282,0,0
-252,-258,0,0,0,0,0,0,0,0,0,-1,972,1282,0,0
-245,-258,0,0,0,0,0,0,0,0,0,-1,979,1282,0,0
-238,-258,0,0,0,0,0,0,0,0,0,-1,986,1282,0,0
-231,-258,0,0,0,0,0,0,0,0,0,-1,993,1282,0,0
-224,-258,0,0,0,0,0,0,0,0,0,-1,1000,1282,0,0
-217,-258,0,0,0,0,0,0,0,0,0,-1,1007,1282,0,0
-210,-258,0,0,0,0,0,0,0,0,0,-1,1014,1282,0,0
-203,-258,0,0,0,0,0,0,0,0,0,-1,1021,1282,0,0
-196,-258,0,0,0,0,0,0,0,0,0,-1,1028,1282,0,0
-189,-258,0,0,0,0,0,0,0,0,0,-1,1035,1282,0,0
-182,-258,0,0,0,0,0,0,0,0,0,-1,1042,1282,0,0
-175,-258,0,0,0,0,0,0,0,0,0,-1,1049,1282,0,0
-168,-258,0,0,0,0,0,0,0,0,0,-1,1056,1282,0,0
-161,-258,0,0,0,0,0,0,0,0,0,-1,1063,1282,0,0
-154,-258,0,0,0,0,0,0,0,0,0,-1,1070,1282,0,0
-147,-258,0,0,0,0,0,0,0,0,0,-1,1077,1282,0,0
-140,-258,0,0,0,0,0,0,0,0,0,-1,1084,1282,0,0
-133,-258,0,0,0,0,0,0,0,0,0,-1,1091,1282,0,0
-126,-258,0,0,0,0,0,0,0,0,0,-1,1098,1282,0,0
-119,-258,0,0,0,0,0,0,0,0,0,-1,1105,1282,0,0
-112,-258,0,0,0,0,0,0,0,0,0,-1,1112,1282,0,0
-105,-258,0,0,0,0,0,0,0,0,0,-1,1119,1282,0,0
-98,-258,0,0,0,0,0,0,0,0,0,-1,1126,1282,0,0
-91,-258,0,0,0,0,0,0,0,0,0,-1,1133,1282,0,0
-84,-258,0,0,0,0,0,0,0,0,0,-1,1140,1282,0,0
-77,-258,0,0,0,0,0,0,0,0,0,-1,1147,1282,0,0
-70,-258,0,0,0,0,0,0,0,0,0,-1,1154,1282,0,0
-63,-258,0,0,0,0,0,0,0,0,0,-1,1161,1282,0,0
-56,-258,0,0,0,0,0,0,0,0,0,-1,1168,1282,0,0
-49,-258,0,0,0,0,0,0,0,0,0,-1,1175,1282,0,0
-42,-258,0,0,0,0,0,0,0,0,0,-1,1182,1282,0,0
-35,-258,0,0,0,0,0,0,0,0,0,-1,1189,1282,0,0
-28,-258,0,0,0,0,0,0,0,0,0,-1,1196,1282,0,0
-21,-258,0,0,0,0,0,0,0,0,0,-1,1203,1282,0,0
-14,-258,0,0,0,0,0,0,0,0,0,-1,1210,1282,0,0
-7,-258,0,0,0,0,0,0,0,0,0,-1,1217,1282,0,0
0,-258,0,0,0,0,0,0,0,0,0,-1,1224,1282,0,0
7,-258,0,0,0,0,0,0,0,0,0,-1,1231,1282,0,0
14,-258,0,0,0,0,0,0,0,0,0,-1,1238,1282,0,0
21,-258,0,0,0,0,0,0,0,0,0,-1,1245,1282,0,0
28,-258,0,0,0,0,0,0,0,0,0,-1,1252,1282,0,0
35,-258,0,0,0,0,0,0,0,0,0,-1,1259,1282,0,0
42,-258,0,0,0,0,0,0,0,0,0,-1,1266,1282,0,0
49,-258,0,0,0,0,0,0,0,0,0,-1,1273,1282,0,0
56,-258,0,0,0,0,0,0,0,0,0,-1,1280,1282,0,0
63,-258,0,0,0,0,0,0,0,0,0,-1,1287,1282,0,0
70,-258,0,0,0,0,0,0,0,0,0,-1,1294,1282,0,0
77,-258,0,0,0,0,0,0,0,0,0,-1,1301,1282,0,0
84,-258,0,0,0,0,0,0,0,0,0,-1,1308,1282,0,0
91,-258,0,0,0,0,0,0,0,0,0,-1,1315,1282,0,0
98,-258,0,0,0,0,0,0,0,0,0,-1,1322,1282,0,0
105,-258,0,0,0,0,0,0,0,0,0,-1,1329,1282,0,0
112,-258,0,0,0,0,0,0,0,0,0,-1,1336,1282,0,0
119,-258,0,0,0,0,0,0,0,0,0,-1,1343,1282,0,0
126,-258,0,0,0,0,0,0,0,0,0,-1,1350,1282,0,0
133,-258,0,0,0,0,0,0,0,0,0,-1,1357,1282,0,0
140,-258,0,0,0,0,0,0,0,0,0,-1,1364,1282,0,0
147,-258,0,0,0,0,0,0,0,0,0,-1,1371,1282,0,0
154,-258,0,0,0,0,0,0,0,0,0,-1,1378,1282,0,0
161,-258,0,0,0,0,0,0,0,0,0,-1,1385,1282,0,0
168,-258,0,0,0,0,0,0,0,0,0,-1,1392,1282,0,0
175,-258,0,0,0,0,0,0,0,0,0,-1,1399,1282,0,0
182,-258,0,0,0,0,0,0,0,0,0,-1,1406,1282,0,0
189,-258,0,0,0,0,0,0,0,0,0,-1,1413,1282,0,0
196,-258,0,0,0,0,0,0,0,0,0,-1,1420,1282,0,0
203,-258,0,0,0,0,0,0,0,0,0,-1,1427,1282,0,0
210,-258,0,0,0,0,0,0,0,0,0,-1,1434,1282,0,0
217,-258,0,0,0,0,0,0,0,0,0,-1,1441,1282,0,0
224,-258,0,0,0,0,0,0,0,0,0,-1,1448,1282,0,0
231,-258,0,0,0,0,0,0,0,0,0,-1,1455,1282,0,0
238,-258,0,0,0,0,0,0,0,0,0,-1,1462,1282,0,0
245,-258,0,0,0,0,0,0,0,0,0,-1,1469,1282,0,0
252,-258,0,0,0,0,0,0,0,0,0,-1,1476,1282,0,0
259,-258,0,0,0,0,0,0,0,0,0,-1,1483,1282,0,0
266,-258,0,0,0,0,0,0,0,0,0,-1,1490,1282,0,0
273,-258,0,0,0,0,0,0,0,0,0,-1,1497,1282,0,0
280,-258,0,0,0,0,0,0,0,0,0,-1,1504,1282,0,0
287,-258,0,0,0,0,0,0,0,0,0,-1,1511,1282,0,0
294,-258,0,0,0,0,0,0,0,0,0,-1,1518,1282,0,0
301,-258,0,0,0,0,0,0,0,0,0,-1,1525,1282,0,0
308,-258,0,0,0,0,0,0,0,0,0,-1,1532,1282,0,0
315,-258,0,0,0,0,0,0,0,0,0,-1,1539,1282,0,0
322,-258,0,0,0,0,0,0,0,0,0,-1,1546,1282,0,0
329,-258,0,0,0,0,0,0,0,0,0,-1,1553,1282,0,0
336,-258,0,0,0,0,0,0,0,0,0,-1,1560,1282,0,0
343,-258,0,0,0,0,0,0,0,0,0,-1,1567,1282,0,0
350,-258,0,0,0,0,0,0,0,0,0,-1,1574,1282,0,0
357,-258,0,0,0,0,0,0,0,0,0,-1,1581,1282,0,0
364,-258,0,0,0,0,0,0,0,0,0,-1,1588,1282,0,0
371,-258,0,0,0,0,0,0,0,0,0,-1,1595,1282,0,0
378,-258,0,0,0,0,0,0,0,0,0,-1,1602,1282,0,0
385,-258,0,0,0,0,0,0,0,0,0,-1,1609,1282,0,0
392,-258,0,0,0,0,0,0,0,0,0,-1,1616,1282,0,0
399,-258,0,0,0,0,0,0,0,0,0,-1,1623,1282,0,0
406,-258,0,0,0,0,0,0,0,0,0,-1,1630,1282,0,0
413,-258,0,0,0,0,0,0,0,0,0,-1,1637,1282,0,0
420,-258,0,0,0,0,0,0,0,0,0,-1,1644,1282,0,0
427,-258,0,0,0,0,0,0,0,0,0,-1,1651,1282,0,0
434,-258,0,0,0,0,0,0,0,0,0,-1,1658,1282,0,0
441,-258,0,0,0,0,0,0,0,0,0,-1,1665,1282,0,0
448,-258,0,0,0,0,0,0,0,0,0,-1,1672,1282,0,0
455,-258,0,0,0,0,0,0,0,0,0,-1,1679,1282,0,0
462,-258,0,0,0,0,0,0,0,0,0,-1,1686,1282,0,0
469,-258,0,0,0,0,0,0,0,0,0,-1,1693,1282,0,0
476,-258,0,0,0,0,0,0,0,0,0,-1,1700,1282,0,0
483,-258,0,0,0,0,0,0,0,0,0,-1,1707,1282,0,0
490,-258,0,0,0,0,0,0,0,0,0,-1,1714,1282,0,0
497,-258,0,0,0,0,0,0,0,0,0,-1,1721,1282,0,0
504,-258,0,0,0,0,0,0,0,0,0,-1,1728,1282,0,0
511,-258,0,0,0,0,0,0,0,0,0,-1,1735,1282,0,0
518,-258,0,0,0,0,0,0,0,0,0,-1,1742,1282,0,0
525,-258,0,0,0,0,0,0,0,0,0,-1,1749,1282,0,0
532,-258,0,0,0,0,0,0,0,0,0,-1,1756,1282,0,0
539,-258,0,0,0,0,0,0,0,0,0,-1,1763,1282,0,0
546,-258,0,0,0,0,0,0,0,0,0,-1,1770,1282,0,0
553,-258,0,0,0,0,0,0,0,0,0,-1,1777,1282,0,0
560,-258,0,0,0,0,0,0,0,0,0,-1,1784,1282,0,0
567,-258,0,0,0,0,0,0,0,0,0,-1,1791,1282,0,0
574,-258,0,0,0,0,0,0,0,0,0,-1,1798,1282,0,0
581,-258,0,0,0,0,0,0,0,0,0,-1,1805,1282,0,0
588,-258,0,0,0,0,0,0,0,0,0,-1,1812,1282,0,0
595,-258,0,0,0,0,0,0,0,0,0,-1,1819,1282,0,0
602,-258,0,0,0,0,0,0,0,0,0,-1,1826,1282,0,0
609,-258,35.5142,2.54663,0.0161889,0.00665453,-0.0102086,0.0226885,0.000154921,-0.566956,0.0150743,0.0267701,1833,1282,35.5141,-2.54666
616,-258,35.4814,2.59509,0.00617274,0.00716839,-0.00620102,0.0128915,0.000449594,-0.825453,0.00844849,0.0250171,1840,1282,35.4815,-2.59509
623,-258,35.4078,2.50098,-0.00470509,0.00617599,-0.00120948,0.00630881,-0.00483791,-1.46142,0.00645421,0.0366822,1847,1282,35.4078,-2.501
630,-258,35.4716,2.26855,-0.0148576,0.00409708,0.00382395,0.00483945,-0.0156,1.37904,0.0123338,0.0483474,1854,1282,35.4715,-2.26858
637,-258,35.3118,1.91931,-0.0201254,0.00194383,0.00691942,0.00393384,-0.0221155,1.29076,0.0162148,0.0451983,1861,1282,35.3118,-1.91932
644,-258,34.8569,2.45813,-0.0210925,0.000360876,0.00808486,0.00306649,-0.0237981,1.24786,0.0169801,0.045256,1868,1282,34.857,-2.45812
651,-258,34.2067,2.49072,-0.0203097,-0.000649718,0.00828134,0.00237366,-0.0233331,1.22075,0.016404,0.0491962,1875,1282,34.2067,-2.49074
658,-258,33.2639,2.59082,-0.0188359,-0.00139333,0.0080707,0.00176801,-0.0219973,1.19746,0.0152883,0.0489717,1882,1282,33.2639,-2.59087
665,-258,31.9969,2.59033,0,0,0,0,0,0,0,-1,1889,1282,31.9969,-2.59034
672,-258,22.703,2.80957,0,0,0,0,0,0,0,-1,1896,1282,22.703,-2.80962
679,-258,26.8693,8.19543,0,0,0,0,0,0,0,-1,1903,1282,26.8692,-8.19548
686,-258,27.004,7.82764,-0.0124123,-0.00340116,0.00724833,0.000627822,-0.0164413,1.06347,0.011176,0.0484595,1910,1282,27.004,-7.82758
693,-258,27.103,7.44568,-0.00902845,-0.00404047,0.00537103,-0.000612641,-0.0124563,1.00276,0.00810769,0.0115356,1917,1282,27.103,-7.44563
700,-258,27.0795,7.08667,-0.00432406,-0.00311077,0.00342404,-0.000240046,-0.00719478,0.873074,0.00471854,0.0095994,1924,1282,27.0795,-7.08672
707,-258,27.0754,6.74988,-0.000431258,-0.00205656,0.00148686,0.000450536,-0.00293835,0.535301,0.00212506,0.0121554,1931,1282,27.0754,-6.74984
714,-258,27.0704,6.4408,0.00144593,-0.000318998,0.000313076,0.00149982,-0.000372889,0.170461,0.0011446,0.0120046,1938,1282,27.0704,-6.44074
721,-258,27.05,6.11646,0.00068902,7.63055e-05,0.000705868,0.00115215,-0.00038682,0.580657,0.00092442,0.0148568,1945,1282,27.05,-6.11652
728,-258,27.0216,5.80457,0.000219934,0.000345275,0.00111046,0.00139483,-0.000829623,0.813587,0.00129804,0.014228,1952,1282,27.0216,-5.80457
735,-258,27.0571,5.47644,-6.85488e-05,0.000605714,0.001538,0.00184309,-0.00130593,0.893293,0.00182689,0.0151805,1959,1282,27.0571,-5.47647
742,-258,27.0496,5.20532,-4.16814e-05,0.000853383,0.00198219,0.00243793,-0.00162623,0.896425,0.002362,0.0181478,1966,1282,27.0496,-5.20534
749,-258,26.9169,4.97485,0.000509906,0.00103323,0.00253552,0.00332055,-0.00177741,0.836816,0.00298792,0.0379965,1973,1282,26.9168,-4.97491
756,-258,26.8102,4.61011,0,0,0,0,0,0,0,-1,1980,1282,26.8102,-4.61005
763,-258,26.9231,3.95386,0,0,0,0,0,0,0,-1,1987,1282,26.9231,-3.95387
770,-258,28.1896,3.72351,0,0,0,0,0,0,0,-1,1994,1282,28.1895,-3.72353
777,-258,31.912,4.83093,0,0,0,0,0,0,0,-1,2001,1282,31.912,-4.8309
784,-258,32.6525,6.43091,0,0,0,0,0,0,0,-1,2008,1282,32.6525,-6.43091
791,-258,0,0,0,0,0,0,0,0,0,-1,2015,1282,0,0
798,-258,0,0,0,0,0,0,0,0,0,-1,2022,1282,0,0
805,-258,0,0,0,0,0,0,0,0,0,-1,2029,1282,0,0
812,-258,0,0,0,0,0,0,0,0,0,-1,2036,1282,0,0
-700,-265,0,0,0,0,0,0,0,0,0,-1,524,1289,0,0
-693,-265,0,0,0,0,0,0,0,0,0,-1,531,1289,0,0
-686,-265,0,0,0,0,0,0,0,0,0,-1,538,1289,0,0
-679,-265,0,0,0,0,0,0,0,0,0,-1,545,1289,0,0
-672,-265,0,0,0,0,0,0,0,0,0,-1,552,1289,0,0
-665,-265,-13.9186,0.103516,-0.00592121,0.0371668,-0.0414824,0.0623661,-0.0311205,-1.0249,0.0549702,0.043541,559,1289,-13.9187,-0.103475
-658,-265,-14.1799,0.617554,-0.0161392,0.0359751,-0.0368929,0.055085,-0.0352492,-1.09287,0.0525719,0.0453044,566,1289,-14.1799,-0.617552
-651,-265,-14.5105,0.188477,0,0,0,0,0,0,0,-1,573,1289,-14.5105,-0.188532
-644,-265,-14.8592,0.557251,-0.0227349,0.0303753,-0.0267679,0.0415256,-0.0338851,-1.1761,0.0436128,0.0482813,580,1289,-14.8592,-0.557282
-637,-265,-15.3813,0.933105,-0.0218339,0.0263409,-0.0217692,0.0347204,-0.0302134,-1.20335,0.0375196,0.0451086,587,1289,-15.3813,-0.933149
-630,-265,-16.1373,1.47583,0,0,0,0,0,0,0,-1,594,1289,-16.1373,-1.4758
-623,-265,-15.9909,1.44092,0,0,0,0,0,0,0,-1,601,1289,-15.9909,-1.44087
-616,-265,-15.9016,1.99597,-0.0135799,0.0133175,-0.0086889,0.0158802,-0.0161426,-1.28399,0.0184886,0.0422616,608,1289,-15.9015,-1.99595
-609,-265,-15.8744,2.59985,-0.0103598,0.00948013,-0.00543161,0.0108698,-0.0117495,-1.32032,0.0130625,0.0176438,615,1289,-15.8744,-2.59987
-602,-265,-15.8953,3.03027,-0.00694075,0.00669297,-0.0028253,0.00725526,-0.00750304,-1.37434,0.00852111,0.0129322,622,1289,-15.8953,-3.0303
-595,-265,-15.9118,3.40466,-0.00335979,0.00409636,-0.000752103,0.00417146,-0.0034349,-1.47126,0.00439839,0.0112457,629,1289,-15.9118,-3.40468
-588,-265,-15.9221,3.75684,-0.000292298,0.00205096,0.001031,0.00244,-0.000681335,1.20998,0.00189506,0.0110647,636,1289,-15.9221,-3.75679
-581,-265,-15.9379,4.12537,0.0023221,0.000777,0.00202313,0.00371517,-0.000616065,0.603013,0.00270561,0.0133103,643,1289,-15.9379,-4.12535
-574,-265,-15.955,4.52966,0.00417075,0.000938997,0.00246397,0.00550144,-0.000391687,0.495177,0.00380491,0.0146588,650,1289,-15.955,-4.52962
-567,-265,-15.9982,4.89819,0.00552813,0.00115666,0.00308213,0.00712088,-0.000436095,0.476974,0.00489909,0.0204209,657,1289,-15.9981,-4.89825
-560,-265,-16.0059,5.26868,0.00617083,0.00107004,0.00309639,0.00763194,-0.000391063,0.440895,0.0052232,0.0217009,664,1289,-16.0059,-5.26873
-553,-265,-15.8566,5.71252,0.00593057,8.73087e-05,0.00281309,0.00706472,-0.00104684,0.383237,0.00509474,0.0414147,671,1289,-15.8566,-5.71247
-546,-265,-15.7508,6.15942,0,0,0,0,0,0,0,-1,678,1289,-15.7508,-6.15945
-539,-265,-13.7668,6.39917,0,0,0,0,0,0,0,-1,685,1289,-13.7668,-6.39915
-532,-265,-8.53998,3.41467,0,0,0,0,0,0,0,-1,692,1289,-8.53996,-3.41473
-525,-265,-12.1317,0.514648,0,0,0,0,0,0,0,-1,699,1289,-12.1317,-0.514634
-518,-265,-24.1604,0.712402,0,0,0,0,0,0,0,-1,706,1289,-24.1604,-0.712425
-511,-265,-23.233,0.791626,0,0,0,0,0,0,0,-1,713,1289,-23.233,-0.791617
-504,-265,-22.3056,0.87085,0,0,0,0,0,0,0,-1,720,1289,-22.3056,-0.87081
-497,-265,-18.689,-0.278442,0,0,0,0,0,0,0,-1,727,1289,-18.689,0.278423
-490,-265,-15.1696,0.492676,0,0,0,0,0,0,0,-1,734,1289,-15.1696,-0.492688
-483,-265,0,0,0,0,0,0,0,0,0,-1,741,1289,0,0
-476,-265,0,0,0,0,0,0,0,0,0,-1,748,1289,0,0
-469,-265,0,0,0,0,0,0,0,0,0,-1,755,1289,0,0
-462,-265,0,0,0,0,0,0,0,0,0,-1,762,1289,0,0
-455,-265,0,0,0,0,0,0,0,0,0,-1,769,1289,0,0
-448,-265,0,0,0,0,0,0,0,0,0,-1,776,1289,0,0
-441,-265,0,0,0,0,0,0,0,0,0,-1,783,1289,0,0
-434,-265,0,0,0,0,0,0,0,0,0,-1,790,1289,0,0
-427,-265,0,0,0,0,0,0,0,0,0,-1,797,1289,0,0
-420,-265,0,0,0,0,0,0,0,0,0,-1,804,1289,0,0
-413,-265,0,0,0,0,0,0,0,0,0,-1,811,1289,0,0
-406,-265,0,0,0,0,0,0,0,0,0,-1,818,1289,0,0
-399,-265,0,0,0,0,0,0,0,0,0,-1,825,1289,0,0
-392,-265,0,0,0,0,0,0,0,0,0,-1,832,1289,0,0
-385,-265,0,0,0,0,0,0,0,0,0,-1,839,1289,0,0
-378,-265,0,0,0,0,0,0,0,0,0,-1,846,1289,0,0
-371,-265,0,0,0,0,0,0,0,0,0,-1,853,1289,0,0
-364,-265,0,0,0,0,0,0,0,0,0,-1,860,1289,0,0
-357,-265,0,0,0,0,0,0,0,0,0,-1,867,1289,0,0
-350,-265,0,0,0,0,0,0,0,0,0,-1,874,1289,0,0
-343,-265,0,0,0,0,0,0,0,0,0,-1,881,1289,0,0
-336,-265,0,0,0,0,0,0,0,0,0,-1,888,1289,0,0
-329,-265,0,0,0,0,0,0,0,0,0,-1,895,1289,0,0
-322,-265,0,0,0,0,0,0,0,0,0,-1,902,1289,0,0
-315,-265,0,0,0,0,0,0,0,0,0,-1,909,1289,0,0
-308,-265,0,0,0,0,0,0,0,0,0,-1,916,1289,0,0
-301,-265,0,0,0,0,0,0,0,0,0,-1,923,1289,0,0
-294,-265,0,0,0,0,0,0,0,0,0,-1,930,1289,0,0
-287,-265,0,0,0,0,0,0,0,0,0,-1,937,1289,0,0
-280,-265,0,0,0,0,0,0,0,0,0,-1,944,1289,0,0
-273,-265,0,0,0,0,0,0,0,0,0,-1,951,1289,0,0
-266,-265,0,0,0,0,0,0,0,0,0,-1,958,1289,0,0
-259,-265,0,0,0,0,0,0,0,0,0,-1,965,1289,0,0
-252,-265,0,0,0,0,0,0,0,0,0,-1,972,1289,0,0
-245,-265,0,0,0,0,0,0,0,0,0,-1,979,1289,0,0
-238,-265,0,0,0,0,0,0,0,0,0,-1,986,1289,0,0
-231,-265,0,0,0,0,0,0,0,0,0,-1,993,1289,0,0
-224,-265,0,0,0,0,0,0,0,0,0,-1,1000,1289,0,0
-217,-265,0,0,0,0,0,0,0,0,0,-1,1007,1289,0,0
-210,-265,0,0,0,0,0,0,0,0,0,-1,1014,1289,0,0
-203,-265,0,0,0,0,0,0,0,0,0,-1,1021,1289,0,0
-196,-265,0,0,0,0,0,0,0,0,0,-1,1028,1289,0,0
-189,-265,0,0,0,0,0,0,0,0,0,-1,1035,1289,0,0
-182,-265,0,0,0,0,0,0,0,0,0,-1,1042,1289,0,0
-175,-265,0,0,0,0,0,0,0,0,0,-1,1049,1289,0,0
-168,-265,0,0,0,0,0,0,0,0,0,-1,1056,1289,0,0
-161,-265,0,0,0,0,0,0,0,0,0,-1,1063,1289,0,0
-154,-265,0,0,0,0,0,0,0,0,0,-1,1070,1289,0,0
-147,-265,0,0,0,0,0,0,0,0,0,-1,1077,1289,0,0
-140,-265,0,0,0,0,0,0,0,0,0,-1,1084,1289,0,0
-133,-265,0,0,0,0,0,0,0,0,0,-1,1091,1289,0,0
-126,-265,0,0,0,0,0,0,0,0,0,-1,1098,1289,0,0
-119,-265,0,0,0,0,0,0,0,0,0,-1,1105,1289,0,0
-112,-265,0,0,0,0,0,0,0,0,0,-1,1112,1289,0,0
-105,-265,0,0,0,0,0,0,0,0,0,-1,1119,1289,0,0
-98,-265,0,0,0,0,0,0,0,0,0,-1,1126,1289,0,0
-91,-265,0,0,0,0,0,0,0,0,0,-1,1133,1289,0,0
-84,-265,0,0,0,0,0,0,0,0,0,-1,1140,1289,0,0
-77,-265,0,0,0,0,0,0,0,0,0,-1,1147,1289,0,0
-70,-265,0,0,0,0,0,0,0,0,0,-1,1154,1289,0,0
-63,-265,0,0,0,0,0,0,0,0,0,-1,1161,1289,0,0
-56,-265,0,0,0,0,0,0,0,0,0,-1,1168,1289,0,0
-49,-265,0,0,0,0,0,0,0,0,0,-1,1175,1289,0,0
-42,-265,0,0,0,0,0,0,0,0,0,-1,1182,1289,0,0
-35,-265,0,0,0,0,0,0,0,0,0,-1,1189,1289,0,0
-28,-265,0,0,0,0,0,0,0,0,0,-1,1196,1289,0,0
-21,-265,0,0,0,0,0,0,0,0,0,-1,1203,1289,0,0
-14,-265,0,0,0,0,0,0,0,0,0,-1,1210,1289,0,0
-7,-265,0,0,0,0,0,0,0,0,0,-1,1217,1289,0,0
0,-265,0,0,0,0,0,0,0,0,0,-1,1224,1289,0,0
7,-265,0,0,0,0,0,0,0,0,0,-1,1231,1289,0,0
14,-265,0,0,0,0,0,0,0,0,0,-1,1238,1289,0,0
21,-265,0,0,0,0,0,0,0,0,0,-1,1245,1289,0,0
28,-265,0,0,0,0,0,0,0,0,0,-1,1252,1289,0,0
35,-265,0,0,0,0,0,0,0,0,0,-1,1259,1289,0,0
42,-265,0,0,0,0,0,0,0,0,0,-1,1266,1289,0,0
49,-265,0,0,0,0,0,0,0,0,0,-1,1273,1289,0,0
56,-265,0,0,0,0,0,0,0,0,0,-1,1280,1289,0,0
63,-265,0,0,0,0,0,0,0,0,0,-1,1287,1289,0,0
70,-265,0,0,0,0,0,0,0,0,0,-1,1294,1289,0,0
77,-265,0,0,0,0,0,0,0,0,0,-1,1301,1289,0,0
84,-265,0,0,0,0,0,0,0,0,0,-1,1308,1289,0,0
91,-265,0,0,0,0,0,0,0,0,0,-1,1315,1289,0,0
98,-265,0,0,0,0,0,0,0,0,0,-1,1322,1289,0,0
105,-265,0,0,0,0,0,0,0,0,0,-1,1329,1289,0,0
112,-265,0,0,0,0,0,0,0,0,0,-1,1336,1289,0,0
119,-265,0,0,0,0,0,0,0,0,0,-1,1343,1289,0,0
126,-265,0,0,0,0,0,0,0,0,0,-1,1350,1289,0,0
133,-265,0,0,0,0,0,0,0,0,0,-1,1357,1289,0,0
140,-265,0,0,0,0,0,0,0,0,0,-1,1364,1289,0,0
147,-265,0,0,0,0,0,0,0,0,0,-1,1371,1289,0,0
154,-265,0,0,0,0,0,0,0,0,0,-1,1378,1289,0,0
161,-265,0,0,0,0,0,0,0,0,0,-1,1385,1289,0,0
168,-265,0,0,0,0,0,0,0,0,0,-1,1392,1289,0,0
175,-265,0,0,0,0,0,0,0,0,0,-1,1399,1289,0,0
182,-265,0,0,0,0,0,0,0,0,0,-1,1406,1289,0,0
189,-265,0,0,0,0,0,0,0,0,0,-1,1413,1289,0,0
196,-265,0,0,0,0,0,0,0,0,0,-1,1420,1289,0,0
203,-265,0,0,0,0,0,0,0,0,0,-1,1427,1289,0,0
210,-265,0,0,0,0,0,0,0,0,0,-1,1434,1289,0,0
217,-265,0,0,0,0,0,0,0,0,0,-1,1441,1289,0,0
224,-265,0,0,0,0,0,0,0,0,0,-1,1448,1289,0,0
231,-265,0,0,0,0,0,0,0,0,0,-1,1455,1289,0,0
238,-265,0,0,0,0,0,0,0,0,0,-1,1462,1289,0,0
245,-265,0,0,0,0,0,0,0,0,0,-1,1469,1289,0,0
252,-265,0,0,0,0,0,0,0,0,0,-1,1476,1289,0,0
259,-265,0,0,0,0,0,0,0,0,0,-1,1483,1289,0,0
266,-265,0,0,0,0,0,0,0,0,0,-1,1490,1289,0,0
273,-265,0,0,0,0,0,0,0,0,0,-1,1497,1289,0,0
280,-265,0,0,0,0,0,0,0,0,0,-1,1504,1289,0,0
287,-265,0,0,0,0,0,0,0,0,0,-1,1511,1289,0,0
294,-265,0,0,0,0,0,0,0,0,0,-1,1518,1289,0,0
301,-265,0,0,0,0,0,0,0,0,0,-1,1525,1289,0,0
308,-265,0,0,0,0,0,0,0,0,0,-1,1532,1289,0,0
315,-265,0,0,0,0,0,0,0,0,0,-1,1539,1289,0,0
322,-265,0,0,0,0,0,0,0,0,0,-1,1546,1289,0,0
329,-265,0,0,0,0,0,0,0,0,0,-1,1553,1289,0,0
336,-265,0,0,0,0,0,0,0,0,0,-1,1560,1289,0,0
343,-265,0,0,0,0,0,0,0,0,0,-1,1567,1289,0,0
350,-265,0,0,0,0,0,0,0,0,0,-1,1574,1289,0,0
357,-265,0,0,0,0,0,0,0,0,0,-1,1581,1289,0,0
364,-265,0,0,0,0,0,0,0,0,0,-1,1588,1289,0,0
371,-265,0,0,0,0,0,0,0,0,0,-1,1595,1289,0,0
378,-265,0,0,0,0,0,0,0,0,0,-1,1602,1289,0,0
385,-265,0,0,0,0,0,0,0,0,0,-1,1609,1289,0,0
392,-265,0,0,0,0,0,0,0,0,0,-1,1616,1289,0,0
399,-265,0,0,0,0,0,0,0,0,0,-1,1623,1289,0,0
406,-265,0,0,0,0,0,0,0,0,0,-1,1630,1289,0,0
413,-265,0,0,0,0,0,0,0,0,0,-1,1637,1289,0,0
420,-265,0,0,0,0,0,0,0,0,0,-1,1644,1289,0,0
427,-265,0,0,0,0,0,0,0,0,0,-1,1651,1289,0,0
434,-265,0,0,0,0,0,0,0,0,0,-1,1658,1289,0,0
441,-265,0,0,0,0,0,0,0,0,0,-1,1665,1289,0,0
448,-265,0,0,0,0,0,0,0,0,0,-1,1672,1289,0,0
455,-265,0,0,0,0,0,0,0,0,0,-1,1679,1289,0,0
462,-265,0,0,0,0,0,0,0,0,0,-1,1686,1289,0,0
469,-265,0,0,0,0,0,0,0,0,0,-1,1693,1289,0,0
476,-265,0,0,0,0,0,0,0,0,0,-1,1700,1289,0,0
483,-265,0,0,0,0,0,0,0,0,0,-1,1707,1289,0,0
490,-265,0,0,0,0,0,0,0,0,0,-1,1714,1289,0,0
497,-265,0,0,0,0,0,0,0,0,0,-1,1721,1289,0,0
504,-265,0,0,0,0,0,0,0,0,0,-1,1728,1289,0,0
511,-265,0,0,0,0,0,0,0,0,0,-1,1735,1289,0,0
518,-265,0,0,0,0,0,0,0,0,0,-1,1742,1289,0,0
525,-265,0,0,0,0,0,0,0,0,0,-1,1749,1289,0,0
532,-265,0,0,0,0,0,0,0,0,0,-1,1756,1289,0,0
539,-265,0,0,0,0,0,0,0,0,0,-1,1763,1289,0,0
546,-265,0,0,0,0,0,0,0,0,0,-1,1770,1289,0,0
553,-265,0,0,0,0,0,0,0,0,0,-1,1777,1289,0,0
560,-265,0,0,0,0,0,0,0,0,0,-1,1784,1289,0,0
567,-265,0,0,0,0,0,0,0,0,0,-1,1791,1289,0,0
574,-265,0,0,0,0,0,0,0,0,0,-1,1798,1289,0,0
581,-265,0,0,0,0,0,0,0,0,0,-1,1805,1289,0,0
588,-265,0,0,0,0,0,0,0,0,0,-1,1812,1289,0,0
595,-265,0,0,0,0,0,0,0,0,0,-1,1819,1289,0,0
602,-265,35.4664,2.56494,0.0198228,0.00134749,-0.0155387,0.0286624,-0.00749211,-0.517219,0.0220344,0.0278937,1826,1289,35.4664,-2.56493
609,-265,35.4904,2.54419,0.0161793,0.00741641,-0.0140364,0.0265022,-0.00290645,-0.634115,0.0187123,0.0303334,1833,1289,35.4904,-2.54421
616,-265,35.4751,2.58081,0.0064855,0.00770492,-0.00901226,0.0161281,-0.00193765,-0.819173,0.0114527,0.034398,1840,1289,35.4751,-2.58079
623,-265,35.4497,2.4281,-0.00395038,0.00657443,-0.00325285,0.00749861,-0.00487456,-1.29397,0.00719701,0.0453388,1847,1289,35.4497,-2.42806
630,-265,35.3058,2.27637,-0.0130084,0.00454673,0.00196668,0.00476436,-0.013226,1.46059,0.0107629,0.0459587,1854,1289,35.3058,-2.27632
637,-265,35.0331,1.5105,-0.0173278,0.00262465,0.0049805,0.00379878,-0.018502,1.33928,0.0137766,0.0453593,1861,1289,35.0331,-1.5105
644,-265,34.7026,2.46021,-0.0185148,0.00112357,0.00643003,0.00304158,-0.0204328,1.28091,0.0147407,0.0478486,1868,1289,34.7026,-2.46023
651,-265,33.3687,2.60852,-0.0185225,9.95215e-05,0.00714776,0.00252671,-0.0209497,1.24344,0.0148804,0.0478744,1875,1289,33.3686,-2.60852
658,-265,32.3435,3.4696,-0.0179108,-0.000745706,0.00744479,0.00203331,-0.0206898,1.21353,0.0145185,0.0470388,1882,1289,32.3435,-3.46961
665,-265,31.3497,2.93079,0,0,0,0,0,0,0,-1,1889,1289,31.3497,-2.93077
672,-265,20.0045,6.62671,0,0,0,0,0,0,0,-1,1896,1289,20.0045,-6.62668
679,-265,26.634,8.1604,0,0,0,0,0,0,0,-1,1903,1289,26.634,-8.16039
686,-265,26.7097,7.80396,-0.0129357,-0.00316624,0.00744435,0.000852911,-0.0169548,1.07575,0.011598,0.0285997,1910,1289,26.7098,-7.80393
693,-265,26.7638,7.46228,-0.00923574,-0.00370975,0.00533507,-0.000464659,-0.0124808,1.02433,0.00817007,0.0101831,1917,1289,26.7638,-7.46227
700,-265,26.7401,7.10742,-0.00436577,-0.00266654,0.00328641,-0.000121704,-0.00691062,0.911891,0.00456705,0.010764,1924,1289,26.7401,-7.10739
707,-265,26.7433,6.7572,-0.000545558,-0.00158809,0.00142813,0.000453458,-0.00258711,0.61041,0.00189407,0.0112412,1931,1289,26.7433,-6.75726
714,-265,26.7385,6.44006,0.00123337,-5.70373e-05,0.000392261,0.00134325,-0.000166921,0.273128,0.000956011,0.011272,1938,1289,26.7386,-6.44001
721,-265,26.714,6.12561,0.000739851,0.000292566,0.000693505,0.00124488,-0.000212465,0.629422,0.000909058,0.0106407,1945,1289,26.7139,-6.12562
728,-265,26.699,5.81482,0.000450358,0.000614389,0.000988175,0.00152395,-0.000459199,0.826802,0.00119872,0.0126926,1952,1289,26.699,-5.81486
735,-265,26.72,5.50476,0.000336735,0.000959075,0.00127033,0.00195579,-0.000659977,0.90551,0.00157077,0.0164744,1959,1289,26.72,-5.50481
742,-265,26.7437,5.1803,0.00057551,0.00132892,0.00152766,0.00252563,-0.000621208,0.906281,0.00192454,0.0201992,1966,1289,26.7437,-5.18035
749,-265,26.7585,4.84692,0.00139123,0.00168445,0.00181341,0.00335717,-0.000281493,0.825735,0.0023376,0.0444841,1973,1289,26.7586,-4.84697
756,-265,26.9209,4.4989,0,0,0,0,0,0,0,-1,1980,1289,26.9209,-4.49893
763,-265,27.5735,3.68811,0,0,0,0,0,0,0,-1,1987,1289,27.5735,-3.68807
770,-265,26.0203,3.4718,0,0,0,0,0,0,0,-1,1994,1289,26.0203,-3.47181
777,-265,32.1664,5.3457,0,0,0,0,0,0,0,-1,2001,1289,32.1664,-5.34568
784,-265,0,0,0,0,0,0,0,0,0,-1,2008,1289,0,0
791,-265,0,0,0,0,0,0,0,0,0,-1,2015,1289,0,0
798,-265,0,0,0,0,0,0,0,0,0,-1,2022,1289,0,0
805,-265,0,0,0,0,0,0,0,0,0,-1,2029,1289,0,0
812,-265,0,0,0,0,0,0,0,0,0,-1,2036,1289,0,0
-700,-272,0,0,0,0,0,0,0,0,0,-1,524,1296,0,0
-693,-272,0,0,0,0,0,0,0,0,0,-1,531,1296,0,0
-686,-272,0,0,0,0,0,0,0,0,0,-1,538,1296,0,0
-679,-272,0,0,0,0,0,0,0,0,0,-1,545,1296,0,0
-672,-272,0,0,0,0,0,0,0,0,0,-1,552,1296,0,0
-665,-272,0,0,0,0,0,0,0,0,0,-1,559,1296,0,0
-658,-272,-13.7506,0.696777,-0.023442,0.0435889,-0.0423512,0.0640819,-0.043935,-1.12013,0.0627242,0.0462697,566,1296,-13.7506,-0.69681
-651,-272,-13.9782,0.694336,-0.0270989,0.0409281,-0.0376195,0.0576309,-0.0438017,-1.15295,0.0587433,0.0450491,573,1296,-13.9782,-0.694381
-644,-272,-14.2628,0.502197,-0.0269391,0.0368453,-0.0322891,0.0503371,-0.0404309,-1.17501,0.0525088,0.0451832,580,1296,-14.2628,-0.502172
-637,-272,-14.6956,0.54187,-0.024633,0.0318692,-0.0267103,0.042497,-0.0352607,-1.19211,0.0449582,0.0449918,587,1296,-14.6956,-0.541826
-630,-272,-15.1799,0.703369,0,0,0,0,0,0,0,-1,594,1296,-15.1799,-0.70332
-623,-272,-15.3936,1.8335,0,0,0,0,0,0,0,-1,601,1296,-15.3935,-1.83355
-616,-272,-15.4089,2.35278,-0.0144493,0.016236,-0.011445,0.0200346,-0.0182478,-1.25034,0.0221104,0.0400868,608,1296,-15.4089,-2.35284
-609,-272,-15.4764,2.74646,-0.0110113,0.0116641,-0.00756559,0.0139566,-0.0133038,-1.27658,0.0157403,0.0230839,615,1296,-15.4765,-2.74651
-602,-272,-15.5197,3.03613,-0.00748936,0.00830095,-0.00440076,0.00944461,-0.00863302,-1.31654,0.0104406,0.0131559,622,1296,-15.5197,-3.03613
-595,-272,-15.5372,3.41968,-0.00393893,0.00515168,-0.00180269,0.00549611,-0.00428335,-1.38201,0.00566063,0.0106365,629,1296,-15.5372,-3.41972
-588,-272,-15.5419,3.78174,-0.000903296,0.00252916,0.000493047,0.00259858,-0.000972715,1.43092,0.00213192,0.0103166,636,1296,-15.5419,-3.7818
-581,-272,-15.5529,4.1333,0.00168899,0.000764835,0.00173602,0.00302337,-0.000569551,0.655329,0.00222981,0.0100781,643,1296,-15.5529,-4.13325
-574,-272,-15.5839,4.52209,0.00340047,0.000841547,0.00200975,0.00450347,-0.00026145,0.501939,0.00309315,0.0149633,650,1296,-15.5839,-4.52207
-567,-272,-15.6191,4.88513,0.00467618,0.00101454,0.00253147,0.0059695,-0.000278773,0.472326,0.00407577,0.0210501,657,1296,-15.6191,-4.88512
-560,-272,-15.6219,5.28833,0.00556808,0.000989,0.00280929,0.00690264,-0.000345557,0.443491,0.00472116,0.0200259,664,1296,-15.6219,-5.28838
-553,-272,-15.563,5.65808,0.00578277,0.00028874,0.00298164,0.00708991,-0.00101841,0.413166,0.00510009,0.0179827,671,1296,-15.563,-5.65802
-546,-272,-15.4625,6.11536,0.00520049,-0.0020233,0.00297728,0.00626941,-0.00309222,0.344691,0.00550772,0.0319654,678,1296,-15.4624,-6.11533
-539,-272,-15.6455,6.63428,0,0,0,0,0,0,0,-1,685,1296,-15.6455,-6.63424
-532,-272,-10.5572,4.53943,0,0,0,0,0,0,0,-1,692,1296,-10.5572,-4.53943
-525,-272,-11.9599,0.0393066,0,0,0,0,0,0,0,-1,699,1296,-11.9599,-0.0393577
-518,-272,-21.1357,-1.41382,0,0,0,0,0,0,0,-1,706,1296,-21.1357,1.41379
-511,-272,-23.2565,0.226318,0,0,0,0,0,0,0,-1,713,1296,-23.2565,-0.22626
-504,-272,-19.7397,0.114746,0,0,0,0,0,0,0,-1,720,1296,-19.7397,-0.114701
-497,-272,-19.2225,1.71301,0,0,0,0,0,0,0,-1,727,1296,-19.2225,-1.71302
-490,-272,-20.1948,2.4032,0,0,0,0,0,0,0,-1,734,1296,-20.1948,-2.40322
-483,-272,-15.3736,0.792603,0,0,0,0,0,0,0,-1,741,1296,-15.3736,-0.79263
-476,-272,0,0,0,0,0,0,0,0,0,-1,748,1296,0,0
-469,-272,0,0,0,0,0,0,0,0,0,-1,755,1296,0,0
-462,-272,0,0,0,0,0,0,0,0,0,-1,762,1296,0,0
-455,-272,0,0,0,0,0,0,0,0,0,-1,769,1296,0,0
-448,-272,0,0,0,0,0,0,0,0,0,-1,776,1296,0,0
-441,-272,0,0,0,0,0,0,0,0,0,-1,783,1296,0,0
-434,-272,0,0,0,0,0,0,0,0,0,-1,790,1296,0,0
-427,-272,0,0,0,0,0,0,0,0,0,-1,797,1296,0,0
-420,-272,0,0,0,0,0,0,0,0,0,-1,804,1296,0,0
-413,-272,0,0,0,0,0,0,0,0,0,-1,811,1296,0,0
-406,-272,0,0,0,0,0,0,0,0,0,-1,818,1296,0,0
-399,-272,0,0,0,0,0,0,0,0,0,-1,825,1296,0,0
-392,-272,0,0,0,0,0,0,0,0,0,-1,832,1296,0,0
-385,-272,0,0,0,0,0,0,0,0,0,-1,839,1296,0,0
-378,-272,0,0,0,0,0,0,0,0,0,-1,846,1296,0,0
-371,-272,0,0,0,0,0,0,0,0,0,-1,853,1296,0,0
-364,-272,0,0,0,0,0,0,0,0,0,-1,860,1296,0,0
-357,-272,0,0,0,0,0,0,0,0,0,-1,867,1296,0,0
-350,-272,0,0,0,0,0,0,0,0,0,-1,874,1296,0,0
-343,-272,0,0,0,0,0,0,0,0,0,-1,881,1296,0,0
-336,-272,0,0,0,0,0,0,0,0,0,-1,888,1296,0,0
-329,-272,0,0,0,0,0,0,0,0,0,-1,895,1296,0,0
-322,-272,0,0,0,0,0,0,0,0,0,-1,902,1296,0,0
-315,-272,0,0,0,0,0,0,0,0,0,-1,909,1296,0,0
-308,-272,0,0,0,0,0,0,0,0,0,-1,916,1296,0,0
-301,-272,0,0,0,0,0,0,0,0,0,-1,923,1296,0,0
-294,-272,0,0,0,0,0,0,0,0,0,-1,930,1296,0,0
-287,-272,0,0,0,0,0,0,0,0,0,-1,937,1296,0,0
-280,-272,0,0,0,0,0,0,0,0,0,-1,944,1296,0,0
-273,-272,0,0,0,0,0,0,0,0,0,-1,951,1296,0,0
-266,-272,0,0,0,0,0,0,0,0,0,-1,958,1296,0,0
-259,-272,0,0,0,0,0,0,0,0,0,-1,965,1296,0,0
-252,-272,0,0,0,0,0,0,0,0,0,-1,972,1296,0,0
-245,-272,0,0,0,0,0,0,0,0,0,-1,979,1296,0,0
-238,-272,0,0,0,0,0,0,0,0,0,-1,986,1296,0,0
-231,-272,0,0,0,0,0,0,0,0,0,-1,993,1296,0,0
-224,-272,0,0,0,0,0,0,0,0,0,-1,1000,1296,0,0
-217,-272,0,0,0,0,0,0,0,0,0,-1,1007,1296,0,0
-210,-272,0,0,0,0,0,0,0,0,0,-1,1014,1296,0,0
-203,-272,0,0,0,0,0,0,0,0,0,-1,1021,1296,0,0
-196,-272,0,0,0,0,0,0,0,0,0,-1,1028,1296,0,0
-189,-272,0,0,0,0,0,0,0,0,0,-1,1035,1296,0,0
-182,-272,0,0,0,0,0,0,0,0,0,-1,1042,1296,0,0
-175,-272,0,0,0,0,0,0,0,0,0,-1,1049,1296,0,0
-168,-272,0,0,0,0,0,0,0,0,0,-1,1056,1296,0,0
-161,-272,0,0,0,0,0,0,0,0,0,-1,1063,1296,0,0
-154,-272,0,0,0,0,0,0,0,0,0,-1,1070,1296,0,0
-147,-272,0,0,0,0,0,0,0,0,0,-1,1077,1296,0,0
-140,-272,0,0,0,0,0,0,0,0,0,-1,1084,1296,0,0
-133,-272,0,0,0,0,0,0,0,0,0,-1,1091,1296,0,0
-126,-272,0,0,0,0,0,0,0,0,0,-1,1098,1296,0,0
-119,-272,0,0,0,0,0,0,0,0,0,-1,1105,1296,0,0
-112,-272,0,0,0,0,0,0,0,0,0,-1,1112,1296,0,0
-105,-272,0,0,0,0,0,0,0,0,0,-1,1119,1296,0,0
-98,-272,0,0,0,0,0,0,0,0,0,-1,1126,1296,0,0
-91,-272,0,0,0,0,0,0,0,0,0,-1,1133,1296,0,0
-84,-272,0,0,0,0,0,0,0,0,0,-1,1140,1296,0,0
-77,-272,0,0,0,0,0,0,0,0,0,-1,1147,1296,0,0
-70,-272,0,0,0,0,0,0,0,0,0,-1,1154,1296,0,0
-63,-272,0,0,0,0,0,0,0,0,0,-1,1161,1296,0,0
-56,-272,0,0,0,0,0,0,0,0,0,-1,1168,1296,0,0
-49,-272,0,0,0,0,0,0,0,0,0,-1,1175,1296,0,0
-42,-272,0,0,0,0,0,0,0,0,0,-1,1182,1296,0,0
-35,-272,0,0,0,0,0,0,0,0,0,-1,1189,1296,0,0
-28,-272,0,0,0,0,0,0,0,0,0,-1,1196,1296,0,0
-21,-272,0,0,0,0,0,0,0,0,0,-1,1203,1296,0,0
-14,-272,0,0,0,0,0,0,0,0,0,-1,1210,1296,0,0
-7,-272,0,0,0,0,0,0,0,0,0,-1,1217,1296,0,0
0,-272,0,0,0,0,0,0,0,0,0,-1,1224,1296,0,0
7,-272,0,0,0,0,0,0,0,0,0,-1,1231,1296,0,0
14,-272,0,0,0,0,0,0,0,0,0,-1,1238,1296,0,0
21,-272,0,0,0,0,0,0,0,0,0,-1,1245,1296,0,0
28,-272,0,0,0,0,0,0,0,0,0,-1,1252,1296,0,0
35,-272,0,0,0,0,0,0,0,0,0,-1,1259,1296,0,0
42,-272,0,0,0,0,0,0,0,0,0,-1,1266,1296,0,0
49,-272,0,0,0,0,0,0,0,0,0,-1,1273,1296,0,0
56,-272,0,0,0,0,0,0,0,0,0,-1,1280,1296,0,0
63,-272,0,0,0,0,0,0,0,0,0,-1,1287,1296,0,0
70,-272,0,0,0,0,0,0,0,0,0,-1,1294,1296,0,0
77,-272,0,0,0,0,0,0,0,0,0,-1,1301,1296,0,0
84,-272,0,0,0,0,0,0,0,0,0,-1,1308,1296,0,0
91,-272,0,0,0,0,0,0,0,0,0,-1,1315,1296,0,0
98,-272,0,0,0,0,0,0,0,0,0,-1,1322,1296,0,0
105,-272,0,0,0,0,0,0,0,0,0,-1,1329,1296,0,0
112,-272,0,0,0,0,0,0,0,0,0,-1,1336,1296,0,0
119,-272,0,0,0,0,0,0,0,0,0,-1,1343,1296,0,0
126,-272,0,0,0,0,0,0,0,0,0,-1,1350,1296,0,0
133,-272,0,0,0,0,0,0,0,0,0,-1,1357,1296,0,0
140,-272,0,0,0,0,0,0,0,0,0,-1,1364,1296,0,0
147,-272,0,0,0,0,0,0,0,0,0,-1,1371,1296,0,0
154,-272,0,0,0,0,0,0,0,0,0,-1,1378,1296,0,0
161,-272,0,0,0,0,0,0,0,0,0,-1,1385,1296,0,0
168,-272,0,0,0,0,0,0,0,0,0,-1,1392,1296,0,0
175,-272,0,0,0,0,0,0,0,0,0,-1,1399,1296,0,0
182,-272,0,0,0,0,0,0,0,0,0,-1,1406,1296,0,0
189,-272,0,0,0,0,0,0,0,0,0,-1,1413,1296,0,0
196,-272,0,0,0,0,0,0,0,0,0,-1,1420,1296,0,0
203,-272,0,0,0,0,0,0,0,0,0,-1,1427,1296,0,0
210,-272,0,0,0,0,0,0,0,0,0,-1,1434,1296,0,0
217,-272,0,0,0,0,0,0,0,0,0,-1,1441,1296,0,0
224,-272,0,0,0,0,0,0,0,0,0,-1,1448,1296,0,0
231,-272,0,0,0,0,0,0,0,0,0,-1,1455,1296,0,0
238,-272,0,0,0,0,0,0,0,0,0,-1,1462,1296,0,0
245,-272,0,0,0,0,0,0,0,0,0,-1,1469,1296,0,0
252,-272,0,0,0,0,0,0,0,0,0,-1,1476,1296,0,0
259,-272,0,0,0,0,0,0,0,0,0,-1,1483,1296,0,0
266,-272,0,0,0,0,0,0,0,0,0,-1,1490,1296,0,0
273,-272,0,0,0,0,0,0,0,0,0,-1,1497,1296,0,0
280,-272,0,0,0,0,0,0,0,0,0,-1,1504,1296,0,0
287,-272,0,0,0,0,0,0,0,0,0,-1,1511,1296,0,0
294,-272,0,0,0,0,0,0,0,0,0,-1,1518,1296,0,0
301,-272,0,0,0,0,0,0,0,0,0,-1,1525,1296,0,0
308,-272,0,0,0,0,0,0,0,0,0,-1,1532,1296,0,0
315,-272,0,0,0,0,0,0,0,0,0,-1,1539,1296,0,0
322,-272,0,0,0,0,0,0,0,0,0,-1,1546,1296,0,0
329,-272,0,0,0,0,0,0,0,0,0,-1,1553,1296,0,0
336,-272,0,0,0,0,0,0,0,0,0,-1,1560,1296,0,0
343,-272,0,0,0,0,0,0,0,0,0,-1,1567,1296,0,0
350,-272,0,0,0,0,0,0,0,0,0,-1,1574,1296,0,0
357,-272,0,0,0,0,0,0,0,0,0,-1,1581,1296,0,0
364,-272,0,0,0,0,0,0,0,0,0,-1,1588,1296,0,0
371,-272,0,0,0,0,0,0,0,0,0,-1,1595,1296,0,0
378,-272,0,0,0,0,0,0,0,0,0,-1,1602,1296,0,0
385,-272,0,0,0,0,0,0,0,0,0,-1,1609,1296,0,0
392,-272,0,0,0,0,0,0,0,0,0,-1,1616,1296,0,0
399,-272,0,0,0,0,0,0,0,0,0,-1,1623,1296,0,0
406,-272,0,0,0,0,0,0,0,0,0,-1,1630,1296,0,0
413,-272,0,0,0,0,0,0,0,0,0,-1,1637,1296,0,0
420,-272,0,0,0,0,0,0,0,0,0,-1,1644,1296,0,0
427,-272,0,0,0,0,0,0,0,0,0,-1,1651,1296,0,0
434,-272,0,0,0,0,0,0,0,0,0,-1,1658,1296,0,0
441,-272,0,0,0,0,0,0,0,0,0,-1,1665,1296,0,0
448,-272,0,0,0,0,0,0,0,0,0,-1,1672,1296,0,0
455,-272,0,0,0,0,0,0,0,0,0,-1,1679,1296,0,0
462,-272,0,0,0,0,0,0,0,0,0,-1,1686,1296,0,0
469,-272,0,0,0,0,0,0,0,0,0,-1,1693,1296,0,0
476,-272,0,0,0,0,0,0,0,0,0,-1,1700,1296,0,0
483,-272,0,0,0,0,0,0,0,0,0,-1,1707,1296,0,0
490,-272,0,0,0,0,0,0,0,0,0,-1,1714,1296,0,0
497,-272,0,0,0,0,0,0,0,0,0,-1,1721,1296,0,0
504,-272,0,0,0,0,0,0,0,0,0,-1,1728,1296,0,0
511,-272,0,0,0,0,0,0,0,0,0,-1,1735,1296,0,0
518,-272,0,0,0,0,0,0,0,0,0,-1,1742,1296,0,0
525,-272,0,0,0,0,0,0,0,0,0,-1,1749,1296,0,0
532,-272,0,0,0,0,0,0,0,0,0,-1,1756,1296,0,0
539,-272,0,0,0,0,0,0,0,0,0,-1,1763,1296,0,0
546,-272,0,0,0,0,0,0,0,0,0,-1,1770,1296,0,0
553,-272,0,0,0,0,0,0,0,0,0,-1,1777,1296,0,0
560,-272,0,0,0,0,0,0,0,0,0,-1,1784,1296,0,0
567,-272,0,0,0,0,0,0,0,0,0,-1,1791,1296,0,0
574,-272,0,0,0,0,0,0,0,0,0,-1,1798,1296,0,0
581,-272,0,0,0,0,0,0,0,0,0,-1,1805,1296,0,0
588,-272,0,0,0,0,0,0,0,0,0,-1,1812,1296,0,0
595,-272,0,0,0,0,0,0,0,0,0,-1,1819,1296,0,0
602,-272,35.4172,2.5188,0.0201859,0.00465521,-0.0215922,0.0353667,-0.0105256,-0.612781,0.0277596,0.0296837,1826,1296,35.4173,-2.51877
609,-272,35.3971,2.43054,0.0169794,0.00943857,-0.0185613,0.0321494,-0.00573141,-0.685195,0.0235768,0.0392959,1833,1296,35.3971,-2.43051
616,-272,35.4733,2.52844,0.00800185,0.00928301,-0.0126617,0.0213204,-0.0040355,-0.810673,0.0157322,0.0441516,1840,1296,35.4733,-2.52848
623,-272,35.526,2.53223,-0.00128788,0.00778422,-0.00640336,0.0110954,-0.00459904,-1.09356,0.00931634,0.0442608,1847,1296,35.526,-2.53226
630,-272,34.028,1.29346,-0.00891689,0.00567899,-0.00117028,0.00577222,-0.00901013,-1.49129,0.00860257,0.044692,1854,1296,34.028,-1.29341
637,-272,34.4751,1.36743,-0.0125873,0.00382925,0.00190023,0.00404633,-0.0128044,1.45705,0.0101574,0.047622,1861,1296,34.4751,-1.36747
644,-272,34.585,2.44739,0,0,0,0,0,0,0,-1,1868,1296,34.585,-2.44735
651,-272,32.0737,2.07959,0,0,0,0,0,0,0,-1,1875,1296,32.0738,-2.07959
658,-272,31.3019,4.18726,0,0,0,0,0,0,0,-1,1882,1296,31.3019,-4.18723
665,-272,22.0238,4.14417,0,0,0,0,0,0,0,-1,1889,1296,22.0238,-4.14421
672,-272,22.661,7.21765,0,0,0,0,0,0,0,-1,1896,1296,22.661,-7.21761
679,-272,26.3719,8.12122,0,0,0,0,0,0,0,-1,1903,1296,26.372,-8.12121
686,-272,26.3893,7.79553,-0.0128499,-0.00287168,0.00713519,0.000845658,-0.0165672,1.0905,0.0113372,0.0186523,1910,1296,26.3892,-7.79548
693,-272,26.4189,7.46851,-0.00889666,-0.0033143,0.00488042,-0.000483276,-0.0117277,1.04515,0.00766245,0.0118636,1917,1296,26.419,-7.46856
700,-272,26.4081,7.12634,-0.00402821,-0.0022318,0.00286777,-0.000124868,-0.00613514,0.937162,0.00404911,0.0118322,1924,1296,26.4081,-7.12639
707,-272,26.4099,6.77625,-0.000432398,-0.00118823,0.00121682,0.000463845,-0.00208447,0.634832,0.00156731,0.011709,1931,1296,26.41,-6.77627
714,-272,26.4122,6.43921,0.00117587,9.72733e-05,0.000392247,0.00130343,-3.02869e-05,0.314416,0.000879222,0.0120798,1938,1296,26.4122,-6.43921
721,-272,26.3779,6.14636,0.000948121,0.000460442,0.000600193,0.00135212,5.64473e-05,0.592449,0.000883196,0.0128707,1945,1296,26.3779,-6.14641
728,-272,26.375,5.82324,0.000872161,0.000859503,0.000771885,0.00163774,9.39209e-05,0.781298,0.00106191,0.0150556,1952,1296,26.375,-5.8233
735,-272,26.3771,5.52771,0.000996065,0.00132064,0.000875752,0.00204901,0.000267691,0.877015,0.0012861,0.0152706,1959,1296,26.3771,-5.52773
742,-272,26.321,5.21448,0.00155443,0.00185862,0.000884872,0.00260437,0.000808674,0.870508,0.00153921,0.0264323,1966,1296,26.3211,-5.21451
749,-272,26.3717,4.82275,0.00278567,0.00246412,0.000789793,0.00343089,0.0018189,0.684989,0.00198202,0.0472843,1973,1296,26.3717,-4.82271
756,-272,26.6709,4.53943,0,0,0,0,0,0,0,-1,1980,1296,26.6709,-4.53948
763,-272,25.4053,4.14624,0,0,0,0,0,0,0,-1,1987,1296,25.4052,-4.14628
770,-272,25.9485,3.67749,0,0,0,0,0,0,0,-1,1994,1296,25.9485,-3.67744
777,-272,32.3619,6.13257,0,0,0,0,0,0,0,-1,2001,1296,32.362,-6.1326
784,-272,0,0,0,0,0,0,0,0,0,-1,2008,1296,0,0
791,-272,0,0,0,0,0,0,0,0,0,-1,2015,1296,0,0
798,-272,0,0,0,0,0,0,0,0,0,-1,2022,1296,0,0
805,-272,0,0,0,0,0,0,0,0,0,-1,2029,1296,0,0
812,-272,0,0,0,0,0,0,0,0,0,-1,2036,1296,0,0
-700,-279,0,0,0,0,0,0,0,0,0,-1,524,1303,0,0
-693,-279,0,0,0,0,0,0,0,0,0,-1,531,1303,0,0
-686,-279,0,0,0,0,0,0,0,0,0,-1,538,1303,0,0
-679,-279,0,0,0,0,0,0,0,0,0,-1,545,1303,0,0
-672,-279,0,0,0,0,0,0,0,0,0,-1,552,1303,0,0
-665,-279,0,0,0,0,0,0,0,0,0,-1,559,1303,0,0
-658,-279,-13.1476,0.515503,0,0,0,0,0,0,0,-1,566,1303,-13.1477,-0.515444
-651,-279,-13.3882,0.514038,0,0,0,0,0,0,0,-1,573,1303,-13.3882,-0.514061
-644,-279,-13.5609,0.237915,0,0,0,0,0,0,0,-1,580,1303,-13.5609,-0.237912
-637,-279,-13.8203,-0.0383301,0,0,0,0,0,0,0,-1,587,1303,-13.8203,0.0382987
-630,-279,-14.007,-0.194946,0,0,0,0,0,0,0,-1,594,1303,-14.007,0.194889
-623,-279,-14.6626,1.78894,0,0,0,0,0,0,0,-1,601,1303,-14.6626,-1.78893
-616,-279,-15.316,2.73767,0,0,0,0,0,0,0,-1,608,1303,-15.316,-2.73767
-609,-279,-15.3682,2.61292,-0.0112608,0.0143054,-0.00973779,0.0175919,-0.0145473,-1.2453,0.0185833,0.039939,615,1303,-15.3682,-2.61292
-602,-279,-15.1385,3.0332,-0.00766099,0.0102117,-0.00598327,0.0120298,-0.00947907,-1.2758,0.0124472,0.0128425,622,1303,-15.1385,-3.03316
-595,-279,-15.1624,3.41455,-0.004243,0.00640048,-0.00283319,0.00710766,-0.00495018,-1.32619,0.00699864,0.00968984,629,1303,-15.1624,-3.41453
-588,-279,-15.1692,3.79016,-0.00128761,0.00307262,2.85374e-05,0.00307281,-0.0012878,1.56425,0.00258695,0.0104478,636,1303,-15.1692,-3.79013
-581,-279,-15.1785,4.13745,0.00121238,0.000722787,0.00157132,0.00255786,-0.000622689,0.708124,0.00194629,0.0116634,643,1303,-15.1785,-4.13748
-574,-279,-15.1996,4.50513,0.00268283,0.000708082,0.001676,0.00364067,-0.000249762,0.519206,0.00251451,0.0114836,650,1303,-15.1997,-4.50513
-567,-279,-15.2078,4.89172,0.00369623,0.000777708,0.00202789,0.00473533,-0.000261383,0.473519,0.00324752,0.015587,657,1303,-15.2079,-4.89176
-560,-279,-15.2076,5.30359,0.00453615,0.000757215,0.00235581,0.0056666,-0.000373236,0.447404,0.00390809,0.0160273,664,1303,-15.2076,-5.30364
-553,-279,-15.2055,5.69971,0.00506904,0.000280139,0.00272934,0.00630539,-0.000956206,0.425332,0.0045559,0.012084,671,1303,-15.2055,-5.69976
-546,-279,-15.2072,6.06543,0.0050184,-0.00144124,0.003024,0.0062131,-0.00263593,0.37625,0.00524629,0.0183117,678,1303,-15.2072,-6.06544
-539,-279,-15.1749,6.56213,0.00468992,-0.00350488,0.00315054,0.00576113,-0.00457609,0.327747,0.00598126,0.0494548,685,1303,-15.1749,-6.56218
-532,-279,-15.108,7.08386,0,0,0,0,0,0,0,-1,692,1303,-15.108,-7.08385
-525,-279,-11.7063,-0.539185,0,0,0,0,0,0,0,-1,699,1303,-11.7063,0.539166
-518,-279,-16.8138,1.11963,0,0,0,0,0,0,0,-1,706,1303,-16.8138,-1.11968
-511,-279,-20.1063,-1.37915,0,0,0,0,0,0,0,-1,713,1303,-20.1062,1.37918
-504,-279,-18.3766,1.04578,0,0,0,0,0,0,0,-1,720,1303,-18.3767,-1.04577
-497,-279,-19.0046,2.08911,0,0,0,0,0,0,0,-1,727,1303,-19.0046,-2.08905
-490,-279,-20.0176,2.55188,0,0,0,0,0,0,0,-1,734,1303,-20.0176,-2.55183
-483,-279,-20.8064,2.99792,0,0,0,0,0,0,0,-1,741,1303,-20.8064,-2.99797
-476,-279,0,0,0,0,0,0,0,0,0,-1,748,1303,0,0
-469,-279,0,0,0,0,0,0,0,0,0,-1,755,1303,0,0
-462,-279,0,0,0,0,0,0,0,0,0,-1,762,1303,0,0
-455,-279,0,0,0,0,0,0,0,0,0,-1,769,1303,0,0
-448,-279,0,0,0,0,0,0,0,0,0,-1,776,1303,0,0
-441,-279,0,0,0,0,0,0,0,0,0,-1,783,1303,0,0
-434,-279,0,0,0,0,0,0,0,0,0,-1,790,1303,0,0
-427,-279,0,0,0,0,0,0,0,0,0,-1,797,1303,0,0
-420,-279,0,0,0,0,0,0,0,0,0,-1,804,1303,0,0
-413,-279,0,0,0,0,0,0,0,0,0,-1,811,1303,0,0
-406,-279,0,0,0,0,0,0,0,0,0,-1,818,1303,0,0
-399,-279,0,0,0,0,0,0,0,0,0,-1,825,1303,0,0
-392,-279,0,0,0,0,0,0,0,0,0,-1,832,1303,0,0
-385,-279,0,0,0,0,0,0,0,0,0,-1,839,1303,0,0
-378,-279,0,0,0,0,0,0,0,0,0,-1,846,1303,0,0
-371,-279,0,0,0,0,0,0,0,0,0,-1,853,1303,0,0
-364,-279,0,0,0,0,0,0,0,0,0,-1,860,1303,0,0
-357,-279,0,0,0,0,0,0,0,0,0,-1,867,1303,0,0
-350,-279,0,0,0,0,0,0,0,0,0,-1,874,1303,0,0
-343,-279,0,0,0,0,0,0,0,0,0,-1,881,1303,0,0
-336,-279,0,0,0,0,0,0,0,0,0,-1,888,1303,0,0
-329,-279,0,0,0,0,0,0,0,0,0,-1,895,1303,0,0
-322,-279,0,0,0,0,0,0,0,0,0,-1,902,1303,0,0
-315,-279,0,0,0,0,0,0,0,0,0,-1,909,1303,0,0
-308,-279,0,0,0,0,0,0,0,0,0,-1,916,1303,0,0
-301,-279,0,0,0,0,0,0,0,0,0,-1,923,1303,0,0
-294,-279,0,0,0,0,0,0,0,0,0,-1,930,1303,0,0
-287,-279,0,0,0,0,0,0,0,0,0,-1,937,1303,0,0
-280,-279,0,0,0,0,0,0,0,0,0,-1,944,1303,0,0
-273,-279,0,0,0,0,0,0,0,0,0,-1,951,1303,0,0
-266,-279,0,0,0,0,0,0,0,0,0,-1,958,1303,0,0
-259,-279,0,0,0,0,0,0,0,0,0,-1,965,1303,0,0
-252,-279,0,0,0,0,0,0,0,0,0,-1,972,1303,0,0
-245,-279,0,0,0,0,0,0,0,0,0,-1,979,1303,0,0
-238,-279,0,0,0,0,0,0,0,0,0,-1,986,1303,0,0
-231,-279,0,0,0,0,0,0,0,0,0,-1,993,1303,0,0
-224,-279,0,0,0,0,0,0,0,0,0,-1,1000,1303,0,0
-217,-279,0,0,0,0,0,0,0,0,0,-1,1007,1303,0,0
-210,-279,0,0,0,0,0,0,0,0,0,-1,1014,1303,0,0
-203,-279,0,0,0,0,0,0,0,0,0,-1,1021,1303,0,0
-196,-279,0,0,0,0,0,0,0,0,0,-1,1028,1303,0,0
-189,-279,0,0,0,0,0,0,0,0,0,-1,1035,1303,0,0
-182,-279,0,0,0,0,0,0,0,0,0,-1,1042,1303,0,0
-175,-279,0,0,0,0,0,0,0,0,0,-1,1049,1303,0,0
-168,-279,0,0,0,0,0,0,0,0,0,-1,1056,1303,0,0
-161,-279,0,0,0,0,0,0,0,0,0,-1,1063,1303,0,0
-154,-279,0,0,0,0,0,0,0,0,0,-1,1070,1303,0,0
-147,-279,0,0,0,0,0,0,0,0,0,-1,1077,1303,0,0
-140,-279,0,0,0,0,0,0,0,0,0,-1,1084,1303,0,0
-133,-279,0,0,0,0,0,0,0,0,0,-1,1091,1303,0,0
-126,-279,0,0,0,0,0,0,0,0,0,-1,1098,1303,0,0
-119,-279,0,0,0,0,0,0,0,0,0,-1,1105,1303,0,0
-112,-279,0,0,0,0,0,0,0,0,0,-1,1112,1303,0,0
-105,-279,0,0,0,0,0,0,0,0,0,-1,1119,1303,0,0
-98,-279,0,0,0,0,0,0,0,0,0,-1,1126,1303,0,0
-91,-279,0,0,0,0,0,0,0,0,0,-1,1133,1303,0,0
-84,-279,0,0,0,0,0,0,0,0,0,-1,1140,1303,0,0
-77,-279,0,0,0,0,0,0,0,0,0,-1,1147,1303,0,0
-70,-279,0,0,0,0,0,0,0,0,0,-1,1154,1303,0,0
-63,-279,0,0,0,0,0,0,0,0,0,-1,1161,1303,0,0
-56,-279,0,0,0,0,0,0,0,0,0,-1,1168,1303,0,0
-49,-279,0,0,0,0,0,0,0,0,0,-1,1175,1303,0,0
-42,-279,0,0,0,0,0,0,0,0,0,-1,1182,1303,0,0
-35,-279,0,0,0,0,0,0,0,0,0,-1,1189,1303,0,0
-28,-279,0,0,0,0,0,0,0,0,0,-1,1196,1303,0,0
-21,-279,0,0,0,0,0,0,0,0,0,-1,1203,1303,0,0
-14,-279,0,0,0,0,0,0,0,0,0,-1,1210,1303,0,0
-7,-279,0,0,0,0,0,0,0,0,0,-1,1217,1303,0,0
0,-279,0,0,0,0,0,0,0,0,0,-1,1224,1303,0,0
7,-279,0,0,0,0,0,0,0,0,0,-1,1231,1303,0,0
14,-279,0,0,0,0,0,0,0,0,0,-1,1238,1303,0,0
21,-279,0,0,0,0,0,0,0,0,0,-1,1245,1303,0,0
28,-279,0,0,0,0,0,0,0,0,0,-1,1252,1303,0,0
35,-279,0,0,0,0,0,0,0,0,0,-1,1259,1303,0,0
42,-279,0,0,0,0,0,0,0,0,0,-1,1266,1303,0,0
49,-279,0,0,0,0,0,0,0,0,0,-1,1273,1303,0,0
56,-279,0,0,0,0,0,0,0,0,0,-1,1280,1303,0,0
63,-279,0,0,0,0,0,0,0,0,0,-1,1287,1303,0,0
70,-279,0,0,0,0,0,0,0,0,0,-1,1294,1303,0,0
77,-279,0,0,0,0,0,0,0,0,0,-1,1301,1303,0,0
84,-279,0,0,0,0,0,0,0,0,0,-1,1308,1303,0,0
91,-279,0,0,0,0,0,0,0,0,0,-1,1315,1303,0,0
98,-279,0,0,0,0,0,0,0,0,0,-1,1322,1303,0,0
105,-279,0,0,0,0,0,0,0,0,0,-1,1329,1303,0,0
112,-279,0,0,0,0,0,0,0,0,0,-1,1336,1303,0,0
119,-279,0,0,0,0,0,0,0,0,0,-1,1343,1303,0,0
126,-279,0,0,0,0,0,0,0,0,0,-1,1350,1303,0,0
133,-279,0,0,0,0,0,0,0,0,0,-1,1357,1303,0,0
140,-279,0,0,0,0,0,0,0,0,0,-1,1364,1303,0,0
147,-279,0,0,0,0,0,0,0,0,0,-1,1371,1303,0,0
154,-279,0,0,0,0,0,0,0,0,0,-1,1378,1303,0,0
161,-279,0,0,0,0,0,0,0,0,0,-1,1385,1303,0,0
168,-279,0,0,0,0,0,0,0,0,0,-1,1392,1303,0,0
175,-279,0,0,0,0,0,0,0,0,0,-1,1399,1303,0,0
182,-279,0,0,0,0,0,0,0,0,0,-1,1406,1303,0,0
189,-279,0,0,0,0,0,0,0,0,0,-1,1413,1303,0,0
196,-279,0,0,0,0,0,0,0,0,0,-1,1420,1303,0,0
203,-279,0,0,0,0,0,0,0,0,0,-1,1427,1303,0,0
210,-279,0,0,0,0,0,0,0,0,0,-1,1434,1303,0,0
217,-279,0,0,0,0,0,0,0,0,0,-1,1441,1303,0,0
224,-279,0,0,0,0,0,0,0,0,0,-1,1448,1303,0,0
231,-279,0,0,0,0,0,0,0,0,0,-1,1455,1303,0,0
238,-279,0,0,0,0,0,0,0,0,0,-1,1462,1303,0,0
245,-279,0,0,0,0,0,0,0,0,0,-1,1469,1303,0,0
252,-279,0,0,0,0,0,0,0,0,0,-1,1476,1303,0,0
259,-279,0,0,0,0,0,0,0,0,0,-1,1483,1303,0,0
266,-279,0,0,0,0,0,0,0,0,0,-1,1490,1303,0,0
273,-279,0,0,0,0,0,0,0,0,0,-1,1497,1303,0,0
280,-279,0,0,0,0,0,0,0,0,0,-1,1504,1303,0,0
287,-279,0,0,0,0,0,0,0,0,0,-1,1511,1303,0,0
294,-279,0,0,0,0,0,0,0,0,0,-1,1518,1303,0,0
301,-279,0,0,0,0,0,0,0,0,0,-1,1525,1303,0,0
308,-279,0,0,0,0,0,0,0,0,0,-1,1532,1303,0,0
315,-279,0,0,0,0,0,0,0,0,0,-1,1539,1303,0,0
322,-279,0,0,0,0,0,0,0,0,0,-1,1546,1303,0,0
329,-279,0,0,0,0,0,0,0,0,0,-1,1553,1303,0,0
336,-279,0,0,0,0,0,0,0,0,0,-1,1560,1303,0,0
343,-279,0,0,0,0,0,0,0,0,0,-1,1567,1303,0,0
350,-279,0,0,0,0,0,0,0,0,0,-1,1574,1303,0,0
357,-279,0,0,0,0,0,0,0,0,0,-1,1581,1303,0,0
364,-279,0,0,0,0,0,0,0,0,0,-1,1588,1303,0,0
371,-279,0,0,0,0,0,0,0,0,0,-1,1595,1303,0,0
378,-279,0,0,0,0,0,0,0,0,0,-1,1602,1303,0,0
385,-279,0,0,0,0,0,0,0,0,0,-1,1609,1303,0,0
392,-279,0,0,0,0,0,0,0,0,0,-1,1616,1303,0,0
399,-279,0,0,0,0,0,0,0,0,0,-1,1623,1303,0,0
406,-279,0,0,0,0,0,0,0,0,0,-1,1630,1303,0,0
413,-279,0,0,0,0,0,0,0,0,0,-1,1637,1303,0,0
420,-279,0,0,0,0,0,0,0,0,0,-1,1644,1303,0,0
427,-279,0,0,0,0,0,0,0,0,0,-1,1651,1303,0,0
434,-279,0,0,0,0,0,0,0,0,0,-1,1658,1303,0,0
441,-279,0,0,0,0,0,0,0,0,0,-1,1665,1303,0,0
448,-279,0,0,0,0,0,0,0,0,0,-1,1672,1303,0,0
455,-279,0,0,0,0,0,0,0,0,0,-1,1679,1303,0,0
462,-279,0,0,0,0,0,0,0,0,0,-1,1686,1303,0,0
469,-279,0,0,0,0,0,0,0,0,0,-1,1693,1303,0,0
476,-279,0,0,0,0,0,0,0,0,0,-1,1700,1303,0,0
483,-279,0,0,0,0,0,0,0,0,0,-1,1707,1303,0,0
490,-279,0,0,0,0,0,0,0,0,0,-1,1714,1303,0,0
497,-279,0,0,0,0,0,0,0,0,0,-1,1721,1303,0,0
504,-279,0,0,0,0,0,0,0,0,0,-1,1728,1303,0,0
511,-279,0,0,0,0,0,0,0,0,0,-1,1735,1303,0,0
518,-279,0,0,0,0,0,0,0,0,0,-1,1742,1303,0,0
525,-279,0,0,0,0,0,0,0,0,0,-1,1749,1303,0,0
532,-279,0,0,0,0,0,0,0,0,0,-1,1756,1303,0,0
539,-279,0,0,0,0,0,0,0,0,0,-1,1763,1303,0,0
546,-279,0,0,0,0,0,0,0,0,0,-1,1770,1303,0,0
553,-279,0,0,0,0,0,0,0,0,0,-1,1777,1303,0,0
560,-279,0,0,0,0,0,0,0,0,0,-1,1784,1303,0,0
567,-279,0,0,0,0,0,0,0,0,0,-1,1791,1303,0,0
574,-279,0,0,0,0,0,0,0,0,0,-1,1798,1303,0,0
581,-279,0,0,0,0,0,0,0,0,0,-1,1805,1303,0,0
588,-279,0,0,0,0,0,0,0,0,0,-1,1812,1303,0,0
595,-279,0,0,0,0,0,0,0,0,0,-1,1819,1303,0,0
602,-279,35.3792,2.40125,0,0,0,0,0,0,0,-1,1826,1303,35.3792,-2.40123
609,-279,35.2793,2.29932,0,0,0,0,0,0,0,-1,1833,1303,35.2793,-2.29935
616,-279,35.5466,2.53723,0.0106707,0.0106447,-0.0174474,0.0281051,-0.00678968,-0.785025,0.0213627,0.0473648,1840,1303,35.5467,-2.53726
623,-279,35.7717,2.6626,0.00314506,0.00876816,-0.0107819,0.0170991,-0.00518584,-0.912941,0.0134651,0.0459327,1847,1303,35.7717,-2.66256
630,-279,35.9069,2.53418,-0.00292568,0.00668655,-0.00537594,0.0090915,-0.00533063,-1.15014,0.00842047,0.0458486,1854,1303,35.9069,-2.53423
637,-279,33.8881,1.30713,0,0,0,0,0,0,0,-1,1861,1303,33.8881,-1.30709
644,-279,33.5021,3.40234,0,0,0,0,0,0,0,-1,1868,1303,33.5021,-3.40237
651,-279,27.979,3.85693,0,0,0,0,0,0,0,-1,1875,1303,27.979,-3.85695
658,-279,21.5076,7.65649,0,0,0,0,0,0,0,-1,1882,1303,21.5076,-7.65648
665,-279,18.9794,6.09607,0,0,0,0,0,0,0,-1,1889,1303,18.9793,-6.09601
672,-279,23.5206,8.32507,0,0,0,0,0,0,0,-1,1896,1303,23.5206,-8.32512
679,-279,25.9852,8.11108,0,0,0,0,0,0,0,-1,1903,1303,25.9853,-8.11104
686,-279,26.0387,7.79651,-0.011283,-0.00283814,0.00639062,0.000599002,-0.0147201,1.07734,0.010019,0.0226561,1910,1303,26.0387,-7.79648
693,-279,26.0599,7.47571,-0.00739629,-0.00307586,0.00411932,-0.000584702,-0.00988746,1.02689,0.00640564,0.0160082,1917,1303,26.0599,-7.47574
700,-279,26.0662,7.14539,-0.0030169,-0.0019387,0.00229008,-0.000125125,-0.00483047,0.900997,0.00317943,0.0113541,1924,1303,26.0662,-7.14537
707,-279,26.0623,6.79663,-1.82508e-05,-0.000897122,0.000947562,0.000586812,-0.00150218,0.568282,0.00124408,0.00910731,1931,1303,26.0622,-6.79662
714,-279,26.0585,6.44934,0.00119662,0.000176253,0.000362636,0.00131237,6.05042e-05,0.308967,0.000855459,0.0104539,1938,1303,26.0585,-6.44929
721,-279,26.0549,6.13684,0.00112791,0.000575696,0.000515049,0.00143619,0.000267415,0.539351,0.000881943,0.0129712,1945,1303,26.0549,-6.13689
728,-279,26.0563,5.82727,0.0012508,0.00102894,0.000612085,0.00176192,0.000517811,0.695753,0.00104566,0.0146257,1952,1303,26.0563,-5.82722
735,-279,26.0499,5.52307,0.00162409,0.0015835,0.000571387,0.00217554,0.00103205,0.767648,0.0012566,0.0152795,1959,1303,26.0499,-5.52312
742,-279,25.9663,5.20129,0.00255655,0.00226248,0.000357987,0.00279652,0.00202251,0.590539,0.00166734,0.0322545,1966,1303,25.9663,-5.20127
749,-279,26.0684,4.80847,0,0,0,0,0,0,0,-1,1973,1303,26.0683,-4.80842
756,-279,23.2091,4.43433,0,0,0,0,0,0,0,-1,1980,1303,23.2092,-4.43432
763,-279,27.1613,3.46265,0,0,0,0,0,0,0,-1,1987,1303,27.1613,-3.4627
770,-279,21.5828,3.54199,0,0,0,0,0,0,0,-1,1994,1303,21.5827,-3.54198
777,-279,32.5369,6.99609,0,0,0,0,0,0,0,-1,2001,1303,32.5369,-6.99608
784,-279,0,0,0,0,0,0,0,0,0,-1,2008,1303,0,0
791,-279,0,0,0,0,0,0,0,0,0,-1,2015,1303,0,0
798,-279,0,0,0,0,0,0,0,0,0,-1,2022,1303,0,0
805,-279,0,0,0,0,0,0,0,0,0,-1,2029,1303,0,0
812,-279,0,0,0,0,0,0,0,0,0,-1,2036,1303,0,0
-700,-286,0,0,0,0,0,0,0,0,0,-1,524,1310,0,0
-693,-286,0,0,0,0,0,0,0,0,0,-1,531,1310,0,0
-686,-286,0,0,0,0,0,0,0,0,0,-1,538,1310,0,0
-679,-286,0,0,0,0,0,0,0,0,0,-1,545,1310,0,0
-672,-286,0,0,0,0,0,0,0,0,0,-1,552,1310,0,0
-665,-286,0,0,0,0,0,0,0,0,0,-1,559,1310,0,0
-658,-286,-14.1937,-4.05469,0,0,0,0,0,0,0,-1,566,1310,-14.1937,4.05469
-651,-286,-12.7995,0.209229,0,0,0,0,0,0,0,-1,573,1310,-12.7995,-0.209249
-644,-286,-12.9057,-0.512085,-0.0284657,0.0537851,-0.0482312,0.0760439,-0.0507244,-1.13842,0.0736747,0.0492789,580,1310,-12.9057,0.512109
-637,-286,-13.0769,-0.757568,-0.0250604,0.0461057,-0.0398558,0.0639515,-0.0429062,-1.14981,0.0620919,0.0443327,587,1310,-13.0769,0.757592
-630,-286,-13.2317,-0.993164,0,0,0,0,0,0,0,-1,594,1310,-13.2317,0.993121
-623,-286,-14.5147,0.718384,0,0,0,0,0,0,0,-1,601,1310,-14.5147,-0.718405
-616,-286,-14.3057,0.525879,0,0,0,0,0,0,0,-1,608,1310,-14.3057,-0.525895
-609,-286,-15.0872,2.35352,0,0,0,0,0,0,0,-1,615,1310,-15.0872,-2.35354
-602,-286,-14.7933,2.98059,-0.00758536,0.0121725,-0.00757133,0.0147402,-0.010153,-1.24384,0.0144532,0.0174387,622,1310,-14.7933,-2.98062
-595,-286,-14.7969,3.40918,-0.00430349,0.00769151,-0.00382412,0.00880694,-0.00541893,-1.28699,0.00829059,0.0110265,629,1310,-14.7969,-3.40912
-588,-286,-14.7872,3.78369,-0.00140847,0.00364636,-0.000344305,0.0036697,-0.00143182,-1.5031,0.00303836,0.0114712,636,1310,-14.7872,-3.78366
-581,-286,-14.7743,4.14331,0.00101494,0.000765398,0.0015268,0.00242206,-0.000641715,0.744628,0.00186576,0.0138555,643,1310,-14.7743,-4.14332
-574,-286,-14.8086,4.51807,0.00227501,0.000717612,0.00144977,0.00314198,-0.000149353,0.538948,0.00214617,0.0143926,650,1310,-14.8086,-4.51802
-567,-286,-14.8406,4.92358,0.00309423,0.000715867,0.00166098,0.00394784,-0.000137744,0.474722,0.00267899,0.0133619,657,1310,-14.8406,-4.92356
-560,-286,-14.831,5.32312,0.00387733,0.000729407,0.0019659,0.00482173,-0.000214991,0.447836,0.00328849,0.0134577,664,1310,-14.831,-5.32309
-553,-286,-14.8237,5.70996,0.00462234,0.000453015,0.00240427,0.00571987,-0.000644512,0.428239,0.00404523,0.0102805,671,1310,-14.8237,-5.7099
-546,-286,-14.8195,6.11414,0.00505031,-0.000666874,0.00287423,0.00624545,-0.00186201,0.394063,0.0049036,0.0160328,678,1310,-14.8195,-6.11414
-539,-286,-14.8336,6.4624,0.00540315,-0.00218258,0.00335504,0.00667409,-0.00345351,0.362111,0.00594491,0.0385656,685,1310,-14.8335,-6.46235
-532,-286,-14.7525,6.79041,0,0,0,0,0,0,0,-1,692,1310,-14.7525,-6.79039
-525,-286,-11.4528,-1.11768,0,0,0,0,0,0,0,-1,699,1310,-11.4528,1.11769
-518,-286,-11.0701,1.37329,0,0,0,0,0,0,0,-1,706,1310,-11.0701,-1.37332
-511,-286,-17.7545,-0.0791016,0,0,0,0,0,0,0,-1,713,1310,-17.7544,0.0791606
-504,-286,-18.0455,1.29602,0,0,0,0,0,0,0,-1,720,1310,-18.0455,-1.29601
-497,-286,-18.3367,2.67114,0,0,0,0,0,0,0,-1,727,1310,-18.3366,-2.67118
-490,-286,-19.5795,2.47266,0,0,0,0,0,0,0,-1,734,1310,-19.5795,-2.4727
-483,-286,-19.7277,2.74744,0,0,0,0,0,0,0,-1,741,1310,-19.7277,-2.74747
-476,-286,-20.0391,3.06177,0,0,0,0,0,0,0,-1,748,1310,-20.0391,-3.06178
-469,-286,0,0,0,0,0,0,0,0,0,-1,755,1310,0,0
-462,-286,0,0,0,0,0,0,0,0,0,-1,762,1310,0,0
-455,-286,0,0,0,0,0,0,0,0,0,-1,769,1310,0,0
-448,-286,0,0,0,0,0,0,0,0,0,-1,776,1310,0,0
-441,-286,0,0,0,0,0,0,0,0,0,-1,783,1310,0,0
-434,-286,0,0,0,0,0,0,0,0,0,-1,790,1310,0,0
-427,-286,0,0,0,0,0,0,0,0,0,-1,797,1310,0,0
-420,-286,0,0,0,0,0,0,0,0,0,-1,804,1310,0,0
-413,-286,0,0,0,0,0,0,0,0,0,-1,811,1310,0,0
-406,-286,0,0,0,0,0,0,0,0,0,-1,818,1310,0,0
-399,-286,0,0,0,0,0,0,0,0,0,-1,825,1310,0,0
-392,-286,0,0,0,0,0,0,0,0,0,-1,832,1310,0,0
-385,-286,0,0,0,0,0,0,0,0,0,-1,839,1310,0,0
-378,-286,0,0,0,0,0,0,0,0,0,-1,846,1310,0,0
-371,-286,0,0,0,0,0,0,0,0,0,-1,853,1310,0,0
-364,-286,0,0,0,0,0,0,0,0,0,-1,860,1310,0,0
-357,-286,0,0,0,0,0,0,0,0,0,-1,867,1310,0,0
-350,-286,0,0,0,0,0,0,0,0,0,-1,874,1310,0,0
-343,-286,0,0,0,0,0,0,0,0,0,-1,881,1310,0,0
-336,-286,0,0,0,0,0,0,0,0,0,-1,888,1310,0,0
-329,-286,0,0,0,0,0,0,0,0,0,-1,895,1310,0,0
-322,-286,0,0,0,0,0,0,0,0,0,-1,902,1310,0,0
-315,-286,0,0,0,0,0,0,0,0,0,-1,909,1310,0,0
-308,-286,0,0,0,0,0,0,0,0,0,-1,916,1310,0,0
-301,-286,0,0,0,0,0,0,0,0,0,-1,923,1310,0,0
-294,-286,0,0,0,0,0,0,0,0,0,-1,930,1310,0,0
-287,-286,0,0,0,0,0,0,0,0,0,-1,937,1310,0,0
-280,-286,0,0,0,0,0,0,0,0,0,-1,944,1310,0,0
-273,-286,0,0,0,0,0,0,0,0,0,-1,951,1310,0,0
-266,-286,0,0,0,0,0,0,0,0,0,-1,958,1310,0,0
-259,-286,0,0,0,0,0,0,0,0,0,-1,965,1310,0,0
-252,-286,0,0,0,0,0,0,0,0,0,-1,972,1310,0,0
-245,-286,0,0,0,0,0,0,0,0,0,-1,979,1310,0,0
-238,-286,0,0,0,0,0,0,0,0,0,-1,986,1310,0,0
-231,-286,0,0,0,0,0,0,0,0,0,-1,993,1310,0,0
-224,-286,0,0,0,0,0,0,0,0,0,-1,1000,1310,0,0
-217,-286,0,0,0,0,0,0,0,0,0,-1,1007,1310,0,0
-210,-286,0,0,0,0,0,0,0,0,0,-1,1014,1310,0,0
-203,-286,0,0,0,0,0,0,0,0,0,-1,1021,1310,0,0
-196,-286,0,0,0,0,0,0,0,0,0,-1,1028,1310,0,0
-189,-286,0,0,0,0,0,0,0,0,0,-1,1035,1310,0,0
-182,-286,0,0,0,0,0,0,0,0,0,-1,1042,1310,0,0
-175,-286,0,0,0,0,0,0,0,0,0,-1,1049,1310,0,0
-168,-286,0,0,0,0,0,0,0,0,0,-1,1056,1310,0,0
-161,-286,0,0,0,0,0,0,0,0,0,-1,1063,1310,0,0
-154,-286,0,0,0,0,0,0,0,0,0,-1,1070,1310,0,0
-147,-286,0,0,0,0,0,0,0,0,0,-1,1077,1310,0,0
-140,-286,0,0,0,0,0,0,0,0,0,-1,1084,1310,0,0
-133,-286,0,0,0,0,0,0,0,0,0,-1,1091,1310,0,0
-126,-286,0,0,0,0,0,0,0,0,0,-1,1098,1310,0,0
-119,-286,0,0,0,0,0,0,0,0,0,-1,1105,1310,0,0
-112,-286,0,0,0,0,0,0,0,0,0,-1,1112,1310,0,0
-105,-286,0,0,0,0,0,0,0,0,0,-1,1119,1310,0,0
-98,-286,0,0,0,0,0,0,0,0,0,-1,1126,1310,0,0
-91,-286,0,0,0,0,0,0,0,0,0,-1,1133,1310,0,0
-84,-286,0,0,0,0,0,0,0,0,0,-1,1140,1310,0,0
-77,-286,0,0,0,0,0,0,0,0,0,-1,1147,1310,0,0
-70,-286,0,0,0,0,0,0,0,0,0,-1,1154,1310,0,0
-63,-286,0,0,0,0,0,0,0,0,0,-1,1161,1310,0,0
-56,-286,0,0,0,0,0,0,0,0,0,-1,1168,1310,0,0
-49,-286,0,0,0,0,0,0,0,0,0,-1,1175,1310,0,0
-42,-286,0,0,0,0,0,0,0,0,0,-1,1182,1310,0,0
-35,-286,0,0,0,0,0,0,0,0,0,-1,1189,1310,0,0
-28,-286,0,0,0,0,0,0,0,0,0,-1,1196,1310,0,0
-21,-286,0,0,0,0,0,0,0,0,0,-1,1203,1310,0,0
-14,-286,0,0,0,0,0,0,0,0,0,-1,1210,1310,0,0
-7,-286,0,0,0,0,0,0,0,0,0,-1,1217,1310,0,0
0,-286,0,0,0,0,0,0,0,0,0,-1,1224,1310,0,0
7,-286,0,0,0,0,0,0,0,0,0,-1,1231,1310,0,0
14,-286,0,0,0,0,0,0,0,0,0,-1,1238,1310,0,0
21,-286,0,0,0,0,0,0,0,0,0,-1,1245,1310,0,0
28,-286,0,0,0,0,0,0,0,0,0,-1,1252,1310,0,0
35,-286,0,0,0,0,0,0,0,0,0,-1,1259,1310,0,0
42,-286,0,0,0,0,0,0,0,0,0,-1,1266,1310,0,0
49,-286,0,0,0,0,0,0,0,0,0,-1,1273,1310,0,0
56,-286,0,0,0,0,0,0,0,0,0,-1,1280,1310,0,0
63,-286,0,0,0,0,0,0,0,0,0,-1,1287,1310,0,0
70,-286,0,0,0,0,0,0,0,0,0,-1,1294,1310,0,0
77,-286,0,0,0,0,0,0,0,0,0,-1,1301,1310,0,0
84,-286,0,0,0,0,0,0,0,0,0,-1,1308,1310,0,0
91,-286,0,0,0,0,0,0,0,0,0,-1,1315,1310,0,0
98,-286,0,0,0,0,0,0,0,0,0,-1,1322,1310,0,0
105,-286,0,0,0,0,0,0,0,0,0,-1,1329,1310,0,0
112,-286,0,0,0,0,0,0,0,0,0,-1,1336,1310,0,0
119,-286,0,0,0,0,0,0,0,0,0,-1,1343,1310,0,0
126,-286,0,0,0,0,0,0,0,0,0,-1,1350,1310,0,0
133,-286,0,0,0,0,0,0,0,0,0,-1,1357,1310,0,0
140,-286,0,0,0,0,0,0,0,0,0,-1,1364,1310,0,0
147,-286,0,0,0,0,0,0,0,0,0,-1,1371,1310,0,0
154,-286,0,0,0,0,0,0,0,0,0,-1,1378,1310,0,0
161,-286,0,0,0,0,0,0,0,0,0,-1,1385,1310,0,0
168,-286,0,0,0,0,0,0,0,0,0,-1,1392,1310,0,0
175,-286,0,0,0,0,0,0,0,0,0,-1,1399,1310,0,0
182,-286,0,0,0,0,0,0,0,0,0,-1,1406,1310,0,0
189,-286,0,0,0,0,0,0,0,0,0,-1,1413,1310,0,0
196,-286,0,0,0,0,0,0,0,0,0,-1,1420,1310,0,0
203,-286,0,0,0,0,0,0,0,0,0,-1,1427,1310,0,0
210,-286,0,0,0,0,0,0,0,0,0,-1,1434,1310,0,0
217,-286,0,0,0,0,0,0,0,0,0,-1,1441,1310,0,0
224,-286,0,0,0,0,0,0,0,0,0,-1,1448,1310,0,0
231,-286,0,0,0,0,0,0,0,0,0,-1,1455,1310,0,0
238,-286,0,0,0,0,0,0,0,0,0,-1,1462,1310,0,0
245,-286,0,0,0,0,0,0,0,0,0,-1,1469,1310,0,0
252,-286,0,0,0,0,0,0,0,0,0,-1,1476,1310,0,0
259,-286,0,0,0,0,0,0,0,0,0,-1,1483,1310,0,0
266,-286,0,0,0,0,0,0,0,0,0,-1,1490,1310,0,0
273,-286,0,0,0,0,0,0,0,0,0,-1,1497,1310,0,0
280,-286,0,0,0,0,0,0,0,0,0,-1,1504,1310,0,0
287,-286,0,0,0,0,0,0,0,0,0,-1,1511,1310,0,0
294,-286,0,0,0,0,0,0,0,0,0,-1,1518,1310,0,0
301,-286,0,0,0,0,0,0,0,0,0,-1,1525,1310,0,0
308,-286,0,0,0,0,0,0,0,0,0,-1,1532,1310,0,0
315,-286,0,0,0,0,0,0,0,0,0,-1,1539,1310,0,0
322,-286,0,0,0,0,0,0,0,0,0,-1,1546,1310,0,0
329,-286,0,0,0,0,0,0,0,0,0,-1,1553,1310,0,0
336,-286,0,0,0,0,0,0,0,0,0,-1,1560,1310,0,0
343,-286,0,0,0,0,0,0,0,0,0,-1,1567,1310,0,0
350,-286,0,0,0,0,0,0,0,0,0,-1,1574,1310,0,0
357,-286,0,0,0,0,0,0,0,0,0,-1,1581,1310,0,0
364,-286,0,0,0,0,0,0,0,0,0,-1,1588,1310,0,0
371,-286,0,0,0,0,0,0,0,0,0,-1,1595,1310,0,0
378,-286,0,0,0,0,0,0,0,0,0,-1,1602,1310,0,0
385,-286,0,0,0,0,0,0,0,0,0,-1,1609,1310,0,0
392,-286,0,0,0,0,0,0,0,0,0,-1,1616,1310,0,0
399,-286,0,0,0,0,0,0,0,0,0,-1,1623,1310,0,0
406,-286,0,0,0,0,0,0,0,0,0,-1,1630,1310,0,0
413,-286,0,0,0,0,0,0,0,0,0,-1,1637,1310,0,0
420,-286,0,0,0,0,0,0,0,0,0,-1,1644,1310,0,0
427,-286,0,0,0,0,0,0,0,0,0,-1,1651,1310,0,0
434,-286,0,0,0,0,0,0,0,0,0,-1,1658,1310,0,0
441,-286,0,0,0,0,0,0,0,0,0,-1,1665,1310,0,0
448,-286,0,0,0,0,0,0,0,0,0,-1,1672,1310,0,0
455,-286,0,0,0,0,0,0,0,0,0,-1,1679,1310,0,0
462,-286,0,0,0,0,0,0,0,0,0,-1,1686,1310,0,0
469,-286,0,0,0,0,0,0,0,0,0,-1,1693,1310,0,0
476,-286,0,0,0,0,0,0,0,0,0,-1,1700,1310,0,0
483,-286,0,0,0,0,0,0,0,0,0,-1,1707,1310,0,0
490,-286,0,0,0,0,0,0,0,0,0,-1,1714,1310,0,0
497,-286,0,0,0,0,0,0,0,0,0,-1,1721,1310,0,0
504,-286,0,0,0,0,0,0,0,0,0,-1,1728,1310,0,0
511,-286,0,0,0,0,0,0,0,0,0,-1,1735,1310,0,0
518,-286,0,0,0,0,0,0,0,0,0,-1,1742,1310,0,0
525,-286,0,0,0,0,0,0,0,0,0,-1,1749,1310,0,0
532,-286,0,0,0,0,0,0,0,0,0,-1,1756,1310,0,0
539,-286,0,0,0,0,0,0,0,0,0,-1,1763,1310,0,0
546,-286,0,0,0,0,0,0,0,0,0,-1,1770,1310,0,0
553,-286,0,0,0,0,0,0,0,0,0,-1,1777,1310,0,0
560,-286,0,0,0,0,0,0,0,0,0,-1,1784,1310,0,0
567,-286,0,0,0,0,0,0,0,0,0,-1,1791,1310,0,0
574,-286,0,0,0,0,0,0,0,0,0,-1,1798,1310,0,0
581,-286,0,0,0,0,0,0,0,0,0,-1,1805,1310,0,0
588,-286,0,0,0,0,0,0,0,0,0,-1,1812,1310,0,0
595,-286,35.5787,2.47083,0,0,0,0,0,0,0,-1,1819,1310,35.5788,-2.47078
602,-286,35.4799,2.22253,0,0,0,0,0,0,0,-1,1826,1310,35.4799,-2.22255
609,-286,35.4142,2.27991,0,0,0,0,0,0,0,-1,1833,1310,35.4141,-2.27992
616,-286,35.4825,2.53857,0.0137359,0.011738,-0.0227277,0.0354866,-0.0100127,-0.763437,0.0276073,0.0454662,1840,1310,35.4826,-2.53861
623,-286,35.6705,2.64038,0.0076703,0.00951832,-0.0156439,0.0242654,-0.00707683,-0.814897,0.0189809,0.045538,1847,1310,35.6706,-2.64042
630,-286,36.1663,2.56396,0.00265897,0.00745515,-0.00982373,0.0151693,-0.00505514,-0.905113,0.0121535,0.0468546,1854,1310,36.1663,-2.56402
637,-286,36.103,2.39502,0,0,0,0,0,0,0,-1,1861,1310,36.103,-2.39506
644,-286,25.6433,1.33862,0,0,0,0,0,0,0,-1,1868,1310,25.6433,-1.33858
651,-286,25.2507,1.88245,0,0,0,0,0,0,0,-1,1875,1310,25.2508,-1.88245
658,-286,25.9475,9.43689,0,0,0,0,0,0,0,-1,1882,1310,25.9475,-9.43693
665,-286,24.9838,8.03101,0,0,0,0,0,0,0,-1,1889,1310,24.9837,-8.03104
672,-286,25.6271,8.67444,0,0,0,0,0,0,0,-1,1896,1310,25.627,-8.67441
679,-286,25.6366,8.21753,-0.0117583,-0.00263826,0.00541392,-0.00011983,-0.0142767,1.13539,0.0094781,0.0369905,1903,1310,25.6367,-8.21749
686,-286,25.7158,7.81812,-0.00926189,-0.00275611,0.00547733,0.000361436,-0.0123794,1.05335,0.00837603,0.0214784,1910,1310,25.7158,-7.81807
693,-286,25.7179,7.49097,-0.00569376,-0.00271107,0.00329584,-0.000584866,-0.00781996,0.997861,0.0050297,0.0157335,1917,1310,25.7179,-7.49096
700,-286,25.7133,7.1438,-0.00199447,-0.00153801,0.00170881,-4.22581e-05,-0.00349022,0.851784,0.00231286,0.0111673,1924,1310,25.7132,-7.14381
707,-286,25.7144,6.81958,0.000393994,-0.000531749,0.00067647,0.000750794,-0.000888549,0.485361,0.000947589,0.00891523,1931,1310,25.7143,-6.81955
714,-286,25.7173,6.47998,0.00132411,0.000310229,0.000336517,0.00142564,0.000208702,0.293014,0.000889061,0.00896054,1938,1310,25.7173,-6.48004
721,-286,25.7137,6.14551,0.00153039,0.000730173,0.000467117,0.00174533,0.000515234,0.431255,0.00103546,0.0113059,1945,1310,25.7138,-6.14552
728,-286,25.7058,5.82727,0.00198706,0.00122711,0.000528796,0.00225824,0.000955929,0.473859,0.0013089,0.0141621,1952,1310,25.7059,-5.82724
735,-286,25.7499,5.48242,0.00279453,0.00187612,0.000404119,0.00294703,0.00172362,0.36084,0.00170962,0.0186647,1959,1310,25.7499,-5.48241
742,-286,25.7821,5.18445,0.00438853,0.0027111,7.86561e-05,0.00439221,0.00270742,0.0467539,0.00255865,0.0425811,1966,1310,25.7821,-5.18439
749,-286,26.032,4.8335,0,0,0,0,0,0,0,-1,1973,1310,26.0319,-4.83353
756,-286,24.8226,4.43481,0,0,0,0,0,0,0,-1,1980,1310,24.8227,-4.43479
763,-286,20.6671,3.99683,0,0,0,0,0,0,0,-1,1987,1310,20.6671,-3.99683
770,-286,23.9147,4.45679,0,0,0,0,0,0,0,-1,1994,1310,23.9146,-4.45675
777,-286,0,0,0,0,0,0,0,0,0,-1,2001,1310,0,0
784,-286,0,0,0,0,0,0,0,0,0,-1,2008,1310,0,0
791,-286,0,0,0,0,0,0,0,0,0,-1,2015,1310,0,0
798,-286,0,0,0,0,0,0,0,0,0,-1,2022,1310,0,0
805,-286,0,0,0,0,0,0,0,0,0,-1,2029,1310,0,0
812,-286,0,0,0,0,0,0,0,0,0,-1,2036,1310,0,0
-700,-293,0,0,0,0,0,0,0,0,0,-1,524,1317,0,0
-693,-293,0,0,0,0,0,0,0,0,0,-1,531,1317,0,0
-686,-293,0,0,0,0,0,0,0,0,0,-1,538,1317,0,0
-679,-293,0,0,0,0,0,0,0,0,0,-1,545,1317,0,0
-672,-293,0,0,0,0,0,0,0,0,0,-1,552,1317,0,0
-665,-293,0,0,0,0,0,0,0,0,0,-1,559,1317,0,0
-658,-293,0,0,0,0,0,0,0,0,0,-1,566,1317,0,0
-651,-293,-12.2428,-0.811401,0,0,0,0,0,0,0,-1,573,1317,-12.2428,0.811454
-644,-293,-12.1519,-1.05615,-0.0261137,0.0643253,-0.0603401,0.0945096,-0.056298,-1.10696,0.0879955,0.0464946,580,1317,-12.1519,1.0561
-637,-293,-12.2043,-1.37793,-0.0228744,0.0544615,-0.049136,0.07832,-0.0467329,-1.11877,0.0729631,0.0446397,587,1317,-12.2043,1.37789
-630,-293,-12.4562,-1.74414,0,0,0,0,0,0,0,-1,594,1317,-12.4561,1.7441
-623,-293,-13.457,-0.0285645,0,0,0,0,0,0,0,-1,601,1317,-13.457,0.0286185
-616,-293,-13.5645,1.03577,0,0,0,0,0,0,0,-1,608,1317,-13.5644,-1.03578
-609,-293,-13.8303,2.30371,0,0,0,0,0,0,0,-1,615,1317,-13.8302,-2.30365
-602,-293,-14.3071,2.89197,-0.00658479,0.0142382,-0.00930113,0.0177877,-0.0101343,-1.20623,0.0163214,0.0386911,622,1317,-14.307,-2.89198
-595,-293,-14.4426,3.40466,-0.00351672,0.00903592,-0.00487518,0.0107069,-0.0051877,-1.24059,0.00935935,0.0168843,629,1317,-14.4426,-3.40472
-588,-293,-14.41,3.77393,-0.000778725,0.00422859,-0.000711402,0.0043277,-0.000877834,-1.43237,0.00321791,0.0155465,636,1317,-14.41,-3.77398
-581,-293,-14.3874,4.151,0.001378,0.000841237,0.00149743,0.00263092,-0.000411675,0.696725,0.00190605,0.0188631,643,1317,-14.3874,-4.15099
-574,-293,-14.4268,4.56775,0.0021216,0.000761864,0.00125041,0.00286502,1.84407e-05,0.536397,0.0019039,0.0179215,650,1317,-14.4268,-4.5678
-567,-293,-14.4555,4.96387,0.0026328,0.000676107,0.00131906,0.00329674,1.2173e-05,0.466315,0.00219378,0.0165679,657,1317,-14.4555,-4.96382
-560,-293,-14.4559,5.34875,0.00328065,0.000695288,0.00154324,0.00400108,-2.51448e-05,0.436761,0.00267581,0.0164632,664,1317,-14.4559,-5.3487
-553,-293,-14.4448,5.71765,0.00409656,0.000617818,0.00194552,0.00496688,-0.000252497,0.420642,0.00339854,0.0112801,671,1317,-14.4449,-5.71769
-546,-293,-14.4412,6.12183,0.00495973,0.000324461,0.00252129,0.00606677,-0.000782573,0.413731,0.00432901,0.0110699,678,1317,-14.4412,-6.12183
-539,-293,-14.4178,6.49341,0.00606043,-0.000155102,0.00328931,0.0074779,-0.00157257,0.406885,0.00558377,0.0307673,685,1317,-14.4179,-6.49344
-532,-293,-14.3827,6.78796,0,0,0,0,0,0,0,-1,692,1317,-14.3827,-6.78799
-525,-293,-8.20642,3.62256,0,0,0,0,0,0,0,-1,699,1317,-8.20639,-3.6226
-518,-293,-10.1053,0.314209,0,0,0,0,0,0,0,-1,706,1317,-10.1053,-0.314234
-511,-293,-11.6276,0.235352,0,0,0,0,0,0,0,-1,713,1317,-11.6276,-0.235372
-504,-293,-17.9086,1.25427,0,0,0,0,0,0,0,-1,720,1317,-17.9086,-1.25423
-497,-293,-18.8006,1.62122,0,0,0,0,0,0,0,-1,727,1317,-18.8006,-1.62119
-490,-293,-18.8961,1.99255,0,0,0,0,0,0,0,-1,734,1317,-18.8961,-1.99251
-483,-293,-19.0831,2.35498,0,0,0,0,0,0,0,-1,741,1317,-19.0831,-2.35497
-476,-293,-19.5228,2.61243,0,0,0,0,0,0,0,-1,748,1317,-19.5228,-2.61237
-469,-293,0,0,0,0,0,0,0,0,0,-1,755,1317,0,0
-462,-293,0,0,0,0,0,0,0,0,0,-1,762,1317,0,0
-455,-293,0,0,0,0,0,0,0,0,0,-1,769,1317,0,0
-448,-293,0,0,0,0,0,0,0,0,0,-1,776,1317,0,0
-441,-293,0,0,0,0,0,0,0,0,0,-1,783,1317,0,0
-434,-293,0,0,0,0,0,0,0,0,0,-1,790,1317,0,0
-427,-293,0,0,0,0,0,0,0,0,0,-1,797,1317,0,0
-420,-293,0,0,0,0,0,0,0,0,0,-1,804,1317,0,0
-413,-293,0,0,0,0,0,0,0,0,0,-1,811,1317,0,0
-406,-293,0,0,0,0,0,0,0,0,0,-1,818,1317,0,0
-399,-293,0,0,0,0,0,0,0,0,0,-1,825,1317,0,0
-392,-293,0,0,0,0,0,0,0,0,0,-1,832,1317,0,0
-385,-293,0,0,0,0,0,0,0,0,0,-1,839,1317,0,0
-378,-293,0,0,0,0,0,0,0,0,0,-1,846,1317,0,0
-371,-293,0,0,0,0,0,0,0,0,0,-1,853,1317,0,0
-364,-293,0,0,0,0,0,0,0,0,0,-1,860,1317,0,0
-357,-293,0,0,0,0,0,0,0,0,0,-1,867,1317,0,0
-350,-293,0,0,0,0,0,0,0,0,0,-1,874,1317,0,0
-343,-293,0,0,0,0,0,0,0,0,0,-1,881,1317,0,0
-336,-293,0,0,0,0,0,0,0,0,0,-1,888,1317,0,0
-329,-293,0,0,0,0,0,0,0,0,0,-1,895,1317,0,0
-322,-293,0,0,0,0,0,0,0,0,0,-1,902,1317,0,0
-315,-293,0,0,0,0,0,0,0,0,0,-1,909,1317,0,0
-308,-293,0,0,0,0,0,0,0,0,0,-1,916,1317,0,0
-301,-293,0,0,0,0,0,0,0,0,0,-1,923,1317,0,0
-294,-293,0,0,0,0,0,0,0,0,0,-1,930,1317,0,0
-287,-293,0,0,0,0,0,0,0,0,0,-1,937,1317,0,0
-280,-293,0,0,0,0,0,0,0,0,0,-1,944,1317,0,0
-273,-293,0,0,0,0,0,0,0,0,0,-1,951,1317,0,0
-266,-293,0,0,0,0,0,0,0,0,0,-1,958,1317,0,0
-259,-293,0,0,0,0,0,0,0,0,0,-1,965,1317,0,0
-252,-293,0,0,0,0,0,0,0,0,0,-1,972,1317,0,0
-245,-293,0,0,0,0,0,0,0,0,0,-1,979,1317,0,0
-238,-293,0,0,0,0,0,0,0,0,0,-1,986,1317,0,0
-231,-293,0,0,0,0,0,0,0,0,0,-1,993,1317,0,0
-224,-293,0,0,0,0,0,0,0,0,0,-1,1000,1317,0,0
-217,-293,0,0,0,0,0,0,0,0,0,-1,1007,1317,0,0
-210,-293,0,0,0,0,0,0,0,0,0,-1,1014,1317,0,0
-203,-293,0,0,0,0,0,0,0,0,0,-1,1021,1317,0,0
-196,-293,0,0,0,0,0,0,0,0,0,-1,1028,1317,0,0
-189,-293,0,0,0,0,0,0,0,0,0,-1,1035,1317,0,0
-182,-293,0,0,0,0,0,0,0,0,0,-1,1042,1317,0,0
-175,-293,0,0,0,0,0,0,0,0,0,-1,1049,1317,0,0
-168,-293,0,0,0,0,0,0,0,0,0,-1,1056,1317,0,0
-161,-293,0,0,0,0,0,0,0,0,0,-1,1063,1317,0,0
-154,-293,0,0,0,0,0,0,0,0,0,-1,1070,1317,0,0
-147,-293,0,0,0,0,0,0,0,0,0,-1,1077,1317,0,0
-140,-293,0,0,0,0,0,0,0,0,0,-1,1084,1317,0,0
-133,-293,0,0,0,0,0,0,0,0,0,-1,1091,1317,0,0
-126,-293,0,0,0,0,0,0,0,0,0,-1,1098,1317,0,0
-119,-293,0,0,0,0,0,0,0,0,0,-1,1105,1317,0,0
-112,-293,0,0,0,0,0,0,0,0,0,-1,1112,1317,0,0
-105,-293,0,0,0,0,0,0,0,0,0,-1,1119,1317,0,0
-98,-293,0,0,0,0,0,0,0,0,0,-1,1126,1317,0,0
-91,-293,0,0,0,0,0,0,0,0,0,-1,1133,1317,0,0
-84,-293,0,0,0,0,0,0,0,0,0,-1,1140,1317,0,0
-77,-293,0,0,0,0,0,0,0,0,0,-1,1147,1317,0,0
-70,-293,0,0,0,0,0,0,0,0,0,-1,1154,1317,0,0
-63,-293,0,0,0,0,0,0,0,0,0,-1,1161,1317,0,0
-56,-293,0,0,0,0,0,0,0,0,0,-1,1168,1317,0,0
-49,-293,0,0,0,0,0,0,0,0,0,-1,1175,1317,0,0
-42,-293,0,0,0,0,0,0,0,0,0,-1,1182,1317,0,0
-35,-293,0,0,0,0,0,0,0,0,0,-1,1189,1317,0,0
-28,-293,0,0,0,0,0,0,0,0,0,-1,1196,1317,0,0
-21,-293,0,0,0,0,0,0,0,0,0,-1,1203,1317,0,0
-14,-293,0,0,0,0,0,0,0,0,0,-1,1210,1317,0,0
-7,-293,0,0,0,0,0,0,0,0,0,-1,1217,1317,0,0
0,-293,0,0,0,0,0,0,0,0,0,-1,1224,1317,0,0
7,-293,0,0,0,0,0,0,0,0,0,-1,1231,1317,0,0
14,-293,0,0,0,0,0,0,0,0,0,-1,1238,1317,0,0
21,-293,0,0,0,0,0,0,0,0,0,-1,1245,1317,0,0
28,-293,0,0,0,0,0,0,0,0,0,-1,1252,1317,0,0
35,-293,0,0,0,0,0,0,0,0,0,-1,1259,1317,0,0
42,-293,0,0,0,0,0,0,0,0,0,-1,1266,1317,0,0
49,-293,0,0,0,0,0,0,0,0,0,-1,1273,1317,0,0
56,-293,0,0,0,0,0,0,0,0,0,-1,1280,1317,0,0
63,-293,0,0,0,0,0,0,0,0,0,-1,1287,1317,0,0
70,-293,0,0,0,0,0,0,0,0,0,-1,1294,1317,0,0
77,-293,0,0,0,0,0,0,0,0,0,-1,1301,1317,0,0
84,-293,0,0,0,0,0,0,0,0,0,-1,1308,1317,0,0
91,-293,0,0,0,0,0,0,0,0,0,-1,1315,1317,0,0
98,-293,0,0,0,0,0,0,0,0,0,-1,1322,1317,0,0
105,-293,0,0,0,0,0,0,0,0,0,-1,1329,1317,0,0
112,-293,0,0,0,0,0,0,0,0,0,-1,1336,1317,0,0
119,-293,0,0,0,0,0,0,0,0,0,-1,1343,1317,0,0
126,-293,0,0,0,0,0,0,0,0,0,-1,1350,1317,0,0
133,-293,0,0,0,0,0,0,0,0,0,-1,1357,1317,0,0
140,-293,0,0,0,0,0,0,0,0,0,-1,1364,1317,0,0
147,-293,0,0,0,0,0,0,0,0,0,-1,1371,1317,0,0
154,-293,0,0,0,0,0,0,0,0,0,-1,1378,1317,0,0
161,-293,0,0,0,0,0,0,0,0,0,-1,1385,1317,0,0
168,-293,0,0,0,0,0,0,0,0,0,-1,1392,1317,0,0
175,-293,0,0,0,0,0,0,0,0,0,-1,1399,1317,0,0
182,-293,0,0,0,0,0,0,0,0,0,-1,1406,1317,0,0
189,-293,0,0,0,0,0,0,0,0,0,-1,1413,1317,0,0
196,-293,0,0,0,0,0,0,0,0,0,-1,1420,1317,0,0
203,-293,0,0,0,0,0,0,0,0,0,-1,1427,1317,0,0
210,-293,0,0,0,0,0,0,0,0,0,-1,1434,1317,0,0
217,-293,0,0,0,0,0,0,0,0,0,-1,1441,1317,0,0
224,-293,0,0,0,0,0,0,0,0,0,-1,1448,1317,0,0
231,-293,0,0,0,0,0,0,0,0,0,-1,1455,1317,0,0
238,-293,0,0,0,0,0,0,0,0,0,-1,1462,1317,0,0
245,-293,0,0,0,0,0,0,0,0,0,-1,1469,1317,0,0
252,-293,0,0,0,0,0,0,0,0,0,-1,1476,1317,0,0
259,-293,0,0,0,0,0,0,0,0,0,-1,1483,1317,0,0
266,-293,0,0,0,0,0,0,0,0,0,-1,1490,1317,0,0
273,-293,0,0,0,0,0,0,0,0,0,-1,1497,1317,0,0
280,-293,0,0,0,0,0,0,0,0,0,-1,1504,1317,0,0
287,-293,0,0,0,0,0,0,0,0,0,-1,1511,1317,0,0
294,-293,0,0,0,0,0,0,0,0,0,-1,1518,1317,0,0
301,-293,0,0,0,0,0,0,0,0,0,-1,1525,1317,0,0
308,-293,0,0,0,0,0,0,0,0,0,-1,1532,1317,0,0
315,-293,0,0,0,0,0,0,0,0,0,-1,1539,1317,0,0
322,-293,0,0,0,0,0,0,0,0,0,-1,1546,1317,0,0
329,-293,0,0,0,0,0,0,0,0,0,-1,1553,1317,0,0
336,-293,0,0,0,0,0,0,0,0,0,-1,1560,1317,0,0
343,-293,0,0,0,0,0,0,0,0,0,-1,1567,1317,0,0
350,-293,0,0,0,0,0,0,0,0,0,-1,1574,1317,0,0
357,-293,0,0,0,0,0,0,0,0,0,-1,1581,1317,0,0
364,-293,0,0,0,0,0,0,0,0,0,-1,1588,1317,0,0
371,-293,0,0,0,0,0,0,0,0,0,-1,1595,1317,0,0
378,-293,0,0,0,0,0,0,0,0,0,-1,1602,1317,0,0
385,-293,0,0,0,0,0,0,0,0,0,-1,1609,1317,0,0
392,-293,0,0,0,0,0,0,0,0,0,-1,1616,1317,0,0
399,-293,0,0,0,0,0,0,0,0,0,-1,1623,1317,0,0
406,-293,0,0,0,0,0,0,0,0,0,-1,1630,1317,0,0
413,-293,0,0,0,0,0,0,0,0,0,-1,1637,1317,0,0
420,-293,0,0,0,0,0,0,0,0,0,-1,1644,1317,0,0
427,-293,0,0,0,0,0,0,0,0,0,-1,1651,1317,0,0
434,-293,0,0,0,0,0,0,0,0,0,-1,1658,1317,0,0
441,-293,0,0,0,0,0,0,0,0,0,-1,1665,1317,0,0
448,-293,0,0,0,0,0,0,0,0,0,-1,1672,1317,0,0
455,-293,0,0,0,0,0,0,0,0,0,-1,1679,1317,0,0
462,-293,0,0,0,0,0,0,0,0,0,-1,1686,1317,0,0
469,-293,0,0,0,0,0,0,0,0,0,-1,1693,1317,0,0
476,-293,0,0,0,0,0,0,0,0,0,-1,1700,1317,0,0
483,-293,0,0,0,0,0,0,0,0,0,-1,1707,1317,0,0
490,-293,0,0,0,0,0,0,0,0,0,-1,1714,1317,0,0
497,-293,0,0,0,0,0,0,0,0,0,-1,1721,1317,0,0
504,-293,0,0,0,0,0,0,0,0,0,-1,1728,1317,0,0
511,-293,0,0,0,0,0,0,0,0,0,-1,1735,1317,0,0
518,-293,0,0,0,0,0,0,0,0,0,-1,1742,1317,0,0
525,-293,0,0,0,0,0,0,0,0,0,-1,1749,1317,0,0
532,-293,0,0,0,0,0,0,0,0,0,-1,1756,1317,0,0
539,-293,0,0,0,0,0,0,0,0,0,-1,1763,1317,0,0
546,-293,0,0,0,0,0,0,0,0,0,-1,1770,1317,0,0
553,-293,0,0,0,0,0,0,0,0,0,-1,1777,1317,0,0
560,-293,0,0,0,0,0,0,0,0,0,-1,1784,1317,0,0
567,-293,0,0,0,0,0,0,0,0,0,-1,1791,1317,0,0
574,-293,0,0,0,0,0,0,0,0,0,-1,1798,1317,0,0
581,-293,0,0,0,0,0,0,0,0,0,-1,1805,1317,0,0
588,-293,0,0,0,0,0,0,0,0,0,-1,1812,1317,0,0
595,-293,35.011,1.63013,0,0,0,0,0,0,0,-1,1819,1317,35.011,-1.63009
602,-293,35.563,2.06531,0,0,0,0,0,0,0,-1,1826,1317,35.563,-2.06529
609,-293,35.4271,2.17041,0,0,0,0,0,0,0,-1,1833,1317,35.4271,-2.17046
616,-293,35.4521,2.05762,0.0175887,0.0127851,-0.028213,0.043502,-0.0131282,-0.742935,0.0342272,0.0449427,1840,1317,35.4522,-2.05763
623,-293,35.582,2.39001,0.0122954,0.0103893,-0.0207329,0.0320971,-0.00941241,-0.76243,0.0251301,0.0466089,1847,1317,35.5821,-2.38997
630,-293,36.4163,2.58911,0,0,0,0,0,0,0,-1,1854,1317,36.4163,-2.58907
637,-293,30.8379,3.60046,0,0,0,0,0,0,0,-1,1861,1317,30.8379,-3.60043
644,-293,24.4565,0.520752,0,0,0,0,0,0,0,-1,1868,1317,24.4566,-0.520709
651,-293,25.8926,9.51245,0,0,0,0,0,0,0,-1,1875,1317,25.8926,-9.51246
658,-293,25.4904,9.10205,0,0,0,0,0,0,0,-1,1882,1317,25.4904,-9.10209
665,-293,25.6307,8.74231,0,0,0,0,0,0,0,-1,1889,1317,25.6307,-8.74231
672,-293,25.4554,8.5387,-0.0103591,-0.00186495,0.0045989,0.000147974,-0.012372,1.15822,0.00829775,0.0263062,1896,1317,25.4555,-8.53871
679,-293,25.4056,8.172,-0.00931099,-0.00237323,0.00448012,-0.000176021,-0.0115082,1.11483,0.00761414,0.013425,1903,1317,25.4057,-8.172
686,-293,25.4047,7.82153,-0.00702076,-0.00230168,0.00444181,0.000368403,-0.00969085,1.02955,0.0065868,0.0156426,1910,1317,25.4047,-7.82158
693,-293,25.3955,7.49487,-0.00395259,-0.00207941,0.0024798,-0.00036523,-0.00566677,0.96596,0.00366218,0.0118404,1917,1317,25.3955,-7.49482
700,-293,25.3717,7.146,-0.00100974,-0.00102753,0.00119462,0.000176011,-0.00221329,0.781676,0.00153756,0.0106827,1924,1317,25.3717,-7.14594
707,-293,25.3607,6.83618,0.000799897,-0.000180672,0.000476242,0.000993123,-0.000373897,0.385435,0.000815793,0.0120203,1931,1317,25.3608,-6.83616
714,-293,25.3694,6.49707,0.00148859,0.000440215,0.000349519,0.00159443,0.000334374,0.294041,0.000970884,0.00830414,1938,1317,25.3694,-6.49707
721,-293,25.3746,6.14709,0.00196066,0.000881002,0.000443391,0.00211941,0.000722254,0.343813,0.00124415,0.00908345,1945,1317,25.3746,-6.14714
728,-293,25.3792,5.79956,0.00277295,0.00143196,0.000456664,0.00291369,0.00129122,0.298958,0.00168584,0.0116124,1952,1317,25.3792,-5.79951
735,-293,25.4008,5.45227,0.00408785,0.00220096,0.000229522,0.00411537,0.00217344,0.119322,0.00237726,0.0216359,1959,1317,25.4007,-5.45231
742,-293,25.4935,5.11548,0.00650484,0.00323417,-0.000217069,0.00651918,0.00321983,-0.0659826,0.00376394,0.0474429,1966,1317,25.4935,-5.11543
749,-293,26.175,4.68359,0,0,0,0,0,0,0,-1,1973,1317,26.175,-4.68358
756,-293,24.978,3.9718,0,0,0,0,0,0,0,-1,1980,1317,24.978,-3.97186
763,-293,26.6713,4.74097,0,0,0,0,0,0,0,-1,1987,1317,26.6713,-4.74098
770,-293,24.1349,4.69153,0,0,0,0,0,0,0,-1,1994,1317,24.1348,-4.69159
777,-293,0,0,0,0,0,0,0,0,0,-1,2001,1317,0,0
784,-293,0,0,0,0,0,0,0,0,0,-1,2008,1317,0,0
791,-293,0,0,0,0,0,0,0,0,0,-1,2015,1317,0,0
798,-293,0,0,0,0,0,0,0,0,0,-1,2022,1317,0,0
805,-293,0,0,0,0,0,0,0,0,0,-1,2029,1317,0,0
812,-293,0,0,0,0,0,0,0,0,0,-1,2036,1317,0,0
-700,-300,0,0,0,0,0,0,0,0,0,-1,524,1324,0,0
-693,-300,0,0,0,0,0,0,0,0,0,-1,531,1324,0,0
-686,-300,0,0,0,0,0,0,0,0,0,-1,538,1324,0,0
-679,-300,0,0,0,0,0,0,0,0,0,-1,545,1324,0,0
-672,-300,0,0,0,0,0,0,0,0,0,-1,552,1324,0,0
-665,-300,0,0,0,0,0,0,0,0,0,-1,559,1324,0,0
-658,-300,0,0,0,0,0,0,0,0,0,-1,566,1324,0,0
-651,-300,-11.6391,-1.20459,0,0,0,0,0,0,0,-1,573,1324,-11.6391,1.20456
-644,-300,-11.488,-1.48987,-0.024054,0.0760834,-0.0724206,0.114058,-0.0620285,-1.08785,0.103132,0.0476928,580,1324,-11.488,1.48988
-637,-300,-11.6964,-1.78064,-0.02101,0.0636208,-0.0582972,0.0933411,-0.0507304,-1.09933,0.0843837,0.0451104,587,1324,-11.6964,1.78059
-630,-300,-11.5876,-2.3512,0,0,0,0,0,0,0,-1,594,1324,-11.5876,2.35116
-623,-300,-12.7067,1.48462,0,0,0,0,0,0,0,-1,601,1324,-12.7067,-1.48462
-616,-300,-12.8231,1.54565,0,0,0,0,0,0,0,-1,608,1324,-12.8231,-1.54567
-609,-300,-13.4914,2.55847,0,0,0,0,0,0,0,-1,615,1324,-13.4914,-2.5585
-602,-300,-13.915,2.8313,0,0,0,0,0,0,0,-1,622,1324,-13.915,-2.83128
-595,-300,-14.0923,3.39246,-0.00300509,0.0101896,-0.00613981,0.0126046,-0.00542009,-1.19605,0.0106785,0.0275927,629,1324,-14.0924,-3.39248
-588,-300,-14.0356,3.79541,-0.000319561,0.00463603,-0.00123278,0.00492576,-0.000609296,-1.33996,0.00350464,0.0206051,636,1324,-14.0356,-3.79541
-581,-300,-14.0308,4.20508,0.0016732,0.00083873,0.0013681,0.00268628,-0.000174346,0.637392,0.0018517,0.021152,643,1324,-14.0308,-4.20509
-574,-300,-14.0352,4.60449,0.00210651,0.000750197,0.00114282,0.00275724,9.94721e-05,0.517619,0.00180591,0.0172422,650,1324,-14.0352,-4.60453
-567,-300,-14.0585,4.96814,0.00248906,0.000636998,0.00117182,0.00305658,6.94813e-05,0.451013,0.00201496,0.0170087,657,1324,-14.0585,-4.9681
-560,-300,-14.0889,5.35986,0.00307029,0.000632217,0.00134128,0.00366373,3.87717e-05,0.416554,0.00242967,0.0152358,664,1324,-14.0889,-5.35992
-553,-300,-14.0651,5.74109,0.0038931,0.000649202,0.00164761,0.00458315,-4.08478e-05,0.396623,0.00306914,0.0104784,671,1324,-14.0651,-5.74107
-546,-300,-14.0584,6.12073,0.00496032,0.000827869,0.00210984,0.00584718,-5.89923e-05,0.397921,0.00391793,0.00869417,678,1324,-14.0584,-6.12072
-539,-300,-14.0339,6.50403,0.00639593,0.00104625,0.00275224,0.00755901,-0.000116824,0.399829,0.00507873,0.0186646,685,1324,-14.034,-6.50403
-532,-300,-14.0016,6.84497,0,0,0,0,0,0,0,-1,692,1324,-14.0016,-6.84499
-525,-300,-13.5115,6.27783,0,0,0,0,0,0,0,-1,699,1324,-13.5115,-6.2778
-518,-300,-9.8349,-0.537109,0,0,0,0,0,0,0,-1,706,1324,-9.83487,0.537068
-511,-300,-12.8644,0.081665,0,0,0,0,0,0,0,-1,713,1324,-12.8644,-0.0817016
-504,-300,-13.4829,-0.165527,0,0,0,0,0,0,0,-1,720,1324,-13.4829,0.165544
-497,-300,-18.1063,0.956543,0,0,0,0,0,0,0,-1,727,1324,-18.1063,-0.9565
-490,-300,-18.2293,1.53625,0,0,0,0,0,0,0,-1,734,1324,-18.2293,-1.53626
-483,-300,-18.3522,1.61084,0,0,0,0,0,0,0,-1,741,1324,-18.3522,-1.6108
-476,-300,-18.7489,1.96387,0,0,0,0,0,0,0,-1,748,1324,-18.7489,-1.96387
-469,-300,0,0,0,0,0,0,0,0,0,-1,755,1324,0,0
-462,-300,0,0,0,0,0,0,0,0,0,-1,762,1324,0,0
-455,-300,0,0,0,0,0,0,0,0,0,-1,769,1324,0,0
-448,-300,0,0,0,0,0,0,0,0,0,-1,776,1324,0,0
-441,-300,0,0,0,0,0,0,0,0,0,-1,783,1324,0,0
-434,-300,0,0,0,0,0,0,0,0,0,-1,790,1324,0,0
-427,-300,0,0,0,0,0,0,0,0,0,-1,797,1324,0,0
-420,-300,0,0,0,0,0,0,0,0,0,-1,804,1324,0,0
-413,-300,0,0,0,0,0,0,0,0,0,-1,811,1324,0,0
-406,-300,0,0,0,0,0,0,0,0,0,-1,818,1324,0,0
-399,-300,0,0,0,0,0,0,0,0,0,-1,825,1324,0,0
-392,-300,0,0,0,0,0,0,0,0,0,-1,832,1324,0,0
-385,-300,0,0,0,0,0,0,0,0,0,-1,839,1324,0,0
-378,-300,0,0,0,0,0,0,0,0,0,-1,846,1324,0,0
-371,-300,0,0,0,0,0,0,0,0,0,-1,853,1324,0,0
-364,-300,0,0,0,0,0,0,0,0,0,-1,860,1324,0,0
-357,-300,0,0,0,0,0,0,0,0,0,-1,867,1324,0,0
-350,-300,0,0,0,0,0,0,0,0,0,-1,874,1324,0,0
-343,-300,0,0,0,0,0,0,0,0,0,-1,881,1324,0,0
-336,-300,0,0,0,0,0,0,0,0,0,-1,888,1324,0,0
-329,-300,0,0,0,0,0,0,0,0,0,-1,895,1324,0,0
-322,-300,0,0,0,0,0,0,0,0,0,-1,902,1324,0,0
-315,-300,0,0,0,0,0,0,0,0,0,-1,909,1324,0,0
-308,-300,0,0,0,0,0,0,0,0,0,-1,916,1324,0,0
-301,-300,0,0,0,0,0,0,0,0,0,-1,923,1324,0,0
-294,-300,0,0,0,0,0,0,0,0,0,-1,930,1324,0,0
-287,-300,0,0,0,0,0,0,0,0,0,-1,937,1324,0,0
-280,-300,0,0,0,0,0,0,0,0,0,-1,944,1324,0,0
-273,-300,0,0,0,0,0,0,0,0,0,-1,951,1324,0,0
-266,-300,0,0,0,0,0,0,0,0,0,-1,958,1324,0,0
-259,-300,0,0,0,0,0,0,0,0,0,-1,965,1324,0,0
-252,-300,0,0,0,0,0,0,0,0,0,-1,972,1324,0,0
-245,-300,0,0,0,0,0,0,0,0,0,-1,979,1324,0,0
-238,-300,0,0,0,0,0,0,0,0,0,-1,986,1324,0,0
-231,-300,0,0,0,0,0,0,0,0,0,-1,993,1324,0,0
-224,-300,0,0,0,0,0,0,0,0,0,-1,1000,1324,0,0
-217,-300,0,0,0,0,0,0,0,0,0,-1,1007,1324,0,0
-210,-300,0,0,0,0,0,0,0,0,0,-1,1014,1324,0,0
-203,-300,0,0,0,0,0,0,0,0,0,-1,1021,1324,0,0
-196,-300,0,0,0,0,0,0,0,0,0,-1,1028,1324,0,0
-189,-300,0,0,0,0,0,0,0,0,0,-1,1035,1324,0,0
-182,-300,0,0,0,0,0,0,0,0,0,-1,1042,1324,0,0
-175,-300,0,0,0,0,0,0,0,0,0,-1,1049,1324,0,0
-168,-300,0,0,0,0,0,0,0,0,0,-1,1056,1324,0,0
-161,-300,0,0,0,0,0,0,0,0,0,-1,1063,1324,0,0
-154,-300,0,0,0,0,0,0,0,0,0,-1,1070,1324,0,0
-147,-300,0,0,0,0,0,0,0,0,0,-1,1077,1324,0,0
-140,-300,0,0,0,0,0,0,0,0,0,-1,1084,1324,0,0
-133,-300,0,0,0,0,0,0,0,0,0,-1,1091,1324,0,0
-126,-300,0,0,0,0,0,0,0,0,0,-1,1098,1324,0,0
-119,-300,0,0,0,0,0,0,0,0,0,-1,1105,1324,0,0
-112,-300,0,0,0,0,0,0,0,0,0,-1,1112,1324,0,0
-105,-300,0,0,0,0,0,0,0,0,0,-1,1119,1324,0,0
-98,-300,0,0,0,0,0,0,0,0,0,-1,1126,1324,0,0
-91,-300,0,0,0,0,0,0,0,0,0,-1,1133,1324,0,0
-84,-300,0,0,0,0,0,0,0,0,0,-1,1140,1324,0,0
-77,-300,0,0,0,0,0,0,0,0,0,-1,1147,1324,0,0
-70,-300,0,0,0,0,0,0,0,0,0,-1,1154,1324,0,0
-63,-300,0,0,0,0,0,0,0,0,0,-1,1161,1324,0,0
-56,-300,0,0,0,0,0,0,0,0,0,-1,1168,1324,0,0
-49,-300,0,0,0,0,0,0,0,0,0,-1,1175,1324,0,0
-42,-300,0,0,0,0,0,0,0,0,0,-1,1182,1324,0,0
-35,-300,0,0,0,0,0,0,0,0,0,-1,1189,1324,0,0
-28,-300,0,0,0,0,0,0,0,0,0,-1,1196,1324,0,0
-21,-300,0,0,0,0,0,0,0,0,0,-1,1203,1324,0,0
-14,-300,0,0,0,0,0,0,0,0,0,-1,1210,1324,0,0
-7,-300,0,0,0,0,0,0,0,0,0,-1,1217,1324,0,0
0,-300,0,0,0,0,0,0,0,0,0,-1,1224,1324,0,0
7,-300,0,0,0,0,0,0,0,0,0,-1,1231,1324,0,0
14,-300,0,0,0,0,0,0,0,0,0,-1,1238,1324,0,0
21,-300,0,0,0,0,0,0,0,0,0,-1,1245,1324,0,0
28,-300,0,0,0,0,0,0,0,0,0,-1,1252,1324,0,0
35,-300,0,0,0,0,0,0,0,0,0,-1,1259,1324,0,0
42,-300,0,0,0,0,0,0,0,0,0,-1,1266,1324,0,0
49,-300,0,0,0,0,0,0,0,0,0,-1,1273,1324,0,0
56,-300,0,0,0,0,0,0,0,0,0,-1,1280,1324,0,0
63,-300,0,0,0,0,0,0,0,0,0,-1,1287,1324,0,0
70,-300,0,0,0,0,0,0,0,0,0,-1,1294,1324,0,0
77,-300,0,0,0,0,0,0,0,0,0,-1,1301,1324,0,0
84,-300,0,0,0,0,0,0,0,0,0,-1,1308,1324,0,0
91,-300,0,0,0,0,0,0,0,0,0,-1,1315,1324,0,0
98,-300,0,0,0,0,0,0,0,0,0,-1,1322,1324,0,0
105,-300,0,0,0,0,0,0,0,0,0,-1,1329,1324,0,0
112,-300,0,0,0,0,0,0,0,0,0,-1,1336,1324,0,0
119,-300,0,0,0,0,0,0,0,0,0,-1,1343,1324,0,0
126,-300,0,0,0,0,0,0,0,0,0,-1,1350,1324,0,0
133,-300,0,0,0,0,0,0,0,0,0,-1,1357,1324,0,0
140,-300,0,0,0,0,0,0,0,0,0,-1,1364,1324,0,0
147,-300,0,0,0,0,0,0,0,0,0,-1,1371,1324,0,0
154,-300,0,0,0,0,0,0,0,0,0,-1,1378,1324,0,0
161,-300,0,0,0,0,0,0,0,0,0,-1,1385,1324,0,0
168,-300,0,0,0,0,0,0,0,0,0,-1,1392,1324,0,0
175,-300,0,0,0,0,0,0,0,0,0,-1,1399,1324,0,0
182,-300,0,0,0,0,0,0,0,0,0,-1,1406,1324,0,0
189,-300,0,0,0,0,0,0,0,0,0,-1,1413,1324,0,0
196,-300,0,0,0,0,0,0,0,0,0,-1,1420,1324,0,0
203,-300,0,0,0,0,0,0,0,0,0,-1,1427,1324,0,0
210,-300,0,0,0,0,0,0,0,0,0,-1,1434,1324,0,0
217,-300,0,0,0,0,0,0,0,0,0,-1,1441,1324,0,0
224,-300,0,0,0,0,0,0,0,0,0,-1,1448,1324,0,0
231,-300,0,0,0,0,0,0,0,0,0,-1,1455,1324,0,0
238,-300,0,0,0,0,0,0,0,0,0,-1,1462,1324,0,0
245,-300,0,0,0,0,0,0,0,0,0,-1,1469,1324,0,0
252,-300,0,0,0,0,0,0,0,0,0,-1,1476,1324,0,0
259,-300,0,0,0,0,0,0,0,0,0,-1,1483,1324,0,0
266,-300,0,0,0,0,0,0,0,0,0,-1,1490,1324,0,0
273,-300,0,0,0,0,0,0,0,0,0,-1,1497,1324,0,0
280,-300,0,0,0,0,0,0,0,0,0,-1,1504,1324,0,0
287,-300,0,0,0,0,0,0,0,0,0,-1,1511,1324,0,0
294,-300,0,0,0,0,0,0,0,0,0,-1,1518,1324,0,0
301,-300,0,0,0,0,0,0,0,0,0,-1,1525,1324,0,0
308,-300,0,0,0,0,0,0,0,0,0,-1,1532,1324,0,0
315,-300,0,0,0,0,0,0,0,0,0,-1,1539,1324,0,0
322,-300,0,0,0,0,0,0,0,0,0,-1,1546,1324,0,0
329,-300,0,0,0,0,0,0,0,0,0,-1,1553,1324,0,0
336,-300,0,0,0,0,0,0,0,0,0,-1,1560,1324,0,0
343,-300,0,0,0,0,0,0,0,0,0,-1,1567,1324,0,0
350,-300,0,0,0,0,0,0,0,0,0,-1,1574,1324,0,0
357,-300,0,0,0,0,0,0,0,0,0,-1,1581,1324,0,0
364,-300,0,0,0,0,0,0,0,0,0,-1,1588,1324,0,0
371,-300,0,0,0,0,0,0,0,0,0,-1,1595,1324,0,0
378,-300,0,0,0,0,0,0,0,0,0,-1,1602,1324,0,0
385,-300,0,0,0,0,0,0,0,0,0,-1,1609,1324,0,0
392,-300,0,0,0,0,0,0,0,0,0,-1,1616,1324,0,0
399,-300,0,0,0,0,0,0,0,0,0,-1,1623,1324,0,0
406,-300,0,0,0,0,0,0,0,0,0,-1,1630,1324,0,0
413,-300,0,0,0,0,0,0,0,0,0,-1,1637,1324,0,0
420,-300,0,0,0,0,0,0,0,0,0,-1,1644,1324,0,0
427,-300,0,0,0,0,0,0,0,0,0,-1,1651,1324,0,0
434,-300,0,0,0,0,0,0,0,0,0,-1,1658,1324,0,0
441,-300,0,0,0,0,0,0,0,0,0,-1,1665,1324,0,0
448,-300,0,0,0,0,0,0,0,0,0,-1,1672,1324,0,0
455,-300,0,0,0,0,0,0,0,0,0,-1,1679,1324,0,0
462,-300,0,0,0,0,0,0,0,0,0,-1,1686,1324,0,0
469,-300,0,0,0,0,0,0,0,0,0,-1,1693,1324,0,0
476,-300,0,0,0,0,0,0,0,0,0,-1,1700,1324,0,0
483,-300,0,0,0,0,0,0,0,0,0,-1,1707,1324,0,0
490,-300,0,0,0,0,0,0,0,0,0,-1,1714,1324,0,0
497,-300,0,0,0,0,0,0,0,0,0,-1,1721,1324,0,0
504,-300,0,0,0,0,0,0,0,0,0,-1,1728,1324,0,0
511,-300,0,0,0,0,0,0,0,0,0,-1,1735,1324,0,0
518,-300,0,0,0,0,0,0,0,0,0,-1,1742,1324,0,0
525,-300,0,0,0,0,0,0,0,0,0,-1,1749,1324,0,0
532,-300,0,0,0,0,0,0,0,0,0,-1,1756,1324,0,0
539,-300,0,0,0,0,0,0,0,0,0,-1,1763,1324,0,0
546,-300,0,0,0,0,0,0,0,0,0,-1,1770,1324,0,0
553,-300,0,0,0,0,0,0,0,0,0,-1,1777,1324,0,0
560,-300,0,0,0,0,0,0,0,0,0,-1,1784,1324,0,0
567,-300,0,0,0,0,0,0,0,0,0,-1,1791,1324,0,0
574,-300,0,0,0,0,0,0,0,0,0,-1,1798,1324,0,0
581,-300,0,0,0,0,0,0,0,0,0,-1,1805,1324,0,0
588,-300,35.509,3.08911,0,0,0,0,0,0,0,-1,1812,1324,35.509,-3.08913
595,-300,35.0093,2.37744,0,0,0,0,0,0,0,-1,1819,1324,35.0092,-2.3775
602,-300,34.6365,1.51331,0,0,0,0,0,0,0,-1,1826,1324,34.6365,-1.51331
609,-300,34.9525,1.44312,0.026706,0.0163211,-0.0427713,0.0645989,-0.0215718,-0.724994,0.0517768,0.0447019,1833,1324,34.9525,-1.44306
616,-300,35.4565,1.35962,0.0213559,0.0137746,-0.0334819,0.051261,-0.0161306,-0.729031,0.0406325,0.0438037,1840,1324,35.4565,-1.35957
623,-300,35.4072,1.97668,0,0,0,0,0,0,0,-1,1847,1324,35.4072,-1.97668
630,-300,34.4613,4.74854,0,0,0,0,0,0,0,-1,1854,1324,34.4614,-4.74855
637,-300,31.1719,4.6366,0,0,0,0,0,0,0,-1,1861,1324,31.1718,-4.63665
644,-300,22.9836,3.44934,0,0,0,0,0,0,0,-1,1868,1324,22.9836,-3.4493
651,-300,25.5004,9.11853,0,0,0,0,0,0,0,-1,1875,1324,25.5004,-9.11851
658,-300,25.4012,9.20032,0,0,0,0,0,0,0,-1,1882,1324,25.4012,-9.20036
665,-300,25.1359,8.89124,0,0,0,0,0,0,0,-1,1889,1324,25.1358,-8.89125
672,-300,25.0421,8.57996,-0.00765477,-0.00145578,0.00370516,0.000275369,-0.00938592,1.13371,0.00635106,0.0157129,1896,1324,25.0421,-8.57992
679,-300,25.0566,8.19446,-0.00663717,-0.00190299,0.00347672,-6.40498e-05,-0.00847611,1.08427,0.00562951,0.0120943,1903,1324,25.0567,-8.19446
686,-300,25.0553,7.84314,-0.0046817,-0.00171681,0.00337061,0.000482953,-0.00688146,0.992574,0.0047568,0.0126854,1910,1324,25.0553,-7.84314
693,-300,25.0439,7.51636,-0.00223907,-0.00142785,0.00172109,-6.52201e-05,-0.00360169,0.901121,0.00237969,0.010929,1917,1324,25.0439,-7.51634
700,-300,25.0483,7.16479,-7.88033e-05,-0.000571781,0.000758294,0.000472058,-0.00112264,0.628256,0.000945895,0.0122273,1924,1324,25.0483,-7.16477
707,-300,25.0408,6.81824,0.0012005,0.000130092,0.000291576,0.00127477,5.58213e-05,0.249419,0.000831864,0.00922507,1931,1324,25.0407,-6.81818
714,-300,25.0378,6.48792,0.00172736,0.000599669,0.000290072,0.0017976,0.00052943,0.237571,0.00106666,0.0106674,1938,1324,25.0379,-6.48786
721,-300,25.0425,6.15698,0.00243243,0.00108058,0.000324619,0.00250634,0.00100667,0.223865,0.00145634,0.0117415,1945,1324,25.0425,-6.15695
728,-300,25.0747,5.79236,0.00357401,0.00170861,0.00026253,0.00361026,0.00167237,0.137187,0.00208626,0.0137101,1952,1324,25.0747,-5.79231
735,-300,25.1273,5.47668,0,0,0,0,0,0,0,-1,1959,1324,25.1273,-5.47672
742,-300,25.3369,5.24426,0,0,0,0,0,0,0,-1,1966,1324,25.337,-5.24425
749,-300,25.5773,5.43201,0,0,0,0,0,0,0,-1,1973,1324,25.5773,-5.43203
756,-300,22.1423,3.45642,0,0,0,0,0,0,0,-1,1980,1324,22.1423,-3.45638
763,-300,22.6136,5.1571,0,0,0,0,0,0,0,-1,1987,1324,22.6136,-5.15706
770,-300,24.859,4.77979,0,0,0,0,0,0,0,-1,1994,1324,24.859,-4.77972
777,-300,0,0,0,0,0,0,0,0,0,-1,2001,1324,0,0
784,-300,0,0,0,0,0,0,0,0,0,-1,2008,1324,0,0
791,-300,0,0,0,0,0,0,0,0,0,-1,2015,1324,0,0
798,-300,0,0,0,0,0,0,0,0,0,-1,2022,1324,0,0
805,-300,0,0,0,0,0,0,0,0,0,-1,2029,1324,0,0
812,-300,0,0,0,0,0,0,0,0,0,-1,2036,1324,0,0
-700,-307,0,0,0,0,0,0,0,0,0,-1,524,1331,0,0
-693,-307,0,0,0,0,0,0,0,0,0,-1,531,1331,0,0
-686,-307,0,0,0,0,0,0,0,0,0,-1,538,1331,0,0
-679,-307,0,0,0,0,0,0,0,0,0,-1,545,1331,0,0
-672,-307,0,0,0,0,0,0,0,0,0,-1,552,1331,0,0
-665,-307,0,0,0,0,0,0,0,0,0,-1,559,1331,0,0
-658,-307,0,0,0,0,0,0,0,0,0,-1,566,1331,0,0
-651,-307,-12.0636,-4.25879,0,0,0,0,0,0,0,-1,573,1331,-12.0636,4.25881
-644,-307,-10.8427,-1.97888,0,0,0,0,0,0,0,-1,580,1331,-10.8427,1.97888
-637,-307,-11.3618,-2.50574,0,0,0,0,0,0,0,-1,587,1331,-11.3618,2.50571
-630,-307,-12.0005,0.767212,0,0,0,0,0,0,0,-1,594,1331,-12.0005,-0.767266
-623,-307,-12.2128,2.93811,0,0,0,0,0,0,0,-1,601,1331,-12.2128,-2.93813
-616,-307,-12.6612,2.08289,0,0,0,0,0,0,0,-1,608,1331,-12.6612,-2.08293
-609,-307,-12.2767,1.83228,0,0,0,0,0,0,0,-1,615,1331,-12.2768,-1.83224
-602,-307,-13.6601,2.96191,0,0,0,0,0,0,0,-1,622,1331,-13.6601,-2.96185
-595,-307,-13.7368,3.41858,-0.00306557,0.0109899,-0.00752686,0.0142598,-0.00633554,-1.16096,0.0121806,0.0329361,629,1331,-13.7368,-3.41861
-588,-307,-13.6581,3.82031,-0.00038164,0.00475811,-0.00191879,0.00539542,-0.00101895,-1.25012,0.00398031,0.0194984,636,1331,-13.6582,-3.82026
-581,-307,-13.6271,4.21082,0.00148423,0.000677836,0.00101032,0.00216884,-6.77432e-06,0.595544,0.00144815,0.015942,643,1331,-13.6271,-4.21078
-574,-307,-13.6544,4.57971,0.00177261,0.000591796,0.000863778,0.00222848,0.000135928,0.485609,0.00144248,0.0130962,650,1331,-13.6544,-4.57967
-567,-307,-13.6851,4.96851,0.00215858,0.000514837,0.000926172,0.00257496,9.84571e-05,0.422497,0.00168478,0.0134281,657,1331,-13.6851,-4.96854
-560,-307,-13.6814,5.36902,0.00280983,0.000545135,0.0011367,0.00328194,7.30181e-05,0.393659,0.00216403,0.0141073,664,1331,-13.6814,-5.36898
-553,-307,-13.6622,5.74438,0.00368848,0.000564588,0.00146193,0.00426591,-1.2842e-05,0.376168,0.00284823,0.0109928,671,1331,-13.6623,-5.74434
-546,-307,-13.666,6.11951,0.00484312,0.000698699,0.00194841,0.00561527,-7.34457e-05,0.377308,0.00376823,0.00999039,678,1331,-13.666,-6.11951
-539,-307,-13.6682,6.51868,0.0063504,0.000874002,0.00259762,0.00738651,-0.000162103,0.379529,0.00497925,0.0144695,685,1331,-13.6682,-6.51866
-532,-307,-13.6649,6.91003,0,0,0,0,0,0,0,-1,692,1331,-13.6649,-6.91
-525,-307,-13.2009,6.91309,0,0,0,0,0,0,0,-1,699,1331,-13.2009,-6.9131
-518,-307,-9.77777,-1.56653,0,0,0,0,0,0,0,-1,706,1331,-9.77777,1.56651
-511,-307,-12.5226,0.26709,0,0,0,0,0,0,0,-1,713,1331,-12.5226,-0.267038
-504,-307,-12.5913,-0.308105,0,0,0,0,0,0,0,-1,720,1331,-12.5913,0.308124
-497,-307,-13.8586,-0.115845,0,0,0,0,0,0,0,-1,727,1331,-13.8587,0.115861
-490,-307,-17.9429,0.982178,0,0,0,0,0,0,0,-1,734,1331,-17.9429,-0.982198
-483,-307,-18.1066,0.927612,0,0,0,0,0,0,0,-1,741,1331,-18.1066,-0.927609
-476,-307,-18.1288,1.1228,0,0,0,0,0,0,0,-1,748,1331,-18.1289,-1.12286
-469,-307,-18.2028,0.798584,0,0,0,0,0,0,0,-1,755,1331,-18.2027,-0.798546
-462,-307,0,0,0,0,0,0,0,0,0,-1,762,1331,0,0
-455,-307,0,0,0,0,0,0,0,0,0,-1,769,1331,0,0
-448,-307,0,0,0,0,0,0,0,0,0,-1,776,1331,0,0
-441,-307,0,0,0,0,0,0,0,0,0,-1,783,1331,0,0
-434,-307,0,0,0,0,0,0,0,0,0,-1,790,1331,0,0
-427,-307,0,0,0,0,0,0,0,0,0,-1,797,1331,0,0
-420,-307,0,0,0,0,0,0,0,0,0,-1,804,1331,0,0
-413,-307,0,0,0,0,0,0,0,0,0,-1,811,1331,0,0
-406,-307,0,0,0,0,0,0,0,0,0,-1,818,1331,0,0
-399,-307,0,0,0,0,0,0,0,0,0,-1,825,1331,0,0
-392,-307,0,0,0,0,0,0,0,0,0,-1,832,1331,0,0
-385,-307,0,0,0,0,0,0,0,0,0,-1,839,1331,0,0
-378,-307,0,0,0,0,0,0,0,0,0,-1,846,1331,0,0
-371,-307,0,0,0,0,0,0,0,0,0,-1,853,1331,0,0
-364,-307,0,0,0,0,0,0,0,0,0,-1,860,1331,0,0
-357,-307,0,0,0,0,0,0,0,0,0,-1,867,1331,0,0
-350,-307,0,0,0,0,0,0,0,0,0,-1,874,1331,0,0
-343,-307,0,0,0,0,0,0,0,0,0,-1,881,1331,0,0
-336,-307,0,0,0,0,0,0,0,0,0,-1,888,1331,0,0
-329,-307,0,0,0,0,0,0,0,0,0,-1,895,1331,0,0
-322,-307,0,0,0,0,0,0,0,0,0,-1,902,1331,0,0
-315,-307,0,0,0,0,0,0,0,0,0,-1,909,1331,0,0
-308,-307,0,0,0,0,0,0,0,0,0,-1,916,1331,0,0
-301,-307,0,0,0,0,0,0,0,0,0,-1,923,1331,0,0
-294,-307,0,0,0,0,0,0,0,0,0,-1,930,1331,0,0
-287,-307,0,0,0,0,0,0,0,0,0,-1,937,1331,0,0
-280,-307,0,0,0,0,0,0,0,0,0,-1,944,1331,0,0
-273,-307,0,0,0,0,0,0,0,0,0,-1,951,1331,0,0
-266,-307,0,0,0,0,0,0,0,0,0,-1,958,1331,0,0
-259,-307,0,0,0,0,0,0,0,0,0,-1,965,1331,0,0
-252,-307,0,0,0,0,0,0,0,0,0,-1,972,1331,0,0
-245,-307,0,0,0,0,0,0,0,0,0,-1,979,1331,0,0
-238,-307,0,0,0,0,0,0,0,0,0,-1,986,1331,0,0
-231,-307,0,0,0,0,0,0,0,0,0,-1,993,1331,0,0
-224,-307,0,0,0,0,0,0,0,0,0,-1,1000,1331,0,0
-217,-307,0,0,0,0,0,0,0,0,0,-1,1007,1331,0,0
-210,-307,0,0,0,0,0,0,0,0,0,-1,1014,1331,0,0
-203,-307,0,0,0,0,0,0,0,0,0,-1,1021,1331,0,0
-196,-307,0,0,0,0,0,0,0,0,0,-1,1028,1331,0,0
-189,-307,0,0,0,0,0,0,0,0,0,-1,1035,1331,0,0
-182,-307,0,0,0,0,0,0,0,0,0,-1,1042,1331,0,0
-175,-307,0,0,0,0,0,0,0,0,0,-1,1049,1331,0,0
-168,-307,0,0,0,0,0,0,0,0,0,-1,1056,1331,0,0
-161,-307,0,0,0,0,0,0,0,0,0,-1,1063,1331,0,0
-154,-307,0,0,0,0,0,0,0,0,0,-1,1070,1331,0,0
-147,-307,0,0,0,0,0,0,0,0,0,-1,1077,1331,0,0
-140,-307,0,0,0,0,0,0,0,0,0,-1,1084,1331,0,0
-133,-307,0,0,0,0,0,0,0,0,0,-1,1091,1331,0,0
-126,-307,0,0,0,0,0,0,0,0,0,-1,1098,1331,0,0
-119,-307,0,0,0,0,0,0,0,0,0,-1,1105,1331,0,0
-112,-307,0,0,0,0,0,0,0,0,0,-1,1112,1331,0,0
-105,-307,0,0,0,0,0,0,0,0,0,-1,1119,1331,0,0
-98,-307,0,0,0,0,0,0,0,0,0,-1,1126,1331,0,0
-91,-307,0,0,0,0,0,0,0,0,0,-1,1133,1331,0,0
-84,-307,0,0,0,0,0,0,0,0,0,-1,1140,1331,0,0
-77,-307,0,0,0,0,0,0,0,0,0,-1,1147,1331,0,0
-70,-307,0,0,0,0,0,0,0,0,0,-1,1154,1331,0,0
-63,-307,0,0,0,0,0,0,0,0,0,-1,1161,1331,0,0
-56,-307,0,0,0,0,0,0,0,0,0,-1,1168,1331,0,0
-49,-307,0,0,0,0,0,0,0,0,0,-1,1175,1331,0,0
-42,-307,0,0,0,0,0,0,0,0,0,-1,1182,1331,0,0
-35,-307,0,0,0,0,0,0,0,0,0,-1,1189,1331,0,0
-28,-307,0,0,0,0,0,0,0,0,0,-1,1196,1331,0,0
-21,-307,0,0,0,0,0,0,0,0,0,-1,1203,1331,0,0
-14,-307,0,0,0,0,0,0,0,0,0,-1,1210,1331,0,0
-7,-307,0,0,0,0,0,0,0,0,0,-1,1217,1331,0,0
0,-307,0,0,0,0,0,0,0,0,0,-1,1224,1331,0,0
7,-307,0,0,0,0,0,0,0,0,0,-1,1231,1331,0,0
14,-307,0,0,0,0,0,0,0,0,0,-1,1238,1331,0,0
21,-307,0,0,0,0,0,0,0,0,0,-1,1245,1331,0,0
28,-307,0,0,0,0,0,0,0,0,0,-1,1252,1331,0,0
35,-307,0,0,0,0,0,0,0,0,0,-1,1259,1331,0,0
42,-307,0,0,0,0,0,0,0,0,0,-1,1266,1331,0,0
49,-307,0,0,0,0,0,0,0,0,0,-1,1273,1331,0,0
56,-307,0,0,0,0,0,0,0,0,0,-1,1280,1331,0,0
63,-307,0,0,0,0,0,0,0,0,0,-1,1287,1331,0,0
70,-307,0,0,0,0,0,0,0,0,0,-1,1294,1331,0,0
77,-307,0,0,0,0,0,0,0,0,0,-1,1301,1331,0,0
84,-307,0,0,0,0,0,0,0,0,0,-1,1308,1331,0,0
91,-307,0,0,0,0,0,0,0,0,0,-1,1315,1331,0,0
98,-307,0,0,0,0,0,0,0,0,0,-1,1322,1331,0,0
105,-307,0,0,0,0,0,0,0,0,0,-1,1329,1331,0,0
112,-307,0,0,0,0,0,0,0,0,0,-1,1336,1331,0,0
119,-307,0,0,0,0,0,0,0,0,0,-1,1343,1331,0,0
126,-307,0,0,0,0,0,0,0,0,0,-1,1350,1331,0,0
133,-307,0,0,0,0,0,0,0,0,0,-1,1357,1331,0,0
140,-307,0,0,0,0,0,0,0,0,0,-1,1364,1331,0,0
147,-307,0,0,0,0,0,0,0,0,0,-1,1371,1331,0,0
154,-307,0,0,0,0,0,0,0,0,0,-1,1378,1331,0,0
161,-307,0,0,0,0,0,0,0,0,0,-1,1385,1331,0,0
168,-307,0,0,0,0,0,0,0,0,0,-1,1392,1331,0,0
175,-307,0,0,0,0,0,0,0,0,0,-1,1399,1331,0,0
182,-307,0,0,0,0,0,0,0,0,0,-1,1406,1331,0,0
189,-307,0,0,0,0,0,0,0,0,0,-1,1413,1331,0,0
196,-307,0,0,0,0,0,0,0,0,0,-1,1420,1331,0,0
203,-307,0,0,0,0,0,0,0,0,0,-1,1427,1331,0,0
210,-307,0,0,0,0,0,0,0,0,0,-1,1434,1331,0,0
217,-307,0,0,0,0,0,0,0,0,0,-1,1441,1331,0,0
224,-307,0,0,0,0,0,0,0,0,0,-1,1448,1331,0,0
231,-307,0,0,0,0,0,0,0,0,0,-1,1455,1331,0,0
238,-307,0,0,0,0,0,0,0,0,0,-1,1462,1331,0,0
245,-307,0,0,0,0,0,0,0,0,0,-1,1469,1331,0,0
252,-307,0,0,0,0,0,0,0,0,0,-1,1476,1331,0,0
259,-307,0,0,0,0,0,0,0,0,0,-1,1483,1331,0,0
266,-307,0,0,0,0,0,0,0,0,0,-1,1490,1331,0,0
273,-307,0,0,0,0,0,0,0,0,0,-1,1497,1331,0,0
280,-307,0,0,0,0,0,0,0,0,0,-1,1504,1331,0,0
287,-307,0,0,0,0,0,0,0,0,0,-1,1511,1331,0,0
294,-307,0,0,0,0,0,0,0,0,0,-1,1518,1331,0,0
301,-307,0,0,0,0,0,0,0,0,0,-1,1525,1331,0,0
308,-307,0,0,0,0,0,0,0,0,0,-1,1532,1331,0,0
315,-307,0,0,0,0,0,0,0,0,0,-1,1539,1331,0,0
322,-307,0,0,0,0,0,0,0,0,0,-1,1546,1331,0,0
329,-307,0,0,0,0,0,0,0,0,0,-1,1553,1331,0,0
336,-307,0,0,0,0,0,0,0,0,0,-1,1560,1331,0,0
343,-307,0,0,0,0,0,0,0,0,0,-1,1567,1331,0,0
350,-307,0,0,0,0,0,0,0,0,0,-1,1574,1331,0,0
357,-307,0,0,0,0,0,0,0,0,0,-1,1581,1331,0,0
364,-307,0,0,0,0,0,0,0,0,0,-1,1588,1331,0,0
371,-307,0,0,0,0,0,0,0,0,0,-1,1595,1331,0,0
378,-307,0,0,0,0,0,0,0,0,0,-1,1602,1331,0,0
385,-307,0,0,0,0,0,0,0,0,0,-1,1609,1331,0,0
392,-307,0,0,0,0,0,0,0,0,0,-1,1616,1331,0,0
399,-307,0,0,0,0,0,0,0,0,0,-1,1623,1331,0,0
406,-307,0,0,0,0,0,0,0,0,0,-1,1630,1331,0,0
413,-307,0,0,0,0,0,0,0,0,0,-1,1637,1331,0,0
420,-307,0,0,0,0,0,0,0,0,0,-1,1644,1331,0,0
427,-307,0,0,0,0,0,0,0,0,0,-1,1651,1331,0,0
434,-307,0,0,0,0,0,0,0,0,0,-1,1658,1331,0,0
441,-307,0,0,0,0,0,0,0,0,0,-1,1665,1331,0,0
448,-307,0,0,0,0,0,0,0,0,0,-1,1672,1331,0,0
455,-307,0,0,0,0,0,0,0,0,0,-1,1679,1331,0,0
462,-307,0,0,0,0,0,0,0,0,0,-1,1686,1331,0,0
469,-307,0,0,0,0,0,0,0,0,0,-1,1693,1331,0,0
476,-307,0,0,0,0,0,0,0,0,0,-1,1700,1331,0,0
483,-307,0,0,0,0,0,0,0,0,0,-1,1707,1331,0,0
490,-307,0,0,0,0,0,0,0,0,0,-1,1714,1331,0,0
497,-307,0,0,0,0,0,0,0,0,0,-1,1721,1331,0,0
504,-307,0,0,0,0,0,0,0,0,0,-1,1728,1331,0,0
511,-307,0,0,0,0,0,0,0,0,0,-1,1735,1331,0,0
518,-307,0,0,0,0,0,0,0,0,0,-1,1742,1331,0,0
525,-307,0,0,0,0,0,0,0,0,0,-1,1749,1331,0,0
532,-307,0,0,0,0,0,0,0,0,0,-1,1756,1331,0,0
539,-307,0,0,0,0,0,0,0,0,0,-1,1763,1331,0,0
546,-307,0,0,0,0,0,0,0,0,0,-1,1770,1331,0,0
553,-307,0,0,0,0,0,0,0,0,0,-1,1777,1331,0,0
560,-307,0,0,0,0,0,0,0,0,0,-1,1784,1331,0,0
567,-307,0,0,0,0,0,0,0,0,0,-1,1791,1331,0,0
574,-307,0,0,0,0,0,0,0,0,0,-1,1798,1331,0,0
581,-307,0,0,0,0,0,0,0,0,0,-1,1805,1331,0,0
588,-307,34.8495,4.31909,0,0,0,0,0,0,0,-1,1812,1331,34.8495,-4.31908
595,-307,35.038,3.08191,0.0346527,0.01971,-0.0672172,0.0948125,-0.0404499,-0.730049,0.0801686,0.0433188,1819,1331,35.038,-3.0819
602,-307,35.2095,2.46985,0.035018,0.0200736,-0.0589998,0.0870169,-0.0319253,-0.72241,0.0710843,0.0458144,1826,1331,35.2094,-2.46988
609,-307,35.4735,1.7384,0.0299501,0.017484,-0.0482511,0.0723691,-0.024935,-0.721164,0.0583612,0.0458613,1833,1331,35.4735,-1.73845
616,-307,35.5509,0.760376,0,0,0,0,0,0,0,-1,1840,1331,35.5509,-0.760412
623,-307,31.056,1.59509,0,0,0,0,0,0,0,-1,1847,1331,31.0561,-1.59509
630,-307,29.8116,1.51184,0,0,0,0,0,0,0,-1,1854,1331,29.8116,-1.51188
637,-307,24.6407,4.09106,0,0,0,0,0,0,0,-1,1861,1331,24.6407,-4.09103
644,-307,22.6885,5.80408,0,0,0,0,0,0,0,-1,1868,1331,22.6884,-5.80408
651,-307,17.5013,5.80078,0,0,0,0,0,0,0,-1,1875,1331,17.5014,-5.80072
658,-307,24.9619,9.27466,0,0,0,0,0,0,0,-1,1882,1331,24.9619,-9.2746
665,-307,24.7842,8.87891,-0.00297273,0.00159052,0.00274796,0.0028806,-0.00426281,1.13187,0.00414991,0.0301597,1889,1331,24.7841,-8.87886
672,-307,24.7343,8.57288,-0.00450306,-0.00128335,0.00256472,0.000134901,-0.00592131,1.06567,0.00399327,0.0114987,1896,1331,24.7343,-8.57289
679,-307,24.7175,8.22632,-0.00372599,-0.00161216,0.0022946,-0.00014276,-0.00519539,1.00122,0.003417,0.010325,1903,1331,24.7175,-8.22636
686,-307,24.7003,7.87878,-0.00238293,-0.00129245,0.00222121,0.000449459,-0.00412484,0.905754,0.0029113,0.00989096,1910,1331,24.7003,-7.8788
693,-307,24.7126,7.53479,-0.000748497,-0.000912226,0.00102446,0.000197368,-0.00185809,0.745528,0.00130948,0.0116463,1917,1331,24.7127,-7.53481
700,-307,24.7118,7.18115,0.000621781,-0.00022736,0.00041758,0.000792721,-0.0003983,0.388549,0.000700092,0.0132149,1924,1331,24.7118,-7.18117
707,-307,24.6875,6.82117,0.00147334,0.0003693,0.000170644,0.00149911,0.000343526,0.149904,0.000906853,0.0133714,1931,1331,24.6875,-6.82122
714,-307,24.6904,6.49353,0.00198504,0.000741718,0.00024317,0.0020309,0.000695851,0.186433,0.00119174,0.0116414,1938,1331,24.6905,-6.49352
721,-307,24.7168,6.17493,0.0029402,0.00123739,0.000245941,0.00297501,0.00120258,0.140605,0.0017281,0.0157162,1945,1331,24.7168,-6.17498
728,-307,24.7151,5.96045,0.00447049,0.00189573,0.000128073,0.00447685,0.00188937,0.0495784,0.00259516,0.0352112,1952,1331,24.7151,-5.96051
735,-307,24.4937,5.75134,0,0,0,0,0,0,0,-1,1959,1331,24.4937,-5.7513
742,-307,24.8127,5.55652,0.0111683,0.0042442,-0.00116443,0.0113589,0.00405362,-0.162228,0.00664701,0.0432973,1966,1331,24.8127,-5.55657
749,-307,25.3771,5.32349,0,0,0,0,0,0,0,-1,1973,1331,25.3771,-5.32349
756,-307,25.9033,5.2981,0,0,0,0,0,0,0,-1,1980,1331,25.9033,-5.29807
763,-307,18.7522,3.55298,0,0,0,0,0,0,0,-1,1987,1331,18.7522,-3.55301
770,-307,0,0,0,0,0,0,0,0,0,-1,1994,1331,0,0
777,-307,0,0,0,0,0,0,0,0,0,-1,2001,1331,0,0
784,-307,0,0,0,0,0,0,0,0,0,-1,2008,1331,0,0
791,-307,0,0,0,0,0,0,0,0,0,-1,2015,1331,0,0
798,-307,0,0,0,0,0,0,0,0,0,-1,2022,1331,0,0
805,-307,0,0,0,0,0,0,0,0,0,-1,2029,1331,0,0
812,-307,0,0,0,0,0,0,0,0,0,-1,2036,1331,0,0
-700,-314,0,0,0,0,0,0,0,0,0,-1,524,1338,0,0
-693,-314,0,0,0,0,0,0,0,0,0,-1,531,1338,0,0
-686,-314,0,0,0,0,0,0,0,0,0,-1,538,1338,0,0
-679,-314,0,0,0,0,0,0,0,0,0,-1,545,1338,0,0
-672,-314,0,0,0,0,0,0,0,0,0,-1,552,1338,0,0
-665,-314,0,0,0,0,0,0,0,0,0,-1,559,1338,0,0
-658,-314,0,0,0,0,0,0,0,0,0,-1,566,1338,0,0
-651,-314,0,0,0,0,0,0,0,0,0,-1,573,1338,0,0
-644,-314,-11.7038,-3.74414,0,0,0,0,0,0,0,-1,580,1338,-11.7038,3.74412
-637,-314,-11.3976,-1.95752,0,0,0,0,0,0,0,-1,587,1338,-11.3976,1.95747
-630,-314,-13.2771,2.98938,0,0,0,0,0,0,0,-1,594,1338,-13.2771,-2.98943
-623,-314,-13.3542,3.00903,0,0,0,0,0,0,0,-1,601,1338,-13.3542,-3.00907
-616,-314,-9.93311,1.15088,0,0,0,0,0,0,0,-1,608,1338,-9.93308,-1.15093
-609,-314,-9.4361,2.86292,0,0,0,0,0,0,0,-1,615,1338,-9.43612,-2.86286
-602,-314,-11.8027,2.42798,0,0,0,0,0,0,0,-1,622,1338,-11.8027,-2.42802
-595,-314,-13.3275,3.17749,0,0,0,0,0,0,0,-1,629,1338,-13.3274,-3.17752
-588,-314,-13.2827,3.78906,-0.000105097,0.00464265,-0.00256877,0.00576646,-0.00122891,-1.15839,0.00431271,0.0239991,636,1338,-13.2827,-3.78912
-581,-314,-13.2387,4.1936,0.00139013,0.000460261,0.000614464,0.00169574,0.000154657,0.461525,0.00108263,0.0125047,643,1338,-13.2387,-4.19361
-574,-314,-13.2812,4.55835,0.00149108,0.000382233,0.000542307,0.00171221,0.000161104,0.387175,0.00109174,0.0122031,650,1338,-13.2812,-4.55839
-567,-314,-13.3035,4.96436,0.00187422,0.000349795,0.000632632,0.00210256,0.000121457,0.346382,0.00136303,0.013916,657,1338,-13.3035,-4.9644
-560,-314,-13.2862,5.37292,0.00253428,0.000415105,0.000878518,0.00285111,9.82775e-05,0.346121,0.00186884,0.0148397,664,1338,-13.2862,-5.37289
-553,-314,-13.2758,5.74292,0.00340447,0.000436961,0.00122378,0.00384404,-2.60584e-06,0.344836,0.00256356,0.017251,671,1338,-13.2758,-5.74289
-546,-314,-13.2795,6.13123,0.00454673,0.000535009,0.00172403,0.00518582,-0.000104082,0.354991,0.00349243,0.0175734,678,1338,-13.2795,-6.13128
-539,-314,-13.2841,6.53162,0.00598686,0.000675084,0.00236489,0.00688715,-0.00022521,0.363752,0.00466832,0.0160494,685,1338,-13.2841,-6.53158
-532,-314,-13.0637,6.96826,0.0079365,0.00092002,0.00321774,0.00918868,-0.000332159,0.371117,0.00623946,0.0489416,692,1338,-13.0636,-6.96821
-525,-314,-12.9944,7.2699,0,0,0,0,0,0,0,-1,699,1338,-12.9945,-7.26988
-518,-314,-8.52753,4.70032,0,0,0,0,0,0,0,-1,706,1338,-8.52755,-4.70034
-511,-314,-11.8597,0.384888,0,0,0,0,0,0,0,-1,713,1338,-11.8597,-0.384927
-504,-314,-11.4322,-0.187378,0,0,0,0,0,0,0,-1,720,1338,-11.4322,0.187381
-497,-314,-11.0047,-0.759644,0,0,0,0,0,0,0,-1,727,1338,-11.0047,0.759689
-490,-314,-18.5143,0.471069,0,0,0,0,0,0,0,-1,734,1338,-18.5143,-0.47103
-483,-314,-17.8528,0.577271,0,0,0,0,0,0,0,-1,741,1338,-17.8528,-0.577327
-476,-314,-17.714,0.665405,0,0,0,0,0,0,0,-1,748,1338,-17.714,-0.665388
-469,-314,-17.7246,0.794678,0,0,0,0,0,0,0,-1,755,1338,-17.7246,-0.794645
-462,-314,0,0,0,0,0,0,0,0,0,-1,762,1338,0,0
-455,-314,0,0,0,0,0,0,0,0,0,-1,769,1338,0,0
-448,-314,0,0,0,0,0,0,0,0,0,-1,776,1338,0,0
-441,-314,0,0,0,0,0,0,0,0,0,-1,783,1338,0,0
-434,-314,0,0,0,0,0,0,0,0,0,-1,790,1338,0,0
-427,-314,0,0,0,0,0,0,0,0,0,-1,797,1338,0,0
-420,-314,0,0,0,0,0,0,0,0,0,-1,804,1338,0,0
-413,-314,0,0,0,0,0,0,0,0,0,-1,811,1338,0,0
-406,-314,0,0,0,0,0,0,0,0,0,-1,818,1338,0,0
-399,-314,0,0,0,0,0,0,0,0,0,-1,825,1338,0,0
-392,-314,0,0,0,0,0,0,0,0,0,-1,832,1338,0,0
-385,-314,0,0,0,0,0,0,0,0,0,-1,839,1338,0,0
-378,-314,0,0,0,0,0,0,0,0,0,-1,846,1338,0,0
-371,-314,0,0,0,0,0,0,0,0,0,-1,853,1338,0,0
-364,-314,0,0,0,0,0,0,0,0,0,-1,860,1338,0,0
-357,-314,0,0,0,0,0,0,0,0,0,-1,867,1338,0,0
-350,-314,0,0,0,0,0,0,0,0,0,-1,874,1338,0,0
-343,-314,0,0,0,0,0,0,0,0,0,-1,881,1338,0,0
-336,-314,0,0,0,0,0,0,0,0,0,-1,888,1338,0,0
-329,-314,0,0,0,0,0,0,0,0,0,-1,895,1338,0,0
-322,-314,0,0,0,0,0,0,0,0,0,-1,902,1338,0,0
-315,-314,0,0,0,0,0,0,0,0,0,-1,909,1338,0,0
-308,-314,0,0,0,0,0,0,0,0,0,-1,916,1338,0,0
-301,-314,0,0,0,0,0,0,0,0,0,-1,923,1338,0,0
-294,-314,0,0,0,0,0,0,0,0,0,-1,930,1338,0,0
-287,-314,0,0,0,0,0,0,0,0,0,-1,937,1338,0,0
-280,-314,0,0,0,0,0,0,0,0,0,-1,944,1338,0,0
-273,-314,0,0,0,0,0,0,0,0,0,-1,951,1338,0,0
-266,-314,0,0,0,0,0,0,0,0,0,-1,958,1338,0,0
-259,-314,0,0,0,0,0,0,0,0,0,-1,965,1338,0,0
-252,-314,0,0,0,0,0,0,0,0,0,-1,972,1338,0,0
-245,-314,0,0,0,0,0,0,0,0,0,-1,979,1338,0,0
-238,-314,0,0,0,0,0,0,0,0,0,-1,986,1338,0,0
-231,-314,0,0,0,0,0,0,0,0,0,-1,993,1338,0,0
-224,-314,0,0,0,0,0,0,0,0,0,-1,1000,1338,0,0
-217,-314,0,0,0,0,0,0,0,0,0,-1,1007,1338,0,0
-210,-314,0,0,0,0,0,0,0,0,0,-1,1014,1338,0,0
-203,-314,0,0,0,0,0,0,0,0,0,-1,1021,1338,0,0
-196,-314,0,0,0,0,0,0,0,0,0,-1,1028,1338,0,0
-189,-314,0,0,0,0,0,0,0,0,0,-1,1035,1338,0,0
-182,-314,0,0,0,0,0,0,0,0,0,-1,1042,1338,0,0
-175,-314,0,0,0,0,0,0,0,0,0,-1,1049,1338,0,0
-168,-314,0,0,0,0,0,0,0,0,0,-1,1056,1338,0,0
-161,-314,0,0,0,0,0,0,0,0,0,-1,1063,1338,0,0
-154,-314,0,0,0,0,0,0,0,0,0,-1,1070,1338,0,0
-147,-314,0,0,0,0,0,0,0,0,0,-1,1077,1338,0,0
-140,-314,0,0,0,0,0,0,0,0,0,-1,1084,1338,0,0
-133,-314,0,0,0,0,0,0,0,0,0,-1,1091,1338,0,0
-126,-314,0,0,0,0,0,0,0,0,0,-1,1098,1338,0,0
-119,-314,0,0,0,0,0,0,0,0,0,-1,1105,1338,0,0
-112,-314,0,0,0,0,0,0,0,0,0,-1,1112,1338,0,0
-105,-314,0,0,0,0,0,0,0,0,0,-1,1119,1338,0,0
-98,-314,0,0,0,0,0,0,0,0,0,-1,1126,1338,0,0
-91,-314,0,0,0,0,0,0,0,0,0,-1,1133,1338,0,0
-84,-314,0,0,0,0,0,0,0,0,0,-1,1140,1338,0,0
-77,-314,0,0,0,0,0,0,0,0,0,-1,1147,1338,0,0
-70,-314,0,0,0,0,0,0,0,0,0,-1,1154,1338,0,0
-63,-314,0,0,0,0,0,0,0,0,0,-1,1161,1338,0,0
-56,-314,0,0,0,0,0,0,0,0,0,-1,1168,1338,0,0
-49,-314,0,0,0,0,0,0,0,0,0,-1,1175,1338,0,0
-42,-314,0,0,0,0,0,0,0,0,0,-1,1182,1338,0,0
-35,-314,0,0,0,0,0,0,0,0,0,-1,1189,1338,0,0
-28,-314,0,0,0,0,0,0,0,0,0,-1,1196,1338,0,0
-21,-314,0,0,0,0,0,0,0,0,0,-1,1203,1338,0,0
-14,-314,0,0,0,0,0,0,0,0,0,-1,1210,1338,0,0
-7,-314,0,0,0,0,0,0,0,0,0,-1,1217,1338,0,0
0,-314,0,0,0,0,0,0,0,0,0,-1,1224,1338,0,0
7,-314,0,0,0,0,0,0,0,0,0,-1,1231,1338,0,0
14,-314,0,0,0,0,0,0,0,0,0,-1,1238,1338,0,0
21,-314,0,0,0,0,0,0,0,0,0,-1,1245,1338,0,0
28,-314,0,0,0,0,0,0,0,0,0,-1,1252,1338,0,0
35,-314,0,0,0,0,0,0,0,0,0,-1,1259,1338,0,0
42,-314,0,0,0,0,0,0,0,0,0,-1,1266,1338,0,0
49,-314,0,0,0,0,0,0,0,0,0,-1,1273,1338,0,0
56,-314,0,0,0,0,0,0,0,0,0,-1,1280,1338,0,0
63,-314,0,0,0,0,0,0,0,0,0,-1,1287,1338,0,0
70,-314,0,0,0,0,0,0,0,0,0,-1,1294,1338,0,0
77,-314,0,0,0,0,0,0,0,0,0,-1,1301,1338,0,0
84,-314,0,0,0,0,0,0,0,0,0,-1,1308,1338,0,0
91,-314,0,0,0,0,0,0,0,0,0,-1,1315,1338,0,0
98,-314,0,0,0,0,0,0,0,0,0,-1,1322,1338,0,0
105,-314,0,0,0,0,0,0,0,0,0,-1,1329,1338,0,0
112,-314,0,0,0,0,0,0,0,0,0,-1,1336,1338,0,0
119,-314,0,0,0,0,0,0,0,0,0,-1,1343,1338,0,0
126,-314,0,0,0,0,0,0,0,0,0,-1,1350,1338,0,0
133,-314,0,0,0,0,0,0,0,0,0,-1,1357,1338,0,0
140,-314,0,0,0,0,0,0,0,0,0,-1,1364,1338,0,0
147,-314,0,0,0,0,0,0,0,0,0,-1,1371,1338,0,0
154,-314,0,0,0,0,0,0,0,0,0,-1,1378,1338,0,0
161,-314,0,0,0,0,0,0,0,0,0,-1,1385,1338,0,0
168,-314,0,0,0,0,0,0,0,0,0,-1,1392,1338,0,0
175,-314,0,0,0,0,0,0,0,0,0,-1,1399,1338,0,0
182,-314,0,0,0,0,0,0,0,0,0,-1,1406,1338,0,0
189,-314,0,0,0,0,0,0,0,0,0,-1,1413,1338,0,0
196,-314,0,0,0,0,0,0,0,0,0,-1,1420,1338,0,0
203,-314,0,0,0,0,0,0,0,0,0,-1,1427,1338,0,0
210,-314,0,0,0,0,0,0,0,0,0,-1,1434,1338,0,0
217,-314,0,0,0,0,0,0,0,0,0,-1,1441,1338,0,0
224,-314,0,0,0,0,0,0,0,0,0,-1,1448,1338,0,0
231,-314,0,0,0,0,0,0,0,0,0,-1,1455,1338,0,0
238,-314,0,0,0,0,0,0,0,0,0,-1,1462,1338,0,0
245,-314,0,0,0,0,0,0,0,0,0,-1,1469,1338,0,0
252,-314,0,0,0,0,0,0,0,0,0,-1,1476,1338,0,0
259,-314,0,0,0,0,0,0,0,0,0,-1,1483,1338,0,0
266,-314,0,0,0,0,0,0,0,0,0,-1,1490,1338,0,0
273,-314,0,0,0,0,0,0,0,0,0,-1,1497,1338,0,0
280,-314,0,0,0,0,0,0,0,0,0,-1,1504,1338,0,0
287,-314,0,0,0,0,0,0,0,0,0,-1,1511,1338,0,0
294,-314,0,0,0,0,0,0,0,0,0,-1,1518,1338,0,0
301,-314,0,0,0,0,0,0,0,0,0,-1,1525,1338,0,0
308,-314,0,0,0,0,0,0,0,0,0,-1,1532,1338,0,0
315,-314,0,0,0,0,0,0,0,0,0,-1,1539,1338,0,0
322,-314,0,0,0,0,0,0,0,0,0,-1,1546,1338,0,0
329,-314,0,0,0,0,0,0,0,0,0,-1,1553,1338,0,0
336,-314,0,0,0,0,0,0,0,0,0,-1,1560,1338,0,0
343,-314,0,0,0,0,0,0,0,0,0,-1,1567,1338,0,0
350,-314,0,0,0,0,0,0,0,0,0,-1,1574,1338,0,0
357,-314,0,0,0,0,0,0,0,0,0,-1,1581,1338,0,0
364,-314,0,0,0,0,0,0,0,0,0,-1,1588,1338,0,0
371,-314,0,0,0,0,0,0,0,0,0,-1,1595,1338,0,0
378,-314,0,0,0,0,0,0,0,0,0,-1,1602,1338,0,0
385,-314,0,0,0,0,0,0,0,0,0,-1,1609,1338,0,0
392,-314,0,0,0,0,0,0,0,0,0,-1,1616,1338,0,0
399,-314,0,0,0,0,0,0,0,0,0,-1,1623,1338,0,0
406,-314,0,0,0,0,0,0,0,0,0,-1,1630,1338,0,0
413,-314,0,0,0,0,0,0,0,0,0,-1,1637,1338,0,0
420,-314,0,0,0,0,0,0,0,0,0,-1,1644,1338,0,0
427,-314,0,0,0,0,0,0,0,0,0,-1,1651,1338,0,0
434,-314,0,0,0,0,0,0,0,0,0,-1,1658,1338,0,0
441,-314,0,0,0,0,0,0,0,0,0,-1,1665,1338,0,0
448,-314,0,0,0,0,0,0,0,0,0,-1,1672,1338,0,0
455,-314,0,0,0,0,0,0,0,0,0,-1,1679,1338,0,0
462,-314,0,0,0,0,0,0,0,0,0,-1,1686,1338,0,0
469,-314,0,0,0,0,0,0,0,0,0,-1,1693,1338,0,0
476,-314,0,0,0,0,0,0,0,0,0,-1,1700,1338,0,0
483,-314,0,0,0,0,0,0,0,0,0,-1,1707,1338,0,0
490,-314,0,0,0,0,0,0,0,0,0,-1,1714,1338,0,0
497,-314,0,0,0,0,0,0,0,0,0,-1,1721,1338,0,0
504,-314,0,0,0,0,0,0,0,0,0,-1,1728,1338,0,0
511,-314,0,0,0,0,0,0,0,0,0,-1,1735,1338,0,0
518,-314,0,0,0,0,0,0,0,0,0,-1,1742,1338,0,0
525,-314,0,0,0,0,0,0,0,0,0,-1,1749,1338,0,0
532,-314,0,0,0,0,0,0,0,0,0,-1,1756,1338,0,0
539,-314,0,0,0,0,0,0,0,0,0,-1,1763,1338,0,0
546,-314,0,0,0,0,0,0,0,0,0,-1,1770,1338,0,0
553,-314,0,0,0,0,0,0,0,0,0,-1,1777,1338,0,0
560,-314,0,0,0,0,0,0,0,0,0,-1,1784,1338,0,0
567,-314,0,0,0,0,0,0,0,0,0,-1,1791,1338,0,0
574,-314,0,0,0,0,0,0,0,0,0,-1,1798,1338,0,0
581,-314,35.1095,4.66479,0,0,0,0,0,0,0,-1,1805,1338,35.1095,-4.66479
588,-314,35.2278,3.98157,0.0377257,0.0211332,-0.0817666,0.111616,-0.0527569,-0.73484,0.0969075,0.0482024,1812,1338,35.2277,-3.98155
595,-314,35.3374,3.2865,0.0414542,0.0235259,-0.0759479,0.108965,-0.043985,-0.726655,0.0909235,0.0465752,1819,1338,35.3375,-3.28644
602,-314,35.5853,2.59021,0.0382675,0.0216899,-0.0650676,0.0955722,-0.0356148,-0.722045,0.0783333,0.0457614,1826,1338,35.5853,-2.59018
609,-314,35.7374,1.9342,0.0326268,0.0183787,-0.0533622,0.0793384,-0.0283328,-0.719039,0.0644471,0.0451702,1833,1338,35.7374,-1.93421
616,-314,35.7719,1.36975,0,0,0,0,0,0,0,-1,1840,1338,35.7718,-1.36971
623,-314,31.2539,1.52954,0,0,0,0,0,0,0,-1,1847,1338,31.254,-1.52956
630,-314,29.4308,6.23206,0,0,0,0,0,0,0,-1,1854,1338,29.4308,-6.23202
637,-314,22.1349,5.16418,0,0,0,0,0,0,0,-1,1861,1338,22.1349,-5.16414
644,-314,18.7517,6.2605,0,0,0,0,0,0,0,-1,1868,1338,18.7517,-6.26053
651,-314,23.1317,8.005,0,0,0,0,0,0,0,-1,1875,1338,23.1317,-8.00506
658,-314,24.4136,9.24951,0,0,0,0,0,0,0,-1,1882,1338,24.4136,-9.24946
665,-314,24.3712,8.92639,0.00016534,0.00165832,0.001478,0.00256764,-0.000743984,1.01925,0.00200628,0.0212755,1889,1338,24.3712,-8.92644
672,-314,24.3925,8.61011,-0.0013994,-0.00111513,0.00123959,-9.55036e-06,-0.00250498,0.842479,0.00166681,0.0135243,1896,1338,24.3924,-8.6101
679,-314,24.3772,8.25049,-0.00113519,-0.00128395,0.00105974,-0.00014722,-0.00227192,0.750361,0.001468,0.0115399,1903,1338,24.3772,-8.25043
686,-314,24.343,7.87781,-0.000580498,-0.000887834,0.00113934,0.000415493,-0.00188382,0.718365,0.00141486,0.0121475,1910,1338,24.343,-7.87785
693,-314,24.3394,7.53674,0.000296535,-0.000455658,0.000462098,0.000516243,-0.000675366,0.443822,0.000690017,0.0120753,1917,1338,24.3394,-7.53673
700,-314,24.3427,7.18494,0.00106543,6.83089e-05,0.000173447,0.00109474,3.89995e-05,0.1674,0.000717179,0.0135425,1924,1338,24.3426,-7.18495
707,-314,24.3445,6.83679,0.0016723,0.000567786,7.72477e-05,0.00167767,0.000562409,0.0694875,0.000985981,0.0127374,1931,1338,24.3445,-6.83682
714,-314,24.3488,6.50244,0.00229067,0.000922617,0.000158807,0.00230886,0.000904424,0.114062,0.0013434,0.0107552,1938,1338,24.3488,-6.50239
721,-314,24.3248,6.20251,0.00346708,0.0014203,0.000157209,0.00347909,0.00140829,0.0762121,0.00202075,0.0228384,1945,1338,24.3249,-6.20247
728,-314,24.5288,6.1228,0,0,0,0,0,0,0,-1,1952,1338,24.5288,-6.12282
735,-314,24.1644,5.72168,0,0,0,0,0,0,0,-1,1959,1338,24.1645,-5.72166
742,-314,24.7592,5.47107,0,0,0,0,0,0,0,-1,1966,1338,24.7591,-5.47106
749,-314,25.2633,5.24036,0,0,0,0,0,0,0,-1,1973,1338,25.2634,-5.24036
756,-314,24.2521,5.93408,0,0,0,0,0,0,0,-1,1980,1338,24.252,-5.93413
763,-314,19.2207,4.07239,0,0,0,0,0,0,0,-1,1987,1338,19.2206,-4.07239
770,-314,0,0,0,0,0,0,0,0,0,-1,1994,1338,0,0
777,-314,0,0,0,0,0,0,0,0,0,-1,2001,1338,0,0
784,-314,0,0,0,0,0,0,0,0,0,-1,2008,1338,0,0
791,-314,0,0,0,0,0,0,0,0,0,-1,2015,1338,0,0
798,-314,0,0,0,0,0,0,0,0,0,-1,2022,1338,0,0
805,-314,0,0,0,0,0,0,0,0,0,-1,2029,1338,0,0
812,-314,0,0,0,0,0,0,0,0,0,-1,2036,1338,0,0
-700,-321,0,0,0,0,0,0,0,0,0,-1,524,1345,0,0
-693,-321,0,0,0,0,0,0,0,0,0,-1,531,1345,0,0
-686,-321,0,0,0,0,0,0,0,0,0,-1,538,1345,0,0
-679,-321,0,0,0,0,0,0,0,0,0,-1,545,1345,0,0
-672,-321,0,0,0,0,0,0,0,0,0,-1,552,1345,0,0
-665,-321,0,0,0,0,0,0,0,0,0,-1,559,1345,0,0
-658,-321,0,0,0,0,0,0,0,0,0,-1,566,1345,0,0
-651,-321,0,0,0,0,0,0,0,0,0,-1,573,1345,0,0
-644,-321,-10.9585,-1.48376,0,0,0,0,0,0,0,-1,580,1345,-10.9585,1.48374
-637,-321,-13.3991,3.59241,0,0,0,0,0,0,0,-1,587,1345,-13.3991,-3.59236
-630,-321,-13.2958,3.65039,0,0,0,0,0,0,0,-1,594,1345,-13.2958,-3.65042
-623,-321,-13.2242,3.14148,0,0,0,0,0,0,0,-1,601,1345,-13.2243,-3.14146
-616,-321,-11.6754,3.13794,0,0,0,0,0,0,0,-1,608,1345,-11.6754,-3.13789
-609,-321,-7.95209,1.14758,0,0,0,0,0,0,0,-1,615,1345,-7.95208,-1.14757
-602,-321,-8.85791,2.50049,0,0,0,0,0,0,0,-1,622,1345,-8.85791,-2.50048
-595,-321,-13.2949,3.32849,0,0,0,0,0,0,0,-1,629,1345,-13.2949,-3.32851
-588,-321,-12.9597,3.73975,-0.000724157,0.00435754,-0.00330515,0.00598562,-0.00235223,-1.1131,0.00496388,0.0340967,636,1345,-12.9597,-3.7397
-581,-321,-12.876,4.20508,0.000475324,0.000285454,-6.54004e-05,0.000495671,0.000265108,-0.301618,0.000286407,0.0127971,643,1345,-12.876,-4.20507
-574,-321,-12.8968,4.57886,0.00066321,0.0001937,-4.08347e-05,0.000666735,0.000190175,-0.0861114,0.0003966,0.0144683,650,1345,-12.8968,-4.57884
-567,-321,-12.924,4.93823,0.00114508,0.000172367,0.00014486,0.00116619,0.000151252,0.144741,0.000732269,0.020932,657,1345,-12.924,-4.93819
-560,-321,-12.9349,5.35522,0.00191233,0.000233676,0.000481763,0.00204077,0.000105239,0.260536,0.00132682,0.0244672,664,1345,-12.9349,-5.35524
-553,-321,-12.9222,5.73633,0.00288166,0.000271344,0.000911775,0.0031686,-1.55945e-05,0.304891,0.00211761,0.0260011,671,1345,-12.9222,-5.73636
-546,-321,-12.8973,6.14246,0.00410291,0.000362179,0.00147242,0.00461295,-0.000147852,0.333455,0.00312575,0.026108,678,1345,-12.8973,-6.14244
-539,-321,-12.8904,6.53967,0.00557183,0.000500662,0.00215185,0.00636184,-0.000289356,0.351858,0.0043409,0.0229432,685,1345,-12.8905,-6.53962
-532,-321,-12.8012,6.9303,0.00745382,0.000718292,0.00302003,0.0086096,-0.000437487,0.365508,0.00589098,0.025653,692,1345,-12.8012,-6.93031
-525,-321,-12.8628,7.49536,0,0,0,0,0,0,0,-1,699,1345,-12.8628,-7.49532
-518,-321,-10.3564,6.75696,0,0,0,0,0,0,0,-1,706,1345,-10.3564,-6.75694
-511,-321,-9.3302,5.29297,0,0,0,0,0,0,0,-1,713,1345,-9.33023,-5.29294
-504,-321,-10.4713,0.0145264,0,0,0,0,0,0,0,-1,720,1345,-10.4713,-0.0145296
-497,-321,-9.96771,0.313599,0,0,0,0,0,0,0,-1,727,1345,-9.96769,-0.313618
-490,-321,-10.7631,0.973511,0,0,0,0,0,0,0,-1,734,1345,-10.7631,-0.97353
-483,-321,-17.5908,0.2323,0,0,0,0,0,0,0,-1,741,1345,-17.5908,-0.232355
-476,-321,-17.2915,0.297363,0,0,0,0,0,0,0,-1,748,1345,-17.2915,-0.297342
-469,-321,-17.2441,0.478027,0,0,0,0,0,0,0,-1,755,1345,-17.2441,-0.477994
-462,-321,-17.1672,0.526489,0,0,0,0,0,0,0,-1,762,1345,-17.1672,-0.526533
-455,-321,0,0,0,0,0,0,0,0,0,-1,769,1345,0,0
-448,-321,0,0,0,0,0,0,0,0,0,-1,776,1345,0,0
-441,-321,0,0,0,0,0,0,0,0,0,-1,783,1345,0,0
-434,-321,0,0,0,0,0,0,0,0,0,-1,790,1345,0,0
-427,-321,0,0,0,0,0,0,0,0,0,-1,797,1345,0,0
-420,-321,0,0,0,0,0,0,0,0,0,-1,804,1345,0,0
-413,-321,0,0,0,0,0,0,0,0,0,-1,811,1345,0,0
-406,-321,0,0,0,0,0,0,0,0,0,-1,818,1345,0,0
-399,-321,0,0,0,0,0,0,0,0,0,-1,825,1345,0,0
-392,-321,0,0,0,0,0,0,0,0,0,-1,832,1345,0,0
-385,-321,0,0,0,0,0,0,0,0,0,-1,839,1345,0,0
-378,-321,0,0,0,0,0,0,0,0,0,-1,846,1345,0,0
-371,-321,0,0,0,0,0,0,0,0,0,-1,853,1345,0,0
-364,-321,0,0,0,0,0,0,0,0,0,-1,860,1345,0,0
-357,-321,0,0,0,0,0,0,0,0,0,-1,867,1345,0,0
-350,-321,0,0,0,0,0,0,0,0,0,-1,874,1345,0,0
-343,-321,0,0,0,0,0,0,0,0,0,-1,881,1345,0,0
-336,-321,0,0,0,0,0,0,0,0,0,-1,888,1345,0,0
-329,-321,0,0,0,0,0,0,0,0,0,-1,895,1345,0,0
-322,-321,0,0,0,0,0,0,0,0,0,-1,902,1345,0,0
-315,-321,0,0,0,0,0,0,0,0,0,-1,909,1345,0,0
-308,-321,0,0,0,0,0,0,0,0,0,-1,916,1345,0,0
-301,-321,0,0,0,0,0,0,0,0,0,-1,923,1345,0,0
-294,-321,0,0,0,0,0,0,0,0,0,-1,930,1345,0,0
-287,-321,0,0,0,0,0,0,0,0,0,-1,937,1345,0,0
-280,-321,0,0,0,0,0,0,0,0,0,-1,944,1345,0,0
-273,-321,0,0,0,0,0,0,0,0,0,-1,951,1345,0,0
-266,-321,0,0,0,0,0,0,0,0,0,-1,958,1345,0,0
-259,-321,0,0,0,0,0,0,0,0,0,-1,965,1345,0,0
-252,-321,0,0,0,0,0,0,0,0,0,-1,972,1345,0,0
-245,-321,0,0,0,0,0,0,0,0,0,-1,979,1345,0,0
-238,-321,0,0,0,0,0,0,0,0,0,-1,986,1345,0,0
-231,-321,0,0,0,0,0,0,0,0,0,-1,993,1345,0,0
-224,-321,0,0,0,0,0,0,0,0,0,-1,1000,1345,0,0
-217,-321,0,0,0,0,0,0,0,0,0,-1,1007,1345,0,0
-210,-321,0,0,0,0,0,0,0,0,0,-1,1014,1345,0,0
-203,-321,0,0,0,0,0,0,0,0,0,-1,1021,1345,0,0
-196,-321,0,0,0,0,0,0,0,0,0,-1,1028,1345,0,0
-189,-321,0,0,0,0,0,0,0,0,0,-1,1035,1345,0,0
-182,-321,0,0,0,0,0,0,0,0,0,-1,1042,1345,0,0
-175,-321,0,0,0,0,0,0,0,0,0,-1,1049,1345,0,0
-168,-321,0,0,0,0,0,0,0,0,0,-1,1056,1345,0,0
-161,-321,0,0,0,0,0,0,0,0,0,-1,1063,1345,0,0
-154,-321,0,0,0,0,0,0,0,0,0,-1,1070,1345,0,0
-147,-321,0,0,0,0,0,0,0,0,0,-1,1077,1345,0,0
-140,-321,0,0,0,0,0,0,0,0,0,-1,1084,1345,0,0
-133,-321,0,0,0,0,0,0,0,0,0,-1,1091,1345,0,0
-126,-321,0,0,0,0,0,0,0,0,0,-1,1098,1345,0,0
-119,-321,0,0,0,0,0,0,0,0,0,-1,1105,1345,0,0
-112,-321,0,0,0,0,0,0,0,0,0,-1,1112,1345,0,0
-105,-321,0,0,0,0,0,0,0,0,0,-1,1119,1345,0,0
-98,-321,0,0,0,0,0,0,0,0,0,-1,1126,1345,0,0
-91,-321,0,0,0,0,0,0,0,0,0,-1,1133,1345,0,0
-84,-321,0,0,0,0,0,0,0,0,0,-1,1140,1345,0,0
-77,-321,0,0,0,0,0,0,0,0,0,-1,1147,1345,0,0
-70,-321,0,0,0,0,0,0,0,0,0,-1,1154,1345,0,0
-63,-321,0,0,0,0,0,0,0,0,0,-1,1161,1345,0,0
-56,-321,0,0,0,0,0,0,0,0,0,-1,1168,1345,0,0
-49,-321,0,0,0,0,0,0,0,0,0,-1,1175,1345,0,0
-42,-321,0,0,0,0,0,0,0,0,0,-1,1182,1345,0,0
-35,-321,0,0,0,0,0,0,0,0,0,-1,1189,1345,0,0
-28,-321,0,0,0,0,0,0,0,0,0,-1,1196,1345,0,0
-21,-321,0,0,0,0,0,0,0,0,0,-1,1203,1345,0,0
-14,-321,0,0,0,0,0,0,0,0,0,-1,1210,1345,0,0
-7,-321,0,0,0,0,0,0,0,0,0,-1,1217,1345,0,0
0,-321,0,0,0,0,0,0,0,0,0,-1,1224,1345,0,0
7,-321,0,0,0,0,0,0,0,0,0,-1,1231,1345,0,0
14,-321,0,0,0,0,0,0,0,0,0,-1,1238,1345,0,0
21,-321,0,0,0,0,0,0,0,0,0,-1,1245,1345,0,0
28,-321,0,0,0,0,0,0,0,0,0,-1,1252,1345,0,0
35,-321,0,0,0,0,0,0,0,0,0,-1,1259,1345,0,0
42,-321,0,0,0,0,0,0,0,0,0,-1,1266,1345,0,0
49,-321,0,0,0,0,0,0,0,0,0,-1,1273,1345,0,0
56,-321,0,0,0,0,0,0,0,0,0,-1,1280,1345,0,0
63,-321,0,0,0,0,0,0,0,0,0,-1,1287,1345,0,0
70,-321,0,0,0,0,0,0,0,0,0,-1,1294,1345,0,0
77,-321,0,0,0,0,0,0,0,0,0,-1,1301,1345,0,0
84,-321,0,0,0,0,0,0,0,0,0,-1,1308,1345,0,0
91,-321,0,0,0,0,0,0,0,0,0,-1,1315,1345,0,0
98,-321,0,0,0,0,0,0,0,0,0,-1,1322,1345,0,0
105,-321,0,0,0,0,0,0,0,0,0,-1,1329,1345,0,0
112,-321,0,0,0,0,0,0,0,0,0,-1,1336,1345,0,0
119,-321,0,0,0,0,0,0,0,0,0,-1,1343,1345,0,0
126,-321,0,0,0,0,0,0,0,0,0,-1,1350,1345,0,0
133,-321,0,0,0,0,0,0,0,0,0,-1,1357,1345,0,0
140,-321,0,0,0,0,0,0,0,0,0,-1,1364,1345,0,0
147,-321,0,0,0,0,0,0,0,0,0,-1,1371,1345,0,0
154,-321,0,0,0,0,0,0,0,0,0,-1,1378,1345,0,0
161,-321,0,0,0,0,0,0,0,0,0,-1,1385,1345,0,0
168,-321,0,0,0,0,0,0,0,0,0,-1,1392,1345,0,0
175,-321,0,0,0,0,0,0,0,0,0,-1,1399,1345,0,0
182,-321,0,0,0,0,0,0,0,0,0,-1,1406,1345,0,0
189,-321,0,0,0,0,0,0,0,0,0,-1,1413,1345,0,0
196,-321,0,0,0,0,0,0,0,0,0,-1,1420,1345,0,0
203,-321,0,0,0,0,0,0,0,0,0,-1,1427,1345,0,0
210,-321,0,0,0,0,0,0,0,0,0,-1,1434,1345,0,0
217,-321,0,0,0,0,0,0,0,0,0,-1,1441,1345,0,0
224,-321,0,0,0,0,0,0,0,0,0,-1,1448,1345,0,0
231,-321,0,0,0,0,0,0,0,0,0,-1,1455,1345,0,0
238,-321,0,0,0,0,0,0,0,0,0,-1,1462,1345,0,0
245,-321,0,0,0,0,0,0,0,0,0,-1,1469,1345,0,0
252,-321,0,0,0,0,0,0,0,0,0,-1,1476,1345,0,0
259,-321,0,0,0,0,0,0,0,0,0,-1,1483,1345,0,0
266,-321,0,0,0,0,0,0,0,0,0,-1,1490,1345,0,0
273,-321,0,0,0,0,0,0,0,0,0,-1,1497,1345,0,0
280,-321,0,0,0,0,0,0,0,0,0,-1,1504,1345,0,0
287,-321,0,0,0,0,0,0,0,0,0,-1,1511,1345,0,0
294,-321,0,0,0,0,0,0,0,0,0,-1,1518,1345,0,0
301,-321,0,0,0,0,0,0,0,0,0,-1,1525,1345,0,0
308,-321,0,0,0,0,0,0,0,0,0,-1,1532,1345,0,0
315,-321,0,0,0,0,0,0,0,0,0,-1,1539,1345,0,0
322,-321,0,0,0,0,0,0,0,0,0,-1,1546,1345,0,0
329,-321,0,0,0,0,0,0,0,0,0,-1,1553,1345,0,0
336,-321,0,0,0,0,0,0,0,0,0,-1,1560,1345,0,0
343,-321,0,0,0,0,0,0,0,0,0,-1,1567,1345,0,0
350,-321,0,0,0,0,0,0,0,0,0,-1,1574,1345,0,0
357,-321,0,0,0,0,0,0,0,0,0,-1,1581,1345,0,0
364,-321,0,0,0,0,0,0,0,0,0,-1,1588,1345,0,0
371,-321,0,0,0,0,0,0,0,0,0,-1,1595,1345,0,0
378,-321,0,0,0,0,0,0,0,0,0,-1,1602,1345,0,0
385,-321,0,0,0,0,0,0,0,0,0,-1,1609,1345,0,0
392,-321,0,0,0,0,0,0,0,0,0,-1,1616,1345,0,0
399,-321,0,0,0,0,0,0,0,0,0,-1,1623,1345,0,0
406,-321,0,0,0,0,0,0,0,0,0,-1,1630,1345,0,0
413,-321,0,0,0,0,0,0,0,0,0,-1,1637,1345,0,0
420,-321,0,0,0,0,0,0,0,0,0,-1,1644,1345,0,0
427,-321,0,0,0,0,0,0,0,0,0,-1,1651,1345,0,0
434,-321,0,0,0,0,0,0,0,0,0,-1,1658,1345,0,0
441,-321,0,0,0,0,0,0,0,0,0,-1,1665,1345,0,0
448,-321,0,0,0,0,0,0,0,0,0,-1,1672,1345,0,0
455,-321,0,0,0,0,0,0,0,0,0,-1,1679,1345,0,0
462,-321,0,0,0,0,0,0,0,0,0,-1,1686,1345,0,0
469,-321,0,0,0,0,0,0,0,0,0,-1,1693,1345,0,0
476,-321,0,0,0,0,0,0,0,0,0,-1,1700,1345,0,0
483,-321,0,0,0,0,0,0,0,0,0,-1,1707,1345,0,0
490,-321,0,0,0,0,0,0,0,0,0,-1,1714,1345,0,0
497,-321,0,0,0,0,0,0,0,0,0,-1,1721,1345,0,0
504,-321,0,0,0,0,0,0,0,0,0,-1,1728,1345,0,0
511,-321,0,0,0,0,0,0,0,0,0,-1,1735,1345,0,0
518,-321,0,0,0,0,0,0,0,0,0,-1,1742,1345,0,0
525,-321,0,0,0,0,0,0,0,0,0,-1,1749,1345,0,0
532,-321,0,0,0,0,0,0,0,0,0,-1,1756,1345,0,0
539,-321,0,0,0,0,0,0,0,0,0,-1,1763,1345,0,0
546,-321,0,0,0,0,0,0,0,0,0,-1,1770,1345,0,0
553,-321,0,0,0,0,0,0,0,0,0,-1,1777,1345,0,0
560,-321,0,0,0,0,0,0,0,0,0,-1,1784,1345,0,0
567,-321,0,0,0,0,0,0,0,0,0,-1,1791,1345,0,0
574,-321,0,0,0,0,0,0,0,0,0,-1,1798,1345,0,0
581,-321,35.2993,4.39661,0,0,0,0,0,0,0,-1,1805,1345,35.2993,-4.39665
588,-321,35.5114,3.67261,0.0460996,0.0263545,-0.0929492,0.129699,-0.057245,-0.732489,0.110601,0.0480645,1812,1345,35.5113,-3.67266
595,-321,35.764,2.99011,0.04576,0.0265424,-0.0831319,0.119837,-0.0475342,-0.727861,0.0995916,0.0490498,1819,1345,35.764,-2.99016
602,-321,35.9858,2.27515,0.0404592,0.0227988,-0.0702318,0.102414,-0.0391557,-0.722862,0.0844113,0.0468178,1826,1345,35.9858,-2.2751
609,-321,35.979,1.82324,0,0,0,0,0,0,0,-1,1833,1345,35.979,-1.82319
616,-321,31.4971,2.1814,0,0,0,0,0,0,0,-1,1840,1345,31.4971,-2.18138
623,-321,30.2665,2.45361,0,0,0,0,0,0,0,-1,1847,1345,30.2665,-2.4536
630,-321,23.6674,4.34106,0,0,0,0,0,0,0,-1,1854,1345,23.6674,-4.34112
637,-321,21.7925,6.79224,0,0,0,0,0,0,0,-1,1861,1345,21.7925,-6.7922
644,-321,16.8844,6.71973,0,0,0,0,0,0,0,-1,1868,1345,16.8844,-6.71971
651,-321,23.2467,8.70581,0,0,0,0,0,0,0,-1,1875,1345,23.2467,-8.7058
658,-321,23.9448,9.28149,0,0,0,0,0,0,0,-1,1882,1345,23.9448,-9.28147
665,-321,24.007,8.96069,0.0038116,0.00172361,-0.000801571,0.00408383,0.00145138,-0.327395,0.00239044,0.0178,1889,1345,24.007,-8.96072
672,-321,24.0476,8.61304,0.00178777,-0.000739941,-0.000748499,0.00199278,-0.000944956,-0.267345,0.00173169,0.0141018,1896,1345,24.0476,-8.6131
679,-321,24.0253,8.26013,0.00113382,-0.000803717,-0.000434774,0.00122691,-0.000896806,-0.210924,0.00123106,0.0129325,1903,1345,24.0252,-8.26013
686,-321,23.9878,7.89978,0.000775444,-0.000391338,0.000109079,0.000785554,-0.000401447,0.0924196,0.000697173,0.0123923,1910,1345,23.9878,-7.89975
693,-321,23.9846,7.55896,0.000983304,-7.22277e-05,2.72711e-05,0.000984008,-7.29318e-05,0.0258134,0.000681618,0.0123816,1917,1345,23.9846,-7.55894
700,-321,23.9918,7.20068,0.00131926,0.000285846,4.11911e-05,0.0013209,0.000284207,0.039775,0.000802815,0.0128736,1924,1345,23.9918,-7.20064
707,-321,24.026,6.83948,0.00183479,0.000685854,3.6938e-05,0.00183598,0.000684668,0.0321056,0.00107135,0.0140301,1931,1345,24.026,-6.83942
714,-321,24.0133,6.4856,0.0026117,0.00112442,2.1893e-05,0.00261203,0.0011241,0.0147159,0.00151292,0.0128487,1938,1345,24.0133,-6.4856
721,-321,23.9564,6.14111,0.00393877,0.00162881,2.53101e-05,0.00393904,0.00162854,0.0109552,0.00228554,0.034487,1945,1345,23.9564,-6.1411
728,-321,23.9608,5.84167,0,0,0,0,0,0,0,-1,1952,1345,23.9608,-5.84165
735,-321,22.0081,5.65479,0,0,0,0,0,0,0,-1,1959,1345,22.008,-5.65481
742,-321,24.7446,5.40894,0,0,0,0,0,0,0,-1,1966,1345,24.7446,-5.40896
749,-321,24.0675,5.4458,0,0,0,0,0,0,0,-1,1973,1345,24.0675,-5.44581
756,-321,19.6251,4.98315,0,0,0,0,0,0,0,-1,1980,1345,19.6251,-4.98311
763,-321,19.6747,4.61438,0,0,0,0,0,0,0,-1,1987,1345,19.6747,-4.61436
770,-321,0,0,0,0,0,0,0,0,0,-1,1994,1345,0,0
777,-321,0,0,0,0,0,0,0,0,0,-1,2001,1345,0,0
784,-321,0,0,0,0,0,0,0,0,0,-1,2008,1345,0,0
791,-321,0,0,0,0,0,0,0,0,0,-1,2015,1345,0,0
798,-321,0,0,0,0,0,0,0,0,0,-1,2022,1345,0,0
805,-321,0,0,0,0,0,0,0,0,0,-1,2029,1345,0,0
812,-321,0,0,0,0,0,0,0,0,0,-1,2036,1345,0,0
-700,-328,0,0,0,0,0,0,0,0,0,-1,524,1352,0,0
-693,-328,0,0,0,0,0,0,0,0,0,-1,531,1352,0,0
-686,-328,0,0,0,0,0,0,0,0,0,-1,538,1352,0,0
-679,-328,0,0,0,0,0,0,0,0,0,-1,545,1352,0,0
-672,-328,0,0,0,0,0,0,0,0,0,-1,552,1352,0,0
-665,-328,0,0,0,0,0,0,0,0,0,-1,559,1352,0,0
-658,-328,0,0,0,0,0,0,0,0,0,-1,566,1352,0,0
-651,-328,0,0,0,0,0,0,0,0,0,-1,573,1352,0,0
-644,-328,0,0,0,0,0,0,0,0,0,-1,580,1352,0,0
-637,-328,-12.0695,1.02014,0,0,0,0,0,0,0,-1,587,1352,-12.0694,-1.02017
-630,-328,-13.3971,4.54578,0,0,0,0,0,0,0,-1,594,1352,-13.3971,-4.54572
-623,-328,-10.7739,4.55042,0,0,0,0,0,0,0,-1,601,1352,-10.7739,-4.55041
-616,-328,-8.22198,-0.25708,0,0,0,0,0,0,0,-1,608,1352,-8.22201,0.257067
-609,-328,-7.87439,0.192871,0,0,0,0,0,0,0,-1,615,1352,-7.87441,-0.192822
-602,-328,-7.63062,1.31665,0,0,0,0,0,0,0,-1,622,1352,-7.63064,-1.3166
-595,-328,-9.42639,2.93494,0,0,0,0,0,0,0,-1,629,1352,-9.42638,-2.93499
-588,-328,-12.6749,3.47485,0,0,0,0,0,0,0,-1,636,1352,-12.6749,-3.4748
-581,-328,-12.5065,4.1814,-0.000762637,0.000306307,-0.000699293,0.000651988,-0.00110832,-1.11169,0.00102763,0.0202348,643,1352,-12.5065,-4.18145
-574,-328,-12.5001,4.58948,-0.000451478,0.000111242,-0.00060668,0.00049863,-0.000838866,-1.00252,0.000780487,0.0141828,650,1352,-12.5001,-4.58944
-567,-328,-12.5439,4.9646,0.000179784,5.76122e-05,-0.000340989,0.000465116,-0.000227719,-0.696767,0.000407761,0.0196269,657,1352,-12.5439,-4.96461
-560,-328,-12.5161,5.39258,0.00109078,6.05915e-05,6.08792e-05,0.00109437,5.70063e-05,0.0588221,0.000711339,0.0273119,664,1352,-12.5161,-5.39258
-553,-328,-12.5102,5.78271,0.0022286,0.000112014,0.00057004,0.00237236,-3.17453e-05,0.24704,0.00159226,0.029499,671,1352,-12.5102,-5.78274
-546,-328,-12.5157,6.16431,0.00367016,0.000188266,0.00122203,0.00405624,-0.000197817,0.306012,0.00277245,0.0284879,678,1352,-12.5157,-6.1643
-539,-328,-12.5161,6.55591,0.0053055,0.000306832,0.00196455,0.00598517,-0.000372845,0.333082,0.00412003,0.0233917,685,1352,-12.5161,-6.55593
-532,-328,-12.5282,6.9397,0.00731832,0.000466143,0.00288066,0.00836842,-0.000583957,0.349564,0.00578343,0.0167671,692,1352,-12.5282,-6.93967
-525,-328,-12.4823,7.39539,0.00973403,0.000571689,0.00395069,0.0112022,-0.000896527,0.355818,0.00778424,0.0217506,699,1352,-12.4823,-7.39539
-518,-328,-12.5464,7.73572,0,0,0,0,0,0,0,-1,706,1352,-12.5464,-7.73574
-511,-328,-9.39868,7.16113,0,0,0,0,0,0,0,-1,713,1352,-9.39869,-7.16113
-504,-328,-8.60626,-0.905762,0,0,0,0,0,0,0,-1,720,1352,-8.60623,0.905787
-497,-328,-9.29102,-0.0517578,0,0,0,0,0,0,0,-1,727,1352,-9.29104,0.0518175
-490,-328,-10.0663,0.882813,0,0,0,0,0,0,0,-1,734,1352,-10.0663,-0.882795
-483,-328,-10.8181,1.72375,0,0,0,0,0,0,0,-1,741,1352,-10.8181,-1.72374
-476,-328,-16.8951,-0.150757,0,0,0,0,0,0,0,-1,748,1352,-16.8951,0.150795
-469,-328,-16.8412,0.00158691,0,0,0,0,0,0,0,-1,755,1352,-16.8412,-0.00161515
-462,-328,-16.3546,-0.203491,0,0,0,0,0,0,0,-1,762,1352,-16.3545,0.203532
-455,-328,0,0,0,0,0,0,0,0,0,-1,769,1352,0,0
-448,-328,0,0,0,0,0,0,0,0,0,-1,776,1352,0,0
-441,-328,0,0,0,0,0,0,0,0,0,-1,783,1352,0,0
-434,-328,0,0,0,0,0,0,0,0,0,-1,790,1352,0,0
-427,-328,0,0,0,0,0,0,0,0,0,-1,797,1352,0,0
-420,-328,0,0,0,0,0,0,0,0,0,-1,804,1352,0,0
-413,-328,0,0,0,0,0,0,0,0,0,-1,811,1352,0,0
-406,-328,0,0,0,0,0,0,0,0,0,-1,818,1352,0,0
-399,-328,0,0,0,0,0,0,0,0,0,-1,825,1352,0,0
-392,-328,0,0,0,0,0,0,0,0,0,-1,832,1352,0,0
-385,-328,0,0,0,0,0,0,0,0,0,-1,839,1352,0,0
-378,-328,0,0,0,0,0,0,0,0,0,-1,846,1352,0,0
-371,-328,0,0,0,0,0,0,0,0,0,-1,853,1352,0,0
-364,-328,0,0,0,0,0,0,0,0,0,-1,860,1352,0,0
-357,-328,0,0,0,0,0,0,0,0,0,-1,867,1352,0,0
-350,-328,0,0,0,0,0,0,0,0,0,-1,874,1352,0,0
-343,-328,0,0,0,0,0,0,0,0,0,-1,881,1352,0,0
-336,-328,0,0,0,0,0,0,0,0,0,-1,888,1352,0,0
-329,-328,0,0,0,0,0,0,0,0,0,-1,895,1352,0,0
-322,-328,0,0,0,0,0,0,0,0,0,-1,902,1352,0,0
-315,-328,0,0,0,0,0,0,0,0,0,-1,909,1352,0,0
-308,-328,0,0,0,0,0,0,0,0,0,-1,916,1352,0,0
-301,-328,0,0,0,0,0,0,0,0,0,-1,923,1352,0,0
-294,-328,0,0,0,0,0,0,0,0,0,-1,930,1352,0,0
-287,-328,0,0,0,0,0,0,0,0,0,-1,937,1352,0,0
-280,-328,0,0,0,0,0,0,0,0,0,-1,944,1352,0,0
-273,-328,0,0,0,0,0,0,0,0,0,-1,951,1352,0,0
-266,-328,0,0,0,0,0,0,0,0,0,-1,958,1352,0,0
-259,-328,0,0,0,0,0,0,0,0,0,-1,965,1352,0,0
-252,-328,0,0,0,0,0,0,0,0,0,-1,972,1352,0,0
-245,-328,0,0,0,0,0,0,0,0,0,-1,979,1352,0,0
-238,-328,0,0,0,0,0,0,0,0,0,-1,986,1352,0,0
-231,-328,0,0,0,0,0,0,0,0,0,-1,993,1352,0,0
-224,-328,0,0,0,0,0,0,0,0,0,-1,1000,1352,0,0
-217,-328,0,0,0,0,0,0,0,0,0,-1,1007,1352,0,0
-210,-328,0,0,0,0,0,0,0,0,0,-1,1014,1352,0,0
-203,-328,0,0,0,0,0,0,0,0,0,-1,1021,1352,0,0
-196,-328,0,0,0,0,0,0,0,0,0,-1,1028,1352,0,0
-189,-328,0,0,0,0,0,0,0,0,0,-1,1035,1352,0,0
-182,-328,0,0,0,0,0,0,0,0,0,-1,1042,1352,0,0
-175,-328,0,0,0,0,0,0,0,0,0,-1,1049,1352,0,0
-168,-328,0,0,0,0,0,0,0,0,0,-1,1056,1352,0,0
-161,-328,0,0,0,0,0,0,0,0,0,-1,1063,1352,0,0
-154,-328,0,0,0,0,0,0,0,0,0,-1,1070,1352,0,0
-147,-328,0,0,0,0,0,0,0,0,0,-1,1077,1352,0,0
-140,-328,0,0,0,0,0,0,0,0,0,-1,1084,1352,0,0
-133,-328,0,0,0,0,0,0,0,0,0,-1,1091,1352,0,0
-126,-328,0,0,0,0,0,0,0,0,0,-1,1098,1352,0,0
-119,-328,0,0,0,0,0,0,0,0,0,-1,1105,1352,0,0
-112,-328,0,0,0,0,0,0,0,0,0,-1,1112,1352,0,0
-105,-328,0,0,0,0,0,0,0,0,0,-1,1119,1352,0,0
-98,-328,0,0,0,0,0,0,0,0,0,-1,1126,1352,0,0
-91,-328,0,0,0,0,0,0,0,0,0,-1,1133,1352,0,0
-84,-328,0,0,0,0,0,0,0,0,0,-1,1140,1352,0,0
-77,-328,0,0,0,0,0,0,0,0,0,-1,1147,1352,0,0
-70,-328,0,0,0,0,0,0,0,0,0,-1,1154,1352,0,0
-63,-328,0,0,0,0,0,0,0,0,0,-1,1161,1352,0,0
-56,-328,0,0,0,0,0,0,0,0,0,-1,1168,1352,0,0
-49,-328,0,0,0,0,0,0,0,0,0,-1,1175,1352,0,0
-42,-328,0,0,0,0,0,0,0,0,0,-1,1182,1352,0,0
-35,-328,0,0,0,0,0,0,0,0,0,-1,1189,1352,0,0
-28,-328,0,0,0,0,0,0,0,0,0,-1,1196,1352,0,0
-21,-328,0,0,0,0,0,0,0,0,0,-1,1203,1352,0,0
-14,-328,0,0,0,0,0,0,0,0,0,-1,1210,1352,0,0
-7,-328,0,0,0,0,0,0,0,0,0,-1,1217,1352,0,0
0,-328,0,0,0,0,0,0,0,0,0,-1,1224,1352,0,0
7,-328,0,0,0,0,0,0,0,0,0,-1,1231,1352,0,0
14,-328,0,0,0,0,0,0,0,0,0,-1,1238,1352,0,0
21,-328,0,0,0,0,0,0,0,0,0,-1,1245,1352,0,0
28,-328,0,0,0,0,0,0,0,0,0,-1,1252,1352,0,0
35,-328,0,0,0,0,0,0,0,0,0,-1,1259,1352,0,0
42,-328,0,0,0,0,0,0,0,0,0,-1,1266,1352,0,0
49,-328,0,0,0,0,0,0,0,0,0,-1,1273,1352,0,0
56,-328,0,0,0,0,0,0,0,0,0,-1,1280,1352,0,0
63,-328,0,0,0,0,0,0,0,0,0,-1,1287,1352,0,0
70,-328,0,0,0,0,0,0,0,0,0,-1,1294,1352,0,0
77,-328,0,0,0,0,0,0,0,0,0,-1,1301,1352,0,0
84,-328,0,0,0,0,0,0,0,0,0,-1,1308,1352,0,0
91,-328,0,0,0,0,0,0,0,0,0,-1,1315,1352,0,0
98,-328,0,0,0,0,0,0,0,0,0,-1,1322,1352,0,0
105,-328,0,0,0,0,0,0,0,0,0,-1,1329,1352,0,0
112,-328,0,0,0,0,0,0,0,0,0,-1,1336,1352,0,0
119,-328,0,0,0,0,0,0,0,0,0,-1,1343,1352,0,0
126,-328,0,0,0,0,0,0,0,0,0,-1,1350,1352,0,0
133,-328,0,0,0,0,0,0,0,0,0,-1,1357,1352,0,0
140,-328,0,0,0,0,0,0,0,0,0,-1,1364,1352,0,0
147,-328,0,0,0,0,0,0,0,0,0,-1,1371,1352,0,0
154,-328,0,0,0,0,0,0,0,0,0,-1,1378,1352,0,0
161,-328,0,0,0,0,0,0,0,0,0,-1,1385,1352,0,0
168,-328,0,0,0,0,0,0,0,0,0,-1,1392,1352,0,0
175,-328,0,0,0,0,0,0,0,0,0,-1,1399,1352,0,0
182,-328,0,0,0,0,0,0,0,0,0,-1,1406,1352,0,0
189,-328,0,0,0,0,0,0,0,0,0,-1,1413,1352,0,0
196,-328,0,0,0,0,0,0,0,0,0,-1,1420,1352,0,0
203,-328,0,0,0,0,0,0,0,0,0,-1,1427,1352,0,0
210,-328,0,0,0,0,0,0,0,0,0,-1,1434,1352,0,0
217,-328,0,0,0,0,0,0,0,0,0,-1,1441,1352,0,0
224,-328,0,0,0,0,0,0,0,0,0,-1,1448,1352,0,0
231,-328,0,0,0,0,0,0,0,0,0,-1,1455,1352,0,0
238,-328,0,0,0,0,0,0,0,0,0,-1,1462,1352,0,0
245,-328,0,0,0,0,0,0,0,0,0,-1,1469,1352,0,0
252,-328,0,0,0,0,0,0,0,0,0,-1,1476,1352,0,0
259,-328,0,0,0,0,0,0,0,0,0,-1,1483,1352,0,0
266,-328,0,0,0,0,0,0,0,0,0,-1,1490,1352,0,0
273,-328,0,0,0,0,0,0,0,0,0,-1,1497,1352,0,0
280,-328,0,0,0,0,0,0,0,0,0,-1,1504,1352,0,0
287,-328,0,0,0,0,0,0,0,0,0,-1,1511,1352,0,0
294,-328,0,0,0,0,0,0,0,0,0,-1,1518,1352,0,0
301,-328,0,0,0,0,0,0,0,0,0,-1,1525,1352,0,0
308,-328,0,0,0,0,0,0,0,0,0,-1,1532,1352,0,0
315,-328,0,0,0,0,0,0,0,0,0,-1,1539,1352,0,0
322,-328,0,0,0,0,0,0,0,0,0,-1,1546,1352,0,0
329,-328,0,0,0,0,0,0,0,0,0,-1,1553,1352,0,0
336,-328,0,0,0,0,0,0,0,0,0,-1,1560,1352,0,0
343,-328,0,0,0,0,0,0,0,0,0,-1,1567,1352,0,0
350,-328,0,0,0,0,0,0,0,0,0,-1,1574,1352,0,0
357,-328,0,0,0,0,0,0,0,0,0,-1,1581,1352,0,0
364,-328,0,0,0,0,0,0,0,0,0,-1,1588,1352,0,0
371,-328,0,0,0,0,0,0,0,0,0,-1,1595,1352,0,0
378,-328,0,0,0,0,0,0,0,0,0,-1,1602,1352,0,0
385,-328,0,0,0,0,0,0,0,0,0,-1,1609,1352,0,0
392,-328,0,0,0,0,0,0,0,0,0,-1,1616,1352,0,0
399,-328,0,0,0,0,0,0,0,0,0,-1,1623,1352,0,0
406,-328,0,0,0,0,0,0,0,0,0,-1,1630,1352,0,0
413,-328,0,0,0,0,0,0,0,0,0,-1,1637,1352,0,0
420,-328,0,0,0,0,0,0,0,0,0,-1,1644,1352,0,0
427,-328,0,0,0,0,0,0,0,0,0,-1,1651,1352,0,0
434,-328,0,0,0,0,0,0,0,0,0,-1,1658,1352,0,0
441,-328,0,0,0,0,0,0,0,0,0,-1,1665,1352,0,0
448,-328,0,0,0,0,0,0,0,0,0,-1,1672,1352,0,0
455,-328,0,0,0,0,0,0,0,0,0,-1,1679,1352,0,0
462,-328,0,0,0,0,0,0,0,0,0,-1,1686,1352,0,0
469,-328,0,0,0,0,0,0,0,0,0,-1,1693,1352,0,0
476,-328,0,0,0,0,0,0,0,0,0,-1,1700,1352,0,0
483,-328,0,0,0,0,0,0,0,0,0,-1,1707,1352,0,0
490,-328,0,0,0,0,0,0,0,0,0,-1,1714,1352,0,0
497,-328,0,0,0,0,0,0,0,0,0,-1,1721,1352,0,0
504,-328,0,0,0,0,0,0,0,0,0,-1,1728,1352,0,0
511,-328,0,0,0,0,0,0,0,0,0,-1,1735,1352,0,0
518,-328,0,0,0,0,0,0,0,0,0,-1,1742,1352,0,0
525,-328,0,0,0,0,0,0,0,0,0,-1,1749,1352,0,0
532,-328,0,0,0,0,0,0,0,0,0,-1,1756,1352,0,0
539,-328,0,0,0,0,0,0,0,0,0,-1,1763,1352,0,0
546,-328,0,0,0,0,0,0,0,0,0,-1,1770,1352,0,0
553,-328,0,0,0,0,0,0,0,0,0,-1,1777,1352,0,0
560,-328,0,0,0,0,0,0,0,0,0,-1,1784,1352,0,0
567,-328,0,0,0,0,0,0,0,0,0,-1,1791,1352,0,0
574,-328,35.0659,5.07495,0.0499683,0.0169793,-0.113217,0.147886,-0.0809387,-0.713062,0.133984,0.0440371,1798,1352,35.0659,-5.07493
581,-328,35.3311,4.30994,0.0507049,0.0268743,-0.108419,0.147861,-0.0702818,-0.730667,0.128572,0.044804,1805,1352,35.3311,-4.30996
588,-328,35.8888,3.33984,0.0508787,0.032233,-0.10174,0.143722,-0.06061,-0.739709,0.12118,0.0484991,1812,1352,35.8888,-3.3398
595,-328,36.3195,2.73535,0.0468829,0.0288511,-0.087912,0.12624,-0.0505061,-0.734299,0.105121,0.0485949,1819,1352,36.3194,-2.73535
602,-328,36.4172,1.94446,0,0,0,0,0,0,0,-1,1826,1352,36.4172,-1.94447
609,-328,34.6511,3.51038,0,0,0,0,0,0,0,-1,1833,1352,34.6511,-3.51036
616,-328,30.9546,2.59326,0,0,0,0,0,0,0,-1,1840,1352,30.9546,-2.59329
623,-328,26.8594,6.41528,0,0,0,0,0,0,0,-1,1847,1352,26.8593,-6.41528
630,-328,22.0211,5.026,0,0,0,0,0,0,0,-1,1854,1352,22.0212,-5.02603
637,-328,21.15,5.53699,0,0,0,0,0,0,0,-1,1861,1352,21.15,-5.53704
644,-328,16.9579,6.3396,0,0,0,0,0,0,0,-1,1868,1352,16.9579,-6.33959
651,-328,23.9436,9.1189,0,0,0,0,0,0,0,-1,1875,1352,23.9436,-9.1189
658,-328,23.6616,9.32031,0.00673369,0.00115516,-0.00329301,0.00825997,-0.000371119,-0.434015,0.00563443,0.0321166,1882,1352,23.6616,-9.32032
665,-328,23.6853,8.97485,0.00341731,0.00121361,-0.000475316,0.00351546,0.00111547,-0.203631,0.00207433,0.0132434,1889,1352,23.6853,-8.97488
672,-328,23.6758,8.62097,0.00159794,-0.000706899,-0.000460382,0.0016865,-0.000795456,-0.190034,0.00146342,0.0122897,1896,1352,23.6757,-8.62097
679,-328,23.6722,8.24988,0.000943618,-0.000664729,-0.000324123,0.00100648,-0.000727591,-0.191567,0.00100547,0.0149711,1903,1352,23.6723,-8.24983
686,-328,23.6497,7.90381,0.000747546,-0.00026666,-4.56818e-06,0.000747566,-0.000266681,-0.00450407,0.000607119,0.0136308,1910,1352,23.6497,-7.90385
693,-328,23.6545,7.5614,0.00111075,6.76628e-05,-4.46297e-06,0.00111077,6.76437e-05,-0.00427849,0.000719028,0.00890132,1917,1352,23.6546,-7.56143
700,-328,23.6488,7.22522,0.00147702,0.000410734,-4.95994e-06,0.00147705,0.000410711,-0.00465146,0.000880331,0.0136753,1924,1352,23.6487,-7.22525
707,-328,23.6642,6.8595,0.00199888,0.000790692,-2.28705e-05,0.00199932,0.000790259,-0.0189205,0.00116272,0.0156863,1931,1352,23.6642,-6.85955
714,-328,23.6716,6.4801,0.00279674,0.001229,-4.60941e-05,0.0027981,0.00122764,-0.0293677,0.00161952,0.0148009,1938,1352,23.6716,-6.48005
721,-328,23.4945,6.15125,0.00423511,0.00173972,-2.46647e-05,0.00423535,0.00173948,-0.00988285,0.00245824,0.042379,1945,1352,23.4945,-6.15127
728,-328,23.5798,5.66833,0,0,0,0,0,0,0,-1,1952,1352,23.5798,-5.66828
735,-328,20.8927,5.23523,0,0,0,0,0,0,0,-1,1959,1352,20.8927,-5.23528
742,-328,20.3547,4.11316,0,0,0,0,0,0,0,-1,1966,1352,20.3547,-4.11321
749,-328,20.0669,5.66321,0,0,0,0,0,0,0,-1,1973,1352,20.0669,-5.66319
756,-328,19.9543,5.50464,0,0,0,0,0,0,0,-1,1980,1352,19.9543,-5.50463
763,-328,0,0,0,0,0,0,0,0,0,-1,1987,1352,0,0
770,-328,0,0,0,0,0,0,0,0,0,-1,1994,1352,0,0
777,-328,0,0,0,0,0,0,0,0,0,-1,2001,1352,0,0
784,-328,0,0,0,0,0,0,0,0,0,-1,2008,1352,0,0
791,-328,0,0,0,0,0,0,0,0,0,-1,2015,1352,0,0
798,-328,0,0,0,0,0,0,0,0,0,-1,2022,1352,0,0
805,-328,0,0,0,0,0,0,0,0,0,-1,2029,1352,0,0
812,-328,0,0,0,0,0,0,0,0,0,-1,2036,1352,0,0
-700,-335,0,0,0,0,0,0,0,0,0,-1,524,1359,0,0
-693,-335,0,0,0,0,0,0,0,0,0,-1,531,1359,0,0
-686,-335,0,0,0,0,0,0,0,0,0,-1,538,1359,0,0
-679,-335,0,0,0,0,0,0,0,0,0,-1,545,1359,0,0
-672,-335,0,0,0,0,0,0,0,0,0,-1,552,1359,0,0
-665,-335,0,0,0,0,0,0,0,0,0,-1,559,1359,0,0
-658,-335,0,0,0,0,0,0,0,0,0,-1,566,1359,0,0
-651,-335,0,0,0,0,0,0,0,0,0,-1,573,1359,0,0
-644,-335,0,0,0,0,0,0,0,0,0,-1,580,1359,0,0
-637,-335,-9.64746,3.53809,0,0,0,0,0,0,0,-1,587,1359,-9.64744,-3.53803
-630,-335,-6.07397,-2.99902,0,0,0,0,0,0,0,-1,594,1359,-6.07397,2.99902
-623,-335,-8.43304,1.09509,0,0,0,0,0,0,0,-1,601,1359,-8.43301,-1.09507
-616,-335,-7.80927,-0.485352,0,0,0,0,0,0,0,-1,608,1359,-7.80926,0.485291
-609,-335,-7.12256,-2.03601,0,0,0,0,0,0,0,-1,615,1359,-7.12253,2.03601
-602,-335,-9.39935,2.25146,0,0,0,0,0,0,0,-1,622,1359,-9.39935,-2.25145
-595,-335,-9.54767,3.01917,0,0,0,0,0,0,0,-1,629,1359,-9.54768,-3.01911
-588,-335,-12.1644,3.66541,0,0,0,0,0,0,0,-1,636,1359,-12.1644,-3.66545
-581,-335,-12.0974,4.24426,-0.00283772,-3.69515e-05,-0.00175796,0.000810221,-0.00368489,-1.12173,0.0027665,0.0324348,643,1359,-12.0974,-4.24425
-574,-335,-12.1212,4.58728,-0.00210924,-0.000121962,-0.00145609,0.000647218,-0.00287842,-1.08481,0.00216714,0.0124086,650,1359,-12.1212,-4.58733
-567,-335,-12.1243,4.99805,-0.00113749,-9.23872e-05,-0.00101938,0.000530573,-0.00176045,-1.02224,0.0013848,0.0163551,657,1359,-12.1243,-4.99805
-560,-335,-12.1331,5.37964,4.28882e-05,-6.39546e-05,-0.00049132,0.000483683,-0.000504749,-0.731246,0.000570715,0.0248507,664,1359,-12.1331,-5.37959
-553,-335,-12.1397,5.76453,0.00143252,1.70613e-06,0.000141176,0.00144631,-1.20904e-05,0.0974169,0.000968264,0.0281361,671,1359,-12.1397,-5.76452
-546,-335,-12.1412,6.17859,0.00306401,5.41682e-05,0.000898376,0.00331177,-0.000193585,0.26909,0.00227512,0.0261411,678,1359,-12.1412,-6.17861
-539,-335,-12.1354,6.56433,0.00481848,0.000133727,0.00171728,0.00538055,-0.000428337,0.31631,0.003738,0.0208415,685,1359,-12.1354,-6.56431
-532,-335,-12.1464,6.97437,0.00685715,0.000225662,0.00268095,0.0078054,-0.000722588,0.339967,0.00546043,0.0154765,692,1359,-12.1463,-6.97437
-525,-335,-12.1067,7.38843,0.00924475,0.000287243,0.00380512,0.0106429,-0.00111092,0.352129,0.00749309,0.0110645,699,1359,-12.1067,-7.38837
-518,-335,-12.0739,7.73242,0.0118221,0.00021024,0.00498259,0.013667,-0.00163465,0.354616,0.0097022,0.0330927,706,1359,-12.0739,-7.73243
-511,-335,-12.0299,8.05774,0,0,0,0,0,0,0,-1,713,1359,-12.0299,-8.05776
-504,-335,-9.35767,5.99695,0,0,0,0,0,0,0,-1,720,1359,-9.35767,-5.99694
-497,-335,-8.75024,-0.650513,0,0,0,0,0,0,0,-1,727,1359,-8.75024,0.650521
-490,-335,-9.51971,0.417603,0,0,0,0,0,0,0,-1,734,1359,-9.51974,-0.41765
-483,-335,-10.2883,1.29224,0,0,0,0,0,0,0,-1,741,1359,-10.2883,-1.2922
-476,-335,-11.9938,-0.173462,0,0,0,0,0,0,0,-1,748,1359,-11.9938,0.173429
-469,-335,-12.8704,-0.204102,0,0,0,0,0,0,0,-1,755,1359,-12.8704,0.204117
-462,-335,-13.486,0.0218506,0,0,0,0,0,0,0,-1,762,1359,-13.4859,-0.0217908
-455,-335,-14.1504,0.549561,0,0,0,0,0,0,0,-1,769,1359,-14.1504,-0.549583
-448,-335,0,0,0,0,0,0,0,0,0,-1,776,1359,0,0
-441,-335,0,0,0,0,0,0,0,0,0,-1,783,1359,0,0
-434,-335,0,0,0,0,0,0,0,0,0,-1,790,1359,0,0
-427,-335,0,0,0,0,0,0,0,0,0,-1,797,1359,0,0
-420,-335,0,0,0,0,0,0,0,0,0,-1,804,1359,0,0
-413,-335,0,0,0,0,0,0,0,0,0,-1,811,1359,0,0
-406,-335,0,0,0,0,0,0,0,0,0,-1,818,1359,0,0
-399,-335,0,0,0,0,0,0,0,0,0,-1,825,1359,0,0
-392,-335,0,0,0,0,0,0,0,0,0,-1,832,1359,0,0
-385,-335,0,0,0,0,0,0,0,0,0,-1,839,1359,0,0
-378,-335,0,0,0,0,0,0,0,0,0,-1,846,1359,0,0
-371,-335,0,0,0,0,0,0,0,0,0,-1,853,1359,0,0
-364,-335,0,0,0,0,0,0,0,0,0,-1,860,1359,0,0
-357,-335,0,0,0,0,0,0,0,0,0,-1,867,1359,0,0
-350,-335,0,0,0,0,0,0,0,0,0,-1,874,1359,0,0
-343,-335,0,0,0,0,0,0,0,0,0,-1,881,1359,0,0
-336,-335,0,0,0,0,0,0,0,0,0,-1,888,1359,0,0
-329,-335,0,0,0,0,0,0,0,0,0,-1,895,1359,0,0
-322,-335,0,0,0,0,0,0,0,0,0,-1,902,1359,0,0
-315,-335,0,0,0,0,0,0,0,0,0,-1,909,1359,0,0
-308,-335,0,0,0,0,0,0,0,0,0,-1,916,1359,0,0
-301,-335,0,0,0,0,0,0,0,0,0,-1,923,1359,0,0
-294,-335,0,0,0,0,0,0,0,0,0,-1,930,1359,0,0
-287,-335,0,0,0,0,0,0,0,0,0,-1,937,1359,0,0
-280,-335,0,0,0,0,0,0,0,0,0,-1,944,1359,0,0
-273,-335,0,0,0,0,0,0,0,0,0,-1,951,1359,0,0
-266,-335,0,0,0,0,0,0,0,0,0,-1,958,1359,0,0
-259,-335,0,0,0,0,0,0,0,0,0,-1,965,1359,0,0
-252,-335,0,0,0,0,0,0,0,0,0,-1,972,1359,0,0
-245,-335,0,0,0,0,0,0,0,0,0,-1,979,1359,0,0
-238,-335,0,0,0,0,0,0,0,0,0,-1,986,1359,0,0
-231,-335,0,0,0,0,0,0,0,0,0,-1,993,1359,0,0
-224,-335,0,0,0,0,0,0,0,0,0,-1,1000,1359,0,0
-217,-335,0,0,0,0,0,0,0,0,0,-1,1007,1359,0,0
-210,-335,0,0,0,0,0,0,0,0,0,-1,1014,1359,0,0
-203,-335,0,0,0,0,0,0,0,0,0,-1,1021,1359,0,0
-196,-335,0,0,0,0,0,0,0,0,0,-1,1028,1359,0,0
-189,-335,0,0,0,0,0,0,0,0,0,-1,1035,1359,0,0
-182,-335,0,0,0,0,0,0,0,0,0,-1,1042,1359,0,0
-175,-335,0,0,0,0,0,0,0,0,0,-1,1049,1359,0,0
-168,-335,0,0,0,0,0,0,0,0,0,-1,1056,1359,0,0
-161,-335,0,0,0,0,0,0,0,0,0,-1,1063,1359,0,0
-154,-335,0,0,0,0,0,0,0,0,0,-1,1070,1359,0,0
-147,-335,0,0,0,0,0,0,0,0,0,-1,1077,1359,0,0
-140,-335,0,0,0,0,0,0,0,0,0,-1,1084,1359,0,0
-133,-335,0,0,0,0,0,0,0,0,0,-1,1091,1359,0,0
-126,-335,0,0,0,0,0,0,0,0,0,-1,1098,1359,0,0
-119,-335,0,0,0,0,0,0,0,0,0,-1,1105,1359,0,0
-112,-335,0,0,0,0,0,0,0,0,0,-1,1112,1359,0,0
-105,-335,0,0,0,0,0,0,0,0,0,-1,1119,1359,0,0
-98,-335,0,0,0,0,0,0,0,0,0,-1,1126,1359,0,0
-91,-335,0,0,0,0,0,0,0,0,0,-1,1133,1359,0,0
-84,-335,0,0,0,0,0,0,0,0,0,-1,1140,1359,0,0
-77,-335,0,0,0,0,0,0,0,0,0,-1,1147,1359,0,0
-70,-335,0,0,0,0,0,0,0,0,0,-1,1154,1359,0,0
-63,-335,0,0,0,0,0,0,0,0,0,-1,1161,1359,0,0
-56,-335,0,0,0,0,0,0,0,0,0,-1,1168,1359,0,0
-49,-335,0,0,0,0,0,0,0,0,0,-1,1175,1359,0,0
-42,-335,0,0,0,0,0,0,0,0,0,-1,1182,1359,0,0
-35,-335,0,0,0,0,0,0,0,0,0,-1,1189,1359,0,0
-28,-335,0,0,0,0,0,0,0,0,0,-1,1196,1359,0,0
-21,-335,0,0,0,0,0,0,0,0,0,-1,1203,1359,0,0
-14,-335,0,0,0,0,0,0,0,0,0,-1,1210,1359,0,0
-7,-335,0,0,0,0,0,0,0,0,0,-1,1217,1359,0,0
0,-335,0,0,0,0,0,0,0,0,0,-1,1224,1359,0,0
7,-335,0,0,0,0,0,0,0,0,0,-1,1231,1359,0,0
14,-335,0,0,0,0,0,0,0,0,0,-1,1238,1359,0,0
21,-335,0,0,0,0,0,0,0,0,0,-1,1245,1359,0,0
28,-335,0,0,0,0,0,0,0,0,0,-1,1252,1359,0,0
35,-335,0,0,0,0,0,0,0,0,0,-1,1259,1359,0,0
42,-335,0,0,0,0,0,0,0,0,0,-1,1266,1359,0,0
49,-335,0,0,0,0,0,0,0,0,0,-1,1273,1359,0,0
56,-335,0,0,0,0,0,0,0,0,0,-1,1280,1359,0,0
63,-335,0,0,0,0,0,0,0,0,0,-1,1287,1359,0,0
70,-335,0,0,0,0,0,0,0,0,0,-1,1294,1359,0,0
77,-335,0,0,0,0,0,0,0,0,0,-1,1301,1359,0,0
84,-335,0,0,0,0,0,0,0,0,0,-1,1308,1359,0,0
91,-335,0,0,0,0,0,0,0,0,0,-1,1315,1359,0,0
98,-335,0,0,0,0,0,0,0,0,0,-1,1322,1359,0,0
105,-335,0,0,0,0,0,0,0,0,0,-1,1329,1359,0,0
112,-335,0,0,0,0,0,0,0,0,0,-1,1336,1359,0,0
119,-335,0,0,0,0,0,0,0,0,0,-1,1343,1359,0,0
126,-335,0,0,0,0,0,0,0,0,0,-1,1350,1359,0,0
133,-335,0,0,0,0,0,0,0,0,0,-1,1357,1359,0,0
140,-335,0,0,0,0,0,0,0,0,0,-1,1364,1359,0,0
147,-335,0,0,0,0,0,0,0,0,0,-1,1371,1359,0,0
154,-335,0,0,0,0,0,0,0,0,0,-1,1378,1359,0,0
161,-335,0,0,0,0,0,0,0,0,0,-1,1385,1359,0,0
168,-335,0,0,0,0,0,0,0,0,0,-1,1392,1359,0,0
175,-335,0,0,0,0,0,0,0,0,0,-1,1399,1359,0,0
182,-335,0,0,0,0,0,0,0,0,0,-1,1406,1359,0,0
189,-335,0,0,0,0,0,0,0,0,0,-1,1413,1359,0,0
196,-335,0,0,0,0,0,0,0,0,0,-1,1420,1359,0,0
203,-335,0,0,0,0,0,0,0,0,0,-1,1427,1359,0,0
210,-335,0,0,0,0,0,0,0,0,0,-1,1434,1359,0,0
217,-335,0,0,0,0,0,0,0,0,0,-1,1441,1359,0,0
224,-335,0,0,0,0,0,0,0,0,0,-1,1448,1359,0,0
231,-335,0,0,0,0,0,0,0,0,0,-1,1455,1359,0,0
238,-335,0,0,0,0,0,0,0,0,0,-1,1462,1359,0,0
245,-335,0,0,0,0,0,0,0,0,0,-1,1469,1359,0,0
252,-335,0,0,0,0,0,0,0,0,0,-1,1476,1359,0,0
259,-335,0,0,0,0,0,0,0,0,0,-1,1483,1359,0,0
266,-335,0,0,0,0,0,0,0,0,0,-1,1490,1359,0,0
273,-335,0,0,0,0,0,0,0,0,0,-1,1497,1359,0,0
280,-335,0,0,0,0,0,0,0,0,0,-1,1504,1359,0,0
287,-335,0,0,0,0,0,0,0,0,0,-1,1511,1359,0,0
294,-335,0,0,0,0,0,0,0,0,0,-1,1518,1359,0,0
301,-335,0,0,0,0,0,0,0,0,0,-1,1525,1359,0,0
308,-335,0,0,0,0,0,0,0,0,0,-1,1532,1359,0,0
315,-335,0,0,0,0,0,0,0,0,0,-1,1539,1359,0,0
322,-335,0,0,0,0,0,0,0,0,0,-1,1546,1359,0,0
329,-335,0,0,0,0,0,0,0,0,0,-1,1553,1359,0,0
336,-335,0,0,0,0,0,0,0,0,0,-1,1560,1359,0,0
343,-335,0,0,0,0,0,0,0,0,0,-1,1567,1359,0,0
350,-335,0,0,0,0,0,0,0,0,0,-1,1574,1359,0,0
357,-335,0,0,0,0,0,0,0,0,0,-1,1581,1359,0,0
364,-335,0,0,0,0,0,0,0,0,0,-1,1588,1359,0,0
371,-335,0,0,0,0,0,0,0,0,0,-1,1595,1359,0,0
378,-335,0,0,0,0,0,0,0,0,0,-1,1602,1359,0,0
385,-335,0,0,0,0,0,0,0,0,0,-1,1609,1359,0,0
392,-335,0,0,0,0,0,0,0,0,0,-1,1616,1359,0,0
399,-335,0,0,0,0,0,0,0,0,0,-1,1623,1359,0,0
406,-335,0,0,0,0,0,0,0,0,0,-1,1630,1359,0,0
413,-335,0,0,0,0,0,0,0,0,0,-1,1637,1359,0,0
420,-335,0,0,0,0,0,0,0,0,0,-1,1644,1359,0,0
427,-335,0,0,0,0,0,0,0,0,0,-1,1651,1359,0,0
434,-335,0,0,0,0,0,0,0,0,0,-1,1658,1359,0,0
441,-335,0,0,0,0,0,0,0,0,0,-1,1665,1359,0,0
448,-335,0,0,0,0,0,0,0,0,0,-1,1672,1359,0,0
455,-335,0,0,0,0,0,0,0,0,0,-1,1679,1359,0,0
462,-335,0,0,0,0,0,0,0,0,0,-1,1686,1359,0,0
469,-335,0,0,0,0,0,0,0,0,0,-1,1693,1359,0,0
476,-335,0,0,0,0,0,0,0,0,0,-1,1700,1359,0,0
483,-335,0,0,0,0,0,0,0,0,0,-1,1707,1359,0,0
490,-335,0,0,0,0,0,0,0,0,0,-1,1714,1359,0,0
497,-335,0,0,0,0,0,0,0,0,0,-1,1721,1359,0,0
504,-335,0,0,0,0,0,0,0,0,0,-1,1728,1359,0,0
511,-335,0,0,0,0,0,0,0,0,0,-1,1735,1359,0,0
518,-335,0,0,0,0,0,0,0,0,0,-1,1742,1359,0,0
525,-335,0,0,0,0,0,0,0,0,0,-1,1749,1359,0,0
532,-335,0,0,0,0,0,0,0,0,0,-1,1756,1359,0,0
539,-335,0,0,0,0,0,0,0,0,0,-1,1763,1359,0,0
546,-335,0,0,0,0,0,0,0,0,0,-1,1770,1359,0,0
553,-335,0,0,0,0,0,0,0,0,0,-1,1777,1359,0,0
560,-335,0,0,0,0,0,0,0,0,0,-1,1784,1359,0,0
567,-335,0,0,0,0,0,0,0,0,0,-1,1791,1359,0,0
574,-335,35.8188,5.09021,0.0565951,0.0303241,-0.126647,0.170786,-0.083867,-0.733724,0.149852,0.0433897,1798,1359,35.8188,-5.0902
581,-335,36.1947,4.1853,0.0569397,0.0401512,-0.122434,0.171267,-0.0741764,-0.751171,0.145356,0.0438868,1805,1359,36.1948,-4.1853
588,-335,36.327,2.96924,0.052172,0.0356682,-0.107069,0.151306,-0.0634662,-0.746939,0.127409,0.0455577,1812,1359,36.3271,-2.96928
595,-335,37.0405,2.40552,0,0,0,0,0,0,0,-1,1819,1359,37.0406,-2.40547
602,-335,36.3344,3.88892,0,0,0,0,0,0,0,-1,1826,1359,36.3343,-3.88897
609,-335,30.826,4.40063,0,0,0,0,0,0,0,-1,1833,1359,30.826,-4.40063
616,-335,28.298,5.98853,0,0,0,0,0,0,0,-1,1840,1359,28.298,-5.98849
623,-335,26.6051,6.54333,0,0,0,0,0,0,0,-1,1847,1359,26.6051,-6.54339
630,-335,19.1707,1.00952,0,0,0,0,0,0,0,-1,1854,1359,19.1707,-1.00953
637,-335,18.2009,6.65454,0,0,0,0,0,0,0,-1,1861,1359,18.2009,-6.6546
644,-335,23.5238,9.95972,0,0,0,0,0,0,0,-1,1868,1359,23.5238,-9.95972
651,-335,23.38,9.64136,0.00881626,0.00311763,-0.00740565,0.0139018,-0.00196792,-0.601753,0.00998868,0.0391978,1875,1359,23.3801,-9.64131
658,-335,23.2838,9.38513,0.00511405,0.00139843,-0.00243554,0.00631946,0.000193023,-0.459579,0.00415013,0.0205612,1882,1359,23.2838,-9.38512
665,-335,23.3292,8.99329,0.00241246,0.00123222,-0.000122147,0.00242497,0.00121971,-0.102052,0.00140007,0.0139986,1889,1359,23.3293,-8.99333
672,-335,23.3391,8.60693,0.00124245,-0.000303159,-0.000182861,0.00126379,-0.000324499,-0.116173,0.000968979,0.0172224,1896,1359,23.3391,-8.60696
679,-335,23.3398,8.28076,0.000936357,-0.000356261,-0.00016599,0.000957332,-0.000377236,-0.125697,0.000794406,0.0152796,1903,1359,23.3398,-8.28081
686,-335,23.3373,7.922,0.000924559,-0.000145493,-5.72348e-05,0.000927612,-0.000148546,-0.0532852,0.000673407,0.011717,1910,1359,23.3373,-7.92197
693,-335,23.3018,7.55603,0.00135856,0.000145696,-5.87559e-05,0.0013614,0.000142856,-0.0482931,0.00086393,0.00931485,1917,1359,23.3018,-7.556
700,-335,23.2739,7.2384,0.0018004,0.000474034,-8.67315e-05,0.00180604,0.000468386,-0.0650215,0.00108223,0.0106953,1924,1359,23.2739,-7.23839
707,-335,23.2794,6.89514,0.00235493,0.00082563,-0.000123995,0.00236492,0.000815641,-0.08038,0.00138711,0.0139795,1931,1359,23.2794,-6.89515
714,-335,23.3125,6.44812,0.00320853,0.00125846,-0.000154113,0.00322064,0.00124636,-0.0783811,0.0018752,0.0289818,1938,1359,23.3125,-6.44816
721,-335,23.2585,5.96655,0,0,0,0,0,0,0,-1,1945,1359,23.2585,-5.96659
728,-335,20.8126,5.21167,0,0,0,0,0,0,0,-1,1952,1359,20.8127,-5.21172
735,-335,20.2725,5.34729,0,0,0,0,0,0,0,-1,1959,1359,20.2724,-5.34734
742,-335,19.8624,4.72229,0,0,0,0,0,0,0,-1,1966,1359,19.8624,-4.72225
749,-335,20.5887,6.05322,0,0,0,0,0,0,0,-1,1973,1359,20.5887,-6.05322
756,-335,20.7832,6.00452,0,0,0,0,0,0,0,-1,1980,1359,20.7832,-6.00447
763,-335,0,0,0,0,0,0,0,0,0,-1,1987,1359,0,0
770,-335,0,0,0,0,0,0,0,0,0,-1,1994,1359,0,0
777,-335,0,0,0,0,0,0,0,0,0,-1,2001,1359,0,0
784,-335,0,0,0,0,0,0,0,0,0,-1,2008,1359,0,0
791,-335,0,0,0,0,0,0,0,0,0,-1,2015,1359,0,0
798,-335,0,0,0,0,0,0,0,0,0,-1,2022,1359,0,0
805,-335,0,0,0,0,0,0,0,0,0,-1,2029,1359,0,0
812,-335,0,0,0,0,0,0,0,0,0,-1,2036,1359,0,0
-700,-342,0,0,0,0,0,0,0,0,0,-1,524,1366,0,0
-693,-342,0,0,0,0,0,0,0,0,0,-1,531,1366,0,0
-686,-342,0,0,0,0,0,0,0,0,0,-1,538,1366,0,0
-679,-342,0,0,0,0,0,0,0,0,0,-1,545,1366,0,0
-672,-342,0,0,0,0,0,0,0,0,0,-1,552,1366,0,0
-665,-342,0,0,0,0,0,0,0,0,0,-1,559,1366,0,0
-658,-342,0,0,0,0,0,0,0,0,0,-1,566,1366,0,0
-651,-342,0,0,0,0,0,0,0,0,0,-1,573,1366,0,0
-644,-342,0,0,0,0,0,0,0,0,0,-1,580,1366,0,0
-637,-342,-8.67786,-4.58557,0,0,0,0,0,0,0,-1,587,1366,-8.67788,4.5856
-630,-342,-8.60132,2.71777,0,0,0,0,0,0,0,-1,594,1366,-8.60135,-2.71779
-623,-342,-8.41168,0.662476,0,0,0,0,0,0,0,-1,601,1366,-8.41168,-0.662442
-616,-342,-6.625,-1.28015,0,0,0,0,0,0,0,-1,608,1366,-6.62499,1.28011
-609,-342,-7.83154,0.674561,0,0,0,0,0,0,0,-1,615,1366,-7.83155,-0.674598
-602,-342,-9.65765,2.25195,0,0,0,0,0,0,0,-1,622,1366,-9.65767,-2.25192
-595,-342,-9.47687,3.00671,0,0,0,0,0,0,0,-1,629,1366,-9.47686,-3.00668
-588,-342,-9.78467,3.57727,0,0,0,0,0,0,0,-1,636,1366,-9.78468,-3.57723
-581,-342,-11.7625,4.0968,0,0,0,0,0,0,0,-1,643,1366,-11.7625,-4.09682
-574,-342,-11.7521,4.5918,-0.0037994,-0.000450762,-0.00233897,0.000751393,-0.00500156,-1.09604,0.00361099,0.0139862,650,1366,-11.7521,-4.59181
-567,-342,-11.6806,4.99988,-0.00251408,-0.000317202,-0.00171809,0.000623573,-0.00345485,-1.06982,0.00253677,0.0172991,657,1366,-11.6806,-4.99993
-560,-342,-11.766,5.37024,-0.00109775,-0.000234832,-0.00105785,0.000476165,-0.00180875,-0.979032,0.00139197,0.0255591,664,1366,-11.766,-5.37022
-553,-342,-11.7714,5.72913,0.0004923,-0.000122054,-0.000306616,0.000619141,-0.000248894,-0.392242,0.000516133,0.0277557,671,1366,-11.7714,-5.72917
-546,-342,-11.7511,6.12122,0.00229006,-2.19526e-05,0.000560323,0.0024187,-0.000150591,0.225669,0.00166493,0.027789,678,1366,-11.7511,-6.12121
-539,-342,-11.7423,6.58911,0.00415842,0.000110081,0.00147369,0.00463805,-0.00036955,0.314651,0.00322229,0.0233442,685,1366,-11.7423,-6.58914
-532,-342,-11.76,7.0083,0.00622515,0.000241884,0.00249194,0.00712705,-0.000660018,0.347262,0.00498596,0.0184412,692,1366,-11.76,-7.00836
-525,-342,-11.7244,7.40637,0.00857652,0.000384231,0.00366016,0.00997357,-0.00101282,0.364623,0.00701108,0.0122436,699,1366,-11.7244,-7.40634
-518,-342,-11.676,7.80676,0.0110909,0.000464205,0.0049139,0.0130148,-0.00145972,0.373181,0.0092018,0.0226838,706,1366,-11.676,-7.80681
-511,-342,-11.6974,8.20288,0,0,0,0,0,0,0,-1,713,1366,-11.6974,-8.20287
-504,-342,-8.95709,6.5719,0,0,0,0,0,0,0,-1,720,1366,-8.95707,-6.57192
-497,-342,-8.26587,-0.943604,0,0,0,0,0,0,0,-1,727,1366,-8.26586,0.943543
-490,-342,-9.07153,-0.0227051,0,0,0,0,0,0,0,-1,734,1366,-9.07155,0.0227087
-483,-342,-9.87726,0.898071,0,0,0,0,0,0,0,-1,741,1366,-9.87724,-0.898125
-476,-342,-11.6371,-0.736328,0,0,0,0,0,0,0,-1,748,1366,-11.6371,0.736281
-469,-342,-12.6245,-0.987549,0,0,0,0,0,0,0,-1,755,1366,-12.6245,0.987553
-462,-342,-13.0912,-0.533203,0,0,0,0,0,0,0,-1,762,1366,-13.0912,0.533224
-455,-342,-13.7612,0.122925,0,0,0,0,0,0,0,-1,769,1366,-13.7612,-0.122896
-448,-342,-14.5278,0.826904,0,0,0,0,0,0,0,-1,776,1366,-14.5277,-0.826861
-441,-342,0,0,0,0,0,0,0,0,0,-1,783,1366,0,0
-434,-342,0,0,0,0,0,0,0,0,0,-1,790,1366,0,0
-427,-342,0,0,0,0,0,0,0,0,0,-1,797,1366,0,0
-420,-342,0,0,0,0,0,0,0,0,0,-1,804,1366,0,0
-413,-342,0,0,0,0,0,0,0,0,0,-1,811,1366,0,0
-406,-342,0,0,0,0,0,0,0,0,0,-1,818,1366,0,0
-399,-342,0,0,0,0,0,0,0,0,0,-1,825,1366,0,0
-392,-342,0,0,0,0,0,0,0,0,0,-1,832,1366,0,0
-385,-342,0,0,0,0,0,0,0,0,0,-1,839,1366,0,0
-378,-342,0,0,0,0,0,0,0,0,0,-1,846,1366,0,0
-371,-342,0,0,0,0,0,0,0,0,0,-1,853,1366,0,0
-364,-342,0,0,0,0,0,0,0,0,0,-1,860,1366,0,0
-357,-342,0,0,0,0,0,0,0,0,0,-1,867,1366,0,0
-350,-342,0,0,0,0,0,0,0,0,0,-1,874,1366,0,0
-343,-342,0,0,0,0,0,0,0,0,0,-1,881,1366,0,0
-336,-342,0,0,0,0,0,0,0,0,0,-1,888,1366,0,0
-329,-342,0,0,0,0,0,0,0,0,0,-1,895,1366,0,0
-322,-342,0,0,0,0,0,0,0,0,0,-1,902,1366,0,0
-315,-342,0,0,0,0,0,0,0,0,0,-1,909,1366,0,0
-308,-342,0,0,0,0,0,0,0,0,0,-1,916,1366,0,0
-301,-342,0,0,0,0,0,0,0,0,0,-1,923,1366,0,0
-294,-342,0,0,0,0,0,0,0,0,0,-1,930,1366,0,0
-287,-342,0,0,0,0,0,0,0,0,0,-1,937,1366,0,0
-280,-342,0,0,0,0,0,0,0,0,0,-1,944,1366,0,0
-273,-342,0,0,0,0,0,0,0,0,0,-1,951,1366,0,0
-266,-342,0,0,0,0,0,0,0,0,0,-1,958,1366,0,0
-259,-342,0,0,0,0,0,0,0,0,0,-1,965,1366,0,0
-252,-342,0,0,0,0,0,0,0,0,0,-1,972,1366,0,0
-245,-342,0,0,0,0,0,0,0,0,0,-1,979,1366,0,0
-238,-342,0,0,0,0,0,0,0,0,0,-1,986,1366,0,0
-231,-342,0,0,0,0,0,0,0,0,0,-1,993,1366,0,0
-224,-342,0,0,0,0,0,0,0,0,0,-1,1000,1366,0,0
-217,-342,0,0,0,0,0,0,0,0,0,-1,1007,1366,0,0
-210,-342,0,0,0,0,0,0,0,0,0,-1,1014,1366,0,0
-203,-342,0,0,0,0,0,0,0,0,0,-1,1021,1366,0,0
-196,-342,0,0,0,0,0,0,0,0,0,-1,1028,1366,0,0
-189,-342,0,0,0,0,0,0,0,0,0,-1,1035,1366,0,0
-182,-342,0,0,0,0,0,0,0,0,0,-1,1042,1366,0,0
-175,-342,0,0,0,0,0,0,0,0,0,-1,1049,1366,0,0
-168,-342,0,0,0,0,0,0,0,0,0,-1,1056,1366,0,0
-161,-342,0,0,0,0,0,0,0,0,0,-1,1063,1366,0,0
-154,-342,0,0,0,0,0,0,0,0,0,-1,1070,1366,0,0
-147,-342,0,0,0,0,0,0,0,0,0,-1,1077,1366,0,0
-140,-342,0,0,0,0,0,0,0,0,0,-1,1084,1366,0,0
-133,-342,0,0,0,0,0,0,0,0,0,-1,1091,1366,0,0
-126,-342,0,0,0,0,0,0,0,0,0,-1,1098,1366,0,0
-119,-342,0,0,0,0,0,0,0,0,0,-1,1105,1366,0,0
-112,-342,0,0,0,0,0,0,0,0,0,-1,1112,1366,0,0
-105,-342,0,0,0,0,0,0,0,0,0,-1,1119,1366,0,0
-98,-342,0,0,0,0,0,0,0,0,0,-1,1126,1366,0,0
-91,-342,0,0,0,0,0,0,0,0,0,-1,1133,1366,0,0
-84,-342,0,0,0,0,0,0,0,0,0,-1,1140,1366,0,0
-77,-342,0,0,0,0,0,0,0,0,0,-1,1147,1366,0,0
-70,-342,0,0,0,0,0,0,0,0,0,-1,1154,1366,0,0
-63,-342,0,0,0,0,0,0,0,0,0,-1,1161,1366,0,0
-56,-342,0,0,0,0,0,0,0,0,0,-1,1168,1366,0,0
-49,-342,0,0,0,0,0,0,0,0,0,-1,1175,1366,0,0
-42,-342,0,0,0,0,0,0,0,0,0,-1,1182,1366,0,0
-35,-342,0,0,0,0,0,0,0,0,0,-1,1189,1366,0,0
-28,-342,0,0,0,0,0,0,0,0,0,-1,1196,1366,0,0
-21,-342,0,0,0,0,0,0,0,0,0,-1,1203,1366,0,0
-14,-342,0,0,0,0,0,0,0,0,0,-1,1210,1366,0,0
-7,-342,0,0,0,0,0,0,0,0,0,-1,1217,1366,0,0
0,-342,0,0,0,0,0,0,0,0,0,-1,1224,1366,0,0
7,-342,0,0,0,0,0,0,0,0,0,-1,1231,1366,0,0
14,-342,0,0,0,0,0,0,0,0,0,-1,1238,1366,0,0
21,-342,0,0,0,0,0,0,0,0,0,-1,1245,1366,0,0
28,-342,0,0,0,0,0,0,0,0,0,-1,1252,1366,0,0
35,-342,0,0,0,0,0,0,0,0,0,-1,1259,1366,0,0
42,-342,0,0,0,0,0,0,0,0,0,-1,1266,1366,0,0
49,-342,0,0,0,0,0,0,0,0,0,-1,1273,1366,0,0
56,-342,0,0,0,0,0,0,0,0,0,-1,1280,1366,0,0
63,-342,0,0,0,0,0,0,0,0,0,-1,1287,1366,0,0
70,-342,0,0,0,0,0,0,0,0,0,-1,1294,1366,0,0
77,-342,0,0,0,0,0,0,0,0,0,-1,1301,1366,0,0
84,-342,0,0,0,0,0,0,0,0,0,-1,1308,1366,0,0
91,-342,0,0,0,0,0,0,0,0,0,-1,1315,1366,0,0
98,-342,0,0,0,0,0,0,0,0,0,-1,1322,1366,0,0
105,-342,0,0,0,0,0,0,0,0,0,-1,1329,1366,0,0
112,-342,0,0,0,0,0,0,0,0,0,-1,1336,1366,0,0
119,-342,0,0,0,0,0,0,0,0,0,-1,1343,1366,0,0
126,-342,0,0,0,0,0,0,0,0,0,-1,1350,1366,0,0
133,-342,0,0,0,0,0,0,0,0,0,-1,1357,1366,0,0
140,-342,0,0,0,0,0,0,0,0,0,-1,1364,1366,0,0
147,-342,0,0,0,0,0,0,0,0,0,-1,1371,1366,0,0
154,-342,0,0,0,0,0,0,0,0,0,-1,1378,1366,0,0
161,-342,0,0,0,0,0,0,0,0,0,-1,1385,1366,0,0
168,-342,0,0,0,0,0,0,0,0,0,-1,1392,1366,0,0
175,-342,0,0,0,0,0,0,0,0,0,-1,1399,1366,0,0
182,-342,0,0,0,0,0,0,0,0,0,-1,1406,1366,0,0
189,-342,0,0,0,0,0,0,0,0,0,-1,1413,1366,0,0
196,-342,0,0,0,0,0,0,0,0,0,-1,1420,1366,0,0
203,-342,0,0,0,0,0,0,0,0,0,-1,1427,1366,0,0
210,-342,0,0,0,0,0,0,0,0,0,-1,1434,1366,0,0
217,-342,0,0,0,0,0,0,0,0,0,-1,1441,1366,0,0
224,-342,0,0,0,0,0,0,0,0,0,-1,1448,1366,0,0
231,-342,0,0,0,0,0,0,0,0,0,-1,1455,1366,0,0
238,-342,0,0,0,0,0,0,0,0,0,-1,1462,1366,0,0
245,-342,0,0,0,0,0,0,0,0,0,-1,1469,1366,0,0
252,-342,0,0,0,0,0,0,0,0,0,-1,1476,1366,0,0
259,-342,0,0,0,0,0,0,0,0,0,-1,1483,1366,0,0
266,-342,0,0,0,0,0,0,0,0,0,-1,1490,1366,0,0
273,-342,0,0,0,0,0,0,0,0,0,-1,1497,1366,0,0
280,-342,0,0,0,0,0,0,0,0,0,-1,1504,1366,0,0
287,-342,0,0,0,0,0,0,0,0,0,-1,1511,1366,0,0
294,-342,0,0,0,0,0,0,0,0,0,-1,1518,1366,0,0
301,-342,0,0,0,0,0,0,0,0,0,-1,1525,1366,0,0
308,-342,0,0,0,0,0,0,0,0,0,-1,1532,1366,0,0
315,-342,0,0,0,0,0,0,0,0,0,-1,1539,1366,0,0
322,-342,0,0,0,0,0,0,0,0,0,-1,1546,1366,0,0
329,-342,0,0,0,0,0,0,0,0,0,-1,1553,1366,0,0
336,-342,0,0,0,0,0,0,0,0,0,-1,1560,1366,0,0
343,-342,0,0,0,0,0,0,0,0,0,-1,1567,1366,0,0
350,-342,0,0,0,0,0,0,0,0,0,-1,1574,1366,0,0
357,-342,0,0,0,0,0,0,0,0,0,-1,1581,1366,0,0
364,-342,0,0,0,0,0,0,0,0,0,-1,1588,1366,0,0
371,-342,0,0,0,0,0,0,0,0,0,-1,1595,1366,0,0
378,-342,0,0,0,0,0,0,0,0,0,-1,1602,1366,0,0
385,-342,0,0,0,0,0,0,0,0,0,-1,1609,1366,0,0
392,-342,0,0,0,0,0,0,0,0,0,-1,1616,1366,0,0
399,-342,0,0,0,0,0,0,0,0,0,-1,1623,1366,0,0
406,-342,0,0,0,0,0,0,0,0,0,-1,1630,1366,0,0
413,-342,0,0,0,0,0,0,0,0,0,-1,1637,1366,0,0
420,-342,0,0,0,0,0,0,0,0,0,-1,1644,1366,0,0
427,-342,0,0,0,0,0,0,0,0,0,-1,1651,1366,0,0
434,-342,0,0,0,0,0,0,0,0,0,-1,1658,1366,0,0
441,-342,0,0,0,0,0,0,0,0,0,-1,1665,1366,0,0
448,-342,0,0,0,0,0,0,0,0,0,-1,1672,1366,0,0
455,-342,0,0,0,0,0,0,0,0,0,-1,1679,1366,0,0
462,-342,0,0,0,0,0,0,0,0,0,-1,1686,1366,0,0
469,-342,0,0,0,0,0,0,0,0,0,-1,1693,1366,0,0
476,-342,0,0,0,0,0,0,0,0,0,-1,1700,1366,0,0
483,-342,0,0,0,0,0,0,0,0,0,-1,1707,1366,0,0
490,-342,0,0,0,0,0,0,0,0,0,-1,1714,1366,0,0
497,-342,0,0,0,0,0,0,0,0,0,-1,1721,1366,0,0
504,-342,0,0,0,0,0,0,0,0,0,-1,1728,1366,0,0
511,-342,0,0,0,0,0,0,0,0,0,-1,1735,1366,0,0
518,-342,0,0,0,0,0,0,0,0,0,-1,1742,1366,0,0
525,-342,0,0,0,0,0,0,0,0,0,-1,1749,1366,0,0
532,-342,0,0,0,0,0,0,0,0,0,-1,1756,1366,0,0
539,-342,0,0,0,0,0,0,0,0,0,-1,1763,1366,0,0
546,-342,0,0,0,0,0,0,0,0,0,-1,1770,1366,0,0
553,-342,0,0,0,0,0,0,0,0,0,-1,1777,1366,0,0
560,-342,0,0,0,0,0,0,0,0,0,-1,1784,1366,0,0
567,-342,36.3977,6.41162,0,0,0,0,0,0,0,-1,1791,1366,36.3977,-6.41167
574,-342,36.4338,4.94275,0.0638193,0.0460702,-0.139775,0.195001,-0.0851117,-0.753695,0.16582,0.0448543,1798,1366,36.4338,-4.94275
581,-342,36.7969,3.72156,0.0587733,0.0455913,-0.126524,0.178878,-0.074513,-0.759375,0.150375,0.04444,1805,1366,36.7968,-3.72162
588,-342,36.7841,2.57886,0,0,0,0,0,0,0,-1,1812,1366,36.7841,-2.57887
595,-342,32.9098,4.32629,0,0,0,0,0,0,0,-1,1819,1366,32.9098,-4.32627
602,-342,31.0818,5.28552,0,0,0,0,0,0,0,-1,1826,1366,31.0818,-5.28547
609,-342,29.3829,5.81714,0,0,0,0,0,0,0,-1,1833,1366,29.3829,-5.81711
616,-342,27.7058,6.33801,0,0,0,0,0,0,0,-1,1840,1366,27.7058,-6.33796
623,-342,26.0299,6.86865,0,0,0,0,0,0,0,-1,1847,1366,26.0299,-6.86863
630,-342,17.3431,0.773071,0,0,0,0,0,0,0,-1,1854,1366,17.3432,-0.773095
637,-342,16.196,6.76172,0,0,0,0,0,0,0,-1,1861,1366,16.1961,-6.76174
644,-342,22.8781,10.1099,0,0,0,0,0,0,0,-1,1868,1366,22.878,-10.1099
651,-342,23.0016,9.77625,0.00625312,0.00215055,-0.00668415,0.0111937,-0.00278999,-0.636516,0.00854563,0.0331776,1875,1366,23.0016,-9.77624
658,-342,22.955,9.37012,0.00319301,0.000707279,-0.00213468,0.00442029,-0.000519995,-0.521775,0.0031346,0.0194184,1882,1366,22.955,-9.37013
665,-342,22.9542,8.99866,0.00140775,0.000639535,-0.000218924,0.00146576,0.000581527,-0.259017,0.00085225,0.0155526,1889,1366,22.9542,-8.99861
672,-342,22.9791,8.6427,0.000918997,-0.00028661,-0.000144904,0.000936169,-0.000303782,-0.117954,0.000746276,0.0125367,1896,1366,22.9791,-8.64272
679,-342,22.9761,8.29248,0.000957737,-0.000300442,-6.70205e-05,0.000961297,-0.000304002,-0.0530677,0.000762669,0.0128581,1903,1366,22.9761,-8.29246
686,-342,22.9785,7.95215,0.00110613,-0.000161421,1.51725e-05,0.00110631,-0.000161603,0.0119677,0.000796886,0.0105537,1910,1366,22.9786,-7.95211
693,-342,22.937,7.58179,0.00157946,6.30823e-05,1.34753e-05,0.00157958,6.29626e-05,0.00888556,0.00103271,0.0111758,1917,1366,22.937,-7.58177
700,-342,22.9009,7.2301,0.00209089,0.000359304,-4.97322e-05,0.00209232,0.000357877,-0.0286891,0.00129221,0.0137931,1924,1366,22.9009,-7.23005
707,-342,22.9169,6.88184,0.00263789,0.000650861,-0.000115924,0.00264463,0.000644121,-0.0580775,0.00159241,0.0137088,1931,1366,22.9168,-6.88189
714,-342,22.9698,6.54175,0,0,0,0,0,0,0,-1,1938,1366,22.9698,-6.54172
721,-342,22.4666,6.08679,0,0,0,0,0,0,0,-1,1945,1366,22.4666,-6.08678
728,-342,19.8912,5.26636,0,0,0,0,0,0,0,-1,1952,1366,19.8913,-5.26636
735,-342,19.481,4.41968,0,0,0,0,0,0,0,-1,1959,1366,19.4809,-4.41962
742,-342,19.309,2.66943,0,0,0,0,0,0,0,-1,1966,1366,19.3089,-2.66948
749,-342,21.0934,6.47729,0,0,0,0,0,0,0,-1,1973,1366,21.0934,-6.4773
756,-342,0,0,0,0,0,0,0,0,0,-1,1980,1366,0,0
763,-342,0,0,0,0,0,0,0,0,0,-1,1987,1366,0,0
770,-342,0,0,0,0,0,0,0,0,0,-1,1994,1366,0,0
777,-342,0,0,0,0,0,0,0,0,0,-1,2001,1366,0,0
784,-342,0,0,0,0,0,0,0,0,0,-1,2008,1366,0,0
791,-342,0,0,0,0,0,0,0,0,0,-1,2015,1366,0,0
798,-342,0,0,0,0,0,0,0,0,0,-1,2022,1366,0,0
805,-342,0,0,0,0,0,0,0,0,0,-1,2029,1366,0,0
812,-342,0,0,0,0,0,0,0,0,0,-1,2036,1366,0,0
-700,-349,0,0,0,0,0,0,0,0,0,-1,524,1373,0,0
-693,-349,0,0,0,0,0,0,0,0,0,-1,531,1373,0,0
-686,-349,0,0,0,0,0,0,0,0,0,-1,538,1373,0,0
-679,-349,0,0,0,0,0,0,0,0,0,-1,545,1373,0,0
-672,-349,0,0,0,0,0,0,0,0,0,-1,552,1373,0,0
-665,-349,0,0,0,0,0,0,0,0,0,-1,559,1373,0,0
-658,-349,0,0,0,0,0,0,0,0,0,-1,566,1373,0,0
-651,-349,0,0,0,0,0,0,0,0,0,-1,573,1373,0,0
-644,-349,0,0,0,0,0,0,0,0,0,-1,580,1373,0,0
-637,-349,0,0,0,0,0,0,0,0,0,-1,587,1373,0,0
-630,-349,-7.64117,-5.06177,0,0,0,0,0,0,0,-1,594,1373,-7.64118,5.0618
-623,-349,-8.63507,0.51123,0,0,0,0,0,0,0,-1,601,1373,-8.63505,-0.511275
-616,-349,-5.2066,-0.188232,0,0,0,0,0,0,0,-1,608,1373,-5.20659,0.188211
-609,-349,-7.12073,1.37048,0,0,0,0,0,0,0,-1,615,1373,-7.12072,-1.37044
-602,-349,-9.00623,3.39587,0,0,0,0,0,0,0,-1,622,1373,-9.0062,-3.39591
-595,-349,-9.50568,2.96912,0,0,0,0,0,0,0,-1,629,1373,-9.50569,-2.96906
-588,-349,-8.60046,3.56042,0,0,0,0,0,0,0,-1,636,1373,-8.60046,-3.56047
-581,-349,-11.3022,4.24719,0,0,0,0,0,0,0,-1,643,1373,-11.3022,-4.24716
-574,-349,-11.2993,4.58374,-0.00567664,-0.000841579,-0.0034356,0.000941815,-0.00746004,-1.09199,0.00531518,0.0285852,650,1373,-11.2993,-4.58369
-567,-349,-11.3312,5.02271,-0.00406017,-0.00060213,-0.00257828,0.00077321,-0.00543551,-1.08076,0.003907,0.0182558,657,1373,-11.3312,-5.02268
-560,-349,-11.3583,5.42163,-0.00241241,-0.000462973,-0.00176411,0.000577786,-0.00345316,-1.03779,0.00251691,0.0211663,664,1373,-11.3584,-5.42163
-553,-349,-11.3844,5.77881,-0.000634681,-0.000291849,-0.000882887,0.000436108,-0.00136264,-0.881282,0.00108346,0.0260169,671,1373,-11.3844,-5.77878
-546,-349,-11.3808,6.14893,0.00129836,-0.000123698,9.33497e-05,0.00130446,-0.0001298,0.0652706,0.00091598,0.0287871,678,1373,-11.3808,-6.14893
-539,-349,-11.3766,6.59387,0.00327926,7.57292e-05,0.00110035,0.0036208,-0.000265806,0.30096,0.00250717,0.0231858,685,1373,-11.3766,-6.5939
-532,-349,-11.3762,7.01025,0.00542206,0.000287519,0.00219647,0.00623346,-0.000523875,0.353859,0.00434081,0.0179552,692,1373,-11.3762,-7.01024
-525,-349,-11.3464,7.41675,0.00778092,0.000530634,0.00342005,0.00913959,-0.00082804,0.378148,0.00638699,0.0138166,699,1373,-11.3464,-7.41677
-518,-349,-11.3468,7.84509,0.0103058,0.000780132,0.00476084,0.0122772,-0.00119128,0.392593,0.00860944,0.0165514,706,1373,-11.3468,-7.84513
-511,-349,-11.0342,8.42993,0,0,0,0,0,0,0,-1,713,1373,-11.0342,-8.42997
-504,-349,-9.60516,7.88831,0,0,0,0,0,0,0,-1,720,1373,-9.60519,-7.88825
-497,-349,-7.9339,5.58789,0,0,0,0,0,0,0,-1,727,1373,-7.93388,-5.58785
-490,-349,-8.73969,-0.503784,0,0,0,0,0,0,0,-1,734,1373,-8.73966,0.503752
-483,-349,-5.66974,3.7395,0,0,0,0,0,0,0,-1,741,1373,-5.66975,-3.73949
-476,-349,-10.8496,1.15759,0,0,0,0,0,0,0,-1,748,1373,-10.8496,-1.15756
-469,-349,-12.3314,-1.74878,0,0,0,0,0,0,0,-1,755,1373,-12.3314,1.74882
-462,-349,-12.6559,-0.995361,0,0,0,0,0,0,0,-1,762,1373,-12.656,0.995351
-455,-349,-13.2897,-0.234253,0,0,0,0,0,0,0,-1,769,1373,-13.2897,0.234261
-448,-349,-14.045,0.712891,0,0,0,0,0,0,0,-1,776,1373,-14.045,-0.712838
-441,-349,0,0,0,0,0,0,0,0,0,-1,783,1373,0,0
-434,-349,0,0,0,0,0,0,0,0,0,-1,790,1373,0,0
-427,-349,0,0,0,0,0,0,0,0,0,-1,797,1373,0,0
-420,-349,0,0,0,0,0,0,0,0,0,-1,804,1373,0,0
-413,-349,0,0,0,0,0,0,0,0,0,-1,811,1373,0,0
-406,-349,0,0,0,0,0,0,0,0,0,-1,818,1373,0,0
-399,-349,0,0,0,0,0,0,0,0,0,-1,825,1373,0,0
-392,-349,0,0,0,0,0,0,0,0,0,-1,832,1373,0,0
-385,-349,0,0,0,0,0,0,0,0,0,-1,839,1373,0,0
-378,-349,0,0,0,0,0,0,0,0,0,-1,846,1373,0,0
-371,-349,0,0,0,0,0,0,0,0,0,-1,853,1373,0,0
-364,-349,0,0,0,0,0,0,0,0,0,-1,860,1373,0,0
-357,-349,0,0,0,0,0,0,0,0,0,-1,867,1373,0,0
-350,-349,0,0,0,0,0,0,0,0,0,-1,874,1373,0,0
-343,-349,0,0,0,0,0,0,0,0,0,-1,881,1373,0,0
-336,-349,0,0,0,0,0,0,0,0,0,-1,888,1373,0,0
-329,-349,0,0,0,0,0,0,0,0,0,-1,895,1373,0,0
-322,-349,0,0,0,0,0,0,0,0,0,-1,902,1373,0,0
-315,-349,0,0,0,0,0,0,0,0,0,-1,909,1373,0,0
-308,-349,0,0,0,0,0,0,0,0,0,-1,916,1373,0,0
-301,-349,0,0,0,0,0,0,0,0,0,-1,923,1373,0,0
-294,-349,0,0,0,0,0,0,0,0,0,-1,930,1373,0,0
-287,-349,0,0,0,0,0,0,0,0,0,-1,937,1373,0,0
-280,-349,0,0,0,0,0,0,0,0,0,-1,944,1373,0,0
-273,-349,0,0,0,0,0,0,0,0,0,-1,951,1373,0,0
-266,-349,0,0,0,0,0,0,0,0,0,-1,958,1373,0,0
-259,-349,0,0,0,0,0,0,0,0,0,-1,965,1373,0,0
-252,-349,0,0,0,0,0,0,0,0,0,-1,972,1373,0,0
-245,-349,0,0,0,0,0,0,0,0,0,-1,979,1373,0,0
-238,-349,0,0,0,0,0,0,0,0,0,-1,986,1373,0,0
-231,-349,0,0,0,0,0,0,0,0,0,-1,993,1373,0,0
-224,-349,0,0,0,0,0,0,0,0,0,-1,1000,1373,0,0
-217,-349,0,0,0,0,0,0,0,0,0,-1,1007,1373,0,0
-210,-349,0,0,0,0,0,0,0,0,0,-1,1014,1373,0,0
-203,-349,0,0,0,0,0,0,0,0,0,-1,1021,1373,0,0
-196,-349,0,0,0,0,0,0,0,0,0,-1,1028,1373,0,0
-189,-349,0,0,0,0,0,0,0,0,0,-1,1035,1373,0,0
-182,-349,0,0,0,0,0,0,0,0,0,-1,1042,1373,0,0
-175,-349,0,0,0,0,0,0,0,0,0,-1,1049,1373,0,0
-168,-349,0,0,0,0,0,0,0,0,0,-1,1056,1373,0,0
-161,-349,0,0,0,0,0,0,0,0,0,-1,1063,1373,0,0
-154,-349,0,0,0,0,0,0,0,0,0,-1,1070,1373,0,0
-147,-349,0,0,0,0,0,0,0,0,0,-1,1077,1373,0,0
-140,-349,0,0,0,0,0,0,0,0,0,-1,1084,1373,0,0
-133,-349,0,0,0,0,0,0,0,0,0,-1,1091,1373,0,0
-126,-349,0,0,0,0,0,0,0,0,0,-1,1098,1373,0,0
-119,-349,0,0,0,0,0,0,0,0,0,-1,1105,1373,0,0
-112,-349,0,0,0,0,0,0,0,0,0,-1,1112,1373,0,0
-105,-349,0,0,0,0,0,0,0,0,0,-1,1119,1373,0,0
-98,-349,0,0,0,0,0,0,0,0,0,-1,1126,1373,0,0
-91,-349,0,0,0,0,0,0,0,0,0,-1,1133,1373,0,0
-84,-349,0,0,0,0,0,0,0,0,0,-1,1140,1373,0,0
-77,-349,0,0,0,0,0,0,0,0,0,-1,1147,1373,0,0
-70,-349,0,0,0,0,0,0,0,0,0,-1,1154,1373,0,0
-63,-349,0,0,0,0,0,0,0,0,0,-1,1161,1373,0,0
-56,-349,0,0,0,0,0,0,0,0,0,-1,1168,1373,0,0
-49,-349,0,0,0,0,0,0,0,0,0,-1,1175,1373,0,0
-42,-349,0,0,0,0,0,0,0,0,0,-1,1182,1373,0,0
-35,-349,0,0,0,0,0,0,0,0,0,-1,1189,1373,0,0
-28,-349,0,0,0,0,0,0,0,0,0,-1,1196,1373,0,0
-21,-349,0,0,0,0,0,0,0,0,0,-1,1203,1373,0,0
-14,-349,0,0,0,0,0,0,0,0,0,-1,1210,1373,0,0
-7,-349,0,0,0,0,0,0,0,0,0,-1,1217,1373,0,0
0,-349,0,0,0,0,0,0,0,0,0,-1,1224,1373,0,0
7,-349,0,0,0,0,0,0,0,0,0,-1,1231,1373,0,0
14,-349,0,0,0,0,0,0,0,0,0,-1,1238,1373,0,0
21,-349,0,0,0,0,0,0,0,0,0,-1,1245,1373,0,0
28,-349,0,0,0,0,0,0,0,0,0,-1,1252,1373,0,0
35,-349,0,0,0,0,0,0,0,0,0,-1,1259,1373,0,0
42,-349,0,0,0,0,0,0,0,0,0,-1,1266,1373,0,0
49,-349,0,0,0,0,0,0,0,0,0,-1,1273,1373,0,0
56,-349,0,0,0,0,0,0,0,0,0,-1,1280,1373,0,0
63,-349,0,0,0,0,0,0,0,0,0,-1,1287,1373,0,0
70,-349,0,0,0,0,0,0,0,0,0,-1,1294,1373,0,0
77,-349,0,0,0,0,0,0,0,0,0,-1,1301,1373,0,0
84,-349,0,0,0,0,0,0,0,0,0,-1,1308,1373,0,0
91,-349,0,0,0,0,0,0,0,0,0,-1,1315,1373,0,0
98,-349,0,0,0,0,0,0,0,0,0,-1,1322,1373,0,0
105,-349,0,0,0,0,0,0,0,0,0,-1,1329,1373,0,0
112,-349,0,0,0,0,0,0,0,0,0,-1,1336,1373,0,0
119,-349,0,0,0,0,0,0,0,0,0,-1,1343,1373,0,0
126,-349,0,0,0,0,0,0,0,0,0,-1,1350,1373,0,0
133,-349,0,0,0,0,0,0,0,0,0,-1,1357,1373,0,0
140,-349,0,0,0,0,0,0,0,0,0,-1,1364,1373,0,0
147,-349,0,0,0,0,0,0,0,0,0,-1,1371,1373,0,0
154,-349,0,0,0,0,0,0,0,0,0,-1,1378,1373,0,0
161,-349,0,0,0,0,0,0,0,0,0,-1,1385,1373,0,0
168,-349,0,0,0,0,0,0,0,0,0,-1,1392,1373,0,0
175,-349,0,0,0,0,0,0,0,0,0,-1,1399,1373,0,0
182,-349,0,0,0,0,0,0,0,0,0,-1,1406,1373,0,0
189,-349,0,0,0,0,0,0,0,0,0,-1,1413,1373,0,0
196,-349,0,0,0,0,0,0,0,0,0,-1,1420,1373,0,0
203,-349,0,0,0,0,0,0,0,0,0,-1,1427,1373,0,0
210,-349,0,0,0,0,0,0,0,0,0,-1,1434,1373,0,0
217,-349,0,0,0,0,0,0,0,0,0,-1,1441,1373,0,0
224,-349,0,0,0,0,0,0,0,0,0,-1,1448,1373,0,0
231,-349,0,0,0,0,0,0,0,0,0,-1,1455,1373,0,0
238,-349,0,0,0,0,0,0,0,0,0,-1,1462,1373,0,0
245,-349,0,0,0,0,0,0,0,0,0,-1,1469,1373,0,0
252,-349,0,0,0,0,0,0,0,0,0,-1,1476,1373,0,0
259,-349,0,0,0,0,0,0,0,0,0,-1,1483,1373,0,0
266,-349,0,0,0,0,0,0,0,0,0,-1,1490,1373,0,0
273,-349,0,0,0,0,0,0,0,0,0,-1,1497,1373,0,0
280,-349,0,0,0,0,0,0,0,0,0,-1,1504,1373,0,0
287,-349,0,0,0,0,0,0,0,0,0,-1,1511,1373,0,0
294,-349,0,0,0,0,0,0,0,0,0,-1,1518,1373,0,0
301,-349,0,0,0,0,0,0,0,0,0,-1,1525,1373,0,0
308,-349,0,0,0,0,0,0,0,0,0,-1,1532,1373,0,0
315,-349,0,0,0,0,0,0,0,0,0,-1,1539,1373,0,0
322,-349,0,0,0,0,0,0,0,0,0,-1,1546,1373,0,0
329,-349,0,0,0,0,0,0,0,0,0,-1,1553,1373,0,0
336,-349,0,0,0,0,0,0,0,0,0,-1,1560,1373,0,0
343,-349,0,0,0,0,0,0,0,0,0,-1,1567,1373,0,0
350,-349,0,0,0,0,0,0,0,0,0,-1,1574,1373,0,0
357,-349,0,0,0,0,0,0,0,0,0,-1,1581,1373,0,0
364,-349,0,0,0,0,0,0,0,0,0,-1,1588,1373,0,0
371,-349,0,0,0,0,0,0,0,0,0,-1,1595,1373,0,0
378,-349,0,0,0,0,0,0,0,0,0,-1,1602,1373,0,0
385,-349,0,0,0,0,0,0,0,0,0,-1,1609,1373,0,0
392,-349,0,0,0,0,0,0,0,0,0,-1,1616,1373,0,0
399,-349,0,0,0,0,0,0,0,0,0,-1,1623,1373,0,0
406,-349,0,0,0,0,0,0,0,0,0,-1,1630,1373,0,0
413,-349,0,0,0,0,0,0,0,0,0,-1,1637,1373,0,0
420,-349,0,0,0,0,0,0,0,0,0,-1,1644,1373,0,0
427,-349,0,0,0,0,0,0,0,0,0,-1,1651,1373,0,0
434,-349,0,0,0,0,0,0,0,0,0,-1,1658,1373,0,0
441,-349,0,0,0,0,0,0,0,0,0,-1,1665,1373,0,0
448,-349,0,0,0,0,0,0,0,0,0,-1,1672,1373,0,0
455,-349,0,0,0,0,0,0,0,0,0,-1,1679,1373,0,0
462,-349,0,0,0,0,0,0,0,0,0,-1,1686,1373,0,0
469,-349,0,0,0,0,0,0,0,0,0,-1,1693,1373,0,0
476,-349,0,0,0,0,0,0,0,0,0,-1,1700,1373,0,0
483,-349,0,0,0,0,0,0,0,0,0,-1,1707,1373,0,0
490,-349,0,0,0,0,0,0,0,0,0,-1,1714,1373,0,0
497,-349,0,0,0,0,0,0,0,0,0,-1,1721,1373,0,0
504,-349,0,0,0,0,0,0,0,0,0,-1,1728,1373,0,0
511,-349,0,0,0,0,0,0,0,0,0,-1,1735,1373,0,0
518,-349,0,0,0,0,0,0,0,0,0,-1,1742,1373,0,0
525,-349,0,0,0,0,0,0,0,0,0,-1,1749,1373,0,0
532,-349,0,0,0,0,0,0,0,0,0,-1,1756,1373,0,0
539,-349,0,0,0,0,0,0,0,0,0,-1,1763,1373,0,0
546,-349,0,0,0,0,0,0,0,0,0,-1,1770,1373,0,0
553,-349,0,0,0,0,0,0,0,0,0,-1,1777,1373,0,0
560,-349,27.868,-1.07703,0,0,0,0,0,0,0,-1,1784,1373,27.8681,1.07708
567,-349,36.7175,5.95227,0,0,0,0,0,0,0,-1,1791,1373,36.7176,-5.95222
574,-349,37.0201,4.75085,0,0,0,0,0,0,0,-1,1798,1373,37.0201,-4.75091
581,-349,37.5353,3.49927,0,0,0,0,0,0,0,-1,1805,1373,37.5353,-3.49928
588,-349,33.0247,1.43933,0,0,0,0,0,0,0,-1,1812,1373,33.0247,-1.43931
595,-349,32.3793,4.93115,0,0,0,0,0,0,0,-1,1819,1373,32.3793,-4.9312
602,-349,30.6421,5.56592,0,0,0,0,0,0,0,-1,1826,1373,30.6421,-5.56589
609,-349,28.8674,6.13806,0,0,0,0,0,0,0,-1,1833,1373,28.8674,-6.13809
616,-349,27.1451,6.68274,0,0,0,0,0,0,0,-1,1840,1373,27.1451,-6.6828
623,-349,18.8478,2.75769,0,0,0,0,0,0,0,-1,1847,1373,18.8478,-2.75774
630,-349,15.4948,6.47644,0,0,0,0,0,0,0,-1,1854,1373,15.4947,-6.4765
637,-349,16.5161,6.92639,0,0,0,0,0,0,0,-1,1861,1373,16.5161,-6.92636
644,-349,22.6058,10.2817,0,0,0,0,0,0,0,-1,1868,1373,22.6058,-10.2817
651,-349,22.7271,9.68311,0.00490568,0.000728497,-0.00598046,0.00915176,-0.00351759,-0.617401,0.0075519,0.0290267,1875,1373,22.727,-9.68309
658,-349,22.6045,9.32825,0.00255908,-9.9942e-05,-0.00211727,0.00372966,-0.00127052,-0.505044,0.00300097,0.0260202,1882,1373,22.6045,-9.3282
665,-349,22.5862,8.99353,0.00138934,7.80024e-05,-0.000519386,0.00157013,-0.000102788,-0.334968,0.00108264,0.0186091,1889,1373,22.5862,-8.9935
672,-349,22.5846,8.64612,0.00116533,-0.000259687,-0.000221375,0.00119893,-0.000293286,-0.150621,0.000912891,0.0139884,1896,1373,22.5845,-8.64609
679,-349,22.5835,8.30627,0.00125811,-0.00024591,-3.01426e-05,0.00125871,-0.000246514,-0.0200307,0.00093224,0.0148541,1903,1373,22.5835,-8.30627
686,-349,22.6315,7.97717,0.00142264,-0.000169881,7.75536e-05,0.00142641,-0.000173649,0.0485454,0.00101379,0.0145992,1910,1373,22.6315,-7.97715
693,-349,22.6035,7.61316,0.00190173,-1.33106e-05,8.34659e-05,0.00190536,-1.69415e-05,0.0434745,0.00127592,0.0166823,1917,1373,22.6036,-7.61311
700,-349,22.5695,7.25061,0.00245987,0.000246178,-4.60857e-06,0.00245988,0.000246168,-0.00208184,0.00156433,0.0177937,1924,1373,22.5695,-7.25061
707,-349,22.6282,6.85144,0.00293396,0.000445625,-8.03626e-05,0.00293655,0.000443032,-0.032251,0.001828,0.0311719,1931,1373,22.6282,-6.85146
714,-349,22.7471,6.39685,0,0,0,0,0,0,0,-1,1938,1373,22.7471,-6.39691
721,-349,19.6688,5.93604,0,0,0,0,0,0,0,-1,1945,1373,19.6688,-5.93606
728,-349,18.6333,3.73218,0,0,0,0,0,0,0,-1,1952,1373,18.6333,-3.73214
735,-349,18.1918,3.39954,0,0,0,0,0,0,0,-1,1959,1373,18.1918,-3.3995
742,-349,20.7345,2.07483,0,0,0,0,0,0,0,-1,1966,1373,20.7345,-2.07485
749,-349,21.9037,1.45789,0,0,0,0,0,0,0,-1,1973,1373,21.9037,-1.45788
756,-349,0,0,0,0,0,0,0,0,0,-1,1980,1373,0,0
763,-349,0,0,0,0,0,0,0,0,0,-1,1987,1373,0,0
770,-349,0,0,0,0,0,0,0,0,0,-1,1994,1373,0,0
777,-349,0,0,0,0,0,0,0,0,0,-1,2001,1373,0,0
784,-349,0,0,0,0,0,0,0,0,0,-1,2008,1373,0,0
791,-349,0,0,0,0,0,0,0,0,0,-1,2015,1373,0,0
798,-349,0,0,0,0,0,0,0,0,0,-1,2022,1373,0,0
805,-349,0,0,0,0,0,0,0,0,0,-1,2029,1373,0,0
812,-349,0,0,0,0,0,0,0,0,0,-1,2036,1373,0,0
-700,-356,0,0,0,0,0,0,0,0,0,-1,524,1380,0,0
-693,-356,0,0,0,0,0,0,0,0,0,-1,531,1380,0,0
-686,-356,0,0,0,0,0,0,0,0,0,-1,538,1380,0,0
-679,-356,0,0,0,0,0,0,0,0,0,-1,545,1380,0,0
-672,-356,0,0,0,0,0,0,0,0,0,-1,552,1380,0,0
-665,-356,0,0,0,0,0,0,0,0,0,-1,559,1380,0,0
-658,-356,0,0,0,0,0,0,0,0,0,-1,566,1380,0,0
-651,-356,0,0,0,0,0,0,0,0,0,-1,573,1380,0,0
-644,-356,0,0,0,0,0,0,0,0,0,-1,580,1380,0,0
-637,-356,0,0,0,0,0,0,0,0,0,-1,587,1380,0,0
-630,-356,-8.23126,-5.01917,0,0,0,0,0,0,0,-1,594,1380,-8.23124,5.0192
-623,-356,-0.263855,-0.675781,0,0,0,0,0,0,0,-1,601,1380,-0.263835,0.675841
-616,-356,-8.26532,-3.43945,0,0,0,0,0,0,0,-1,608,1380,-8.2653,3.43948
-609,-356,-4.88483,0.734497,0,0,0,0,0,0,0,-1,615,1380,-4.88485,-0.734532
-602,-356,-9.06635,2.4021,0,0,0,0,0,0,0,-1,622,1380,-9.06634,-2.40206
-595,-356,-8.45703,3.61853,0,0,0,0,0,0,0,-1,629,1380,-8.45706,-3.61848
-588,-356,-9.31738,4.14258,0,0,0,0,0,0,0,-1,636,1380,-9.31736,-4.14255
-581,-356,-10.9316,4.5481,0,0,0,0,0,0,0,-1,643,1380,-10.9316,-4.54809
-574,-356,-10.7166,4.78564,-0.00801473,-0.000942016,-0.00449262,0.00123909,-0.0101958,-1.11883,0.00724566,0.0391505,650,1380,-10.7165,-4.78559
-567,-356,-10.9589,4.99438,-0.00585056,-0.000689284,-0.00338606,0.000987433,-0.00752728,-1.11101,0.00537763,0.018456,657,1380,-10.9589,-4.99435
-560,-356,-10.929,5.41479,-0.00386267,-0.000557479,-0.00242885,0.00072768,-0.00514783,-1.08412,0.00369838,0.0175036,664,1380,-10.9289,-5.41479
-553,-356,-10.9423,5.80237,-0.00185108,-0.000381371,-0.00144176,0.000502011,-0.00273446,-1.02108,0.0020113,0.019612,671,1380,-10.9423,-5.80239
-546,-356,-10.9879,6.1991,0.000228872,-0.000198676,-0.000394263,0.000463587,-0.000433391,-0.536976,0.000517968,0.0218669,678,1380,-10.9879,-6.19912
-539,-356,-10.9987,6.61816,0.00230776,2.20688e-05,0.000669689,0.00248952,-0.000159691,0.265024,0.00171539,0.0157806,685,1380,-10.9986,-6.61815
-532,-356,-10.9929,7.0249,0.00447523,0.000270348,0.00179966,0.00514029,-0.000394707,0.353979,0.00356572,0.01598,692,1380,-10.9929,-7.02485
-525,-356,-10.9844,7.42017,0.00676993,0.000522661,0.00300951,0.00798384,-0.000691243,0.383396,0.0055673,0.0140133,699,1380,-10.9844,-7.42012
-518,-356,-10.9766,7.83203,0.0091964,0.00082082,0.00433991,0.0110396,-0.00102234,0.401617,0.00772307,0.0127567,706,1380,-10.9765,-7.832
-511,-356,-10.7727,8.29639,0.0118293,0.00124461,0.00588289,0.01445,-0.00137616,0.419097,0.0101233,0.0379501,713,1380,-10.7727,-8.29642
-504,-356,-10.5462,8.85742,0,0,0,0,0,0,0,-1,720,1380,-10.5462,-8.85737
-497,-356,-5.68604,4.96387,0,0,0,0,0,0,0,-1,727,1380,-5.68605,-4.96385
-490,-356,-7.95288,5.5625,0,0,0,0,0,0,0,-1,734,1380,-7.95285,-5.56246
-483,-356,-7.2627,4.07446,0,0,0,0,0,0,0,-1,741,1380,-7.2627,-4.07441
-476,-356,-5.1936,4.16016,0,0,0,0,0,0,0,-1,748,1380,-5.1936,-4.16012
-469,-356,-10.0883,0.536011,0,0,0,0,0,0,0,-1,755,1380,-10.0883,-0.535989
-462,-356,-12.3481,-0.215698,0,0,0,0,0,0,0,-1,762,1380,-12.3481,0.215641
-455,-356,-13.1367,-0.264648,0,0,0,0,0,0,0,-1,769,1380,-13.1367,0.264647
-448,-356,-13.9116,-0.310181,0,0,0,0,0,0,0,-1,776,1380,-13.9115,0.310207
-441,-356,-13.1602,3.05603,0,0,0,0,0,0,0,-1,783,1380,-13.1602,-3.05609
-434,-356,0,0,0,0,0,0,0,0,0,-1,790,1380,0,0
-427,-356,0,0,0,0,0,0,0,0,0,-1,797,1380,0,0
-420,-356,0,0,0,0,0,0,0,0,0,-1,804,1380,0,0
-413,-356,0,0,0,0,0,0,0,0,0,-1,811,1380,0,0
-406,-356,0,0,0,0,0,0,0,0,0,-1,818,1380,0,0
-399,-356,0,0,0,0,0,0,0,0,0,-1,825,1380,0,0
-392,-356,0,0,0,0,0,0,0,0,0,-1,832,1380,0,0
-385,-356,0,0,0,0,0,0,0,0,0,-1,839,1380,0,0
-378,-356,0,0,0,0,0,0,0,0,0,-1,846,1380,0,0
-371,-356,0,0,0,0,0,0,0,0,0,-1,853,1380,0,0
-364,-356,0,0,0,0,0,0,0,0,0,-1,860,1380,0,0
-357,-356,0,0,0,0,0,0,0,0,0,-1,867,1380,0,0
-350,-356,0,0,0,0,0,0,0,0,0,-1,874,1380,0,0
-343,-356,0,0,0,0,0,0,0,0,0,-1,881,1380,0,0
-336,-356,0,0,0,0,0,0,0,0,0,-1,888,1380,0,0
-329,-356,0,0,0,0,0,0,0,0,0,-1,895,1380,0,0
-322,-356,0,0,0,0,0,0,0,0,0,-1,902,1380,0,0
-315,-356,0,0,0,0,0,0,0,0,0,-1,909,1380,0,0
-308,-356,0,0,0,0,0,0,0,0,0,-1,916,1380,0,0
-301,-356,0,0,0,0,0,0,0,0,0,-1,923,1380,0,0
-294,-356,0,0,0,0,0,0,0,0,0,-1,930,1380,0,0
-287,-356,0,0,0,0,0,0,0,0,0,-1,937,1380,0,0
-280,-356,0,0,0,0,0,0,0,0,0,-1,944,1380,0,0
-273,-356,0,0,0,0,0,0,0,0,0,-1,951,1380,0,0
-266,-356,0,0,0,0,0,0,0,0,0,-1,958,1380,0,0
-259,-356,0,0,0,0,0,0,0,0,0,-1,965,1380,0,0
-252,-356,0,0,0,0,0,0,0,0,0,-1,972,1380,0,0
-245,-356,0,0,0,0,0,0,0,0,0,-1,979,1380,0,0
-238,-356,0,0,0,0,0,0,0,0,0,-1,986,1380,0,0
-231,-356,0,0,0,0,0,0,0,0,0,-1,993,1380,0,0
-224,-356,0,0,0,0,0,0,0,0,0,-1,1000,1380,0,0
-217,-356,0,0,0,0,0,0,0,0,0,-1,1007,1380,0,0
-210,-356,0,0,0,0,0,0,0,0,0,-1,1014,1380,0,0
-203,-356,0,0,0,0,0,0,0,0,0,-1,1021,1380,0,0
-196,-356,0,0,0,0,0,0,0,0,0,-1,1028,1380,0,0
-189,-356,0,0,0,0,0,0,0,0,0,-1,1035,1380,0,0
-182,-356,0,0,0,0,0,0,0,0,0,-1,1042,1380,0,0
-175,-356,0,0,0,0,0,0,0,0,0,-1,1049,1380,0,0
-168,-356,0,0,0,0,0,0,0,0,0,-1,1056,1380,0,0
-161,-356,0,0,0,0,0,0,0,0,0,-1,1063,1380,0,0
-154,-356,0,0,0,0,0,0,0,0,0,-1,1070,1380,0,0
-147,-356,0,0,0,0,0,0,0,0,0,-1,1077,1380,0,0
-140,-356,0,0,0,0,0,0,0,0,0,-1,1084,1380,0,0
-133,-356,0,0,0,0,0,0,0,0,0,-1,1091,1380,0,0
-126,-356,0,0,0,0,0,0,0,0,0,-1,1098,1380,0,0
-119,-356,0,0,0,0,0,0,0,0,0,-1,1105,1380,0,0
-112,-356,0,0,0,0,0,0,0,0,0,-1,1112,1380,0,0
-105,-356,0,0,0,0,0,0,0,0,0,-1,1119,1380,0,0
-98,-356,0,0,0,0,0,0,0,0,0,-1,1126,1380,0,0
-91,-356,0,0,0,0,0,0,0,0,0,-1,1133,1380,0,0
-84,-356,0,0,0,0,0,0,0,0,0,-1,1140,1380,0,0
-77,-356,0,0,0,0,0,0,0,0,0,-1,1147,1380,0,0
-70,-356,0,0,0,0,0,0,0,0,0,-1,1154,1380,0,0
-63,-356,0,0,0,0,0,0,0,0,0,-1,1161,1380,0,0
-56,-356,0,0,0,0,0,0,0,0,0,-1,1168,1380,0,0
-49,-356,0,0,0,0,0,0,0,0,0,-1,1175,1380,0,0
-42,-356,0,0,0,0,0,0,0,0,0,-1,1182,1380,0,0
-35,-356,0,0,0,0,0,0,0,0,0,-1,1189,1380,0,0
-28,-356,0,0,0,0,0,0,0,0,0,-1,1196,1380,0,0
-21,-356,0,0,0,0,0,0,0,0,0,-1,1203,1380,0,0
-14,-356,0,0,0,0,0,0,0,0,0,-1,1210,1380,0,0
-7,-356,0,0,0,0,0,0,0,0,0,-1,1217,1380,0,0
0,-356,0,0,0,0,0,0,0,0,0,-1,1224,1380,0,0
7,-356,0,0,0,0,0,0,0,0,0,-1,1231,1380,0,0
14,-356,0,0,0,0,0,0,0,0,0,-1,1238,1380,0,0
21,-356,0,0,0,0,0,0,0,0,0,-1,1245,1380,0,0
28,-356,0,0,0,0,0,0,0,0,0,-1,1252,1380,0,0
35,-356,0,0,0,0,0,0,0,0,0,-1,1259,1380,0,0
42,-356,0,0,0,0,0,0,0,0,0,-1,1266,1380,0,0
49,-356,0,0,0,0,0,0,0,0,0,-1,1273,1380,0,0
56,-356,0,0,0,0,0,0,0,0,0,-1,1280,1380,0,0
63,-356,0,0,0,0,0,0,0,0,0,-1,1287,1380,0,0
70,-356,0,0,0,0,0,0,0,0,0,-1,1294,1380,0,0
77,-356,0,0,0,0,0,0,0,0,0,-1,1301,1380,0,0
84,-356,0,0,0,0,0,0,0,0,0,-1,1308,1380,0,0
91,-356,0,0,0,0,0,0,0,0,0,-1,1315,1380,0,0
98,-356,0,0,0,0,0,0,0,0,0,-1,1322,1380,0,0
105,-356,0,0,0,0,0,0,0,0,0,-1,1329,1380,0,0
112,-356,0,0,0,0,0,0,0,0,0,-1,1336,1380,0,0
119,-356,0,0,0,0,0,0,0,0,0,-1,1343,1380,0,0
126,-356,0,0,0,0,0,0,0,0,0,-1,1350,1380,0,0
133,-356,0,0,0,0,0,0,0,0,0,-1,1357,1380,0,0
140,-356,0,0,0,0,0,0,0,0,0,-1,1364,1380,0,0
147,-356,0,0,0,0,0,0,0,0,0,-1,1371,1380,0,0
154,-356,0,0,0,0,0,0,0,0,0,-1,1378,1380,0,0
161,-356,0,0,0,0,0,0,0,0,0,-1,1385,1380,0,0
168,-356,0,0,0,0,0,0,0,0,0,-1,1392,1380,0,0
175,-356,0,0,0,0,0,0,0,0,0,-1,1399,1380,0,0
182,-356,0,0,0,0,0,0,0,0,0,-1,1406,1380,0,0
189,-356,0,0,0,0,0,0,0,0,0,-1,1413,1380,0,0
196,-356,0,0,0,0,0,0,0,0,0,-1,1420,1380,0,0
203,-356,0,0,0,0,0,0,0,0,0,-1,1427,1380,0,0
210,-356,0,0,0,0,0,0,0,0,0,-1,1434,1380,0,0
217,-356,0,0,0,0,0,0,0,0,0,-1,1441,1380,0,0
224,-356,0,0,0,0,0,0,0,0,0,-1,1448,1380,0,0
231,-356,0,0,0,0,0,0,0,0,0,-1,1455,1380,0,0
238,-356,0,0,0,0,0,0,0,0,0,-1,1462,1380,0,0
245,-356,0,0,0,0,0,0,0,0,0,-1,1469,1380,0,0
252,-356,0,0,0,0,0,0,0,0,0,-1,1476,1380,0,0
259,-356,0,0,0,0,0,0,0,0,0,-1,1483,1380,0,0
266,-356,0,0,0,0,0,0,0,0,0,-1,1490,1380,0,0
273,-356,0,0,0,0,0,0,0,0,0,-1,1497,1380,0,0
280,-356,0,0,0,0,0,0,0,0,0,-1,1504,1380,0,0
287,-356,0,0,0,0,0,0,0,0,0,-1,1511,1380,0,0
294,-356,0,0,0,0,0,0,0,0,0,-1,1518,1380,0,0
301,-356,0,0,0,0,0,0,0,0,0,-1,1525,1380,0,0
308,-356,0,0,0,0,0,0,0,0,0,-1,1532,1380,0,0
315,-356,0,0,0,0,0,0,0,0,0,-1,1539,1380,0,0
322,-356,0,0,0,0,0,0,0,0,0,-1,1546,1380,0,0
329,-356,0,0,0,0,0,0,0,0,0,-1,1553,1380,0,0
336,-356,0,0,0,0,0,0,0,0,0,-1,1560,1380,0,0
343,-356,0,0,0,0,0,0,0,0,0,-1,1567,1380,0,0
350,-356,0,0,0,0,0,0,0,0,0,-1,1574,1380,0,0
357,-356,0,0,0,0,0,0,0,0,0,-1,1581,1380,0,0
364,-356,0,0,0,0,0,0,0,0,0,-1,1588,1380,0,0
371,-356,0,0,0,0,0,0,0,0,0,-1,1595,1380,0,0
378,-356,0,0,0,0,0,0,0,0,0,-1,1602,1380,0,0
385,-356,0,0,0,0,0,0,0,0,0,-1,1609,1380,0,0
392,-356,0,0,0,0,0,0,0,0,0,-1,1616,1380,0,0
399,-356,0,0,0,0,0,0,0,0,0,-1,1623,1380,0,0
406,-356,0,0,0,0,0,0,0,0,0,-1,1630,1380,0,0
413,-356,0,0,0,0,0,0,0,0,0,-1,1637,1380,0,0
420,-356,0,0,0,0,0,0,0,0,0,-1,1644,1380,0,0
427,-356,0,0,0,0,0,0,0,0,0,-1,1651,1380,0,0
434,-356,0,0,0,0,0,0,0,0,0,-1,1658,1380,0,0
441,-356,0,0,0,0,0,0,0,0,0,-1,1665,1380,0,0
448,-356,0,0,0,0,0,0,0,0,0,-1,1672,1380,0,0
455,-356,0,0,0,0,0,0,0,0,0,-1,1679,1380,0,0
462,-356,0,0,0,0,0,0,0,0,0,-1,1686,1380,0,0
469,-356,0,0,0,0,0,0,0,0,0,-1,1693,1380,0,0
476,-356,0,0,0,0,0,0,0,0,0,-1,1700,1380,0,0
483,-356,0,0,0,0,0,0,0,0,0,-1,1707,1380,0,0
490,-356,0,0,0,0,0,0,0,0,0,-1,1714,1380,0,0
497,-356,0,0,0,0,0,0,0,0,0,-1,1721,1380,0,0
504,-356,0,0,0,0,0,0,0,0,0,-1,1728,1380,0,0
511,-356,0,0,0,0,0,0,0,0,0,-1,1735,1380,0,0
518,-356,0,0,0,0,0,0,0,0,0,-1,1742,1380,0,0
525,-356,0,0,0,0,0,0,0,0,0,-1,1749,1380,0,0
532,-356,0,0,0,0,0,0,0,0,0,-1,1756,1380,0,0
539,-356,0,0,0,0,0,0,0,0,0,-1,1763,1380,0,0
546,-356,0,0,0,0,0,0,0,0,0,-1,1770,1380,0,0
553,-356,0,0,0,0,0,0,0,0,0,-1,1777,1380,0,0
560,-356,27.4741,2.35632,0,0,0,0,0,0,0,-1,1784,1380,27.4741,-2.35628
567,-356,30.0057,-0.38623,0,0,0,0,0,0,0,-1,1791,1380,30.0058,0.386207
574,-356,37.5858,4.53564,0,0,0,0,0,0,0,-1,1798,1380,37.5858,-4.53559
581,-356,31.9545,0.788452,0,0,0,0,0,0,0,-1,1805,1380,31.9545,-0.788436
588,-356,32.496,1.32678,0,0,0,0,0,0,0,-1,1812,1380,32.496,-1.32676
595,-356,32.0834,5.86084,0,0,0,0,0,0,0,-1,1819,1380,32.0834,-5.86079
602,-356,30.1604,6.07104,0,0,0,0,0,0,0,-1,1826,1380,30.1604,-6.07104
609,-356,28.3435,6.48901,0,0,0,0,0,0,0,-1,1833,1380,28.3435,-6.48899
616,-356,26.9358,6.80872,0,0,0,0,0,0,0,-1,1840,1380,26.9358,-6.80877
623,-356,16.1803,1.07532,0,0,0,0,0,0,0,-1,1847,1380,16.1803,-1.07529
630,-356,16.4138,6.91553,0,0,0,0,0,0,0,-1,1854,1380,16.4138,-6.9155
637,-356,22.182,10.8899,0,0,0,0,0,0,0,-1,1861,1380,22.182,-10.8899
644,-356,22.2272,10.2174,0.00636226,0.00159831,-0.0099635,0.0142246,-0.00626399,-0.668065,0.012123,0.0441707,1868,1380,22.2271,-10.2174
651,-356,22.3013,9.68677,0.0032085,0.000338805,-0.00437884,0.00638158,-0.00283428,-0.627072,0.00545058,0.0174591,1875,1380,22.3013,-9.68681
658,-356,22.2471,9.30127,0.0018341,-0.00016185,-0.00158427,0.00270852,-0.00103627,-0.504331,0.00223276,0.0150324,1882,1380,22.2471,-9.30132
665,-356,22.25,8.9856,0.00137407,-7.85323e-05,-0.000520083,0.00154107,-0.00024554,-0.310716,0.00111825,0.0134819,1889,1380,22.25,-8.98557
672,-356,22.2257,8.66602,0.001335,-0.00015522,-0.00018427,0.00135745,-0.000177667,-0.12122,0.000969629,0.0144963,1896,1380,22.2257,-8.66596
679,-356,22.2202,8.31079,0.00140189,-0.000201775,5.46575e-05,0.00140375,-0.000203636,0.0340302,0.00101057,0.0176243,1903,1380,22.2202,-8.31081
686,-356,22.2203,7.96057,0.00156703,-0.000194113,0.000205563,0.00159071,-0.000217788,0.114668,0.00114002,0.0174558,1910,1380,22.2203,-7.96058
693,-356,22.2539,7.62744,0.00206772,-9.05457e-05,0.000227999,0.00209154,-0.000114369,0.104109,0.00143401,0.0149241,1917,1380,22.254,-7.62748
700,-356,22.2573,7.24792,0.00270937,0.000147744,0.000133591,0.00271632,0.000140796,0.0519629,0.00176582,0.0204061,1924,1380,22.2573,-7.24793
707,-356,22.3048,6.85803,0,0,0,0,0,0,0,-1,1931,1380,22.3049,-6.85809
714,-356,19.6907,5.82129,0,0,0,0,0,0,0,-1,1938,1380,19.6907,-5.82132
721,-356,17.2948,4.1958,0,0,0,0,0,0,0,-1,1945,1380,17.2948,-4.19584
728,-356,19.1846,2.31519,0,0,0,0,0,0,0,-1,1952,1380,19.1846,-2.31514
735,-356,20.0731,2.50842,0,0,0,0,0,0,0,-1,1959,1380,20.0731,-2.50844
742,-356,21.0111,2.43762,0,0,0,0,0,0,0,-1,1966,1380,21.0112,-2.43762
749,-356,22.1411,1.83276,0,0,0,0,0,0,0,-1,1973,1380,22.1411,-1.83275
756,-356,0,0,0,0,0,0,0,0,0,-1,1980,1380,0,0
763,-356,0,0,0,0,0,0,0,0,0,-1,1987,1380,0,0
770,-356,0,0,0,0,0,0,0,0,0,-1,1994,1380,0,0
777,-356,0,0,0,0,0,0,0,0,0,-1,2001,1380,0,0
784,-356,0,0,0,0,0,0,0,0,0,-1,2008,1380,0,0
791,-356,0,0,0,0,0,0,0,0,0,-1,2015,1380,0,0
798,-356,0,0,0,0,0,0,0,0,0,-1,2022,1380,0,0
805,-356,0,0,0,0,0,0,0,0,0,-1,2029,1380,0,0
812,-356,0,0,0,0,0,0,0,0,0,-1,2036,1380,0,0
-700,-363,0,0,0,0,0,0,0,0,0,-1,524,1387,0,0
-693,-363,0,0,0,0,0,0,0,0,0,-1,531,1387,0,0
-686,-363,0,0,0,0,0,0,0,0,0,-1,538,1387,0,0
-679,-363,0,0,0,0,0,0,0,0,0,-1,545,1387,0,0
-672,-363,0,0,0,0,0,0,0,0,0,-1,552,1387,0,0
-665,-363,0,0,0,0,0,0,0,0,0,-1,559,1387,0,0
-658,-363,0,0,0,0,0,0,0,0,0,-1,566,1387,0,0
-651,-363,0,0,0,0,0,0,0,0,0,-1,573,1387,0,0
-644,-363,0,0,0,0,0,0,0,0,0,-1,580,1387,0,0
-637,-363,0,0,0,0,0,0,0,0,0,-1,587,1387,0,0
-630,-363,0,0,0,0,0,0,0,0,0,-1,594,1387,0,0
-623,-363,-9.67566,-5.91846,0,0,0,0,0,0,0,-1,601,1387,-9.67563,5.91847
-616,-363,-9.02985,-2.98083,0,0,0,0,0,0,0,-1,608,1387,-9.02987,2.98079
-609,-363,-4.90265,0.195679,0,0,0,0,0,0,0,-1,615,1387,-4.90263,-0.195721
-602,-363,-9.65009,3.5321,0,0,0,0,0,0,0,-1,622,1387,-9.65007,-3.53211
-595,-363,-8.00256,3.48853,0,0,0,0,0,0,0,-1,629,1387,-8.00256,-3.48855
-588,-363,-9.48242,3.43115,0,0,0,0,0,0,0,-1,636,1387,-9.4824,-3.43121
-581,-363,-9.90039,4.3053,0,0,0,0,0,0,0,-1,643,1387,-9.90036,-4.30528
-574,-363,-10.3671,4.91418,0,0,0,0,0,0,0,-1,650,1387,-10.3671,-4.9142
-567,-363,-10.5494,5.04846,-0.00780421,-0.000763527,-0.0041909,0.00118938,-0.00975712,-1.13473,0.00693529,0.0312841,657,1387,-10.5494,-5.04842
-560,-363,-10.5417,5.40405,-0.00540557,-0.000646073,-0.00309295,0.000876684,-0.00692832,-1.1133,0.00493712,0.013643,664,1387,-10.5417,-5.40402
-553,-363,-10.5311,5.81628,-0.00313288,-0.000471942,-0.00201123,0.000609058,-0.00421388,-1.07761,0.00303273,0.0131813,671,1387,-10.5311,-5.81632
-546,-363,-10.5591,6.2113,-0.000903365,-0.000276523,-0.000912753,0.000375121,-0.00155501,-0.950781,0.00118173,0.0132165,678,1387,-10.5591,-6.21126
-539,-363,-10.5363,6.6261,0.00127562,-3.7693e-05,0.00019241,0.00130323,-6.53021e-05,0.142518,0.000891384,0.0152171,685,1387,-10.5362,-6.62605
-532,-363,-10.5639,7.03796,0.00347416,0.000244922,0.0013462,0.00396174,-0.000242659,0.347494,0.00272565,0.0136328,692,1387,-10.5639,-7.03802
-525,-363,-10.569,7.41772,0.00570997,0.000526337,0.00254969,0.00675387,-0.000517563,0.388603,0.00468464,0.0119692,699,1387,-10.5689,-7.41776
-518,-363,-10.5604,7.82642,0.00798764,0.000859949,0.00383811,0.00966136,-0.000813772,0.411217,0.00672859,0.0102892,706,1387,-10.5604,-7.82644
-511,-363,-10.5151,8.26172,0.0103935,0.00129934,0.00529051,0.0128225,-0.00112964,0.430413,0.00894866,0.0203245,713,1387,-10.5151,-8.26171
-504,-363,-10.4437,8.71777,0,0,0,0,0,0,0,-1,720,1387,-10.4437,-8.71773
-497,-363,-7.18842,7.29944,0,0,0,0,0,0,0,-1,727,1387,-7.18839,-7.29945
-490,-363,-5.42413,4.6958,0,0,0,0,0,0,0,-1,734,1387,-5.42412,-4.69583
-483,-363,-6.28375,4.1394,0,0,0,0,0,0,0,-1,741,1387,-6.28374,-4.13944
-476,-363,-5.83807,4.31018,0,0,0,0,0,0,0,-1,748,1387,-5.8381,-4.31013
-469,-363,-10.7125,0.697754,0,0,0,0,0,0,0,-1,755,1387,-10.7125,-0.697811
-462,-363,-9.55951,-0.0830078,0,0,0,0,0,0,0,-1,762,1387,-9.55949,0.0830163
-455,-363,-13.1008,-0.290894,0,0,0,0,0,0,0,-1,769,1387,-13.1008,0.290921
-448,-363,-11.7324,2.46606,0,0,0,0,0,0,0,-1,776,1387,-11.7324,-2.46605
-441,-363,-12.4464,2.5354,0,0,0,0,0,0,0,-1,783,1387,-12.4463,-2.53537
-434,-363,-13.6918,2.14661,0,0,0,0,0,0,0,-1,790,1387,-13.6918,-2.14662
-427,-363,0,0,0,0,0,0,0,0,0,-1,797,1387,0,0
-420,-363,0,0,0,0,0,0,0,0,0,-1,804,1387,0,0
-413,-363,0,0,0,0,0,0,0,0,0,-1,811,1387,0,0
-406,-363,0,0,0,0,0,0,0,0,0,-1,818,1387,0,0
-399,-363,0,0,0,0,0,0,0,0,0,-1,825,1387,0,0
-392,-363,0,0,0,0,0,0,0,0,0,-1,832,1387,0,0
-385,-363,0,0,0,0,0,0,0,0,0,-1,839,1387,0,0
-378,-363,0,0,0,0,0,0,0,0,0,-1,846,1387,0,0
-371,-363,0,0,0,0,0,0,0,0,0,-1,853,1387,0,0
-364,-363,0,0,0,0,0,0,0,0,0,-1,860,1387,0,0
-357,-363,0,0,0,0,0,0,0,0,0,-1,867,1387,0,0
-350,-363,0,0,0,0,0,0,0,0,0,-1,874,1387,0,0
-343,-363,0,0,0,0,0,0,0,0,0,-1,881,1387,0,0
-336,-363,0,0,0,0,0,0,0,0,0,-1,888,1387,0,0
-329,-363,0,0,0,0,0,0,0,0,0,-1,895,1387,0,0
-322,-363,0,0,0,0,0,0,0,0,0,-1,902,1387,0,0
-315,-363,0,0,0,0,0,0,0,0,0,-1,909,1387,0,0
-308,-363,0,0,0,0,0,0,0,0,0,-1,916,1387,0,0
-301,-363,0,0,0,0,0,0,0,0,0,-1,923,1387,0,0
-294,-363,0,0,0,0,0,0,0,0,0,-1,930,1387,0,0
-287,-363,0,0,0,0,0,0,0,0,0,-1,937,1387,0,0
-280,-363,0,0,0,0,0,0,0,0,0,-1,944,1387,0,0
-273,-363,0,0,0,0,0,0,0,0,0,-1,951,1387,0,0
-266,-363,0,0,0,0,0,0,0,0,0,-1,958,1387,0,0
-259,-363,0,0,0,0,0,0,0,0,0,-1,965,1387,0,0
-252,-363,0,0,0,0,0,0,0,0,0,-1,972,1387,0,0
-245,-363,0,0,0,0,0,0,0,0,0,-1,979,1387,0,0
-238,-363,0,0,0,0,0,0,0,0,0,-1,986,1387,0,0
-231,-363,0,0,0,0,0,0,0,0,0,-1,993,1387,0,0
-224,-363,0,0,0,0,0,0,0,0,0,-1,1000,1387,0,0
-217,-363,0,0,0,0,0,0,0,0,0,-1,1007,1387,0,0
-210,-363,0,0,0,0,0,0,0,0,0,-1,1014,1387,0,0
-203,-363,0,0,0,0,0,0,0,0,0,-1,1021,1387,0,0
-196,-363,0,0,0,0,0,0,0,0,0,-1,1028,1387,0,0
-189,-363,0,0,0,0,0,0,0,0,0,-1,1035,1387,0,0
-182,-363,0,0,0,0,0,0,0,0,0,-1,1042,1387,0,0
-175,-363,0,0,0,0,0,0,0,0,0,-1,1049,1387,0,0
-168,-363,0,0,0,0,0,0,0,0,0,-1,1056,1387,0,0
-161,-363,0,0,0,0,0,0,0,0,0,-1,1063,1387,0,0
-154,-363,0,0,0,0,0,0,0,0,0,-1,1070,1387,0,0
-147,-363,0,0,0,0,0,0,0,0,0,-1,1077,1387,0,0
-140,-363,0,0,0,0,0,0,0,0,0,-1,1084,1387,0,0
-133,-363,0,0,0,0,0,0,0,0,0,-1,1091,1387,0,0
-126,-363,0,0,0,0,0,0,0,0,0,-1,1098,1387,0,0
-119,-363,0,0,0,0,0,0,0,0,0,-1,1105,1387,0,0
-112,-363,0,0,0,0,0,0,0,0,0,-1,1112,1387,0,0
-105,-363,0,0,0,0,0,0,0,0,0,-1,1119,1387,0,0
-98,-363,0,0,0,0,0,0,0,0,0,-1,1126,1387,0,0
-91,-363,0,0,0,0,0,0,0,0,0,-1,1133,1387,0,0
-84,-363,0,0,0,0,0,0,0,0,0,-1,1140,1387,0,0
-77,-363,0,0,0,0,0,0,0,0,0,-1,1147,1387,0,0
-70,-363,0,0,0,0,0,0,0,0,0,-1,1154,1387,0,0
-63,-363,0,0,0,0,0,0,0,0,0,-1,1161,1387,0,0
-56,-363,0,0,0,0,0,0,0,0,0,-1,1168,1387,0,0
-49,-363,0,0,0,0,0,0,0,0,0,-1,1175,1387,0,0
-42,-363,0,0,0,0,0,0,0,0,0,-1,1182,1387,0,0
-35,-363,0,0,0,0,0,0,0,0,0,-1,1189,1387,0,0
-28,-363,0,0,0,0,0,0,0,0,0,-1,1196,1387,0,0
-21,-363,0,0,0,0,0,0,0,0,0,-1,1203,1387,0,0
-14,-363,0,0,0,0,0,0,0,0,0,-1,1210,1387,0,0
-7,-363,0,0,0,0,0,0,0,0,0,-1,1217,1387,0,0
0,-363,0,0,0,0,0,0,0,0,0,-1,1224,1387,0,0
7,-363,0,0,0,0,0,0,0,0,0,-1,1231,1387,0,0
14,-363,0,0,0,0,0,0,0,0,0,-1,1238,1387,0,0
21,-363,0,0,0,0,0,0,0,0,0,-1,1245,1387,0,0
28,-363,0,0,0,0,0,0,0,0,0,-1,1252,1387,0,0
35,-363,0,0,0,0,0,0,0,0,0,-1,1259,1387,0,0
42,-363,0,0,0,0,0,0,0,0,0,-1,1266,1387,0,0
49,-363,0,0,0,0,0,0,0,0,0,-1,1273,1387,0,0
56,-363,0,0,0,0,0,0,0,0,0,-1,1280,1387,0,0
63,-363,0,0,0,0,0,0,0,0,0,-1,1287,1387,0,0
70,-363,0,0,0,0,0,0,0,0,0,-1,1294,1387,0,0
77,-363,0,0,0,0,0,0,0,0,0,-1,1301,1387,0,0
84,-363,0,0,0,0,0,0,0,0,0,-1,1308,1387,0,0
91,-363,0,0,0,0,0,0,0,0,0,-1,1315,1387,0,0
98,-363,0,0,0,0,0,0,0,0,0,-1,1322,1387,0,0
105,-363,0,0,0,0,0,0,0,0,0,-1,1329,1387,0,0
112,-363,0,0,0,0,0,0,0,0,0,-1,1336,1387,0,0
119,-363,0,0,0,0,0,0,0,0,0,-1,1343,1387,0,0
126,-363,0,0,0,0,0,0,0,0,0,-1,1350,1387,0,0
133,-363,0,0,0,0,0,0,0,0,0,-1,1357,1387,0,0
140,-363,0,0,0,0,0,0,0,0,0,-1,1364,1387,0,0
147,-363,0,0,0,0,0,0,0,0,0,-1,1371,1387,0,0
154,-363,0,0,0,0,0,0,0,0,0,-1,1378,1387,0,0
161,-363,0,0,0,0,0,0,0,0,0,-1,1385,1387,0,0
168,-363,0,0,0,0,0,0,0,0,0,-1,1392,1387,0,0
175,-363,0,0,0,0,0,0,0,0,0,-1,1399,1387,0,0
182,-363,0,0,0,0,0,0,0,0,0,-1,1406,1387,0,0
189,-363,0,0,0,0,0,0,0,0,0,-1,1413,1387,0,0
196,-363,0,0,0,0,0,0,0,0,0,-1,1420,1387,0,0
203,-363,0,0,0,0,0,0,0,0,0,-1,1427,1387,0,0
210,-363,0,0,0,0,0,0,0,0,0,-1,1434,1387,0,0
217,-363,0,0,0,0,0,0,0,0,0,-1,1441,1387,0,0
224,-363,0,0,0,0,0,0,0,0,0,-1,1448,1387,0,0
231,-363,0,0,0,0,0,0,0,0,0,-1,1455,1387,0,0
238,-363,0,0,0,0,0,0,0,0,0,-1,1462,1387,0,0
245,-363,0,0,0,0,0,0,0,0,0,-1,1469,1387,0,0
252,-363,0,0,0,0,0,0,0,0,0,-1,1476,1387,0,0
259,-363,0,0,0,0,0,0,0,0,0,-1,1483,1387,0,0
266,-363,0,0,0,0,0,0,0,0,0,-1,1490,1387,0,0
273,-363,0,0,0,0,0,0,0,0,0,-1,1497,1387,0,0
280,-363,0,0,0,0,0,0,0,0,0,-1,1504,1387,0,0
287,-363,0,0,0,0,0,0,0,0,0,-1,1511,1387,0,0
294,-363,0,0,0,0,0,0,0,0,0,-1,1518,1387,0,0
301,-363,0,0,0,0,0,0,0,0,0,-1,1525,1387,0,0
308,-363,0,0,0,0,0,0,0,0,0,-1,1532,1387,0,0
315,-363,0,0,0,0,0,0,0,0,0,-1,1539,1387,0,0
322,-363,0,0,0,0,0,0,0,0,0,-1,1546,1387,0,0
329,-363,0,0,0,0,0,0,0,0,0,-1,1553,1387,0,0
336,-363,0,0,0,0,0,0,0,0,0,-1,1560,1387,0,0
343,-363,0,0,0,0,0,0,0,0,0,-1,1567,1387,0,0
350,-363,0,0,0,0,0,0,0,0,0,-1,1574,1387,0,0
357,-363,0,0,0,0,0,0,0,0,0,-1,1581,1387,0,0
364,-363,0,0,0,0,0,0,0,0,0,-1,1588,1387,0,0
371,-363,0,0,0,0,0,0,0,0,0,-1,1595,1387,0,0
378,-363,0,0,0,0,0,0,0,0,0,-1,1602,1387,0,0
385,-363,0,0,0,0,0,0,0,0,0,-1,1609,1387,0,0
392,-363,0,0,0,0,0,0,0,0,0,-1,1616,1387,0,0
399,-363,0,0,0,0,0,0,0,0,0,-1,1623,1387,0,0
406,-363,0,0,0,0,0,0,0,0,0,-1,1630,1387,0,0
413,-363,0,0,0,0,0,0,0,0,0,-1,1637,1387,0,0
420,-363,0,0,0,0,0,0,0,0,0,-1,1644,1387,0,0
427,-363,0,0,0,0,0,0,0,0,0,-1,1651,1387,0,0
434,-363,0,0,0,0,0,0,0,0,0,-1,1658,1387,0,0
441,-363,0,0,0,0,0,0,0,0,0,-1,1665,1387,0,0
448,-363,0,0,0,0,0,0,0,0,0,-1,1672,1387,0,0
455,-363,0,0,0,0,0,0,0,0,0,-1,1679,1387,0,0
462,-363,0,0,0,0,0,0,0,0,0,-1,1686,1387,0,0
469,-363,0,0,0,0,0,0,0,0,0,-1,1693,1387,0,0
476,-363,0,0,0,0,0,0,0,0,0,-1,1700,1387,0,0
483,-363,0,0,0,0,0,0,0,0,0,-1,1707,1387,0,0
490,-363,0,0,0,0,0,0,0,0,0,-1,1714,1387,0,0
497,-363,0,0,0,0,0,0,0,0,0,-1,1721,1387,0,0
504,-363,0,0,0,0,0,0,0,0,0,-1,1728,1387,0,0
511,-363,0,0,0,0,0,0,0,0,0,-1,1735,1387,0,0
518,-363,0,0,0,0,0,0,0,0,0,-1,1742,1387,0,0
525,-363,0,0,0,0,0,0,0,0,0,-1,1749,1387,0,0
532,-363,0,0,0,0,0,0,0,0,0,-1,1756,1387,0,0
539,-363,0,0,0,0,0,0,0,0,0,-1,1763,1387,0,0
546,-363,0,0,0,0,0,0,0,0,0,-1,1770,1387,0,0
553,-363,26.4719,2.09753,0,0,0,0,0,0,0,-1,1777,1387,26.472,-2.09757
560,-363,27.1924,2.3584,0,0,0,0,0,0,0,-1,1784,1387,27.1924,-2.35836
567,-363,27.807,2.3446,0,0,0,0,0,0,0,-1,1791,1387,27.807,-2.34464
574,-363,32.0331,0.156006,0,0,0,0,0,0,0,-1,1798,1387,32.0331,-0.155952
581,-363,31.9629,1.03845,0,0,0,0,0,0,0,-1,1805,1387,31.9629,-1.03847
588,-363,32.5608,6.72131,0,0,0,0,0,0,0,-1,1812,1387,32.5608,-6.72131
595,-363,31.4688,6.95435,0,0,0,0,0,0,0,-1,1819,1387,31.4688,-6.95431
602,-363,25.7437,5.33667,0,0,0,0,0,0,0,-1,1826,1387,25.7437,-5.33667
609,-363,27.7048,7.06885,0,0,0,0,0,0,0,-1,1833,1387,27.7048,-7.06882
616,-363,16.229,1.08704,0,0,0,0,0,0,0,-1,1840,1387,16.229,-1.08706
623,-363,15.7283,7.16663,0,0,0,0,0,0,0,-1,1847,1387,15.7282,-7.16665
630,-363,18.3192,9.27844,0,0,0,0,0,0,0,-1,1854,1387,18.3192,-9.27843
637,-363,21.8512,10.6061,0,0,0,0,0,0,0,-1,1861,1387,21.8512,-10.6061
644,-363,21.889,10.1487,0.00453395,0.00207092,-0.00639088,0.00981089,-0.00320602,-0.690215,0.00783116,0.0139673,1868,1387,21.8891,-10.1487
651,-363,21.9147,9.74451,0.00248429,0.000734551,-0.00273078,0.00447692,-0.00125808,-0.630378,0.00348061,0.0116784,1875,1387,21.9147,-9.74454
658,-363,21.9196,9.36475,0.00181106,0.000155806,-0.00116095,0.00240918,-0.000442317,-0.475736,0.00177206,0.0124233,1882,1387,21.9195,-9.3648
665,-363,21.9006,9.03442,0.00159036,-3.20456e-06,-0.00050908,0.00173911,-0.000151951,-0.284273,0.00121323,0.0113861,1889,1387,21.9006,-9.03441
672,-363,21.879,8.6947,0.00153161,-0.0001363,-0.000141991,0.00154361,-0.000148301,-0.0843225,0.0010819,0.0122802,1896,1387,21.879,-8.69465
679,-363,21.8715,8.33667,0.00160593,-0.000230413,0.000128076,0.00161482,-0.000239302,0.0692977,0.00116454,0.0145445,1903,1387,21.8715,-8.33671
686,-363,21.8677,7.97034,0.00179396,-0.000287978,0.000313927,0.00184026,-0.000334284,0.146449,0.00135211,0.0148414,1910,1387,21.8677,-7.9703
693,-363,21.865,7.59387,0.00219172,-0.000249904,0.000356733,0.00224277,-0.000300957,0.142147,0.00160494,0.0136376,1917,1387,21.865,-7.59381
700,-363,21.978,7.19604,0.00280457,-4.12699e-05,0.000254196,0.0028271,-6.37969e-05,0.0883897,0.00190635,0.0230296,1924,1387,21.9781,-7.19603
707,-363,22.1895,6.83533,0,0,0,0,0,0,0,-1,1931,1387,22.1895,-6.83527
714,-363,16.5782,5.3147,0,0,0,0,0,0,0,-1,1938,1387,16.5783,-5.31472
721,-363,14.4045,4.51685,0,0,0,0,0,0,0,-1,1945,1387,14.4045,-4.51685
728,-363,19.9756,0.853027,0,0,0,0,0,0,0,-1,1952,1387,19.9756,-0.853059
735,-363,21.4297,1.2981,0,0,0,0,0,0,0,-1,1959,1387,21.4297,-1.29811
742,-363,21.3621,2.79663,0,0,0,0,0,0,0,-1,1966,1387,21.362,-2.7966
749,-363,0,0,0,0,0,0,0,0,0,-1,1973,1387,0,0
756,-363,0,0,0,0,0,0,0,0,0,-1,1980,1387,0,0
763,-363,0,0,0,0,0,0,0,0,0,-1,1987,1387,0,0
770,-363,0,0,0,0,0,0,0,0,0,-1,1994,1387,0,0
777,-363,0,0,0,0,0,0,0,0,0,-1,2001,1387,0,0
784,-363,0,0,0,0,0,0,0,0,0,-1,2008,1387,0,0
791,-363,0,0,0,0,0,0,0,0,0,-1,2015,1387,0,0
798,-363,0,0,0,0,0,0,0,0,0,-1,2022,1387,0,0
805,-363,0,0,0,0,0,0,0,0,0,-1,2029,1387,0,0
812,-363,0,0,0,0,0,0,0,0,0,-1,2036,1387,0,0
-700,-370,0,0,0,0,0,0,0,0,0,-1,524,1394,0,0
-693,-370,0,0,0,0,0,0,0,0,0,-1,531,1394,0,0
-686,-370,0,0,0,0,0,0,0,0,0,-1,538,1394,0,0
-679,-370,0,0,0,0,0,0,0,0,0,-1,545,1394,0,0
-672,-370,0,0,0,0,0,0,0,0,0,-1,552,1394,0,0
-665,-370,0,0,0,0,0,0,0,0,0,-1,559,1394,0,0
-658,-370,0,0,0,0,0,0,0,0,0,-1,566,1394,0,0
-651,-370,0,0,0,0,0,0,0,0,0,-1,573,1394,0,0
-644,-370,0,0,0,0,0,0,0,0,0,-1,580,1394,0,0
-637,-370,0,0,0,0,0,0,0,0,0,-1,587,1394,0,0
-630,-370,0,0,0,0,0,0,0,0,0,-1,594,1394,0,0
-623,-370,-10.1758,-7.10486,0,0,0,0,0,0,0,-1,601,1394,-10.1758,7.10483
-616,-370,-8.85925,-1.61475,0,0,0,0,0,0,0,-1,608,1394,-8.85925,1.61476
-609,-370,-5.39325,0.0421143,0,0,0,0,0,0,0,-1,615,1394,-5.39328,-0.0421372
-602,-370,-12.3151,3.44592,0,0,0,0,0,0,0,-1,622,1394,-12.3151,-3.44595
-595,-370,-7.53284,5.44214,0,0,0,0,0,0,0,-1,629,1394,-7.53284,-5.44216
-588,-370,-8.97723,3.59302,0,0,0,0,0,0,0,-1,636,1394,-8.97725,-3.59296
-581,-370,-9.40131,4.37061,0,0,0,0,0,0,0,-1,643,1394,-9.4013,-4.37059
-574,-370,-9.80322,4.82703,-0.0131476,-0.00101409,-0.00659784,0.00188224,-0.016044,-1.15714,0.0113754,0.044125,650,1394,-9.80324,-4.82698
-567,-370,-9.99957,5.12476,-0.00970516,-0.000803552,-0.00499733,0.00143765,-0.0119464,-1.14921,0.00848416,0.0388199,657,1394,-9.99958,-5.1248
-560,-370,-10.1732,5.39551,-0.00697733,-0.000723208,-0.00378494,0.00105934,-0.00875988,-1.13065,0.00622316,0.0192152,664,1394,-10.1732,-5.39556
-553,-370,-10.136,5.82092,-0.00452177,-0.000569238,-0.00263208,0.000745917,-0.00583692,-1.10742,0.00416226,0.0107735,671,1394,-10.1361,-5.82093
-546,-370,-10.1197,6.22522,-0.00221046,-0.000371394,-0.00150944,0.000476544,-0.0030584,-1.05897,0.00221493,0.014109,678,1394,-10.1197,-6.22519
-539,-370,-10.096,6.68054,1.91805e-05,-0.000125569,-0.000378661,0.000332321,-0.00043871,-0.69097,0.000446565,0.0171924,685,1394,-10.096,-6.68054
-532,-370,-10.1451,7.0813,0.00222953,0.000181679,0.000793091,0.00250076,-8.95468e-05,0.329517,0.00169781,0.0194187,692,1394,-10.1451,-7.08127
-525,-370,-10.1503,7.43518,0.00441968,0.000494004,0.00199685,0.00525687,-0.000343183,0.396994,0.00362439,0.0160818,699,1394,-10.1503,-7.43512
-518,-370,-10.157,7.81921,0.00662896,0.000871435,0.00327838,0.00811312,-0.000612718,0.425105,0.00562412,0.0116765,706,1394,-10.157,-7.81925
-511,-370,-10.1586,8.23523,0.00893315,0.0013439,0.00469463,0.011175,-0.00089793,0.445511,0.00776662,0.0142134,713,1394,-10.1586,-8.23521
-504,-370,-10.0652,8.69849,0.0115088,0.00186052,0.0062641,0.0145911,-0.00122175,0.457269,0.0101591,0.038789,720,1394,-10.0652,-8.69852
-497,-370,-9.9137,9.11511,0,0,0,0,0,0,0,-1,727,1394,-9.91373,-9.11512
-490,-370,-5.30695,4.5271,0,0,0,0,0,0,0,-1,734,1394,-5.30698,-4.52704
-483,-370,-6.02997,4.59253,0,0,0,0,0,0,0,-1,741,1394,-6.02994,-4.5925
-476,-370,-6.75293,4.65796,0,0,0,0,0,0,0,-1,748,1394,-6.7529,-4.65795
-469,-370,-10.584,1.14294,0,0,0,0,0,0,0,-1,755,1394,-10.584,-1.14293
-462,-370,-9.54462,0.387207,0,0,0,0,0,0,0,-1,762,1394,-9.5446,-0.387176
-455,-370,-8.50525,-0.36853,0,0,0,0,0,0,0,-1,769,1394,-8.50523,0.368582
-448,-370,-10.9543,2.28833,0,0,0,0,0,0,0,-1,776,1394,-10.9543,-2.28835
-441,-370,-11.8699,1.8313,0,0,0,0,0,0,0,-1,783,1394,-11.8699,-1.83127
-434,-370,-12.7855,1.37415,0,0,0,0,0,0,0,-1,790,1394,-12.7855,-1.37419
-427,-370,0,0,0,0,0,0,0,0,0,-1,797,1394,0,0
-420,-370,0,0,0,0,0,0,0,0,0,-1,804,1394,0,0
-413,-370,0,0,0,0,0,0,0,0,0,-1,811,1394,0,0
-406,-370,0,0,0,0,0,0,0,0,0,-1,818,1394,0,0
-399,-370,0,0,0,0,0,0,0,0,0,-1,825,1394,0,0
-392,-370,0,0,0,0,0,0,0,0,0,-1,832,1394,0,0
-385,-370,0,0,0,0,0,0,0,0,0,-1,839,1394,0,0
-378,-370,0,0,0,0,0,0,0,0,0,-1,846,1394,0,0
-371,-370,0,0,0,0,0,0,0,0,0,-1,853,1394,0,0
-364,-370,0,0,0,0,0,0,0,0,0,-1,860,1394,0,0
-357,-370,0,0,0,0,0,0,0,0,0,-1,867,1394,0,0
-350,-370,0,0,0,0,0,0,0,0,0,-1,874,1394,0,0
-343,-370,0,0,0,0,0,0,0,0,0,-1,881,1394,0,0
-336,-370,0,0,0,0,0,0,0,0,0,-1,888,1394,0,0
-329,-370,0,0,0,0,0,0,0,0,0,-1,895,1394,0,0
-322,-370,0,0,0,0,0,0,0,0,0,-1,902,1394,0,0
-315,-370,0,0,0,0,0,0,0,0,0,-1,909,1394,0,0
-308,-370,0,0,0,0,0,0,0,0,0,-1,916,1394,0,0
-301,-370,0,0,0,0,0,0,0,0,0,-1,923,1394,0,0
-294,-370,0,0,0,0,0,0,0,0,0,-1,930,1394,0,0
-287,-370,0,0,0,0,0,0,0,0,0,-1,937,1394,0,0
-280,-370,0,0,0,0,0,0,0,0,0,-1,944,1394,0,0
-273,-370,0,0,0,0,0,0,0,0,0,-1,951,1394,0,0
-266,-370,0,0,0,0,0,0,0,0,0,-1,958,1394,0,0
-259,-370,0,0,0,0,0,0,0,0,0,-1,965,1394,0,0
-252,-370,0,0,0,0,0,0,0,0,0,-1,972,1394,0,0
-245,-370,0,0,0,0,0,0,0,0,0,-1,979,1394,0,0
-238,-370,0,0,0,0,0,0,0,0,0,-1,986,1394,0,0
-231,-370,0,0,0,0,0,0,0,0,0,-1,993,1394,0,0
-224,-370,0,0,0,0,0,0,0,0,0,-1,1000,1394,0,0
-217,-370,0,0,0,0,0,0,0,0,0,-1,1007,1394,0,0
-210,-370,0,0,0,0,0,0,0,0,0,-1,1014,1394,0,0
-203,-370,0,0,0,0,0,0,0,0,0,-1,1021,1394,0,0
-196,-370,0,0,0,0,0,0,0,0,0,-1,1028,1394,0,0
-189,-370,0,0,0,0,0,0,0,0,0,-1,1035,1394,0,0
-182,-370,0,0,0,0,0,0,0,0,0,-1,1042,1394,0,0
-175,-370,0,0,0,0,0,0,0,0,0,-1,1049,1394,0,0
-168,-370,0,0,0,0,0,0,0,0,0,-1,1056,1394,0,0
-161,-370,0,0,0,0,0,0,0,0,0,-1,1063,1394,0,0
-154,-370,0,0,0,0,0,0,0,0,0,-1,1070,1394,0,0
-147,-370,0,0,0,0,0,0,0,0,0,-1,1077,1394,0,0
-140,-370,0,0,0,0,0,0,0,0,0,-1,1084,1394,0,0
-133,-370,0,0,0,0,0,0,0,0,0,-1,1091,1394,0,0
-126,-370,0,0,0,0,0,0,0,0,0,-1,1098,1394,0,0
-119,-370,0,0,0,0,0,0,0,0,0,-1,1105,1394,0,0
-112,-370,0,0,0,0,0,0,0,0,0,-1,1112,1394,0,0
-105,-370,0,0,0,0,0,0,0,0,0,-1,1119,1394,0,0
-98,-370,0,0,0,0,0,0,0,0,0,-1,1126,1394,0,0
-91,-370,0,0,0,0,0,0,0,0,0,-1,1133,1394,0,0
-84,-370,0,0,0,0,0,0,0,0,0,-1,1140,1394,0,0
-77,-370,0,0,0,0,0,0,0,0,0,-1,1147,1394,0,0
-70,-370,0,0,0,0,0,0,0,0,0,-1,1154,1394,0,0
-63,-370,0,0,0,0,0,0,0,0,0,-1,1161,1394,0,0
-56,-370,0,0,0,0,0,0,0,0,0,-1,1168,1394,0,0
-49,-370,0,0,0,0,0,0,0,0,0,-1,1175,1394,0,0
-42,-370,0,0,0,0,0,0,0,0,0,-1,1182,1394,0,0
-35,-370,0,0,0,0,0,0,0,0,0,-1,1189,1394,0,0
-28,-370,0,0,0,0,0,0,0,0,0,-1,1196,1394,0,0
-21,-370,0,0,0,0,0,0,0,0,0,-1,1203,1394,0,0
-14,-370,0,0,0,0,0,0,0,0,0,-1,1210,1394,0,0
-7,-370,0,0,0,0,0,0,0,0,0,-1,1217,1394,0,0
0,-370,0,0,0,0,0,0,0,0,0,-1,1224,1394,0,0
7,-370,0,0,0,0,0,0,0,0,0,-1,1231,1394,0,0
14,-370,0,0,0,0,0,0,0,0,0,-1,1238,1394,0,0
21,-370,0,0,0,0,0,0,0,0,0,-1,1245,1394,0,0
28,-370,0,0,0,0,0,0,0,0,0,-1,1252,1394,0,0
35,-370,0,0,0,0,0,0,0,0,0,-1,1259,1394,0,0
42,-370,0,0,0,0,0,0,0,0,0,-1,1266,1394,0,0
49,-370,0,0,0,0,0,0,0,0,0,-1,1273,1394,0,0
56,-370,0,0,0,0,0,0,0,0,0,-1,1280,1394,0,0
63,-370,0,0,0,0,0,0,0,0,0,-1,1287,1394,0,0
70,-370,0,0,0,0,0,0,0,0,0,-1,1294,1394,0,0
77,-370,0,0,0,0,0,0,0,0,0,-1,1301,1394,0,0
84,-370,0,0,0,0,0,0,0,0,0,-1,1308,1394,0,0
91,-370,0,0,0,0,0,0,0,0,0,-1,1315,1394,0,0
98,-370,0,0,0,0,0,0,0,0,0,-1,1322,1394,0,0
105,-370,0,0,0,0,0,0,0,0,0,-1,1329,1394,0,0
112,-370,0,0,0,0,0,0,0,0,0,-1,1336,1394,0,0
119,-370,0,0,0,0,0,0,0,0,0,-1,1343,1394,0,0
126,-370,0,0,0,0,0,0,0,0,0,-1,1350,1394,0,0
133,-370,0,0,0,0,0,0,0,0,0,-1,1357,1394,0,0
140,-370,0,0,0,0,0,0,0,0,0,-1,1364,1394,0,0
147,-370,0,0,0,0,0,0,0,0,0,-1,1371,1394,0,0
154,-370,0,0,0,0,0,0,0,0,0,-1,1378,1394,0,0
161,-370,0,0,0,0,0,0,0,0,0,-1,1385,1394,0,0
168,-370,0,0,0,0,0,0,0,0,0,-1,1392,1394,0,0
175,-370,0,0,0,0,0,0,0,0,0,-1,1399,1394,0,0
182,-370,0,0,0,0,0,0,0,0,0,-1,1406,1394,0,0
189,-370,0,0,0,0,0,0,0,0,0,-1,1413,1394,0,0
196,-370,0,0,0,0,0,0,0,0,0,-1,1420,1394,0,0
203,-370,0,0,0,0,0,0,0,0,0,-1,1427,1394,0,0
210,-370,0,0,0,0,0,0,0,0,0,-1,1434,1394,0,0
217,-370,0,0,0,0,0,0,0,0,0,-1,1441,1394,0,0
224,-370,0,0,0,0,0,0,0,0,0,-1,1448,1394,0,0
231,-370,0,0,0,0,0,0,0,0,0,-1,1455,1394,0,0
238,-370,0,0,0,0,0,0,0,0,0,-1,1462,1394,0,0
245,-370,0,0,0,0,0,0,0,0,0,-1,1469,1394,0,0
252,-370,0,0,0,0,0,0,0,0,0,-1,1476,1394,0,0
259,-370,0,0,0,0,0,0,0,0,0,-1,1483,1394,0,0
266,-370,0,0,0,0,0,0,0,0,0,-1,1490,1394,0,0
273,-370,0,0,0,0,0,0,0,0,0,-1,1497,1394,0,0
280,-370,0,0,0,0,0,0,0,0,0,-1,1504,1394,0,0
287,-370,0,0,0,0,0,0,0,0,0,-1,1511,1394,0,0
294,-370,0,0,0,0,0,0,0,0,0,-1,1518,1394,0,0
301,-370,0,0,0,0,0,0,0,0,0,-1,1525,1394,0,0
308,-370,0,0,0,0,0,0,0,0,0,-1,1532,1394,0,0
315,-370,0,0,0,0,0,0,0,0,0,-1,1539,1394,0,0
322,-370,0,0,0,0,0,0,0,0,0,-1,1546,1394,0,0
329,-370,0,0,0,0,0,0,0,0,0,-1,1553,1394,0,0
336,-370,0,0,0,0,0,0,0,0,0,-1,1560,1394,0,0
343,-370,0,0,0,0,0,0,0,0,0,-1,1567,1394,0,0
350,-370,0,0,0,0,0,0,0,0,0,-1,1574,1394,0,0
357,-370,0,0,0,0,0,0,0,0,0,-1,1581,1394,0,0
364,-370,0,0,0,0,0,0,0,0,0,-1,1588,1394,0,0
371,-370,0,0,0,0,0,0,0,0,0,-1,1595,1394,0,0
378,-370,0,0,0,0,0,0,0,0,0,-1,1602,1394,0,0
385,-370,0,0,0,0,0,0,0,0,0,-1,1609,1394,0,0
392,-370,0,0,0,0,0,0,0,0,0,-1,1616,1394,0,0
399,-370,0,0,0,0,0,0,0,0,0,-1,1623,1394,0,0
406,-370,0,0,0,0,0,0,0,0,0,-1,1630,1394,0,0
413,-370,0,0,0,0,0,0,0,0,0,-1,1637,1394,0,0
420,-370,0,0,0,0,0,0,0,0,0,-1,1644,1394,0,0
427,-370,0,0,0,0,0,0,0,0,0,-1,1651,1394,0,0
434,-370,0,0,0,0,0,0,0,0,0,-1,1658,1394,0,0
441,-370,0,0,0,0,0,0,0,0,0,-1,1665,1394,0,0
448,-370,0,0,0,0,0,0,0,0,0,-1,1672,1394,0,0
455,-370,0,0,0,0,0,0,0,0,0,-1,1679,1394,0,0
462,-370,0,0,0,0,0,0,0,0,0,-1,1686,1394,0,0
469,-370,0,0,0,0,0,0,0,0,0,-1,1693,1394,0,0
476,-370,0,0,0,0,0,0,0,0,0,-1,1700,1394,0,0
483,-370,0,0,0,0,0,0,0,0,0,-1,1707,1394,0,0
490,-370,0,0,0,0,0,0,0,0,0,-1,1714,1394,0,0
497,-370,0,0,0,0,0,0,0,0,0,-1,1721,1394,0,0
504,-370,0,0,0,0,0,0,0,0,0,-1,1728,1394,0,0
511,-370,0,0,0,0,0,0,0,0,0,-1,1735,1394,0,0
518,-370,0,0,0,0,0,0,0,0,0,-1,1742,1394,0,0
525,-370,0,0,0,0,0,0,0,0,0,-1,1749,1394,0,0
532,-370,0,0,0,0,0,0,0,0,0,-1,1756,1394,0,0
539,-370,0,0,0,0,0,0,0,0,0,-1,1763,1394,0,0
546,-370,27.4949,2.81201,0,0,0,0,0,0,0,-1,1770,1394,27.4948,-2.81198
553,-370,26.5985,1.99329,0,0,0,0,0,0,0,-1,1777,1394,26.5985,-1.99327
560,-370,27.1606,2.1084,0,0,0,0,0,0,0,-1,1784,1394,27.1606,-2.10838
567,-370,27.619,2.3833,0,0,0,0,0,0,0,-1,1791,1394,27.619,-2.38327
574,-370,28.0094,2.6936,0,0,0,0,0,0,0,-1,1798,1394,28.0094,-2.69357
581,-370,26.7473,2.29626,0,0,0,0,0,0,0,-1,1805,1394,26.7473,-2.29625
588,-370,32.1333,7.8728,0,0,0,0,0,0,0,-1,1812,1394,32.1333,-7.87275
595,-370,25.793,4.5271,0,0,0,0,0,0,0,-1,1819,1394,25.793,-4.52711
602,-370,25.1077,5.34937,0,0,0,0,0,0,0,-1,1826,1394,25.1077,-5.34932
609,-370,16.712,0.993286,0,0,0,0,0,0,0,-1,1833,1394,16.7121,-0.99323
616,-370,16.7764,7.23315,0,0,0,0,0,0,0,-1,1840,1394,16.7764,-7.23313
623,-370,17.6625,8.94263,0,0,0,0,0,0,0,-1,1847,1394,17.6624,-8.94258
630,-370,20.9681,11.1785,0,0,0,0,0,0,0,-1,1854,1394,20.9681,-11.1784
637,-370,21.2952,10.6075,0.0056723,0.00426258,-0.00831704,0.0133143,-0.00337941,-0.743125,0.0101912,0.0493086,1861,1394,21.2952,-10.6075
644,-370,21.5502,10.1195,0.00321792,0.00174736,-0.00356062,0.00611839,-0.00115311,-0.683578,0.00451267,0.0126974,1868,1394,21.5501,-10.1195
651,-370,21.5702,9.74707,0.00206094,0.000707097,-0.00160769,0.00312841,-0.000360371,-0.586137,0.00221552,0.0124204,1875,1394,21.5702,-9.74712
658,-370,21.562,9.41296,0.00178082,0.000232263,-0.000840389,0.00214924,-0.000136156,-0.413159,0.0014803,0.0128576,1882,1394,21.5621,-9.413
665,-370,21.5389,9.06152,0.00167314,-2.49874e-05,-0.000401174,0.00176315,-0.000114992,-0.220699,0.00121558,0.0135712,1889,1394,21.5389,-9.06154
672,-370,21.5111,8.68787,0.00163375,-0.000184279,-3.29307e-05,0.00163434,-0.000184876,-0.0181055,0.00115613,0.0142786,1896,1394,21.5111,-8.68782
679,-370,21.5275,8.31812,0.00172288,-0.000331568,0.000263065,0.00175603,-0.000364718,0.125352,0.0013093,0.0138811,1903,1394,21.5275,-8.31811
686,-370,21.5222,7.96118,0.00193602,-0.000475937,0.000492749,0.0020328,-0.000572719,0.193944,0.00158107,0.0136509,1910,1394,21.5223,-7.96121
693,-370,21.4989,7.58728,0.00244736,-0.000527647,0.000547498,0.00254492,-0.000625205,0.176339,0.00193891,0.0119467,1917,1394,21.4989,-7.58731
700,-370,21.6339,7.16956,0.00323955,-0.000444408,0.000471374,0.00329891,-0.000503766,0.125265,0.002385,0.0278123,1924,1394,21.634,-7.16952
707,-370,21.9138,6.66541,0,0,0,0,0,0,0,-1,1931,1394,21.9138,-6.66546
714,-370,16.9116,5.93018,0,0,0,0,0,0,0,-1,1938,1394,16.9116,-5.93014
721,-370,17.2007,4.69153,0,0,0,0,0,0,0,-1,1945,1394,17.2007,-4.69158
728,-370,20.5315,-0.313354,0,0,0,0,0,0,0,-1,1952,1394,20.5315,0.313332
735,-370,22.3652,0.233398,0,0,0,0,0,0,0,-1,1959,1394,22.3652,-0.233355
742,-370,24.1989,0.780029,0,0,0,0,0,0,0,-1,1966,1394,24.1989,-0.780041
749,-370,0,0,0,0,0,0,0,0,0,-1,1973,1394,0,0
756,-370,0,0,0,0,0,0,0,0,0,-1,1980,1394,0,0
763,-370,0,0,0,0,0,0,0,0,0,-1,1987,1394,0,0
770,-370,0,0,0,0,0,0,0,0,0,-1,1994,1394,0,0
777,-370,0,0,0,0,0,0,0,0,0,-1,2001,1394,0,0
784,-370,0,0,0,0,0,0,0,0,0,-1,2008,1394,0,0
791,-370,0,0,0,0,0,0,0,0,0,-1,2015,1394,0,0
798,-370,0,0,0,0,0,0,0,0,0,-1,2022,1394,0,0
805,-370,0,0,0,0,0,0,0,0,0,-1,2029,1394,0,0
812,-370,0,0,0,0,0,0,0,0,0,-1,2036,1394,0,0
-700,-377,0,0,0,0,0,0,0,0,0,-1,524,1401,0,0
-693,-377,0,0,0,0,0,0,0,0,0,-1,531,1401,0,0
-686,-377,0,0,0,0,0,0,0,0,0,-1,538,1401,0,0
-679,-377,0,0,0,0,0,0,0,0,0,-1,545,1401,0,0
-672,-377,0,0,0,0,0,0,0,0,0,-1,552,1401,0,0
-665,-377,0,0,0,0,0,0,0,0,0,-1,559,1401,0,0
-658,-377,0,0,0,0,0,0,0,0,0,-1,566,1401,0,0
-651,-377,0,0,0,0,0,0,0,0,0,-1,573,1401,0,0
-644,-377,0,0,0,0,0,0,0,0,0,-1,580,1401,0,0
-637,-377,0,0,0,0,0,0,0,0,0,-1,587,1401,0,0
-630,-377,0,0,0,0,0,0,0,0,0,-1,594,1401,0,0
-623,-377,0,0,0,0,0,0,0,0,0,-1,601,1401,0,0
-616,-377,-9.43915,-2.4906,0,0,0,0,0,0,0,-1,608,1401,-9.43915,2.49062
-609,-377,-7.2821,-1.35278,0,0,0,0,0,0,0,-1,615,1401,-7.28208,1.35279
-602,-377,-14.9736,3.98279,0,0,0,0,0,0,0,-1,622,1401,-14.9737,-3.98276
-595,-377,-6.9082,1.18201,0,0,0,0,0,0,0,-1,629,1401,-6.90822,-1.18204
-588,-377,-9.32385,4.25415,0,0,0,0,0,0,0,-1,636,1401,-9.32383,-4.25418
-581,-377,-9.19403,4.2699,0,0,0,0,0,0,0,-1,643,1401,-9.19404,-4.26992
-574,-377,-9.36383,4.78149,-0.0162949,-0.000880415,-0.00776433,0.00235247,-0.0195278,-1.17625,0.0138693,0.0485795,650,1401,-9.36385,-4.78148
-567,-377,-9.50146,5.20801,-0.0121536,-0.000730216,-0.00590196,0.00177129,-0.0146551,-1.16991,0.0104108,0.0396204,657,1401,-9.50144,-5.20802
-560,-377,-9.81195,5.46082,-0.00902049,-0.00070426,-0.00455709,0.00130666,-0.0110314,-1.15522,0.00782627,0.0359422,664,1401,-9.81194,-5.46086
-553,-377,-9.73547,5.80627,-0.00632106,-0.000589,-0.00332352,0.000933584,-0.00784364,-1.14121,0.00556645,0.0130768,671,1401,-9.7355,-5.80625
-546,-377,-9.75049,6.276,-0.00386325,-0.000405708,-0.00217838,0.000646526,-0.00491549,-1.12081,0.00351239,0.0149382,678,1401,-9.75049,-6.27599
-539,-377,-9.72186,6.65771,-0.00149446,-0.000177097,-0.00101215,0.000371823,-0.00204338,-1.07386,0.00150162,0.0195353,685,1401,-9.72186,-6.65771
-532,-377,-9.75922,7.02563,0.000828896,0.000130291,0.000188773,0.000876642,8.25448e-05,0.247732,0.000558948,0.0189695,692,1401,-9.75924,-7.02567
-525,-377,-9.72852,7.453,0.00308577,0.000443971,0.00139887,0.00368883,-0.000159089,0.40703,0.00251393,0.020638,699,1401,-9.72849,-7.45306
-518,-377,-9.76099,7.84399,0.00534794,0.000829888,0.00267178,0.00658771,-0.000409885,0.434456,0.00453462,0.0138001,706,1401,-9.76101,-7.84403
-511,-377,-9.77319,8.23523,0.00769788,0.00132057,0.00407765,0.00968559,-0.000667133,0.453569,0.00669053,0.0117498,713,1401,-9.77321,-8.23517
-504,-377,-9.79724,8.64661,0.010194,0.0018597,0.00558813,0.0129977,-0.000943967,0.465022,0.00899629,0.0139667,720,1401,-9.79722,-8.64664
-497,-377,-9.36597,9.09875,0.0130388,0.00234388,0.00736915,0.0167963,-0.00141358,0.471528,0.0116972,0.0472359,727,1401,-9.36598,-9.09877
-490,-377,-8.7334,9.73022,0,0,0,0,0,0,0,-1,734,1401,-8.73339,-9.73028
-483,-377,-5.6524,5.07324,0,0,0,0,0,0,0,-1,741,1401,-5.6524,-5.07325
-476,-377,-6.11682,5.10535,0,0,0,0,0,0,0,-1,748,1401,-6.11681,-5.10537
-469,-377,-10.3211,1.9281,0,0,0,0,0,0,0,-1,755,1401,-10.3211,-1.92808
-462,-377,-9.2204,1.0022,0,0,0,0,0,0,0,-1,762,1401,-9.22039,-1.00218
-455,-377,-8.11969,0.0762939,0,0,0,0,0,0,0,-1,769,1401,-8.11968,-0.0762759
-448,-377,-9.05334,0.877319,0,0,0,0,0,0,0,-1,776,1401,-9.05332,-0.877324
-441,-377,-11.212,0.763428,0,0,0,0,0,0,0,-1,783,1401,-11.212,-0.763415
-434,-377,-11.0984,0.996216,0,0,0,0,0,0,0,-1,790,1401,-11.0984,-0.996265
-427,-377,-11.1733,1.25732,0,0,0,0,0,0,0,-1,797,1401,-11.1733,-1.25732
-420,-377,0,0,0,0,0,0,0,0,0,-1,804,1401,0,0
-413,-377,0,0,0,0,0,0,0,0,0,-1,811,1401,0,0
-406,-377,0,0,0,0,0,0,0,0,0,-1,818,1401,0,0
-399,-377,0,0,0,0,0,0,0,0,0,-1,825,1401,0,0
-392,-377,0,0,0,0,0,0,0,0,0,-1,832,1401,0,0
-385,-377,0,0,0,0,0,0,0,0,0,-1,839,1401,0,0
-378,-377,0,0,0,0,0,0,0,0,0,-1,846,1401,0,0
-371,-377,0,0,0,0,0,0,0,0,0,-1,853,1401,0,0
-364,-377,0,0,0,0,0,0,0,0,0,-1,860,1401,0,0
-357,-377,0,0,0,0,0,0,0,0,0,-1,867,1401,0,0
-350,-377,0,0,0,0,0,0,0,0,0,-1,874,1401,0,0
-343,-377,0,0,0,0,0,0,0,0,0,-1,881,1401,0,0
-336,-377,0,0,0,0,0,0,0,0,0,-1,888,1401,0,0
-329,-377,0,0,0,0,0,0,0,0,0,-1,895,1401,0,0
-322,-377,0,0,0,0,0,0,0,0,0,-1,902,1401,0,0
-315,-377,0,0,0,0,0,0,0,0,0,-1,909,1401,0,0
-308,-377,0,0,0,0,0,0,0,0,0,-1,916,1401,0,0
-301,-377,0,0,0,0,0,0,0,0,0,-1,923,1401,0,0
-294,-377,0,0,0,0,0,0,0,0,0,-1,930,1401,0,0
-287,-377,0,0,0,0,0,0,0,0,0,-1,937,1401,0,0
-280,-377,0,0,0,0,0,0,0,0,0,-1,944,1401,0,0
-273,-377,0,0,0,0,0,0,0,0,0,-1,951,1401,0,0
-266,-377,0,0,0,0,0,0,0,0,0,-1,958,1401,0,0
-259,-377,0,0,0,0,0,0,0,0,0,-1,965,1401,0,0
-252,-377,0,0,0,0,0,0,0,0,0,-1,972,1401,0,0
-245,-377,0,0,0,0,0,0,0,0,0,-1,979,1401,0,0
-238,-377,0,0,0,0,0,0,0,0,0,-1,986,1401,0,0
-231,-377,0,0,0,0,0,0,0,0,0,-1,993,1401,0,0
-224,-377,0,0,0,0,0,0,0,0,0,-1,1000,1401,0,0
-217,-377,0,0,0,0,0,0,0,0,0,-1,1007,1401,0,0
-210,-377,0,0,0,0,0,0,0,0,0,-1,1014,1401,0,0
-203,-377,0,0,0,0,0,0,0,0,0,-1,1021,1401,0,0
-196,-377,0,0,0,0,0,0,0,0,0,-1,1028,1401,0,0
-189,-377,0,0,0,0,0,0,0,0,0,-1,1035,1401,0,0
-182,-377,0,0,0,0,0,0,0,0,0,-1,1042,1401,0,0
-175,-377,0,0,0,0,0,0,0,0,0,-1,1049,1401,0,0
-168,-377,0,0,0,0,0,0,0,0,0,-1,1056,1401,0,0
-161,-377,0,0,0,0,0,0,0,0,0,-1,1063,1401,0,0
-154,-377,0,0,0,0,0,0,0,0,0,-1,1070,1401,0,0
-147,-377,0,0,0,0,0,0,0,0,0,-1,1077,1401,0,0
-140,-377,0,0,0,0,0,0,0,0,0,-1,1084,1401,0,0
-133,-377,0,0,0,0,0,0,0,0,0,-1,1091,1401,0,0
-126,-377,0,0,0,0,0,0,0,0,0,-1,1098,1401,0,0
-119,-377,0,0,0,0,0,0,0,0,0,-1,1105,1401,0,0
-112,-377,0,0,0,0,0,0,0,0,0,-1,1112,1401,0,0
-105,-377,0,0,0,0,0,0,0,0,0,-1,1119,1401,0,0
-98,-377,0,0,0,0,0,0,0,0,0,-1,1126,1401,0,0
-91,-377,0,0,0,0,0,0,0,0,0,-1,1133,1401,0,0
-84,-377,0,0,0,0,0,0,0,0,0,-1,1140,1401,0,0
-77,-377,0,0,0,0,0,0,0,0,0,-1,1147,1401,0,0
-70,-377,0,0,0,0,0,0,0,0,0,-1,1154,1401,0,0
-63,-377,0,0,0,0,0,0,0,0,0,-1,1161,1401,0,0
-56,-377,0,0,0,0,0,0,0,0,0,-1,1168,1401,0,0
-49,-377,0,0,0,0,0,0,0,0,0,-1,1175,1401,0,0
-42,-377,0,0,0,0,0,0,0,0,0,-1,1182,1401,0,0
-35,-377,0,0,0,0,0,0,0,0,0,-1,1189,1401,0,0
-28,-377,0,0,0,0,0,0,0,0,0,-1,1196,1401,0,0
-21,-377,0,0,0,0,0,0,0,0,0,-1,1203,1401,0,0
-14,-377,0,0,0,0,0,0,0,0,0,-1,1210,1401,0,0
-7,-377,0,0,0,0,0,0,0,0,0,-1,1217,1401,0,0
0,-377,0,0,0,0,0,0,0,0,0,-1,1224,1401,0,0
7,-377,0,0,0,0,0,0,0,0,0,-1,1231,1401,0,0
14,-377,0,0,0,0,0,0,0,0,0,-1,1238,1401,0,0
21,-377,0,0,0,0,0,0,0,0,0,-1,1245,1401,0,0
28,-377,0,0,0,0,0,0,0,0,0,-1,1252,1401,0,0
35,-377,0,0,0,0,0,0,0,0,0,-1,1259,1401,0,0
42,-377,0,0,0,0,0,0,0,0,0,-1,1266,1401,0,0
49,-377,0,0,0,0,0,0,0,0,0,-1,1273,1401,0,0
56,-377,0,0,0,0,0,0,0,0,0,-1,1280,1401,0,0
63,-377,0,0,0,0,0,0,0,0,0,-1,1287,1401,0,0
70,-377,0,0,0,0,0,0,0,0,0,-1,1294,1401,0,0
77,-377,0,0,0,0,0,0,0,0,0,-1,1301,1401,0,0
84,-377,0,0,0,0,0,0,0,0,0,-1,1308,1401,0,0
91,-377,0,0,0,0,0,0,0,0,0,-1,1315,1401,0,0
98,-377,0,0,0,0,0,0,0,0,0,-1,1322,1401,0,0
105,-377,0,0,0,0,0,0,0,0,0,-1,1329,1401,0,0
112,-377,0,0,0,0,0,0,0,0,0,-1,1336,1401,0,0
119,-377,0,0,0,0,0,0,0,0,0,-1,1343,1401,0,0
126,-377,0,0,0,0,0,0,0,0,0,-1,1350,1401,0,0
133,-377,0,0,0,0,0,0,0,0,0,-1,1357,1401,0,0
140,-377,0,0,0,0,0,0,0,0,0,-1,1364,1401,0,0
147,-377,0,0,0,0,0,0,0,0,0,-1,1371,1401,0,0
154,-377,0,0,0,0,0,0,0,0,0,-1,1378,1401,0,0
161,-377,0,0,0,0,0,0,0,0,0,-1,1385,1401,0,0
168,-377,0,0,0,0,0,0,0,0,0,-1,1392,1401,0,0
175,-377,0,0,0,0,0,0,0,0,0,-1,1399,1401,0,0
182,-377,0,0,0,0,0,0,0,0,0,-1,1406,1401,0,0
189,-377,0,0,0,0,0,0,0,0,0,-1,1413,1401,0,0
196,-377,0,0,0,0,0,0,0,0,0,-1,1420,1401,0,0
203,-377,0,0,0,0,0,0,0,0,0,-1,1427,1401,0,0
210,-377,0,0,0,0,0,0,0,0,0,-1,1434,1401,0,0
217,-377,0,0,0,0,0,0,0,0,0,-1,1441,1401,0,0
224,-377,0,0,0,0,0,0,0,0,0,-1,1448,1401,0,0
231,-377,0,0,0,0,0,0,0,0,0,-1,1455,1401,0,0
238,-377,0,0,0,0,0,0,0,0,0,-1,1462,1401,0,0
245,-377,0,0,0,0,0,0,0,0,0,-1,1469,1401,0,0
252,-377,0,0,0,0,0,0,0,0,0,-1,1476,1401,0,0
259,-377,0,0,0,0,0,0,0,0,0,-1,1483,1401,0,0
266,-377,0,0,0,0,0,0,0,0,0,-1,1490,1401,0,0
273,-377,0,0,0,0,0,0,0,0,0,-1,1497,1401,0,0
280,-377,0,0,0,0,0,0,0,0,0,-1,1504,1401,0,0
287,-377,0,0,0,0,0,0,0,0,0,-1,1511,1401,0,0
294,-377,0,0,0,0,0,0,0,0,0,-1,1518,1401,0,0
301,-377,0,0,0,0,0,0,0,0,0,-1,1525,1401,0,0
308,-377,0,0,0,0,0,0,0,0,0,-1,1532,1401,0,0
315,-377,0,0,0,0,0,0,0,0,0,-1,1539,1401,0,0
322,-377,0,0,0,0,0,0,0,0,0,-1,1546,1401,0,0
329,-377,0,0,0,0,0,0,0,0,0,-1,1553,1401,0,0
336,-377,0,0,0,0,0,0,0,0,0,-1,1560,1401,0,0
343,-377,0,0,0,0,0,0,0,0,0,-1,1567,1401,0,0
350,-377,0,0,0,0,0,0,0,0,0,-1,1574,1401,0,0
357,-377,0,0,0,0,0,0,0,0,0,-1,1581,1401,0,0
364,-377,0,0,0,0,0,0,0,0,0,-1,1588,1401,0,0
371,-377,0,0,0,0,0,0,0,0,0,-1,1595,1401,0,0
378,-377,0,0,0,0,0,0,0,0,0,-1,1602,1401,0,0
385,-377,0,0,0,0,0,0,0,0,0,-1,1609,1401,0,0
392,-377,0,0,0,0,0,0,0,0,0,-1,1616,1401,0,0
399,-377,0,0,0,0,0,0,0,0,0,-1,1623,1401,0,0
406,-377,0,0,0,0,0,0,0,0,0,-1,1630,1401,0,0
413,-377,0,0,0,0,0,0,0,0,0,-1,1637,1401,0,0
420,-377,0,0,0,0,0,0,0,0,0,-1,1644,1401,0,0
427,-377,0,0,0,0,0,0,0,0,0,-1,1651,1401,0,0
434,-377,0,0,0,0,0,0,0,0,0,-1,1658,1401,0,0
441,-377,0,0,0,0,0,0,0,0,0,-1,1665,1401,0,0
448,-377,0,0,0,0,0,0,0,0,0,-1,1672,1401,0,0
455,-377,0,0,0,0,0,0,0,0,0,-1,1679,1401,0,0
462,-377,0,0,0,0,0,0,0,0,0,-1,1686,1401,0,0
469,-377,0,0,0,0,0,0,0,0,0,-1,1693,1401,0,0
476,-377,0,0,0,0,0,0,0,0,0,-1,1700,1401,0,0
483,-377,0,0,0,0,0,0,0,0,0,-1,1707,1401,0,0
490,-377,0,0,0,0,0,0,0,0,0,-1,1714,1401,0,0
497,-377,0,0,0,0,0,0,0,0,0,-1,1721,1401,0,0
504,-377,0,0,0,0,0,0,0,0,0,-1,1728,1401,0,0
511,-377,0,0,0,0,0,0,0,0,0,-1,1735,1401,0,0
518,-377,0,0,0,0,0,0,0,0,0,-1,1742,1401,0,0
525,-377,0,0,0,0,0,0,0,0,0,-1,1749,1401,0,0
532,-377,0,0,0,0,0,0,0,0,0,-1,1756,1401,0,0
539,-377,0,0,0,0,0,0,0,0,0,-1,1763,1401,0,0
546,-377,27.8485,2.34094,0,0,0,0,0,0,0,-1,1770,1401,27.8486,-2.34091
553,-377,27.2189,2.42493,0,0,0,0,0,0,0,-1,1777,1401,27.2188,-2.42498
560,-377,26.9808,1.78674,0,0,0,0,0,0,0,-1,1784,1401,26.9808,-1.78676
567,-377,27.4503,2.03894,0,0,0,0,0,0,0,-1,1791,1401,27.4503,-2.03893
574,-377,27.812,2.3855,0,0,0,0,0,0,0,-1,1798,1401,27.812,-2.38552
581,-377,26.3328,2.77588,0,0,0,0,0,0,0,-1,1805,1401,26.3328,-2.77582
588,-377,25.882,4.35217,0,0,0,0,0,0,0,-1,1812,1401,25.8819,-4.3522
595,-377,25.5392,5.11804,0,0,0,0,0,0,0,-1,1819,1401,25.5392,-5.11808
602,-377,24.816,5.79126,0,0,0,0,0,0,0,-1,1826,1401,24.816,-5.79124
609,-377,15.0223,4.76135,0,0,0,0,0,0,0,-1,1833,1401,15.0224,-4.76129
616,-377,14.1842,5.78992,0,0,0,0,0,0,0,-1,1840,1401,14.1842,-5.78987
623,-377,15.8248,8.76721,0,0,0,0,0,0,0,-1,1847,1401,15.8248,-8.76725
630,-377,20.8107,11.1394,0,0,0,0,0,0,0,-1,1854,1401,20.8107,-11.1394
637,-377,21.0822,10.54,0.00355668,0.00223587,-0.00435029,0.00729641,-0.00150386,-0.71007,0.00543535,0.0234912,1861,1401,21.0822,-10.5401
644,-377,21.1952,10.1223,0.0022973,0.000930344,-0.00185537,0.00359107,-0.00036343,-0.608921,0.00252393,0.0122309,1868,1401,21.1952,-10.1223
651,-377,21.1965,9.73877,0.00180787,0.000448468,-0.00101971,0.00235365,-9.73126e-05,-0.491433,0.00160252,0.0136417,1875,1401,21.1965,-9.73879
658,-377,21.1758,9.4082,0.00174258,0.000191943,-0.000641345,0.00197347,-3.89398e-05,-0.345554,0.00132881,0.0151543,1882,1401,21.1758,-9.40824
665,-377,21.1821,9.03357,0.00168164,-5.05826e-05,-0.000241625,0.00171471,-8.36549e-05,-0.13603,0.00117202,0.017787,1889,1401,21.1822,-9.03359
672,-377,21.175,8.66492,0.0016738,-0.000221174,0.000114695,0.00168071,-0.000228091,0.0602327,0.00120373,0.0180331,1896,1401,21.175,-8.66498
679,-377,21.1343,8.32959,0.00177864,-0.000412942,0.000431651,0.00186059,-0.000494895,0.187626,0.00143411,0.0184772,1903,1401,21.1343,-8.32958
686,-377,21.1475,7.98596,0.00201083,-0.000646822,0.000714858,0.00219091,-0.000826903,0.246777,0.00180068,0.0156214,1910,1401,21.1475,-7.98592
693,-377,21.1771,7.60681,0.00263027,-0.000802514,0.00080263,0.00280867,-0.000980908,0.218708,0.00227115,0.0131539,1917,1401,21.1771,-7.60683
700,-377,21.1367,7.2644,0.00359309,-0.000893379,0.000806444,0.00373364,-0.00103393,0.172557,0.00289593,0.038873,1924,1401,21.1367,-7.26443
707,-377,21.2531,6.79895,0,0,0,0,0,0,0,-1,1931,1401,21.2531,-6.79894
714,-377,16.5369,5.45959,0,0,0,0,0,0,0,-1,1938,1401,16.5369,-5.4596
721,-377,17.0913,5.42529,0,0,0,0,0,0,0,-1,1945,1401,17.0914,-5.42529
728,-377,14.5396,2.79724,0,0,0,0,0,0,0,-1,1952,1401,14.5396,-2.7972
735,-377,23.2977,-0.991089,0,0,0,0,0,0,0,-1,1959,1401,23.2978,0.991076
742,-377,0,0,0,0,0,0,0,0,0,-1,1966,1401,0,0
749,-377,0,0,0,0,0,0,0,0,0,-1,1973,1401,0,0
756,-377,0,0,0,0,0,0,0,0,0,-1,1980,1401,0,0
763,-377,0,0,0,0,0,0,0,0,0,-1,1987,1401,0,0
770,-377,0,0,0,0,0,0,0,0,0,-1,1994,1401,0,0
777,-377,0,0,0,0,0,0,0,0,0,-1,2001,1401,0,0
784,-377,0,0,0,0,0,0,0,0,0,-1,2008,1401,0,0
791,-377,0,0,0,0,0,0,0,0,0,-1,2015,1401,0,0
798,-377,0,0,0,0,0,0,0,0,0,-1,2022,1401,0,0
805,-377,0,0,0,0,0,0,0,0,0,-1,2029,1401,0,0
812,-377,0,0,0,0,0,0,0,0,0,-1,2036,1401,0,0
-700,-384,0,0,0,0,0,0,0,0,0,-1,524,1408,0,0
-693,-384,0,0,0,0,0,0,0,0,0,-1,531,1408,0,0
-686,-384,0,0,0,0,0,0,0,0,0,-1,538,1408,0,0
-679,-384,0,0,0,0,0,0,0,0,0,-1,545,1408,0,0
-672,-384,0,0,0,0,0,0,0,0,0,-1,552,1408,0,0
-665,-384,0,0,0,0,0,0,0,0,0,-1,559,1408,0,0
-658,-384,0,0,0,0,0,0,0,0,0,-1,566,1408,0,0
-651,-384,0,0,0,0,0,0,0,0,0,-1,573,1408,0,0
-644,-384,0,0,0,0,0,0,0,0,0,-1,580,1408,0,0
-637,-384,0,0,0,0,0,0,0,0,0,-1,587,1408,0,0
-630,-384,0,0,0,0,0,0,0,0,0,-1,594,1408,0,0
-623,-384,0,0,0,0,0,0,0,0,0,-1,601,1408,0,0
-616,-384,-10.019,-3.36646,0,0,0,0,0,0,0,-1,608,1408,-10.019,3.36648
-609,-384,-7.72357,-2.3418,0,0,0,0,0,0,0,-1,615,1408,-7.72358,2.34182
-602,-384,-11.7632,-2.85156,0,0,0,0,0,0,0,-1,622,1408,-11.7632,2.85157
-595,-384,-10.2217,2.8855,0,0,0,0,0,0,0,-1,629,1408,-10.2218,-2.88548
-588,-384,-9.64539,3.34167,0,0,0,0,0,0,0,-1,636,1408,-9.64537,-3.34165
-581,-384,-9.61896,4.8844,0,0,0,0,0,0,0,-1,643,1408,-9.61897,-4.88436
-574,-384,-9.03979,4.5553,0,0,0,0,0,0,0,-1,650,1408,-9.0398,-4.55531
-567,-384,-9.10864,5.12048,-0.0143607,-0.000569422,-0.00657212,0.00206083,-0.0169909,-1.19011,0.012073,0.0434867,657,1408,-9.10862,-5.12046
-560,-384,-9.23981,5.48657,-0.0108087,-0.000655112,-0.00514357,0.00149513,-0.012959,-1.17483,0.00917836,0.0474895,664,1408,-9.23981,-5.48661
-553,-384,-9.36682,5.82373,-0.00787507,-0.000611638,-0.00386707,0.0010617,-0.0095484,-1.16241,0.0067474,0.0261807,671,1408,-9.36683,-5.82368
-546,-384,-9.35541,6.26929,-0.00530437,-0.000458043,-0.00274311,0.000778896,-0.00654131,-1.14717,0.00464234,0.0132145,678,1408,-9.3554,-6.26932
-539,-384,-9.36639,6.66113,-0.00284109,-0.000256071,-0.00157614,0.000489754,-0.00358691,-1.12882,0.00257013,0.0148996,685,1408,-9.3664,-6.66107
-532,-384,-9.34973,7.02124,-0.000480636,4.31448e-05,-0.00039334,0.000253804,-0.000691295,-1.0791,0.000564804,0.0203769,692,1408,-9.3497,-7.02125
-525,-384,-9.34045,7.46838,0.00177585,0.000363467,0.000788414,0.0021281,1.1215e-05,0.420178,0.00141501,0.0203469,699,1408,-9.34043,-7.46843
-518,-384,-9.37085,7.86218,0.00399636,0.000749441,0.00200737,0.00495459,-0.000208794,0.445371,0.00337481,0.0126294,706,1408,-9.37082,-7.86213
-511,-384,-9.38263,8.2666,0.00628325,0.00124208,0.00334778,0.00795325,-0.000427923,0.462717,0.00545041,0.0103546,713,1408,-9.38266,-8.26662
-504,-384,-9.38336,8.68579,0.00866451,0.00181281,0.00478437,0.0111231,-0.000645784,0.47469,0.00763977,0.0116999,720,1408,-9.38334,-8.68575
-497,-384,-9.34729,9.13281,0.0112274,0.0023552,0.0063906,0.0145707,-0.000988086,0.482,0.0100593,0.0275466,727,1408,-9.34727,-9.13282
-490,-384,-9.04657,9.71643,0,0,0,0,0,0,0,-1,734,1408,-9.04658,-9.71637
-483,-384,-6.26471,7.61194,0,0,0,0,0,0,0,-1,741,1408,-6.26469,-7.61191
-476,-384,-6.02734,5.67761,0,0,0,0,0,0,0,-1,748,1408,-6.02736,-5.6776
-469,-384,-10.206,2.63721,0,0,0,0,0,0,0,-1,755,1408,-10.206,-2.6372
-462,-384,-9.04291,1.43542,0,0,0,0,0,0,0,-1,762,1408,-9.04293,-1.43545
-455,-384,-7.87988,0.233765,0,0,0,0,0,0,0,-1,769,1408,-7.87986,-0.233709
-448,-384,-9.35529,7.19226,0,0,0,0,0,0,0,-1,776,1408,-9.35531,-7.19226
-441,-384,-10.4697,1.79004,0,0,0,0,0,0,0,-1,783,1408,-10.4697,-1.79003
-434,-384,-10.6449,0.552246,0,0,0,0,0,0,0,-1,790,1408,-10.6449,-0.552216
-427,-384,-10.968,1.10583,0,0,0,0,0,0,0,-1,797,1408,-10.968,-1.10588
-420,-384,-12.5607,4.54858,0,0,0,0,0,0,0,-1,804,1408,-12.5607,-4.54859
-413,-384,0,0,0,0,0,0,0,0,0,-1,811,1408,0,0
-406,-384,0,0,0,0,0,0,0,0,0,-1,818,1408,0,0
-399,-384,0,0,0,0,0,0,0,0,0,-1,825,1408,0,0
-392,-384,0,0,0,0,0,0,0,0,0,-1,832,1408,0,0
-385,-384,0,0,0,0,0,0,0,0,0,-1,839,1408,0,0
-378,-384,0,0,0,0,0,0,0,0,0,-1,846,1408,0,0
-371,-384,0,0,0,0,0,0,0,0,0,-1,853,1408,0,0
-364,-384,0,0,0,0,0,0,0,0,0,-1,860,1408,0,0
-357,-384,0,0,0,0,0,0,0,0,0,-1,867,1408,0,0
-350,-384,0,0,0,0,0,0,0,0,0,-1,874,1408,0,0
-343,-384,0,0,0,0,0,0,0,0,0,-1,881,1408,0,0
-336,-384,0,0,0,0,0,0,0,0,0,-1,888,1408,0,0
-329,-384,0,0,0,0,0,0,0,0,0,-1,895,1408,0,0
-322,-384,0,0,0,0,0,0,0,0,0,-1,902,1408,0,0
-315,-384,0,0,0,0,0,0,0,0,0,-1,909,1408,0,0
-308,-384,0,0,0,0,0,0,0,0,0,-1,916,1408,0,0
-301,-384,0,0,0,0,0,0,0,0,0,-1,923,1408,0,0
-294,-384,0,0,0,0,0,0,0,0,0,-1,930,1408,0,0
-287,-384,0,0,0,0,0,0,0,0,0,-1,937,1408,0,0
-280,-384,0,0,0,0,0,0,0,0,0,-1,944,1408,0,0
-273,-384,0,0,0,0,0,0,0,0,0,-1,951,1408,0,0
-266,-384,0,0,0,0,0,0,0,0,0,-1,958,1408,0,0
-259,-384,0,0,0,0,0,0,0,0,0,-1,965,1408,0,0
-252,-384,0,0,0,0,0,0,0,0,0,-1,972,1408,0,0
-245,-384,0,0,0,0,0,0,0,0,0,-1,979,1408,0,0
-238,-384,0,0,0,0,0,0,0,0,0,-1,986,1408,0,0
-231,-384,0,0,0,0,0,0,0,0,0,-1,993,1408,0,0
-224,-384,0,0,0,0,0,0,0,0,0,-1,1000,1408,0,0
-217,-384,0,0,0,0,0,0,0,0,0,-1,1007,1408,0,0
-210,-384,0,0,0,0,0,0,0,0,0,-1,1014,1408,0,0
-203,-384,0,0,0,0,0,0,0,0,0,-1,1021,1408,0,0
-196,-384,0,0,0,0,0,0,0,0,0,-1,1028,1408,0,0
-189,-384,0,0,0,0,0,0,0,0,0,-1,1035,1408,0,0
-182,-384,0,0,0,0,0,0,0,0,0,-1,1042,1408,0,0
-175,-384,0,0,0,0,0,0,0,0,0,-1,1049,1408,0,0
-168,-384,0,0,0,0,0,0,0,0,0,-1,1056,1408,0,0
-161,-384,0,0,0,0,0,0,0,0,0,-1,1063,1408,0,0
-154,-384,0,0,0,0,0,0,0,0,0,-1,1070,1408,0,0
-147,-384,0,0,0,0,0,0,0,0,0,-1,1077,1408,0,0
-140,-384,0,0,0,0,0,0,0,0,0,-1,1084,1408,0,0
-133,-384,0,0,0,0,0,0,0,0,0,-1,1091,1408,0,0
-126,-384,0,0,0,0,0,0,0,0,0,-1,1098,1408,0,0
-119,-384,0,0,0,0,0,0,0,0,0,-1,1105,1408,0,0
-112,-384,0,0,0,0,0,0,0,0,0,-1,1112,1408,0,0
-105,-384,0,0,0,0,0,0,0,0,0,-1,1119,1408,0,0
-98,-384,0,0,0,0,0,0,0,0,0,-1,1126,1408,0,0
-91,-384,0,0,0,0,0,0,0,0,0,-1,1133,1408,0,0
-84,-384,0,0,0,0,0,0,0,0,0,-1,1140,1408,0,0
-77,-384,0,0,0,0,0,0,0,0,0,-1,1147,1408,0,0
-70,-384,0,0,0,0,0,0,0,0,0,-1,1154,1408,0,0
-63,-384,0,0,0,0,0,0,0,0,0,-1,1161,1408,0,0
-56,-384,0,0,0,0,0,0,0,0,0,-1,1168,1408,0,0
-49,-384,0,0,0,0,0,0,0,0,0,-1,1175,1408,0,0
-42,-384,0,0,0,0,0,0,0,0,0,-1,1182,1408,0,0
-35,-384,0,0,0,0,0,0,0,0,0,-1,1189,1408,0,0
-28,-384,0,0,0,0,0,0,0,0,0,-1,1196,1408,0,0
-21,-384,0,0,0,0,0,0,0,0,0,-1,1203,1408,0,0
-14,-384,0,0,0,0,0,0,0,0,0,-1,1210,1408,0,0
-7,-384,0,0,0,0,0,0,0,0,0,-1,1217,1408,0,0
0,-384,0,0,0,0,0,0,0,0,0,-1,1224,1408,0,0
7,-384,0,0,0,0,0,0,0,0,0,-1,1231,1408,0,0
14,-384,0,0,0,0,0,0,0,0,0,-1,1238,1408,0,0
21,-384,0,0,0,0,0,0,0,0,0,-1,1245,1408,0,0
28,-384,0,0,0,0,0,0,0,0,0,-1,1252,1408,0,0
35,-384,0,0,0,0,0,0,0,0,0,-1,1259,1408,0,0
42,-384,0,0,0,0,0,0,0,0,0,-1,1266,1408,0,0
49,-384,0,0,0,0,0,0,0,0,0,-1,1273,1408,0,0
56,-384,0,0,0,0,0,0,0,0,0,-1,1280,1408,0,0
63,-384,0,0,0,0,0,0,0,0,0,-1,1287,1408,0,0
70,-384,0,0,0,0,0,0,0,0,0,-1,1294,1408,0,0
77,-384,0,0,0,0,0,0,0,0,0,-1,1301,1408,0,0
84,-384,0,0,0,0,0,0,0,0,0,-1,1308,1408,0,0
91,-384,0,0,0,0,0,0,0,0,0,-1,1315,1408,0,0
98,-384,0,0,0,0,0,0,0,0,0,-1,1322,1408,0,0
105,-384,0,0,0,0,0,0,0,0,0,-1,1329,1408,0,0
112,-384,0,0,0,0,0,0,0,0,0,-1,1336,1408,0,0
119,-384,0,0,0,0,0,0,0,0,0,-1,1343,1408,0,0
126,-384,0,0,0,0,0,0,0,0,0,-1,1350,1408,0,0
133,-384,0,0,0,0,0,0,0,0,0,-1,1357,1408,0,0
140,-384,0,0,0,0,0,0,0,0,0,-1,1364,1408,0,0
147,-384,0,0,0,0,0,0,0,0,0,-1,1371,1408,0,0
154,-384,0,0,0,0,0,0,0,0,0,-1,1378,1408,0,0
161,-384,0,0,0,0,0,0,0,0,0,-1,1385,1408,0,0
168,-384,0,0,0,0,0,0,0,0,0,-1,1392,1408,0,0
175,-384,0,0,0,0,0,0,0,0,0,-1,1399,1408,0,0
182,-384,0,0,0,0,0,0,0,0,0,-1,1406,1408,0,0
189,-384,0,0,0,0,0,0,0,0,0,-1,1413,1408,0,0
196,-384,0,0,0,0,0,0,0,0,0,-1,1420,1408,0,0
203,-384,0,0,0,0,0,0,0,0,0,-1,1427,1408,0,0
210,-384,0,0,0,0,0,0,0,0,0,-1,1434,1408,0,0
217,-384,0,0,0,0,0,0,0,0,0,-1,1441,1408,0,0
224,-384,0,0,0,0,0,0,0,0,0,-1,1448,1408,0,0
231,-384,0,0,0,0,0,0,0,0,0,-1,1455,1408,0,0
238,-384,0,0,0,0,0,0,0,0,0,-1,1462,1408,0,0
245,-384,0,0,0,0,0,0,0,0,0,-1,1469,1408,0,0
252,-384,0,0,0,0,0,0,0,0,0,-1,1476,1408,0,0
259,-384,0,0,0,0,0,0,0,0,0,-1,1483,1408,0,0
266,-384,0,0,0,0,0,0,0,0,0,-1,1490,1408,0,0
273,-384,0,0,0,0,0,0,0,0,0,-1,1497,1408,0,0
280,-384,0,0,0,0,0,0,0,0,0,-1,1504,1408,0,0
287,-384,0,0,0,0,0,0,0,0,0,-1,1511,1408,0,0
294,-384,0,0,0,0,0,0,0,0,0,-1,1518,1408,0,0
301,-384,0,0,0,0,0,0,0,0,0,-1,1525,1408,0,0
308,-384,0,0,0,0,0,0,0,0,0,-1,1532,1408,0,0
315,-384,0,0,0,0,0,0,0,0,0,-1,1539,1408,0,0
322,-384,0,0,0,0,0,0,0,0,0,-1,1546,1408,0,0
329,-384,0,0,0,0,0,0,0,0,0,-1,1553,1408,0,0
336,-384,0,0,0,0,0,0,0,0,0,-1,1560,1408,0,0
343,-384,0,0,0,0,0,0,0,0,0,-1,1567,1408,0,0
350,-384,0,0,0,0,0,0,0,0,0,-1,1574,1408,0,0
357,-384,0,0,0,0,0,0,0,0,0,-1,1581,1408,0,0
364,-384,0,0,0,0,0,0,0,0,0,-1,1588,1408,0,0
371,-384,0,0,0,0,0,0,0,0,0,-1,1595,1408,0,0
378,-384,0,0,0,0,0,0,0,0,0,-1,1602,1408,0,0
385,-384,0,0,0,0,0,0,0,0,0,-1,1609,1408,0,0
392,-384,0,0,0,0,0,0,0,0,0,-1,1616,1408,0,0
399,-384,0,0,0,0,0,0,0,0,0,-1,1623,1408,0,0
406,-384,0,0,0,0,0,0,0,0,0,-1,1630,1408,0,0
413,-384,0,0,0,0,0,0,0,0,0,-1,1637,1408,0,0
420,-384,0,0,0,0,0,0,0,0,0,-1,1644,1408,0,0
427,-384,0,0,0,0,0,0,0,0,0,-1,1651,1408,0,0
434,-384,0,0,0,0,0,0,0,0,0,-1,1658,1408,0,0
441,-384,0,0,0,0,0,0,0,0,0,-1,1665,1408,0,0
448,-384,0,0,0,0,0,0,0,0,0,-1,1672,1408,0,0
455,-384,0,0,0,0,0,0,0,0,0,-1,1679,1408,0,0
462,-384,0,0,0,0,0,0,0,0,0,-1,1686,1408,0,0
469,-384,0,0,0,0,0,0,0,0,0,-1,1693,1408,0,0
476,-384,0,0,0,0,0,0,0,0,0,-1,1700,1408,0,0
483,-384,0,0,0,0,0,0,0,0,0,-1,1707,1408,0,0
490,-384,0,0,0,0,0,0,0,0,0,-1,1714,1408,0,0
497,-384,0,0,0,0,0,0,0,0,0,-1,1721,1408,0,0
504,-384,0,0,0,0,0,0,0,0,0,-1,1728,1408,0,0
511,-384,0,0,0,0,0,0,0,0,0,-1,1735,1408,0,0
518,-384,0,0,0,0,0,0,0,0,0,-1,1742,1408,0,0
525,-384,0,0,0,0,0,0,0,0,0,-1,1749,1408,0,0
532,-384,0,0,0,0,0,0,0,0,0,-1,1756,1408,0,0
539,-384,27.6886,2.85803,0,0,0,0,0,0,0,-1,1763,1408,27.6886,-2.85807
546,-384,27.5044,2.9425,0,0,0,0,0,0,0,-1,1770,1408,27.5044,-2.94255
553,-384,27.3052,2.78394,0,0,0,0,0,0,0,-1,1777,1408,27.3051,-2.78394
560,-384,26.833,3.19812,0,0,0,0,0,0,0,-1,1784,1408,26.833,-3.19816
567,-384,32.4751,6.03601,0,0,0,0,0,0,0,-1,1791,1408,32.4751,-6.03605
574,-384,25.8635,3.7915,0,0,0,0,0,0,0,-1,1798,1408,25.8636,-3.79148
581,-384,25.819,3.91846,0,0,0,0,0,0,0,-1,1805,1408,25.8189,-3.91848
588,-384,23.3721,4.25439,0,0,0,0,0,0,0,-1,1812,1408,23.3721,-4.25442
595,-384,24.981,5.59595,0,0,0,0,0,0,0,-1,1819,1408,24.981,-5.59598
602,-384,20.6605,4.17261,0,0,0,0,0,0,0,-1,1826,1408,20.6606,-4.17265
609,-384,14.158,5.49475,0,0,0,0,0,0,0,-1,1833,1408,14.158,-5.49474
616,-384,14.7997,7.6908,0,0,0,0,0,0,0,-1,1840,1408,14.7996,-7.69079
623,-384,16.4293,9.58899,0,0,0,0,0,0,0,-1,1847,1408,16.4294,-9.58901
630,-384,20.8025,10.9189,0,0,0,0,0,0,0,-1,1854,1408,20.8025,-10.9189
637,-384,20.8274,10.514,0.00193285,0.00124267,-0.00212744,0.00374301,-0.000567483,-0.704994,0.00270442,0.0172839,1861,1408,20.8274,-10.514
644,-384,20.8114,10.1528,0.0017002,0.000646422,-0.00110718,0.00239947,-5.28479e-05,-0.563314,0.00161755,0.0163544,1868,1408,20.8114,-10.1528
651,-384,20.8042,9.75854,0.00162803,0.000367127,-0.000748926,0.00197654,1.862e-05,-0.435539,0.00131153,0.0162487,1875,1408,20.8042,-9.75854
658,-384,20.7891,9.39563,0.00162371,0.000133099,-0.000438552,0.00174316,1.36452e-05,-0.265931,0.00115758,0.0161341,1882,1408,20.7891,-9.39567
665,-384,20.8119,9.0614,0.00160256,-0.000101862,-7.6685e-05,0.001606,-0.000105305,-0.0448711,0.00110744,0.0169824,1889,1408,20.8119,-9.0614
672,-384,20.8223,8.68945,0.00163438,-0.000285905,0.000264051,0.00167003,-0.000321551,0.134189,0.00123457,0.0154297,1896,1408,20.8223,-8.68942
679,-384,20.7947,8.32275,0.00176079,-0.000522143,0.00059989,0.00190882,-0.000670178,0.241936,0.00154517,0.0169007,1903,1408,20.7947,-8.32277
686,-384,20.7922,7.99646,0.002027,-0.000847605,0.000940109,0.00230715,-0.00112775,0.289618,0.00202174,0.0135229,1910,1408,20.7923,-7.99641
693,-384,20.8137,7.6394,0.00279271,-0.00110844,0.00106777,0.00306584,-0.00138157,0.250428,0.00262838,0.0197839,1917,1408,20.8138,-7.63945
700,-384,20.5778,7.03979,0,0,0,0,0,0,0,-1,1924,1408,20.5777,-7.03984
707,-384,17.0566,6.62842,0,0,0,0,0,0,0,-1,1931,1408,17.0567,-6.62848
714,-384,16.038,5.0282,0,0,0,0,0,0,0,-1,1938,1408,16.038,-5.02819
721,-384,13.8843,2.8717,0,0,0,0,0,0,0,-1,1945,1408,13.8843,-2.87171
728,-384,15.4409,6.25745,0,0,0,0,0,0,0,-1,1952,1408,15.4409,-6.2574
735,-384,16.7598,6.71289,0,0,0,0,0,0,0,-1,1959,1408,16.7598,-6.71287
742,-384,0,0,0,0,0,0,0,0,0,-1,1966,1408,0,0
749,-384,0,0,0,0,0,0,0,0,0,-1,1973,1408,0,0
756,-384,0,0,0,0,0,0,0,0,0,-1,1980,1408,0,0
763,-384,0,0,0,0,0,0,0,0,0,-1,1987,1408,0,0
770,-384,0,0,0,0,0,0,0,0,0,-1,1994,1408,0,0
777,-384,0,0,0,0,0,0,0,0,0,-1,2001,1408,0,0
784,-384,0,0,0,0,0,0,0,0,0,-1,2008,1408,0,0
791,-384,0,0,0,0,0,0,0,0,0,-1,2015,1408,0,0
798,-384,0,0,0,0,0,0,0,0,0,-1,2022,1408,0,0
805,-384,0,0,0,0,0,0,0,0,0,-1,2029,1408,0,0
812,-384,0,0,0,0,0,0,0,0,0,-1,2036,1408,0,0
-700,-391,0,0,0,0,0,0,0,0,0,-1,524,1415,0,0
-693,-391,0,0,0,0,0,0,0,0,0,-1,531,1415,0,0
-686,-391,0,0,0,0,0,0,0,0,0,-1,538,1415,0,0
-679,-391,0,0,0,0,0,0,0,0,0,-1,545,1415,0,0
-672,-391,0,0,0,0,0,0,0,0,0,-1,552,1415,0,0
-665,-391,0,0,0,0,0,0,0,0,0,-1,559,1415,0,0
-658,-391,0,0,0,0,0,0,0,0,0,-1,566,1415,0,0
-651,-391,0,0,0,0,0,0,0,0,0,-1,573,1415,0,0
-644,-391,0,0,0,0,0,0,0,0,0,-1,580,1415,0,0
-637,-391,0,0,0,0,0,0,0,0,0,-1,587,1415,0,0
-630,-391,0,0,0,0,0,0,0,0,0,-1,594,1415,0,0
-623,-391,0,0,0,0,0,0,0,0,0,-1,601,1415,0,0
-616,-391,0,0,0,0,0,0,0,0,0,-1,608,1415,0,0
-609,-391,-7.71753,-3.69763,0,0,0,0,0,0,0,-1,615,1415,-7.71751,3.69759
-602,-391,-13.9493,-4.12805,0,0,0,0,0,0,0,-1,622,1415,-13.9493,4.12803
-595,-391,-10.8315,1.76172,0,0,0,0,0,0,0,-1,629,1415,-10.8315,-1.76171
-588,-391,-10.0066,2.41711,0,0,0,0,0,0,0,-1,636,1415,-10.0066,-2.41707
-581,-391,-9.3053,3.11084,0,0,0,0,0,0,0,-1,643,1415,-9.30531,-3.11081
-574,-391,-8.6228,4.43127,0,0,0,0,0,0,0,-1,650,1415,-8.62283,-4.43133
-567,-391,-8.69659,5.01111,0,0,0,0,0,0,0,-1,657,1415,-8.69662,-5.01112
-560,-391,-8.77039,5.59094,0,0,0,0,0,0,0,-1,664,1415,-8.77042,-5.59091
-553,-391,-8.8916,5.80933,-0.00953136,-0.000717279,-0.00450411,0.00117719,-0.0114258,-1.17265,0.0080384,0.0412161,671,1415,-8.89163,-5.80938
-546,-391,-8.96075,6.24109,-0.00681995,-0.000586363,-0.00339166,0.000903114,-0.00830943,-1.15699,0.00586389,0.0133723,678,1415,-8.96078,-6.24105
-539,-391,-8.93219,6.65369,-0.00423869,-0.000405777,-0.00220302,0.000597718,-0.00524219,-1.14337,0.00371012,0.0140435,685,1415,-8.93218,-6.65374
-532,-391,-8.91919,7.06567,-0.0018326,-0.000104838,-0.00101962,0.000367661,-0.0023051,-1.13685,0.00167281,0.0244706,692,1415,-8.91922,-7.0657
-525,-391,-8.92816,7.49341,0.000432477,0.000238211,0.00015906,0.000521717,0.000148971,0.511285,0.000310312,0.0218933,699,1415,-8.92817,-7.49339
-518,-391,-8.9776,7.88025,0.00261263,0.000637326,0.00135225,0.0032995,-4.95466e-05,0.469986,0.00221637,0.0133672,706,1415,-8.97761,-7.88021
-511,-391,-8.97668,8.27502,0.00482108,0.00113525,0.002645,0.00620188,-0.000245554,0.481125,0.00421882,0.0122741,713,1415,-8.97666,-8.27506
-504,-391,-8.97864,8.68677,0.00705568,0.00173499,0.00402645,0.00922128,-0.000430613,0.493462,0.00629597,0.0108759,720,1415,-8.97865,-8.68674
-497,-391,-8.99023,9.08997,0.00933853,0.0023247,0.00549619,0.0123513,-0.000688084,0.501429,0.00847289,0.011339,727,1415,-8.99024,-9.08992
-490,-391,-8.93475,9.5885,0.0115027,0.00287125,0.00695295,0.0153704,-0.000996492,0.507647,0.0105947,0.0363217,734,1415,-8.93478,-9.58847
-483,-391,-8.78192,10.2075,0,0,0,0,0,0,0,-1,741,1415,-8.78193,-10.2075
-476,-391,-6.05731,6.85303,0,0,0,0,0,0,0,-1,748,1415,-6.05728,-6.85304
-469,-391,-3.88953,5.0979,0,0,0,0,0,0,0,-1,755,1415,-3.88955,-5.09794
-462,-391,-8.67688,2.03125,0,0,0,0,0,0,0,-1,762,1415,-8.67685,-2.03121
-455,-391,-8.65576,6.46997,0,0,0,0,0,0,0,-1,769,1415,-8.65579,-6.46999
-448,-391,-8.39618,4.38403,0,0,0,0,0,0,0,-1,776,1415,-8.39617,-4.38405
-441,-391,-9.77704,2.5946,0,0,0,0,0,0,0,-1,783,1415,-9.77702,-2.5946
-434,-391,-11.5403,2.12878,0,0,0,0,0,0,0,-1,790,1415,-11.5403,-2.12881
-427,-391,-10.5311,2.50403,0,0,0,0,0,0,0,-1,797,1415,-10.5311,-2.504
-420,-391,-14.7087,1.24365,0,0,0,0,0,0,0,-1,804,1415,-14.7088,-1.24365
-413,-391,0,0,0,0,0,0,0,0,0,-1,811,1415,0,0
-406,-391,0,0,0,0,0,0,0,0,0,-1,818,1415,0,0
-399,-391,0,0,0,0,0,0,0,0,0,-1,825,1415,0,0
-392,-391,0,0,0,0,0,0,0,0,0,-1,832,1415,0,0
-385,-391,0,0,0,0,0,0,0,0,0,-1,839,1415,0,0
-378,-391,0,0,0,0,0,0,0,0,0,-1,846,1415,0,0
-371,-391,0,0,0,0,0,0,0,0,0,-1,853,1415,0,0
-364,-391,0,0,0,0,0,0,0,0,0,-1,860,1415,0,0
-357,-391,0,0,0,0,0,0,0,0,0,-1,867,1415,0,0
-350,-391,0,0,0,0,0,0,0,0,0,-1,874,1415,0,0
-343,-391,0,0,0,0,0,0,0,0,0,-1,881,1415,0,0
-336,-391,0,0,0,0,0,0,0,0,0,-1,888,1415,0,0
-329,-391,0,0,0,0,0,0,0,0,0,-1,895,1415,0,0
-322,-391,0,0,0,0,0,0,0,0,0,-1,902,1415,0,0
-315,-391,0,0,0,0,0,0,0,0,0,-1,909,1415,0,0
-308,-391,0,0,0,0,0,0,0,0,0,-1,916,1415,0,0
-301,-391,0,0,0,0,0,0,0,0,0,-1,923,1415,0,0
-294,-391,0,0,0,0,0,0,0,0,0,-1,930,1415,0,0
-287,-391,0,0,0,0,0,0,0,0,0,-1,937,1415,0,0
-280,-391,0,0,0,0,0,0,0,0,0,-1,944,1415,0,0
-273,-391,0,0,0,0,0,0,0,0,0,-1,951,1415,0,0
-266,-391,0,0,0,0,0,0,0,0,0,-1,958,1415,0,0
-259,-391,0,0,0,0,0,0,0,0,0,-1,965,1415,0,0
-252,-391,0,0,0,0,0,0,0,0,0,-1,972,1415,0,0
-245,-391,0,0,0,0,0,0,0,0,0,-1,979,1415,0,0
-238,-391,0,0,0,0,0,0,0,0,0,-1,986,1415,0,0
-231,-391,0,0,0,0,0,0,0,0,0,-1,993,1415,0,0
-224,-391,0,0,0,0,0,0,0,0,0,-1,1000,1415,0,0
-217,-391,0,0,0,0,0,0,0,0,0,-1,1007,1415,0,0
-210,-391,0,0,0,0,0,0,0,0,0,-1,1014,1415,0,0
-203,-391,0,0,0,0,0,0,0,0,0,-1,1021,1415,0,0
-196,-391,0,0,0,0,0,0,0,0,0,-1,1028,1415,0,0
-189,-391,0,0,0,0,0,0,0,0,0,-1,1035,1415,0,0
-182,-391,0,0,0,0,0,0,0,0,0,-1,1042,1415,0,0
-175,-391,0,0,0,0,0,0,0,0,0,-1,1049,1415,0,0
-168,-391,0,0,0,0,0,0,0,0,0,-1,1056,1415,0,0
-161,-391,0,0,0,0,0,0,0,0,0,-1,1063,1415,0,0
-154,-391,0,0,0,0,0,0,0,0,0,-1,1070,1415,0,0
-147,-391,0,0,0,0,0,0,0,0,0,-1,1077,1415,0,0
-140,-391,0,0,0,0,0,0,0,0,0,-1,1084,1415,0,0
-133,-391,0,0,0,0,0,0,0,0,0,-1,1091,1415,0,0
-126,-391,0,0,0,0,0,0,0,0,0,-1,1098,1415,0,0
-119,-391,0,0,0,0,0,0,0,0,0,-1,1105,1415,0,0
-112,-391,0,0,0,0,0,0,0,0,0,-1,1112,1415,0,0
-105,-391,0,0,0,0,0,0,0,0,0,-1,1119,1415,0,0
-98,-391,0,0,0,0,0,0,0,0,0,-1,1126,1415,0,0
-91,-391,0,0,0,0,0,0,0,0,0,-1,1133,1415,0,0
-84,-391,0,0,0,0,0,0,0,0,0,-1,1140,1415,0,0
-77,-391,0,0,0,0,0,0,0,0,0,-1,1147,1415,0,0
-70,-391,0,0,0,0,0,0,0,0,0,-1,1154,1415,0,0
-63,-391,0,0,0,0,0,0,0,0,0,-1,1161,1415,0,0
-56,-391,0,0,0,0,0,0,0,0,0,-1,1168,1415,0,0
-49,-391,0,0,0,0,0,0,0,0,0,-1,1175,1415,0,0
-42,-391,0,0,0,0,0,0,0,0,0,-1,1182,1415,0,0
-35,-391,0,0,0,0,0,0,0,0,0,-1,1189,1415,0,0
-28,-391,0,0,0,0,0,0,0,0,0,-1,1196,1415,0,0
-21,-391,0,0,0,0,0,0,0,0,0,-1,1203,1415,0,0
-14,-391,0,0,0,0,0,0,0,0,0,-1,1210,1415,0,0
-7,-391,0,0,0,0,0,0,0,0,0,-1,1217,1415,0,0
0,-391,0,0,0,0,0,0,0,0,0,-1,1224,1415,0,0
7,-391,0,0,0,0,0,0,0,0,0,-1,1231,1415,0,0
14,-391,0,0,0,0,0,0,0,0,0,-1,1238,1415,0,0
21,-391,0,0,0,0,0,0,0,0,0,-1,1245,1415,0,0
28,-391,0,0,0,0,0,0,0,0,0,-1,1252,1415,0,0
35,-391,0,0,0,0,0,0,0,0,0,-1,1259,1415,0,0
42,-391,0,0,0,0,0,0,0,0,0,-1,1266,1415,0,0
49,-391,0,0,0,0,0,0,0,0,0,-1,1273,1415,0,0
56,-391,0,0,0,0,0,0,0,0,0,-1,1280,1415,0,0
63,-391,0,0,0,0,0,0,0,0,0,-1,1287,1415,0,0
70,-391,0,0,0,0,0,0,0,0,0,-1,1294,1415,0,0
77,-391,0,0,0,0,0,0,0,0,0,-1,1301,1415,0,0
84,-391,0,0,0,0,0,0,0,0,0,-1,1308,1415,0,0
91,-391,0,0,0,0,0,0,0,0,0,-1,1315,1415,0,0
98,-391,0,0,0,0,0,0,0,0,0,-1,1322,1415,0,0
105,-391,0,0,0,0,0,0,0,0,0,-1,1329,1415,0,0
112,-391,0,0,0,0,0,0,0,0,0,-1,1336,1415,0,0
119,-391,0,0,0,0,0,0,0,0,0,-1,1343,1415,0,0
126,-391,0,0,0,0,0,0,0,0,0,-1,1350,1415,0,0
133,-391,0,0,0,0,0,0,0,0,0,-1,1357,1415,0,0
140,-391,0,0,0,0,0,0,0,0,0,-1,1364,1415,0,0
147,-391,0,0,0,0,0,0,0,0,0,-1,1371,1415,0,0
154,-391,0,0,0,0,0,0,0,0,0,-1,1378,1415,0,0
161,-391,0,0,0,0,0,0,0,0,0,-1,1385,1415,0,0
168,-391,0,0,0,0,0,0,0,0,0,-1,1392,1415,0,0
175,-391,0,0,0,0,0,0,0,0,0,-1,1399,1415,0,0
182,-391,0,0,0,0,0,0,0,0,0,-1,1406,1415,0,0
189,-391,0,0,0,0,0,0,0,0,0,-1,1413,1415,0,0
196,-391,0,0,0,0,0,0,0,0,0,-1,1420,1415,0,0
203,-391,0,0,0,0,0,0,0,0,0,-1,1427,1415,0,0
210,-391,0,0,0,0,0,0,0,0,0,-1,1434,1415,0,0
217,-391,0,0,0,0,0,0,0,0,0,-1,1441,1415,0,0
224,-391,0,0,0,0,0,0,0,0,0,-1,1448,1415,0,0
231,-391,0,0,0,0,0,0,0,0,0,-1,1455,1415,0,0
238,-391,0,0,0,0,0,0,0,0,0,-1,1462,1415,0,0
245,-391,0,0,0,0,0,0,0,0,0,-1,1469,1415,0,0
252,-391,0,0,0,0,0,0,0,0,0,-1,1476,1415,0,0
259,-391,0,0,0,0,0,0,0,0,0,-1,1483,1415,0,0
266,-391,0,0,0,0,0,0,0,0,0,-1,1490,1415,0,0
273,-391,0,0,0,0,0,0,0,0,0,-1,1497,1415,0,0
280,-391,0,0,0,0,0,0,0,0,0,-1,1504,1415,0,0
287,-391,0,0,0,0,0,0,0,0,0,-1,1511,1415,0,0
294,-391,0,0,0,0,0,0,0,0,0,-1,1518,1415,0,0
301,-391,0,0,0,0,0,0,0,0,0,-1,1525,1415,0,0
308,-391,0,0,0,0,0,0,0,0,0,-1,1532,1415,0,0
315,-391,0,0,0,0,0,0,0,0,0,-1,1539,1415,0,0
322,-391,0,0,0,0,0,0,0,0,0,-1,1546,1415,0,0
329,-391,0,0,0,0,0,0,0,0,0,-1,1553,1415,0,0
336,-391,0,0,0,0,0,0,0,0,0,-1,1560,1415,0,0
343,-391,0,0,0,0,0,0,0,0,0,-1,1567,1415,0,0
350,-391,0,0,0,0,0,0,0,0,0,-1,1574,1415,0,0
357,-391,0,0,0,0,0,0,0,0,0,-1,1581,1415,0,0
364,-391,0,0,0,0,0,0,0,0,0,-1,1588,1415,0,0
371,-391,0,0,0,0,0,0,0,0,0,-1,1595,1415,0,0
378,-391,0,0,0,0,0,0,0,0,0,-1,1602,1415,0,0
385,-391,0,0,0,0,0,0,0,0,0,-1,1609,1415,0,0
392,-391,0,0,0,0,0,0,0,0,0,-1,1616,1415,0,0
399,-391,0,0,0,0,0,0,0,0,0,-1,1623,1415,0,0
406,-391,0,0,0,0,0,0,0,0,0,-1,1630,1415,0,0
413,-391,0,0,0,0,0,0,0,0,0,-1,1637,1415,0,0
420,-391,0,0,0,0,0,0,0,0,0,-1,1644,1415,0,0
427,-391,0,0,0,0,0,0,0,0,0,-1,1651,1415,0,0
434,-391,0,0,0,0,0,0,0,0,0,-1,1658,1415,0,0
441,-391,0,0,0,0,0,0,0,0,0,-1,1665,1415,0,0
448,-391,0,0,0,0,0,0,0,0,0,-1,1672,1415,0,0
455,-391,0,0,0,0,0,0,0,0,0,-1,1679,1415,0,0
462,-391,0,0,0,0,0,0,0,0,0,-1,1686,1415,0,0
469,-391,0,0,0,0,0,0,0,0,0,-1,1693,1415,0,0
476,-391,0,0,0,0,0,0,0,0,0,-1,1700,1415,0,0
483,-391,0,0,0,0,0,0,0,0,0,-1,1707,1415,0,0
490,-391,0,0,0,0,0,0,0,0,0,-1,1714,1415,0,0
497,-391,0,0,0,0,0,0,0,0,0,-1,1721,1415,0,0
504,-391,0,0,0,0,0,0,0,0,0,-1,1728,1415,0,0
511,-391,0,0,0,0,0,0,0,0,0,-1,1735,1415,0,0
518,-391,0,0,0,0,0,0,0,0,0,-1,1742,1415,0,0
525,-391,0,0,0,0,0,0,0,0,0,-1,1749,1415,0,0
532,-391,28.5959,3.02356,0,0,0,0,0,0,0,-1,1756,1415,28.596,-3.02358
539,-391,27.5881,3.25012,0,0,0,0,0,0,0,-1,1763,1415,27.5882,-3.25016
546,-391,27.2837,3.28064,0,0,0,0,0,0,0,-1,1770,1415,27.2837,-3.28064
553,-391,32.5952,5.04553,0,0,0,0,0,0,0,-1,1777,1415,32.5952,-5.04551
560,-391,31.2947,5.67017,0,0,0,0,0,0,0,-1,1784,1415,31.2947,-5.67011
567,-391,30.1473,6.17603,0,0,0,0,0,0,0,-1,1791,1415,30.1473,-6.17602
574,-391,27.5656,5.6842,0,0,0,0,0,0,0,-1,1798,1415,27.5655,-5.68422
581,-391,25.8883,5.76123,0,0,0,0,0,0,0,-1,1805,1415,25.8883,-5.76124
588,-391,24.2717,5.47986,0,0,0,0,0,0,0,-1,1812,1415,24.2717,-5.47982
595,-391,22.8827,6.1991,0,0,0,0,0,0,0,-1,1819,1415,22.8827,-6.19909
602,-391,15.1635,5.69849,0,0,0,0,0,0,0,-1,1826,1415,15.1635,-5.69847
609,-391,14.8285,7.50476,0,0,0,0,0,0,0,-1,1833,1415,14.8285,-7.50479
616,-391,20.2079,11.7131,0,0,0,0,0,0,0,-1,1840,1415,20.2079,-11.7132
623,-391,20.4467,11.2119,0,0,0,0,0,0,0,-1,1847,1415,20.4466,-11.2119
630,-391,20.5024,10.825,0.00177064,0.00184223,-0.00229331,0.00410002,-0.000487152,-0.793201,0.00290936,0.0281349,1854,1415,20.5025,-10.825
637,-391,20.473,10.4885,0.00149288,0.000923124,-0.00114452,0.00238744,2.8559e-05,-0.663424,0.0015822,0.015423,1861,1415,20.473,-10.4886
644,-391,20.4448,10.1492,0.00149751,0.00060283,-0.000833426,0.00199606,0.000104279,-0.539092,0.00129735,0.0164054,1868,1415,20.4448,-10.1492
651,-391,20.4373,9.82117,0.00149104,0.000324461,-0.000515397,0.00168612,0.00012938,-0.361841,0.00108353,0.0169309,1875,1415,20.4372,-9.82119
658,-391,20.4268,9.44165,0.00151471,9.36935e-05,-0.000230962,0.00155131,5.70972e-05,-0.157145,0.00101571,0.0175131,1882,1415,20.4268,-9.44166
665,-391,20.4407,9.08142,0.00149377,-0.000141616,0.000123844,0.00150309,-0.000150941,0.0751568,0.00105598,0.0140308,1889,1415,20.4407,-9.08139
672,-391,20.4435,8.71057,0.00149073,-0.000348766,0.000481703,0.00160924,-0.000467273,0.241227,0.00125785,0.0119846,1896,1415,20.4434,-8.71058
679,-391,20.4434,8.35571,0.00155518,-0.000638662,0.000864219,0.00185472,-0.000938205,0.333647,0.00164118,0.0119027,1903,1415,20.4434,-8.35572
686,-391,20.448,8.0116,0.00172874,-0.00107168,0.00130175,0.00224037,-0.00158332,0.374487,0.00221845,0.0147245,1910,1415,20.448,-8.01161
693,-391,20.4244,7.78345,0.00241614,-0.00146656,0.00154007,0.00295283,-0.00200325,0.33532,0.00287885,0.0351532,1917,1415,20.4244,-7.78345
700,-391,20.4493,7.57373,0,0,0,0,0,0,0,-1,1924,1415,20.4493,-7.57377
707,-391,12.9524,5.96851,0,0,0,0,0,0,0,-1,1931,1415,12.9524,-5.96849
714,-391,15.6875,7.67896,0,0,0,0,0,0,0,-1,1938,1415,15.6875,-7.67893
721,-391,14.1808,8.08435,0,0,0,0,0,0,0,-1,1945,1415,14.1808,-8.08439
728,-391,13.8102,7.28174,0,0,0,0,0,0,0,-1,1952,1415,13.8102,-7.28174
735,-391,0,0,0,0,0,0,0,0,0,-1,1959,1415,0,0
742,-391,0,0,0,0,0,0,0,0,0,-1,1966,1415,0,0
749,-391,0,0,0,0,0,0,0,0,0,-1,1973,1415,0,0
756,-391,0,0,0,0,0,0,0,0,0,-1,1980,1415,0,0
763,-391,0,0,0,0,0,0,0,0,0,-1,1987,1415,0,0
770,-391,0,0,0,0,0,0,0,0,0,-1,1994,1415,0,0
777,-391,0,0,0,0,0,0,0,0,0,-1,2001,1415,0,0
784,-391,0,0,0,0,0,0,0,0,0,-1,2008,1415,0,0
791,-391,0,0,0,0,0,0,0,0,0,-1,2015,1415,0,0
798,-391,0,0,0,0,0,0,0,0,0,-1,2022,1415,0,0
805,-391,0,0,0,0,0,0,0,0,0,-1,2029,1415,0,0
812,-391,0,0,0,0,0,0,0,0,0,-1,2036,1415,0,0
-700,-398,0,0,0,0,0,0,0,0,0,-1,524,1422,0,0
-693,-398,0,0,0,0,0,0,0,0,0,-1,531,1422,0,0
-686,-398,0,0,0,0,0,0,0,0,0,-1,538,1422,0,0
-679,-398,0,0,0,0,0,0,0,0,0,-1,545,1422,0,0
-672,-398,0,0,0,0,0,0,0,0,0,-1,552,1422,0,0
-665,-398,0,0,0,0,0,0,0,0,0,-1,559,1422,0,0
-658,-398,0,0,0,0,0,0,0,0,0,-1,566,1422,0,0
-651,-398,0,0,0,0,0,0,0,0,0,-1,573,1422,0,0
-644,-398,0,0,0,0,0,0,0,0,0,-1,580,1422,0,0
-637,-398,0,0,0,0,0,0,0,0,0,-1,587,1422,0,0
-630,-398,0,0,0,0,0,0,0,0,0,-1,594,1422,0,0
-623,-398,0,0,0,0,0,0,0,0,0,-1,601,1422,0,0
-616,-398,0,0,0,0,0,0,0,0,0,-1,608,1422,0,0
-609,-398,-7.47125,-4.05322,0,0,0,0,0,0,0,-1,615,1422,-7.47128,4.05317
-602,-398,-4.58868,-2.77026,0,0,0,0,0,0,0,-1,622,1422,-4.58869,2.77023
-595,-398,-12.2224,-1.82007,0,0,0,0,0,0,0,-1,629,1422,-12.2224,1.82006
-588,-398,-10.6939,1.32336,0,0,0,0,0,0,0,-1,636,1422,-10.6939,-1.32337
-581,-398,-9.76556,2.42517,0,0,0,0,0,0,0,-1,643,1422,-9.76554,-2.42513
-574,-398,-6.07343,3.35437,0,0,0,0,0,0,0,-1,650,1422,-6.07343,-3.35439
-567,-398,-8.27856,4.91235,0,0,0,0,0,0,0,-1,657,1422,-8.27857,-4.91236
-560,-398,-8.53748,5.45923,0,0,0,0,0,0,0,-1,664,1422,-8.53746,-5.45926
-553,-398,-8.46027,5.97632,-0.0115787,-0.000620952,-0.00518859,0.001446,-0.0136457,-1.1917,0.00961543,0.0479701,671,1422,-8.46024,-5.97633
-546,-398,-8.57281,6.23511,-0.00866858,-0.000511248,-0.00408888,0.00118542,-0.0103652,-1.17747,0.00733729,0.0221077,678,1422,-8.57279,-6.23507
-539,-398,-8.51721,6.68604,-0.00592146,-0.00038506,-0.00288158,0.000842545,-0.00714906,-1.16806,0.00507028,0.0127862,685,1422,-8.5172,-6.68608
-532,-398,-8.51324,7.10742,-0.00343094,-0.000136049,-0.00171121,0.000591859,-0.00415885,-1.16861,0.00298945,0.0204426,692,1422,-8.51322,-7.10741
-525,-398,-8.5202,7.50281,-0.00110729,0.000176982,-0.000542971,0.000375772,-0.00130608,-1.21984,0.00101933,0.0190095,699,1422,-8.52022,-7.50282
-518,-398,-8.56146,7.88293,0.00108776,0.000524275,0.000613483,0.00148111,0.000130934,0.570137,0.000946782,0.0171149,706,1422,-8.56145,-7.8829
-511,-398,-8.56372,8.26038,0.00325443,0.000958589,0.00184381,0.00427846,-6.54403e-05,0.50697,0.00287437,0.0128993,713,1422,-8.56373,-8.26038
-504,-398,-8.57715,8.67566,0.00539491,0.00150922,0.00315389,0.00715635,-0.000252212,0.509342,0.00485715,0.0123104,720,1422,-8.57714,-8.67568
-497,-398,-8.58923,9.08044,0.00748213,0.00209579,0.00450786,0.0100401,-0.000462136,0.516131,0.00685261,0.00933671,727,1422,-8.58924,-9.08048
-490,-398,-8.59198,9.49841,0.00915405,0.00247092,0.00561239,0.0123443,-0.000719356,0.516887,0.00847951,0.014459,734,1422,-8.592,-9.49847
-483,-398,-8.38745,10.0339,0.00985011,0.00277272,0.00591876,0.0132074,-0.000584526,0.515969,0.00900608,0.0415897,741,1422,-8.38743,-10.0339
-476,-398,-7.89099,10.558,0,0,0,0,0,0,0,-1,748,1422,-7.89096,-10.5579
-469,-398,-8.41608,10.077,0,0,0,0,0,0,0,-1,755,1422,-8.41605,-10.077
-462,-398,-9.59753,9.32532,0,0,0,0,0,0,0,-1,762,1422,-9.59753,-9.32531
-455,-398,-8.08331,6.75024,0,0,0,0,0,0,0,-1,769,1422,-8.08333,-6.75022
-448,-398,-7.4505,5.25293,0,0,0,0,0,0,0,-1,776,1422,-7.4505,-5.25291
-441,-398,-7.61639,3.32141,0,0,0,0,0,0,0,-1,783,1422,-7.61637,-3.32145
-434,-398,-10.7618,3.297,0,0,0,0,0,0,0,-1,790,1422,-10.7618,-3.29704
-427,-398,-11.9061,2.24939,0,0,0,0,0,0,0,-1,797,1422,-11.9061,-2.24941
-420,-398,-13.467,2.32788,0,0,0,0,0,0,0,-1,804,1422,-13.467,-2.32787
-413,-398,-14.7983,2.15515,0,0,0,0,0,0,0,-1,811,1422,-14.7983,-2.15516
-406,-398,0,0,0,0,0,0,0,0,0,-1,818,1422,0,0
-399,-398,0,0,0,0,0,0,0,0,0,-1,825,1422,0,0
-392,-398,0,0,0,0,0,0,0,0,0,-1,832,1422,0,0
-385,-398,0,0,0,0,0,0,0,0,0,-1,839,1422,0,0
-378,-398,0,0,0,0,0,0,0,0,0,-1,846,1422,0,0
-371,-398,0,0,0,0,0,0,0,0,0,-1,853,1422,0,0
-364,-398,0,0,0,0,0,0,0,0,0,-1,860,1422,0,0
-357,-398,0,0,0,0,0,0,0,0,0,-1,867,1422,0,0
-350,-398,0,0,0,0,0,0,0,0,0,-1,874,1422,0,0
-343,-398,0,0,0,0,0,0,0,0,0,-1,881,1422,0,0
-336,-398,0,0,0,0,0,0,0,0,0,-1,888,1422,0,0
-329,-398,0,0,0,0,0,0,0,0,0,-1,895,1422,0,0
-322,-398,0,0,0,0,0,0,0,0,0,-1,902,1422,0,0
-315,-398,0,0,0,0,0,0,0,0,0,-1,909,1422,0,0
-308,-398,0,0,0,0,0,0,0,0,0,-1,916,1422,0,0
-301,-398,0,0,0,0,0,0,0,0,0,-1,923,1422,0,0
-294,-398,0,0,0,0,0,0,0,0,0,-1,930,1422,0,0
-287,-398,0,0,0,0,0,0,0,0,0,-1,937,1422,0,0
-280,-398,0,0,0,0,0,0,0,0,0,-1,944,1422,0,0
-273,-398,0,0,0,0,0,0,0,0,0,-1,951,1422,0,0
-266,-398,0,0,0,0,0,0,0,0,0,-1,958,1422,0,0
-259,-398,0,0,0,0,0,0,0,0,0,-1,965,1422,0,0
-252,-398,0,0,0,0,0,0,0,0,0,-1,972,1422,0,0
-245,-398,0,0,0,0,0,0,0,0,0,-1,979,1422,0,0
-238,-398,0,0,0,0,0,0,0,0,0,-1,986,1422,0,0
-231,-398,0,0,0,0,0,0,0,0,0,-1,993,1422,0,0
-224,-398,0,0,0,0,0,0,0,0,0,-1,1000,1422,0,0
-217,-398,0,0,0,0,0,0,0,0,0,-1,1007,1422,0,0
-210,-398,0,0,0,0,0,0,0,0,0,-1,1014,1422,0,0
-203,-398,0,0,0,0,0,0,0,0,0,-1,1021,1422,0,0
-196,-398,0,0,0,0,0,0,0,0,0,-1,1028,1422,0,0
-189,-398,0,0,0,0,0,0,0,0,0,-1,1035,1422,0,0
-182,-398,0,0,0,0,0,0,0,0,0,-1,1042,1422,0,0
-175,-398,0,0,0,0,0,0,0,0,0,-1,1049,1422,0,0
-168,-398,0,0,0,0,0,0,0,0,0,-1,1056,1422,0,0
-161,-398,0,0,0,0,0,0,0,0,0,-1,1063,1422,0,0
-154,-398,0,0,0,0,0,0,0,0,0,-1,1070,1422,0,0
-147,-398,0,0,0,0,0,0,0,0,0,-1,1077,1422,0,0
-140,-398,0,0,0,0,0,0,0,0,0,-1,1084,1422,0,0
-133,-398,0,0,0,0,0,0,0,0,0,-1,1091,1422,0,0
-126,-398,0,0,0,0,0,0,0,0,0,-1,1098,1422,0,0
-119,-398,0,0,0,0,0,0,0,0,0,-1,1105,1422,0,0
-112,-398,0,0,0,0,0,0,0,0,0,-1,1112,1422,0,0
-105,-398,0,0,0,0,0,0,0,0,0,-1,1119,1422,0,0
-98,-398,0,0,0,0,0,0,0,0,0,-1,1126,1422,0,0
-91,-398,0,0,0,0,0,0,0,0,0,-1,1133,1422,0,0
-84,-398,0,0,0,0,0,0,0,0,0,-1,1140,1422,0,0
-77,-398,0,0,0,0,0,0,0,0,0,-1,1147,1422,0,0
-70,-398,0,0,0,0,0,0,0,0,0,-1,1154,1422,0,0
-63,-398,0,0,0,0,0,0,0,0,0,-1,1161,1422,0,0
-56,-398,0,0,0,0,0,0,0,0,0,-1,1168,1422,0,0
-49,-398,0,0,0,0,0,0,0,0,0,-1,1175,1422,0,0
-42,-398,0,0,0,0,0,0,0,0,0,-1,1182,1422,0,0
-35,-398,0,0,0,0,0,0,0,0,0,-1,1189,1422,0,0
-28,-398,0,0,0,0,0,0,0,0,0,-1,1196,1422,0,0
-21,-398,0,0,0,0,0,0,0,0,0,-1,1203,1422,0,0
-14,-398,0,0,0,0,0,0,0,0,0,-1,1210,1422,0,0
-7,-398,0,0,0,0,0,0,0,0,0,-1,1217,1422,0,0
0,-398,0,0,0,0,0,0,0,0,0,-1,1224,1422,0,0
7,-398,0,0,0,0,0,0,0,0,0,-1,1231,1422,0,0
14,-398,0,0,0,0,0,0,0,0,0,-1,1238,1422,0,0
21,-398,0,0,0,0,0,0,0,0,0,-1,1245,1422,0,0
28,-398,0,0,0,0,0,0,0,0,0,-1,1252,1422,0,0
35,-398,0,0,0,0,0,0,0,0,0,-1,1259,1422,0,0
42,-398,0,0,0,0,0,0,0,0,0,-1,1266,1422,0,0
49,-398,0,0,0,0,0,0,0,0,0,-1,1273,1422,0,0
56,-398,0,0,0,0,0,0,0,0,0,-1,1280,1422,0,0
63,-398,0,0,0,0,0,0,0,0,0,-1,1287,1422,0,0
70,-398,0,0,0,0,0,0,0,0,0,-1,1294,1422,0,0
77,-398,0,0,0,0,0,0,0,0,0,-1,1301,1422,0,0
84,-398,0,0,0,0,0,0,0,0,0,-1,1308,1422,0,0
91,-398,0,0,0,0,0,0,0,0,0,-1,1315,1422,0,0
98,-398,0,0,0,0,0,0,0,0,0,-1,1322,1422,0,0
105,-398,0,0,0,0,0,0,0,0,0,-1,1329,1422,0,0
112,-398,0,0,0,0,0,0,0,0,0,-1,1336,1422,0,0
119,-398,0,0,0,0,0,0,0,0,0,-1,1343,1422,0,0
126,-398,0,0,0,0,0,0,0,0,0,-1,1350,1422,0,0
133,-398,0,0,0,0,0,0,0,0,0,-1,1357,1422,0,0
140,-398,0,0,0,0,0,0,0,0,0,-1,1364,1422,0,0
147,-398,0,0,0,0,0,0,0,0,0,-1,1371,1422,0,0
154,-398,0,0,0,0,0,0,0,0,0,-1,1378,1422,0,0
161,-398,0,0,0,0,0,0,0,0,0,-1,1385,1422,0,0
168,-398,0,0,0,0,0,0,0,0,0,-1,1392,1422,0,0
175,-398,0,0,0,0,0,0,0,0,0,-1,1399,1422,0,0
182,-398,0,0,0,0,0,0,0,0,0,-1,1406,1422,0,0
189,-398,0,0,0,0,0,0,0,0,0,-1,1413,1422,0,0
196,-398,0,0,0,0,0,0,0,0,0,-1,1420,1422,0,0
203,-398,0,0,0,0,0,0,0,0,0,-1,1427,1422,0,0
210,-398,0,0,0,0,0,0,0,0,0,-1,1434,1422,0,0
217,-398,0,0,0,0,0,0,0,0,0,-1,1441,1422,0,0
224,-398,0,0,0,0,0,0,0,0,0,-1,1448,1422,0,0
231,-398,0,0,0,0,0,0,0,0,0,-1,1455,1422,0,0
238,-398,0,0,0,0,0,0,0,0,0,-1,1462,1422,0,0
245,-398,0,0,0,0,0,0,0,0,0,-1,1469,1422,0,0
252,-398,0,0,0,0,0,0,0,0,0,-1,1476,1422,0,0
259,-398,0,0,0,0,0,0,0,0,0,-1,1483,1422,0,0
266,-398,0,0,0,0,0,0,0,0,0,-1,1490,1422,0,0
273,-398,0,0,0,0,0,0,0,0,0,-1,1497,1422,0,0
280,-398,0,0,0,0,0,0,0,0,0,-1,1504,1422,0,0
287,-398,0,0,0,0,0,0,0,0,0,-1,1511,1422,0,0
294,-398,0,0,0,0,0,0,0,0,0,-1,1518,1422,0,0
301,-398,0,0,0,0,0,0,0,0,0,-1,1525,1422,0,0
308,-398,0,0,0,0,0,0,0,0,0,-1,1532,1422,0,0
315,-398,0,0,0,0,0,0,0,0,0,-1,1539,1422,0,0
322,-398,0,0,0,0,0,0,0,0,0,-1,1546,1422,0,0
329,-398,0,0,0,0,0,0,0,0,0,-1,1553,1422,0,0
336,-398,0,0,0,0,0,0,0,0,0,-1,1560,1422,0,0
343,-398,0,0,0,0,0,0,0,0,0,-1,1567,1422,0,0
350,-398,0,0,0,0,0,0,0,0,0,-1,1574,1422,0,0
357,-398,0,0,0,0,0,0,0,0,0,-1,1581,1422,0,0
364,-398,0,0,0,0,0,0,0,0,0,-1,1588,1422,0,0
371,-398,0,0,0,0,0,0,0,0,0,-1,1595,1422,0,0
378,-398,0,0,0,0,0,0,0,0,0,-1,1602,1422,0,0
385,-398,0,0,0,0,0,0,0,0,0,-1,1609,1422,0,0
392,-398,0,0,0,0,0,0,0,0,0,-1,1616,1422,0,0
399,-398,0,0,0,0,0,0,0,0,0,-1,1623,1422,0,0
406,-398,0,0,0,0,0,0,0,0,0,-1,1630,1422,0,0
413,-398,0,0,0,0,0,0,0,0,0,-1,1637,1422,0,0
420,-398,0,0,0,0,0,0,0,0,0,-1,1644,1422,0,0
427,-398,0,0,0,0,0,0,0,0,0,-1,1651,1422,0,0
434,-398,0,0,0,0,0,0,0,0,0,-1,1658,1422,0,0
441,-398,0,0,0,0,0,0,0,0,0,-1,1665,1422,0,0
448,-398,0,0,0,0,0,0,0,0,0,-1,1672,1422,0,0
455,-398,0,0,0,0,0,0,0,0,0,-1,1679,1422,0,0
462,-398,0,0,0,0,0,0,0,0,0,-1,1686,1422,0,0
469,-398,0,0,0,0,0,0,0,0,0,-1,1693,1422,0,0
476,-398,0,0,0,0,0,0,0,0,0,-1,1700,1422,0,0
483,-398,0,0,0,0,0,0,0,0,0,-1,1707,1422,0,0
490,-398,0,0,0,0,0,0,0,0,0,-1,1714,1422,0,0
497,-398,0,0,0,0,0,0,0,0,0,-1,1721,1422,0,0
504,-398,0,0,0,0,0,0,0,0,0,-1,1728,1422,0,0
511,-398,0,0,0,0,0,0,0,0,0,-1,1735,1422,0,0
518,-398,0,0,0,0,0,0,0,0,0,-1,1742,1422,0,0
525,-398,0,0,0,0,0,0,0,0,0,-1,1749,1422,0,0
532,-398,28.4558,3.84094,0,0,0,0,0,0,0,-1,1756,1422,28.4558,-3.8409
539,-398,27.0594,3.33887,0,0,0,0,0,0,0,-1,1763,1422,27.0595,-3.3389
546,-398,31.6873,5.58582,0,0,0,0,0,0,0,-1,1770,1422,31.6872,-5.58585
553,-398,30.4392,5.92383,0,0,0,0,0,0,0,-1,1777,1422,30.4392,-5.92386
560,-398,29.1621,6.30469,0,0,0,0,0,0,0,-1,1784,1422,29.1621,-6.30469
567,-398,27.8411,6.55029,0,0,0,0,0,0,0,-1,1791,1422,27.8411,-6.55033
574,-398,26.411,6.8916,0,0,0,0,0,0,0,-1,1798,1422,26.411,-6.8916
581,-398,24.75,7.11145,0,0,0,0,0,0,0,-1,1805,1422,24.7499,-7.11142
588,-398,23.1649,7.67969,0,0,0,0,0,0,0,-1,1812,1422,23.1649,-7.67975
595,-398,21.4253,7.86023,0,0,0,0,0,0,0,-1,1819,1422,21.4253,-7.86029
602,-398,19.6857,8.04077,0,0,0,0,0,0,0,-1,1826,1422,19.6856,-8.04083
609,-398,20.1573,12.3513,0,0,0,0,0,0,0,-1,1833,1422,20.1574,-12.3513
616,-398,20.16,11.6671,0.000236558,0.00267931,-0.00146054,0.00336186,-0.000445993,-1.13363,0.00240373,0.0471442,1840,1422,20.16,-11.6671
623,-398,20.1049,11.2507,0.000717356,0.0017855,-0.00121765,0.00258106,-7.81993e-05,-0.992069,0.00174736,0.0210076,1847,1422,20.1048,-11.2507
630,-398,20.1178,10.8698,0.00109187,0.00119181,-0.00103314,0.00217619,0.000107495,-0.809563,0.00141632,0.0123961,1854,1422,20.1178,-10.8697
637,-398,20.1129,10.499,0.00120715,0.000741939,-0.000783617,0.00179196,0.000157133,-0.641123,0.00114586,0.0133224,1861,1422,20.1129,-10.4991
644,-398,20.0159,10.1868,0.00115811,0.000428389,-0.00048036,0.00139647,0.000190034,-0.460603,0.000874543,0.0188645,1868,1422,20.0158,-10.1868
651,-398,20.049,9.87256,0.00110227,0.000188741,-0.000186324,0.00113881,0.0001522,-0.193658,0.000713902,0.026345,1875,1422,20.0489,-9.8726
658,-398,20.0763,9.5,0.0010525,3.83318e-06,8.43417e-05,0.00105924,-2.90683e-06,0.0797442,0.000707133,0.0228528,1882,1422,20.0764,-9.50005
665,-398,20.063,9.08447,0.000955501,-0.000166239,0.000421936,0.00109649,-0.000307227,0.322482,0.000852069,0.015085,1889,1422,20.063,-9.08442
672,-398,20.0664,8.72278,0.000865329,-0.000332996,0.000779804,0.00124957,-0.00071724,0.457827,0.00114932,0.0115073,1896,1422,20.0665,-8.72281
679,-398,20.0627,8.36841,0.0008461,-0.000607608,0.0011774,0.00150293,-0.00126444,0.508863,0.00159972,0.0112967,1903,1422,20.0627,-8.3684
686,-398,20.0857,8.00793,0.000931405,-0.00107366,0.00167637,0.00188215,-0.0020244,0.51591,0.00225595,0.0213067,1910,1422,20.0856,-8.00799
693,-398,20.097,7.70044,0,0,0,0,0,0,0,-1,1917,1422,20.0971,-7.70047
700,-398,14.0787,6.53918,0,0,0,0,0,0,0,-1,1924,1422,14.0787,-6.53921
707,-398,10.9731,5.479,0,0,0,0,0,0,0,-1,1931,1422,10.9732,-5.47896
714,-398,11.7313,6.17346,0,0,0,0,0,0,0,-1,1938,1422,11.7313,-6.17348
721,-398,13.9371,8.05103,0,0,0,0,0,0,0,-1,1945,1422,13.9372,-8.05102
728,-398,14.786,7.0282,0,0,0,0,0,0,0,-1,1952,1422,14.786,-7.0282
735,-398,0,0,0,0,0,0,0,0,0,-1,1959,1422,0,0
742,-398,0,0,0,0,0,0,0,0,0,-1,1966,1422,0,0
749,-398,0,0,0,0,0,0,0,0,0,-1,1973,1422,0,0
756,-398,0,0,0,0,0,0,0,0,0,-1,1980,1422,0,0
763,-398,0,0,0,0,0,0,0,0,0,-1,1987,1422,0,0
770,-398,0,0,0,0,0,0,0,0,0,-1,1994,1422,0,0
777,-398,0,0,0,0,0,0,0,0,0,-1,2001,1422,0,0
784,-398,0,0,0,0,0,0,0,0,0,-1,2008,1422,0,0
791,-398,0,0,0,0,0,0,0,0,0,-1,2015,1422,0,0
798,-398,0,0,0,0,0,0,0,0,0,-1,2022,1422,0,0
805,-398,0,0,0,0,0,0,0,0,0,-1,2029,1422,0,0
812,-398,0,0,0,0,0,0,0,0,0,-1,2036,1422,0,0
-700,-405,0,0,0,0,0,0,0,0,0,-1,524,1429,0,0
-693,-405,0,0,0,0,0,0,0,0,0,-1,531,1429,0,0
-686,-405,0,0,0,0,0,0,0,0,0,-1,538,1429,0,0
-679,-405,0,0,0,0,0,0,0,0,0,-1,545,1429,0,0
-672,-405,0,0,0,0,0,0,0,0,0,-1,552,1429,0,0
-665,-405,0,0,0,0,0,0,0,0,0,-1,559,1429,0,0
-658,-405,0,0,0,0,0,0,0,0,0,-1,566,1429,0,0
-651,-405,0,0,0,0,0,0,0,0,0,-1,573,1429,0,0
-644,-405,0,0,0,0,0,0,0,0,0,-1,580,1429,0,0
-637,-405,0,0,0,0,0,0,0,0,0,-1,587,1429,0,0
-630,-405,0,0,0,0,0,0,0,0,0,-1,594,1429,0,0
-623,-405,0,0,0,0,0,0,0,0,0,-1,601,1429,0,0
-616,-405,0,0,0,0,0,0,0,0,0,-1,608,1429,0,0
-609,-405,0,0,0,0,0,0,0,0,0,-1,615,1429,0,0
-602,-405,-5.80988,-3.46594,0,0,0,0,0,0,0,-1,622,1429,-5.80987,3.46592
-595,-405,-9.35413,2.01477,0,0,0,0,0,0,0,-1,629,1429,-9.35411,-2.01476
-588,-405,-7.35693,0.507202,0,0,0,0,0,0,0,-1,636,1429,-7.35696,-0.507187
-581,-405,-10.1284,1.62927,0,0,0,0,0,0,0,-1,643,1429,-10.1284,-1.62922
-574,-405,-9.32074,3.05896,0,0,0,0,0,0,0,-1,650,1429,-9.32077,-3.0589
-567,-405,-6.08093,4.52332,0,0,0,0,0,0,0,-1,657,1429,-6.08094,-4.52335
-560,-405,-8.16199,5.20093,0,0,0,0,0,0,0,-1,664,1429,-8.16199,-5.20087
-553,-405,-8.21051,5.88818,0,0,0,0,0,0,0,-1,671,1429,-8.21049,-5.88823
-546,-405,-8.1557,6.24731,-0.00958663,0.000845598,-0.00358922,0.00196118,-0.0107022,-1.26945,0.00787041,0.0349065,678,1429,-8.15571,-6.24731
-539,-405,-8.1521,6.66541,-0.00673126,0.000735791,-0.00249178,0.00149094,-0.00748641,-1.27654,0.00555502,0.0120584,685,1429,-8.15211,-6.66537
-532,-405,-8.14294,7.10132,-0.00426415,0.000725743,-0.00150781,0.00114597,-0.00468438,-1.29899,0.00356681,0.0147852,692,1429,-8.14292,-7.10132
-525,-405,-8.13959,7.51855,-0.00201203,0.000796055,-0.000542187,0.000897105,-0.00211307,-1.38654,0.00178457,0.014788,699,1429,-8.13958,-7.51856
-518,-405,-8.14374,7.90515,3.6809e-05,0.000873277,0.000373979,0.0010161,-0.00010601,1.206,0.000715357,0.0158094,706,1429,-8.14372,-7.90512
-511,-405,-8.15735,8.28186,0.0019863,0.00103792,0.00133438,0.00292825,9.59819e-05,0.614676,0.00192097,0.0156283,713,1429,-8.15733,-8.28189
-504,-405,-8.16656,8.66382,0.00386606,0.00133531,0.00236275,0.00528094,-7.95727e-05,0.539556,0.00354745,0.0168962,720,1429,-8.16659,-8.66379
-497,-405,-8.16437,9.09985,0.00565508,0.0017195,0.00342589,0.00763811,-0.000263525,0.524711,0.00518215,0.0141996,727,1429,-8.16435,-9.09981
-490,-405,-8.18549,9.51563,0.00690383,0.00185176,0.00415666,0.00924182,-0.000486222,0.512364,0.00632952,0.0122665,734,1429,-8.18546,-9.51566
-483,-405,-8.11719,9.96155,0.00715181,0.00187372,0.00394604,0.00925995,-0.000234424,0.490665,0.00625291,0.0158572,741,1429,-8.11716,-9.96153
-476,-405,-8.07434,10.3516,0.00693879,0.00109663,0.00285038,0.00809905,-6.36401e-05,0.386575,0.00542071,0.0403874,748,1429,-8.07435,-10.3516
-469,-405,-8.30353,10.7349,0,0,0,0,0,0,0,-1,755,1429,-8.30352,-10.7348
-462,-405,-8.35663,10.626,0,0,0,0,0,0,0,-1,762,1429,-8.35662,-10.626
-455,-405,-9.021,9.51111,0,0,0,0,0,0,0,-1,769,1429,-9.021,-9.51109
-448,-405,-8.4649,6.82813,0,0,0,0,0,0,0,-1,776,1429,-8.46492,-6.82817
-441,-405,-6.6712,4.23767,0,0,0,0,0,0,0,-1,783,1429,-6.67121,-4.23764
-434,-405,-9.62549,3.94189,0,0,0,0,0,0,0,-1,790,1429,-9.62546,-3.94191
-427,-405,-10.9764,3.73926,0,0,0,0,0,0,0,-1,797,1429,-10.9764,-3.73923
-420,-405,-12.1187,3.68506,0,0,0,0,0,0,0,-1,804,1429,-12.1187,-3.68512
-413,-405,-13.5353,3.75659,0,0,0,0,0,0,0,-1,811,1429,-13.5353,-3.75655
-406,-405,-14.7374,3.99817,0,0,0,0,0,0,0,-1,818,1429,-14.7374,-3.99814
-399,-405,0,0,0,0,0,0,0,0,0,-1,825,1429,0,0
-392,-405,0,0,0,0,0,0,0,0,0,-1,832,1429,0,0
-385,-405,0,0,0,0,0,0,0,0,0,-1,839,1429,0,0
-378,-405,0,0,0,0,0,0,0,0,0,-1,846,1429,0,0
-371,-405,0,0,0,0,0,0,0,0,0,-1,853,1429,0,0
-364,-405,0,0,0,0,0,0,0,0,0,-1,860,1429,0,0
-357,-405,0,0,0,0,0,0,0,0,0,-1,867,1429,0,0
-350,-405,0,0,0,0,0,0,0,0,0,-1,874,1429,0,0
-343,-405,0,0,0,0,0,0,0,0,0,-1,881,1429,0,0
-336,-405,0,0,0,0,0,0,0,0,0,-1,888,1429,0,0
-329,-405,0,0,0,0,0,0,0,0,0,-1,895,1429,0,0
-322,-405,0,0,0,0,0,0,0,0,0,-1,902,1429,0,0
-315,-405,0,0,0,0,0,0,0,0,0,-1,909,1429,0,0
-308,-405,0,0,0,0,0,0,0,0,0,-1,916,1429,0,0
-301,-405,0,0,0,0,0,0,0,0,0,-1,923,1429,0,0
-294,-405,0,0,0,0,0,0,0,0,0,-1,930,1429,0,0
-287,-405,0,0,0,0,0,0,0,0,0,-1,937,1429,0,0
-280,-405,0,0,0,0,0,0,0,0,0,-1,944,1429,0,0
-273,-405,0,0,0,0,0,0,0,0,0,-1,951,1429,0,0
-266,-405,0,0,0,0,0,0,0,0,0,-1,958,1429,0,0
-259,-405,0,0,0,0,0,0,0,0,0,-1,965,1429,0,0
-252,-405,0,0,0,0,0,0,0,0,0,-1,972,1429,0,0
-245,-405,0,0,0,0,0,0,0,0,0,-1,979,1429,0,0
-238,-405,0,0,0,0,0,0,0,0,0,-1,986,1429,0,0
-231,-405,0,0,0,0,0,0,0,0,0,-1,993,1429,0,0
-224,-405,0,0,0,0,0,0,0,0,0,-1,1000,1429,0,0
-217,-405,0,0,0,0,0,0,0,0,0,-1,1007,1429,0,0
-210,-405,0,0,0,0,0,0,0,0,0,-1,1014,1429,0,0
-203,-405,0,0,0,0,0,0,0,0,0,-1,1021,1429,0,0
-196,-405,0,0,0,0,0,0,0,0,0,-1,1028,1429,0,0
-189,-405,0,0,0,0,0,0,0,0,0,-1,1035,1429,0,0
-182,-405,0,0,0,0,0,0,0,0,0,-1,1042,1429,0,0
-175,-405,0,0,0,0,0,0,0,0,0,-1,1049,1429,0,0
-168,-405,0,0,0,0,0,0,0,0,0,-1,1056,1429,0,0
-161,-405,0,0,0,0,0,0,0,0,0,-1,1063,1429,0,0
-154,-405,0,0,0,0,0,0,0,0,0,-1,1070,1429,0,0
-147,-405,0,0,0,0,0,0,0,0,0,-1,1077,1429,0,0
-140,-405,0,0,0,0,0,0,0,0,0,-1,1084,1429,0,0
-133,-405,0,0,0,0,0,0,0,0,0,-1,1091,1429,0,0
-126,-405,0,0,0,0,0,0,0,0,0,-1,1098,1429,0,0
-119,-405,0,0,0,0,0,0,0,0,0,-1,1105,1429,0,0
-112,-405,0,0,0,0,0,0,0,0,0,-1,1112,1429,0,0
-105,-405,0,0,0,0,0,0,0,0,0,-1,1119,1429,0,0
-98,-405,0,0,0,0,0,0,0,0,0,-1,1126,1429,0,0
-91,-405,0,0,0,0,0,0,0,0,0,-1,1133,1429,0,0
-84,-405,0,0,0,0,0,0,0,0,0,-1,1140,1429,0,0
-77,-405,0,0,0,0,0,0,0,0,0,-1,1147,1429,0,0
-70,-405,0,0,0,0,0,0,0,0,0,-1,1154,1429,0,0
-63,-405,0,0,0,0,0,0,0,0,0,-1,1161,1429,0,0
-56,-405,0,0,0,0,0,0,0,0,0,-1,1168,1429,0,0
-49,-405,0,0,0,0,0,0,0,0,0,-1,1175,1429,0,0
-42,-405,0,0,0,0,0,0,0,0,0,-1,1182,1429,0,0
-35,-405,0,0,0,0,0,0,0,0,0,-1,1189,1429,0,0
-28,-405,0,0,0,0,0,0,0,0,0,-1,1196,1429,0,0
-21,-405,0,0,0,0,0,0,0,0,0,-1,1203,1429,0,0
-14,-405,0,0,0,0,0,0,0,0,0,-1,1210,1429,0,0
-7,-405,0,0,0,0,0,0,0,0,0,-1,1217,1429,0,0
0,-405,0,0,0,0,0,0,0,0,0,-1,1224,1429,0,0
7,-405,0,0,0,0,0,0,0,0,0,-1,1231,1429,0,0
14,-405,0,0,0,0,0,0,0,0,0,-1,1238,1429,0,0
21,-405,0,0,0,0,0,0,0,0,0,-1,1245,1429,0,0
28,-405,0,0,0,0,0,0,0,0,0,-1,1252,1429,0,0
35,-405,0,0,0,0,0,0,0,0,0,-1,1259,1429,0,0
42,-405,0,0,0,0,0,0,0,0,0,-1,1266,1429,0,0
49,-405,0,0,0,0,0,0,0,0,0,-1,1273,1429,0,0
56,-405,0,0,0,0,0,0,0,0,0,-1,1280,1429,0,0
63,-405,0,0,0,0,0,0,0,0,0,-1,1287,1429,0,0
70,-405,0,0,0,0,0,0,0,0,0,-1,1294,1429,0,0
77,-405,0,0,0,0,0,0,0,0,0,-1,1301,1429,0,0
84,-405,0,0,0,0,0,0,0,0,0,-1,1308,1429,0,0
91,-405,0,0,0,0,0,0,0,0,0,-1,1315,1429,0,0
98,-405,0,0,0,0,0,0,0,0,0,-1,1322,1429,0,0
105,-405,0,0,0,0,0,0,0,0,0,-1,1329,1429,0,0
112,-405,0,0,0,0,0,0,0,0,0,-1,1336,1429,0,0
119,-405,0,0,0,0,0,0,0,0,0,-1,1343,1429,0,0
126,-405,0,0,0,0,0,0,0,0,0,-1,1350,1429,0,0
133,-405,0,0,0,0,0,0,0,0,0,-1,1357,1429,0,0
140,-405,0,0,0,0,0,0,0,0,0,-1,1364,1429,0,0
147,-405,0,0,0,0,0,0,0,0,0,-1,1371,1429,0,0
154,-405,0,0,0,0,0,0,0,0,0,-1,1378,1429,0,0
161,-405,0,0,0,0,0,0,0,0,0,-1,1385,1429,0,0
168,-405,0,0,0,0,0,0,0,0,0,-1,1392,1429,0,0
175,-405,0,0,0,0,0,0,0,0,0,-1,1399,1429,0,0
182,-405,0,0,0,0,0,0,0,0,0,-1,1406,1429,0,0
189,-405,0,0,0,0,0,0,0,0,0,-1,1413,1429,0,0
196,-405,0,0,0,0,0,0,0,0,0,-1,1420,1429,0,0
203,-405,0,0,0,0,0,0,0,0,0,-1,1427,1429,0,0
210,-405,0,0,0,0,0,0,0,0,0,-1,1434,1429,0,0
217,-405,0,0,0,0,0,0,0,0,0,-1,1441,1429,0,0
224,-405,0,0,0,0,0,0,0,0,0,-1,1448,1429,0,0
231,-405,0,0,0,0,0,0,0,0,0,-1,1455,1429,0,0
238,-405,0,0,0,0,0,0,0,0,0,-1,1462,1429,0,0
245,-405,0,0,0,0,0,0,0,0,0,-1,1469,1429,0,0
252,-405,0,0,0,0,0,0,0,0,0,-1,1476,1429,0,0
259,-405,0,0,0,0,0,0,0,0,0,-1,1483,1429,0,0
266,-405,0,0,0,0,0,0,0,0,0,-1,1490,1429,0,0
273,-405,0,0,0,0,0,0,0,0,0,-1,1497,1429,0,0
280,-405,0,0,0,0,0,0,0,0,0,-1,1504,1429,0,0
287,-405,0,0,0,0,0,0,0,0,0,-1,1511,1429,0,0
294,-405,0,0,0,0,0,0,0,0,0,-1,1518,1429,0,0
301,-405,0,0,0,0,0,0,0,0,0,-1,1525,1429,0,0
308,-405,0,0,0,0,0,0,0,0,0,-1,1532,1429,0,0
315,-405,0,0,0,0,0,0,0,0,0,-1,1539,1429,0,0
322,-405,0,0,0,0,0,0,0,0,0,-1,1546,1429,0,0
329,-405,0,0,0,0,0,0,0,0,0,-1,1553,1429,0,0
336,-405,0,0,0,0,0,0,0,0,0,-1,1560,1429,0,0
343,-405,0,0,0,0,0,0,0,0,0,-1,1567,1429,0,0
350,-405,0,0,0,0,0,0,0,0,0,-1,1574,1429,0,0
357,-405,0,0,0,0,0,0,0,0,0,-1,1581,1429,0,0
364,-405,0,0,0,0,0,0,0,0,0,-1,1588,1429,0,0
371,-405,0,0,0,0,0,0,0,0,0,-1,1595,1429,0,0
378,-405,0,0,0,0,0,0,0,0,0,-1,1602,1429,0,0
385,-405,0,0,0,0,0,0,0,0,0,-1,1609,1429,0,0
392,-405,0,0,0,0,0,0,0,0,0,-1,1616,1429,0,0
399,-405,0,0,0,0,0,0,0,0,0,-1,1623,1429,0,0
406,-405,0,0,0,0,0,0,0,0,0,-1,1630,1429,0,0
413,-405,0,0,0,0,0,0,0,0,0,-1,1637,1429,0,0
420,-405,0,0,0,0,0,0,0,0,0,-1,1644,1429,0,0
427,-405,0,0,0,0,0,0,0,0,0,-1,1651,1429,0,0
434,-405,0,0,0,0,0,0,0,0,0,-1,1658,1429,0,0
441,-405,0,0,0,0,0,0,0,0,0,-1,1665,1429,0,0
448,-405,0,0,0,0,0,0,0,0,0,-1,1672,1429,0,0
455,-405,0,0,0,0,0,0,0,0,0,-1,1679,1429,0,0
462,-405,0,0,0,0,0,0,0,0,0,-1,1686,1429,0,0
469,-405,0,0,0,0,0,0,0,0,0,-1,1693,1429,0,0
476,-405,0,0,0,0,0,0,0,0,0,-1,1700,1429,0,0
483,-405,0,0,0,0,0,0,0,0,0,-1,1707,1429,0,0
490,-405,0,0,0,0,0,0,0,0,0,-1,1714,1429,0,0
497,-405,0,0,0,0,0,0,0,0,0,-1,1721,1429,0,0
504,-405,0,0,0,0,0,0,0,0,0,-1,1728,1429,0,0
511,-405,0,0,0,0,0,0,0,0,0,-1,1735,1429,0,0
518,-405,0,0,0,0,0,0,0,0,0,-1,1742,1429,0,0
525,-405,31.1563,-1.40942,0,0,0,0,0,0,0,-1,1749,1429,31.1563,1.40937
532,-405,28.156,4.8783,0,0,0,0,0,0,0,-1,1756,1429,28.1561,-4.87833
539,-405,26.5133,3.02454,0,0,0,0,0,0,0,-1,1763,1429,26.5133,-3.0246
546,-405,29.5735,6.53052,0,0,0,0,0,0,0,-1,1770,1429,29.5735,-6.53049
553,-405,28.2911,6.70654,0,0,0,0,0,0,0,-1,1777,1429,28.2912,-6.70656
560,-405,26.9299,7.08472,0,0,0,0,0,0,0,-1,1784,1429,26.9299,-7.08469
567,-405,25.804,7.14661,0,0,0,0,0,0,0,-1,1791,1429,25.8039,-7.14665
574,-405,25.1151,8.07971,0,0,0,0,0,0,0,-1,1798,1429,25.1151,-8.07965
581,-405,23.5055,8.505,0,0,0,0,0,0,0,-1,1805,1429,23.5054,-8.50501
588,-405,21.7491,8.98254,0,0,0,0,0,0,0,-1,1812,1429,21.7491,-8.98254
595,-405,21.6327,10.7795,0,0,0,0,0,0,0,-1,1819,1429,21.6327,-10.7796
602,-405,19.6298,12.436,0,0,0,0,0,0,0,-1,1826,1429,19.6297,-12.4361
609,-405,19.7633,12.1364,-0.000398979,0.00353015,-0.00123282,0.00388493,-0.000753758,-1.29059,0.00287434,0.0428007,1833,1429,19.7633,-12.1364
616,-405,19.7338,11.7083,0.000215086,0.00237238,-0.00105612,0.00280333,-0.000215861,-1.18337,0.00194484,0.0173556,1840,1429,19.7338,-11.7082
623,-405,19.7198,11.298,0.000598748,0.00154271,-0.000868268,0.00205899,8.24709e-05,-1.03435,0.00134601,0.0102727,1847,1429,19.7198,-11.2979
630,-405,19.7271,10.9066,0.000881445,0.000973447,-0.000735124,0.00166401,0.000190885,-0.816645,0.0010515,0.0101712,1854,1429,19.7271,-10.9066
637,-405,19.7345,10.5216,0.000894081,0.000526912,-0.000479562,0.001224,0.000196996,-0.602595,0.000758904,0.0110869,1861,1429,19.7345,-10.5216
644,-405,19.6504,10.2068,0.000763101,0.000217021,-0.00018634,0.000820627,0.000159496,-0.299429,0.00050243,0.0281628,1868,1429,19.6504,-10.2068
651,-405,19.6296,9.88464,0.00061789,1.41063e-05,9.16745e-05,0.000631502,4.93979e-07,0.147409,0.000420837,0.0307683,1875,1429,19.6296,-9.88461
658,-405,19.6981,9.50146,0.000446417,-0.000117639,0.00036501,0.000625661,-0.000296883,0.456475,0.000543789,0.0228239,1882,1429,19.6981,-9.50144
665,-405,19.7006,9.0968,0.000221478,-0.000192879,0.000694079,0.000738639,-0.00071004,0.640361,0.00083645,0.0181356,1889,1429,19.7005,-9.09677
672,-405,19.7162,8.73389,-1.79512e-05,-0.000279662,0.00106709,0.000926274,-0.00122389,0.724389,0.00124535,0.0209988,1896,1429,19.7162,-8.73387
679,-405,19.7212,8.35449,-0.000192844,-0.000486251,0.00149718,0.00116481,-0.0018439,0.736561,0.00175176,0.0202796,1903,1429,19.7212,-8.35444
686,-405,19.6035,8.01196,-0.000279233,-0.000919955,0.00209164,0.00151644,-0.00271562,0.709407,0.00247586,0.0415282,1910,1429,19.6035,-8.01193
693,-405,19.4044,7.79346,0,0,0,0,0,0,0,-1,1917,1429,19.4044,-7.79344
700,-405,9.1958,4.02026,0,0,0,0,0,0,0,-1,1924,1429,9.19579,-4.02025
707,-405,7.40308,3.83191,0,0,0,0,0,0,0,-1,1931,1429,7.40311,-3.83194
714,-405,7.33252,3.47388,0,0,0,0,0,0,0,-1,1938,1429,7.33255,-3.47383
721,-405,9.23523,0.993896,0,0,0,0,0,0,0,-1,1945,1429,9.23523,-0.993884
728,-405,0,0,0,0,0,0,0,0,0,-1,1952,1429,0,0
735,-405,0,0,0,0,0,0,0,0,0,-1,1959,1429,0,0
742,-405,0,0,0,0,0,0,0,0,0,-1,1966,1429,0,0
749,-405,0,0,0,0,0,0,0,0,0,-1,1973,1429,0,0
756,-405,0,0,0,0,0,0,0,0,0,-1,1980,1429,0,0
763,-405,0,0,0,0,0,0,0,0,0,-1,1987,1429,0,0
770,-405,0,0,0,0,0,0,0,0,0,-1,1994,1429,0,0
777,-405,0,0,0,0,0,0,0,0,0,-1,2001,1429,0,0
784,-405,0,0,0,0,0,0,0,0,0,-1,2008,1429,0,0
791,-405,0,0,0,0,0,0,0,0,0,-1,2015,1429,0,0
798,-405,0,0,0,0,0,0,0,0,0,-1,2022,1429,0,0
805,-405,0,0,0,0,0,0,0,0,0,-1,2029,1429,0,0
812,-405,0,0,0,0,0,0,0,0,0,-1,2036,1429,0,0
-700,-412,0,0,0,0,0,0,0,0,0,-1,524,1436,0,0
-693,-412,0,0,0,0,0,0,0,0,0,-1,531,1436,0,0
-686,-412,0,0,0,0,0,0,0,0,0,-1,538,1436,0,0
-679,-412,0,0,0,0,0,0,0,0,0,-1,545,1436,0,0
-672,-412,0,0,0,0,0,0,0,0,0,-1,552,1436,0,0
-665,-412,0,0,0,0,0,0,0,0,0,-1,559,1436,0,0
-658,-412,0,0,0,0,0,0,0,0,0,-1,566,1436,0,0
-651,-412,0,0,0,0,0,0,0,0,0,-1,573,1436,0,0
-644,-412,0,0,0,0,0,0,0,0,0,-1,580,1436,0,0
-637,-412,0,0,0,0,0,0,0,0,0,-1,587,1436,0,0
-630,-412,0,0,0,0,0,0,0,0,0,-1,594,1436,0,0
-623,-412,0,0,0,0,0,0,0,0,0,-1,601,1436,0,0
-616,-412,0,0,0,0,0,0,0,0,0,-1,608,1436,0,0
-609,-412,0,0,0,0,0,0,0,0,0,-1,615,1436,0,0
-602,-412,-3.72766,-3.50012,0,0,0,0,0,0,0,-1,622,1436,-3.72764,3.50017
-595,-412,-10.3706,0.65564,0,0,0,0,0,0,0,-1,629,1436,-10.3706,-0.655672
-588,-412,-8.17957,1.94934,0,0,0,0,0,0,0,-1,636,1436,-8.17956,-1.94939
-581,-412,-6.60065,-0.0554199,0,0,0,0,0,0,0,-1,643,1436,-6.60063,0.0554733
-574,-412,-8.34131,5.25012,0,0,0,0,0,0,0,-1,650,1436,-8.34129,-5.25012
-567,-412,-7.50354,3.65454,0,0,0,0,0,0,0,-1,657,1436,-7.50356,-3.65452
-560,-412,-5.49805,5.2561,0,0,0,0,0,0,0,-1,664,1436,-5.49802,-5.25609
-553,-412,-7.16614,6.2041,0,0,0,0,0,0,0,-1,671,1436,-7.16613,-6.20412
-546,-412,-7.73877,6.29651,0,0,0,0,0,0,0,-1,678,1436,-7.73876,-6.29657
-539,-412,-7.72321,6.63586,-0.0051157,0.00387472,0.000346033,0.00388802,-0.005129,1.53238,0.00522239,0.0211959,685,1436,-7.72321,-6.63592
-532,-412,-7.73608,7.11707,-0.00309306,0.00325263,0.000720759,0.00333347,-0.0031739,1.45911,0.00375741,0.013261,692,1436,-7.73611,-7.11709
-525,-412,-7.73535,7.53345,-0.00131743,0.00275167,0.00108121,0.00302112,-0.00158688,1.32656,0.00270304,0.0152338,699,1436,-7.73536,-7.53348
-518,-412,-7.72443,7.92444,0.000187206,0.00224919,0.00137522,0.00293697,-0.000500569,1.10705,0.0021444,0.0161366,706,1436,-7.72441,-7.92441
-511,-412,-7.75977,8.3103,0.00155863,0.00186541,0.00171923,0.00343808,-1.40398e-05,0.82989,0.00229675,0.0189383,713,1436,-7.75974,-8.31034
-504,-412,-7.7757,8.68274,0.00286887,0.00165391,0.00216168,0.0045068,1.59759e-05,0.64842,0.00299922,0.0193392,720,1436,-7.77569,-8.68275
-497,-412,-7.7832,9.10864,0.00410441,0.00159949,0.00267962,0.00580982,-0.000105922,0.566783,0.003909,0.0150202,727,1436,-7.7832,-9.10864
-490,-412,-7.7807,9.51941,0.00479568,0.00132578,0.00288142,0.00642416,-0.000302693,0.514411,0.00438715,0.0123009,734,1436,-7.78069,-9.5194
-483,-412,-7.77802,9.90784,0.00464423,0.00100526,0.00220383,0.00568261,-3.31174e-05,0.440319,0.00379949,0.00898224,741,1436,-7.77799,-9.90788
-476,-412,-7.67078,10.4625,0.00413479,-0.00010108,0.000669428,0.00423807,-0.000204356,0.153069,0.0028959,0.0200523,748,1436,-7.67077,-10.4625
-469,-412,-7.76123,10.804,0.00364,-0.000284645,-0.000541082,0.00371323,-0.000357876,-0.134525,0.00260299,0.0376397,755,1436,-7.76121,-10.8039
-462,-412,-7.75684,11.177,0,0,0,0,0,0,0,-1,762,1436,-7.75682,-11.177
-455,-412,-7.81519,10.7604,0,0,0,0,0,0,0,-1,769,1436,-7.8152,-10.7604
-448,-412,-7.38086,8.78186,0,0,0,0,0,0,0,-1,776,1436,-7.38088,-8.78183
-441,-412,-8.79523,9.05286,0,0,0,0,0,0,0,-1,783,1436,-8.79521,-9.0529
-434,-412,-10.6305,8.03577,0,0,0,0,0,0,0,-1,790,1436,-10.6305,-8.0358
-427,-412,-10.0004,5.15271,0,0,0,0,0,0,0,-1,797,1436,-10.0004,-5.15266
-420,-412,-10.4468,4.9043,0,0,0,0,0,0,0,-1,804,1436,-10.4468,-4.90429
-413,-412,-11.5704,4.97766,0,0,0,0,0,0,0,-1,811,1436,-11.5704,-4.97771
-406,-412,-13.1968,5.70093,0,0,0,0,0,0,0,-1,818,1436,-13.1968,-5.70096
-399,-412,-10.5506,0.771973,0,0,0,0,0,0,0,-1,825,1436,-10.5506,-0.771954
-392,-412,0,0,0,0,0,0,0,0,0,-1,832,1436,0,0
-385,-412,0,0,0,0,0,0,0,0,0,-1,839,1436,0,0
-378,-412,0,0,0,0,0,0,0,0,0,-1,846,1436,0,0
-371,-412,0,0,0,0,0,0,0,0,0,-1,853,1436,0,0
-364,-412,0,0,0,0,0,0,0,0,0,-1,860,1436,0,0
-357,-412,0,0,0,0,0,0,0,0,0,-1,867,1436,0,0
-350,-412,0,0,0,0,0,0,0,0,0,-1,874,1436,0,0
-343,-412,0,0,0,0,0,0,0,0,0,-1,881,1436,0,0
-336,-412,0,0,0,0,0,0,0,0,0,-1,888,1436,0,0
-329,-412,0,0,0,0,0,0,0,0,0,-1,895,1436,0,0
-322,-412,0,0,0,0,0,0,0,0,0,-1,902,1436,0,0
-315,-412,0,0,0,0,0,0,0,0,0,-1,909,1436,0,0
-308,-412,0,0,0,0,0,0,0,0,0,-1,916,1436,0,0
-301,-412,0,0,0,0,0,0,0,0,0,-1,923,1436,0,0
-294,-412,0,0,0,0,0,0,0,0,0,-1,930,1436,0,0
-287,-412,0,0,0,0,0,0,0,0,0,-1,937,1436,0,0
-280,-412,0,0,0,0,0,0,0,0,0,-1,944,1436,0,0
-273,-412,0,0,0,0,0,0,0,0,0,-1,951,1436,0,0
-266,-412,0,0,0,0,0,0,0,0,0,-1,958,1436,0,0
-259,-412,0,0,0,0,0,0,0,0,0,-1,965,1436,0,0
-252,-412,0,0,0,0,0,0,0,0,0,-1,972,1436,0,0
-245,-412,0,0,0,0,0,0,0,0,0,-1,979,1436,0,0
-238,-412,0,0,0,0,0,0,0,0,0,-1,986,1436,0,0
-231,-412,0,0,0,0,0,0,0,0,0,-1,993,1436,0,0
-224,-412,0,0,0,0,0,0,0,0,0,-1,1000,1436,0,0
-217,-412,0,0,0,0,0,0,0,0,0,-1,1007,1436,0,0
-210,-412,0,0,0,0,0,0,0,0,0,-1,1014,1436,0,0
-203,-412,0,0,0,0,0,0,0,0,0,-1,1021,1436,0,0
-196,-412,0,0,0,0,0,0,0,0,0,-1,1028,1436,0,0
-189,-412,0,0,0,0,0,0,0,0,0,-1,1035,1436,0,0
-182,-412,0,0,0,0,0,0,0,0,0,-1,1042,1436,0,0
-175,-412,0,0,0,0,0,0,0,0,0,-1,1049,1436,0,0
-168,-412,0,0,0,0,0,0,0,0,0,-1,1056,1436,0,0
-161,-412,0,0,0,0,0,0,0,0,0,-1,1063,1436,0,0
-154,-412,0,0,0,0,0,0,0,0,0,-1,1070,1436,0,0
-147,-412,0,0,0,0,0,0,0,0,0,-1,1077,1436,0,0
-140,-412,0,0,0,0,0,0,0,0,0,-1,1084,1436,0,0
-133,-412,0,0,0,0,0,0,0,0,0,-1,1091,1436,0,0
-126,-412,0,0,0,0,0,0,0,0,0,-1,1098,1436,0,0
-119,-412,0,0,0,0,0,0,0,0,0,-1,1105,1436,0,0
-112,-412,0,0,0,0,0,0,0,0,0,-1,1112,1436,0,0
-105,-412,0,0,0,0,0,0,0,0,0,-1,1119,1436,0,0
-98,-412,0,0,0,0,0,0,0,0,0,-1,1126,1436,0,0
-91,-412,0,0,0,0,0,0,0,0,0,-1,1133,1436,0,0
-84,-412,0,0,0,0,0,0,0,0,0,-1,1140,1436,0,0
-77,-412,0,0,0,0,0,0,0,0,0,-1,1147,1436,0,0
-70,-412,0,0,0,0,0,0,0,0,0,-1,1154,1436,0,0
-63,-412,0,0,0,0,0,0,0,0,0,-1,1161,1436,0,0
-56,-412,0,0,0,0,0,0,0,0,0,-1,1168,1436,0,0
-49,-412,0,0,0,0,0,0,0,0,0,-1,1175,1436,0,0
-42,-412,0,0,0,0,0,0,0,0,0,-1,1182,1436,0,0
-35,-412,0,0,0,0,0,0,0,0,0,-1,1189,1436,0,0
-28,-412,0,0,0,0,0,0,0,0,0,-1,1196,1436,0,0
-21,-412,0,0,0,0,0,0,0,0,0,-1,1203,1436,0,0
-14,-412,0,0,0,0,0,0,0,0,0,-1,1210,1436,0,0
-7,-412,0,0,0,0,0,0,0,0,0,-1,1217,1436,0,0
0,-412,0,0,0,0,0,0,0,0,0,-1,1224,1436,0,0
7,-412,0,0,0,0,0,0,0,0,0,-1,1231,1436,0,0
14,-412,0,0,0,0,0,0,0,0,0,-1,1238,1436,0,0
21,-412,0,0,0,0,0,0,0,0,0,-1,1245,1436,0,0
28,-412,0,0,0,0,0,0,0,0,0,-1,1252,1436,0,0
35,-412,0,0,0,0,0,0,0,0,0,-1,1259,1436,0,0
42,-412,0,0,0,0,0,0,0,0,0,-1,1266,1436,0,0
49,-412,0,0,0,0,0,0,0,0,0,-1,1273,1436,0,0
56,-412,0,0,0,0,0,0,0,0,0,-1,1280,1436,0,0
63,-412,0,0,0,0,0,0,0,0,0,-1,1287,1436,0,0
70,-412,0,0,0,0,0,0,0,0,0,-1,1294,1436,0,0
77,-412,0,0,0,0,0,0,0,0,0,-1,1301,1436,0,0
84,-412,0,0,0,0,0,0,0,0,0,-1,1308,1436,0,0
91,-412,0,0,0,0,0,0,0,0,0,-1,1315,1436,0,0
98,-412,0,0,0,0,0,0,0,0,0,-1,1322,1436,0,0
105,-412,0,0,0,0,0,0,0,0,0,-1,1329,1436,0,0
112,-412,0,0,0,0,0,0,0,0,0,-1,1336,1436,0,0
119,-412,0,0,0,0,0,0,0,0,0,-1,1343,1436,0,0
126,-412,0,0,0,0,0,0,0,0,0,-1,1350,1436,0,0
133,-412,0,0,0,0,0,0,0,0,0,-1,1357,1436,0,0
140,-412,0,0,0,0,0,0,0,0,0,-1,1364,1436,0,0
147,-412,0,0,0,0,0,0,0,0,0,-1,1371,1436,0,0
154,-412,0,0,0,0,0,0,0,0,0,-1,1378,1436,0,0
161,-412,0,0,0,0,0,0,0,0,0,-1,1385,1436,0,0
168,-412,0,0,0,0,0,0,0,0,0,-1,1392,1436,0,0
175,-412,0,0,0,0,0,0,0,0,0,-1,1399,1436,0,0
182,-412,0,0,0,0,0,0,0,0,0,-1,1406,1436,0,0
189,-412,0,0,0,0,0,0,0,0,0,-1,1413,1436,0,0
196,-412,0,0,0,0,0,0,0,0,0,-1,1420,1436,0,0
203,-412,0,0,0,0,0,0,0,0,0,-1,1427,1436,0,0
210,-412,0,0,0,0,0,0,0,0,0,-1,1434,1436,0,0
217,-412,0,0,0,0,0,0,0,0,0,-1,1441,1436,0,0
224,-412,0,0,0,0,0,0,0,0,0,-1,1448,1436,0,0
231,-412,0,0,0,0,0,0,0,0,0,-1,1455,1436,0,0
238,-412,0,0,0,0,0,0,0,0,0,-1,1462,1436,0,0
245,-412,0,0,0,0,0,0,0,0,0,-1,1469,1436,0,0
252,-412,0,0,0,0,0,0,0,0,0,-1,1476,1436,0,0
259,-412,0,0,0,0,0,0,0,0,0,-1,1483,1436,0,0
266,-412,0,0,0,0,0,0,0,0,0,-1,1490,1436,0,0
273,-412,0,0,0,0,0,0,0,0,0,-1,1497,1436,0,0
280,-412,0,0,0,0,0,0,0,0,0,-1,1504,1436,0,0
287,-412,0,0,0,0,0,0,0,0,0,-1,1511,1436,0,0
294,-412,0,0,0,0,0,0,0,0,0,-1,1518,1436,0,0
301,-412,0,0,0,0,0,0,0,0,0,-1,1525,1436,0,0
308,-412,0,0,0,0,0,0,0,0,0,-1,1532,1436,0,0
315,-412,0,0,0,0,0,0,0,0,0,-1,1539,1436,0,0
322,-412,0,0,0,0,0,0,0,0,0,-1,1546,1436,0,0
329,-412,0,0,0,0,0,0,0,0,0,-1,1553,1436,0,0
336,-412,0,0,0,0,0,0,0,0,0,-1,1560,1436,0,0
343,-412,0,0,0,0,0,0,0,0,0,-1,1567,1436,0,0
350,-412,0,0,0,0,0,0,0,0,0,-1,1574,1436,0,0
357,-412,0,0,0,0,0,0,0,0,0,-1,1581,1436,0,0
364,-412,0,0,0,0,0,0,0,0,0,-1,1588,1436,0,0
371,-412,0,0,0,0,0,0,0,0,0,-1,1595,1436,0,0
378,-412,0,0,0,0,0,0,0,0,0,-1,1602,1436,0,0
385,-412,0,0,0,0,0,0,0,0,0,-1,1609,1436,0,0
392,-412,0,0,0,0,0,0,0,0,0,-1,1616,1436,0,0
399,-412,0,0,0,0,0,0,0,0,0,-1,1623,1436,0,0
406,-412,0,0,0,0,0,0,0,0,0,-1,1630,1436,0,0
413,-412,0,0,0,0,0,0,0,0,0,-1,1637,1436,0,0
420,-412,0,0,0,0,0,0,0,0,0,-1,1644,1436,0,0
427,-412,0,0,0,0,0,0,0,0,0,-1,1651,1436,0,0
434,-412,0,0,0,0,0,0,0,0,0,-1,1658,1436,0,0
441,-412,0,0,0,0,0,0,0,0,0,-1,1665,1436,0,0
448,-412,0,0,0,0,0,0,0,0,0,-1,1672,1436,0,0
455,-412,0,0,0,0,0,0,0,0,0,-1,1679,1436,0,0
462,-412,0,0,0,0,0,0,0,0,0,-1,1686,1436,0,0
469,-412,0,0,0,0,0,0,0,0,0,-1,1693,1436,0,0
476,-412,0,0,0,0,0,0,0,0,0,-1,1700,1436,0,0
483,-412,0,0,0,0,0,0,0,0,0,-1,1707,1436,0,0
490,-412,0,0,0,0,0,0,0,0,0,-1,1714,1436,0,0
497,-412,0,0,0,0,0,0,0,0,0,-1,1721,1436,0,0
504,-412,0,0,0,0,0,0,0,0,0,-1,1728,1436,0,0
511,-412,0,0,0,0,0,0,0,0,0,-1,1735,1436,0,0
518,-412,30.1038,-2.43384,0,0,0,0,0,0,0,-1,1742,1436,30.1038,2.43383
525,-412,29.5283,-1.42493,0,0,0,0,0,0,0,-1,1749,1436,29.5283,1.42495
532,-412,28.8533,-0.386597,0,0,0,0,0,0,0,-1,1756,1436,28.8533,0.386632
539,-412,25.8654,2.74683,0,0,0,0,0,0,0,-1,1763,1436,25.8654,-2.74685
546,-412,25.4265,2.4342,0,0,0,0,0,0,0,-1,1770,1436,25.4265,-2.4342
553,-412,26.3595,7.49255,0,0,0,0,0,0,0,-1,1777,1436,26.3595,-7.4925
560,-412,24.9116,7.94324,0,0,0,0,0,0,0,-1,1784,1436,24.9116,-7.94327
567,-412,23.668,7.94531,0,0,0,0,0,0,0,-1,1791,1436,23.6679,-7.94534
574,-412,23.0142,9.17236,0,0,0,0,0,0,0,-1,1798,1436,23.0141,-9.17235
581,-412,22.2615,10.0349,0,0,0,0,0,0,0,-1,1805,1436,22.2615,-10.0349
588,-412,21.6893,10.8069,0,0,0,0,0,0,0,-1,1812,1436,21.6893,-10.8069
595,-412,19.9253,12.8553,0,0,0,0,0,0,0,-1,1819,1436,19.9253,-12.8554
602,-412,19.6002,12.4197,-0.0019917,0.00413518,-0.000571128,0.00418797,-0.00204448,-1.47864,0.00366856,0.0389552,1826,1436,19.6002,-12.4197
609,-412,19.4021,12.02,-0.000656278,0.00298178,-0.000812404,0.00315495,-0.000829451,-1.36078,0.00242749,0.0126902,1833,1436,19.4021,-12.0201
616,-412,19.4093,11.6487,-0.000106871,0.00200809,-0.000677382,0.00220644,-0.000305222,-1.28594,0.00158254,0.00858945,1840,1436,19.4093,-11.6486
623,-412,19.3654,11.2977,0.000233195,0.00130799,-0.000523971,0.00152115,2.00316e-05,-1.18442,0.00100749,0.00903935,1847,1436,19.3653,-11.2977
630,-412,19.3717,10.908,0.000489165,0.000787947,-0.000411221,0.00107607,0.00020104,-0.95963,0.000660644,0.0114304,1854,1436,19.3717,-10.908
637,-412,19.3806,10.5226,0.000464958,0.000371669,-0.000145731,0.000571328,0.0002653,-0.630514,0.000330135,0.0142046,1861,1436,19.3806,-10.5226
644,-412,19.3739,10.1626,0.000307428,8.18954e-05,0.000139436,0.00037399,1.5333e-05,0.445378,0.000244376,0.0160057,1868,1436,19.3739,-10.1626
651,-412,19.3683,9.76624,0.000127753,-8.76564e-05,0.000403469,0.000437646,-0.000397549,0.654966,0.000482386,0.0261642,1875,1436,19.3683,-9.76621
658,-412,19.3513,9.45752,-0.000113978,-0.000170181,0.000672878,0.000531385,-0.000815545,0.764529,0.000783398,0.0172645,1882,1436,19.3513,-9.45755
665,-412,19.3591,9.12292,-0.000425236,-0.000156618,0.000974967,0.000693248,-0.0012751,0.853846,0.00115286,0.0216863,1889,1436,19.3591,-9.12298
672,-412,19.3672,8.74121,-0.000780713,-0.000176047,0.00133459,0.000890022,-0.00184678,0.896787,0.00161196,0.0267632,1896,1436,19.3671,-8.74117
679,-412,19.3832,8.36279,-0.00108578,-0.000326588,0.00175068,0.00108518,-0.00249755,0.89216,0.00212139,0.0384769,1903,1436,19.3832,-8.3628
686,-412,19.3151,7.94995,0,0,0,0,0,0,0,-1,1910,1436,19.3151,-7.94993
693,-412,11.9346,6.02344,0,0,0,0,0,0,0,-1,1917,1436,11.9346,-6.02343
700,-412,8.82764,5.8844,0,0,0,0,0,0,0,-1,1924,1436,8.82761,-5.88444
707,-412,6.59998,1.68994,0,0,0,0,0,0,0,-1,1931,1436,6.60002,-1.68995
714,-412,4.77283,-2.39832,0,0,0,0,0,0,0,-1,1938,1436,4.77288,2.39835
721,-412,0,0,0,0,0,0,0,0,0,-1,1945,1436,0,0
728,-412,0,0,0,0,0,0,0,0,0,-1,1952,1436,0,0
735,-412,0,0,0,0,0,0,0,0,0,-1,1959,1436,0,0
742,-412,0,0,0,0,0,0,0,0,0,-1,1966,1436,0,0
749,-412,0,0,0,0,0,0,0,0,0,-1,1973,1436,0,0
756,-412,0,0,0,0,0,0,0,0,0,-1,1980,1436,0,0
763,-412,0,0,0,0,0,0,0,0,0,-1,1987,1436,0,0
770,-412,0,0,0,0,0,0,0,0,0,-1,1994,1436,0,0
777,-412,0,0,0,0,0,0,0,0,0,-1,2001,1436,0,0
784,-412,0,0,0,0,0,0,0,0,0,-1,2008,1436,0,0
791,-412,0,0,0,0,0,0,0,0,0,-1,2015,1436,0,0
798,-412,0,0,0,0,0,0,0,0,0,-1,2022,1436,0,0
805,-412,0,0,0,0,0,0,0,0,0,-1,2029,1436,0,0
812,-412,0,0,0,0,0,0,0,0,0,-1,2036,1436,0,0
-700,-419,0,0,0,0,0,0,0,0,0,-1,524,1443,0,0
-693,-419,0,0,0,0,0,0,0,0,0,-1,531,1443,0,0
-686,-419,0,0,0,0,0,0,0,0,0,-1,538,1443,0,0
-679,-419,0,0,0,0,0,0,0,0,0,-1,545,1443,0,0
-672,-419,0,0,0,0,0,0,0,0,0,-1,552,1443,0,0
-665,-419,0,0,0,0,0,0,0,0,0,-1,559,1443,0,0
-658,-419,0,0,0,0,0,0,0,0,0,-1,566,1443,0,0
-651,-419,0,0,0,0,0,0,0,0,0,-1,573,1443,0,0
-644,-419,0,0,0,0,0,0,0,0,0,-1,580,1443,0,0
-637,-419,0,0,0,0,0,0,0,0,0,-1,587,1443,0,0
-630,-419,0,0,0,0,0,0,0,0,0,-1,594,1443,0,0
-623,-419,0,0,0,0,0,0,0,0,0,-1,601,1443,0,0
-616,-419,0,0,0,0,0,0,0,0,0,-1,608,1443,0,0
-609,-419,0,0,0,0,0,0,0,0,0,-1,615,1443,0,0
-602,-419,0,0,0,0,0,0,0,0,0,-1,622,1443,0,0
-595,-419,-11.4904,-0.622681,0,0,0,0,0,0,0,-1,629,1443,-11.4903,0.622714
-588,-419,-9.09369,0.742432,0,0,0,0,0,0,0,-1,636,1443,-9.09366,-0.742482
-581,-419,-6.39172,2.14673,0,0,0,0,0,0,0,-1,643,1443,-6.39175,-2.14668
-574,-419,-4.09772,3.54773,0,0,0,0,0,0,0,-1,650,1443,-4.09772,-3.54767
-567,-419,-6.14038,3.22498,0,0,0,0,0,0,0,-1,657,1443,-6.14037,-3.22497
-560,-419,-4.52814,5.22253,0,0,0,0,0,0,0,-1,664,1443,-4.52816,-5.22251
-553,-419,-5.08331,6.11829,0,0,0,0,0,0,0,-1,671,1443,-5.08331,-6.1183
-546,-419,-6.9986,6.28552,0,0,0,0,0,0,0,-1,678,1443,-6.99857,-6.28558
-539,-419,-7.1272,6.7041,0.000334714,0.0090998,0.00583058,0.0120112,-0.00257673,1.10768,0.00899035,0.0425162,685,1443,-7.12721,-6.70414
-532,-419,-7.34241,7.0946,0.00135319,0.00750138,0.00515087,0.0104257,-0.00157117,1.05443,0.00752907,0.018183,692,1443,-7.34243,-7.09463
-525,-419,-7.33459,7.53723,0.00212662,0.00611653,0.00452328,0.00906525,-0.000822102,0.993088,0.00633534,0.0125746,699,1443,-7.33458,-7.53721
-518,-419,-7.31726,7.92737,0.00262433,0.00479245,0.0038888,0.00774546,-0.000328684,0.92133,0.00527662,0.0161504,706,1443,-7.31726,-7.92737
-511,-419,-7.34399,8.32959,0.00297885,0.00363771,0.00333731,0.00666181,-4.52455e-05,0.834594,0.00445637,0.0192562,713,1443,-7.34398,-8.32955
-504,-419,-7.38074,8.71265,0.00331981,0.00273631,0.0029597,0.0060021,5.40144e-05,0.736269,0.00398352,0.0198892,720,1443,-7.38074,-8.71267
-497,-419,-7.3811,9.10254,0.00367369,0.00209316,0.00274833,0.00574312,2.3731e-05,0.645404,0.00382086,0.0137066,727,1443,-7.38112,-9.10252
-490,-419,-7.37006,9.5061,0.00358137,0.00132516,0.00230927,0.00502335,-0.000116816,0.558191,0.00338851,0.0112379,734,1443,-7.37008,-9.50616
-483,-419,-7.38672,9.91455,0.0029057,0.000631043,0.00116029,0.00339312,0.000143626,0.397697,0.00221575,0.00972938,741,1443,-7.3867,-9.91452
-476,-419,-7.37842,10.3447,0.00202716,-0.000764389,-0.000736101,0.00220936,-0.000946599,-0.242655,0.00187008,0.0109269,748,1443,-7.37841,-10.3447
-469,-419,-7.33325,10.8486,0.00158759,-0.00112902,-0.00195353,0.00260863,-0.00215006,-0.481613,0.00275168,0.0202962,755,1443,-7.33323,-10.8486
-462,-419,-7.23694,11.3508,0,0,0,0,0,0,0,-1,762,1443,-7.23695,-11.3508
-455,-419,-7.05664,11.3212,0,0,0,0,0,0,0,-1,769,1443,-7.05665,-11.3211
-448,-419,-7.49109,9.92444,0,0,0,0,0,0,0,-1,776,1443,-7.49109,-9.92442
-441,-419,-7.65527,8.75574,0,0,0,0,0,0,0,-1,783,1443,-7.65525,-8.75568
-434,-419,-6.75922,7.50049,0,0,0,0,0,0,0,-1,790,1443,-6.75921,-7.50055
-427,-419,-8.23193,7.89404,0,0,0,0,0,0,0,-1,797,1443,-8.23193,-7.89404
-420,-419,-8.74091,6.36597,0,0,0,0,0,0,0,-1,804,1443,-8.74089,-6.366
-413,-419,-9.88391,6.53955,0,0,0,0,0,0,0,-1,811,1443,-9.8839,-6.53955
-406,-419,-10.3372,2.75195,0,0,0,0,0,0,0,-1,818,1443,-10.3372,-2.75201
-399,-419,-11.5999,1.40002,0,0,0,0,0,0,0,-1,825,1443,-11.5999,-1.39998
-392,-419,0,0,0,0,0,0,0,0,0,-1,832,1443,0,0
-385,-419,0,0,0,0,0,0,0,0,0,-1,839,1443,0,0
-378,-419,0,0,0,0,0,0,0,0,0,-1,846,1443,0,0
-371,-419,0,0,0,0,0,0,0,0,0,-1,853,1443,0,0
-364,-419,0,0,0,0,0,0,0,0,0,-1,860,1443,0,0
-357,-419,0,0,0,0,0,0,0,0,0,-1,867,1443,0,0
-350,-419,0,0,0,0,0,0,0,0,0,-1,874,1443,0,0
-343,-419,0,0,0,0,0,0,0,0,0,-1,881,1443,0,0
-336,-419,0,0,0,0,0,0,0,0,0,-1,888,1443,0,0
-329,-419,0,0,0,0,0,0,0,0,0,-1,895,1443,0,0
-322,-419,0,0,0,0,0,0,0,0,0,-1,902,1443,0,0
-315,-419,0,0,0,0,0,0,0,0,0,-1,909,1443,0,0
-308,-419,0,0,0,0,0,0,0,0,0,-1,916,1443,0,0
-301,-419,0,0,0,0,0,0,0,0,0,-1,923,1443,0,0
-294,-419,0,0,0,0,0,0,0,0,0,-1,930,1443,0,0
-287,-419,0,0,0,0,0,0,0,0,0,-1,937,1443,0,0
-280,-419,0,0,0,0,0,0,0,0,0,-1,944,1443,0,0
-273,-419,0,0,0,0,0,0,0,0,0,-1,951,1443,0,0
-266,-419,0,0,0,0,0,0,0,0,0,-1,958,1443,0,0
-259,-419,0,0,0,0,0,0,0,0,0,-1,965,1443,0,0
-252,-419,0,0,0,0,0,0,0,0,0,-1,972,1443,0,0
-245,-419,0,0,0,0,0,0,0,0,0,-1,979,1443,0,0
-238,-419,0,0,0,0,0,0,0,0,0,-1,986,1443,0,0
-231,-419,0,0,0,0,0,0,0,0,0,-1,993,1443,0,0
-224,-419,0,0,0,0,0,0,0,0,0,-1,1000,1443,0,0
-217,-419,0,0,0,0,0,0,0,0,0,-1,1007,1443,0,0
-210,-419,0,0,0,0,0,0,0,0,0,-1,1014,1443,0,0
-203,-419,0,0,0,0,0,0,0,0,0,-1,1021,1443,0,0
-196,-419,0,0,0,0,0,0,0,0,0,-1,1028,1443,0,0
-189,-419,0,0,0,0,0,0,0,0,0,-1,1035,1443,0,0
-182,-419,0,0,0,0,0,0,0,0,0,-1,1042,1443,0,0
-175,-419,0,0,0,0,0,0,0,0,0,-1,1049,1443,0,0
-168,-419,0,0,0,0,0,0,0,0,0,-1,1056,1443,0,0
-161,-419,0,0,0,0,0,0,0,0,0,-1,1063,1443,0,0
-154,-419,0,0,0,0,0,0,0,0,0,-1,1070,1443,0,0
-147,-419,0,0,0,0,0,0,0,0,0,-1,1077,1443,0,0
-140,-419,0,0,0,0,0,0,0,0,0,-1,1084,1443,0,0
-133,-419,0,0,0,0,0,0,0,0,0,-1,1091,1443,0,0
-126,-419,0,0,0,0,0,0,0,0,0,-1,1098,1443,0,0
-119,-419,0,0,0,0,0,0,0,0,0,-1,1105,1443,0,0
-112,-419,0,0,0,0,0,0,0,0,0,-1,1112,1443,0,0
-105,-419,0,0,0,0,0,0,0,0,0,-1,1119,1443,0,0
-98,-419,0,0,0,0,0,0,0,0,0,-1,1126,1443,0,0
-91,-419,0,0,0,0,0,0,0,0,0,-1,1133,1443,0,0
-84,-419,0,0,0,0,0,0,0,0,0,-1,1140,1443,0,0
-77,-419,0,0,0,0,0,0,0,0,0,-1,1147,1443,0,0
-70,-419,0,0,0,0,0,0,0,0,0,-1,1154,1443,0,0
-63,-419,0,0,0,0,0,0,0,0,0,-1,1161,1443,0,0
-56,-419,0,0,0,0,0,0,0,0,0,-1,1168,1443,0,0
-49,-419,0,0,0,0,0,0,0,0,0,-1,1175,1443,0,0
-42,-419,0,0,0,0,0,0,0,0,0,-1,1182,1443,0,0
-35,-419,0,0,0,0,0,0,0,0,0,-1,1189,1443,0,0
-28,-419,0,0,0,0,0,0,0,0,0,-1,1196,1443,0,0
-21,-419,0,0,0,0,0,0,0,0,0,-1,1203,1443,0,0
-14,-419,0,0,0,0,0,0,0,0,0,-1,1210,1443,0,0
-7,-419,0,0,0,0,0,0,0,0,0,-1,1217,1443,0,0
0,-419,0,0,0,0,0,0,0,0,0,-1,1224,1443,0,0
7,-419,0,0,0,0,0,0,0,0,0,-1,1231,1443,0,0
14,-419,0,0,0,0,0,0,0,0,0,-1,1238,1443,0,0
21,-419,0,0,0,0,0,0,0,0,0,-1,1245,1443,0,0
28,-419,0,0,0,0,0,0,0,0,0,-1,1252,1443,0,0
35,-419,0,0,0,0,0,0,0,0,0,-1,1259,1443,0,0
42,-419,0,0,0,0,0,0,0,0,0,-1,1266,1443,0,0
49,-419,0,0,0,0,0,0,0,0,0,-1,1273,1443,0,0
56,-419,0,0,0,0,0,0,0,0,0,-1,1280,1443,0,0
63,-419,0,0,0,0,0,0,0,0,0,-1,1287,1443,0,0
70,-419,0,0,0,0,0,0,0,0,0,-1,1294,1443,0,0
77,-419,0,0,0,0,0,0,0,0,0,-1,1301,1443,0,0
84,-419,0,0,0,0,0,0,0,0,0,-1,1308,1443,0,0
91,-419,0,0,0,0,0,0,0,0,0,-1,1315,1443,0,0
98,-419,0,0,0,0,0,0,0,0,0,-1,1322,1443,0,0
105,-419,0,0,0,0,0,0,0,0,0,-1,1329,1443,0,0
112,-419,0,0,0,0,0,0,0,0,0,-1,1336,1443,0,0
119,-419,0,0,0,0,0,0,0,0,0,-1,1343,1443,0,0
126,-419,0,0,0,0,0,0,0,0,0,-1,1350,1443,0,0
133,-419,0,0,0,0,0,0,0,0,0,-1,1357,1443,0,0
140,-419,0,0,0,0,0,0,0,0,0,-1,1364,1443,0,0
147,-419,0,0,0,0,0,0,0,0,0,-1,1371,1443,0,0
154,-419,0,0,0,0,0,0,0,0,0,-1,1378,1443,0,0
161,-419,0,0,0,0,0,0,0,0,0,-1,1385,1443,0,0
168,-419,0,0,0,0,0,0,0,0,0,-1,1392,1443,0,0
175,-419,0,0,0,0,0,0,0,0,0,-1,1399,1443,0,0
182,-419,0,0,0,0,0,0,0,0,0,-1,1406,1443,0,0
189,-419,0,0,0,0,0,0,0,0,0,-1,1413,1443,0,0
196,-419,0,0,0,0,0,0,0,0,0,-1,1420,1443,0,0
203,-419,0,0,0,0,0,0,0,0,0,-1,1427,1443,0,0
210,-419,0,0,0,0,0,0,0,0,0,-1,1434,1443,0,0
217,-419,0,0,0,0,0,0,0,0,0,-1,1441,1443,0,0
224,-419,0,0,0,0,0,0,0,0,0,-1,1448,1443,0,0
231,-419,0,0,0,0,0,0,0,0,0,-1,1455,1443,0,0
238,-419,0,0,0,0,0,0,0,0,0,-1,1462,1443,0,0
245,-419,0,0,0,0,0,0,0,0,0,-1,1469,1443,0,0
252,-419,0,0,0,0,0,0,0,0,0,-1,1476,1443,0,0
259,-419,0,0,0,0,0,0,0,0,0,-1,1483,1443,0,0
266,-419,0,0,0,0,0,0,0,0,0,-1,1490,1443,0,0
273,-419,0,0,0,0,0,0,0,0,0,-1,1497,1443,0,0
280,-419,0,0,0,0,0,0,0,0,0,-1,1504,1443,0,0
287,-419,0,0,0,0,0,0,0,0,0,-1,1511,1443,0,0
294,-419,0,0,0,0,0,0,0,0,0,-1,1518,1443,0,0
301,-419,0,0,0,0,0,0,0,0,0,-1,1525,1443,0,0
308,-419,0,0,0,0,0,0,0,0,0,-1,1532,1443,0,0
315,-419,0,0,0,0,0,0,0,0,0,-1,1539,1443,0,0
322,-419,0,0,0,0,0,0,0,0,0,-1,1546,1443,0,0
329,-419,0,0,0,0,0,0,0,0,0,-1,1553,1443,0,0
336,-419,0,0,0,0,0,0,0,0,0,-1,1560,1443,0,0
343,-419,0,0,0,0,0,0,0,0,0,-1,1567,1443,0,0
350,-419,0,0,0,0,0,0,0,0,0,-1,1574,1443,0,0
357,-419,0,0,0,0,0,0,0,0,0,-1,1581,1443,0,0
364,-419,0,0,0,0,0,0,0,0,0,-1,1588,1443,0,0
371,-419,0,0,0,0,0,0,0,0,0,-1,1595,1443,0,0
378,-419,0,0,0,0,0,0,0,0,0,-1,1602,1443,0,0
385,-419,0,0,0,0,0,0,0,0,0,-1,1609,1443,0,0
392,-419,0,0,0,0,0,0,0,0,0,-1,1616,1443,0,0
399,-419,0,0,0,0,0,0,0,0,0,-1,1623,1443,0,0
406,-419,0,0,0,0,0,0,0,0,0,-1,1630,1443,0,0
413,-419,0,0,0,0,0,0,0,0,0,-1,1637,1443,0,0
420,-419,0,0,0,0,0,0,0,0,0,-1,1644,1443,0,0
427,-419,0,0,0,0,0,0,0,0,0,-1,1651,1443,0,0
434,-419,0,0,0,0,0,0,0,0,0,-1,1658,1443,0,0
441,-419,0,0,0,0,0,0,0,0,0,-1,1665,1443,0,0
448,-419,0,0,0,0,0,0,0,0,0,-1,1672,1443,0,0
455,-419,0,0,0,0,0,0,0,0,0,-1,1679,1443,0,0
462,-419,0,0,0,0,0,0,0,0,0,-1,1686,1443,0,0
469,-419,0,0,0,0,0,0,0,0,0,-1,1693,1443,0,0
476,-419,0,0,0,0,0,0,0,0,0,-1,1700,1443,0,0
483,-419,0,0,0,0,0,0,0,0,0,-1,1707,1443,0,0
490,-419,0,0,0,0,0,0,0,0,0,-1,1714,1443,0,0
497,-419,0,0,0,0,0,0,0,0,0,-1,1721,1443,0,0
504,-419,0,0,0,0,0,0,0,0,0,-1,1728,1443,0,0
511,-419,20.3005,3.7959,0,0,0,0,0,0,0,-1,1735,1443,20.3005,-3.79584
518,-419,21.3154,2.03027,0,0,0,0,0,0,0,-1,1742,1443,21.3155,-2.03029
525,-419,28.3439,-1.24475,0,0,0,0,0,0,0,-1,1749,1443,28.3438,1.24471
532,-419,27.5902,-0.272583,0,0,0,0,0,0,0,-1,1756,1443,27.5902,0.272526
539,-419,26.5278,1.60583,0,0,0,0,0,0,0,-1,1763,1443,26.5279,-1.60579
546,-419,24.9509,2.77539,0,0,0,0,0,0,0,-1,1770,1443,24.9509,-2.77537
553,-419,24.118,3.75525,0,0,0,0,0,0,0,-1,1777,1443,24.1181,-3.75526
560,-419,11.8199,8.26343,0,0,0,0,0,0,0,-1,1784,1443,11.82,-8.26341
567,-419,21.5143,8.74719,0,0,0,0,0,0,0,-1,1791,1443,21.5143,-8.74722
574,-419,19.5886,6.46155,0,0,0,0,0,0,0,-1,1798,1443,19.5886,-6.46157
581,-419,20.7926,11.4265,0,0,0,0,0,0,0,-1,1805,1443,20.7926,-11.4265
588,-419,19.4242,12.5363,0,0,0,0,0,0,0,-1,1812,1443,19.4242,-12.5362
595,-419,18.9625,12.9128,0,0,0,0,0,0,0,-1,1819,1443,18.9626,-12.9129
602,-419,19.0359,12.4128,-0.00193549,0.00330341,-0.000325682,0.00332357,-0.00195566,-1.50895,0.00308188,0.0181023,1826,1443,19.0359,-12.4128
609,-419,19.0321,12.0278,-0.00070873,0.00244995,-0.000550061,0.002543,-0.000801778,-1.40322,0.00201645,0.0120837,1833,1443,19.032,-12.0279
616,-419,19.0216,11.6781,-0.000213333,0.00168723,-0.000453331,0.00178983,-0.000315926,-1.34824,0.00131127,0.0118037,1840,1443,19.0216,-11.6781
623,-419,19.0148,11.3049,5.10079e-05,0.00109613,-0.000300199,0.00117622,-2.90831e-05,-1.31008,0.000794019,0.00993651,1847,1443,19.0148,-11.3049
630,-419,19.0237,10.9166,0.000241772,0.000628533,-0.000175374,0.000696212,0.000174093,-1.20249,0.000418364,0.0124847,1854,1443,19.0237,-10.9167
637,-419,19.0095,10.5657,0.000147585,0.000247444,0.000125302,0.000332398,6.26306e-05,0.974994,0.000203953,0.0136124,1861,1443,19.0095,-10.5657
644,-419,19.0056,10.2198,-7.97761e-05,-1.36547e-05,0.000434283,0.000388824,-0.000482255,0.823388,0.000503881,0.012196,1868,1443,19.0056,-10.2198
651,-419,18.9967,9.87061,-0.000352509,-0.000152695,0.000722079,0.000476355,-0.00098156,0.854142,0.000858408,0.0123058,1875,1443,18.9967,-9.87055
658,-419,18.9899,9.49988,-0.000727094,-0.000193462,0.00103361,0.000607218,-0.00152777,0.91171,0.00127026,0.0136959,1882,1443,18.9898,-9.49993
665,-419,18.9913,9.12329,-0.00120258,-9.6507e-05,0.00135378,0.000812839,-0.00211193,0.97931,0.00174325,0.0199928,1889,1443,18.9913,-9.12326
672,-419,19.0269,8.68848,-0.00176767,-5.46306e-05,0.0017469,0.00103443,-0.00285673,1.01333,0.00232723,0.0281392,1896,1443,19.0269,-8.68848
679,-419,18.998,8.27185,0,0,0,0,0,0,0,-1,1903,1443,18.998,-8.27187
686,-419,17.4127,8.03076,0,0,0,0,0,0,0,-1,1910,1443,17.4127,-8.03071
693,-419,8.76086,5.60535,0,0,0,0,0,0,0,-1,1917,1443,8.76091,-5.6054
700,-419,11.0498,4.85156,0,0,0,0,0,0,0,-1,1924,1443,11.0498,-4.85153
707,-419,9.5752,1.80042,0,0,0,0,0,0,0,-1,1931,1443,9.57523,-1.80037
714,-419,5.77576,-1.25061,0,0,0,0,0,0,0,-1,1938,1443,5.7757,1.25056
721,-419,0,0,0,0,0,0,0,0,0,-1,1945,1443,0,0
728,-419,0,0,0,0,0,0,0,0,0,-1,1952,1443,0,0
735,-419,0,0,0,0,0,0,0,0,0,-1,1959,1443,0,0
742,-419,0,0,0,0,0,0,0,0,0,-1,1966,1443,0,0
749,-419,0,0,0,0,0,0,0,0,0,-1,1973,1443,0,0
756,-419,0,0,0,0,0,0,0,0,0,-1,1980,1443,0,0
763,-419,0,0,0,0,0,0,0,0,0,-1,1987,1443,0,0
770,-419,0,0,0,0,0,0,0,0,0,-1,1994,1443,0,0
777,-419,0,0,0,0,0,0,0,0,0,-1,2001,1443,0,0
784,-419,0,0,0,0,0,0,0,0,0,-1,2008,1443,0,0
791,-419,0,0,0,0,0,0,0,0,0,-1,2015,1443,0,0
798,-419,0,0,0,0,0,0,0,0,0,-1,2022,1443,0,0
805,-419,0,0,0,0,0,0,0,0,0,-1,2029,1443,0,0
812,-419,0,0,0,0,0,0,0,0,0,-1,2036,1443,0,0
-700,-426,0,0,0,0,0,0,0,0,0,-1,524,1450,0,0
-693,-426,0,0,0,0,0,0,0,0,0,-1,531,1450,0,0
-686,-426,0,0,0,0,0,0,0,0,0,-1,538,1450,0,0
-679,-426,0,0,0,0,0,0,0,0,0,-1,545,1450,0,0
-672,-426,0,0,0,0,0,0,0,0,0,-1,552,1450,0,0
-665,-426,0,0,0,0,0,0,0,0,0,-1,559,1450,0,0
-658,-426,0,0,0,0,0,0,0,0,0,-1,566,1450,0,0
-651,-426,0,0,0,0,0,0,0,0,0,-1,573,1450,0,0
-644,-426,0,0,0,0,0,0,0,0,0,-1,580,1450,0,0
-637,-426,0,0,0,0,0,0,0,0,0,-1,587,1450,0,0
-630,-426,0,0,0,0,0,0,0,0,0,-1,594,1450,0,0
-623,-426,0,0,0,0,0,0,0,0,0,-1,601,1450,0,0
-616,-426,0,0,0,0,0,0,0,0,0,-1,608,1450,0,0
-609,-426,0,0,0,0,0,0,0,0,0,-1,615,1450,0,0
-602,-426,0,0,0,0,0,0,0,0,0,-1,622,1450,0,0
-595,-426,0,0,0,0,0,0,0,0,0,-1,629,1450,0,0
-588,-426,-10.184,-0.554321,0,0,0,0,0,0,0,-1,636,1450,-10.184,0.554321
-581,-426,-7.3349,1.48157,0,0,0,0,0,0,0,-1,643,1450,-7.33491,-1.48152
-574,-426,-5.02856,2.89319,0,0,0,0,0,0,0,-1,650,1450,-5.02858,-2.89319
-567,-426,-3.04797,1.72644,0,0,0,0,0,0,0,-1,657,1450,-3.04797,-1.72639
-560,-426,-5.55682,3.44397,0,0,0,0,0,0,0,-1,664,1450,-5.55684,-3.44399
-553,-426,-4.67017,6.66614,0,0,0,0,0,0,0,-1,671,1450,-4.67015,-6.66619
-546,-426,-6.03101,6.44238,0,0,0,0,0,0,0,-1,678,1450,-6.03099,-6.44238
-539,-426,-6.40869,6.82471,0.00535979,0.0146493,0.011432,0.0223441,-0.00233504,0.978357,0.0157323,0.046834,685,1450,-6.40871,-6.82472
-532,-426,-6.84149,7.14478,0.00531505,0.0118873,0.0095326,0.0186843,-0.00148192,0.951382,0.0129784,0.0362163,692,1450,-6.84149,-7.14472
-525,-426,-6.96527,7.4917,0.00514727,0.00952343,0.00786391,0.015498,-0.000827293,0.921088,0.0106185,0.0161358,699,1450,-6.96529,-7.49167
-518,-426,-6.93445,7.93433,0.00478556,0.00737195,0.0063371,0.0125465,-0.000388952,0.88605,0.00849693,0.015143,706,1450,-6.93442,-7.93427
-511,-426,-6.94464,8.3479,0.00435323,0.00550448,0.0050073,0.00996914,-0.000111423,0.842625,0.00668354,0.0158162,713,1450,-6.94465,-8.34795
-504,-426,-6.97882,8.72241,0.00402051,0.00401541,0.00398018,0.00799814,3.7781e-05,0.785078,0.00531954,0.0157665,720,1450,-6.97885,-8.72237
-497,-426,-6.97455,9.11755,0.00381881,0.00290969,0.00324167,0.00663763,9.08666e-05,0.71574,0.00439511,0.0120632,727,1450,-6.97454,-9.11749
-490,-426,-6.97717,9.53174,0.00329566,0.00180554,0.00239794,0.00506162,3.95777e-05,0.634771,0.0033613,0.0121629,734,1450,-6.9772,-9.53178
-483,-426,-6.99994,9.93176,0.00241015,0.000890493,0.00101039,0.00291453,0.00038611,0.463004,0.00182796,0.0123125,741,1450,-6.99997,-9.93182
-476,-426,-7.00989,10.3252,0.00140753,-0.000645931,-0.00104272,0.00184417,-0.00108257,-0.396564,0.00170872,0.0092573,748,1450,-7.0099,-10.3252
-469,-426,-7.02222,10.7236,0.000793799,-0.00133808,-0.00248325,0.00243023,-0.0029745,-0.582666,0.00312569,0.00812439,755,1450,-7.0222,-10.7236
-462,-426,-6.88007,11.255,-0.000415119,-0.00271315,-0.00520022,0.00376151,-0.00688978,-0.676667,0.00623731,0.0267649,762,1450,-6.88004,-11.255
-455,-426,-6.69928,11.8395,0,0,0,0,0,0,0,-1,769,1450,-6.6993,-11.8395
-448,-426,-6.46545,10.1322,0,0,0,0,0,0,0,-1,776,1450,-6.46543,-10.1322
-441,-426,-6.6189,9.86353,0,0,0,0,0,0,0,-1,783,1450,-6.61889,-9.86351
-434,-426,-9.92236,11.0178,0,0,0,0,0,0,0,-1,790,1450,-9.92235,-11.0179
-427,-426,-5.90222,8.90906,0,0,0,0,0,0,0,-1,797,1450,-5.9022,-8.90905
-420,-426,-5.33765,7.95044,0,0,0,0,0,0,0,-1,804,1450,-5.33766,-7.95041
-413,-426,-10.1148,5.0415,0,0,0,0,0,0,0,-1,811,1450,-10.1148,-5.04152
-406,-426,-11.4199,3.6438,0,0,0,0,0,0,0,-1,818,1450,-11.4198,-3.64382
-399,-426,-12.7595,2.29004,0,0,0,0,0,0,0,-1,825,1450,-12.7595,-2.29003
-392,-426,-12.4147,0.537354,0,0,0,0,0,0,0,-1,832,1450,-12.4147,-0.53731
-385,-426,0,0,0,0,0,0,0,0,0,-1,839,1450,0,0
-378,-426,0,0,0,0,0,0,0,0,0,-1,846,1450,0,0
-371,-426,0,0,0,0,0,0,0,0,0,-1,853,1450,0,0
-364,-426,0,0,0,0,0,0,0,0,0,-1,860,1450,0,0
-357,-426,0,0,0,0,0,0,0,0,0,-1,867,1450,0,0
-350,-426,0,0,0,0,0,0,0,0,0,-1,874,1450,0,0
-343,-426,0,0,0,0,0,0,0,0,0,-1,881,1450,0,0
-336,-426,0,0,0,0,0,0,0,0,0,-1,888,1450,0,0
-329,-426,0,0,0,0,0,0,0,0,0,-1,895,1450,0,0
-322,-426,0,0,0,0,0,0,0,0,0,-1,902,1450,0,0
-315,-426,0,0,0,0,0,0,0,0,0,-1,909,1450,0,0
-308,-426,0,0,0,0,0,0,0,0,0,-1,916,1450,0,0
-301,-426,0,0,0,0,0,0,0,0,0,-1,923,1450,0,0
-294,-426,0,0,0,0,0,0,0,0,0,-1,930,1450,0,0
-287,-426,0,0,0,0,0,0,0,0,0,-1,937,1450,0,0
-280,-426,0,0,0,0,0,0,0,0,0,-1,944,1450,0,0
-273,-426,0,0,0,0,0,0,0,0,0,-1,951,1450,0,0
-266,-426,0,0,0,0,0,0,0,0,0,-1,958,1450,0,0
-259,-426,0,0,0,0,0,0,0,0,0,-1,965,1450,0,0
-252,-426,0,0,0,0,0,0,0,0,0,-1,972,1450,0,0
-245,-426,0,0,0,0,0,0,0,0,0,-1,979,1450,0,0
-238,-426,0,0,0,0,0,0,0,0,0,-1,986,1450,0,0
-231,-426,0,0,0,0,0,0,0,0,0,-1,993,1450,0,0
-224,-426,0,0,0,0,0,0,0,0,0,-1,1000,1450,0,0
-217,-426,0,0,0,0,0,0,0,0,0,-1,1007,1450,0,0
-210,-426,0,0,0,0,0,0,0,0,0,-1,1014,1450,0,0
-203,-426,0,0,0,0,0,0,0,0,0,-1,1021,1450,0,0
-196,-426,0,0,0,0,0,0,0,0,0,-1,1028,1450,0,0
-189,-426,0,0,0,0,0,0,0,0,0,-1,1035,1450,0,0
-182,-426,0,0,0,0,0,0,0,0,0,-1,1042,1450,0,0
-175,-426,0,0,0,0,0,0,0,0,0,-1,1049,1450,0,0
-168,-426,0,0,0,0,0,0,0,0,0,-1,1056,1450,0,0
-161,-426,0,0,0,0,0,0,0,0,0,-1,1063,1450,0,0
-154,-426,0,0,0,0,0,0,0,0,0,-1,1070,1450,0,0
-147,-426,0,0,0,0,0,0,0,0,0,-1,1077,1450,0,0
-140,-426,0,0,0,0,0,0,0,0,0,-1,1084,1450,0,0
-133,-426,0,0,0,0,0,0,0,0,0,-1,1091,1450,0,0
-126,-426,0,0,0,0,0,0,0,0,0,-1,1098,1450,0,0
-119,-426,0,0,0,0,0,0,0,0,0,-1,1105,1450,0,0
-112,-426,0,0,0,0,0,0,0,0,0,-1,1112,1450,0,0
-105,-426,0,0,0,0,0,0,0,0,0,-1,1119,1450,0,0
-98,-426,0,0,0,0,0,0,0,0,0,-1,1126,1450,0,0
-91,-426,0,0,0,0,0,0,0,0,0,-1,1133,1450,0,0
-84,-426,0,0,0,0,0,0,0,0,0,-1,1140,1450,0,0
-77,-426,0,0,0,0,0,0,0,0,0,-1,1147,1450,0,0
-70,-426,0,0,0,0,0,0,0,0,0,-1,1154,1450,0,0
-63,-426,0,0,0,0,0,0,0,0,0,-1,1161,1450,0,0
-56,-426,0,0,0,0,0,0,0,0,0,-1,1168,1450,0,0
-49,-426,0,0,0,0,0,0,0,0,0,-1,1175,1450,0,0
-42,-426,0,0,0,0,0,0,0,0,0,-1,1182,1450,0,0
-35,-426,0,0,0,0,0,0,0,0,0,-1,1189,1450,0,0
-28,-426,0,0,0,0,0,0,0,0,0,-1,1196,1450,0,0
-21,-426,0,0,0,0,0,0,0,0,0,-1,1203,1450,0,0
-14,-426,0,0,0,0,0,0,0,0,0,-1,1210,1450,0,0
-7,-426,0,0,0,0,0,0,0,0,0,-1,1217,1450,0,0
0,-426,0,0,0,0,0,0,0,0,0,-1,1224,1450,0,0
7,-426,0,0,0,0,0,0,0,0,0,-1,1231,1450,0,0
14,-426,0,0,0,0,0,0,0,0,0,-1,1238,1450,0,0
21,-426,0,0,0,0,0,0,0,0,0,-1,1245,1450,0,0
28,-426,0,0,0,0,0,0,0,0,0,-1,1252,1450,0,0
35,-426,0,0,0,0,0,0,0,0,0,-1,1259,1450,0,0
42,-426,0,0,0,0,0,0,0,0,0,-1,1266,1450,0,0
49,-426,0,0,0,0,0,0,0,0,0,-1,1273,1450,0,0
56,-426,0,0,0,0,0,0,0,0,0,-1,1280,1450,0,0
63,-426,0,0,0,0,0,0,0,0,0,-1,1287,1450,0,0
70,-426,0,0,0,0,0,0,0,0,0,-1,1294,1450,0,0
77,-426,0,0,0,0,0,0,0,0,0,-1,1301,1450,0,0
84,-426,0,0,0,0,0,0,0,0,0,-1,1308,1450,0,0
91,-426,0,0,0,0,0,0,0,0,0,-1,1315,1450,0,0
98,-426,0,0,0,0,0,0,0,0,0,-1,1322,1450,0,0
105,-426,0,0,0,0,0,0,0,0,0,-1,1329,1450,0,0
112,-426,0,0,0,0,0,0,0,0,0,-1,1336,1450,0,0
119,-426,0,0,0,0,0,0,0,0,0,-1,1343,1450,0,0
126,-426,0,0,0,0,0,0,0,0,0,-1,1350,1450,0,0
133,-426,0,0,0,0,0,0,0,0,0,-1,1357,1450,0,0
140,-426,0,0,0,0,0,0,0,0,0,-1,1364,1450,0,0
147,-426,0,0,0,0,0,0,0,0,0,-1,1371,1450,0,0
154,-426,0,0,0,0,0,0,0,0,0,-1,1378,1450,0,0
161,-426,0,0,0,0,0,0,0,0,0,-1,1385,1450,0,0
168,-426,0,0,0,0,0,0,0,0,0,-1,1392,1450,0,0
175,-426,0,0,0,0,0,0,0,0,0,-1,1399,1450,0,0
182,-426,0,0,0,0,0,0,0,0,0,-1,1406,1450,0,0
189,-426,0,0,0,0,0,0,0,0,0,-1,1413,1450,0,0
196,-426,0,0,0,0,0,0,0,0,0,-1,1420,1450,0,0
203,-426,0,0,0,0,0,0,0,0,0,-1,1427,1450,0,0
210,-426,0,0,0,0,0,0,0,0,0,-1,1434,1450,0,0
217,-426,0,0,0,0,0,0,0,0,0,-1,1441,1450,0,0
224,-426,0,0,0,0,0,0,0,0,0,-1,1448,1450,0,0
231,-426,0,0,0,0,0,0,0,0,0,-1,1455,1450,0,0
238,-426,0,0,0,0,0,0,0,0,0,-1,1462,1450,0,0
245,-426,0,0,0,0,0,0,0,0,0,-1,1469,1450,0,0
252,-426,0,0,0,0,0,0,0,0,0,-1,1476,1450,0,0
259,-426,0,0,0,0,0,0,0,0,0,-1,1483,1450,0,0
266,-426,0,0,0,0,0,0,0,0,0,-1,1490,1450,0,0
273,-426,0,0,0,0,0,0,0,0,0,-1,1497,1450,0,0
280,-426,0,0,0,0,0,0,0,0,0,-1,1504,1450,0,0
287,-426,0,0,0,0,0,0,0,0,0,-1,1511,1450,0,0
294,-426,0,0,0,0,0,0,0,0,0,-1,1518,1450,0,0
301,-426,0,0,0,0,0,0,0,0,0,-1,1525,1450,0,0
308,-426,0,0,0,0,0,0,0,0,0,-1,1532,1450,0,0
315,-426,0,0,0,0,0,0,0,0,0,-1,1539,1450,0,0
322,-426,0,0,0,0,0,0,0,0,0,-1,1546,1450,0,0
329,-426,0,0,0,0,0,0,0,0,0,-1,1553,1450,0,0
336,-426,0,0,0,0,0,0,0,0,0,-1,1560,1450,0,0
343,-426,0,0,0,0,0,0,0,0,0,-1,1567,1450,0,0
350,-426,0,0,0,0,0,0,0,0,0,-1,1574,1450,0,0
357,-426,0,0,0,0,0,0,0,0,0,-1,1581,1450,0,0
364,-426,0,0,0,0,0,0,0,0,0,-1,1588,1450,0,0
371,-426,0,0,0,0,0,0,0,0,0,-1,1595,1450,0,0
378,-426,0,0,0,0,0,0,0,0,0,-1,1602,1450,0,0
385,-426,0,0,0,0,0,0,0,0,0,-1,1609,1450,0,0
392,-426,0,0,0,0,0,0,0,0,0,-1,1616,1450,0,0
399,-426,0,0,0,0,0,0,0,0,0,-1,1623,1450,0,0
406,-426,0,0,0,0,0,0,0,0,0,-1,1630,1450,0,0
413,-426,0,0,0,0,0,0,0,0,0,-1,1637,1450,0,0
420,-426,0,0,0,0,0,0,0,0,0,-1,1644,1450,0,0
427,-426,0,0,0,0,0,0,0,0,0,-1,1651,1450,0,0
434,-426,0,0,0,0,0,0,0,0,0,-1,1658,1450,0,0
441,-426,0,0,0,0,0,0,0,0,0,-1,1665,1450,0,0
448,-426,0,0,0,0,0,0,0,0,0,-1,1672,1450,0,0
455,-426,0,0,0,0,0,0,0,0,0,-1,1679,1450,0,0
462,-426,0,0,0,0,0,0,0,0,0,-1,1686,1450,0,0
469,-426,0,0,0,0,0,0,0,0,0,-1,1693,1450,0,0
476,-426,0,0,0,0,0,0,0,0,0,-1,1700,1450,0,0
483,-426,0,0,0,0,0,0,0,0,0,-1,1707,1450,0,0
490,-426,0,0,0,0,0,0,0,0,0,-1,1714,1450,0,0
497,-426,0,0,0,0,0,0,0,0,0,-1,1721,1450,0,0
504,-426,20.6873,3.38367,0,0,0,0,0,0,0,-1,1728,1450,20.6873,-3.38361
511,-426,19.6676,3.53748,0,0,0,0,0,0,0,-1,1735,1450,19.6676,-3.53749
518,-426,18.6853,3.32288,0,0,0,0,0,0,0,-1,1742,1450,18.6853,-3.3229
525,-426,18.9552,2.71033,0,0,0,0,0,0,0,-1,1749,1450,18.9552,-2.71034
532,-426,19.4333,2.70764,0,0,0,0,0,0,0,-1,1756,1450,19.4334,-2.70764
539,-426,25.1482,2.56287,0,0,0,0,0,0,0,-1,1763,1450,25.1482,-2.56286
546,-426,24.1136,3.75659,0,0,0,0,0,0,0,-1,1770,1450,24.1136,-3.7566
553,-426,23.0791,4.95032,0,0,0,0,0,0,0,-1,1777,1450,23.0791,-4.95034
560,-426,12.9688,11.8289,0,0,0,0,0,0,0,-1,1784,1450,12.9688,-11.8288
567,-426,13.6388,11.5623,0,0,0,0,0,0,0,-1,1791,1450,13.6388,-11.5623
574,-426,14.3943,11.0286,0,0,0,0,0,0,0,-1,1798,1450,14.3942,-11.0285
581,-426,16.3879,11.4653,0,0,0,0,0,0,0,-1,1805,1450,16.3879,-11.4653
588,-426,18.1212,12.5547,0,0,0,0,0,0,0,-1,1812,1450,18.1212,-12.5547
595,-426,18.7195,12.8961,0,0,0,0,0,0,0,-1,1819,1450,18.7194,-12.8961
602,-426,18.6261,12.4143,-0.00183897,0.00276994,-7.66433e-05,0.00277122,-0.00184025,-1.55417,0.00268045,0.0190859,1826,1450,18.6261,-12.4143
609,-426,18.6615,12.0205,-0.000791216,0.0020461,-0.000279039,0.00207328,-0.000818398,-1.47369,0.00172111,0.0122542,1833,1450,18.6616,-12.0205
616,-426,18.6526,11.6689,-0.000374805,0.00137965,-0.000201832,0.00140257,-0.000397725,-1.45772,0.00109204,0.0141898,1840,1450,18.6526,-11.6689
623,-426,18.6594,11.2949,-0.000195994,0.000822262,-5.0847e-05,0.000824795,-0.000198527,-1.52103,0.000626611,0.0117491,1847,1450,18.6595,-11.2949
630,-426,18.6605,10.9276,-7.2781e-05,0.000353022,7.7374e-05,0.000366646,-8.64049e-05,1.3965,0.000277749,0.0125741,1854,1450,18.6605,-10.9276
637,-426,18.6556,10.592,-0.000232148,-3.42904e-05,0.000392672,0.000271723,-0.000538162,0.908799,0.000475947,0.0127421,1861,1450,18.6556,-10.592
644,-426,18.6349,10.2318,-0.000521761,-0.000291447,0.000710875,0.000313538,-0.00112675,0.865697,0.000874614,0.0118435,1868,1450,18.6349,-10.2318
651,-426,18.6028,9.87842,-0.000881425,-0.000407999,0.00100651,0.000389258,-0.00167868,0.90089,0.00126893,0.0120951,1875,1450,18.6028,-9.87845
658,-426,18.609,9.47998,-0.00138001,-0.00039943,0.00135122,0.000547704,-0.00232715,0.959437,0.0017626,0.012149,1882,1450,18.6089,-9.47997
665,-426,18.6543,9.03625,-0.00201112,-0.000177757,0.00167857,0.000818125,-0.00300701,1.03532,0.00232585,0.018934,1889,1450,18.6543,-9.0363
672,-426,18.7601,8.58716,0,0,0,0,0,0,0,-1,1896,1450,18.7601,-8.5872
679,-426,17.1522,8.15784,0,0,0,0,0,0,0,-1,1903,1450,17.1522,-8.15784
686,-426,13.5326,8.03711,0,0,0,0,0,0,0,-1,1910,1450,13.5326,-8.03717
693,-426,11.8607,6.45215,0,0,0,0,0,0,0,-1,1917,1450,11.8607,-6.45215
700,-426,9.24304,2.95447,0,0,0,0,0,0,0,-1,1924,1450,9.24305,-2.95442
707,-426,8.44519,-1.21448,0,0,0,0,0,0,0,-1,1931,1450,8.44514,1.21454
714,-426,0,0,0,0,0,0,0,0,0,-1,1938,1450,0,0
721,-426,0,0,0,0,0,0,0,0,0,-1,1945,1450,0,0
728,-426,0,0,0,0,0,0,0,0,0,-1,1952,1450,0,0
735,-426,0,0,0,0,0,0,0,0,0,-1,1959,1450,0,0
742,-426,0,0,0,0,0,0,0,0,0,-1,1966,1450,0,0
749,-426,0,0,0,0,0,0,0,0,0,-1,1973,1450,0,0
756,-426,0,0,0,0,0,0,0,0,0,-1,1980,1450,0,0
763,-426,0,0,0,0,0,0,0,0,0,-1,1987,1450,0,0
770,-426,0,0,0,0,0,0,0,0,0,-1,1994,1450,0,0
777,-426,0,0,0,0,0,0,0,0,0,-1,2001,1450,0,0
784,-426,0,0,0,0,0,0,0,0,0,-1,2008,1450,0,0
791,-426,0,0,0,0,0,0,0,0,0,-1,2015,1450,0,0
798,-426,0,0,0,0,0,0,0,0,0,-1,2022,1450,0,0
805,-426,0,0,0,0,0,0,0,0,0,-1,2029,1450,0,0
812,-426,0,0,0,0,0,0,0,0,0,-1,2036,1450,0,0
-700,-433,0,0,0,0,0,0,0,0,0,-1,524,1457,0,0
-693,-433,0,0,0,0,0,0,0,0,0,-1,531,1457,0,0
-686,-433,0,0,0,0,0,0,0,0,0,-1,538,1457,0,0
-679,-433,0,0,0,0,0,0,0,0,0,-1,545,1457,0,0
-672,-433,0,0,0,0,0,0,0,0,0,-1,552,1457,0,0
-665,-433,0,0,0,0,0,0,0,0,0,-1,559,1457,0,0
-658,-433,0,0,0,0,0,0,0,0,0,-1,566,1457,0,0
-651,-433,0,0,0,0,0,0,0,0,0,-1,573,1457,0,0
-644,-433,0,0,0,0,0,0,0,0,0,-1,580,1457,0,0
-637,-433,0,0,0,0,0,0,0,0,0,-1,587,1457,0,0
-630,-433,0,0,0,0,0,0,0,0,0,-1,594,1457,0,0
-623,-433,0,0,0,0,0,0,0,0,0,-1,601,1457,0,0
-616,-433,0,0,0,0,0,0,0,0,0,-1,608,1457,0,0
-609,-433,0,0,0,0,0,0,0,0,0,-1,615,1457,0,0
-602,-433,0,0,0,0,0,0,0,0,0,-1,622,1457,0,0
-595,-433,0,0,0,0,0,0,0,0,0,-1,629,1457,0,0
-588,-433,-10.3756,-0.467041,0,0,0,0,0,0,0,-1,636,1457,-10.3756,0.467081
-581,-433,-8.12201,0.884033,0,0,0,0,0,0,0,-1,643,1457,-8.12204,-0.884056
-574,-433,-5.86847,2.23523,0,0,0,0,0,0,0,-1,650,1457,-5.86844,-2.23519
-567,-433,-5.42255,1.16833,0,0,0,0,0,0,0,-1,657,1457,-5.42254,-1.1683
-560,-433,-6.84027,1.86414,0,0,0,0,0,0,0,-1,664,1457,-6.84026,-1.86412
-553,-433,-5.74017,1.79163,0,0,0,0,0,0,0,-1,671,1457,-5.74015,-1.79166
-546,-433,-5.32471,6.03796,0,0,0,0,0,0,0,-1,678,1457,-5.32472,-6.03793
-539,-433,-5.83954,6.66541,0,0,0,0,0,0,0,-1,685,1457,-5.83956,-6.66547
-532,-433,-6.35443,7.29297,0,0,0,0,0,0,0,-1,692,1457,-6.35441,-7.293
-525,-433,-6.50964,7.56604,0.0100164,0.0140853,0.0127287,0.0249411,-0.000839469,0.864643,0.0169142,0.0294876,699,1457,-6.50966,-7.56605
-518,-433,-6.54077,7.96533,0.00830937,0.0107842,0.00991168,0.0195354,-0.000441833,0.847499,0.0131734,0.0173035,706,1457,-6.54074,-7.96531
-511,-433,-6.5592,8.38025,0.00671916,0.00799576,0.0075202,0.0149047,-0.000189777,0.827736,0.0100003,0.0162859,713,1457,-6.55922,-8.38027
-504,-433,-6.55957,8.74866,0.00543177,0.00576112,0.0056222,0.0112211,-2.81679e-05,0.800039,0.00749011,0.0126972,720,1457,-6.55954,-8.74862
-497,-433,-6.5578,9.1521,0.00447144,0.00408319,0.00420462,0.00848641,6.82152e-05,0.76233,0.00563501,0.0132172,727,1457,-6.55779,-9.15213
-490,-433,-6.59808,9.53723,0.00340305,0.00259236,0.00287082,0.005897,9.84059e-05,0.715264,0.00389895,0.0153041,734,1457,-6.59811,-9.53725
-483,-433,-6.61713,9.9519,0.0022274,0.00142182,0.00120059,0.00309097,0.00055825,0.623551,0.00190207,0.0160005,741,1457,-6.61712,-9.9519
-476,-433,-6.60986,10.3425,0.00104887,-0.000260399,-0.00101084,0.00159854,-0.000810065,-0.49805,0.00141523,0.01055,748,1457,-6.60987,-10.3425
-469,-433,-6.61383,10.7444,0.000193989,-0.00130768,-0.00270659,0.00225196,-0.00336566,-0.650096,0.00326451,0.0100207,755,1457,-6.61385,-10.7444
-462,-433,-6.63013,11.1589,-0.00100285,-0.00270119,-0.00529304,0.0035087,-0.00721274,-0.70586,0.00631196,0.011303,762,1457,-6.63015,-11.1589
-455,-433,-6.38489,11.7279,-0.00338113,-0.00512547,-0.00968349,0.00546939,-0.013976,-0.740485,0.0115793,0.0415354,769,1457,-6.38492,-11.7279
-448,-433,-6.0257,12.3151,0,0,0,0,0,0,0,-1,776,1457,-6.02572,-12.315
-441,-433,-7.60413,11.7643,0,0,0,0,0,0,0,-1,783,1457,-7.60414,-11.7643
-434,-433,-8.88013,11.9003,0,0,0,0,0,0,0,-1,790,1457,-8.8801,-11.9002
-427,-433,-7.89789,11.3453,0,0,0,0,0,0,0,-1,797,1457,-7.8979,-11.3453
-420,-433,-5.74658,9.49121,0,0,0,0,0,0,0,-1,804,1457,-5.7466,-9.49119
-413,-433,-3.63074,5.5813,0,0,0,0,0,0,0,-1,811,1457,-3.63072,-5.58129
-406,-433,-12.3472,4.69373,0,0,0,0,0,0,0,-1,818,1457,-12.3472,-4.69374
-399,-433,-12.055,2.83594,0,0,0,0,0,0,0,-1,825,1457,-12.055,-2.83594
-392,-433,-12.9772,1.6228,0,0,0,0,0,0,0,-1,832,1457,-12.9772,-1.62282
-385,-433,-13.7999,0.514771,0,0,0,0,0,0,0,-1,839,1457,-13.7999,-0.514788
-378,-433,0,0,0,0,0,0,0,0,0,-1,846,1457,0,0
-371,-433,0,0,0,0,0,0,0,0,0,-1,853,1457,0,0
-364,-433,0,0,0,0,0,0,0,0,0,-1,860,1457,0,0
-357,-433,0,0,0,0,0,0,0,0,0,-1,867,1457,0,0
-350,-433,0,0,0,0,0,0,0,0,0,-1,874,1457,0,0
-343,-433,0,0,0,0,0,0,0,0,0,-1,881,1457,0,0
-336,-433,0,0,0,0,0,0,0,0,0,-1,888,1457,0,0
-329,-433,0,0,0,0,0,0,0,0,0,-1,895,1457,0,0
-322,-433,0,0,0,0,0,0,0,0,0,-1,902,1457,0,0
-315,-433,0,0,0,0,0,0,0,0,0,-1,909,1457,0,0
-308,-433,0,0,0,0,0,0,0,0,0,-1,916,1457,0,0
-301,-433,0,0,0,0,0,0,0,0,0,-1,923,1457,0,0
-294,-433,0,0,0,0,0,0,0,0,0,-1,930,1457,0,0
-287,-433,0,0,0,0,0,0,0,0,0,-1,937,1457,0,0
-280,-433,0,0,0,0,0,0,0,0,0,-1,944,1457,0,0
-273,-433,0,0,0,0,0,0,0,0,0,-1,951,1457,0,0
-266,-433,0,0,0,0,0,0,0,0,0,-1,958,1457,0,0
-259,-433,0,0,0,0,0,0,0,0,0,-1,965,1457,0,0
-252,-433,0,0,0,0,0,0,0,0,0,-1,972,1457,0,0
-245,-433,0,0,0,0,0,0,0,0,0,-1,979,1457,0,0
-238,-433,0,0,0,0,0,0,0,0,0,-1,986,1457,0,0
-231,-433,0,0,0,0,0,0,0,0,0,-1,993,1457,0,0
-224,-433,0,0,0,0,0,0,0,0,0,-1,1000,1457,0,0
-217,-433,0,0,0,0,0,0,0,0,0,-1,1007,1457,0,0
-210,-433,0,0,0,0,0,0,0,0,0,-1,1014,1457,0,0
-203,-433,0,0,0,0,0,0,0,0,0,-1,1021,1457,0,0
-196,-433,0,0,0,0,0,0,0,0,0,-1,1028,1457,0,0
-189,-433,0,0,0,0,0,0,0,0,0,-1,1035,1457,0,0
-182,-433,0,0,0,0,0,0,0,0,0,-1,1042,1457,0,0
-175,-433,0,0,0,0,0,0,0,0,0,-1,1049,1457,0,0
-168,-433,0,0,0,0,0,0,0,0,0,-1,1056,1457,0,0
-161,-433,0,0,0,0,0,0,0,0,0,-1,1063,1457,0,0
-154,-433,0,0,0,0,0,0,0,0,0,-1,1070,1457,0,0
-147,-433,0,0,0,0,0,0,0,0,0,-1,1077,1457,0,0
-140,-433,0,0,0,0,0,0,0,0,0,-1,1084,1457,0,0
-133,-433,0,0,0,0,0,0,0,0,0,-1,1091,1457,0,0
-126,-433,0,0,0,0,0,0,0,0,0,-1,1098,1457,0,0
-119,-433,0,0,0,0,0,0,0,0,0,-1,1105,1457,0,0
-112,-433,0,0,0,0,0,0,0,0,0,-1,1112,1457,0,0
-105,-433,0,0,0,0,0,0,0,0,0,-1,1119,1457,0,0
-98,-433,0,0,0,0,0,0,0,0,0,-1,1126,1457,0,0
-91,-433,0,0,0,0,0,0,0,0,0,-1,1133,1457,0,0
-84,-433,0,0,0,0,0,0,0,0,0,-1,1140,1457,0,0
-77,-433,0,0,0,0,0,0,0,0,0,-1,1147,1457,0,0
-70,-433,0,0,0,0,0,0,0,0,0,-1,1154,1457,0,0
-63,-433,0,0,0,0,0,0,0,0,0,-1,1161,1457,0,0
-56,-433,0,0,0,0,0,0,0,0,0,-1,1168,1457,0,0
-49,-433,0,0,0,0,0,0,0,0,0,-1,1175,1457,0,0
-42,-433,0,0,0,0,0,0,0,0,0,-1,1182,1457,0,0
-35,-433,0,0,0,0,0,0,0,0,0,-1,1189,1457,0,0
-28,-433,0,0,0,0,0,0,0,0,0,-1,1196,1457,0,0
-21,-433,0,0,0,0,0,0,0,0,0,-1,1203,1457,0,0
-14,-433,0,0,0,0,0,0,0,0,0,-1,1210,1457,0,0
-7,-433,0,0,0,0,0,0,0,0,0,-1,1217,1457,0,0
0,-433,0,0,0,0,0,0,0,0,0,-1,1224,1457,0,0
7,-433,0,0,0,0,0,0,0,0,0,-1,1231,1457,0,0
14,-433,0,0,0,0,0,0,0,0,0,-1,1238,1457,0,0
21,-433,0,0,0,0,0,0,0,0,0,-1,1245,1457,0,0
28,-433,0,0,0,0,0,0,0,0,0,-1,1252,1457,0,0
35,-433,0,0,0,0,0,0,0,0,0,-1,1259,1457,0,0
42,-433,0,0,0,0,0,0,0,0,0,-1,1266,1457,0,0
49,-433,0,0,0,0,0,0,0,0,0,-1,1273,1457,0,0
56,-433,0,0,0,0,0,0,0,0,0,-1,1280,1457,0,0
63,-433,0,0,0,0,0,0,0,0,0,-1,1287,1457,0,0
70,-433,0,0,0,0,0,0,0,0,0,-1,1294,1457,0,0
77,-433,0,0,0,0,0,0,0,0,0,-1,1301,1457,0,0
84,-433,0,0,0,0,0,0,0,0,0,-1,1308,1457,0,0
91,-433,0,0,0,0,0,0,0,0,0,-1,1315,1457,0,0
98,-433,0,0,0,0,0,0,0,0,0,-1,1322,1457,0,0
105,-433,0,0,0,0,0,0,0,0,0,-1,1329,1457,0,0
112,-433,0,0,0,0,0,0,0,0,0,-1,1336,1457,0,0
119,-433,0,0,0,0,0,0,0,0,0,-1,1343,1457,0,0
126,-433,0,0,0,0,0,0,0,0,0,-1,1350,1457,0,0
133,-433,0,0,0,0,0,0,0,0,0,-1,1357,1457,0,0
140,-433,0,0,0,0,0,0,0,0,0,-1,1364,1457,0,0
147,-433,0,0,0,0,0,0,0,0,0,-1,1371,1457,0,0
154,-433,0,0,0,0,0,0,0,0,0,-1,1378,1457,0,0
161,-433,0,0,0,0,0,0,0,0,0,-1,1385,1457,0,0
168,-433,0,0,0,0,0,0,0,0,0,-1,1392,1457,0,0
175,-433,0,0,0,0,0,0,0,0,0,-1,1399,1457,0,0
182,-433,0,0,0,0,0,0,0,0,0,-1,1406,1457,0,0
189,-433,0,0,0,0,0,0,0,0,0,-1,1413,1457,0,0
196,-433,0,0,0,0,0,0,0,0,0,-1,1420,1457,0,0
203,-433,0,0,0,0,0,0,0,0,0,-1,1427,1457,0,0
210,-433,0,0,0,0,0,0,0,0,0,-1,1434,1457,0,0
217,-433,0,0,0,0,0,0,0,0,0,-1,1441,1457,0,0
224,-433,0,0,0,0,0,0,0,0,0,-1,1448,1457,0,0
231,-433,0,0,0,0,0,0,0,0,0,-1,1455,1457,0,0
238,-433,0,0,0,0,0,0,0,0,0,-1,1462,1457,0,0
245,-433,0,0,0,0,0,0,0,0,0,-1,1469,1457,0,0
252,-433,0,0,0,0,0,0,0,0,0,-1,1476,1457,0,0
259,-433,0,0,0,0,0,0,0,0,0,-1,1483,1457,0,0
266,-433,0,0,0,0,0,0,0,0,0,-1,1490,1457,0,0
273,-433,0,0,0,0,0,0,0,0,0,-1,1497,1457,0,0
280,-433,0,0,0,0,0,0,0,0,0,-1,1504,1457,0,0
287,-433,0,0,0,0,0,0,0,0,0,-1,1511,1457,0,0
294,-433,0,0,0,0,0,0,0,0,0,-1,1518,1457,0,0
301,-433,0,0,0,0,0,0,0,0,0,-1,1525,1457,0,0
308,-433,0,0,0,0,0,0,0,0,0,-1,1532,1457,0,0
315,-433,0,0,0,0,0,0,0,0,0,-1,1539,1457,0,0
322,-433,0,0,0,0,0,0,0,0,0,-1,1546,1457,0,0
329,-433,0,0,0,0,0,0,0,0,0,-1,1553,1457,0,0
336,-433,0,0,0,0,0,0,0,0,0,-1,1560,1457,0,0
343,-433,0,0,0,0,0,0,0,0,0,-1,1567,1457,0,0
350,-433,0,0,0,0,0,0,0,0,0,-1,1574,1457,0,0
357,-433,0,0,0,0,0,0,0,0,0,-1,1581,1457,0,0
364,-433,0,0,0,0,0,0,0,0,0,-1,1588,1457,0,0
371,-433,0,0,0,0,0,0,0,0,0,-1,1595,1457,0,0
378,-433,0,0,0,0,0,0,0,0,0,-1,1602,1457,0,0
385,-433,0,0,0,0,0,0,0,0,0,-1,1609,1457,0,0
392,-433,0,0,0,0,0,0,0,0,0,-1,1616,1457,0,0
399,-433,0,0,0,0,0,0,0,0,0,-1,1623,1457,0,0
406,-433,0,0,0,0,0,0,0,0,0,-1,1630,1457,0,0
413,-433,0,0,0,0,0,0,0,0,0,-1,1637,1457,0,0
420,-433,0,0,0,0,0,0,0,0,0,-1,1644,1457,0,0
427,-433,0,0,0,0,0,0,0,0,0,-1,1651,1457,0,0
434,-433,0,0,0,0,0,0,0,0,0,-1,1658,1457,0,0
441,-433,0,0,0,0,0,0,0,0,0,-1,1665,1457,0,0
448,-433,0,0,0,0,0,0,0,0,0,-1,1672,1457,0,0
455,-433,0,0,0,0,0,0,0,0,0,-1,1679,1457,0,0
462,-433,0,0,0,0,0,0,0,0,0,-1,1686,1457,0,0
469,-433,0,0,0,0,0,0,0,0,0,-1,1693,1457,0,0
476,-433,0,0,0,0,0,0,0,0,0,-1,1700,1457,0,0
483,-433,0,0,0,0,0,0,0,0,0,-1,1707,1457,0,0
490,-433,0,0,0,0,0,0,0,0,0,-1,1714,1457,0,0
497,-433,0,0,0,0,0,0,0,0,0,-1,1721,1457,0,0
504,-433,19.9058,3.03662,0,0,0,0,0,0,0,-1,1728,1457,19.9058,-3.03656
511,-433,19.0145,3.07837,0,0,0,0,0,0,0,-1,1735,1457,19.0146,-3.07834
518,-433,18.071,3.06433,0,0,0,0,0,0,0,-1,1742,1457,18.071,-3.06432
525,-433,17.2048,3.37085,0,0,0,0,0,0,0,-1,1749,1457,17.2049,-3.37083
532,-433,16.5637,3.36646,0,0,0,0,0,0,0,-1,1756,1457,16.5637,-3.36643
539,-433,15.9193,3.30396,0,0,0,0,0,0,0,-1,1763,1457,15.9193,-3.30394
546,-433,23.1903,4.81775,0,0,0,0,0,0,0,-1,1770,1457,23.1903,-4.81775
553,-433,13.9674,11.5781,0,0,0,0,0,0,0,-1,1777,1457,13.9674,-11.5781
560,-433,13.9855,11.7341,0,0,0,0,0,0,0,-1,1784,1457,13.9855,-11.7341
567,-433,13.9264,11.3364,0,0,0,0,0,0,0,-1,1791,1457,13.9263,-11.3364
574,-433,15.5305,12.3673,0,0,0,0,0,0,0,-1,1798,1457,15.5305,-12.3673
581,-433,16.6405,12.1898,0,0,0,0,0,0,0,-1,1805,1457,16.6405,-12.1898
588,-433,18.3418,13.4432,0,0,0,0,0,0,0,-1,1812,1457,18.3418,-13.4432
595,-433,18.2803,12.8373,-0.00298273,0.00279861,0.000330116,0.0028174,-0.00300152,1.51394,0.00336012,0.0292755,1819,1457,18.2803,-12.8373
602,-433,18.2903,12.4208,-0.00151522,0.00229678,-3.45022e-05,0.00229709,-0.00151554,-1.56175,0.00221658,0.0195489,1826,1457,18.2902,-12.4208
609,-433,18.2982,12.0154,-0.000623687,0.00164744,-0.000158883,0.0016585,-0.000634748,-1.50129,0.00136728,0.0144963,1833,1457,18.2982,-12.0154
616,-433,18.2893,11.6783,-0.000260125,0.0010252,-5.44396e-05,0.0010275,-0.000262427,-1.52854,0.000787192,0.0132994,1840,1457,18.2893,-11.6783
623,-433,18.2653,11.2904,-0.000136189,0.00046649,0.00013273,0.000494426,-0.000164126,1.36335,0.000395836,0.0104528,1847,1457,18.2653,-11.2904
630,-433,18.2593,10.9486,-7.83987e-05,-4.06109e-05,0.000313719,0.000254782,-0.000373792,0.815475,0.000365069,0.013155,1854,1457,18.2593,-10.9486
637,-433,18.2775,10.6096,-0.000319522,-0.000469456,0.000681587,0.000291209,-0.00108019,0.730624,0.00083431,0.0143113,1861,1457,18.2775,-10.6097
644,-433,18.2639,10.2583,-0.000701154,-0.000759331,0.00104607,0.000316236,-0.00177672,0.771498,0.00130275,0.0144935,1868,1457,18.264,-10.2583
651,-433,18.2502,9.87659,-0.00117649,-0.000883109,0.00138,0.000357976,-0.00241757,0.838348,0.00174333,0.0122637,1875,1457,18.2502,-9.87653
658,-433,18.222,9.47754,-0.00185439,-0.000855579,0.00178795,0.000501408,-0.00321137,0.921585,0.00232613,0.0200272,1882,1457,18.2221,-9.47748
665,-433,18.3608,8.95923,0,0,0,0,0,0,0,-1,1889,1457,18.3609,-8.9592
672,-433,18.115,8.7207,0,0,0,0,0,0,0,-1,1896,1457,18.115,-8.72074
679,-433,17.2969,9.6355,0,0,0,0,0,0,0,-1,1903,1457,17.2968,-9.63548
686,-433,13.6356,8.61694,0,0,0,0,0,0,0,-1,1910,1457,13.6356,-8.61694
693,-433,13.4081,8.39624,0,0,0,0,0,0,0,-1,1917,1457,13.4081,-8.39624
700,-433,7.16809,-1.5166,0,0,0,0,0,0,0,-1,1924,1457,7.16806,1.51656
707,-433,8.68359,-2.82202,0,0,0,0,0,0,0,-1,1931,1457,8.68359,2.82197
714,-433,0,0,0,0,0,0,0,0,0,-1,1938,1457,0,0
721,-433,0,0,0,0,0,0,0,0,0,-1,1945,1457,0,0
728,-433,0,0,0,0,0,0,0,0,0,-1,1952,1457,0,0
735,-433,0,0,0,0,0,0,0,0,0,-1,1959,1457,0,0
742,-433,0,0,0,0,0,0,0,0,0,-1,1966,1457,0,0
749,-433,0,0,0,0,0,0,0,0,0,-1,1973,1457,0,0
756,-433,0,0,0,0,0,0,0,0,0,-1,1980,1457,0,0
763,-433,0,0,0,0,0,0,0,0,0,-1,1987,1457,0,0
770,-433,0,0,0,0,0,0,0,0,0,-1,1994,1457,0,0
777,-433,0,0,0,0,0,0,0,0,0,-1,2001,1457,0,0
784,-433,0,0,0,0,0,0,0,0,0,-1,2008,1457,0,0
791,-433,0,0,0,0,0,0,0,0,0,-1,2015,1457,0,0
798,-433,0,0,0,0,0,0,0,0,0,-1,2022,1457,0,0
805,-433,0,0,0,0,0,0,0,0,0,-1,2029,1457,0,0
812,-433,0,0,0,0,0,0,0,0,0,-1,2036,1457,0,0
-700,-440,0,0,0,0,0,0,0,0,0,-1,524,1464,0,0
-693,-440,0,0,0,0,0,0,0,0,0,-1,531,1464,0,0
-686,-440,0,0,0,0,0,0,0,0,0,-1,538,1464,0,0
-679,-440,0,0,0,0,0,0,0,0,0,-1,545,1464,0,0
-672,-440,0,0,0,0,0,0,0,0,0,-1,552,1464,0,0
-665,-440,0,0,0,0,0,0,0,0,0,-1,559,1464,0,0
-658,-440,0,0,0,0,0,0,0,0,0,-1,566,1464,0,0
-651,-440,0,0,0,0,0,0,0,0,0,-1,573,1464,0,0
-644,-440,0,0,0,0,0,0,0,0,0,-1,580,1464,0,0
-637,-440,0,0,0,0,0,0,0,0,0,-1,587,1464,0,0
-630,-440,0,0,0,0,0,0,0,0,0,-1,594,1464,0,0
-623,-440,0,0,0,0,0,0,0,0,0,-1,601,1464,0,0
-616,-440,0,0,0,0,0,0,0,0,0,-1,608,1464,0,0
-609,-440,0,0,0,0,0,0,0,0,0,-1,615,1464,0,0
-602,-440,0,0,0,0,0,0,0,0,0,-1,622,1464,0,0
-595,-440,0,0,0,0,0,0,0,0,0,-1,629,1464,0,0
-588,-440,0,0,0,0,0,0,0,0,0,-1,636,1464,0,0
-581,-440,-8.97278,0.254517,0,0,0,0,0,0,0,-1,643,1464,-8.97276,-0.254526
-574,-440,-7.00818,-0.918579,0,0,0,0,0,0,0,-1,650,1464,-7.00817,0.918538
-567,-440,-6.12152,-0.0766602,0,0,0,0,0,0,0,-1,657,1464,-6.12151,0.0767097
-560,-440,-5.46747,0.82251,0,0,0,0,0,0,0,-1,664,1464,-5.46748,-0.822551
-553,-440,-6.84729,0.0831299,0,0,0,0,0,0,0,-1,671,1464,-6.84732,-0.083136
-546,-440,-5.63446,-0.153198,0,0,0,0,0,0,0,-1,678,1464,-5.63447,0.153147
-539,-440,-5.4632,6.63403,0,0,0,0,0,0,0,-1,685,1464,-5.46321,-6.63398
-532,-440,-6.01605,7.0813,0,0,0,0,0,0,0,-1,692,1464,-6.01603,-7.08129
-525,-440,-6.16089,7.59399,0.0170385,0.0197664,0.0192546,0.0377053,-0.000900438,0.820757,0.0254423,0.0329441,699,1464,-6.1609,-7.59399
-518,-440,-6.1839,7.92969,0.0136243,0.0149296,0.0146884,0.0289799,-0.000425932,0.8076,0.0194635,0.0182138,706,1464,-6.18391,-7.92964
-511,-440,-6.15289,8.37341,0.010611,0.0109718,0.010932,0.0217249,-0.000142102,0.793649,0.0145309,0.0152915,713,1464,-6.15289,-8.37343
-504,-440,-6.13837,8.77112,0.00815005,0.00781905,0.00795443,0.0159407,2.8397e-05,0.774997,0.0106177,0.0173948,720,1464,-6.13837,-8.77117
-497,-440,-6.16418,9.1748,0.00625935,0.00545816,0.0057214,0.0115942,0.000123341,0.750447,0.00768866,0.0205783,727,1464,-6.16416,-9.17477
-490,-440,-6.18231,9.50159,0.0045306,0.00352878,0.00382646,0.00788879,0.000170583,0.720315,0.00520327,0.0218055,734,1464,-6.18234,-9.5016
-483,-440,-6.19678,9.91895,0.00295138,0.00207219,0.00184293,0.00440642,0.00061715,0.668322,0.00275504,0.0191622,741,1464,-6.19677,-9.91894
-476,-440,-6.19403,10.3383,0.00149505,0.000248418,-0.000520747,0.00168396,5.95151e-05,-0.347991,0.00110333,0.0132166,748,1464,-6.19406,-10.3383
-469,-440,-6.20648,10.7543,0.000275586,-0.0011364,-0.00249959,0.00216697,-0.00302778,-0.647761,0.00301289,0.0121738,755,1464,-6.20651,-10.7542
-462,-440,-6.23022,11.1572,-0.0010118,-0.00253131,-0.00495633,0.00324267,-0.00678578,-0.709345,0.00590915,0.0145222,762,1464,-6.23024,-11.1572
-455,-440,-6.11407,11.6323,-0.00297529,-0.00465397,-0.00867691,0.00490278,-0.012532,-0.737182,0.0103823,0.0265091,769,1464,-6.11406,-11.6324
-448,-440,-5.92035,12.2971,0,0,0,0,0,0,0,-1,776,1464,-5.92034,-12.2971
-441,-440,-6.84723,12.0527,-0.0102625,-0.0129592,-0.0216268,0.0100579,-0.0332796,-0.754265,0.0261909,0.0457475,783,1464,-6.84721,-12.0527
-434,-440,-7.49713,12.2537,-0.0165254,-0.0199134,-0.0321531,0.0139783,-0.0504171,-0.75908,0.0391125,0.0408181,790,1464,-7.49716,-12.2537
-427,-440,-7.3728,12.2465,0,0,0,0,0,0,0,-1,797,1464,-7.37283,-12.2465
-420,-440,-3.84052,9.66321,0,0,0,0,0,0,0,-1,804,1464,-3.84054,-9.66322
-413,-440,-3.46796,5.72278,0,0,0,0,0,0,0,-1,811,1464,-3.46797,-5.72276
-406,-440,-5.2887,5.20264,0,0,0,0,0,0,0,-1,818,1464,-5.2887,-5.20261
-399,-440,-12.7318,3.94421,0,0,0,0,0,0,0,-1,825,1464,-12.7318,-3.94419
-392,-440,-13.5565,2.51855,0,0,0,0,0,0,0,-1,832,1464,-13.5565,-2.51861
-385,-440,-14.6741,1.39795,0,0,0,0,0,0,0,-1,839,1464,-14.6741,-1.39801
-378,-440,-15.8063,0.293457,0,0,0,0,0,0,0,-1,846,1464,-15.8063,-0.293412
-371,-440,0,0,0,0,0,0,0,0,0,-1,853,1464,0,0
-364,-440,0,0,0,0,0,0,0,0,0,-1,860,1464,0,0
-357,-440,0,0,0,0,0,0,0,0,0,-1,867,1464,0,0
-350,-440,0,0,0,0,0,0,0,0,0,-1,874,1464,0,0
-343,-440,0,0,0,0,0,0,0,0,0,-1,881,1464,0,0
-336,-440,0,0,0,0,0,0,0,0,0,-1,888,1464,0,0
-329,-440,0,0,0,0,0,0,0,0,0,-1,895,1464,0,0
-322,-440,0,0,0,0,0,0,0,0,0,-1,902,1464,0,0
-315,-440,0,0,0,0,0,0,0,0,0,-1,909,1464,0,0
-308,-440,0,0,0,0,0,0,0,0,0,-1,916,1464,0,0
-301,-440,0,0,0,0,0,0,0,0,0,-1,923,1464,0,0
-294,-440,0,0,0,0,0,0,0,0,0,-1,930,1464,0,0
-287,-440,0,0,0,0,0,0,0,0,0,-1,937,1464,0,0
-280,-440,0,0,0,0,0,0,0,0,0,-1,944,1464,0,0
-273,-440,0,0,0,0,0,0,0,0,0,-1,951,1464,0,0
-266,-440,0,0,0,0,0,0,0,0,0,-1,958,1464,0,0
-259,-440,0,0,0,0,0,0,0,0,0,-1,965,1464,0,0
-252,-440,0,0,0,0,0,0,0,0,0,-1,972,1464,0,0
-245,-440,0,0,0,0,0,0,0,0,0,-1,979,1464,0,0
-238,-440,0,0,0,0,0,0,0,0,0,-1,986,1464,0,0
-231,-440,0,0,0,0,0,0,0,0,0,-1,993,1464,0,0
-224,-440,0,0,0,0,0,0,0,0,0,-1,1000,1464,0,0
-217,-440,0,0,0,0,0,0,0,0,0,-1,1007,1464,0,0
-210,-440,0,0,0,0,0,0,0,0,0,-1,1014,1464,0,0
-203,-440,0,0,0,0,0,0,0,0,0,-1,1021,1464,0,0
-196,-440,0,0,0,0,0,0,0,0,0,-1,1028,1464,0,0
-189,-440,0,0,0,0,0,0,0,0,0,-1,1035,1464,0,0
-182,-440,0,0,0,0,0,0,0,0,0,-1,1042,1464,0,0
-175,-440,0,0,0,0,0,0,0,0,0,-1,1049,1464,0,0
-168,-440,0,0,0,0,0,0,0,0,0,-1,1056,1464,0,0
-161,-440,0,0,0,0,0,0,0,0,0,-1,1063,1464,0,0
-154,-440,0,0,0,0,0,0,0,0,0,-1,1070,1464,0,0
-147,-440,0,0,0,0,0,0,0,0,0,-1,1077,1464,0,0
-140,-440,0,0,0,0,0,0,0,0,0,-1,1084,1464,0,0
-133,-440,0,0,0,0,0,0,0,0,0,-1,1091,1464,0,0
-126,-440,0,0,0,0,0,0,0,0,0,-1,1098,1464,0,0
-119,-440,0,0,0,0,0,0,0,0,0,-1,1105,1464,0,0
-112,-440,0,0,0,0,0,0,0,0,0,-1,1112,1464,0,0
-105,-440,0,0,0,0,0,0,0,0,0,-1,1119,1464,0,0
-98,-440,0,0,0,0,0,0,0,0,0,-1,1126,1464,0,0
-91,-440,0,0,0,0,0,0,0,0,0,-1,1133,1464,0,0
-84,-440,0,0,0,0,0,0,0,0,0,-1,1140,1464,0,0
-77,-440,0,0,0,0,0,0,0,0,0,-1,1147,1464,0,0
-70,-440,0,0,0,0,0,0,0,0,0,-1,1154,1464,0,0
-63,-440,0,0,0,0,0,0,0,0,0,-1,1161,1464,0,0
-56,-440,0,0,0,0,0,0,0,0,0,-1,1168,1464,0,0
-49,-440,0,0,0,0,0,0,0,0,0,-1,1175,1464,0,0
-42,-440,0,0,0,0,0,0,0,0,0,-1,1182,1464,0,0
-35,-440,0,0,0,0,0,0,0,0,0,-1,1189,1464,0,0
-28,-440,0,0,0,0,0,0,0,0,0,-1,1196,1464,0,0
-21,-440,0,0,0,0,0,0,0,0,0,-1,1203,1464,0,0
-14,-440,0,0,0,0,0,0,0,0,0,-1,1210,1464,0,0
-7,-440,0,0,0,0,0,0,0,0,0,-1,1217,1464,0,0
0,-440,0,0,0,0,0,0,0,0,0,-1,1224,1464,0,0
7,-440,0,0,0,0,0,0,0,0,0,-1,1231,1464,0,0
14,-440,0,0,0,0,0,0,0,0,0,-1,1238,1464,0,0
21,-440,0,0,0,0,0,0,0,0,0,-1,1245,1464,0,0
28,-440,0,0,0,0,0,0,0,0,0,-1,1252,1464,0,0
35,-440,0,0,0,0,0,0,0,0,0,-1,1259,1464,0,0
42,-440,0,0,0,0,0,0,0,0,0,-1,1266,1464,0,0
49,-440,0,0,0,0,0,0,0,0,0,-1,1273,1464,0,0
56,-440,0,0,0,0,0,0,0,0,0,-1,1280,1464,0,0
63,-440,0,0,0,0,0,0,0,0,0,-1,1287,1464,0,0
70,-440,0,0,0,0,0,0,0,0,0,-1,1294,1464,0,0
77,-440,0,0,0,0,0,0,0,0,0,-1,1301,1464,0,0
84,-440,0,0,0,0,0,0,0,0,0,-1,1308,1464,0,0
91,-440,0,0,0,0,0,0,0,0,0,-1,1315,1464,0,0
98,-440,0,0,0,0,0,0,0,0,0,-1,1322,1464,0,0
105,-440,0,0,0,0,0,0,0,0,0,-1,1329,1464,0,0
112,-440,0,0,0,0,0,0,0,0,0,-1,1336,1464,0,0
119,-440,0,0,0,0,0,0,0,0,0,-1,1343,1464,0,0
126,-440,0,0,0,0,0,0,0,0,0,-1,1350,1464,0,0
133,-440,0,0,0,0,0,0,0,0,0,-1,1357,1464,0,0
140,-440,0,0,0,0,0,0,0,0,0,-1,1364,1464,0,0
147,-440,0,0,0,0,0,0,0,0,0,-1,1371,1464,0,0
154,-440,0,0,0,0,0,0,0,0,0,-1,1378,1464,0,0
161,-440,0,0,0,0,0,0,0,0,0,-1,1385,1464,0,0
168,-440,0,0,0,0,0,0,0,0,0,-1,1392,1464,0,0
175,-440,0,0,0,0,0,0,0,0,0,-1,1399,1464,0,0
182,-440,0,0,0,0,0,0,0,0,0,-1,1406,1464,0,0
189,-440,0,0,0,0,0,0,0,0,0,-1,1413,1464,0,0
196,-440,0,0,0,0,0,0,0,0,0,-1,1420,1464,0,0
203,-440,0,0,0,0,0,0,0,0,0,-1,1427,1464,0,0
210,-440,0,0,0,0,0,0,0,0,0,-1,1434,1464,0,0
217,-440,0,0,0,0,0,0,0,0,0,-1,1441,1464,0,0
224,-440,0,0,0,0,0,0,0,0,0,-1,1448,1464,0,0
231,-440,0,0,0,0,0,0,0,0,0,-1,1455,1464,0,0
238,-440,0,0,0,0,0,0,0,0,0,-1,1462,1464,0,0
245,-440,0,0,0,0,0,0,0,0,0,-1,1469,1464,0,0
252,-440,0,0,0,0,0,0,0,0,0,-1,1476,1464,0,0
259,-440,0,0,0,0,0,0,0,0,0,-1,1483,1464,0,0
266,-440,0,0,0,0,0,0,0,0,0,-1,1490,1464,0,0
273,-440,0,0,0,0,0,0,0,0,0,-1,1497,1464,0,0
280,-440,0,0,0,0,0,0,0,0,0,-1,1504,1464,0,0
287,-440,0,0,0,0,0,0,0,0,0,-1,1511,1464,0,0
294,-440,0,0,0,0,0,0,0,0,0,-1,1518,1464,0,0
301,-440,0,0,0,0,0,0,0,0,0,-1,1525,1464,0,0
308,-440,0,0,0,0,0,0,0,0,0,-1,1532,1464,0,0
315,-440,0,0,0,0,0,0,0,0,0,-1,1539,1464,0,0
322,-440,0,0,0,0,0,0,0,0,0,-1,1546,1464,0,0
329,-440,0,0,0,0,0,0,0,0,0,-1,1553,1464,0,0
336,-440,0,0,0,0,0,0,0,0,0,-1,1560,1464,0,0
343,-440,0,0,0,0,0,0,0,0,0,-1,1567,1464,0,0
350,-440,0,0,0,0,0,0,0,0,0,-1,1574,1464,0,0
357,-440,0,0,0,0,0,0,0,0,0,-1,1581,1464,0,0
364,-440,0,0,0,0,0,0,0,0,0,-1,1588,1464,0,0
371,-440,0,0,0,0,0,0,0,0,0,-1,1595,1464,0,0
378,-440,0,0,0,0,0,0,0,0,0,-1,1602,1464,0,0
385,-440,0,0,0,0,0,0,0,0,0,-1,1609,1464,0,0
392,-440,0,0,0,0,0,0,0,0,0,-1,1616,1464,0,0
399,-440,0,0,0,0,0,0,0,0,0,-1,1623,1464,0,0
406,-440,0,0,0,0,0,0,0,0,0,-1,1630,1464,0,0
413,-440,0,0,0,0,0,0,0,0,0,-1,1637,1464,0,0
420,-440,0,0,0,0,0,0,0,0,0,-1,1644,1464,0,0
427,-440,0,0,0,0,0,0,0,0,0,-1,1651,1464,0,0
434,-440,0,0,0,0,0,0,0,0,0,-1,1658,1464,0,0
441,-440,0,0,0,0,0,0,0,0,0,-1,1665,1464,0,0
448,-440,0,0,0,0,0,0,0,0,0,-1,1672,1464,0,0
455,-440,0,0,0,0,0,0,0,0,0,-1,1679,1464,0,0
462,-440,0,0,0,0,0,0,0,0,0,-1,1686,1464,0,0
469,-440,0,0,0,0,0,0,0,0,0,-1,1693,1464,0,0
476,-440,0,0,0,0,0,0,0,0,0,-1,1700,1464,0,0
483,-440,0,0,0,0,0,0,0,0,0,-1,1707,1464,0,0
490,-440,0,0,0,0,0,0,0,0,0,-1,1714,1464,0,0
497,-440,16.965,-0.528442,0,0,0,0,0,0,0,-1,1721,1464,16.965,0.528492
504,-440,15.8052,0.670166,0,0,0,0,0,0,0,-1,1728,1464,15.8052,-0.670145
511,-440,17.5754,2.77832,0,0,0,0,0,0,0,-1,1735,1464,17.5754,-2.77826
518,-440,16.9017,3.07861,0,0,0,0,0,0,0,-1,1742,1464,16.9018,-3.07859
525,-440,18.4495,12.0867,0,0,0,0,0,0,0,-1,1749,1464,18.4495,-12.0867
532,-440,15.4319,3.64392,0,0,0,0,0,0,0,-1,1756,1464,15.4318,-3.64391
539,-440,14.8214,3.41321,0,0,0,0,0,0,0,-1,1763,1464,14.8214,-3.4132
546,-440,14.8651,10.7683,0,0,0,0,0,0,0,-1,1770,1464,14.8651,-10.7683
553,-440,15.1213,11.4121,0,0,0,0,0,0,0,-1,1777,1464,15.1213,-11.4121
560,-440,17.4325,12.5394,0,0,0,0,0,0,0,-1,1784,1464,17.4325,-12.5394
567,-440,16.9025,12.4249,0,0,0,0,0,0,0,-1,1791,1464,16.9025,-12.425
574,-440,18.3805,13.9819,0,0,0,0,0,0,0,-1,1798,1464,18.3805,-13.9819
581,-440,17.8434,13.933,0,0,0,0,0,0,0,-1,1805,1464,17.8434,-13.933
588,-440,17.8416,13.2188,-0.00434924,0.0027574,0.00133591,0.00300022,-0.00459207,1.39099,0.00441541,0.0443371,1812,1464,17.8416,-13.2188
595,-440,17.8998,12.829,-0.00229389,0.0021598,0.000286278,0.00217813,-0.00231222,1.50687,0.00259289,0.0208473,1819,1464,17.8997,-12.829
602,-440,17.9332,12.4204,-0.00104241,0.00172881,-9.52863e-06,0.00172885,-0.00104244,-1.56736,0.00161628,0.0179192,1826,1464,17.9332,-12.4204
609,-440,17.9077,12.0476,-0.000319872,0.00117618,-7.33473e-05,0.00117977,-0.00032346,-1.52193,0.000913621,0.0150221,1833,1464,17.9077,-12.0476
616,-440,17.8895,11.6874,-2.68156e-05,0.000621249,5.07816e-05,0.000625204,-3.07706e-05,1.49307,0.000427429,0.0168964,1840,1464,17.8895,-11.6874
623,-440,17.9233,11.3195,1.72478e-05,8.79841e-05,0.000271733,0.000326641,-0.000221409,0.850113,0.000318356,0.0137584,1847,1464,17.9234,-11.3194
630,-440,17.9009,10.9382,-4.0446e-05,-0.000427416,0.000521419,0.000322229,-0.000790091,0.607736,0.000660864,0.0115699,1854,1464,17.9009,-10.9382
637,-440,17.9131,10.6219,-0.000416496,-0.000865563,0.000952801,0.00033787,-0.00161993,0.669681,0.00120842,0.0159037,1861,1464,17.9131,-10.622
644,-440,17.9125,10.2703,-0.000964114,-0.00116234,0.0013823,0.000322621,-0.00244908,0.749609,0.0017502,0.0145709,1868,1464,17.9125,-10.2703
651,-440,17.9269,9.87317,-0.00165909,-0.00130226,0.00180637,0.00033448,-0.00329583,0.834624,0.00231678,0.0160005,1875,1464,17.9269,-9.87321
658,-440,17.804,9.58093,-0.00265188,-0.00127865,0.00233639,0.000469935,-0.00440046,0.928313,0.00310217,0.0321456,1882,1464,17.804,-9.58089
665,-440,17.9601,9.36255,0,0,0,0,0,0,0,-1,1889,1464,17.9601,-9.36255
672,-440,18.386,9.06226,0,0,0,0,0,0,0,-1,1896,1464,18.386,-9.06231
679,-440,16.9508,10.2336,0,0,0,0,0,0,0,-1,1903,1464,16.9508,-10.2337
686,-440,15.2556,8.44177,0,0,0,0,0,0,0,-1,1910,1464,15.2556,-8.44177
693,-440,9.88635,2.89795,0,0,0,0,0,0,0,-1,1917,1464,9.88638,-2.89798
700,-440,7.07825,-2.62061,0,0,0,0,0,0,0,-1,1924,1464,7.07829,2.62057
707,-440,0,0,0,0,0,0,0,0,0,-1,1931,1464,0,0
714,-440,0,0,0,0,0,0,0,0,0,-1,1938,1464,0,0
721,-440,0,0,0,0,0,0,0,0,0,-1,1945,1464,0,0
728,-440,0,0,0,0,0,0,0,0,0,-1,1952,1464,0,0
735,-440,0,0,0,0,0,0,0,0,0,-1,1959,1464,0,0
742,-440,0,0,0,0,0,0,0,0,0,-1,1966,1464,0,0
749,-440,0,0,0,0,0,0,0,0,0,-1,1973,1464,0,0
756,-440,0,0,0,0,0,0,0,0,0,-1,1980,1464,0,0
763,-440,0,0,0,0,0,0,0,0,0,-1,1987,1464,0,0
770,-440,0,0,0,0,0,0,0,0,0,-1,1994,1464,0,0
777,-440,0,0,0,0,0,0,0,0,0,-1,2001,1464,0,0
784,-440,0,0,0,0,0,0,0,0,0,-1,2008,1464,0,0
791,-440,0,0,0,0,0,0,0,0,0,-1,2015,1464,0,0
798,-440,0,0,0,0,0,0,0,0,0,-1,2022,1464,0,0
805,-440,0,0,0,0,0,0,0,0,0,-1,2029,1464,0,0
812,-440,0,0,0,0,0,0,0,0,0,-1,2036,1464,0,0
-700,-447,0,0,0,0,0,0,0,0,0,-1,524,1471,0,0
-693,-447,0,0,0,0,0,0,0,0,0,-1,531,1471,0,0
-686,-447,0,0,0,0,0,0,0,0,0,-1,538,1471,0,0
-679,-447,0,0,0,0,0,0,0,0,0,-1,545,1471,0,0
-672,-447,0,0,0,0,0,0,0,0,0,-1,552,1471,0,0
-665,-447,0,0,0,0,0,0,0,0,0,-1,559,1471,0,0
-658,-447,0,0,0,0,0,0,0,0,0,-1,566,1471,0,0
-651,-447,0,0,0,0,0,0,0,0,0,-1,573,1471,0,0
-644,-447,0,0,0,0,0,0,0,0,0,-1,580,1471,0,0
-637,-447,0,0,0,0,0,0,0,0,0,-1,587,1471,0,0
-630,-447,0,0,0,0,0,0,0,0,0,-1,594,1471,0,0
-623,-447,0,0,0,0,0,0,0,0,0,-1,601,1471,0,0
-616,-447,0,0,0,0,0,0,0,0,0,-1,608,1471,0,0
-609,-447,0,0,0,0,0,0,0,0,0,-1,615,1471,0,0
-602,-447,0,0,0,0,0,0,0,0,0,-1,622,1471,0,0
-595,-447,0,0,0,0,0,0,0,0,0,-1,629,1471,0,0
-588,-447,0,0,0,0,0,0,0,0,0,-1,636,1471,0,0
-581,-447,-7.06482,-1.50476,0,0,0,0,0,0,0,-1,643,1471,-7.0648,1.50474
-574,-447,-6.88092,-0.00585938,0,0,0,0,0,0,0,-1,650,1471,-6.88095,0.00589852
-567,-447,-6.8205,-1.32178,0,0,0,0,0,0,0,-1,657,1471,-6.82047,1.32172
-560,-447,-8.85748,2.80774,0,0,0,0,0,0,0,-1,664,1471,-8.85748,-2.80775
-553,-447,-7.60486,3.26794,0,0,0,0,0,0,0,-1,671,1471,-7.60487,-3.26799
-546,-447,-3.94501,1.8656,0,0,0,0,0,0,0,-1,678,1471,-3.945,-1.86554
-539,-447,-5.35492,4.50024,0,0,0,0,0,0,0,-1,685,1471,-5.35492,-4.50018
-532,-447,-5.77515,7.04529,0,0,0,0,0,0,0,-1,692,1471,-5.77517,-7.04533
-525,-447,-5.56604,7.7301,0.0256169,0.026918,0.0271086,0.0533839,-0.00084891,0.797394,0.0358756,0.0423806,699,1471,-5.56604,-7.73016
-518,-447,-5.74811,7.91943,0.0198235,0.0199181,0.0202282,0.0400991,-0.000357479,0.786567,0.0268527,0.0363771,706,1471,-5.74809,-7.91943
-511,-447,-5.76227,8.34485,0.0149873,0.0143835,0.0147682,0.0294567,-8.5867e-05,0.775179,0.0196665,0.0181052,713,1471,-5.76226,-8.34479
-504,-447,-5.7489,8.80176,0.0111143,0.0100695,0.0105191,0.0211239,5.98272e-05,0.760586,0.0140627,0.0193068,720,1471,-5.74892,-8.80171
-497,-447,-5.77563,9.20825,0.00817568,0.00686864,0.00736285,0.014914,0.000130368,0.741135,0.00989947,0.0227953,727,1471,-5.77563,-9.20822
-490,-447,-5.76685,9.54346,0.00577495,0.00442602,0.0048826,0.0100294,0.000171526,0.716764,0.00662986,0.0230981,734,1471,-5.76684,-9.54351
-483,-447,-5.79053,9.91919,0.00382365,0.00265177,0.00261247,0.00591508,0.000560337,0.675081,0.00377051,0.0210808,741,1471,-5.79055,-9.91923
-476,-447,-5.79535,10.3436,0.00215699,0.000711487,0.000164775,0.00217554,0.000692942,0.112075,0.00128333,0.0149846,748,1471,-5.79535,-10.3436
-469,-447,-5.80304,10.7659,0.000662507,-0.000958938,-0.00203746,0.00204462,-0.00234105,-0.596047,0.00253399,0.013398,755,1471,-5.80302,-10.7659
-462,-447,-5.81421,11.166,-0.000613658,-0.00230572,-0.00428932,0.00291227,-0.00583165,-0.688027,0.00514124,0.0127872,762,1471,-5.8142,-11.166
-455,-447,-5.82935,11.5706,-0.00213095,-0.00408645,-0.00732602,0.00428227,-0.0104997,-0.719059,0.00878239,0.0163406,769,1471,-5.82932,-11.5706
-448,-447,-5.71356,12.0802,-0.00423758,-0.00673386,-0.0114915,0.0060734,-0.0170448,-0.731303,0.0138393,0.0323645,776,1471,-5.71355,-12.0802
-441,-447,-5.83661,12.506,-0.00725227,-0.0106385,-0.0174435,0.0085801,-0.0264708,-0.737019,0.0210971,0.0410987,783,1471,-5.83661,-12.506
-434,-447,-6.25592,12.4827,-0.0115672,-0.0161754,-0.0254887,0.0117213,-0.039464,-0.740322,0.0309649,0.0398414,790,1471,-6.2559,-12.4826
-427,-447,-6.58075,11.9706,-0.0171118,-0.0235482,-0.0357666,0.015581,-0.0562411,-0.74053,0.0436253,0.0432006,797,1471,-6.58075,-11.9706
-420,-447,-6.92676,11.7188,0,0,0,0,0,0,0,-1,804,1471,-6.92674,-11.7188
-413,-447,-4.27393,6.59705,0,0,0,0,0,0,0,-1,811,1471,-4.27392,-6.59707
-406,-447,-1.04279,6.18591,0,0,0,0,0,0,0,-1,818,1471,-1.04276,-6.18586
-399,-447,0.0134888,0.687622,0,0,0,0,0,0,0,-1,825,1471,0.0134841,-0.68767
-392,-447,-14.0646,3.76147,0,0,0,0,0,0,0,-1,832,1471,-14.0646,-3.7615
-385,-447,-15.1695,2.61865,0,0,0,0,0,0,0,-1,839,1471,-15.1695,-2.61871
-378,-447,-15.9424,1.49316,0,0,0,0,0,0,0,-1,846,1471,-15.9424,-1.49313
-371,-447,-17.3655,0.73291,0,0,0,0,0,0,0,-1,853,1471,-17.3655,-0.732946
-364,-447,0,0,0,0,0,0,0,0,0,-1,860,1471,0,0
-357,-447,0,0,0,0,0,0,0,0,0,-1,867,1471,0,0
-350,-447,0,0,0,0,0,0,0,0,0,-1,874,1471,0,0
-343,-447,0,0,0,0,0,0,0,0,0,-1,881,1471,0,0
-336,-447,0,0,0,0,0,0,0,0,0,-1,888,1471,0,0
-329,-447,0,0,0,0,0,0,0,0,0,-1,895,1471,0,0
-322,-447,0,0,0,0,0,0,0,0,0,-1,902,1471,0,0
-315,-447,0,0,0,0,0,0,0,0,0,-1,909,1471,0,0
-308,-447,0,0,0,0,0,0,0,0,0,-1,916,1471,0,0
-301,-447,0,0,0,0,0,0,0,0,0,-1,923,1471,0,0
-294,-447,0,0,0,0,0,0,0,0,0,-1,930,1471,0,0
-287,-447,0,0,0,0,0,0,0,0,0,-1,937,1471,0,0
-280,-447,0,0,0,0,0,0,0,0,0,-1,944,1471,0,0
-273,-447,0,0,0,0,0,0,0,0,0,-1,951,1471,0,0
-266,-447,0,0,0,0,0,0,0,0,0,-1,958,1471,0,0
-259,-447,0,0,0,0,0,0,0,0,0,-1,965,1471,0,0
-252,-447,0,0,0,0,0,0,0,0,0,-1,972,1471,0,0
-245,-447,0,0,0,0,0,0,0,0,0,-1,979,1471,0,0
-238,-447,0,0,0,0,0,0,0,0,0,-1,986,1471,0,0
-231,-447,0,0,0,0,0,0,0,0,0,-1,993,1471,0,0
-224,-447,0,0,0,0,0,0,0,0,0,-1,1000,1471,0,0
-217,-447,0,0,0,0,0,0,0,0,0,-1,1007,1471,0,0
-210,-447,0,0,0,0,0,0,0,0,0,-1,1014,1471,0,0
-203,-447,0,0,0,0,0,0,0,0,0,-1,1021,1471,0,0
-196,-447,0,0,0,0,0,0,0,0,0,-1,1028,1471,0,0
-189,-447,0,0,0,0,0,0,0,0,0,-1,1035,1471,0,0
-182,-447,0,0,0,0,0,0,0,0,0,-1,1042,1471,0,0
-175,-447,0,0,0,0,0,0,0,0,0,-1,1049,1471,0,0
-168,-447,0,0,0,0,0,0,0,0,0,-1,1056,1471,0,0
-161,-447,0,0,0,0,0,0,0,0,0,-1,1063,1471,0,0
-154,-447,0,0,0,0,0,0,0,0,0,-1,1070,1471,0,0
-147,-447,0,0,0,0,0,0,0,0,0,-1,1077,1471,0,0
-140,-447,0,0,0,0,0,0,0,0,0,-1,1084,1471,0,0
-133,-447,0,0,0,0,0,0,0,0,0,-1,1091,1471,0,0
-126,-447,0,0,0,0,0,0,0,0,0,-1,1098,1471,0,0
-119,-447,0,0,0,0,0,0,0,0,0,-1,1105,1471,0,0
-112,-447,0,0,0,0,0,0,0,0,0,-1,1112,1471,0,0
-105,-447,0,0,0,0,0,0,0,0,0,-1,1119,1471,0,0
-98,-447,0,0,0,0,0,0,0,0,0,-1,1126,1471,0,0
-91,-447,0,0,0,0,0,0,0,0,0,-1,1133,1471,0,0
-84,-447,0,0,0,0,0,0,0,0,0,-1,1140,1471,0,0
-77,-447,0,0,0,0,0,0,0,0,0,-1,1147,1471,0,0
-70,-447,0,0,0,0,0,0,0,0,0,-1,1154,1471,0,0
-63,-447,0,0,0,0,0,0,0,0,0,-1,1161,1471,0,0
-56,-447,0,0,0,0,0,0,0,0,0,-1,1168,1471,0,0
-49,-447,0,0,0,0,0,0,0,0,0,-1,1175,1471,0,0
-42,-447,0,0,0,0,0,0,0,0,0,-1,1182,1471,0,0
-35,-447,0,0,0,0,0,0,0,0,0,-1,1189,1471,0,0
-28,-447,0,0,0,0,0,0,0,0,0,-1,1196,1471,0,0
-21,-447,0,0,0,0,0,0,0,0,0,-1,1203,1471,0,0
-14,-447,0,0,0,0,0,0,0,0,0,-1,1210,1471,0,0
-7,-447,0,0,0,0,0,0,0,0,0,-1,1217,1471,0,0
0,-447,0,0,0,0,0,0,0,0,0,-1,1224,1471,0,0
7,-447,0,0,0,0,0,0,0,0,0,-1,1231,1471,0,0
14,-447,0,0,0,0,0,0,0,0,0,-1,1238,1471,0,0
21,-447,0,0,0,0,0,0,0,0,0,-1,1245,1471,0,0
28,-447,0,0,0,0,0,0,0,0,0,-1,1252,1471,0,0
35,-447,0,0,0,0,0,0,0,0,0,-1,1259,1471,0,0
42,-447,0,0,0,0,0,0,0,0,0,-1,1266,1471,0,0
49,-447,0,0,0,0,0,0,0,0,0,-1,1273,1471,0,0
56,-447,0,0,0,0,0,0,0,0,0,-1,1280,1471,0,0
63,-447,0,0,0,0,0,0,0,0,0,-1,1287,1471,0,0
70,-447,0,0,0,0,0,0,0,0,0,-1,1294,1471,0,0
77,-447,0,0,0,0,0,0,0,0,0,-1,1301,1471,0,0
84,-447,0,0,0,0,0,0,0,0,0,-1,1308,1471,0,0
91,-447,0,0,0,0,0,0,0,0,0,-1,1315,1471,0,0
98,-447,0,0,0,0,0,0,0,0,0,-1,1322,1471,0,0
105,-447,0,0,0,0,0,0,0,0,0,-1,1329,1471,0,0
112,-447,0,0,0,0,0,0,0,0,0,-1,1336,1471,0,0
119,-447,0,0,0,0,0,0,0,0,0,-1,1343,1471,0,0
126,-447,0,0,0,0,0,0,0,0,0,-1,1350,1471,0,0
133,-447,0,0,0,0,0,0,0,0,0,-1,1357,1471,0,0
140,-447,0,0,0,0,0,0,0,0,0,-1,1364,1471,0,0
147,-447,0,0,0,0,0,0,0,0,0,-1,1371,1471,0,0
154,-447,0,0,0,0,0,0,0,0,0,-1,1378,1471,0,0
161,-447,0,0,0,0,0,0,0,0,0,-1,1385,1471,0,0
168,-447,0,0,0,0,0,0,0,0,0,-1,1392,1471,0,0
175,-447,0,0,0,0,0,0,0,0,0,-1,1399,1471,0,0
182,-447,0,0,0,0,0,0,0,0,0,-1,1406,1471,0,0
189,-447,0,0,0,0,0,0,0,0,0,-1,1413,1471,0,0
196,-447,0,0,0,0,0,0,0,0,0,-1,1420,1471,0,0
203,-447,0,0,0,0,0,0,0,0,0,-1,1427,1471,0,0
210,-447,0,0,0,0,0,0,0,0,0,-1,1434,1471,0,0
217,-447,0,0,0,0,0,0,0,0,0,-1,1441,1471,0,0
224,-447,0,0,0,0,0,0,0,0,0,-1,1448,1471,0,0
231,-447,0,0,0,0,0,0,0,0,0,-1,1455,1471,0,0
238,-447,0,0,0,0,0,0,0,0,0,-1,1462,1471,0,0
245,-447,0,0,0,0,0,0,0,0,0,-1,1469,1471,0,0
252,-447,0,0,0,0,0,0,0,0,0,-1,1476,1471,0,0
259,-447,0,0,0,0,0,0,0,0,0,-1,1483,1471,0,0
266,-447,0,0,0,0,0,0,0,0,0,-1,1490,1471,0,0
273,-447,0,0,0,0,0,0,0,0,0,-1,1497,1471,0,0
280,-447,0,0,0,0,0,0,0,0,0,-1,1504,1471,0,0
287,-447,0,0,0,0,0,0,0,0,0,-1,1511,1471,0,0
294,-447,0,0,0,0,0,0,0,0,0,-1,1518,1471,0,0
301,-447,0,0,0,0,0,0,0,0,0,-1,1525,1471,0,0
308,-447,0,0,0,0,0,0,0,0,0,-1,1532,1471,0,0
315,-447,0,0,0,0,0,0,0,0,0,-1,1539,1471,0,0
322,-447,0,0,0,0,0,0,0,0,0,-1,1546,1471,0,0
329,-447,0,0,0,0,0,0,0,0,0,-1,1553,1471,0,0
336,-447,0,0,0,0,0,0,0,0,0,-1,1560,1471,0,0
343,-447,0,0,0,0,0,0,0,0,0,-1,1567,1471,0,0
350,-447,0,0,0,0,0,0,0,0,0,-1,1574,1471,0,0
357,-447,0,0,0,0,0,0,0,0,0,-1,1581,1471,0,0
364,-447,0,0,0,0,0,0,0,0,0,-1,1588,1471,0,0
371,-447,0,0,0,0,0,0,0,0,0,-1,1595,1471,0,0
378,-447,0,0,0,0,0,0,0,0,0,-1,1602,1471,0,0
385,-447,0,0,0,0,0,0,0,0,0,-1,1609,1471,0,0
392,-447,0,0,0,0,0,0,0,0,0,-1,1616,1471,0,0
399,-447,0,0,0,0,0,0,0,0,0,-1,1623,1471,0,0
406,-447,0,0,0,0,0,0,0,0,0,-1,1630,1471,0,0
413,-447,0,0,0,0,0,0,0,0,0,-1,1637,1471,0,0
420,-447,0,0,0,0,0,0,0,0,0,-1,1644,1471,0,0
427,-447,0,0,0,0,0,0,0,0,0,-1,1651,1471,0,0
434,-447,0,0,0,0,0,0,0,0,0,-1,1658,1471,0,0
441,-447,0,0,0,0,0,0,0,0,0,-1,1665,1471,0,0
448,-447,0,0,0,0,0,0,0,0,0,-1,1672,1471,0,0
455,-447,0,0,0,0,0,0,0,0,0,-1,1679,1471,0,0
462,-447,0,0,0,0,0,0,0,0,0,-1,1686,1471,0,0
469,-447,0,0,0,0,0,0,0,0,0,-1,1693,1471,0,0
476,-447,0,0,0,0,0,0,0,0,0,-1,1700,1471,0,0
483,-447,0,0,0,0,0,0,0,0,0,-1,1707,1471,0,0
490,-447,18.2214,-0.810303,0,0,0,0,0,0,0,-1,1714,1471,18.2215,0.810307
497,-447,17.0237,0.352417,0,0,0,0,0,0,0,-1,1721,1471,17.0237,-0.352442
504,-447,15.8998,1.53479,0,0,0,0,0,0,0,-1,1728,1471,15.8997,-1.53478
511,-447,14.7201,2.76111,0,0,0,0,0,0,0,-1,1735,1471,14.7201,-2.76107
518,-447,17.7618,13.2864,0,0,0,0,0,0,0,-1,1742,1471,17.7619,-13.2863
525,-447,17.1191,11.9014,0,0,0,0,0,0,0,-1,1749,1471,17.1191,-11.9013
532,-447,16.3959,10.0455,0,0,0,0,0,0,0,-1,1756,1471,16.3959,-10.0456
539,-447,14.1699,10.0204,0,0,0,0,0,0,0,-1,1763,1471,14.1699,-10.0204
546,-447,16.3715,11.8046,0,0,0,0,0,0,0,-1,1770,1471,16.3714,-11.8046
553,-447,17.5106,13.4012,0,0,0,0,0,0,0,-1,1777,1471,17.5107,-13.4012
560,-447,17.0187,13.168,0,0,0,0,0,0,0,-1,1784,1471,17.0187,-13.168
567,-447,18.0714,14.2307,0,0,0,0,0,0,0,-1,1791,1471,18.0714,-14.2307
574,-447,17.8376,13.8651,-0.00990456,0.00265792,0.00591565,0.00500506,-0.0122517,1.19308,0.0102518,0.0448991,1798,1471,17.8377,-13.8651
581,-447,17.5353,13.6812,-0.0063873,0.00229564,0.0034442,0.00349591,-0.00758757,1.23547,0.00654278,0.0275998,1805,1471,17.5353,-13.6811
588,-447,17.5912,13.1802,-0.00355513,0.00200965,0.00128491,0.00229201,-0.00383749,1.35448,0.00357617,0.0175519,1812,1471,17.5912,-13.1801
595,-447,17.5756,12.8033,-0.00167148,0.0015622,0.000250117,0.00158143,-0.00169071,1.49406,0.00188952,0.0133299,1819,1471,17.5755,-12.8033
602,-447,17.5597,12.4233,-0.000603983,0.00122141,-1.14393e-05,0.00122148,-0.000604055,-1.56453,0.00107388,0.0118012,1826,1471,17.5597,-12.4233
609,-447,17.5316,12.0376,-2.39318e-05,0.000785173,-5.75303e-05,0.000789243,-2.80019e-05,-1.50017,0.00053574,0.0128584,1833,1471,17.5316,-12.0376
616,-447,17.5409,11.6699,0.000219651,0.000307826,6.0396e-05,0.000338514,0.000188963,1.10068,0.000195882,0.0140644,1840,1471,17.5409,-11.6699
623,-447,17.5787,11.3367,0.000209009,-0.000196088,0.00029684,0.000365821,-0.000352899,0.486007,0.000414976,0.0156057,1847,1471,17.5788,-11.3367
630,-447,17.5709,10.9783,4.72527e-05,-0.000721185,0.000613089,0.000386569,-0.0010605,0.50549,0.000865141,0.00963773,1854,1471,17.571,-10.9783
637,-447,17.5731,10.6085,-0.000449285,-0.00117579,0.00110458,0.00035024,-0.00197531,0.626539,0.00144781,0.0102423,1861,1471,17.5731,-10.6085
644,-447,17.5686,10.2488,-0.00115397,-0.00150106,0.00160288,0.000284728,-0.00293976,0.731473,0.00206132,0.0110607,1868,1471,17.5687,-10.2488
651,-447,17.5792,9.8634,-0.00208801,-0.00169558,0.00214302,0.000260191,-0.00404378,0.83105,0.00278664,0.0362537,1875,1471,17.5792,-9.86339
658,-447,17.2245,9.70105,-0.00344812,-0.00172429,0.00282755,0.000369797,-0.0055422,0.933338,0.00382403,0.0471836,1882,1471,17.2245,-9.70106
665,-447,17.0042,9.22339,0,0,0,0,0,0,0,-1,1889,1471,17.0042,-9.22344
672,-447,18.418,9.70593,0,0,0,0,0,0,0,-1,1896,1471,18.4179,-9.70589
679,-447,14.844,7.4248,0,0,0,0,0,0,0,-1,1903,1471,14.844,-7.42477
686,-447,9.81079,4.30859,0,0,0,0,0,0,0,-1,1910,1471,9.8108,-4.30864
693,-447,10.48,2.08643,0,0,0,0,0,0,0,-1,1917,1471,10.48,-2.08642
700,-447,0,0,0,0,0,0,0,0,0,-1,1924,1471,0,0
707,-447,0,0,0,0,0,0,0,0,0,-1,1931,1471,0,0
714,-447,0,0,0,0,0,0,0,0,0,-1,1938,1471,0,0
721,-447,0,0,0,0,0,0,0,0,0,-1,1945,1471,0,0
728,-447,0,0,0,0,0,0,0,0,0,-1,1952,1471,0,0
735,-447,0,0,0,0,0,0,0,0,0,-1,1959,1471,0,0
742,-447,0,0,0,0,0,0,0,0,0,-1,1966,1471,0,0
749,-447,0,0,0,0,0,0,0,0,0,-1,1973,1471,0,0
756,-447,0,0,0,0,0,0,0,0,0,-1,1980,1471,0,0
763,-447,0,0,0,0,0,0,0,0,0,-1,1987,1471,0,0
770,-447,0,0,0,0,0,0,0,0,0,-1,1994,1471,0,0
777,-447,0,0,0,0,0,0,0,0,0,-1,2001,1471,0,0
784,-447,0,0,0,0,0,0,0,0,0,-1,2008,1471,0,0
791,-447,0,0,0,0,0,0,0,0,0,-1,2015,1471,0,0
798,-447,0,0,0,0,0,0,0,0,0,-1,2022,1471,0,0
805,-447,0,0,0,0,0,0,0,0,0,-1,2029,1471,0,0
812,-447,0,0,0,0,0,0,0,0,0,-1,2036,1471,0,0
-700,-454,0,0,0,0,0,0,0,0,0,-1,524,1478,0,0
-693,-454,0,0,0,0,0,0,0,0,0,-1,531,1478,0,0
-686,-454,0,0,0,0,0,0,0,0,0,-1,538,1478,0,0
-679,-454,0,0,0,0,0,0,0,0,0,-1,545,1478,0,0
-672,-454,0,0,0,0,0,0,0,0,0,-1,552,1478,0,0
-665,-454,0,0,0,0,0,0,0,0,0,-1,559,1478,0,0
-658,-454,0,0,0,0,0,0,0,0,0,-1,566,1478,0,0
-651,-454,0,0,0,0,0,0,0,0,0,-1,573,1478,0,0
-644,-454,0,0,0,0,0,0,0,0,0,-1,580,1478,0,0
-637,-454,0,0,0,0,0,0,0,0,0,-1,587,1478,0,0
-630,-454,0,0,0,0,0,0,0,0,0,-1,594,1478,0,0
-623,-454,0,0,0,0,0,0,0,0,0,-1,601,1478,0,0
-616,-454,0,0,0,0,0,0,0,0,0,-1,608,1478,0,0
-609,-454,0,0,0,0,0,0,0,0,0,-1,615,1478,0,0
-602,-454,0,0,0,0,0,0,0,0,0,-1,622,1478,0,0
-595,-454,0,0,0,0,0,0,0,0,0,-1,629,1478,0,0
-588,-454,0,0,0,0,0,0,0,0,0,-1,636,1478,0,0
-581,-454,0,0,0,0,0,0,0,0,0,-1,643,1478,0,0
-574,-454,-8.4881,-0.465942,0,0,0,0,0,0,0,-1,650,1478,-8.4881,0.465885
-567,-454,-8.10046,0.922974,0,0,0,0,0,0,0,-1,657,1478,-8.10047,-0.923034
-560,-454,-10.656,3.51172,0,0,0,0,0,0,0,-1,664,1478,-10.656,-3.51176
-553,-454,-9.01129,3.95251,0,0,0,0,0,0,0,-1,671,1478,-9.0113,-3.95256
-546,-454,-9.61896,6.05237,0,0,0,0,0,0,0,-1,678,1478,-9.61897,-6.05239
-539,-454,-7.72589,4.96533,0,0,0,0,0,0,0,-1,685,1478,-7.72592,-4.96532
-532,-454,-6.00018,6.08521,0,0,0,0,0,0,0,-1,692,1478,-6.00017,-6.08519
-525,-454,-5.59918,7.13611,0.0365415,0.0353218,0.0368472,0.0727839,-0.000920594,0.777124,0.0488324,0.0450326,699,1478,-5.59921,-7.13616
-518,-454,-5.25751,8.20105,0.0273632,0.0254515,0.0268104,0.0532348,-0.000420112,0.767579,0.0356307,0.0426079,706,1478,-5.25753,-8.20107
-511,-454,-5.41864,8.31958,0.0200653,0.0179322,0.0191335,0.038162,-0.000164457,0.757557,0.0254963,0.029052,713,1478,-5.41861,-8.31957
-504,-454,-5.36096,8.78076,0.0143837,0.0122371,0.013305,0.0266586,-3.78285e-05,0.74515,0.017785,0.0158596,720,1478,-5.36097,-8.78082
-497,-454,-5.3512,9.21973,0.0101642,0.00809288,0.00904792,0.0182356,2.15424e-05,0.728414,0.0121499,0.0181059,727,1478,-5.35122,-9.21975
-490,-454,-5.36505,9.59509,0.00697488,0.00511681,0.00590264,0.0120212,7.05374e-05,0.707342,0.00799069,0.0171053,734,1478,-5.36502,-9.59508
-483,-454,-5.40289,9.96765,0.00458976,0.00304476,0.00332788,0.00723363,0.000400901,0.671353,0.00469449,0.016037,741,1478,-5.40289,-9.96767
-476,-454,-5.42407,10.3463,0.00270222,0.00105477,0.000822984,0.0030429,0.000714095,0.392473,0.00183742,0.0144059,748,1478,-5.42404,-10.3463
-469,-454,-5.41528,10.7706,0.00095949,-0.000809721,-0.00155231,0.00186156,-0.00171179,-0.526416,0.00206368,0.0103909,755,1478,-5.41527,-10.7706
-462,-454,-5.42987,11.1842,-0.000281955,-0.00206129,-0.00357366,0.00251111,-0.00485436,-0.663402,0.0043236,0.0103261,762,1478,-5.42989,-11.1842
-455,-454,-5.44159,11.5884,-0.00136558,-0.00347162,-0.00593322,0.00360734,-0.00844454,-0.697573,0.00714253,0.012108,769,1478,-5.44159,-11.5884
-448,-454,-5.4317,11.984,-0.00269139,-0.00540794,-0.00901715,0.00506922,-0.0131685,-0.710644,0.0108702,0.0156132,776,1478,-5.43168,-11.9841
-441,-454,-5.23212,12.5321,-0.00453513,-0.00826539,-0.0132926,0.00702256,-0.0198231,-0.715697,0.0160759,0.0311363,783,1478,-5.23215,-12.5321
-434,-454,-5.27887,12.843,-0.00723802,-0.0124201,-0.0190299,0.00937643,-0.0290346,-0.717736,0.0231244,0.0421373,790,1478,-5.27887,-12.843
-427,-454,-5.41827,12.6663,-0.0106446,-0.0178493,-0.0261843,0.012184,-0.0406779,-0.717039,0.0319636,0.0466521,797,1478,-5.41829,-12.6663
-420,-454,-5.29901,12.7048,0,0,0,0,0,0,0,-1,804,1478,-5.299,-12.7048
-413,-454,-4.54706,11.8824,0,0,0,0,0,0,0,-1,811,1478,-4.54707,-11.8825
-406,-454,-2.38208,10.0308,0,0,0,0,0,0,0,-1,818,1478,-2.38209,-10.0308
-399,-454,-1.21033,6.95447,0,0,0,0,0,0,0,-1,825,1478,-1.21035,-6.95452
-392,-454,0.0967407,0.985474,0,0,0,0,0,0,0,-1,832,1478,0.0967364,-0.985529
-385,-454,2.38629,3.297,0,0,0,0,0,0,0,-1,839,1478,2.38629,-3.29702
-378,-454,-15.9756,2.83997,0,0,0,0,0,0,0,-1,846,1478,-15.9756,-2.83994
-371,-454,-17.2753,2.01453,0,0,0,0,0,0,0,-1,853,1478,-17.2753,-2.01455
-364,-454,1.08124,0.819458,0,0,0,0,0,0,0,-1,860,1478,1.08124,-0.819513
-357,-454,0,0,0,0,0,0,0,0,0,-1,867,1478,0,0
-350,-454,0,0,0,0,0,0,0,0,0,-1,874,1478,0,0
-343,-454,0,0,0,0,0,0,0,0,0,-1,881,1478,0,0
-336,-454,0,0,0,0,0,0,0,0,0,-1,888,1478,0,0
-329,-454,0,0,0,0,0,0,0,0,0,-1,895,1478,0,0
-322,-454,0,0,0,0,0,0,0,0,0,-1,902,1478,0,0
-315,-454,0,0,0,0,0,0,0,0,0,-1,909,1478,0,0
-308,-454,0,0,0,0,0,0,0,0,0,-1,916,1478,0,0
-301,-454,0,0,0,0,0,0,0,0,0,-1,923,1478,0,0
-294,-454,0,0,0,0,0,0,0,0,0,-1,930,1478,0,0
-287,-454,0,0,0,0,0,0,0,0,0,-1,937,1478,0,0
-280,-454,0,0,0,0,0,0,0,0,0,-1,944,1478,0,0
-273,-454,0,0,0,0,0,0,0,0,0,-1,951,1478,0,0
-266,-454,0,0,0,0,0,0,0,0,0,-1,958,1478,0,0
-259,-454,0,0,0,0,0,0,0,0,0,-1,965,1478,0,0
-252,-454,0,0,0,0,0,0,0,0,0,-1,972,1478,0,0
-245,-454,0,0,0,0,0,0,0,0,0,-1,979,1478,0,0
-238,-454,0,0,0,0,0,0,0,0,0,-1,986,1478,0,0
-231,-454,0,0,0,0,0,0,0,0,0,-1,993,1478,0,0
-224,-454,0,0,0,0,0,0,0,0,0,-1,1000,1478,0,0
-217,-454,0,0,0,0,0,0,0,0,0,-1,1007,1478,0,0
-210,-454,0,0,0,0,0,0,0,0,0,-1,1014,1478,0,0
-203,-454,0,0,0,0,0,0,0,0,0,-1,1021,1478,0,0
-196,-454,0,0,0,0,0,0,0,0,0,-1,1028,1478,0,0
-189,-454,0,0,0,0,0,0,0,0,0,-1,1035,1478,0,0
-182,-454,0,0,0,0,0,0,0,0,0,-1,1042,1478,0,0
-175,-454,0,0,0,0,0,0,0,0,0,-1,1049,1478,0,0
-168,-454,0,0,0,0,0,0,0,0,0,-1,1056,1478,0,0
-161,-454,0,0,0,0,0,0,0,0,0,-1,1063,1478,0,0
-154,-454,0,0,0,0,0,0,0,0,0,-1,1070,1478,0,0
-147,-454,0,0,0,0,0,0,0,0,0,-1,1077,1478,0,0
-140,-454,0,0,0,0,0,0,0,0,0,-1,1084,1478,0,0
-133,-454,0,0,0,0,0,0,0,0,0,-1,1091,1478,0,0
-126,-454,0,0,0,0,0,0,0,0,0,-1,1098,1478,0,0
-119,-454,0,0,0,0,0,0,0,0,0,-1,1105,1478,0,0
-112,-454,0,0,0,0,0,0,0,0,0,-1,1112,1478,0,0
-105,-454,0,0,0,0,0,0,0,0,0,-1,1119,1478,0,0
-98,-454,0,0,0,0,0,0,0,0,0,-1,1126,1478,0,0
-91,-454,0,0,0,0,0,0,0,0,0,-1,1133,1478,0,0
-84,-454,0,0,0,0,0,0,0,0,0,-1,1140,1478,0,0
-77,-454,0,0,0,0,0,0,0,0,0,-1,1147,1478,0,0
-70,-454,0,0,0,0,0,0,0,0,0,-1,1154,1478,0,0
-63,-454,0,0,0,0,0,0,0,0,0,-1,1161,1478,0,0
-56,-454,0,0,0,0,0,0,0,0,0,-1,1168,1478,0,0
-49,-454,0,0,0,0,0,0,0,0,0,-1,1175,1478,0,0
-42,-454,0,0,0,0,0,0,0,0,0,-1,1182,1478,0,0
-35,-454,0,0,0,0,0,0,0,0,0,-1,1189,1478,0,0
-28,-454,0,0,0,0,0,0,0,0,0,-1,1196,1478,0,0
-21,-454,0,0,0,0,0,0,0,0,0,-1,1203,1478,0,0
-14,-454,0,0,0,0,0,0,0,0,0,-1,1210,1478,0,0
-7,-454,0,0,0,0,0,0,0,0,0,-1,1217,1478,0,0
0,-454,0,0,0,0,0,0,0,0,0,-1,1224,1478,0,0
7,-454,0,0,0,0,0,0,0,0,0,-1,1231,1478,0,0
14,-454,0,0,0,0,0,0,0,0,0,-1,1238,1478,0,0
21,-454,0,0,0,0,0,0,0,0,0,-1,1245,1478,0,0
28,-454,0,0,0,0,0,0,0,0,0,-1,1252,1478,0,0
35,-454,0,0,0,0,0,0,0,0,0,-1,1259,1478,0,0
42,-454,0,0,0,0,0,0,0,0,0,-1,1266,1478,0,0
49,-454,0,0,0,0,0,0,0,0,0,-1,1273,1478,0,0
56,-454,0,0,0,0,0,0,0,0,0,-1,1280,1478,0,0
63,-454,0,0,0,0,0,0,0,0,0,-1,1287,1478,0,0
70,-454,0,0,0,0,0,0,0,0,0,-1,1294,1478,0,0
77,-454,0,0,0,0,0,0,0,0,0,-1,1301,1478,0,0
84,-454,0,0,0,0,0,0,0,0,0,-1,1308,1478,0,0
91,-454,0,0,0,0,0,0,0,0,0,-1,1315,1478,0,0
98,-454,0,0,0,0,0,0,0,0,0,-1,1322,1478,0,0
105,-454,0,0,0,0,0,0,0,0,0,-1,1329,1478,0,0
112,-454,0,0,0,0,0,0,0,0,0,-1,1336,1478,0,0
119,-454,0,0,0,0,0,0,0,0,0,-1,1343,1478,0,0
126,-454,0,0,0,0,0,0,0,0,0,-1,1350,1478,0,0
133,-454,0,0,0,0,0,0,0,0,0,-1,1357,1478,0,0
140,-454,0,0,0,0,0,0,0,0,0,-1,1364,1478,0,0
147,-454,0,0,0,0,0,0,0,0,0,-1,1371,1478,0,0
154,-454,0,0,0,0,0,0,0,0,0,-1,1378,1478,0,0
161,-454,0,0,0,0,0,0,0,0,0,-1,1385,1478,0,0
168,-454,0,0,0,0,0,0,0,0,0,-1,1392,1478,0,0
175,-454,0,0,0,0,0,0,0,0,0,-1,1399,1478,0,0
182,-454,0,0,0,0,0,0,0,0,0,-1,1406,1478,0,0
189,-454,0,0,0,0,0,0,0,0,0,-1,1413,1478,0,0
196,-454,0,0,0,0,0,0,0,0,0,-1,1420,1478,0,0
203,-454,0,0,0,0,0,0,0,0,0,-1,1427,1478,0,0
210,-454,0,0,0,0,0,0,0,0,0,-1,1434,1478,0,0
217,-454,0,0,0,0,0,0,0,0,0,-1,1441,1478,0,0
224,-454,0,0,0,0,0,0,0,0,0,-1,1448,1478,0,0
231,-454,0,0,0,0,0,0,0,0,0,-1,1455,1478,0,0
238,-454,0,0,0,0,0,0,0,0,0,-1,1462,1478,0,0
245,-454,0,0,0,0,0,0,0,0,0,-1,1469,1478,0,0
252,-454,0,0,0,0,0,0,0,0,0,-1,1476,1478,0,0
259,-454,0,0,0,0,0,0,0,0,0,-1,1483,1478,0,0
266,-454,0,0,0,0,0,0,0,0,0,-1,1490,1478,0,0
273,-454,0,0,0,0,0,0,0,0,0,-1,1497,1478,0,0
280,-454,0,0,0,0,0,0,0,0,0,-1,1504,1478,0,0
287,-454,0,0,0,0,0,0,0,0,0,-1,1511,1478,0,0
294,-454,0,0,0,0,0,0,0,0,0,-1,1518,1478,0,0
301,-454,0,0,0,0,0,0,0,0,0,-1,1525,1478,0,0
308,-454,0,0,0,0,0,0,0,0,0,-1,1532,1478,0,0
315,-454,0,0,0,0,0,0,0,0,0,-1,1539,1478,0,0
322,-454,0,0,0,0,0,0,0,0,0,-1,1546,1478,0,0
329,-454,0,0,0,0,0,0,0,0,0,-1,1553,1478,0,0
336,-454,0,0,0,0,0,0,0,0,0,-1,1560,1478,0,0
343,-454,0,0,0,0,0,0,0,0,0,-1,1567,1478,0,0
350,-454,0,0,0,0,0,0,0,0,0,-1,1574,1478,0,0
357,-454,0,0,0,0,0,0,0,0,0,-1,1581,1478,0,0
364,-454,0,0,0,0,0,0,0,0,0,-1,1588,1478,0,0
371,-454,0,0,0,0,0,0,0,0,0,-1,1595,1478,0,0
378,-454,0,0,0,0,0,0,0,0,0,-1,1602,1478,0,0
385,-454,0,0,0,0,0,0,0,0,0,-1,1609,1478,0,0
392,-454,0,0,0,0,0,0,0,0,0,-1,1616,1478,0,0
399,-454,0,0,0,0,0,0,0,0,0,-1,1623,1478,0,0
406,-454,0,0,0,0,0,0,0,0,0,-1,1630,1478,0,0
413,-454,0,0,0,0,0,0,0,0,0,-1,1637,1478,0,0
420,-454,0,0,0,0,0,0,0,0,0,-1,1644,1478,0,0
427,-454,0,0,0,0,0,0,0,0,0,-1,1651,1478,0,0
434,-454,0,0,0,0,0,0,0,0,0,-1,1658,1478,0,0
441,-454,0,0,0,0,0,0,0,0,0,-1,1665,1478,0,0
448,-454,0,0,0,0,0,0,0,0,0,-1,1672,1478,0,0
455,-454,0,0,0,0,0,0,0,0,0,-1,1679,1478,0,0
462,-454,0,0,0,0,0,0,0,0,0,-1,1686,1478,0,0
469,-454,0,0,0,0,0,0,0,0,0,-1,1693,1478,0,0
476,-454,0,0,0,0,0,0,0,0,0,-1,1700,1478,0,0
483,-454,14.2399,3.97498,0,0,0,0,0,0,0,-1,1707,1478,14.2399,-3.97502
490,-454,18.1821,-0.175781,0,0,0,0,0,0,0,-1,1714,1478,18.1821,0.175822
497,-454,16.8854,1.01208,0,0,0,0,0,0,0,-1,1721,1478,16.8854,-1.01209
504,-454,15.587,2.05994,0,0,0,0,0,0,0,-1,1728,1478,15.5871,-2.05998
511,-454,17.0273,14.5258,0,0,0,0,0,0,0,-1,1735,1478,17.0273,-14.5258
518,-454,16.4158,13.1039,0,0,0,0,0,0,0,-1,1742,1478,16.4157,-13.1038
525,-454,15.7842,11.6628,0,0,0,0,0,0,0,-1,1749,1478,15.7841,-11.6629
532,-454,15.1094,10.2476,0,0,0,0,0,0,0,-1,1756,1478,15.1094,-10.2475
539,-454,13.7905,10.9373,0,0,0,0,0,0,0,-1,1763,1478,13.7906,-10.9372
546,-454,16.2002,13.2458,0,0,0,0,0,0,0,-1,1770,1478,16.2002,-13.2459
553,-454,15.6747,12.1868,0,0,0,0,0,0,0,-1,1777,1478,15.6747,-12.1868
560,-454,16.3895,14.0527,0,0,0,0,0,0,0,-1,1784,1478,16.3895,-14.0528
567,-454,17.3519,14.3677,0,0,0,0,0,0,0,-1,1791,1478,17.352,-14.3677
574,-454,17.2494,13.905,-0.00858129,0.00187124,0.0054626,0.00420499,-0.010915,1.16704,0.00901154,0.0233147,1798,1478,17.2494,-13.905
581,-454,17.2191,13.519,-0.00546652,0.0016686,0.00321072,0.00290064,-0.00669856,1.2044,0.00568486,0.0156895,1805,1478,17.2191,-13.519
588,-454,17.2478,13.1372,-0.00286269,0.00148838,0.00116455,0.00178046,-0.00315478,1.32505,0.00288595,0.0134076,1812,1478,17.2478,-13.1372
595,-454,17.1924,12.7881,-0.00110433,0.00113397,0.000166791,0.00114633,-0.00111669,1.49682,0.00130659,0.0128303,1819,1478,17.1924,-12.7881
602,-454,17.1897,12.4216,-0.000164196,0.000839087,-6.56113e-05,0.00084336,-0.000168469,-1.50577,0.000625998,0.00928345,1826,1478,17.1897,-12.4216
609,-454,17.1902,12.0577,0.000316137,0.000463795,-9.44335e-05,0.000509834,0.000270097,-1.11717,0.000294527,0.0110412,1833,1478,17.1902,-12.0577
616,-454,17.1847,11.6941,0.000535892,6.46373e-06,2.82589e-05,0.000537396,4.95964e-06,0.0531749,0.000356622,0.0129279,1840,1478,17.1847,-11.6941
623,-454,17.2036,11.3383,0.000501677,-0.000523712,0.000290213,0.000578117,-0.000600152,0.257543,0.000680314,0.0115872,1847,1478,17.2036,-11.3383
630,-454,17.231,10.991,0.000254418,-0.00111683,0.000692051,0.000542968,-0.00140538,0.395032,0.00116103,0.0112611,1854,1478,17.2309,-10.9909
637,-454,17.196,10.6244,-0.000353593,-0.00164607,0.00126014,0.000416353,-0.00241601,0.548469,0.0017659,0.0105237,1861,1478,17.196,-10.6244
644,-454,17.2454,10.2429,-0.00121815,-0.00210907,0.00187086,0.000259549,-0.00358677,0.668522,0.00248222,0.021427,1868,1478,17.2454,-10.2429
651,-454,16.9871,10.0448,-0.00243405,-0.0024813,0.0025909,0.000133332,-0.00504868,0.780839,0.0034111,0.0468702,1875,1478,16.987,-10.0448
658,-454,16.8711,9.61011,-0.00426262,-0.00273214,0.00352718,0.000111862,-0.00710661,0.89222,0.00477547,0.0441138,1882,1478,16.8711,-9.61006
665,-454,17.0435,9.06018,0,0,0,0,0,0,0,-1,1889,1478,17.0435,-9.0602
672,-454,16.5476,6.41931,0,0,0,0,0,0,0,-1,1896,1478,16.5476,-6.41929
679,-454,14.2161,5.45007,0,0,0,0,0,0,0,-1,1903,1478,14.2161,-5.45013
686,-454,10.3767,2.12842,0,0,0,0,0,0,0,-1,1910,1478,10.3767,-2.12839
693,-454,11.1857,1.48486,0,0,0,0,0,0,0,-1,1917,1478,11.1857,-1.48487
700,-454,0,0,0,0,0,0,0,0,0,-1,1924,1478,0,0
707,-454,0,0,0,0,0,0,0,0,0,-1,1931,1478,0,0
714,-454,0,0,0,0,0,0,0,0,0,-1,1938,1478,0,0
721,-454,0,0,0,0,0,0,0,0,0,-1,1945,1478,0,0
728,-454,0,0,0,0,0,0,0,0,0,-1,1952,1478,0,0
735,-454,0,0,0,0,0,0,0,0,0,-1,1959,1478,0,0
742,-454,0,0,0,0,0,0,0,0,0,-1,1966,1478,0,0
749,-454,0,0,0,0,0,0,0,0,0,-1,1973,1478,0,0
756,-454,0,0,0,0,0,0,0,0,0,-1,1980,1478,0,0
763,-454,0,0,0,0,0,0,0,0,0,-1,1987,1478,0,0
770,-454,0,0,0,0,0,0,0,0,0,-1,1994,1478,0,0
777,-454,0,0,0,0,0,0,0,0,0,-1,2001,1478,0,0
784,-454,0,0,0,0,0,0,0,0,0,-1,2008,1478,0,0
791,-454,0,0,0,0,0,0,0,0,0,-1,2015,1478,0,0
798,-454,0,0,0,0,0,0,0,0,0,-1,2022,1478,0,0
805,-454,0,0,0,0,0,0,0,0,0,-1,2029,1478,0,0
812,-454,0,0,0,0,0,0,0,0,0,-1,2036,1478,0,0
-700,-461,0,0,0,0,0,0,0,0,0,-1,524,1485,0,0
-693,-461,0,0,0,0,0,0,0,0,0,-1,531,1485,0,0
-686,-461,0,0,0,0,0,0,0,0,0,-1,538,1485,0,0
-679,-461,0,0,0,0,0,0,0,0,0,-1,545,1485,0,0
-672,-461,0,0,0,0,0,0,0,0,0,-1,552,1485,0,0
-665,-461,0,0,0,0,0,0,0,0,0,-1,559,1485,0,0
-658,-461,0,0,0,0,0,0,0,0,0,-1,566,1485,0,0
-651,-461,0,0,0,0,0,0,0,0,0,-1,573,1485,0,0
-644,-461,0,0,0,0,0,0,0,0,0,-1,580,1485,0,0
-637,-461,0,0,0,0,0,0,0,0,0,-1,587,1485,0,0
-630,-461,0,0,0,0,0,0,0,0,0,-1,594,1485,0,0
-623,-461,0,0,0,0,0,0,0,0,0,-1,601,1485,0,0
-616,-461,0,0,0,0,0,0,0,0,0,-1,608,1485,0,0
-609,-461,0,0,0,0,0,0,0,0,0,-1,615,1485,0,0
-602,-461,0,0,0,0,0,0,0,0,0,-1,622,1485,0,0
-595,-461,0,0,0,0,0,0,0,0,0,-1,629,1485,0,0
-588,-461,0,0,0,0,0,0,0,0,0,-1,636,1485,0,0
-581,-461,0,0,0,0,0,0,0,0,0,-1,643,1485,0,0
-574,-461,0,0,0,0,0,0,0,0,0,-1,650,1485,0,0
-567,-461,-9.69031,0.513306,0,0,0,0,0,0,0,-1,657,1485,-9.69032,-0.513305
-560,-461,-7.28815,1.54004,0,0,0,0,0,0,0,-1,664,1485,-7.28817,-1.54005
-553,-461,-11.9607,5.27783,0,0,0,0,0,0,0,-1,671,1485,-11.9607,-5.27778
-546,-461,-11.4215,4.44666,0,0,0,0,0,0,0,-1,678,1485,-11.4215,-4.4467
-539,-461,-9.36493,5.23438,0,0,0,0,0,0,0,-1,685,1485,-9.3649,-5.23432
-532,-461,-6.29858,4.94043,0,0,0,0,0,0,0,-1,692,1485,-6.29861,-4.9404
-525,-461,-5.85205,6.10315,0.0489356,0.0438037,0.0474432,0.0938822,-0.00114295,0.758382,0.0629726,0.0465276,699,1485,-5.85208,-6.1032
-518,-461,-5.16388,7.91882,0.0355437,0.0306817,0.0335953,0.0667958,-0.000570416,0.74928,0.0447219,0.0451797,706,1485,-5.16386,-7.91886
-511,-461,-4.87244,8.44421,0.0253395,0.021017,0.023365,0.046643,-0.00028646,0.739279,0.0311912,0.0333053,713,1485,-4.87243,-8.44418
-504,-461,-4.9967,8.76404,0.0176382,0.0139136,0.0158135,0.0316987,-0.000146868,0.726785,0.0211816,0.017588,720,1485,-4.99671,-8.76409
-497,-461,-4.9458,9.2168,0.012083,0.00890271,0.0104483,0.0210615,-7.57976e-05,0.709882,0.0140663,0.0111281,727,1485,-4.94582,-9.21678
-490,-461,-4.98468,9.60913,0.00807531,0.0054509,0.00665507,0.0135463,-2.00979e-05,0.68806,0.00903758,0.0125517,734,1485,-4.98467,-9.60919
-483,-461,-5.00531,9.99731,0.00524718,0.00315551,0.00382274,0.00816456,0.000238125,0.651875,0.00536543,0.0123996,741,1485,-5.00528,-9.99727
-476,-461,-5.02417,10.3915,0.00315344,0.00120016,0.00132885,0.00382594,0.000527657,0.468497,0.0023942,0.0111544,748,1485,-5.02418,-10.3915
-469,-461,-5.02728,10.7933,0.00121336,-0.000740496,-0.0011177,0.0017209,-0.00124804,-0.426253,0.00172135,0.0120974,755,1485,-5.02731,-10.7934
-462,-461,-5.02014,11.2,2.41657e-05,-0.00184899,-0.00286538,0.00210215,-0.00392697,-0.627442,0.00353366,0.0161394,762,1485,-5.02011,-11.1999
-455,-461,-5.04376,11.5969,-0.000698858,-0.00289317,-0.00459693,0.00293003,-0.00652206,-0.668254,0.00558698,0.0216385,769,1485,-5.04378,-11.5969
-448,-461,-5.04614,12.0051,-0.00142175,-0.00420971,-0.0067549,0.00408151,-0.00971297,-0.683643,0.00818247,0.0181678,776,1485,-5.04614,-12.0051
-441,-461,-4.99951,12.4058,-0.00233275,-0.00612151,-0.00957589,0.00553434,-0.0139886,-0.687745,0.0116185,0.01778,783,1485,-4.99952,-12.4058
-434,-461,-4.77289,12.8107,-0.0037686,-0.00906416,-0.013395,0.00723776,-0.0200705,-0.687821,0.0163364,0.0264161,790,1485,-4.77291,-12.8107
-427,-461,-4.73999,13.0239,-0.00558208,-0.0128247,-0.0180917,0.00924715,-0.027654,-0.686621,0.0221708,0.0373851,797,1485,-4.73999,-13.0239
-420,-461,-4.80939,13.5562,0,0,0,0,0,0,0,-1,804,1485,-4.80937,-13.5561
-413,-461,-5.38361,12.7788,0,0,0,0,0,0,0,-1,811,1485,-5.38361,-12.7788
-406,-461,-4.95618,12.4502,0,0,0,0,0,0,0,-1,818,1485,-4.95617,-12.4502
-399,-461,-1.93439,9.82849,0,0,0,0,0,0,0,-1,825,1485,-1.9344,-9.82846
-392,-461,-0.357544,5.55225,0,0,0,0,0,0,0,-1,832,1485,-0.357536,-5.55228
-385,-461,1.71509,3.35254,0,0,0,0,0,0,0,-1,839,1485,1.71511,-3.35255
-378,-461,1.95996,3.01111,0,0,0,0,0,0,0,-1,846,1485,1.95993,-3.01111
-371,-461,0.702881,2.33459,0,0,0,0,0,0,0,-1,853,1485,0.702859,-2.33459
-364,-461,-1.93097,2.56458,0,0,0,0,0,0,0,-1,860,1485,-1.93095,-2.56456
-357,-461,-2.41516,3.49487,0,0,0,0,0,0,0,-1,867,1485,-2.41517,-3.49487
-350,-461,0,0,0,0,0,0,0,0,0,-1,874,1485,0,0
-343,-461,0,0,0,0,0,0,0,0,0,-1,881,1485,0,0
-336,-461,0,0,0,0,0,0,0,0,0,-1,888,1485,0,0
-329,-461,0,0,0,0,0,0,0,0,0,-1,895,1485,0,0
-322,-461,0,0,0,0,0,0,0,0,0,-1,902,1485,0,0
-315,-461,0,0,0,0,0,0,0,0,0,-1,909,1485,0,0
-308,-461,0,0,0,0,0,0,0,0,0,-1,916,1485,0,0
-301,-461,0,0,0,0,0,0,0,0,0,-1,923,1485,0,0
-294,-461,0,0,0,0,0,0,0,0,0,-1,930,1485,0,0
-287,-461,0,0,0,0,0,0,0,0,0,-1,937,1485,0,0
-280,-461,0,0,0,0,0,0,0,0,0,-1,944,1485,0,0
-273,-461,0,0,0,0,0,0,0,0,0,-1,951,1485,0,0
-266,-461,0,0,0,0,0,0,0,0,0,-1,958,1485,0,0
-259,-461,0,0,0,0,0,0,0,0,0,-1,965,1485,0,0
-252,-461,0,0,0,0,0,0,0,0,0,-1,972,1485,0,0
-245,-461,0,0,0,0,0,0,0,0,0,-1,979,1485,0,0
-238,-461,0,0,0,0,0,0,0,0,0,-1,986,1485,0,0
-231,-461,0,0,0,0,0,0,0,0,0,-1,993,1485,0,0
-224,-461,0,0,0,0,0,0,0,0,0,-1,1000,1485,0,0
-217,-461,0,0,0,0,0,0,0,0,0,-1,1007,1485,0,0
-210,-461,0,0,0,0,0,0,0,0,0,-1,1014,1485,0,0
-203,-461,0,0,0,0,0,0,0,0,0,-1,1021,1485,0,0
-196,-461,0,0,0,0,0,0,0,0,0,-1,1028,1485,0,0
-189,-461,0,0,0,0,0,0,0,0,0,-1,1035,1485,0,0
-182,-461,0,0,0,0,0,0,0,0,0,-1,1042,1485,0,0
-175,-461,0,0,0,0,0,0,0,0,0,-1,1049,1485,0,0
-168,-461,0,0,0,0,0,0,0,0,0,-1,1056,1485,0,0
-161,-461,0,0,0,0,0,0,0,0,0,-1,1063,1485,0,0
-154,-461,0,0,0,0,0,0,0,0,0,-1,1070,1485,0,0
-147,-461,0,0,0,0,0,0,0,0,0,-1,1077,1485,0,0
-140,-461,0,0,0,0,0,0,0,0,0,-1,1084,1485,0,0
-133,-461,0,0,0,0,0,0,0,0,0,-1,1091,1485,0,0
-126,-461,0,0,0,0,0,0,0,0,0,-1,1098,1485,0,0
-119,-461,0,0,0,0,0,0,0,0,0,-1,1105,1485,0,0
-112,-461,0,0,0,0,0,0,0,0,0,-1,1112,1485,0,0
-105,-461,0,0,0,0,0,0,0,0,0,-1,1119,1485,0,0
-98,-461,0,0,0,0,0,0,0,0,0,-1,1126,1485,0,0
-91,-461,0,0,0,0,0,0,0,0,0,-1,1133,1485,0,0
-84,-461,0,0,0,0,0,0,0,0,0,-1,1140,1485,0,0
-77,-461,0,0,0,0,0,0,0,0,0,-1,1147,1485,0,0
-70,-461,0,0,0,0,0,0,0,0,0,-1,1154,1485,0,0
-63,-461,0,0,0,0,0,0,0,0,0,-1,1161,1485,0,0
-56,-461,0,0,0,0,0,0,0,0,0,-1,1168,1485,0,0
-49,-461,0,0,0,0,0,0,0,0,0,-1,1175,1485,0,0
-42,-461,0,0,0,0,0,0,0,0,0,-1,1182,1485,0,0
-35,-461,0,0,0,0,0,0,0,0,0,-1,1189,1485,0,0
-28,-461,0,0,0,0,0,0,0,0,0,-1,1196,1485,0,0
-21,-461,0,0,0,0,0,0,0,0,0,-1,1203,1485,0,0
-14,-461,0,0,0,0,0,0,0,0,0,-1,1210,1485,0,0
-7,-461,0,0,0,0,0,0,0,0,0,-1,1217,1485,0,0
0,-461,0,0,0,0,0,0,0,0,0,-1,1224,1485,0,0
7,-461,0,0,0,0,0,0,0,0,0,-1,1231,1485,0,0
14,-461,0,0,0,0,0,0,0,0,0,-1,1238,1485,0,0
21,-461,0,0,0,0,0,0,0,0,0,-1,1245,1485,0,0
28,-461,0,0,0,0,0,0,0,0,0,-1,1252,1485,0,0
35,-461,0,0,0,0,0,0,0,0,0,-1,1259,1485,0,0
42,-461,0,0,0,0,0,0,0,0,0,-1,1266,1485,0,0
49,-461,0,0,0,0,0,0,0,0,0,-1,1273,1485,0,0
56,-461,0,0,0,0,0,0,0,0,0,-1,1280,1485,0,0
63,-461,0,0,0,0,0,0,0,0,0,-1,1287,1485,0,0
70,-461,0,0,0,0,0,0,0,0,0,-1,1294,1485,0,0
77,-461,0,0,0,0,0,0,0,0,0,-1,1301,1485,0,0
84,-461,0,0,0,0,0,0,0,0,0,-1,1308,1485,0,0
91,-461,0,0,0,0,0,0,0,0,0,-1,1315,1485,0,0
98,-461,0,0,0,0,0,0,0,0,0,-1,1322,1485,0,0
105,-461,0,0,0,0,0,0,0,0,0,-1,1329,1485,0,0
112,-461,0,0,0,0,0,0,0,0,0,-1,1336,1485,0,0
119,-461,0,0,0,0,0,0,0,0,0,-1,1343,1485,0,0
126,-461,0,0,0,0,0,0,0,0,0,-1,1350,1485,0,0
133,-461,0,0,0,0,0,0,0,0,0,-1,1357,1485,0,0
140,-461,0,0,0,0,0,0,0,0,0,-1,1364,1485,0,0
147,-461,0,0,0,0,0,0,0,0,0,-1,1371,1485,0,0
154,-461,0,0,0,0,0,0,0,0,0,-1,1378,1485,0,0
161,-461,0,0,0,0,0,0,0,0,0,-1,1385,1485,0,0
168,-461,0,0,0,0,0,0,0,0,0,-1,1392,1485,0,0
175,-461,0,0,0,0,0,0,0,0,0,-1,1399,1485,0,0
182,-461,0,0,0,0,0,0,0,0,0,-1,1406,1485,0,0
189,-461,0,0,0,0,0,0,0,0,0,-1,1413,1485,0,0
196,-461,0,0,0,0,0,0,0,0,0,-1,1420,1485,0,0
203,-461,0,0,0,0,0,0,0,0,0,-1,1427,1485,0,0
210,-461,0,0,0,0,0,0,0,0,0,-1,1434,1485,0,0
217,-461,0,0,0,0,0,0,0,0,0,-1,1441,1485,0,0
224,-461,0,0,0,0,0,0,0,0,0,-1,1448,1485,0,0
231,-461,0,0,0,0,0,0,0,0,0,-1,1455,1485,0,0
238,-461,0,0,0,0,0,0,0,0,0,-1,1462,1485,0,0
245,-461,0,0,0,0,0,0,0,0,0,-1,1469,1485,0,0
252,-461,0,0,0,0,0,0,0,0,0,-1,1476,1485,0,0
259,-461,0,0,0,0,0,0,0,0,0,-1,1483,1485,0,0
266,-461,0,0,0,0,0,0,0,0,0,-1,1490,1485,0,0
273,-461,0,0,0,0,0,0,0,0,0,-1,1497,1485,0,0
280,-461,0,0,0,0,0,0,0,0,0,-1,1504,1485,0,0
287,-461,0,0,0,0,0,0,0,0,0,-1,1511,1485,0,0
294,-461,0,0,0,0,0,0,0,0,0,-1,1518,1485,0,0
301,-461,0,0,0,0,0,0,0,0,0,-1,1525,1485,0,0
308,-461,0,0,0,0,0,0,0,0,0,-1,1532,1485,0,0
315,-461,0,0,0,0,0,0,0,0,0,-1,1539,1485,0,0
322,-461,0,0,0,0,0,0,0,0,0,-1,1546,1485,0,0
329,-461,0,0,0,0,0,0,0,0,0,-1,1553,1485,0,0
336,-461,0,0,0,0,0,0,0,0,0,-1,1560,1485,0,0
343,-461,0,0,0,0,0,0,0,0,0,-1,1567,1485,0,0
350,-461,0,0,0,0,0,0,0,0,0,-1,1574,1485,0,0
357,-461,0,0,0,0,0,0,0,0,0,-1,1581,1485,0,0
364,-461,0,0,0,0,0,0,0,0,0,-1,1588,1485,0,0
371,-461,0,0,0,0,0,0,0,0,0,-1,1595,1485,0,0
378,-461,0,0,0,0,0,0,0,0,0,-1,1602,1485,0,0
385,-461,0,0,0,0,0,0,0,0,0,-1,1609,1485,0,0
392,-461,0,0,0,0,0,0,0,0,0,-1,1616,1485,0,0
399,-461,0,0,0,0,0,0,0,0,0,-1,1623,1485,0,0
406,-461,0,0,0,0,0,0,0,0,0,-1,1630,1485,0,0
413,-461,0,0,0,0,0,0,0,0,0,-1,1637,1485,0,0
420,-461,0,0,0,0,0,0,0,0,0,-1,1644,1485,0,0
427,-461,0,0,0,0,0,0,0,0,0,-1,1651,1485,0,0
434,-461,0,0,0,0,0,0,0,0,0,-1,1658,1485,0,0
441,-461,0,0,0,0,0,0,0,0,0,-1,1665,1485,0,0
448,-461,0,0,0,0,0,0,0,0,0,-1,1672,1485,0,0
455,-461,0,0,0,0,0,0,0,0,0,-1,1679,1485,0,0
462,-461,0,0,0,0,0,0,0,0,0,-1,1686,1485,0,0
469,-461,0,0,0,0,0,0,0,0,0,-1,1693,1485,0,0
476,-461,14.1906,0.690552,0,0,0,0,0,0,0,-1,1700,1485,14.1906,-0.690525
483,-461,10.6361,3.09106,0,0,0,0,0,0,0,-1,1707,1485,10.6361,-3.091
490,-461,17.9972,0.665894,0,0,0,0,0,0,0,-1,1714,1485,17.9972,-0.665876
497,-461,16.6829,1.87732,0,0,0,0,0,0,0,-1,1721,1485,16.6828,-1.87736
504,-461,15.3884,3.09216,0,0,0,0,0,0,0,-1,1728,1485,15.3885,-3.09212
511,-461,15.4292,14.3512,0,0,0,0,0,0,0,-1,1735,1485,15.4292,-14.3512
518,-461,14.8081,10.0085,0,0,0,0,0,0,0,-1,1742,1485,14.8081,-10.0086
525,-461,14.0022,10.8033,0,0,0,0,0,0,0,-1,1749,1485,14.0022,-10.8033
532,-461,17.1704,14.077,0,0,0,0,0,0,0,-1,1756,1485,17.1704,-14.077
539,-461,16.8231,13.2952,0,0,0,0,0,0,0,-1,1763,1485,16.8231,-13.2952
546,-461,16.2106,14.1372,0,0,0,0,0,0,0,-1,1770,1485,16.2106,-14.1372
553,-461,16.8743,14.8998,0,0,0,0,0,0,0,-1,1777,1485,16.8743,-14.8998
560,-461,16.8506,14.6121,0,0,0,0,0,0,0,-1,1784,1485,16.8505,-14.612
567,-461,16.8838,14.1719,-0.011228,0.00154381,0.00782303,0.00525639,-0.0149406,1.1277,0.0120993,0.0230306,1791,1485,16.8838,-14.1719
574,-461,16.8879,13.8596,-0.00735358,0.00126635,0.0049217,0.00349848,-0.00958571,1.14501,0.00782192,0.0190424,1798,1485,16.8879,-13.8596
581,-461,16.8885,13.4921,-0.00459611,0.00111629,0.00290354,0.00233298,-0.0058128,1.17399,0.0048439,0.0148266,1805,1485,16.8885,-13.4921
588,-461,16.8784,13.1527,-0.00219311,0.000971759,0.00100094,0.00126175,-0.0024831,1.2888,0.00220009,0.011112,1812,1485,16.8785,-13.1527
595,-461,16.8424,12.8109,-0.000541487,0.000671126,6.74746e-05,0.000674869,-0.00054523,1.51538,0.000705749,0.00872996,1819,1485,16.8425,-12.8109
602,-461,16.8463,12.4447,0.00030847,0.00039454,-0.000134948,0.000493149,0.000209862,-0.939752,0.00028577,0.00910181,1826,1485,16.8463,-12.4447
609,-461,16.839,12.0646,0.000716399,5.88951e-05,-0.000149778,0.000748911,2.63837e-05,-0.213748,0.000490716,0.0115764,1833,1485,16.839,-12.0646
616,-461,16.833,11.6902,0.000929897,-0.000385644,-2.34673e-05,0.000930316,-0.000386063,-0.017831,0.000781364,0.0130633,1840,1485,16.833,-11.6901
623,-461,16.855,11.3553,0.00090384,-0.000938679,0.00025568,0.000938661,-0.000973501,0.13536,0.00110405,0.0132248,1847,1485,16.8549,-11.3554
630,-461,16.8676,11.0201,0.000611795,-0.00159058,0.000737245,0.000835803,-0.00181459,0.29498,0.0015646,0.0130438,1854,1485,16.8675,-11.0201
637,-461,16.8417,10.642,-3.29926e-05,-0.0021791,0.00136107,0.000627142,-0.00283924,0.451586,0.00213283,0.0134385,1861,1485,16.8416,-10.6419
644,-461,16.9083,10.3666,-0.000986888,-0.00277526,0.0020696,0.000373434,-0.00413559,0.581481,0.00288959,0.0295095,1868,1485,16.9083,-10.3666
651,-461,16.316,10.0909,0,0,0,0,0,0,0,-1,1875,1485,16.3161,-10.091
658,-461,16.486,9.5437,0,0,0,0,0,0,0,-1,1882,1485,16.486,-9.54364
665,-461,16.6558,8.99634,0,0,0,0,0,0,0,-1,1889,1485,16.6558,-8.9963
672,-461,14.4877,6.89429,0,0,0,0,0,0,0,-1,1896,1485,14.4876,-6.89431
679,-461,10.0535,2.16321,0,0,0,0,0,0,0,-1,1903,1485,10.0535,-2.16317
686,-461,10.8195,1.84192,0,0,0,0,0,0,0,-1,1910,1485,10.8194,-1.84195
693,-461,0,0,0,0,0,0,0,0,0,-1,1917,1485,0,0
700,-461,0,0,0,0,0,0,0,0,0,-1,1924,1485,0,0
707,-461,0,0,0,0,0,0,0,0,0,-1,1931,1485,0,0
714,-461,0,0,0,0,0,0,0,0,0,-1,1938,1485,0,0
721,-461,0,0,0,0,0,0,0,0,0,-1,1945,1485,0,0
728,-461,0,0,0,0,0,0,0,0,0,-1,1952,1485,0,0
735,-461,0,0,0,0,0,0,0,0,0,-1,1959,1485,0,0
742,-461,0,0,0,0,0,0,0,0,0,-1,1966,1485,0,0
749,-461,0,0,0,0,0,0,0,0,0,-1,1973,1485,0,0
756,-461,0,0,0,0,0,0,0,0,0,-1,1980,1485,0,0
763,-461,0,0,0,0,0,0,0,0,0,-1,1987,1485,0,0
770,-461,0,0,0,0,0,0,0,0,0,-1,1994,1485,0,0
777,-461,0,0,0,0,0,0,0,0,0,-1,2001,1485,0,0
784,-461,0,0,0,0,0,0,0,0,0,-1,2008,1485,0,0
791,-461,0,0,0,0,0,0,0,0,0,-1,2015,1485,0,0
798,-461,0,0,0,0,0,0,0,0,0,-1,2022,1485,0,0
805,-461,0,0,0,0,0,0,0,0,0,-1,2029,1485,0,0
812,-461,0,0,0,0,0,0,0,0,0,-1,2036,1485,0,0
-700,-468,0,0,0,0,0,0,0,0,0,-1,524,1492,0,0
-693,-468,0,0,0,0,0,0,0,0,0,-1,531,1492,0,0
-686,-468,0,0,0,0,0,0,0,0,0,-1,538,1492,0,0
-679,-468,0,0,0,0,0,0,0,0,0,-1,545,1492,0,0
-672,-468,0,0,0,0,0,0,0,0,0,-1,552,1492,0,0
-665,-468,0,0,0,0,0,0,0,0,0,-1,559,1492,0,0
-658,-468,0,0,0,0,0,0,0,0,0,-1,566,1492,0,0
-651,-468,0,0,0,0,0,0,0,0,0,-1,573,1492,0,0
-644,-468,0,0,0,0,0,0,0,0,0,-1,580,1492,0,0
-637,-468,0,0,0,0,0,0,0,0,0,-1,587,1492,0,0
-630,-468,0,0,0,0,0,0,0,0,0,-1,594,1492,0,0
-623,-468,0,0,0,0,0,0,0,0,0,-1,601,1492,0,0
-616,-468,0,0,0,0,0,0,0,0,0,-1,608,1492,0,0
-609,-468,0,0,0,0,0,0,0,0,0,-1,615,1492,0,0
-602,-468,0,0,0,0,0,0,0,0,0,-1,622,1492,0,0
-595,-468,0,0,0,0,0,0,0,0,0,-1,629,1492,0,0
-588,-468,0,0,0,0,0,0,0,0,0,-1,636,1492,0,0
-581,-468,0,0,0,0,0,0,0,0,0,-1,643,1492,0,0
-574,-468,0,0,0,0,0,0,0,0,0,-1,650,1492,0,0
-567,-468,-11.2603,1.8042,0,0,0,0,0,0,0,-1,657,1492,-11.2603,-1.80424
-560,-468,-8.77441,2.23694,0,0,0,0,0,0,0,-1,664,1492,-8.77443,-2.23692
-553,-468,-5.94061,9.26318,0,0,0,0,0,0,0,-1,671,1492,-5.94062,-9.26322
-546,-468,-10.47,5.43237,0,0,0,0,0,0,0,-1,678,1492,-10.47,-5.4324
-539,-468,-10.2468,5.45203,0,0,0,0,0,0,0,-1,685,1492,-10.2468,-5.45197
-532,-468,-6.81342,4.07446,0,0,0,0,0,0,0,-1,692,1492,-6.81344,-4.0745
-525,-468,-6.34784,5.35938,0.062486,0.0522557,0.0584976,0.116092,-0.00134992,0.741788,0.0778483,0.0480136,699,1492,-6.34787,-5.35934
-518,-468,-5.20319,7.05359,0.0442992,0.0357281,0.040512,0.0807517,-0.00072436,0.732702,0.0540776,0.0465572,706,1492,-5.2032,-7.05356
-511,-468,-4.38593,8.14709,0.0307399,0.0237316,0.0274392,0.0548979,-0.000426317,0.721889,0.0367415,0.0472534,713,1492,-4.38593,-8.14706
-504,-468,-4.52618,8.79407,0.0208147,0.0151565,0.0180567,0.0362625,-0.000291388,0.707691,0.0242727,0.0257114,720,1492,-4.52617,-8.79408
-497,-468,-4.58392,9.20544,0.013842,0.00927227,0.0115667,0.0233474,-0.00023305,0.687884,0.0156432,0.0123436,727,1492,-4.58392,-9.20546
-490,-468,-4.58917,9.6355,0.00899817,0.00537098,0.0071609,0.0145716,-0.000202414,0.661374,0.00978255,0.00841065,734,1492,-4.58915,-9.63555
-483,-468,-4.61456,10.0262,0.00571227,0.00286649,0.00409545,0.00862497,-4.62034e-05,0.618205,0.00576544,0.00894761,741,1492,-4.61456,-10.0262
-476,-468,-4.625,10.4165,0.0034132,0.000983562,0.00164583,0.004244,0.000152769,0.46747,0.00277981,0.00938566,748,1492,-4.625,-10.4165
-469,-468,-4.62573,10.8074,0.00132085,-0.000940618,-0.000804553,0.00157788,-0.00119764,-0.309211,0.00160745,0.0124864,755,1492,-4.62576,-10.8073
-462,-468,-4.58862,11.2231,0.000199066,-0.00186552,-0.00227751,0.00166731,-0.00333377,-0.57262,0.00294032,0.0207807,762,1492,-4.58863,-11.2231
-455,-468,-4.62372,11.5834,-0.000232196,-0.00254567,-0.00347418,0.00227276,-0.00505062,-0.624694,0.00432836,0.0220188,769,1492,-4.6237,-11.5834
-448,-468,-4.64429,11.96,-0.000520389,-0.00331624,-0.00490322,0.00318028,-0.00701692,-0.64653,0.00602466,0.0136374,776,1492,-4.64427,-11.96
-441,-468,-4.63879,12.3716,-0.00077809,-0.00442531,-0.00661462,0.0042597,-0.0094631,-0.650893,0.00811049,0.0127014,783,1492,-4.63879,-12.3716
-434,-468,-4.60651,12.804,-0.00126474,-0.00615621,-0.00887141,0.00549189,-0.0129128,-0.650896,0.0109101,0.0154626,790,1492,-4.60653,-12.8039
-427,-468,-4.54169,13.1995,-0.00195502,-0.00846438,-0.0117395,0.00697265,-0.0173921,-0.650174,0.0144894,0.02617,797,1492,-4.5417,-13.1995
-420,-468,-4.47308,13.5177,-0.00263415,-0.0109892,-0.0148981,0.00866104,-0.0222844,-0.648705,0.0184345,0.0420642,804,1492,-4.4731,-13.5177
-413,-468,-4.2569,13.8813,0,0,0,0,0,0,0,-1,811,1492,-4.25688,-13.8814
-406,-468,-2.2356,9.396,0,0,0,0,0,0,0,-1,818,1492,-2.2356,-9.396
-399,-468,-0.940369,8.1936,0,0,0,0,0,0,0,-1,825,1492,-0.940365,-8.19357
-392,-468,-0.35144,8.14673,0,0,0,0,0,0,0,-1,832,1492,-0.351449,-8.14674
-385,-468,0.465759,5.35864,0,0,0,0,0,0,0,-1,839,1492,0.465732,-5.35864
-378,-468,1.99835,3.25391,0,0,0,0,0,0,0,-1,846,1492,1.99837,-3.2539
-371,-468,-0.31842,3.1532,0,0,0,0,0,0,0,-1,853,1492,-0.318441,-3.15324
-364,-468,-0.966736,2.14563,0,0,0,0,0,0,0,-1,860,1492,-0.966735,-2.14557
-357,-468,-3.06787,3.22742,0,0,0,0,0,0,0,-1,867,1492,-3.06784,-3.2274
-350,-468,-3.18658,4.12659,0,0,0,0,0,0,0,-1,874,1492,-3.18659,-4.12658
-343,-468,0,0,0,0,0,0,0,0,0,-1,881,1492,0,0
-336,-468,0,0,0,0,0,0,0,0,0,-1,888,1492,0,0
-329,-468,0,0,0,0,0,0,0,0,0,-1,895,1492,0,0
-322,-468,0,0,0,0,0,0,0,0,0,-1,902,1492,0,0
-315,-468,0,0,0,0,0,0,0,0,0,-1,909,1492,0,0
-308,-468,0,0,0,0,0,0,0,0,0,-1,916,1492,0,0
-301,-468,0,0,0,0,0,0,0,0,0,-1,923,1492,0,0
-294,-468,0,0,0,0,0,0,0,0,0,-1,930,1492,0,0
-287,-468,0,0,0,0,0,0,0,0,0,-1,937,1492,0,0
-280,-468,0,0,0,0,0,0,0,0,0,-1,944,1492,0,0
-273,-468,0,0,0,0,0,0,0,0,0,-1,951,1492,0,0
-266,-468,0,0,0,0,0,0,0,0,0,-1,958,1492,0,0
-259,-468,0,0,0,0,0,0,0,0,0,-1,965,1492,0,0
-252,-468,0,0,0,0,0,0,0,0,0,-1,972,1492,0,0
-245,-468,0,0,0,0,0,0,0,0,0,-1,979,1492,0,0
-238,-468,0,0,0,0,0,0,0,0,0,-1,986,1492,0,0
-231,-468,0,0,0,0,0,0,0,0,0,-1,993,1492,0,0
-224,-468,0,0,0,0,0,0,0,0,0,-1,1000,1492,0,0
-217,-468,0,0,0,0,0,0,0,0,0,-1,1007,1492,0,0
-210,-468,0,0,0,0,0,0,0,0,0,-1,1014,1492,0,0
-203,-468,0,0,0,0,0,0,0,0,0,-1,1021,1492,0,0
-196,-468,0,0,0,0,0,0,0,0,0,-1,1028,1492,0,0
-189,-468,0,0,0,0,0,0,0,0,0,-1,1035,1492,0,0
-182,-468,0,0,0,0,0,0,0,0,0,-1,1042,1492,0,0
-175,-468,0,0,0,0,0,0,0,0,0,-1,1049,1492,0,0
-168,-468,0,0,0,0,0,0,0,0,0,-1,1056,1492,0,0
-161,-468,0,0,0,0,0,0,0,0,0,-1,1063,1492,0,0
-154,-468,0,0,0,0,0,0,0,0,0,-1,1070,1492,0,0
-147,-468,0,0,0,0,0,0,0,0,0,-1,1077,1492,0,0
-140,-468,0,0,0,0,0,0,0,0,0,-1,1084,1492,0,0
-133,-468,0,0,0,0,0,0,0,0,0,-1,1091,1492,0,0
-126,-468,0,0,0,0,0,0,0,0,0,-1,1098,1492,0,0
-119,-468,0,0,0,0,0,0,0,0,0,-1,1105,1492,0,0
-112,-468,0,0,0,0,0,0,0,0,0,-1,1112,1492,0,0
-105,-468,0,0,0,0,0,0,0,0,0,-1,1119,1492,0,0
-98,-468,0,0,0,0,0,0,0,0,0,-1,1126,1492,0,0
-91,-468,0,0,0,0,0,0,0,0,0,-1,1133,1492,0,0
-84,-468,0,0,0,0,0,0,0,0,0,-1,1140,1492,0,0
-77,-468,0,0,0,0,0,0,0,0,0,-1,1147,1492,0,0
-70,-468,0,0,0,0,0,0,0,0,0,-1,1154,1492,0,0
-63,-468,0,0,0,0,0,0,0,0,0,-1,1161,1492,0,0
-56,-468,0,0,0,0,0,0,0,0,0,-1,1168,1492,0,0
-49,-468,0,0,0,0,0,0,0,0,0,-1,1175,1492,0,0
-42,-468,0,0,0,0,0,0,0,0,0,-1,1182,1492,0,0
-35,-468,0,0,0,0,0,0,0,0,0,-1,1189,1492,0,0
-28,-468,0,0,0,0,0,0,0,0,0,-1,1196,1492,0,0
-21,-468,0,0,0,0,0,0,0,0,0,-1,1203,1492,0,0
-14,-468,0,0,0,0,0,0,0,0,0,-1,1210,1492,0,0
-7,-468,0,0,0,0,0,0,0,0,0,-1,1217,1492,0,0
0,-468,0,0,0,0,0,0,0,0,0,-1,1224,1492,0,0
7,-468,0,0,0,0,0,0,0,0,0,-1,1231,1492,0,0
14,-468,0,0,0,0,0,0,0,0,0,-1,1238,1492,0,0
21,-468,0,0,0,0,0,0,0,0,0,-1,1245,1492,0,0
28,-468,0,0,0,0,0,0,0,0,0,-1,1252,1492,0,0
35,-468,0,0,0,0,0,0,0,0,0,-1,1259,1492,0,0
42,-468,0,0,0,0,0,0,0,0,0,-1,1266,1492,0,0
49,-468,0,0,0,0,0,0,0,0,0,-1,1273,1492,0,0
56,-468,0,0,0,0,0,0,0,0,0,-1,1280,1492,0,0
63,-468,0,0,0,0,0,0,0,0,0,-1,1287,1492,0,0
70,-468,0,0,0,0,0,0,0,0,0,-1,1294,1492,0,0
77,-468,0,0,0,0,0,0,0,0,0,-1,1301,1492,0,0
84,-468,0,0,0,0,0,0,0,0,0,-1,1308,1492,0,0
91,-468,0,0,0,0,0,0,0,0,0,-1,1315,1492,0,0
98,-468,0,0,0,0,0,0,0,0,0,-1,1322,1492,0,0
105,-468,0,0,0,0,0,0,0,0,0,-1,1329,1492,0,0
112,-468,0,0,0,0,0,0,0,0,0,-1,1336,1492,0,0
119,-468,0,0,0,0,0,0,0,0,0,-1,1343,1492,0,0
126,-468,0,0,0,0,0,0,0,0,0,-1,1350,1492,0,0
133,-468,0,0,0,0,0,0,0,0,0,-1,1357,1492,0,0
140,-468,0,0,0,0,0,0,0,0,0,-1,1364,1492,0,0
147,-468,0,0,0,0,0,0,0,0,0,-1,1371,1492,0,0
154,-468,0,0,0,0,0,0,0,0,0,-1,1378,1492,0,0
161,-468,0,0,0,0,0,0,0,0,0,-1,1385,1492,0,0
168,-468,0,0,0,0,0,0,0,0,0,-1,1392,1492,0,0
175,-468,0,0,0,0,0,0,0,0,0,-1,1399,1492,0,0
182,-468,0,0,0,0,0,0,0,0,0,-1,1406,1492,0,0
189,-468,0,0,0,0,0,0,0,0,0,-1,1413,1492,0,0
196,-468,0,0,0,0,0,0,0,0,0,-1,1420,1492,0,0
203,-468,0,0,0,0,0,0,0,0,0,-1,1427,1492,0,0
210,-468,0,0,0,0,0,0,0,0,0,-1,1434,1492,0,0
217,-468,0,0,0,0,0,0,0,0,0,-1,1441,1492,0,0
224,-468,0,0,0,0,0,0,0,0,0,-1,1448,1492,0,0
231,-468,0,0,0,0,0,0,0,0,0,-1,1455,1492,0,0
238,-468,0,0,0,0,0,0,0,0,0,-1,1462,1492,0,0
245,-468,0,0,0,0,0,0,0,0,0,-1,1469,1492,0,0
252,-468,0,0,0,0,0,0,0,0,0,-1,1476,1492,0,0
259,-468,0,0,0,0,0,0,0,0,0,-1,1483,1492,0,0
266,-468,0,0,0,0,0,0,0,0,0,-1,1490,1492,0,0
273,-468,0,0,0,0,0,0,0,0,0,-1,1497,1492,0,0
280,-468,0,0,0,0,0,0,0,0,0,-1,1504,1492,0,0
287,-468,0,0,0,0,0,0,0,0,0,-1,1511,1492,0,0
294,-468,0,0,0,0,0,0,0,0,0,-1,1518,1492,0,0
301,-468,0,0,0,0,0,0,0,0,0,-1,1525,1492,0,0
308,-468,0,0,0,0,0,0,0,0,0,-1,1532,1492,0,0
315,-468,0,0,0,0,0,0,0,0,0,-1,1539,1492,0,0
322,-468,0,0,0,0,0,0,0,0,0,-1,1546,1492,0,0
329,-468,0,0,0,0,0,0,0,0,0,-1,1553,1492,0,0
336,-468,0,0,0,0,0,0,0,0,0,-1,1560,1492,0,0
343,-468,0,0,0,0,0,0,0,0,0,-1,1567,1492,0,0
350,-468,0,0,0,0,0,0,0,0,0,-1,1574,1492,0,0
357,-468,0,0,0,0,0,0,0,0,0,-1,1581,1492,0,0
364,-468,0,0,0,0,0,0,0,0,0,-1,1588,1492,0,0
371,-468,0,0,0,0,0,0,0,0,0,-1,1595,1492,0,0
378,-468,0,0,0,0,0,0,0,0,0,-1,1602,1492,0,0
385,-468,0,0,0,0,0,0,0,0,0,-1,1609,1492,0,0
392,-468,0,0,0,0,0,0,0,0,0,-1,1616,1492,0,0
399,-468,0,0,0,0,0,0,0,0,0,-1,1623,1492,0,0
406,-468,0,0,0,0,0,0,0,0,0,-1,1630,1492,0,0
413,-468,0,0,0,0,0,0,0,0,0,-1,1637,1492,0,0
420,-468,0,0,0,0,0,0,0,0,0,-1,1644,1492,0,0
427,-468,0,0,0,0,0,0,0,0,0,-1,1651,1492,0,0
434,-468,0,0,0,0,0,0,0,0,0,-1,1658,1492,0,0
441,-468,0,0,0,0,0,0,0,0,0,-1,1665,1492,0,0
448,-468,0,0,0,0,0,0,0,0,0,-1,1672,1492,0,0
455,-468,0,0,0,0,0,0,0,0,0,-1,1679,1492,0,0
462,-468,0,0,0,0,0,0,0,0,0,-1,1686,1492,0,0
469,-468,15.6879,1.2677,0,0,0,0,0,0,0,-1,1693,1492,15.6879,-1.26772
476,-468,14.9318,1.61865,0,0,0,0,0,0,0,-1,1700,1492,14.9318,-1.61869
483,-468,11.265,4.64795,0,0,0,0,0,0,0,-1,1707,1492,11.265,-4.64798
490,-468,12.1316,3.51624,0,0,0,0,0,0,0,-1,1714,1492,12.1316,-3.51628
497,-468,16.5355,3.14587,0,0,0,0,0,0,0,-1,1721,1492,16.5356,-3.14583
504,-468,15.0642,4.10437,0,0,0,0,0,0,0,-1,1728,1492,15.0643,-4.10431
511,-468,15.6877,9.4801,0,0,0,0,0,0,0,-1,1735,1492,15.6878,-9.48007
518,-468,13.759,11.0887,0,0,0,0,0,0,0,-1,1742,1492,13.759,-11.0887
525,-468,16.6531,14.2238,0,0,0,0,0,0,0,-1,1749,1492,16.653,-14.2237
532,-468,18.0321,15.9307,0,0,0,0,0,0,0,-1,1756,1492,18.0321,-15.9307
539,-468,17.7644,15.8289,0,0,0,0,0,0,0,-1,1763,1492,17.7645,-15.8289
546,-468,16.8802,15.3224,0,0,0,0,0,0,0,-1,1770,1492,16.8803,-15.3224
553,-468,16.7485,14.8948,-0.0189913,0.00186506,0.0146102,0.00938692,-0.0265132,1.09535,0.0214987,0.0426609,1777,1492,16.7486,-14.8948
560,-468,16.5203,14.5625,-0.0134735,0.00140425,0.0100695,0.00648463,-0.0185539,1.10353,0.0150054,0.0298102,1784,1492,16.5202,-14.5625
567,-468,16.5046,14.2556,-0.0091806,0.00110764,0.00665106,0.00437176,-0.0124447,1.11456,0.010075,0.0178093,1791,1492,16.5046,-14.2556
574,-468,16.5426,13.8684,-0.00592304,0.000877132,0.00418643,0.00287026,-0.00791617,1.12646,0.00645069,0.0140064,1798,1492,16.5426,-13.8685
581,-468,16.5375,13.5066,-0.00353388,0.000746097,0.00242215,0.00183819,-0.00462598,1.14721,0.00384604,0.0143564,1805,1492,16.5375,-13.5066
588,-468,16.516,13.1667,-0.00137724,0.000601116,0.000708281,0.000828546,-0.00160467,1.26009,0.00142844,0.0117129,1812,1492,16.516,-13.1668
595,-468,16.505,12.8203,0.000125052,0.000331208,-0.000123399,0.000388917,6.7343e-05,-1.13335,0.00024,0.00956292,1819,1492,16.505,-12.8204
602,-468,16.5007,12.4558,0.000879527,5.6433e-05,-0.000286562,0.000969466,-3.35065e-05,-0.304121,0.000657764,0.00862553,1826,1492,16.5008,-12.4558
609,-468,16.493,12.0768,0.0012154,-0.00026112,-0.000281243,0.00126715,-0.000312876,-0.181991,0.000966098,0.00986823,1833,1492,16.4931,-12.0768
616,-468,16.4827,11.7021,0.001414,-0.000713423,-0.000144147,0.00142372,-0.000723146,-0.0673465,0.0012613,0.0100306,1840,1492,16.4827,-11.7021
623,-468,16.4878,11.3698,0.00140797,-0.00130659,0.000151802,0.00141643,-0.00131505,0.0556899,0.00157738,0.0107553,1847,1492,16.4878,-11.3698
630,-468,16.4995,11.0114,0.00107035,-0.00203093,0.000715181,0.00122733,-0.00218791,0.216071,0.00199762,0.0117033,1854,1492,16.4995,-11.0113
637,-468,16.4771,10.6088,0.000382099,-0.00269177,0.00139785,0.000922702,-0.00323237,0.369022,0.00251945,0.0160694,1861,1492,16.4771,-10.6088
644,-468,16.5509,10.3351,-0.000660887,-0.00346968,0.00221016,0.000553329,-0.00468389,0.502367,0.00332243,0.0438712,1868,1492,16.5509,-10.335
651,-468,16.7749,10.0419,0,0,0,0,0,0,0,-1,1875,1492,16.7749,-10.0418
658,-468,16.072,9.50635,0,0,0,0,0,0,0,-1,1882,1492,16.072,-9.50638
665,-468,15.4673,8.59546,0,0,0,0,0,0,0,-1,1889,1492,15.4672,-8.59548
672,-468,9.96814,3.61133,0,0,0,0,0,0,0,-1,1896,1492,9.96817,-3.61139
679,-468,11.2191,1.91968,0,0,0,0,0,0,0,-1,1903,1492,11.2191,-1.91965
686,-468,11.9252,1.42285,0,0,0,0,0,0,0,-1,1910,1492,11.9252,-1.42291
693,-468,0,0,0,0,0,0,0,0,0,-1,1917,1492,0,0
700,-468,0,0,0,0,0,0,0,0,0,-1,1924,1492,0,0
707,-468,0,0,0,0,0,0,0,0,0,-1,1931,1492,0,0
714,-468,0,0,0,0,0,0,0,0,0,-1,1938,1492,0,0
721,-468,0,0,0,0,0,0,0,0,0,-1,1945,1492,0,0
728,-468,0,0,0,0,0,0,0,0,0,-1,1952,1492,0,0
735,-468,0,0,0,0,0,0,0,0,0,-1,1959,1492,0,0
742,-468,0,0,0,0,0,0,0,0,0,-1,1966,1492,0,0
749,-468,0,0,0,0,0,0,0,0,0,-1,1973,1492,0,0
756,-468,0,0,0,0,0,0,0,0,0,-1,1980,1492,0,0
763,-468,0,0,0,0,0,0,0,0,0,-1,1987,1492,0,0
770,-468,0,0,0,0,0,0,0,0,0,-1,1994,1492,0,0
777,-468,0,0,0,0,0,0,0,0,0,-1,2001,1492,0,0
784,-468,0,0,0,0,0,0,0,0,0,-1,2008,1492,0,0
791,-468,0,0,0,0,0,0,0,0,0,-1,2015,1492,0,0
798,-468,0,0,0,0,0,0,0,0,0,-1,2022,1492,0,0
805,-468,0,0,0,0,0,0,0,0,0,-1,2029,1492,0,0
812,-468,0,0,0,0,0,0,0,0,0,-1,2036,1492,0,0
-700,-475,0,0,0,0,0,0,0,0,0,-1,524,1499,0,0
-693,-475,0,0,0,0,0,0,0,0,0,-1,531,1499,0,0
-686,-475,0,0,0,0,0,0,0,0,0,-1,538,1499,0,0
-679,-475,0,0,0,0,0,0,0,0,0,-1,545,1499,0,0
-672,-475,0,0,0,0,0,0,0,0,0,-1,552,1499,0,0
-665,-475,0,0,0,0,0,0,0,0,0,-1,559,1499,0,0
-658,-475,0,0,0,0,0,0,0,0,0,-1,566,1499,0,0
-651,-475,0,0,0,0,0,0,0,0,0,-1,573,1499,0,0
-644,-475,0,0,0,0,0,0,0,0,0,-1,580,1499,0,0
-637,-475,0,0,0,0,0,0,0,0,0,-1,587,1499,0,0
-630,-475,0,0,0,0,0,0,0,0,0,-1,594,1499,0,0
-623,-475,0,0,0,0,0,0,0,0,0,-1,601,1499,0,0
-616,-475,0,0,0,0,0,0,0,0,0,-1,608,1499,0,0
-609,-475,0,0,0,0,0,0,0,0,0,-1,615,1499,0,0
-602,-475,0,0,0,0,0,0,0,0,0,-1,622,1499,0,0
-595,-475,0,0,0,0,0,0,0,0,0,-1,629,1499,0,0
-588,-475,0,0,0,0,0,0,0,0,0,-1,636,1499,0,0
-581,-475,0,0,0,0,0,0,0,0,0,-1,643,1499,0,0
-574,-475,0,0,0,0,0,0,0,0,0,-1,650,1499,0,0
-567,-475,0,0,0,0,0,0,0,0,0,-1,657,1499,0,0
-560,-475,-9.42731,9.29517,0,0,0,0,0,0,0,-1,664,1499,-9.42731,-9.29519
-553,-475,-8.15131,8.78369,0,0,0,0,0,0,0,-1,671,1499,-8.15131,-8.78367
-546,-475,-8.41254,8.20654,0,0,0,0,0,0,0,-1,678,1499,-8.41251,-8.20655
-539,-475,-4.7345,4.17419,0,0,0,0,0,0,0,-1,685,1499,-4.73449,-4.17418
-532,-475,-4.00354,6.03528,0,0,0,0,0,0,0,-1,692,1499,-4.00353,-6.03526
-525,-475,-5.71307,5.62939,0,0,0,0,0,0,0,-1,699,1499,-5.71306,-5.62935
-518,-475,-4.98071,6.43384,0,0,0,0,0,0,0,-1,706,1499,-4.98074,-6.43384
-511,-475,-3.92413,7.81018,0,0,0,0,0,0,0,-1,713,1499,-3.92414,-7.81012
-504,-475,-4.16125,8.91724,0.0239035,0.0155401,0.0201996,0.0403497,-0.000906043,0.683331,0.0272068,0.033374,720,1499,-4.16125,-8.91719
-497,-475,-4.18872,9.27454,0.0154713,0.00882968,0.0126063,0.0251868,-0.000885834,0.656611,0.0170941,0.0207326,727,1499,-4.1887,-9.27455
-490,-475,-4.2002,9.62854,0.00978932,0.00454544,0.0076215,0.0152273,-0.000892512,0.61973,0.0104617,0.00893864,734,1499,-4.20021,-9.62857
-483,-475,-4.21191,10.0613,0.00603527,0.00190009,0.00433251,0.00876826,-0.000832905,0.562766,0.00614199,0.00813329,741,1499,-4.21191,-10.0613
-476,-475,-4.22333,10.4348,0.00353579,0.00016966,0.00192979,0.00441335,-0.000707899,0.426792,0.00320437,0.00964376,748,1499,-4.22334,-10.4348
-469,-475,-4.22168,10.8202,0.00133041,-0.00160765,-0.000489843,0.00140992,-0.00168717,-0.160926,0.00179049,0.0121195,755,1499,-4.22166,-10.8201
-462,-475,-4.18903,11.2268,0.00027338,-0.00227155,-0.00172742,0.00114641,-0.00314458,-0.467954,0.00256537,0.0168507,762,1499,-4.18902,-11.2268
-455,-475,-4.21204,11.5778,4.48908e-05,-0.00255298,-0.00251714,0.00157849,-0.00408657,-0.547202,0.00337588,0.0152051,769,1499,-4.21205,-11.5777
-448,-475,-4.24615,11.9707,2.44628e-05,-0.00279796,-0.00342211,0.00231492,-0.00508842,-0.589832,0.00437316,0.0132882,776,1499,-4.24617,-11.9708
-441,-475,-4.25336,12.395,0.000165231,-0.00319541,-0.00435343,0.00315137,-0.00618155,-0.601219,0.00548221,0.0163733,783,1499,-4.25339,-12.395
-434,-475,-4.25464,12.765,0.000252319,-0.0039071,-0.0055373,0.00408758,-0.00774236,-0.605758,0.00693782,0.0102087,790,1499,-4.25465,-12.765
-427,-475,-4.21838,13.2234,0.000250654,-0.00488097,-0.00703226,0.00517056,-0.00980088,-0.610471,0.00878048,0.0195969,797,1499,-4.21839,-13.2234
-420,-475,-4.11121,13.6454,0.000312829,-0.00594553,-0.00856044,0.00629808,-0.0119308,-0.610173,0.0106906,0.0346853,804,1499,-4.11119,-13.6454
-413,-475,-3.86505,14.1464,0,0,0,0,0,0,0,-1,811,1499,-3.86506,-14.1463
-406,-475,-2.56116,12.4956,0,0,0,0,0,0,0,-1,818,1499,-2.56116,-12.4956
-399,-475,-1.39667,6.1615,0,0,0,0,0,0,0,-1,825,1499,-1.39664,-6.16155
-392,-475,0.217163,8.61389,0,0,0,0,0,0,0,-1,832,1499,0.217167,-8.6139
-385,-475,1.18372,2.73999,0,0,0,0,0,0,0,-1,839,1499,1.18372,-2.73995
-378,-475,1.31409,2.90149,0,0,0,0,0,0,0,-1,846,1499,1.31411,-2.90151
-371,-475,2.3476,3.31116,0,0,0,0,0,0,0,-1,853,1499,2.34761,-3.31121
-364,-475,1.04462,9.05823,0,0,0,0,0,0,0,-1,860,1499,1.04461,-9.05825
-357,-475,-0.262756,7.97205,0,0,0,0,0,0,0,-1,867,1499,-0.262784,-7.97205
-350,-475,-2.77173,4.35486,0,0,0,0,0,0,0,-1,874,1499,-2.77175,-4.35491
-343,-475,-6.81641,-1.95203,0,0,0,0,0,0,0,-1,881,1499,-6.81643,1.95198
-336,-475,0,0,0,0,0,0,0,0,0,-1,888,1499,0,0
-329,-475,0,0,0,0,0,0,0,0,0,-1,895,1499,0,0
-322,-475,0,0,0,0,0,0,0,0,0,-1,902,1499,0,0
-315,-475,0,0,0,0,0,0,0,0,0,-1,909,1499,0,0
-308,-475,0,0,0,0,0,0,0,0,0,-1,916,1499,0,0
-301,-475,0,0,0,0,0,0,0,0,0,-1,923,1499,0,0
-294,-475,0,0,0,0,0,0,0,0,0,-1,930,1499,0,0
-287,-475,0,0,0,0,0,0,0,0,0,-1,937,1499,0,0
-280,-475,0,0,0,0,0,0,0,0,0,-1,944,1499,0,0
-273,-475,0,0,0,0,0,0,0,0,0,-1,951,1499,0,0
-266,-475,0,0,0,0,0,0,0,0,0,-1,958,1499,0,0
-259,-475,0,0,0,0,0,0,0,0,0,-1,965,1499,0,0
-252,-475,0,0,0,0,0,0,0,0,0,-1,972,1499,0,0
-245,-475,0,0,0,0,0,0,0,0,0,-1,979,1499,0,0
-238,-475,0,0,0,0,0,0,0,0,0,-1,986,1499,0,0
-231,-475,0,0,0,0,0,0,0,0,0,-1,993,1499,0,0
-224,-475,0,0,0,0,0,0,0,0,0,-1,1000,1499,0,0
-217,-475,0,0,0,0,0,0,0,0,0,-1,1007,1499,0,0
-210,-475,0,0,0,0,0,0,0,0,0,-1,1014,1499,0,0
-203,-475,0,0,0,0,0,0,0,0,0,-1,1021,1499,0,0
-196,-475,0,0,0,0,0,0,0,0,0,-1,1028,1499,0,0
-189,-475,0,0,0,0,0,0,0,0,0,-1,1035,1499,0,0
-182,-475,0,0,0,0,0,0,0,0,0,-1,1042,1499,0,0
-175,-475,0,0,0,0,0,0,0,0,0,-1,1049,1499,0,0
-168,-475,0,0,0,0,0,0,0,0,0,-1,1056,1499,0,0
-161,-475,0,0,0,0,0,0,0,0,0,-1,1063,1499,0,0
-154,-475,0,0,0,0,0,0,0,0,0,-1,1070,1499,0,0
-147,-475,0,0,0,0,0,0,0,0,0,-1,1077,1499,0,0
-140,-475,0,0,0,0,0,0,0,0,0,-1,1084,1499,0,0
-133,-475,0,0,0,0,0,0,0,0,0,-1,1091,1499,0,0
-126,-475,0,0,0,0,0,0,0,0,0,-1,1098,1499,0,0
-119,-475,0,0,0,0,0,0,0,0,0,-1,1105,1499,0,0
-112,-475,0,0,0,0,0,0,0,0,0,-1,1112,1499,0,0
-105,-475,0,0,0,0,0,0,0,0,0,-1,1119,1499,0,0
-98,-475,0,0,0,0,0,0,0,0,0,-1,1126,1499,0,0
-91,-475,0,0,0,0,0,0,0,0,0,-1,1133,1499,0,0
-84,-475,0,0,0,0,0,0,0,0,0,-1,1140,1499,0,0
-77,-475,0,0,0,0,0,0,0,0,0,-1,1147,1499,0,0
-70,-475,0,0,0,0,0,0,0,0,0,-1,1154,1499,0,0
-63,-475,0,0,0,0,0,0,0,0,0,-1,1161,1499,0,0
-56,-475,0,0,0,0,0,0,0,0,0,-1,1168,1499,0,0
-49,-475,0,0,0,0,0,0,0,0,0,-1,1175,1499,0,0
-42,-475,0,0,0,0,0,0,0,0,0,-1,1182,1499,0,0
-35,-475,0,0,0,0,0,0,0,0,0,-1,1189,1499,0,0
-28,-475,0,0,0,0,0,0,0,0,0,-1,1196,1499,0,0
-21,-475,0,0,0,0,0,0,0,0,0,-1,1203,1499,0,0
-14,-475,0,0,0,0,0,0,0,0,0,-1,1210,1499,0,0
-7,-475,0,0,0,0,0,0,0,0,0,-1,1217,1499,0,0
0,-475,0,0,0,0,0,0,0,0,0,-1,1224,1499,0,0
7,-475,0,0,0,0,0,0,0,0,0,-1,1231,1499,0,0
14,-475,0,0,0,0,0,0,0,0,0,-1,1238,1499,0,0
21,-475,0,0,0,0,0,0,0,0,0,-1,1245,1499,0,0
28,-475,0,0,0,0,0,0,0,0,0,-1,1252,1499,0,0
35,-475,0,0,0,0,0,0,0,0,0,-1,1259,1499,0,0
42,-475,0,0,0,0,0,0,0,0,0,-1,1266,1499,0,0
49,-475,0,0,0,0,0,0,0,0,0,-1,1273,1499,0,0
56,-475,0,0,0,0,0,0,0,0,0,-1,1280,1499,0,0
63,-475,0,0,0,0,0,0,0,0,0,-1,1287,1499,0,0
70,-475,0,0,0,0,0,0,0,0,0,-1,1294,1499,0,0
77,-475,0,0,0,0,0,0,0,0,0,-1,1301,1499,0,0
84,-475,0,0,0,0,0,0,0,0,0,-1,1308,1499,0,0
91,-475,0,0,0,0,0,0,0,0,0,-1,1315,1499,0,0
98,-475,0,0,0,0,0,0,0,0,0,-1,1322,1499,0,0
105,-475,0,0,0,0,0,0,0,0,0,-1,1329,1499,0,0
112,-475,0,0,0,0,0,0,0,0,0,-1,1336,1499,0,0
119,-475,0,0,0,0,0,0,0,0,0,-1,1343,1499,0,0
126,-475,0,0,0,0,0,0,0,0,0,-1,1350,1499,0,0
133,-475,0,0,0,0,0,0,0,0,0,-1,1357,1499,0,0
140,-475,0,0,0,0,0,0,0,0,0,-1,1364,1499,0,0
147,-475,0,0,0,0,0,0,0,0,0,-1,1371,1499,0,0
154,-475,0,0,0,0,0,0,0,0,0,-1,1378,1499,0,0
161,-475,0,0,0,0,0,0,0,0,0,-1,1385,1499,0,0
168,-475,0,0,0,0,0,0,0,0,0,-1,1392,1499,0,0
175,-475,0,0,0,0,0,0,0,0,0,-1,1399,1499,0,0
182,-475,0,0,0,0,0,0,0,0,0,-1,1406,1499,0,0
189,-475,0,0,0,0,0,0,0,0,0,-1,1413,1499,0,0
196,-475,0,0,0,0,0,0,0,0,0,-1,1420,1499,0,0
203,-475,0,0,0,0,0,0,0,0,0,-1,1427,1499,0,0
210,-475,0,0,0,0,0,0,0,0,0,-1,1434,1499,0,0
217,-475,0,0,0,0,0,0,0,0,0,-1,1441,1499,0,0
224,-475,0,0,0,0,0,0,0,0,0,-1,1448,1499,0,0
231,-475,0,0,0,0,0,0,0,0,0,-1,1455,1499,0,0
238,-475,0,0,0,0,0,0,0,0,0,-1,1462,1499,0,0
245,-475,0,0,0,0,0,0,0,0,0,-1,1469,1499,0,0
252,-475,0,0,0,0,0,0,0,0,0,-1,1476,1499,0,0
259,-475,0,0,0,0,0,0,0,0,0,-1,1483,1499,0,0
266,-475,0,0,0,0,0,0,0,0,0,-1,1490,1499,0,0
273,-475,0,0,0,0,0,0,0,0,0,-1,1497,1499,0,0
280,-475,0,0,0,0,0,0,0,0,0,-1,1504,1499,0,0
287,-475,0,0,0,0,0,0,0,0,0,-1,1511,1499,0,0
294,-475,0,0,0,0,0,0,0,0,0,-1,1518,1499,0,0
301,-475,0,0,0,0,0,0,0,0,0,-1,1525,1499,0,0
308,-475,0,0,0,0,0,0,0,0,0,-1,1532,1499,0,0
315,-475,0,0,0,0,0,0,0,0,0,-1,1539,1499,0,0
322,-475,0,0,0,0,0,0,0,0,0,-1,1546,1499,0,0
329,-475,0,0,0,0,0,0,0,0,0,-1,1553,1499,0,0
336,-475,0,0,0,0,0,0,0,0,0,-1,1560,1499,0,0
343,-475,0,0,0,0,0,0,0,0,0,-1,1567,1499,0,0
350,-475,0,0,0,0,0,0,0,0,0,-1,1574,1499,0,0
357,-475,0,0,0,0,0,0,0,0,0,-1,1581,1499,0,0
364,-475,0,0,0,0,0,0,0,0,0,-1,1588,1499,0,0
371,-475,0,0,0,0,0,0,0,0,0,-1,1595,1499,0,0
378,-475,0,0,0,0,0,0,0,0,0,-1,1602,1499,0,0
385,-475,0,0,0,0,0,0,0,0,0,-1,1609,1499,0,0
392,-475,0,0,0,0,0,0,0,0,0,-1,1616,1499,0,0
399,-475,0,0,0,0,0,0,0,0,0,-1,1623,1499,0,0
406,-475,0,0,0,0,0,0,0,0,0,-1,1630,1499,0,0
413,-475,0,0,0,0,0,0,0,0,0,-1,1637,1499,0,0
420,-475,0,0,0,0,0,0,0,0,0,-1,1644,1499,0,0
427,-475,0,0,0,0,0,0,0,0,0,-1,1651,1499,0,0
434,-475,0,0,0,0,0,0,0,0,0,-1,1658,1499,0,0
441,-475,0,0,0,0,0,0,0,0,0,-1,1665,1499,0,0
448,-475,0,0,0,0,0,0,0,0,0,-1,1672,1499,0,0
455,-475,0,0,0,0,0,0,0,0,0,-1,1679,1499,0,0
462,-475,12.6372,0.275391,0,0,0,0,0,0,0,-1,1686,1499,12.6372,-0.27536
469,-475,15.6437,2.28296,0,0,0,0,0,0,0,-1,1693,1499,15.6437,-2.28293
476,-475,15.3302,2.71436,0,0,0,0,0,0,0,-1,1700,1499,15.3303,-2.7143
483,-475,10.7461,5.91479,0,0,0,0,0,0,0,-1,1707,1499,10.7461,-5.91476
490,-475,11.9305,4.4364,0,0,0,0,0,0,0,-1,1714,1499,11.9305,-4.43644
497,-475,15.3451,4.3479,0,0,0,0,0,0,0,-1,1721,1499,15.3451,-4.34789
504,-475,16.9646,7.71265,0,0,0,0,0,0,0,-1,1728,1499,16.9646,-7.71265
511,-475,18.941,12.7572,0,0,0,0,0,0,0,-1,1735,1499,18.941,-12.7572
518,-475,17.0021,13.8564,0,0,0,0,0,0,0,-1,1742,1499,17.0021,-13.8564
525,-475,17.7463,15.323,0,0,0,0,0,0,0,-1,1749,1499,17.7463,-15.3229
532,-475,17.3365,15.6532,-0.0345504,0.00376521,0.0305155,0.0206382,-0.0514234,1.06571,0.0428516,0.0457533,1756,1499,17.3366,-15.6532
539,-475,16.9673,15.7607,-0.0267938,0.0025932,0.0228311,0.0150504,-0.039251,1.07132,0.0323721,0.0431417,1763,1499,16.9673,-15.7607
546,-475,16.3315,15.3206,-0.0204057,0.00190507,0.0167876,0.0109058,-0.0294064,1.07865,0.0240774,0.0425164,1770,1499,16.3315,-15.3206
553,-475,16.2908,14.978,-0.0151219,0.00138506,0.012066,0.00775031,-0.0214872,1.08536,0.0174903,0.0260334,1777,1499,16.2908,-14.978
560,-475,16.0647,14.6753,-0.0107879,0.001034,0.00835123,0.0053545,-0.0151084,1.09337,0.0122535,0.019991,1784,1499,16.0647,-14.6753
567,-475,16.1877,14.2332,-0.00731842,0.00078602,0.00549828,0.003564,-0.0100964,1.10296,0.0081819,0.014758,1791,1499,16.1878,-14.2332
574,-475,16.176,13.8757,-0.00463042,0.000612412,0.00341298,0.00229452,-0.00631252,1.11288,0.0051466,0.0148625,1798,1499,16.1761,-13.8757
581,-475,16.1599,13.5378,-0.00257644,0.000515866,0.00187571,0.00140053,-0.00346111,1.13009,0.00288969,0.0115252,1805,1499,16.1599,-13.5379
588,-475,16.1442,13.1864,-0.000670093,0.000382194,0.000365666,0.000496784,-0.000784682,1.26712,0.000746052,0.00969304,1812,1499,16.1442,-13.1864
595,-475,16.1493,12.8204,0.000683267,0.000158386,-0.000364322,0.000869831,-2.81792e-05,-0.473271,0.000589505,0.0106195,1819,1499,16.1493,-12.8204
602,-475,16.1631,12.4373,0.0013836,-0.000102162,-0.000520187,0.00154762,-0.000266181,-0.30544,0.00113096,0.0123466,1826,1499,16.1631,-12.4372
609,-475,16.1611,12.0829,0.00170746,-0.000407355,-0.000514627,0.00182604,-0.000525937,-0.22647,0.00142539,0.0118342,1833,1499,16.1611,-12.0829
616,-475,16.1285,11.7393,0.00196327,-0.000882875,-0.000386211,0.00201475,-0.000934351,-0.132504,0.00174033,0.0112575,1840,1499,16.1286,-11.7393
623,-475,16.1133,11.3816,0.00207684,-0.00154384,-9.64539e-05,0.00207941,-0.00154641,-0.0266146,0.00210089,0.0111267,1847,1499,16.1132,-11.3816
630,-475,16.126,11.0354,0.00181841,-0.00237244,0.000521745,0.00188239,-0.00243642,0.122015,0.0025003,0.0138455,1854,1499,16.126,-11.0354
637,-475,16.1721,10.6403,0.00123195,-0.00316721,0.00124407,0.0015594,-0.00349465,0.257369,0.00298841,0.0266049,1861,1499,16.1722,-10.6403
644,-475,16.2479,10.2444,0,0,0,0,0,0,0,-1,1868,1499,16.2479,-10.2444
651,-475,11.7965,7.57593,0,0,0,0,0,0,0,-1,1875,1499,11.7965,-7.5759
658,-475,14.6708,8.80322,0,0,0,0,0,0,0,-1,1882,1499,14.6708,-8.8032
665,-475,9.33435,5.43335,0,0,0,0,0,0,0,-1,1889,1499,9.33439,-5.43332
672,-475,9.38635,1.10474,0,0,0,0,0,0,0,-1,1896,1499,9.38629,-1.10475
679,-475,12.2594,1.31079,0,0,0,0,0,0,0,-1,1903,1499,12.2594,-1.31077
686,-475,0,0,0,0,0,0,0,0,0,-1,1910,1499,0,0
693,-475,0,0,0,0,0,0,0,0,0,-1,1917,1499,0,0
700,-475,0,0,0,0,0,0,0,0,0,-1,1924,1499,0,0
707,-475,0,0,0,0,0,0,0,0,0,-1,1931,1499,0,0
714,-475,0,0,0,0,0,0,0,0,0,-1,1938,1499,0,0
721,-475,0,0,0,0,0,0,0,0,0,-1,1945,1499,0,0
728,-475,0,0,0,0,0,0,0,0,0,-1,1952,1499,0,0
735,-475,0,0,0,0,0,0,0,0,0,-1,1959,1499,0,0
742,-475,0,0,0,0,0,0,0,0,0,-1,1966,1499,0,0
749,-475,0,0,0,0,0,0,0,0,0,-1,1973,1499,0,0
756,-475,0,0,0,0,0,0,0,0,0,-1,1980,1499,0,0
763,-475,0,0,0,0,0,0,0,0,0,-1,1987,1499,0,0
770,-475,0,0,0,0,0,0,0,0,0,-1,1994,1499,0,0
777,-475,0,0,0,0,0,0,0,0,0,-1,2001,1499,0,0
784,-475,0,0,0,0,0,0,0,0,0,-1,2008,1499,0,0
791,-475,0,0,0,0,0,0,0,0,0,-1,2015,1499,0,0
798,-475,0,0,0,0,0,0,0,0,0,-1,2022,1499,0,0
805,-475,0,0,0,0,0,0,0,0,0,-1,2029,1499,0,0
812,-475,0,0,0,0,0,0,0,0,0,-1,2036,1499,0,0
-700,-482,0,0,0,0,0,0,0,0,0,-1,524,1506,0,0
-693,-482,0,0,0,0,0,0,0,0,0,-1,531,1506,0,0
-686,-482,0,0,0,0,0,0,0,0,0,-1,538,1506,0,0
-679,-482,0,0,0,0,0,0,0,0,0,-1,545,1506,0,0
-672,-482,0,0,0,0,0,0,0,0,0,-1,552,1506,0,0
-665,-482,0,0,0,0,0,0,0,0,0,-1,559,1506,0,0
-658,-482,0,0,0,0,0,0,0,0,0,-1,566,1506,0,0
-651,-482,0,0,0,0,0,0,0,0,0,-1,573,1506,0,0
-644,-482,0,0,0,0,0,0,0,0,0,-1,580,1506,0,0
-637,-482,0,0,0,0,0,0,0,0,0,-1,587,1506,0,0
-630,-482,0,0,0,0,0,0,0,0,0,-1,594,1506,0,0
-623,-482,0,0,0,0,0,0,0,0,0,-1,601,1506,0,0
-616,-482,0,0,0,0,0,0,0,0,0,-1,608,1506,0,0
-609,-482,0,0,0,0,0,0,0,0,0,-1,615,1506,0,0
-602,-482,0,0,0,0,0,0,0,0,0,-1,622,1506,0,0
-595,-482,0,0,0,0,0,0,0,0,0,-1,629,1506,0,0
-588,-482,0,0,0,0,0,0,0,0,0,-1,636,1506,0,0
-581,-482,0,0,0,0,0,0,0,0,0,-1,643,1506,0,0
-574,-482,0,0,0,0,0,0,0,0,0,-1,650,1506,0,0
-567,-482,0,0,0,0,0,0,0,0,0,-1,657,1506,0,0
-560,-482,0,0,0,0,0,0,0,0,0,-1,664,1506,0,0
-553,-482,-9.06055,9.34314,0,0,0,0,0,0,0,-1,671,1506,-9.06056,-9.34312
-546,-482,-4.08624,8.34241,0,0,0,0,0,0,0,-1,678,1506,-4.08624,-8.3424
-539,-482,-4.29877,2.73499,0,0,0,0,0,0,0,-1,685,1506,-4.29879,-2.73494
-532,-482,-3.63611,4.23987,0,0,0,0,0,0,0,-1,692,1506,-3.63609,-4.23983
-525,-482,-3.09674,5.62305,0,0,0,0,0,0,0,-1,699,1506,-3.09676,-5.62309
-518,-482,-4.74774,5.74902,0,0,0,0,0,0,0,-1,706,1506,-4.74771,-5.74908
-511,-482,-4.00665,8.12671,0,0,0,0,0,0,0,-1,713,1506,-4.00663,-8.12675
-504,-482,-3.88293,8.78162,0.0268058,0.0150071,0.0218229,0.0435127,-0.00169977,0.653389,0.0295913,0.0433917,720,1506,-3.88291,-8.78167
-497,-482,-3.73749,9.31665,0.0168779,0.00763705,0.0131782,0.0262221,-0.00170722,0.616789,0.0180774,0.0304435,727,1506,-3.7375,-9.31664
-490,-482,-3.83228,9.6261,0.0103942,0.0031316,0.00770424,0.01528,-0.00175424,0.56517,0.0108189,0.0190954,734,1506,-3.83229,-9.62614
-483,-482,-3.81152,10.0417,0.00621528,0.000491849,0.00426761,0.00849184,-0.00178471,0.490049,0.00634042,0.00811564,741,1506,-3.81155,-10.0417
-476,-482,-3.81055,10.4287,0.00356737,-0.000999598,0.00195896,0.00429251,-0.00172474,0.354526,0.00357795,0.00891373,748,1506,-3.81052,-10.4287
-469,-482,-3.82483,10.8214,0.00132194,-0.00252967,-0.000350111,0.00135351,-0.00256123,-0.0899178,0.00229575,0.0107483,755,1506,-3.82483,-10.8214
-462,-482,-3.82007,11.2117,0.00035118,-0.00290205,-0.00134745,0.000836791,-0.00338766,-0.345903,0.00258295,0.0124455,762,1506,-3.82009,-11.2117
-455,-482,-3.8288,11.5968,0.000261048,-0.00281651,-0.00180607,0.00109497,-0.00365043,-0.432569,0.00286913,0.0133539,769,1506,-3.82882,-11.5968
-448,-482,-3.85272,12.0081,0.000377469,-0.00263181,-0.00232183,0.00163957,-0.00389391,-0.4979,0.00328194,0.0135911,776,1506,-3.85275,-12.0081
-441,-482,-3.8609,12.4104,0.000716684,-0.00248368,-0.00269416,0.00225004,-0.00401704,-0.517421,0.00366593,0.0137164,783,1506,-3.86089,-12.4104
-434,-482,-3.86884,12.782,0.00109648,-0.00243936,-0.00313985,0.00293192,-0.0042748,-0.528992,0.00418481,0.0158103,790,1506,-3.86882,-12.782
-427,-482,-3.87219,13.1801,0.00142681,-0.00250182,-0.00373962,0.00368663,-0.00476164,-0.543568,0.00489075,0.0170057,797,1506,-3.87222,-13.18
-420,-482,-3.78485,13.7723,0.00184283,-0.00252831,-0.00423155,0.0044199,-0.00510538,-0.54702,0.00550416,0.0361913,804,1506,-3.78484,-13.7723
-413,-482,-3.54974,14.3406,0,0,0,0,0,0,0,-1,811,1506,-3.54975,-14.3405
-406,-482,-2.51373,12.7556,0,0,0,0,0,0,0,-1,818,1506,-2.51376,-12.7556
-399,-482,-1.3822,9.22595,0,0,0,0,0,0,0,-1,825,1506,-1.38221,-9.22598
-392,-482,-1.06836,9.22729,0,0,0,0,0,0,0,-1,832,1506,-1.06835,-9.2273
-385,-482,0.0647583,8.90649,0,0,0,0,0,0,0,-1,839,1506,0.0647778,-8.90644
-378,-482,0.215698,5.96948,0,0,0,0,0,0,0,-1,846,1506,0.215681,-5.9695
-371,-482,-0.10907,8.10437,0,0,0,0,0,0,0,-1,853,1506,-0.109063,-8.10433
-364,-482,-0.154968,10.5032,0,0,0,0,0,0,0,-1,860,1506,-0.154976,-10.5032
-357,-482,2.14807,4.60144,0,0,0,0,0,0,0,-1,867,1506,2.14807,-4.60144
-350,-482,-7.5813,-1.45935,0,0,0,0,0,0,0,-1,874,1506,-7.58133,1.45937
-343,-482,-7.19983,-1.26416,0,0,0,0,0,0,0,-1,881,1506,-7.19981,1.26414
-336,-482,-6.78491,-1.18127,0,0,0,0,0,0,0,-1,888,1506,-6.78488,1.18125
-329,-482,0,0,0,0,0,0,0,0,0,-1,895,1506,0,0
-322,-482,0,0,0,0,0,0,0,0,0,-1,902,1506,0,0
-315,-482,0,0,0,0,0,0,0,0,0,-1,909,1506,0,0
-308,-482,0,0,0,0,0,0,0,0,0,-1,916,1506,0,0
-301,-482,0,0,0,0,0,0,0,0,0,-1,923,1506,0,0
-294,-482,0,0,0,0,0,0,0,0,0,-1,930,1506,0,0
-287,-482,0,0,0,0,0,0,0,0,0,-1,937,1506,0,0
-280,-482,0,0,0,0,0,0,0,0,0,-1,944,1506,0,0
-273,-482,0,0,0,0,0,0,0,0,0,-1,951,1506,0,0
-266,-482,0,0,0,0,0,0,0,0,0,-1,958,1506,0,0
-259,-482,0,0,0,0,0,0,0,0,0,-1,965,1506,0,0
-252,-482,0,0,0,0,0,0,0,0,0,-1,972,1506,0,0
-245,-482,0,0,0,0,0,0,0,0,0,-1,979,1506,0,0
-238,-482,0,0,0,0,0,0,0,0,0,-1,986,1506,0,0
-231,-482,0,0,0,0,0,0,0,0,0,-1,993,1506,0,0
-224,-482,0,0,0,0,0,0,0,0,0,-1,1000,1506,0,0
-217,-482,0,0,0,0,0,0,0,0,0,-1,1007,1506,0,0
-210,-482,0,0,0,0,0,0,0,0,0,-1,1014,1506,0,0
-203,-482,0,0,0,0,0,0,0,0,0,-1,1021,1506,0,0
-196,-482,0,0,0,0,0,0,0,0,0,-1,1028,1506,0,0
-189,-482,0,0,0,0,0,0,0,0,0,-1,1035,1506,0,0
-182,-482,0,0,0,0,0,0,0,0,0,-1,1042,1506,0,0
-175,-482,0,0,0,0,0,0,0,0,0,-1,1049,1506,0,0
-168,-482,0,0,0,0,0,0,0,0,0,-1,1056,1506,0,0
-161,-482,0,0,0,0,0,0,0,0,0,-1,1063,1506,0,0
-154,-482,0,0,0,0,0,0,0,0,0,-1,1070,1506,0,0
-147,-482,0,0,0,0,0,0,0,0,0,-1,1077,1506,0,0
-140,-482,0,0,0,0,0,0,0,0,0,-1,1084,1506,0,0
-133,-482,0,0,0,0,0,0,0,0,0,-1,1091,1506,0,0
-126,-482,0,0,0,0,0,0,0,0,0,-1,1098,1506,0,0
-119,-482,0,0,0,0,0,0,0,0,0,-1,1105,1506,0,0
-112,-482,0,0,0,0,0,0,0,0,0,-1,1112,1506,0,0
-105,-482,0,0,0,0,0,0,0,0,0,-1,1119,1506,0,0
-98,-482,0,0,0,0,0,0,0,0,0,-1,1126,1506,0,0
-91,-482,0,0,0,0,0,0,0,0,0,-1,1133,1506,0,0
-84,-482,0,0,0,0,0,0,0,0,0,-1,1140,1506,0,0
-77,-482,0,0,0,0,0,0,0,0,0,-1,1147,1506,0,0
-70,-482,0,0,0,0,0,0,0,0,0,-1,1154,1506,0,0
-63,-482,0,0,0,0,0,0,0,0,0,-1,1161,1506,0,0
-56,-482,0,0,0,0,0,0,0,0,0,-1,1168,1506,0,0
-49,-482,0,0,0,0,0,0,0,0,0,-1,1175,1506,0,0
-42,-482,0,0,0,0,0,0,0,0,0,-1,1182,1506,0,0
-35,-482,0,0,0,0,0,0,0,0,0,-1,1189,1506,0,0
-28,-482,0,0,0,0,0,0,0,0,0,-1,1196,1506,0,0
-21,-482,0,0,0,0,0,0,0,0,0,-1,1203,1506,0,0
-14,-482,0,0,0,0,0,0,0,0,0,-1,1210,1506,0,0
-7,-482,0,0,0,0,0,0,0,0,0,-1,1217,1506,0,0
0,-482,0,0,0,0,0,0,0,0,0,-1,1224,1506,0,0
7,-482,0,0,0,0,0,0,0,0,0,-1,1231,1506,0,0
14,-482,0,0,0,0,0,0,0,0,0,-1,1238,1506,0,0
21,-482,0,0,0,0,0,0,0,0,0,-1,1245,1506,0,0
28,-482,0,0,0,0,0,0,0,0,0,-1,1252,1506,0,0
35,-482,0,0,0,0,0,0,0,0,0,-1,1259,1506,0,0
42,-482,0,0,0,0,0,0,0,0,0,-1,1266,1506,0,0
49,-482,0,0,0,0,0,0,0,0,0,-1,1273,1506,0,0
56,-482,0,0,0,0,0,0,0,0,0,-1,1280,1506,0,0
63,-482,0,0,0,0,0,0,0,0,0,-1,1287,1506,0,0
70,-482,0,0,0,0,0,0,0,0,0,-1,1294,1506,0,0
77,-482,0,0,0,0,0,0,0,0,0,-1,1301,1506,0,0
84,-482,0,0,0,0,0,0,0,0,0,-1,1308,1506,0,0
91,-482,0,0,0,0,0,0,0,0,0,-1,1315,1506,0,0
98,-482,0,0,0,0,0,0,0,0,0,-1,1322,1506,0,0
105,-482,0,0,0,0,0,0,0,0,0,-1,1329,1506,0,0
112,-482,0,0,0,0,0,0,0,0,0,-1,1336,1506,0,0
119,-482,0,0,0,0,0,0,0,0,0,-1,1343,1506,0,0
126,-482,0,0,0,0,0,0,0,0,0,-1,1350,1506,0,0
133,-482,0,0,0,0,0,0,0,0,0,-1,1357,1506,0,0
140,-482,0,0,0,0,0,0,0,0,0,-1,1364,1506,0,0
147,-482,0,0,0,0,0,0,0,0,0,-1,1371,1506,0,0
154,-482,0,0,0,0,0,0,0,0,0,-1,1378,1506,0,0
161,-482,0,0,0,0,0,0,0,0,0,-1,1385,1506,0,0
168,-482,0,0,0,0,0,0,0,0,0,-1,1392,1506,0,0
175,-482,0,0,0,0,0,0,0,0,0,-1,1399,1506,0,0
182,-482,0,0,0,0,0,0,0,0,0,-1,1406,1506,0,0
189,-482,0,0,0,0,0,0,0,0,0,-1,1413,1506,0,0
196,-482,0,0,0,0,0,0,0,0,0,-1,1420,1506,0,0
203,-482,0,0,0,0,0,0,0,0,0,-1,1427,1506,0,0
210,-482,0,0,0,0,0,0,0,0,0,-1,1434,1506,0,0
217,-482,0,0,0,0,0,0,0,0,0,-1,1441,1506,0,0
224,-482,0,0,0,0,0,0,0,0,0,-1,1448,1506,0,0
231,-482,0,0,0,0,0,0,0,0,0,-1,1455,1506,0,0
238,-482,0,0,0,0,0,0,0,0,0,-1,1462,1506,0,0
245,-482,0,0,0,0,0,0,0,0,0,-1,1469,1506,0,0
252,-482,0,0,0,0,0,0,0,0,0,-1,1476,1506,0,0
259,-482,0,0,0,0,0,0,0,0,0,-1,1483,1506,0,0
266,-482,0,0,0,0,0,0,0,0,0,-1,1490,1506,0,0
273,-482,0,0,0,0,0,0,0,0,0,-1,1497,1506,0,0
280,-482,0,0,0,0,0,0,0,0,0,-1,1504,1506,0,0
287,-482,0,0,0,0,0,0,0,0,0,-1,1511,1506,0,0
294,-482,0,0,0,0,0,0,0,0,0,-1,1518,1506,0,0
301,-482,0,0,0,0,0,0,0,0,0,-1,1525,1506,0,0
308,-482,0,0,0,0,0,0,0,0,0,-1,1532,1506,0,0
315,-482,0,0,0,0,0,0,0,0,0,-1,1539,1506,0,0
322,-482,0,0,0,0,0,0,0,0,0,-1,1546,1506,0,0
329,-482,0,0,0,0,0,0,0,0,0,-1,1553,1506,0,0
336,-482,0,0,0,0,0,0,0,0,0,-1,1560,1506,0,0
343,-482,0,0,0,0,0,0,0,0,0,-1,1567,1506,0,0
350,-482,0,0,0,0,0,0,0,0,0,-1,1574,1506,0,0
357,-482,0,0,0,0,0,0,0,0,0,-1,1581,1506,0,0
364,-482,0,0,0,0,0,0,0,0,0,-1,1588,1506,0,0
371,-482,0,0,0,0,0,0,0,0,0,-1,1595,1506,0,0
378,-482,0,0,0,0,0,0,0,0,0,-1,1602,1506,0,0
385,-482,0,0,0,0,0,0,0,0,0,-1,1609,1506,0,0
392,-482,0,0,0,0,0,0,0,0,0,-1,1616,1506,0,0
399,-482,0,0,0,0,0,0,0,0,0,-1,1623,1506,0,0
406,-482,0,0,0,0,0,0,0,0,0,-1,1630,1506,0,0
413,-482,0,0,0,0,0,0,0,0,0,-1,1637,1506,0,0
420,-482,0,0,0,0,0,0,0,0,0,-1,1644,1506,0,0
427,-482,0,0,0,0,0,0,0,0,0,-1,1651,1506,0,0
434,-482,0,0,0,0,0,0,0,0,0,-1,1658,1506,0,0
441,-482,0,0,0,0,0,0,0,0,0,-1,1665,1506,0,0
448,-482,4.24146,1.55383,0,0,0,0,0,0,0,-1,1672,1506,4.24149,-1.55381
455,-482,12.4122,1.09729,0,0,0,0,0,0,0,-1,1679,1506,12.4122,-1.09734
462,-482,15.0673,3.13135,0,0,0,0,0,0,0,-1,1686,1506,15.0672,-3.13134
469,-482,15.3793,3.46301,0,0,0,0,0,0,0,-1,1693,1506,15.3793,-3.46307
476,-482,8.69751,9.18738,0,0,0,0,0,0,0,-1,1700,1506,8.69753,-9.18739
483,-482,10.0902,7.17432,0,0,0,0,0,0,0,-1,1707,1506,10.0902,-7.1743
490,-482,11.6289,5.4928,0,0,0,0,0,0,0,-1,1714,1506,11.6289,-5.49283
497,-482,15.9539,7.40222,0,0,0,0,0,0,0,-1,1721,1506,15.9538,-7.40219
504,-482,20.4233,12.006,0,0,0,0,0,0,0,-1,1728,1506,20.4233,-12.006
511,-482,18.4937,12.9175,0,0,0,0,0,0,0,-1,1735,1506,18.4936,-12.9174
518,-482,16.6002,13.9679,0,0,0,0,0,0,0,-1,1742,1506,16.6003,-13.9679
525,-482,16.9209,15.1997,0,0,0,0,0,0,0,-1,1749,1506,16.9209,-15.1997
532,-482,16.5847,15.4537,-0.0260126,0.00269858,0.0236112,0.0159758,-0.0392898,1.05854,0.0328404,0.0465845,1756,1506,16.5847,-15.4538
539,-482,16.0667,15.6653,-0.0202469,0.00196022,0.0178668,0.0118926,-0.0301793,1.06342,0.0250434,0.0337462,1763,1506,16.0667,-15.6653
546,-482,15.8778,15.3696,-0.0154445,0.00157446,0.0132245,0.0087907,-0.0226607,1.07128,0.0187378,0.020695,1770,1506,15.8778,-15.3696
553,-482,15.7866,14.9551,-0.0114888,0.00111404,0.00960126,0.00629704,-0.0166718,1.0758,0.0137046,0.0190545,1777,1506,15.7867,-14.955
560,-482,15.7679,14.6228,-0.00819083,0.000822627,0.00665995,0.00435739,-0.0117256,1.08285,0.00960484,0.0132549,1784,1506,15.7679,-14.6228
567,-482,15.8379,14.2461,-0.00546014,0.00059643,0.00433626,0.00285716,-0.00772087,1.09021,0.00631876,0.015634,1791,1506,15.8379,-14.2461
574,-482,15.821,13.9086,-0.00329508,0.000463556,0.00259489,0.00178819,-0.00461971,1.0988,0.0038181,0.0147321,1798,1506,15.821,-13.9085
581,-482,15.7877,13.5573,-0.00155889,0.000389692,0.00126501,0.00101212,-0.00218131,1.11354,0.00188447,0.0097907,1805,1506,15.7877,-13.5573
588,-482,15.7697,13.1993,8.75845e-05,0.000258276,-2.58997e-05,0.000262119,8.37411e-05,-1.42348,0.000154587,0.0103803,1812,1506,15.7697,-13.1993
595,-482,15.785,12.8156,0.00128414,8.13395e-05,-0.000652449,0.00157008,-0.0002046,-0.413044,0.00112116,0.0160988,1819,1506,15.785,-12.8156
602,-482,15.8187,12.4347,0.00194447,-0.000167463,-0.000828692,0.00223081,-0.000453807,-0.332693,0.00165929,0.0198564,1826,1506,15.8188,-12.4347
609,-482,15.8098,12.0863,0.00228276,-0.000470955,-0.000849821,0.0025239,-0.0007121,-0.276492,0.0019635,0.0154781,1833,1506,15.8098,-12.0863
616,-482,15.7832,11.738,0.00263709,-0.000972023,-0.000758442,0.00279,-0.00112493,-0.198938,0.00232743,0.011157,1840,1506,15.7832,-11.7381
623,-482,15.7577,11.3906,0.00294281,-0.00168882,-0.000519656,0.0030004,-0.00174641,-0.110369,0.00277226,0.0120393,1847,1506,15.7576,-11.3907
630,-482,15.8,11.0873,0.00284257,-0.00261512,0.000102187,0.00284448,-0.00261703,0.0187146,0.00315412,0.024042,1854,1506,15.8001,-11.0873
637,-482,15.9521,10.8969,0.00247998,-0.00354211,0.000810039,0.00258704,-0.00364916,0.1314,0.00361784,0.0462447,1861,1506,15.9521,-10.8969
644,-482,16.0702,10.7354,0,0,0,0,0,0,0,-1,1868,1506,16.0702,-10.7354
651,-482,4.03845,7.05273,0,0,0,0,0,0,0,-1,1875,1506,4.03843,-7.05279
658,-482,10.0278,5.87903,0,0,0,0,0,0,0,-1,1882,1506,10.0279,-5.87902
665,-482,8.15198,3.22229,0,0,0,0,0,0,0,-1,1889,1506,8.15199,-3.22232
672,-482,9.87415,1.3147,0,0,0,0,0,0,0,-1,1896,1506,9.87416,-1.31473
679,-482,0,0,0,0,0,0,0,0,0,-1,1903,1506,0,0
686,-482,0,0,0,0,0,0,0,0,0,-1,1910,1506,0,0
693,-482,0,0,0,0,0,0,0,0,0,-1,1917,1506,0,0
700,-482,0,0,0,0,0,0,0,0,0,-1,1924,1506,0,0
707,-482,0,0,0,0,0,0,0,0,0,-1,1931,1506,0,0
714,-482,0,0,0,0,0,0,0,0,0,-1,1938,1506,0,0
721,-482,0,0,0,0,0,0,0,0,0,-1,1945,1506,0,0
728,-482,0,0,0,0,0,0,0,0,0,-1,1952,1506,0,0
735,-482,0,0,0,0,0,0,0,0,0,-1,1959,1506,0,0
742,-482,0,0,0,0,0,0,0,0,0,-1,1966,1506,0,0
749,-482,0,0,0,0,0,0,0,0,0,-1,1973,1506,0,0
756,-482,0,0,0,0,0,0,0,0,0,-1,1980,1506,0,0
763,-482,0,0,0,0,0,0,0,0,0,-1,1987,1506,0,0
770,-482,0,0,0,0,0,0,0,0,0,-1,1994,1506,0,0
777,-482,0,0,0,0,0,0,0,0,0,-1,2001,1506,0,0
784,-482,0,0,0,0,0,0,0,0,0,-1,2008,1506,0,0
791,-482,0,0,0,0,0,0,0,0,0,-1,2015,1506,0,0
798,-482,0,0,0,0,0,0,0,0,0,-1,2022,1506,0,0
805,-482,0,0,0,0,0,0,0,0,0,-1,2029,1506,0,0
812,-482,0,0,0,0,0,0,0,0,0,-1,2036,1506,0,0
-700,-489,0,0,0,0,0,0,0,0,0,-1,524,1513,0,0
-693,-489,0,0,0,0,0,0,0,0,0,-1,531,1513,0,0
-686,-489,0,0,0,0,0,0,0,0,0,-1,538,1513,0,0
-679,-489,0,0,0,0,0,0,0,0,0,-1,545,1513,0,0
-672,-489,0,0,0,0,0,0,0,0,0,-1,552,1513,0,0
-665,-489,0,0,0,0,0,0,0,0,0,-1,559,1513,0,0
-658,-489,0,0,0,0,0,0,0,0,0,-1,566,1513,0,0
-651,-489,0,0,0,0,0,0,0,0,0,-1,573,1513,0,0
-644,-489,0,0,0,0,0,0,0,0,0,-1,580,1513,0,0
-637,-489,0,0,0,0,0,0,0,0,0,-1,587,1513,0,0
-630,-489,0,0,0,0,0,0,0,0,0,-1,594,1513,0,0
-623,-489,0,0,0,0,0,0,0,0,0,-1,601,1513,0,0
-616,-489,0,0,0,0,0,0,0,0,0,-1,608,1513,0,0
-609,-489,0,0,0,0,0,0,0,0,0,-1,615,1513,0,0
-602,-489,0,0,0,0,0,0,0,0,0,-1,622,1513,0,0
-595,-489,0,0,0,0,0,0,0,0,0,-1,629,1513,0,0
-588,-489,0,0,0,0,0,0,0,0,0,-1,636,1513,0,0
-581,-489,0,0,0,0,0,0,0,0,0,-1,643,1513,0,0
-574,-489,0,0,0,0,0,0,0,0,0,-1,650,1513,0,0
-567,-489,0,0,0,0,0,0,0,0,0,-1,657,1513,0,0
-560,-489,0,0,0,0,0,0,0,0,0,-1,664,1513,0,0
-553,-489,-9.42206,8.5116,0,0,0,0,0,0,0,-1,671,1513,-9.42205,-8.51158
-546,-489,-7.80951,8.18506,0,0,0,0,0,0,0,-1,678,1513,-7.8095,-8.18503
-539,-489,-3.06879,2.82349,0,0,0,0,0,0,0,-1,685,1513,-3.06881,-2.82354
-532,-489,-3.14215,2.5835,0,0,0,0,0,0,0,-1,692,1513,-3.14213,-2.58353
-525,-489,-2.604,4.06274,0,0,0,0,0,0,0,-1,699,1513,-2.60399,-4.06274
-518,-489,-5.94751,7.97607,0,0,0,0,0,0,0,-1,706,1513,-5.94753,-7.97609
-511,-489,-4.24963,8.39966,0,0,0,0,0,0,0,-1,713,1513,-4.24961,-8.39963
-504,-489,-3.88696,8.69263,0.0284179,0.0131429,0.0221515,0.0442116,-0.00265078,0.619388,0.0303965,0.0455186,720,1513,-3.88699,-8.69268
-497,-489,-3.38556,9.44922,0.0175706,0.00560794,0.0128931,0.0258022,-0.00262367,0.568215,0.0181394,0.0414873,727,1513,-3.38555,-9.44927
-490,-489,-3.35754,9.70825,0.0106719,0.001232,0.00723398,0.0145896,-0.00268567,0.496343,0.0107342,0.0273154,734,1513,-3.35755,-9.70829
-483,-489,-3.43915,10.0216,0.00637717,-0.00114316,0.00387055,0.0080133,-0.00277928,0.399931,0.00647074,0.012555,741,1513,-3.43912,-10.0216
-476,-489,-3.42828,10.4333,0.0037208,-0.00224083,0.00175672,0.00419995,-0.00271998,0.266273,0.00402556,0.00896751,748,1513,-3.42828,-10.4333
-469,-489,-3.43542,10.8151,0.0015006,-0.00341359,-0.000362405,0.00152718,-0.00344018,-0.0732188,0.00293794,0.00992899,755,1513,-3.43545,-10.8151
-462,-489,-3.43646,11.212,0.000609572,-0.0034631,-0.00112221,0.000898322,-0.00375185,-0.251841,0.00284829,0.015504,762,1513,-3.43644,-11.2121
-455,-489,-3.47211,11.6218,0.000575813,-0.00305623,-0.00132231,0.00100622,-0.00348664,-0.31468,0.00272253,0.0195011,769,1513,-3.47208,-11.6218
-448,-489,-3.50055,12.0013,0.000700095,-0.00255823,-0.00156501,0.00133001,-0.00318815,-0.382658,0.00268108,0.0175011,776,1513,-3.50053,-12.0013
-441,-489,-3.46851,12.3929,0.00106378,-0.00205146,-0.00156255,0.00171245,-0.00270014,-0.393489,0.0025688,0.0155605,783,1513,-3.46852,-12.3929
-434,-489,-3.49225,12.7854,0.0015264,-0.00151646,-0.00152244,0.00215731,-0.00214737,-0.392864,0.00248531,0.0173774,790,1513,-3.49227,-12.7854
-427,-489,-3.49536,13.1837,0.00194565,-0.00105393,-0.00154968,0.00260245,-0.00171073,-0.400879,0.00250789,0.0186051,797,1513,-3.49534,-13.1838
-420,-489,-3.50244,13.6858,0.00243921,-0.000550273,-0.00143247,0.00301479,-0.00112585,-0.382065,0.00247213,0.0212586,804,1513,-3.50244,-13.6857
-413,-489,-3.47748,14.234,0,0,0,0,0,0,0,-1,811,1513,-3.47746,-14.234
-406,-489,-2.61365,14.45,0,0,0,0,0,0,0,-1,818,1513,-2.61365,-14.45
-399,-489,-1.41241,9.10718,0,0,0,0,0,0,0,-1,825,1513,-1.41244,-9.10722
-392,-489,-1.0368,9.30469,0,0,0,0,0,0,0,-1,832,1513,-1.03682,-9.30466
-385,-489,-1.75165,10.6559,0,0,0,0,0,0,0,-1,839,1513,-1.75165,-10.6559
-378,-489,-0.401428,9.87048,0,0,0,0,0,0,0,-1,846,1513,-0.401415,-9.87047
-371,-489,-1.11633,10.6606,0,0,0,0,0,0,0,-1,853,1513,-1.11633,-10.6606
-364,-489,-0.503113,8.98486,0,0,0,0,0,0,0,-1,860,1513,-0.503097,-8.98482
-357,-489,-0.609924,10.9606,0,0,0,0,0,0,0,-1,867,1513,-0.609947,-10.9605
-350,-489,-7.94659,-0.358887,0,0,0,0,0,0,0,-1,874,1513,-7.94657,0.358912
-343,-489,-7.49323,-0.437866,0,0,0,0,0,0,0,-1,881,1513,-7.49322,0.437823
-336,-489,-7.02332,-0.53125,0,0,0,0,0,0,0,-1,888,1513,-7.0233,0.531295
-329,-489,-6.70221,-0.242432,0,0,0,0,0,0,0,-1,895,1513,-6.70221,0.2424
-322,-489,0,0,0,0,0,0,0,0,0,-1,902,1513,0,0
-315,-489,0,0,0,0,0,0,0,0,0,-1,909,1513,0,0
-308,-489,0,0,0,0,0,0,0,0,0,-1,916,1513,0,0
-301,-489,0,0,0,0,0,0,0,0,0,-1,923,1513,0,0
-294,-489,0,0,0,0,0,0,0,0,0,-1,930,1513,0,0
-287,-489,0,0,0,0,0,0,0,0,0,-1,937,1513,0,0
-280,-489,0,0,0,0,0,0,0,0,0,-1,944,1513,0,0
-273,-489,0,0,0,0,0,0,0,0,0,-1,951,1513,0,0
-266,-489,0,0,0,0,0,0,0,0,0,-1,958,1513,0,0
-259,-489,0,0,0,0,0,0,0,0,0,-1,965,1513,0,0
-252,-489,0,0,0,0,0,0,0,0,0,-1,972,1513,0,0
-245,-489,0,0,0,0,0,0,0,0,0,-1,979,1513,0,0
-238,-489,0,0,0,0,0,0,0,0,0,-1,986,1513,0,0
-231,-489,0,0,0,0,0,0,0,0,0,-1,993,1513,0,0
-224,-489,0,0,0,0,0,0,0,0,0,-1,1000,1513,0,0
-217,-489,0,0,0,0,0,0,0,0,0,-1,1007,1513,0,0
-210,-489,0,0,0,0,0,0,0,0,0,-1,1014,1513,0,0
-203,-489,0,0,0,0,0,0,0,0,0,-1,1021,1513,0,0
-196,-489,0,0,0,0,0,0,0,0,0,-1,1028,1513,0,0
-189,-489,0,0,0,0,0,0,0,0,0,-1,1035,1513,0,0
-182,-489,0,0,0,0,0,0,0,0,0,-1,1042,1513,0,0
-175,-489,0,0,0,0,0,0,0,0,0,-1,1049,1513,0,0
-168,-489,0,0,0,0,0,0,0,0,0,-1,1056,1513,0,0
-161,-489,0,0,0,0,0,0,0,0,0,-1,1063,1513,0,0
-154,-489,0,0,0,0,0,0,0,0,0,-1,1070,1513,0,0
-147,-489,0,0,0,0,0,0,0,0,0,-1,1077,1513,0,0
-140,-489,0,0,0,0,0,0,0,0,0,-1,1084,1513,0,0
-133,-489,0,0,0,0,0,0,0,0,0,-1,1091,1513,0,0
-126,-489,0,0,0,0,0,0,0,0,0,-1,1098,1513,0,0
-119,-489,0,0,0,0,0,0,0,0,0,-1,1105,1513,0,0
-112,-489,0,0,0,0,0,0,0,0,0,-1,1112,1513,0,0
-105,-489,0,0,0,0,0,0,0,0,0,-1,1119,1513,0,0
-98,-489,0,0,0,0,0,0,0,0,0,-1,1126,1513,0,0
-91,-489,0,0,0,0,0,0,0,0,0,-1,1133,1513,0,0
-84,-489,0,0,0,0,0,0,0,0,0,-1,1140,1513,0,0
-77,-489,0,0,0,0,0,0,0,0,0,-1,1147,1513,0,0
-70,-489,0,0,0,0,0,0,0,0,0,-1,1154,1513,0,0
-63,-489,0,0,0,0,0,0,0,0,0,-1,1161,1513,0,0
-56,-489,0,0,0,0,0,0,0,0,0,-1,1168,1513,0,0
-49,-489,0,0,0,0,0,0,0,0,0,-1,1175,1513,0,0
-42,-489,0,0,0,0,0,0,0,0,0,-1,1182,1513,0,0
-35,-489,0,0,0,0,0,0,0,0,0,-1,1189,1513,0,0
-28,-489,0,0,0,0,0,0,0,0,0,-1,1196,1513,0,0
-21,-489,0,0,0,0,0,0,0,0,0,-1,1203,1513,0,0
-14,-489,0,0,0,0,0,0,0,0,0,-1,1210,1513,0,0
-7,-489,0,0,0,0,0,0,0,0,0,-1,1217,1513,0,0
0,-489,0,0,0,0,0,0,0,0,0,-1,1224,1513,0,0
7,-489,0,0,0,0,0,0,0,0,0,-1,1231,1513,0,0
14,-489,0,0,0,0,0,0,0,0,0,-1,1238,1513,0,0
21,-489,0,0,0,0,0,0,0,0,0,-1,1245,1513,0,0
28,-489,0,0,0,0,0,0,0,0,0,-1,1252,1513,0,0
35,-489,0,0,0,0,0,0,0,0,0,-1,1259,1513,0,0
42,-489,0,0,0,0,0,0,0,0,0,-1,1266,1513,0,0
49,-489,0,0,0,0,0,0,0,0,0,-1,1273,1513,0,0
56,-489,0,0,0,0,0,0,0,0,0,-1,1280,1513,0,0
63,-489,0,0,0,0,0,0,0,0,0,-1,1287,1513,0,0
70,-489,0,0,0,0,0,0,0,0,0,-1,1294,1513,0,0
77,-489,0,0,0,0,0,0,0,0,0,-1,1301,1513,0,0
84,-489,0,0,0,0,0,0,0,0,0,-1,1308,1513,0,0
91,-489,0,0,0,0,0,0,0,0,0,-1,1315,1513,0,0
98,-489,0,0,0,0,0,0,0,0,0,-1,1322,1513,0,0
105,-489,0,0,0,0,0,0,0,0,0,-1,1329,1513,0,0
112,-489,0,0,0,0,0,0,0,0,0,-1,1336,1513,0,0
119,-489,0,0,0,0,0,0,0,0,0,-1,1343,1513,0,0
126,-489,0,0,0,0,0,0,0,0,0,-1,1350,1513,0,0
133,-489,0,0,0,0,0,0,0,0,0,-1,1357,1513,0,0
140,-489,0,0,0,0,0,0,0,0,0,-1,1364,1513,0,0
147,-489,0,0,0,0,0,0,0,0,0,-1,1371,1513,0,0
154,-489,0,0,0,0,0,0,0,0,0,-1,1378,1513,0,0
161,-489,0,0,0,0,0,0,0,0,0,-1,1385,1513,0,0
168,-489,0,0,0,0,0,0,0,0,0,-1,1392,1513,0,0
175,-489,0,0,0,0,0,0,0,0,0,-1,1399,1513,0,0
182,-489,0,0,0,0,0,0,0,0,0,-1,1406,1513,0,0
189,-489,0,0,0,0,0,0,0,0,0,-1,1413,1513,0,0
196,-489,0,0,0,0,0,0,0,0,0,-1,1420,1513,0,0
203,-489,0,0,0,0,0,0,0,0,0,-1,1427,1513,0,0
210,-489,0,0,0,0,0,0,0,0,0,-1,1434,1513,0,0
217,-489,0,0,0,0,0,0,0,0,0,-1,1441,1513,0,0
224,-489,0,0,0,0,0,0,0,0,0,-1,1448,1513,0,0
231,-489,0,0,0,0,0,0,0,0,0,-1,1455,1513,0,0
238,-489,0,0,0,0,0,0,0,0,0,-1,1462,1513,0,0
245,-489,0,0,0,0,0,0,0,0,0,-1,1469,1513,0,0
252,-489,0,0,0,0,0,0,0,0,0,-1,1476,1513,0,0
259,-489,0,0,0,0,0,0,0,0,0,-1,1483,1513,0,0
266,-489,0,0,0,0,0,0,0,0,0,-1,1490,1513,0,0
273,-489,0,0,0,0,0,0,0,0,0,-1,1497,1513,0,0
280,-489,0,0,0,0,0,0,0,0,0,-1,1504,1513,0,0
287,-489,0,0,0,0,0,0,0,0,0,-1,1511,1513,0,0
294,-489,0,0,0,0,0,0,0,0,0,-1,1518,1513,0,0
301,-489,0,0,0,0,0,0,0,0,0,-1,1525,1513,0,0
308,-489,0,0,0,0,0,0,0,0,0,-1,1532,1513,0,0
315,-489,0,0,0,0,0,0,0,0,0,-1,1539,1513,0,0
322,-489,0,0,0,0,0,0,0,0,0,-1,1546,1513,0,0
329,-489,0,0,0,0,0,0,0,0,0,-1,1553,1513,0,0
336,-489,0,0,0,0,0,0,0,0,0,-1,1560,1513,0,0
343,-489,0,0,0,0,0,0,0,0,0,-1,1567,1513,0,0
350,-489,0,0,0,0,0,0,0,0,0,-1,1574,1513,0,0
357,-489,0,0,0,0,0,0,0,0,0,-1,1581,1513,0,0
364,-489,0,0,0,0,0,0,0,0,0,-1,1588,1513,0,0
371,-489,0,0,0,0,0,0,0,0,0,-1,1595,1513,0,0
378,-489,0,0,0,0,0,0,0,0,0,-1,1602,1513,0,0
385,-489,0,0,0,0,0,0,0,0,0,-1,1609,1513,0,0
392,-489,0,0,0,0,0,0,0,0,0,-1,1616,1513,0,0
399,-489,0,0,0,0,0,0,0,0,0,-1,1623,1513,0,0
406,-489,0,0,0,0,0,0,0,0,0,-1,1630,1513,0,0
413,-489,0,0,0,0,0,0,0,0,0,-1,1637,1513,0,0
420,-489,0,0,0,0,0,0,0,0,0,-1,1644,1513,0,0
427,-489,0,0,0,0,0,0,0,0,0,-1,1651,1513,0,0
434,-489,0,0,0,0,0,0,0,0,0,-1,1658,1513,0,0
441,-489,11.4602,2.56787,0,0,0,0,0,0,0,-1,1665,1513,11.4602,-2.56786
448,-489,12.4425,1.72351,0,0,0,0,0,0,0,-1,1672,1513,12.4425,-1.72349
455,-489,12.5575,1.37463,0,0,0,0,0,0,0,-1,1679,1513,12.5575,-1.37469
462,-489,14.9784,3.84888,0,0,0,0,0,0,0,-1,1686,1513,14.9784,-3.84892
469,-489,15.1367,4.53101,0,0,0,0,0,0,0,-1,1693,1513,15.1368,-4.531
476,-489,15.5536,5.09338,0,0,0,0,0,0,0,-1,1700,1513,15.5536,-5.09339
483,-489,8.96912,8.37805,0,0,0,0,0,0,0,-1,1707,1513,8.96909,-8.37809
490,-489,10.5366,7.49561,0,0,0,0,0,0,0,-1,1714,1513,10.5367,-7.49558
497,-489,14.6051,11.8397,0,0,0,0,0,0,0,-1,1721,1513,14.6051,-11.8397
504,-489,16.7527,14.1735,0,0,0,0,0,0,0,-1,1728,1513,16.7527,-14.1735
511,-489,17.83,17.7993,0,0,0,0,0,0,0,-1,1735,1513,17.83,-17.7993
518,-489,16.4751,14.3682,0,0,0,0,0,0,0,-1,1742,1513,16.4751,-14.3682
525,-489,15.7897,15.9493,0,0,0,0,0,0,0,-1,1749,1513,15.7897,-15.9493
532,-489,15.756,15.662,-0.0188082,0.00187411,0.0176254,0.0119681,-0.0289022,1.0507,0.0242623,0.0450132,1756,1513,15.756,-15.662
539,-489,15.532,15.6323,-0.0146653,0.00160636,0.0134414,0.00918241,-0.0222413,1.05754,0.0186574,0.0214418,1763,1513,15.532,-15.6323
546,-489,15.4421,15.4025,-0.0111982,0.00140365,0.0100006,0.00692274,-0.0167173,1.06651,0.0140337,0.014814,1770,1513,15.4422,-15.4025
553,-489,15.4542,15.0054,-0.00831779,0.000980403,0.00732008,0.00500296,-0.0123404,1.06832,0.0103075,0.0168197,1777,1513,15.4542,-15.0053
560,-489,15.4651,14.6288,-0.00584386,0.000726778,0.0050567,0.00347167,-0.00858876,1.07348,0.00716897,0.0140093,1784,1513,15.465,-14.6287
567,-489,15.4673,14.2839,-0.00370787,0.000511129,0.00320767,0.00224078,-0.00543753,1.07626,0.00455935,0.0150093,1791,1513,15.4673,-14.2839
574,-489,15.4379,13.9624,-0.00195939,0.000404604,0.0017742,0.00135449,-0.00290927,1.07924,0.00251565,0.0152132,1798,1513,15.4379,-13.9624
581,-489,15.4513,13.5822,-0.000471028,0.0003453,0.000628559,0.000686592,-0.000812319,1.07336,0.000866411,0.0106445,1805,1513,15.4512,-13.5822
588,-489,15.4224,13.2344,0.000954026,0.000209308,-0.000443671,0.00116089,2.44711e-06,-0.436283,0.00077311,0.0132425,1812,1513,15.4223,-13.2344
595,-489,15.4259,12.8663,0.00201506,8.02837e-05,-0.000970876,0.00241823,-0.000322891,-0.393599,0.00172986,0.0198394,1819,1513,15.426,-12.8663
602,-489,15.4335,12.4764,0.00266247,-0.000151958,-0.00118671,0.00309605,-0.00058554,-0.350297,0.00228437,0.0237394,1826,1513,15.4335,-12.4764
609,-489,15.4246,12.1069,0.003055,-0.000450683,-0.00126441,0.00346345,-0.000859135,-0.312456,0.00264232,0.0162958,1833,1513,15.4245,-12.1069
616,-489,15.4248,11.7286,0.0035483,-0.00095645,-0.0012577,0.00387566,-0.0012838,-0.25463,0.00310157,0.0130454,1840,1513,15.4248,-11.7287
623,-489,15.4188,11.3872,0.00409616,-0.00170115,-0.00111542,0.00430336,-0.00190835,-0.183669,0.00367412,0.023733,1847,1513,15.4188,-11.3872
630,-489,15.4303,10.9811,0,0,0,0,0,0,0,-1,1854,1513,15.4303,-10.981
637,-489,15.7045,11.0229,0,0,0,0,0,0,0,-1,1861,1513,15.7045,-11.023
644,-489,9.67578,8.45874,0,0,0,0,0,0,0,-1,1868,1513,9.67576,-8.45879
651,-489,6.13818,6.85095,0,0,0,0,0,0,0,-1,1875,1513,6.13823,-6.85097
658,-489,5.43848,7.75513,0,0,0,0,0,0,0,-1,1882,1513,5.43844,-7.75509
665,-489,5.48438,8.59912,0,0,0,0,0,0,0,-1,1889,1513,5.48434,-8.59907
672,-489,0,0,0,0,0,0,0,0,0,-1,1896,1513,0,0
679,-489,0,0,0,0,0,0,0,0,0,-1,1903,1513,0,0
686,-489,0,0,0,0,0,0,0,0,0,-1,1910,1513,0,0
693,-489,0,0,0,0,0,0,0,0,0,-1,1917,1513,0,0
700,-489,0,0,0,0,0,0,0,0,0,-1,1924,1513,0,0
707,-489,0,0,0,0,0,0,0,0,0,-1,1931,1513,0,0
714,-489,0,0,0,0,0,0,0,0,0,-1,1938,1513,0,0
721,-489,0,0,0,0,0,0,0,0,0,-1,1945,1513,0,0
728,-489,0,0,0,0,0,0,0,0,0,-1,1952,1513,0,0
735,-489,0,0,0,0,0,0,0,0,0,-1,1959,1513,0,0
742,-489,0,0,0,0,0,0,0,0,0,-1,1966,1513,0,0
749,-489,0,0,0,0,0,0,0,0,0,-1,1973,1513,0,0
756,-489,0,0,0,0,0,0,0,0,0,-1,1980,1513,0,0
763,-489,0,0,0,0,0,0,0,0,0,-1,1987,1513,0,0
770,-489,0,0,0,0,0,0,0,0,0,-1,1994,1513,0,0
777,-489,0,0,0,0,0,0,0,0,0,-1,2001,1513,0,0
784,-489,0,0,0,0,0,0,0,0,0,-1,2008,1513,0,0
791,-489,0,0,0,0,0,0,0,0,0,-1,2015,1513,0,0
798,-489,0,0,0,0,0,0,0,0,0,-1,2022,1513,0,0
805,-489,0,0,0,0,0,0,0,0,0,-1,2029,1513,0,0
812,-489,0,0,0,0,0,0,0,0,0,-1,2036,1513,0,0
-700,-496,0,0,0,0,0,0,0,0,0,-1,524,1520,0,0
-693,-496,0,0,0,0,0,0,0,0,0,-1,531,1520,0,0
-686,-496,0,0,0,0,0,0,0,0,0,-1,538,1520,0,0
-679,-496,0,0,0,0,0,0,0,0,0,-1,545,1520,0,0
-672,-496,0,0,0,0,0,0,0,0,0,-1,552,1520,0,0
-665,-496,0,0,0,0,0,0,0,0,0,-1,559,1520,0,0
-658,-496,0,0,0,0,0,0,0,0,0,-1,566,1520,0,0
-651,-496,0,0,0,0,0,0,0,0,0,-1,573,1520,0,0
-644,-496,0,0,0,0,0,0,0,0,0,-1,580,1520,0,0
-637,-496,0,0,0,0,0,0,0,0,0,-1,587,1520,0,0
-630,-496,0,0,0,0,0,0,0,0,0,-1,594,1520,0,0
-623,-496,0,0,0,0,0,0,0,0,0,-1,601,1520,0,0
-616,-496,0,0,0,0,0,0,0,0,0,-1,608,1520,0,0
-609,-496,0,0,0,0,0,0,0,0,0,-1,615,1520,0,0
-602,-496,0,0,0,0,0,0,0,0,0,-1,622,1520,0,0
-595,-496,0,0,0,0,0,0,0,0,0,-1,629,1520,0,0
-588,-496,0,0,0,0,0,0,0,0,0,-1,636,1520,0,0
-581,-496,0,0,0,0,0,0,0,0,0,-1,643,1520,0,0
-574,-496,0,0,0,0,0,0,0,0,0,-1,650,1520,0,0
-567,-496,0,0,0,0,0,0,0,0,0,-1,657,1520,0,0
-560,-496,0,0,0,0,0,0,0,0,0,-1,664,1520,0,0
-553,-496,0,0,0,0,0,0,0,0,0,-1,671,1520,0,0
-546,-496,-8.09711,7.94836,0,0,0,0,0,0,0,-1,678,1520,-8.09712,-7.94842
-539,-496,-3.20129,1.16052,0,0,0,0,0,0,0,-1,685,1520,-3.20131,-1.16054
-532,-496,-2.98279,2.62146,0,0,0,0,0,0,0,-1,692,1520,-2.98278,-2.62151
-525,-496,-2.75201,4.08032,0,0,0,0,0,0,0,-1,699,1520,-2.75201,-4.08031
-518,-496,-2.6333,5.36072,0,0,0,0,0,0,0,-1,706,1520,-2.63328,-5.36077
-511,-496,-5.47473,8.00757,0,0,0,0,0,0,0,-1,713,1520,-5.47471,-8.00762
-504,-496,-2.99561,9.02185,0,0,0,0,0,0,0,-1,720,1520,-2.99561,-9.02188
-497,-496,-2.8576,9.349,0.0177574,0.00270446,0.0120435,0.0244328,-0.00397095,0.50612,0.0177607,0.0475403,727,1520,-2.85761,-9.34903
-490,-496,-2.862,9.82776,0.0105893,-0.00130049,0.00635275,0.013345,-0.00405612,0.409275,0.0105128,0.0390352,734,1520,-2.86199,-9.82773
-483,-496,-3.00995,10.126,0.0063461,-0.00315502,0.00316789,0.00730547,-0.00411439,0.294063,0.00667851,0.0227547,741,1520,-3.00993,-10.1259
-476,-496,-3.08264,10.4475,0.00390618,-0.00363904,0.00138048,0.00415082,-0.00388368,0.175394,0.00463957,0.0122261,748,1520,-3.08267,-10.4475
-469,-496,-3.07245,10.832,0.00191843,-0.00426231,-0.000419297,0.00194674,-0.00429063,-0.0674275,0.00368493,0.00993622,755,1520,-3.07247,-10.832
-462,-496,-3.07593,11.2295,0.00125226,-0.0038709,-0.00087671,0.00139814,-0.00401678,-0.164878,0.00324587,0.0141248,762,1520,-3.07593,-11.2295
-455,-496,-3.11108,11.6224,0.00135563,-0.00309508,-0.000807275,0.00149753,-0.00323698,-0.174,0.00279429,0.018994,769,1520,-3.11108,-11.6225
-448,-496,-3.10931,12.0278,0.00153256,-0.00230395,-0.000800329,0.00169282,-0.00246421,-0.19763,0.0024138,0.0183531,776,1520,-3.10934,-12.0279
-441,-496,-3.08197,12.4116,0.00193309,-0.00152298,-0.000504781,0.00200531,-0.0015952,-0.142102,0.00208324,0.0142453,783,1520,-3.08195,-12.4116
-434,-496,-3.09631,12.7892,0.00245926,-0.0006554,-0.000113587,0.0024634,-0.000659537,-0.036404,0.00190064,0.0129218,790,1520,-3.09633,-12.7892
-427,-496,-3.09192,13.1964,0.00293107,0.000113315,0.000259778,0.00295482,8.95651e-05,0.0911692,0.00194072,0.016899,797,1520,-3.09192,-13.1964
-420,-496,-3.08826,13.5759,0.00345763,0.000857399,0.000755016,0.00366096,0.000654069,0.263065,0.00225447,0.0181053,804,1520,-3.08829,-13.576
-413,-496,-3.03583,13.9923,0.00421115,0.00171183,0.0016429,0.00502565,0.000897327,0.460259,0.003095,0.0232638,811,1520,-3.03584,-13.9923
-406,-496,-2.93488,14.5587,0,0,0,0,0,0,0,-1,818,1520,-2.93486,-14.5588
-399,-496,-2.67859,15.1969,0,0,0,0,0,0,0,-1,825,1520,-2.67862,-15.1969
-392,-496,-1.49786,12.387,0,0,0,0,0,0,0,-1,832,1520,-1.49788,-12.387
-385,-496,-1.72437,11.4985,0,0,0,0,0,0,0,-1,839,1520,-1.72436,-11.4985
-378,-496,-1.45532,14.0719,0,0,0,0,0,0,0,-1,846,1520,-1.45533,-14.0719
-371,-496,0.0877075,12.5299,0,0,0,0,0,0,0,-1,853,1520,0.0876896,-12.5299
-364,-496,0.0881348,10.6422,0,0,0,0,0,0,0,-1,860,1520,0.0881368,-10.6423
-357,-496,0.323792,7.56812,0,0,0,0,0,0,0,-1,867,1520,0.323782,-7.56806
-350,-496,2.1535,7.18945,0,0,0,0,0,0,0,-1,874,1520,2.15348,-7.1894
-343,-496,-7.56244,0.335327,0,0,0,0,0,0,0,-1,881,1520,-7.56242,-0.335322
-336,-496,-3.99249,6.02222,0,0,0,0,0,0,0,-1,888,1520,-3.99246,-6.0222
-329,-496,-6.93689,-0.100342,0,0,0,0,0,0,0,-1,895,1520,-6.93686,0.1003
-322,-496,-6.17505,0.494385,0,0,0,0,0,0,0,-1,902,1520,-6.17507,-0.49437
-315,-496,-5.18719,3.4032,0,0,0,0,0,0,0,-1,909,1520,-5.18717,-3.40318
-308,-496,0,0,0,0,0,0,0,0,0,-1,916,1520,0,0
-301,-496,0,0,0,0,0,0,0,0,0,-1,923,1520,0,0
-294,-496,0,0,0,0,0,0,0,0,0,-1,930,1520,0,0
-287,-496,0,0,0,0,0,0,0,0,0,-1,937,1520,0,0
-280,-496,0,0,0,0,0,0,0,0,0,-1,944,1520,0,0
-273,-496,0,0,0,0,0,0,0,0,0,-1,951,1520,0,0
-266,-496,0,0,0,0,0,0,0,0,0,-1,958,1520,0,0
-259,-496,0,0,0,0,0,0,0,0,0,-1,965,1520,0,0
-252,-496,0,0,0,0,0,0,0,0,0,-1,972,1520,0,0
-245,-496,0,0,0,0,0,0,0,0,0,-1,979,1520,0,0
-238,-496,0,0,0,0,0,0,0,0,0,-1,986,1520,0,0
-231,-496,0,0,0,0,0,0,0,0,0,-1,993,1520,0,0
-224,-496,0,0,0,0,0,0,0,0,0,-1,1000,1520,0,0
-217,-496,0,0,0,0,0,0,0,0,0,-1,1007,1520,0,0
-210,-496,0,0,0,0,0,0,0,0,0,-1,1014,1520,0,0
-203,-496,0,0,0,0,0,0,0,0,0,-1,1021,1520,0,0
-196,-496,0,0,0,0,0,0,0,0,0,-1,1028,1520,0,0
-189,-496,0,0,0,0,0,0,0,0,0,-1,1035,1520,0,0
-182,-496,0,0,0,0,0,0,0,0,0,-1,1042,1520,0,0
-175,-496,0,0,0,0,0,0,0,0,0,-1,1049,1520,0,0
-168,-496,0,0,0,0,0,0,0,0,0,-1,1056,1520,0,0
-161,-496,0,0,0,0,0,0,0,0,0,-1,1063,1520,0,0
-154,-496,0,0,0,0,0,0,0,0,0,-1,1070,1520,0,0
-147,-496,0,0,0,0,0,0,0,0,0,-1,1077,1520,0,0
-140,-496,0,0,0,0,0,0,0,0,0,-1,1084,1520,0,0
-133,-496,0,0,0,0,0,0,0,0,0,-1,1091,1520,0,0
-126,-496,0,0,0,0,0,0,0,0,0,-1,1098,1520,0,0
-119,-496,0,0,0,0,0,0,0,0,0,-1,1105,1520,0,0
-112,-496,0,0,0,0,0,0,0,0,0,-1,1112,1520,0,0
-105,-496,0,0,0,0,0,0,0,0,0,-1,1119,1520,0,0
-98,-496,0,0,0,0,0,0,0,0,0,-1,1126,1520,0,0
-91,-496,0,0,0,0,0,0,0,0,0,-1,1133,1520,0,0
-84,-496,0,0,0,0,0,0,0,0,0,-1,1140,1520,0,0
-77,-496,0,0,0,0,0,0,0,0,0,-1,1147,1520,0,0
-70,-496,0,0,0,0,0,0,0,0,0,-1,1154,1520,0,0
-63,-496,0,0,0,0,0,0,0,0,0,-1,1161,1520,0,0
-56,-496,0,0,0,0,0,0,0,0,0,-1,1168,1520,0,0
-49,-496,0,0,0,0,0,0,0,0,0,-1,1175,1520,0,0
-42,-496,0,0,0,0,0,0,0,0,0,-1,1182,1520,0,0
-35,-496,0,0,0,0,0,0,0,0,0,-1,1189,1520,0,0
-28,-496,0,0,0,0,0,0,0,0,0,-1,1196,1520,0,0
-21,-496,0,0,0,0,0,0,0,0,0,-1,1203,1520,0,0
-14,-496,0,0,0,0,0,0,0,0,0,-1,1210,1520,0,0
-7,-496,0,0,0,0,0,0,0,0,0,-1,1217,1520,0,0
0,-496,0,0,0,0,0,0,0,0,0,-1,1224,1520,0,0
7,-496,0,0,0,0,0,0,0,0,0,-1,1231,1520,0,0
14,-496,0,0,0,0,0,0,0,0,0,-1,1238,1520,0,0
21,-496,0,0,0,0,0,0,0,0,0,-1,1245,1520,0,0
28,-496,0,0,0,0,0,0,0,0,0,-1,1252,1520,0,0
35,-496,0,0,0,0,0,0,0,0,0,-1,1259,1520,0,0
42,-496,0,0,0,0,0,0,0,0,0,-1,1266,1520,0,0
49,-496,0,0,0,0,0,0,0,0,0,-1,1273,1520,0,0
56,-496,0,0,0,0,0,0,0,0,0,-1,1280,1520,0,0
63,-496,0,0,0,0,0,0,0,0,0,-1,1287,1520,0,0
70,-496,0,0,0,0,0,0,0,0,0,-1,1294,1520,0,0
77,-496,0,0,0,0,0,0,0,0,0,-1,1301,1520,0,0
84,-496,0,0,0,0,0,0,0,0,0,-1,1308,1520,0,0
91,-496,0,0,0,0,0,0,0,0,0,-1,1315,1520,0,0
98,-496,0,0,0,0,0,0,0,0,0,-1,1322,1520,0,0
105,-496,0,0,0,0,0,0,0,0,0,-1,1329,1520,0,0
112,-496,0,0,0,0,0,0,0,0,0,-1,1336,1520,0,0
119,-496,0,0,0,0,0,0,0,0,0,-1,1343,1520,0,0
126,-496,0,0,0,0,0,0,0,0,0,-1,1350,1520,0,0
133,-496,0,0,0,0,0,0,0,0,0,-1,1357,1520,0,0
140,-496,0,0,0,0,0,0,0,0,0,-1,1364,1520,0,0
147,-496,0,0,0,0,0,0,0,0,0,-1,1371,1520,0,0
154,-496,0,0,0,0,0,0,0,0,0,-1,1378,1520,0,0
161,-496,0,0,0,0,0,0,0,0,0,-1,1385,1520,0,0
168,-496,0,0,0,0,0,0,0,0,0,-1,1392,1520,0,0
175,-496,0,0,0,0,0,0,0,0,0,-1,1399,1520,0,0
182,-496,0,0,0,0,0,0,0,0,0,-1,1406,1520,0,0
189,-496,0,0,0,0,0,0,0,0,0,-1,1413,1520,0,0
196,-496,0,0,0,0,0,0,0,0,0,-1,1420,1520,0,0
203,-496,0,0,0,0,0,0,0,0,0,-1,1427,1520,0,0
210,-496,0,0,0,0,0,0,0,0,0,-1,1434,1520,0,0
217,-496,0,0,0,0,0,0,0,0,0,-1,1441,1520,0,0
224,-496,0,0,0,0,0,0,0,0,0,-1,1448,1520,0,0
231,-496,0,0,0,0,0,0,0,0,0,-1,1455,1520,0,0
238,-496,0,0,0,0,0,0,0,0,0,-1,1462,1520,0,0
245,-496,0,0,0,0,0,0,0,0,0,-1,1469,1520,0,0
252,-496,0,0,0,0,0,0,0,0,0,-1,1476,1520,0,0
259,-496,0,0,0,0,0,0,0,0,0,-1,1483,1520,0,0
266,-496,0,0,0,0,0,0,0,0,0,-1,1490,1520,0,0
273,-496,0,0,0,0,0,0,0,0,0,-1,1497,1520,0,0
280,-496,0,0,0,0,0,0,0,0,0,-1,1504,1520,0,0
287,-496,0,0,0,0,0,0,0,0,0,-1,1511,1520,0,0
294,-496,0,0,0,0,0,0,0,0,0,-1,1518,1520,0,0
301,-496,0,0,0,0,0,0,0,0,0,-1,1525,1520,0,0
308,-496,0,0,0,0,0,0,0,0,0,-1,1532,1520,0,0
315,-496,0,0,0,0,0,0,0,0,0,-1,1539,1520,0,0
322,-496,0,0,0,0,0,0,0,0,0,-1,1546,1520,0,0
329,-496,0,0,0,0,0,0,0,0,0,-1,1553,1520,0,0
336,-496,0,0,0,0,0,0,0,0,0,-1,1560,1520,0,0
343,-496,0,0,0,0,0,0,0,0,0,-1,1567,1520,0,0
350,-496,0,0,0,0,0,0,0,0,0,-1,1574,1520,0,0
357,-496,0,0,0,0,0,0,0,0,0,-1,1581,1520,0,0
364,-496,0,0,0,0,0,0,0,0,0,-1,1588,1520,0,0
371,-496,0,0,0,0,0,0,0,0,0,-1,1595,1520,0,0
378,-496,0,0,0,0,0,0,0,0,0,-1,1602,1520,0,0
385,-496,0,0,0,0,0,0,0,0,0,-1,1609,1520,0,0
392,-496,0,0,0,0,0,0,0,0,0,-1,1616,1520,0,0
399,-496,0,0,0,0,0,0,0,0,0,-1,1623,1520,0,0
406,-496,0,0,0,0,0,0,0,0,0,-1,1630,1520,0,0
413,-496,0,0,0,0,0,0,0,0,0,-1,1637,1520,0,0
420,-496,0,0,0,0,0,0,0,0,0,-1,1644,1520,0,0
427,-496,0,0,0,0,0,0,0,0,0,-1,1651,1520,0,0
434,-496,11.0457,3.37732,0,0,0,0,0,0,0,-1,1658,1520,11.0456,-3.37736
441,-496,11.788,2.75488,0,0,0,0,0,0,0,-1,1665,1520,11.7879,-2.75485
448,-496,12.2146,2.18494,0,0,0,0,0,0,0,-1,1672,1520,12.2146,-2.18489
455,-496,12.3489,1.65173,0,0,0,0,0,0,0,-1,1679,1520,12.3489,-1.65178
462,-496,12.1912,1.32361,0,0,0,0,0,0,0,-1,1686,1520,12.1911,-1.32357
469,-496,14.8138,5.77954,0,0,0,0,0,0,0,-1,1693,1520,14.8138,-5.77958
476,-496,15.2449,6.27942,0,0,0,0,0,0,0,-1,1700,1520,15.2449,-6.27936
483,-496,9.19812,6.88367,0,0,0,0,0,0,0,-1,1707,1520,9.19812,-6.88361
490,-496,10.2123,7.97144,0,0,0,0,0,0,0,-1,1714,1520,10.2122,-7.97145
497,-496,13.9297,12.2981,0,0,0,0,0,0,0,-1,1721,1520,13.9297,-12.2982
504,-496,16.3271,16.6501,0,0,0,0,0,0,0,-1,1728,1520,16.3272,-16.6502
511,-496,16.7263,17.4911,0,0,0,0,0,0,0,-1,1735,1520,16.7263,-17.4911
518,-496,16.0439,16.2972,0,0,0,0,0,0,0,-1,1742,1520,16.044,-16.2972
525,-496,14.8324,16.1927,0,0,0,0,0,0,0,-1,1749,1520,14.8324,-16.1927
532,-496,15.1215,15.9697,-0.0132638,0.00146162,0.0128662,0.00892282,-0.020725,1.04528,0.0175635,0.0384143,1756,1520,15.1215,-15.9698
539,-496,15.1173,15.7334,-0.0103033,0.00140897,0.00986931,0.00702878,-0.0159231,1.05316,0.0135789,0.0175391,1763,1520,15.1173,-15.7334
546,-496,15.0704,15.3506,-0.00774268,0.0013013,0.00729843,0.00536508,-0.0118065,1.06275,0.0101438,0.011562,1770,1520,15.0704,-15.3505
553,-496,15.1178,14.9712,-0.00563885,0.000907387,0.00531904,0.00387971,-0.00861118,1.06122,0.00738206,0.0162658,1777,1520,15.1178,-14.9711
560,-496,15.1229,14.6342,-0.00378283,0.00068686,0.00358331,0.00267512,-0.0057711,1.06422,0.00498443,0.0146849,1784,1520,15.1229,-14.6342
567,-496,15.1007,14.2797,-0.00211333,0.000479919,0.0021235,0.00167136,-0.00330477,1.05949,0.00292411,0.0112712,1791,1520,15.1007,-14.2796
574,-496,15.0948,13.9382,-0.000698576,0.000401282,0.000944718,0.000944474,-0.00124177,1.04898,0.00126611,0.0115808,1798,1520,15.0948,-13.9382
581,-496,15.0917,13.6045,0.00059143,0.000365697,-4.44736e-05,0.000599876,0.000357251,-0.187678,0.00034844,0.0127214,1805,1520,15.0917,-13.6044
588,-496,15.0935,13.2577,0.00181921,0.000230919,-0.000900082,0.0022254,-0.000175275,-0.423922,0.00154534,0.0161865,1812,1520,15.0935,-13.2577
595,-496,15.0708,12.8945,0.00275768,0.000165462,-0.00133693,0.00332363,-0.00040049,-0.400449,0.0023606,0.0174226,1819,1520,15.0708,-12.8946
602,-496,15.0598,12.4918,0.00342593,-2.55971e-05,-0.00162475,0.00407042,-0.000670084,-0.37763,0.00296235,0.0171852,1826,1520,15.0599,-12.4919
609,-496,15.0679,12.1082,0.00392416,-0.000286426,-0.00181734,0.00460005,-0.000962316,-0.356061,0.00343273,0.0150174,1833,1520,15.0679,-12.1082
616,-496,15.09,11.6942,0.0046278,-0.00076998,-0.00196267,0.00526598,-0.00140816,-0.314378,0.00406223,0.023249,1840,1520,15.09,-11.6942
623,-496,15.0851,11.4064,0.00550439,-0.00150085,-0.00200243,0.00603638,-0.00203284,-0.259673,0.00484613,0.0387274,1847,1520,15.0851,-11.4064
630,-496,15.2361,11.0974,0,0,0,0,0,0,0,-1,1854,1520,15.2361,-11.0975
637,-496,13.8105,9.92615,0,0,0,0,0,0,0,-1,1861,1520,13.8105,-9.92612
644,-496,12.4537,10.087,0,0,0,0,0,0,0,-1,1868,1520,12.4537,-10.0871
651,-496,8.18506,5.47803,0,0,0,0,0,0,0,-1,1875,1520,8.18505,-5.47806
658,-496,7.79993,4.02563,0,0,0,0,0,0,0,-1,1882,1520,7.79997,-4.02568
665,-496,5.47583,7.90625,0,0,0,0,0,0,0,-1,1889,1520,5.47581,-7.90628
672,-496,0,0,0,0,0,0,0,0,0,-1,1896,1520,0,0
679,-496,0,0,0,0,0,0,0,0,0,-1,1903,1520,0,0
686,-496,0,0,0,0,0,0,0,0,0,-1,1910,1520,0,0
693,-496,0,0,0,0,0,0,0,0,0,-1,1917,1520,0,0
700,-496,0,0,0,0,0,0,0,0,0,-1,1924,1520,0,0
707,-496,0,0,0,0,0,0,0,0,0,-1,1931,1520,0,0
714,-496,0,0,0,0,0,0,0,0,0,-1,1938,1520,0,0
721,-496,0,0,0,0,0,0,0,0,0,-1,1945,1520,0,0
728,-496,0,0,0,0,0,0,0,0,0,-1,1952,1520,0,0
735,-496,0,0,0,0,0,0,0,0,0,-1,1959,1520,0,0
742,-496,0,0,0,0,0,0,0,0,0,-1,1966,1520,0,0
749,-496,0,0,0,0,0,0,0,0,0,-1,1973,1520,0,0
756,-496,0,0,0,0,0,0,0,0,0,-1,1980,1520,0,0
763,-496,0,0,0,0,0,0,0,0,0,-1,1987,1520,0,0
770,-496,0,0,0,0,0,0,0,0,0,-1,1994,1520,0,0
777,-496,0,0,0,0,0,0,0,0,0,-1,2001,1520,0,0
784,-496,0,0,0,0,0,0,0,0,0,-1,2008,1520,0,0
791,-496,0,0,0,0,0,0,0,0,0,-1,2015,1520,0,0
798,-496,0,0,0,0,0,0,0,0,0,-1,2022,1520,0,0
805,-496,0,0,0,0,0,0,0,0,0,-1,2029,1520,0,0
812,-496,0,0,0,0,0,0,0,0,0,-1,2036,1520,0,0
-700,-503,0,0,0,0,0,0,0,0,0,-1,524,1527,0,0
-693,-503,0,0,0,0,0,0,0,0,0,-1,531,1527,0,0
-686,-503,0,0,0,0,0,0,0,0,0,-1,538,1527,0,0
-679,-503,0,0,0,0,0,0,0,0,0,-1,545,1527,0,0
-672,-503,0,0,0,0,0,0,0,0,0,-1,552,1527,0,0
-665,-503,0,0,0,0,0,0,0,0,0,-1,559,1527,0,0
-658,-503,0,0,0,0,0,0,0,0,0,-1,566,1527,0,0
-651,-503,0,0,0,0,0,0,0,0,0,-1,573,1527,0,0
-644,-503,0,0,0,0,0,0,0,0,0,-1,580,1527,0,0
-637,-503,0,0,0,0,0,0,0,0,0,-1,587,1527,0,0
-630,-503,0,0,0,0,0,0,0,0,0,-1,594,1527,0,0
-623,-503,0,0,0,0,0,0,0,0,0,-1,601,1527,0,0
-616,-503,0,0,0,0,0,0,0,0,0,-1,608,1527,0,0
-609,-503,0,0,0,0,0,0,0,0,0,-1,615,1527,0,0
-602,-503,0,0,0,0,0,0,0,0,0,-1,622,1527,0,0
-595,-503,0,0,0,0,0,0,0,0,0,-1,629,1527,0,0
-588,-503,0,0,0,0,0,0,0,0,0,-1,636,1527,0,0
-581,-503,0,0,0,0,0,0,0,0,0,-1,643,1527,0,0
-574,-503,0,0,0,0,0,0,0,0,0,-1,650,1527,0,0
-567,-503,0,0,0,0,0,0,0,0,0,-1,657,1527,0,0
-560,-503,0,0,0,0,0,0,0,0,0,-1,664,1527,0,0
-553,-503,0,0,0,0,0,0,0,0,0,-1,671,1527,0,0
-546,-503,0,0,0,0,0,0,0,0,0,-1,678,1527,0,0
-539,-503,3.50177,4.26428,0,0,0,0,0,0,0,-1,685,1527,3.50177,-4.26424
-532,-503,-3.13196,1.05298,0,0,0,0,0,0,0,-1,692,1527,-3.13194,-1.05299
-525,-503,-2.94293,2.59314,0,0,0,0,0,0,0,-1,699,1527,-2.94296,-2.59314
-518,-503,-2.7395,4.05872,0,0,0,0,0,0,0,-1,706,1527,-2.73948,-4.05871
-511,-503,-2.46967,5.46399,0,0,0,0,0,0,0,-1,713,1527,-2.46967,-5.46394
-504,-503,-2.26831,7.44678,0,0,0,0,0,0,0,-1,720,1527,-2.26831,-7.44684
-497,-503,-2.23871,9.21631,0,0,0,0,0,0,0,-1,727,1527,-2.23868,-9.21627
-490,-503,-2.26025,10.0316,0.0103873,-0.00438339,0.00543216,0.0121699,-0.00616602,0.317089,0.0107738,0.0455355,734,1527,-2.26028,-10.0316
-483,-503,-2.49219,10.3041,0.00625731,-0.0054669,0.00246354,0.00675393,-0.00596351,0.198919,0.00734714,0.0405978,741,1527,-2.49218,-10.3041
-476,-503,-2.62537,10.5425,0.00399378,-0.00524251,0.000973778,0.00409533,-0.00534406,0.103907,0.00546571,0.0218,748,1527,-2.62535,-10.5425
-469,-503,-2.68256,10.8555,0.00222004,-0.00514209,-0.000415671,0.00224343,-0.00516549,-0.0562224,0.00438704,0.0104631,755,1527,-2.68258,-10.8555
-462,-503,-2.68835,11.2626,0.00170621,-0.00426992,-0.000559931,0.00175822,-0.00432193,-0.0926205,0.0036129,0.0100715,762,1527,-2.68836,-11.2626
-455,-503,-2.69788,11.6488,0.00184402,-0.00312288,-0.000242053,0.00185579,-0.00313465,-0.0485798,0.0029126,0.0154241,769,1527,-2.6979,-11.6488
-448,-503,-2.67834,12.0448,0.00197906,-0.00207149,-2.58536e-05,0.00197922,-0.00207166,-0.00638239,0.00233898,0.0155752,776,1527,-2.67837,-12.0448
-441,-503,-2.67938,12.4397,0.00232693,-0.0010757,0.000484384,0.00239454,-0.00114331,0.138686,0.00208472,0.0129444,783,1527,-2.67935,-12.4397
-434,-503,-2.70428,12.8027,0.00283755,3.98658e-05,0.00111822,0.00322957,-0.000352149,0.337183,0.00227951,0.0107938,790,1527,-2.70429,-12.8028
-427,-503,-2.73682,13.1655,0.0033033,0.00102402,0.00175863,0.00425926,6.80522e-05,0.497905,0.0028171,0.016591,797,1527,-2.73684,-13.1656
-420,-503,-2.70953,13.5524,0.00382674,0.00193209,0.00246624,0.00552134,0.000237487,0.602028,0.00360434,0.0170797,804,1527,-2.70952,-13.5524
-413,-503,-2.70996,13.9611,0.00454949,0.00293833,0.0034817,0.00731759,0.000170224,0.671711,0.00482265,0.0143727,811,1527,-2.70996,-13.9611
-406,-503,-2.70953,14.3497,0.00577322,0.00427947,0.00486959,0.00995287,9.98089e-05,0.709303,0.00660223,0.0212231,818,1527,-2.70954,-14.3497
-399,-503,-2.5932,14.8944,0.0075303,0.0061657,0.00630522,0.01319,0.00050597,0.731502,0.00862964,0.033539,825,1527,-2.59318,-14.8944
-392,-503,-2.32965,15.587,0,0,0,0,0,0,0,-1,832,1527,-2.32966,-15.5871
-385,-503,-2.00403,14.1218,0,0,0,0,0,0,0,-1,839,1527,-2.00403,-14.1218
-378,-503,-2.07043,13.8632,0,0,0,0,0,0,0,-1,846,1527,-2.07043,-13.8631
-371,-503,-1.67285,13.8081,0,0,0,0,0,0,0,-1,853,1527,-1.67285,-13.8081
-364,-503,0.181396,12.3768,0,0,0,0,0,0,0,-1,860,1527,0.18138,-12.3768
-357,-503,0.558533,9.25452,0,0,0,0,0,0,0,-1,867,1527,0.558542,-9.25446
-350,-503,0.219971,6.84827,0,0,0,0,0,0,0,-1,874,1527,0.21996,-6.84831
-343,-503,-3.5802,4.43274,0,0,0,0,0,0,0,-1,881,1527,-3.58018,-4.43276
-336,-503,-3.2384,6.40637,0,0,0,0,0,0,0,-1,888,1527,-3.2384,-6.40643
-329,-503,-1.70691,11.886,0,0,0,0,0,0,0,-1,895,1527,-1.70689,-11.886
-322,-503,-3.31317,8.81519,0,0,0,0,0,0,0,-1,902,1527,-3.31315,-8.81524
-315,-503,-3.90265,7.73853,0,0,0,0,0,0,0,-1,909,1527,-3.90264,-7.73854
-308,-503,-1.70264,7.35413,0,0,0,0,0,0,0,-1,916,1527,-1.70262,-7.35416
-301,-503,0,0,0,0,0,0,0,0,0,-1,923,1527,0,0
-294,-503,0,0,0,0,0,0,0,0,0,-1,930,1527,0,0
-287,-503,0,0,0,0,0,0,0,0,0,-1,937,1527,0,0
-280,-503,0,0,0,0,0,0,0,0,0,-1,944,1527,0,0
-273,-503,0,0,0,0,0,0,0,0,0,-1,951,1527,0,0
-266,-503,0,0,0,0,0,0,0,0,0,-1,958,1527,0,0
-259,-503,0,0,0,0,0,0,0,0,0,-1,965,1527,0,0
-252,-503,0,0,0,0,0,0,0,0,0,-1,972,1527,0,0
-245,-503,0,0,0,0,0,0,0,0,0,-1,979,1527,0,0
-238,-503,0,0,0,0,0,0,0,0,0,-1,986,1527,0,0
-231,-503,0,0,0,0,0,0,0,0,0,-1,993,1527,0,0
-224,-503,0,0,0,0,0,0,0,0,0,-1,1000,1527,0,0
-217,-503,0,0,0,0,0,0,0,0,0,-1,1007,1527,0,0
-210,-503,0,0,0,0,0,0,0,0,0,-1,1014,1527,0,0
-203,-503,0,0,0,0,0,0,0,0,0,-1,1021,1527,0,0
-196,-503,0,0,0,0,0,0,0,0,0,-1,1028,1527,0,0
-189,-503,0,0,0,0,0,0,0,0,0,-1,1035,1527,0,0
-182,-503,0,0,0,0,0,0,0,0,0,-1,1042,1527,0,0
-175,-503,0,0,0,0,0,0,0,0,0,-1,1049,1527,0,0
-168,-503,0,0,0,0,0,0,0,0,0,-1,1056,1527,0,0
-161,-503,0,0,0,0,0,0,0,0,0,-1,1063,1527,0,0
-154,-503,0,0,0,0,0,0,0,0,0,-1,1070,1527,0,0
-147,-503,0,0,0,0,0,0,0,0,0,-1,1077,1527,0,0
-140,-503,0,0,0,0,0,0,0,0,0,-1,1084,1527,0,0
-133,-503,0,0,0,0,0,0,0,0,0,-1,1091,1527,0,0
-126,-503,0,0,0,0,0,0,0,0,0,-1,1098,1527,0,0
-119,-503,0,0,0,0,0,0,0,0,0,-1,1105,1527,0,0
-112,-503,0,0,0,0,0,0,0,0,0,-1,1112,1527,0,0
-105,-503,0,0,0,0,0,0,0,0,0,-1,1119,1527,0,0
-98,-503,0,0,0,0,0,0,0,0,0,-1,1126,1527,0,0
-91,-503,0,0,0,0,0,0,0,0,0,-1,1133,1527,0,0
-84,-503,0,0,0,0,0,0,0,0,0,-1,1140,1527,0,0
-77,-503,0,0,0,0,0,0,0,0,0,-1,1147,1527,0,0
-70,-503,0,0,0,0,0,0,0,0,0,-1,1154,1527,0,0
-63,-503,0,0,0,0,0,0,0,0,0,-1,1161,1527,0,0
-56,-503,0,0,0,0,0,0,0,0,0,-1,1168,1527,0,0
-49,-503,0,0,0,0,0,0,0,0,0,-1,1175,1527,0,0
-42,-503,0,0,0,0,0,0,0,0,0,-1,1182,1527,0,0
-35,-503,0,0,0,0,0,0,0,0,0,-1,1189,1527,0,0
-28,-503,0,0,0,0,0,0,0,0,0,-1,1196,1527,0,0
-21,-503,0,0,0,0,0,0,0,0,0,-1,1203,1527,0,0
-14,-503,0,0,0,0,0,0,0,0,0,-1,1210,1527,0,0
-7,-503,0,0,0,0,0,0,0,0,0,-1,1217,1527,0,0
0,-503,0,0,0,0,0,0,0,0,0,-1,1224,1527,0,0
7,-503,0,0,0,0,0,0,0,0,0,-1,1231,1527,0,0
14,-503,0,0,0,0,0,0,0,0,0,-1,1238,1527,0,0
21,-503,0,0,0,0,0,0,0,0,0,-1,1245,1527,0,0
28,-503,0,0,0,0,0,0,0,0,0,-1,1252,1527,0,0
35,-503,0,0,0,0,0,0,0,0,0,-1,1259,1527,0,0
42,-503,0,0,0,0,0,0,0,0,0,-1,1266,1527,0,0
49,-503,0,0,0,0,0,0,0,0,0,-1,1273,1527,0,0
56,-503,0,0,0,0,0,0,0,0,0,-1,1280,1527,0,0
63,-503,0,0,0,0,0,0,0,0,0,-1,1287,1527,0,0
70,-503,0,0,0,0,0,0,0,0,0,-1,1294,1527,0,0
77,-503,0,0,0,0,0,0,0,0,0,-1,1301,1527,0,0
84,-503,0,0,0,0,0,0,0,0,0,-1,1308,1527,0,0
91,-503,0,0,0,0,0,0,0,0,0,-1,1315,1527,0,0
98,-503,0,0,0,0,0,0,0,0,0,-1,1322,1527,0,0
105,-503,0,0,0,0,0,0,0,0,0,-1,1329,1527,0,0
112,-503,0,0,0,0,0,0,0,0,0,-1,1336,1527,0,0
119,-503,0,0,0,0,0,0,0,0,0,-1,1343,1527,0,0
126,-503,0,0,0,0,0,0,0,0,0,-1,1350,1527,0,0
133,-503,0,0,0,0,0,0,0,0,0,-1,1357,1527,0,0
140,-503,0,0,0,0,0,0,0,0,0,-1,1364,1527,0,0
147,-503,0,0,0,0,0,0,0,0,0,-1,1371,1527,0,0
154,-503,0,0,0,0,0,0,0,0,0,-1,1378,1527,0,0
161,-503,0,0,0,0,0,0,0,0,0,-1,1385,1527,0,0
168,-503,0,0,0,0,0,0,0,0,0,-1,1392,1527,0,0
175,-503,0,0,0,0,0,0,0,0,0,-1,1399,1527,0,0
182,-503,0,0,0,0,0,0,0,0,0,-1,1406,1527,0,0
189,-503,0,0,0,0,0,0,0,0,0,-1,1413,1527,0,0
196,-503,0,0,0,0,0,0,0,0,0,-1,1420,1527,0,0
203,-503,0,0,0,0,0,0,0,0,0,-1,1427,1527,0,0
210,-503,0,0,0,0,0,0,0,0,0,-1,1434,1527,0,0
217,-503,0,0,0,0,0,0,0,0,0,-1,1441,1527,0,0
224,-503,0,0,0,0,0,0,0,0,0,-1,1448,1527,0,0
231,-503,0,0,0,0,0,0,0,0,0,-1,1455,1527,0,0
238,-503,0,0,0,0,0,0,0,0,0,-1,1462,1527,0,0
245,-503,0,0,0,0,0,0,0,0,0,-1,1469,1527,0,0
252,-503,0,0,0,0,0,0,0,0,0,-1,1476,1527,0,0
259,-503,0,0,0,0,0,0,0,0,0,-1,1483,1527,0,0
266,-503,0,0,0,0,0,0,0,0,0,-1,1490,1527,0,0
273,-503,0,0,0,0,0,0,0,0,0,-1,1497,1527,0,0
280,-503,0,0,0,0,0,0,0,0,0,-1,1504,1527,0,0
287,-503,0,0,0,0,0,0,0,0,0,-1,1511,1527,0,0
294,-503,0,0,0,0,0,0,0,0,0,-1,1518,1527,0,0
301,-503,0,0,0,0,0,0,0,0,0,-1,1525,1527,0,0
308,-503,0,0,0,0,0,0,0,0,0,-1,1532,1527,0,0
315,-503,0,0,0,0,0,0,0,0,0,-1,1539,1527,0,0
322,-503,0,0,0,0,0,0,0,0,0,-1,1546,1527,0,0
329,-503,0,0,0,0,0,0,0,0,0,-1,1553,1527,0,0
336,-503,0,0,0,0,0,0,0,0,0,-1,1560,1527,0,0
343,-503,0,0,0,0,0,0,0,0,0,-1,1567,1527,0,0
350,-503,0,0,0,0,0,0,0,0,0,-1,1574,1527,0,0
357,-503,0,0,0,0,0,0,0,0,0,-1,1581,1527,0,0
364,-503,0,0,0,0,0,0,0,0,0,-1,1588,1527,0,0
371,-503,0,0,0,0,0,0,0,0,0,-1,1595,1527,0,0
378,-503,0,0,0,0,0,0,0,0,0,-1,1602,1527,0,0
385,-503,0,0,0,0,0,0,0,0,0,-1,1609,1527,0,0
392,-503,0,0,0,0,0,0,0,0,0,-1,1616,1527,0,0
399,-503,0,0,0,0,0,0,0,0,0,-1,1623,1527,0,0
406,-503,0,0,0,0,0,0,0,0,0,-1,1630,1527,0,0
413,-503,0,0,0,0,0,0,0,0,0,-1,1637,1527,0,0
420,-503,0,0,0,0,0,0,0,0,0,-1,1644,1527,0,0
427,-503,10.5968,4.9856,0,0,0,0,0,0,0,-1,1651,1527,10.5969,-4.98563
434,-503,11.4329,3.97217,0,0,0,0,0,0,0,-1,1658,1527,11.4328,-3.97222
441,-503,12.0957,2.96509,0,0,0,0,0,0,0,-1,1665,1527,12.0957,-2.96512
448,-503,12.3259,2.53894,0,0,0,0,0,0,0,-1,1672,1527,12.326,-2.53895
455,-503,12.1669,2.18762,0,0,0,0,0,0,0,-1,1679,1527,12.1668,-2.18767
462,-503,11.59,2.60791,0,0,0,0,0,0,0,-1,1686,1527,11.5899,-2.60794
469,-503,11.1625,1.61853,0,0,0,0,0,0,0,-1,1693,1527,11.1625,-1.61856
476,-503,9.07703,5.81042,0,0,0,0,0,0,0,-1,1700,1527,9.07699,-5.81047
483,-503,9.74414,6.92432,0,0,0,0,0,0,0,-1,1707,1527,9.74417,-6.9243
490,-503,10.5033,10.1071,0,0,0,0,0,0,0,-1,1714,1527,10.5032,-10.107
497,-503,15.0057,17.9476,0,0,0,0,0,0,0,-1,1721,1527,15.0058,-17.9476
504,-503,16.2728,17.2827,0,0,0,0,0,0,0,-1,1728,1527,16.2728,-17.2827
511,-503,16.2531,15.6869,0,0,0,0,0,0,0,-1,1735,1527,16.2531,-15.6869
518,-503,15.7688,16.5909,0,0,0,0,0,0,0,-1,1742,1527,15.7689,-16.591
525,-503,14.579,16.416,0,0,0,0,0,0,0,-1,1749,1527,14.5789,-16.416
532,-503,14.6921,16.0702,-0.00891364,0.00121719,0.00909512,0.00656233,-0.0142588,1.03948,0.0122918,0.0202362,1756,1527,14.6921,-16.0702
539,-503,14.7448,15.7239,-0.00677015,0.00127691,0.00692026,0.0052583,-0.0107515,1.04872,0.00942291,0.0131917,1763,1527,14.7448,-15.7239
546,-503,14.7406,15.3361,-0.00482078,0.00122639,0.00496774,0.00401835,-0.00761274,1.05877,0.00682126,0.0121193,1770,1527,14.7406,-15.3361
553,-503,14.7618,14.9924,-0.00326539,0.000853534,0.00351487,0.00286785,-0.0052797,1.0504,0.0047722,0.0141079,1777,1527,14.7618,-14.9924
560,-503,14.7643,14.6456,-0.00186084,0.000655175,0.00219474,0.00192688,-0.00313255,1.04564,0.00294858,0.0131865,1784,1527,14.7642,-14.6456
567,-503,14.7603,14.2747,-0.000549919,0.000457697,0.00105685,0.00112468,-0.0012169,1.00782,0.00135226,0.0112632,1791,1527,14.7603,-14.2747
574,-503,14.7568,13.9291,0.000598595,0.000409791,8.86469e-05,0.000633692,0.000374694,0.376985,0.000367889,0.0111532,1798,1527,14.7569,-13.929
581,-503,14.7311,13.5939,0.00171505,0.000411645,-0.000762429,0.00206635,6.0345e-05,-0.43177,0.0013579,0.0126745,1805,1527,14.7311,-13.5939
588,-503,14.7166,13.251,0.00273823,0.000295375,-0.0013956,0.00337142,-0.000337813,-0.425928,0.00236826,0.016223,1812,1527,14.7166,-13.251
595,-503,14.7162,12.8855,0.00351084,0.000328453,-0.00172715,0.00426804,-0.000428744,-0.413173,0.00299851,0.0124119,1819,1527,14.7161,-12.8855
602,-503,14.7501,12.4912,0.00415695,0.00024374,-0.00209727,0.00506859,-0.000667899,-0.410041,0.00362228,0.0188247,1826,1527,14.7502,-12.4913
609,-503,14.8051,12.0815,0.00479638,6.31904e-05,-0.00242176,0.00581589,-0.000956318,-0.398459,0.0042322,0.035903,1833,1527,14.8051,-12.0815
616,-503,14.4369,11.9174,0,0,0,0,0,0,0,-1,1840,1527,14.4369,-11.9174
623,-503,15.2712,11.0986,0,0,0,0,0,0,0,-1,1847,1527,15.2712,-11.0986
630,-503,16.1055,10.2798,0,0,0,0,0,0,0,-1,1854,1527,16.1055,-10.2798
637,-503,14.5564,9.20496,0,0,0,0,0,0,0,-1,1861,1527,14.5564,-9.2049
644,-503,11.4802,7.57214,0,0,0,0,0,0,0,-1,1868,1527,11.4802,-7.57215
651,-503,11.5718,6.5448,0,0,0,0,0,0,0,-1,1875,1527,11.5718,-6.54476
658,-503,8.25635,3.10498,0,0,0,0,0,0,0,-1,1882,1527,8.2563,-3.10493
665,-503,0,0,0,0,0,0,0,0,0,-1,1889,1527,0,0
672,-503,0,0,0,0,0,0,0,0,0,-1,1896,1527,0,0
679,-503,0,0,0,0,0,0,0,0,0,-1,1903,1527,0,0
686,-503,0,0,0,0,0,0,0,0,0,-1,1910,1527,0,0
693,-503,0,0,0,0,0,0,0,0,0,-1,1917,1527,0,0
700,-503,0,0,0,0,0,0,0,0,0,-1,1924,1527,0,0
707,-503,0,0,0,0,0,0,0,0,0,-1,1931,1527,0,0
714,-503,0,0,0,0,0,0,0,0,0,-1,1938,1527,0,0
721,-503,0,0,0,0,0,0,0,0,0,-1,1945,1527,0,0
728,-503,0,0,0,0,0,0,0,0,0,-1,1952,1527,0,0
735,-503,0,0,0,0,0,0,0,0,0,-1,1959,1527,0,0
742,-503,0,0,0,0,0,0,0,0,0,-1,1966,1527,0,0
749,-503,0,0,0,0,0,0,0,0,0,-1,1973,1527,0,0
756,-503,0,0,0,0,0,0,0,0,0,-1,1980,1527,0,0
763,-503,0,0,0,0,0,0,0,0,0,-1,1987,1527,0,0
770,-503,0,0,0,0,0,0,0,0,0,-1,1994,1527,0,0
777,-503,0,0,0,0,0,0,0,0,0,-1,2001,1527,0,0
784,-503,0,0,0,0,0,0,0,0,0,-1,2008,1527,0,0
791,-503,0,0,0,0,0,0,0,0,0,-1,2015,1527,0,0
798,-503,0,0,0,0,0,0,0,0,0,-1,2022,1527,0,0
805,-503,0,0,0,0,0,0,0,0,0,-1,2029,1527,0,0
812,-503,0,0,0,0,0,0,0,0,0,-1,2036,1527,0,0
-700,-510,0,0,0,0,0,0,0,0,0,-1,524,1534,0,0
-693,-510,0,0,0,0,0,0,0,0,0,-1,531,1534,0,0
-686,-510,0,0,0,0,0,0,0,0,0,-1,538,1534,0,0
-679,-510,0,0,0,0,0,0,0,0,0,-1,545,1534,0,0
-672,-510,0,0,0,0,0,0,0,0,0,-1,552,1534,0,0
-665,-510,0,0,0,0,0,0,0,0,0,-1,559,1534,0,0
-658,-510,0,0,0,0,0,0,0,0,0,-1,566,1534,0,0
-651,-510,0,0,0,0,0,0,0,0,0,-1,573,1534,0,0
-644,-510,0,0,0,0,0,0,0,0,0,-1,580,1534,0,0
-637,-510,0,0,0,0,0,0,0,0,0,-1,587,1534,0,0
-630,-510,0,0,0,0,0,0,0,0,0,-1,594,1534,0,0
-623,-510,0,0,0,0,0,0,0,0,0,-1,601,1534,0,0
-616,-510,0,0,0,0,0,0,0,0,0,-1,608,1534,0,0
-609,-510,0,0,0,0,0,0,0,0,0,-1,615,1534,0,0
-602,-510,0,0,0,0,0,0,0,0,0,-1,622,1534,0,0
-595,-510,0,0,0,0,0,0,0,0,0,-1,629,1534,0,0
-588,-510,0,0,0,0,0,0,0,0,0,-1,636,1534,0,0
-581,-510,0,0,0,0,0,0,0,0,0,-1,643,1534,0,0
-574,-510,0,0,0,0,0,0,0,0,0,-1,650,1534,0,0
-567,-510,0,0,0,0,0,0,0,0,0,-1,657,1534,0,0
-560,-510,0,0,0,0,0,0,0,0,0,-1,664,1534,0,0
-553,-510,0,0,0,0,0,0,0,0,0,-1,671,1534,0,0
-546,-510,0,0,0,0,0,0,0,0,0,-1,678,1534,0,0
-539,-510,0,0,0,0,0,0,0,0,0,-1,685,1534,0,0
-532,-510,-3.95129,4.52014,0,0,0,0,0,0,0,-1,692,1534,-3.95131,-4.5202
-525,-510,-2.77411,0.316772,0,0,0,0,0,0,0,-1,699,1534,-2.77409,-0.3168
-518,-510,-2.86847,2.71423,0,0,0,0,0,0,0,-1,706,1534,-2.86849,-2.71424
-511,-510,-2.28571,4.48083,0,0,0,0,0,0,0,-1,713,1534,-2.28571,-4.48086
-504,-510,-1.59497,8.94751,0,0,0,0,0,0,0,-1,720,1534,-1.59499,-8.94753
-497,-510,-1.70129,10.3207,0,0,0,0,0,0,0,-1,727,1534,-1.70129,-10.3207
-490,-510,-1.85663,10.4464,0.0100417,-0.0084864,0.0038998,0.0108291,-0.00927377,0.199222,0.011618,0.0436487,734,1534,-1.8566,-10.4464
-483,-510,-2.00635,10.5297,0.00636989,-0.0083676,0.00146839,0.00651477,-0.00851248,0.0983481,0.0087015,0.0410895,741,1534,-2.00633,-10.5296
-476,-510,-2.11877,10.5631,0.00437526,-0.00726585,0.000360188,0.00438639,-0.00727698,0.0309017,0.00680244,0.0336425,748,1534,-2.11877,-10.5631
-469,-510,-2.28448,10.8909,0.00285327,-0.00627734,-0.000540606,0.00288517,-0.00630924,-0.0589337,0.00542971,0.013428,755,1534,-2.28451,-10.8908
-462,-510,-2.29291,11.2609,0.00236429,-0.00493807,-0.000479868,0.00239568,-0.00496947,-0.0653397,0.00433796,0.0108009,762,1534,-2.29291,-11.2609
-455,-510,-2.30023,11.6676,0.00233973,-0.00350152,-9.03679e-05,0.00234113,-0.00350291,-0.0154657,0.00339621,0.0130685,769,1534,-2.30021,-11.6676
-448,-510,-2.28619,12.074,0.00225095,-0.0022796,0.000168498,0.00225721,-0.00228586,0.0371231,0.00262296,0.0129378,776,1534,-2.2862,-12.0739
-441,-510,-2.30188,12.4497,0.00236923,-0.00116651,0.0007062,0.00250506,-0.00130234,0.190022,0.00223446,0.0139462,783,1534,-2.30187,-12.4497
-434,-510,-2.33942,12.8041,0.00270398,9.10166e-05,0.001387,0.00330292,-0.000507931,0.407641,0.00238932,0.0140913,790,1534,-2.33943,-12.8041
-427,-510,-2.38147,13.1577,0.0030278,0.0011902,0.00209624,0.00439776,-0.000179751,0.578853,0.00299355,0.0209055,797,1534,-2.3815,-13.1577
-420,-510,-2.36127,13.5614,0.00343557,0.00218601,0.00280605,0.00568555,-6.39732e-05,0.675858,0.00381187,0.0209737,804,1534,-2.36124,-13.5614
-413,-510,-2.35236,13.983,0.00403494,0.00328639,0.00373401,0.00741338,-9.20605e-05,0.735448,0.00497323,0.0105998,811,1534,-2.35233,-13.9831
-406,-510,-2.36945,14.3431,0.00502033,0.00465616,0.0049665,0.00980808,-0.000131588,0.767075,0.00658302,0.0101317,818,1534,-2.36946,-14.3431
-399,-510,-2.3595,14.7059,0.00642578,0.00649289,0.00621691,0.0126763,0.000242338,0.788097,0.00837128,0.0128711,825,1534,-2.35953,-14.7059
-392,-510,-2.21375,15.2557,0.00792933,0.009527,0.00704917,0.0158225,0.00163388,0.841819,0.0100481,0.0341034,832,1534,-2.21373,-15.2558
-385,-510,-1.97235,15.8574,0,0,0,0,0,0,0,-1,839,1534,-1.97238,-15.8575
-378,-510,-1.78308,13.8044,0,0,0,0,0,0,0,-1,846,1534,-1.78309,-13.8044
-371,-510,-1.74982,13.8027,0,0,0,0,0,0,0,-1,853,1534,-1.74981,-13.8028
-364,-510,-1.3479,13.7771,0,0,0,0,0,0,0,-1,860,1534,-1.34791,-13.7771
-357,-510,-0.254395,8.89575,0,0,0,0,0,0,0,-1,867,1534,-0.254397,-8.89569
-350,-510,0.471191,6.06458,0,0,0,0,0,0,0,-1,874,1534,0.47118,-6.06453
-343,-510,-2.94617,5.00989,0,0,0,0,0,0,0,-1,881,1534,-2.94615,-5.00992
-336,-510,-1.92963,11.3776,0,0,0,0,0,0,0,-1,888,1534,-1.92962,-11.3775
-329,-510,-4.87781,20.6893,0,0,0,0,0,0,0,-1,895,1534,-4.87782,-20.6894
-322,-510,-0.251526,11.973,0,0,0,0,0,0,0,-1,902,1534,-0.251497,-11.9731
-315,-510,-1.73047,10.9796,0,0,0,0,0,0,0,-1,909,1534,-1.73049,-10.9796
-308,-510,-2.05328,9.72034,0,0,0,0,0,0,0,-1,916,1534,-2.05327,-9.72036
-301,-510,-1.85437,11.5869,0,0,0,0,0,0,0,-1,923,1534,-1.85437,-11.5869
-294,-510,0,0,0,0,0,0,0,0,0,-1,930,1534,0,0
-287,-510,0,0,0,0,0,0,0,0,0,-1,937,1534,0,0
-280,-510,0,0,0,0,0,0,0,0,0,-1,944,1534,0,0
-273,-510,0,0,0,0,0,0,0,0,0,-1,951,1534,0,0
-266,-510,0,0,0,0,0,0,0,0,0,-1,958,1534,0,0
-259,-510,0,0,0,0,0,0,0,0,0,-1,965,1534,0,0
-252,-510,0,0,0,0,0,0,0,0,0,-1,972,1534,0,0
-245,-510,0,0,0,0,0,0,0,0,0,-1,979,1534,0,0
-238,-510,0,0,0,0,0,0,0,0,0,-1,986,1534,0,0
-231,-510,0,0,0,0,0,0,0,0,0,-1,993,1534,0,0
-224,-510,0,0,0,0,0,0,0,0,0,-1,1000,1534,0,0
-217,-510,0,0,0,0,0,0,0,0,0,-1,1007,1534,0,0
-210,-510,0,0,0,0,0,0,0,0,0,-1,1014,1534,0,0
-203,-510,0,0,0,0,0,0,0,0,0,-1,1021,1534,0,0
-196,-510,0,0,0,0,0,0,0,0,0,-1,1028,1534,0,0
-189,-510,0,0,0,0,0,0,0,0,0,-1,1035,1534,0,0
-182,-510,0,0,0,0,0,0,0,0,0,-1,1042,1534,0,0
-175,-510,0,0,0,0,0,0,0,0,0,-1,1049,1534,0,0
-168,-510,0,0,0,0,0,0,0,0,0,-1,1056,1534,0,0
-161,-510,0,0,0,0,0,0,0,0,0,-1,1063,1534,0,0
-154,-510,0,0,0,0,0,0,0,0,0,-1,1070,1534,0,0
-147,-510,0,0,0,0,0,0,0,0,0,-1,1077,1534,0,0
-140,-510,0,0,0,0,0,0,0,0,0,-1,1084,1534,0,0
-133,-510,0,0,0,0,0,0,0,0,0,-1,1091,1534,0,0
-126,-510,0,0,0,0,0,0,0,0,0,-1,1098,1534,0,0
-119,-510,0,0,0,0,0,0,0,0,0,-1,1105,1534,0,0
-112,-510,0,0,0,0,0,0,0,0,0,-1,1112,1534,0,0
-105,-510,0,0,0,0,0,0,0,0,0,-1,1119,1534,0,0
-98,-510,0,0,0,0,0,0,0,0,0,-1,1126,1534,0,0
-91,-510,0,0,0,0,0,0,0,0,0,-1,1133,1534,0,0
-84,-510,0,0,0,0,0,0,0,0,0,-1,1140,1534,0,0
-77,-510,0,0,0,0,0,0,0,0,0,-1,1147,1534,0,0
-70,-510,0,0,0,0,0,0,0,0,0,-1,1154,1534,0,0
-63,-510,0,0,0,0,0,0,0,0,0,-1,1161,1534,0,0
-56,-510,0,0,0,0,0,0,0,0,0,-1,1168,1534,0,0
-49,-510,0,0,0,0,0,0,0,0,0,-1,1175,1534,0,0
-42,-510,0,0,0,0,0,0,0,0,0,-1,1182,1534,0,0
-35,-510,0,0,0,0,0,0,0,0,0,-1,1189,1534,0,0
-28,-510,0,0,0,0,0,0,0,0,0,-1,1196,1534,0,0
-21,-510,0,0,0,0,0,0,0,0,0,-1,1203,1534,0,0
-14,-510,0,0,0,0,0,0,0,0,0,-1,1210,1534,0,0
-7,-510,0,0,0,0,0,0,0,0,0,-1,1217,1534,0,0
0,-510,0,0,0,0,0,0,0,0,0,-1,1224,1534,0,0
7,-510,0,0,0,0,0,0,0,0,0,-1,1231,1534,0,0
14,-510,0,0,0,0,0,0,0,0,0,-1,1238,1534,0,0
21,-510,0,0,0,0,0,0,0,0,0,-1,1245,1534,0,0
28,-510,0,0,0,0,0,0,0,0,0,-1,1252,1534,0,0
35,-510,0,0,0,0,0,0,0,0,0,-1,1259,1534,0,0
42,-510,0,0,0,0,0,0,0,0,0,-1,1266,1534,0,0
49,-510,0,0,0,0,0,0,0,0,0,-1,1273,1534,0,0
56,-510,0,0,0,0,0,0,0,0,0,-1,1280,1534,0,0
63,-510,0,0,0,0,0,0,0,0,0,-1,1287,1534,0,0
70,-510,0,0,0,0,0,0,0,0,0,-1,1294,1534,0,0
77,-510,0,0,0,0,0,0,0,0,0,-1,1301,1534,0,0
84,-510,0,0,0,0,0,0,0,0,0,-1,1308,1534,0,0
91,-510,0,0,0,0,0,0,0,0,0,-1,1315,1534,0,0
98,-510,0,0,0,0,0,0,0,0,0,-1,1322,1534,0,0
105,-510,0,0,0,0,0,0,0,0,0,-1,1329,1534,0,0
112,-510,0,0,0,0,0,0,0,0,0,-1,1336,1534,0,0
119,-510,0,0,0,0,0,0,0,0,0,-1,1343,1534,0,0
126,-510,0,0,0,0,0,0,0,0,0,-1,1350,1534,0,0
133,-510,0,0,0,0,0,0,0,0,0,-1,1357,1534,0,0
140,-510,0,0,0,0,0,0,0,0,0,-1,1364,1534,0,0
147,-510,0,0,0,0,0,0,0,0,0,-1,1371,1534,0,0
154,-510,0,0,0,0,0,0,0,0,0,-1,1378,1534,0,0
161,-510,0,0,0,0,0,0,0,0,0,-1,1385,1534,0,0
168,-510,0,0,0,0,0,0,0,0,0,-1,1392,1534,0,0
175,-510,0,0,0,0,0,0,0,0,0,-1,1399,1534,0,0
182,-510,0,0,0,0,0,0,0,0,0,-1,1406,1534,0,0
189,-510,0,0,0,0,0,0,0,0,0,-1,1413,1534,0,0
196,-510,0,0,0,0,0,0,0,0,0,-1,1420,1534,0,0
203,-510,0,0,0,0,0,0,0,0,0,-1,1427,1534,0,0
210,-510,0,0,0,0,0,0,0,0,0,-1,1434,1534,0,0
217,-510,0,0,0,0,0,0,0,0,0,-1,1441,1534,0,0
224,-510,0,0,0,0,0,0,0,0,0,-1,1448,1534,0,0
231,-510,0,0,0,0,0,0,0,0,0,-1,1455,1534,0,0
238,-510,0,0,0,0,0,0,0,0,0,-1,1462,1534,0,0
245,-510,0,0,0,0,0,0,0,0,0,-1,1469,1534,0,0
252,-510,0,0,0,0,0,0,0,0,0,-1,1476,1534,0,0
259,-510,0,0,0,0,0,0,0,0,0,-1,1483,1534,0,0
266,-510,0,0,0,0,0,0,0,0,0,-1,1490,1534,0,0
273,-510,0,0,0,0,0,0,0,0,0,-1,1497,1534,0,0
280,-510,0,0,0,0,0,0,0,0,0,-1,1504,1534,0,0
287,-510,0,0,0,0,0,0,0,0,0,-1,1511,1534,0,0
294,-510,0,0,0,0,0,0,0,0,0,-1,1518,1534,0,0
301,-510,0,0,0,0,0,0,0,0,0,-1,1525,1534,0,0
308,-510,0,0,0,0,0,0,0,0,0,-1,1532,1534,0,0
315,-510,0,0,0,0,0,0,0,0,0,-1,1539,1534,0,0
322,-510,0,0,0,0,0,0,0,0,0,-1,1546,1534,0,0
329,-510,0,0,0,0,0,0,0,0,0,-1,1553,1534,0,0
336,-510,0,0,0,0,0,0,0,0,0,-1,1560,1534,0,0
343,-510,0,0,0,0,0,0,0,0,0,-1,1567,1534,0,0
350,-510,0,0,0,0,0,0,0,0,0,-1,1574,1534,0,0
357,-510,0,0,0,0,0,0,0,0,0,-1,1581,1534,0,0
364,-510,0,0,0,0,0,0,0,0,0,-1,1588,1534,0,0
371,-510,0,0,0,0,0,0,0,0,0,-1,1595,1534,0,0
378,-510,0,0,0,0,0,0,0,0,0,-1,1602,1534,0,0
385,-510,0,0,0,0,0,0,0,0,0,-1,1609,1534,0,0
392,-510,0,0,0,0,0,0,0,0,0,-1,1616,1534,0,0
399,-510,0,0,0,0,0,0,0,0,0,-1,1623,1534,0,0
406,-510,0,0,0,0,0,0,0,0,0,-1,1630,1534,0,0
413,-510,0,0,0,0,0,0,0,0,0,-1,1637,1534,0,0
420,-510,13.9399,6.59412,0,0,0,0,0,0,0,-1,1644,1534,13.94,-6.59417
427,-510,10.9799,5.12341,0,0,0,0,0,0,0,-1,1651,1534,10.9798,-5.12337
434,-510,11.8219,4.07898,0,0,0,0,0,0,0,-1,1658,1534,11.8219,-4.07895
441,-510,12.6812,3.02991,0,0,0,0,0,0,0,-1,1665,1534,12.6811,-3.0299
448,-510,13.2379,2.2804,0,0,0,0,0,0,0,-1,1672,1534,13.2379,-2.28037
455,-510,9.76892,2.20642,0,0,0,0,0,0,0,-1,1679,1534,9.76894,-2.20647
462,-510,9.84692,2.49182,0,0,0,0,0,0,0,-1,1686,1534,9.84695,-2.49185
469,-510,16.6072,7.26941,0,0,0,0,0,0,0,-1,1693,1534,16.6072,-7.26945
476,-510,15.9199,7.8645,0,0,0,0,0,0,0,-1,1700,1534,15.9199,-7.86455
483,-510,13.0833,8.10938,0,0,0,0,0,0,0,-1,1707,1534,13.0833,-8.10932
490,-510,13.0841,15.3286,0,0,0,0,0,0,0,-1,1714,1534,13.0841,-15.3286
497,-510,15.3502,18.4568,0,0,0,0,0,0,0,-1,1721,1534,15.3503,-18.4568
504,-510,15.2629,17.4521,0,0,0,0,0,0,0,-1,1728,1534,15.263,-17.4521
511,-510,15.1758,16.4474,0,0,0,0,0,0,0,-1,1735,1534,15.1757,-16.4474
518,-510,13.9536,17.1906,0,0,0,0,0,0,0,-1,1742,1534,13.9536,-17.1906
525,-510,14.3132,16.5049,-0.00729401,0.00102556,0.00777901,0.00568716,-0.0119556,1.03093,0.0103982,0.0354631,1749,1534,14.3132,-16.5049
532,-510,14.3859,16.0662,-0.00562902,0.00114341,0.00607401,0.00471133,-0.00919694,1.03969,0.00816796,0.0154485,1756,1534,14.3858,-16.0661
539,-510,14.427,15.6711,-0.00409301,0.00122224,0.00455914,0.0038418,-0.00671257,1.04928,0.00616825,0.0125893,1763,1534,14.427,-15.6711
546,-510,14.4009,15.3473,-0.00261798,0.00114787,0.00313006,0.0029177,-0.00438782,1.05618,0.00424622,0.0121569,1770,1534,14.4009,-15.3473
553,-510,14.408,14.9967,-0.00149166,0.000739879,0.00212592,0.00202504,-0.00277682,1.02706,0.00278366,0.0130776,1777,1534,14.4079,-14.9967
560,-510,14.3916,14.6396,-0.000428759,0.000510633,0.00116198,0.00129426,-0.00121239,0.977467,0.00144747,0.0136509,1784,1534,14.3916,-14.6397
567,-510,14.3977,14.2787,0.000625519,0.00028826,0.000295115,0.000796785,0.000116994,0.525834,0.000496805,0.0131192,1791,1534,14.3977,-14.2787
574,-510,14.4006,13.9249,0.00161441,0.000247163,-0.000514806,0.00178657,7.50021e-05,-0.322728,0.00116685,0.0127603,1798,1534,14.4006,-13.9249
581,-510,14.3645,13.6028,0.00266486,0.000267896,-0.00127611,0.00321704,-0.000284286,-0.408379,0.00224546,0.0109766,1805,1534,14.3645,-13.6028
588,-510,14.3635,13.2535,0.00359982,0.000148042,-0.00173178,0.00431888,-0.000571016,-0.393552,0.00308724,0.0117193,1812,1534,14.3635,-13.2535
595,-510,14.4656,12.806,0.00434033,0.00028033,-0.00200626,0.00516444,-0.000543783,-0.389758,0.0036378,0.018808,1819,1534,14.4656,-12.806
602,-510,14.5153,12.3749,0,0,0,0,0,0,0,-1,1826,1534,14.5153,-12.3749
609,-510,14.5809,12.0945,0,0,0,0,0,0,0,-1,1833,1534,14.5809,-12.0945
616,-510,14.1313,12.0229,0,0,0,0,0,0,0,-1,1840,1534,14.1314,-12.023
623,-510,15.1763,10.8171,0,0,0,0,0,0,0,-1,1847,1534,15.1763,-10.8171
630,-510,13.7461,9.30334,0,0,0,0,0,0,0,-1,1854,1534,13.7461,-9.30335
637,-510,11.0155,7.38464,0,0,0,0,0,0,0,-1,1861,1534,11.0155,-7.38463
644,-510,11.5809,7.17126,0,0,0,0,0,0,0,-1,1868,1534,11.5809,-7.17123
651,-510,8.70471,3.5061,0,0,0,0,0,0,0,-1,1875,1534,8.70475,-3.50611
658,-510,0,0,0,0,0,0,0,0,0,-1,1882,1534,0,0
665,-510,0,0,0,0,0,0,0,0,0,-1,1889,1534,0,0
672,-510,0,0,0,0,0,0,0,0,0,-1,1896,1534,0,0
679,-510,0,0,0,0,0,0,0,0,0,-1,1903,1534,0,0
686,-510,0,0,0,0,0,0,0,0,0,-1,1910,1534,0,0
693,-510,0,0,0,0,0,0,0,0,0,-1,1917,1534,0,0
700,-510,0,0,0,0,0,0,0,0,0,-1,1924,1534,0,0
707,-510,0,0,0,0,0,0,0,0,0,-1,1931,1534,0,0
714,-510,0,0,0,0,0,0,0,0,0,-1,1938,1534,0,0
721,-510,0,0,0,0,0,0,0,0,0,-1,1945,1534,0,0
728,-510,0,0,0,0,0,0,0,0,0,-1,1952,1534,0,0
735,-510,0,0,0,0,0,0,0,0,0,-1,1959,1534,0,0
742,-510,0,0,0,0,0,0,0,0,0,-1,1966,1534,0,0
749,-510,0,0,0,0,0,0,0,0,0,-1,1973,1534,0,0
756,-510,0,0,0,0,0,0,0,0,0,-1,1980,1534,0,0
763,-510,0,0,0,0,0,0,0,0,0,-1,1987,1534,0,0
770,-510,0,0,0,0,0,0,0,0,0,-1,1994,1534,0,0
777,-510,0,0,0,0,0,0,0,0,0,-1,2001,1534,0,0
784,-510,0,0,0,0,0,0,0,0,0,-1,2008,1534,0,0
791,-510,0,0,0,0,0,0,0,0,0,-1,2015,1534,0,0
798,-510,0,0,0,0,0,0,0,0,0,-1,2022,1534,0,0
805,-510,0,0,0,0,0,0,0,0,0,-1,2029,1534,0,0
812,-510,0,0,0,0,0,0,0,0,0,-1,2036,1534,0,0
-700,-517,0,0,0,0,0,0,0,0,0,-1,524,1541,0,0
-693,-517,0,0,0,0,0,0,0,0,0,-1,531,1541,0,0
-686,-517,0,0,0,0,0,0,0,0,0,-1,538,1541,0,0
-679,-517,0,0,0,0,0,0,0,0,0,-1,545,1541,0,0
-672,-517,0,0,0,0,0,0,0,0,0,-1,552,1541,0,0
-665,-517,0,0,0,0,0,0,0,0,0,-1,559,1541,0,0
-658,-517,0,0,0,0,0,0,0,0,0,-1,566,1541,0,0
-651,-517,0,0,0,0,0,0,0,0,0,-1,573,1541,0,0
-644,-517,0,0,0,0,0,0,0,0,0,-1,580,1541,0,0
-637,-517,0,0,0,0,0,0,0,0,0,-1,587,1541,0,0
-630,-517,0,0,0,0,0,0,0,0,0,-1,594,1541,0,0
-623,-517,0,0,0,0,0,0,0,0,0,-1,601,1541,0,0
-616,-517,0,0,0,0,0,0,0,0,0,-1,608,1541,0,0
-609,-517,0,0,0,0,0,0,0,0,0,-1,615,1541,0,0
-602,-517,0,0,0,0,0,0,0,0,0,-1,622,1541,0,0
-595,-517,0,0,0,0,0,0,0,0,0,-1,629,1541,0,0
-588,-517,0,0,0,0,0,0,0,0,0,-1,636,1541,0,0
-581,-517,0,0,0,0,0,0,0,0,0,-1,643,1541,0,0
-574,-517,0,0,0,0,0,0,0,0,0,-1,650,1541,0,0
-567,-517,0,0,0,0,0,0,0,0,0,-1,657,1541,0,0
-560,-517,0,0,0,0,0,0,0,0,0,-1,664,1541,0,0
-553,-517,0,0,0,0,0,0,0,0,0,-1,671,1541,0,0
-546,-517,0,0,0,0,0,0,0,0,0,-1,678,1541,0,0
-539,-517,0,0,0,0,0,0,0,0,0,-1,685,1541,0,0
-532,-517,0,0,0,0,0,0,0,0,0,-1,692,1541,0,0
-525,-517,-3.62903,4.3606,0,0,0,0,0,0,0,-1,699,1541,-3.62904,-4.36056
-518,-517,-1.664,2.27209,0,0,0,0,0,0,0,-1,706,1541,-1.66399,-2.27207
-511,-517,-0.999146,5.52063,0,0,0,0,0,0,0,-1,713,1541,-0.999126,-5.52059
-504,-517,-0.883362,4.79858,0,0,0,0,0,0,0,-1,720,1541,-0.88337,-4.79854
-497,-517,-1.95294,9.60901,0,0,0,0,0,0,0,-1,727,1541,-1.95291,-9.60901
-490,-517,-1.52075,10.6466,0,0,0,0,0,0,0,-1,734,1541,-1.52076,-10.6465
-483,-517,-1.62152,10.689,0.00682448,-0.011472,0.000387567,0.00683268,-0.0114803,0.0211699,0.0106859,0.0419978,741,1541,-1.62155,-10.6889
-476,-517,-1.65839,10.5815,0.00544447,-0.00920668,-9.29988e-06,0.00544447,-0.00920669,-0.000634754,0.00855131,0.0404922,748,1541,-1.6584,-10.5816
-469,-517,-1.85016,10.9042,0.00432006,-0.00721741,-0.000309393,0.00432836,-0.00722571,-0.0267907,0.00674029,0.0179317,755,1541,-1.85018,-10.9042
-462,-517,-1.93542,11.2671,0.00383278,-0.00536355,-0.000110106,0.00383409,-0.00536486,-0.0119705,0.00533548,0.0175619,762,1541,-1.93541,-11.267
-455,-517,-1.91815,11.6819,0.00353414,-0.00371598,0.000204447,0.0035399,-0.00372175,0.0281692,0.00419295,0.0139282,769,1541,-1.91815,-11.6819
-448,-517,-1.92053,12.0719,0.00309206,-0.00244042,0.000346876,0.00311372,-0.00246209,0.0623726,0.00322652,0.0132073,776,1541,-1.92054,-12.0719
-441,-517,-1.94702,12.4452,0.0028554,-0.00133554,0.000737896,0.00298152,-0.00146166,0.16929,0.00261482,0.012206,783,1541,-1.94704,-12.4452
-434,-517,-1.95117,12.8297,0.00287648,-8.45859e-05,0.0012829,0.00335498,-0.000563088,0.357002,0.00244605,0.0143034,790,1541,-1.95119,-12.8297
-427,-517,-1.9671,13.21,0.00290994,0.000987211,0.00188119,0.00406118,-0.000164031,0.549178,0.00276376,0.0134105,797,1541,-1.9671,-13.21
-420,-517,-2.01202,13.6051,0.00304036,0.00194561,0.00242226,0.00497632,9.64478e-06,0.674276,0.00331434,0.020473,804,1541,-2.01201,-13.6051
-413,-517,-1.99402,13.9819,0.00334522,0.00301362,0.00311223,0.00629606,6.27728e-05,0.758786,0.00417661,0.0109834,811,1541,-1.99403,-13.9819
-406,-517,-1.99963,14.339,0.00390637,0.00426869,0.00406596,0.00815752,1.75321e-05,0.807661,0.00543251,0.0107192,818,1541,-1.99966,-14.339
-399,-517,-1.98492,14.7114,0.00477034,0.00589,0.00503642,0.0103976,0.000262735,0.840749,0.00684584,0.0108377,825,1541,-1.98493,-14.7115
-392,-517,-1.96326,15.1149,0.0058034,0.00845807,0.00558942,0.0128756,0.00138587,0.901975,0.00816109,0.0144434,832,1541,-1.96323,-15.1149
-385,-517,-1.88599,15.7134,0.00636005,0.0103519,0.00445831,0.0132407,0.00347128,0.995862,0.00792752,0.0291791,839,1541,-1.88597,-15.7133
-378,-517,-1.78412,16.4032,0,0,0,0,0,0,0,-1,846,1541,-1.78412,-16.4032
-371,-517,-1.37585,13.2646,0,0,0,0,0,0,0,-1,853,1541,-1.37586,-13.2647
-364,-517,-1.26245,12.6289,0,0,0,0,0,0,0,-1,860,1541,-1.26243,-12.6289
-357,-517,-1.23889,12.979,0,0,0,0,0,0,0,-1,867,1541,-1.23891,-12.979
-350,-517,0.722412,10.0829,0,0,0,0,0,0,0,-1,874,1541,0.722399,-10.0828
-343,-517,-4.67834,14.4569,0,0,0,0,0,0,0,-1,881,1541,-4.67837,-14.4569
-336,-517,-4.32434,16.3674,0,0,0,0,0,0,0,-1,888,1541,-4.32433,-16.3674
-329,-517,-3.86652,19.4402,0,0,0,0,0,0,0,-1,895,1541,-3.86649,-19.4402
-322,-517,-4.21246,19.5819,0,0,0,0,0,0,0,-1,902,1541,-4.21244,-19.5819
-315,-517,-0.987976,7.29749,0,0,0,0,0,0,0,-1,909,1541,-0.987993,-7.29743
-308,-517,3.27911,17.621,0,0,0,0,0,0,0,-1,916,1541,3.27913,-17.621
-301,-517,-1.69141,8.87488,0,0,0,0,0,0,0,-1,923,1541,-1.69141,-8.87485
-294,-517,-1.72583,9.92566,0,0,0,0,0,0,0,-1,930,1541,-1.72584,-9.92571
-287,-517,-3.09045,12.1472,0,0,0,0,0,0,0,-1,937,1541,-3.09043,-12.1472
-280,-517,0,0,0,0,0,0,0,0,0,-1,944,1541,0,0
-273,-517,0,0,0,0,0,0,0,0,0,-1,951,1541,0,0
-266,-517,0,0,0,0,0,0,0,0,0,-1,958,1541,0,0
-259,-517,0,0,0,0,0,0,0,0,0,-1,965,1541,0,0
-252,-517,0,0,0,0,0,0,0,0,0,-1,972,1541,0,0
-245,-517,0,0,0,0,0,0,0,0,0,-1,979,1541,0,0
-238,-517,0,0,0,0,0,0,0,0,0,-1,986,1541,0,0
-231,-517,0,0,0,0,0,0,0,0,0,-1,993,1541,0,0
-224,-517,0,0,0,0,0,0,0,0,0,-1,1000,1541,0,0
-217,-517,0,0,0,0,0,0,0,0,0,-1,1007,1541,0,0
-210,-517,0,0,0,0,0,0,0,0,0,-1,1014,1541,0,0
-203,-517,0,0,0,0,0,0,0,0,0,-1,1021,1541,0,0
-196,-517,0,0,0,0,0,0,0,0,0,-1,1028,1541,0,0
-189,-517,0,0,0,0,0,0,0,0,0,-1,1035,1541,0,0
-182,-517,0,0,0,0,0,0,0,0,0,-1,1042,1541,0,0
-175,-517,0,0,0,0,0,0,0,0,0,-1,1049,1541,0,0
-168,-517,0,0,0,0,0,0,0,0,0,-1,1056,1541,0,0
-161,-517,0,0,0,0,0,0,0,0,0,-1,1063,1541,0,0
-154,-517,0,0,0,0,0,0,0,0,0,-1,1070,1541,0,0
-147,-517,0,0,0,0,0,0,0,0,0,-1,1077,1541,0,0
-140,-517,0,0,0,0,0,0,0,0,0,-1,1084,1541,0,0
-133,-517,0,0,0,0,0,0,0,0,0,-1,1091,1541,0,0
-126,-517,0,0,0,0,0,0,0,0,0,-1,1098,1541,0,0
-119,-517,0,0,0,0,0,0,0,0,0,-1,1105,1541,0,0
-112,-517,0,0,0,0,0,0,0,0,0,-1,1112,1541,0,0
-105,-517,0,0,0,0,0,0,0,0,0,-1,1119,1541,0,0
-98,-517,0,0,0,0,0,0,0,0,0,-1,1126,1541,0,0
-91,-517,0,0,0,0,0,0,0,0,0,-1,1133,1541,0,0
-84,-517,0,0,0,0,0,0,0,0,0,-1,1140,1541,0,0
-77,-517,0,0,0,0,0,0,0,0,0,-1,1147,1541,0,0
-70,-517,0,0,0,0,0,0,0,0,0,-1,1154,1541,0,0
-63,-517,0,0,0,0,0,0,0,0,0,-1,1161,1541,0,0
-56,-517,0,0,0,0,0,0,0,0,0,-1,1168,1541,0,0
-49,-517,0,0,0,0,0,0,0,0,0,-1,1175,1541,0,0
-42,-517,0,0,0,0,0,0,0,0,0,-1,1182,1541,0,0
-35,-517,0,0,0,0,0,0,0,0,0,-1,1189,1541,0,0
-28,-517,0,0,0,0,0,0,0,0,0,-1,1196,1541,0,0
-21,-517,0,0,0,0,0,0,0,0,0,-1,1203,1541,0,0
-14,-517,0,0,0,0,0,0,0,0,0,-1,1210,1541,0,0
-7,-517,0,0,0,0,0,0,0,0,0,-1,1217,1541,0,0
0,-517,0,0,0,0,0,0,0,0,0,-1,1224,1541,0,0
7,-517,0,0,0,0,0,0,0,0,0,-1,1231,1541,0,0
14,-517,0,0,0,0,0,0,0,0,0,-1,1238,1541,0,0
21,-517,0,0,0,0,0,0,0,0,0,-1,1245,1541,0,0
28,-517,0,0,0,0,0,0,0,0,0,-1,1252,1541,0,0
35,-517,0,0,0,0,0,0,0,0,0,-1,1259,1541,0,0
42,-517,0,0,0,0,0,0,0,0,0,-1,1266,1541,0,0
49,-517,0,0,0,0,0,0,0,0,0,-1,1273,1541,0,0
56,-517,0,0,0,0,0,0,0,0,0,-1,1280,1541,0,0
63,-517,0,0,0,0,0,0,0,0,0,-1,1287,1541,0,0
70,-517,0,0,0,0,0,0,0,0,0,-1,1294,1541,0,0
77,-517,0,0,0,0,0,0,0,0,0,-1,1301,1541,0,0
84,-517,0,0,0,0,0,0,0,0,0,-1,1308,1541,0,0
91,-517,0,0,0,0,0,0,0,0,0,-1,1315,1541,0,0
98,-517,0,0,0,0,0,0,0,0,0,-1,1322,1541,0,0
105,-517,0,0,0,0,0,0,0,0,0,-1,1329,1541,0,0
112,-517,0,0,0,0,0,0,0,0,0,-1,1336,1541,0,0
119,-517,0,0,0,0,0,0,0,0,0,-1,1343,1541,0,0
126,-517,0,0,0,0,0,0,0,0,0,-1,1350,1541,0,0
133,-517,0,0,0,0,0,0,0,0,0,-1,1357,1541,0,0
140,-517,0,0,0,0,0,0,0,0,0,-1,1364,1541,0,0
147,-517,0,0,0,0,0,0,0,0,0,-1,1371,1541,0,0
154,-517,0,0,0,0,0,0,0,0,0,-1,1378,1541,0,0
161,-517,0,0,0,0,0,0,0,0,0,-1,1385,1541,0,0
168,-517,0,0,0,0,0,0,0,0,0,-1,1392,1541,0,0
175,-517,0,0,0,0,0,0,0,0,0,-1,1399,1541,0,0
182,-517,0,0,0,0,0,0,0,0,0,-1,1406,1541,0,0
189,-517,0,0,0,0,0,0,0,0,0,-1,1413,1541,0,0
196,-517,0,0,0,0,0,0,0,0,0,-1,1420,1541,0,0
203,-517,0,0,0,0,0,0,0,0,0,-1,1427,1541,0,0
210,-517,0,0,0,0,0,0,0,0,0,-1,1434,1541,0,0
217,-517,0,0,0,0,0,0,0,0,0,-1,1441,1541,0,0
224,-517,0,0,0,0,0,0,0,0,0,-1,1448,1541,0,0
231,-517,0,0,0,0,0,0,0,0,0,-1,1455,1541,0,0
238,-517,0,0,0,0,0,0,0,0,0,-1,1462,1541,0,0
245,-517,0,0,0,0,0,0,0,0,0,-1,1469,1541,0,0
252,-517,0,0,0,0,0,0,0,0,0,-1,1476,1541,0,0
259,-517,0,0,0,0,0,0,0,0,0,-1,1483,1541,0,0
266,-517,0,0,0,0,0,0,0,0,0,-1,1490,1541,0,0
273,-517,0,0,0,0,0,0,0,0,0,-1,1497,1541,0,0
280,-517,0,0,0,0,0,0,0,0,0,-1,1504,1541,0,0
287,-517,0,0,0,0,0,0,0,0,0,-1,1511,1541,0,0
294,-517,0,0,0,0,0,0,0,0,0,-1,1518,1541,0,0
301,-517,0,0,0,0,0,0,0,0,0,-1,1525,1541,0,0
308,-517,0,0,0,0,0,0,0,0,0,-1,1532,1541,0,0
315,-517,0,0,0,0,0,0,0,0,0,-1,1539,1541,0,0
322,-517,0,0,0,0,0,0,0,0,0,-1,1546,1541,0,0
329,-517,0,0,0,0,0,0,0,0,0,-1,1553,1541,0,0
336,-517,0,0,0,0,0,0,0,0,0,-1,1560,1541,0,0
343,-517,0,0,0,0,0,0,0,0,0,-1,1567,1541,0,0
350,-517,0,0,0,0,0,0,0,0,0,-1,1574,1541,0,0
357,-517,0,0,0,0,0,0,0,0,0,-1,1581,1541,0,0
364,-517,0,0,0,0,0,0,0,0,0,-1,1588,1541,0,0
371,-517,0,0,0,0,0,0,0,0,0,-1,1595,1541,0,0
378,-517,0,0,0,0,0,0,0,0,0,-1,1602,1541,0,0
385,-517,0,0,0,0,0,0,0,0,0,-1,1609,1541,0,0
392,-517,0,0,0,0,0,0,0,0,0,-1,1616,1541,0,0
399,-517,0,0,0,0,0,0,0,0,0,-1,1623,1541,0,0
406,-517,13.1395,7.01978,0,0,0,0,0,0,0,-1,1630,1541,13.1396,-7.01981
413,-517,12.8859,6.31592,0,0,0,0,0,0,0,-1,1637,1541,12.8858,-6.31588
420,-517,12.4789,6.20337,0,0,0,0,0,0,0,-1,1644,1541,12.4789,-6.20333
427,-517,11.647,4.66516,0,0,0,0,0,0,0,-1,1651,1541,11.647,-4.66519
434,-517,12.3719,3.92773,0,0,0,0,0,0,0,-1,1658,1541,12.3719,-3.92776
441,-517,13.146,3.14124,0,0,0,0,0,0,0,-1,1665,1541,13.146,-3.14121
448,-517,13.8861,2.36682,0,0,0,0,0,0,0,-1,1672,1541,13.8861,-2.36684
455,-517,13.6012,4.06335,0,0,0,0,0,0,0,-1,1679,1541,13.6012,-4.06335
462,-517,14.8956,7.0752,0,0,0,0,0,0,0,-1,1686,1541,14.8956,-7.07525
469,-517,13.6292,6.87744,0,0,0,0,0,0,0,-1,1693,1541,13.6292,-6.87739
476,-517,14.2998,12.3209,0,0,0,0,0,0,0,-1,1700,1541,14.2998,-12.321
483,-517,14.1245,12.7913,0,0,0,0,0,0,0,-1,1707,1541,14.1246,-12.7913
490,-517,13.084,15.6495,0,0,0,0,0,0,0,-1,1714,1541,13.084,-15.6495
497,-517,15.0645,17.4987,0,0,0,0,0,0,0,-1,1721,1541,15.0645,-17.4986
504,-517,14.4468,17.3381,0,0,0,0,0,0,0,-1,1728,1541,14.4468,-17.3381
511,-517,13.9468,17.5403,0,0,0,0,0,0,0,-1,1735,1541,13.9467,-17.5403
518,-517,13.8612,16.8951,-0.00571463,0.000744424,0.00616331,0.00447307,-0.00944328,1.02673,0.00820365,0.0488124,1742,1541,13.8612,-16.8952
525,-517,13.9652,16.4,-0.00432837,0.00103533,0.00485243,0.0038977,-0.00719074,1.03785,0.00649534,0.0176701,1749,1541,13.9652,-16.4
532,-517,14.0797,16.0024,-0.00325419,0.00108325,0.00382688,0.0033132,-0.00548414,1.04319,0.00513044,0.0117626,1756,1541,14.0798,-16.0025
539,-517,14.0928,15.6504,-0.00217457,0.00111819,0.002873,0.00278311,-0.00383949,1.04558,0.00383974,0.0119856,1763,1541,14.0927,-15.6504
546,-517,14.0765,15.3212,-0.00109092,0.000966716,0.00193647,0.0021307,-0.0022549,1.02958,0.00253237,0.0127018,1770,1541,14.0766,-15.3212
553,-517,14.0588,14.9982,-0.000311567,0.000492389,0.00135472,0.00150351,-0.00132269,0.929622,0.00163282,0.0165348,1777,1541,14.0588,-14.9981
560,-517,14.0513,14.6445,0.000485793,0.000190509,0.000730565,0.00108349,-0.000407183,0.685694,0.000889673,0.0171658,1784,1541,14.0513,-14.6446
567,-517,14.0474,14.3091,0.00134973,-8.96065e-05,0.000118715,0.00135945,-9.93323e-05,0.0817431,0.000941162,0.0138567,1791,1541,14.0474,-14.3091
574,-517,14.0369,13.9354,0.00224885,-0.000155402,-0.000557464,0.00237182,-0.00027837,-0.217107,0.0016817,0.0131171,1798,1541,14.0369,-13.9354
581,-517,14.0156,13.5809,0.00330163,-0.000152738,-0.00125616,0.00371012,-0.000561227,-0.314403,0.00268015,0.0134257,1805,1541,14.0156,-13.5809
588,-517,14.0272,13.2301,0.00423122,-0.000342792,-0.00157696,0.0047222,-0.000833771,-0.301832,0.00345971,0.014844,1812,1541,14.0272,-13.2301
595,-517,14.0753,12.931,0.0049774,-0.00018304,-0.0018366,0.0055643,-0.000769941,-0.309301,0.00399101,0.0406796,1819,1541,14.0753,-12.931
602,-517,14.2969,12.399,0,0,0,0,0,0,0,-1,1826,1541,14.2969,-12.3991
609,-517,12.6417,10.8751,0,0,0,0,0,0,0,-1,1833,1541,12.6417,-10.8751
616,-517,14.205,10.3193,0,0,0,0,0,0,0,-1,1840,1541,14.205,-10.3194
623,-517,12.578,10.0779,0,0,0,0,0,0,0,-1,1847,1541,12.578,-10.0779
630,-517,11.7035,7.47815,0,0,0,0,0,0,0,-1,1854,1541,11.7035,-7.47812
637,-517,11.5172,5.79822,0,0,0,0,0,0,0,-1,1861,1541,11.5173,-5.79825
644,-517,11.4232,3.30579,0,0,0,0,0,0,0,-1,1868,1541,11.4232,-3.30574
651,-517,0,0,0,0,0,0,0,0,0,-1,1875,1541,0,0
658,-517,0,0,0,0,0,0,0,0,0,-1,1882,1541,0,0
665,-517,0,0,0,0,0,0,0,0,0,-1,1889,1541,0,0
672,-517,0,0,0,0,0,0,0,0,0,-1,1896,1541,0,0
679,-517,0,0,0,0,0,0,0,0,0,-1,1903,1541,0,0
686,-517,0,0,0,0,0,0,0,0,0,-1,1910,1541,0,0
693,-517,0,0,0,0,0,0,0,0,0,-1,1917,1541,0,0
700,-517,0,0,0,0,0,0,0,0,0,-1,1924,1541,0,0
707,-517,0,0,0,0,0,0,0,0,0,-1,1931,1541,0,0
714,-517,0,0,0,0,0,0,0,0,0,-1,1938,1541,0,0
721,-517,0,0,0,0,0,0,0,0,0,-1,1945,1541,0,0
728,-517,0,0,0,0,0,0,0,0,0,-1,1952,1541,0,0
735,-517,0,0,0,0,0,0,0,0,0,-1,1959,1541,0,0
742,-517,0,0,0,0,0,0,0,0,0,-1,1966,1541,0,0
749,-517,0,0,0,0,0,0,0,0,0,-1,1973,1541,0,0
756,-517,0,0,0,0,0,0,0,0,0,-1,1980,1541,0,0
763,-517,0,0,0,0,0,0,0,0,0,-1,1987,1541,0,0
770,-517,0,0,0,0,0,0,0,0,0,-1,1994,1541,0,0
777,-517,0,0,0,0,0,0,0,0,0,-1,2001,1541,0,0
784,-517,0,0,0,0,0,0,0,0,0,-1,2008,1541,0,0
791,-517,0,0,0,0,0,0,0,0,0,-1,2015,1541,0,0
798,-517,0,0,0,0,0,0,0,0,0,-1,2022,1541,0,0
805,-517,0,0,0,0,0,0,0,0,0,-1,2029,1541,0,0
812,-517,0,0,0,0,0,0,0,0,0,-1,2036,1541,0,0
-700,-524,0,0,0,0,0,0,0,0,0,-1,524,1548,0,0
-693,-524,0,0,0,0,0,0,0,0,0,-1,531,1548,0,0
-686,-524,0,0,0,0,0,0,0,0,0,-1,538,1548,0,0
-679,-524,0,0,0,0,0,0,0,0,0,-1,545,1548,0,0
-672,-524,0,0,0,0,0,0,0,0,0,-1,552,1548,0,0
-665,-524,0,0,0,0,0,0,0,0,0,-1,559,1548,0,0
-658,-524,0,0,0,0,0,0,0,0,0,-1,566,1548,0,0
-651,-524,0,0,0,0,0,0,0,0,0,-1,573,1548,0,0
-644,-524,0,0,0,0,0,0,0,0,0,-1,580,1548,0,0
-637,-524,0,0,0,0,0,0,0,0,0,-1,587,1548,0,0
-630,-524,0,0,0,0,0,0,0,0,0,-1,594,1548,0,0
-623,-524,0,0,0,0,0,0,0,0,0,-1,601,1548,0,0
-616,-524,0,0,0,0,0,0,0,0,0,-1,608,1548,0,0
-609,-524,0,0,0,0,0,0,0,0,0,-1,615,1548,0,0
-602,-524,0,0,0,0,0,0,0,0,0,-1,622,1548,0,0
-595,-524,0,0,0,0,0,0,0,0,0,-1,629,1548,0,0
-588,-524,0,0,0,0,0,0,0,0,0,-1,636,1548,0,0
-581,-524,0,0,0,0,0,0,0,0,0,-1,643,1548,0,0
-574,-524,0,0,0,0,0,0,0,0,0,-1,650,1548,0,0
-567,-524,0,0,0,0,0,0,0,0,0,-1,657,1548,0,0
-560,-524,0,0,0,0,0,0,0,0,0,-1,664,1548,0,0
-553,-524,0,0,0,0,0,0,0,0,0,-1,671,1548,0,0
-546,-524,0,0,0,0,0,0,0,0,0,-1,678,1548,0,0
-539,-524,0,0,0,0,0,0,0,0,0,-1,685,1548,0,0
-532,-524,0,0,0,0,0,0,0,0,0,-1,692,1548,0,0
-525,-524,-0.215515,3.97131,0,0,0,0,0,0,0,-1,699,1548,-0.215501,-3.97136
-518,-524,-0.806274,4.35632,0,0,0,0,0,0,0,-1,706,1548,-0.806259,-4.35633
-511,-524,-1.08301,4.29004,0,0,0,0,0,0,0,-1,713,1548,-1.08301,-4.29006
-504,-524,-1.28821,3.98145,0,0,0,0,0,0,0,-1,720,1548,-1.28822,-3.98151
-497,-524,-0.420349,8.55383,0,0,0,0,0,0,0,-1,727,1548,-0.420322,-8.55384
-490,-524,-0.145386,8.50439,0,0,0,0,0,0,0,-1,734,1548,-0.145407,-8.50436
-483,-524,-1.67316,10.3947,0,0,0,0,0,0,0,-1,741,1548,-1.67315,-10.3947
-476,-524,-1.71442,10.798,0.00702321,-0.0105801,5.19437e-05,0.00702337,-0.0105802,0.00295077,0.0102323,0.0460874,748,1548,-1.71441,-10.798
-469,-524,-1.66467,11.162,0.00653603,-0.00759255,0.000359374,0.00654516,-0.00760168,0.025414,0.00817527,0.0351498,755,1548,-1.66468,-11.162
-462,-524,-1.59631,11.4918,0.00595104,-0.00522168,0.000609924,0.00598423,-0.00525488,0.0543751,0.00649346,0.0295853,762,1548,-1.59633,-11.4918
-455,-524,-1.58447,11.7198,0.00521644,-0.00342674,0.000771938,0.00528484,-0.00349514,0.0883797,0.00510411,0.021237,769,1548,-1.5845,-11.7199
-448,-524,-1.55939,12.0776,0.00426841,-0.00219921,0.000709194,0.00434526,-0.00227606,0.107944,0.00388454,0.0130235,776,1548,-1.55937,-12.0776
-441,-524,-1.57227,12.4567,0.0035616,-0.00120296,0.000861743,0.00371267,-0.00135403,0.173543,0.00302907,0.0110889,783,1548,-1.57229,-12.4567
-434,-524,-1.56586,12.8339,0.00318756,-7.62411e-05,0.0011912,0.00357607,-0.000464749,0.315271,0.0025531,0.0128425,790,1548,-1.56583,-12.8338
-427,-524,-1.57269,13.2213,0.0028944,0.000860997,0.00161918,0.00378962,-3.42226e-05,0.505054,0.0025379,0.0127625,797,1548,-1.57267,-13.2214
-420,-524,-1.59418,13.6099,0.00276261,0.00169554,0.00196599,0.00426618,0.000191978,0.652898,0.00278233,0.010763,804,1548,-1.59419,-13.6098
-413,-524,-1.59229,13.9823,0.00284058,0.00264309,0.00242812,0.00517196,0.000311711,0.765076,0.00334891,0.0108393,811,1548,-1.59226,-13.9823
-406,-524,-1.59967,14.3568,0.00310409,0.00369292,0.0031426,0.00655486,0.000242145,0.832104,0.00429147,0.0117482,818,1548,-1.59965,-14.3569
-399,-524,-1.60535,14.7256,0.00361541,0.00501663,0.00389329,0.00827185,0.000360199,0.874422,0.00539851,0.00962176,825,1548,-1.60536,-14.7256
-392,-524,-1.6012,15.0835,0.00440773,0.00705278,0.00423838,0.0101702,0.00129033,0.936629,0.00639356,0.0103177,832,1548,-1.6012,-15.0835
-385,-524,-1.62146,15.4926,0.00491017,0.00857335,0.00320378,0.0104321,0.00305138,1.04507,0.00619348,0.013191,839,1548,-1.62148,-15.4926
-378,-524,-1.55267,16.0883,0.00476025,0.00921348,0.00101017,0.00943192,0.00454182,1.35784,0.00544676,0.0366416,846,1548,-1.55268,-16.0883
-371,-524,-1.46149,16.6438,0,0,0,0,0,0,0,-1,853,1548,-1.46151,-16.6438
-364,-524,-0.712097,14.9871,0,0,0,0,0,0,0,-1,860,1548,-0.712116,-14.9871
-357,-524,-1.34052,14.7448,0,0,0,0,0,0,0,-1,867,1548,-1.34054,-14.7447
-350,-524,-2.63245,12.7522,0,0,0,0,0,0,0,-1,874,1548,-2.63245,-12.7522
-343,-524,-3.11719,14.8851,0,0,0,0,0,0,0,-1,881,1548,-3.11718,-14.8851
-336,-524,-2.3161,17.8035,0,0,0,0,0,0,0,-1,888,1548,-2.31607,-17.8035
-329,-524,-1.9552,17.6898,0,0,0,0,0,0,0,-1,895,1548,-1.95523,-17.6898
-322,-524,-2.88702,18.4606,0,0,0,0,0,0,0,-1,902,1548,-2.88699,-18.4606
-315,-524,-1.90839,19.4824,0,0,0,0,0,0,0,-1,909,1548,-1.90838,-19.4824
-308,-524,-2.36938,19.3059,0,0,0,0,0,0,0,-1,916,1548,-2.3694,-19.3058
-301,-524,2.72394,17.7618,0,0,0,0,0,0,0,-1,923,1548,2.72396,-17.7619
-294,-524,-1.52515,9.05408,0,0,0,0,0,0,0,-1,930,1548,-1.52512,-9.05411
-287,-524,-0.962219,10.3199,0,0,0,0,0,0,0,-1,937,1548,-0.962241,-10.32
-280,-524,-1.36255,10.3859,0,0,0,0,0,0,0,-1,944,1548,-1.36253,-10.3859
-273,-524,0,0,0,0,0,0,0,0,0,-1,951,1548,0,0
-266,-524,0,0,0,0,0,0,0,0,0,-1,958,1548,0,0
-259,-524,0,0,0,0,0,0,0,0,0,-1,965,1548,0,0
-252,-524,0,0,0,0,0,0,0,0,0,-1,972,1548,0,0
-245,-524,0,0,0,0,0,0,0,0,0,-1,979,1548,0,0
-238,-524,0,0,0,0,0,0,0,0,0,-1,986,1548,0,0
-231,-524,0,0,0,0,0,0,0,0,0,-1,993,1548,0,0
-224,-524,0,0,0,0,0,0,0,0,0,-1,1000,1548,0,0
-217,-524,0,0,0,0,0,0,0,0,0,-1,1007,1548,0,0
-210,-524,0,0,0,0,0,0,0,0,0,-1,1014,1548,0,0
-203,-524,0,0,0,0,0,0,0,0,0,-1,1021,1548,0,0
-196,-524,0,0,0,0,0,0,0,0,0,-1,1028,1548,0,0
-189,-524,0,0,0,0,0,0,0,0,0,-1,1035,1548,0,0
-182,-524,0,0,0,0,0,0,0,0,0,-1,1042,1548,0,0
-175,-524,0,0,0,0,0,0,0,0,0,-1,1049,1548,0,0
-168,-524,0,0,0,0,0,0,0,0,0,-1,1056,1548,0,0
-161,-524,0,0,0,0,0,0,0,0,0,-1,1063,1548,0,0
-154,-524,0,0,0,0,0,0,0,0,0,-1,1070,1548,0,0
-147,-524,0,0,0,0,0,0,0,0,0,-1,1077,1548,0,0
-140,-524,0,0,0,0,0,0,0,0,0,-1,1084,1548,0,0
-133,-524,0,0,0,0,0,0,0,0,0,-1,1091,1548,0,0
-126,-524,0,0,0,0,0,0,0,0,0,-1,1098,1548,0,0
-119,-524,0,0,0,0,0,0,0,0,0,-1,1105,1548,0,0
-112,-524,0,0,0,0,0,0,0,0,0,-1,1112,1548,0,0
-105,-524,0,0,0,0,0,0,0,0,0,-1,1119,1548,0,0
-98,-524,0,0,0,0,0,0,0,0,0,-1,1126,1548,0,0
-91,-524,0,0,0,0,0,0,0,0,0,-1,1133,1548,0,0
-84,-524,0,0,0,0,0,0,0,0,0,-1,1140,1548,0,0
-77,-524,0,0,0,0,0,0,0,0,0,-1,1147,1548,0,0
-70,-524,0,0,0,0,0,0,0,0,0,-1,1154,1548,0,0
-63,-524,0,0,0,0,0,0,0,0,0,-1,1161,1548,0,0
-56,-524,0,0,0,0,0,0,0,0,0,-1,1168,1548,0,0
-49,-524,0,0,0,0,0,0,0,0,0,-1,1175,1548,0,0
-42,-524,0,0,0,0,0,0,0,0,0,-1,1182,1548,0,0
-35,-524,0,0,0,0,0,0,0,0,0,-1,1189,1548,0,0
-28,-524,0,0,0,0,0,0,0,0,0,-1,1196,1548,0,0
-21,-524,0,0,0,0,0,0,0,0,0,-1,1203,1548,0,0
-14,-524,0,0,0,0,0,0,0,0,0,-1,1210,1548,0,0
-7,-524,0,0,0,0,0,0,0,0,0,-1,1217,1548,0,0
0,-524,0,0,0,0,0,0,0,0,0,-1,1224,1548,0,0
7,-524,0,0,0,0,0,0,0,0,0,-1,1231,1548,0,0
14,-524,0,0,0,0,0,0,0,0,0,-1,1238,1548,0,0
21,-524,0,0,0,0,0,0,0,0,0,-1,1245,1548,0,0
28,-524,0,0,0,0,0,0,0,0,0,-1,1252,1548,0,0
35,-524,0,0,0,0,0,0,0,0,0,-1,1259,1548,0,0
42,-524,0,0,0,0,0,0,0,0,0,-1,1266,1548,0,0
49,-524,0,0,0,0,0,0,0,0,0,-1,1273,1548,0,0
56,-524,0,0,0,0,0,0,0,0,0,-1,1280,1548,0,0
63,-524,0,0,0,0,0,0,0,0,0,-1,1287,1548,0,0
70,-524,0,0,0,0,0,0,0,0,0,-1,1294,1548,0,0
77,-524,0,0,0,0,0,0,0,0,0,-1,1301,1548,0,0
84,-524,0,0,0,0,0,0,0,0,0,-1,1308,1548,0,0
91,-524,0,0,0,0,0,0,0,0,0,-1,1315,1548,0,0
98,-524,0,0,0,0,0,0,0,0,0,-1,1322,1548,0,0
105,-524,0,0,0,0,0,0,0,0,0,-1,1329,1548,0,0
112,-524,0,0,0,0,0,0,0,0,0,-1,1336,1548,0,0
119,-524,0,0,0,0,0,0,0,0,0,-1,1343,1548,0,0
126,-524,0,0,0,0,0,0,0,0,0,-1,1350,1548,0,0
133,-524,0,0,0,0,0,0,0,0,0,-1,1357,1548,0,0
140,-524,0,0,0,0,0,0,0,0,0,-1,1364,1548,0,0
147,-524,0,0,0,0,0,0,0,0,0,-1,1371,1548,0,0
154,-524,0,0,0,0,0,0,0,0,0,-1,1378,1548,0,0
161,-524,0,0,0,0,0,0,0,0,0,-1,1385,1548,0,0
168,-524,0,0,0,0,0,0,0,0,0,-1,1392,1548,0,0
175,-524,0,0,0,0,0,0,0,0,0,-1,1399,1548,0,0
182,-524,0,0,0,0,0,0,0,0,0,-1,1406,1548,0,0
189,-524,0,0,0,0,0,0,0,0,0,-1,1413,1548,0,0
196,-524,0,0,0,0,0,0,0,0,0,-1,1420,1548,0,0
203,-524,0,0,0,0,0,0,0,0,0,-1,1427,1548,0,0
210,-524,0,0,0,0,0,0,0,0,0,-1,1434,1548,0,0
217,-524,0,0,0,0,0,0,0,0,0,-1,1441,1548,0,0
224,-524,0,0,0,0,0,0,0,0,0,-1,1448,1548,0,0
231,-524,0,0,0,0,0,0,0,0,0,-1,1455,1548,0,0
238,-524,0,0,0,0,0,0,0,0,0,-1,1462,1548,0,0
245,-524,0,0,0,0,0,0,0,0,0,-1,1469,1548,0,0
252,-524,0,0,0,0,0,0,0,0,0,-1,1476,1548,0,0
259,-524,0,0,0,0,0,0,0,0,0,-1,1483,1548,0,0
266,-524,0,0,0,0,0,0,0,0,0,-1,1490,1548,0,0
273,-524,0,0,0,0,0,0,0,0,0,-1,1497,1548,0,0
280,-524,0,0,0,0,0,0,0,0,0,-1,1504,1548,0,0
287,-524,0,0,0,0,0,0,0,0,0,-1,1511,1548,0,0
294,-524,0,0,0,0,0,0,0,0,0,-1,1518,1548,0,0
301,-524,0,0,0,0,0,0,0,0,0,-1,1525,1548,0,0
308,-524,0,0,0,0,0,0,0,0,0,-1,1532,1548,0,0
315,-524,0,0,0,0,0,0,0,0,0,-1,1539,1548,0,0
322,-524,0,0,0,0,0,0,0,0,0,-1,1546,1548,0,0
329,-524,0,0,0,0,0,0,0,0,0,-1,1553,1548,0,0
336,-524,0,0,0,0,0,0,0,0,0,-1,1560,1548,0,0
343,-524,0,0,0,0,0,0,0,0,0,-1,1567,1548,0,0
350,-524,0,0,0,0,0,0,0,0,0,-1,1574,1548,0,0
357,-524,0,0,0,0,0,0,0,0,0,-1,1581,1548,0,0
364,-524,0,0,0,0,0,0,0,0,0,-1,1588,1548,0,0
371,-524,0,0,0,0,0,0,0,0,0,-1,1595,1548,0,0
378,-524,0,0,0,0,0,0,0,0,0,-1,1602,1548,0,0
385,-524,0,0,0,0,0,0,0,0,0,-1,1609,1548,0,0
392,-524,0,0,0,0,0,0,0,0,0,-1,1616,1548,0,0
399,-524,8.81848,5.05774,0,0,0,0,0,0,0,-1,1623,1548,8.81843,-5.05769
406,-524,8.64294,6.06799,0,0,0,0,0,0,0,-1,1630,1548,8.6429,-6.06805
413,-524,11.677,6.41858,0,0,0,0,0,0,0,-1,1637,1548,11.677,-6.41864
420,-524,11.4913,6.36401,0,0,0,0,0,0,0,-1,1644,1548,11.4913,-6.36402
427,-524,7.68335,6.17249,0,0,0,0,0,0,0,-1,1651,1548,7.68341,-6.17245
434,-524,10.432,11.6801,0,0,0,0,0,0,0,-1,1658,1548,10.432,-11.68
441,-524,8.78552,4.12305,0,0,0,0,0,0,0,-1,1665,1548,8.78553,-4.12301
448,-524,14.1854,4.78674,0,0,0,0,0,0,0,-1,1672,1548,14.1854,-4.78674
455,-524,12.4784,3.65576,0,0,0,0,0,0,0,-1,1679,1548,12.4784,-3.65572
462,-524,14.7551,9.29395,0,0,0,0,0,0,0,-1,1686,1548,14.7552,-9.29397
469,-524,13.6931,12.1787,0,0,0,0,0,0,0,-1,1693,1548,13.6932,-12.1787
476,-524,13.6919,13.1974,0,0,0,0,0,0,0,-1,1700,1548,13.6918,-13.1974
483,-524,13.6121,14.4203,0,0,0,0,0,0,0,-1,1707,1548,13.612,-14.4203
490,-524,14.6271,17.4558,0,0,0,0,0,0,0,-1,1714,1548,14.6271,-17.4558
497,-524,13.5887,17.8639,0,0,0,0,0,0,0,-1,1721,1548,13.5887,-17.8639
504,-524,13.67,17.313,-0.00615428,-0.000867963,0.00669363,0.00368547,-0.0107077,0.973439,0.00863329,0.0320915,1728,1548,13.6701,-17.313
511,-524,13.6163,17.1582,-0.00420134,0.000340503,0.00488743,0.00345884,-0.00731967,1.00288,0.00635466,0.0301553,1735,1548,13.6164,-17.1582
518,-524,13.7306,16.7024,-0.00300614,0.000808978,0.00378811,0.00314271,-0.00533987,1.01865,0.00495188,0.0206907,1742,1548,13.7306,-16.7024
525,-524,13.7383,16.3778,-0.00222819,0.000965613,0.00300068,0.00276786,-0.00403043,1.02993,0.00394749,0.0144149,1749,1548,13.7383,-16.3778
532,-524,13.738,16.0201,-0.00168151,0.000940639,0.00242544,0.00238668,-0.00312755,1.03318,0.00319321,0.0101466,1756,1548,13.738,-16.0201
539,-524,13.7389,15.6544,-0.00104401,0.000917988,0.00185539,0.00203576,-0.00216178,1.02858,0.00242381,0.0104813,1763,1548,13.7389,-15.6544
546,-524,13.7172,15.3237,-0.000385231,0.000682686,0.00129985,0.00155397,-0.00125652,0.980283,0.00162566,0.0138641,1770,1548,13.7172,-15.3238
553,-524,13.7258,15.0121,2.6304e-05,0.000154081,0.00104086,0.00113301,-0.000952628,0.81605,0.00120565,0.022662,1777,1548,13.7258,-15.0121
560,-524,13.7516,14.6056,0.000543528,-0.000228931,0.000690011,0.00094805,-0.000633454,0.530252,0.000919084,0.031053,1784,1548,13.7516,-14.6056
567,-524,13.6978,14.3038,0.00121036,-0.000569612,0.000286782,0.00125543,-0.000614676,0.155863,0.00110063,0.0179616,1791,1548,13.6978,-14.3038
574,-524,13.6967,13.9491,0.0020308,-0.000674596,-0.000289283,0.00206139,-0.000705183,-0.105341,0.00166002,0.0123748,1798,1548,13.6967,-13.9491
581,-524,13.6844,13.5846,0.00311238,-0.000712771,-0.000943667,0.00333252,-0.000932906,-0.229177,0.00258929,0.0131979,1805,1548,13.6844,-13.5847
588,-524,13.7264,13.2274,0.00408156,-0.00102898,-0.00114262,0.0043254,-0.00127281,-0.210246,0.00338851,0.0201237,1812,1548,13.7264,-13.2275
595,-524,13.7875,12.7341,0,0,0,0,0,0,0,-1,1819,1548,13.7875,-12.7342
602,-524,13.837,12.0682,0,0,0,0,0,0,0,-1,1826,1548,13.837,-12.0683
609,-524,13.0056,10.5138,0,0,0,0,0,0,0,-1,1833,1548,13.0056,-10.5138
616,-524,11.6941,8.65515,0,0,0,0,0,0,0,-1,1840,1548,11.6941,-8.65514
623,-524,9.38452,5.15356,0,0,0,0,0,0,0,-1,1847,1548,9.38456,-5.15359
630,-524,11.0541,3.57434,0,0,0,0,0,0,0,-1,1854,1548,11.0541,-3.57438
637,-524,11.6067,3.20728,0,0,0,0,0,0,0,-1,1861,1548,11.6067,-3.20724
644,-524,12.2134,0.727173,0,0,0,0,0,0,0,-1,1868,1548,12.2134,-0.727222
651,-524,0,0,0,0,0,0,0,0,0,-1,1875,1548,0,0
658,-524,0,0,0,0,0,0,0,0,0,-1,1882,1548,0,0
665,-524,0,0,0,0,0,0,0,0,0,-1,1889,1548,0,0
672,-524,0,0,0,0,0,0,0,0,0,-1,1896,1548,0,0
679,-524,0,0,0,0,0,0,0,0,0,-1,1903,1548,0,0
686,-524,0,0,0,0,0,0,0,0,0,-1,1910,1548,0,0
693,-524,0,0,0,0,0,0,0,0,0,-1,1917,1548,0,0
700,-524,0,0,0,0,0,0,0,0,0,-1,1924,1548,0,0
707,-524,0,0,0,0,0,0,0,0,0,-1,1931,1548,0,0
714,-524,0,0,0,0,0,0,0,0,0,-1,1938,1548,0,0
721,-524,0,0,0,0,0,0,0,0,0,-1,1945,1548,0,0
728,-524,0,0,0,0,0,0,0,0,0,-1,1952,1548,0,0
735,-524,0,0,0,0,0,0,0,0,0,-1,1959,1548,0,0
742,-524,0,0,0,0,0,0,0,0,0,-1,1966,1548,0,0
749,-524,0,0,0,0,0,0,0,0,0,-1,1973,1548,0,0
756,-524,0,0,0,0,0,0,0,0,0,-1,1980,1548,0,0
763,-524,0,0,0,0,0,0,0,0,0,-1,1987,1548,0,0
770,-524,0,0,0,0,0,0,0,0,0,-1,1994,1548,0,0
777,-524,0,0,0,0,0,0,0,0,0,-1,2001,1548,0,0
784,-524,0,0,0,0,0,0,0,0,0,-1,2008,1548,0,0
791,-524,0,0,0,0,0,0,0,0,0,-1,2015,1548,0,0
798,-524,0,0,0,0,0,0,0,0,0,-1,2022,1548,0,0
805,-524,0,0,0,0,0,0,0,0,0,-1,2029,1548,0,0
812,-524,0,0,0,0,0,0,0,0,0,-1,2036,1548,0,0
-700,-531,0,0,0,0,0,0,0,0,0,-1,524,1555,0,0
-693,-531,0,0,0,0,0,0,0,0,0,-1,531,1555,0,0
-686,-531,0,0,0,0,0,0,0,0,0,-1,538,1555,0,0
-679,-531,0,0,0,0,0,0,0,0,0,-1,545,1555,0,0
-672,-531,0,0,0,0,0,0,0,0,0,-1,552,1555,0,0
-665,-531,0,0,0,0,0,0,0,0,0,-1,559,1555,0,0
-658,-531,0,0,0,0,0,0,0,0,0,-1,566,1555,0,0
-651,-531,0,0,0,0,0,0,0,0,0,-1,573,1555,0,0
-644,-531,0,0,0,0,0,0,0,0,0,-1,580,1555,0,0
-637,-531,0,0,0,0,0,0,0,0,0,-1,587,1555,0,0
-630,-531,0,0,0,0,0,0,0,0,0,-1,594,1555,0,0
-623,-531,0,0,0,0,0,0,0,0,0,-1,601,1555,0,0
-616,-531,0,0,0,0,0,0,0,0,0,-1,608,1555,0,0
-609,-531,0,0,0,0,0,0,0,0,0,-1,615,1555,0,0
-602,-531,0,0,0,0,0,0,0,0,0,-1,622,1555,0,0
-595,-531,0,0,0,0,0,0,0,0,0,-1,629,1555,0,0
-588,-531,0,0,0,0,0,0,0,0,0,-1,636,1555,0,0
-581,-531,0,0,0,0,0,0,0,0,0,-1,643,1555,0,0
-574,-531,0,0,0,0,0,0,0,0,0,-1,650,1555,0,0
-567,-531,0,0,0,0,0,0,0,0,0,-1,657,1555,0,0
-560,-531,0,0,0,0,0,0,0,0,0,-1,664,1555,0,0
-553,-531,0,0,0,0,0,0,0,0,0,-1,671,1555,0,0
-546,-531,0,0,0,0,0,0,0,0,0,-1,678,1555,0,0
-539,-531,0,0,0,0,0,0,0,0,0,-1,685,1555,0,0
-532,-531,0,0,0,0,0,0,0,0,0,-1,692,1555,0,0
-525,-531,0,0,0,0,0,0,0,0,0,-1,699,1555,0,0
-518,-531,-1.63983,4.03821,0,0,0,0,0,0,0,-1,706,1555,-1.63982,-4.03821
-511,-531,-2.9682,8.07483,0,0,0,0,0,0,0,-1,713,1555,-2.9682,-8.07479
-504,-531,-2.95978,0.557861,0,0,0,0,0,0,0,-1,720,1555,-2.95978,-0.557917
-497,-531,-2.46039,8.07422,0,0,0,0,0,0,0,-1,727,1555,-2.46039,-8.07423
-490,-531,-0.423462,7.92065,0,0,0,0,0,0,0,-1,734,1555,-0.42344,-7.92066
-483,-531,-0.657166,8.91162,0,0,0,0,0,0,0,-1,741,1555,-0.65716,-8.9116
-476,-531,-1.71143,11.0303,0,0,0,0,0,0,0,-1,748,1555,-1.71141,-11.0302
-469,-531,-1.6413,11.3743,0.0104207,-0.00662682,0.00205699,0.0106654,-0.00687151,0.118398,0.0102036,0.0446024,755,1555,-1.64131,-11.3743
-462,-531,-1.56677,11.8516,0.00907168,-0.00422392,0.00195373,0.00935282,-0.00450507,0.142921,0.00816241,0.0425091,762,1555,-1.56675,-11.8515
-455,-531,-1.24152,11.9136,0.00755103,-0.00256329,0.00177154,0.00785234,-0.0028646,0.168472,0.0064069,0.0339513,769,1555,-1.24152,-11.9136
-448,-531,-1.13501,12.0946,0.00590469,-0.00155738,0.00138953,0.00615504,-0.00180773,0.178256,0.00482028,0.016334,776,1555,-1.13504,-12.0946
-441,-531,-1.19458,12.4641,0.00459145,-0.000820301,0.00121026,0.00484977,-0.00107863,0.21029,0.0036463,0.0113441,783,1555,-1.19456,-12.4641
-434,-531,-1.19312,12.8564,0.00371794,3.60188e-05,0.00125175,0.0041032,-0.000349233,0.29857,0.00285899,0.0113733,790,1555,-1.19311,-12.8565
-427,-531,-1.19147,13.2373,0.0030251,0.000723453,0.00145111,0.00372634,2.22196e-05,0.450149,0.00247685,0.0133164,797,1555,-1.19147,-13.2373
-420,-531,-1.20917,13.6376,0.00258152,0.00136265,0.00157468,0.00366058,0.00028359,0.600764,0.00235157,0.0123334,804,1555,-1.20919,-13.6376
-413,-531,-1.22607,14.0134,0.00240308,0.00214073,0.00180621,0.00408287,0.000460931,0.749149,0.00258202,0.0105867,811,1555,-1.22608,-14.0134
-406,-531,-1.22235,14.3766,0.00236791,0.00296148,0.00229512,0.00497893,0.000350463,0.849697,0.00320885,0.0120082,818,1555,-1.22236,-14.3766
-399,-531,-1.21722,14.7432,0.00255052,0.00399097,0.00285341,0.00621365,0.000327838,0.909021,0.00403759,0.0132272,825,1555,-1.21721,-14.7431
-392,-531,-1.24139,15.0837,0.00313357,0.00552909,0.00303329,0.00759254,0.00107012,0.973437,0.00474538,0.0163034,832,1555,-1.24142,-15.0837
-385,-531,-1.27954,15.4487,0.00359927,0.00674928,0.00212736,0.00782121,0.00252734,1.10405,0.00460878,0.0141229,839,1555,-1.27956,-15.4487
-378,-531,-1.27997,15.8082,0.00353306,0.00721596,0.000322844,0.00724404,0.00350498,1.48402,0.00418308,0.0145003,846,1555,-1.28,-15.8082
-371,-531,-1.18762,16.28,0.00362045,0.00806596,-0.00157543,0.00856766,0.00311875,-1.2625,0.00500715,0.0266652,853,1555,-1.18761,-16.28
-364,-531,-0.976501,16.9708,0,0,0,0,0,0,0,-1,860,1555,-0.976505,-16.9708
-357,-531,-1.12659,17.0557,0,0,0,0,0,0,0,-1,867,1555,-1.12661,-17.0556
-350,-531,-1.63184,17.7983,0,0,0,0,0,0,0,-1,874,1555,-1.63182,-17.7983
-343,-531,-1.93182,18.3232,0,0,0,0,0,0,0,-1,881,1555,-1.93181,-18.3233
-336,-531,-1.51422,17.835,-0.0010915,0.00937456,-0.026478,0.0311317,-0.0228486,-0.882959,0.0312876,0.0455654,888,1555,-1.51424,-17.835
-329,-531,-1.51849,17.6652,-0.00274253,0.00868183,-0.0331021,0.036561,-0.0306217,-0.870838,0.0388385,0.0488155,895,1555,-1.51847,-17.6652
-322,-531,-2.02307,17.4415,0,0,0,0,0,0,0,-1,902,1555,-2.02306,-17.4415
-315,-531,-1.26715,19.2592,0,0,0,0,0,0,0,-1,909,1555,-1.26717,-19.2592
-308,-531,-1.66455,19.0624,0,0,0,0,0,0,0,-1,916,1555,-1.66455,-19.0623
-301,-531,-2.02405,18.8912,0,0,0,0,0,0,0,-1,923,1555,-2.02407,-18.8913
-294,-531,-1.3244,8.1825,0,0,0,0,0,0,0,-1,930,1555,-1.3244,-8.18251
-287,-531,-1.78192,10.1661,0,0,0,0,0,0,0,-1,937,1555,-1.78192,-10.1661
-280,-531,-2.14508,10.3945,0,0,0,0,0,0,0,-1,944,1555,-2.14506,-10.3945
-273,-531,-2.50818,10.6229,0,0,0,0,0,0,0,-1,951,1555,-2.5082,-10.6229
-266,-531,-4.97742,17.9215,0,0,0,0,0,0,0,-1,958,1555,-4.97744,-17.9215
-259,-531,0,0,0,0,0,0,0,0,0,-1,965,1555,0,0
-252,-531,0,0,0,0,0,0,0,0,0,-1,972,1555,0,0
-245,-531,0,0,0,0,0,0,0,0,0,-1,979,1555,0,0
-238,-531,0,0,0,0,0,0,0,0,0,-1,986,1555,0,0
-231,-531,0,0,0,0,0,0,0,0,0,-1,993,1555,0,0
-224,-531,0,0,0,0,0,0,0,0,0,-1,1000,1555,0,0
-217,-531,0,0,0,0,0,0,0,0,0,-1,1007,1555,0,0
-210,-531,0,0,0,0,0,0,0,0,0,-1,1014,1555,0,0
-203,-531,0,0,0,0,0,0,0,0,0,-1,1021,1555,0,0
-196,-531,0,0,0,0,0,0,0,0,0,-1,1028,1555,0,0
-189,-531,0,0,0,0,0,0,0,0,0,-1,1035,1555,0,0
-182,-531,0,0,0,0,0,0,0,0,0,-1,1042,1555,0,0
-175,-531,0,0,0,0,0,0,0,0,0,-1,1049,1555,0,0
-168,-531,0,0,0,0,0,0,0,0,0,-1,1056,1555,0,0
-161,-531,0,0,0,0,0,0,0,0,0,-1,1063,1555,0,0
-154,-531,0,0,0,0,0,0,0,0,0,-1,1070,1555,0,0
-147,-531,0,0,0,0,0,0,0,0,0,-1,1077,1555,0,0
-140,-531,0,0,0,0,0,0,0,0,0,-1,1084,1555,0,0
-133,-531,0,0,0,0,0,0,0,0,0,-1,1091,1555,0,0
-126,-531,0,0,0,0,0,0,0,0,0,-1,1098,1555,0,0
-119,-531,0,0,0,0,0,0,0,0,0,-1,1105,1555,0,0
-112,-531,0,0,0,0,0,0,0,0,0,-1,1112,1555,0,0
-105,-531,0,0,0,0,0,0,0,0,0,-1,1119,1555,0,0
-98,-531,0,0,0,0,0,0,0,0,0,-1,1126,1555,0,0
-91,-531,0,0,0,0,0,0,0,0,0,-1,1133,1555,0,0
-84,-531,0,0,0,0,0,0,0,0,0,-1,1140,1555,0,0
-77,-531,0,0,0,0,0,0,0,0,0,-1,1147,1555,0,0
-70,-531,0,0,0,0,0,0,0,0,0,-1,1154,1555,0,0
-63,-531,0,0,0,0,0,0,0,0,0,-1,1161,1555,0,0
-56,-531,0,0,0,0,0,0,0,0,0,-1,1168,1555,0,0
-49,-531,0,0,0,0,0,0,0,0,0,-1,1175,1555,0,0
-42,-531,0,0,0,0,0,0,0,0,0,-1,1182,1555,0,0
-35,-531,0,0,0,0,0,0,0,0,0,-1,1189,1555,0,0
-28,-531,0,0,0,0,0,0,0,0,0,-1,1196,1555,0,0
-21,-531,0,0,0,0,0,0,0,0,0,-1,1203,1555,0,0
-14,-531,0,0,0,0,0,0,0,0,0,-1,1210,1555,0,0
-7,-531,0,0,0,0,0,0,0,0,0,-1,1217,1555,0,0
0,-531,0,0,0,0,0,0,0,0,0,-1,1224,1555,0,0
7,-531,0,0,0,0,0,0,0,0,0,-1,1231,1555,0,0
14,-531,0,0,0,0,0,0,0,0,0,-1,1238,1555,0,0
21,-531,0,0,0,0,0,0,0,0,0,-1,1245,1555,0,0
28,-531,0,0,0,0,0,0,0,0,0,-1,1252,1555,0,0
35,-531,0,0,0,0,0,0,0,0,0,-1,1259,1555,0,0
42,-531,0,0,0,0,0,0,0,0,0,-1,1266,1555,0,0
49,-531,0,0,0,0,0,0,0,0,0,-1,1273,1555,0,0
56,-531,0,0,0,0,0,0,0,0,0,-1,1280,1555,0,0
63,-531,0,0,0,0,0,0,0,0,0,-1,1287,1555,0,0
70,-531,0,0,0,0,0,0,0,0,0,-1,1294,1555,0,0
77,-531,0,0,0,0,0,0,0,0,0,-1,1301,1555,0,0
84,-531,0,0,0,0,0,0,0,0,0,-1,1308,1555,0,0
91,-531,0,0,0,0,0,0,0,0,0,-1,1315,1555,0,0
98,-531,0,0,0,0,0,0,0,0,0,-1,1322,1555,0,0
105,-531,0,0,0,0,0,0,0,0,0,-1,1329,1555,0,0
112,-531,0,0,0,0,0,0,0,0,0,-1,1336,1555,0,0
119,-531,0,0,0,0,0,0,0,0,0,-1,1343,1555,0,0
126,-531,0,0,0,0,0,0,0,0,0,-1,1350,1555,0,0
133,-531,0,0,0,0,0,0,0,0,0,-1,1357,1555,0,0
140,-531,0,0,0,0,0,0,0,0,0,-1,1364,1555,0,0
147,-531,0,0,0,0,0,0,0,0,0,-1,1371,1555,0,0
154,-531,0,0,0,0,0,0,0,0,0,-1,1378,1555,0,0
161,-531,0,0,0,0,0,0,0,0,0,-1,1385,1555,0,0
168,-531,0,0,0,0,0,0,0,0,0,-1,1392,1555,0,0
175,-531,0,0,0,0,0,0,0,0,0,-1,1399,1555,0,0
182,-531,0,0,0,0,0,0,0,0,0,-1,1406,1555,0,0
189,-531,0,0,0,0,0,0,0,0,0,-1,1413,1555,0,0
196,-531,0,0,0,0,0,0,0,0,0,-1,1420,1555,0,0
203,-531,0,0,0,0,0,0,0,0,0,-1,1427,1555,0,0
210,-531,0,0,0,0,0,0,0,0,0,-1,1434,1555,0,0
217,-531,0,0,0,0,0,0,0,0,0,-1,1441,1555,0,0
224,-531,0,0,0,0,0,0,0,0,0,-1,1448,1555,0,0
231,-531,0,0,0,0,0,0,0,0,0,-1,1455,1555,0,0
238,-531,0,0,0,0,0,0,0,0,0,-1,1462,1555,0,0
245,-531,0,0,0,0,0,0,0,0,0,-1,1469,1555,0,0
252,-531,0,0,0,0,0,0,0,0,0,-1,1476,1555,0,0
259,-531,0,0,0,0,0,0,0,0,0,-1,1483,1555,0,0
266,-531,0,0,0,0,0,0,0,0,0,-1,1490,1555,0,0
273,-531,0,0,0,0,0,0,0,0,0,-1,1497,1555,0,0
280,-531,0,0,0,0,0,0,0,0,0,-1,1504,1555,0,0
287,-531,0,0,0,0,0,0,0,0,0,-1,1511,1555,0,0
294,-531,0,0,0,0,0,0,0,0,0,-1,1518,1555,0,0
301,-531,0,0,0,0,0,0,0,0,0,-1,1525,1555,0,0
308,-531,0,0,0,0,0,0,0,0,0,-1,1532,1555,0,0
315,-531,0,0,0,0,0,0,0,0,0,-1,1539,1555,0,0
322,-531,0,0,0,0,0,0,0,0,0,-1,1546,1555,0,0
329,-531,0,0,0,0,0,0,0,0,0,-1,1553,1555,0,0
336,-531,0,0,0,0,0,0,0,0,0,-1,1560,1555,0,0
343,-531,0,0,0,0,0,0,0,0,0,-1,1567,1555,0,0
350,-531,0,0,0,0,0,0,0,0,0,-1,1574,1555,0,0
357,-531,0,0,0,0,0,0,0,0,0,-1,1581,1555,0,0
364,-531,0,0,0,0,0,0,0,0,0,-1,1588,1555,0,0
371,-531,0,0,0,0,0,0,0,0,0,-1,1595,1555,0,0
378,-531,0,0,0,0,0,0,0,0,0,-1,1602,1555,0,0
385,-531,3.48169,1.78625,0,0,0,0,0,0,0,-1,1609,1555,3.48165,-1.78624
392,-531,10.8781,9.09204,0,0,0,0,0,0,0,-1,1616,1555,10.8781,-9.09205
399,-531,8.26306,5.29602,0,0,0,0,0,0,0,-1,1623,1555,8.26302,-5.29607
406,-531,8.26147,5.42712,0,0,0,0,0,0,0,-1,1630,1555,8.26145,-5.42716
413,-531,8.20618,5.75012,0,0,0,0,0,0,0,-1,1637,1555,8.20619,-5.75017
420,-531,7.64868,7.09558,0,0,0,0,0,0,0,-1,1644,1555,7.64867,-7.09564
427,-531,9.93054,11.8412,0,0,0,0,0,0,0,-1,1651,1555,9.93059,-11.8412
434,-531,10.244,11.7072,0,0,0,0,0,0,0,-1,1658,1555,10.244,-11.7071
441,-531,11.4528,12.9397,0,0,0,0,0,0,0,-1,1665,1555,11.4528,-12.9397
448,-531,11.928,18.8029,0,0,0,0,0,0,0,-1,1672,1555,11.928,-18.8028
455,-531,14.4877,9.67065,0,0,0,0,0,0,0,-1,1679,1555,14.4876,-9.67066
462,-531,13.5253,12.2002,0,0,0,0,0,0,0,-1,1686,1555,13.5252,-12.2002
469,-531,15.5087,15.7894,0,0,0,0,0,0,0,-1,1693,1555,15.5086,-15.7895
476,-531,13.316,14.5055,0,0,0,0,0,0,0,-1,1700,1555,13.316,-14.5055
483,-531,14.1611,17.5432,0,0,0,0,0,0,0,-1,1707,1555,14.1611,-17.5432
490,-531,13.8019,17.6575,-0.00804407,-0.00294005,0.00783156,0.00274481,-0.0137289,0.942904,0.0101915,0.0476334,1714,1555,13.8019,-17.6574
497,-531,13.2952,17.8109,-0.00543366,-0.00165264,0.00580962,0.00256633,-0.00965263,0.9427,0.00743957,0.0352293,1721,1555,13.2952,-17.811
504,-531,13.3263,17.4362,-0.00312324,-0.000573673,0.00383435,0.00219225,-0.00588916,0.945882,0.00482579,0.0191546,1728,1555,13.3263,-17.4362
511,-531,13.3544,17.0796,-0.00177234,0.000219123,0.00263615,0.00204132,-0.00359454,0.965976,0.0032948,0.0143436,1735,1555,13.3544,-17.0796
518,-531,13.3757,16.7407,-0.00102864,0.000482133,0.00197038,0.00183696,-0.00238346,0.968443,0.00244346,0.0147173,1742,1555,13.3758,-16.7407
525,-531,13.3988,16.4011,-0.000626268,0.000528708,0.00156992,0.00162398,-0.00172154,0.96164,0.00193181,0.0135032,1749,1555,13.3988,-16.4011
532,-531,13.4215,16.04,-0.000428952,0.000446215,0.00135241,0.00143007,-0.00141281,0.941862,0.00164135,0.0105908,1756,1555,13.4215,-16.0401
539,-531,13.4034,15.683,-0.000125792,0.00036844,0.00112311,0.0012713,-0.00102865,0.893686,0.00133034,0.0122677,1763,1555,13.4034,-15.683
546,-531,13.3566,15.3278,0.000136772,5.39257e-05,0.000966356,0.00106259,-0.000871894,0.763979,0.00111868,0.0152573,1770,1555,13.3566,-15.3277
553,-531,13.4456,15.0232,0.000175308,-0.000503786,0.00106472,0.000953317,-0.00128179,0.631043,0.00129508,0.028934,1777,1555,13.4455,-15.0232
560,-531,13.4446,14.6713,0.000369689,-0.000954735,0.00104558,0.00094512,-0.00153017,0.503109,0.00144235,0.0329981,1784,1555,13.4446,-14.6713
567,-531,13.2913,14.3116,0.000777526,-0.00133179,0.00091479,0.00111899,-0.00167325,0.357249,0.00162265,0.0192536,1791,1555,13.2913,-14.3116
574,-531,13.3312,13.9663,0.0014642,-0.00145383,0.000494681,0.00154578,-0.00153542,0.163444,0.00177893,0.0125867,1798,1555,13.3312,-13.9663
581,-531,13.3488,13.5929,0.00253076,-0.00150916,-6.85601e-05,0.00253192,-0.00151032,-0.0169642,0.0023585,0.0134313,1805,1555,13.3487,-13.5929
588,-531,13.3706,13.172,0.00362666,-0.00198219,-0.000234003,0.00363641,-0.00199193,-0.0416239,0.00329543,0.0228422,1812,1555,13.3706,-13.172
595,-531,13.3698,12.7012,0,0,0,0,0,0,0,-1,1819,1555,13.3698,-12.7012
602,-531,13.701,11.8346,0,0,0,0,0,0,0,-1,1826,1555,13.701,-11.8347
609,-531,10.9072,8.50903,0,0,0,0,0,0,0,-1,1833,1555,10.9073,-8.50902
616,-531,10.5723,7.17859,0,0,0,0,0,0,0,-1,1840,1555,10.5723,-7.17855
623,-531,10.0674,5.08984,0,0,0,0,0,0,0,-1,1847,1555,10.0674,-5.08981
630,-531,11.672,3.18909,0,0,0,0,0,0,0,-1,1854,1555,11.672,-3.18904
637,-531,13.2546,1.38965,0,0,0,0,0,0,0,-1,1861,1555,13.2547,-1.3896
644,-531,0,0,0,0,0,0,0,0,0,-1,1868,1555,0,0
651,-531,0,0,0,0,0,0,0,0,0,-1,1875,1555,0,0
658,-531,0,0,0,0,0,0,0,0,0,-1,1882,1555,0,0
665,-531,0,0,0,0,0,0,0,0,0,-1,1889,1555,0,0
672,-531,0,0,0,0,0,0,0,0,0,-1,1896,1555,0,0
679,-531,0,0,0,0,0,0,0,0,0,-1,1903,1555,0,0
686,-531,0,0,0,0,0,0,0,0,0,-1,1910,1555,0,0
693,-531,0,0,0,0,0,0,0,0,0,-1,1917,1555,0,0
700,-531,0,0,0,0,0,0,0,0,0,-1,1924,1555,0,0
707,-531,0,0,0,0,0,0,0,0,0,-1,1931,1555,0,0
714,-531,0,0,0,0,0,0,0,0,0,-1,1938,1555,0,0
721,-531,0,0,0,0,0,0,0,0,0,-1,1945,1555,0,0
728,-531,0,0,0,0,0,0,0,0,0,-1,1952,1555,0,0
735,-531,0,0,0,0,0,0,0,0,0,-1,1959,1555,0,0
742,-531,0,0,0,0,0,0,0,0,0,-1,1966,1555,0,0
749,-531,0,0,0,0,0,0,0,0,0,-1,1973,1555,0,0
756,-531,0,0,0,0,0,0,0,0,0,-1,1980,1555,0,0
763,-531,0,0,0,0,0,0,0,0,0,-1,1987,1555,0,0
770,-531,0,0,0,0,0,0,0,0,0,-1,1994,1555,0,0
777,-531,0,0,0,0,0,0,0,0,0,-1,2001,1555,0,0
784,-531,0,0,0,0,0,0,0,0,0,-1,2008,1555,0,0
791,-531,0,0,0,0,0,0,0,0,0,-1,2015,1555,0,0
798,-531,0,0,0,0,0,0,0,0,0,-1,2022,1555,0,0
805,-531,0,0,0,0,0,0,0,0,0,-1,2029,1555,0,0
812,-531,0,0,0,0,0,0,0,0,0,-1,2036,1555,0,0
-700,-538,0,0,0,0,0,0,0,0,0,-1,524,1562,0,0
-693,-538,0,0,0,0,0,0,0,0,0,-1,531,1562,0,0
-686,-538,0,0,0,0,0,0,0,0,0,-1,538,1562,0,0
-679,-538,0,0,0,0,0,0,0,0,0,-1,545,1562,0,0
-672,-538,0,0,0,0,0,0,0,0,0,-1,552,1562,0,0
-665,-538,0,0,0,0,0,0,0,0,0,-1,559,1562,0,0
-658,-538,0,0,0,0,0,0,0,0,0,-1,566,1562,0,0
-651,-538,0,0,0,0,0,0,0,0,0,-1,573,1562,0,0
-644,-538,0,0,0,0,0,0,0,0,0,-1,580,1562,0,0
-637,-538,0,0,0,0,0,0,0,0,0,-1,587,1562,0,0
-630,-538,0,0,0,0,0,0,0,0,0,-1,594,1562,0,0
-623,-538,0,0,0,0,0,0,0,0,0,-1,601,1562,0,0
-616,-538,0,0,0,0,0,0,0,0,0,-1,608,1562,0,0
-609,-538,0,0,0,0,0,0,0,0,0,-1,615,1562,0,0
-602,-538,0,0,0,0,0,0,0,0,0,-1,622,1562,0,0
-595,-538,0,0,0,0,0,0,0,0,0,-1,629,1562,0,0
-588,-538,0,0,0,0,0,0,0,0,0,-1,636,1562,0,0
-581,-538,0,0,0,0,0,0,0,0,0,-1,643,1562,0,0
-574,-538,0,0,0,0,0,0,0,0,0,-1,650,1562,0,0
-567,-538,0,0,0,0,0,0,0,0,0,-1,657,1562,0,0
-560,-538,0,0,0,0,0,0,0,0,0,-1,664,1562,0,0
-553,-538,0,0,0,0,0,0,0,0,0,-1,671,1562,0,0
-546,-538,0,0,0,0,0,0,0,0,0,-1,678,1562,0,0
-539,-538,0,0,0,0,0,0,0,0,0,-1,685,1562,0,0
-532,-538,0,0,0,0,0,0,0,0,0,-1,692,1562,0,0
-525,-538,0,0,0,0,0,0,0,0,0,-1,699,1562,0,0
-518,-538,0,0,0,0,0,0,0,0,0,-1,706,1562,0,0
-511,-538,-2.6582,-1.54321,0,0,0,0,0,0,0,-1,713,1562,-2.65821,1.54327
-504,-538,-2.66455,-0.71167,0,0,0,0,0,0,0,-1,720,1562,-2.66456,0.711667
-497,-538,-0.763855,6.77747,0,0,0,0,0,0,0,-1,727,1562,-0.76385,-6.77743
-490,-538,-2.70453,8.01465,0,0,0,0,0,0,0,-1,734,1562,-2.70451,-8.0147
-483,-538,-0.933533,7.84644,0,0,0,0,0,0,0,-1,741,1562,-0.933548,-7.84638
-476,-538,-0.43866,8.38074,0,0,0,0,0,0,0,-1,748,1562,-0.438631,-8.38068
-469,-538,-1.64453,11.5895,0,0,0,0,0,0,0,-1,755,1562,-1.64456,-11.5895
-462,-538,-1.37775,11.6155,0.013089,-0.0021001,0.00400934,0.0140824,-0.00309345,0.242868,0.0105714,0.0443013,762,1562,-1.37775,-11.6155
-455,-538,-0.915833,12.0345,0.0104966,-0.000862796,0.00330908,0.0113903,-0.00175645,0.263769,0.00824162,0.0403602,769,1562,-0.915825,-12.0346
-448,-538,-0.729736,12.1864,0.007948,-0.000344593,0.00244889,0.00861718,-0.00101377,0.266747,0.00611081,0.0183026,776,1562,-0.729718,-12.1864
-441,-538,-0.78717,12.5416,0.0058757,-6.37874e-05,0.00180129,0.00637929,-0.000567376,0.27261,0.00445405,0.0176112,783,1562,-0.787182,-12.5417
-434,-538,-0.811096,12.8638,0.00439638,0.000344809,0.00145395,0.00486415,-0.000122954,0.311261,0.00328452,0.0116573,790,1562,-0.8111,-12.8638
-427,-538,-0.8255,13.2753,0.00324994,0.000662191,0.00135366,0.00382863,8.35011e-05,0.403987,0.00252505,0.0131192,797,1562,-0.825486,-13.2752
-420,-538,-0.873657,13.6549,0.00246476,0.00103452,0.00122213,0.00316562,0.000333659,0.520686,0.00200845,0.0176574,804,1562,-0.873668,-13.6549
-413,-538,-0.886963,14.02,0.00202006,0.00159572,0.00122341,0.00304957,0.000566217,0.69954,0.00187305,0.0178727,811,1562,-0.886944,-14.02
-406,-538,-0.854065,14.377,0.00170987,0.00216788,0.00150646,0.00346264,0.000415107,0.860828,0.00218325,0.0142655,818,1562,-0.854069,-14.377
-399,-538,-0.850281,14.756,0.00161565,0.00291266,0.00191053,0.00428175,0.00024656,0.949015,0.00277596,0.0127485,825,1562,-0.85026,-14.756
-392,-538,-0.860291,15.1085,0.00202898,0.00400186,0.00198601,0.00523292,0.000797924,1.0159,0.0032554,0.0136365,832,1562,-0.860287,-15.1086
-385,-538,-0.886597,15.4667,0.0024791,0.00499376,0.00126129,0.00551736,0.00195549,1.17731,0.00323014,0.0118016,839,1562,-0.88657,-15.4667
-378,-538,-0.883728,15.8379,0.00252188,0.00536463,-0.000139877,0.0053715,0.00251502,-1.52175,0.00310332,0.00991757,846,1562,-0.883705,-15.8379
-371,-538,-0.897156,16.1796,0.00263133,0.00601796,-0.00163697,0.00667985,0.00196944,-1.18656,0.00396336,0.0118494,853,1562,-0.897151,-16.1796
-364,-538,-0.854431,16.6014,0.00256233,0.00648677,-0.00392354,0.0089114,0.000137691,-1.01727,0.00589558,0.0151029,860,1562,-0.854405,-16.6015
-357,-538,-0.807312,16.9944,0.00223679,0.00677175,-0.00681763,0.0116891,-0.00268055,-0.945939,0.00882303,0.0311582,867,1562,-0.807299,-16.9944
-350,-538,-1.03204,17.3956,0.00161138,0.00735417,-0.0102867,0.0151628,-0.00619721,-0.921502,0.0126891,0.0393745,874,1562,-1.03206,-17.3956
-343,-538,-1.21191,17.9153,0.00066886,0.00738474,-0.0146113,0.019019,-0.0109654,-0.898346,0.0175184,0.0463774,881,1562,-1.2119,-17.9153
-336,-538,-0.846008,17.7657,-0.000427828,0.00768422,-0.0190936,0.0231478,-0.0158914,-0.890057,0.0226688,0.0429274,888,1562,-0.846024,-17.7657
-329,-538,-1.04022,17.6289,-0.00165994,0.00766142,-0.0234229,0.0268829,-0.0208814,-0.883605,0.0276492,0.0456494,895,1562,-1.04023,-17.6289
-322,-538,-1.59015,17.4143,0,0,0,0,0,0,0,-1,902,1562,-1.59015,-17.4144
-315,-538,1.88379,19.6062,0,0,0,0,0,0,0,-1,909,1562,1.88378,-19.6062
-308,-538,-0.564453,18.6516,0,0,0,0,0,0,0,-1,916,1562,-0.564434,-18.6517
-301,-538,-0.452393,18.5101,0,0,0,0,0,0,0,-1,923,1562,-0.452367,-18.5102
-294,-538,1.23138,14.0757,0,0,0,0,0,0,0,-1,930,1562,1.23137,-14.0757
-287,-538,-2.60419,10.2361,0,0,0,0,0,0,0,-1,937,1562,-2.6042,-10.2361
-280,-538,-2.93475,10.5106,0,0,0,0,0,0,0,-1,944,1562,-2.93475,-10.5106
-273,-538,-3.26532,10.785,0,0,0,0,0,0,0,-1,951,1562,-3.26531,-10.785
-266,-538,-5.03412,15.9951,0,0,0,0,0,0,0,-1,958,1562,-5.03409,-15.9951
-259,-538,-5.89642,16.5184,0,0,0,0,0,0,0,-1,965,1562,-5.89644,-16.5184
-252,-538,0,0,0,0,0,0,0,0,0,-1,972,1562,0,0
-245,-538,0,0,0,0,0,0,0,0,0,-1,979,1562,0,0
-238,-538,0,0,0,0,0,0,0,0,0,-1,986,1562,0,0
-231,-538,0,0,0,0,0,0,0,0,0,-1,993,1562,0,0
-224,-538,0,0,0,0,0,0,0,0,0,-1,1000,1562,0,0
-217,-538,0,0,0,0,0,0,0,0,0,-1,1007,1562,0,0
-210,-538,0,0,0,0,0,0,0,0,0,-1,1014,1562,0,0
-203,-538,0,0,0,0,0,0,0,0,0,-1,1021,1562,0,0
-196,-538,0,0,0,0,0,0,0,0,0,-1,1028,1562,0,0
-189,-538,0,0,0,0,0,0,0,0,0,-1,1035,1562,0,0
-182,-538,0,0,0,0,0,0,0,0,0,-1,1042,1562,0,0
-175,-538,0,0,0,0,0,0,0,0,0,-1,1049,1562,0,0
-168,-538,0,0,0,0,0,0,0,0,0,-1,1056,1562,0,0
-161,-538,0,0,0,0,0,0,0,0,0,-1,1063,1562,0,0
-154,-538,0,0,0,0,0,0,0,0,0,-1,1070,1562,0,0
-147,-538,0,0,0,0,0,0,0,0,0,-1,1077,1562,0,0
-140,-538,0,0,0,0,0,0,0,0,0,-1,1084,1562,0,0
-133,-538,0,0,0,0,0,0,0,0,0,-1,1091,1562,0,0
-126,-538,0,0,0,0,0,0,0,0,0,-1,1098,1562,0,0
-119,-538,0,0,0,0,0,0,0,0,0,-1,1105,1562,0,0
-112,-538,0,0,0,0,0,0,0,0,0,-1,1112,1562,0,0
-105,-538,0,0,0,0,0,0,0,0,0,-1,1119,1562,0,0
-98,-538,0,0,0,0,0,0,0,0,0,-1,1126,1562,0,0
-91,-538,0,0,0,0,0,0,0,0,0,-1,1133,1562,0,0
-84,-538,0,0,0,0,0,0,0,0,0,-1,1140,1562,0,0
-77,-538,0,0,0,0,0,0,0,0,0,-1,1147,1562,0,0
-70,-538,0,0,0,0,0,0,0,0,0,-1,1154,1562,0,0
-63,-538,0,0,0,0,0,0,0,0,0,-1,1161,1562,0,0
-56,-538,0,0,0,0,0,0,0,0,0,-1,1168,1562,0,0
-49,-538,0,0,0,0,0,0,0,0,0,-1,1175,1562,0,0
-42,-538,0,0,0,0,0,0,0,0,0,-1,1182,1562,0,0
-35,-538,0,0,0,0,0,0,0,0,0,-1,1189,1562,0,0
-28,-538,0,0,0,0,0,0,0,0,0,-1,1196,1562,0,0
-21,-538,0,0,0,0,0,0,0,0,0,-1,1203,1562,0,0
-14,-538,0,0,0,0,0,0,0,0,0,-1,1210,1562,0,0
-7,-538,0,0,0,0,0,0,0,0,0,-1,1217,1562,0,0
0,-538,0,0,0,0,0,0,0,0,0,-1,1224,1562,0,0
7,-538,0,0,0,0,0,0,0,0,0,-1,1231,1562,0,0
14,-538,0,0,0,0,0,0,0,0,0,-1,1238,1562,0,0
21,-538,0,0,0,0,0,0,0,0,0,-1,1245,1562,0,0
28,-538,0,0,0,0,0,0,0,0,0,-1,1252,1562,0,0
35,-538,0,0,0,0,0,0,0,0,0,-1,1259,1562,0,0
42,-538,0,0,0,0,0,0,0,0,0,-1,1266,1562,0,0
49,-538,0,0,0,0,0,0,0,0,0,-1,1273,1562,0,0
56,-538,0,0,0,0,0,0,0,0,0,-1,1280,1562,0,0
63,-538,0,0,0,0,0,0,0,0,0,-1,1287,1562,0,0
70,-538,0,0,0,0,0,0,0,0,0,-1,1294,1562,0,0
77,-538,0,0,0,0,0,0,0,0,0,-1,1301,1562,0,0
84,-538,0,0,0,0,0,0,0,0,0,-1,1308,1562,0,0
91,-538,0,0,0,0,0,0,0,0,0,-1,1315,1562,0,0
98,-538,0,0,0,0,0,0,0,0,0,-1,1322,1562,0,0
105,-538,0,0,0,0,0,0,0,0,0,-1,1329,1562,0,0
112,-538,0,0,0,0,0,0,0,0,0,-1,1336,1562,0,0
119,-538,0,0,0,0,0,0,0,0,0,-1,1343,1562,0,0
126,-538,0,0,0,0,0,0,0,0,0,-1,1350,1562,0,0
133,-538,0,0,0,0,0,0,0,0,0,-1,1357,1562,0,0
140,-538,0,0,0,0,0,0,0,0,0,-1,1364,1562,0,0
147,-538,0,0,0,0,0,0,0,0,0,-1,1371,1562,0,0
154,-538,0,0,0,0,0,0,0,0,0,-1,1378,1562,0,0
161,-538,0,0,0,0,0,0,0,0,0,-1,1385,1562,0,0
168,-538,0,0,0,0,0,0,0,0,0,-1,1392,1562,0,0
175,-538,0,0,0,0,0,0,0,0,0,-1,1399,1562,0,0
182,-538,0,0,0,0,0,0,0,0,0,-1,1406,1562,0,0
189,-538,0,0,0,0,0,0,0,0,0,-1,1413,1562,0,0
196,-538,0,0,0,0,0,0,0,0,0,-1,1420,1562,0,0
203,-538,0,0,0,0,0,0,0,0,0,-1,1427,1562,0,0
210,-538,0,0,0,0,0,0,0,0,0,-1,1434,1562,0,0
217,-538,0,0,0,0,0,0,0,0,0,-1,1441,1562,0,0
224,-538,0,0,0,0,0,0,0,0,0,-1,1448,1562,0,0
231,-538,0,0,0,0,0,0,0,0,0,-1,1455,1562,0,0
238,-538,0,0,0,0,0,0,0,0,0,-1,1462,1562,0,0
245,-538,0,0,0,0,0,0,0,0,0,-1,1469,1562,0,0
252,-538,0,0,0,0,0,0,0,0,0,-1,1476,1562,0,0
259,-538,0,0,0,0,0,0,0,0,0,-1,1483,1562,0,0
266,-538,0,0,0,0,0,0,0,0,0,-1,1490,1562,0,0
273,-538,0,0,0,0,0,0,0,0,0,-1,1497,1562,0,0
280,-538,0,0,0,0,0,0,0,0,0,-1,1504,1562,0,0
287,-538,0,0,0,0,0,0,0,0,0,-1,1511,1562,0,0
294,-538,0,0,0,0,0,0,0,0,0,-1,1518,1562,0,0
301,-538,0,0,0,0,0,0,0,0,0,-1,1525,1562,0,0
308,-538,0,0,0,0,0,0,0,0,0,-1,1532,1562,0,0
315,-538,0,0,0,0,0,0,0,0,0,-1,1539,1562,0,0
322,-538,0,0,0,0,0,0,0,0,0,-1,1546,1562,0,0
329,-538,0,0,0,0,0,0,0,0,0,-1,1553,1562,0,0
336,-538,0,0,0,0,0,0,0,0,0,-1,1560,1562,0,0
343,-538,0,0,0,0,0,0,0,0,0,-1,1567,1562,0,0
350,-538,0,0,0,0,0,0,0,0,0,-1,1574,1562,0,0
357,-538,0,0,0,0,0,0,0,0,0,-1,1581,1562,0,0
364,-538,0,0,0,0,0,0,0,0,0,-1,1588,1562,0,0
371,-538,0,0,0,0,0,0,0,0,0,-1,1595,1562,0,0
378,-538,9.65479,5.82434,0,0,0,0,0,0,0,-1,1602,1562,9.6548,-5.82439
385,-538,10.5449,7.9502,0,0,0,0,0,0,0,-1,1609,1562,10.5449,-7.95014
392,-538,8.20361,7.07214,0,0,0,0,0,0,0,-1,1616,1562,8.20362,-7.07211
399,-538,7.85425,4.70508,0,0,0,0,0,0,0,-1,1623,1562,7.85425,-4.70512
406,-538,7.77734,4.96094,0,0,0,0,0,0,0,-1,1630,1562,7.77729,-4.96097
413,-538,13.0446,13.1765,0,0,0,0,0,0,0,-1,1637,1562,13.0446,-13.1765
420,-538,9.96216,12.7653,0,0,0,0,0,0,0,-1,1644,1562,9.96221,-12.7653
427,-538,10.1732,14.5863,0,0,0,0,0,0,0,-1,1651,1562,10.1732,-14.5863
434,-538,9.64331,14.7745,0,0,0,0,0,0,0,-1,1658,1562,9.64326,-14.7746
441,-538,11.5039,20.5195,0,0,0,0,0,0,0,-1,1665,1562,11.5039,-20.5195
448,-538,12.0366,18.9662,0,0,0,0,0,0,0,-1,1672,1562,12.0366,-18.9662
455,-538,12.5693,17.4128,0,0,0,0,0,0,0,-1,1679,1562,12.5694,-17.4128
462,-538,12.1389,17.017,0,0,0,0,0,0,0,-1,1686,1562,12.1389,-17.017
469,-538,14.3802,16.6945,0,0,0,0,0,0,0,-1,1693,1562,14.3803,-16.6945
476,-538,13.47,18.5291,0,0,0,0,0,0,0,-1,1700,1562,13.4699,-18.5291
483,-538,13.2451,18.0952,-0.00777564,-0.00249889,0.0066832,0.00204788,-0.0123224,0.973396,0.00897577,0.0460534,1707,1562,13.2451,-18.0952
490,-538,13.0021,18.0356,-0.00519319,-0.00152336,0.0050104,0.00197755,-0.00869409,0.960925,0.00655544,0.0264099,1714,1562,13.0021,-18.0356
497,-538,13.0032,17.7657,-0.00323349,-0.000846914,0.00356668,0.0017208,-0.00580121,0.946828,0.00455084,0.0183733,1721,1562,13.0032,-17.7658
504,-538,13.0587,17.381,-0.00147818,-0.000165932,0.00213144,0.00140809,-0.0030522,0.934711,0.00263282,0.0106775,1728,1562,13.0587,-17.381
511,-538,13.0382,17.0563,-0.000573019,0.000248997,0.0013662,0.00126468,-0.0015887,0.931512,0.00165093,0.00947485,1735,1562,13.0382,-17.0563
518,-538,13.0321,16.7234,-0.000153539,0.000325541,0.00099665,0.00111103,-0.000939031,0.903334,0.00118499,0.010081,1742,1562,13.0321,-16.7234
525,-538,13.0265,16.3844,-1.85775e-05,0.00025542,0.000871856,0.00100098,-0.000764132,0.863328,0.00102214,0.0112597,1749,1562,13.0265,-16.3844
532,-538,13.0505,16.0383,-7.2157e-05,8.48953e-05,0.000927054,0.000936743,-0.000924005,0.82765,0.00107431,0.0132958,1756,1562,13.0506,-16.0383
539,-538,13.042,15.7137,-4.06236e-05,-0.000109492,0.000995326,0.000920864,-0.00107098,0.768107,0.00115108,0.0164349,1763,1562,13.042,-15.7138
546,-538,13.0238,15.3502,-0.000139397,-0.000576371,0.00123641,0.000897682,-0.00161345,0.697945,0.0014693,0.0170743,1770,1562,13.0238,-15.3502
553,-538,13.072,14.9883,-0.000421252,-0.00122498,0.00168967,0.00091369,-0.00255992,0.66865,0.00207921,0.0256551,1777,1562,13.0721,-14.9883
560,-538,13.0256,14.701,-0.000510433,-0.00182934,0.00203134,0.000965812,-0.00330558,0.628445,0.00258648,0.0279692,1784,1562,13.0257,-14.7011
567,-538,12.9316,14.3292,-0.000331929,-0.00232756,0.00221544,0.00110003,-0.00375952,0.573808,0.00294238,0.0205641,1791,1562,12.9316,-14.3292
574,-538,12.9578,13.9486,0.000246393,-0.0025575,0.00200124,0.00128789,-0.003599,0.479854,0.00292472,0.0161545,1798,1562,12.9578,-13.9486
581,-538,13.0138,13.5884,0.00131119,-0.00272604,0.00156752,0.00184834,-0.00326319,0.330134,0.00298859,0.0198962,1805,1562,13.0139,-13.5883
588,-538,13.1097,13.2321,0.00268992,-0.00335557,0.00127536,0.00294796,-0.0036136,0.199629,0.00379481,0.0374229,1812,1562,13.1098,-13.232
595,-538,13.2305,12.7677,0,0,0,0,0,0,0,-1,1819,1562,13.2305,-12.7677
602,-538,10.314,8.94238,0,0,0,0,0,0,0,-1,1826,1562,10.314,-8.94238
609,-538,10.1046,7.05713,0,0,0,0,0,0,0,-1,1833,1562,10.1046,-7.05719
616,-538,9.92249,5.43506,0,0,0,0,0,0,0,-1,1840,1562,9.92254,-5.43507
623,-538,11.1711,4.31604,0,0,0,0,0,0,0,-1,1847,1562,11.1711,-4.316
630,-538,12.6112,2.61633,0,0,0,0,0,0,0,-1,1854,1562,12.6112,-2.61637
637,-538,0,0,0,0,0,0,0,0,0,-1,1861,1562,0,0
644,-538,0,0,0,0,0,0,0,0,0,-1,1868,1562,0,0
651,-538,0,0,0,0,0,0,0,0,0,-1,1875,1562,0,0
658,-538,0,0,0,0,0,0,0,0,0,-1,1882,1562,0,0
665,-538,0,0,0,0,0,0,0,0,0,-1,1889,1562,0,0
672,-538,0,0,0,0,0,0,0,0,0,-1,1896,1562,0,0
679,-538,0,0,0,0,0,0,0,0,0,-1,1903,1562,0,0
686,-538,0,0,0,0,0,0,0,0,0,-1,1910,1562,0,0
693,-538,0,0,0,0,0,0,0,0,0,-1,1917,1562,0,0
700,-538,0,0,0,0,0,0,0,0,0,-1,1924,1562,0,0
707,-538,0,0,0,0,0,0,0,0,0,-1,1931,1562,0,0
714,-538,0,0,0,0,0,0,0,0,0,-1,1938,1562,0,0
721,-538,0,0,0,0,0,0,0,0,0,-1,1945,1562,0,0
728,-538,0,0,0,0,0,0,0,0,0,-1,1952,1562,0,0
735,-538,0,0,0,0,0,0,0,0,0,-1,1959,1562,0,0
742,-538,0,0,0,0,0,0,0,0,0,-1,1966,1562,0,0
749,-538,0,0,0,0,0,0,0,0,0,-1,1973,1562,0,0
756,-538,0,0,0,0,0,0,0,0,0,-1,1980,1562,0,0
763,-538,0,0,0,0,0,0,0,0,0,-1,1987,1562,0,0
770,-538,0,0,0,0,0,0,0,0,0,-1,1994,1562,0,0
777,-538,0,0,0,0,0,0,0,0,0,-1,2001,1562,0,0
784,-538,0,0,0,0,0,0,0,0,0,-1,2008,1562,0,0
791,-538,0,0,0,0,0,0,0,0,0,-1,2015,1562,0,0
798,-538,0,0,0,0,0,0,0,0,0,-1,2022,1562,0,0
805,-538,0,0,0,0,0,0,0,0,0,-1,2029,1562,0,0
812,-538,0,0,0,0,0,0,0,0,0,-1,2036,1562,0,0
-700,-545,0,0,0,0,0,0,0,0,0,-1,524,1569,0,0
-693,-545,0,0,0,0,0,0,0,0,0,-1,531,1569,0,0
-686,-545,0,0,0,0,0,0,0,0,0,-1,538,1569,0,0
-679,-545,0,0,0,0,0,0,0,0,0,-1,545,1569,0,0
-672,-545,0,0,0,0,0,0,0,0,0,-1,552,1569,0,0
-665,-545,0,0,0,0,0,0,0,0,0,-1,559,1569,0,0
-658,-545,0,0,0,0,0,0,0,0,0,-1,566,1569,0,0
-651,-545,0,0,0,0,0,0,0,0,0,-1,573,1569,0,0
-644,-545,0,0,0,0,0,0,0,0,0,-1,580,1569,0,0
-637,-545,0,0,0,0,0,0,0,0,0,-1,587,1569,0,0
-630,-545,0,0,0,0,0,0,0,0,0,-1,594,1569,0,0
-623,-545,0,0,0,0,0,0,0,0,0,-1,601,1569,0,0
-616,-545,0,0,0,0,0,0,0,0,0,-1,608,1569,0,0
-609,-545,0,0,0,0,0,0,0,0,0,-1,615,1569,0,0
-602,-545,0,0,0,0,0,0,0,0,0,-1,622,1569,0,0
-595,-545,0,0,0,0,0,0,0,0,0,-1,629,1569,0,0
-588,-545,0,0,0,0,0,0,0,0,0,-1,636,1569,0,0
-581,-545,0,0,0,0,0,0,0,0,0,-1,643,1569,0,0
-574,-545,0,0,0,0,0,0,0,0,0,-1,650,1569,0,0
-567,-545,0,0,0,0,0,0,0,0,0,-1,657,1569,0,0
-560,-545,0,0,0,0,0,0,0,0,0,-1,664,1569,0,0
-553,-545,0,0,0,0,0,0,0,0,0,-1,671,1569,0,0
-546,-545,0,0,0,0,0,0,0,0,0,-1,678,1569,0,0
-539,-545,0,0,0,0,0,0,0,0,0,-1,685,1569,0,0
-532,-545,0,0,0,0,0,0,0,0,0,-1,692,1569,0,0
-525,-545,0,0,0,0,0,0,0,0,0,-1,699,1569,0,0
-518,-545,0,0,0,0,0,0,0,0,0,-1,706,1569,0,0
-511,-545,0,0,0,0,0,0,0,0,0,-1,713,1569,0,0
-504,-545,-3.55237,-2.5354,0,0,0,0,0,0,0,-1,720,1569,-3.55236,2.53545
-497,-545,2.26575,5.69214,0,0,0,0,0,0,0,-1,727,1569,2.26573,-5.6922
-490,-545,-2.17334,7.81396,0,0,0,0,0,0,0,-1,734,1569,-2.17334,-7.81399
-483,-545,-1.88336,5.8446,0,0,0,0,0,0,0,-1,741,1569,-1.88334,-5.84466
-476,-545,-1.13147,6.5741,0,0,0,0,0,0,0,-1,748,1569,-1.13149,-6.57405
-469,-545,0.500305,8.22754,0,0,0,0,0,0,0,-1,755,1569,0.500333,-8.22759
-462,-545,-1.0672,11.3086,0,0,0,0,0,0,0,-1,762,1569,-1.06723,-11.3086
-455,-545,-0.792908,11.7305,0.0137472,0.00185006,0.00535851,0.0158048,-0.000207561,0.366631,0.0106064,0.0442705,769,1569,-0.792925,-11.7304
-448,-545,-0.185425,12.0513,0.0101613,0.00153723,0.00389078,0.0116572,4.136e-05,0.367044,0.0077577,0.028984,776,1569,-0.185401,-12.0513
-441,-545,-0.300049,12.5933,0.00716962,0.00112563,0.00266754,0.00817854,0.000116714,0.36159,0.00541387,0.0215505,783,1569,-0.30003,-12.5933
-434,-545,-0.489502,12.9205,0.00498026,0.000896612,0.00186077,0.00570096,0.000175921,0.369518,0.00374337,0.0188791,790,1569,-0.489518,-12.9205
-427,-545,-0.485352,13.2878,0.00333731,0.000721104,0.0014188,0.00395901,9.94107e-05,0.412984,0.00260683,0.0177966,797,1569,-0.485372,-13.2879
-420,-545,-0.477661,13.6371,0.00220723,0.000769696,0.00103051,0.00274488,0.000232053,0.480878,0.00175768,0.0228384,804,1569,-0.477691,-13.637
-413,-545,-0.498474,13.9929,0.00151342,0.00108473,0.000819973,0.0021466,0.000451551,0.657559,0.00130682,0.0226672,811,1569,-0.4985,-13.9929
-406,-545,-0.491272,14.3605,0.000981376,0.00141253,0.000918625,0.00214053,0.000253372,0.900649,0.00135051,0.0164393,818,1569,-0.491277,-14.3605
-399,-545,-0.483032,14.7373,0.000693951,0.00190394,0.00118914,0.00263314,-3.52438e-05,1.02072,0.00176729,0.0107765,825,1569,-0.483016,-14.7373
-392,-545,-0.479919,15.1024,0.00100946,0.00260859,0.00118991,0.00324262,0.000375432,1.08123,0.0020481,0.0107193,832,1569,-0.47989,-15.1024
-385,-545,-0.480896,15.4762,0.00149088,0.00343405,0.000651594,0.00363231,0.00129261,1.27542,0.00212596,0.00911138,839,1569,-0.480883,-15.4762
-378,-545,-0.516113,15.8447,0.00168088,0.00377287,-0.000377244,0.00383882,0.00161493,-1.39773,0.00222562,0.0114961,846,1569,-0.516101,-15.8447
-371,-545,-0.52771,16.2177,0.00185716,0.00430652,-0.00152847,0.00504043,0.00112325,-1.12315,0.00305548,0.0149445,853,1569,-0.527713,-16.2176
-364,-545,-0.53241,16.5618,0.00190288,0.00469291,-0.00322232,0.00680922,-0.000213434,-0.98968,0.00461227,0.010072,860,1569,-0.532431,-16.5618
-357,-545,-0.470337,16.9808,0.00181184,0.00485678,-0.00525528,0.00880568,-0.00213706,-0.92639,0.00669744,0.0147044,867,1569,-0.470354,-16.9808
-350,-545,-0.437744,17.3584,0.00149736,0.0054695,-0.00760198,0.0113406,-0.00437371,-0.913171,0.00936514,0.0203144,874,1569,-0.437757,-17.3584
-343,-545,-0.462402,17.6827,0.000942684,0.00572078,-0.0104035,0.014006,-0.00734255,-0.898261,0.0125241,0.0280722,881,1569,-0.462382,-17.6828
-336,-545,-0.485107,17.7568,0.000205015,0.0064247,-0.0131839,0.0168606,-0.0102309,-0.901222,0.0157966,0.0368754,888,1569,-0.485103,-17.7569
-329,-545,-0.508606,17.7108,-0.000704692,0.00687355,-0.0158836,0.0194137,-0.0132449,-0.902488,0.0189672,0.0479049,895,1569,-0.508614,-17.7108
-322,-545,-0.457581,17.886,0,0,0,0,0,0,0,-1,902,1569,-0.457581,-17.886
-315,-545,1.57739,18.9076,0,0,0,0,0,0,0,-1,909,1569,1.57737,-18.9076
-308,-545,1.64972,19.1172,0,0,0,0,0,0,0,-1,916,1569,1.64975,-19.1172
-301,-545,1.52191,17.5009,0,0,0,0,0,0,0,-1,923,1569,1.52192,-17.5008
-294,-545,-2.69287,8.42102,0,0,0,0,0,0,0,-1,930,1569,-2.69287,-8.42097
-287,-545,-3.47784,9.96021,0,0,0,0,0,0,0,-1,937,1569,-3.47785,-9.96021
-280,-545,-3.7879,10.5448,0,0,0,0,0,0,0,-1,944,1569,-3.78793,-10.5448
-273,-545,-5.10333,12.864,0,0,0,0,0,0,0,-1,951,1569,-5.10331,-12.864
-266,-545,-5.78955,13.3704,0,0,0,0,0,0,0,-1,958,1569,-5.78952,-13.3703
-259,-545,-6.32184,13.8101,0,0,0,0,0,0,0,-1,965,1569,-6.32182,-13.81
-252,-545,0.369263,7.54053,0,0,0,0,0,0,0,-1,972,1569,0.369276,-7.54056
-245,-545,-0.236633,6.65564,0,0,0,0,0,0,0,-1,979,1569,-0.236605,-6.65566
-238,-545,0,0,0,0,0,0,0,0,0,-1,986,1569,0,0
-231,-545,0,0,0,0,0,0,0,0,0,-1,993,1569,0,0
-224,-545,0,0,0,0,0,0,0,0,0,-1,1000,1569,0,0
-217,-545,0,0,0,0,0,0,0,0,0,-1,1007,1569,0,0
-210,-545,0,0,0,0,0,0,0,0,0,-1,1014,1569,0,0
-203,-545,0,0,0,0,0,0,0,0,0,-1,1021,1569,0,0
-196,-545,0,0,0,0,0,0,0,0,0,-1,1028,1569,0,0
-189,-545,0,0,0,0,0,0,0,0,0,-1,1035,1569,0,0
-182,-545,0,0,0,0,0,0,0,0,0,-1,1042,1569,0,0
-175,-545,0,0,0,0,0,0,0,0,0,-1,1049,1569,0,0
-168,-545,0,0,0,0,0,0,0,0,0,-1,1056,1569,0,0
-161,-545,0,0,0,0,0,0,0,0,0,-1,1063,1569,0,0
-154,-545,0,0,0,0,0,0,0,0,0,-1,1070,1569,0,0
-147,-545,0,0,0,0,0,0,0,0,0,-1,1077,1569,0,0
-140,-545,0,0,0,0,0,0,0,0,0,-1,1084,1569,0,0
-133,-545,0,0,0,0,0,0,0,0,0,-1,1091,1569,0,0
-126,-545,0,0,0,0,0,0,0,0,0,-1,1098,1569,0,0
-119,-545,0,0,0,0,0,0,0,0,0,-1,1105,1569,0,0
-112,-545,0,0,0,0,0,0,0,0,0,-1,1112,1569,0,0
-105,-545,0,0,0,0,0,0,0,0,0,-1,1119,1569,0,0
-98,-545,0,0,0,0,0,0,0,0,0,-1,1126,1569,0,0
-91,-545,0,0,0,0,0,0,0,0,0,-1,1133,1569,0,0
-84,-545,0,0,0,0,0,0,0,0,0,-1,1140,1569,0,0
-77,-545,0,0,0,0,0,0,0,0,0,-1,1147,1569,0,0
-70,-545,0,0,0,0,0,0,0,0,0,-1,1154,1569,0,0
-63,-545,0,0,0,0,0,0,0,0,0,-1,1161,1569,0,0
-56,-545,0,0,0,0,0,0,0,0,0,-1,1168,1569,0,0
-49,-545,0,0,0,0,0,0,0,0,0,-1,1175,1569,0,0
-42,-545,0,0,0,0,0,0,0,0,0,-1,1182,1569,0,0
-35,-545,0,0,0,0,0,0,0,0,0,-1,1189,1569,0,0
-28,-545,0,0,0,0,0,0,0,0,0,-1,1196,1569,0,0
-21,-545,0,0,0,0,0,0,0,0,0,-1,1203,1569,0,0
-14,-545,0,0,0,0,0,0,0,0,0,-1,1210,1569,0,0
-7,-545,0,0,0,0,0,0,0,0,0,-1,1217,1569,0,0
0,-545,0,0,0,0,0,0,0,0,0,-1,1224,1569,0,0
7,-545,0,0,0,0,0,0,0,0,0,-1,1231,1569,0,0
14,-545,0,0,0,0,0,0,0,0,0,-1,1238,1569,0,0
21,-545,0,0,0,0,0,0,0,0,0,-1,1245,1569,0,0
28,-545,0,0,0,0,0,0,0,0,0,-1,1252,1569,0,0
35,-545,0,0,0,0,0,0,0,0,0,-1,1259,1569,0,0
42,-545,0,0,0,0,0,0,0,0,0,-1,1266,1569,0,0
49,-545,0,0,0,0,0,0,0,0,0,-1,1273,1569,0,0
56,-545,0,0,0,0,0,0,0,0,0,-1,1280,1569,0,0
63,-545,0,0,0,0,0,0,0,0,0,-1,1287,1569,0,0
70,-545,0,0,0,0,0,0,0,0,0,-1,1294,1569,0,0
77,-545,0,0,0,0,0,0,0,0,0,-1,1301,1569,0,0
84,-545,0,0,0,0,0,0,0,0,0,-1,1308,1569,0,0
91,-545,0,0,0,0,0,0,0,0,0,-1,1315,1569,0,0
98,-545,0,0,0,0,0,0,0,0,0,-1,1322,1569,0,0
105,-545,0,0,0,0,0,0,0,0,0,-1,1329,1569,0,0
112,-545,0,0,0,0,0,0,0,0,0,-1,1336,1569,0,0
119,-545,0,0,0,0,0,0,0,0,0,-1,1343,1569,0,0
126,-545,0,0,0,0,0,0,0,0,0,-1,1350,1569,0,0
133,-545,0,0,0,0,0,0,0,0,0,-1,1357,1569,0,0
140,-545,0,0,0,0,0,0,0,0,0,-1,1364,1569,0,0
147,-545,0,0,0,0,0,0,0,0,0,-1,1371,1569,0,0
154,-545,0,0,0,0,0,0,0,0,0,-1,1378,1569,0,0
161,-545,0,0,0,0,0,0,0,0,0,-1,1385,1569,0,0
168,-545,0,0,0,0,0,0,0,0,0,-1,1392,1569,0,0
175,-545,0,0,0,0,0,0,0,0,0,-1,1399,1569,0,0
182,-545,0,0,0,0,0,0,0,0,0,-1,1406,1569,0,0
189,-545,0,0,0,0,0,0,0,0,0,-1,1413,1569,0,0
196,-545,0,0,0,0,0,0,0,0,0,-1,1420,1569,0,0
203,-545,0,0,0,0,0,0,0,0,0,-1,1427,1569,0,0
210,-545,0,0,0,0,0,0,0,0,0,-1,1434,1569,0,0
217,-545,0,0,0,0,0,0,0,0,0,-1,1441,1569,0,0
224,-545,0,0,0,0,0,0,0,0,0,-1,1448,1569,0,0
231,-545,0,0,0,0,0,0,0,0,0,-1,1455,1569,0,0
238,-545,0,0,0,0,0,0,0,0,0,-1,1462,1569,0,0
245,-545,0,0,0,0,0,0,0,0,0,-1,1469,1569,0,0
252,-545,0,0,0,0,0,0,0,0,0,-1,1476,1569,0,0
259,-545,0,0,0,0,0,0,0,0,0,-1,1483,1569,0,0
266,-545,0,0,0,0,0,0,0,0,0,-1,1490,1569,0,0
273,-545,0,0,0,0,0,0,0,0,0,-1,1497,1569,0,0
280,-545,0,0,0,0,0,0,0,0,0,-1,1504,1569,0,0
287,-545,0,0,0,0,0,0,0,0,0,-1,1511,1569,0,0
294,-545,0,0,0,0,0,0,0,0,0,-1,1518,1569,0,0
301,-545,0,0,0,0,0,0,0,0,0,-1,1525,1569,0,0
308,-545,0,0,0,0,0,0,0,0,0,-1,1532,1569,0,0
315,-545,0,0,0,0,0,0,0,0,0,-1,1539,1569,0,0
322,-545,0,0,0,0,0,0,0,0,0,-1,1546,1569,0,0
329,-545,0,0,0,0,0,0,0,0,0,-1,1553,1569,0,0
336,-545,0,0,0,0,0,0,0,0,0,-1,1560,1569,0,0
343,-545,0,0,0,0,0,0,0,0,0,-1,1567,1569,0,0
350,-545,0,0,0,0,0,0,0,0,0,-1,1574,1569,0,0
357,-545,0,0,0,0,0,0,0,0,0,-1,1581,1569,0,0
364,-545,7.19495,4.88098,0,0,0,0,0,0,0,-1,1588,1569,7.19497,-4.88095
371,-545,7.82324,3.84302,0,0,0,0,0,0,0,-1,1595,1569,7.82324,-3.84307
378,-545,7.65674,5.52673,0,0,0,0,0,0,0,-1,1602,1569,7.6567,-5.52667
385,-545,8.58447,1.16125,0,0,0,0,0,0,0,-1,1609,1569,8.5845,-1.1612
392,-545,12.5654,3.89526,0,0,0,0,0,0,0,-1,1616,1569,12.5655,-3.89532
399,-545,11.5869,5.6333,0,0,0,0,0,0,0,-1,1623,1569,11.5869,-5.63326
406,-545,11.234,6.36414,0,0,0,0,0,0,0,-1,1630,1569,11.234,-6.3641
413,-545,12.1521,13.4817,0,0,0,0,0,0,0,-1,1637,1569,12.1521,-13.4817
420,-545,11.1954,13.6047,0,0,0,0,0,0,0,-1,1644,1569,11.1954,-13.6047
427,-545,9.61072,14.9135,0,0,0,0,0,0,0,-1,1651,1569,9.61076,-14.9134
434,-545,13.1598,23.9921,0,0,0,0,0,0,0,-1,1658,1569,13.1598,-23.992
441,-545,11.4506,19.9683,0,0,0,0,0,0,0,-1,1665,1569,11.4506,-19.9683
448,-545,11.3901,19.0835,0,0,0,0,0,0,0,-1,1672,1569,11.3901,-19.0835
455,-545,11.2894,18.7405,0,0,0,0,0,0,0,-1,1679,1569,11.2894,-18.7405
462,-545,11.9757,17.9946,0,0,0,0,0,0,0,-1,1686,1569,11.9757,-17.9946
469,-545,12.7837,17.7919,0,0,0,0,0,0,0,-1,1693,1569,12.7837,-17.7919
476,-545,12.5746,19.0753,0,0,0,0,0,0,0,-1,1700,1569,12.5746,-19.0753
483,-545,12.7734,18.3798,-0.0052795,-0.000788982,0.0045385,0.00202927,-0.00809776,1.0151,0.00618688,0.0292428,1707,1569,12.7734,-18.3797
490,-545,12.6808,18.0604,-0.00339763,-0.000381714,0.00335081,0.00178481,-0.00556416,0.996837,0.00442601,0.0160036,1714,1569,12.6808,-18.0605
497,-545,12.6884,17.7361,-0.00200257,-0.00012334,0.00229103,0.00141327,-0.00353918,0.980002,0.0029458,0.0178374,1721,1569,12.6883,-17.7361
504,-545,12.7566,17.3951,-0.000767875,0.000268449,0.00127757,0.00112894,-0.00162836,0.978054,0.00160061,0.0143571,1728,1569,12.7566,-17.3951
511,-545,12.7455,17.0485,-0.00025108,0.000369308,0.00084634,0.000960508,-0.00084228,0.961053,0.00104159,0.0101029,1735,1569,12.7455,-17.0484
518,-545,12.7325,16.7179,-0.000114688,0.000285096,0.000690487,0.000804043,-0.000633635,0.926293,0.000831985,0.0117518,1742,1569,12.7326,-16.7178
525,-545,12.7019,16.3878,-0.000207119,9.54045e-05,0.000761822,0.000720836,-0.000832551,0.8834,0.000897621,0.0130989,1749,1569,12.7019,-16.3878
532,-545,12.6781,16.0464,-0.000460082,-0.000189257,0.00101753,0.000701832,-0.00135117,0.851549,0.0012049,0.0136619,1756,1569,12.6781,-16.0464
539,-545,12.6554,15.7373,-0.000661039,-0.000559482,0.00133953,0.000730235,-0.00195076,0.804343,0.00160045,0.0164081,1763,1569,12.6554,-15.7374
546,-545,12.6656,15.3895,-0.00108193,-0.00125372,0.00195608,0.000790146,-0.00312579,0.763456,0.00239116,0.0178023,1770,1569,12.6657,-15.3896
553,-545,12.7036,15.0129,-0.00162693,-0.00207612,0.002748,0.00090564,-0.00460869,0.744623,0.00341461,0.0248379,1777,1569,12.7036,-15.013
560,-545,12.675,14.6531,-0.00196159,-0.00295259,0.00347368,0.00105175,-0.00596593,0.714553,0.00437026,0.0260715,1784,1569,12.675,-14.653
567,-545,12.6707,14.1587,0,0,0,0,0,0,0,-1,1791,1569,12.6706,-14.1587
574,-545,12.7278,13.8236,0,0,0,0,0,0,0,-1,1798,1569,12.7277,-13.8236
581,-545,12.7577,13.4874,0,0,0,0,0,0,0,-1,1805,1569,12.7576,-13.4875
588,-545,12.9113,13.2157,0,0,0,0,0,0,0,-1,1812,1569,12.9113,-13.2157
595,-545,10.2859,9.11218,0,0,0,0,0,0,0,-1,1819,1569,10.2858,-9.11215
602,-545,8.82117,6.32214,0,0,0,0,0,0,0,-1,1826,1569,8.82121,-6.32217
609,-545,10.2406,5.22351,0,0,0,0,0,0,0,-1,1833,1569,10.2406,-5.22353
616,-545,11.701,3.93188,0,0,0,0,0,0,0,-1,1840,1569,11.701,-3.93191
623,-545,13.2139,2.32043,0,0,0,0,0,0,0,-1,1847,1569,13.2139,-2.32042
630,-545,0,0,0,0,0,0,0,0,0,-1,1854,1569,0,0
637,-545,0,0,0,0,0,0,0,0,0,-1,1861,1569,0,0
644,-545,0,0,0,0,0,0,0,0,0,-1,1868,1569,0,0
651,-545,0,0,0,0,0,0,0,0,0,-1,1875,1569,0,0
658,-545,0,0,0,0,0,0,0,0,0,-1,1882,1569,0,0
665,-545,0,0,0,0,0,0,0,0,0,-1,1889,1569,0,0
672,-545,0,0,0,0,0,0,0,0,0,-1,1896,1569,0,0
679,-545,0,0,0,0,0,0,0,0,0,-1,1903,1569,0,0
686,-545,0,0,0,0,0,0,0,0,0,-1,1910,1569,0,0
693,-545,0,0,0,0,0,0,0,0,0,-1,1917,1569,0,0
700,-545,0,0,0,0,0,0,0,0,0,-1,1924,1569,0,0
707,-545,0,0,0,0,0,0,0,0,0,-1,1931,1569,0,0
714,-545,0,0,0,0,0,0,0,0,0,-1,1938,1569,0,0
721,-545,0,0,0,0,0,0,0,0,0,-1,1945,1569,0,0
728,-545,0,0,0,0,0,0,0,0,0,-1,1952,1569,0,0
735,-545,0,0,0,0,0,0,0,0,0,-1,1959,1569,0,0
742,-545,0,0,0,0,0,0,0,0,0,-1,1966,1569,0,0
749,-545,0,0,0,0,0,0,0,0,0,-1,1973,1569,0,0
756,-545,0,0,0,0,0,0,0,0,0,-1,1980,1569,0,0
763,-545,0,0,0,0,0,0,0,0,0,-1,1987,1569,0,0
770,-545,0,0,0,0,0,0,0,0,0,-1,1994,1569,0,0
777,-545,0,0,0,0,0,0,0,0,0,-1,2001,1569,0,0
784,-545,0,0,0,0,0,0,0,0,0,-1,2008,1569,0,0
791,-545,0,0,0,0,0,0,0,0,0,-1,2015,1569,0,0
798,-545,0,0,0,0,0,0,0,0,0,-1,2022,1569,0,0
805,-545,0,0,0,0,0,0,0,0,0,-1,2029,1569,0,0
812,-545,0,0,0,0,0,0,0,0,0,-1,2036,1569,0,0
-700,-552,0,0,0,0,0,0,0,0,0,-1,524,1576,0,0
-693,-552,0,0,0,0,0,0,0,0,0,-1,531,1576,0,0
-686,-552,0,0,0,0,0,0,0,0,0,-1,538,1576,0,0
-679,-552,0,0,0,0,0,0,0,0,0,-1,545,1576,0,0
-672,-552,0,0,0,0,0,0,0,0,0,-1,552,1576,0,0
-665,-552,0,0,0,0,0,0,0,0,0,-1,559,1576,0,0
-658,-552,0,0,0,0,0,0,0,0,0,-1,566,1576,0,0
-651,-552,0,0,0,0,0,0,0,0,0,-1,573,1576,0,0
-644,-552,0,0,0,0,0,0,0,0,0,-1,580,1576,0,0
-637,-552,0,0,0,0,0,0,0,0,0,-1,587,1576,0,0
-630,-552,0,0,0,0,0,0,0,0,0,-1,594,1576,0,0
-623,-552,0,0,0,0,0,0,0,0,0,-1,601,1576,0,0
-616,-552,0,0,0,0,0,0,0,0,0,-1,608,1576,0,0
-609,-552,0,0,0,0,0,0,0,0,0,-1,615,1576,0,0
-602,-552,0,0,0,0,0,0,0,0,0,-1,622,1576,0,0
-595,-552,0,0,0,0,0,0,0,0,0,-1,629,1576,0,0
-588,-552,0,0,0,0,0,0,0,0,0,-1,636,1576,0,0
-581,-552,0,0,0,0,0,0,0,0,0,-1,643,1576,0,0
-574,-552,0,0,0,0,0,0,0,0,0,-1,650,1576,0,0
-567,-552,0,0,0,0,0,0,0,0,0,-1,657,1576,0,0
-560,-552,0,0,0,0,0,0,0,0,0,-1,664,1576,0,0
-553,-552,0,0,0,0,0,0,0,0,0,-1,671,1576,0,0
-546,-552,0,0,0,0,0,0,0,0,0,-1,678,1576,0,0
-539,-552,0,0,0,0,0,0,0,0,0,-1,685,1576,0,0
-532,-552,0,0,0,0,0,0,0,0,0,-1,692,1576,0,0
-525,-552,0,0,0,0,0,0,0,0,0,-1,699,1576,0,0
-518,-552,0,0,0,0,0,0,0,0,0,-1,706,1576,0,0
-511,-552,0,0,0,0,0,0,0,0,0,-1,713,1576,0,0
-504,-552,0,0,0,0,0,0,0,0,0,-1,720,1576,0,0
-497,-552,1.51282,3.96924,0,0,0,0,0,0,0,-1,727,1576,1.5128,-3.96924
-490,-552,-3.82312,6.32104,0,0,0,0,0,0,0,-1,734,1576,-3.82314,-6.3211
-483,-552,-3.50586,6.47986,0,0,0,0,0,0,0,-1,741,1576,-3.50587,-6.47983
-476,-552,-1.95129,4.43054,0,0,0,0,0,0,0,-1,748,1576,-1.95128,-4.43054
-469,-552,-1.40491,7.9895,0,0,0,0,0,0,0,-1,755,1576,-1.40491,-7.98947
-462,-552,0.258972,6.98975,0,0,0,0,0,0,0,-1,762,1576,0.258987,-6.98975
-455,-552,-0.44458,11.6321,0,0,0,0,0,0,0,-1,769,1576,-0.444576,-11.6321
-448,-552,0.0950928,11.5131,0.0127238,0.00404474,0.00567951,0.0155318,0.00123665,0.459178,0.00996795,0.0443274,776,1576,0.0950688,-11.513
-441,-552,0.135376,12.5032,0.00855766,0.00270454,0.00373492,0.010376,0.00088617,0.453078,0.0066417,0.0389547,783,1576,0.135404,-12.5031
-434,-552,0.00518799,13.0006,0.00551204,0.00166519,0.00239393,0.00665952,0.000517714,0.446975,0.00427756,0.0267546,790,1576,0.00521352,-13.0006
-427,-552,-0.130798,13.2253,0.00331098,0.000890278,0.00156214,0.00407679,0.000124466,0.455804,0.00267734,0.0219202,797,1576,-0.130798,-13.2253
-420,-552,-0.0759888,13.635,0.0018226,0.000587727,0.000911006,0.00230569,0.000104637,0.487579,0.00150346,0.0192498,804,1576,-0.0759804,-13.635
-413,-552,-0.0742188,13.993,0.000890295,0.000664399,0.000509637,0.00129935,0.000255344,0.676349,0.000794908,0.0167327,811,1576,-0.0741931,-13.993
-406,-552,-0.111572,14.364,0.000178583,0.000781131,0.00045252,0.00102349,-6.37797e-05,1.07909,0.000704552,0.0129406,818,1576,-0.111559,-14.364
-399,-552,-0.120117,14.7358,-0.000243484,0.00106854,0.000622322,0.00131676,-0.000491704,1.19127,0.00107973,0.0130018,825,1576,-0.120138,-14.7359
-392,-552,-0.130188,15.1023,1.90003e-06,0.00146594,0.000591739,0.0016752,-0.00020736,1.23089,0.00119195,0.0143536,832,1576,-0.130185,-15.1023
-385,-552,-0.136902,15.48,0.000514803,0.00217917,0.000247255,0.00221513,0.000478848,1.42639,0.00134584,0.0130646,839,1576,-0.136877,-15.48
-378,-552,-0.167969,15.8239,0.000844558,0.00252743,-0.000441952,0.00263644,0.000735555,-1.32898,0.00157093,0.0151637,846,1576,-0.167943,-15.8239
-371,-552,-0.174683,16.2054,0.00109154,0.00298824,-0.00129451,0.00364461,0.000435173,-1.10153,0.00229846,0.0195454,853,1576,-0.174681,-16.2055
-364,-552,-0.161621,16.5782,0.00125698,0.00331574,-0.00250777,0.00499718,-0.000424458,-0.980151,0.00348158,0.0146082,860,1576,-0.161591,-16.5783
-357,-552,-0.16156,16.9218,0.00137754,0.0033934,-0.00386292,0.00637772,-0.00160678,-0.913016,0.00487646,0.00975639,867,1576,-0.161563,-16.9217
-350,-552,-0.156128,17.2843,0.00132151,0.00400607,-0.00537726,0.00820605,-0.00287848,-0.907709,0.00664148,0.0105999,874,1576,-0.156103,-17.2844
-343,-552,-0.163208,17.6173,0.00105671,0.00437346,-0.00710734,0.0100133,-0.00458316,-0.900014,0.00861949,0.0121751,881,1576,-0.163217,-17.6173
-336,-552,-0.115051,17.8901,0.000648952,0.00524294,-0.00869761,0.0119418,-0.00604986,-0.914498,0.0105715,0.0204009,888,1576,-0.115081,-17.8901
-329,-552,-0.180786,18.1766,2.25747e-05,0.00589844,-0.0102899,0.0136616,-0.00774061,-0.924456,0.0125132,0.0404927,895,1576,-0.180776,-18.1767
-322,-552,-0.0874023,18.735,0,0,0,0,0,0,0,-1,902,1576,-0.0873804,-18.735
-315,-552,0.15094,18.8998,0,0,0,0,0,0,0,-1,909,1576,0.150944,-18.8998
-308,-552,-0.0747681,19.83,0,0,0,0,0,0,0,-1,916,1576,-0.0747898,-19.83
-301,-552,1.39453,18.4995,0,0,0,0,0,0,0,-1,923,1576,1.3945,-18.4995
-294,-552,0.842163,13.7863,0,0,0,0,0,0,0,-1,930,1576,0.842149,-13.7863
-287,-552,-0.663757,13.3474,0,0,0,0,0,0,0,-1,937,1576,-0.663744,-13.3474
-280,-552,-5.47241,8.96765,0,0,0,0,0,0,0,-1,944,1576,-5.47239,-8.96766
-273,-552,1.64587,10.6685,0,0,0,0,0,0,0,-1,951,1576,1.6459,-10.6685
-266,-552,-1.32678,8.05688,0,0,0,0,0,0,0,-1,958,1576,-1.32677,-8.05683
-259,-552,-5.54321,8.31213,0,0,0,0,0,0,0,-1,965,1576,-5.54324,-8.31214
-252,-552,-1.93445,7.81543,0,0,0,0,0,0,0,-1,972,1576,-1.93445,-7.81546
-245,-552,-2.53613,6.92212,0,0,0,0,0,0,0,-1,979,1576,-2.53614,-6.92216
-238,-552,-6.5365,2.81885,0,0,0,0,0,0,0,-1,986,1576,-6.53649,-2.8188
-231,-552,-4.32239,4.34583,0,0,0,0,0,0,0,-1,993,1576,-4.32239,-4.34587
-224,-552,0,0,0,0,0,0,0,0,0,-1,1000,1576,0,0
-217,-552,0,0,0,0,0,0,0,0,0,-1,1007,1576,0,0
-210,-552,0,0,0,0,0,0,0,0,0,-1,1014,1576,0,0
-203,-552,0,0,0,0,0,0,0,0,0,-1,1021,1576,0,0
-196,-552,0,0,0,0,0,0,0,0,0,-1,1028,1576,0,0
-189,-552,0,0,0,0,0,0,0,0,0,-1,1035,1576,0,0
-182,-552,0,0,0,0,0,0,0,0,0,-1,1042,1576,0,0
-175,-552,0,0,0,0,0,0,0,0,0,-1,1049,1576,0,0
-168,-552,0,0,0,0,0,0,0,0,0,-1,1056,1576,0,0
-161,-552,0,0,0,0,0,0,0,0,0,-1,1063,1576,0,0
-154,-552,0,0,0,0,0,0,0,0,0,-1,1070,1576,0,0
-147,-552,0,0,0,0,0,0,0,0,0,-1,1077,1576,0,0
-140,-552,0,0,0,0,0,0,0,0,0,-1,1084,1576,0,0
-133,-552,0,0,0,0,0,0,0,0,0,-1,1091,1576,0,0
-126,-552,0,0,0,0,0,0,0,0,0,-1,1098,1576,0,0
-119,-552,0,0,0,0,0,0,0,0,0,-1,1105,1576,0,0
-112,-552,0,0,0,0,0,0,0,0,0,-1,1112,1576,0,0
-105,-552,0,0,0,0,0,0,0,0,0,-1,1119,1576,0,0
-98,-552,0,0,0,0,0,0,0,0,0,-1,1126,1576,0,0
-91,-552,0,0,0,0,0,0,0,0,0,-1,1133,1576,0,0
-84,-552,0,0,0,0,0,0,0,0,0,-1,1140,1576,0,0
-77,-552,0,0,0,0,0,0,0,0,0,-1,1147,1576,0,0
-70,-552,0,0,0,0,0,0,0,0,0,-1,1154,1576,0,0
-63,-552,0,0,0,0,0,0,0,0,0,-1,1161,1576,0,0
-56,-552,0,0,0,0,0,0,0,0,0,-1,1168,1576,0,0
-49,-552,0,0,0,0,0,0,0,0,0,-1,1175,1576,0,0
-42,-552,0,0,0,0,0,0,0,0,0,-1,1182,1576,0,0
-35,-552,0,0,0,0,0,0,0,0,0,-1,1189,1576,0,0
-28,-552,0,0,0,0,0,0,0,0,0,-1,1196,1576,0,0
-21,-552,0,0,0,0,0,0,0,0,0,-1,1203,1576,0,0
-14,-552,0,0,0,0,0,0,0,0,0,-1,1210,1576,0,0
-7,-552,0,0,0,0,0,0,0,0,0,-1,1217,1576,0,0
0,-552,0,0,0,0,0,0,0,0,0,-1,1224,1576,0,0
7,-552,0,0,0,0,0,0,0,0,0,-1,1231,1576,0,0
14,-552,0,0,0,0,0,0,0,0,0,-1,1238,1576,0,0
21,-552,0,0,0,0,0,0,0,0,0,-1,1245,1576,0,0
28,-552,0,0,0,0,0,0,0,0,0,-1,1252,1576,0,0
35,-552,0,0,0,0,0,0,0,0,0,-1,1259,1576,0,0
42,-552,0,0,0,0,0,0,0,0,0,-1,1266,1576,0,0
49,-552,0,0,0,0,0,0,0,0,0,-1,1273,1576,0,0
56,-552,0,0,0,0,0,0,0,0,0,-1,1280,1576,0,0
63,-552,0,0,0,0,0,0,0,0,0,-1,1287,1576,0,0
70,-552,0,0,0,0,0,0,0,0,0,-1,1294,1576,0,0
77,-552,0,0,0,0,0,0,0,0,0,-1,1301,1576,0,0
84,-552,0,0,0,0,0,0,0,0,0,-1,1308,1576,0,0
91,-552,0,0,0,0,0,0,0,0,0,-1,1315,1576,0,0
98,-552,0,0,0,0,0,0,0,0,0,-1,1322,1576,0,0
105,-552,0,0,0,0,0,0,0,0,0,-1,1329,1576,0,0
112,-552,0,0,0,0,0,0,0,0,0,-1,1336,1576,0,0
119,-552,0,0,0,0,0,0,0,0,0,-1,1343,1576,0,0
126,-552,0,0,0,0,0,0,0,0,0,-1,1350,1576,0,0
133,-552,0,0,0,0,0,0,0,0,0,-1,1357,1576,0,0
140,-552,0,0,0,0,0,0,0,0,0,-1,1364,1576,0,0
147,-552,0,0,0,0,0,0,0,0,0,-1,1371,1576,0,0
154,-552,0,0,0,0,0,0,0,0,0,-1,1378,1576,0,0
161,-552,0,0,0,0,0,0,0,0,0,-1,1385,1576,0,0
168,-552,0,0,0,0,0,0,0,0,0,-1,1392,1576,0,0
175,-552,0,0,0,0,0,0,0,0,0,-1,1399,1576,0,0
182,-552,0,0,0,0,0,0,0,0,0,-1,1406,1576,0,0
189,-552,0,0,0,0,0,0,0,0,0,-1,1413,1576,0,0
196,-552,0,0,0,0,0,0,0,0,0,-1,1420,1576,0,0
203,-552,0,0,0,0,0,0,0,0,0,-1,1427,1576,0,0
210,-552,0,0,0,0,0,0,0,0,0,-1,1434,1576,0,0
217,-552,0,0,0,0,0,0,0,0,0,-1,1441,1576,0,0
224,-552,0,0,0,0,0,0,0,0,0,-1,1448,1576,0,0
231,-552,0,0,0,0,0,0,0,0,0,-1,1455,1576,0,0
238,-552,0,0,0,0,0,0,0,0,0,-1,1462,1576,0,0
245,-552,0,0,0,0,0,0,0,0,0,-1,1469,1576,0,0
252,-552,0,0,0,0,0,0,0,0,0,-1,1476,1576,0,0
259,-552,0,0,0,0,0,0,0,0,0,-1,1483,1576,0,0
266,-552,0,0,0,0,0,0,0,0,0,-1,1490,1576,0,0
273,-552,0,0,0,0,0,0,0,0,0,-1,1497,1576,0,0
280,-552,0,0,0,0,0,0,0,0,0,-1,1504,1576,0,0
287,-552,0,0,0,0,0,0,0,0,0,-1,1511,1576,0,0
294,-552,0,0,0,0,0,0,0,0,0,-1,1518,1576,0,0
301,-552,0,0,0,0,0,0,0,0,0,-1,1525,1576,0,0
308,-552,0,0,0,0,0,0,0,0,0,-1,1532,1576,0,0
315,-552,0,0,0,0,0,0,0,0,0,-1,1539,1576,0,0
322,-552,0,0,0,0,0,0,0,0,0,-1,1546,1576,0,0
329,-552,0,0,0,0,0,0,0,0,0,-1,1553,1576,0,0
336,-552,0,0,0,0,0,0,0,0,0,-1,1560,1576,0,0
343,-552,0,0,0,0,0,0,0,0,0,-1,1567,1576,0,0
350,-552,4.97876,4.09888,0,0,0,0,0,0,0,-1,1574,1576,4.97875,-4.09883
357,-552,5.18469,4.10706,0,0,0,0,0,0,0,-1,1581,1576,5.1847,-4.10702
364,-552,5.80872,5.07031,0,0,0,0,0,0,0,-1,1588,1576,5.80874,-5.07037
371,-552,7.10657,5.64783,0,0,0,0,0,0,0,-1,1595,1576,7.10651,-5.64786
378,-552,6.44446,4.91492,0,0,0,0,0,0,0,-1,1602,1576,6.44448,-4.91496
385,-552,12.8276,3.16504,0,0,0,0,0,0,0,-1,1609,1576,12.8276,-3.16503
392,-552,12.1301,4.3363,0,0,0,0,0,0,0,-1,1616,1576,12.1302,-4.33631
399,-552,11.3486,5.6012,0,0,0,0,0,0,0,-1,1623,1576,11.3486,-5.60115
406,-552,10.7863,6.42542,0,0,0,0,0,0,0,-1,1630,1576,10.7863,-6.42536
413,-552,8.39307,10.365,0,0,0,0,0,0,0,-1,1637,1576,8.3931,-10.365
420,-552,10.2306,12.7225,0,0,0,0,0,0,0,-1,1644,1576,10.2305,-12.7226
427,-552,9.73267,14.783,0,0,0,0,0,0,0,-1,1651,1576,9.73269,-14.783
434,-552,12.0377,20.1364,0,0,0,0,0,0,0,-1,1658,1576,12.0377,-20.1364
441,-552,11.4086,19.4784,0,0,0,0,0,0,0,-1,1665,1576,11.4085,-19.4783
448,-552,11.5298,19.1862,0,0,0,0,0,0,0,-1,1672,1576,11.5298,-19.1862
455,-552,11.5428,18.8829,0,0,0,0,0,0,0,-1,1679,1576,11.5428,-18.883
462,-552,11.7712,18.6907,0,0,0,0,0,0,0,-1,1686,1576,11.7713,-18.6907
469,-552,12.0137,19.2964,0,0,0,0,0,0,0,-1,1693,1576,12.0137,-19.2964
476,-552,12.319,18.7596,-0.00580752,0.00043869,0.00458886,0.00286639,-0.00823522,1.08419,0.00665467,0.0318902,1700,1576,12.3189,-18.7596
483,-552,12.421,18.3185,-0.00361412,0.000336159,0.00305154,0.001996,-0.00527396,1.07262,0.0043372,0.0209938,1707,1576,12.421,-18.3184
490,-552,12.3923,18.0117,-0.00224946,0.000375687,0.00223739,0.0016571,-0.00353087,1.05067,0.0030597,0.0143781,1714,1576,12.3923,-18.0117
497,-552,12.4274,17.6975,-0.00128656,0.000337792,0.00147438,0.00120889,-0.00215766,1.03715,0.00196924,0.0215273,1721,1576,12.4274,-17.6975
504,-552,12.4436,17.3802,-0.000490184,0.000497111,0.000816082,0.000957233,-0.000950307,1.05741,0.00110132,0.0225376,1728,1576,12.4436,-17.3802
511,-552,12.4254,17.0414,-0.000291364,0.000320711,0.000677795,0.000758358,-0.00072901,0.997457,0.000858788,0.0162385,1735,1576,12.4254,-17.0414
518,-552,12.4183,16.7153,-0.00039966,7.66278e-05,0.000722434,0.000599157,-0.00092219,0.94461,0.000884926,0.0142559,1742,1576,12.4184,-16.7153
525,-552,12.3811,16.4001,-0.00069697,-0.000246602,0.000978969,0.000532748,-0.00147632,0.898442,0.00120182,0.0142731,1749,1576,12.3812,-16.4001
532,-552,12.3521,16.0643,-0.00113236,-0.000669548,0.001426,0.000543695,-0.00234561,0.865836,0.00177298,0.0139336,1756,1576,12.3521,-16.0644
539,-552,12.3184,15.7329,-0.00157273,-0.00125666,0.00200955,0.000601064,-0.00343045,0.824639,0.00251141,0.0162434,1763,1576,12.3183,-15.733
546,-552,12.3202,15.396,-0.00232684,-0.00222224,0.00301808,0.000743987,-0.00529307,0.794062,0.00380106,0.0200267,1770,1576,12.3201,-15.396
553,-552,12.3784,15.0085,-0.0031476,-0.00326424,0.00417615,0.000970637,-0.00738247,0.778416,0.00527505,0.0242951,1777,1576,12.3784,-15.0085
560,-552,12.4399,14.5751,0,0,0,0,0,0,0,-1,1784,1576,12.44,-14.5751
567,-552,11.9984,13.6262,0,0,0,0,0,0,0,-1,1791,1576,11.9985,-13.6262
574,-552,11.9689,13.4098,0,0,0,0,0,0,0,-1,1798,1576,11.9689,-13.4097
581,-552,9.74841,9.98645,0,0,0,0,0,0,0,-1,1805,1576,9.74847,-9.9864
588,-552,10.5619,9.34924,0,0,0,0,0,0,0,-1,1812,1576,10.5619,-9.34921
595,-552,5.36194,6.62744,0,0,0,0,0,0,0,-1,1819,1576,5.36193,-6.62742
602,-552,10.6863,4.31616,0,0,0,0,0,0,0,-1,1826,1576,10.6862,-4.31619
609,-552,12.146,3.18286,0,0,0,0,0,0,0,-1,1833,1576,12.1459,-3.18281
616,-552,13.8762,2.08167,0,0,0,0,0,0,0,-1,1840,1576,13.8763,-2.08167
623,-552,0,0,0,0,0,0,0,0,0,-1,1847,1576,0,0
630,-552,0,0,0,0,0,0,0,0,0,-1,1854,1576,0,0
637,-552,0,0,0,0,0,0,0,0,0,-1,1861,1576,0,0
644,-552,0,0,0,0,0,0,0,0,0,-1,1868,1576,0,0
651,-552,0,0,0,0,0,0,0,0,0,-1,1875,1576,0,0
658,-552,0,0,0,0,0,0,0,0,0,-1,1882,1576,0,0
665,-552,0,0,0,0,0,0,0,0,0,-1,1889,1576,0,0
672,-552,0,0,0,0,0,0,0,0,0,-1,1896,1576,0,0
679,-552,0,0,0,0,0,0,0,0,0,-1,1903,1576,0,0
686,-552,0,0,0,0,0,0,0,0,0,-1,1910,1576,0,0
693,-552,0,0,0,0,0,0,0,0,0,-1,1917,1576,0,0
700,-552,0,0,0,0,0,0,0,0,0,-1,1924,1576,0,0
707,-552,0,0,0,0,0,0,0,0,0,-1,1931,1576,0,0
714,-552,0,0,0,0,0,0,0,0,0,-1,1938,1576,0,0
721,-552,0,0,0,0,0,0,0,0,0,-1,1945,1576,0,0
728,-552,0,0,0,0,0,0,0,0,0,-1,1952,1576,0,0
735,-552,0,0,0,0,0,0,0,0,0,-1,1959,1576,0,0
742,-552,0,0,0,0,0,0,0,0,0,-1,1966,1576,0,0
749,-552,0,0,0,0,0,0,0,0,0,-1,1973,1576,0,0
756,-552,0,0,0,0,0,0,0,0,0,-1,1980,1576,0,0
763,-552,0,0,0,0,0,0,0,0,0,-1,1987,1576,0,0
770,-552,0,0,0,0,0,0,0,0,0,-1,1994,1576,0,0
777,-552,0,0,0,0,0,0,0,0,0,-1,2001,1576,0,0
784,-552,0,0,0,0,0,0,0,0,0,-1,2008,1576,0,0
791,-552,0,0,0,0,0,0,0,0,0,-1,2015,1576,0,0
798,-552,0,0,0,0,0,0,0,0,0,-1,2022,1576,0,0
805,-552,0,0,0,0,0,0,0,0,0,-1,2029,1576,0,0
812,-552,0,0,0,0,0,0,0,0,0,-1,2036,1576,0,0
-700,-559,0,0,0,0,0,0,0,0,0,-1,524,1583,0,0
-693,-559,0,0,0,0,0,0,0,0,0,-1,531,1583,0,0
-686,-559,0,0,0,0,0,0,0,0,0,-1,538,1583,0,0
-679,-559,0,0,0,0,0,0,0,0,0,-1,545,1583,0,0
-672,-559,0,0,0,0,0,0,0,0,0,-1,552,1583,0,0
-665,-559,0,0,0,0,0,0,0,0,0,-1,559,1583,0,0
-658,-559,0,0,0,0,0,0,0,0,0,-1,566,1583,0,0
-651,-559,0,0,0,0,0,0,0,0,0,-1,573,1583,0,0
-644,-559,0,0,0,0,0,0,0,0,0,-1,580,1583,0,0
-637,-559,0,0,0,0,0,0,0,0,0,-1,587,1583,0,0
-630,-559,0,0,0,0,0,0,0,0,0,-1,594,1583,0,0
-623,-559,0,0,0,0,0,0,0,0,0,-1,601,1583,0,0
-616,-559,0,0,0,0,0,0,0,0,0,-1,608,1583,0,0
-609,-559,0,0,0,0,0,0,0,0,0,-1,615,1583,0,0
-602,-559,0,0,0,0,0,0,0,0,0,-1,622,1583,0,0
-595,-559,0,0,0,0,0,0,0,0,0,-1,629,1583,0,0
-588,-559,0,0,0,0,0,0,0,0,0,-1,636,1583,0,0
-581,-559,0,0,0,0,0,0,0,0,0,-1,643,1583,0,0
-574,-559,0,0,0,0,0,0,0,0,0,-1,650,1583,0,0
-567,-559,0,0,0,0,0,0,0,0,0,-1,657,1583,0,0
-560,-559,0,0,0,0,0,0,0,0,0,-1,664,1583,0,0
-553,-559,0,0,0,0,0,0,0,0,0,-1,671,1583,0,0
-546,-559,0,0,0,0,0,0,0,0,0,-1,678,1583,0,0
-539,-559,0,0,0,0,0,0,0,0,0,-1,685,1583,0,0
-532,-559,0,0,0,0,0,0,0,0,0,-1,692,1583,0,0
-525,-559,0,0,0,0,0,0,0,0,0,-1,699,1583,0,0
-518,-559,0,0,0,0,0,0,0,0,0,-1,706,1583,0,0
-511,-559,0,0,0,0,0,0,0,0,0,-1,713,1583,0,0
-504,-559,0,0,0,0,0,0,0,0,0,-1,720,1583,0,0
-497,-559,0,0,0,0,0,0,0,0,0,-1,727,1583,0,0
-490,-559,-5.49835,4.47424,0,0,0,0,0,0,0,-1,734,1583,-5.49833,-4.4743
-483,-559,-5.24078,4.74561,0,0,0,0,0,0,0,-1,741,1583,-5.24079,-4.74563
-476,-559,-4.98022,4.99316,0,0,0,0,0,0,0,-1,748,1583,-4.98024,-4.99321
-469,-559,-4.6424,5.38062,0,0,0,0,0,0,0,-1,755,1583,-4.64237,-5.38058
-462,-559,-0.161865,6.49438,0,0,0,0,0,0,0,-1,762,1583,-0.161835,-6.49444
-455,-559,1.08826,7.02527,0,0,0,0,0,0,0,-1,769,1583,1.08823,-7.02529
-448,-559,0.275635,11.2272,0,0,0,0,0,0,0,-1,776,1583,0.275605,-11.2271
-441,-559,0.523804,12.3667,0,0,0,0,0,0,0,-1,783,1583,0.52382,-12.3667
-434,-559,0.477356,13.0675,0.00598934,0.00268049,0.00320792,0.00794432,0.000725504,0.547322,0.00507171,0.0393513,790,1583,0.477385,-13.0675
-427,-559,0.307617,13.394,0.00318187,0.00119569,0.00187557,0.00431104,6.65227e-05,0.54192,0.00285211,0.0287489,797,1583,0.307588,-13.394
-420,-559,0.248474,13.6643,0.00131859,0.000500523,0.000895557,0.0018941,-7.49889e-05,0.571177,0.00128846,0.0326014,804,1583,0.248448,-13.6643
-413,-559,0.286438,14.0109,0.00015553,0.000313871,0.000288711,0.00053407,-6.46691e-05,0.919219,0.000379445,0.0154604,811,1583,0.286448,-14.0108
-406,-559,0.258789,14.4022,-0.000691663,0.000211554,7.05268e-05,0.000217028,-0.000697137,1.49334,0.000551523,0.0100119,818,1583,0.258802,-14.4023
-399,-559,0.251648,14.7729,-0.0011926,0.000308686,0.000147953,0.000323128,-0.00120704,1.47349,0.000931283,0.0125486,825,1583,0.251637,-14.7729
-392,-559,0.220947,15.1232,-0.0009918,0.00044784,0.000110392,0.000456256,-0.00100022,1.49471,0.000860221,0.0162048,832,1583,0.220956,-15.1232
-385,-559,0.204346,15.4746,-0.000446266,0.00108482,-4.44819e-05,0.00108611,-0.000447557,-1.54178,0.000910687,0.0161552,839,1583,0.204364,-15.4746
-378,-559,0.204407,15.8345,1.38808e-05,0.00147864,-0.000427968,0.00159451,-0.000101994,-1.30638,0.00109859,0.0151578,846,1583,0.204395,-15.8345
-371,-559,0.186401,16.2299,0.000333871,0.00191604,-0.00102541,0.00242006,-0.000170146,-1.11395,0.00167298,0.0221118,853,1583,0.186405,-16.2299
-364,-559,0.194458,16.5854,0.000613637,0.00223006,-0.00184693,0.00343787,-0.000594175,-0.991644,0.00251349,0.019349,860,1583,0.194432,-16.5855
-357,-559,0.181274,16.934,0.000911418,0.00229404,-0.00270303,0.00439276,-0.00118731,-0.910591,0.00339422,0.0114574,867,1583,0.181285,-16.934
-350,-559,0.184814,17.2573,0.00107292,0.00291616,-0.00363073,0.00574042,-0.00175134,-0.909692,0.00452514,0.0098133,874,1583,0.184827,-17.2573
-343,-559,0.194214,17.6012,0.00103684,0.00339089,-0.00463143,0.00699252,-0.00256478,-0.909833,0.00571189,0.0111809,881,1583,0.19423,-17.6012
-336,-559,0.160156,17.9022,0.00087144,0.00434001,-0.00548169,0.00835522,-0.00314377,-0.938605,0.00686245,0.0149477,888,1583,0.160144,-17.9022
-329,-559,0.220215,18.3718,0.000502693,0.00507793,-0.0063667,0.00955553,-0.0039749,-0.95787,0.00803023,0.0244482,895,1583,0.22021,-18.3718
-322,-559,0.442383,18.9447,0,0,0,0,0,0,0,-1,902,1583,0.442394,-18.9447
-315,-559,-0.198914,19.1471,0,0,0,0,0,0,0,-1,909,1583,-0.198942,-19.147
-308,-559,0.306824,19.5787,0,0,0,0,0,0,0,-1,916,1583,0.306846,-19.5788
-301,-559,0.812622,20.0105,0,0,0,0,0,0,0,-1,923,1583,0.812633,-20.0105
-294,-559,0.945129,18.5165,0,0,0,0,0,0,0,-1,930,1583,0.945117,-18.5165
-287,-559,-0.11792,15.4912,0,0,0,0,0,0,0,-1,937,1583,-0.117939,-15.4912
-280,-559,0.191467,13.5093,0,0,0,0,0,0,0,-1,944,1583,0.191441,-13.5093
-273,-559,2.12836,10.3059,0,0,0,0,0,0,0,-1,951,1583,2.12839,-10.3059
-266,-559,-0.597046,6.68933,0,0,0,0,0,0,0,-1,958,1583,-0.597031,-6.68937
-259,-559,-7.00311,8.62756,0,0,0,0,0,0,0,-1,965,1583,-7.00312,-8.6275
-252,-559,-9.4483,2.87805,0,0,0,0,0,0,0,-1,972,1583,-9.44829,-2.87805
-245,-559,-4.80804,7.1803,0,0,0,0,0,0,0,-1,979,1583,-4.80804,-7.18027
-238,-559,-8.45764,2.54858,0,0,0,0,0,0,0,-1,986,1583,-8.45763,-2.54862
-231,-559,-5.86914,4.34021,0,0,0,0,0,0,0,-1,993,1583,-5.86914,-4.34019
-224,-559,-3.30505,6.22864,0,0,0,0,0,0,0,-1,1000,1583,-3.30505,-6.22859
-217,-559,0,0,0,0,0,0,0,0,0,-1,1007,1583,0,0
-210,-559,0,0,0,0,0,0,0,0,0,-1,1014,1583,0,0
-203,-559,0,0,0,0,0,0,0,0,0,-1,1021,1583,0,0
-196,-559,0,0,0,0,0,0,0,0,0,-1,1028,1583,0,0
-189,-559,0,0,0,0,0,0,0,0,0,-1,1035,1583,0,0
-182,-559,0,0,0,0,0,0,0,0,0,-1,1042,1583,0,0
-175,-559,0,0,0,0,0,0,0,0,0,-1,1049,1583,0,0
-168,-559,0,0,0,0,0,0,0,0,0,-1,1056,1583,0,0
-161,-559,0,0,0,0,0,0,0,0,0,-1,1063,1583,0,0
-154,-559,0,0,0,0,0,0,0,0,0,-1,1070,1583,0,0
-147,-559,0,0,0,0,0,0,0,0,0,-1,1077,1583,0,0
-140,-559,0,0,0,0,0,0,0,0,0,-1,1084,1583,0,0
-133,-559,0,0,0,0,0,0,0,0,0,-1,1091,1583,0,0
-126,-559,0,0,0,0,0,0,0,0,0,-1,1098,1583,0,0
-119,-559,0,0,0,0,0,0,0,0,0,-1,1105,1583,0,0
-112,-559,0,0,0,0,0,0,0,0,0,-1,1112,1583,0,0
-105,-559,0,0,0,0,0,0,0,0,0,-1,1119,1583,0,0
-98,-559,0,0,0,0,0,0,0,0,0,-1,1126,1583,0,0
-91,-559,0,0,0,0,0,0,0,0,0,-1,1133,1583,0,0
-84,-559,0,0,0,0,0,0,0,0,0,-1,1140,1583,0,0
-77,-559,0,0,0,0,0,0,0,0,0,-1,1147,1583,0,0
-70,-559,0,0,0,0,0,0,0,0,0,-1,1154,1583,0,0
-63,-559,0,0,0,0,0,0,0,0,0,-1,1161,1583,0,0
-56,-559,0,0,0,0,0,0,0,0,0,-1,1168,1583,0,0
-49,-559,0,0,0,0,0,0,0,0,0,-1,1175,1583,0,0
-42,-559,0,0,0,0,0,0,0,0,0,-1,1182,1583,0,0
-35,-559,0,0,0,0,0,0,0,0,0,-1,1189,1583,0,0
-28,-559,0,0,0,0,0,0,0,0,0,-1,1196,1583,0,0
-21,-559,0,0,0,0,0,0,0,0,0,-1,1203,1583,0,0
-14,-559,0,0,0,0,0,0,0,0,0,-1,1210,1583,0,0
-7,-559,0,0,0,0,0,0,0,0,0,-1,1217,1583,0,0
0,-559,0,0,0,0,0,0,0,0,0,-1,1224,1583,0,0
7,-559,0,0,0,0,0,0,0,0,0,-1,1231,1583,0,0
14,-559,0,0,0,0,0,0,0,0,0,-1,1238,1583,0,0
21,-559,0,0,0,0,0,0,0,0,0,-1,1245,1583,0,0
28,-559,0,0,0,0,0,0,0,0,0,-1,1252,1583,0,0
35,-559,0,0,0,0,0,0,0,0,0,-1,1259,1583,0,0
42,-559,0,0,0,0,0,0,0,0,0,-1,1266,1583,0,0
49,-559,0,0,0,0,0,0,0,0,0,-1,1273,1583,0,0
56,-559,0,0,0,0,0,0,0,0,0,-1,1280,1583,0,0
63,-559,0,0,0,0,0,0,0,0,0,-1,1287,1583,0,0
70,-559,0,0,0,0,0,0,0,0,0,-1,1294,1583,0,0
77,-559,0,0,0,0,0,0,0,0,0,-1,1301,1583,0,0
84,-559,0,0,0,0,0,0,0,0,0,-1,1308,1583,0,0
91,-559,0,0,0,0,0,0,0,0,0,-1,1315,1583,0,0
98,-559,0,0,0,0,0,0,0,0,0,-1,1322,1583,0,0
105,-559,0,0,0,0,0,0,0,0,0,-1,1329,1583,0,0
112,-559,0,0,0,0,0,0,0,0,0,-1,1336,1583,0,0
119,-559,0,0,0,0,0,0,0,0,0,-1,1343,1583,0,0
126,-559,0,0,0,0,0,0,0,0,0,-1,1350,1583,0,0
133,-559,0,0,0,0,0,0,0,0,0,-1,1357,1583,0,0
140,-559,0,0,0,0,0,0,0,0,0,-1,1364,1583,0,0
147,-559,0,0,0,0,0,0,0,0,0,-1,1371,1583,0,0
154,-559,0,0,0,0,0,0,0,0,0,-1,1378,1583,0,0
161,-559,0,0,0,0,0,0,0,0,0,-1,1385,1583,0,0
168,-559,0,0,0,0,0,0,0,0,0,-1,1392,1583,0,0
175,-559,0,0,0,0,0,0,0,0,0,-1,1399,1583,0,0
182,-559,0,0,0,0,0,0,0,0,0,-1,1406,1583,0,0
189,-559,0,0,0,0,0,0,0,0,0,-1,1413,1583,0,0
196,-559,0,0,0,0,0,0,0,0,0,-1,1420,1583,0,0
203,-559,0,0,0,0,0,0,0,0,0,-1,1427,1583,0,0
210,-559,0,0,0,0,0,0,0,0,0,-1,1434,1583,0,0
217,-559,0,0,0,0,0,0,0,0,0,-1,1441,1583,0,0
224,-559,0,0,0,0,0,0,0,0,0,-1,1448,1583,0,0
231,-559,0,0,0,0,0,0,0,0,0,-1,1455,1583,0,0
238,-559,0,0,0,0,0,0,0,0,0,-1,1462,1583,0,0
245,-559,0,0,0,0,0,0,0,0,0,-1,1469,1583,0,0
252,-559,0,0,0,0,0,0,0,0,0,-1,1476,1583,0,0
259,-559,0,0,0,0,0,0,0,0,0,-1,1483,1583,0,0
266,-559,0,0,0,0,0,0,0,0,0,-1,1490,1583,0,0
273,-559,0,0,0,0,0,0,0,0,0,-1,1497,1583,0,0
280,-559,0,0,0,0,0,0,0,0,0,-1,1504,1583,0,0
287,-559,0,0,0,0,0,0,0,0,0,-1,1511,1583,0,0
294,-559,0,0,0,0,0,0,0,0,0,-1,1518,1583,0,0
301,-559,0,0,0,0,0,0,0,0,0,-1,1525,1583,0,0
308,-559,0,0,0,0,0,0,0,0,0,-1,1532,1583,0,0
315,-559,0,0,0,0,0,0,0,0,0,-1,1539,1583,0,0
322,-559,0,0,0,0,0,0,0,0,0,-1,1546,1583,0,0
329,-559,0,0,0,0,0,0,0,0,0,-1,1553,1583,0,0
336,-559,5.97668,3.09827,0,0,0,0,0,0,0,-1,1560,1583,5.97667,-3.09824
343,-559,5.44824,2.88696,0,0,0,0,0,0,0,-1,1567,1583,5.44819,-2.88693
350,-559,4.69775,3.27051,0,0,0,0,0,0,0,-1,1574,1583,4.69771,-3.27048
357,-559,3.88025,3.60999,0,0,0,0,0,0,0,-1,1581,1583,3.88027,-3.60998
364,-559,5.00928,5.32605,0,0,0,0,0,0,0,-1,1588,1583,5.00928,-5.32607
371,-559,1.84436,2.52441,0,0,0,0,0,0,0,-1,1595,1583,1.84441,-2.52447
378,-559,6.34753,1.53137,0,0,0,0,0,0,0,-1,1602,1583,6.34752,-1.53139
385,-559,6.95911,1.48181,0,0,0,0,0,0,0,-1,1609,1583,6.95916,-1.48175
392,-559,11.6949,4.77734,0,0,0,0,0,0,0,-1,1616,1583,11.6949,-4.77731
399,-559,11.1104,5.56909,0,0,0,0,0,0,0,-1,1623,1583,11.1103,-5.56905
406,-559,10.3385,6.48657,0,0,0,0,0,0,0,-1,1630,1583,10.3385,-6.48661
413,-559,9.76147,6.97571,0,0,0,0,0,0,0,-1,1637,1583,9.76143,-6.97574
420,-559,7.77124,10.5851,0,0,0,0,0,0,0,-1,1644,1583,7.77128,-10.585
427,-559,10.1022,12.5565,0,0,0,0,0,0,0,-1,1651,1583,10.1021,-12.5565
434,-559,9.62769,14.6309,0,0,0,0,0,0,0,-1,1658,1583,9.62771,-14.6309
441,-559,11.4775,19.4996,0,0,0,0,0,0,0,-1,1665,1583,11.4776,-19.4996
448,-559,12.6143,19.7577,0,0,0,0,0,0,0,-1,1672,1583,12.6142,-19.7577
455,-559,12.0818,19.7115,0,0,0,0,0,0,0,-1,1679,1583,12.0817,-19.7115
462,-559,11.931,19.6158,0,0,0,0,0,0,0,-1,1686,1583,11.9311,-19.6158
469,-559,11.9238,19.1536,-0.00612467,0.000719283,0.00531752,0.00362075,-0.00902614,1.0713,0.00752071,0.0302894,1693,1583,11.9239,-19.1535
476,-559,12.0181,18.7323,-0.00402785,0.00121678,0.00316159,0.00270204,-0.00551312,1.13161,0.0048347,0.014457,1700,1583,12.018,-18.7323
483,-559,12.076,18.3479,-0.00239495,0.00093349,0.00197198,0.00184965,-0.00331111,1.13588,0.00301912,0.0126435,1707,1583,12.076,-18.3479
490,-559,12.0626,18.0162,-0.0014043,0.000745572,0.00142299,0.001454,-0.00211273,1.10887,0.00207093,0.0151474,1714,1583,12.0626,-18.0163
497,-559,12.0786,17.7054,-0.00078004,0.000527779,0.000878857,0.000969309,-0.00122157,1.10524,0.0012677,0.0173127,1721,1583,12.0786,-17.7054
504,-559,12.066,17.3918,-0.00036754,0.000524504,0.000519502,0.000763185,-0.000606221,1.14012,0.000792356,0.0218596,1728,1583,12.0661,-17.3918
511,-559,12.0543,17.0553,-0.000445669,0.000134574,0.000629585,0.000537668,-0.000848762,1.0013,0.000807145,0.0202251,1735,1583,12.0543,-17.0553
518,-559,12.0785,16.7214,-0.000784781,-0.000233631,0.000857416,0.000391408,-0.00140982,0.940885,0.00109394,0.0130209,1742,1583,12.0785,-16.7214
525,-559,12.0593,16.3953,-0.00129631,-0.000665638,0.00129247,0.000349411,-0.00231135,0.905049,0.00166961,0.0122063,1749,1583,12.0593,-16.3953
532,-559,12.0388,16.054,-0.00194182,-0.00121382,0.00193773,0.000393798,-0.00354944,0.878241,0.00250789,0.0130886,1756,1583,12.0388,-16.054
539,-559,12.0199,15.7227,-0.00268197,-0.0020181,0.00281107,0.000480558,-0.00518063,0.844166,0.00362457,0.0161481,1763,1583,12.0199,-15.7226
546,-559,11.9991,15.397,-0.00384581,-0.00326206,0.00425361,0.000709682,-0.00781755,0.819653,0.00546365,0.0152443,1770,1583,11.9992,-15.397
553,-559,12.109,14.9777,-0.0050391,-0.00454314,0.00584903,0.00106316,-0.0106454,0.806584,0.00747656,0.0225069,1777,1583,12.109,-14.9777
560,-559,12.0804,14.8311,-0.00608624,-0.006163,0.00759666,0.00147214,-0.0137214,0.782872,0.0096757,0.0481588,1784,1583,12.0804,-14.831
567,-559,11.9854,14.4641,0,0,0,0,0,0,0,-1,1791,1583,11.9854,-14.4641
574,-559,10.5109,10.7317,0,0,0,0,0,0,0,-1,1798,1583,10.5108,-10.7317
581,-559,5.97095,5.96179,0,0,0,0,0,0,0,-1,1805,1583,5.97093,-5.96181
588,-559,5.79102,5.89954,0,0,0,0,0,0,0,-1,1812,1583,5.79098,-5.89949
595,-559,5.79089,6.24231,0,0,0,0,0,0,0,-1,1819,1583,5.7909,-6.24227
602,-559,12.478,2.35669,0,0,0,0,0,0,0,-1,1826,1583,12.4781,-2.35675
609,-559,14.0479,1.22681,0,0,0,0,0,0,0,-1,1833,1583,14.0479,-1.22681
616,-559,0,0,0,0,0,0,0,0,0,-1,1840,1583,0,0
623,-559,0,0,0,0,0,0,0,0,0,-1,1847,1583,0,0
630,-559,0,0,0,0,0,0,0,0,0,-1,1854,1583,0,0
637,-559,0,0,0,0,0,0,0,0,0,-1,1861,1583,0,0
644,-559,0,0,0,0,0,0,0,0,0,-1,1868,1583,0,0
651,-559,0,0,0,0,0,0,0,0,0,-1,1875,1583,0,0
658,-559,0,0,0,0,0,0,0,0,0,-1,1882,1583,0,0
665,-559,0,0,0,0,0,0,0,0,0,-1,1889,1583,0,0
672,-559,0,0,0,0,0,0,0,0,0,-1,1896,1583,0,0
679,-559,0,0,0,0,0,0,0,0,0,-1,1903,1583,0,0
686,-559,0,0,0,0,0,0,0,0,0,-1,1910,1583,0,0
693,-559,0,0,0,0,0,0,0,0,0,-1,1917,1583,0,0
700,-559,0,0,0,0,0,0,0,0,0,-1,1924,1583,0,0
707,-559,0,0,0,0,0,0,0,0,0,-1,1931,1583,0,0
714,-559,0,0,0,0,0,0,0,0,0,-1,1938,1583,0,0
721,-559,0,0,0,0,0,0,0,0,0,-1,1945,1583,0,0
728,-559,0,0,0,0,0,0,0,0,0,-1,1952,1583,0,0
735,-559,0,0,0,0,0,0,0,0,0,-1,1959,1583,0,0
742,-559,0,0,0,0,0,0,0,0,0,-1,1966,1583,0,0
749,-559,0,0,0,0,0,0,0,0,0,-1,1973,1583,0,0
756,-559,0,0,0,0,0,0,0,0,0,-1,1980,1583,0,0
763,-559,0,0,0,0,0,0,0,0,0,-1,1987,1583,0,0
770,-559,0,0,0,0,0,0,0,0,0,-1,1994,1583,0,0
777,-559,0,0,0,0,0,0,0,0,0,-1,2001,1583,0,0
784,-559,0,0,0,0,0,0,0,0,0,-1,2008,1583,0,0
791,-559,0,0,0,0,0,0,0,0,0,-1,2015,1583,0,0
798,-559,0,0,0,0,0,0,0,0,0,-1,2022,1583,0,0
805,-559,0,0,0,0,0,0,0,0,0,-1,2029,1583,0,0
812,-559,0,0,0,0,0,0,0,0,0,-1,2036,1583,0,0
-700,-566,0,0,0,0,0,0,0,0,0,-1,524,1590,0,0
-693,-566,0,0,0,0,0,0,0,0,0,-1,531,1590,0,0
-686,-566,0,0,0,0,0,0,0,0,0,-1,538,1590,0,0
-679,-566,0,0,0,0,0,0,0,0,0,-1,545,1590,0,0
-672,-566,0,0,0,0,0,0,0,0,0,-1,552,1590,0,0
-665,-566,0,0,0,0,0,0,0,0,0,-1,559,1590,0,0
-658,-566,0,0,0,0,0,0,0,0,0,-1,566,1590,0,0
-651,-566,0,0,0,0,0,0,0,0,0,-1,573,1590,0,0
-644,-566,0,0,0,0,0,0,0,0,0,-1,580,1590,0,0
-637,-566,0,0,0,0,0,0,0,0,0,-1,587,1590,0,0
-630,-566,0,0,0,0,0,0,0,0,0,-1,594,1590,0,0
-623,-566,0,0,0,0,0,0,0,0,0,-1,601,1590,0,0
-616,-566,0,0,0,0,0,0,0,0,0,-1,608,1590,0,0
-609,-566,0,0,0,0,0,0,0,0,0,-1,615,1590,0,0
-602,-566,0,0,0,0,0,0,0,0,0,-1,622,1590,0,0
-595,-566,0,0,0,0,0,0,0,0,0,-1,629,1590,0,0
-588,-566,0,0,0,0,0,0,0,0,0,-1,636,1590,0,0
-581,-566,0,0,0,0,0,0,0,0,0,-1,643,1590,0,0
-574,-566,0,0,0,0,0,0,0,0,0,-1,650,1590,0,0
-567,-566,0,0,0,0,0,0,0,0,0,-1,657,1590,0,0
-560,-566,0,0,0,0,0,0,0,0,0,-1,664,1590,0,0
-553,-566,0,0,0,0,0,0,0,0,0,-1,671,1590,0,0
-546,-566,0,0,0,0,0,0,0,0,0,-1,678,1590,0,0
-539,-566,0,0,0,0,0,0,0,0,0,-1,685,1590,0,0
-532,-566,0,0,0,0,0,0,0,0,0,-1,692,1590,0,0
-525,-566,0,0,0,0,0,0,0,0,0,-1,699,1590,0,0
-518,-566,0,0,0,0,0,0,0,0,0,-1,706,1590,0,0
-511,-566,0,0,0,0,0,0,0,0,0,-1,713,1590,0,0
-504,-566,0,0,0,0,0,0,0,0,0,-1,720,1590,0,0
-497,-566,0,0,0,0,0,0,0,0,0,-1,727,1590,0,0
-490,-566,0,0,0,0,0,0,0,0,0,-1,734,1590,0,0
-483,-566,-7.17084,2.78613,0,0,0,0,0,0,0,-1,741,1590,-7.17083,-2.78618
-476,-566,-7.13971,2.87183,0,0,0,0,0,0,0,-1,748,1590,-7.13971,-2.87184
-469,-566,-6.43829,3.2998,0,0,0,0,0,0,0,-1,755,1590,-6.43829,-3.2998
-462,-566,-0.459106,3.89343,0,0,0,0,0,0,0,-1,762,1590,-0.459095,-3.89341
-455,-566,0.280212,4.74023,0,0,0,0,0,0,0,-1,769,1590,0.280207,-4.74023
-448,-566,0.436951,5.51306,0,0,0,0,0,0,0,-1,776,1590,0.436971,-5.51301
-441,-566,-0.141785,12.2795,0,0,0,0,0,0,0,-1,783,1590,-0.141772,-12.2796
-434,-566,0.822815,13.1844,0,0,0,0,0,0,0,-1,790,1590,0.822788,-13.1845
-427,-566,0.291138,13.5284,0.00282842,0.00155478,0.00229759,0.00457581,-0.000192609,0.650207,0.00311673,0.0427764,797,1590,0.291168,-13.5285
-420,-566,0.497009,13.8097,0.000604412,0.000481485,0.000954297,0.00149922,-0.000413326,0.753239,0.00116202,0.0494373,804,1590,0.496999,-13.8097
-413,-566,0.618774,14.0347,-0.00069683,4.85687e-05,0.000210108,0.000103713,-0.000751975,1.31413,0.000539222,0.0236249,811,1590,0.618779,-14.0346
-406,-566,0.617493,14.4193,-0.00160048,-0.000287674,-0.000146734,-0.000271474,-0.00161668,-1.46083,0.000999657,0.0103929,818,1590,0.617498,-14.4194
-399,-566,0.607056,14.796,-0.00211697,-0.00037236,-0.000140571,-0.000361106,-0.00212823,-1.49091,0.00131508,0.00962281,825,1590,0.607043,-14.796
-392,-566,0.589355,15.1447,-0.00191536,-0.000457918,-0.000156859,-0.000441227,-0.00193205,-1.46479,0.00116905,0.0130701,832,1590,0.589325,-15.1446
-385,-566,0.593323,15.5026,-0.00131967,0.000111276,-0.000139443,0.000124738,-0.00133314,-1.47455,0.00093312,0.0157656,839,1590,0.593293,-15.5026
-378,-566,0.582642,15.8824,-0.000735411,0.000548918,-0.00027149,0.000603949,-0.000790442,-1.3708,0.000807448,0.0156583,846,1590,0.582628,-15.8825
-371,-566,0.52655,16.2526,-0.000343915,0.000966877,-0.00067375,0.00125142,-0.000628457,-1.17119,0.00110503,0.0198169,853,1590,0.526569,-16.2525
-364,-566,0.529053,16.6057,3.57089e-05,0.00127757,-0.0011974,0.00200546,-0.000692187,-1.02459,0.00161784,0.0193037,860,1590,0.529059,-16.6057
-357,-566,0.535583,16.9344,0.000472807,0.00136246,-0.00170331,0.00267807,-0.000842799,-0.913123,0.00212283,0.0160954,867,1590,0.535569,-16.9345
-350,-566,0.548584,17.2653,0.000790426,0.00199336,-0.0022456,0.00371664,-0.000932863,-0.916248,0.00284025,0.0197583,874,1590,0.548562,-17.2653
-343,-566,0.566711,17.5516,0.000905132,0.00254237,-0.00278855,0.00462998,-0.00118247,-0.928169,0.00354713,0.0250936,881,1590,0.5667,-17.5516
-336,-566,0.477539,17.8961,0.000930977,0.00353621,-0.00316078,0.00565227,-0.00118509,-0.980853,0.00421906,0.0237605,888,1590,0.477562,-17.8962
-329,-566,0.562622,18.2124,0.00075532,0.00431975,-0.00362309,0.00657524,-0.00150018,-1.01397,0.00495977,0.0180917,895,1590,0.562612,-18.2124
-322,-566,0.598145,18.672,0.000211935,0.0052465,-0.0040069,0.00746123,-0.0020028,-1.06586,0.00575903,0.0245797,902,1590,0.598119,-18.672
-315,-566,0.85083,19.1021,0,0,0,0,0,0,0,-1,909,1590,0.850814,-19.1021
-308,-566,0.714539,19.3301,-0.00119917,0.00802226,-0.00401673,0.00952651,-0.00270342,-1.21247,0.0074182,0.0437678,916,1590,0.714557,-19.33
-301,-566,0.648193,20.1628,-0.00230854,0.00931605,-0.00404466,0.0105849,-0.00357735,-1.26682,0.00850366,0.0492548,923,1590,0.648179,-20.1628
-294,-566,0.50592,20.4637,0,0,0,0,0,0,0,-1,930,1590,0.505914,-20.4637
-287,-566,0.417175,21.0229,0,0,0,0,0,0,0,-1,937,1590,0.417155,-21.023
-280,-566,1.59406,17.8762,0,0,0,0,0,0,0,-1,944,1590,1.59405,-17.8762
-273,-566,0.49762,11.2427,0,0,0,0,0,0,0,-1,951,1590,0.497591,-11.2426
-266,-566,0.392151,6.90295,0,0,0,0,0,0,0,-1,958,1590,0.392151,-6.90294
-259,-566,0.343628,6.47437,0,0,0,0,0,0,0,-1,965,1590,0.34363,-6.47438
-252,-566,-7.68311,1.01343,0,0,0,0,0,0,0,-1,972,1590,-7.68308,-1.01348
-245,-566,-11.1835,1.97522,0,0,0,0,0,0,0,-1,979,1590,-11.1835,-1.97527
-238,-566,-10.4883,2.40491,0,0,0,0,0,0,0,-1,986,1590,-10.4883,-2.40487
-231,-566,-7.41827,4.22803,0,0,0,0,0,0,0,-1,993,1590,-7.41827,-4.22803
-224,-566,-4.67188,6.30859,0,0,0,0,0,0,0,-1,1000,1590,-4.67185,-6.30853
-217,-566,-2.82867,7.52527,0,0,0,0,0,0,0,-1,1007,1590,-2.82869,-7.52531
-210,-566,-1.03436,8.67737,0,0,0,0,0,0,0,-1,1014,1590,-1.03439,-8.67733
-203,-566,0,0,0,0,0,0,0,0,0,-1,1021,1590,0,0
-196,-566,0,0,0,0,0,0,0,0,0,-1,1028,1590,0,0
-189,-566,0,0,0,0,0,0,0,0,0,-1,1035,1590,0,0
-182,-566,0,0,0,0,0,0,0,0,0,-1,1042,1590,0,0
-175,-566,0,0,0,0,0,0,0,0,0,-1,1049,1590,0,0
-168,-566,0,0,0,0,0,0,0,0,0,-1,1056,1590,0,0
-161,-566,0,0,0,0,0,0,0,0,0,-1,1063,1590,0,0
-154,-566,0,0,0,0,0,0,0,0,0,-1,1070,1590,0,0
-147,-566,0,0,0,0,0,0,0,0,0,-1,1077,1590,0,0
-140,-566,0,0,0,0,0,0,0,0,0,-1,1084,1590,0,0
-133,-566,0,0,0,0,0,0,0,0,0,-1,1091,1590,0,0
-126,-566,0,0,0,0,0,0,0,0,0,-1,1098,1590,0,0
-119,-566,0,0,0,0,0,0,0,0,0,-1,1105,1590,0,0
-112,-566,0,0,0,0,0,0,0,0,0,-1,1112,1590,0,0
-105,-566,0,0,0,0,0,0,0,0,0,-1,1119,1590,0,0
-98,-566,0,0,0,0,0,0,0,0,0,-1,1126,1590,0,0
-91,-566,0,0,0,0,0,0,0,0,0,-1,1133,1590,0,0
-84,-566,0,0,0,0,0,0,0,0,0,-1,1140,1590,0,0
-77,-566,0,0,0,0,0,0,0,0,0,-1,1147,1590,0,0
-70,-566,0,0,0,0,0,0,0,0,0,-1,1154,1590,0,0
-63,-566,0,0,0,0,0,0,0,0,0,-1,1161,1590,0,0
-56,-566,0,0,0,0,0,0,0,0,0,-1,1168,1590,0,0
-49,-566,0,0,0,0,0,0,0,0,0,-1,1175,1590,0,0
-42,-566,0,0,0,0,0,0,0,0,0,-1,1182,1590,0,0
-35,-566,0,0,0,0,0,0,0,0,0,-1,1189,1590,0,0
-28,-566,0,0,0,0,0,0,0,0,0,-1,1196,1590,0,0
-21,-566,0,0,0,0,0,0,0,0,0,-1,1203,1590,0,0
-14,-566,0,0,0,0,0,0,0,0,0,-1,1210,1590,0,0
-7,-566,0,0,0,0,0,0,0,0,0,-1,1217,1590,0,0
0,-566,0,0,0,0,0,0,0,0,0,-1,1224,1590,0,0
7,-566,0,0,0,0,0,0,0,0,0,-1,1231,1590,0,0
14,-566,0,0,0,0,0,0,0,0,0,-1,1238,1590,0,0
21,-566,0,0,0,0,0,0,0,0,0,-1,1245,1590,0,0
28,-566,0,0,0,0,0,0,0,0,0,-1,1252,1590,0,0
35,-566,0,0,0,0,0,0,0,0,0,-1,1259,1590,0,0
42,-566,0,0,0,0,0,0,0,0,0,-1,1266,1590,0,0
49,-566,0,0,0,0,0,0,0,0,0,-1,1273,1590,0,0
56,-566,0,0,0,0,0,0,0,0,0,-1,1280,1590,0,0
63,-566,0,0,0,0,0,0,0,0,0,-1,1287,1590,0,0
70,-566,0,0,0,0,0,0,0,0,0,-1,1294,1590,0,0
77,-566,0,0,0,0,0,0,0,0,0,-1,1301,1590,0,0
84,-566,0,0,0,0,0,0,0,0,0,-1,1308,1590,0,0
91,-566,0,0,0,0,0,0,0,0,0,-1,1315,1590,0,0
98,-566,0,0,0,0,0,0,0,0,0,-1,1322,1590,0,0
105,-566,0,0,0,0,0,0,0,0,0,-1,1329,1590,0,0
112,-566,0,0,0,0,0,0,0,0,0,-1,1336,1590,0,0
119,-566,0,0,0,0,0,0,0,0,0,-1,1343,1590,0,0
126,-566,0,0,0,0,0,0,0,0,0,-1,1350,1590,0,0
133,-566,0,0,0,0,0,0,0,0,0,-1,1357,1590,0,0
140,-566,0,0,0,0,0,0,0,0,0,-1,1364,1590,0,0
147,-566,0,0,0,0,0,0,0,0,0,-1,1371,1590,0,0
154,-566,0,0,0,0,0,0,0,0,0,-1,1378,1590,0,0
161,-566,0,0,0,0,0,0,0,0,0,-1,1385,1590,0,0
168,-566,0,0,0,0,0,0,0,0,0,-1,1392,1590,0,0
175,-566,0,0,0,0,0,0,0,0,0,-1,1399,1590,0,0
182,-566,0,0,0,0,0,0,0,0,0,-1,1406,1590,0,0
189,-566,0,0,0,0,0,0,0,0,0,-1,1413,1590,0,0
196,-566,0,0,0,0,0,0,0,0,0,-1,1420,1590,0,0
203,-566,0,0,0,0,0,0,0,0,0,-1,1427,1590,0,0
210,-566,0,0,0,0,0,0,0,0,0,-1,1434,1590,0,0
217,-566,0,0,0,0,0,0,0,0,0,-1,1441,1590,0,0
224,-566,0,0,0,0,0,0,0,0,0,-1,1448,1590,0,0
231,-566,0,0,0,0,0,0,0,0,0,-1,1455,1590,0,0
238,-566,0,0,0,0,0,0,0,0,0,-1,1462,1590,0,0
245,-566,0,0,0,0,0,0,0,0,0,-1,1469,1590,0,0
252,-566,0,0,0,0,0,0,0,0,0,-1,1476,1590,0,0
259,-566,0,0,0,0,0,0,0,0,0,-1,1483,1590,0,0
266,-566,0,0,0,0,0,0,0,0,0,-1,1490,1590,0,0
273,-566,0,0,0,0,0,0,0,0,0,-1,1497,1590,0,0
280,-566,0,0,0,0,0,0,0,0,0,-1,1504,1590,0,0
287,-566,0,0,0,0,0,0,0,0,0,-1,1511,1590,0,0
294,-566,0,0,0,0,0,0,0,0,0,-1,1518,1590,0,0
301,-566,0,0,0,0,0,0,0,0,0,-1,1525,1590,0,0
308,-566,0,0,0,0,0,0,0,0,0,-1,1532,1590,0,0
315,-566,0,0,0,0,0,0,0,0,0,-1,1539,1590,0,0
322,-566,6.07983,4.44873,0,0,0,0,0,0,0,-1,1546,1590,6.07983,-4.44873
329,-566,5.77026,3.47534,0,0,0,0,0,0,0,-1,1553,1590,5.77026,-3.47535
336,-566,5.41138,2.62915,0,0,0,0,0,0,0,-1,1560,1590,5.41138,-2.62909
343,-566,4.81873,1.79089,0,0,0,0,0,0,0,-1,1567,1590,4.81878,-1.79095
350,-566,4.41663,2.44214,0,0,0,0,0,0,0,-1,1574,1590,4.41666,-2.44214
357,-566,6.34058,5.18579,0,0,0,0,0,0,0,-1,1581,1590,6.34059,-5.1858
364,-566,6.06262,4.20251,0,0,0,0,0,0,0,-1,1588,1590,6.06259,-4.20246
371,-566,5.78455,3.21912,0,0,0,0,0,0,0,-1,1595,1590,5.7846,-3.21912
378,-566,5.7439,0.695557,0,0,0,0,0,0,0,-1,1602,1590,5.74392,-0.695531
385,-566,5.67615,-0.573975,0,0,0,0,0,0,0,-1,1609,1590,5.67612,0.573956
392,-566,5.78638,1.82434,0,0,0,0,0,0,0,-1,1616,1590,5.78637,-1.82439
399,-566,5.36621,1.7373,0,0,0,0,0,0,0,-1,1623,1590,5.36627,-1.7373
406,-566,4.30359,5.26868,0,0,0,0,0,0,0,-1,1630,1590,4.30364,-5.26867
413,-566,4.27124,5.79492,0,0,0,0,0,0,0,-1,1637,1590,4.27123,-5.7949
420,-566,7.19812,8.25146,0,0,0,0,0,0,0,-1,1644,1590,7.19817,-8.25149
427,-566,10.455,10.6842,0,0,0,0,0,0,0,-1,1651,1590,10.455,-10.6842
434,-566,9.18567,14.3304,0,0,0,0,0,0,0,-1,1658,1590,9.18571,-14.3305
441,-566,12.0887,20.5043,0,0,0,0,0,0,0,-1,1665,1590,12.0888,-20.5043
448,-566,12.0486,19.8318,-0.0108644,-0.000769129,0.0113829,0.0066351,-0.0182686,0.994091,0.0148919,0.0463333,1672,1590,12.0486,-19.8317
455,-566,11.6428,19.7437,-0.00844588,-4.02652e-05,0.00847591,0.00521761,-0.0137038,1.01556,0.0112845,0.0412973,1679,1590,11.6428,-19.7437
462,-566,11.635,19.459,-0.00630087,0.000781216,0.00591911,0.00413762,-0.00965727,1.05496,0.00817424,0.0255063,1686,1590,11.635,-19.459
469,-566,11.6884,19.0009,-0.00435439,0.00122856,0.00391802,0.00324782,-0.00637366,1.09492,0.00565184,0.0138863,1693,1590,11.6883,-19.0008
476,-566,11.7328,18.6772,-0.00277931,0.00151286,0.0021414,0.00239849,-0.00366494,1.17864,0.00352608,0.00959552,1700,1590,11.7328,-18.6773
483,-566,11.7384,18.363,-0.00155889,0.00115636,0.00119696,0.00160867,-0.0020112,1.2095,0.00209423,0.00991297,1707,1590,11.7384,-18.363
490,-566,11.731,18.0203,-0.000838066,0.00084793,0.000815471,0.00117781,-0.00116794,1.1864,0.00135432,0.0108413,1714,1590,11.7309,-18.0202
497,-566,11.764,17.6898,-0.000471542,0.000537046,0.000418835,0.000688294,-0.000622789,1.22425,0.000757269,0.0132769,1721,1590,11.764,-17.6899
504,-566,11.7487,17.3936,-0.000381536,0.000432828,0.000294055,0.000527907,-0.000476614,1.25807,0.000580212,0.017346,1728,1590,11.7486,-17.3935
511,-566,11.7301,17.0685,-0.000681348,-9.62266e-05,0.000589259,0.000269102,-0.00104668,1.01582,0.000802665,0.0182988,1735,1590,11.7302,-17.0685
518,-566,11.7354,16.7441,-0.00121682,-0.000536425,0.000962746,0.000144461,-0.00189771,0.955232,0.00131594,0.0111648,1742,1590,11.7354,-16.7441
525,-566,11.7065,16.3846,-0.00193221,-0.00103753,0.00155454,0.000132753,-0.0031025,0.925495,0.00211397,0.0109507,1749,1590,11.7066,-16.3847
532,-566,11.6923,16.0431,-0.00280839,-0.0016846,0.00239878,0.000217218,-0.00471021,0.900445,0.00321499,0.0133067,1756,1590,11.6923,-16.043
539,-566,11.6998,15.6907,-0.00392174,-0.00268832,0.00359442,0.00034191,-0.00695197,0.870358,0.00475272,0.0174211,1763,1590,11.6998,-15.6906
546,-566,11.7417,15.2935,-0.00561155,-0.00418886,0.00552795,0.000673328,-0.0104737,0.849387,0.00721741,0.0227876,1770,1590,11.7417,-15.2935
553,-566,11.7297,15.0981,-0.00732908,-0.00572317,0.00765942,0.00117527,-0.0142275,0.837624,0.00990005,0.0367041,1777,1590,11.7298,-15.0981
560,-566,11.5697,15.1923,-0.00903099,-0.00773673,0.0101083,0.00174516,-0.0185129,0.817364,0.0129629,0.047614,1784,1590,11.5697,-15.1923
567,-566,11.5591,15.1526,0,0,0,0,0,0,0,-1,1791,1590,11.5591,-15.1526
574,-566,7.99548,3.14514,0,0,0,0,0,0,0,-1,1798,1590,7.99543,-3.14511
581,-566,2.54102,5.1311,0,0,0,0,0,0,0,-1,1805,1590,2.54099,-5.13111
588,-566,-1.91321,8.39197,0,0,0,0,0,0,0,-1,1812,1590,-1.91316,-8.39199
595,-566,9.0271,4.66467,0,0,0,0,0,0,0,-1,1819,1590,9.02705,-4.66468
602,-566,9.953,3.54895,0,0,0,0,0,0,0,-1,1826,1590,9.953,-3.54898
609,-566,0,0,0,0,0,0,0,0,0,-1,1833,1590,0,0
616,-566,0,0,0,0,0,0,0,0,0,-1,1840,1590,0,0
623,-566,0,0,0,0,0,0,0,0,0,-1,1847,1590,0,0
630,-566,0,0,0,0,0,0,0,0,0,-1,1854,1590,0,0
637,-566,0,0,0,0,0,0,0,0,0,-1,1861,1590,0,0
644,-566,0,0,0,0,0,0,0,0,0,-1,1868,1590,0,0
651,-566,0,0,0,0,0,0,0,0,0,-1,1875,1590,0,0
658,-566,0,0,0,0,0,0,0,0,0,-1,1882,1590,0,0
665,-566,0,0,0,0,0,0,0,0,0,-1,1889,1590,0,0
672,-566,0,0,0,0,0,0,0,0,0,-1,1896,1590,0,0
679,-566,0,0,0,0,0,0,0,0,0,-1,1903,1590,0,0
686,-566,0,0,0,0,0,0,0,0,0,-1,1910,1590,0,0
693,-566,0,0,0,0,0,0,0,0,0,-1,1917,1590,0,0
700,-566,0,0,0,0,0,0,0,0,0,-1,1924,1590,0,0
707,-566,0,0,0,0,0,0,0,0,0,-1,1931,1590,0,0
714,-566,0,0,0,0,0,0,0,0,0,-1,1938,1590,0,0
721,-566,0,0,0,0,0,0,0,0,0,-1,1945,1590,0,0
728,-566,0,0,0,0,0,0,0,0,0,-1,1952,1590,0,0
735,-566,0,0,0,0,0,0,0,0,0,-1,1959,1590,0,0
742,-566,0,0,0,0,0,0,0,0,0,-1,1966,1590,0,0
749,-566,0,0,0,0,0,0,0,0,0,-1,1973,1590,0,0
756,-566,0,0,0,0,0,0,0,0,0,-1,1980,1590,0,0
763,-566,0,0,0,0,0,0,0,0,0,-1,1987,1590,0,0
770,-566,0,0,0,0,0,0,0,0,0,-1,1994,1590,0,0
777,-566,0,0,0,0,0,0,0,0,0,-1,2001,1590,0,0
784,-566,0,0,0,0,0,0,0,0,0,-1,2008,1590,0,0
791,-566,0,0,0,0,0,0,0,0,0,-1,2015,1590,0,0
798,-566,0,0,0,0,0,0,0,0,0,-1,2022,1590,0,0
805,-566,0,0,0,0,0,0,0,0,0,-1,2029,1590,0,0
812,-566,0,0,0,0,0,0,0,0,0,-1,2036,1590,0,0
-700,-573,0,0,0,0,0,0,0,0,0,-1,524,1597,0,0
-693,-573,0,0,0,0,0,0,0,0,0,-1,531,1597,0,0
-686,-573,0,0,0,0,0,0,0,0,0,-1,538,1597,0,0
-679,-573,0,0,0,0,0,0,0,0,0,-1,545,1597,0,0
-672,-573,0,0,0,0,0,0,0,0,0,-1,552,1597,0,0
-665,-573,0,0,0,0,0,0,0,0,0,-1,559,1597,0,0
-658,-573,0,0,0,0,0,0,0,0,0,-1,566,1597,0,0
-651,-573,0,0,0,0,0,0,0,0,0,-1,573,1597,0,0
-644,-573,0,0,0,0,0,0,0,0,0,-1,580,1597,0,0
-637,-573,0,0,0,0,0,0,0,0,0,-1,587,1597,0,0
-630,-573,0,0,0,0,0,0,0,0,0,-1,594,1597,0,0
-623,-573,0,0,0,0,0,0,0,0,0,-1,601,1597,0,0
-616,-573,0,0,0,0,0,0,0,0,0,-1,608,1597,0,0
-609,-573,0,0,0,0,0,0,0,0,0,-1,615,1597,0,0
-602,-573,0,0,0,0,0,0,0,0,0,-1,622,1597,0,0
-595,-573,0,0,0,0,0,0,0,0,0,-1,629,1597,0,0
-588,-573,0,0,0,0,0,0,0,0,0,-1,636,1597,0,0
-581,-573,0,0,0,0,0,0,0,0,0,-1,643,1597,0,0
-574,-573,0,0,0,0,0,0,0,0,0,-1,650,1597,0,0
-567,-573,0,0,0,0,0,0,0,0,0,-1,657,1597,0,0
-560,-573,0,0,0,0,0,0,0,0,0,-1,664,1597,0,0
-553,-573,0,0,0,0,0,0,0,0,0,-1,671,1597,0,0
-546,-573,0,0,0,0,0,0,0,0,0,-1,678,1597,0,0
-539,-573,0,0,0,0,0,0,0,0,0,-1,685,1597,0,0
-532,-573,0,0,0,0,0,0,0,0,0,-1,692,1597,0,0
-525,-573,0,0,0,0,0,0,0,0,0,-1,699,1597,0,0
-518,-573,0,0,0,0,0,0,0,0,0,-1,706,1597,0,0
-511,-573,0,0,0,0,0,0,0,0,0,-1,713,1597,0,0
-504,-573,0,0,0,0,0,0,0,0,0,-1,720,1597,0,0
-497,-573,0,0,0,0,0,0,0,0,0,-1,727,1597,0,0
-490,-573,0,0,0,0,0,0,0,0,0,-1,734,1597,0,0
-483,-573,0,0,0,0,0,0,0,0,0,-1,741,1597,0,0
-476,-573,-9.3327,0.972778,0,0,0,0,0,0,0,-1,748,1597,-9.33268,-0.972776
-469,-573,-1.41681,1.13379,0,0,0,0,0,0,0,-1,755,1597,-1.41681,-1.13382
-462,-573,-0.748535,2.02588,0,0,0,0,0,0,0,-1,762,1597,-0.748533,-2.02584
-455,-573,-0.112976,2.70703,0,0,0,0,0,0,0,-1,769,1597,-0.112988,-2.70697
-448,-573,-1.26172,3.33252,0,0,0,0,0,0,0,-1,776,1597,-1.26173,-3.33248
-441,-573,0.108582,5.06726,0,0,0,0,0,0,0,-1,783,1597,0.108584,-5.06721
-434,-573,1.61768,7.05444,0,0,0,0,0,0,0,-1,790,1597,1.61767,-7.05446
-427,-573,0.182373,13.6506,0,0,0,0,0,0,0,-1,797,1597,0.182381,-13.6507
-420,-573,0.915222,13.6124,0,0,0,0,0,0,0,-1,804,1597,0.915238,-13.6124
-413,-573,1.1615,13.9666,-0.001876,-5.74973e-05,0.000179087,-4.00285e-05,-0.00189347,1.47356,0.00124918,0.0488661,811,1597,1.16151,-13.9665
-406,-573,0.976563,14.3519,-0.00275444,-0.000617568,-0.000286822,-0.000579739,-0.00279227,-1.43966,0.00170151,0.0229435,818,1597,0.976588,-14.3519
-399,-573,0.94928,14.7793,-0.00321733,-0.000888419,-0.000347704,-0.000837616,-0.00326813,-1.42571,0.00196014,0.0114008,825,1597,0.949253,-14.7793
-392,-573,0.960693,15.157,-0.00295806,-0.00117388,-0.000334749,-0.00111314,-0.0030188,-1.39131,0.00176281,0.011807,832,1597,0.960714,-15.157
-385,-573,0.95105,15.519,-0.00227396,-0.000680836,-0.000174844,-0.000661873,-0.00229292,-1.46276,0.00136267,0.014072,839,1597,0.951045,-15.519
-378,-573,0.937134,15.8704,-0.00155377,-0.000221024,-0.000112976,-0.000211515,-0.00156328,-1.48683,0.000979324,0.0149525,846,1597,0.937164,-15.8704
-371,-573,0.913147,16.2466,-0.0010756,0.000163596,-0.000372695,0.000267049,-0.00117905,-1.30003,0.000888529,0.0151445,853,1597,0.913118,-16.2466
-364,-573,0.920898,16.6097,-0.000589279,0.000455152,-0.000677807,0.000788583,-0.000922711,-1.11363,0.000989027,0.0171918,860,1597,0.920871,-16.6097
-357,-573,0.906799,16.9325,-1.85742e-05,0.000554708,-0.000945869,0.00125641,-0.000720281,-0.932522,0.00115515,0.0203713,867,1597,0.906769,-16.9325
-350,-573,0.89502,17.2819,0.000442979,0.00114648,-0.0012387,0.00208241,-0.000492947,-0.92374,0.00157846,0.0170454,874,1597,0.895014,-17.2819
-343,-573,0.944336,17.6045,0.000687042,0.00171153,-0.00149806,0.00278251,-0.000383932,-0.950136,0.00199533,0.0211998,881,1597,0.944316,-17.6045
-336,-573,0.901428,17.9529,0.00086904,0.00267203,-0.00159987,0.00360691,-6.58451e-05,-1.04196,0.00242686,0.0167274,888,1597,0.901417,-17.9529
-329,-573,0.912476,18.3004,0.000876674,0.00347346,-0.00179238,0.00438831,-3.81735e-05,-1.09886,0.00293835,0.0169153,895,1597,0.912461,-18.3004
-322,-573,0.910522,18.6498,0.000514512,0.00435181,-0.00199119,0.00519831,-0.00033199,-1.16882,0.00358134,0.0142918,902,1597,0.910524,-18.6498
-315,-573,1.01062,19.1075,0.00012114,0.00546747,-0.00199329,0.00612882,-0.000540216,-1.25043,0.00427734,0.0296999,909,1597,1.01063,-19.1075
-308,-573,1.03308,19.3119,-0.000454791,0.00665379,-0.00186514,0.00711345,-0.000914444,-1.32917,0.00507465,0.0427777,916,1597,1.03305,-19.3119
-301,-573,1.12634,19.6007,-0.00124402,0.00763664,-0.00186932,0.00801408,-0.00162146,-1.37156,0.00595722,0.0365092,923,1597,1.12633,-19.6007
-294,-573,0.928711,20.0427,-0.00224628,0.00808403,-0.00203365,0.00846996,-0.00263221,-1.38325,0.0066987,0.037921,930,1597,0.928689,-20.0427
-287,-573,0.846008,20.6085,-0.00350565,0.00811476,-0.00199927,0.00844911,-0.00383999,-1.40509,0.00725955,0.0456602,937,1597,0.845997,-20.6086
-280,-573,0.911621,20.2694,0,0,0,0,0,0,0,-1,944,1597,0.911636,-20.2694
-273,-573,0.894104,20.3116,0,0,0,0,0,0,0,-1,951,1597,0.894107,-20.3116
-266,-573,1.31116,7.1814,0,0,0,0,0,0,0,-1,958,1597,1.31118,-7.18142
-259,-573,1.2514,6.70959,0,0,0,0,0,0,0,-1,965,1597,1.25137,-6.70965
-252,-573,2.07874,5.27161,0,0,0,0,0,0,0,-1,972,1597,2.07875,-5.27157
-245,-573,-10.2592,1.09827,0,0,0,0,0,0,0,-1,979,1597,-10.2592,-1.09823
-238,-573,-11.5463,4.44141,0,0,0,0,0,0,0,-1,986,1597,-11.5463,-4.44146
-231,-573,-9.23431,4.14539,0,0,0,0,0,0,0,-1,993,1597,-9.23431,-4.14534
-224,-573,-6.70044,7.40857,0,0,0,0,0,0,0,-1,1000,1597,-6.70045,-7.40851
-217,-573,-4.25824,8.59119,0,0,0,0,0,0,0,-1,1007,1597,-4.25824,-8.59122
-210,-573,-2.39661,9.73914,0,0,0,0,0,0,0,-1,1014,1597,-2.39658,-9.73915
-203,-573,-0.557373,10.9005,0,0,0,0,0,0,0,-1,1021,1597,-0.557387,-10.9006
-196,-573,-1.65344,9.02246,0,0,0,0,0,0,0,-1,1028,1597,-1.65349,-9.02241
-189,-573,-6.12915,6.66882,0,0,0,0,0,0,0,-1,1035,1597,-6.12913,-6.66884
-182,-573,0,0,0,0,0,0,0,0,0,-1,1042,1597,0,0
-175,-573,0,0,0,0,0,0,0,0,0,-1,1049,1597,0,0
-168,-573,0,0,0,0,0,0,0,0,0,-1,1056,1597,0,0
-161,-573,0,0,0,0,0,0,0,0,0,-1,1063,1597,0,0
-154,-573,0,0,0,0,0,0,0,0,0,-1,1070,1597,0,0
-147,-573,0,0,0,0,0,0,0,0,0,-1,1077,1597,0,0
-140,-573,0,0,0,0,0,0,0,0,0,-1,1084,1597,0,0
-133,-573,0,0,0,0,0,0,0,0,0,-1,1091,1597,0,0
-126,-573,0,0,0,0,0,0,0,0,0,-1,1098,1597,0,0
-119,-573,0,0,0,0,0,0,0,0,0,-1,1105,1597,0,0
-112,-573,0,0,0,0,0,0,0,0,0,-1,1112,1597,0,0
-105,-573,0,0,0,0,0,0,0,0,0,-1,1119,1597,0,0
-98,-573,0,0,0,0,0,0,0,0,0,-1,1126,1597,0,0
-91,-573,0,0,0,0,0,0,0,0,0,-1,1133,1597,0,0
-84,-573,0,0,0,0,0,0,0,0,0,-1,1140,1597,0,0
-77,-573,0,0,0,0,0,0,0,0,0,-1,1147,1597,0,0
-70,-573,0,0,0,0,0,0,0,0,0,-1,1154,1597,0,0
-63,-573,0,0,0,0,0,0,0,0,0,-1,1161,1597,0,0
-56,-573,0,0,0,0,0,0,0,0,0,-1,1168,1597,0,0
-49,-573,0,0,0,0,0,0,0,0,0,-1,1175,1597,0,0
-42,-573,0,0,0,0,0,0,0,0,0,-1,1182,1597,0,0
-35,-573,0,0,0,0,0,0,0,0,0,-1,1189,1597,0,0
-28,-573,0,0,0,0,0,0,0,0,0,-1,1196,1597,0,0
-21,-573,0,0,0,0,0,0,0,0,0,-1,1203,1597,0,0
-14,-573,0,0,0,0,0,0,0,0,0,-1,1210,1597,0,0
-7,-573,0,0,0,0,0,0,0,0,0,-1,1217,1597,0,0
0,-573,0,0,0,0,0,0,0,0,0,-1,1224,1597,0,0
7,-573,0,0,0,0,0,0,0,0,0,-1,1231,1597,0,0
14,-573,0,0,0,0,0,0,0,0,0,-1,1238,1597,0,0
21,-573,0,0,0,0,0,0,0,0,0,-1,1245,1597,0,0
28,-573,0,0,0,0,0,0,0,0,0,-1,1252,1597,0,0
35,-573,0,0,0,0,0,0,0,0,0,-1,1259,1597,0,0
42,-573,0,0,0,0,0,0,0,0,0,-1,1266,1597,0,0
49,-573,0,0,0,0,0,0,0,0,0,-1,1273,1597,0,0
56,-573,0,0,0,0,0,0,0,0,0,-1,1280,1597,0,0
63,-573,0,0,0,0,0,0,0,0,0,-1,1287,1597,0,0
70,-573,0,0,0,0,0,0,0,0,0,-1,1294,1597,0,0
77,-573,0,0,0,0,0,0,0,0,0,-1,1301,1597,0,0
84,-573,0,0,0,0,0,0,0,0,0,-1,1308,1597,0,0
91,-573,0,0,0,0,0,0,0,0,0,-1,1315,1597,0,0
98,-573,0,0,0,0,0,0,0,0,0,-1,1322,1597,0,0
105,-573,0,0,0,0,0,0,0,0,0,-1,1329,1597,0,0
112,-573,0,0,0,0,0,0,0,0,0,-1,1336,1597,0,0
119,-573,0,0,0,0,0,0,0,0,0,-1,1343,1597,0,0
126,-573,0,0,0,0,0,0,0,0,0,-1,1350,1597,0,0
133,-573,0,0,0,0,0,0,0,0,0,-1,1357,1597,0,0
140,-573,0,0,0,0,0,0,0,0,0,-1,1364,1597,0,0
147,-573,0,0,0,0,0,0,0,0,0,-1,1371,1597,0,0
154,-573,0,0,0,0,0,0,0,0,0,-1,1378,1597,0,0
161,-573,0,0,0,0,0,0,0,0,0,-1,1385,1597,0,0
168,-573,0,0,0,0,0,0,0,0,0,-1,1392,1597,0,0
175,-573,0,0,0,0,0,0,0,0,0,-1,1399,1597,0,0
182,-573,0,0,0,0,0,0,0,0,0,-1,1406,1597,0,0
189,-573,0,0,0,0,0,0,0,0,0,-1,1413,1597,0,0
196,-573,0,0,0,0,0,0,0,0,0,-1,1420,1597,0,0
203,-573,0,0,0,0,0,0,0,0,0,-1,1427,1597,0,0
210,-573,0,0,0,0,0,0,0,0,0,-1,1434,1597,0,0
217,-573,0,0,0,0,0,0,0,0,0,-1,1441,1597,0,0
224,-573,0,0,0,0,0,0,0,0,0,-1,1448,1597,0,0
231,-573,0,0,0,0,0,0,0,0,0,-1,1455,1597,0,0
238,-573,0,0,0,0,0,0,0,0,0,-1,1462,1597,0,0
245,-573,0,0,0,0,0,0,0,0,0,-1,1469,1597,0,0
252,-573,0,0,0,0,0,0,0,0,0,-1,1476,1597,0,0
259,-573,0,0,0,0,0,0,0,0,0,-1,1483,1597,0,0
266,-573,0,0,0,0,0,0,0,0,0,-1,1490,1597,0,0
273,-573,0,0,0,0,0,0,0,0,0,-1,1497,1597,0,0
280,-573,0,0,0,0,0,0,0,0,0,-1,1504,1597,0,0
287,-573,0,0,0,0,0,0,0,0,0,-1,1511,1597,0,0
294,-573,0,0,0,0,0,0,0,0,0,-1,1518,1597,0,0
301,-573,0,0,0,0,0,0,0,0,0,-1,1525,1597,0,0
308,-573,5.93042,9.71143,0,0,0,0,0,0,0,-1,1532,1597,5.93046,-9.71144
315,-573,4.34204,11.719,0,0,0,0,0,0,0,-1,1539,1597,4.34205,-11.719
322,-573,10.3269,7.77563,0,0,0,0,0,0,0,-1,1546,1597,10.327,-7.77565
329,-573,4.99573,3.80273,0,0,0,0,0,0,0,-1,1553,1597,4.9957,-3.80273
336,-573,4.85693,2.53455,0,0,0,0,0,0,0,-1,1560,1597,4.8569,-2.53459
343,-573,5.5946,2.15894,0,0,0,0,0,0,0,-1,1567,1597,5.59456,-2.1589
350,-573,2.53748,1.56433,0,0,0,0,0,0,0,-1,1574,1597,2.53753,-1.5643
357,-573,7.40247,4.03613,0,0,0,0,0,0,0,-1,1581,1597,7.40244,-4.03614
364,-573,7.14551,3.02087,0,0,0,0,0,0,0,-1,1588,1597,7.14556,-3.02084
371,-573,6.88867,2.00549,0,0,0,0,0,0,0,-1,1595,1597,6.88868,-2.00553
378,-573,8.62012,6.09106,0,0,0,0,0,0,0,-1,1602,1597,8.62012,-6.09103
385,-573,6.54346,-0.951904,0,0,0,0,0,0,0,-1,1609,1597,6.54349,0.951901
392,-573,6.41833,-2.18225,0,0,0,0,0,0,0,-1,1616,1597,6.41831,2.18228
399,-573,4.26282,4.73657,0,0,0,0,0,0,0,-1,1623,1597,4.26285,-4.73652
406,-573,6.82715,10.823,0,0,0,0,0,0,0,-1,1630,1597,6.82719,-10.823
413,-573,8.90552,13.1737,0,0,0,0,0,0,0,-1,1637,1597,8.90553,-13.1737
420,-573,12.9537,20.2738,0,0,0,0,0,0,0,-1,1644,1597,12.9537,-20.2738
427,-573,12.913,20.6671,0,0,0,0,0,0,0,-1,1651,1597,12.913,-20.6671
434,-573,11.6953,20.4246,0,0,0,0,0,0,0,-1,1658,1597,11.6953,-20.4245
441,-573,11.5782,20.2787,-0.0100526,-0.00120974,0.0116846,0.00686202,-0.0181244,0.966271,0.0149064,0.0417854,1665,1597,11.5783,-20.2787
448,-573,11.3711,20.0759,-0.00794654,-0.000177806,0.00885599,0.00560824,-0.0137326,0.992071,0.0114901,0.0302065,1672,1597,11.3711,-20.0759
455,-573,11.3599,19.6774,-0.00623129,0.000364197,0.0066012,0.00444554,-0.0103126,1.01705,0.0087422,0.0224395,1679,1597,11.3599,-19.6774
462,-573,11.4189,19.2688,-0.00461536,0.000982261,0.0045246,0.00350373,-0.00713683,1.06238,0.00626156,0.0201773,1686,1597,11.419,-19.2688
469,-573,11.4312,18.9575,-0.00313458,0.00128839,0.00290839,0.00273058,-0.00457678,1.11045,0.00426356,0.0147273,1693,1597,11.4311,-18.9575
476,-573,11.4371,18.656,-0.00191951,0.00148895,0.00140239,0.00199178,-0.00242234,1.22652,0.00255253,0.0134727,1700,1597,11.4371,-18.656
483,-573,11.433,18.3473,-0.000989017,0.0011766,0.000598906,0.00133119,-0.00114361,1.31818,0.00143019,0.0118,1707,1597,11.433,-18.3472
490,-573,11.4128,18.0167,-0.000446555,0.000857015,0.000285516,0.000916808,-0.000506348,1.36436,0.000832973,0.0111154,1714,1597,11.4128,-18.0167
497,-573,11.4481,17.6794,-0.000256127,0.000545315,-4.09528e-05,0.000547403,-0.000258214,-1.51987,0.000475007,0.0169188,1721,1597,11.4481,-17.6794
504,-573,11.4335,17.3662,-0.000418228,0.000408674,-1.14382e-05,0.000408832,-0.000418386,-1.55697,0.000477605,0.0176887,1728,1597,11.4334,-17.3662
511,-573,11.4288,17.0292,-0.000884054,-0.000175204,0.000389614,-2.92622e-06,-0.00105633,1.15447,0.000703248,0.0184731,1735,1597,11.4288,-17.0291
518,-573,11.4026,16.7449,-0.00157496,-0.000628083,0.000851824,-0.000126972,-0.00207607,1.03904,0.00134373,0.0137895,1742,1597,11.4026,-16.7449
525,-573,11.374,16.4121,-0.00247379,-0.00115568,0.00156248,-0.000118951,-0.00351052,0.984977,0.00230172,0.0159017,1749,1597,11.3741,-16.4121
532,-573,11.3848,16.0627,-0.00358999,-0.00187467,0.00259319,-9.88599e-07,-0.00546367,0.945104,0.00364212,0.0155766,1756,1597,11.3847,-16.0628
539,-573,11.3569,15.7339,-0.00512738,-0.00307099,0.0041228,0.000149889,-0.00834827,0.907601,0.00561614,0.0241057,1763,1597,11.3569,-15.7339
546,-573,11.3787,15.397,-0.00744407,-0.00482864,0.00658857,0.000580747,-0.0128535,0.883366,0.00876896,0.0433487,1770,1597,11.3787,-15.397
553,-573,10.762,15.108,-0.00988595,-0.00668352,0.00941065,0.00126117,-0.0178306,0.869666,0.012329,0.0485907,1777,1597,10.762,-15.1081
560,-573,10.9291,15.4695,0,0,0,0,0,0,0,-1,1784,1597,10.929,-15.4695
567,-573,4.99597,2.77759,0,0,0,0,0,0,0,-1,1791,1597,4.99596,-2.7776
574,-573,0.83374,5.7041,0,0,0,0,0,0,0,-1,1798,1597,0.833718,-5.70405
581,-573,-0.224854,7.41602,0,0,0,0,0,0,0,-1,1805,1597,-0.224904,-7.41596
588,-573,-0.134033,7.67065,0,0,0,0,0,0,0,-1,1812,1597,-0.134037,-7.67063
595,-573,-0.0825195,8.35083,0,0,0,0,0,0,0,-1,1819,1597,-0.0824684,-8.35088
602,-573,0,0,0,0,0,0,0,0,0,-1,1826,1597,0,0
609,-573,0,0,0,0,0,0,0,0,0,-1,1833,1597,0,0
616,-573,0,0,0,0,0,0,0,0,0,-1,1840,1597,0,0
623,-573,0,0,0,0,0,0,0,0,0,-1,1847,1597,0,0
630,-573,0,0,0,0,0,0,0,0,0,-1,1854,1597,0,0
637,-573,0,0,0,0,0,0,0,0,0,-1,1861,1597,0,0
644,-573,0,0,0,0,0,0,0,0,0,-1,1868,1597,0,0
651,-573,0,0,0,0,0,0,0,0,0,-1,1875,1597,0,0
658,-573,0,0,0,0,0,0,0,0,0,-1,1882,1597,0,0
665,-573,0,0,0,0,0,0,0,0,0,-1,1889,1597,0,0
672,-573,0,0,0,0,0,0,0,0,0,-1,1896,1597,0,0
679,-573,0,0,0,0,0,0,0,0,0,-1,1903,1597,0,0
686,-573,0,0,0,0,0,0,0,0,0,-1,1910,1597,0,0
693,-573,0,0,0,0,0,0,0,0,0,-1,1917,1597,0,0
700,-573,0,0,0,0,0,0,0,0,0,-1,1924,1597,0,0
707,-573,0,0,0,0,0,0,0,0,0,-1,1931,1597,0,0
714,-573,0,0,0,0,0,0,0,0,0,-1,1938,1597,0,0
721,-573,0,0,0,0,0,0,0,0,0,-1,1945,1597,0,0
728,-573,0,0,0,0,0,0,0,0,0,-1,1952,1597,0,0
735,-573,0,0,0,0,0,0,0,0,0,-1,1959,1597,0,0
742,-573,0,0,0,0,0,0,0,0,0,-1,1966,1597,0,0
749,-573,0,0,0,0,0,0,0,0,0,-1,1973,1597,0,0
756,-573,0,0,0,0,0,0,0,0,0,-1,1980,1597,0,0
763,-573,0,0,0,0,0,0,0,0,0,-1,1987,1597,0,0
770,-573,0,0,0,0,0,0,0,0,0,-1,1994,1597,0,0
777,-573,0,0,0,0,0,0,0,0,0,-1,2001,1597,0,0
784,-573,0,0,0,0,0,0,0,0,0,-1,2008,1597,0,0
791,-573,0,0,0,0,0,0,0,0,0,-1,2015,1597,0,0
798,-573,0,0,0,0,0,0,0,0,0,-1,2022,1597,0,0
805,-573,0,0,0,0,0,0,0,0,0,-1,2029,1597,0,0
812,-573,0,0,0,0,0,0,0,0,0,-1,2036,1597,0,0
-700,-580,0,0,0,0,0,0,0,0,0,-1,524,1604,0,0
-693,-580,0,0,0,0,0,0,0,0,0,-1,531,1604,0,0
-686,-580,0,0,0,0,0,0,0,0,0,-1,538,1604,0,0
-679,-580,0,0,0,0,0,0,0,0,0,-1,545,1604,0,0
-672,-580,0,0,0,0,0,0,0,0,0,-1,552,1604,0,0
-665,-580,0,0,0,0,0,0,0,0,0,-1,559,1604,0,0
-658,-580,0,0,0,0,0,0,0,0,0,-1,566,1604,0,0
-651,-580,0,0,0,0,0,0,0,0,0,-1,573,1604,0,0
-644,-580,0,0,0,0,0,0,0,0,0,-1,580,1604,0,0
-637,-580,0,0,0,0,0,0,0,0,0,-1,587,1604,0,0
-630,-580,0,0,0,0,0,0,0,0,0,-1,594,1604,0,0
-623,-580,0,0,0,0,0,0,0,0,0,-1,601,1604,0,0
-616,-580,0,0,0,0,0,0,0,0,0,-1,608,1604,0,0
-609,-580,0,0,0,0,0,0,0,0,0,-1,615,1604,0,0
-602,-580,0,0,0,0,0,0,0,0,0,-1,622,1604,0,0
-595,-580,0,0,0,0,0,0,0,0,0,-1,629,1604,0,0
-588,-580,0,0,0,0,0,0,0,0,0,-1,636,1604,0,0
-581,-580,0,0,0,0,0,0,0,0,0,-1,643,1604,0,0
-574,-580,0,0,0,0,0,0,0,0,0,-1,650,1604,0,0
-567,-580,0,0,0,0,0,0,0,0,0,-1,657,1604,0,0
-560,-580,0,0,0,0,0,0,0,0,0,-1,664,1604,0,0
-553,-580,0,0,0,0,0,0,0,0,0,-1,671,1604,0,0
-546,-580,0,0,0,0,0,0,0,0,0,-1,678,1604,0,0
-539,-580,0,0,0,0,0,0,0,0,0,-1,685,1604,0,0
-532,-580,0,0,0,0,0,0,0,0,0,-1,692,1604,0,0
-525,-580,0,0,0,0,0,0,0,0,0,-1,699,1604,0,0
-518,-580,0,0,0,0,0,0,0,0,0,-1,706,1604,0,0
-511,-580,0,0,0,0,0,0,0,0,0,-1,713,1604,0,0
-504,-580,0,0,0,0,0,0,0,0,0,-1,720,1604,0,0
-497,-580,0,0,0,0,0,0,0,0,0,-1,727,1604,0,0
-490,-580,0,0,0,0,0,0,0,0,0,-1,734,1604,0,0
-483,-580,0,0,0,0,0,0,0,0,0,-1,741,1604,0,0
-476,-580,0,0,0,0,0,0,0,0,0,-1,748,1604,0,0
-469,-580,-1.69189,-0.38916,0,0,0,0,0,0,0,-1,755,1604,-1.69192,0.389188
-462,-580,-0.859863,0.675293,0,0,0,0,0,0,0,-1,762,1604,-0.859834,-0.675245
-455,-580,-0.730164,0.651978,0,0,0,0,0,0,0,-1,769,1604,-0.730153,-0.651957
-448,-580,-3.31891,2.07544,0,0,0,0,0,0,0,-1,776,1604,-3.3189,-2.07539
-441,-580,-1.63843,3.9469,0,0,0,0,0,0,0,-1,783,1604,-1.63842,-3.94695
-434,-580,0.23291,5.97876,0,0,0,0,0,0,0,-1,790,1604,0.232901,-5.97878
-427,-580,1.62756,8.05493,0,0,0,0,0,0,0,-1,797,1604,1.62758,-8.05488
-420,-580,0.986572,11.2383,0,0,0,0,0,0,0,-1,804,1604,0.986544,-11.2382
-413,-580,1.63147,13.9386,0,0,0,0,0,0,0,-1,811,1604,1.63148,-13.9386
-406,-580,1.44629,14.4108,-0.00421777,-0.000731626,-0.000322082,-0.000702119,-0.00424728,-1.47944,0.00262892,0.0486129,818,1604,1.44627,-14.4108
-399,-580,1.31647,14.7823,-0.00450988,-0.00121386,-0.000421635,-0.00116078,-0.00456297,-1.44556,0.00273833,0.0213428,825,1604,1.31645,-14.7824
-392,-580,1.29919,15.1678,-0.00407973,-0.00169607,-0.000366292,-0.00164105,-0.00413474,-1.42171,0.00240406,0.0130496,832,1604,1.29919,-15.1679
-385,-580,1.30219,15.5267,-0.00323649,-0.00130368,-8.88501e-05,-0.0012996,-0.00324056,-1.52496,0.00188311,0.0118819,839,1604,1.30219,-15.5268
-378,-580,1.27814,15.8837,-0.00234917,-0.000854921,0.000107645,-0.000847206,-0.00235688,1.49925,0.00137855,0.0143842,846,1604,1.27817,-15.8837
-371,-580,1.27313,16.2584,-0.00176169,-0.000523416,-6.4885e-05,-0.000520026,-0.00176508,-1.51859,0.00104734,0.0139173,853,1604,1.27315,-16.2584
-364,-580,1.26917,16.6135,-0.00116748,-0.000271444,-0.000231227,-0.000215293,-0.00122363,-1.33257,0.000754301,0.0198309,860,1604,1.26914,-16.6135
-357,-580,1.27637,16.9293,-0.000485118,-0.000168322,-0.000364555,7.07603e-05,-0.0007242,-0.990341,0.000508032,0.0138977,867,1604,1.27637,-16.9294
-350,-580,1.2561,17.2946,9.0067e-05,0.000347937,-0.00052401,0.000758642,-0.000320638,-0.906029,0.000639998,0.010825,874,1604,1.25611,-17.2946
-343,-580,1.26917,17.6372,0.000429881,0.000898048,-0.000633004,0.00133886,-1.09352e-05,-0.962499,0.000896243,0.0104684,881,1604,1.26915,-17.6372
-336,-580,1.28046,17.95,0.000721033,0.00177596,-0.000614637,0.00205843,0.000438559,-1.14001,0.00125197,0.0177672,888,1604,1.28047,-17.9499
-329,-580,1.2486,18.3071,0.000854281,0.00255458,-0.000684201,0.00279571,0.000613153,-1.23197,0.00169676,0.0173519,895,1604,1.24858,-18.3071
-322,-580,1.24634,18.6456,0.000633146,0.00339933,-0.000782178,0.00360519,0.000427293,-1.31345,0.00227444,0.0186063,902,1604,1.24632,-18.6456
-315,-580,1.26495,18.9578,0.000376223,0.00434969,-0.000768216,0.00449305,0.000232871,-1.38631,0.00292084,0.0178055,909,1604,1.26494,-18.9578
-308,-580,1.33868,19.3955,-2.01085e-05,0.00530092,-0.000687637,0.00538835,-0.000107536,-1.44433,0.00362861,0.0243044,916,1604,1.33869,-19.3955
-301,-580,1.40204,19.6444,-0.000564462,0.00605788,-0.000732651,0.00613797,-0.000644549,-1.46192,0.00432288,0.0242287,923,1604,1.40205,-19.6445
-294,-580,1.31079,19.8533,-0.00123989,0.00630066,-0.000958632,0.00642062,-0.00135985,-1.4463,0.00479836,0.0278176,930,1604,1.3108,-19.8533
-287,-580,1.27057,20.3018,-0.00200314,0.00623728,-0.00112131,0.00638714,-0.002153,-1.43794,0.00512868,0.0393694,937,1604,1.27057,-20.3017
-280,-580,1.14764,20.4761,-0.00278453,0.00611088,-0.00124206,0.00628105,-0.0029547,-1.43464,0.00544632,0.0434291,944,1604,1.14766,-20.476
-273,-580,1.09979,20.7253,-0.00341649,0.00589649,-0.00153104,0.00614173,-0.00366174,-1.41197,0.00572009,0.0469472,951,1604,1.09982,-20.7254
-266,-580,1.0517,21.0916,0,0,0,0,0,0,0,-1,958,1604,1.0517,-21.0915
-259,-580,1.31091,9.11536,0,0,0,0,0,0,0,-1,965,1604,1.31092,-9.11539
-252,-580,1.07629,7.74097,0,0,0,0,0,0,0,-1,972,1604,1.07627,-7.74101
-245,-580,3.80304,9.16028,0,0,0,0,0,0,0,-1,979,1604,3.80306,-9.16034
-238,-580,-10.3588,1.57556,0,0,0,0,0,0,0,-1,986,1604,-10.3588,-1.5755
-231,-580,-10.576,6.43787,0,0,0,0,0,0,0,-1,993,1604,-10.576,-6.43783
-224,-580,-8.27435,7.58972,0,0,0,0,0,0,0,-1,1000,1604,-8.27435,-7.5897
-217,-580,-5.85632,9.51221,0,0,0,0,0,0,0,-1,1007,1604,-5.85632,-9.5122
-210,-580,-3.6684,11.1569,0,0,0,0,0,0,0,-1,1014,1604,-3.66839,-11.1569
-203,-580,-1.92474,12.7845,0,0,0,0,0,0,0,-1,1021,1604,-1.92477,-12.7845
-196,-580,-2.28552,10.3289,0,0,0,0,0,0,0,-1,1028,1604,-2.28552,-10.3288
-189,-580,-4.58252,7.59058,0,0,0,0,0,0,0,-1,1035,1604,-4.58256,-7.59057
-182,-580,-5.45874,7.65942,0,0,0,0,0,0,0,-1,1042,1604,-5.45876,-7.65939
-175,-580,-6.38977,7.55005,0,0,0,0,0,0,0,-1,1049,1604,-6.38981,-7.5501
-168,-580,0,0,0,0,0,0,0,0,0,-1,1056,1604,0,0
-161,-580,0,0,0,0,0,0,0,0,0,-1,1063,1604,0,0
-154,-580,0,0,0,0,0,0,0,0,0,-1,1070,1604,0,0
-147,-580,0,0,0,0,0,0,0,0,0,-1,1077,1604,0,0
-140,-580,0,0,0,0,0,0,0,0,0,-1,1084,1604,0,0
-133,-580,0,0,0,0,0,0,0,0,0,-1,1091,1604,0,0
-126,-580,0,0,0,0,0,0,0,0,0,-1,1098,1604,0,0
-119,-580,0,0,0,0,0,0,0,0,0,-1,1105,1604,0,0
-112,-580,0,0,0,0,0,0,0,0,0,-1,1112,1604,0,0
-105,-580,0,0,0,0,0,0,0,0,0,-1,1119,1604,0,0
-98,-580,0,0,0,0,0,0,0,0,0,-1,1126,1604,0,0
-91,-580,0,0,0,0,0,0,0,0,0,-1,1133,1604,0,0
-84,-580,0,0,0,0,0,0,0,0,0,-1,1140,1604,0,0
-77,-580,0,0,0,0,0,0,0,0,0,-1,1147,1604,0,0
-70,-580,0,0,0,0,0,0,0,0,0,-1,1154,1604,0,0
-63,-580,0,0,0,0,0,0,0,0,0,-1,1161,1604,0,0
-56,-580,0,0,0,0,0,0,0,0,0,-1,1168,1604,0,0
-49,-580,0,0,0,0,0,0,0,0,0,-1,1175,1604,0,0
-42,-580,0,0,0,0,0,0,0,0,0,-1,1182,1604,0,0
-35,-580,0,0,0,0,0,0,0,0,0,-1,1189,1604,0,0
-28,-580,0,0,0,0,0,0,0,0,0,-1,1196,1604,0,0
-21,-580,0,0,0,0,0,0,0,0,0,-1,1203,1604,0,0
-14,-580,0,0,0,0,0,0,0,0,0,-1,1210,1604,0,0
-7,-580,0,0,0,0,0,0,0,0,0,-1,1217,1604,0,0
0,-580,0,0,0,0,0,0,0,0,0,-1,1224,1604,0,0
7,-580,0,0,0,0,0,0,0,0,0,-1,1231,1604,0,0
14,-580,0,0,0,0,0,0,0,0,0,-1,1238,1604,0,0
21,-580,0,0,0,0,0,0,0,0,0,-1,1245,1604,0,0
28,-580,0,0,0,0,0,0,0,0,0,-1,1252,1604,0,0
35,-580,0,0,0,0,0,0,0,0,0,-1,1259,1604,0,0
42,-580,0,0,0,0,0,0,0,0,0,-1,1266,1604,0,0
49,-580,0,0,0,0,0,0,0,0,0,-1,1273,1604,0,0
56,-580,0,0,0,0,0,0,0,0,0,-1,1280,1604,0,0
63,-580,0,0,0,0,0,0,0,0,0,-1,1287,1604,0,0
70,-580,0,0,0,0,0,0,0,0,0,-1,1294,1604,0,0
77,-580,0,0,0,0,0,0,0,0,0,-1,1301,1604,0,0
84,-580,0,0,0,0,0,0,0,0,0,-1,1308,1604,0,0
91,-580,0,0,0,0,0,0,0,0,0,-1,1315,1604,0,0
98,-580,0,0,0,0,0,0,0,0,0,-1,1322,1604,0,0
105,-580,0,0,0,0,0,0,0,0,0,-1,1329,1604,0,0
112,-580,0,0,0,0,0,0,0,0,0,-1,1336,1604,0,0
119,-580,0,0,0,0,0,0,0,0,0,-1,1343,1604,0,0
126,-580,0,0,0,0,0,0,0,0,0,-1,1350,1604,0,0
133,-580,0,0,0,0,0,0,0,0,0,-1,1357,1604,0,0
140,-580,0,0,0,0,0,0,0,0,0,-1,1364,1604,0,0
147,-580,0,0,0,0,0,0,0,0,0,-1,1371,1604,0,0
154,-580,0,0,0,0,0,0,0,0,0,-1,1378,1604,0,0
161,-580,0,0,0,0,0,0,0,0,0,-1,1385,1604,0,0
168,-580,0,0,0,0,0,0,0,0,0,-1,1392,1604,0,0
175,-580,0,0,0,0,0,0,0,0,0,-1,1399,1604,0,0
182,-580,0,0,0,0,0,0,0,0,0,-1,1406,1604,0,0
189,-580,0,0,0,0,0,0,0,0,0,-1,1413,1604,0,0
196,-580,0,0,0,0,0,0,0,0,0,-1,1420,1604,0,0
203,-580,0,0,0,0,0,0,0,0,0,-1,1427,1604,0,0
210,-580,0,0,0,0,0,0,0,0,0,-1,1434,1604,0,0
217,-580,0,0,0,0,0,0,0,0,0,-1,1441,1604,0,0
224,-580,0,0,0,0,0,0,0,0,0,-1,1448,1604,0,0
231,-580,0,0,0,0,0,0,0,0,0,-1,1455,1604,0,0
238,-580,0,0,0,0,0,0,0,0,0,-1,1462,1604,0,0
245,-580,0,0,0,0,0,0,0,0,0,-1,1469,1604,0,0
252,-580,0,0,0,0,0,0,0,0,0,-1,1476,1604,0,0
259,-580,0,0,0,0,0,0,0,0,0,-1,1483,1604,0,0
266,-580,0,0,0,0,0,0,0,0,0,-1,1490,1604,0,0
273,-580,0,0,0,0,0,0,0,0,0,-1,1497,1604,0,0
280,-580,0,0,0,0,0,0,0,0,0,-1,1504,1604,0,0
287,-580,0,0,0,0,0,0,0,0,0,-1,1511,1604,0,0
294,-580,4.0437,0.177368,0,0,0,0,0,0,0,-1,1518,1604,4.04369,-0.177371
301,-580,7.55164,8.05798,0,0,0,0,0,0,0,-1,1525,1604,7.55158,-8.05802
308,-580,5.9126,9.99341,0,0,0,0,0,0,0,-1,1532,1604,5.91255,-9.99337
315,-580,4.27356,11.9287,0,0,0,0,0,0,0,-1,1539,1604,4.27352,-11.9287
322,-580,10.2366,7.50281,0,0,0,0,0,0,0,-1,1546,1604,10.2366,-7.50282
329,-580,10.5962,8.69641,0,0,0,0,0,0,0,-1,1553,1604,10.5962,-8.69642
336,-580,3.66431,1.58862,0,0,0,0,0,0,0,-1,1560,1604,3.6643,-1.58864
343,-580,3.32227,1.39636,0,0,0,0,0,0,0,-1,1567,1604,3.32222,-1.39633
350,-580,8.71277,4.0564,0,0,0,0,0,0,0,-1,1574,1604,8.71271,-4.05638
357,-580,8.52332,3.08154,0,0,0,0,0,0,0,-1,1581,1604,8.52332,-3.08157
364,-580,8.25818,2.07605,0,0,0,0,0,0,0,-1,1588,1604,8.25812,-2.07608
371,-580,7.42114,7.14282,0,0,0,0,0,0,0,-1,1595,1604,7.42119,-7.14281
378,-580,7.9718,6.6731,0,0,0,0,0,0,0,-1,1602,1604,7.9718,-6.67307
385,-580,8.52246,6.20337,0,0,0,0,0,0,0,-1,1609,1604,8.52241,-6.20334
392,-580,6.5498,-2.15625,0,0,0,0,0,0,0,-1,1616,1604,6.54984,2.15626
399,-580,6.52625,10.7247,0,0,0,0,0,0,0,-1,1623,1604,6.52628,-10.7248
406,-580,11.781,21.2544,0,0,0,0,0,0,0,-1,1630,1604,11.781,-21.2544
413,-580,11.6163,20.7595,0,0,0,0,0,0,0,-1,1637,1604,11.6163,-20.7595
420,-580,11.9495,20.5861,-0.0106686,-0.00328008,0.0160563,0.00950148,-0.0234502,0.898471,0.0195846,0.0453157,1644,1604,11.9495,-20.586
427,-580,11.7544,20.7384,-0.0096616,-0.00227226,0.0137109,0.00823305,-0.0201669,0.917007,0.0168724,0.0418206,1651,1604,11.7543,-20.7384
434,-580,11.1189,20.4729,-0.00850232,-0.00155299,0.0112508,0.00674744,-0.0168028,0.935171,0.0140037,0.031342,1658,1604,11.1189,-20.4729
441,-580,11.056,20.1908,-0.00723956,-0.000803595,0.00897908,0.00551673,-0.0135599,0.957461,0.0113355,0.0139628,1665,1604,11.0561,-20.1908
448,-580,11.0902,19.8704,-0.00576878,-1.74605e-05,0.00682338,0.00451147,-0.0102977,0.984825,0.00876493,0.0129082,1672,1604,11.0903,-19.8703
455,-580,11.1232,19.5881,-0.00455418,0.000467165,0.00503658,0.00358415,-0.00767117,1.01662,0.00663953,0.0189885,1679,1604,11.1232,-19.5881
462,-580,11.0815,19.2781,-0.00332754,0.00099312,0.00331997,0.00279375,-0.00512817,1.07383,0.00463945,0.0223407,1686,1604,11.0816,-19.2781
469,-580,11.0779,18.9644,-0.00215998,0.00129137,0.00195207,0.00217118,-0.00303979,1.14736,0.00302246,0.019058,1693,1604,11.0779,-18.9643
476,-580,11.1271,18.6346,-0.00118698,0.00149406,0.000648248,0.00164257,-0.00133549,1.34558,0.00172243,0.0151793,1700,1604,11.1271,-18.6346
483,-580,11.1047,18.3425,-0.000466185,0.00129982,-5.8861e-05,0.00130178,-0.000468145,-1.53752,0.00105897,0.0134439,1707,1604,11.1047,-18.3425
490,-580,11.0786,18.0432,-5.15465e-05,0.00103772,-0.000347676,0.00113923,-0.000153059,-1.28672,0.000815311,0.0154557,1714,1604,11.0786,-18.0432
497,-580,11.072,17.705,9.96002e-06,0.000778424,-0.000632019,0.00113384,-0.000345458,-1.05852,0.00089359,0.0124941,1721,1604,11.072,-17.705
504,-580,11.0629,17.3544,-0.000366394,0.000638204,-0.000480929,0.000831317,-0.000559507,-1.18896,0.000808088,0.0174661,1728,1604,11.0629,-17.3544
511,-580,11.0679,17.0566,-0.000981528,4.22575e-05,-6.99016e-06,4.23052e-05,-0.000981576,-1.56397,0.000668932,0.0168525,1735,1604,11.0679,-17.0567
518,-580,11.0677,16.7518,-0.00183054,-0.000414961,0.000528115,-0.000239647,-0.00200585,1.25028,0.00126494,0.0148862,1742,1604,11.0678,-16.7519
525,-580,11.0592,16.4404,-0.00294678,-0.000980952,0.00136313,-0.000283316,-0.00364442,1.09776,0.00234089,0.0173999,1749,1604,11.0592,-16.4404
532,-580,11.053,16.1145,-0.00438128,-0.00179965,0.00262446,-0.000165745,-0.00601519,1.01395,0.00395603,0.0213689,1756,1604,11.0529,-16.1146
539,-580,11.0468,15.8629,-0.00651937,-0.00331873,0.0045902,-5.78756e-05,-0.00978022,0.953129,0.00650094,0.0323107,1763,1604,11.0468,-15.8629
546,-580,11.1097,15.4689,0,0,0,0,0,0,0,-1,1770,1604,11.1098,-15.4689
553,-580,9.77466,15.0314,0,0,0,0,0,0,0,-1,1777,1604,9.77471,-15.0313
560,-580,7.09021,6.49438,0,0,0,0,0,0,0,-1,1784,1604,7.09016,-6.4944
567,-580,3.87708,4.0647,0,0,0,0,0,0,0,-1,1791,1604,3.87711,-4.06471
574,-580,2.31653,5.62952,0,0,0,0,0,0,0,-1,1798,1604,2.31654,-5.62947
581,-580,1.60876,6.67664,0,0,0,0,0,0,0,-1,1805,1604,1.60873,-6.67667
588,-580,1.38684,7.14441,0,0,0,0,0,0,0,-1,1812,1604,1.38689,-7.14443
595,-580,0,0,0,0,0,0,0,0,0,-1,1819,1604,0,0
602,-580,0,0,0,0,0,0,0,0,0,-1,1826,1604,0,0
609,-580,0,0,0,0,0,0,0,0,0,-1,1833,1604,0,0
616,-580,0,0,0,0,0,0,0,0,0,-1,1840,1604,0,0
623,-580,0,0,0,0,0,0,0,0,0,-1,1847,1604,0,0
630,-580,0,0,0,0,0,0,0,0,0,-1,1854,1604,0,0
637,-580,0,0,0,0,0,0,0,0,0,-1,1861,1604,0,0
644,-580,0,0,0,0,0,0,0,0,0,-1,1868,1604,0,0
651,-580,0,0,0,0,0,0,0,0,0,-1,1875,1604,0,0
658,-580,0,0,0,0,0,0,0,0,0,-1,1882,1604,0,0
665,-580,0,0,0,0,0,0,0,0,0,-1,1889,1604,0,0
672,-580,0,0,0,0,0,0,0,0,0,-1,1896,1604,0,0
679,-580,0,0,0,0,0,0,0,0,0,-1,1903,1604,0,0
686,-580,0,0,0,0,0,0,0,0,0,-1,1910,1604,0,0
693,-580,0,0,0,0,0,0,0,0,0,-1,1917,1604,0,0
700,-580,0,0,0,0,0,0,0,0,0,-1,1924,1604,0,0
707,-580,0,0,0,0,0,0,0,0,0,-1,1931,1604,0,0
714,-580,0,0,0,0,0,0,0,0,0,-1,1938,1604,0,0
721,-580,0,0,0,0,0,0,0,0,0,-1,1945,1604,0,0
728,-580,0,0,0,0,0,0,0,0,0,-1,1952,1604,0,0
735,-580,0,0,0,0,0,0,0,0,0,-1,1959,1604,0,0
742,-580,0,0,0,0,0,0,0,0,0,-1,1966,1604,0,0
749,-580,0,0,0,0,0,0,0,0,0,-1,1973,1604,0,0
756,-580,0,0,0,0,0,0,0,0,0,-1,1980,1604,0,0
763,-580,0,0,0,0,0,0,0,0,0,-1,1987,1604,0,0
770,-580,0,0,0,0,0,0,0,0,0,-1,1994,1604,0,0
777,-580,0,0,0,0,0,0,0,0,0,-1,2001,1604,0,0
784,-580,0,0,0,0,0,0,0,0,0,-1,2008,1604,0,0
791,-580,0,0,0,0,0,0,0,0,0,-1,2015,1604,0,0
798,-580,0,0,0,0,0,0,0,0,0,-1,2022,1604,0,0
805,-580,0,0,0,0,0,0,0,0,0,-1,2029,1604,0,0
812,-580,0,0,0,0,0,0,0,0,0,-1,2036,1604,0,0
-700,-587,0,0,0,0,0,0,0,0,0,-1,524,1611,0,0
-693,-587,0,0,0,0,0,0,0,0,0,-1,531,1611,0,0
-686,-587,0,0,0,0,0,0,0,0,0,-1,538,1611,0,0
-679,-587,0,0,0,0,0,0,0,0,0,-1,545,1611,0,0
-672,-587,0,0,0,0,0,0,0,0,0,-1,552,1611,0,0
-665,-587,0,0,0,0,0,0,0,0,0,-1,559,1611,0,0
-658,-587,0,0,0,0,0,0,0,0,0,-1,566,1611,0,0
-651,-587,0,0,0,0,0,0,0,0,0,-1,573,1611,0,0
-644,-587,0,0,0,0,0,0,0,0,0,-1,580,1611,0,0
-637,-587,0,0,0,0,0,0,0,0,0,-1,587,1611,0,0
-630,-587,0,0,0,0,0,0,0,0,0,-1,594,1611,0,0
-623,-587,0,0,0,0,0,0,0,0,0,-1,601,1611,0,0
-616,-587,0,0,0,0,0,0,0,0,0,-1,608,1611,0,0
-609,-587,0,0,0,0,0,0,0,0,0,-1,615,1611,0,0
-602,-587,0,0,0,0,0,0,0,0,0,-1,622,1611,0,0
-595,-587,0,0,0,0,0,0,0,0,0,-1,629,1611,0,0
-588,-587,0,0,0,0,0,0,0,0,0,-1,636,1611,0,0
-581,-587,0,0,0,0,0,0,0,0,0,-1,643,1611,0,0
-574,-587,0,0,0,0,0,0,0,0,0,-1,650,1611,0,0
-567,-587,0,0,0,0,0,0,0,0,0,-1,657,1611,0,0
-560,-587,0,0,0,0,0,0,0,0,0,-1,664,1611,0,0
-553,-587,0,0,0,0,0,0,0,0,0,-1,671,1611,0,0
-546,-587,0,0,0,0,0,0,0,0,0,-1,678,1611,0,0
-539,-587,0,0,0,0,0,0,0,0,0,-1,685,1611,0,0
-532,-587,0,0,0,0,0,0,0,0,0,-1,692,1611,0,0
-525,-587,0,0,0,0,0,0,0,0,0,-1,699,1611,0,0
-518,-587,0,0,0,0,0,0,0,0,0,-1,706,1611,0,0
-511,-587,0,0,0,0,0,0,0,0,0,-1,713,1611,0,0
-504,-587,0,0,0,0,0,0,0,0,0,-1,720,1611,0,0
-497,-587,0,0,0,0,0,0,0,0,0,-1,727,1611,0,0
-490,-587,0,0,0,0,0,0,0,0,0,-1,734,1611,0,0
-483,-587,0,0,0,0,0,0,0,0,0,-1,741,1611,0,0
-476,-587,0,0,0,0,0,0,0,0,0,-1,748,1611,0,0
-469,-587,0,0,0,0,0,0,0,0,0,-1,755,1611,0,0
-462,-587,-0.714355,-0.418457,0,0,0,0,0,0,0,-1,762,1611,-0.714359,0.418483
-455,-587,-0.619812,-0.522461,0,0,0,0,0,0,0,-1,769,1611,-0.619802,0.522515
-448,-587,-0.461731,-0.686523,0,0,0,0,0,0,0,-1,776,1611,-0.461739,0.686559
-441,-587,-3.56555,2.72253,0,0,0,0,0,0,0,-1,783,1611,-3.56555,-2.72259
-434,-587,-1.77319,4.76318,0,0,0,0,0,0,0,-1,790,1611,-1.77318,-4.76323
-427,-587,0.0346069,6.92944,0,0,0,0,0,0,0,-1,797,1611,0.034587,-6.92941
-420,-587,-0.647156,10.1157,0,0,0,0,0,0,0,-1,804,1611,-0.647128,-10.1158
-413,-587,2.13971,10.3901,0,0,0,0,0,0,0,-1,811,1611,2.13971,-10.3902
-406,-587,1.92419,14.3723,0,0,0,0,0,0,0,-1,818,1611,1.92421,-14.3723
-399,-587,1.76416,14.8276,-0.00605062,-0.00156075,-0.000496602,-0.00150648,-0.00610489,-1.46194,0.00367226,0.0401779,825,1611,1.76419,-14.8276
-392,-587,1.75549,15.1097,-0.0053477,-0.00217845,-0.000348612,-0.00214055,-0.00538559,-1.46252,0.00313109,0.0319835,832,1611,1.75551,-15.1098
-385,-587,1.60919,15.5046,-0.00426053,-0.00184568,-2.12036e-05,-0.00184549,-0.00426071,-1.56202,0.00246724,0.0172375,839,1611,1.60918,-15.5046
-378,-587,1.59949,15.9065,-0.00316895,-0.00139236,0.000256802,-0.00135598,-0.00320533,1.43009,0.00185789,0.0127648,846,1611,1.59947,-15.9065
-371,-587,1.59247,16.2759,-0.00244539,-0.00111122,0.00017188,-0.00108943,-0.00246717,1.44471,0.00142766,0.0140217,853,1611,1.59244,-16.2758
-364,-587,1.59326,16.6183,-0.00173281,-0.000910294,0.000135865,-0.000888432,-0.00175467,1.41126,0.00101309,0.0177495,860,1611,1.59328,-16.6183
-357,-587,1.60333,16.9452,-0.0009425,-0.000808186,0.000117461,-0.000740039,-0.00101065,1.04509,0.000604115,0.0161826,867,1611,1.6033,-16.9452
-350,-587,1.57983,17.292,-0.000262766,-0.000387312,7.09992e-05,-0.000230599,-0.000419478,0.42539,0.000242585,0.00926732,874,1611,1.57986,-17.292
-343,-587,1.55969,17.6392,0.000163296,0.000130693,8.65655e-05,0.000235082,5.89073e-05,0.692329,0.000141241,0.0112302,881,1611,1.55972,-17.6391
-336,-587,1.54382,17.9437,0.000545496,0.000907738,0.000193203,0.000991442,0.000461792,1.16196,0.000572856,0.0115166,888,1611,1.54383,-17.9437
-329,-587,1.54456,18.2842,0.00077634,0.00164859,0.000208648,0.00169593,0.000729,1.34768,0.000982355,0.014881,895,1611,1.54455,-18.2841
-322,-587,1.56818,18.6262,0.00066388,0.00244139,0.000167971,0.00245712,0.000648146,1.4774,0.00147045,0.0186845,902,1611,1.56817,-18.6262
-315,-587,1.55585,18.9518,0.00051406,0.00326594,0.000191537,0.0032792,0.000500792,1.50164,0.0020398,0.0148184,909,1611,1.55583,-18.9518
-308,-587,1.56909,19.2836,0.000247231,0.00403562,0.000207009,0.00404689,0.000235953,1.51637,0.00262282,0.0142613,916,1611,1.5691,-19.2836
-301,-587,1.61731,19.6202,-0.000113993,0.00463036,0.000106199,0.00463274,-0.000116369,1.54843,0.003128,0.0137734,923,1611,1.61729,-19.6202
-294,-587,1.67755,19.9911,-0.00053443,0.00473824,-0.000180039,0.00474438,-0.00054057,-1.5367,0.00335765,0.0197003,930,1611,1.67755,-19.9911
-287,-587,1.62158,20.3832,-0.0009422,0.00460987,-0.000454766,0.00464687,-0.000979203,-1.48961,0.00347067,0.0324036,937,1611,1.62161,-20.3832
-280,-587,1.74609,20.8208,-0.00127112,0.00432296,-0.000859959,0.00445217,-0.00140033,-1.42166,0.00352876,0.044101,944,1611,1.74607,-20.8208
-273,-587,1.46838,20.8142,-0.00145391,0.00374215,-0.00142202,0.00410586,-0.00181762,-1.32039,0.00350395,0.0447384,951,1611,1.46838,-20.8142
-266,-587,1.66797,21.1656,0,0,0,0,0,0,0,-1,958,1611,1.66797,-21.1657
-259,-587,1.65869,20.3835,0,0,0,0,0,0,0,-1,965,1611,1.65868,-20.3835
-252,-587,1.30188,10.3103,0,0,0,0,0,0,0,-1,972,1611,1.30188,-10.3104
-245,-587,2.30078,21.8326,0,0,0,0,0,0,0,-1,979,1611,2.30077,-21.8326
-238,-587,2.87799,9.53821,0,0,0,0,0,0,0,-1,986,1611,2.87797,-9.53823
-231,-587,2.49548,9.14465,0,0,0,0,0,0,0,-1,993,1611,2.49551,-9.14468
-224,-587,-9.72528,9.21069,0,0,0,0,0,0,0,-1,1000,1611,-9.72529,-9.21072
-217,-587,-7.07495,10.7847,0,0,0,0,0,0,0,-1,1007,1611,-7.07495,-10.7847
-210,-587,-4.72308,12.5889,0,0,0,0,0,0,0,-1,1014,1611,-4.72307,-12.5888
-203,-587,-3.2583,13.7289,0,0,0,0,0,0,0,-1,1021,1611,-3.25828,-13.7289
-196,-587,-1.953,14.8145,0,0,0,0,0,0,0,-1,1028,1611,-1.95302,-14.8144
-189,-587,-3.04138,8.66638,0,0,0,0,0,0,0,-1,1035,1611,-3.04136,-8.66635
-182,-587,-3.97095,9.7146,0,0,0,0,0,0,0,-1,1042,1611,-3.97093,-9.71461
-175,-587,-4.80969,8.37878,0,0,0,0,0,0,0,-1,1049,1611,-4.80964,-8.37883
-168,-587,-5.91394,8.72546,0,0,0,0,0,0,0,-1,1056,1611,-5.91398,-8.72542
-161,-587,-7.06946,8.88501,0,0,0,0,0,0,0,-1,1063,1611,-7.06947,-8.885
-154,-587,-2.24731,6.56519,0,0,0,0,0,0,0,-1,1070,1611,-2.24728,-6.56517
-147,-587,0,0,0,0,0,0,0,0,0,-1,1077,1611,0,0
-140,-587,0,0,0,0,0,0,0,0,0,-1,1084,1611,0,0
-133,-587,0,0,0,0,0,0,0,0,0,-1,1091,1611,0,0
-126,-587,0,0,0,0,0,0,0,0,0,-1,1098,1611,0,0
-119,-587,0,0,0,0,0,0,0,0,0,-1,1105,1611,0,0
-112,-587,0,0,0,0,0,0,0,0,0,-1,1112,1611,0,0
-105,-587,0,0,0,0,0,0,0,0,0,-1,1119,1611,0,0
-98,-587,0,0,0,0,0,0,0,0,0,-1,1126,1611,0,0
-91,-587,0,0,0,0,0,0,0,0,0,-1,1133,1611,0,0
-84,-587,0,0,0,0,0,0,0,0,0,-1,1140,1611,0,0
-77,-587,0,0,0,0,0,0,0,0,0,-1,1147,1611,0,0
-70,-587,0,0,0,0,0,0,0,0,0,-1,1154,1611,0,0
-63,-587,0,0,0,0,0,0,0,0,0,-1,1161,1611,0,0
-56,-587,0,0,0,0,0,0,0,0,0,-1,1168,1611,0,0
-49,-587,0,0,0,0,0,0,0,0,0,-1,1175,1611,0,0
-42,-587,0,0,0,0,0,0,0,0,0,-1,1182,1611,0,0
-35,-587,0,0,0,0,0,0,0,0,0,-1,1189,1611,0,0
-28,-587,0,0,0,0,0,0,0,0,0,-1,1196,1611,0,0
-21,-587,0,0,0,0,0,0,0,0,0,-1,1203,1611,0,0
-14,-587,0,0,0,0,0,0,0,0,0,-1,1210,1611,0,0
-7,-587,0,0,0,0,0,0,0,0,0,-1,1217,1611,0,0
0,-587,0,0,0,0,0,0,0,0,0,-1,1224,1611,0,0
7,-587,0,0,0,0,0,0,0,0,0,-1,1231,1611,0,0
14,-587,0,0,0,0,0,0,0,0,0,-1,1238,1611,0,0
21,-587,0,0,0,0,0,0,0,0,0,-1,1245,1611,0,0
28,-587,0,0,0,0,0,0,0,0,0,-1,1252,1611,0,0
35,-587,0,0,0,0,0,0,0,0,0,-1,1259,1611,0,0
42,-587,0,0,0,0,0,0,0,0,0,-1,1266,1611,0,0
49,-587,0,0,0,0,0,0,0,0,0,-1,1273,1611,0,0
56,-587,0,0,0,0,0,0,0,0,0,-1,1280,1611,0,0
63,-587,0,0,0,0,0,0,0,0,0,-1,1287,1611,0,0
70,-587,0,0,0,0,0,0,0,0,0,-1,1294,1611,0,0
77,-587,0,0,0,0,0,0,0,0,0,-1,1301,1611,0,0
84,-587,0,0,0,0,0,0,0,0,0,-1,1308,1611,0,0
91,-587,0,0,0,0,0,0,0,0,0,-1,1315,1611,0,0
98,-587,0,0,0,0,0,0,0,0,0,-1,1322,1611,0,0
105,-587,0,0,0,0,0,0,0,0,0,-1,1329,1611,0,0
112,-587,0,0,0,0,0,0,0,0,0,-1,1336,1611,0,0
119,-587,0,0,0,0,0,0,0,0,0,-1,1343,1611,0,0
126,-587,0,0,0,0,0,0,0,0,0,-1,1350,1611,0,0
133,-587,0,0,0,0,0,0,0,0,0,-1,1357,1611,0,0
140,-587,0,0,0,0,0,0,0,0,0,-1,1364,1611,0,0
147,-587,0,0,0,0,0,0,0,0,0,-1,1371,1611,0,0
154,-587,0,0,0,0,0,0,0,0,0,-1,1378,1611,0,0
161,-587,0,0,0,0,0,0,0,0,0,-1,1385,1611,0,0
168,-587,0,0,0,0,0,0,0,0,0,-1,1392,1611,0,0
175,-587,0,0,0,0,0,0,0,0,0,-1,1399,1611,0,0
182,-587,0,0,0,0,0,0,0,0,0,-1,1406,1611,0,0
189,-587,0,0,0,0,0,0,0,0,0,-1,1413,1611,0,0
196,-587,0,0,0,0,0,0,0,0,0,-1,1420,1611,0,0
203,-587,0,0,0,0,0,0,0,0,0,-1,1427,1611,0,0
210,-587,0,0,0,0,0,0,0,0,0,-1,1434,1611,0,0
217,-587,0,0,0,0,0,0,0,0,0,-1,1441,1611,0,0
224,-587,0,0,0,0,0,0,0,0,0,-1,1448,1611,0,0
231,-587,0,0,0,0,0,0,0,0,0,-1,1455,1611,0,0
238,-587,0,0,0,0,0,0,0,0,0,-1,1462,1611,0,0
245,-587,0,0,0,0,0,0,0,0,0,-1,1469,1611,0,0
252,-587,0,0,0,0,0,0,0,0,0,-1,1476,1611,0,0
259,-587,0,0,0,0,0,0,0,0,0,-1,1483,1611,0,0
266,-587,0,0,0,0,0,0,0,0,0,-1,1490,1611,0,0
273,-587,10.2936,6.35083,0,0,0,0,0,0,0,-1,1497,1611,10.2936,-6.35087
280,-587,2.09204,1.1217,0,0,0,0,0,0,0,-1,1504,1611,2.092,-1.12176
287,-587,3.2865,0.671509,0,0,0,0,0,0,0,-1,1511,1611,3.28656,-0.671538
294,-587,4.24646,1.58765,0,0,0,0,0,0,0,-1,1518,1611,4.24648,-1.58761
301,-587,7.60474,8.37085,0,0,0,0,0,0,0,-1,1525,1611,7.60478,-8.37084
308,-587,5.99316,10.2291,0,0,0,0,0,0,0,-1,1532,1611,5.99315,-10.2291
315,-587,4.34558,12.3289,0,0,0,0,0,0,0,-1,1539,1611,4.34556,-12.3288
322,-587,10.4526,6.38245,0,0,0,0,0,0,0,-1,1546,1611,10.4526,-6.38245
329,-587,10.7738,8.42444,0,0,0,0,0,0,0,-1,1553,1611,10.7738,-8.42438
336,-587,7.5531,5.96619,0,0,0,0,0,0,0,-1,1560,1611,7.55311,-5.96617
343,-587,9.57495,4.38391,0,0,0,0,0,0,0,-1,1567,1611,9.57494,-4.38397
350,-587,9.50378,3.45093,0,0,0,0,0,0,0,-1,1574,1611,9.50376,-3.4509
357,-587,9.40027,2.50806,0,0,0,0,0,0,0,-1,1581,1611,9.40022,-2.50803
364,-587,9.26477,1.34131,0,0,0,0,0,0,0,-1,1588,1611,9.26479,-1.34126
371,-587,6.98926,7.87561,0,0,0,0,0,0,0,-1,1595,1611,6.98928,-7.87564
378,-587,9.25146,13.8358,0,0,0,0,0,0,0,-1,1602,1611,9.2515,-13.8359
385,-587,7.17224,7.03772,0,0,0,0,0,0,0,-1,1609,1611,7.1722,-7.03778
392,-587,5.3916,8.21436,0,0,0,0,0,0,0,-1,1616,1611,5.39157,-8.21437
399,-587,10.4867,21.8684,0,0,0,0,0,0,0,-1,1623,1611,10.4867,-21.8685
406,-587,11.1422,21.4194,-0.00540918,-0.000919205,0.0122993,0.00933831,-0.0156667,0.875669,0.0145899,0.0475516,1630,1611,11.1422,-21.4194
413,-587,11.0518,21.104,-0.00653609,-0.00196018,0.0123063,0.00826901,-0.0167653,0.877308,0.0147284,0.0361985,1637,1611,11.0518,-21.104
420,-587,10.9049,21.0837,-0.00676897,-0.00168986,0.0112837,0.00733655,-0.0157954,0.896086,0.0136496,0.032496,1644,1611,10.9049,-21.0837
427,-587,10.8586,20.8177,-0.00645911,-0.00134533,0.0100412,0.0064594,-0.0142638,0.910069,0.0122441,0.0254426,1651,1611,10.8586,-20.8178
434,-587,10.7725,20.4647,-0.00585211,-0.00102007,0.00846302,0.00536503,-0.0122372,0.92444,0.0104176,0.0162171,1658,1611,10.7724,-20.4648
441,-587,10.7798,20.1448,-0.00494607,-0.000386941,0.00668112,0.0043928,-0.00972581,0.949803,0.00834297,0.0186469,1665,1611,10.7798,-20.1448
448,-587,10.8046,19.8959,-0.0038912,0.000218064,0.00499346,0.00356307,-0.00723621,0.980573,0.00635405,0.0152777,1672,1611,10.8046,-19.8958
455,-587,10.8082,19.6079,-0.0030292,0.000621987,0.00354908,0.00278748,-0.0051947,1.02294,0.00467785,0.0137675,1679,1611,10.8082,-19.6079
462,-587,10.7772,19.2897,-0.00208187,0.00106614,0.00207992,0.0021005,-0.00311623,1.10931,0.00303085,0.0174736,1686,1611,10.7772,-19.2896
469,-587,10.7628,18.9922,-0.00114952,0.00134458,0.00086428,0.0016148,-0.00141975,1.26777,0.0017532,0.0159989,1693,1611,10.7628,-18.9922
476,-587,10.7711,18.6835,-0.00038557,0.00152192,-0.000295953,0.00156678,-0.000430433,-1.42035,0.00121371,0.0109848,1700,1611,10.7712,-18.6834
483,-587,10.7604,18.3652,0.000123844,0.0014203,-0.000942712,0.00191615,-0.000372001,-1.08658,0.0014178,0.0135359,1707,1611,10.7604,-18.3652
490,-587,10.7499,18.0413,0.000376348,0.00121088,-0.00123266,0.00209499,-0.000507758,-0.948598,0.00159311,0.0159874,1714,1611,10.7499,-18.0413
497,-587,10.7466,17.7273,0.000263747,0.00100951,-0.00147664,0.00215962,-0.000886358,-0.909074,0.00180909,0.0129606,1721,1611,10.7466,-17.7272
504,-587,10.7238,17.4214,-0.000377699,0.000871834,-0.00120905,0.001608,-0.00111386,-1.02387,0.00158008,0.0121681,1728,1611,10.7237,-17.4214
511,-587,10.7299,17.1039,-0.00120728,0.000297221,-0.000659145,0.000545147,-0.0014552,-1.21103,0.00119408,0.0127887,1735,1611,10.7299,-17.1039
518,-587,10.7551,16.775,-0.00229175,-0.000134915,-3.37643e-05,-0.000134387,-0.00229228,-1.55515,0.00148542,0.0122919,1742,1611,10.7551,-16.7751
525,-587,10.7539,16.4546,-0.00372744,-0.000671365,0.00095977,-0.000394948,-0.00400386,1.29038,0.00254781,0.0169124,1749,1611,10.7539,-16.4546
532,-587,10.7502,16.1414,-0.00559742,-0.0015059,0.00257737,-0.000261068,-0.00684225,1.12085,0.00447702,0.0332897,1756,1611,10.7503,-16.1413
539,-587,10.7671,15.7837,0,0,0,0,0,0,0,-1,1763,1611,10.7671,-15.7836
546,-587,9.57629,12.9152,0,0,0,0,0,0,0,-1,1770,1611,9.57624,-12.9152
553,-587,7.5813,8.45068,0,0,0,0,0,0,0,-1,1777,1611,7.58125,-8.45068
560,-587,4.21179,5.23547,0,0,0,0,0,0,0,-1,1784,1611,4.21185,-5.23553
567,-587,4.03711,5.46387,0,0,0,0,0,0,0,-1,1791,1611,4.03715,-5.46382
574,-587,3.83142,5.68884,0,0,0,0,0,0,0,-1,1798,1611,3.83141,-5.68881
581,-587,3.47168,6.00977,0,0,0,0,0,0,0,-1,1805,1611,3.47167,-6.00983
588,-587,0,0,0,0,0,0,0,0,0,-1,1812,1611,0,0
595,-587,0,0,0,0,0,0,0,0,0,-1,1819,1611,0,0
602,-587,0,0,0,0,0,0,0,0,0,-1,1826,1611,0,0
609,-587,0,0,0,0,0,0,0,0,0,-1,1833,1611,0,0
616,-587,0,0,0,0,0,0,0,0,0,-1,1840,1611,0,0
623,-587,0,0,0,0,0,0,0,0,0,-1,1847,1611,0,0
630,-587,0,0,0,0,0,0,0,0,0,-1,1854,1611,0,0
637,-587,0,0,0,0,0,0,0,0,0,-1,1861,1611,0,0
644,-587,0,0,0,0,0,0,0,0,0,-1,1868,1611,0,0
651,-587,0,0,0,0,0,0,0,0,0,-1,1875,1611,0,0
658,-587,0,0,0,0,0,0,0,0,0,-1,1882,1611,0,0
665,-587,0,0,0,0,0,0,0,0,0,-1,1889,1611,0,0
672,-587,0,0,0,0,0,0,0,0,0,-1,1896,1611,0,0
679,-587,0,0,0,0,0,0,0,0,0,-1,1903,1611,0,0
686,-587,0,0,0,0,0,0,0,0,0,-1,1910,1611,0,0
693,-587,0,0,0,0,0,0,0,0,0,-1,1917,1611,0,0
700,-587,0,0,0,0,0,0,0,0,0,-1,1924,1611,0,0
707,-587,0,0,0,0,0,0,0,0,0,-1,1931,1611,0,0
714,-587,0,0,0,0,0,0,0,0,0,-1,1938,1611,0,0
721,-587,0,0,0,0,0,0,0,0,0,-1,1945,1611,0,0
728,-587,0,0,0,0,0,0,0,0,0,-1,1952,1611,0,0
735,-587,0,0,0,0,0,0,0,0,0,-1,1959,1611,0,0
742,-587,0,0,0,0,0,0,0,0,0,-1,1966,1611,0,0
749,-587,0,0,0,0,0,0,0,0,0,-1,1973,1611,0,0
756,-587,0,0,0,0,0,0,0,0,0,-1,1980,1611,0,0
763,-587,0,0,0,0,0,0,0,0,0,-1,1987,1611,0,0
770,-587,0,0,0,0,0,0,0,0,0,-1,1994,1611,0,0
777,-587,0,0,0,0,0,0,0,0,0,-1,2001,1611,0,0
784,-587,0,0,0,0,0,0,0,0,0,-1,2008,1611,0,0
791,-587,0,0,0,0,0,0,0,0,0,-1,2015,1611,0,0
798,-587,0,0,0,0,0,0,0,0,0,-1,2022,1611,0,0
805,-587,0,0,0,0,0,0,0,0,0,-1,2029,1611,0,0
812,-587,0,0,0,0,0,0,0,0,0,-1,2036,1611,0,0
-700,-594,0,0,0,0,0,0,0,0,0,-1,524,1618,0,0
-693,-594,0,0,0,0,0,0,0,0,0,-1,531,1618,0,0
-686,-594,0,0,0,0,0,0,0,0,0,-1,538,1618,0,0
-679,-594,0,0,0,0,0,0,0,0,0,-1,545,1618,0,0
-672,-594,0,0,0,0,0,0,0,0,0,-1,552,1618,0,0
-665,-594,0,0,0,0,0,0,0,0,0,-1,559,1618,0,0
-658,-594,0,0,0,0,0,0,0,0,0,-1,566,1618,0,0
-651,-594,0,0,0,0,0,0,0,0,0,-1,573,1618,0,0
-644,-594,0,0,0,0,0,0,0,0,0,-1,580,1618,0,0
-637,-594,0,0,0,0,0,0,0,0,0,-1,587,1618,0,0
-630,-594,0,0,0,0,0,0,0,0,0,-1,594,1618,0,0
-623,-594,0,0,0,0,0,0,0,0,0,-1,601,1618,0,0
-616,-594,0,0,0,0,0,0,0,0,0,-1,608,1618,0,0
-609,-594,0,0,0,0,0,0,0,0,0,-1,615,1618,0,0
-602,-594,0,0,0,0,0,0,0,0,0,-1,622,1618,0,0
-595,-594,0,0,0,0,0,0,0,0,0,-1,629,1618,0,0
-588,-594,0,0,0,0,0,0,0,0,0,-1,636,1618,0,0
-581,-594,0,0,0,0,0,0,0,0,0,-1,643,1618,0,0
-574,-594,0,0,0,0,0,0,0,0,0,-1,650,1618,0,0
-567,-594,0,0,0,0,0,0,0,0,0,-1,657,1618,0,0
-560,-594,0,0,0,0,0,0,0,0,0,-1,664,1618,0,0
-553,-594,0,0,0,0,0,0,0,0,0,-1,671,1618,0,0
-546,-594,0,0,0,0,0,0,0,0,0,-1,678,1618,0,0
-539,-594,0,0,0,0,0,0,0,0,0,-1,685,1618,0,0
-532,-594,0,0,0,0,0,0,0,0,0,-1,692,1618,0,0
-525,-594,0,0,0,0,0,0,0,0,0,-1,699,1618,0,0
-518,-594,0,0,0,0,0,0,0,0,0,-1,706,1618,0,0
-511,-594,0,0,0,0,0,0,0,0,0,-1,713,1618,0,0
-504,-594,0,0,0,0,0,0,0,0,0,-1,720,1618,0,0
-497,-594,0,0,0,0,0,0,0,0,0,-1,727,1618,0,0
-490,-594,0,0,0,0,0,0,0,0,0,-1,734,1618,0,0
-483,-594,0,0,0,0,0,0,0,0,0,-1,741,1618,0,0
-476,-594,0,0,0,0,0,0,0,0,0,-1,748,1618,0,0
-469,-594,0,0,0,0,0,0,0,0,0,-1,755,1618,0,0
-462,-594,0,0,0,0,0,0,0,0,0,-1,762,1618,0,0
-455,-594,-0.509216,-1.58411,0,0,0,0,0,0,0,-1,769,1618,-0.509245,1.58415
-448,-594,-7.71887,-0.0559082,0,0,0,0,0,0,0,-1,776,1618,-7.71885,0.055939
-441,-594,-5.78473,1.18298,0,0,0,0,0,0,0,-1,783,1618,-5.78474,-1.18295
-434,-594,-3.93628,3.06213,0,0,0,0,0,0,0,-1,790,1618,-3.93631,-3.06208
-427,-594,-3.97693,6.77759,0,0,0,0,0,0,0,-1,797,1618,-3.97695,-6.77764
-420,-594,-2.53046,7.71606,0,0,0,0,0,0,0,-1,804,1618,-2.53047,-7.71609
-413,-594,-0.860413,8.00391,0,0,0,0,0,0,0,-1,811,1618,-0.860423,-8.00389
-406,-594,2.51178,12.3219,0,0,0,0,0,0,0,-1,818,1618,2.5118,-12.3219
-399,-594,2.17365,14.8812,0,0,0,0,0,0,0,-1,825,1618,2.17367,-14.8812
-392,-594,2.26892,15.0957,-0.0070515,-0.00268657,-0.000492468,-0.0026317,-0.00710637,-1.45983,0.0041486,0.0466184,832,1618,2.26894,-15.0958
-385,-594,2.04968,15.6044,-0.00553863,-0.00238299,-0.000124163,-0.00237812,-0.00554351,-1.53153,0.00321129,0.0284749,839,1618,2.04966,-15.6044
-378,-594,1.93396,15.9093,-0.00421001,-0.00190871,0.000183206,-0.00189422,-0.0042245,1.49185,0.00244335,0.0126105,846,1618,1.93396,-15.9093
-371,-594,1.9483,16.2693,-0.00329484,-0.00167645,0.000170578,-0.00165866,-0.00331262,1.46692,0.00191254,0.0112622,853,1618,1.94828,-16.2693
-364,-594,1.94366,16.619,-0.00242344,-0.00152883,0.000233304,-0.00147164,-0.00248063,1.33042,0.00144047,0.0103519,860,1618,1.94366,-16.619
-357,-594,1.94537,16.9634,-0.001498,-0.00142081,0.000290682,-0.00116617,-0.00175264,0.851394,0.00103017,0.0105048,867,1618,1.94538,-16.9634
-350,-594,1.90717,17.3188,-0.000697684,-0.00110377,0.000321486,-0.000520491,-0.00128096,0.503741,0.000743878,0.0145219,874,1618,1.90715,-17.3188
-343,-594,1.88019,17.6929,-0.000170185,-0.000619511,0.000419282,8.0831e-05,-0.000870527,0.53945,0.000609085,0.0157456,881,1618,1.88021,-17.6929
-336,-594,1.86017,17.9785,0.000311035,5.91895e-05,0.000571005,0.000769837,-0.000399612,0.676871,0.000686368,0.0135646,888,1618,1.86017,-17.9785
-329,-594,1.86981,18.318,0.000644337,0.000776388,0.000634942,0.00134873,7.19969e-05,0.837205,0.00087614,0.0141107,895,1618,1.86983,-18.318
-322,-594,1.90088,18.6704,0.000641567,0.00153074,0.000621923,0.00185064,0.000321663,1.09571,0.00114175,0.0172978,902,1618,1.90087,-18.6704
-315,-594,1.90106,18.9806,0.00058525,0.00226426,0.000627352,0.00247278,0.000376739,1.24992,0.00153839,0.0168262,909,1618,1.90108,-18.9806
-308,-594,1.9162,19.2892,0.000437962,0.0029141,0.000581415,0.00304383,0.000308238,1.35127,0.00193467,0.0142756,916,1618,1.91621,-19.2891
-301,-594,1.89673,19.5796,0.000226564,0.00340745,0.000443501,0.00346813,0.000165886,1.43482,0.00225882,0.0116735,923,1618,1.89674,-19.5795
-294,-594,1.91803,19.8988,4.44178e-06,0.00344613,0.000129804,0.00345102,-4.46918e-07,1.53315,0.00230083,0.0117177,930,1618,1.91802,-19.8988
-287,-594,1.89459,20.2068,-0.000128544,0.00331165,-0.000211515,0.0033246,-0.0001415,-1.50962,0.00226504,0.0179912,937,1618,1.89457,-20.2068
-280,-594,1.98584,20.5334,-0.000160012,0.00296658,-0.000635429,0.00309078,-0.000284219,-1.37776,0.0021615,0.0223985,944,1618,1.98581,-20.5335
-273,-594,1.97784,20.8477,-0.00012526,0.00229669,-0.00116824,0.00276835,-0.000596917,-1.18708,0.00207338,0.0310176,951,1618,1.97787,-20.8477
-266,-594,1.93854,21.0773,3.882e-05,0.000983521,-0.00180048,0.00237258,-0.00135024,-0.91368,0.00217622,0.0409605,958,1618,1.93852,-21.0773
-259,-594,2.16565,21.3389,0,0,0,0,0,0,0,-1,965,1618,2.16566,-21.3389
-252,-594,2.20966,21.5875,0,0,0,0,0,0,0,-1,972,1618,2.20969,-21.5875
-245,-594,2.24872,21.8573,0,0,0,0,0,0,0,-1,979,1618,2.24872,-21.8574
-238,-594,2.0072,21.9227,0,0,0,0,0,0,0,-1,986,1618,2.00718,-21.9227
-231,-594,1.93774,9.35388,0,0,0,0,0,0,0,-1,993,1618,1.93776,-9.35393
-224,-594,1.81824,8.62744,0,0,0,0,0,0,0,-1,1000,1618,1.81822,-8.62745
-217,-594,-8.24066,12.0752,0,0,0,0,0,0,0,-1,1007,1618,-8.24068,-12.0751
-210,-594,-5.61438,14.2119,0,0,0,0,0,0,0,-1,1014,1618,-5.6144,-14.212
-203,-594,-3.94507,15.5768,0,0,0,0,0,0,0,-1,1021,1618,-3.94506,-15.5768
-196,-594,2.78613,10.5815,0,0,0,0,0,0,0,-1,1028,1618,2.78612,-10.5815
-189,-594,2.60913,9.48865,0,0,0,0,0,0,0,-1,1035,1618,2.6091,-9.48871
-182,-594,1.2395,9.38806,0,0,0,0,0,0,0,-1,1042,1618,1.23951,-9.38804
-175,-594,0.234863,8.73792,0,0,0,0,0,0,0,-1,1049,1618,0.234812,-8.73786
-168,-594,-0.495483,8.46289,0,0,0,0,0,0,0,-1,1056,1618,-0.495513,-8.46285
-161,-594,-1.39734,8.28699,0,0,0,0,0,0,0,-1,1063,1618,-1.39729,-8.28699
-154,-594,-0.000854492,7.68445,0,0,0,0,0,0,0,-1,1070,1618,-0.000805755,-7.6845
-147,-594,0.348267,9.3385,0,0,0,0,0,0,0,-1,1077,1618,0.348237,-9.33849
-140,-594,0.675171,11.5884,0,0,0,0,0,0,0,-1,1084,1618,0.675204,-11.5884
-133,-594,0,0,0,0,0,0,0,0,0,-1,1091,1618,0,0
-126,-594,0,0,0,0,0,0,0,0,0,-1,1098,1618,0,0
-119,-594,0,0,0,0,0,0,0,0,0,-1,1105,1618,0,0
-112,-594,0,0,0,0,0,0,0,0,0,-1,1112,1618,0,0
-105,-594,0,0,0,0,0,0,0,0,0,-1,1119,1618,0,0
-98,-594,0,0,0,0,0,0,0,0,0,-1,1126,1618,0,0
-91,-594,0,0,0,0,0,0,0,0,0,-1,1133,1618,0,0
-84,-594,0,0,0,0,0,0,0,0,0,-1,1140,1618,0,0
-77,-594,0,0,0,0,0,0,0,0,0,-1,1147,1618,0,0
-70,-594,0,0,0,0,0,0,0,0,0,-1,1154,1618,0,0
-63,-594,0,0,0,0,0,0,0,0,0,-1,1161,1618,0,0
-56,-594,0,0,0,0,0,0,0,0,0,-1,1168,1618,0,0
-49,-594,0,0,0,0,0,0,0,0,0,-1,1175,1618,0,0
-42,-594,0,0,0,0,0,0,0,0,0,-1,1182,1618,0,0
-35,-594,0,0,0,0,0,0,0,0,0,-1,1189,1618,0,0
-28,-594,0,0,0,0,0,0,0,0,0,-1,1196,1618,0,0
-21,-594,0,0,0,0,0,0,0,0,0,-1,1203,1618,0,0
-14,-594,0,0,0,0,0,0,0,0,0,-1,1210,1618,0,0
-7,-594,0,0,0,0,0,0,0,0,0,-1,1217,1618,0,0
0,-594,0,0,0,0,0,0,0,0,0,-1,1224,1618,0,0
7,-594,0,0,0,0,0,0,0,0,0,-1,1231,1618,0,0
14,-594,0,0,0,0,0,0,0,0,0,-1,1238,1618,0,0
21,-594,0,0,0,0,0,0,0,0,0,-1,1245,1618,0,0
28,-594,0,0,0,0,0,0,0,0,0,-1,1252,1618,0,0
35,-594,0,0,0,0,0,0,0,0,0,-1,1259,1618,0,0
42,-594,0,0,0,0,0,0,0,0,0,-1,1266,1618,0,0
49,-594,0,0,0,0,0,0,0,0,0,-1,1273,1618,0,0
56,-594,0,0,0,0,0,0,0,0,0,-1,1280,1618,0,0
63,-594,0,0,0,0,0,0,0,0,0,-1,1287,1618,0,0
70,-594,0,0,0,0,0,0,0,0,0,-1,1294,1618,0,0
77,-594,0,0,0,0,0,0,0,0,0,-1,1301,1618,0,0
84,-594,0,0,0,0,0,0,0,0,0,-1,1308,1618,0,0
91,-594,0,0,0,0,0,0,0,0,0,-1,1315,1618,0,0
98,-594,0,0,0,0,0,0,0,0,0,-1,1322,1618,0,0
105,-594,0,0,0,0,0,0,0,0,0,-1,1329,1618,0,0
112,-594,0,0,0,0,0,0,0,0,0,-1,1336,1618,0,0
119,-594,0,0,0,0,0,0,0,0,0,-1,1343,1618,0,0
126,-594,0,0,0,0,0,0,0,0,0,-1,1350,1618,0,0
133,-594,0,0,0,0,0,0,0,0,0,-1,1357,1618,0,0
140,-594,0,0,0,0,0,0,0,0,0,-1,1364,1618,0,0
147,-594,0,0,0,0,0,0,0,0,0,-1,1371,1618,0,0
154,-594,0,0,0,0,0,0,0,0,0,-1,1378,1618,0,0
161,-594,0,0,0,0,0,0,0,0,0,-1,1385,1618,0,0
168,-594,0,0,0,0,0,0,0,0,0,-1,1392,1618,0,0
175,-594,0,0,0,0,0,0,0,0,0,-1,1399,1618,0,0
182,-594,0,0,0,0,0,0,0,0,0,-1,1406,1618,0,0
189,-594,0,0,0,0,0,0,0,0,0,-1,1413,1618,0,0
196,-594,0,0,0,0,0,0,0,0,0,-1,1420,1618,0,0
203,-594,0,0,0,0,0,0,0,0,0,-1,1427,1618,0,0
210,-594,0,0,0,0,0,0,0,0,0,-1,1434,1618,0,0
217,-594,0,0,0,0,0,0,0,0,0,-1,1441,1618,0,0
224,-594,0,0,0,0,0,0,0,0,0,-1,1448,1618,0,0
231,-594,0,0,0,0,0,0,0,0,0,-1,1455,1618,0,0
238,-594,0,0,0,0,0,0,0,0,0,-1,1462,1618,0,0
245,-594,0,0,0,0,0,0,0,0,0,-1,1469,1618,0,0
252,-594,3.03674,1.20996,0,0,0,0,0,0,0,-1,1476,1618,3.0368,-1.20999
259,-594,4.79834,1.53113,0,0,0,0,0,0,0,-1,1483,1618,4.79837,-1.53118
266,-594,3.71606,2.68152,0,0,0,0,0,0,0,-1,1490,1618,3.71609,-2.68149
273,-594,9.7655,6.33557,0,0,0,0,0,0,0,-1,1497,1618,9.76555,-6.33554
280,-594,3.13281,0.911255,0,0,0,0,0,0,0,-1,1504,1618,3.13277,-0.911207
287,-594,4.42749,1.51563,0,0,0,0,0,0,0,-1,1511,1618,4.42747,-1.51564
294,-594,5.36475,3.34937,0,0,0,0,0,0,0,-1,1518,1618,5.36475,-3.3494
301,-594,7.97144,9.04333,0,0,0,0,0,0,0,-1,1525,1618,7.9714,-9.04328
308,-594,6.30347,10.4633,0,0,0,0,0,0,0,-1,1532,1618,6.30351,-10.4633
315,-594,4.62012,11.934,0,0,0,0,0,0,0,-1,1539,1618,4.62006,-11.934
322,-594,2.91528,13.3134,0,0,0,0,0,0,0,-1,1546,1618,2.91523,-13.3133
329,-594,4.19861,9.77258,0,0,0,0,0,0,0,-1,1553,1618,4.19865,-9.77264
336,-594,10.1353,4.66528,0,0,0,0,0,0,0,-1,1560,1618,10.1353,-4.66533
343,-594,10.5729,3.71228,0,0,0,0,0,0,0,-1,1567,1618,10.5729,-3.71232
350,-594,10.219,2.98792,0,0,0,0,0,0,0,-1,1574,1618,10.219,-2.98797
357,-594,9.83154,1.96326,0,0,0,0,0,0,0,-1,1581,1618,9.8315,-1.96321
364,-594,9.74939,0.700562,0,0,0,0,0,0,0,-1,1588,1618,9.74939,-0.700615
371,-594,8.54297,14.3988,0,0,0,0,0,0,0,-1,1595,1618,8.54296,-14.3989
378,-594,8.9137,16.3073,0,0,0,0,0,0,0,-1,1602,1618,8.91369,-16.3072
385,-594,9.58142,21.5156,0,0,0,0,0,0,0,-1,1609,1618,9.58145,-21.5157
392,-594,10.0652,22.6002,0,0,0,0,0,0,0,-1,1616,1618,10.0651,-22.6002
399,-594,10.3103,22.0015,-0.000636444,0.00338171,0.00657069,0.00824361,-0.00549835,0.933766,0.00798652,0.0444512,1623,1618,10.3103,-22.0015
406,-594,10.5227,21.5717,-0.00234147,0.00117368,0.00774155,0.00735466,-0.00852245,0.897022,0.00917492,0.0296234,1630,1618,10.5227,-21.5717
413,-594,10.5265,21.3435,-0.00349341,-0.000330766,0.00809179,0.00633276,-0.0101569,0.881894,0.00960529,0.0207942,1637,1618,10.5265,-21.3435
420,-594,10.5293,21.0361,-0.00405692,-0.00054178,0.00766018,0.00555988,-0.0101586,0.898167,0.00920361,0.0164369,1644,1618,10.5293,-21.0361
427,-594,10.5023,20.7804,-0.00420814,-0.000666476,0.00708893,0.00486946,-0.00974407,0.907794,0.00859217,0.0117295,1651,1618,10.5023,-20.7804
434,-594,10.4653,20.4901,-0.0039103,-0.000543353,0.00606385,0.00406638,-0.00852002,0.9208,0.00741685,0.0158958,1658,1618,10.4653,-20.4901
441,-594,10.4688,20.1919,-0.00329194,-0.000120256,0.00475672,0.00330801,-0.0067202,0.946299,0.00590046,0.0160165,1665,1618,10.4687,-20.1919
448,-594,10.5033,19.9043,-0.0025266,0.000299499,0.00347932,0.00264176,-0.00486886,0.978287,0.00439935,0.0160882,1672,1618,10.5033,-19.9043
455,-594,10.4717,19.6034,-0.00185257,0.000570567,0.00234777,0.00200095,-0.00328295,1.0236,0.00308045,0.0120363,1679,1618,10.4717,-19.6034
462,-594,10.4805,19.2849,-0.00103716,0.00088488,0.00113052,0.00140765,-0.00155993,1.13766,0.00171409,0.013021,1686,1618,10.4804,-19.2849
469,-594,10.4628,19.0074,-0.000199051,0.00107497,8.89842e-05,0.00108116,-0.000205236,1.5014,0.000798031,0.0114652,1693,1618,10.4627,-19.0074
476,-594,10.4604,18.7051,0.000485786,0.00116746,-0.000905902,0.00179452,-0.000141276,-0.965327,0.00124611,0.0122254,1700,1618,10.4604,-18.705
483,-594,10.4622,18.3856,0.000894951,0.00110936,-0.00148813,0.00249414,-0.000489831,-0.821355,0.00184781,0.0152906,1707,1618,10.4621,-18.3856
490,-594,10.4509,18.0564,0.00107517,0.000933642,-0.00180747,0.00281326,-0.000804445,-0.765832,0.00219339,0.013747,1714,1618,10.4509,-18.0564
497,-594,10.4426,17.7384,0.000879283,0.000802412,-0.00206088,0.00290209,-0.00122039,-0.776074,0.00244524,0.0104964,1721,1618,10.4426,-17.7384
504,-594,10.4419,17.4227,6.29914e-05,0.000708453,-0.00176672,0.00218168,-0.00141024,-0.875738,0.00208968,0.010253,1728,1618,10.4419,-17.4228
511,-594,10.4532,17.0983,-0.000922631,0.000212664,-0.00125658,0.00102386,-0.00173383,-0.997548,0.00160964,0.0125105,1735,1618,10.4532,-17.0983
518,-594,10.444,16.762,-0.00224946,-0.000100749,-0.000705511,0.000110191,-0.0024604,-1.28027,0.00167821,0.0166464,1742,1618,10.4439,-16.7619
525,-594,10.4816,16.4613,-0.0041422,-0.000378766,0.000289869,-0.000356571,-0.0041644,1.49437,0.00266537,0.0300441,1749,1618,10.4816,-16.4613
532,-594,10.3467,16.007,-0.00674249,-0.000890971,0.00222425,-0.000141494,-0.00749196,1.24579,0.00494815,0.0475382,1756,1618,10.3467,-16.007
539,-594,10.1506,15.5675,0,0,0,0,0,0,0,-1,1763,1618,10.1506,-15.5676
546,-594,7.48645,8.54785,0,0,0,0,0,0,0,-1,1770,1618,7.48639,-8.54789
553,-594,3.69714,5.68762,0,0,0,0,0,0,0,-1,1777,1618,3.69715,-5.68764
560,-594,6.06616,4.44482,0,0,0,0,0,0,0,-1,1784,1618,6.06621,-4.44477
567,-594,5.97266,4.73303,0,0,0,0,0,0,0,-1,1791,1618,5.97271,-4.73309
574,-594,5.9906,4.96326,0,0,0,0,0,0,0,-1,1798,1618,5.99065,-4.96326
581,-594,0,0,0,0,0,0,0,0,0,-1,1805,1618,0,0
588,-594,0,0,0,0,0,0,0,0,0,-1,1812,1618,0,0
595,-594,0,0,0,0,0,0,0,0,0,-1,1819,1618,0,0
602,-594,0,0,0,0,0,0,0,0,0,-1,1826,1618,0,0
609,-594,0,0,0,0,0,0,0,0,0,-1,1833,1618,0,0
616,-594,0,0,0,0,0,0,0,0,0,-1,1840,1618,0,0
623,-594,0,0,0,0,0,0,0,0,0,-1,1847,1618,0,0
630,-594,0,0,0,0,0,0,0,0,0,-1,1854,1618,0,0
637,-594,0,0,0,0,0,0,0,0,0,-1,1861,1618,0,0
644,-594,0,0,0,0,0,0,0,0,0,-1,1868,1618,0,0
651,-594,0,0,0,0,0,0,0,0,0,-1,1875,1618,0,0
658,-594,0,0,0,0,0,0,0,0,0,-1,1882,1618,0,0
665,-594,0,0,0,0,0,0,0,0,0,-1,1889,1618,0,0
672,-594,0,0,0,0,0,0,0,0,0,-1,1896,1618,0,0
679,-594,0,0,0,0,0,0,0,0,0,-1,1903,1618,0,0
686,-594,0,0,0,0,0,0,0,0,0,-1,1910,1618,0,0
693,-594,0,0,0,0,0,0,0,0,0,-1,1917,1618,0,0
700,-594,0,0,0,0,0,0,0,0,0,-1,1924,1618,0,0
707,-594,0,0,0,0,0,0,0,0,0,-1,1931,1618,0,0
714,-594,0,0,0,0,0,0,0,0,0,-1,1938,1618,0,0
721,-594,0,0,0,0,0,0,0,0,0,-1,1945,1618,0,0
728,-594,0,0,0,0,0,0,0,0,0,-1,1952,1618,0,0
735,-594,0,0,0,0,0,0,0,0,0,-1,1959,1618,0,0
742,-594,0,0,0,0,0,0,0,0,0,-1,1966,1618,0,0
749,-594,0,0,0,0,0,0,0,0,0,-1,1973,1618,0,0
756,-594,0,0,0,0,0,0,0,0,0,-1,1980,1618,0,0
763,-594,0,0,0,0,0,0,0,0,0,-1,1987,1618,0,0
770,-594,0,0,0,0,0,0,0,0,0,-1,1994,1618,0,0
777,-594,0,0,0,0,0,0,0,0,0,-1,2001,1618,0,0
784,-594,0,0,0,0,0,0,0,0,0,-1,2008,1618,0,0
791,-594,0,0,0,0,0,0,0,0,0,-1,2015,1618,0,0
798,-594,0,0,0,0,0,0,0,0,0,-1,2022,1618,0,0
805,-594,0,0,0,0,0,0,0,0,0,-1,2029,1618,0,0
812,-594,0,0,0,0,0,0,0,0,0,-1,2036,1618,0,0
-700,-601,0,0,0,0,0,0,0,0,0,-1,524,1625,0,0
-693,-601,0,0,0,0,0,0,0,0,0,-1,531,1625,0,0
-686,-601,0,0,0,0,0,0,0,0,0,-1,538,1625,0,0
-679,-601,0,0,0,0,0,0,0,0,0,-1,545,1625,0,0
-672,-601,0,0,0,0,0,0,0,0,0,-1,552,1625,0,0
-665,-601,0,0,0,0,0,0,0,0,0,-1,559,1625,0,0
-658,-601,0,0,0,0,0,0,0,0,0,-1,566,1625,0,0
-651,-601,0,0,0,0,0,0,0,0,0,-1,573,1625,0,0
-644,-601,0,0,0,0,0,0,0,0,0,-1,580,1625,0,0
-637,-601,0,0,0,0,0,0,0,0,0,-1,587,1625,0,0
-630,-601,0,0,0,0,0,0,0,0,0,-1,594,1625,0,0
-623,-601,0,0,0,0,0,0,0,0,0,-1,601,1625,0,0
-616,-601,0,0,0,0,0,0,0,0,0,-1,608,1625,0,0
-609,-601,0,0,0,0,0,0,0,0,0,-1,615,1625,0,0
-602,-601,0,0,0,0,0,0,0,0,0,-1,622,1625,0,0
-595,-601,0,0,0,0,0,0,0,0,0,-1,629,1625,0,0
-588,-601,0,0,0,0,0,0,0,0,0,-1,636,1625,0,0
-581,-601,0,0,0,0,0,0,0,0,0,-1,643,1625,0,0
-574,-601,0,0,0,0,0,0,0,0,0,-1,650,1625,0,0
-567,-601,0,0,0,0,0,0,0,0,0,-1,657,1625,0,0
-560,-601,0,0,0,0,0,0,0,0,0,-1,664,1625,0,0
-553,-601,0,0,0,0,0,0,0,0,0,-1,671,1625,0,0
-546,-601,0,0,0,0,0,0,0,0,0,-1,678,1625,0,0
-539,-601,0,0,0,0,0,0,0,0,0,-1,685,1625,0,0
-532,-601,0,0,0,0,0,0,0,0,0,-1,692,1625,0,0
-525,-601,0,0,0,0,0,0,0,0,0,-1,699,1625,0,0
-518,-601,0,0,0,0,0,0,0,0,0,-1,706,1625,0,0
-511,-601,0,0,0,0,0,0,0,0,0,-1,713,1625,0,0
-504,-601,0,0,0,0,0,0,0,0,0,-1,720,1625,0,0
-497,-601,0,0,0,0,0,0,0,0,0,-1,727,1625,0,0
-490,-601,0,0,0,0,0,0,0,0,0,-1,734,1625,0,0
-483,-601,0,0,0,0,0,0,0,0,0,-1,741,1625,0,0
-476,-601,0,0,0,0,0,0,0,0,0,-1,748,1625,0,0
-469,-601,0,0,0,0,0,0,0,0,0,-1,755,1625,0,0
-462,-601,0,0,0,0,0,0,0,0,0,-1,762,1625,0,0
-455,-601,0,0,0,0,0,0,0,0,0,-1,769,1625,0,0
-448,-601,-7.07623,2.7616,0,0,0,0,0,0,0,-1,776,1625,-7.07626,-2.76161
-441,-601,-6.06689,3.33447,0,0,0,0,0,0,0,-1,783,1625,-6.06691,-3.33448
-434,-601,-5.02655,3.8468,0,0,0,0,0,0,0,-1,790,1625,-5.02657,-3.84674
-427,-601,-5.78601,4.2406,0,0,0,0,0,0,0,-1,797,1625,-5.786,-4.24058
-420,-601,-5.5191,5.60364,0,0,0,0,0,0,0,-1,804,1625,-5.51907,-5.60368
-413,-601,-4.30756,5.86047,0,0,0,0,0,0,0,-1,811,1625,-4.30757,-5.86046
-406,-601,-1.67493,7.20422,0,0,0,0,0,0,0,-1,818,1625,-1.67493,-7.20428
-399,-601,2.11957,14.4425,0,0,0,0,0,0,0,-1,825,1625,2.11956,-14.4425
-392,-601,2.48383,15.1613,0,0,0,0,0,0,0,-1,832,1625,2.48384,-15.1612
-385,-601,2.44458,15.5952,-0.00685982,-0.00309726,-0.000211811,-0.00308537,-0.00687171,-1.51474,0.00397426,0.0433846,839,1625,2.4446,-15.5952
-378,-601,2.30536,15.9717,-0.0052587,-0.0026924,2.75383e-05,-0.0026921,-0.00525899,1.56007,0.00303657,0.0324038,846,1625,2.30534,-15.9717
-371,-601,2.2735,16.2504,-0.0041964,-0.00247663,5.03463e-06,-0.00247661,-0.00419642,1.56787,0.0024359,0.0161788,853,1625,2.27351,-16.2504
-364,-601,2.27319,16.6146,-0.00320182,-0.00230573,9.11461e-05,-0.00229655,-0.003211,1.47045,0.00191026,0.010527,860,1625,2.27322,-16.6146
-357,-601,2.25641,16.955,-0.00217266,-0.00208911,0.000165381,-0.00196031,-0.00230146,0.909108,0.00143418,0.0104124,867,1625,2.25643,-16.9549
-350,-601,2.26697,17.3428,-0.00128252,-0.00179715,0.000223098,-0.00119927,-0.0018804,0.357146,0.0010993,0.0211074,874,1625,2.26698,-17.3428
-343,-601,2.22498,17.7303,-0.000670345,-0.00127261,0.000353255,-0.00050729,-0.00143566,0.432441,0.000840681,0.023207,881,1625,2.22498,-17.7303
-336,-601,2.18646,18.0376,-0.000108034,-0.000626128,0.000514478,0.000208934,-0.000943095,0.552171,0.000708716,0.0194126,888,1625,2.18646,-18.0376
-329,-601,2.20251,18.3595,0.000309619,0.000123152,0.000611692,0.000835142,-0.000402371,0.709771,0.000728896,0.015396,895,1625,2.20248,-18.3595
-322,-601,2.22815,18.6898,0.000407983,0.000882826,0.000632017,0.00132054,-2.97357e-05,0.965071,0.000890441,0.0122577,902,1625,2.22812,-18.6898
-315,-601,2.22662,18.9716,0.00043376,0.00155923,0.000634748,0.00184477,0.000148216,1.14806,0.00118354,0.0122857,909,1625,2.22661,-18.9716
-308,-601,2.21796,19.2892,0.000388311,0.00212458,0.000560947,0.00229004,0.00022285,1.28396,0.0014581,0.0116267,916,1625,2.21798,-19.2892
-301,-601,2.2251,19.6041,0.000320616,0.00255263,0.000435877,0.00263473,0.000238516,1.38462,0.00168263,0.0103719,923,1625,2.22509,-19.6041
-294,-601,2.21509,19.9127,0.000286375,0.00256177,0.000163506,0.00257346,0.000274686,1.49943,0.0016318,0.0097799,930,1625,2.2151,-19.9128
-287,-601,2.19794,20.228,0.000325703,0.0024203,-0.000134597,0.00242891,0.00031709,-1.50689,0.00152461,0.00960906,937,1625,2.19795,-20.228
-280,-601,2.21838,20.5339,0.000467677,0.00207779,-0.000473524,0.00220673,0.000338742,-1.30495,0.00137225,0.0119634,944,1625,2.21838,-20.5339
-273,-601,2.23529,20.8641,0.000700315,0.00143096,-0.000877631,0.00201627,0.000115009,-0.982621,0.00130753,0.0130844,951,1625,2.23529,-20.8642
-266,-601,2.28784,21.1652,0.000988133,0.000453791,-0.00128662,0.00203503,-0.000593108,-0.683027,0.00159166,0.0160765,958,1625,2.28784,-21.1652
-259,-601,2.35999,21.3347,0.00144473,-0.000598897,-0.00157445,0.00229989,-0.00145405,-0.497564,0.0021856,0.0265162,965,1625,2.35996,-21.3348
-252,-601,2.35388,21.6049,0.00224332,-0.0015753,-0.00182737,0.00297687,-0.00230885,-0.381736,0.00305983,0.044368,972,1625,2.35385,-21.6048
-245,-601,2.33472,21.7362,0.00331864,-0.00331839,-0.0018943,0.00382124,-0.00382099,-0.259347,0.00441224,0.0444425,979,1625,2.33474,-21.7362
-238,-601,2.30304,21.9708,0,0,0,0,0,0,0,-1,986,1625,2.30303,-21.9708
-231,-601,2.66772,13.7051,0,0,0,0,0,0,0,-1,993,1625,2.6677,-13.7051
-224,-601,-0.0305176,9.13684,0,0,0,0,0,0,0,-1,1000,1625,-0.030498,-9.13681
-217,-601,3.39429,10.3898,0,0,0,0,0,0,0,-1,1007,1625,3.39431,-10.3898
-210,-601,-6.53699,15.7931,0,0,0,0,0,0,0,-1,1014,1625,-6.53697,-15.7931
-203,-601,2.69348,15.9099,0,0,0,0,0,0,0,-1,1021,1625,2.69351,-15.91
-196,-601,2.66992,16.1815,0,0,0,0,0,0,0,-1,1028,1625,2.66995,-16.1815
-189,-601,2.849,16.6105,0,0,0,0,0,0,0,-1,1035,1625,2.84902,-16.6104
-182,-601,1.82153,13.9752,0,0,0,0,0,0,0,-1,1042,1625,1.82155,-13.9752
-175,-601,0.544922,9.28687,0,0,0,0,0,0,0,-1,1049,1625,0.544879,-9.28685
-168,-601,-0.247559,8.97461,0,0,0,0,0,0,0,-1,1056,1625,-0.247598,-8.97466
-161,-601,-1.16833,8.80078,0,0,0,0,0,0,0,-1,1063,1625,-1.16837,-8.80081
-154,-601,1.12756,7.94861,0,0,0,0,0,0,0,-1,1070,1625,1.12762,-7.94855
-147,-601,1.35352,9.55432,0,0,0,0,0,0,0,-1,1077,1625,1.35351,-9.55429
-140,-601,1.72437,11.1498,0,0,0,0,0,0,0,-1,1084,1625,1.72432,-11.1498
-133,-601,2.13281,12.8347,0,0,0,0,0,0,0,-1,1091,1625,2.13287,-12.8348
-126,-601,3.09534,15.427,0,0,0,0,0,0,0,-1,1098,1625,3.0953,-15.4271
-119,-601,1.22485,9.43457,0,0,0,0,0,0,0,-1,1105,1625,1.22489,-9.43456
-112,-601,0,0,0,0,0,0,0,0,0,-1,1112,1625,0,0
-105,-601,0,0,0,0,0,0,0,0,0,-1,1119,1625,0,0
-98,-601,0,0,0,0,0,0,0,0,0,-1,1126,1625,0,0
-91,-601,0,0,0,0,0,0,0,0,0,-1,1133,1625,0,0
-84,-601,0,0,0,0,0,0,0,0,0,-1,1140,1625,0,0
-77,-601,0,0,0,0,0,0,0,0,0,-1,1147,1625,0,0
-70,-601,0,0,0,0,0,0,0,0,0,-1,1154,1625,0,0
-63,-601,0,0,0,0,0,0,0,0,0,-1,1161,1625,0,0
-56,-601,0,0,0,0,0,0,0,0,0,-1,1168,1625,0,0
-49,-601,0,0,0,0,0,0,0,0,0,-1,1175,1625,0,0
-42,-601,0,0,0,0,0,0,0,0,0,-1,1182,1625,0,0
-35,-601,0,0,0,0,0,0,0,0,0,-1,1189,1625,0,0
-28,-601,0,0,0,0,0,0,0,0,0,-1,1196,1625,0,0
-21,-601,0,0,0,0,0,0,0,0,0,-1,1203,1625,0,0
-14,-601,0,0,0,0,0,0,0,0,0,-1,1210,1625,0,0
-7,-601,0,0,0,0,0,0,0,0,0,-1,1217,1625,0,0
0,-601,0,0,0,0,0,0,0,0,0,-1,1224,1625,0,0
7,-601,0,0,0,0,0,0,0,0,0,-1,1231,1625,0,0
14,-601,0,0,0,0,0,0,0,0,0,-1,1238,1625,0,0
21,-601,0,0,0,0,0,0,0,0,0,-1,1245,1625,0,0
28,-601,0,0,0,0,0,0,0,0,0,-1,1252,1625,0,0
35,-601,0,0,0,0,0,0,0,0,0,-1,1259,1625,0,0
42,-601,0,0,0,0,0,0,0,0,0,-1,1266,1625,0,0
49,-601,0,0,0,0,0,0,0,0,0,-1,1273,1625,0,0
56,-601,0,0,0,0,0,0,0,0,0,-1,1280,1625,0,0
63,-601,0,0,0,0,0,0,0,0,0,-1,1287,1625,0,0
70,-601,0,0,0,0,0,0,0,0,0,-1,1294,1625,0,0
77,-601,0,0,0,0,0,0,0,0,0,-1,1301,1625,0,0
84,-601,0,0,0,0,0,0,0,0,0,-1,1308,1625,0,0
91,-601,0,0,0,0,0,0,0,0,0,-1,1315,1625,0,0
98,-601,0,0,0,0,0,0,0,0,0,-1,1322,1625,0,0
105,-601,0,0,0,0,0,0,0,0,0,-1,1329,1625,0,0
112,-601,0,0,0,0,0,0,0,0,0,-1,1336,1625,0,0
119,-601,0,0,0,0,0,0,0,0,0,-1,1343,1625,0,0
126,-601,0,0,0,0,0,0,0,0,0,-1,1350,1625,0,0
133,-601,0,0,0,0,0,0,0,0,0,-1,1357,1625,0,0
140,-601,0,0,0,0,0,0,0,0,0,-1,1364,1625,0,0
147,-601,0,0,0,0,0,0,0,0,0,-1,1371,1625,0,0
154,-601,0,0,0,0,0,0,0,0,0,-1,1378,1625,0,0
161,-601,0,0,0,0,0,0,0,0,0,-1,1385,1625,0,0
168,-601,0,0,0,0,0,0,0,0,0,-1,1392,1625,0,0
175,-601,0,0,0,0,0,0,0,0,0,-1,1399,1625,0,0
182,-601,0,0,0,0,0,0,0,0,0,-1,1406,1625,0,0
189,-601,0,0,0,0,0,0,0,0,0,-1,1413,1625,0,0
196,-601,0,0,0,0,0,0,0,0,0,-1,1420,1625,0,0
203,-601,0,0,0,0,0,0,0,0,0,-1,1427,1625,0,0
210,-601,0,0,0,0,0,0,0,0,0,-1,1434,1625,0,0
217,-601,0,0,0,0,0,0,0,0,0,-1,1441,1625,0,0
224,-601,0,0,0,0,0,0,0,0,0,-1,1448,1625,0,0
231,-601,-0.0371094,0.525879,0,0,0,0,0,0,0,-1,1455,1625,-0.0371518,-0.525824
238,-601,2.03369,-1.32861,0,0,0,0,0,0,0,-1,1462,1625,2.03364,1.32858
245,-601,2.71375,2.44983,0,0,0,0,0,0,0,-1,1469,1625,2.71371,-2.44979
252,-601,4.66943,2.28381,0,0,0,0,0,0,0,-1,1476,1625,4.66947,-2.28376
259,-601,6.42712,2.61987,0,0,0,0,0,0,0,-1,1483,1625,6.42711,-2.61985
266,-601,6.75317,1.68701,0,0,0,0,0,0,0,-1,1490,1625,6.75323,-1.687
273,-601,5.4314,2.92053,0,0,0,0,0,0,0,-1,1497,1625,5.43144,-2.92051
280,-601,4.64722,1.17786,0,0,0,0,0,0,0,-1,1504,1625,4.64722,-1.1779
287,-601,5.32532,2.6217,0,0,0,0,0,0,0,-1,1511,1625,5.32535,-2.62171
294,-601,5.97693,4.22693,0,0,0,0,0,0,0,-1,1518,1625,5.97697,-4.22694
301,-601,7.28162,9.50024,0,0,0,0,0,0,0,-1,1525,1625,7.28162,-9.50025
308,-601,6.53528,10.3927,0,0,0,0,0,0,0,-1,1532,1625,6.53529,-10.3927
315,-601,4.88013,11.7184,0,0,0,0,0,0,0,-1,1539,1625,4.88015,-11.7184
322,-601,3.38098,12.7864,0,0,0,0,0,0,0,-1,1546,1625,3.38104,-12.7864
329,-601,1.8772,13.8768,0,0,0,0,0,0,0,-1,1553,1625,1.87716,-13.8768
336,-601,4.67847,9.53308,0,0,0,0,0,0,0,-1,1560,1625,4.67848,-9.53309
343,-601,11.1404,3.14575,0,0,0,0,0,0,0,-1,1567,1625,11.1404,-3.1458
350,-601,10.9462,2.37769,0,0,0,0,0,0,0,-1,1574,1625,10.9461,-2.37764
357,-601,10.7518,1.6095,0,0,0,0,0,0,0,-1,1581,1625,10.7518,-1.60948
364,-601,5.33643,9.74426,0,0,0,0,0,0,0,-1,1588,1625,5.33637,-9.74429
371,-601,8.46387,16.2725,0,0,0,0,0,0,0,-1,1595,1625,8.46385,-16.2725
378,-601,10.1228,23.2084,0,0,0,0,0,0,0,-1,1602,1625,10.1228,-23.2083
385,-601,10.1326,22.652,0,0,0,0,0,0,0,-1,1609,1625,10.1325,-22.6519
392,-601,10.1283,22.2104,0.00287338,0.00749194,0.00141313,0.00789,0.00247532,1.29622,0.00465947,0.0392202,1616,1625,10.1283,-22.2105
399,-601,10.115,21.8934,0.000952964,0.0043912,0.00343938,0.00651717,-0.001173,1.01716,0.00478396,0.0226751,1623,1625,10.115,-21.8934
406,-601,10.1881,21.6107,-0.000506253,0.00229442,0.00460504,0.00570733,-0.00391916,0.933,0.00558973,0.0135721,1630,1625,10.1881,-21.6107
413,-601,10.2122,21.3226,-0.00158603,0.000655473,0.00519531,0.00484955,-0.00578011,0.891632,0.00614487,0.011366,1637,1625,10.2122,-21.3227
420,-601,10.1927,21.0559,-0.00220029,9.80365e-05,0.00515861,0.00423394,-0.00633619,0.894991,0.00614276,0.00917087,1644,1625,10.1927,-21.0559
427,-601,10.1935,20.7686,-0.00249681,-0.00040949,0.00497251,0.0036277,-0.006534,0.88884,0.00594631,0.0136364,1651,1625,10.1935,-20.7686
434,-601,10.1897,20.4742,-0.00239051,-0.000456759,0.00430687,0.00299043,-0.00583769,0.895816,0.00518453,0.0155832,1658,1625,10.1897,-20.4743
441,-601,10.1936,20.1697,-0.00196368,-0.000222636,0.00333989,0.00235832,-0.00454463,0.912883,0.00405151,0.0166813,1665,1625,10.1936,-20.1697
448,-601,10.1987,19.8879,-0.00140409,6.13991e-05,0.0023339,0.00177488,-0.00311757,0.937504,0.00285989,0.01454,1672,1625,10.1987,-19.8879
455,-601,10.1967,19.594,-0.000874667,0.000247045,0.00140187,0.00119609,-0.00182371,0.975684,0.00175599,0.0129697,1679,1625,10.1966,-19.5939
462,-601,10.1925,19.2916,-0.000182132,0.000489691,0.000347825,0.000637327,-0.000329769,1.16939,0.000567687,0.0107587,1686,1625,10.1925,-19.2916
469,-601,10.1881,19.0085,0.000556905,0.000663422,-0.000602073,0.00121459,5.74003e-06,-0.829513,0.000807818,0.0101721,1693,1625,10.1881,-19.0085
476,-601,10.1742,18.7085,0.00116451,0.000760892,-0.00150763,0.00248378,-0.000558377,-0.718864,0.00186998,0.0126529,1700,1625,10.1741,-18.7085
483,-601,10.1692,18.3918,0.00149156,0.000842891,-0.00210375,0.00329583,-0.000961374,-0.708915,0.00257813,0.016455,1707,1625,10.1692,-18.3919
490,-601,10.1548,18.0708,0.00163116,0.000817723,-0.00254514,0.00380187,-0.00135298,-0.706167,0.00308607,0.013228,1714,1625,10.1548,-18.0708
497,-601,10.1581,17.7469,0.00142477,0.00088619,-0.00291495,0.00408284,-0.00177188,-0.739337,0.00346689,0.0105384,1721,1625,10.1581,-17.7469
504,-601,10.1788,17.4073,0.000545489,0.000979013,-0.00273127,0.00350211,-0.00197761,-0.824997,0.00320427,0.0172141,1728,1625,10.1788,-17.4074
511,-601,10.1407,17.1565,-0.000536947,0.000683003,-0.00237345,0.00252361,-0.00237755,-0.911176,0.00283011,0.0302615,1735,1625,10.1407,-17.1565
518,-601,10.1373,16.7813,-0.00203931,0.000595724,-0.00201477,0.00168552,-0.00312911,-1.07496,0.00282107,0.0426092,1742,1625,10.1373,-16.7812
525,-601,10.1954,16.4312,0,0,0,0,0,0,0,-1,1749,1625,10.1955,-16.4311
532,-601,10.1459,16.0049,0,0,0,0,0,0,0,-1,1756,1625,10.1459,-16.0049
539,-601,7.77112,11.4299,0,0,0,0,0,0,0,-1,1763,1625,7.77116,-11.4299
546,-601,6.56873,3.62354,0,0,0,0,0,0,0,-1,1770,1625,6.56867,-3.62352
553,-601,7.03015,4.25049,0,0,0,0,0,0,0,-1,1777,1625,7.03011,-4.25048
560,-601,7.50745,4.83374,0,0,0,0,0,0,0,-1,1784,1625,7.50744,-4.83376
567,-601,7.82043,3.83301,0,0,0,0,0,0,0,-1,1791,1625,7.82041,-3.83303
574,-601,0,0,0,0,0,0,0,0,0,-1,1798,1625,0,0
581,-601,0,0,0,0,0,0,0,0,0,-1,1805,1625,0,0
588,-601,0,0,0,0,0,0,0,0,0,-1,1812,1625,0,0
595,-601,0,0,0,0,0,0,0,0,0,-1,1819,1625,0,0
602,-601,0,0,0,0,0,0,0,0,0,-1,1826,1625,0,0
609,-601,0,0,0,0,0,0,0,0,0,-1,1833,1625,0,0
616,-601,0,0,0,0,0,0,0,0,0,-1,1840,1625,0,0
623,-601,0,0,0,0,0,0,0,0,0,-1,1847,1625,0,0
630,-601,0,0,0,0,0,0,0,0,0,-1,1854,1625,0,0
637,-601,0,0,0,0,0,0,0,0,0,-1,1861,1625,0,0
644,-601,0,0,0,0,0,0,0,0,0,-1,1868,1625,0,0
651,-601,0,0,0,0,0,0,0,0,0,-1,1875,1625,0,0
658,-601,0,0,0,0,0,0,0,0,0,-1,1882,1625,0,0
665,-601,0,0,0,0,0,0,0,0,0,-1,1889,1625,0,0
672,-601,0,0,0,0,0,0,0,0,0,-1,1896,1625,0,0
679,-601,0,0,0,0,0,0,0,0,0,-1,1903,1625,0,0
686,-601,0,0,0,0,0,0,0,0,0,-1,1910,1625,0,0
693,-601,0,0,0,0,0,0,0,0,0,-1,1917,1625,0,0
700,-601,0,0,0,0,0,0,0,0,0,-1,1924,1625,0,0
707,-601,0,0,0,0,0,0,0,0,0,-1,1931,1625,0,0
714,-601,0,0,0,0,0,0,0,0,0,-1,1938,1625,0,0
721,-601,0,0,0,0,0,0,0,0,0,-1,1945,1625,0,0
728,-601,0,0,0,0,0,0,0,0,0,-1,1952,1625,0,0
735,-601,0,0,0,0,0,0,0,0,0,-1,1959,1625,0,0
742,-601,0,0,0,0,0,0,0,0,0,-1,1966,1625,0,0
749,-601,0,0,0,0,0,0,0,0,0,-1,1973,1625,0,0
756,-601,0,0,0,0,0,0,0,0,0,-1,1980,1625,0,0
763,-601,0,0,0,0,0,0,0,0,0,-1,1987,1625,0,0
770,-601,0,0,0,0,0,0,0,0,0,-1,1994,1625,0,0
777,-601,0,0,0,0,0,0,0,0,0,-1,2001,1625,0,0
784,-601,0,0,0,0,0,0,0,0,0,-1,2008,1625,0,0
791,-601,0,0,0,0,0,0,0,0,0,-1,2015,1625,0,0
798,-601,0,0,0,0,0,0,0,0,0,-1,2022,1625,0,0
805,-601,0,0,0,0,0,0,0,0,0,-1,2029,1625,0,0
812,-601,0,0,0,0,0,0,0,0,0,-1,2036,1625,0,0
-700,-608,0,0,0,0,0,0,0,0,0,-1,524,1632,0,0
-693,-608,0,0,0,0,0,0,0,0,0,-1,531,1632,0,0
-686,-608,0,0,0,0,0,0,0,0,0,-1,538,1632,0,0
-679,-608,0,0,0,0,0,0,0,0,0,-1,545,1632,0,0
-672,-608,0,0,0,0,0,0,0,0,0,-1,552,1632,0,0
-665,-608,0,0,0,0,0,0,0,0,0,-1,559,1632,0,0
-658,-608,0,0,0,0,0,0,0,0,0,-1,566,1632,0,0
-651,-608,0,0,0,0,0,0,0,0,0,-1,573,1632,0,0
-644,-608,0,0,0,0,0,0,0,0,0,-1,580,1632,0,0
-637,-608,0,0,0,0,0,0,0,0,0,-1,587,1632,0,0
-630,-608,0,0,0,0,0,0,0,0,0,-1,594,1632,0,0
-623,-608,0,0,0,0,0,0,0,0,0,-1,601,1632,0,0
-616,-608,0,0,0,0,0,0,0,0,0,-1,608,1632,0,0
-609,-608,0,0,0,0,0,0,0,0,0,-1,615,1632,0,0
-602,-608,0,0,0,0,0,0,0,0,0,-1,622,1632,0,0
-595,-608,0,0,0,0,0,0,0,0,0,-1,629,1632,0,0
-588,-608,0,0,0,0,0,0,0,0,0,-1,636,1632,0,0
-581,-608,0,0,0,0,0,0,0,0,0,-1,643,1632,0,0
-574,-608,0,0,0,0,0,0,0,0,0,-1,650,1632,0,0
-567,-608,0,0,0,0,0,0,0,0,0,-1,657,1632,0,0
-560,-608,0,0,0,0,0,0,0,0,0,-1,664,1632,0,0
-553,-608,0,0,0,0,0,0,0,0,0,-1,671,1632,0,0
-546,-608,0,0,0,0,0,0,0,0,0,-1,678,1632,0,0
-539,-608,0,0,0,0,0,0,0,0,0,-1,685,1632,0,0
-532,-608,0,0,0,0,0,0,0,0,0,-1,692,1632,0,0
-525,-608,0,0,0,0,0,0,0,0,0,-1,699,1632,0,0
-518,-608,0,0,0,0,0,0,0,0,0,-1,706,1632,0,0
-511,-608,0,0,0,0,0,0,0,0,0,-1,713,1632,0,0
-504,-608,0,0,0,0,0,0,0,0,0,-1,720,1632,0,0
-497,-608,0,0,0,0,0,0,0,0,0,-1,727,1632,0,0
-490,-608,0,0,0,0,0,0,0,0,0,-1,734,1632,0,0
-483,-608,0,0,0,0,0,0,0,0,0,-1,741,1632,0,0
-476,-608,0,0,0,0,0,0,0,0,0,-1,748,1632,0,0
-469,-608,0,0,0,0,0,0,0,0,0,-1,755,1632,0,0
-462,-608,0,0,0,0,0,0,0,0,0,-1,762,1632,0,0
-455,-608,0,0,0,0,0,0,0,0,0,-1,769,1632,0,0
-448,-608,0,0,0,0,0,0,0,0,0,-1,776,1632,0,0
-441,-608,-7.34601,2.78052,0,0,0,0,0,0,0,-1,783,1632,-7.346,-2.78056
-434,-608,-6.34558,3.27405,0,0,0,0,0,0,0,-1,790,1632,-6.34555,-3.27406
-427,-608,-7.74335,4.17688,0,0,0,0,0,0,0,-1,797,1632,-7.74334,-4.17693
-420,-608,-6.82794,4.34839,0,0,0,0,0,0,0,-1,804,1632,-6.82794,-4.34838
-413,-608,-5.41919,5.66138,0,0,0,0,0,0,0,-1,811,1632,-5.41917,-5.66133
-406,-608,-4.79681,4.98999,0,0,0,0,0,0,0,-1,818,1632,-4.79684,-4.98997
-399,-608,-2.60645,6.34167,0,0,0,0,0,0,0,-1,825,1632,-2.60643,-6.34169
-392,-608,2.48175,14.8905,0,0,0,0,0,0,0,-1,832,1632,2.48176,-14.8905
-385,-608,2.87085,15.5653,0,0,0,0,0,0,0,-1,839,1632,2.87085,-15.5653
-378,-608,2.67529,15.9775,0,0,0,0,0,0,0,-1,846,1632,2.67526,-15.9775
-371,-608,2.70447,16.1569,0,0,0,0,0,0,0,-1,853,1632,2.70448,-16.1568
-364,-608,2.64447,16.5253,-0.00398246,-0.00336251,-2.49697e-05,-0.0033615,-0.00398347,-1.53061,0.00247452,0.0226191,860,1632,2.64446,-16.5252
-357,-608,2.58917,16.9115,-0.00284384,-0.00294092,6.73485e-06,-0.00284338,-0.00294139,0.068936,0.00192908,0.0175905,867,1632,2.58919,-16.9115
-350,-608,2.60278,17.3195,-0.00186006,-0.00258096,6.1755e-05,-0.00185481,-0.00258621,0.0848403,0.00153939,0.0191573,874,1632,2.60276,-17.3195
-343,-608,2.58478,17.6724,-0.00116234,-0.0019341,0.000175681,-0.00112423,-0.00197221,0.213616,0.00114237,0.0247721,881,1632,2.58475,-17.6723
-336,-608,2.5553,18.0367,-0.000531925,-0.00125971,0.000311944,-0.000416519,-0.00137511,0.354343,0.000814224,0.016744,888,1632,2.55528,-18.0368
-329,-608,2.53455,18.3761,-4.72085e-05,-0.000437701,0.000430215,0.000229992,-0.000714902,0.57238,0.000568977,0.0143437,895,1632,2.53456,-18.3761
-322,-608,2.52777,18.6776,0.000138731,0.000362155,0.000488689,0.000751738,-0.000250852,0.897765,0.000602444,0.0141794,902,1632,2.52778,-18.6776
-315,-608,2.55011,18.9658,0.00022677,0.00101979,0.000508011,0.00126771,-2.11545e-05,1.11677,0.000852282,0.0129216,909,1632,2.55013,-18.9658
-308,-608,2.52991,19.3004,0.000251248,0.00154064,0.000433475,0.00167282,0.00011907,1.27483,0.00107772,0.0132771,916,1632,2.5299,-19.3004
-301,-608,2.52539,19.6202,0.000283147,0.00193519,0.000344932,0.00200431,0.000214021,1.37301,0.00127089,0.0111573,923,1632,2.5254,-19.6202
-294,-608,2.53046,19.9174,0.000382896,0.00194938,0.000142906,0.00196231,0.000369966,1.48056,0.00120398,0.0109979,930,1632,2.53046,-19.9174
-287,-608,2.50238,20.217,0.000532731,0.00181535,-8.30127e-05,0.0018207,0.000527381,-1.50643,0.00108174,0.0103452,937,1632,2.50235,-20.2171
-280,-608,2.51343,20.5078,0.000767781,0.00151907,-0.000330686,0.00164388,0.000642963,-1.20988,0.000956568,0.00832777,944,1632,2.51342,-20.5078
-273,-608,2.52075,20.8068,0.00109724,0.000960727,-0.000605499,0.00163832,0.000419652,-0.72927,0.000982667,0.00952855,951,1632,2.52077,-20.8068
-266,-608,2.54657,21.1217,0.00146199,0.000256264,-0.000859815,0.00190923,-0.000190981,-0.479649,0.00134102,0.0101781,958,1632,2.54659,-21.1216
-259,-608,2.58893,21.4092,0.00192975,-0.000436407,-0.00102888,0.00231456,-0.000821218,-0.357901,0.00187763,0.0124791,965,1632,2.58892,-21.4092
-252,-608,2.60889,21.6583,0.00268315,-0.00103922,-0.00111215,0.00299011,-0.00134619,-0.269307,0.00256283,0.0245243,972,1632,2.60887,-21.6583
-245,-608,2.62836,21.9518,0.00363916,-0.00205135,-0.000973398,0.00380106,-0.00221325,-0.164816,0.00351246,0.0354425,979,1632,2.62834,-21.9518
-238,-608,2.73535,22.2391,0.00479439,-0.00265188,-0.000727117,0.00486473,-0.00272222,-0.0964346,0.00443816,0.0449493,986,1632,2.73532,-22.2391
-231,-608,2.90302,22.5636,0,0,0,0,0,0,0,-1,993,1632,2.90299,-22.5636
-224,-608,2.51642,15.3452,0,0,0,0,0,0,0,-1,1000,1632,2.5164,-15.3452
-217,-608,1.04419,12.8451,0,0,0,0,0,0,0,-1,1007,1632,1.04418,-12.8451
-210,-608,2.75903,15.9414,0,0,0,0,0,0,0,-1,1014,1632,2.75903,-15.9414
-203,-608,2.76776,16.217,0,0,0,0,0,0,0,-1,1021,1632,2.76773,-16.217
-196,-608,1.53955,18.6058,0,0,0,0,0,0,0,-1,1028,1632,1.53959,-18.6058
-189,-608,1.37634,19.119,0,0,0,0,0,0,0,-1,1035,1632,1.37634,-19.1191
-182,-608,2.89221,16.7092,0,0,0,0,0,0,0,-1,1042,1632,2.89224,-16.7093
-175,-608,0.219116,15.1643,0,0,0,0,0,0,0,-1,1049,1632,0.219173,-15.1644
-168,-608,0.000366211,9.48645,0,0,0,0,0,0,0,-1,1056,1632,0.000317105,-9.48648
-161,-608,2.27832,15.4423,0,0,0,0,0,0,0,-1,1063,1632,2.27826,-15.4423
-154,-608,1.3999,16.4037,0,0,0,0,0,0,0,-1,1070,1632,1.39987,-16.4037
-147,-608,2.4386,9.50317,0,0,0,0,0,0,0,-1,1077,1632,2.43858,-9.50313
-140,-608,2.60132,10.8401,0,0,0,0,0,0,0,-1,1084,1632,2.60134,-10.8401
-133,-608,3.2312,12.4738,0,0,0,0,0,0,0,-1,1091,1632,3.23116,-12.4738
-126,-608,3.76465,13.9644,0,0,0,0,0,0,0,-1,1098,1632,3.76466,-13.9644
-119,-608,4.28906,15.4196,0,0,0,0,0,0,0,-1,1105,1632,4.28911,-15.4195
-112,-608,0.745117,10.5587,0,0,0,0,0,0,0,-1,1112,1632,0.745145,-10.5587
-105,-608,-0.252319,1.42419,0,0,0,0,0,0,0,-1,1119,1632,-0.252331,-1.42418
-98,-608,-2.8595,3.0863,0,0,0,0,0,0,0,-1,1126,1632,-2.85948,-3.08625
-91,-608,-3.71948,1.73608,0,0,0,0,0,0,0,-1,1133,1632,-3.7195,-1.73607
-84,-608,0,0,0,0,0,0,0,0,0,-1,1140,1632,0,0
-77,-608,0,0,0,0,0,0,0,0,0,-1,1147,1632,0,0
-70,-608,0,0,0,0,0,0,0,0,0,-1,1154,1632,0,0
-63,-608,0,0,0,0,0,0,0,0,0,-1,1161,1632,0,0
-56,-608,0,0,0,0,0,0,0,0,0,-1,1168,1632,0,0
-49,-608,0,0,0,0,0,0,0,0,0,-1,1175,1632,0,0
-42,-608,0,0,0,0,0,0,0,0,0,-1,1182,1632,0,0
-35,-608,0,0,0,0,0,0,0,0,0,-1,1189,1632,0,0
-28,-608,0,0,0,0,0,0,0,0,0,-1,1196,1632,0,0
-21,-608,0,0,0,0,0,0,0,0,0,-1,1203,1632,0,0
-14,-608,0,0,0,0,0,0,0,0,0,-1,1210,1632,0,0
-7,-608,0,0,0,0,0,0,0,0,0,-1,1217,1632,0,0
0,-608,0,0,0,0,0,0,0,0,0,-1,1224,1632,0,0
7,-608,0,0,0,0,0,0,0,0,0,-1,1231,1632,0,0
14,-608,0,0,0,0,0,0,0,0,0,-1,1238,1632,0,0
21,-608,0,0,0,0,0,0,0,0,0,-1,1245,1632,0,0
28,-608,0,0,0,0,0,0,0,0,0,-1,1252,1632,0,0
35,-608,0,0,0,0,0,0,0,0,0,-1,1259,1632,0,0
42,-608,0,0,0,0,0,0,0,0,0,-1,1266,1632,0,0
49,-608,0,0,0,0,0,0,0,0,0,-1,1273,1632,0,0
56,-608,0,0,0,0,0,0,0,0,0,-1,1280,1632,0,0
63,-608,0,0,0,0,0,0,0,0,0,-1,1287,1632,0,0
70,-608,0,0,0,0,0,0,0,0,0,-1,1294,1632,0,0
77,-608,0,0,0,0,0,0,0,0,0,-1,1301,1632,0,0
84,-608,0,0,0,0,0,0,0,0,0,-1,1308,1632,0,0
91,-608,0,0,0,0,0,0,0,0,0,-1,1315,1632,0,0
98,-608,0,0,0,0,0,0,0,0,0,-1,1322,1632,0,0
105,-608,0,0,0,0,0,0,0,0,0,-1,1329,1632,0,0
112,-608,0,0,0,0,0,0,0,0,0,-1,1336,1632,0,0
119,-608,0,0,0,0,0,0,0,0,0,-1,1343,1632,0,0
126,-608,0,0,0,0,0,0,0,0,0,-1,1350,1632,0,0
133,-608,0,0,0,0,0,0,0,0,0,-1,1357,1632,0,0
140,-608,0,0,0,0,0,0,0,0,0,-1,1364,1632,0,0
147,-608,0,0,0,0,0,0,0,0,0,-1,1371,1632,0,0
154,-608,0,0,0,0,0,0,0,0,0,-1,1378,1632,0,0
161,-608,0,0,0,0,0,0,0,0,0,-1,1385,1632,0,0
168,-608,0,0,0,0,0,0,0,0,0,-1,1392,1632,0,0
175,-608,0,0,0,0,0,0,0,0,0,-1,1399,1632,0,0
182,-608,0,0,0,0,0,0,0,0,0,-1,1406,1632,0,0
189,-608,0,0,0,0,0,0,0,0,0,-1,1413,1632,0,0
196,-608,0,0,0,0,0,0,0,0,0,-1,1420,1632,0,0
203,-608,0,0,0,0,0,0,0,0,0,-1,1427,1632,0,0
210,-608,5.7157,-0.333008,0,0,0,0,0,0,0,-1,1434,1632,5.71566,0.333004
217,-608,4.49402,-0.831787,0,0,0,0,0,0,0,-1,1441,1632,4.49396,0.831738
224,-608,4.18018,-1.11792,0,0,0,0,0,0,0,-1,1448,1632,4.1802,1.11796
231,-608,0.361816,0.825195,0,0,0,0,0,0,0,-1,1455,1632,0.36185,-0.825226
238,-608,2.85388,-0.28833,0,0,0,0,0,0,0,-1,1462,1632,2.85391,0.288282
245,-608,3.87537,4.02173,0,0,0,0,0,0,0,-1,1469,1632,3.87538,-4.02168
252,-608,5.66956,3.5282,0,0,0,0,0,0,0,-1,1476,1632,5.6696,-3.52815
259,-608,7.47437,3.07178,0,0,0,0,0,0,0,-1,1483,1632,7.4744,-3.07172
266,-608,9.46936,2.34766,0,0,0,0,0,0,0,-1,1490,1632,9.46932,-2.34764
273,-608,6.03003,3.34241,0,0,0,0,0,0,0,-1,1497,1632,6.02997,-3.34245
280,-608,5.72461,2.0769,0,0,0,0,0,0,0,-1,1504,1632,5.72457,-2.07688
287,-608,6.20581,3.59338,0,0,0,0,0,0,0,-1,1511,1632,6.20585,-3.59341
294,-608,6.94922,5.17151,0,0,0,0,0,0,0,-1,1518,1632,6.94925,-5.17151
301,-608,7.60083,6.68018,0,0,0,0,0,0,0,-1,1525,1632,7.60086,-6.68013
308,-608,7.64746,9.93848,0,0,0,0,0,0,0,-1,1532,1632,7.64745,-9.93842
315,-608,5.30688,11.2054,0,0,0,0,0,0,0,-1,1539,1632,5.30694,-11.2054
322,-608,5.32617,13.7581,0,0,0,0,0,0,0,-1,1546,1632,5.32613,-13.758
329,-608,7.12231,13.9607,0,0,0,0,0,0,0,-1,1553,1632,7.12231,-13.9607
336,-608,5.48633,7.82446,0,0,0,0,0,0,0,-1,1560,1632,5.48634,-7.82446
343,-608,5.47192,5.61047,0,0,0,0,0,0,0,-1,1567,1632,5.47192,-5.61045
350,-608,11.6957,1.71387,0,0,0,0,0,0,0,-1,1574,1632,11.6957,-1.71388
357,-608,3.77002,5.10046,0,0,0,0,0,0,0,-1,1581,1632,3.77002,-5.10043
364,-608,5.6925,11.2163,0,0,0,0,0,0,0,-1,1588,1632,5.69255,-11.2163
371,-608,9.86096,23.1921,0,0,0,0,0,0,0,-1,1595,1632,9.86102,-23.1921
378,-608,9.84619,22.9382,0.00692041,0.0147388,-0.0041127,0.0165038,0.00515545,-1.16542,0.00974951,0.0448611,1602,1632,9.84618,-22.9383
385,-608,9.88477,22.5073,0.00478967,0.0104355,-0.00193698,0.0110362,0.00418903,-1.27011,0.00643304,0.0331325,1609,1632,9.88471,-22.5073
392,-608,9.85425,22.1902,0.00310665,0.00715297,-5.15953e-05,0.00715363,0.00310599,-1.55805,0.00414206,0.0230609,1616,1632,9.85425,-22.1901
399,-608,9.86609,21.8861,0.0016269,0.0045454,0.00155475,0.00521844,0.000953862,1.16226,0.00320862,0.0116256,1623,1632,9.86603,-21.8861
406,-608,9.88794,21.6007,0.000423387,0.00269159,0.0025784,0.00437428,-0.00125931,0.992588,0.00341427,0.00885031,1630,1632,9.88789,-21.6007
413,-608,9.89502,21.3147,-0.00050643,0.00111611,0.00322422,0.00362956,-0.00301988,0.908648,0.00384443,0.00883436,1637,1632,9.89501,-21.3147
420,-608,9.88379,21.0334,-0.00103499,0.000405265,0.003373,0.00313415,-0.00376387,0.890568,0.0039881,0.0151503,1644,1632,9.88379,-21.0335
427,-608,9.90222,20.7534,-0.00131766,-0.000323955,0.00337401,0.00258959,-0.0042312,0.858502,0.00397582,0.0178021,1651,1632,9.90221,-20.7534
434,-608,9.90723,20.4735,-0.00126546,-0.00045698,0.00290545,0.00207222,-0.00379465,0.85452,0.00343555,0.0151427,1658,1632,9.90726,-20.4735
441,-608,9.90503,20.1859,-0.000901815,-0.000350675,0.00215247,0.00154379,-0.00279628,0.849064,0.00254028,0.0133844,1665,1632,9.90498,-20.1859
448,-608,9.92163,19.8936,-0.000426254,-0.000171597,0.00132179,0.00102898,-0.00162683,0.833415,0.00154623,0.0149606,1672,1632,9.92169,-19.8935
455,-608,9.94214,19.5933,6.43439e-05,-6.30286e-05,0.000516229,0.000520801,-0.000519485,0.724024,0.00060061,0.0113328,1679,1632,9.94217,-19.5932
462,-608,9.92517,19.2913,0.000723796,0.000108696,-0.000432024,0.000946559,-0.000114067,-0.47607,0.000672295,0.0102928,1686,1632,9.92521,-19.2913
469,-608,9.89307,19.0059,0.00144544,0.000264324,-0.00134592,0.00232466,-0.000614896,-0.578657,0.00179029,0.00811648,1693,1632,9.89302,-19.0059
476,-608,9.87,18.7092,0.00205935,0.000379601,-0.00222448,0.00359722,-0.00115827,-0.604891,0.00286342,0.00825359,1700,1632,9.87002,-18.7092
483,-608,9.86707,18.396,0.00239249,0.000613381,-0.00290218,0.00453839,-0.00153252,-0.636688,0.00364544,0.00796138,1707,1632,9.86701,-18.396
490,-608,9.88513,18.0748,0.0025718,0.000784937,-0.00353917,0.00532857,-0.00197183,-0.661761,0.00436088,0.00899708,1714,1632,9.88513,-18.0749
497,-608,9.89063,17.7395,0.00245184,0.00112737,-0.00410707,0.00594972,-0.00237052,-0.705465,0.00494963,0.017742,1721,1632,9.89063,-17.7395
504,-608,9.82385,17.4388,0.00161569,0.00150129,-0.00412993,0.00568881,-0.00257183,-0.778474,0.00488115,0.0397348,1728,1632,9.82386,-17.4389
511,-608,9.5564,17.1846,0,0,0,0,0,0,0,-1,1735,1632,9.55645,-17.1845
518,-608,9.91895,16.7523,0,0,0,0,0,0,0,-1,1742,1632,9.91893,-16.7523
525,-608,10.3335,15.7838,0,0,0,0,0,0,0,-1,1749,1632,10.3335,-15.7839
532,-608,8.27917,11.6693,0,0,0,0,0,0,0,-1,1756,1632,8.27919,-11.6694
539,-608,9.40796,1.43457,0,0,0,0,0,0,0,-1,1763,1632,9.40801,-1.43463
546,-608,9.94031,2.1134,0,0,0,0,0,0,0,-1,1770,1632,9.94031,-2.11346
553,-608,10.363,2.81335,0,0,0,0,0,0,0,-1,1777,1632,10.3631,-2.81333
560,-608,9.23999,4.5636,0,0,0,0,0,0,0,-1,1784,1632,9.24,-4.56354
567,-608,0,0,0,0,0,0,0,0,0,-1,1791,1632,0,0
574,-608,0,0,0,0,0,0,0,0,0,-1,1798,1632,0,0
581,-608,0,0,0,0,0,0,0,0,0,-1,1805,1632,0,0
588,-608,0,0,0,0,0,0,0,0,0,-1,1812,1632,0,0
595,-608,0,0,0,0,0,0,0,0,0,-1,1819,1632,0,0
602,-608,0,0,0,0,0,0,0,0,0,-1,1826,1632,0,0
609,-608,0,0,0,0,0,0,0,0,0,-1,1833,1632,0,0
616,-608,0,0,0,0,0,0,0,0,0,-1,1840,1632,0,0
623,-608,0,0,0,0,0,0,0,0,0,-1,1847,1632,0,0
630,-608,0,0,0,0,0,0,0,0,0,-1,1854,1632,0,0
637,-608,0,0,0,0,0,0,0,0,0,-1,1861,1632,0,0
644,-608,0,0,0,0,0,0,0,0,0,-1,1868,1632,0,0
651,-608,0,0,0,0,0,0,0,0,0,-1,1875,1632,0,0
658,-608,0,0,0,0,0,0,0,0,0,-1,1882,1632,0,0
665,-608,0,0,0,0,0,0,0,0,0,-1,1889,1632,0,0
672,-608,0,0,0,0,0,0,0,0,0,-1,1896,1632,0,0
679,-608,0,0,0,0,0,0,0,0,0,-1,1903,1632,0,0
686,-608,0,0,0,0,0,0,0,0,0,-1,1910,1632,0,0
693,-608,0,0,0,0,0,0,0,0,0,-1,1917,1632,0,0
700,-608,0,0,0,0,0,0,0,0,0,-1,1924,1632,0,0
707,-608,0,0,0,0,0,0,0,0,0,-1,1931,1632,0,0
714,-608,0,0,0,0,0,0,0,0,0,-1,1938,1632,0,0
721,-608,0,0,0,0,0,0,0,0,0,-1,1945,1632,0,0
728,-608,0,0,0,0,0,0,0,0,0,-1,1952,1632,0,0
735,-608,0,0,0,0,0,0,0,0,0,-1,1959,1632,0,0
742,-608,0,0,0,0,0,0,0,0,0,-1,1966,1632,0,0
749,-608,0,0,0,0,0,0,0,0,0,-1,1973,1632,0,0
756,-608,0,0,0,0,0,0,0,0,0,-1,1980,1632,0,0
763,-608,0,0,0,0,0,0,0,0,0,-1,1987,1632,0,0
770,-608,0,0,0,0,0,0,0,0,0,-1,1994,1632,0,0
777,-608,0,0,0,0,0,0,0,0,0,-1,2001,1632,0,0
784,-608,0,0,0,0,0,0,0,0,0,-1,2008,1632,0,0
791,-608,0,0,0,0,0,0,0,0,0,-1,2015,1632,0,0
798,-608,0,0,0,0,0,0,0,0,0,-1,2022,1632,0,0
805,-608,0,0,0,0,0,0,0,0,0,-1,2029,1632,0,0
812,-608,0,0,0,0,0,0,0,0,0,-1,2036,1632,0,0
-700,-615,0,0,0,0,0,0,0,0,0,-1,524,1639,0,0
-693,-615,0,0,0,0,0,0,0,0,0,-1,531,1639,0,0
-686,-615,0,0,0,0,0,0,0,0,0,-1,538,1639,0,0
-679,-615,0,0,0,0,0,0,0,0,0,-1,545,1639,0,0
-672,-615,0,0,0,0,0,0,0,0,0,-1,552,1639,0,0
-665,-615,0,0,0,0,0,0,0,0,0,-1,559,1639,0,0
-658,-615,0,0,0,0,0,0,0,0,0,-1,566,1639,0,0
-651,-615,0,0,0,0,0,0,0,0,0,-1,573,1639,0,0
-644,-615,0,0,0,0,0,0,0,0,0,-1,580,1639,0,0
-637,-615,0,0,0,0,0,0,0,0,0,-1,587,1639,0,0
-630,-615,0,0,0,0,0,0,0,0,0,-1,594,1639,0,0
-623,-615,0,0,0,0,0,0,0,0,0,-1,601,1639,0,0
-616,-615,0,0,0,0,0,0,0,0,0,-1,608,1639,0,0
-609,-615,0,0,0,0,0,0,0,0,0,-1,615,1639,0,0
-602,-615,0,0,0,0,0,0,0,0,0,-1,622,1639,0,0
-595,-615,0,0,0,0,0,0,0,0,0,-1,629,1639,0,0
-588,-615,0,0,0,0,0,0,0,0,0,-1,636,1639,0,0
-581,-615,0,0,0,0,0,0,0,0,0,-1,643,1639,0,0
-574,-615,0,0,0,0,0,0,0,0,0,-1,650,1639,0,0
-567,-615,0,0,0,0,0,0,0,0,0,-1,657,1639,0,0
-560,-615,0,0,0,0,0,0,0,0,0,-1,664,1639,0,0
-553,-615,0,0,0,0,0,0,0,0,0,-1,671,1639,0,0
-546,-615,0,0,0,0,0,0,0,0,0,-1,678,1639,0,0
-539,-615,0,0,0,0,0,0,0,0,0,-1,685,1639,0,0
-532,-615,0,0,0,0,0,0,0,0,0,-1,692,1639,0,0
-525,-615,0,0,0,0,0,0,0,0,0,-1,699,1639,0,0
-518,-615,0,0,0,0,0,0,0,0,0,-1,706,1639,0,0
-511,-615,0,0,0,0,0,0,0,0,0,-1,713,1639,0,0
-504,-615,0,0,0,0,0,0,0,0,0,-1,720,1639,0,0
-497,-615,0,0,0,0,0,0,0,0,0,-1,727,1639,0,0
-490,-615,0,0,0,0,0,0,0,0,0,-1,734,1639,0,0
-483,-615,0,0,0,0,0,0,0,0,0,-1,741,1639,0,0
-476,-615,0,0,0,0,0,0,0,0,0,-1,748,1639,0,0
-469,-615,0,0,0,0,0,0,0,0,0,-1,755,1639,0,0
-462,-615,0,0,0,0,0,0,0,0,0,-1,762,1639,0,0
-455,-615,0,0,0,0,0,0,0,0,0,-1,769,1639,0,0
-448,-615,0,0,0,0,0,0,0,0,0,-1,776,1639,0,0
-441,-615,0,0,0,0,0,0,0,0,0,-1,783,1639,0,0
-434,-615,-7.64508,2.98596,0,0,0,0,0,0,0,-1,790,1639,-7.64505,-2.98594
-427,-615,-9.0011,2.89404,0,0,0,0,0,0,0,-1,797,1639,-9.00107,-2.89399
-420,-615,-8.07568,3.0752,0,0,0,0,0,0,0,-1,804,1639,-8.07569,-3.07514
-413,-615,-7.09149,3.396,0,0,0,0,0,0,0,-1,811,1639,-7.09147,-3.39599
-406,-615,-6.21368,3.7312,0,0,0,0,0,0,0,-1,818,1639,-6.21366,-3.73114
-399,-615,-4.84875,3.91907,0,0,0,0,0,0,0,-1,825,1639,-4.84877,-3.91901
-392,-615,1.7395,13.3127,0,0,0,0,0,0,0,-1,832,1639,1.73953,-13.3128
-385,-615,3.42297,14.9401,0,0,0,0,0,0,0,-1,839,1639,3.42296,-14.94
-378,-615,2.96088,16.0216,0,0,0,0,0,0,0,-1,846,1639,2.96089,-16.0216
-371,-615,3.03082,16.1943,0,0,0,0,0,0,0,-1,853,1639,3.03084,-16.1943
-364,-615,2.8927,16.7047,-0.00469923,-0.00454505,-0.00016328,-0.00444158,-0.00480271,-1.00595,0.00308847,0.0381913,860,1639,2.89269,-16.7047
-357,-615,2.99866,17.1556,-0.00352908,-0.00394131,-0.000175562,-0.00346445,-0.00400595,-0.352759,0.00250968,0.037104,867,1639,2.99868,-17.1557
-350,-615,2.90173,17.4077,-0.0024797,-0.00347422,-8.29476e-05,-0.00247282,-0.00348109,-0.0826431,0.00206825,0.033566,874,1639,2.90176,-17.4077
-343,-615,2.86292,17.649,-0.00168247,-0.00267398,2.14339e-05,-0.001682,-0.00267444,0.0216039,0.0015611,0.0196101,881,1639,2.86291,-17.649
-336,-615,2.88647,18.0038,-0.00101184,-0.00196173,0.0001414,-0.000991235,-0.00198233,0.144681,0.0011445,0.0103243,888,1639,2.88649,-18.0038
-329,-615,2.85651,18.3439,-0.00048552,-0.00107568,0.000280441,-0.000373514,-0.00118769,0.379983,0.000701267,0.00972776,895,1639,2.85648,-18.3438
-322,-615,2.84772,18.6729,-0.000222024,-0.000225987,0.000383729,0.000159729,-0.00060774,0.782817,0.000467587,0.0112183,902,1639,2.84773,-18.6729
-315,-615,2.8598,18.9916,-7.86885e-05,0.000446278,0.000429723,0.000687342,-0.000319752,1.05957,0.000594216,0.013337,909,1639,2.85979,-18.9916
-308,-615,2.84064,19.3138,1.01115e-05,0.000972791,0.000370469,0.00109885,-0.000115949,1.24281,0.000774118,0.0189685,916,1639,2.84064,-19.3138
-301,-615,2.84668,19.6051,0.000129324,0.00137974,0.000323638,0.00145854,5.05242e-05,1.33196,0.000955961,0.0126391,923,1639,2.84667,-19.6051
-294,-615,2.8421,19.9037,0.000335583,0.00144309,0.000187863,0.00147409,0.000304584,1.40726,0.000898576,0.0108763,930,1639,2.84208,-19.9037
-287,-615,2.81537,20.212,0.000558399,0.00135666,2.3674e-05,0.00135737,0.000557697,1.54117,0.000787815,0.00815623,937,1639,2.8154,-20.212
-280,-615,2.82361,20.5066,0.000841665,0.00114244,-0.000150945,0.00120513,0.000778978,-1.17717,0.000705652,0.00877708,944,1639,2.82363,-20.5066
-273,-615,2.82544,20.8046,0.00122045,0.00072633,-0.000324285,0.00138106,0.000565713,-0.459875,0.000801688,0.0101185,951,1639,2.82546,-20.8046
-266,-615,2.82306,21.109,0.00160616,0.000241754,-0.000476593,0.00175615,9.17665e-05,-0.304895,0.00114141,0.0106281,958,1639,2.82303,-21.1091
-259,-615,2.85834,21.3948,0.0020449,-0.000195493,-0.000569315,0.00218127,-0.000331863,-0.235104,0.00157649,0.0117127,965,1639,2.85834,-21.3947
-252,-615,2.86646,21.6697,0.00268299,-0.000545395,-0.000579992,0.00278403,-0.000646431,-0.172471,0.00210485,0.012701,972,1639,2.86647,-21.6697
-245,-615,2.90594,21.9662,0.00348429,-0.00105472,-0.000367069,0.00351378,-0.00108421,-0.0801756,0.00277544,0.0188539,979,1639,2.90595,-21.9661
-238,-615,2.95752,22.2698,0.0044851,-0.00124376,-0.000104183,0.004487,-0.00124566,-0.0181775,0.00348164,0.027569,986,1639,2.95751,-22.2698
-231,-615,3.07623,22.5482,0.00561362,-0.00188241,0.000259854,0.00562262,-0.00189141,0.0346101,0.00451299,0.0455109,993,1639,3.07625,-22.5482
-224,-615,3.22229,23.0114,0,0,0,0,0,0,0,-1,1000,1639,3.22231,-23.0113
-217,-615,3.64392,22.5289,0,0,0,0,0,0,0,-1,1007,1639,3.64393,-22.5289
-210,-615,2.48901,18.9324,0,0,0,0,0,0,0,-1,1014,1639,2.48902,-18.9323
-203,-615,2.13684,18.6173,0,0,0,0,0,0,0,-1,1021,1639,2.13683,-18.6173
-196,-615,4.27161,21.3264,0,0,0,0,0,0,0,-1,1028,1639,4.27165,-21.3264
-189,-615,1.8269,19.6761,0,0,0,0,0,0,0,-1,1035,1639,1.82691,-19.6761
-182,-615,1.63489,20.2278,0,0,0,0,0,0,0,-1,1042,1639,1.63492,-20.2277
-175,-615,-0.609985,13.8434,0,0,0,0,0,0,0,-1,1049,1639,-0.610016,-13.8434
-168,-615,3.85754,15.472,0,0,0,0,0,0,0,-1,1056,1639,3.85757,-15.472
-161,-615,2.15601,20.8517,0,0,0,0,0,0,0,-1,1063,1639,2.15602,-20.8516
-154,-615,-0.602905,24.2504,0,0,0,0,0,0,0,-1,1070,1639,-0.602909,-24.2504
-147,-615,1.52502,17.3442,0,0,0,0,0,0,0,-1,1077,1639,1.52501,-17.3442
-140,-615,3.73401,10.2349,0,0,0,0,0,0,0,-1,1084,1639,3.73402,-10.2348
-133,-615,2.6178,17.45,0,0,0,0,0,0,0,-1,1091,1639,2.61776,-17.4499
-126,-615,4.43408,12.5017,0,0,0,0,0,0,0,-1,1098,1639,4.43403,-12.5018
-119,-615,4.82983,13.9279,0,0,0,0,0,0,0,-1,1105,1639,4.82986,-13.9278
-112,-615,3.65698,14.4874,0,0,0,0,0,0,0,-1,1112,1639,3.65695,-14.4875
-105,-615,0.958496,2.45398,0,0,0,0,0,0,0,-1,1119,1639,0.958452,-2.45398
-98,-615,-0.647705,2.12109,0,0,0,0,0,0,0,-1,1126,1639,-0.647756,-2.12105
-91,-615,-3.07983,2.97375,0,0,0,0,0,0,0,-1,1133,1639,-3.07989,-2.97376
-84,-615,-2.46509,0.703247,0,0,0,0,0,0,0,-1,1140,1639,-2.46505,-0.703273
-77,-615,-3.17859,1.23755,0,0,0,0,0,0,0,-1,1147,1639,-3.17865,-1.23752
-70,-615,-4.03943,1.43335,0,0,0,0,0,0,0,-1,1154,1639,-4.03942,-1.43339
-63,-615,-4.8877,1.45544,0,0,0,0,0,0,0,-1,1161,1639,-4.88766,-1.45549
-56,-615,0,0,0,0,0,0,0,0,0,-1,1168,1639,0,0
-49,-615,0,0,0,0,0,0,0,0,0,-1,1175,1639,0,0
-42,-615,0,0,0,0,0,0,0,0,0,-1,1182,1639,0,0
-35,-615,0,0,0,0,0,0,0,0,0,-1,1189,1639,0,0
-28,-615,0,0,0,0,0,0,0,0,0,-1,1196,1639,0,0
-21,-615,0,0,0,0,0,0,0,0,0,-1,1203,1639,0,0
-14,-615,0,0,0,0,0,0,0,0,0,-1,1210,1639,0,0
-7,-615,0,0,0,0,0,0,0,0,0,-1,1217,1639,0,0
0,-615,0,0,0,0,0,0,0,0,0,-1,1224,1639,0,0
7,-615,0,0,0,0,0,0,0,0,0,-1,1231,1639,0,0
14,-615,0,0,0,0,0,0,0,0,0,-1,1238,1639,0,0
21,-615,0,0,0,0,0,0,0,0,0,-1,1245,1639,0,0
28,-615,0,0,0,0,0,0,0,0,0,-1,1252,1639,0,0
35,-615,0,0,0,0,0,0,0,0,0,-1,1259,1639,0,0
42,-615,0,0,0,0,0,0,0,0,0,-1,1266,1639,0,0
49,-615,0,0,0,0,0,0,0,0,0,-1,1273,1639,0,0
56,-615,0,0,0,0,0,0,0,0,0,-1,1280,1639,0,0
63,-615,0,0,0,0,0,0,0,0,0,-1,1287,1639,0,0
70,-615,0,0,0,0,0,0,0,0,0,-1,1294,1639,0,0
77,-615,0,0,0,0,0,0,0,0,0,-1,1301,1639,0,0
84,-615,0,0,0,0,0,0,0,0,0,-1,1308,1639,0,0
91,-615,0,0,0,0,0,0,0,0,0,-1,1315,1639,0,0
98,-615,0,0,0,0,0,0,0,0,0,-1,1322,1639,0,0
105,-615,0,0,0,0,0,0,0,0,0,-1,1329,1639,0,0
112,-615,0,0,0,0,0,0,0,0,0,-1,1336,1639,0,0
119,-615,0,0,0,0,0,0,0,0,0,-1,1343,1639,0,0
126,-615,0,0,0,0,0,0,0,0,0,-1,1350,1639,0,0
133,-615,0,0,0,0,0,0,0,0,0,-1,1357,1639,0,0
140,-615,0,0,0,0,0,0,0,0,0,-1,1364,1639,0,0
147,-615,0,0,0,0,0,0,0,0,0,-1,1371,1639,0,0
154,-615,0,0,0,0,0,0,0,0,0,-1,1378,1639,0,0
161,-615,0,0,0,0,0,0,0,0,0,-1,1385,1639,0,0
168,-615,0,0,0,0,0,0,0,0,0,-1,1392,1639,0,0
175,-615,5.39648,-2.00879,0,0,0,0,0,0,0,-1,1399,1639,5.3965,2.00881
182,-615,5.65393,-1.51025,0,0,0,0,0,0,0,-1,1406,1639,5.65388,1.51028
189,-615,5.58972,-1.35608,0,0,0,0,0,0,0,-1,1413,1639,5.58967,1.35607
196,-615,5.49915,-0.693604,0,0,0,0,0,0,0,-1,1420,1639,5.4991,0.693602
203,-615,5.33411,-0.226685,0,0,0,0,0,0,0,-1,1427,1639,5.33414,0.226689
210,-615,5.60278,0.108276,0,0,0,0,0,0,0,-1,1434,1639,5.60284,-0.10831
217,-615,6.26331,-0.307373,0,0,0,0,0,0,0,-1,1441,1639,6.26331,0.307372
224,-615,5.45422,-0.333984,0,0,0,0,0,0,0,-1,1448,1639,5.45422,0.333992
231,-615,4.92542,1.80298,0,0,0,0,0,0,0,-1,1455,1639,4.92537,-1.80297
238,-615,4.76355,1.96729,0,0,0,0,0,0,0,-1,1462,1639,4.76357,-1.96734
245,-615,4.08643,3.15906,0,0,0,0,0,0,0,-1,1469,1639,4.08638,-3.159
252,-615,6.37805,3.73889,0,0,0,0,0,0,0,-1,1476,1639,6.37806,-3.73891
259,-615,8.35974,3.16443,0,0,0,0,0,0,0,-1,1483,1639,8.35975,-3.16444
266,-615,10.3414,2.58997,0,0,0,0,0,0,0,-1,1490,1639,10.3414,-2.58996
273,-615,6.57043,1.84766,0,0,0,0,0,0,0,-1,1497,1639,6.5704,-1.84771
280,-615,7.10449,3.23438,0,0,0,0,0,0,0,-1,1504,1639,7.10447,-3.23435
287,-615,7.35779,4.68542,0,0,0,0,0,0,0,-1,1511,1639,7.35776,-4.68546
294,-615,7.63733,6.29114,0,0,0,0,0,0,0,-1,1518,1639,7.63735,-6.29109
301,-615,8.47925,11.452,0,0,0,0,0,0,0,-1,1525,1639,8.47922,-11.452
308,-615,6.8114,10.9059,0,0,0,0,0,0,0,-1,1532,1639,6.81137,-10.9058
315,-615,5.1427,14.7251,0,0,0,0,0,0,0,-1,1539,1639,5.14269,-14.7251
322,-615,7.17981,17.6864,0,0,0,0,0,0,0,-1,1546,1639,7.17985,-17.6864
329,-615,7.62134,20.4354,0,0,0,0,0,0,0,-1,1553,1639,7.62139,-20.4354
336,-615,6.45007,14.1138,0,0,0,0,0,0,0,-1,1560,1639,6.45011,-14.1138
343,-615,2.40491,6.50134,0,0,0,0,0,0,0,-1,1567,1639,2.40489,-6.50137
350,-615,6.4458,15.4594,0,0,0,0,0,0,0,-1,1574,1639,6.44578,-15.4593
357,-615,9.16479,24.2725,0,0,0,0,0,0,0,-1,1581,1639,9.1648,-24.2724
364,-615,9.05933,23.9191,0,0,0,0,0,0,0,-1,1588,1639,9.05938,-23.9191
371,-615,9.33533,23.4783,0.0076822,0.0160417,-0.00590453,0.0190962,0.00462774,-1.0934,0.0115028,0.045733,1595,1639,9.3353,-23.4783
378,-615,9.58398,22.6895,0.00583414,0.0125275,-0.00382104,0.0142602,0.00410138,-1.14505,0.00847713,0.0192501,1602,1639,9.58393,-22.6895
385,-615,9.58752,22.427,0.00426392,0.0091699,-0.0022412,0.0100396,0.00339424,-1.20064,0.00589679,0.0124183,1609,1639,9.58755,-22.427
392,-615,9.60181,22.1427,0.00298466,0.0064954,-0.000847017,0.00668907,0.00279099,-1.34601,0.00387953,0.0111474,1616,1639,9.60186,-22.1427
399,-615,9.59973,21.873,0.00185165,0.00432501,0.000381082,0.00438239,0.00179427,1.42134,0.00254397,0.0117506,1623,1639,9.59969,-21.8731
406,-615,9.59875,21.5968,0.000875408,0.0027344,0.00122234,0.00334051,0.000269303,1.11047,0.00214289,0.0113938,1630,1639,9.59876,-21.5968
413,-615,9.62537,21.3304,0.000109742,0.00130124,0.00184191,0.00264136,-0.00123037,0.941809,0.00228429,0.0118548,1637,1639,9.62539,-21.3305
420,-615,9.62842,21.0444,-0.000294938,0.000492053,0.00209137,0.00222663,-0.00202951,0.878387,0.00245816,0.0124319,1644,1639,9.62844,-21.0444
427,-615,9.63708,20.7478,-0.000461441,-0.000396703,0.00215229,0.00172346,-0.00258161,0.792917,0.00250194,0.0136849,1651,1639,9.63709,-20.7478
434,-615,9.64331,20.4733,-0.000378998,-0.000576948,0.00178529,0.00131006,-0.00226601,0.757707,0.00208909,0.0134327,1658,1639,9.64335,-20.4733
441,-615,9.63123,20.1881,4.86602e-06,-0.000580911,0.00117447,0.000922419,-0.00149846,0.663201,0.00141083,0.0143925,1665,1639,9.63124,-20.1881
448,-615,9.63647,19.901,0.000487118,-0.000502748,0.00045945,0.000667502,-0.000683132,0.374118,0.000779806,0.0143624,1672,1639,9.63653,-19.901
455,-615,9.62659,19.6053,0.00103083,-0.00047488,-0.000272311,0.00107856,-0.000522615,-0.173532,0.000942831,0.0129961,1679,1639,9.62656,-19.6053
462,-615,9.61096,19.3038,0.00175142,-0.000375764,-0.00116348,0.00226419,-0.00088853,-0.415109,0.00187709,0.0136633,1686,1639,9.61097,-19.3039
469,-615,9.58911,19.0092,0.00255075,-0.000222025,-0.00209988,0.00368063,-0.0013519,-0.493635,0.00300743,0.0123432,1693,1639,9.58911,-19.0091
476,-615,9.57068,18.6967,0.00327227,-6.22054e-05,-0.00302608,0.00506001,-0.00184994,-0.533609,0.00413046,0.0105942,1700,1639,9.57068,-18.6967
483,-615,9.58179,18.3646,0.00372054,0.000363799,-0.00387682,0.0062667,-0.00218236,-0.581117,0.00506449,0.0149406,1707,1639,9.58179,-18.3647
490,-615,9.59326,18.0544,0.00404082,0.000802616,-0.00481358,0.0075003,-0.00265687,-0.623161,0.00608243,0.0198428,1714,1639,9.59331,-18.0545
497,-615,9.5282,17.7858,0.0041139,0.00150567,-0.00570019,0.00865726,-0.00303769,-0.672941,0.0070071,0.0324274,1721,1639,9.52822,-17.7857
504,-615,9.26135,17.4536,0,0,0,0,0,0,0,-1,1728,1639,9.26139,-17.4536
511,-615,9.48816,17.1875,0,0,0,0,0,0,0,-1,1735,1639,9.48821,-17.1875
518,-615,13.2416,9.81812,0,0,0,0,0,0,0,-1,1742,1639,13.2416,-9.81813
525,-615,4.37524,3.90491,0,0,0,0,0,0,0,-1,1749,1639,4.37518,-3.90495
532,-615,7.3645,0.848145,0,0,0,0,0,0,0,-1,1756,1639,7.36451,-0.848093
539,-615,12.8112,-0.0476074,0,0,0,0,0,0,0,-1,1763,1639,12.8111,0.0475553
546,-615,8.33813,2.94556,0,0,0,0,0,0,0,-1,1770,1639,8.33813,-2.9455
553,-615,5.82532,-2.04199,0,0,0,0,0,0,0,-1,1777,1639,5.82534,2.04195
560,-615,0,0,0,0,0,0,0,0,0,-1,1784,1639,0,0
567,-615,0,0,0,0,0,0,0,0,0,-1,1791,1639,0,0
574,-615,0,0,0,0,0,0,0,0,0,-1,1798,1639,0,0
581,-615,0,0,0,0,0,0,0,0,0,-1,1805,1639,0,0
588,-615,0,0,0,0,0,0,0,0,0,-1,1812,1639,0,0
595,-615,0,0,0,0,0,0,0,0,0,-1,1819,1639,0,0
602,-615,0,0,0,0,0,0,0,0,0,-1,1826,1639,0,0
609,-615,0,0,0,0,0,0,0,0,0,-1,1833,1639,0,0
616,-615,0,0,0,0,0,0,0,0,0,-1,1840,1639,0,0
623,-615,0,0,0,0,0,0,0,0,0,-1,1847,1639,0,0
630,-615,0,0,0,0,0,0,0,0,0,-1,1854,1639,0,0
637,-615,0,0,0,0,0,0,0,0,0,-1,1861,1639,0,0
644,-615,0,0,0,0,0,0,0,0,0,-1,1868,1639,0,0
651,-615,0,0,0,0,0,0,0,0,0,-1,1875,1639,0,0
658,-615,0,0,0,0,0,0,0,0,0,-1,1882,1639,0,0
665,-615,0,0,0,0,0,0,0,0,0,-1,1889,1639,0,0
672,-615,0,0,0,0,0,0,0,0,0,-1,1896,1639,0,0
679,-615,0,0,0,0,0,0,0,0,0,-1,1903,1639,0,0
686,-615,0,0,0,0,0,0,0,0,0,-1,1910,1639,0,0
693,-615,0,0,0,0,0,0,0,0,0,-1,1917,1639,0,0
700,-615,0,0,0,0,0,0,0,0,0,-1,1924,1639,0,0
707,-615,0,0,0,0,0,0,0,0,0,-1,1931,1639,0,0
714,-615,0,0,0,0,0,0,0,0,0,-1,1938,1639,0,0
721,-615,0,0,0,0,0,0,0,0,0,-1,1945,1639,0,0
728,-615,0,0,0,0,0,0,0,0,0,-1,1952,1639,0,0
735,-615,0,0,0,0,0,0,0,0,0,-1,1959,1639,0,0
742,-615,0,0,0,0,0,0,0,0,0,-1,1966,1639,0,0
749,-615,0,0,0,0,0,0,0,0,0,-1,1973,1639,0,0
756,-615,0,0,0,0,0,0,0,0,0,-1,1980,1639,0,0
763,-615,0,0,0,0,0,0,0,0,0,-1,1987,1639,0,0
770,-615,0,0,0,0,0,0,0,0,0,-1,1994,1639,0,0
777,-615,0,0,0,0,0,0,0,0,0,-1,2001,1639,0,0
784,-615,0,0,0,0,0,0,0,0,0,-1,2008,1639,0,0
791,-615,0,0,0,0,0,0,0,0,0,-1,2015,1639,0,0
798,-615,0,0,0,0,0,0,0,0,0,-1,2022,1639,0,0
805,-615,0,0,0,0,0,0,0,0,0,-1,2029,1639,0,0
812,-615,0,0,0,0,0,0,0,0,0,-1,2036,1639,0,0
-700,-622,0,0,0,0,0,0,0,0,0,-1,524,1646,0,0
-693,-622,0,0,0,0,0,0,0,0,0,-1,531,1646,0,0
-686,-622,0,0,0,0,0,0,0,0,0,-1,538,1646,0,0
-679,-622,0,0,0,0,0,0,0,0,0,-1,545,1646,0,0
-672,-622,0,0,0,0,0,0,0,0,0,-1,552,1646,0,0
-665,-622,0,0,0,0,0,0,0,0,0,-1,559,1646,0,0
-658,-622,0,0,0,0,0,0,0,0,0,-1,566,1646,0,0
-651,-622,0,0,0,0,0,0,0,0,0,-1,573,1646,0,0
-644,-622,0,0,0,0,0,0,0,0,0,-1,580,1646,0,0
-637,-622,0,0,0,0,0,0,0,0,0,-1,587,1646,0,0
-630,-622,0,0,0,0,0,0,0,0,0,-1,594,1646,0,0
-623,-622,0,0,0,0,0,0,0,0,0,-1,601,1646,0,0
-616,-622,0,0,0,0,0,0,0,0,0,-1,608,1646,0,0
-609,-622,0,0,0,0,0,0,0,0,0,-1,615,1646,0,0
-602,-622,0,0,0,0,0,0,0,0,0,-1,622,1646,0,0
-595,-622,0,0,0,0,0,0,0,0,0,-1,629,1646,0,0
-588,-622,0,0,0,0,0,0,0,0,0,-1,636,1646,0,0
-581,-622,0,0,0,0,0,0,0,0,0,-1,643,1646,0,0
-574,-622,0,0,0,0,0,0,0,0,0,-1,650,1646,0,0
-567,-622,0,0,0,0,0,0,0,0,0,-1,657,1646,0,0
-560,-622,0,0,0,0,0,0,0,0,0,-1,664,1646,0,0
-553,-622,0,0,0,0,0,0,0,0,0,-1,671,1646,0,0
-546,-622,0,0,0,0,0,0,0,0,0,-1,678,1646,0,0
-539,-622,0,0,0,0,0,0,0,0,0,-1,685,1646,0,0
-532,-622,0,0,0,0,0,0,0,0,0,-1,692,1646,0,0
-525,-622,0,0,0,0,0,0,0,0,0,-1,699,1646,0,0
-518,-622,0,0,0,0,0,0,0,0,0,-1,706,1646,0,0
-511,-622,0,0,0,0,0,0,0,0,0,-1,713,1646,0,0
-504,-622,0,0,0,0,0,0,0,0,0,-1,720,1646,0,0
-497,-622,0,0,0,0,0,0,0,0,0,-1,727,1646,0,0
-490,-622,0,0,0,0,0,0,0,0,0,-1,734,1646,0,0
-483,-622,0,0,0,0,0,0,0,0,0,-1,741,1646,0,0
-476,-622,0,0,0,0,0,0,0,0,0,-1,748,1646,0,0
-469,-622,0,0,0,0,0,0,0,0,0,-1,755,1646,0,0
-462,-622,0,0,0,0,0,0,0,0,0,-1,762,1646,0,0
-455,-622,0,0,0,0,0,0,0,0,0,-1,769,1646,0,0
-448,-622,0,0,0,0,0,0,0,0,0,-1,776,1646,0,0
-441,-622,0,0,0,0,0,0,0,0,0,-1,783,1646,0,0
-434,-622,0,0,0,0,0,0,0,0,0,-1,790,1646,0,0
-427,-622,-7.62891,3.48096,0,0,0,0,0,0,0,-1,797,1646,-7.62892,-3.48092
-420,-622,-9.35791,1.77185,0,0,0,0,0,0,0,-1,804,1646,-9.35789,-1.77183
-413,-622,-8.46075,1.96777,0,0,0,0,0,0,0,-1,811,1646,-8.46074,-1.96774
-406,-622,-4.44318,2.16858,0,0,0,0,0,0,0,-1,818,1646,-4.44315,-2.16859
-399,-622,-7.06976,1.51001,0,0,0,0,0,0,0,-1,825,1646,-7.06976,-1.51005
-392,-622,3.89551,5.85376,0,0,0,0,0,0,0,-1,832,1646,3.8955,-5.85379
-385,-622,2.00543,14.0448,0,0,0,0,0,0,0,-1,839,1646,2.00544,-14.0448
-378,-622,1.49036,15.3436,0,0,0,0,0,0,0,-1,846,1646,1.49033,-15.3436
-371,-622,2.75873,16.0638,0,0,0,0,0,0,0,-1,853,1646,2.75872,-16.0639
-364,-622,2.86011,16.6462,0,0,0,0,0,0,0,-1,860,1646,2.86008,-16.6463
-357,-622,3.43152,17.2594,0,0,0,0,0,0,0,-1,867,1646,3.43151,-17.2594
-350,-622,3.26788,17.5392,-0.00311113,-0.00447279,-0.00018027,-0.00308767,-0.00449625,-0.12942,0.00265556,0.0484317,874,1646,3.26786,-17.5391
-343,-622,3.13031,17.7261,-0.00221274,-0.00350798,-8.96672e-05,-0.00220656,-0.00351416,-0.0687909,0.00205091,0.0256749,881,1646,3.13031,-17.7261
-336,-622,3.1936,18.0128,-0.00151632,-0.00291806,4.30413e-05,-0.001515,-0.00291938,0.0306671,0.00168591,0.00909779,888,1646,3.19359,-18.0128
-329,-622,3.16669,18.3285,-0.000971948,-0.00204083,0.000173778,-0.000944405,-0.00206837,0.157188,0.00119567,0.0077241,895,1646,3.16671,-18.3285
-322,-622,3.16028,18.6564,-0.000650466,-0.0012229,0.000293418,-0.000526788,-0.00134658,0.39891,0.000783559,0.00986934,902,1646,3.1603,-18.6564
-315,-622,3.15631,18.9917,-0.000469649,-0.000599379,0.000341361,-0.000187045,-0.000881983,0.691509,0.000536619,0.0138214,909,1646,3.1563,-18.9918
-308,-622,3.16406,19.2891,-0.000341089,-0.000113793,0.000283241,7.77493e-05,-0.000532632,0.976186,0.000383639,0.0135776,916,1646,3.16404,-19.289
-301,-622,3.16681,19.585,-0.000160417,0.000289604,0.000268777,0.000415123,-0.000285936,1.1339,0.000407041,0.0129521,923,1646,3.16679,-19.5849
-294,-622,3.13953,19.9121,0.000118307,0.000420013,0.000189629,0.000511473,2.68465e-05,1.1214,0.000332395,0.0102996,930,1646,3.13953,-19.9121
-287,-622,3.13092,20.2191,0.000383711,0.000433655,7.87136e-05,0.000491263,0.000326103,0.939004,0.00028866,0.00799867,937,1646,3.13091,-20.2191
-280,-622,3.13538,20.5161,0.000686757,0.00037786,-4.26751e-05,0.000692544,0.000372073,-0.13479,0.00040021,0.00861386,944,1646,3.13536,-20.5161
-273,-622,3.14526,20.8002,0.00108896,0.000197868,-0.000143017,0.00111135,0.000175476,-0.155302,0.000689886,0.0122148,951,1646,3.14524,-20.8001
-266,-622,3.1333,21.0936,0.00149883,1.27859e-05,-0.000221279,0.00153108,-1.94638e-05,-0.144723,0.00102727,0.0121339,958,1646,3.1333,-21.0936
-259,-622,3.13959,21.4042,0.0019266,-0.000110118,-0.000271524,0.00196218,-0.000145694,-0.130283,0.00135929,0.0121894,965,1646,3.13959,-21.4042
-252,-622,3.13678,21.6669,0.0024935,-0.000153954,-0.000243206,0.00251566,-0.00017611,-0.090851,0.00173878,0.0123481,972,1646,3.13676,-21.6669
-245,-622,3.17847,21.9401,0.00316843,-0.000199861,-4.11176e-05,0.00316893,-0.000200363,-0.0122048,0.00218248,0.00939778,979,1646,3.17849,-21.9401
-238,-622,3.18298,22.2307,0.00399399,-0.000137642,0.000172055,0.00400114,-0.000144795,0.0415474,0.00271698,0.010706,986,1646,3.18297,-22.2307
-231,-622,3.24451,22.5342,0.0049017,-0.000579548,0.000525923,0.0049517,-0.000629554,0.0947971,0.00352975,0.0170375,993,1646,3.24451,-22.5341
-224,-622,3.36749,22.722,0.00575567,-0.000301385,0.000971888,0.00590779,-0.000453509,0.155265,0.00409807,0.0296777,1000,1646,3.36752,-22.7221
-217,-622,3.46234,22.9512,0,0,0,0,0,0,0,-1,1007,1646,3.46237,-22.9512
-210,-622,3.13586,23.6356,0,0,0,0,0,0,0,-1,1014,1646,3.13585,-23.6356
-203,-622,4.21375,20.9574,0,0,0,0,0,0,0,-1,1021,1646,4.21375,-20.9574
-196,-622,4.18518,21.2491,0,0,0,0,0,0,0,-1,1028,1646,4.18521,-21.2491
-189,-622,3.9353,24.0835,0,0,0,0,0,0,0,-1,1035,1646,3.93527,-24.0835
-182,-622,2.21411,20.6752,0,0,0,0,0,0,0,-1,1042,1646,2.21416,-20.6751
-175,-622,2.56091,11.0195,0,0,0,0,0,0,0,-1,1049,1646,2.56095,-11.0195
-168,-622,4.42639,22.1844,0,0,0,0,0,0,0,-1,1056,1646,4.42636,-22.1845
-161,-622,0.614014,23.908,0,0,0,0,0,0,0,-1,1063,1646,0.614062,-23.908
-154,-622,0.747803,24.7191,0,0,0,0,0,0,0,-1,1070,1646,0.747742,-24.7191
-147,-622,0.88147,25.5303,0,0,0,0,0,0,0,-1,1077,1646,0.881423,-25.5302
-140,-622,3.27515,16.0353,0,0,0,0,0,0,0,-1,1084,1646,3.27519,-16.0353
-133,-622,3.09644,17.677,0,0,0,0,0,0,0,-1,1091,1646,3.09638,-17.677
-126,-622,3.5061,19.5251,0,0,0,0,0,0,0,-1,1098,1646,3.50616,-19.5252
-119,-622,4.06384,13.1715,0,0,0,0,0,0,0,-1,1105,1646,4.06379,-13.1716
-112,-622,4.33276,14.6605,0,0,0,0,0,0,0,-1,1112,1646,4.33281,-14.6605
-105,-622,0.306519,4.38159,0,0,0,0,0,0,0,-1,1119,1646,0.306536,-4.38159
-98,-622,-0.510376,3.5033,0,0,0,0,0,0,0,-1,1126,1646,-0.510393,-3.50324
-91,-622,-1.146,0.975952,0,0,0,0,0,0,0,-1,1133,1646,-1.14599,-0.97597
-84,-622,-2.04895,1.31787,0,0,0,0,0,0,0,-1,1140,1646,-2.0489,-1.31781
-77,-622,-1.80627,0.332275,0,0,0,0,0,0,0,-1,1147,1646,-1.80622,-0.33223
-70,-622,-3.65588,2.28149,0,0,0,0,0,0,0,-1,1154,1646,-3.65589,-2.28155
-63,-622,-2.49683,1.27087,0,0,0,0,0,0,0,-1,1161,1646,-2.49679,-1.27093
-56,-622,-2.44238,-0.575562,0,0,0,0,0,0,0,-1,1168,1646,-2.44242,0.575508
-49,-622,-2.41089,1.38818,0,0,0,0,0,0,0,-1,1175,1646,-2.41088,-1.38815
-42,-622,-2.71497,2.85242,0,0,0,0,0,0,0,-1,1182,1646,-2.71491,-2.85247
-35,-622,-3.0177,4.25842,0,0,0,0,0,0,0,-1,1189,1646,-3.01773,-4.25838
-28,-622,-0.896606,0.678833,0,0,0,0,0,0,0,-1,1196,1646,-0.89661,-0.678835
-21,-622,3.69312,26.7708,0,0,0,0,0,0,0,-1,1203,1646,3.69309,-26.7708
-14,-622,8.60608,21.3367,0,0,0,0,0,0,0,-1,1210,1646,8.60609,-21.3367
-7,-622,8.58716,21.3455,0,0,0,0,0,0,0,-1,1217,1646,8.5871,-21.3455
0,-622,0,0,0,0,0,0,0,0,0,-1,1224,1646,0,0
7,-622,0,0,0,0,0,0,0,0,0,-1,1231,1646,0,0
14,-622,0,0,0,0,0,0,0,0,0,-1,1238,1646,0,0
21,-622,0,0,0,0,0,0,0,0,0,-1,1245,1646,0,0
28,-622,0,0,0,0,0,0,0,0,0,-1,1252,1646,0,0
35,-622,0,0,0,0,0,0,0,0,0,-1,1259,1646,0,0
42,-622,0,0,0,0,0,0,0,0,0,-1,1266,1646,0,0
49,-622,0,0,0,0,0,0,0,0,0,-1,1273,1646,0,0
56,-622,0,0,0,0,0,0,0,0,0,-1,1280,1646,0,0
63,-622,0,0,0,0,0,0,0,0,0,-1,1287,1646,0,0
70,-622,0,0,0,0,0,0,0,0,0,-1,1294,1646,0,0
77,-622,0,0,0,0,0,0,0,0,0,-1,1301,1646,0,0
84,-622,0,0,0,0,0,0,0,0,0,-1,1308,1646,0,0
91,-622,0,0,0,0,0,0,0,0,0,-1,1315,1646,0,0
98,-622,0,0,0,0,0,0,0,0,0,-1,1322,1646,0,0
105,-622,0,0,0,0,0,0,0,0,0,-1,1329,1646,0,0
112,-622,0,0,0,0,0,0,0,0,0,-1,1336,1646,0,0
119,-622,0,0,0,0,0,0,0,0,0,-1,1343,1646,0,0
126,-622,-9.41492,28.1759,0,0,0,0,0,0,0,-1,1350,1646,-9.41495,-28.1759
133,-622,-10.4301,28.0178,-0.0457262,0.257347,-0.234132,0.384703,-0.173082,-1.07261,0.329672,0.046349,1357,1646,-10.4301,-28.0178
140,-622,-11.2124,27.7208,0,0,0,0,0,0,0,-1,1364,1646,-11.2124,-27.7208
147,-622,-11.9849,27.2885,0,0,0,0,0,0,0,-1,1371,1646,-11.9849,-27.2885
154,-622,15.0535,51.2202,0,0,0,0,0,0,0,-1,1378,1646,15.0535,-51.2202
161,-622,10.6884,6.46448,0,0,0,0,0,0,0,-1,1385,1646,10.6883,-6.46442
168,-622,12.2402,5.18091,0,0,0,0,0,0,0,-1,1392,1646,12.2403,-5.1809
175,-622,5.64355,-1.77075,0,0,0,0,0,0,0,-1,1399,1646,5.64351,1.77077
182,-622,5.88586,-1.32251,0,0,0,0,0,0,0,-1,1406,1646,5.88587,1.32256
189,-622,5.97986,-1.18005,0,0,0,0,0,0,0,-1,1413,1646,5.97986,1.18003
196,-622,5.85022,-0.244507,0,0,0,0,0,0,0,-1,1420,1646,5.85026,0.244478
203,-622,5.25159,0.138794,0,0,0,0,0,0,0,-1,1427,1646,5.25162,-0.138822
210,-622,6.66833,0.0397949,0,0,0,0,0,0,0,-1,1434,1646,6.6684,-0.0398278
217,-622,6.12061,0.0506592,0,0,0,0,0,0,0,-1,1441,1646,6.12058,-0.0507181
224,-622,5.57275,0.0616455,0,0,0,0,0,0,0,-1,1448,1646,5.57276,-0.0616084
231,-622,5.31348,1.3949,0,0,0,0,0,0,0,-1,1455,1646,5.31342,-1.39495
238,-622,3.76477,2.90686,0,0,0,0,0,0,0,-1,1462,1646,3.7648,-2.90686
245,-622,5.13794,2.67993,0,0,0,0,0,0,0,-1,1469,1646,5.13796,-2.67992
252,-622,6.66528,2.53992,0,0,0,0,0,0,0,-1,1476,1646,6.66522,-2.53991
259,-622,8.93787,3.31458,0,0,0,0,0,0,0,-1,1483,1646,8.93791,-3.31454
266,-622,5.72644,3.11926,0,0,0,0,0,0,0,-1,1490,1646,5.72647,-3.1192
273,-622,7.28076,3.61218,0,0,0,0,0,0,0,-1,1497,1646,7.28071,-3.61212
280,-622,8.43127,4.4447,0,0,0,0,0,0,0,-1,1504,1646,8.43123,-4.44467
287,-622,8.60315,5.94617,0,0,0,0,0,0,0,-1,1511,1646,8.60319,-5.94622
294,-622,7.62756,11.5143,0,0,0,0,0,0,0,-1,1518,1646,7.62762,-11.5143
301,-622,7.36548,11.6569,0,0,0,0,0,0,0,-1,1525,1646,7.36549,-11.6569
308,-622,7.10339,11.7994,0,0,0,0,0,0,0,-1,1532,1646,7.10335,-11.7995
315,-622,8.28687,16.5842,0,0,0,0,0,0,0,-1,1539,1646,8.28689,-16.5843
322,-622,7.43689,20.5786,0,0,0,0,0,0,0,-1,1546,1646,7.43685,-20.5786
329,-622,8.92627,24.7278,0,0,0,0,0,0,0,-1,1553,1646,8.92628,-24.7278
336,-622,9.04858,24.4379,0,0,0,0,0,0,0,-1,1560,1646,9.04855,-24.4379
343,-622,9.19055,23.5646,0,0,0,0,0,0,0,-1,1567,1646,9.19057,-23.5645
350,-622,9.17871,23.5574,0,0,0,0,0,0,0,-1,1574,1646,9.17873,-23.5573
357,-622,9.13159,23.8408,0.00832271,0.0188707,-0.0075672,0.0228205,0.00437296,-1.08974,0.0139858,0.0496837,1581,1646,9.13153,-23.8409
364,-622,9.28528,23.3055,0.00739385,0.0159784,-0.00640751,0.0193984,0.00397381,-1.08051,0.0118322,0.0358984,1588,1646,9.28532,-23.3056
371,-622,9.36279,22.8921,0.0061314,0.0129641,-0.00474952,0.0153984,0.00369717,-1.09718,0.00928195,0.0198333,1595,1646,9.36283,-22.8921
378,-622,9.33044,22.6365,0.0048012,0.0103594,-0.00334901,0.0119323,0.00322838,-1.13173,0.00712677,0.0105638,1602,1646,9.3305,-22.6365
385,-622,9.31091,22.3804,0.00364776,0.00773512,-0.00222654,0.00871371,0.00266917,-1.1567,0.00515514,0.010083,1609,1646,9.31095,-22.3803
392,-622,9.32068,22.134,0.00266755,0.0055423,-0.00120942,0.00598342,0.00222643,-1.22105,0.003492,0.0116195,1616,1646,9.32073,-22.134
399,-622,9.32825,21.8627,0.00182847,0.00373968,-0.000307967,0.00378808,0.00178007,-1.41491,0.00218837,0.0116327,1623,1646,9.32825,-21.8627
406,-622,9.33118,21.5848,0.00105879,0.00238388,0.000360682,0.00247569,0.000966972,1.32153,0.0014407,0.0146304,1630,1646,9.33114,-21.5848
413,-622,9.34863,21.3187,0.000451143,0.00112087,0.00093762,0.00178163,-0.000209618,0.956909,0.00126343,0.0152861,1637,1646,9.34861,-21.3187
420,-622,9.35364,21.0616,0.000211342,0.0002787,0.00122655,0.00147204,-0.000981994,0.799124,0.00142622,0.0145358,1644,1646,9.35369,-21.0616
427,-622,9.34509,20.7667,0.000226552,-0.000705954,0.00126604,0.00110946,-0.00158887,0.608967,0.00156606,0.0115778,1651,1646,9.34509,-20.7667
434,-622,9.34717,20.4855,0.000393766,-0.000888951,0.000933347,0.000884872,-0.00138006,0.48437,0.00131803,0.012827,1658,1646,9.34717,-20.4854
441,-622,9.33765,20.2048,0.000854429,-0.000970314,0.000409258,0.000942015,-0.0010579,0.21083,0.0011553,0.0153956,1665,1646,9.33764,-20.2049
448,-622,9.31958,19.9377,0.00140653,-0.000976169,-0.000234536,0.0014294,-0.000999036,-0.09719,0.00140938,0.0135725,1672,1646,9.31962,-19.9377
455,-622,9.30042,19.6125,0.00206403,-0.00101868,-0.00092917,0.00232244,-0.00127708,-0.271248,0.00210719,0.0150904,1679,1646,9.30046,-19.6126
462,-622,9.32263,19.3307,0.00291403,-0.000990024,-0.0018032,0.00361943,-0.00169543,-0.372893,0.00313484,0.0171306,1686,1646,9.32259,-19.3306
469,-622,9.31287,19.0537,0.00387054,-0.000842582,-0.0028138,0.00518425,-0.00215629,-0.436802,0.00435659,0.0181605,1693,1646,9.31282,-19.0537
476,-622,9.32617,18.7296,0.0047747,-0.000638111,-0.00384382,0.00676932,-0.00263272,-0.478664,0.00560066,0.01891,1700,1646,9.32612,-18.7297
483,-622,9.3031,18.4258,0.00541887,4.33625e-06,-0.00495063,0.00835412,-0.00293091,-0.535186,0.00676155,0.0282411,1707,1646,9.30305,-18.4258
490,-622,9.32129,18.0784,0.00595079,0.000801145,-0.00630714,0.0101884,-0.0034365,-0.591604,0.008182,0.0334192,1714,1646,9.32127,-18.0783
497,-622,9.39673,17.6108,0.00630811,0.00204439,-0.00769429,0.0121604,-0.00380792,-0.650253,0.00963055,0.0478435,1721,1646,9.39674,-17.6108
504,-622,9.38538,17.0389,0,0,0,0,0,0,0,-1,1728,1646,9.38534,-17.0389
511,-622,5.29004,4.14587,0,0,0,0,0,0,0,-1,1735,1646,5.29008,-4.14589
518,-622,5.6001,1.55359,0,0,0,0,0,0,0,-1,1742,1646,5.60015,-1.5536
525,-622,5.83093,2.01807,0,0,0,0,0,0,0,-1,1749,1646,5.83097,-2.01802
532,-622,5.44202,0.57373,0,0,0,0,0,0,0,-1,1756,1646,5.44196,-0.573705
539,-622,9.32129,1.06116,0,0,0,0,0,0,0,-1,1763,1646,9.32131,-1.0612
546,-622,6.50977,-3.45618,0,0,0,0,0,0,0,-1,1770,1646,6.50981,3.4562
553,-622,0,0,0,0,0,0,0,0,0,-1,1777,1646,0,0
560,-622,0,0,0,0,0,0,0,0,0,-1,1784,1646,0,0
567,-622,0,0,0,0,0,0,0,0,0,-1,1791,1646,0,0
574,-622,0,0,0,0,0,0,0,0,0,-1,1798,1646,0,0
581,-622,0,0,0,0,0,0,0,0,0,-1,1805,1646,0,0
588,-622,0,0,0,0,0,0,0,0,0,-1,1812,1646,0,0
595,-622,0,0,0,0,0,0,0,0,0,-1,1819,1646,0,0
602,-622,0,0,0,0,0,0,0,0,0,-1,1826,1646,0,0
609,-622,0,0,0,0,0,0,0,0,0,-1,1833,1646,0,0
616,-622,0,0,0,0,0,0,0,0,0,-1,1840,1646,0,0
623,-622,0,0,0,0,0,0,0,0,0,-1,1847,1646,0,0
630,-622,0,0,0,0,0,0,0,0,0,-1,1854,1646,0,0
637,-622,0,0,0,0,0,0,0,0,0,-1,1861,1646,0,0
644,-622,0,0,0,0,0,0,0,0,0,-1,1868,1646,0,0
651,-622,0,0,0,0,0,0,0,0,0,-1,1875,1646,0,0
658,-622,0,0,0,0,0,0,0,0,0,-1,1882,1646,0,0
665,-622,0,0,0,0,0,0,0,0,0,-1,1889,1646,0,0
672,-622,0,0,0,0,0,0,0,0,0,-1,1896,1646,0,0
679,-622,0,0,0,0,0,0,0,0,0,-1,1903,1646,0,0
686,-622,0,0,0,0,0,0,0,0,0,-1,1910,1646,0,0
693,-622,0,0,0,0,0,0,0,0,0,-1,1917,1646,0,0
700,-622,0,0,0,0,0,0,0,0,0,-1,1924,1646,0,0
707,-622,0,0,0,0,0,0,0,0,0,-1,1931,1646,0,0
714,-622,0,0,0,0,0,0,0,0,0,-1,1938,1646,0,0
721,-622,0,0,0,0,0,0,0,0,0,-1,1945,1646,0,0
728,-622,0,0,0,0,0,0,0,0,0,-1,1952,1646,0,0
735,-622,0,0,0,0,0,0,0,0,0,-1,1959,1646,0,0
742,-622,0,0,0,0,0,0,0,0,0,-1,1966,1646,0,0
749,-622,0,0,0,0,0,0,0,0,0,-1,1973,1646,0,0
756,-622,0,0,0,0,0,0,0,0,0,-1,1980,1646,0,0
763,-622,0,0,0,0,0,0,0,0,0,-1,1987,1646,0,0
770,-622,0,0,0,0,0,0,0,0,0,-1,1994,1646,0,0
777,-622,0,0,0,0,0,0,0,0,0,-1,2001,1646,0,0
784,-622,0,0,0,0,0,0,0,0,0,-1,2008,1646,0,0
791,-622,0,0,0,0,0,0,0,0,0,-1,2015,1646,0,0
798,-622,0,0,0,0,0,0,0,0,0,-1,2022,1646,0,0
805,-622,0,0,0,0,0,0,0,0,0,-1,2029,1646,0,0
812,-622,0,0,0,0,0,0,0,0,0,-1,2036,1646,0,0
-700,-629,0,0,0,0,0,0,0,0,0,-1,524,1653,0,0
-693,-629,0,0,0,0,0,0,0,0,0,-1,531,1653,0,0
-686,-629,0,0,0,0,0,0,0,0,0,-1,538,1653,0,0
-679,-629,0,0,0,0,0,0,0,0,0,-1,545,1653,0,0
-672,-629,0,0,0,0,0,0,0,0,0,-1,552,1653,0,0
-665,-629,0,0,0,0,0,0,0,0,0,-1,559,1653,0,0
-658,-629,0,0,0,0,0,0,0,0,0,-1,566,1653,0,0
-651,-629,0,0,0,0,0,0,0,0,0,-1,573,1653,0,0
-644,-629,0,0,0,0,0,0,0,0,0,-1,580,1653,0,0
-637,-629,0,0,0,0,0,0,0,0,0,-1,587,1653,0,0
-630,-629,0,0,0,0,0,0,0,0,0,-1,594,1653,0,0
-623,-629,0,0,0,0,0,0,0,0,0,-1,601,1653,0,0
-616,-629,0,0,0,0,0,0,0,0,0,-1,608,1653,0,0
-609,-629,0,0,0,0,0,0,0,0,0,-1,615,1653,0,0
-602,-629,0,0,0,0,0,0,0,0,0,-1,622,1653,0,0
-595,-629,0,0,0,0,0,0,0,0,0,-1,629,1653,0,0
-588,-629,0,0,0,0,0,0,0,0,0,-1,636,1653,0,0
-581,-629,0,0,0,0,0,0,0,0,0,-1,643,1653,0,0
-574,-629,0,0,0,0,0,0,0,0,0,-1,650,1653,0,0
-567,-629,0,0,0,0,0,0,0,0,0,-1,657,1653,0,0
-560,-629,0,0,0,0,0,0,0,0,0,-1,664,1653,0,0
-553,-629,0,0,0,0,0,0,0,0,0,-1,671,1653,0,0
-546,-629,0,0,0,0,0,0,0,0,0,-1,678,1653,0,0
-539,-629,0,0,0,0,0,0,0,0,0,-1,685,1653,0,0
-532,-629,0,0,0,0,0,0,0,0,0,-1,692,1653,0,0
-525,-629,0,0,0,0,0,0,0,0,0,-1,699,1653,0,0
-518,-629,0,0,0,0,0,0,0,0,0,-1,706,1653,0,0
-511,-629,0,0,0,0,0,0,0,0,0,-1,713,1653,0,0
-504,-629,0,0,0,0,0,0,0,0,0,-1,720,1653,0,0
-497,-629,0,0,0,0,0,0,0,0,0,-1,727,1653,0,0
-490,-629,0,0,0,0,0,0,0,0,0,-1,734,1653,0,0
-483,-629,0,0,0,0,0,0,0,0,0,-1,741,1653,0,0
-476,-629,0,0,0,0,0,0,0,0,0,-1,748,1653,0,0
-469,-629,0,0,0,0,0,0,0,0,0,-1,755,1653,0,0
-462,-629,0,0,0,0,0,0,0,0,0,-1,762,1653,0,0
-455,-629,0,0,0,0,0,0,0,0,0,-1,769,1653,0,0
-448,-629,0,0,0,0,0,0,0,0,0,-1,776,1653,0,0
-441,-629,0,0,0,0,0,0,0,0,0,-1,783,1653,0,0
-434,-629,0,0,0,0,0,0,0,0,0,-1,790,1653,0,0
-427,-629,0,0,0,0,0,0,0,0,0,-1,797,1653,0,0
-420,-629,-3.87103,3.37634,0,0,0,0,0,0,0,-1,804,1653,-3.87101,-3.37633
-413,-629,-5.69751,1.33582,0,0,0,0,0,0,0,-1,811,1653,-5.69754,-1.3358
-406,-629,2.85406,6.01501,0,0,0,0,0,0,0,-1,818,1653,2.85405,-6.01507
-399,-629,-0.455627,10.8687,0,0,0,0,0,0,0,-1,825,1653,-0.455625,-10.8687
-392,-629,1.15369,11.1295,0,0,0,0,0,0,0,-1,832,1653,1.1537,-11.1295
-385,-629,1.81976,11.6935,0,0,0,0,0,0,0,-1,839,1653,1.81975,-11.6935
-378,-629,2.19452,14.7941,0,0,0,0,0,0,0,-1,846,1653,2.19451,-14.7941
-371,-629,3.16095,14.1219,0,0,0,0,0,0,0,-1,853,1653,3.16093,-14.1219
-364,-629,2.86963,16.6301,0,0,0,0,0,0,0,-1,860,1653,2.8696,-16.6301
-357,-629,3.02155,16.356,0,0,0,0,0,0,0,-1,867,1653,3.02154,-16.356
-350,-629,3.67236,17.7607,0,0,0,0,0,0,0,-1,874,1653,3.67234,-17.7607
-343,-629,3.45502,17.7843,-0.0028273,-0.00426483,-0.000353108,-0.00274524,-0.00434688,-0.22832,0.00253846,0.0445707,881,1653,3.45501,-17.7843
-336,-629,3.47205,18.0315,-0.00212661,-0.00357779,-0.000108036,-0.00211861,-0.00358579,-0.0739046,0.00208161,0.0189859,888,1653,3.47205,-18.0315
-329,-629,3.49536,18.3562,-0.00155925,-0.00263797,0.000101781,-0.00154973,-0.00264749,0.0932563,0.00153594,0.0114862,895,1653,3.49537,-18.3562
-322,-629,3.49854,18.6586,-0.00113615,-0.00182044,0.000310998,-0.00101593,-0.00194066,0.368872,0.00112086,0.0115697,902,1653,3.49855,-18.6585
-315,-629,3.4671,18.9889,-0.000883796,-0.00123706,0.000424454,-0.000600689,-0.00152017,0.588228,0.000884077,0.0151012,909,1653,3.46713,-18.9889
-308,-629,3.45667,19.3082,-0.000693187,-0.000812157,0.000408318,-0.000340044,-0.0011653,0.713066,0.000691954,0.0124878,916,1653,3.45666,-19.3082
-301,-629,3.46454,19.6389,-0.000433158,-0.000457222,0.000438532,-6.49315e-06,-0.000883887,0.771683,0.000587105,0.0110655,923,1653,3.46456,-19.6389
-294,-629,3.45001,19.9445,-7.86688e-05,-0.00031802,0.000407072,0.000225955,-0.000622644,0.64243,0.000507469,0.0120413,930,1653,3.44999,-19.9445
-287,-629,3.43628,20.2284,0.00022243,-0.000284681,0.000324734,0.000380873,-0.000443124,0.453933,0.000476187,0.00933516,937,1653,3.43628,-20.2284
-280,-629,3.43964,20.537,0.000521239,-0.000282811,0.000218309,0.000576688,-0.000338261,0.248735,0.000534191,0.00981786,944,1653,3.43965,-20.537
-273,-629,3.43579,20.8064,0.000907525,-0.00035251,0.00014171,0.000923266,-0.000368251,0.110624,0.000768266,0.0131756,951,1653,3.4358,-20.8063
-266,-629,3.42499,21.0845,0.00130325,-0.000378705,8.26059e-05,0.0013073,-0.000382753,0.0489559,0.00102326,0.0135303,958,1653,3.42502,-21.0845
-259,-629,3.42114,21.3988,0.00168337,-0.000322737,3.78306e-05,0.00168408,-0.00032345,0.0188488,0.00124463,0.015382,965,1653,3.42115,-21.3988
-252,-629,3.42645,21.6727,0.00214372,-0.000189776,2.76641e-05,0.00214405,-0.000190104,0.011853,0.00149676,0.0117161,972,1653,3.42643,-21.6728
-245,-629,3.46265,21.9541,0.00266618,-1.89675e-05,0.000149015,0.00267442,-2.72121e-05,0.0552699,0.00179209,0.00840025,979,1653,3.46262,-21.9541
-238,-629,3.4696,22.2273,0.00329841,0.00022091,0.000316632,0.00333065,0.000188671,0.10147,0.00216029,0.0104167,986,1653,3.46962,-22.2273
-231,-629,3.44928,22.4928,0.00400735,0.000137678,0.000598823,0.0040979,4.713e-05,0.150073,0.00271636,0.0116441,993,1653,3.44926,-22.4928
-224,-629,3.52972,22.8192,0.00465445,0.000483548,0.00089868,0.00483984,0.000298155,0.203441,0.00313191,0.013471,1000,1653,3.52975,-22.8193
-217,-629,3.50189,23.0327,0.00532279,0.000713427,0.00129773,0.00566304,0.000373178,0.256416,0.00365732,0.0240557,1007,1653,3.50186,-23.0328
-210,-629,3.4082,23.3865,0.00531445,0.00122739,0.00220588,0.0062779,0.00026394,0.411792,0.00410012,0.047914,1014,1653,3.4082,-23.3865
-203,-629,3.35205,23.7059,0,0,0,0,0,0,0,-1,1021,1653,3.3521,-23.7059
-196,-629,3.96252,23.9189,0,0,0,0,0,0,0,-1,1028,1653,3.96253,-23.9189
-189,-629,3.84351,23.9904,0,0,0,0,0,0,0,-1,1035,1653,3.84355,-23.9904
-182,-629,3.72803,24.3641,0,0,0,0,0,0,0,-1,1042,1653,3.72803,-24.3641
-175,-629,3.29102,19.1411,0,0,0,0,0,0,0,-1,1049,1653,3.29096,-19.1411
-168,-629,2.74573,25.0173,0,0,0,0,0,0,0,-1,1056,1653,2.74568,-25.0173
-161,-629,3.68115,24.8479,0,0,0,0,0,0,0,-1,1063,1653,3.68112,-24.8479
-154,-629,3.63379,25.7139,0,0,0,0,0,0,0,-1,1070,1653,3.63378,-25.7139
-147,-629,3.30078,26.1517,0,0,0,0,0,0,0,-1,1077,1653,3.30072,-26.1517
-140,-629,2.34851,19.2911,0,0,0,0,0,0,0,-1,1084,1653,2.34853,-19.2911
-133,-629,3.41248,17.6686,0,0,0,0,0,0,0,-1,1091,1653,3.41243,-17.6686
-126,-629,4.01025,19.5328,0,0,0,0,0,0,0,-1,1098,1653,4.01022,-19.5328
-119,-629,4.94177,13.5525,0,0,0,0,0,0,0,-1,1105,1653,4.94172,-13.5525
-112,-629,5.63123,15.9187,0,0,0,0,0,0,0,-1,1112,1653,5.63118,-15.9187
-105,-629,2.15881,4.38342,0,0,0,0,0,0,0,-1,1119,1653,2.15878,-4.38347
-98,-629,0.825806,4.19385,0,0,0,0,0,0,0,-1,1126,1653,0.825779,-4.1939
-91,-629,-0.452271,3.64465,0,0,0,0,0,0,0,-1,1133,1653,-0.452278,-3.6446
-84,-629,-2.6084,0.466797,0,0,0,0,0,0,0,-1,1140,1653,-2.6084,-0.466786
-77,-629,-3.50903,2.10706,0,0,0,0,0,0,0,-1,1147,1653,-3.509,-2.10707
-70,-629,-1.20886,2.52502,0,0,0,0,0,0,0,-1,1154,1653,-1.20886,-2.525
-63,-629,-0.960693,4.30212,0,0,0,0,0,0,0,-1,1161,1653,-0.960691,-4.30215
-56,-629,-1.31934,5.64343,0,0,0,0,0,0,0,-1,1168,1653,-1.31928,-5.6434
-49,-629,-2.15662,2.57458,0,0,0,0,0,0,0,-1,1175,1653,-2.15656,-2.57459
-42,-629,-2.46326,3.91467,0,0,0,0,0,0,0,-1,1182,1653,-2.4633,-3.91466
-35,-629,-2.67261,5.24292,0,0,0,0,0,0,0,-1,1189,1653,-2.67257,-5.24298
-28,-629,-0.402954,-0.866577,0,0,0,0,0,0,0,-1,1196,1653,-0.402943,0.866612
-21,-629,3.45508,27.0596,0,0,0,0,0,0,0,-1,1203,1653,3.45508,-27.0596
-14,-629,8.10059,22.3301,0,0,0,0,0,0,0,-1,1210,1653,8.10063,-22.33
-7,-629,8.1947,22.432,0.00279532,-0.156159,0.0111825,0.00357816,-0.156941,0.0698915,0.10584,0.0492725,1217,1653,8.19472,-22.432
0,-629,8.15063,22.4839,0.0318117,-0.134667,0.0171544,0.0335609,-0.136416,0.10162,0.103953,0.0474115,1224,1653,8.15062,-22.4839
7,-629,8.35168,22.6267,0.0686302,-0.109927,0.0267098,0.07254,-0.113837,0.145349,0.108482,0.0442847,1231,1653,8.35169,-22.6267
14,-629,8.60339,22.8883,0,0,0,0,0,0,0,-1,1238,1653,8.60334,-22.8883
21,-629,8.71521,27.6685,0.146804,-0.0675554,0.0454601,0.156047,-0.0767978,0.200575,0.137004,0.0479976,1245,1653,8.71522,-27.6685
28,-629,10.1282,27.847,0,0,0,0,0,0,0,-1,1252,1653,10.1281,-27.847
35,-629,11.4626,28.0088,0.219566,-0.0108813,0.0550053,0.232022,-0.0233372,0.222694,0.163018,0.0425128,1259,1653,11.4626,-28.0088
42,-629,12.8164,27.9775,0.248667,0.0291315,0.0541512,0.261297,0.0165011,0.229147,0.168967,0.0458173,1266,1653,12.8164,-27.9776
49,-629,14.2767,28.1376,0.26292,0.0673602,0.0442489,0.272467,0.0578141,0.21248,0.165768,0.0476786,1273,1653,14.2768,-28.1376
56,-629,16.0574,28.3135,0.260567,0.102196,0.0264312,0.264862,0.0979014,0.16108,0.154641,0.0476462,1280,1653,16.0573,-28.3134
63,-629,18.2644,28.1472,0.244826,0.133121,0.00210892,0.244866,0.133081,0.0188703,0.141551,0.0441376,1287,1653,18.2644,-28.1473
70,-629,20.1742,27.9485,0.212484,0.156908,-0.0289662,0.224836,0.144556,-0.40308,0.131565,0.0472508,1294,1653,20.1742,-27.9484
77,-629,22.0083,27.7902,0,0,0,0,0,0,0,-1,1301,1653,22.0083,-27.7901
84,-629,-6.70569,34.3767,0,0,0,0,0,0,0,-1,1308,1653,-6.70565,-34.3767
91,-629,-6.96033,33.0507,0,0,0,0,0,0,0,-1,1315,1653,-6.96038,-33.0507
98,-629,-7.34277,31.8345,0.0764878,0.243112,-0.145991,0.32789,-0.00828986,-1.04468,0.221408,0.0470933,1322,1653,-7.3428,-31.8344
105,-629,-7.60803,30.8262,0.0398226,0.25997,-0.175666,0.3572,-0.0574075,-1.06528,0.259396,0.0485703,1329,1653,-7.60807,-30.8262
112,-629,-7.88977,29.8379,0.00483658,0.266188,-0.200427,0.374776,-0.103751,-1.07428,0.290673,0.0483239,1336,1653,-7.88976,-29.8379
119,-629,-8.14221,28.8038,-0.0192708,0.256571,-0.21856,0.377089,-0.139789,-1.06687,0.308725,0.0455173,1343,1653,-8.14217,-28.8039
126,-629,-8.36523,27.8114,0,0,0,0,0,0,0,-1,1350,1653,-8.36521,-27.8115
133,-629,-8.50464,27.1156,0,0,0,0,0,0,0,-1,1357,1653,-8.50468,-27.1157
140,-629,-8.19299,27.4355,0,0,0,0,0,0,0,-1,1364,1653,-8.19295,-27.4356
147,-629,-8.07129,25.886,0,0,0,0,0,0,0,-1,1371,1653,-8.07123,-25.886
154,-629,10.8354,22.9854,0,0,0,0,0,0,0,-1,1378,1653,10.8355,-22.9854
161,-629,10.5461,6.83752,0,0,0,0,0,0,0,-1,1385,1653,10.5461,-6.83758
168,-629,12.0059,5.56348,0,0,0,0,0,0,0,-1,1392,1653,12.0059,-5.56352
175,-629,5.84485,-1.78845,0,0,0,0,0,0,0,-1,1399,1653,5.84479,1.7884
182,-629,5.99036,-1.27783,0,0,0,0,0,0,0,-1,1406,1653,5.99041,1.27778
189,-629,5.97668,-0.748535,0,0,0,0,0,0,0,-1,1413,1653,5.97671,0.748544
196,-629,4.52869,9.24695,0,0,0,0,0,0,0,-1,1420,1653,4.52869,-9.2469
203,-629,3.75085,6.88037,0,0,0,0,0,0,0,-1,1427,1653,3.75087,-6.88032
210,-629,3.5907,6.52637,0,0,0,0,0,0,0,-1,1434,1653,3.59067,-6.52642
217,-629,2.4585,4.84448,0,0,0,0,0,0,0,-1,1441,1653,2.45855,-4.84448
224,-629,1.31982,3.68481,0,0,0,0,0,0,0,-1,1448,1653,1.31986,-3.68487
231,-629,3.63025,1.73499,0,0,0,0,0,0,0,-1,1455,1653,3.6303,-1.735
238,-629,4.26428,2.11255,0,0,0,0,0,0,0,-1,1462,1653,4.26429,-2.11253
245,-629,5.61816,1.95361,0,0,0,0,0,0,0,-1,1469,1653,5.61815,-1.95359
252,-629,7.27136,2.18982,0,0,0,0,0,0,0,-1,1476,1653,7.27131,-2.18985
259,-629,8.67334,2.18628,0,0,0,0,0,0,0,-1,1483,1653,8.6733,-2.18633
266,-629,6.86475,3.72058,0,0,0,0,0,0,0,-1,1490,1653,6.86479,-3.72063
273,-629,7.9021,3.8717,0,0,0,0,0,0,0,-1,1497,1653,7.90205,-3.87171
280,-629,9.70837,4.39087,0,0,0,0,0,0,0,-1,1504,1653,9.7084,-4.39082
287,-629,9.82947,7.19348,0,0,0,0,0,0,0,-1,1511,1653,9.8295,-7.19347
294,-629,6.56555,11.6359,0,0,0,0,0,0,0,-1,1518,1653,6.5656,-11.6358
301,-629,6.93835,15.6102,0,0,0,0,0,0,0,-1,1525,1653,6.93835,-15.6103
308,-629,6.08264,12.1423,0,0,0,0,0,0,0,-1,1532,1653,6.08263,-12.1423
315,-629,6.82043,18.2764,0,0,0,0,0,0,0,-1,1539,1653,6.82049,-18.2764
322,-629,8.67273,24.658,0,0,0,0,0,0,0,-1,1546,1653,8.67279,-24.658
329,-629,8.80383,24.4658,0.00754058,0.018965,-0.00618956,0.0216754,0.00483021,-1.15805,0.0131395,0.0460963,1553,1653,8.8038,-24.4658
336,-629,8.90234,24.2461,0.00735815,0.0183977,-0.00613153,0.021128,0.00462787,-1.15187,0.0128242,0.0447663,1560,1653,8.9024,-24.2461
343,-629,8.97681,24.0125,0,0,0,0,0,0,0,-1,1567,1653,8.97678,-24.0124
350,-629,8.94678,23.5874,0.00679915,0.015786,-0.00595318,0.0187512,0.00383393,-1.10868,0.011439,0.0302793,1574,1653,8.94678,-23.5875
357,-629,9.08508,23.3286,0.00628404,0.0141062,-0.00537263,0.0168406,0.0035497,-1.10002,0.0102508,0.0164128,1581,1653,9.08512,-23.3287
364,-629,9.07336,23.0977,0.00566523,0.0121748,-0.00469409,0.0146321,0.00320791,-1.08853,0.00888071,0.0138364,1588,1653,9.07336,-23.0977
371,-629,9.06506,22.8666,0.0047631,0.0100758,-0.00365356,0.0119366,0.00290229,-1.09972,0.00718831,0.0107667,1595,1653,9.06501,-22.8666
378,-629,9.06287,22.6223,0.00379602,0.00812513,-0.00272644,0.00944177,0.00247937,-1.12091,0.00565232,0.00956158,1602,1653,9.06287,-22.6223
385,-629,9.05188,22.3705,0.00295114,0.0060575,-0.00194787,0.00699562,0.00201303,-1.12197,0.00415845,0.0119244,1609,1653,9.05186,-22.3704
392,-629,9.04749,22.1284,0.00221774,0.00423053,-0.00123456,0.00481692,0.00163135,-1.12736,0.00282889,0.0108359,1616,1653,9.04747,-22.1284
399,-629,9.05481,21.8521,0.00155699,0.00268376,-0.00057635,0.00292634,0.00131441,-1.17241,0.00169243,0.0108724,1623,1653,9.05478,-21.8521
406,-629,9.07373,21.5808,0.000923212,0.00153193,-6.27167e-05,0.00153832,0.000916817,-1.46919,0.000893588,0.0143302,1630,1653,9.07374,-21.5808
413,-629,9.06604,21.3164,0.000446889,0.000482586,0.000445829,0.000910924,1.85512e-05,0.805405,0.000601194,0.0224371,1637,1653,9.06605,-21.3164
420,-629,9.05188,21.0844,0.00036656,-0.000340744,0.000739641,0.000832749,-0.000806932,0.562394,0.000946709,0.0202588,1644,1653,9.05186,-21.0843
427,-629,9.04517,20.8018,0.000583566,-0.00136058,0.000712834,0.000816922,-0.00159393,0.316368,0.0014158,0.0127633,1651,1653,9.04518,-20.8017
434,-629,9.04675,20.5109,0.000861956,-0.00149173,0.000369786,0.000918686,-0.00154846,0.152225,0.00143979,0.010614,1658,1653,9.04672,-20.5108
441,-629,9.05713,20.2269,0.00145126,-0.00159507,-0.000108019,0.00145509,-0.0015989,-0.0353992,0.00176387,0.0150417,1665,1653,9.05717,-20.2269
448,-629,9.03369,19.9316,0.00215995,-0.00164991,-0.000721008,0.00229183,-0.00178179,-0.180916,0.00235804,0.014331,1672,1653,9.03371,-19.9317
455,-629,9.02063,19.6182,0.00305044,-0.0017215,-0.00141604,0.003439,-0.00211007,-0.267808,0.00323424,0.0144313,1679,1653,9.02063,-19.6182
462,-629,9.03967,19.3586,0.0041828,-0.00172104,-0.00232,0.00498537,-0.00252361,-0.333051,0.00441229,0.017748,1686,1653,9.03968,-19.3586
469,-629,9.05078,19.0513,0.00547808,-0.00161623,-0.00345303,0.00688125,-0.0030194,-0.385976,0.0058593,0.0196697,1693,1653,9.05082,-19.0513
476,-629,9.09583,18.7402,0.00678287,-0.00139596,-0.0046674,0.00889893,-0.00351202,-0.425653,0.00738703,0.0281355,1700,1653,9.09583,-18.7402
483,-629,9.0448,18.3059,0.00787387,-0.000544347,-0.00615981,0.0111253,-0.00379579,-0.485677,0.00895446,0.0426698,1707,1653,9.04483,-18.3059
490,-629,9.17627,17.8556,0.00888525,0.000677881,-0.0081163,0.0138763,-0.00431319,-0.551335,0.0109749,0.046028,1714,1653,9.1763,-17.8556
497,-629,9.31653,17.561,0,0,0,0,0,0,0,-1,1721,1653,9.31655,-17.561
504,-629,7.89453,15.5316,0,0,0,0,0,0,0,-1,1728,1653,7.89447,-15.5316
511,-629,6.29138,3.40295,0,0,0,0,0,0,0,-1,1735,1653,6.29137,-3.403
518,-629,5.84387,1.41858,0,0,0,0,0,0,0,-1,1742,1653,5.84391,-1.4186
525,-629,6.4729,1.02319,0,0,0,0,0,0,0,-1,1749,1653,6.47284,-1.02316
532,-629,6.86511,0.903687,0,0,0,0,0,0,0,-1,1756,1653,6.86514,-0.903691
539,-629,6.60803,0.746704,0,0,0,0,0,0,0,-1,1763,1653,6.60809,-0.746691
546,-629,0,0,0,0,0,0,0,0,0,-1,1770,1653,0,0
553,-629,0,0,0,0,0,0,0,0,0,-1,1777,1653,0,0
560,-629,0,0,0,0,0,0,0,0,0,-1,1784,1653,0,0
567,-629,0,0,0,0,0,0,0,0,0,-1,1791,1653,0,0
574,-629,0,0,0,0,0,0,0,0,0,-1,1798,1653,0,0
581,-629,0,0,0,0,0,0,0,0,0,-1,1805,1653,0,0
588,-629,0,0,0,0,0,0,0,0,0,-1,1812,1653,0,0
595,-629,0,0,0,0,0,0,0,0,0,-1,1819,1653,0,0
602,-629,0,0,0,0,0,0,0,0,0,-1,1826,1653,0,0
609,-629,0,0,0,0,0,0,0,0,0,-1,1833,1653,0,0
616,-629,0,0,0,0,0,0,0,0,0,-1,1840,1653,0,0
623,-629,0,0,0,0,0,0,0,0,0,-1,1847,1653,0,0
630,-629,0,0,0,0,0,0,0,0,0,-1,1854,1653,0,0
637,-629,0,0,0,0,0,0,0,0,0,-1,1861,1653,0,0
644,-629,0,0,0,0,0,0,0,0,0,-1,1868,1653,0,0
651,-629,0,0,0,0,0,0,0,0,0,-1,1875,1653,0,0
658,-629,0,0,0,0,0,0,0,0,0,-1,1882,1653,0,0
665,-629,0,0,0,0,0,0,0,0,0,-1,1889,1653,0,0
672,-629,0,0,0,0,0,0,0,0,0,-1,1896,1653,0,0
679,-629,0,0,0,0,0,0,0,0,0,-1,1903,1653,0,0
686,-629,0,0,0,0,0,0,0,0,0,-1,1910,1653,0,0
693,-629,0,0,0,0,0,0,0,0,0,-1,1917,1653,0,0
700,-629,0,0,0,0,0,0,0,0,0,-1,1924,1653,0,0
707,-629,0,0,0,0,0,0,0,0,0,-1,1931,1653,0,0
714,-629,0,0,0,0,0,0,0,0,0,-1,1938,1653,0,0
721,-629,0,0,0,0,0,0,0,0,0,-1,1945,1653,0,0
728,-629,0,0,0,0,0,0,0,0,0,-1,1952,1653,0,0
735,-629,0,0,0,0,0,0,0,0,0,-1,1959,1653,0,0
742,-629,0,0,0,0,0,0,0,0,0,-1,1966,1653,0,0
749,-629,0,0,0,0,0,0,0,0,0,-1,1973,1653,0,0
756,-629,0,0,0,0,0,0,0,0,0,-1,1980,1653,0,0
763,-629,0,0,0,0,0,0,0,0,0,-1,1987,1653,0,0
770,-629,0,0,0,0,0,0,0,0,0,-1,1994,1653,0,0
777,-629,0,0,0,0,0,0,0,0,0,-1,2001,1653,0,0
784,-629,0,0,0,0,0,0,0,0,0,-1,2008,1653,0,0
791,-629,0,0,0,0,0,0,0,0,0,-1,2015,1653,0,0
798,-629,0,0,0,0,0,0,0,0,0,-1,2022,1653,0,0
805,-629,0,0,0,0,0,0,0,0,0,-1,2029,1653,0,0
812,-629,0,0,0,0,0,0,0,0,0,-1,2036,1653,0,0
-700,-636,0,0,0,0,0,0,0,0,0,-1,524,1660,0,0
-693,-636,0,0,0,0,0,0,0,0,0,-1,531,1660,0,0
-686,-636,0,0,0,0,0,0,0,0,0,-1,538,1660,0,0
-679,-636,0,0,0,0,0,0,0,0,0,-1,545,1660,0,0
-672,-636,0,0,0,0,0,0,0,0,0,-1,552,1660,0,0
-665,-636,0,0,0,0,0,0,0,0,0,-1,559,1660,0,0
-658,-636,0,0,0,0,0,0,0,0,0,-1,566,1660,0,0
-651,-636,0,0,0,0,0,0,0,0,0,-1,573,1660,0,0
-644,-636,0,0,0,0,0,0,0,0,0,-1,580,1660,0,0
-637,-636,0,0,0,0,0,0,0,0,0,-1,587,1660,0,0
-630,-636,0,0,0,0,0,0,0,0,0,-1,594,1660,0,0
-623,-636,0,0,0,0,0,0,0,0,0,-1,601,1660,0,0
-616,-636,0,0,0,0,0,0,0,0,0,-1,608,1660,0,0
-609,-636,0,0,0,0,0,0,0,0,0,-1,615,1660,0,0
-602,-636,0,0,0,0,0,0,0,0,0,-1,622,1660,0,0
-595,-636,0,0,0,0,0,0,0,0,0,-1,629,1660,0,0
-588,-636,0,0,0,0,0,0,0,0,0,-1,636,1660,0,0
-581,-636,0,0,0,0,0,0,0,0,0,-1,643,1660,0,0
-574,-636,0,0,0,0,0,0,0,0,0,-1,650,1660,0,0
-567,-636,0,0,0,0,0,0,0,0,0,-1,657,1660,0,0
-560,-636,0,0,0,0,0,0,0,0,0,-1,664,1660,0,0
-553,-636,0,0,0,0,0,0,0,0,0,-1,671,1660,0,0
-546,-636,0,0,0,0,0,0,0,0,0,-1,678,1660,0,0
-539,-636,0,0,0,0,0,0,0,0,0,-1,685,1660,0,0
-532,-636,0,0,0,0,0,0,0,0,0,-1,692,1660,0,0
-525,-636,0,0,0,0,0,0,0,0,0,-1,699,1660,0,0
-518,-636,0,0,0,0,0,0,0,0,0,-1,706,1660,0,0
-511,-636,0,0,0,0,0,0,0,0,0,-1,713,1660,0,0
-504,-636,0,0,0,0,0,0,0,0,0,-1,720,1660,0,0
-497,-636,0,0,0,0,0,0,0,0,0,-1,727,1660,0,0
-490,-636,0,0,0,0,0,0,0,0,0,-1,734,1660,0,0
-483,-636,0,0,0,0,0,0,0,0,0,-1,741,1660,0,0
-476,-636,0,0,0,0,0,0,0,0,0,-1,748,1660,0,0
-469,-636,0,0,0,0,0,0,0,0,0,-1,755,1660,0,0
-462,-636,0,0,0,0,0,0,0,0,0,-1,762,1660,0,0
-455,-636,0,0,0,0,0,0,0,0,0,-1,769,1660,0,0
-448,-636,0,0,0,0,0,0,0,0,0,-1,776,1660,0,0
-441,-636,0,0,0,0,0,0,0,0,0,-1,783,1660,0,0
-434,-636,0,0,0,0,0,0,0,0,0,-1,790,1660,0,0
-427,-636,0,0,0,0,0,0,0,0,0,-1,797,1660,0,0
-420,-636,0,0,0,0,0,0,0,0,0,-1,804,1660,0,0
-413,-636,0,0,0,0,0,0,0,0,0,-1,811,1660,0,0
-406,-636,-0.591125,10.6943,0,0,0,0,0,0,0,-1,818,1660,-0.59115,-10.6943
-399,-636,0.0766602,11.2408,0,0,0,0,0,0,0,-1,825,1660,0.076685,-11.2409
-392,-636,0.75946,11.9233,0,0,0,0,0,0,0,-1,832,1660,0.759481,-11.9233
-385,-636,1.68878,12.517,0,0,0,0,0,0,0,-1,839,1660,1.6888,-12.5169
-378,-636,2.22107,13.0013,0,0,0,0,0,0,0,-1,846,1660,2.22107,-13.0014
-371,-636,2.52185,11.9684,0,0,0,0,0,0,0,-1,853,1660,2.52184,-11.9684
-364,-636,3.14105,14.8937,0,0,0,0,0,0,0,-1,860,1660,3.14104,-14.8936
-357,-636,4.55682,15.8809,0,0,0,0,0,0,0,-1,867,1660,4.55681,-15.8808
-350,-636,2.63104,14.4946,0,0,0,0,0,0,0,-1,874,1660,2.63102,-14.4946
-343,-636,3.6806,17.7731,0,0,0,0,0,0,0,-1,881,1660,3.68063,-17.7731
-336,-636,3.73529,18.069,-0.00283853,-0.00454192,-0.000340174,-0.00277311,-0.00460734,-0.189997,0.0026784,0.0363812,888,1660,3.73527,-18.069
-329,-636,3.80328,18.371,-0.00221365,-0.00364812,-0.000178182,-0.00219185,-0.00366992,-0.12175,0.00213215,0.0197404,895,1660,3.80328,-18.3709
-322,-636,3.80847,18.6794,-0.00165711,-0.00276586,0.000112894,-0.00164573,-0.00277724,0.100448,0.00161258,0.0117421,902,1660,3.80848,-18.6794
-315,-636,3.75366,18.9901,-0.00129341,-0.00214445,0.000333623,-0.00117821,-0.00225965,0.332463,0.00130501,0.0115896,909,1660,3.75365,-18.9902
-308,-636,3.74701,19.3203,-0.00100634,-0.00170798,0.000389998,-0.000832592,-0.00188173,0.419116,0.00108881,0.0107883,916,1660,3.74702,-19.3203
-301,-636,3.75592,19.6481,-0.000644353,-0.0013383,0.000481888,-0.000397519,-0.00158513,0.473378,0.000952317,0.0112964,923,1660,3.75589,-19.6481
-294,-636,3.73468,19.9666,-0.000206016,-0.00110718,0.000513344,2.64446e-05,-0.00133964,0.42521,0.000902035,0.0138904,930,1660,3.7347,-19.9666
-287,-636,3.71704,20.2587,0.000136199,-0.000987133,0.000478714,0.000312527,-0.00116346,0.352917,0.000898129,0.0120514,937,1660,3.71703,-20.2587
-280,-636,3.72986,20.5555,0.000429365,-0.000885086,0.000404897,0.000544076,-0.000999798,0.276076,0.000904208,0.0117115,944,1660,3.72989,-20.5556
-273,-636,3.72668,20.8156,0.000788611,-0.000818148,0.000367637,0.000868733,-0.00089827,0.214584,0.00102023,0.0123499,951,1660,3.72671,-20.8156
-266,-636,3.71466,21.095,0.00115323,-0.000685558,0.000343569,0.00121533,-0.000747655,0.178811,0.001144,0.0137818,958,1660,3.71468,-21.0949
-259,-636,3.71387,21.4064,0.00146981,-0.000484933,0.000323943,0.0015221,-0.000537218,0.160024,0.00123344,0.015354,965,1660,3.71385,-21.4063
-252,-636,3.70593,21.6788,0.0018098,-0.00020934,0.00030347,0.00185443,-0.000253964,0.146,0.00132905,0.0111388,972,1660,3.70596,-21.6788
-245,-636,3.73969,21.9656,0.00217527,7.20229e-05,0.000359373,0.00223498,1.23136e-05,0.164645,0.0014859,0.00982065,979,1660,3.73968,-21.9656
-238,-636,3.7619,22.2299,0.00262672,0.000380137,0.000482642,0.00272602,0.000280838,0.202909,0.00173134,0.011437,986,1660,3.76187,-22.2299
-231,-636,3.74902,22.4861,0.00315741,0.000493042,0.000681001,0.00332138,0.000329072,0.23628,0.00211312,0.0108211,993,1660,3.74903,-22.4861
-224,-636,3.75745,22.7482,0.00363738,0.000784104,0.000836575,0.00386457,0.000556912,0.265179,0.00241227,0.00889346,1000,1660,3.75747,-22.7481
-217,-636,3.74542,23.0499,0.00409548,0.00100276,0.001078,0.00443414,0.000664095,0.304395,0.00276147,0.0141067,1007,1660,3.74545,-23.0499
-210,-636,3.74738,23.3031,0.00413866,0.00140477,0.00174141,0.00498554,0.000557883,0.452645,0.00315422,0.0230107,1014,1660,3.74736,-23.3031
-203,-636,3.79309,23.619,0.00431937,0.00169323,0.00223848,0.00560148,0.000411124,0.520148,0.0036051,0.0291171,1021,1660,3.7931,-23.619
-196,-636,3.94568,23.767,0.00427001,0.00187613,0.0028131,0.00613023,1.59133e-05,0.584257,0.00408153,0.0309216,1028,1660,3.94567,-23.767
-189,-636,3.93335,23.9927,0.00394399,0.00257693,0.00356906,0.00689438,-0.000373465,0.690786,0.00472567,0.0306122,1035,1660,3.93336,-23.9927
-182,-636,4.07593,24.1245,0.00312973,0.00308064,0.00418173,0.00728699,-0.00107662,0.782464,0.00525377,0.0470737,1042,1660,4.07589,-24.1245
-175,-636,4.04578,24.7853,0,0,0,0,0,0,0,-1,1049,1660,4.04581,-24.7853
-168,-636,4.13196,24.7002,0,0,0,0,0,0,0,-1,1056,1660,4.13196,-24.7002
-161,-636,3.90149,24.9575,-0.00045666,0.00529146,0.00661414,0.00962899,-0.00479419,0.990357,0.00848174,0.0490077,1063,1660,3.90154,-24.9575
-154,-636,3.75842,25.8064,0,0,0,0,0,0,0,-1,1070,1660,3.75841,-25.8064
-147,-636,3.57202,26.3693,0,0,0,0,0,0,0,-1,1077,1660,3.57198,-26.3693
-140,-636,3.4729,27.1271,0,0,0,0,0,0,0,-1,1084,1660,3.47287,-27.1271
-133,-636,4.68311,18.0922,0,0,0,0,0,0,0,-1,1091,1660,4.68316,-18.0921
-126,-636,3.79028,18.2225,0,0,0,0,0,0,0,-1,1098,1660,3.79025,-18.2226
-119,-636,1.8667,13.8916,0,0,0,0,0,0,0,-1,1105,1660,1.86668,-13.8916
-112,-636,-1.24963,9.7998,0,0,0,0,0,0,0,-1,1112,1660,-1.24968,-9.79978
-105,-636,3.51624,4.72791,0,0,0,0,0,0,0,-1,1119,1660,3.51618,-4.7279
-98,-636,1.54504,5.11914,0,0,0,0,0,0,0,-1,1126,1660,1.54503,-5.11912
-91,-636,-1.87964,-2.25012,0,0,0,0,0,0,0,-1,1133,1660,-1.87966,2.25016
-84,-636,-2.84143,0.133667,0,0,0,0,0,0,0,-1,1140,1660,-2.84144,-0.133701
-77,-636,-3.57349,2.45935,0,0,0,0,0,0,0,-1,1147,1660,-3.57345,-2.45939
-70,-636,-4.23682,4.82312,0,0,0,0,0,0,0,-1,1154,1660,-4.23681,-4.82307
-63,-636,-2.21033,6.97168,0,0,0,0,0,0,0,-1,1161,1660,-2.21034,-6.97165
-56,-636,-2.51917,8.80359,0,0,0,0,0,0,0,-1,1168,1660,-2.51916,-8.80361
-49,-636,-3.13,10.4113,0,0,0,0,0,0,0,-1,1175,1660,-3.12996,-10.4112
-42,-636,-2.27771,4.90173,0,0,0,0,0,0,0,-1,1182,1660,-2.27775,-4.90173
-35,-636,-2.27698,5.89685,0,0,0,0,0,0,0,-1,1189,1660,-2.27695,-5.89686
-28,-636,-1.70654,4.83936,0,0,0,0,0,0,0,-1,1196,1660,-1.70656,-4.8393
-21,-636,4.24683,27.7834,0,0,0,0,0,0,0,-1,1203,1660,4.24687,-27.7835
-14,-636,8.35938,23.3265,0,0,0,0,0,0,0,-1,1210,1660,8.35942,-23.3265
-7,-636,8.40369,23.4437,0.00530458,-0.137156,0.0122845,0.00635611,-0.138208,0.0853909,0.0943285,0.0461854,1217,1660,8.40364,-23.4437
0,-636,8.11609,23.5015,0.0309976,-0.118859,0.0186589,0.0332859,-0.121148,0.122029,0.093849,0.0467251,1224,1660,8.11609,-23.5014
7,-636,7.8949,23.5507,0.063657,-0.0978609,0.0279416,0.0683541,-0.102558,0.166548,0.0993326,0.0474774,1231,1660,7.89487,-23.5506
14,-636,8.16931,27.5544,0,0,0,0,0,0,0,-1,1238,1660,8.16931,-27.5544
21,-636,8.87,27.5046,0,0,0,0,0,0,0,-1,1245,1660,8.86998,-27.5047
28,-636,9.31055,28.1331,0,0,0,0,0,0,0,-1,1252,1660,9.31049,-28.1331
35,-636,10.845,28.1674,0.189335,0.0187494,0.0457899,0.20085,0.00723538,0.246347,0.131554,0.0445213,1259,1660,10.845,-28.1674
42,-636,12.2928,28.1251,0.209816,0.060015,0.0412828,0.220439,0.0493914,0.251871,0.133575,0.0472475,1266,1660,12.2929,-28.1252
49,-636,13.6442,28.1853,0.220897,0.103474,0.0298307,0.22804,0.0963298,0.235049,0.132186,0.0461832,1273,1660,13.6442,-28.1853
56,-636,15.4427,27.8231,0.218444,0.143322,0.0118861,0.22028,0.141486,0.153238,0.128884,0.0445664,1280,1660,15.4427,-27.8232
63,-636,17.3495,27.6726,0.205814,0.177622,-0.0106844,0.209406,0.174031,-0.324296,0.129434,0.0436636,1287,1660,17.3494,-27.6726
70,-636,19.335,27.3705,0.179489,0.203561,-0.0388154,0.232164,0.150887,-0.935739,0.136033,0.046629,1294,1660,19.335,-27.3705
77,-636,21.1477,27.1731,0,0,0,0,0,0,0,-1,1301,1660,21.1477,-27.1731
84,-636,12.348,37.8523,0,0,0,0,0,0,0,-1,1308,1660,12.348,-37.8523
91,-636,-4.4707,29.1644,0,0,0,0,0,0,0,-1,1315,1660,-4.47073,-29.1644
98,-636,-5.40466,30.4445,0.0631205,0.267677,-0.14717,0.344619,-0.0138213,-1.08907,0.234489,0.0444798,1322,1660,-5.4047,-30.4444
105,-636,-5.63623,29.5334,0.0328432,0.271975,-0.172608,0.362384,-0.0575657,-1.0883,0.262887,0.0480057,1329,1660,-5.63622,-29.5335
112,-636,-6.21948,28.4938,0.0058545,0.268803,-0.192938,0.370803,-0.0961462,-1.08448,0.284715,0.047348,1336,1660,-6.21945,-28.4938
119,-636,-6.26233,27.7742,-0.0117563,0.254192,-0.207591,0.367746,-0.12531,-1.07025,0.295914,0.0499474,1343,1660,-6.26239,-27.7741
126,-636,-6.2782,26.922,-0.0192843,0.237424,-0.215749,0.360112,-0.141973,-1.05374,0.298859,0.0495717,1350,1660,-6.27815,-26.922
133,-636,-6.53088,26.0941,0,0,0,0,0,0,0,-1,1357,1660,-6.53089,-26.0941
140,-636,-6.39331,26.0868,-0.0131727,0.264631,-0.228811,0.3934,-0.141943,-1.0582,0.320244,0.0442816,1364,1660,-6.39332,-26.0868
147,-636,-6.38574,24.738,-0.0143741,0.286327,-0.242533,0.421332,-0.149378,-1.06287,0.341742,0.0458427,1371,1660,-6.38578,-24.7381
154,-636,-6.48169,23.4927,0,0,0,0,0,0,0,-1,1378,1660,-6.48169,-23.4927
161,-636,10.2961,7.13025,0,0,0,0,0,0,0,-1,1385,1660,10.2961,-7.13021
168,-636,11.7659,5.83899,0,0,0,0,0,0,0,-1,1392,1660,11.7658,-5.83899
175,-636,5.94592,-1.72888,0,0,0,0,0,0,0,-1,1399,1660,5.94598,1.72886
182,-636,5.93994,-1.11938,0,0,0,0,0,0,0,-1,1406,1660,5.93998,1.11936
189,-636,5.32544,11.9595,0,0,0,0,0,0,0,-1,1413,1660,5.32542,-11.9595
196,-636,5.3623,9.38025,0,0,0,0,0,0,0,-1,1420,1660,5.36225,-9.38027
203,-636,5.18542,9.02429,0,0,0,0,0,0,0,-1,1427,1660,5.18547,-9.0243
210,-636,4.09167,7.17041,0,0,0,0,0,0,0,-1,1434,1660,4.09173,-7.17041
217,-636,2.94897,5.28992,0,0,0,0,0,0,0,-1,1441,1660,2.94899,-5.28991
224,-636,1.49194,3.63916,0,0,0,0,0,0,0,-1,1448,1660,1.49197,-3.63918
231,-636,0.17749,2.24854,0,0,0,0,0,0,0,-1,1455,1660,0.177501,-2.24855
238,-636,-0.764648,1.00598,0,0,0,0,0,0,0,-1,1462,1660,-0.764704,-1.00595
245,-636,6.21204,1.18005,0,0,0,0,0,0,0,-1,1469,1660,6.21206,-1.18001
252,-636,7.70251,0.865723,0,0,0,0,0,0,0,-1,1476,1660,7.7025,-0.865692
259,-636,9.03601,0.787231,0,0,0,0,0,0,0,-1,1483,1660,9.03598,-0.787243
266,-636,10.1071,3.24109,0,0,0,0,0,0,0,-1,1490,1660,10.1071,-3.24103
273,-636,8.48535,5.02466,0,0,0,0,0,0,0,-1,1497,1660,8.48533,-5.02472
280,-636,8.81384,5.66992,0,0,0,0,0,0,0,-1,1504,1660,8.81381,-5.66998
287,-636,6.08606,11.49,0,0,0,0,0,0,0,-1,1511,1660,6.08606,-11.49
294,-636,6.69592,15.9669,0,0,0,0,0,0,0,-1,1518,1660,6.69595,-15.9669
301,-636,8.25903,23.0582,0,0,0,0,0,0,0,-1,1525,1660,8.25903,-23.0583
308,-636,8.79846,25.4083,0,0,0,0,0,0,0,-1,1532,1660,8.79851,-25.4083
315,-636,8.53369,24.9271,0,0,0,0,0,0,0,-1,1539,1660,8.53366,-24.9271
322,-636,8.54529,24.3209,0,0,0,0,0,0,0,-1,1546,1660,8.54523,-24.3209
329,-636,8.77649,24.1217,0.00557693,0.0128698,-0.00379018,0.0144829,0.00396391,-1.16843,0.00864246,0.0282872,1553,1660,8.77651,-24.1216
336,-636,8.76819,24.0179,0.00537101,0.0126198,-0.0038178,0.0142596,0.0037312,-1.16511,0.00853886,0.0218919,1560,1660,8.76814,-24.0179
343,-636,8.74121,23.8828,0.00511171,0.0120105,-0.00390301,0.0137699,0.00335228,-1.14729,0.00829157,0.021792,1567,1660,8.74121,-23.8829
350,-636,8.74695,23.6021,0.00496618,0.0111165,-0.00394344,0.013042,0.0030406,-1.11655,0.00787922,0.0122106,1574,1660,8.74696,-23.602
357,-636,8.78967,23.3459,0.0046304,0.0101036,-0.00368966,0.0119607,0.00277324,-1.10448,0.00722896,0.00993102,1581,1660,8.78963,-23.3459
364,-636,8.79285,23.1232,0.00420187,0.00879547,-0.00330941,0.010527,0.00247033,-1.08875,0.00635663,0.0104028,1588,1660,8.79281,-23.1231
371,-636,8.80054,22.894,0.00357817,0.00739979,-0.0027538,0.00884079,0.00213717,-1.0887,0.00532636,0.0093772,1595,1660,8.80055,-22.8941
378,-636,8.81189,22.6388,0.00292958,0.00597661,-0.00221987,0.00714547,0.00176072,-1.08614,0.00429867,0.0091199,1602,1660,8.81193,-22.6388
385,-636,8.79736,22.3684,0.00237275,0.00439736,-0.00173418,0.00539307,0.00137704,-1.04959,0.00323557,0.0147121,1609,1660,8.79738,-22.3684
392,-636,8.78955,22.1136,0.00183568,0.00292745,-0.00126783,0.00376192,0.00100121,-0.988688,0.00224974,0.0151497,1616,1660,8.78949,-22.1136
399,-636,8.79773,21.8612,0.00131803,0.00163011,-0.000812169,0.00230109,0.000647047,-0.880304,0.00137029,0.0105953,1623,1660,8.79772,-21.8612
406,-636,8.81006,21.6035,0.000800904,0.000693267,-0.000440415,0.00119078,0.000303395,-0.7246,0.000714523,0.0132477,1630,1660,8.81006,-21.6035
413,-636,8.80127,21.3324,0.00042808,-0.000119973,2.03159e-05,0.000428832,-0.000120725,0.0370016,0.000333495,0.0217072,1637,1660,8.8013,-21.3324
420,-636,8.76233,21.075,0.000464508,-0.000930309,0.000363992,0.000553782,-0.00101958,0.240515,0.000921556,0.021622,1644,1660,8.76234,-21.0749
427,-636,8.755,20.8013,0.00084882,-0.00200274,0.000322384,0.000884813,-0.00203873,0.111186,0.00173118,0.012883,1651,1660,8.75495,-20.8013
434,-636,8.76306,20.5066,0.00119837,-0.00212089,2.60955e-05,0.00119857,-0.0021211,0.00786119,0.00194113,0.0111196,1658,1660,8.76309,-20.5066
441,-636,8.78479,20.2128,0.00188797,-0.0023182,-0.000337637,0.0019149,-0.00234513,-0.0795926,0.0024637,0.0116879,1665,1660,8.78473,-20.2128
448,-636,8.78796,19.936,0.0027654,-0.0024965,-0.000857233,0.00290154,-0.00263263,-0.15749,0.00319641,0.0137755,1672,1660,8.78801,-19.9361
455,-636,8.75488,19.642,0.0039468,-0.00268804,-0.00150658,0.00427288,-0.00301411,-0.213147,0.00422802,0.0153736,1679,1660,8.75491,-19.642
462,-636,8.71106,19.3256,0.00548075,-0.00283013,-0.00241032,0.00612919,-0.00347857,-0.262807,0.00561697,0.0198321,1686,1660,8.71109,-19.3256
469,-636,8.75342,19.0481,0.00729954,-0.00289242,-0.00367318,0.00848538,-0.00407826,-0.312275,0.00740089,0.0283204,1693,1660,8.75339,-19.0481
476,-636,8.86926,18.8035,0.00927221,-0.00267705,-0.00527117,0.0112651,-0.00466995,-0.361463,0.00945911,0.0425285,1700,1660,8.86927,-18.8034
483,-636,8.78589,17.9329,0.0112368,-0.001728,-0.00741803,0.0146057,-0.00509694,-0.426304,0.0118087,0.0493086,1707,1660,8.78585,-17.9329
490,-636,8.81665,17.411,0,0,0,0,0,0,0,-1,1714,1660,8.81663,-17.411
497,-636,12.0768,16.6431,0,0,0,0,0,0,0,-1,1721,1660,12.0768,-16.6431
504,-636,9.27905,15.3159,0,0,0,0,0,0,0,-1,1728,1660,9.279,-15.3159
511,-636,5.65466,9.23218,0,0,0,0,0,0,0,-1,1735,1660,5.65461,-9.23216
518,-636,6.72791,1.07605,0,0,0,0,0,0,0,-1,1742,1660,6.7279,-1.0761
525,-636,7.04309,0.93335,0,0,0,0,0,0,0,-1,1749,1660,7.04308,-0.933298
532,-636,0,0,0,0,0,0,0,0,0,-1,1756,1660,0,0
539,-636,0,0,0,0,0,0,0,0,0,-1,1763,1660,0,0
546,-636,0,0,0,0,0,0,0,0,0,-1,1770,1660,0,0
553,-636,0,0,0,0,0,0,0,0,0,-1,1777,1660,0,0
560,-636,0,0,0,0,0,0,0,0,0,-1,1784,1660,0,0
567,-636,0,0,0,0,0,0,0,0,0,-1,1791,1660,0,0
574,-636,0,0,0,0,0,0,0,0,0,-1,1798,1660,0,0
581,-636,0,0,0,0,0,0,0,0,0,-1,1805,1660,0,0
588,-636,0,0,0,0,0,0,0,0,0,-1,1812,1660,0,0
595,-636,0,0,0,0,0,0,0,0,0,-1,1819,1660,0,0
602,-636,0,0,0,0,0,0,0,0,0,-1,1826,1660,0,0
609,-636,0,0,0,0,0,0,0,0,0,-1,1833,1660,0,0
616,-636,0,0,0,0,0,0,0,0,0,-1,1840,1660,0,0
623,-636,0,0,0,0,0,0,0,0,0,-1,1847,1660,0,0
630,-636,0,0,0,0,0,0,0,0,0,-1,1854,1660,0,0
637,-636,0,0,0,0,0,0,0,0,0,-1,1861,1660,0,0
644,-636,0,0,0,0,0,0,0,0,0,-1,1868,1660,0,0
651,-636,0,0,0,0,0,0,0,0,0,-1,1875,1660,0,0
658,-636,0,0,0,0,0,0,0,0,0,-1,1882,1660,0,0
665,-636,0,0,0,0,0,0,0,0,0,-1,1889,1660,0,0
672,-636,0,0,0,0,0,0,0,0,0,-1,1896,1660,0,0
679,-636,0,0,0,0,0,0,0,0,0,-1,1903,1660,0,0
686,-636,0,0,0,0,0,0,0,0,0,-1,1910,1660,0,0
693,-636,0,0,0,0,0,0,0,0,0,-1,1917,1660,0,0
700,-636,0,0,0,0,0,0,0,0,0,-1,1924,1660,0,0
707,-636,0,0,0,0,0,0,0,0,0,-1,1931,1660,0,0
714,-636,0,0,0,0,0,0,0,0,0,-1,1938,1660,0,0
721,-636,0,0,0,0,0,0,0,0,0,-1,1945,1660,0,0
728,-636,0,0,0,0,0,0,0,0,0,-1,1952,1660,0,0
735,-636,0,0,0,0,0,0,0,0,0,-1,1959,1660,0,0
742,-636,0,0,0,0,0,0,0,0,0,-1,1966,1660,0,0
749,-636,0,0,0,0,0,0,0,0,0,-1,1973,1660,0,0
756,-636,0,0,0,0,0,0,0,0,0,-1,1980,1660,0,0
763,-636,0,0,0,0,0,0,0,0,0,-1,1987,1660,0,0
770,-636,0,0,0,0,0,0,0,0,0,-1,1994,1660,0,0
777,-636,0,0,0,0,0,0,0,0,0,-1,2001,1660,0,0
784,-636,0,0,0,0,0,0,0,0,0,-1,2008,1660,0,0
791,-636,0,0,0,0,0,0,0,0,0,-1,2015,1660,0,0
798,-636,0,0,0,0,0,0,0,0,0,-1,2022,1660,0,0
805,-636,0,0,0,0,0,0,0,0,0,-1,2029,1660,0,0
812,-636,0,0,0,0,0,0,0,0,0,-1,2036,1660,0,0
-700,-643,0,0,0,0,0,0,0,0,0,-1,524,1667,0,0
-693,-643,0,0,0,0,0,0,0,0,0,-1,531,1667,0,0
-686,-643,0,0,0,0,0,0,0,0,0,-1,538,1667,0,0
-679,-643,0,0,0,0,0,0,0,0,0,-1,545,1667,0,0
-672,-643,0,0,0,0,0,0,0,0,0,-1,552,1667,0,0
-665,-643,0,0,0,0,0,0,0,0,0,-1,559,1667,0,0
-658,-643,0,0,0,0,0,0,0,0,0,-1,566,1667,0,0
-651,-643,0,0,0,0,0,0,0,0,0,-1,573,1667,0,0
-644,-643,0,0,0,0,0,0,0,0,0,-1,580,1667,0,0
-637,-643,0,0,0,0,0,0,0,0,0,-1,587,1667,0,0
-630,-643,0,0,0,0,0,0,0,0,0,-1,594,1667,0,0
-623,-643,0,0,0,0,0,0,0,0,0,-1,601,1667,0,0
-616,-643,0,0,0,0,0,0,0,0,0,-1,608,1667,0,0
-609,-643,0,0,0,0,0,0,0,0,0,-1,615,1667,0,0
-602,-643,0,0,0,0,0,0,0,0,0,-1,622,1667,0,0
-595,-643,0,0,0,0,0,0,0,0,0,-1,629,1667,0,0
-588,-643,0,0,0,0,0,0,0,0,0,-1,636,1667,0,0
-581,-643,0,0,0,0,0,0,0,0,0,-1,643,1667,0,0
-574,-643,0,0,0,0,0,0,0,0,0,-1,650,1667,0,0
-567,-643,0,0,0,0,0,0,0,0,0,-1,657,1667,0,0
-560,-643,0,0,0,0,0,0,0,0,0,-1,664,1667,0,0
-553,-643,0,0,0,0,0,0,0,0,0,-1,671,1667,0,0
-546,-643,0,0,0,0,0,0,0,0,0,-1,678,1667,0,0
-539,-643,0,0,0,0,0,0,0,0,0,-1,685,1667,0,0
-532,-643,0,0,0,0,0,0,0,0,0,-1,692,1667,0,0
-525,-643,0,0,0,0,0,0,0,0,0,-1,699,1667,0,0
-518,-643,0,0,0,0,0,0,0,0,0,-1,706,1667,0,0
-511,-643,0,0,0,0,0,0,0,0,0,-1,713,1667,0,0
-504,-643,0,0,0,0,0,0,0,0,0,-1,720,1667,0,0
-497,-643,0,0,0,0,0,0,0,0,0,-1,727,1667,0,0
-490,-643,0,0,0,0,0,0,0,0,0,-1,734,1667,0,0
-483,-643,0,0,0,0,0,0,0,0,0,-1,741,1667,0,0
-476,-643,0,0,0,0,0,0,0,0,0,-1,748,1667,0,0
-469,-643,0,0,0,0,0,0,0,0,0,-1,755,1667,0,0
-462,-643,0,0,0,0,0,0,0,0,0,-1,762,1667,0,0
-455,-643,0,0,0,0,0,0,0,0,0,-1,769,1667,0,0
-448,-643,0,0,0,0,0,0,0,0,0,-1,776,1667,0,0
-441,-643,0,0,0,0,0,0,0,0,0,-1,783,1667,0,0
-434,-643,0,0,0,0,0,0,0,0,0,-1,790,1667,0,0
-427,-643,0,0,0,0,0,0,0,0,0,-1,797,1667,0,0
-420,-643,0,0,0,0,0,0,0,0,0,-1,804,1667,0,0
-413,-643,0,0,0,0,0,0,0,0,0,-1,811,1667,0,0
-406,-643,0,0,0,0,0,0,0,0,0,-1,818,1667,0,0
-399,-643,0.589417,11.6465,0,0,0,0,0,0,0,-1,825,1667,0.58939,-11.6465
-392,-643,0.865295,12.6523,0,0,0,0,0,0,0,-1,832,1667,0.865315,-12.6523
-385,-643,1.72968,13.2692,0,0,0,0,0,0,0,-1,839,1667,1.72967,-13.2692
-378,-643,2.66522,13.8193,0,0,0,0,0,0,0,-1,846,1667,2.66524,-13.8193
-371,-643,0.466125,3.35095,0,0,0,0,0,0,0,-1,853,1667,0.466148,-3.351
-364,-643,1.69513,9.922,0,0,0,0,0,0,0,-1,860,1667,1.69511,-9.92205
-357,-643,1.14227,10.8429,0,0,0,0,0,0,0,-1,867,1667,1.14228,-10.8429
-350,-643,2.50061,9.96948,0,0,0,0,0,0,0,-1,874,1667,2.50059,-9.96954
-343,-643,2.61505,6.17407,0,0,0,0,0,0,0,-1,881,1667,2.61504,-6.17412
-336,-643,4.25702,18.0856,0,0,0,0,0,0,0,-1,888,1667,4.25702,-18.0856
-329,-643,4.19867,18.3903,-0.00292349,-0.00490677,-0.000376454,-0.00285444,-0.00497582,-0.181411,0.00288316,0.0390628,895,1667,4.19869,-18.3903
-322,-643,4.13135,18.7152,-0.00230728,-0.00393049,-3.28161e-05,-0.00230662,-0.00393116,-0.0202058,0.00228101,0.0256864,902,1667,4.13135,-18.7152
-315,-643,4.04529,19.0227,-0.00182945,-0.00325605,0.000295965,-0.00177049,-0.00331501,0.196652,0.00191541,0.0158419,909,1667,4.04529,-19.0227
-308,-643,4.04028,19.2977,-0.00144805,-0.00281261,0.000425218,-0.00132639,-0.00293427,0.278663,0.0016967,0.0118537,916,1667,4.04031,-19.2977
-301,-643,4.05487,19.6245,-0.00099208,-0.00244652,0.000567487,-0.000796863,-0.00264174,0.331322,0.0015647,0.0142298,923,1667,4.0549,-19.6245
-294,-643,4.03149,19.9313,-0.000474209,-0.0020806,0.000666897,-0.000233433,-0.00232137,0.346475,0.00147594,0.0122734,930,1667,4.03149,-19.9313
-287,-643,4.01263,20.2339,-7.83823e-05,-0.0018374,0.000686078,0.000157563,-0.00207335,0.331234,0.00143763,0.0101484,937,1667,4.01261,-20.2339
-280,-643,4.02649,20.5387,0.00022353,-0.00162369,0.000649867,0.000429248,-0.00182941,0.306574,0.00138504,0.0135218,944,1667,4.02651,-20.5386
-273,-643,4.03058,20.8256,0.000568142,-0.00140793,0.000646875,0.000761064,-0.00160085,0.289839,0.00139209,0.0121196,951,1667,4.03057,-20.8256
-266,-643,4.01532,21.1107,0.000926436,-0.00111484,0.000651444,0.00111662,-0.00130502,0.284043,0.00139954,0.0118058,958,1667,4.0153,-21.1107
-259,-643,4.00635,21.408,0.00121131,-0.000788358,0.000646962,0.00140237,-0.000979418,0.287157,0.00138233,0.0115723,965,1667,4.00632,-21.4079
-252,-643,3.98547,21.6932,0.00147229,-0.000395574,0.000602212,0.00164961,-0.000572898,0.28636,0.00133241,0.0123044,972,1667,3.98545,-21.6933
-245,-643,3.99359,21.9637,0.00173073,-4.66231e-05,0.000576895,0.00190156,-0.000217453,0.287893,0.00134606,0.0109196,979,1667,3.99356,-21.9637
-238,-643,4.04492,22.2169,0.00204917,0.000276539,0.00063751,0.00225463,7.10789e-05,0.311774,0.00147997,0.0148968,986,1667,4.04492,-22.2169
-231,-643,4.00995,22.4922,0.00245721,0.000519649,0.00073276,0.00270312,0.000273739,0.323784,0.00171812,0.0116184,993,1667,4.00992,-22.4922
-224,-643,4.00983,22.7323,0.00279871,0.000821289,0.00080406,0.00308438,0.000535613,0.341382,0.00190301,0.00939457,1000,1667,4.0098,-22.7323
-217,-643,4.00696,22.9636,0.00307644,0.0010034,0.00088991,0.00340605,0.000673788,0.35472,0.00208275,0.00820381,1007,1667,4.00693,-22.9636
-210,-643,4.0083,23.2317,0.00314956,0.00131952,0.0013075,0.00383041,0.000638666,0.480094,0.00236959,0.0109278,1014,1667,4.0083,-23.2317
-203,-643,4.02832,23.5375,0.00334423,0.00153804,0.00161632,0.00429263,0.000589635,0.530636,0.00268686,0.0141965,1021,1667,4.02829,-23.5375
-196,-643,4.03955,23.801,0.00332679,0.00164504,0.00198364,0.00464043,0.000331407,0.584927,0.00298928,0.0146019,1028,1667,4.03956,-23.801
-189,-643,4.11743,24.0114,0.00310367,0.00214308,0.00247143,0.00514104,0.000105706,0.689425,0.00339268,0.0148407,1035,1667,4.11747,-24.0114
-182,-643,4.18347,24.2488,0.00258949,0.00256778,0.0028468,0.00542545,-0.000268185,0.783491,0.0037096,0.0225852,1042,1667,4.18344,-24.2488
-175,-643,4.22266,24.5535,0.00190472,0.00298,0.00335414,0.00583931,-0.000954591,0.864868,0.00424698,0.0381624,1049,1667,4.2226,-24.5534
-168,-643,4.22925,24.6378,0.00102034,0.00371846,0.00384309,0.0064424,-0.00170359,0.954197,0.00496127,0.0439833,1056,1667,4.22921,-24.6378
-161,-643,4.06714,24.8264,0.000261509,0.00451995,0.00434474,0.00722916,-0.0024477,1.01323,0.00580983,0.0478712,1063,1667,4.06714,-24.8264
-154,-643,3.91663,25.0671,0,0,0,0,0,0,0,-1,1070,1667,3.9166,-25.0672
-147,-643,4.2323,25.0648,0,0,0,0,0,0,0,-1,1077,1667,4.23226,-25.0649
-140,-643,4.30322,22.9166,0,0,0,0,0,0,0,-1,1084,1667,4.30327,-22.9167
-133,-643,3.66748,21.6034,0,0,0,0,0,0,0,-1,1091,1667,3.66743,-21.6034
-126,-643,3.13904,17.689,0,0,0,0,0,0,0,-1,1098,1667,3.13909,-17.689
-119,-643,3.76282,14.1458,0,0,0,0,0,0,0,-1,1105,1667,3.76283,-14.1458
-112,-643,3.81458,16.2069,0,0,0,0,0,0,0,-1,1112,1667,3.81463,-16.2069
-105,-643,-2.23413,10.0996,0,0,0,0,0,0,0,-1,1119,1667,-2.23415,-10.0996
-98,-643,3.11035,4.68066,0,0,0,0,0,0,0,-1,1126,1667,3.11041,-4.68071
-91,-643,-1.74146,-2.5885,0,0,0,0,0,0,0,-1,1133,1667,-1.74146,2.58856
-84,-643,-3.07446,-0.199341,0,0,0,0,0,0,0,-1,1140,1667,-3.07449,0.199383
-77,-643,-3.63794,2.81165,0,0,0,0,0,0,0,-1,1147,1667,-3.63791,-2.8117
-70,-643,-3.36938,4.45203,0,0,0,0,0,0,0,-1,1154,1667,-3.36941,-4.452
-63,-643,-3.67822,6.26855,0,0,0,0,0,0,0,-1,1161,1667,-3.67823,-6.26856
-56,-643,-3.95142,8.1073,0,0,0,0,0,0,0,-1,1168,1667,-3.95139,-8.10732
-49,-643,-4.23535,9.90552,0,0,0,0,0,0,0,-1,1175,1667,-4.23537,-9.90557
-42,-643,-4.25195,10.7059,0,0,0,0,0,0,0,-1,1182,1667,-4.25192,-10.706
-35,-643,-4.10986,11.6588,0,0,0,0,0,0,0,-1,1189,1667,-4.10982,-11.6589
-28,-643,-1.38513,5.604,0,0,0,0,0,0,0,-1,1196,1667,-1.3851,-5.60403
-21,-643,1.61011,23.1276,0,0,0,0,0,0,0,-1,1203,1667,1.61011,-23.1275
-14,-643,7.57239,25.1812,0,0,0,0,0,0,0,-1,1210,1667,7.57233,-25.1812
-7,-643,7.46753,24.97,0.00840776,-0.115153,0.0130262,0.00976608,-0.116512,0.103901,0.0811259,0.0498711,1217,1667,7.46756,-24.9699
0,-643,7.33594,24.7069,0.0299107,-0.100321,0.0192446,0.032695,-0.103105,0.143682,0.0818419,0.047744,1224,1667,7.3359,-24.7069
7,-643,7.46875,24.4768,0.0572478,-0.0830384,0.0274864,0.062441,-0.0882316,0.186735,0.0874146,0.0462444,1231,1667,7.46879,-24.4768
14,-643,7.05042,27.6372,0,0,0,0,0,0,0,-1,1238,1667,7.0504,-27.6371
21,-643,7.87622,27.7086,0.113526,-0.046897,0.040433,0.123141,-0.0565115,0.233453,0.106073,0.0448827,1245,1667,7.87621,-27.7086
28,-643,8.73059,28.0004,0,0,0,0,0,0,0,-1,1252,1667,8.73064,-28.0004
35,-643,10.1035,28.1877,0.158384,0.0366249,0.0368352,0.168661,0.0263486,0.272062,0.104768,0.0439176,1259,1667,10.1036,-28.1877
42,-643,11.2491,28.2754,0.172549,0.0756574,0.0301307,0.181154,0.0670519,0.278201,0.105759,0.0454883,1266,1667,11.2492,-28.2754
49,-643,12.8102,28.8397,0.181165,0.118704,0.0181131,0.186038,0.113832,0.262784,0.108301,0.0422992,1273,1667,12.8102,-28.8397
56,-643,14.64,28.5081,0.179156,0.158707,0.000929063,0.179198,0.158665,0.0453096,0.113243,0.0430789,1280,1667,14.64,-28.508
63,-643,16.4576,28.1447,0,0,0,0,0,0,0,-1,1287,1667,16.4576,-28.1447
70,-643,18.9094,27.1924,0,0,0,0,0,0,0,-1,1294,1667,18.9095,-27.1924
77,-643,20.8013,26.9928,0,0,0,0,0,0,0,-1,1301,1667,20.8013,-26.9928
84,-643,-3.33069,29.4742,0,0,0,0,0,0,0,-1,1308,1667,-3.33067,-29.4742
91,-643,-3.04224,28.8485,0,0,0,0,0,0,0,-1,1315,1667,-3.04228,-28.8485
98,-643,-2.75391,28.2227,0,0,0,0,0,0,0,-1,1322,1667,-2.7539,-28.2227
105,-643,-3.70447,28.3771,0.0268803,0.257309,-0.162166,0.341022,-0.0568331,-1.09426,0.248469,0.0417465,1329,1667,-3.70447,-28.3771
112,-643,-4.11633,27.7211,0.00660038,0.247403,-0.177917,0.34183,-0.0878259,-1.08287,0.262113,0.0453716,1336,1667,-4.1163,-27.7211
119,-643,-4.4397,27.0486,-0.00588499,0.23016,-0.188785,0.334779,-0.110504,-1.06476,0.267733,0.0483204,1343,1667,-4.43967,-27.0486
126,-643,-4.57336,26.1765,-0.0102354,0.212667,-0.194465,0.325354,-0.122923,-1.04561,0.267465,0.0477233,1350,1667,-4.57336,-26.1765
133,-643,-4.74707,25.2079,0,0,0,0,0,0,0,-1,1357,1667,-4.74711,-25.2079
140,-643,-4.82141,24.8269,-0.00570912,0.237901,-0.205383,0.354881,-0.12269,-1.05305,0.286383,0.0418072,1364,1667,-4.82141,-24.8269
147,-643,-4.84302,23.7406,-0.00793988,0.258195,-0.216243,0.379033,-0.128778,-1.06122,0.304821,0.0403953,1371,1667,-4.84301,-23.7406
154,-643,-4.57739,22.3903,0,0,0,0,0,0,0,-1,1378,1667,-4.57743,-22.3902
161,-643,5.57935,26.2754,0,0,0,0,0,0,0,-1,1385,1667,5.57931,-26.2754
168,-643,10.5563,10.9818,0,0,0,0,0,0,0,-1,1392,1667,10.5562,-10.9819
175,-643,5.88525,-1.1698,0,0,0,0,0,0,0,-1,1399,1667,5.88526,1.16977
182,-643,5.80945,-0.418701,0,0,0,0,0,0,0,-1,1406,1667,5.80949,0.418712
189,-643,5.42297,12.9208,0,0,0,0,0,0,0,-1,1413,1667,5.42298,-12.9208
196,-643,5.51953,11.2415,0,0,0,0,0,0,0,-1,1420,1667,5.51948,-11.2414
203,-643,5.60828,9.82153,0,0,0,0,0,0,0,-1,1427,1667,5.60833,-9.82148
210,-643,4.73218,7.58728,0,0,0,0,0,0,0,-1,1434,1667,4.73222,-7.58728
217,-643,3.8031,5.28955,0,0,0,0,0,0,0,-1,1441,1667,3.80305,-5.28955
224,-643,2.96436,2.97095,0,0,0,0,0,0,0,-1,1448,1667,2.96432,-2.97095
231,-643,2.13403,1.08472,0,0,0,0,0,0,0,-1,1455,1667,2.13403,-1.08467
238,-643,1.18152,-0.261963,0,0,0,0,0,0,0,-1,1462,1667,1.18152,0.26192
245,-643,-0.157471,-1.79016,0,0,0,0,0,0,0,-1,1469,1667,-0.157517,1.7901
252,-643,8.08789,0.0202637,0,0,0,0,0,0,0,-1,1476,1667,8.08791,-0.0203056
259,-643,9.02979,-0.46936,0,0,0,0,0,0,0,-1,1483,1667,9.02974,0.46933
266,-643,4.55066,5.17554,0,0,0,0,0,0,0,-1,1490,1667,4.55063,-5.17556
273,-643,4.34363,6.56836,0,0,0,0,0,0,0,-1,1497,1667,4.34363,-6.5684
280,-643,5.75854,14.5217,0,0,0,0,0,0,0,-1,1504,1667,5.75854,-14.5218
287,-643,6.81299,21.0212,0,0,0,0,0,0,0,-1,1511,1667,6.81297,-21.0212
294,-643,8.63391,25.7631,0,0,0,0,0,0,0,-1,1518,1667,8.63396,-25.763
301,-643,8.45532,25.2581,0,0,0,0,0,0,0,-1,1525,1667,8.45537,-25.2581
308,-643,8.50659,24.99,0.00428153,0.00792708,-0.00127474,0.00832859,0.00388002,-1.26565,0.00481225,0.0443527,1532,1667,8.50654,-24.99
315,-643,8.3822,24.7169,0.0040606,0.00807114,-0.00137741,0.00849864,0.0036331,-1.26986,0.00492386,0.0426262,1539,1667,8.38225,-24.7169
322,-643,8.46387,24.4181,0.00412997,0.00871078,-0.0018986,0.00939538,0.00344537,-1.22473,0.0054883,0.0243748,1546,1667,8.46388,-24.4181
329,-643,8.49841,24.2302,0.00410745,0.00877756,-0.00218974,0.00964367,0.00324133,-1.19415,0.0056666,0.0134375,1553,1667,8.49843,-24.2302
336,-643,8.47229,24.0649,0.00384544,0.00861555,-0.00222919,0.00949513,0.00296587,-1.19498,0.00560922,0.0110894,1560,1667,8.47234,-24.0649
343,-643,8.50232,23.8523,0.00361843,0.00824584,-0.00237918,0.00925083,0.00261344,-1.17112,0.00550682,0.0139137,1567,1667,8.50235,-23.8523
350,-643,8.53906,23.5819,0.00350109,0.00761776,-0.00251254,0.00880744,0.00231141,-1.12857,0.00527283,0.0130527,1574,1667,8.5391,-23.5819
357,-643,8.54126,23.3647,0.00330881,0.00698024,-0.00248943,0.0082376,0.00205145,-1.10309,0.00495165,0.0103297,1581,1667,8.54128,-23.3647
364,-643,8.54883,23.1387,0.00304669,0.00608537,-0.00234631,0.00736131,0.00177076,-1.07272,0.00443668,0.00891601,1588,1667,8.54882,-23.1387
371,-643,8.55176,22.916,0.00262587,0.00509883,-0.00207443,0.00627733,0.00144736,-1.05416,0.00379556,0.00786642,1595,1667,8.55182,-22.916
378,-643,8.54468,22.6641,0.0021861,0.00403787,-0.00178638,0.00512405,0.00109992,-1.02449,0.00311482,0.0100872,1602,1667,8.54464,-22.6641
385,-643,8.54065,22.3877,0.00181601,0.002825,-0.00150738,0.00391006,0.000730948,-0.94688,0.00240045,0.017104,1609,1667,8.5407,-22.3877
392,-643,8.54224,22.1338,0.00141372,0.00162714,-0.00120187,0.00272703,0.000313838,-0.829676,0.00172296,0.0170161,1616,1667,8.54223,-22.1338
399,-643,8.54089,21.8997,0.000981776,0.000509536,-0.000869512,0.00164666,-0.000155346,-0.652818,0.00115305,0.0127961,1623,1667,8.54086,-21.8997
406,-643,8.53809,21.6226,0.000531358,-0.000280156,-0.000573018,0.000827732,-0.00057653,-0.477325,0.000815064,0.0121359,1630,1667,8.53814,-21.6226
413,-643,8.53503,21.3406,0.00021831,-0.000904485,-0.00010942,0.000228874,-0.000915049,-0.0962466,0.000698929,0.0180968,1637,1667,8.53505,-21.3405
420,-643,8.50024,21.077,0.000344749,-0.00173891,0.000318891,0.000392461,-0.00178663,0.148516,0.00134118,0.0167855,1644,1667,8.50024,-21.077
427,-643,8.50049,20.8231,0.000913301,-0.00290637,0.000278482,0.000933498,-0.00292656,0.0723972,0.00232552,0.0139179,1651,1667,8.50045,-20.8231
434,-643,8.51746,20.5261,0.00136927,-0.0030727,4.48461e-05,0.00136972,-0.00307316,0.0100946,0.00262719,0.0153628,1658,1667,8.51747,-20.5262
441,-643,8.52368,20.2388,0.00221353,-0.00348838,-0.000169662,0.00221857,-0.00349343,-0.0297201,0.00332509,0.0160271,1665,1667,8.52374,-20.2388
448,-643,8.4552,19.9443,0.00341124,-0.00386602,-0.000621677,0.00346397,-0.00391874,-0.0846104,0.0042651,0.0223725,1672,1667,8.45516,-19.9443
455,-643,8.34412,19.5492,0.00508163,-0.0042663,-0.00125274,0.0052466,-0.00443127,-0.130936,0.00559413,0.0316642,1679,1667,8.34414,-19.5492
462,-643,8.12927,19.2821,0.00726946,-0.00462333,-0.00222249,0.00767122,-0.00502509,-0.178839,0.00738309,0.0450745,1686,1667,8.12922,-19.2821
469,-643,8.41565,19.4597,0.00992702,-0.00497494,-0.00370477,0.0107972,-0.00584516,-0.23071,0.00974926,0.0471191,1693,1667,8.41565,-19.4597
476,-643,8.95703,19.329,0.0128898,-0.0050535,-0.00572206,0.0145592,-0.00672293,-0.283873,0.0125618,0.0469749,1700,1667,8.95699,-19.329
483,-643,8.55286,17.6592,0,0,0,0,0,0,0,-1,1707,1667,8.55282,-17.6592
490,-643,9.64624,17.491,0,0,0,0,0,0,0,-1,1714,1667,9.64625,-17.4909
497,-643,10.8936,16.9469,0,0,0,0,0,0,0,-1,1721,1667,10.8936,-16.9469
504,-643,11.1781,16.2119,0,0,0,0,0,0,0,-1,1728,1667,11.1781,-16.2119
511,-643,7.15686,15.3853,0,0,0,0,0,0,0,-1,1735,1667,7.15681,-15.3853
518,-643,7.40564,0.922607,0,0,0,0,0,0,0,-1,1742,1667,7.4057,-0.922598
525,-643,0,0,0,0,0,0,0,0,0,-1,1749,1667,0,0
532,-643,0,0,0,0,0,0,0,0,0,-1,1756,1667,0,0
539,-643,0,0,0,0,0,0,0,0,0,-1,1763,1667,0,0
546,-643,0,0,0,0,0,0,0,0,0,-1,1770,1667,0,0
553,-643,0,0,0,0,0,0,0,0,0,-1,1777,1667,0,0
560,-643,0,0,0,0,0,0,0,0,0,-1,1784,1667,0,0
567,-643,0,0,0,0,0,0,0,0,0,-1,1791,1667,0,0
574,-643,0,0,0,0,0,0,0,0,0,-1,1798,1667,0,0
581,-643,0,0,0,0,0,0,0,0,0,-1,1805,1667,0,0
588,-643,0,0,0,0,0,0,0,0,0,-1,1812,1667,0,0
595,-643,0,0,0,0,0,0,0,0,0,-1,1819,1667,0,0
602,-643,0,0,0,0,0,0,0,0,0,-1,1826,1667,0,0
609,-643,0,0,0,0,0,0,0,0,0,-1,1833,1667,0,0
616,-643,0,0,0,0,0,0,0,0,0,-1,1840,1667,0,0
623,-643,0,0,0,0,0,0,0,0,0,-1,1847,1667,0,0
630,-643,0,0,0,0,0,0,0,0,0,-1,1854,1667,0,0
637,-643,0,0,0,0,0,0,0,0,0,-1,1861,1667,0,0
644,-643,0,0,0,0,0,0,0,0,0,-1,1868,1667,0,0
651,-643,0,0,0,0,0,0,0,0,0,-1,1875,1667,0,0
658,-643,0,0,0,0,0,0,0,0,0,-1,1882,1667,0,0
665,-643,0,0,0,0,0,0,0,0,0,-1,1889,1667,0,0
672,-643,0,0,0,0,0,0,0,0,0,-1,1896,1667,0,0
679,-643,0,0,0,0,0,0,0,0,0,-1,1903,1667,0,0
686,-643,0,0,0,0,0,0,0,0,0,-1,1910,1667,0,0
693,-643,0,0,0,0,0,0,0,0,0,-1,1917,1667,0,0
700,-643,0,0,0,0,0,0,0,0,0,-1,1924,1667,0,0
707,-643,0,0,0,0,0,0,0,0,0,-1,1931,1667,0,0
714,-643,0,0,0,0,0,0,0,0,0,-1,1938,1667,0,0
721,-643,0,0,0,0,0,0,0,0,0,-1,1945,1667,0,0
728,-643,0,0,0,0,0,0,0,0,0,-1,1952,1667,0,0
735,-643,0,0,0,0,0,0,0,0,0,-1,1959,1667,0,0
742,-643,0,0,0,0,0,0,0,0,0,-1,1966,1667,0,0
749,-643,0,0,0,0,0,0,0,0,0,-1,1973,1667,0,0
756,-643,0,0,0,0,0,0,0,0,0,-1,1980,1667,0,0
763,-643,0,0,0,0,0,0,0,0,0,-1,1987,1667,0,0
770,-643,0,0,0,0,0,0,0,0,0,-1,1994,1667,0,0
777,-643,0,0,0,0,0,0,0,0,0,-1,2001,1667,0,0
784,-643,0,0,0,0,0,0,0,0,0,-1,2008,1667,0,0
791,-643,0,0,0,0,0,0,0,0,0,-1,2015,1667,0,0
798,-643,0,0,0,0,0,0,0,0,0,-1,2022,1667,0,0
805,-643,0,0,0,0,0,0,0,0,0,-1,2029,1667,0,0
812,-643,0,0,0,0,0,0,0,0,0,-1,2036,1667,0,0
-700,-650,0,0,0,0,0,0,0,0,0,-1,524,1674,0,0
-693,-650,0,0,0,0,0,0,0,0,0,-1,531,1674,0,0
-686,-650,0,0,0,0,0,0,0,0,0,-1,538,1674,0,0
-679,-650,0,0,0,0,0,0,0,0,0,-1,545,1674,0,0
-672,-650,0,0,0,0,0,0,0,0,0,-1,552,1674,0,0
-665,-650,0,0,0,0,0,0,0,0,0,-1,559,1674,0,0
-658,-650,0,0,0,0,0,0,0,0,0,-1,566,1674,0,0
-651,-650,0,0,0,0,0,0,0,0,0,-1,573,1674,0,0
-644,-650,0,0,0,0,0,0,0,0,0,-1,580,1674,0,0
-637,-650,0,0,0,0,0,0,0,0,0,-1,587,1674,0,0
-630,-650,0,0,0,0,0,0,0,0,0,-1,594,1674,0,0
-623,-650,0,0,0,0,0,0,0,0,0,-1,601,1674,0,0
-616,-650,0,0,0,0,0,0,0,0,0,-1,608,1674,0,0
-609,-650,0,0,0,0,0,0,0,0,0,-1,615,1674,0,0
-602,-650,0,0,0,0,0,0,0,0,0,-1,622,1674,0,0
-595,-650,0,0,0,0,0,0,0,0,0,-1,629,1674,0,0
-588,-650,0,0,0,0,0,0,0,0,0,-1,636,1674,0,0
-581,-650,0,0,0,0,0,0,0,0,0,-1,643,1674,0,0
-574,-650,0,0,0,0,0,0,0,0,0,-1,650,1674,0,0
-567,-650,0,0,0,0,0,0,0,0,0,-1,657,1674,0,0
-560,-650,0,0,0,0,0,0,0,0,0,-1,664,1674,0,0
-553,-650,0,0,0,0,0,0,0,0,0,-1,671,1674,0,0
-546,-650,0,0,0,0,0,0,0,0,0,-1,678,1674,0,0
-539,-650,0,0,0,0,0,0,0,0,0,-1,685,1674,0,0
-532,-650,0,0,0,0,0,0,0,0,0,-1,692,1674,0,0
-525,-650,0,0,0,0,0,0,0,0,0,-1,699,1674,0,0
-518,-650,0,0,0,0,0,0,0,0,0,-1,706,1674,0,0
-511,-650,0,0,0,0,0,0,0,0,0,-1,713,1674,0,0
-504,-650,0,0,0,0,0,0,0,0,0,-1,720,1674,0,0
-497,-650,0,0,0,0,0,0,0,0,0,-1,727,1674,0,0
-490,-650,0,0,0,0,0,0,0,0,0,-1,734,1674,0,0
-483,-650,0,0,0,0,0,0,0,0,0,-1,741,1674,0,0
-476,-650,0,0,0,0,0,0,0,0,0,-1,748,1674,0,0
-469,-650,0,0,0,0,0,0,0,0,0,-1,755,1674,0,0
-462,-650,0,0,0,0,0,0,0,0,0,-1,762,1674,0,0
-455,-650,0,0,0,0,0,0,0,0,0,-1,769,1674,0,0
-448,-650,0,0,0,0,0,0,0,0,0,-1,776,1674,0,0
-441,-650,0,0,0,0,0,0,0,0,0,-1,783,1674,0,0
-434,-650,0,0,0,0,0,0,0,0,0,-1,790,1674,0,0
-427,-650,0,0,0,0,0,0,0,0,0,-1,797,1674,0,0
-420,-650,0,0,0,0,0,0,0,0,0,-1,804,1674,0,0
-413,-650,0,0,0,0,0,0,0,0,0,-1,811,1674,0,0
-406,-650,0,0,0,0,0,0,0,0,0,-1,818,1674,0,0
-399,-650,0,0,0,0,0,0,0,0,0,-1,825,1674,0,0
-392,-650,5.44415,6.85669,0,0,0,0,0,0,0,-1,832,1674,5.44414,-6.85674
-385,-650,1.74451,14.0183,0,0,0,0,0,0,0,-1,839,1674,1.74453,-14.0183
-378,-650,0.997986,4.11108,0,0,0,0,0,0,0,-1,846,1674,0.998006,-4.11113
-371,-650,-1.80096,3.78625,0,0,0,0,0,0,0,-1,853,1674,-1.80094,-3.78625
-364,-650,-2.95679,2.57507,0,0,0,0,0,0,0,-1,860,1674,-2.95681,-2.57506
-357,-650,1.97833,10.8362,0,0,0,0,0,0,0,-1,867,1674,1.97835,-10.8362
-350,-650,-5.30243,0.159912,0,0,0,0,0,0,0,-1,874,1674,-5.30244,-0.159866
-343,-650,-6.21338,-1.4425,0,0,0,0,0,0,0,-1,881,1674,-6.21341,1.44248
-336,-650,4.20111,17.2285,0,0,0,0,0,0,0,-1,888,1674,4.20113,-17.2285
-329,-650,4.54938,18.4296,0,0,0,0,0,0,0,-1,895,1674,4.5494,-18.4295
-322,-650,4.49329,18.782,-0.00293348,-0.00551486,-0.000244453,-0.00291054,-0.00553781,-0.0935901,0.00319865,0.0424833,902,1674,4.49331,-18.7819
-315,-650,4.33868,18.978,-0.0023209,-0.00481469,0.000214497,-0.00230258,-0.004833,0.0851789,0.00279137,0.0370116,909,1674,4.33869,-18.978
-308,-650,4.35321,19.2385,-0.00182852,-0.00437364,0.000432519,-0.00175703,-0.00444513,0.163816,0.0025851,0.0216932,916,1674,4.35321,-19.2385
-301,-650,4.3512,19.6233,-0.00128262,-0.00401782,0.000614421,-0.00115094,-0.0041495,0.211123,0.00247361,0.0125891,923,1674,4.35122,-19.6233
-294,-650,4.32056,19.9165,-0.000709868,-0.00351659,0.000753573,-0.000520341,-0.00370612,0.246395,0.00231686,0.010516,930,1674,4.32055,-19.9165
-287,-650,4.31097,20.2118,-0.000286139,-0.00313667,0.000798219,-7.78394e-05,-0.00334497,0.255263,0.00220449,0.0128704,937,1674,4.31095,-20.2118
-280,-650,4.31042,20.5078,2.63595e-06,-0.00280423,0.00077981,0.000204733,-0.00300633,0.253583,0.00207583,0.0136048,944,1674,4.31043,-20.5078
-273,-650,4.31061,20.8195,0.000314445,-0.00244014,0.0007963,0.000528073,-0.00265376,0.262105,0.00196895,0.0133502,951,1674,4.31062,-20.8194
-266,-650,4.29437,21.1273,0.000655263,-0.00198402,0.00082313,0.000890934,-0.00221969,0.278851,0.00184973,0.0109738,958,1674,4.29439,-21.1274
-259,-650,4.28485,21.4091,0.000909958,-0.00150837,0.000837157,0.00117148,-0.00176989,0.302785,0.00170987,0.0137055,965,1674,4.28488,-21.409
-252,-650,4.26605,21.682,0.00110471,-0.000973234,0.000783649,0.00136711,-0.00123563,0.32311,0.00150333,0.0126383,972,1674,4.26606,-21.682
-245,-650,4.26416,21.9479,0.00127435,-0.00051798,0.00070524,0.00151857,-0.000762198,0.333367,0.00134072,0.011117,979,1674,4.26417,-21.9479
-238,-650,4.26343,22.2266,0.00148775,-0.000113592,0.000746432,0.00178172,-0.00040756,0.375177,0.00134442,0.0129665,986,1674,4.26341,-22.2265
-231,-650,4.23187,22.5088,0.00180605,0.000330359,0.000785203,0.00214569,-9.27353e-06,0.40824,0.00143356,0.0183136,993,1674,4.2319,-22.5087
-224,-650,4.2439,22.755,0.00206061,0.000725912,0.00085554,0.0024783,0.000308224,0.454175,0.00155964,0.0147257,1000,1674,4.24391,-22.755
-217,-650,4.26727,22.9744,0.00224697,0.000946699,0.000878619,0.00268983,0.000503835,0.466879,0.0016511,0.00946887,1007,1674,4.26727,-22.9743
-210,-650,4.27832,23.2188,0.00232933,0.00123267,0.00110888,0.00301805,0.00054395,0.555783,0.00185746,0.0091059,1014,1674,4.2783,-23.2188
-203,-650,4.31018,23.4786,0.00252102,0.00143842,0.00128196,0.00337128,0.000588162,0.58563,0.00207938,0.0140442,1021,1674,4.31016,-23.4786
-196,-650,4.30579,23.7266,0.00252054,0.00150914,0.00149674,0.0035947,0.000434983,0.622486,0.00226543,0.0135109,1028,1674,4.30579,-23.7265
-189,-650,4.30103,23.9678,0.00236119,0.00180051,0.00175946,0.0038625,0.000299192,0.706396,0.00248129,0.0111276,1035,1674,4.30101,-23.9678
-182,-650,4.35767,24.2531,0.00204052,0.00211805,0.00193174,0.00401141,0.000147156,0.79543,0.0026266,0.0101575,1042,1674,4.35766,-24.253
-175,-650,4.39185,24.4329,0.00166383,0.00246873,0.00223899,0.00434115,-0.000208586,0.874322,0.00296607,0.0154457,1049,1674,4.39187,-24.4328
-168,-650,4.36792,24.6255,0.00112967,0.003052,0.00251649,0.00478464,-0.000602968,0.967821,0.00340857,0.0204576,1056,1674,4.3679,-24.6255
-161,-650,4.36401,24.8801,0.000672544,0.00374738,0.0028098,0.00541287,-0.000992949,1.03573,0.00398106,0.0287996,1063,1674,4.36406,-24.8801
-154,-650,4.50903,25.0475,0.00011457,0.00469634,0.00302214,0.00619775,-0.00138684,1.10971,0.00466337,0.0320273,1070,1674,4.50907,-25.0475
-147,-650,4.45789,25.161,-0.000575473,0.00592132,0.00303684,0.00711978,-0.00177393,1.19492,0.00543519,0.0451336,1077,1674,4.45785,-25.161
-140,-650,4.54028,25.3633,0,0,0,0,0,0,0,-1,1084,1674,4.54034,-25.3632
-133,-650,3.92725,25.9486,0,0,0,0,0,0,0,-1,1091,1674,3.92725,-25.9486
-126,-650,4.42639,25.1362,0,0,0,0,0,0,0,-1,1098,1674,4.42633,-25.1363
-119,-650,5.16663,20.6232,0,0,0,0,0,0,0,-1,1105,1674,5.16665,-20.6232
-112,-650,3.86292,14.4513,0,0,0,0,0,0,0,-1,1112,1674,3.8629,-14.4513
-105,-650,4.9259,12.0626,0,0,0,0,0,0,0,-1,1119,1674,4.92591,-12.0626
-98,-650,3.3761,6.78003,0,0,0,0,0,0,0,-1,1126,1674,3.37611,-6.78009
-91,-650,3.66809,7.04443,0,0,0,0,0,0,0,-1,1133,1674,3.66806,-7.04439
-84,-650,-3.82666,-1.59521,0,0,0,0,0,0,0,-1,1140,1674,-3.82661,1.59517
-77,-650,-4.70557,1.90198,0,0,0,0,0,0,0,-1,1147,1674,-4.7056,-1.90194
-70,-650,-4.88171,3.81653,0,0,0,0,0,0,0,-1,1154,1674,-4.88176,-3.81651
-63,-650,-5.14612,5.56543,0,0,0,0,0,0,0,-1,1161,1674,-5.14612,-5.56547
-56,-650,-5.38367,7.41101,0,0,0,0,0,0,0,-1,1168,1674,-5.38361,-7.41102
-49,-650,-5.11316,8.23706,0,0,0,0,0,0,0,-1,1175,1674,-5.11317,-8.23708
-42,-650,-4.99487,9.6792,0,0,0,0,0,0,0,-1,1182,1674,-4.99484,-9.67921
-35,-650,-4.77771,11.3369,0,0,0,0,0,0,0,-1,1189,1674,-4.77769,-11.3369
-28,-650,-4.1936,13.1501,0,0,0,0,0,0,0,-1,1196,1674,-4.19358,-13.1501
-21,-650,5.67578,27.3243,0,0,0,0,0,0,0,-1,1203,1674,5.67573,-27.3243
-14,-650,6.07922,27.3762,0,0,0,0,0,0,0,-1,1210,1674,6.07921,-27.3763
-7,-650,6.12183,27.8934,0,0,0,0,0,0,0,-1,1217,1674,6.12186,-27.8935
0,-650,6.85742,27.8558,0.0294385,-0.0810624,0.0193153,0.0327175,-0.0843414,0.168157,0.0697403,0.0427499,1224,1674,6.85747,-27.8558
7,-650,7.07507,25.399,0.0508912,-0.0676963,0.0260574,0.0563642,-0.0731693,0.207028,0.0749957,0.042743,1231,1674,7.07509,-25.399
14,-650,7.11353,25.4738,0.0736682,-0.0533302,0.0319444,0.0812506,-0.0609127,0.23305,0.0823575,0.0399905,1238,1674,7.11352,-25.4737
21,-650,7.36487,25.623,0.0958446,-0.0362765,0.0357963,0.10492,-0.0453516,0.24829,0.0890024,0.0420884,1245,1674,7.36482,-25.6231
28,-650,7.90747,27.1392,0,0,0,0,0,0,0,-1,1252,1674,7.9075,-27.1392
35,-650,9.02966,28.0283,0.129585,0.0458779,0.0290397,0.138673,0.03679,0.30329,0.0829508,0.0425919,1259,1674,9.02961,-28.0284
42,-650,10.2673,28.0396,0.139159,0.0811529,0.0212672,0.146121,0.074191,0.316356,0.0843661,0.042995,1266,1674,10.2673,-28.0395
49,-650,11.4962,28.0281,0.145659,0.121069,0.00942582,0.148857,0.117872,0.327028,0.0906913,0.0451525,1273,1674,11.4962,-28.0281
56,-650,13.9172,29.3755,0.143984,0.158694,-0.00649015,0.161148,0.14153,-1.20929,0.101527,0.048832,1280,1674,13.9173,-29.3755
63,-650,15.5526,28.7734,0.136728,0.190323,-0.0245881,0.199894,0.127157,-1.19958,0.116826,0.0477372,1287,1674,15.5527,-28.7735
70,-650,16.879,28.271,0,0,0,0,0,0,0,-1,1294,1674,16.879,-28.271
77,-650,0.563354,28.5237,0.102675,0.228553,-0.067841,0.258155,0.0730741,-1.15936,0.153651,0.047369,1301,1674,0.563379,-28.5237
84,-650,-0.508301,28.9258,0.0810043,0.235732,-0.0889935,0.276288,0.0404487,-1.1432,0.172299,0.0468284,1308,1674,-0.508258,-28.9258
91,-650,-1.40906,28.3535,0.0605817,0.242014,-0.110514,0.294276,0.00831938,-1.12906,0.193471,0.0479848,1315,1674,-1.40911,-28.3535
98,-650,-1.47424,27.9182,0,0,0,0,0,0,0,-1,1322,1674,-1.47422,-27.9183
105,-650,-1.84778,27.4392,0,0,0,0,0,0,0,-1,1329,1674,-1.84783,-27.4392
112,-650,-2.11487,26.8469,0,0,0,0,0,0,0,-1,1336,1674,-2.1149,-26.8469
119,-650,-2.49158,26.0314,0,0,0,0,0,0,0,-1,1343,1674,-2.49163,-26.0313
126,-650,-2.59229,24.9716,-0.00445963,0.185337,-0.169737,0.284903,-0.104026,-1.0403,0.232501,0.0494976,1350,1674,-2.59234,-24.9716
133,-650,-2.66528,24.0182,-0.00348053,0.186406,-0.172666,0.28851,-0.105585,-1.03677,0.235559,0.0472711,1357,1674,-2.66531,-24.0182
140,-650,-2.77478,23.2654,-0.00273652,0.204773,-0.178108,0.307143,-0.105107,-1.04914,0.247357,0.0429955,1364,1674,-2.77482,-23.2654
147,-650,-2.91248,22.4429,-0.00552719,0.220488,-0.186277,0.325356,-0.110395,-1.05805,0.261586,0.0441661,1371,1674,-2.91251,-22.4429
154,-650,-2.9978,21.5603,0,0,0,0,0,0,0,-1,1378,1674,-2.99775,-21.5603
161,-650,1.92163,18.5155,0,0,0,0,0,0,0,-1,1385,1674,1.92164,-18.5155
168,-650,11.2113,7.87231,0,0,0,0,0,0,0,-1,1392,1674,11.2113,-7.87236
175,-650,5.62537,-0.230713,0,0,0,0,0,0,0,-1,1399,1674,5.62538,0.230745
182,-650,5.56006,0.421631,0,0,0,0,0,0,0,-1,1406,1674,5.56,-0.421652
189,-650,4.81543,11.0654,0,0,0,0,0,0,0,-1,1413,1674,4.81542,-11.0654
196,-650,5.39575,11.9077,0,0,0,0,0,0,0,-1,1420,1674,5.39575,-11.9078
203,-650,3.93628,11.8215,0,0,0,0,0,0,0,-1,1427,1674,3.93624,-11.8216
210,-650,5.40955,8.08594,0,0,0,0,0,0,0,-1,1434,1674,5.40958,-8.086
217,-650,5.12451,4.69739,0,0,0,0,0,0,0,-1,1441,1674,5.12451,-4.69738
224,-650,4.79041,1.45813,0,0,0,0,0,0,0,-1,1448,1674,4.79046,-1.45816
231,-650,4.04102,-0.642212,0,0,0,0,0,0,0,-1,1455,1674,4.04101,0.642209
238,-650,3.23022,-1.43396,0,0,0,0,0,0,0,-1,1462,1674,3.23023,1.43394
245,-650,1.65894,-2.55042,0,0,0,0,0,0,0,-1,1469,1674,1.65889,2.55036
252,-650,8.75342,0.355103,0,0,0,0,0,0,0,-1,1476,1674,8.75337,-0.355147
259,-650,5.61255,3.17566,0,0,0,0,0,0,0,-1,1483,1674,5.61257,-3.17572
266,-650,4.00403,6.10229,0,0,0,0,0,0,0,-1,1490,1674,4.00401,-6.10225
273,-650,5.4093,14.3718,0,0,0,0,0,0,0,-1,1497,1674,5.40929,-14.3718
280,-650,7.65686,25.4895,0,0,0,0,0,0,0,-1,1504,1674,7.65692,-25.4895
287,-650,8.1322,25.4718,0,0,0,0,0,0,0,-1,1511,1674,8.13223,-25.4717
294,-650,8.32483,25.463,0.00449975,0.00468088,-0.000506412,0.00510476,0.00407587,-0.873879,0.00311733,0.0446791,1518,1674,8.32479,-25.463
301,-650,8.27454,25.1024,0.00386871,0.00466715,-0.000376259,0.00481652,0.00371934,-1.1929,0.00291495,0.0345517,1525,1674,8.27456,-25.1025
308,-650,8.25183,24.917,0.00355519,0.0052795,-0.000553293,0.00544177,0.00339292,-1.28552,0.00317359,0.0232565,1532,1674,8.25181,-24.9169
315,-650,8.23071,24.7198,0.00328306,0.00544726,-0.000657423,0.00563132,0.00309901,-1.29782,0.00325672,0.0164417,1539,1674,8.2307,-24.7198
322,-650,8.23499,24.5228,0.00318657,0.00586266,-0.0010204,0.00620735,0.00284189,-1.24504,0.00358806,0.0129345,1546,1674,8.23497,-24.5228
329,-650,8.25208,24.2549,0.00307302,0.00590159,-0.00127682,0.00639269,0.00258193,-1.20361,0.00371348,0.0159776,1553,1674,8.25202,-24.2549
336,-650,8.25427,24.0596,0.00280852,0.00580736,-0.0013574,0.00633051,0.00228537,-1.20293,0.00370169,0.0140614,1560,1674,8.25431,-24.0596
343,-650,8.28857,23.8378,0.00257936,0.00553293,-0.00152985,0.00618249,0.0019298,-1.16927,0.00365248,0.0142991,1567,1674,8.28863,-23.8378
350,-650,8.29895,23.5913,0.00242791,0.00501384,-0.00168702,0.00584639,0.00159537,-1.11236,0.00348956,0.0162266,1574,1674,8.29899,-23.5913
357,-650,8.29236,23.3639,0.00225081,0.00449062,-0.00174057,0.00544044,0.00130099,-1.07126,0.00328045,0.0130018,1581,1674,8.29236,-23.3639
364,-650,8.29456,23.1493,0.00202398,0.00375052,-0.00167992,0.004776,0.000998502,-1.02274,0.00290886,0.00871718,1588,1674,8.2946,-23.1493
371,-650,8.3031,22.9102,0.00168631,0.00293389,-0.00152149,0.0039545,0.000665697,-0.979941,0.00244484,0.0106293,1595,1674,8.30312,-22.9102
378,-650,8.29504,22.6438,0.00135796,0.00204984,-0.00133736,0.00308528,0.00032252,-0.911961,0.00195822,0.0128589,1602,1674,8.29509,-22.6438
385,-650,8.27466,22.3844,0.00110541,0.00105272,-0.00115887,0.00223823,-8.01063e-05,-0.774033,0.00151956,0.0148518,1609,1674,8.27464,-22.3845
392,-650,8.28589,22.1481,0.000805294,1.49834e-05,-0.000933421,0.00142376,-0.00060348,-0.585166,0.00120194,0.0183895,1616,1674,8.28591,-22.1481
399,-650,8.27808,21.8901,0.000460736,-0.000998205,-0.000672143,0.000723185,-0.00126065,-0.37226,0.0011593,0.0156002,1623,1674,8.2781,-21.8902
406,-650,8.26282,21.624,0.000114885,-0.00168243,-0.000430516,0.000212686,-0.00178023,-0.22338,0.00126369,0.0143798,1630,1674,8.26282,-21.624
413,-650,8.26489,21.3468,-7.31905e-05,-0.00210586,1.6002e-05,-7.30646e-05,-0.00210599,0.00787172,0.00138028,0.0154005,1637,1674,8.26487,-21.3468
420,-650,8.24805,21.0938,0.000226677,-0.00292125,0.000492648,0.000301975,-0.00299654,0.15167,0.00210558,0.0153614,1644,1674,8.248,-21.0937
427,-650,8.24402,20.8423,0.0010696,-0.00416362,0.000407039,0.00110107,-0.00419509,0.0771614,0.00322698,0.0141328,1651,1674,8.24404,-20.8423
434,-650,8.24109,20.5658,0.00172451,-0.00437558,0.000181984,0.00172993,-0.00438101,0.0297977,0.00363714,0.017266,1658,1674,8.24105,-20.5659
441,-650,8.21313,20.3323,0.00282413,-0.00502817,7.69339e-05,0.00282488,-0.00502892,0.00979637,0.00459353,0.0307383,1665,1674,8.21312,-20.3323
448,-650,8.09705,20.1326,0.00448502,-0.00564752,-0.000336889,0.00449621,-0.00565871,-0.0331994,0.00587574,0.0490514,1672,1674,8.097,-20.1325
455,-650,7.84558,19.5588,0,0,0,0,0,0,0,-1,1679,1674,7.84557,-19.5588
462,-650,7.41931,19.3323,0,0,0,0,0,0,0,-1,1686,1674,7.41935,-19.3323
469,-650,7.99231,19.7859,0,0,0,0,0,0,0,-1,1693,1674,7.99229,-19.7858
476,-650,8.72913,20.084,0,0,0,0,0,0,0,-1,1700,1674,8.72918,-20.0839
483,-650,8.70923,18.4282,0,0,0,0,0,0,0,-1,1707,1674,8.70923,-18.4282
490,-650,9.34119,17.7961,0,0,0,0,0,0,0,-1,1714,1674,9.34118,-17.7961
497,-650,9.97998,17.2683,0,0,0,0,0,0,0,-1,1721,1674,9.97997,-17.2683
504,-650,10.4026,16.5255,0,0,0,0,0,0,0,-1,1728,1674,10.4026,-16.5255
511,-650,10.8226,15.705,0,0,0,0,0,0,0,-1,1735,1674,10.8227,-15.705
518,-650,0,0,0,0,0,0,0,0,0,-1,1742,1674,0,0
525,-650,0,0,0,0,0,0,0,0,0,-1,1749,1674,0,0
532,-650,0,0,0,0,0,0,0,0,0,-1,1756,1674,0,0
539,-650,0,0,0,0,0,0,0,0,0,-1,1763,1674,0,0
546,-650,0,0,0,0,0,0,0,0,0,-1,1770,1674,0,0
553,-650,0,0,0,0,0,0,0,0,0,-1,1777,1674,0,0
560,-650,0,0,0,0,0,0,0,0,0,-1,1784,1674,0,0
567,-650,0,0,0,0,0,0,0,0,0,-1,1791,1674,0,0
574,-650,0,0,0,0,0,0,0,0,0,-1,1798,1674,0,0
581,-650,0,0,0,0,0,0,0,0,0,-1,1805,1674,0,0
588,-650,0,0,0,0,0,0,0,0,0,-1,1812,1674,0,0
595,-650,0,0,0,0,0,0,0,0,0,-1,1819,1674,0,0
602,-650,0,0,0,0,0,0,0,0,0,-1,1826,1674,0,0
609,-650,0,0,0,0,0,0,0,0,0,-1,1833,1674,0,0
616,-650,0,0,0,0,0,0,0,0,0,-1,1840,1674,0,0
623,-650,0,0,0,0,0,0,0,0,0,-1,1847,1674,0,0
630,-650,0,0,0,0,0,0,0,0,0,-1,1854,1674,0,0
637,-650,0,0,0,0,0,0,0,0,0,-1,1861,1674,0,0
644,-650,0,0,0,0,0,0,0,0,0,-1,1868,1674,0,0
651,-650,0,0,0,0,0,0,0,0,0,-1,1875,1674,0,0
658,-650,0,0,0,0,0,0,0,0,0,-1,1882,1674,0,0
665,-650,0,0,0,0,0,0,0,0,0,-1,1889,1674,0,0
672,-650,0,0,0,0,0,0,0,0,0,-1,1896,1674,0,0
679,-650,0,0,0,0,0,0,0,0,0,-1,1903,1674,0,0
686,-650,0,0,0,0,0,0,0,0,0,-1,1910,1674,0,0
693,-650,0,0,0,0,0,0,0,0,0,-1,1917,1674,0,0
700,-650,0,0,0,0,0,0,0,0,0,-1,1924,1674,0,0
707,-650,0,0,0,0,0,0,0,0,0,-1,1931,1674,0,0
714,-650,0,0,0,0,0,0,0,0,0,-1,1938,1674,0,0
721,-650,0,0,0,0,0,0,0,0,0,-1,1945,1674,0,0
728,-650,0,0,0,0,0,0,0,0,0,-1,1952,1674,0,0
735,-650,0,0,0,0,0,0,0,0,0,-1,1959,1674,0,0
742,-650,0,0,0,0,0,0,0,0,0,-1,1966,1674,0,0
749,-650,0,0,0,0,0,0,0,0,0,-1,1973,1674,0,0
756,-650,0,0,0,0,0,0,0,0,0,-1,1980,1674,0,0
763,-650,0,0,0,0,0,0,0,0,0,-1,1987,1674,0,0
770,-650,0,0,0,0,0,0,0,0,0,-1,1994,1674,0,0
777,-650,0,0,0,0,0,0,0,0,0,-1,2001,1674,0,0
784,-650,0,0,0,0,0,0,0,0,0,-1,2008,1674,0,0
791,-650,0,0,0,0,0,0,0,0,0,-1,2015,1674,0,0
798,-650,0,0,0,0,0,0,0,0,0,-1,2022,1674,0,0
805,-650,0,0,0,0,0,0,0,0,0,-1,2029,1674,0,0
812,-650,0,0,0,0,0,0,0,0,0,-1,2036,1674,0,0
-700,-657,0,0,0,0,0,0,0,0,0,-1,524,1681,0,0
-693,-657,0,0,0,0,0,0,0,0,0,-1,531,1681,0,0
-686,-657,0,0,0,0,0,0,0,0,0,-1,538,1681,0,0
-679,-657,0,0,0,0,0,0,0,0,0,-1,545,1681,0,0
-672,-657,0,0,0,0,0,0,0,0,0,-1,552,1681,0,0
-665,-657,0,0,0,0,0,0,0,0,0,-1,559,1681,0,0
-658,-657,0,0,0,0,0,0,0,0,0,-1,566,1681,0,0
-651,-657,0,0,0,0,0,0,0,0,0,-1,573,1681,0,0
-644,-657,0,0,0,0,0,0,0,0,0,-1,580,1681,0,0
-637,-657,0,0,0,0,0,0,0,0,0,-1,587,1681,0,0
-630,-657,0,0,0,0,0,0,0,0,0,-1,594,1681,0,0
-623,-657,0,0,0,0,0,0,0,0,0,-1,601,1681,0,0
-616,-657,0,0,0,0,0,0,0,0,0,-1,608,1681,0,0
-609,-657,0,0,0,0,0,0,0,0,0,-1,615,1681,0,0
-602,-657,0,0,0,0,0,0,0,0,0,-1,622,1681,0,0
-595,-657,0,0,0,0,0,0,0,0,0,-1,629,1681,0,0
-588,-657,0,0,0,0,0,0,0,0,0,-1,636,1681,0,0
-581,-657,0,0,0,0,0,0,0,0,0,-1,643,1681,0,0
-574,-657,0,0,0,0,0,0,0,0,0,-1,650,1681,0,0
-567,-657,0,0,0,0,0,0,0,0,0,-1,657,1681,0,0
-560,-657,0,0,0,0,0,0,0,0,0,-1,664,1681,0,0
-553,-657,0,0,0,0,0,0,0,0,0,-1,671,1681,0,0
-546,-657,0,0,0,0,0,0,0,0,0,-1,678,1681,0,0
-539,-657,0,0,0,0,0,0,0,0,0,-1,685,1681,0,0
-532,-657,0,0,0,0,0,0,0,0,0,-1,692,1681,0,0
-525,-657,0,0,0,0,0,0,0,0,0,-1,699,1681,0,0
-518,-657,0,0,0,0,0,0,0,0,0,-1,706,1681,0,0
-511,-657,0,0,0,0,0,0,0,0,0,-1,713,1681,0,0
-504,-657,0,0,0,0,0,0,0,0,0,-1,720,1681,0,0
-497,-657,0,0,0,0,0,0,0,0,0,-1,727,1681,0,0
-490,-657,0,0,0,0,0,0,0,0,0,-1,734,1681,0,0
-483,-657,0,0,0,0,0,0,0,0,0,-1,741,1681,0,0
-476,-657,0,0,0,0,0,0,0,0,0,-1,748,1681,0,0
-469,-657,0,0,0,0,0,0,0,0,0,-1,755,1681,0,0
-462,-657,0,0,0,0,0,0,0,0,0,-1,762,1681,0,0
-455,-657,0,0,0,0,0,0,0,0,0,-1,769,1681,0,0
-448,-657,0,0,0,0,0,0,0,0,0,-1,776,1681,0,0
-441,-657,0,0,0,0,0,0,0,0,0,-1,783,1681,0,0
-434,-657,0,0,0,0,0,0,0,0,0,-1,790,1681,0,0
-427,-657,0,0,0,0,0,0,0,0,0,-1,797,1681,0,0
-420,-657,0,0,0,0,0,0,0,0,0,-1,804,1681,0,0
-413,-657,0,0,0,0,0,0,0,0,0,-1,811,1681,0,0
-406,-657,0,0,0,0,0,0,0,0,0,-1,818,1681,0,0
-399,-657,0,0,0,0,0,0,0,0,0,-1,825,1681,0,0
-392,-657,0,0,0,0,0,0,0,0,0,-1,832,1681,0,0
-385,-657,1.09814,6.18896,0,0,0,0,0,0,0,-1,839,1681,1.09814,-6.18894
-378,-657,0.31488,4.46753,0,0,0,0,0,0,0,-1,846,1681,0.31487,-4.46755
-371,-657,-0.519043,2.69421,0,0,0,0,0,0,0,-1,853,1681,-0.519064,-2.69422
-364,-657,-3.42017,4.18323,0,0,0,0,0,0,0,-1,860,1681,-3.42019,-4.18319
-357,-657,-4.41913,2.97168,0,0,0,0,0,0,0,-1,867,1681,-4.41913,-2.97165
-350,-657,-5.42291,1.70276,0,0,0,0,0,0,0,-1,874,1681,-5.42291,-1.70277
-343,-657,-6.51294,0.397339,0,0,0,0,0,0,0,-1,881,1681,-6.51295,-0.397335
-336,-657,3.07172,15.946,0,0,0,0,0,0,0,-1,888,1681,3.07169,-15.946
-329,-657,4.4201,17.7438,0,0,0,0,0,0,0,-1,895,1681,4.4201,-17.7438
-322,-657,4.81763,18.8751,0,0,0,0,0,0,0,-1,902,1681,4.81761,-18.8752
-315,-657,4.64264,18.8607,-0.00273538,-0.00723263,5.20378e-06,-0.00273538,-0.00723263,0.0011571,0.00421686,0.0414472,909,1681,4.64266,-18.8608
-308,-657,4.57227,19.0514,-0.00207741,-0.00676797,0.000328589,-0.0020545,-0.00679088,0.0696003,0.00402134,0.0355126,916,1681,4.57226,-19.0513
-301,-657,4.62762,19.6317,-0.00142019,-0.00636699,0.000549168,-0.00135996,-0.00642722,0.109243,0.00391112,0.0292886,923,1681,4.62764,-19.6317
-294,-657,4.60321,19.9697,-0.000790742,-0.00561805,0.000734145,-0.000681561,-0.00572723,0.147636,0.00361246,0.0190211,930,1681,4.60319,-19.9697
-287,-657,4.58917,20.2498,-0.000338236,-0.00495767,0.000826122,-0.00019494,-0.00510097,0.171747,0.00333756,0.0141237,937,1681,4.58915,-20.2498
-280,-657,4.55573,20.5189,-7.243e-05,-0.00437873,0.000846931,8.81501e-05,-0.00453931,0.187378,0.00305601,0.0137084,944,1681,4.55571,-20.5189
-273,-657,4.56677,20.8265,0.00022836,-0.00380001,0.000905035,0.000422349,-0.003994,0.211149,0.00281403,0.00966601,951,1681,4.5668,-20.8265
-266,-657,4.55035,21.1183,0.000579811,-0.00312802,0.000958936,0.000813133,-0.00336134,0.238676,0.00255543,0.0138049,958,1681,4.55035,-21.1183
-259,-657,4.55365,21.407,0.000846748,-0.00243307,0.000977926,0.0011162,-0.00270252,0.268858,0.00226726,0.0177374,965,1681,4.55366,-21.407
-252,-657,4.52924,21.6635,0.00100861,-0.00172033,0.000925093,0.00129265,-0.00200437,0.297899,0.00191826,0.0129413,972,1681,4.52923,-21.6634
-245,-657,4.53296,21.9163,0.0011158,-0.00114503,0.000801413,0.00137106,-0.00140029,0.308356,0.00160007,0.0146362,979,1681,4.53293,-21.9163
-238,-657,4.55054,22.2024,0.00124478,-0.000648768,0.000833119,0.00155914,-0.000963132,0.360815,0.00146972,0.0204002,986,1681,4.55051,-22.2024
-231,-657,4.54932,22.4966,0.0014857,-1.16101e-05,0.000826695,0.00185235,-0.000378262,0.417448,0.0013784,0.0218937,993,1681,4.54929,-22.4966
-224,-657,4.52155,22.7656,0.00164983,0.00046512,0.000916685,0.0021489,-3.39441e-05,0.498551,0.00144404,0.0161892,1000,1681,4.52152,-22.7657
-217,-657,4.5238,23.0308,0.00173869,0.000731948,0.000906548,0.00227224,0.000198395,0.531962,0.00145322,0.00994062,1007,1681,4.52381,-23.0308
-210,-657,4.52747,23.2633,0.00180055,0.00101319,0.0010018,0.00248325,0.000330495,0.598181,0.00155707,0.0107262,1014,1681,4.52748,-23.2633
-203,-657,4.54004,23.4994,0.00193409,0.0012199,0.00108246,0.00271684,0.00043715,0.626074,0.00168452,0.0134925,1021,1681,4.54007,-23.4993
-196,-657,4.55212,23.7374,0.00189297,0.00127635,0.00119494,0.00281873,0.00035059,0.659145,0.00177388,0.0143407,1028,1681,4.55218,-23.7374
-189,-657,4.56323,23.9756,0.00173602,0.00140468,0.00130298,0.00288382,0.000256872,0.722164,0.0018429,0.0102978,1035,1681,4.5632,-23.9756
-182,-657,4.55884,24.218,0.00152025,0.00165393,0.00135133,0.00294007,0.000234114,0.810109,0.00188686,0.00821301,1042,1681,4.55888,-24.2181
-175,-657,4.58533,24.4253,0.0013264,0.00198836,0.00152243,0.00321537,9.9388e-05,0.892434,0.00211123,0.0101984,1049,1681,4.58535,-24.4253
-168,-657,4.57556,24.6465,0.00103757,0.00245698,0.00166665,0.00355874,-6.4188e-05,0.986682,0.00239417,0.0116393,1056,1681,4.57561,-24.6464
-161,-657,4.5603,24.866,0.000806201,0.00303005,0.0018152,0.00404682,-0.000210569,1.0602,0.00277074,0.0116314,1063,1681,4.56032,-24.866
-154,-657,4.60315,25.0549,0.000545738,0.00388667,0.00187883,0.00473026,-0.000297851,1.14878,0.00325733,0.0123573,1070,1681,4.60311,-25.055
-147,-657,4.61584,25.2526,0.000206845,0.0048788,0.00182401,0.00550657,-0.000420928,1.23932,0.0038191,0.0180831,1077,1681,4.61584,-25.2526
-140,-657,4.53247,25.5199,-2.9464e-05,0.00609415,0.00168115,0.00652533,-0.00046064,1.31973,0.00451161,0.0293765,1084,1681,4.53244,-25.5198
-133,-657,4.38342,25.8114,-0.000154797,0.00748332,0.00164132,0.00782108,-0.000492555,1.36784,0.00538575,0.0403952,1091,1681,4.3834,-25.8114
-126,-657,4.6991,26.3235,0,0,0,0,0,0,0,-1,1098,1681,4.69916,-26.3235
-119,-657,4.78113,26.5758,0,0,0,0,0,0,0,-1,1105,1681,4.78114,-26.5758
-112,-657,4.6051,21.3439,0,0,0,0,0,0,0,-1,1112,1681,4.60512,-21.3438
-105,-657,3.82434,14.4906,0,0,0,0,0,0,0,-1,1119,1681,3.8244,-14.4906
-98,-657,3.78662,8.16785,0,0,0,0,0,0,0,-1,1126,1681,3.78663,-8.16786
-91,-657,3.6521,16.6017,0,0,0,0,0,0,0,-1,1133,1681,3.65215,-16.6017
-84,-657,4.08008,10.4579,0,0,0,0,0,0,0,-1,1140,1681,4.08006,-10.4579
-77,-657,-5.29846,0.396606,0,0,0,0,0,0,0,-1,1147,1681,-5.29842,-0.396573
-70,-657,-4.14893,2.14575,0,0,0,0,0,0,0,-1,1154,1681,-4.14893,-2.1458
-63,-657,-4.1239,3.177,0,0,0,0,0,0,0,-1,1161,1681,-4.12391,-3.17698
-56,-657,-6.40576,5.73987,0,0,0,0,0,0,0,-1,1168,1681,-6.40577,-5.7399
-49,-657,-5.98462,7.54053,0,0,0,0,0,0,0,-1,1175,1681,-5.98466,-7.5405
-42,-657,-5.71948,9.28955,0,0,0,0,0,0,0,-1,1182,1681,-5.71951,-9.2895
-35,-657,-5.44556,11.015,0,0,0,0,0,0,0,-1,1189,1681,-5.44555,-11.015
-28,-657,-1.3446,8.92847,0,0,0,0,0,0,0,-1,1196,1681,-1.34459,-8.92848
-21,-657,5.80518,27.5039,0,0,0,0,0,0,0,-1,1203,1681,5.80519,-27.5039
-14,-657,6.0531,27.5211,0.0069172,-0.076592,0.0117857,0.00854866,-0.0782234,0.137552,0.0552195,0.0459915,1210,1681,6.05315,-27.5211
-7,-657,6.09583,27.9241,0.0158238,-0.0718393,0.0142586,0.0180847,-0.0741002,0.157253,0.0564032,0.0484024,1217,1681,6.09581,-27.924
0,-657,6.46179,28.37,0.028203,-0.0633978,0.018711,0.0318776,-0.0670724,0.19392,0.058321,0.0460185,1224,1681,6.46184,-28.3699
7,-657,6.91895,28.6484,0.0444486,-0.053373,0.0239371,0.0499919,-0.0589163,0.227567,0.0629485,0.0448158,1231,1681,6.91898,-28.6484
14,-657,6.57214,26.5571,0.0620766,-0.0421503,0.0283214,0.0692752,-0.0493488,0.248903,0.0688089,0.0411596,1238,1681,6.57217,-26.5571
21,-657,6.82898,26.6633,0.0790529,-0.0268137,0.0307637,0.0873433,-0.0351041,0.263233,0.072808,0.0401728,1245,1681,6.82896,-26.6634
28,-657,7.32715,27.42,0.0927449,0.0179077,0.0265867,0.101228,0.00942417,0.308876,0.0645738,0.0437883,1252,1681,7.32719,-27.42
35,-657,8.16418,27.8422,0.103609,0.0489294,0.022387,0.111605,0.0409331,0.343064,0.0651933,0.0395348,1259,1681,8.16423,-27.8421
42,-657,8.9917,28.0195,0,0,0,0,0,0,0,-1,1266,1681,8.99166,-28.0195
49,-657,10.9718,27.2681,0,0,0,0,0,0,0,-1,1273,1681,10.9718,-27.268
56,-657,13.111,30.1986,0,0,0,0,0,0,0,-1,1280,1681,13.111,-30.1986
63,-657,14.536,29.2031,0.107599,0.176999,-0.0270091,0.186271,0.0983266,-1.24009,0.107599,0.0487621,1287,1681,14.536,-29.2031
70,-657,16.0345,28.7888,0.0954561,0.19791,-0.0450745,0.214917,0.0784489,-1.21,0.125581,0.0467326,1294,1681,16.0345,-28.7888
77,-657,17.9507,28.2961,0.0810208,0.210354,-0.0639119,0.236607,0.0547671,-1.18103,0.143022,0.0462991,1301,1681,17.9507,-28.2962
84,-657,0.619995,28.4703,0.0643783,0.214814,-0.0814379,0.250456,0.0287366,-1.15826,0.158264,0.0453853,1308,1681,0.61994,-28.4703
91,-657,0.0397949,27.9669,0.0480236,0.217048,-0.0995702,0.263136,0.00193514,-1.13729,0.174783,0.0456214,1315,1681,0.0397345,-27.967
98,-657,0.189697,27.2375,0,0,0,0,0,0,0,-1,1322,1681,0.189734,-27.2376
105,-657,5.495,27.718,0,0,0,0,0,0,0,-1,1329,1681,5.49502,-27.7181
112,-657,5.77319,27.3425,0,0,0,0,0,0,0,-1,1336,1681,5.77322,-27.3425
119,-657,-0.791992,24.868,0,0,0,0,0,0,0,-1,1343,1681,-0.791973,-24.8681
126,-657,-0.75354,23.7534,-0.000500133,0.157935,-0.144614,0.243607,-0.0861726,-1.03597,0.197498,0.0499182,1350,1681,-0.75349,-23.7534
133,-657,-0.724731,22.6454,-0.000208013,0.15574,-0.146641,0.243849,-0.0883167,-1.02975,0.19866,0.048125,1357,1681,-0.724781,-22.6454
140,-657,-0.610474,21.5391,-0.00038126,0.171853,-0.151519,0.260018,-0.0885462,-1.04381,0.209203,0.0455496,1364,1681,-0.610417,-21.539
147,-657,-0.793335,20.8071,-0.0026693,0.184797,-0.158115,0.274875,-0.0927468,-1.05296,0.220758,0.0489949,1371,1681,-0.793292,-20.8071
154,-657,-0.901245,19.8323,0,0,0,0,0,0,0,-1,1378,1681,-0.901205,-19.8323
161,-657,4.2926,24.9226,0,0,0,0,0,0,0,-1,1385,1681,4.29264,-24.9226
168,-657,5.21643,0.70105,0,0,0,0,0,0,0,-1,1392,1681,5.21648,-0.7011
175,-657,5.52771,0.649048,0,0,0,0,0,0,0,-1,1399,1681,5.52774,-0.649019
182,-657,5.73999,1.02612,0,0,0,0,0,0,0,-1,1406,1681,5.73995,-1.02611
189,-657,5.92126,1.44116,0,0,0,0,0,0,0,-1,1413,1681,5.92126,-1.44115
196,-657,4.92834,9.59021,0,0,0,0,0,0,0,-1,1420,1681,4.9284,-9.59018
203,-657,6.26343,5.16492,0,0,0,0,0,0,0,-1,1427,1681,6.26345,-5.16488
210,-657,3.9856,5.28088,0,0,0,0,0,0,0,-1,1434,1681,3.98555,-5.28084
217,-657,3.95178,5.2843,0,0,0,0,0,0,0,-1,1441,1681,3.95174,-5.28431
224,-657,6.66736,-0.250244,0,0,0,0,0,0,0,-1,1448,1681,6.66737,0.250229
231,-657,6.85498,-1.70752,0,0,0,0,0,0,0,-1,1455,1681,6.855,1.70758
238,-657,5.34143,-2.89819,0,0,0,0,0,0,0,-1,1462,1681,5.34143,2.89813
245,-657,8.66003,-0.102783,0,0,0,0,0,0,0,-1,1469,1681,8.66,0.102824
252,-657,4.78955,0.623779,0,0,0,0,0,0,0,-1,1476,1681,4.7895,-0.623826
259,-657,2.61523,4.31909,0,0,0,0,0,0,0,-1,1483,1681,2.61523,-4.31908
266,-657,5.35437,11.4742,0,0,0,0,0,0,0,-1,1490,1681,5.35441,-11.4742
273,-657,7.57361,25.5,0,0,0,0,0,0,0,-1,1497,1681,7.57359,-25.5
280,-657,7.63489,25.5812,0.0052157,0.00225997,-0.000359514,0.0052588,0.00221687,-0.119315,0.0030486,0.0498518,1504,1681,7.6349,-25.5811
287,-657,7.84668,25.4526,0.00450626,0.00279984,-0.000193987,0.00452803,0.00277807,-0.111781,0.00263663,0.0339121,1511,1681,7.84673,-25.4527
294,-657,8.01587,25.2943,0.00370704,0.00297161,-9.45883e-05,0.00371901,0.00295963,-0.125886,0.00226898,0.0244717,1518,1681,8.01583,-25.2943
301,-657,7.9917,25.1487,0.00311851,0.00301842,-4.90698e-05,0.00313856,0.00299837,-0.387761,0.00204724,0.0164559,1525,1681,7.99173,-25.1487
308,-657,8.00854,24.9323,0.00280077,0.0034339,-0.000221002,0.00350341,0.00273126,-1.26606,0.0021255,0.0116365,1532,1681,8.00854,-24.9323
315,-657,8.0365,24.7043,0.00254107,0.00354905,-0.000344888,0.00365576,0.00243436,-1.27074,0.00214903,0.0103033,1539,1681,8.03655,-24.7044
322,-657,8.04956,24.4644,0.00239676,0.00380175,-0.000624531,0.00403923,0.00215929,-1.20744,0.00233391,0.0129432,1546,1681,8.04953,-24.4644
329,-657,8.03955,24.246,0.00227485,0.00379343,-0.000859616,0.00418108,0.00188721,-1.14715,0.00241775,0.0195624,1553,1681,8.03952,-24.2459
336,-657,8.04639,24.0446,0.00206164,0.00371832,-0.000970972,0.00416627,0.00161368,-1.13854,0.00242567,0.0173024,1560,1681,8.0464,-24.0445
343,-657,8.06775,23.8356,0.00186906,0.00348699,-0.0011454,0.0040803,0.00127576,-1.09286,0.00241025,0.0134194,1567,1681,8.06779,-23.8356
350,-657,8.0636,23.5924,0.00174344,0.00301768,-0.00130782,0.00383532,0.000925811,-1.01206,0.00231094,0.0147937,1574,1681,8.06361,-23.5924
357,-657,8.05957,23.358,0.00160635,0.00250696,-0.00137423,0.00350278,0.000610535,-0.943725,0.00216062,0.0144053,1581,1681,8.05956,-23.358
364,-657,8.06311,23.1428,0.0014146,0.00181936,-0.00133375,0.00296599,0.000267968,-0.860695,0.00189433,0.010132,1588,1681,8.06311,-23.1428
371,-657,8.05823,22.9128,0.00114823,0.00108218,-0.00123411,0.00234976,-0.000119352,-0.772022,0.00160777,0.0140034,1595,1681,8.05824,-22.9128
378,-657,8.04187,22.647,0.000901749,0.00027657,-0.00109704,0.00172987,-0.000551549,-0.646607,0.00137449,0.0149433,1602,1681,8.04189,-22.6469
385,-657,8.01672,22.3774,0.000726341,-0.000594334,-0.000961722,0.0012326,-0.0011006,-0.484553,0.00134779,0.0131319,1609,1681,8.01673,-22.3775
392,-657,8.01062,22.139,0.000486515,-0.00154128,-0.000772553,0.000747304,-0.00180207,-0.325557,0.00151329,0.0130118,1616,1681,8.01067,-22.139
399,-657,8.02161,21.8914,0.00017275,-0.00254293,-0.000544131,0.000277719,-0.0026479,-0.190569,0.00186474,0.0123653,1623,1681,8.02166,-21.8913
406,-657,8.02551,21.6284,-0.000133512,-0.00320392,-0.000319165,-0.000100686,-0.00323674,-0.102489,0.00212506,0.0138238,1630,1681,8.02556,-21.6284
413,-657,8.01379,21.3502,-0.00022793,-0.0034861,0.000120524,-0.000223478,-0.00349055,0.036924,0.00225624,0.0145394,1637,1681,8.01374,-21.3503
420,-657,8.02283,21.0433,0.000210882,-0.00431896,0.000657994,0.000304525,-0.0044126,0.141366,0.00304832,0.0171337,1644,1681,8.02279,-21.0433
427,-657,8.01746,20.7445,0.00132859,-0.00567346,0.000540393,0.00137005,-0.00571492,0.076572,0.00433934,0.0214287,1651,1681,8.0174,-20.7445
434,-657,8.07776,20.493,0.00220031,-0.00599357,0.000333327,0.00221385,-0.00600711,0.0405906,0.00491191,0.0296654,1658,1681,8.07774,-20.4931
441,-657,8.26294,20.2621,0,0,0,0,0,0,0,-1,1665,1681,8.2629,-20.2621
448,-657,7.71838,20.3318,0,0,0,0,0,0,0,-1,1672,1681,7.71842,-20.3318
455,-657,5.12244,16.671,0,0,0,0,0,0,0,-1,1679,1681,5.12248,-16.6711
462,-657,6.51733,15.4801,0,0,0,0,0,0,0,-1,1686,1681,6.51737,-15.4801
469,-657,7.38184,17.5225,0,0,0,0,0,0,0,-1,1693,1681,7.38188,-17.5224
476,-657,7.34668,19.126,0,0,0,0,0,0,0,-1,1700,1681,7.34674,-19.1259
483,-657,8.24194,18.7671,0,0,0,0,0,0,0,-1,1707,1681,8.24193,-18.767
490,-657,8.83167,18.0902,0,0,0,0,0,0,0,-1,1714,1681,8.83161,-18.0902
497,-657,9.20862,17.8127,0,0,0,0,0,0,0,-1,1721,1681,9.2086,-17.8127
504,-657,0,0,0,0,0,0,0,0,0,-1,1728,1681,0,0
511,-657,0,0,0,0,0,0,0,0,0,-1,1735,1681,0,0
518,-657,0,0,0,0,0,0,0,0,0,-1,1742,1681,0,0
525,-657,0,0,0,0,0,0,0,0,0,-1,1749,1681,0,0
532,-657,0,0,0,0,0,0,0,0,0,-1,1756,1681,0,0
539,-657,0,0,0,0,0,0,0,0,0,-1,1763,1681,0,0
546,-657,0,0,0,0,0,0,0,0,0,-1,1770,1681,0,0
553,-657,0,0,0,0,0,0,0,0,0,-1,1777,1681,0,0
560,-657,0,0,0,0,0,0,0,0,0,-1,1784,1681,0,0
567,-657,0,0,0,0,0,0,0,0,0,-1,1791,1681,0,0
574,-657,0,0,0,0,0,0,0,0,0,-1,1798,1681,0,0
581,-657,0,0,0,0,0,0,0,0,0,-1,1805,1681,0,0
588,-657,0,0,0,0,0,0,0,0,0,-1,1812,1681,0,0
595,-657,0,0,0,0,0,0,0,0,0,-1,1819,1681,0,0
602,-657,0,0,0,0,0,0,0,0,0,-1,1826,1681,0,0
609,-657,0,0,0,0,0,0,0,0,0,-1,1833,1681,0,0
616,-657,0,0,0,0,0,0,0,0,0,-1,1840,1681,0,0
623,-657,0,0,0,0,0,0,0,0,0,-1,1847,1681,0,0
630,-657,0,0,0,0,0,0,0,0,0,-1,1854,1681,0,0
637,-657,0,0,0,0,0,0,0,0,0,-1,1861,1681,0,0
644,-657,0,0,0,0,0,0,0,0,0,-1,1868,1681,0,0
651,-657,0,0,0,0,0,0,0,0,0,-1,1875,1681,0,0
658,-657,0,0,0,0,0,0,0,0,0,-1,1882,1681,0,0
665,-657,0,0,0,0,0,0,0,0,0,-1,1889,1681,0,0
672,-657,0,0,0,0,0,0,0,0,0,-1,1896,1681,0,0
679,-657,0,0,0,0,0,0,0,0,0,-1,1903,1681,0,0
686,-657,0,0,0,0,0,0,0,0,0,-1,1910,1681,0,0
693,-657,0,0,0,0,0,0,0,0,0,-1,1917,1681,0,0
700,-657,0,0,0,0,0,0,0,0,0,-1,1924,1681,0,0
707,-657,0,0,0,0,0,0,0,0,0,-1,1931,1681,0,0
714,-657,0,0,0,0,0,0,0,0,0,-1,1938,1681,0,0
721,-657,0,0,0,0,0,0,0,0,0,-1,1945,1681,0,0
728,-657,0,0,0,0,0,0,0,0,0,-1,1952,1681,0,0
735,-657,0,0,0,0,0,0,0,0,0,-1,1959,1681,0,0
742,-657,0,0,0,0,0,0,0,0,0,-1,1966,1681,0,0
749,-657,0,0,0,0,0,0,0,0,0,-1,1973,1681,0,0
756,-657,0,0,0,0,0,0,0,0,0,-1,1980,1681,0,0
763,-657,0,0,0,0,0,0,0,0,0,-1,1987,1681,0,0
770,-657,0,0,0,0,0,0,0,0,0,-1,1994,1681,0,0
777,-657,0,0,0,0,0,0,0,0,0,-1,2001,1681,0,0
784,-657,0,0,0,0,0,0,0,0,0,-1,2008,1681,0,0
791,-657,0,0,0,0,0,0,0,0,0,-1,2015,1681,0,0
798,-657,0,0,0,0,0,0,0,0,0,-1,2022,1681,0,0
805,-657,0,0,0,0,0,0,0,0,0,-1,2029,1681,0,0
812,-657,0,0,0,0,0,0,0,0,0,-1,2036,1681,0,0
-700,-664,0,0,0,0,0,0,0,0,0,-1,524,1688,0,0
-693,-664,0,0,0,0,0,0,0,0,0,-1,531,1688,0,0
-686,-664,0,0,0,0,0,0,0,0,0,-1,538,1688,0,0
-679,-664,0,0,0,0,0,0,0,0,0,-1,545,1688,0,0
-672,-664,0,0,0,0,0,0,0,0,0,-1,552,1688,0,0
-665,-664,0,0,0,0,0,0,0,0,0,-1,559,1688,0,0
-658,-664,0,0,0,0,0,0,0,0,0,-1,566,1688,0,0
-651,-664,0,0,0,0,0,0,0,0,0,-1,573,1688,0,0
-644,-664,0,0,0,0,0,0,0,0,0,-1,580,1688,0,0
-637,-664,0,0,0,0,0,0,0,0,0,-1,587,1688,0,0
-630,-664,0,0,0,0,0,0,0,0,0,-1,594,1688,0,0
-623,-664,0,0,0,0,0,0,0,0,0,-1,601,1688,0,0
-616,-664,0,0,0,0,0,0,0,0,0,-1,608,1688,0,0
-609,-664,0,0,0,0,0,0,0,0,0,-1,615,1688,0,0
-602,-664,0,0,0,0,0,0,0,0,0,-1,622,1688,0,0
-595,-664,0,0,0,0,0,0,0,0,0,-1,629,1688,0,0
-588,-664,0,0,0,0,0,0,0,0,0,-1,636,1688,0,0
-581,-664,0,0,0,0,0,0,0,0,0,-1,643,1688,0,0
-574,-664,0,0,0,0,0,0,0,0,0,-1,650,1688,0,0
-567,-664,0,0,0,0,0,0,0,0,0,-1,657,1688,0,0
-560,-664,0,0,0,0,0,0,0,0,0,-1,664,1688,0,0
-553,-664,0,0,0,0,0,0,0,0,0,-1,671,1688,0,0
-546,-664,0,0,0,0,0,0,0,0,0,-1,678,1688,0,0
-539,-664,0,0,0,0,0,0,0,0,0,-1,685,1688,0,0
-532,-664,0,0,0,0,0,0,0,0,0,-1,692,1688,0,0
-525,-664,0,0,0,0,0,0,0,0,0,-1,699,1688,0,0
-518,-664,0,0,0,0,0,0,0,0,0,-1,706,1688,0,0
-511,-664,0,0,0,0,0,0,0,0,0,-1,713,1688,0,0
-504,-664,0,0,0,0,0,0,0,0,0,-1,720,1688,0,0
-497,-664,0,0,0,0,0,0,0,0,0,-1,727,1688,0,0
-490,-664,0,0,0,0,0,0,0,0,0,-1,734,1688,0,0
-483,-664,0,0,0,0,0,0,0,0,0,-1,741,1688,0,0
-476,-664,0,0,0,0,0,0,0,0,0,-1,748,1688,0,0
-469,-664,0,0,0,0,0,0,0,0,0,-1,755,1688,0,0
-462,-664,0,0,0,0,0,0,0,0,0,-1,762,1688,0,0
-455,-664,0,0,0,0,0,0,0,0,0,-1,769,1688,0,0
-448,-664,0,0,0,0,0,0,0,0,0,-1,776,1688,0,0
-441,-664,0,0,0,0,0,0,0,0,0,-1,783,1688,0,0
-434,-664,0,0,0,0,0,0,0,0,0,-1,790,1688,0,0
-427,-664,0,0,0,0,0,0,0,0,0,-1,797,1688,0,0
-420,-664,0,0,0,0,0,0,0,0,0,-1,804,1688,0,0
-413,-664,0,0,0,0,0,0,0,0,0,-1,811,1688,0,0
-406,-664,0,0,0,0,0,0,0,0,0,-1,818,1688,0,0
-399,-664,0,0,0,0,0,0,0,0,0,-1,825,1688,0,0
-392,-664,0,0,0,0,0,0,0,0,0,-1,832,1688,0,0
-385,-664,0,0,0,0,0,0,0,0,0,-1,839,1688,0,0
-378,-664,0,0,0,0,0,0,0,0,0,-1,846,1688,0,0
-371,-664,-1.61676,5.92737,0,0,0,0,0,0,0,-1,853,1688,-1.61675,-5.92735
-364,-664,-3.901,5.87024,0,0,0,0,0,0,0,-1,860,1688,-3.90097,-5.87027
-357,-664,-4.81012,4.53479,0,0,0,0,0,0,0,-1,867,1688,-4.81012,-4.5348
-350,-664,-5.7193,3.19934,0,0,0,0,0,0,0,-1,874,1688,-5.71927,-3.19932
-343,-664,2.96515,14.8083,0,0,0,0,0,0,0,-1,881,1688,2.96517,-14.8083
-336,-664,2.79852,15.5814,0,0,0,0,0,0,0,-1,888,1688,2.79853,-15.5814
-329,-664,3.0072,16.3878,0,0,0,0,0,0,0,-1,895,1688,3.00721,-16.3878
-322,-664,4.93256,18.7107,0,0,0,0,0,0,0,-1,902,1688,4.93258,-18.7106
-315,-664,4.91699,18.8615,-0.00305225,-0.0105477,-0.000483684,-0.00302117,-0.0105788,-0.0641756,0.00629207,0.0451072,909,1688,4.917,-18.8615
-308,-664,4.86176,19.1547,-0.00216129,-0.0100996,-1.51217e-05,-0.00216126,-0.0100996,-0.00190489,0.00614079,0.0443294,916,1688,4.86177,-19.1547
-301,-664,4.61829,19.5543,-0.00134518,-0.00964302,0.000266898,-0.0013366,-0.00965159,0.0321206,0.00603837,0.0470195,923,1688,4.61826,-19.5543
-294,-664,4.89557,19.7814,-0.000624492,-0.00851305,0.0005487,-0.000586509,-0.00855103,0.0691128,0.00551559,0.0437784,930,1688,4.89558,-19.7813
-287,-664,4.95428,20.2852,-0.000117992,-0.00745017,0.000739428,-4.41659e-05,-0.007524,0.0995119,0.00500134,0.0331405,937,1688,4.95428,-20.2851
-280,-664,4.82025,20.577,0.000115861,-0.00651424,0.000844408,0.000221714,-0.0066201,0.124708,0.00448913,0.0228331,944,1688,4.82026,-20.577
-273,-664,4.85864,20.8138,0.000371665,-0.00561626,0.000974229,0.000526183,-0.00577078,0.157296,0.00403404,0.0157084,951,1688,4.85862,-20.8139
-266,-664,4.82117,21.1024,0.000690929,-0.00463844,0.00108108,0.000901881,-0.00484939,0.192709,0.00357171,0.0207805,958,1688,4.82115,-21.1024
-259,-664,4.81519,21.3956,0.000926851,-0.00364978,0.00113173,0.00119142,-0.00391435,0.229647,0.00308439,0.0185516,965,1688,4.81516,-21.3956
-252,-664,4.83069,21.6904,0.00101863,-0.00269832,0.00109646,0.00131797,-0.00299766,0.26651,0.00255376,0.0166179,972,1688,4.83068,-21.6905
-245,-664,4.80994,21.9341,0.00102726,-0.00195966,0.000938629,0.00129773,-0.00223013,0.280554,0.00206039,0.0203479,979,1688,4.80996,-21.934
-238,-664,4.84375,22.2157,0.00106446,-0.00133005,0.000978327,0.00141335,-0.00167893,0.342553,0.00178752,0.0232683,986,1688,4.84374,-22.2157
-231,-664,4.84686,22.4702,0.00124048,-0.000499369,0.000928385,0.00164282,-0.000901714,0.408948,0.00148972,0.0199969,993,1688,4.84688,-22.4702
-224,-664,4.79993,22.7701,0.00134787,4.55799e-05,0.00104525,0.00192821,-0.000534754,0.506834,0.00149593,0.0134741,1000,1688,4.79991,-22.7701
-217,-664,4.78375,23.0488,0.0013862,0.000337683,0.00100011,0.00199113,-0.000267246,0.543988,0.00142488,0.0106931,1007,1688,4.78377,-23.0489
-210,-664,4.77405,23.2836,0.00145687,0.000616358,0.000985864,0.00210832,-3.50871e-05,0.58392,0.00141738,0.0119952,1014,1688,4.77407,-23.2835
-203,-664,4.76001,23.5001,0.00157085,0.00083552,0.000989964,0.00225922,0.000147151,0.607596,0.00145957,0.0141876,1021,1688,4.75995,-23.5001
-196,-664,4.7688,23.7158,0.00152217,0.000898124,0.00102816,0.00228461,0.000135678,0.638078,0.00147992,0.0151022,1028,1688,4.76878,-23.7158
-189,-664,4.79004,23.9711,0.00138274,0.000932543,0.00103351,0.00221538,9.99001e-05,0.678174,0.00144477,0.0104245,1035,1688,4.79002,-23.9711
-182,-664,4.78491,24.202,0.00123046,0.00114682,0.000995033,0.00218455,0.000192726,0.764396,0.00139656,0.00912363,1042,1688,4.78496,-24.2021
-175,-664,4.79541,24.4053,0.0011262,0.00150463,0.00106611,0.00239819,0.000232645,0.873224,0.00152716,0.0121014,1049,1688,4.79541,-24.4052
-168,-664,4.80627,24.6188,0.000937743,0.00197202,0.00111242,0.00268163,0.000228131,1.00298,0.00171677,0.0132393,1056,1688,4.80622,-24.6188
-161,-664,4.80286,24.8318,0.000789542,0.00251733,0.00116855,0.00310665,0.000200223,1.1037,0.00200769,0.0098583,1063,1688,4.80288,-24.8317
-154,-664,4.83081,25.0371,0.000663626,0.00329052,0.00116255,0.00373112,0.000223029,1.20853,0.0024165,0.00952976,1070,1688,4.83082,-25.0372
-147,-664,4.83484,25.246,0.000530176,0.00415229,0.00105214,0.00443573,0.000246736,1.30765,0.00287844,0.0106507,1077,1688,4.83484,-25.2459
-140,-664,4.85437,25.4637,0.000472937,0.00515195,0.000873977,0.00530986,0.00031502,1.39204,0.00343971,0.0114815,1084,1688,4.85434,-25.4638
-133,-664,4.83984,25.6777,0.000562541,0.00629094,0.000819468,0.00640586,0.000447619,1.43146,0.00412946,0.0141704,1091,1688,4.83986,-25.6777
-126,-664,4.94763,26.0513,0.000947137,0.00783727,0.000969762,0.00797116,0.000813249,1.4336,0.00506484,0.0268136,1098,1688,4.94763,-26.0513
-119,-664,4.92517,26.2729,0.00162825,0.00900122,0.00105843,0.00915015,0.00147932,1.431,0.00567167,0.0387107,1105,1688,4.92512,-26.2729
-112,-664,5.28406,26.2239,0,0,0,0,0,0,0,-1,1112,1688,5.28402,-26.2239
-105,-664,4.48108,21.4276,0,0,0,0,0,0,0,-1,1119,1688,4.48104,-21.4276
-98,-664,4.98584,19.8645,0,0,0,0,0,0,0,-1,1126,1688,4.98586,-19.8645
-91,-664,5.41931,25.6302,0,0,0,0,0,0,0,-1,1133,1688,5.41932,-25.6302
-84,-664,3.48389,16.6913,0,0,0,0,0,0,0,-1,1140,1688,3.4839,-16.6913
-77,-664,4.52014,11.2122,0,0,0,0,0,0,0,-1,1147,1688,4.5202,-11.2122
-70,-664,4.20374,8.24524,0,0,0,0,0,0,0,-1,1154,1688,4.20379,-8.24519
-63,-664,-4.677,2.40503,0,0,0,0,0,0,0,-1,1161,1688,-4.67702,-2.40498
-56,-664,-4.66504,3.32727,0,0,0,0,0,0,0,-1,1168,1688,-4.6651,-3.32724
-49,-664,-2.54297,3.31848,0,0,0,0,0,0,0,-1,1175,1688,-2.54297,-3.31852
-42,-664,-0.359253,4.38684,0,0,0,0,0,0,0,-1,1182,1688,-0.359261,-4.38685
-35,-664,-0.705566,3.55017,0,0,0,0,0,0,0,-1,1189,1688,-0.705567,-3.55023
-28,-664,-1.54236,10.2538,0,0,0,0,0,0,0,-1,1196,1688,-1.54236,-10.2538
-21,-664,5.92847,27.5978,0,0,0,0,0,0,0,-1,1203,1688,5.92851,-27.5978
-14,-664,6.06531,27.6587,0.0102136,-0.0576816,0.0117543,0.012191,-0.0596589,0.166665,0.0443978,0.0436893,1210,1688,6.06535,-27.6587
-7,-664,6.05896,27.8652,0.0167723,-0.0541992,0.0138403,0.0193758,-0.0568028,0.185938,0.0457169,0.0460844,1217,1688,6.05892,-27.8653
0,-664,6.15454,28.2526,0,0,0,0,0,0,0,-1,1224,1688,6.15456,-28.2525
7,-664,6.50342,28.1908,0.0379328,-0.0406501,0.0213165,0.0433427,-0.04606,0.248543,0.0516246,0.0449392,1231,1688,6.50343,-28.1908
14,-664,6.41052,27.9703,0.0511018,-0.0321085,0.0243635,0.0577104,-0.0387172,0.264878,0.0560313,0.0431323,1238,1688,6.41054,-27.9703
21,-664,6.47058,27.6281,0.0636164,-0.0187117,0.0256864,0.0709732,-0.0260684,0.27894,0.057992,0.0442096,1245,1688,6.47055,-27.628
28,-664,6.67224,27.74,0.0732363,0.0209993,0.0211818,0.0807458,0.0134897,0.340703,0.049945,0.0433289,1252,1688,6.6722,-27.74
35,-664,6.90588,27.816,0,0,0,0,0,0,0,-1,1259,1688,6.90593,-27.816
42,-664,7.55042,29.1804,0,0,0,0,0,0,0,-1,1266,1688,7.55047,-29.1804
49,-664,7.35681,29.5111,0,0,0,0,0,0,0,-1,1273,1688,7.35678,-29.5111
56,-664,3.0592,29.4839,0,0,0,0,0,0,0,-1,1280,1688,3.0592,-29.4839
63,-664,13.7042,29.7284,0,0,0,0,0,0,0,-1,1287,1688,13.7042,-29.7284
70,-664,14.9989,29.0585,0.0732361,0.174566,-0.0423814,0.189955,0.0578472,-1.22249,0.112429,0.0491197,1294,1688,14.9989,-29.0585
77,-664,2.16052,28.3126,0.06198,0.18465,-0.058139,0.207826,0.0388039,-1.19147,0.127598,0.0443701,1301,1688,2.16047,-28.3126
84,-664,1.70007,28.016,0.0496549,0.186992,-0.0722029,0.217966,0.0186809,-1.16556,0.139501,0.044651,1308,1688,1.70002,-28.0159
91,-664,1.20313,27.4795,0.0371812,0.186354,-0.0868969,0.226285,-0.00274967,-1.14005,0.151781,0.0433547,1315,1688,1.20308,-27.4795
98,-664,1.10608,26.7146,0,0,0,0,0,0,0,-1,1322,1688,1.10605,-26.7146
105,-664,5.49744,28.1118,0.0158577,0.165867,-0.107826,0.222209,-0.0404847,-1.08929,0.163316,0.0489269,1329,1688,5.49748,-28.1119
112,-664,6.20532,27.5684,0.00849152,0.153148,-0.113606,0.215496,-0.0538568,-1.06887,0.16458,0.0477176,1336,1688,6.20528,-27.5683
119,-664,7.37402,28.0547,0,0,0,0,0,0,0,-1,1343,1688,7.374,-28.0547
126,-664,1.12854,22.6641,0,0,0,0,0,0,0,-1,1350,1688,1.1285,-22.6641
133,-664,0.999634,20.7312,0,0,0,0,0,0,0,-1,1357,1688,0.999576,-20.7312
140,-664,1.33057,19.7916,0,0,0,0,0,0,0,-1,1364,1688,1.33058,-19.7916
147,-664,1.66162,18.8521,0,0,0,0,0,0,0,-1,1371,1688,1.66159,-18.8521
154,-664,4.76721,26.2594,0,0,0,0,0,0,0,-1,1378,1688,4.76723,-26.2594
161,-664,4.60132,1.56238,0,0,0,0,0,0,0,-1,1385,1688,4.60134,-1.56233
168,-664,5.172,1.25488,0,0,0,0,0,0,0,-1,1392,1688,5.17203,-1.25484
175,-664,5.58313,1.16467,0,0,0,0,0,0,0,-1,1399,1688,5.58317,-1.16466
182,-664,5.74268,1.41113,0,0,0,0,0,0,0,-1,1406,1688,5.74263,-1.41115
189,-664,5.87744,1.87061,0,0,0,0,0,0,0,-1,1413,1688,5.87745,-1.87065
196,-664,6.7594,5.97473,0,0,0,0,0,0,0,-1,1420,1688,6.75943,-5.97478
203,-664,5.38452,5.22034,0,0,0,0,0,0,0,-1,1427,1688,5.38453,-5.2203
210,-664,5.25549,6.45715,0,0,0,0,0,0,0,-1,1434,1688,5.25549,-6.45721
217,-664,5.72009,6.73975,0,0,0,0,0,0,0,-1,1441,1688,5.72014,-6.73972
224,-664,5.05725,7.42908,0,0,0,0,0,0,0,-1,1448,1688,5.05723,-7.42912
231,-664,5.13318,7.60864,0,0,0,0,0,0,0,-1,1455,1688,5.13313,-7.60862
238,-664,4.23193,6.45471,0,0,0,0,0,0,0,-1,1462,1688,4.23197,-6.45476
245,-664,4.42004,6.80896,0,0,0,0,0,0,0,-1,1469,1688,4.4201,-6.80901
252,-664,3.67346,6.85461,0,0,0,0,0,0,0,-1,1476,1688,3.6734,-6.85462
259,-664,4.55823,11.7435,0,0,0,0,0,0,0,-1,1483,1688,4.55826,-11.7435
266,-664,7.50488,25.5299,0,0,0,0,0,0,0,-1,1490,1688,7.50483,-25.5299
273,-664,7.67639,25.6565,0,0,0,0,0,0,0,-1,1497,1688,7.67645,-25.6565
280,-664,7.67493,25.5826,0.00409741,0.000781267,-0.000153288,0.00410448,0.000774197,-0.0460937,0.00251824,0.0287331,1504,1688,7.67495,-25.5826
287,-664,7.67993,25.4265,0.00364354,0.00142705,-0.000100235,0.00364806,0.00142253,-0.0450998,0.00212315,0.0218038,1511,1688,7.67993,-25.4265
294,-664,7.74683,25.2695,0.00308104,0.00169991,-6.50522e-05,0.0030841,0.00169685,-0.0469619,0.00178359,0.0155825,1518,1688,7.7468,-25.2696
301,-664,7.79468,25.0972,0.00261693,0.0018568,-7.76239e-05,0.00262477,0.00184895,-0.100734,0.00155706,0.0101727,1525,1688,7.79463,-25.0972
308,-664,7.8208,24.905,0.00231285,0.0021829,-0.00022533,0.00248238,0.00201336,-0.645029,0.00152285,0.0101283,1532,1688,7.82083,-24.905
315,-664,7.82996,24.694,0.0020635,0.00225987,-0.000334851,0.00251064,0.00181274,-0.92801,0.00149639,0.0112909,1539,1688,7.8299,-24.694
322,-664,7.85437,24.4801,0.00188454,0.00239011,-0.00053934,0.00273296,0.00154169,-1.00454,0.00158219,0.0149945,1546,1688,7.85436,-24.4801
329,-664,7.83435,24.2813,0.00173496,0.00228433,-0.00072243,0.00278253,0.00123676,-0.967067,0.00160979,0.017748,1553,1688,7.83431,-24.2812
336,-664,7.8197,24.0492,0.00154168,0.00216419,-0.000835094,0.00274415,0.00096172,-0.963785,0.00160778,0.0151361,1560,1688,7.81973,-24.0492
343,-664,7.82007,23.832,0.0013404,0.00188186,-0.000984419,0.0026321,0.000590165,-0.919588,0.00159484,0.0119329,1567,1688,7.82003,-23.832
350,-664,7.82544,23.5995,0.00120082,0.00137742,-0.00112638,0.00241896,0.000159281,-0.824513,0.00156226,0.0127513,1574,1688,7.82549,-23.5994
357,-664,7.82605,23.3583,0.00107349,0.000790582,-0.00117869,0.00211919,-0.000255113,-0.725679,0.00150505,0.0130916,1581,1688,7.82606,-23.3583
364,-664,7.84338,23.1129,0.000896096,8.52936e-05,-0.0011444,0.00170478,-0.000723389,-0.615171,0.00143956,0.0113936,1588,1688,7.84344,-23.1129
371,-664,7.83606,22.8931,0.00068598,-0.000646462,-0.00109388,0.00130055,-0.00126103,-0.511876,0.00147898,0.0137507,1595,1688,7.8361,-22.893
378,-664,7.80444,22.6619,0.00051091,-0.00143595,-0.000996651,0.000930635,-0.00185567,-0.398592,0.00163796,0.013001,1602,1688,7.80447,-22.6618
385,-664,7.78857,22.4156,0.000417527,-0.00221063,-0.00090805,0.000700745,-0.00249385,-0.302335,0.00193883,0.0135336,1609,1688,7.78854,-22.4156
392,-664,7.75769,22.1666,0.000266756,-0.00304853,-0.000767132,0.00043566,-0.00321743,-0.216717,0.00230395,0.0151703,1616,1688,7.75766,-22.1667
399,-664,7.76855,21.9025,-1.02867e-06,-0.00407902,-0.000558706,7.41316e-05,-0.00415418,-0.133723,0.00279449,0.0134412,1623,1688,7.76853,-21.9025
406,-664,7.7876,21.6265,-0.000245351,-0.00477824,-0.000341919,-0.000219705,-0.00480389,-0.074866,0.00313193,0.0155277,1630,1688,7.78758,-21.6264
413,-664,7.80579,21.311,-0.00022625,-0.00497268,9.53058e-05,-0.000224337,-0.0049746,0.0200687,0.00324421,0.0182788,1637,1688,7.80575,-21.311
420,-664,7.8512,21.025,0.000372439,-0.00587203,0.0007099,0.000452127,-0.00595171,0.111784,0.00412678,0.0373375,1644,1688,7.85125,-21.0251
427,-664,7.91772,20.7388,0,0,0,0,0,0,0,-1,1651,1688,7.9177,-20.7387
434,-664,7.91602,20.3098,0,0,0,0,0,0,0,-1,1658,1688,7.91604,-20.3099
441,-664,7.88513,20.3176,0,0,0,0,0,0,0,-1,1665,1688,7.88513,-20.3176
448,-664,8.24695,21.0626,0,0,0,0,0,0,0,-1,1672,1688,8.24695,-21.0626
455,-664,7.53198,11.3838,0,0,0,0,0,0,0,-1,1679,1688,7.53195,-11.3838
462,-664,4.3147,4.25439,0,0,0,0,0,0,0,-1,1686,1688,4.31467,-4.25435
469,-664,6.05469,7.49341,0,0,0,0,0,0,0,-1,1693,1688,6.05474,-7.49339
476,-664,9.76514,11.5648,0,0,0,0,0,0,0,-1,1700,1688,9.76511,-11.5648
483,-664,8.41895,10.9768,0,0,0,0,0,0,0,-1,1707,1688,8.41897,-10.9769
490,-664,3.90771,13.2842,0,0,0,0,0,0,0,-1,1714,1688,3.90776,-13.2841
497,-664,0,0,0,0,0,0,0,0,0,-1,1721,1688,0,0
504,-664,0,0,0,0,0,0,0,0,0,-1,1728,1688,0,0
511,-664,0,0,0,0,0,0,0,0,0,-1,1735,1688,0,0
518,-664,0,0,0,0,0,0,0,0,0,-1,1742,1688,0,0
525,-664,0,0,0,0,0,0,0,0,0,-1,1749,1688,0,0
532,-664,0,0,0,0,0,0,0,0,0,-1,1756,1688,0,0
539,-664,0,0,0,0,0,0,0,0,0,-1,1763,1688,0,0
546,-664,0,0,0,0,0,0,0,0,0,-1,1770,1688,0,0
553,-664,0,0,0,0,0,0,0,0,0,-1,1777,1688,0,0
560,-664,0,0,0,0,0,0,0,0,0,-1,1784,1688,0,0
567,-664,0,0,0,0,0,0,0,0,0,-1,1791,1688,0,0
574,-664,0,0,0,0,0,0,0,0,0,-1,1798,1688,0,0
581,-664,0,0,0,0,0,0,0,0,0,-1,1805,1688,0,0
588,-664,0,0,0,0,0,0,0,0,0,-1,1812,1688,0,0
595,-664,0,0,0,0,0,0,0,0,0,-1,1819,1688,0,0
602,-664,0,0,0,0,0,0,0,0,0,-1,1826,1688,0,0
609,-664,0,0,0,0,0,0,0,0,0,-1,1833,1688,0,0
616,-664,0,0,0,0,0,0,0,0,0,-1,1840,1688,0,0
623,-664,0,0,0,0,0,0,0,0,0,-1,1847,1688,0,0
630,-664,0,0,0,0,0,0,0,0,0,-1,1854,1688,0,0
637,-664,0,0,0,0,0,0,0,0,0,-1,1861,1688,0,0
644,-664,0,0,0,0,0,0,0,0,0,-1,1868,1688,0,0
651,-664,0,0,0,0,0,0,0,0,0,-1,1875,1688,0,0
658,-664,0,0,0,0,0,0,0,0,0,-1,1882,1688,0,0
665,-664,0,0,0,0,0,0,0,0,0,-1,1889,1688,0,0
672,-664,0,0,0,0,0,0,0,0,0,-1,1896,1688,0,0
679,-664,0,0,0,0,0,0,0,0,0,-1,1903,1688,0,0
686,-664,0,0,0,0,0,0,0,0,0,-1,1910,1688,0,0
693,-664,0,0,0,0,0,0,0,0,0,-1,1917,1688,0,0
700,-664,0,0,0,0,0,0,0,0,0,-1,1924,1688,0,0
707,-664,0,0,0,0,0,0,0,0,0,-1,1931,1688,0,0
714,-664,0,0,0,0,0,0,0,0,0,-1,1938,1688,0,0
721,-664,0,0,0,0,0,0,0,0,0,-1,1945,1688,0,0
728,-664,0,0,0,0,0,0,0,0,0,-1,1952,1688,0,0
735,-664,0,0,0,0,0,0,0,0,0,-1,1959,1688,0,0
742,-664,0,0,0,0,0,0,0,0,0,-1,1966,1688,0,0
749,-664,0,0,0,0,0,0,0,0,0,-1,1973,1688,0,0
756,-664,0,0,0,0,0,0,0,0,0,-1,1980,1688,0,0
763,-664,0,0,0,0,0,0,0,0,0,-1,1987,1688,0,0
770,-664,0,0,0,0,0,0,0,0,0,-1,1994,1688,0,0
777,-664,0,0,0,0,0,0,0,0,0,-1,2001,1688,0,0
784,-664,0,0,0,0,0,0,0,0,0,-1,2008,1688,0,0
791,-664,0,0,0,0,0,0,0,0,0,-1,2015,1688,0,0
798,-664,0,0,0,0,0,0,0,0,0,-1,2022,1688,0,0
805,-664,0,0,0,0,0,0,0,0,0,-1,2029,1688,0,0
812,-664,0,0,0,0,0,0,0,0,0,-1,2036,1688,0,0
-700,-671,0,0,0,0,0,0,0,0,0,-1,524,1695,0,0
-693,-671,0,0,0,0,0,0,0,0,0,-1,531,1695,0,0
-686,-671,0,0,0,0,0,0,0,0,0,-1,538,1695,0,0
-679,-671,0,0,0,0,0,0,0,0,0,-1,545,1695,0,0
-672,-671,0,0,0,0,0,0,0,0,0,-1,552,1695,0,0
-665,-671,0,0,0,0,0,0,0,0,0,-1,559,1695,0,0
-658,-671,0,0,0,0,0,0,0,0,0,-1,566,1695,0,0
-651,-671,0,0,0,0,0,0,0,0,0,-1,573,1695,0,0
-644,-671,0,0,0,0,0,0,0,0,0,-1,580,1695,0,0
-637,-671,0,0,0,0,0,0,0,0,0,-1,587,1695,0,0
-630,-671,0,0,0,0,0,0,0,0,0,-1,594,1695,0,0
-623,-671,0,0,0,0,0,0,0,0,0,-1,601,1695,0,0
-616,-671,0,0,0,0,0,0,0,0,0,-1,608,1695,0,0
-609,-671,0,0,0,0,0,0,0,0,0,-1,615,1695,0,0
-602,-671,0,0,0,0,0,0,0,0,0,-1,622,1695,0,0
-595,-671,0,0,0,0,0,0,0,0,0,-1,629,1695,0,0
-588,-671,0,0,0,0,0,0,0,0,0,-1,636,1695,0,0
-581,-671,0,0,0,0,0,0,0,0,0,-1,643,1695,0,0
-574,-671,0,0,0,0,0,0,0,0,0,-1,650,1695,0,0
-567,-671,0,0,0,0,0,0,0,0,0,-1,657,1695,0,0
-560,-671,0,0,0,0,0,0,0,0,0,-1,664,1695,0,0
-553,-671,0,0,0,0,0,0,0,0,0,-1,671,1695,0,0
-546,-671,0,0,0,0,0,0,0,0,0,-1,678,1695,0,0
-539,-671,0,0,0,0,0,0,0,0,0,-1,685,1695,0,0
-532,-671,0,0,0,0,0,0,0,0,0,-1,692,1695,0,0
-525,-671,0,0,0,0,0,0,0,0,0,-1,699,1695,0,0
-518,-671,0,0,0,0,0,0,0,0,0,-1,706,1695,0,0
-511,-671,0,0,0,0,0,0,0,0,0,-1,713,1695,0,0
-504,-671,0,0,0,0,0,0,0,0,0,-1,720,1695,0,0
-497,-671,0,0,0,0,0,0,0,0,0,-1,727,1695,0,0
-490,-671,0,0,0,0,0,0,0,0,0,-1,734,1695,0,0
-483,-671,0,0,0,0,0,0,0,0,0,-1,741,1695,0,0
-476,-671,0,0,0,0,0,0,0,0,0,-1,748,1695,0,0
-469,-671,0,0,0,0,0,0,0,0,0,-1,755,1695,0,0
-462,-671,0,0,0,0,0,0,0,0,0,-1,762,1695,0,0
-455,-671,0,0,0,0,0,0,0,0,0,-1,769,1695,0,0
-448,-671,0,0,0,0,0,0,0,0,0,-1,776,1695,0,0
-441,-671,0,0,0,0,0,0,0,0,0,-1,783,1695,0,0
-434,-671,0,0,0,0,0,0,0,0,0,-1,790,1695,0,0
-427,-671,0,0,0,0,0,0,0,0,0,-1,797,1695,0,0
-420,-671,0,0,0,0,0,0,0,0,0,-1,804,1695,0,0
-413,-671,0,0,0,0,0,0,0,0,0,-1,811,1695,0,0
-406,-671,0,0,0,0,0,0,0,0,0,-1,818,1695,0,0
-399,-671,0,0,0,0,0,0,0,0,0,-1,825,1695,0,0
-392,-671,0,0,0,0,0,0,0,0,0,-1,832,1695,0,0
-385,-671,0,0,0,0,0,0,0,0,0,-1,839,1695,0,0
-378,-671,0,0,0,0,0,0,0,0,0,-1,846,1695,0,0
-371,-671,0,0,0,0,0,0,0,0,0,-1,853,1695,0,0
-364,-671,-4.18738,7.51416,0,0,0,0,0,0,0,-1,860,1695,-4.18739,-7.51419
-357,-671,-5.02393,6.07129,0,0,0,0,0,0,0,-1,867,1695,-5.0239,-6.07135
-350,-671,-5.72333,4.58386,0,0,0,0,0,0,0,-1,874,1695,-5.72333,-4.58386
-343,-671,-6.4884,3.11353,0,0,0,0,0,0,0,-1,881,1695,-6.48839,-3.11349
-336,-671,2.55884,15.6338,0,0,0,0,0,0,0,-1,888,1695,2.55886,-15.6338
-329,-671,2.71729,16.1058,0,0,0,0,0,0,0,-1,895,1695,2.71729,-16.1058
-322,-671,5.32996,18.7546,0,0,0,0,0,0,0,-1,902,1695,5.32993,-18.7547
-315,-671,5.31067,19.0585,-0.00321079,-0.0151431,-0.00143892,-0.00303972,-0.0153141,-0.118331,0.00936215,0.04897,909,1695,5.3107,-19.0584
-308,-671,5.29095,19.3882,-0.00195957,-0.0147217,-0.000780109,-0.00191206,-0.0147692,-0.0608251,0.0092747,0.0465654,916,1695,5.29093,-19.3881
-301,-671,4.93573,19.2954,0,0,0,0,0,0,0,-1,923,1695,4.93573,-19.2954
-294,-671,5.18329,19.515,0,0,0,0,0,0,0,-1,930,1695,5.18327,-19.515
-287,-671,5.35046,20.2656,0.000454827,-0.010681,0.000425389,0.000471054,-0.0106972,0.0381261,0.00729355,0.0481083,937,1695,5.35048,-20.2656
-280,-671,5.26312,20.72,0.000672685,-0.00923227,0.000718044,0.000724468,-0.00928405,0.0719918,0.00644445,0.0407914,944,1695,5.26312,-20.72
-273,-671,5.16376,20.8925,0.00088337,-0.00790461,0.00099838,0.000995366,-0.00801661,0.111711,0.00570521,0.0354582,951,1695,5.16373,-20.8924
-266,-671,5.21985,21.1711,0.0011617,-0.00652981,0.0012089,0.00134723,-0.00671534,0.152283,0.00498701,0.0260706,958,1695,5.21982,-21.1712
-259,-671,5.07233,21.4109,0.00135977,-0.00514819,0.00131643,0.00161598,-0.00540439,0.192216,0.00424537,0.0228457,965,1695,5.07234,-21.4109
-252,-671,5.07227,21.7,0.00136868,-0.00390131,0.00132498,0.00168305,-0.00421568,0.232958,0.00350871,0.0170527,972,1695,5.07227,-21.6999
-245,-671,5.0639,21.9767,0.00125624,-0.00296839,0.00114767,0.00154788,-0.00326003,0.248851,0.00283392,0.0205947,979,1695,5.06391,-21.9767
-238,-671,5.0921,22.2393,0.00117496,-0.002184,0.00119081,0.00155429,-0.00256333,0.308382,0.00240098,0.0206912,986,1695,5.0921,-22.2392
-231,-671,5.08417,22.4962,0.00124082,-0.00119611,0.00108681,0.00165509,-0.00161037,0.364175,0.00188538,0.0145768,993,1695,5.08414,-22.4962
-224,-671,5.03796,22.7589,0.00125718,-0.000622733,0.0012301,0.00186534,-0.00123089,0.459157,0.00180008,0.0114804,1000,1695,5.03797,-22.7589
-217,-671,5.02112,23.0161,0.00121104,-0.000343061,0.00114258,0.00181576,-0.00094778,0.48678,0.00162155,0.0116409,1007,1695,5.02112,-23.0161
-210,-671,5.0307,23.2776,0.0012567,-7.59809e-05,0.00104149,0.00182677,-0.000646049,0.500813,0.00148094,0.0117135,1014,1695,5.03068,-23.2776
-203,-671,5.00073,23.489,0.00133811,0.000153933,0.000992387,0.00190162,-0.000409574,0.516429,0.00142404,0.0194626,1021,1695,5.00071,-23.489
-196,-671,5.00024,23.7286,0.00126878,0.000223741,0.000990215,0.00186588,-0.000373362,0.542625,0.00138525,0.0165972,1028,1695,5.00028,-23.7286
-189,-671,5.04163,24.0031,0.00113617,0.000183164,0.00093542,0.00170946,-0.000390127,0.549829,0.00128951,0.0126274,1035,1695,5.04168,-24.0031
-182,-671,5.01477,24.2094,0.00102708,0.000389746,0.000857536,0.00162324,-0.000206419,0.607503,0.00115712,0.00974646,1042,1695,5.01472,-24.2094
-175,-671,5.00403,24.4072,0.000993825,0.000792153,0.000879409,0.00177816,7.8181e-06,0.728316,0.00118284,0.0119107,1049,1695,5.00403,-24.4072
-168,-671,5.0094,24.6068,0.000869247,0.00129888,0.000875788,0.00198581,0.000182317,0.905667,0.00126748,0.0134957,1056,1695,5.00941,-24.6068
-161,-671,5.02051,24.8315,0.00077051,0.00185842,0.000883691,0.00235215,0.000276777,1.06129,0.00148447,0.00946621,1063,1695,5.02049,-24.8316
-154,-671,5.03723,25.0433,0.000727108,0.00258921,0.000847419,0.00291712,0.000399201,1.20159,0.00182628,0.00810471,1070,1695,5.03718,-25.0433
-147,-671,5.04871,25.2629,0.000715263,0.00339296,0.000705023,0.00356725,0.000540978,1.32845,0.00221992,0.00911603,1077,1695,5.04871,-25.263
-140,-671,5.06519,25.4611,0.000747516,0.004269,0.000509276,0.00434117,0.000675344,1.43002,0.00269733,0.0111286,1084,1695,5.06522,-25.4611
-133,-671,5.07532,25.6428,0.000907472,0.00520842,0.000407515,0.00524669,0.0008692,1.47716,0.00324707,0.014984,1091,1695,5.07528,-25.6429
-126,-671,5.11096,25.8545,0.00132763,0.00641714,0.000534331,0.00647263,0.00127213,1.46731,0.00395975,0.0200938,1098,1695,5.11098,-25.8545
-119,-671,5.1394,26.1504,0.0019521,0.00730073,0.000618971,0.00737142,0.00188141,1.45707,0.00442261,0.0339406,1105,1695,5.13944,-26.1503
-112,-671,5.18579,26.4012,0.0027669,0.0083536,0.000770298,0.00845786,0.00266264,1.43626,0.00499354,0.0485038,1112,1695,5.18581,-26.4013
-105,-671,5.25964,26.5646,0,0,0,0,0,0,0,-1,1119,1695,5.2597,-26.5645
-98,-671,5.10828,26.5083,0,0,0,0,0,0,0,-1,1126,1695,5.10829,-26.5083
-91,-671,5.23071,26.5485,0,0,0,0,0,0,0,-1,1133,1695,5.23071,-26.5484
-84,-671,5.4209,26.2415,0,0,0,0,0,0,0,-1,1140,1695,5.42096,-26.2414
-77,-671,4.31763,16.489,0,0,0,0,0,0,0,-1,1147,1695,4.31757,-16.489
-70,-671,3.06067,10.7737,0,0,0,0,0,0,0,-1,1154,1695,3.0607,-10.7737
-63,-671,2.94592,6.90198,0,0,0,0,0,0,0,-1,1161,1695,2.94594,-6.90198
-56,-671,-3.07678,2.87976,0,0,0,0,0,0,0,-1,1168,1695,-3.07675,-2.87979
-49,-671,-1.05957,4.76917,0,0,0,0,0,0,0,-1,1175,1695,-1.05958,-4.76921
-42,-671,0.539307,3.7865,0,0,0,0,0,0,0,-1,1182,1695,0.539266,-3.78648
-35,-671,-0.272461,0.347534,0,0,0,0,0,0,0,-1,1189,1695,-0.272434,-0.347569
-28,-671,-10.4878,17.2009,0,0,0,0,0,0,0,-1,1196,1695,-10.4878,-17.2009
-21,-671,5.97766,27.6023,0,0,0,0,0,0,0,-1,1203,1695,5.9777,-27.6023
-14,-671,6.0813,27.6628,0.0114298,-0.0418367,0.011035,0.0136253,-0.0440323,0.1964,0.0347975,0.0434457,1210,1695,6.08126,-27.6628
-7,-671,6.03149,27.7817,0.0162486,-0.0394116,0.0128204,0.0190596,-0.0422226,0.215845,0.036214,0.0463181,1217,1695,6.03149,-27.7817
0,-671,6.1261,28.24,0.0230786,-0.0350025,0.0157089,0.0270551,-0.038979,0.247926,0.0383314,0.0452904,1224,1695,6.12612,-28.24
7,-671,6.08521,28.5184,0.0314856,-0.0297561,0.0183843,0.0365805,-0.0348511,0.270352,0.0412451,0.0426016,1231,1695,6.08519,-28.5184
14,-671,5.98584,28.3159,0.0409895,-0.0234083,0.0203279,0.0468694,-0.0292882,0.281567,0.0443584,0.0434433,1238,1695,5.98586,-28.3159
21,-671,6.08984,28.1316,0.0498563,-0.0120383,0.0208279,0.0562123,-0.0183943,0.296192,0.0448809,0.0450464,1245,1695,6.08979,-28.1315
28,-671,6.18872,28.0494,0.0562727,0.0214208,0.0164541,0.0628134,0.0148801,0.378361,0.0379021,0.0456087,1252,1695,6.18872,-28.0494
35,-671,7.35986,28.6959,0.0612738,0.043453,0.0122622,0.0675212,0.0372057,0.471201,0.039051,0.0415433,1259,1695,7.35985,-28.6959
42,-671,7.04065,29.1073,0.0635263,0.0649583,0.00500463,0.0692979,0.0591867,0.856453,0.0432242,0.0470274,1266,1695,7.04059,-29.1073
49,-671,6.90662,29.4,0,0,0,0,0,0,0,-1,1273,1695,6.90662,-29.4
56,-671,4.10144,29.5437,0.0640479,0.11342,-0.0150414,0.117642,0.0598264,-1.29718,0.0679237,0.0461145,1280,1695,4.10142,-29.5437
63,-671,3.82764,29.2889,0.0608352,0.133086,-0.0263605,0.141681,0.0522401,-1.25561,0.0827344,0.0467809,1287,1695,3.82765,-29.2889
70,-671,3.47791,28.7657,0.0542298,0.147269,-0.0384032,0.161072,0.0404262,-1.22574,0.0967633,0.0451869,1294,1695,3.47787,-28.7657
77,-671,3.20386,28.2045,0.0457112,0.154936,-0.0511524,0.175151,0.0254966,-1.19445,0.109264,0.0448831,1301,1695,3.2039,-28.2045
84,-671,2.93115,27.8358,0.0369529,0.155676,-0.0620529,0.182188,0.0104404,-1.16702,0.118133,0.0476292,1308,1695,2.93116,-27.8359
91,-671,2.51587,27.2601,0.0279734,0.153226,-0.0734518,0.187125,-0.00592607,-1.1384,0.126772,0.0435411,1315,1695,2.51586,-27.2602
98,-671,2.16394,26.6036,0,0,0,0,0,0,0,-1,1322,1695,2.16393,-26.6036
105,-671,6.46143,28.4261,0.0133251,0.132932,-0.0884114,0.179866,-0.0336096,-1.08276,0.132542,0.0461789,1329,1695,6.46144,-28.4261
112,-671,6.66736,27.7877,0.00852096,0.122039,-0.0921271,0.173488,-0.042928,-1.06148,0.13231,0.0422564,1336,1695,6.66733,-27.7878
119,-671,7.13379,27.8174,0.00524025,0.112449,-0.0948942,0.167832,-0.0501433,-1.0425,0.131821,0.046946,1343,1695,7.13378,-27.8174
126,-671,7.19617,27.8719,0,0,0,0,0,0,0,-1,1350,1695,7.19621,-27.8719
133,-671,7.53931,27.6052,0,0,0,0,0,0,0,-1,1357,1695,7.53931,-27.6052
140,-671,3.52539,17.9869,0,0,0,0,0,0,0,-1,1364,1695,3.52534,-17.987
147,-671,8.0719,28.8245,0,0,0,0,0,0,0,-1,1371,1695,8.07184,-28.8245
154,-671,7.93762,28.3004,0,0,0,0,0,0,0,-1,1378,1695,7.93764,-28.3004
161,-671,4.49292,4.91272,0,0,0,0,0,0,0,-1,1385,1695,4.49297,-4.91273
168,-671,5.17639,6.1416,0,0,0,0,0,0,0,-1,1392,1695,5.1764,-6.14164
175,-671,5.6731,1.64685,0,0,0,0,0,0,0,-1,1399,1695,5.67313,-1.64691
182,-671,5.56812,1.71692,0,0,0,0,0,0,0,-1,1406,1695,5.56809,-1.71686
189,-671,6.98315,6.36169,0,0,0,0,0,0,0,-1,1413,1695,6.98312,-6.36175
196,-671,5.38123,5.69775,0,0,0,0,0,0,0,-1,1420,1695,5.38125,-5.69769
203,-671,5.95117,8.11658,0,0,0,0,0,0,0,-1,1427,1695,5.9512,-8.11662
210,-671,4.73596,8.39624,0,0,0,0,0,0,0,-1,1434,1695,4.736,-8.39618
217,-671,5.37097,11.863,0,0,0,0,0,0,0,-1,1441,1695,5.37094,-11.863
224,-671,5.08167,13.6694,0,0,0,0,0,0,0,-1,1448,1695,5.08165,-13.6695
231,-671,5.66663,15.3348,0,0,0,0,0,0,0,-1,1455,1695,5.66667,-15.3349
238,-671,6.32959,16.2036,0,0,0,0,0,0,0,-1,1462,1695,6.32961,-16.2037
245,-671,7.84521,25.1002,0,0,0,0,0,0,0,-1,1469,1695,7.84527,-25.1003
252,-671,7.50378,25.9575,0,0,0,0,0,0,0,-1,1476,1695,7.50382,-25.9576
259,-671,7.41833,25.7853,0,0,0,0,0,0,0,-1,1483,1695,7.41838,-25.7853
266,-671,7.48901,25.9259,0.00350381,-0.000750342,0.000218928,0.00351505,-0.000761579,0.0512815,0.00263418,0.0372764,1490,1695,7.48898,-25.9259
273,-671,7.5343,25.8074,0.00342026,-0.000590132,8.95309e-05,0.00342226,-0.000592129,0.0223099,0.00250234,0.0124357,1497,1695,7.53425,-25.8073
280,-671,7.54504,25.6602,0.00324844,-0.000118772,-3.20812e-05,0.00324875,-0.000119078,-0.00952637,0.0022066,0.00928021,1504,1695,7.54502,-25.6602
287,-671,7.54517,25.4272,0.00291035,0.000522569,-4.6735e-05,0.00291126,0.000521655,-0.0195626,0.00179244,0.0114519,1511,1695,7.54517,-25.4272
294,-671,7.54871,25.2125,0.0024884,0.000915704,-7.96343e-05,0.00249243,0.000911682,-0.0504633,0.00145618,0.0116512,1518,1695,7.54869,-25.2126
301,-671,7.5769,25.0553,0.00210436,0.00118859,-0.000160606,0.00213171,0.00116124,-0.168674,0.00123238,0.0100327,1525,1695,7.5769,-25.0553
308,-671,7.58557,24.8894,0.00180529,0.00148487,-0.000321257,0.00200407,0.00128609,-0.5541,0.00117244,0.0110421,1532,1695,7.58558,-24.8894
315,-671,7.60168,24.6993,0.00156721,0.00153597,-0.000445361,0.00199722,0.00110595,-0.767871,0.00115532,0.0132666,1539,1695,7.60164,-24.6993
322,-671,7.6167,24.5033,0.00135841,0.00152137,-0.000585437,0.00203097,0.000848813,-0.854544,0.00117784,0.0157703,1546,1695,7.61672,-24.5033
329,-671,7.58496,24.2964,0.00119882,0.00131644,-0.000738405,0.00199838,0.000516891,-0.825137,0.00119773,0.0146316,1553,1695,7.58496,-24.2964
336,-671,7.5896,24.0527,0.00104987,0.00111543,-0.000874306,0.00195757,0.000207728,-0.804137,0.00124161,0.0119733,1560,1695,7.58963,-24.0527
343,-671,7.60986,23.8223,0.000853698,0.000729524,-0.00101541,0.00180892,-0.000225694,-0.754864,0.00128778,0.0115516,1567,1695,7.60988,-23.8222
350,-671,7.61328,23.6169,0.000717388,0.00013753,-0.00114819,0.00161169,-0.000756772,-0.661729,0.00139681,0.010896,1574,1695,7.6133,-23.617
357,-671,7.60718,23.3585,0.000639139,-0.0005667,-0.00120094,0.00138001,-0.00130757,-0.552759,0.00155186,0.0105877,1581,1695,7.60721,-23.3585
364,-671,7.599,23.1006,0.000522287,-0.0013228,-0.00119617,0.00111034,-0.00191086,-0.456917,0.00176458,0.0131691,1588,1695,7.59899,-23.1006
371,-671,7.58765,22.8969,0.000411506,-0.0021008,-0.00122331,0.000908755,-0.00259805,-0.386077,0.0021015,0.0146871,1595,1695,7.58764,-22.8969
378,-671,7.5769,22.6783,0.00033811,-0.00286986,-0.00119874,0.000736563,-0.00326831,-0.320903,0.00246141,0.0119744,1602,1695,7.57687,-22.6783
385,-671,7.56531,22.4059,0.000363208,-0.00355571,-0.00118823,0.000695335,-0.00388783,-0.272558,0.00285206,0.0133878,1609,1695,7.56526,-22.4059
392,-671,7.51038,22.2025,0.000352856,-0.00429372,-0.00113152,0.000613752,-0.00455461,-0.226611,0.00326031,0.0200803,1616,1695,7.51032,-22.2026
399,-671,7.47009,21.8953,0.00018668,-0.0053823,-0.000968953,0.000350453,-0.00554607,-0.167438,0.00381956,0.0214669,1623,1695,7.47012,-21.8953
406,-671,7.53589,21.5713,5.95293e-05,-0.00617818,-0.000769559,0.000153068,-0.00627172,-0.120956,0.00423309,0.0350984,1630,1695,7.53594,-21.5713
413,-671,7.51331,21.4559,0.000263726,-0.00635602,-0.00034204,0.000281352,-0.00637365,-0.0514869,0.00434592,0.0459301,1637,1695,7.51336,-21.456
420,-671,7.68945,21.1465,0,0,0,0,0,0,0,-1,1644,1695,7.68947,-21.1465
427,-671,7.78882,21.553,0,0,0,0,0,0,0,-1,1651,1695,7.78887,-21.553
434,-671,7.5802,21.1841,0,0,0,0,0,0,0,-1,1658,1695,7.58014,-21.1841
441,-671,7.26685,21.1763,0,0,0,0,0,0,0,-1,1665,1695,7.26684,-21.1763
448,-671,7.90466,21.3672,0,0,0,0,0,0,0,-1,1672,1695,7.90463,-21.3671
455,-671,3.40137,9.28076,0,0,0,0,0,0,0,-1,1679,1695,3.40135,-9.28082
462,-671,5.86255,4.47961,0,0,0,0,0,0,0,-1,1686,1695,5.8625,-4.4796
469,-671,3.71301,3.76978,0,0,0,0,0,0,0,-1,1693,1695,3.71297,-3.76974
476,-671,3.75574,3.18848,0,0,0,0,0,0,0,-1,1700,1695,3.7558,-3.18847
483,-671,7.81824,12.1041,0,0,0,0,0,0,0,-1,1707,1695,7.81826,-12.1041
490,-671,0,0,0,0,0,0,0,0,0,-1,1714,1695,0,0
497,-671,0,0,0,0,0,0,0,0,0,-1,1721,1695,0,0
504,-671,0,0,0,0,0,0,0,0,0,-1,1728,1695,0,0
511,-671,0,0,0,0,0,0,0,0,0,-1,1735,1695,0,0
518,-671,0,0,0,0,0,0,0,0,0,-1,1742,1695,0,0
525,-671,0,0,0,0,0,0,0,0,0,-1,1749,1695,0,0
532,-671,0,0,0,0,0,0,0,0,0,-1,1756,1695,0,0
539,-671,0,0,0,0,0,0,0,0,0,-1,1763,1695,0,0
546,-671,0,0,0,0,0,0,0,0,0,-1,1770,1695,0,0
553,-671,0,0,0,0,0,0,0,0,0,-1,1777,1695,0,0
560,-671,0,0,0,0,0,0,0,0,0,-1,1784,1695,0,0
567,-671,0,0,0,0,0,0,0,0,0,-1,1791,1695,0,0
574,-671,0,0,0,0,0,0,0,0,0,-1,1798,1695,0,0
581,-671,0,0,0,0,0,0,0,0,0,-1,1805,1695,0,0
588,-671,0,0,0,0,0,0,0,0,0,-1,1812,1695,0,0
595,-671,0,0,0,0,0,0,0,0,0,-1,1819,1695,0,0
602,-671,0,0,0,0,0,0,0,0,0,-1,1826,1695,0,0
609,-671,0,0,0,0,0,0,0,0,0,-1,1833,1695,0,0
616,-671,0,0,0,0,0,0,0,0,0,-1,1840,1695,0,0
623,-671,0,0,0,0,0,0,0,0,0,-1,1847,1695,0,0
630,-671,0,0,0,0,0,0,0,0,0,-1,1854,1695,0,0
637,-671,0,0,0,0,0,0,0,0,0,-1,1861,1695,0,0
644,-671,0,0,0,0,0,0,0,0,0,-1,1868,1695,0,0
651,-671,0,0,0,0,0,0,0,0,0,-1,1875,1695,0,0
658,-671,0,0,0,0,0,0,0,0,0,-1,1882,1695,0,0
665,-671,0,0,0,0,0,0,0,0,0,-1,1889,1695,0,0
672,-671,0,0,0,0,0,0,0,0,0,-1,1896,1695,0,0
679,-671,0,0,0,0,0,0,0,0,0,-1,1903,1695,0,0
686,-671,0,0,0,0,0,0,0,0,0,-1,1910,1695,0,0
693,-671,0,0,0,0,0,0,0,0,0,-1,1917,1695,0,0
700,-671,0,0,0,0,0,0,0,0,0,-1,1924,1695,0,0
707,-671,0,0,0,0,0,0,0,0,0,-1,1931,1695,0,0
714,-671,0,0,0,0,0,0,0,0,0,-1,1938,1695,0,0
721,-671,0,0,0,0,0,0,0,0,0,-1,1945,1695,0,0
728,-671,0,0,0,0,0,0,0,0,0,-1,1952,1695,0,0
735,-671,0,0,0,0,0,0,0,0,0,-1,1959,1695,0,0
742,-671,0,0,0,0,0,0,0,0,0,-1,1966,1695,0,0
749,-671,0,0,0,0,0,0,0,0,0,-1,1973,1695,0,0
756,-671,0,0,0,0,0,0,0,0,0,-1,1980,1695,0,0
763,-671,0,0,0,0,0,0,0,0,0,-1,1987,1695,0,0
770,-671,0,0,0,0,0,0,0,0,0,-1,1994,1695,0,0
777,-671,0,0,0,0,0,0,0,0,0,-1,2001,1695,0,0
784,-671,0,0,0,0,0,0,0,0,0,-1,2008,1695,0,0
791,-671,0,0,0,0,0,0,0,0,0,-1,2015,1695,0,0
798,-671,0,0,0,0,0,0,0,0,0,-1,2022,1695,0,0
805,-671,0,0,0,0,0,0,0,0,0,-1,2029,1695,0,0
812,-671,0,0,0,0,0,0,0,0,0,-1,2036,1695,0,0
-700,-678,0,0,0,0,0,0,0,0,0,-1,524,1702,0,0
-693,-678,0,0,0,0,0,0,0,0,0,-1,531,1702,0,0
-686,-678,0,0,0,0,0,0,0,0,0,-1,538,1702,0,0
-679,-678,0,0,0,0,0,0,0,0,0,-1,545,1702,0,0
-672,-678,0,0,0,0,0,0,0,0,0,-1,552,1702,0,0
-665,-678,0,0,0,0,0,0,0,0,0,-1,559,1702,0,0
-658,-678,0,0,0,0,0,0,0,0,0,-1,566,1702,0,0
-651,-678,0,0,0,0,0,0,0,0,0,-1,573,1702,0,0
-644,-678,0,0,0,0,0,0,0,0,0,-1,580,1702,0,0
-637,-678,0,0,0,0,0,0,0,0,0,-1,587,1702,0,0
-630,-678,0,0,0,0,0,0,0,0,0,-1,594,1702,0,0
-623,-678,0,0,0,0,0,0,0,0,0,-1,601,1702,0,0
-616,-678,0,0,0,0,0,0,0,0,0,-1,608,1702,0,0
-609,-678,0,0,0,0,0,0,0,0,0,-1,615,1702,0,0
-602,-678,0,0,0,0,0,0,0,0,0,-1,622,1702,0,0
-595,-678,0,0,0,0,0,0,0,0,0,-1,629,1702,0,0
-588,-678,0,0,0,0,0,0,0,0,0,-1,636,1702,0,0
-581,-678,0,0,0,0,0,0,0,0,0,-1,643,1702,0,0
-574,-678,0,0,0,0,0,0,0,0,0,-1,650,1702,0,0
-567,-678,0,0,0,0,0,0,0,0,0,-1,657,1702,0,0
-560,-678,0,0,0,0,0,0,0,0,0,-1,664,1702,0,0
-553,-678,0,0,0,0,0,0,0,0,0,-1,671,1702,0,0
-546,-678,0,0,0,0,0,0,0,0,0,-1,678,1702,0,0
-539,-678,0,0,0,0,0,0,0,0,0,-1,685,1702,0,0
-532,-678,0,0,0,0,0,0,0,0,0,-1,692,1702,0,0
-525,-678,0,0,0,0,0,0,0,0,0,-1,699,1702,0,0
-518,-678,0,0,0,0,0,0,0,0,0,-1,706,1702,0,0
-511,-678,0,0,0,0,0,0,0,0,0,-1,713,1702,0,0
-504,-678,0,0,0,0,0,0,0,0,0,-1,720,1702,0,0
-497,-678,0,0,0,0,0,0,0,0,0,-1,727,1702,0,0
-490,-678,0,0,0,0,0,0,0,0,0,-1,734,1702,0,0
-483,-678,0,0,0,0,0,0,0,0,0,-1,741,1702,0,0
-476,-678,0,0,0,0,0,0,0,0,0,-1,748,1702,0,0
-469,-678,0,0,0,0,0,0,0,0,0,-1,755,1702,0,0
-462,-678,0,0,0,0,0,0,0,0,0,-1,762,1702,0,0
-455,-678,0,0,0,0,0,0,0,0,0,-1,769,1702,0,0
-448,-678,0,0,0,0,0,0,0,0,0,-1,776,1702,0,0
-441,-678,0,0,0,0,0,0,0,0,0,-1,783,1702,0,0
-434,-678,0,0,0,0,0,0,0,0,0,-1,790,1702,0,0
-427,-678,0,0,0,0,0,0,0,0,0,-1,797,1702,0,0
-420,-678,0,0,0,0,0,0,0,0,0,-1,804,1702,0,0
-413,-678,0,0,0,0,0,0,0,0,0,-1,811,1702,0,0
-406,-678,0,0,0,0,0,0,0,0,0,-1,818,1702,0,0
-399,-678,0,0,0,0,0,0,0,0,0,-1,825,1702,0,0
-392,-678,0,0,0,0,0,0,0,0,0,-1,832,1702,0,0
-385,-678,0,0,0,0,0,0,0,0,0,-1,839,1702,0,0
-378,-678,0,0,0,0,0,0,0,0,0,-1,846,1702,0,0
-371,-678,0,0,0,0,0,0,0,0,0,-1,853,1702,0,0
-364,-678,0,0,0,0,0,0,0,0,0,-1,860,1702,0,0
-357,-678,0,0,0,0,0,0,0,0,0,-1,867,1702,0,0
-350,-678,-5.79944,6.11865,0,0,0,0,0,0,0,-1,874,1702,-5.79942,-6.11864
-343,-678,-6.44891,4.52759,0,0,0,0,0,0,0,-1,881,1702,-6.4489,-4.52758
-336,-678,-6.91888,2.99438,0,0,0,0,0,0,0,-1,888,1702,-6.9189,-2.99435
-329,-678,-7.14575,1.29761,0,0,0,0,0,0,0,-1,895,1702,-7.14577,-1.29755
-322,-678,3.78455,20.3917,0,0,0,0,0,0,0,-1,902,1702,3.78457,-20.3917
-315,-678,5.64337,19.1178,0,0,0,0,0,0,0,-1,909,1702,5.64339,-19.1178
-308,-678,5.66583,19.3926,0,0,0,0,0,0,0,-1,916,1702,5.66583,-19.3926
-301,-678,6.60962,19.6086,0,0,0,0,0,0,0,-1,923,1702,6.60964,-19.6087
-294,-678,4.7326,22.7963,0,0,0,0,0,0,0,-1,930,1702,4.73258,-22.7962
-287,-678,4.87762,22.152,0,0,0,0,0,0,0,-1,937,1702,4.8776,-22.152
-280,-678,5.6554,20.8647,0,0,0,0,0,0,0,-1,944,1702,5.65541,-20.8648
-273,-678,5.3075,21.0126,0.00188044,-0.0107955,0.000905247,0.00194476,-0.0108598,0.0709351,0.00796762,0.0476116,951,1702,5.30751,-21.0126
-266,-678,5.43726,21.1746,0.00210347,-0.0088902,0.00129469,0.00225388,-0.00904061,0.115659,0.00690214,0.0390621,958,1702,5.43725,-21.1745
-259,-678,5.29999,21.5176,0.00225288,-0.00696721,0.00149516,0.00248927,-0.00720361,0.156811,0.00581264,0.0248848,965,1702,5.29999,-21.5176
-252,-678,5.2865,21.7079,0.00216036,-0.0053396,0.00159153,0.00248411,-0.00566336,0.200686,0.00482184,0.0189529,972,1702,5.2865,-21.7079
-245,-678,5.3299,21.9856,0.00189693,-0.00415979,0.00142272,0.00221447,-0.00447734,0.219598,0.00393646,0.0195471,979,1702,5.32987,-21.9856
-238,-678,5.3175,22.248,0.00167494,-0.00317202,0.00148517,0.00209382,-0.00359089,0.274897,0.00331979,0.0162354,986,1702,5.31749,-22.2481
-231,-678,5.28296,22.4938,0.00160585,-0.00201742,0.00133016,0.00204173,-0.00245331,0.316666,0.00259884,0.0125684,993,1702,5.28298,-22.4937
-224,-678,5.25275,22.7404,0.00150414,-0.00138787,0.00150081,0.00214221,-0.00202594,0.401996,0.00240679,0.0126242,1000,1702,5.25276,-22.7403
-217,-678,5.25867,23.0081,0.00134866,-0.00109512,0.00136395,0.00195799,-0.00170445,0.420139,0.0021162,0.0132696,1007,1702,5.25867,-23.008
-210,-678,5.25574,23.2955,0.00132364,-0.000811581,0.00118168,0.00184856,-0.0013365,0.418034,0.0018468,0.0137502,1014,1702,5.25572,-23.2955
-203,-678,5.23938,23.5093,0.0013291,-0.000550654,0.00108713,0.00182631,-0.00104786,0.428958,0.00167957,0.0182312,1021,1702,5.23938,-23.5093
-196,-678,5.22803,23.7382,0.00119982,-0.000462229,0.00105439,0.00171131,-0.000973721,0.451661,0.00156958,0.0181262,1028,1702,5.22798,-23.7382
-189,-678,5.25256,23.9858,0.00103375,-0.000581562,0.000954554,0.00147649,-0.0010243,0.434283,0.00145168,0.0108408,1035,1702,5.25261,-23.9858
-182,-678,5.25281,24.2114,0.000910717,-0.000385995,0.000857021,0.001337,-0.000812279,0.461567,0.00125315,0.00996234,1042,1702,5.25281,-24.2114
-175,-678,5.22778,24.4153,0.000885988,4.36593e-05,0.00085294,0.00141608,-0.000486431,0.556069,0.00114129,0.0103644,1049,1702,5.22777,-24.4153
-168,-678,5.22937,24.6344,0.000776656,0.000555009,0.000829746,0.00150295,-0.000171282,0.719009,0.00106367,0.010023,1056,1702,5.22941,-24.6344
-161,-678,5.23486,24.854,0.000678262,0.00108026,0.000821117,0.00172462,3.3899e-05,0.90543,0.00113861,0.00878929,1063,1702,5.2348,-24.854
-154,-678,5.24646,25.0614,0.000665139,0.00170311,0.000784287,0.00212458,0.000243673,1.07769,0.00134255,0.00790119,1070,1702,5.24642,-25.0614
-147,-678,5.24109,25.2617,0.00071843,0.00241454,0.000626544,0.00262088,0.000512087,1.25265,0.00160404,0.00967783,1077,1702,5.2411,-25.2618
-140,-678,5.25146,25.4668,0.000793187,0.00316205,0.000422155,0.00323503,0.000720203,1.39961,0.00196121,0.011685,1084,1702,5.25143,-25.4668
-133,-678,5.26978,25.6593,0.000976203,0.00392034,0.000281125,0.00394694,0.000949599,1.47645,0.0023788,0.012476,1091,1702,5.26972,-25.6593
-126,-678,5.28882,25.8524,0.00140289,0.00489502,0.000373883,0.0049346,0.0013633,1.46532,0.00294253,0.0106846,1098,1702,5.28876,-25.8524
-119,-678,5.32141,26.1453,0.00195477,0.00561193,0.000426051,0.00566091,0.00190579,1.45634,0.00332595,0.0255076,1105,1702,5.32146,-26.1452
-112,-678,5.3175,26.3568,0.00263452,0.00639143,0.000535021,0.00646614,0.00255981,1.43206,0.00376011,0.0380664,1112,1702,5.31749,-26.3568
-105,-678,5.38232,26.4904,0.00337633,0.006959,0.000631988,0.00706722,0.00326812,1.40121,0.0040841,0.0393084,1119,1702,5.38229,-26.4903
-98,-678,5.34119,26.4979,0.00411097,0.00746392,0.00089289,0.00768687,0.00388802,1.3261,0.00443812,0.0241116,1126,1702,5.34118,-26.4979
-91,-678,5.39514,26.5718,0.00509124,0.00804126,0.0012506,0.00850007,0.00463244,1.21917,0.00491413,0.024627,1133,1702,5.3951,-26.5718
-84,-678,5.43018,26.7762,0,0,0,0,0,0,0,-1,1140,1702,5.43023,-26.7763
-77,-678,5.86218,27.6196,0,0,0,0,0,0,0,-1,1147,1702,5.8622,-27.6197
-70,-678,4.75891,19.6552,0,0,0,0,0,0,0,-1,1154,1702,4.75895,-19.6551
-63,-678,3.41687,11.0365,0,0,0,0,0,0,0,-1,1161,1702,3.41682,-11.0365
-56,-678,1.72388,6.13159,0,0,0,0,0,0,0,-1,1168,1702,1.72388,-6.13157
-49,-678,-0.241699,5.29895,0,0,0,0,0,0,0,-1,1175,1702,-0.241682,-5.29897
-42,-678,0.297119,3.90649,0,0,0,0,0,0,0,-1,1182,1702,0.297139,-3.90655
-35,-678,0.498413,3.64038,0,0,0,0,0,0,0,-1,1189,1702,0.498471,-3.64038
-28,-678,0.132446,3.55994,0,0,0,0,0,0,0,-1,1196,1702,0.132432,-3.55993
-21,-678,5.66321,27.7498,0,0,0,0,0,0,0,-1,1203,1702,5.66319,-27.7498
-14,-678,6.05273,27.7297,0.0111903,-0.0289994,0.00978046,0.013444,-0.0312532,0.226482,0.0264799,0.0400895,1210,1702,6.05269,-27.7297
-7,-678,6.0072,27.8535,0.0146796,-0.0274391,0.0113082,0.0175237,-0.0302832,0.246391,0.0279271,0.0452185,1217,1702,6.00723,-27.8535
0,-678,6.01929,28.2428,0.0196039,-0.0244508,0.0135549,0.0234404,-0.0282873,0.275821,0.0299087,0.0468778,1224,1702,6.01931,-28.2427
7,-678,5.88477,28.5243,0.025326,-0.0207625,0.0153146,0.0299508,-0.0253873,0.293277,0.0319856,0.044221,1231,1702,5.88479,-28.5243
14,-678,5.56909,28.6635,0,0,0,0,0,0,0,-1,1238,1702,5.56904,-28.6634
21,-678,5.66528,28.1967,0.0379791,-0.00678712,0.0163777,0.043331,-0.0121391,0.315843,0.0336712,0.0461639,1245,1702,5.66524,-28.1967
28,-678,7.21741,28.4036,0.0419874,0.0200286,0.012442,0.0476017,0.0144143,0.423884,0.0281863,0.043001,1252,1702,7.21742,-28.4036
35,-678,6.88464,28.4817,0.0450996,0.0375605,0.00866544,0.0507799,0.0318802,0.580239,0.0296353,0.0426906,1259,1702,6.88466,-28.4816
42,-678,6.71863,28.7317,0.046231,0.0547202,0.00222903,0.0552699,0.0456813,1.32902,0.0341027,0.0455328,1266,1702,6.71862,-28.7317
49,-678,6.55933,28.9938,0,0,0,0,0,0,0,-1,1273,1702,6.55939,-28.9938
56,-678,4.85046,29.3159,0.0458111,0.0927984,-0.0148,0.0970715,0.041538,-1.28972,0.0562381,0.0450109,1280,1702,4.85046,-29.3159
63,-678,4.65845,28.9623,0.0433176,0.108069,-0.0240651,0.116034,0.0353534,-1.2512,0.0686746,0.0457318,1287,1702,4.65842,-28.9623
70,-678,6.26941,28.9919,0.0385827,0.118781,-0.0335209,0.130947,0.0264173,-1.22266,0.0799603,0.0479563,1294,1702,6.26947,-28.992
77,-678,4.43286,28.3022,0.0323507,0.124141,-0.0434593,0.141452,0.0150392,-1.19172,0.0897095,0.043647,1301,1702,4.43289,-28.3022
84,-678,5.76758,29.6539,0,0,0,0,0,0,0,-1,1308,1702,5.76757,-29.6539
91,-678,3.97327,27.1924,0.0205722,0.120558,-0.060081,0.148725,-0.0075952,-1.1324,0.101776,0.0425913,1315,1702,3.97322,-27.1923
98,-678,3.68188,25.8782,0.0156337,0.113057,-0.0664226,0.146715,-0.0180244,-1.10178,0.104339,0.0416749,1322,1702,3.68188,-25.8782
105,-678,6.87244,27.9214,0,0,0,0,0,0,0,-1,1329,1702,6.87247,-27.9214
112,-678,6.9873,27.8934,0.00854316,0.0936567,-0.0723876,0.13507,-0.0328706,-1.05114,0.102771,0.04351,1336,1702,6.98729,-27.8934
119,-678,7.0946,27.8571,0.00641707,0.0865417,-0.0741428,0.130754,-0.0377948,-1.0331,0.102126,0.0429668,1343,1702,7.09464,-27.857
126,-678,7.15491,27.8616,0.00579521,0.0808017,-0.0754765,0.127579,-0.040982,-1.01597,0.101509,0.0454116,1350,1702,7.15488,-27.8616
133,-678,7.45984,27.5936,0.00591136,0.0723598,-0.0755745,0.121691,-0.0434196,-0.992493,0.0988325,0.0479642,1357,1702,7.45986,-27.5936
140,-678,7.5802,27.5269,0,0,0,0,0,0,0,-1,1364,1702,7.58018,-27.5268
147,-678,7.70862,28.6379,0,0,0,0,0,0,0,-1,1371,1702,7.70867,-28.6379
154,-678,7.82019,28.4672,0,0,0,0,0,0,0,-1,1378,1702,7.82014,-28.4672
161,-678,7.77563,27.5094,0,0,0,0,0,0,0,-1,1385,1702,7.77565,-27.5094
168,-678,4.21863,5.25781,0,0,0,0,0,0,0,-1,1392,1702,4.21865,-5.25781
175,-678,5.21899,5.9635,0,0,0,0,0,0,0,-1,1399,1702,5.21894,-5.96346
182,-678,7.31262,6.75122,0,0,0,0,0,0,0,-1,1406,1702,7.3126,-6.75123
189,-678,5.96021,6.36853,0,0,0,0,0,0,0,-1,1413,1702,5.96018,-6.36851
196,-678,5.01599,8.15771,0,0,0,0,0,0,0,-1,1420,1702,5.01596,-8.15767
203,-678,4.64771,13.0559,0,0,0,0,0,0,0,-1,1427,1702,4.64766,-13.0559
210,-678,5.6532,18.5957,0,0,0,0,0,0,0,-1,1434,1702,5.65318,-18.5958
217,-678,6.88049,23.4835,0,0,0,0,0,0,0,-1,1441,1702,6.88047,-23.4835
224,-678,7.39844,27.0648,0,0,0,0,0,0,0,-1,1448,1702,7.39847,-27.0648
231,-678,7.21924,26.7578,0,0,0,0,0,0,0,-1,1455,1702,7.2193,-26.7578
238,-678,7.28821,26.6343,0,0,0,0,0,0,0,-1,1462,1702,7.28815,-26.6343
245,-678,7.31042,26.4915,0,0,0,0,0,0,0,-1,1469,1702,7.31038,-26.4914
252,-678,7.34387,26.29,0.00243717,-0.000715403,0.000722593,0.0025949,-0.000873135,0.214915,0.0020829,0.031225,1476,1702,7.34387,-26.29
259,-678,7.33386,26.157,0.00247363,-0.000671454,0.000497757,0.00255052,-0.000748352,0.153276,0.0019971,0.016943,1483,1702,7.33387,-26.157
266,-678,7.35986,25.9995,0.00253645,-0.000693674,0.000212966,0.00255043,-0.000707654,0.065553,0.00197881,0.0105591,1490,1702,7.35987,-25.9995
273,-678,7.36865,25.8427,0.0024849,-0.000500935,5.19454e-05,0.00248581,-0.000501838,0.0173902,0.00184735,0.0100142,1497,1702,7.36865,-25.8426
280,-678,7.35132,25.6768,0.00236226,-0.000133549,-9.93131e-05,0.0023662,-0.000137495,-0.0397083,0.00162524,0.0105387,1504,1702,7.35126,-25.6767
287,-678,7.35803,25.458,0.00211329,0.000368618,-0.00014792,0.00212574,0.000356166,-0.0839847,0.00131462,0.0117729,1511,1702,7.35805,-25.458
294,-678,7.37695,25.2404,0.00181915,0.000734156,-0.000220056,0.00186208,0.000691224,-0.192678,0.0010869,0.0125464,1518,1702,7.377,-25.2403
301,-678,7.37988,25.059,0.001541,0.000977259,-0.000348572,0.00170741,0.000810851,-0.445404,0.000986186,0.0112783,1525,1702,7.37993,-25.0589
308,-678,7.37048,24.8865,0.00127329,0.00110999,-0.000495622,0.00169394,0.00068934,-0.703762,0.000983629,0.0122733,1532,1702,7.37051,-24.8864
315,-678,7.37048,24.6931,0.0010693,0.00102563,-0.000611684,0.00165954,0.000435391,-0.767554,0.000993554,0.0143336,1539,1702,7.37051,-24.6931
322,-678,7.37695,24.4933,0.000906259,0.000872008,-0.000752173,0.0016415,0.000136765,-0.774016,0.00105171,0.0184546,1546,1702,7.37694,-24.4933
329,-678,7.35803,24.2739,0.000798087,0.000558398,-0.000914795,0.00160085,-0.000244369,-0.720266,0.00115732,0.0159917,1553,1702,7.35806,-24.2739
336,-678,7.36438,24.0447,0.000738621,0.000276478,-0.00110997,0.00164131,-0.000626213,-0.682774,0.00135218,0.013205,1560,1702,7.36441,-24.0447
343,-678,7.38293,23.8402,0.000594114,-0.000194049,-0.00128736,0.00154636,-0.00114629,-0.636869,0.00156031,0.012513,1567,1702,7.38289,-23.8402
350,-678,7.4021,23.6149,0.000500292,-0.000834934,-0.00145604,0.00143447,-0.00176912,-0.570442,0.00185295,0.0116198,1574,1702,7.40214,-23.6148
357,-678,7.38745,23.3783,0.000495291,-0.00160875,-0.00155077,0.00131721,-0.00243067,-0.487363,0.00219544,0.00913113,1581,1702,7.3875,-23.3783
364,-678,7.35303,23.146,0.000457467,-0.0023686,-0.00161498,0.00119032,-0.00310146,-0.425996,0.00255844,0.0113678,1588,1702,7.35298,-23.146
371,-678,7.33167,22.9095,0.000453326,-0.00316087,-0.00174753,0.00116008,-0.00386763,-0.384321,0.00303982,0.0125367,1595,1702,7.33164,-22.9096
378,-678,7.3418,22.6533,0.000474398,-0.00391324,-0.0018034,0.00112049,-0.00455934,-0.344017,0.00347382,0.0138602,1602,1702,7.34179,-22.6533
385,-678,7.328,22.4369,0.000605442,-0.0045166,-0.00186242,0.00121104,-0.0051222,-0.314381,0.00388196,0.0176578,1609,1702,7.32802,-22.4369
392,-678,7.28467,22.2554,0.000733867,-0.00514949,-0.00187486,0.00128054,-0.00569616,-0.283713,0.00428849,0.0332894,1616,1702,7.28468,-22.2554
399,-678,7.20813,22.1455,0.000643315,-0.00639753,-0.00170129,0.00103285,-0.00678707,-0.225084,0.00490537,0.045295,1623,1702,7.20807,-22.1455
406,-678,7.21375,21.9233,0.00060022,-0.00743429,-0.0014324,0.000847953,-0.00768202,-0.171255,0.00542613,0.0493872,1630,1702,7.2138,-21.9233
413,-678,7.2959,21.5593,0,0,0,0,0,0,0,-1,1637,1702,7.29594,-21.5593
420,-678,6.60071,17.4585,0,0,0,0,0,0,0,-1,1644,1702,6.60066,-17.4585
427,-678,4.57483,10.1555,0,0,0,0,0,0,0,-1,1651,1702,4.57485,-10.1555
434,-678,7.04639,19.2208,0,0,0,0,0,0,0,-1,1658,1702,7.04643,-19.2208
441,-678,6.7561,21.5529,0,0,0,0,0,0,0,-1,1665,1702,6.75608,-21.5529
448,-678,3.25525,9.74719,0,0,0,0,0,0,0,-1,1672,1702,3.25522,-9.7472
455,-678,5.44678,5.54297,0,0,0,0,0,0,0,-1,1679,1702,5.44676,-5.54294
462,-678,3.86792,2.87402,0,0,0,0,0,0,0,-1,1686,1702,3.86796,-2.87406
469,-678,2.26587,1.98755,0,0,0,0,0,0,0,-1,1693,1702,2.26592,-1.98755
476,-678,0,0,0,0,0,0,0,0,0,-1,1700,1702,0,0
483,-678,0,0,0,0,0,0,0,0,0,-1,1707,1702,0,0
490,-678,0,0,0,0,0,0,0,0,0,-1,1714,1702,0,0
497,-678,0,0,0,0,0,0,0,0,0,-1,1721,1702,0,0
504,-678,0,0,0,0,0,0,0,0,0,-1,1728,1702,0,0
511,-678,0,0,0,0,0,0,0,0,0,-1,1735,1702,0,0
518,-678,0,0,0,0,0,0,0,0,0,-1,1742,1702,0,0
525,-678,0,0,0,0,0,0,0,0,0,-1,1749,1702,0,0
532,-678,0,0,0,0,0,0,0,0,0,-1,1756,1702,0,0
539,-678,0,0,0,0,0,0,0,0,0,-1,1763,1702,0,0
546,-678,0,0,0,0,0,0,0,0,0,-1,1770,1702,0,0
553,-678,0,0,0,0,0,0,0,0,0,-1,1777,1702,0,0
560,-678,0,0,0,0,0,0,0,0,0,-1,1784,1702,0,0
567,-678,0,0,0,0,0,0,0,0,0,-1,1791,1702,0,0
574,-678,0,0,0,0,0,0,0,0,0,-1,1798,1702,0,0
581,-678,0,0,0,0,0,0,0,0,0,-1,1805,1702,0,0
588,-678,0,0,0,0,0,0,0,0,0,-1,1812,1702,0,0
595,-678,0,0,0,0,0,0,0,0,0,-1,1819,1702,0,0
602,-678,0,0,0,0,0,0,0,0,0,-1,1826,1702,0,0
609,-678,0,0,0,0,0,0,0,0,0,-1,1833,1702,0,0
616,-678,0,0,0,0,0,0,0,0,0,-1,1840,1702,0,0
623,-678,0,0,0,0,0,0,0,0,0,-1,1847,1702,0,0
630,-678,0,0,0,0,0,0,0,0,0,-1,1854,1702,0,0
637,-678,0,0,0,0,0,0,0,0,0,-1,1861,1702,0,0
644,-678,0,0,0,0,0,0,0,0,0,-1,1868,1702,0,0
651,-678,0,0,0,0,0,0,0,0,0,-1,1875,1702,0,0
658,-678,0,0,0,0,0,0,0,0,0,-1,1882,1702,0,0
665,-678,0,0,0,0,0,0,0,0,0,-1,1889,1702,0,0
672,-678,0,0,0,0,0,0,0,0,0,-1,1896,1702,0,0
679,-678,0,0,0,0,0,0,0,0,0,-1,1903,1702,0,0
686,-678,0,0,0,0,0,0,0,0,0,-1,1910,1702,0,0
693,-678,0,0,0,0,0,0,0,0,0,-1,1917,1702,0,0
700,-678,0,0,0,0,0,0,0,0,0,-1,1924,1702,0,0
707,-678,0,0,0,0,0,0,0,0,0,-1,1931,1702,0,0
714,-678,0,0,0,0,0,0,0,0,0,-1,1938,1702,0,0
721,-678,0,0,0,0,0,0,0,0,0,-1,1945,1702,0,0
728,-678,0,0,0,0,0,0,0,0,0,-1,1952,1702,0,0
735,-678,0,0,0,0,0,0,0,0,0,-1,1959,1702,0,0
742,-678,0,0,0,0,0,0,0,0,0,-1,1966,1702,0,0
749,-678,0,0,0,0,0,0,0,0,0,-1,1973,1702,0,0
756,-678,0,0,0,0,0,0,0,0,0,-1,1980,1702,0,0
763,-678,0,0,0,0,0,0,0,0,0,-1,1987,1702,0,0
770,-678,0,0,0,0,0,0,0,0,0,-1,1994,1702,0,0
777,-678,0,0,0,0,0,0,0,0,0,-1,2001,1702,0,0
784,-678,0,0,0,0,0,0,0,0,0,-1,2008,1702,0,0
791,-678,0,0,0,0,0,0,0,0,0,-1,2015,1702,0,0
798,-678,0,0,0,0,0,0,0,0,0,-1,2022,1702,0,0
805,-678,0,0,0,0,0,0,0,0,0,-1,2029,1702,0,0
812,-678,0,0,0,0,0,0,0,0,0,-1,2036,1702,0,0
-700,-685,0,0,0,0,0,0,0,0,0,-1,524,1709,0,0
-693,-685,0,0,0,0,0,0,0,0,0,-1,531,1709,0,0
-686,-685,0,0,0,0,0,0,0,0,0,-1,538,1709,0,0
-679,-685,0,0,0,0,0,0,0,0,0,-1,545,1709,0,0
-672,-685,0,0,0,0,0,0,0,0,0,-1,552,1709,0,0
-665,-685,0,0,0,0,0,0,0,0,0,-1,559,1709,0,0
-658,-685,0,0,0,0,0,0,0,0,0,-1,566,1709,0,0
-651,-685,0,0,0,0,0,0,0,0,0,-1,573,1709,0,0
-644,-685,0,0,0,0,0,0,0,0,0,-1,580,1709,0,0
-637,-685,0,0,0,0,0,0,0,0,0,-1,587,1709,0,0
-630,-685,0,0,0,0,0,0,0,0,0,-1,594,1709,0,0
-623,-685,0,0,0,0,0,0,0,0,0,-1,601,1709,0,0
-616,-685,0,0,0,0,0,0,0,0,0,-1,608,1709,0,0
-609,-685,0,0,0,0,0,0,0,0,0,-1,615,1709,0,0
-602,-685,0,0,0,0,0,0,0,0,0,-1,622,1709,0,0
-595,-685,0,0,0,0,0,0,0,0,0,-1,629,1709,0,0
-588,-685,0,0,0,0,0,0,0,0,0,-1,636,1709,0,0
-581,-685,0,0,0,0,0,0,0,0,0,-1,643,1709,0,0
-574,-685,0,0,0,0,0,0,0,0,0,-1,650,1709,0,0
-567,-685,0,0,0,0,0,0,0,0,0,-1,657,1709,0,0
-560,-685,0,0,0,0,0,0,0,0,0,-1,664,1709,0,0
-553,-685,0,0,0,0,0,0,0,0,0,-1,671,1709,0,0
-546,-685,0,0,0,0,0,0,0,0,0,-1,678,1709,0,0
-539,-685,0,0,0,0,0,0,0,0,0,-1,685,1709,0,0
-532,-685,0,0,0,0,0,0,0,0,0,-1,692,1709,0,0
-525,-685,0,0,0,0,0,0,0,0,0,-1,699,1709,0,0
-518,-685,0,0,0,0,0,0,0,0,0,-1,706,1709,0,0
-511,-685,0,0,0,0,0,0,0,0,0,-1,713,1709,0,0
-504,-685,0,0,0,0,0,0,0,0,0,-1,720,1709,0,0
-497,-685,0,0,0,0,0,0,0,0,0,-1,727,1709,0,0
-490,-685,0,0,0,0,0,0,0,0,0,-1,734,1709,0,0
-483,-685,0,0,0,0,0,0,0,0,0,-1,741,1709,0,0
-476,-685,0,0,0,0,0,0,0,0,0,-1,748,1709,0,0
-469,-685,0,0,0,0,0,0,0,0,0,-1,755,1709,0,0
-462,-685,0,0,0,0,0,0,0,0,0,-1,762,1709,0,0
-455,-685,0,0,0,0,0,0,0,0,0,-1,769,1709,0,0
-448,-685,0,0,0,0,0,0,0,0,0,-1,776,1709,0,0
-441,-685,0,0,0,0,0,0,0,0,0,-1,783,1709,0,0
-434,-685,0,0,0,0,0,0,0,0,0,-1,790,1709,0,0
-427,-685,0,0,0,0,0,0,0,0,0,-1,797,1709,0,0
-420,-685,0,0,0,0,0,0,0,0,0,-1,804,1709,0,0
-413,-685,0,0,0,0,0,0,0,0,0,-1,811,1709,0,0
-406,-685,0,0,0,0,0,0,0,0,0,-1,818,1709,0,0
-399,-685,0,0,0,0,0,0,0,0,0,-1,825,1709,0,0
-392,-685,0,0,0,0,0,0,0,0,0,-1,832,1709,0,0
-385,-685,0,0,0,0,0,0,0,0,0,-1,839,1709,0,0
-378,-685,0,0,0,0,0,0,0,0,0,-1,846,1709,0,0
-371,-685,0,0,0,0,0,0,0,0,0,-1,853,1709,0,0
-364,-685,0,0,0,0,0,0,0,0,0,-1,860,1709,0,0
-357,-685,0,0,0,0,0,0,0,0,0,-1,867,1709,0,0
-350,-685,0,0,0,0,0,0,0,0,0,-1,874,1709,0,0
-343,-685,-5.98505,6.56335,0,0,0,0,0,0,0,-1,881,1709,-5.98505,-6.56329
-336,-685,-6.51312,5.10571,0,0,0,0,0,0,0,-1,888,1709,-6.51311,-5.10575
-329,-685,-6.81384,3.34106,0,0,0,0,0,0,0,-1,895,1709,-6.81385,-3.341
-322,-685,3.83191,16.7219,0,0,0,0,0,0,0,-1,902,1709,3.8319,-16.7219
-315,-685,5.15784,21.4388,0,0,0,0,0,0,0,-1,909,1709,5.15783,-21.4389
-308,-685,6.36969,21.0303,0,0,0,0,0,0,0,-1,916,1709,6.36968,-21.0302
-301,-685,7.71271,20.1454,0,0,0,0,0,0,0,-1,923,1709,7.71272,-20.1454
-294,-685,4.99249,22.5214,0,0,0,0,0,0,0,-1,930,1709,4.9925,-22.5213
-287,-685,5.16522,21.9656,0,0,0,0,0,0,0,-1,937,1709,5.16522,-21.9655
-280,-685,5.29321,21.3718,0.00329653,-0.0169552,-0.000367326,0.00330319,-0.0169618,-0.0181301,0.0125546,0.0473551,944,1709,5.29323,-21.3718
-273,-685,5.45599,21.0442,0.00345338,-0.0144186,0.000640628,0.00347631,-0.0144416,0.0357841,0.0109716,0.0484548,951,1709,5.45601,-21.0442
-266,-685,5.47571,21.302,0.00356933,-0.0118675,0.00130921,0.00367958,-0.0119778,0.0840114,0.0094535,0.0461145,958,1709,5.47569,-21.3019
-259,-685,5.49908,21.6935,0.00361945,-0.00920792,0.00164499,0.00382705,-0.00941551,0.125535,0.00786926,0.0439641,965,1709,5.49906,-21.6935
-252,-685,5.49084,21.8136,0.00338895,-0.0070867,0.0018843,0.00371758,-0.00741533,0.172667,0.0065447,0.0398152,972,1709,5.49084,-21.8136
-245,-685,5.5741,21.9554,0.00293862,-0.00559388,0.00174992,0.00328356,-0.00593883,0.194625,0.00539761,0.0361869,979,1709,5.57412,-21.9554
-238,-685,5.59497,22.2532,0.00256122,-0.00434462,0.00184691,0.00302413,-0.00480753,0.245582,0.00456052,0.0256953,986,1709,5.59499,-22.2531
-231,-685,5.53772,22.5258,0.00232922,-0.00304807,0.00163718,0.00278846,-0.00350731,0.273478,0.00364275,0.0158128,993,1709,5.53772,-22.5258
-224,-685,5.50159,22.755,0.00209326,-0.00237499,0.00183451,0.00274994,-0.00303167,0.343748,0.00333933,0.0143075,1000,1709,5.50157,-22.755
-217,-685,5.49927,23.022,0.00180998,-0.00207423,0.00164187,0.002411,-0.00267526,0.350912,0.00293787,0.0113168,1007,1709,5.49927,-23.022
-210,-685,5.49518,23.3075,0.00167926,-0.00176121,0.00139697,0.00217504,-0.002257,0.341033,0.00255898,0.0140869,1014,1709,5.49519,-23.3074
-203,-685,5.48523,23.5233,0.00157871,-0.00145889,0.00127123,0.00204052,-0.00192069,0.348449,0.00228735,0.0141565,1021,1709,5.48524,-23.5233
-196,-685,5.47009,23.7303,0.00135415,-0.00134335,0.00122494,0.00182737,-0.00181658,0.368665,0.00210384,0.0131681,1028,1709,5.47004,-23.7304
-189,-685,5.47327,23.9669,0.00108542,-0.0013894,0.00107527,0.00148734,-0.00179131,0.357702,0.00189564,0.00903308,1035,1709,5.47328,-23.9669
-182,-685,5.46191,24.1965,0.000863334,-0.00113912,0.000947275,0.00124043,-0.00151622,0.378858,0.00159421,0.0128634,1042,1709,5.46191,-24.1965
-175,-685,5.4519,24.401,0.000755864,-0.0006071,0.00091724,0.00121707,-0.00106831,0.465905,0.0013204,0.0132043,1049,1709,5.45191,-24.4011
-168,-685,5.44531,24.6389,0.000572384,-8.92741e-06,0.000877831,0.00120643,-0.000642971,0.625526,0.00108414,0.0104242,1056,1709,5.44527,-24.6389
-161,-685,5.45288,24.876,0.000411545,0.000528323,0.000856148,0.00132807,-0.000388202,0.819445,0.00103924,0.0113184,1063,1709,5.45285,-24.876
-154,-685,5.46509,25.0782,0.000376777,0.00106952,0.000819676,0.00161301,-0.000166706,0.985305,0.00113499,0.0102592,1070,1709,5.46509,-25.0782
-147,-685,5.45447,25.2611,0.000459998,0.0017054,0.000646072,0.00198001,0.000185389,1.16889,0.00126276,0.00932691,1077,1709,5.4545,-25.2611
-140,-685,5.44312,25.4449,0.000560568,0.00232957,0.000442494,0.00243408,0.000456058,1.33886,0.00149408,0.0120069,1084,1709,5.44307,-25.445
-133,-685,5.46582,25.6399,0.000760497,0.00289353,0.000283628,0.0029306,0.000723428,1.44084,0.00176279,0.0109555,1091,1709,5.46579,-25.6399
-126,-685,5.48303,25.8354,0.0011907,0.00362323,0.000361934,0.00367594,0.00113799,1.42618,0.00217301,0.00983047,1098,1709,5.48305,-25.8355
-119,-685,5.52197,25.9843,0.00169583,0.00414565,0.000411103,0.0042128,0.00162868,1.40889,0.00245302,0.0131667,1105,1709,5.52192,-25.9842
-112,-685,5.51172,26.1528,0.00229187,0.00466152,0.000514594,0.00476845,0.00218495,1.36593,0.00275627,0.0120578,1112,1709,5.51168,-26.1528
-105,-685,5.47522,26.3208,0.00290048,0.00496179,0.000617741,0.00513274,0.00272953,1.30082,0.00296538,0.0121894,1119,1709,5.47526,-26.3208
-98,-685,5.55469,26.4761,0.00350693,0.00522165,0.000822297,0.00555225,0.00317633,1.18853,0.00321668,0.0165283,1126,1709,5.55465,-26.476
-91,-685,5.56738,26.5917,0.00424007,0.00551203,0.00108679,0.00613524,0.00361685,1.05013,0.00356106,0.021681,1133,1709,5.56737,-26.5917
-84,-685,5.5387,26.6991,0.00492051,0.00582256,0.00134667,0.00679173,0.00395134,0.946987,0.00393866,0.0275137,1140,1709,5.53868,-26.6991
-77,-685,5.7301,27.1074,0.00561836,0.00607621,0.00129199,0.0071594,0.00453517,0.873082,0.00418227,0.044424,1147,1709,5.73009,-27.1074
-70,-685,6.09753,27.7152,0,0,0,0,0,0,0,-1,1154,1709,6.09758,-27.7152
-63,-685,5.72327,27.5768,0,0,0,0,0,0,0,-1,1161,1709,5.72325,-27.5768
-56,-685,3.93909,15.8704,0,0,0,0,0,0,0,-1,1168,1709,3.93905,-15.8704
-49,-685,3.07471,9.86011,0,0,0,0,0,0,0,-1,1175,1709,3.07467,-9.86009
-42,-685,2.70618,7.54504,0,0,0,0,0,0,0,-1,1182,1709,2.7062,-7.54504
-35,-685,2.95264,7.91516,0,0,0,0,0,0,0,-1,1189,1709,2.95262,-7.91517
-28,-685,5.7876,27.9155,0,0,0,0,0,0,0,-1,1196,1709,5.78755,-27.9155
-21,-685,5.8335,27.7727,0.0076453,-0.0184992,0.0074287,0.00960865,-0.0204625,0.258385,0.0177346,0.0483314,1203,1709,5.83344,-27.7727
-14,-685,5.97388,27.7703,0.00980446,-0.0183725,0.00850384,0.012172,-0.0207401,0.271532,0.0192152,0.0293531,1210,1709,5.97388,-27.7702
-7,-685,5.97375,27.9126,0.0121529,-0.0175896,0.00980333,0.0150935,-0.0205301,0.291412,0.020647,0.0420162,1217,1709,5.97376,-27.9127
0,-685,6.02271,28.0337,0.0154696,-0.0157798,0.0115202,0.0192574,-0.0195677,0.317665,0.0224159,0.0454412,1224,1709,6.02266,-28.0337
7,-685,6.06116,28.1492,0.0189993,-0.0133821,0.0125848,0.0233151,-0.0176979,0.330368,0.0237528,0.0424188,1231,1709,6.06114,-28.1492
14,-685,6.18433,28.4053,0.0232269,-0.0102282,0.0130522,0.0277166,-0.0147179,0.3313,0.0248797,0.0436325,1238,1709,6.18436,-28.4052
21,-685,5.57825,28.1711,0,0,0,0,0,0,0,-1,1245,1709,5.57822,-28.1712
28,-685,6.49329,28.6949,0.0289074,0.0188801,0.00900785,0.0342029,0.0135847,0.531457,0.0198857,0.0404643,1252,1709,6.49325,-28.695
35,-685,6.495,28.3906,0.0304478,0.0328097,0.00556122,0.037314,0.0259435,0.890025,0.0220841,0.0423163,1259,1709,6.49494,-28.3906
42,-685,6.42908,28.5103,0.0306177,0.0465596,-0.000215765,0.0465625,0.0306148,-1.55727,0.0273238,0.0448409,1266,1709,6.42911,-28.5102
49,-685,6.30554,28.5642,0.0306552,0.0615737,-0.00705493,0.0631074,0.0291215,-1.35673,0.0364712,0.0476862,1273,1709,6.30552,-28.5642
56,-685,6.16565,28.3458,0.0293484,0.0763006,-0.0146515,0.0804975,0.0251515,-1.29182,0.0475526,0.0469585,1280,1709,6.16561,-28.3459
63,-685,5.52515,28.41,0.0274881,0.0879414,-0.0221109,0.0951653,0.0202642,-1.25502,0.0578835,0.0435973,1287,1709,5.52514,-28.41
70,-685,6.38611,28.5485,0.024391,0.0958395,-0.0293176,0.106329,0.0139011,-1.22719,0.0667369,0.0460175,1294,1709,6.3861,-28.5484
77,-685,6.43787,28.5643,0.020238,0.0989776,-0.036757,0.113469,0.00574629,-1.19525,0.0738053,0.0453286,1301,1709,6.43786,-28.5643
84,-685,6.0415,28.922,0.0167629,0.0975729,-0.0424793,0.115794,-0.00145854,-1.16559,0.0776869,0.0437357,1308,1709,6.0415,-28.922
91,-685,6.19177,29.0222,0.013373,0.093282,-0.0482071,0.11594,-0.00928475,-1.13143,0.0805666,0.0426559,1315,1709,6.1918,-29.0222
98,-685,6.54895,28.774,0.0108652,0.0858881,-0.0521182,0.11259,-0.0158372,-1.09732,0.080858,0.0380159,1322,1709,6.54893,-28.774
105,-685,6.53076,28.2806,0.00878153,0.0764125,-0.0538408,0.106176,-0.0209822,-1.0658,0.078716,0.0401413,1329,1709,6.53077,-28.2807
112,-685,6.69641,27.8748,0.00763917,0.0688969,-0.054439,0.100732,-0.0241958,-1.04164,0.076506,0.0421635,1336,1709,6.69645,-27.8747
119,-685,6.73657,27.8069,0.00654046,0.063097,-0.0549567,0.096624,-0.0269866,-1.02301,0.0750467,0.039674,1343,1709,6.73663,-27.8069
126,-685,6.7301,28.0059,0.0064258,0.0578884,-0.0553714,0.0932152,-0.028901,-1.00291,0.0736911,0.0449419,1350,1709,6.73006,-28.0058
133,-685,6.83948,27.8932,0.0066919,0.0486318,-0.0547142,0.0862569,-0.0309332,-0.968396,0.0701279,0.0490718,1357,1709,6.83947,-27.8931
140,-685,6.7041,27.9768,0,0,0,0,0,0,0,-1,1364,1709,6.70414,-27.9768
147,-685,7.26184,28.3466,0,0,0,0,0,0,0,-1,1371,1709,7.26178,-28.3466
154,-685,7.36108,28.1989,0,0,0,0,0,0,0,-1,1378,1709,7.36112,-28.1988
161,-685,7.10156,28.1393,0,0,0,0,0,0,0,-1,1385,1709,7.10155,-28.1392
168,-685,4.37524,10.8778,0,0,0,0,0,0,0,-1,1392,1709,4.37525,-10.8778
175,-685,3.97522,8.94324,0,0,0,0,0,0,0,-1,1399,1709,3.97519,-8.94328
182,-685,3.98218,9.19739,0,0,0,0,0,0,0,-1,1406,1709,3.98221,-9.1974
189,-685,4.53479,15.2343,0,0,0,0,0,0,0,-1,1413,1709,4.53474,-15.2343
196,-685,7.00708,27.6077,0,0,0,0,0,0,0,-1,1420,1709,7.00704,-27.6077
203,-685,7.02515,27.4027,0,0,0,0,0,0,0,-1,1427,1709,7.02513,-27.4027
210,-685,7.17212,27.2,0,0,0,0,0,0,0,-1,1434,1709,7.17217,-27.2
217,-685,7.10388,26.9637,0,0,0,0,0,0,0,-1,1441,1709,7.10385,-26.9638
224,-685,7.22278,26.9648,0.000236453,2.89382e-05,0.00210024,0.0022355,-0.00197011,0.760717,0.00242972,0.0317909,1448,1709,7.2228,-26.9649
231,-685,7.10815,26.7784,0.000561018,-0.000328001,0.00149234,0.00167364,-0.00144062,0.640651,0.0017997,0.0205187,1455,1709,7.10819,-26.7785
238,-685,7.1123,26.611,0.000951285,-0.000581469,0.00107084,0.00150173,-0.00113192,0.474813,0.00152553,0.0194854,1462,1709,7.1123,-26.6109
245,-685,7.09497,26.4761,0.00120908,-0.000531352,0.000823567,0.00153701,-0.000859275,0.378932,0.00140182,0.0199745,1469,1709,7.09497,-26.4761
252,-685,7.15759,26.3353,0.00143736,-0.000616805,0.000584616,0.00159208,-0.000771532,0.258733,0.00139178,0.0138927,1476,1709,7.15755,-26.3353
259,-685,7.16943,26.1707,0.00157285,-0.000558361,0.000340276,0.00162586,-0.000611372,0.154546,0.0013352,0.00984798,1483,1709,7.16949,-26.1706
266,-685,7.1825,26.009,0.00169674,-0.000477655,6.73271e-05,0.00169882,-0.000479738,0.0309241,0.00132181,0.0106731,1490,1709,7.18255,-26.009
273,-685,7.19397,25.8358,0.0016912,-0.000204817,-0.000113157,0.00169793,-0.000211546,-0.0594003,0.00120866,0.0127197,1497,1709,7.19403,-25.8358
280,-685,7.1687,25.6461,0.0015992,9.21279e-05,-0.000268341,0.00164555,4.57743e-05,-0.171054,0.0010821,0.0144592,1504,1709,7.16869,-25.6461
287,-685,7.16614,25.4728,0.00139979,0.00045261,-0.000324949,0.00150055,0.000351849,-0.300681,0.000906149,0.0124487,1511,1709,7.16615,-25.4727
294,-685,7.17627,25.2897,0.00119364,0.000798767,-0.000419779,0.0014601,0.000532312,-0.565579,0.000853233,0.010814,1518,1709,7.17627,-25.2897
301,-685,7.17773,25.0862,0.000987666,0.00100344,-0.000581416,0.00157702,0.000414084,-0.79218,0.000944092,0.0119866,1525,1709,7.17774,-25.0862
308,-685,7.17859,24.9003,0.000744375,0.00101543,-0.00074742,0.00163951,0.000120297,-0.875089,0.0010552,0.0130037,1532,1709,7.17865,-24.9003
315,-685,7.20459,24.7096,0.000571778,0.000829776,-0.000877799,0.001588,-0.00018645,-0.858354,0.00112598,0.0121497,1539,1709,7.20461,-24.7096
322,-685,7.17017,24.4828,0.000483571,0.000590641,-0.00105598,0.00159444,-0.000520232,-0.810725,0.00127233,0.0209112,1546,1709,7.17016,-24.4827
329,-685,7.14063,24.2704,0.00045827,0.000197348,-0.00125866,0.00159321,-0.000937595,-0.733757,0.00147742,0.0199485,1553,1709,7.14057,-24.2704
336,-685,7.16248,24.0518,0.000528751,-0.000140747,-0.00154736,0.00177716,-0.00138916,-0.678872,0.00183264,0.0140953,1560,1709,7.16246,-24.0517
343,-685,7.16052,23.8323,0.00048124,-0.000686892,-0.0017948,0.00178461,-0.00199027,-0.628092,0.00218051,0.0124193,1567,1709,7.16051,-23.8323
350,-685,7.16614,23.5936,0.000473066,-0.00138075,-0.00201979,0.00176847,-0.00267616,-0.570277,0.00258389,0.0119017,1574,1709,7.16618,-23.5936
357,-685,7.16077,23.3739,0.000587093,-0.00224671,-0.00216554,0.00175808,-0.0034177,-0.495704,0.00303901,0.00978269,1581,1709,7.16076,-23.3738
364,-685,7.12573,23.1527,0.000673922,-0.00306284,-0.00229937,0.0017683,-0.00415722,-0.444221,0.00351255,0.00985429,1588,1709,7.12577,-23.1527
371,-685,7.13428,22.8909,0.000807979,-0.00398339,-0.00252435,0.00189247,-0.00506789,-0.405771,0.00415563,0.0153335,1595,1709,7.13425,-22.8909
378,-685,7.07971,22.6898,0.000925657,-0.00483861,-0.00262754,0.00194361,-0.00585656,-0.369611,0.00468851,0.0237184,1602,1709,7.07969,-22.6899
385,-685,7.09778,22.5548,0.00114129,-0.00555873,-0.00267988,0.00208131,-0.00649874,-0.337359,0.00516791,0.0415466,1609,1709,7.09784,-22.5548
392,-685,7.34595,22.3882,0,0,0,0,0,0,0,-1,1616,1709,7.346,-22.3882
399,-685,7.11121,22.3285,0,0,0,0,0,0,0,-1,1623,1709,7.11123,-22.3285
406,-685,7.09827,22.0709,0,0,0,0,0,0,0,-1,1630,1709,7.09825,-22.071
413,-685,6.13098,16.2029,0,0,0,0,0,0,0,-1,1637,1709,6.13099,-16.2029
420,-685,4.84631,10.3781,0,0,0,0,0,0,0,-1,1644,1709,4.84634,-10.378
427,-685,6.05151,9.21155,0,0,0,0,0,0,0,-1,1651,1709,6.05156,-9.21156
434,-685,4.87769,8.91418,0,0,0,0,0,0,0,-1,1658,1709,4.87768,-8.91413
441,-685,5.62,8.75549,0,0,0,0,0,0,0,-1,1665,1709,5.61996,-8.75545
448,-685,6.4043,8.58972,0,0,0,0,0,0,0,-1,1672,1709,6.40435,-8.58971
455,-685,2.31958,4.09802,0,0,0,0,0,0,0,-1,1679,1709,2.31957,-4.09803
462,-685,0,0,0,0,0,0,0,0,0,-1,1686,1709,0,0
469,-685,0,0,0,0,0,0,0,0,0,-1,1693,1709,0,0
476,-685,0,0,0,0,0,0,0,0,0,-1,1700,1709,0,0
483,-685,0,0,0,0,0,0,0,0,0,-1,1707,1709,0,0
490,-685,0,0,0,0,0,0,0,0,0,-1,1714,1709,0,0
497,-685,0,0,0,0,0,0,0,0,0,-1,1721,1709,0,0
504,-685,0,0,0,0,0,0,0,0,0,-1,1728,1709,0,0
511,-685,0,0,0,0,0,0,0,0,0,-1,1735,1709,0,0
518,-685,0,0,0,0,0,0,0,0,0,-1,1742,1709,0,0
525,-685,0,0,0,0,0,0,0,0,0,-1,1749,1709,0,0
532,-685,0,0,0,0,0,0,0,0,0,-1,1756,1709,0,0
539,-685,0,0,0,0,0,0,0,0,0,-1,1763,1709,0,0
546,-685,0,0,0,0,0,0,0,0,0,-1,1770,1709,0,0
553,-685,0,0,0,0,0,0,0,0,0,-1,1777,1709,0,0
560,-685,0,0,0,0,0,0,0,0,0,-1,1784,1709,0,0
567,-685,0,0,0,0,0,0,0,0,0,-1,1791,1709,0,0
574,-685,0,0,0,0,0,0,0,0,0,-1,1798,1709,0,0
581,-685,0,0,0,0,0,0,0,0,0,-1,1805,1709,0,0
588,-685,0,0,0,0,0,0,0,0,0,-1,1812,1709,0,0
595,-685,0,0,0,0,0,0,0,0,0,-1,1819,1709,0,0
602,-685,0,0,0,0,0,0,0,0,0,-1,1826,1709,0,0
609,-685,0,0,0,0,0,0,0,0,0,-1,1833,1709,0,0
616,-685,0,0,0,0,0,0,0,0,0,-1,1840,1709,0,0
623,-685,0,0,0,0,0,0,0,0,0,-1,1847,1709,0,0
630,-685,0,0,0,0,0,0,0,0,0,-1,1854,1709,0,0
637,-685,0,0,0,0,0,0,0,0,0,-1,1861,1709,0,0
644,-685,0,0,0,0,0,0,0,0,0,-1,1868,1709,0,0
651,-685,0,0,0,0,0,0,0,0,0,-1,1875,1709,0,0
658,-685,0,0,0,0,0,0,0,0,0,-1,1882,1709,0,0
665,-685,0,0,0,0,0,0,0,0,0,-1,1889,1709,0,0
672,-685,0,0,0,0,0,0,0,0,0,-1,1896,1709,0,0
679,-685,0,0,0,0,0,0,0,0,0,-1,1903,1709,0,0
686,-685,0,0,0,0,0,0,0,0,0,-1,1910,1709,0,0
693,-685,0,0,0,0,0,0,0,0,0,-1,1917,1709,0,0
700,-685,0,0,0,0,0,0,0,0,0,-1,1924,1709,0,0
707,-685,0,0,0,0,0,0,0,0,0,-1,1931,1709,0,0
714,-685,0,0,0,0,0,0,0,0,0,-1,1938,1709,0,0
721,-685,0,0,0,0,0,0,0,0,0,-1,1945,1709,0,0
728,-685,0,0,0,0,0,0,0,0,0,-1,1952,1709,0,0
735,-685,0,0,0,0,0,0,0,0,0,-1,1959,1709,0,0
742,-685,0,0,0,0,0,0,0,0,0,-1,1966,1709,0,0
749,-685,0,0,0,0,0,0,0,0,0,-1,1973,1709,0,0
756,-685,0,0,0,0,0,0,0,0,0,-1,1980,1709,0,0
763,-685,0,0,0,0,0,0,0,0,0,-1,1987,1709,0,0
770,-685,0,0,0,0,0,0,0,0,0,-1,1994,1709,0,0
777,-685,0,0,0,0,0,0,0,0,0,-1,2001,1709,0,0
784,-685,0,0,0,0,0,0,0,0,0,-1,2008,1709,0,0
791,-685,0,0,0,0,0,0,0,0,0,-1,2015,1709,0,0
798,-685,0,0,0,0,0,0,0,0,0,-1,2022,1709,0,0
805,-685,0,0,0,0,0,0,0,0,0,-1,2029,1709,0,0
812,-685,0,0,0,0,0,0,0,0,0,-1,2036,1709,0,0
-700,-692,0,0,0,0,0,0,0,0,0,-1,524,1716,0,0
-693,-692,0,0,0,0,0,0,0,0,0,-1,531,1716,0,0
-686,-692,0,0,0,0,0,0,0,0,0,-1,538,1716,0,0
-679,-692,0,0,0,0,0,0,0,0,0,-1,545,1716,0,0
-672,-692,0,0,0,0,0,0,0,0,0,-1,552,1716,0,0
-665,-692,0,0,0,0,0,0,0,0,0,-1,559,1716,0,0
-658,-692,0,0,0,0,0,0,0,0,0,-1,566,1716,0,0
-651,-692,0,0,0,0,0,0,0,0,0,-1,573,1716,0,0
-644,-692,0,0,0,0,0,0,0,0,0,-1,580,1716,0,0
-637,-692,0,0,0,0,0,0,0,0,0,-1,587,1716,0,0
-630,-692,0,0,0,0,0,0,0,0,0,-1,594,1716,0,0
-623,-692,0,0,0,0,0,0,0,0,0,-1,601,1716,0,0
-616,-692,0,0,0,0,0,0,0,0,0,-1,608,1716,0,0
-609,-692,0,0,0,0,0,0,0,0,0,-1,615,1716,0,0
-602,-692,0,0,0,0,0,0,0,0,0,-1,622,1716,0,0
-595,-692,0,0,0,0,0,0,0,0,0,-1,629,1716,0,0
-588,-692,0,0,0,0,0,0,0,0,0,-1,636,1716,0,0
-581,-692,0,0,0,0,0,0,0,0,0,-1,643,1716,0,0
-574,-692,0,0,0,0,0,0,0,0,0,-1,650,1716,0,0
-567,-692,0,0,0,0,0,0,0,0,0,-1,657,1716,0,0
-560,-692,0,0,0,0,0,0,0,0,0,-1,664,1716,0,0
-553,-692,0,0,0,0,0,0,0,0,0,-1,671,1716,0,0
-546,-692,0,0,0,0,0,0,0,0,0,-1,678,1716,0,0
-539,-692,0,0,0,0,0,0,0,0,0,-1,685,1716,0,0
-532,-692,0,0,0,0,0,0,0,0,0,-1,692,1716,0,0
-525,-692,0,0,0,0,0,0,0,0,0,-1,699,1716,0,0
-518,-692,0,0,0,0,0,0,0,0,0,-1,706,1716,0,0
-511,-692,0,0,0,0,0,0,0,0,0,-1,713,1716,0,0
-504,-692,0,0,0,0,0,0,0,0,0,-1,720,1716,0,0
-497,-692,0,0,0,0,0,0,0,0,0,-1,727,1716,0,0
-490,-692,0,0,0,0,0,0,0,0,0,-1,734,1716,0,0
-483,-692,0,0,0,0,0,0,0,0,0,-1,741,1716,0,0
-476,-692,0,0,0,0,0,0,0,0,0,-1,748,1716,0,0
-469,-692,0,0,0,0,0,0,0,0,0,-1,755,1716,0,0
-462,-692,0,0,0,0,0,0,0,0,0,-1,762,1716,0,0
-455,-692,0,0,0,0,0,0,0,0,0,-1,769,1716,0,0
-448,-692,0,0,0,0,0,0,0,0,0,-1,776,1716,0,0
-441,-692,0,0,0,0,0,0,0,0,0,-1,783,1716,0,0
-434,-692,0,0,0,0,0,0,0,0,0,-1,790,1716,0,0
-427,-692,0,0,0,0,0,0,0,0,0,-1,797,1716,0,0
-420,-692,0,0,0,0,0,0,0,0,0,-1,804,1716,0,0
-413,-692,0,0,0,0,0,0,0,0,0,-1,811,1716,0,0
-406,-692,0,0,0,0,0,0,0,0,0,-1,818,1716,0,0
-399,-692,0,0,0,0,0,0,0,0,0,-1,825,1716,0,0
-392,-692,0,0,0,0,0,0,0,0,0,-1,832,1716,0,0
-385,-692,0,0,0,0,0,0,0,0,0,-1,839,1716,0,0
-378,-692,0,0,0,0,0,0,0,0,0,-1,846,1716,0,0
-371,-692,0,0,0,0,0,0,0,0,0,-1,853,1716,0,0
-364,-692,0,0,0,0,0,0,0,0,0,-1,860,1716,0,0
-357,-692,0,0,0,0,0,0,0,0,0,-1,867,1716,0,0
-350,-692,0,0,0,0,0,0,0,0,0,-1,874,1716,0,0
-343,-692,0,0,0,0,0,0,0,0,0,-1,881,1716,0,0
-336,-692,0,0,0,0,0,0,0,0,0,-1,888,1716,0,0
-329,-692,3.03107,4.10266,0,0,0,0,0,0,0,-1,895,1716,3.03105,-4.10267
-322,-692,4.43713,18.5242,0,0,0,0,0,0,0,-1,902,1716,4.43711,-18.5241
-315,-692,5.38965,17.975,0,0,0,0,0,0,0,-1,909,1716,5.38963,-17.975
-308,-692,5.86938,17.4392,0,0,0,0,0,0,0,-1,916,1716,5.86937,-17.4392
-301,-692,8.65558,20.7662,0,0,0,0,0,0,0,-1,923,1716,8.65556,-20.7663
-294,-692,6.66138,19.0796,0,0,0,0,0,0,0,-1,930,1716,6.66141,-19.0796
-287,-692,5.45862,21.7904,0,0,0,0,0,0,0,-1,937,1716,5.45862,-21.7904
-280,-692,5.68671,21.759,0,0,0,0,0,0,0,-1,944,1716,5.68673,-21.7591
-273,-692,5.50177,21.125,0,0,0,0,0,0,0,-1,951,1716,5.50175,-21.125
-266,-692,5.71106,21.415,0,0,0,0,0,0,0,-1,958,1716,5.71106,-21.4151
-259,-692,5.7326,21.8052,0,0,0,0,0,0,0,-1,965,1716,5.7326,-21.8051
-252,-692,5.66656,21.1007,0,0,0,0,0,0,0,-1,972,1716,5.66654,-21.1007
-245,-692,5.75549,21.5707,0.00474729,-0.00732646,0.00206348,0.00509021,-0.00766938,0.164681,0.00741675,0.0477307,979,1716,5.75549,-21.5706
-238,-692,5.79718,22.0797,0.00417057,-0.00577094,0.0022347,0.00464979,-0.00625017,0.211248,0.00631566,0.0426063,986,1716,5.7972,-22.0797
-231,-692,5.87012,22.5417,0.00370775,-0.00440196,0.00198309,0.00416671,-0.00486092,0.227431,0.00521724,0.0353081,993,1716,5.8701,-22.5418
-224,-692,5.74951,22.7909,0.00324842,-0.00370043,0.00222464,0.00389961,-0.00435161,0.284759,0.00476622,0.0179762,1000,1716,5.74953,-22.7909
-217,-692,5.71912,23.0248,0.00274053,-0.00339207,0.00197761,0.00332294,-0.00397449,0.286409,0.00421877,0.0124383,1007,1716,5.7191,-23.0248
-210,-692,5.71759,23.2955,0.00238824,-0.00301287,0.00173328,0.00289662,-0.00352125,0.285303,0.0037112,0.0129959,1014,1716,5.71761,-23.2956
-203,-692,5.71631,23.5269,0.00209087,-0.00264304,0.00159278,0.00257688,-0.00312905,0.296161,0.00329946,0.0145675,1021,1716,5.71635,-23.5268
-196,-692,5.72229,23.7545,0.00169195,-0.00247731,0.00154428,0.00220164,-0.002987,0.318791,0.00300708,0.0173868,1028,1716,5.72232,-23.7546
-189,-692,5.67749,23.9714,0.00126135,-0.00244175,0.00134985,0.00170116,-0.00288156,0.314974,0.00267493,0.00925455,1035,1716,5.67746,-23.9715
-182,-692,5.66663,24.1901,0.000887618,-0.00210758,0.00118769,0.00130141,-0.00252137,0.335248,0.00224423,0.01353,1042,1716,5.66666,-24.19
-175,-692,5.6521,24.4078,0.000654509,-0.00145725,0.00111799,0.00113641,-0.00193915,0.406981,0.00179573,0.0150637,1049,1716,5.65206,-24.4079
-168,-692,5.65906,24.6385,0.000359621,-0.000744981,0.00104106,0.000985808,-0.00137117,0.541516,0.00136685,0.0119571,1056,1716,5.65902,-24.6385
-161,-692,5.67664,24.8845,0.000114047,-0.000164067,0.000984481,0.000969244,-0.00101926,0.715238,0.00114819,0.0139189,1063,1716,5.67664,-24.8845
-154,-692,5.66431,25.1152,3.2177e-05,0.000329356,0.00092503,0.00111765,-0.000756122,0.865034,0.00108852,0.0147255,1070,1716,5.66436,-25.1152
-147,-692,5.65198,25.2825,0.000105901,0.000966557,0.000706919,0.00136383,-0.000291368,1.05881,0.0010203,0.0135634,1077,1716,5.65201,-25.2824
-140,-692,5.65186,25.4543,0.000187344,0.00157283,0.000480144,0.00172296,3.7217e-05,1.26775,0.00113644,0.0107165,1084,1716,5.65188,-25.4544
-133,-692,5.66223,25.6482,0.000344337,0.00208041,0.000279502,0.0021243,0.000300447,1.41504,0.00132743,0.00986112,1091,1716,5.6622,-25.6482
-126,-692,5.66699,25.8197,0.000715957,0.00273554,0.000323117,0.00278597,0.000665521,1.41595,0.00168,0.00795325,1098,1716,5.66697,-25.8197
-119,-692,5.67285,25.9808,0.00112207,0.0032388,0.000355909,0.00329704,0.00106382,1.4086,0.00194305,0.0112486,1105,1716,5.67288,-25.9809
-112,-692,5.65979,26.1672,0.00161576,0.00367757,0.000449145,0.00377116,0.00152217,1.36535,0.00219072,0.01069,1112,1716,5.65977,-26.1672
-105,-692,5.69934,26.333,0.00209805,0.00391328,0.000575775,0.0040805,0.00193082,1.28814,0.00235701,0.0161431,1119,1716,5.69934,-26.333
-98,-692,5.75793,26.4977,0.00260548,0.00410623,0.000741522,0.0044108,0.0023009,1.18106,0.00254737,0.018627,1126,1716,5.75797,-26.4977
-91,-692,5.7478,26.6359,0.00318921,0.00431829,0.000950726,0.00485946,0.00264805,1.05332,0.00280938,0.0208538,1133,1716,5.74783,-26.6358
-84,-692,5.73706,26.745,0.00370725,0.0045609,0.00114928,0.00536006,0.00290809,0.963197,0.00309836,0.0225813,1140,1716,5.73708,-26.745
-77,-692,5.72571,26.9203,0.00422095,0.00477624,0.00108615,0.00561967,0.00337752,0.910529,0.00326652,0.0166951,1147,1716,5.72572,-26.9203
-70,-692,5.78296,27.1377,0.00473178,0.00455945,0.000690851,0.00534182,0.00394941,0.723358,0.00319971,0.0288471,1154,1716,5.78297,-27.1377
-63,-692,5.83618,27.3029,0.00447834,0.00321752,0.001417,0.00539883,0.00229702,0.5761,0.00312854,0.0466056,1161,1716,5.8362,-27.3029
-56,-692,5.89514,27.4321,0,0,0,0,0,0,0,-1,1168,1716,5.89513,-27.4321
-49,-692,5.81934,27.4758,0,0,0,0,0,0,0,-1,1175,1716,5.8193,-27.4758
-42,-692,5.89258,27.71,0,0,0,0,0,0,0,-1,1182,1716,5.89263,-27.71
-35,-692,5.96448,27.9457,0,0,0,0,0,0,0,-1,1189,1716,5.96446,-27.9456
-28,-692,5.87598,27.8683,0.00645637,-0.0081053,0.0051856,0.00811427,-0.0097632,0.309442,0.0103362,0.0473742,1196,1716,5.87599,-27.8683
-21,-692,5.96643,27.7629,0.00737011,-0.00962245,0.00544961,0.00896764,-0.01122,0.285157,0.0116795,0.0334801,1203,1716,5.96641,-27.763
-14,-692,5.99927,27.8124,0.00882057,-0.00991667,0.00646204,0.010833,-0.0119291,0.301908,0.0131468,0.0176278,1210,1716,5.99927,-27.8124
-7,-692,5.98975,27.9491,0.0102624,-0.00969763,0.0075689,0.0128079,-0.0122431,0.32443,0.0144645,0.0162468,1217,1716,5.98973,-27.9491
0,-692,6.02429,28.051,0.0122955,-0.00874075,0.00889027,0.0155494,-0.0119946,0.35086,0.0159466,0.0178603,1224,1716,6.02431,-28.051
7,-692,6.05347,28.1044,0.0141816,-0.00722944,0.00952105,0.0178029,-0.0108508,0.363453,0.0167047,0.0226754,1231,1716,6.05347,-28.1043
14,-692,6.13464,28.2417,0.0165621,-0.00516916,0.00960706,0.0202002,-0.00880724,0.362,0.0171726,0.0252497,1238,1716,6.13467,-28.2417
21,-692,6.27722,28.2739,0.0183352,0.000608916,0.00902042,0.0221182,-0.00317401,0.397096,0.0159093,0.0258979,1245,1716,6.2772,-28.2739
28,-692,6.2821,28.2311,0.0189277,0.0167614,0.00602074,0.023962,0.0117272,0.696397,0.0138355,0.025855,1252,1716,6.2821,-28.2311
35,-692,6.26172,28.2832,0.0192787,0.0272382,0.00311848,0.0283145,0.0182024,1.23847,0.0165683,0.0246275,1259,1716,6.26167,-28.2832
42,-692,6.33362,28.3711,0.0187544,0.0376938,-0.00175705,0.0378554,0.0185927,-1.47907,0.021857,0.0234792,1266,1716,6.33362,-28.3711
49,-692,6.40234,28.3862,0.0181152,0.0486226,-0.00735142,0.0503016,0.0164362,-1.34625,0.0296171,0.0289137,1273,1716,6.40234,-28.3862
56,-692,6.34375,28.3718,0.0168317,0.059291,-0.0133288,0.0631284,0.0129943,-1.29048,0.0384924,0.0338768,1280,1716,6.34374,-28.3719
63,-692,6.31506,28.4028,0.0154488,0.0674336,-0.019021,0.07365,0.00923247,-1.25492,0.0463301,0.0317155,1287,1716,6.31506,-28.4028
70,-692,6.39087,28.437,0.013545,0.072682,-0.0242192,0.0813348,0.00489219,-1.22766,0.0526682,0.0278969,1294,1716,6.39086,-28.437
77,-692,6.47778,28.4601,0.0110426,0.0742624,-0.0294022,0.0858228,-0.000517849,-1.19618,0.0573886,0.0321419,1301,1716,6.47782,-28.4601
84,-692,6.50964,28.4548,0.00930716,0.0721831,-0.0331007,0.086396,-0.00490572,-1.16522,0.0593002,0.039315,1308,1716,6.50963,-28.4548
91,-692,6.54492,28.4519,0.00790116,0.0677042,-0.036512,0.0849961,-0.0093908,-1.12849,0.0600397,0.0348515,1315,1716,6.54498,-28.4519
98,-692,6.49329,28.3883,0.00713545,0.0611291,-0.0384417,0.0811066,-0.0128421,-1.09153,0.0588209,0.028581,1322,1716,6.49326,-28.3883
105,-692,6.48254,28.2554,0.00656268,0.0531743,-0.038624,0.0749792,-0.0152422,-1.05686,0.0557656,0.036123,1329,1716,6.48257,-28.2554
112,-692,6.51501,28.1566,0.00653546,0.0469017,-0.037992,0.0697389,-0.0163017,-1.02956,0.0527726,0.0390849,1336,1716,6.51506,-28.1566
119,-692,6.52209,28.1179,0.00616479,0.0421755,-0.037407,0.0656849,-0.0173446,-1.0097,0.0505728,0.0339578,1343,1716,6.5221,-28.1179
126,-692,6.62732,28.1149,0.00642581,0.0373372,-0.0368431,0.0618351,-0.0180721,-0.984,0.0483858,0.0339345,1350,1716,6.62736,-28.1149
133,-692,6.75391,28.0803,0.00681569,0.0283092,-0.0353255,0.0544865,-0.0193616,-0.93306,0.0442146,0.0260461,1357,1716,6.75385,-28.0804
140,-692,6.74792,28.0946,0.00657393,0.0327844,-0.0355778,0.0575939,-0.0182356,-0.961864,0.0457036,0.0300354,1364,1716,6.74796,-28.0946
147,-692,6.78296,28.1128,0.00670786,0.0365197,-0.034573,0.0592632,-0.0160356,-0.98893,0.0457995,0.032496,1371,1716,6.78298,-28.1128
154,-692,6.72559,28.0291,0.00605681,0.0393865,-0.0333592,0.0600117,-0.0145685,-1.01704,0.0456456,0.029163,1378,1716,6.72564,-28.0291
161,-692,6.88208,27.9938,0.00512167,0.0400856,-0.0316553,0.0587654,-0.0135582,-1.03769,0.0443919,0.0411223,1385,1716,6.88203,-27.9938
168,-692,6.83472,27.847,0,0,0,0,0,0,0,-1,1392,1716,6.83466,-27.8471
175,-692,6.9071,27.7101,0,0,0,0,0,0,0,-1,1399,1716,6.90714,-27.7101
182,-692,6.89246,27.5817,0,0,0,0,0,0,0,-1,1406,1716,6.89244,-27.5816
189,-692,6.89087,27.4814,0,0,0,0,0,0,0,-1,1413,1716,6.8909,-27.4815
196,-692,6.89905,27.3917,0.0015226,0.0121289,-0.00541964,0.0144084,-0.000756853,-1.17267,0.00986756,0.036639,1420,1716,6.89903,-27.3917
203,-692,6.92297,27.2979,0.00166331,0.00170824,0.0023058,0.00399169,-0.000620138,0.790269,0.0028901,0.0230008,1427,1716,6.92293,-27.2978
210,-692,6.98792,27.1816,0.000995254,0.00107153,0.00219799,0.00323171,-0.00116493,0.794072,0.00263023,0.0187164,1434,1716,6.98795,-27.1816
217,-692,6.96375,27.0221,0.000432221,0.000333264,0.00185089,0.00223429,-0.00146881,0.772035,0.00215316,0.0164998,1441,1716,6.96378,-27.0222
224,-692,6.96277,26.9043,0.00025853,0.000114068,0.00165537,0.00184325,-0.00147065,0.763595,0.00191731,0.0130727,1448,1716,6.96278,-26.9043
231,-692,6.96667,26.7836,0.00037082,-0.000140465,0.00121523,0.00135701,-0.00112665,0.681727,0.001436,0.0115444,1455,1716,6.96667,-26.7836
238,-692,6.96143,26.6158,0.000586934,-0.000315472,0.000862494,0.00110912,-0.000837655,0.544405,0.00112761,0.0172109,1462,1716,6.96144,-26.6159
245,-692,6.94226,26.4855,0.000777877,-0.000297018,0.000584747,0.00103465,-0.000553786,0.413761,0.000930983,0.0193258,1469,1716,6.94222,-26.4854
252,-692,6.98621,26.3295,0.000931104,-0.000320482,0.000300999,0.000999729,-0.000389108,0.224161,0.000827276,0.0175716,1476,1716,6.98626,-26.3295
259,-692,7.00269,26.184,0.00102692,-0.000222292,2.39492e-05,0.00102738,-0.000222751,0.0191621,0.000769984,0.00973499,1483,1716,7.00274,-26.1839
266,-692,6.98914,26.0173,0.00109859,-1.32078e-05,-0.000251579,0.00115287,-6.74853e-05,-0.212491,0.000792034,0.00932342,1490,1716,6.98918,-26.0173
273,-692,6.99292,25.8356,0.00106128,0.00035834,-0.000451848,0.00128226,0.000137361,-0.454853,0.000812931,0.0131651,1497,1716,6.99286,-25.8356
280,-692,7.00354,25.6448,0.000948641,0.000685422,-0.000622839,0.00145362,0.000180439,-0.681277,0.000914887,0.0136735,1504,1716,7.00356,-25.6448
287,-692,6.99951,25.4755,0.000764794,0.000958706,-0.000683813,0.0015524,0.000171098,-0.855822,0.000982879,0.0119526,1511,1716,6.99953,-25.4755
294,-692,6.99719,25.3153,0.00061883,0.0013255,-0.000788164,0.0018359,0.000108424,-0.996118,0.00118944,0.0106936,1518,1716,6.99724,-25.3154
301,-692,6.99597,25.127,0.000484119,0.00152014,-0.000957246,0.00209055,-8.62899e-05,-1.03341,0.00142333,0.0123008,1525,1716,6.99602,-25.127
308,-692,6.9906,24.9242,0.000264494,0.00141148,-0.00110458,0.00208257,-0.000406596,-1.02484,0.00154189,0.0156631,1532,1716,6.99055,-24.9242
315,-692,6.9989,24.7004,0.000129684,0.0011368,-0.00124766,0.00197869,-0.000712206,-0.977202,0.00160993,0.0152432,1539,1716,6.99886,-24.7005
322,-692,6.96985,24.4691,0.000123536,0.000790566,-0.00145723,0.00195196,-0.00103786,-0.897895,0.00175286,0.0200705,1546,1716,6.9698,-24.4692
329,-692,6.93286,24.2684,0.000186794,0.000274575,-0.0016899,0.00192116,-0.00145979,-0.798381,0.00195804,0.0182355,1553,1716,6.93282,-24.2685
336,-692,6.95374,24.0564,0.000395152,-0.000191612,-0.00206689,0.00218937,-0.00198583,-0.714897,0.00241151,0.0129732,1560,1716,6.95374,-24.0564
343,-692,6.97253,23.8464,0.000449011,-0.000916036,-0.00237978,0.00224221,-0.00270923,-0.645746,0.00286295,0.0136648,1567,1716,6.97249,-23.8465
350,-692,6.96692,23.6138,0.000529783,-0.00178124,-0.00265128,0.00226642,-0.00351787,-0.579894,0.00336551,0.0140164,1574,1716,6.96694,-23.6137
357,-692,6.92053,23.349,0.000781493,-0.0028615,-0.00284687,0.00233972,-0.00441973,-0.500804,0.00396368,0.0179444,1581,1716,6.92048,-23.349
364,-692,6.90234,23.1064,0.00102562,-0.00387002,-0.00306533,0.00250057,-0.00534497,-0.44847,0.00462779,0.0249686,1588,1716,6.9023,-23.1064
371,-692,6.98218,22.9054,0.00133362,-0.00510398,-0.00341164,0.00280523,-0.00657559,-0.407237,0.00555993,0.0380161,1595,1716,6.98217,-22.9053
378,-692,6.94812,22.7009,0.00156018,-0.00620171,-0.00359356,0.00296841,-0.00760994,-0.373484,0.00630034,0.0479207,1602,1716,6.94809,-22.7009
385,-692,7.08801,22.3379,0.00192052,-0.00712016,-0.00370701,0.00324615,-0.00844579,-0.34343,0.00696931,0.0484712,1609,1716,7.08807,-22.3378
392,-692,7.55151,21.8978,0,0,0,0,0,0,0,-1,1616,1716,7.55147,-21.8978
399,-692,7.03882,22.4856,0,0,0,0,0,0,0,-1,1623,1716,7.03884,-22.4855
406,-692,4.73633,10.6808,0,0,0,0,0,0,0,-1,1630,1716,4.73637,-10.6808
413,-692,4.25085,10.5685,0,0,0,0,0,0,0,-1,1637,1716,4.2508,-10.5685
420,-692,5.48901,10.4845,0,0,0,0,0,0,0,-1,1644,1716,5.48906,-10.4845
427,-692,3.79578,8.60339,0,0,0,0,0,0,0,-1,1651,1716,3.79577,-8.6034
434,-692,4.78516,8.64636,0,0,0,0,0,0,0,-1,1658,1716,4.78512,-8.64634
441,-692,5.8208,8.74036,0,0,0,0,0,0,0,-1,1665,1716,5.82084,-8.7404
448,-692,6.73792,8.51013,0,0,0,0,0,0,0,-1,1672,1716,6.73793,-8.5101
455,-692,0,0,0,0,0,0,0,0,0,-1,1679,1716,0,0
462,-692,0,0,0,0,0,0,0,0,0,-1,1686,1716,0,0
469,-692,0,0,0,0,0,0,0,0,0,-1,1693,1716,0,0
476,-692,0,0,0,0,0,0,0,0,0,-1,1700,1716,0,0
483,-692,0,0,0,0,0,0,0,0,0,-1,1707,1716,0,0
490,-692,0,0,0,0,0,0,0,0,0,-1,1714,1716,0,0
497,-692,0,0,0,0,0,0,0,0,0,-1,1721,1716,0,0
504,-692,0,0,0,0,0,0,0,0,0,-1,1728,1716,0,0
511,-692,0,0,0,0,0,0,0,0,0,-1,1735,1716,0,0
518,-692,0,0,0,0,0,0,0,0,0,-1,1742,1716,0,0
525,-692,0,0,0,0,0,0,0,0,0,-1,1749,1716,0,0
532,-692,0,0,0,0,0,0,0,0,0,-1,1756,1716,0,0
539,-692,0,0,0,0,0,0,0,0,0,-1,1763,1716,0,0
546,-692,0,0,0,0,0,0,0,0,0,-1,1770,1716,0,0
553,-692,0,0,0,0,0,0,0,0,0,-1,1777,1716,0,0
560,-692,0,0,0,0,0,0,0,0,0,-1,1784,1716,0,0
567,-692,0,0,0,0,0,0,0,0,0,-1,1791,1716,0,0
574,-692,0,0,0,0,0,0,0,0,0,-1,1798,1716,0,0
581,-692,0,0,0,0,0,0,0,0,0,-1,1805,1716,0,0
588,-692,0,0,0,0,0,0,0,0,0,-1,1812,1716,0,0
595,-692,0,0,0,0,0,0,0,0,0,-1,1819,1716,0,0
602,-692,0,0,0,0,0,0,0,0,0,-1,1826,1716,0,0
609,-692,0,0,0,0,0,0,0,0,0,-1,1833,1716,0,0
616,-692,0,0,0,0,0,0,0,0,0,-1,1840,1716,0,0
623,-692,0,0,0,0,0,0,0,0,0,-1,1847,1716,0,0
630,-692,0,0,0,0,0,0,0,0,0,-1,1854,1716,0,0
637,-692,0,0,0,0,0,0,0,0,0,-1,1861,1716,0,0
644,-692,0,0,0,0,0,0,0,0,0,-1,1868,1716,0,0
651,-692,0,0,0,0,0,0,0,0,0,-1,1875,1716,0,0
658,-692,0,0,0,0,0,0,0,0,0,-1,1882,1716,0,0
665,-692,0,0,0,0,0,0,0,0,0,-1,1889,1716,0,0
672,-692,0,0,0,0,0,0,0,0,0,-1,1896,1716,0,0
679,-692,0,0,0,0,0,0,0,0,0,-1,1903,1716,0,0
686,-692,0,0,0,0,0,0,0,0,0,-1,1910,1716,0,0
693,-692,0,0,0,0,0,0,0,0,0,-1,1917,1716,0,0
700,-692,0,0,0,0,0,0,0,0,0,-1,1924,1716,0,0
707,-692,0,0,0,0,0,0,0,0,0,-1,1931,1716,0,0
714,-692,0,0,0,0,0,0,0,0,0,-1,1938,1716,0,0
721,-692,0,0,0,0,0,0,0,0,0,-1,1945,1716,0,0
728,-692,0,0,0,0,0,0,0,0,0,-1,1952,1716,0,0
735,-692,0,0,0,0,0,0,0,0,0,-1,1959,1716,0,0
742,-692,0,0,0,0,0,0,0,0,0,-1,1966,1716,0,0
749,-692,0,0,0,0,0,0,0,0,0,-1,1973,1716,0,0
756,-692,0,0,0,0,0,0,0,0,0,-1,1980,1716,0,0
763,-692,0,0,0,0,0,0,0,0,0,-1,1987,1716,0,0
770,-692,0,0,0,0,0,0,0,0,0,-1,1994,1716,0,0
777,-692,0,0,0,0,0,0,0,0,0,-1,2001,1716,0,0
784,-692,0,0,0,0,0,0,0,0,0,-1,2008,1716,0,0
791,-692,0,0,0,0,0,0,0,0,0,-1,2015,1716,0,0
798,-692,0,0,0,0,0,0,0,0,0,-1,2022,1716,0,0
805,-692,0,0,0,0,0,0,0,0,0,-1,2029,1716,0,0
812,-692,0,0,0,0,0,0,0,0,0,-1,2036,1716,0,0
-700,-699,0,0,0,0,0,0,0,0,0,-1,524,1723,0,0
-693,-699,0,0,0,0,0,0,0,0,0,-1,531,1723,0,0
-686,-699,0,0,0,0,0,0,0,0,0,-1,538,1723,0,0
-679,-699,0,0,0,0,0,0,0,0,0,-1,545,1723,0,0
-672,-699,0,0,0,0,0,0,0,0,0,-1,552,1723,0,0
-665,-699,0,0,0,0,0,0,0,0,0,-1,559,1723,0,0
-658,-699,0,0,0,0,0,0,0,0,0,-1,566,1723,0,0
-651,-699,0,0,0,0,0,0,0,0,0,-1,573,1723,0,0
-644,-699,0,0,0,0,0,0,0,0,0,-1,580,1723,0,0
-637,-699,0,0,0,0,0,0,0,0,0,-1,587,1723,0,0
-630,-699,0,0,0,0,0,0,0,0,0,-1,594,1723,0,0
-623,-699,0,0,0,0,0,0,0,0,0,-1,601,1723,0,0
-616,-699,0,0,0,0,0,0,0,0,0,-1,608,1723,0,0
-609,-699,0,0,0,0,0,0,0,0,0,-1,615,1723,0,0
-602,-699,0,0,0,0,0,0,0,0,0,-1,622,1723,0,0
-595,-699,0,0,0,0,0,0,0,0,0,-1,629,1723,0,0
-588,-699,0,0,0,0,0,0,0,0,0,-1,636,1723,0,0
-581,-699,0,0,0,0,0,0,0,0,0,-1,643,1723,0,0
-574,-699,0,0,0,0,0,0,0,0,0,-1,650,1723,0,0
-567,-699,0,0,0,0,0,0,0,0,0,-1,657,1723,0,0
-560,-699,0,0,0,0,0,0,0,0,0,-1,664,1723,0,0
-553,-699,0,0,0,0,0,0,0,0,0,-1,671,1723,0,0
-546,-699,0,0,0,0,0,0,0,0,0,-1,678,1723,0,0
-539,-699,0,0,0,0,0,0,0,0,0,-1,685,1723,0,0
-532,-699,0,0,0,0,0,0,0,0,0,-1,692,1723,0,0
-525,-699,0,0,0,0,0,0,0,0,0,-1,699,1723,0,0
-518,-699,0,0,0,0,0,0,0,0,0,-1,706,1723,0,0
-511,-699,0,0,0,0,0,0,0,0,0,-1,713,1723,0,0
-504,-699,0,0,0,0,0,0,0,0,0,-1,720,1723,0,0
-497,-699,0,0,0,0,0,0,0,0,0,-1,727,1723,0,0
-490,-699,0,0,0,0,0,0,0,0,0,-1,734,1723,0,0
-483,-699,0,0,0,0,0,0,0,0,0,-1,741,1723,0,0
-476,-699,0,0,0,0,0,0,0,0,0,-1,748,1723,0,0
-469,-699,0,0,0,0,0,0,0,0,0,-1,755,1723,0,0
-462,-699,0,0,0,0,0,0,0,0,0,-1,762,1723,0,0
-455,-699,0,0,0,0,0,0,0,0,0,-1,769,1723,0,0
-448,-699,0,0,0,0,0,0,0,0,0,-1,776,1723,0,0
-441,-699,0,0,0,0,0,0,0,0,0,-1,783,1723,0,0
-434,-699,0,0,0,0,0,0,0,0,0,-1,790,1723,0,0
-427,-699,0,0,0,0,0,0,0,0,0,-1,797,1723,0,0
-420,-699,0,0,0,0,0,0,0,0,0,-1,804,1723,0,0
-413,-699,0,0,0,0,0,0,0,0,0,-1,811,1723,0,0
-406,-699,0,0,0,0,0,0,0,0,0,-1,818,1723,0,0
-399,-699,0,0,0,0,0,0,0,0,0,-1,825,1723,0,0
-392,-699,0,0,0,0,0,0,0,0,0,-1,832,1723,0,0
-385,-699,0,0,0,0,0,0,0,0,0,-1,839,1723,0,0
-378,-699,0,0,0,0,0,0,0,0,0,-1,846,1723,0,0
-371,-699,0,0,0,0,0,0,0,0,0,-1,853,1723,0,0
-364,-699,0,0,0,0,0,0,0,0,0,-1,860,1723,0,0
-357,-699,0,0,0,0,0,0,0,0,0,-1,867,1723,0,0
-350,-699,0,0,0,0,0,0,0,0,0,-1,874,1723,0,0
-343,-699,0,0,0,0,0,0,0,0,0,-1,881,1723,0,0
-336,-699,0,0,0,0,0,0,0,0,0,-1,888,1723,0,0
-329,-699,0,0,0,0,0,0,0,0,0,-1,895,1723,0,0
-322,-699,0,0,0,0,0,0,0,0,0,-1,902,1723,0,0
-315,-699,6.20001,19.5193,0,0,0,0,0,0,0,-1,909,1723,6.20001,-19.5193
-308,-699,6.98151,18.9218,0,0,0,0,0,0,0,-1,916,1723,6.98151,-18.9217
-301,-699,4.72729,12.8752,0,0,0,0,0,0,0,-1,923,1723,4.72732,-12.8752
-294,-699,6.90332,19.8601,0,0,0,0,0,0,0,-1,930,1723,6.90332,-19.8601
-287,-699,7.09802,22.7235,0,0,0,0,0,0,0,-1,937,1723,7.09805,-22.7235
-280,-699,6.72089,21.9105,0,0,0,0,0,0,0,-1,944,1723,6.72088,-21.9105
-273,-699,6.34369,21.0975,0,0,0,0,0,0,0,-1,951,1723,6.34372,-21.0975
-266,-699,6.33813,21.2871,0,0,0,0,0,0,0,-1,958,1723,6.33812,-21.2871
-259,-699,5.39758,14.5466,0,0,0,0,0,0,0,-1,965,1723,5.39759,-14.5466
-252,-699,6.98651,21.5909,0,0,0,0,0,0,0,-1,972,1723,6.98649,-21.591
-245,-699,6.09204,21.2444,0,0,0,0,0,0,0,-1,979,1723,6.09201,-21.2444
-238,-699,5.95197,21.9327,0,0,0,0,0,0,0,-1,986,1723,5.95194,-21.9328
-231,-699,5.90936,22.7096,0.00583074,-0.00622794,0.00238205,0.00628424,-0.00668143,0.188127,0.0074869,0.0439021,993,1723,5.90934,-22.7096
-224,-699,5.92706,22.8362,0.00507278,-0.00547985,0.00269736,0.00572228,-0.00612934,0.236292,0.00684388,0.03768,1000,1723,5.92707,-22.8362
-217,-699,5.95874,23.002,0.00423023,-0.00515339,0.00240569,0.00481103,-0.00573419,0.236895,0.00609606,0.0262769,1007,1723,5.95876,-23.002
-210,-699,5.95538,23.2968,0.00353433,-0.00467134,0.00217362,0.00407454,-0.00521155,0.243596,0.00537471,0.0182808,1014,1723,5.9554,-23.2967
-203,-699,5.93103,23.5089,0.00295872,-0.00420381,0.00204392,0.00350093,-0.00474602,0.259308,0.00477943,0.0217394,1021,1723,5.93101,-23.5089
-196,-699,5.93494,23.7109,0.00231317,-0.00396913,0.0020226,0.00290802,-0.00456399,0.286039,0.00434914,0.0183693,1028,1723,5.93499,-23.7109
-189,-699,5.90796,23.9755,0.0016384,-0.0037366,0.00179271,0.00218146,-0.00427965,0.294135,0.00379532,0.00946406,1035,1723,5.90796,-23.9755
-182,-699,5.88562,24.1938,0.00102806,-0.00325255,0.0016036,0.00156217,-0.00378665,0.321508,0.00317591,0.0121678,1042,1723,5.88566,-24.1939
-175,-699,5.89172,24.4321,0.000598361,-0.00242106,0.00150902,0.00122322,-0.00304592,0.392585,0.00253856,0.0141123,1049,1723,5.89176,-24.4322
-168,-699,5.90747,24.6515,0.000133276,-0.00153514,0.00140358,0.000931842,-0.0023337,0.517274,0.00194241,0.0147983,1056,1723,5.90744,-24.6515
-161,-699,5.89722,24.8654,-0.000239941,-0.000854172,0.00132123,0.000809399,-0.00190351,0.671203,0.0016082,0.0129749,1063,1723,5.89728,-24.8653
-154,-699,5.87146,25.1116,-0.000407999,-0.000356813,0.00124358,0.000861441,-0.00162625,0.795687,0.00145872,0.0131694,1070,1723,5.8715,-25.1116
-147,-699,5.84949,25.2874,-0.000381605,0.000342018,0.000974834,0.00102002,-0.00105961,0.963094,0.00120074,0.0143091,1077,1723,5.84949,-25.2874
-140,-699,5.83386,25.4393,-0.000343582,0.000996176,0.000710879,0.00130307,-0.000650476,1.16325,0.00114867,0.0101341,1084,1723,5.83386,-25.4394
-133,-699,5.84375,25.6525,-0.000248803,0.00150379,0.000455765,0.00161523,-0.00036024,1.331,0.00121484,0.00907781,1091,1723,5.84378,-25.6525
-126,-699,5.85352,25.8287,4.55433e-05,0.00214735,0.00044501,0.00223768,-4.47948e-05,1.37052,0.00150694,0.0108866,1098,1723,5.85355,-25.8287
-119,-699,5.85266,25.9976,0.000363889,0.00266426,0.000439736,0.00274545,0.000282696,1.38821,0.00174373,0.0153257,1105,1723,5.85271,-25.9976
-112,-699,5.84241,26.1743,0.000778917,0.00304521,0.000503107,0.00315188,0.000672251,1.36187,0.00191687,0.0109909,1112,1723,5.84239,-26.1743
-105,-699,5.84583,26.3453,0.00118559,0.00320971,0.000559892,0.00335426,0.00104104,1.31814,0.00198247,0.0125436,1119,1723,5.8458,-26.3453
-98,-699,5.89209,26.506,0.00161736,0.00334484,0.000692077,0.00358791,0.00137429,1.23304,0.00209029,0.0146788,1126,1723,5.89213,-26.5059
-91,-699,5.90112,26.6484,0.00209553,0.00349966,0.000853482,0.00390273,0.00169246,1.12958,0.00225985,0.0193903,1133,1723,5.9011,-26.6485
-84,-699,5.89307,26.7875,0.0025118,0.00363627,0.00100883,0.00422895,0.00191912,1.03962,0.00244506,0.0224258,1140,1723,5.89303,-26.7875
-77,-699,5.88086,26.8894,0.0029201,0.00379953,0.000950526,0.00440712,0.00231251,1.00204,0.00254549,0.015973,1147,1723,5.88088,-26.8894
-70,-699,5.90186,27.0378,0.00331713,0.00366561,0.000668747,0.00418245,0.0028003,0.912838,0.00246057,0.0170897,1154,1723,5.9018,-27.0378
-63,-699,5.93848,27.1927,0.00326979,0.00289364,0.00103989,0.00413848,0.00202495,0.695935,0.00238953,0.0140537,1161,1723,5.93843,-27.1927
-56,-699,5.91187,27.2971,0.00329218,0.00244181,0.00168228,0.00460218,0.00113181,0.66162,0.00276905,0.0102521,1168,1723,5.91183,-27.2972
-49,-699,5.92554,27.4517,0.00366143,0.00130689,0.00217164,0.00495438,1.39419e-05,0.537016,0.00329828,0.022604,1175,1723,5.92553,-27.4517
-42,-699,5.97498,27.5931,0.00368545,0.000123676,0.0025137,0.00498519,-0.00117606,0.477204,0.00377701,0.0268418,1182,1723,5.97496,-27.5931
-35,-699,5.9906,27.6824,0.00393062,-0.00147375,0.00284779,0.00515421,-0.00269734,0.405813,0.00460648,0.024945,1189,1723,5.9906,-27.6824
-28,-699,6.02246,27.7585,0.00493536,-0.00263671,0.00333354,0.00619378,-0.00389514,0.360964,0.00587502,0.0202712,1196,1723,6.02241,-27.7585
-21,-699,6.02661,27.7721,0.00571698,-0.00388658,0.00359124,0.00691137,-0.00508098,0.321077,0.00695062,0.0144401,1203,1723,6.0266,-27.7721
-14,-699,6.02917,27.8549,0.00665454,-0.00443106,0.00441735,0.00819944,-0.00597597,0.33644,0.00821767,0.0126817,1210,1723,6.02914,-27.8548
-7,-699,6.04016,27.9465,0.00749332,-0.00462491,0.00527982,0.00947096,-0.00660255,0.358389,0.00932917,0.00885664,1217,1723,6.04015,-27.9465
0,-699,6.06726,28.016,0.00864155,-0.00435094,0.00622133,0.0111401,-0.00684948,0.381892,0.0104843,0.00974428,1224,1723,6.06725,-28.016
7,-699,6.11609,28.0696,0.00947939,-0.00351192,0.00654455,0.0122046,-0.00623715,0.394574,0.0108316,0.0153003,1231,1723,6.11607,-28.0696
14,-699,6.16797,28.1271,0.0108106,-0.00226634,0.00640911,0.013428,-0.00488364,0.387703,0.0109491,0.0172371,1238,1723,6.16795,-28.1271
21,-699,6.19031,28.1555,0.0116717,0.00195031,0.00580479,0.0143821,-0.00076013,0.436844,0.00985122,0.0171516,1245,1723,6.19026,-28.1555
28,-699,6.19165,28.1875,0.0115931,0.0132489,0.00347555,0.0159938,0.00884821,0.902325,0.00925145,0.0159691,1252,1723,6.19167,-28.1875
35,-699,6.2124,28.2551,0.0114546,0.0206756,0.00120661,0.0208309,0.0112994,1.44281,0.0120412,0.0131088,1259,1723,6.21238,-28.2552
42,-699,6.27356,28.2992,0.0108035,0.0281559,-0.00261958,0.0285428,0.0104167,-1.42418,0.0166783,0.0129222,1266,1723,6.27359,-28.2992
49,-699,6.32483,28.3314,0.0100481,0.0355008,-0.0069434,0.0372717,0.00827722,-1.32107,0.0225998,0.0155608,1273,1723,6.32485,-28.3314
56,-699,6.34814,28.3655,0.00910853,0.042567,-0.011326,0.0460403,0.00563518,-1.27323,0.0289983,0.0152394,1280,1723,6.34811,-28.3655
63,-699,6.35254,28.3552,0.00829303,0.0477606,-0.0153662,0.0530376,0.00301598,-1.24,0.0343972,0.0120452,1287,1723,6.35252,-28.3552
70,-699,6.37158,28.3492,0.00730216,0.0508667,-0.0188436,0.0578863,0.00028255,-1.2142,0.038497,0.0103183,1294,1723,6.37164,-28.3492
77,-699,6.38818,28.3481,0.0060171,0.0513457,-0.0220716,0.0603172,-0.00295443,-1.18472,0.0412316,0.0108745,1301,1723,6.38822,-28.3481
84,-699,6.42053,28.3353,0.00534548,0.0491478,-0.0242393,0.0599148,-0.00542145,-1.15278,0.0418675,0.0134662,1308,1723,6.4205,-28.3353
91,-699,6.453,28.3354,0.00506061,0.0451323,-0.0259368,0.0578707,-0.00767781,-1.11427,0.0413779,0.0129935,1315,1723,6.45303,-28.3355
98,-699,6.48669,28.3435,0.0051851,0.0398039,-0.0264943,0.054142,-0.00915299,-1.07475,0.0395007,0.0116608,1322,1723,6.48668,-28.3435
105,-699,6.52161,28.3179,0.00536012,0.0336365,-0.0257593,0.0488825,-0.00988591,-1.03638,0.0363347,0.016191,1329,1723,6.52159,-28.3178
112,-699,6.52747,28.2572,0.00584145,0.0285448,-0.0243923,0.0440975,-0.0097112,-1.00318,0.0331135,0.0226209,1336,1723,6.52742,-28.2572
119,-699,6.52124,28.2153,0.00570129,0.0246524,-0.0230931,0.0401384,-0.00978466,-0.980084,0.0305474,0.0172309,1343,1723,6.52122,-28.2154
126,-699,6.57886,28.1868,0.0059824,0.0202965,-0.0218201,0.0361034,-0.00982447,-0.943871,0.0279259,0.0183856,1350,1723,6.57885,-28.1867
133,-699,6.65527,28.1262,0.00645383,0.0127097,-0.019707,0.0295354,-0.0103719,-0.864102,0.0239096,0.0159089,1357,1723,6.65523,-28.1262
140,-699,6.66187,28.0809,0.00628469,0.0150997,-0.0189044,0.0301037,-0.00871924,-0.899926,0.0235206,0.0165648,1364,1723,6.66188,-28.0809
147,-699,6.65649,28.0438,0.00636426,0.0172836,-0.0171021,0.0297764,-0.00612855,-0.939904,0.0221779,0.0130145,1371,1723,6.65645,-28.0438
154,-699,6.64722,27.9629,0.00576198,0.019406,-0.0155449,0.02956,-0.00439196,-0.992174,0.021322,0.0138094,1378,1723,6.64723,-27.9629
161,-699,6.67419,27.8549,0.00478384,0.0199524,-0.0141355,0.0284097,-0.00367351,-1.03162,0.0202755,0.0108419,1385,1723,6.67419,-27.8548
168,-699,6.71716,27.785,0.00372919,0.0199334,-0.0128525,0.0270244,-0.00336186,-1.06663,0.0192351,0.0122127,1392,1723,6.71722,-27.785
175,-699,6.76123,27.7085,0.00290699,0.0186489,-0.0114636,0.0246835,-0.00312768,-1.08624,0.0175912,0.0135058,1399,1723,6.76122,-27.7085
182,-699,6.77197,27.6012,0.00225442,0.0152468,-0.00832908,0.0193135,-0.00181225,-1.11659,0.0135203,0.0141128,1406,1723,6.772,-27.6011
189,-699,6.76233,27.4889,0.0014364,0.0113921,-0.00496624,0.0134458,-0.000617288,-1.17868,0.00917654,0.017775,1413,1723,6.76237,-27.4889
196,-699,6.76477,27.3701,0.00131009,0.005835,-0.00123431,0.00614979,0.000995288,-1.32108,0.00381166,0.01738,1420,1723,6.76477,-27.3702
203,-699,6.79236,27.27,0.0012621,0.00135898,0.00154387,0.00285517,-0.000234088,0.801082,0.00198608,0.0138504,1427,1723,6.79233,-27.27
210,-699,6.81055,27.1569,0.000776019,0.000934674,0.00142629,0.00228384,-0.00057315,0.813178,0.00174527,0.0134755,1434,1723,6.81051,-27.1569
217,-699,6.80713,27.0557,0.000340786,0.00045341,0.00113929,0.00153778,-0.000743587,0.810092,0.00134349,0.0139014,1441,1723,6.80716,-27.0557
224,-699,6.81934,26.921,0.000194695,0.000316973,0.000940841,0.00119866,-0.000686991,0.817844,0.00110196,0.0151166,1448,1723,6.81936,-26.9211
231,-699,6.84912,26.7782,0.000213722,0.000155813,0.000600124,0.00078559,-0.000416054,0.761293,0.00070462,0.0116558,1455,1723,6.84912,-26.7781
238,-699,6.8252,26.6163,0.000354271,6.17857e-05,0.000308906,0.000549803,-0.000133746,0.564319,0.000418306,0.00989206,1462,1723,6.82518,-26.6163
245,-699,6.80579,26.4668,0.000523261,0.000102488,3.81695e-05,0.000526696,9.90535e-05,0.0897366,0.000323212,0.0114518,1469,1723,6.80584,-26.4668
252,-699,6.81787,26.3296,0.000620785,0.00014772,-0.000240223,0.000721379,4.71257e-05,-0.396569,0.000466006,0.0106523,1476,1723,6.81782,-26.3296
259,-699,6.81287,26.1818,0.000672695,0.000292205,-0.00048896,0.00100712,-4.22171e-05,-0.599869,0.000685917,0.0110698,1483,1723,6.81292,-26.1818
266,-699,6.81226,26.001,0.000672463,0.000647608,-0.000710166,0.00137031,-5.02393e-05,-0.776649,0.000930739,0.0122592,1490,1723,6.8122,-26.001
273,-699,6.8175,25.8284,0.000580786,0.00113888,-0.000888683,0.00179129,-7.16328e-05,-0.937523,0.00121878,0.0114055,1497,1723,6.81745,-25.8284
280,-699,6.83167,25.6555,0.000410468,0.00154065,-0.00104236,0.00216124,-0.000210124,-1.03379,0.00151573,0.0125773,1504,1723,6.8317,-25.6555
287,-699,6.81873,25.4696,0.000190104,0.00175408,-0.00108067,0.00230601,-0.000361831,-1.0986,0.00167106,0.0107966,1511,1723,6.81868,-25.4696
294,-699,6.81567,25.2954,5.37918e-05,0.00217487,-0.00118154,0.00270203,-0.000473367,-1.15114,0.00197811,0.0105962,1518,1723,6.81565,-25.2954
301,-699,6.82178,25.1296,-4.7273e-05,0.00238184,-0.00135425,0.00298639,-0.000651822,-1.15093,0.00224004,0.0121043,1525,1723,6.8218,-25.1296
308,-699,6.81458,24.9216,-0.00027789,0.00215971,-0.00147739,0.00285615,-0.000974335,-1.13029,0.00229877,0.0168792,1532,1723,6.81453,-24.9217
315,-699,6.81848,24.699,-0.000409385,0.00178987,-0.00162094,0.00264897,-0.00126849,-1.08343,0.00230808,0.019537,1539,1723,6.81848,-24.6989
322,-699,6.80359,24.4962,-0.000335964,0.00129602,-0.00186159,0.00251261,-0.00155255,-0.991951,0.00236874,0.0201341,1546,1723,6.8036,-24.4963
329,-699,6.77515,24.2903,-0.000172784,0.000590831,-0.00212707,0.00237009,-0.00195204,-0.874202,0.00249927,0.0165822,1553,1723,6.77518,-24.2903
336,-699,6.77148,24.0841,0.000203566,-0.000111679,-0.00260763,0.00265833,-0.00256644,-0.755211,0.00301668,0.0167191,1560,1723,6.77149,-24.0841
343,-699,6.81055,23.8781,0.000404203,-0.00115345,-0.0030105,0.00273498,-0.00348423,-0.658822,0.00359934,0.0216616,1567,1723,6.81054,-23.8781
350,-699,6.85376,23.6616,0.000634804,-0.00233726,-0.0033498,0.00281339,-0.00451585,-0.576631,0.00426942,0.0307968,1574,1723,6.85372,-23.6616
357,-699,6.80798,23.4978,0.00111704,-0.00376136,-0.00362726,0.00304896,-0.00569328,-0.489395,0.00512372,0.0395045,1581,1723,6.80803,-23.4978
364,-699,6.73181,23.2943,0.00166917,-0.00508707,-0.0039728,0.00350592,-0.00692381,-0.433061,0.00612844,0.0457017,1588,1723,6.73176,-23.2943
371,-699,6.85229,22.8851,0,0,0,0,0,0,0,-1,1595,1723,6.85235,-22.8851
378,-699,6.86218,22.624,0,0,0,0,0,0,0,-1,1602,1723,6.86222,-22.624
385,-699,6.84839,22.1661,0,0,0,0,0,0,0,-1,1609,1723,6.84837,-22.1661
392,-699,5.86304,21.8386,0,0,0,0,0,0,0,-1,1616,1723,5.863,-21.8386
399,-699,3.91516,9.81726,0,0,0,0,0,0,0,-1,1623,1723,3.9152,-9.81721
406,-699,5.50757,21.6672,0,0,0,0,0,0,0,-1,1630,1723,5.50755,-21.6672
413,-699,9.31396,23.2781,0,0,0,0,0,0,0,-1,1637,1723,9.31396,-23.278
420,-699,2.15076,7.65527,0,0,0,0,0,0,0,-1,1644,1723,2.15079,-7.65522
427,-699,3.36328,8.2428,0,0,0,0,0,0,0,-1,1651,1723,3.36332,-8.24283
434,-699,4.66455,8.90222,0,0,0,0,0,0,0,-1,1658,1723,4.66456,-8.90223
441,-699,0,0,0,0,0,0,0,0,0,-1,1665,1723,0,0
448,-699,0,0,0,0,0,0,0,0,0,-1,1672,1723,0,0
455,-699,0,0,0,0,0,0,0,0,0,-1,1679,1723,0,0
462,-699,0,0,0,0,0,0,0,0,0,-1,1686,1723,0,0
469,-699,0,0,0,0,0,0,0,0,0,-1,1693,1723,0,0
476,-699,0,0,0,0,0,0,0,0,0,-1,1700,1723,0,0
483,-699,0,0,0,0,0,0,0,0,0,-1,1707,1723,0,0
490,-699,0,0,0,0,0,0,0,0,0,-1,1714,1723,0,0
497,-699,0,0,0,0,0,0,0,0,0,-1,1721,1723,0,0
504,-699,0,0,0,0,0,0,0,0,0,-1,1728,1723,0,0
511,-699,0,0,0,0,0,0,0,0,0,-1,1735,1723,0,0
518,-699,0,0,0,0,0,0,0,0,0,-1,1742,1723,0,0
525,-699,0,0,0,0,0,0,0,0,0,-1,1749,1723,0,0
532,-699,0,0,0,0,0,0,0,0,0,-1,1756,1723,0,0
539,-699,0,0,0,0,0,0,0,0,0,-1,1763,1723,0,0
546,-699,0,0,0,0,0,0,0,0,0,-1,1770,1723,0,0
553,-699,0,0,0,0,0,0,0,0,0,-1,1777,1723,0,0
560,-699,0,0,0,0,0,0,0,0,0,-1,1784,1723,0,0
567,-699,0,0,0,0,0,0,0,0,0,-1,1791,1723,0,0
574,-699,0,0,0,0,0,0,0,0,0,-1,1798,1723,0,0
581,-699,0,0,0,0,0,0,0,0,0,-1,1805,1723,0,0
588,-699,0,0,0,0,0,0,0,0,0,-1,1812,1723,0,0
595,-699,0,0,0,0,0,0,0,0,0,-1,1819,1723,0,0
602,-699,0,0,0,0,0,0,0,0,0,-1,1826,1723,0,0
609,-699,0,0,0,0,0,0,0,0,0,-1,1833,1723,0,0
616,-699,0,0,0,0,0,0,0,0,0,-1,1840,1723,0,0
623,-699,0,0,0,0,0,0,0,0,0,-1,1847,1723,0,0
630,-699,0,0,0,0,0,0,0,0,0,-1,1854,1723,0,0
637,-699,0,0,0,0,0,0,0,0,0,-1,1861,1723,0,0
644,-699,0,0,0,0,0,0,0,0,0,-1,1868,1723,0,0
651,-699,0,0,0,0,0,0,0,0,0,-1,1875,1723,0,0
658,-699,0,0,0,0,0,0,0,0,0,-1,1882,1723,0,0
665,-699,0,0,0,0,0,0,0,0,0,-1,1889,1723,0,0
672,-699,0,0,0,0,0,0,0,0,0,-1,1896,1723,0,0
679,-699,0,0,0,0,0,0,0,0,0,-1,1903,1723,0,0
686,-699,0,0,0,0,0,0,0,0,0,-1,1910,1723,0,0
693,-699,0,0,0,0,0,0,0,0,0,-1,1917,1723,0,0
700,-699,0,0,0,0,0,0,0,0,0,-1,1924,1723,0,0
707,-699,0,0,0,0,0,0,0,0,0,-1,1931,1723,0,0
714,-699,0,0,0,0,0,0,0,0,0,-1,1938,1723,0,0
721,-699,0,0,0,0,0,0,0,0,0,-1,1945,1723,0,0
728,-699,0,0,0,0,0,0,0,0,0,-1,1952,1723,0,0
735,-699,0,0,0,0,0,0,0,0,0,-1,1959,1723,0,0
742,-699,0,0,0,0,0,0,0,0,0,-1,1966,1723,0,0
749,-699,0,0,0,0,0,0,0,0,0,-1,1973,1723,0,0
756,-699,0,0,0,0,0,0,0,0,0,-1,1980,1723,0,0
763,-699,0,0,0,0,0,0,0,0,0,-1,1987,1723,0,0
770,-699,0,0,0,0,0,0,0,0,0,-1,1994,1723,0,0
777,-699,0,0,0,0,0,0,0,0,0,-1,2001,1723,0,0
784,-699,0,0,0,0,0,0,0,0,0,-1,2008,1723,0,0
791,-699,0,0,0,0,0,0,0,0,0,-1,2015,1723,0,0
798,-699,0,0,0,0,0,0,0,0,0,-1,2022,1723,0,0
805,-699,0,0,0,0,0,0,0,0,0,-1,2029,1723,0,0
812,-699,0,0,0,0,0,0,0,0,0,-1,2036,1723,0,0
-700,-706,0,0,0,0,0,0,0,0,0,-1,524,1730,0,0
-693,-706,0,0,0,0,0,0,0,0,0,-1,531,1730,0,0
-686,-706,0,0,0,0,0,0,0,0,0,-1,538,1730,0,0
-679,-706,0,0,0,0,0,0,0,0,0,-1,545,1730,0,0
-672,-706,0,0,0,0,0,0,0,0,0,-1,552,1730,0,0
-665,-706,0,0,0,0,0,0,0,0,0,-1,559,1730,0,0
-658,-706,0,0,0,0,0,0,0,0,0,-1,566,1730,0,0
-651,-706,0,0,0,0,0,0,0,0,0,-1,573,1730,0,0
-644,-706,0,0,0,0,0,0,0,0,0,-1,580,1730,0,0
-637,-706,0,0,0,0,0,0,0,0,0,-1,587,1730,0,0
-630,-706,0,0,0,0,0,0,0,0,0,-1,594,1730,0,0
-623,-706,0,0,0,0,0,0,0,0,0,-1,601,1730,0,0
-616,-706,0,0,0,0,0,0,0,0,0,-1,608,1730,0,0
-609,-706,0,0,0,0,0,0,0,0,0,-1,615,1730,0,0
-602,-706,0,0,0,0,0,0,0,0,0,-1,622,1730,0,0
-595,-706,0,0,0,0,0,0,0,0,0,-1,629,1730,0,0
-588,-706,0,0,0,0,0,0,0,0,0,-1,636,1730,0,0
-581,-706,0,0,0,0,0,0,0,0,0,-1,643,1730,0,0
-574,-706,0,0,0,0,0,0,0,0,0,-1,650,1730,0,0
-567,-706,0,0,0,0,0,0,0,0,0,-1,657,1730,0,0
-560,-706,0,0,0,0,0,0,0,0,0,-1,664,1730,0,0
-553,-706,0,0,0,0,0,0,0,0,0,-1,671,1730,0,0
-546,-706,0,0,0,0,0,0,0,0,0,-1,678,1730,0,0
-539,-706,0,0,0,0,0,0,0,0,0,-1,685,1730,0,0
-532,-706,0,0,0,0,0,0,0,0,0,-1,692,1730,0,0
-525,-706,0,0,0,0,0,0,0,0,0,-1,699,1730,0,0
-518,-706,0,0,0,0,0,0,0,0,0,-1,706,1730,0,0
-511,-706,0,0,0,0,0,0,0,0,0,-1,713,1730,0,0
-504,-706,0,0,0,0,0,0,0,0,0,-1,720,1730,0,0
-497,-706,0,0,0,0,0,0,0,0,0,-1,727,1730,0,0
-490,-706,0,0,0,0,0,0,0,0,0,-1,734,1730,0,0
-483,-706,0,0,0,0,0,0,0,0,0,-1,741,1730,0,0
-476,-706,0,0,0,0,0,0,0,0,0,-1,748,1730,0,0
-469,-706,0,0,0,0,0,0,0,0,0,-1,755,1730,0,0
-462,-706,0,0,0,0,0,0,0,0,0,-1,762,1730,0,0
-455,-706,0,0,0,0,0,0,0,0,0,-1,769,1730,0,0
-448,-706,0,0,0,0,0,0,0,0,0,-1,776,1730,0,0
-441,-706,0,0,0,0,0,0,0,0,0,-1,783,1730,0,0
-434,-706,0,0,0,0,0,0,0,0,0,-1,790,1730,0,0
-427,-706,0,0,0,0,0,0,0,0,0,-1,797,1730,0,0
-420,-706,0,0,0,0,0,0,0,0,0,-1,804,1730,0,0
-413,-706,0,0,0,0,0,0,0,0,0,-1,811,1730,0,0
-406,-706,0,0,0,0,0,0,0,0,0,-1,818,1730,0,0
-399,-706,0,0,0,0,0,0,0,0,0,-1,825,1730,0,0
-392,-706,0,0,0,0,0,0,0,0,0,-1,832,1730,0,0
-385,-706,0,0,0,0,0,0,0,0,0,-1,839,1730,0,0
-378,-706,0,0,0,0,0,0,0,0,0,-1,846,1730,0,0
-371,-706,0,0,0,0,0,0,0,0,0,-1,853,1730,0,0
-364,-706,0,0,0,0,0,0,0,0,0,-1,860,1730,0,0
-357,-706,0,0,0,0,0,0,0,0,0,-1,867,1730,0,0
-350,-706,0,0,0,0,0,0,0,0,0,-1,874,1730,0,0
-343,-706,0,0,0,0,0,0,0,0,0,-1,881,1730,0,0
-336,-706,0,0,0,0,0,0,0,0,0,-1,888,1730,0,0
-329,-706,0,0,0,0,0,0,0,0,0,-1,895,1730,0,0
-322,-706,0,0,0,0,0,0,0,0,0,-1,902,1730,0,0
-315,-706,0,0,0,0,0,0,0,0,0,-1,909,1730,0,0
-308,-706,5.08191,14.6245,0,0,0,0,0,0,0,-1,916,1730,5.08188,-14.6245
-301,-706,7.45007,21.1975,0,0,0,0,0,0,0,-1,923,1730,7.45005,-21.1976
-294,-706,11.8603,21.026,0,0,0,0,0,0,0,-1,930,1730,11.8603,-21.026
-287,-706,10.3292,20.8425,0,0,0,0,0,0,0,-1,937,1730,10.3292,-20.8425
-280,-706,7.9162,21.8951,0,0,0,0,0,0,0,-1,944,1730,7.9162,-21.8952
-273,-706,7.38953,20.6355,0,0,0,0,0,0,0,-1,951,1730,7.38955,-20.6355
-266,-706,9.66724,22.8231,0,0,0,0,0,0,0,-1,958,1730,9.66722,-22.8231
-259,-706,3.47852,20.7363,0,0,0,0,0,0,0,-1,965,1730,3.47851,-20.7364
-252,-706,3.84259,20.1979,0,0,0,0,0,0,0,-1,972,1730,3.84256,-20.1979
-245,-706,4.698,19.2992,0,0,0,0,0,0,0,-1,979,1730,4.69799,-19.2991
-238,-706,6.4928,21.2333,0,0,0,0,0,0,0,-1,986,1730,6.49278,-21.2332
-231,-706,6.12872,22.8175,0,0,0,0,0,0,0,-1,993,1730,6.12875,-22.8175
-224,-706,5.89514,23.1899,0.00778909,-0.00814795,0.00307671,0.00836243,-0.00872129,0.184237,0.00986402,0.0475766,1000,1730,5.89513,-23.19
-217,-706,6.11719,23.2323,0.00645444,-0.00774994,0.00279325,0.00698398,-0.00827949,0.187356,0.00882294,0.0456089,1007,1730,6.11717,-23.2322
-210,-706,6.30267,23.1727,0.00531372,-0.00707971,0.00264572,0.00585489,-0.00762088,0.201763,0.00780248,0.0405819,1014,1730,6.30266,-23.1727
-203,-706,6.37122,23.2819,0,0,0,0,0,0,0,-1,1021,1730,6.3712,-23.2818
-196,-706,6.12427,23.7468,0.00334883,-0.00610157,0.00264302,0.00403778,-0.00679053,0.254995,0.00631871,0.0232986,1028,1730,6.12424,-23.7469
-189,-706,6.09644,23.9875,0.00228705,-0.00543681,0.00237879,0.00296088,-0.00611064,0.276035,0.00534165,0.018163,1035,1730,6.09642,-23.9875
-182,-706,6.0802,24.2241,0.00129401,-0.00466809,0.0021467,0.00198651,-0.00536059,0.312049,0.00438842,0.0127964,1042,1730,6.08015,-24.2241
-175,-706,6.0957,24.4453,0.000550153,-0.00353312,0.00201721,0.00137861,-0.00436157,0.38969,0.00346004,0.0135487,1049,1730,6.09574,-24.4453
-168,-706,6.09644,24.6547,-0.000176869,-0.00236708,0.00186564,0.000891325,-0.00343527,0.52,0.00263797,0.0151114,1056,1730,6.09643,-24.6547
-161,-706,6.08118,24.8656,-0.000741953,-0.00149819,0.00173686,0.000657466,-0.00289761,0.678219,0.00218413,0.0132301,1063,1730,6.08123,-24.8656
-154,-706,6.06006,25.0891,-0.00104355,-0.000917218,0.00161611,0.000636959,-0.00259773,0.804931,0.00197861,0.0136044,1070,1730,6.0601,-25.0891
-147,-706,6.02527,25.2546,-0.00109488,-8.1566e-05,0.00127272,0.000781641,-0.00195809,0.974827,0.00162967,0.0125493,1077,1730,6.02521,-25.2547
-140,-706,6.02368,25.4392,-0.001114,0.00068284,0.000956566,0.00109674,-0.00152789,1.16243,0.00152213,0.01067,1084,1730,6.02373,-25.4393
-133,-706,6.0271,25.6426,-0.00108458,0.00123864,0.000641675,0.00140409,-0.00125003,1.31845,0.00153322,0.00812037,1091,1730,6.02706,-25.6426
-126,-706,6.03259,25.8214,-0.00085299,0.00191364,0.000570082,0.00202651,-0.000965854,1.37534,0.00176345,0.0120684,1098,1730,6.03264,-25.8214
-119,-706,6.03186,26.0018,-0.000595168,0.00245609,0.000527287,0.00254464,-0.000683718,1.40441,0.0019644,0.0158801,1105,1730,6.0319,-26.0018
-112,-706,6.01685,26.1803,-0.000208229,0.0027931,0.000567177,0.00289671,-0.000311835,1.39012,0.00204303,0.0120265,1112,1730,6.01688,-26.1803
-105,-706,6.01917,26.3583,0.000185758,0.00288654,0.000566705,0.00300063,7.1666e-05,1.37213,0.00197697,0.00954416,1119,1730,6.01918,-26.3582
-98,-706,6.0365,26.5018,0.000567735,0.00295934,0.000672619,0.00313553,0.000391546,1.31461,0.00197283,0.0113897,1126,1730,6.03647,-26.5019
-91,-706,6.03784,26.6377,0.000974631,0.00305361,0.000791674,0.00332075,0.000707488,1.24535,0.00201974,0.0143492,1133,1730,6.0378,-26.6377
-84,-706,6.01953,26.7672,0.0013438,0.00303577,0.000920359,0.00343988,0.000939681,1.15706,0.00205301,0.0156612,1140,1730,6.01952,-26.7672
-77,-706,6.02661,26.8853,0.00171061,0.00313166,0.000875631,0.00354878,0.0012935,1.12624,0.00207382,0.0154286,1147,1730,6.02659,-26.8853
-70,-706,6.03369,27.0576,0.00203312,0.00301749,0.000662486,0.00335061,0.00169999,1.10488,0.00193455,0.0183876,1154,1730,6.03375,-27.0576
-63,-706,6.03528,27.212,0.00210398,0.00259358,0.000784034,0.00317015,0.00152742,0.936718,0.00183069,0.0133667,1161,1730,6.03529,-27.212
-56,-706,6.03113,27.3148,0.00219784,0.00227998,0.00107481,0.0033145,0.00116332,0.804494,0.00194175,0.012417,1168,1730,6.03118,-27.3148
-49,-706,6.02258,27.4281,0.00229612,0.00196332,0.00148844,0.00362743,0.000632008,0.729731,0.00223757,0.0126574,1175,1730,6.02262,-27.4281
-42,-706,6.06287,27.5361,0.00227691,0.00167007,0.00181989,0.0038185,0.000128485,0.702797,0.00250394,0.0180124,1182,1730,6.06285,-27.5361
-35,-706,6.08032,27.6351,0.00244813,0.00100625,0.00207704,0.00392579,-0.000471417,0.618354,0.00278765,0.0165654,1189,1730,6.08033,-27.6352
-28,-706,6.0885,27.7253,0.00313147,0.000262713,0.00242461,0.00451422,-0.00112003,0.518291,0.00344407,0.0101827,1196,1730,6.08848,-27.7254
-21,-706,6.10168,27.7921,0.00367979,-0.000526122,0.00265861,0.00496661,-0.00181295,0.450784,0.00405288,0.0108187,1203,1730,6.10167,-27.7921
-14,-706,6.11548,27.8621,0.00421601,-0.000962864,0.00327576,0.00580219,-0.00254904,0.450942,0.00494202,0.0102654,1210,1730,6.11553,-27.862
-7,-706,6.12549,27.9415,0.00467653,-0.00118496,0.00391655,0.00663748,-0.0031459,0.464193,0.0057671,0.00787085,1217,1730,6.12552,-27.9415
0,-706,6.15405,28,0.00524173,-0.0011734,0.00450994,0.00756842,-0.0035001,0.476289,0.00653272,0.011327,1224,1730,6.154,-28
7,-706,6.18115,28.0632,0.00544511,-0.000670945,0.00458863,0.00790134,-0.00312718,0.491477,0.00656318,0.013657,1231,1730,6.1812,-28.0632
14,-706,6.19189,28.1345,0.00598699,7.25803e-05,0.00427204,0.0082255,-0.00216593,0.482655,0.00633038,0.0141693,1238,1730,6.19187,-28.1345
21,-706,6.21033,28.1823,0.00626946,0.00297358,0.00363918,0.00861643,0.000626606,0.572794,0.00554723,0.0123162,1245,1730,6.21036,-28.1823
28,-706,6.23474,28.2203,0.00590884,0.00873598,0.00238505,0.0100949,0.00454993,1.05291,0.00583772,0.0124585,1252,1730,6.2348,-28.2203
35,-706,6.24292,28.2604,0.00560208,0.0130479,0.000855546,0.0131449,0.00550504,1.45785,0.00762251,0.0137154,1259,1730,6.24291,-28.2604
42,-706,6.26941,28.3065,0.00502424,0.0173455,-0.00178736,0.0175995,0.0047702,-1.42961,0.0105102,0.011957,1266,1730,6.26942,-28.3065
49,-706,6.30066,28.3297,0.00440649,0.021162,-0.00476168,0.0224207,0.00314783,-1.31238,0.0140161,0.0140465,1273,1730,6.30063,-28.3298
56,-706,6.32349,28.3342,0.00386595,0.0246602,-0.0076929,0.0271967,0.00132936,-1.25229,0.0177047,0.0134431,1280,1730,6.32352,-28.3342
63,-706,6.3468,28.3364,0.00353566,0.0269235,-0.0102901,0.0308063,-0.000347143,-1.20998,0.0206542,0.0110095,1287,1730,6.34675,-28.3364
70,-706,6.3573,28.343,0.00320086,0.027933,-0.0123826,0.0330669,-0.00193301,-1.17776,0.0227164,0.0113989,1294,1730,6.35728,-28.343
77,-706,6.36206,28.3491,0.00273119,0.0275047,-0.0142325,0.0339858,-0.00374993,-1.14348,0.024005,0.0101396,1301,1730,6.36207,-28.3491
84,-706,6.37695,28.3451,0.00273486,0.0255421,-0.0154011,0.0333019,-0.00502493,-1.10408,0.0240518,0.00864662,1308,1730,6.37693,-28.3451
91,-706,6.41138,28.3458,0.00309699,0.0224999,-0.0161621,0.0316487,-0.00605182,-1.0557,0.023379,0.00983663,1315,1730,6.41143,-28.3458
98,-706,6.43274,28.347,0.00365931,0.0188472,-0.0161459,0.0290958,-0.00658935,-1.00521,0.0219262,0.0141347,1322,1730,6.4327,-28.3471
105,-706,6.45667,28.3361,0.00418351,0.0149391,-0.0152167,0.0257003,-0.00657768,-0.955256,0.0196957,0.0167173,1329,1730,6.45667,-28.3361
112,-706,6.45984,28.286,0.00485411,0.0115133,-0.013749,0.0223302,-0.00596276,-0.904196,0.017222,0.0160403,1336,1730,6.45985,-28.286
119,-706,6.49756,28.2589,0.00490163,0.00888216,-0.012253,0.0193055,-0.00552171,-0.86591,0.0150524,0.0133851,1343,1730,6.49759,-28.2589
126,-706,6.53601,28.2136,0.0050746,0.00581498,-0.0108126,0.0162637,-0.00537412,-0.80251,0.0130093,0.0145572,1350,1730,6.53607,-28.2136
133,-706,6.56042,28.1405,0.00537502,0.0023431,-0.00920091,0.013184,-0.00546591,-0.703751,0.0110706,0.0124741,1357,1730,6.56046,-28.1405
140,-706,6.56445,28.0592,0.0051394,0.00326061,-0.00785849,0.0121144,-0.00371444,-0.725911,0.00955813,0.0122067,1364,1730,6.56447,-28.0593
147,-706,6.57874,27.9924,0.00506687,0.00433113,-0.00598025,0.0106906,-0.00129255,-0.75468,0.00759464,0.0207672,1371,1730,6.57876,-27.9924
154,-706,6.58838,27.9415,0.00458896,0.00576223,-0.00455518,0.00976839,0.000582797,-0.849437,0.00632695,0.0192535,1378,1730,6.58836,-27.9415
161,-706,6.59399,27.8694,0.00382788,0.00618283,-0.00355554,0.0087508,0.00125991,-0.945298,0.00546254,0.0103931,1385,1730,6.59399,-27.8693
168,-706,6.60889,27.7826,0.00302515,0.00640586,-0.00285126,0.00803017,0.00140084,-1.05297,0.00495298,0.0104956,1392,1730,6.60883,-27.7826
175,-706,6.63452,27.6971,0.002368,0.00616775,-0.00243662,0.00735764,0.0011781,-1.11652,0.00456337,0.0104963,1399,1730,6.63447,-27.6971
182,-706,6.63074,27.5973,0.00178535,0.00515212,-0.00153739,0.00574851,0.00118897,-1.20075,0.00350392,0.0111132,1406,1730,6.6307,-27.5973
189,-706,6.6405,27.4718,0.00113593,0.00412559,-0.000682206,0.0042739,0.000987618,-1.35672,0.00258376,0.0138667,1413,1730,6.64048,-27.4718
196,-706,6.64331,27.3617,0.000916364,0.00242376,0.000224568,0.0024565,0.000883619,1.42601,0.00143675,0.0122053,1420,1730,6.64333,-27.3617
203,-706,6.65698,27.2601,0.000781118,0.00108489,0.000793579,0.00174099,0.000125021,0.879952,0.00112131,0.0136057,1427,1730,6.65696,-27.2601
210,-706,6.66492,27.1458,0.000493112,0.000867263,0.000645681,0.00135242,7.95186e-06,0.926404,0.000898977,0.0130915,1434,1730,6.66497,-27.1458
217,-706,6.64807,27.0464,0.000200998,0.000614439,0.000385977,0.000845568,-3.01307e-05,1.03125,0.000574019,0.0135577,1441,1730,6.64811,-27.0464
224,-706,6.65283,26.9312,0.000105546,0.00055538,0.000173687,0.000614637,4.62885e-05,1.24201,0.000395233,0.0176878,1448,1730,6.6528,-26.9312
231,-706,6.68347,26.774,9.49364e-05,0.0004834,-0.000113227,0.000513994,6.43429e-05,-1.3069,0.000323356,0.0134121,1455,1730,6.68352,-26.774
238,-706,6.67749,26.6163,0.000220207,0.000477646,-0.000368603,0.000739358,-4.15054e-05,-0.953383,0.000507307,0.00903136,1462,1730,6.67745,-26.6163
245,-706,6.67273,26.4631,0.000409162,0.000564983,-0.000640016,0.00113181,-0.000157668,-0.845966,0.000812215,0.0115837,1469,1730,6.67278,-26.4631
252,-706,6.67151,26.3304,0.000478258,0.000698675,-0.000919004,0.00151406,-0.000337122,-0.845074,0.0011385,0.0117082,1476,1730,6.67145,-26.3304
259,-706,6.68433,26.175,0.000464315,0.000937382,-0.00114801,0.00187297,-0.000471276,-0.886995,0.00143183,0.0125469,1483,1730,6.68427,-26.1751
266,-706,6.66956,26.0208,0.000374906,0.00148844,-0.00132661,0.00237039,-0.000507036,-0.984082,0.0017736,0.0124735,1490,1730,6.6696,-26.0207
273,-706,6.66565,25.8464,0.000215938,0.00213784,-0.00148261,0.00294369,-0.000589908,-1.07293,0.00218579,0.0120261,1497,1730,6.66569,-25.8464
280,-706,6.65881,25.6567,-4.49095e-05,0.00266141,-0.0016054,0.00340785,-0.000791356,-1.13557,0.00257652,0.0104609,1504,1730,6.65883,-25.6567
287,-706,6.62183,25.4846,-0.000348903,0.00285365,-0.00160612,0.00352034,-0.0010156,-1.17734,0.0027487,0.0111081,1511,1730,6.62188,-25.4846
294,-706,6.64563,25.3179,-0.000528128,0.00339149,-0.00169019,0.00401965,-0.00115629,-1.21496,0.00313705,0.0113094,1518,1730,6.64568,-25.3179
301,-706,6.65051,25.1226,-0.000645978,0.00366954,-0.00183771,0.00434606,-0.00132249,-1.21806,0.00342441,0.0109869,1525,1730,6.65048,-25.1225
308,-706,6.63867,24.9143,-0.000939543,0.00333036,-0.00189256,0.00404844,-0.00165762,-1.20815,0.00338942,0.0125636,1532,1730,6.63869,-24.9143
315,-706,6.646,24.723,-0.00111157,0.0028934,-0.00201109,0.00372895,-0.00194712,-1.17702,0.00333047,0.0195139,1539,1730,6.64603,-24.723
322,-706,6.61169,24.5619,-0.00095643,0.0022376,-0.00227287,0.00341842,-0.00213725,-1.09165,0.00323587,0.0251437,1546,1730,6.61171,-24.5619
329,-706,6.6449,24.276,-0.000675912,0.00130479,-0.00256341,0.0030625,-0.00243362,-0.969737,0.00318011,0.0234818,1553,1730,6.64489,-24.276
336,-706,6.63416,23.9524,-9.28242e-05,0.000272284,-0.00315674,0.00325174,-0.00307228,-0.814281,0.00365167,0.0314781,1560,1730,6.63416,-23.9523
343,-706,6.72241,23.7927,0.000308238,-0.00121333,-0.00366863,0.00329414,-0.00419923,-0.68316,0.0043368,0.0368954,1567,1730,6.72239,-23.7927
350,-706,6.91882,23.6737,0.000770542,-0.00289363,-0.00407707,0.00340825,-0.00553134,-0.574236,0.00520957,0.0433848,1574,1730,6.91884,-23.6737
357,-706,7.23572,23.4653,0,0,0,0,0,0,0,-1,1581,1730,7.23572,-23.4653
364,-706,6.55078,23.4786,0,0,0,0,0,0,0,-1,1588,1730,6.55082,-23.4787
371,-706,6.27881,24.0759,0,0,0,0,0,0,0,-1,1595,1730,6.27883,-24.0759
378,-706,5.92419,23.6315,0,0,0,0,0,0,0,-1,1602,1730,5.92421,-23.6315
385,-706,5.51501,23.2277,0,0,0,0,0,0,0,-1,1609,1730,5.51507,-23.2277
392,-706,5.10022,22.8113,0,0,0,0,0,0,0,-1,1616,1730,5.10016,-22.8113
399,-706,6.0332,16.6144,0,0,0,0,0,0,0,-1,1623,1730,6.03321,-16.6143
406,-706,6.04211,18.8085,0,0,0,0,0,0,0,-1,1630,1730,6.04216,-18.8085
413,-706,6.23413,20.7725,0,0,0,0,0,0,0,-1,1637,1730,6.23413,-20.7725
420,-706,6.51294,21.9171,0,0,0,0,0,0,0,-1,1644,1730,6.51292,-21.9171
427,-706,0,0,0,0,0,0,0,0,0,-1,1651,1730,0,0
434,-706,0,0,0,0,0,0,0,0,0,-1,1658,1730,0,0
441,-706,0,0,0,0,0,0,0,0,0,-1,1665,1730,0,0
448,-706,0,0,0,0,0,0,0,0,0,-1,1672,1730,0,0
455,-706,0,0,0,0,0,0,0,0,0,-1,1679,1730,0,0
462,-706,0,0,0,0,0,0,0,0,0,-1,1686,1730,0,0
469,-706,0,0,0,0,0,0,0,0,0,-1,1693,1730,0,0
476,-706,0,0,0,0,0,0,0,0,0,-1,1700,1730,0,0
483,-706,0,0,0,0,0,0,0,0,0,-1,1707,1730,0,0
490,-706,0,0,0,0,0,0,0,0,0,-1,1714,1730,0,0
497,-706,0,0,0,0,0,0,0,0,0,-1,1721,1730,0,0
504,-706,0,0,0,0,0,0,0,0,0,-1,1728,1730,0,0
511,-706,0,0,0,0,0,0,0,0,0,-1,1735,1730,0,0
518,-706,0,0,0,0,0,0,0,0,0,-1,1742,1730,0,0
525,-706,0,0,0,0,0,0,0,0,0,-1,1749,1730,0,0
532,-706,0,0,0,0,0,0,0,0,0,-1,1756,1730,0,0
539,-706,0,0,0,0,0,0,0,0,0,-1,1763,1730,0,0
546,-706,0,0,0,0,0,0,0,0,0,-1,1770,1730,0,0
553,-706,0,0,0,0,0,0,0,0,0,-1,1777,1730,0,0
560,-706,0,0,0,0,0,0,0,0,0,-1,1784,1730,0,0
567,-706,0,0,0,0,0,0,0,0,0,-1,1791,1730,0,0
574,-706,0,0,0,0,0,0,0,0,0,-1,1798,1730,0,0
581,-706,0,0,0,0,0,0,0,0,0,-1,1805,1730,0,0
588,-706,0,0,0,0,0,0,0,0,0,-1,1812,1730,0,0
595,-706,0,0,0,0,0,0,0,0,0,-1,1819,1730,0,0
602,-706,0,0,0,0,0,0,0,0,0,-1,1826,1730,0,0
609,-706,0,0,0,0,0,0,0,0,0,-1,1833,1730,0,0
616,-706,0,0,0,0,0,0,0,0,0,-1,1840,1730,0,0
623,-706,0,0,0,0,0,0,0,0,0,-1,1847,1730,0,0
630,-706,0,0,0,0,0,0,0,0,0,-1,1854,1730,0,0
637,-706,0,0,0,0,0,0,0,0,0,-1,1861,1730,0,0
644,-706,0,0,0,0,0,0,0,0,0,-1,1868,1730,0,0
651,-706,0,0,0,0,0,0,0,0,0,-1,1875,1730,0,0
658,-706,0,0,0,0,0,0,0,0,0,-1,1882,1730,0,0
665,-706,0,0,0,0,0,0,0,0,0,-1,1889,1730,0,0
672,-706,0,0,0,0,0,0,0,0,0,-1,1896,1730,0,0
679,-706,0,0,0,0,0,0,0,0,0,-1,1903,1730,0,0
686,-706,0,0,0,0,0,0,0,0,0,-1,1910,1730,0,0
693,-706,0,0,0,0,0,0,0,0,0,-1,1917,1730,0,0
700,-706,0,0,0,0,0,0,0,0,0,-1,1924,1730,0,0
707,-706,0,0,0,0,0,0,0,0,0,-1,1931,1730,0,0
714,-706,0,0,0,0,0,0,0,0,0,-1,1938,1730,0,0
721,-706,0,0,0,0,0,0,0,0,0,-1,1945,1730,0,0
728,-706,0,0,0,0,0,0,0,0,0,-1,1952,1730,0,0
735,-706,0,0,0,0,0,0,0,0,0,-1,1959,1730,0,0
742,-706,0,0,0,0,0,0,0,0,0,-1,1966,1730,0,0
749,-706,0,0,0,0,0,0,0,0,0,-1,1973,1730,0,0
756,-706,0,0,0,0,0,0,0,0,0,-1,1980,1730,0,0
763,-706,0,0,0,0,0,0,0,0,0,-1,1987,1730,0,0
770,-706,0,0,0,0,0,0,0,0,0,-1,1994,1730,0,0
777,-706,0,0,0,0,0,0,0,0,0,-1,2001,1730,0,0
784,-706,0,0,0,0,0,0,0,0,0,-1,2008,1730,0,0
791,-706,0,0,0,0,0,0,0,0,0,-1,2015,1730,0,0
798,-706,0,0,0,0,0,0,0,0,0,-1,2022,1730,0,0
805,-706,0,0,0,0,0,0,0,0,0,-1,2029,1730,0,0
812,-706,0,0,0,0,0,0,0,0,0,-1,2036,1730,0,0
-700,-713,0,0,0,0,0,0,0,0,0,-1,524,1737,0,0
-693,-713,0,0,0,0,0,0,0,0,0,-1,531,1737,0,0
-686,-713,0,0,0,0,0,0,0,0,0,-1,538,1737,0,0
-679,-713,0,0,0,0,0,0,0,0,0,-1,545,1737,0,0
-672,-713,0,0,0,0,0,0,0,0,0,-1,552,1737,0,0
-665,-713,0,0,0,0,0,0,0,0,0,-1,559,1737,0,0
-658,-713,0,0,0,0,0,0,0,0,0,-1,566,1737,0,0
-651,-713,0,0,0,0,0,0,0,0,0,-1,573,1737,0,0
-644,-713,0,0,0,0,0,0,0,0,0,-1,580,1737,0,0
-637,-713,0,0,0,0,0,0,0,0,0,-1,587,1737,0,0
-630,-713,0,0,0,0,0,0,0,0,0,-1,594,1737,0,0
-623,-713,0,0,0,0,0,0,0,0,0,-1,601,1737,0,0
-616,-713,0,0,0,0,0,0,0,0,0,-1,608,1737,0,0
-609,-713,0,0,0,0,0,0,0,0,0,-1,615,1737,0,0
-602,-713,0,0,0,0,0,0,0,0,0,-1,622,1737,0,0
-595,-713,0,0,0,0,0,0,0,0,0,-1,629,1737,0,0
-588,-713,0,0,0,0,0,0,0,0,0,-1,636,1737,0,0
-581,-713,0,0,0,0,0,0,0,0,0,-1,643,1737,0,0
-574,-713,0,0,0,0,0,0,0,0,0,-1,650,1737,0,0
-567,-713,0,0,0,0,0,0,0,0,0,-1,657,1737,0,0
-560,-713,0,0,0,0,0,0,0,0,0,-1,664,1737,0,0
-553,-713,0,0,0,0,0,0,0,0,0,-1,671,1737,0,0
-546,-713,0,0,0,0,0,0,0,0,0,-1,678,1737,0,0
-539,-713,0,0,0,0,0,0,0,0,0,-1,685,1737,0,0
-532,-713,0,0,0,0,0,0,0,0,0,-1,692,1737,0,0
-525,-713,0,0,0,0,0,0,0,0,0,-1,699,1737,0,0
-518,-713,0,0,0,0,0,0,0,0,0,-1,706,1737,0,0
-511,-713,0,0,0,0,0,0,0,0,0,-1,713,1737,0,0
-504,-713,0,0,0,0,0,0,0,0,0,-1,720,1737,0,0
-497,-713,0,0,0,0,0,0,0,0,0,-1,727,1737,0,0
-490,-713,0,0,0,0,0,0,0,0,0,-1,734,1737,0,0
-483,-713,0,0,0,0,0,0,0,0,0,-1,741,1737,0,0
-476,-713,0,0,0,0,0,0,0,0,0,-1,748,1737,0,0
-469,-713,0,0,0,0,0,0,0,0,0,-1,755,1737,0,0
-462,-713,0,0,0,0,0,0,0,0,0,-1,762,1737,0,0
-455,-713,0,0,0,0,0,0,0,0,0,-1,769,1737,0,0
-448,-713,0,0,0,0,0,0,0,0,0,-1,776,1737,0,0
-441,-713,0,0,0,0,0,0,0,0,0,-1,783,1737,0,0
-434,-713,0,0,0,0,0,0,0,0,0,-1,790,1737,0,0
-427,-713,0,0,0,0,0,0,0,0,0,-1,797,1737,0,0
-420,-713,0,0,0,0,0,0,0,0,0,-1,804,1737,0,0
-413,-713,0,0,0,0,0,0,0,0,0,-1,811,1737,0,0
-406,-713,0,0,0,0,0,0,0,0,0,-1,818,1737,0,0
-399,-713,0,0,0,0,0,0,0,0,0,-1,825,1737,0,0
-392,-713,0,0,0,0,0,0,0,0,0,-1,832,1737,0,0
-385,-713,0,0,0,0,0,0,0,0,0,-1,839,1737,0,0
-378,-713,0,0,0,0,0,0,0,0,0,-1,846,1737,0,0
-371,-713,0,0,0,0,0,0,0,0,0,-1,853,1737,0,0
-364,-713,0,0,0,0,0,0,0,0,0,-1,860,1737,0,0
-357,-713,0,0,0,0,0,0,0,0,0,-1,867,1737,0,0
-350,-713,0,0,0,0,0,0,0,0,0,-1,874,1737,0,0
-343,-713,0,0,0,0,0,0,0,0,0,-1,881,1737,0,0
-336,-713,0,0,0,0,0,0,0,0,0,-1,888,1737,0,0
-329,-713,0,0,0,0,0,0,0,0,0,-1,895,1737,0,0
-322,-713,0,0,0,0,0,0,0,0,0,-1,902,1737,0,0
-315,-713,0,0,0,0,0,0,0,0,0,-1,909,1737,0,0
-308,-713,0,0,0,0,0,0,0,0,0,-1,916,1737,0,0
-301,-713,0,0,0,0,0,0,0,0,0,-1,923,1737,0,0
-294,-713,7.17883,22.0453,0,0,0,0,0,0,0,-1,930,1737,7.17881,-22.0453
-287,-713,11.8916,21.5834,0,0,0,0,0,0,0,-1,937,1737,11.8916,-21.5833
-280,-713,10.2786,21.3551,0,0,0,0,0,0,0,-1,944,1737,10.2787,-21.3551
-273,-713,11.1981,23.8683,0,0,0,0,0,0,0,-1,951,1737,11.198,-23.8683
-266,-713,3.17981,19.8851,0,0,0,0,0,0,0,-1,958,1737,3.17983,-19.8851
-259,-713,3.5921,19.6868,0,0,0,0,0,0,0,-1,965,1737,3.59207,-19.6868
-252,-713,4.55469,20.5758,0,0,0,0,0,0,0,-1,972,1737,4.55466,-20.5758
-245,-713,3.89014,25.9825,0,0,0,0,0,0,0,-1,979,1737,3.89013,-25.9826
-238,-713,5.06873,23.7134,0,0,0,0,0,0,0,-1,986,1737,5.06872,-23.7133
-231,-713,7.57281,19.7676,0,0,0,0,0,0,0,-1,993,1737,7.5728,-19.7676
-224,-713,6.02649,23.4432,0,0,0,0,0,0,0,-1,1000,1737,6.02651,-23.4433
-217,-713,6.45618,23.2441,0,0,0,0,0,0,0,-1,1007,1737,6.45618,-23.2441
-210,-713,6.62317,23.0068,0,0,0,0,0,0,0,-1,1014,1737,6.6232,-23.0068
-203,-713,6.48987,23.2059,0,0,0,0,0,0,0,-1,1021,1737,6.48983,-23.2059
-196,-713,5.89612,23.5232,0,0,0,0,0,0,0,-1,1028,1737,5.8961,-23.5231
-189,-713,6.06909,23.9104,0.00311546,-0.00767442,0.00310178,0.00394357,-0.00850253,0.260895,0.00734469,0.0438663,1035,1737,6.06905,-23.9104
-182,-713,6.18518,24.1797,0.001525,-0.00637415,0.00277691,0.0024035,-0.00725265,0.306399,0.00580458,0.026371,1042,1737,6.18518,-24.1797
-175,-713,6.26465,24.3562,0.000334666,-0.0047384,0.00259835,0.0014293,-0.00583304,0.398718,0.00444244,0.0247242,1049,1737,6.26465,-24.3562
-168,-713,6.39612,24.5195,-0.000739189,-0.00313486,0.00238015,0.00072754,-0.00460159,0.552271,0.00333679,0.0327189,1056,1737,6.39607,-24.5196
-161,-713,6.29993,24.8412,-0.00153756,-0.00196416,0.00218339,0.000442931,-0.00394465,0.736706,0.00278916,0.017435,1063,1737,6.29989,-24.8412
-154,-713,6.23328,25.0712,-0.00198841,-0.0012153,0.00199547,0.000430718,-0.00363442,0.881071,0.00257854,0.0129984,1070,1737,6.23331,-25.0712
-147,-713,6.20544,25.2877,-0.00211116,-0.000179268,0.0015578,0.000687757,-0.00297819,1.06292,0.00225003,0.0190792,1077,1737,6.20542,-25.2877
-140,-713,6.22192,25.4872,-0.00216415,0.000731573,0.00118247,0.00115308,-0.00258566,1.22837,0.00221075,0.0175193,1084,1737,6.22197,-25.4871
-133,-713,6.20654,25.6429,-0.00217153,0.0013546,0.000810286,0.00153188,-0.00234881,1.3554,0.00225701,0.0108572,1091,1737,6.20651,-25.643
-126,-713,6.20105,25.8157,-0.00196616,0.00206642,0.00068137,0.00217843,-0.00207817,1.40785,0.00245778,0.0166697,1098,1737,6.20109,-25.8157
-119,-713,6.20081,25.9858,-0.00172575,0.00262842,0.000607411,0.00271156,-0.0018089,1.43475,0.00262718,0.025639,1105,1737,6.20086,-25.9858
-112,-713,6.18225,26.1696,-0.00132023,0.00291712,0.000631893,0.00300935,-0.00141245,1.42587,0.00260783,0.0136619,1112,1737,6.1823,-26.1696
-105,-713,6.18469,26.3441,-0.000906248,0.00293272,0.00059087,0.00302161,-0.000995133,1.42149,0.00241544,0.0110745,1119,1737,6.18464,-26.3441
-98,-713,6.18933,26.5024,-0.000541001,0.00293521,0.000676047,0.00306206,-0.000667849,1.38532,0.00229659,0.0105036,1126,1737,6.18931,-26.5025
-91,-713,6.16357,26.626,-0.000155204,0.00297396,0.000762577,0.00314991,-0.00033115,1.34404,0.00221857,0.0102371,1133,1737,6.16362,-26.626
-84,-713,6.14636,26.7537,0.000215313,0.00274376,0.000880315,0.00302006,-6.09879e-05,1.26667,0.00203401,0.0091575,1140,1737,6.14635,-26.7536
-77,-713,6.16309,26.9143,0.000590689,0.00276057,0.000854488,0.00305666,0.0002946,1.23723,0.00194702,0.0124391,1147,1737,6.16313,-26.9143
-70,-713,6.15833,27.0657,0.000872424,0.0026142,0.000676384,0.00284601,0.000640615,1.24062,0.00172395,0.0148605,1154,1737,6.15835,-27.0656
-63,-713,6.1532,27.209,0.000989691,0.00239549,0.000598034,0.00261547,0.000769708,1.21831,0.00155206,0.013144,1161,1737,6.15324,-27.209
-56,-713,6.16101,27.3245,0.00110537,0.00216642,0.000613387,0.00244688,0.000824905,1.14194,0.00143748,0.0130063,1168,1737,6.16099,-27.3245
-49,-713,6.13965,27.4305,0.00116476,0.00195426,0.000703574,0.00236626,0.000752758,1.04105,0.00139596,0.0151739,1175,1737,6.13964,-27.4305
-42,-713,6.16479,27.5243,0.00119343,0.00182098,0.000871905,0.00243385,0.000580558,0.958119,0.00146783,0.0179682,1182,1737,6.1648,-27.5242
-35,-713,6.17395,27.6223,0.0013396,0.00154849,0.00103593,0.00248522,0.000402865,0.83564,0.00154019,0.0146401,1189,1737,6.17399,-27.6223
-28,-713,6.17725,27.7268,0.00173759,0.00121314,0.00121962,0.00272285,0.000227878,0.679508,0.00174425,0.0135373,1196,1737,6.17719,-27.7268
-21,-713,6.18042,27.8032,0.00203344,0.000758165,0.00135227,0.00289087,-9.92659e-05,0.565092,0.00196117,0.00960963,1203,1737,6.18047,-27.8033
-14,-713,6.18835,27.8647,0.00232099,0.00043612,0.00176626,0.00338052,-0.000623408,0.540325,0.00248766,0.00971625,1210,1737,6.18832,-27.8647
-7,-713,6.20886,27.9418,0.00260227,0.000282459,0.00225138,0.00397498,-0.00109024,0.547532,0.00307844,0.00829022,1217,1737,6.20883,-27.9417
0,-713,6.22412,28.0023,0.00294979,0.000314272,0.00271296,0.0046481,-0.00138403,0.559316,0.00364865,0.0133359,1224,1737,6.22409,-28.0023
7,-713,6.2522,28.0551,0.00304607,0.000648151,0.00280282,0.0048956,-0.00120138,0.583292,0.00372927,0.0170034,1231,1737,6.25216,-28.055
14,-713,6.26794,28.1412,0.00328363,0.00114279,0.00256275,0.00499052,-0.000564105,0.587569,0.0035301,0.0125591,1238,1737,6.26801,-28.1413
21,-713,6.25916,28.2059,0.00329951,0.00306512,0.00210622,0.00529179,0.00107283,0.757605,0.00323019,0.0106936,1245,1737,6.25918,-28.206
28,-713,6.25598,28.2344,0.00266918,0.00527852,0.00120325,0.00574867,0.00219903,1.19831,0.00334939,0.0114389,1252,1737,6.25598,-28.2344
35,-713,6.26428,28.2673,0.00207759,0.00745044,8.54903e-05,0.0074518,0.00207623,1.55489,0.00444064,0.0115854,1259,1737,6.26425,-28.2673
42,-713,6.29211,28.301,0.00143255,0.00951205,-0.00178604,0.00988926,0.00105534,-1.36266,0.00627073,0.0109234,1266,1737,6.29208,-28.301
49,-713,6.31848,28.2986,0.00071727,0.0110165,-0.00393403,0.0123472,-0.00061348,-1.24461,0.00844342,0.0108416,1273,1737,6.3185,-28.2986
56,-713,6.33093,28.2983,0.000134095,0.0122716,-0.00597871,0.0147219,-0.00231624,-1.18183,0.0106708,0.0112332,1280,1737,6.33098,-28.2983
63,-713,6.33838,28.3352,-0.000223046,0.0127731,-0.00779786,0.0164255,-0.00387541,-1.13276,0.0124449,0.0120392,1287,1737,6.33837,-28.3352
70,-713,6.354,28.3428,-0.000462116,0.01263,-0.00920057,0.0173756,-0.0052077,-1.09459,0.0136548,0.0121659,1294,1737,6.35403,-28.3428
77,-713,6.3623,28.3505,-0.000691197,0.0117299,-0.0102737,0.0175244,-0.00648563,-1.05726,0.0143422,0.0115438,1301,1737,6.36225,-28.3505
84,-713,6.37048,28.3715,-0.00049091,0.0100901,-0.0107863,0.0168135,-0.0072143,-1.0134,0.0142367,0.0117744,1308,1737,6.37053,-28.3715
91,-713,6.37939,28.374,0.000101455,0.00795768,-0.0109382,0.0156517,-0.00759259,-0.957786,0.0136863,0.0119647,1315,1737,6.37938,-28.3741
98,-713,6.40063,28.3499,0.000917113,0.00560383,-0.010606,0.0141223,-0.00760132,-0.894125,0.0127291,0.0122046,1322,1737,6.40058,-28.3498
105,-713,6.41724,28.3265,0.00168656,0.00328257,-0.00957156,0.0120893,-0.0071202,-0.826988,0.0112136,0.0146899,1329,1737,6.41728,-28.3266
112,-713,6.43921,28.296,0.00255339,0.00120882,-0.00804353,0.00995268,-0.00619047,-0.743704,0.00940424,0.0142202,1336,1737,6.43919,-28.296
119,-713,6.48022,28.2722,0.00301738,-0.000400765,-0.00639246,0.0079253,-0.00530868,-0.654774,0.00769026,0.0143789,1343,1737,6.48018,-28.2722
126,-713,6.47705,28.2402,0.00349067,-0.00229626,-0.00481197,0.00621212,-0.0050177,-0.514709,0.00649575,0.0137515,1350,1737,6.47701,-28.2402
133,-713,6.46411,28.1553,0.00404671,-0.0030454,-0.00317591,0.005261,-0.00425969,-0.365194,0.0055069,0.0126923,1357,1737,6.46406,-28.1553
140,-713,6.48987,28.0723,0.00397004,-0.00266118,-0.00187011,0.00446108,-0.00315222,-0.256776,0.00441714,0.0138351,1364,1737,6.48989,-28.0722
147,-713,6.50635,27.9905,0.0037074,-0.00196386,-0.000476624,0.00374718,-0.00200364,-0.0832635,0.00337072,0.0149109,1371,1737,6.50635,-27.9905
154,-713,6.4939,27.9331,0.00325328,-0.00086713,0.000425888,0.00329684,-0.00091069,0.101925,0.00255612,0.0141644,1378,1737,6.49386,-27.9331
161,-713,6.51453,27.8779,0.00262279,-0.000318185,0.000837273,0.00284445,-0.000539844,0.258802,0.00209951,0.0100557,1385,1737,6.51456,-27.8779
168,-713,6.51685,27.7955,0.00201002,0.0001802,0.000954885,0.00241756,-0.000227337,0.403387,0.00169258,0.00964082,1392,1737,6.51681,-27.7955
175,-713,6.51233,27.6919,0.00152692,0.000586451,0.000750469,0.00194231,0.000171065,0.505528,0.00124178,0.0124043,1399,1737,6.5123,-27.6919
182,-713,6.51379,27.6023,0.0010975,0.000858165,0.000512644,0.00150426,0.000451406,0.670736,0.000891323,0.011616,1406,1737,6.51377,-27.6023
189,-713,6.53149,27.4878,0.000690292,0.00105981,0.000285759,0.00121534,0.000534766,1.07238,0.000703357,0.0110072,1413,1737,6.53143,-27.4878
196,-713,6.54077,27.3806,0.000454463,0.000916439,0.000128571,0.000949811,0.000421092,1.31684,0.000549546,0.012825,1420,1737,6.54082,-27.3807
203,-713,6.53552,27.2772,0.000246504,0.000868037,3.52563e-05,0.000870031,0.00024451,1.51431,0.00051812,0.0180588,1427,1737,6.53548,-27.2772
210,-713,6.53577,27.1472,0.000160638,0.000866588,-0.000155656,0.000899385,0.000127841,-1.36313,0.000561846,0.0145498,1434,1737,6.53579,-27.1472
217,-713,6.53638,27.032,2.00248e-05,0.000819104,-0.000415976,0.000996339,-0.00015721,-1.16802,0.000722354,0.0108524,1441,1737,6.53637,-27.032
224,-713,6.54639,26.9209,-2.46215e-06,0.000838046,-0.000655852,0.00119674,-0.000361153,-1.07033,0.000941587,0.0114074,1448,1737,6.5464,-26.9209
231,-713,6.54968,26.7855,-1.04913e-06,0.000855091,-0.000923581,0.00144498,-0.000590941,-1.00241,0.00120942,0.0113795,1455,1737,6.54973,-26.7855
238,-713,6.54309,26.6312,0.000150577,0.000941916,-0.00117067,0.00178197,-0.000689478,-0.948364,0.00147263,0.00894925,1462,1737,6.54313,-26.6312
245,-713,6.54626,26.4976,0.000384218,0.0011346,-0.00147044,0.00227696,-0.00075814,-0.910311,0.00182398,0.0114199,1469,1737,6.54623,-26.4976
252,-713,6.54639,26.3451,0.000450074,0.00138147,-0.00176896,0.002745,-0.00091346,-0.914108,0.00219868,0.0122442,1476,1737,6.54638,-26.3451
259,-713,6.56116,26.1603,0.000394216,0.00175612,-0.00198921,0.00317771,-0.00102737,-0.950308,0.0025314,0.0121406,1483,1737,6.56114,-26.1603
266,-713,6.52234,26.0322,0.000240958,0.00255817,-0.00213329,0.00382718,-0.00102805,-1.03417,0.00295437,0.0108881,1490,1737,6.52233,-26.0322
273,-713,6.49255,25.8663,4.80982e-05,0.00342788,-0.00226918,0.00456729,-0.00109131,-1.10545,0.00346637,0.00904055,1497,1737,6.49258,-25.8664
280,-713,6.47668,25.6769,-0.000274532,0.004151,-0.00235195,0.00516748,-0.00129101,-1.16286,0.00394635,0.0101705,1504,1737,6.47674,-25.6769
287,-713,6.46423,25.517,-0.000643128,0.00439168,-0.00230205,0.00528554,-0.00153699,-1.20042,0.00413243,0.0116762,1511,1737,6.46426,-25.517
294,-713,6.49292,25.361,-0.00086726,0.00514534,-0.00234996,0.00595482,-0.00167674,-1.23906,0.0046311,0.0192523,1518,1737,6.49291,-25.361
301,-713,6.49719,25.1506,-0.00102402,0.00559308,-0.00242395,0.00638599,-0.00181693,-1.25465,0.00497483,0.0219057,1525,1737,6.49721,-25.1507
308,-713,6.47607,24.9202,-0.00142714,0.00513092,-0.00233328,0.00587634,-0.00217256,-1.26157,0.00480824,0.0214081,1532,1737,6.4761,-24.9201
315,-713,6.46057,24.6986,-0.00170347,0.00468155,-0.00238151,0.00547197,-0.00249389,-1.25034,0.00470501,0.0274498,1539,1737,6.46062,-24.6986
322,-713,6.47766,24.3723,-0.00147317,0.00385158,-0.00264298,0.00494068,-0.00256227,-1.17993,0.00440378,0.0384711,1546,1737,6.47763,-24.3723
329,-713,6.54126,24.3563,-0.00107693,0.00264009,-0.00293749,0.00425763,-0.00269447,-1.06745,0.00404748,0.0450327,1553,1737,6.54127,-24.3564
336,-713,6.41187,24.3634,-0.000347881,0.0011483,-0.00360253,0.00407959,-0.00327917,-0.887771,0.00425695,0.0458606,1560,1737,6.41189,-24.3635
343,-713,6.23157,24.1854,0,0,0,0,0,0,0,-1,1567,1737,6.23156,-24.1854
350,-713,6.84045,23.6852,0,0,0,0,0,0,0,-1,1574,1737,6.84047,-23.6852
357,-713,5.9812,22.2378,0,0,0,0,0,0,0,-1,1581,1737,5.98117,-22.2378
364,-713,7.35474,20.9537,0,0,0,0,0,0,0,-1,1588,1737,7.35472,-20.9537
371,-713,5.89465,23.9154,0,0,0,0,0,0,0,-1,1595,1737,5.89463,-23.9155
378,-713,5.39514,23.4774,0,0,0,0,0,0,0,-1,1602,1737,5.39513,-23.4774
385,-713,4.89343,23.2245,0,0,0,0,0,0,0,-1,1609,1737,4.89341,-23.2245
392,-713,4.23035,23.1071,0,0,0,0,0,0,0,-1,1616,1737,4.23034,-23.107
399,-713,3.36182,16.5532,0,0,0,0,0,0,0,-1,1623,1737,3.36185,-16.5532
406,-713,2.97656,16.4902,0,0,0,0,0,0,0,-1,1630,1737,2.97656,-16.4902
413,-713,3.24731,18.2787,0,0,0,0,0,0,0,-1,1637,1737,3.24726,-18.2787
420,-713,0,0,0,0,0,0,0,0,0,-1,1644,1737,0,0
427,-713,0,0,0,0,0,0,0,0,0,-1,1651,1737,0,0
434,-713,0,0,0,0,0,0,0,0,0,-1,1658,1737,0,0
441,-713,0,0,0,0,0,0,0,0,0,-1,1665,1737,0,0
448,-713,0,0,0,0,0,0,0,0,0,-1,1672,1737,0,0
455,-713,0,0,0,0,0,0,0,0,0,-1,1679,1737,0,0
462,-713,0,0,0,0,0,0,0,0,0,-1,1686,1737,0,0
469,-713,0,0,0,0,0,0,0,0,0,-1,1693,1737,0,0
476,-713,0,0,0,0,0,0,0,0,0,-1,1700,1737,0,0
483,-713,0,0,0,0,0,0,0,0,0,-1,1707,1737,0,0
490,-713,0,0,0,0,0,0,0,0,0,-1,1714,1737,0,0
497,-713,0,0,0,0,0,0,0,0,0,-1,1721,1737,0,0
504,-713,0,0,0,0,0,0,0,0,0,-1,1728,1737,0,0
511,-713,0,0,0,0,0,0,0,0,0,-1,1735,1737,0,0
518,-713,0,0,0,0,0,0,0,0,0,-1,1742,1737,0,0
525,-713,0,0,0,0,0,0,0,0,0,-1,1749,1737,0,0
532,-713,0,0,0,0,0,0,0,0,0,-1,1756,1737,0,0
539,-713,0,0,0,0,0,0,0,0,0,-1,1763,1737,0,0
546,-713,0,0,0,0,0,0,0,0,0,-1,1770,1737,0,0
553,-713,0,0,0,0,0,0,0,0,0,-1,1777,1737,0,0
560,-713,0,0,0,0,0,0,0,0,0,-1,1784,1737,0,0
567,-713,0,0,0,0,0,0,0,0,0,-1,1791,1737,0,0
574,-713,0,0,0,0,0,0,0,0,0,-1,1798,1737,0,0
581,-713,0,0,0,0,0,0,0,0,0,-1,1805,1737,0,0
588,-713,0,0,0,0,0,0,0,0,0,-1,1812,1737,0,0
595,-713,0,0,0,0,0,0,0,0,0,-1,1819,1737,0,0
602,-713,0,0,0,0,0,0,0,0,0,-1,1826,1737,0,0
609,-713,0,0,0,0,0,0,0,0,0,-1,1833,1737,0,0
616,-713,0,0,0,0,0,0,0,0,0,-1,1840,1737,0,0
623,-713,0,0,0,0,0,0,0,0,0,-1,1847,1737,0,0
630,-713,0,0,0,0,0,0,0,0,0,-1,1854,1737,0,0
637,-713,0,0,0,0,0,0,0,0,0,-1,1861,1737,0,0
644,-713,0,0,0,0,0,0,0,0,0,-1,1868,1737,0,0
651,-713,0,0,0,0,0,0,0,0,0,-1,1875,1737,0,0
658,-713,0,0,0,0,0,0,0,0,0,-1,1882,1737,0,0
665,-713,0,0,0,0,0,0,0,0,0,-1,1889,1737,0,0
672,-713,0,0,0,0,0,0,0,0,0,-1,1896,1737,0,0
679,-713,0,0,0,0,0,0,0,0,0,-1,1903,1737,0,0
686,-713,0,0,0,0,0,0,0,0,0,-1,1910,1737,0,0
693,-713,0,0,0,0,0,0,0,0,0,-1,1917,1737,0,0
700,-713,0,0,0,0,0,0,0,0,0,-1,1924,1737,0,0
707,-713,0,0,0,0,0,0,0,0,0,-1,1931,1737,0,0
714,-713,0,0,0,0,0,0,0,0,0,-1,1938,1737,0,0
721,-713,0,0,0,0,0,0,0,0,0,-1,1945,1737,0,0
728,-713,0,0,0,0,0,0,0,0,0,-1,1952,1737,0,0
735,-713,0,0,0,0,0,0,0,0,0,-1,1959,1737,0,0
742,-713,0,0,0,0,0,0,0,0,0,-1,1966,1737,0,0
749,-713,0,0,0,0,0,0,0,0,0,-1,1973,1737,0,0
756,-713,0,0,0,0,0,0,0,0,0,-1,1980,1737,0,0
763,-713,0,0,0,0,0,0,0,0,0,-1,1987,1737,0,0
770,-713,0,0,0,0,0,0,0,0,0,-1,1994,1737,0,0
777,-713,0,0,0,0,0,0,0,0,0,-1,2001,1737,0,0
784,-713,0,0,0,0,0,0,0,0,0,-1,2008,1737,0,0
791,-713,0,0,0,0,0,0,0,0,0,-1,2015,1737,0,0
798,-713,0,0,0,0,0,0,0,0,0,-1,2022,1737,0,0
805,-713,0,0,0,0,0,0,0,0,0,-1,2029,1737,0,0
812,-713,0,0,0,0,0,0,0,0,0,-1,2036,1737,0,0
-700,-720,0,0,0,0,0,0,0,0,0,-1,524,1744,0,0
-693,-720,0,0,0,0,0,0,0,0,0,-1,531,1744,0,0
-686,-720,0,0,0,0,0,0,0,0,0,-1,538,1744,0,0
-679,-720,0,0,0,0,0,0,0,0,0,-1,545,1744,0,0
-672,-720,0,0,0,0,0,0,0,0,0,-1,552,1744,0,0
-665,-720,0,0,0,0,0,0,0,0,0,-1,559,1744,0,0
-658,-720,0,0,0,0,0,0,0,0,0,-1,566,1744,0,0
-651,-720,0,0,0,0,0,0,0,0,0,-1,573,1744,0,0
-644,-720,0,0,0,0,0,0,0,0,0,-1,580,1744,0,0
-637,-720,0,0,0,0,0,0,0,0,0,-1,587,1744,0,0
-630,-720,0,0,0,0,0,0,0,0,0,-1,594,1744,0,0
-623,-720,0,0,0,0,0,0,0,0,0,-1,601,1744,0,0
-616,-720,0,0,0,0,0,0,0,0,0,-1,608,1744,0,0
-609,-720,0,0,0,0,0,0,0,0,0,-1,615,1744,0,0
-602,-720,0,0,0,0,0,0,0,0,0,-1,622,1744,0,0
-595,-720,0,0,0,0,0,0,0,0,0,-1,629,1744,0,0
-588,-720,0,0,0,0,0,0,0,0,0,-1,636,1744,0,0
-581,-720,0,0,0,0,0,0,0,0,0,-1,643,1744,0,0
-574,-720,0,0,0,0,0,0,0,0,0,-1,650,1744,0,0
-567,-720,0,0,0,0,0,0,0,0,0,-1,657,1744,0,0
-560,-720,0,0,0,0,0,0,0,0,0,-1,664,1744,0,0
-553,-720,0,0,0,0,0,0,0,0,0,-1,671,1744,0,0
-546,-720,0,0,0,0,0,0,0,0,0,-1,678,1744,0,0
-539,-720,0,0,0,0,0,0,0,0,0,-1,685,1744,0,0
-532,-720,0,0,0,0,0,0,0,0,0,-1,692,1744,0,0
-525,-720,0,0,0,0,0,0,0,0,0,-1,699,1744,0,0
-518,-720,0,0,0,0,0,0,0,0,0,-1,706,1744,0,0
-511,-720,0,0,0,0,0,0,0,0,0,-1,713,1744,0,0
-504,-720,0,0,0,0,0,0,0,0,0,-1,720,1744,0,0
-497,-720,0,0,0,0,0,0,0,0,0,-1,727,1744,0,0
-490,-720,0,0,0,0,0,0,0,0,0,-1,734,1744,0,0
-483,-720,0,0,0,0,0,0,0,0,0,-1,741,1744,0,0
-476,-720,0,0,0,0,0,0,0,0,0,-1,748,1744,0,0
-469,-720,0,0,0,0,0,0,0,0,0,-1,755,1744,0,0
-462,-720,0,0,0,0,0,0,0,0,0,-1,762,1744,0,0
-455,-720,0,0,0,0,0,0,0,0,0,-1,769,1744,0,0
-448,-720,0,0,0,0,0,0,0,0,0,-1,776,1744,0,0
-441,-720,0,0,0,0,0,0,0,0,0,-1,783,1744,0,0
-434,-720,0,0,0,0,0,0,0,0,0,-1,790,1744,0,0
-427,-720,0,0,0,0,0,0,0,0,0,-1,797,1744,0,0
-420,-720,0,0,0,0,0,0,0,0,0,-1,804,1744,0,0
-413,-720,0,0,0,0,0,0,0,0,0,-1,811,1744,0,0
-406,-720,0,0,0,0,0,0,0,0,0,-1,818,1744,0,0
-399,-720,0,0,0,0,0,0,0,0,0,-1,825,1744,0,0
-392,-720,0,0,0,0,0,0,0,0,0,-1,832,1744,0,0
-385,-720,0,0,0,0,0,0,0,0,0,-1,839,1744,0,0
-378,-720,0,0,0,0,0,0,0,0,0,-1,846,1744,0,0
-371,-720,0,0,0,0,0,0,0,0,0,-1,853,1744,0,0
-364,-720,0,0,0,0,0,0,0,0,0,-1,860,1744,0,0
-357,-720,0,0,0,0,0,0,0,0,0,-1,867,1744,0,0
-350,-720,0,0,0,0,0,0,0,0,0,-1,874,1744,0,0
-343,-720,0,0,0,0,0,0,0,0,0,-1,881,1744,0,0
-336,-720,0,0,0,0,0,0,0,0,0,-1,888,1744,0,0
-329,-720,0,0,0,0,0,0,0,0,0,-1,895,1744,0,0
-322,-720,0,0,0,0,0,0,0,0,0,-1,902,1744,0,0
-315,-720,0,0,0,0,0,0,0,0,0,-1,909,1744,0,0
-308,-720,0,0,0,0,0,0,0,0,0,-1,916,1744,0,0
-301,-720,0,0,0,0,0,0,0,0,0,-1,923,1744,0,0
-294,-720,0,0,0,0,0,0,0,0,0,-1,930,1744,0,0
-287,-720,0,0,0,0,0,0,0,0,0,-1,937,1744,0,0
-280,-720,6.46796,22.6417,0,0,0,0,0,0,0,-1,944,1744,6.46793,-22.6417
-273,-720,8.54633,13.262,0,0,0,0,0,0,0,-1,951,1744,8.54636,-13.2619
-266,-720,7.28027,13.3165,0,0,0,0,0,0,0,-1,958,1744,7.28026,-13.3166
-259,-720,3.70563,18.6372,0,0,0,0,0,0,0,-1,965,1744,3.70564,-18.6372
-252,-720,4.00989,18.5059,0,0,0,0,0,0,0,-1,972,1744,4.00988,-18.5058
-245,-720,4.63318,20.3199,0,0,0,0,0,0,0,-1,979,1744,4.6332,-20.32
-238,-720,5.02216,24.1455,0,0,0,0,0,0,0,-1,986,1744,5.02217,-24.1455
-231,-720,6.34106,21.7759,0,0,0,0,0,0,0,-1,993,1744,6.34103,-21.7758
-224,-720,7.65991,19.4061,0,0,0,0,0,0,0,-1,1000,1744,7.6599,-19.4061
-217,-720,7.33716,20.2433,0,0,0,0,0,0,0,-1,1007,1744,7.33715,-20.2432
-210,-720,7.36743,23.2506,0,0,0,0,0,0,0,-1,1014,1744,7.3674,-23.2506
-203,-720,6.68652,23.1454,0,0,0,0,0,0,0,-1,1021,1744,6.68652,-23.1453
-196,-720,5.474,23.0251,0,0,0,0,0,0,0,-1,1028,1744,5.47396,-23.0251
-189,-720,6.35608,24.0215,0,0,0,0,0,0,0,-1,1035,1744,6.35611,-24.0214
-182,-720,6.4209,24.4291,0.00188725,-0.0083768,0.00341874,0.0029217,-0.00941125,0.293825,0.00744177,0.0438335,1042,1744,6.42094,-24.4291
-175,-720,6.32397,24.6687,0.000123816,-0.00589551,0.00321361,0.00151703,-0.00728873,0.409079,0.00543586,0.0447432,1049,1744,6.32402,-24.6687
-168,-720,6.43835,24.7207,-0.00140454,-0.00359434,0.00292356,0.000622426,-0.0056213,0.606228,0.0039713,0.0419044,1056,1744,6.43831,-24.7207
-161,-720,6.23169,24.8762,-0.00250978,-0.0019474,0.00264415,0.000430473,-0.00488766,0.838371,0.00341099,0.0373668,1063,1744,6.23174,-24.8762
-154,-720,6.45972,25.1423,-0.00316702,-0.000903483,0.0023692,0.000590392,-0.00466089,1.00822,0.0033216,0.0315393,1070,1744,6.45972,-25.1424
-147,-720,6.39819,25.4148,-0.00340061,0.000417877,0.00181874,0.00114549,-0.00412822,1.19023,0.003203,0.0276109,1077,1744,6.39814,-25.4148
-140,-720,6.40674,25.59,-0.00350253,0.00150722,0.0013776,0.00186105,-0.00385636,1.31939,0.00336728,0.0214605,1084,1744,6.4067,-25.59
-133,-720,6.37659,25.6627,-0.00354432,0.00219449,0.000952824,0.00234855,-0.00369838,1.41049,0.00352007,0.0150021,1091,1744,6.37654,-25.6627
-126,-720,6.35632,25.8347,-0.00334319,0.00290521,0.000768665,0.00299838,-0.00343636,1.45017,0.00371797,0.0132316,1098,1744,6.35632,-25.8347
-119,-720,6.34619,25.9985,-0.00308472,0.00343425,0.000667631,0.00350192,-0.00315239,1.46978,0.00384363,0.0146058,1105,1744,6.34624,-25.9985
-112,-720,6.31934,26.145,-0.00261457,0.00361864,0.000686468,0.00369334,-0.00268928,1.4624,0.00370018,0.0134639,1112,1744,6.31935,-26.145
-105,-720,6.31201,26.3208,-0.00213815,0.00350082,0.000622529,0.00356873,-0.00220605,1.46214,0.00336487,0.0128621,1119,1744,6.312,-26.3208
-98,-720,6.31812,26.4806,-0.00174783,0.00338263,0.000693707,0.00347477,-0.00183997,1.43874,0.00311648,0.0101348,1126,1744,6.31813,-26.4805
-91,-720,6.28943,26.6178,-0.00133693,0.00332242,0.000752081,0.00344081,-0.00145531,1.41466,0.00290322,0.0087482,1133,1744,6.28937,-26.6178
-84,-720,6.27722,26.7712,-0.00089868,0.00279086,0.000876153,0.00298835,-0.00109617,1.3491,0.00244109,0.00952325,1140,1744,6.2772,-26.7712
-77,-720,6.27319,26.9515,-0.000444144,0.00268419,0.000882938,0.00291618,-0.000676139,1.31385,0.00220434,0.0125884,1147,1744,6.27316,-26.9516
-70,-720,6.28296,27.0798,-0.000171161,0.00244507,0.000711746,0.00262617,-0.000352255,1.32165,0.00187923,0.0119005,1154,1744,6.28293,-27.0799
-63,-720,6.27502,27.1882,-6.54757e-05,0.00227664,0.000519245,0.00238659,-0.00017543,1.36212,0.00165265,0.0114161,1161,1744,6.27507,-27.1883
-56,-720,6.27686,27.3081,7.05147e-05,0.00208086,0.00039887,0.00215711,-5.73276e-06,1.38192,0.00143999,0.0131111,1168,1744,6.2769,-27.3081
-49,-720,6.25549,27.4142,0.000190545,0.0017198,0.000346691,0.00179473,0.000115619,1.35795,0.00115987,0.0190429,1175,1744,6.25554,-27.4142
-42,-720,6.25879,27.5005,0.000348882,0.00140817,0.000416978,0.00155262,0.00020444,1.23733,0.000974109,0.0205374,1182,1744,6.25883,-27.5005
-35,-720,6.26917,27.6,0.000532944,0.00115058,0.000497285,0.00142714,0.00025639,1.06326,0.000878522,0.0186583,1189,1744,6.26913,-27.6
-28,-720,6.27942,27.7068,0.000761316,0.00090499,0.000573735,0.00141137,0.000254937,0.847679,0.000868496,0.0119888,1196,1744,6.27946,-27.7068
-21,-720,6.2738,27.8203,0.000975182,0.000536095,0.000655911,0.00144732,6.39603e-05,0.623901,0.00094428,0.00915673,1203,1744,6.27386,-27.8203
-14,-720,6.26807,27.8861,0.00120036,0.000206211,0.000918621,0.00174777,-0.000341198,0.537402,0.001294,0.0104424,1210,1744,6.26804,-27.8861
-7,-720,6.27698,27.9618,0.00142435,2.12492e-05,0.00127845,0.00218109,-0.00073549,0.534457,0.00175148,0.0114581,1217,1744,6.27693,-27.9618
0,-720,6.28979,28.0355,0.00169671,1.58511e-05,0.00166422,0.00272067,-0.00100811,0.551578,0.00222721,0.012042,1224,1744,6.28981,-28.0355
7,-720,6.31384,28.084,0.00179346,0.000200378,0.00180888,0.00297341,-0.000979569,0.577997,0.00237705,0.0147084,1231,1744,6.3138,-28.084
14,-720,6.33606,28.1483,0.00195693,0.000498479,0.00170381,0.00308101,-0.000625603,0.583196,0.00229119,0.0139944,1238,1744,6.33604,-28.1484
21,-720,6.30176,28.2136,0.00206576,0.00138767,0.00164317,0.0034045,4.89324e-05,0.683657,0.00225353,0.0110261,1245,1744,6.3018,-28.2136
28,-720,6.29529,28.2568,0.00174338,0.00205913,0.00116559,0.00307749,0.000725024,0.852711,0.00185776,0.0116313,1252,1744,6.29529,-28.2569
35,-720,6.30774,28.2947,0.00145035,0.00300604,0.000602938,0.00321236,0.00124403,1.2411,0.0018703,0.0116235,1259,1744,6.3077,-28.2947
42,-720,6.32043,28.3046,0.00114933,0.00383099,-0.000465263,0.00390942,0.0010709,-1.4038,0.00233274,0.0113961,1266,1744,6.32045,-28.3045
49,-720,6.33459,28.295,0.000790216,0.00420243,-0.00174254,0.00493502,5.76274e-05,-1.17282,0.00327098,0.0108539,1273,1744,6.33461,-28.2951
56,-720,6.33704,28.3245,0.000477294,0.00448943,-0.00289797,0.00600793,-0.0010412,-1.08814,0.00439367,0.00963867,1280,1744,6.33708,-28.3245
63,-720,6.34937,28.3469,0.000267302,0.0043679,-0.00395849,0.00677556,-0.00214036,-1.02435,0.00537448,0.012059,1287,1744,6.34936,-28.3469
70,-720,6.37708,28.355,0.000171792,0.00388756,-0.00478021,0.00715824,-0.00309889,-0.970745,0.00607458,0.0137579,1294,1744,6.37711,-28.355
77,-720,6.38562,28.3717,3.97802e-05,0.0031196,-0.0054073,0.00720199,-0.00404261,-0.924118,0.00657693,0.0152463,1301,1744,6.38565,-28.3717
84,-720,6.36963,28.3584,0.00012589,0.00211155,-0.00568457,0.00688934,-0.0046519,-0.871853,0.00670495,0.0145691,1308,1744,6.36965,-28.3584
91,-720,6.35461,28.3654,0.000496,0.000993515,-0.00578177,0.00653187,-0.00504236,-0.806897,0.00670081,0.0133146,1315,1744,6.35456,-28.3654
98,-720,6.35352,28.3519,0.00104119,-9.5557e-05,-0.005718,0.00621899,-0.00527336,-0.73586,0.00664259,0.0120725,1322,1744,6.35347,-28.352
105,-720,6.38147,28.3268,0.00145814,-0.00106455,-0.00521577,0.00556291,-0.00516933,-0.666759,0.00619765,0.0125755,1329,1744,6.38141,-28.3268
112,-720,6.4104,28.2983,0.00196,-0.00186628,-0.00438516,0.00483118,-0.00473746,-0.579707,0.00552455,0.0116651,1336,1744,6.41038,-28.2984
119,-720,6.43372,28.2688,0.00221264,-0.00235824,-0.00352463,0.00412795,-0.00427354,-0.497766,0.00485085,0.011454,1343,1744,6.43373,-28.2688
126,-720,6.42334,28.2311,0.00244356,-0.00276582,-0.00286882,0.00371373,-0.00403599,-0.416809,0.00447559,0.0113235,1350,1744,6.4234,-28.231
133,-720,6.41016,28.157,0.00276337,-0.00238126,-0.00201217,0.00345688,-0.00307477,-0.331909,0.0037732,0.012944,1357,1744,6.41015,-28.157
140,-720,6.42834,28.0961,0.00271347,-0.00190975,-0.00142429,0.00311702,-0.00231331,-0.276103,0.00314663,0.0198204,1364,1744,6.42832,-28.0961
147,-720,6.42395,28.0309,0.00252578,-0.00130316,-0.000826444,0.00269655,-0.00147392,-0.203759,0.00244207,0.0202847,1371,1744,6.42399,-28.0309
154,-720,6.41162,27.9298,0.00224002,-0.000573883,-0.000509593,0.00232947,-0.000663326,-0.173749,0.00181495,0.0134076,1378,1744,6.41165,-27.9298
161,-720,6.44312,27.8641,0.00185997,-0.000145134,-0.000487658,0.00197228,-0.000257445,-0.226361,0.00140853,0.00947731,1385,1744,6.44309,-27.8642
168,-720,6.448,27.7925,0.001486,0.000175075,-0.000542021,0.00168108,-2.00027e-05,-0.345474,0.00112744,0.00928493,1392,1744,6.44804,-27.7924
175,-720,6.44519,27.6921,0.00112872,0.000449832,-0.000653906,0.00152604,5.25161e-05,-0.545992,0.00100031,0.0150494,1399,1744,6.44516,-27.6921
182,-720,6.44055,27.5988,0.000757141,0.000639876,-0.000696561,0.00139753,-5.16127e-07,-0.74341,0.00093186,0.0152864,1406,1744,6.4406,-27.5988
189,-720,6.44312,27.5096,0.000442069,0.000651292,-0.000716797,0.00127107,-0.00017771,-0.857858,0.000912404,0.0130908,1413,1744,6.4431,-27.5096
196,-720,6.44116,27.3943,5.11694e-05,0.000525409,-0.000800259,0.00112294,-0.00054636,-0.92943,0.000982747,0.0144459,1420,1744,6.44119,-27.3943
203,-720,6.42664,27.262,-0.0003347,0.000706234,-0.0007318,0.00108377,-0.00071224,-1.0945,0.0010443,0.0172467,1427,1744,6.42669,-27.2619
210,-720,6.40955,27.1594,-0.000215957,0.000925503,-0.000982124,0.00149069,-0.000781141,-1.04861,0.00133279,0.0144263,1434,1744,6.40952,-27.1594
217,-720,6.41479,27.0327,-0.000197047,0.00106807,-0.00127389,0.00185781,-0.000986784,-1.01584,0.00166779,0.0121387,1441,1744,6.41481,-27.0327
224,-720,6.41626,26.9041,-0.000124824,0.00117141,-0.0015582,0.0022109,-0.00116432,-0.982484,0.00197967,0.00939017,1448,1744,6.41626,-26.9041
231,-720,6.41174,26.7729,-4.11778e-05,0.00128436,-0.00186035,0.00259647,-0.00135329,-0.956519,0.00231774,0.0102647,1455,1744,6.41177,-26.773
238,-720,6.40991,26.6157,0.000209349,0.00147824,-0.00213835,0.00307428,-0.00138669,-0.929611,0.00263626,0.00887361,1462,1744,6.40987,-26.6157
245,-720,6.40613,26.495,0.000545506,0.00180497,-0.00248778,0.00374148,-0.001391,-0.909359,0.00306507,0.0106813,1469,1744,6.4061,-26.495
252,-720,6.39587,26.3431,0.000654718,0.00219216,-0.00282739,0.00435347,-0.00150659,-0.918131,0.00351387,0.0112055,1476,1744,6.39586,-26.3431
259,-720,6.38586,26.1815,0.000587191,0.00273463,-0.00305791,0.00490186,-0.00158003,-0.954238,0.00390269,0.0102079,1483,1744,6.38585,-26.1815
266,-720,6.35071,26.0281,0.00037775,0.00383362,-0.00317875,0.00572373,-0.00151235,-1.03435,0.0044073,0.00871478,1490,1744,6.35068,-26.0281
273,-720,6.3175,25.8544,0.000137498,0.0049824,-0.00329841,0.00665236,-0.00153246,-1.10213,0.00502424,0.0159773,1497,1744,6.31749,-25.8544
280,-720,6.24695,25.675,-0.000280758,0.00598402,-0.00333333,0.00742579,-0.00172253,-1.16256,0.0056135,0.0235731,1504,1744,6.24699,-25.6751
287,-720,6.17285,25.4261,-0.000761708,0.00635525,-0.0032239,0.00759847,-0.00200493,-1.20274,0.00584963,0.0383832,1511,1744,6.17284,-25.4262
294,-720,6.41296,25.1682,-0.00111015,0.00745405,-0.00321503,0.00852665,-0.00218275,-1.24879,0.00653468,0.0406749,1518,1744,6.41292,-25.1682
301,-720,6.39563,25.0266,-0.00140674,0.00822533,-0.00314513,0.00916134,-0.00234275,-1.28154,0.00702002,0.0421575,1525,1744,6.39565,-25.0266
308,-720,6.17407,24.7915,-0.0020532,0.00763973,-0.00278154,0.00838121,-0.00279469,-1.31028,0.00671575,0.0428254,1532,1744,6.17403,-24.7915
315,-720,6.03809,24.3732,-0.00257697,0.00730381,-0.00267822,0.00798306,-0.00325622,-1.32241,0.00667755,0.0466471,1539,1744,6.03813,-24.3731
322,-720,6.38586,24.1525,0,0,0,0,0,0,0,-1,1546,1744,6.38583,-24.1525
329,-720,6.41443,24.5286,0,0,0,0,0,0,0,-1,1553,1744,6.41441,-24.5285
336,-720,6.30127,24.7822,0,0,0,0,0,0,0,-1,1560,1744,6.30131,-24.7823
343,-720,6.78552,21.3625,0,0,0,0,0,0,0,-1,1567,1744,6.78551,-21.3625
350,-720,4.0741,11.1836,0,0,0,0,0,0,0,-1,1574,1744,4.07412,-11.1836
357,-720,6.90833,21.4504,0,0,0,0,0,0,0,-1,1581,1744,6.90827,-21.4505
364,-720,5.83777,24.1599,0,0,0,0,0,0,0,-1,1588,1744,5.83773,-24.1599
371,-720,5.46997,23.6176,0,0,0,0,0,0,0,-1,1595,1744,5.47001,-23.6176
378,-720,4.97656,23.3204,0,0,0,0,0,0,0,-1,1602,1744,4.97659,-23.3205
385,-720,4.23535,22.9569,0,0,0,0,0,0,0,-1,1609,1744,4.23534,-22.9569
392,-720,3.19006,23.2148,0,0,0,0,0,0,0,-1,1616,1744,3.1901,-23.2149
399,-720,0.197021,14.5314,0,0,0,0,0,0,0,-1,1623,1744,0.197043,-14.5313
406,-720,0,0,0,0,0,0,0,0,0,-1,1630,1744,0,0
413,-720,0,0,0,0,0,0,0,0,0,-1,1637,1744,0,0
420,-720,0,0,0,0,0,0,0,0,0,-1,1644,1744,0,0
427,-720,0,0,0,0,0,0,0,0,0,-1,1651,1744,0,0
434,-720,0,0,0,0,0,0,0,0,0,-1,1658,1744,0,0
441,-720,0,0,0,0,0,0,0,0,0,-1,1665,1744,0,0
448,-720,0,0,0,0,0,0,0,0,0,-1,1672,1744,0,0
455,-720,0,0,0,0,0,0,0,0,0,-1,1679,1744,0,0
462,-720,0,0,0,0,0,0,0,0,0,-1,1686,1744,0,0
469,-720,0,0,0,0,0,0,0,0,0,-1,1693,1744,0,0
476,-720,0,0,0,0,0,0,0,0,0,-1,1700,1744,0,0
483,-720,0,0,0,0,0,0,0,0,0,-1,1707,1744,0,0
490,-720,0,0,0,0,0,0,0,0,0,-1,1714,1744,0,0
497,-720,0,0,0,0,0,0,0,0,0,-1,1721,1744,0,0
504,-720,0,0,0,0,0,0,0,0,0,-1,1728,1744,0,0
511,-720,0,0,0,0,0,0,0,0,0,-1,1735,1744,0,0
518,-720,0,0,0,0,0,0,0,0,0,-1,1742,1744,0,0
525,-720,0,0,0,0,0,0,0,0,0,-1,1749,1744,0,0
532,-720,0,0,0,0,0,0,0,0,0,-1,1756,1744,0,0
539,-720,0,0,0,0,0,0,0,0,0,-1,1763,1744,0,0
546,-720,0,0,0,0,0,0,0,0,0,-1,1770,1744,0,0
553,-720,0,0,0,0,0,0,0,0,0,-1,1777,1744,0,0
560,-720,0,0,0,0,0,0,0,0,0,-1,1784,1744,0,0
567,-720,0,0,0,0,0,0,0,0,0,-1,1791,1744,0,0
574,-720,0,0,0,0,0,0,0,0,0,-1,1798,1744,0,0
581,-720,0,0,0,0,0,0,0,0,0,-1,1805,1744,0,0
588,-720,0,0,0,0,0,0,0,0,0,-1,1812,1744,0,0
595,-720,0,0,0,0,0,0,0,0,0,-1,1819,1744,0,0
602,-720,0,0,0,0,0,0,0,0,0,-1,1826,1744,0,0
609,-720,0,0,0,0,0,0,0,0,0,-1,1833,1744,0,0
616,-720,0,0,0,0,0,0,0,0,0,-1,1840,1744,0,0
623,-720,0,0,0,0,0,0,0,0,0,-1,1847,1744,0,0
630,-720,0,0,0,0,0,0,0,0,0,-1,1854,1744,0,0
637,-720,0,0,0,0,0,0,0,0,0,-1,1861,1744,0,0
644,-720,0,0,0,0,0,0,0,0,0,-1,1868,1744,0,0
651,-720,0,0,0,0,0,0,0,0,0,-1,1875,1744,0,0
658,-720,0,0,0,0,0,0,0,0,0,-1,1882,1744,0,0
665,-720,0,0,0,0,0,0,0,0,0,-1,1889,1744,0,0
672,-720,0,0,0,0,0,0,0,0,0,-1,1896,1744,0,0
679,-720,0,0,0,0,0,0,0,0,0,-1,1903,1744,0,0
686,-720,0,0,0,0,0,0,0,0,0,-1,1910,1744,0,0
693,-720,0,0,0,0,0,0,0,0,0,-1,1917,1744,0,0
700,-720,0,0,0,0,0,0,0,0,0,-1,1924,1744,0,0
707,-720,0,0,0,0,0,0,0,0,0,-1,1931,1744,0,0
714,-720,0,0,0,0,0,0,0,0,0,-1,1938,1744,0,0
721,-720,0,0,0,0,0,0,0,0,0,-1,1945,1744,0,0
728,-720,0,0,0,0,0,0,0,0,0,-1,1952,1744,0,0
735,-720,0,0,0,0,0,0,0,0,0,-1,1959,1744,0,0
742,-720,0,0,0,0,0,0,0,0,0,-1,1966,1744,0,0
749,-720,0,0,0,0,0,0,0,0,0,-1,1973,1744,0,0
756,-720,0,0,0,0,0,0,0,0,0,-1,1980,1744,0,0
763,-720,0,0,0,0,0,0,0,0,0,-1,1987,1744,0,0
770,-720,0,0,0,0,0,0,0,0,0,-1,1994,1744,0,0
777,-720,0,0,0,0,0,0,0,0,0,-1,2001,1744,0,0
784,-720,0,0,0,0,0,0,0,0,0,-1,2008,1744,0,0
791,-720,0,0,0,0,0,0,0,0,0,-1,2015,1744,0,0
798,-720,0,0,0,0,0,0,0,0,0,-1,2022,1744,0,0
805,-720,0,0,0,0,0,0,0,0,0,-1,2029,1744,0,0
812,-720,0,0,0,0,0,0,0,0,0,-1,2036,1744,0,0
-700,-727,0,0,0,0,0,0,0,0,0,-1,524,1751,0,0
-693,-727,0,0,0,0,0,0,0,0,0,-1,531,1751,0,0
-686,-727,0,0,0,0,0,0,0,0,0,-1,538,1751,0,0
-679,-727,0,0,0,0,0,0,0,0,0,-1,545,1751,0,0
-672,-727,0,0,0,0,0,0,0,0,0,-1,552,1751,0,0
-665,-727,0,0,0,0,0,0,0,0,0,-1,559,1751,0,0
-658,-727,0,0,0,0,0,0,0,0,0,-1,566,1751,0,0
-651,-727,0,0,0,0,0,0,0,0,0,-1,573,1751,0,0
-644,-727,0,0,0,0,0,0,0,0,0,-1,580,1751,0,0
-637,-727,0,0,0,0,0,0,0,0,0,-1,587,1751,0,0
-630,-727,0,0,0,0,0,0,0,0,0,-1,594,1751,0,0
-623,-727,0,0,0,0,0,0,0,0,0,-1,601,1751,0,0
-616,-727,0,0,0,0,0,0,0,0,0,-1,608,1751,0,0
-609,-727,0,0,0,0,0,0,0,0,0,-1,615,1751,0,0
-602,-727,0,0,0,0,0,0,0,0,0,-1,622,1751,0,0
-595,-727,0,0,0,0,0,0,0,0,0,-1,629,1751,0,0
-588,-727,0,0,0,0,0,0,0,0,0,-1,636,1751,0,0
-581,-727,0,0,0,0,0,0,0,0,0,-1,643,1751,0,0
-574,-727,0,0,0,0,0,0,0,0,0,-1,650,1751,0,0
-567,-727,0,0,0,0,0,0,0,0,0,-1,657,1751,0,0
-560,-727,0,0,0,0,0,0,0,0,0,-1,664,1751,0,0
-553,-727,0,0,0,0,0,0,0,0,0,-1,671,1751,0,0
-546,-727,0,0,0,0,0,0,0,0,0,-1,678,1751,0,0
-539,-727,0,0,0,0,0,0,0,0,0,-1,685,1751,0,0
-532,-727,0,0,0,0,0,0,0,0,0,-1,692,1751,0,0
-525,-727,0,0,0,0,0,0,0,0,0,-1,699,1751,0,0
-518,-727,0,0,0,0,0,0,0,0,0,-1,706,1751,0,0
-511,-727,0,0,0,0,0,0,0,0,0,-1,713,1751,0,0
-504,-727,0,0,0,0,0,0,0,0,0,-1,720,1751,0,0
-497,-727,0,0,0,0,0,0,0,0,0,-1,727,1751,0,0
-490,-727,0,0,0,0,0,0,0,0,0,-1,734,1751,0,0
-483,-727,0,0,0,0,0,0,0,0,0,-1,741,1751,0,0
-476,-727,0,0,0,0,0,0,0,0,0,-1,748,1751,0,0
-469,-727,0,0,0,0,0,0,0,0,0,-1,755,1751,0,0
-462,-727,0,0,0,0,0,0,0,0,0,-1,762,1751,0,0
-455,-727,0,0,0,0,0,0,0,0,0,-1,769,1751,0,0
-448,-727,0,0,0,0,0,0,0,0,0,-1,776,1751,0,0
-441,-727,0,0,0,0,0,0,0,0,0,-1,783,1751,0,0
-434,-727,0,0,0,0,0,0,0,0,0,-1,790,1751,0,0
-427,-727,0,0,0,0,0,0,0,0,0,-1,797,1751,0,0
-420,-727,0,0,0,0,0,0,0,0,0,-1,804,1751,0,0
-413,-727,0,0,0,0,0,0,0,0,0,-1,811,1751,0,0
-406,-727,0,0,0,0,0,0,0,0,0,-1,818,1751,0,0
-399,-727,0,0,0,0,0,0,0,0,0,-1,825,1751,0,0
-392,-727,0,0,0,0,0,0,0,0,0,-1,832,1751,0,0
-385,-727,0,0,0,0,0,0,0,0,0,-1,839,1751,0,0
-378,-727,0,0,0,0,0,0,0,0,0,-1,846,1751,0,0
-371,-727,0,0,0,0,0,0,0,0,0,-1,853,1751,0,0
-364,-727,0,0,0,0,0,0,0,0,0,-1,860,1751,0,0
-357,-727,0,0,0,0,0,0,0,0,0,-1,867,1751,0,0
-350,-727,0,0,0,0,0,0,0,0,0,-1,874,1751,0,0
-343,-727,0,0,0,0,0,0,0,0,0,-1,881,1751,0,0
-336,-727,0,0,0,0,0,0,0,0,0,-1,888,1751,0,0
-329,-727,0,0,0,0,0,0,0,0,0,-1,895,1751,0,0
-322,-727,0,0,0,0,0,0,0,0,0,-1,902,1751,0,0
-315,-727,0,0,0,0,0,0,0,0,0,-1,909,1751,0,0
-308,-727,0,0,0,0,0,0,0,0,0,-1,916,1751,0,0
-301,-727,0,0,0,0,0,0,0,0,0,-1,923,1751,0,0
-294,-727,0,0,0,0,0,0,0,0,0,-1,930,1751,0,0
-287,-727,0,0,0,0,0,0,0,0,0,-1,937,1751,0,0
-280,-727,0,0,0,0,0,0,0,0,0,-1,944,1751,0,0
-273,-727,0,0,0,0,0,0,0,0,0,-1,951,1751,0,0
-266,-727,4.24805,7.61145,0,0,0,0,0,0,0,-1,958,1751,4.24802,-7.6115
-259,-727,3.65228,5.4082,0,0,0,0,0,0,0,-1,965,1751,3.65229,-5.40818
-252,-727,6.35193,19.5046,0,0,0,0,0,0,0,-1,972,1751,6.35193,-19.5046
-245,-727,6.6543,20.9005,0,0,0,0,0,0,0,-1,979,1751,6.65433,-20.9005
-238,-727,4.31769,18.0181,0,0,0,0,0,0,0,-1,986,1751,4.31766,-18.018
-231,-727,6.50403,21.7985,0,0,0,0,0,0,0,-1,993,1751,6.50403,-21.7985
-224,-727,5.36774,18.8488,0,0,0,0,0,0,0,-1,1000,1751,5.36772,-18.8487
-217,-727,5.94122,16.1447,0,0,0,0,0,0,0,-1,1007,1751,5.9412,-16.1446
-210,-727,6.63403,19.8335,0,0,0,0,0,0,0,-1,1014,1751,6.63405,-19.8335
-203,-727,6.70361,20.4543,0,0,0,0,0,0,0,-1,1021,1751,6.70363,-20.4544
-196,-727,5.04541,20.356,0,0,0,0,0,0,0,-1,1028,1751,5.04537,-20.356
-189,-727,5.33643,22.0458,0,0,0,0,0,0,0,-1,1035,1751,5.33649,-22.0457
-182,-727,6.62964,24.8346,0,0,0,0,0,0,0,-1,1042,1751,6.62969,-24.8346
-175,-727,6.42163,25.073,0,0,0,0,0,0,0,-1,1049,1751,6.42169,-25.0729
-168,-727,6.33569,25.053,0,0,0,0,0,0,0,-1,1056,1751,6.33571,-25.053
-161,-727,6.03308,25.1895,0,0,0,0,0,0,0,-1,1063,1751,6.03307,-25.1895
-154,-727,6.67517,25.0887,0,0,0,0,0,0,0,-1,1070,1751,6.67523,-25.0888
-147,-727,6.70544,25.4847,0,0,0,0,0,0,0,-1,1077,1751,6.70539,-25.4848
-140,-727,6.58862,25.265,0,0,0,0,0,0,0,-1,1084,1751,6.58859,-25.265
-133,-727,6.55505,25.5413,-0.00519058,0.00384969,0.00111682,0.00398562,-0.00532651,1.44968,0.0053949,0.0259111,1091,1751,6.55501,-25.5413
-126,-727,6.47266,25.7957,-0.00493457,0.00451045,0.000886778,0.00459299,-0.00501711,1.47799,0.00555019,0.0164074,1098,1751,6.4727,-25.7956
-119,-727,6.47449,26.0283,-0.00459684,0.0049388,0.000768,0.00500026,-0.0046583,1.49094,0.00557754,0.0120372,1105,1751,6.47453,-26.0283
-112,-727,6.47485,26.1643,-0.00400599,0.00494895,0.00079332,0.00501868,-0.00407573,1.48312,0.00526006,0.0119961,1112,1751,6.4748,-26.1643
-105,-727,6.44116,26.3345,-0.00342406,0.00463184,0.000725863,0.00469672,-0.00348894,1.48165,0.00474311,0.0125618,1119,1751,6.44116,-26.3345
-98,-727,6.45728,26.4781,-0.00297192,0.00432935,0.000784371,0.00441266,-0.00305524,1.46498,0.00433527,0.0109131,1126,1751,6.45727,-26.4781
-91,-727,6.44763,26.6101,-0.00250652,0.00410834,0.000811688,0.00420648,-0.00260467,1.45047,0.0039685,0.00981344,1133,1751,6.44757,-26.6101
-84,-727,6.41577,26.7673,-0.00195987,0.00317861,0.000946313,0.00334735,-0.00212861,1.39434,0.00318754,0.00996003,1140,1751,6.41572,-26.7673
-77,-727,6.40002,26.9335,-0.00138791,0.00291048,0.000979357,0.0031231,-0.00160053,1.35701,0.00277401,0.0117155,1147,1751,6.39999,-26.9335
-70,-727,6.40527,27.0748,-0.00110055,0.00250356,0.000781555,0.00266574,-0.00126273,1.36619,0.00231582,0.0134978,1154,1751,6.40526,-27.0749
-63,-727,6.40259,27.2006,-0.00107253,0.0022882,0.000487935,0.00235761,-0.00114194,1.4295,0.0020607,0.011324,1161,1751,6.40263,-27.2006
-56,-727,6.38342,27.3257,-0.000977827,0.00208149,0.000305267,0.00211165,-0.00100799,1.47231,0.00183831,0.0111945,1168,1751,6.38348,-27.3256
-49,-727,6.37024,27.4203,-0.000969518,0.00146626,0.000212657,0.00148468,-0.000987944,1.48436,0.00143714,0.0136304,1175,1751,6.37019,-27.4203
-42,-727,6.37329,27.5074,-0.000847524,0.000959144,0.000344588,0.00102264,-0.000911017,1.38858,0.00111701,0.0162658,1182,1751,6.37332,-27.5074
-35,-727,6.36475,27.6011,-0.000603651,0.000676306,0.0005064,0.000852424,-0.000779769,1.2361,0.000942658,0.0151217,1189,1751,6.3648,-27.6011
-28,-727,6.36316,27.6945,-0.000348232,0.000415107,0.000537032,0.000692281,-0.000625406,1.09433,0.000761094,0.0095666,1196,1751,6.36319,-27.6945
-21,-727,6.35901,27.8043,-0.0001424,4.32766e-05,0.000590233,0.000547928,-0.000647051,0.863405,0.000690712,0.00971381,1203,1751,6.359,-27.8043
-14,-727,6.3645,27.8915,6.91328e-05,-0.000314826,0.00072501,0.000627151,-0.000872844,0.655971,0.000869886,0.0115182,1210,1751,6.36452,-27.8915
-7,-727,6.36877,27.9824,0.000285329,-0.000544223,0.000965593,0.000921462,-0.00118036,0.582537,0.00121655,0.0152606,1217,1751,6.3688,-27.9824
0,-727,6.37366,28.0627,0.000545518,-0.000603764,0.00126687,0.00136198,-0.00142023,0.57248,0.00160643,0.0143317,1224,1751,6.37366,-28.0628
7,-727,6.37061,28.0881,0.000681479,-0.000560648,0.00141828,0.00160872,-0.00148789,0.579026,0.00178828,0.0137928,1231,1751,6.37063,-28.0881
14,-727,6.36182,28.1433,0.000820233,-0.00045322,0.00139489,0.00171685,-0.00134984,0.571288,0.00177478,0.0138429,1238,1751,6.36177,-28.1433
21,-727,6.34167,28.2185,0.000946699,-0.000244879,0.00125919,0.00174393,-0.00104211,0.564428,0.00162545,0.0124416,1245,1751,6.3417,-28.2185
28,-727,6.35474,28.2601,0.000785715,4.05625e-06,0.00093953,0.00141246,-0.000622692,0.588293,0.00120413,0.0115055,1252,1751,6.3547,-28.2601
35,-727,6.37695,28.2979,0.000643432,0.000385692,0.000573793,0.00110265,-7.35244e-05,0.674935,0.000760792,0.0118141,1259,1751,6.37697,-28.2978
42,-727,6.35217,28.2985,0.000518084,0.000708721,-8.94111e-05,0.000744093,0.000482712,-1.19408,0.000435891,0.0119744,1266,1751,6.35216,-28.2985
49,-727,6.33765,28.2954,0.000346987,0.000729482,-0.000878933,0.00143773,-0.000361265,-0.892524,0.00109889,0.0102737,1273,1751,6.33766,-28.2954
56,-727,6.33081,28.3446,0.000230203,0.000770709,-0.00149385,0.00201856,-0.00101765,-0.874885,0.00178442,0.00894068,1280,1751,6.33086,-28.3446
63,-727,6.35754,28.37,0.000140764,0.000586145,-0.00209098,0.00246626,-0.00173935,-0.838448,0.00244017,0.0112726,1287,1751,6.35749,-28.3699
70,-727,6.38953,28.3813,8.02083e-05,0.00019052,-0.0025496,0.00268556,-0.00241483,-0.796213,0.0029461,0.0144685,1294,1751,6.38949,-28.3813
77,-727,6.39148,28.4075,-4.23005e-05,-0.000288198,-0.00284229,0.0026797,-0.00301019,-0.763783,0.00328691,0.017104,1301,1751,6.39142,-28.4074
84,-727,6.36816,28.3739,2.32462e-05,-0.000826044,-0.00292107,0.00255038,-0.00335318,-0.713217,0.00341891,0.016405,1308,1751,6.36815,-28.374
91,-727,6.36426,28.3278,0.000340373,-0.00137789,-0.00286962,0.00247671,-0.00351423,-0.63995,0.00347612,0.0160201,1315,1751,6.36423,-28.3277
98,-727,6.35974,28.3427,0.000817653,-0.00183928,-0.0029321,0.0027082,-0.00372983,-0.572693,0.00373256,0.0134986,1322,1751,6.35974,-28.3427
105,-727,6.36621,28.321,0.00110654,-0.00226624,-0.0027512,0.00264707,-0.00380678,-0.510449,0.00374613,0.0137994,1329,1751,6.36625,-28.321
112,-727,6.38196,28.2955,0.00146882,-0.00256872,-0.00239798,0.00258465,-0.00368455,-0.435523,0.00363804,0.0122962,1336,1751,6.38198,-28.2955
119,-727,6.39355,28.2668,0.00171259,-0.00266641,-0.00211404,0.00256662,-0.00352044,-0.383932,0.00352872,0.00973778,1343,1751,6.39353,-28.2668
126,-727,6.38977,28.1979,0.00195045,-0.00252567,-0.00192438,0.00266403,-0.00323925,-0.35509,0.00341365,0.0108503,1350,1751,6.38976,-28.1979
133,-727,6.39099,28.1187,0.00222077,-0.00213833,-0.00175965,0.00284243,-0.00275999,-0.339601,0.00323468,0.0156244,1357,1751,6.39105,-28.1187
140,-727,6.36646,28.0702,0.0022892,-0.0016108,-0.00172692,0.00294396,-0.00226556,-0.3624,0.0030162,0.0231711,1364,1751,6.3664,-28.0702
147,-727,6.36121,28.0223,0.00224981,-0.00109139,-0.00170855,0.00296878,-0.00181036,-0.398313,0.00278613,0.0194303,1371,1751,6.36117,-28.0224
154,-727,6.35571,27.9288,0.00211323,-0.00057955,-0.00188016,0.00307936,-0.00154568,-0.474672,0.00271877,0.0120833,1378,1751,6.35573,-27.9288
161,-727,6.36719,27.8604,0.00185456,-0.000154441,-0.00207502,0.00315543,-0.00145531,-0.559978,0.00272167,0.00951753,1385,1751,6.36718,-27.8604
168,-727,6.36523,27.7871,0.0015643,9.2661e-05,-0.0021595,0.0031099,-0.00145294,-0.621199,0.00269163,0.0117272,1392,1751,6.3652,-27.7871
175,-727,6.39246,27.6936,0.00123696,0.000322053,-0.002191,0.00301775,-0.00145874,-0.682482,0.00263623,0.0170866,1399,1751,6.39242,-27.6936
182,-727,6.39771,27.6055,0.000839319,0.000515463,-0.00204288,0.00272668,-0.00137189,-0.745849,0.00240902,0.0190173,1406,1751,6.3977,-27.6055
189,-727,6.34241,27.5062,0.000514801,0.000399826,-0.00185963,0.00231784,-0.00140321,-0.769946,0.00216987,0.0118639,1413,1751,6.34239,-27.5062
196,-727,6.33337,27.3931,-0.000175771,0.000240493,-0.00185517,0.00189916,-0.00183444,-0.84126,0.00215571,0.0136072,1420,1751,6.33339,-27.3931
203,-727,6.31812,27.2587,-0.000957608,0.000582675,-0.00151191,0.00150929,-0.00188422,-1.02096,0.00196323,0.0171399,1427,1751,6.3181,-27.2586
210,-727,6.28809,27.161,-0.000633012,0.00103619,-0.0018377,0.00221993,-0.00181675,-0.998551,0.00233445,0.0161933,1434,1751,6.28813,-27.161
217,-727,6.28198,27.0385,-0.000443075,0.00135048,-0.0021974,0.00282705,-0.00191965,-0.979136,0.00275715,0.01137,1441,1751,6.28196,-27.0385
224,-727,6.29028,26.8892,-0.000250957,0.0015446,-0.00254733,0.00334773,-0.00205409,-0.954821,0.00314841,0.0119904,1448,1751,6.29031,-26.8891
231,-727,6.28015,26.7493,-5.0097e-05,0.00175736,-0.00292428,0.00391438,-0.00220711,-0.935265,0.00357977,0.0100012,1455,1751,6.28018,-26.7492
238,-727,6.28223,26.6005,0.000337809,0.00206405,-0.00327938,0.00459199,-0.00219013,-0.914078,0.00399667,0.0100965,1462,1751,6.28223,-26.6005
245,-727,6.27502,26.4746,0.000820236,0.00253325,-0.00371419,0.00548841,-0.00213493,-0.898719,0.00454107,0.00960085,1469,1751,6.27507,-26.4746
252,-727,6.25024,26.3329,0.0010273,0.00307709,-0.00412901,0.0063065,-0.00220212,-0.907048,0.00509941,0.0108053,1476,1751,6.25022,-26.3329
259,-727,6.25085,26.1699,0.000997582,0.0038057,-0.00440212,0.00702225,-0.00221897,-0.939774,0.00557048,0.0152178,1483,1751,6.25082,-26.1699
266,-727,6.26038,26.0507,0.000768956,0.00523129,-0.00452392,0.00804432,-0.00204408,-1.01449,0.00615838,0.0226186,1490,1751,6.2604,-26.0506
273,-727,6.25439,25.9418,0.00050229,0.00671094,-0.00464061,0.00918981,-0.00197658,-1.08019,0.00688069,0.0426325,1497,1751,6.25445,-25.9417
280,-727,5.94568,25.7168,0,0,0,0,0,0,0,-1,1504,1751,5.94571,-25.7168
287,-727,5.93774,25.2659,0,0,0,0,0,0,0,-1,1511,1751,5.93778,-25.2658
294,-727,6.20471,24.9651,0,0,0,0,0,0,0,-1,1518,1751,6.20474,-24.9651
301,-727,6.16846,25.0732,0,0,0,0,0,0,0,-1,1525,1751,6.1684,-25.0732
308,-727,5.82373,24.803,0,0,0,0,0,0,0,-1,1532,1751,5.82375,-24.8029
315,-727,5.60486,24.0288,0,0,0,0,0,0,0,-1,1539,1751,5.60488,-24.0288
322,-727,5.75818,18.2477,0,0,0,0,0,0,0,-1,1546,1751,5.75815,-18.2477
329,-727,6.61853,11.6267,0,0,0,0,0,0,0,-1,1553,1751,6.61859,-11.6267
336,-727,5.55823,20.2439,0,0,0,0,0,0,0,-1,1560,1751,5.55829,-20.2438
343,-727,2.41699,8.72095,0,0,0,0,0,0,0,-1,1567,1751,2.41702,-8.72098
350,-727,3.89783,7.50195,0,0,0,0,0,0,0,-1,1574,1751,3.89782,-7.50193
357,-727,4.48462,10.2948,0,0,0,0,0,0,0,-1,1581,1751,4.48464,-10.2948
364,-727,6.96729,17.2365,0,0,0,0,0,0,0,-1,1588,1751,6.96732,-17.2365
371,-727,5.04565,23.2227,0,0,0,0,0,0,0,-1,1595,1751,5.04564,-23.2227
378,-727,4.56726,23.0574,0,0,0,0,0,0,0,-1,1602,1751,4.56727,-23.0574
385,-727,3.52307,22.6431,0,0,0,0,0,0,0,-1,1609,1751,3.52303,-22.643
392,-727,0,0,0,0,0,0,0,0,0,-1,1616,1751,0,0
399,-727,0,0,0,0,0,0,0,0,0,-1,1623,1751,0,0
406,-727,0,0,0,0,0,0,0,0,0,-1,1630,1751,0,0
413,-727,0,0,0,0,0,0,0,0,0,-1,1637,1751,0,0
420,-727,0,0,0,0,0,0,0,0,0,-1,1644,1751,0,0
427,-727,0,0,0,0,0,0,0,0,0,-1,1651,1751,0,0
434,-727,0,0,0,0,0,0,0,0,0,-1,1658,1751,0,0
441,-727,0,0,0,0,0,0,0,0,0,-1,1665,1751,0,0
448,-727,0,0,0,0,0,0,0,0,0,-1,1672,1751,0,0
455,-727,0,0,0,0,0,0,0,0,0,-1,1679,1751,0,0
462,-727,0,0,0,0,0,0,0,0,0,-1,1686,1751,0,0
469,-727,0,0,0,0,0,0,0,0,0,-1,1693,1751,0,0
476,-727,0,0,0,0,0,0,0,0,0,-1,1700,1751,0,0
483,-727,0,0,0,0,0,0,0,0,0,-1,1707,1751,0,0
490,-727,0,0,0,0,0,0,0,0,0,-1,1714,1751,0,0
497,-727,0,0,0,0,0,0,0,0,0,-1,1721,1751,0,0
504,-727,0,0,0,0,0,0,0,0,0,-1,1728,1751,0,0
511,-727,0,0,0,0,0,0,0,0,0,-1,1735,1751,0,0
518,-727,0,0,0,0,0,0,0,0,0,-1,1742,1751,0,0
525,-727,0,0,0,0,0,0,0,0,0,-1,1749,1751,0,0
532,-727,0,0,0,0,0,0,0,0,0,-1,1756,1751,0,0
539,-727,0,0,0,0,0,0,0,0,0,-1,1763,1751,0,0
546,-727,0,0,0,0,0,0,0,0,0,-1,1770,1751,0,0
553,-727,0,0,0,0,0,0,0,0,0,-1,1777,1751,0,0
560,-727,0,0,0,0,0,0,0,0,0,-1,1784,1751,0,0
567,-727,0,0,0,0,0,0,0,0,0,-1,1791,1751,0,0
574,-727,0,0,0,0,0,0,0,0,0,-1,1798,1751,0,0
581,-727,0,0,0,0,0,0,0,0,0,-1,1805,1751,0,0
588,-727,0,0,0,0,0,0,0,0,0,-1,1812,1751,0,0
595,-727,0,0,0,0,0,0,0,0,0,-1,1819,1751,0,0
602,-727,0,0,0,0,0,0,0,0,0,-1,1826,1751,0,0
609,-727,0,0,0,0,0,0,0,0,0,-1,1833,1751,0,0
616,-727,0,0,0,0,0,0,0,0,0,-1,1840,1751,0,0
623,-727,0,0,0,0,0,0,0,0,0,-1,1847,1751,0,0
630,-727,0,0,0,0,0,0,0,0,0,-1,1854,1751,0,0
637,-727,0,0,0,0,0,0,0,0,0,-1,1861,1751,0,0
644,-727,0,0,0,0,0,0,0,0,0,-1,1868,1751,0,0
651,-727,0,0,0,0,0,0,0,0,0,-1,1875,1751,0,0
658,-727,0,0,0,0,0,0,0,0,0,-1,1882,1751,0,0
665,-727,0,0,0,0,0,0,0,0,0,-1,1889,1751,0,0
672,-727,0,0,0,0,0,0,0,0,0,-1,1896,1751,0,0
679,-727,0,0,0,0,0,0,0,0,0,-1,1903,1751,0,0
686,-727,0,0,0,0,0,0,0,0,0,-1,1910,1751,0,0
693,-727,0,0,0,0,0,0,0,0,0,-1,1917,1751,0,0
700,-727,0,0,0,0,0,0,0,0,0,-1,1924,1751,0,0
707,-727,0,0,0,0,0,0,0,0,0,-1,1931,1751,0,0
714,-727,0,0,0,0,0,0,0,0,0,-1,1938,1751,0,0
721,-727,0,0,0,0,0,0,0,0,0,-1,1945,1751,0,0
728,-727,0,0,0,0,0,0,0,0,0,-1,1952,1751,0,0
735,-727,0,0,0,0,0,0,0,0,0,-1,1959,1751,0,0
742,-727,0,0,0,0,0,0,0,0,0,-1,1966,1751,0,0
749,-727,0,0,0,0,0,0,0,0,0,-1,1973,1751,0,0
756,-727,0,0,0,0,0,0,0,0,0,-1,1980,1751,0,0
763,-727,0,0,0,0,0,0,0,0,0,-1,1987,1751,0,0
770,-727,0,0,0,0,0,0,0,0,0,-1,1994,1751,0,0
777,-727,0,0,0,0,0,0,0,0,0,-1,2001,1751,0,0
784,-727,0,0,0,0,0,0,0,0,0,-1,2008,1751,0,0
791,-727,0,0,0,0,0,0,0,0,0,-1,2015,1751,0,0
798,-727,0,0,0,0,0,0,0,0,0,-1,2022,1751,0,0
805,-727,0,0,0,0,0,0,0,0,0,-1,2029,1751,0,0
812,-727,0,0,0,0,0,0,0,0,0,-1,2036,1751,0,0
-700,-734,0,0,0,0,0,0,0,0,0,-1,524,1758,0,0
-693,-734,0,0,0,0,0,0,0,0,0,-1,531,1758,0,0
-686,-734,0,0,0,0,0,0,0,0,0,-1,538,1758,0,0
-679,-734,0,0,0,0,0,0,0,0,0,-1,545,1758,0,0
-672,-734,0,0,0,0,0,0,0,0,0,-1,552,1758,0,0
-665,-734,0,0,0,0,0,0,0,0,0,-1,559,1758,0,0
-658,-734,0,0,0,0,0,0,0,0,0,-1,566,1758,0,0
-651,-734,0,0,0,0,0,0,0,0,0,-1,573,1758,0,0
-644,-734,0,0,0,0,0,0,0,0,0,-1,580,1758,0,0
-637,-734,0,0,0,0,0,0,0,0,0,-1,587,1758,0,0
-630,-734,0,0,0,0,0,0,0,0,0,-1,594,1758,0,0
-623,-734,0,0,0,0,0,0,0,0,0,-1,601,1758,0,0
-616,-734,0,0,0,0,0,0,0,0,0,-1,608,1758,0,0
-609,-734,0,0,0,0,0,0,0,0,0,-1,615,1758,0,0
-602,-734,0,0,0,0,0,0,0,0,0,-1,622,1758,0,0
-595,-734,0,0,0,0,0,0,0,0,0,-1,629,1758,0,0
-588,-734,0,0,0,0,0,0,0,0,0,-1,636,1758,0,0
-581,-734,0,0,0,0,0,0,0,0,0,-1,643,1758,0,0
-574,-734,0,0,0,0,0,0,0,0,0,-1,650,1758,0,0
-567,-734,0,0,0,0,0,0,0,0,0,-1,657,1758,0,0
-560,-734,0,0,0,0,0,0,0,0,0,-1,664,1758,0,0
-553,-734,0,0,0,0,0,0,0,0,0,-1,671,1758,0,0
-546,-734,0,0,0,0,0,0,0,0,0,-1,678,1758,0,0
-539,-734,0,0,0,0,0,0,0,0,0,-1,685,1758,0,0
-532,-734,0,0,0,0,0,0,0,0,0,-1,692,1758,0,0
-525,-734,0,0,0,0,0,0,0,0,0,-1,699,1758,0,0
-518,-734,0,0,0,0,0,0,0,0,0,-1,706,1758,0,0
-511,-734,0,0,0,0,0,0,0,0,0,-1,713,1758,0,0
-504,-734,0,0,0,0,0,0,0,0,0,-1,720,1758,0,0
-497,-734,0,0,0,0,0,0,0,0,0,-1,727,1758,0,0
-490,-734,0,0,0,0,0,0,0,0,0,-1,734,1758,0,0
-483,-734,0,0,0,0,0,0,0,0,0,-1,741,1758,0,0
-476,-734,0,0,0,0,0,0,0,0,0,-1,748,1758,0,0
-469,-734,0,0,0,0,0,0,0,0,0,-1,755,1758,0,0
-462,-734,0,0,0,0,0,0,0,0,0,-1,762,1758,0,0
-455,-734,0,0,0,0,0,0,0,0,0,-1,769,1758,0,0
-448,-734,0,0,0,0,0,0,0,0,0,-1,776,1758,0,0
-441,-734,0,0,0,0,0,0,0,0,0,-1,783,1758,0,0
-434,-734,0,0,0,0,0,0,0,0,0,-1,790,1758,0,0
-427,-734,0,0,0,0,0,0,0,0,0,-1,797,1758,0,0
-420,-734,0,0,0,0,0,0,0,0,0,-1,804,1758,0,0
-413,-734,0,0,0,0,0,0,0,0,0,-1,811,1758,0,0
-406,-734,0,0,0,0,0,0,0,0,0,-1,818,1758,0,0
-399,-734,0,0,0,0,0,0,0,0,0,-1,825,1758,0,0
-392,-734,0,0,0,0,0,0,0,0,0,-1,832,1758,0,0
-385,-734,0,0,0,0,0,0,0,0,0,-1,839,1758,0,0
-378,-734,0,0,0,0,0,0,0,0,0,-1,846,1758,0,0
-371,-734,0,0,0,0,0,0,0,0,0,-1,853,1758,0,0
-364,-734,0,0,0,0,0,0,0,0,0,-1,860,1758,0,0
-357,-734,0,0,0,0,0,0,0,0,0,-1,867,1758,0,0
-350,-734,0,0,0,0,0,0,0,0,0,-1,874,1758,0,0
-343,-734,0,0,0,0,0,0,0,0,0,-1,881,1758,0,0
-336,-734,0,0,0,0,0,0,0,0,0,-1,888,1758,0,0
-329,-734,0,0,0,0,0,0,0,0,0,-1,895,1758,0,0
-322,-734,0,0,0,0,0,0,0,0,0,-1,902,1758,0,0
-315,-734,0,0,0,0,0,0,0,0,0,-1,909,1758,0,0
-308,-734,0,0,0,0,0,0,0,0,0,-1,916,1758,0,0
-301,-734,0,0,0,0,0,0,0,0,0,-1,923,1758,0,0
-294,-734,0,0,0,0,0,0,0,0,0,-1,930,1758,0,0
-287,-734,0,0,0,0,0,0,0,0,0,-1,937,1758,0,0
-280,-734,0,0,0,0,0,0,0,0,0,-1,944,1758,0,0
-273,-734,0,0,0,0,0,0,0,0,0,-1,951,1758,0,0
-266,-734,0,0,0,0,0,0,0,0,0,-1,958,1758,0,0
-259,-734,0,0,0,0,0,0,0,0,0,-1,965,1758,0,0
-252,-734,6.93439,18.351,0,0,0,0,0,0,0,-1,972,1758,6.93438,-18.3509
-245,-734,6.95746,19.5341,0,0,0,0,0,0,0,-1,979,1758,6.95746,-19.5341
-238,-734,6.69128,15.3165,0,0,0,0,0,0,0,-1,986,1758,6.69128,-15.3166
-231,-734,7.35022,15.5492,0,0,0,0,0,0,0,-1,993,1758,7.3502,-15.5492
-224,-734,7.4632,15.9962,0,0,0,0,0,0,0,-1,1000,1758,7.46319,-15.9962
-217,-734,7.54193,16.1692,0,0,0,0,0,0,0,-1,1007,1758,7.54194,-16.1691
-210,-734,7.62262,16.1628,0,0,0,0,0,0,0,-1,1014,1758,7.6226,-16.1628
-203,-734,5.32764,21.4656,0,0,0,0,0,0,0,-1,1021,1758,5.32762,-21.4655
-196,-734,6.00171,20.7645,0,0,0,0,0,0,0,-1,1028,1758,6.00166,-20.7645
-189,-734,5.2373,22.2926,0,0,0,0,0,0,0,-1,1035,1758,5.23734,-22.2926
-182,-734,5.53125,23.9364,0,0,0,0,0,0,0,-1,1042,1758,5.53122,-23.9364
-175,-734,3.95435,22.882,0,0,0,0,0,0,0,-1,1049,1758,3.95434,-22.8819
-168,-734,4.50208,15.4194,0,0,0,0,0,0,0,-1,1056,1758,4.50212,-15.4194
-161,-734,6.17456,21.793,0,0,0,0,0,0,0,-1,1063,1758,6.1746,-21.7929
-154,-734,7.2207,25.3521,0,0,0,0,0,0,0,-1,1070,1758,7.2207,-25.352
-147,-734,7.1842,25.5334,0,0,0,0,0,0,0,-1,1077,1758,7.18422,-25.5334
-140,-734,7.03699,25.5636,-0.00742636,0.00626685,0.00153244,0.00643626,-0.00759577,1.4607,0.00811061,0.0444344,1084,1758,7.03693,-25.5636
-133,-734,6.84753,25.5575,-0.00735769,0.00701471,0.00104925,0.00709091,-0.00743389,1.4983,0.00838667,0.0459189,1091,1758,6.84757,-25.5575
-126,-734,6.63293,25.7144,-0.00694747,0.00749526,0.000779672,0.00753723,-0.00698943,1.51702,0.00838896,0.0407613,1098,1758,6.63288,-25.7144
-119,-734,6.57776,26.0092,-0.00642499,0.00766897,0.000657408,0.00769957,-0.00645559,1.52429,0.00818299,0.0368841,1105,1758,6.57779,-26.0092
-112,-734,6.55066,26.1619,-0.00561618,0.00735366,0.000710149,0.00739243,-0.00565495,1.51626,0.00755514,0.0289805,1112,1758,6.55064,-26.1619
-105,-734,6.59253,26.3054,-0.00485228,0.00670734,0.000671295,0.0067462,-0.00489113,1.51298,0.00674721,0.0236173,1119,1758,6.59253,-26.3055
-98,-734,6.64844,26.4019,-0.00427606,0.00609445,0.000725281,0.00614493,-0.00432653,1.50131,0.00607601,0.0261843,1126,1758,6.64841,-26.4019
-91,-734,6.61865,26.5413,-0.00371115,0.00558505,0.000724642,0.0056412,-0.0037673,1.49347,0.00546779,0.0295262,1133,1758,6.61864,-26.5412
-84,-734,6.5509,26.7135,-0.00299943,0.00407744,0.000887661,0.00418708,-0.00310908,1.4479,0.00422774,0.0222132,1140,1758,6.55091,-26.7135
-77,-734,6.52905,26.9054,-0.00225477,0.00353724,0.000972301,0.0036961,-0.00241363,1.40884,0.00355326,0.0201552,1147,1758,6.5291,-26.9054
-70,-734,6.48877,26.9637,-0.00192763,0.00284676,0.000763371,0.00296584,-0.00204672,1.41605,0.00291017,0.0190852,1154,1758,6.48879,-26.9638
-63,-734,6.47461,27.0891,-0.00227259,0.00223609,0.000267358,0.00225189,-0.00228839,1.51177,0.00262136,0.0186537,1161,1758,6.47463,-27.0892
-56,-734,6.49292,27.3267,-0.00257698,0.00176461,-7.42553e-05,0.00176588,-0.00257825,-1.5537,0.00252266,0.0155403,1168,1758,6.49295,-27.3267
-49,-734,6.4834,27.4373,-0.00319619,0.000787994,-0.00021046,0.00079908,-0.00320727,-1.51817,0.0024484,0.0133217,1175,1758,6.48337,-27.4372
-42,-734,6.47351,27.5116,-0.00347999,0.000127493,0.000168082,0.000135308,-0.0034878,1.52434,0.00237159,0.013962,1182,1758,6.47352,-27.5116
-35,-734,6.46851,27.6002,-0.00329915,-0.000222635,0.000554462,-0.000125758,-0.00339602,1.39782,0.00222328,0.0139828,1189,1758,6.46848,-27.6003
-28,-734,6.46899,27.6957,-0.00286287,-0.000549006,0.000612612,-0.000396822,-0.00301506,1.32731,0.00189169,0.0103531,1196,1758,6.46897,-27.6956
-21,-734,6.51257,27.7947,-0.00262481,-0.000958609,0.000709691,-0.000697306,-0.00288611,1.21801,0.00173888,0.0157246,1203,1758,6.51262,-27.7947
-14,-734,6.45923,27.907,-0.00244761,-0.0013205,0.000849898,-0.000864288,-0.00290382,1.07816,0.00172168,0.0167299,1210,1758,6.45918,-27.907
-7,-734,6.45349,27.995,-0.00224801,-0.00157836,0.00107352,-0.000788657,-0.00303771,0.936565,0.00182013,0.0182242,1217,1758,6.45345,-27.995
0,-734,6.45081,28.051,-0.00196755,-0.00168698,0.00137226,-0.00044786,-0.00320667,0.836335,0.00200524,0.0169441,1224,1758,6.45082,-28.051
7,-734,6.4187,28.0907,-0.00174606,-0.00175129,0.0015646,-0.000184067,-0.00331328,0.784563,0.00215013,0.0131781,1231,1758,6.41874,-28.0907
14,-734,6.40186,28.1584,-0.00157185,-0.00177828,0.00162583,-4.5962e-05,-0.00330417,0.753698,0.00218762,0.0139398,1238,1758,6.40185,-28.1584
21,-734,6.38464,28.2057,-0.00135785,-0.00172345,0.00162918,9.87519e-05,-0.00318005,0.72953,0.00215371,0.0127116,1245,1758,6.38467,-28.2057
28,-734,6.39014,28.2374,-0.00122708,-0.00159205,0.0015132,0.0001146,-0.00293373,0.72539,0.00199512,0.0117365,1252,1758,6.39011,-28.2375
35,-734,6.40112,28.2955,-0.00112943,-0.0014001,0.00133322,7.53024e-05,-0.00260483,0.734818,0.00176219,0.0136337,1259,1758,6.40112,-28.2955
42,-734,6.3916,28.3129,-0.00097828,-0.00113985,0.00106614,1.01345e-05,-0.00212827,0.747583,0.00142224,0.0118623,1266,1758,6.39163,-28.3128
49,-734,6.37158,28.3247,-0.00085234,-0.00100722,0.000794109,-0.000131903,-0.00172766,0.736793,0.00111042,0.00970553,1273,1758,6.37155,-28.3247
56,-734,6.36035,28.3531,-0.000660295,-0.000900177,0.000571985,-0.000195811,-0.00136466,0.682049,0.000852037,0.00868994,1280,1758,6.36033,-28.3531
63,-734,6.38037,28.3662,-0.000511986,-0.00092432,0.00025419,-0.000390865,-0.00104544,0.44467,0.000609953,0.0110165,1287,1758,6.38031,-28.3662
70,-734,6.37012,28.3876,-0.000415451,-0.00113163,-2.6566e-05,-0.000414467,-0.00113261,-0.0370262,0.000661703,0.0133056,1294,1758,6.3701,-28.3876
77,-734,6.36621,28.4242,-0.000409551,-0.00137837,-0.00017819,-0.000377817,-0.0014101,-0.176244,0.000842846,0.0187967,1301,1758,6.36615,-28.4242
84,-734,6.35303,28.392,-0.000334971,-0.00163594,-0.000279334,-0.000277531,-0.00169338,-0.202807,0.00104872,0.0163081,1308,1758,6.35301,-28.3919
91,-734,6.36072,28.3608,1.50575e-05,-0.00194088,-0.000320817,6.6334e-05,-0.00199216,-0.158491,0.00135076,0.0172776,1315,1758,6.36067,-28.3609
98,-734,6.36133,28.3647,0.000594606,-0.00213491,-0.000720488,0.000773113,-0.00231342,-0.242868,0.0018545,0.0136716,1322,1758,6.36139,-28.3648
105,-734,6.36084,28.335,0.000877142,-0.00241638,-0.000989315,0.00115147,-0.00269071,-0.27049,0.00227684,0.0154951,1329,1758,6.36085,-28.335
112,-734,6.36389,28.2761,0.00123314,-0.0026187,-0.00120141,0.00157715,-0.0029627,-0.278872,0.00266146,0.013418,1336,1758,6.36385,-28.2761
119,-734,6.33447,28.2197,0.00160403,-0.00270418,-0.00152979,0.00209197,-0.00319212,-0.30876,0.00307273,0.0141616,1343,1758,6.33442,-28.2198
126,-734,6.33704,28.1598,0.00194956,-0.00261452,-0.00194684,0.00266717,-0.00333213,-0.35315,0.00347078,0.0167785,1350,1758,6.33701,-28.1597
133,-734,6.34705,28.106,0.00228692,-0.00231445,-0.00233984,0.0032677,-0.00329523,-0.396918,0.00378912,0.0151033,1357,1758,6.34704,-28.1059
140,-734,6.32227,28.0541,0.00257106,-0.00178182,-0.00274186,0.00389528,-0.00310604,-0.449929,0.00405077,0.0206136,1364,1758,6.32224,-28.0541
147,-734,6.30896,27.998,0.00276359,-0.00132834,-0.00309873,0.00443087,-0.00299561,-0.493621,0.00431429,0.0146195,1371,1758,6.30897,-27.998
154,-734,6.29712,27.9561,0.0028283,-0.000842158,-0.00355954,0.00499787,-0.00301173,-0.547381,0.0046715,0.00950767,1378,1758,6.29708,-27.9561
161,-734,6.29248,27.8865,0.00270252,-0.000344462,-0.00389265,0.00535919,-0.00300114,-0.598873,0.00489042,0.00869455,1385,1758,6.29254,-27.8864
168,-734,6.26892,27.7849,0.00245688,-0.000104009,-0.00396077,0.00533903,-0.00298616,-0.62906,0.00487012,0.013547,1392,1758,6.26891,-27.7849
175,-734,6.28931,27.6841,0.00208528,0.000156996,-0.00391936,0.00515734,-0.00291507,-0.664795,0.00472016,0.0160359,1399,1758,6.28931,-27.6841
182,-734,6.31409,27.5791,0.00154032,0.000464634,-0.00358659,0.00462917,-0.00262422,-0.710973,0.00424074,0.0147934,1406,1758,6.31404,-27.5791
189,-734,6.25952,27.4895,0.00105304,0.000325929,-0.0032175,0.00392746,-0.00254849,-0.72914,0.00376704,0.0111144,1413,1758,6.25947,-27.4895
196,-734,6.22766,27.4012,-0.000119119,7.45833e-05,-0.0031048,0.00308405,-0.00312858,-0.80099,0.00358689,0.0123819,1420,1758,6.22766,-27.4013
203,-734,6.23645,27.2739,-0.00162426,0.000464776,-0.00230823,0.00195382,-0.0031133,-0.997871,0.00295093,0.0149794,1427,1758,6.23648,-27.2739
210,-734,6.21948,27.146,-0.00109998,0.00116665,-0.00272384,0.00298355,-0.00291687,-0.98254,0.00340668,0.0177792,1434,1758,6.21945,-27.1459
217,-734,6.17883,27.0179,-0.000735786,0.00164042,-0.00319516,0.00386123,-0.00295659,-0.963399,0.0039478,0.0131498,1441,1758,6.17883,-27.018
224,-734,6.19629,26.8734,-0.000407662,0.00194174,-0.00363936,0.00459129,-0.00305721,-0.941508,0.00444537,0.0132097,1448,1758,6.19634,-26.8734
231,-734,6.14246,26.7418,-5.35132e-05,0.00227751,-0.00413437,0.00540751,-0.00318351,-0.922787,0.00501513,0.0133975,1455,1758,6.14246,-26.7418
238,-734,6.11316,26.6187,0.00051401,0.00271004,-0.00462282,0.00636346,-0.00313941,-0.901998,0.00559075,0.017543,1462,1758,6.11319,-26.6186
245,-734,6.14294,26.416,0.00118812,0.00333139,-0.00519525,0.00756437,-0.00304487,-0.887108,0.00630779,0.0237484,1469,1758,6.14297,-26.416
252,-734,6.16028,26.2307,0.001554,0.00405886,-0.00573869,0.0086802,-0.00306734,-0.892835,0.00703577,0.0282211,1476,1758,6.16022,-26.2307
259,-734,6.36438,26.1565,0.00161764,0.00501285,-0.00610947,0.00965618,-0.00302569,-0.920912,0.00764819,0.038487,1483,1758,6.36444,-26.1564
266,-734,6.34595,26.116,0,0,0,0,0,0,0,-1,1490,1758,6.34595,-26.1159
273,-734,6.18396,26.1313,0,0,0,0,0,0,0,-1,1497,1758,6.18398,-26.1313
280,-734,16.6191,7.38013,0,0,0,0,0,0,0,-1,1504,1758,16.6192,-7.38011
287,-734,5.59412,25.2128,0,0,0,0,0,0,0,-1,1511,1758,5.59408,-25.2128
294,-734,12.0439,5.7876,0,0,0,0,0,0,0,-1,1518,1758,12.044,-5.78759
301,-734,10.1803,10.5541,0,0,0,0,0,0,0,-1,1525,1758,10.1803,-10.5541
308,-734,9.00854,5.43774,0,0,0,0,0,0,0,-1,1532,1758,9.00857,-5.4377
315,-734,5.3158,17.4298,0,0,0,0,0,0,0,-1,1539,1758,5.31581,-17.4299
322,-734,9.85913,7.48096,0,0,0,0,0,0,0,-1,1546,1758,9.85916,-7.48098
329,-734,5.45972,12.4125,0,0,0,0,0,0,0,-1,1553,1758,5.45969,-12.4125
336,-734,5.92188,13.8751,0,0,0,0,0,0,0,-1,1560,1758,5.92183,-13.8751
343,-734,5.54968,5.14221,0,0,0,0,0,0,0,-1,1567,1758,5.54973,-5.14225
350,-734,5.07397,6.73242,0,0,0,0,0,0,0,-1,1574,1758,5.07402,-6.73243
357,-734,5.05542,7.19189,0,0,0,0,0,0,0,-1,1581,1758,5.05541,-7.19184
364,-734,4.43896,10.4904,0,0,0,0,0,0,0,-1,1588,1758,4.43893,-10.4904
371,-734,7.36975,17.4751,0,0,0,0,0,0,0,-1,1595,1758,7.36972,-17.4752
378,-734,0,0,0,0,0,0,0,0,0,-1,1602,1758,0,0
385,-734,0,0,0,0,0,0,0,0,0,-1,1609,1758,0,0
392,-734,0,0,0,0,0,0,0,0,0,-1,1616,1758,0,0
399,-734,0,0,0,0,0,0,0,0,0,-1,1623,1758,0,0
406,-734,0,0,0,0,0,0,0,0,0,-1,1630,1758,0,0
413,-734,0,0,0,0,0,0,0,0,0,-1,1637,1758,0,0
420,-734,0,0,0,0,0,0,0,0,0,-1,1644,1758,0,0
427,-734,0,0,0,0,0,0,0,0,0,-1,1651,1758,0,0
434,-734,0,0,0,0,0,0,0,0,0,-1,1658,1758,0,0
441,-734,0,0,0,0,0,0,0,0,0,-1,1665,1758,0,0
448,-734,0,0,0,0,0,0,0,0,0,-1,1672,1758,0,0
455,-734,0,0,0,0,0,0,0,0,0,-1,1679,1758,0,0
462,-734,0,0,0,0,0,0,0,0,0,-1,1686,1758,0,0
469,-734,0,0,0,0,0,0,0,0,0,-1,1693,1758,0,0
476,-734,0,0,0,0,0,0,0,0,0,-1,1700,1758,0,0
483,-734,0,0,0,0,0,0,0,0,0,-1,1707,1758,0,0
490,-734,0,0,0,0,0,0,0,0,0,-1,1714,1758,0,0
497,-734,0,0,0,0,0,0,0,0,0,-1,1721,1758,0,0
504,-734,0,0,0,0,0,0,0,0,0,-1,1728,1758,0,0
511,-734,0,0,0,0,0,0,0,0,0,-1,1735,1758,0,0
518,-734,0,0,0,0,0,0,0,0,0,-1,1742,1758,0,0
525,-734,0,0,0,0,0,0,0,0,0,-1,1749,1758,0,0
532,-734,0,0,0,0,0,0,0,0,0,-1,1756,1758,0,0
539,-734,0,0,0,0,0,0,0,0,0,-1,1763,1758,0,0
546,-734,0,0,0,0,0,0,0,0,0,-1,1770,1758,0,0
553,-734,0,0,0,0,0,0,0,0,0,-1,1777,1758,0,0
560,-734,0,0,0,0,0,0,0,0,0,-1,1784,1758,0,0
567,-734,0,0,0,0,0,0,0,0,0,-1,1791,1758,0,0
574,-734,0,0,0,0,0,0,0,0,0,-1,1798,1758,0,0
581,-734,0,0,0,0,0,0,0,0,0,-1,1805,1758,0,0
588,-734,0,0,0,0,0,0,0,0,0,-1,1812,1758,0,0
595,-734,0,0,0,0,0,0,0,0,0,-1,1819,1758,0,0
602,-734,0,0,0,0,0,0,0,0,0,-1,1826,1758,0,0
609,-734,0,0,0,0,0,0,0,0,0,-1,1833,1758,0,0
616,-734,0,0,0,0,0,0,0,0,0,-1,1840,1758,0,0
623,-734,0,0,0,0,0,0,0,0,0,-1,1847,1758,0,0
630,-734,0,0,0,0,0,0,0,0,0,-1,1854,1758,0,0
637,-734,0,0,0,0,0,0,0,0,0,-1,1861,1758,0,0
644,-734,0,0,0,0,0,0,0,0,0,-1,1868,1758,0,0
651,-734,0,0,0,0,0,0,0,0,0,-1,1875,1758,0,0
658,-734,0,0,0,0,0,0,0,0,0,-1,1882,1758,0,0
665,-734,0,0,0,0,0,0,0,0,0,-1,1889,1758,0,0
672,-734,0,0,0,0,0,0,0,0,0,-1,1896,1758,0,0
679,-734,0,0,0,0,0,0,0,0,0,-1,1903,1758,0,0
686,-734,0,0,0,0,0,0,0,0,0,-1,1910,1758,0,0
693,-734,0,0,0,0,0,0,0,0,0,-1,1917,1758,0,0
700,-734,0,0,0,0,0,0,0,0,0,-1,1924,1758,0,0
707,-734,0,0,0,0,0,0,0,0,0,-1,1931,1758,0,0
714,-734,0,0,0,0,0,0,0,0,0,-1,1938,1758,0,0
721,-734,0,0,0,0,0,0,0,0,0,-1,1945,1758,0,0
728,-734,0,0,0,0,0,0,0,0,0,-1,1952,1758,0,0
735,-734,0,0,0,0,0,0,0,0,0,-1,1959,1758,0,0
742,-734,0,0,0,0,0,0,0,0,0,-1,1966,1758,0,0
749,-734,0,0,0,0,0,0,0,0,0,-1,1973,1758,0,0
756,-734,0,0,0,0,0,0,0,0,0,-1,1980,1758,0,0
763,-734,0,0,0,0,0,0,0,0,0,-1,1987,1758,0,0
770,-734,0,0,0,0,0,0,0,0,0,-1,1994,1758,0,0
777,-734,0,0,0,0,0,0,0,0,0,-1,2001,1758,0,0
784,-734,0,0,0,0,0,0,0,0,0,-1,2008,1758,0,0
791,-734,0,0,0,0,0,0,0,0,0,-1,2015,1758,0,0
798,-734,0,0,0,0,0,0,0,0,0,-1,2022,1758,0,0
805,-734,0,0,0,0,0,0,0,0,0,-1,2029,1758,0,0
812,-734,0,0,0,0,0,0,0,0,0,-1,2036,1758,0,0
-700,-741,0,0,0,0,0,0,0,0,0,-1,524,1765,0,0
-693,-741,0,0,0,0,0,0,0,0,0,-1,531,1765,0,0
-686,-741,0,0,0,0,0,0,0,0,0,-1,538,1765,0,0
-679,-741,0,0,0,0,0,0,0,0,0,-1,545,1765,0,0
-672,-741,0,0,0,0,0,0,0,0,0,-1,552,1765,0,0
-665,-741,0,0,0,0,0,0,0,0,0,-1,559,1765,0,0
-658,-741,0,0,0,0,0,0,0,0,0,-1,566,1765,0,0
-651,-741,0,0,0,0,0,0,0,0,0,-1,573,1765,0,0
-644,-741,0,0,0,0,0,0,0,0,0,-1,580,1765,0,0
-637,-741,0,0,0,0,0,0,0,0,0,-1,587,1765,0,0
-630,-741,0,0,0,0,0,0,0,0,0,-1,594,1765,0,0
-623,-741,0,0,0,0,0,0,0,0,0,-1,601,1765,0,0
-616,-741,0,0,0,0,0,0,0,0,0,-1,608,1765,0,0
-609,-741,0,0,0,0,0,0,0,0,0,-1,615,1765,0,0
-602,-741,0,0,0,0,0,0,0,0,0,-1,622,1765,0,0
-595,-741,0,0,0,0,0,0,0,0,0,-1,629,1765,0,0
-588,-741,0,0,0,0,0,0,0,0,0,-1,636,1765,0,0
-581,-741,0,0,0,0,0,0,0,0,0,-1,643,1765,0,0
-574,-741,0,0,0,0,0,0,0,0,0,-1,650,1765,0,0
-567,-741,0,0,0,0,0,0,0,0,0,-1,657,1765,0,0
-560,-741,0,0,0,0,0,0,0,0,0,-1,664,1765,0,0
-553,-741,0,0,0,0,0,0,0,0,0,-1,671,1765,0,0
-546,-741,0,0,0,0,0,0,0,0,0,-1,678,1765,0,0
-539,-741,0,0,0,0,0,0,0,0,0,-1,685,1765,0,0
-532,-741,0,0,0,0,0,0,0,0,0,-1,692,1765,0,0
-525,-741,0,0,0,0,0,0,0,0,0,-1,699,1765,0,0
-518,-741,0,0,0,0,0,0,0,0,0,-1,706,1765,0,0
-511,-741,0,0,0,0,0,0,0,0,0,-1,713,1765,0,0
-504,-741,0,0,0,0,0,0,0,0,0,-1,720,1765,0,0
-497,-741,0,0,0,0,0,0,0,0,0,-1,727,1765,0,0
-490,-741,0,0,0,0,0,0,0,0,0,-1,734,1765,0,0
-483,-741,0,0,0,0,0,0,0,0,0,-1,741,1765,0,0
-476,-741,0,0,0,0,0,0,0,0,0,-1,748,1765,0,0
-469,-741,0,0,0,0,0,0,0,0,0,-1,755,1765,0,0
-462,-741,0,0,0,0,0,0,0,0,0,-1,762,1765,0,0
-455,-741,0,0,0,0,0,0,0,0,0,-1,769,1765,0,0
-448,-741,0,0,0,0,0,0,0,0,0,-1,776,1765,0,0
-441,-741,0,0,0,0,0,0,0,0,0,-1,783,1765,0,0
-434,-741,0,0,0,0,0,0,0,0,0,-1,790,1765,0,0
-427,-741,0,0,0,0,0,0,0,0,0,-1,797,1765,0,0
-420,-741,0,0,0,0,0,0,0,0,0,-1,804,1765,0,0
-413,-741,0,0,0,0,0,0,0,0,0,-1,811,1765,0,0
-406,-741,0,0,0,0,0,0,0,0,0,-1,818,1765,0,0
-399,-741,0,0,0,0,0,0,0,0,0,-1,825,1765,0,0
-392,-741,0,0,0,0,0,0,0,0,0,-1,832,1765,0,0
-385,-741,0,0,0,0,0,0,0,0,0,-1,839,1765,0,0
-378,-741,0,0,0,0,0,0,0,0,0,-1,846,1765,0,0
-371,-741,0,0,0,0,0,0,0,0,0,-1,853,1765,0,0
-364,-741,0,0,0,0,0,0,0,0,0,-1,860,1765,0,0
-357,-741,0,0,0,0,0,0,0,0,0,-1,867,1765,0,0
-350,-741,0,0,0,0,0,0,0,0,0,-1,874,1765,0,0
-343,-741,0,0,0,0,0,0,0,0,0,-1,881,1765,0,0
-336,-741,0,0,0,0,0,0,0,0,0,-1,888,1765,0,0
-329,-741,0,0,0,0,0,0,0,0,0,-1,895,1765,0,0
-322,-741,0,0,0,0,0,0,0,0,0,-1,902,1765,0,0
-315,-741,0,0,0,0,0,0,0,0,0,-1,909,1765,0,0
-308,-741,0,0,0,0,0,0,0,0,0,-1,916,1765,0,0
-301,-741,0,0,0,0,0,0,0,0,0,-1,923,1765,0,0
-294,-741,0,0,0,0,0,0,0,0,0,-1,930,1765,0,0
-287,-741,0,0,0,0,0,0,0,0,0,-1,937,1765,0,0
-280,-741,0,0,0,0,0,0,0,0,0,-1,944,1765,0,0
-273,-741,0,0,0,0,0,0,0,0,0,-1,951,1765,0,0
-266,-741,0,0,0,0,0,0,0,0,0,-1,958,1765,0,0
-259,-741,0,0,0,0,0,0,0,0,0,-1,965,1765,0,0
-252,-741,0,0,0,0,0,0,0,0,0,-1,972,1765,0,0
-245,-741,0,0,0,0,0,0,0,0,0,-1,979,1765,0,0
-238,-741,5.63202,14.9113,0,0,0,0,0,0,0,-1,986,1765,5.632,-14.9112
-231,-741,6.10602,15.245,0,0,0,0,0,0,0,-1,993,1765,6.10605,-15.245
-224,-741,6.60541,15.9323,0,0,0,0,0,0,0,-1,1000,1765,6.60538,-15.9323
-217,-741,6.99121,16.5245,0,0,0,0,0,0,0,-1,1007,1765,6.99118,-16.5245
-210,-741,5.80957,23.4917,0,0,0,0,0,0,0,-1,1014,1765,5.8096,-23.4917
-203,-741,5.50122,22.6226,0,0,0,0,0,0,0,-1,1021,1765,5.50125,-22.6225
-196,-741,5.14233,21.7794,0,0,0,0,0,0,0,-1,1028,1765,5.1423,-21.7795
-189,-741,4.28918,20.7313,0,0,0,0,0,0,0,-1,1035,1765,4.28921,-20.7314
-182,-741,3.81775,21.2374,0,0,0,0,0,0,0,-1,1042,1765,3.81779,-21.2375
-175,-741,3.34644,21.7435,0,0,0,0,0,0,0,-1,1049,1765,3.34638,-21.7435
-168,-741,5.4801,16.3933,0,0,0,0,0,0,0,-1,1056,1765,5.4801,-16.3933
-161,-741,3.73047,14.4974,0,0,0,0,0,0,0,-1,1063,1765,3.73043,-14.4974
-154,-741,2.46143,9.75415,0,0,0,0,0,0,0,-1,1070,1765,2.46145,-9.75416
-147,-741,7.52014,25.963,0,0,0,0,0,0,0,-1,1077,1765,7.52016,-25.963
-140,-741,7.25867,24.812,0,0,0,0,0,0,0,-1,1084,1765,7.25862,-24.812
-133,-741,7.25061,25.7471,0,0,0,0,0,0,0,-1,1091,1765,7.25061,-25.7471
-126,-741,6.83826,25.7605,0,0,0,0,0,0,0,-1,1098,1765,6.83822,-25.7605
-119,-741,6.6991,26.0592,0,0,0,0,0,0,0,-1,1105,1765,6.69905,-26.0592
-112,-741,6.59485,26.1765,0,0,0,0,0,0,0,-1,1112,1765,6.59488,-26.1765
-105,-741,6.75745,26.219,0,0,0,0,0,0,0,-1,1119,1765,6.75744,-26.2191
-98,-741,6.8335,26.3605,0,0,0,0,0,0,0,-1,1126,1765,6.83347,-26.3605
-91,-741,6.72107,26.467,0,0,0,0,0,0,0,-1,1133,1765,6.72108,-26.467
-84,-741,6.62463,26.4825,0,0,0,0,0,0,0,-1,1140,1765,6.62463,-26.4825
-77,-741,6.66528,26.543,0,0,0,0,0,0,0,-1,1147,1765,6.66527,-26.543
-70,-741,6.54346,26.6351,0,0,0,0,0,0,0,-1,1154,1765,6.54343,-26.6352
-63,-741,6.47253,26.8864,0,0,0,0,0,0,0,-1,1161,1765,6.47255,-26.8864
-56,-741,6.63062,27.2745,0,0,0,0,0,0,0,-1,1168,1765,6.63059,-27.2746
-49,-741,6.60266,27.4634,0,0,0,0,0,0,0,-1,1175,1765,6.60265,-27.4634
-42,-741,6.56885,27.5375,0,0,0,0,0,0,0,-1,1182,1765,6.56882,-27.5375
-35,-741,6.55591,27.592,-0.00768779,-0.00154533,0.000141558,-0.00154207,-0.00769105,1.54777,0.00469847,0.0237679,1189,1765,6.55587,-27.592
-28,-741,6.57275,27.7076,-0.00634913,-0.0019146,0.000462861,-0.00186681,-0.00639693,1.4679,0.00379847,0.0151758,1196,1765,6.57274,-27.7077
-21,-741,6.58789,27.7894,-0.00528444,-0.00226137,0.000798521,-0.00206341,-0.0054824,1.32779,0.00319735,0.0190075,1203,1765,6.58791,-27.7894
-14,-741,6.53979,27.8921,-0.00474303,-0.00256234,0.00116705,-0.00205555,-0.00524982,1.16111,0.00305466,0.019273,1210,1765,6.5398,-27.892
-7,-741,6.52856,27.9684,-0.00405776,-0.00280855,0.00157986,-0.0017343,-0.00513201,0.973646,0.0030144,0.0156617,1217,1765,6.52852,-27.9684
0,-741,6.50989,28.0175,-0.00319795,-0.00293505,0.00205016,-0.00101213,-0.00512087,0.817412,0.00313154,0.015315,1224,1765,6.50994,-28.0175
7,-741,6.46924,28.0822,-0.00237341,-0.00304701,0.00238349,-0.00030304,-0.00511738,0.715211,0.00331519,0.0173893,1231,1765,6.46928,-28.0821
14,-741,6.45581,28.1523,-0.0016741,-0.0031404,0.00256865,0.000263977,-0.00507848,0.646384,0.00347699,0.0164369,1238,1765,6.45586,-28.1523
21,-741,6.44421,28.1946,-0.00105521,-0.00315043,0.00264853,0.00074537,-0.00495101,0.597069,0.00357512,0.0127446,1245,1765,6.44424,-28.1946
28,-741,6.41455,28.2405,-0.00061656,-0.00305127,0.00259092,0.00102874,-0.00469657,0.565777,0.00352437,0.0131254,1252,1765,6.41457,-28.2405
35,-741,6.4209,28.2828,-0.000361624,-0.00296253,0.00243544,0.00109882,-0.00442297,0.540172,0.00337508,0.0144804,1259,1765,6.42093,-28.2828
42,-741,6.42639,28.3177,-0.000189012,-0.00269714,0.00226785,0.00114841,-0.00403456,0.532836,0.00314324,0.0146707,1266,1765,6.42639,-28.3177
49,-741,6.41064,28.3524,-0.000160863,-0.00252553,0.00212091,0.00108501,-0.0037714,0.53112,0.00294337,0.00997463,1273,1765,6.4107,-28.3524
56,-741,6.38831,28.3573,-1.56414e-05,-0.00239717,0.0019636,0.00109004,-0.00350285,0.512836,0.00277099,0.0096158,1280,1765,6.38826,-28.3573
63,-741,6.38013,28.3585,-2.26973e-06,-0.0023708,0.00158281,0.000790275,-0.00316335,0.464223,0.0024158,0.0133849,1287,1765,6.38015,-28.3585
70,-741,6.36487,28.3848,-0.00017231,-0.00253412,0.00119705,0.000328293,-0.00303473,0.396094,0.00214099,0.0169785,1294,1765,6.36492,-28.3848
77,-741,6.35669,28.3977,-0.000822158,-0.00274153,0.000955321,-0.000427727,-0.00313596,0.391559,0.00196366,0.0148414,1301,1765,6.35667,-28.3976
84,-741,6.33044,28.3896,-0.00120804,-0.00292078,0.000787103,-0.000901266,-0.00322755,0.371638,0.00192302,0.0160159,1308,1765,6.3304,-28.3897
91,-741,6.32043,28.3779,-0.000703958,-0.00318501,0.000649439,-0.000544243,-0.00334473,0.241143,0.00207236,0.0135697,1315,1765,6.32046,-28.378
98,-741,6.31445,28.3474,0.000134411,-0.00324403,-1.02027e-05,0.000134442,-0.00324406,-0.0030199,0.00220889,0.010574,1322,1765,6.3145,-28.3475
105,-741,6.31323,28.3025,0.000551688,-0.0034557,-0.000557519,0.000627806,-0.00353182,-0.135691,0.00258931,0.0106453,1329,1765,6.31325,-28.3025
112,-741,6.3335,28.2467,0.00109269,-0.0036284,-0.00109838,0.00133572,-0.00387143,-0.217755,0.00312291,0.0108522,1336,1765,6.33346,-28.2467
119,-741,6.32153,28.1917,0.00174459,-0.00370261,-0.0018288,0.00230162,-0.00425963,-0.295659,0.00384395,0.0139978,1343,1765,6.32151,-28.1917
126,-741,6.29077,28.146,0.00237764,-0.00360559,-0.0026695,0.00339551,-0.00462346,-0.364279,0.00464781,0.0194989,1350,1765,6.29073,-28.146
133,-741,6.28662,28.1145,0.00302009,-0.00327395,-0.00346908,0.0045569,-0.00481077,-0.417019,0.00540909,0.014995,1357,1765,6.28664,-28.1145
140,-741,6.26672,28.0752,0.00364771,-0.00262072,-0.00424794,0.00579254,-0.00476555,-0.467568,0.00610532,0.0116043,1364,1765,6.26671,-28.0751
147,-741,6.25354,28.0183,0.00413637,-0.00205881,-0.00485445,0.00679732,-0.00471976,-0.501419,0.00668535,0.0100714,1371,1765,6.25356,-28.0183
154,-741,6.24341,27.9712,0.00443449,-0.0013957,-0.00551537,0.00775775,-0.00471896,-0.542289,0.0072743,0.00788872,1378,1765,6.24339,-27.9712
161,-741,6.229,27.8939,0.00444855,-0.000738607,-0.0060093,0.00840007,-0.00469013,-0.581677,0.00765814,0.0098934,1385,1765,6.22903,-27.8939
168,-741,6.2135,27.8013,0.00419889,-0.00039332,-0.00606894,0.00839156,-0.00458599,-0.604551,0.00759921,0.0240333,1392,1765,6.21354,-27.8013
175,-741,6.1969,27.7335,0,0,0,0,0,0,0,-1,1399,1765,6.19686,-27.7335
182,-741,6.203,27.5726,0,0,0,0,0,0,0,-1,1406,1765,6.20296,-27.5727
189,-741,6.16516,27.5037,0,0,0,0,0,0,0,-1,1413,1765,6.16515,-27.5037
196,-741,6.12146,27.4298,0,0,0,0,0,0,0,-1,1420,1765,6.12151,-27.4298
203,-741,6.12134,27.2684,0,0,0,0,0,0,0,-1,1427,1765,6.12139,-27.2684
210,-741,6.10266,27.0591,0,0,0,0,0,0,0,-1,1434,1765,6.10269,-27.0591
217,-741,6.15698,26.947,0,0,0,0,0,0,0,-1,1441,1765,6.15702,-26.947
224,-741,6.14832,26.6854,0,0,0,0,0,0,0,-1,1448,1765,6.14833,-26.6854
231,-741,6.08569,26.7115,-0.000236139,0.00302561,-0.00563486,0.00726085,-0.00447138,-0.926262,0.00683713,0.0416708,1455,1765,6.08572,-26.7115
238,-741,6.00598,26.6886,0.000602303,0.00363034,-0.00634896,0.00864331,-0.00441066,-0.902446,0.00766764,0.0401218,1462,1765,6.00601,-26.6886
245,-741,6.00964,26.5308,0.00156856,0.00445095,-0.00715084,0.0103044,-0.00428487,-0.884837,0.0086588,0.0465636,1469,1765,6.00961,-26.5308
252,-741,6.0376,25.9192,0.00222289,0.00544113,-0.00792612,0.0119198,-0.0042558,-0.885544,0.00968211,0.0483507,1476,1765,6.03757,-25.9192
259,-741,6.41492,25.8846,0,0,0,0,0,0,0,-1,1483,1765,6.41486,-25.8847
266,-741,6.37451,25.1742,0,0,0,0,0,0,0,-1,1490,1765,6.37449,-25.1742
273,-741,17.0328,7.54468,0,0,0,0,0,0,0,-1,1497,1765,17.0328,-7.54474
280,-741,16.2363,9.84546,0,0,0,0,0,0,0,-1,1504,1765,16.2363,-9.84547
287,-741,14.5045,8.71423,0,0,0,0,0,0,0,-1,1511,1765,14.5045,-8.71429
294,-741,11.6001,7.95422,0,0,0,0,0,0,0,-1,1518,1765,11.6001,-7.95423
301,-741,11.036,7.02612,0,0,0,0,0,0,0,-1,1525,1765,11.036,-7.02617
308,-741,10.4718,6.09814,0,0,0,0,0,0,0,-1,1532,1765,10.4718,-6.0981
315,-741,9.70715,6.86963,0,0,0,0,0,0,0,-1,1539,1765,9.70712,-6.86963
322,-741,9.21252,8.54858,0,0,0,0,0,0,0,-1,1546,1765,9.21251,-8.54858
329,-741,8.5603,10.1146,0,0,0,0,0,0,0,-1,1553,1765,8.56033,-10.1146
336,-741,4.74475,14.6453,0,0,0,0,0,0,0,-1,1560,1765,4.7447,-14.6452
343,-741,5.42297,5.93701,0,0,0,0,0,0,0,-1,1567,1765,5.42296,-5.937
350,-741,4.90369,5.44666,0,0,0,0,0,0,0,-1,1574,1765,4.90368,-5.44664
357,-741,4.02063,5.16626,0,0,0,0,0,0,0,-1,1581,1765,4.02058,-5.1662
364,-741,0,0,0,0,0,0,0,0,0,-1,1588,1765,0,0
371,-741,0,0,0,0,0,0,0,0,0,-1,1595,1765,0,0
378,-741,0,0,0,0,0,0,0,0,0,-1,1602,1765,0,0
385,-741,0,0,0,0,0,0,0,0,0,-1,1609,1765,0,0
392,-741,0,0,0,0,0,0,0,0,0,-1,1616,1765,0,0
399,-741,0,0,0,0,0,0,0,0,0,-1,1623,1765,0,0
406,-741,0,0,0,0,0,0,0,0,0,-1,1630,1765,0,0
413,-741,0,0,0,0,0,0,0,0,0,-1,1637,1765,0,0
420,-741,0,0,0,0,0,0,0,0,0,-1,1644,1765,0,0
427,-741,0,0,0,0,0,0,0,0,0,-1,1651,1765,0,0
434,-741,0,0,0,0,0,0,0,0,0,-1,1658,1765,0,0
441,-741,0,0,0,0,0,0,0,0,0,-1,1665,1765,0,0
448,-741,0,0,0,0,0,0,0,0,0,-1,1672,1765,0,0
455,-741,0,0,0,0,0,0,0,0,0,-1,1679,1765,0,0
462,-741,0,0,0,0,0,0,0,0,0,-1,1686,1765,0,0
469,-741,0,0,0,0,0,0,0,0,0,-1,1693,1765,0,0
476,-741,0,0,0,0,0,0,0,0,0,-1,1700,1765,0,0
483,-741,0,0,0,0,0,0,0,0,0,-1,1707,1765,0,0
490,-741,0,0,0,0,0,0,0,0,0,-1,1714,1765,0,0
497,-741,0,0,0,0,0,0,0,0,0,-1,1721,1765,0,0
504,-741,0,0,0,0,0,0,0,0,0,-1,1728,1765,0,0
511,-741,0,0,0,0,0,0,0,0,0,-1,1735,1765,0,0
518,-741,0,0,0,0,0,0,0,0,0,-1,1742,1765,0,0
525,-741,0,0,0,0,0,0,0,0,0,-1,1749,1765,0,0
532,-741,0,0,0,0,0,0,0,0,0,-1,1756,1765,0,0
539,-741,0,0,0,0,0,0,0,0,0,-1,1763,1765,0,0
546,-741,0,0,0,0,0,0,0,0,0,-1,1770,1765,0,0
553,-741,0,0,0,0,0,0,0,0,0,-1,1777,1765,0,0
560,-741,0,0,0,0,0,0,0,0,0,-1,1784,1765,0,0
567,-741,0,0,0,0,0,0,0,0,0,-1,1791,1765,0,0
574,-741,0,0,0,0,0,0,0,0,0,-1,1798,1765,0,0
581,-741,0,0,0,0,0,0,0,0,0,-1,1805,1765,0,0
588,-741,0,0,0,0,0,0,0,0,0,-1,1812,1765,0,0
595,-741,0,0,0,0,0,0,0,0,0,-1,1819,1765,0,0
602,-741,0,0,0,0,0,0,0,0,0,-1,1826,1765,0,0
609,-741,0,0,0,0,0,0,0,0,0,-1,1833,1765,0,0
616,-741,0,0,0,0,0,0,0,0,0,-1,1840,1765,0,0
623,-741,0,0,0,0,0,0,0,0,0,-1,1847,1765,0,0
630,-741,0,0,0,0,0,0,0,0,0,-1,1854,1765,0,0
637,-741,0,0,0,0,0,0,0,0,0,-1,1861,1765,0,0
644,-741,0,0,0,0,0,0,0,0,0,-1,1868,1765,0,0
651,-741,0,0,0,0,0,0,0,0,0,-1,1875,1765,0,0
658,-741,0,0,0,0,0,0,0,0,0,-1,1882,1765,0,0
665,-741,0,0,0,0,0,0,0,0,0,-1,1889,1765,0,0
672,-741,0,0,0,0,0,0,0,0,0,-1,1896,1765,0,0
679,-741,0,0,0,0,0,0,0,0,0,-1,1903,1765,0,0
686,-741,0,0,0,0,0,0,0,0,0,-1,1910,1765,0,0
693,-741,0,0,0,0,0,0,0,0,0,-1,1917,1765,0,0
700,-741,0,0,0,0,0,0,0,0,0,-1,1924,1765,0,0
707,-741,0,0,0,0,0,0,0,0,0,-1,1931,1765,0,0
714,-741,0,0,0,0,0,0,0,0,0,-1,1938,1765,0,0
721,-741,0,0,0,0,0,0,0,0,0,-1,1945,1765,0,0
728,-741,0,0,0,0,0,0,0,0,0,-1,1952,1765,0,0
735,-741,0,0,0,0,0,0,0,0,0,-1,1959,1765,0,0
742,-741,0,0,0,0,0,0,0,0,0,-1,1966,1765,0,0
749,-741,0,0,0,0,0,0,0,0,0,-1,1973,1765,0,0
756,-741,0,0,0,0,0,0,0,0,0,-1,1980,1765,0,0
763,-741,0,0,0,0,0,0,0,0,0,-1,1987,1765,0,0
770,-741,0,0,0,0,0,0,0,0,0,-1,1994,1765,0,0
777,-741,0,0,0,0,0,0,0,0,0,-1,2001,1765,0,0
784,-741,0,0,0,0,0,0,0,0,0,-1,2008,1765,0,0
791,-741,0,0,0,0,0,0,0,0,0,-1,2015,1765,0,0
798,-741,0,0,0,0,0,0,0,0,0,-1,2022,1765,0,0
805,-741,0,0,0,0,0,0,0,0,0,-1,2029,1765,0,0
812,-741,0,0,0,0,0,0,0,0,0,-1,2036,1765,0,0
-700,-748,0,0,0,0,0,0,0,0,0,-1,524,1772,0,0
-693,-748,0,0,0,0,0,0,0,0,0,-1,531,1772,0,0
-686,-748,0,0,0,0,0,0,0,0,0,-1,538,1772,0,0
-679,-748,0,0,0,0,0,0,0,0,0,-1,545,1772,0,0
-672,-748,0,0,0,0,0,0,0,0,0,-1,552,1772,0,0
-665,-748,0,0,0,0,0,0,0,0,0,-1,559,1772,0,0
-658,-748,0,0,0,0,0,0,0,0,0,-1,566,1772,0,0
-651,-748,0,0,0,0,0,0,0,0,0,-1,573,1772,0,0
-644,-748,0,0,0,0,0,0,0,0,0,-1,580,1772,0,0
-637,-748,0,0,0,0,0,0,0,0,0,-1,587,1772,0,0
-630,-748,0,0,0,0,0,0,0,0,0,-1,594,1772,0,0
-623,-748,0,0,0,0,0,0,0,0,0,-1,601,1772,0,0
-616,-748,0,0,0,0,0,0,0,0,0,-1,608,1772,0,0
-609,-748,0,0,0,0,0,0,0,0,0,-1,615,1772,0,0
-602,-748,0,0,0,0,0,0,0,0,0,-1,622,1772,0,0
-595,-748,0,0,0,0,0,0,0,0,0,-1,629,1772,0,0
-588,-748,0,0,0,0,0,0,0,0,0,-1,636,1772,0,0
-581,-748,0,0,0,0,0,0,0,0,0,-1,643,1772,0,0
-574,-748,0,0,0,0,0,0,0,0,0,-1,650,1772,0,0
-567,-748,0,0,0,0,0,0,0,0,0,-1,657,1772,0,0
-560,-748,0,0,0,0,0,0,0,0,0,-1,664,1772,0,0
-553,-748,0,0,0,0,0,0,0,0,0,-1,671,1772,0,0
-546,-748,0,0,0,0,0,0,0,0,0,-1,678,1772,0,0
-539,-748,0,0,0,0,0,0,0,0,0,-1,685,1772,0,0
-532,-748,0,0,0,0,0,0,0,0,0,-1,692,1772,0,0
-525,-748,0,0,0,0,0,0,0,0,0,-1,699,1772,0,0
-518,-748,0,0,0,0,0,0,0,0,0,-1,706,1772,0,0
-511,-748,0,0,0,0,0,0,0,0,0,-1,713,1772,0,0
-504,-748,0,0,0,0,0,0,0,0,0,-1,720,1772,0,0
-497,-748,0,0,0,0,0,0,0,0,0,-1,727,1772,0,0
-490,-748,0,0,0,0,0,0,0,0,0,-1,734,1772,0,0
-483,-748,0,0,0,0,0,0,0,0,0,-1,741,1772,0,0
-476,-748,0,0,0,0,0,0,0,0,0,-1,748,1772,0,0
-469,-748,0,0,0,0,0,0,0,0,0,-1,755,1772,0,0
-462,-748,0,0,0,0,0,0,0,0,0,-1,762,1772,0,0
-455,-748,0,0,0,0,0,0,0,0,0,-1,769,1772,0,0
-448,-748,0,0,0,0,0,0,0,0,0,-1,776,1772,0,0
-441,-748,0,0,0,0,0,0,0,0,0,-1,783,1772,0,0
-434,-748,0,0,0,0,0,0,0,0,0,-1,790,1772,0,0
-427,-748,0,0,0,0,0,0,0,0,0,-1,797,1772,0,0
-420,-748,0,0,0,0,0,0,0,0,0,-1,804,1772,0,0
-413,-748,0,0,0,0,0,0,0,0,0,-1,811,1772,0,0
-406,-748,0,0,0,0,0,0,0,0,0,-1,818,1772,0,0
-399,-748,0,0,0,0,0,0,0,0,0,-1,825,1772,0,0
-392,-748,0,0,0,0,0,0,0,0,0,-1,832,1772,0,0
-385,-748,0,0,0,0,0,0,0,0,0,-1,839,1772,0,0
-378,-748,0,0,0,0,0,0,0,0,0,-1,846,1772,0,0
-371,-748,0,0,0,0,0,0,0,0,0,-1,853,1772,0,0
-364,-748,0,0,0,0,0,0,0,0,0,-1,860,1772,0,0
-357,-748,0,0,0,0,0,0,0,0,0,-1,867,1772,0,0
-350,-748,0,0,0,0,0,0,0,0,0,-1,874,1772,0,0
-343,-748,0,0,0,0,0,0,0,0,0,-1,881,1772,0,0
-336,-748,0,0,0,0,0,0,0,0,0,-1,888,1772,0,0
-329,-748,0,0,0,0,0,0,0,0,0,-1,895,1772,0,0
-322,-748,0,0,0,0,0,0,0,0,0,-1,902,1772,0,0
-315,-748,0,0,0,0,0,0,0,0,0,-1,909,1772,0,0
-308,-748,0,0,0,0,0,0,0,0,0,-1,916,1772,0,0
-301,-748,0,0,0,0,0,0,0,0,0,-1,923,1772,0,0
-294,-748,0,0,0,0,0,0,0,0,0,-1,930,1772,0,0
-287,-748,0,0,0,0,0,0,0,0,0,-1,937,1772,0,0
-280,-748,0,0,0,0,0,0,0,0,0,-1,944,1772,0,0
-273,-748,0,0,0,0,0,0,0,0,0,-1,951,1772,0,0
-266,-748,0,0,0,0,0,0,0,0,0,-1,958,1772,0,0
-259,-748,0,0,0,0,0,0,0,0,0,-1,965,1772,0,0
-252,-748,0,0,0,0,0,0,0,0,0,-1,972,1772,0,0
-245,-748,0,0,0,0,0,0,0,0,0,-1,979,1772,0,0
-238,-748,0,0,0,0,0,0,0,0,0,-1,986,1772,0,0
-231,-748,0,0,0,0,0,0,0,0,0,-1,993,1772,0,0
-224,-748,0,0,0,0,0,0,0,0,0,-1,1000,1772,0,0
-217,-748,6.45807,16.5496,0,0,0,0,0,0,0,-1,1007,1772,6.45805,-16.5495
-210,-748,5.46893,25.1432,0,0,0,0,0,0,0,-1,1014,1772,5.4689,-25.1432
-203,-748,5.40662,24.1573,0,0,0,0,0,0,0,-1,1021,1772,5.40657,-24.1574
-196,-748,5.15344,22.8755,0,0,0,0,0,0,0,-1,1028,1772,5.15342,-22.8754
-189,-748,4.52478,21.7634,0,0,0,0,0,0,0,-1,1035,1772,4.52475,-21.7634
-182,-748,3.94958,20.8662,0,0,0,0,0,0,0,-1,1042,1772,3.94959,-20.8662
-175,-748,3.56726,19.4518,0,0,0,0,0,0,0,-1,1049,1772,3.5673,-19.4518
-168,-748,3.04858,18.0109,0,0,0,0,0,0,0,-1,1056,1772,3.04853,-18.0108
-161,-748,3.50562,13.2729,0,0,0,0,0,0,0,-1,1063,1772,3.5056,-13.2729
-154,-748,-3.38562,10.6989,0,0,0,0,0,0,0,-1,1070,1772,-3.38564,-10.6989
-147,-748,-6.38733,11.0702,0,0,0,0,0,0,0,-1,1077,1772,-6.38731,-11.0702
-140,-748,7.42126,23.8113,0,0,0,0,0,0,0,-1,1084,1772,7.42133,-23.8113
-133,-748,7.44727,22.0308,0,0,0,0,0,0,0,-1,1091,1772,7.44728,-22.0308
-126,-748,5.98035,22.6067,0,0,0,0,0,0,0,-1,1098,1772,5.9803,-22.6067
-119,-748,6.16589,24.6422,0,0,0,0,0,0,0,-1,1105,1772,6.16593,-24.6422
-112,-748,6.91333,24.923,0,0,0,0,0,0,0,-1,1112,1772,6.91339,-24.923
-105,-748,6.83313,25.0537,0,0,0,0,0,0,0,-1,1119,1772,6.83311,-25.0537
-98,-748,6.99341,13.5935,0,0,0,0,0,0,0,-1,1126,1772,6.99343,-13.5935
-91,-748,4.85352,15.3033,0,0,0,0,0,0,0,-1,1133,1772,4.85351,-15.3033
-84,-748,-0.192017,7.26196,0,0,0,0,0,0,0,-1,1140,1772,-0.192047,-7.26201
-77,-748,4.42615,13.5537,0,0,0,0,0,0,0,-1,1147,1772,4.4261,-13.5538
-70,-748,4.46191,13.7446,0,0,0,0,0,0,0,-1,1154,1772,4.4619,-13.7446
-63,-748,4.49768,13.9355,0,0,0,0,0,0,0,-1,1161,1772,4.49769,-13.9355
-56,-748,3.05762,7.87817,0,0,0,0,0,0,0,-1,1168,1772,3.05768,-7.87822
-49,-748,3.04102,7.82471,0,0,0,0,0,0,0,-1,1175,1772,3.04096,-7.82468
-42,-748,0.793457,14.9474,0,0,0,0,0,0,0,-1,1182,1772,0.793413,-14.9474
-35,-748,6.70532,27.5438,0,0,0,0,0,0,0,-1,1189,1772,6.70529,-27.5438
-28,-748,6.67322,27.744,-0.0114254,-0.00371666,-0.000263891,-0.00370764,-0.0114344,-1.53662,0.00673622,0.0489084,1196,1772,6.67328,-27.7441
-21,-748,6.67615,27.8346,-0.00810315,-0.00385262,0.000404317,-0.0038145,-0.00814127,1.4768,0.00470346,0.0228175,1203,1772,6.67617,-27.8345
-14,-748,6.61218,27.8706,-0.00668874,-0.00402478,0.00116234,-0.00358894,-0.00712459,1.21205,0.00411342,0.0171062,1210,1772,6.61218,-27.8707
-7,-748,6.59045,27.937,-0.0048853,-0.00417434,0.00192494,-0.00257233,-0.00648731,0.876705,0.00377209,0.0166772,1217,1772,6.59049,-27.937
0,-748,6.5636,28.0095,-0.00278216,-0.00424348,0.00269305,-0.000722415,-0.00630323,0.65293,0.00398324,0.0163761,1224,1772,6.56355,-28.0095
7,-748,6.5354,28.0608,-0.000719926,-0.00432662,0.00325615,0.0011989,-0.00624545,0.53251,0.00461547,0.0145119,1231,1772,6.53544,-28.0608
14,-748,6.49854,28.144,0.00107915,-0.00440009,0.00360655,0.00286863,-0.00618957,0.460582,0.00534563,0.0147887,1238,1772,6.49853,-28.144
21,-748,6.48108,28.1837,0.00259822,-0.00437893,0.00378763,0.00425904,-0.00603975,0.413237,0.00597556,0.0110221,1245,1772,6.48111,-28.1837
28,-748,6.47083,28.2465,0.00365823,-0.00422209,0.00375673,0.00516214,-0.00572599,0.380785,0.00628908,0.0112178,1252,1772,6.47078,-28.2465
35,-748,6.45947,28.2712,0.00417628,-0.00412665,0.00359761,0.00551822,-0.00546859,0.357023,0.00634326,0.0124932,1259,1772,6.45951,-28.2712
42,-748,6.46057,28.3068,0.00439318,-0.00381803,0.00344376,0.00564625,-0.0050711,0.348976,0.00619064,0.0132054,1266,1772,6.46052,-28.3068
49,-748,6.4325,28.3311,0.00412491,-0.00361827,0.00330319,0.00534255,-0.00483591,0.353171,0.00587896,0.0104226,1273,1772,6.43245,-28.3311
56,-748,6.39551,28.349,0.00400781,-0.0034841,0.00312331,0.00513908,-0.00461536,0.347502,0.00563443,0.0103538,1280,1772,6.39548,-28.3489
63,-748,6.37769,28.3433,0.00355983,-0.00350632,0.00254933,0.00438355,-0.00433005,0.312526,0.00503083,0.0119822,1287,1772,6.37765,-28.3432
70,-748,6.36804,28.3674,0.00261161,-0.00373783,0.00192475,0.00314951,-0.00427573,0.27251,0.00430337,0.0135278,1294,1772,6.36801,-28.3674
77,-748,6.36011,28.3832,0.00024749,-0.0040537,0.00151119,0.000725346,-0.00453156,0.306263,0.00328958,0.0133076,1301,1772,6.36011,-28.3831
84,-748,6.32507,28.376,-0.00202303,-0.00434861,0.00129795,-0.00144319,-0.00492844,0.420134,0.00292572,0.0147634,1308,1772,6.32502,-28.3759
91,-748,6.31079,28.3689,-0.00127542,-0.00470791,0.00110497,-0.000950474,-0.00503286,0.286014,0.00308757,0.0118043,1315,1772,6.31079,-28.3689
98,-748,6.29224,28.3259,-6.30083e-05,-0.00473372,0.000209376,-5.36412e-05,-0.00474309,0.0447079,0.00314433,0.0104309,1322,1772,6.29221,-28.3259
105,-748,6.27588,28.2732,0.000556997,-0.00496093,-0.000545151,0.000610341,-0.00501428,-0.0975398,0.00356376,0.0113249,1329,1772,6.27587,-28.2732
112,-748,6.29065,28.2559,0.00138015,-0.00516894,-0.00131898,0.00163581,-0.0054246,-0.191458,0.00426749,0.0140972,1336,1772,6.29067,-28.2558
119,-748,6.28967,28.2142,0.00240316,-0.00524168,-0.00238306,0.00308517,-0.00592368,-0.278739,0.00528662,0.0127733,1343,1772,6.28972,-28.2142
126,-748,6.25586,28.1821,0.00340672,-0.00509663,-0.00363756,0.00475045,-0.00644037,-0.353857,0.00648553,0.0150846,1350,1772,6.25584,-28.1822
133,-748,6.21094,28.1372,0.00448183,-0.00464423,-0.00486047,0.00658554,-0.00674794,-0.408476,0.00769828,0.00940385,1357,1772,6.21092,-28.1372
140,-748,6.21704,28.0851,0.0056109,-0.00375662,-0.00607021,0.00859428,-0.00674001,-0.456808,0.00887481,0.0118225,1364,1772,6.2171,-28.0851
147,-748,6.22571,28.0137,0.0065831,-0.00298833,-0.00701629,0.0102904,-0.00669564,-0.486097,0.00987983,0.0127404,1371,1772,6.22573,-28.0137
154,-748,6.18079,27.9453,0.00734,-0.00205572,-0.00804989,0.0119626,-0.0066783,-0.521264,0.0109055,0.0113309,1378,1772,6.18077,-27.9453
161,-748,6.1427,27.9091,0.00769958,-0.00102452,-0.00883492,0.0131906,-0.00651555,-0.556089,0.0115929,0.018342,1385,1772,6.14266,-27.909
168,-748,6.15991,27.835,0,0,0,0,0,0,0,-1,1392,1772,6.15986,-27.835
175,-748,11.6235,16.8242,0,0,0,0,0,0,0,-1,1399,1772,11.6236,-16.8242
182,-748,7.62476,10.3058,0,0,0,0,0,0,0,-1,1406,1772,7.62476,-10.3058
189,-748,6.15857,6.95898,0,0,0,0,0,0,0,-1,1413,1772,6.15862,-6.95896
196,-748,3.9425,8.46021,0,0,0,0,0,0,0,-1,1420,1772,3.9425,-8.46026
203,-748,3.9668,12.9835,0,0,0,0,0,0,0,-1,1427,1772,3.96678,-12.9836
210,-748,4.71472,16.8318,0,0,0,0,0,0,0,-1,1434,1772,4.71471,-16.8317
217,-748,5.38452,21.5551,0,0,0,0,0,0,0,-1,1441,1772,5.38455,-21.555
224,-748,6.14258,25.2345,0,0,0,0,0,0,0,-1,1448,1772,6.14263,-25.2345
231,-748,6.03064,26.594,0,0,0,0,0,0,0,-1,1455,1772,6.03065,-26.594
238,-748,5.88757,26.7949,0,0,0,0,0,0,0,-1,1462,1772,5.88758,-26.7949
245,-748,5.88232,26.6312,0,0,0,0,0,0,0,-1,1469,1772,5.88228,-26.6312
252,-748,5.85315,25.5977,0,0,0,0,0,0,0,-1,1476,1772,5.85313,-25.5976
259,-748,3.5614,20.4832,0,0,0,0,0,0,0,-1,1483,1772,3.56142,-20.4832
266,-748,17.9011,7.59448,0,0,0,0,0,0,0,-1,1490,1772,17.9011,-7.59452
273,-748,16.4131,7.57129,0,0,0,0,0,0,0,-1,1497,1772,16.413,-7.57125
280,-748,15.2177,7.24829,0,0,0,0,0,0,0,-1,1504,1772,15.2176,-7.24833
287,-748,14.161,8.32813,0,0,0,0,0,0,0,-1,1511,1772,14.161,-8.32808
294,-748,12.2117,7.453,0,0,0,0,0,0,0,-1,1518,1772,12.2116,-7.45297
301,-748,11.7134,7.3595,0,0,0,0,0,0,0,-1,1525,1772,11.7133,-7.35949
308,-748,9.92456,7.80225,0,0,0,0,0,0,0,-1,1532,1772,9.92453,-7.80224
315,-748,8.91541,8.29773,0,0,0,0,0,0,0,-1,1539,1772,8.91544,-8.29773
322,-748,7.83618,8.87122,0,0,0,0,0,0,0,-1,1546,1772,7.83613,-8.87124
329,-748,3.48315,14.6533,0,0,0,0,0,0,0,-1,1553,1772,3.48316,-14.6534
336,-748,3.76001,15.8163,0,0,0,0,0,0,0,-1,1560,1772,3.75995,-15.8163
343,-748,0,0,0,0,0,0,0,0,0,-1,1567,1772,0,0
350,-748,0,0,0,0,0,0,0,0,0,-1,1574,1772,0,0
357,-748,0,0,0,0,0,0,0,0,0,-1,1581,1772,0,0
364,-748,0,0,0,0,0,0,0,0,0,-1,1588,1772,0,0
371,-748,0,0,0,0,0,0,0,0,0,-1,1595,1772,0,0
378,-748,0,0,0,0,0,0,0,0,0,-1,1602,1772,0,0
385,-748,0,0,0,0,0,0,0,0,0,-1,1609,1772,0,0
392,-748,0,0,0,0,0,0,0,0,0,-1,1616,1772,0,0
399,-748,0,0,0,0,0,0,0,0,0,-1,1623,1772,0,0
406,-748,0,0,0,0,0,0,0,0,0,-1,1630,1772,0,0
413,-748,0,0,0,0,0,0,0,0,0,-1,1637,1772,0,0
420,-748,0,0,0,0,0,0,0,0,0,-1,1644,1772,0,0
427,-748,0,0,0,0,0,0,0,0,0,-1,1651,1772,0,0
434,-748,0,0,0,0,0,0,0,0,0,-1,1658,1772,0,0
441,-748,0,0,0,0,0,0,0,0,0,-1,1665,1772,0,0
448,-748,0,0,0,0,0,0,0,0,0,-1,1672,1772,0,0
455,-748,0,0,0,0,0,0,0,0,0,-1,1679,1772,0,0
462,-748,0,0,0,0,0,0,0,0,0,-1,1686,1772,0,0
469,-748,0,0,0,0,0,0,0,0,0,-1,1693,1772,0,0
476,-748,0,0,0,0,0,0,0,0,0,-1,1700,1772,0,0
483,-748,0,0,0,0,0,0,0,0,0,-1,1707,1772,0,0
490,-748,0,0,0,0,0,0,0,0,0,-1,1714,1772,0,0
497,-748,0,0,0,0,0,0,0,0,0,-1,1721,1772,0,0
504,-748,0,0,0,0,0,0,0,0,0,-1,1728,1772,0,0
511,-748,0,0,0,0,0,0,0,0,0,-1,1735,1772,0,0
518,-748,0,0,0,0,0,0,0,0,0,-1,1742,1772,0,0
525,-748,0,0,0,0,0,0,0,0,0,-1,1749,1772,0,0
532,-748,0,0,0,0,0,0,0,0,0,-1,1756,1772,0,0
539,-748,0,0,0,0,0,0,0,0,0,-1,1763,1772,0,0
546,-748,0,0,0,0,0,0,0,0,0,-1,1770,1772,0,0
553,-748,0,0,0,0,0,0,0,0,0,-1,1777,1772,0,0
560,-748,0,0,0,0,0,0,0,0,0,-1,1784,1772,0,0
567,-748,0,0,0,0,0,0,0,0,0,-1,1791,1772,0,0
574,-748,0,0,0,0,0,0,0,0,0,-1,1798,1772,0,0
581,-748,0,0,0,0,0,0,0,0,0,-1,1805,1772,0,0
588,-748,0,0,0,0,0,0,0,0,0,-1,1812,1772,0,0
595,-748,0,0,0,0,0,0,0,0,0,-1,1819,1772,0,0
602,-748,0,0,0,0,0,0,0,0,0,-1,1826,1772,0,0
609,-748,0,0,0,0,0,0,0,0,0,-1,1833,1772,0,0
616,-748,0,0,0,0,0,0,0,0,0,-1,1840,1772,0,0
623,-748,0,0,0,0,0,0,0,0,0,-1,1847,1772,0,0
630,-748,0,0,0,0,0,0,0,0,0,-1,1854,1772,0,0
637,-748,0,0,0,0,0,0,0,0,0,-1,1861,1772,0,0
644,-748,0,0,0,0,0,0,0,0,0,-1,1868,1772,0,0
651,-748,0,0,0,0,0,0,0,0,0,-1,1875,1772,0,0
658,-748,0,0,0,0,0,0,0,0,0,-1,1882,1772,0,0
665,-748,0,0,0,0,0,0,0,0,0,-1,1889,1772,0,0
672,-748,0,0,0,0,0,0,0,0,0,-1,1896,1772,0,0
679,-748,0,0,0,0,0,0,0,0,0,-1,1903,1772,0,0
686,-748,0,0,0,0,0,0,0,0,0,-1,1910,1772,0,0
693,-748,0,0,0,0,0,0,0,0,0,-1,1917,1772,0,0
700,-748,0,0,0,0,0,0,0,0,0,-1,1924,1772,0,0
707,-748,0,0,0,0,0,0,0,0,0,-1,1931,1772,0,0
714,-748,0,0,0,0,0,0,0,0,0,-1,1938,1772,0,0
721,-748,0,0,0,0,0,0,0,0,0,-1,1945,1772,0,0
728,-748,0,0,0,0,0,0,0,0,0,-1,1952,1772,0,0
735,-748,0,0,0,0,0,0,0,0,0,-1,1959,1772,0,0
742,-748,0,0,0,0,0,0,0,0,0,-1,1966,1772,0,0
749,-748,0,0,0,0,0,0,0,0,0,-1,1973,1772,0,0
756,-748,0,0,0,0,0,0,0,0,0,-1,1980,1772,0,0
763,-748,0,0,0,0,0,0,0,0,0,-1,1987,1772,0,0
770,-748,0,0,0,0,0,0,0,0,0,-1,1994,1772,0,0
777,-748,0,0,0,0,0,0,0,0,0,-1,2001,1772,0,0
784,-748,0,0,0,0,0,0,0,0,0,-1,2008,1772,0,0
791,-748,0,0,0,0,0,0,0,0,0,-1,2015,1772,0,0
798,-748,0,0,0,0,0,0,0,0,0,-1,2022,1772,0,0
805,-748,0,0,0,0,0,0,0,0,0,-1,2029,1772,0,0
812,-748,0,0,0,0,0,0,0,0,0,-1,2036,1772,0,0
-700,-755,0,0,0,0,0,0,0,0,0,-1,524,1779,0,0
-693,-755,0,0,0,0,0,0,0,0,0,-1,531,1779,0,0
-686,-755,0,0,0,0,0,0,0,0,0,-1,538,1779,0,0
-679,-755,0,0,0,0,0,0,0,0,0,-1,545,1779,0,0
-672,-755,0,0,0,0,0,0,0,0,0,-1,552,1779,0,0
-665,-755,0,0,0,0,0,0,0,0,0,-1,559,1779,0,0
-658,-755,0,0,0,0,0,0,0,0,0,-1,566,1779,0,0
-651,-755,0,0,0,0,0,0,0,0,0,-1,573,1779,0,0
-644,-755,0,0,0,0,0,0,0,0,0,-1,580,1779,0,0
-637,-755,0,0,0,0,0,0,0,0,0,-1,587,1779,0,0
-630,-755,0,0,0,0,0,0,0,0,0,-1,594,1779,0,0
-623,-755,0,0,0,0,0,0,0,0,0,-1,601,1779,0,0
-616,-755,0,0,0,0,0,0,0,0,0,-1,608,1779,0,0
-609,-755,0,0,0,0,0,0,0,0,0,-1,615,1779,0,0
-602,-755,0,0,0,0,0,0,0,0,0,-1,622,1779,0,0
-595,-755,0,0,0,0,0,0,0,0,0,-1,629,1779,0,0
-588,-755,0,0,0,0,0,0,0,0,0,-1,636,1779,0,0
-581,-755,0,0,0,0,0,0,0,0,0,-1,643,1779,0,0
-574,-755,0,0,0,0,0,0,0,0,0,-1,650,1779,0,0
-567,-755,0,0,0,0,0,0,0,0,0,-1,657,1779,0,0
-560,-755,0,0,0,0,0,0,0,0,0,-1,664,1779,0,0
-553,-755,0,0,0,0,0,0,0,0,0,-1,671,1779,0,0
-546,-755,0,0,0,0,0,0,0,0,0,-1,678,1779,0,0
-539,-755,0,0,0,0,0,0,0,0,0,-1,685,1779,0,0
-532,-755,0,0,0,0,0,0,0,0,0,-1,692,1779,0,0
-525,-755,0,0,0,0,0,0,0,0,0,-1,699,1779,0,0
-518,-755,0,0,0,0,0,0,0,0,0,-1,706,1779,0,0
-511,-755,0,0,0,0,0,0,0,0,0,-1,713,1779,0,0
-504,-755,0,0,0,0,0,0,0,0,0,-1,720,1779,0,0
-497,-755,0,0,0,0,0,0,0,0,0,-1,727,1779,0,0
-490,-755,0,0,0,0,0,0,0,0,0,-1,734,1779,0,0
-483,-755,0,0,0,0,0,0,0,0,0,-1,741,1779,0,0
-476,-755,0,0,0,0,0,0,0,0,0,-1,748,1779,0,0
-469,-755,0,0,0,0,0,0,0,0,0,-1,755,1779,0,0
-462,-755,0,0,0,0,0,0,0,0,0,-1,762,1779,0,0
-455,-755,0,0,0,0,0,0,0,0,0,-1,769,1779,0,0
-448,-755,0,0,0,0,0,0,0,0,0,-1,776,1779,0,0
-441,-755,0,0,0,0,0,0,0,0,0,-1,783,1779,0,0
-434,-755,0,0,0,0,0,0,0,0,0,-1,790,1779,0,0
-427,-755,0,0,0,0,0,0,0,0,0,-1,797,1779,0,0
-420,-755,0,0,0,0,0,0,0,0,0,-1,804,1779,0,0
-413,-755,0,0,0,0,0,0,0,0,0,-1,811,1779,0,0
-406,-755,0,0,0,0,0,0,0,0,0,-1,818,1779,0,0
-399,-755,0,0,0,0,0,0,0,0,0,-1,825,1779,0,0
-392,-755,0,0,0,0,0,0,0,0,0,-1,832,1779,0,0
-385,-755,0,0,0,0,0,0,0,0,0,-1,839,1779,0,0
-378,-755,0,0,0,0,0,0,0,0,0,-1,846,1779,0,0
-371,-755,0,0,0,0,0,0,0,0,0,-1,853,1779,0,0
-364,-755,0,0,0,0,0,0,0,0,0,-1,860,1779,0,0
-357,-755,0,0,0,0,0,0,0,0,0,-1,867,1779,0,0
-350,-755,0,0,0,0,0,0,0,0,0,-1,874,1779,0,0
-343,-755,0,0,0,0,0,0,0,0,0,-1,881,1779,0,0
-336,-755,0,0,0,0,0,0,0,0,0,-1,888,1779,0,0
-329,-755,0,0,0,0,0,0,0,0,0,-1,895,1779,0,0
-322,-755,0,0,0,0,0,0,0,0,0,-1,902,1779,0,0
-315,-755,0,0,0,0,0,0,0,0,0,-1,909,1779,0,0
-308,-755,0,0,0,0,0,0,0,0,0,-1,916,1779,0,0
-301,-755,0,0,0,0,0,0,0,0,0,-1,923,1779,0,0
-294,-755,0,0,0,0,0,0,0,0,0,-1,930,1779,0,0
-287,-755,0,0,0,0,0,0,0,0,0,-1,937,1779,0,0
-280,-755,0,0,0,0,0,0,0,0,0,-1,944,1779,0,0
-273,-755,0,0,0,0,0,0,0,0,0,-1,951,1779,0,0
-266,-755,0,0,0,0,0,0,0,0,0,-1,958,1779,0,0
-259,-755,0,0,0,0,0,0,0,0,0,-1,965,1779,0,0
-252,-755,0,0,0,0,0,0,0,0,0,-1,972,1779,0,0
-245,-755,0,0,0,0,0,0,0,0,0,-1,979,1779,0,0
-238,-755,0,0,0,0,0,0,0,0,0,-1,986,1779,0,0
-231,-755,0,0,0,0,0,0,0,0,0,-1,993,1779,0,0
-224,-755,0,0,0,0,0,0,0,0,0,-1,1000,1779,0,0
-217,-755,0,0,0,0,0,0,0,0,0,-1,1007,1779,0,0
-210,-755,0,0,0,0,0,0,0,0,0,-1,1014,1779,0,0
-203,-755,5.47998,25.527,0,0,0,0,0,0,0,-1,1021,1779,5.47993,-25.527
-196,-755,5.18445,23.9307,0,0,0,0,0,0,0,-1,1028,1779,5.1844,-23.9306
-189,-755,4.8175,22.4788,0,0,0,0,0,0,0,-1,1035,1779,4.81745,-22.4788
-182,-755,4.021,20.8032,0,0,0,0,0,0,0,-1,1042,1779,4.02094,-20.8032
-175,-755,3.79993,18.8242,0,0,0,0,0,0,0,-1,1049,1779,3.79995,-18.8242
-168,-755,3.14294,16.9865,0,0,0,0,0,0,0,-1,1056,1779,3.14291,-16.9864
-161,-755,-2.85889,11.5868,0,0,0,0,0,0,0,-1,1063,1779,-2.85887,-11.5868
-154,-755,-5.39026,8.51416,0,0,0,0,0,0,0,-1,1070,1779,-5.3903,-8.51417
-147,-755,-6.45593,10.2422,0,0,0,0,0,0,0,-1,1077,1779,-6.45594,-10.2422
-140,-755,1.33521,21.3856,0,0,0,0,0,0,0,-1,1084,1779,1.33522,-21.3857
-133,-755,2.89417,21.0964,0,0,0,0,0,0,0,-1,1091,1779,2.89422,-21.0964
-126,-755,3.26404,20.9304,0,0,0,0,0,0,0,-1,1098,1779,3.26399,-20.9305
-119,-755,5.17761,21.9325,0,0,0,0,0,0,0,-1,1105,1779,5.17761,-21.9325
-112,-755,5.40247,24.5646,0,0,0,0,0,0,0,-1,1112,1779,5.40244,-24.5646
-105,-755,6.6344,19.6062,0,0,0,0,0,0,0,-1,1119,1779,6.63439,-19.6062
-98,-755,6.32544,15.6812,0,0,0,0,0,0,0,-1,1126,1779,6.32543,-15.6812
-91,-755,5.51025,12.0438,0,0,0,0,0,0,0,-1,1133,1779,5.51022,-12.0439
-84,-755,0.169312,8.66443,0,0,0,0,0,0,0,-1,1140,1779,0.16932,-8.66446
-77,-755,-0.0491943,6.87439,0,0,0,0,0,0,0,-1,1147,1779,-0.0491385,-6.87443
-70,-755,4.5686,13.2169,0,0,0,0,0,0,0,-1,1154,1779,4.56865,-13.2169
-63,-755,-1.36316,7.3147,0,0,0,0,0,0,0,-1,1161,1779,-1.36312,-7.31473
-56,-755,0.0483398,5.06079,0,0,0,0,0,0,0,-1,1168,1779,0.0483138,-5.06084
-49,-755,-1.32263,5.33716,0,0,0,0,0,0,0,-1,1175,1779,-1.32264,-5.33718
-42,-755,-2.03613,4.01672,0,0,0,0,0,0,0,-1,1182,1779,-2.0361,-4.01671
-35,-755,-2.72498,2.37476,0,0,0,0,0,0,0,-1,1189,1779,-2.72502,-2.37473
-28,-755,6.65491,27.8251,0,0,0,0,0,0,0,-1,1196,1779,6.65485,-27.8251
-21,-755,6.68237,27.9445,0,0,0,0,0,0,0,-1,1203,1779,6.68238,-27.9445
-14,-755,6.78662,27.8733,-0.0102952,-0.00562124,0.000973211,-0.00542669,-0.0104897,1.3735,0.00605745,0.0357209,1210,1779,6.78666,-27.8733
-7,-755,6.64343,27.9097,-0.0072898,-0.0056027,0.002254,-0.00403957,-0.00885293,0.964452,0.00511774,0.0255941,1217,1779,6.64346,-27.9096
0,-755,6.60376,27.9858,-0.00382126,-0.00553101,0.00349377,-0.0010793,-0.00827297,0.665413,0.00519307,0.014821,1224,1779,6.60374,-27.9859
7,-755,6.58813,28.0654,-0.000369287,-0.00551252,0.00442864,0.00218024,-0.00806204,0.522353,0.00622993,0.011833,1231,1779,6.58808,-28.0654
14,-755,6.55298,28.13,0.00268379,-0.00550558,0.00502848,0.00507386,-0.00789565,0.443699,0.0075468,0.0106252,1238,1779,6.55302,-28.13
21,-755,6.52356,28.1921,0.00527023,-0.00540351,0.00536097,0.0074979,-0.00763117,0.393826,0.00873489,0.0149344,1245,1779,6.52355,-28.1921
28,-755,6.52759,28.2323,0.00712583,-0.0051554,0.00537764,0.0091477,-0.00717726,0.359627,0.00944808,0.0174149,1252,1779,6.52761,-28.2323
35,-755,6.50378,28.3181,0.00809676,-0.0050205,0.00520255,0.00990964,-0.00683338,0.335302,0.00972082,0.0183442,1259,1779,6.50382,-28.3181
42,-755,6.4856,28.3218,0.00856391,-0.00461854,0.00503814,0.0102689,-0.00632352,0.326317,0.00966949,0.0136849,1266,1779,6.4856,-28.3218
49,-755,6.44434,28.3075,0.00819623,-0.00437494,0.00489121,0.0098751,-0.00605381,0.330642,0.00928435,0.00960044,1273,1779,6.44432,-28.3075
56,-755,6.41748,28.332,0.0080226,-0.00426798,0.00468444,0.00960445,-0.00584983,0.325658,0.00900988,0.00924913,1280,1779,6.41746,-28.332
63,-755,6.40283,28.3363,0.00731492,-0.00439713,0.00387282,0.00847971,-0.00556192,0.292153,0.00816507,0.00890684,1287,1779,6.4028,-28.3363
70,-755,6.39331,28.3457,0.00569601,-0.00479579,0.00293959,0.00646348,-0.00556326,0.255381,0.00695012,0.0110805,1294,1779,6.39334,-28.3457
77,-755,6.36292,28.3525,0.00144545,-0.00532351,0.00231644,0.00216227,-0.00604032,0.3001,0.00490903,0.0113199,1301,1779,6.36287,-28.3525
84,-755,6.33728,28.3673,-0.00287186,-0.00587714,0.002043,-0.0018384,-0.00691059,0.468318,0.00413288,0.0118466,1308,1779,6.33726,-28.3673
91,-755,6.32202,28.3167,-0.00178278,-0.00647083,0.00178405,-0.00118108,-0.00707253,0.325286,0.0043748,0.011177,1315,1779,6.32206,-28.3167
98,-755,6.28284,28.29,-7.75739e-05,-0.00652896,0.000627824,-1.70444e-05,-0.00658949,0.0961146,0.00438732,0.0123445,1322,1779,6.28287,-28.29
105,-755,6.29834,28.3119,0.000831899,-0.00684804,-0.000359519,0.000848692,-0.00686483,-0.0466767,0.00488409,0.0160797,1329,1779,6.29837,-28.3119
112,-755,6.29309,28.2675,0.00207767,-0.00715991,-0.00139719,0.00228437,-0.00736661,-0.146875,0.00582384,0.021013,1336,1779,6.29315,-28.2675
119,-755,6.23425,28.2295,0.00364282,-0.0072777,-0.00288258,0.004357,-0.00799188,-0.242867,0.00723185,0.0212254,1343,1779,6.23419,-28.2295
126,-755,6.21631,28.2474,0.00518862,-0.00707947,-0.00469836,0.00678122,-0.00867207,-0.326815,0.0089442,0.0255641,1350,1779,6.21637,-28.2475
133,-755,6.18018,28.1697,0.00690625,-0.00643602,-0.00652851,0.00956921,-0.00909899,-0.387297,0.0107792,0.0261208,1357,1779,6.18014,-28.1697
140,-755,6.15845,28.1058,0.00878613,-0.00515489,-0.00840287,0.0127333,-0.00910209,-0.439151,0.0126647,0.0305997,1364,1779,6.15844,-28.1059
147,-755,6.27551,28.0731,0.0104966,-0.00398012,-0.00992629,0.0155434,-0.00902693,-0.470367,0.014351,0.0315571,1371,1779,6.27552,-28.0732
154,-755,6.25854,28.052,0.0120039,-0.00257934,-0.0116217,0.018432,-0.0090075,-0.505233,0.0161507,0.0329627,1378,1779,6.25851,-28.052
161,-755,6.14099,28.0623,0,0,0,0,0,0,0,-1,1385,1779,6.14097,-28.0623
168,-755,3.98181,7.35901,0,0,0,0,0,0,0,-1,1392,1779,3.98184,-7.35904
175,-755,8.17065,1.34363,0,0,0,0,0,0,0,-1,1399,1779,8.1706,-1.34368
182,-755,8.09216,2.96924,0,0,0,0,0,0,0,-1,1406,1779,8.09213,-2.9693
189,-755,8.04419,4.68042,0,0,0,0,0,0,0,-1,1413,1779,8.04419,-4.68046
196,-755,7.74841,7.4541,0,0,0,0,0,0,0,-1,1420,1779,7.74842,-7.45405
203,-755,4.80554,6.88696,0,0,0,0,0,0,0,-1,1427,1779,4.80554,-6.88697
210,-755,25.1694,7.35693,0,0,0,0,0,0,0,-1,1434,1779,25.1694,-7.35688
217,-755,5.01648,16.411,0,0,0,0,0,0,0,-1,1441,1779,5.01646,-16.411
224,-755,5.18103,22.6283,0,0,0,0,0,0,0,-1,1448,1779,5.18101,-22.6283
231,-755,6.65674,25.4557,0,0,0,0,0,0,0,-1,1455,1779,6.65679,-25.4557
238,-755,6.17993,25.7036,0,0,0,0,0,0,0,-1,1462,1779,6.17992,-25.7036
245,-755,6.09351,21.4081,0,0,0,0,0,0,0,-1,1469,1779,6.09355,-21.408
252,-755,6.65991,23.8298,0,0,0,0,0,0,0,-1,1476,1779,6.65986,-23.8298
259,-755,7.58691,23.2006,0,0,0,0,0,0,0,-1,1483,1779,7.58687,-23.2005
266,-755,17.255,7.86096,0,0,0,0,0,0,0,-1,1490,1779,17.255,-7.86092
273,-755,15.7932,7.59778,0,0,0,0,0,0,0,-1,1497,1779,15.7932,-7.59777
280,-755,14.6255,7.34802,0,0,0,0,0,0,0,-1,1504,1779,14.6254,-7.34806
287,-755,13.8279,7.83105,0,0,0,0,0,0,0,-1,1511,1779,13.8279,-7.83104
294,-755,12.5695,7.96814,0,0,0,0,0,0,0,-1,1518,1779,12.5694,-7.9682
301,-755,11.2659,8.27087,0,0,0,0,0,0,0,-1,1525,1779,11.2658,-8.27087
308,-755,9.94434,8.55811,0,0,0,0,0,0,0,-1,1532,1779,9.94428,-8.55806
315,-755,8.64502,9.04492,0,0,0,0,0,0,0,-1,1539,1779,8.64497,-9.04488
322,-755,0,0,0,0,0,0,0,0,0,-1,1546,1779,0,0
329,-755,0,0,0,0,0,0,0,0,0,-1,1553,1779,0,0
336,-755,0,0,0,0,0,0,0,0,0,-1,1560,1779,0,0
343,-755,0,0,0,0,0,0,0,0,0,-1,1567,1779,0,0
350,-755,0,0,0,0,0,0,0,0,0,-1,1574,1779,0,0
357,-755,0,0,0,0,0,0,0,0,0,-1,1581,1779,0,0
364,-755,0,0,0,0,0,0,0,0,0,-1,1588,1779,0,0
371,-755,0,0,0,0,0,0,0,0,0,-1,1595,1779,0,0
378,-755,0,0,0,0,0,0,0,0,0,-1,1602,1779,0,0
385,-755,0,0,0,0,0,0,0,0,0,-1,1609,1779,0,0
392,-755,0,0,0,0,0,0,0,0,0,-1,1616,1779,0,0
399,-755,0,0,0,0,0,0,0,0,0,-1,1623,1779,0,0
406,-755,0,0,0,0,0,0,0,0,0,-1,1630,1779,0,0
413,-755,0,0,0,0,0,0,0,0,0,-1,1637,1779,0,0
420,-755,0,0,0,0,0,0,0,0,0,-1,1644,1779,0,0
427,-755,0,0,0,0,0,0,0,0,0,-1,1651,1779,0,0
434,-755,0,0,0,0,0,0,0,0,0,-1,1658,1779,0,0
441,-755,0,0,0,0,0,0,0,0,0,-1,1665,1779,0,0
448,-755,0,0,0,0,0,0,0,0,0,-1,1672,1779,0,0
455,-755,0,0,0,0,0,0,0,0,0,-1,1679,1779,0,0
462,-755,0,0,0,0,0,0,0,0,0,-1,1686,1779,0,0
469,-755,0,0,0,0,0,0,0,0,0,-1,1693,1779,0,0
476,-755,0,0,0,0,0,0,0,0,0,-1,1700,1779,0,0
483,-755,0,0,0,0,0,0,0,0,0,-1,1707,1779,0,0
490,-755,0,0,0,0,0,0,0,0,0,-1,1714,1779,0,0
497,-755,0,0,0,0,0,0,0,0,0,-1,1721,1779,0,0
504,-755,0,0,0,0,0,0,0,0,0,-1,1728,1779,0,0
511,-755,0,0,0,0,0,0,0,0,0,-1,1735,1779,0,0
518,-755,0,0,0,0,0,0,0,0,0,-1,1742,1779,0,0
525,-755,0,0,0,0,0,0,0,0,0,-1,1749,1779,0,0
532,-755,0,0,0,0,0,0,0,0,0,-1,1756,1779,0,0
539,-755,0,0,0,0,0,0,0,0,0,-1,1763,1779,0,0
546,-755,0,0,0,0,0,0,0,0,0,-1,1770,1779,0,0
553,-755,0,0,0,0,0,0,0,0,0,-1,1777,1779,0,0
560,-755,0,0,0,0,0,0,0,0,0,-1,1784,1779,0,0
567,-755,0,0,0,0,0,0,0,0,0,-1,1791,1779,0,0
574,-755,0,0,0,0,0,0,0,0,0,-1,1798,1779,0,0
581,-755,0,0,0,0,0,0,0,0,0,-1,1805,1779,0,0
588,-755,0,0,0,0,0,0,0,0,0,-1,1812,1779,0,0
595,-755,0,0,0,0,0,0,0,0,0,-1,1819,1779,0,0
602,-755,0,0,0,0,0,0,0,0,0,-1,1826,1779,0,0
609,-755,0,0,0,0,0,0,0,0,0,-1,1833,1779,0,0
616,-755,0,0,0,0,0,0,0,0,0,-1,1840,1779,0,0
623,-755,0,0,0,0,0,0,0,0,0,-1,1847,1779,0,0
630,-755,0,0,0,0,0,0,0,0,0,-1,1854,1779,0,0
637,-755,0,0,0,0,0,0,0,0,0,-1,1861,1779,0,0
644,-755,0,0,0,0,0,0,0,0,0,-1,1868,1779,0,0
651,-755,0,0,0,0,0,0,0,0,0,-1,1875,1779,0,0
658,-755,0,0,0,0,0,0,0,0,0,-1,1882,1779,0,0
665,-755,0,0,0,0,0,0,0,0,0,-1,1889,1779,0,0
672,-755,0,0,0,0,0,0,0,0,0,-1,1896,1779,0,0
679,-755,0,0,0,0,0,0,0,0,0,-1,1903,1779,0,0
686,-755,0,0,0,0,0,0,0,0,0,-1,1910,1779,0,0
693,-755,0,0,0,0,0,0,0,0,0,-1,1917,1779,0,0
700,-755,0,0,0,0,0,0,0,0,0,-1,1924,1779,0,0
707,-755,0,0,0,0,0,0,0,0,0,-1,1931,1779,0,0
714,-755,0,0,0,0,0,0,0,0,0,-1,1938,1779,0,0
721,-755,0,0,0,0,0,0,0,0,0,-1,1945,1779,0,0
728,-755,0,0,0,0,0,0,0,0,0,-1,1952,1779,0,0
735,-755,0,0,0,0,0,0,0,0,0,-1,1959,1779,0,0
742,-755,0,0,0,0,0,0,0,0,0,-1,1966,1779,0,0
749,-755,0,0,0,0,0,0,0,0,0,-1,1973,1779,0,0
756,-755,0,0,0,0,0,0,0,0,0,-1,1980,1779,0,0
763,-755,0,0,0,0,0,0,0,0,0,-1,1987,1779,0,0
770,-755,0,0,0,0,0,0,0,0,0,-1,1994,1779,0,0
777,-755,0,0,0,0,0,0,0,0,0,-1,2001,1779,0,0
784,-755,0,0,0,0,0,0,0,0,0,-1,2008,1779,0,0
791,-755,0,0,0,0,0,0,0,0,0,-1,2015,1779,0,0
798,-755,0,0,0,0,0,0,0,0,0,-1,2022,1779,0,0
805,-755,0,0,0,0,0,0,0,0,0,-1,2029,1779,0,0
812,-755,0,0,0,0,0,0,0,0,0,-1,2036,1779,0,0
-700,-762,0,0,0,0,0,0,0,0,0,-1,524,1786,0,0
-693,-762,0,0,0,0,0,0,0,0,0,-1,531,1786,0,0
-686,-762,0,0,0,0,0,0,0,0,0,-1,538,1786,0,0
-679,-762,0,0,0,0,0,0,0,0,0,-1,545,1786,0,0
-672,-762,0,0,0,0,0,0,0,0,0,-1,552,1786,0,0
-665,-762,0,0,0,0,0,0,0,0,0,-1,559,1786,0,0
-658,-762,0,0,0,0,0,0,0,0,0,-1,566,1786,0,0
-651,-762,0,0,0,0,0,0,0,0,0,-1,573,1786,0,0
-644,-762,0,0,0,0,0,0,0,0,0,-1,580,1786,0,0
-637,-762,0,0,0,0,0,0,0,0,0,-1,587,1786,0,0
-630,-762,0,0,0,0,0,0,0,0,0,-1,594,1786,0,0
-623,-762,0,0,0,0,0,0,0,0,0,-1,601,1786,0,0
-616,-762,0,0,0,0,0,0,0,0,0,-1,608,1786,0,0
-609,-762,0,0,0,0,0,0,0,0,0,-1,615,1786,0,0
-602,-762,0,0,0,0,0,0,0,0,0,-1,622,1786,0,0
-595,-762,0,0,0,0,0,0,0,0,0,-1,629,1786,0,0
-588,-762,0,0,0,0,0,0,0,0,0,-1,636,1786,0,0
-581,-762,0,0,0,0,0,0,0,0,0,-1,643,1786,0,0
-574,-762,0,0,0,0,0,0,0,0,0,-1,650,1786,0,0
-567,-762,0,0,0,0,0,0,0,0,0,-1,657,1786,0,0
-560,-762,0,0,0,0,0,0,0,0,0,-1,664,1786,0,0
-553,-762,0,0,0,0,0,0,0,0,0,-1,671,1786,0,0
-546,-762,0,0,0,0,0,0,0,0,0,-1,678,1786,0,0
-539,-762,0,0,0,0,0,0,0,0,0,-1,685,1786,0,0
-532,-762,0,0,0,0,0,0,0,0,0,-1,692,1786,0,0
-525,-762,0,0,0,0,0,0,0,0,0,-1,699,1786,0,0
-518,-762,0,0,0,0,0,0,0,0,0,-1,706,1786,0,0
-511,-762,0,0,0,0,0,0,0,0,0,-1,713,1786,0,0
-504,-762,0,0,0,0,0,0,0,0,0,-1,720,1786,0,0
-497,-762,0,0,0,0,0,0,0,0,0,-1,727,1786,0,0
-490,-762,0,0,0,0,0,0,0,0,0,-1,734,1786,0,0
-483,-762,0,0,0,0,0,0,0,0,0,-1,741,1786,0,0
-476,-762,0,0,0,0,0,0,0,0,0,-1,748,1786,0,0
-469,-762,0,0,0,0,0,0,0,0,0,-1,755,1786,0,0
-462,-762,0,0,0,0,0,0,0,0,0,-1,762,1786,0,0
-455,-762,0,0,0,0,0,0,0,0,0,-1,769,1786,0,0
-448,-762,0,0,0,0,0,0,0,0,0,-1,776,1786,0,0
-441,-762,0,0,0,0,0,0,0,0,0,-1,783,1786,0,0
-434,-762,0,0,0,0,0,0,0,0,0,-1,790,1786,0,0
-427,-762,0,0,0,0,0,0,0,0,0,-1,797,1786,0,0
-420,-762,0,0,0,0,0,0,0,0,0,-1,804,1786,0,0
-413,-762,0,0,0,0,0,0,0,0,0,-1,811,1786,0,0
-406,-762,0,0,0,0,0,0,0,0,0,-1,818,1786,0,0
-399,-762,0,0,0,0,0,0,0,0,0,-1,825,1786,0,0
-392,-762,0,0,0,0,0,0,0,0,0,-1,832,1786,0,0
-385,-762,0,0,0,0,0,0,0,0,0,-1,839,1786,0,0
-378,-762,0,0,0,0,0,0,0,0,0,-1,846,1786,0,0
-371,-762,0,0,0,0,0,0,0,0,0,-1,853,1786,0,0
-364,-762,0,0,0,0,0,0,0,0,0,-1,860,1786,0,0
-357,-762,0,0,0,0,0,0,0,0,0,-1,867,1786,0,0
-350,-762,0,0,0,0,0,0,0,0,0,-1,874,1786,0,0
-343,-762,0,0,0,0,0,0,0,0,0,-1,881,1786,0,0
-336,-762,0,0,0,0,0,0,0,0,0,-1,888,1786,0,0
-329,-762,0,0,0,0,0,0,0,0,0,-1,895,1786,0,0
-322,-762,0,0,0,0,0,0,0,0,0,-1,902,1786,0,0
-315,-762,0,0,0,0,0,0,0,0,0,-1,909,1786,0,0
-308,-762,0,0,0,0,0,0,0,0,0,-1,916,1786,0,0
-301,-762,0,0,0,0,0,0,0,0,0,-1,923,1786,0,0
-294,-762,0,0,0,0,0,0,0,0,0,-1,930,1786,0,0
-287,-762,0,0,0,0,0,0,0,0,0,-1,937,1786,0,0
-280,-762,0,0,0,0,0,0,0,0,0,-1,944,1786,0,0
-273,-762,0,0,0,0,0,0,0,0,0,-1,951,1786,0,0
-266,-762,0,0,0,0,0,0,0,0,0,-1,958,1786,0,0
-259,-762,0,0,0,0,0,0,0,0,0,-1,965,1786,0,0
-252,-762,0,0,0,0,0,0,0,0,0,-1,972,1786,0,0
-245,-762,0,0,0,0,0,0,0,0,0,-1,979,1786,0,0
-238,-762,0,0,0,0,0,0,0,0,0,-1,986,1786,0,0
-231,-762,0,0,0,0,0,0,0,0,0,-1,993,1786,0,0
-224,-762,0,0,0,0,0,0,0,0,0,-1,1000,1786,0,0
-217,-762,0,0,0,0,0,0,0,0,0,-1,1007,1786,0,0
-210,-762,0,0,0,0,0,0,0,0,0,-1,1014,1786,0,0
-203,-762,0,0,0,0,0,0,0,0,0,-1,1021,1786,0,0
-196,-762,0,0,0,0,0,0,0,0,0,-1,1028,1786,0,0
-189,-762,0,0,0,0,0,0,0,0,0,-1,1035,1786,0,0
-182,-762,4.44226,13.2462,0,0,0,0,0,0,0,-1,1042,1786,4.44227,-13.2462
-175,-762,4.3219,18.3975,0,0,0,0,0,0,0,-1,1049,1786,4.32192,-18.3974
-168,-762,-2.08618,13.0768,0,0,0,0,0,0,0,-1,1056,1786,-2.08623,-13.0768
-161,-762,-3.29077,11.9508,0,0,0,0,0,0,0,-1,1063,1786,-3.29076,-11.9508
-154,-762,-4.55823,11.1176,0,0,0,0,0,0,0,-1,1070,1786,-4.55828,-11.1175
-147,-762,-6.52454,9.41418,0,0,0,0,0,0,0,-1,1077,1786,-6.52458,-9.41419
-140,-762,4.99792,5.28589,0,0,0,0,0,0,0,-1,1084,1786,4.99793,-5.28587
-133,-762,0.689819,19.2172,0,0,0,0,0,0,0,-1,1091,1786,0.689867,-19.2171
-126,-762,1.48743,19.9288,0,0,0,0,0,0,0,-1,1098,1786,1.48738,-19.9289
-119,-762,2.65637,20.208,0,0,0,0,0,0,0,-1,1105,1786,2.65632,-20.208
-112,-762,3.09082,20.488,0,0,0,0,0,0,0,-1,1112,1786,3.09077,-20.488
-105,-762,6.20923,21.3702,0,0,0,0,0,0,0,-1,1119,1786,6.20928,-21.3703
-98,-762,5.58447,17.7201,0,0,0,0,0,0,0,-1,1126,1786,5.58445,-17.7201
-91,-762,4.74573,14.093,0,0,0,0,0,0,0,-1,1133,1786,4.74571,-14.0931
-84,-762,3.96375,10.4547,0,0,0,0,0,0,0,-1,1140,1786,3.96371,-10.4548
-77,-762,0.305054,8.49365,0,0,0,0,0,0,0,-1,1147,1786,0.305008,-8.49362
-70,-762,0.183716,6.74622,0,0,0,0,0,0,0,-1,1154,1786,0.183696,-6.74621
-63,-762,-0.883057,9.08813,0,0,0,0,0,0,0,-1,1161,1786,-0.88311,-9.08808
-56,-762,-0.578979,5.10254,0,0,0,0,0,0,0,-1,1168,1786,-0.578951,-5.10249
-49,-762,-2.04541,3.66321,0,0,0,0,0,0,0,-1,1175,1786,-2.0454,-3.66319
-42,-762,-2.23462,3.474,0,0,0,0,0,0,0,-1,1182,1786,-2.23459,-3.47399
-35,-762,-3.28992,1.68164,0,0,0,0,0,0,0,-1,1189,1786,-3.28998,-1.68164
-28,-762,-3.75378,1.37769,0,0,0,0,0,0,0,-1,1196,1786,-3.75373,-1.37767
-21,-762,6.9585,27.4912,0,0,0,0,0,0,0,-1,1203,1786,6.95846,-27.4912
-14,-762,6.99133,27.8428,0,0,0,0,0,0,0,-1,1210,1786,6.99129,-27.8428
-7,-762,6.67261,27.8706,0,0,0,0,0,0,0,-1,1217,1786,6.67259,-27.8706
0,-762,6.5614,28.0349,-0.00507602,-0.00692116,0.00422283,-0.00167615,-0.010321,0.677852,0.0063956,0.0344481,1224,1786,6.56138,-28.035
7,-762,6.62073,28.1368,0.00054248,-0.00671154,0.00576097,0.00372311,-0.00989218,0.504454,0.00812531,0.019185,1231,1786,6.62079,-28.1369
14,-762,6.5863,28.2919,0.0055725,-0.00655167,0.00678299,0.00860755,-0.00958672,0.420731,0.0105095,0.030315,1238,1786,6.5863,-28.2919
21,-762,6.49402,28.259,0.00987308,-0.00630475,0.0073938,0.0127431,-0.0091748,0.370266,0.0127101,0.0395207,1245,1786,6.494,-28.259
28,-762,6.52454,28.3981,0.0130542,-0.00591268,0.00754313,0.0156883,-0.00854677,0.335965,0.0141932,0.0402186,1252,1786,6.52456,-28.3981
35,-762,6.51599,28.5088,0.0148525,-0.00569975,0.00740555,0.0172429,-0.00809015,0.312227,0.0149409,0.0424002,1259,1786,6.51603,-28.5088
42,-762,6.43567,28.4063,0.0158493,-0.00516938,0.0072779,0.0181233,-0.0074434,0.302844,0.0151841,0.0409961,1266,1786,6.43569,-28.4063
49,-762,6.39038,28.3602,0.01545,-0.00487392,0.00717769,0.0177293,-0.00715321,0.307481,0.0147921,0.0329077,1273,1786,6.39043,-28.3603
56,-762,6.48474,28.3597,0.0152608,-0.00484249,0.00698212,0.0174478,-0.00702954,0.303555,0.0145525,0.0231684,1280,1786,6.48479,-28.3598
63,-762,6.44067,28.3644,0.0142737,-0.00517014,0.00588377,0.0159155,-0.00681196,0.27212,0.013468,0.0201863,1287,1786,6.44062,-28.3644
70,-762,6.38245,28.3621,0.0117089,-0.00583289,0.00452353,0.0128067,-0.00693068,0.238081,0.0115625,0.0200169,1294,1786,6.38243,-28.362
77,-762,6.36755,28.3115,0.00430218,-0.00671875,0.0035704,0.00535777,-0.00777433,0.287459,0.00762449,0.0285353,1301,1786,6.36759,-28.3115
84,-762,6.3999,28.2937,-0.00377576,-0.00774727,0.00322193,-0.0019768,-0.00954622,0.50923,0.00581825,0.0349309,1308,1786,6.39987,-28.2937
91,-762,6.35388,28.2618,-0.00221557,-0.008737,0.00286148,-0.00113804,-0.00981452,0.36014,0.00619859,0.0429122,1315,1786,6.35391,-28.2619
98,-762,6.29138,28.4755,0.000129494,-0.00885821,0.00141345,0.000346538,-0.00907526,0.152366,0.00616893,0.0422331,1322,1786,6.29137,-28.4755
105,-762,6.31567,28.5128,0.00143831,-0.00930673,0.000151557,0.00144045,-0.00930886,0.0141011,0.00673758,0.040004,1329,1786,6.31571,-28.5128
112,-762,6.30798,28.4701,0.00328041,-0.00976687,-0.00120951,0.00339159,-0.00987804,-0.0916615,0.00796049,0.0428245,1336,1786,6.30795,-28.4701
119,-762,6.33765,28.5299,0.00561426,-0.00993825,-0.00324756,0.00626516,-0.0105891,-0.197804,0.009837,0.0454989,1343,1786,6.33765,-28.5299
126,-762,6.4397,28.4761,0.00793826,-0.00963726,-0.00583551,0.00969933,-0.0113983,-0.293095,0.0121939,0.0495562,1350,1786,6.43972,-28.476
133,-762,6.20483,28.2473,0.0106063,-0.00869165,-0.00853211,0.0138376,-0.0119229,-0.362022,0.0148865,0.0491135,1357,1786,6.20487,-28.2474
140,-762,6.11731,28.0791,0.0136278,-0.00682746,-0.0113928,0.0187103,-0.0119099,-0.419619,0.0178233,0.046961,1364,1786,6.11727,-28.0792
147,-762,7.14941,27.7947,0.0165109,-0.005025,-0.013825,0.0232667,-0.0117807,-0.454535,0.0205937,0.0391634,1371,1786,7.14946,-27.7946
154,-762,6.31934,28.2256,0,0,0,0,0,0,0,-1,1378,1786,6.31935,-28.2256
161,-762,7.93408,-0.126221,0,0,0,0,0,0,0,-1,1385,1786,7.93402,0.126232
168,-762,8.19287,0.880615,0,0,0,0,0,0,0,-1,1392,1786,8.19291,-0.880603
175,-762,8.33997,1.95947,0,0,0,0,0,0,0,-1,1399,1786,8.33997,-1.95942
182,-762,8.28418,3.56482,0,0,0,0,0,0,0,-1,1406,1786,8.28415,-3.56485
189,-762,8.21179,5.23389,0,0,0,0,0,0,0,-1,1413,1786,8.21183,-5.23383
196,-762,8.05969,6.95483,0,0,0,0,0,0,0,-1,1420,1786,8.05972,-6.9548
203,-762,24.0077,7.10425,0,0,0,0,0,0,0,-1,1427,1786,24.0077,-7.10426
210,-762,23.8073,7.6499,0,0,0,0,0,0,0,-1,1434,1786,23.8073,-7.64987
217,-762,23.3193,8.24426,0,0,0,0,0,0,0,-1,1441,1786,23.3194,-8.2442
224,-762,2.65149,20.6106,0,0,0,0,0,0,0,-1,1448,1786,2.65153,-20.6106
231,-762,5.46655,23.521,0,0,0,0,0,0,0,-1,1455,1786,5.46653,-23.521
238,-762,3.96863,24.0858,0,0,0,0,0,0,0,-1,1462,1786,3.96865,-24.0858
245,-762,5.97974,21.9014,0,0,0,0,0,0,0,-1,1469,1786,5.97972,-21.9014
252,-762,7.99072,19.7169,0,0,0,0,0,0,0,-1,1476,1786,7.99078,-19.717
259,-762,17.4619,7.89832,0,0,0,0,0,0,0,-1,1483,1786,17.462,-7.89836
266,-762,16.451,7.67773,0,0,0,0,0,0,0,-1,1490,1786,16.4511,-7.67773
273,-762,15.287,7.5304,0,0,0,0,0,0,0,-1,1497,1786,15.2869,-7.53044
280,-762,14.1501,7.38379,0,0,0,0,0,0,0,-1,1504,1786,14.1502,-7.38376
287,-762,12.6891,7.99133,0,0,0,0,0,0,0,-1,1511,1786,12.6891,-7.99135
294,-762,12.6959,8.30371,0,0,0,0,0,0,0,-1,1518,1786,12.6959,-8.30368
301,-762,11.4222,8.84143,0,0,0,0,0,0,0,-1,1525,1786,11.4223,-8.84149
308,-762,0,0,0,0,0,0,0,0,0,-1,1532,1786,0,0
315,-762,0,0,0,0,0,0,0,0,0,-1,1539,1786,0,0
322,-762,0,0,0,0,0,0,0,0,0,-1,1546,1786,0,0
329,-762,0,0,0,0,0,0,0,0,0,-1,1553,1786,0,0
336,-762,0,0,0,0,0,0,0,0,0,-1,1560,1786,0,0
343,-762,0,0,0,0,0,0,0,0,0,-1,1567,1786,0,0
350,-762,0,0,0,0,0,0,0,0,0,-1,1574,1786,0,0
357,-762,0,0,0,0,0,0,0,0,0,-1,1581,1786,0,0
364,-762,0,0,0,0,0,0,0,0,0,-1,1588,1786,0,0
371,-762,0,0,0,0,0,0,0,0,0,-1,1595,1786,0,0
378,-762,0,0,0,0,0,0,0,0,0,-1,1602,1786,0,0
385,-762,0,0,0,0,0,0,0,0,0,-1,1609,1786,0,0
392,-762,0,0,0,0,0,0,0,0,0,-1,1616,1786,0,0
399,-762,0,0,0,0,0,0,0,0,0,-1,1623,1786,0,0
406,-762,0,0,0,0,0,0,0,0,0,-1,1630,1786,0,0
413,-762,0,0,0,0,0,0,0,0,0,-1,1637,1786,0,0
420,-762,0,0,0,0,0,0,0,0,0,-1,1644,1786,0,0
427,-762,0,0,0,0,0,0,0,0,0,-1,1651,1786,0,0
434,-762,0,0,0,0,0,0,0,0,0,-1,1658,1786,0,0
441,-762,0,0,0,0,0,0,0,0,0,-1,1665,1786,0,0
448,-762,0,0,0,0,0,0,0,0,0,-1,1672,1786,0,0
455,-762,0,0,0,0,0,0,0,0,0,-1,1679,1786,0,0
462,-762,0,0,0,0,0,0,0,0,0,-1,1686,1786,0,0
469,-762,0,0,0,0,0,0,0,0,0,-1,1693,1786,0,0
476,-762,0,0,0,0,0,0,0,0,0,-1,1700,1786,0,0
483,-762,0,0,0,0,0,0,0,0,0,-1,1707,1786,0,0
490,-762,0,0,0,0,0,0,0,0,0,-1,1714,1786,0,0
497,-762,0,0,0,0,0,0,0,0,0,-1,1721,1786,0,0
504,-762,0,0,0,0,0,0,0,0,0,-1,1728,1786,0,0
511,-762,0,0,0,0,0,0,0,0,0,-1,1735,1786,0,0
518,-762,0,0,0,0,0,0,0,0,0,-1,1742,1786,0,0
525,-762,0,0,0,0,0,0,0,0,0,-1,1749,1786,0,0
532,-762,0,0,0,0,0,0,0,0,0,-1,1756,1786,0,0
539,-762,0,0,0,0,0,0,0,0,0,-1,1763,1786,0,0
546,-762,0,0,0,0,0,0,0,0,0,-1,1770,1786,0,0
553,-762,0,0,0,0,0,0,0,0,0,-1,1777,1786,0,0
560,-762,0,0,0,0,0,0,0,0,0,-1,1784,1786,0,0
567,-762,0,0,0,0,0,0,0,0,0,-1,1791,1786,0,0
574,-762,0,0,0,0,0,0,0,0,0,-1,1798,1786,0,0
581,-762,0,0,0,0,0,0,0,0,0,-1,1805,1786,0,0
588,-762,0,0,0,0,0,0,0,0,0,-1,1812,1786,0,0
595,-762,0,0,0,0,0,0,0,0,0,-1,1819,1786,0,0
602,-762,0,0,0,0,0,0,0,0,0,-1,1826,1786,0,0
609,-762,0,0,0,0,0,0,0,0,0,-1,1833,1786,0,0
616,-762,0,0,0,0,0,0,0,0,0,-1,1840,1786,0,0
623,-762,0,0,0,0,0,0,0,0,0,-1,1847,1786,0,0
630,-762,0,0,0,0,0,0,0,0,0,-1,1854,1786,0,0
637,-762,0,0,0,0,0,0,0,0,0,-1,1861,1786,0,0
644,-762,0,0,0,0,0,0,0,0,0,-1,1868,1786,0,0
651,-762,0,0,0,0,0,0,0,0,0,-1,1875,1786,0,0
658,-762,0,0,0,0,0,0,0,0,0,-1,1882,1786,0,0
665,-762,0,0,0,0,0,0,0,0,0,-1,1889,1786,0,0
672,-762,0,0,0,0,0,0,0,0,0,-1,1896,1786,0,0
679,-762,0,0,0,0,0,0,0,0,0,-1,1903,1786,0,0
686,-762,0,0,0,0,0,0,0,0,0,-1,1910,1786,0,0
693,-762,0,0,0,0,0,0,0,0,0,-1,1917,1786,0,0
700,-762,0,0,0,0,0,0,0,0,0,-1,1924,1786,0,0
707,-762,0,0,0,0,0,0,0,0,0,-1,1931,1786,0,0
714,-762,0,0,0,0,0,0,0,0,0,-1,1938,1786,0,0
721,-762,0,0,0,0,0,0,0,0,0,-1,1945,1786,0,0
728,-762,0,0,0,0,0,0,0,0,0,-1,1952,1786,0,0
735,-762,0,0,0,0,0,0,0,0,0,-1,1959,1786,0,0
742,-762,0,0,0,0,0,0,0,0,0,-1,1966,1786,0,0
749,-762,0,0,0,0,0,0,0,0,0,-1,1973,1786,0,0
756,-762,0,0,0,0,0,0,0,0,0,-1,1980,1786,0,0
763,-762,0,0,0,0,0,0,0,0,0,-1,1987,1786,0,0
770,-762,0,0,0,0,0,0,0,0,0,-1,1994,1786,0,0
777,-762,0,0,0,0,0,0,0,0,0,-1,2001,1786,0,0
784,-762,0,0,0,0,0,0,0,0,0,-1,2008,1786,0,0
791,-762,0,0,0,0,0,0,0,0,0,-1,2015,1786,0,0
798,-762,0,0,0,0,0,0,0,0,0,-1,2022,1786,0,0
805,-762,0,0,0,0,0,0,0,0,0,-1,2029,1786,0,0
812,-762,0,0,0,0,0,0,0,0,0,-1,2036,1786,0,0
-700,-769,0,0,0,0,0,0,0,0,0,-1,524,1793,0,0
-693,-769,0,0,0,0,0,0,0,0,0,-1,531,1793,0,0
-686,-769,0,0,0,0,0,0,0,0,0,-1,538,1793,0,0
-679,-769,0,0,0,0,0,0,0,0,0,-1,545,1793,0,0
-672,-769,0,0,0,0,0,0,0,0,0,-1,552,1793,0,0
-665,-769,0,0,0,0,0,0,0,0,0,-1,559,1793,0,0
-658,-769,0,0,0,0,0,0,0,0,0,-1,566,1793,0,0
-651,-769,0,0,0,0,0,0,0,0,0,-1,573,1793,0,0
-644,-769,0,0,0,0,0,0,0,0,0,-1,580,1793,0,0
-637,-769,0,0,0,0,0,0,0,0,0,-1,587,1793,0,0
-630,-769,0,0,0,0,0,0,0,0,0,-1,594,1793,0,0
-623,-769,0,0,0,0,0,0,0,0,0,-1,601,1793,0,0
-616,-769,0,0,0,0,0,0,0,0,0,-1,608,1793,0,0
-609,-769,0,0,0,0,0,0,0,0,0,-1,615,1793,0,0
-602,-769,0,0,0,0,0,0,0,0,0,-1,622,1793,0,0
-595,-769,0,0,0,0,0,0,0,0,0,-1,629,1793,0,0
-588,-769,0,0,0,0,0,0,0,0,0,-1,636,1793,0,0
-581,-769,0,0,0,0,0,0,0,0,0,-1,643,1793,0,0
-574,-769,0,0,0,0,0,0,0,0,0,-1,650,1793,0,0
-567,-769,0,0,0,0,0,0,0,0,0,-1,657,1793,0,0
-560,-769,0,0,0,0,0,0,0,0,0,-1,664,1793,0,0
-553,-769,0,0,0,0,0,0,0,0,0,-1,671,1793,0,0
-546,-769,0,0,0,0,0,0,0,0,0,-1,678,1793,0,0
-539,-769,0,0,0,0,0,0,0,0,0,-1,685,1793,0,0
-532,-769,0,0,0,0,0,0,0,0,0,-1,692,1793,0,0
-525,-769,0,0,0,0,0,0,0,0,0,-1,699,1793,0,0
-518,-769,0,0,0,0,0,0,0,0,0,-1,706,1793,0,0
-511,-769,0,0,0,0,0,0,0,0,0,-1,713,1793,0,0
-504,-769,0,0,0,0,0,0,0,0,0,-1,720,1793,0,0
-497,-769,0,0,0,0,0,0,0,0,0,-1,727,1793,0,0
-490,-769,0,0,0,0,0,0,0,0,0,-1,734,1793,0,0
-483,-769,0,0,0,0,0,0,0,0,0,-1,741,1793,0,0
-476,-769,0,0,0,0,0,0,0,0,0,-1,748,1793,0,0
-469,-769,0,0,0,0,0,0,0,0,0,-1,755,1793,0,0
-462,-769,0,0,0,0,0,0,0,0,0,-1,762,1793,0,0
-455,-769,0,0,0,0,0,0,0,0,0,-1,769,1793,0,0
-448,-769,0,0,0,0,0,0,0,0,0,-1,776,1793,0,0
-441,-769,0,0,0,0,0,0,0,0,0,-1,783,1793,0,0
-434,-769,0,0,0,0,0,0,0,0,0,-1,790,1793,0,0
-427,-769,0,0,0,0,0,0,0,0,0,-1,797,1793,0,0
-420,-769,0,0,0,0,0,0,0,0,0,-1,804,1793,0,0
-413,-769,0,0,0,0,0,0,0,0,0,-1,811,1793,0,0
-406,-769,0,0,0,0,0,0,0,0,0,-1,818,1793,0,0
-399,-769,0,0,0,0,0,0,0,0,0,-1,825,1793,0,0
-392,-769,0,0,0,0,0,0,0,0,0,-1,832,1793,0,0
-385,-769,0,0,0,0,0,0,0,0,0,-1,839,1793,0,0
-378,-769,0,0,0,0,0,0,0,0,0,-1,846,1793,0,0
-371,-769,0,0,0,0,0,0,0,0,0,-1,853,1793,0,0
-364,-769,0,0,0,0,0,0,0,0,0,-1,860,1793,0,0
-357,-769,0,0,0,0,0,0,0,0,0,-1,867,1793,0,0
-350,-769,0,0,0,0,0,0,0,0,0,-1,874,1793,0,0
-343,-769,0,0,0,0,0,0,0,0,0,-1,881,1793,0,0
-336,-769,0,0,0,0,0,0,0,0,0,-1,888,1793,0,0
-329,-769,0,0,0,0,0,0,0,0,0,-1,895,1793,0,0
-322,-769,0,0,0,0,0,0,0,0,0,-1,902,1793,0,0
-315,-769,0,0,0,0,0,0,0,0,0,-1,909,1793,0,0
-308,-769,0,0,0,0,0,0,0,0,0,-1,916,1793,0,0
-301,-769,0,0,0,0,0,0,0,0,0,-1,923,1793,0,0
-294,-769,0,0,0,0,0,0,0,0,0,-1,930,1793,0,0
-287,-769,0,0,0,0,0,0,0,0,0,-1,937,1793,0,0
-280,-769,0,0,0,0,0,0,0,0,0,-1,944,1793,0,0
-273,-769,0,0,0,0,0,0,0,0,0,-1,951,1793,0,0
-266,-769,0,0,0,0,0,0,0,0,0,-1,958,1793,0,0
-259,-769,0,0,0,0,0,0,0,0,0,-1,965,1793,0,0
-252,-769,0,0,0,0,0,0,0,0,0,-1,972,1793,0,0
-245,-769,0,0,0,0,0,0,0,0,0,-1,979,1793,0,0
-238,-769,0,0,0,0,0,0,0,0,0,-1,986,1793,0,0
-231,-769,0,0,0,0,0,0,0,0,0,-1,993,1793,0,0
-224,-769,0,0,0,0,0,0,0,0,0,-1,1000,1793,0,0
-217,-769,0,0,0,0,0,0,0,0,0,-1,1007,1793,0,0
-210,-769,0,0,0,0,0,0,0,0,0,-1,1014,1793,0,0
-203,-769,0,0,0,0,0,0,0,0,0,-1,1021,1793,0,0
-196,-769,0,0,0,0,0,0,0,0,0,-1,1028,1793,0,0
-189,-769,0,0,0,0,0,0,0,0,0,-1,1035,1793,0,0
-182,-769,0,0,0,0,0,0,0,0,0,-1,1042,1793,0,0
-175,-769,0,0,0,0,0,0,0,0,0,-1,1049,1793,0,0
-168,-769,0,0,0,0,0,0,0,0,0,-1,1056,1793,0,0
-161,-769,-3.61145,12.4761,0,0,0,0,0,0,0,-1,1063,1793,-3.6114,-12.476
-154,-769,-0.813232,5.32874,0,0,0,0,0,0,0,-1,1070,1793,-0.813269,-5.32872
-147,-769,4.26587,4.7002,0,0,0,0,0,0,0,-1,1077,1793,4.26593,-4.70022
-140,-769,4.10376,5.28589,0,0,0,0,0,0,0,-1,1084,1793,4.10371,-5.28584
-133,-769,6.422,8.21777,0,0,0,0,0,0,0,-1,1091,1793,6.42198,-8.21773
-126,-769,-0.352295,19.326,0,0,0,0,0,0,0,-1,1098,1793,-0.352235,-19.326
-119,-769,6.01685,16.2577,0,0,0,0,0,0,0,-1,1105,1793,6.01689,-16.2576
-112,-769,2.77722,20.0741,0,0,0,0,0,0,0,-1,1112,1793,2.77727,-20.0741
-105,-769,4.55212,21.8363,0,0,0,0,0,0,0,-1,1119,1793,4.55214,-21.8363
-98,-769,4.71545,19.8396,0,0,0,0,0,0,0,-1,1126,1793,4.71539,-19.8396
-91,-769,3.96802,16.1481,0,0,0,0,0,0,0,-1,1133,1793,3.96803,-16.1481
-84,-769,3.2207,12.4565,0,0,0,0,0,0,0,-1,1140,1793,3.22066,-12.4565
-77,-769,2.48816,8.98486,0,0,0,0,0,0,0,-1,1147,1793,2.48815,-8.98489
-70,-769,1.04944,11.9852,0,0,0,0,0,0,0,-1,1154,1793,1.04947,-11.9852
-63,-769,-2.39709,9.60339,0,0,0,0,0,0,0,-1,1161,1793,-2.39706,-9.6034
-56,-769,-5.84363,7.22156,0,0,0,0,0,0,0,-1,1168,1793,-5.84359,-7.22157
-49,-769,-2.41443,3.95471,0,0,0,0,0,0,0,-1,1175,1793,-2.41446,-3.95471
-42,-769,-3.1991,2.64941,0,0,0,0,0,0,0,-1,1182,1793,-3.19914,-2.64944
-35,-769,-3.50183,1.73389,0,0,0,0,0,0,0,-1,1189,1793,-3.50189,-1.7339
-28,-769,-3.96985,1.14075,0,0,0,0,0,0,0,-1,1196,1793,-3.96985,-1.14078
-21,-769,7.18909,27.4938,0,0,0,0,0,0,0,-1,1203,1793,7.18905,-27.4938
-14,-769,7.85962,29.5334,0,0,0,0,0,0,0,-1,1210,1793,7.85963,-29.5335
-7,-769,6.64404,28.6688,0,0,0,0,0,0,0,-1,1217,1793,6.64404,-28.6688
0,-769,6.53784,28.4429,-0.00658529,-0.00843725,0.004751,-0.00267087,-0.0123517,0.689154,0.00750429,0.0480388,1224,1793,6.53786,-28.4428
7,-769,6.53516,28.2566,0.00230005,-0.00793508,0.0071786,0.00599848,-0.0116335,0.475735,0.0103517,0.0423575,1231,1793,6.5351,-28.2566
14,-769,6.82288,28.6178,0.0103214,-0.00753046,0.00883258,0.0139529,-0.0111619,0.39007,0.0145298,0.0376462,1238,1793,6.82288,-28.6178
21,-769,6.43384,28.3676,0.0172636,-0.00705118,0.00987957,0.0207718,-0.0105593,0.3412,0.0184065,0.0425892,1245,1793,6.43378,-28.3675
28,-769,6.78882,28.7861,0.0225592,-0.0064357,0.0102729,0.02583,-0.00970647,0.308238,0.0212092,0.0417421,1252,1793,6.7888,-28.7861
35,-769,6.80774,28.7749,0.0257773,-0.00608591,0.010252,0.0287909,-0.00909949,0.285897,0.0228395,0.0450139,1259,1793,6.80779,-28.7749
42,-769,6.30908,28.5636,0.0277833,-0.00537351,0.0102318,0.0306865,-0.00827672,0.276477,0.0237032,0.0460779,1266,1793,6.30905,-28.5636
49,-769,6.22852,28.6738,0.0275336,-0.00499991,0.010268,0.0305033,-0.00796956,0.281532,0.0234479,0.0429779,1273,1793,6.22847,-28.6739
56,-769,6.28369,28.5505,0.0274516,-0.00508383,0.0101621,0.0303648,-0.00799702,0.279184,0.0233695,0.0435893,1280,1793,6.28367,-28.5505
63,-769,6.16895,28.4023,0.0263042,-0.00569833,0.00876279,0.0285465,-0.0079406,0.250511,0.0221574,0.0422772,1287,1793,6.16897,-28.4023
70,-769,6.11719,28.2651,0.022582,-0.00670298,0.00685685,0.024108,-0.00822895,0.218977,0.0194055,0.0435467,1294,1793,6.11713,-28.2651
77,-769,6.39795,28.2362,0.0100916,-0.00812716,0.00540001,0.0115719,-0.00960744,0.267553,0.0122454,0.0491839,1301,1793,6.39799,-28.2363
84,-769,6.34021,28.5366,-0.00478807,-0.00994857,0.00496882,-0.00176949,-0.0129671,0.545919,0.00811946,0.0470233,1308,1793,6.34017,-28.5366
91,-769,6.40344,28.1761,0,0,0,0,0,0,0,-1,1315,1793,6.4035,-28.1761
98,-769,6.28406,28.6471,0.000575705,-0.0117747,0.00270142,0.00114074,-0.0123397,0.20619,0.00863187,0.0471579,1322,1793,6.28404,-28.6471
105,-769,6.2832,28.9012,0.00243,-0.0123855,0.00113793,0.00251689,-0.0124724,0.0762113,0.00926851,0.0452282,1329,1793,6.28318,-28.9013
112,-769,6.24353,29.1498,0,0,0,0,0,0,0,-1,1336,1793,6.24353,-29.1497
119,-769,6.45239,28.7881,0,0,0,0,0,0,0,-1,1343,1793,6.45243,-28.7881
126,-769,6.58008,28.6592,0,0,0,0,0,0,0,-1,1350,1793,6.58012,-28.6592
133,-769,6.21912,28.2886,0,0,0,0,0,0,0,-1,1357,1793,6.2191,-28.2885
140,-769,6.1593,28.1033,0,0,0,0,0,0,0,-1,1364,1793,6.1593,-28.1032
147,-769,7.84912,27.5879,0,0,0,0,0,0,0,-1,1371,1793,7.84915,-27.5879
154,-769,6.3584,24.4514,0,0,0,0,0,0,0,-1,1378,1793,6.35835,-24.4514
161,-769,6.57019,1.53223,0,0,0,0,0,0,0,-1,1385,1793,6.57019,-1.53226
168,-769,8.27637,0.756958,0,0,0,0,0,0,0,-1,1392,1793,8.27639,-0.756944
175,-769,8.47144,2.41174,0,0,0,0,0,0,0,-1,1399,1793,8.47147,-2.4118
182,-769,8.41479,4.05994,0,0,0,0,0,0,0,-1,1406,1793,8.41479,-4.05997
189,-769,8.25049,5.68433,0,0,0,0,0,0,0,-1,1413,1793,8.25054,-5.68428
196,-769,7.97729,7.42847,0,0,0,0,0,0,0,-1,1420,1793,7.9773,-7.42848
203,-769,22.0977,6.73889,0,0,0,0,0,0,0,-1,1427,1793,22.0977,-6.7389
210,-769,22.1115,7.77246,0,0,0,0,0,0,0,-1,1434,1793,22.1115,-7.77248
217,-769,22.4723,8.79102,0,0,0,0,0,0,0,-1,1441,1793,22.4723,-8.79099
224,-769,22.1348,9.35278,0,0,0,0,0,0,0,-1,1448,1793,22.1348,-9.35283
231,-769,3.13318,19.7184,0,0,0,0,0,0,0,-1,1455,1793,3.13323,-19.7184
238,-769,5.74512,18.6597,0,0,0,0,0,0,0,-1,1462,1793,5.74512,-18.6596
245,-769,5.86584,22.3948,0,0,0,0,0,0,0,-1,1469,1793,5.86589,-22.3947
252,-769,4.34961,12.5251,0,0,0,0,0,0,0,-1,1476,1793,4.34959,-12.5252
259,-769,16.4871,7.42102,0,0,0,0,0,0,0,-1,1483,1793,16.4871,-7.42104
266,-769,15.8488,7.3905,0,0,0,0,0,0,0,-1,1490,1793,15.8488,-7.39046
273,-769,14.8075,7.56152,0,0,0,0,0,0,0,-1,1497,1793,14.8075,-7.56152
280,-769,13.6519,7.43054,0,0,0,0,0,0,0,-1,1504,1793,13.6518,-7.43058
287,-769,0,0,0,0,0,0,0,0,0,-1,1511,1793,0,0
294,-769,0,0,0,0,0,0,0,0,0,-1,1518,1793,0,0
301,-769,0,0,0,0,0,0,0,0,0,-1,1525,1793,0,0
308,-769,0,0,0,0,0,0,0,0,0,-1,1532,1793,0,0
315,-769,0,0,0,0,0,0,0,0,0,-1,1539,1793,0,0
322,-769,0,0,0,0,0,0,0,0,0,-1,1546,1793,0,0
329,-769,0,0,0,0,0,0,0,0,0,-1,1553,1793,0,0
336,-769,0,0,0,0,0,0,0,0,0,-1,1560,1793,0,0
343,-769,0,0,0,0,0,0,0,0,0,-1,1567,1793,0,0
350,-769,0,0,0,0,0,0,0,0,0,-1,1574,1793,0,0
357,-769,0,0,0,0,0,0,0,0,0,-1,1581,1793,0,0
364,-769,0,0,0,0,0,0,0,0,0,-1,1588,1793,0,0
371,-769,0,0,0,0,0,0,0,0,0,-1,1595,1793,0,0
378,-769,0,0,0,0,0,0,0,0,0,-1,1602,1793,0,0
385,-769,0,0,0,0,0,0,0,0,0,-1,1609,1793,0,0
392,-769,0,0,0,0,0,0,0,0,0,-1,1616,1793,0,0
399,-769,0,0,0,0,0,0,0,0,0,-1,1623,1793,0,0
406,-769,0,0,0,0,0,0,0,0,0,-1,1630,1793,0,0
413,-769,0,0,0,0,0,0,0,0,0,-1,1637,1793,0,0
420,-769,0,0,0,0,0,0,0,0,0,-1,1644,1793,0,0
427,-769,0,0,0,0,0,0,0,0,0,-1,1651,1793,0,0
434,-769,0,0,0,0,0,0,0,0,0,-1,1658,1793,0,0
441,-769,0,0,0,0,0,0,0,0,0,-1,1665,1793,0,0
448,-769,0,0,0,0,0,0,0,0,0,-1,1672,1793,0,0
455,-769,0,0,0,0,0,0,0,0,0,-1,1679,1793,0,0
462,-769,0,0,0,0,0,0,0,0,0,-1,1686,1793,0,0
469,-769,0,0,0,0,0,0,0,0,0,-1,1693,1793,0,0
476,-769,0,0,0,0,0,0,0,0,0,-1,1700,1793,0,0
483,-769,0,0,0,0,0,0,0,0,0,-1,1707,1793,0,0
490,-769,0,0,0,0,0,0,0,0,0,-1,1714,1793,0,0
497,-769,0,0,0,0,0,0,0,0,0,-1,1721,1793,0,0
504,-769,0,0,0,0,0,0,0,0,0,-1,1728,1793,0,0
511,-769,0,0,0,0,0,0,0,0,0,-1,1735,1793,0,0
518,-769,0,0,0,0,0,0,0,0,0,-1,1742,1793,0,0
525,-769,0,0,0,0,0,0,0,0,0,-1,1749,1793,0,0
532,-769,0,0,0,0,0,0,0,0,0,-1,1756,1793,0,0
539,-769,0,0,0,0,0,0,0,0,0,-1,1763,1793,0,0
546,-769,0,0,0,0,0,0,0,0,0,-1,1770,1793,0,0
553,-769,0,0,0,0,0,0,0,0,0,-1,1777,1793,0,0
560,-769,0,0,0,0,0,0,0,0,0,-1,1784,1793,0,0
567,-769,0,0,0,0,0,0,0,0,0,-1,1791,1793,0,0
574,-769,0,0,0,0,0,0,0,0,0,-1,1798,1793,0,0
581,-769,0,0,0,0,0,0,0,0,0,-1,1805,1793,0,0
588,-769,0,0,0,0,0,0,0,0,0,-1,1812,1793,0,0
595,-769,0,0,0,0,0,0,0,0,0,-1,1819,1793,0,0
602,-769,0,0,0,0,0,0,0,0,0,-1,1826,1793,0,0
609,-769,0,0,0,0,0,0,0,0,0,-1,1833,1793,0,0
616,-769,0,0,0,0,0,0,0,0,0,-1,1840,1793,0,0
623,-769,0,0,0,0,0,0,0,0,0,-1,1847,1793,0,0
630,-769,0,0,0,0,0,0,0,0,0,-1,1854,1793,0,0
637,-769,0,0,0,0,0,0,0,0,0,-1,1861,1793,0,0
644,-769,0,0,0,0,0,0,0,0,0,-1,1868,1793,0,0
651,-769,0,0,0,0,0,0,0,0,0,-1,1875,1793,0,0
658,-769,0,0,0,0,0,0,0,0,0,-1,1882,1793,0,0
665,-769,0,0,0,0,0,0,0,0,0,-1,1889,1793,0,0
672,-769,0,0,0,0,0,0,0,0,0,-1,1896,1793,0,0
679,-769,0,0,0,0,0,0,0,0,0,-1,1903,1793,0,0
686,-769,0,0,0,0,0,0,0,0,0,-1,1910,1793,0,0
693,-769,0,0,0,0,0,0,0,0,0,-1,1917,1793,0,0
700,-769,0,0,0,0,0,0,0,0,0,-1,1924,1793,0,0
707,-769,0,0,0,0,0,0,0,0,0,-1,1931,1793,0,0
714,-769,0,0,0,0,0,0,0,0,0,-1,1938,1793,0,0
721,-769,0,0,0,0,0,0,0,0,0,-1,1945,1793,0,0
728,-769,0,0,0,0,0,0,0,0,0,-1,1952,1793,0,0
735,-769,0,0,0,0,0,0,0,0,0,-1,1959,1793,0,0
742,-769,0,0,0,0,0,0,0,0,0,-1,1966,1793,0,0
749,-769,0,0,0,0,0,0,0,0,0,-1,1973,1793,0,0
756,-769,0,0,0,0,0,0,0,0,0,-1,1980,1793,0,0
763,-769,0,0,0,0,0,0,0,0,0,-1,1987,1793,0,0
770,-769,0,0,0,0,0,0,0,0,0,-1,1994,1793,0,0
777,-769,0,0,0,0,0,0,0,0,0,-1,2001,1793,0,0
784,-769,0,0,0,0,0,0,0,0,0,-1,2008,1793,0,0
791,-769,0,0,0,0,0,0,0,0,0,-1,2015,1793,0,0
798,-769,0,0,0,0,0,0,0,0,0,-1,2022,1793,0,0
805,-769,0,0,0,0,0,0,0,0,0,-1,2029,1793,0,0
812,-769,0,0,0,0,0,0,0,0,0,-1,2036,1793,0,0
-700,-776,0,0,0,0,0,0,0,0,0,-1,524,1800,0,0
-693,-776,0,0,0,0,0,0,0,0,0,-1,531,1800,0,0
-686,-776,0,0,0,0,0,0,0,0,0,-1,538,1800,0,0
-679,-776,0,0,0,0,0,0,0,0,0,-1,545,1800,0,0
-672,-776,0,0,0,0,0,0,0,0,0,-1,552,1800,0,0
-665,-776,0,0,0,0,0,0,0,0,0,-1,559,1800,0,0
-658,-776,0,0,0,0,0,0,0,0,0,-1,566,1800,0,0
-651,-776,0,0,0,0,0,0,0,0,0,-1,573,1800,0,0
-644,-776,0,0,0,0,0,0,0,0,0,-1,580,1800,0,0
-637,-776,0,0,0,0,0,0,0,0,0,-1,587,1800,0,0
-630,-776,0,0,0,0,0,0,0,0,0,-1,594,1800,0,0
-623,-776,0,0,0,0,0,0,0,0,0,-1,601,1800,0,0
-616,-776,0,0,0,0,0,0,0,0,0,-1,608,1800,0,0
-609,-776,0,0,0,0,0,0,0,0,0,-1,615,1800,0,0
-602,-776,0,0,0,0,0,0,0,0,0,-1,622,1800,0,0
-595,-776,0,0,0,0,0,0,0,0,0,-1,629,1800,0,0
-588,-776,0,0,0,0,0,0,0,0,0,-1,636,1800,0,0
-581,-776,0,0,0,0,0,0,0,0,0,-1,643,1800,0,0
-574,-776,0,0,0,0,0,0,0,0,0,-1,650,1800,0,0
-567,-776,0,0,0,0,0,0,0,0,0,-1,657,1800,0,0
-560,-776,0,0,0,0,0,0,0,0,0,-1,664,1800,0,0
-553,-776,0,0,0,0,0,0,0,0,0,-1,671,1800,0,0
-546,-776,0,0,0,0,0,0,0,0,0,-1,678,1800,0,0
-539,-776,0,0,0,0,0,0,0,0,0,-1,685,1800,0,0
-532,-776,0,0,0,0,0,0,0,0,0,-1,692,1800,0,0
-525,-776,0,0,0,0,0,0,0,0,0,-1,699,1800,0,0
-518,-776,0,0,0,0,0,0,0,0,0,-1,706,1800,0,0
-511,-776,0,0,0,0,0,0,0,0,0,-1,713,1800,0,0
-504,-776,0,0,0,0,0,0,0,0,0,-1,720,1800,0,0
-497,-776,0,0,0,0,0,0,0,0,0,-1,727,1800,0,0
-490,-776,0,0,0,0,0,0,0,0,0,-1,734,1800,0,0
-483,-776,0,0,0,0,0,0,0,0,0,-1,741,1800,0,0
-476,-776,0,0,0,0,0,0,0,0,0,-1,748,1800,0,0
-469,-776,0,0,0,0,0,0,0,0,0,-1,755,1800,0,0
-462,-776,0,0,0,0,0,0,0,0,0,-1,762,1800,0,0
-455,-776,0,0,0,0,0,0,0,0,0,-1,769,1800,0,0
-448,-776,0,0,0,0,0,0,0,0,0,-1,776,1800,0,0
-441,-776,0,0,0,0,0,0,0,0,0,-1,783,1800,0,0
-434,-776,0,0,0,0,0,0,0,0,0,-1,790,1800,0,0
-427,-776,0,0,0,0,0,0,0,0,0,-1,797,1800,0,0
-420,-776,0,0,0,0,0,0,0,0,0,-1,804,1800,0,0
-413,-776,0,0,0,0,0,0,0,0,0,-1,811,1800,0,0
-406,-776,0,0,0,0,0,0,0,0,0,-1,818,1800,0,0
-399,-776,0,0,0,0,0,0,0,0,0,-1,825,1800,0,0
-392,-776,0,0,0,0,0,0,0,0,0,-1,832,1800,0,0
-385,-776,0,0,0,0,0,0,0,0,0,-1,839,1800,0,0
-378,-776,0,0,0,0,0,0,0,0,0,-1,846,1800,0,0
-371,-776,0,0,0,0,0,0,0,0,0,-1,853,1800,0,0
-364,-776,0,0,0,0,0,0,0,0,0,-1,860,1800,0,0
-357,-776,0,0,0,0,0,0,0,0,0,-1,867,1800,0,0
-350,-776,0,0,0,0,0,0,0,0,0,-1,874,1800,0,0
-343,-776,0,0,0,0,0,0,0,0,0,-1,881,1800,0,0
-336,-776,0,0,0,0,0,0,0,0,0,-1,888,1800,0,0
-329,-776,0,0,0,0,0,0,0,0,0,-1,895,1800,0,0
-322,-776,0,0,0,0,0,0,0,0,0,-1,902,1800,0,0
-315,-776,0,0,0,0,0,0,0,0,0,-1,909,1800,0,0
-308,-776,0,0,0,0,0,0,0,0,0,-1,916,1800,0,0
-301,-776,0,0,0,0,0,0,0,0,0,-1,923,1800,0,0
-294,-776,0,0,0,0,0,0,0,0,0,-1,930,1800,0,0
-287,-776,0,0,0,0,0,0,0,0,0,-1,937,1800,0,0
-280,-776,0,0,0,0,0,0,0,0,0,-1,944,1800,0,0
-273,-776,0,0,0,0,0,0,0,0,0,-1,951,1800,0,0
-266,-776,0,0,0,0,0,0,0,0,0,-1,958,1800,0,0
-259,-776,0,0,0,0,0,0,0,0,0,-1,965,1800,0,0
-252,-776,0,0,0,0,0,0,0,0,0,-1,972,1800,0,0
-245,-776,0,0,0,0,0,0,0,0,0,-1,979,1800,0,0
-238,-776,0,0,0,0,0,0,0,0,0,-1,986,1800,0,0
-231,-776,0,0,0,0,0,0,0,0,0,-1,993,1800,0,0
-224,-776,0,0,0,0,0,0,0,0,0,-1,1000,1800,0,0
-217,-776,0,0,0,0,0,0,0,0,0,-1,1007,1800,0,0
-210,-776,0,0,0,0,0,0,0,0,0,-1,1014,1800,0,0
-203,-776,0,0,0,0,0,0,0,0,0,-1,1021,1800,0,0
-196,-776,0,0,0,0,0,0,0,0,0,-1,1028,1800,0,0
-189,-776,0,0,0,0,0,0,0,0,0,-1,1035,1800,0,0
-182,-776,0,0,0,0,0,0,0,0,0,-1,1042,1800,0,0
-175,-776,0,0,0,0,0,0,0,0,0,-1,1049,1800,0,0
-168,-776,0,0,0,0,0,0,0,0,0,-1,1056,1800,0,0
-161,-776,0,0,0,0,0,0,0,0,0,-1,1063,1800,0,0
-154,-776,0,0,0,0,0,0,0,0,0,-1,1070,1800,0,0
-147,-776,0,0,0,0,0,0,0,0,0,-1,1077,1800,0,0
-140,-776,2.98499,5.20911,0,0,0,0,0,0,0,-1,1084,1800,2.98493,-5.2091
-133,-776,6.72363,9.35828,0,0,0,0,0,0,0,-1,1091,1800,6.72358,-9.35824
-126,-776,6.55029,13.7832,0,0,0,0,0,0,0,-1,1098,1800,6.55029,-13.7832
-119,-776,5.72107,13.7787,0,0,0,0,0,0,0,-1,1105,1800,5.72106,-13.7787
-112,-776,6.84998,20.4421,0,0,0,0,0,0,0,-1,1112,1800,6.84993,-20.4421
-105,-776,2.15039,19.7095,0,0,0,0,0,0,0,-1,1119,1800,2.1504,-19.7095
-98,-776,3.92517,21.9519,0,0,0,0,0,0,0,-1,1126,1800,3.92517,-21.9519
-91,-776,3.30225,18.134,0,0,0,0,0,0,0,-1,1133,1800,3.30222,-18.134
-84,-776,2.67932,14.3162,0,0,0,0,0,0,0,-1,1140,1800,2.67926,-14.3161
-77,-776,0.580078,11.1272,0,0,0,0,0,0,0,-1,1147,1800,0.58002,-11.1272
-70,-776,-0.562866,12.3163,0,0,0,0,0,0,0,-1,1154,1800,-0.562897,-12.3163
-63,-776,-3.96106,9.97656,0,0,0,0,0,0,0,-1,1161,1800,-3.961,-9.97654
-56,-776,-7.35913,7.63672,0,0,0,0,0,0,0,-1,1168,1800,-7.3591,-7.63676
-49,-776,-7.62952,3.1908,0,0,0,0,0,0,0,-1,1175,1800,-7.62955,-3.19076
-42,-776,-3.41272,3.0249,0,0,0,0,0,0,0,-1,1182,1800,-3.41269,-3.02488
-35,-776,-3.71753,1.63635,0,0,0,0,0,0,0,-1,1189,1800,-3.71755,-1.63631
-28,-776,-4.03979,0.716064,0,0,0,0,0,0,0,-1,1196,1800,-4.03977,-0.716055
-21,-776,7.60083,30.3594,0,0,0,0,0,0,0,-1,1203,1800,7.60079,-30.3594
-14,-776,7.47156,29.7368,0,0,0,0,0,0,0,-1,1210,1800,7.47158,-29.7369
-7,-776,6.62402,28.7615,0,0,0,0,0,0,0,-1,1217,1800,6.62399,-28.7614
0,-776,6.45093,28.532,-0.00819233,-0.0100876,0.00499248,-0.00405836,-0.0142216,0.691606,0.00845926,0.0484254,1224,1800,6.45093,-28.532
7,-776,6.03381,28.3754,0.00549142,-0.00915255,0.008657,0.00950765,-0.0131688,0.434376,0.013149,0.0468241,1231,1800,6.03385,-28.3753
14,-776,5.75732,27.9978,0.0178792,-0.0083708,0.0111869,0.0219999,-0.0124915,0.352924,0.0201642,0.0456182,1238,1800,5.75732,-27.9977
21,-776,6.54248,28.3687,0.0287375,-0.00753179,0.0128547,0.0328314,-0.0116257,0.308319,0.0266228,0.0427276,1245,1800,6.54248,-28.3687
28,-776,6.67834,28.6757,0,0,0,0,0,0,0,-1,1252,1800,6.67837,-28.6757
35,-776,7.33044,28.8972,0,0,0,0,0,0,0,-1,1259,1800,7.3305,-28.8972
42,-776,6.16443,28.7051,0,0,0,0,0,0,0,-1,1266,1800,6.16444,-28.7051
49,-776,6.05896,28.8868,0,0,0,0,0,0,0,-1,1273,1800,6.05899,-28.8869
56,-776,6.2605,28.6832,0.0470609,-0.00475541,0.0143871,0.0507875,-0.00848207,0.253457,0.0370111,0.043614,1280,1800,6.26044,-28.6832
63,-776,6.03101,28.4353,0.0461452,-0.00573557,0.0127378,0.0491039,-0.00869425,0.228228,0.0359858,0.0469999,1287,1800,6.03097,-28.4353
70,-776,5.8042,28.2007,0,0,0,0,0,0,0,-1,1294,1800,5.80414,-28.2006
77,-776,6.43298,28.0369,0,0,0,0,0,0,0,-1,1301,1800,6.433,-28.0369
84,-776,6.55518,28.6832,0,0,0,0,0,0,0,-1,1308,1800,6.55523,-28.6832
91,-776,6.24463,28.4612,0,0,0,0,0,0,0,-1,1315,1800,6.24464,-28.4612
98,-776,6.2522,28.6986,0.00123925,-0.0152564,0.00469967,0.00248424,-0.0165014,0.258962,0.0119156,0.0452834,1322,1800,6.25222,-28.6986
105,-776,6.25439,28.9374,0.00384097,-0.0160245,0.00282042,0.00423364,-0.0164172,0.138335,0.0125954,0.0463959,1329,1800,6.25443,-28.9373
112,-776,6.20496,29.1991,0,0,0,0,0,0,0,-1,1336,1800,6.20498,-29.1991
119,-776,5.64575,28.7048,0,0,0,0,0,0,0,-1,1343,1800,5.64579,-28.7048
126,-776,5.54736,29.3251,0,0,0,0,0,0,0,-1,1350,1800,5.54732,-29.3251
133,-776,2.20459,35.0486,0,0,0,0,0,0,0,-1,1357,1800,2.20457,-35.0485
140,-776,0.801392,27.2898,0,0,0,0,0,0,0,-1,1364,1800,0.801428,-27.2898
147,-776,-0.116943,26.8029,0,0,0,0,0,0,0,-1,1371,1800,-0.116958,-26.8029
154,-776,6.43774,0.344116,0,0,0,0,0,0,0,-1,1378,1800,6.43776,-0.344162
161,-776,6.50293,1.1731,0,0,0,0,0,0,0,-1,1385,1800,6.5029,-1.17313
168,-776,8.44971,1.22913,0,0,0,0,0,0,0,-1,1392,1800,8.44974,-1.22915
175,-776,8.61523,2.87061,0,0,0,0,0,0,0,-1,1399,1800,8.6152,-2.87063
182,-776,8.54065,4.60645,0,0,0,0,0,0,0,-1,1406,1800,8.5407,-4.60643
189,-776,8.35303,6.28223,0,0,0,0,0,0,0,-1,1413,1800,8.35297,-6.28225
196,-776,8.0387,8.21704,0,0,0,0,0,0,0,-1,1420,1800,8.03865,-8.217
203,-776,7.91736,9.79919,0,0,0,0,0,0,0,-1,1427,1800,7.91735,-9.79922
210,-776,20.2479,7.85718,0,0,0,0,0,0,0,-1,1434,1800,20.248,-7.85719
217,-776,21.5171,9.3418,0,0,0,0,0,0,0,-1,1441,1800,21.5171,-9.34182
224,-776,3.09253,14.9313,0,0,0,0,0,0,0,-1,1448,1800,3.09254,-14.9313
231,-776,20.8671,9.21057,0,0,0,0,0,0,0,-1,1455,1800,20.867,-9.21054
238,-776,20.7511,9.05847,0,0,0,0,0,0,0,-1,1462,1800,20.7511,-9.05848
245,-776,3.80823,15.4108,0,0,0,0,0,0,0,-1,1469,1800,3.80826,-15.4108
252,-776,16.6313,6.47168,0,0,0,0,0,0,0,-1,1476,1800,16.6313,-6.47165
259,-776,14.1882,7.69055,0,0,0,0,0,0,0,-1,1483,1800,14.1882,-7.69061
266,-776,0,0,0,0,0,0,0,0,0,-1,1490,1800,0,0
273,-776,0,0,0,0,0,0,0,0,0,-1,1497,1800,0,0
280,-776,0,0,0,0,0,0,0,0,0,-1,1504,1800,0,0
287,-776,0,0,0,0,0,0,0,0,0,-1,1511,1800,0,0
294,-776,0,0,0,0,0,0,0,0,0,-1,1518,1800,0,0
301,-776,0,0,0,0,0,0,0,0,0,-1,1525,1800,0,0
308,-776,0,0,0,0,0,0,0,0,0,-1,1532,1800,0,0
315,-776,0,0,0,0,0,0,0,0,0,-1,1539,1800,0,0
322,-776,0,0,0,0,0,0,0,0,0,-1,1546,1800,0,0
329,-776,0,0,0,0,0,0,0,0,0,-1,1553,1800,0,0
336,-776,0,0,0,0,0,0,0,0,0,-1,1560,1800,0,0
343,-776,0,0,0,0,0,0,0,0,0,-1,1567,1800,0,0
350,-776,0,0,0,0,0,0,0,0,0,-1,1574,1800,0,0
357,-776,0,0,0,0,0,0,0,0,0,-1,1581,1800,0,0
364,-776,0,0,0,0,0,0,0,0,0,-1,1588,1800,0,0
371,-776,0,0,0,0,0,0,0,0,0,-1,1595,1800,0,0
378,-776,0,0,0,0,0,0,0,0,0,-1,1602,1800,0,0
385,-776,0,0,0,0,0,0,0,0,0,-1,1609,1800,0,0
392,-776,0,0,0,0,0,0,0,0,0,-1,1616,1800,0,0
399,-776,0,0,0,0,0,0,0,0,0,-1,1623,1800,0,0
406,-776,0,0,0,0,0,0,0,0,0,-1,1630,1800,0,0
413,-776,0,0,0,0,0,0,0,0,0,-1,1637,1800,0,0
420,-776,0,0,0,0,0,0,0,0,0,-1,1644,1800,0,0
427,-776,0,0,0,0,0,0,0,0,0,-1,1651,1800,0,0
434,-776,0,0,0,0,0,0,0,0,0,-1,1658,1800,0,0
441,-776,0,0,0,0,0,0,0,0,0,-1,1665,1800,0,0
448,-776,0,0,0,0,0,0,0,0,0,-1,1672,1800,0,0
455,-776,0,0,0,0,0,0,0,0,0,-1,1679,1800,0,0
462,-776,0,0,0,0,0,0,0,0,0,-1,1686,1800,0,0
469,-776,0,0,0,0,0,0,0,0,0,-1,1693,1800,0,0
476,-776,0,0,0,0,0,0,0,0,0,-1,1700,1800,0,0
483,-776,0,0,0,0,0,0,0,0,0,-1,1707,1800,0,0
490,-776,0,0,0,0,0,0,0,0,0,-1,1714,1800,0,0
497,-776,0,0,0,0,0,0,0,0,0,-1,1721,1800,0,0
504,-776,0,0,0,0,0,0,0,0,0,-1,1728,1800,0,0
511,-776,0,0,0,0,0,0,0,0,0,-1,1735,1800,0,0
518,-776,0,0,0,0,0,0,0,0,0,-1,1742,1800,0,0
525,-776,0,0,0,0,0,0,0,0,0,-1,1749,1800,0,0
532,-776,0,0,0,0,0,0,0,0,0,-1,1756,1800,0,0
539,-776,0,0,0,0,0,0,0,0,0,-1,1763,1800,0,0
546,-776,0,0,0,0,0,0,0,0,0,-1,1770,1800,0,0
553,-776,0,0,0,0,0,0,0,0,0,-1,1777,1800,0,0
560,-776,0,0,0,0,0,0,0,0,0,-1,1784,1800,0,0
567,-776,0,0,0,0,0,0,0,0,0,-1,1791,1800,0,0
574,-776,0,0,0,0,0,0,0,0,0,-1,1798,1800,0,0
581,-776,0,0,0,0,0,0,0,0,0,-1,1805,1800,0,0
588,-776,0,0,0,0,0,0,0,0,0,-1,1812,1800,0,0
595,-776,0,0,0,0,0,0,0,0,0,-1,1819,1800,0,0
602,-776,0,0,0,0,0,0,0,0,0,-1,1826,1800,0,0
609,-776,0,0,0,0,0,0,0,0,0,-1,1833,1800,0,0
616,-776,0,0,0,0,0,0,0,0,0,-1,1840,1800,0,0
623,-776,0,0,0,0,0,0,0,0,0,-1,1847,1800,0,0
630,-776,0,0,0,0,0,0,0,0,0,-1,1854,1800,0,0
637,-776,0,0,0,0,0,0,0,0,0,-1,1861,1800,0,0
644,-776,0,0,0,0,0,0,0,0,0,-1,1868,1800,0,0
651,-776,0,0,0,0,0,0,0,0,0,-1,1875,1800,0,0
658,-776,0,0,0,0,0,0,0,0,0,-1,1882,1800,0,0
665,-776,0,0,0,0,0,0,0,0,0,-1,1889,1800,0,0
672,-776,0,0,0,0,0,0,0,0,0,-1,1896,1800,0,0
679,-776,0,0,0,0,0,0,0,0,0,-1,1903,1800,0,0
686,-776,0,0,0,0,0,0,0,0,0,-1,1910,1800,0,0
693,-776,0,0,0,0,0,0,0,0,0,-1,1917,1800,0,0
700,-776,0,0,0,0,0,0,0,0,0,-1,1924,1800,0,0
707,-776,0,0,0,0,0,0,0,0,0,-1,1931,1800,0,0
714,-776,0,0,0,0,0,0,0,0,0,-1,1938,1800,0,0
721,-776,0,0,0,0,0,0,0,0,0,-1,1945,1800,0,0
728,-776,0,0,0,0,0,0,0,0,0,-1,1952,1800,0,0
735,-776,0,0,0,0,0,0,0,0,0,-1,1959,1800,0,0
742,-776,0,0,0,0,0,0,0,0,0,-1,1966,1800,0,0
749,-776,0,0,0,0,0,0,0,0,0,-1,1973,1800,0,0
756,-776,0,0,0,0,0,0,0,0,0,-1,1980,1800,0,0
763,-776,0,0,0,0,0,0,0,0,0,-1,1987,1800,0,0
770,-776,0,0,0,0,0,0,0,0,0,-1,1994,1800,0,0
777,-776,0,0,0,0,0,0,0,0,0,-1,2001,1800,0,0
784,-776,0,0,0,0,0,0,0,0,0,-1,2008,1800,0,0
791,-776,0,0,0,0,0,0,0,0,0,-1,2015,1800,0,0
798,-776,0,0,0,0,0,0,0,0,0,-1,2022,1800,0,0
805,-776,0,0,0,0,0,0,0,0,0,-1,2029,1800,0,0
812,-776,0,0,0,0,0,0,0,0,0,-1,2036,1800,0,0
-700,-783,0,0,0,0,0,0,0,0,0,-1,524,1807,0,0
-693,-783,0,0,0,0,0,0,0,0,0,-1,531,1807,0,0
-686,-783,0,0,0,0,0,0,0,0,0,-1,538,1807,0,0
-679,-783,0,0,0,0,0,0,0,0,0,-1,545,1807,0,0
-672,-783,0,0,0,0,0,0,0,0,0,-1,552,1807,0,0
-665,-783,0,0,0,0,0,0,0,0,0,-1,559,1807,0,0
-658,-783,0,0,0,0,0,0,0,0,0,-1,566,1807,0,0
-651,-783,0,0,0,0,0,0,0,0,0,-1,573,1807,0,0
-644,-783,0,0,0,0,0,0,0,0,0,-1,580,1807,0,0
-637,-783,0,0,0,0,0,0,0,0,0,-1,587,1807,0,0
-630,-783,0,0,0,0,0,0,0,0,0,-1,594,1807,0,0
-623,-783,0,0,0,0,0,0,0,0,0,-1,601,1807,0,0
-616,-783,0,0,0,0,0,0,0,0,0,-1,608,1807,0,0
-609,-783,0,0,0,0,0,0,0,0,0,-1,615,1807,0,0
-602,-783,0,0,0,0,0,0,0,0,0,-1,622,1807,0,0
-595,-783,0,0,0,0,0,0,0,0,0,-1,629,1807,0,0
-588,-783,0,0,0,0,0,0,0,0,0,-1,636,1807,0,0
-581,-783,0,0,0,0,0,0,0,0,0,-1,643,1807,0,0
-574,-783,0,0,0,0,0,0,0,0,0,-1,650,1807,0,0
-567,-783,0,0,0,0,0,0,0,0,0,-1,657,1807,0,0
-560,-783,0,0,0,0,0,0,0,0,0,-1,664,1807,0,0
-553,-783,0,0,0,0,0,0,0,0,0,-1,671,1807,0,0
-546,-783,0,0,0,0,0,0,0,0,0,-1,678,1807,0,0
-539,-783,0,0,0,0,0,0,0,0,0,-1,685,1807,0,0
-532,-783,0,0,0,0,0,0,0,0,0,-1,692,1807,0,0
-525,-783,0,0,0,0,0,0,0,0,0,-1,699,1807,0,0
-518,-783,0,0,0,0,0,0,0,0,0,-1,706,1807,0,0
-511,-783,0,0,0,0,0,0,0,0,0,-1,713,1807,0,0
-504,-783,0,0,0,0,0,0,0,0,0,-1,720,1807,0,0
-497,-783,0,0,0,0,0,0,0,0,0,-1,727,1807,0,0
-490,-783,0,0,0,0,0,0,0,0,0,-1,734,1807,0,0
-483,-783,0,0,0,0,0,0,0,0,0,-1,741,1807,0,0
-476,-783,0,0,0,0,0,0,0,0,0,-1,748,1807,0,0
-469,-783,0,0,0,0,0,0,0,0,0,-1,755,1807,0,0
-462,-783,0,0,0,0,0,0,0,0,0,-1,762,1807,0,0
-455,-783,0,0,0,0,0,0,0,0,0,-1,769,1807,0,0
-448,-783,0,0,0,0,0,0,0,0,0,-1,776,1807,0,0
-441,-783,0,0,0,0,0,0,0,0,0,-1,783,1807,0,0
-434,-783,0,0,0,0,0,0,0,0,0,-1,790,1807,0,0
-427,-783,0,0,0,0,0,0,0,0,0,-1,797,1807,0,0
-420,-783,0,0,0,0,0,0,0,0,0,-1,804,1807,0,0
-413,-783,0,0,0,0,0,0,0,0,0,-1,811,1807,0,0
-406,-783,0,0,0,0,0,0,0,0,0,-1,818,1807,0,0
-399,-783,0,0,0,0,0,0,0,0,0,-1,825,1807,0,0
-392,-783,0,0,0,0,0,0,0,0,0,-1,832,1807,0,0
-385,-783,0,0,0,0,0,0,0,0,0,-1,839,1807,0,0
-378,-783,0,0,0,0,0,0,0,0,0,-1,846,1807,0,0
-371,-783,0,0,0,0,0,0,0,0,0,-1,853,1807,0,0
-364,-783,0,0,0,0,0,0,0,0,0,-1,860,1807,0,0
-357,-783,0,0,0,0,0,0,0,0,0,-1,867,1807,0,0
-350,-783,0,0,0,0,0,0,0,0,0,-1,874,1807,0,0
-343,-783,0,0,0,0,0,0,0,0,0,-1,881,1807,0,0
-336,-783,0,0,0,0,0,0,0,0,0,-1,888,1807,0,0
-329,-783,0,0,0,0,0,0,0,0,0,-1,895,1807,0,0
-322,-783,0,0,0,0,0,0,0,0,0,-1,902,1807,0,0
-315,-783,0,0,0,0,0,0,0,0,0,-1,909,1807,0,0
-308,-783,0,0,0,0,0,0,0,0,0,-1,916,1807,0,0
-301,-783,0,0,0,0,0,0,0,0,0,-1,923,1807,0,0
-294,-783,0,0,0,0,0,0,0,0,0,-1,930,1807,0,0
-287,-783,0,0,0,0,0,0,0,0,0,-1,937,1807,0,0
-280,-783,0,0,0,0,0,0,0,0,0,-1,944,1807,0,0
-273,-783,0,0,0,0,0,0,0,0,0,-1,951,1807,0,0
-266,-783,0,0,0,0,0,0,0,0,0,-1,958,1807,0,0
-259,-783,0,0,0,0,0,0,0,0,0,-1,965,1807,0,0
-252,-783,0,0,0,0,0,0,0,0,0,-1,972,1807,0,0
-245,-783,0,0,0,0,0,0,0,0,0,-1,979,1807,0,0
-238,-783,0,0,0,0,0,0,0,0,0,-1,986,1807,0,0
-231,-783,0,0,0,0,0,0,0,0,0,-1,993,1807,0,0
-224,-783,0,0,0,0,0,0,0,0,0,-1,1000,1807,0,0
-217,-783,0,0,0,0,0,0,0,0,0,-1,1007,1807,0,0
-210,-783,0,0,0,0,0,0,0,0,0,-1,1014,1807,0,0
-203,-783,0,0,0,0,0,0,0,0,0,-1,1021,1807,0,0
-196,-783,0,0,0,0,0,0,0,0,0,-1,1028,1807,0,0
-189,-783,0,0,0,0,0,0,0,0,0,-1,1035,1807,0,0
-182,-783,0,0,0,0,0,0,0,0,0,-1,1042,1807,0,0
-175,-783,0,0,0,0,0,0,0,0,0,-1,1049,1807,0,0
-168,-783,0,0,0,0,0,0,0,0,0,-1,1056,1807,0,0
-161,-783,0,0,0,0,0,0,0,0,0,-1,1063,1807,0,0
-154,-783,0,0,0,0,0,0,0,0,0,-1,1070,1807,0,0
-147,-783,0,0,0,0,0,0,0,0,0,-1,1077,1807,0,0
-140,-783,0,0,0,0,0,0,0,0,0,-1,1084,1807,0,0
-133,-783,0,0,0,0,0,0,0,0,0,-1,1091,1807,0,0
-126,-783,0,0,0,0,0,0,0,0,0,-1,1098,1807,0,0
-119,-783,0,0,0,0,0,0,0,0,0,-1,1105,1807,0,0
-112,-783,5.33936,14.7699,0,0,0,0,0,0,0,-1,1112,1807,5.33931,-14.7699
-105,-783,6.44263,21.2224,0,0,0,0,0,0,0,-1,1119,1807,6.44263,-21.2224
-98,-783,5.54773,20.5695,0,0,0,0,0,0,0,-1,1126,1807,5.54772,-20.5695
-91,-783,2.6106,20.2491,0,0,0,0,0,0,0,-1,1133,1807,2.61056,-20.2492
-84,-783,-0.0491943,14.5743,0,0,0,0,0,0,0,-1,1140,1807,-0.0491562,-14.5743
-77,-783,0.332764,12.7788,0,0,0,0,0,0,0,-1,1147,1807,0.332743,-12.7788
-70,-783,-1.93176,5.12817,0,0,0,0,0,0,0,-1,1154,1807,-1.93171,-5.12813
-63,-783,-5.31702,10.54,0,0,0,0,0,0,0,-1,1161,1807,-5.31703,-10.54
-56,-783,-6.26135,6.9679,0,0,0,0,0,0,0,-1,1168,1807,-6.26136,-6.96785
-49,-783,-3.17688,4.59705,0,0,0,0,0,0,0,-1,1175,1807,-3.17685,-4.5971
-42,-783,-3.72876,3.1405,0,0,0,0,0,0,0,-1,1182,1807,-3.72874,-3.14055
-35,-783,-3.97046,1.59399,0,0,0,0,0,0,0,-1,1189,1807,-3.97041,-1.59401
-28,-783,-4.12195,0.270386,0,0,0,0,0,0,0,-1,1196,1807,-4.12197,-0.270408
-21,-783,7.14783,30.2299,0,0,0,0,0,0,0,-1,1203,1807,7.14789,-30.2298
-14,-783,7.04285,29.7247,-0.0474267,-0.0157652,-0.00898923,-0.013391,-0.0498008,-1.31258,0.0297587,0.0471209,1210,1807,7.0428,-29.7247
-7,-783,6.70972,29.1251,-0.0294536,-0.0137761,-0.00161248,-0.013612,-0.0296178,-1.46936,0.0171184,0.0466985,1217,1807,6.70966,-29.1251
0,-783,6.21582,28.6262,-0.00925487,-0.0118142,0.00496106,-0.00541109,-0.015658,0.659178,0.00918272,0.0448177,1224,1807,6.21578,-28.6263
7,-783,5.02588,28.248,0.0113221,-0.0102606,0.0102488,0.0154133,-0.0143518,0.379809,0.0171885,0.0410274,1231,1807,5.02594,-28.2481
14,-783,4.75891,27.9829,0.029875,-0.0089253,0.0139116,0.0343474,-0.0133977,0.311052,0.0284364,0.0459585,1238,1807,4.75886,-27.9829
21,-783,4.60352,27.5547,0,0,0,0,0,0,0,-1,1245,1807,4.60356,-27.5547
28,-783,7.53894,28.3274,0.0596205,-0.00609697,0.0176939,0.0640816,-0.0105581,0.246979,0.0466405,0.046855,1252,1807,7.53894,-28.3274
35,-783,7.33069,28.6581,0.0686541,-0.00515819,0.0182126,0.0729033,-0.00940739,0.229211,0.0520223,0.0461054,1259,1807,7.33071,-28.658
42,-783,6.39551,28.939,0,0,0,0,0,0,0,-1,1266,1807,6.39548,-28.939
49,-783,6.47766,28.7028,0,0,0,0,0,0,0,-1,1273,1807,6.47764,-28.7028
56,-783,6.33606,28.5271,0,0,0,0,0,0,0,-1,1280,1807,6.33601,-28.5271
63,-783,6.09644,28.2834,0,0,0,0,0,0,0,-1,1287,1807,6.09644,-28.2835
70,-783,6.24097,28.2899,0,0,0,0,0,0,0,-1,1294,1807,6.24096,-28.2899
77,-783,6.37378,28.1393,0,0,0,0,0,0,0,-1,1301,1807,6.37383,-28.1393
84,-783,8.30847,27.8782,0,0,0,0,0,0,0,-1,1308,1807,8.3085,-27.8782
91,-783,8.23438,27.3457,0,0,0,0,0,0,0,-1,1315,1807,8.23443,-27.3457
98,-783,6.18152,28.8269,0,0,0,0,0,0,0,-1,1322,1807,6.18151,-28.8269
105,-783,6.21387,28.9739,0,0,0,0,0,0,0,-1,1329,1807,6.21388,-28.9738
112,-783,5.56836,28.0311,0,0,0,0,0,0,0,-1,1336,1807,5.56835,-28.0311
119,-783,5.39612,28.7051,0,0,0,0,0,0,0,-1,1343,1807,5.39614,-28.7051
126,-783,5.13696,29.2097,0,0,0,0,0,0,0,-1,1350,1807,5.13701,-29.2097
133,-783,2.20117,35.4562,0,0,0,0,0,0,0,-1,1357,1807,2.2012,-35.4561
140,-783,0.915405,27.3256,0,0,0,0,0,0,0,-1,1364,1807,0.915385,-27.3255
147,-783,-0.309937,27.2825,0,0,0,0,0,0,0,-1,1371,1807,-0.309948,-27.2825
154,-783,22.8251,14.2119,0,0,0,0,0,0,0,-1,1378,1807,22.8251,-14.2119
161,-783,6.57568,1.16174,0,0,0,0,0,0,0,-1,1385,1807,6.57562,-1.1617
168,-783,8.62561,1.79944,0,0,0,0,0,0,0,-1,1392,1807,8.62561,-1.79946
175,-783,8.78699,3.40857,0,0,0,0,0,0,0,-1,1399,1807,8.78697,-3.40854
182,-783,8.70984,5.14661,0,0,0,0,0,0,0,-1,1406,1807,8.70989,-5.14666
189,-783,8.55762,6.79871,0,0,0,0,0,0,0,-1,1413,1807,8.55766,-6.79872
196,-783,8.25488,8.66626,0,0,0,0,0,0,0,-1,1420,1807,8.25492,-8.66628
203,-783,7.86755,10.5735,0,0,0,0,0,0,0,-1,1427,1807,7.8676,-10.5734
210,-783,5.6969,8.99231,0,0,0,0,0,0,0,-1,1434,1807,5.69693,-8.99234
217,-783,5.28503,3.80872,0,0,0,0,0,0,0,-1,1441,1807,5.285,-3.80868
224,-783,3.22571,6.62903,0,0,0,0,0,0,0,-1,1448,1807,3.2257,-6.62907
231,-783,4.27942,4.56262,0,0,0,0,0,0,0,-1,1455,1807,4.27948,-4.56267
238,-783,0,0,0,0,0,0,0,0,0,-1,1462,1807,0,0
245,-783,0,0,0,0,0,0,0,0,0,-1,1469,1807,0,0
252,-783,0,0,0,0,0,0,0,0,0,-1,1476,1807,0,0
259,-783,0,0,0,0,0,0,0,0,0,-1,1483,1807,0,0
266,-783,0,0,0,0,0,0,0,0,0,-1,1490,1807,0,0
273,-783,0,0,0,0,0,0,0,0,0,-1,1497,1807,0,0
280,-783,0,0,0,0,0,0,0,0,0,-1,1504,1807,0,0
287,-783,0,0,0,0,0,0,0,0,0,-1,1511,1807,0,0
294,-783,0,0,0,0,0,0,0,0,0,-1,1518,1807,0,0
301,-783,0,0,0,0,0,0,0,0,0,-1,1525,1807,0,0
308,-783,0,0,0,0,0,0,0,0,0,-1,1532,1807,0,0
315,-783,0,0,0,0,0,0,0,0,0,-1,1539,1807,0,0
322,-783,0,0,0,0,0,0,0,0,0,-1,1546,1807,0,0
329,-783,0,0,0,0,0,0,0,0,0,-1,1553,1807,0,0
336,-783,0,0,0,0,0,0,0,0,0,-1,1560,1807,0,0
343,-783,0,0,0,0,0,0,0,0,0,-1,1567,1807,0,0
350,-783,0,0,0,0,0,0,0,0,0,-1,1574,1807,0,0
357,-783,0,0,0,0,0,0,0,0,0,-1,1581,1807,0,0
364,-783,0,0,0,0,0,0,0,0,0,-1,1588,1807,0,0
371,-783,0,0,0,0,0,0,0,0,0,-1,1595,1807,0,0
378,-783,0,0,0,0,0,0,0,0,0,-1,1602,1807,0,0
385,-783,0,0,0,0,0,0,0,0,0,-1,1609,1807,0,0
392,-783,0,0,0,0,0,0,0,0,0,-1,1616,1807,0,0
399,-783,0,0,0,0,0,0,0,0,0,-1,1623,1807,0,0
406,-783,0,0,0,0,0,0,0,0,0,-1,1630,1807,0,0
413,-783,0,0,0,0,0,0,0,0,0,-1,1637,1807,0,0
420,-783,0,0,0,0,0,0,0,0,0,-1,1644,1807,0,0
427,-783,0,0,0,0,0,0,0,0,0,-1,1651,1807,0,0
434,-783,0,0,0,0,0,0,0,0,0,-1,1658,1807,0,0
441,-783,0,0,0,0,0,0,0,0,0,-1,1665,1807,0,0
448,-783,0,0,0,0,0,0,0,0,0,-1,1672,1807,0,0
455,-783,0,0,0,0,0,0,0,0,0,-1,1679,1807,0,0
462,-783,0,0,0,0,0,0,0,0,0,-1,1686,1807,0,0
469,-783,0,0,0,0,0,0,0,0,0,-1,1693,1807,0,0
476,-783,0,0,0,0,0,0,0,0,0,-1,1700,1807,0,0
483,-783,0,0,0,0,0,0,0,0,0,-1,1707,1807,0,0
490,-783,0,0,0,0,0,0,0,0,0,-1,1714,1807,0,0
497,-783,0,0,0,0,0,0,0,0,0,-1,1721,1807,0,0
504,-783,0,0,0,0,0,0,0,0,0,-1,1728,1807,0,0
511,-783,0,0,0,0,0,0,0,0,0,-1,1735,1807,0,0
518,-783,0,0,0,0,0,0,0,0,0,-1,1742,1807,0,0
525,-783,0,0,0,0,0,0,0,0,0,-1,1749,1807,0,0
532,-783,0,0,0,0,0,0,0,0,0,-1,1756,1807,0,0
539,-783,0,0,0,0,0,0,0,0,0,-1,1763,1807,0,0
546,-783,0,0,0,0,0,0,0,0,0,-1,1770,1807,0,0
553,-783,0,0,0,0,0,0,0,0,0,-1,1777,1807,0,0
560,-783,0,0,0,0,0,0,0,0,0,-1,1784,1807,0,0
567,-783,0,0,0,0,0,0,0,0,0,-1,1791,1807,0,0
574,-783,0,0,0,0,0,0,0,0,0,-1,1798,1807,0,0
581,-783,0,0,0,0,0,0,0,0,0,-1,1805,1807,0,0
588,-783,0,0,0,0,0,0,0,0,0,-1,1812,1807,0,0
595,-783,0,0,0,0,0,0,0,0,0,-1,1819,1807,0,0
602,-783,0,0,0,0,0,0,0,0,0,-1,1826,1807,0,0
609,-783,0,0,0,0,0,0,0,0,0,-1,1833,1807,0,0
616,-783,0,0,0,0,0,0,0,0,0,-1,1840,1807,0,0
623,-783,0,0,0,0,0,0,0,0,0,-1,1847,1807,0,0
630,-783,0,0,0,0,0,0,0,0,0,-1,1854,1807,0,0
637,-783,0,0,0,0,0,0,0,0,0,-1,1861,1807,0,0
644,-783,0,0,0,0,0,0,0,0,0,-1,1868,1807,0,0
651,-783,0,0,0,0,0,0,0,0,0,-1,1875,1807,0,0
658,-783,0,0,0,0,0,0,0,0,0,-1,1882,1807,0,0
665,-783,0,0,0,0,0,0,0,0,0,-1,1889,1807,0,0
672,-783,0,0,0,0,0,0,0,0,0,-1,1896,1807,0,0
679,-783,0,0,0,0,0,0,0,0,0,-1,1903,1807,0,0
686,-783,0,0,0,0,0,0,0,0,0,-1,1910,1807,0,0
693,-783,0,0,0,0,0,0,0,0,0,-1,1917,1807,0,0
700,-783,0,0,0,0,0,0,0,0,0,-1,1924,1807,0,0
707,-783,0,0,0,0,0,0,0,0,0,-1,1931,1807,0,0
714,-783,0,0,0,0,0,0,0,0,0,-1,1938,1807,0,0
721,-783,0,0,0,0,0,0,0,0,0,-1,1945,1807,0,0
728,-783,0,0,0,0,0,0,0,0,0,-1,1952,1807,0,0
735,-783,0,0,0,0,0,0,0,0,0,-1,1959,1807,0,0
742,-783,0,0,0,0,0,0,0,0,0,-1,1966,1807,0,0
749,-783,0,0,0,0,0,0,0,0,0,-1,1973,1807,0,0
756,-783,0,0,0,0,0,0,0,0,0,-1,1980,1807,0,0
763,-783,0,0,0,0,0,0,0,0,0,-1,1987,1807,0,0
770,-783,0,0,0,0,0,0,0,0,0,-1,1994,1807,0,0
777,-783,0,0,0,0,0,0,0,0,0,-1,2001,1807,0,0
784,-783,0,0,0,0,0,0,0,0,0,-1,2008,1807,0,0
791,-783,0,0,0,0,0,0,0,0,0,-1,2015,1807,0,0
798,-783,0,0,0,0,0,0,0,0,0,-1,2022,1807,0,0
805,-783,0,0,0,0,0,0,0,0,0,-1,2029,1807,0,0
812,-783,0,0,0,0,0,0,0,0,0,-1,2036,1807,0,0
-700,-790,0,0,0,0,0,0,0,0,0,-1,524,1814,0,0
-693,-790,0,0,0,0,0,0,0,0,0,-1,531,1814,0,0
-686,-790,0,0,0,0,0,0,0,0,0,-1,538,1814,0,0
-679,-790,0,0,0,0,0,0,0,0,0,-1,545,1814,0,0
-672,-790,0,0,0,0,0,0,0,0,0,-1,552,1814,0,0
-665,-790,0,0,0,0,0,0,0,0,0,-1,559,1814,0,0
-658,-790,0,0,0,0,0,0,0,0,0,-1,566,1814,0,0
-651,-790,0,0,0,0,0,0,0,0,0,-1,573,1814,0,0
-644,-790,0,0,0,0,0,0,0,0,0,-1,580,1814,0,0
-637,-790,0,0,0,0,0,0,0,0,0,-1,587,1814,0,0
-630,-790,0,0,0,0,0,0,0,0,0,-1,594,1814,0,0
-623,-790,0,0,0,0,0,0,0,0,0,-1,601,1814,0,0
-616,-790,0,0,0,0,0,0,0,0,0,-1,608,1814,0,0
-609,-790,0,0,0,0,0,0,0,0,0,-1,615,1814,0,0
-602,-790,0,0,0,0,0,0,0,0,0,-1,622,1814,0,0
-595,-790,0,0,0,0,0,0,0,0,0,-1,629,1814,0,0
-588,-790,0,0,0,0,0,0,0,0,0,-1,636,1814,0,0
-581,-790,0,0,0,0,0,0,0,0,0,-1,643,1814,0,0
-574,-790,0,0,0,0,0,0,0,0,0,-1,650,1814,0,0
-567,-790,0,0,0,0,0,0,0,0,0,-1,657,1814,0,0
-560,-790,0,0,0,0,0,0,0,0,0,-1,664,1814,0,0
-553,-790,0,0,0,0,0,0,0,0,0,-1,671,1814,0,0
-546,-790,0,0,0,0,0,0,0,0,0,-1,678,1814,0,0
-539,-790,0,0,0,0,0,0,0,0,0,-1,685,1814,0,0
-532,-790,0,0,0,0,0,0,0,0,0,-1,692,1814,0,0
-525,-790,0,0,0,0,0,0,0,0,0,-1,699,1814,0,0
-518,-790,0,0,0,0,0,0,0,0,0,-1,706,1814,0,0
-511,-790,0,0,0,0,0,0,0,0,0,-1,713,1814,0,0
-504,-790,0,0,0,0,0,0,0,0,0,-1,720,1814,0,0
-497,-790,0,0,0,0,0,0,0,0,0,-1,727,1814,0,0
-490,-790,0,0,0,0,0,0,0,0,0,-1,734,1814,0,0
-483,-790,0,0,0,0,0,0,0,0,0,-1,741,1814,0,0
-476,-790,0,0,0,0,0,0,0,0,0,-1,748,1814,0,0
-469,-790,0,0,0,0,0,0,0,0,0,-1,755,1814,0,0
-462,-790,0,0,0,0,0,0,0,0,0,-1,762,1814,0,0
-455,-790,0,0,0,0,0,0,0,0,0,-1,769,1814,0,0
-448,-790,0,0,0,0,0,0,0,0,0,-1,776,1814,0,0
-441,-790,0,0,0,0,0,0,0,0,0,-1,783,1814,0,0
-434,-790,0,0,0,0,0,0,0,0,0,-1,790,1814,0,0
-427,-790,0,0,0,0,0,0,0,0,0,-1,797,1814,0,0
-420,-790,0,0,0,0,0,0,0,0,0,-1,804,1814,0,0
-413,-790,0,0,0,0,0,0,0,0,0,-1,811,1814,0,0
-406,-790,0,0,0,0,0,0,0,0,0,-1,818,1814,0,0
-399,-790,0,0,0,0,0,0,0,0,0,-1,825,1814,0,0
-392,-790,0,0,0,0,0,0,0,0,0,-1,832,1814,0,0
-385,-790,0,0,0,0,0,0,0,0,0,-1,839,1814,0,0
-378,-790,0,0,0,0,0,0,0,0,0,-1,846,1814,0,0
-371,-790,0,0,0,0,0,0,0,0,0,-1,853,1814,0,0
-364,-790,0,0,0,0,0,0,0,0,0,-1,860,1814,0,0
-357,-790,0,0,0,0,0,0,0,0,0,-1,867,1814,0,0
-350,-790,0,0,0,0,0,0,0,0,0,-1,874,1814,0,0
-343,-790,0,0,0,0,0,0,0,0,0,-1,881,1814,0,0
-336,-790,0,0,0,0,0,0,0,0,0,-1,888,1814,0,0
-329,-790,0,0,0,0,0,0,0,0,0,-1,895,1814,0,0
-322,-790,0,0,0,0,0,0,0,0,0,-1,902,1814,0,0
-315,-790,0,0,0,0,0,0,0,0,0,-1,909,1814,0,0
-308,-790,0,0,0,0,0,0,0,0,0,-1,916,1814,0,0
-301,-790,0,0,0,0,0,0,0,0,0,-1,923,1814,0,0
-294,-790,0,0,0,0,0,0,0,0,0,-1,930,1814,0,0
-287,-790,0,0,0,0,0,0,0,0,0,-1,937,1814,0,0
-280,-790,0,0,0,0,0,0,0,0,0,-1,944,1814,0,0
-273,-790,0,0,0,0,0,0,0,0,0,-1,951,1814,0,0
-266,-790,0,0,0,0,0,0,0,0,0,-1,958,1814,0,0
-259,-790,0,0,0,0,0,0,0,0,0,-1,965,1814,0,0
-252,-790,0,0,0,0,0,0,0,0,0,-1,972,1814,0,0
-245,-790,0,0,0,0,0,0,0,0,0,-1,979,1814,0,0
-238,-790,0,0,0,0,0,0,0,0,0,-1,986,1814,0,0
-231,-790,0,0,0,0,0,0,0,0,0,-1,993,1814,0,0
-224,-790,0,0,0,0,0,0,0,0,0,-1,1000,1814,0,0
-217,-790,0,0,0,0,0,0,0,0,0,-1,1007,1814,0,0
-210,-790,0,0,0,0,0,0,0,0,0,-1,1014,1814,0,0
-203,-790,0,0,0,0,0,0,0,0,0,-1,1021,1814,0,0
-196,-790,0,0,0,0,0,0,0,0,0,-1,1028,1814,0,0
-189,-790,0,0,0,0,0,0,0,0,0,-1,1035,1814,0,0
-182,-790,0,0,0,0,0,0,0,0,0,-1,1042,1814,0,0
-175,-790,0,0,0,0,0,0,0,0,0,-1,1049,1814,0,0
-168,-790,0,0,0,0,0,0,0,0,0,-1,1056,1814,0,0
-161,-790,0,0,0,0,0,0,0,0,0,-1,1063,1814,0,0
-154,-790,0,0,0,0,0,0,0,0,0,-1,1070,1814,0,0
-147,-790,0,0,0,0,0,0,0,0,0,-1,1077,1814,0,0
-140,-790,0,0,0,0,0,0,0,0,0,-1,1084,1814,0,0
-133,-790,0,0,0,0,0,0,0,0,0,-1,1091,1814,0,0
-126,-790,0,0,0,0,0,0,0,0,0,-1,1098,1814,0,0
-119,-790,0,0,0,0,0,0,0,0,0,-1,1105,1814,0,0
-112,-790,0,0,0,0,0,0,0,0,0,-1,1112,1814,0,0
-105,-790,0,0,0,0,0,0,0,0,0,-1,1119,1814,0,0
-98,-790,0,0,0,0,0,0,0,0,0,-1,1126,1814,0,0
-91,-790,0,0,0,0,0,0,0,0,0,-1,1133,1814,0,0
-84,-790,0,0,0,0,0,0,0,0,0,-1,1140,1814,0,0
-77,-790,-0.969238,5.30847,0,0,0,0,0,0,0,-1,1147,1814,-0.969277,-5.3085
-70,-790,-1.23169,4.98914,0,0,0,0,0,0,0,-1,1154,1814,-1.23163,-4.98916
-63,-790,-1.69128,4.32263,0,0,0,0,0,0,0,-1,1161,1814,-1.69128,-4.32258
-56,-790,-2.24756,3.75305,0,0,0,0,0,0,0,-1,1168,1814,-2.24758,-3.75302
-49,-790,-3.11011,3.35779,0,0,0,0,0,0,0,-1,1175,1814,-3.11006,-3.35781
-42,-790,0.593262,1.19165,0,0,0,0,0,0,0,-1,1182,1814,0.593225,-1.19165
-35,-790,0.307129,-0.20105,0,0,0,0,0,0,0,-1,1189,1814,0.307178,0.201006
-28,-790,-2.78467,0.785156,0,0,0,0,0,0,0,-1,1196,1814,-2.78471,-0.785183
-21,-790,6.82471,30.5514,0,0,0,0,0,0,0,-1,1203,1814,6.82472,-30.5514
-14,-790,6.76807,29.9713,-0.067097,-0.0196375,-0.0154612,-0.015045,-0.0716895,-1.28206,0.043651,0.0465297,1210,1814,6.76803,-29.9713
-7,-790,6.5946,29.2826,-0.0383547,-0.0164361,-0.00444253,-0.0155699,-0.0392209,-1.37823,0.0228038,0.0460392,1217,1814,6.59465,-29.2826
0,-790,6.17688,28.6035,-0.00791662,-0.0134577,0.00481603,-0.00513108,-0.0162432,0.524378,0.00958762,0.0470506,1224,1814,6.1769,-28.6035
7,-790,4.19312,28.4634,0.0223223,-0.0110213,0.0121251,0.0262652,-0.0149642,0.314402,0.0241001,0.0413422,1231,1814,4.19316,-28.4634
14,-790,3.5802,28.4139,0.0492486,-0.00890589,0.0171618,0.0539354,-0.0135928,0.266597,0.0412414,0.0434453,1238,1814,3.5802,-28.414
21,-790,2.97363,28.21,0.0734167,-0.00678472,0.0206587,0.0784253,-0.0117933,0.237855,0.0566255,0.0456629,1245,1814,2.97366,-28.2099
28,-790,7.30969,28.1461,0.0934261,-0.00461601,0.0226278,0.0983965,-0.00958642,0.216226,0.0690155,0.0477807,1252,1814,7.30973,-28.1461
35,-790,7.0896,28.4885,0.1076,-0.00313366,0.0235735,0.112409,-0.0079432,0.201261,0.0777228,0.0473337,1259,1814,7.0896,-28.4885
42,-790,6.96448,28.8123,0,0,0,0,0,0,0,-1,1266,1814,6.96451,-28.8122
49,-790,6.62244,28.4613,0,0,0,0,0,0,0,-1,1273,1814,6.62238,-28.4613
56,-790,6.41003,28.3516,0,0,0,0,0,0,0,-1,1280,1814,6.41002,-28.3516
63,-790,6.56946,28.3717,0,0,0,0,0,0,0,-1,1287,1814,6.56943,-28.3717
70,-790,6.81616,28.4738,0,0,0,0,0,0,0,-1,1294,1814,6.81613,-28.4737
77,-790,7.13586,28.5951,0,0,0,0,0,0,0,-1,1301,1814,7.13586,-28.595
84,-790,8.19763,29.5482,0,0,0,0,0,0,0,-1,1308,1814,8.19758,-29.5482
91,-790,6.15137,26.4657,0,0,0,0,0,0,0,-1,1315,1814,6.15134,-26.4657
98,-790,6.07947,27.1067,0,0,0,0,0,0,0,-1,1322,1814,6.07943,-27.1067
105,-790,5.84839,27.506,0,0,0,0,0,0,0,-1,1329,1814,5.8484,-27.506
112,-790,5.49829,28.0253,0,0,0,0,0,0,0,-1,1336,1814,5.49834,-28.0252
119,-790,5.29675,28.5402,0,0,0,0,0,0,0,-1,1343,1814,5.29673,-28.5401
126,-790,4.89368,29.131,0,0,0,0,0,0,0,-1,1350,1814,4.89366,-29.131
133,-790,4.59155,29.6823,0,0,0,0,0,0,0,-1,1357,1814,4.59161,-29.6822
140,-790,2.81433,37.2507,0,0,0,0,0,0,0,-1,1364,1814,2.81428,-37.2507
147,-790,0.44043,27.7166,0,0,0,0,0,0,0,-1,1371,1814,0.440399,-27.7166
154,-790,27.679,12.5052,0,0,0,0,0,0,0,-1,1378,1814,27.6789,-12.5052
161,-790,26.6003,11.7516,0,0,0,0,0,0,0,-1,1385,1814,26.6004,-11.7516
168,-790,7.04077,2.23279,0,0,0,0,0,0,0,-1,1392,1814,7.04082,-2.23275
175,-790,9.03918,3.98535,0,0,0,0,0,0,0,-1,1399,1814,9.0392,-3.98535
182,-790,8.96997,5.67896,0,0,0,0,0,0,0,-1,1406,1814,8.97001,-5.6789
189,-790,8.59729,6.86975,0,0,0,0,0,0,0,-1,1413,1814,8.59728,-6.86972
196,-790,8.21924,9.29053,0,0,0,0,0,0,0,-1,1420,1814,8.21924,-9.29048
203,-790,0,0,0,0,0,0,0,0,0,-1,1427,1814,0,0
210,-790,0,0,0,0,0,0,0,0,0,-1,1434,1814,0,0
217,-790,0,0,0,0,0,0,0,0,0,-1,1441,1814,0,0
224,-790,0,0,0,0,0,0,0,0,0,-1,1448,1814,0,0
231,-790,0,0,0,0,0,0,0,0,0,-1,1455,1814,0,0
238,-790,0,0,0,0,0,0,0,0,0,-1,1462,1814,0,0
245,-790,0,0,0,0,0,0,0,0,0,-1,1469,1814,0,0
252,-790,0,0,0,0,0,0,0,0,0,-1,1476,1814,0,0
259,-790,0,0,0,0,0,0,0,0,0,-1,1483,1814,0,0
266,-790,0,0,0,0,0,0,0,0,0,-1,1490,1814,0,0
273,-790,0,0,0,0,0,0,0,0,0,-1,1497,1814,0,0
280,-790,0,0,0,0,0,0,0,0,0,-1,1504,1814,0,0
287,-790,0,0,0,0,0,0,0,0,0,-1,1511,1814,0,0
294,-790,0,0,0,0,0,0,0,0,0,-1,1518,1814,0,0
301,-790,0,0,0,0,0,0,0,0,0,-1,1525,1814,0,0
308,-790,0,0,0,0,0,0,0,0,0,-1,1532,1814,0,0
315,-790,0,0,0,0,0,0,0,0,0,-1,1539,1814,0,0
322,-790,0,0,0,0,0,0,0,0,0,-1,1546,1814,0,0
329,-790,0,0,0,0,0,0,0,0,0,-1,1553,1814,0,0
336,-790,0,0,0,0,0,0,0,0,0,-1,1560,1814,0,0
343,-790,0,0,0,0,0,0,0,0,0,-1,1567,1814,0,0
350,-790,0,0,0,0,0,0,0,0,0,-1,1574,1814,0,0
357,-790,0,0,0,0,0,0,0,0,0,-1,1581,1814,0,0
364,-790,0,0,0,0,0,0,0,0,0,-1,1588,1814,0,0
371,-790,0,0,0,0,0,0,0,0,0,-1,1595,1814,0,0
378,-790,0,0,0,0,0,0,0,0,0,-1,1602,1814,0,0
385,-790,0,0,0,0,0,0,0,0,0,-1,1609,1814,0,0
392,-790,0,0,0,0,0,0,0,0,0,-1,1616,1814,0,0
399,-790,0,0,0,0,0,0,0,0,0,-1,1623,1814,0,0
406,-790,0,0,0,0,0,0,0,0,0,-1,1630,1814,0,0
413,-790,0,0,0,0,0,0,0,0,0,-1,1637,1814,0,0
420,-790,0,0,0,0,0,0,0,0,0,-1,1644,1814,0,0
427,-790,0,0,0,0,0,0,0,0,0,-1,1651,1814,0,0
434,-790,0,0,0,0,0,0,0,0,0,-1,1658,1814,0,0
441,-790,0,0,0,0,0,0,0,0,0,-1,1665,1814,0,0
448,-790,0,0,0,0,0,0,0,0,0,-1,1672,1814,0,0
455,-790,0,0,0,0,0,0,0,0,0,-1,1679,1814,0,0
462,-790,0,0,0,0,0,0,0,0,0,-1,1686,1814,0,0
469,-790,0,0,0,0,0,0,0,0,0,-1,1693,1814,0,0
476,-790,0,0,0,0,0,0,0,0,0,-1,1700,1814,0,0
483,-790,0,0,0,0,0,0,0,0,0,-1,1707,1814,0,0
490,-790,0,0,0,0,0,0,0,0,0,-1,1714,1814,0,0
497,-790,0,0,0,0,0,0,0,0,0,-1,1721,1814,0,0
504,-790,0,0,0,0,0,0,0,0,0,-1,1728,1814,0,0
511,-790,0,0,0,0,0,0,0,0,0,-1,1735,1814,0,0
518,-790,0,0,0,0,0,0,0,0,0,-1,1742,1814,0,0
525,-790,0,0,0,0,0,0,0,0,0,-1,1749,1814,0,0
532,-790,0,0,0,0,0,0,0,0,0,-1,1756,1814,0,0
539,-790,0,0,0,0,0,0,0,0,0,-1,1763,1814,0,0
546,-790,0,0,0,0,0,0,0,0,0,-1,1770,1814,0,0
553,-790,0,0,0,0,0,0,0,0,0,-1,1777,1814,0,0
560,-790,0,0,0,0,0,0,0,0,0,-1,1784,1814,0,0
567,-790,0,0,0,0,0,0,0,0,0,-1,1791,1814,0,0
574,-790,0,0,0,0,0,0,0,0,0,-1,1798,1814,0,0
581,-790,0,0,0,0,0,0,0,0,0,-1,1805,1814,0,0
588,-790,0,0,0,0,0,0,0,0,0,-1,1812,1814,0,0
595,-790,0,0,0,0,0,0,0,0,0,-1,1819,1814,0,0
602,-790,0,0,0,0,0,0,0,0,0,-1,1826,1814,0,0
609,-790,0,0,0,0,0,0,0,0,0,-1,1833,1814,0,0
616,-790,0,0,0,0,0,0,0,0,0,-1,1840,1814,0,0
623,-790,0,0,0,0,0,0,0,0,0,-1,1847,1814,0,0
630,-790,0,0,0,0,0,0,0,0,0,-1,1854,1814,0,0
637,-790,0,0,0,0,0,0,0,0,0,-1,1861,1814,0,0
644,-790,0,0,0,0,0,0,0,0,0,-1,1868,1814,0,0
651,-790,0,0,0,0,0,0,0,0,0,-1,1875,1814,0,0
658,-790,0,0,0,0,0,0,0,0,0,-1,1882,1814,0,0
665,-790,0,0,0,0,0,0,0,0,0,-1,1889,1814,0,0
672,-790,0,0,0,0,0,0,0,0,0,-1,1896,1814,0,0
679,-790,0,0,0,0,0,0,0,0,0,-1,1903,1814,0,0
686,-790,0,0,0,0,0,0,0,0,0,-1,1910,1814,0,0
693,-790,0,0,0,0,0,0,0,0,0,-1,1917,1814,0,0
700,-790,0,0,0,0,0,0,0,0,0,-1,1924,1814,0,0
707,-790,0,0,0,0,0,0,0,0,0,-1,1931,1814,0,0
714,-790,0,0,0,0,0,0,0,0,0,-1,1938,1814,0,0
721,-790,0,0,0,0,0,0,0,0,0,-1,1945,1814,0,0
728,-790,0,0,0,0,0,0,0,0,0,-1,1952,1814,0,0
735,-790,0,0,0,0,0,0,0,0,0,-1,1959,1814,0,0
742,-790,0,0,0,0,0,0,0,0,0,-1,1966,1814,0,0
749,-790,0,0,0,0,0,0,0,0,0,-1,1973,1814,0,0
756,-790,0,0,0,0,0,0,0,0,0,-1,1980,1814,0,0
763,-790,0,0,0,0,0,0,0,0,0,-1,1987,1814,0,0
770,-790,0,0,0,0,0,0,0,0,0,-1,1994,1814,0,0
777,-790,0,0,0,0,0,0,0,0,0,-1,2001,1814,0,0
784,-790,0,0,0,0,0,0,0,0,0,-1,2008,1814,0,0
791,-790,0,0,0,0,0,0,0,0,0,-1,2015,1814,0,0
798,-790,0,0,0,0,0,0,0,0,0,-1,2022,1814,0,0
805,-790,0,0,0,0,0,0,0,0,0,-1,2029,1814,0,0
812,-790,0,0,0,0,0,0,0,0,0,-1,2036,1814,0,0
-700,-797,0,0,0,0,0,0,0,0,0,-1,524,1821,0,0
-693,-797,0,0,0,0,0,0,0,0,0,-1,531,1821,0,0
-686,-797,0,0,0,0,0,0,0,0,0,-1,538,1821,0,0
-679,-797,0,0,0,0,0,0,0,0,0,-1,545,1821,0,0
-672,-797,0,0,0,0,0,0,0,0,0,-1,552,1821,0,0
-665,-797,0,0,0,0,0,0,0,0,0,-1,559,1821,0,0
-658,-797,0,0,0,0,0,0,0,0,0,-1,566,1821,0,0
-651,-797,0,0,0,0,0,0,0,0,0,-1,573,1821,0,0
-644,-797,0,0,0,0,0,0,0,0,0,-1,580,1821,0,0
-637,-797,0,0,0,0,0,0,0,0,0,-1,587,1821,0,0
-630,-797,0,0,0,0,0,0,0,0,0,-1,594,1821,0,0
-623,-797,0,0,0,0,0,0,0,0,0,-1,601,1821,0,0
-616,-797,0,0,0,0,0,0,0,0,0,-1,608,1821,0,0
-609,-797,0,0,0,0,0,0,0,0,0,-1,615,1821,0,0
-602,-797,0,0,0,0,0,0,0,0,0,-1,622,1821,0,0
-595,-797,0,0,0,0,0,0,0,0,0,-1,629,1821,0,0
-588,-797,0,0,0,0,0,0,0,0,0,-1,636,1821,0,0
-581,-797,0,0,0,0,0,0,0,0,0,-1,643,1821,0,0
-574,-797,0,0,0,0,0,0,0,0,0,-1,650,1821,0,0
-567,-797,0,0,0,0,0,0,0,0,0,-1,657,1821,0,0
-560,-797,0,0,0,0,0,0,0,0,0,-1,664,1821,0,0
-553,-797,0,0,0,0,0,0,0,0,0,-1,671,1821,0,0
-546,-797,0,0,0,0,0,0,0,0,0,-1,678,1821,0,0
-539,-797,0,0,0,0,0,0,0,0,0,-1,685,1821,0,0
-532,-797,0,0,0,0,0,0,0,0,0,-1,692,1821,0,0
-525,-797,0,0,0,0,0,0,0,0,0,-1,699,1821,0,0
-518,-797,0,0,0,0,0,0,0,0,0,-1,706,1821,0,0
-511,-797,0,0,0,0,0,0,0,0,0,-1,713,1821,0,0
-504,-797,0,0,0,0,0,0,0,0,0,-1,720,1821,0,0
-497,-797,0,0,0,0,0,0,0,0,0,-1,727,1821,0,0
-490,-797,0,0,0,0,0,0,0,0,0,-1,734,1821,0,0
-483,-797,0,0,0,0,0,0,0,0,0,-1,741,1821,0,0
-476,-797,0,0,0,0,0,0,0,0,0,-1,748,1821,0,0
-469,-797,0,0,0,0,0,0,0,0,0,-1,755,1821,0,0
-462,-797,0,0,0,0,0,0,0,0,0,-1,762,1821,0,0
-455,-797,0,0,0,0,0,0,0,0,0,-1,769,1821,0,0
-448,-797,0,0,0,0,0,0,0,0,0,-1,776,1821,0,0
-441,-797,0,0,0,0,0,0,0,0,0,-1,783,1821,0,0
-434,-797,0,0,0,0,0,0,0,0,0,-1,790,1821,0,0
-427,-797,0,0,0,0,0,0,0,0,0,-1,797,1821,0,0
-420,-797,0,0,0,0,0,0,0,0,0,-1,804,1821,0,0
-413,-797,0,0,0,0,0,0,0,0,0,-1,811,1821,0,0
-406,-797,0,0,0,0,0,0,0,0,0,-1,818,1821,0,0
-399,-797,0,0,0,0,0,0,0,0,0,-1,825,1821,0,0
-392,-797,0,0,0,0,0,0,0,0,0,-1,832,1821,0,0
-385,-797,0,0,0,0,0,0,0,0,0,-1,839,1821,0,0
-378,-797,0,0,0,0,0,0,0,0,0,-1,846,1821,0,0
-371,-797,0,0,0,0,0,0,0,0,0,-1,853,1821,0,0
-364,-797,0,0,0,0,0,0,0,0,0,-1,860,1821,0,0
-357,-797,0,0,0,0,0,0,0,0,0,-1,867,1821,0,0
-350,-797,0,0,0,0,0,0,0,0,0,-1,874,1821,0,0
-343,-797,0,0,0,0,0,0,0,0,0,-1,881,1821,0,0
-336,-797,0,0,0,0,0,0,0,0,0,-1,888,1821,0,0
-329,-797,0,0,0,0,0,0,0,0,0,-1,895,1821,0,0
-322,-797,0,0,0,0,0,0,0,0,0,-1,902,1821,0,0
-315,-797,0,0,0,0,0,0,0,0,0,-1,909,1821,0,0
-308,-797,0,0,0,0,0,0,0,0,0,-1,916,1821,0,0
-301,-797,0,0,0,0,0,0,0,0,0,-1,923,1821,0,0
-294,-797,0,0,0,0,0,0,0,0,0,-1,930,1821,0,0
-287,-797,0,0,0,0,0,0,0,0,0,-1,937,1821,0,0
-280,-797,0,0,0,0,0,0,0,0,0,-1,944,1821,0,0
-273,-797,0,0,0,0,0,0,0,0,0,-1,951,1821,0,0
-266,-797,0,0,0,0,0,0,0,0,0,-1,958,1821,0,0
-259,-797,0,0,0,0,0,0,0,0,0,-1,965,1821,0,0
-252,-797,0,0,0,0,0,0,0,0,0,-1,972,1821,0,0
-245,-797,0,0,0,0,0,0,0,0,0,-1,979,1821,0,0
-238,-797,0,0,0,0,0,0,0,0,0,-1,986,1821,0,0
-231,-797,0,0,0,0,0,0,0,0,0,-1,993,1821,0,0
-224,-797,0,0,0,0,0,0,0,0,0,-1,1000,1821,0,0
-217,-797,0,0,0,0,0,0,0,0,0,-1,1007,1821,0,0
-210,-797,0,0,0,0,0,0,0,0,0,-1,1014,1821,0,0
-203,-797,0,0,0,0,0,0,0,0,0,-1,1021,1821,0,0
-196,-797,0,0,0,0,0,0,0,0,0,-1,1028,1821,0,0
-189,-797,0,0,0,0,0,0,0,0,0,-1,1035,1821,0,0
-182,-797,0,0,0,0,0,0,0,0,0,-1,1042,1821,0,0
-175,-797,0,0,0,0,0,0,0,0,0,-1,1049,1821,0,0
-168,-797,0,0,0,0,0,0,0,0,0,-1,1056,1821,0,0
-161,-797,0,0,0,0,0,0,0,0,0,-1,1063,1821,0,0
-154,-797,0,0,0,0,0,0,0,0,0,-1,1070,1821,0,0
-147,-797,0,0,0,0,0,0,0,0,0,-1,1077,1821,0,0
-140,-797,0,0,0,0,0,0,0,0,0,-1,1084,1821,0,0
-133,-797,0,0,0,0,0,0,0,0,0,-1,1091,1821,0,0
-126,-797,0,0,0,0,0,0,0,0,0,-1,1098,1821,0,0
-119,-797,0,0,0,0,0,0,0,0,0,-1,1105,1821,0,0
-112,-797,0,0,0,0,0,0,0,0,0,-1,1112,1821,0,0
-105,-797,0,0,0,0,0,0,0,0,0,-1,1119,1821,0,0
-98,-797,0,0,0,0,0,0,0,0,0,-1,1126,1821,0,0
-91,-797,0,0,0,0,0,0,0,0,0,-1,1133,1821,0,0
-84,-797,0,0,0,0,0,0,0,0,0,-1,1140,1821,0,0
-77,-797,0,0,0,0,0,0,0,0,0,-1,1147,1821,0,0
-70,-797,0,0,0,0,0,0,0,0,0,-1,1154,1821,0,0
-63,-797,0,0,0,0,0,0,0,0,0,-1,1161,1821,0,0
-56,-797,0,0,0,0,0,0,0,0,0,-1,1168,1821,0,0
-49,-797,0,0,0,0,0,0,0,0,0,-1,1175,1821,0,0
-42,-797,0.579834,0.692871,0,0,0,0,0,0,0,-1,1182,1821,0.579856,-0.692816
-35,-797,-0.185425,5.55396,0,0,0,0,0,0,0,-1,1189,1821,-0.18542,-5.55396
-28,-797,-0.310181,4.71509,0,0,0,0,0,0,0,-1,1196,1821,-0.310228,-4.71503
-21,-797,6.50159,30.3633,0,0,0,0,0,0,0,-1,1203,1821,6.50164,-30.3632
-14,-797,6.63513,29.9822,-0.0810931,-0.0228998,-0.020804,-0.0162274,-0.0877655,-1.26044,0.0539213,0.0461278,1210,1821,6.63517,-29.9822
-7,-797,6.60046,29.5214,-0.0413553,-0.018621,-0.00676119,-0.0167622,-0.0432141,-1.3025,0.0251579,0.047038,1217,1821,6.60049,-29.5214
0,-797,5.95166,28.9053,0.00117451,-0.014459,0.00515622,0.00272196,-0.0160064,0.291561,0.0116844,0.0490278,1224,1821,5.95164,-28.9052
7,-797,3.60583,28.4932,0.0437766,-0.0108808,0.0146774,0.0474686,-0.0145728,0.246431,0.0374604,0.0476615,1231,1821,3.6058,-28.4931
14,-797,2.81982,28.6978,0.0818901,-0.00771716,0.0212845,0.0866888,-0.0125159,0.22175,0.0623844,0.0461361,1238,1821,2.81977,-28.6977
21,-797,2.02295,28.2983,0.116047,-0.00462303,0.025896,0.121369,-0.00994559,0.202713,0.0844236,0.0468862,1245,1821,2.02289,-28.2983
28,-797,7.15234,27.9895,0.145116,-0.00148347,0.0286411,0.150513,-0.00688042,0.186249,0.102712,0.0460724,1252,1821,7.15237,-27.9895
35,-797,6.99731,28.5624,0,0,0,0,0,0,0,-1,1259,1821,6.99735,-28.5624
42,-797,6.87622,29.3362,0,0,0,0,0,0,0,-1,1266,1821,6.87622,-29.3362
49,-797,6.85046,28.0966,0,0,0,0,0,0,0,-1,1273,1821,6.85047,-28.0966
56,-797,6.7428,28.2544,0,0,0,0,0,0,0,-1,1280,1821,6.74274,-28.2544
63,-797,7.05896,28.4752,0,0,0,0,0,0,0,-1,1287,1821,7.05898,-28.4752
70,-797,7.3667,28.5348,0,0,0,0,0,0,0,-1,1294,1821,7.36672,-28.5347
77,-797,7.60144,28.6479,0,0,0,0,0,0,0,-1,1301,1821,7.60138,-28.648
84,-797,7.78528,28.7649,0,0,0,0,0,0,0,-1,1308,1821,7.78528,-28.7649
91,-797,7.84155,31.2557,0,0,0,0,0,0,0,-1,1315,1821,7.84159,-31.2557
98,-797,6.42224,27.3534,0,0,0,0,0,0,0,-1,1322,1821,6.42223,-27.3534
105,-797,5.89734,27.6324,0,0,0,0,0,0,0,-1,1329,1821,5.89735,-27.6325
112,-797,5.40283,27.9446,0,0,0,0,0,0,0,-1,1336,1821,5.40278,-27.9446
119,-797,5.31677,28.4657,0,0,0,0,0,0,0,-1,1343,1821,5.31677,-28.4657
126,-797,4.65942,29.0239,0,0,0,0,0,0,0,-1,1350,1821,4.65936,-29.0239
133,-797,4.42957,29.5336,0,0,0,0,0,0,0,-1,1357,1821,4.42953,-29.5335
140,-797,2.76318,37.4052,0,0,0,0,0,0,0,-1,1364,1821,2.76316,-37.4051
147,-797,2.55505,38.0165,0,0,0,0,0,0,0,-1,1371,1821,2.55503,-38.0165
154,-797,27.7911,9.55957,0,0,0,0,0,0,0,-1,1378,1821,27.7912,-9.55956
161,-797,31.4421,8.56628,0,0,0,0,0,0,0,-1,1385,1821,31.4422,-8.56626
168,-797,0,0,0,0,0,0,0,0,0,-1,1392,1821,0,0
175,-797,0,0,0,0,0,0,0,0,0,-1,1399,1821,0,0
182,-797,0,0,0,0,0,0,0,0,0,-1,1406,1821,0,0
189,-797,0,0,0,0,0,0,0,0,0,-1,1413,1821,0,0
196,-797,0,0,0,0,0,0,0,0,0,-1,1420,1821,0,0
203,-797,0,0,0,0,0,0,0,0,0,-1,1427,1821,0,0
210,-797,0,0,0,0,0,0,0,0,0,-1,1434,1821,0,0
217,-797,0,0,0,0,0,0,0,0,0,-1,1441,1821,0,0
224,-797,0,0,0,0,0,0,0,0,0,-1,1448,1821,0,0
231,-797,0,0,0,0,0,0,0,0,0,-1,1455,1821,0,0
238,-797,0,0,0,0,0,0,0,0,0,-1,1462,1821,0,0
245,-797,0,0,0,0,0,0,0,0,0,-1,1469,1821,0,0
252,-797,0,0,0,0,0,0,0,0,0,-1,1476,1821,0,0
259,-797,0,0,0,0,0,0,0,0,0,-1,1483,1821,0,0
266,-797,0,0,0,0,0,0,0,0,0,-1,1490,1821,0,0
273,-797,0,0,0,0,0,0,0,0,0,-1,1497,1821,0,0
280,-797,0,0,0,0,0,0,0,0,0,-1,1504,1821,0,0
287,-797,0,0,0,0,0,0,0,0,0,-1,1511,1821,0,0
294,-797,0,0,0,0,0,0,0,0,0,-1,1518,1821,0,0
301,-797,0,0,0,0,0,0,0,0,0,-1,1525,1821,0,0
308,-797,0,0,0,0,0,0,0,0,0,-1,1532,1821,0,0
315,-797,0,0,0,0,0,0,0,0,0,-1,1539,1821,0,0
322,-797,0,0,0,0,0,0,0,0,0,-1,1546,1821,0,0
329,-797,0,0,0,0,0,0,0,0,0,-1,1553,1821,0,0
336,-797,0,0,0,0,0,0,0,0,0,-1,1560,1821,0,0
343,-797,0,0,0,0,0,0,0,0,0,-1,1567,1821,0,0
350,-797,0,0,0,0,0,0,0,0,0,-1,1574,1821,0,0
357,-797,0,0,0,0,0,0,0,0,0,-1,1581,1821,0,0
364,-797,0,0,0,0,0,0,0,0,0,-1,1588,1821,0,0
371,-797,0,0,0,0,0,0,0,0,0,-1,1595,1821,0,0
378,-797,0,0,0,0,0,0,0,0,0,-1,1602,1821,0,0
385,-797,0,0,0,0,0,0,0,0,0,-1,1609,1821,0,0
392,-797,0,0,0,0,0,0,0,0,0,-1,1616,1821,0,0
399,-797,0,0,0,0,0,0,0,0,0,-1,1623,1821,0,0
406,-797,0,0,0,0,0,0,0,0,0,-1,1630,1821,0,0
413,-797,0,0,0,0,0,0,0,0,0,-1,1637,1821,0,0
420,-797,0,0,0,0,0,0,0,0,0,-1,1644,1821,0,0
427,-797,0,0,0,0,0,0,0,0,0,-1,1651,1821,0,0
434,-797,0,0,0,0,0,0,0,0,0,-1,1658,1821,0,0
441,-797,0,0,0,0,0,0,0,0,0,-1,1665,1821,0,0
448,-797,0,0,0,0,0,0,0,0,0,-1,1672,1821,0,0
455,-797,0,0,0,0,0,0,0,0,0,-1,1679,1821,0,0
462,-797,0,0,0,0,0,0,0,0,0,-1,1686,1821,0,0
469,-797,0,0,0,0,0,0,0,0,0,-1,1693,1821,0,0
476,-797,0,0,0,0,0,0,0,0,0,-1,1700,1821,0,0
483,-797,0,0,0,0,0,0,0,0,0,-1,1707,1821,0,0
490,-797,0,0,0,0,0,0,0,0,0,-1,1714,1821,0,0
497,-797,0,0,0,0,0,0,0,0,0,-1,1721,1821,0,0
504,-797,0,0,0,0,0,0,0,0,0,-1,1728,1821,0,0
511,-797,0,0,0,0,0,0,0,0,0,-1,1735,1821,0,0
518,-797,0,0,0,0,0,0,0,0,0,-1,1742,1821,0,0
525,-797,0,0,0,0,0,0,0,0,0,-1,1749,1821,0,0
532,-797,0,0,0,0,0,0,0,0,0,-1,1756,1821,0,0
539,-797,0,0,0,0,0,0,0,0,0,-1,1763,1821,0,0
546,-797,0,0,0,0,0,0,0,0,0,-1,1770,1821,0,0
553,-797,0,0,0,0,0,0,0,0,0,-1,1777,1821,0,0
560,-797,0,0,0,0,0,0,0,0,0,-1,1784,1821,0,0
567,-797,0,0,0,0,0,0,0,0,0,-1,1791,1821,0,0
574,-797,0,0,0,0,0,0,0,0,0,-1,1798,1821,0,0
581,-797,0,0,0,0,0,0,0,0,0,-1,1805,1821,0,0
588,-797,0,0,0,0,0,0,0,0,0,-1,1812,1821,0,0
595,-797,0,0,0,0,0,0,0,0,0,-1,1819,1821,0,0
602,-797,0,0,0,0,0,0,0,0,0,-1,1826,1821,0,0
609,-797,0,0,0,0,0,0,0,0,0,-1,1833,1821,0,0
616,-797,0,0,0,0,0,0,0,0,0,-1,1840,1821,0,0
623,-797,0,0,0,0,0,0,0,0,0,-1,1847,1821,0,0
630,-797,0,0,0,0,0,0,0,0,0,-1,1854,1821,0,0
637,-797,0,0,0,0,0,0,0,0,0,-1,1861,1821,0,0
644,-797,0,0,0,0,0,0,0,0,0,-1,1868,1821,0,0
651,-797,0,0,0,0,0,0,0,0,0,-1,1875,1821,0,0
658,-797,0,0,0,0,0,0,0,0,0,-1,1882,1821,0,0
665,-797,0,0,0,0,0,0,0,0,0,-1,1889,1821,0,0
672,-797,0,0,0,0,0,0,0,0,0,-1,1896,1821,0,0
679,-797,0,0,0,0,0,0,0,0,0,-1,1903,1821,0,0
686,-797,0,0,0,0,0,0,0,0,0,-1,1910,1821,0,0
693,-797,0,0,0,0,0,0,0,0,0,-1,1917,1821,0,0
700,-797,0,0,0,0,0,0,0,0,0,-1,1924,1821,0,0
707,-797,0,0,0,0,0,0,0,0,0,-1,1931,1821,0,0
714,-797,0,0,0,0,0,0,0,0,0,-1,1938,1821,0,0
721,-797,0,0,0,0,0,0,0,0,0,-1,1945,1821,0,0
728,-797,0,0,0,0,0,0,0,0,0,-1,1952,1821,0,0
735,-797,0,0,0,0,0,0,0,0,0,-1,1959,1821,0,0
742,-797,0,0,0,0,0,0,0,0,0,-1,1966,1821,0,0
749,-797,0,0,0,0,0,0,0,0,0,-1,1973,1821,0,0
756,-797,0,0,0,0,0,0,0,0,0,-1,1980,1821,0,0
763,-797,0,0,0,0,0,0,0,0,0,-1,1987,1821,0,0
770,-797,0,0,0,0,0,0,0,0,0,-1,1994,1821,0,0
777,-797,0,0,0,0,0,0,0,0,0,-1,2001,1821,0,0
784,-797,0,0,0,0,0,0,0,0,0,-1,2008,1821,0,0
791,-797,0,0,0,0,0,0,0,0,0,-1,2015,1821,0,0
798,-797,0,0,0,0,0,0,0,0,0,-1,2022,1821,0,0
805,-797,0,0,0,0,0,0,0,0,0,-1,2029,1821,0,0
812,-797,0,0,0,0,0,0,0,0,0,-1,2036,1821,0,0
-700,-804,0,0,0,0,0,0,0,0,0,-1,524,1828,0,0
-693,-804,0,0,0,0,0,0,0,0,0,-1,531,1828,0,0
-686,-804,0,0,0,0,0,0,0,0,0,-1,538,1828,0,0
-679,-804,0,0,0,0,0,0,0,0,0,-1,545,1828,0,0
-672,-804,0,0,0,0,0,0,0,0,0,-1,552,1828,0,0
-665,-804,0,0,0,0,0,0,0,0,0,-1,559,1828,0,0
-658,-804,0,0,0,0,0,0,0,0,0,-1,566,1828,0,0
-651,-804,0,0,0,0,0,0,0,0,0,-1,573,1828,0,0
-644,-804,0,0,0,0,0,0,0,0,0,-1,580,1828,0,0
-637,-804,0,0,0,0,0,0,0,0,0,-1,587,1828,0,0
-630,-804,0,0,0,0,0,0,0,0,0,-1,594,1828,0,0
-623,-804,0,0,0,0,0,0,0,0,0,-1,601,1828,0,0
-616,-804,0,0,0,0,0,0,0,0,0,-1,608,1828,0,0
-609,-804,0,0,0,0,0,0,0,0,0,-1,615,1828,0,0
-602,-804,0,0,0,0,0,0,0,0,0,-1,622,1828,0,0
-595,-804,0,0,0,0,0,0,0,0,0,-1,629,1828,0,0
-588,-804,0,0,0,0,0,0,0,0,0,-1,636,1828,0,0
-581,-804,0,0,0,0,0,0,0,0,0,-1,643,1828,0,0
-574,-804,0,0,0,0,0,0,0,0,0,-1,650,1828,0,0
-567,-804,0,0,0,0,0,0,0,0,0,-1,657,1828,0,0
-560,-804,0,0,0,0,0,0,0,0,0,-1,664,1828,0,0
-553,-804,0,0,0,0,0,0,0,0,0,-1,671,1828,0,0
-546,-804,0,0,0,0,0,0,0,0,0,-1,678,1828,0,0
-539,-804,0,0,0,0,0,0,0,0,0,-1,685,1828,0,0
-532,-804,0,0,0,0,0,0,0,0,0,-1,692,1828,0,0
-525,-804,0,0,0,0,0,0,0,0,0,-1,699,1828,0,0
-518,-804,0,0,0,0,0,0,0,0,0,-1,706,1828,0,0
-511,-804,0,0,0,0,0,0,0,0,0,-1,713,1828,0,0
-504,-804,0,0,0,0,0,0,0,0,0,-1,720,1828,0,0
-497,-804,0,0,0,0,0,0,0,0,0,-1,727,1828,0,0
-490,-804,0,0,0,0,0,0,0,0,0,-1,734,1828,0,0
-483,-804,0,0,0,0,0,0,0,0,0,-1,741,1828,0,0
-476,-804,0,0,0,0,0,0,0,0,0,-1,748,1828,0,0
-469,-804,0,0,0,0,0,0,0,0,0,-1,755,1828,0,0
-462,-804,0,0,0,0,0,0,0,0,0,-1,762,1828,0,0
-455,-804,0,0,0,0,0,0,0,0,0,-1,769,1828,0,0
-448,-804,0,0,0,0,0,0,0,0,0,-1,776,1828,0,0
-441,-804,0,0,0,0,0,0,0,0,0,-1,783,1828,0,0
-434,-804,0,0,0,0,0,0,0,0,0,-1,790,1828,0,0
-427,-804,0,0,0,0,0,0,0,0,0,-1,797,1828,0,0
-420,-804,0,0,0,0,0,0,0,0,0,-1,804,1828,0,0
-413,-804,0,0,0,0,0,0,0,0,0,-1,811,1828,0,0
-406,-804,0,0,0,0,0,0,0,0,0,-1,818,1828,0,0
-399,-804,0,0,0,0,0,0,0,0,0,-1,825,1828,0,0
-392,-804,0,0,0,0,0,0,0,0,0,-1,832,1828,0,0
-385,-804,0,0,0,0,0,0,0,0,0,-1,839,1828,0,0
-378,-804,0,0,0,0,0,0,0,0,0,-1,846,1828,0,0
-371,-804,0,0,0,0,0,0,0,0,0,-1,853,1828,0,0
-364,-804,0,0,0,0,0,0,0,0,0,-1,860,1828,0,0
-357,-804,0,0,0,0,0,0,0,0,0,-1,867,1828,0,0
-350,-804,0,0,0,0,0,0,0,0,0,-1,874,1828,0,0
-343,-804,0,0,0,0,0,0,0,0,0,-1,881,1828,0,0
-336,-804,0,0,0,0,0,0,0,0,0,-1,888,1828,0,0
-329,-804,0,0,0,0,0,0,0,0,0,-1,895,1828,0,0
-322,-804,0,0,0,0,0,0,0,0,0,-1,902,1828,0,0
-315,-804,0,0,0,0,0,0,0,0,0,-1,909,1828,0,0
-308,-804,0,0,0,0,0,0,0,0,0,-1,916,1828,0,0
-301,-804,0,0,0,0,0,0,0,0,0,-1,923,1828,0,0
-294,-804,0,0,0,0,0,0,0,0,0,-1,930,1828,0,0
-287,-804,0,0,0,0,0,0,0,0,0,-1,937,1828,0,0
-280,-804,0,0,0,0,0,0,0,0,0,-1,944,1828,0,0
-273,-804,0,0,0,0,0,0,0,0,0,-1,951,1828,0,0
-266,-804,0,0,0,0,0,0,0,0,0,-1,958,1828,0,0
-259,-804,0,0,0,0,0,0,0,0,0,-1,965,1828,0,0
-252,-804,0,0,0,0,0,0,0,0,0,-1,972,1828,0,0
-245,-804,0,0,0,0,0,0,0,0,0,-1,979,1828,0,0
-238,-804,0,0,0,0,0,0,0,0,0,-1,986,1828,0,0
-231,-804,0,0,0,0,0,0,0,0,0,-1,993,1828,0,0
-224,-804,0,0,0,0,0,0,0,0,0,-1,1000,1828,0,0
-217,-804,0,0,0,0,0,0,0,0,0,-1,1007,1828,0,0
-210,-804,0,0,0,0,0,0,0,0,0,-1,1014,1828,0,0
-203,-804,0,0,0,0,0,0,0,0,0,-1,1021,1828,0,0
-196,-804,0,0,0,0,0,0,0,0,0,-1,1028,1828,0,0
-189,-804,0,0,0,0,0,0,0,0,0,-1,1035,1828,0,0
-182,-804,0,0,0,0,0,0,0,0,0,-1,1042,1828,0,0
-175,-804,0,0,0,0,0,0,0,0,0,-1,1049,1828,0,0
-168,-804,0,0,0,0,0,0,0,0,0,-1,1056,1828,0,0
-161,-804,0,0,0,0,0,0,0,0,0,-1,1063,1828,0,0
-154,-804,0,0,0,0,0,0,0,0,0,-1,1070,1828,0,0
-147,-804,0,0,0,0,0,0,0,0,0,-1,1077,1828,0,0
-140,-804,0,0,0,0,0,0,0,0,0,-1,1084,1828,0,0
-133,-804,0,0,0,0,0,0,0,0,0,-1,1091,1828,0,0
-126,-804,0,0,0,0,0,0,0,0,0,-1,1098,1828,0,0
-119,-804,0,0,0,0,0,0,0,0,0,-1,1105,1828,0,0
-112,-804,0,0,0,0,0,0,0,0,0,-1,1112,1828,0,0
-105,-804,0,0,0,0,0,0,0,0,0,-1,1119,1828,0,0
-98,-804,0,0,0,0,0,0,0,0,0,-1,1126,1828,0,0
-91,-804,0,0,0,0,0,0,0,0,0,-1,1133,1828,0,0
-84,-804,0,0,0,0,0,0,0,0,0,-1,1140,1828,0,0
-77,-804,0,0,0,0,0,0,0,0,0,-1,1147,1828,0,0
-70,-804,0,0,0,0,0,0,0,0,0,-1,1154,1828,0,0
-63,-804,0,0,0,0,0,0,0,0,0,-1,1161,1828,0,0
-56,-804,0,0,0,0,0,0,0,0,0,-1,1168,1828,0,0
-49,-804,0,0,0,0,0,0,0,0,0,-1,1175,1828,0,0
-42,-804,0,0,0,0,0,0,0,0,0,-1,1182,1828,0,0
-35,-804,0,0,0,0,0,0,0,0,0,-1,1189,1828,0,0
-28,-804,0,0,0,0,0,0,0,0,0,-1,1196,1828,0,0
-21,-804,0,0,0,0,0,0,0,0,0,-1,1203,1828,0,0
-14,-804,0,0,0,0,0,0,0,0,0,-1,1210,1828,0,0
-7,-804,0,0,0,0,0,0,0,0,0,-1,1217,1828,0,0
0,-804,0,0,0,0,0,0,0,0,0,-1,1224,1828,0,0
7,-804,0,0,0,0,0,0,0,0,0,-1,1231,1828,0,0
14,-804,0,0,0,0,0,0,0,0,0,-1,1238,1828,0,0
21,-804,0,0,0,0,0,0,0,0,0,-1,1245,1828,0,0
28,-804,0,0,0,0,0,0,0,0,0,-1,1252,1828,0,0
35,-804,8.46619,28.1644,0,0,0,0,0,0,0,-1,1259,1828,8.46623,-28.1645
42,-804,7.81714,28.1545,0,0,0,0,0,0,0,-1,1266,1828,7.81709,-28.1545
49,-804,7.14343,28.1686,0,0,0,0,0,0,0,-1,1273,1828,7.14344,-28.1685
56,-804,6.84802,28.5736,0,0,0,0,0,0,0,-1,1280,1828,6.84803,-28.5737
63,-804,7.43372,28.5497,0,0,0,0,0,0,0,-1,1287,1828,7.43369,-28.5497
70,-804,7.80432,28.1774,0,0,0,0,0,0,0,-1,1294,1828,7.80432,-28.1774
77,-804,7.99609,28.6257,0,0,0,0,0,0,0,-1,1301,1828,7.99615,-28.6258
84,-804,8.16968,28.8979,0,0,0,0,0,0,0,-1,1308,1828,8.16963,-28.8979
91,-804,0,0,0,0,0,0,0,0,0,-1,1315,1828,0,0
98,-804,0,0,0,0,0,0,0,0,0,-1,1322,1828,0,0
105,-804,0,0,0,0,0,0,0,0,0,-1,1329,1828,0,0
112,-804,0,0,0,0,0,0,0,0,0,-1,1336,1828,0,0
119,-804,0,0,0,0,0,0,0,0,0,-1,1343,1828,0,0
126,-804,0,0,0,0,0,0,0,0,0,-1,1350,1828,0,0
133,-804,0,0,0,0,0,0,0,0,0,-1,1357,1828,0,0
140,-804,0,0,0,0,0,0,0,0,0,-1,1364,1828,0,0
147,-804,0,0,0,0,0,0,0,0,0,-1,1371,1828,0,0
154,-804,0,0,0,0,0,0,0,0,0,-1,1378,1828,0,0
161,-804,0,0,0,0,0,0,0,0,0,-1,1385,1828,0,0
168,-804,0,0,0,0,0,0,0,0,0,-1,1392,1828,0,0
175,-804,0,0,0,0,0,0,0,0,0,-1,1399,1828,0,0
182,-804,0,0,0,0,0,0,0,0,0,-1,1406,1828,0,0
189,-804,0,0,0,0,0,0,0,0,0,-1,1413,1828,0,0
196,-804,0,0,0,0,0,0,0,0,0,-1,1420,1828,0,0
203,-804,0,0,0,0,0,0,0,0,0,-1,1427,1828,0,0
210,-804,0,0,0,0,0,0,0,0,0,-1,1434,1828,0,0
217,-804,0,0,0,0,0,0,0,0,0,-1,1441,1828,0,0
224,-804,0,0,0,0,0,0,0,0,0,-1,1448,1828,0,0
231,-804,0,0,0,0,0,0,0,0,0,-1,1455,1828,0,0
238,-804,0,0,0,0,0,0,0,0,0,-1,1462,1828,0,0
245,-804,0,0,0,0,0,0,0,0,0,-1,1469,1828,0,0
252,-804,0,0,0,0,0,0,0,0,0,-1,1476,1828,0,0
259,-804,0,0,0,0,0,0,0,0,0,-1,1483,1828,0,0
266,-804,0,0,0,0,0,0,0,0,0,-1,1490,1828,0,0
273,-804,0,0,0,0,0,0,0,0,0,-1,1497,1828,0,0
280,-804,0,0,0,0,0,0,0,0,0,-1,1504,1828,0,0
287,-804,0,0,0,0,0,0,0,0,0,-1,1511,1828,0,0
294,-804,0,0,0,0,0,0,0,0,0,-1,1518,1828,0,0
301,-804,0,0,0,0,0,0,0,0,0,-1,1525,1828,0,0
308,-804,0,0,0,0,0,0,0,0,0,-1,1532,1828,0,0
315,-804,0,0,0,0,0,0,0,0,0,-1,1539,1828,0,0
322,-804,0,0,0,0,0,0,0,0,0,-1,1546,1828,0,0
329,-804,0,0,0,0,0,0,0,0,0,-1,1553,1828,0,0
336,-804,0,0,0,0,0,0,0,0,0,-1,1560,1828,0,0
343,-804,0,0,0,0,0,0,0,0,0,-1,1567,1828,0,0
350,-804,0,0,0,0,0,0,0,0,0,-1,1574,1828,0,0
357,-804,0,0,0,0,0,0,0,0,0,-1,1581,1828,0,0
364,-804,0,0,0,0,0,0,0,0,0,-1,1588,1828,0,0
371,-804,0,0,0,0,0,0,0,0,0,-1,1595,1828,0,0
378,-804,0,0,0,0,0,0,0,0,0,-1,1602,1828,0,0
385,-804,0,0,0,0,0,0,0,0,0,-1,1609,1828,0,0
392,-804,0,0,0,0,0,0,0,0,0,-1,1616,1828,0,0
399,-804,0,0,0,0,0,0,0,0,0,-1,1623,1828,0,0
406,-804,0,0,0,0,0,0,0,0,0,-1,1630,1828,0,0
413,-804,0,0,0,0,0,0,0,0,0,-1,1637,1828,0,0
420,-804,0,0,0,0,0,0,0,0,0,-1,1644,1828,0,0
427,-804,0,0,0,0,0,0,0,0,0,-1,1651,1828,0,0
434,-804,0,0,0,0,0,0,0,0,0,-1,1658,1828,0,0
441,-804,0,0,0,0,0,0,0,0,0,-1,1665,1828,0,0
448,-804,0,0,0,0,0,0,0,0,0,-1,1672,1828,0,0
455,-804,0,0,0,0,0,0,0,0,0,-1,1679,1828,0,0
462,-804,0,0,0,0,0,0,0,0,0,-1,1686,1828,0,0
469,-804,0,0,0,0,0,0,0,0,0,-1,1693,1828,0,0
476,-804,0,0,0,0,0,0,0,0,0,-1,1700,1828,0,0
483,-804,0,0,0,0,0,0,0,0,0,-1,1707,1828,0,0
490,-804,0,0,0,0,0,0,0,0,0,-1,1714,1828,0,0
497,-804,0,0,0,0,0,0,0,0,0,-1,1721,1828,0,0
504,-804,0,0,0,0,0,0,0,0,0,-1,1728,1828,0,0
511,-804,0,0,0,0,0,0,0,0,0,-1,1735,1828,0,0
518,-804,0,0,0,0,0,0,0,0,0,-1,1742,1828,0,0
525,-804,0,0,0,0,0,0,0,0,0,-1,1749,1828,0,0
532,-804,0,0,0,0,0,0,0,0,0,-1,1756,1828,0,0
539,-804,0,0,0,0,0,0,0,0,0,-1,1763,1828,0,0
546,-804,0,0,0,0,0,0,0,0,0,-1,1770,1828,0,0
553,-804,0,0,0,0,0,0,0,0,0,-1,1777,1828,0,0
560,-804,0,0,0,0,0,0,0,0,0,-1,1784,1828,0,0
567,-804,0,0,0,0,0,0,0,0,0,-1,1791,1828,0,0
574,-804,0,0,0,0,0,0,0,0,0,-1,1798,1828,0,0
581,-804,0,0,0,0,0,0,0,0,0,-1,1805,1828,0,0
588,-804,0,0,0,0,0,0,0,0,0,-1,1812,1828,0,0
595,-804,0,0,0,0,0,0,0,0,0,-1,1819,1828,0,0
602,-804,0,0,0,0,0,0,0,0,0,-1,1826,1828,0,0
609,-804,0,0,0,0,0,0,0,0,0,-1,1833,1828,0,0
616,-804,0,0,0,0,0,0,0,0,0,-1,1840,1828,0,0
623,-804,0,0,0,0,0,0,0,0,0,-1,1847,1828,0,0
630,-804,0,0,0,0,0,0,0,0,0,-1,1854,1828,0,0
637,-804,0,0,0,0,0,0,0,0,0,-1,1861,1828,0,0
644,-804,0,0,0,0,0,0,0,0,0,-1,1868,1828,0,0
651,-804,0,0,0,0,0,0,0,0,0,-1,1875,1828,0,0
658,-804,0,0,0,0,0,0,0,0,0,-1,1882,1828,0,0
665,-804,0,0,0,0,0,0,0,0,0,-1,1889,1828,0,0
672,-804,0,0,0,0,0,0,0,0,0,-1,1896,1828,0,0
679,-804,0,0,0,0,0,0,0,0,0,-1,1903,1828,0,0
686,-804,0,0,0,0,0,0,0,0,0,-1,1910,1828,0,0
693,-804,0,0,0,0,0,0,0,0,0,-1,1917,1828,0,0
700,-804,0,0,0,0,0,0,0,0,0,-1,1924,1828,0,0
707,-804,0,0,0,0,0,0,0,0,0,-1,1931,1828,0,0
714,-804,0,0,0,0,0,0,0,0,0,-1,1938,1828,0,0
721,-804,0,0,0,0,0,0,0,0,0,-1,1945,1828,0,0
728,-804,0,0,0,0,0,0,0,0,0,-1,1952,1828,0,0
735,-804,0,0,0,0,0,0,0,0,0,-1,1959,1828,0,0
742,-804,0,0,0,0,0,0,0,0,0,-1,1966,1828,0,0
749,-804,0,0,0,0,0,0,0,0,0,-1,1973,1828,0,0
756,-804,0,0,0,0,0,0,0,0,0,-1,1980,1828,0,0
763,-804,0,0,0,0,0,0,0,0,0,-1,1987,1828,0,0
770,-804,0,0,0,0,0,0,0,0,0,-1,1994,1828,0,0
777,-804,0,0,0,0,0,0,0,0,0,-1,2001,1828,0,0
784,-804,0,0,0,0,0,0,0,0,0,-1,2008,1828,0,0
791,-804,0,0,0,0,0,0,0,0,0,-1,2015,1828,0,0
798,-804,0,0,0,0,0,0,0,0,0,-1,2022,1828,0,0
805,-804,0,0,0,0,0,0,0,0,0,-1,2029,1828,0,0
812,-804,0,0,0,0,0,0,0,0,0,-1,2036,1828,0,0

