 "x_c",  "y_c",  "u_c",  "v_c",  "exx",  "eyy",  "exy",  "e1",  "e2",  "gamma",  "e_vonmises",  "sigma",  "x",  "y",  "u",  "v"
-700,715,0,0,0,0,0,0,0,0,0,-1,524,309,0,0
-693,715,0,0,0,0,0,0,0,0,0,-1,531,309,0,0
-686,715,0,0,0,0,0,0,0,0,0,-1,538,309,0,0
-679,715,0,0,0,0,0,0,0,0,0,-1,545,309,0,0
-672,715,0,0,0,0,0,0,0,0,0,-1,552,309,0,0
-665,715,0,0,0,0,0,0,0,0,0,-1,559,309,0,0
-658,715,0,0,0,0,0,0,0,0,0,-1,566,309,0,0
-651,715,0,0,0,0,0,0,0,0,0,-1,573,309,0,0
-644,715,0,0,0,0,0,0,0,0,0,-1,580,309,0,0
-637,715,0,0,0,0,0,0,0,0,0,-1,587,309,0,0
-630,715,0,0,0,0,0,0,0,0,0,-1,594,309,0,0
-623,715,0,0,0,0,0,0,0,0,0,-1,601,309,0,0
-616,715,0,0,0,0,0,0,0,0,0,-1,608,309,0,0
-609,715,0,0,0,0,0,0,0,0,0,-1,615,309,0,0
-602,715,0,0,0,0,0,0,0,0,0,-1,622,309,0,0
-595,715,0,0,0,0,0,0,0,0,0,-1,629,309,0,0
-588,715,0,0,0,0,0,0,0,0,0,-1,636,309,0,0
-581,715,0,0,0,0,0,0,0,0,0,-1,643,309,0,0
-574,715,0,0,0,0,0,0,0,0,0,-1,650,309,0,0
-567,715,0,0,0,0,0,0,0,0,0,-1,657,309,0,0
-560,715,0,0,0,0,0,0,0,0,0,-1,664,309,0,0
-553,715,0,0,0,0,0,0,0,0,0,-1,671,309,0,0
-546,715,0,0,0,0,0,0,0,0,0,-1,678,309,0,0
-539,715,0,0,0,0,0,0,0,0,0,-1,685,309,0,0
-532,715,0,0,0,0,0,0,0,0,0,-1,692,309,0,0
-525,715,0,0,0,0,0,0,0,0,0,-1,699,309,0,0
-518,715,0,0,0,0,0,0,0,0,0,-1,706,309,0,0
-511,715,0,0,0,0,0,0,0,0,0,-1,713,309,0,0
-504,715,0,0,0,0,0,0,0,0,0,-1,720,309,0,0
-497,715,0,0,0,0,0,0,0,0,0,-1,727,309,0,0
-490,715,0,0,0,0,0,0,0,0,0,-1,734,309,0,0
-483,715,0,0,0,0,0,0,0,0,0,-1,741,309,0,0
-476,715,0,0,0,0,0,0,0,0,0,-1,748,309,0,0
-469,715,0,0,0,0,0,0,0,0,0,-1,755,309,0,0
-462,715,0,0,0,0,0,0,0,0,0,-1,762,309,0,0
-455,715,0,0,0,0,0,0,0,0,0,-1,769,309,0,0
-448,715,0,0,0,0,0,0,0,0,0,-1,776,309,0,0
-441,715,0,0,0,0,0,0,0,0,0,-1,783,309,0,0
-434,715,0,0,0,0,0,0,0,0,0,-1,790,309,0,0
-427,715,0,0,0,0,0,0,0,0,0,-1,797,309,0,0
-420,715,0,0,0,0,0,0,0,0,0,-1,804,309,0,0
-413,715,0,0,0,0,0,0,0,0,0,-1,811,309,0,0
-406,715,0,0,0,0,0,0,0,0,0,-1,818,309,0,0
-399,715,0,0,0,0,0,0,0,0,0,-1,825,309,0,0
-392,715,0,0,0,0,0,0,0,0,0,-1,832,309,0,0
-385,715,0,0,0,0,0,0,0,0,0,-1,839,309,0,0
-378,715,0,0,0,0,0,0,0,0,0,-1,846,309,0,0
-371,715,0,0,0,0,0,0,0,0,0,-1,853,309,0,0
-364,715,0,0,0,0,0,0,0,0,0,-1,860,309,0,0
-357,715,0,0,0,0,0,0,0,0,0,-1,867,309,0,0
-350,715,0,0,0,0,0,0,0,0,0,-1,874,309,0,0
-343,715,0,0,0,0,0,0,0,0,0,-1,881,309,0,0
-336,715,0,0,0,0,0,0,0,0,0,-1,888,309,0,0
-329,715,0,0,0,0,0,0,0,0,0,-1,895,309,0,0
-322,715,0,0,0,0,0,0,0,0,0,-1,902,309,0,0
-315,715,0,0,0,0,0,0,0,0,0,-1,909,309,0,0
-308,715,0,0,0,0,0,0,0,0,0,-1,916,309,0,0
-301,715,0,0,0,0,0,0,0,0,0,-1,923,309,0,0
-294,715,0,0,0,0,0,0,0,0,0,-1,930,309,0,0
-287,715,0,0,0,0,0,0,0,0,0,-1,937,309,0,0
-280,715,0,0,0,0,0,0,0,0,0,-1,944,309,0,0
-273,715,0,0,0,0,0,0,0,0,0,-1,951,309,0,0
-266,715,0,0,0,0,0,0,0,0,0,-1,958,309,0,0
-259,715,0,0,0,0,0,0,0,0,0,-1,965,309,0,0
-252,715,0,0,0,0,0,0,0,0,0,-1,972,309,0,0
-245,715,0,0,0,0,0,0,0,0,0,-1,979,309,0,0
-238,715,0,0,0,0,0,0,0,0,0,-1,986,309,0,0
-231,715,0,0,0,0,0,0,0,0,0,-1,993,309,0,0
-224,715,0,0,0,0,0,0,0,0,0,-1,1000,309,0,0
-217,715,0,0,0,0,0,0,0,0,0,-1,1007,309,0,0
-210,715,0,0,0,0,0,0,0,0,0,-1,1014,309,0,0
-203,715,0,0,0,0,0,0,0,0,0,-1,1021,309,0,0
-196,715,0,0,0,0,0,0,0,0,0,-1,1028,309,0,0
-189,715,0,0,0,0,0,0,0,0,0,-1,1035,309,0,0
-182,715,0,0,0,0,0,0,0,0,0,-1,1042,309,0,0
-175,715,0,0,0,0,0,0,0,0,0,-1,1049,309,0,0
-168,715,0,0,0,0,0,0,0,0,0,-1,1056,309,0,0
-161,715,0,0,0,0,0,0,0,0,0,-1,1063,309,0,0
-154,715,0,0,0,0,0,0,0,0,0,-1,1070,309,0,0
-147,715,0,0,0,0,0,0,0,0,0,-1,1077,309,0,0
-140,715,0,0,0,0,0,0,0,0,0,-1,1084,309,0,0
-133,715,0,0,0,0,0,0,0,0,0,-1,1091,309,0,0
-126,715,0,0,0,0,0,0,0,0,0,-1,1098,309,0,0
-119,715,0,0,0,0,0,0,0,0,0,-1,1105,309,0,0
-112,715,0,0,0,0,0,0,0,0,0,-1,1112,309,0,0
-105,715,0,0,0,0,0,0,0,0,0,-1,1119,309,0,0
-98,715,0,0,0,0,0,0,0,0,0,-1,1126,309,0,0
-91,715,0,0,0,0,0,0,0,0,0,-1,1133,309,0,0
-84,715,0,0,0,0,0,0,0,0,0,-1,1140,309,0,0
-77,715,0,0,0,0,0,0,0,0,0,-1,1147,309,0,0
-70,715,0,0,0,0,0,0,0,0,0,-1,1154,309,0,0
-63,715,0,0,0,0,0,0,0,0,0,-1,1161,309,0,0
-56,715,0,0,0,0,0,0,0,0,0,-1,1168,309,0,0
-49,715,0,0,0,0,0,0,0,0,0,-1,1175,309,0,0
-42,715,0,0,0,0,0,0,0,0,0,-1,1182,309,0,0
-35,715,0,0,0,0,0,0,0,0,0,-1,1189,309,0,0
-28,715,0,0,0,0,0,0,0,0,0,-1,1196,309,0,0
-21,715,0,0,0,0,0,0,0,0,0,-1,1203,309,0,0
-14,715,0,0,0,0,0,0,0,0,0,-1,1210,309,0,0
-7,715,0,0,0,0,0,0,0,0,0,-1,1217,309,0,0
0,715,0,0,0,0,0,0,0,0,0,-1,1224,309,0,0
7,715,0,0,0,0,0,0,0,0,0,-1,1231,309,0,0
14,715,0,0,0,0,0,0,0,0,0,-1,1238,309,0,0
21,715,0,0,0,0,0,0,0,0,0,-1,1245,309,0,0
28,715,0,0,0,0,0,0,0,0,0,-1,1252,309,0,0
35,715,0,0,0,0,0,0,0,0,0,-1,1259,309,0,0
42,715,0,0,0,0,0,0,0,0,0,-1,1266,309,0,0
49,715,0,0,0,0,0,0,0,0,0,-1,1273,309,0,0
56,715,0,0,0,0,0,0,0,0,0,-1,1280,309,0,0
63,715,7.46643,-59.1349,-0.00495961,0.136293,0.0427384,0.148217,-0.0168842,1.2987,0.104894,0.0470052,1287,309,7.4664,59.1349
70,715,7.9906,-58.2627,0.011272,0.126847,0.0441481,0.141781,-0.00366229,1.2446,0.0957649,0.0461164,1294,309,7.99062,58.2627
77,715,0,0,0,0,0,0,0,0,0,-1,1301,309,0,0
84,715,0,0,0,0,0,0,0,0,0,-1,1308,309,0,0
91,715,0,0,0,0,0,0,0,0,0,-1,1315,309,0,0
98,715,0,0,0,0,0,0,0,0,0,-1,1322,309,0,0
105,715,0,0,0,0,0,0,0,0,0,-1,1329,309,0,0
112,715,0,0,0,0,0,0,0,0,0,-1,1336,309,0,0
119,715,0,0,0,0,0,0,0,0,0,-1,1343,309,0,0
126,715,0,0,0,0,0,0,0,0,0,-1,1350,309,0,0
133,715,0,0,0,0,0,0,0,0,0,-1,1357,309,0,0
140,715,0,0,0,0,0,0,0,0,0,-1,1364,309,0,0
147,715,0,0,0,0,0,0,0,0,0,-1,1371,309,0,0
154,715,0,0,0,0,0,0,0,0,0,-1,1378,309,0,0
161,715,0,0,0,0,0,0,0,0,0,-1,1385,309,0,0
168,715,0,0,0,0,0,0,0,0,0,-1,1392,309,0,0
175,715,0,0,0,0,0,0,0,0,0,-1,1399,309,0,0
182,715,0,0,0,0,0,0,0,0,0,-1,1406,309,0,0
189,715,0,0,0,0,0,0,0,0,0,-1,1413,309,0,0
196,715,0,0,0,0,0,0,0,0,0,-1,1420,309,0,0
203,715,0,0,0,0,0,0,0,0,0,-1,1427,309,0,0
210,715,0,0,0,0,0,0,0,0,0,-1,1434,309,0,0
217,715,0,0,0,0,0,0,0,0,0,-1,1441,309,0,0
224,715,0,0,0,0,0,0,0,0,0,-1,1448,309,0,0
231,715,0,0,0,0,0,0,0,0,0,-1,1455,309,0,0
238,715,0,0,0,0,0,0,0,0,0,-1,1462,309,0,0
245,715,0,0,0,0,0,0,0,0,0,-1,1469,309,0,0
252,715,0,0,0,0,0,0,0,0,0,-1,1476,309,0,0
259,715,0,0,0,0,0,0,0,0,0,-1,1483,309,0,0
266,715,0,0,0,0,0,0,0,0,0,-1,1490,309,0,0
273,715,0,0,0,0,0,0,0,0,0,-1,1497,309,0,0
280,715,0,0,0,0,0,0,0,0,0,-1,1504,309,0,0
287,715,0,0,0,0,0,0,0,0,0,-1,1511,309,0,0
294,715,0,0,0,0,0,0,0,0,0,-1,1518,309,0,0
301,715,0,0,0,0,0,0,0,0,0,-1,1525,309,0,0
308,715,0,0,0,0,0,0,0,0,0,-1,1532,309,0,0
315,715,0,0,0,0,0,0,0,0,0,-1,1539,309,0,0
322,715,0,0,0,0,0,0,0,0,0,-1,1546,309,0,0
329,715,0,0,0,0,0,0,0,0,0,-1,1553,309,0,0
336,715,0,0,0,0,0,0,0,0,0,-1,1560,309,0,0
343,715,0,0,0,0,0,0,0,0,0,-1,1567,309,0,0
350,715,0,0,0,0,0,0,0,0,0,-1,1574,309,0,0
357,715,0,0,0,0,0,0,0,0,0,-1,1581,309,0,0
364,715,0,0,0,0,0,0,0,0,0,-1,1588,309,0,0
371,715,0,0,0,0,0,0,0,0,0,-1,1595,309,0,0
378,715,0,0,0,0,0,0,0,0,0,-1,1602,309,0,0
385,715,0,0,0,0,0,0,0,0,0,-1,1609,309,0,0
392,715,0,0,0,0,0,0,0,0,0,-1,1616,309,0,0
399,715,0,0,0,0,0,0,0,0,0,-1,1623,309,0,0
406,715,0,0,0,0,0,0,0,0,0,-1,1630,309,0,0
413,715,0,0,0,0,0,0,0,0,0,-1,1637,309,0,0
420,715,0,0,0,0,0,0,0,0,0,-1,1644,309,0,0
427,715,0,0,0,0,0,0,0,0,0,-1,1651,309,0,0
434,715,0,0,0,0,0,0,0,0,0,-1,1658,309,0,0
441,715,0,0,0,0,0,0,0,0,0,-1,1665,309,0,0
448,715,0,0,0,0,0,0,0,0,0,-1,1672,309,0,0
455,715,0,0,0,0,0,0,0,0,0,-1,1679,309,0,0
462,715,0,0,0,0,0,0,0,0,0,-1,1686,309,0,0
469,715,0,0,0,0,0,0,0,0,0,-1,1693,309,0,0
476,715,0,0,0,0,0,0,0,0,0,-1,1700,309,0,0
483,715,0,0,0,0,0,0,0,0,0,-1,1707,309,0,0
490,715,0,0,0,0,0,0,0,0,0,-1,1714,309,0,0
497,715,0,0,0,0,0,0,0,0,0,-1,1721,309,0,0
504,715,0,0,0,0,0,0,0,0,0,-1,1728,309,0,0
511,715,0,0,0,0,0,0,0,0,0,-1,1735,309,0,0
518,715,0,0,0,0,0,0,0,0,0,-1,1742,309,0,0
525,715,0,0,0,0,0,0,0,0,0,-1,1749,309,0,0
532,715,0,0,0,0,0,0,0,0,0,-1,1756,309,0,0
539,715,0,0,0,0,0,0,0,0,0,-1,1763,309,0,0
546,715,0,0,0,0,0,0,0,0,0,-1,1770,309,0,0
553,715,0,0,0,0,0,0,0,0,0,-1,1777,309,0,0
560,715,0,0,0,0,0,0,0,0,0,-1,1784,309,0,0
567,715,0,0,0,0,0,0,0,0,0,-1,1791,309,0,0
574,715,0,0,0,0,0,0,0,0,0,-1,1798,309,0,0
581,715,0,0,0,0,0,0,0,0,0,-1,1805,309,0,0
588,715,0,0,0,0,0,0,0,0,0,-1,1812,309,0,0
595,715,0,0,0,0,0,0,0,0,0,-1,1819,309,0,0
602,715,0,0,0,0,0,0,0,0,0,-1,1826,309,0,0
609,715,0,0,0,0,0,0,0,0,0,-1,1833,309,0,0
616,715,0,0,0,0,0,0,0,0,0,-1,1840,309,0,0
623,715,0,0,0,0,0,0,0,0,0,-1,1847,309,0,0
630,715,0,0,0,0,0,0,0,0,0,-1,1854,309,0,0
637,715,0,0,0,0,0,0,0,0,0,-1,1861,309,0,0
644,715,0,0,0,0,0,0,0,0,0,-1,1868,309,0,0
651,715,0,0,0,0,0,0,0,0,0,-1,1875,309,0,0
658,715,0,0,0,0,0,0,0,0,0,-1,1882,309,0,0
665,715,0,0,0,0,0,0,0,0,0,-1,1889,309,0,0
672,715,0,0,0,0,0,0,0,0,0,-1,1896,309,0,0
679,715,0,0,0,0,0,0,0,0,0,-1,1903,309,0,0
686,715,0,0,0,0,0,0,0,0,0,-1,1910,309,0,0
693,715,0,0,0,0,0,0,0,0,0,-1,1917,309,0,0
700,715,0,0,0,0,0,0,0,0,0,-1,1924,309,0,0
707,715,0,0,0,0,0,0,0,0,0,-1,1931,309,0,0
714,715,0,0,0,0,0,0,0,0,0,-1,1938,309,0,0
721,715,0,0,0,0,0,0,0,0,0,-1,1945,309,0,0
728,715,0,0,0,0,0,0,0,0,0,-1,1952,309,0,0
735,715,0,0,0,0,0,0,0,0,0,-1,1959,309,0,0
742,715,0,0,0,0,0,0,0,0,0,-1,1966,309,0,0
749,715,0,0,0,0,0,0,0,0,0,-1,1973,309,0,0
756,715,0,0,0,0,0,0,0,0,0,-1,1980,309,0,0
763,715,0,0,0,0,0,0,0,0,0,-1,1987,309,0,0
770,715,0,0,0,0,0,0,0,0,0,-1,1994,309,0,0
777,715,0,0,0,0,0,0,0,0,0,-1,2001,309,0,0
784,715,0,0,0,0,0,0,0,0,0,-1,2008,309,0,0
791,715,0,0,0,0,0,0,0,0,0,-1,2015,309,0,0
798,715,0,0,0,0,0,0,0,0,0,-1,2022,309,0,0
805,715,0,0,0,0,0,0,0,0,0,-1,2029,309,0,0
812,715,0,0,0,0,0,0,0,0,0,-1,2036,309,0,0
-700,708,0,0,0,0,0,0,0,0,0,-1,524,316,0,0
-693,708,0,0,0,0,0,0,0,0,0,-1,531,316,0,0
-686,708,0,0,0,0,0,0,0,0,0,-1,538,316,0,0
-679,708,0,0,0,0,0,0,0,0,0,-1,545,316,0,0
-672,708,0,0,0,0,0,0,0,0,0,-1,552,316,0,0
-665,708,0,0,0,0,0,0,0,0,0,-1,559,316,0,0
-658,708,0,0,0,0,0,0,0,0,0,-1,566,316,0,0
-651,708,0,0,0,0,0,0,0,0,0,-1,573,316,0,0
-644,708,0,0,0,0,0,0,0,0,0,-1,580,316,0,0
-637,708,0,0,0,0,0,0,0,0,0,-1,587,316,0,0
-630,708,0,0,0,0,0,0,0,0,0,-1,594,316,0,0
-623,708,0,0,0,0,0,0,0,0,0,-1,601,316,0,0
-616,708,0,0,0,0,0,0,0,0,0,-1,608,316,0,0
-609,708,0,0,0,0,0,0,0,0,0,-1,615,316,0,0
-602,708,0,0,0,0,0,0,0,0,0,-1,622,316,0,0
-595,708,0,0,0,0,0,0,0,0,0,-1,629,316,0,0
-588,708,0,0,0,0,0,0,0,0,0,-1,636,316,0,0
-581,708,0,0,0,0,0,0,0,0,0,-1,643,316,0,0
-574,708,0,0,0,0,0,0,0,0,0,-1,650,316,0,0
-567,708,0,0,0,0,0,0,0,0,0,-1,657,316,0,0
-560,708,0,0,0,0,0,0,0,0,0,-1,664,316,0,0
-553,708,0,0,0,0,0,0,0,0,0,-1,671,316,0,0
-546,708,0,0,0,0,0,0,0,0,0,-1,678,316,0,0
-539,708,0,0,0,0,0,0,0,0,0,-1,685,316,0,0
-532,708,0,0,0,0,0,0,0,0,0,-1,692,316,0,0
-525,708,0,0,0,0,0,0,0,0,0,-1,699,316,0,0
-518,708,0,0,0,0,0,0,0,0,0,-1,706,316,0,0
-511,708,0,0,0,0,0,0,0,0,0,-1,713,316,0,0
-504,708,0,0,0,0,0,0,0,0,0,-1,720,316,0,0
-497,708,0,0,0,0,0,0,0,0,0,-1,727,316,0,0
-490,708,0,0,0,0,0,0,0,0,0,-1,734,316,0,0
-483,708,0,0,0,0,0,0,0,0,0,-1,741,316,0,0
-476,708,0,0,0,0,0,0,0,0,0,-1,748,316,0,0
-469,708,0,0,0,0,0,0,0,0,0,-1,755,316,0,0
-462,708,0,0,0,0,0,0,0,0,0,-1,762,316,0,0
-455,708,0,0,0,0,0,0,0,0,0,-1,769,316,0,0
-448,708,0,0,0,0,0,0,0,0,0,-1,776,316,0,0
-441,708,0,0,0,0,0,0,0,0,0,-1,783,316,0,0
-434,708,0,0,0,0,0,0,0,0,0,-1,790,316,0,0
-427,708,0,0,0,0,0,0,0,0,0,-1,797,316,0,0
-420,708,0,0,0,0,0,0,0,0,0,-1,804,316,0,0
-413,708,0,0,0,0,0,0,0,0,0,-1,811,316,0,0
-406,708,0,0,0,0,0,0,0,0,0,-1,818,316,0,0
-399,708,0,0,0,0,0,0,0,0,0,-1,825,316,0,0
-392,708,0,0,0,0,0,0,0,0,0,-1,832,316,0,0
-385,708,0,0,0,0,0,0,0,0,0,-1,839,316,0,0
-378,708,0,0,0,0,0,0,0,0,0,-1,846,316,0,0
-371,708,0,0,0,0,0,0,0,0,0,-1,853,316,0,0
-364,708,0,0,0,0,0,0,0,0,0,-1,860,316,0,0
-357,708,0,0,0,0,0,0,0,0,0,-1,867,316,0,0
-350,708,0,0,0,0,0,0,0,0,0,-1,874,316,0,0
-343,708,0,0,0,0,0,0,0,0,0,-1,881,316,0,0
-336,708,0,0,0,0,0,0,0,0,0,-1,888,316,0,0
-329,708,0,0,0,0,0,0,0,0,0,-1,895,316,0,0
-322,708,0,0,0,0,0,0,0,0,0,-1,902,316,0,0
-315,708,0,0,0,0,0,0,0,0,0,-1,909,316,0,0
-308,708,0,0,0,0,0,0,0,0,0,-1,916,316,0,0
-301,708,0,0,0,0,0,0,0,0,0,-1,923,316,0,0
-294,708,0,0,0,0,0,0,0,0,0,-1,930,316,0,0
-287,708,0,0,0,0,0,0,0,0,0,-1,937,316,0,0
-280,708,0,0,0,0,0,0,0,0,0,-1,944,316,0,0
-273,708,0,0,0,0,0,0,0,0,0,-1,951,316,0,0
-266,708,0,0,0,0,0,0,0,0,0,-1,958,316,0,0
-259,708,0,0,0,0,0,0,0,0,0,-1,965,316,0,0
-252,708,0,0,0,0,0,0,0,0,0,-1,972,316,0,0
-245,708,0,0,0,0,0,0,0,0,0,-1,979,316,0,0
-238,708,0,0,0,0,0,0,0,0,0,-1,986,316,0,0
-231,708,0,0,0,0,0,0,0,0,0,-1,993,316,0,0
-224,708,0,0,0,0,0,0,0,0,0,-1,1000,316,0,0
-217,708,0,0,0,0,0,0,0,0,0,-1,1007,316,0,0
-210,708,0,0,0,0,0,0,0,0,0,-1,1014,316,0,0
-203,708,0,0,0,0,0,0,0,0,0,-1,1021,316,0,0
-196,708,0,0,0,0,0,0,0,0,0,-1,1028,316,0,0
-189,708,0,0,0,0,0,0,0,0,0,-1,1035,316,0,0
-182,708,0,0,0,0,0,0,0,0,0,-1,1042,316,0,0
-175,708,0,0,0,0,0,0,0,0,0,-1,1049,316,0,0
-168,708,0,0,0,0,0,0,0,0,0,-1,1056,316,0,0
-161,708,0,0,0,0,0,0,0,0,0,-1,1063,316,0,0
-154,708,0,0,0,0,0,0,0,0,0,-1,1070,316,0,0
-147,708,0,0,0,0,0,0,0,0,0,-1,1077,316,0,0
-140,708,0,0,0,0,0,0,0,0,0,-1,1084,316,0,0
-133,708,0,0,0,0,0,0,0,0,0,-1,1091,316,0,0
-126,708,0,0,0,0,0,0,0,0,0,-1,1098,316,0,0
-119,708,0,0,0,0,0,0,0,0,0,-1,1105,316,0,0
-112,708,0,0,0,0,0,0,0,0,0,-1,1112,316,0,0
-105,708,0,0,0,0,0,0,0,0,0,-1,1119,316,0,0
-98,708,0,0,0,0,0,0,0,0,0,-1,1126,316,0,0
-91,708,0,0,0,0,0,0,0,0,0,-1,1133,316,0,0
-84,708,0,0,0,0,0,0,0,0,0,-1,1140,316,0,0
-77,708,0,0,0,0,0,0,0,0,0,-1,1147,316,0,0
-70,708,0,0,0,0,0,0,0,0,0,-1,1154,316,0,0
-63,708,0,0,0,0,0,0,0,0,0,-1,1161,316,0,0
-56,708,0,0,0,0,0,0,0,0,0,-1,1168,316,0,0
-49,708,0,0,0,0,0,0,0,0,0,-1,1175,316,0,0
-42,708,0,0,0,0,0,0,0,0,0,-1,1182,316,0,0
-35,708,-2.71204,-6.31558,0,0,0,0,0,0,0,-1,1189,316,-2.712,6.3156
-28,708,-2.92371,-5.53253,0,0,0,0,0,0,0,-1,1196,316,-2.92375,5.53254
-21,708,-0.417969,-24.5911,0,0,0,0,0,0,0,-1,1203,316,-0.418022,24.5911
-14,708,11.1752,-57.0714,0,0,0,0,0,0,0,-1,1210,316,11.1751,57.0714
-7,708,11.2405,-57.5552,0.016391,0.0949766,0.00256257,0.0950601,0.0163075,1.53823,0.0586975,0.0474221,1217,316,11.2405,57.5552
0,708,11.1233,-57.6801,0,0,0,0,0,0,0,-1,1224,316,11.1233,57.6801
7,708,11.4041,-57.8455,-0.0155787,0.101146,0.0104597,0.102075,-0.0165086,1.48213,0.0741681,0.0441097,1231,316,11.404,57.8455
14,708,12.0065,-58.8455,0,0,0,0,0,0,0,-1,1238,316,12.0065,58.8455
21,708,11.8994,-59.394,-0.0282041,0.111075,0.0185189,0.113495,-0.0306244,1.44084,0.0876731,0.0418694,1245,316,11.8995,59.394
28,708,11.5348,-59.7401,-0.030344,0.11807,0.0220318,0.121271,-0.0335456,1.42649,0.0940453,0.0440838,1252,316,11.5348,59.7401
35,708,11.066,-59.9368,0,0,0,0,0,0,0,-1,1259,316,11.066,59.9368
42,708,10.3256,-59.9883,-0.0275625,0.128215,0.028488,0.133261,-0.0326088,1.39548,0.101472,0.0445054,1266,316,10.3255,59.9883
49,708,9.40649,-59.9045,-0.0218117,0.130732,0.0319706,0.137162,-0.0282412,1.37234,0.102164,0.0439146,1273,316,9.40647,59.9045
56,708,8.46973,-59.5479,-0.00985187,0.129425,0.0349488,0.137702,-0.0181296,1.33823,0.0984031,0.0426824,1280,316,8.46975,59.5479
63,708,7.62109,-59.8318,0.001624,0.127713,0.0375456,0.138046,-0.00870914,1.30223,0.095067,0.0442434,1287,316,7.62107,59.8318
70,708,8.16235,-58.9888,0.0165056,0.118841,0.0390235,0.132024,0.00332294,1.24502,0.0869294,0.0420893,1294,316,8.16235,58.9888
77,708,8.73792,-58.4846,0.0305986,0.111608,0.0412855,0.12894,0.0132662,1.17332,0.0818969,0.042146,1301,316,8.73787,58.4846
84,708,1.3158,-65.5153,0,0,0,0,0,0,0,-1,1308,316,1.31578,65.5153
91,708,1.63672,-64.9898,0.0530768,0.0874346,0.0442879,0.117759,0.0227528,0.97041,0.0721278,0.0475351,1315,316,1.63668,64.9898
98,708,1.82727,-64.4515,0.061229,0.0747786,0.0454462,0.113952,0.0220554,0.85939,0.0697879,0.0490635,1322,316,1.82726,64.4515
105,708,2.21277,-63.8014,0.0656417,0.0641432,0.046364,0.111262,0.0185224,0.777318,0.0688366,0.0495439,1329,316,2.21272,63.8014
112,708,2.54114,-63.2797,0.0667009,0.0560921,0.0471363,0.10883,0.0139627,0.729368,0.0683762,0.0438695,1336,316,2.54111,63.2797
119,708,2.56201,-62.3444,0.0645524,0.0541788,0.0478441,0.10749,0.0112411,0.731404,0.0682224,0.0422083,1343,316,2.56197,62.3444
126,708,3.08386,-61.2611,0.0606101,0.0555957,0.0474181,0.105587,0.0106186,0.758986,0.0671325,0.0456408,1350,316,3.08388,61.2611
133,708,3.24695,-60.7403,0,0,0,0,0,0,0,-1,1357,316,3.24696,60.7403
140,708,0.773193,-56.3175,0,0,0,0,0,0,0,-1,1364,316,0.773212,56.3175
147,708,1.62256,-55.9,0,0,0,0,0,0,0,-1,1371,316,1.62253,55.9
154,708,0,0,0,0,0,0,0,0,0,-1,1378,316,0,0
161,708,0,0,0,0,0,0,0,0,0,-1,1385,316,0,0
168,708,0,0,0,0,0,0,0,0,0,-1,1392,316,0,0
175,708,0,0,0,0,0,0,0,0,0,-1,1399,316,0,0
182,708,0,0,0,0,0,0,0,0,0,-1,1406,316,0,0
189,708,0,0,0,0,0,0,0,0,0,-1,1413,316,0,0
196,708,0,0,0,0,0,0,0,0,0,-1,1420,316,0,0
203,708,0,0,0,0,0,0,0,0,0,-1,1427,316,0,0
210,708,0,0,0,0,0,0,0,0,0,-1,1434,316,0,0
217,708,0,0,0,0,0,0,0,0,0,-1,1441,316,0,0
224,708,0,0,0,0,0,0,0,0,0,-1,1448,316,0,0
231,708,0,0,0,0,0,0,0,0,0,-1,1455,316,0,0
238,708,0,0,0,0,0,0,0,0,0,-1,1462,316,0,0
245,708,0,0,0,0,0,0,0,0,0,-1,1469,316,0,0
252,708,0,0,0,0,0,0,0,0,0,-1,1476,316,0,0
259,708,0,0,0,0,0,0,0,0,0,-1,1483,316,0,0
266,708,0,0,0,0,0,0,0,0,0,-1,1490,316,0,0
273,708,0,0,0,0,0,0,0,0,0,-1,1497,316,0,0
280,708,0,0,0,0,0,0,0,0,0,-1,1504,316,0,0
287,708,0,0,0,0,0,0,0,0,0,-1,1511,316,0,0
294,708,0,0,0,0,0,0,0,0,0,-1,1518,316,0,0
301,708,0,0,0,0,0,0,0,0,0,-1,1525,316,0,0
308,708,0,0,0,0,0,0,0,0,0,-1,1532,316,0,0
315,708,0,0,0,0,0,0,0,0,0,-1,1539,316,0,0
322,708,0,0,0,0,0,0,0,0,0,-1,1546,316,0,0
329,708,0,0,0,0,0,0,0,0,0,-1,1553,316,0,0
336,708,0,0,0,0,0,0,0,0,0,-1,1560,316,0,0
343,708,0,0,0,0,0,0,0,0,0,-1,1567,316,0,0
350,708,0,0,0,0,0,0,0,0,0,-1,1574,316,0,0
357,708,0,0,0,0,0,0,0,0,0,-1,1581,316,0,0
364,708,0,0,0,0,0,0,0,0,0,-1,1588,316,0,0
371,708,0,0,0,0,0,0,0,0,0,-1,1595,316,0,0
378,708,0,0,0,0,0,0,0,0,0,-1,1602,316,0,0
385,708,0,0,0,0,0,0,0,0,0,-1,1609,316,0,0
392,708,0,0,0,0,0,0,0,0,0,-1,1616,316,0,0
399,708,0,0,0,0,0,0,0,0,0,-1,1623,316,0,0
406,708,0,0,0,0,0,0,0,0,0,-1,1630,316,0,0
413,708,0,0,0,0,0,0,0,0,0,-1,1637,316,0,0
420,708,0,0,0,0,0,0,0,0,0,-1,1644,316,0,0
427,708,0,0,0,0,0,0,0,0,0,-1,1651,316,0,0
434,708,0,0,0,0,0,0,0,0,0,-1,1658,316,0,0
441,708,0,0,0,0,0,0,0,0,0,-1,1665,316,0,0
448,708,0,0,0,0,0,0,0,0,0,-1,1672,316,0,0
455,708,0,0,0,0,0,0,0,0,0,-1,1679,316,0,0
462,708,0,0,0,0,0,0,0,0,0,-1,1686,316,0,0
469,708,0,0,0,0,0,0,0,0,0,-1,1693,316,0,0
476,708,0,0,0,0,0,0,0,0,0,-1,1700,316,0,0
483,708,0,0,0,0,0,0,0,0,0,-1,1707,316,0,0
490,708,0,0,0,0,0,0,0,0,0,-1,1714,316,0,0
497,708,0,0,0,0,0,0,0,0,0,-1,1721,316,0,0
504,708,0,0,0,0,0,0,0,0,0,-1,1728,316,0,0
511,708,0,0,0,0,0,0,0,0,0,-1,1735,316,0,0
518,708,0,0,0,0,0,0,0,0,0,-1,1742,316,0,0
525,708,0,0,0,0,0,0,0,0,0,-1,1749,316,0,0
532,708,0,0,0,0,0,0,0,0,0,-1,1756,316,0,0
539,708,0,0,0,0,0,0,0,0,0,-1,1763,316,0,0
546,708,0,0,0,0,0,0,0,0,0,-1,1770,316,0,0
553,708,0,0,0,0,0,0,0,0,0,-1,1777,316,0,0
560,708,0,0,0,0,0,0,0,0,0,-1,1784,316,0,0
567,708,0,0,0,0,0,0,0,0,0,-1,1791,316,0,0
574,708,0,0,0,0,0,0,0,0,0,-1,1798,316,0,0
581,708,0,0,0,0,0,0,0,0,0,-1,1805,316,0,0
588,708,0,0,0,0,0,0,0,0,0,-1,1812,316,0,0
595,708,0,0,0,0,0,0,0,0,0,-1,1819,316,0,0
602,708,0,0,0,0,0,0,0,0,0,-1,1826,316,0,0
609,708,0,0,0,0,0,0,0,0,0,-1,1833,316,0,0
616,708,0,0,0,0,0,0,0,0,0,-1,1840,316,0,0
623,708,0,0,0,0,0,0,0,0,0,-1,1847,316,0,0
630,708,0,0,0,0,0,0,0,0,0,-1,1854,316,0,0
637,708,0,0,0,0,0,0,0,0,0,-1,1861,316,0,0
644,708,0,0,0,0,0,0,0,0,0,-1,1868,316,0,0
651,708,0,0,0,0,0,0,0,0,0,-1,1875,316,0,0
658,708,0,0,0,0,0,0,0,0,0,-1,1882,316,0,0
665,708,0,0,0,0,0,0,0,0,0,-1,1889,316,0,0
672,708,0,0,0,0,0,0,0,0,0,-1,1896,316,0,0
679,708,0,0,0,0,0,0,0,0,0,-1,1903,316,0,0
686,708,0,0,0,0,0,0,0,0,0,-1,1910,316,0,0
693,708,0,0,0,0,0,0,0,0,0,-1,1917,316,0,0
700,708,0,0,0,0,0,0,0,0,0,-1,1924,316,0,0
707,708,0,0,0,0,0,0,0,0,0,-1,1931,316,0,0
714,708,0,0,0,0,0,0,0,0,0,-1,1938,316,0,0
721,708,0,0,0,0,0,0,0,0,0,-1,1945,316,0,0
728,708,0,0,0,0,0,0,0,0,0,-1,1952,316,0,0
735,708,0,0,0,0,0,0,0,0,0,-1,1959,316,0,0
742,708,0,0,0,0,0,0,0,0,0,-1,1966,316,0,0
749,708,0,0,0,0,0,0,0,0,0,-1,1973,316,0,0
756,708,0,0,0,0,0,0,0,0,0,-1,1980,316,0,0
763,708,0,0,0,0,0,0,0,0,0,-1,1987,316,0,0
770,708,0,0,0,0,0,0,0,0,0,-1,1994,316,0,0
777,708,0,0,0,0,0,0,0,0,0,-1,2001,316,0,0
784,708,0,0,0,0,0,0,0,0,0,-1,2008,316,0,0
791,708,0,0,0,0,0,0,0,0,0,-1,2015,316,0,0
798,708,0,0,0,0,0,0,0,0,0,-1,2022,316,0,0
805,708,0,0,0,0,0,0,0,0,0,-1,2029,316,0,0
812,708,0,0,0,0,0,0,0,0,0,-1,2036,316,0,0
-700,701,0,0,0,0,0,0,0,0,0,-1,524,323,0,0
-693,701,0,0,0,0,0,0,0,0,0,-1,531,323,0,0
-686,701,0,0,0,0,0,0,0,0,0,-1,538,323,0,0
-679,701,0,0,0,0,0,0,0,0,0,-1,545,323,0,0
-672,701,0,0,0,0,0,0,0,0,0,-1,552,323,0,0
-665,701,0,0,0,0,0,0,0,0,0,-1,559,323,0,0
-658,701,0,0,0,0,0,0,0,0,0,-1,566,323,0,0
-651,701,0,0,0,0,0,0,0,0,0,-1,573,323,0,0
-644,701,0,0,0,0,0,0,0,0,0,-1,580,323,0,0
-637,701,0,0,0,0,0,0,0,0,0,-1,587,323,0,0
-630,701,0,0,0,0,0,0,0,0,0,-1,594,323,0,0
-623,701,0,0,0,0,0,0,0,0,0,-1,601,323,0,0
-616,701,0,0,0,0,0,0,0,0,0,-1,608,323,0,0
-609,701,0,0,0,0,0,0,0,0,0,-1,615,323,0,0
-602,701,0,0,0,0,0,0,0,0,0,-1,622,323,0,0
-595,701,0,0,0,0,0,0,0,0,0,-1,629,323,0,0
-588,701,0,0,0,0,0,0,0,0,0,-1,636,323,0,0
-581,701,0,0,0,0,0,0,0,0,0,-1,643,323,0,0
-574,701,0,0,0,0,0,0,0,0,0,-1,650,323,0,0
-567,701,0,0,0,0,0,0,0,0,0,-1,657,323,0,0
-560,701,0,0,0,0,0,0,0,0,0,-1,664,323,0,0
-553,701,0,0,0,0,0,0,0,0,0,-1,671,323,0,0
-546,701,0,0,0,0,0,0,0,0,0,-1,678,323,0,0
-539,701,0,0,0,0,0,0,0,0,0,-1,685,323,0,0
-532,701,0,0,0,0,0,0,0,0,0,-1,692,323,0,0
-525,701,0,0,0,0,0,0,0,0,0,-1,699,323,0,0
-518,701,0,0,0,0,0,0,0,0,0,-1,706,323,0,0
-511,701,0,0,0,0,0,0,0,0,0,-1,713,323,0,0
-504,701,0,0,0,0,0,0,0,0,0,-1,720,323,0,0
-497,701,0,0,0,0,0,0,0,0,0,-1,727,323,0,0
-490,701,0,0,0,0,0,0,0,0,0,-1,734,323,0,0
-483,701,0,0,0,0,0,0,0,0,0,-1,741,323,0,0
-476,701,0,0,0,0,0,0,0,0,0,-1,748,323,0,0
-469,701,0,0,0,0,0,0,0,0,0,-1,755,323,0,0
-462,701,0,0,0,0,0,0,0,0,0,-1,762,323,0,0
-455,701,0,0,0,0,0,0,0,0,0,-1,769,323,0,0
-448,701,0,0,0,0,0,0,0,0,0,-1,776,323,0,0
-441,701,0,0,0,0,0,0,0,0,0,-1,783,323,0,0
-434,701,0,0,0,0,0,0,0,0,0,-1,790,323,0,0
-427,701,0,0,0,0,0,0,0,0,0,-1,797,323,0,0
-420,701,0,0,0,0,0,0,0,0,0,-1,804,323,0,0
-413,701,0,0,0,0,0,0,0,0,0,-1,811,323,0,0
-406,701,0,0,0,0,0,0,0,0,0,-1,818,323,0,0
-399,701,0,0,0,0,0,0,0,0,0,-1,825,323,0,0
-392,701,0,0,0,0,0,0,0,0,0,-1,832,323,0,0
-385,701,0,0,0,0,0,0,0,0,0,-1,839,323,0,0
-378,701,0,0,0,0,0,0,0,0,0,-1,846,323,0,0
-371,701,0,0,0,0,0,0,0,0,0,-1,853,323,0,0
-364,701,0,0,0,0,0,0,0,0,0,-1,860,323,0,0
-357,701,0,0,0,0,0,0,0,0,0,-1,867,323,0,0
-350,701,0,0,0,0,0,0,0,0,0,-1,874,323,0,0
-343,701,0,0,0,0,0,0,0,0,0,-1,881,323,0,0
-336,701,0,0,0,0,0,0,0,0,0,-1,888,323,0,0
-329,701,0,0,0,0,0,0,0,0,0,-1,895,323,0,0
-322,701,0,0,0,0,0,0,0,0,0,-1,902,323,0,0
-315,701,0,0,0,0,0,0,0,0,0,-1,909,323,0,0
-308,701,0,0,0,0,0,0,0,0,0,-1,916,323,0,0
-301,701,0,0,0,0,0,0,0,0,0,-1,923,323,0,0
-294,701,0,0,0,0,0,0,0,0,0,-1,930,323,0,0
-287,701,0,0,0,0,0,0,0,0,0,-1,937,323,0,0
-280,701,0,0,0,0,0,0,0,0,0,-1,944,323,0,0
-273,701,0,0,0,0,0,0,0,0,0,-1,951,323,0,0
-266,701,0,0,0,0,0,0,0,0,0,-1,958,323,0,0
-259,701,0,0,0,0,0,0,0,0,0,-1,965,323,0,0
-252,701,0,0,0,0,0,0,0,0,0,-1,972,323,0,0
-245,701,0,0,0,0,0,0,0,0,0,-1,979,323,0,0
-238,701,0,0,0,0,0,0,0,0,0,-1,986,323,0,0
-231,701,0,0,0,0,0,0,0,0,0,-1,993,323,0,0
-224,701,0,0,0,0,0,0,0,0,0,-1,1000,323,0,0
-217,701,0,0,0,0,0,0,0,0,0,-1,1007,323,0,0
-210,701,0,0,0,0,0,0,0,0,0,-1,1014,323,0,0
-203,701,0,0,0,0,0,0,0,0,0,-1,1021,323,0,0
-196,701,0,0,0,0,0,0,0,0,0,-1,1028,323,0,0
-189,701,0,0,0,0,0,0,0,0,0,-1,1035,323,0,0
-182,701,0,0,0,0,0,0,0,0,0,-1,1042,323,0,0
-175,701,0,0,0,0,0,0,0,0,0,-1,1049,323,0,0
-168,701,0,0,0,0,0,0,0,0,0,-1,1056,323,0,0
-161,701,0,0,0,0,0,0,0,0,0,-1,1063,323,0,0
-154,701,0,0,0,0,0,0,0,0,0,-1,1070,323,0,0
-147,701,0,0,0,0,0,0,0,0,0,-1,1077,323,0,0
-140,701,0,0,0,0,0,0,0,0,0,-1,1084,323,0,0
-133,701,0,0,0,0,0,0,0,0,0,-1,1091,323,0,0
-126,701,0,0,0,0,0,0,0,0,0,-1,1098,323,0,0
-119,701,0,0,0,0,0,0,0,0,0,-1,1105,323,0,0
-112,701,0,0,0,0,0,0,0,0,0,-1,1112,323,0,0
-105,701,0,0,0,0,0,0,0,0,0,-1,1119,323,0,0
-98,701,0,0,0,0,0,0,0,0,0,-1,1126,323,0,0
-91,701,0,0,0,0,0,0,0,0,0,-1,1133,323,0,0
-84,701,0,0,0,0,0,0,0,0,0,-1,1140,323,0,0
-77,701,0,0,0,0,0,0,0,0,0,-1,1147,323,0,0
-70,701,-12.7566,-30.413,0,0,0,0,0,0,0,-1,1154,323,-12.7566,30.413
-63,701,-18.3169,-21.2322,0,0,0,0,0,0,0,-1,1161,323,-18.3169,21.2322
-56,701,-0.420166,-0.101776,0,0,0,0,0,0,0,-1,1168,323,-0.420119,0.101777
-49,701,-1.09021,-0.155762,0,0,0,0,0,0,0,-1,1175,323,-1.09024,0.155768
-42,701,-0.210327,-0.299133,0,0,0,0,0,0,0,-1,1182,323,-0.210379,0.29914
-35,701,-2.9635,-7.98676,0,0,0,0,0,0,0,-1,1189,323,-2.9635,7.98676
-28,701,-6.64417,-5.4917,0,0,0,0,0,0,0,-1,1196,323,-6.64411,5.4917
-21,701,10.2748,-56.9558,0,0,0,0,0,0,0,-1,1203,323,10.2748,56.9558
-14,701,10.5543,-57.6659,0.0213707,0.0962353,-0.00299334,0.0963548,0.0212512,-1.5309,0.0584549,0.0481764,1210,323,10.5543,57.6659
-7,701,10.7275,-58.195,0.0110847,0.0961352,-6.24048e-05,0.0961352,0.0110846,-1.57006,0.0607334,0.0474985,1217,323,10.7275,58.195
0,701,10.723,-59.0058,0,0,0,0,0,0,0,-1,1224,323,10.723,59.0058
7,701,11.0809,-57.3047,0,0,0,0,0,0,0,-1,1231,323,11.081,57.3048
14,701,10.3799,-59.1102,0,0,0,0,0,0,0,-1,1238,323,10.3798,59.1102
21,701,11.4434,-59.5721,-0.0237621,0.107922,0.0148224,0.109569,-0.0254099,1.46008,0.0828258,0.0464058,1245,323,11.4434,59.5721
28,701,10.9069,-59.9034,-0.0250167,0.112963,0.0180537,0.115287,-0.0273398,1.44282,0.087408,0.0452088,1252,323,10.9069,59.9034
35,701,10.197,-59.6252,0,0,0,0,0,0,0,-1,1259,323,10.197,59.6252
42,701,9.65088,-61.0537,-0.0214267,0.119144,0.0239852,0.123124,-0.0254065,1.40636,0.0917317,0.0476209,1266,323,9.65093,61.0537
49,701,8.89221,-61.1788,-0.0159531,0.120548,0.0273568,0.125827,-0.0212317,1.38019,0.0917841,0.0487944,1273,323,8.89221,61.1788
56,701,8.0271,-61.0182,-0.00549555,0.118687,0.030087,0.125593,-0.012401,1.34519,0.0881535,0.0440658,1280,323,8.02716,61.0182
63,701,7.80115,-60.6511,0.00491767,0.116286,0.0322917,0.124972,-0.00376805,1.30804,0.0845984,0.0422485,1287,323,7.80116,60.6511
70,701,8.77173,-59.5532,0,0,0,0,0,0,0,-1,1294,323,8.77169,59.5532
77,701,8.95569,-59.5044,0,0,0,0,0,0,0,-1,1301,323,8.95573,59.5044
84,701,1.78052,-66.1365,0,0,0,0,0,0,0,-1,1308,323,1.78053,66.1365
91,701,1.66748,-65.4139,0.0489834,0.0795962,0.0386522,0.105862,0.0227172,0.973926,0.0643533,0.0437214,1315,323,1.66752,65.4139
98,701,1.78906,-64.7637,0.0547305,0.0695892,0.0395914,0.102442,0.0218774,0.878145,0.0622963,0.046376,1322,323,1.78906,64.7637
105,701,2.35608,-64.0697,0.0574611,0.0617364,0.0402305,0.099886,0.0193115,0.811941,0.061178,0.0474965,1329,323,2.35613,64.0697
112,701,2.69434,-63.4658,0.0578817,0.0557104,0.0406623,0.0974729,0.0161192,0.772051,0.060331,0.04195,1336,323,2.69434,63.4658
119,701,2.94739,-62.5141,0.0558782,0.053941,0.041002,0.095923,0.0138961,0.773589,0.0598567,0.0418761,1343,323,2.94738,62.5141
126,701,3.26941,-61.7516,0.0523407,0.0549694,0.0406698,0.094346,0.012964,0.801551,0.0590522,0.0483105,1350,323,3.26937,61.7516
133,701,3.55347,-61.0449,0.0486622,0.0594445,0.0399178,0.0943335,0.0137731,0.85252,0.0588378,0.0499284,1357,323,3.55344,61.0449
140,701,3.82654,-60.349,0,0,0,0,0,0,0,-1,1364,323,3.82651,60.349
147,701,2.64539,-57.7896,0,0,0,0,0,0,0,-1,1371,323,2.64541,57.7896
154,701,-3.18616,-59.7673,0,0,0,0,0,0,0,-1,1378,323,-3.18613,59.7673
161,701,-4.83057,-59.3711,0,0,0,0,0,0,0,-1,1385,323,-4.83061,59.3711
168,701,30.7272,1.76184,0,0,0,0,0,0,0,-1,1392,323,30.7272,-1.76184
175,701,31.5035,2.25711,0,0,0,0,0,0,0,-1,1399,323,31.5036,-2.25712
182,701,8.80652,5.42807,0,0,0,0,0,0,0,-1,1406,323,8.8065,-5.42808
189,701,8.58081,4.24493,0,0,0,0,0,0,0,-1,1413,323,8.58082,-4.24494
196,701,0,0,0,0,0,0,0,0,0,-1,1420,323,0,0
203,701,0,0,0,0,0,0,0,0,0,-1,1427,323,0,0
210,701,0,0,0,0,0,0,0,0,0,-1,1434,323,0,0
217,701,0,0,0,0,0,0,0,0,0,-1,1441,323,0,0
224,701,0,0,0,0,0,0,0,0,0,-1,1448,323,0,0
231,701,0,0,0,0,0,0,0,0,0,-1,1455,323,0,0
238,701,0,0,0,0,0,0,0,0,0,-1,1462,323,0,0
245,701,0,0,0,0,0,0,0,0,0,-1,1469,323,0,0
252,701,0,0,0,0,0,0,0,0,0,-1,1476,323,0,0
259,701,0,0,0,0,0,0,0,0,0,-1,1483,323,0,0
266,701,0,0,0,0,0,0,0,0,0,-1,1490,323,0,0
273,701,0,0,0,0,0,0,0,0,0,-1,1497,323,0,0
280,701,0,0,0,0,0,0,0,0,0,-1,1504,323,0,0
287,701,0,0,0,0,0,0,0,0,0,-1,1511,323,0,0
294,701,0,0,0,0,0,0,0,0,0,-1,1518,323,0,0
301,701,0,0,0,0,0,0,0,0,0,-1,1525,323,0,0
308,701,0,0,0,0,0,0,0,0,0,-1,1532,323,0,0
315,701,0,0,0,0,0,0,0,0,0,-1,1539,323,0,0
322,701,0,0,0,0,0,0,0,0,0,-1,1546,323,0,0
329,701,0,0,0,0,0,0,0,0,0,-1,1553,323,0,0
336,701,0,0,0,0,0,0,0,0,0,-1,1560,323,0,0
343,701,0,0,0,0,0,0,0,0,0,-1,1567,323,0,0
350,701,0,0,0,0,0,0,0,0,0,-1,1574,323,0,0
357,701,0,0,0,0,0,0,0,0,0,-1,1581,323,0,0
364,701,0,0,0,0,0,0,0,0,0,-1,1588,323,0,0
371,701,0,0,0,0,0,0,0,0,0,-1,1595,323,0,0
378,701,0,0,0,0,0,0,0,0,0,-1,1602,323,0,0
385,701,0,0,0,0,0,0,0,0,0,-1,1609,323,0,0
392,701,0,0,0,0,0,0,0,0,0,-1,1616,323,0,0
399,701,0,0,0,0,0,0,0,0,0,-1,1623,323,0,0
406,701,0,0,0,0,0,0,0,0,0,-1,1630,323,0,0
413,701,0,0,0,0,0,0,0,0,0,-1,1637,323,0,0
420,701,0,0,0,0,0,0,0,0,0,-1,1644,323,0,0
427,701,0,0,0,0,0,0,0,0,0,-1,1651,323,0,0
434,701,0,0,0,0,0,0,0,0,0,-1,1658,323,0,0
441,701,0,0,0,0,0,0,0,0,0,-1,1665,323,0,0
448,701,0,0,0,0,0,0,0,0,0,-1,1672,323,0,0
455,701,0,0,0,0,0,0,0,0,0,-1,1679,323,0,0
462,701,0,0,0,0,0,0,0,0,0,-1,1686,323,0,0
469,701,0,0,0,0,0,0,0,0,0,-1,1693,323,0,0
476,701,0,0,0,0,0,0,0,0,0,-1,1700,323,0,0
483,701,0,0,0,0,0,0,0,0,0,-1,1707,323,0,0
490,701,0,0,0,0,0,0,0,0,0,-1,1714,323,0,0
497,701,0,0,0,0,0,0,0,0,0,-1,1721,323,0,0
504,701,0,0,0,0,0,0,0,0,0,-1,1728,323,0,0
511,701,0,0,0,0,0,0,0,0,0,-1,1735,323,0,0
518,701,0,0,0,0,0,0,0,0,0,-1,1742,323,0,0
525,701,0,0,0,0,0,0,0,0,0,-1,1749,323,0,0
532,701,0,0,0,0,0,0,0,0,0,-1,1756,323,0,0
539,701,0,0,0,0,0,0,0,0,0,-1,1763,323,0,0
546,701,0,0,0,0,0,0,0,0,0,-1,1770,323,0,0
553,701,0,0,0,0,0,0,0,0,0,-1,1777,323,0,0
560,701,0,0,0,0,0,0,0,0,0,-1,1784,323,0,0
567,701,0,0,0,0,0,0,0,0,0,-1,1791,323,0,0
574,701,0,0,0,0,0,0,0,0,0,-1,1798,323,0,0
581,701,0,0,0,0,0,0,0,0,0,-1,1805,323,0,0
588,701,0,0,0,0,0,0,0,0,0,-1,1812,323,0,0
595,701,0,0,0,0,0,0,0,0,0,-1,1819,323,0,0
602,701,0,0,0,0,0,0,0,0,0,-1,1826,323,0,0
609,701,0,0,0,0,0,0,0,0,0,-1,1833,323,0,0
616,701,0,0,0,0,0,0,0,0,0,-1,1840,323,0,0
623,701,0,0,0,0,0,0,0,0,0,-1,1847,323,0,0
630,701,0,0,0,0,0,0,0,0,0,-1,1854,323,0,0
637,701,0,0,0,0,0,0,0,0,0,-1,1861,323,0,0
644,701,0,0,0,0,0,0,0,0,0,-1,1868,323,0,0
651,701,0,0,0,0,0,0,0,0,0,-1,1875,323,0,0
658,701,0,0,0,0,0,0,0,0,0,-1,1882,323,0,0
665,701,0,0,0,0,0,0,0,0,0,-1,1889,323,0,0
672,701,0,0,0,0,0,0,0,0,0,-1,1896,323,0,0
679,701,0,0,0,0,0,0,0,0,0,-1,1903,323,0,0
686,701,0,0,0,0,0,0,0,0,0,-1,1910,323,0,0
693,701,0,0,0,0,0,0,0,0,0,-1,1917,323,0,0
700,701,0,0,0,0,0,0,0,0,0,-1,1924,323,0,0
707,701,0,0,0,0,0,0,0,0,0,-1,1931,323,0,0
714,701,0,0,0,0,0,0,0,0,0,-1,1938,323,0,0
721,701,0,0,0,0,0,0,0,0,0,-1,1945,323,0,0
728,701,0,0,0,0,0,0,0,0,0,-1,1952,323,0,0
735,701,0,0,0,0,0,0,0,0,0,-1,1959,323,0,0
742,701,0,0,0,0,0,0,0,0,0,-1,1966,323,0,0
749,701,0,0,0,0,0,0,0,0,0,-1,1973,323,0,0
756,701,0,0,0,0,0,0,0,0,0,-1,1980,323,0,0
763,701,0,0,0,0,0,0,0,0,0,-1,1987,323,0,0
770,701,0,0,0,0,0,0,0,0,0,-1,1994,323,0,0
777,701,0,0,0,0,0,0,0,0,0,-1,2001,323,0,0
784,701,0,0,0,0,0,0,0,0,0,-1,2008,323,0,0
791,701,0,0,0,0,0,0,0,0,0,-1,2015,323,0,0
798,701,0,0,0,0,0,0,0,0,0,-1,2022,323,0,0
805,701,0,0,0,0,0,0,0,0,0,-1,2029,323,0,0
812,701,0,0,0,0,0,0,0,0,0,-1,2036,323,0,0
-700,694,0,0,0,0,0,0,0,0,0,-1,524,330,0,0
-693,694,0,0,0,0,0,0,0,0,0,-1,531,330,0,0
-686,694,0,0,0,0,0,0,0,0,0,-1,538,330,0,0
-679,694,0,0,0,0,0,0,0,0,0,-1,545,330,0,0
-672,694,0,0,0,0,0,0,0,0,0,-1,552,330,0,0
-665,694,0,0,0,0,0,0,0,0,0,-1,559,330,0,0
-658,694,0,0,0,0,0,0,0,0,0,-1,566,330,0,0
-651,694,0,0,0,0,0,0,0,0,0,-1,573,330,0,0
-644,694,0,0,0,0,0,0,0,0,0,-1,580,330,0,0
-637,694,0,0,0,0,0,0,0,0,0,-1,587,330,0,0
-630,694,0,0,0,0,0,0,0,0,0,-1,594,330,0,0
-623,694,0,0,0,0,0,0,0,0,0,-1,601,330,0,0
-616,694,0,0,0,0,0,0,0,0,0,-1,608,330,0,0
-609,694,0,0,0,0,0,0,0,0,0,-1,615,330,0,0
-602,694,0,0,0,0,0,0,0,0,0,-1,622,330,0,0
-595,694,0,0,0,0,0,0,0,0,0,-1,629,330,0,0
-588,694,0,0,0,0,0,0,0,0,0,-1,636,330,0,0
-581,694,0,0,0,0,0,0,0,0,0,-1,643,330,0,0
-574,694,0,0,0,0,0,0,0,0,0,-1,650,330,0,0
-567,694,0,0,0,0,0,0,0,0,0,-1,657,330,0,0
-560,694,0,0,0,0,0,0,0,0,0,-1,664,330,0,0
-553,694,0,0,0,0,0,0,0,0,0,-1,671,330,0,0
-546,694,0,0,0,0,0,0,0,0,0,-1,678,330,0,0
-539,694,0,0,0,0,0,0,0,0,0,-1,685,330,0,0
-532,694,0,0,0,0,0,0,0,0,0,-1,692,330,0,0
-525,694,0,0,0,0,0,0,0,0,0,-1,699,330,0,0
-518,694,0,0,0,0,0,0,0,0,0,-1,706,330,0,0
-511,694,0,0,0,0,0,0,0,0,0,-1,713,330,0,0
-504,694,0,0,0,0,0,0,0,0,0,-1,720,330,0,0
-497,694,0,0,0,0,0,0,0,0,0,-1,727,330,0,0
-490,694,0,0,0,0,0,0,0,0,0,-1,734,330,0,0
-483,694,0,0,0,0,0,0,0,0,0,-1,741,330,0,0
-476,694,0,0,0,0,0,0,0,0,0,-1,748,330,0,0
-469,694,0,0,0,0,0,0,0,0,0,-1,755,330,0,0
-462,694,0,0,0,0,0,0,0,0,0,-1,762,330,0,0
-455,694,0,0,0,0,0,0,0,0,0,-1,769,330,0,0
-448,694,0,0,0,0,0,0,0,0,0,-1,776,330,0,0
-441,694,0,0,0,0,0,0,0,0,0,-1,783,330,0,0
-434,694,0,0,0,0,0,0,0,0,0,-1,790,330,0,0
-427,694,0,0,0,0,0,0,0,0,0,-1,797,330,0,0
-420,694,0,0,0,0,0,0,0,0,0,-1,804,330,0,0
-413,694,0,0,0,0,0,0,0,0,0,-1,811,330,0,0
-406,694,0,0,0,0,0,0,0,0,0,-1,818,330,0,0
-399,694,0,0,0,0,0,0,0,0,0,-1,825,330,0,0
-392,694,0,0,0,0,0,0,0,0,0,-1,832,330,0,0
-385,694,0,0,0,0,0,0,0,0,0,-1,839,330,0,0
-378,694,0,0,0,0,0,0,0,0,0,-1,846,330,0,0
-371,694,0,0,0,0,0,0,0,0,0,-1,853,330,0,0
-364,694,0,0,0,0,0,0,0,0,0,-1,860,330,0,0
-357,694,0,0,0,0,0,0,0,0,0,-1,867,330,0,0
-350,694,0,0,0,0,0,0,0,0,0,-1,874,330,0,0
-343,694,0,0,0,0,0,0,0,0,0,-1,881,330,0,0
-336,694,0,0,0,0,0,0,0,0,0,-1,888,330,0,0
-329,694,0,0,0,0,0,0,0,0,0,-1,895,330,0,0
-322,694,0,0,0,0,0,0,0,0,0,-1,902,330,0,0
-315,694,0,0,0,0,0,0,0,0,0,-1,909,330,0,0
-308,694,0,0,0,0,0,0,0,0,0,-1,916,330,0,0
-301,694,0,0,0,0,0,0,0,0,0,-1,923,330,0,0
-294,694,0,0,0,0,0,0,0,0,0,-1,930,330,0,0
-287,694,0,0,0,0,0,0,0,0,0,-1,937,330,0,0
-280,694,0,0,0,0,0,0,0,0,0,-1,944,330,0,0
-273,694,0,0,0,0,0,0,0,0,0,-1,951,330,0,0
-266,694,0,0,0,0,0,0,0,0,0,-1,958,330,0,0
-259,694,0,0,0,0,0,0,0,0,0,-1,965,330,0,0
-252,694,0,0,0,0,0,0,0,0,0,-1,972,330,0,0
-245,694,0,0,0,0,0,0,0,0,0,-1,979,330,0,0
-238,694,0,0,0,0,0,0,0,0,0,-1,986,330,0,0
-231,694,0,0,0,0,0,0,0,0,0,-1,993,330,0,0
-224,694,0,0,0,0,0,0,0,0,0,-1,1000,330,0,0
-217,694,0,0,0,0,0,0,0,0,0,-1,1007,330,0,0
-210,694,0,0,0,0,0,0,0,0,0,-1,1014,330,0,0
-203,694,0,0,0,0,0,0,0,0,0,-1,1021,330,0,0
-196,694,0,0,0,0,0,0,0,0,0,-1,1028,330,0,0
-189,694,0,0,0,0,0,0,0,0,0,-1,1035,330,0,0
-182,694,0,0,0,0,0,0,0,0,0,-1,1042,330,0,0
-175,694,0,0,0,0,0,0,0,0,0,-1,1049,330,0,0
-168,694,0,0,0,0,0,0,0,0,0,-1,1056,330,0,0
-161,694,0,0,0,0,0,0,0,0,0,-1,1063,330,0,0
-154,694,0,0,0,0,0,0,0,0,0,-1,1070,330,0,0
-147,694,0,0,0,0,0,0,0,0,0,-1,1077,330,0,0
-140,694,0,0,0,0,0,0,0,0,0,-1,1084,330,0,0
-133,694,0,0,0,0,0,0,0,0,0,-1,1091,330,0,0
-126,694,0,0,0,0,0,0,0,0,0,-1,1098,330,0,0
-119,694,0,0,0,0,0,0,0,0,0,-1,1105,330,0,0
-112,694,0,0,0,0,0,0,0,0,0,-1,1112,330,0,0
-105,694,2.5188,-19.3963,0,0,0,0,0,0,0,-1,1119,330,2.51882,19.3963
-98,694,1.34875,-10.1051,0,0,0,0,0,0,0,-1,1126,330,1.34874,10.1051
-91,694,6.62366,-46.8039,0,0,0,0,0,0,0,-1,1133,330,6.62363,46.8039
-84,694,0.0577393,-40.8823,0,0,0,0,0,0,0,-1,1140,330,0.0577026,40.8823
-77,694,-5.51379,-31.2714,0,0,0,0,0,0,0,-1,1147,330,-5.51383,31.2714
-70,694,-11.9945,-25.5143,0,0,0,0,0,0,0,-1,1154,330,-11.9945,25.5143
-63,694,-18.4752,-19.7572,0,0,0,0,0,0,0,-1,1161,330,-18.4752,19.7572
-56,694,-6.50623,-0.649139,0,0,0,0,0,0,0,-1,1168,330,-6.5062,0.649126
-49,694,-1.11426,0.0341797,0,0,0,0,0,0,0,-1,1175,330,-1.11424,-0.0341846
-42,694,-0.346313,-0.709595,0,0,0,0,0,0,0,-1,1182,330,-0.346298,0.709581
-35,694,-0.459106,-1.24713,0,0,0,0,0,0,0,-1,1189,330,-0.459142,1.24714
-28,694,-6.48413,-3.95972,0,0,0,0,0,0,0,-1,1196,330,-6.48414,3.9597
-21,694,9.5083,-57.5916,0,0,0,0,0,0,0,-1,1203,330,9.50833,57.5916
-14,694,9.76221,-58.2986,0.0139373,0.0903007,-0.00414841,0.0905254,0.0137126,-1.51668,0.0563384,0.0478841,1210,330,9.76226,58.2986
-7,694,9.95288,-58.9374,0.006338,0.0910385,-0.00173783,0.0910742,0.00630236,-1.55029,0.0587282,0.046117,1217,330,9.95291,58.9374
0,694,10.2001,-59.6275,-0.00283768,0.0920038,0.00122084,0.0920195,-0.00285339,1.55793,0.0623193,0.0457039,1224,330,10.2001,59.6275
7,694,9.8269,-59.9048,0,0,0,0,0,0,0,-1,1231,330,9.82688,59.9048
14,694,9.84595,-60.1593,0,0,0,0,0,0,0,-1,1238,330,9.84591,60.1593
21,694,9.86499,-60.4139,0,0,0,0,0,0,0,-1,1245,330,9.86495,60.4139
28,694,10.2412,-60.3432,-0.0205569,0.103714,0.0143861,0.105358,-0.0222005,1.45704,0.0786895,0.0453667,1252,330,10.2412,60.3432
35,694,9.59448,-60.4439,0,0,0,0,0,0,0,-1,1259,330,9.59447,60.4439
42,694,8.94604,-60.5558,0,0,0,0,0,0,0,-1,1266,330,8.94606,60.5557
49,694,8.12207,-62.3266,0,0,0,0,0,0,0,-1,1273,330,8.12202,62.3266
56,694,7.65942,-62.8365,0,0,0,0,0,0,0,-1,1280,330,7.65948,62.8364
63,694,8.047,-60.6485,0,0,0,0,0,0,0,-1,1287,330,8.047,60.6485
70,694,8.80701,-60.5142,0.0169608,0.0963535,0.0285922,0.105579,0.0077356,1.25869,0.0679541,0.0450048,1294,330,8.80703,60.5142
77,694,9.1991,-60.5038,0.0274522,0.0900504,0.0305378,0.10248,0.0150227,1.18425,0.0639037,0.0456731,1301,330,9.19915,60.5039
84,694,9.68518,-60.5601,0.0365178,0.0817522,0.031789,0.0981488,0.0201211,1.09459,0.0598635,0.044957,1308,330,9.68523,60.5601
91,694,1.07605,-65.944,0,0,0,0,0,0,0,-1,1315,330,1.07608,65.944
98,694,1.37476,-65.3141,0.0465207,0.0636621,0.0337751,0.0899369,0.0202458,0.909654,0.0544781,0.0465743,1322,330,1.37478,65.3141
105,694,2.22815,-64.3872,0.0482641,0.0577864,0.0342342,0.0875889,0.0184616,0.854493,0.0533151,0.0440258,1329,330,2.2281,64.3872
112,694,2.77319,-63.8482,0.0484219,0.0531626,0.0344766,0.0853503,0.0162342,0.819721,0.0523349,0.0436214,1336,330,2.77318,63.8482
119,694,3.26746,-62.7639,0,0,0,0,0,0,0,-1,1343,330,3.26741,62.7639
126,694,3.99951,-62.028,0,0,0,0,0,0,0,-1,1350,330,3.9995,62.028
133,694,4.05457,-61.4005,0,0,0,0,0,0,0,-1,1357,330,4.05455,61.4005
140,694,4.10962,-60.773,0,0,0,0,0,0,0,-1,1364,330,4.10961,60.773
147,694,3.78748,-58.6999,0,0,0,0,0,0,0,-1,1371,330,3.78749,58.6999
154,694,4.50549,-58.4325,0,0,0,0,0,0,0,-1,1378,330,4.50555,58.4325
161,694,0.0187988,-38.6779,0,0,0,0,0,0,0,-1,1385,330,0.0187579,38.6779
168,694,30.451,0.196686,0,0,0,0,0,0,0,-1,1392,330,30.4511,-0.196674
175,694,31.0701,0.869873,0,0,0,0,0,0,0,-1,1399,330,31.07,-0.869874
182,694,8.29028,5.75238,0,0,0,0,0,0,0,-1,1406,330,8.29034,-5.75237
189,694,7.9801,4.46118,0,0,0,0,0,0,0,-1,1413,330,7.9801,-4.46118
196,694,7.39331,3.32632,0,0,0,0,0,0,0,-1,1420,330,7.39329,-3.32633
203,694,7.04492,2.20529,0,0,0,0,0,0,0,-1,1427,330,7.04496,-2.20529
210,694,6.44714,0.646912,0,0,0,0,0,0,0,-1,1434,330,6.44717,-0.646903
217,694,7.12061,-0.644958,0,0,0,0,0,0,0,-1,1441,330,7.12059,0.644961
224,694,6.74011,-1.70544,0,0,0,0,0,0,0,-1,1448,330,6.74013,1.70546
231,694,0,0,0,0,0,0,0,0,0,-1,1455,330,0,0
238,694,0,0,0,0,0,0,0,0,0,-1,1462,330,0,0
245,694,0,0,0,0,0,0,0,0,0,-1,1469,330,0,0
252,694,0,0,0,0,0,0,0,0,0,-1,1476,330,0,0
259,694,0,0,0,0,0,0,0,0,0,-1,1483,330,0,0
266,694,0,0,0,0,0,0,0,0,0,-1,1490,330,0,0
273,694,0,0,0,0,0,0,0,0,0,-1,1497,330,0,0
280,694,0,0,0,0,0,0,0,0,0,-1,1504,330,0,0
287,694,0,0,0,0,0,0,0,0,0,-1,1511,330,0,0
294,694,0,0,0,0,0,0,0,0,0,-1,1518,330,0,0
301,694,0,0,0,0,0,0,0,0,0,-1,1525,330,0,0
308,694,0,0,0,0,0,0,0,0,0,-1,1532,330,0,0
315,694,0,0,0,0,0,0,0,0,0,-1,1539,330,0,0
322,694,0,0,0,0,0,0,0,0,0,-1,1546,330,0,0
329,694,0,0,0,0,0,0,0,0,0,-1,1553,330,0,0
336,694,0,0,0,0,0,0,0,0,0,-1,1560,330,0,0
343,694,0,0,0,0,0,0,0,0,0,-1,1567,330,0,0
350,694,0,0,0,0,0,0,0,0,0,-1,1574,330,0,0
357,694,0,0,0,0,0,0,0,0,0,-1,1581,330,0,0
364,694,0,0,0,0,0,0,0,0,0,-1,1588,330,0,0
371,694,0,0,0,0,0,0,0,0,0,-1,1595,330,0,0
378,694,0,0,0,0,0,0,0,0,0,-1,1602,330,0,0
385,694,0,0,0,0,0,0,0,0,0,-1,1609,330,0,0
392,694,0,0,0,0,0,0,0,0,0,-1,1616,330,0,0
399,694,0,0,0,0,0,0,0,0,0,-1,1623,330,0,0
406,694,0,0,0,0,0,0,0,0,0,-1,1630,330,0,0
413,694,0,0,0,0,0,0,0,0,0,-1,1637,330,0,0
420,694,0,0,0,0,0,0,0,0,0,-1,1644,330,0,0
427,694,0,0,0,0,0,0,0,0,0,-1,1651,330,0,0
434,694,0,0,0,0,0,0,0,0,0,-1,1658,330,0,0
441,694,0,0,0,0,0,0,0,0,0,-1,1665,330,0,0
448,694,0,0,0,0,0,0,0,0,0,-1,1672,330,0,0
455,694,0,0,0,0,0,0,0,0,0,-1,1679,330,0,0
462,694,0,0,0,0,0,0,0,0,0,-1,1686,330,0,0
469,694,0,0,0,0,0,0,0,0,0,-1,1693,330,0,0
476,694,0,0,0,0,0,0,0,0,0,-1,1700,330,0,0
483,694,0,0,0,0,0,0,0,0,0,-1,1707,330,0,0
490,694,0,0,0,0,0,0,0,0,0,-1,1714,330,0,0
497,694,0,0,0,0,0,0,0,0,0,-1,1721,330,0,0
504,694,0,0,0,0,0,0,0,0,0,-1,1728,330,0,0
511,694,0,0,0,0,0,0,0,0,0,-1,1735,330,0,0
518,694,0,0,0,0,0,0,0,0,0,-1,1742,330,0,0
525,694,0,0,0,0,0,0,0,0,0,-1,1749,330,0,0
532,694,0,0,0,0,0,0,0,0,0,-1,1756,330,0,0
539,694,0,0,0,0,0,0,0,0,0,-1,1763,330,0,0
546,694,0,0,0,0,0,0,0,0,0,-1,1770,330,0,0
553,694,0,0,0,0,0,0,0,0,0,-1,1777,330,0,0
560,694,0,0,0,0,0,0,0,0,0,-1,1784,330,0,0
567,694,0,0,0,0,0,0,0,0,0,-1,1791,330,0,0
574,694,0,0,0,0,0,0,0,0,0,-1,1798,330,0,0
581,694,0,0,0,0,0,0,0,0,0,-1,1805,330,0,0
588,694,0,0,0,0,0,0,0,0,0,-1,1812,330,0,0
595,694,0,0,0,0,0,0,0,0,0,-1,1819,330,0,0
602,694,0,0,0,0,0,0,0,0,0,-1,1826,330,0,0
609,694,0,0,0,0,0,0,0,0,0,-1,1833,330,0,0
616,694,0,0,0,0,0,0,0,0,0,-1,1840,330,0,0
623,694,0,0,0,0,0,0,0,0,0,-1,1847,330,0,0
630,694,0,0,0,0,0,0,0,0,0,-1,1854,330,0,0
637,694,0,0,0,0,0,0,0,0,0,-1,1861,330,0,0
644,694,0,0,0,0,0,0,0,0,0,-1,1868,330,0,0
651,694,0,0,0,0,0,0,0,0,0,-1,1875,330,0,0
658,694,0,0,0,0,0,0,0,0,0,-1,1882,330,0,0
665,694,0,0,0,0,0,0,0,0,0,-1,1889,330,0,0
672,694,0,0,0,0,0,0,0,0,0,-1,1896,330,0,0
679,694,0,0,0,0,0,0,0,0,0,-1,1903,330,0,0
686,694,0,0,0,0,0,0,0,0,0,-1,1910,330,0,0
693,694,0,0,0,0,0,0,0,0,0,-1,1917,330,0,0
700,694,0,0,0,0,0,0,0,0,0,-1,1924,330,0,0
707,694,0,0,0,0,0,0,0,0,0,-1,1931,330,0,0
714,694,0,0,0,0,0,0,0,0,0,-1,1938,330,0,0
721,694,0,0,0,0,0,0,0,0,0,-1,1945,330,0,0
728,694,0,0,0,0,0,0,0,0,0,-1,1952,330,0,0
735,694,0,0,0,0,0,0,0,0,0,-1,1959,330,0,0
742,694,0,0,0,0,0,0,0,0,0,-1,1966,330,0,0
749,694,0,0,0,0,0,0,0,0,0,-1,1973,330,0,0
756,694,0,0,0,0,0,0,0,0,0,-1,1980,330,0,0
763,694,0,0,0,0,0,0,0,0,0,-1,1987,330,0,0
770,694,0,0,0,0,0,0,0,0,0,-1,1994,330,0,0
777,694,0,0,0,0,0,0,0,0,0,-1,2001,330,0,0
784,694,0,0,0,0,0,0,0,0,0,-1,2008,330,0,0
791,694,0,0,0,0,0,0,0,0,0,-1,2015,330,0,0
798,694,0,0,0,0,0,0,0,0,0,-1,2022,330,0,0
805,694,0,0,0,0,0,0,0,0,0,-1,2029,330,0,0
812,694,0,0,0,0,0,0,0,0,0,-1,2036,330,0,0
-700,687,0,0,0,0,0,0,0,0,0,-1,524,337,0,0
-693,687,0,0,0,0,0,0,0,0,0,-1,531,337,0,0
-686,687,0,0,0,0,0,0,0,0,0,-1,538,337,0,0
-679,687,0,0,0,0,0,0,0,0,0,-1,545,337,0,0
-672,687,0,0,0,0,0,0,0,0,0,-1,552,337,0,0
-665,687,0,0,0,0,0,0,0,0,0,-1,559,337,0,0
-658,687,0,0,0,0,0,0,0,0,0,-1,566,337,0,0
-651,687,0,0,0,0,0,0,0,0,0,-1,573,337,0,0
-644,687,0,0,0,0,0,0,0,0,0,-1,580,337,0,0
-637,687,0,0,0,0,0,0,0,0,0,-1,587,337,0,0
-630,687,0,0,0,0,0,0,0,0,0,-1,594,337,0,0
-623,687,0,0,0,0,0,0,0,0,0,-1,601,337,0,0
-616,687,0,0,0,0,0,0,0,0,0,-1,608,337,0,0
-609,687,0,0,0,0,0,0,0,0,0,-1,615,337,0,0
-602,687,0,0,0,0,0,0,0,0,0,-1,622,337,0,0
-595,687,0,0,0,0,0,0,0,0,0,-1,629,337,0,0
-588,687,0,0,0,0,0,0,0,0,0,-1,636,337,0,0
-581,687,0,0,0,0,0,0,0,0,0,-1,643,337,0,0
-574,687,0,0,0,0,0,0,0,0,0,-1,650,337,0,0
-567,687,0,0,0,0,0,0,0,0,0,-1,657,337,0,0
-560,687,0,0,0,0,0,0,0,0,0,-1,664,337,0,0
-553,687,0,0,0,0,0,0,0,0,0,-1,671,337,0,0
-546,687,0,0,0,0,0,0,0,0,0,-1,678,337,0,0
-539,687,0,0,0,0,0,0,0,0,0,-1,685,337,0,0
-532,687,0,0,0,0,0,0,0,0,0,-1,692,337,0,0
-525,687,0,0,0,0,0,0,0,0,0,-1,699,337,0,0
-518,687,0,0,0,0,0,0,0,0,0,-1,706,337,0,0
-511,687,0,0,0,0,0,0,0,0,0,-1,713,337,0,0
-504,687,0,0,0,0,0,0,0,0,0,-1,720,337,0,0
-497,687,0,0,0,0,0,0,0,0,0,-1,727,337,0,0
-490,687,0,0,0,0,0,0,0,0,0,-1,734,337,0,0
-483,687,0,0,0,0,0,0,0,0,0,-1,741,337,0,0
-476,687,0,0,0,0,0,0,0,0,0,-1,748,337,0,0
-469,687,0,0,0,0,0,0,0,0,0,-1,755,337,0,0
-462,687,0,0,0,0,0,0,0,0,0,-1,762,337,0,0
-455,687,0,0,0,0,0,0,0,0,0,-1,769,337,0,0
-448,687,0,0,0,0,0,0,0,0,0,-1,776,337,0,0
-441,687,0,0,0,0,0,0,0,0,0,-1,783,337,0,0
-434,687,0,0,0,0,0,0,0,0,0,-1,790,337,0,0
-427,687,0,0,0,0,0,0,0,0,0,-1,797,337,0,0
-420,687,0,0,0,0,0,0,0,0,0,-1,804,337,0,0
-413,687,0,0,0,0,0,0,0,0,0,-1,811,337,0,0
-406,687,0,0,0,0,0,0,0,0,0,-1,818,337,0,0
-399,687,0,0,0,0,0,0,0,0,0,-1,825,337,0,0
-392,687,0,0,0,0,0,0,0,0,0,-1,832,337,0,0
-385,687,0,0,0,0,0,0,0,0,0,-1,839,337,0,0
-378,687,0,0,0,0,0,0,0,0,0,-1,846,337,0,0
-371,687,0,0,0,0,0,0,0,0,0,-1,853,337,0,0
-364,687,0,0,0,0,0,0,0,0,0,-1,860,337,0,0
-357,687,0,0,0,0,0,0,0,0,0,-1,867,337,0,0
-350,687,0,0,0,0,0,0,0,0,0,-1,874,337,0,0
-343,687,0,0,0,0,0,0,0,0,0,-1,881,337,0,0
-336,687,0,0,0,0,0,0,0,0,0,-1,888,337,0,0
-329,687,0,0,0,0,0,0,0,0,0,-1,895,337,0,0
-322,687,0,0,0,0,0,0,0,0,0,-1,902,337,0,0
-315,687,0,0,0,0,0,0,0,0,0,-1,909,337,0,0
-308,687,0,0,0,0,0,0,0,0,0,-1,916,337,0,0
-301,687,0,0,0,0,0,0,0,0,0,-1,923,337,0,0
-294,687,0,0,0,0,0,0,0,0,0,-1,930,337,0,0
-287,687,0,0,0,0,0,0,0,0,0,-1,937,337,0,0
-280,687,0,0,0,0,0,0,0,0,0,-1,944,337,0,0
-273,687,0,0,0,0,0,0,0,0,0,-1,951,337,0,0
-266,687,0,0,0,0,0,0,0,0,0,-1,958,337,0,0
-259,687,0,0,0,0,0,0,0,0,0,-1,965,337,0,0
-252,687,0,0,0,0,0,0,0,0,0,-1,972,337,0,0
-245,687,0,0,0,0,0,0,0,0,0,-1,979,337,0,0
-238,687,0,0,0,0,0,0,0,0,0,-1,986,337,0,0
-231,687,0,0,0,0,0,0,0,0,0,-1,993,337,0,0
-224,687,0,0,0,0,0,0,0,0,0,-1,1000,337,0,0
-217,687,0,0,0,0,0,0,0,0,0,-1,1007,337,0,0
-210,687,0,0,0,0,0,0,0,0,0,-1,1014,337,0,0
-203,687,0,0,0,0,0,0,0,0,0,-1,1021,337,0,0
-196,687,0,0,0,0,0,0,0,0,0,-1,1028,337,0,0
-189,687,0,0,0,0,0,0,0,0,0,-1,1035,337,0,0
-182,687,0,0,0,0,0,0,0,0,0,-1,1042,337,0,0
-175,687,0,0,0,0,0,0,0,0,0,-1,1049,337,0,0
-168,687,0,0,0,0,0,0,0,0,0,-1,1056,337,0,0
-161,687,0,0,0,0,0,0,0,0,0,-1,1063,337,0,0
-154,687,0,0,0,0,0,0,0,0,0,-1,1070,337,0,0
-147,687,0,0,0,0,0,0,0,0,0,-1,1077,337,0,0
-140,687,0,0,0,0,0,0,0,0,0,-1,1084,337,0,0
-133,687,7.93958,-37.548,0,0,0,0,0,0,0,-1,1091,337,7.93957,37.548
-126,687,0.688477,-38.7298,0,0,0,0,0,0,0,-1,1098,337,0.688509,38.7298
-119,687,7.70825,-33.9236,0,0,0,0,0,0,0,-1,1105,337,7.70826,33.9236
-112,687,7.99866,-32.2983,0,0,0,0,0,0,0,-1,1112,337,7.99866,32.2983
-105,687,1.3208,-29.8313,0,0,0,0,0,0,0,-1,1119,337,1.3208,29.8313
-98,687,13.7111,-47.5645,0,0,0,0,0,0,0,-1,1126,337,13.711,47.5645
-91,687,7.22083,-41.1667,0,0,0,0,0,0,0,-1,1133,337,7.22079,41.1666
-84,687,0.745117,-35.0345,0,0,0,0,0,0,0,-1,1140,337,0.745155,35.0345
-77,687,-5.74353,-28.9553,0,0,0,0,0,0,0,-1,1147,337,-5.74357,28.9553
-70,687,-11.6842,-19.8473,0,0,0,0,0,0,0,-1,1154,337,-11.6842,19.8473
-63,687,-17.6757,-14.8966,0,0,0,0,0,0,0,-1,1161,337,-17.6756,14.8966
-56,687,-18.104,7.81931,0,0,0,0,0,0,0,-1,1168,337,-18.104,-7.81931
-49,687,-15.6449,-9.94391,0,0,0,0,0,0,0,-1,1175,337,-15.6449,9.94392
-42,687,-4.2019,-0.405609,0,0,0,0,0,0,0,-1,1182,337,-4.20192,0.405614
-35,687,-4.42273,-0.688171,0,0,0,0,0,0,0,-1,1189,337,-4.42276,0.688178
-28,687,-1.14038,-1.39072,0,0,0,0,0,0,0,-1,1196,337,-1.14035,1.3907
-21,687,8.48987,-61.9765,0,0,0,0,0,0,0,-1,1203,337,8.48983,61.9765
-14,687,8.27429,-61.3595,0,0,0,0,0,0,0,-1,1210,337,8.27432,61.3595
-7,687,8.32739,-61.9041,0,0,0,0,0,0,0,-1,1217,337,8.32739,61.9041
0,687,9.73584,-60.5809,-0.004168,0.0834346,-0.000327992,0.0834359,-0.00416923,-1.56705,0.0570644,0.0495162,1224,337,9.73584,60.5809
7,687,9.63953,-61.218,-0.0110821,0.0854013,0.00247383,0.0854647,-0.0111455,1.54518,0.0610318,0.0476922,1231,337,9.63955,61.2181
14,687,9.38635,-61.2017,-0.0150883,0.0873461,0.00558163,0.0876493,-0.0153915,1.51652,0.0641815,0.0446228,1238,337,9.38629,61.2017
21,687,9.45154,-61.3409,0,0,0,0,0,0,0,-1,1245,337,9.45157,61.3409
28,687,9.54688,-61.4764,0,0,0,0,0,0,0,-1,1252,337,9.54683,61.4764
35,687,9.56775,-61.6218,0,0,0,0,0,0,0,-1,1259,337,9.56771,61.6218
42,687,7.29333,-63.6089,0,0,0,0,0,0,0,-1,1266,337,7.29334,63.6089
49,687,7.73218,-63.3783,0,0,0,0,0,0,0,-1,1273,337,7.73221,63.3783
56,687,7.86438,-63.2101,0,0,0,0,0,0,0,-1,1280,337,7.86435,63.2102
63,687,8.05481,-61.663,0.00641647,0.0899552,0.0223957,0.0955804,0.00079124,1.32471,0.0634582,0.0445448,1287,337,8.05479,61.663
70,687,8.74878,-61.3746,0.0149797,0.084062,0.0237048,0.0914137,0.00762805,1.27007,0.0585656,0.0422126,1294,337,8.74883,61.3746
77,687,9.26929,-61.17,0.0234344,0.0786798,0.0254424,0.0886114,0.0135027,1.19863,0.0551274,0.0444996,1301,337,9.26935,61.17
84,687,9.66772,-60.6528,0.030643,0.0716785,0.0265741,0.0847339,0.0175875,1.11414,0.0516351,0.0475199,1308,337,9.66769,60.6528
91,687,10.5126,-60.4533,0.035106,0.0634312,0.0276152,0.0803036,0.0182335,1.02234,0.0486115,0.0456495,1315,337,10.5126,60.4533
98,687,0.998413,-65.8437,0,0,0,0,0,0,0,-1,1322,337,0.9984,65.8437
105,687,2.87122,-64.81,0,0,0,0,0,0,0,-1,1329,337,2.87122,64.81
112,687,3.21436,-64.2246,0.0391436,0.0493034,0.0286854,0.0733553,0.0150918,0.873034,0.0447298,0.0468489,1336,337,3.2144,64.2246
119,687,3.2395,-63.5856,0,0,0,0,0,0,0,-1,1343,337,3.2395,63.5856
126,687,4.63672,-62.8865,0,0,0,0,0,0,0,-1,1350,337,4.63669,62.8865
133,687,4.65454,-62.2407,0,0,0,0,0,0,0,-1,1357,337,4.65456,62.2407
140,687,4.72937,-61.6392,0,0,0,0,0,0,0,-1,1364,337,4.72936,61.6391
147,687,4.70313,-61.0415,0,0,0,0,0,0,0,-1,1371,337,4.70316,61.0415
154,687,5.12952,-60.4371,0,0,0,0,0,0,0,-1,1378,337,5.12953,60.4371
161,687,29.3895,-1.90628,0,0,0,0,0,0,0,-1,1385,337,29.3895,1.90628
168,687,29.8564,-1.19434,0,0,0,0,0,0,0,-1,1392,337,29.8564,1.19434
175,687,30.3419,-0.453583,0,0,0,0,0,0,0,-1,1399,337,30.3419,0.45357
182,687,6.67249,0.289917,0,0,0,0,0,0,0,-1,1406,337,6.67247,-0.289916
189,687,7.76062,4.53635,0,0,0,0,0,0,0,-1,1413,337,7.76064,-4.53636
196,687,6.99048,3.2966,0,0,0,0,0,0,0,-1,1420,337,6.99046,-3.2966
203,687,6.36499,2.1445,0,0,0,0,0,0,0,-1,1427,337,6.36499,-2.14451
210,687,6.68066,0.674652,0,0,0,0,0,0,0,-1,1434,337,6.68062,-0.674655
217,687,5.99683,-0.630493,0,0,0,0,0,0,0,-1,1441,337,5.99684,0.630497
224,687,5.52917,0.524902,0,0,0,0,0,0,0,-1,1448,337,5.5292,-0.524915
231,687,5.85583,-1.73651,0,0,0,0,0,0,0,-1,1455,337,5.85577,1.73651
238,687,5.96582,-2.96774,0,0,0,0,0,0,0,-1,1462,337,5.96577,2.96773
245,687,1.28259,2.32211,0,0,0,0,0,0,0,-1,1469,337,1.28258,-2.32211
252,687,1.97278,3.88422,0,0,0,0,0,0,0,-1,1476,337,1.97281,-3.88421
259,687,0,0,0,0,0,0,0,0,0,-1,1483,337,0,0
266,687,0,0,0,0,0,0,0,0,0,-1,1490,337,0,0
273,687,0,0,0,0,0,0,0,0,0,-1,1497,337,0,0
280,687,0,0,0,0,0,0,0,0,0,-1,1504,337,0,0
287,687,0,0,0,0,0,0,0,0,0,-1,1511,337,0,0
294,687,0,0,0,0,0,0,0,0,0,-1,1518,337,0,0
301,687,0,0,0,0,0,0,0,0,0,-1,1525,337,0,0
308,687,0,0,0,0,0,0,0,0,0,-1,1532,337,0,0
315,687,0,0,0,0,0,0,0,0,0,-1,1539,337,0,0
322,687,0,0,0,0,0,0,0,0,0,-1,1546,337,0,0
329,687,0,0,0,0,0,0,0,0,0,-1,1553,337,0,0
336,687,0,0,0,0,0,0,0,0,0,-1,1560,337,0,0
343,687,0,0,0,0,0,0,0,0,0,-1,1567,337,0,0
350,687,0,0,0,0,0,0,0,0,0,-1,1574,337,0,0
357,687,0,0,0,0,0,0,0,0,0,-1,1581,337,0,0
364,687,0,0,0,0,0,0,0,0,0,-1,1588,337,0,0
371,687,0,0,0,0,0,0,0,0,0,-1,1595,337,0,0
378,687,0,0,0,0,0,0,0,0,0,-1,1602,337,0,0
385,687,0,0,0,0,0,0,0,0,0,-1,1609,337,0,0
392,687,0,0,0,0,0,0,0,0,0,-1,1616,337,0,0
399,687,0,0,0,0,0,0,0,0,0,-1,1623,337,0,0
406,687,0,0,0,0,0,0,0,0,0,-1,1630,337,0,0
413,687,0,0,0,0,0,0,0,0,0,-1,1637,337,0,0
420,687,0,0,0,0,0,0,0,0,0,-1,1644,337,0,0
427,687,0,0,0,0,0,0,0,0,0,-1,1651,337,0,0
434,687,0,0,0,0,0,0,0,0,0,-1,1658,337,0,0
441,687,0,0,0,0,0,0,0,0,0,-1,1665,337,0,0
448,687,0,0,0,0,0,0,0,0,0,-1,1672,337,0,0
455,687,0,0,0,0,0,0,0,0,0,-1,1679,337,0,0
462,687,0,0,0,0,0,0,0,0,0,-1,1686,337,0,0
469,687,0,0,0,0,0,0,0,0,0,-1,1693,337,0,0
476,687,0,0,0,0,0,0,0,0,0,-1,1700,337,0,0
483,687,0,0,0,0,0,0,0,0,0,-1,1707,337,0,0
490,687,0,0,0,0,0,0,0,0,0,-1,1714,337,0,0
497,687,0,0,0,0,0,0,0,0,0,-1,1721,337,0,0
504,687,0,0,0,0,0,0,0,0,0,-1,1728,337,0,0
511,687,0,0,0,0,0,0,0,0,0,-1,1735,337,0,0
518,687,0,0,0,0,0,0,0,0,0,-1,1742,337,0,0
525,687,0,0,0,0,0,0,0,0,0,-1,1749,337,0,0
532,687,0,0,0,0,0,0,0,0,0,-1,1756,337,0,0
539,687,0,0,0,0,0,0,0,0,0,-1,1763,337,0,0
546,687,0,0,0,0,0,0,0,0,0,-1,1770,337,0,0
553,687,0,0,0,0,0,0,0,0,0,-1,1777,337,0,0
560,687,0,0,0,0,0,0,0,0,0,-1,1784,337,0,0
567,687,0,0,0,0,0,0,0,0,0,-1,1791,337,0,0
574,687,0,0,0,0,0,0,0,0,0,-1,1798,337,0,0
581,687,0,0,0,0,0,0,0,0,0,-1,1805,337,0,0
588,687,0,0,0,0,0,0,0,0,0,-1,1812,337,0,0
595,687,0,0,0,0,0,0,0,0,0,-1,1819,337,0,0
602,687,0,0,0,0,0,0,0,0,0,-1,1826,337,0,0
609,687,0,0,0,0,0,0,0,0,0,-1,1833,337,0,0
616,687,0,0,0,0,0,0,0,0,0,-1,1840,337,0,0
623,687,0,0,0,0,0,0,0,0,0,-1,1847,337,0,0
630,687,0,0,0,0,0,0,0,0,0,-1,1854,337,0,0
637,687,0,0,0,0,0,0,0,0,0,-1,1861,337,0,0
644,687,0,0,0,0,0,0,0,0,0,-1,1868,337,0,0
651,687,0,0,0,0,0,0,0,0,0,-1,1875,337,0,0
658,687,0,0,0,0,0,0,0,0,0,-1,1882,337,0,0
665,687,0,0,0,0,0,0,0,0,0,-1,1889,337,0,0
672,687,0,0,0,0,0,0,0,0,0,-1,1896,337,0,0
679,687,0,0,0,0,0,0,0,0,0,-1,1903,337,0,0
686,687,0,0,0,0,0,0,0,0,0,-1,1910,337,0,0
693,687,0,0,0,0,0,0,0,0,0,-1,1917,337,0,0
700,687,0,0,0,0,0,0,0,0,0,-1,1924,337,0,0
707,687,0,0,0,0,0,0,0,0,0,-1,1931,337,0,0
714,687,0,0,0,0,0,0,0,0,0,-1,1938,337,0,0
721,687,0,0,0,0,0,0,0,0,0,-1,1945,337,0,0
728,687,0,0,0,0,0,0,0,0,0,-1,1952,337,0,0
735,687,0,0,0,0,0,0,0,0,0,-1,1959,337,0,0
742,687,0,0,0,0,0,0,0,0,0,-1,1966,337,0,0
749,687,0,0,0,0,0,0,0,0,0,-1,1973,337,0,0
756,687,0,0,0,0,0,0,0,0,0,-1,1980,337,0,0
763,687,0,0,0,0,0,0,0,0,0,-1,1987,337,0,0
770,687,0,0,0,0,0,0,0,0,0,-1,1994,337,0,0
777,687,0,0,0,0,0,0,0,0,0,-1,2001,337,0,0
784,687,0,0,0,0,0,0,0,0,0,-1,2008,337,0,0
791,687,0,0,0,0,0,0,0,0,0,-1,2015,337,0,0
798,687,0,0,0,0,0,0,0,0,0,-1,2022,337,0,0
805,687,0,0,0,0,0,0,0,0,0,-1,2029,337,0,0
812,687,0,0,0,0,0,0,0,0,0,-1,2036,337,0,0
-700,680,0,0,0,0,0,0,0,0,0,-1,524,344,0,0
-693,680,0,0,0,0,0,0,0,0,0,-1,531,344,0,0
-686,680,0,0,0,0,0,0,0,0,0,-1,538,344,0,0
-679,680,0,0,0,0,0,0,0,0,0,-1,545,344,0,0
-672,680,0,0,0,0,0,0,0,0,0,-1,552,344,0,0
-665,680,0,0,0,0,0,0,0,0,0,-1,559,344,0,0
-658,680,0,0,0,0,0,0,0,0,0,-1,566,344,0,0
-651,680,0,0,0,0,0,0,0,0,0,-1,573,344,0,0
-644,680,0,0,0,0,0,0,0,0,0,-1,580,344,0,0
-637,680,0,0,0,0,0,0,0,0,0,-1,587,344,0,0
-630,680,0,0,0,0,0,0,0,0,0,-1,594,344,0,0
-623,680,0,0,0,0,0,0,0,0,0,-1,601,344,0,0
-616,680,0,0,0,0,0,0,0,0,0,-1,608,344,0,0
-609,680,0,0,0,0,0,0,0,0,0,-1,615,344,0,0
-602,680,0,0,0,0,0,0,0,0,0,-1,622,344,0,0
-595,680,0,0,0,0,0,0,0,0,0,-1,629,344,0,0
-588,680,0,0,0,0,0,0,0,0,0,-1,636,344,0,0
-581,680,0,0,0,0,0,0,0,0,0,-1,643,344,0,0
-574,680,0,0,0,0,0,0,0,0,0,-1,650,344,0,0
-567,680,0,0,0,0,0,0,0,0,0,-1,657,344,0,0
-560,680,0,0,0,0,0,0,0,0,0,-1,664,344,0,0
-553,680,0,0,0,0,0,0,0,0,0,-1,671,344,0,0
-546,680,0,0,0,0,0,0,0,0,0,-1,678,344,0,0
-539,680,0,0,0,0,0,0,0,0,0,-1,685,344,0,0
-532,680,0,0,0,0,0,0,0,0,0,-1,692,344,0,0
-525,680,0,0,0,0,0,0,0,0,0,-1,699,344,0,0
-518,680,0,0,0,0,0,0,0,0,0,-1,706,344,0,0
-511,680,0,0,0,0,0,0,0,0,0,-1,713,344,0,0
-504,680,0,0,0,0,0,0,0,0,0,-1,720,344,0,0
-497,680,0,0,0,0,0,0,0,0,0,-1,727,344,0,0
-490,680,0,0,0,0,0,0,0,0,0,-1,734,344,0,0
-483,680,0,0,0,0,0,0,0,0,0,-1,741,344,0,0
-476,680,0,0,0,0,0,0,0,0,0,-1,748,344,0,0
-469,680,0,0,0,0,0,0,0,0,0,-1,755,344,0,0
-462,680,0,0,0,0,0,0,0,0,0,-1,762,344,0,0
-455,680,0,0,0,0,0,0,0,0,0,-1,769,344,0,0
-448,680,0,0,0,0,0,0,0,0,0,-1,776,344,0,0
-441,680,0,0,0,0,0,0,0,0,0,-1,783,344,0,0
-434,680,0,0,0,0,0,0,0,0,0,-1,790,344,0,0
-427,680,0,0,0,0,0,0,0,0,0,-1,797,344,0,0
-420,680,0,0,0,0,0,0,0,0,0,-1,804,344,0,0
-413,680,0,0,0,0,0,0,0,0,0,-1,811,344,0,0
-406,680,0,0,0,0,0,0,0,0,0,-1,818,344,0,0
-399,680,0,0,0,0,0,0,0,0,0,-1,825,344,0,0
-392,680,0,0,0,0,0,0,0,0,0,-1,832,344,0,0
-385,680,0,0,0,0,0,0,0,0,0,-1,839,344,0,0
-378,680,0,0,0,0,0,0,0,0,0,-1,846,344,0,0
-371,680,0,0,0,0,0,0,0,0,0,-1,853,344,0,0
-364,680,0,0,0,0,0,0,0,0,0,-1,860,344,0,0
-357,680,0,0,0,0,0,0,0,0,0,-1,867,344,0,0
-350,680,0,0,0,0,0,0,0,0,0,-1,874,344,0,0
-343,680,0,0,0,0,0,0,0,0,0,-1,881,344,0,0
-336,680,0,0,0,0,0,0,0,0,0,-1,888,344,0,0
-329,680,0,0,0,0,0,0,0,0,0,-1,895,344,0,0
-322,680,0,0,0,0,0,0,0,0,0,-1,902,344,0,0
-315,680,0,0,0,0,0,0,0,0,0,-1,909,344,0,0
-308,680,0,0,0,0,0,0,0,0,0,-1,916,344,0,0
-301,680,0,0,0,0,0,0,0,0,0,-1,923,344,0,0
-294,680,0,0,0,0,0,0,0,0,0,-1,930,344,0,0
-287,680,0,0,0,0,0,0,0,0,0,-1,937,344,0,0
-280,680,0,0,0,0,0,0,0,0,0,-1,944,344,0,0
-273,680,0,0,0,0,0,0,0,0,0,-1,951,344,0,0
-266,680,0,0,0,0,0,0,0,0,0,-1,958,344,0,0
-259,680,0,0,0,0,0,0,0,0,0,-1,965,344,0,0
-252,680,0,0,0,0,0,0,0,0,0,-1,972,344,0,0
-245,680,0,0,0,0,0,0,0,0,0,-1,979,344,0,0
-238,680,0,0,0,0,0,0,0,0,0,-1,986,344,0,0
-231,680,0,0,0,0,0,0,0,0,0,-1,993,344,0,0
-224,680,0,0,0,0,0,0,0,0,0,-1,1000,344,0,0
-217,680,0,0,0,0,0,0,0,0,0,-1,1007,344,0,0
-210,680,0,0,0,0,0,0,0,0,0,-1,1014,344,0,0
-203,680,0,0,0,0,0,0,0,0,0,-1,1021,344,0,0
-196,680,0,0,0,0,0,0,0,0,0,-1,1028,344,0,0
-189,680,0,0,0,0,0,0,0,0,0,-1,1035,344,0,0
-182,680,0,0,0,0,0,0,0,0,0,-1,1042,344,0,0
-175,680,0,0,0,0,0,0,0,0,0,-1,1049,344,0,0
-168,680,0,0,0,0,0,0,0,0,0,-1,1056,344,0,0
-161,680,0,0,0,0,0,0,0,0,0,-1,1063,344,0,0
-154,680,2.25244,-29.1442,0,0,0,0,0,0,0,-1,1070,344,2.25241,29.1442
-147,680,9.29614,-33.0369,0,0,0,0,0,0,0,-1,1077,344,9.29612,33.0369
-140,680,6.98022,-36.6899,0,0,0,0,0,0,0,-1,1084,344,6.98023,36.6899
-133,680,1.85693,-39.7233,0,0,0,0,0,0,0,-1,1091,344,1.85699,39.7233
-126,680,2.30017,-38.3751,0,0,0,0,0,0,0,-1,1098,344,2.30011,38.3751
-119,680,2.74329,-37.0269,0,0,0,0,0,0,0,-1,1105,344,2.74323,37.0269
-112,680,7.7467,-32.4407,0,0,0,0,0,0,0,-1,1112,344,7.74668,32.4407
-105,680,20.6371,-48.461,0,0,0,0,0,0,0,-1,1119,344,20.6371,48.461
-98,680,14.2684,-41.9997,0,0,0,0,0,0,0,-1,1126,344,14.2685,41.9997
-91,680,7.89648,-35.5147,0,0,0,0,0,0,0,-1,1133,344,7.8965,35.5147
-84,680,1.47168,-29.471,0,0,0,0,0,0,0,-1,1140,344,1.47163,29.471
-77,680,-4.95337,-23.3355,0,0,0,0,0,0,0,-1,1147,344,-4.9534,23.3356
-70,680,-11.5099,-17.4337,0,0,0,0,0,0,0,-1,1154,344,-11.5098,17.4338
-63,680,-17.2391,-1.43134,0,0,0,0,0,0,0,-1,1161,344,-17.2392,1.43133
-56,680,-6.96912,-8.83356,0,0,0,0,0,0,0,-1,1168,344,-6.96907,8.83354
-49,680,-6.7677,-2.24063,0,0,0,0,0,0,0,-1,1175,344,-6.76772,2.24063
-42,680,-1.02368,0.618805,0,0,0,0,0,0,0,-1,1182,344,-1.0237,-0.618797
-35,680,-0.947876,-0.942719,0,0,0,0,0,0,0,-1,1189,344,-0.947842,0.942731
-28,680,-1.46118,-1.10574,0,0,0,0,0,0,0,-1,1196,344,-1.4612,1.10575
-21,680,8.38293,-61.2525,0,0,0,0,0,0,0,-1,1203,344,8.38299,61.2525
-14,680,8.41504,-61.7769,0.00365441,0.0711606,-0.00501172,0.0715307,0.00328436,-1.49709,0.0466309,0.0473355,1210,344,8.41502,61.7769
-7,680,8.47681,-62.3378,-0.000313236,0.0720701,-0.00337644,0.0722273,-0.000470396,-1.52428,0.0483091,0.0485363,1217,344,8.47679,62.3378
0,680,8.48865,-62.8599,0,0,0,0,0,0,0,-1,1224,344,8.48859,62.8599
7,680,8.91907,-62.0836,-0.00986155,0.0742833,0.000915572,0.0742932,-0.00987151,1.55992,0.0531259,0.0487591,1231,344,8.91902,62.0836
14,680,8.87292,-62.2834,-0.0126236,0.0758673,0.00355862,0.0760102,-0.0127664,1.53067,0.0554213,0.0428236,1238,344,8.87291,62.2834
21,680,9.06775,-62.2715,0,0,0,0,0,0,0,-1,1245,344,9.06771,62.2715
28,680,8.65027,-63.2792,0,0,0,0,0,0,0,-1,1252,344,8.65025,63.2792
35,680,7.84192,-63.5739,0,0,0,0,0,0,0,-1,1259,344,7.84187,63.5739
42,680,7.71216,-63.7657,-0.00984916,0.0805672,0.012389,0.082234,-0.011516,1.43706,0.059037,0.0444535,1266,344,7.71221,63.7658
49,680,7.75745,-63.7679,-0.00621375,0.0805718,0.0148378,0.0830385,-0.00868046,1.40606,0.0584677,0.0426173,1273,344,7.75741,63.7679
56,680,7.80078,-63.637,-0.000403608,0.0789261,0.0166302,0.0822713,-0.00374881,1.37229,0.0561389,0.039706,1280,344,7.80072,63.637
63,680,7.88147,-62.9199,0.00568745,0.0765926,0.0179673,0.0808856,0.00139449,1.33626,0.053465,0.0416571,1287,344,7.88152,62.9199
70,680,7.9386,-62.876,0,0,0,0,0,0,0,-1,1294,344,7.93854,62.876
77,680,7.96899,-62.6648,0,0,0,0,0,0,0,-1,1301,344,7.96901,62.6648
84,680,7.81213,-62.6836,0,0,0,0,0,0,0,-1,1308,344,7.81212,62.6836
91,680,10.4275,-60.2826,0.027729,0.0554358,0.022546,0.0680444,0.0151203,1.06089,0.041257,0.0468026,1315,344,10.4275,60.2826
98,680,11.3035,-60.1609,0,0,0,0,0,0,0,-1,1322,344,11.3034,60.1609
105,680,3.33484,-65.1942,0,0,0,0,0,0,0,-1,1329,344,3.33488,65.1942
112,680,3.37073,-64.364,0,0,0,0,0,0,0,-1,1336,344,3.37071,64.364
119,680,3.67908,-63.7809,0,0,0,0,0,0,0,-1,1343,344,3.67902,63.7809
126,680,5.15747,-63.6999,0,0,0,0,0,0,0,-1,1350,344,5.15746,63.6999
133,680,5.14856,-63.0459,0,0,0,0,0,0,0,-1,1357,344,5.14857,63.0459
140,680,5.14331,-62.2966,0,0,0,0,0,0,0,-1,1364,344,5.14329,62.2966
147,680,5.13098,-61.6405,0.0172087,0.0510954,0.0209417,0.0610896,0.00721447,1.12552,0.0385473,0.0447617,1371,344,5.13094,61.6405
154,680,5.16455,-61.0052,0.0138732,0.0541479,0.0192621,0.061877,0.00614407,1.1892,0.0393635,0.0490214,1378,344,5.16456,61.0052
161,680,5.30676,-60.3476,0,0,0,0,0,0,0,-1,1385,344,5.30681,60.3476
168,680,29.4142,-2.51651,0,0,0,0,0,0,0,-1,1392,344,29.4142,2.51652
175,680,6.66541,0.942078,0,0,0,0,0,0,0,-1,1399,344,6.66538,-0.942088
182,680,6.52917,0.532379,0,0,0,0,0,0,0,-1,1406,344,6.52922,-0.532385
189,680,7.55884,4.77695,0,0,0,0,0,0,0,-1,1413,344,7.55886,-4.77694
196,680,6.55627,3.35254,0,0,0,0,0,0,0,-1,1420,344,6.55622,-3.35255
203,680,5.7334,1.90753,0,0,0,0,0,0,0,-1,1427,344,5.73341,-1.90754
210,680,5.27515,0.493622,0,0,0,0,0,0,0,-1,1434,344,5.27514,-0.493632
217,680,6.56384,-0.374176,0,0,0,0,0,0,0,-1,1441,344,6.56379,0.374176
224,680,3.9491,-0.640228,0,0,0,0,0,0,0,-1,1448,344,3.94908,0.64024
231,680,4.24866,-1.96881,0,0,0,0,0,0,0,-1,1455,344,4.2486,1.96882
238,680,4.29333,-3.23984,0,0,0,0,0,0,0,-1,1462,344,4.29332,3.23984
245,680,2.44397,0.985382,0,0,0,0,0,0,0,-1,1469,344,2.44402,-0.985394
252,680,3.07349,2.18951,0,0,0,0,0,0,0,-1,1476,344,3.0735,-2.18952
259,680,2.82971,1.30682,0,0,0,0,0,0,0,-1,1483,344,2.82972,-1.30684
266,680,2.67554,1.44067,0,0,0,0,0,0,0,-1,1490,344,2.67551,-1.44066
273,680,2.46411,1.54666,0,0,0,0,0,0,0,-1,1497,344,2.46407,-1.54666
280,680,0,0,0,0,0,0,0,0,0,-1,1504,344,0,0
287,680,0,0,0,0,0,0,0,0,0,-1,1511,344,0,0
294,680,0,0,0,0,0,0,0,0,0,-1,1518,344,0,0
301,680,0,0,0,0,0,0,0,0,0,-1,1525,344,0,0
308,680,0,0,0,0,0,0,0,0,0,-1,1532,344,0,0
315,680,0,0,0,0,0,0,0,0,0,-1,1539,344,0,0
322,680,0,0,0,0,0,0,0,0,0,-1,1546,344,0,0
329,680,0,0,0,0,0,0,0,0,0,-1,1553,344,0,0
336,680,0,0,0,0,0,0,0,0,0,-1,1560,344,0,0
343,680,0,0,0,0,0,0,0,0,0,-1,1567,344,0,0
350,680,0,0,0,0,0,0,0,0,0,-1,1574,344,0,0
357,680,0,0,0,0,0,0,0,0,0,-1,1581,344,0,0
364,680,0,0,0,0,0,0,0,0,0,-1,1588,344,0,0
371,680,0,0,0,0,0,0,0,0,0,-1,1595,344,0,0
378,680,0,0,0,0,0,0,0,0,0,-1,1602,344,0,0
385,680,0,0,0,0,0,0,0,0,0,-1,1609,344,0,0
392,680,0,0,0,0,0,0,0,0,0,-1,1616,344,0,0
399,680,0,0,0,0,0,0,0,0,0,-1,1623,344,0,0
406,680,0,0,0,0,0,0,0,0,0,-1,1630,344,0,0
413,680,0,0,0,0,0,0,0,0,0,-1,1637,344,0,0
420,680,0,0,0,0,0,0,0,0,0,-1,1644,344,0,0
427,680,0,0,0,0,0,0,0,0,0,-1,1651,344,0,0
434,680,0,0,0,0,0,0,0,0,0,-1,1658,344,0,0
441,680,0,0,0,0,0,0,0,0,0,-1,1665,344,0,0
448,680,0,0,0,0,0,0,0,0,0,-1,1672,344,0,0
455,680,0,0,0,0,0,0,0,0,0,-1,1679,344,0,0
462,680,0,0,0,0,0,0,0,0,0,-1,1686,344,0,0
469,680,0,0,0,0,0,0,0,0,0,-1,1693,344,0,0
476,680,0,0,0,0,0,0,0,0,0,-1,1700,344,0,0
483,680,0,0,0,0,0,0,0,0,0,-1,1707,344,0,0
490,680,0,0,0,0,0,0,0,0,0,-1,1714,344,0,0
497,680,0,0,0,0,0,0,0,0,0,-1,1721,344,0,0
504,680,0,0,0,0,0,0,0,0,0,-1,1728,344,0,0
511,680,0,0,0,0,0,0,0,0,0,-1,1735,344,0,0
518,680,0,0,0,0,0,0,0,0,0,-1,1742,344,0,0
525,680,0,0,0,0,0,0,0,0,0,-1,1749,344,0,0
532,680,0,0,0,0,0,0,0,0,0,-1,1756,344,0,0
539,680,0,0,0,0,0,0,0,0,0,-1,1763,344,0,0
546,680,0,0,0,0,0,0,0,0,0,-1,1770,344,0,0
553,680,0,0,0,0,0,0,0,0,0,-1,1777,344,0,0
560,680,0,0,0,0,0,0,0,0,0,-1,1784,344,0,0
567,680,0,0,0,0,0,0,0,0,0,-1,1791,344,0,0
574,680,0,0,0,0,0,0,0,0,0,-1,1798,344,0,0
581,680,0,0,0,0,0,0,0,0,0,-1,1805,344,0,0
588,680,0,0,0,0,0,0,0,0,0,-1,1812,344,0,0
595,680,0,0,0,0,0,0,0,0,0,-1,1819,344,0,0
602,680,0,0,0,0,0,0,0,0,0,-1,1826,344,0,0
609,680,0,0,0,0,0,0,0,0,0,-1,1833,344,0,0
616,680,0,0,0,0,0,0,0,0,0,-1,1840,344,0,0
623,680,0,0,0,0,0,0,0,0,0,-1,1847,344,0,0
630,680,0,0,0,0,0,0,0,0,0,-1,1854,344,0,0
637,680,0,0,0,0,0,0,0,0,0,-1,1861,344,0,0
644,680,0,0,0,0,0,0,0,0,0,-1,1868,344,0,0
651,680,0,0,0,0,0,0,0,0,0,-1,1875,344,0,0
658,680,0,0,0,0,0,0,0,0,0,-1,1882,344,0,0
665,680,0,0,0,0,0,0,0,0,0,-1,1889,344,0,0
672,680,0,0,0,0,0,0,0,0,0,-1,1896,344,0,0
679,680,0,0,0,0,0,0,0,0,0,-1,1903,344,0,0
686,680,0,0,0,0,0,0,0,0,0,-1,1910,344,0,0
693,680,0,0,0,0,0,0,0,0,0,-1,1917,344,0,0
700,680,0,0,0,0,0,0,0,0,0,-1,1924,344,0,0
707,680,0,0,0,0,0,0,0,0,0,-1,1931,344,0,0
714,680,0,0,0,0,0,0,0,0,0,-1,1938,344,0,0
721,680,0,0,0,0,0,0,0,0,0,-1,1945,344,0,0
728,680,0,0,0,0,0,0,0,0,0,-1,1952,344,0,0
735,680,0,0,0,0,0,0,0,0,0,-1,1959,344,0,0
742,680,0,0,0,0,0,0,0,0,0,-1,1966,344,0,0
749,680,0,0,0,0,0,0,0,0,0,-1,1973,344,0,0
756,680,0,0,0,0,0,0,0,0,0,-1,1980,344,0,0
763,680,0,0,0,0,0,0,0,0,0,-1,1987,344,0,0
770,680,0,0,0,0,0,0,0,0,0,-1,1994,344,0,0
777,680,0,0,0,0,0,0,0,0,0,-1,2001,344,0,0
784,680,0,0,0,0,0,0,0,0,0,-1,2008,344,0,0
791,680,0,0,0,0,0,0,0,0,0,-1,2015,344,0,0
798,680,0,0,0,0,0,0,0,0,0,-1,2022,344,0,0
805,680,0,0,0,0,0,0,0,0,0,-1,2029,344,0,0
812,680,0,0,0,0,0,0,0,0,0,-1,2036,344,0,0
-700,673,0,0,0,0,0,0,0,0,0,-1,524,351,0,0
-693,673,0,0,0,0,0,0,0,0,0,-1,531,351,0,0
-686,673,0,0,0,0,0,0,0,0,0,-1,538,351,0,0
-679,673,0,0,0,0,0,0,0,0,0,-1,545,351,0,0
-672,673,0,0,0,0,0,0,0,0,0,-1,552,351,0,0
-665,673,0,0,0,0,0,0,0,0,0,-1,559,351,0,0
-658,673,0,0,0,0,0,0,0,0,0,-1,566,351,0,0
-651,673,0,0,0,0,0,0,0,0,0,-1,573,351,0,0
-644,673,0,0,0,0,0,0,0,0,0,-1,580,351,0,0
-637,673,0,0,0,0,0,0,0,0,0,-1,587,351,0,0
-630,673,0,0,0,0,0,0,0,0,0,-1,594,351,0,0
-623,673,0,0,0,0,0,0,0,0,0,-1,601,351,0,0
-616,673,0,0,0,0,0,0,0,0,0,-1,608,351,0,0
-609,673,0,0,0,0,0,0,0,0,0,-1,615,351,0,0
-602,673,0,0,0,0,0,0,0,0,0,-1,622,351,0,0
-595,673,0,0,0,0,0,0,0,0,0,-1,629,351,0,0
-588,673,0,0,0,0,0,0,0,0,0,-1,636,351,0,0
-581,673,0,0,0,0,0,0,0,0,0,-1,643,351,0,0
-574,673,0,0,0,0,0,0,0,0,0,-1,650,351,0,0
-567,673,0,0,0,0,0,0,0,0,0,-1,657,351,0,0
-560,673,0,0,0,0,0,0,0,0,0,-1,664,351,0,0
-553,673,0,0,0,0,0,0,0,0,0,-1,671,351,0,0
-546,673,0,0,0,0,0,0,0,0,0,-1,678,351,0,0
-539,673,0,0,0,0,0,0,0,0,0,-1,685,351,0,0
-532,673,0,0,0,0,0,0,0,0,0,-1,692,351,0,0
-525,673,0,0,0,0,0,0,0,0,0,-1,699,351,0,0
-518,673,0,0,0,0,0,0,0,0,0,-1,706,351,0,0
-511,673,0,0,0,0,0,0,0,0,0,-1,713,351,0,0
-504,673,0,0,0,0,0,0,0,0,0,-1,720,351,0,0
-497,673,0,0,0,0,0,0,0,0,0,-1,727,351,0,0
-490,673,0,0,0,0,0,0,0,0,0,-1,734,351,0,0
-483,673,0,0,0,0,0,0,0,0,0,-1,741,351,0,0
-476,673,0,0,0,0,0,0,0,0,0,-1,748,351,0,0
-469,673,0,0,0,0,0,0,0,0,0,-1,755,351,0,0
-462,673,0,0,0,0,0,0,0,0,0,-1,762,351,0,0
-455,673,0,0,0,0,0,0,0,0,0,-1,769,351,0,0
-448,673,0,0,0,0,0,0,0,0,0,-1,776,351,0,0
-441,673,0,0,0,0,0,0,0,0,0,-1,783,351,0,0
-434,673,0,0,0,0,0,0,0,0,0,-1,790,351,0,0
-427,673,0,0,0,0,0,0,0,0,0,-1,797,351,0,0
-420,673,0,0,0,0,0,0,0,0,0,-1,804,351,0,0
-413,673,0,0,0,0,0,0,0,0,0,-1,811,351,0,0
-406,673,0,0,0,0,0,0,0,0,0,-1,818,351,0,0
-399,673,0,0,0,0,0,0,0,0,0,-1,825,351,0,0
-392,673,0,0,0,0,0,0,0,0,0,-1,832,351,0,0
-385,673,0,0,0,0,0,0,0,0,0,-1,839,351,0,0
-378,673,0,0,0,0,0,0,0,0,0,-1,846,351,0,0
-371,673,0,0,0,0,0,0,0,0,0,-1,853,351,0,0
-364,673,0,0,0,0,0,0,0,0,0,-1,860,351,0,0
-357,673,0,0,0,0,0,0,0,0,0,-1,867,351,0,0
-350,673,0,0,0,0,0,0,0,0,0,-1,874,351,0,0
-343,673,0,0,0,0,0,0,0,0,0,-1,881,351,0,0
-336,673,0,0,0,0,0,0,0,0,0,-1,888,351,0,0
-329,673,0,0,0,0,0,0,0,0,0,-1,895,351,0,0
-322,673,0,0,0,0,0,0,0,0,0,-1,902,351,0,0
-315,673,0,0,0,0,0,0,0,0,0,-1,909,351,0,0
-308,673,0,0,0,0,0,0,0,0,0,-1,916,351,0,0
-301,673,0,0,0,0,0,0,0,0,0,-1,923,351,0,0
-294,673,0,0,0,0,0,0,0,0,0,-1,930,351,0,0
-287,673,0,0,0,0,0,0,0,0,0,-1,937,351,0,0
-280,673,0,0,0,0,0,0,0,0,0,-1,944,351,0,0
-273,673,0,0,0,0,0,0,0,0,0,-1,951,351,0,0
-266,673,0,0,0,0,0,0,0,0,0,-1,958,351,0,0
-259,673,0,0,0,0,0,0,0,0,0,-1,965,351,0,0
-252,673,0,0,0,0,0,0,0,0,0,-1,972,351,0,0
-245,673,0,0,0,0,0,0,0,0,0,-1,979,351,0,0
-238,673,0,0,0,0,0,0,0,0,0,-1,986,351,0,0
-231,673,0,0,0,0,0,0,0,0,0,-1,993,351,0,0
-224,673,0,0,0,0,0,0,0,0,0,-1,1000,351,0,0
-217,673,0,0,0,0,0,0,0,0,0,-1,1007,351,0,0
-210,673,0,0,0,0,0,0,0,0,0,-1,1014,351,0,0
-203,673,0,0,0,0,0,0,0,0,0,-1,1021,351,0,0
-196,673,0,0,0,0,0,0,0,0,0,-1,1028,351,0,0
-189,673,0,0,0,0,0,0,0,0,0,-1,1035,351,0,0
-182,673,0,0,0,0,0,0,0,0,0,-1,1042,351,0,0
-175,673,7.10449,-31.8279,0,0,0,0,0,0,0,-1,1049,351,7.10448,31.8279
-168,673,7.33081,-32.7122,0,0,0,0,0,0,0,-1,1056,351,7.33085,32.7122
-161,673,7.8938,-33.5352,0,0,0,0,0,0,0,-1,1063,351,7.89385,33.5352
-154,673,8.80566,-35.3518,0,0,0,0,0,0,0,-1,1070,351,8.80563,35.3518
-147,673,2.89221,-37.7351,0,0,0,0,0,0,0,-1,1077,351,2.89224,37.7351
-140,673,3.35046,-37.7151,0,0,0,0,0,0,0,-1,1084,351,3.35046,37.715
-133,673,3.35339,-39.0288,0,0,0,0,0,0,0,-1,1091,351,3.35342,39.0288
-126,673,3.7533,-38.0453,0,0,0,0,0,0,0,-1,1098,351,3.7533,38.0453
-119,673,4.1532,-37.0618,0,0,0,0,0,0,0,-1,1105,351,4.15318,37.0618
-112,673,7.27234,-32.5801,0,0,0,0,0,0,0,-1,1112,351,7.27231,32.5801
-105,673,21.1144,-43.3143,0,0,0,0,0,0,0,-1,1119,351,21.1143,43.3143
-98,673,14.8014,-36.7519,0,0,0,0,0,0,0,-1,1126,351,14.8014,36.7519
-91,673,8.54944,-29.9639,0,0,0,0,0,0,0,-1,1133,351,8.54949,29.9639
-84,673,2.17102,-24.3204,0,0,0,0,0,0,0,-1,1140,351,2.17107,24.3204
-77,673,-4.25378,-18.8346,0,0,0,0,0,0,0,-1,1147,351,-4.25381,18.8346
-70,673,-10.7933,-13.6681,0,0,0,0,0,0,0,-1,1154,351,-10.7934,13.6681
-63,673,-17.3896,-8.24469,0,0,0,0,0,0,0,-1,1161,351,-17.3896,8.2447
-56,673,-18.0282,2.79053,0,0,0,0,0,0,0,-1,1168,351,-18.0283,-2.79052
-49,673,-0.926758,-0.115448,0,0,0,0,0,0,0,-1,1175,351,-0.926732,0.115444
-42,673,-1.15015,0.289917,0,0,0,0,0,0,0,-1,1182,351,-1.15017,-0.289932
-35,673,-0.919556,-1.00711,0,0,0,0,0,0,0,-1,1189,351,-0.919514,1.00711
-28,673,5.28918,-39.2331,0,0,0,0,0,0,0,-1,1196,351,5.28924,39.2331
-21,673,8.91418,-62.357,0,0,0,0,0,0,0,-1,1203,351,8.91415,62.357
-14,673,8.39941,-62.43,0.000425637,0.059712,-0.00484135,0.0601048,3.28925e-05,-1.48985,0.0400589,0.045626,1210,351,8.39939,62.43
-7,673,8.61145,-62.9391,-0.00222989,0.0605697,-0.0035561,0.0607704,-0.00243061,-1.51441,0.0413476,0.0448998,1217,351,8.61147,62.9391
0,673,8.56055,-63.1769,0,0,0,0,0,0,0,-1,1224,351,8.56054,63.1769
7,673,8.33728,-63.2501,0,0,0,0,0,0,0,-1,1231,351,8.33723,63.2501
14,673,8.52441,-63.1647,-0.0103563,0.0636302,0.0019794,0.0636831,-0.0104092,1.54407,0.0463167,0.0476306,1238,351,8.52447,63.1647
21,673,8.3407,-63.5072,-0.0109023,0.0648864,0.00400522,0.0650974,-0.0111134,1.51814,0.0475378,0.0374271,1245,351,8.34064,63.5072
28,673,8.34497,-63.7285,-0.0106498,0.0663731,0.00582105,0.0668105,-0.0110872,1.49579,0.048659,0.0352647,1252,351,8.34496,63.7285
35,673,8.38,-63.5623,0,0,0,0,0,0,0,-1,1259,351,8.37996,63.5623
42,673,7.91406,-63.8956,-0.00747734,0.0669353,0.00933882,0.0680895,-0.00863147,1.44784,0.0485267,0.0436964,1266,351,7.91405,63.8956
49,673,7.77405,-64.0324,-0.00459868,0.0668441,0.0113902,0.0686161,-0.00637068,1.41646,0.0480087,0.0258075,1273,351,7.77409,64.0324
56,673,7.72571,-64.0498,-0.000173691,0.065562,0.0128631,0.0679894,-0.00260109,1.38428,0.0462177,0.018855,1280,351,7.72576,64.0498
63,673,7.75452,-63.7984,0.00451761,0.063657,0.0139783,0.0667945,0.0013801,1.35,0.0440768,0.0236227,1287,351,7.75447,63.7984
70,673,7.71716,-63.7547,0.00949308,0.0600224,0.015037,0.0641587,0.00535679,1.30236,0.0411034,0.0368987,1294,351,7.71719,63.7547
77,673,7.72058,-63.5125,0.0143581,0.0567004,0.0163288,0.0622658,0.00879263,1.24231,0.0389122,0.0409511,1301,351,7.72054,63.5125
84,673,7.6842,-63.496,0.018486,0.0523646,0.0171817,0.0595531,0.0112975,1.17455,0.0365234,0.047398,1308,351,7.68419,63.496
91,673,7.36536,-64.1656,0,0,0,0,0,0,0,-1,1315,351,7.36534,64.1656
98,673,7.07959,-64.137,0,0,0,0,0,0,0,-1,1322,351,7.07964,64.137
105,673,6.67114,-63.8431,0,0,0,0,0,0,0,-1,1329,351,6.6711,63.8431
112,673,3.54541,-64.5022,0,0,0,0,0,0,0,-1,1336,351,3.54544,64.5022
119,673,5.33801,-61.3758,0,0,0,0,0,0,0,-1,1343,351,5.33798,61.3758
126,673,4.74976,-59.7757,0,0,0,0,0,0,0,-1,1350,351,4.7498,59.7757
133,673,5.61047,-63.8758,0,0,0,0,0,0,0,-1,1357,351,5.61046,63.8758
140,673,6.09717,-62.5833,0,0,0,0,0,0,0,-1,1364,351,6.09714,62.5833
147,673,5.72705,-62.1355,0.00980899,0.0437664,0.0160983,0.050185,0.00339046,1.1914,0.0323857,0.0463077,1371,351,5.72703,62.1355
154,673,5.52246,-61.438,0.0066488,0.0460993,0.014554,0.0508874,0.00186069,1.25296,0.033322,0.0446338,1378,351,5.52248,61.438
161,673,6.07617,-60.9734,0,0,0,0,0,0,0,-1,1385,351,6.07619,60.9734
168,673,6.87061,1.83954,0,0,0,0,0,0,0,-1,1392,351,6.87063,-1.83953
175,673,6.6228,1.1459,0,0,0,0,0,0,0,-1,1399,351,6.62276,-1.14591
182,673,6.37244,0.796112,0,0,0,0,0,0,0,-1,1406,351,6.3724,-0.796102
189,673,6.12097,0.265472,0,0,0,0,0,0,0,-1,1413,351,6.121,-0.265482
196,673,6.02173,3.12717,0,0,0,0,0,0,0,-1,1420,351,6.02176,-3.12717
203,673,5.04456,1.6351,0,0,0,0,0,0,0,-1,1427,351,5.04455,-1.63509
210,673,4.79224,0.447479,0,0,0,0,0,0,0,-1,1434,351,4.79229,-0.447469
217,673,2.01648,0.972687,0,0,0,0,0,0,0,-1,1441,351,2.01644,-0.972691
224,673,2.3689,-1.80539,0,0,0,0,0,0,0,-1,1448,351,2.36896,1.80539
231,673,2.65857,-2.18497,0,0,0,0,0,0,0,-1,1455,351,2.65852,2.18496
238,673,3.77844,-2.06088,0,0,0,0,0,0,0,-1,1462,351,3.77839,2.06088
245,673,3.5376,-0.190399,0,0,0,0,0,0,0,-1,1469,351,3.53759,0.1904
252,673,3.80518,0.55603,0,0,0,0,0,0,0,-1,1476,351,3.80519,-0.556022
259,673,3.88562,1.29617,0,0,0,0,0,0,0,-1,1483,351,3.88562,-1.29618
266,673,4.22424,2.04834,0,0,0,0,0,0,0,-1,1490,351,4.22429,-2.04834
273,673,6.07886,0.385895,0,0,0,0,0,0,0,-1,1497,351,6.0789,-0.385906
280,673,6.97534,-0.0820007,0,0,0,0,0,0,0,-1,1504,351,6.97536,0.0820122
287,673,7.66968,-0.348541,0,0,0,0,0,0,0,-1,1511,351,7.66969,0.348534
294,673,8.20996,0.28537,0,0,0,0,0,0,0,-1,1518,351,8.20993,-0.28536
301,673,0,0,0,0,0,0,0,0,0,-1,1525,351,0,0
308,673,0,0,0,0,0,0,0,0,0,-1,1532,351,0,0
315,673,0,0,0,0,0,0,0,0,0,-1,1539,351,0,0
322,673,0,0,0,0,0,0,0,0,0,-1,1546,351,0,0
329,673,0,0,0,0,0,0,0,0,0,-1,1553,351,0,0
336,673,0,0,0,0,0,0,0,0,0,-1,1560,351,0,0
343,673,0,0,0,0,0,0,0,0,0,-1,1567,351,0,0
350,673,0,0,0,0,0,0,0,0,0,-1,1574,351,0,0
357,673,0,0,0,0,0,0,0,0,0,-1,1581,351,0,0
364,673,0,0,0,0,0,0,0,0,0,-1,1588,351,0,0
371,673,0,0,0,0,0,0,0,0,0,-1,1595,351,0,0
378,673,0,0,0,0,0,0,0,0,0,-1,1602,351,0,0
385,673,0,0,0,0,0,0,0,0,0,-1,1609,351,0,0
392,673,0,0,0,0,0,0,0,0,0,-1,1616,351,0,0
399,673,0,0,0,0,0,0,0,0,0,-1,1623,351,0,0
406,673,0,0,0,0,0,0,0,0,0,-1,1630,351,0,0
413,673,0,0,0,0,0,0,0,0,0,-1,1637,351,0,0
420,673,0,0,0,0,0,0,0,0,0,-1,1644,351,0,0
427,673,0,0,0,0,0,0,0,0,0,-1,1651,351,0,0
434,673,0,0,0,0,0,0,0,0,0,-1,1658,351,0,0
441,673,0,0,0,0,0,0,0,0,0,-1,1665,351,0,0
448,673,0,0,0,0,0,0,0,0,0,-1,1672,351,0,0
455,673,0,0,0,0,0,0,0,0,0,-1,1679,351,0,0
462,673,0,0,0,0,0,0,0,0,0,-1,1686,351,0,0
469,673,0,0,0,0,0,0,0,0,0,-1,1693,351,0,0
476,673,0,0,0,0,0,0,0,0,0,-1,1700,351,0,0
483,673,0,0,0,0,0,0,0,0,0,-1,1707,351,0,0
490,673,0,0,0,0,0,0,0,0,0,-1,1714,351,0,0
497,673,0,0,0,0,0,0,0,0,0,-1,1721,351,0,0
504,673,0,0,0,0,0,0,0,0,0,-1,1728,351,0,0
511,673,0,0,0,0,0,0,0,0,0,-1,1735,351,0,0
518,673,0,0,0,0,0,0,0,0,0,-1,1742,351,0,0
525,673,0,0,0,0,0,0,0,0,0,-1,1749,351,0,0
532,673,0,0,0,0,0,0,0,0,0,-1,1756,351,0,0
539,673,0,0,0,0,0,0,0,0,0,-1,1763,351,0,0
546,673,0,0,0,0,0,0,0,0,0,-1,1770,351,0,0
553,673,0,0,0,0,0,0,0,0,0,-1,1777,351,0,0
560,673,0,0,0,0,0,0,0,0,0,-1,1784,351,0,0
567,673,0,0,0,0,0,0,0,0,0,-1,1791,351,0,0
574,673,0,0,0,0,0,0,0,0,0,-1,1798,351,0,0
581,673,0,0,0,0,0,0,0,0,0,-1,1805,351,0,0
588,673,0,0,0,0,0,0,0,0,0,-1,1812,351,0,0
595,673,0,0,0,0,0,0,0,0,0,-1,1819,351,0,0
602,673,0,0,0,0,0,0,0,0,0,-1,1826,351,0,0
609,673,0,0,0,0,0,0,0,0,0,-1,1833,351,0,0
616,673,0,0,0,0,0,0,0,0,0,-1,1840,351,0,0
623,673,0,0,0,0,0,0,0,0,0,-1,1847,351,0,0
630,673,0,0,0,0,0,0,0,0,0,-1,1854,351,0,0
637,673,0,0,0,0,0,0,0,0,0,-1,1861,351,0,0
644,673,0,0,0,0,0,0,0,0,0,-1,1868,351,0,0
651,673,0,0,0,0,0,0,0,0,0,-1,1875,351,0,0
658,673,0,0,0,0,0,0,0,0,0,-1,1882,351,0,0
665,673,0,0,0,0,0,0,0,0,0,-1,1889,351,0,0
672,673,0,0,0,0,0,0,0,0,0,-1,1896,351,0,0
679,673,0,0,0,0,0,0,0,0,0,-1,1903,351,0,0
686,673,0,0,0,0,0,0,0,0,0,-1,1910,351,0,0
693,673,0,0,0,0,0,0,0,0,0,-1,1917,351,0,0
700,673,0,0,0,0,0,0,0,0,0,-1,1924,351,0,0
707,673,0,0,0,0,0,0,0,0,0,-1,1931,351,0,0
714,673,0,0,0,0,0,0,0,0,0,-1,1938,351,0,0
721,673,0,0,0,0,0,0,0,0,0,-1,1945,351,0,0
728,673,0,0,0,0,0,0,0,0,0,-1,1952,351,0,0
735,673,0,0,0,0,0,0,0,0,0,-1,1959,351,0,0
742,673,0,0,0,0,0,0,0,0,0,-1,1966,351,0,0
749,673,0,0,0,0,0,0,0,0,0,-1,1973,351,0,0
756,673,0,0,0,0,0,0,0,0,0,-1,1980,351,0,0
763,673,0,0,0,0,0,0,0,0,0,-1,1987,351,0,0
770,673,0,0,0,0,0,0,0,0,0,-1,1994,351,0,0
777,673,0,0,0,0,0,0,0,0,0,-1,2001,351,0,0
784,673,0,0,0,0,0,0,0,0,0,-1,2008,351,0,0
791,673,0,0,0,0,0,0,0,0,0,-1,2015,351,0,0
798,673,0,0,0,0,0,0,0,0,0,-1,2022,351,0,0
805,673,0,0,0,0,0,0,0,0,0,-1,2029,351,0,0
812,673,0,0,0,0,0,0,0,0,0,-1,2036,351,0,0
-700,666,0,0,0,0,0,0,0,0,0,-1,524,358,0,0
-693,666,0,0,0,0,0,0,0,0,0,-1,531,358,0,0
-686,666,0,0,0,0,0,0,0,0,0,-1,538,358,0,0
-679,666,0,0,0,0,0,0,0,0,0,-1,545,358,0,0
-672,666,0,0,0,0,0,0,0,0,0,-1,552,358,0,0
-665,666,0,0,0,0,0,0,0,0,0,-1,559,358,0,0
-658,666,0,0,0,0,0,0,0,0,0,-1,566,358,0,0
-651,666,0,0,0,0,0,0,0,0,0,-1,573,358,0,0
-644,666,0,0,0,0,0,0,0,0,0,-1,580,358,0,0
-637,666,0,0,0,0,0,0,0,0,0,-1,587,358,0,0
-630,666,0,0,0,0,0,0,0,0,0,-1,594,358,0,0
-623,666,0,0,0,0,0,0,0,0,0,-1,601,358,0,0
-616,666,0,0,0,0,0,0,0,0,0,-1,608,358,0,0
-609,666,0,0,0,0,0,0,0,0,0,-1,615,358,0,0
-602,666,0,0,0,0,0,0,0,0,0,-1,622,358,0,0
-595,666,0,0,0,0,0,0,0,0,0,-1,629,358,0,0
-588,666,0,0,0,0,0,0,0,0,0,-1,636,358,0,0
-581,666,0,0,0,0,0,0,0,0,0,-1,643,358,0,0
-574,666,0,0,0,0,0,0,0,0,0,-1,650,358,0,0
-567,666,0,0,0,0,0,0,0,0,0,-1,657,358,0,0
-560,666,0,0,0,0,0,0,0,0,0,-1,664,358,0,0
-553,666,0,0,0,0,0,0,0,0,0,-1,671,358,0,0
-546,666,0,0,0,0,0,0,0,0,0,-1,678,358,0,0
-539,666,0,0,0,0,0,0,0,0,0,-1,685,358,0,0
-532,666,0,0,0,0,0,0,0,0,0,-1,692,358,0,0
-525,666,0,0,0,0,0,0,0,0,0,-1,699,358,0,0
-518,666,0,0,0,0,0,0,0,0,0,-1,706,358,0,0
-511,666,0,0,0,0,0,0,0,0,0,-1,713,358,0,0
-504,666,0,0,0,0,0,0,0,0,0,-1,720,358,0,0
-497,666,0,0,0,0,0,0,0,0,0,-1,727,358,0,0
-490,666,0,0,0,0,0,0,0,0,0,-1,734,358,0,0
-483,666,0,0,0,0,0,0,0,0,0,-1,741,358,0,0
-476,666,0,0,0,0,0,0,0,0,0,-1,748,358,0,0
-469,666,0,0,0,0,0,0,0,0,0,-1,755,358,0,0
-462,666,0,0,0,0,0,0,0,0,0,-1,762,358,0,0
-455,666,0,0,0,0,0,0,0,0,0,-1,769,358,0,0
-448,666,0,0,0,0,0,0,0,0,0,-1,776,358,0,0
-441,666,0,0,0,0,0,0,0,0,0,-1,783,358,0,0
-434,666,0,0,0,0,0,0,0,0,0,-1,790,358,0,0
-427,666,0,0,0,0,0,0,0,0,0,-1,797,358,0,0
-420,666,0,0,0,0,0,0,0,0,0,-1,804,358,0,0
-413,666,0,0,0,0,0,0,0,0,0,-1,811,358,0,0
-406,666,0,0,0,0,0,0,0,0,0,-1,818,358,0,0
-399,666,0,0,0,0,0,0,0,0,0,-1,825,358,0,0
-392,666,0,0,0,0,0,0,0,0,0,-1,832,358,0,0
-385,666,0,0,0,0,0,0,0,0,0,-1,839,358,0,0
-378,666,0,0,0,0,0,0,0,0,0,-1,846,358,0,0
-371,666,0,0,0,0,0,0,0,0,0,-1,853,358,0,0
-364,666,0,0,0,0,0,0,0,0,0,-1,860,358,0,0
-357,666,0,0,0,0,0,0,0,0,0,-1,867,358,0,0
-350,666,0,0,0,0,0,0,0,0,0,-1,874,358,0,0
-343,666,0,0,0,0,0,0,0,0,0,-1,881,358,0,0
-336,666,0,0,0,0,0,0,0,0,0,-1,888,358,0,0
-329,666,0,0,0,0,0,0,0,0,0,-1,895,358,0,0
-322,666,0,0,0,0,0,0,0,0,0,-1,902,358,0,0
-315,666,0,0,0,0,0,0,0,0,0,-1,909,358,0,0
-308,666,0,0,0,0,0,0,0,0,0,-1,916,358,0,0
-301,666,0,0,0,0,0,0,0,0,0,-1,923,358,0,0
-294,666,0,0,0,0,0,0,0,0,0,-1,930,358,0,0
-287,666,0,0,0,0,0,0,0,0,0,-1,937,358,0,0
-280,666,0,0,0,0,0,0,0,0,0,-1,944,358,0,0
-273,666,0,0,0,0,0,0,0,0,0,-1,951,358,0,0
-266,666,0,0,0,0,0,0,0,0,0,-1,958,358,0,0
-259,666,0,0,0,0,0,0,0,0,0,-1,965,358,0,0
-252,666,0,0,0,0,0,0,0,0,0,-1,972,358,0,0
-245,666,0,0,0,0,0,0,0,0,0,-1,979,358,0,0
-238,666,0,0,0,0,0,0,0,0,0,-1,986,358,0,0
-231,666,0,0,0,0,0,0,0,0,0,-1,993,358,0,0
-224,666,0,0,0,0,0,0,0,0,0,-1,1000,358,0,0
-217,666,0,0,0,0,0,0,0,0,0,-1,1007,358,0,0
-210,666,0,0,0,0,0,0,0,0,0,-1,1014,358,0,0
-203,666,0,0,0,0,0,0,0,0,0,-1,1021,358,0,0
-196,666,4.03418,-28.8724,0,0,0,0,0,0,0,-1,1028,358,4.03422,28.8724
-189,666,5.00366,-29.597,0,0,0,0,0,0,0,-1,1035,358,5.00363,29.597
-182,666,6.83252,-30.9843,0,0,0,0,0,0,0,-1,1042,358,6.83247,30.9844
-175,666,7.01611,-31.8763,0,0,0,0,0,0,0,-1,1049,358,7.01617,31.8762
-168,666,7.21545,-32.7414,0,0,0,0,0,0,0,-1,1056,358,7.2154,32.7414
-161,666,7.69116,-33.6269,0,0,0,0,0,0,0,-1,1063,358,7.69121,33.6269
-154,666,3.79041,-37.9204,0,0,0,0,0,0,0,-1,1070,358,3.79034,37.9204
-147,666,4.17908,-37.7466,0,0,0,0,0,0,0,-1,1077,358,4.17912,37.7466
-140,666,4.54309,-37.735,0,0,0,0,0,0,0,-1,1084,358,4.54304,37.735
-133,666,4.65723,-39.0643,0,0,0,0,0,0,0,-1,1091,358,4.65727,39.0643
-126,666,5.02368,-38.0699,0,0,0,0,0,0,0,-1,1098,358,5.02363,38.0698
-119,666,5.39001,-37.0754,0,0,0,0,0,0,0,-1,1105,358,5.38999,37.0754
-112,666,6.77014,-32.8165,0,0,0,0,0,0,0,-1,1112,358,6.77013,32.8165
-105,666,6.30908,-29.0855,0,0,0,0,0,0,0,-1,1119,358,6.30905,29.0855
-98,666,15.4427,-31.5168,0,0,0,0,0,0,0,-1,1126,358,15.4428,31.5168
-91,666,9.5127,-25.1347,0,0,0,0,0,0,0,-1,1133,358,9.51269,25.1347
-84,666,2.91589,-19.4071,0,0,0,0,0,0,0,-1,1140,358,2.91592,19.4071
-77,666,-3.48083,-14.0782,0,0,0,0,0,0,0,-1,1147,358,-3.48081,14.0782
-70,666,-9.99438,-8.90146,0,0,0,0,0,0,0,-1,1154,358,-9.99433,8.90146
-63,666,-11.7778,-0.975189,0,0,0,0,0,0,0,-1,1161,358,-11.7778,0.97519
-56,666,0.424683,-2.04132,0,0,0,0,0,0,0,-1,1168,358,0.424665,2.04132
-49,666,0.754395,-2.23169,0,0,0,0,0,0,0,-1,1175,358,0.754383,2.23169
-42,666,1.34473,-3.53897,0,0,0,0,0,0,0,-1,1182,358,1.34476,3.53896
-35,666,8.72986,-62.4368,0,0,0,0,0,0,0,-1,1189,358,8.72989,62.4368
-28,666,8.83191,-62.5606,0,0,0,0,0,0,0,-1,1196,358,8.83187,62.5606
-21,666,8.70398,-62.7061,-0.000839265,0.0468663,-0.00495793,0.0473761,-0.00134908,-1.46833,0.0320432,0.0426547,1203,358,8.70399,62.7061
-14,666,8.51355,-62.9502,-0.00162932,0.0480254,-0.00434946,0.0484035,-0.00200742,-1.48408,0.0329586,0.0409495,1210,358,8.51355,62.9502
-7,666,8.44702,-63.2119,-0.00325109,0.0488683,-0.00339053,0.0490879,-0.00347073,-1.50611,0.0339414,0.0257327,1217,358,8.44697,63.2118
0,666,8.41919,-63.4894,-0.00519454,0.049497,-0.00222296,0.0495872,-0.00528474,-1.53024,0.0349531,0.0170877,1224,358,8.41917,63.4894
7,666,8.28381,-63.6158,-0.007163,0.0503112,-0.000848379,0.0503237,-0.00717552,-1.55604,0.0361789,0.0226389,1231,358,8.28383,63.6158
14,666,8.20398,-63.6909,-0.00820261,0.0514157,0.00083916,0.0514275,-0.00821442,1.55672,0.0373257,0.0205021,1238,358,8.20399,63.6909
21,666,8.12891,-63.9818,-0.00845447,0.0524156,0.00242608,0.0525121,-0.00855101,1.53102,0.038179,0.0177521,1245,358,8.1289,63.9818
28,666,8.05005,-64.1844,-0.00811539,0.053533,0.00388808,0.0537773,-0.00835964,1.50806,0.0389383,0.0234573,1252,358,8.05004,64.1844
35,666,8.04297,-64.1903,-0.00712035,0.0542566,0.005215,0.0546965,-0.0075603,1.48663,0.0392281,0.0215457,1259,358,8.04302,64.1903
42,666,7.9126,-64.2987,-0.00549918,0.0538356,0.00677638,0.0545996,-0.00626324,1.45852,0.038657,0.0189435,1266,358,7.91258,64.2987
49,666,7.78284,-64.39,-0.00334283,0.0537263,0.0084281,0.054945,-0.00456149,1.4272,0.0382413,0.0177523,1273,358,7.78283,64.39
56,666,7.71619,-64.4325,-0.000128155,0.0528057,0.00959659,0.0544918,-0.00181425,1.39687,0.0369475,0.0180533,1280,358,7.7162,64.4325
63,666,7.63831,-64.5432,0.00331653,0.0513597,0.0105047,0.0535562,0.0011201,1.36467,0.0353367,0.02012,1287,358,7.63831,64.5432
70,666,7.57446,-64.5329,0.00687466,0.0486873,0.0113978,0.0515924,0.00396957,1.32123,0.0331511,0.0187722,1294,358,7.57443,64.5329
77,666,7.53467,-64.3239,0.0103113,0.0462821,0.0124517,0.0501718,0.00642167,1.26802,0.0315261,0.0223135,1301,358,7.53463,64.3239
84,666,7.5166,-64.3246,0.0132252,0.0430984,0.0131366,0.0480533,0.00827026,1.21011,0.0296656,0.03152,1308,358,7.51657,64.3246
91,666,7.35498,-64.3928,0.0147627,0.0395321,0.0136398,0.0455709,0.00872385,1.154,0.0279305,0.0287856,1315,358,7.355,64.3928
98,666,7.15613,-64.2968,0.0156833,0.0368558,0.0139646,0.0437933,0.00874593,1.10972,0.0267609,0.0247453,1322,358,7.1561,64.2968
105,666,6.9574,-64.0747,0.015825,0.0349685,0.0140999,0.0424387,0.00835483,1.08359,0.0259596,0.0286824,1329,358,6.95741,64.0747
112,666,6.92969,-63.9126,0,0,0,0,0,0,0,-1,1336,358,6.92966,63.9126
119,666,6.85645,-63.6739,0,0,0,0,0,0,0,-1,1343,358,6.85642,63.6739
126,666,6.84241,-63.4065,0,0,0,0,0,0,0,-1,1350,358,6.84246,63.4065
133,666,6.57703,-63.0631,0,0,0,0,0,0,0,-1,1357,358,6.57708,63.0631
140,666,6.4519,-62.9136,0.00717466,0.0336791,0.0126177,0.0387252,0.00212861,1.19036,0.0251373,0.0444387,1364,358,6.45187,62.9136
147,666,6.27417,-62.6075,0.00416561,0.0363509,0.0118983,0.0402718,0.000244698,1.25247,0.0267667,0.03303,1371,358,6.27421,62.6075
154,666,6.25977,-61.9985,0.00155115,0.03802,0.0106814,0.0409182,-0.001347,1.30585,0.0277387,0.0293236,1378,358,6.25975,61.9985
161,666,6.26147,-61.6082,-0.00100735,0.0397769,0.0100567,0.0421219,-0.00335234,1.34171,0.0292628,0.0381413,1385,358,6.26147,61.6082
168,666,6.21326,-61.1877,0,0,0,0,0,0,0,-1,1392,358,6.21325,61.1877
175,666,6.2854,-61.3178,0,0,0,0,0,0,0,-1,1399,358,6.28536,61.3178
182,666,2.60876,-5.17068,0,0,0,0,0,0,0,-1,1406,358,2.6088,5.17068
189,666,2.46973,-5.49979,0,0,0,0,0,0,0,-1,1413,358,2.46975,5.49979
196,666,2.32458,-5.23651,0,0,0,0,0,0,0,-1,1420,358,2.32461,5.23653
203,666,2.28064,-3.88004,0,0,0,0,0,0,0,-1,1427,358,2.28059,3.88003
210,666,3.02576,-5.83548,0,0,0,0,0,0,0,-1,1434,358,3.02581,5.83547
217,666,2.30444,-5.36011,0,0,0,0,0,0,0,-1,1441,358,2.30447,5.3601
224,666,1.82324,-6.03101,0,0,0,0,0,0,0,-1,1448,358,1.82322,6.031
231,666,2.29797,-10.1093,0,0,0,0,0,0,0,-1,1455,358,2.29801,10.1093
238,666,2.52429,-6.10568,0,0,0,0,0,0,0,-1,1462,358,2.52423,6.10567
245,666,4.53345,-1.38205,0,0,0,0,0,0,0,-1,1469,358,4.53349,1.38204
252,666,4.77405,-0.246979,0,0,0,0,0,0,0,-1,1476,358,4.77405,0.246993
259,666,4.83655,1.14087,0,0,0,0,0,0,0,-1,1483,358,4.83652,-1.14087
266,666,6.14148,0.749512,0,0,0,0,0,0,0,-1,1490,358,6.14144,-0.749519
273,666,3.17737,-33.7881,0,0,0,0,0,0,0,-1,1497,358,3.17735,33.7881
280,666,3.37268,-35.2123,0,0,0,0,0,0,0,-1,1504,358,3.37266,35.2123
287,666,-7.06934,-20.3464,0,0,0,0,0,0,0,-1,1511,358,-7.06933,20.3464
294,666,-2.11157,-23.2753,0,0,0,0,0,0,0,-1,1518,358,-2.11162,23.2753
301,666,-3.16162,-22.2271,0,0,0,0,0,0,0,-1,1525,358,-3.16161,22.2271
308,666,-4.24951,-20.9112,0,0,0,0,0,0,0,-1,1532,358,-4.24948,20.9112
315,666,-5.64954,-19.5784,0,0,0,0,0,0,0,-1,1539,358,-5.64959,19.5784
322,666,0,0,0,0,0,0,0,0,0,-1,1546,358,0,0
329,666,0,0,0,0,0,0,0,0,0,-1,1553,358,0,0
336,666,0,0,0,0,0,0,0,0,0,-1,1560,358,0,0
343,666,0,0,0,0,0,0,0,0,0,-1,1567,358,0,0
350,666,0,0,0,0,0,0,0,0,0,-1,1574,358,0,0
357,666,0,0,0,0,0,0,0,0,0,-1,1581,358,0,0
364,666,0,0,0,0,0,0,0,0,0,-1,1588,358,0,0
371,666,0,0,0,0,0,0,0,0,0,-1,1595,358,0,0
378,666,0,0,0,0,0,0,0,0,0,-1,1602,358,0,0
385,666,0,0,0,0,0,0,0,0,0,-1,1609,358,0,0
392,666,0,0,0,0,0,0,0,0,0,-1,1616,358,0,0
399,666,0,0,0,0,0,0,0,0,0,-1,1623,358,0,0
406,666,0,0,0,0,0,0,0,0,0,-1,1630,358,0,0
413,666,0,0,0,0,0,0,0,0,0,-1,1637,358,0,0
420,666,0,0,0,0,0,0,0,0,0,-1,1644,358,0,0
427,666,0,0,0,0,0,0,0,0,0,-1,1651,358,0,0
434,666,0,0,0,0,0,0,0,0,0,-1,1658,358,0,0
441,666,0,0,0,0,0,0,0,0,0,-1,1665,358,0,0
448,666,0,0,0,0,0,0,0,0,0,-1,1672,358,0,0
455,666,0,0,0,0,0,0,0,0,0,-1,1679,358,0,0
462,666,0,0,0,0,0,0,0,0,0,-1,1686,358,0,0
469,666,0,0,0,0,0,0,0,0,0,-1,1693,358,0,0
476,666,0,0,0,0,0,0,0,0,0,-1,1700,358,0,0
483,666,0,0,0,0,0,0,0,0,0,-1,1707,358,0,0
490,666,0,0,0,0,0,0,0,0,0,-1,1714,358,0,0
497,666,0,0,0,0,0,0,0,0,0,-1,1721,358,0,0
504,666,0,0,0,0,0,0,0,0,0,-1,1728,358,0,0
511,666,0,0,0,0,0,0,0,0,0,-1,1735,358,0,0
518,666,0,0,0,0,0,0,0,0,0,-1,1742,358,0,0
525,666,0,0,0,0,0,0,0,0,0,-1,1749,358,0,0
532,666,0,0,0,0,0,0,0,0,0,-1,1756,358,0,0
539,666,0,0,0,0,0,0,0,0,0,-1,1763,358,0,0
546,666,0,0,0,0,0,0,0,0,0,-1,1770,358,0,0
553,666,0,0,0,0,0,0,0,0,0,-1,1777,358,0,0
560,666,0,0,0,0,0,0,0,0,0,-1,1784,358,0,0
567,666,0,0,0,0,0,0,0,0,0,-1,1791,358,0,0
574,666,0,0,0,0,0,0,0,0,0,-1,1798,358,0,0
581,666,0,0,0,0,0,0,0,0,0,-1,1805,358,0,0
588,666,0,0,0,0,0,0,0,0,0,-1,1812,358,0,0
595,666,0,0,0,0,0,0,0,0,0,-1,1819,358,0,0
602,666,0,0,0,0,0,0,0,0,0,-1,1826,358,0,0
609,666,0,0,0,0,0,0,0,0,0,-1,1833,358,0,0
616,666,0,0,0,0,0,0,0,0,0,-1,1840,358,0,0
623,666,0,0,0,0,0,0,0,0,0,-1,1847,358,0,0
630,666,0,0,0,0,0,0,0,0,0,-1,1854,358,0,0
637,666,0,0,0,0,0,0,0,0,0,-1,1861,358,0,0
644,666,0,0,0,0,0,0,0,0,0,-1,1868,358,0,0
651,666,0,0,0,0,0,0,0,0,0,-1,1875,358,0,0
658,666,0,0,0,0,0,0,0,0,0,-1,1882,358,0,0
665,666,0,0,0,0,0,0,0,0,0,-1,1889,358,0,0
672,666,0,0,0,0,0,0,0,0,0,-1,1896,358,0,0
679,666,0,0,0,0,0,0,0,0,0,-1,1903,358,0,0
686,666,0,0,0,0,0,0,0,0,0,-1,1910,358,0,0
693,666,0,0,0,0,0,0,0,0,0,-1,1917,358,0,0
700,666,0,0,0,0,0,0,0,0,0,-1,1924,358,0,0
707,666,0,0,0,0,0,0,0,0,0,-1,1931,358,0,0
714,666,0,0,0,0,0,0,0,0,0,-1,1938,358,0,0
721,666,0,0,0,0,0,0,0,0,0,-1,1945,358,0,0
728,666,0,0,0,0,0,0,0,0,0,-1,1952,358,0,0
735,666,0,0,0,0,0,0,0,0,0,-1,1959,358,0,0
742,666,0,0,0,0,0,0,0,0,0,-1,1966,358,0,0
749,666,0,0,0,0,0,0,0,0,0,-1,1973,358,0,0
756,666,0,0,0,0,0,0,0,0,0,-1,1980,358,0,0
763,666,0,0,0,0,0,0,0,0,0,-1,1987,358,0,0
770,666,0,0,0,0,0,0,0,0,0,-1,1994,358,0,0
777,666,0,0,0,0,0,0,0,0,0,-1,2001,358,0,0
784,666,0,0,0,0,0,0,0,0,0,-1,2008,358,0,0
791,666,0,0,0,0,0,0,0,0,0,-1,2015,358,0,0
798,666,0,0,0,0,0,0,0,0,0,-1,2022,358,0,0
805,666,0,0,0,0,0,0,0,0,0,-1,2029,358,0,0
812,666,0,0,0,0,0,0,0,0,0,-1,2036,358,0,0
-700,659,0,0,0,0,0,0,0,0,0,-1,524,365,0,0
-693,659,0,0,0,0,0,0,0,0,0,-1,531,365,0,0
-686,659,0,0,0,0,0,0,0,0,0,-1,538,365,0,0
-679,659,0,0,0,0,0,0,0,0,0,-1,545,365,0,0
-672,659,0,0,0,0,0,0,0,0,0,-1,552,365,0,0
-665,659,0,0,0,0,0,0,0,0,0,-1,559,365,0,0
-658,659,0,0,0,0,0,0,0,0,0,-1,566,365,0,0
-651,659,0,0,0,0,0,0,0,0,0,-1,573,365,0,0
-644,659,0,0,0,0,0,0,0,0,0,-1,580,365,0,0
-637,659,0,0,0,0,0,0,0,0,0,-1,587,365,0,0
-630,659,0,0,0,0,0,0,0,0,0,-1,594,365,0,0
-623,659,0,0,0,0,0,0,0,0,0,-1,601,365,0,0
-616,659,0,0,0,0,0,0,0,0,0,-1,608,365,0,0
-609,659,0,0,0,0,0,0,0,0,0,-1,615,365,0,0
-602,659,0,0,0,0,0,0,0,0,0,-1,622,365,0,0
-595,659,0,0,0,0,0,0,0,0,0,-1,629,365,0,0
-588,659,0,0,0,0,0,0,0,0,0,-1,636,365,0,0
-581,659,0,0,0,0,0,0,0,0,0,-1,643,365,0,0
-574,659,0,0,0,0,0,0,0,0,0,-1,650,365,0,0
-567,659,0,0,0,0,0,0,0,0,0,-1,657,365,0,0
-560,659,0,0,0,0,0,0,0,0,0,-1,664,365,0,0
-553,659,0,0,0,0,0,0,0,0,0,-1,671,365,0,0
-546,659,0,0,0,0,0,0,0,0,0,-1,678,365,0,0
-539,659,0,0,0,0,0,0,0,0,0,-1,685,365,0,0
-532,659,0,0,0,0,0,0,0,0,0,-1,692,365,0,0
-525,659,0,0,0,0,0,0,0,0,0,-1,699,365,0,0
-518,659,0,0,0,0,0,0,0,0,0,-1,706,365,0,0
-511,659,0,0,0,0,0,0,0,0,0,-1,713,365,0,0
-504,659,0,0,0,0,0,0,0,0,0,-1,720,365,0,0
-497,659,0,0,0,0,0,0,0,0,0,-1,727,365,0,0
-490,659,0,0,0,0,0,0,0,0,0,-1,734,365,0,0
-483,659,0,0,0,0,0,0,0,0,0,-1,741,365,0,0
-476,659,0,0,0,0,0,0,0,0,0,-1,748,365,0,0
-469,659,0,0,0,0,0,0,0,0,0,-1,755,365,0,0
-462,659,0,0,0,0,0,0,0,0,0,-1,762,365,0,0
-455,659,0,0,0,0,0,0,0,0,0,-1,769,365,0,0
-448,659,0,0,0,0,0,0,0,0,0,-1,776,365,0,0
-441,659,0,0,0,0,0,0,0,0,0,-1,783,365,0,0
-434,659,0,0,0,0,0,0,0,0,0,-1,790,365,0,0
-427,659,0,0,0,0,0,0,0,0,0,-1,797,365,0,0
-420,659,0,0,0,0,0,0,0,0,0,-1,804,365,0,0
-413,659,0,0,0,0,0,0,0,0,0,-1,811,365,0,0
-406,659,0,0,0,0,0,0,0,0,0,-1,818,365,0,0
-399,659,0,0,0,0,0,0,0,0,0,-1,825,365,0,0
-392,659,0,0,0,0,0,0,0,0,0,-1,832,365,0,0
-385,659,0,0,0,0,0,0,0,0,0,-1,839,365,0,0
-378,659,0,0,0,0,0,0,0,0,0,-1,846,365,0,0
-371,659,0,0,0,0,0,0,0,0,0,-1,853,365,0,0
-364,659,0,0,0,0,0,0,0,0,0,-1,860,365,0,0
-357,659,0,0,0,0,0,0,0,0,0,-1,867,365,0,0
-350,659,0,0,0,0,0,0,0,0,0,-1,874,365,0,0
-343,659,0,0,0,0,0,0,0,0,0,-1,881,365,0,0
-336,659,0,0,0,0,0,0,0,0,0,-1,888,365,0,0
-329,659,0,0,0,0,0,0,0,0,0,-1,895,365,0,0
-322,659,0,0,0,0,0,0,0,0,0,-1,902,365,0,0
-315,659,0,0,0,0,0,0,0,0,0,-1,909,365,0,0
-308,659,0,0,0,0,0,0,0,0,0,-1,916,365,0,0
-301,659,0,0,0,0,0,0,0,0,0,-1,923,365,0,0
-294,659,0,0,0,0,0,0,0,0,0,-1,930,365,0,0
-287,659,0,0,0,0,0,0,0,0,0,-1,937,365,0,0
-280,659,0,0,0,0,0,0,0,0,0,-1,944,365,0,0
-273,659,0,0,0,0,0,0,0,0,0,-1,951,365,0,0
-266,659,0,0,0,0,0,0,0,0,0,-1,958,365,0,0
-259,659,0,0,0,0,0,0,0,0,0,-1,965,365,0,0
-252,659,0,0,0,0,0,0,0,0,0,-1,972,365,0,0
-245,659,0,0,0,0,0,0,0,0,0,-1,979,365,0,0
-238,659,0,0,0,0,0,0,0,0,0,-1,986,365,0,0
-231,659,0,0,0,0,0,0,0,0,0,-1,993,365,0,0
-224,659,0,0,0,0,0,0,0,0,0,-1,1000,365,0,0
-217,659,10.1305,-25.2622,0,0,0,0,0,0,0,-1,1007,365,10.1305,25.2622
-210,659,9.65643,-25.515,0,0,0,0,0,0,0,-1,1014,365,9.65642,25.515
-203,659,8.58911,-25.7432,0,0,0,0,0,0,0,-1,1021,365,8.58916,25.7432
-196,659,2.68323,-27.8121,0,0,0,0,0,0,0,-1,1028,365,2.6832,27.8121
-189,659,6.88049,-28.9412,0,0,0,0,0,0,0,-1,1035,365,6.88045,28.9412
-182,659,6.94189,-30.6316,0,0,0,0,0,0,0,-1,1042,365,6.94189,30.6316
-175,659,6.948,-32.0092,0,0,0,0,0,0,0,-1,1049,365,6.94798,32.0093
-168,659,7.1416,-32.7405,0,0,0,0,0,0,0,-1,1056,365,7.14157,32.7405
-161,659,7.57361,-33.7099,0,0,0,0,0,0,0,-1,1063,365,7.57355,33.7099
-154,659,7.71448,-34.8995,0,0,0,0,0,0,0,-1,1070,365,7.7145,34.8995
-147,659,5.46606,-37.758,0,0,0,0,0,0,0,-1,1077,365,5.46601,37.758
-140,659,5.7356,-37.755,0,0,0,0,0,0,0,-1,1084,365,5.73562,37.755
-133,659,5.91455,-37.9017,0,0,0,0,0,0,0,-1,1091,365,5.9146,37.9017
-126,659,6.31226,-37.9904,0,0,0,0,0,0,0,-1,1098,365,6.3122,37.9904
-119,659,6.26941,-35.0837,0,0,0,0,0,0,0,-1,1105,365,6.26943,35.0837
-112,659,6.24353,-35.0562,0,0,0,0,0,0,0,-1,1112,365,6.24349,35.0562
-105,659,5.38696,-30.5854,0,0,0,0,0,0,0,-1,1119,365,5.387,30.5854
-98,659,4.68042,-26.2438,0,0,0,0,0,0,0,-1,1126,365,4.68041,26.2438
-91,659,4.20776,-20.8654,0,0,0,0,0,0,0,-1,1133,365,4.20777,20.8654
-84,659,2.8584,-17.8303,0,0,0,0,0,0,0,-1,1140,365,2.85836,17.8303
-77,659,2.80139,-15.3457,0,0,0,0,0,0,0,-1,1147,365,2.80139,15.3457
-70,659,2.9353,-12.7028,0,0,0,0,0,0,0,-1,1154,365,2.93533,12.7028
-63,659,2.11267,-9.7796,0,0,0,0,0,0,0,-1,1161,365,2.11266,9.7796
-56,659,2.11182,-9.91541,0,0,0,0,0,0,0,-1,1168,365,2.11178,9.91541
-49,659,8.76599,-61.6232,0,0,0,0,0,0,0,-1,1175,365,8.76598,61.6232
-42,659,8.73035,-61.9711,0,0,0,0,0,0,0,-1,1182,365,8.73039,61.9711
-35,659,8.62012,-62.3557,-0.00193252,0.0332261,-0.00479068,0.0338672,-0.00257361,-1.43777,0.0234831,0.0429263,1189,365,8.62011,62.3556
-28,659,8.59729,-62.6067,-0.00185488,0.0346162,-0.00459614,0.0351865,-0.00242517,-1.44735,0.0243064,0.0172442,1196,365,8.59733,62.6067
-21,659,8.5166,-62.9534,-0.00220987,0.0359004,-0.00413937,0.0363448,-0.00265429,-1.46384,0.0251613,0.0145579,1203,365,8.51657,62.9534
-14,659,8.3905,-63.2535,-0.00251857,0.0369799,-0.00364901,0.0373142,-0.00285285,-1.47944,0.0258795,0.0130969,1210,365,8.39046,63.2535
-7,659,8.29614,-63.4978,-0.00338623,0.0377379,-0.00297032,0.0379514,-0.00359967,-1.49906,0.0265822,0.0130746,1217,365,8.29609,63.4978
0,659,8.24756,-63.7094,-0.00447192,0.0382404,-0.0021388,0.0383472,-0.00457876,-1.52089,0.0272197,0.0108098,1224,365,8.24754,63.7093
7,659,8.19885,-63.8767,-0.00557434,0.038817,-0.00114926,0.0388467,-0.00560408,-1.54493,0.0279537,0.0101578,1231,365,8.19886,63.8767
14,659,8.11328,-64.0083,-0.00620144,0.0396902,6.51505e-05,0.0396903,-0.00620154,1.56938,0.0287512,0.0124138,1238,365,8.11322,64.0083
21,659,8.02844,-64.1821,-0.00638801,0.0404715,0.00121287,0.0405029,-0.00641938,1.54494,0.0293765,0.0124965,1245,365,8.02843,64.1821
28,659,7.92871,-64.3582,-0.00609118,0.0412959,0.0023265,0.0414098,-0.00620513,1.52186,0.0298904,0.0117713,1252,365,7.9287,64.3581
35,659,7.89441,-64.4632,-0.0053497,0.0418596,0.00334218,0.042095,-0.00558514,1.50047,0.0300983,0.0135266,1259,365,7.89438,64.4632
42,659,7.8457,-64.5557,-0.0041676,0.041502,0.00456797,0.0419544,-0.00462001,1.47208,0.0296299,0.0153765,1266,365,7.84569,64.5557
49,659,7.74756,-64.6357,-0.00267963,0.0414391,0.00583299,0.0421973,-0.00343779,1.44154,0.0293447,0.0165639,1273,365,7.74756,64.6357
56,659,7.66626,-64.6629,-0.000455224,0.0408501,0.00671959,0.0419157,-0.00152088,1.41352,0.0284643,0.0200844,1280,365,7.66629,64.6629
63,659,7.62549,-64.7167,0.00197828,0.039837,0.00743005,0.0412429,0.000572298,1.38378,0.0273065,0.0181134,1287,365,7.62544,64.7167
70,659,7.52063,-64.7148,0.00445605,0.0379576,0.00814482,0.0398328,0.00258086,1.34451,0.0257381,0.0179842,1294,365,7.52061,64.7148
77,659,7.42639,-64.6973,0.00681316,0.0363297,0.00896921,0.0388415,0.00430142,1.29775,0.0245863,0.0215894,1301,365,7.42636,64.6973
84,659,7.42908,-64.62,0.00879556,0.0340886,0.00947994,0.0372472,0.0056369,1.24917,0.0231821,0.0155567,1308,365,7.42902,64.62
91,659,7.3501,-64.5678,0.00975731,0.031545,0.00982303,0.0353197,0.00598256,1.20392,0.0218273,0.0121138,1315,365,7.35005,64.5678
98,659,7.24646,-64.4341,0.0103087,0.0295823,0.0100819,0.0338923,0.0059987,1.16681,0.0208845,0.00895002,1322,365,7.24644,64.4341
105,659,7.17834,-64.2534,0.010298,0.0282034,0.0101945,0.0328183,0.00568309,1.14571,0.0202521,0.0105415,1329,365,7.17838,64.2534
112,659,7.10278,-64.0662,0.00985965,0.0270262,0.0101328,0.0317225,0.00516339,1.1368,0.0196546,0.0155282,1336,365,7.10279,64.0662
119,659,7.01794,-63.8721,0.00870256,0.0257537,0.00988201,0.0302795,0.00417671,1.14132,0.0189482,0.0176423,1343,365,7.01799,63.8721
126,659,6.95654,-63.6044,0.00694961,0.0255451,0.00963201,0.0296348,0.0028599,1.16927,0.0188756,0.0177356,1350,365,6.95655,63.6044
133,659,6.84326,-63.3453,0.00499706,0.0258438,0.0093255,0.0294065,0.0014343,1.20586,0.0191442,0.0188771,1357,365,6.84321,63.3453
140,659,6.7384,-63.1556,0.00299138,0.0270802,0.00898422,0.0300619,9.68762e-06,1.25035,0.0200381,0.0141726,1364,365,6.73845,63.1556
147,659,6.67725,-62.8882,0.000568451,0.029178,0.00848899,0.0315072,-0.00176076,1.30301,0.0216156,0.0121397,1371,365,6.67728,62.8882
154,659,6.56885,-62.5399,-0.00133298,0.0304163,0.00770125,0.0321858,-0.00310241,1.34496,0.0225625,0.013902,1378,365,6.56882,62.5399
161,659,6.4967,-62.164,-0.00312199,0.0316044,0.00738481,0.0331096,-0.00462718,1.36973,0.0237661,0.01526,1385,365,6.4967,62.164
168,659,6.45667,-61.7505,-0.00478994,0.0322987,0.00717062,0.0336368,-0.00612801,1.38631,0.0247217,0.0210237,1392,365,6.45667,61.7505
175,659,6.41833,-61.3805,-0.0059794,0.0324593,0.00724432,0.0337793,-0.00729936,1.39057,0.025306,0.0437546,1399,365,6.41834,61.3805
182,659,6.25732,-61.0894,0,0,0,0,0,0,0,-1,1406,365,6.25731,61.0894
189,659,6.22852,-60.4939,0,0,0,0,0,0,0,-1,1413,365,6.22848,60.4939
196,659,2.41248,-13.4371,0,0,0,0,0,0,0,-1,1420,365,2.41243,13.4371
203,659,2.38623,-12.2163,0,0,0,0,0,0,0,-1,1427,365,2.38617,12.2163
210,659,2.20789,-13.9792,0,0,0,0,0,0,0,-1,1434,365,2.20794,13.9792
217,659,2.24121,-13.487,0,0,0,0,0,0,0,-1,1441,365,2.24116,13.487
224,659,2.3479,-15.2926,0,0,0,0,0,0,0,-1,1448,365,2.34793,15.2926
231,659,2.47974,-17.8629,0,0,0,0,0,0,0,-1,1455,365,2.47976,17.8628
238,659,3.57886,-21.1258,0,0,0,0,0,0,0,-1,1462,365,3.57889,21.1258
245,659,3.29883,-25.0283,0,0,0,0,0,0,0,-1,1469,365,3.29889,25.0283
252,659,2.81909,-24.1604,0,0,0,0,0,0,0,-1,1476,365,2.81905,24.1604
259,659,2.33069,-3.36703,0,0,0,0,0,0,0,-1,1483,365,2.33073,3.36702
266,659,3.40918,-35.2544,0,0,0,0,0,0,0,-1,1490,365,3.40913,35.2544
273,659,4.45557,-42.3683,0,0,0,0,0,0,0,-1,1497,365,4.45554,42.3683
280,659,4.87903,-41.4995,0,0,0,0,0,0,0,-1,1504,365,4.87898,41.4995
287,659,1.09851,-23.7787,0,0,0,0,0,0,0,-1,1511,365,1.09847,23.7787
294,659,0.115601,-24.0352,0,0,0,0,0,0,0,-1,1518,365,0.115612,24.0352
301,659,-1.21362,-22.6162,0,0,0,0,0,0,0,-1,1525,365,-1.21358,22.6162
308,659,-2.32605,-21.2737,0,0,0,0,0,0,0,-1,1532,365,-2.32606,21.2737
315,659,-3.69629,-19.8803,0,0,0,0,0,0,0,-1,1539,365,-3.69631,19.8803
322,659,-4.9646,-18.5258,0,0,0,0,0,0,0,-1,1546,365,-4.96464,18.5257
329,659,-7.67749,-23.0449,0,0,0,0,0,0,0,-1,1553,365,-7.67745,23.0449
336,659,-7.71436,-22.4188,0,0,0,0,0,0,0,-1,1560,365,-7.71432,22.4188
343,659,0,0,0,0,0,0,0,0,0,-1,1567,365,0,0
350,659,0,0,0,0,0,0,0,0,0,-1,1574,365,0,0
357,659,0,0,0,0,0,0,0,0,0,-1,1581,365,0,0
364,659,0,0,0,0,0,0,0,0,0,-1,1588,365,0,0
371,659,0,0,0,0,0,0,0,0,0,-1,1595,365,0,0
378,659,0,0,0,0,0,0,0,0,0,-1,1602,365,0,0
385,659,0,0,0,0,0,0,0,0,0,-1,1609,365,0,0
392,659,0,0,0,0,0,0,0,0,0,-1,1616,365,0,0
399,659,0,0,0,0,0,0,0,0,0,-1,1623,365,0,0
406,659,0,0,0,0,0,0,0,0,0,-1,1630,365,0,0
413,659,0,0,0,0,0,0,0,0,0,-1,1637,365,0,0
420,659,0,0,0,0,0,0,0,0,0,-1,1644,365,0,0
427,659,0,0,0,0,0,0,0,0,0,-1,1651,365,0,0
434,659,0,0,0,0,0,0,0,0,0,-1,1658,365,0,0
441,659,0,0,0,0,0,0,0,0,0,-1,1665,365,0,0
448,659,0,0,0,0,0,0,0,0,0,-1,1672,365,0,0
455,659,0,0,0,0,0,0,0,0,0,-1,1679,365,0,0
462,659,0,0,0,0,0,0,0,0,0,-1,1686,365,0,0
469,659,0,0,0,0,0,0,0,0,0,-1,1693,365,0,0
476,659,0,0,0,0,0,0,0,0,0,-1,1700,365,0,0
483,659,0,0,0,0,0,0,0,0,0,-1,1707,365,0,0
490,659,0,0,0,0,0,0,0,0,0,-1,1714,365,0,0
497,659,0,0,0,0,0,0,0,0,0,-1,1721,365,0,0
504,659,0,0,0,0,0,0,0,0,0,-1,1728,365,0,0
511,659,0,0,0,0,0,0,0,0,0,-1,1735,365,0,0
518,659,0,0,0,0,0,0,0,0,0,-1,1742,365,0,0
525,659,0,0,0,0,0,0,0,0,0,-1,1749,365,0,0
532,659,0,0,0,0,0,0,0,0,0,-1,1756,365,0,0
539,659,0,0,0,0,0,0,0,0,0,-1,1763,365,0,0
546,659,0,0,0,0,0,0,0,0,0,-1,1770,365,0,0
553,659,0,0,0,0,0,0,0,0,0,-1,1777,365,0,0
560,659,0,0,0,0,0,0,0,0,0,-1,1784,365,0,0
567,659,0,0,0,0,0,0,0,0,0,-1,1791,365,0,0
574,659,0,0,0,0,0,0,0,0,0,-1,1798,365,0,0
581,659,0,0,0,0,0,0,0,0,0,-1,1805,365,0,0
588,659,0,0,0,0,0,0,0,0,0,-1,1812,365,0,0
595,659,0,0,0,0,0,0,0,0,0,-1,1819,365,0,0
602,659,0,0,0,0,0,0,0,0,0,-1,1826,365,0,0
609,659,0,0,0,0,0,0,0,0,0,-1,1833,365,0,0
616,659,0,0,0,0,0,0,0,0,0,-1,1840,365,0,0
623,659,0,0,0,0,0,0,0,0,0,-1,1847,365,0,0
630,659,0,0,0,0,0,0,0,0,0,-1,1854,365,0,0
637,659,0,0,0,0,0,0,0,0,0,-1,1861,365,0,0
644,659,0,0,0,0,0,0,0,0,0,-1,1868,365,0,0
651,659,0,0,0,0,0,0,0,0,0,-1,1875,365,0,0
658,659,0,0,0,0,0,0,0,0,0,-1,1882,365,0,0
665,659,0,0,0,0,0,0,0,0,0,-1,1889,365,0,0
672,659,0,0,0,0,0,0,0,0,0,-1,1896,365,0,0
679,659,0,0,0,0,0,0,0,0,0,-1,1903,365,0,0
686,659,0,0,0,0,0,0,0,0,0,-1,1910,365,0,0
693,659,0,0,0,0,0,0,0,0,0,-1,1917,365,0,0
700,659,0,0,0,0,0,0,0,0,0,-1,1924,365,0,0
707,659,0,0,0,0,0,0,0,0,0,-1,1931,365,0,0
714,659,0,0,0,0,0,0,0,0,0,-1,1938,365,0,0
721,659,0,0,0,0,0,0,0,0,0,-1,1945,365,0,0
728,659,0,0,0,0,0,0,0,0,0,-1,1952,365,0,0
735,659,0,0,0,0,0,0,0,0,0,-1,1959,365,0,0
742,659,0,0,0,0,0,0,0,0,0,-1,1966,365,0,0
749,659,0,0,0,0,0,0,0,0,0,-1,1973,365,0,0
756,659,0,0,0,0,0,0,0,0,0,-1,1980,365,0,0
763,659,0,0,0,0,0,0,0,0,0,-1,1987,365,0,0
770,659,0,0,0,0,0,0,0,0,0,-1,1994,365,0,0
777,659,0,0,0,0,0,0,0,0,0,-1,2001,365,0,0
784,659,0,0,0,0,0,0,0,0,0,-1,2008,365,0,0
791,659,0,0,0,0,0,0,0,0,0,-1,2015,365,0,0
798,659,0,0,0,0,0,0,0,0,0,-1,2022,365,0,0
805,659,0,0,0,0,0,0,0,0,0,-1,2029,365,0,0
812,659,0,0,0,0,0,0,0,0,0,-1,2036,365,0,0
-700,652,0,0,0,0,0,0,0,0,0,-1,524,372,0,0
-693,652,0,0,0,0,0,0,0,0,0,-1,531,372,0,0
-686,652,0,0,0,0,0,0,0,0,0,-1,538,372,0,0
-679,652,0,0,0,0,0,0,0,0,0,-1,545,372,0,0
-672,652,0,0,0,0,0,0,0,0,0,-1,552,372,0,0
-665,652,0,0,0,0,0,0,0,0,0,-1,559,372,0,0
-658,652,0,0,0,0,0,0,0,0,0,-1,566,372,0,0
-651,652,0,0,0,0,0,0,0,0,0,-1,573,372,0,0
-644,652,0,0,0,0,0,0,0,0,0,-1,580,372,0,0
-637,652,0,0,0,0,0,0,0,0,0,-1,587,372,0,0
-630,652,0,0,0,0,0,0,0,0,0,-1,594,372,0,0
-623,652,0,0,0,0,0,0,0,0,0,-1,601,372,0,0
-616,652,0,0,0,0,0,0,0,0,0,-1,608,372,0,0
-609,652,0,0,0,0,0,0,0,0,0,-1,615,372,0,0
-602,652,0,0,0,0,0,0,0,0,0,-1,622,372,0,0
-595,652,0,0,0,0,0,0,0,0,0,-1,629,372,0,0
-588,652,0,0,0,0,0,0,0,0,0,-1,636,372,0,0
-581,652,0,0,0,0,0,0,0,0,0,-1,643,372,0,0
-574,652,0,0,0,0,0,0,0,0,0,-1,650,372,0,0
-567,652,0,0,0,0,0,0,0,0,0,-1,657,372,0,0
-560,652,0,0,0,0,0,0,0,0,0,-1,664,372,0,0
-553,652,0,0,0,0,0,0,0,0,0,-1,671,372,0,0
-546,652,0,0,0,0,0,0,0,0,0,-1,678,372,0,0
-539,652,0,0,0,0,0,0,0,0,0,-1,685,372,0,0
-532,652,0,0,0,0,0,0,0,0,0,-1,692,372,0,0
-525,652,0,0,0,0,0,0,0,0,0,-1,699,372,0,0
-518,652,0,0,0,0,0,0,0,0,0,-1,706,372,0,0
-511,652,0,0,0,0,0,0,0,0,0,-1,713,372,0,0
-504,652,0,0,0,0,0,0,0,0,0,-1,720,372,0,0
-497,652,0,0,0,0,0,0,0,0,0,-1,727,372,0,0
-490,652,0,0,0,0,0,0,0,0,0,-1,734,372,0,0
-483,652,0,0,0,0,0,0,0,0,0,-1,741,372,0,0
-476,652,0,0,0,0,0,0,0,0,0,-1,748,372,0,0
-469,652,0,0,0,0,0,0,0,0,0,-1,755,372,0,0
-462,652,0,0,0,0,0,0,0,0,0,-1,762,372,0,0
-455,652,0,0,0,0,0,0,0,0,0,-1,769,372,0,0
-448,652,0,0,0,0,0,0,0,0,0,-1,776,372,0,0
-441,652,0,0,0,0,0,0,0,0,0,-1,783,372,0,0
-434,652,0,0,0,0,0,0,0,0,0,-1,790,372,0,0
-427,652,0,0,0,0,0,0,0,0,0,-1,797,372,0,0
-420,652,0,0,0,0,0,0,0,0,0,-1,804,372,0,0
-413,652,0,0,0,0,0,0,0,0,0,-1,811,372,0,0
-406,652,0,0,0,0,0,0,0,0,0,-1,818,372,0,0
-399,652,0,0,0,0,0,0,0,0,0,-1,825,372,0,0
-392,652,0,0,0,0,0,0,0,0,0,-1,832,372,0,0
-385,652,0,0,0,0,0,0,0,0,0,-1,839,372,0,0
-378,652,0,0,0,0,0,0,0,0,0,-1,846,372,0,0
-371,652,0,0,0,0,0,0,0,0,0,-1,853,372,0,0
-364,652,0,0,0,0,0,0,0,0,0,-1,860,372,0,0
-357,652,0,0,0,0,0,0,0,0,0,-1,867,372,0,0
-350,652,0,0,0,0,0,0,0,0,0,-1,874,372,0,0
-343,652,0,0,0,0,0,0,0,0,0,-1,881,372,0,0
-336,652,0,0,0,0,0,0,0,0,0,-1,888,372,0,0
-329,652,0,0,0,0,0,0,0,0,0,-1,895,372,0,0
-322,652,0,0,0,0,0,0,0,0,0,-1,902,372,0,0
-315,652,0,0,0,0,0,0,0,0,0,-1,909,372,0,0
-308,652,0,0,0,0,0,0,0,0,0,-1,916,372,0,0
-301,652,0,0,0,0,0,0,0,0,0,-1,923,372,0,0
-294,652,0,0,0,0,0,0,0,0,0,-1,930,372,0,0
-287,652,0,0,0,0,0,0,0,0,0,-1,937,372,0,0
-280,652,0,0,0,0,0,0,0,0,0,-1,944,372,0,0
-273,652,0,0,0,0,0,0,0,0,0,-1,951,372,0,0
-266,652,0,0,0,0,0,0,0,0,0,-1,958,372,0,0
-259,652,0,0,0,0,0,0,0,0,0,-1,965,372,0,0
-252,652,0,0,0,0,0,0,0,0,0,-1,972,372,0,0
-245,652,0,0,0,0,0,0,0,0,0,-1,979,372,0,0
-238,652,0,0,0,0,0,0,0,0,0,-1,986,372,0,0
-231,652,8.79358,-27.1656,0,0,0,0,0,0,0,-1,993,372,8.79357,27.1656
-224,652,8.84552,-27.675,0,0,0,0,0,0,0,-1,1000,372,8.84555,27.675
-217,652,9.03113,-27.7474,0,0,0,0,0,0,0,-1,1007,372,9.0311,27.7474
-210,652,9.72803,-30.4624,0,0,0,0,0,0,0,-1,1014,372,9.72805,30.4624
-203,652,7.2677,-26.0732,0,0,0,0,0,0,0,-1,1021,372,7.26775,26.0732
-196,652,5.90686,-26.957,0,0,0,0,0,0,0,-1,1028,372,5.9068,26.957
-189,652,6.21326,-28.3035,0,0,0,0,0,0,0,-1,1035,372,6.21331,28.3035
-182,652,6.45068,-29.9377,0,0,0,0,0,0,0,-1,1042,372,6.45074,29.9377
-175,652,6.72559,-31.6948,0,0,0,0,0,0,0,-1,1049,372,6.72563,31.6948
-168,652,7.08533,-32.8669,0,0,0,0,0,0,0,-1,1056,372,7.08532,32.8669
-161,652,7.85291,-37.3545,0,0,0,0,0,0,0,-1,1063,372,7.85294,37.3545
-154,652,7.54639,-37.9586,0,0,0,0,0,0,0,-1,1070,372,7.54642,37.9586
-147,652,7.85571,-42.3712,0,0,0,0,0,0,0,-1,1077,372,7.8557,42.3712
-140,652,5.6842,-33.9781,0,0,0,0,0,0,0,-1,1084,372,5.68421,33.9781
-133,652,6.3009,-35.2887,0,0,0,0,0,0,0,-1,1091,372,6.30093,35.2887
-126,652,5.86841,-37.0981,0,0,0,0,0,0,0,-1,1098,372,5.86845,37.0981
-119,652,8.18018,-49.52,0,0,0,0,0,0,0,-1,1105,372,8.18015,49.52
-112,652,7.81982,-48.4793,0,0,0,0,0,0,0,-1,1112,372,7.81981,48.4793
-105,652,6.63855,-39.9965,0,0,0,0,0,0,0,-1,1119,372,6.63852,39.9965
-98,652,5.84302,-35.2455,0,0,0,0,0,0,0,-1,1126,372,5.84307,35.2455
-91,652,5.66296,-32.9003,0,0,0,0,0,0,0,-1,1133,372,5.66297,32.9003
-84,652,5.46057,-34.9186,0,0,0,0,0,0,0,-1,1140,372,5.46057,34.9186
-77,652,8.79004,-59.7303,0,0,0,0,0,0,0,-1,1147,372,8.7901,59.7303
-70,652,8.71204,-60.3465,0,0,0,0,0,0,0,-1,1154,372,8.71207,60.3465
-63,652,8.64502,-60.7801,0,0,0,0,0,0,0,-1,1161,372,8.64507,60.7801
-56,652,8.48865,-61.2424,0,0,0,0,0,0,0,-1,1168,372,8.4886,61.2424
-49,652,8.50061,-61.6674,-0.00436364,0.0192074,-0.00453055,0.0200482,-0.00520446,-1.3873,0.0153964,0.0379181,1175,372,8.5006,61.6675
-42,652,8.40723,-61.972,-0.00359749,0.021459,-0.00415281,0.0221293,-0.00426783,-1.41076,0.0163621,0.0132013,1182,372,8.4072,61.972
-35,652,8.36353,-62.3185,-0.00306075,0.0239124,-0.00385115,0.0244515,-0.00359983,-1.43172,0.0176239,0.0104634,1189,372,8.36354,62.3184
-28,652,8.30725,-62.6631,-0.00272351,0.0253851,-0.00367419,0.0258574,-0.00319584,-1.44294,0.0183963,0.00884072,1196,372,8.30722,62.6631
-21,652,8.22961,-62.9861,-0.0026552,0.0267102,-0.00333148,0.0270834,-0.00302841,-1.45924,0.0191451,0.0088503,1203,372,8.22958,62.9861
-14,652,8.16479,-63.2662,-0.00264186,0.0277329,-0.00296306,0.0280192,-0.00292821,-1.47446,0.0197281,0.0110784,1210,372,8.16477,63.2662
-7,652,8.09265,-63.5462,-0.00289956,0.0283512,-0.00254569,0.0285572,-0.00310558,-1.49005,0.0201533,0.0141869,1217,372,8.0927,63.5462
0,652,8.02466,-63.7732,-0.00329037,0.0286259,-0.00203329,0.0287549,-0.00341938,-1.50743,0.0204054,0.0139422,1224,372,8.02462,63.7731
7,652,7.99048,-63.9144,-0.00367527,0.0288376,-0.00139867,0.0288977,-0.00373533,-1.52788,0.0206233,0.0143974,1231,372,7.99052,63.9144
14,652,7.95642,-64.0877,-0.0038047,0.029312,-0.000552639,0.0293212,-0.00381392,-1.55411,0.0209349,0.0126201,1238,372,7.95647,64.0877
21,652,7.87903,-64.3067,-0.00374341,0.0296626,0.000234739,0.0296643,-0.00374506,1.56377,0.0211354,0.0110053,1245,372,7.87901,64.3067
28,652,7.83142,-64.4752,-0.00338008,0.0299742,0.00103556,0.0300063,-0.0034122,1.53979,0.0212332,0.0101526,1252,372,7.83136,64.4752
35,652,7.78809,-64.5711,-0.00270424,0.0301379,0.00178075,0.0302342,-0.00280051,1.51679,0.0211515,0.0113768,1259,372,7.7881,64.5711
42,652,7.73047,-64.6501,-0.0018069,0.0296377,0.00270101,0.029868,-0.00203722,1.48573,0.0206246,0.0125362,1266,372,7.73046,64.6501
49,652,7.71436,-64.7118,-0.000829932,0.0294534,0.00363134,0.0298828,-0.00125929,1.45311,0.0203546,0.0155065,1273,372,7.7144,64.7118
56,652,7.69104,-64.7307,0.000540397,0.0290297,0.00426346,0.029654,-8.39541e-05,1.42539,0.0197974,0.0174495,1280,372,7.69106,64.7306
63,652,7.61316,-64.7992,0.00207747,0.0283116,0.00474651,0.0291439,0.0012451,1.3972,0.0190278,0.0203094,1287,372,7.61315,64.7992
70,652,7.54272,-64.7579,0.00348563,0.0271937,0.00526151,0.0283089,0.00237041,1.36193,0.0181342,0.0179333,1294,372,7.54277,64.7579
77,652,7.46301,-64.7459,0.00468914,0.0263291,0.00582395,0.027797,0.00322131,1.3239,0.0175563,0.0168803,1301,372,7.46302,64.7459
84,652,7.47888,-64.6894,0.00569391,0.0249986,0.00614003,0.026786,0.00390651,1.28752,0.0167081,0.0145874,1308,372,7.47884,64.6894
91,652,7.40979,-64.6582,0.00602441,0.0234435,0.00630112,0.0254838,0.00398406,1.25764,0.0158292,0.0170941,1315,372,7.40982,64.6582
98,652,7.38135,-64.5367,0.00606535,0.0222681,0.0064605,0.0245287,0.00380477,1.2342,0.0152433,0.0130968,1322,372,7.38138,64.5367
105,652,7.32483,-64.3626,0.0057791,0.0215064,0.00652107,0.0238584,0.00342701,1.22463,0.0148953,0.011594,1329,372,7.32479,64.3626
112,652,7.25623,-64.1676,0.0051869,0.0208614,0.00642495,0.0231584,0.00288992,1.22745,0.0145714,0.0104483,1336,372,7.25617,64.1676
119,652,7.19824,-63.9641,0.00412941,0.0199001,0.00615198,0.0220161,0.00201349,1.23953,0.0140544,0.0114659,1343,372,7.19825,63.9641
126,652,7.12061,-63.7236,0.00275642,0.0198006,0.00594337,0.0216684,0.000888629,1.2663,0.0141587,0.0135532,1350,372,7.12058,63.7236
133,652,7.04846,-63.4781,0.00125094,0.0201301,0.00571372,0.0217247,-0.000343619,1.29865,0.014599,0.0136307,1357,372,7.04851,63.4781
140,652,6.99365,-63.2304,-0.00026275,0.0210243,0.00554187,0.0223806,-0.0016191,1.33077,0.0154884,0.0103628,1364,372,6.99363,63.2304
147,652,6.94788,-62.9471,-0.00198151,0.0226519,0.00532783,0.0237549,-0.00308446,1.36666,0.0169585,0.0104001,1371,372,6.94784,62.9471
154,652,6.89075,-62.6246,-0.0030874,0.0235339,0.00499435,0.02444,-0.00399353,1.39132,0.0177747,0.0104089,1378,372,6.89078,62.6246
161,652,6.81787,-62.2728,-0.00405695,0.0243254,0.0050222,0.0251878,-0.00491941,1.40073,0.0186492,0.0121849,1385,372,6.8179,62.2728
168,652,6.75659,-61.8886,-0.00501359,0.0246673,0.00515818,0.0255382,-0.00588447,1.40354,0.0192885,0.0133915,1392,372,6.75661,61.8886
175,652,6.69702,-61.4892,-0.00558319,0.0246051,0.00550975,0.0255792,-0.00655735,1.3958,0.0196076,0.0141136,1399,372,6.69706,61.4892
182,652,6.61621,-61.1134,-0.00618625,0.0242155,0.00587409,0.025311,-0.00728174,1.38642,0.0197538,0.0204967,1406,372,6.61625,61.1134
189,652,6.57336,-60.6829,-0.0066444,0.0235113,0.00630166,0.0247752,-0.00790829,1.37286,0.0196896,0.0323278,1413,372,6.5734,60.6829
196,652,6.50891,-60.2325,0,0,0,0,0,0,0,-1,1420,372,6.50885,60.2325
203,652,6.4458,-59.7272,0,0,0,0,0,0,0,-1,1427,372,6.44584,59.7272
210,652,6.43994,-59.1021,0,0,0,0,0,0,0,-1,1434,372,6.44,59.1021
217,652,5.88513,-53.8912,0,0,0,0,0,0,0,-1,1441,372,5.88513,53.8913
224,652,3.63794,-31.2791,0,0,0,0,0,0,0,-1,1448,372,3.63799,31.2791
231,652,3.83936,-30.4812,0,0,0,0,0,0,0,-1,1455,372,3.8393,30.4812
238,652,4.42358,-36.4103,0,0,0,0,0,0,0,-1,1462,372,4.4236,36.4103
245,652,4.53296,-41.8512,0,0,0,0,0,0,0,-1,1469,372,4.5329,41.8512
252,652,5.00793,-47.7065,0,0,0,0,0,0,0,-1,1476,372,5.00791,47.7064
259,652,3.44922,-31.2655,0,0,0,0,0,0,0,-1,1483,372,3.44921,31.2655
266,652,5.5387,-50.3915,0,0,0,0,0,0,0,-1,1490,372,5.53875,50.3915
273,652,5.44946,-53.7971,0,0,0,0,0,0,0,-1,1497,372,5.44951,53.7971
280,652,4.05066,-24.6993,0,0,0,0,0,0,0,-1,1504,372,4.05066,24.6993
287,652,3.0979,-23.6951,0,0,0,0,0,0,0,-1,1511,372,3.09796,23.6951
294,652,2.06946,-24.1711,0,0,0,0,0,0,0,-1,1518,372,2.0694,24.1711
301,652,0.770264,-23.0697,0,0,0,0,0,0,0,-1,1525,372,0.770217,23.0697
308,652,-0.706299,-22.1083,0,0,0,0,0,0,0,-1,1532,372,-0.706291,22.1083
315,652,-1.65198,-21.8662,0,0,0,0,0,0,0,-1,1539,372,-1.65204,21.8662
322,652,-2.66101,-21.728,0,0,0,0,0,0,0,-1,1546,372,-2.66097,21.728
329,652,-7.12329,-21.7065,0,0,0,0,0,0,0,-1,1553,372,-7.12334,21.7065
336,652,-3.56519,-22.3688,0,0,0,0,0,0,0,-1,1560,372,-3.56517,22.3688
343,652,-3.58069,-21.9185,0,0,0,0,0,0,0,-1,1567,372,-3.58069,21.9185
350,652,5.28394,-25.6715,0,0,0,0,0,0,0,-1,1574,372,5.28393,25.6715
357,652,0,0,0,0,0,0,0,0,0,-1,1581,372,0,0
364,652,0,0,0,0,0,0,0,0,0,-1,1588,372,0,0
371,652,0,0,0,0,0,0,0,0,0,-1,1595,372,0,0
378,652,0,0,0,0,0,0,0,0,0,-1,1602,372,0,0
385,652,0,0,0,0,0,0,0,0,0,-1,1609,372,0,0
392,652,0,0,0,0,0,0,0,0,0,-1,1616,372,0,0
399,652,0,0,0,0,0,0,0,0,0,-1,1623,372,0,0
406,652,0,0,0,0,0,0,0,0,0,-1,1630,372,0,0
413,652,0,0,0,0,0,0,0,0,0,-1,1637,372,0,0
420,652,0,0,0,0,0,0,0,0,0,-1,1644,372,0,0
427,652,0,0,0,0,0,0,0,0,0,-1,1651,372,0,0
434,652,0,0,0,0,0,0,0,0,0,-1,1658,372,0,0
441,652,0,0,0,0,0,0,0,0,0,-1,1665,372,0,0
448,652,0,0,0,0,0,0,0,0,0,-1,1672,372,0,0
455,652,0,0,0,0,0,0,0,0,0,-1,1679,372,0,0
462,652,0,0,0,0,0,0,0,0,0,-1,1686,372,0,0
469,652,0,0,0,0,0,0,0,0,0,-1,1693,372,0,0
476,652,0,0,0,0,0,0,0,0,0,-1,1700,372,0,0
483,652,0,0,0,0,0,0,0,0,0,-1,1707,372,0,0
490,652,0,0,0,0,0,0,0,0,0,-1,1714,372,0,0
497,652,0,0,0,0,0,0,0,0,0,-1,1721,372,0,0
504,652,0,0,0,0,0,0,0,0,0,-1,1728,372,0,0
511,652,0,0,0,0,0,0,0,0,0,-1,1735,372,0,0
518,652,0,0,0,0,0,0,0,0,0,-1,1742,372,0,0
525,652,0,0,0,0,0,0,0,0,0,-1,1749,372,0,0
532,652,0,0,0,0,0,0,0,0,0,-1,1756,372,0,0
539,652,0,0,0,0,0,0,0,0,0,-1,1763,372,0,0
546,652,0,0,0,0,0,0,0,0,0,-1,1770,372,0,0
553,652,0,0,0,0,0,0,0,0,0,-1,1777,372,0,0
560,652,0,0,0,0,0,0,0,0,0,-1,1784,372,0,0
567,652,0,0,0,0,0,0,0,0,0,-1,1791,372,0,0
574,652,0,0,0,0,0,0,0,0,0,-1,1798,372,0,0
581,652,0,0,0,0,0,0,0,0,0,-1,1805,372,0,0
588,652,0,0,0,0,0,0,0,0,0,-1,1812,372,0,0
595,652,0,0,0,0,0,0,0,0,0,-1,1819,372,0,0
602,652,0,0,0,0,0,0,0,0,0,-1,1826,372,0,0
609,652,0,0,0,0,0,0,0,0,0,-1,1833,372,0,0
616,652,0,0,0,0,0,0,0,0,0,-1,1840,372,0,0
623,652,0,0,0,0,0,0,0,0,0,-1,1847,372,0,0
630,652,0,0,0,0,0,0,0,0,0,-1,1854,372,0,0
637,652,0,0,0,0,0,0,0,0,0,-1,1861,372,0,0
644,652,0,0,0,0,0,0,0,0,0,-1,1868,372,0,0
651,652,0,0,0,0,0,0,0,0,0,-1,1875,372,0,0
658,652,0,0,0,0,0,0,0,0,0,-1,1882,372,0,0
665,652,0,0,0,0,0,0,0,0,0,-1,1889,372,0,0
672,652,0,0,0,0,0,0,0,0,0,-1,1896,372,0,0
679,652,0,0,0,0,0,0,0,0,0,-1,1903,372,0,0
686,652,0,0,0,0,0,0,0,0,0,-1,1910,372,0,0
693,652,0,0,0,0,0,0,0,0,0,-1,1917,372,0,0
700,652,0,0,0,0,0,0,0,0,0,-1,1924,372,0,0
707,652,0,0,0,0,0,0,0,0,0,-1,1931,372,0,0
714,652,0,0,0,0,0,0,0,0,0,-1,1938,372,0,0
721,652,0,0,0,0,0,0,0,0,0,-1,1945,372,0,0
728,652,0,0,0,0,0,0,0,0,0,-1,1952,372,0,0
735,652,0,0,0,0,0,0,0,0,0,-1,1959,372,0,0
742,652,0,0,0,0,0,0,0,0,0,-1,1966,372,0,0
749,652,0,0,0,0,0,0,0,0,0,-1,1973,372,0,0
756,652,0,0,0,0,0,0,0,0,0,-1,1980,372,0,0
763,652,0,0,0,0,0,0,0,0,0,-1,1987,372,0,0
770,652,0,0,0,0,0,0,0,0,0,-1,1994,372,0,0
777,652,0,0,0,0,0,0,0,0,0,-1,2001,372,0,0
784,652,0,0,0,0,0,0,0,0,0,-1,2008,372,0,0
791,652,0,0,0,0,0,0,0,0,0,-1,2015,372,0,0
798,652,0,0,0,0,0,0,0,0,0,-1,2022,372,0,0
805,652,0,0,0,0,0,0,0,0,0,-1,2029,372,0,0
812,652,0,0,0,0,0,0,0,0,0,-1,2036,372,0,0
-700,645,0,0,0,0,0,0,0,0,0,-1,524,379,0,0
-693,645,0,0,0,0,0,0,0,0,0,-1,531,379,0,0
-686,645,0,0,0,0,0,0,0,0,0,-1,538,379,0,0
-679,645,0,0,0,0,0,0,0,0,0,-1,545,379,0,0
-672,645,0,0,0,0,0,0,0,0,0,-1,552,379,0,0
-665,645,0,0,0,0,0,0,0,0,0,-1,559,379,0,0
-658,645,0,0,0,0,0,0,0,0,0,-1,566,379,0,0
-651,645,0,0,0,0,0,0,0,0,0,-1,573,379,0,0
-644,645,0,0,0,0,0,0,0,0,0,-1,580,379,0,0
-637,645,0,0,0,0,0,0,0,0,0,-1,587,379,0,0
-630,645,0,0,0,0,0,0,0,0,0,-1,594,379,0,0
-623,645,0,0,0,0,0,0,0,0,0,-1,601,379,0,0
-616,645,0,0,0,0,0,0,0,0,0,-1,608,379,0,0
-609,645,0,0,0,0,0,0,0,0,0,-1,615,379,0,0
-602,645,0,0,0,0,0,0,0,0,0,-1,622,379,0,0
-595,645,0,0,0,0,0,0,0,0,0,-1,629,379,0,0
-588,645,0,0,0,0,0,0,0,0,0,-1,636,379,0,0
-581,645,0,0,0,0,0,0,0,0,0,-1,643,379,0,0
-574,645,0,0,0,0,0,0,0,0,0,-1,650,379,0,0
-567,645,0,0,0,0,0,0,0,0,0,-1,657,379,0,0
-560,645,0,0,0,0,0,0,0,0,0,-1,664,379,0,0
-553,645,0,0,0,0,0,0,0,0,0,-1,671,379,0,0
-546,645,0,0,0,0,0,0,0,0,0,-1,678,379,0,0
-539,645,0,0,0,0,0,0,0,0,0,-1,685,379,0,0
-532,645,0,0,0,0,0,0,0,0,0,-1,692,379,0,0
-525,645,0,0,0,0,0,0,0,0,0,-1,699,379,0,0
-518,645,0,0,0,0,0,0,0,0,0,-1,706,379,0,0
-511,645,0,0,0,0,0,0,0,0,0,-1,713,379,0,0
-504,645,0,0,0,0,0,0,0,0,0,-1,720,379,0,0
-497,645,0,0,0,0,0,0,0,0,0,-1,727,379,0,0
-490,645,0,0,0,0,0,0,0,0,0,-1,734,379,0,0
-483,645,0,0,0,0,0,0,0,0,0,-1,741,379,0,0
-476,645,0,0,0,0,0,0,0,0,0,-1,748,379,0,0
-469,645,0,0,0,0,0,0,0,0,0,-1,755,379,0,0
-462,645,0,0,0,0,0,0,0,0,0,-1,762,379,0,0
-455,645,0,0,0,0,0,0,0,0,0,-1,769,379,0,0
-448,645,0,0,0,0,0,0,0,0,0,-1,776,379,0,0
-441,645,0,0,0,0,0,0,0,0,0,-1,783,379,0,0
-434,645,0,0,0,0,0,0,0,0,0,-1,790,379,0,0
-427,645,0,0,0,0,0,0,0,0,0,-1,797,379,0,0
-420,645,0,0,0,0,0,0,0,0,0,-1,804,379,0,0
-413,645,0,0,0,0,0,0,0,0,0,-1,811,379,0,0
-406,645,0,0,0,0,0,0,0,0,0,-1,818,379,0,0
-399,645,0,0,0,0,0,0,0,0,0,-1,825,379,0,0
-392,645,0,0,0,0,0,0,0,0,0,-1,832,379,0,0
-385,645,0,0,0,0,0,0,0,0,0,-1,839,379,0,0
-378,645,0,0,0,0,0,0,0,0,0,-1,846,379,0,0
-371,645,0,0,0,0,0,0,0,0,0,-1,853,379,0,0
-364,645,0,0,0,0,0,0,0,0,0,-1,860,379,0,0
-357,645,0,0,0,0,0,0,0,0,0,-1,867,379,0,0
-350,645,0,0,0,0,0,0,0,0,0,-1,874,379,0,0
-343,645,0,0,0,0,0,0,0,0,0,-1,881,379,0,0
-336,645,0,0,0,0,0,0,0,0,0,-1,888,379,0,0
-329,645,0,0,0,0,0,0,0,0,0,-1,895,379,0,0
-322,645,0,0,0,0,0,0,0,0,0,-1,902,379,0,0
-315,645,0,0,0,0,0,0,0,0,0,-1,909,379,0,0
-308,645,0,0,0,0,0,0,0,0,0,-1,916,379,0,0
-301,645,0,0,0,0,0,0,0,0,0,-1,923,379,0,0
-294,645,0,0,0,0,0,0,0,0,0,-1,930,379,0,0
-287,645,0,0,0,0,0,0,0,0,0,-1,937,379,0,0
-280,645,0,0,0,0,0,0,0,0,0,-1,944,379,0,0
-273,645,0,0,0,0,0,0,0,0,0,-1,951,379,0,0
-266,645,0,0,0,0,0,0,0,0,0,-1,958,379,0,0
-259,645,0,0,0,0,0,0,0,0,0,-1,965,379,0,0
-252,645,2.95691,-26.9133,0,0,0,0,0,0,0,-1,972,379,2.9569,26.9133
-245,645,2.73169,-27.0215,0,0,0,0,0,0,0,-1,979,379,2.73172,27.0215
-238,645,2.6665,-26.9464,0,0,0,0,0,0,0,-1,986,379,2.66649,26.9464
-231,645,7.26807,-29.1054,0,0,0,0,0,0,0,-1,993,379,7.26806,29.1054
-224,645,7.69073,-29.5737,0,0,0,0,0,0,0,-1,1000,379,7.69071,29.5737
-217,645,8.65485,-33.4136,0,0,0,0,0,0,0,-1,1007,379,8.65487,33.4136
-210,645,9.21594,-32.5157,0,0,0,0,0,0,0,-1,1014,379,9.21591,32.5156
-203,645,9.77698,-31.6176,0,0,0,0,0,0,0,-1,1021,379,9.77696,31.6177
-196,645,10.2664,-29.7741,0,0,0,0,0,0,0,-1,1028,379,10.2664,29.7741
-189,645,5.88062,-28.2191,0,0,0,0,0,0,0,-1,1035,379,5.88062,28.2191
-182,645,6.34167,-29.2525,0,0,0,0,0,0,0,-1,1042,379,6.3417,29.2525
-175,645,6.36462,-35.5586,0,0,0,0,0,0,0,-1,1049,379,6.3646,35.5586
-168,645,7.19116,-39.5785,0,0,0,0,0,0,0,-1,1056,379,7.19115,39.5785
-161,645,7.22083,-37.6093,0,0,0,0,0,0,0,-1,1063,379,7.22085,37.6094
-154,645,7.42102,-41.6806,0,0,0,0,0,0,0,-1,1070,379,7.42105,41.6806
-147,645,8.89526,-50.6488,0,0,0,0,0,0,0,-1,1077,379,8.89521,50.6488
-140,645,8.91858,-54.3323,0,0,0,0,0,0,0,-1,1084,379,8.91858,54.3323
-133,645,9.09009,-54.7326,0,0,0,0,0,0,0,-1,1091,379,9.09004,54.7326
-126,645,8.93811,-55.9454,0,0,0,0,0,0,0,-1,1098,379,8.93811,55.9454
-119,645,8.78174,-56.4727,0,0,0,0,0,0,0,-1,1105,379,8.78171,56.4727
-112,645,8.65625,-57.1833,0,0,0,0,0,0,0,-1,1112,379,8.65628,57.1833
-105,645,8.57947,-57.8867,0,0,0,0,0,0,0,-1,1119,379,8.57948,57.8867
-98,645,8.48572,-58.4398,0,0,0,0,0,0,0,-1,1126,379,8.48573,58.4398
-91,645,8.36304,-58.9917,0,0,0,0,0,0,0,-1,1133,379,8.363,58.9917
-84,645,8.32336,-59.5059,0,0,0,0,0,0,0,-1,1140,379,8.32335,59.5059
-77,645,8.39893,-59.9577,-0.00765264,0.00509265,-0.00253069,0.00557675,-0.00813674,-1.38179,0.00796334,0.0446783,1147,379,8.39889,59.9577
-70,645,8.2843,-60.403,-0.00760979,0.005524,-0.00226189,0.00590263,-0.00798842,-1.40494,0.00805008,0.0169858,1154,379,8.28428,60.403
-63,645,8.22998,-60.8149,-0.00632154,0.00835913,-0.00289384,0.00890897,-0.00687137,-1.38303,0.00913607,0.0140259,1161,379,8.22994,60.8149
-56,645,8.172,-61.2112,-0.00496119,0.0105298,-0.00338147,0.0112358,-0.00566715,-1.36498,0.00993386,0.0148121,1168,379,8.17198,61.2112
-49,645,8.13428,-61.6255,-0.00399534,0.0121899,-0.00341801,0.0128821,-0.00468755,-1.37098,0.0105052,0.0121416,1175,379,8.13423,61.6255
-42,645,8.06689,-61.9936,-0.00334451,0.0136333,-0.00312065,0.0141888,-0.00389994,-1.39466,0.0109922,0.0113083,1182,379,8.0669,61.9936
-35,645,8.03369,-62.3623,-0.00284556,0.0153327,-0.00286718,0.0157742,-0.00328706,-1.41801,0.0117659,0.0114526,1189,379,8.03373,62.3623
-28,645,7.9823,-62.7357,-0.00238418,0.0163773,-0.00273624,0.0167682,-0.00277509,-1.42889,0.0122094,0.00974454,1196,379,7.98233,62.7357
-21,645,7.92249,-63.0254,-0.00205295,0.017301,-0.00252835,0.0176258,-0.00237779,-1.44301,0.012618,0.0113268,1203,379,7.92251,63.0254
-14,645,7.89893,-63.3155,-0.00181208,0.0179949,-0.00228671,0.0182555,-0.00207265,-1.45733,0.0129167,0.0110735,1210,379,7.89895,63.3155
-7,645,7.87622,-63.6154,-0.00166582,0.0183063,-0.00206772,0.0185181,-0.00187764,-1.46871,0.0130165,0.0145478,1217,379,7.87625,63.6154
0,645,7.83228,-63.8008,-0.00160529,0.0183371,-0.00180391,0.018499,-0.00176715,-1.48131,0.0129619,0.0272959,1224,379,7.83227,63.8007
7,645,7.76941,-63.9867,-0.00159769,0.0183078,-0.00147736,0.0184168,-0.00170674,-1.49712,0.0128845,0.0189407,1231,379,7.76945,63.9866
14,645,7.74573,-64.144,-0.00151748,0.0185531,-0.00092816,0.018596,-0.00156031,-1.52468,0.0129488,0.0177718,1238,379,7.74568,64.144
21,645,7.70361,-64.3325,-0.00137657,0.0187832,-0.00036291,0.0187898,-0.0013831,-1.5528,0.0130121,0.0114622,1245,379,7.70367,64.3325
28,645,7.69214,-64.506,-0.00105073,0.0190453,0.000260999,0.0190487,-0.00105412,1.55781,0.0130647,0.0100007,1252,379,7.69216,64.506
35,645,7.67249,-64.6235,-0.000572634,0.0193073,0.000877671,0.019346,-0.000611308,1.52676,0.0131058,0.00993228,1259,379,7.67249,64.6235
42,645,7.64832,-64.7161,7.89944e-06,0.0191609,0.00165865,0.0193035,-0.000134678,1.48505,0.0129141,0.00996491,1266,379,7.64836,64.7161
49,645,7.66199,-64.7686,0.000542736,0.019355,0.002425,0.0196625,0.000235167,1.44464,0.0130307,0.0136009,1273,379,7.66195,64.7686
56,645,7.66284,-64.7813,0.00124795,0.0194586,0.00297246,0.0199315,0.000775044,1.41302,0.013037,0.0135853,1280,379,7.66288,64.7813
63,645,7.62524,-64.834,0.00206721,0.0193705,0.00339673,0.0200134,0.00142431,1.38374,0.0128938,0.0126648,1287,379,7.62521,64.834
70,645,7.56091,-64.8369,0.00278703,0.0189306,0.00376765,0.0197666,0.00195102,1.35244,0.012578,0.0165255,1294,379,7.56087,64.8369
77,645,7.55811,-64.7996,0.00327833,0.018654,0.00411677,0.0196869,0.00224546,1.32498,0.0124438,0.0190856,1301,379,7.55813,64.7996
84,645,7.55103,-64.718,0.00362963,0.0178719,0.00417696,0.0190065,0.00249501,1.30556,0.0119267,0.0143428,1308,379,7.55106,64.7181
91,645,7.47888,-64.6913,0.00355275,0.0167743,0.00404351,0.0179129,0.00241419,1.29632,0.0112241,0.0169524,1315,379,7.47883,64.6913
98,645,7.46216,-64.5587,0.00325231,0.015943,0.00395962,0.0170771,0.00211822,1.29185,0.0107485,0.0145825,1322,379,7.46221,64.5587
105,645,7.44556,-64.39,0.00281648,0.0154122,0.00384623,0.0164938,0.00173488,1.29666,0.0104656,0.0110901,1329,379,7.4456,64.39
112,645,7.40491,-64.2115,0.00222549,0.0149494,0.00364814,0.0159211,0.00125372,1.31047,0.0102218,0.00920661,1336,379,7.40493,64.2115
119,645,7.38831,-64.0085,0.00137075,0.0141176,0.00331658,0.0149289,0.000559452,1.33089,0.00977144,0.00942839,1343,379,7.38836,64.0085
126,645,7.33264,-63.7847,0.000388371,0.0139163,0.00310633,0.0145955,-0.000290816,1.35554,0.00982871,0.012507,1350,379,7.33268,63.7847
133,645,7.29187,-63.5582,-0.000655823,0.0140641,0.00295377,0.0146347,-0.00122642,1.37997,0.0101899,0.0136408,1357,379,7.29183,63.5582
140,645,7.25659,-63.2935,-0.00159193,0.0146311,0.00293324,0.0151452,-0.002106,1.3973,0.010867,0.0127679,1364,379,7.25662,63.2935
147,645,7.20825,-62.9972,-0.00255804,0.0158019,0.00295763,0.0162666,-0.00302273,1.41496,0.0119798,0.0135146,1371,379,7.20824,62.9972
154,645,7.19824,-62.6734,-0.00300071,0.0164987,0.00296744,0.0169403,-0.0034423,1.42307,0.0125987,0.012636,1378,379,7.19821,62.6734
161,645,7.1532,-62.3292,-0.00338277,0.0171459,0.0031986,0.0176327,-0.00386961,1.41975,0.0132349,0.0154091,1385,379,7.15318,62.3292
168,645,7.10437,-61.9678,-0.00386975,0.0174901,0.00349528,0.0180476,-0.00442716,1.41265,0.0137471,0.0175709,1392,379,7.10443,61.9678
175,645,7.08105,-61.5836,-0.0041526,0.017569,0.00390548,0.0182498,-0.00483345,1.3982,0.0140575,0.0151526,1399,379,7.08108,61.5836
182,645,7.01563,-61.1665,-0.00448663,0.0175304,0.00432759,0.0183505,-0.0053067,1.38352,0.0143338,0.0114727,1406,379,7.01563,61.1665
189,645,6.9613,-60.6954,-0.00472237,0.0172236,0.00475103,0.0182079,-0.00570675,1.36649,0.0144223,0.0121566,1413,379,6.96127,60.6954
196,645,6.89905,-60.2904,-0.00486748,0.0168987,0.00522404,0.0180876,-0.00605636,1.34703,0.0145049,0.0127964,1420,379,6.89903,60.2904
203,645,6.83044,-59.7951,-0.00522816,0.0157766,0.00565292,0.0172013,-0.00665287,1.32391,0.014214,0.0134214,1427,379,6.83043,59.7951
210,645,6.81116,-59.1757,-0.00547976,0.0142492,0.00588922,0.0158735,-0.00710401,1.30169,0.0135843,0.0235839,1434,379,6.81111,59.1757
217,645,6.79272,-58.572,0,0,0,0,0,0,0,-1,1441,379,6.79276,58.572
224,645,6.65881,-58.2398,0,0,0,0,0,0,0,-1,1448,379,6.65878,58.2398
231,645,6.54126,-57.638,0,0,0,0,0,0,0,-1,1455,379,6.54122,57.638
238,645,6.43372,-57.0701,0,0,0,0,0,0,0,-1,1462,379,6.4337,57.0701
245,645,6.45471,-56.2897,0,0,0,0,0,0,0,-1,1469,379,6.45471,56.2897
252,645,6.27942,-52.6305,0,0,0,0,0,0,0,-1,1476,379,6.27947,52.6305
259,645,6.5321,-54.0518,0,0,0,0,0,0,0,-1,1483,379,6.53211,54.0518
266,645,6.10449,-54.6198,0,0,0,0,0,0,0,-1,1490,379,6.10447,54.6198
273,645,6.08215,-53.9519,0,0,0,0,0,0,0,-1,1497,379,6.08216,53.9519
280,645,6.26501,-53.2755,0,0,0,0,0,0,0,-1,1504,379,6.26504,53.2755
287,645,5.25439,-22.6157,0,0,0,0,0,0,0,-1,1511,379,5.25445,22.6157
294,645,3.76428,-22.9539,0,0,0,0,0,0,0,-1,1518,379,3.7643,22.9539
301,645,2.74219,-23.503,0,0,0,0,0,0,0,-1,1525,379,2.74222,23.503
308,645,1.82227,-23.9479,0,0,0,0,0,0,0,-1,1532,379,1.82227,23.9479
315,645,0.990356,-24.8735,0,0,0,0,0,0,0,-1,1539,379,0.990376,24.8735
322,645,-0.256714,-24.7577,0,0,0,0,0,0,0,-1,1546,379,-0.256653,24.7577
329,645,-4.45581,-22.707,0,0,0,0,0,0,0,-1,1553,379,-4.45579,22.707
336,645,-5.83154,-22.8404,0,0,0,0,0,0,0,-1,1560,379,-5.83149,22.8404
343,645,4.03186,-38.0623,0,0,0,0,0,0,0,-1,1567,379,4.03187,38.0623
350,645,4.76404,-22.1987,0,0,0,0,0,0,0,-1,1574,379,4.76399,22.1987
357,645,4.61316,-21.967,0,0,0,0,0,0,0,-1,1581,379,4.61316,21.967
364,645,-0.0794678,-3.22021,0,0,0,0,0,0,0,-1,1588,379,-0.0794987,3.22021
371,645,0,0,0,0,0,0,0,0,0,-1,1595,379,0,0
378,645,0,0,0,0,0,0,0,0,0,-1,1602,379,0,0
385,645,0,0,0,0,0,0,0,0,0,-1,1609,379,0,0
392,645,0,0,0,0,0,0,0,0,0,-1,1616,379,0,0
399,645,0,0,0,0,0,0,0,0,0,-1,1623,379,0,0
406,645,0,0,0,0,0,0,0,0,0,-1,1630,379,0,0
413,645,0,0,0,0,0,0,0,0,0,-1,1637,379,0,0
420,645,0,0,0,0,0,0,0,0,0,-1,1644,379,0,0
427,645,0,0,0,0,0,0,0,0,0,-1,1651,379,0,0
434,645,0,0,0,0,0,0,0,0,0,-1,1658,379,0,0
441,645,0,0,0,0,0,0,0,0,0,-1,1665,379,0,0
448,645,0,0,0,0,0,0,0,0,0,-1,1672,379,0,0
455,645,0,0,0,0,0,0,0,0,0,-1,1679,379,0,0
462,645,0,0,0,0,0,0,0,0,0,-1,1686,379,0,0
469,645,0,0,0,0,0,0,0,0,0,-1,1693,379,0,0
476,645,0,0,0,0,0,0,0,0,0,-1,1700,379,0,0
483,645,0,0,0,0,0,0,0,0,0,-1,1707,379,0,0
490,645,0,0,0,0,0,0,0,0,0,-1,1714,379,0,0
497,645,0,0,0,0,0,0,0,0,0,-1,1721,379,0,0
504,645,0,0,0,0,0,0,0,0,0,-1,1728,379,0,0
511,645,0,0,0,0,0,0,0,0,0,-1,1735,379,0,0
518,645,0,0,0,0,0,0,0,0,0,-1,1742,379,0,0
525,645,0,0,0,0,0,0,0,0,0,-1,1749,379,0,0
532,645,0,0,0,0,0,0,0,0,0,-1,1756,379,0,0
539,645,0,0,0,0,0,0,0,0,0,-1,1763,379,0,0
546,645,0,0,0,0,0,0,0,0,0,-1,1770,379,0,0
553,645,0,0,0,0,0,0,0,0,0,-1,1777,379,0,0
560,645,0,0,0,0,0,0,0,0,0,-1,1784,379,0,0
567,645,0,0,0,0,0,0,0,0,0,-1,1791,379,0,0
574,645,0,0,0,0,0,0,0,0,0,-1,1798,379,0,0
581,645,0,0,0,0,0,0,0,0,0,-1,1805,379,0,0
588,645,0,0,0,0,0,0,0,0,0,-1,1812,379,0,0
595,645,0,0,0,0,0,0,0,0,0,-1,1819,379,0,0
602,645,0,0,0,0,0,0,0,0,0,-1,1826,379,0,0
609,645,0,0,0,0,0,0,0,0,0,-1,1833,379,0,0
616,645,0,0,0,0,0,0,0,0,0,-1,1840,379,0,0
623,645,0,0,0,0,0,0,0,0,0,-1,1847,379,0,0
630,645,0,0,0,0,0,0,0,0,0,-1,1854,379,0,0
637,645,0,0,0,0,0,0,0,0,0,-1,1861,379,0,0
644,645,0,0,0,0,0,0,0,0,0,-1,1868,379,0,0
651,645,0,0,0,0,0,0,0,0,0,-1,1875,379,0,0
658,645,0,0,0,0,0,0,0,0,0,-1,1882,379,0,0
665,645,0,0,0,0,0,0,0,0,0,-1,1889,379,0,0
672,645,0,0,0,0,0,0,0,0,0,-1,1896,379,0,0
679,645,0,0,0,0,0,0,0,0,0,-1,1903,379,0,0
686,645,0,0,0,0,0,0,0,0,0,-1,1910,379,0,0
693,645,0,0,0,0,0,0,0,0,0,-1,1917,379,0,0
700,645,0,0,0,0,0,0,0,0,0,-1,1924,379,0,0
707,645,0,0,0,0,0,0,0,0,0,-1,1931,379,0,0
714,645,0,0,0,0,0,0,0,0,0,-1,1938,379,0,0
721,645,0,0,0,0,0,0,0,0,0,-1,1945,379,0,0
728,645,0,0,0,0,0,0,0,0,0,-1,1952,379,0,0
735,645,0,0,0,0,0,0,0,0,0,-1,1959,379,0,0
742,645,0,0,0,0,0,0,0,0,0,-1,1966,379,0,0
749,645,0,0,0,0,0,0,0,0,0,-1,1973,379,0,0
756,645,0,0,0,0,0,0,0,0,0,-1,1980,379,0,0
763,645,0,0,0,0,0,0,0,0,0,-1,1987,379,0,0
770,645,0,0,0,0,0,0,0,0,0,-1,1994,379,0,0
777,645,0,0,0,0,0,0,0,0,0,-1,2001,379,0,0
784,645,0,0,0,0,0,0,0,0,0,-1,2008,379,0,0
791,645,0,0,0,0,0,0,0,0,0,-1,2015,379,0,0
798,645,0,0,0,0,0,0,0,0,0,-1,2022,379,0,0
805,645,0,0,0,0,0,0,0,0,0,-1,2029,379,0,0
812,645,0,0,0,0,0,0,0,0,0,-1,2036,379,0,0
-700,638,0,0,0,0,0,0,0,0,0,-1,524,386,0,0
-693,638,0,0,0,0,0,0,0,0,0,-1,531,386,0,0
-686,638,0,0,0,0,0,0,0,0,0,-1,538,386,0,0
-679,638,0,0,0,0,0,0,0,0,0,-1,545,386,0,0
-672,638,0,0,0,0,0,0,0,0,0,-1,552,386,0,0
-665,638,0,0,0,0,0,0,0,0,0,-1,559,386,0,0
-658,638,0,0,0,0,0,0,0,0,0,-1,566,386,0,0
-651,638,0,0,0,0,0,0,0,0,0,-1,573,386,0,0
-644,638,0,0,0,0,0,0,0,0,0,-1,580,386,0,0
-637,638,0,0,0,0,0,0,0,0,0,-1,587,386,0,0
-630,638,0,0,0,0,0,0,0,0,0,-1,594,386,0,0
-623,638,0,0,0,0,0,0,0,0,0,-1,601,386,0,0
-616,638,0,0,0,0,0,0,0,0,0,-1,608,386,0,0
-609,638,0,0,0,0,0,0,0,0,0,-1,615,386,0,0
-602,638,0,0,0,0,0,0,0,0,0,-1,622,386,0,0
-595,638,0,0,0,0,0,0,0,0,0,-1,629,386,0,0
-588,638,0,0,0,0,0,0,0,0,0,-1,636,386,0,0
-581,638,0,0,0,0,0,0,0,0,0,-1,643,386,0,0
-574,638,0,0,0,0,0,0,0,0,0,-1,650,386,0,0
-567,638,0,0,0,0,0,0,0,0,0,-1,657,386,0,0
-560,638,0,0,0,0,0,0,0,0,0,-1,664,386,0,0
-553,638,0,0,0,0,0,0,0,0,0,-1,671,386,0,0
-546,638,0,0,0,0,0,0,0,0,0,-1,678,386,0,0
-539,638,0,0,0,0,0,0,0,0,0,-1,685,386,0,0
-532,638,0,0,0,0,0,0,0,0,0,-1,692,386,0,0
-525,638,0,0,0,0,0,0,0,0,0,-1,699,386,0,0
-518,638,0,0,0,0,0,0,0,0,0,-1,706,386,0,0
-511,638,0,0,0,0,0,0,0,0,0,-1,713,386,0,0
-504,638,0,0,0,0,0,0,0,0,0,-1,720,386,0,0
-497,638,0,0,0,0,0,0,0,0,0,-1,727,386,0,0
-490,638,0,0,0,0,0,0,0,0,0,-1,734,386,0,0
-483,638,0,0,0,0,0,0,0,0,0,-1,741,386,0,0
-476,638,0,0,0,0,0,0,0,0,0,-1,748,386,0,0
-469,638,0,0,0,0,0,0,0,0,0,-1,755,386,0,0
-462,638,0,0,0,0,0,0,0,0,0,-1,762,386,0,0
-455,638,0,0,0,0,0,0,0,0,0,-1,769,386,0,0
-448,638,0,0,0,0,0,0,0,0,0,-1,776,386,0,0
-441,638,0,0,0,0,0,0,0,0,0,-1,783,386,0,0
-434,638,0,0,0,0,0,0,0,0,0,-1,790,386,0,0
-427,638,0,0,0,0,0,0,0,0,0,-1,797,386,0,0
-420,638,0,0,0,0,0,0,0,0,0,-1,804,386,0,0
-413,638,0,0,0,0,0,0,0,0,0,-1,811,386,0,0
-406,638,0,0,0,0,0,0,0,0,0,-1,818,386,0,0
-399,638,0,0,0,0,0,0,0,0,0,-1,825,386,0,0
-392,638,0,0,0,0,0,0,0,0,0,-1,832,386,0,0
-385,638,0,0,0,0,0,0,0,0,0,-1,839,386,0,0
-378,638,0,0,0,0,0,0,0,0,0,-1,846,386,0,0
-371,638,0,0,0,0,0,0,0,0,0,-1,853,386,0,0
-364,638,0,0,0,0,0,0,0,0,0,-1,860,386,0,0
-357,638,0,0,0,0,0,0,0,0,0,-1,867,386,0,0
-350,638,0,0,0,0,0,0,0,0,0,-1,874,386,0,0
-343,638,0,0,0,0,0,0,0,0,0,-1,881,386,0,0
-336,638,0,0,0,0,0,0,0,0,0,-1,888,386,0,0
-329,638,0,0,0,0,0,0,0,0,0,-1,895,386,0,0
-322,638,0,0,0,0,0,0,0,0,0,-1,902,386,0,0
-315,638,0,0,0,0,0,0,0,0,0,-1,909,386,0,0
-308,638,0,0,0,0,0,0,0,0,0,-1,916,386,0,0
-301,638,0,0,0,0,0,0,0,0,0,-1,923,386,0,0
-294,638,0,0,0,0,0,0,0,0,0,-1,930,386,0,0
-287,638,0,0,0,0,0,0,0,0,0,-1,937,386,0,0
-280,638,0,0,0,0,0,0,0,0,0,-1,944,386,0,0
-273,638,0,0,0,0,0,0,0,0,0,-1,951,386,0,0
-266,638,10.1613,-36.3326,0,0,0,0,0,0,0,-1,958,386,10.1612,36.3326
-259,638,9.95282,-34.6103,0,0,0,0,0,0,0,-1,965,386,9.9528,34.6103
-252,638,9.95746,-33.6964,0,0,0,0,0,0,0,-1,972,386,9.95744,33.6965
-245,638,9.84143,-32.9009,0,0,0,0,0,0,0,-1,979,386,9.84145,32.9009
-238,638,2.93518,-26.3649,0,0,0,0,0,0,0,-1,986,386,2.93516,26.3649
-231,638,2.36829,-26.0088,0,0,0,0,0,0,0,-1,993,386,2.3683,26.0088
-224,638,6.3465,-30.9124,0,0,0,0,0,0,0,-1,1000,386,6.34648,30.9124
-217,638,7.41205,-32.7263,0,0,0,0,0,0,0,-1,1007,386,7.41204,32.7262
-210,638,8.7038,-34.5688,0,0,0,0,0,0,0,-1,1014,386,8.70378,34.5689
-203,638,4.32593,-27.5803,0,0,0,0,0,0,0,-1,1021,386,4.32594,27.5803
-196,638,6.0614,-28.4651,0,0,0,0,0,0,0,-1,1028,386,6.06143,28.4651
-189,638,11.4561,-30.1556,0,0,0,0,0,0,0,-1,1035,386,11.456,30.1556
-182,638,6.45471,-33.4271,0,0,0,0,0,0,0,-1,1042,386,6.45473,33.427
-175,638,8.39648,-48.7238,0,0,0,0,0,0,0,-1,1049,386,8.39643,48.7238
-168,638,8.67175,-52.5497,0,0,0,0,0,0,0,-1,1056,386,8.67173,52.5497
-161,638,8.71057,-53.2658,0,0,0,0,0,0,0,-1,1063,386,8.71053,53.2658
-154,638,8.55603,-53.8279,0,0,0,0,0,0,0,-1,1070,386,8.55606,53.8279
-147,638,8.55212,-54.4174,0,0,0,0,0,0,0,-1,1077,386,8.55211,54.4174
-140,638,8.49109,-54.6226,0,0,0,0,0,0,0,-1,1084,386,8.49115,54.6226
-133,638,8.31543,-55.3844,0,0,0,0,0,0,0,-1,1091,386,8.31549,55.3844
-126,638,8.29224,-56.1571,-0.00555443,0.00748091,-0.00566697,0.00960006,-0.00767357,-1.21295,0.00999359,0.0263779,1098,386,8.29227,56.1571
-119,638,8.21094,-56.7508,-0.00585117,0.00631304,-0.00488326,0.00803082,-0.00756895,-1.23255,0.00900785,0.0282946,1105,386,8.21098,56.7508
-112,638,8.18469,-57.3419,-0.00588588,0.00553029,-0.00423823,0.00693169,-0.00728728,-1.25146,0.00821018,0.0241369,1112,386,8.18466,57.3419
-105,638,8.10718,-57.9237,-0.00573133,0.00506095,-0.00380084,0.00626517,-0.00693555,-1.26397,0.00762471,0.0198665,1119,386,8.10724,57.9237
-98,638,8.0354,-58.4717,-0.00567643,0.00461922,-0.00329564,0.00558379,-0.00664099,-1.28607,0.00706677,0.0178044,1126,386,8.03542,58.4717
-91,638,7.96228,-58.9786,-0.00555468,0.00431858,-0.00284079,0.0050776,-0.0063137,-1.30971,0.00658966,0.012983,1133,386,7.96233,58.9786
-84,638,7.91943,-59.4694,-0.00523698,0.00398753,-0.00246201,0.0046035,-0.00585296,-1.32564,0.00605139,0.0145947,1140,386,7.91946,59.4694
-77,638,7.86926,-59.9688,-0.0049202,0.00394771,-0.0020917,0.00441633,-0.00538881,-1.3504,0.00567027,0.0135568,1147,386,7.86923,59.9687
-70,638,7.83386,-60.4261,-0.00474003,0.00409417,-0.00180722,0.00444958,-0.00509544,-1.37661,0.00551502,0.0142135,1154,386,7.83389,60.4261
-63,638,7.80933,-60.8625,-0.00403848,0.00528248,-0.00207036,0.00572165,-0.00447765,-1.36177,0.00590315,0.0134514,1161,386,7.80928,60.8625
-56,638,7.7937,-61.2673,-0.00322806,0.00614991,-0.00226538,0.00666847,-0.00374662,-1.34577,0.00609152,0.0152058,1168,386,7.79375,61.2673
-49,638,7.75916,-61.6525,-0.00261482,0.00668734,-0.00215412,0.00716196,-0.00308944,-1.35393,0.00607233,0.0132338,1175,386,7.7591,61.6525
-42,638,7.7196,-62.0367,-0.0020817,0.00731888,-0.0019073,0.00769111,-0.00245394,-1.37805,0.00611187,0.0131959,1182,386,7.71965,62.0367
-35,638,7.69519,-62.3879,-0.00163926,0.00820752,-0.00169691,0.00849174,-0.00192348,-1.40484,0.00639942,0.0130046,1189,386,7.69522,62.3879
-28,638,7.67029,-62.7375,-0.00121947,0.00861024,-0.00159417,0.00886232,-0.00147154,-1.41397,0.00645488,0.0119603,1196,386,7.67029,62.7374
-21,638,7.62866,-63.0284,-0.00079396,0.00891223,-0.00152004,0.00914471,-0.00102644,-1.41903,0.00646583,0.0128298,1203,386,7.62862,63.0284
-14,638,7.6084,-63.3345,-0.000463867,0.00917408,-0.00145441,0.00938877,-0.00067856,-1.42424,0.00649719,0.0125724,1210,386,7.60841,63.3345
-7,638,7.61255,-63.6887,-0.000211557,0.00915124,-0.00147201,0.00937722,-0.000437532,-1.41847,0.00640231,0.0191539,1217,386,7.61249,63.6887
0,638,7.6145,-63.7321,-9.26756e-05,0.00902084,-0.00147904,0.00925487,-0.000326701,-1.41387,0.00628164,0.036522,1224,386,7.61456,63.7322
7,638,7.55896,-63.9742,-0.000159588,0.00902021,-0.0013836,0.00922422,-0.000363595,-1.42441,0.00627419,0.0273271,1231,386,7.55891,63.9743
14,638,7.53674,-64.2027,-0.000305286,0.00926734,-0.00104931,0.00938102,-0.000418958,-1.46289,0.00639824,0.0140023,1238,386,7.5367,64.2027
21,638,7.54749,-64.3703,-0.000442643,0.00963854,-0.000620237,0.00967655,-0.000480659,-1.50958,0.00661708,0.0125787,1245,386,7.54748,64.3703
28,638,7.55688,-64.5378,-0.000455851,0.0102098,-6.18951e-05,0.0102101,-0.00045621,-1.56499,0.00696382,0.0100047,1252,386,7.55694,64.5378
35,638,7.56836,-64.6511,-0.000413037,0.0109698,0.0005757,0.0109988,-0.00044208,1.52039,0.00748424,0.0111662,1259,386,7.56839,64.6511
42,638,7.59961,-64.7462,-0.00027533,0.0115521,0.00143141,0.0117229,-0.0004461,1.45206,0.00796811,0.0107867,1266,386,7.59956,64.7462
49,638,7.62366,-64.791,-0.000185754,0.0124255,0.00227039,0.0128218,-0.000582037,1.39799,0.00874835,0.00947188,1273,386,7.62366,64.7911
56,638,7.61096,-64.8213,4.62543e-05,0.0132389,0.0029536,0.01387,-0.000584817,1.3603,0.00944762,0.0123891,1280,386,7.61099,64.8213
63,638,7.57886,-64.8474,0.000419986,0.0136911,0.00361521,0.0146121,-0.000500935,1.32137,0.00991257,0.0139135,1287,386,7.5788,64.8474
70,638,7.57385,-64.8699,0.000815944,0.0137313,0.00405268,0.0148976,-0.000350409,1.29057,0.0100506,0.0188698,1294,386,7.57385,64.8699
77,638,7.60449,-64.8101,0.00109656,0.0138343,0.00441687,0.015216,-0.000285132,1.26762,0.0102404,0.0193825,1301,386,7.60446,64.8101
84,638,7.62463,-64.7438,0.00129849,0.0132929,0.00440856,0.0147389,-0.000147549,1.25385,0.00987549,0.0142819,1308,386,7.62465,64.7438
91,638,7.61108,-64.657,0.00127213,0.0122238,0.00420826,0.0136541,-0.000158134,1.24317,0.00915588,0.0161651,1315,386,7.61103,64.657
98,638,7.59229,-64.5355,0.00114218,0.0113204,0.00403255,0.0127244,-0.000261816,1.23576,0.00857157,0.01395,1322,386,7.59224,64.5355
105,638,7.5719,-64.4125,0.00104146,0.0105809,0.00376004,0.0118847,-0.000262383,1.23701,0.00801203,0.0106034,1329,386,7.57194,64.4125
112,638,7.5719,-64.241,0.000905135,0.00979203,0.00335512,0.0109164,-0.000219276,1.24743,0.00735181,0.0104564,1336,386,7.57189,64.241
119,638,7.58691,-64.0466,0.000609692,0.00881002,0.0028417,0.00969851,-0.000278792,1.26777,0.00656058,0.0129528,1343,386,7.58697,64.0466
126,638,7.57239,-63.8173,0.000229112,0.00835133,0.00245136,0.00903382,-0.000453384,1.29926,0.00617922,0.0170164,1350,386,7.57242,63.8173
133,638,7.53967,-63.574,-0.000231107,0.00816501,0.00215223,0.00868455,-0.000750651,1.33393,0.00605545,0.0176087,1357,386,7.53964,63.574
140,638,7.52039,-63.335,-0.000589723,0.00827854,0.0020117,0.00871354,-0.00102472,1.35784,0.00617899,0.0180262,1364,386,7.5204,63.335
147,638,7.49854,-63.0384,-0.00101909,0.00893453,0.00190769,0.00928763,-0.00137219,1.38778,0.00669618,0.0189885,1371,386,7.49853,63.0384
154,638,7.50989,-62.7216,-0.0010917,0.00949948,0.00187976,0.00982321,-0.00141543,1.40025,0.00706802,0.0165493,1378,386,7.50993,62.7216
161,638,7.49512,-62.3612,-0.00124524,0.0102108,0.00199299,0.0105476,-0.00158205,1.40338,0.00761405,0.0200894,1385,386,7.49512,62.3612
168,638,7.47778,-61.9561,-0.00157411,0.010794,0.00213748,0.011153,-0.0019331,1.4044,0.00815639,0.0252411,1392,386,7.47775,61.956
175,638,7.45435,-61.5861,-0.0019036,0.0112239,0.00237943,0.0116419,-0.00232157,1.39691,0.00863971,0.0199248,1399,386,7.45435,61.586
182,638,7.39441,-61.178,-0.00228105,0.0115649,0.00264615,0.0120534,-0.00276953,1.38825,0.00910035,0.0139813,1406,386,7.39445,61.178
189,638,7.35291,-60.7466,-0.00259748,0.0117286,0.00299377,0.0123291,-0.00319793,1.37286,0.00946715,0.0127233,1413,386,7.35291,60.7466
196,638,7.31531,-60.3158,-0.00283899,0.011809,0.00355018,0.0126241,-0.00365408,1.34512,0.00986237,0.0151677,1420,386,7.31526,60.3158
203,638,7.26892,-59.8865,-0.00324547,0.0113632,0.00410309,0.0124367,-0.004319,1.31489,0.0100452,0.020842,1427,386,7.26893,59.8865
210,638,7.2196,-59.3933,-0.00355312,0.0106939,0.00438953,0.0119377,-0.00479695,1.29467,0.00995063,0.0176122,1434,386,7.21959,59.3933
217,638,7.17786,-58.8412,-0.00366904,0.0104555,0.00446978,0.0117512,-0.00496467,1.28866,0.00991247,0.014168,1441,386,7.17789,58.8412
224,638,7.13306,-58.2666,-0.00357456,0.0108445,0.00455881,0.0121649,-0.00489498,1.28887,0.0101433,0.0124402,1448,386,7.133,58.2666
231,638,7.04333,-57.7066,-0.00324805,0.0111939,0.00477947,0.0126324,-0.00468652,1.27845,0.0103439,0.0122686,1455,386,7.04329,57.7066
238,638,6.95764,-57.1662,-0.00313247,0.0117001,0.00496703,0.0132097,-0.00464214,1.27573,0.0106951,0.0159751,1462,386,6.95768,57.1662
245,638,6.94324,-56.5054,-0.00300174,0.0124828,0.00529318,0.0141193,-0.0046382,1.27095,0.0112813,0.0314553,1469,386,6.94329,56.5054
252,638,6.82642,-56.033,0,0,0,0,0,0,0,-1,1476,386,6.82644,56.033
259,638,6.78955,-55.3946,0,0,0,0,0,0,0,-1,1483,386,6.78954,55.3946
266,638,6.68555,-54.7351,-0.000644814,0.0170402,0.00789361,0.0200509,-0.00365553,1.20642,0.0147377,0.0228719,1490,386,6.68559,54.7351
273,638,6.65369,-54.0983,0.000202856,0.0192184,0.0092462,0.0229729,-0.00355173,1.18507,0.0166261,0.0137905,1497,386,6.65365,54.0983
280,638,6.73047,-53.393,0.00126492,0.0217142,0.0108247,0.0263798,-0.00340059,1.16385,0.0188227,0.0246829,1504,386,6.73043,53.393
287,638,6.88428,-52.543,0,0,0,0,0,0,0,-1,1511,386,6.88429,52.543
294,638,6.47144,-51.7948,0,0,0,0,0,0,0,-1,1518,386,6.47142,51.7948
301,638,6.3855,-50.918,0,0,0,0,0,0,0,-1,1525,386,6.38549,50.918
308,638,6.76038,-49.7748,0,0,0,0,0,0,0,-1,1532,386,6.7604,49.7748
315,638,3.3927,-28.2032,0,0,0,0,0,0,0,-1,1539,386,3.39269,28.2032
322,638,6.1698,-44.6835,0,0,0,0,0,0,0,-1,1546,386,6.16984,44.6835
329,638,6.06885,-44.2856,0,0,0,0,0,0,0,-1,1553,386,6.06881,44.2855
336,638,5.15234,-38.1966,0,0,0,0,0,0,0,-1,1560,386,5.15238,38.1966
343,638,4.8208,-37.2159,0,0,0,0,0,0,0,-1,1567,386,4.82078,37.2159
350,638,4.35254,-37.1565,0,0,0,0,0,0,0,-1,1574,386,4.35259,37.1565
357,638,0.387329,-3.01077,0,0,0,0,0,0,0,-1,1581,386,0.387332,3.01077
364,638,3.78149,-6.45215,0,0,0,0,0,0,0,-1,1588,386,3.78155,6.45216
371,638,4.18604,-6.71164,0,0,0,0,0,0,0,-1,1595,386,4.18598,6.71164
378,638,4.59045,-6.97113,0,0,0,0,0,0,0,-1,1602,386,4.5904,6.97112
385,638,0,0,0,0,0,0,0,0,0,-1,1609,386,0,0
392,638,0,0,0,0,0,0,0,0,0,-1,1616,386,0,0
399,638,0,0,0,0,0,0,0,0,0,-1,1623,386,0,0
406,638,0,0,0,0,0,0,0,0,0,-1,1630,386,0,0
413,638,0,0,0,0,0,0,0,0,0,-1,1637,386,0,0
420,638,0,0,0,0,0,0,0,0,0,-1,1644,386,0,0
427,638,0,0,0,0,0,0,0,0,0,-1,1651,386,0,0
434,638,0,0,0,0,0,0,0,0,0,-1,1658,386,0,0
441,638,0,0,0,0,0,0,0,0,0,-1,1665,386,0,0
448,638,0,0,0,0,0,0,0,0,0,-1,1672,386,0,0
455,638,0,0,0,0,0,0,0,0,0,-1,1679,386,0,0
462,638,0,0,0,0,0,0,0,0,0,-1,1686,386,0,0
469,638,0,0,0,0,0,0,0,0,0,-1,1693,386,0,0
476,638,0,0,0,0,0,0,0,0,0,-1,1700,386,0,0
483,638,0,0,0,0,0,0,0,0,0,-1,1707,386,0,0
490,638,0,0,0,0,0,0,0,0,0,-1,1714,386,0,0
497,638,0,0,0,0,0,0,0,0,0,-1,1721,386,0,0
504,638,0,0,0,0,0,0,0,0,0,-1,1728,386,0,0
511,638,0,0,0,0,0,0,0,0,0,-1,1735,386,0,0
518,638,0,0,0,0,0,0,0,0,0,-1,1742,386,0,0
525,638,0,0,0,0,0,0,0,0,0,-1,1749,386,0,0
532,638,0,0,0,0,0,0,0,0,0,-1,1756,386,0,0
539,638,0,0,0,0,0,0,0,0,0,-1,1763,386,0,0
546,638,0,0,0,0,0,0,0,0,0,-1,1770,386,0,0
553,638,0,0,0,0,0,0,0,0,0,-1,1777,386,0,0
560,638,0,0,0,0,0,0,0,0,0,-1,1784,386,0,0
567,638,0,0,0,0,0,0,0,0,0,-1,1791,386,0,0
574,638,0,0,0,0,0,0,0,0,0,-1,1798,386,0,0
581,638,0,0,0,0,0,0,0,0,0,-1,1805,386,0,0
588,638,0,0,0,0,0,0,0,0,0,-1,1812,386,0,0
595,638,0,0,0,0,0,0,0,0,0,-1,1819,386,0,0
602,638,0,0,0,0,0,0,0,0,0,-1,1826,386,0,0
609,638,0,0,0,0,0,0,0,0,0,-1,1833,386,0,0
616,638,0,0,0,0,0,0,0,0,0,-1,1840,386,0,0
623,638,0,0,0,0,0,0,0,0,0,-1,1847,386,0,0
630,638,0,0,0,0,0,0,0,0,0,-1,1854,386,0,0
637,638,0,0,0,0,0,0,0,0,0,-1,1861,386,0,0
644,638,0,0,0,0,0,0,0,0,0,-1,1868,386,0,0
651,638,0,0,0,0,0,0,0,0,0,-1,1875,386,0,0
658,638,0,0,0,0,0,0,0,0,0,-1,1882,386,0,0
665,638,0,0,0,0,0,0,0,0,0,-1,1889,386,0,0
672,638,0,0,0,0,0,0,0,0,0,-1,1896,386,0,0
679,638,0,0,0,0,0,0,0,0,0,-1,1903,386,0,0
686,638,0,0,0,0,0,0,0,0,0,-1,1910,386,0,0
693,638,0,0,0,0,0,0,0,0,0,-1,1917,386,0,0
700,638,0,0,0,0,0,0,0,0,0,-1,1924,386,0,0
707,638,0,0,0,0,0,0,0,0,0,-1,1931,386,0,0
714,638,0,0,0,0,0,0,0,0,0,-1,1938,386,0,0
721,638,0,0,0,0,0,0,0,0,0,-1,1945,386,0,0
728,638,0,0,0,0,0,0,0,0,0,-1,1952,386,0,0
735,638,0,0,0,0,0,0,0,0,0,-1,1959,386,0,0
742,638,0,0,0,0,0,0,0,0,0,-1,1966,386,0,0
749,638,0,0,0,0,0,0,0,0,0,-1,1973,386,0,0
756,638,0,0,0,0,0,0,0,0,0,-1,1980,386,0,0
763,638,0,0,0,0,0,0,0,0,0,-1,1987,386,0,0
770,638,0,0,0,0,0,0,0,0,0,-1,1994,386,0,0
777,638,0,0,0,0,0,0,0,0,0,-1,2001,386,0,0
784,638,0,0,0,0,0,0,0,0,0,-1,2008,386,0,0
791,638,0,0,0,0,0,0,0,0,0,-1,2015,386,0,0
798,638,0,0,0,0,0,0,0,0,0,-1,2022,386,0,0
805,638,0,0,0,0,0,0,0,0,0,-1,2029,386,0,0
812,638,0,0,0,0,0,0,0,0,0,-1,2036,386,0,0
-700,631,0,0,0,0,0,0,0,0,0,-1,524,393,0,0
-693,631,0,0,0,0,0,0,0,0,0,-1,531,393,0,0
-686,631,0,0,0,0,0,0,0,0,0,-1,538,393,0,0
-679,631,0,0,0,0,0,0,0,0,0,-1,545,393,0,0
-672,631,0,0,0,0,0,0,0,0,0,-1,552,393,0,0
-665,631,0,0,0,0,0,0,0,0,0,-1,559,393,0,0
-658,631,0,0,0,0,0,0,0,0,0,-1,566,393,0,0
-651,631,0,0,0,0,0,0,0,0,0,-1,573,393,0,0
-644,631,0,0,0,0,0,0,0,0,0,-1,580,393,0,0
-637,631,0,0,0,0,0,0,0,0,0,-1,587,393,0,0
-630,631,0,0,0,0,0,0,0,0,0,-1,594,393,0,0
-623,631,0,0,0,0,0,0,0,0,0,-1,601,393,0,0
-616,631,0,0,0,0,0,0,0,0,0,-1,608,393,0,0
-609,631,0,0,0,0,0,0,0,0,0,-1,615,393,0,0
-602,631,0,0,0,0,0,0,0,0,0,-1,622,393,0,0
-595,631,0,0,0,0,0,0,0,0,0,-1,629,393,0,0
-588,631,0,0,0,0,0,0,0,0,0,-1,636,393,0,0
-581,631,0,0,0,0,0,0,0,0,0,-1,643,393,0,0
-574,631,0,0,0,0,0,0,0,0,0,-1,650,393,0,0
-567,631,0,0,0,0,0,0,0,0,0,-1,657,393,0,0
-560,631,0,0,0,0,0,0,0,0,0,-1,664,393,0,0
-553,631,0,0,0,0,0,0,0,0,0,-1,671,393,0,0
-546,631,0,0,0,0,0,0,0,0,0,-1,678,393,0,0
-539,631,0,0,0,0,0,0,0,0,0,-1,685,393,0,0
-532,631,0,0,0,0,0,0,0,0,0,-1,692,393,0,0
-525,631,0,0,0,0,0,0,0,0,0,-1,699,393,0,0
-518,631,0,0,0,0,0,0,0,0,0,-1,706,393,0,0
-511,631,0,0,0,0,0,0,0,0,0,-1,713,393,0,0
-504,631,0,0,0,0,0,0,0,0,0,-1,720,393,0,0
-497,631,0,0,0,0,0,0,0,0,0,-1,727,393,0,0
-490,631,0,0,0,0,0,0,0,0,0,-1,734,393,0,0
-483,631,0,0,0,0,0,0,0,0,0,-1,741,393,0,0
-476,631,0,0,0,0,0,0,0,0,0,-1,748,393,0,0
-469,631,0,0,0,0,0,0,0,0,0,-1,755,393,0,0
-462,631,0,0,0,0,0,0,0,0,0,-1,762,393,0,0
-455,631,0,0,0,0,0,0,0,0,0,-1,769,393,0,0
-448,631,0,0,0,0,0,0,0,0,0,-1,776,393,0,0
-441,631,0,0,0,0,0,0,0,0,0,-1,783,393,0,0
-434,631,0,0,0,0,0,0,0,0,0,-1,790,393,0,0
-427,631,0,0,0,0,0,0,0,0,0,-1,797,393,0,0
-420,631,0,0,0,0,0,0,0,0,0,-1,804,393,0,0
-413,631,0,0,0,0,0,0,0,0,0,-1,811,393,0,0
-406,631,0,0,0,0,0,0,0,0,0,-1,818,393,0,0
-399,631,0,0,0,0,0,0,0,0,0,-1,825,393,0,0
-392,631,0,0,0,0,0,0,0,0,0,-1,832,393,0,0
-385,631,0,0,0,0,0,0,0,0,0,-1,839,393,0,0
-378,631,0,0,0,0,0,0,0,0,0,-1,846,393,0,0
-371,631,0,0,0,0,0,0,0,0,0,-1,853,393,0,0
-364,631,0,0,0,0,0,0,0,0,0,-1,860,393,0,0
-357,631,0,0,0,0,0,0,0,0,0,-1,867,393,0,0
-350,631,0,0,0,0,0,0,0,0,0,-1,874,393,0,0
-343,631,0,0,0,0,0,0,0,0,0,-1,881,393,0,0
-336,631,0,0,0,0,0,0,0,0,0,-1,888,393,0,0
-329,631,0,0,0,0,0,0,0,0,0,-1,895,393,0,0
-322,631,0,0,0,0,0,0,0,0,0,-1,902,393,0,0
-315,631,0,0,0,0,0,0,0,0,0,-1,909,393,0,0
-308,631,0,0,0,0,0,0,0,0,0,-1,916,393,0,0
-301,631,0,0,0,0,0,0,0,0,0,-1,923,393,0,0
-294,631,0,0,0,0,0,0,0,0,0,-1,930,393,0,0
-287,631,0,0,0,0,0,0,0,0,0,-1,937,393,0,0
-280,631,7.71283,-34.969,0,0,0,0,0,0,0,-1,944,393,7.71282,34.969
-273,631,8.04437,-34.934,0,0,0,0,0,0,0,-1,951,393,8.04436,34.9339
-266,631,8.40277,-34.7584,0,0,0,0,0,0,0,-1,958,393,8.40275,34.7584
-259,631,8.56659,-34.037,0,0,0,0,0,0,0,-1,965,393,8.56662,34.037
-252,631,8.44446,-33.2643,0,0,0,0,0,0,0,-1,972,393,8.44445,33.2644
-245,631,8.34705,-32.527,0,0,0,0,0,0,0,-1,979,393,8.34704,32.527
-238,631,8.41888,-31.8855,0,0,0,0,0,0,0,-1,986,393,8.41887,31.8855
-231,631,2.14966,-25.2306,0,0,0,0,0,0,0,-1,993,393,2.14968,25.2306
-224,631,6.83575,-19.7909,0,0,0,0,0,0,0,-1,1000,393,6.83575,19.7909
-217,631,5.05188,-18.3867,0,0,0,0,0,0,0,-1,1007,393,5.0519,18.3866
-210,631,3.37842,-26.3769,0,0,0,0,0,0,0,-1,1014,393,3.37839,26.3769
-203,631,8.59509,-47.1953,0,0,0,0,0,0,0,-1,1021,393,8.5951,47.1954
-196,631,8.51001,-47.9163,0,0,0,0,0,0,0,-1,1028,393,8.50997,47.9163
-189,631,6.57983,-42.4494,0,0,0,0,0,0,0,-1,1035,393,6.57983,42.4494
-182,631,8.0531,-47.8031,0,0,0,0,0,0,0,-1,1042,393,8.05311,47.8031
-175,631,8.26135,-51.5673,0,0,0,0,0,0,0,-1,1049,393,8.26141,51.5673
-168,631,8.13318,-52.2899,-0.00322086,0.0133067,-0.00933977,0.0175138,-0.0074279,-1.14757,0.0147873,0.0426743,1056,393,8.13316,52.2899
-161,631,8.08765,-53.0707,-0.00342695,0.0116287,-0.00830658,0.015311,-0.00710928,-1.15353,0.0132299,0.0227631,1063,393,8.0877,53.0707
-154,631,7.99048,-53.7852,-0.00364488,0.010049,-0.00736763,0.01326,-0.0068559,-1.15979,0.0118085,0.0196374,1070,393,7.99045,53.7852
-147,631,7.94202,-54.4066,-0.00379372,0.00875472,-0.00654008,0.0115435,-0.00658253,-1.16772,0.0105949,0.0169555,1077,393,7.94203,54.4066
-140,631,7.89917,-55.0372,-0.0037905,0.0075574,-0.00585439,0.0100362,-0.00626932,-1.17027,0.00949738,0.0123184,1084,393,7.89919,55.0372
-133,631,7.81775,-55.6506,-0.0037816,0.00663194,-0.00522332,0.00880037,-0.00595003,-1.1773,0.00856898,0.00891632,1091,393,7.81776,55.6506
-126,631,7.76184,-56.2524,-0.00385319,0.00581439,-0.00453928,0.00761163,-0.00565043,-1.1938,0.00768471,0.012796,1098,393,7.76182,56.2524
-119,631,7.72681,-56.8008,-0.00393386,0.00485673,-0.00386539,0.00631463,-0.00539175,-1.21013,0.00676568,0.0170324,1105,393,7.72686,56.8008
-112,631,7.68115,-57.3576,-0.0038087,0.00420922,-0.00332465,0.00540843,-0.00500791,-1.22462,0.00601536,0.0168986,1112,393,7.68116,57.3576
-105,631,7.62903,-57.9224,-0.00354476,0.00380683,-0.00295783,0.00484911,-0.00458704,-1.232,0.00544867,0.0221536,1119,393,7.62908,57.9224
-98,631,7.56641,-58.4808,-0.00333796,0.00345483,-0.00256785,0.00431629,-0.00419943,-1.24711,0.00491671,0.0180267,1126,393,7.56643,58.4808
-91,631,7.54309,-58.9756,-0.0030859,0.00319812,-0.00220181,0.0038928,-0.00378059,-1.26518,0.00443039,0.0182797,1133,393,7.54303,58.9756
-84,631,7.50183,-59.4761,-0.00268714,0.00291207,-0.00186669,0.00347733,-0.0032524,-1.27676,0.00388613,0.0175218,1140,393,7.50179,59.4761
-77,631,7.43359,-59.9686,-0.00227122,0.0027522,-0.00154409,0.00318886,-0.00270788,-1.2952,0.00340826,0.0131484,1147,393,7.43362,59.9686
-70,631,7.40479,-60.4217,-0.00191559,0.00265331,-0.00126316,0.00297928,-0.00224156,-1.31825,0.00302427,0.0156042,1154,393,7.40481,60.4217
-63,631,7.40015,-60.8782,-0.00130763,0.00296613,-0.00123535,0.00329751,-0.00163902,-1.30871,0.00290323,0.0147721,1161,393,7.40016,60.8782
-56,631,7.37622,-61.315,-0.000675173,0.00306362,-0.00115973,0.00339414,-0.00100569,-1.29316,0.00266208,0.0148947,1168,393,7.37617,61.315
-49,631,7.36365,-61.6825,-0.000145034,0.0028981,-0.000945418,0.00316789,-0.000414831,-1.29281,0.00226292,0.011735,1175,393,7.36363,61.6825
-42,631,7.36353,-62.0437,0.000345807,0.00279334,-0.000739678,0.00299951,0.000139634,-1.29896,0.00195479,0.0107502,1182,393,7.36354,62.0437
-35,631,7.35742,-62.3969,0.000764762,0.0028781,-0.000577848,0.00302578,0.000617081,-1.32058,0.00184619,0.0119763,1189,393,7.35741,62.3969
-28,631,7.36243,-62.7326,0.00115102,0.00258309,-0.000520853,0.00275249,0.00098162,-1.25635,0.00161078,0.0153835,1196,393,7.36248,62.7326
-21,631,7.34851,-63.0292,0.00155244,0.00224973,-0.00055157,0.00255361,0.00124857,-1.06724,0.00147445,0.0130301,1203,393,7.34857,63.0292
-14,631,7.32263,-63.3335,0.0018799,0.00203724,-0.000707779,0.00267071,0.00124643,-0.840747,0.00154307,0.0153135,1210,393,7.32261,63.3335
-7,631,7.34583,-63.6828,0.0020895,0.00155706,-0.000986671,0.00284524,0.000801326,-0.653627,0.00169411,0.0249164,1217,393,7.34579,63.6828
0,631,7.31079,-63.8472,0.00208304,0.00113199,-0.00125226,0.00294702,0.000268009,-0.603939,0.00188171,0.0275752,1224,393,7.31074,63.8472
7,631,7.3291,-64.0288,0.00173224,0.00113011,-0.00119504,0.00266356,0.000198793,-0.662001,0.00171329,0.0207017,1231,393,7.32916,64.0288
14,631,7.38562,-64.2581,0.00117249,0.00134315,-0.00086254,0.00212457,0.000391071,-0.834702,0.00130569,0.0114222,1238,393,7.38556,64.2581
21,631,7.41235,-64.4126,0.000719111,0.0018807,-0.000380035,0.00199398,0.000605824,-1.28109,0.00118039,0.0153192,1245,393,7.41239,64.4126
28,631,7.42859,-64.5384,0.000398101,0.00289899,0.000264679,0.00292669,0.000370396,1.4665,0.00184013,0.017306,1252,393,7.42858,64.5384
35,631,7.50122,-64.632,4.54172e-05,0.00430516,0.00109882,0.0045719,-0.000221323,1.33265,0.00312432,0.0158767,1259,393,7.50117,64.632
42,631,7.56042,-64.72,-0.000251722,0.00574145,0.00224831,0.00649112,-0.00100139,1.24895,0.00469693,0.0136751,1266,393,7.56042,64.72
49,631,7.56531,-64.8084,-0.000448242,0.00740477,0.00340157,0.00867328,-0.00171675,1.21385,0.00643127,0.0123001,1273,393,7.5653,64.8084
56,631,7.59094,-64.8802,-0.000570079,0.00900985,0.00448204,0.0107798,-0.00234003,1.1947,0.00808029,0.0148114,1280,393,7.59092,64.8802
63,631,7.59668,-64.9176,-0.000614128,0.0101285,0.00557748,0.0125005,-0.00298616,1.16868,0.00948702,0.0161316,1287,393,7.59665,64.9176
70,631,7.599,-64.8785,-0.000445664,0.0107783,0.00625574,0.0135704,-0.00323776,1.151,0.0102973,0.0169234,1294,393,7.59905,64.8785
77,631,7.64014,-64.8125,-0.000296438,0.0113709,0.0068276,0.0145176,-0.00344319,1.13893,0.0110071,0.0169451,1301,393,7.64011,64.8125
84,631,7.68774,-64.7563,-0.000110981,0.0111175,0.00693667,0.0144273,-0.00342069,1.12561,0.0109382,0.0144251,1308,393,7.68769,64.7563
91,631,7.69531,-64.6604,-3.29779e-05,0.0100443,0.00686803,0.0135238,-0.00351242,1.10187,0.0103865,0.0183976,1315,393,7.6953,64.6604
98,631,7.7124,-64.5515,4.06757e-05,0.00898875,0.00678013,0.012638,-0.00360853,1.07704,0.00985098,0.0149437,1322,393,7.71241,64.5515
105,631,7.70142,-64.4179,0.000277726,0.00790723,0.00646083,0.0115955,-0.0034105,1.05208,0.00908313,0.0117938,1329,393,7.70142,64.4179
112,631,7.74231,-64.2591,0.000602183,0.00654478,0.00583281,0.0101195,-0.00297253,1.02097,0.00792523,0.0130739,1336,393,7.74231,64.2591
119,631,7.76172,-64.0922,0.000876483,0.00513105,0.00508884,0.00851935,-0.00251182,0.983374,0.00667625,0.0137625,1343,393,7.76175,64.0922
126,631,7.76306,-63.8509,0.000936754,0.00401048,0.00440011,0.0071344,-0.00218717,0.953414,0.0056288,0.0188734,1350,393,7.76312,63.8509
133,631,7.77661,-63.576,0.000862433,0.00306675,0.00377675,0.00589887,-0.00196969,0.92737,0.00472795,0.0198727,1357,393,7.77655,63.576
140,631,7.78442,-63.3414,0.00090093,0.00244699,0.00322985,0.00499503,-0.00164711,0.902858,0.00399393,0.0210485,1364,393,7.78438,63.3414
147,631,7.78479,-63.0563,0.000893016,0.00244241,0.0026358,0.004415,-0.00107958,0.928329,0.00336149,0.0235428,1371,393,7.78484,63.0563
154,631,7.81812,-62.7077,0.00093309,0.00275841,0.0021562,0.00418715,-0.00049565,0.985601,0.00297047,0.020998,1378,393,7.81809,62.7077
161,631,7.84924,-62.3219,0.000924302,0.00353359,0.00184052,0.00448496,-2.70684e-05,1.09372,0.00299904,0.0236852,1385,393,7.84929,62.3219
168,631,7.83911,-61.9502,0.000743281,0.00440717,0.00155853,0.00498044,0.000170012,1.21833,0.0032651,0.0293875,1392,393,7.8391,61.9502
175,631,7.80688,-61.6257,0.000375294,0.00522205,0.00157098,0.00568671,-8.93634e-05,1.28322,0.00382128,0.0223311,1399,393,7.80684,61.6257
182,631,7.77429,-61.2257,-4.36286e-05,0.00596606,0.0015947,0.006363,-0.000440574,1.32684,0.00439622,0.0123646,1406,393,7.77429,61.2258
189,631,7.75415,-60.7547,-0.000439586,0.00661954,0.00176958,0.0070383,-0.000858343,1.33843,0.00500292,0.0118523,1413,393,7.75414,60.7547
196,631,7.7334,-60.3055,-0.000736381,0.00720613,0.00212939,0.007741,-0.00127125,1.3247,0.00563244,0.0124258,1420,393,7.73335,60.3055
203,631,7.74548,-59.8694,-0.00116176,0.007385,0.00257022,0.00809838,-0.00187514,1.30005,0.00612048,0.0138271,1427,393,7.74547,59.8695
210,631,7.72668,-59.3971,-0.00157101,0.00737003,0.00289916,0.0082278,-0.00242878,1.28313,0.00644909,0.0160821,1434,393,7.72665,59.3971
217,631,7.67078,-58.9037,-0.00181215,0.00750719,0.00308741,0.0084372,-0.00274217,1.27821,0.00672779,0.0182255,1441,393,7.67083,58.9036
224,631,7.61731,-58.3409,-0.0018789,0.00793081,0.00326803,0.00891982,-0.00286791,1.27693,0.00709834,0.0150759,1448,393,7.61732,58.3409
231,631,7.56506,-57.791,-0.00177819,0.00829887,0.00354103,0.00941872,-0.00289805,1.2645,0.00743586,0.0112103,1455,393,7.5651,57.791
238,631,7.50806,-57.1983,-0.00181268,0.00874716,0.00376583,0.00995254,-0.00301806,1.26102,0.0078372,0.0170521,1462,393,7.50808,57.1983
245,631,7.49158,-56.6194,-0.00183507,0.00938533,0.00407633,0.0107099,-0.00315962,1.25662,0.00839376,0.0188052,1469,393,7.49163,56.6194
252,631,7.42554,-56.0491,-0.00154892,0.0103816,0.00459276,0.0119448,-0.00311213,1.24273,0.00917816,0.0179312,1476,393,7.42558,56.0491
259,631,7.375,-55.4328,-0.000934955,0.011993,0.00554849,0.0140477,-0.00298971,1.21613,0.0105045,0.0133471,1483,393,7.37497,55.4328
266,631,7.31775,-54.8176,-0.000590485,0.01318,0.00633268,0.0156494,-0.00305988,1.19899,0.0115884,0.0120309,1490,393,7.31771,54.8176
273,631,7.27039,-54.1661,-0.000131368,0.0149037,0.00742022,0.017949,-0.00317665,1.18135,0.0131534,0.0155599,1497,393,7.27043,54.1661
280,631,7.24609,-53.4549,0.000508005,0.0168242,0.00867059,0.0205713,-0.0032391,1.16288,0.0149116,0.0147614,1504,393,7.24614,53.4549
287,631,7.16333,-52.7634,0.0013565,0.0192956,0.0102882,0.0239752,-0.00332313,1.14391,0.0171985,0.0157329,1511,393,7.16329,52.7634
294,631,7.06165,-51.988,0.00207618,0.0217843,0.0118886,0.0273718,-0.00351132,1.13145,0.0195238,0.0205375,1518,393,7.06165,51.988
301,631,6.99023,-51.106,0.00284151,0.0241879,0.013567,0.0307768,-0.00374737,1.11869,0.0218742,0.0344722,1525,393,6.99027,51.1061
308,631,7.23792,-50.1371,0.00391607,0.0272465,0.015442,0.0349341,-0.00377161,1.10888,0.024643,0.0450957,1532,393,7.23787,50.1371
315,631,7.31519,-49.3545,0,0,0,0,0,0,0,-1,1539,393,7.31514,49.3545
322,631,6.97778,-49.2321,0,0,0,0,0,0,0,-1,1546,393,6.97783,49.2321
329,631,5.70972,-38.2651,0,0,0,0,0,0,0,-1,1553,393,5.70967,38.2651
336,631,5.38281,-39.6306,0,0,0,0,0,0,0,-1,1560,393,5.38277,39.6306
343,631,6.21558,-38.7278,0,0,0,0,0,0,0,-1,1567,393,6.21558,38.7278
350,631,5.18359,-35.9677,0,0,0,0,0,0,0,-1,1574,393,5.18355,35.9677
357,631,2.6449,-9.60303,0,0,0,0,0,0,0,-1,1581,393,2.64491,9.60304
364,631,3.39136,-5.7594,0,0,0,0,0,0,0,-1,1588,393,3.39137,5.75939
371,631,3.72839,-6.0574,0,0,0,0,0,0,0,-1,1595,393,3.72845,6.05742
378,631,4.06555,-6.35544,0,0,0,0,0,0,0,-1,1602,393,4.06553,6.35544
385,631,3.90442,-3.58298,0,0,0,0,0,0,0,-1,1609,393,3.90437,3.58299
392,631,0.352295,-2.21301,0,0,0,0,0,0,0,-1,1616,393,0.352345,2.213
399,631,0,0,0,0,0,0,0,0,0,-1,1623,393,0,0
406,631,0,0,0,0,0,0,0,0,0,-1,1630,393,0,0
413,631,0,0,0,0,0,0,0,0,0,-1,1637,393,0,0
420,631,0,0,0,0,0,0,0,0,0,-1,1644,393,0,0
427,631,0,0,0,0,0,0,0,0,0,-1,1651,393,0,0
434,631,0,0,0,0,0,0,0,0,0,-1,1658,393,0,0
441,631,0,0,0,0,0,0,0,0,0,-1,1665,393,0,0
448,631,0,0,0,0,0,0,0,0,0,-1,1672,393,0,0
455,631,0,0,0,0,0,0,0,0,0,-1,1679,393,0,0
462,631,0,0,0,0,0,0,0,0,0,-1,1686,393,0,0
469,631,0,0,0,0,0,0,0,0,0,-1,1693,393,0,0
476,631,0,0,0,0,0,0,0,0,0,-1,1700,393,0,0
483,631,0,0,0,0,0,0,0,0,0,-1,1707,393,0,0
490,631,0,0,0,0,0,0,0,0,0,-1,1714,393,0,0
497,631,0,0,0,0,0,0,0,0,0,-1,1721,393,0,0
504,631,0,0,0,0,0,0,0,0,0,-1,1728,393,0,0
511,631,0,0,0,0,0,0,0,0,0,-1,1735,393,0,0
518,631,0,0,0,0,0,0,0,0,0,-1,1742,393,0,0
525,631,0,0,0,0,0,0,0,0,0,-1,1749,393,0,0
532,631,0,0,0,0,0,0,0,0,0,-1,1756,393,0,0
539,631,0,0,0,0,0,0,0,0,0,-1,1763,393,0,0
546,631,0,0,0,0,0,0,0,0,0,-1,1770,393,0,0
553,631,0,0,0,0,0,0,0,0,0,-1,1777,393,0,0
560,631,0,0,0,0,0,0,0,0,0,-1,1784,393,0,0
567,631,0,0,0,0,0,0,0,0,0,-1,1791,393,0,0
574,631,0,0,0,0,0,0,0,0,0,-1,1798,393,0,0
581,631,0,0,0,0,0,0,0,0,0,-1,1805,393,0,0
588,631,0,0,0,0,0,0,0,0,0,-1,1812,393,0,0
595,631,0,0,0,0,0,0,0,0,0,-1,1819,393,0,0
602,631,0,0,0,0,0,0,0,0,0,-1,1826,393,0,0
609,631,0,0,0,0,0,0,0,0,0,-1,1833,393,0,0
616,631,0,0,0,0,0,0,0,0,0,-1,1840,393,0,0
623,631,0,0,0,0,0,0,0,0,0,-1,1847,393,0,0
630,631,0,0,0,0,0,0,0,0,0,-1,1854,393,0,0
637,631,0,0,0,0,0,0,0,0,0,-1,1861,393,0,0
644,631,0,0,0,0,0,0,0,0,0,-1,1868,393,0,0
651,631,0,0,0,0,0,0,0,0,0,-1,1875,393,0,0
658,631,0,0,0,0,0,0,0,0,0,-1,1882,393,0,0
665,631,0,0,0,0,0,0,0,0,0,-1,1889,393,0,0
672,631,0,0,0,0,0,0,0,0,0,-1,1896,393,0,0
679,631,0,0,0,0,0,0,0,0,0,-1,1903,393,0,0
686,631,0,0,0,0,0,0,0,0,0,-1,1910,393,0,0
693,631,0,0,0,0,0,0,0,0,0,-1,1917,393,0,0
700,631,0,0,0,0,0,0,0,0,0,-1,1924,393,0,0
707,631,0,0,0,0,0,0,0,0,0,-1,1931,393,0,0
714,631,0,0,0,0,0,0,0,0,0,-1,1938,393,0,0
721,631,0,0,0,0,0,0,0,0,0,-1,1945,393,0,0
728,631,0,0,0,0,0,0,0,0,0,-1,1952,393,0,0
735,631,0,0,0,0,0,0,0,0,0,-1,1959,393,0,0
742,631,0,0,0,0,0,0,0,0,0,-1,1966,393,0,0
749,631,0,0,0,0,0,0,0,0,0,-1,1973,393,0,0
756,631,0,0,0,0,0,0,0,0,0,-1,1980,393,0,0
763,631,0,0,0,0,0,0,0,0,0,-1,1987,393,0,0
770,631,0,0,0,0,0,0,0,0,0,-1,1994,393,0,0
777,631,0,0,0,0,0,0,0,0,0,-1,2001,393,0,0
784,631,0,0,0,0,0,0,0,0,0,-1,2008,393,0,0
791,631,0,0,0,0,0,0,0,0,0,-1,2015,393,0,0
798,631,0,0,0,0,0,0,0,0,0,-1,2022,393,0,0
805,631,0,0,0,0,0,0,0,0,0,-1,2029,393,0,0
812,631,0,0,0,0,0,0,0,0,0,-1,2036,393,0,0
-700,624,0,0,0,0,0,0,0,0,0,-1,524,400,0,0
-693,624,0,0,0,0,0,0,0,0,0,-1,531,400,0,0
-686,624,0,0,0,0,0,0,0,0,0,-1,538,400,0,0
-679,624,0,0,0,0,0,0,0,0,0,-1,545,400,0,0
-672,624,0,0,0,0,0,0,0,0,0,-1,552,400,0,0
-665,624,0,0,0,0,0,0,0,0,0,-1,559,400,0,0
-658,624,0,0,0,0,0,0,0,0,0,-1,566,400,0,0
-651,624,0,0,0,0,0,0,0,0,0,-1,573,400,0,0
-644,624,0,0,0,0,0,0,0,0,0,-1,580,400,0,0
-637,624,0,0,0,0,0,0,0,0,0,-1,587,400,0,0
-630,624,0,0,0,0,0,0,0,0,0,-1,594,400,0,0
-623,624,0,0,0,0,0,0,0,0,0,-1,601,400,0,0
-616,624,0,0,0,0,0,0,0,0,0,-1,608,400,0,0
-609,624,0,0,0,0,0,0,0,0,0,-1,615,400,0,0
-602,624,0,0,0,0,0,0,0,0,0,-1,622,400,0,0
-595,624,0,0,0,0,0,0,0,0,0,-1,629,400,0,0
-588,624,0,0,0,0,0,0,0,0,0,-1,636,400,0,0
-581,624,0,0,0,0,0,0,0,0,0,-1,643,400,0,0
-574,624,0,0,0,0,0,0,0,0,0,-1,650,400,0,0
-567,624,0,0,0,0,0,0,0,0,0,-1,657,400,0,0
-560,624,0,0,0,0,0,0,0,0,0,-1,664,400,0,0
-553,624,0,0,0,0,0,0,0,0,0,-1,671,400,0,0
-546,624,0,0,0,0,0,0,0,0,0,-1,678,400,0,0
-539,624,0,0,0,0,0,0,0,0,0,-1,685,400,0,0
-532,624,0,0,0,0,0,0,0,0,0,-1,692,400,0,0
-525,624,0,0,0,0,0,0,0,0,0,-1,699,400,0,0
-518,624,0,0,0,0,0,0,0,0,0,-1,706,400,0,0
-511,624,0,0,0,0,0,0,0,0,0,-1,713,400,0,0
-504,624,0,0,0,0,0,0,0,0,0,-1,720,400,0,0
-497,624,0,0,0,0,0,0,0,0,0,-1,727,400,0,0
-490,624,0,0,0,0,0,0,0,0,0,-1,734,400,0,0
-483,624,0,0,0,0,0,0,0,0,0,-1,741,400,0,0
-476,624,0,0,0,0,0,0,0,0,0,-1,748,400,0,0
-469,624,0,0,0,0,0,0,0,0,0,-1,755,400,0,0
-462,624,0,0,0,0,0,0,0,0,0,-1,762,400,0,0
-455,624,0,0,0,0,0,0,0,0,0,-1,769,400,0,0
-448,624,0,0,0,0,0,0,0,0,0,-1,776,400,0,0
-441,624,0,0,0,0,0,0,0,0,0,-1,783,400,0,0
-434,624,0,0,0,0,0,0,0,0,0,-1,790,400,0,0
-427,624,0,0,0,0,0,0,0,0,0,-1,797,400,0,0
-420,624,0,0,0,0,0,0,0,0,0,-1,804,400,0,0
-413,624,0,0,0,0,0,0,0,0,0,-1,811,400,0,0
-406,624,0,0,0,0,0,0,0,0,0,-1,818,400,0,0
-399,624,0,0,0,0,0,0,0,0,0,-1,825,400,0,0
-392,624,0,0,0,0,0,0,0,0,0,-1,832,400,0,0
-385,624,0,0,0,0,0,0,0,0,0,-1,839,400,0,0
-378,624,0,0,0,0,0,0,0,0,0,-1,846,400,0,0
-371,624,0,0,0,0,0,0,0,0,0,-1,853,400,0,0
-364,624,0,0,0,0,0,0,0,0,0,-1,860,400,0,0
-357,624,0,0,0,0,0,0,0,0,0,-1,867,400,0,0
-350,624,0,0,0,0,0,0,0,0,0,-1,874,400,0,0
-343,624,0,0,0,0,0,0,0,0,0,-1,881,400,0,0
-336,624,0,0,0,0,0,0,0,0,0,-1,888,400,0,0
-329,624,0,0,0,0,0,0,0,0,0,-1,895,400,0,0
-322,624,0,0,0,0,0,0,0,0,0,-1,902,400,0,0
-315,624,0,0,0,0,0,0,0,0,0,-1,909,400,0,0
-308,624,0,0,0,0,0,0,0,0,0,-1,916,400,0,0
-301,624,0,0,0,0,0,0,0,0,0,-1,923,400,0,0
-294,624,5.08527,-28.5311,0,0,0,0,0,0,0,-1,930,400,5.08525,28.5311
-287,624,6.70825,-33.8,0,0,0,0,0,0,0,-1,937,400,6.70827,33.8
-280,624,6.92474,-33.8738,0,0,0,0,0,0,0,-1,944,400,6.92477,33.8739
-273,624,8.617,-37.3463,0,0,0,0,0,0,0,-1,951,400,8.61697,37.3463
-266,624,7.71747,-37.0599,0,0,0,0,0,0,0,-1,958,400,7.7175,37.0599
-259,624,7.33569,-33.1199,0,0,0,0,0,0,0,-1,965,400,7.33567,33.1199
-252,624,7.5528,-32.8158,0,0,0,0,0,0,0,-1,972,400,7.5528,32.8158
-245,624,6.8396,-32.02,0,0,0,0,0,0,0,-1,979,400,6.83963,32.02
-238,624,6.99402,-31.5278,0,0,0,0,0,0,0,-1,986,400,6.99404,31.5278
-231,624,3.86121,-29.6032,0,0,0,0,0,0,0,-1,993,400,3.86122,29.6032
-224,624,4.59351,-27.4048,0,0,0,0,0,0,0,-1,1000,400,4.59353,27.4048
-217,624,5.90167,-32.048,0,0,0,0,0,0,0,-1,1007,400,5.90167,32.048
-210,624,7.94391,-47.8044,0,0,0,0,0,0,0,-1,1014,400,7.9439,47.8045
-203,624,7.84082,-48.6956,0,0,0,0,0,0,0,-1,1021,400,7.84084,48.6956
-196,624,7.87939,-49.3716,0,0,0,0,0,0,0,-1,1028,400,7.87942,49.3716
-189,624,7.77234,-50.2071,0,0,0,0,0,0,0,-1,1035,400,7.77238,50.2071
-182,624,7.61902,-51.0294,0,0,0,0,0,0,0,-1,1042,400,7.61906,51.0294
-175,624,7.48816,-51.5355,-0.002247,0.0123085,-0.00827926,0.016054,-0.00599248,-1.14595,0.013163,0.0325505,1049,400,7.48812,51.5355
-168,624,7.57788,-52.3939,-0.00242986,0.0104781,-0.00735892,0.0138122,-0.00576402,-1.14539,0.0116164,0.0240684,1056,400,7.57787,52.3939
-161,624,7.46436,-53.127,-0.00248975,0.00903429,-0.0065156,0.0119702,-0.00542566,-1.14745,0.0102777,0.0129149,1063,400,7.46435,53.1271
-154,624,7.41357,-53.7722,-0.00255602,0.00770011,-0.00572019,0.0102543,-0.00511025,-1.15083,0.00903495,0.0104739,1070,400,7.41355,53.7722
-147,624,7.36768,-54.4222,-0.00255876,0.00661436,-0.00502494,0.00883123,-0.00477562,-1.15531,0.00797138,0.0118926,1077,400,7.36771,54.4222
-140,624,7.31238,-55.0463,-0.00243561,0.00558095,-0.0044279,0.00754533,-0.00439998,-1.15325,0.00697587,0.0108185,1084,400,7.31233,55.0463
-133,624,7.2467,-55.6577,-0.00230891,0.00478633,-0.00387003,0.00648873,-0.00401131,-1.15638,0.00611819,0.0112136,1091,400,7.24672,55.6577
-126,624,7.21313,-56.2421,-0.00222131,0.00411558,-0.00330238,0.00552368,-0.00362941,-1.16775,0.00532213,0.0130496,1098,400,7.21319,56.2421
-119,624,7.17725,-56.8122,-0.00211736,0.00335361,-0.00273627,0.00448724,-0.00325099,-1.17803,0.00448663,0.0158599,1105,400,7.17721,56.8122
-112,624,7.13867,-57.3714,-0.00184925,0.00284465,-0.00229622,0.00378111,-0.00278572,-1.18356,0.00380585,0.0190659,1112,400,7.13872,57.3714
-105,624,7.13281,-57.9096,-0.00147763,0.00252996,-0.00200578,0.00336136,-0.00230904,-1.17785,0.00329254,0.014078,1119,400,7.13279,57.9096
-98,624,7.06445,-58.4482,-0.00111857,0.00226584,-0.00172336,0.00298891,-0.00184164,-1.17354,0.00281501,0.013618,1126,400,7.06448,58.4482
-91,624,7.06555,-58.9772,-0.000722147,0.00206406,-0.00145224,0.00268335,-0.00134144,-1.16771,0.00236637,0.0214072,1133,400,7.06559,58.9772
-84,624,7.0636,-59.4941,-0.000207446,0.00179579,-0.00116871,0.00233337,-0.000745021,-1.13968,0.00185449,0.020019,1140,400,7.06363,59.4941
-77,624,7.02319,-59.963,0.000340659,0.00150162,-0.000897981,0.00199041,-0.000148125,-1.07233,0.00137897,0.0148329,1147,400,7.02315,59.963
-70,624,7.03174,-60.3895,0.000891507,0.00119535,-0.00063998,0.00170119,0.000385663,-0.901933,0.00102993,0.0169972,1154,400,7.03171,60.3895
-63,624,7.03735,-60.8631,0.00151178,0.000827207,-0.000421151,0.00171219,0.000626788,-0.444168,0.00100029,0.0182675,1161,400,7.03732,60.8631
-56,624,6.98218,-61.2979,0.00206005,0.000295383,-0.000169311,0.00207615,0.000279285,-0.0947925,0.00130103,0.0151642,1168,400,6.98223,61.2979
-49,624,6.99268,-61.7127,0.00256425,-0.000262814,7.27871e-05,0.00256612,-0.000264687,0.0257238,0.00180545,0.0121747,1175,400,6.99262,61.7127
-42,624,6.99548,-62.0554,0.00304031,-0.000805316,0.000279138,0.00306046,-0.000825472,0.0720825,0.002364,0.0103562,1182,400,6.99545,62.0554
-35,624,6.99976,-62.3958,0.00345907,-0.00119583,0.000442552,0.00350077,-0.00123753,0.0939507,0.00283778,0.0157166,1189,400,6.9998,62.3958
-28,624,7.0188,-62.7582,0.00381894,-0.00209289,0.000458334,0.00385427,-0.00212822,0.0769157,0.00350158,0.0211824,1196,400,7.01885,62.7582
-21,624,7.05664,-63.0473,0.00419459,-0.00299154,0.000329468,0.00420966,-0.00300661,0.0457199,0.00418557,0.0155375,1203,400,7.05668,63.0473
-14,624,7.08337,-63.3277,0.00448659,-0.00361553,-9.14801e-05,0.00448762,-0.00361656,-0.011289,0.00468795,0.0166438,1210,400,7.0834,63.3277
-7,624,7.11328,-63.5861,0.00449839,-0.00446782,-0.000540458,0.00453085,-0.00450028,-0.0599878,0.00521413,0.022116,1217,400,7.11332,63.5861
0,624,7.14136,-63.8176,0.00414745,-0.00501853,-0.000904154,0.00423579,-0.00510687,-0.0973916,0.0054018,0.0228219,1224,400,7.1413,63.8176
7,624,7.14868,-64.0256,0.0032549,-0.00484959,-0.000634368,0.00330426,-0.00489894,-0.0776435,0.00476586,0.0156519,1231,400,7.14872,64.0256
14,624,7.20544,-64.2499,0.00214675,-0.00443045,-3.08463e-06,0.00214675,-0.00443045,-0.000468989,0.0038729,0.0127787,1238,400,7.20545,64.2499
21,624,7.24109,-64.3936,0.00145739,-0.00350447,0.000734094,0.00156372,-0.0036108,0.143843,0.00306444,0.0163988,1245,400,7.24103,64.3936
28,624,7.26794,-64.5344,0.000970262,-0.00181755,0.00155924,0.00166781,-0.0025151,0.420662,0.00243146,0.0152982,1252,400,7.26794,64.5344
35,624,7.35071,-64.6388,0.000284037,0.000449162,0.00274659,0.00311443,-0.00238123,0.800424,0.00318232,0.0175207,1259,400,7.35071,64.6388
42,624,7.45105,-64.7365,-0.000189729,0.0028387,0.00432373,0.0059057,-0.00325673,0.953829,0.00536312,0.0183891,1266,400,7.45111,64.7365
49,624,7.52661,-64.7773,-0.000420128,0.00542936,0.0058821,0.00907372,-0.00406449,1.01611,0.00776696,0.0194835,1273,400,7.52667,64.7773
56,624,7.55164,-64.8882,-0.000679888,0.00788266,0.00741857,0.0121667,-0.00496393,1.0471,0.0101776,0.0202614,1280,400,7.55169,64.8882
63,624,7.61572,-64.9001,-0.000834006,0.00980683,0.00894317,0.0148925,-0.0059197,1.05373,0.0123826,0.0161731,1287,400,7.61576,64.9002
70,624,7.61768,-64.903,-0.000674023,0.011164,0.0099467,0.0168196,-0.00632963,1.05379,0.013815,0.0150152,1294,400,7.61767,64.903
77,624,7.68481,-64.8375,-0.000523978,0.0123933,0.010837,0.0185503,-0.00668099,1.05413,0.015095,0.0156171,1301,400,7.68487,64.8374
84,624,7.74646,-64.7652,-0.000295189,0.0124585,0.0111882,0.0189596,-0.00679623,1.04442,0.015413,0.0136702,1308,400,7.74648,64.7652
91,624,7.78638,-64.6634,-0.000139996,0.0112898,0.0113171,0.0182531,-0.0071033,1.01921,0.0151039,0.0148577,1315,400,7.78636,64.6634
98,624,7.8219,-64.5698,3.27656e-05,0.00982793,0.0113577,0.017299,-0.00743831,0.988959,0.0146554,0.0144228,1322,400,7.82194,64.5697
105,624,7.86072,-64.4392,0.000424499,0.00811098,0.0109982,0.0159181,-0.00738258,0.953488,0.0137502,0.0152454,1329,400,7.86075,64.4392
112,624,7.92993,-64.2878,0.000985091,0.0058689,0.0101746,0.0138906,-0.00703658,0.90317,0.0122964,0.0157678,1336,400,7.92991,64.2878
119,624,7.9613,-64.1404,0.00150609,0.00355333,0.00916195,0.0117487,-0.00668924,0.84103,0.0107779,0.0156275,1343,400,7.96133,64.1404
126,624,7.96509,-63.8729,0.00167478,0.00134605,0.00813276,0.00964483,-0.006624,0.775295,0.00944663,0.0191737,1350,400,7.96514,63.8729
133,624,8.02527,-63.5749,0.00175098,-0.000756756,0.0071585,0.00776459,-0.00677037,0.698699,0.00839831,0.0189567,1357,400,8.02531,63.5749
140,624,8.05872,-63.352,0.00212391,-0.0024815,0.006062,0.00630582,-0.00666341,0.603886,0.00748874,0.0184395,1364,400,8.05871,63.352
147,624,8.05994,-63.0483,0.00236825,-0.00336417,0.00482187,0.00511146,-0.00610738,0.517245,0.0064857,0.0228497,1371,400,8.05997,63.0484
154,624,8.1814,-62.7152,0.00253947,-0.00357127,0.00376012,0.00432908,-0.00536088,0.444218,0.00560506,0.0241843,1378,400,8.18146,62.7152
161,624,8.23145,-62.3479,0.00283121,-0.00293464,0.00286953,0.0040159,-0.00411932,0.391535,0.004697,0.0233837,1385,400,8.2314,62.3479
168,624,8.21045,-61.9787,0.00292023,-0.00193393,0.00199273,0.00363348,-0.00264718,0.343719,0.00364101,0.024273,1392,400,8.2104,61.9787
175,624,8.20972,-61.645,0.00256581,-0.000751177,0.00163629,0.00323713,-0.0014225,0.38933,0.0027574,0.0188104,1399,400,8.20969,61.645
182,624,8.19739,-61.2562,0.00212849,0.000420905,0.00129134,0.00282276,-0.000273373,0.493305,0.00197927,0.0121836,1406,400,8.19742,61.2562
189,624,8.17981,-60.7743,0.00168392,0.00159029,0.00113113,0.0027692,0.000505001,0.764715,0.00170295,0.0119169,1413,400,8.17976,60.7743
196,624,8.15869,-60.3129,0.0013805,0.00281625,0.00100102,0.0033302,0.000866558,1.09647,0.00199503,0.0123077,1420,400,8.15868,60.3129
203,624,8.17627,-59.8378,0.000979829,0.00370192,0.00102445,0.00404438,0.000637368,1.24819,0.00251091,0.0147382,1427,400,8.17629,59.8378
210,624,8.20935,-59.3733,0.000452152,0.00423539,0.00142028,0.00470923,-2.16914e-05,1.24878,0.00314674,0.0190131,1434,400,8.2093,59.3733
217,624,8.14563,-58.8859,5.40988e-05,0.00469805,0.00173799,0.00527644,-0.0005243,1.24953,0.00370478,0.0227262,1441,400,8.14557,58.8859
224,624,8.10034,-58.3396,-0.000180524,0.00523401,0.00203923,0.00591611,-0.000862616,1.24801,0.00426082,0.0183304,1448,400,8.1004,58.3396
231,624,8.11243,-57.7985,-0.000282683,0.00570498,0.00240291,0.00655003,-0.00112773,1.23263,0.00478708,0.0128942,1455,400,8.11238,57.7985
238,624,8.08508,-57.2484,-0.000424949,0.00620225,0.00269958,0.00716272,-0.00138542,1.22898,0.00529769,0.0185238,1462,400,8.08504,57.2483
245,624,8.05762,-56.6908,-0.000554206,0.00681831,0.00302094,0.00789803,-0.00163393,1.22753,0.00588609,0.0189797,1469,400,8.0576,56.6908
252,624,8.01807,-56.068,-0.000503691,0.00770211,0.0034869,0.00898366,-0.00178524,1.21859,0.00666437,0.0128531,1476,400,8.01809,56.068
259,624,7.95752,-55.4542,-0.000246731,0.00903091,0.00428352,0.0107061,-0.00192196,1.198,0.00785683,0.00931901,1483,400,7.95758,55.4542
266,624,7.9259,-54.8288,-0.000157716,0.0100531,0.004965,0.0120693,-0.00217385,1.18507,0.00886014,0.0135438,1490,400,7.92592,54.8288
273,624,7.87659,-54.1942,2.82462e-05,0.011454,0.00584691,0.0139157,-0.00243342,1.1723,0.0101856,0.0164984,1497,400,7.87655,54.1942
280,624,7.80896,-53.5506,0.000366401,0.0129836,0.00685133,0.0159884,-0.00263839,1.15749,0.0116385,0.0148132,1504,400,7.809,53.5506
287,624,7.76489,-52.8886,0.000883081,0.014929,0.0081299,0.0186492,-0.00283721,1.14164,0.0134785,0.0114913,1511,400,7.76494,52.8886
294,624,7.7002,-52.1923,0.00127519,0.0168111,0.00935155,0.0212001,-0.00311386,1.13198,0.0152775,0.0104702,1518,400,7.70019,52.1923
301,624,7.63464,-51.4303,0.00170797,0.018598,0.0106171,0.0237192,-0.0034132,1.12137,0.0170647,0.0129748,1525,400,7.63468,51.4303
308,624,7.63196,-50.6277,0.00240035,0.0209219,0.0120307,0.0268433,-0.00352109,1.11341,0.0191773,0.0215354,1532,400,7.63199,50.6277
315,624,7.60107,-49.9113,0.00338,0.0237279,0.0137171,0.0306323,-0.00352435,1.10448,0.0216919,0.028024,1539,400,7.60108,49.9114
322,624,7.53479,-49.1999,0.00429911,0.0263333,0.0152969,0.0341675,-0.0035351,1.09748,0.0240435,0.0473708,1546,400,7.53474,49.1999
329,624,7.33667,-48.5994,0,0,0,0,0,0,0,-1,1553,400,7.33671,48.5994
336,624,7.4408,-47.1398,0,0,0,0,0,0,0,-1,1560,400,7.44081,47.1398
343,624,6.53369,-39.5615,0,0,0,0,0,0,0,-1,1567,400,6.53364,39.5615
350,624,1.99194,-7.29742,0,0,0,0,0,0,0,-1,1574,400,1.99198,7.29741
357,624,2.64075,-3.13092,0,0,0,0,0,0,0,-1,1581,400,2.64076,3.13091
364,624,3.16565,-4.9458,0,0,0,0,0,0,0,-1,1588,400,3.16564,4.94579
371,624,3.37561,-5.23529,0,0,0,0,0,0,0,-1,1595,400,3.37563,5.23529
378,624,1.50439,-5.22165,0,0,0,0,0,0,0,-1,1602,400,1.50438,5.22164
385,624,1.2301,-10.5866,0,0,0,0,0,0,0,-1,1609,400,1.2301,10.5866
392,624,4.26819,-5.14236,0,0,0,0,0,0,0,-1,1616,400,4.26818,5.14236
399,624,2.22168,-9.19293,0,0,0,0,0,0,0,-1,1623,400,2.22173,9.19294
406,624,2.68213,-9.91171,0,0,0,0,0,0,0,-1,1630,400,2.68213,9.91171
413,624,0,0,0,0,0,0,0,0,0,-1,1637,400,0,0
420,624,0,0,0,0,0,0,0,0,0,-1,1644,400,0,0
427,624,0,0,0,0,0,0,0,0,0,-1,1651,400,0,0
434,624,0,0,0,0,0,0,0,0,0,-1,1658,400,0,0
441,624,0,0,0,0,0,0,0,0,0,-1,1665,400,0,0
448,624,0,0,0,0,0,0,0,0,0,-1,1672,400,0,0
455,624,0,0,0,0,0,0,0,0,0,-1,1679,400,0,0
462,624,0,0,0,0,0,0,0,0,0,-1,1686,400,0,0
469,624,0,0,0,0,0,0,0,0,0,-1,1693,400,0,0
476,624,0,0,0,0,0,0,0,0,0,-1,1700,400,0,0
483,624,0,0,0,0,0,0,0,0,0,-1,1707,400,0,0
490,624,0,0,0,0,0,0,0,0,0,-1,1714,400,0,0
497,624,0,0,0,0,0,0,0,0,0,-1,1721,400,0,0
504,624,0,0,0,0,0,0,0,0,0,-1,1728,400,0,0
511,624,0,0,0,0,0,0,0,0,0,-1,1735,400,0,0
518,624,0,0,0,0,0,0,0,0,0,-1,1742,400,0,0
525,624,0,0,0,0,0,0,0,0,0,-1,1749,400,0,0
532,624,0,0,0,0,0,0,0,0,0,-1,1756,400,0,0
539,624,0,0,0,0,0,0,0,0,0,-1,1763,400,0,0
546,624,0,0,0,0,0,0,0,0,0,-1,1770,400,0,0
553,624,0,0,0,0,0,0,0,0,0,-1,1777,400,0,0
560,624,0,0,0,0,0,0,0,0,0,-1,1784,400,0,0
567,624,0,0,0,0,0,0,0,0,0,-1,1791,400,0,0
574,624,0,0,0,0,0,0,0,0,0,-1,1798,400,0,0
581,624,0,0,0,0,0,0,0,0,0,-1,1805,400,0,0
588,624,0,0,0,0,0,0,0,0,0,-1,1812,400,0,0
595,624,0,0,0,0,0,0,0,0,0,-1,1819,400,0,0
602,624,0,0,0,0,0,0,0,0,0,-1,1826,400,0,0
609,624,0,0,0,0,0,0,0,0,0,-1,1833,400,0,0
616,624,0,0,0,0,0,0,0,0,0,-1,1840,400,0,0
623,624,0,0,0,0,0,0,0,0,0,-1,1847,400,0,0
630,624,0,0,0,0,0,0,0,0,0,-1,1854,400,0,0
637,624,0,0,0,0,0,0,0,0,0,-1,1861,400,0,0
644,624,0,0,0,0,0,0,0,0,0,-1,1868,400,0,0
651,624,0,0,0,0,0,0,0,0,0,-1,1875,400,0,0
658,624,0,0,0,0,0,0,0,0,0,-1,1882,400,0,0
665,624,0,0,0,0,0,0,0,0,0,-1,1889,400,0,0
672,624,0,0,0,0,0,0,0,0,0,-1,1896,400,0,0
679,624,0,0,0,0,0,0,0,0,0,-1,1903,400,0,0
686,624,0,0,0,0,0,0,0,0,0,-1,1910,400,0,0
693,624,0,0,0,0,0,0,0,0,0,-1,1917,400,0,0
700,624,0,0,0,0,0,0,0,0,0,-1,1924,400,0,0
707,624,0,0,0,0,0,0,0,0,0,-1,1931,400,0,0
714,624,0,0,0,0,0,0,0,0,0,-1,1938,400,0,0
721,624,0,0,0,0,0,0,0,0,0,-1,1945,400,0,0
728,624,0,0,0,0,0,0,0,0,0,-1,1952,400,0,0
735,624,0,0,0,0,0,0,0,0,0,-1,1959,400,0,0
742,624,0,0,0,0,0,0,0,0,0,-1,1966,400,0,0
749,624,0,0,0,0,0,0,0,0,0,-1,1973,400,0,0
756,624,0,0,0,0,0,0,0,0,0,-1,1980,400,0,0
763,624,0,0,0,0,0,0,0,0,0,-1,1987,400,0,0
770,624,0,0,0,0,0,0,0,0,0,-1,1994,400,0,0
777,624,0,0,0,0,0,0,0,0,0,-1,2001,400,0,0
784,624,0,0,0,0,0,0,0,0,0,-1,2008,400,0,0
791,624,0,0,0,0,0,0,0,0,0,-1,2015,400,0,0
798,624,0,0,0,0,0,0,0,0,0,-1,2022,400,0,0
805,624,0,0,0,0,0,0,0,0,0,-1,2029,400,0,0
812,624,0,0,0,0,0,0,0,0,0,-1,2036,400,0,0
-700,617,0,0,0,0,0,0,0,0,0,-1,524,407,0,0
-693,617,0,0,0,0,0,0,0,0,0,-1,531,407,0,0
-686,617,0,0,0,0,0,0,0,0,0,-1,538,407,0,0
-679,617,0,0,0,0,0,0,0,0,0,-1,545,407,0,0
-672,617,0,0,0,0,0,0,0,0,0,-1,552,407,0,0
-665,617,0,0,0,0,0,0,0,0,0,-1,559,407,0,0
-658,617,0,0,0,0,0,0,0,0,0,-1,566,407,0,0
-651,617,0,0,0,0,0,0,0,0,0,-1,573,407,0,0
-644,617,0,0,0,0,0,0,0,0,0,-1,580,407,0,0
-637,617,0,0,0,0,0,0,0,0,0,-1,587,407,0,0
-630,617,0,0,0,0,0,0,0,0,0,-1,594,407,0,0
-623,617,0,0,0,0,0,0,0,0,0,-1,601,407,0,0
-616,617,0,0,0,0,0,0,0,0,0,-1,608,407,0,0
-609,617,0,0,0,0,0,0,0,0,0,-1,615,407,0,0
-602,617,0,0,0,0,0,0,0,0,0,-1,622,407,0,0
-595,617,0,0,0,0,0,0,0,0,0,-1,629,407,0,0
-588,617,0,0,0,0,0,0,0,0,0,-1,636,407,0,0
-581,617,0,0,0,0,0,0,0,0,0,-1,643,407,0,0
-574,617,0,0,0,0,0,0,0,0,0,-1,650,407,0,0
-567,617,0,0,0,0,0,0,0,0,0,-1,657,407,0,0
-560,617,0,0,0,0,0,0,0,0,0,-1,664,407,0,0
-553,617,0,0,0,0,0,0,0,0,0,-1,671,407,0,0
-546,617,0,0,0,0,0,0,0,0,0,-1,678,407,0,0
-539,617,0,0,0,0,0,0,0,0,0,-1,685,407,0,0
-532,617,0,0,0,0,0,0,0,0,0,-1,692,407,0,0
-525,617,0,0,0,0,0,0,0,0,0,-1,699,407,0,0
-518,617,0,0,0,0,0,0,0,0,0,-1,706,407,0,0
-511,617,0,0,0,0,0,0,0,0,0,-1,713,407,0,0
-504,617,0,0,0,0,0,0,0,0,0,-1,720,407,0,0
-497,617,0,0,0,0,0,0,0,0,0,-1,727,407,0,0
-490,617,0,0,0,0,0,0,0,0,0,-1,734,407,0,0
-483,617,0,0,0,0,0,0,0,0,0,-1,741,407,0,0
-476,617,0,0,0,0,0,0,0,0,0,-1,748,407,0,0
-469,617,0,0,0,0,0,0,0,0,0,-1,755,407,0,0
-462,617,0,0,0,0,0,0,0,0,0,-1,762,407,0,0
-455,617,0,0,0,0,0,0,0,0,0,-1,769,407,0,0
-448,617,0,0,0,0,0,0,0,0,0,-1,776,407,0,0
-441,617,0,0,0,0,0,0,0,0,0,-1,783,407,0,0
-434,617,0,0,0,0,0,0,0,0,0,-1,790,407,0,0
-427,617,0,0,0,0,0,0,0,0,0,-1,797,407,0,0
-420,617,0,0,0,0,0,0,0,0,0,-1,804,407,0,0
-413,617,0,0,0,0,0,0,0,0,0,-1,811,407,0,0
-406,617,0,0,0,0,0,0,0,0,0,-1,818,407,0,0
-399,617,0,0,0,0,0,0,0,0,0,-1,825,407,0,0
-392,617,0,0,0,0,0,0,0,0,0,-1,832,407,0,0
-385,617,0,0,0,0,0,0,0,0,0,-1,839,407,0,0
-378,617,0,0,0,0,0,0,0,0,0,-1,846,407,0,0
-371,617,0,0,0,0,0,0,0,0,0,-1,853,407,0,0
-364,617,0,0,0,0,0,0,0,0,0,-1,860,407,0,0
-357,617,0,0,0,0,0,0,0,0,0,-1,867,407,0,0
-350,617,0,0,0,0,0,0,0,0,0,-1,874,407,0,0
-343,617,0,0,0,0,0,0,0,0,0,-1,881,407,0,0
-336,617,0,0,0,0,0,0,0,0,0,-1,888,407,0,0
-329,617,0,0,0,0,0,0,0,0,0,-1,895,407,0,0
-322,617,0,0,0,0,0,0,0,0,0,-1,902,407,0,0
-315,617,0,0,0,0,0,0,0,0,0,-1,909,407,0,0
-308,617,0,0,0,0,0,0,0,0,0,-1,916,407,0,0
-301,617,6.81897,-24.525,0,0,0,0,0,0,0,-1,923,407,6.81899,24.525
-294,617,6.19263,-26.917,0,0,0,0,0,0,0,-1,930,407,6.19261,26.917
-287,617,7.00409,-31.9773,0,0,0,0,0,0,0,-1,937,407,7.00406,31.9773
-280,617,9.1106,-36.5021,0,0,0,0,0,0,0,-1,944,407,9.11059,36.5021
-273,617,8.35004,-36.2751,0,0,0,0,0,0,0,-1,951,407,8.35003,36.2751
-266,617,7.61749,-36.1671,0,0,0,0,0,0,0,-1,958,407,7.61746,36.1671
-259,617,6.83643,-36.3605,0,0,0,0,0,0,0,-1,965,407,6.83643,36.3605
-252,617,6.02264,-36.5001,0,0,0,0,0,0,0,-1,972,407,6.02265,36.5001
-245,617,6.72626,-34.4465,0,0,0,0,0,0,0,-1,979,407,6.72627,34.4465
-238,617,5.6474,-34.6842,0,0,0,0,0,0,0,-1,986,407,5.64741,34.6842
-231,617,7.4007,-43.5836,0,0,0,0,0,0,0,-1,993,407,7.40069,43.5836
-224,617,7.15375,-46.1415,0,0,0,0,0,0,0,-1,1000,407,7.15376,46.1415
-217,617,7.28412,-47.0788,0,0,0,0,0,0,0,-1,1007,407,7.28413,47.0788
-210,617,7.26245,-48.037,-0.000907939,0.0203826,-0.0105738,0.0247416,-0.00526692,-1.17978,0.0185016,0.0332062,1014,407,7.26244,48.037
-203,617,7.21277,-48.8989,-0.00112099,0.0176158,-0.00951579,0.0216009,-0.00510614,-1.17419,0.0163703,0.0247629,1021,407,7.21275,48.8989
-196,617,7.16089,-49.5494,-0.00121403,0.0150762,-0.00858497,0.0187651,-0.00490296,-1.16495,0.0144249,0.018442,1028,407,7.16083,49.5494
-189,617,7.06519,-50.3293,-0.00128672,0.0127942,-0.00780332,0.0162637,-0.00475624,-1.15242,0.0127277,0.0163887,1035,407,7.06513,50.3293
-182,617,6.98608,-51.0601,-0.0012886,0.0109664,-0.00703841,0.0141709,-0.00449306,-1.14356,0.0112482,0.01826,1042,407,6.98604,51.0601
-175,617,6.974,-51.7438,-0.00131553,0.00945116,-0.0063015,0.0123557,-0.00422009,-1.13889,0.00994686,0.0170179,1049,407,6.97394,51.7438
-168,617,6.91394,-52.447,-0.00139003,0.00786695,-0.00552899,0.0104491,-0.00397213,-1.13389,0.00860144,0.0133283,1056,407,6.91393,52.447
-161,617,6.82703,-53.143,-0.00136789,0.00660376,-0.00481468,0.00886837,-0.0036325,-1.13114,0.0074254,0.0119628,1063,407,6.82699,53.143
-154,617,6.77759,-53.7771,-0.00134663,0.00546783,-0.0041224,0.00740881,-0.00328761,-1.13075,0.00632653,0.0124742,1070,407,6.77758,53.7771
-147,617,6.73889,-54.3993,-0.00126564,0.00455852,-0.00352478,0.00621856,-0.00292567,-1.13065,0.00539232,0.0178028,1077,407,6.73886,54.3993
-140,617,6.69409,-55.066,-0.00108184,0.00368185,-0.0029952,0.0051268,-0.00252679,-1.12131,0.00450299,0.0137696,1084,407,6.69412,55.066
-133,617,6.66614,-55.6703,-0.000884481,0.00301359,-0.00250458,0.00423814,-0.00210903,-1.11605,0.00373263,0.0148972,1091,407,6.66614,55.6704
-126,617,6.65161,-56.2333,-0.000684857,0.00248028,-0.00204016,0.00347972,-0.0016843,-1.11527,0.00304092,0.01476,1098,407,6.65165,56.2333
-119,617,6.59766,-56.817,-0.00042747,0.00191731,-0.00157922,0.00271175,-0.00122191,-1.1047,0.00232476,0.0150146,1105,407,6.59768,56.817
-112,617,6.57324,-57.372,-3.0684e-05,0.00156191,-0.00123487,0.00223497,-0.00070374,-1.07177,0.00177177,0.0162647,1112,407,6.57324,57.372
-105,617,6.56238,-57.8988,0.000447634,0.00135428,-0.00101576,0.00201329,-0.000211371,-0.99528,0.00141791,0.0173759,1119,407,6.56242,57.8988
-98,617,6.52954,-58.4364,0.000960964,0.00114207,-0.000821842,0.00187833,0.000224701,-0.840268,0.00118445,0.0140011,1126,407,6.5296,58.4364
-91,617,6.54883,-58.9507,0.00156001,0.000964417,-0.000651747,0.00197878,0.000545656,-0.5711,0.00118012,0.0202062,1133,407,6.54885,58.9507
-84,617,6.5769,-59.4822,0.00221184,0.000678378,-0.000404094,0.00231181,0.000578409,-0.242521,0.00138914,0.0194797,1140,407,6.57692,59.4822
-77,617,6.55469,-59.9534,0.00291581,0.00022086,-0.000172237,0.00292677,0.000209897,-0.0635662,0.00188511,0.0148719,1147,407,6.55467,59.9534
-70,617,6.60461,-60.406,0.00368259,-0.000277794,5.83318e-05,0.00368345,-0.000278653,0.0147246,0.00255359,0.0172076,1154,407,6.6046,60.406
-63,617,6.65405,-60.8719,0.00446273,-0.00105876,0.000334247,0.00448289,-0.00107892,0.0602423,0.00340569,0.0211736,1161,407,6.65402,60.8719
-56,617,6.58618,-61.2812,0.00507406,-0.0019969,0.000617289,0.00512754,-0.00205038,0.0864281,0.00426923,0.0162904,1168,407,6.5862,61.2812
-49,617,6.61255,-61.709,0.00562502,-0.00286143,0.000815236,0.00570262,-0.00293903,0.0949068,0.00507359,0.0128157,1175,407,6.61251,61.709
-42,617,6.65381,-62.0732,0.00615538,-0.00369598,0.00100789,0.00625744,-0.00379804,0.100917,0.00586313,0.0118561,1182,407,6.65379,62.0732
-35,617,6.67566,-62.3981,0.00661298,-0.00434557,0.00115754,0.00673392,-0.0044665,0.104099,0.00651059,0.0168376,1189,407,6.67565,62.3981
-28,617,6.69238,-62.7259,0.00696696,-0.0057751,0.00110744,0.00706249,-0.00587064,0.0860524,0.00747751,0.0198664,1196,407,6.69244,62.7259
-21,617,6.77087,-63.0172,0.00719406,-0.00651144,0.000736588,0.00723353,-0.00655091,0.0535384,0.0079617,0.0150025,1203,407,6.77086,63.0172
-14,617,6.82678,-63.2821,0.00748016,-0.00662147,-0.000286811,0.007486,-0.0066273,-0.0203277,0.00815334,0.0165652,1210,407,6.82672,63.2821
-7,617,6.85437,-63.4854,0.00735331,-0.00720274,-0.000974339,0.00741824,-0.00726767,-0.0665414,0.00847906,0.0194735,1217,407,6.85436,63.4854
0,617,6.91406,-63.7218,0.00661012,-0.00721554,-0.00138208,0.00674692,-0.00735235,-0.0986639,0.00814272,0.0187681,1224,407,6.91402,63.7218
7,617,6.99707,-64.0287,0.00518308,-0.0064838,-0.00083906,0.00524311,-0.00654383,-0.0714283,0.00681899,0.0134418,1231,407,6.99705,64.0287
14,617,7.03638,-64.2631,0.00359469,-0.00563674,0.000135312,0.00359667,-0.00563873,0.0146536,0.00537533,0.0154879,1238,407,7.03642,64.2631
21,617,7.11548,-64.3845,0.00320924,-0.00386496,0.000848586,0.00330961,-0.00396532,0.11773,0.00420587,0.01546,1245,407,7.11546,64.3845
28,617,7.18665,-64.5463,0.00312814,-0.00151355,0.00170881,0.00368938,-0.00207478,0.317334,0.00337118,0.0130038,1252,407,7.18664,64.5463
35,617,7.22058,-64.6955,0.00243124,0.00124661,0.00316611,0.00505996,-0.00138211,0.692927,0.00391617,0.0151708,1259,407,7.22059,64.6955
42,617,7.37524,-64.731,0.00205598,0.00424387,0.00513955,0.00840461,-0.00210476,0.890257,0.0064207,0.0218375,1266,407,7.3752,64.731
49,617,7.47156,-64.7751,0.00197015,0.00740694,0.00714558,0.0123337,-0.00295665,0.96716,0.00936493,0.0222176,1273,407,7.47159,64.7751
56,617,7.51746,-64.828,0.00173694,0.0104393,0.00913507,0.0162065,-0.0040303,1.00766,0.0123686,0.0158711,1280,407,7.51747,64.828
63,617,7.55566,-64.8657,0.00148752,0.0129268,0.0111432,0.0197325,-0.00531823,1.02251,0.0152403,0.0121181,1287,407,7.5557,64.8657
70,617,7.62329,-64.9045,0.00153941,0.0148555,0.0126323,0.022477,-0.00608204,1.02793,0.0173706,0.0185454,1294,407,7.62325,64.9045
77,617,7.76013,-64.8318,0.0015535,0.0167824,0.014003,0.0251073,-0.00677139,1.03442,0.0193935,0.0166533,1301,407,7.76017,64.8318
84,617,7.82971,-64.7466,0.00168717,0.0171214,0.0148231,0.0261159,-0.00730734,1.0254,0.0202899,0.0120628,1308,407,7.82977,64.7466
91,617,7.89832,-64.6768,0.00169153,0.0158201,0.0153415,0.0256456,-0.00813397,1.00116,0.0203575,0.0114966,1315,407,7.89832,64.6768
98,617,7.97253,-64.5696,0.00166624,0.0140698,0.0156698,0.0247205,-0.00898438,0.97383,0.0201541,0.0129709,1322,407,7.97255,64.5696
105,617,8.04639,-64.4026,0.00197512,0.0117752,0.0154276,0.0230623,-0.00931193,0.939167,0.019245,0.0147315,1329,407,8.04644,64.4026
112,617,8.13489,-64.2735,0.00254438,0.00862386,0.014548,0.0204463,-0.00927805,0.888389,0.0175605,0.0175734,1336,407,8.13489,64.2735
119,617,8.17883,-64.1027,0.0031269,0.0052422,0.0134058,0.017632,-0.00926286,0.824764,0.0157763,0.0193395,1343,407,8.17885,64.1027
126,617,8.19543,-63.8467,0.00311408,0.00162323,0.0123611,0.0147522,-0.0100149,0.755283,0.0143862,0.0217274,1350,407,8.19543,63.8467
133,617,8.27368,-63.5747,0.00313499,-0.00186052,0.0112059,0.0121181,-0.0108437,0.675743,0.0132638,0.0195105,1357,407,8.27372,63.5747
140,617,8.36023,-63.3339,0.00389359,-0.00487904,0.00963261,0.0100916,-0.011077,0.571746,0.0122261,0.0165464,1364,407,8.36022,63.3339
147,617,8.34863,-63.0156,0.00441054,-0.0070858,0.00779599,0.00834838,-0.0110236,0.467729,0.0112199,0.0199242,1371,407,8.3486,63.0156
154,617,8.45142,-62.7154,0.00477425,-0.00833229,0.00614128,0.00720211,-0.0107601,0.376478,0.0104381,0.0221777,1378,407,8.45141,62.7154
161,617,8.53455,-62.4337,0.00539492,-0.00837624,0.00469618,0.00684393,-0.00982525,0.299282,0.00967513,0.0230484,1385,407,8.53454,62.4337
168,617,8.58533,-62.0721,0.00582731,-0.00774977,0.00318212,0.00653611,-0.00845857,0.219168,0.00868087,0.0224927,1392,407,8.58536,62.072
175,617,8.61121,-61.6797,0.00543482,-0.00638628,0.00235454,0.00588654,-0.006838,0.189547,0.00735336,0.0189061,1399,407,8.61118,61.6797
182,617,8.62866,-61.2525,0.0047983,-0.00482495,0.00160078,0.00505759,-0.00508424,0.160585,0.0058554,0.0130401,1406,407,8.62871,61.2525
189,617,8.61731,-60.8026,0.00404209,-0.00318942,0.000974432,0.00417109,-0.00331842,0.131621,0.0043334,0.0131586,1413,407,8.61732,60.8025
196,617,8.59497,-60.3519,0.00355218,-0.00131627,0.000172187,0.00355827,-0.00132235,0.0353091,0.00291473,0.0169137,1420,407,8.59503,60.3519
203,617,8.60449,-59.8789,0.00319168,0.000302109,-0.00052648,0.00328462,0.000209173,-0.174723,0.00212346,0.016889,1427,407,8.60444,59.8789
210,617,8.64807,-59.3663,0.00249414,0.00124065,-5.98417e-05,0.00249699,0.0012378,-0.0475956,0.00144166,0.0167942,1434,407,8.64806,59.3663
217,617,8.62329,-58.8608,0.00191191,0.00199134,0.000397452,0.00235106,0.0015522,0.835193,0.00138042,0.021659,1441,407,8.62323,58.8609
224,617,8.62573,-58.3465,0.0015022,0.002686,0.000826002,0.00311028,0.00107792,1.09628,0.00182369,0.0212854,1448,407,8.6257,58.3465
231,617,8.64941,-57.8076,0.00120375,0.00328366,0.00129624,0.00390555,0.000581854,1.12346,0.00243305,0.0163538,1455,407,8.64938,57.8076
238,617,8.6405,-57.2849,0.000977247,0.0038375,0.00164972,0.00459068,0.000224067,1.14251,0.00298857,0.0171972,1462,407,8.64053,57.285
245,617,8.64954,-56.7251,0.000769459,0.00443369,0.00195912,0.00528388,-8.07345e-05,1.16135,0.00354981,0.0138912,1469,407,8.64951,56.7251
252,617,8.60132,-56.0685,0.000626672,0.0052028,0.00236114,0.00620262,-0.000373153,1.17024,0.00426491,0.0141105,1476,407,8.60133,56.0685
259,617,8.54956,-55.4565,0.000592017,0.00625702,0.00299898,0.00754968,-0.000700641,1.16383,0.00528218,0.0118052,1483,407,8.54952,55.4565
266,617,8.52368,-54.8205,0.000491083,0.00712349,0.00358154,0.00868834,-0.00107376,1.15887,0.00618131,0.0142334,1490,407,8.52371,54.8205
273,617,8.49487,-54.1657,0.000480445,0.00828298,0.00430261,0.0101897,-0.00142624,1.15366,0.00731502,0.0147168,1497,407,8.49482,54.1657
280,617,8.43384,-53.5338,0.000599091,0.00954747,0.00512827,0.011879,-0.00173242,1.14409,0.00855546,0.0129445,1504,407,8.43383,53.5338
287,617,8.38635,-52.8626,0.000876335,0.0111323,0.00616477,0.014023,-0.00201445,1.13232,0.0100875,0.0120764,1511,407,8.38641,52.8626
294,617,8.3429,-52.1821,0.00104789,0.0126408,0.00713946,0.0160406,-0.0023519,1.12637,0.0115577,0.0101257,1518,407,8.34295,52.1821
301,617,8.29529,-51.4831,0.00125609,0.0140699,0.00814334,0.0180246,-0.00269858,1.11871,0.0130095,0.00833452,1525,407,8.29531,51.4831
308,617,8.22119,-50.7621,0.00168231,0.0159454,0.00926675,0.020507,-0.00287938,1.11336,0.0147253,0.00900119,1532,407,8.22114,50.7621
315,617,8.15063,-50.0526,0.00232683,0.0181652,0.0105977,0.0234757,-0.00298371,1.10627,0.0167339,0.010404,1539,407,8.15062,50.0526
322,617,8.07654,-49.3254,0.00287554,0.0201826,0.011785,0.0261499,-0.00309182,1.10208,0.01855,0.0159382,1546,407,8.07657,49.3254
329,617,8.04895,-48.5509,0.00349645,0.0221887,0.0129692,0.0288284,-0.00314333,1.09762,0.0203478,0.0213788,1553,407,8.04893,48.5509
336,617,8.1554,-47.5796,0.0041639,0.0246291,0.0143002,0.0319807,-0.00318767,1.09594,0.0224586,0.0445737,1560,407,8.15535,47.5796
343,617,7.90881,-47.1572,0,0,0,0,0,0,0,-1,1567,407,7.90887,47.1572
350,617,7.7605,-46.2899,0,0,0,0,0,0,0,-1,1574,407,7.76052,46.2899
357,617,7.83105,-44.7921,0,0,0,0,0,0,0,-1,1581,407,7.8311,44.7921
364,617,8.27075,-43.7544,0,0,0,0,0,0,0,-1,1588,407,8.2707,43.7544
371,617,2.60266,-6.20667,0,0,0,0,0,0,0,-1,1595,407,2.60261,6.20668
378,617,1.56921,-10.3601,0,0,0,0,0,0,0,-1,1602,407,1.56918,10.3601
385,617,1.74146,-10.3561,0,0,0,0,0,0,0,-1,1609,407,1.7414,10.3561
392,617,1.96936,-5.10449,0,0,0,0,0,0,0,-1,1616,407,1.96931,5.10451
399,617,2.48889,-5.81256,0,0,0,0,0,0,0,-1,1623,407,2.48888,5.81255
406,617,3.01465,-6.51642,0,0,0,0,0,0,0,-1,1630,407,3.01461,6.51643
413,617,3.6427,-7.2074,0,0,0,0,0,0,0,-1,1637,407,3.64274,7.20739
420,617,3.42737,-4.47391,0,0,0,0,0,0,0,-1,1644,407,3.42737,4.47391
427,617,0,0,0,0,0,0,0,0,0,-1,1651,407,0,0
434,617,0,0,0,0,0,0,0,0,0,-1,1658,407,0,0
441,617,0,0,0,0,0,0,0,0,0,-1,1665,407,0,0
448,617,0,0,0,0,0,0,0,0,0,-1,1672,407,0,0
455,617,0,0,0,0,0,0,0,0,0,-1,1679,407,0,0
462,617,0,0,0,0,0,0,0,0,0,-1,1686,407,0,0
469,617,0,0,0,0,0,0,0,0,0,-1,1693,407,0,0
476,617,0,0,0,0,0,0,0,0,0,-1,1700,407,0,0
483,617,0,0,0,0,0,0,0,0,0,-1,1707,407,0,0
490,617,0,0,0,0,0,0,0,0,0,-1,1714,407,0,0
497,617,0,0,0,0,0,0,0,0,0,-1,1721,407,0,0
504,617,0,0,0,0,0,0,0,0,0,-1,1728,407,0,0
511,617,0,0,0,0,0,0,0,0,0,-1,1735,407,0,0
518,617,0,0,0,0,0,0,0,0,0,-1,1742,407,0,0
525,617,0,0,0,0,0,0,0,0,0,-1,1749,407,0,0
532,617,0,0,0,0,0,0,0,0,0,-1,1756,407,0,0
539,617,0,0,0,0,0,0,0,0,0,-1,1763,407,0,0
546,617,0,0,0,0,0,0,0,0,0,-1,1770,407,0,0
553,617,0,0,0,0,0,0,0,0,0,-1,1777,407,0,0
560,617,0,0,0,0,0,0,0,0,0,-1,1784,407,0,0
567,617,0,0,0,0,0,0,0,0,0,-1,1791,407,0,0
574,617,0,0,0,0,0,0,0,0,0,-1,1798,407,0,0
581,617,0,0,0,0,0,0,0,0,0,-1,1805,407,0,0
588,617,0,0,0,0,0,0,0,0,0,-1,1812,407,0,0
595,617,0,0,0,0,0,0,0,0,0,-1,1819,407,0,0
602,617,0,0,0,0,0,0,0,0,0,-1,1826,407,0,0
609,617,0,0,0,0,0,0,0,0,0,-1,1833,407,0,0
616,617,0,0,0,0,0,0,0,0,0,-1,1840,407,0,0
623,617,0,0,0,0,0,0,0,0,0,-1,1847,407,0,0
630,617,0,0,0,0,0,0,0,0,0,-1,1854,407,0,0
637,617,0,0,0,0,0,0,0,0,0,-1,1861,407,0,0
644,617,0,0,0,0,0,0,0,0,0,-1,1868,407,0,0
651,617,0,0,0,0,0,0,0,0,0,-1,1875,407,0,0
658,617,0,0,0,0,0,0,0,0,0,-1,1882,407,0,0
665,617,0,0,0,0,0,0,0,0,0,-1,1889,407,0,0
672,617,0,0,0,0,0,0,0,0,0,-1,1896,407,0,0
679,617,0,0,0,0,0,0,0,0,0,-1,1903,407,0,0
686,617,0,0,0,0,0,0,0,0,0,-1,1910,407,0,0
693,617,0,0,0,0,0,0,0,0,0,-1,1917,407,0,0
700,617,0,0,0,0,0,0,0,0,0,-1,1924,407,0,0
707,617,0,0,0,0,0,0,0,0,0,-1,1931,407,0,0
714,617,0,0,0,0,0,0,0,0,0,-1,1938,407,0,0
721,617,0,0,0,0,0,0,0,0,0,-1,1945,407,0,0
728,617,0,0,0,0,0,0,0,0,0,-1,1952,407,0,0
735,617,0,0,0,0,0,0,0,0,0,-1,1959,407,0,0
742,617,0,0,0,0,0,0,0,0,0,-1,1966,407,0,0
749,617,0,0,0,0,0,0,0,0,0,-1,1973,407,0,0
756,617,0,0,0,0,0,0,0,0,0,-1,1980,407,0,0
763,617,0,0,0,0,0,0,0,0,0,-1,1987,407,0,0
770,617,0,0,0,0,0,0,0,0,0,-1,1994,407,0,0
777,617,0,0,0,0,0,0,0,0,0,-1,2001,407,0,0
784,617,0,0,0,0,0,0,0,0,0,-1,2008,407,0,0
791,617,0,0,0,0,0,0,0,0,0,-1,2015,407,0,0
798,617,0,0,0,0,0,0,0,0,0,-1,2022,407,0,0
805,617,0,0,0,0,0,0,0,0,0,-1,2029,407,0,0
812,617,0,0,0,0,0,0,0,0,0,-1,2036,407,0,0
-700,610,0,0,0,0,0,0,0,0,0,-1,524,414,0,0
-693,610,0,0,0,0,0,0,0,0,0,-1,531,414,0,0
-686,610,0,0,0,0,0,0,0,0,0,-1,538,414,0,0
-679,610,0,0,0,0,0,0,0,0,0,-1,545,414,0,0
-672,610,0,0,0,0,0,0,0,0,0,-1,552,414,0,0
-665,610,0,0,0,0,0,0,0,0,0,-1,559,414,0,0
-658,610,0,0,0,0,0,0,0,0,0,-1,566,414,0,0
-651,610,0,0,0,0,0,0,0,0,0,-1,573,414,0,0
-644,610,0,0,0,0,0,0,0,0,0,-1,580,414,0,0
-637,610,0,0,0,0,0,0,0,0,0,-1,587,414,0,0
-630,610,0,0,0,0,0,0,0,0,0,-1,594,414,0,0
-623,610,0,0,0,0,0,0,0,0,0,-1,601,414,0,0
-616,610,0,0,0,0,0,0,0,0,0,-1,608,414,0,0
-609,610,0,0,0,0,0,0,0,0,0,-1,615,414,0,0
-602,610,0,0,0,0,0,0,0,0,0,-1,622,414,0,0
-595,610,0,0,0,0,0,0,0,0,0,-1,629,414,0,0
-588,610,0,0,0,0,0,0,0,0,0,-1,636,414,0,0
-581,610,0,0,0,0,0,0,0,0,0,-1,643,414,0,0
-574,610,0,0,0,0,0,0,0,0,0,-1,650,414,0,0
-567,610,0,0,0,0,0,0,0,0,0,-1,657,414,0,0
-560,610,0,0,0,0,0,0,0,0,0,-1,664,414,0,0
-553,610,0,0,0,0,0,0,0,0,0,-1,671,414,0,0
-546,610,0,0,0,0,0,0,0,0,0,-1,678,414,0,0
-539,610,0,0,0,0,0,0,0,0,0,-1,685,414,0,0
-532,610,0,0,0,0,0,0,0,0,0,-1,692,414,0,0
-525,610,0,0,0,0,0,0,0,0,0,-1,699,414,0,0
-518,610,0,0,0,0,0,0,0,0,0,-1,706,414,0,0
-511,610,0,0,0,0,0,0,0,0,0,-1,713,414,0,0
-504,610,0,0,0,0,0,0,0,0,0,-1,720,414,0,0
-497,610,0,0,0,0,0,0,0,0,0,-1,727,414,0,0
-490,610,0,0,0,0,0,0,0,0,0,-1,734,414,0,0
-483,610,0,0,0,0,0,0,0,0,0,-1,741,414,0,0
-476,610,0,0,0,0,0,0,0,0,0,-1,748,414,0,0
-469,610,0,0,0,0,0,0,0,0,0,-1,755,414,0,0
-462,610,0,0,0,0,0,0,0,0,0,-1,762,414,0,0
-455,610,0,0,0,0,0,0,0,0,0,-1,769,414,0,0
-448,610,0,0,0,0,0,0,0,0,0,-1,776,414,0,0
-441,610,0,0,0,0,0,0,0,0,0,-1,783,414,0,0
-434,610,0,0,0,0,0,0,0,0,0,-1,790,414,0,0
-427,610,0,0,0,0,0,0,0,0,0,-1,797,414,0,0
-420,610,0,0,0,0,0,0,0,0,0,-1,804,414,0,0
-413,610,0,0,0,0,0,0,0,0,0,-1,811,414,0,0
-406,610,0,0,0,0,0,0,0,0,0,-1,818,414,0,0
-399,610,0,0,0,0,0,0,0,0,0,-1,825,414,0,0
-392,610,0,0,0,0,0,0,0,0,0,-1,832,414,0,0
-385,610,0,0,0,0,0,0,0,0,0,-1,839,414,0,0
-378,610,0,0,0,0,0,0,0,0,0,-1,846,414,0,0
-371,610,0,0,0,0,0,0,0,0,0,-1,853,414,0,0
-364,610,0,0,0,0,0,0,0,0,0,-1,860,414,0,0
-357,610,0,0,0,0,0,0,0,0,0,-1,867,414,0,0
-350,610,0,0,0,0,0,0,0,0,0,-1,874,414,0,0
-343,610,0,0,0,0,0,0,0,0,0,-1,881,414,0,0
-336,610,0,0,0,0,0,0,0,0,0,-1,888,414,0,0
-329,610,0,0,0,0,0,0,0,0,0,-1,895,414,0,0
-322,610,0,0,0,0,0,0,0,0,0,-1,902,414,0,0
-315,610,7.68475,-21.5402,0,0,0,0,0,0,0,-1,909,414,7.68475,21.5402
-308,610,3.97211,-23.4133,0,0,0,0,0,0,0,-1,916,414,3.9721,23.4133
-301,610,7.38513,-22.4166,0,0,0,0,0,0,0,-1,923,414,7.38516,22.4166
-294,610,6.77832,-24.1945,0,0,0,0,0,0,0,-1,930,414,6.77829,24.1946
-287,610,3.39276,-28.5804,0,0,0,0,0,0,0,-1,937,414,3.39276,28.5803
-280,610,8.8728,-35.4336,0,0,0,0,0,0,0,-1,944,414,8.87283,35.4336
-273,610,8.14722,-35.5264,0,0,0,0,0,0,0,-1,951,414,8.14723,35.5264
-266,610,7.38361,-35.6366,0,0,0,0,0,0,0,-1,958,414,7.38359,35.6366
-259,610,6.47375,-35.762,0,0,0,0,0,0,0,-1,965,414,6.47373,35.762
-252,610,5.65308,-35.8931,0,0,0,0,0,0,0,-1,972,414,5.65305,35.8931
-245,610,7.05286,-43.9058,0,0,0,0,0,0,0,-1,979,414,7.05284,43.9058
-238,610,6.73486,-44.9158,0,0,0,0,0,0,0,-1,986,414,6.73484,44.9158
-231,610,6.59705,-45.5397,0,0,0,0,0,0,0,-1,993,414,6.59706,45.5397
-224,610,6.60394,-46.413,-0.000379607,0.0204361,-0.0101204,0.0245454,-0.00448888,-1.1851,0.0180469,0.0311134,1000,414,6.60392,46.413
-217,610,6.61981,-47.2876,-0.000583246,0.0181295,-0.00919443,0.0218911,-0.00434476,-1.18246,0.0162372,0.0214121,1007,414,6.61983,47.2876
-210,610,6.57086,-48.1658,-0.000713435,0.0159667,-0.00825898,0.0193641,-0.00411081,-1.18054,0.0144755,0.0155051,1014,414,6.57088,48.1658
-203,610,6.54492,-48.95,-0.000766204,0.0137628,-0.00736315,0.0168419,-0.00384524,-1.17473,0.0127051,0.0170788,1021,414,6.54491,48.95
-196,610,6.46289,-49.6507,-0.00076516,0.0116706,-0.0065531,0.0144863,-0.00358083,-1.16498,0.0110463,0.0155743,1028,414,6.46285,49.6507
-189,610,6.39856,-50.3682,-0.000737134,0.00972333,-0.00587853,0.0123615,-0.00337535,-1.14895,0.00956673,0.0127821,1035,414,6.39862,50.3682
-182,610,6.36292,-51.0646,-0.000639869,0.00813505,-0.00521116,0.0105598,-0.0030646,-1.13529,0.00825328,0.0146691,1042,414,6.36294,51.0646
-175,610,6.33899,-51.7505,-0.000569313,0.00676634,-0.00455663,0.00894794,-0.00275091,-1.12427,0.00706315,0.0159549,1049,414,6.33899,51.7505
-168,610,6.26843,-52.4471,-0.000568893,0.0053731,-0.00387217,0.00728273,-0.00247852,-1.11263,0.00585877,0.0134303,1056,414,6.26845,52.4471
-161,610,6.1842,-53.1487,-0.00048678,0.00425658,-0.00323422,0.00589551,-0.00212571,-1.10176,0.00479851,0.0117217,1063,414,6.18419,53.1487
-154,610,6.14856,-53.7872,-0.000389103,0.00329194,-0.00260491,0.00464094,-0.00173811,-1.09295,0.00380794,0.0155373,1070,414,6.14862,53.7872
-147,610,6.13232,-54.3875,-0.000222127,0.0025449,-0.00206815,0.00364963,-0.00132686,-1.08019,0.00297567,0.0185674,1077,414,6.13231,54.3875
-140,610,6.11462,-55.0287,3.04867e-05,0.00183043,-0.00158234,0.00275083,-0.000889914,-1.04396,0.0021916,0.0142794,1084,414,6.11467,55.0287
-133,610,6.08887,-55.6247,0.00030888,0.00129758,-0.00114286,0.00204843,-0.000441967,-0.989525,0.00153431,0.0149834,1091,414,6.08885,55.6247
-126,610,6.07605,-56.1921,0.000635944,0.000913273,-0.000761014,0.00154815,1.0645e-06,-0.875514,0.00103175,0.0138042,1098,414,6.07608,56.1921
-119,610,6.05774,-56.7864,0.00107677,0.000559291,-0.000398727,0.00129335,0.00034271,-0.497594,0.000773723,0.0121807,1105,414,6.05774,56.7864
-112,610,6.06335,-57.3533,0.00162325,0.000359849,-0.000144536,0.00163958,0.000343524,-0.112466,0.000998441,0.0210383,1112,414,6.06332,57.3533
-105,610,6.04285,-57.882,0.00223026,0.000265996,9.26658e-06,0.0022303,0.000265952,0.00471744,0.00140662,0.022237,1119,414,6.04279,57.882
-98,610,6.02332,-58.421,0.00291556,7.42744e-05,0.000129693,0.00292147,6.83666e-05,0.0455198,0.00192526,0.0152862,1126,414,6.02329,58.421
-91,610,6.03015,-58.9409,0.00376301,-0.000102094,0.000195005,0.00377282,-0.000111907,0.0502824,0.00255333,0.0163591,1133,414,6.03019,58.9408
-84,610,6.05237,-59.4375,0.00456788,-0.000436765,0.000420369,0.00460295,-0.000471829,0.0832186,0.00323739,0.0159406,1140,414,6.05235,59.4375
-77,610,6.06128,-59.953,0.00544732,-0.0010853,0.000627221,0.005507,-0.00114498,0.094859,0.00410655,0.0129217,1147,414,6.06124,59.953
-70,610,6.11804,-60.4156,0.00644031,-0.00172789,0.000824192,0.00652264,-0.00181022,0.0995653,0.00506092,0.0163866,1154,414,6.11803,60.4156
-63,610,6.1532,-60.8422,0.00742812,-0.00278553,0.00110565,0.00754644,-0.00290385,0.106607,0.00622878,0.0163895,1161,414,6.15317,60.8422
-56,610,6.17688,-61.2509,0.00813096,-0.00400722,0.00138117,0.00828613,-0.0041624,0.111882,0.00731743,0.0145091,1168,414,6.17686,61.2508
-49,610,6.2196,-61.6572,0.00872782,-0.00508447,0.00150478,0.00888986,-0.00524651,0.107268,0.0082515,0.0136901,1175,414,6.21958,61.6572
-42,610,6.26709,-62.025,0.00930146,-0.00613041,0.0016824,0.00948275,-0.0063117,0.107341,0.00917999,0.0154954,1182,414,6.26705,62.025
-35,610,6.31421,-62.3659,0.00979817,-0.00691997,0.00181668,0.0099933,-0.0071151,0.107001,0.00992402,0.0164436,1189,414,6.31416,62.3659
-28,610,6.37134,-62.6926,0.00982819,-0.0074315,0.00137854,0.00993761,-0.00754091,0.0792013,0.0101228,0.0146327,1196,414,6.37139,62.6926
-21,610,6.4613,-62.9699,0.00951818,-0.00622104,0.000487349,0.00953326,-0.00623612,0.0309245,0.00917055,0.0121536,1203,414,6.46126,62.9699
-14,610,6.5365,-63.2379,0.00938556,-0.00415867,-0.0014652,0.00954225,-0.00431536,-0.106537,0.00818821,0.0134813,1210,414,6.53649,63.2379
-7,610,6.61084,-63.4621,0.00880478,-0.00340758,-0.00226267,0.00921052,-0.00381332,-0.177434,0.00773154,0.0164312,1217,414,6.61088,63.4621
0,610,6.66992,-63.7209,0.00747546,-0.00224074,-0.0024483,0.00805752,-0.0028228,-0.233406,0.0065196,0.0139603,1224,414,6.66987,63.7209
7,610,6.75867,-64.0087,0.00543385,-0.00057329,-0.00136785,0.00573065,-0.000870093,-0.213672,0.00414105,0.0168815,1231,414,6.75864,64.0087
14,610,6.91296,-64.2909,0,0,0,0,0,0,0,-1,1238,414,6.91294,64.2909
21,610,7.05322,-64.2571,0.00308745,0.00287968,0.000791823,0.00378218,0.00218496,0.720171,0.00219241,0.0238087,1245,414,7.05327,64.2571
28,610,7.04077,-64.4512,0.00298426,0.00521921,0.00189313,0.00630007,0.0019034,1.05202,0.00373109,0.0197718,1252,414,7.04072,64.4512
35,610,7.23389,-64.591,0.0020751,0.00793433,0.00379093,0.00979573,0.000213698,1.11436,0.00646043,0.0222002,1259,414,7.23387,64.591
42,610,7.24036,-64.6118,0.00166976,0.0108168,0.00631533,0.0140408,-0.00155418,1.09879,0.00991925,0.0204536,1266,414,7.24032,64.6119
49,610,7.27222,-64.7305,0.00170494,0.0139889,0.00890197,0.0186621,-0.00296831,1.08737,0.0135397,0.0209006,1273,414,7.27219,64.7305
56,610,7.37952,-64.7483,0.00159837,0.0173078,0.0114333,0.0233245,-0.00441838,1.08637,0.0172126,0.0210179,1280,414,7.37949,64.7483
63,610,7.48242,-64.774,0.00136146,0.0203047,0.013997,0.0277336,-0.0060674,1.08285,0.0208085,0.0295601,1287,414,7.48245,64.774
70,610,7.63647,-64.7592,0.00143281,0.0226723,0.0160383,0.0312881,-0.00718301,1.07783,0.02362,0.0426108,1294,414,7.63645,64.7592
77,610,7.77515,-64.5385,0.00148118,0.0251805,0.017918,0.0348127,-0.00815101,1.07755,0.0263491,0.0494353,1301,414,7.7752,64.5385
84,610,7.95056,-64.5878,0.00165891,0.0258605,0.0191485,0.0364112,-0.00889186,1.06719,0.0277177,0.0425674,1308,414,7.95056,64.5878
91,610,8.01099,-64.6799,0.0016952,0.0244664,0.0200048,0.0360987,-0.00993711,1.04411,0.0279728,0.0311368,1315,414,8.011,64.6799
98,610,8.21143,-64.5983,0.00160266,0.0225408,0.0206091,0.0351874,-0.011044,1.0204,0.0278786,0.0287925,1322,414,8.21146,64.5983
105,610,8.27209,-64.3816,0.00184931,0.0199423,0.0205521,0.0333509,-0.0115592,0.992725,0.0269271,0.0234207,1329,414,8.27206,64.3816
112,610,8.32678,-64.2119,0.00242685,0.0160198,0.0197279,0.0300891,-0.0116425,0.951287,0.024866,0.0144008,1336,414,8.32682,64.2119
119,610,8.39539,-64.0407,0.00301525,0.0117335,0.0186525,0.0265294,-0.0117807,0.900189,0.0226582,0.0197947,1343,414,8.39536,64.0407
126,610,8.474,-63.8036,0.00297174,0.00689052,0.0178194,0.022858,-0.0129957,0.840157,0.0209595,0.0292552,1350,414,8.47402,63.8036
133,610,8.56677,-63.5699,0.00303143,0.00227803,0.0167497,0.0194087,-0.0140992,0.774155,0.0194266,0.0241639,1357,414,8.56678,63.5699
140,610,8.68811,-63.3372,0.00407534,-0.00200285,0.0150368,0.0163771,-0.0143046,0.685686,0.0177276,0.0204155,1364,414,8.68809,63.3372
147,610,8.67773,-62.9795,0.00473457,-0.00533916,0.0129424,0.0135856,-0.0141902,0.599827,0.0160377,0.0202608,1371,414,8.67768,62.9795
154,610,8.71582,-62.6438,0.00517645,-0.00763428,0.0110124,0.0115109,-0.0139687,0.52199,0.0147334,0.0231566,1378,414,8.71582,62.6438
161,610,8.86292,-62.3525,0.00614622,-0.00876996,0.00927243,0.0105878,-0.0132115,0.44671,0.0137683,0.028058,1385,414,8.86295,62.3526
168,610,8.98315,-62.0157,0.00728476,-0.00927553,0.00716276,0.00995294,-0.0119437,0.356584,0.0126594,0.0286746,1392,414,8.98311,62.0158
175,610,9.02771,-61.657,0.00729224,-0.00813695,0.0055516,0.00908213,-0.00992683,0.311887,0.0109784,0.023617,1399,414,9.02774,61.657
182,610,9.04309,-61.2466,0.00666024,-0.00671297,0.0040932,0.0078136,-0.00786633,0.274653,0.00905283,0.0162814,1406,414,9.04305,61.2466
189,610,9.05176,-60.7847,0.00576697,-0.00514288,0.00269367,0.0063958,-0.00577171,0.22934,0.00702799,0.0151259,1413,414,9.05177,60.7847
196,610,9.07043,-60.3244,0.00521319,-0.00307314,0.000828104,0.00529513,-0.00315508,0.0986365,0.00493061,0.0154708,1420,414,9.0704,60.3244
203,610,9.07129,-59.8472,0.00520323,-0.00182821,-0.00153881,0.00552525,-0.00215023,-0.206287,0.00457201,0.0160571,1427,414,9.07133,59.8472
210,610,9.09778,-59.3811,0.00454201,-0.00158787,-0.0015396,0.00490697,-0.00195283,-0.232754,0.00408109,0.0123548,1434,414,9.09779,59.3811
217,610,9.16284,-58.8546,0.00374639,-0.000608097,-0.000935942,0.00393903,-0.000800743,-0.202996,0.00292964,0.0180169,1441,414,9.16283,58.8546
224,610,9.19421,-58.3395,0.00315893,0.000290049,-0.000373504,0.00320676,0.00024222,-0.127363,0.00206185,0.0211127,1448,414,9.19425,58.3395
231,610,9.19128,-57.8086,0.00267887,0.0010319,0.000220375,0.00270784,0.00100292,0.130743,0.00158079,0.0173841,1455,414,9.19127,57.8086
238,610,9.18103,-57.2542,0.00235254,0.00168486,0.000590065,0.00269666,0.00134074,0.527962,0.00155692,0.0130401,1462,414,9.18105,57.2541
245,610,9.2002,-56.6489,0.00204098,0.00221215,0.000849275,0.00298014,0.00127299,0.835619,0.00172666,0.0134321,1469,414,9.2002,56.6489
252,610,9.17346,-56.0402,0.00170757,0.00280943,0.001168,0.00354991,0.000967092,1.00577,0.00211912,0.0150378,1476,414,9.1734,56.0402
259,610,9.15796,-55.4303,0.00142292,0.00356201,0.00163659,0.00444754,0.000537378,1.07482,0.00280313,0.0125913,1483,414,9.15797,55.4303
266,610,9.12537,-54.7966,0.00117062,0.00424849,0.00211208,0.00532283,9.62783e-05,1.10024,0.0035169,0.0126531,1490,414,9.12534,54.7966
273,610,9.09961,-54.1578,0.00101298,0.00518067,0.00269063,0.00650005,-0.000306396,1.11489,0.00443902,0.010782,1497,414,9.09966,54.1578
280,610,9.05969,-53.5002,0.000974883,0.00622267,0.0033751,0.00787383,-0.000676277,1.11581,0.00548855,0.0100994,1504,414,9.05969,53.5001
287,610,8.99976,-52.8286,0.0010905,0.0075154,0.00422699,0.00961212,-0.00100622,1.11033,0.00676846,0.0127142,1511,414,8.99973,52.8286
294,610,8.98657,-52.1573,0.00113878,0.00876994,0.00503832,0.0112744,-0.00136571,1.10948,0.00801043,0.0108971,1518,414,8.98658,52.1573
301,610,8.97815,-51.4864,0.00122743,0.00998191,0.00587939,0.0129346,-0.00172523,1.10539,0.0092519,0.0105348,1525,414,8.97815,51.4864
308,610,8.91199,-50.7646,0.00150022,0.0115732,0.00682491,0.0150188,-0.00194538,1.10327,0.01072,0.0125653,1532,414,8.91195,50.7646
315,610,8.83093,-50.0624,0.00193752,0.0134223,0.00792905,0.0174699,-0.00211013,1.0988,0.01241,0.0135486,1539,414,8.83091,50.0624
322,610,8.75513,-49.3289,0.00226806,0.0151199,0.0088934,0.019666,-0.00227803,1.09825,0.0139322,0.0127659,1546,414,8.75515,49.3289
329,610,8.7074,-48.5884,0.00264999,0.0167629,0.00985306,0.0218257,-0.0024128,1.09615,0.0154178,0.011624,1553,414,8.70736,48.5884
336,610,8.6991,-47.8586,0.00305191,0.0187371,0.0109197,0.0243388,-0.00254971,1.09682,0.0171391,0.0142084,1560,414,8.69906,47.8586
343,610,8.62988,-47.1082,0.00351545,0.0209689,0.0120095,0.0270875,-0.00260317,1.09959,0.0189856,0.022018,1567,414,8.62985,47.1082
350,610,8.52747,-46.2844,0.00403152,0.0235263,0.0132193,0.0302034,-0.00264554,1.10308,0.0210729,0.0313625,1574,414,8.52748,46.2844
357,610,8.52173,-45.1371,0.0043562,0.0260257,0.0144885,0.0332826,-0.0029007,1.10645,0.0232158,0.038451,1581,414,8.52171,45.1371
364,610,8.71057,-44.1997,0.00452684,0.0286481,0.0155264,0.0362478,-0.00307285,1.11561,0.0252519,0.0461995,1588,414,8.71056,44.1997
371,610,8.44678,-43.5904,0,0,0,0,0,0,0,-1,1595,414,8.44683,43.5904
378,610,8.49902,-42.9056,0,0,0,0,0,0,0,-1,1602,414,8.49899,42.9056
385,610,2.57104,-10.3878,0,0,0,0,0,0,0,-1,1609,414,2.57109,10.3878
392,610,1.99744,-1.83582,0,0,0,0,0,0,0,-1,1616,414,1.99741,1.8358
399,610,2.77136,-2.60333,0,0,0,0,0,0,0,-1,1623,414,2.77133,2.60332
406,610,3.54529,-3.37085,0,0,0,0,0,0,0,-1,1630,414,3.54525,3.37084
413,610,3.01929,-3.20306,0,0,0,0,0,0,0,-1,1637,414,3.01929,3.20306
420,610,4.78149,-3.64041,0,0,0,0,0,0,0,-1,1644,414,4.78152,3.64042
427,610,8.85168,-23.3853,0,0,0,0,0,0,0,-1,1651,414,8.85174,23.3853
434,610,8.73706,-22.6227,0,0,0,0,0,0,0,-1,1658,414,8.73703,22.6227
441,610,0,0,0,0,0,0,0,0,0,-1,1665,414,0,0
448,610,0,0,0,0,0,0,0,0,0,-1,1672,414,0,0
455,610,0,0,0,0,0,0,0,0,0,-1,1679,414,0,0
462,610,0,0,0,0,0,0,0,0,0,-1,1686,414,0,0
469,610,0,0,0,0,0,0,0,0,0,-1,1693,414,0,0
476,610,0,0,0,0,0,0,0,0,0,-1,1700,414,0,0
483,610,0,0,0,0,0,0,0,0,0,-1,1707,414,0,0
490,610,0,0,0,0,0,0,0,0,0,-1,1714,414,0,0
497,610,0,0,0,0,0,0,0,0,0,-1,1721,414,0,0
504,610,0,0,0,0,0,0,0,0,0,-1,1728,414,0,0
511,610,0,0,0,0,0,0,0,0,0,-1,1735,414,0,0
518,610,0,0,0,0,0,0,0,0,0,-1,1742,414,0,0
525,610,0,0,0,0,0,0,0,0,0,-1,1749,414,0,0
532,610,0,0,0,0,0,0,0,0,0,-1,1756,414,0,0
539,610,0,0,0,0,0,0,0,0,0,-1,1763,414,0,0
546,610,0,0,0,0,0,0,0,0,0,-1,1770,414,0,0
553,610,0,0,0,0,0,0,0,0,0,-1,1777,414,0,0
560,610,0,0,0,0,0,0,0,0,0,-1,1784,414,0,0
567,610,0,0,0,0,0,0,0,0,0,-1,1791,414,0,0
574,610,0,0,0,0,0,0,0,0,0,-1,1798,414,0,0
581,610,0,0,0,0,0,0,0,0,0,-1,1805,414,0,0
588,610,0,0,0,0,0,0,0,0,0,-1,1812,414,0,0
595,610,0,0,0,0,0,0,0,0,0,-1,1819,414,0,0
602,610,0,0,0,0,0,0,0,0,0,-1,1826,414,0,0
609,610,0,0,0,0,0,0,0,0,0,-1,1833,414,0,0
616,610,0,0,0,0,0,0,0,0,0,-1,1840,414,0,0
623,610,0,0,0,0,0,0,0,0,0,-1,1847,414,0,0
630,610,0,0,0,0,0,0,0,0,0,-1,1854,414,0,0
637,610,0,0,0,0,0,0,0,0,0,-1,1861,414,0,0
644,610,0,0,0,0,0,0,0,0,0,-1,1868,414,0,0
651,610,0,0,0,0,0,0,0,0,0,-1,1875,414,0,0
658,610,0,0,0,0,0,0,0,0,0,-1,1882,414,0,0
665,610,0,0,0,0,0,0,0,0,0,-1,1889,414,0,0
672,610,0,0,0,0,0,0,0,0,0,-1,1896,414,0,0
679,610,0,0,0,0,0,0,0,0,0,-1,1903,414,0,0
686,610,0,0,0,0,0,0,0,0,0,-1,1910,414,0,0
693,610,0,0,0,0,0,0,0,0,0,-1,1917,414,0,0
700,610,0,0,0,0,0,0,0,0,0,-1,1924,414,0,0
707,610,0,0,0,0,0,0,0,0,0,-1,1931,414,0,0
714,610,0,0,0,0,0,0,0,0,0,-1,1938,414,0,0
721,610,0,0,0,0,0,0,0,0,0,-1,1945,414,0,0
728,610,0,0,0,0,0,0,0,0,0,-1,1952,414,0,0
735,610,0,0,0,0,0,0,0,0,0,-1,1959,414,0,0
742,610,0,0,0,0,0,0,0,0,0,-1,1966,414,0,0
749,610,0,0,0,0,0,0,0,0,0,-1,1973,414,0,0
756,610,0,0,0,0,0,0,0,0,0,-1,1980,414,0,0
763,610,0,0,0,0,0,0,0,0,0,-1,1987,414,0,0
770,610,0,0,0,0,0,0,0,0,0,-1,1994,414,0,0
777,610,0,0,0,0,0,0,0,0,0,-1,2001,414,0,0
784,610,0,0,0,0,0,0,0,0,0,-1,2008,414,0,0
791,610,0,0,0,0,0,0,0,0,0,-1,2015,414,0,0
798,610,0,0,0,0,0,0,0,0,0,-1,2022,414,0,0
805,610,0,0,0,0,0,0,0,0,0,-1,2029,414,0,0
812,610,0,0,0,0,0,0,0,0,0,-1,2036,414,0,0
-700,603,0,0,0,0,0,0,0,0,0,-1,524,421,0,0
-693,603,0,0,0,0,0,0,0,0,0,-1,531,421,0,0
-686,603,0,0,0,0,0,0,0,0,0,-1,538,421,0,0
-679,603,0,0,0,0,0,0,0,0,0,-1,545,421,0,0
-672,603,0,0,0,0,0,0,0,0,0,-1,552,421,0,0
-665,603,0,0,0,0,0,0,0,0,0,-1,559,421,0,0
-658,603,0,0,0,0,0,0,0,0,0,-1,566,421,0,0
-651,603,0,0,0,0,0,0,0,0,0,-1,573,421,0,0
-644,603,0,0,0,0,0,0,0,0,0,-1,580,421,0,0
-637,603,0,0,0,0,0,0,0,0,0,-1,587,421,0,0
-630,603,0,0,0,0,0,0,0,0,0,-1,594,421,0,0
-623,603,0,0,0,0,0,0,0,0,0,-1,601,421,0,0
-616,603,0,0,0,0,0,0,0,0,0,-1,608,421,0,0
-609,603,0,0,0,0,0,0,0,0,0,-1,615,421,0,0
-602,603,0,0,0,0,0,0,0,0,0,-1,622,421,0,0
-595,603,0,0,0,0,0,0,0,0,0,-1,629,421,0,0
-588,603,0,0,0,0,0,0,0,0,0,-1,636,421,0,0
-581,603,0,0,0,0,0,0,0,0,0,-1,643,421,0,0
-574,603,0,0,0,0,0,0,0,0,0,-1,650,421,0,0
-567,603,0,0,0,0,0,0,0,0,0,-1,657,421,0,0
-560,603,0,0,0,0,0,0,0,0,0,-1,664,421,0,0
-553,603,0,0,0,0,0,0,0,0,0,-1,671,421,0,0
-546,603,0,0,0,0,0,0,0,0,0,-1,678,421,0,0
-539,603,0,0,0,0,0,0,0,0,0,-1,685,421,0,0
-532,603,0,0,0,0,0,0,0,0,0,-1,692,421,0,0
-525,603,0,0,0,0,0,0,0,0,0,-1,699,421,0,0
-518,603,0,0,0,0,0,0,0,0,0,-1,706,421,0,0
-511,603,0,0,0,0,0,0,0,0,0,-1,713,421,0,0
-504,603,0,0,0,0,0,0,0,0,0,-1,720,421,0,0
-497,603,0,0,0,0,0,0,0,0,0,-1,727,421,0,0
-490,603,0,0,0,0,0,0,0,0,0,-1,734,421,0,0
-483,603,0,0,0,0,0,0,0,0,0,-1,741,421,0,0
-476,603,0,0,0,0,0,0,0,0,0,-1,748,421,0,0
-469,603,0,0,0,0,0,0,0,0,0,-1,755,421,0,0
-462,603,0,0,0,0,0,0,0,0,0,-1,762,421,0,0
-455,603,0,0,0,0,0,0,0,0,0,-1,769,421,0,0
-448,603,0,0,0,0,0,0,0,0,0,-1,776,421,0,0
-441,603,0,0,0,0,0,0,0,0,0,-1,783,421,0,0
-434,603,0,0,0,0,0,0,0,0,0,-1,790,421,0,0
-427,603,0,0,0,0,0,0,0,0,0,-1,797,421,0,0
-420,603,0,0,0,0,0,0,0,0,0,-1,804,421,0,0
-413,603,0,0,0,0,0,0,0,0,0,-1,811,421,0,0
-406,603,0,0,0,0,0,0,0,0,0,-1,818,421,0,0
-399,603,0,0,0,0,0,0,0,0,0,-1,825,421,0,0
-392,603,0,0,0,0,0,0,0,0,0,-1,832,421,0,0
-385,603,0,0,0,0,0,0,0,0,0,-1,839,421,0,0
-378,603,0,0,0,0,0,0,0,0,0,-1,846,421,0,0
-371,603,0,0,0,0,0,0,0,0,0,-1,853,421,0,0
-364,603,0,0,0,0,0,0,0,0,0,-1,860,421,0,0
-357,603,0,0,0,0,0,0,0,0,0,-1,867,421,0,0
-350,603,0,0,0,0,0,0,0,0,0,-1,874,421,0,0
-343,603,0,0,0,0,0,0,0,0,0,-1,881,421,0,0
-336,603,0,0,0,0,0,0,0,0,0,-1,888,421,0,0
-329,603,4.09686,-17.9702,0,0,0,0,0,0,0,-1,895,421,4.09687,17.9702
-322,603,8.83179,-28.7376,0,0,0,0,0,0,0,-1,902,421,8.83179,28.7376
-315,603,5.99744,-20.4501,0,0,0,0,0,0,0,-1,909,421,5.99745,20.4501
-308,603,5.92249,-20.778,0,0,0,0,0,0,0,-1,916,421,5.92248,20.778
-301,603,2.72424,-20.9059,0,0,0,0,0,0,0,-1,923,421,2.72424,20.9059
-294,603,2.41553,-20.6767,0,0,0,0,0,0,0,-1,930,421,2.41554,20.6767
-287,603,1.91766,-21.2242,0,0,0,0,0,0,0,-1,937,421,1.91767,21.2242
-280,603,2.36121,-27.3314,0,0,0,0,0,0,0,-1,944,421,2.36119,27.3314
-273,603,7.96613,-34.8225,0,0,0,0,0,0,0,-1,951,421,7.96613,34.8225
-266,603,7.18787,-34.9736,0,0,0,0,0,0,0,-1,958,421,7.18788,34.9736
-259,603,5.44666,-36.8901,0,0,0,0,0,0,0,-1,965,421,5.44664,36.8901
-252,603,6.01971,-43.2538,0,0,0,0,0,0,0,-1,972,421,6.01973,43.2538
-245,603,6.20795,-44.0905,0.000906806,0.0208475,-0.0113115,0.0259556,-0.00420125,-1.14663,0.0188608,0.0416555,979,421,6.20797,44.0905
-238,603,6.11169,-45.006,0.0003123,0.0191001,-0.0101218,0.0235155,-0.00410311,-1.15946,0.0172086,0.024005,986,421,6.11171,45.0061
-231,603,6.01215,-45.8483,-6.94233e-05,0.0173002,-0.00893601,0.0210765,-0.00384568,-1.17097,0.0154928,0.0148379,993,421,6.01217,45.8483
-224,603,5.97424,-46.6564,-0.000253434,0.0158217,-0.00796997,0.0191033,-0.003535,-1.18021,0.0140627,0.0155959,1000,421,5.97426,46.6564
-217,603,5.94495,-47.4151,-0.000350969,0.0138944,-0.00715367,0.0168666,-0.00332322,-1.17701,0.0125003,0.0146483,1007,421,5.94496,47.4151
-210,603,5.88434,-48.1822,-0.000356811,0.0120161,-0.00633583,0.0146849,-0.00302558,-1.17213,0.0109388,0.0121001,1014,421,5.88436,48.1822
-203,603,5.83789,-48.9779,-0.000287377,0.0101204,-0.00553355,0.0125126,-0.00267958,-1.16275,0.00936363,0.0179822,1021,421,5.83789,48.9779
-196,603,5.80615,-49.7206,-0.000220975,0.00829089,-0.00478183,0.0104364,-0.00236652,-1.14904,0.00786603,0.0203549,1028,421,5.80621,49.7206
-189,603,5.76855,-50.3637,-0.000119362,0.00655033,-0.00415299,0.0085417,-0.00211073,-1.12368,0.00651307,0.0176444,1035,421,5.76853,50.3637
-182,603,5.70618,-51.0496,4.81635e-05,0.00511518,-0.00352887,0.00692582,-0.00176247,-1.09673,0.00530324,0.0132391,1042,421,5.70619,51.0496
-175,603,5.67114,-51.743,0.000188517,0.003858,-0.0029084,0.00546202,-0.0014155,-1.06679,0.00419358,0.0130832,1049,421,5.67115,51.743
-168,603,5.61414,-52.4278,0.000244477,0.00265332,-0.00227446,0.00402258,-0.00112478,-1.0289,0.00312486,0.015045,1056,421,5.61412,52.4278
-161,603,5.55029,-53.1327,0.000365803,0.00170375,-0.00168143,0.00284439,-0.000774845,-0.974728,0.0022005,0.0146849,1063,421,5.55026,53.1327
-154,603,5.54065,-53.7578,0.000519618,0.000943269,-0.00109443,0.00184618,-0.000383294,-0.880991,0.00137646,0.0147669,1070,421,5.54062,53.7578
-147,603,5.53027,-54.3725,0.000754777,0.000408893,-0.00060146,0.00120766,-4.39948e-05,-0.645406,0.000820168,0.0163849,1077,421,5.53026,54.3725
-140,603,5.55225,-54.9778,0.00105124,-8.12263e-05,-0.000146132,0.0010698,-9.97789e-05,-0.126283,0.000748677,0.0139724,1084,421,5.5522,54.9778
-133,603,5.51147,-55.59,0.00138398,-0.000427452,0.000247937,0.00141731,-0.000460775,0.1336,0.00113022,0.0136572,1091,421,5.51153,55.59
-126,603,5.49976,-56.155,0.00182001,-0.00059495,0.000544741,0.0019372,-0.00071214,0.2119,0.00158317,0.0120213,1098,421,5.49974,56.155
-119,603,5.50354,-56.7361,0.0024363,-0.000734528,0.000815983,0.00263396,-0.000932192,0.237662,0.00213563,0.0116795,1105,421,5.50355,56.7361
-112,603,5.50208,-57.3333,0.00312819,-0.00077151,0.000984499,0.00336264,-0.00100596,0.233784,0.00264171,0.0170806,1112,421,5.50209,57.3333
-105,603,5.50745,-57.8727,0.003868,-0.000738666,0.00107701,0.00410736,-0.000978028,0.218692,0.00311584,0.0184197,1119,421,5.50744,57.8727
-98,603,5.50146,-58.3766,0.00473139,-0.000936762,0.00113818,0.0049514,-0.00115677,0.190945,0.00374654,0.0149249,1126,421,5.50144,58.3765
-91,603,5.50635,-58.8917,0.00588942,-0.00114028,0.00108717,0.00605372,-0.00130457,0.149988,0.00453367,0.0108037,1133,421,5.50637,58.8917
-84,603,5.55127,-59.407,0.00686385,-0.00156437,0.00130634,0.00706168,-0.0017622,0.150299,0.00539204,0.0122552,1140,421,5.55124,59.4069
-77,603,5.62927,-59.9462,0.00794378,-0.00243757,0.00150953,0.00815883,-0.00265261,0.141505,0.00650624,0.0185366,1147,421,5.62922,59.9462
-70,603,5.6748,-60.4756,0,0,0,0,0,0,0,-1,1154,421,5.67482,60.4756
-63,603,5.61511,-60.7158,0,0,0,0,0,0,0,-1,1161,421,5.61505,60.7158
-56,603,5.73303,-61.1695,0,0,0,0,0,0,0,-1,1168,421,5.733,61.1695
-49,603,5.8396,-61.596,0,0,0,0,0,0,0,-1,1175,421,5.83966,61.596
-42,603,5.88733,-61.94,0,0,0,0,0,0,0,-1,1182,421,5.88731,61.94
-35,603,5.88745,-62.2477,0.0132064,-0.00969698,0.00257884,0.0134932,-0.00998376,0.110749,0.0136048,0.0443711,1189,421,5.88739,62.2477
-28,603,6.00146,-62.516,0.0119101,-0.0066525,0.00110567,0.0119758,-0.00671813,0.0592851,0.0109343,0.0311622,1196,421,6.00141,62.516
-21,603,6.09924,-62.8509,0.00998607,-0.000373795,-0.000815955,0.0100499,-0.000437668,-0.0781192,0.00685051,0.0262334,1203,421,6.09927,62.8509
-14,603,6.23401,-63.1186,0.00922518,0.00474058,-0.00390263,0.0114838,0.00248194,-0.524646,0.0069773,0.0242509,1210,421,6.23402,63.1185
-7,603,6.34912,-63.3434,0.00811658,0.00721934,-0.00424659,0.0119382,0.00339774,-0.732772,0.00710249,0.0295165,1217,421,6.34912,63.3434
0,603,6.40051,-63.6797,0.00633094,0.00928779,-0.00373975,0.0118307,0.00378799,-0.973634,0.00697617,0.0376702,1224,421,6.40057,63.6797
7,603,6.43286,-63.9455,0,0,0,0,0,0,0,-1,1231,421,6.43287,63.9455
14,603,6.94507,-63.2139,0,0,0,0,0,0,0,-1,1238,421,6.94502,63.2139
21,603,6.8667,-63.6146,0.00338141,0.0139065,0.000278547,0.0139139,0.00337405,1.54436,0.00838077,0.0451302,1245,421,6.86672,63.6146
28,603,6.97278,-63.9686,0.00345288,0.0154294,0.00159683,0.0156386,0.00324363,1.4405,0.00953035,0.0471595,1252,421,6.9728,63.9686
35,603,7.22546,-64.1527,0,0,0,0,0,0,0,-1,1259,421,7.22544,64.1527
42,603,7.12854,-63.9356,0.00230378,0.0196858,0.00702884,0.0221723,-0.000182792,1.23077,0.0148429,0.0423951,1266,421,7.1286,63.9356
49,603,7.07385,-64.1121,0.00244549,0.0225036,0.0102759,0.0268334,-0.0018843,1.17202,0.018549,0.0229534,1273,421,7.07391,64.1121
56,603,7.1759,-64.356,0,0,0,0,0,0,0,-1,1280,421,7.17588,64.356
63,603,7.36816,-64.6162,0,0,0,0,0,0,0,-1,1287,421,7.36812,64.6162
70,603,7.5968,-64.5244,0,0,0,0,0,0,0,-1,1294,421,7.59686,64.5245
77,603,7.78809,-64.1618,0,0,0,0,0,0,0,-1,1301,421,7.78815,64.1618
84,603,8.05469,-64.4776,0,0,0,0,0,0,0,-1,1308,421,8.05474,64.4776
91,603,8.10168,-64.705,0,0,0,0,0,0,0,-1,1315,421,8.10174,64.705
98,603,8.48816,-64.7709,0,0,0,0,0,0,0,-1,1322,421,8.4882,64.7709
105,603,8.54004,-64.4636,0,0,0,0,0,0,0,-1,1329,421,8.53998,64.4636
112,603,8.69019,-63.9261,0.00168164,0.0260456,0.0261144,0.0426796,-0.0149524,1.00364,0.0345337,0.0444037,1336,421,8.69014,63.926
119,603,8.83081,-63.7123,0.00230509,0.0212482,0.0252836,0.0387761,-0.0152228,0.964614,0.0321497,0.0452857,1343,421,8.83075,63.7123
126,603,8.80261,-63.6425,0,0,0,0,0,0,0,-1,1350,421,8.80256,63.6425
133,603,9.02039,-63.1876,0.00253536,0.0109567,0.0240034,0.0311159,-0.0176239,0.872224,0.028497,0.0498593,1357,421,9.02043,63.1876
140,603,9.17188,-62.8671,0.00383134,0.00623032,0.0223611,0.0274241,-0.0173624,0.812193,0.0260741,0.041894,1364,421,9.17189,62.8671
147,603,9.0437,-62.6537,0.00459011,0.00262712,0.0202583,0.0238907,-0.0166734,0.761193,0.0235429,0.0333832,1371,421,9.04366,62.6537
154,603,9.00671,-62.5435,0.00509684,0.000208115,0.018269,0.0210843,-0.0157794,0.718894,0.0213566,0.038153,1378,421,9.00668,62.5435
161,603,9.2644,-62.2255,0.00609188,-0.00180811,0.0166475,0.0192516,-0.0149678,0.668916,0.0198082,0.037031,1385,421,9.26446,62.2255
168,603,9.40625,-61.8938,0.00776863,-0.00376333,0.0140279,0.0171693,-0.013164,0.590406,0.0175638,0.0400203,1392,421,9.40621,61.8938
175,603,9.63232,-61.5338,0.00857415,-0.00299203,0.0110758,0.0152858,-0.00970366,0.544798,0.0145472,0.0422998,1399,421,9.63236,61.5338
182,603,9.7019,-61.1314,0.00796769,-0.00246296,0.00889168,0.0130607,-0.00755596,0.520166,0.0120436,0.0479311,1406,421,9.70189,61.1314
189,603,9.61768,-60.6597,0.00690716,-0.00214026,0.0065305,0.0103277,-0.00556082,0.482492,0.00930985,0.0407674,1413,421,9.61773,60.6597
196,603,9.54565,-60.1828,0.00620746,-0.00110827,0.00326553,0.00745303,-0.00235384,0.364396,0.00591162,0.0292961,1420,421,9.54567,60.1828
203,603,9.57324,-59.7726,0.0068311,-0.00171187,-0.00174856,0.00717514,-0.00205591,-0.194273,0.00559606,0.0179799,1427,421,9.57329,59.7726
210,603,9.61865,-59.4061,0.00658374,-0.00424496,-0.00301222,0.00736525,-0.00502647,-0.253849,0.00719671,0.0146954,1434,421,9.61861,59.4061
217,603,9.65393,-58.8632,0.0055522,-0.0030777,-0.00226051,0.00610846,-0.00363396,-0.241284,0.00568495,0.0152799,1441,421,9.65393,58.8632
224,603,9.73718,-58.3153,0.00478124,-0.00194522,-0.00156641,0.00512813,-0.00229211,-0.217936,0.00438714,0.0189404,1448,421,9.73719,58.3153
231,603,9.73999,-57.7742,0.00413261,-0.00105578,-0.000834948,0.00426366,-0.00118684,-0.155691,0.00330976,0.0166053,1455,421,9.73994,57.7742
238,603,9.76819,-57.2234,0.00372285,-0.000302347,-0.000470693,0.00377716,-0.000356656,-0.114872,0.00264502,0.0125873,1462,421,9.76819,57.2234
245,603,9.78235,-56.6376,0.00331283,0.000133701,-0.000283212,0.00333786,0.000108668,-0.0881596,0.00218992,0.013123,1469,421,9.78236,56.6376
252,603,9.76672,-56.0064,0.0027981,0.000538912,-5.68429e-05,0.00279953,0.000537483,-0.0251395,0.00171549,0.0118479,1476,421,9.76669,56.0064
259,603,9.75427,-55.4184,0.00228861,0.000987346,0.000243079,0.00233254,0.000943421,0.178773,0.00135486,0.0110692,1483,421,9.75426,55.4184
266,603,9.73279,-54.7968,0.00189296,0.00148508,0.000605573,0.00232801,0.00105003,0.622977,0.00134622,0.0126447,1490,421,9.73275,54.7968
273,603,9.72876,-54.1517,0.00158231,0.00217371,0.00103396,0.00295342,0.000802594,0.924674,0.00176339,0.011384,1497,421,9.72877,54.1517
280,603,9.71509,-53.5081,0.00138301,0.00300168,0.00158173,0.00396911,0.000415579,1.02187,0.002519,0.0123985,1504,421,9.71508,53.5081
287,603,9.69312,-52.8129,0.00133683,0.00402706,0.00225986,0.00531183,5.20591e-05,1.05385,0.003524,0.012149,1511,421,9.69316,52.8129
294,603,9.64355,-52.1428,0.00126659,0.00508636,0.0029358,0.00667884,-0.000325894,1.07378,0.00456507,0.00998679,1518,421,9.64353,52.1428
301,603,9.62122,-51.4542,0.00124538,0.00614577,0.00365403,0.00809505,-0.000703897,1.08074,0.00564597,0.0118644,1525,421,9.62124,51.4542
308,603,9.573,-50.7485,0.00138763,0.00752983,0.0044741,0.00988544,-0.000967982,1.08617,0.00693551,0.0171149,1532,421,9.57299,50.7485
315,603,9.50378,-50.0565,0.00166674,0.00911714,0.00542703,0.0119745,-0.00119059,1.08617,0.008408,0.0163975,1539,421,9.50379,50.0565
322,603,9.44714,-49.3322,0.00186125,0.0106336,0.00628352,0.0139104,-0.00141555,1.0901,0.00977964,0.0156453,1546,421,9.44719,49.3322
329,603,9.40576,-48.587,0.00210893,0.0120884,0.00715389,0.0158208,-0.00162347,1.08992,0.0111279,0.0111394,1553,421,9.40579,48.587
336,603,9.39111,-47.8591,0.00236856,0.0138115,0.00811432,0.0180187,-0.00183858,1.09247,0.0126699,0.00973919,1560,421,9.39112,47.8591
343,603,9.35535,-47.1119,0.0026336,0.0157385,0.00909697,0.0203972,-0.00202508,1.09751,0.014321,0.0115736,1567,421,9.35529,47.1119
350,603,9.30334,-46.3306,0.00292664,0.0179652,0.0101771,0.0230995,-0.00220764,1.10356,0.0161858,0.0131166,1574,421,9.3034,46.3306
357,603,9.2323,-45.5115,0.00308653,0.0200999,0.0112845,0.0257249,-0.00253845,1.10837,0.0180557,0.0149687,1581,421,9.23231,45.5115
364,603,9.19861,-44.6351,0.00314098,0.0223044,0.0122434,0.0282697,-0.00282435,1.11742,0.019855,0.0184654,1588,421,9.19867,44.6351
371,603,9.11731,-43.7942,0.00338599,0.0253012,0.0135208,0.0317471,-0.00305985,1.12593,0.0222549,0.0255877,1595,421,9.11731,43.7942
378,603,9.11487,-43.082,0.00343658,0.0284017,0.0146987,0.035203,-0.00336471,1.13742,0.0246668,0.0452213,1602,421,9.11481,43.082
385,603,9.0542,-42.425,0,0,0,0,0,0,0,-1,1609,421,9.05418,42.4251
392,603,8.89844,-41.3296,0,0,0,0,0,0,0,-1,1616,421,8.89838,41.3296
399,603,8.59888,-39.9962,0,0,0,0,0,0,0,-1,1623,421,8.5989,39.9963
406,603,7.78699,-39.3859,0,0,0,0,0,0,0,-1,1630,421,7.78699,39.3859
413,603,2.38928,-2.41275,0,0,0,0,0,0,0,-1,1637,421,2.38926,2.41274
420,603,8.22217,-23.7068,0,0,0,0,0,0,0,-1,1644,421,8.22215,23.7068
427,603,8.20386,-23.1278,0,0,0,0,0,0,0,-1,1651,421,8.2039,23.1278
434,603,8.01489,-22.5655,0,0,0,0,0,0,0,-1,1658,421,8.01493,22.5655
441,603,8.00122,-22.3072,0,0,0,0,0,0,0,-1,1665,421,8.00116,22.3071
448,603,1.14355,-4.59842,0,0,0,0,0,0,0,-1,1672,421,1.14355,4.59841
455,603,0,0,0,0,0,0,0,0,0,-1,1679,421,0,0
462,603,0,0,0,0,0,0,0,0,0,-1,1686,421,0,0
469,603,0,0,0,0,0,0,0,0,0,-1,1693,421,0,0
476,603,0,0,0,0,0,0,0,0,0,-1,1700,421,0,0
483,603,0,0,0,0,0,0,0,0,0,-1,1707,421,0,0
490,603,0,0,0,0,0,0,0,0,0,-1,1714,421,0,0
497,603,0,0,0,0,0,0,0,0,0,-1,1721,421,0,0
504,603,0,0,0,0,0,0,0,0,0,-1,1728,421,0,0
511,603,0,0,0,0,0,0,0,0,0,-1,1735,421,0,0
518,603,0,0,0,0,0,0,0,0,0,-1,1742,421,0,0
525,603,0,0,0,0,0,0,0,0,0,-1,1749,421,0,0
532,603,0,0,0,0,0,0,0,0,0,-1,1756,421,0,0
539,603,0,0,0,0,0,0,0,0,0,-1,1763,421,0,0
546,603,0,0,0,0,0,0,0,0,0,-1,1770,421,0,0
553,603,0,0,0,0,0,0,0,0,0,-1,1777,421,0,0
560,603,0,0,0,0,0,0,0,0,0,-1,1784,421,0,0
567,603,0,0,0,0,0,0,0,0,0,-1,1791,421,0,0
574,603,0,0,0,0,0,0,0,0,0,-1,1798,421,0,0
581,603,0,0,0,0,0,0,0,0,0,-1,1805,421,0,0
588,603,0,0,0,0,0,0,0,0,0,-1,1812,421,0,0
595,603,0,0,0,0,0,0,0,0,0,-1,1819,421,0,0
602,603,0,0,0,0,0,0,0,0,0,-1,1826,421,0,0
609,603,0,0,0,0,0,0,0,0,0,-1,1833,421,0,0
616,603,0,0,0,0,0,0,0,0,0,-1,1840,421,0,0
623,603,0,0,0,0,0,0,0,0,0,-1,1847,421,0,0
630,603,0,0,0,0,0,0,0,0,0,-1,1854,421,0,0
637,603,0,0,0,0,0,0,0,0,0,-1,1861,421,0,0
644,603,0,0,0,0,0,0,0,0,0,-1,1868,421,0,0
651,603,0,0,0,0,0,0,0,0,0,-1,1875,421,0,0
658,603,0,0,0,0,0,0,0,0,0,-1,1882,421,0,0
665,603,0,0,0,0,0,0,0,0,0,-1,1889,421,0,0
672,603,0,0,0,0,0,0,0,0,0,-1,1896,421,0,0
679,603,0,0,0,0,0,0,0,0,0,-1,1903,421,0,0
686,603,0,0,0,0,0,0,0,0,0,-1,1910,421,0,0
693,603,0,0,0,0,0,0,0,0,0,-1,1917,421,0,0
700,603,0,0,0,0,0,0,0,0,0,-1,1924,421,0,0
707,603,0,0,0,0,0,0,0,0,0,-1,1931,421,0,0
714,603,0,0,0,0,0,0,0,0,0,-1,1938,421,0,0
721,603,0,0,0,0,0,0,0,0,0,-1,1945,421,0,0
728,603,0,0,0,0,0,0,0,0,0,-1,1952,421,0,0
735,603,0,0,0,0,0,0,0,0,0,-1,1959,421,0,0
742,603,0,0,0,0,0,0,0,0,0,-1,1966,421,0,0
749,603,0,0,0,0,0,0,0,0,0,-1,1973,421,0,0
756,603,0,0,0,0,0,0,0,0,0,-1,1980,421,0,0
763,603,0,0,0,0,0,0,0,0,0,-1,1987,421,0,0
770,603,0,0,0,0,0,0,0,0,0,-1,1994,421,0,0
777,603,0,0,0,0,0,0,0,0,0,-1,2001,421,0,0
784,603,0,0,0,0,0,0,0,0,0,-1,2008,421,0,0
791,603,0,0,0,0,0,0,0,0,0,-1,2015,421,0,0
798,603,0,0,0,0,0,0,0,0,0,-1,2022,421,0,0
805,603,0,0,0,0,0,0,0,0,0,-1,2029,421,0,0
812,603,0,0,0,0,0,0,0,0,0,-1,2036,421,0,0
-700,596,0,0,0,0,0,0,0,0,0,-1,524,428,0,0
-693,596,0,0,0,0,0,0,0,0,0,-1,531,428,0,0
-686,596,0,0,0,0,0,0,0,0,0,-1,538,428,0,0
-679,596,0,0,0,0,0,0,0,0,0,-1,545,428,0,0
-672,596,0,0,0,0,0,0,0,0,0,-1,552,428,0,0
-665,596,0,0,0,0,0,0,0,0,0,-1,559,428,0,0
-658,596,0,0,0,0,0,0,0,0,0,-1,566,428,0,0
-651,596,0,0,0,0,0,0,0,0,0,-1,573,428,0,0
-644,596,0,0,0,0,0,0,0,0,0,-1,580,428,0,0
-637,596,0,0,0,0,0,0,0,0,0,-1,587,428,0,0
-630,596,0,0,0,0,0,0,0,0,0,-1,594,428,0,0
-623,596,0,0,0,0,0,0,0,0,0,-1,601,428,0,0
-616,596,0,0,0,0,0,0,0,0,0,-1,608,428,0,0
-609,596,0,0,0,0,0,0,0,0,0,-1,615,428,0,0
-602,596,0,0,0,0,0,0,0,0,0,-1,622,428,0,0
-595,596,0,0,0,0,0,0,0,0,0,-1,629,428,0,0
-588,596,0,0,0,0,0,0,0,0,0,-1,636,428,0,0
-581,596,0,0,0,0,0,0,0,0,0,-1,643,428,0,0
-574,596,0,0,0,0,0,0,0,0,0,-1,650,428,0,0
-567,596,0,0,0,0,0,0,0,0,0,-1,657,428,0,0
-560,596,0,0,0,0,0,0,0,0,0,-1,664,428,0,0
-553,596,0,0,0,0,0,0,0,0,0,-1,671,428,0,0
-546,596,0,0,0,0,0,0,0,0,0,-1,678,428,0,0
-539,596,0,0,0,0,0,0,0,0,0,-1,685,428,0,0
-532,596,0,0,0,0,0,0,0,0,0,-1,692,428,0,0
-525,596,0,0,0,0,0,0,0,0,0,-1,699,428,0,0
-518,596,0,0,0,0,0,0,0,0,0,-1,706,428,0,0
-511,596,0,0,0,0,0,0,0,0,0,-1,713,428,0,0
-504,596,0,0,0,0,0,0,0,0,0,-1,720,428,0,0
-497,596,0,0,0,0,0,0,0,0,0,-1,727,428,0,0
-490,596,0,0,0,0,0,0,0,0,0,-1,734,428,0,0
-483,596,0,0,0,0,0,0,0,0,0,-1,741,428,0,0
-476,596,0,0,0,0,0,0,0,0,0,-1,748,428,0,0
-469,596,0,0,0,0,0,0,0,0,0,-1,755,428,0,0
-462,596,0,0,0,0,0,0,0,0,0,-1,762,428,0,0
-455,596,0,0,0,0,0,0,0,0,0,-1,769,428,0,0
-448,596,0,0,0,0,0,0,0,0,0,-1,776,428,0,0
-441,596,0,0,0,0,0,0,0,0,0,-1,783,428,0,0
-434,596,0,0,0,0,0,0,0,0,0,-1,790,428,0,0
-427,596,0,0,0,0,0,0,0,0,0,-1,797,428,0,0
-420,596,0,0,0,0,0,0,0,0,0,-1,804,428,0,0
-413,596,0,0,0,0,0,0,0,0,0,-1,811,428,0,0
-406,596,0,0,0,0,0,0,0,0,0,-1,818,428,0,0
-399,596,0,0,0,0,0,0,0,0,0,-1,825,428,0,0
-392,596,0,0,0,0,0,0,0,0,0,-1,832,428,0,0
-385,596,0,0,0,0,0,0,0,0,0,-1,839,428,0,0
-378,596,0,0,0,0,0,0,0,0,0,-1,846,428,0,0
-371,596,0,0,0,0,0,0,0,0,0,-1,853,428,0,0
-364,596,0,0,0,0,0,0,0,0,0,-1,860,428,0,0
-357,596,0,0,0,0,0,0,0,0,0,-1,867,428,0,0
-350,596,0,0,0,0,0,0,0,0,0,-1,874,428,0,0
-343,596,0,0,0,0,0,0,0,0,0,-1,881,428,0,0
-336,596,6.81445,-30.5258,0,0,0,0,0,0,0,-1,888,428,6.81446,30.5258
-329,596,6.84772,-28.9253,0,0,0,0,0,0,0,-1,895,428,6.84773,28.9253
-322,596,6.97449,-27.9047,0,0,0,0,0,0,0,-1,902,428,6.97451,27.9047
-315,596,7.10132,-26.8841,0,0,0,0,0,0,0,-1,909,428,7.10129,26.8841
-308,596,0.254761,-20.841,0,0,0,0,0,0,0,-1,916,428,0.254731,20.841
-301,596,3.43213,-26.756,0,0,0,0,0,0,0,-1,923,428,3.43214,26.756
-294,596,4.1767,-27.6454,0,0,0,0,0,0,0,-1,930,428,4.17667,27.6454
-287,596,4.36041,-27.6119,0,0,0,0,0,0,0,-1,937,428,4.3604,27.6119
-280,596,5.32776,-40.5501,0,0,0,0,0,0,0,-1,944,428,5.32777,40.5501
-273,596,5.52563,-41.017,0,0,0,0,0,0,0,-1,951,428,5.52563,41.017
-266,596,5.49255,-41.765,0,0,0,0,0,0,0,-1,958,428,5.49258,41.765
-259,596,5.43402,-42.6369,0,0,0,0,0,0,0,-1,965,428,5.434,42.6369
-252,596,5.38257,-43.4431,0.000987792,0.0168056,-0.00998527,0.0216347,-0.0038413,-1.12034,0.0158594,0.0239277,972,428,5.38257,43.4431
-245,596,5.40533,-44.3376,0.000607451,0.0158604,-0.00903164,0.0200548,-0.00358697,-1.13602,0.014712,0.015438,979,428,5.40531,44.3376
-238,596,5.39038,-45.1324,0.000301194,0.0144007,-0.00802552,0.0180331,-0.00333118,-1.14578,0.0132725,0.0128798,986,428,5.39041,45.1324
-231,596,5.29749,-45.9304,0.000139818,0.0128358,-0.00698747,0.0159282,-0.00295262,-1.15414,0.0117276,0.0137052,993,428,5.29746,45.9303
-224,596,5.26831,-46.713,6.61505e-05,0.0114836,-0.00608671,0.0141198,-0.00257004,-1.16208,0.0103765,0.0145292,1000,428,5.26831,46.713
-217,596,5.2215,-47.4739,6.75565e-05,0.00971931,-0.00530355,0.012064,-0.00227711,-1.15454,0.00889934,0.015078,1007,428,5.22149,47.4739
-210,596,5.18518,-48.2175,0.000161994,0.00795538,-0.0045299,0.010034,-0.00191661,-1.1406,0.00741127,0.0135369,1014,428,5.18516,48.2175
-203,596,5.13806,-48.9496,0.000325297,0.0062256,-0.00376848,0.00806135,-0.00151045,-1.1175,0.00594206,0.0186367,1021,428,5.1381,48.9496
-196,596,5.10693,-49.6451,0.000433449,0.00457652,-0.0030384,0.00618237,-0.0011724,-1.0846,0.00456287,0.0187753,1028,428,5.10699,49.6451
-189,596,5.06274,-50.309,0.000586061,0.00300589,-0.00242689,0.00450774,-0.000915792,-1.01664,0.00335239,0.0156659,1035,428,5.0628,50.309
-182,596,5.02063,-51.0055,0.000795325,0.00172352,-0.0018311,0.00314842,-0.000629579,-0.909511,0.00233725,0.0133786,1042,428,5.02061,51.0055
-175,596,4.98352,-51.7065,0.000974115,0.000612961,-0.00123922,0.00204585,-0.000458771,-0.713048,0.00153977,0.0149734,1049,428,4.98354,51.7065
-168,596,4.95654,-52.3972,0.00105895,-0.000352415,-0.000656905,0.00131738,-0.000610844,-0.374807,0.0011379,0.0171792,1056,428,4.95649,52.3972
-161,596,4.94019,-53.0753,0.00119111,-0.00106697,-0.00011236,0.00119669,-0.00107254,-0.0495957,0.0013108,0.0159709,1063,428,4.94024,53.0753
-154,596,4.91858,-53.7285,0.00137255,-0.00155484,0.00042417,0.00143278,-0.00161506,0.141034,0.00176072,0.0141839,1070,428,4.9186,53.7285
-147,596,4.948,-54.3128,0.00164654,-0.00181192,0.000864922,0.00185078,-0.00201616,0.231895,0.00223326,0.0143941,1077,428,4.94799,54.3128
-140,596,4.94946,-54.9317,0.00195206,-0.00198098,0.00130059,0.00234324,-0.00237215,0.292161,0.00272245,0.0161741,1084,428,4.9495,54.9317
-133,596,4.91907,-55.5742,0.00231321,-0.00211594,0.0016633,0.00286828,-0.002671,0.322092,0.00319878,0.0171633,1091,428,4.91904,55.5743
-126,596,4.9259,-56.1338,0.00283897,-0.00204331,0.00189025,0.00348525,-0.0026896,0.329446,0.0035749,0.0128241,1098,428,4.92586,56.1338
-119,596,4.93213,-56.7157,0.00362447,-0.00196016,0.00207957,0.00431377,-0.00264946,0.320066,0.00405832,0.015046,1105,428,4.93217,56.7157
-112,596,4.91187,-57.2852,0.00445817,-0.00182695,0.00216533,0.00513193,-0.00250071,0.301664,0.00449314,0.0170006,1112,428,4.91189,57.2852
-105,596,4.8949,-57.8672,0.00533555,-0.00165229,0.0022001,0.00597054,-0.00228728,0.280984,0.0049232,0.0245336,1119,428,4.89488,57.8672
-98,596,4.97485,-58.4164,0.00637677,-0.00189706,0.00222401,0.00693669,-0.00245698,0.246637,0.00562525,0.0336282,1126,428,4.97487,58.4164
-91,596,4.96838,-58.8761,0,0,0,0,0,0,0,-1,1133,428,4.96841,58.8761
-84,596,5.04431,-59.3903,0,0,0,0,0,0,0,-1,1140,428,5.0443,59.3902
-77,596,5.2229,-60.005,0,0,0,0,0,0,0,-1,1147,428,5.22287,60.005
-70,596,3.50696,-32.137,0,0,0,0,0,0,0,-1,1154,428,3.50696,32.137
-63,596,1.95569,-12.2758,0,0,0,0,0,0,0,-1,1161,428,1.95563,12.2759
-56,596,1.60107,-10.5827,0,0,0,0,0,0,0,-1,1168,428,1.60108,10.5827
-49,596,1.59473,-10.0393,0,0,0,0,0,0,0,-1,1175,428,1.59472,10.0393
-42,596,1.99585,-6.6246,0,0,0,0,0,0,0,-1,1182,428,1.99586,6.62459
-35,596,5.35046,-61.9573,0,0,0,0,0,0,0,-1,1189,428,5.35046,61.9573
-28,596,5.67249,-62.2854,0,0,0,0,0,0,0,-1,1196,428,5.6725,62.2854
-21,596,5.73022,-62.675,0,0,0,0,0,0,0,-1,1203,428,5.73023,62.675
-14,596,5.92651,-62.9483,0,0,0,0,0,0,0,-1,1210,428,5.92656,62.9483
-7,596,6.05908,-63.087,0,0,0,0,0,0,0,-1,1217,428,6.05914,63.087
0,596,6.12097,-63.6047,0,0,0,0,0,0,0,-1,1224,428,6.12094,63.6047
7,596,12.4609,-70.1392,0,0,0,0,0,0,0,-1,1231,428,12.4609,70.1392
14,596,11.766,-68.8787,0,0,0,0,0,0,0,-1,1238,428,11.766,68.8787
21,596,6.66772,-62.632,0,0,0,0,0,0,0,-1,1245,428,6.6677,62.632
28,596,6.86951,-63.3214,0,0,0,0,0,0,0,-1,1252,428,6.86945,63.3214
35,596,7.15198,-63.3271,0,0,0,0,0,0,0,-1,1259,428,7.15199,63.3271
42,596,7.00305,-63.6465,0.00276218,0.0295655,0.00763678,0.0315887,0.000739027,1.31182,0.0208172,0.0471592,1266,428,7.00304,63.6466
49,596,7.05078,-64.0337,0.00304344,0.0322159,0.0117009,0.0363291,-0.00106979,1.23276,0.0245838,0.043986,1273,428,7.05081,64.0337
56,596,6.64282,-64.2631,0.00321436,0.0360176,0.0155794,0.0422375,-0.00300548,1.19095,0.0292117,0.043684,1280,428,6.64286,64.2631
63,596,6.13513,-64.149,0.00283873,0.0403284,0.0196589,0.0487468,-0.00557964,1.1662,0.0345084,0.0447723,1287,428,6.13518,64.149
70,596,5.56116,-63.8389,0.00242527,0.0434813,0.0233738,0.0540617,-0.00815514,1.14573,0.0390444,0.0434579,1294,428,5.56112,63.8389
77,596,5.44385,-63.5715,0.00208328,0.0470454,0.026706,0.0594729,-0.0103442,1.13525,0.0435085,0.0445696,1301,428,5.44386,63.5715
84,596,5.55505,-63.3331,0.00190451,0.0480788,0.0290682,0.0621127,-0.0121294,1.12101,0.045988,0.0458504,1308,428,5.555,63.3331
91,596,5.75464,-63.3541,0.00156397,0.0464127,0.0307598,0.0620543,-0.0140776,1.10037,0.0467737,0.0438724,1315,428,5.7547,63.3541
98,596,5.80151,-63.3639,0.0010598,0.0440692,0.0320387,0.0611511,-0.0160221,1.08097,0.0470269,0.0468703,1322,428,5.80157,63.3639
105,596,5.82068,-63.2144,0,0,0,0,0,0,0,-1,1329,428,5.82065,63.2144
112,596,9.03967,-63.6165,0,0,0,0,0,0,0,-1,1336,428,9.03965,63.6166
119,596,9.32629,-63.2057,0,0,0,0,0,0,0,-1,1343,428,9.32635,63.2057
126,596,6.12146,-57.7535,0,0,0,0,0,0,0,-1,1350,428,6.12145,57.7535
133,596,9.57092,-62.6623,0,0,0,0,0,0,0,-1,1357,428,9.57098,62.6623
140,596,9.72583,-62.077,0,0,0,0,0,0,0,-1,1364,428,9.72585,62.077
147,596,3.77783,-61.9946,0,0,0,0,0,0,0,-1,1371,428,3.77787,61.9946
154,596,9.18542,-62.3039,0,0,0,0,0,0,0,-1,1378,428,9.18537,62.3039
161,596,9.73694,-61.9563,0,0,0,0,0,0,0,-1,1385,428,9.73694,61.9563
168,596,9.89368,-61.4116,0,0,0,0,0,0,0,-1,1392,428,9.89368,61.4116
175,596,10.1213,-61.06,0,0,0,0,0,0,0,-1,1399,428,10.1213,61.06
182,596,10.2478,-60.8735,0,0,0,0,0,0,0,-1,1406,428,10.2478,60.8735
189,596,10.1741,-60.4977,0,0,0,0,0,0,0,-1,1413,428,10.1741,60.4977
196,596,10.1097,-59.8468,0,0,0,0,0,0,0,-1,1420,428,10.1097,59.8468
203,596,10.0468,-59.6844,0,0,0,0,0,0,0,-1,1427,428,10.0467,59.6844
210,596,10.1066,-59.4128,0,0,0,0,0,0,0,-1,1434,428,10.1066,59.4129
217,596,10.136,-58.8302,0,0,0,0,0,0,0,-1,1441,428,10.136,58.8302
224,596,10.2606,-58.2781,0,0,0,0,0,0,0,-1,1448,428,10.2606,58.2781
231,596,10.3574,-57.7661,0.00555353,-0.00299913,-0.00188352,0.00594995,-0.00339556,-0.207443,0.0054624,0.0286946,1455,428,10.3574,57.7661
238,596,10.3474,-57.1706,0.00505769,-0.00213239,-0.00156671,0.00538424,-0.00245894,-0.20549,0.00463206,0.0179977,1462,428,10.3474,57.1706
245,596,10.3455,-56.5912,0.00453626,-0.00183703,-0.00147887,0.0048627,-0.00216347,-0.217252,0.00415515,0.0153189,1469,428,10.3454,56.5912
252,596,10.3617,-55.9857,0.00384584,-0.0016571,-0.00135012,0.00415924,-0.0019705,-0.228086,0.00361343,0.0118055,1476,428,10.3617,55.9857
259,596,10.3542,-55.3875,0.00314363,-0.00151252,-0.00121104,0.00343978,-0.00180867,-0.239834,0.00307859,0.0093614,1483,428,10.3543,55.3875
266,596,10.3394,-54.7798,0.00262046,-0.00120773,-0.000957953,0.00284679,-0.00143407,-0.232013,0.00251601,0.0107514,1490,428,10.3394,54.7799
273,596,10.3563,-54.1346,0.0021714,-0.000755805,-0.000666101,0.00231584,-0.000900252,-0.213548,0.00191583,0.0122967,1497,428,10.3563,54.1346
280,596,10.3448,-53.4852,0.00182782,-0.000125266,-0.000235335,0.00185577,-0.000153222,-0.11824,0.00129129,0.0131221,1504,428,10.3448,53.4852
287,596,10.3229,-52.801,0.00161964,0.000654886,0.000265484,0.00168787,0.000586655,0.251563,0.00098947,0.0125314,1511,428,10.3228,52.801
294,596,10.2979,-52.1176,0.00143075,0.00152011,0.000827097,0.00230373,0.000647125,0.81238,0.00137196,0.00938913,1518,428,10.2978,52.1176
301,596,10.2769,-51.4333,0.00130176,0.00244449,0.00144787,0.00342966,0.000316599,0.97333,0.00218855,0.0105952,1525,428,10.2768,51.4334
308,596,10.239,-50.7402,0.00132024,0.00364948,0.0021684,0.00494622,2.34984e-05,1.03184,0.00328968,0.0167523,1532,428,10.239,50.7402
315,596,10.1735,-50.0152,0.00145655,0.00501678,0.00300177,0.00672657,-0.000253238,1.05303,0.00457113,0.0173066,1539,428,10.1734,50.0152
322,596,10.1696,-49.2986,0.00154398,0.00641447,0.00379684,0.00848992,-0.000531477,1.07055,0.00584517,0.0145447,1546,428,10.1695,49.2987
329,596,10.1237,-48.5671,0.00169584,0.00777958,0.00462648,0.0102746,-0.000799187,1.07621,0.00713108,0.0107174,1553,428,10.1237,48.5671
336,596,10.0725,-47.8431,0.00186957,0.0093866,0.00553174,0.0123159,-0.00105971,1.0838,0.00858565,0.00940138,1560,428,10.0725,47.8431
343,596,10.0548,-47.0974,0.00203351,0.0111677,0.00647364,0.0145231,-0.00132192,1.0926,0.0101515,0.0115529,1567,428,10.0548,47.0974
350,596,10.0292,-46.3053,0.00222686,0.0132519,0.00749319,0.0170418,-0.00156308,1.10253,0.0119165,0.0114791,1574,428,10.0292,46.3053
357,596,9.95398,-45.5293,0.00233312,0.0152346,0.00851477,0.0194662,-0.00189853,1.10957,0.0136544,0.00998956,1581,428,9.954,45.5293
364,596,9.88452,-44.7342,0.00235671,0.017229,0.00943111,0.0218029,-0.00221724,1.11923,0.0153279,0.011461,1588,428,9.88447,44.7342
371,596,9.83826,-43.9492,0.00244522,0.0196701,0.0105082,0.0246442,-0.00252894,1.12869,0.0173341,0.0124373,1595,428,9.83827,43.9492
378,596,9.77295,-43.1402,0.00235901,0.0221258,0.0114536,0.0273708,-0.00288595,1.14137,0.0192813,0.0170004,1602,428,9.7729,43.1402
385,596,9.76648,-42.1178,0.00199387,0.0243586,0.0120962,0.0296494,-0.00329685,1.15848,0.0209518,0.0349636,1609,428,9.76646,42.1178
392,596,9.66907,-41.1492,0.00164468,0.0261914,0.012532,0.031459,-0.00362293,1.17288,0.0222787,0.04569,1616,428,9.66902,41.1492
399,596,9.53503,-40.4408,0,0,0,0,0,0,0,-1,1623,428,9.53498,40.4408
406,596,9.2417,-39.3626,0,0,0,0,0,0,0,-1,1630,428,9.24169,39.3626
413,596,9.24194,-38.8945,0,0,0,0,0,0,0,-1,1637,428,9.2419,38.8945
420,596,2.6344,-3.06308,0,0,0,0,0,0,0,-1,1644,428,2.63439,3.06308
427,596,7.61975,-22.7222,0,0,0,0,0,0,0,-1,1651,428,7.61974,22.7222
434,596,5.09753,-22.5213,0,0,0,0,0,0,0,-1,1658,428,5.09755,22.5213
441,596,7.19043,-22.087,0,0,0,0,0,0,0,-1,1665,428,7.19046,22.087
448,596,1.0769,0.0083313,0,0,0,0,0,0,0,-1,1672,428,1.07684,-0.00832231
455,596,2.00769,-1.43329,0,0,0,0,0,0,0,-1,1679,428,2.00765,1.4333
462,596,0,0,0,0,0,0,0,0,0,-1,1686,428,0,0
469,596,0,0,0,0,0,0,0,0,0,-1,1693,428,0,0
476,596,0,0,0,0,0,0,0,0,0,-1,1700,428,0,0
483,596,0,0,0,0,0,0,0,0,0,-1,1707,428,0,0
490,596,0,0,0,0,0,0,0,0,0,-1,1714,428,0,0
497,596,0,0,0,0,0,0,0,0,0,-1,1721,428,0,0
504,596,0,0,0,0,0,0,0,0,0,-1,1728,428,0,0
511,596,0,0,0,0,0,0,0,0,0,-1,1735,428,0,0
518,596,0,0,0,0,0,0,0,0,0,-1,1742,428,0,0
525,596,0,0,0,0,0,0,0,0,0,-1,1749,428,0,0
532,596,0,0,0,0,0,0,0,0,0,-1,1756,428,0,0
539,596,0,0,0,0,0,0,0,0,0,-1,1763,428,0,0
546,596,0,0,0,0,0,0,0,0,0,-1,1770,428,0,0
553,596,0,0,0,0,0,0,0,0,0,-1,1777,428,0,0
560,596,0,0,0,0,0,0,0,0,0,-1,1784,428,0,0
567,596,0,0,0,0,0,0,0,0,0,-1,1791,428,0,0
574,596,0,0,0,0,0,0,0,0,0,-1,1798,428,0,0
581,596,0,0,0,0,0,0,0,0,0,-1,1805,428,0,0
588,596,0,0,0,0,0,0,0,0,0,-1,1812,428,0,0
595,596,0,0,0,0,0,0,0,0,0,-1,1819,428,0,0
602,596,0,0,0,0,0,0,0,0,0,-1,1826,428,0,0
609,596,0,0,0,0,0,0,0,0,0,-1,1833,428,0,0
616,596,0,0,0,0,0,0,0,0,0,-1,1840,428,0,0
623,596,0,0,0,0,0,0,0,0,0,-1,1847,428,0,0
630,596,0,0,0,0,0,0,0,0,0,-1,1854,428,0,0
637,596,0,0,0,0,0,0,0,0,0,-1,1861,428,0,0
644,596,0,0,0,0,0,0,0,0,0,-1,1868,428,0,0
651,596,0,0,0,0,0,0,0,0,0,-1,1875,428,0,0
658,596,0,0,0,0,0,0,0,0,0,-1,1882,428,0,0
665,596,0,0,0,0,0,0,0,0,0,-1,1889,428,0,0
672,596,0,0,0,0,0,0,0,0,0,-1,1896,428,0,0
679,596,0,0,0,0,0,0,0,0,0,-1,1903,428,0,0
686,596,0,0,0,0,0,0,0,0,0,-1,1910,428,0,0
693,596,0,0,0,0,0,0,0,0,0,-1,1917,428,0,0
700,596,0,0,0,0,0,0,0,0,0,-1,1924,428,0,0
707,596,0,0,0,0,0,0,0,0,0,-1,1931,428,0,0
714,596,0,0,0,0,0,0,0,0,0,-1,1938,428,0,0
721,596,0,0,0,0,0,0,0,0,0,-1,1945,428,0,0
728,596,0,0,0,0,0,0,0,0,0,-1,1952,428,0,0
735,596,0,0,0,0,0,0,0,0,0,-1,1959,428,0,0
742,596,0,0,0,0,0,0,0,0,0,-1,1966,428,0,0
749,596,0,0,0,0,0,0,0,0,0,-1,1973,428,0,0
756,596,0,0,0,0,0,0,0,0,0,-1,1980,428,0,0
763,596,0,0,0,0,0,0,0,0,0,-1,1987,428,0,0
770,596,0,0,0,0,0,0,0,0,0,-1,1994,428,0,0
777,596,0,0,0,0,0,0,0,0,0,-1,2001,428,0,0
784,596,0,0,0,0,0,0,0,0,0,-1,2008,428,0,0
791,596,0,0,0,0,0,0,0,0,0,-1,2015,428,0,0
798,596,0,0,0,0,0,0,0,0,0,-1,2022,428,0,0
805,596,0,0,0,0,0,0,0,0,0,-1,2029,428,0,0
812,596,0,0,0,0,0,0,0,0,0,-1,2036,428,0,0
-700,589,0,0,0,0,0,0,0,0,0,-1,524,435,0,0
-693,589,0,0,0,0,0,0,0,0,0,-1,531,435,0,0
-686,589,0,0,0,0,0,0,0,0,0,-1,538,435,0,0
-679,589,0,0,0,0,0,0,0,0,0,-1,545,435,0,0
-672,589,0,0,0,0,0,0,0,0,0,-1,552,435,0,0
-665,589,0,0,0,0,0,0,0,0,0,-1,559,435,0,0
-658,589,0,0,0,0,0,0,0,0,0,-1,566,435,0,0
-651,589,0,0,0,0,0,0,0,0,0,-1,573,435,0,0
-644,589,0,0,0,0,0,0,0,0,0,-1,580,435,0,0
-637,589,0,0,0,0,0,0,0,0,0,-1,587,435,0,0
-630,589,0,0,0,0,0,0,0,0,0,-1,594,435,0,0
-623,589,0,0,0,0,0,0,0,0,0,-1,601,435,0,0
-616,589,0,0,0,0,0,0,0,0,0,-1,608,435,0,0
-609,589,0,0,0,0,0,0,0,0,0,-1,615,435,0,0
-602,589,0,0,0,0,0,0,0,0,0,-1,622,435,0,0
-595,589,0,0,0,0,0,0,0,0,0,-1,629,435,0,0
-588,589,0,0,0,0,0,0,0,0,0,-1,636,435,0,0
-581,589,0,0,0,0,0,0,0,0,0,-1,643,435,0,0
-574,589,0,0,0,0,0,0,0,0,0,-1,650,435,0,0
-567,589,0,0,0,0,0,0,0,0,0,-1,657,435,0,0
-560,589,0,0,0,0,0,0,0,0,0,-1,664,435,0,0
-553,589,0,0,0,0,0,0,0,0,0,-1,671,435,0,0
-546,589,0,0,0,0,0,0,0,0,0,-1,678,435,0,0
-539,589,0,0,0,0,0,0,0,0,0,-1,685,435,0,0
-532,589,0,0,0,0,0,0,0,0,0,-1,692,435,0,0
-525,589,0,0,0,0,0,0,0,0,0,-1,699,435,0,0
-518,589,0,0,0,0,0,0,0,0,0,-1,706,435,0,0
-511,589,0,0,0,0,0,0,0,0,0,-1,713,435,0,0
-504,589,0,0,0,0,0,0,0,0,0,-1,720,435,0,0
-497,589,0,0,0,0,0,0,0,0,0,-1,727,435,0,0
-490,589,0,0,0,0,0,0,0,0,0,-1,734,435,0,0
-483,589,0,0,0,0,0,0,0,0,0,-1,741,435,0,0
-476,589,0,0,0,0,0,0,0,0,0,-1,748,435,0,0
-469,589,0,0,0,0,0,0,0,0,0,-1,755,435,0,0
-462,589,0,0,0,0,0,0,0,0,0,-1,762,435,0,0
-455,589,0,0,0,0,0,0,0,0,0,-1,769,435,0,0
-448,589,0,0,0,0,0,0,0,0,0,-1,776,435,0,0
-441,589,0,0,0,0,0,0,0,0,0,-1,783,435,0,0
-434,589,0,0,0,0,0,0,0,0,0,-1,790,435,0,0
-427,589,0,0,0,0,0,0,0,0,0,-1,797,435,0,0
-420,589,0,0,0,0,0,0,0,0,0,-1,804,435,0,0
-413,589,0,0,0,0,0,0,0,0,0,-1,811,435,0,0
-406,589,0,0,0,0,0,0,0,0,0,-1,818,435,0,0
-399,589,0,0,0,0,0,0,0,0,0,-1,825,435,0,0
-392,589,0,0,0,0,0,0,0,0,0,-1,832,435,0,0
-385,589,0,0,0,0,0,0,0,0,0,-1,839,435,0,0
-378,589,0,0,0,0,0,0,0,0,0,-1,846,435,0,0
-371,589,0,0,0,0,0,0,0,0,0,-1,853,435,0,0
-364,589,0,0,0,0,0,0,0,0,0,-1,860,435,0,0
-357,589,0,0,0,0,0,0,0,0,0,-1,867,435,0,0
-350,589,-0.799927,-20.664,0,0,0,0,0,0,0,-1,874,435,-0.799952,20.664
-343,589,5.15289,-30.4847,0,0,0,0,0,0,0,-1,881,435,5.15291,30.4847
-336,589,5.07684,-29.2368,0,0,0,0,0,0,0,-1,888,435,5.07687,29.2368
-329,589,4.9624,-28.1366,0,0,0,0,0,0,0,-1,895,435,4.96242,28.1366
-322,589,5.10156,-27.065,0,0,0,0,0,0,0,-1,902,435,5.10155,27.065
-315,589,4.22705,-27.9655,0,0,0,0,0,0,0,-1,909,435,4.22705,27.9655
-308,589,4.46698,-29.037,0,0,0,0,0,0,0,-1,916,435,4.46696,29.037
-301,589,4.94867,-33.7458,0,0,0,0,0,0,0,-1,923,435,4.94869,33.7458
-294,589,4.1037,-31.2976,0,0,0,0,0,0,0,-1,930,435,4.10371,31.2976
-287,589,4.57513,-39.3896,0,0,0,0,0,0,0,-1,937,435,4.57511,39.3896
-280,589,4.74316,-40.2206,0.00145596,0.0170533,-0.0107149,0.0225071,-0.00399787,-1.09998,0.0164996,0.0450429,944,435,4.74314,40.2206
-273,589,4.85651,-40.9535,0.00135734,0.0161103,-0.0101057,0.0212453,-0.00377767,-1.10067,0.0155762,0.0284745,951,435,4.85652,40.9535
-266,589,4.84601,-41.8477,0.00107445,0.015098,-0.00939738,0.0198113,-0.00363877,-1.10591,0.0145727,0.0273094,958,435,4.84604,41.8477
-259,589,4.76508,-42.7099,0.000903237,0.0138507,-0.00864075,0.0181738,-0.00341988,-1.1069,0.0134021,0.0225519,965,435,4.76508,42.7099
-252,589,4.7301,-43.6153,0.000778774,0.0126318,-0.00779769,0.0164996,-0.00308897,-1.11034,0.0121609,0.0122454,972,435,4.73009,43.6153
-245,589,4.71417,-44.4171,0.000633433,0.0116427,-0.006978,0.0150259,-0.00274975,-1.11935,0.0110485,0.0114459,979,435,4.71418,44.4171
-238,589,4.64374,-45.1713,0.000532721,0.0102185,-0.00607342,0.0131435,-0.00239226,-1.12197,0.00965903,0.0156303,986,435,4.64373,45.1713
-231,589,4.57849,-45.9119,0.000521825,0.00865848,-0.00511115,0.0111228,-0.00194247,-1.12154,0.00814029,0.0152936,993,435,4.5785,45.9119
-224,589,4.53595,-46.6702,0.000525495,0.00725775,-0.00423661,0.0093027,-0.00151945,-1.1211,0.0067654,0.0150789,1000,435,4.53596,46.6702
-217,589,4.50098,-47.4527,0.000584942,0.00550981,-0.00345562,0.00729059,-0.00119584,-1.09496,0.00530414,0.0163552,1007,435,4.50095,47.4527
-210,589,4.46332,-48.2019,0.000729078,0.00375475,-0.00269774,0.00533488,-0.000851055,-1.04094,0.00387158,0.016429,1014,435,4.46332,48.2019
-203,589,4.42163,-48.9109,0.000937847,0.00210936,-0.00196192,0.0035711,-0.000523888,-0.930468,0.0025732,0.0133953,1021,435,4.42168,48.9109
-196,589,4.38452,-49.5994,0.00105007,0.000598896,-0.00124855,0.00209324,-0.000444281,-0.696023,0.00156476,0.015663,1028,435,4.38452,49.5994
-189,589,4.34351,-50.3093,0.00122556,-0.000818101,-0.000650275,0.00141493,-0.00100747,-0.283371,0.00140515,0.0195042,1035,435,4.34347,50.3093
-182,589,4.3374,-50.9568,0.00145145,-0.00193934,-8.09221e-05,0.00145338,-0.00194127,-0.0238472,0.00196664,0.0140728,1042,435,4.33742,50.9568
-175,589,4.31763,-51.6541,0.00164848,-0.00286785,0.00047993,0.00169892,-0.00291829,0.104707,0.00269656,0.0167742,1049,435,4.31766,51.6542
-168,589,4.30859,-52.3781,0.00175138,-0.00354761,0.000998369,0.00193324,-0.00372947,0.18018,0.00332374,0.0138138,1056,435,4.30862,52.3781
-161,589,4.30847,-53.029,0.00188201,-0.0039839,0.00148255,0.00223542,-0.0043373,0.234011,0.0038589,0.0129945,1063,435,4.30847,53.029
-154,589,4.28479,-53.6625,0.00209105,-0.00415227,0.00196988,0.00266062,-0.00472184,0.281464,0.00431729,0.0135845,1070,435,4.28482,53.6625
-147,589,4.29993,-54.2899,0.00242641,-0.00411361,0.00234936,0.00318287,-0.00487007,0.311502,0.00468326,0.0140558,1077,435,4.29998,54.29
-140,589,4.32373,-54.9005,0.0027085,-0.0039199,0.0027792,0.00371956,-0.00493096,0.348912,0.00501068,0.0157366,1084,435,4.32371,54.9004
-133,589,4.3136,-55.5266,0.00306451,-0.00380079,0.00312366,0.00427302,-0.00500929,0.369152,0.00536476,0.0159686,1091,435,4.3136,55.5266
-126,589,4.35229,-56.1076,0.0036558,-0.00342803,0.00328904,0.00494741,-0.00471964,0.374197,0.00558179,0.0129933,1098,435,4.35224,56.1076
-119,589,4.28162,-56.6812,0.00459769,-0.00311108,0.0034136,0.00589199,-0.00440538,0.362412,0.0059658,0.02744,1105,435,4.28162,56.6812
-112,589,4.33484,-57.2195,0,0,0,0,0,0,0,-1,1112,435,4.33484,57.2195
-105,589,4.33179,-57.8354,0,0,0,0,0,0,0,-1,1119,435,4.33182,57.8355
-98,589,4.40076,-58.6352,0,0,0,0,0,0,0,-1,1126,435,4.40075,58.6352
-91,589,3.39563,-37.8231,0,0,0,0,0,0,0,-1,1133,435,3.39565,37.8231
-84,589,2.76538,-22.6013,0,0,0,0,0,0,0,-1,1140,435,2.76539,22.6014
-77,589,2.18152,-14.8023,0,0,0,0,0,0,0,-1,1147,435,2.18155,14.8023
-70,589,1.48267,-9.90961,0,0,0,0,0,0,0,-1,1154,435,1.48264,9.9096
-63,589,0.880127,-5.50586,0,0,0,0,0,0,0,-1,1161,435,0.880186,5.50587
-56,589,-2.78052,-7.28082,0,0,0,0,0,0,0,-1,1168,435,-2.78053,7.28082
-49,589,-0.525757,-2.76703,0,0,0,0,0,0,0,-1,1175,435,-0.525771,2.76702
-42,589,-2.7738,-2.87921,0,0,0,0,0,0,0,-1,1182,435,-2.77383,2.87922
-35,589,-2.55225,-3.27551,0,0,0,0,0,0,0,-1,1189,435,-2.55223,3.27552
-28,589,-0.0632324,-3.42938,0,0,0,0,0,0,0,-1,1196,435,-0.063241,3.42938
-21,589,-6.50256,-58.7001,0,0,0,0,0,0,0,-1,1203,435,-6.50254,58.7001
-14,589,11.7372,-73.3847,0,0,0,0,0,0,0,-1,1210,435,11.7372,73.3847
-7,589,10.9803,-72.0392,0,0,0,0,0,0,0,-1,1217,435,10.9803,72.0392
0,589,12.4886,-71.2278,0,0,0,0,0,0,0,-1,1224,435,12.4886,71.2278
7,589,11.9666,-70.0255,0,0,0,0,0,0,0,-1,1231,435,11.9666,70.0254
14,589,11.5107,-68.6598,0,0,0,0,0,0,0,-1,1238,435,11.5107,68.6597
21,589,10.4709,-67.7672,0,0,0,0,0,0,0,-1,1245,435,10.471,67.7672
28,589,7.39172,-62.5652,0,0,0,0,0,0,0,-1,1252,435,7.39167,62.5652
35,589,7.29736,-62.9438,0.00338318,0.0413265,0.00312062,0.0415815,0.00312824,1.48928,0.0267393,0.0492822,1259,435,7.29735,62.9438
42,589,7.24646,-63.4981,0.00335017,0.0420277,0.00762579,0.0434769,0.00190094,1.38299,0.0283722,0.0465215,1266,435,7.24644,63.4981
49,589,7.00574,-64.0214,0.00384499,0.0443234,0.0126093,0.04793,0.000238443,1.29221,0.0318741,0.0459575,1273,435,7.0057,64.0214
56,589,6.56213,-64.3216,0.00425046,0.0483543,0.0173106,0.0543371,-0.00173232,1.23803,0.0368157,0.0466643,1280,435,6.56213,64.3216
63,589,5.04956,-64.4102,0.00384152,0.0534587,0.0222195,0.0619544,-0.00465413,1.2056,0.0429384,0.044527,1287,435,5.04961,64.4102
70,589,4.81067,-64.3994,0.00311934,0.0570164,0.0268688,0.0681225,-0.00798677,1.17884,0.0482979,0.0434192,1294,435,4.81062,64.3994
77,589,4.99731,-64.3433,0.00249005,0.061112,0.0310512,0.0745013,-0.0108992,1.16369,0.0536708,0.0407403,1301,435,4.99737,64.3433
84,589,5.06958,-64.0419,0.00202546,0.0622574,0.0341041,0.0776394,-0.0133565,1.14709,0.0567382,0.0409003,1308,435,5.0696,64.0419
91,589,4.92261,-63.8457,0.00139363,0.0603868,0.036309,0.0776704,-0.0158901,1.12652,0.0578096,0.0422139,1315,435,4.92262,63.8457
98,589,4.98499,-63.8075,0.000593231,0.057722,0.0379871,0.076686,-0.0183708,1.10777,0.0582218,0.045526,1322,435,4.98501,63.8075
105,589,5.00818,-63.8215,0.000236722,0.0544902,0.0386968,0.0746213,-0.0198943,1.0911,0.0575371,0.0472663,1329,435,5.00823,63.8215
112,589,5.021,-63.9838,3.95166e-05,0.0488868,0.0385537,0.070102,-0.0211756,1.06774,0.055165,0.0424059,1336,435,5.02102,63.9838
119,589,5.12,-64.4488,0,0,0,0,0,0,0,-1,1343,435,5.12003,64.4488
126,589,2.03149,-63.1956,0,0,0,0,0,0,0,-1,1350,435,2.03147,63.1957
133,589,3.45996,-64.0468,0,0,0,0,0,0,0,-1,1357,435,3.46001,64.0468
140,589,3.48621,-62.7649,0.00322197,0.0260779,0.0351061,0.0515693,-0.0222694,0.942752,0.0437352,0.045652,1364,435,3.48624,62.7649
147,589,3.42444,-61.9071,0.00420488,0.0237702,0.0330778,0.0484816,-0.0205065,0.929173,0.0409074,0.047877,1371,435,3.42445,61.9071
154,589,3.5686,-61.2742,0,0,0,0,0,0,0,-1,1378,435,3.56863,61.2742
161,589,-6.32788,-58.6489,0,0,0,0,0,0,0,-1,1385,435,-6.32789,58.6489
168,589,20.0441,-47.9614,0,0,0,0,0,0,0,-1,1392,435,20.044,47.9613
175,589,8.66992,-7.65527,0,0,0,0,0,0,0,-1,1399,435,8.66994,7.65528
182,589,3.8136,-2.45389,0,0,0,0,0,0,0,-1,1406,435,3.81363,2.4539
189,589,3.69983,-3.68149,0,0,0,0,0,0,0,-1,1413,435,3.69987,3.68147
196,589,3.31055,-5.31677,0,0,0,0,0,0,0,-1,1420,435,3.31059,5.31678
203,589,2.72559,-8.84338,0,0,0,0,0,0,0,-1,1427,435,2.72558,8.84338
210,589,3.62378,-14.4032,0,0,0,0,0,0,0,-1,1434,435,3.62378,14.4032
217,589,4.65601,-22.3745,0,0,0,0,0,0,0,-1,1441,435,4.65607,22.3745
224,589,6.79028,-33.9412,0,0,0,0,0,0,0,-1,1448,435,6.79028,33.9412
231,589,10.953,-57.8126,0,0,0,0,0,0,0,-1,1455,435,10.953,57.8126
238,589,10.9104,-57.1463,0,0,0,0,0,0,0,-1,1462,435,10.9104,57.1463
245,589,10.8973,-56.5189,0,0,0,0,0,0,0,-1,1469,435,10.8974,56.5189
252,589,10.9558,-55.9118,0.00480811,-0.00382405,-0.00274208,0.00560549,-0.00462144,-0.282992,0.00591363,0.0323223,1476,435,10.9558,55.9118
259,589,10.965,-55.3647,0.0039408,-0.00398984,-0.00275787,0.00480555,-0.00485459,-0.303849,0.00557731,0.0120149,1483,435,10.9649,55.3647
266,589,10.976,-54.7293,0.00330035,-0.00388092,-0.00260885,0.00414805,-0.00472862,-0.314169,0.0051286,0.0102727,1490,435,10.976,54.7293
273,589,10.9982,-54.1153,0.00271751,-0.00367772,-0.00244784,0.00354689,-0.0045071,-0.32668,0.00466097,0.0122294,1497,435,10.9982,54.1153
280,589,10.9884,-53.4569,0.00224021,-0.00324231,-0.00211964,0.00296411,-0.00396621,-0.329104,0.00401514,0.0137588,1504,435,10.9884,53.4569
287,589,10.9844,-52.7919,0.00188747,-0.00268609,-0.00177211,0.00249374,-0.00329236,-0.329635,0.0033512,0.012451,1511,435,10.9844,52.7919
294,589,10.9851,-52.0978,0.00161802,-0.00211074,-0.00131529,0.00203528,-0.00252801,-0.307199,0.00263973,0.0101179,1518,435,10.9851,52.0978
301,589,10.9648,-51.4014,0.00141253,-0.00136387,-0.000792791,0.00162296,-0.0015743,-0.259446,0.00184601,0.010642,1525,435,10.9649,51.4014
308,589,10.9368,-50.7108,0.00132451,-0.000351304,-0.000163416,0.00134029,-0.000367091,-0.0963059,0.00103776,0.0111232,1532,435,10.9368,50.7108
315,589,10.9095,-50.0055,0.00133539,0.000802163,0.000571479,0.00169939,0.000438165,0.56714,0.00101878,0.0112931,1539,435,10.9095,50.0055
322,589,10.9032,-49.2679,0.00133469,0.00210419,0.00133591,0.00310965,0.000329227,0.925608,0.00197254,0.0122699,1546,435,10.9032,49.2679
329,589,10.8571,-48.5336,0.00140096,0.00343124,0.00215605,0.00479918,3.30203e-05,1.00542,0.0031885,0.0108304,1553,435,10.857,48.5336
336,589,10.8181,-47.8082,0.00149047,0.0049989,0.00303918,0.0067538,-0.000264437,1.04714,0.00459322,0.0101378,1560,435,10.8182,47.8082
343,589,10.7856,-47.0894,0.00156628,0.00672915,0.00399141,0.00890115,-0.000605725,1.07244,0.00614597,0.0111079,1567,435,10.7856,47.0894
350,589,10.7404,-46.3294,0.00167727,0.00879141,0.00500903,0.0113779,-0.000909203,1.09414,0.00790577,0.0163013,1574,435,10.7404,46.3294
357,589,10.7053,-45.5165,0.00173224,0.0107655,0.0060162,0.0137718,-0.00127407,1.10739,0.00963401,0.0152553,1581,435,10.7053,45.5165
364,589,10.6722,-44.7321,0.00171313,0.0127034,0.00695244,0.0160701,-0.00165362,1.11982,0.011305,0.0124935,1588,435,10.6723,44.732
371,589,10.6151,-43.9554,0.00170299,0.0148627,0.00795356,0.0186053,-0.00203963,1.13098,0.0131363,0.0118189,1595,435,10.6151,43.9554
378,589,10.5496,-43.1556,0.00155249,0.0169846,0.00881317,0.0209822,-0.0024451,1.14496,0.0148703,0.0125757,1602,435,10.5496,43.1556
385,589,10.49,-42.3224,0.00120946,0.0188008,0.00936323,0.0228517,-0.00284142,1.16247,0.0162645,0.0204671,1609,435,10.49,42.3223
392,589,10.4199,-41.334,0.000909503,0.0202341,0.00977266,0.0243146,-0.00317101,1.17526,0.0173635,0.0290479,1616,435,10.42,41.334
399,589,10.3992,-40.3086,0.000950259,0.0212621,0.0104871,0.0257048,-0.00349249,1.17008,0.0184115,0.0378138,1623,435,10.3992,40.3086
406,589,10.4075,-39.3876,0,0,0,0,0,0,0,-1,1630,435,10.4075,39.3876
413,589,5.61377,-19.0606,0,0,0,0,0,0,0,-1,1637,435,5.61372,19.0606
420,589,2.79724,-5.79956,0,0,0,0,0,0,0,-1,1644,435,2.7973,5.79955
427,589,9.67773,-37.1329,0,0,0,0,0,0,0,-1,1651,435,9.67768,37.1329
434,589,9.14709,-34.4435,0,0,0,0,0,0,0,-1,1658,435,9.1471,34.4435
441,589,7.85901,-29.8665,0,0,0,0,0,0,0,-1,1665,435,7.85898,29.8666
448,589,0.453735,-3.2868,0,0,0,0,0,0,0,-1,1672,435,0.453701,3.28681
455,589,0.664307,-3.46848,0,0,0,0,0,0,0,-1,1679,435,0.66425,3.46846
462,589,3.46716,-4.41891,0,0,0,0,0,0,0,-1,1686,435,3.4672,4.41891
469,589,0.0238037,-3.81497,0,0,0,0,0,0,0,-1,1693,435,0.0237965,3.81498
476,589,0,0,0,0,0,0,0,0,0,-1,1700,435,0,0
483,589,0,0,0,0,0,0,0,0,0,-1,1707,435,0,0
490,589,0,0,0,0,0,0,0,0,0,-1,1714,435,0,0
497,589,0,0,0,0,0,0,0,0,0,-1,1721,435,0,0
504,589,0,0,0,0,0,0,0,0,0,-1,1728,435,0,0
511,589,0,0,0,0,0,0,0,0,0,-1,1735,435,0,0
518,589,0,0,0,0,0,0,0,0,0,-1,1742,435,0,0
525,589,0,0,0,0,0,0,0,0,0,-1,1749,435,0,0
532,589,0,0,0,0,0,0,0,0,0,-1,1756,435,0,0
539,589,0,0,0,0,0,0,0,0,0,-1,1763,435,0,0
546,589,0,0,0,0,0,0,0,0,0,-1,1770,435,0,0
553,589,0,0,0,0,0,0,0,0,0,-1,1777,435,0,0
560,589,0,0,0,0,0,0,0,0,0,-1,1784,435,0,0
567,589,0,0,0,0,0,0,0,0,0,-1,1791,435,0,0
574,589,0,0,0,0,0,0,0,0,0,-1,1798,435,0,0
581,589,0,0,0,0,0,0,0,0,0,-1,1805,435,0,0
588,589,0,0,0,0,0,0,0,0,0,-1,1812,435,0,0
595,589,0,0,0,0,0,0,0,0,0,-1,1819,435,0,0
602,589,0,0,0,0,0,0,0,0,0,-1,1826,435,0,0
609,589,0,0,0,0,0,0,0,0,0,-1,1833,435,0,0
616,589,0,0,0,0,0,0,0,0,0,-1,1840,435,0,0
623,589,0,0,0,0,0,0,0,0,0,-1,1847,435,0,0
630,589,0,0,0,0,0,0,0,0,0,-1,1854,435,0,0
637,589,0,0,0,0,0,0,0,0,0,-1,1861,435,0,0
644,589,0,0,0,0,0,0,0,0,0,-1,1868,435,0,0
651,589,0,0,0,0,0,0,0,0,0,-1,1875,435,0,0
658,589,0,0,0,0,0,0,0,0,0,-1,1882,435,0,0
665,589,0,0,0,0,0,0,0,0,0,-1,1889,435,0,0
672,589,0,0,0,0,0,0,0,0,0,-1,1896,435,0,0
679,589,0,0,0,0,0,0,0,0,0,-1,1903,435,0,0
686,589,0,0,0,0,0,0,0,0,0,-1,1910,435,0,0
693,589,0,0,0,0,0,0,0,0,0,-1,1917,435,0,0
700,589,0,0,0,0,0,0,0,0,0,-1,1924,435,0,0
707,589,0,0,0,0,0,0,0,0,0,-1,1931,435,0,0
714,589,0,0,0,0,0,0,0,0,0,-1,1938,435,0,0
721,589,0,0,0,0,0,0,0,0,0,-1,1945,435,0,0
728,589,0,0,0,0,0,0,0,0,0,-1,1952,435,0,0
735,589,0,0,0,0,0,0,0,0,0,-1,1959,435,0,0
742,589,0,0,0,0,0,0,0,0,0,-1,1966,435,0,0
749,589,0,0,0,0,0,0,0,0,0,-1,1973,435,0,0
756,589,0,0,0,0,0,0,0,0,0,-1,1980,435,0,0
763,589,0,0,0,0,0,0,0,0,0,-1,1987,435,0,0
770,589,0,0,0,0,0,0,0,0,0,-1,1994,435,0,0
777,589,0,0,0,0,0,0,0,0,0,-1,2001,435,0,0
784,589,0,0,0,0,0,0,0,0,0,-1,2008,435,0,0
791,589,0,0,0,0,0,0,0,0,0,-1,2015,435,0,0
798,589,0,0,0,0,0,0,0,0,0,-1,2022,435,0,0
805,589,0,0,0,0,0,0,0,0,0,-1,2029,435,0,0
812,589,0,0,0,0,0,0,0,0,0,-1,2036,435,0,0
-700,582,0,0,0,0,0,0,0,0,0,-1,524,442,0,0
-693,582,0,0,0,0,0,0,0,0,0,-1,531,442,0,0
-686,582,0,0,0,0,0,0,0,0,0,-1,538,442,0,0
-679,582,0,0,0,0,0,0,0,0,0,-1,545,442,0,0
-672,582,0,0,0,0,0,0,0,0,0,-1,552,442,0,0
-665,582,0,0,0,0,0,0,0,0,0,-1,559,442,0,0
-658,582,0,0,0,0,0,0,0,0,0,-1,566,442,0,0
-651,582,0,0,0,0,0,0,0,0,0,-1,573,442,0,0
-644,582,0,0,0,0,0,0,0,0,0,-1,580,442,0,0
-637,582,0,0,0,0,0,0,0,0,0,-1,587,442,0,0
-630,582,0,0,0,0,0,0,0,0,0,-1,594,442,0,0
-623,582,0,0,0,0,0,0,0,0,0,-1,601,442,0,0
-616,582,0,0,0,0,0,0,0,0,0,-1,608,442,0,0
-609,582,0,0,0,0,0,0,0,0,0,-1,615,442,0,0
-602,582,0,0,0,0,0,0,0,0,0,-1,622,442,0,0
-595,582,0,0,0,0,0,0,0,0,0,-1,629,442,0,0
-588,582,0,0,0,0,0,0,0,0,0,-1,636,442,0,0
-581,582,0,0,0,0,0,0,0,0,0,-1,643,442,0,0
-574,582,0,0,0,0,0,0,0,0,0,-1,650,442,0,0
-567,582,0,0,0,0,0,0,0,0,0,-1,657,442,0,0
-560,582,0,0,0,0,0,0,0,0,0,-1,664,442,0,0
-553,582,0,0,0,0,0,0,0,0,0,-1,671,442,0,0
-546,582,0,0,0,0,0,0,0,0,0,-1,678,442,0,0
-539,582,0,0,0,0,0,0,0,0,0,-1,685,442,0,0
-532,582,0,0,0,0,0,0,0,0,0,-1,692,442,0,0
-525,582,0,0,0,0,0,0,0,0,0,-1,699,442,0,0
-518,582,0,0,0,0,0,0,0,0,0,-1,706,442,0,0
-511,582,0,0,0,0,0,0,0,0,0,-1,713,442,0,0
-504,582,0,0,0,0,0,0,0,0,0,-1,720,442,0,0
-497,582,0,0,0,0,0,0,0,0,0,-1,727,442,0,0
-490,582,0,0,0,0,0,0,0,0,0,-1,734,442,0,0
-483,582,0,0,0,0,0,0,0,0,0,-1,741,442,0,0
-476,582,0,0,0,0,0,0,0,0,0,-1,748,442,0,0
-469,582,0,0,0,0,0,0,0,0,0,-1,755,442,0,0
-462,582,0,0,0,0,0,0,0,0,0,-1,762,442,0,0
-455,582,0,0,0,0,0,0,0,0,0,-1,769,442,0,0
-448,582,0,0,0,0,0,0,0,0,0,-1,776,442,0,0
-441,582,0,0,0,0,0,0,0,0,0,-1,783,442,0,0
-434,582,0,0,0,0,0,0,0,0,0,-1,790,442,0,0
-427,582,0,0,0,0,0,0,0,0,0,-1,797,442,0,0
-420,582,0,0,0,0,0,0,0,0,0,-1,804,442,0,0
-413,582,0,0,0,0,0,0,0,0,0,-1,811,442,0,0
-406,582,0,0,0,0,0,0,0,0,0,-1,818,442,0,0
-399,582,0,0,0,0,0,0,0,0,0,-1,825,442,0,0
-392,582,0,0,0,0,0,0,0,0,0,-1,832,442,0,0
-385,582,0,0,0,0,0,0,0,0,0,-1,839,442,0,0
-378,582,0,0,0,0,0,0,0,0,0,-1,846,442,0,0
-371,582,0,0,0,0,0,0,0,0,0,-1,853,442,0,0
-364,582,0,0,0,0,0,0,0,0,0,-1,860,442,0,0
-357,582,-1.4903,-21.5295,0,0,0,0,0,0,0,-1,867,442,-1.49031,21.5295
-350,582,-0.880859,-19.7966,0,0,0,0,0,0,0,-1,874,442,-0.880885,19.7966
-343,582,0.939941,-19.1705,0,0,0,0,0,0,0,-1,881,442,0.939935,19.1705
-336,582,3.33929,-27.9479,0,0,0,0,0,0,0,-1,888,442,3.33928,27.9479
-329,582,3.63544,-26.4736,0,0,0,0,0,0,0,-1,895,442,3.63546,26.4736
-322,582,3.67145,-27.1796,0,0,0,0,0,0,0,-1,902,442,3.67143,27.1796
-315,582,3.90686,-27.6446,0,0,0,0,0,0,0,-1,909,442,3.90689,27.6446
-308,582,4.07587,-33.1895,0,0,0,0,0,0,0,-1,916,442,4.07588,33.1895
-301,582,4.5108,-37.7367,0,0,0,0,0,0,0,-1,923,442,4.51081,37.7367
-294,582,4.24579,-38.299,0,0,0,0,0,0,0,-1,930,442,4.2458,38.299
-287,582,4.2384,-39.2513,0.000237156,0.0149841,-0.00903179,0.01927,-0.00404876,-1.12773,0.0143874,0.0402346,937,442,4.23838,39.2514
-280,582,4.18921,-40.1279,0.000509991,0.0137589,-0.00845892,0.0178786,-0.0036097,-1.11758,0.0132868,0.0195738,944,442,4.18922,40.1279
-273,582,4.17175,-41.0759,0.000666814,0.0128352,-0.00794022,0.0167543,-0.00325221,-1.11231,0.0123966,0.0139608,951,442,4.17177,41.0759
-266,582,4.12024,-41.9303,0.000639294,0.0117371,-0.00730178,0.0153592,-0.00298274,-1.11031,0.0113649,0.0119311,958,442,4.12024,41.9303
-259,582,4.05542,-42.7584,0.000669892,0.0103455,-0.00661308,0.0137014,-0.00268603,-1.10119,0.0101488,0.00944436,965,442,4.05542,42.7584
-252,582,3.99292,-43.5845,0.000686767,0.00900824,-0.00581376,0.0119967,-0.00230173,-1.09598,0.00886523,0.00850235,972,442,3.99294,43.5845
-245,582,3.97137,-44.3513,0.000692018,0.00782555,-0.00504257,0.0104353,-0.00191773,-1.09321,0.00767637,0.0125195,979,442,3.97138,44.3513
-238,582,3.909,-45.0897,0.000728577,0.00626981,-0.00417394,0.008509,-0.00151061,-1.0784,0.00623748,0.017548,986,442,3.90899,45.0897
-231,582,3.83954,-45.8459,0.000825494,0.00455397,-0.00323746,0.00642558,-0.00104612,-1.04663,0.00467163,0.0133511,993,442,3.83952,45.8459
-224,582,3.80353,-46.6183,0.000901208,0.00297139,-0.00236672,0.00451947,-0.000646874,-0.991541,0.00325013,0.0108233,1000,442,3.80352,46.6183
-217,582,3.77582,-47.3904,0.00102296,0.00111517,-0.00157518,0.00264492,-0.000506793,-0.800029,0.00195424,0.0134123,1007,442,3.77582,47.3904
-210,582,3.75,-48.1265,0.0012225,-0.000730443,-0.000823236,0.00152322,-0.00103116,-0.350229,0.00148386,0.0138297,1014,442,3.74997,48.1265
-203,582,3.72144,-48.8607,0.00148639,-0.00237202,-0.00011001,0.00148953,-0.00237515,-0.0284808,0.00225072,0.011205,1021,442,3.72148,48.8607
-196,582,3.67786,-49.6021,0.00161697,-0.00379523,0.000584784,0.00167944,-0.00385769,0.106413,0.00327828,0.0172562,1028,442,3.67787,49.6021
-189,582,3.64026,-50.3012,0.00182584,-0.00508924,0.00116519,0.0020169,-0.0052803,0.162524,0.00435121,0.0244403,1035,442,3.64028,50.3012
-182,582,3.63574,-50.9774,0.00206874,-0.00604338,0.00170259,0.00241159,-0.00638623,0.198714,0.00524937,0.0177515,1042,442,3.63578,50.9774
-175,582,3.64587,-51.6219,0.00229434,-0.00669873,0.00222184,0.00281332,-0.00721771,0.229468,0.00597461,0.0148535,1049,442,3.6459,51.6219
-168,582,3.6416,-52.3453,0.00241572,-0.00702332,0.00267353,0.00312037,-0.00772797,0.257705,0.00644886,0.0115788,1056,442,3.64166,52.3453
-161,582,3.63232,-52.9922,0.00251848,-0.00714545,0.00310951,0.00343255,-0.00805952,0.285906,0.00681185,0.0125199,1063,442,3.63231,52.9922
-154,582,3.62244,-53.6232,0.00271795,-0.0069605,0.00355015,0.00388053,-0.00812308,0.316467,0.0070731,0.0126673,1070,442,3.6225,53.6232
-147,582,3.63477,-54.2588,0.00306677,-0.00657497,0.00386905,0.00442735,-0.00793555,0.33815,0.00723288,0.0132719,1077,442,3.63471,54.2588
-140,582,3.62451,-54.8625,0.00326472,-0.00592136,0.00430233,0.00496501,-0.00762166,0.376365,0.00732067,0.0151723,1084,442,3.62451,54.8625
-133,582,3.70117,-55.4689,0.00354183,-0.00547758,0.00463772,0.00550096,-0.00743671,0.399696,0.00749739,0.0219242,1091,442,3.70113,55.4689
-126,582,3.72595,-55.9508,0.00411331,-0.00468462,0.00474026,0.00618125,-0.00675257,0.411362,0.00746978,0.0218767,1098,442,3.72596,55.9508
-119,582,3.75513,-56.5176,0,0,0,0,0,0,0,-1,1105,442,3.75514,56.5176
-112,582,3.47888,-53.7394,0,0,0,0,0,0,0,-1,1112,442,3.47883,53.7394
-105,582,2.87219,-43.073,0,0,0,0,0,0,0,-1,1119,442,2.87217,43.073
-98,582,2.61938,-32.8673,0,0,0,0,0,0,0,-1,1126,442,2.61944,32.8673
-91,582,2.16492,-24.1119,0,0,0,0,0,0,0,-1,1133,442,2.16496,24.1119
-84,582,2.10278,-16.7533,0,0,0,0,0,0,0,-1,1140,442,2.10279,16.7533
-77,582,2.30212,-11.4907,0,0,0,0,0,0,0,-1,1147,442,2.30207,11.4907
-70,582,1.49255,-6.36548,0,0,0,0,0,0,0,-1,1154,442,1.49251,6.36549
-63,582,-4.62915,-4.0347,0,0,0,0,0,0,0,-1,1161,442,-4.6292,4.03471
-56,582,-5.81714,-5.24149,0,0,0,0,0,0,0,-1,1168,442,-5.81718,5.24149
-49,582,-3.88672,-10.1064,0,0,0,0,0,0,0,-1,1175,442,-3.88678,10.1064
-42,582,-0.948975,1.13968,0,0,0,0,0,0,0,-1,1182,442,-0.949003,-1.13969
-35,582,-2.58435,-3.86911,0,0,0,0,0,0,0,-1,1189,442,-2.58437,3.86912
-28,582,-0.825317,-3.45941,0,0,0,0,0,0,0,-1,1196,442,-0.825377,3.45942
-21,582,13.1615,-74.4987,0,0,0,0,0,0,0,-1,1203,442,13.1615,74.4986
-14,582,12.3857,-73.1992,0,0,0,0,0,0,0,-1,1210,442,12.3858,73.1992
-7,582,11.6064,-71.89,0,0,0,0,0,0,0,-1,1217,442,11.6064,71.89
0,582,12.6638,-71.4258,0,0,0,0,0,0,0,-1,1224,442,12.6638,71.4258
7,582,11.6967,-70.6431,0,0,0,0,0,0,0,-1,1231,442,11.6967,70.643
14,582,2.0863,-58.6307,0,0,0,0,0,0,0,-1,1238,442,2.08625,58.6307
21,582,1.75256,-60.3447,0,0,0,0,0,0,0,-1,1245,442,1.75253,60.3447
28,582,7.77271,-62.3316,0,0,0,0,0,0,0,-1,1252,442,7.77274,62.3316
35,582,7.71423,-62.705,0,0,0,0,0,0,0,-1,1259,442,7.71426,62.7051
42,582,7.297,-63.2072,0,0,0,0,0,0,0,-1,1266,442,7.29704,63.2072
49,582,6.92078,-64.0069,0,0,0,0,0,0,0,-1,1273,442,6.92083,64.0069
56,582,3.90137,-64.326,0.00574728,0.0630966,0.0184068,0.068496,0.000347815,1.28546,0.0455485,0.0450193,1280,442,3.90141,64.326
63,582,3.90881,-64.3369,0.00533616,0.0690746,0.0240472,0.0771293,-0.00271851,1.24759,0.0523492,0.0437876,1287,442,3.90883,64.3369
70,582,3.854,-64.4315,0.00418744,0.0729106,0.0296213,0.0839158,-0.00681769,1.21507,0.0583493,0.0433332,1294,442,3.854,64.4314
77,582,4.46631,-65.2288,0.00317882,0.0774853,0.0346761,0.0911533,-0.0104891,1.19533,0.0645499,0.0419477,1301,442,4.46627,65.2288
84,582,4.35535,-64.906,0.00232474,0.0787152,0.0384954,0.0947488,-0.0137089,1.17614,0.0681964,0.0435886,1308,442,4.35536,64.906
91,582,4.10913,-64.5009,0.00128066,0.0767834,0.0413074,0.0949915,-0.0169275,1.15562,0.0696592,0.0461271,1315,442,4.10911,64.5009
98,582,4.20215,-63.8958,8.52832e-05,0.0739859,0.0434752,0.0940919,-0.0200207,1.13762,0.0703575,0.0459254,1322,442,4.2021,63.8958
105,582,4.22144,-63.941,-0.000613429,0.070531,0.0446175,0.0920211,-0.0221035,1.12194,0.0698902,0.045452,1329,442,4.22145,63.941
112,582,2.44873,-62.8485,-0.0012129,0.0641909,0.044916,0.0870486,-0.0240705,1.10006,0.0675019,0.0408293,1336,442,2.44873,62.8486
119,582,2.62292,-63.2002,0,0,0,0,0,0,0,-1,1343,442,2.62288,63.2002
126,582,2.19934,-63.1167,0,0,0,0,0,0,0,-1,1350,442,2.19936,63.1167
133,582,2.5249,-62.5316,0,0,0,0,0,0,0,-1,1357,442,2.5249,62.5316
140,582,2.88208,-62.2182,0.00284216,0.0390828,0.0420198,0.0667228,-0.0247979,0.988967,0.0546563,0.044193,1364,442,2.8821,62.2182
147,582,2.89258,-61.5295,0.00407627,0.0376313,0.040071,0.0642953,-0.0225878,0.983657,0.0520529,0.0486959,1371,442,2.89261,61.5295
154,582,3.01221,-60.8615,0,0,0,0,0,0,0,-1,1378,442,3.01218,60.8615
161,582,-8.04797,-54.6503,0,0,0,0,0,0,0,-1,1385,442,-8.04802,54.6503
168,582,0.081665,-40.4535,0,0,0,0,0,0,0,-1,1392,442,0.0816215,40.4535
175,582,6.50549,-2.00424,0,0,0,0,0,0,0,-1,1399,442,6.50546,2.00425
182,582,5.18958,-2.18652,0,0,0,0,0,0,0,-1,1406,442,5.1896,2.18652
189,582,6.19751,-0.880951,0,0,0,0,0,0,0,-1,1413,442,6.19754,0.88096
196,582,4.87354,-2.22327,0,0,0,0,0,0,0,-1,1420,442,4.87348,2.22325
203,582,3.11401,-4.48257,0,0,0,0,0,0,0,-1,1427,442,3.11404,4.48259
210,582,2.93115,-11.0731,0,0,0,0,0,0,0,-1,1434,442,2.93113,11.0731
217,582,4.94092,-16.5476,0,0,0,0,0,0,0,-1,1441,442,4.94087,16.5476
224,582,5.21008,-20.9908,0,0,0,0,0,0,0,-1,1448,442,5.21006,20.9908
231,582,5.70032,-25.622,0,0,0,0,0,0,0,-1,1455,442,5.70026,25.6221
238,582,6.44189,-30.7028,0,0,0,0,0,0,0,-1,1462,442,6.44195,30.7028
245,582,10.0378,-45.1569,0,0,0,0,0,0,0,-1,1469,442,10.0379,45.1568
252,582,11.6284,-56.0234,0,0,0,0,0,0,0,-1,1476,442,11.6285,56.0234
259,582,11.6057,-55.4383,0.00479611,-0.00649176,-0.00447849,0.0063571,-0.00805275,-0.335384,0.00833871,0.0407542,1483,442,11.6057,55.4383
266,582,11.6367,-54.7127,0.00399467,-0.00661907,-0.00442307,0.00559624,-0.00822064,-0.347407,0.008025,0.0146501,1490,442,11.6367,54.7127
273,582,11.666,-54.0779,0.00323201,-0.0066912,-0.00437669,0.00488652,-0.0083457,-0.361422,0.00772615,0.011388,1497,442,11.6661,54.0779
280,582,11.6694,-53.4527,0.00259375,-0.00645096,-0.00412697,0.00419378,-0.00805098,-0.369859,0.00718548,0.0121322,1504,442,11.6694,53.4527
287,582,11.6841,-52.7891,0.0020784,-0.00609497,-0.00391824,0.00365331,-0.00766987,-0.38218,0.00667313,0.0119351,1511,442,11.6841,52.7891
294,582,11.6758,-52.0865,0.0017225,-0.00577684,-0.00353601,0.0031268,-0.00718114,-0.37804,0.00610281,0.00903205,1518,442,11.6757,52.0865
301,582,11.6594,-51.3746,0.0014481,-0.00517243,-0.00307868,0.00265846,-0.0063828,-0.374583,0.00536557,0.00968597,1525,442,11.6594,51.3746
308,582,11.6538,-50.6751,0.00127259,-0.00431683,-0.00251106,0.00223499,-0.00527922,-0.365994,0.00445542,0.0128647,1532,442,11.6538,50.6752
315,582,11.6349,-49.9544,0.00118539,-0.00334529,-0.00184563,0.00184205,-0.00400195,-0.341828,0.00345,0.014161,1539,442,11.6348,49.9544
322,582,11.6052,-49.2258,0.00112577,-0.00213008,-0.00108957,0.00145675,-0.00246106,-0.294912,0.00228659,0.0110347,1546,442,11.6052,49.2258
329,582,11.5723,-48.5054,0.00114174,-0.000845431,-0.000263079,0.00117598,-0.00087967,-0.129419,0.00119093,0.0108617,1553,442,11.5723,48.5054
336,582,11.5532,-47.7818,0.00118555,0.000676104,0.000614431,0.00159597,0.000265689,0.588897,0.000987403,0.0117317,1560,442,11.5532,47.7818
343,582,11.5276,-47.0285,0.00122001,0.00234313,0.00159669,0.00347413,8.90093e-05,0.954493,0.00228699,0.0141445,1567,442,11.5276,47.0285
350,582,11.4785,-46.2717,0.00130407,0.00437204,0.00262635,0.00587957,-0.000203462,1.04971,0.00398927,0.0173469,1574,442,11.4785,46.2717
357,582,11.4645,-45.4827,0.00135319,0.00632946,0.0036329,0.00824459,-0.000561947,1.08565,0.00569296,0.0143146,1581,442,11.4645,45.4827
364,582,11.4232,-44.7148,0.00132651,0.00821473,0.00459635,0.0105142,-0.000972926,1.10693,0.00735524,0.010709,1588,442,11.4233,44.7148
371,582,11.3807,-43.9366,0.00128665,0.010194,0.00556911,0.0128713,-0.00139061,1.12268,0.00907995,0.0150423,1595,442,11.3808,43.9366
378,582,11.3234,-43.1447,0.00114117,0.0121324,0.00640655,0.0150775,-0.00180393,1.1399,0.0107038,0.0164256,1602,442,11.3233,43.1447
385,582,11.2606,-42.3387,0.000856468,0.0137348,0.00693864,0.0167617,-0.0021705,1.15944,0.0119638,0.0121329,1609,442,11.2606,42.3387
392,582,11.1956,-41.5279,0.000631489,0.0149768,0.00737561,0.0180923,-0.00248403,1.17112,0.0129691,0.0111157,1616,442,11.1955,41.5279
399,582,11.126,-40.724,0.000665787,0.015843,0.0080131,0.0192905,-0.00278177,1.1645,0.0138808,0.0185566,1623,442,11.126,40.724
406,582,11.0675,-39.7224,0.000447143,0.0166459,0.00824256,0.0201025,-0.00300942,1.17372,0.0145092,0.0331374,1630,442,11.0675,39.7223
413,582,11.0148,-38.6891,0,0,0,0,0,0,0,-1,1637,442,11.0148,38.6891
420,582,10.8604,-38.0497,0,0,0,0,0,0,0,-1,1644,442,10.8603,38.0497
427,582,10.6781,-37.1093,0,0,0,0,0,0,0,-1,1651,442,10.6781,37.1093
434,582,10.5083,-36.2274,0,0,0,0,0,0,0,-1,1658,442,10.5083,36.2274
441,582,10.8033,-35.5397,0,0,0,0,0,0,0,-1,1665,442,10.8033,35.5397
448,582,11.2651,-32.8669,0,0,0,0,0,0,0,-1,1672,442,11.2651,32.8668
455,582,6.4585,-19.4734,0,0,0,0,0,0,0,-1,1679,442,6.45854,19.4734
462,582,5.35022,-19.2616,0,0,0,0,0,0,0,-1,1686,442,5.35025,19.2616
469,582,6.28601,-21.5695,0,0,0,0,0,0,0,-1,1693,442,6.28597,21.5695
476,582,1.93579,-8.53891,0,0,0,0,0,0,0,-1,1700,442,1.93579,8.53892
483,582,0,0,0,0,0,0,0,0,0,-1,1707,442,0,0
490,582,0,0,0,0,0,0,0,0,0,-1,1714,442,0,0
497,582,0,0,0,0,0,0,0,0,0,-1,1721,442,0,0
504,582,0,0,0,0,0,0,0,0,0,-1,1728,442,0,0
511,582,0,0,0,0,0,0,0,0,0,-1,1735,442,0,0
518,582,0,0,0,0,0,0,0,0,0,-1,1742,442,0,0
525,582,0,0,0,0,0,0,0,0,0,-1,1749,442,0,0
532,582,0,0,0,0,0,0,0,0,0,-1,1756,442,0,0
539,582,0,0,0,0,0,0,0,0,0,-1,1763,442,0,0
546,582,0,0,0,0,0,0,0,0,0,-1,1770,442,0,0
553,582,0,0,0,0,0,0,0,0,0,-1,1777,442,0,0
560,582,0,0,0,0,0,0,0,0,0,-1,1784,442,0,0
567,582,0,0,0,0,0,0,0,0,0,-1,1791,442,0,0
574,582,0,0,0,0,0,0,0,0,0,-1,1798,442,0,0
581,582,0,0,0,0,0,0,0,0,0,-1,1805,442,0,0
588,582,0,0,0,0,0,0,0,0,0,-1,1812,442,0,0
595,582,0,0,0,0,0,0,0,0,0,-1,1819,442,0,0
602,582,0,0,0,0,0,0,0,0,0,-1,1826,442,0,0
609,582,0,0,0,0,0,0,0,0,0,-1,1833,442,0,0
616,582,0,0,0,0,0,0,0,0,0,-1,1840,442,0,0
623,582,0,0,0,0,0,0,0,0,0,-1,1847,442,0,0
630,582,0,0,0,0,0,0,0,0,0,-1,1854,442,0,0
637,582,0,0,0,0,0,0,0,0,0,-1,1861,442,0,0
644,582,0,0,0,0,0,0,0,0,0,-1,1868,442,0,0
651,582,0,0,0,0,0,0,0,0,0,-1,1875,442,0,0
658,582,0,0,0,0,0,0,0,0,0,-1,1882,442,0,0
665,582,0,0,0,0,0,0,0,0,0,-1,1889,442,0,0
672,582,0,0,0,0,0,0,0,0,0,-1,1896,442,0,0
679,582,0,0,0,0,0,0,0,0,0,-1,1903,442,0,0
686,582,0,0,0,0,0,0,0,0,0,-1,1910,442,0,0
693,582,0,0,0,0,0,0,0,0,0,-1,1917,442,0,0
700,582,0,0,0,0,0,0,0,0,0,-1,1924,442,0,0
707,582,0,0,0,0,0,0,0,0,0,-1,1931,442,0,0
714,582,0,0,0,0,0,0,0,0,0,-1,1938,442,0,0
721,582,0,0,0,0,0,0,0,0,0,-1,1945,442,0,0
728,582,0,0,0,0,0,0,0,0,0,-1,1952,442,0,0
735,582,0,0,0,0,0,0,0,0,0,-1,1959,442,0,0
742,582,0,0,0,0,0,0,0,0,0,-1,1966,442,0,0
749,582,0,0,0,0,0,0,0,0,0,-1,1973,442,0,0
756,582,0,0,0,0,0,0,0,0,0,-1,1980,442,0,0
763,582,0,0,0,0,0,0,0,0,0,-1,1987,442,0,0
770,582,0,0,0,0,0,0,0,0,0,-1,1994,442,0,0
777,582,0,0,0,0,0,0,0,0,0,-1,2001,442,0,0
784,582,0,0,0,0,0,0,0,0,0,-1,2008,442,0,0
791,582,0,0,0,0,0,0,0,0,0,-1,2015,442,0,0
798,582,0,0,0,0,0,0,0,0,0,-1,2022,442,0,0
805,582,0,0,0,0,0,0,0,0,0,-1,2029,442,0,0
812,582,0,0,0,0,0,0,0,0,0,-1,2036,442,0,0
-700,575,0,0,0,0,0,0,0,0,0,-1,524,449,0,0
-693,575,0,0,0,0,0,0,0,0,0,-1,531,449,0,0
-686,575,0,0,0,0,0,0,0,0,0,-1,538,449,0,0
-679,575,0,0,0,0,0,0,0,0,0,-1,545,449,0,0
-672,575,0,0,0,0,0,0,0,0,0,-1,552,449,0,0
-665,575,0,0,0,0,0,0,0,0,0,-1,559,449,0,0
-658,575,0,0,0,0,0,0,0,0,0,-1,566,449,0,0
-651,575,0,0,0,0,0,0,0,0,0,-1,573,449,0,0
-644,575,0,0,0,0,0,0,0,0,0,-1,580,449,0,0
-637,575,0,0,0,0,0,0,0,0,0,-1,587,449,0,0
-630,575,0,0,0,0,0,0,0,0,0,-1,594,449,0,0
-623,575,0,0,0,0,0,0,0,0,0,-1,601,449,0,0
-616,575,0,0,0,0,0,0,0,0,0,-1,608,449,0,0
-609,575,0,0,0,0,0,0,0,0,0,-1,615,449,0,0
-602,575,0,0,0,0,0,0,0,0,0,-1,622,449,0,0
-595,575,0,0,0,0,0,0,0,0,0,-1,629,449,0,0
-588,575,0,0,0,0,0,0,0,0,0,-1,636,449,0,0
-581,575,0,0,0,0,0,0,0,0,0,-1,643,449,0,0
-574,575,0,0,0,0,0,0,0,0,0,-1,650,449,0,0
-567,575,0,0,0,0,0,0,0,0,0,-1,657,449,0,0
-560,575,0,0,0,0,0,0,0,0,0,-1,664,449,0,0
-553,575,0,0,0,0,0,0,0,0,0,-1,671,449,0,0
-546,575,0,0,0,0,0,0,0,0,0,-1,678,449,0,0
-539,575,0,0,0,0,0,0,0,0,0,-1,685,449,0,0
-532,575,0,0,0,0,0,0,0,0,0,-1,692,449,0,0
-525,575,0,0,0,0,0,0,0,0,0,-1,699,449,0,0
-518,575,0,0,0,0,0,0,0,0,0,-1,706,449,0,0
-511,575,0,0,0,0,0,0,0,0,0,-1,713,449,0,0
-504,575,0,0,0,0,0,0,0,0,0,-1,720,449,0,0
-497,575,0,0,0,0,0,0,0,0,0,-1,727,449,0,0
-490,575,0,0,0,0,0,0,0,0,0,-1,734,449,0,0
-483,575,0,0,0,0,0,0,0,0,0,-1,741,449,0,0
-476,575,0,0,0,0,0,0,0,0,0,-1,748,449,0,0
-469,575,0,0,0,0,0,0,0,0,0,-1,755,449,0,0
-462,575,0,0,0,0,0,0,0,0,0,-1,762,449,0,0
-455,575,0,0,0,0,0,0,0,0,0,-1,769,449,0,0
-448,575,0,0,0,0,0,0,0,0,0,-1,776,449,0,0
-441,575,0,0,0,0,0,0,0,0,0,-1,783,449,0,0
-434,575,0,0,0,0,0,0,0,0,0,-1,790,449,0,0
-427,575,0,0,0,0,0,0,0,0,0,-1,797,449,0,0
-420,575,0,0,0,0,0,0,0,0,0,-1,804,449,0,0
-413,575,0,0,0,0,0,0,0,0,0,-1,811,449,0,0
-406,575,0,0,0,0,0,0,0,0,0,-1,818,449,0,0
-399,575,0,0,0,0,0,0,0,0,0,-1,825,449,0,0
-392,575,0,0,0,0,0,0,0,0,0,-1,832,449,0,0
-385,575,0,0,0,0,0,0,0,0,0,-1,839,449,0,0
-378,575,0,0,0,0,0,0,0,0,0,-1,846,449,0,0
-371,575,0.56897,-3.52304,0,0,0,0,0,0,0,-1,853,449,0.568955,3.52306
-364,575,1.49805,-4.67191,0,0,0,0,0,0,0,-1,860,449,1.49803,4.6719
-357,575,3.15521,-8.29892,0,0,0,0,0,0,0,-1,867,449,3.15521,8.29891
-350,575,-0.825928,-18.5347,0,0,0,0,0,0,0,-1,874,449,-0.825948,18.5347
-343,575,0.465393,-16.3569,0,0,0,0,0,0,0,-1,881,449,0.465397,16.3569
-336,575,3.1994,-17.5725,0,0,0,0,0,0,0,-1,888,449,3.19941,17.5725
-329,575,2.81946,-29.1576,0,0,0,0,0,0,0,-1,895,449,2.81945,29.1576
-322,575,4.28943,-27.9487,0,0,0,0,0,0,0,-1,902,449,4.28944,27.9487
-315,575,4.83057,-34.2006,0,0,0,0,0,0,0,-1,909,449,4.83059,34.2006
-308,575,3.51917,-37.0147,0,0,0,0,0,0,0,-1,916,449,3.51919,37.0147
-301,575,3.70508,-37.7717,-0.00119094,0.0157944,-0.00847105,0.0192969,-0.00469345,-1.17873,0.0146813,0.0444644,923,449,3.70506,37.7717
-294,575,3.62061,-38.4728,-0.000657986,0.013616,-0.00770039,0.0169781,-0.00402018,-1.15912,0.0128699,0.0265616,930,449,3.62062,38.4728
-287,575,3.52686,-39.368,-0.000373498,0.0118988,-0.0070029,0.0150735,-0.00354826,-1.14516,0.0114171,0.0176884,937,449,3.52683,39.368
-280,575,3.47491,-40.2599,2.73195e-07,0.0106743,-0.00649165,0.0137411,-0.0030666,-1.12944,0.0103357,0.0142018,944,449,3.47491,40.2599
-273,575,3.41815,-41.104,0.000282377,0.00962156,-0.00599868,0.0125539,-0.00264996,-1.11612,0.00937822,0.0135208,951,449,3.41817,41.104
-266,575,3.37646,-41.9171,0.000422254,0.00841486,-0.0053988,0.0111355,-0.00229839,-1.104,0.00829661,0.0147965,958,449,3.37646,41.917
-259,575,3.29675,-42.7231,0.000579098,0.00688882,-0.00474088,0.00942861,-0.0019607,-1.07898,0.00703103,0.0136334,965,449,3.29672,42.7231
-252,575,3.21228,-43.5297,0.000685907,0.00542349,-0.00395222,0.00766244,-0.00155304,-1.05537,0.00569698,0.0121905,972,449,3.21228,43.5297
-245,575,3.17572,-44.2898,0.000799684,0.0040328,-0.00319441,0.0059964,-0.00116392,-1.01964,0.00443676,0.0162906,979,449,3.1757,44.2898
-238,575,3.13147,-45.0399,0.000941788,0.00232788,-0.00233398,0.00406954,-0.000799868,-0.929721,0.00301522,0.0162682,986,449,3.13145,45.0399
-231,575,3.09491,-45.81,0.00112964,0.0004306,-0.00139858,0.00222171,-0.000661477,-0.662952,0.00174396,0.0132468,993,449,3.09489,45.81
-224,575,3.04486,-46.5784,0.00127693,-0.00135837,-0.000515327,0.00137412,-0.00145556,-0.186403,0.00163394,0.012511,1000,449,3.04485,46.5784
-217,575,3.03986,-47.3238,0.0014602,-0.00335938,0.000312355,0.00148036,-0.00337954,0.0644501,0.0028764,0.0107964,1007,449,3.03988,47.3238
-210,575,3.04736,-48.081,0.00170988,-0.00533881,0.00108417,0.00187286,-0.0055018,0.149218,0.00442626,0.00951789,1014,449,3.04736,48.081
-203,575,3.01587,-48.8204,0.00201961,-0.00702773,0.00179776,0.00236375,-0.00737186,0.189137,0.00586352,0.0133044,1021,449,3.01584,48.8204
-196,575,2.97974,-49.552,0.00216063,-0.0083981,0.0024826,0.00271522,-0.00895268,0.219781,0.00705002,0.0183461,1028,449,2.97973,49.552
-189,575,2.95947,-50.2579,0.00239605,-0.0096094,0.00305317,0.0031279,-0.0103413,0.235264,0.00813966,0.0194962,1035,449,2.95951,50.2579
-182,575,2.93445,-50.916,0.00264161,-0.0104358,0.00356361,0.00354965,-0.0113438,0.2495,0.00898265,0.0172826,1042,449,2.93449,50.916
-175,575,2.95776,-51.5949,0.00286668,-0.0108672,0.00404416,0.00396906,-0.0119696,0.26612,0.00958085,0.0137771,1049,449,2.95775,51.5949
-168,575,2.94812,-52.2818,0.00297606,-0.0108824,0.0044248,0.00426833,-0.0121747,0.284149,0.00985241,0.0112097,1056,449,2.94813,52.2818
-161,575,2.9292,-52.919,0.00301186,-0.0107126,0.00480242,0.0045254,-0.0122261,0.305308,0.0100063,0.0144458,1063,449,2.9292,52.919
-154,575,2.93738,-53.5559,0.00315438,-0.0101596,0.00518805,0.00493725,-0.0119425,0.331007,0.0100214,0.0161908,1070,449,2.93739,53.5559
-147,575,2.96826,-54.1543,0.00347007,-0.00939715,0.00542728,0.00545351,-0.0113806,0.350378,0.00991795,0.0152903,1077,449,2.96828,54.1543
-140,575,2.82959,-54.7116,0,0,0,0,0,0,0,-1,1084,449,2.82958,54.7116
-133,575,2.54626,-55.2148,0,0,0,0,0,0,0,-1,1091,449,2.54623,55.2148
-126,575,2.97937,-55.5451,0,0,0,0,0,0,0,-1,1098,449,2.97933,55.5451
-119,575,3.00208,-52.3971,0,0,0,0,0,0,0,-1,1105,449,3.00204,52.3971
-112,575,2.70337,-43.3701,0,0,0,0,0,0,0,-1,1112,449,2.70333,43.3701
-105,575,2.18347,-36.5414,0,0,0,0,0,0,0,-1,1119,449,2.18351,36.5414
-98,575,1.521,-25.6961,0,0,0,0,0,0,0,-1,1126,449,1.52105,25.6961
-91,575,1.60803,-16.4247,0,0,0,0,0,0,0,-1,1133,449,1.60802,16.4247
-84,575,1.16553,-11.9056,0,0,0,0,0,0,0,-1,1140,449,1.16558,11.9056
-77,575,0.205078,-11.2584,0,0,0,0,0,0,0,-1,1147,449,0.205117,11.2584
-70,575,-4.2467,-1.78738,0,0,0,0,0,0,0,-1,1154,449,-4.24674,1.78739
-63,575,-4.52209,-3.48798,0,0,0,0,0,0,0,-1,1161,449,-4.5221,3.48796
-56,575,-5.5968,-5.4928,0,0,0,0,0,0,0,-1,1168,449,-5.59683,5.49281
-49,575,-5.96863,-7.17612,0,0,0,0,0,0,0,-1,1175,449,-5.96868,7.1761
-42,575,-0.830322,0.773499,0,0,0,0,0,0,0,-1,1182,449,-0.83038,-0.77351
-35,575,-0.62085,0.205139,0,0,0,0,0,0,0,-1,1189,449,-0.620855,-0.205126
-28,575,0.49292,-3.87988,0,0,0,0,0,0,0,-1,1196,449,0.492941,3.87989
-21,575,13.4017,-73.5942,0,0,0,0,0,0,0,-1,1203,449,13.4018,73.5942
-14,575,12.9225,-72.7917,0,0,0,0,0,0,0,-1,1210,449,12.9225,72.7917
-7,575,12.2201,-71.7712,0,0,0,0,0,0,0,-1,1217,449,12.2201,71.7712
0,575,12.1516,-70.7345,0,0,0,0,0,0,0,-1,1224,449,12.1516,70.7345
7,575,0.855591,-60.1631,0,0,0,0,0,0,0,-1,1231,449,0.855571,60.1631
14,575,1.27429,-60.6416,0,0,0,0,0,0,0,-1,1238,449,1.27429,60.6416
21,575,1.61292,-61.2081,0,0,0,0,0,0,0,-1,1245,449,1.61295,61.2081
28,575,1.41504,-61.5732,0,0,0,0,0,0,0,-1,1252,449,1.41506,61.5732
35,575,8.08215,-62.4886,0,0,0,0,0,0,0,-1,1259,449,8.08216,62.4886
42,575,3.3446,-64.3171,0.00516466,0.074747,0.00561634,0.0751974,0.00471425,1.49077,0.0486364,0.0430973,1266,449,3.34462,64.3172
49,575,3.22717,-64.5207,0.00657435,0.0760257,0.0125719,0.0782313,0.00436865,1.39712,0.0507607,0.0434924,1273,449,3.22711,64.5207
56,575,3.02258,-64.4297,0.00788556,0.0804509,0.0186246,0.0849519,0.00338456,1.33367,0.0555408,0.0463925,1280,449,3.02262,64.4297
63,575,2.96973,-64.3438,0.00751043,0.0873935,0.0247589,0.0944448,0.000459123,1.29334,0.0628107,0.0461529,1287,449,2.9697,64.3437
70,575,2.90283,-64.3782,0.00579315,0.0912474,0.0311577,0.101401,-0.00436083,1.25576,0.0691004,0.0432495,1294,449,2.90289,64.3782
77,575,4.06018,-65.9349,0.0043398,0.0961974,0.0370104,0.109254,-0.00871634,1.23166,0.0759082,0.0438744,1301,449,4.06021,65.935
84,575,3.74719,-66.1128,0.0030187,0.0974631,0.0416234,0.113189,-0.012707,1.20956,0.0800319,0.044459,1308,449,3.74717,66.1128
91,575,2.11548,-64.3893,0.00142321,0.0957209,0.0451423,0.113847,-0.0167031,1.18897,0.0820346,0.041655,1315,449,2.11543,64.3893
98,575,3.46875,-63.9605,-0.000285994,0.0931488,0.0479075,0.113347,-0.0204838,1.17181,0.0832368,0.0450053,1322,449,3.46871,63.9605
105,575,2.47522,-63.467,-0.0014407,0.0897502,0.0496748,0.111583,-0.0232732,1.1567,0.0832379,0.044505,1329,449,2.47525,63.4671
112,575,2.25476,-63.3841,-0.00264335,0.0827894,0.050694,0.106365,-0.0262185,1.1355,0.0810748,0.0449756,1336,449,2.25471,63.3841
119,575,2.10291,-63.5203,-0.00204668,0.0743131,0.0508807,0.0997457,-0.0274793,1.10727,0.0773025,0.0410358,1343,449,2.10288,63.5203
126,575,2.28186,-62.9849,0,0,0,0,0,0,0,-1,1350,449,2.28181,62.9849
133,575,2.40417,-62.257,-0.000124574,0.0595021,0.0507113,0.0885145,-0.029137,1.05114,0.070751,0.0479934,1357,449,2.40414,62.257
140,575,2.41919,-61.5429,0.00237942,0.0550774,0.0488017,0.084189,-0.0267322,1.03293,0.066843,0.0468948,1364,449,2.41921,61.5429
147,575,2.48877,-60.8693,0.003965,0.0546382,0.0469501,0.0826519,-0.0240487,1.03283,0.0646266,0.0484112,1371,449,2.48879,60.8693
154,575,2.63013,-60.1744,0,0,0,0,0,0,0,-1,1378,449,2.63009,60.1744
161,575,-10.5699,-54.3822,0,0,0,0,0,0,0,-1,1385,449,-10.5699,54.3822
168,575,7.5509,-35.3165,0,0,0,0,0,0,0,-1,1392,449,7.5509,35.3165
175,575,4.32617,1.93634,0,0,0,0,0,0,0,-1,1399,449,4.32612,-1.93634
182,575,6.3147,-2.88345,0,0,0,0,0,0,0,-1,1406,449,6.31466,2.88346
189,575,6.10449,-1.30817,0,0,0,0,0,0,0,-1,1413,449,6.10455,1.30817
196,575,5.79895,0.818359,0,0,0,0,0,0,0,-1,1420,449,5.79895,-0.81837
203,575,3.29724,-1.46378,0,0,0,0,0,0,0,-1,1427,449,3.29722,1.46377
210,575,2.32739,-7.74503,0,0,0,0,0,0,0,-1,1434,449,2.32741,7.74502
217,575,3.33618,-11.5521,0,0,0,0,0,0,0,-1,1441,449,3.3362,11.5521
224,575,5.51709,-16.3903,0,0,0,0,0,0,0,-1,1448,449,5.51713,16.3903
231,575,5.48572,-20.4595,0,0,0,0,0,0,0,-1,1455,449,5.48571,20.4595
238,575,5.33484,-22.3575,0,0,0,0,0,0,0,-1,1462,449,5.33478,22.3575
245,575,5.59741,-23.513,0,0,0,0,0,0,0,-1,1469,449,5.5974,23.513
252,575,10.5602,-44.9309,0,0,0,0,0,0,0,-1,1476,449,10.5602,44.9309
259,575,12.3177,-55.6422,0,0,0,0,0,0,0,-1,1483,449,12.3177,55.6422
266,575,12.3308,-54.6052,0.0046078,-0.00882913,-0.00620634,0.00703572,-0.0112571,-0.372898,0.0106547,0.0393484,1490,449,12.3308,54.6052
273,575,12.3741,-54.0237,0.00369947,-0.00934115,-0.00630017,0.00624594,-0.0118876,-0.384114,0.010637,0.0207226,1497,449,12.3742,54.0237
280,575,12.3683,-53.351,0.00292044,-0.00942589,-0.00614828,0.00545987,-0.0119653,-0.39169,0.0102915,0.0156435,1504,449,12.3683,53.351
287,575,12.3491,-52.7338,0.00224125,-0.00936926,-0.00611947,0.00487098,-0.011999,-0.405871,0.0100255,0.0137897,1511,449,12.3491,52.7338
294,575,12.3652,-52.0532,0.00180554,-0.00948485,-0.00583272,0.00427754,-0.0119569,-0.400867,0.00971618,0.0118744,1518,449,12.3652,52.0532
301,575,12.3799,-51.3605,0.0014589,-0.00912569,-0.00546057,0.00377096,-0.0114378,-0.400523,0.00914509,0.0106698,1525,449,12.3799,51.3605
308,575,12.381,-50.6419,0.00118725,-0.00848396,-0.00496381,0.00328147,-0.0105782,-0.39924,0.00836336,0.0111661,1532,449,12.381,50.6419
315,575,12.3511,-49.9236,0.00100125,-0.00771609,-0.00435842,0.00280649,-0.00952133,-0.392684,0.00746112,0.0123177,1539,449,12.3511,49.9236
322,575,12.335,-49.2085,0.000890662,-0.00659056,-0.00359101,0.00233537,-0.00803526,-0.382498,0.00628171,0.0110888,1546,449,12.3349,49.2085
329,575,12.3142,-48.496,0.000867698,-0.00532339,-0.00273659,0.0019039,-0.00635959,-0.361964,0.00499676,0.0112965,1553,449,12.3142,48.496
336,575,12.2927,-47.7586,0.000878979,-0.0038038,-0.00184378,0.00151779,-0.00444262,-0.333527,0.00357668,0.0133018,1560,449,12.2927,47.7586
343,575,12.2819,-46.9677,0.000904343,-0.00214938,-0.000797923,0.00110027,-0.00234531,-0.240778,0.00203213,0.0139145,1567,449,12.2818,46.9677
350,575,12.2426,-46.1974,0.00100544,-5.91816e-05,0.000290145,0.00107938,-0.000133121,0.249524,0.000767818,0.0133006,1574,449,12.2425,46.1974
357,575,12.2013,-45.4473,0.00108953,0.00199187,0.00134472,0.00295909,0.00012231,0.947253,0.00193324,0.0112726,1581,449,12.2013,45.4473
364,575,12.162,-44.689,0.00109212,0.00394814,0.00238432,0.00529937,-0.000259112,1.05521,0.00362237,0.0102739,1588,449,12.162,44.689
371,575,12.1565,-43.91,0.00105249,0.00588105,0.00337789,0.00761874,-0.000685207,1.09567,0.00532228,0.0202286,1595,449,12.1565,43.91
378,575,12.1069,-43.1097,0.000937106,0.0077876,0.00424728,0.0098187,-0.00109399,1.12473,0.00693927,0.0192441,1602,449,12.1069,43.1097
385,575,12.0219,-42.2938,0.00071073,0.00933904,0.00481747,0.0114917,-0.00144195,1.15057,0.00818425,0.0122463,1609,449,12.0218,42.2938
392,575,11.9758,-41.5119,0.000542925,0.0105433,0.00532369,0.0128468,-0.00176056,1.16243,0.00920765,0.0104247,1616,449,11.9759,41.5119
399,575,11.9132,-40.7303,0.000555027,0.0114374,0.00593326,0.0140467,-0.00205425,1.15648,0.010119,0.0110388,1623,449,11.9132,40.7303
406,575,11.8589,-39.8477,0.000354404,0.012161,0.00618207,0.0148056,-0.00229022,1.16657,0.0107157,0.0121612,1630,449,11.8589,39.8477
413,575,11.7957,-38.9818,-0.000147968,0.0122673,0.00615837,0.0148039,-0.00268448,1.18009,0.0108751,0.0141432,1637,449,11.7957,38.9818
420,575,11.7191,-38.1166,-0.00104257,0.0118402,0.00599626,0.0141992,-0.00340156,1.19598,0.0107804,0.0143771,1644,449,11.7191,38.1166
427,575,11.6158,-37.2077,-0.00210501,0.0110181,0.00602972,0.0133678,-0.00445477,1.1992,0.0107102,0.0184737,1651,449,11.6158,37.2077
434,575,11.4906,-36.4714,-0.00308085,0.0103482,0.00591931,0.0125848,-0.00531748,1.20953,0.010616,0.0313121,1658,449,11.4905,36.4714
441,575,11.4604,-35.8746,0,0,0,0,0,0,0,-1,1665,449,11.4604,35.8746
448,575,11.9926,-34.5784,0,0,0,0,0,0,0,-1,1672,449,11.9925,34.5784
455,575,11.7931,-31.6917,0,0,0,0,0,0,0,-1,1679,449,11.793,31.6917
462,575,7.12781,-21.7179,0,0,0,0,0,0,0,-1,1686,449,7.12778,21.7178
469,575,11.0999,-32.0874,0,0,0,0,0,0,0,-1,1693,449,11.0998,32.0874
476,575,10.3063,-31.0265,0,0,0,0,0,0,0,-1,1700,449,10.3063,31.0265
483,575,8.44177,-29.4231,0,0,0,0,0,0,0,-1,1707,449,8.44173,29.4231
490,575,7.42871,-25.5027,0,0,0,0,0,0,0,-1,1714,449,7.42869,25.5027
497,575,0,0,0,0,0,0,0,0,0,-1,1721,449,0,0
504,575,0,0,0,0,0,0,0,0,0,-1,1728,449,0,0
511,575,0,0,0,0,0,0,0,0,0,-1,1735,449,0,0
518,575,0,0,0,0,0,0,0,0,0,-1,1742,449,0,0
525,575,0,0,0,0,0,0,0,0,0,-1,1749,449,0,0
532,575,0,0,0,0,0,0,0,0,0,-1,1756,449,0,0
539,575,0,0,0,0,0,0,0,0,0,-1,1763,449,0,0
546,575,0,0,0,0,0,0,0,0,0,-1,1770,449,0,0
553,575,0,0,0,0,0,0,0,0,0,-1,1777,449,0,0
560,575,0,0,0,0,0,0,0,0,0,-1,1784,449,0,0
567,575,0,0,0,0,0,0,0,0,0,-1,1791,449,0,0
574,575,0,0,0,0,0,0,0,0,0,-1,1798,449,0,0
581,575,0,0,0,0,0,0,0,0,0,-1,1805,449,0,0
588,575,0,0,0,0,0,0,0,0,0,-1,1812,449,0,0
595,575,0,0,0,0,0,0,0,0,0,-1,1819,449,0,0
602,575,0,0,0,0,0,0,0,0,0,-1,1826,449,0,0
609,575,0,0,0,0,0,0,0,0,0,-1,1833,449,0,0
616,575,0,0,0,0,0,0,0,0,0,-1,1840,449,0,0
623,575,0,0,0,0,0,0,0,0,0,-1,1847,449,0,0
630,575,0,0,0,0,0,0,0,0,0,-1,1854,449,0,0
637,575,0,0,0,0,0,0,0,0,0,-1,1861,449,0,0
644,575,0,0,0,0,0,0,0,0,0,-1,1868,449,0,0
651,575,0,0,0,0,0,0,0,0,0,-1,1875,449,0,0
658,575,0,0,0,0,0,0,0,0,0,-1,1882,449,0,0
665,575,0,0,0,0,0,0,0,0,0,-1,1889,449,0,0
672,575,0,0,0,0,0,0,0,0,0,-1,1896,449,0,0
679,575,0,0,0,0,0,0,0,0,0,-1,1903,449,0,0
686,575,0,0,0,0,0,0,0,0,0,-1,1910,449,0,0
693,575,0,0,0,0,0,0,0,0,0,-1,1917,449,0,0
700,575,0,0,0,0,0,0,0,0,0,-1,1924,449,0,0
707,575,0,0,0,0,0,0,0,0,0,-1,1931,449,0,0
714,575,0,0,0,0,0,0,0,0,0,-1,1938,449,0,0
721,575,0,0,0,0,0,0,0,0,0,-1,1945,449,0,0
728,575,0,0,0,0,0,0,0,0,0,-1,1952,449,0,0
735,575,0,0,0,0,0,0,0,0,0,-1,1959,449,0,0
742,575,0,0,0,0,0,0,0,0,0,-1,1966,449,0,0
749,575,0,0,0,0,0,0,0,0,0,-1,1973,449,0,0
756,575,0,0,0,0,0,0,0,0,0,-1,1980,449,0,0
763,575,0,0,0,0,0,0,0,0,0,-1,1987,449,0,0
770,575,0,0,0,0,0,0,0,0,0,-1,1994,449,0,0
777,575,0,0,0,0,0,0,0,0,0,-1,2001,449,0,0
784,575,0,0,0,0,0,0,0,0,0,-1,2008,449,0,0
791,575,0,0,0,0,0,0,0,0,0,-1,2015,449,0,0
798,575,0,0,0,0,0,0,0,0,0,-1,2022,449,0,0
805,575,0,0,0,0,0,0,0,0,0,-1,2029,449,0,0
812,575,0,0,0,0,0,0,0,0,0,-1,2036,449,0,0
-700,568,0,0,0,0,0,0,0,0,0,-1,524,456,0,0
-693,568,0,0,0,0,0,0,0,0,0,-1,531,456,0,0
-686,568,0,0,0,0,0,0,0,0,0,-1,538,456,0,0
-679,568,0,0,0,0,0,0,0,0,0,-1,545,456,0,0
-672,568,0,0,0,0,0,0,0,0,0,-1,552,456,0,0
-665,568,0,0,0,0,0,0,0,0,0,-1,559,456,0,0
-658,568,0,0,0,0,0,0,0,0,0,-1,566,456,0,0
-651,568,0,0,0,0,0,0,0,0,0,-1,573,456,0,0
-644,568,0,0,0,0,0,0,0,0,0,-1,580,456,0,0
-637,568,0,0,0,0,0,0,0,0,0,-1,587,456,0,0
-630,568,0,0,0,0,0,0,0,0,0,-1,594,456,0,0
-623,568,0,0,0,0,0,0,0,0,0,-1,601,456,0,0
-616,568,0,0,0,0,0,0,0,0,0,-1,608,456,0,0
-609,568,0,0,0,0,0,0,0,0,0,-1,615,456,0,0
-602,568,0,0,0,0,0,0,0,0,0,-1,622,456,0,0
-595,568,0,0,0,0,0,0,0,0,0,-1,629,456,0,0
-588,568,0,0,0,0,0,0,0,0,0,-1,636,456,0,0
-581,568,0,0,0,0,0,0,0,0,0,-1,643,456,0,0
-574,568,0,0,0,0,0,0,0,0,0,-1,650,456,0,0
-567,568,0,0,0,0,0,0,0,0,0,-1,657,456,0,0
-560,568,0,0,0,0,0,0,0,0,0,-1,664,456,0,0
-553,568,0,0,0,0,0,0,0,0,0,-1,671,456,0,0
-546,568,0,0,0,0,0,0,0,0,0,-1,678,456,0,0
-539,568,0,0,0,0,0,0,0,0,0,-1,685,456,0,0
-532,568,0,0,0,0,0,0,0,0,0,-1,692,456,0,0
-525,568,0,0,0,0,0,0,0,0,0,-1,699,456,0,0
-518,568,0,0,0,0,0,0,0,0,0,-1,706,456,0,0
-511,568,0,0,0,0,0,0,0,0,0,-1,713,456,0,0
-504,568,0,0,0,0,0,0,0,0,0,-1,720,456,0,0
-497,568,0,0,0,0,0,0,0,0,0,-1,727,456,0,0
-490,568,0,0,0,0,0,0,0,0,0,-1,734,456,0,0
-483,568,0,0,0,0,0,0,0,0,0,-1,741,456,0,0
-476,568,0,0,0,0,0,0,0,0,0,-1,748,456,0,0
-469,568,0,0,0,0,0,0,0,0,0,-1,755,456,0,0
-462,568,0,0,0,0,0,0,0,0,0,-1,762,456,0,0
-455,568,0,0,0,0,0,0,0,0,0,-1,769,456,0,0
-448,568,0,0,0,0,0,0,0,0,0,-1,776,456,0,0
-441,568,0,0,0,0,0,0,0,0,0,-1,783,456,0,0
-434,568,0,0,0,0,0,0,0,0,0,-1,790,456,0,0
-427,568,0,0,0,0,0,0,0,0,0,-1,797,456,0,0
-420,568,0,0,0,0,0,0,0,0,0,-1,804,456,0,0
-413,568,0,0,0,0,0,0,0,0,0,-1,811,456,0,0
-406,568,0,0,0,0,0,0,0,0,0,-1,818,456,0,0
-399,568,0,0,0,0,0,0,0,0,0,-1,825,456,0,0
-392,568,0,0,0,0,0,0,0,0,0,-1,832,456,0,0
-385,568,0,0,0,0,0,0,0,0,0,-1,839,456,0,0
-378,568,0.321777,-7.29929,0,0,0,0,0,0,0,-1,846,456,0.321806,7.29927
-371,568,1.09595,-7.46707,0,0,0,0,0,0,0,-1,853,456,1.09597,7.46707
-364,568,2.70746,-23.4782,0,0,0,0,0,0,0,-1,860,456,2.70746,23.4782
-357,568,2.14166,-7.67645,0,0,0,0,0,0,0,-1,867,456,2.14167,7.67646
-350,568,2.7467,-11.2507,0,0,0,0,0,0,0,-1,874,456,2.7467,11.2507
-343,568,2.16516,-11.3762,0,0,0,0,0,0,0,-1,881,456,2.16514,11.3762
-336,568,1.14984,-29.3232,0,0,0,0,0,0,0,-1,888,456,1.14984,29.3231
-329,568,2.80359,-32.459,0,0,0,0,0,0,0,-1,895,456,2.80357,32.4591
-322,568,3.73706,-34.123,0,0,0,0,0,0,0,-1,902,456,3.73708,34.123
-315,568,3.55109,-35.0179,0,0,0,0,0,0,0,-1,909,456,3.5511,35.0179
-308,568,2.8103,-36.9024,0,0,0,0,0,0,0,-1,916,456,2.81031,36.9024
-301,568,2.89233,-37.7552,-0.00124164,0.0128577,-0.00679178,0.0155971,-0.00398105,-1.18741,0.0119482,0.0275017,923,456,2.89233,37.7552
-294,568,2.82813,-38.5602,-0.000771275,0.010828,-0.00601572,0.0133845,-0.00332775,-1.16895,0.0102145,0.0149665,930,456,2.8281,38.5601
-287,568,2.76599,-39.4142,-0.000485726,0.00924598,-0.00533057,0.0115976,-0.00283732,-1.15532,0.00883076,0.0120198,937,456,2.76599,39.4142
-280,568,2.69775,-40.2751,-0.000115792,0.00800797,-0.00483229,0.0102588,-0.00236659,-1.1349,0.00774944,0.011818,944,456,2.69775,40.2751
-273,568,2.6402,-41.1118,0.000190998,0.00682171,-0.00432128,0.00895291,-0.00194021,-1.11261,0.00670951,0.0135273,951,456,2.64021,41.1118
-266,568,2.60004,-41.9037,0.000411987,0.00547133,-0.00371154,0.00743329,-0.00154998,-1.08452,0.00554487,0.0131126,958,456,2.60004,41.9037
-259,568,2.52716,-42.6912,0.000624657,0.00376535,-0.00303747,0.00561439,-0.00122438,-1.02397,0.00421082,0.0134613,965,456,2.52716,42.6912
-252,568,2.45056,-43.4798,0.000765236,0.00209493,-0.00221285,0.00374065,-0.000880482,-0.931332,0.00283324,0.0141012,972,456,2.45059,43.4798
-245,568,2.40387,-44.2214,0.000944893,0.000398698,-0.00142385,0.0021216,-0.000778005,-0.690647,0.00173296,0.0170969,979,456,2.40386,44.2214
-238,568,2.37543,-44.999,0.00115724,-0.00155218,-0.000531117,0.00125764,-0.00165257,-0.186818,0.00168536,0.0150488,986,456,2.37541,44.999
-231,568,2.32758,-45.7785,0.00141163,-0.00372996,0.000440879,0.00144916,-0.00376749,0.0849214,0.0031094,0.0121163,993,456,2.32756,45.7785
-224,568,2.27563,-46.5364,0.00160994,-0.00582724,0.00137482,0.00185595,-0.00607325,0.177065,0.0047889,0.012879,1000,456,2.27563,46.5365
-217,568,2.28949,-47.2696,0.0018377,-0.00805344,0.00226239,0.00233061,-0.00854635,0.214519,0.00661278,0.011772,1007,456,2.28948,47.2696
-210,568,2.30402,-48.0131,0.00212373,-0.010242,0.00307795,0.0028475,-0.0109658,0.230951,0.0084217,0.0124525,1014,456,2.304,48.0131
-203,568,2.28162,-48.7608,0.00246589,-0.0120592,0.00380934,0.0034043,-0.0129976,0.241535,0.00999498,0.0115165,1021,456,2.28164,48.7608
-196,568,2.3009,-49.476,0.00261211,-0.0134489,0.00449583,0.00378494,-0.0146217,0.255185,0.0112242,0.0166905,1028,456,2.30089,49.476
-189,568,2.26001,-50.1491,0.00287492,-0.0146426,0.00506143,0.00423219,-0.0159998,0.261995,0.012322,0.0169478,1035,456,2.26004,50.1491
-182,568,2.25085,-50.8479,0.00312537,-0.015378,0.00554213,0.00465835,-0.016911,0.269857,0.0131057,0.0164187,1042,456,2.25088,50.8479
-175,568,2.27258,-51.5223,0.00336319,-0.0155603,0.00597025,0.00508932,-0.0172864,0.281447,0.0135433,0.016232,1049,456,2.2726,51.5223
-168,568,2.25513,-52.0927,0.00347921,-0.0152335,0.00625736,0.00537878,-0.0171331,0.294732,0.013575,0.0213628,1056,456,2.2551,52.0927
-161,568,2.21252,-52.7147,0.00344498,-0.0147423,0.00655605,0.00556188,-0.0168592,0.312325,0.0134814,0.0301765,1063,456,2.21255,52.7147
-154,568,2.22705,-53.5757,0.00352125,-0.0137433,0.00686451,0.00591793,-0.01614,0.335908,0.0131831,0.0359094,1070,456,2.22708,53.5757
-147,568,2.229,-54.1843,0.00379413,-0.0125259,0.00698475,0.00637528,-0.0151071,0.353976,0.0127398,0.041585,1077,456,2.22898,54.1843
-140,568,1.69421,-54.5859,0,0,0,0,0,0,0,-1,1084,456,1.69425,54.5859
-133,568,1.34546,-55.1201,0,0,0,0,0,0,0,-1,1091,456,1.34547,55.1201
-126,568,1.07898,-55.3358,0,0,0,0,0,0,0,-1,1098,456,1.079,55.3357
-119,568,1.89978,-50.8443,0,0,0,0,0,0,0,-1,1105,456,1.89978,50.8443
-112,568,1.98242,-35.0942,0,0,0,0,0,0,0,-1,1112,456,1.98247,35.0942
-105,568,2.02454,-25.038,0,0,0,0,0,0,0,-1,1119,456,2.02459,25.038
-98,568,1.58618,-14.7874,0,0,0,0,0,0,0,-1,1126,456,1.58617,14.7874
-91,568,1.11621,-11.1853,0,0,0,0,0,0,0,-1,1133,456,1.11626,11.1853
-84,568,0.461792,-9.7959,0,0,0,0,0,0,0,-1,1140,456,0.461793,9.7959
-77,568,-1.13806,-8.57822,0,0,0,0,0,0,0,-1,1147,456,-1.13807,8.57821
-70,568,-4.09766,-1.42911,0,0,0,0,0,0,0,-1,1154,456,-4.09767,1.4291
-63,568,-5.92273,-3.70752,0,0,0,0,0,0,0,-1,1161,456,-5.92272,3.70751
-56,568,-5.24158,-6.01385,0,0,0,0,0,0,0,-1,1168,456,-5.24161,6.01386
-49,568,-5.24365,-8.33557,0,0,0,0,0,0,0,-1,1175,456,-5.24371,8.33557
-42,568,-0.664795,0.521973,0,0,0,0,0,0,0,-1,1182,456,-0.664829,-0.521984
-35,568,-0.153076,-1.67731,0,0,0,0,0,0,0,-1,1189,456,-0.153068,1.67731
-28,568,1.25439,-4.48798,0,0,0,0,0,0,0,-1,1196,456,1.2544,4.48797
-21,568,13.8694,-73.3303,0,0,0,0,0,0,0,-1,1203,456,13.8693,73.3302
-14,568,13.6119,-72.5482,0,0,0,0,0,0,0,-1,1210,456,13.6119,72.5482
-7,568,13.0646,-71.5406,0,0,0,0,0,0,0,-1,1217,456,13.0645,71.5407
0,568,12.1121,-69.9474,0,0,0,0,0,0,0,-1,1224,456,12.1121,69.9474
7,568,11.1014,-68.7214,0,0,0,0,0,0,0,-1,1231,456,11.1015,68.7214
14,568,0.46228,-62.6524,0,0,0,0,0,0,0,-1,1238,456,0.462339,62.6524
21,568,1.44434,-61.9376,0,0,0,0,0,0,0,-1,1245,456,1.4443,61.9376
28,568,1.30151,-62.3994,0.00253992,0.106373,-0.00956864,0.107248,0.0016655,-1.47967,0.0709499,0.0431659,1252,456,1.3015,62.3993
35,568,1.22546,-62.8837,0.00467358,0.0986803,-0.00349509,0.09881,0.00454382,-1.53369,0.0644122,0.0437953,1259,456,1.22546,62.8837
42,568,2.0874,-64.2875,0.00668903,0.095386,0.00365753,0.0955365,0.00653846,1.52965,0.0616273,0.0422687,1266,456,2.08742,64.2875
49,568,2.19641,-64.6988,0.00890871,0.0960605,0.0114285,0.0975342,0.00743498,1.44255,0.0626916,0.0446485,1273,456,2.19645,64.6988
56,568,2.12744,-64.5045,0,0,0,0,0,0,0,-1,1280,456,2.12746,64.5044
63,568,2.04382,-64.3789,0,0,0,0,0,0,0,-1,1287,456,2.04378,64.3789
70,568,1.72522,-64.712,0.008088,0.112063,0.0308128,0.120508,-0.000357352,1.30328,0.0804583,0.0438966,1294,456,1.72519,64.712
77,568,3.42859,-66.3593,0.00617578,0.117209,0.0372459,0.128545,-0.00516083,1.27533,0.0874679,0.0460891,1301,456,3.42858,66.3593
84,568,3.09485,-66.4651,0,0,0,0,0,0,0,-1,1308,456,3.09485,66.4651
91,568,2.38733,-65.7076,0.00208016,0.117287,0.0469093,0.133971,-0.014604,1.22908,0.0945586,0.0411306,1315,456,2.38728,65.7076
98,568,2.28796,-65.0645,-0.000270977,0.115561,0.0503832,0.134409,-0.019119,1.21282,0.096612,0.0425497,1322,456,2.28793,65.0645
105,568,2.28906,-64.4473,-0.00201195,0.11277,0.0530272,0.133517,-0.0227594,1.19785,0.0974876,0.0477021,1329,456,2.28908,64.4473
112,568,2.02319,-64.0015,-0.00414308,0.105509,0.0551929,0.128478,-0.0271127,1.17643,0.0959748,0.0463776,1336,456,2.02314,64.0015
119,568,1.71545,-63.3145,-0.0036504,0.0959286,0.0562839,0.121285,-0.0290066,1.14752,0.0920614,0.0446372,1343,456,1.71547,63.3144
126,568,1.67957,-62.6832,0,0,0,0,0,0,0,-1,1350,456,1.67951,62.6832
133,568,2.43152,-61.9455,-0.00104365,0.0793105,0.0570879,0.108942,-0.030675,1.09203,0.0847246,0.0489612,1357,456,2.43152,61.9455
140,568,3.19592,-61.435,0.00178051,0.0746124,0.0552443,0.104363,-0.0279704,1.0768,0.0805347,0.04914,1364,456,3.19591,61.435
147,568,2.11145,-60.2296,0,0,0,0,0,0,0,-1,1371,456,2.11149,60.2296
154,568,4.48779,-60.4576,0,0,0,0,0,0,0,-1,1378,456,4.48781,60.4577
161,568,4.04431,-60.2704,0,0,0,0,0,0,0,-1,1385,456,4.04434,60.2704
168,568,-11.53,-55.4321,0,0,0,0,0,0,0,-1,1392,456,-11.53,55.4321
175,568,10.5151,0.747498,0,0,0,0,0,0,0,-1,1399,456,10.5152,-0.747501
182,568,6.35095,-3.63361,0,0,0,0,0,0,0,-1,1406,456,6.35093,3.63359
189,568,6.17493,-1.70911,0,0,0,0,0,0,0,-1,1413,456,6.17497,1.70911
196,568,6.04724,0.200836,0,0,0,0,0,0,0,-1,1420,456,6.04724,-0.200835
203,568,5.9281,2.08649,0,0,0,0,0,0,0,-1,1427,456,5.92812,-2.08648
210,568,1.46216,-2.50446,0,0,0,0,0,0,0,-1,1434,456,1.46219,2.50446
217,568,2.62366,-7.86703,0,0,0,0,0,0,0,-1,1441,456,2.62365,7.86704
224,568,3.43494,-12.1555,0,0,0,0,0,0,0,-1,1448,456,3.43492,12.1555
231,568,4.38245,-9.3205,0,0,0,0,0,0,0,-1,1455,456,4.38244,9.32048
238,568,5.88879,-20.7448,0,0,0,0,0,0,0,-1,1462,456,5.88876,20.7449
245,568,3.34387,-10.6774,0,0,0,0,0,0,0,-1,1469,456,3.34389,10.6774
252,568,3.56946,-9.28928,0,0,0,0,0,0,0,-1,1476,456,3.56948,9.28928
259,568,3.38843,-8.73068,0,0,0,0,0,0,0,-1,1483,456,3.38842,8.73068
266,568,13.0398,-54.4594,0,0,0,0,0,0,0,-1,1490,456,13.0397,54.4594
273,568,13.0518,-53.979,0,0,0,0,0,0,0,-1,1497,456,13.0517,53.979
280,568,13.0803,-53.2233,0.00259541,-0.0127177,-0.00859984,0.00645319,-0.0165755,-0.421679,0.0137171,0.0381908,1504,456,13.0804,53.2233
287,568,13.0599,-52.4436,0.00183368,-0.0129061,-0.00870876,0.00587247,-0.0169448,-0.434239,0.0136808,0.0249804,1511,456,13.0599,52.4436
294,568,13.1193,-51.8557,0.00144616,-0.0135692,-0.00844703,0.0052397,-0.0173628,-0.422103,0.0136609,0.022536,1518,456,13.1193,51.8557
301,568,13.1174,-51.2668,0.00115063,-0.0134577,-0.00810112,0.00475421,-0.0170613,-0.418542,0.0132464,0.0193559,1525,456,13.1174,51.2668
308,568,13.0956,-50.5874,0.000884988,-0.0129931,-0.00761531,0.00424853,-0.0163566,-0.415915,0.0125624,0.0138662,1532,456,13.0956,50.5874
315,568,13.0712,-49.9008,0.000693484,-0.0123788,-0.00700502,0.00373814,-0.0154234,-0.410006,0.0117286,0.00931531,1539,456,13.0711,49.9008
322,568,13.0657,-49.1921,0.000613837,-0.0112997,-0.00617325,0.00323566,-0.0139215,-0.401622,0.0105266,0.0109198,1546,456,13.0657,49.1921
329,568,13.0614,-48.4578,0.00061499,-0.0100018,-0.00525287,0.00277464,-0.0121615,-0.39007,0.00917347,0.010879,1553,456,13.0613,48.4578
336,568,13.0557,-47.7061,0.000639003,-0.0084297,-0.00431392,0.00236327,-0.010154,-0.380245,0.00767925,0.011674,1560,456,13.0557,47.7061
343,568,13.0669,-46.929,0.000691756,-0.00673485,-0.003173,0.00186277,-0.00790586,-0.353549,0.00598886,0.0126479,1567,456,13.0669,46.929
350,568,13.0267,-46.1841,0.000833728,-0.00452449,-0.00200427,0.00150047,-0.00519123,-0.321146,0.00405461,0.0116043,1574,456,13.0267,46.1841
357,568,12.967,-45.4216,0.000964914,-0.00229402,-0.000870607,0.00118291,-0.00251201,-0.245351,0.00217878,0.0101492,1581,456,12.967,45.4216
364,568,12.9475,-44.6535,0.000983219,-0.000182392,0.000260964,0.00103898,-0.000238151,0.2105,0.000784184,0.0118814,1588,456,12.9475,44.6535
371,568,12.913,-43.8561,0.000969343,0.00184881,0.00132884,0.00280879,9.36724e-06,0.945184,0.00186941,0.0217272,1595,456,12.913,43.8561
378,568,12.8694,-43.0574,0.000906888,0.00386651,0.0022856,0.00510953,-0.000336133,1.07269,0.00352375,0.0193495,1602,456,12.8693,43.0574
385,568,12.7874,-42.2544,0.000747838,0.00550778,0.00295178,0.00691954,-0.000663926,1.12468,0.00484951,0.0102805,1609,456,12.7874,42.2544
392,568,12.7198,-41.4807,0.000636638,0.00679884,0.0035768,0.00843861,-0.00100314,1.14094,0.00598819,0.011495,1616,456,12.7198,41.4807
399,568,12.6398,-40.735,0.000626426,0.00787356,0.0042115,0.0098058,-0.00130581,1.14065,0.00701311,0.0187769,1623,456,12.6398,40.735
406,568,12.6572,-39.8745,0.000439899,0.00862826,0.00453312,0.0106424,-0.00157423,1.15268,0.00767369,0.0165316,1630,456,12.6573,39.8745
413,568,12.62,-38.9765,4.33285e-06,0.00883789,0.00462339,0.0108151,-0.00197292,1.16667,0.00794977,0.0129142,1637,456,12.6199,38.9765
420,568,12.5623,-38.1338,-0.000762207,0.00861294,0.00459633,0.0104904,-0.00263966,1.18301,0.00801962,0.0117448,1644,456,12.5622,38.1338
427,568,12.4846,-37.2682,-0.00171742,0.0079983,0.00467711,0.00988389,-0.00360301,1.18757,0.00806321,0.0147636,1651,456,12.4846,37.2682
434,568,12.4441,-36.4037,-0.00255308,0.00748865,0.00468919,0.00933783,-0.00440226,1.19517,0.00810165,0.0219967,1658,456,12.4441,36.4037
441,568,12.4348,-35.6112,-0.00377824,0.00643779,0.00453968,0.00816355,-0.00550401,1.20752,0.00794061,0.0302089,1665,456,12.4348,35.6112
448,568,12.5536,-34.5599,-0.0054203,0.0049243,0.00435545,0.00651386,-0.00700985,1.22086,0.00780967,0.0424164,1672,456,12.5536,34.5599
455,568,12.5023,-33.5118,0,0,0,0,0,0,0,-1,1679,456,12.5024,33.5118
462,568,12.0808,-32.9117,0,0,0,0,0,0,0,-1,1686,456,12.0808,32.9116
469,568,11.9452,-32.1478,0,0,0,0,0,0,0,-1,1693,456,11.9452,32.1478
476,568,11.7758,-31.3065,0,0,0,0,0,0,0,-1,1700,456,11.7758,31.3065
483,568,10.9017,-29.747,0,0,0,0,0,0,0,-1,1707,456,10.9018,29.747
490,568,9.21021,-25.4427,0,0,0,0,0,0,0,-1,1714,456,9.21025,25.4427
497,568,9.19275,-22.8114,0,0,0,0,0,0,0,-1,1721,456,9.19273,22.8114
504,568,0,0,0,0,0,0,0,0,0,-1,1728,456,0,0
511,568,0,0,0,0,0,0,0,0,0,-1,1735,456,0,0
518,568,0,0,0,0,0,0,0,0,0,-1,1742,456,0,0
525,568,0,0,0,0,0,0,0,0,0,-1,1749,456,0,0
532,568,0,0,0,0,0,0,0,0,0,-1,1756,456,0,0
539,568,0,0,0,0,0,0,0,0,0,-1,1763,456,0,0
546,568,0,0,0,0,0,0,0,0,0,-1,1770,456,0,0
553,568,0,0,0,0,0,0,0,0,0,-1,1777,456,0,0
560,568,0,0,0,0,0,0,0,0,0,-1,1784,456,0,0
567,568,0,0,0,0,0,0,0,0,0,-1,1791,456,0,0
574,568,0,0,0,0,0,0,0,0,0,-1,1798,456,0,0
581,568,0,0,0,0,0,0,0,0,0,-1,1805,456,0,0
588,568,0,0,0,0,0,0,0,0,0,-1,1812,456,0,0
595,568,0,0,0,0,0,0,0,0,0,-1,1819,456,0,0
602,568,0,0,0,0,0,0,0,0,0,-1,1826,456,0,0
609,568,0,0,0,0,0,0,0,0,0,-1,1833,456,0,0
616,568,0,0,0,0,0,0,0,0,0,-1,1840,456,0,0
623,568,0,0,0,0,0,0,0,0,0,-1,1847,456,0,0
630,568,0,0,0,0,0,0,0,0,0,-1,1854,456,0,0
637,568,0,0,0,0,0,0,0,0,0,-1,1861,456,0,0
644,568,0,0,0,0,0,0,0,0,0,-1,1868,456,0,0
651,568,0,0,0,0,0,0,0,0,0,-1,1875,456,0,0
658,568,0,0,0,0,0,0,0,0,0,-1,1882,456,0,0
665,568,0,0,0,0,0,0,0,0,0,-1,1889,456,0,0
672,568,0,0,0,0,0,0,0,0,0,-1,1896,456,0,0
679,568,0,0,0,0,0,0,0,0,0,-1,1903,456,0,0
686,568,0,0,0,0,0,0,0,0,0,-1,1910,456,0,0
693,568,0,0,0,0,0,0,0,0,0,-1,1917,456,0,0
700,568,0,0,0,0,0,0,0,0,0,-1,1924,456,0,0
707,568,0,0,0,0,0,0,0,0,0,-1,1931,456,0,0
714,568,0,0,0,0,0,0,0,0,0,-1,1938,456,0,0
721,568,0,0,0,0,0,0,0,0,0,-1,1945,456,0,0
728,568,0,0,0,0,0,0,0,0,0,-1,1952,456,0,0
735,568,0,0,0,0,0,0,0,0,0,-1,1959,456,0,0
742,568,0,0,0,0,0,0,0,0,0,-1,1966,456,0,0
749,568,0,0,0,0,0,0,0,0,0,-1,1973,456,0,0
756,568,0,0,0,0,0,0,0,0,0,-1,1980,456,0,0
763,568,0,0,0,0,0,0,0,0,0,-1,1987,456,0,0
770,568,0,0,0,0,0,0,0,0,0,-1,1994,456,0,0
777,568,0,0,0,0,0,0,0,0,0,-1,2001,456,0,0
784,568,0,0,0,0,0,0,0,0,0,-1,2008,456,0,0
791,568,0,0,0,0,0,0,0,0,0,-1,2015,456,0,0
798,568,0,0,0,0,0,0,0,0,0,-1,2022,456,0,0
805,568,0,0,0,0,0,0,0,0,0,-1,2029,456,0,0
812,568,0,0,0,0,0,0,0,0,0,-1,2036,456,0,0
-700,561,0,0,0,0,0,0,0,0,0,-1,524,463,0,0
-693,561,0,0,0,0,0,0,0,0,0,-1,531,463,0,0
-686,561,0,0,0,0,0,0,0,0,0,-1,538,463,0,0
-679,561,0,0,0,0,0,0,0,0,0,-1,545,463,0,0
-672,561,0,0,0,0,0,0,0,0,0,-1,552,463,0,0
-665,561,0,0,0,0,0,0,0,0,0,-1,559,463,0,0
-658,561,0,0,0,0,0,0,0,0,0,-1,566,463,0,0
-651,561,0,0,0,0,0,0,0,0,0,-1,573,463,0,0
-644,561,0,0,0,0,0,0,0,0,0,-1,580,463,0,0
-637,561,0,0,0,0,0,0,0,0,0,-1,587,463,0,0
-630,561,0,0,0,0,0,0,0,0,0,-1,594,463,0,0
-623,561,0,0,0,0,0,0,0,0,0,-1,601,463,0,0
-616,561,0,0,0,0,0,0,0,0,0,-1,608,463,0,0
-609,561,0,0,0,0,0,0,0,0,0,-1,615,463,0,0
-602,561,0,0,0,0,0,0,0,0,0,-1,622,463,0,0
-595,561,0,0,0,0,0,0,0,0,0,-1,629,463,0,0
-588,561,0,0,0,0,0,0,0,0,0,-1,636,463,0,0
-581,561,0,0,0,0,0,0,0,0,0,-1,643,463,0,0
-574,561,0,0,0,0,0,0,0,0,0,-1,650,463,0,0
-567,561,0,0,0,0,0,0,0,0,0,-1,657,463,0,0
-560,561,0,0,0,0,0,0,0,0,0,-1,664,463,0,0
-553,561,0,0,0,0,0,0,0,0,0,-1,671,463,0,0
-546,561,0,0,0,0,0,0,0,0,0,-1,678,463,0,0
-539,561,0,0,0,0,0,0,0,0,0,-1,685,463,0,0
-532,561,0,0,0,0,0,0,0,0,0,-1,692,463,0,0
-525,561,0,0,0,0,0,0,0,0,0,-1,699,463,0,0
-518,561,0,0,0,0,0,0,0,0,0,-1,706,463,0,0
-511,561,0,0,0,0,0,0,0,0,0,-1,713,463,0,0
-504,561,0,0,0,0,0,0,0,0,0,-1,720,463,0,0
-497,561,0,0,0,0,0,0,0,0,0,-1,727,463,0,0
-490,561,0,0,0,0,0,0,0,0,0,-1,734,463,0,0
-483,561,0,0,0,0,0,0,0,0,0,-1,741,463,0,0
-476,561,0,0,0,0,0,0,0,0,0,-1,748,463,0,0
-469,561,0,0,0,0,0,0,0,0,0,-1,755,463,0,0
-462,561,0,0,0,0,0,0,0,0,0,-1,762,463,0,0
-455,561,0,0,0,0,0,0,0,0,0,-1,769,463,0,0
-448,561,0,0,0,0,0,0,0,0,0,-1,776,463,0,0
-441,561,0,0,0,0,0,0,0,0,0,-1,783,463,0,0
-434,561,0,0,0,0,0,0,0,0,0,-1,790,463,0,0
-427,561,0,0,0,0,0,0,0,0,0,-1,797,463,0,0
-420,561,0,0,0,0,0,0,0,0,0,-1,804,463,0,0
-413,561,0,0,0,0,0,0,0,0,0,-1,811,463,0,0
-406,561,0,0,0,0,0,0,0,0,0,-1,818,463,0,0
-399,561,0,0,0,0,0,0,0,0,0,-1,825,463,0,0
-392,561,4.92407,-2.54578,0,0,0,0,0,0,0,-1,832,463,4.92408,2.54576
-385,561,5.55634,-1.02338,0,0,0,0,0,0,0,-1,839,463,5.55634,1.02338
-378,561,0.160522,-4.51785,0,0,0,0,0,0,0,-1,846,463,0.160542,4.51785
-371,561,2.62524,-27.795,0,0,0,0,0,0,0,-1,853,463,2.62525,27.7949
-364,561,2.13281,-27.3029,0,0,0,0,0,0,0,-1,860,463,2.13283,27.3029
-357,561,2.16742,-23.5582,0,0,0,0,0,0,0,-1,867,463,2.1674,23.5582
-350,561,1.33124,-11.9406,0,0,0,0,0,0,0,-1,874,463,1.33127,11.9406
-343,561,1.13214,-14.1837,0,0,0,0,0,0,0,-1,881,463,1.13217,14.1837
-336,561,2.53345,-33.2546,0,0,0,0,0,0,0,-1,888,463,2.53346,33.2546
-329,561,2.25659,-34.3505,0,0,0,0,0,0,0,-1,895,463,2.25658,34.3505
-322,561,2.52771,-34.7531,0,0,0,0,0,0,0,-1,902,463,2.52774,34.7531
-315,561,2.31976,-35.6407,-0.00169353,0.0185626,-0.007294,0.0209157,-0.00404665,-1.25873,0.0154701,0.0375779,909,463,2.31979,35.6407
-308,561,2.16278,-36.656,-0.00142395,0.0137388,-0.00669852,0.0162741,-0.00395926,-1.20897,0.012382,0.0320107,916,463,2.16281,36.656
-301,561,2.08966,-37.7357,-0.00113521,0.0102047,-0.00531822,0.0123086,-0.00323905,-1.1941,0.00947183,0.0187235,923,463,2.08964,37.7357
-294,561,2.03662,-38.5857,-0.000700742,0.00835201,-0.004542,0.010238,-0.00258668,-1.17724,0.00783124,0.0125661,930,463,2.03663,38.5857
-287,561,1.96741,-39.3958,-0.000404064,0.00689878,-0.00386303,0.00856299,-0.00206827,-1.16402,0.00650856,0.0106925,937,463,1.96743,39.3958
-280,561,1.87646,-40.2181,-5.07163e-05,0.00561402,-0.00335466,0.0071721,-0.0016088,-1.13599,0.00539818,0.0129118,944,463,1.87645,40.2181
-273,561,1.80945,-41.0244,0.000260344,0.00427306,-0.00280518,0.00571554,-0.00118214,-1.09584,0.00425944,0.0160224,951,463,1.80945,41.0244
-266,561,1.79779,-41.8175,0.000539155,0.0027493,-0.00216087,0.00407127,-0.000782812,-1.02176,0.00300925,0.0105578,958,463,1.79781,41.8175
-259,561,1.75702,-42.6329,0.000780193,0.000826365,-0.00144169,0.00224515,-0.000638595,-0.793404,0.00174894,0.0108253,965,463,1.75699,42.6329
-252,561,1.70129,-43.4158,0.00092381,-0.00110242,-0.000552487,0.00106466,-0.00124327,-0.249627,0.00133382,0.0157832,972,463,1.70128,43.4158
-245,561,1.64996,-44.1913,0.00113878,-0.00318667,0.000297761,0.00115918,-0.00320707,0.0684094,0.00261165,0.0182997,979,463,1.64998,44.1913
-238,561,1.62177,-44.983,0.00138541,-0.00546725,0.00125607,0.00160839,-0.00569023,0.175691,0.00442808,0.0139243,986,463,1.62176,44.983
-231,561,1.56409,-45.7567,0.00167744,-0.00799844,0.00229723,0.00219515,-0.00851614,0.221658,0.00653325,0.0113635,993,463,1.56409,45.7567
-224,561,1.52795,-46.4956,0.00191681,-0.0104674,0.00329883,0.00274072,-0.0112913,0.24475,0.00858816,0.0112133,1000,463,1.52798,46.4956
-217,561,1.5484,-47.2241,0.002177,-0.0130011,0.00427079,0.00329618,-0.0141202,0.256293,0.0106831,0.0122991,1007,463,1.54841,47.2241
-210,561,1.55933,-47.9703,0.00248007,-0.0154871,0.00516256,0.00385781,-0.0168648,0.260792,0.0127256,0.0134788,1014,463,1.5593,47.9703
-203,561,1.53455,-48.6859,0.00283021,-0.0175421,0.00594858,0.00443996,-0.0191518,0.264281,0.0144766,0.0147282,1021,463,1.53456,48.6859
-196,561,1.45947,-49.3389,0.00295595,-0.0190644,0.00667066,0.00481907,-0.0209275,0.27236,0.0158048,0.0178531,1028,463,1.4595,49.3389
-189,561,1.52637,-50.007,0.00320674,-0.0203622,0.00727198,0.00526985,-0.0224253,0.276443,0.0169816,0.0238657,1035,463,1.52632,50.007
-182,561,1.65173,-50.653,0.00339734,-0.0211081,0.00776971,0.00565315,-0.0233639,0.282566,0.0177627,0.0270618,1042,463,1.65177,50.653
-175,561,1.56592,-51.3167,0.00357114,-0.0210583,0.00819247,0.00604726,-0.0235344,0.293514,0.0180463,0.0419999,1049,463,1.56591,51.3167
-168,561,1.42065,-51.9857,0,0,0,0,0,0,0,-1,1056,463,1.42061,51.9857
-161,561,1.51172,-52.5188,0,0,0,0,0,0,0,-1,1063,463,1.5117,52.5188
-154,561,1.53638,-53.7269,0,0,0,0,0,0,0,-1,1070,463,1.53634,53.7269
-147,561,1.44019,-54.2554,0,0,0,0,0,0,0,-1,1077,463,1.44014,54.2553
-140,561,0.55896,-54.4603,0,0,0,0,0,0,0,-1,1084,463,0.558918,54.4603
-133,561,0.144653,-55.0254,0,0,0,0,0,0,0,-1,1091,463,0.144704,55.0254
-126,561,1.77014,-49.4318,0,0,0,0,0,0,0,-1,1098,463,1.7702,49.4318
-119,561,-0.336304,-35.422,0,0,0,0,0,0,0,-1,1105,463,-0.336245,35.422
-112,561,1.24365,-29.1982,0,0,0,0,0,0,0,-1,1112,463,1.2437,29.1981
-105,561,0.530518,-13.5379,0,0,0,0,0,0,0,-1,1119,463,0.530477,13.5379
-98,561,1.5387,-7.54352,0,0,0,0,0,0,0,-1,1126,463,1.53871,7.54351
-91,561,1.29553,-6.57968,0,0,0,0,0,0,0,-1,1133,463,1.29549,6.5797
-84,561,1.23364,-5.84555,0,0,0,0,0,0,0,-1,1140,463,1.23363,5.84556
-77,561,-2.36023,1.00204,0,0,0,0,0,0,0,-1,1147,463,-2.3602,-1.00205
-70,561,-3.90015,-1.41541,0,0,0,0,0,0,0,-1,1154,463,-3.90009,1.4154
-63,561,-6.95691,-4.02756,0,0,0,0,0,0,0,-1,1161,463,-6.95696,4.02756
-56,561,-5.37988,-6.66855,0,0,0,0,0,0,0,-1,1168,463,-5.37988,6.66854
-49,561,-5.7439,-9.11029,0,0,0,0,0,0,0,-1,1175,463,-5.74387,9.1103
-42,561,-1.72644,-5.63065,0,0,0,0,0,0,0,-1,1182,463,-1.72648,5.63064
-35,561,-1.65674,-4.87994,0,0,0,0,0,0,0,-1,1189,463,-1.6567,4.87993
-28,561,-1.91418,-3.86896,0,0,0,0,0,0,0,-1,1196,463,-1.91414,3.86895
-21,561,15.1812,-72.9163,0,0,0,0,0,0,0,-1,1203,463,15.1811,72.9163
-14,561,14.6139,-72.0037,0,0,0,0,0,0,0,-1,1210,463,14.6138,72.0037
-7,561,13.9314,-71.0831,0,0,0,0,0,0,0,-1,1217,463,13.9314,71.0831
0,561,11.9266,-68.8576,0,0,0,0,0,0,0,-1,1224,463,11.9267,68.8576
7,561,10.8009,-67.8018,0,0,0,0,0,0,0,-1,1231,463,10.801,67.8018
14,561,1.47253,-62.5308,0,0,0,0,0,0,0,-1,1238,463,1.47251,62.5308
21,561,1.40417,-63.0129,-0.000313292,0.148855,-0.0222161,0.152093,-0.0035517,-1.42605,0.1026,0.0455472,1245,463,1.40413,63.0129
28,561,1.24988,-63.4568,0.00113116,0.134568,-0.0144089,0.136106,-0.00040701,-1.46445,0.0908736,0.0444938,1252,463,1.24985,63.4568
35,561,1.11975,-63.8941,0.00568232,0.123902,-0.00698049,0.124313,0.00527158,-1.51202,0.0811752,0.039342,1259,463,1.11975,63.8941
42,561,1.03687,-64.5596,0.00925317,0.119183,0.000974355,0.119191,0.00924454,1.56193,0.0765656,0.0431487,1266,463,1.03691,64.5596
49,561,1.11646,-64.9819,0.0125058,0.119081,0.00911987,0.119856,0.011731,1.48605,0.0762948,0.0459596,1273,463,1.11647,64.9818
56,561,0.93335,-64.9754,0.0154002,0.123772,0.0144962,0.125678,0.0134947,1.44009,0.0796689,0.0447665,1280,463,0.933325,64.9754
63,561,3.87695,-67.3115,0,0,0,0,0,0,0,-1,1287,463,3.87693,67.3115
70,561,3.50256,-67.2985,0.0113195,0.134871,0.0275187,0.140723,0.00546738,1.36126,0.092047,0.0476256,1294,463,3.50256,67.2984
77,561,2.84021,-67.0701,0.00900757,0.139849,0.0340929,0.148199,0.000657022,1.33059,0.0985813,0.0473542,1301,463,2.84023,67.0701
84,561,2.20752,-67.0845,0.00682746,0.140873,0.0399384,0.15187,-0.00416986,1.3021,0.102665,0.0466876,1308,463,2.20747,67.0844
91,561,1.99731,-66.8182,0.00369043,0.141005,0.0450926,0.154489,-0.00979345,1.28023,0.106407,0.0432392,1315,463,1.99732,66.8182
98,561,2.448,-66.2285,0.000568138,0.141206,0.0493217,0.156779,-0.0150046,1.26496,0.109863,0.0451479,1322,463,2.44805,66.2285
105,561,3.12573,-65.8265,-0.00189719,0.140113,0.0530957,0.15777,-0.0195537,1.24976,0.112267,0.0471656,1329,463,3.12579,65.8265
112,561,3.52454,-65.6844,-0.00549797,0.133374,0.0570275,0.153791,-0.0259146,1.227,0.112168,0.0478109,1336,463,3.52448,65.6844
119,561,1.61938,-63.7061,-0.00522019,0.122974,0.0596095,0.146409,-0.0286544,1.19623,0.108427,0.0468149,1343,463,1.61943,63.7061
126,561,1.74207,-63.006,0,0,0,0,0,0,0,-1,1350,463,1.74208,63.006
133,561,1.99146,-62.2302,0,0,0,0,0,0,0,-1,1357,463,1.99142,62.2302
140,561,3.92444,-61.762,0,0,0,0,0,0,0,-1,1364,463,3.92448,61.762
147,561,3.32739,-61.6937,0.00353936,0.0996674,0.059487,0.128081,-0.0248744,1.12519,0.0947733,0.0473212,1371,463,3.32739,61.6937
154,561,3.17456,-61.5465,0.00632342,0.107769,0.0577273,0.133892,-0.0197994,1.14585,0.0965403,0.0449809,1378,463,3.17454,61.5465
161,561,2.98389,-61.4235,0,0,0,0,0,0,0,-1,1385,463,2.98387,61.4235
168,561,-10.8822,-56.4584,0,0,0,0,0,0,0,-1,1392,463,-10.8822,56.4584
175,561,10.4185,0.276398,0,0,0,0,0,0,0,-1,1399,463,10.4185,-0.276394
182,561,6.45703,-4.02127,0,0,0,0,0,0,0,-1,1406,463,6.45704,4.02127
189,561,6.50854,-2.08685,0,0,0,0,0,0,0,-1,1413,463,6.50851,2.08686
196,561,6.44775,-0.27182,0,0,0,0,0,0,0,-1,1420,463,6.44773,0.271814
203,561,6.18591,1.1301,0,0,0,0,0,0,0,-1,1427,463,6.18592,-1.13009
210,561,5.68713,2.68427,0,0,0,0,0,0,0,-1,1434,463,5.6871,-2.68425
217,561,3.61743,-7.33582,0,0,0,0,0,0,0,-1,1441,463,3.61738,7.33581
224,561,4.27466,-8.59171,0,0,0,0,0,0,0,-1,1448,463,4.27466,8.59171
231,561,4.93188,-9.8476,0,0,0,0,0,0,0,-1,1455,463,4.93193,9.84761
238,561,2.18018,-5.18359,0,0,0,0,0,0,0,-1,1462,463,2.18023,5.18359
245,561,3.07568,-3.50238,0,0,0,0,0,0,0,-1,1469,463,3.0757,3.50238
252,561,3.47412,-3.71109,0,0,0,0,0,0,0,-1,1476,463,3.47413,3.71109
259,561,3.42212,-3.2334,0,0,0,0,0,0,0,-1,1483,463,3.42214,3.2334
266,561,4.44373,-5.90027,0,0,0,0,0,0,0,-1,1490,463,4.44372,5.90026
273,561,2.59485,-3.65268,0,0,0,0,0,0,0,-1,1497,463,2.5948,3.65268
280,561,13.822,-53.0352,0,0,0,0,0,0,0,-1,1504,463,13.822,53.0352
287,561,14.2249,-52.3378,0.00077267,-0.0175713,-0.0118813,0.00661034,-0.023409,-0.456691,0.0182138,0.0426502,1511,463,14.2248,52.3377
294,561,14.0737,-51.4761,0.000591014,-0.0188847,-0.011561,0.00596882,-0.0242625,-0.435395,0.0184886,0.0386834,1518,463,14.0737,51.4762
301,561,13.7661,-50.9019,0.000482228,-0.0189212,-0.011177,0.00558081,-0.0240197,-0.427971,0.0181615,0.0350427,1525,463,13.7661,50.9019
308,561,13.8329,-50.4059,0.000316169,-0.0184854,-0.0106299,0.00510587,-0.0232751,-0.423342,0.0174692,0.0267714,1532,463,13.8329,50.4059
315,561,13.8262,-49.8278,0.000196976,-0.017872,-0.00993257,0.00458925,-0.0222642,-0.416357,0.0165856,0.015425,1539,463,13.8262,49.8278
322,561,13.8121,-49.1627,0.000216012,-0.016702,-0.0089697,0.00408625,-0.0205722,-0.407346,0.0152604,0.015714,1546,463,13.8121,49.1627
329,561,13.8077,-48.4205,0.000292694,-0.0152434,-0.00793276,0.00362741,-0.0185781,-0.397944,0.0137549,0.0126451,1553,463,13.8077,48.4205
336,561,13.817,-47.6591,0.00036285,-0.0134918,-0.00690195,0.00321432,-0.0163433,-0.391782,0.01211,0.0119781,1560,463,13.8171,47.6591
343,561,13.8137,-46.9178,0.000470752,-0.0116406,-0.00562321,0.00267896,-0.0138488,-0.374193,0.010243,0.0114808,1567,463,13.8138,46.9179
350,561,13.7655,-46.1535,0.000682146,-0.00918559,-0.00433201,0.00231405,-0.0108175,-0.360267,0.00809404,0.0111143,1574,463,13.7655,46.1535
357,561,13.7277,-45.3697,0.00087679,-0.00666707,-0.00308267,0.00197624,-0.00776652,-0.34259,0.0059469,0.0111203,1581,463,13.7276,45.3697
364,561,13.718,-44.6243,0.000924918,-0.00429991,-0.00182766,0.00150077,-0.00487576,-0.305231,0.00384955,0.0102672,1588,463,13.718,44.6243
371,561,13.661,-43.8216,0.000954707,-0.00201848,-0.000637283,0.00108555,-0.00214932,-0.202494,0.00190102,0.0166262,1595,463,13.6611,43.8216
378,561,13.6058,-43.0259,0.000963169,0.000260147,0.000458044,0.00118904,3.42805e-05,0.458121,0.000781514,0.0128707,1602,463,13.6058,43.0259
385,561,13.5822,-42.2155,0.00088085,0.00213195,0.00127529,0.00292685,8.59454e-05,1.01341,0.00192323,0.0115361,1609,463,13.5822,42.2156
392,561,13.5184,-41.4144,0.000837178,0.00364819,0.00206815,0.00474322,-0.000257856,1.08385,0.00325151,0.0147404,1616,463,13.5184,41.4144
399,561,13.4952,-40.6382,0.000807838,0.00505094,0.00276377,0.00641356,-0.000554775,1.11274,0.00447211,0.0204039,1623,463,13.4952,40.6382
406,561,13.4851,-39.8087,0.000643881,0.00593691,0.00318845,0.00743409,-0.000853302,1.13179,0.0052636,0.0191194,1630,463,13.4851,39.8087
413,561,13.4396,-38.9565,0.000281535,0.00629467,0.00339917,0.00782614,-0.00124993,1.14749,0.0056801,0.0175069,1637,463,13.4396,38.9566
420,561,13.3728,-38.1165,-0.000362743,0.00627204,0.00348538,0.0077664,-0.00185711,1.16575,0.00589496,0.0142402,1644,463,13.3728,38.1165
427,561,13.3297,-37.2458,-0.00119206,0.00587162,0.00362241,0.00739901,-0.00271945,1.17177,0.00604656,0.0115013,1651,463,13.3297,37.2458
434,561,13.2742,-36.3747,-0.00189072,0.00552111,0.00373745,0.0070785,-0.0034481,1.17598,0.00619684,0.0132417,1658,463,13.2742,36.3747
441,561,13.2415,-35.5237,-0.00289043,0.00484215,0.00377039,0.00637623,-0.00442451,1.18438,0.00626965,0.0156005,1665,463,13.2414,35.5237
448,561,13.1641,-34.5638,-0.00421062,0.00381304,0.00376568,0.00530349,-0.00570107,1.19392,0.00635487,0.0219922,1672,463,13.1641,34.5638
455,561,13.0995,-33.6901,-0.00589395,0.00243138,0.00373753,0.00386308,-0.00732565,1.20498,0.00656211,0.0420937,1679,463,13.0995,33.6901
462,561,12.9458,-32.9889,-0.00780204,0.00115384,0.00379263,0.00254411,-0.00919232,1.21943,0.0071292,0.0403868,1686,463,12.9458,32.9888
469,561,12.7777,-32.2084,-0.00997479,-0.000189141,0.00390678,0.00117924,-0.0113432,1.23389,0.00798427,0.0275935,1693,463,12.7776,32.2084
476,561,12.4854,-31.3708,-0.0125755,-0.00192938,0.00402586,-0.000578423,-0.0139265,1.24703,0.00909764,0.0450515,1700,463,12.4854,31.3708
483,561,12.1523,-30.5228,0,0,0,0,0,0,0,-1,1707,463,12.1523,30.5228
490,561,10.2549,-20.4551,0,0,0,0,0,0,0,-1,1714,463,10.2548,20.4551
497,561,11.7618,-20.3894,0,0,0,0,0,0,0,-1,1721,463,11.7618,20.3894
504,561,12.9351,-20.1285,0,0,0,0,0,0,0,-1,1728,463,12.935,20.1285
511,561,0,0,0,0,0,0,0,0,0,-1,1735,463,0,0
518,561,0,0,0,0,0,0,0,0,0,-1,1742,463,0,0
525,561,0,0,0,0,0,0,0,0,0,-1,1749,463,0,0
532,561,0,0,0,0,0,0,0,0,0,-1,1756,463,0,0
539,561,0,0,0,0,0,0,0,0,0,-1,1763,463,0,0
546,561,0,0,0,0,0,0,0,0,0,-1,1770,463,0,0
553,561,0,0,0,0,0,0,0,0,0,-1,1777,463,0,0
560,561,0,0,0,0,0,0,0,0,0,-1,1784,463,0,0
567,561,0,0,0,0,0,0,0,0,0,-1,1791,463,0,0
574,561,0,0,0,0,0,0,0,0,0,-1,1798,463,0,0
581,561,0,0,0,0,0,0,0,0,0,-1,1805,463,0,0
588,561,0,0,0,0,0,0,0,0,0,-1,1812,463,0,0
595,561,0,0,0,0,0,0,0,0,0,-1,1819,463,0,0
602,561,0,0,0,0,0,0,0,0,0,-1,1826,463,0,0
609,561,0,0,0,0,0,0,0,0,0,-1,1833,463,0,0
616,561,0,0,0,0,0,0,0,0,0,-1,1840,463,0,0
623,561,0,0,0,0,0,0,0,0,0,-1,1847,463,0,0
630,561,0,0,0,0,0,0,0,0,0,-1,1854,463,0,0
637,561,0,0,0,0,0,0,0,0,0,-1,1861,463,0,0
644,561,0,0,0,0,0,0,0,0,0,-1,1868,463,0,0
651,561,0,0,0,0,0,0,0,0,0,-1,1875,463,0,0
658,561,0,0,0,0,0,0,0,0,0,-1,1882,463,0,0
665,561,0,0,0,0,0,0,0,0,0,-1,1889,463,0,0
672,561,0,0,0,0,0,0,0,0,0,-1,1896,463,0,0
679,561,0,0,0,0,0,0,0,0,0,-1,1903,463,0,0
686,561,0,0,0,0,0,0,0,0,0,-1,1910,463,0,0
693,561,0,0,0,0,0,0,0,0,0,-1,1917,463,0,0
700,561,0,0,0,0,0,0,0,0,0,-1,1924,463,0,0
707,561,0,0,0,0,0,0,0,0,0,-1,1931,463,0,0
714,561,0,0,0,0,0,0,0,0,0,-1,1938,463,0,0
721,561,0,0,0,0,0,0,0,0,0,-1,1945,463,0,0
728,561,0,0,0,0,0,0,0,0,0,-1,1952,463,0,0
735,561,0,0,0,0,0,0,0,0,0,-1,1959,463,0,0
742,561,0,0,0,0,0,0,0,0,0,-1,1966,463,0,0
749,561,0,0,0,0,0,0,0,0,0,-1,1973,463,0,0
756,561,0,0,0,0,0,0,0,0,0,-1,1980,463,0,0
763,561,0,0,0,0,0,0,0,0,0,-1,1987,463,0,0
770,561,0,0,0,0,0,0,0,0,0,-1,1994,463,0,0
777,561,0,0,0,0,0,0,0,0,0,-1,2001,463,0,0
784,561,0,0,0,0,0,0,0,0,0,-1,2008,463,0,0
791,561,0,0,0,0,0,0,0,0,0,-1,2015,463,0,0
798,561,0,0,0,0,0,0,0,0,0,-1,2022,463,0,0
805,561,0,0,0,0,0,0,0,0,0,-1,2029,463,0,0
812,561,0,0,0,0,0,0,0,0,0,-1,2036,463,0,0
-700,554,0,0,0,0,0,0,0,0,0,-1,524,470,0,0
-693,554,0,0,0,0,0,0,0,0,0,-1,531,470,0,0
-686,554,0,0,0,0,0,0,0,0,0,-1,538,470,0,0
-679,554,0,0,0,0,0,0,0,0,0,-1,545,470,0,0
-672,554,0,0,0,0,0,0,0,0,0,-1,552,470,0,0
-665,554,0,0,0,0,0,0,0,0,0,-1,559,470,0,0
-658,554,0,0,0,0,0,0,0,0,0,-1,566,470,0,0
-651,554,0,0,0,0,0,0,0,0,0,-1,573,470,0,0
-644,554,0,0,0,0,0,0,0,0,0,-1,580,470,0,0
-637,554,0,0,0,0,0,0,0,0,0,-1,587,470,0,0
-630,554,0,0,0,0,0,0,0,0,0,-1,594,470,0,0
-623,554,0,0,0,0,0,0,0,0,0,-1,601,470,0,0
-616,554,0,0,0,0,0,0,0,0,0,-1,608,470,0,0
-609,554,0,0,0,0,0,0,0,0,0,-1,615,470,0,0
-602,554,0,0,0,0,0,0,0,0,0,-1,622,470,0,0
-595,554,0,0,0,0,0,0,0,0,0,-1,629,470,0,0
-588,554,0,0,0,0,0,0,0,0,0,-1,636,470,0,0
-581,554,0,0,0,0,0,0,0,0,0,-1,643,470,0,0
-574,554,0,0,0,0,0,0,0,0,0,-1,650,470,0,0
-567,554,0,0,0,0,0,0,0,0,0,-1,657,470,0,0
-560,554,0,0,0,0,0,0,0,0,0,-1,664,470,0,0
-553,554,0,0,0,0,0,0,0,0,0,-1,671,470,0,0
-546,554,0,0,0,0,0,0,0,0,0,-1,678,470,0,0
-539,554,0,0,0,0,0,0,0,0,0,-1,685,470,0,0
-532,554,0,0,0,0,0,0,0,0,0,-1,692,470,0,0
-525,554,0,0,0,0,0,0,0,0,0,-1,699,470,0,0
-518,554,0,0,0,0,0,0,0,0,0,-1,706,470,0,0
-511,554,0,0,0,0,0,0,0,0,0,-1,713,470,0,0
-504,554,0,0,0,0,0,0,0,0,0,-1,720,470,0,0
-497,554,0,0,0,0,0,0,0,0,0,-1,727,470,0,0
-490,554,0,0,0,0,0,0,0,0,0,-1,734,470,0,0
-483,554,0,0,0,0,0,0,0,0,0,-1,741,470,0,0
-476,554,0,0,0,0,0,0,0,0,0,-1,748,470,0,0
-469,554,0,0,0,0,0,0,0,0,0,-1,755,470,0,0
-462,554,0,0,0,0,0,0,0,0,0,-1,762,470,0,0
-455,554,0,0,0,0,0,0,0,0,0,-1,769,470,0,0
-448,554,0,0,0,0,0,0,0,0,0,-1,776,470,0,0
-441,554,0,0,0,0,0,0,0,0,0,-1,783,470,0,0
-434,554,0,0,0,0,0,0,0,0,0,-1,790,470,0,0
-427,554,0,0,0,0,0,0,0,0,0,-1,797,470,0,0
-420,554,0,0,0,0,0,0,0,0,0,-1,804,470,0,0
-413,554,0,0,0,0,0,0,0,0,0,-1,811,470,0,0
-406,554,0,0,0,0,0,0,0,0,0,-1,818,470,0,0
-399,554,-1.32275,-3.95142,0,0,0,0,0,0,0,-1,825,470,-1.32275,3.95141
-392,554,-1.35632,-3.7406,0,0,0,0,0,0,0,-1,832,470,-1.35632,3.7406
-385,554,-0.849243,-4.14447,0,0,0,0,0,0,0,-1,839,470,-0.849262,4.14446
-378,554,1.82568,-27.9885,0,0,0,0,0,0,0,-1,846,470,1.82567,27.9885
-371,554,1.49774,-27.995,-0.00205892,0.0277396,-0.00296516,0.0280318,-0.00235111,-1.47257,0.0195188,0.0484965,853,470,1.49776,27.995
-364,554,1.3222,-27.8285,-0.00230554,0.0296388,-0.00490175,0.030374,-0.00304077,-1.42191,0.0213353,0.047514,860,470,1.32223,27.8285
-357,554,1.27551,-28.9471,0,0,0,0,0,0,0,-1,867,470,1.2755,28.947
-350,554,1.17157,-18.1341,0,0,0,0,0,0,0,-1,874,470,1.17156,18.1341
-343,554,1.78375,-32.5685,0,0,0,0,0,0,0,-1,881,470,1.78373,32.5684
-336,554,1.6521,-33.3252,-0.00201427,0.0224981,-0.00736372,0.0245401,-0.00405628,-1.30029,0.0178663,0.0416274,888,470,1.6521,33.3252
-329,554,1.47284,-34.2736,-0.00161754,0.0192235,-0.00708607,0.0214045,-0.00379859,-1.2722,0.0156899,0.0226327,895,470,1.47282,34.2736
-322,554,1.37915,-35.1526,-0.00144418,0.0161125,-0.00631998,0.0181509,-0.00348256,-1.2588,0.013413,0.0172122,902,470,1.37918,35.1526
-315,554,1.37006,-35.9849,-0.00120159,0.0148751,-0.00595955,0.0168433,-0.00316981,-1.25181,0.012421,0.0163827,909,470,1.37003,35.9849
-308,554,1.32574,-36.8487,-0.00106229,0.0108755,-0.00524298,0.0128512,-0.00303798,-1.21042,0.00973936,0.0152833,916,470,1.32573,36.8487
-301,554,1.27686,-37.7275,-0.000835084,0.00779501,-0.0039805,0.00935057,-0.00239064,-1.19825,0.0071648,0.0153233,923,470,1.27687,37.7275
-294,554,1.21356,-38.5587,-0.000439419,0.00613535,-0.00323098,0.00745732,-0.00176139,-1.18242,0.00565093,0.0140275,930,470,1.21354,38.5587
-287,554,1.1463,-39.3766,-0.000140326,0.00480296,-0.00257071,0.00589749,-0.00123486,-1.16827,0.0044014,0.0134842,937,470,1.14628,39.3766
-280,554,1.0802,-40.1911,0.00017505,0.00343706,-0.00204345,0.0044206,-0.000808495,-1.12221,0.00325026,0.0123824,944,470,1.08018,40.1911
-273,554,1.01306,-41.0133,0.000459827,0.00189769,-0.001435,0.00278377,-0.00042626,-1.01762,0.00201303,0.017109,951,470,1.01304,41.0133
-266,554,0.982117,-41.8034,0.000769741,0.000161533,-0.000729472,0.00125596,-0.000324684,-0.587911,0.000963937,0.0137188,958,470,0.982128,41.8034
-259,554,0.950134,-42.5366,0.00101307,-0.00199689,5.73104e-05,0.00101416,-0.00199798,0.0190311,0.00176971,0.0127505,965,470,0.950108,42.5366
-252,554,0.918823,-43.3119,0.00113012,-0.00422911,0.00103889,0.00132447,-0.00442346,0.184929,0.00347562,0.0154003,972,470,0.918837,43.3119
-245,554,0.882996,-44.1213,0.00134687,-0.00677582,0.00198596,0.00180643,-0.00723538,0.227401,0.00552506,0.0166319,979,470,0.883001,44.1214
-238,554,0.8479,-44.938,0.00159059,-0.00945801,0.00304005,0.00237183,-0.0102392,0.251539,0.00773889,0.0122655,986,470,0.847871,44.938
-231,554,0.813171,-45.7189,0.00188855,-0.0124323,0.00418406,0.00302138,-0.0135651,0.264409,0.0102008,0.0109527,993,470,0.813196,45.7189
-224,554,0.799377,-46.4451,0.0021426,-0.0153764,0.00528864,0.00361534,-0.0168491,0.27159,0.0126118,0.0106525,1000,470,0.799399,46.4451
-217,554,0.816406,-47.1704,0.00241013,-0.0183288,0.00638543,0.00421849,-0.0201372,0.275975,0.0150296,0.0106675,1007,470,0.816398,47.1704
-210,554,0.821289,-47.8857,0.00270782,-0.0212297,0.00739881,0.00481008,-0.0233319,0.276839,0.0173813,0.0152603,1014,470,0.821292,47.8858
-203,554,0.776855,-48.5248,0.00304129,-0.0236565,0.00828733,0.00540459,-0.0260198,0.277796,0.0194006,0.0240338,1021,470,0.776828,48.5248
-196,554,0.761475,-49.1359,0.00313144,-0.0254366,0.0090789,0.00577253,-0.0280777,0.283092,0.0209099,0.0321113,1028,470,0.761474,49.136
-189,554,0.846558,-49.7352,0.00334718,-0.0269636,0.00974939,0.00621224,-0.0298286,0.285824,0.0222475,0.0387478,1035,470,0.846523,49.7351
-182,554,0.896484,-50.2189,0.00343152,-0.0278268,0.0102987,0.00651959,-0.0309149,0.291318,0.023092,0.0453512,1042,470,0.896425,50.2189
-175,554,0.891113,-51.0598,0,0,0,0,0,0,0,-1,1049,470,0.891141,51.0598
-168,554,1.8866,-48.7592,0,0,0,0,0,0,0,-1,1056,470,1.88665,48.7591
-161,554,1.09583,-42.015,0,0,0,0,0,0,0,-1,1063,470,1.09577,42.015
-154,554,1.03186,-42.7216,0,0,0,0,0,0,0,-1,1070,470,1.03187,42.7216
-147,554,1.4552,-41.5187,0,0,0,0,0,0,0,-1,1077,470,1.45525,41.5187
-140,554,0.428101,-38.9893,0,0,0,0,0,0,0,-1,1084,470,0.428152,38.9893
-133,554,2.67163,-32.8187,0,0,0,0,0,0,0,-1,1091,470,2.67161,32.8187
-126,554,0.851929,-33.5393,0,0,0,0,0,0,0,-1,1098,470,0.851942,33.5393
-119,554,-1.03479,-32.1628,0,0,0,0,0,0,0,-1,1105,470,-1.03476,32.1628
-112,554,1.03162,-24.5784,0,0,0,0,0,0,0,-1,1112,470,1.03156,24.5784
-105,554,0.608765,-21.0475,0,0,0,0,0,0,0,-1,1119,470,0.608728,21.0475
-98,554,1.51929,-7.3624,0,0,0,0,0,0,0,-1,1126,470,1.51928,7.36241
-91,554,1.41089,-6.5864,0,0,0,0,0,0,0,-1,1133,470,1.41093,6.58638
-84,554,1.62305,-5.87186,0,0,0,0,0,0,0,-1,1140,470,1.62299,5.87186
-77,554,-2.56958,1.33258,0,0,0,0,0,0,0,-1,1147,470,-2.56959,-1.33257
-70,554,-3.68164,-1.18332,0,0,0,0,0,0,0,-1,1154,470,-3.68158,1.18331
-63,554,-4.86853,-3.88708,0,0,0,0,0,0,0,-1,1161,470,-4.86853,3.88708
-56,554,-5.69958,-6.45422,0,0,0,0,0,0,0,-1,1168,470,-5.69955,6.45422
-49,554,-6.23645,-8.8569,0,0,0,0,0,0,0,-1,1175,470,-6.23643,8.85689
-42,554,-6.62524,-11.5382,0,0,0,0,0,0,0,-1,1182,470,-6.62522,11.5382
-35,554,-2.40173,-4.59482,0,0,0,0,0,0,0,-1,1189,470,-2.40169,4.59481
-28,554,-0.760132,-1.65555,0,0,0,0,0,0,0,-1,1196,470,-0.760095,1.65556
-21,554,16.1113,-72.7191,0,0,0,0,0,0,0,-1,1203,470,16.1114,72.7191
-14,554,15.4349,-71.5927,0,0,0,0,0,0,0,-1,1210,470,15.4349,71.5927
-7,554,14.7338,-70.4525,0,0,0,0,0,0,0,-1,1217,470,14.7337,70.4525
0,554,11.4496,-68.0853,0,0,0,0,0,0,0,-1,1224,470,11.4495,68.0853
7,554,10.713,-66.7925,0,0,0,0,0,0,0,-1,1231,470,10.713,66.7925
14,554,1.64172,-63.4273,0,0,0,0,0,0,0,-1,1238,470,1.64175,63.4273
21,554,1.52246,-64.317,-0.00380264,0.184711,-0.0315686,0.189857,-0.00894867,-1.40921,0.129657,0.0444497,1245,470,1.52247,64.317
28,554,1.12048,-64.8347,0.000842732,0.165474,-0.0197763,0.167816,-0.00149958,-1.45291,0.11238,0.043618,1252,470,1.12052,64.8346
35,554,0.277466,-65.1754,0,0,0,0,0,0,0,-1,1259,470,0.277483,65.1753
42,554,0.208008,-65.28,0.0143267,0.144843,-0.0030157,0.144912,0.014257,-1.54771,0.0922239,0.0456262,1266,470,0.207957,65.2799
49,554,0.147217,-65.3747,0.0185129,0.143142,0.00451429,0.143305,0.0183496,1.53464,0.0900456,0.0495044,1273,470,0.147262,65.3747
56,554,0.0828857,-65.498,0.0222588,0.147595,0.00756837,0.148051,0.0218035,1.5107,0.0922951,0.0496062,1280,470,0.0829256,65.498
63,554,3.61829,-68.4168,0,0,0,0,0,0,0,-1,1287,470,3.61832,68.4168
70,554,3.06323,-67.7574,0.0160824,0.157082,0.0191768,0.159643,0.0135208,1.438,0.10222,0.0417712,1294,470,3.0632,67.7574
77,554,2.39111,-67.7446,0.0136176,0.161321,0.0250339,0.165448,0.00949001,1.40739,0.107276,0.0447005,1301,470,2.39114,67.7446
84,554,1.55652,-68.3318,0.0113721,0.161912,0.0307399,0.167947,0.00533703,1.37694,0.110229,0.0451243,1308,470,1.55657,68.3318
91,554,1.59167,-67.7973,0.00725877,0.164474,0.0365873,0.172572,-0.000838757,1.35299,0.115329,0.0459787,1315,470,1.59167,67.7973
98,554,1.49353,-67.3151,0,0,0,0,0,0,0,-1,1322,470,1.49348,67.315
105,554,3.99695,-67.7166,-8.07677e-05,0.17131,0.0462947,0.183016,-0.0117861,1.32314,0.126123,0.0448559,1329,470,3.99694,67.7166
112,554,4.69556,-67.9523,-0.00613613,0.167028,0.0527771,0.181845,-0.0209537,1.29709,0.128784,0.0447555,1336,470,4.69552,67.9523
119,554,1.52075,-63.6495,-0.006287,0.156894,0.0577576,0.175268,-0.0246613,1.26279,0.125874,0.0413978,1343,470,1.52072,63.6495
126,554,1.26697,-63.6493,0,0,0,0,0,0,0,-1,1350,470,1.26691,63.6493
133,554,1.7157,-62.9403,-0.00284307,0.138338,0.0642674,0.163211,-0.0277163,1.20152,0.119126,0.0430538,1357,470,1.71569,62.9403
140,554,1.94421,-62.6774,3.61316e-05,0.131504,0.0640477,0.157547,-0.0260071,1.18459,0.114688,0.0466897,1364,470,1.94419,62.6774
147,554,2.08496,-62.6651,0.00293233,0.130856,0.0636958,0.157162,-0.0233736,1.17914,0.113372,0.0452122,1371,470,2.08498,62.6651
154,554,1.89771,-62.5449,0.0070741,0.139727,0.0623124,0.164406,-0.0176052,1.19369,0.115919,0.0448937,1378,470,1.89774,62.5448
161,554,1.8855,-62.7299,0,0,0,0,0,0,0,-1,1385,470,1.88547,62.7299
168,554,1.78137,-62.6296,0,0,0,0,0,0,0,-1,1392,470,1.78139,62.6296
175,554,10.663,0.286957,0,0,0,0,0,0,0,-1,1399,470,10.663,-0.286966
182,554,6.71106,-4.50217,0,0,0,0,0,0,0,-1,1406,470,6.71107,4.50215
189,554,6.90479,-2.50348,0,0,0,0,0,0,0,-1,1413,470,6.90477,2.50348
196,554,6.96216,-0.740906,0,0,0,0,0,0,0,-1,1420,470,6.96214,0.740912
203,554,6.43518,0.414154,0,0,0,0,0,0,0,-1,1427,470,6.43523,-0.414141
210,554,6.21167,1.96707,0,0,0,0,0,0,0,-1,1434,470,6.21165,-1.96706
217,554,5.64551,3.4989,0,0,0,0,0,0,0,-1,1441,470,5.64555,-3.49891
224,554,4.85144,-8.85172,0,0,0,0,0,0,0,-1,1448,470,4.85146,8.85173
231,554,3.25073,-5.29642,0,0,0,0,0,0,0,-1,1455,470,3.25078,5.29642
238,554,4.28625,-3.25253,0,0,0,0,0,0,0,-1,1462,470,4.28622,3.25252
245,554,4.0752,-2.90033,0,0,0,0,0,0,0,-1,1469,470,4.07515,2.90032
252,554,3.52112,-0.934998,0,0,0,0,0,0,0,-1,1476,470,3.52113,0.934996
259,554,3.96448,-2.16425,0,0,0,0,0,0,0,-1,1483,470,3.96446,2.16424
266,554,3.0592,-2.71716,0,0,0,0,0,0,0,-1,1490,470,3.05923,2.71718
273,554,2.58521,-3.06876,0,0,0,0,0,0,0,-1,1497,470,2.58524,3.06874
280,554,15.1957,-53.1852,0,0,0,0,0,0,0,-1,1504,470,15.1957,53.1852
287,554,15.5082,-52.405,0,0,0,0,0,0,0,-1,1511,470,15.5082,52.405
294,554,15.1471,-50.9656,0,0,0,0,0,0,0,-1,1518,470,15.1471,50.9657
301,554,14.3247,-50.3646,0,0,0,0,0,0,0,-1,1525,470,14.3248,50.3646
308,554,14.5964,-50.2343,0,0,0,0,0,0,0,-1,1532,470,14.5965,50.2343
315,554,14.7106,-49.3279,0,0,0,0,0,0,0,-1,1539,470,14.7105,49.328
322,554,14.7134,-48.7844,-0.00040905,-0.0232694,-0.0122402,0.0049081,-0.0285865,-0.409804,0.0208868,0.0403012,1546,470,14.7134,48.7844
329,554,14.6067,-48.2056,-0.000116458,-0.0214148,-0.0109507,0.00450931,-0.0260405,-0.39968,0.0190423,0.0260258,1553,470,14.6067,48.2055
336,554,14.5594,-47.5793,0.00010211,-0.0192435,-0.00970375,0.00413061,-0.023272,-0.393497,0.0170591,0.0152997,1560,470,14.5594,47.5793
343,554,14.5427,-46.878,0.000337159,-0.0170189,-0.00817971,0.00358456,-0.0202663,-0.377923,0.0148506,0.0119118,1567,470,14.5427,46.878
350,554,14.5199,-46.0804,0.000665285,-0.0141076,-0.00667771,0.00323632,-0.0166786,-0.367524,0.0123401,0.0109205,1574,470,14.5199,46.0804
357,554,14.5104,-45.3002,0.000948741,-0.0111155,-0.00524238,0.00290843,-0.0130752,-0.357733,0.00983073,0.0121665,1581,470,14.5103,45.3002
364,554,14.4829,-44.5862,0.0010261,-0.00834561,-0.00381988,0.0023858,-0.00970531,-0.341969,0.00739489,0.00999013,1588,470,14.4829,44.5862
371,554,14.4435,-43.7938,0.00108027,-0.00570733,-0.00248051,0.00189014,-0.0065172,-0.315581,0.00509313,0.00910729,1595,470,14.4435,43.7938
378,554,14.4064,-42.977,0.00113182,-0.00303816,-0.00120915,0.00145706,-0.0033634,-0.262767,0.00285472,0.0105578,1602,470,14.4064,42.977
385,554,14.391,-42.1713,0.00109037,-0.000838601,-0.000203796,0.00111167,-0.000859896,-0.104118,0.00114137,0.0101376,1609,470,14.391,42.1712
392,554,14.3713,-41.3444,0.00107381,0.000968962,0.000766612,0.00178979,0.000252983,0.75126,0.00111844,0.0135899,1616,470,14.3713,41.3444
399,554,14.3219,-40.5436,0.00100735,0.00279574,0.00154295,0.00368487,0.00011821,1.04802,0.00241814,0.0187479,1623,470,14.3219,40.5436
406,554,14.2963,-39.7206,0.000859707,0.00386912,0.00208788,0.004938,-0.000209179,1.09764,0.0033639,0.0173074,1630,470,14.2963,39.7206
413,554,14.2578,-38.9018,0.00057811,0.00441812,0.00242079,0.00558788,-0.00059165,1.12067,0.00393732,0.0156815,1637,470,14.2578,38.9018
420,554,14.2,-38.0697,6.30548e-05,0.00461628,0.00260539,0.00579958,-0.00112025,1.14448,0.00428885,0.0166022,1644,470,14.1999,38.0697
427,554,14.1633,-37.215,-0.00064828,0.00441502,0.00277684,0.00564104,-0.0018743,1.15502,0.004517,0.0123665,1651,470,14.1633,37.215
434,554,14.0894,-36.3926,-0.00123311,0.00420198,0.00295066,0.00549585,-0.00252698,1.15755,0.00473652,0.0109336,1658,470,14.0894,36.3926
441,554,14.0361,-35.5528,-0.00203243,0.00378919,0.00308751,0.00512167,-0.00336491,1.16337,0.0049346,0.0121019,1665,470,14.0362,35.5528
448,554,13.9822,-34.6278,-0.00306897,0.00307933,0.00317657,0.0044257,-0.00441535,1.16991,0.00510438,0.0160633,1672,470,13.9822,34.6278
455,554,13.9092,-33.7549,-0.00433591,0.00215268,0.00326168,0.00350882,-0.00569205,1.17676,0.00536174,0.0183516,1679,470,13.9092,33.7549
462,554,13.8114,-32.9493,-0.00566237,0.00127534,0.00338864,0.0026558,-0.00704283,1.18395,0.00578731,0.021217,1686,470,13.8113,32.9493
469,554,13.6061,-32.1179,-0.00697391,0.000428905,0.00354689,0.00185398,-0.00839898,1.18875,0.00630878,0.0263039,1693,470,13.6061,32.1179
476,554,13.3201,-31.1772,-0.00848248,-0.000624727,0.00372886,0.000863081,-0.00997029,1.19115,0.00695243,0.045295,1700,470,13.32,31.1772
483,554,13.0511,-30.231,0,0,0,0,0,0,0,-1,1707,470,13.0512,30.231
490,554,12.5504,-17.9805,0,0,0,0,0,0,0,-1,1714,470,12.5505,17.9805
497,554,14.3204,-17.9055,0,0,0,0,0,0,0,-1,1721,470,14.3204,17.9055
504,554,2.13257,-3.81628,0,0,0,0,0,0,0,-1,1728,470,2.1326,3.8163
511,554,1.31396,-4.02713,0,0,0,0,0,0,0,-1,1735,470,1.31398,4.02712
518,554,5.04236,-5.9472,0,0,0,0,0,0,0,-1,1742,470,5.04231,5.94721
525,554,0,0,0,0,0,0,0,0,0,-1,1749,470,0,0
532,554,0,0,0,0,0,0,0,0,0,-1,1756,470,0,0
539,554,0,0,0,0,0,0,0,0,0,-1,1763,470,0,0
546,554,0,0,0,0,0,0,0,0,0,-1,1770,470,0,0
553,554,0,0,0,0,0,0,0,0,0,-1,1777,470,0,0
560,554,0,0,0,0,0,0,0,0,0,-1,1784,470,0,0
567,554,0,0,0,0,0,0,0,0,0,-1,1791,470,0,0
574,554,0,0,0,0,0,0,0,0,0,-1,1798,470,0,0
581,554,0,0,0,0,0,0,0,0,0,-1,1805,470,0,0
588,554,0,0,0,0,0,0,0,0,0,-1,1812,470,0,0
595,554,0,0,0,0,0,0,0,0,0,-1,1819,470,0,0
602,554,0,0,0,0,0,0,0,0,0,-1,1826,470,0,0
609,554,0,0,0,0,0,0,0,0,0,-1,1833,470,0,0
616,554,0,0,0,0,0,0,0,0,0,-1,1840,470,0,0
623,554,0,0,0,0,0,0,0,0,0,-1,1847,470,0,0
630,554,0,0,0,0,0,0,0,0,0,-1,1854,470,0,0
637,554,0,0,0,0,0,0,0,0,0,-1,1861,470,0,0
644,554,0,0,0,0,0,0,0,0,0,-1,1868,470,0,0
651,554,0,0,0,0,0,0,0,0,0,-1,1875,470,0,0
658,554,0,0,0,0,0,0,0,0,0,-1,1882,470,0,0
665,554,0,0,0,0,0,0,0,0,0,-1,1889,470,0,0
672,554,0,0,0,0,0,0,0,0,0,-1,1896,470,0,0
679,554,0,0,0,0,0,0,0,0,0,-1,1903,470,0,0
686,554,0,0,0,0,0,0,0,0,0,-1,1910,470,0,0
693,554,0,0,0,0,0,0,0,0,0,-1,1917,470,0,0
700,554,0,0,0,0,0,0,0,0,0,-1,1924,470,0,0
707,554,0,0,0,0,0,0,0,0,0,-1,1931,470,0,0
714,554,0,0,0,0,0,0,0,0,0,-1,1938,470,0,0
721,554,0,0,0,0,0,0,0,0,0,-1,1945,470,0,0
728,554,0,0,0,0,0,0,0,0,0,-1,1952,470,0,0
735,554,0,0,0,0,0,0,0,0,0,-1,1959,470,0,0
742,554,0,0,0,0,0,0,0,0,0,-1,1966,470,0,0
749,554,0,0,0,0,0,0,0,0,0,-1,1973,470,0,0
756,554,0,0,0,0,0,0,0,0,0,-1,1980,470,0,0
763,554,0,0,0,0,0,0,0,0,0,-1,1987,470,0,0
770,554,0,0,0,0,0,0,0,0,0,-1,1994,470,0,0
777,554,0,0,0,0,0,0,0,0,0,-1,2001,470,0,0
784,554,0,0,0,0,0,0,0,0,0,-1,2008,470,0,0
791,554,0,0,0,0,0,0,0,0,0,-1,2015,470,0,0
798,554,0,0,0,0,0,0,0,0,0,-1,2022,470,0,0
805,554,0,0,0,0,0,0,0,0,0,-1,2029,470,0,0
812,554,0,0,0,0,0,0,0,0,0,-1,2036,470,0,0
-700,547,0,0,0,0,0,0,0,0,0,-1,524,477,0,0
-693,547,0,0,0,0,0,0,0,0,0,-1,531,477,0,0
-686,547,0,0,0,0,0,0,0,0,0,-1,538,477,0,0
-679,547,0,0,0,0,0,0,0,0,0,-1,545,477,0,0
-672,547,0,0,0,0,0,0,0,0,0,-1,552,477,0,0
-665,547,0,0,0,0,0,0,0,0,0,-1,559,477,0,0
-658,547,0,0,0,0,0,0,0,0,0,-1,566,477,0,0
-651,547,0,0,0,0,0,0,0,0,0,-1,573,477,0,0
-644,547,0,0,0,0,0,0,0,0,0,-1,580,477,0,0
-637,547,0,0,0,0,0,0,0,0,0,-1,587,477,0,0
-630,547,0,0,0,0,0,0,0,0,0,-1,594,477,0,0
-623,547,0,0,0,0,0,0,0,0,0,-1,601,477,0,0
-616,547,0,0,0,0,0,0,0,0,0,-1,608,477,0,0
-609,547,0,0,0,0,0,0,0,0,0,-1,615,477,0,0
-602,547,0,0,0,0,0,0,0,0,0,-1,622,477,0,0
-595,547,0,0,0,0,0,0,0,0,0,-1,629,477,0,0
-588,547,0,0,0,0,0,0,0,0,0,-1,636,477,0,0
-581,547,0,0,0,0,0,0,0,0,0,-1,643,477,0,0
-574,547,0,0,0,0,0,0,0,0,0,-1,650,477,0,0
-567,547,0,0,0,0,0,0,0,0,0,-1,657,477,0,0
-560,547,0,0,0,0,0,0,0,0,0,-1,664,477,0,0
-553,547,0,0,0,0,0,0,0,0,0,-1,671,477,0,0
-546,547,0,0,0,0,0,0,0,0,0,-1,678,477,0,0
-539,547,0,0,0,0,0,0,0,0,0,-1,685,477,0,0
-532,547,0,0,0,0,0,0,0,0,0,-1,692,477,0,0
-525,547,0,0,0,0,0,0,0,0,0,-1,699,477,0,0
-518,547,0,0,0,0,0,0,0,0,0,-1,706,477,0,0
-511,547,0,0,0,0,0,0,0,0,0,-1,713,477,0,0
-504,547,0,0,0,0,0,0,0,0,0,-1,720,477,0,0
-497,547,0,0,0,0,0,0,0,0,0,-1,727,477,0,0
-490,547,0,0,0,0,0,0,0,0,0,-1,734,477,0,0
-483,547,0,0,0,0,0,0,0,0,0,-1,741,477,0,0
-476,547,0,0,0,0,0,0,0,0,0,-1,748,477,0,0
-469,547,0,0,0,0,0,0,0,0,0,-1,755,477,0,0
-462,547,0,0,0,0,0,0,0,0,0,-1,762,477,0,0
-455,547,0,0,0,0,0,0,0,0,0,-1,769,477,0,0
-448,547,0,0,0,0,0,0,0,0,0,-1,776,477,0,0
-441,547,0,0,0,0,0,0,0,0,0,-1,783,477,0,0
-434,547,0,0,0,0,0,0,0,0,0,-1,790,477,0,0
-427,547,0,0,0,0,0,0,0,0,0,-1,797,477,0,0
-420,547,0,0,0,0,0,0,0,0,0,-1,804,477,0,0
-413,547,0,0,0,0,0,0,0,0,0,-1,811,477,0,0
-406,547,0.144592,-11.0292,0,0,0,0,0,0,0,-1,818,477,0.144583,11.0292
-399,547,0.775513,-10.0294,0,0,0,0,0,0,0,-1,825,477,0.775482,10.0295
-392,547,-1.52271,-4.41675,0,0,0,0,0,0,0,-1,832,477,-1.52273,4.41674
-385,547,-1.73743,-4.6431,0,0,0,0,0,0,0,-1,839,477,-1.73743,4.64308
-378,547,0.932617,-26.3074,0,0,0,0,0,0,0,-1,846,477,0.932614,26.3074
-371,547,0.791626,-27.3865,0.00206864,0.027744,-0.00807417,0.030072,-0.000259375,-1.29008,0.020135,0.0437887,853,477,0.791623,27.3865
-364,547,0.685913,-28.3725,0.00137643,0.0279849,-0.00865273,0.0305512,-0.00118983,-1.28248,0.0207754,0.0437513,860,477,0.685938,28.3725
-357,547,0.656677,-29.4194,0.000702023,0.0268951,-0.00883991,0.0295993,-0.00200218,-1.27393,0.020433,0.0473745,867,477,0.656661,29.4194
-350,547,0.828796,-31.1763,0,0,0,0,0,0,0,-1,874,477,0.828824,31.1763
-343,547,0.750366,-32.2527,-0.000282174,0.0217509,-0.00791141,0.0242974,-0.00282862,-1.2594,0.0172188,0.046712,881,477,0.750342,32.2527
-336,547,0.747864,-33.3447,-0.000533616,0.0189073,-0.0072232,0.0212972,-0.00292357,-1.25126,0.0152663,0.0190925,888,477,0.74785,33.3447
-329,547,0.638733,-34.2417,-0.000579663,0.0158802,-0.00645153,0.0181075,-0.00280698,-1.23837,0.0131079,0.0112313,895,477,0.638749,34.2417
-322,547,0.579712,-35.1199,-0.00071249,0.0129429,-0.00538582,0.0148114,-0.00258103,-1.23685,0.0108376,0.0118415,902,477,0.579736,35.12
-315,547,0.534424,-36.0034,-0.00068593,0.0115152,-0.00471557,0.0131252,-0.00229598,-1.24177,0.00960735,0.0107252,909,477,0.534429,36.0034
-308,547,0.492859,-36.8484,-0.000628371,0.0082328,-0.00392405,0.00972069,-0.00211625,-1.20837,0.00728901,0.0119912,916,477,0.492845,36.8485
-301,547,0.435425,-37.6755,-0.00043518,0.00561021,-0.00279621,0.00670521,-0.00153019,-1.19755,0.00505796,0.0122834,923,477,0.435396,37.6755
-294,547,0.364258,-38.5084,-6.50908e-05,0.00412684,-0.00207505,0.00498026,-0.000918515,-1.1806,0.00366492,0.0112229,930,477,0.364284,38.5085
-287,547,0.312134,-39.3344,0.000244927,0.00289209,-0.00142909,0.00351637,-0.000379353,-1.15894,0.00248039,0.012869,937,477,0.312136,39.3343
-280,547,0.285217,-40.1528,0.000517706,0.00139958,-0.000867855,0.00193209,-1.48038e-05,-1.02044,0.00129302,0.0141238,944,477,0.285243,40.1528
-273,547,0.25293,-40.9677,0.000773962,-0.00035331,-0.000193087,0.000806118,-0.000385467,-0.165022,0.000702105,0.0141655,951,477,0.252939,40.9677
-266,547,0.183411,-41.742,0.00111,-0.00231228,0.000583758,0.00120684,-0.00240911,0.164385,0.00212579,0.0136553,958,477,0.183441,41.742
-259,547,0.12793,-42.5098,0.0013398,-0.00470208,0.00145231,0.00167077,-0.00503305,0.224063,0.00402945,0.0118448,965,477,0.127941,42.5098
-252,547,0.134216,-43.3114,0.00140099,-0.0072584,0.00254718,0.00209468,-0.00795208,0.265888,0.00612029,0.0116239,972,477,0.1342,43.3114
-245,547,0.117981,-44.0978,0.00158144,-0.0103167,0.00361161,0.0025919,-0.0113272,0.272807,0.00854745,0.0128779,979,477,0.117963,44.0978
-238,547,0.0767822,-44.8795,0.00176906,-0.0134911,0.00479818,0.00315234,-0.0148744,0.280681,0.011117,0.00934988,986,477,0.0767638,44.8795
-231,547,0.0467529,-45.6552,0.00202097,-0.0170271,0.00609467,0.00380411,-0.0188102,0.28463,0.0139818,0.00901185,993,477,0.0467394,45.6551
-224,547,0.0341187,-46.3655,0.00223402,-0.0206162,0.00736727,0.00440339,-0.0227856,0.286367,0.0168511,0.0107849,1000,477,0.0340904,46.3655
-217,547,0.0432129,-47.0373,0.00244447,-0.0241728,0.0086668,0.00501769,-0.026746,0.288615,0.0197172,0.0157194,1007,477,0.0432142,47.0373
-210,547,0.0513916,-47.6433,0.00266591,-0.0276936,0.0098956,0.00560652,-0.0306343,0.288853,0.0225255,0.0264823,1014,477,0.0513825,47.6433
-203,547,0.0455933,-48.0732,0.00290614,-0.0307208,0.0109886,0.00617852,-0.0339932,0.289436,0.0249777,0.0392902,1021,477,0.0455722,48.0733
-196,547,0.109863,-48.6376,0.00290017,-0.0329668,0.0119325,0.00650721,-0.0365739,0.293554,0.0268161,0.0499902,1028,477,0.109867,48.6376
-189,547,0.10498,-49.2696,0,0,0,0,0,0,0,-1,1035,477,0.104953,49.2696
-182,547,0.101807,-49.626,0,0,0,0,0,0,0,-1,1042,477,0.101776,49.626
-175,547,1.37634,-47.526,0,0,0,0,0,0,0,-1,1049,477,1.3763,47.526
-168,547,0.761719,-32.9387,0,0,0,0,0,0,0,-1,1056,477,0.761738,32.9387
-161,547,0.0430908,-34.6016,0,0,0,0,0,0,0,-1,1063,477,0.0431231,34.6016
-154,547,-0.284424,-31.1176,0,0,0,0,0,0,0,-1,1070,477,-0.284395,31.1176
-147,547,3.69434,-26.413,0,0,0,0,0,0,0,-1,1077,477,3.69437,26.413
-140,547,1.55676,-22.5229,0,0,0,0,0,0,0,-1,1084,477,1.5568,22.5229
-133,547,2.31665,-17.9421,0,0,0,0,0,0,0,-1,1091,477,2.31667,17.9421
-126,547,-1.15271,-30.6984,0,0,0,0,0,0,0,-1,1098,477,-1.15267,30.6984
-119,547,0.967651,-24.9351,0,0,0,0,0,0,0,-1,1105,477,0.967657,24.9351
-112,547,1.15674,-22.2276,0,0,0,0,0,0,0,-1,1112,477,1.15677,22.2276
-105,547,0.966797,-20.5777,0,0,0,0,0,0,0,-1,1119,477,0.966804,20.5777
-98,547,0.70166,-18.9755,0,0,0,0,0,0,0,-1,1126,477,0.701713,18.9755
-91,547,1.37805,-7.12024,0,0,0,0,0,0,0,-1,1133,477,1.37804,7.12025
-84,547,1.94202,-6.66241,0,0,0,0,0,0,0,-1,1140,477,1.94201,6.66241
-77,547,-2.28357,1.8588,0,0,0,0,0,0,0,-1,1147,477,-2.28356,-1.85879
-70,547,-3.70178,-0.874908,0,0,0,0,0,0,0,-1,1154,477,-3.70182,0.874918
-63,547,-5.12012,-3.60861,0,0,0,0,0,0,0,-1,1161,477,-5.12009,3.60862
-56,547,-6.01917,-6.2399,0,0,0,0,0,0,0,-1,1168,477,-6.01921,6.23991
-49,547,-6.729,-8.60349,0,0,0,0,0,0,0,-1,1175,477,-6.72899,8.60348
-42,547,-2.41736,-5.53012,0,0,0,0,0,0,0,-1,1182,477,-2.41734,5.53011
-35,547,-2.96838,-4.45734,0,0,0,0,0,0,0,-1,1189,477,-2.96839,4.45734
-28,547,-0.869141,-1.29901,0,0,0,0,0,0,0,-1,1196,477,-0.869135,1.29901
-21,547,-7.68262,-30.8089,0,0,0,0,0,0,0,-1,1203,477,-7.68256,30.8089
-14,547,16.0194,-71.2816,0,0,0,0,0,0,0,-1,1210,477,16.0195,71.2816
-7,547,15.4246,-69.7585,0,0,0,0,0,0,0,-1,1217,477,15.4245,69.7586
0,547,14.8218,-68.1481,0,0,0,0,0,0,0,-1,1224,477,14.8217,68.1481
7,547,10.7118,-65.8726,0,0,0,0,0,0,0,-1,1231,477,10.7117,65.8726
14,547,0,0,0,0,0,0,0,0,0,-1,1238,477,0,0
21,547,0,0,0,0,0,0,0,0,0,-1,1245,477,0,0
28,547,0,0,0,0,0,0,0,0,0,-1,1252,477,0,0
35,547,0,0,0,0,0,0,0,0,0,-1,1259,477,0,0
42,547,0,0,0,0,0,0,0,0,0,-1,1266,477,0,0
49,547,0,0,0,0,0,0,0,0,0,-1,1273,477,0,0
56,547,0,0,0,0,0,0,0,0,0,-1,1280,477,0,0
63,547,0,0,0,0,0,0,0,0,0,-1,1287,477,0,0
70,547,0,0,0,0,0,0,0,0,0,-1,1294,477,0,0
77,547,0,0,0,0,0,0,0,0,0,-1,1301,477,0,0
84,547,0,0,0,0,0,0,0,0,0,-1,1308,477,0,0
91,547,0,0,0,0,0,0,0,0,0,-1,1315,477,0,0
98,547,0,0,0,0,0,0,0,0,0,-1,1322,477,0,0
105,547,4.67786,-69.7896,0,0,0,0,0,0,0,-1,1329,477,4.67785,69.7896
112,547,5.58362,-69.924,0,0,0,0,0,0,0,-1,1336,477,5.58359,69.924
119,547,1.32068,-63.6773,-0.00680633,0.195287,0.0480947,0.206149,-0.0176682,1.34868,0.143684,0.041579,1343,477,1.32067,63.6773
126,547,1.26221,-63.611,0,0,0,0,0,0,0,-1,1350,477,1.26225,63.611
133,547,1.15564,-63.6553,-0.0033559,0.183597,0.0578599,0.200055,-0.019814,1.29367,0.140442,0.0469463,1357,477,1.15558,63.6553
140,547,1.14575,-63.5521,-0.00114398,0.176694,0.0593888,0.194703,-0.0191531,1.27637,0.136635,0.0440216,1364,477,1.14579,63.5521
147,547,1.26367,-63.8025,0.00128255,0.173505,0.0614131,0.193161,-0.0183735,1.26104,0.135315,0.0465829,1371,477,1.26363,63.8025
154,547,1.12451,-63.9427,0.00697369,0.177768,0.0631733,0.198595,-0.0138531,1.25234,0.137248,0.0487747,1378,477,1.12457,63.9427
161,547,0.512329,-63.751,0,0,0,0,0,0,0,-1,1385,477,0.512293,63.751
168,547,0.68689,-68.7853,0,0,0,0,0,0,0,-1,1392,477,0.68688,68.7854
175,547,3.35034,-0.26532,0,0,0,0,0,0,0,-1,1399,477,3.3503,0.265306
182,547,4.26038,3.72672,0,0,0,0,0,0,0,-1,1406,477,4.26039,-3.7267
189,547,3.40454,1.28671,0,0,0,0,0,0,0,-1,1413,477,3.40457,-1.28673
196,547,3.53931,1.87793,0,0,0,0,0,0,0,-1,1420,477,3.53928,-1.87794
203,547,6.49414,-0.425842,0,0,0,0,0,0,0,-1,1427,477,6.4941,0.425844
210,547,4.82092,0.53595,0,0,0,0,0,0,0,-1,1434,477,4.82096,-0.535942
217,547,4.68579,0.480072,0,0,0,0,0,0,0,-1,1441,477,4.68577,-0.480069
224,547,4.55615,0.739807,0,0,0,0,0,0,0,-1,1448,477,4.55613,-0.73981
231,547,5.90869,-3.57721,0,0,0,0,0,0,0,-1,1455,477,5.90871,3.57722
238,547,5.50049,-3.15356,0,0,0,0,0,0,0,-1,1462,477,5.50045,3.15356
245,547,5.13708,-2.65213,0,0,0,0,0,0,0,-1,1469,477,5.13708,2.65212
252,547,3.73511,-0.645233,0,0,0,0,0,0,0,-1,1476,477,3.73515,0.645237
259,547,5.86816,-3.20816,0,0,0,0,0,0,0,-1,1483,477,5.86815,3.20816
266,547,5.40222,-2.45731,0,0,0,0,0,0,0,-1,1490,477,5.40221,2.45732
273,547,3.05737,0.495789,0,0,0,0,0,0,0,-1,1497,477,3.05742,-0.49578
280,547,2.0885,1.47797,0,0,0,0,0,0,0,-1,1504,477,2.08848,-1.47795
287,547,16.7034,-52.6257,0,0,0,0,0,0,0,-1,1511,477,16.7033,52.6258
294,547,2.4823,-3.03659,0,0,0,0,0,0,0,-1,1518,477,2.48229,3.0366
301,547,16.5122,-48.5859,0,0,0,0,0,0,0,-1,1525,477,16.5122,48.5859
308,547,14.5352,-46.2472,0,0,0,0,0,0,0,-1,1532,477,14.5351,46.2472
315,547,16.3188,-48.3778,0,0,0,0,0,0,0,-1,1539,477,16.3188,48.3778
322,547,15.636,-48.4279,0,0,0,0,0,0,0,-1,1546,477,15.6359,48.4279
329,547,15.391,-48.0026,0,0,0,0,0,0,0,-1,1553,477,15.391,48.0026
336,547,15.6263,-47.3412,-0.000509639,-0.0265144,-0.0131849,0.00500564,-0.0320296,-0.396184,0.0232023,0.0459729,1560,477,15.6263,47.3412
343,547,15.4867,-46.8475,-3.55744e-05,-0.0235315,-0.0112412,0.0044762,-0.0280432,-0.381679,0.0203523,0.03562,1567,477,15.4867,46.8476
350,547,15.3507,-46.0521,0.00051941,-0.0197583,-0.00935149,0.00417355,-0.0234124,-0.372511,0.0171694,0.023086,1574,477,15.3507,46.0521
357,547,15.3077,-45.2742,0.000997793,-0.0159091,-0.00756175,0.00388634,-0.0187976,-0.364889,0.0140081,0.0149489,1581,477,15.3077,45.2742
364,547,15.2668,-44.5292,0.00118425,-0.0124219,-0.00583755,0.00334548,-0.0145831,-0.354582,0.011008,0.0114152,1588,477,15.2669,44.5292
371,547,15.2594,-43.7256,0.00131774,-0.0091667,-0.00423822,0.00281669,-0.0106657,-0.339945,0.00821196,0.0101645,1595,477,15.2594,43.7256
378,547,15.2308,-42.9335,0.00144688,-0.00593832,-0.00271581,0.00233804,-0.00682949,-0.31707,0.00550055,0.0108144,1602,477,15.2309,42.9334
385,547,15.179,-42.1401,0.00149159,-0.0032892,-0.00143805,0.00189081,-0.00368842,-0.270797,0.00327643,0.0108946,1609,477,15.1789,42.1401
392,547,15.1556,-41.3092,0.00152364,-0.0011569,-0.000256286,0.00154792,-0.00118118,-0.0944697,0.00158038,0.0117619,1616,477,15.1557,41.3092
399,547,15.1111,-40.5074,0.00141653,0.00114133,0.000617721,0.00191179,0.00064607,0.675809,0.00112293,0.0141039,1623,477,15.1111,40.5074
406,547,15.0989,-39.7152,0.00126828,0.00239243,0.00127773,0.00322625,0.000434464,0.99261,0.00202164,0.0139781,1630,477,15.0989,39.7152
413,547,15.0743,-38.8853,0.0010304,0.00307495,0.00170501,0.00404066,6.46915e-05,1.05545,0.00267247,0.0142184,1637,477,15.0744,38.8853
420,547,15.0265,-38.0551,0.000587064,0.00342562,0.00195111,0.00441905,-0.000406367,1.09985,0.00309041,0.0168871,1644,477,15.0265,38.055
427,547,14.9923,-37.1992,-2.75276e-05,0.00341605,0.00215091,0.00444943,-0.00106091,1.12292,0.00337596,0.0164669,1651,477,14.9923,37.1992
434,547,14.9109,-36.376,-0.000540787,0.00332549,0.00236068,0.00444356,-0.00165885,1.12848,0.00364345,0.0109811,1658,477,14.9109,36.376
441,547,14.8336,-35.5688,-0.00119838,0.00311498,0.00255806,0.00430418,-0.00238758,1.13563,0.00391596,0.0111898,1665,477,14.8336,35.5688
448,547,14.766,-34.6733,-0.00203047,0.00263835,0.00269534,0.00386966,-0.00326178,1.14228,0.00412232,0.0115903,1672,477,14.766,34.6733
455,547,14.7286,-33.7972,-0.00300614,0.00203462,0.00284018,0.00331147,-0.00428299,1.1483,0.0043966,0.0117665,1679,477,14.7287,33.7972
462,547,14.6646,-32.9206,-0.00393139,0.00146977,0.0030059,0.00281005,-0.00527168,1.15137,0.00473759,0.0115509,1686,477,14.6645,32.9206
469,547,14.5266,-32.0287,-0.00470378,0.000985777,0.00320311,0.002425,-0.00614301,1.14851,0.00509963,0.0211891,1693,477,14.5266,32.0287
476,547,14.1249,-31.0204,0,0,0,0,0,0,0,-1,1700,477,14.1249,31.0205
483,547,14.5229,-30.2137,0,0,0,0,0,0,0,-1,1707,477,14.5229,30.2137
490,547,3.65271,-3.71707,0,0,0,0,0,0,0,-1,1714,477,3.65277,3.71708
497,547,2.55481,-3.81421,0,0,0,0,0,0,0,-1,1721,477,2.55476,3.8142
504,547,4.01953,-2.22714,0,0,0,0,0,0,0,-1,1728,477,4.0195,2.22713
511,547,5.2146,-6.9552,0,0,0,0,0,0,0,-1,1735,477,5.21464,6.95521
518,547,5.24243,-6.56122,0,0,0,0,0,0,0,-1,1742,477,5.24241,6.56121
525,547,5.89368,-5.49866,0,0,0,0,0,0,0,-1,1749,477,5.89372,5.49866
532,547,0,0,0,0,0,0,0,0,0,-1,1756,477,0,0
539,547,0,0,0,0,0,0,0,0,0,-1,1763,477,0,0
546,547,0,0,0,0,0,0,0,0,0,-1,1770,477,0,0
553,547,0,0,0,0,0,0,0,0,0,-1,1777,477,0,0
560,547,0,0,0,0,0,0,0,0,0,-1,1784,477,0,0
567,547,0,0,0,0,0,0,0,0,0,-1,1791,477,0,0
574,547,0,0,0,0,0,0,0,0,0,-1,1798,477,0,0
581,547,0,0,0,0,0,0,0,0,0,-1,1805,477,0,0
588,547,0,0,0,0,0,0,0,0,0,-1,1812,477,0,0
595,547,0,0,0,0,0,0,0,0,0,-1,1819,477,0,0
602,547,0,0,0,0,0,0,0,0,0,-1,1826,477,0,0
609,547,0,0,0,0,0,0,0,0,0,-1,1833,477,0,0
616,547,0,0,0,0,0,0,0,0,0,-1,1840,477,0,0
623,547,0,0,0,0,0,0,0,0,0,-1,1847,477,0,0
630,547,0,0,0,0,0,0,0,0,0,-1,1854,477,0,0
637,547,0,0,0,0,0,0,0,0,0,-1,1861,477,0,0
644,547,0,0,0,0,0,0,0,0,0,-1,1868,477,0,0
651,547,0,0,0,0,0,0,0,0,0,-1,1875,477,0,0
658,547,0,0,0,0,0,0,0,0,0,-1,1882,477,0,0
665,547,0,0,0,0,0,0,0,0,0,-1,1889,477,0,0
672,547,0,0,0,0,0,0,0,0,0,-1,1896,477,0,0
679,547,0,0,0,0,0,0,0,0,0,-1,1903,477,0,0
686,547,0,0,0,0,0,0,0,0,0,-1,1910,477,0,0
693,547,0,0,0,0,0,0,0,0,0,-1,1917,477,0,0
700,547,0,0,0,0,0,0,0,0,0,-1,1924,477,0,0
707,547,0,0,0,0,0,0,0,0,0,-1,1931,477,0,0
714,547,0,0,0,0,0,0,0,0,0,-1,1938,477,0,0
721,547,0,0,0,0,0,0,0,0,0,-1,1945,477,0,0
728,547,0,0,0,0,0,0,0,0,0,-1,1952,477,0,0
735,547,0,0,0,0,0,0,0,0,0,-1,1959,477,0,0
742,547,0,0,0,0,0,0,0,0,0,-1,1966,477,0,0
749,547,0,0,0,0,0,0,0,0,0,-1,1973,477,0,0
756,547,0,0,0,0,0,0,0,0,0,-1,1980,477,0,0
763,547,0,0,0,0,0,0,0,0,0,-1,1987,477,0,0
770,547,0,0,0,0,0,0,0,0,0,-1,1994,477,0,0
777,547,0,0,0,0,0,0,0,0,0,-1,2001,477,0,0
784,547,0,0,0,0,0,0,0,0,0,-1,2008,477,0,0
791,547,0,0,0,0,0,0,0,0,0,-1,2015,477,0,0
798,547,0,0,0,0,0,0,0,0,0,-1,2022,477,0,0
805,547,0,0,0,0,0,0,0,0,0,-1,2029,477,0,0
812,547,0,0,0,0,0,0,0,0,0,-1,2036,477,0,0
-700,540,0,0,0,0,0,0,0,0,0,-1,524,484,0,0
-693,540,0,0,0,0,0,0,0,0,0,-1,531,484,0,0
-686,540,0,0,0,0,0,0,0,0,0,-1,538,484,0,0
-679,540,0,0,0,0,0,0,0,0,0,-1,545,484,0,0
-672,540,0,0,0,0,0,0,0,0,0,-1,552,484,0,0
-665,540,0,0,0,0,0,0,0,0,0,-1,559,484,0,0
-658,540,0,0,0,0,0,0,0,0,0,-1,566,484,0,0
-651,540,0,0,0,0,0,0,0,0,0,-1,573,484,0,0
-644,540,0,0,0,0,0,0,0,0,0,-1,580,484,0,0
-637,540,0,0,0,0,0,0,0,0,0,-1,587,484,0,0
-630,540,0,0,0,0,0,0,0,0,0,-1,594,484,0,0
-623,540,0,0,0,0,0,0,0,0,0,-1,601,484,0,0
-616,540,0,0,0,0,0,0,0,0,0,-1,608,484,0,0
-609,540,0,0,0,0,0,0,0,0,0,-1,615,484,0,0
-602,540,0,0,0,0,0,0,0,0,0,-1,622,484,0,0
-595,540,0,0,0,0,0,0,0,0,0,-1,629,484,0,0
-588,540,0,0,0,0,0,0,0,0,0,-1,636,484,0,0
-581,540,0,0,0,0,0,0,0,0,0,-1,643,484,0,0
-574,540,0,0,0,0,0,0,0,0,0,-1,650,484,0,0
-567,540,0,0,0,0,0,0,0,0,0,-1,657,484,0,0
-560,540,0,0,0,0,0,0,0,0,0,-1,664,484,0,0
-553,540,0,0,0,0,0,0,0,0,0,-1,671,484,0,0
-546,540,0,0,0,0,0,0,0,0,0,-1,678,484,0,0
-539,540,0,0,0,0,0,0,0,0,0,-1,685,484,0,0
-532,540,0,0,0,0,0,0,0,0,0,-1,692,484,0,0
-525,540,0,0,0,0,0,0,0,0,0,-1,699,484,0,0
-518,540,0,0,0,0,0,0,0,0,0,-1,706,484,0,0
-511,540,0,0,0,0,0,0,0,0,0,-1,713,484,0,0
-504,540,0,0,0,0,0,0,0,0,0,-1,720,484,0,0
-497,540,0,0,0,0,0,0,0,0,0,-1,727,484,0,0
-490,540,0,0,0,0,0,0,0,0,0,-1,734,484,0,0
-483,540,0,0,0,0,0,0,0,0,0,-1,741,484,0,0
-476,540,0,0,0,0,0,0,0,0,0,-1,748,484,0,0
-469,540,0,0,0,0,0,0,0,0,0,-1,755,484,0,0
-462,540,0,0,0,0,0,0,0,0,0,-1,762,484,0,0
-455,540,0,0,0,0,0,0,0,0,0,-1,769,484,0,0
-448,540,0,0,0,0,0,0,0,0,0,-1,776,484,0,0
-441,540,0,0,0,0,0,0,0,0,0,-1,783,484,0,0
-434,540,0,0,0,0,0,0,0,0,0,-1,790,484,0,0
-427,540,0,0,0,0,0,0,0,0,0,-1,797,484,0,0
-420,540,0.227051,-10.0402,0,0,0,0,0,0,0,-1,804,484,0.227063,10.0402
-413,540,-0.0393677,-10.3862,0,0,0,0,0,0,0,-1,811,484,-0.0393683,10.3862
-406,540,-0.518372,-11.5288,0,0,0,0,0,0,0,-1,818,484,-0.518402,11.5288
-399,540,0.0863037,-11.3801,0,0,0,0,0,0,0,-1,825,484,0.0863201,11.3801
-392,540,-0.517395,-10.6735,0,0,0,0,0,0,0,-1,832,484,-0.517377,10.6735
-385,540,-2.29407,-5.03418,0,0,0,0,0,0,0,-1,839,484,-2.29408,5.03418
-378,540,1.51166,-25.4944,0,0,0,0,0,0,0,-1,846,484,1.51166,25.4944
-371,540,0.110962,-28.0862,0,0,0,0,0,0,0,-1,853,484,0.110983,28.0863
-364,540,0.247253,-28.9861,0,0,0,0,0,0,0,-1,860,484,0.247245,28.9861
-357,540,0.142151,-30.0663,0.00254913,0.0235202,-0.00980499,0.0273903,-0.00132097,-1.19486,0.0187161,0.0483105,867,484,0.142157,30.0663
-350,540,0.00915527,-31.1819,0.0017019,0.0209542,-0.0088578,0.0244094,-0.00175337,-1.19887,0.0168878,0.0350943,874,484,0.00915954,31.1819
-343,540,-0.0721436,-32.3555,0.0010169,0.0182205,-0.00777631,0.0212144,-0.00197708,-1.20328,0.0148459,0.0188555,881,484,-0.0721562,32.3554
-336,540,-0.142395,-33.4119,0.000520404,0.0154656,-0.00670692,0.018034,-0.00204805,-1.20507,0.0127603,0.0133329,888,484,-0.142391,33.412
-329,540,-0.19519,-34.2556,0.000214217,0.0127044,-0.00564984,0.0148808,-0.00196221,-1.2031,0.0106351,0.010505,895,484,-0.195208,34.2556
-322,540,-0.262024,-35.1002,-0.000109515,0.00997741,-0.00440698,0.0116316,-0.00176367,-1.21172,0.00840418,0.0150396,902,484,-0.262013,35.1001
-315,540,-0.319336,-35.9443,-0.000224695,0.00842152,-0.00352644,0.00967739,-0.00148057,-1.22867,0.00699752,0.013447,909,484,-0.319353,35.9443
-308,540,-0.337646,-36.7872,-0.000208113,0.00577082,-0.00269351,0.00680527,-0.00124256,-1.20411,0.00500274,0.0128272,916,484,-0.337648,36.7872
-301,540,-0.420898,-37.5848,-3.31919e-05,0.00360494,-0.00170167,0.00427679,-0.000705042,-1.19476,0.00311294,0.0137429,923,484,-0.420904,37.5848
-294,540,-0.461548,-38.4233,0.000313396,0.0023286,-0.00101821,0.00275348,-0.000111487,-1.17548,0.00187392,0.0125069,930,484,-0.461572,38.4233
-287,540,-0.484009,-39.2706,0.00064019,0.0012018,-0.000397269,0.00140749,0.000434504,-1.09305,0.000832201,0.00909681,937,484,-0.483989,39.2706
-280,540,-0.533508,-40.0868,0.00087776,-0.000428143,0.000196344,0.000906642,-0.000457025,0.146051,0.000801451,0.0102276,944,484,-0.533528,40.0868
-273,540,-0.549744,-40.8851,0.00111334,-0.00240737,0.000937855,0.00134758,-0.00264161,0.244758,0.00234321,0.0127516,951,484,-0.549755,40.8851
-266,540,-0.5896,-41.6888,0.00149117,-0.00460345,0.00179362,0.00197984,-0.00509212,0.265994,0.00421273,0.0143484,958,484,-0.589569,41.6888
-259,540,-0.653625,-42.5121,0.00172834,-0.00722876,0.00275348,0.00250708,-0.0080075,0.275621,0.00634143,0.0132846,965,484,-0.653635,42.5121
-252,540,-0.661804,-43.2665,0.00173176,-0.0101473,0.00397713,0.00294034,-0.0113559,0.295016,0.00871762,0.012554,972,484,-0.66182,43.2665
-245,540,-0.670288,-44.0242,0.00185668,-0.013834,0.00519534,0.00342096,-0.0153982,0.292459,0.0115756,0.0129338,979,484,-0.670304,44.0242
-238,540,-0.719482,-44.7839,0.0019473,-0.0176636,0.00657057,0.00394521,-0.0196615,0.295185,0.0146015,0.0109236,986,484,-0.719463,44.7839
-231,540,-0.732666,-45.5298,0.00210949,-0.021963,0.00809433,0.00457805,-0.0244316,0.296014,0.0180088,0.0141975,993,484,-0.732679,45.5298
-224,540,-0.754517,-46.2148,0.00223264,-0.0264696,0.00963128,0.00516493,-0.0294018,0.295539,0.0215304,0.0200675,1000,484,-0.754492,46.2148
-217,540,-0.747131,-46.7136,0.0023216,-0.03091,0.0112465,0.00576992,-0.0343583,0.297512,0.0250513,0.0310515,1007,484,-0.74711,46.7136
-210,540,-0.701111,-47.3082,0.00238843,-0.0353515,0.0128268,0.00633519,-0.0392983,0.298502,0.0285459,0.0425465,1014,484,-0.701083,47.3082
-203,540,-0.908936,-47.9325,0.0024423,-0.0393027,0.0142785,0.00685884,-0.0437192,0.299981,0.0316809,0.0433317,1021,484,-0.908924,47.9325
-196,540,-0.623169,-48.2665,0,0,0,0,0,0,0,-1,1028,484,-0.623214,48.2665
-189,540,-1.75879,-48.383,0,0,0,0,0,0,0,-1,1035,484,-1.75882,48.383
-182,540,-0.826782,-43.3494,0,0,0,0,0,0,0,-1,1042,484,-0.826777,43.3494
-175,540,1.73413,-10.728,0,0,0,0,0,0,0,-1,1049,484,1.73414,10.728
-168,540,1.18164,-7.65347,0,0,0,0,0,0,0,-1,1056,484,1.18163,7.65347
-161,540,-0.405884,-9.86481,0,0,0,0,0,0,0,-1,1063,484,-0.405886,9.8648
-154,540,1.96863,-22.0727,0,0,0,0,0,0,0,-1,1070,484,1.96859,22.0727
-147,540,1.32764,-21.9952,0,0,0,0,0,0,0,-1,1077,484,1.32762,21.9952
-140,540,1.40735,-15.6289,0,0,0,0,0,0,0,-1,1084,484,1.4073,15.6289
-133,540,2.28345,-17.6413,0,0,0,0,0,0,0,-1,1091,484,2.2835,17.6413
-126,540,1.25293,-23.9108,0,0,0,0,0,0,0,-1,1098,484,1.25288,23.9108
-119,540,1.55969,-23.0125,0,0,0,0,0,0,0,-1,1105,484,1.55968,23.0125
-112,540,1.4801,-21.6515,0,0,0,0,0,0,0,-1,1112,484,1.4801,21.6515
-105,540,1.30078,-19.8938,0,0,0,0,0,0,0,-1,1119,484,1.30077,19.8938
-98,540,1.08105,-18.1304,0,0,0,0,0,0,0,-1,1126,484,1.08101,18.1304
-91,540,1.56519,-7.48666,0,0,0,0,0,0,0,-1,1133,484,1.56514,7.48667
-84,540,-0.945923,4.43073,0,0,0,0,0,0,0,-1,1140,484,-0.945891,-4.43074
-77,540,-2.28894,2.14368,0,0,0,0,0,0,0,-1,1147,484,-2.28894,-2.14368
-70,540,-3.75244,-0.452576,0,0,0,0,0,0,0,-1,1154,484,-3.75244,0.452576
-63,540,-5.26257,-3.04767,0,0,0,0,0,0,0,-1,1161,484,-5.26262,3.04766
-56,540,-5.19055,-6.12595,0,0,0,0,0,0,0,-1,1168,484,-5.19057,6.12595
-49,540,-5.63867,-8.52298,0,0,0,0,0,0,0,-1,1175,484,-5.63871,8.52298
-42,540,0,0,0,0,0,0,0,0,0,-1,1182,484,0,0
-35,540,0,0,0,0,0,0,0,0,0,-1,1189,484,0,0
-28,540,0,0,0,0,0,0,0,0,0,-1,1196,484,0,0
-21,540,0,0,0,0,0,0,0,0,0,-1,1203,484,0,0
-14,540,0,0,0,0,0,0,0,0,0,-1,1210,484,0,0
-7,540,0,0,0,0,0,0,0,0,0,-1,1217,484,0,0
0,540,0,0,0,0,0,0,0,0,0,-1,1224,484,0,0
7,540,0,0,0,0,0,0,0,0,0,-1,1231,484,0,0
14,540,0,0,0,0,0,0,0,0,0,-1,1238,484,0,0
21,540,0,0,0,0,0,0,0,0,0,-1,1245,484,0,0
28,540,0,0,0,0,0,0,0,0,0,-1,1252,484,0,0
35,540,0,0,0,0,0,0,0,0,0,-1,1259,484,0,0
42,540,0,0,0,0,0,0,0,0,0,-1,1266,484,0,0
49,540,0,0,0,0,0,0,0,0,0,-1,1273,484,0,0
56,540,0,0,0,0,0,0,0,0,0,-1,1280,484,0,0
63,540,0,0,0,0,0,0,0,0,0,-1,1287,484,0,0
70,540,0,0,0,0,0,0,0,0,0,-1,1294,484,0,0
77,540,0,0,0,0,0,0,0,0,0,-1,1301,484,0,0
84,540,0,0,0,0,0,0,0,0,0,-1,1308,484,0,0
91,540,0,0,0,0,0,0,0,0,0,-1,1315,484,0,0
98,540,0,0,0,0,0,0,0,0,0,-1,1322,484,0,0
105,540,0,0,0,0,0,0,0,0,0,-1,1329,484,0,0
112,540,0,0,0,0,0,0,0,0,0,-1,1336,484,0,0
119,540,0,0,0,0,0,0,0,0,0,-1,1343,484,0,0
126,540,0,0,0,0,0,0,0,0,0,-1,1350,484,0,0
133,540,0,0,0,0,0,0,0,0,0,-1,1357,484,0,0
140,540,0,0,0,0,0,0,0,0,0,-1,1364,484,0,0
147,540,0,0,0,0,0,0,0,0,0,-1,1371,484,0,0
154,540,0,0,0,0,0,0,0,0,0,-1,1378,484,0,0
161,540,0,0,0,0,0,0,0,0,0,-1,1385,484,0,0
168,540,3.05078,-0.0010376,0,0,0,0,0,0,0,-1,1392,484,3.05084,0.00102554
175,540,3.37708,0.617035,0,0,0,0,0,0,0,-1,1399,484,3.37707,-0.617046
182,540,3.32678,1.23267,0,0,0,0,0,0,0,-1,1406,484,3.32678,-1.23266
189,540,3.5813,2.15619,0,0,0,0,0,0,0,-1,1413,484,3.58129,-2.1562
196,540,1.84448,-0.801483,0,0,0,0,0,0,0,-1,1420,484,1.84446,0.80148
203,540,4.14648,0.702087,0,0,0,0,0,0,0,-1,1427,484,4.14645,-0.702089
210,540,4.50671,-0.56076,0,0,0,0,0,0,0,-1,1434,484,4.50667,0.560771
217,540,5.00452,-0.278717,0,0,0,0,0,0,0,-1,1441,484,5.00452,0.278709
224,540,6.44458,-2.83527,0,0,0,0,0,0,0,-1,1448,484,6.44457,2.83525
231,540,6.9231,-3.10504,0,0,0,0,0,0,0,-1,1455,484,6.92307,3.10505
238,540,6.4823,-2.58365,0,0,0,0,0,0,0,-1,1462,484,6.48225,2.58363
245,540,6.02087,-1.97916,0,0,0,0,0,0,0,-1,1469,484,6.02088,1.97915
252,540,6.50647,-3.56006,0,0,0,0,0,0,0,-1,1476,484,6.50649,3.56006
259,540,6.01941,-2.798,0,0,0,0,0,0,0,-1,1483,484,6.01941,2.79801
266,540,5.5332,-2.02853,0,0,0,0,0,0,0,-1,1490,484,5.53323,2.02855
273,540,5.06787,-1.28137,0,0,0,0,0,0,0,-1,1497,484,5.06786,1.28136
280,540,1.62903,-2.14609,0,0,0,0,0,0,0,-1,1504,484,1.62906,2.1461
287,540,1.97156,-2.45053,0,0,0,0,0,0,0,-1,1511,484,1.97159,2.45053
294,540,2.44165,-2.6185,0,0,0,0,0,0,0,-1,1518,484,2.44167,2.6185
301,540,4.36169,-2.54272,0,0,0,0,0,0,0,-1,1525,484,4.36165,2.54272
308,540,4.2019,-4.30469,0,0,0,0,0,0,0,-1,1532,484,4.20193,4.3047
315,540,4.45923,-5.32101,0,0,0,0,0,0,0,-1,1539,484,4.45923,5.32103
322,540,4.71655,-6.33737,0,0,0,0,0,0,0,-1,1546,484,4.71653,6.33736
329,540,15.0289,-44.3801,0,0,0,0,0,0,0,-1,1553,484,15.0289,44.3801
336,540,16.8168,-47.2615,0,0,0,0,0,0,0,-1,1560,484,16.8168,47.2615
343,540,16.0718,-45.8452,-0.000662173,-0.0320504,-0.0149651,0.00532919,-0.0380418,-0.380813,0.0273114,0.0495186,1567,484,16.0718,45.8451
350,540,16.1864,-45.596,0.000217917,-0.0267797,-0.0124332,0.0050713,-0.0316331,-0.372165,0.0229665,0.0419258,1574,484,16.1864,45.596
357,540,16.1438,-45.0779,0.000982827,-0.0214706,-0.0100596,0.00483041,-0.0253182,-0.365311,0.0186981,0.0332389,1581,484,16.1438,45.0779
364,540,16.0078,-44.4133,0.00133243,-0.0167875,-0.00786942,0.0042729,-0.019728,-0.357594,0.0147836,0.0215603,1588,484,16.0078,44.4133
371,540,16.0032,-43.6542,0.00157304,-0.0125254,-0.00588885,0.00370914,-0.0146615,-0.347976,0.011217,0.0168478,1595,484,16.0031,43.6542
378,540,16.0135,-42.8757,0.00179596,-0.00845372,-0.0040327,0.00319237,-0.00985013,-0.333349,0.00785031,0.013936,1602,484,16.0136,42.8756
385,540,15.9937,-42.0925,0.00193106,-0.00522068,-0.00244527,0.00268719,-0.00597681,-0.299894,0.00512094,0.0145003,1609,484,15.9936,42.0925
392,540,15.9292,-41.2714,0.00199011,-0.00279241,-0.00110888,0.00223471,-0.00303701,-0.217103,0.00305535,0.0126471,1616,484,15.9292,41.2714
399,540,15.9014,-40.4816,0.00182642,-2.36615e-05,-0.000182661,0.00184428,-4.15234e-05,-0.0974775,0.00124359,0.0169053,1623,484,15.9014,40.4816
406,540,15.9185,-39.6777,0.00168065,0.00134038,0.00055834,0.0020942,0.000926828,0.637507,0.00121174,0.017994,1630,484,15.9184,39.6777
413,540,15.908,-38.8611,0.00149321,0.0020719,0.00104139,0.00286339,0.000701718,0.920904,0.00172332,0.0151318,1637,484,15.9079,38.8611
420,540,15.838,-38.0006,0.0011282,0.00249246,0.00131953,0.00329575,0.000324912,1.02396,0.00209727,0.0146534,1644,484,15.838,38.0006
427,540,15.7697,-37.1589,0.000609096,0.00261199,0.00154882,0.00345493,-0.000233841,1.07238,0.00238506,0.0154799,1651,484,15.7697,37.1589
434,540,15.7002,-36.3198,0.00015583,0.00260852,0.00180182,0.00356174,-0.000797386,1.0842,0.00268012,0.0174873,1658,484,15.7002,36.3198
441,540,15.6716,-35.4823,-0.000371497,0.00255546,0.00206397,0.00362215,-0.00143818,1.09379,0.00301092,0.0202999,1665,484,15.6716,35.4823
448,540,15.6188,-34.6395,-0.00102373,0.00226295,0.00226226,0.00341574,-0.00217653,1.09952,0.00325502,0.0121603,1672,484,15.6188,34.6395
455,540,15.5787,-33.7598,-0.001762,0.00189413,0.0024709,0.00313969,-0.00300756,1.10388,0.00354939,0.0108005,1679,484,15.5787,33.7598
462,540,15.4989,-32.8832,-0.00238573,0.00158225,0.00269228,0.0029426,-0.00374608,1.10294,0.00387099,0.0111782,1686,484,15.4989,32.8833
469,540,15.407,-31.9951,-0.00277027,0.00139648,0.00295,0.00292461,-0.0042984,1.09285,0.00419527,0.0158854,1693,484,15.407,31.9951
476,540,15.3621,-31.1562,-0.0032667,0.00120586,0.00321052,0.00288217,-0.00494301,1.0896,0.0045698,0.0235374,1700,484,15.3621,31.1562
483,540,15.407,-30.2198,-0.00356689,0.00120175,0.00354495,0.00308963,-0.00545476,1.08145,0.00499571,0.0388569,1707,484,15.407,30.2198
490,540,15.5822,-29.1626,0,0,0,0,0,0,0,-1,1714,484,15.5822,29.1626
497,540,10.3452,-16.9359,0,0,0,0,0,0,0,-1,1721,484,10.3453,16.9359
504,540,12.519,-18.0764,0,0,0,0,0,0,0,-1,1728,484,12.519,18.0765
511,540,5.82471,-6.83521,0,0,0,0,0,0,0,-1,1735,484,5.82465,6.83522
518,540,9.98181,-12.4608,0,0,0,0,0,0,0,-1,1742,484,9.98187,12.4608
525,540,12.4843,-16.3481,0,0,0,0,0,0,0,-1,1749,484,12.4842,16.3481
532,540,2.84265,-1.07925,0,0,0,0,0,0,0,-1,1756,484,2.84269,1.07927
539,540,0,0,0,0,0,0,0,0,0,-1,1763,484,0,0
546,540,0,0,0,0,0,0,0,0,0,-1,1770,484,0,0
553,540,0,0,0,0,0,0,0,0,0,-1,1777,484,0,0
560,540,0,0,0,0,0,0,0,0,0,-1,1784,484,0,0
567,540,0,0,0,0,0,0,0,0,0,-1,1791,484,0,0
574,540,0,0,0,0,0,0,0,0,0,-1,1798,484,0,0
581,540,0,0,0,0,0,0,0,0,0,-1,1805,484,0,0
588,540,0,0,0,0,0,0,0,0,0,-1,1812,484,0,0
595,540,0,0,0,0,0,0,0,0,0,-1,1819,484,0,0
602,540,0,0,0,0,0,0,0,0,0,-1,1826,484,0,0
609,540,0,0,0,0,0,0,0,0,0,-1,1833,484,0,0
616,540,0,0,0,0,0,0,0,0,0,-1,1840,484,0,0
623,540,0,0,0,0,0,0,0,0,0,-1,1847,484,0,0
630,540,0,0,0,0,0,0,0,0,0,-1,1854,484,0,0
637,540,0,0,0,0,0,0,0,0,0,-1,1861,484,0,0
644,540,0,0,0,0,0,0,0,0,0,-1,1868,484,0,0
651,540,0,0,0,0,0,0,0,0,0,-1,1875,484,0,0
658,540,0,0,0,0,0,0,0,0,0,-1,1882,484,0,0
665,540,0,0,0,0,0,0,0,0,0,-1,1889,484,0,0
672,540,0,0,0,0,0,0,0,0,0,-1,1896,484,0,0
679,540,0,0,0,0,0,0,0,0,0,-1,1903,484,0,0
686,540,0,0,0,0,0,0,0,0,0,-1,1910,484,0,0
693,540,0,0,0,0,0,0,0,0,0,-1,1917,484,0,0
700,540,0,0,0,0,0,0,0,0,0,-1,1924,484,0,0
707,540,0,0,0,0,0,0,0,0,0,-1,1931,484,0,0
714,540,0,0,0,0,0,0,0,0,0,-1,1938,484,0,0
721,540,0,0,0,0,0,0,0,0,0,-1,1945,484,0,0
728,540,0,0,0,0,0,0,0,0,0,-1,1952,484,0,0
735,540,0,0,0,0,0,0,0,0,0,-1,1959,484,0,0
742,540,0,0,0,0,0,0,0,0,0,-1,1966,484,0,0
749,540,0,0,0,0,0,0,0,0,0,-1,1973,484,0,0
756,540,0,0,0,0,0,0,0,0,0,-1,1980,484,0,0
763,540,0,0,0,0,0,0,0,0,0,-1,1987,484,0,0
770,540,0,0,0,0,0,0,0,0,0,-1,1994,484,0,0
777,540,0,0,0,0,0,0,0,0,0,-1,2001,484,0,0
784,540,0,0,0,0,0,0,0,0,0,-1,2008,484,0,0
791,540,0,0,0,0,0,0,0,0,0,-1,2015,484,0,0
798,540,0,0,0,0,0,0,0,0,0,-1,2022,484,0,0
805,540,0,0,0,0,0,0,0,0,0,-1,2029,484,0,0
812,540,0,0,0,0,0,0,0,0,0,-1,2036,484,0,0
-700,533,0,0,0,0,0,0,0,0,0,-1,524,491,0,0
-693,533,0,0,0,0,0,0,0,0,0,-1,531,491,0,0
-686,533,0,0,0,0,0,0,0,0,0,-1,538,491,0,0
-679,533,0,0,0,0,0,0,0,0,0,-1,545,491,0,0
-672,533,0,0,0,0,0,0,0,0,0,-1,552,491,0,0
-665,533,0,0,0,0,0,0,0,0,0,-1,559,491,0,0
-658,533,0,0,0,0,0,0,0,0,0,-1,566,491,0,0
-651,533,0,0,0,0,0,0,0,0,0,-1,573,491,0,0
-644,533,0,0,0,0,0,0,0,0,0,-1,580,491,0,0
-637,533,0,0,0,0,0,0,0,0,0,-1,587,491,0,0
-630,533,0,0,0,0,0,0,0,0,0,-1,594,491,0,0
-623,533,0,0,0,0,0,0,0,0,0,-1,601,491,0,0
-616,533,0,0,0,0,0,0,0,0,0,-1,608,491,0,0
-609,533,0,0,0,0,0,0,0,0,0,-1,615,491,0,0
-602,533,0,0,0,0,0,0,0,0,0,-1,622,491,0,0
-595,533,0,0,0,0,0,0,0,0,0,-1,629,491,0,0
-588,533,0,0,0,0,0,0,0,0,0,-1,636,491,0,0
-581,533,0,0,0,0,0,0,0,0,0,-1,643,491,0,0
-574,533,0,0,0,0,0,0,0,0,0,-1,650,491,0,0
-567,533,0,0,0,0,0,0,0,0,0,-1,657,491,0,0
-560,533,0,0,0,0,0,0,0,0,0,-1,664,491,0,0
-553,533,0,0,0,0,0,0,0,0,0,-1,671,491,0,0
-546,533,0,0,0,0,0,0,0,0,0,-1,678,491,0,0
-539,533,0,0,0,0,0,0,0,0,0,-1,685,491,0,0
-532,533,0,0,0,0,0,0,0,0,0,-1,692,491,0,0
-525,533,0,0,0,0,0,0,0,0,0,-1,699,491,0,0
-518,533,0,0,0,0,0,0,0,0,0,-1,706,491,0,0
-511,533,0,0,0,0,0,0,0,0,0,-1,713,491,0,0
-504,533,0,0,0,0,0,0,0,0,0,-1,720,491,0,0
-497,533,0,0,0,0,0,0,0,0,0,-1,727,491,0,0
-490,533,0,0,0,0,0,0,0,0,0,-1,734,491,0,0
-483,533,0,0,0,0,0,0,0,0,0,-1,741,491,0,0
-476,533,0,0,0,0,0,0,0,0,0,-1,748,491,0,0
-469,533,0,0,0,0,0,0,0,0,0,-1,755,491,0,0
-462,533,0,0,0,0,0,0,0,0,0,-1,762,491,0,0
-455,533,0,0,0,0,0,0,0,0,0,-1,769,491,0,0
-448,533,0,0,0,0,0,0,0,0,0,-1,776,491,0,0
-441,533,0,0,0,0,0,0,0,0,0,-1,783,491,0,0
-434,533,0,0,0,0,0,0,0,0,0,-1,790,491,0,0
-427,533,0.559814,-4.40222,0,0,0,0,0,0,0,-1,797,491,0.559816,4.40222
-420,533,-1.11127,-10.9054,0,0,0,0,0,0,0,-1,804,491,-1.11124,10.9054
-413,533,-0.704773,-11.0942,0,0,0,0,0,0,0,-1,811,491,-0.704742,11.0942
-406,533,-0.670898,-12.0899,0,0,0,0,0,0,0,-1,818,491,-0.670908,12.0899
-399,533,-0.455017,-12.4423,0,0,0,0,0,0,0,-1,825,491,-0.455032,12.4423
-392,533,-1.89661,-10.3905,0,0,0,0,0,0,0,-1,832,491,-1.89661,10.3905
-385,533,0.797729,-17.0485,0,0,0,0,0,0,0,-1,839,491,0.797746,17.0485
-378,533,-1.89435,-19.6771,0,0,0,0,0,0,0,-1,846,491,-1.89433,19.6771
-371,533,-0.94281,-28.6716,0,0,0,0,0,0,0,-1,853,491,-0.942798,28.6716
-364,533,-0.870361,-29.6113,0.00442163,0.0218313,-0.0107787,0.0269813,-0.000728319,-1.12508,0.0182351,0.0495821,860,491,-0.870385,29.6112
-357,533,-0.769775,-30.5317,0.003434,0.0198607,-0.0096862,0.024347,-0.00105231,-1.13705,0.0165933,0.0248814,867,491,-0.769802,30.5317
-350,533,-0.820984,-31.5098,0.00250661,0.0173618,-0.00841182,0.021156,-0.00128756,-1.14707,0.0145522,0.0133262,874,491,-0.820975,31.5098
-343,533,-0.888245,-32.4636,0.00175011,0.0147381,-0.00710121,0.017867,-0.00137874,-1.15578,0.0123965,0.0127205,881,491,-0.888236,32.4636
-336,533,-0.965759,-33.3573,0.00115601,0.0121676,-0.00585225,0.0146969,-0.00137328,-1.16285,0.0102863,0.0160295,888,491,-0.965753,33.3573
-329,533,-1.01611,-34.1916,0.000706817,0.00970759,-0.0046566,0.0116831,-0.0012687,-1.16957,0.00824425,0.0140656,895,491,-1.0161,34.1916
-322,533,-1.07227,-35.0333,0.000288177,0.00722315,-0.0033421,0.00857158,-0.00106026,-1.1873,0.00609861,0.0119316,902,491,-1.07227,35.0333
-315,533,-1.14423,-35.8768,0.000113737,0.00560693,-0.00234566,0.00647225,-0.000751582,-1.21738,0.00458593,0.0128508,909,491,-1.14423,35.8768
-308,533,-1.19727,-36.7261,0.000146666,0.00351398,-0.0015086,0.00409098,-0.000430334,-1.20549,0.0028815,0.0125328,916,491,-1.19727,36.7262
-301,533,-1.26495,-37.5399,0.000354287,0.00182384,-0.000674691,0.00208661,9.15141e-05,-1.1994,0.00136159,0.0145739,923,491,-1.26497,37.5398
-294,533,-1.26904,-38.3688,0.000723022,0.000770639,-4.9988e-05,0.000802199,0.000691462,-1.00764,0.000501975,0.013604,930,491,-1.26902,38.3688
-287,533,-1.28174,-39.2157,0.00111468,-0.000248673,0.000524978,0.0012934,-0.000427394,0.328129,0.00103459,0.0101358,937,491,-1.28173,39.2157
-280,533,-1.33417,-40.0463,0.00136274,-0.00204132,0.00113686,0.0017075,-0.00238608,0.294443,0.00237423,0.00918771,944,491,-1.3342,40.0463
-273,533,-1.36908,-40.828,0.00160942,-0.00430136,0.00193084,0.00218425,-0.0048762,0.289356,0.00417395,0.0127443,951,491,-1.3691,40.828
-266,533,-1.39703,-41.6323,0.00205806,-0.00681081,0.00286523,0.00290318,-0.00765593,0.286826,0.00629879,0.0131593,958,491,-1.39704,41.6323
-259,533,-1.42139,-42.4563,0.00231986,-0.00975631,0.00393092,0.00348667,-0.0109231,0.288546,0.00868094,0.0135592,965,491,-1.42137,42.4563
-252,533,-1.44153,-43.238,0.00224461,-0.013186,0.0053203,0.00390115,-0.0148426,0.301848,0.0114197,0.0187216,972,491,-1.44154,43.238
-245,533,-1.49573,-43.9816,0.00225431,-0.0177742,0.00675707,0.00432075,-0.0198406,0.296787,0.014878,0.0264625,979,491,-1.49575,43.9816
-238,533,-1.4353,-44.5911,0.0021494,-0.0225748,0.00841074,0.00473929,-0.0251647,0.298713,0.0185591,0.0279521,986,491,-1.43527,44.5911
-231,533,-1.44415,-45.0618,0.0021166,-0.0279851,0.0102743,0.00528907,-0.0311575,0.29949,0.0227407,0.0358945,993,491,-1.44415,45.0618
-224,533,-1.63391,-45.5684,0.00198457,-0.0337121,0.012195,0.00575293,-0.0374805,0.2997,0.0271089,0.0419405,1000,491,-1.6339,45.5684
-217,533,-1.64038,-46.401,0.00178597,-0.0393762,0.0142532,0.00623955,-0.0438298,0.30285,0.0315064,0.0453866,1007,491,-1.64036,46.401
-210,533,-1.38269,-47.1181,0,0,0,0,0,0,0,-1,1014,491,-1.38267,47.1181
-203,533,-1.72467,-47.8401,0,0,0,0,0,0,0,-1,1021,491,-1.72468,47.8401
-196,533,-1.44006,-47.6236,0,0,0,0,0,0,0,-1,1028,491,-1.44005,47.6236
-189,533,-1.75317,-43.4744,0,0,0,0,0,0,0,-1,1035,491,-1.75312,43.4744
-182,533,1.26123,-11.4969,0,0,0,0,0,0,0,-1,1042,491,1.26128,11.4969
-175,533,0.937744,-7.36966,0,0,0,0,0,0,0,-1,1049,491,0.937769,7.36965
-168,533,2.64807,-2.7543,0,0,0,0,0,0,0,-1,1056,491,2.64812,2.7543
-161,533,1.91833,-1.76553,0,0,0,0,0,0,0,-1,1063,491,1.91836,1.76554
-154,533,0.376709,-11.0633,0,0,0,0,0,0,0,-1,1070,491,0.376715,11.0632
-147,533,0.383789,-12.1586,0,0,0,0,0,0,0,-1,1077,491,0.383829,12.1586
-140,533,1.14001,-15.4608,0,0,0,0,0,0,0,-1,1084,491,1.14005,15.4608
-133,533,0.189941,-16.0795,0,0,0,0,0,0,0,-1,1091,491,0.18994,16.0795
-126,533,2.89612,-2.59003,0,0,0,0,0,0,0,-1,1098,491,2.89608,2.59003
-119,533,1.78284,-22.5394,0,0,0,0,0,0,0,-1,1105,491,1.78279,22.5394
-112,533,1.83862,-21.2401,0,0,0,0,0,0,0,-1,1112,491,1.83859,21.24
-105,533,1.67554,-19.4018,0,0,0,0,0,0,0,-1,1119,491,1.6755,19.4018
-98,533,-1.39392,-5.16367,0,0,0,0,0,0,0,-1,1126,491,-1.39394,5.16367
-91,533,0.367432,4.49753,0,0,0,0,0,0,0,-1,1133,491,0.367468,-4.49754
-84,533,-0.88623,3.03604,0,0,0,0,0,0,0,-1,1140,491,-0.886288,-3.03605
-77,533,0,0,0,0,0,0,0,0,0,-1,1147,491,0,0
-70,533,0,0,0,0,0,0,0,0,0,-1,1154,491,0,0
-63,533,0,0,0,0,0,0,0,0,0,-1,1161,491,0,0
-56,533,0,0,0,0,0,0,0,0,0,-1,1168,491,0,0
-49,533,0,0,0,0,0,0,0,0,0,-1,1175,491,0,0
-42,533,0,0,0,0,0,0,0,0,0,-1,1182,491,0,0
-35,533,0,0,0,0,0,0,0,0,0,-1,1189,491,0,0
-28,533,0,0,0,0,0,0,0,0,0,-1,1196,491,0,0
-21,533,0,0,0,0,0,0,0,0,0,-1,1203,491,0,0
-14,533,0,0,0,0,0,0,0,0,0,-1,1210,491,0,0
-7,533,0,0,0,0,0,0,0,0,0,-1,1217,491,0,0
0,533,0,0,0,0,0,0,0,0,0,-1,1224,491,0,0
7,533,0,0,0,0,0,0,0,0,0,-1,1231,491,0,0
14,533,0,0,0,0,0,0,0,0,0,-1,1238,491,0,0
21,533,0,0,0,0,0,0,0,0,0,-1,1245,491,0,0
28,533,0,0,0,0,0,0,0,0,0,-1,1252,491,0,0
35,533,0,0,0,0,0,0,0,0,0,-1,1259,491,0,0
42,533,0,0,0,0,0,0,0,0,0,-1,1266,491,0,0
49,533,0,0,0,0,0,0,0,0,0,-1,1273,491,0,0
56,533,0,0,0,0,0,0,0,0,0,-1,1280,491,0,0
63,533,0,0,0,0,0,0,0,0,0,-1,1287,491,0,0
70,533,0,0,0,0,0,0,0,0,0,-1,1294,491,0,0
77,533,0,0,0,0,0,0,0,0,0,-1,1301,491,0,0
84,533,0,0,0,0,0,0,0,0,0,-1,1308,491,0,0
91,533,0,0,0,0,0,0,0,0,0,-1,1315,491,0,0
98,533,0,0,0,0,0,0,0,0,0,-1,1322,491,0,0
105,533,0,0,0,0,0,0,0,0,0,-1,1329,491,0,0
112,533,0,0,0,0,0,0,0,0,0,-1,1336,491,0,0
119,533,0,0,0,0,0,0,0,0,0,-1,1343,491,0,0
126,533,0,0,0,0,0,0,0,0,0,-1,1350,491,0,0
133,533,0,0,0,0,0,0,0,0,0,-1,1357,491,0,0
140,533,0,0,0,0,0,0,0,0,0,-1,1364,491,0,0
147,533,0,0,0,0,0,0,0,0,0,-1,1371,491,0,0
154,533,0,0,0,0,0,0,0,0,0,-1,1378,491,0,0
161,533,0,0,0,0,0,0,0,0,0,-1,1385,491,0,0
168,533,0,0,0,0,0,0,0,0,0,-1,1392,491,0,0
175,533,0,0,0,0,0,0,0,0,0,-1,1399,491,0,0
182,533,0,0,0,0,0,0,0,0,0,-1,1406,491,0,0
189,533,0,0,0,0,0,0,0,0,0,-1,1413,491,0,0
196,533,0,0,0,0,0,0,0,0,0,-1,1420,491,0,0
203,533,3.7887,1.16193,0,0,0,0,0,0,0,-1,1427,491,3.78872,-1.16193
210,533,5.09558,-0.216034,0,0,0,0,0,0,0,-1,1434,491,5.09559,0.216028
217,533,6.91614,-2.46814,0,0,0,0,0,0,0,-1,1441,491,6.91618,2.46814
224,533,7.23621,-2.1857,0,0,0,0,0,0,0,-1,1448,491,7.23621,2.1857
231,533,7.23474,-1.92282,0,0,0,0,0,0,0,-1,1455,491,7.2347,1.92282
238,533,7.23535,-1.67258,0,0,0,0,0,0,0,-1,1462,491,7.23539,1.67258
245,533,6.86682,-1.2301,0,0,0,0,0,0,0,-1,1469,491,6.86686,1.23011
252,533,6.63354,-3.07825,0,0,0,0,0,0,0,-1,1476,491,6.6335,3.07824
259,533,6.16431,-2.35037,0,0,0,0,0,0,0,-1,1483,491,6.1643,2.35037
266,533,5.68884,-1.6214,0,0,0,0,0,0,0,-1,1490,491,5.68885,1.6214
273,533,5.21399,-0.864227,0,0,0,0,0,0,0,-1,1497,491,5.21403,0.864227
280,533,1.41089,-1.97946,0,0,0,0,0,0,0,-1,1504,491,1.41087,1.97946
287,533,1.6814,-2.44443,0,0,0,0,0,0,0,-1,1511,491,1.6814,2.44444
294,533,2.2384,-2.57626,0,0,0,0,0,0,0,-1,1518,491,2.23839,2.57625
301,533,3.39941,-4.0817,0,0,0,0,0,0,0,-1,1525,491,3.3994,4.08171
308,533,4.13733,-4.14752,0,0,0,0,0,0,0,-1,1532,491,4.13727,4.14752
315,533,4.80762,-5.29349,0,0,0,0,0,0,0,-1,1539,491,4.80762,5.29347
322,533,5.47803,-6.43942,0,0,0,0,0,0,0,-1,1546,491,5.47798,6.43943
329,533,3.88477,-3.86301,0,0,0,0,0,0,0,-1,1553,491,3.88475,3.86299
336,533,14.5214,-40.908,0,0,0,0,0,0,0,-1,1560,491,14.5214,40.908
343,533,16.3387,-44.9998,0,0,0,0,0,0,0,-1,1567,491,16.3387,44.9998
350,533,16.7865,-45.0857,0,0,0,0,0,0,0,-1,1574,491,16.7865,45.0857
357,533,16.9146,-44.9563,0,0,0,0,0,0,0,-1,1581,491,16.9145,44.9563
364,533,16.6984,-44.4108,0,0,0,0,0,0,0,-1,1588,491,16.6984,44.4108
371,533,16.7407,-43.6225,0,0,0,0,0,0,0,-1,1595,491,16.7407,43.6225
378,533,16.8014,-42.7977,0,0,0,0,0,0,0,-1,1602,491,16.8014,42.7977
385,533,16.8445,-42.0154,0.0024886,-0.00636496,-0.00312749,0.00348193,-0.00735829,-0.307536,0.00639059,0.0402399,1609,491,16.8444,42.0154
392,533,16.7733,-41.2349,0.00256294,-0.00367782,-0.00164027,0.00296779,-0.00408267,-0.241983,0.00408751,0.0158204,1616,491,16.7733,41.2349
399,533,16.7405,-40.4424,0.00232168,-0.00051084,-0.000690426,0.00248101,-0.000670168,-0.226798,0.00191685,0.0128925,1623,491,16.7405,40.4424
406,533,16.7524,-39.6263,0.00216645,0.000847047,9.30093e-05,0.00217298,0.000840523,0.0700317,0.00126524,0.0155632,1630,491,16.7525,39.6263
413,533,16.7146,-38.7906,0.00202661,0.00151472,0.000586469,0.00241055,0.00113078,0.579648,0.00139262,0.0143601,1637,491,16.7146,38.7906
420,533,16.6509,-37.9501,0.00172453,0.00190171,0.000855614,0.00267331,0.000952934,0.836986,0.00156449,0.0145275,1644,491,16.6509,37.9501
427,533,16.5815,-37.0857,0.00127108,0.00206006,0.00107734,0.00281286,0.000518276,0.960903,0.00172857,0.015374,1651,491,16.5815,37.0857
434,533,16.5309,-36.2628,0.000841292,0.00207788,0.00132258,0.00291956,-3.85218e-07,1.00405,0.0019465,0.014343,1658,491,16.5309,36.2627
441,533,16.517,-35.4232,0.000401322,0.002092,0.00159486,0.0030517,-0.000558381,1.02909,0.00224387,0.0161552,1665,491,16.517,35.4232
448,533,16.4839,-34.5876,-0.000120419,0.00190741,0.00181401,0.00297163,-0.00118464,1.04024,0.00247245,0.0168225,1672,491,16.4838,34.5876
455,533,16.4203,-33.7047,-0.000695655,0.0017144,0.00205548,0.00289203,-0.00187329,1.05052,0.00277214,0.0161506,1679,491,16.4203,33.7047
462,533,16.337,-32.8148,-0.00113209,0.00156454,0.0022897,0.00287342,-0.00244097,1.05149,0.00307165,0.0153435,1686,491,16.337,32.8148
469,533,16.2893,-31.9857,-0.00129156,0.00156256,0.00256445,0.00307027,-0.00279927,1.0393,0.00338999,0.0101407,1693,491,16.2893,31.9857
476,533,16.2604,-31.0898,-0.00154799,0.00158931,0.00284159,0.00326647,-0.00322515,1.0376,0.00374796,0.012354,1700,491,16.2604,31.0898
483,533,16.254,-30.1588,-0.00160188,0.0017919,0.00320205,0.0037189,-0.00352888,1.02905,0.00418498,0.0230918,1707,491,16.2541,30.1588
490,533,16.3204,-29.0762,0,0,0,0,0,0,0,-1,1714,491,16.3204,29.0762
497,533,15.4799,-26.3297,0,0,0,0,0,0,0,-1,1721,491,15.4799,26.3297
504,533,14.6896,-22.6455,0,0,0,0,0,0,0,-1,1728,491,14.6895,22.6455
511,533,13.6221,-19.2798,0,0,0,0,0,0,0,-1,1735,491,13.6221,19.2798
518,533,14.1954,-19.4995,0,0,0,0,0,0,0,-1,1742,491,14.1955,19.4995
525,533,13.7935,-19.6901,0,0,0,0,0,0,0,-1,1749,491,13.7934,19.6901
532,533,15.4377,-17.9016,0,0,0,0,0,0,0,-1,1756,491,15.4377,17.9015
539,533,12.8733,-18.2556,0,0,0,0,0,0,0,-1,1763,491,12.8733,18.2556
546,533,3.59607,1.65799,0,0,0,0,0,0,0,-1,1770,491,3.59605,-1.658
553,533,0,0,0,0,0,0,0,0,0,-1,1777,491,0,0
560,533,0,0,0,0,0,0,0,0,0,-1,1784,491,0,0
567,533,0,0,0,0,0,0,0,0,0,-1,1791,491,0,0
574,533,0,0,0,0,0,0,0,0,0,-1,1798,491,0,0
581,533,0,0,0,0,0,0,0,0,0,-1,1805,491,0,0
588,533,0,0,0,0,0,0,0,0,0,-1,1812,491,0,0
595,533,0,0,0,0,0,0,0,0,0,-1,1819,491,0,0
602,533,0,0,0,0,0,0,0,0,0,-1,1826,491,0,0
609,533,0,0,0,0,0,0,0,0,0,-1,1833,491,0,0
616,533,0,0,0,0,0,0,0,0,0,-1,1840,491,0,0
623,533,0,0,0,0,0,0,0,0,0,-1,1847,491,0,0
630,533,0,0,0,0,0,0,0,0,0,-1,1854,491,0,0
637,533,0,0,0,0,0,0,0,0,0,-1,1861,491,0,0
644,533,0,0,0,0,0,0,0,0,0,-1,1868,491,0,0
651,533,0,0,0,0,0,0,0,0,0,-1,1875,491,0,0
658,533,0,0,0,0,0,0,0,0,0,-1,1882,491,0,0
665,533,0,0,0,0,0,0,0,0,0,-1,1889,491,0,0
672,533,0,0,0,0,0,0,0,0,0,-1,1896,491,0,0
679,533,0,0,0,0,0,0,0,0,0,-1,1903,491,0,0
686,533,0,0,0,0,0,0,0,0,0,-1,1910,491,0,0
693,533,0,0,0,0,0,0,0,0,0,-1,1917,491,0,0
700,533,0,0,0,0,0,0,0,0,0,-1,1924,491,0,0
707,533,0,0,0,0,0,0,0,0,0,-1,1931,491,0,0
714,533,0,0,0,0,0,0,0,0,0,-1,1938,491,0,0
721,533,0,0,0,0,0,0,0,0,0,-1,1945,491,0,0
728,533,0,0,0,0,0,0,0,0,0,-1,1952,491,0,0
735,533,0,0,0,0,0,0,0,0,0,-1,1959,491,0,0
742,533,0,0,0,0,0,0,0,0,0,-1,1966,491,0,0
749,533,0,0,0,0,0,0,0,0,0,-1,1973,491,0,0
756,533,0,0,0,0,0,0,0,0,0,-1,1980,491,0,0
763,533,0,0,0,0,0,0,0,0,0,-1,1987,491,0,0
770,533,0,0,0,0,0,0,0,0,0,-1,1994,491,0,0
777,533,0,0,0,0,0,0,0,0,0,-1,2001,491,0,0
784,533,0,0,0,0,0,0,0,0,0,-1,2008,491,0,0
791,533,0,0,0,0,0,0,0,0,0,-1,2015,491,0,0
798,533,0,0,0,0,0,0,0,0,0,-1,2022,491,0,0
805,533,0,0,0,0,0,0,0,0,0,-1,2029,491,0,0
812,533,0,0,0,0,0,0,0,0,0,-1,2036,491,0,0
-700,526,0,0,0,0,0,0,0,0,0,-1,524,498,0,0
-693,526,0,0,0,0,0,0,0,0,0,-1,531,498,0,0
-686,526,0,0,0,0,0,0,0,0,0,-1,538,498,0,0
-679,526,0,0,0,0,0,0,0,0,0,-1,545,498,0,0
-672,526,0,0,0,0,0,0,0,0,0,-1,552,498,0,0
-665,526,0,0,0,0,0,0,0,0,0,-1,559,498,0,0
-658,526,0,0,0,0,0,0,0,0,0,-1,566,498,0,0
-651,526,0,0,0,0,0,0,0,0,0,-1,573,498,0,0
-644,526,0,0,0,0,0,0,0,0,0,-1,580,498,0,0
-637,526,0,0,0,0,0,0,0,0,0,-1,587,498,0,0
-630,526,0,0,0,0,0,0,0,0,0,-1,594,498,0,0
-623,526,0,0,0,0,0,0,0,0,0,-1,601,498,0,0
-616,526,0,0,0,0,0,0,0,0,0,-1,608,498,0,0
-609,526,0,0,0,0,0,0,0,0,0,-1,615,498,0,0
-602,526,0,0,0,0,0,0,0,0,0,-1,622,498,0,0
-595,526,0,0,0,0,0,0,0,0,0,-1,629,498,0,0
-588,526,0,0,0,0,0,0,0,0,0,-1,636,498,0,0
-581,526,0,0,0,0,0,0,0,0,0,-1,643,498,0,0
-574,526,0,0,0,0,0,0,0,0,0,-1,650,498,0,0
-567,526,0,0,0,0,0,0,0,0,0,-1,657,498,0,0
-560,526,0,0,0,0,0,0,0,0,0,-1,664,498,0,0
-553,526,0,0,0,0,0,0,0,0,0,-1,671,498,0,0
-546,526,0,0,0,0,0,0,0,0,0,-1,678,498,0,0
-539,526,0,0,0,0,0,0,0,0,0,-1,685,498,0,0
-532,526,0,0,0,0,0,0,0,0,0,-1,692,498,0,0
-525,526,0,0,0,0,0,0,0,0,0,-1,699,498,0,0
-518,526,0,0,0,0,0,0,0,0,0,-1,706,498,0,0
-511,526,0,0,0,0,0,0,0,0,0,-1,713,498,0,0
-504,526,0,0,0,0,0,0,0,0,0,-1,720,498,0,0
-497,526,0,0,0,0,0,0,0,0,0,-1,727,498,0,0
-490,526,0,0,0,0,0,0,0,0,0,-1,734,498,0,0
-483,526,0,0,0,0,0,0,0,0,0,-1,741,498,0,0
-476,526,0,0,0,0,0,0,0,0,0,-1,748,498,0,0
-469,526,0,0,0,0,0,0,0,0,0,-1,755,498,0,0
-462,526,0,0,0,0,0,0,0,0,0,-1,762,498,0,0
-455,526,0,0,0,0,0,0,0,0,0,-1,769,498,0,0
-448,526,0,0,0,0,0,0,0,0,0,-1,776,498,0,0
-441,526,0,0,0,0,0,0,0,0,0,-1,783,498,0,0
-434,526,-0.153564,-5.96649,0,0,0,0,0,0,0,-1,790,498,-0.153589,5.9665
-427,526,1.23206,-4.59808,0,0,0,0,0,0,0,-1,797,498,1.23208,4.59809
-420,526,-1.76373,-11.6241,0,0,0,0,0,0,0,-1,804,498,-1.76373,11.6241
-413,526,-1.38965,-11.7916,0,0,0,0,0,0,0,-1,811,498,-1.38963,11.7916
-406,526,-1.35187,-12.5182,0,0,0,0,0,0,0,-1,818,498,-1.35185,12.5181
-399,526,-1.32715,-13.2116,0,0,0,0,0,0,0,-1,825,498,-1.32713,13.2116
-392,526,0.197571,-15.303,0,0,0,0,0,0,0,-1,832,498,0.197598,15.303
-385,526,-2.69397,-19.6176,0,0,0,0,0,0,0,-1,839,498,-2.69399,19.6176
-378,526,-2.31183,-26.8582,0,0,0,0,0,0,0,-1,846,498,-2.31184,26.8582
-371,526,-1.84955,-28.3771,0.00545779,0.0199385,-0.0113347,0.026148,-0.000751711,-1.06962,0.0176879,0.0478356,853,498,-1.84952,28.3771
-364,526,-1.64996,-29.6483,0.00462192,0.018179,-0.0101314,0.0235904,-0.000789434,-1.08023,0.0159965,0.0216865,860,498,-1.64997,29.6483
-357,526,-1.63324,-30.6202,0.00370448,0.0161501,-0.00883621,0.0207348,-0.000880205,-1.09218,0.0141257,0.0131717,867,498,-1.63323,30.6203
-350,526,-1.6618,-31.5098,0.0028352,0.013825,-0.0074498,0.0175872,-0.000926983,-1.10315,0.0120457,0.0123977,874,498,-1.66181,31.5098
-343,526,-1.75452,-32.4149,0.00212131,0.0113985,-0.00607838,0.0144061,-0.000886217,-1.11132,0.00991266,0.0164891,881,498,-1.75453,32.4149
-336,526,-1.80859,-33.2797,0.00152485,0.00905976,-0.0047837,0.0113814,-0.000796827,-1.11895,0.0078667,0.0164321,888,498,-1.80862,33.2797
-329,526,-1.85529,-34.1409,0.00105478,0.00686717,-0.00355631,0.00855372,-0.000631771,-1.12797,0.00592431,0.0157597,895,498,-1.85531,34.1409
-322,526,-1.8894,-34.9727,0.000644463,0.00465024,-0.00225898,0.00566638,-0.000371677,-1.14809,0.00390738,0.0103835,902,498,-1.88943,34.9726
-315,526,-1.95642,-35.8408,0.000486079,0.00303552,-0.00123512,0.00353574,-1.41475e-05,-1.18599,0.00236189,0.00925604,909,498,-1.95641,35.8408
-308,526,-2.02313,-36.7094,0.000577798,0.00143362,-0.000435716,0.00161641,0.000395008,-1.17358,0.000973042,0.00888924,916,498,-2.02314,36.7094
-301,526,-2.07904,-37.5086,0.000835107,0.000232603,0.000223055,0.000908697,0.000159013,0.318673,0.000560365,0.0105789,923,498,-2.07906,37.5086
-294,526,-2.08167,-38.3111,0.00121749,-0.000576646,0.000763274,0.00149826,-0.000857423,0.352495,0.00137673,0.0109621,930,498,-2.08165,38.3111
-287,526,-2.11066,-39.1384,0.00165289,-0.00146996,0.00126916,0.00210363,-0.0019207,0.341256,0.00232425,0.0111064,937,498,-2.11067,39.1383
-280,526,-2.17303,-39.9503,0.00188817,-0.00343978,0.00189214,0.00249176,-0.00404337,0.308792,0.00380834,0.0136499,944,498,-2.17305,39.9503
-273,526,-2.20605,-40.7643,0.0021255,-0.00603972,0.00272161,0.0029495,-0.00686373,0.293991,0.00581397,0.0118948,951,498,-2.20605,40.7643
-266,526,-2.22638,-41.5789,0.00263364,-0.00897105,0.00374221,0.00373574,-0.0100731,0.286407,0.00824769,0.018802,958,498,-2.2264,41.5788
-259,526,-2.19202,-42.4009,0.00291532,-0.0123534,0.00494145,0.00437499,-0.0138131,0.287225,0.010962,0.0479617,965,498,-2.19201,42.4009
-252,526,-2.21942,-43.2508,0,0,0,0,0,0,0,-1,972,498,-2.21943,43.2508
-245,526,-2.25488,-43.9987,0,0,0,0,0,0,0,-1,979,498,-2.25487,43.9987
-238,526,-2.15118,-44.4199,0,0,0,0,0,0,0,-1,986,498,-2.15119,44.4199
-231,526,-2.17432,-43.8591,0,0,0,0,0,0,0,-1,993,498,-2.17433,43.8591
-224,526,-2.45044,-44.3162,0,0,0,0,0,0,0,-1,1000,498,-2.45042,44.3162
-217,526,-2.43433,-46.2315,0,0,0,0,0,0,0,-1,1007,498,-2.43433,46.2315
-210,526,-1.77289,-44.7313,0,0,0,0,0,0,0,-1,1014,498,-1.77289,44.7313
-203,526,-0.659302,-18.8818,0,0,0,0,0,0,0,-1,1021,498,-0.659273,18.8818
-196,526,-0.328247,-12.179,0,0,0,0,0,0,0,-1,1028,498,-0.328238,12.179
-189,526,0.401245,-5.96826,0,0,0,0,0,0,0,-1,1035,498,0.401197,5.96826
-182,526,1.7323,-2.99405,0,0,0,0,0,0,0,-1,1042,498,1.73226,2.99404
-175,526,2.27637,-2.07983,0,0,0,0,0,0,0,-1,1049,498,2.27639,2.07984
-168,526,2.12036,-1.66049,0,0,0,0,0,0,0,-1,1056,498,2.12035,1.66048
-161,526,2.09082,-1.20572,0,0,0,0,0,0,0,-1,1063,498,2.09086,1.2057
-154,526,-1.3446,-5.37799,0,0,0,0,0,0,0,-1,1070,498,-1.34457,5.37799
-147,526,-0.472656,-6.64996,0,0,0,0,0,0,0,-1,1077,498,-0.472659,6.64997
-140,526,0.422852,-8.03339,0,0,0,0,0,0,0,-1,1084,498,0.422844,8.0334
-133,526,1.09583,-9.2215,0,0,0,0,0,0,0,-1,1091,498,1.09581,9.2215
-126,526,3.42529,-2.36053,0,0,0,0,0,0,0,-1,1098,498,3.42523,2.36052
-119,526,2.7771,-0.764099,0,0,0,0,0,0,0,-1,1105,498,2.7771,0.764107
-112,526,2.57715,-1.1893,0,0,0,0,0,0,0,-1,1112,498,2.57718,1.1893
-105,526,0,0,0,0,0,0,0,0,0,-1,1119,498,0,0
-98,526,0,0,0,0,0,0,0,0,0,-1,1126,498,0,0
-91,526,0,0,0,0,0,0,0,0,0,-1,1133,498,0,0
-84,526,0,0,0,0,0,0,0,0,0,-1,1140,498,0,0
-77,526,0,0,0,0,0,0,0,0,0,-1,1147,498,0,0
-70,526,0,0,0,0,0,0,0,0,0,-1,1154,498,0,0
-63,526,0,0,0,0,0,0,0,0,0,-1,1161,498,0,0
-56,526,0,0,0,0,0,0,0,0,0,-1,1168,498,0,0
-49,526,0,0,0,0,0,0,0,0,0,-1,1175,498,0,0
-42,526,0,0,0,0,0,0,0,0,0,-1,1182,498,0,0
-35,526,0,0,0,0,0,0,0,0,0,-1,1189,498,0,0
-28,526,0,0,0,0,0,0,0,0,0,-1,1196,498,0,0
-21,526,0,0,0,0,0,0,0,0,0,-1,1203,498,0,0
-14,526,0,0,0,0,0,0,0,0,0,-1,1210,498,0,0
-7,526,0,0,0,0,0,0,0,0,0,-1,1217,498,0,0
0,526,0,0,0,0,0,0,0,0,0,-1,1224,498,0,0
7,526,0,0,0,0,0,0,0,0,0,-1,1231,498,0,0
14,526,0,0,0,0,0,0,0,0,0,-1,1238,498,0,0
21,526,0,0,0,0,0,0,0,0,0,-1,1245,498,0,0
28,526,0,0,0,0,0,0,0,0,0,-1,1252,498,0,0
35,526,0,0,0,0,0,0,0,0,0,-1,1259,498,0,0
42,526,0,0,0,0,0,0,0,0,0,-1,1266,498,0,0
49,526,0,0,0,0,0,0,0,0,0,-1,1273,498,0,0
56,526,0,0,0,0,0,0,0,0,0,-1,1280,498,0,0
63,526,0,0,0,0,0,0,0,0,0,-1,1287,498,0,0
70,526,0,0,0,0,0,0,0,0,0,-1,1294,498,0,0
77,526,0,0,0,0,0,0,0,0,0,-1,1301,498,0,0
84,526,0,0,0,0,0,0,0,0,0,-1,1308,498,0,0
91,526,0,0,0,0,0,0,0,0,0,-1,1315,498,0,0
98,526,0,0,0,0,0,0,0,0,0,-1,1322,498,0,0
105,526,0,0,0,0,0,0,0,0,0,-1,1329,498,0,0
112,526,0,0,0,0,0,0,0,0,0,-1,1336,498,0,0
119,526,0,0,0,0,0,0,0,0,0,-1,1343,498,0,0
126,526,0,0,0,0,0,0,0,0,0,-1,1350,498,0,0
133,526,0,0,0,0,0,0,0,0,0,-1,1357,498,0,0
140,526,0,0,0,0,0,0,0,0,0,-1,1364,498,0,0
147,526,0,0,0,0,0,0,0,0,0,-1,1371,498,0,0
154,526,0,0,0,0,0,0,0,0,0,-1,1378,498,0,0
161,526,0,0,0,0,0,0,0,0,0,-1,1385,498,0,0
168,526,0,0,0,0,0,0,0,0,0,-1,1392,498,0,0
175,526,0,0,0,0,0,0,0,0,0,-1,1399,498,0,0
182,526,0,0,0,0,0,0,0,0,0,-1,1406,498,0,0
189,526,0,0,0,0,0,0,0,0,0,-1,1413,498,0,0
196,526,0,0,0,0,0,0,0,0,0,-1,1420,498,0,0
203,526,0,0,0,0,0,0,0,0,0,-1,1427,498,0,0
210,526,0,0,0,0,0,0,0,0,0,-1,1434,498,0,0
217,526,0,0,0,0,0,0,0,0,0,-1,1441,498,0,0
224,526,0,0,0,0,0,0,0,0,0,-1,1448,498,0,0
231,526,7.93237,-1.30618,0,0,0,0,0,0,0,-1,1455,498,7.93238,1.30618
238,526,7.97717,-1.08197,0,0,0,0,0,0,0,-1,1462,498,7.97723,1.08196
245,526,7.2793,-0.792938,0,0,0,0,0,0,0,-1,1469,498,7.27931,0.792926
252,526,6.73523,-2.23608,0,0,0,0,0,0,0,-1,1476,498,6.73525,2.23608
259,526,6.22949,-1.84967,0,0,0,0,0,0,0,-1,1483,498,6.22953,1.84968
266,526,5.72375,-1.46329,0,0,0,0,0,0,0,-1,1490,498,5.72381,1.46328
273,526,4.33984,0.49173,0,0,0,0,0,0,0,-1,1497,498,4.33979,-0.491727
280,526,1.4585,-1.59897,0,0,0,0,0,0,0,-1,1504,498,1.45846,1.59895
287,526,1.46411,-2.40134,0,0,0,0,0,0,0,-1,1511,498,1.46406,2.40133
294,526,5.57471,-4.59085,0,0,0,0,0,0,0,-1,1518,498,5.57466,4.59084
301,526,4.42786,-3.99677,0,0,0,0,0,0,0,-1,1525,498,4.42788,3.99676
308,526,5.79529,-4.19366,0,0,0,0,0,0,0,-1,1532,498,5.79528,4.19368
315,526,5.09851,-5.20068,0,0,0,0,0,0,0,-1,1539,498,5.09851,5.20068
322,526,5.50708,-4.72348,0,0,0,0,0,0,0,-1,1546,498,5.50713,4.72347
329,526,3.88672,-4.345,0,0,0,0,0,0,0,-1,1553,498,3.88674,4.34501
336,526,4.97876,-2.23828,0,0,0,0,0,0,0,-1,1560,498,4.97877,2.23828
343,526,3.31665,-2.69696,0,0,0,0,0,0,0,-1,1567,498,3.31667,2.69696
350,526,6.06287,-6.12015,0,0,0,0,0,0,0,-1,1574,498,6.06286,6.12014
357,526,12.9944,-29.1665,0,0,0,0,0,0,0,-1,1581,498,12.9943,29.1665
364,526,13.2582,-29.5416,0,0,0,0,0,0,0,-1,1588,498,13.2581,29.5416
371,526,12.4481,-29.0131,0,0,0,0,0,0,0,-1,1595,498,12.4481,29.0131
378,526,15.619,-39.1503,0,0,0,0,0,0,0,-1,1602,498,15.619,39.1503
385,526,17.5619,-42.1945,0,0,0,0,0,0,0,-1,1609,498,17.5619,42.1945
392,526,17.6066,-41.2294,0,0,0,0,0,0,0,-1,1616,498,17.6066,41.2293
399,526,17.5455,-40.4211,0.00285906,-0.000518593,-0.0010184,0.00314236,-0.000801891,-0.27132,0.00240715,0.0276277,1623,498,17.5455,40.4212
406,526,17.564,-39.555,0.00271649,0.000790476,-0.000194633,0.00273597,0.000771004,-0.0997115,0.00162898,0.0131409,1630,498,17.564,39.555
413,526,17.5227,-38.7439,0.00263214,0.00134182,0.000291049,0.00269475,0.00127921,0.211897,0.00155648,0.013337,1637,498,17.5228,38.7439
420,526,17.4617,-37.9111,0.00238352,0.00163309,0.00053266,0.00265985,0.00135676,0.478554,0.00153577,0.0147037,1644,498,17.4617,37.9111
427,526,17.4283,-37.0583,0.00196836,0.00177445,0.000721177,0.00259907,0.00114374,0.718581,0.00150416,0.0149687,1651,498,17.4284,37.0583
434,526,17.3779,-36.2155,0.00152608,0.0017611,0.0009247,0.00257573,0.000711454,0.848598,0.00153594,0.0129586,1658,498,17.3779,36.2155
441,526,17.3359,-35.376,0.00112905,0.00177033,0.00116878,0.00266165,0.000237726,0.919274,0.00170074,0.0118759,1665,498,17.336,35.376
448,526,17.3026,-34.5432,0.000685327,0.00163648,0.00137883,0.00261945,-0.000297637,0.951467,0.00185349,0.0108083,1672,498,17.3026,34.5431
455,526,17.2395,-33.6883,0.000209385,0.00153931,0.00161834,0.00262397,-0.000875278,0.980328,0.0021027,0.0135006,1679,498,17.2396,33.6883
462,526,17.1913,-32.813,-0.000113143,0.00151713,0.00185327,0.00272661,-0.00132262,0.992584,0.00238421,0.0103298,1686,498,17.1913,32.813
469,526,17.161,-31.9559,-0.00015506,0.00163425,0.00213157,0.0030513,-0.00157211,0.984092,0.00271448,0.00792449,1693,498,17.161,31.9559
476,526,17.1068,-31.0621,-0.000290488,0.00178716,0.00241079,0.00337342,-0.00187675,0.988829,0.00307196,0.00974765,1700,498,17.1069,31.0621
483,526,17.0653,-30.1152,-0.000230073,0.00207109,0.00277838,0.0039277,-0.00208669,0.981707,0.00352622,0.0144983,1707,498,17.0653,30.1152
490,526,17.1027,-29.111,4.98383e-05,0.00247695,0.003266,0.00474757,-0.00222078,0.96328,0.0041104,0.038795,1714,498,17.1027,29.111
497,526,17.186,-28.211,0,0,0,0,0,0,0,-1,1721,498,17.186,28.211
504,526,17.2335,-27.078,0,0,0,0,0,0,0,-1,1728,498,17.2335,27.078
511,526,16.8915,-24.8813,0,0,0,0,0,0,0,-1,1735,498,16.8914,24.8813
518,526,14.7889,-20.4046,0,0,0,0,0,0,0,-1,1742,498,14.7889,20.4046
525,526,14.7009,-19.7487,0,0,0,0,0,0,0,-1,1749,498,14.7009,19.7486
532,526,15.7457,-17.9624,0,0,0,0,0,0,0,-1,1756,498,15.7458,17.9624
539,526,16.1064,-16.42,0,0,0,0,0,0,0,-1,1763,498,16.1065,16.42
546,526,12.4675,-17.1617,0,0,0,0,0,0,0,-1,1770,498,12.4675,17.1617
553,526,3.40796,1.37137,0,0,0,0,0,0,0,-1,1777,498,3.40792,-1.37138
560,526,0,0,0,0,0,0,0,0,0,-1,1784,498,0,0
567,526,0,0,0,0,0,0,0,0,0,-1,1791,498,0,0
574,526,0,0,0,0,0,0,0,0,0,-1,1798,498,0,0
581,526,0,0,0,0,0,0,0,0,0,-1,1805,498,0,0
588,526,0,0,0,0,0,0,0,0,0,-1,1812,498,0,0
595,526,0,0,0,0,0,0,0,0,0,-1,1819,498,0,0
602,526,0,0,0,0,0,0,0,0,0,-1,1826,498,0,0
609,526,0,0,0,0,0,0,0,0,0,-1,1833,498,0,0
616,526,0,0,0,0,0,0,0,0,0,-1,1840,498,0,0
623,526,0,0,0,0,0,0,0,0,0,-1,1847,498,0,0
630,526,0,0,0,0,0,0,0,0,0,-1,1854,498,0,0
637,526,0,0,0,0,0,0,0,0,0,-1,1861,498,0,0
644,526,0,0,0,0,0,0,0,0,0,-1,1868,498,0,0
651,526,0,0,0,0,0,0,0,0,0,-1,1875,498,0,0
658,526,0,0,0,0,0,0,0,0,0,-1,1882,498,0,0
665,526,0,0,0,0,0,0,0,0,0,-1,1889,498,0,0
672,526,0,0,0,0,0,0,0,0,0,-1,1896,498,0,0
679,526,0,0,0,0,0,0,0,0,0,-1,1903,498,0,0
686,526,0,0,0,0,0,0,0,0,0,-1,1910,498,0,0
693,526,0,0,0,0,0,0,0,0,0,-1,1917,498,0,0
700,526,0,0,0,0,0,0,0,0,0,-1,1924,498,0,0
707,526,0,0,0,0,0,0,0,0,0,-1,1931,498,0,0
714,526,0,0,0,0,0,0,0,0,0,-1,1938,498,0,0
721,526,0,0,0,0,0,0,0,0,0,-1,1945,498,0,0
728,526,0,0,0,0,0,0,0,0,0,-1,1952,498,0,0
735,526,0,0,0,0,0,0,0,0,0,-1,1959,498,0,0
742,526,0,0,0,0,0,0,0,0,0,-1,1966,498,0,0
749,526,0,0,0,0,0,0,0,0,0,-1,1973,498,0,0
756,526,0,0,0,0,0,0,0,0,0,-1,1980,498,0,0
763,526,0,0,0,0,0,0,0,0,0,-1,1987,498,0,0
770,526,0,0,0,0,0,0,0,0,0,-1,1994,498,0,0
777,526,0,0,0,0,0,0,0,0,0,-1,2001,498,0,0
784,526,0,0,0,0,0,0,0,0,0,-1,2008,498,0,0
791,526,0,0,0,0,0,0,0,0,0,-1,2015,498,0,0
798,526,0,0,0,0,0,0,0,0,0,-1,2022,498,0,0
805,526,0,0,0,0,0,0,0,0,0,-1,2029,498,0,0
812,526,0,0,0,0,0,0,0,0,0,-1,2036,498,0,0
-700,519,0,0,0,0,0,0,0,0,0,-1,524,505,0,0
-693,519,0,0,0,0,0,0,0,0,0,-1,531,505,0,0
-686,519,0,0,0,0,0,0,0,0,0,-1,538,505,0,0
-679,519,0,0,0,0,0,0,0,0,0,-1,545,505,0,0
-672,519,0,0,0,0,0,0,0,0,0,-1,552,505,0,0
-665,519,0,0,0,0,0,0,0,0,0,-1,559,505,0,0
-658,519,0,0,0,0,0,0,0,0,0,-1,566,505,0,0
-651,519,0,0,0,0,0,0,0,0,0,-1,573,505,0,0
-644,519,0,0,0,0,0,0,0,0,0,-1,580,505,0,0
-637,519,0,0,0,0,0,0,0,0,0,-1,587,505,0,0
-630,519,0,0,0,0,0,0,0,0,0,-1,594,505,0,0
-623,519,0,0,0,0,0,0,0,0,0,-1,601,505,0,0
-616,519,0,0,0,0,0,0,0,0,0,-1,608,505,0,0
-609,519,0,0,0,0,0,0,0,0,0,-1,615,505,0,0
-602,519,0,0,0,0,0,0,0,0,0,-1,622,505,0,0
-595,519,0,0,0,0,0,0,0,0,0,-1,629,505,0,0
-588,519,0,0,0,0,0,0,0,0,0,-1,636,505,0,0
-581,519,0,0,0,0,0,0,0,0,0,-1,643,505,0,0
-574,519,0,0,0,0,0,0,0,0,0,-1,650,505,0,0
-567,519,0,0,0,0,0,0,0,0,0,-1,657,505,0,0
-560,519,0,0,0,0,0,0,0,0,0,-1,664,505,0,0
-553,519,0,0,0,0,0,0,0,0,0,-1,671,505,0,0
-546,519,0,0,0,0,0,0,0,0,0,-1,678,505,0,0
-539,519,0,0,0,0,0,0,0,0,0,-1,685,505,0,0
-532,519,0,0,0,0,0,0,0,0,0,-1,692,505,0,0
-525,519,0,0,0,0,0,0,0,0,0,-1,699,505,0,0
-518,519,0,0,0,0,0,0,0,0,0,-1,706,505,0,0
-511,519,0,0,0,0,0,0,0,0,0,-1,713,505,0,0
-504,519,0,0,0,0,0,0,0,0,0,-1,720,505,0,0
-497,519,0,0,0,0,0,0,0,0,0,-1,727,505,0,0
-490,519,0,0,0,0,0,0,0,0,0,-1,734,505,0,0
-483,519,0,0,0,0,0,0,0,0,0,-1,741,505,0,0
-476,519,0,0,0,0,0,0,0,0,0,-1,748,505,0,0
-469,519,0,0,0,0,0,0,0,0,0,-1,755,505,0,0
-462,519,0,0,0,0,0,0,0,0,0,-1,762,505,0,0
-455,519,0,0,0,0,0,0,0,0,0,-1,769,505,0,0
-448,519,0,0,0,0,0,0,0,0,0,-1,776,505,0,0
-441,519,1.34839,-5.29346,0,0,0,0,0,0,0,-1,783,505,1.3484,5.29347
-434,519,0.949585,-5.77313,0,0,0,0,0,0,0,-1,790,505,0.949598,5.77315
-427,519,-0.0523682,-9.31567,0,0,0,0,0,0,0,-1,797,505,-0.0523854,9.31568
-420,519,-2.38867,-12.1938,0,0,0,0,0,0,0,-1,804,505,-2.38867,12.1938
-413,519,-2.2298,-12.4998,0,0,0,0,0,0,0,-1,811,505,-2.22979,12.4998
-406,519,-1.44373,-12.3475,0,0,0,0,0,0,0,-1,818,505,-1.44376,12.3475
-399,519,-1.60516,-15.0849,0,0,0,0,0,0,0,-1,825,505,-1.60518,15.0849
-392,519,-1.94183,-24.8959,0,0,0,0,0,0,0,-1,832,505,-1.94183,24.8958
-385,519,-3.13177,-26.1157,0,0,0,0,0,0,0,-1,839,505,-3.13177,26.1157
-378,519,-2.75848,-27.3376,0.0056901,0.0182465,-0.0112896,0.0248862,-0.000949585,-1.03916,0.0169162,0.0421212,846,505,-2.75848,27.3376
-371,519,-2.45068,-28.6171,0.00513861,0.0164678,-0.0102117,0.0224808,-0.00087436,-1.03863,0.015287,0.0205546,853,505,-2.45068,28.617
-364,519,-2.448,-29.6541,0.0044009,0.0145714,-0.00892104,0.0197548,-0.000782469,-1.04444,0.0134383,0.0111911,860,505,-2.44801,29.6541
-357,519,-2.45264,-30.5974,0.00359871,0.0126042,-0.00758339,0.0169209,-0.000717994,-1.05331,0.0115274,0.0108117,867,505,-2.45262,30.5974
-350,519,-2.50885,-31.4794,0.00284284,0.0105043,-0.00621312,0.0139727,-0.000625569,-1.06165,0.00953048,0.0125589,874,505,-2.50886,31.4794
-343,519,-2.62311,-32.3244,0.00222324,0.00830315,-0.00487571,0.011009,-0.000482577,-1.06415,0.00750534,0.0168466,881,505,-2.62312,32.3244
-336,519,-2.7113,-33.1982,0.00168168,0.00620555,-0.00361505,0.00820799,-0.000320763,-1.06495,0.00558199,0.0170073,888,505,-2.71133,33.1982
-329,519,-2.71039,-34.0903,0.00124023,0.00425638,-0.00242536,0.00560429,-0.00010768,-1.06354,0.0037726,0.0141357,895,505,-2.71037,34.0903
-322,519,-2.73389,-34.935,0.000888759,0.00231715,-0.00121157,0.00300936,0.000196549,-1.05172,0.00194404,0.0114477,902,505,-2.73389,34.935
-315,519,-2.79102,-35.7988,0.000789537,0.000751728,-0.000221031,0.00099247,0.000548795,-0.742737,0.000574073,0.00950972,909,505,-2.79101,35.7988
-308,519,-2.85016,-36.67,0.000959627,-0.000431345,0.000529295,0.00113813,-0.000609846,0.325266,0.00102444,0.00820368,916,505,-2.85016,36.67
-301,519,-2.89685,-37.4661,0.00126057,-0.00115114,0.00103916,0.00164655,-0.00153712,0.355642,0.00183845,0.0125006,923,505,-2.89683,37.4661
-294,519,-2.91864,-38.2372,0.00162834,-0.00171203,0.00152489,0.00221976,-0.00230344,0.369978,0.00261162,0.0161772,930,505,-2.91865,38.2372
-287,519,-2.97766,-39.0734,0.0020778,-0.00245551,0.00198448,0.00282376,-0.00320148,0.359559,0.00348095,0.0124824,937,505,-2.97766,39.0734
-280,519,-3.05762,-39.9072,0.0022696,-0.00461,0.00265372,0.00317428,-0.00551467,0.328552,0.00507687,0.0260241,944,505,-3.05764,39.9072
-273,519,-3.11285,-40.7986,0,0,0,0,0,0,0,-1,951,505,-3.11287,40.7986
-266,519,-3.0672,-41.6258,0,0,0,0,0,0,0,-1,958,505,-3.06719,41.6258
-259,519,-2.89362,-42.6577,0,0,0,0,0,0,0,-1,965,505,-2.89359,42.6577
-252,519,-1.84009,-26.8372,0,0,0,0,0,0,0,-1,972,505,-1.8401,26.8372
-245,519,-1.23254,-23.2696,0,0,0,0,0,0,0,-1,979,505,-1.23256,23.2696
-238,519,-1.83044,-42.0023,0,0,0,0,0,0,0,-1,986,505,-1.83043,42.0022
-231,519,-2.84229,-42.7916,0,0,0,0,0,0,0,-1,993,505,-2.84229,42.7916
-224,519,-3.33752,-42.7635,0,0,0,0,0,0,0,-1,1000,505,-3.33753,42.7635
-217,519,-2.87396,-38.149,0,0,0,0,0,0,0,-1,1007,505,-2.87394,38.149
-210,519,-0.883362,-34.799,0,0,0,0,0,0,0,-1,1014,505,-0.883379,34.799
-203,519,-0.513611,-5.39017,0,0,0,0,0,0,0,-1,1021,505,-0.513585,5.39017
-196,519,-0.374023,-5.41635,0,0,0,0,0,0,0,-1,1028,505,-0.374047,5.41635
-189,519,-0.234497,-5.44254,0,0,0,0,0,0,0,-1,1035,505,-0.234508,5.44253
-182,519,2.76697,-1.19659,0,0,0,0,0,0,0,-1,1042,505,2.76696,1.19661
-175,519,2.31323,-0.960938,0,0,0,0,0,0,0,-1,1049,505,2.31319,0.960941
-168,519,2.01074,-0.721405,0,0,0,0,0,0,0,-1,1056,505,2.01072,0.721407
-161,519,2.32056,-0.522339,0,0,0,0,0,0,0,-1,1063,505,2.32057,0.522328
-154,519,2.55566,0.116669,0,0,0,0,0,0,0,-1,1070,505,2.55563,-0.116661
-147,519,-0.55127,-6.14001,0,0,0,0,0,0,0,-1,1077,505,-0.551252,6.14001
-140,519,0.240601,-7.53503,0,0,0,0,0,0,0,-1,1084,505,0.240653,7.53501
-133,519,2.70911,-4.4516,0,0,0,0,0,0,0,-1,1091,505,2.70915,4.45161
-126,519,0,0,0,0,0,0,0,0,0,-1,1098,505,0,0
-119,519,0,0,0,0,0,0,0,0,0,-1,1105,505,0,0
-112,519,0,0,0,0,0,0,0,0,0,-1,1112,505,0,0
-105,519,0,0,0,0,0,0,0,0,0,-1,1119,505,0,0
-98,519,0,0,0,0,0,0,0,0,0,-1,1126,505,0,0
-91,519,0,0,0,0,0,0,0,0,0,-1,1133,505,0,0
-84,519,0,0,0,0,0,0,0,0,0,-1,1140,505,0,0
-77,519,0,0,0,0,0,0,0,0,0,-1,1147,505,0,0
-70,519,0,0,0,0,0,0,0,0,0,-1,1154,505,0,0
-63,519,0,0,0,0,0,0,0,0,0,-1,1161,505,0,0
-56,519,0,0,0,0,0,0,0,0,0,-1,1168,505,0,0
-49,519,0,0,0,0,0,0,0,0,0,-1,1175,505,0,0
-42,519,0,0,0,0,0,0,0,0,0,-1,1182,505,0,0
-35,519,0,0,0,0,0,0,0,0,0,-1,1189,505,0,0
-28,519,0,0,0,0,0,0,0,0,0,-1,1196,505,0,0
-21,519,0,0,0,0,0,0,0,0,0,-1,1203,505,0,0
-14,519,0,0,0,0,0,0,0,0,0,-1,1210,505,0,0
-7,519,0,0,0,0,0,0,0,0,0,-1,1217,505,0,0
0,519,0,0,0,0,0,0,0,0,0,-1,1224,505,0,0
7,519,0,0,0,0,0,0,0,0,0,-1,1231,505,0,0
14,519,0,0,0,0,0,0,0,0,0,-1,1238,505,0,0
21,519,0,0,0,0,0,0,0,0,0,-1,1245,505,0,0
28,519,0,0,0,0,0,0,0,0,0,-1,1252,505,0,0
35,519,0,0,0,0,0,0,0,0,0,-1,1259,505,0,0
42,519,0,0,0,0,0,0,0,0,0,-1,1266,505,0,0
49,519,0,0,0,0,0,0,0,0,0,-1,1273,505,0,0
56,519,0,0,0,0,0,0,0,0,0,-1,1280,505,0,0
63,519,0,0,0,0,0,0,0,0,0,-1,1287,505,0,0
70,519,0,0,0,0,0,0,0,0,0,-1,1294,505,0,0
77,519,0,0,0,0,0,0,0,0,0,-1,1301,505,0,0
84,519,0,0,0,0,0,0,0,0,0,-1,1308,505,0,0
91,519,0,0,0,0,0,0,0,0,0,-1,1315,505,0,0
98,519,0,0,0,0,0,0,0,0,0,-1,1322,505,0,0
105,519,0,0,0,0,0,0,0,0,0,-1,1329,505,0,0
112,519,0,0,0,0,0,0,0,0,0,-1,1336,505,0,0
119,519,0,0,0,0,0,0,0,0,0,-1,1343,505,0,0
126,519,0,0,0,0,0,0,0,0,0,-1,1350,505,0,0
133,519,0,0,0,0,0,0,0,0,0,-1,1357,505,0,0
140,519,0,0,0,0,0,0,0,0,0,-1,1364,505,0,0
147,519,0,0,0,0,0,0,0,0,0,-1,1371,505,0,0
154,519,0,0,0,0,0,0,0,0,0,-1,1378,505,0,0
161,519,0,0,0,0,0,0,0,0,0,-1,1385,505,0,0
168,519,0,0,0,0,0,0,0,0,0,-1,1392,505,0,0
175,519,0,0,0,0,0,0,0,0,0,-1,1399,505,0,0
182,519,0,0,0,0,0,0,0,0,0,-1,1406,505,0,0
189,519,0,0,0,0,0,0,0,0,0,-1,1413,505,0,0
196,519,0,0,0,0,0,0,0,0,0,-1,1420,505,0,0
203,519,0,0,0,0,0,0,0,0,0,-1,1427,505,0,0
210,519,0,0,0,0,0,0,0,0,0,-1,1434,505,0,0
217,519,0,0,0,0,0,0,0,0,0,-1,1441,505,0,0
224,519,0,0,0,0,0,0,0,0,0,-1,1448,505,0,0
231,519,0,0,0,0,0,0,0,0,0,-1,1455,505,0,0
238,519,0,0,0,0,0,0,0,0,0,-1,1462,505,0,0
245,519,0,0,0,0,0,0,0,0,0,-1,1469,505,0,0
252,519,5.26208,0.0938416,0,0,0,0,0,0,0,-1,1476,505,5.26207,-0.0938493
259,519,6.14246,-1.36441,0,0,0,0,0,0,0,-1,1483,505,6.14241,1.36441
266,519,5.31909,-0.400787,0,0,0,0,0,0,0,-1,1490,505,5.31912,0.400773
273,519,4.02393,0.325531,0,0,0,0,0,0,0,-1,1497,505,4.0239,-0.325522
280,519,4.68848,0.53006,0,0,0,0,0,0,0,-1,1504,505,4.68842,-0.530073
287,519,7.9519,-3.80801,0,0,0,0,0,0,0,-1,1511,505,7.95193,3.808
294,519,6.92273,-3.38889,0,0,0,0,0,0,0,-1,1518,505,6.92268,3.38888
301,519,5.35669,-2.92661,0,0,0,0,0,0,0,-1,1525,505,5.35675,2.9266
308,519,7.37549,-5.64529,0,0,0,0,0,0,0,-1,1532,505,7.3755,5.64529
315,519,6.30029,-4.53754,0,0,0,0,0,0,0,-1,1539,505,6.30024,4.53753
322,519,5.84302,-5.45117,0,0,0,0,0,0,0,-1,1546,505,5.84303,5.45116
329,519,4.92407,0.62384,0,0,0,0,0,0,0,-1,1553,505,4.92403,-0.623832
336,519,3.10095,-0.329285,0,0,0,0,0,0,0,-1,1560,505,3.1009,0.329283
343,519,2.49146,-2.31119,0,0,0,0,0,0,0,-1,1567,505,2.49145,2.31119
350,519,3.47729,-2.22516,0,0,0,0,0,0,0,-1,1574,505,3.47726,2.22515
357,519,13.271,-29.6344,0,0,0,0,0,0,0,-1,1581,505,13.271,29.6344
364,519,12.8292,-28.3627,0,0,0,0,0,0,0,-1,1588,505,12.8292,28.3627
371,519,12.3875,-27.0911,0,0,0,0,0,0,0,-1,1595,505,12.3874,27.091
378,519,6.36597,-10.0967,0,0,0,0,0,0,0,-1,1602,505,6.36597,10.0967
385,519,6.24756,-9.72186,0,0,0,0,0,0,0,-1,1609,505,6.24752,9.72183
392,519,16.8391,-37.6736,0,0,0,0,0,0,0,-1,1616,505,16.8391,37.6737
399,519,18.3906,-40.4288,0,0,0,0,0,0,0,-1,1623,505,18.3906,40.4288
406,519,18.345,-39.5629,0.00319114,0.00100291,-0.000528653,0.00331216,0.000881888,-0.22505,0.00198071,0.0403654,1630,505,18.3449,39.563
413,519,18.399,-38.7428,0.00320502,0.00142039,-2.21793e-05,0.0032053,0.00142012,-0.0124254,0.00185458,0.0169795,1637,505,18.3991,38.7428
420,519,18.307,-37.8459,0.00303184,0.00157408,0.000219952,0.00306431,0.00154162,0.146539,0.00176919,0.0158882,1644,505,18.307,37.8459
427,519,18.2756,-37.0369,0.0026549,0.0016419,0.000395257,0.00279087,0.00150593,0.331328,0.00161299,0.0153006,1651,505,18.2756,37.0369
434,519,18.231,-36.1983,0.00217816,0.00155437,0.000560181,0.00250742,0.00122511,0.531384,0.00144778,0.0140771,1658,505,18.2309,36.1983
441,519,18.1639,-35.3194,0.00179402,0.00151547,0.00077203,0.00243924,0.000870254,0.69616,0.00142742,0.0129838,1665,505,18.164,35.3194
448,519,18.1377,-34.4728,0.00139336,0.00139614,0.000970547,0.0023653,0.000424205,0.786114,0.00145621,0.0100265,1672,505,18.1376,34.4728
455,519,18.0754,-33.6361,0.000973591,0.0013444,0.00118915,0.00236251,-4.45255e-05,0.862731,0.00159006,0.0112673,1679,505,18.0755,33.6361
462,519,18.0432,-32.7776,0.000701203,0.00140052,0.00140591,0.00249961,-0.000397881,0.907278,0.00181364,0.0106723,1686,505,18.0432,32.7776
469,519,18.0448,-31.9037,0.000695,0.00158891,0.00167945,0.00287987,-0.000595954,0.91545,0.00214632,0.0110443,1693,505,18.0448,31.9038
476,519,17.998,-30.9867,0.000603881,0.00182107,0.00195786,0.00326274,-0.000837795,0.936087,0.00250164,0.0133291,1700,505,17.998,30.9867
483,519,17.9482,-30.0812,0.000687699,0.002142,0.00231552,0.00384186,-0.00101216,0.937539,0.00295694,0.0145699,1707,505,17.9482,30.0812
490,519,17.8789,-29.1718,0.000938471,0.00257436,0.00275349,0.00462882,-0.00111599,0.929776,0.00351739,0.0137954,1714,505,17.8789,29.1718
497,519,17.8195,-28.4218,0.00133408,0.00287442,0.00301511,0.00521617,-0.00100767,0.910442,0.00385747,0.040011,1721,505,17.8194,28.4218
504,519,17.7725,-27.3209,0,0,0,0,0,0,0,-1,1728,505,17.7725,27.3209
511,519,17.9454,-26.1575,0,0,0,0,0,0,0,-1,1735,505,17.9455,26.1575
518,519,17.9189,-25.241,0,0,0,0,0,0,0,-1,1742,505,17.9189,25.2411
525,519,15.9647,-20.5714,0,0,0,0,0,0,0,-1,1749,505,15.9648,20.5714
532,519,15.825,-19.0025,0,0,0,0,0,0,0,-1,1756,505,15.8249,19.0025
539,519,16.5902,-16.8075,0,0,0,0,0,0,0,-1,1763,505,16.5903,16.8075
546,519,12.4001,-16.5616,0,0,0,0,0,0,0,-1,1770,505,12.4002,16.5616
553,519,4.14136,0.0667419,0,0,0,0,0,0,0,-1,1777,505,4.14141,-0.0667503
560,519,3.77856,0.279724,0,0,0,0,0,0,0,-1,1784,505,3.77861,-0.279731
567,519,0,0,0,0,0,0,0,0,0,-1,1791,505,0,0
574,519,0,0,0,0,0,0,0,0,0,-1,1798,505,0,0
581,519,0,0,0,0,0,0,0,0,0,-1,1805,505,0,0
588,519,0,0,0,0,0,0,0,0,0,-1,1812,505,0,0
595,519,0,0,0,0,0,0,0,0,0,-1,1819,505,0,0
602,519,0,0,0,0,0,0,0,0,0,-1,1826,505,0,0
609,519,0,0,0,0,0,0,0,0,0,-1,1833,505,0,0
616,519,0,0,0,0,0,0,0,0,0,-1,1840,505,0,0
623,519,0,0,0,0,0,0,0,0,0,-1,1847,505,0,0
630,519,0,0,0,0,0,0,0,0,0,-1,1854,505,0,0
637,519,0,0,0,0,0,0,0,0,0,-1,1861,505,0,0
644,519,0,0,0,0,0,0,0,0,0,-1,1868,505,0,0
651,519,0,0,0,0,0,0,0,0,0,-1,1875,505,0,0
658,519,0,0,0,0,0,0,0,0,0,-1,1882,505,0,0
665,519,0,0,0,0,0,0,0,0,0,-1,1889,505,0,0
672,519,0,0,0,0,0,0,0,0,0,-1,1896,505,0,0
679,519,0,0,0,0,0,0,0,0,0,-1,1903,505,0,0
686,519,0,0,0,0,0,0,0,0,0,-1,1910,505,0,0
693,519,0,0,0,0,0,0,0,0,0,-1,1917,505,0,0
700,519,0,0,0,0,0,0,0,0,0,-1,1924,505,0,0
707,519,0,0,0,0,0,0,0,0,0,-1,1931,505,0,0
714,519,0,0,0,0,0,0,0,0,0,-1,1938,505,0,0
721,519,0,0,0,0,0,0,0,0,0,-1,1945,505,0,0
728,519,0,0,0,0,0,0,0,0,0,-1,1952,505,0,0
735,519,0,0,0,0,0,0,0,0,0,-1,1959,505,0,0
742,519,0,0,0,0,0,0,0,0,0,-1,1966,505,0,0
749,519,0,0,0,0,0,0,0,0,0,-1,1973,505,0,0
756,519,0,0,0,0,0,0,0,0,0,-1,1980,505,0,0
763,519,0,0,0,0,0,0,0,0,0,-1,1987,505,0,0
770,519,0,0,0,0,0,0,0,0,0,-1,1994,505,0,0
777,519,0,0,0,0,0,0,0,0,0,-1,2001,505,0,0
784,519,0,0,0,0,0,0,0,0,0,-1,2008,505,0,0
791,519,0,0,0,0,0,0,0,0,0,-1,2015,505,0,0
798,519,0,0,0,0,0,0,0,0,0,-1,2022,505,0,0
805,519,0,0,0,0,0,0,0,0,0,-1,2029,505,0,0
812,519,0,0,0,0,0,0,0,0,0,-1,2036,505,0,0
-700,512,0,0,0,0,0,0,0,0,0,-1,524,512,0,0
-693,512,0,0,0,0,0,0,0,0,0,-1,531,512,0,0
-686,512,0,0,0,0,0,0,0,0,0,-1,538,512,0,0
-679,512,0,0,0,0,0,0,0,0,0,-1,545,512,0,0
-672,512,0,0,0,0,0,0,0,0,0,-1,552,512,0,0
-665,512,0,0,0,0,0,0,0,0,0,-1,559,512,0,0
-658,512,0,0,0,0,0,0,0,0,0,-1,566,512,0,0
-651,512,0,0,0,0,0,0,0,0,0,-1,573,512,0,0
-644,512,0,0,0,0,0,0,0,0,0,-1,580,512,0,0
-637,512,0,0,0,0,0,0,0,0,0,-1,587,512,0,0
-630,512,0,0,0,0,0,0,0,0,0,-1,594,512,0,0
-623,512,0,0,0,0,0,0,0,0,0,-1,601,512,0,0
-616,512,0,0,0,0,0,0,0,0,0,-1,608,512,0,0
-609,512,0,0,0,0,0,0,0,0,0,-1,615,512,0,0
-602,512,0,0,0,0,0,0,0,0,0,-1,622,512,0,0
-595,512,0,0,0,0,0,0,0,0,0,-1,629,512,0,0
-588,512,0,0,0,0,0,0,0,0,0,-1,636,512,0,0
-581,512,0,0,0,0,0,0,0,0,0,-1,643,512,0,0
-574,512,0,0,0,0,0,0,0,0,0,-1,650,512,0,0
-567,512,0,0,0,0,0,0,0,0,0,-1,657,512,0,0
-560,512,0,0,0,0,0,0,0,0,0,-1,664,512,0,0
-553,512,0,0,0,0,0,0,0,0,0,-1,671,512,0,0
-546,512,0,0,0,0,0,0,0,0,0,-1,678,512,0,0
-539,512,0,0,0,0,0,0,0,0,0,-1,685,512,0,0
-532,512,0,0,0,0,0,0,0,0,0,-1,692,512,0,0
-525,512,0,0,0,0,0,0,0,0,0,-1,699,512,0,0
-518,512,0,0,0,0,0,0,0,0,0,-1,706,512,0,0
-511,512,0,0,0,0,0,0,0,0,0,-1,713,512,0,0
-504,512,0,0,0,0,0,0,0,0,0,-1,720,512,0,0
-497,512,0,0,0,0,0,0,0,0,0,-1,727,512,0,0
-490,512,0,0,0,0,0,0,0,0,0,-1,734,512,0,0
-483,512,0,0,0,0,0,0,0,0,0,-1,741,512,0,0
-476,512,0,0,0,0,0,0,0,0,0,-1,748,512,0,0
-469,512,0,0,0,0,0,0,0,0,0,-1,755,512,0,0
-462,512,0,0,0,0,0,0,0,0,0,-1,762,512,0,0
-455,512,0,0,0,0,0,0,0,0,0,-1,769,512,0,0
-448,512,1.96283,-4.15674,0,0,0,0,0,0,0,-1,776,512,1.96285,4.15677
-441,512,1.78198,-4.88824,0,0,0,0,0,0,0,-1,783,512,1.78201,4.88826
-434,512,0.0726929,-9.85822,0,0,0,0,0,0,0,-1,790,512,0.0727008,9.85819
-427,512,-0.384583,-9.94824,0,0,0,0,0,0,0,-1,797,512,-0.384552,9.94823
-420,512,-2.93219,-12.4855,0,0,0,0,0,0,0,-1,804,512,-2.93219,12.4855
-413,512,-2.22711,-11.4485,0,0,0,0,0,0,0,-1,811,512,-2.22712,11.4485
-406,512,-2.38037,-13.5743,0,0,0,0,0,0,0,-1,818,512,-2.38034,13.5743
-399,512,-3.13367,-23.934,0,0,0,0,0,0,0,-1,825,512,-3.13368,23.934
-392,512,-3.06305,-26.0381,0,0,0,0,0,0,0,-1,832,512,-3.06308,26.0381
-385,512,-3.15381,-26.905,0.00519688,0.0164041,-0.0106479,0.0228329,-0.00123187,-1.02762,0.0156487,0.0232418,839,512,-3.15383,26.905
-378,512,-3.21039,-27.765,0.004859,0.0147624,-0.0096796,0.0206833,-0.00106194,-1.02182,0.0141561,0.019277,846,512,-3.2104,27.765
-371,512,-3.25281,-28.7089,0.00444613,0.0129854,-0.00861563,0.0183313,-0.000899799,-1.01545,0.0125316,0.0140954,853,512,-3.25279,28.7089
-364,512,-3.29431,-29.6953,0.00387968,0.0111353,-0.00737964,0.0157307,-0.000715647,-1.01385,0.0107336,0.00980006,860,512,-3.29433,29.6953
-357,512,-3.32977,-30.5729,0.00325642,0.00932076,-0.00611179,0.0131112,-0.000534018,-1.01567,0.00892414,0.0105223,867,512,-3.32974,30.5729
-350,512,-3.39252,-31.4337,0.00266348,0.00746083,-0.00483179,0.0104566,-0.000332273,-1.01579,0.00708441,0.0111483,874,512,-3.39252,31.4336
-343,512,-3.49969,-32.2872,0.00217423,0.00549803,-0.00358668,0.00778913,-0.00011686,-1.00235,0.00523214,0.014218,881,512,-3.49967,32.2872
-336,512,-3.56836,-33.1862,0.00172079,0.00363551,-0.00240773,0.00526923,8.70642e-05,-0.974624,0.00348416,0.0157105,888,512,-3.56833,33.1862
-329,512,-3.55286,-34.0545,0.00133422,0.00191324,-0.00128751,0.00294339,0.00030407,-0.895989,0.00186917,0.0172683,895,512,-3.55287,34.0545
-322,512,-3.59558,-34.89,0.00107433,0.000256095,-0.000200735,0.00112092,0.000209502,-0.228071,0.000688161,0.0145754,902,512,-3.59558,34.8899
-315,512,-3.64972,-35.7668,0.00106548,-0.00122204,0.000704555,0.00126507,-0.00142163,0.27605,0.00155204,0.0119999,909,512,-3.64972,35.7669
-308,512,-3.71722,-36.6068,0.00133024,-0.00206845,0.0013918,0.00182746,-0.00256567,0.343117,0.00254828,0.0112475,916,512,-3.71721,36.6068
-301,512,-3.75879,-37.4208,0.00166447,-0.00234848,0.00177568,0.00233736,-0.00302137,0.362225,0.00310225,0.0156769,923,512,-3.75877,37.4208
-294,512,-3.75366,-38.1947,0.00196013,-0.00271685,0.00224593,0.00286397,-0.00362069,0.382605,0.00375241,0.0167313,930,512,-3.75365,38.1947
-287,512,-3.77209,-38.9932,0,0,0,0,0,0,0,-1,937,512,-3.77212,38.9931
-280,512,-3.9068,-39.8794,0,0,0,0,0,0,0,-1,944,512,-3.90678,39.8794
-273,512,-2.90118,-34.7153,0,0,0,0,0,0,0,-1,951,512,-2.90121,34.7153
-266,512,-2.33594,-25.9839,0,0,0,0,0,0,0,-1,958,512,-2.33592,25.9839
-259,512,-0.525452,-14.0815,0,0,0,0,0,0,0,-1,965,512,-0.525475,14.0815
-252,512,1.45941,-3.43475,0,0,0,0,0,0,0,-1,972,512,1.45938,3.43475
-245,512,-1.6731,-22.8959,0,0,0,0,0,0,0,-1,979,512,-1.67312,22.8959
-238,512,0.227051,-8.92969,0,0,0,0,0,0,0,-1,986,512,0.227073,8.92968
-231,512,-1.90576,-38.0918,0,0,0,0,0,0,0,-1,993,512,-1.90575,38.0918
-224,512,-1.29974,-33.6304,0,0,0,0,0,0,0,-1,1000,512,-1.29974,33.6304
-217,512,-0.963196,-34.1697,0,0,0,0,0,0,0,-1,1007,512,-0.963226,34.1697
-210,512,-3.76642,-1.94702,0,0,0,0,0,0,0,-1,1014,512,-3.76641,1.94702
-203,512,-2.48328,-5.19061,0,0,0,0,0,0,0,-1,1021,512,-2.48328,5.19059
-196,512,-1.14929,-4.63202,0,0,0,0,0,0,0,-1,1028,512,-1.14934,4.632
-189,512,0.197998,4.55505,0,0,0,0,0,0,0,-1,1035,512,0.197996,-4.55506
-182,512,2.73938,0.0778503,0,0,0,0,0,0,0,-1,1042,512,2.73944,-0.077852
-175,512,2.29565,0.209808,0,0,0,0,0,0,0,-1,1049,512,2.29565,-0.209813
-168,512,2.09399,-0.302856,0,0,0,0,0,0,0,-1,1056,512,2.09403,0.302826
-161,512,2.76636,0.0921021,0,0,0,0,0,0,0,-1,1063,512,2.76633,-0.0921104
-154,512,3.41382,0.466187,0,0,0,0,0,0,0,-1,1070,512,3.41382,-0.466178
-147,512,0,0,0,0,0,0,0,0,0,-1,1077,512,0,0
-140,512,0,0,0,0,0,0,0,0,0,-1,1084,512,0,0
-133,512,0,0,0,0,0,0,0,0,0,-1,1091,512,0,0
-126,512,0,0,0,0,0,0,0,0,0,-1,1098,512,0,0
-119,512,0,0,0,0,0,0,0,0,0,-1,1105,512,0,0
-112,512,0,0,0,0,0,0,0,0,0,-1,1112,512,0,0
-105,512,0,0,0,0,0,0,0,0,0,-1,1119,512,0,0
-98,512,0,0,0,0,0,0,0,0,0,-1,1126,512,0,0
-91,512,0,0,0,0,0,0,0,0,0,-1,1133,512,0,0
-84,512,0,0,0,0,0,0,0,0,0,-1,1140,512,0,0
-77,512,0,0,0,0,0,0,0,0,0,-1,1147,512,0,0
-70,512,0,0,0,0,0,0,0,0,0,-1,1154,512,0,0
-63,512,0,0,0,0,0,0,0,0,0,-1,1161,512,0,0
-56,512,0,0,0,0,0,0,0,0,0,-1,1168,512,0,0
-49,512,0,0,0,0,0,0,0,0,0,-1,1175,512,0,0
-42,512,0,0,0,0,0,0,0,0,0,-1,1182,512,0,0
-35,512,0,0,0,0,0,0,0,0,0,-1,1189,512,0,0
-28,512,0,0,0,0,0,0,0,0,0,-1,1196,512,0,0
-21,512,0,0,0,0,0,0,0,0,0,-1,1203,512,0,0
-14,512,0,0,0,0,0,0,0,0,0,-1,1210,512,0,0
-7,512,0,0,0,0,0,0,0,0,0,-1,1217,512,0,0
0,512,0,0,0,0,0,0,0,0,0,-1,1224,512,0,0
7,512,0,0,0,0,0,0,0,0,0,-1,1231,512,0,0
14,512,0,0,0,0,0,0,0,0,0,-1,1238,512,0,0
21,512,0,0,0,0,0,0,0,0,0,-1,1245,512,0,0
28,512,0,0,0,0,0,0,0,0,0,-1,1252,512,0,0
35,512,0,0,0,0,0,0,0,0,0,-1,1259,512,0,0
42,512,0,0,0,0,0,0,0,0,0,-1,1266,512,0,0
49,512,0,0,0,0,0,0,0,0,0,-1,1273,512,0,0
56,512,0,0,0,0,0,0,0,0,0,-1,1280,512,0,0
63,512,0,0,0,0,0,0,0,0,0,-1,1287,512,0,0
70,512,0,0,0,0,0,0,0,0,0,-1,1294,512,0,0
77,512,0,0,0,0,0,0,0,0,0,-1,1301,512,0,0
84,512,0,0,0,0,0,0,0,0,0,-1,1308,512,0,0
91,512,0,0,0,0,0,0,0,0,0,-1,1315,512,0,0
98,512,0,0,0,0,0,0,0,0,0,-1,1322,512,0,0
105,512,0,0,0,0,0,0,0,0,0,-1,1329,512,0,0
112,512,0,0,0,0,0,0,0,0,0,-1,1336,512,0,0
119,512,0,0,0,0,0,0,0,0,0,-1,1343,512,0,0
126,512,0,0,0,0,0,0,0,0,0,-1,1350,512,0,0
133,512,0,0,0,0,0,0,0,0,0,-1,1357,512,0,0
140,512,0,0,0,0,0,0,0,0,0,-1,1364,512,0,0
147,512,0,0,0,0,0,0,0,0,0,-1,1371,512,0,0
154,512,0,0,0,0,0,0,0,0,0,-1,1378,512,0,0
161,512,0,0,0,0,0,0,0,0,0,-1,1385,512,0,0
168,512,0,0,0,0,0,0,0,0,0,-1,1392,512,0,0
175,512,0,0,0,0,0,0,0,0,0,-1,1399,512,0,0
182,512,0,0,0,0,0,0,0,0,0,-1,1406,512,0,0
189,512,0,0,0,0,0,0,0,0,0,-1,1413,512,0,0
196,512,0,0,0,0,0,0,0,0,0,-1,1420,512,0,0
203,512,0,0,0,0,0,0,0,0,0,-1,1427,512,0,0
210,512,0,0,0,0,0,0,0,0,0,-1,1434,512,0,0
217,512,0,0,0,0,0,0,0,0,0,-1,1441,512,0,0
224,512,0,0,0,0,0,0,0,0,0,-1,1448,512,0,0
231,512,0,0,0,0,0,0,0,0,0,-1,1455,512,0,0
238,512,0,0,0,0,0,0,0,0,0,-1,1462,512,0,0
245,512,0,0,0,0,0,0,0,0,0,-1,1469,512,0,0
252,512,0,0,0,0,0,0,0,0,0,-1,1476,512,0,0
259,512,0,0,0,0,0,0,0,0,0,-1,1483,512,0,0
266,512,0,0,0,0,0,0,0,0,0,-1,1490,512,0,0
273,512,4.00745,0.618622,0,0,0,0,0,0,0,-1,1497,512,4.00747,-0.618611
280,512,4.49609,0.649841,0,0,0,0,0,0,0,-1,1504,512,4.49612,-0.649834
287,512,4.77234,0.458069,0,0,0,0,0,0,0,-1,1511,512,4.77233,-0.458083
294,512,8.54956,-2.36273,0,0,0,0,0,0,0,-1,1518,512,8.54952,2.36274
301,512,6.302,-1.69092,0,0,0,0,0,0,0,-1,1525,512,6.30196,1.69093
308,512,8.2439,-6.22754,0,0,0,0,0,0,0,-1,1532,512,8.24394,6.22757
315,512,7.53687,-6.04211,0,0,0,0,0,0,0,-1,1539,512,7.53691,6.04211
322,512,6.82983,-5.85663,0,0,0,0,0,0,0,-1,1546,512,6.82988,5.85666
329,512,4.38147,-0.329651,0,0,0,0,0,0,0,-1,1553,512,4.38144,0.329662
336,512,4.41467,-0.741455,0,0,0,0,0,0,0,-1,1560,512,4.41467,0.741442
343,512,4.44727,-1.21667,0,0,0,0,0,0,0,-1,1567,512,4.44732,1.21666
350,512,4.55469,-1.65082,0,0,0,0,0,0,0,-1,1574,512,4.5547,1.65083
357,512,5.79993,-2.67456,0,0,0,0,0,0,0,-1,1581,512,5.79991,2.67454
364,512,13.118,-28.5485,0,0,0,0,0,0,0,-1,1588,512,13.1181,28.5485
371,512,5.28467,-7.69269,0,0,0,0,0,0,0,-1,1595,512,5.28464,7.69269
378,512,6.29407,-9.88055,0,0,0,0,0,0,0,-1,1602,512,6.29412,9.88057
385,512,6.45569,-9.32233,0,0,0,0,0,0,0,-1,1609,512,6.45565,9.3223
392,512,6.35522,-8.98425,0,0,0,0,0,0,0,-1,1616,512,6.35526,8.98422
399,512,16.9089,-33.7311,0,0,0,0,0,0,0,-1,1623,512,16.9089,33.7311
406,512,19.2217,-39.6698,0,0,0,0,0,0,0,-1,1630,512,19.2217,39.6698
413,512,19.1898,-38.8792,0,0,0,0,0,0,0,-1,1637,512,19.1898,38.8792
420,512,19.2001,-37.8785,0.00407371,0.00151845,0.000102653,0.00407783,0.00151433,0.040087,0.00238017,0.0291371,1644,512,19.2,37.8785
427,512,19.1539,-37.0043,0.00356849,0.00152378,0.000196324,0.00358717,0.0015051,0.0948605,0.00207997,0.01665,1651,512,19.1539,37.0043
434,512,19.0989,-36.1569,0.0029153,0.00136484,0.000251041,0.00295494,0.00132521,0.156585,0.00170905,0.012664,1658,512,19.0989,36.1569
441,512,19.0242,-35.2834,0.00241473,0.00129164,0.000381619,0.00253213,0.00117424,0.298447,0.00146321,0.0132479,1665,512,19.0241,35.2834
448,512,18.9817,-34.4572,0.00195694,0.00119447,0.000538327,0.00223535,0.000916055,0.477298,0.00129756,0.0101029,1672,512,18.9817,34.4571
455,512,18.9307,-33.5793,0.00151771,0.00117358,0.000707168,0.00207344,0.000617844,0.666061,0.00122924,0.00985965,1679,512,18.9307,33.5793
462,512,18.9025,-32.6985,0.00122524,0.00126765,0.000891978,0.00213867,0.000354213,0.797283,0.0013236,0.0102503,1686,512,18.9025,32.6985
469,512,18.8701,-31.8228,0.00118013,0.0014844,0.00115556,0.00249779,0.000166726,0.850849,0.0016125,0.0121304,1693,512,18.8701,31.8228
476,512,18.8173,-30.9322,0.001087,0.00174683,0.00143103,0.00288548,-5.16527e-05,0.898692,0.0019411,0.0155682,1700,512,18.8173,30.9322
483,512,18.7788,-30.0309,0.00115772,0.0020556,0.00177307,0.00343569,-0.000222362,0.909391,0.00236806,0.014535,1707,512,18.7788,30.0309
490,512,18.751,-29.1596,0.0013461,0.00247635,0.00215405,0.00413817,-0.000315724,0.913684,0.00286982,0.0119888,1714,512,18.7509,29.1596
497,512,18.6844,-28.2677,0.00167059,0.00282069,0.00243317,0.00474584,-0.000254554,0.901438,0.00325207,0.0134214,1721,512,18.6845,28.2677
504,512,18.6111,-27.3395,0.00215022,0.00330747,0.0027104,0.00550032,-4.2635e-05,0.890561,0.00368118,0.0184688,1728,512,18.6111,27.3395
511,512,18.5344,-26.3646,0.00273403,0.0038514,0.00302541,0.00636928,0.00021615,0.876701,0.004176,0.0278399,1735,512,18.5344,26.3646
518,512,18.6498,-25.461,0.00349425,0.0046177,0.00326894,0.00737283,0.00073912,0.870485,0.00468831,0.0374755,1742,512,18.6498,25.461
525,512,18.92,-24.5384,0,0,0,0,0,0,0,-1,1749,512,18.9201,24.5384
532,512,16.6807,-19.0635,0,0,0,0,0,0,0,-1,1756,512,16.6807,19.0635
539,512,12.6367,-16.4022,0,0,0,0,0,0,0,-1,1763,512,12.6367,16.4021
546,512,2.77551,-0.66449,0,0,0,0,0,0,0,-1,1770,512,2.77548,0.664503
553,512,3.927,-0.448853,0,0,0,0,0,0,0,-1,1777,512,3.92704,0.448843
560,512,3.55762,-0.201233,0,0,0,0,0,0,0,-1,1784,512,3.55768,0.201259
567,512,3.09045,0.191193,0,0,0,0,0,0,0,-1,1791,512,3.09045,-0.191203
574,512,0,0,0,0,0,0,0,0,0,-1,1798,512,0,0
581,512,0,0,0,0,0,0,0,0,0,-1,1805,512,0,0
588,512,0,0,0,0,0,0,0,0,0,-1,1812,512,0,0
595,512,0,0,0,0,0,0,0,0,0,-1,1819,512,0,0
602,512,0,0,0,0,0,0,0,0,0,-1,1826,512,0,0
609,512,0,0,0,0,0,0,0,0,0,-1,1833,512,0,0
616,512,0,0,0,0,0,0,0,0,0,-1,1840,512,0,0
623,512,0,0,0,0,0,0,0,0,0,-1,1847,512,0,0
630,512,0,0,0,0,0,0,0,0,0,-1,1854,512,0,0
637,512,0,0,0,0,0,0,0,0,0,-1,1861,512,0,0
644,512,0,0,0,0,0,0,0,0,0,-1,1868,512,0,0
651,512,0,0,0,0,0,0,0,0,0,-1,1875,512,0,0
658,512,0,0,0,0,0,0,0,0,0,-1,1882,512,0,0
665,512,0,0,0,0,0,0,0,0,0,-1,1889,512,0,0
672,512,0,0,0,0,0,0,0,0,0,-1,1896,512,0,0
679,512,0,0,0,0,0,0,0,0,0,-1,1903,512,0,0
686,512,0,0,0,0,0,0,0,0,0,-1,1910,512,0,0
693,512,0,0,0,0,0,0,0,0,0,-1,1917,512,0,0
700,512,0,0,0,0,0,0,0,0,0,-1,1924,512,0,0
707,512,0,0,0,0,0,0,0,0,0,-1,1931,512,0,0
714,512,0,0,0,0,0,0,0,0,0,-1,1938,512,0,0
721,512,0,0,0,0,0,0,0,0,0,-1,1945,512,0,0
728,512,0,0,0,0,0,0,0,0,0,-1,1952,512,0,0
735,512,0,0,0,0,0,0,0,0,0,-1,1959,512,0,0
742,512,0,0,0,0,0,0,0,0,0,-1,1966,512,0,0
749,512,0,0,0,0,0,0,0,0,0,-1,1973,512,0,0
756,512,0,0,0,0,0,0,0,0,0,-1,1980,512,0,0
763,512,0,0,0,0,0,0,0,0,0,-1,1987,512,0,0
770,512,0,0,0,0,0,0,0,0,0,-1,1994,512,0,0
777,512,0,0,0,0,0,0,0,0,0,-1,2001,512,0,0
784,512,0,0,0,0,0,0,0,0,0,-1,2008,512,0,0
791,512,0,0,0,0,0,0,0,0,0,-1,2015,512,0,0
798,512,0,0,0,0,0,0,0,0,0,-1,2022,512,0,0
805,512,0,0,0,0,0,0,0,0,0,-1,2029,512,0,0
812,512,0,0,0,0,0,0,0,0,0,-1,2036,512,0,0
-700,505,0,0,0,0,0,0,0,0,0,-1,524,519,0,0
-693,505,0,0,0,0,0,0,0,0,0,-1,531,519,0,0
-686,505,0,0,0,0,0,0,0,0,0,-1,538,519,0,0
-679,505,0,0,0,0,0,0,0,0,0,-1,545,519,0,0
-672,505,0,0,0,0,0,0,0,0,0,-1,552,519,0,0
-665,505,0,0,0,0,0,0,0,0,0,-1,559,519,0,0
-658,505,0,0,0,0,0,0,0,0,0,-1,566,519,0,0
-651,505,0,0,0,0,0,0,0,0,0,-1,573,519,0,0
-644,505,0,0,0,0,0,0,0,0,0,-1,580,519,0,0
-637,505,0,0,0,0,0,0,0,0,0,-1,587,519,0,0
-630,505,0,0,0,0,0,0,0,0,0,-1,594,519,0,0
-623,505,0,0,0,0,0,0,0,0,0,-1,601,519,0,0
-616,505,0,0,0,0,0,0,0,0,0,-1,608,519,0,0
-609,505,0,0,0,0,0,0,0,0,0,-1,615,519,0,0
-602,505,0,0,0,0,0,0,0,0,0,-1,622,519,0,0
-595,505,0,0,0,0,0,0,0,0,0,-1,629,519,0,0
-588,505,0,0,0,0,0,0,0,0,0,-1,636,519,0,0
-581,505,0,0,0,0,0,0,0,0,0,-1,643,519,0,0
-574,505,0,0,0,0,0,0,0,0,0,-1,650,519,0,0
-567,505,0,0,0,0,0,0,0,0,0,-1,657,519,0,0
-560,505,0,0,0,0,0,0,0,0,0,-1,664,519,0,0
-553,505,0,0,0,0,0,0,0,0,0,-1,671,519,0,0
-546,505,0,0,0,0,0,0,0,0,0,-1,678,519,0,0
-539,505,0,0,0,0,0,0,0,0,0,-1,685,519,0,0
-532,505,0,0,0,0,0,0,0,0,0,-1,692,519,0,0
-525,505,0,0,0,0,0,0,0,0,0,-1,699,519,0,0
-518,505,0,0,0,0,0,0,0,0,0,-1,706,519,0,0
-511,505,0,0,0,0,0,0,0,0,0,-1,713,519,0,0
-504,505,0,0,0,0,0,0,0,0,0,-1,720,519,0,0
-497,505,0,0,0,0,0,0,0,0,0,-1,727,519,0,0
-490,505,0,0,0,0,0,0,0,0,0,-1,734,519,0,0
-483,505,0,0,0,0,0,0,0,0,0,-1,741,519,0,0
-476,505,0,0,0,0,0,0,0,0,0,-1,748,519,0,0
-469,505,0,0,0,0,0,0,0,0,0,-1,755,519,0,0
-462,505,0,0,0,0,0,0,0,0,0,-1,762,519,0,0
-455,505,2.72137,-3.26379,0,0,0,0,0,0,0,-1,769,519,2.72135,3.26377
-448,505,2.51111,-3.94989,0,0,0,0,0,0,0,-1,776,519,2.51112,3.94986
-441,505,2.80212,-6.8902,0,0,0,0,0,0,0,-1,783,519,2.80209,6.89019
-434,505,-0.155212,-10.6374,0,0,0,0,0,0,0,-1,790,519,-0.155194,10.6374
-427,505,-0.474426,-10.4702,0,0,0,0,0,0,0,-1,797,519,-0.474433,10.4702
-420,505,-0.922546,-10.1928,0,0,0,0,0,0,0,-1,804,519,-0.92257,10.1928
-413,505,-3.33948,-13.6183,0,0,0,0,0,0,0,-1,811,519,-3.33949,13.6184
-406,505,-3.2439,-18.3408,0,0,0,0,0,0,0,-1,818,519,-3.24389,18.3408
-399,505,-3.9281,-24.9761,0,0,0,0,0,0,0,-1,825,519,-3.92811,24.9761
-392,505,-3.93304,-25.9506,0.00436824,0.0148264,-0.00975202,0.0206628,-0.00146818,-1.03149,0.0142898,0.0272728,832,519,-3.93303,25.9506
-385,505,-4.01648,-26.8789,0.00418116,0.0131127,-0.00881832,0.0185315,-0.00123771,-1.01978,0.0127869,0.0112616,839,519,-4.0165,26.8789
-378,505,-4.07953,-27.7916,0.00397231,0.0114849,-0.00787743,0.0164558,-0.000998569,-1.00787,0.0113181,0.01182,846,519,-4.0795,27.7916
-371,505,-4.1192,-28.7291,0.00368708,0.00978605,-0.00688331,0.0142651,-0.000792004,-0.993918,0.00978478,0.0142982,853,519,-4.11919,28.7291
-364,505,-4.19281,-29.6553,0.00328718,0.0079927,-0.00573865,0.0118422,-0.000562291,-0.97994,0.00808872,0.0152692,860,519,-4.1928,29.6553
-357,505,-4.22467,-30.5439,0.00283997,0.00631403,-0.00456578,0.00946204,-0.000308041,-0.967166,0.00641317,0.0121467,867,519,-4.22469,30.5439
-350,505,-4.27997,-31.3998,0.00240664,0.00465039,-0.00338928,0.00709865,-4.16192e-05,-0.945225,0.00474636,0.0116531,874,519,-4.27995,31.3998
-343,505,-4.35272,-32.2667,0.00204446,0.00290041,-0.00224969,0.00476248,0.000182395,-0.879394,0.00311597,0.0114424,881,519,-4.35271,32.2667
-336,505,-4.40033,-33.1567,0.00168168,0.00124667,-0.00116489,0.0026492,0.000279156,-0.693101,0.00168082,0.0144989,888,519,-4.40033,33.1567
-329,505,-4.41498,-33.9896,0.00135351,-0.000260492,-0.00012734,0.0013635,-0.000270477,-0.0782517,0.00101129,0.0199831,895,519,-4.41496,33.9896
-322,505,-4.46228,-34.8471,0.00119479,-0.00159357,0.000792637,0.00140436,-0.00180314,0.25848,0.00185661,0.0240284,902,519,-4.46228,34.8471
-315,505,-4.51166,-35.722,0.00127498,-0.00287469,0.00154812,0.00178889,-0.00338861,0.320514,0.00303642,0.0176702,909,519,-4.51163,35.722
-308,505,-4.57739,-36.5405,0.00160487,-0.00332868,0.00211953,0.00239039,-0.0041142,0.354915,0.00379913,0.01349,916,519,-4.5774,36.5405
-301,505,-4.59735,-37.3904,0.00193437,-0.00302572,0.0023362,0.00286144,-0.00395279,0.37777,0.00395098,0.0206849,923,519,-4.59734,37.3905
-294,505,-4.58948,-38.1418,0,0,0,0,0,0,0,-1,930,519,-4.58949,38.1418
-287,505,-4.48944,-38.5596,0,0,0,0,0,0,0,-1,937,519,-4.48946,38.5596
-280,505,-2.79846,-27.7252,0,0,0,0,0,0,0,-1,944,519,-2.79845,27.7252
-273,505,-0.0680542,-9.44867,0,0,0,0,0,0,0,-1,951,519,-0.0680462,9.44866
-266,505,-0.036377,-9.07922,0,0,0,0,0,0,0,-1,958,519,-0.0364055,9.0792
-259,505,0.10321,-6.69824,0,0,0,0,0,0,0,-1,965,519,0.103235,6.69826
-252,505,6.82312,-15.6972,0,0,0,0,0,0,0,-1,972,519,6.82314,15.6972
-245,505,4.26727,-12.9861,0,0,0,0,0,0,0,-1,979,519,4.2673,12.9861
-238,505,1.67432,-11.2307,0,0,0,0,0,0,0,-1,986,519,1.67429,11.2307
-231,505,-0.958435,-8.3075,0,0,0,0,0,0,0,-1,993,519,-0.958421,8.30751
-224,505,-1.46399,-33.4399,0,0,0,0,0,0,0,-1,1000,519,-1.46397,33.4399
-217,505,-6.34302,-1.65533,0,0,0,0,0,0,0,-1,1007,519,-6.34299,1.65535
-210,505,-3.06128,-0.396301,0,0,0,0,0,0,0,-1,1014,519,-3.06129,0.396294
-203,505,-4.26465,2.03607,0,0,0,0,0,0,0,-1,1021,519,-4.26462,-2.03606
-196,505,-5.47595,4.27295,0,0,0,0,0,0,0,-1,1028,519,-5.47597,-4.27292
-189,505,1.51526,5.56207,0,0,0,0,0,0,0,-1,1035,519,1.51523,-5.56209
-182,505,2.97815,7.5097,0,0,0,0,0,0,0,-1,1042,519,2.97812,-7.5097
-175,505,-2.38416,-2.17548,0,0,0,0,0,0,0,-1,1049,519,-2.38411,2.1755
-168,505,0,0,0,0,0,0,0,0,0,-1,1056,519,0,0
-161,505,0,0,0,0,0,0,0,0,0,-1,1063,519,0,0
-154,505,0,0,0,0,0,0,0,0,0,-1,1070,519,0,0
-147,505,0,0,0,0,0,0,0,0,0,-1,1077,519,0,0
-140,505,0,0,0,0,0,0,0,0,0,-1,1084,519,0,0
-133,505,0,0,0,0,0,0,0,0,0,-1,1091,519,0,0
-126,505,0,0,0,0,0,0,0,0,0,-1,1098,519,0,0
-119,505,0,0,0,0,0,0,0,0,0,-1,1105,519,0,0
-112,505,0,0,0,0,0,0,0,0,0,-1,1112,519,0,0
-105,505,0,0,0,0,0,0,0,0,0,-1,1119,519,0,0
-98,505,0,0,0,0,0,0,0,0,0,-1,1126,519,0,0
-91,505,0,0,0,0,0,0,0,0,0,-1,1133,519,0,0
-84,505,0,0,0,0,0,0,0,0,0,-1,1140,519,0,0
-77,505,0,0,0,0,0,0,0,0,0,-1,1147,519,0,0
-70,505,0,0,0,0,0,0,0,0,0,-1,1154,519,0,0
-63,505,0,0,0,0,0,0,0,0,0,-1,1161,519,0,0
-56,505,0,0,0,0,0,0,0,0,0,-1,1168,519,0,0
-49,505,0,0,0,0,0,0,0,0,0,-1,1175,519,0,0
-42,505,0,0,0,0,0,0,0,0,0,-1,1182,519,0,0
-35,505,0,0,0,0,0,0,0,0,0,-1,1189,519,0,0
-28,505,0,0,0,0,0,0,0,0,0,-1,1196,519,0,0
-21,505,0,0,0,0,0,0,0,0,0,-1,1203,519,0,0
-14,505,0,0,0,0,0,0,0,0,0,-1,1210,519,0,0
-7,505,0,0,0,0,0,0,0,0,0,-1,1217,519,0,0
0,505,0,0,0,0,0,0,0,0,0,-1,1224,519,0,0
7,505,0,0,0,0,0,0,0,0,0,-1,1231,519,0,0
14,505,0,0,0,0,0,0,0,0,0,-1,1238,519,0,0
21,505,0,0,0,0,0,0,0,0,0,-1,1245,519,0,0
28,505,0,0,0,0,0,0,0,0,0,-1,1252,519,0,0
35,505,0,0,0,0,0,0,0,0,0,-1,1259,519,0,0
42,505,0,0,0,0,0,0,0,0,0,-1,1266,519,0,0
49,505,0,0,0,0,0,0,0,0,0,-1,1273,519,0,0
56,505,0,0,0,0,0,0,0,0,0,-1,1280,519,0,0
63,505,0,0,0,0,0,0,0,0,0,-1,1287,519,0,0
70,505,0,0,0,0,0,0,0,0,0,-1,1294,519,0,0
77,505,0,0,0,0,0,0,0,0,0,-1,1301,519,0,0
84,505,0,0,0,0,0,0,0,0,0,-1,1308,519,0,0
91,505,0,0,0,0,0,0,0,0,0,-1,1315,519,0,0
98,505,0,0,0,0,0,0,0,0,0,-1,1322,519,0,0
105,505,0,0,0,0,0,0,0,0,0,-1,1329,519,0,0
112,505,0,0,0,0,0,0,0,0,0,-1,1336,519,0,0
119,505,0,0,0,0,0,0,0,0,0,-1,1343,519,0,0
126,505,0,0,0,0,0,0,0,0,0,-1,1350,519,0,0
133,505,0,0,0,0,0,0,0,0,0,-1,1357,519,0,0
140,505,0,0,0,0,0,0,0,0,0,-1,1364,519,0,0
147,505,0,0,0,0,0,0,0,0,0,-1,1371,519,0,0
154,505,0,0,0,0,0,0,0,0,0,-1,1378,519,0,0
161,505,0,0,0,0,0,0,0,0,0,-1,1385,519,0,0
168,505,0,0,0,0,0,0,0,0,0,-1,1392,519,0,0
175,505,0,0,0,0,0,0,0,0,0,-1,1399,519,0,0
182,505,0,0,0,0,0,0,0,0,0,-1,1406,519,0,0
189,505,0,0,0,0,0,0,0,0,0,-1,1413,519,0,0
196,505,0,0,0,0,0,0,0,0,0,-1,1420,519,0,0
203,505,0,0,0,0,0,0,0,0,0,-1,1427,519,0,0
210,505,0,0,0,0,0,0,0,0,0,-1,1434,519,0,0
217,505,0,0,0,0,0,0,0,0,0,-1,1441,519,0,0
224,505,0,0,0,0,0,0,0,0,0,-1,1448,519,0,0
231,505,0,0,0,0,0,0,0,0,0,-1,1455,519,0,0
238,505,0,0,0,0,0,0,0,0,0,-1,1462,519,0,0
245,505,0,0,0,0,0,0,0,0,0,-1,1469,519,0,0
252,505,0,0,0,0,0,0,0,0,0,-1,1476,519,0,0
259,505,0,0,0,0,0,0,0,0,0,-1,1483,519,0,0
266,505,0,0,0,0,0,0,0,0,0,-1,1490,519,0,0
273,505,0,0,0,0,0,0,0,0,0,-1,1497,519,0,0
280,505,0,0,0,0,0,0,0,0,0,-1,1504,519,0,0
287,505,4.39478,0.499512,0,0,0,0,0,0,0,-1,1511,519,4.39476,-0.499506
294,505,4.88867,0.0822754,0,0,0,0,0,0,0,-1,1518,519,4.88871,-0.0822748
301,505,4.82153,-0.0704346,0,0,0,0,0,0,0,-1,1525,519,4.82156,0.0704312
308,505,4.67761,-0.29187,0,0,0,0,0,0,0,-1,1532,519,4.67762,0.291845
315,505,8.44055,-6.54352,0,0,0,0,0,0,0,-1,1539,519,8.44059,6.54349
322,505,4.78955,-0.594116,0,0,0,0,0,0,0,-1,1546,519,4.78957,0.594096
329,505,5.16321,0.434631,0,0,0,0,0,0,0,-1,1553,519,5.16316,-0.434614
336,505,4.94495,-0.920471,0,0,0,0,0,0,0,-1,1560,519,4.945,0.920495
343,505,5.01855,-1.4823,0,0,0,0,0,0,0,-1,1567,519,5.01851,1.48227
350,505,5.33154,-1.77838,0,0,0,0,0,0,0,-1,1574,519,5.33152,1.77838
357,505,5.56567,-1.9425,0,0,0,0,0,0,0,-1,1581,519,5.56562,1.94248
364,505,5.85205,-2.6579,0,0,0,0,0,0,0,-1,1588,519,5.85211,2.65788
371,505,5.88477,-7.00922,0,0,0,0,0,0,0,-1,1595,519,5.88473,7.00924
378,505,5.44104,-7.10162,0,0,0,0,0,0,0,-1,1602,519,5.44099,7.10162
385,505,6.64661,-8.65015,0,0,0,0,0,0,0,-1,1609,519,6.64662,8.65014
392,505,6.34558,-8.3429,0,0,0,0,0,0,0,-1,1616,519,6.34554,8.34288
399,505,7.45898,-9.70386,0,0,0,0,0,0,0,-1,1623,519,7.45899,9.70388
406,505,7.08679,-9.4928,0,0,0,0,0,0,0,-1,1630,519,7.08678,9.49278
413,505,8.4032,-14.0308,0,0,0,0,0,0,0,-1,1637,519,8.4032,14.0308
420,505,20.0098,-38.0817,0,0,0,0,0,0,0,-1,1644,519,20.0098,38.0816
427,505,20.017,-37.1019,0.00415124,0.00137205,-3.27325e-05,0.00415162,0.00137166,-0.0117755,0.00244248,0.0341568,1651,519,20.017,37.1019
434,505,19.9591,-36.1423,0.00335048,0.00113052,-0.000108382,0.00335576,0.00112524,-0.0486671,0.00197217,0.0136374,1658,519,19.9591,36.1423
441,505,19.9194,-35.2172,0.00278898,0.000995266,-6.35817e-05,0.00279123,0.000993015,-0.0353878,0.00163372,0.010699,1665,519,19.9194,35.2171
448,505,19.8656,-34.3774,0.0023487,0.000928842,6.98204e-05,0.00235213,0.000925417,0.0490165,0.00136824,0.011615,1672,519,19.8657,34.3774
455,505,19.8148,-33.5205,0.00197383,0.00093557,0.000211857,0.0020154,0.000894005,0.193734,0.00116606,0.0126626,1679,519,19.8148,33.5205
462,505,19.7684,-32.6316,0.00172205,0.00105779,0.000389848,0.00190206,0.000877773,0.432585,0.00109924,0.0121199,1686,519,19.7684,32.6316
469,505,19.7344,-31.7496,0.00167551,0.00130017,0.000669688,0.00218332,0.000792351,0.648786,0.00127624,0.0121373,1693,519,19.7343,31.7496
476,505,19.6747,-30.8862,0.00162979,0.00159416,0.000971849,0.00258399,0.000639965,0.776234,0.0015539,0.0128164,1700,519,19.6747,30.8862
483,505,19.6392,-30.0301,0.00171815,0.0018996,0.00132633,0.00313831,0.000479441,0.819547,0.00195211,0.0139918,1707,519,19.6391,30.0301
490,505,19.6119,-29.1485,0.00184989,0.00233483,0.0016858,0.00379551,0.000389206,0.856824,0.0024111,0.0136631,1714,519,19.6119,29.1485
497,505,19.5479,-28.2416,0.00207303,0.00274783,0.00200536,0.00444397,0.000376889,0.868743,0.00284535,0.0135703,1721,519,19.5478,28.2416
504,505,19.4752,-27.3245,0.00240676,0.00319339,0.00231897,0.00515216,0.000447985,0.869402,0.00329561,0.0137313,1728,519,19.4753,27.3245
511,505,19.4095,-26.4022,0.00273675,0.00372963,0.00261516,0.00589506,0.000571323,0.879198,0.00375412,0.0153151,1735,519,19.4095,26.4022
518,505,19.5228,-25.5765,0.00305533,0.00441227,0.00279611,0.00661105,0.000856553,0.904421,0.00415141,0.0438373,1742,519,19.5228,25.5765
525,505,19.6121,-24.5828,0,0,0,0,0,0,0,-1,1749,519,19.612,24.5828
532,505,19.2581,-23.6527,0,0,0,0,0,0,0,-1,1756,519,19.2581,23.6527
539,505,13.9879,-13.9018,0,0,0,0,0,0,0,-1,1763,519,13.988,13.9018
546,505,7.94946,-6.64539,0,0,0,0,0,0,0,-1,1770,519,7.94947,6.64539
553,505,2.82837,0.162659,0,0,0,0,0,0,0,-1,1777,519,2.82841,-0.162672
560,505,3.66223,-0.479797,0,0,0,0,0,0,0,-1,1784,519,3.66219,0.47982
567,505,4.65271,-0.950256,0,0,0,0,0,0,0,-1,1791,519,4.65274,0.95028
574,505,5.54443,-1.19977,0,0,0,0,0,0,0,-1,1798,519,5.54443,1.19974
581,505,0,0,0,0,0,0,0,0,0,-1,1805,519,0,0
588,505,0,0,0,0,0,0,0,0,0,-1,1812,519,0,0
595,505,0,0,0,0,0,0,0,0,0,-1,1819,519,0,0
602,505,0,0,0,0,0,0,0,0,0,-1,1826,519,0,0
609,505,0,0,0,0,0,0,0,0,0,-1,1833,519,0,0
616,505,0,0,0,0,0,0,0,0,0,-1,1840,519,0,0
623,505,0,0,0,0,0,0,0,0,0,-1,1847,519,0,0
630,505,0,0,0,0,0,0,0,0,0,-1,1854,519,0,0
637,505,0,0,0,0,0,0,0,0,0,-1,1861,519,0,0
644,505,0,0,0,0,0,0,0,0,0,-1,1868,519,0,0
651,505,0,0,0,0,0,0,0,0,0,-1,1875,519,0,0
658,505,0,0,0,0,0,0,0,0,0,-1,1882,519,0,0
665,505,0,0,0,0,0,0,0,0,0,-1,1889,519,0,0
672,505,0,0,0,0,0,0,0,0,0,-1,1896,519,0,0
679,505,0,0,0,0,0,0,0,0,0,-1,1903,519,0,0
686,505,0,0,0,0,0,0,0,0,0,-1,1910,519,0,0
693,505,0,0,0,0,0,0,0,0,0,-1,1917,519,0,0
700,505,0,0,0,0,0,0,0,0,0,-1,1924,519,0,0
707,505,0,0,0,0,0,0,0,0,0,-1,1931,519,0,0
714,505,0,0,0,0,0,0,0,0,0,-1,1938,519,0,0
721,505,0,0,0,0,0,0,0,0,0,-1,1945,519,0,0
728,505,0,0,0,0,0,0,0,0,0,-1,1952,519,0,0
735,505,0,0,0,0,0,0,0,0,0,-1,1959,519,0,0
742,505,0,0,0,0,0,0,0,0,0,-1,1966,519,0,0
749,505,0,0,0,0,0,0,0,0,0,-1,1973,519,0,0
756,505,0,0,0,0,0,0,0,0,0,-1,1980,519,0,0
763,505,0,0,0,0,0,0,0,0,0,-1,1987,519,0,0
770,505,0,0,0,0,0,0,0,0,0,-1,1994,519,0,0
777,505,0,0,0,0,0,0,0,0,0,-1,2001,519,0,0
784,505,0,0,0,0,0,0,0,0,0,-1,2008,519,0,0
791,505,0,0,0,0,0,0,0,0,0,-1,2015,519,0,0
798,505,0,0,0,0,0,0,0,0,0,-1,2022,519,0,0
805,505,0,0,0,0,0,0,0,0,0,-1,2029,519,0,0
812,505,0,0,0,0,0,0,0,0,0,-1,2036,519,0,0
-700,498,0,0,0,0,0,0,0,0,0,-1,524,526,0,0
-693,498,0,0,0,0,0,0,0,0,0,-1,531,526,0,0
-686,498,0,0,0,0,0,0,0,0,0,-1,538,526,0,0
-679,498,0,0,0,0,0,0,0,0,0,-1,545,526,0,0
-672,498,0,0,0,0,0,0,0,0,0,-1,552,526,0,0
-665,498,0,0,0,0,0,0,0,0,0,-1,559,526,0,0
-658,498,0,0,0,0,0,0,0,0,0,-1,566,526,0,0
-651,498,0,0,0,0,0,0,0,0,0,-1,573,526,0,0
-644,498,0,0,0,0,0,0,0,0,0,-1,580,526,0,0
-637,498,0,0,0,0,0,0,0,0,0,-1,587,526,0,0
-630,498,0,0,0,0,0,0,0,0,0,-1,594,526,0,0
-623,498,0,0,0,0,0,0,0,0,0,-1,601,526,0,0
-616,498,0,0,0,0,0,0,0,0,0,-1,608,526,0,0
-609,498,0,0,0,0,0,0,0,0,0,-1,615,526,0,0
-602,498,0,0,0,0,0,0,0,0,0,-1,622,526,0,0
-595,498,0,0,0,0,0,0,0,0,0,-1,629,526,0,0
-588,498,0,0,0,0,0,0,0,0,0,-1,636,526,0,0
-581,498,0,0,0,0,0,0,0,0,0,-1,643,526,0,0
-574,498,0,0,0,0,0,0,0,0,0,-1,650,526,0,0
-567,498,0,0,0,0,0,0,0,0,0,-1,657,526,0,0
-560,498,0,0,0,0,0,0,0,0,0,-1,664,526,0,0
-553,498,0,0,0,0,0,0,0,0,0,-1,671,526,0,0
-546,498,0,0,0,0,0,0,0,0,0,-1,678,526,0,0
-539,498,0,0,0,0,0,0,0,0,0,-1,685,526,0,0
-532,498,0,0,0,0,0,0,0,0,0,-1,692,526,0,0
-525,498,0,0,0,0,0,0,0,0,0,-1,699,526,0,0
-518,498,0,0,0,0,0,0,0,0,0,-1,706,526,0,0
-511,498,0,0,0,0,0,0,0,0,0,-1,713,526,0,0
-504,498,0,0,0,0,0,0,0,0,0,-1,720,526,0,0
-497,498,0,0,0,0,0,0,0,0,0,-1,727,526,0,0
-490,498,0,0,0,0,0,0,0,0,0,-1,734,526,0,0
-483,498,0,0,0,0,0,0,0,0,0,-1,741,526,0,0
-476,498,0,0,0,0,0,0,0,0,0,-1,748,526,0,0
-469,498,0,0,0,0,0,0,0,0,0,-1,755,526,0,0
-462,498,6.81024,1.15515,0,0,0,0,0,0,0,-1,762,526,6.81026,-1.15514
-455,498,3.25757,-3.0592,0,0,0,0,0,0,0,-1,769,526,3.25754,3.05921
-448,498,3.05939,-3.74298,0,0,0,0,0,0,0,-1,776,526,3.05939,3.74296
-441,498,2.77191,-6.08209,0,0,0,0,0,0,0,-1,783,526,2.77189,6.08207
-434,498,2.10681,-6.95929,0,0,0,0,0,0,0,-1,790,526,2.10682,6.9593
-427,498,-0.368042,-10.7726,0,0,0,0,0,0,0,-1,797,526,-0.36807,10.7726
-420,498,-1.05035,-10.5142,0,0,0,0,0,0,0,-1,804,526,-1.05034,10.5142
-413,498,-4.52112,-18.8354,0,0,0,0,0,0,0,-1,811,526,-4.52111,18.8354
-406,498,-4.78418,-24.0272,0,0,0,0,0,0,0,-1,818,526,-4.78418,24.0272
-399,498,-4.72833,-24.9478,0.0037732,0.0138867,-0.00953413,0.0196221,-0.00196219,-1.02923,0.0137821,0.0332949,825,526,-4.7283,24.9478
-392,498,-4.83929,-25.9371,0.00371327,0.0121195,-0.00874492,0.017619,-0.00178617,-1.00942,0.0123844,0.0177417,832,526,-4.83929,25.9371
-385,498,-4.88892,-26.852,0.00364611,0.0104559,-0.00783529,0.0155941,-0.00149214,-0.990367,0.0109275,0.0103631,839,526,-4.88894,26.852
-378,498,-4.92682,-27.7614,0.00351733,0.00885468,-0.00684803,0.0135357,-0.00116364,-0.971196,0.0094356,0.0102629,846,526,-4.9268,27.7614
-371,498,-4.98468,-28.6649,0.00328227,0.00720989,-0.0058066,0.0113758,-0.000883614,-0.948461,0.00789489,0.0159688,853,526,-4.98469,28.6649
-364,498,-5.06134,-29.5695,0.00294355,0.00545897,-0.00461248,0.00898214,-0.000579617,-0.9185,0.00619035,0.016162,860,526,-5.06136,29.5695
-357,498,-5.09302,-30.4711,0.00257346,0.00387209,-0.00339681,0.00668109,-0.000235541,-0.879836,0.00453461,0.0113801,867,526,-5.093,30.4711
-350,498,-5.13922,-31.3428,0.00221044,0.00233496,-0.00218945,0.00446304,8.23603e-05,-0.799612,0.00294829,0.0117882,874,526,-5.13919,31.3428
-343,498,-5.19238,-32.2491,0.00188921,0.00074213,-0.0010279,0.00249275,0.000138582,-0.530928,0.00161762,0.0154459,881,526,-5.19238,32.2491
-336,498,-5.20264,-33.141,0.00154271,-0.000767377,7.7402e-05,0.0015453,-0.000769968,0.0334561,0.00136147,0.0196274,888,526,-5.20264,33.141
-329,498,-5.23816,-33.9416,0.00121701,-0.00213476,0.00113046,0.00156265,-0.00248039,0.29672,0.00235421,0.0254351,895,526,-5.23818,33.9416
-322,498,-5.31097,-34.7838,0.00113422,-0.00319004,0.00194371,0.00187947,-0.00393528,0.366126,0.00342637,0.0280366,902,526,-5.31096,34.7838
-315,498,-5.38544,-35.6325,0.00134046,-0.00416113,0.00247212,0.00228807,-0.00510874,0.366046,0.00437283,0.0207409,909,526,-5.38545,35.6325
-308,498,-5.4137,-36.4741,0.0018008,-0.00450072,0.00282505,0.00288185,-0.00558177,0.365474,0.00496865,0.0233421,916,526,-5.41369,36.474
-301,498,-5.41486,-37.3924,0,0,0,0,0,0,0,-1,923,526,-5.41488,37.3924
-294,498,-4.91913,-37.795,0,0,0,0,0,0,0,-1,930,526,-4.91914,37.7951
-287,498,-0.91394,-13.4327,0,0,0,0,0,0,0,-1,937,526,-0.913935,13.4327
-280,498,-0.341614,-8.66608,0,0,0,0,0,0,0,-1,944,526,-0.341589,8.66606
-273,498,-0.988892,-8.62921,0,0,0,0,0,0,0,-1,951,526,-0.988906,8.62922
-266,498,0.362488,-6.33545,0,0,0,0,0,0,0,-1,958,526,0.362478,6.33547
-259,498,10.9454,-17.3615,0,0,0,0,0,0,0,-1,965,526,10.9454,17.3614
-252,498,8.56586,-14.6886,0,0,0,0,0,0,0,-1,972,526,8.56584,14.6886
-245,498,5.97382,-11.928,0,0,0,0,0,0,0,-1,979,526,5.97381,11.928
-238,498,2.24841,-13.8145,0,0,0,0,0,0,0,-1,986,526,2.24838,13.8145
-231,498,0.665894,-10.4898,0,0,0,0,0,0,0,-1,993,526,0.665863,10.4898
-224,498,-2.11243,-4.76312,0,0,0,0,0,0,0,-1,1000,526,-2.11245,4.76314
-217,498,-3.82239,-1.42841,0,0,0,0,0,0,0,-1,1007,526,-3.82241,1.42843
-210,498,-1.80591,-0.358215,0,0,0,0,0,0,0,-1,1014,526,-1.8059,0.3582
-203,498,-3.17316,1.06641,0,0,0,0,0,0,0,-1,1021,526,-3.17313,-1.0664
-196,498,-0.103271,5.40527,0,0,0,0,0,0,0,-1,1028,526,-0.103285,-5.40528
-189,498,3.00256,6.47137,0,0,0,0,0,0,0,-1,1035,526,3.00256,-6.47139
-182,498,0,0,0,0,0,0,0,0,0,-1,1042,526,0,0
-175,498,0,0,0,0,0,0,0,0,0,-1,1049,526,0,0
-168,498,0,0,0,0,0,0,0,0,0,-1,1056,526,0,0
-161,498,0,0,0,0,0,0,0,0,0,-1,1063,526,0,0
-154,498,0,0,0,0,0,0,0,0,0,-1,1070,526,0,0
-147,498,0,0,0,0,0,0,0,0,0,-1,1077,526,0,0
-140,498,0,0,0,0,0,0,0,0,0,-1,1084,526,0,0
-133,498,0,0,0,0,0,0,0,0,0,-1,1091,526,0,0
-126,498,0,0,0,0,0,0,0,0,0,-1,1098,526,0,0
-119,498,0,0,0,0,0,0,0,0,0,-1,1105,526,0,0
-112,498,0,0,0,0,0,0,0,0,0,-1,1112,526,0,0
-105,498,0,0,0,0,0,0,0,0,0,-1,1119,526,0,0
-98,498,0,0,0,0,0,0,0,0,0,-1,1126,526,0,0
-91,498,0,0,0,0,0,0,0,0,0,-1,1133,526,0,0
-84,498,0,0,0,0,0,0,0,0,0,-1,1140,526,0,0
-77,498,0,0,0,0,0,0,0,0,0,-1,1147,526,0,0
-70,498,0,0,0,0,0,0,0,0,0,-1,1154,526,0,0
-63,498,0,0,0,0,0,0,0,0,0,-1,1161,526,0,0
-56,498,0,0,0,0,0,0,0,0,0,-1,1168,526,0,0
-49,498,0,0,0,0,0,0,0,0,0,-1,1175,526,0,0
-42,498,0,0,0,0,0,0,0,0,0,-1,1182,526,0,0
-35,498,0,0,0,0,0,0,0,0,0,-1,1189,526,0,0
-28,498,0,0,0,0,0,0,0,0,0,-1,1196,526,0,0
-21,498,0,0,0,0,0,0,0,0,0,-1,1203,526,0,0
-14,498,0,0,0,0,0,0,0,0,0,-1,1210,526,0,0
-7,498,0,0,0,0,0,0,0,0,0,-1,1217,526,0,0
0,498,0,0,0,0,0,0,0,0,0,-1,1224,526,0,0
7,498,0,0,0,0,0,0,0,0,0,-1,1231,526,0,0
14,498,0,0,0,0,0,0,0,0,0,-1,1238,526,0,0
21,498,0,0,0,0,0,0,0,0,0,-1,1245,526,0,0
28,498,0,0,0,0,0,0,0,0,0,-1,1252,526,0,0
35,498,0,0,0,0,0,0,0,0,0,-1,1259,526,0,0
42,498,0,0,0,0,0,0,0,0,0,-1,1266,526,0,0
49,498,0,0,0,0,0,0,0,0,0,-1,1273,526,0,0
56,498,0,0,0,0,0,0,0,0,0,-1,1280,526,0,0
63,498,0,0,0,0,0,0,0,0,0,-1,1287,526,0,0
70,498,0,0,0,0,0,0,0,0,0,-1,1294,526,0,0
77,498,0,0,0,0,0,0,0,0,0,-1,1301,526,0,0
84,498,0,0,0,0,0,0,0,0,0,-1,1308,526,0,0
91,498,0,0,0,0,0,0,0,0,0,-1,1315,526,0,0
98,498,0,0,0,0,0,0,0,0,0,-1,1322,526,0,0
105,498,0,0,0,0,0,0,0,0,0,-1,1329,526,0,0
112,498,0,0,0,0,0,0,0,0,0,-1,1336,526,0,0
119,498,0,0,0,0,0,0,0,0,0,-1,1343,526,0,0
126,498,0,0,0,0,0,0,0,0,0,-1,1350,526,0,0
133,498,0,0,0,0,0,0,0,0,0,-1,1357,526,0,0
140,498,0,0,0,0,0,0,0,0,0,-1,1364,526,0,0
147,498,0,0,0,0,0,0,0,0,0,-1,1371,526,0,0
154,498,0,0,0,0,0,0,0,0,0,-1,1378,526,0,0
161,498,0,0,0,0,0,0,0,0,0,-1,1385,526,0,0
168,498,0,0,0,0,0,0,0,0,0,-1,1392,526,0,0
175,498,0,0,0,0,0,0,0,0,0,-1,1399,526,0,0
182,498,0,0,0,0,0,0,0,0,0,-1,1406,526,0,0
189,498,0,0,0,0,0,0,0,0,0,-1,1413,526,0,0
196,498,0,0,0,0,0,0,0,0,0,-1,1420,526,0,0
203,498,0,0,0,0,0,0,0,0,0,-1,1427,526,0,0
210,498,0,0,0,0,0,0,0,0,0,-1,1434,526,0,0
217,498,0,0,0,0,0,0,0,0,0,-1,1441,526,0,0
224,498,0,0,0,0,0,0,0,0,0,-1,1448,526,0,0
231,498,0,0,0,0,0,0,0,0,0,-1,1455,526,0,0
238,498,0,0,0,0,0,0,0,0,0,-1,1462,526,0,0
245,498,0,0,0,0,0,0,0,0,0,-1,1469,526,0,0
252,498,0,0,0,0,0,0,0,0,0,-1,1476,526,0,0
259,498,0,0,0,0,0,0,0,0,0,-1,1483,526,0,0
266,498,0,0,0,0,0,0,0,0,0,-1,1490,526,0,0
273,498,0,0,0,0,0,0,0,0,0,-1,1497,526,0,0
280,498,0,0,0,0,0,0,0,0,0,-1,1504,526,0,0
287,498,0,0,0,0,0,0,0,0,0,-1,1511,526,0,0
294,498,0,0,0,0,0,0,0,0,0,-1,1518,526,0,0
301,498,0,0,0,0,0,0,0,0,0,-1,1525,526,0,0
308,498,4.77942,-0.293884,0,0,0,0,0,0,0,-1,1532,526,4.77939,0.293899
315,498,4.56091,-0.564148,0,0,0,0,0,0,0,-1,1539,526,4.56097,0.564142
322,498,4.52344,-0.447266,0,0,0,0,0,0,0,-1,1546,526,4.52341,0.447295
329,498,4.63232,-0.156982,0,0,0,0,0,0,0,-1,1553,526,4.63238,0.156991
336,498,5.22644,0.0925903,0,0,0,0,0,0,0,-1,1560,526,5.22648,-0.0926188
343,498,6.22607,-1.67615,0,0,0,0,0,0,0,-1,1567,526,6.22605,1.67617
350,498,6.19373,-1.59906,0,0,0,0,0,0,0,-1,1574,526,6.19367,1.59906
357,498,6.21472,-1.58929,0,0,0,0,0,0,0,-1,1581,526,6.21476,1.58927
364,498,5.73547,-1.2019,0,0,0,0,0,0,0,-1,1588,526,5.73547,1.20192
371,498,3.27087,-4.55334,0,0,0,0,0,0,0,-1,1595,526,3.27089,4.55332
378,498,8.42944,-4.70624,0,0,0,0,0,0,0,-1,1602,526,8.42942,4.70624
385,498,4.7793,-5.15314,0,0,0,0,0,0,0,-1,1609,526,4.77935,5.15311
392,498,9.12439,-8.57953,0,0,0,0,0,0,0,-1,1616,526,9.12443,8.57955
399,498,7.98938,-9.46021,0,0,0,0,0,0,0,-1,1623,526,7.98936,9.4602
406,498,7.58081,-9.26819,0,0,0,0,0,0,0,-1,1630,526,7.58085,9.26817
413,498,7.17236,-9.07611,0,0,0,0,0,0,0,-1,1637,526,7.17234,9.07614
420,498,11.4314,-16.1147,0,0,0,0,0,0,0,-1,1644,526,11.4313,16.1147
427,498,20.707,-37.1454,0,0,0,0,0,0,0,-1,1651,526,20.707,37.1454
434,498,20.687,-36.1198,0.00352658,0.000881913,-0.000472479,0.00360845,0.000800038,-0.171585,0.00218826,0.0422506,1658,526,20.6871,36.1198
441,498,20.7656,-35.1921,0.00285781,0.00067016,-0.000526335,0.00297786,0.000550114,-0.224242,0.00182965,0.0136974,1665,526,20.7657,35.1921
448,498,20.7557,-34.3011,0.00240688,0.00064357,-0.000418733,0.00250126,0.000549186,-0.2217,0.00151793,0.01126,1672,526,20.7557,34.3011
455,498,20.694,-33.4554,0.00208132,0.000667917,-0.00032179,0.00215113,0.000598103,-0.213643,0.0012821,0.0154795,1679,526,20.6939,33.4554
462,498,20.6556,-32.5995,0.00184547,0.000789724,-0.000164933,0.00187064,0.000764557,-0.151419,0.001086,0.0178233,1686,526,20.6557,32.5996
469,498,20.6117,-31.7282,0.0017563,0.00102026,0.000116582,0.00177433,0.00100224,0.153391,0.00102728,0.0149179,1693,526,20.6116,31.7282
476,498,20.5724,-30.8618,0.00173972,0.00131304,0.00043766,0.00201327,0.00103949,0.558615,0.00116257,0.0106576,1700,526,20.5724,30.8618
483,498,20.5149,-29.9874,0.0018229,0.00159373,0.000792427,0.00250898,0.000907644,0.713597,0.0014669,0.00943145,1707,526,20.5149,29.9874
490,498,20.4427,-29.1146,0.00188762,0.00201897,0.00112735,0.00308255,0.000824032,0.814494,0.00184283,0.0121308,1714,526,20.4427,29.1147
497,498,20.3942,-28.2053,0.00202315,0.00248247,0.00149106,0.00376146,0.000744165,0.86181,0.00230007,0.0129835,1721,526,20.3941,28.2053
504,498,20.3459,-27.2876,0.00224677,0.00285614,0.00183235,0.00440896,0.000693951,0.867784,0.00273747,0.0157345,1728,526,20.346,27.2876
511,498,20.2927,-26.3725,0.00240712,0.00332471,0.00214059,0.00505512,0.000676708,0.890965,0.00316869,0.0177837,1735,526,20.2927,26.3725
518,498,20.3376,-25.4513,0.0024619,0.00388407,0.00233969,0.00561835,0.000727621,0.932924,0.00352812,0.0245989,1742,526,20.3376,25.4513
525,498,20.1199,-24.5704,0.00248881,0.00445896,0.00252898,0.00618795,0.000759825,0.971116,0.0038968,0.0436683,1749,526,20.1199,24.5704
532,498,20.0685,-23.5994,0,0,0,0,0,0,0,-1,1756,526,20.0684,23.5994
539,498,19.6492,-22.4478,0,0,0,0,0,0,0,-1,1763,526,19.6492,22.4478
546,498,10.2014,-8.47589,0,0,0,0,0,0,0,-1,1770,526,10.2014,8.47589
553,498,5.93958,-1.71448,0,0,0,0,0,0,0,-1,1777,526,5.93956,1.71447
560,498,3.69385,-0.615112,0,0,0,0,0,0,0,-1,1784,526,3.69381,0.615118
567,498,5.12695,-0.581604,0,0,0,0,0,0,0,-1,1791,526,5.12699,0.58159
574,498,3.88,0.0286255,0,0,0,0,0,0,0,-1,1798,526,3.87999,-0.0286535
581,498,10.8722,2.58551,0,0,0,0,0,0,0,-1,1805,526,10.8723,-2.58551
588,498,0,0,0,0,0,0,0,0,0,-1,1812,526,0,0
595,498,0,0,0,0,0,0,0,0,0,-1,1819,526,0,0
602,498,0,0,0,0,0,0,0,0,0,-1,1826,526,0,0
609,498,0,0,0,0,0,0,0,0,0,-1,1833,526,0,0
616,498,0,0,0,0,0,0,0,0,0,-1,1840,526,0,0
623,498,0,0,0,0,0,0,0,0,0,-1,1847,526,0,0
630,498,0,0,0,0,0,0,0,0,0,-1,1854,526,0,0
637,498,0,0,0,0,0,0,0,0,0,-1,1861,526,0,0
644,498,0,0,0,0,0,0,0,0,0,-1,1868,526,0,0
651,498,0,0,0,0,0,0,0,0,0,-1,1875,526,0,0
658,498,0,0,0,0,0,0,0,0,0,-1,1882,526,0,0
665,498,0,0,0,0,0,0,0,0,0,-1,1889,526,0,0
672,498,0,0,0,0,0,0,0,0,0,-1,1896,526,0,0
679,498,0,0,0,0,0,0,0,0,0,-1,1903,526,0,0
686,498,0,0,0,0,0,0,0,0,0,-1,1910,526,0,0
693,498,0,0,0,0,0,0,0,0,0,-1,1917,526,0,0
700,498,0,0,0,0,0,0,0,0,0,-1,1924,526,0,0
707,498,0,0,0,0,0,0,0,0,0,-1,1931,526,0,0
714,498,0,0,0,0,0,0,0,0,0,-1,1938,526,0,0
721,498,0,0,0,0,0,0,0,0,0,-1,1945,526,0,0
728,498,0,0,0,0,0,0,0,0,0,-1,1952,526,0,0
735,498,0,0,0,0,0,0,0,0,0,-1,1959,526,0,0
742,498,0,0,0,0,0,0,0,0,0,-1,1966,526,0,0
749,498,0,0,0,0,0,0,0,0,0,-1,1973,526,0,0
756,498,0,0,0,0,0,0,0,0,0,-1,1980,526,0,0
763,498,0,0,0,0,0,0,0,0,0,-1,1987,526,0,0
770,498,0,0,0,0,0,0,0,0,0,-1,1994,526,0,0
777,498,0,0,0,0,0,0,0,0,0,-1,2001,526,0,0
784,498,0,0,0,0,0,0,0,0,0,-1,2008,526,0,0
791,498,0,0,0,0,0,0,0,0,0,-1,2015,526,0,0
798,498,0,0,0,0,0,0,0,0,0,-1,2022,526,0,0
805,498,0,0,0,0,0,0,0,0,0,-1,2029,526,0,0
812,498,0,0,0,0,0,0,0,0,0,-1,2036,526,0,0
-700,491,0,0,0,0,0,0,0,0,0,-1,524,533,0,0
-693,491,0,0,0,0,0,0,0,0,0,-1,531,533,0,0
-686,491,0,0,0,0,0,0,0,0,0,-1,538,533,0,0
-679,491,0,0,0,0,0,0,0,0,0,-1,545,533,0,0
-672,491,0,0,0,0,0,0,0,0,0,-1,552,533,0,0
-665,491,0,0,0,0,0,0,0,0,0,-1,559,533,0,0
-658,491,0,0,0,0,0,0,0,0,0,-1,566,533,0,0
-651,491,0,0,0,0,0,0,0,0,0,-1,573,533,0,0
-644,491,0,0,0,0,0,0,0,0,0,-1,580,533,0,0
-637,491,0,0,0,0,0,0,0,0,0,-1,587,533,0,0
-630,491,0,0,0,0,0,0,0,0,0,-1,594,533,0,0
-623,491,0,0,0,0,0,0,0,0,0,-1,601,533,0,0
-616,491,0,0,0,0,0,0,0,0,0,-1,608,533,0,0
-609,491,0,0,0,0,0,0,0,0,0,-1,615,533,0,0
-602,491,0,0,0,0,0,0,0,0,0,-1,622,533,0,0
-595,491,0,0,0,0,0,0,0,0,0,-1,629,533,0,0
-588,491,0,0,0,0,0,0,0,0,0,-1,636,533,0,0
-581,491,0,0,0,0,0,0,0,0,0,-1,643,533,0,0
-574,491,0,0,0,0,0,0,0,0,0,-1,650,533,0,0
-567,491,0,0,0,0,0,0,0,0,0,-1,657,533,0,0
-560,491,0,0,0,0,0,0,0,0,0,-1,664,533,0,0
-553,491,0,0,0,0,0,0,0,0,0,-1,671,533,0,0
-546,491,0,0,0,0,0,0,0,0,0,-1,678,533,0,0
-539,491,0,0,0,0,0,0,0,0,0,-1,685,533,0,0
-532,491,0,0,0,0,0,0,0,0,0,-1,692,533,0,0
-525,491,0,0,0,0,0,0,0,0,0,-1,699,533,0,0
-518,491,0,0,0,0,0,0,0,0,0,-1,706,533,0,0
-511,491,0,0,0,0,0,0,0,0,0,-1,713,533,0,0
-504,491,0,0,0,0,0,0,0,0,0,-1,720,533,0,0
-497,491,0,0,0,0,0,0,0,0,0,-1,727,533,0,0
-490,491,0,0,0,0,0,0,0,0,0,-1,734,533,0,0
-483,491,0,0,0,0,0,0,0,0,0,-1,741,533,0,0
-476,491,0,0,0,0,0,0,0,0,0,-1,748,533,0,0
-469,491,-5.85913,4.55011,0,0,0,0,0,0,0,-1,755,533,-5.8591,-4.55009
-462,491,-9.93713,4.90381,0,0,0,0,0,0,0,-1,762,533,-9.93716,-4.9038
-455,491,1.9494,-0.27887,0,0,0,0,0,0,0,-1,769,533,1.94941,0.27885
-448,491,2.68909,-1.8999,0,0,0,0,0,0,0,-1,776,533,2.6891,1.89988
-441,491,3.46069,-3.51855,0,0,0,0,0,0,0,-1,783,533,3.46071,3.51854
-434,491,2.67145,-7.44061,0,0,0,0,0,0,0,-1,790,533,2.67146,7.44061
-427,491,2.27136,-8.34546,0,0,0,0,0,0,0,-1,797,533,2.27136,8.34546
-420,491,-6.22656,-21.6079,0,0,0,0,0,0,0,-1,804,533,-6.22658,21.6079
-413,491,-5.56049,-22.9657,0,0,0,0,0,0,0,-1,811,533,-5.56047,22.9657
-406,491,-5.55518,-24.0987,0.0027395,0.0125526,-0.00745192,0.0165682,-0.00127614,-1.07654,0.0114945,0.030232,818,533,-5.55518,24.0987
-399,491,-5.60699,-25.0845,0.00266152,0.0107125,-0.00683316,0.0146177,-0.00124374,-1.05158,0.0101851,0.0152381,825,533,-5.607,25.0846
-392,491,-5.72357,-25.9652,0.00268212,0.00909064,-0.00617262,0.0128411,-0.00106837,-1.02481,0.00893818,0.0121851,832,533,-5.72355,25.9652
-385,491,-5.77045,-26.8281,0.00273396,0.0075736,-0.00544047,0.0111081,-0.000800565,-0.994651,0.00768618,0.0100353,839,533,-5.77044,26.8282
-378,491,-5.80414,-27.7118,0.00272094,0.00610203,-0.00462215,0.0093331,-0.000510122,-0.960716,0.00639889,0.0135891,846,533,-5.80416,27.7118
-371,491,-5.85938,-28.6082,0.00259491,0.00460836,-0.0037714,0.0075051,-0.000301819,-0.915825,0.00510698,0.0143319,853,533,-5.85936,28.6082
-364,491,-5.91699,-29.5148,0.00237959,0.00303319,-0.00279081,0.00551627,-0.000103483,-0.843683,0.00371249,0.0135185,860,533,-5.91699,29.5148
-357,491,-5.95862,-30.3918,0.00215202,0.00165008,-0.00180508,0.00372349,7.86065e-05,-0.716323,0.00245655,0.0123506,867,533,-5.95863,30.3918
-350,491,-6.00323,-31.2476,0.0019281,0.000334255,-0.000831966,0.00228324,-2.08868e-05,-0.403454,0.00152917,0.0157641,874,533,-6.00326,31.2476
-343,491,-6.02234,-32.1592,0.00171406,-0.000996292,0.000110266,0.00171854,-0.00100077,0.0405937,0.00158812,0.0275639,881,533,-6.02236,32.1592
-336,491,-6.0434,-33.087,0.00145308,-0.00227583,0.00102837,0.00171788,-0.00254064,0.252023,0.00247391,0.0276863,888,533,-6.04342,33.087
-329,491,-6.08966,-33.8687,0.00119947,-0.00344767,0.00193391,0.00189898,-0.00414718,0.347065,0.00357029,0.0271917,895,533,-6.08965,33.8686
-322,491,-6.16785,-34.7087,0.00128099,-0.0041569,0.00248724,0.00224702,-0.00512293,0.370461,0.00436169,0.0241181,902,533,-6.16782,34.7088
-315,491,-6.26056,-35.5045,0.00169635,-0.00466369,0.00276571,0.0027308,-0.00569814,0.357914,0.00496595,0.0223049,909,533,-6.26054,35.5045
-308,491,-6.22699,-36.5058,0,0,0,0,0,0,0,-1,916,533,-6.22702,36.5058
-301,491,-5.89954,-37.2919,0,0,0,0,0,0,0,-1,923,533,-5.89955,37.292
-294,491,-0.777283,-8.60913,0,0,0,0,0,0,0,-1,930,533,-0.777288,8.6091
-287,491,-0.26123,-8.69055,0,0,0,0,0,0,0,-1,937,533,-0.261204,8.69053
-280,491,0.2948,-5.99219,0,0,0,0,0,0,0,-1,944,533,0.294811,5.99221
-273,491,0.369995,-5.33691,0,0,0,0,0,0,0,-1,951,533,0.369985,5.33693
-266,491,1.1167,-5.0321,0,0,0,0,0,0,0,-1,958,533,1.11668,5.0321
-259,491,12.0862,-16.9615,0,0,0,0,0,0,0,-1,965,533,12.0862,16.9615
-252,491,9.72443,-13.8417,0,0,0,0,0,0,0,-1,972,533,9.72444,13.8418
-245,491,5.27258,-14.3619,0,0,0,0,0,0,0,-1,979,533,5.27255,14.3619
-238,491,3.65381,-11.1472,0,0,0,0,0,0,0,-1,986,533,3.6538,11.1472
-231,491,2.17719,-7.86835,0,0,0,0,0,0,0,-1,993,533,2.17719,7.86832
-224,491,0.554626,-4.61725,0,0,0,0,0,0,0,-1,1000,533,0.554608,4.61727
-217,491,-2.92743,-1.0766,0,0,0,0,0,0,0,-1,1007,533,-2.92743,1.07659
-210,491,-0.92395,0.374512,0,0,0,0,0,0,0,-1,1014,533,-0.923959,-0.374531
-203,491,0.417419,4.77161,0,0,0,0,0,0,0,-1,1021,533,0.417446,-4.77162
-196,491,0,0,0,0,0,0,0,0,0,-1,1028,533,0,0
-189,491,0,0,0,0,0,0,0,0,0,-1,1035,533,0,0
-182,491,0,0,0,0,0,0,0,0,0,-1,1042,533,0,0
-175,491,0,0,0,0,0,0,0,0,0,-1,1049,533,0,0
-168,491,0,0,0,0,0,0,0,0,0,-1,1056,533,0,0
-161,491,0,0,0,0,0,0,0,0,0,-1,1063,533,0,0
-154,491,0,0,0,0,0,0,0,0,0,-1,1070,533,0,0
-147,491,0,0,0,0,0,0,0,0,0,-1,1077,533,0,0
-140,491,0,0,0,0,0,0,0,0,0,-1,1084,533,0,0
-133,491,0,0,0,0,0,0,0,0,0,-1,1091,533,0,0
-126,491,0,0,0,0,0,0,0,0,0,-1,1098,533,0,0
-119,491,0,0,0,0,0,0,0,0,0,-1,1105,533,0,0
-112,491,0,0,0,0,0,0,0,0,0,-1,1112,533,0,0
-105,491,0,0,0,0,0,0,0,0,0,-1,1119,533,0,0
-98,491,0,0,0,0,0,0,0,0,0,-1,1126,533,0,0
-91,491,0,0,0,0,0,0,0,0,0,-1,1133,533,0,0
-84,491,0,0,0,0,0,0,0,0,0,-1,1140,533,0,0
-77,491,0,0,0,0,0,0,0,0,0,-1,1147,533,0,0
-70,491,0,0,0,0,0,0,0,0,0,-1,1154,533,0,0
-63,491,0,0,0,0,0,0,0,0,0,-1,1161,533,0,0
-56,491,0,0,0,0,0,0,0,0,0,-1,1168,533,0,0
-49,491,0,0,0,0,0,0,0,0,0,-1,1175,533,0,0
-42,491,0,0,0,0,0,0,0,0,0,-1,1182,533,0,0
-35,491,0,0,0,0,0,0,0,0,0,-1,1189,533,0,0
-28,491,0,0,0,0,0,0,0,0,0,-1,1196,533,0,0
-21,491,0,0,0,0,0,0,0,0,0,-1,1203,533,0,0
-14,491,0,0,0,0,0,0,0,0,0,-1,1210,533,0,0
-7,491,0,0,0,0,0,0,0,0,0,-1,1217,533,0,0
0,491,0,0,0,0,0,0,0,0,0,-1,1224,533,0,0
7,491,0,0,0,0,0,0,0,0,0,-1,1231,533,0,0
14,491,0,0,0,0,0,0,0,0,0,-1,1238,533,0,0
21,491,0,0,0,0,0,0,0,0,0,-1,1245,533,0,0
28,491,0,0,0,0,0,0,0,0,0,-1,1252,533,0,0
35,491,0,0,0,0,0,0,0,0,0,-1,1259,533,0,0
42,491,0,0,0,0,0,0,0,0,0,-1,1266,533,0,0
49,491,0,0,0,0,0,0,0,0,0,-1,1273,533,0,0
56,491,0,0,0,0,0,0,0,0,0,-1,1280,533,0,0
63,491,0,0,0,0,0,0,0,0,0,-1,1287,533,0,0
70,491,0,0,0,0,0,0,0,0,0,-1,1294,533,0,0
77,491,0,0,0,0,0,0,0,0,0,-1,1301,533,0,0
84,491,0,0,0,0,0,0,0,0,0,-1,1308,533,0,0
91,491,0,0,0,0,0,0,0,0,0,-1,1315,533,0,0
98,491,0,0,0,0,0,0,0,0,0,-1,1322,533,0,0
105,491,0,0,0,0,0,0,0,0,0,-1,1329,533,0,0
112,491,0,0,0,0,0,0,0,0,0,-1,1336,533,0,0
119,491,0,0,0,0,0,0,0,0,0,-1,1343,533,0,0
126,491,0,0,0,0,0,0,0,0,0,-1,1350,533,0,0
133,491,0,0,0,0,0,0,0,0,0,-1,1357,533,0,0
140,491,0,0,0,0,0,0,0,0,0,-1,1364,533,0,0
147,491,0,0,0,0,0,0,0,0,0,-1,1371,533,0,0
154,491,0,0,0,0,0,0,0,0,0,-1,1378,533,0,0
161,491,0,0,0,0,0,0,0,0,0,-1,1385,533,0,0
168,491,0,0,0,0,0,0,0,0,0,-1,1392,533,0,0
175,491,0,0,0,0,0,0,0,0,0,-1,1399,533,0,0
182,491,0,0,0,0,0,0,0,0,0,-1,1406,533,0,0
189,491,0,0,0,0,0,0,0,0,0,-1,1413,533,0,0
196,491,0,0,0,0,0,0,0,0,0,-1,1420,533,0,0
203,491,0,0,0,0,0,0,0,0,0,-1,1427,533,0,0
210,491,0,0,0,0,0,0,0,0,0,-1,1434,533,0,0
217,491,0,0,0,0,0,0,0,0,0,-1,1441,533,0,0
224,491,0,0,0,0,0,0,0,0,0,-1,1448,533,0,0
231,491,0,0,0,0,0,0,0,0,0,-1,1455,533,0,0
238,491,0,0,0,0,0,0,0,0,0,-1,1462,533,0,0
245,491,0,0,0,0,0,0,0,0,0,-1,1469,533,0,0
252,491,0,0,0,0,0,0,0,0,0,-1,1476,533,0,0
259,491,0,0,0,0,0,0,0,0,0,-1,1483,533,0,0
266,491,0,0,0,0,0,0,0,0,0,-1,1490,533,0,0
273,491,0,0,0,0,0,0,0,0,0,-1,1497,533,0,0
280,491,0,0,0,0,0,0,0,0,0,-1,1504,533,0,0
287,491,0,0,0,0,0,0,0,0,0,-1,1511,533,0,0
294,491,0,0,0,0,0,0,0,0,0,-1,1518,533,0,0
301,491,0,0,0,0,0,0,0,0,0,-1,1525,533,0,0
308,491,0,0,0,0,0,0,0,0,0,-1,1532,533,0,0
315,491,0,0,0,0,0,0,0,0,0,-1,1539,533,0,0
322,491,4.26331,-0.734314,0,0,0,0,0,0,0,-1,1546,533,4.26326,0.734324
329,491,4.25354,-0.783752,0,0,0,0,0,0,0,-1,1553,533,4.25359,0.783734
336,491,4.81604,-0.722107,0,0,0,0,0,0,0,-1,1560,533,4.81605,0.722115
343,491,6.14478,-1.44281,0,0,0,0,0,0,0,-1,1567,533,6.14474,1.44281
350,491,6.36353,-1.30792,0,0,0,0,0,0,0,-1,1574,533,6.36352,1.3079
357,491,6.69482,-1.06018,0,0,0,0,0,0,0,-1,1581,533,6.69489,1.06018
364,491,8.01086,-1.69604,0,0,0,0,0,0,0,-1,1588,533,8.01087,1.69607
371,491,8.2135,-0.539307,0,0,0,0,0,0,0,-1,1595,533,8.21348,0.53929
378,491,13.3589,2.17267,0,0,0,0,0,0,0,-1,1602,533,13.3589,-2.17264
385,491,8.08228,-4.95471,0,0,0,0,0,0,0,-1,1609,533,8.08227,4.95474
392,491,2.88721,-4.30988,0,0,0,0,0,0,0,-1,1616,533,2.88716,4.30986
399,491,8.95862,-8.55518,0,0,0,0,0,0,0,-1,1623,533,8.95864,8.55516
406,491,8.16541,-9.00806,0,0,0,0,0,0,0,-1,1630,533,8.16535,9.00807
413,491,5.31848,-3.7124,0,0,0,0,0,0,0,-1,1637,533,5.31849,3.7124
420,491,4.86389,-3.95892,0,0,0,0,0,0,0,-1,1644,533,4.86387,3.95893
427,491,11.5096,-15.2742,0,0,0,0,0,0,0,-1,1651,533,11.5096,15.2742
434,491,21.4836,-36.1056,0,0,0,0,0,0,0,-1,1658,533,21.4836,36.1056
441,491,21.6207,-34.8881,0.00295697,0.000300115,-0.00107159,0.0033353,-7.82179e-05,-0.339395,0.00225006,0.0368613,1665,533,21.6207,34.8881
448,491,21.5804,-34.2939,0.00244021,0.000393625,-0.000969487,0.00282653,7.29528e-06,-0.379203,0.00188193,0.0221795,1672,533,21.5804,34.294
455,491,21.5385,-33.401,0.00212501,0.000461727,-0.000905237,0.00252263,6.41084e-05,-0.413872,0.0016608,0.0153225,1679,533,21.5384,33.401
462,491,21.5391,-32.5455,0.00184328,0.000563085,-0.000748692,0.0021882,0.000218162,-0.431717,0.00139179,0.0170933,1686,533,21.5391,32.5455
469,491,21.4741,-31.6926,0.00162314,0.000736912,-0.000439167,0.0018039,0.000556154,-0.390461,0.00106669,0.016224,1693,533,21.4741,31.6926
476,491,21.4498,-30.8162,0.00158416,0.000982573,-7.5858e-05,0.00159358,0.000973155,-0.12352,0.000927537,0.0108108,1700,533,21.4498,30.8161
483,491,21.394,-29.9131,0.00161965,0.00120391,0.000290889,0.00176931,0.00105425,0.47517,0.00102775,0.0130064,1707,533,21.3941,29.9131
490,491,21.3234,-29.0682,0.00160215,0.00157484,0.000614001,0.00220265,0.000974343,0.77428,0.00127451,0.0116216,1714,533,21.3233,29.0682
497,491,21.2715,-28.1644,0.00165811,0.00204941,0.00102883,0.00290102,0.000806492,0.879361,0.00172906,0.0117881,1721,533,21.2714,28.1644
504,491,21.2473,-27.2252,0.00180096,0.00232138,0.00139531,0.00348054,0.000641804,0.877584,0.00213877,0.0144909,1728,533,21.2473,27.2251
511,491,21.1805,-26.3274,0.001862,0.00270246,0.00172273,0.00405547,0.000508987,0.905029,0.00255097,0.0147752,1735,533,21.1805,26.3274
518,491,21.1246,-25.4481,0.00178477,0.00315618,0.00195227,0.00453966,0.000401284,0.954286,0.00290194,0.0118597,1742,533,21.1246,25.4481
525,491,21.0946,-24.5392,0.00171064,0.00362775,0.00217865,0.00504939,0.000288998,0.992643,0.00327418,0.0119766,1749,533,21.0946,24.5392
532,491,21.0479,-23.6328,0.00156831,0.0042822,0.00239011,0.00567369,0.00017682,1.04358,0.00372492,0.0296209,1756,533,21.0478,23.6328
539,491,21.026,-22.6511,0,0,0,0,0,0,0,-1,1763,533,21.0259,22.651
546,491,20.5016,-21.559,0,0,0,0,0,0,0,-1,1770,533,20.5016,21.559
553,491,10.5021,-7.77869,0,0,0,0,0,0,0,-1,1777,533,10.502,7.77871
560,491,6.28455,-1.43585,0,0,0,0,0,0,0,-1,1784,533,6.28458,1.43586
567,491,5.67651,-1.3562,0,0,0,0,0,0,0,-1,1791,533,5.67649,1.3562
574,491,8.0719,1.58325,0,0,0,0,0,0,0,-1,1798,533,8.07195,-1.58326
581,491,9.44812,1.60931,0,0,0,0,0,0,0,-1,1805,533,9.44808,-1.60933
588,491,11.0497,1.54962,0,0,0,0,0,0,0,-1,1812,533,11.0496,-1.54963
595,491,0,0,0,0,0,0,0,0,0,-1,1819,533,0,0
602,491,0,0,0,0,0,0,0,0,0,-1,1826,533,0,0
609,491,0,0,0,0,0,0,0,0,0,-1,1833,533,0,0
616,491,0,0,0,0,0,0,0,0,0,-1,1840,533,0,0
623,491,0,0,0,0,0,0,0,0,0,-1,1847,533,0,0
630,491,0,0,0,0,0,0,0,0,0,-1,1854,533,0,0
637,491,0,0,0,0,0,0,0,0,0,-1,1861,533,0,0
644,491,0,0,0,0,0,0,0,0,0,-1,1868,533,0,0
651,491,0,0,0,0,0,0,0,0,0,-1,1875,533,0,0
658,491,0,0,0,0,0,0,0,0,0,-1,1882,533,0,0
665,491,0,0,0,0,0,0,0,0,0,-1,1889,533,0,0
672,491,0,0,0,0,0,0,0,0,0,-1,1896,533,0,0
679,491,0,0,0,0,0,0,0,0,0,-1,1903,533,0,0
686,491,0,0,0,0,0,0,0,0,0,-1,1910,533,0,0
693,491,0,0,0,0,0,0,0,0,0,-1,1917,533,0,0
700,491,0,0,0,0,0,0,0,0,0,-1,1924,533,0,0
707,491,0,0,0,0,0,0,0,0,0,-1,1931,533,0,0
714,491,0,0,0,0,0,0,0,0,0,-1,1938,533,0,0
721,491,0,0,0,0,0,0,0,0,0,-1,1945,533,0,0
728,491,0,0,0,0,0,0,0,0,0,-1,1952,533,0,0
735,491,0,0,0,0,0,0,0,0,0,-1,1959,533,0,0
742,491,0,0,0,0,0,0,0,0,0,-1,1966,533,0,0
749,491,0,0,0,0,0,0,0,0,0,-1,1973,533,0,0
756,491,0,0,0,0,0,0,0,0,0,-1,1980,533,0,0
763,491,0,0,0,0,0,0,0,0,0,-1,1987,533,0,0
770,491,0,0,0,0,0,0,0,0,0,-1,1994,533,0,0
777,491,0,0,0,0,0,0,0,0,0,-1,2001,533,0,0
784,491,0,0,0,0,0,0,0,0,0,-1,2008,533,0,0
791,491,0,0,0,0,0,0,0,0,0,-1,2015,533,0,0
798,491,0,0,0,0,0,0,0,0,0,-1,2022,533,0,0
805,491,0,0,0,0,0,0,0,0,0,-1,2029,533,0,0
812,491,0,0,0,0,0,0,0,0,0,-1,2036,533,0,0
-700,484,0,0,0,0,0,0,0,0,0,-1,524,540,0,0
-693,484,0,0,0,0,0,0,0,0,0,-1,531,540,0,0
-686,484,0,0,0,0,0,0,0,0,0,-1,538,540,0,0
-679,484,0,0,0,0,0,0,0,0,0,-1,545,540,0,0
-672,484,0,0,0,0,0,0,0,0,0,-1,552,540,0,0
-665,484,0,0,0,0,0,0,0,0,0,-1,559,540,0,0
-658,484,0,0,0,0,0,0,0,0,0,-1,566,540,0,0
-651,484,0,0,0,0,0,0,0,0,0,-1,573,540,0,0
-644,484,0,0,0,0,0,0,0,0,0,-1,580,540,0,0
-637,484,0,0,0,0,0,0,0,0,0,-1,587,540,0,0
-630,484,0,0,0,0,0,0,0,0,0,-1,594,540,0,0
-623,484,0,0,0,0,0,0,0,0,0,-1,601,540,0,0
-616,484,0,0,0,0,0,0,0,0,0,-1,608,540,0,0
-609,484,0,0,0,0,0,0,0,0,0,-1,615,540,0,0
-602,484,0,0,0,0,0,0,0,0,0,-1,622,540,0,0
-595,484,0,0,0,0,0,0,0,0,0,-1,629,540,0,0
-588,484,0,0,0,0,0,0,0,0,0,-1,636,540,0,0
-581,484,0,0,0,0,0,0,0,0,0,-1,643,540,0,0
-574,484,0,0,0,0,0,0,0,0,0,-1,650,540,0,0
-567,484,0,0,0,0,0,0,0,0,0,-1,657,540,0,0
-560,484,0,0,0,0,0,0,0,0,0,-1,664,540,0,0
-553,484,0,0,0,0,0,0,0,0,0,-1,671,540,0,0
-546,484,0,0,0,0,0,0,0,0,0,-1,678,540,0,0
-539,484,0,0,0,0,0,0,0,0,0,-1,685,540,0,0
-532,484,0,0,0,0,0,0,0,0,0,-1,692,540,0,0
-525,484,0,0,0,0,0,0,0,0,0,-1,699,540,0,0
-518,484,0,0,0,0,0,0,0,0,0,-1,706,540,0,0
-511,484,0,0,0,0,0,0,0,0,0,-1,713,540,0,0
-504,484,0,0,0,0,0,0,0,0,0,-1,720,540,0,0
-497,484,0,0,0,0,0,0,0,0,0,-1,727,540,0,0
-490,484,0,0,0,0,0,0,0,0,0,-1,734,540,0,0
-483,484,0,0,0,0,0,0,0,0,0,-1,741,540,0,0
-476,484,-8.46552,1.44702,0,0,0,0,0,0,0,-1,748,540,-8.46554,-1.44702
-469,484,-7.82343,1.70355,0,0,0,0,0,0,0,-1,755,540,-7.82345,-1.70355
-462,484,-8.36987,3.08612,0,0,0,0,0,0,0,-1,762,540,-8.36988,-3.0861
-455,484,-6.77197,2.07092,0,0,0,0,0,0,0,-1,769,540,-6.77197,-2.07094
-448,484,3.54895,-1.40106,0,0,0,0,0,0,0,-1,776,540,3.54897,1.40106
-441,484,4.28906,-3.05884,0,0,0,0,0,0,0,-1,783,540,4.28905,3.05883
-434,484,-2.17548,-5.07245,0,0,0,0,0,0,0,-1,790,540,-2.17546,5.07243
-427,484,-6.40613,-20.6982,0,0,0,0,0,0,0,-1,797,540,-6.40615,20.6982
-420,484,-6.26495,-21.8975,0,0,0,0,0,0,0,-1,804,540,-6.26495,21.8975
-413,484,-6.29846,-22.9865,0.00179977,0.0110435,-0.00576859,0.0138134,-0.000970126,-1.12314,0.00954878,0.0352769,811,540,-6.29845,22.9865
-406,484,-6.38849,-24.0535,0.00187016,0.00936588,-0.00539236,0.0121849,-0.000948861,-1.08909,0.00845732,0.0196471,818,540,-6.38848,24.0535
-399,484,-6.52179,-25.0081,0.00183792,0.00774389,-0.00483592,0.0104571,-0.000875328,-1.0595,0.00728076,0.0171715,825,540,-6.52176,25.0081
-392,484,-6.59528,-25.8779,0.00191565,0.00631328,-0.00426353,0.0089116,-0.000682663,-1.02347,0.0061812,0.0191291,832,540,-6.59529,25.8779
-385,484,-6.65625,-26.7757,0.00205754,0.00499961,-0.00365739,0.00747071,-0.000413557,-0.976602,0.00512389,0.014227,839,540,-6.65627,26.7757
-378,484,-6.68481,-27.6772,0.00213956,0.0037235,-0.00296076,0.00599638,-0.000133325,-0.916084,0.00404276,0.0149522,846,540,-6.68479,27.6772
-371,484,-6.7439,-28.5606,0.00211856,0.00245447,-0.00224715,0.00453993,3.30938e-05,-0.822699,0.00301565,0.0156703,853,540,-6.7439,28.5606
-364,484,-6.81458,-29.4386,0.00202008,0.00114722,-0.00143531,0.00308384,8.34555e-05,-0.637806,0.00202865,0.0114343,860,540,-6.81459,29.4386
-357,484,-6.8606,-30.3157,0.00192098,3.37601e-05,-0.000642441,0.00211892,-0.000164177,-0.298873,0.0014704,0.0132394,867,540,-6.86061,30.3157
-350,484,-6.89886,-31.1852,0.00181283,-0.00101335,0.000125322,0.00181838,-0.0010189,0.0442275,0.00165964,0.0165984,874,540,-6.89889,31.1853
-343,484,-6.92688,-32.0811,0.00166931,-0.00202707,0.000872813,0.00186504,-0.0022228,0.220602,0.00236313,0.0243809,881,540,-6.92685,32.081
-336,484,-6.97461,-32.9636,0.00145393,-0.00304386,0.00162375,0.00197886,-0.00356878,0.312677,0.00324648,0.0270205,888,540,-6.97462,32.9636
-329,484,-6.99036,-33.7777,0.00123647,-0.00399995,0.00238216,0.00215799,-0.00492147,0.369113,0.00418984,0.0383911,895,540,-6.99035,33.7777
-322,484,-6.96613,-34.7083,0,0,0,0,0,0,0,-1,902,540,-6.96615,34.7083
-315,484,-6.91455,-35.5308,0,0,0,0,0,0,0,-1,909,540,-6.91454,35.5308
-308,484,-1.32623,-8.9317,0,0,0,0,0,0,0,-1,916,540,-1.32626,8.93173
-301,484,-1.33453,-6.52667,0,0,0,0,0,0,0,-1,923,540,-1.33454,6.5267
-294,484,-1.61224,-8.17059,0,0,0,0,0,0,0,-1,930,540,-1.61227,8.17058
-287,484,-0.715759,-5.62103,0,0,0,0,0,0,0,-1,937,540,-0.715772,5.62105
-280,484,2.66742,-1.6795,0,0,0,0,0,0,0,-1,944,540,2.6674,1.67949
-273,484,2.53125,-2.22296,0,0,0,0,0,0,0,-1,951,540,2.53128,2.22295
-266,484,2.6778,-2.72058,0,0,0,0,0,0,0,-1,958,540,2.6778,2.72061
-259,484,2.41718,-2.59894,0,0,0,0,0,0,0,-1,965,540,2.41717,2.59892
-252,484,10.6069,-11.696,0,0,0,0,0,0,0,-1,972,540,10.6069,11.696
-245,484,6.34106,-11.6107,0,0,0,0,0,0,0,-1,979,540,6.34104,11.6107
-238,484,4.89319,-8.54059,0,0,0,0,0,0,0,-1,986,540,4.89321,8.5406
-231,484,3.47675,-5.22064,0,0,0,0,0,0,0,-1,993,540,3.47676,5.22067
-224,484,1.71344,-2.03473,0,0,0,0,0,0,0,-1,1000,540,1.71342,2.03472
-217,484,-0.745056,1.17358,0,0,0,0,0,0,0,-1,1007,540,-0.745043,-1.17359
-210,484,0,0,0,0,0,0,0,0,0,-1,1014,540,0,0
-203,484,0,0,0,0,0,0,0,0,0,-1,1021,540,0,0
-196,484,0,0,0,0,0,0,0,0,0,-1,1028,540,0,0
-189,484,0,0,0,0,0,0,0,0,0,-1,1035,540,0,0
-182,484,0,0,0,0,0,0,0,0,0,-1,1042,540,0,0
-175,484,0,0,0,0,0,0,0,0,0,-1,1049,540,0,0
-168,484,0,0,0,0,0,0,0,0,0,-1,1056,540,0,0
-161,484,0,0,0,0,0,0,0,0,0,-1,1063,540,0,0
-154,484,0,0,0,0,0,0,0,0,0,-1,1070,540,0,0
-147,484,0,0,0,0,0,0,0,0,0,-1,1077,540,0,0
-140,484,0,0,0,0,0,0,0,0,0,-1,1084,540,0,0
-133,484,0,0,0,0,0,0,0,0,0,-1,1091,540,0,0
-126,484,0,0,0,0,0,0,0,0,0,-1,1098,540,0,0
-119,484,0,0,0,0,0,0,0,0,0,-1,1105,540,0,0
-112,484,0,0,0,0,0,0,0,0,0,-1,1112,540,0,0
-105,484,0,0,0,0,0,0,0,0,0,-1,1119,540,0,0
-98,484,0,0,0,0,0,0,0,0,0,-1,1126,540,0,0
-91,484,0,0,0,0,0,0,0,0,0,-1,1133,540,0,0
-84,484,0,0,0,0,0,0,0,0,0,-1,1140,540,0,0
-77,484,0,0,0,0,0,0,0,0,0,-1,1147,540,0,0
-70,484,0,0,0,0,0,0,0,0,0,-1,1154,540,0,0
-63,484,0,0,0,0,0,0,0,0,0,-1,1161,540,0,0
-56,484,0,0,0,0,0,0,0,0,0,-1,1168,540,0,0
-49,484,0,0,0,0,0,0,0,0,0,-1,1175,540,0,0
-42,484,0,0,0,0,0,0,0,0,0,-1,1182,540,0,0
-35,484,0,0,0,0,0,0,0,0,0,-1,1189,540,0,0
-28,484,0,0,0,0,0,0,0,0,0,-1,1196,540,0,0
-21,484,0,0,0,0,0,0,0,0,0,-1,1203,540,0,0
-14,484,0,0,0,0,0,0,0,0,0,-1,1210,540,0,0
-7,484,0,0,0,0,0,0,0,0,0,-1,1217,540,0,0
0,484,0,0,0,0,0,0,0,0,0,-1,1224,540,0,0
7,484,0,0,0,0,0,0,0,0,0,-1,1231,540,0,0
14,484,0,0,0,0,0,0,0,0,0,-1,1238,540,0,0
21,484,0,0,0,0,0,0,0,0,0,-1,1245,540,0,0
28,484,0,0,0,0,0,0,0,0,0,-1,1252,540,0,0
35,484,0,0,0,0,0,0,0,0,0,-1,1259,540,0,0
42,484,0,0,0,0,0,0,0,0,0,-1,1266,540,0,0
49,484,0,0,0,0,0,0,0,0,0,-1,1273,540,0,0
56,484,0,0,0,0,0,0,0,0,0,-1,1280,540,0,0
63,484,0,0,0,0,0,0,0,0,0,-1,1287,540,0,0
70,484,0,0,0,0,0,0,0,0,0,-1,1294,540,0,0
77,484,0,0,0,0,0,0,0,0,0,-1,1301,540,0,0
84,484,0,0,0,0,0,0,0,0,0,-1,1308,540,0,0
91,484,0,0,0,0,0,0,0,0,0,-1,1315,540,0,0
98,484,0,0,0,0,0,0,0,0,0,-1,1322,540,0,0
105,484,0,0,0,0,0,0,0,0,0,-1,1329,540,0,0
112,484,0,0,0,0,0,0,0,0,0,-1,1336,540,0,0
119,484,0,0,0,0,0,0,0,0,0,-1,1343,540,0,0
126,484,0,0,0,0,0,0,0,0,0,-1,1350,540,0,0
133,484,0,0,0,0,0,0,0,0,0,-1,1357,540,0,0
140,484,0,0,0,0,0,0,0,0,0,-1,1364,540,0,0
147,484,0,0,0,0,0,0,0,0,0,-1,1371,540,0,0
154,484,0,0,0,0,0,0,0,0,0,-1,1378,540,0,0
161,484,0,0,0,0,0,0,0,0,0,-1,1385,540,0,0
168,484,0,0,0,0,0,0,0,0,0,-1,1392,540,0,0
175,484,0,0,0,0,0,0,0,0,0,-1,1399,540,0,0
182,484,0,0,0,0,0,0,0,0,0,-1,1406,540,0,0
189,484,0,0,0,0,0,0,0,0,0,-1,1413,540,0,0
196,484,0,0,0,0,0,0,0,0,0,-1,1420,540,0,0
203,484,0,0,0,0,0,0,0,0,0,-1,1427,540,0,0
210,484,0,0,0,0,0,0,0,0,0,-1,1434,540,0,0
217,484,0,0,0,0,0,0,0,0,0,-1,1441,540,0,0
224,484,0,0,0,0,0,0,0,0,0,-1,1448,540,0,0
231,484,0,0,0,0,0,0,0,0,0,-1,1455,540,0,0
238,484,0,0,0,0,0,0,0,0,0,-1,1462,540,0,0
245,484,0,0,0,0,0,0,0,0,0,-1,1469,540,0,0
252,484,0,0,0,0,0,0,0,0,0,-1,1476,540,0,0
259,484,0,0,0,0,0,0,0,0,0,-1,1483,540,0,0
266,484,0,0,0,0,0,0,0,0,0,-1,1490,540,0,0
273,484,0,0,0,0,0,0,0,0,0,-1,1497,540,0,0
280,484,0,0,0,0,0,0,0,0,0,-1,1504,540,0,0
287,484,0,0,0,0,0,0,0,0,0,-1,1511,540,0,0
294,484,0,0,0,0,0,0,0,0,0,-1,1518,540,0,0
301,484,0,0,0,0,0,0,0,0,0,-1,1525,540,0,0
308,484,0,0,0,0,0,0,0,0,0,-1,1532,540,0,0
315,484,0,0,0,0,0,0,0,0,0,-1,1539,540,0,0
322,484,0,0,0,0,0,0,0,0,0,-1,1546,540,0,0
329,484,0,0,0,0,0,0,0,0,0,-1,1553,540,0,0
336,484,4.38708,-1.64136,0,0,0,0,0,0,0,-1,1560,540,4.38704,1.64138
343,484,7.57996,-1.05457,0,0,0,0,0,0,0,-1,1567,540,7.57995,1.05454
350,484,8.10425,-1.18878,0,0,0,0,0,0,0,-1,1574,540,8.1043,1.18877
357,484,7.74902,-3.80286,0,0,0,0,0,0,0,-1,1581,540,7.74901,3.80287
364,484,6.31262,-3.87213,0,0,0,0,0,0,0,-1,1588,540,6.31263,3.87215
371,484,7.21008,0.973511,0,0,0,0,0,0,0,-1,1595,540,7.21014,-0.973541
378,484,11.0563,1.5014,0,0,0,0,0,0,0,-1,1602,540,11.0563,-1.5014
385,484,14.3469,2.5545,0,0,0,0,0,0,0,-1,1609,540,14.3469,-2.55453
392,484,7.39453,-4.95026,0,0,0,0,0,0,0,-1,1616,540,7.39448,4.95023
399,484,7.14417,-2.5639,0,0,0,0,0,0,0,-1,1623,540,7.14417,2.56391
406,484,7.88953,-2.47321,0,0,0,0,0,0,0,-1,1630,540,7.88954,2.47323
413,484,4.4895,-1.08673,0,0,0,0,0,0,0,-1,1637,540,4.48952,1.08674
420,484,4.50012,-2.11255,0,0,0,0,0,0,0,-1,1644,540,4.50012,2.11256
427,484,5.28601,-3.54053,0,0,0,0,0,0,0,-1,1651,540,5.28599,3.54051
434,484,11.1488,-13.5359,0,0,0,0,0,0,0,-1,1658,540,11.1489,13.5359
441,484,22.3978,-34.5069,0,0,0,0,0,0,0,-1,1665,540,22.3978,34.5069
448,484,22.3793,-34.3591,0,0,0,0,0,0,0,-1,1672,540,22.3793,34.3591
455,484,22.3943,-33.3882,0,0,0,0,0,0,0,-1,1679,540,22.3943,33.3882
462,484,22.4122,-32.5025,0.00194189,0.000260305,-0.00139394,0.00272897,-0.000526781,-0.514022,0.00201796,0.0305185,1686,540,22.4122,32.5025
469,484,22.4006,-31.6364,0.00152731,0.000396792,-0.000996393,0.00210762,-0.000183512,-0.527381,0.00147007,0.0202845,1693,540,22.4006,31.6364
476,484,22.3136,-30.7015,0.00145964,0.000634634,-0.000538334,0.00172534,0.000368931,-0.458486,0.0010491,0.0183927,1700,540,22.3136,30.7015
483,484,22.2561,-29.843,0.001443,0.000828427,-0.000137487,0.00147235,0.000799071,-0.210354,0.000851098,0.0151096,1707,540,22.2561,29.8429
490,484,22.2211,-29.0269,0.0013578,0.00116673,0.000192829,0.00147747,0.00104707,0.555399,0.000877433,0.014245,1714,540,22.221,29.0269
497,484,22.1772,-28.1232,0.00135639,0.00166098,0.000664499,0.00219041,0.000826956,0.898048,0.00127722,0.0140532,1721,540,22.1772,28.1233
504,484,22.1256,-27.2059,0.00143338,0.00184443,0.00104502,0.00270395,0.000573865,0.882496,0.00164505,0.0169643,1728,540,22.1256,27.2059
511,484,22.1039,-26.313,0.00142779,0.00213754,0.00138017,0.00320773,0.000357599,0.911234,0.00202982,0.0218677,1735,540,22.1038,26.313
518,484,22.0352,-25.4334,0.00128474,0.0024907,0.0016254,0.00362136,0.000154079,0.963015,0.00236456,0.0189224,1742,540,22.0352,25.4334
525,484,21.9585,-24.5206,0.00117406,0.00287226,0.00185998,0.00406779,-2.14679e-05,0.999526,0.00271904,0.0155452,1749,540,21.9585,24.5206
532,484,21.9235,-23.5657,0.00105104,0.00342302,0.00208485,0.00463561,-0.000161547,1.044,0.00314564,0.0166757,1756,540,21.9235,23.5657
539,484,21.8296,-22.6194,0.000830107,0.00409647,0.00219505,0.00519925,-0.000272679,1.10523,0.00356054,0.0447985,1763,540,21.8296,22.6194
546,484,21.8024,-21.6766,0,0,0,0,0,0,0,-1,1770,540,21.8024,21.6766
553,484,12.4246,-8.96423,0,0,0,0,0,0,0,-1,1777,540,12.4246,8.96422
560,484,10.0549,-5.47931,0,0,0,0,0,0,0,-1,1784,540,10.055,5.47928
567,484,7.78223,-1.38312,0,0,0,0,0,0,0,-1,1791,540,7.78224,1.38311
574,484,5.74463,1.50922,0,0,0,0,0,0,0,-1,1798,540,5.74463,-1.50924
581,484,10.34,2.9491,0,0,0,0,0,0,0,-1,1805,540,10.34,-2.94912
588,484,10.6669,2.88568,0,0,0,0,0,0,0,-1,1812,540,10.6669,-2.88567
595,484,10.7233,1.04767,0,0,0,0,0,0,0,-1,1819,540,10.7233,-1.04766
602,484,0,0,0,0,0,0,0,0,0,-1,1826,540,0,0
609,484,0,0,0,0,0,0,0,0,0,-1,1833,540,0,0
616,484,0,0,0,0,0,0,0,0,0,-1,1840,540,0,0
623,484,0,0,0,0,0,0,0,0,0,-1,1847,540,0,0
630,484,0,0,0,0,0,0,0,0,0,-1,1854,540,0,0
637,484,0,0,0,0,0,0,0,0,0,-1,1861,540,0,0
644,484,0,0,0,0,0,0,0,0,0,-1,1868,540,0,0
651,484,0,0,0,0,0,0,0,0,0,-1,1875,540,0,0
658,484,0,0,0,0,0,0,0,0,0,-1,1882,540,0,0
665,484,0,0,0,0,0,0,0,0,0,-1,1889,540,0,0
672,484,0,0,0,0,0,0,0,0,0,-1,1896,540,0,0
679,484,0,0,0,0,0,0,0,0,0,-1,1903,540,0,0
686,484,0,0,0,0,0,0,0,0,0,-1,1910,540,0,0
693,484,0,0,0,0,0,0,0,0,0,-1,1917,540,0,0
700,484,0,0,0,0,0,0,0,0,0,-1,1924,540,0,0
707,484,0,0,0,0,0,0,0,0,0,-1,1931,540,0,0
714,484,0,0,0,0,0,0,0,0,0,-1,1938,540,0,0
721,484,0,0,0,0,0,0,0,0,0,-1,1945,540,0,0
728,484,0,0,0,0,0,0,0,0,0,-1,1952,540,0,0
735,484,0,0,0,0,0,0,0,0,0,-1,1959,540,0,0
742,484,0,0,0,0,0,0,0,0,0,-1,1966,540,0,0
749,484,0,0,0,0,0,0,0,0,0,-1,1973,540,0,0
756,484,0,0,0,0,0,0,0,0,0,-1,1980,540,0,0
763,484,0,0,0,0,0,0,0,0,0,-1,1987,540,0,0
770,484,0,0,0,0,0,0,0,0,0,-1,1994,540,0,0
777,484,0,0,0,0,0,0,0,0,0,-1,2001,540,0,0
784,484,0,0,0,0,0,0,0,0,0,-1,2008,540,0,0
791,484,0,0,0,0,0,0,0,0,0,-1,2015,540,0,0
798,484,0,0,0,0,0,0,0,0,0,-1,2022,540,0,0
805,484,0,0,0,0,0,0,0,0,0,-1,2029,540,0,0
812,484,0,0,0,0,0,0,0,0,0,-1,2036,540,0,0
-700,477,0,0,0,0,0,0,0,0,0,-1,524,547,0,0
-693,477,0,0,0,0,0,0,0,0,0,-1,531,547,0,0
-686,477,0,0,0,0,0,0,0,0,0,-1,538,547,0,0
-679,477,0,0,0,0,0,0,0,0,0,-1,545,547,0,0
-672,477,0,0,0,0,0,0,0,0,0,-1,552,547,0,0
-665,477,0,0,0,0,0,0,0,0,0,-1,559,547,0,0
-658,477,0,0,0,0,0,0,0,0,0,-1,566,547,0,0
-651,477,0,0,0,0,0,0,0,0,0,-1,573,547,0,0
-644,477,0,0,0,0,0,0,0,0,0,-1,580,547,0,0
-637,477,0,0,0,0,0,0,0,0,0,-1,587,547,0,0
-630,477,0,0,0,0,0,0,0,0,0,-1,594,547,0,0
-623,477,0,0,0,0,0,0,0,0,0,-1,601,547,0,0
-616,477,0,0,0,0,0,0,0,0,0,-1,608,547,0,0
-609,477,0,0,0,0,0,0,0,0,0,-1,615,547,0,0
-602,477,0,0,0,0,0,0,0,0,0,-1,622,547,0,0
-595,477,0,0,0,0,0,0,0,0,0,-1,629,547,0,0
-588,477,0,0,0,0,0,0,0,0,0,-1,636,547,0,0
-581,477,0,0,0,0,0,0,0,0,0,-1,643,547,0,0
-574,477,0,0,0,0,0,0,0,0,0,-1,650,547,0,0
-567,477,0,0,0,0,0,0,0,0,0,-1,657,547,0,0
-560,477,0,0,0,0,0,0,0,0,0,-1,664,547,0,0
-553,477,0,0,0,0,0,0,0,0,0,-1,671,547,0,0
-546,477,0,0,0,0,0,0,0,0,0,-1,678,547,0,0
-539,477,0,0,0,0,0,0,0,0,0,-1,685,547,0,0
-532,477,0,0,0,0,0,0,0,0,0,-1,692,547,0,0
-525,477,0,0,0,0,0,0,0,0,0,-1,699,547,0,0
-518,477,0,0,0,0,0,0,0,0,0,-1,706,547,0,0
-511,477,0,0,0,0,0,0,0,0,0,-1,713,547,0,0
-504,477,0,0,0,0,0,0,0,0,0,-1,720,547,0,0
-497,477,0,0,0,0,0,0,0,0,0,-1,727,547,0,0
-490,477,0,0,0,0,0,0,0,0,0,-1,734,547,0,0
-483,477,-7.73151,-0.224182,0,0,0,0,0,0,0,-1,741,547,-7.73152,0.224176
-476,477,-6.25806,-0.310547,0,0,0,0,0,0,0,-1,748,547,-6.25804,0.310549
-469,477,-7.26617,0.525085,0,0,0,0,0,0,0,-1,755,547,-7.2662,-0.525111
-462,477,-6.65143,1.06042,0,0,0,0,0,0,0,-1,762,547,-6.65143,-1.06043
-455,477,-5.31757,0.429016,0,0,0,0,0,0,0,-1,769,547,-5.31756,-0.42902
-448,477,-4.0697,0.273376,0,0,0,0,0,0,0,-1,776,547,-4.06971,-0.273363
-441,477,-2.47504,-4.76971,0,0,0,0,0,0,0,-1,783,547,-2.47505,4.76973
-434,477,-6.97998,-20.4532,0,0,0,0,0,0,0,-1,790,547,-6.98,20.4532
-427,477,-7.20715,-21.0409,0.000797288,0.0115221,-0.0040946,0.0129067,-0.000587238,-1.24473,0.00880672,0.0489065,797,547,-7.20715,21.0409
-420,477,-7.24609,-21.7841,0.00102298,0.00994505,-0.00427313,0.0116614,-0.0006934,-1.18885,0.00801543,0.0382328,804,547,-7.24611,21.7841
-413,477,-7.24908,-22.9863,0.00119578,0.00843396,-0.00419495,0.0103552,-0.000725475,-1.14132,0.00715757,0.0223595,811,547,-7.24908,22.9863
-406,477,-7.34003,-24.0013,0.00126258,0.00695546,-0.00386725,0.00891088,-0.000692841,-1.10265,0.00618449,0.0118375,818,547,-7.34005,24.0013
-399,477,-7.40277,-24.9254,0.00128063,0.00558682,-0.00340199,0.00745981,-0.000592359,-1.06753,0.00518196,0.0204472,825,547,-7.40275,24.9254
-392,477,-7.48138,-25.8272,0.00140575,0.00435776,-0.00293416,0.00616624,-0.000402734,-1.01844,0.00425143,0.0191393,832,547,-7.48137,25.8272
-385,477,-7.51581,-26.7254,0.00161633,0.0032382,-0.00244397,0.00500226,-0.000147737,-0.945587,0.00338516,0.0149877,839,547,-7.51578,26.7254
-378,477,-7.55463,-27.6277,0.00178142,0.00213596,-0.00185046,0.00381763,9.9764e-05,-0.833151,0.00251249,0.0133503,846,547,-7.55462,27.6277
-371,477,-7.62311,-28.4881,0.00187273,0.00106142,-0.00123736,0.00276923,0.000164918,-0.626998,0.00179371,0.0131538,853,547,-7.62309,28.4881
-364,477,-7.68365,-29.3597,0.0019135,-9.94981e-06,-0.000547181,0.00205826,-0.000154716,-0.258641,0.00142655,0.0128504,860,547,-7.68363,29.3597
-357,477,-7.74786,-30.2448,0.00197295,-0.000927437,0.000116593,0.00197763,-0.000932117,0.0401127,0.00171571,0.0112947,867,547,-7.74788,30.2448
-350,477,-7.79572,-31.1102,0.00201386,-0.00181491,0.000760092,0.00215924,-0.00196029,0.188977,0.00237933,0.011489,874,547,-7.7957,31.1102
-343,477,-7.76654,-32.0201,0.00197027,-0.00262251,0.00142046,0.00237409,-0.00302632,0.276979,0.0031255,0.0213372,881,547,-7.76652,32.0201
-336,477,-7.76349,-32.9066,0.00183526,-0.00352786,0.00214073,0.00258495,-0.00427756,0.336857,0.00400204,0.0429189,888,547,-7.76346,32.9066
-329,477,-7.67053,-33.7549,0,0,0,0,0,0,0,-1,895,547,-7.67055,33.7549
-322,477,-5.91638,-27.4468,0,0,0,0,0,0,0,-1,902,547,-5.91639,27.4468
-315,477,-1.67358,-9.15253,0,0,0,0,0,0,0,-1,909,547,-1.67356,9.15253
-308,477,-1.30127,-6.55188,0,0,0,0,0,0,0,-1,916,547,-1.30128,6.55185
-301,477,-1.21185,-6.28351,0,0,0,0,0,0,0,-1,923,547,-1.21184,6.28352
-294,477,-0.352905,3.27142,0,0,0,0,0,0,0,-1,930,547,-0.35292,-3.27144
-287,477,3.54364,2.15399,0,0,0,0,0,0,0,-1,937,547,3.54362,-2.15396
-280,477,1.97308,-0.954163,0,0,0,0,0,0,0,-1,944,547,1.9731,0.954178
-273,477,2.11621,-3.76709,0,0,0,0,0,0,0,-1,951,547,2.11619,3.76706
-266,477,2.04669,-3.42389,0,0,0,0,0,0,0,-1,958,547,2.04671,3.42391
-259,477,-1.33478,-3.41205,0,0,0,0,0,0,0,-1,965,547,-1.3348,3.41206
-252,477,0.597168,-5.32922,0,0,0,0,0,0,0,-1,972,547,0.597144,5.32924
-245,477,8.2309,-8.48492,0,0,0,0,0,0,0,-1,979,547,8.23091,8.48494
-238,477,6.60938,-5.64063,0,0,0,0,0,0,0,-1,986,547,6.60938,5.64063
-231,477,4.71716,-2.52484,0,0,0,0,0,0,0,-1,993,547,4.71716,2.52483
-224,477,0,0,0,0,0,0,0,0,0,-1,1000,547,0,0
-217,477,0,0,0,0,0,0,0,0,0,-1,1007,547,0,0
-210,477,0,0,0,0,0,0,0,0,0,-1,1014,547,0,0
-203,477,0,0,0,0,0,0,0,0,0,-1,1021,547,0,0
-196,477,0,0,0,0,0,0,0,0,0,-1,1028,547,0,0
-189,477,0,0,0,0,0,0,0,0,0,-1,1035,547,0,0
-182,477,0,0,0,0,0,0,0,0,0,-1,1042,547,0,0
-175,477,0,0,0,0,0,0,0,0,0,-1,1049,547,0,0
-168,477,0,0,0,0,0,0,0,0,0,-1,1056,547,0,0
-161,477,0,0,0,0,0,0,0,0,0,-1,1063,547,0,0
-154,477,0,0,0,0,0,0,0,0,0,-1,1070,547,0,0
-147,477,0,0,0,0,0,0,0,0,0,-1,1077,547,0,0
-140,477,0,0,0,0,0,0,0,0,0,-1,1084,547,0,0
-133,477,0,0,0,0,0,0,0,0,0,-1,1091,547,0,0
-126,477,0,0,0,0,0,0,0,0,0,-1,1098,547,0,0
-119,477,0,0,0,0,0,0,0,0,0,-1,1105,547,0,0
-112,477,0,0,0,0,0,0,0,0,0,-1,1112,547,0,0
-105,477,0,0,0,0,0,0,0,0,0,-1,1119,547,0,0
-98,477,0,0,0,0,0,0,0,0,0,-1,1126,547,0,0
-91,477,0,0,0,0,0,0,0,0,0,-1,1133,547,0,0
-84,477,0,0,0,0,0,0,0,0,0,-1,1140,547,0,0
-77,477,0,0,0,0,0,0,0,0,0,-1,1147,547,0,0
-70,477,0,0,0,0,0,0,0,0,0,-1,1154,547,0,0
-63,477,0,0,0,0,0,0,0,0,0,-1,1161,547,0,0
-56,477,0,0,0,0,0,0,0,0,0,-1,1168,547,0,0
-49,477,0,0,0,0,0,0,0,0,0,-1,1175,547,0,0
-42,477,0,0,0,0,0,0,0,0,0,-1,1182,547,0,0
-35,477,0,0,0,0,0,0,0,0,0,-1,1189,547,0,0
-28,477,0,0,0,0,0,0,0,0,0,-1,1196,547,0,0
-21,477,0,0,0,0,0,0,0,0,0,-1,1203,547,0,0
-14,477,0,0,0,0,0,0,0,0,0,-1,1210,547,0,0
-7,477,0,0,0,0,0,0,0,0,0,-1,1217,547,0,0
0,477,0,0,0,0,0,0,0,0,0,-1,1224,547,0,0
7,477,0,0,0,0,0,0,0,0,0,-1,1231,547,0,0
14,477,0,0,0,0,0,0,0,0,0,-1,1238,547,0,0
21,477,0,0,0,0,0,0,0,0,0,-1,1245,547,0,0
28,477,0,0,0,0,0,0,0,0,0,-1,1252,547,0,0
35,477,0,0,0,0,0,0,0,0,0,-1,1259,547,0,0
42,477,0,0,0,0,0,0,0,0,0,-1,1266,547,0,0
49,477,0,0,0,0,0,0,0,0,0,-1,1273,547,0,0
56,477,0,0,0,0,0,0,0,0,0,-1,1280,547,0,0
63,477,0,0,0,0,0,0,0,0,0,-1,1287,547,0,0
70,477,0,0,0,0,0,0,0,0,0,-1,1294,547,0,0
77,477,0,0,0,0,0,0,0,0,0,-1,1301,547,0,0
84,477,0,0,0,0,0,0,0,0,0,-1,1308,547,0,0
91,477,0,0,0,0,0,0,0,0,0,-1,1315,547,0,0
98,477,0,0,0,0,0,0,0,0,0,-1,1322,547,0,0
105,477,0,0,0,0,0,0,0,0,0,-1,1329,547,0,0
112,477,0,0,0,0,0,0,0,0,0,-1,1336,547,0,0
119,477,0,0,0,0,0,0,0,0,0,-1,1343,547,0,0
126,477,0,0,0,0,0,0,0,0,0,-1,1350,547,0,0
133,477,0,0,0,0,0,0,0,0,0,-1,1357,547,0,0
140,477,0,0,0,0,0,0,0,0,0,-1,1364,547,0,0
147,477,0,0,0,0,0,0,0,0,0,-1,1371,547,0,0
154,477,0,0,0,0,0,0,0,0,0,-1,1378,547,0,0
161,477,0,0,0,0,0,0,0,0,0,-1,1385,547,0,0
168,477,0,0,0,0,0,0,0,0,0,-1,1392,547,0,0
175,477,0,0,0,0,0,0,0,0,0,-1,1399,547,0,0
182,477,0,0,0,0,0,0,0,0,0,-1,1406,547,0,0
189,477,0,0,0,0,0,0,0,0,0,-1,1413,547,0,0
196,477,0,0,0,0,0,0,0,0,0,-1,1420,547,0,0
203,477,0,0,0,0,0,0,0,0,0,-1,1427,547,0,0
210,477,0,0,0,0,0,0,0,0,0,-1,1434,547,0,0
217,477,0,0,0,0,0,0,0,0,0,-1,1441,547,0,0
224,477,0,0,0,0,0,0,0,0,0,-1,1448,547,0,0
231,477,0,0,0,0,0,0,0,0,0,-1,1455,547,0,0
238,477,0,0,0,0,0,0,0,0,0,-1,1462,547,0,0
245,477,0,0,0,0,0,0,0,0,0,-1,1469,547,0,0
252,477,0,0,0,0,0,0,0,0,0,-1,1476,547,0,0
259,477,0,0,0,0,0,0,0,0,0,-1,1483,547,0,0
266,477,0,0,0,0,0,0,0,0,0,-1,1490,547,0,0
273,477,0,0,0,0,0,0,0,0,0,-1,1497,547,0,0
280,477,0,0,0,0,0,0,0,0,0,-1,1504,547,0,0
287,477,0,0,0,0,0,0,0,0,0,-1,1511,547,0,0
294,477,0,0,0,0,0,0,0,0,0,-1,1518,547,0,0
301,477,0,0,0,0,0,0,0,0,0,-1,1525,547,0,0
308,477,0,0,0,0,0,0,0,0,0,-1,1532,547,0,0
315,477,0,0,0,0,0,0,0,0,0,-1,1539,547,0,0
322,477,0,0,0,0,0,0,0,0,0,-1,1546,547,0,0
329,477,0,0,0,0,0,0,0,0,0,-1,1553,547,0,0
336,477,0,0,0,0,0,0,0,0,0,-1,1560,547,0,0
343,477,0,0,0,0,0,0,0,0,0,-1,1567,547,0,0
350,477,1.7699,-3.32275,0,0,0,0,0,0,0,-1,1574,547,1.7699,3.32272
357,477,3.073,-4.83313,0,0,0,0,0,0,0,-1,1581,547,3.07303,4.83316
364,477,4.30127,-4.22864,0,0,0,0,0,0,0,-1,1588,547,4.30125,4.22865
371,477,4.57703,0.283264,0,0,0,0,0,0,0,-1,1595,547,4.57706,-0.283262
378,477,8.57947,1.05969,0,0,0,0,0,0,0,-1,1602,547,8.5795,-1.05972
385,477,12.3726,2.02356,0,0,0,0,0,0,0,-1,1609,547,12.3725,-2.02355
392,477,16.4678,2.76843,0,0,0,0,0,0,0,-1,1616,547,16.4678,-2.76845
399,477,8.00037,-2.29523,0,0,0,0,0,0,0,-1,1623,547,8.00031,2.2952
406,477,4.82495,2.7475,0,0,0,0,0,0,0,-1,1630,547,4.825,-2.74752
413,477,4.88171,-0.336426,0,0,0,0,0,0,0,-1,1637,547,4.88169,0.336398
420,477,3.34875,0.102722,0,0,0,0,0,0,0,-1,1644,547,3.34871,-0.1027
427,477,1.66772,-0.373108,0,0,0,0,0,0,0,-1,1651,547,1.66768,0.373104
434,477,3.76978,-2.30798,0,0,0,0,0,0,0,-1,1658,547,3.76974,2.30801
441,477,4.05444,-2.80402,0,0,0,0,0,0,0,-1,1665,547,4.05444,2.804
448,477,10.4247,-11.7421,0,0,0,0,0,0,0,-1,1672,547,10.4247,11.7421
455,477,13.3054,-16.8109,0,0,0,0,0,0,0,-1,1679,547,13.3054,16.8109
462,477,23.2371,-32.6497,0,0,0,0,0,0,0,-1,1686,547,23.2371,32.6497
469,477,23.3087,-31.5629,0,0,0,0,0,0,0,-1,1693,547,23.3087,31.5629
476,477,23.2146,-30.7125,0.00145499,0.000304221,-0.000846414,0.00190307,-0.000143862,-0.486882,0.00131928,0.0303169,1700,547,23.2146,30.7125
483,477,23.1622,-29.8192,0.0014572,0.000495386,-0.000394426,0.00159826,0.000354326,-0.343459,0.000969235,0.0158899,1707,547,23.1623,29.8192
490,477,23.1061,-28.98,0.00135889,0.000817908,-5.5634e-05,0.00136455,0.000812246,-0.101424,0.000792576,0.0147514,1714,547,23.106,28.98
497,477,23.0637,-28.0698,0.00133736,0.0013416,0.000469053,0.00180854,0.000870424,0.78766,0.00104441,0.0134759,1721,547,23.0638,28.0699
504,477,23.0099,-27.1748,0.00135981,0.00145027,0.000847369,0.00225362,0.000556465,0.812059,0.00135554,0.0185238,1728,547,23.0099,27.1748
511,477,23.0277,-26.3329,0.00129734,0.00165647,0.00116902,0.00265963,0.000294179,0.861604,0.00168362,0.0247537,1735,547,23.0277,26.3329
518,477,22.9597,-25.4449,0.00109986,0.0019153,0.00140327,0.00296889,4.62765e-05,0.926781,0.00196401,0.0221565,1742,547,22.9598,25.4449
525,477,22.8429,-24.4744,0.000933001,0.0022149,0.00160842,0.00330538,-0.000157478,0.975002,0.00225791,0.0190996,1749,547,22.8429,24.4744
532,477,22.7566,-23.5519,0.000765512,0.00266882,0.00180032,0.00375353,-0.000319199,1.02853,0.00261526,0.0214694,1756,547,22.7566,23.552
539,477,22.718,-22.5477,0.000528305,0.00324871,0.00191755,0.0042395,-0.000462479,1.09388,0.00299243,0.0198596,1763,547,22.718,22.5476
546,477,22.6133,-21.6992,0.000287165,0.00413257,0.00203165,0.00500708,-0.000587341,1.16433,0.00355006,0.0452644,1770,547,22.6133,21.6991
553,477,22.6113,-20.4042,0,0,0,0,0,0,0,-1,1777,547,22.6114,20.4042
560,477,19.4597,-16.1135,0,0,0,0,0,0,0,-1,1784,547,19.4597,16.1135
567,477,13.9529,-8.70972,0,0,0,0,0,0,0,-1,1791,547,13.9529,8.7097
574,477,6.82593,-0.916992,0,0,0,0,0,0,0,-1,1798,547,6.82598,0.916977
581,477,9.29321,-0.557007,0,0,0,0,0,0,0,-1,1805,547,9.29324,0.55703
588,477,9.75195,0.422729,0,0,0,0,0,0,0,-1,1812,547,9.75198,-0.42273
595,477,9.89172,1.21326,0,0,0,0,0,0,0,-1,1819,547,9.89174,-1.21328
602,477,6.5271,-0.964417,0,0,0,0,0,0,0,-1,1826,547,6.52706,0.964427
609,477,0,0,0,0,0,0,0,0,0,-1,1833,547,0,0
616,477,0,0,0,0,0,0,0,0,0,-1,1840,547,0,0
623,477,0,0,0,0,0,0,0,0,0,-1,1847,547,0,0
630,477,0,0,0,0,0,0,0,0,0,-1,1854,547,0,0
637,477,0,0,0,0,0,0,0,0,0,-1,1861,547,0,0
644,477,0,0,0,0,0,0,0,0,0,-1,1868,547,0,0
651,477,0,0,0,0,0,0,0,0,0,-1,1875,547,0,0
658,477,0,0,0,0,0,0,0,0,0,-1,1882,547,0,0
665,477,0,0,0,0,0,0,0,0,0,-1,1889,547,0,0
672,477,0,0,0,0,0,0,0,0,0,-1,1896,547,0,0
679,477,0,0,0,0,0,0,0,0,0,-1,1903,547,0,0
686,477,0,0,0,0,0,0,0,0,0,-1,1910,547,0,0
693,477,0,0,0,0,0,0,0,0,0,-1,1917,547,0,0
700,477,0,0,0,0,0,0,0,0,0,-1,1924,547,0,0
707,477,0,0,0,0,0,0,0,0,0,-1,1931,547,0,0
714,477,0,0,0,0,0,0,0,0,0,-1,1938,547,0,0
721,477,0,0,0,0,0,0,0,0,0,-1,1945,547,0,0
728,477,0,0,0,0,0,0,0,0,0,-1,1952,547,0,0
735,477,0,0,0,0,0,0,0,0,0,-1,1959,547,0,0
742,477,0,0,0,0,0,0,0,0,0,-1,1966,547,0,0
749,477,0,0,0,0,0,0,0,0,0,-1,1973,547,0,0
756,477,0,0,0,0,0,0,0,0,0,-1,1980,547,0,0
763,477,0,0,0,0,0,0,0,0,0,-1,1987,547,0,0
770,477,0,0,0,0,0,0,0,0,0,-1,1994,547,0,0
777,477,0,0,0,0,0,0,0,0,0,-1,2001,547,0,0
784,477,0,0,0,0,0,0,0,0,0,-1,2008,547,0,0
791,477,0,0,0,0,0,0,0,0,0,-1,2015,547,0,0
798,477,0,0,0,0,0,0,0,0,0,-1,2022,547,0,0
805,477,0,0,0,0,0,0,0,0,0,-1,2029,547,0,0
812,477,0,0,0,0,0,0,0,0,0,-1,2036,547,0,0
-700,470,0,0,0,0,0,0,0,0,0,-1,524,554,0,0
-693,470,0,0,0,0,0,0,0,0,0,-1,531,554,0,0
-686,470,0,0,0,0,0,0,0,0,0,-1,538,554,0,0
-679,470,0,0,0,0,0,0,0,0,0,-1,545,554,0,0
-672,470,0,0,0,0,0,0,0,0,0,-1,552,554,0,0
-665,470,0,0,0,0,0,0,0,0,0,-1,559,554,0,0
-658,470,0,0,0,0,0,0,0,0,0,-1,566,554,0,0
-651,470,0,0,0,0,0,0,0,0,0,-1,573,554,0,0
-644,470,0,0,0,0,0,0,0,0,0,-1,580,554,0,0
-637,470,0,0,0,0,0,0,0,0,0,-1,587,554,0,0
-630,470,0,0,0,0,0,0,0,0,0,-1,594,554,0,0
-623,470,0,0,0,0,0,0,0,0,0,-1,601,554,0,0
-616,470,0,0,0,0,0,0,0,0,0,-1,608,554,0,0
-609,470,0,0,0,0,0,0,0,0,0,-1,615,554,0,0
-602,470,0,0,0,0,0,0,0,0,0,-1,622,554,0,0
-595,470,0,0,0,0,0,0,0,0,0,-1,629,554,0,0
-588,470,0,0,0,0,0,0,0,0,0,-1,636,554,0,0
-581,470,0,0,0,0,0,0,0,0,0,-1,643,554,0,0
-574,470,0,0,0,0,0,0,0,0,0,-1,650,554,0,0
-567,470,0,0,0,0,0,0,0,0,0,-1,657,554,0,0
-560,470,0,0,0,0,0,0,0,0,0,-1,664,554,0,0
-553,470,0,0,0,0,0,0,0,0,0,-1,671,554,0,0
-546,470,0,0,0,0,0,0,0,0,0,-1,678,554,0,0
-539,470,0,0,0,0,0,0,0,0,0,-1,685,554,0,0
-532,470,0,0,0,0,0,0,0,0,0,-1,692,554,0,0
-525,470,0,0,0,0,0,0,0,0,0,-1,699,554,0,0
-518,470,0,0,0,0,0,0,0,0,0,-1,706,554,0,0
-511,470,0,0,0,0,0,0,0,0,0,-1,713,554,0,0
-504,470,0,0,0,0,0,0,0,0,0,-1,720,554,0,0
-497,470,0,0,0,0,0,0,0,0,0,-1,727,554,0,0
-490,470,-9.13263,-1.03125,0,0,0,0,0,0,0,-1,734,554,-9.1326,1.03127
-483,470,-7.68677,-1.03955,0,0,0,0,0,0,0,-1,741,554,-7.68678,1.03958
-476,470,-6.17969,-1.03394,0,0,0,0,0,0,0,-1,748,554,-6.17971,1.03395
-469,470,-6.23016,-0.651855,0,0,0,0,0,0,0,-1,755,554,-6.23014,0.651829
-462,470,-4.87915,-1.03705,0,0,0,0,0,0,0,-1,762,554,-4.87914,1.03702
-455,470,-4.14777,-1.37079,0,0,0,0,0,0,0,-1,769,554,-4.14779,1.37078
-448,470,-2.9314,-5.74518,0,0,0,0,0,0,0,-1,776,554,-2.93137,5.74518
-441,470,-7.10535,-17.8693,0,0,0,0,0,0,0,-1,783,554,-7.10533,17.8693
-434,470,-8.06921,-20.1592,0,0,0,0,0,0,0,-1,790,554,-8.06919,20.1592
-427,470,-8.12152,-21.1234,0.000506453,0.00867223,-0.00295204,0.00962764,-0.000448963,-1.25779,0.0065732,0.0282156,797,554,-8.12153,21.1234
-420,470,-8.13104,-22.0887,0.000734336,0.00746536,-0.00307029,0.00865543,-0.000455736,-1.20102,0.00592804,0.0183748,804,554,-8.13103,22.0887
-413,470,-8.19452,-23.0392,0.000853172,0.00627307,-0.00296991,0.00758359,-0.000457352,-1.15523,0.00521487,0.0143946,811,554,-8.19455,23.0393
-406,470,-8.23218,-23.9641,0.000878144,0.00503631,-0.00263316,0.00631224,-0.000397787,-1.11957,0.00434682,0.0127177,818,554,-8.23215,23.9641
-399,470,-8.26495,-24.8767,0.000922883,0.00392669,-0.0022208,0.00510577,-0.000256194,-1.08272,0.00349238,0.0163948,825,554,-8.26497,24.8767
-392,470,-8.33459,-25.7693,0.00108419,0.00290514,-0.00182528,0.00403443,-4.50958e-05,-1.01675,0.00270478,0.0155856,832,554,-8.33459,25.7693
-385,470,-8.41858,-26.6672,0.00136065,0.00197487,-0.00143447,0.00313473,0.000200786,-0.890853,0.00202621,0.011063,839,554,-8.41859,26.6672
-378,470,-8.44617,-27.5522,0.00162866,0.00104593,-0.000956423,0.00233712,0.00033748,-0.637544,0.00145866,0.0161266,846,554,-8.44619,27.5522
-371,470,-8.49731,-28.4282,0.00187954,0.000166048,-0.000479658,0.00200467,4.09153e-05,-0.255191,0.00132302,0.0149971,853,554,-8.49732,28.4282
-364,470,-8.56659,-29.314,0.00213116,-0.000660585,2.23718e-05,0.00213134,-0.000660765,0.00801285,0.00168491,0.0148403,860,554,-8.56661,29.314
-357,470,-8.65771,-30.1976,0.00243883,-0.00141664,0.000473879,0.00249622,-0.00147403,0.120521,0.00231741,0.0141828,867,554,-8.65773,30.1976
-350,470,-8.67822,-31.0875,0.00274029,-0.00223822,0.00090802,0.00290073,-0.00239866,0.174889,0.00306418,0.0127367,874,554,-8.67822,31.0875
-343,470,-8.60748,-31.9728,0,0,0,0,0,0,0,-1,881,554,-8.60748,31.9728
-336,470,-8.4325,-32.9041,0,0,0,0,0,0,0,-1,888,554,-8.43248,32.9041
-329,470,-2.78516,-12.3594,0,0,0,0,0,0,0,-1,895,554,-2.78517,12.3594
-322,470,-2.30829,-11.4527,0,0,0,0,0,0,0,-1,902,554,-2.30827,11.4527
-315,470,-1.04797,-8.29529,0,0,0,0,0,0,0,-1,909,554,-1.04797,8.29526
-308,470,-1.39368,-6.68152,0,0,0,0,0,0,0,-1,916,554,-1.39369,6.68149
-301,470,-0.0340576,3.34888,0,0,0,0,0,0,0,-1,923,554,-0.0340496,-3.3489
-294,470,-1.18378,3.22266,0,0,0,0,0,0,0,-1,930,554,-1.18376,-3.22268
-287,470,-2.15454,3.2204,0,0,0,0,0,0,0,-1,937,554,-2.15452,-3.22037
-280,470,-3.00537,3.099,0,0,0,0,0,0,0,-1,944,554,-3.00536,-3.09898
-273,470,-12.3932,3.65009,0,0,0,0,0,0,0,-1,951,554,-12.3932,-3.65011
-266,470,-11.5706,1.16028,0,0,0,0,0,0,0,-1,958,554,-11.5706,-1.16031
-259,470,-7.50415,-2.77167,0,0,0,0,0,0,0,-1,965,554,-7.50413,2.7717
-252,470,-0.371155,-5.87823,0,0,0,0,0,0,0,-1,972,554,-0.37114,5.87821
-245,470,1.33221,-6.81122,0,0,0,0,0,0,0,-1,979,554,1.33223,6.8112
-238,470,0,0,0,0,0,0,0,0,0,-1,986,554,0,0
-231,470,0,0,0,0,0,0,0,0,0,-1,993,554,0,0
-224,470,0,0,0,0,0,0,0,0,0,-1,1000,554,0,0
-217,470,0,0,0,0,0,0,0,0,0,-1,1007,554,0,0
-210,470,0,0,0,0,0,0,0,0,0,-1,1014,554,0,0
-203,470,0,0,0,0,0,0,0,0,0,-1,1021,554,0,0
-196,470,0,0,0,0,0,0,0,0,0,-1,1028,554,0,0
-189,470,0,0,0,0,0,0,0,0,0,-1,1035,554,0,0
-182,470,0,0,0,0,0,0,0,0,0,-1,1042,554,0,0
-175,470,0,0,0,0,0,0,0,0,0,-1,1049,554,0,0
-168,470,0,0,0,0,0,0,0,0,0,-1,1056,554,0,0
-161,470,0,0,0,0,0,0,0,0,0,-1,1063,554,0,0
-154,470,0,0,0,0,0,0,0,0,0,-1,1070,554,0,0
-147,470,0,0,0,0,0,0,0,0,0,-1,1077,554,0,0
-140,470,0,0,0,0,0,0,0,0,0,-1,1084,554,0,0
-133,470,0,0,0,0,0,0,0,0,0,-1,1091,554,0,0
-126,470,0,0,0,0,0,0,0,0,0,-1,1098,554,0,0
-119,470,0,0,0,0,0,0,0,0,0,-1,1105,554,0,0
-112,470,0,0,0,0,0,0,0,0,0,-1,1112,554,0,0
-105,470,0,0,0,0,0,0,0,0,0,-1,1119,554,0,0
-98,470,0,0,0,0,0,0,0,0,0,-1,1126,554,0,0
-91,470,0,0,0,0,0,0,0,0,0,-1,1133,554,0,0
-84,470,0,0,0,0,0,0,0,0,0,-1,1140,554,0,0
-77,470,0,0,0,0,0,0,0,0,0,-1,1147,554,0,0
-70,470,0,0,0,0,0,0,0,0,0,-1,1154,554,0,0
-63,470,0,0,0,0,0,0,0,0,0,-1,1161,554,0,0
-56,470,0,0,0,0,0,0,0,0,0,-1,1168,554,0,0
-49,470,0,0,0,0,0,0,0,0,0,-1,1175,554,0,0
-42,470,0,0,0,0,0,0,0,0,0,-1,1182,554,0,0
-35,470,0,0,0,0,0,0,0,0,0,-1,1189,554,0,0
-28,470,0,0,0,0,0,0,0,0,0,-1,1196,554,0,0
-21,470,0,0,0,0,0,0,0,0,0,-1,1203,554,0,0
-14,470,0,0,0,0,0,0,0,0,0,-1,1210,554,0,0
-7,470,0,0,0,0,0,0,0,0,0,-1,1217,554,0,0
0,470,0,0,0,0,0,0,0,0,0,-1,1224,554,0,0
7,470,0,0,0,0,0,0,0,0,0,-1,1231,554,0,0
14,470,0,0,0,0,0,0,0,0,0,-1,1238,554,0,0
21,470,0,0,0,0,0,0,0,0,0,-1,1245,554,0,0
28,470,0,0,0,0,0,0,0,0,0,-1,1252,554,0,0
35,470,0,0,0,0,0,0,0,0,0,-1,1259,554,0,0
42,470,0,0,0,0,0,0,0,0,0,-1,1266,554,0,0
49,470,0,0,0,0,0,0,0,0,0,-1,1273,554,0,0
56,470,0,0,0,0,0,0,0,0,0,-1,1280,554,0,0
63,470,0,0,0,0,0,0,0,0,0,-1,1287,554,0,0
70,470,0,0,0,0,0,0,0,0,0,-1,1294,554,0,0
77,470,0,0,0,0,0,0,0,0,0,-1,1301,554,0,0
84,470,0,0,0,0,0,0,0,0,0,-1,1308,554,0,0
91,470,0,0,0,0,0,0,0,0,0,-1,1315,554,0,0
98,470,0,0,0,0,0,0,0,0,0,-1,1322,554,0,0
105,470,0,0,0,0,0,0,0,0,0,-1,1329,554,0,0
112,470,0,0,0,0,0,0,0,0,0,-1,1336,554,0,0
119,470,0,0,0,0,0,0,0,0,0,-1,1343,554,0,0
126,470,0,0,0,0,0,0,0,0,0,-1,1350,554,0,0
133,470,0,0,0,0,0,0,0,0,0,-1,1357,554,0,0
140,470,0,0,0,0,0,0,0,0,0,-1,1364,554,0,0
147,470,0,0,0,0,0,0,0,0,0,-1,1371,554,0,0
154,470,0,0,0,0,0,0,0,0,0,-1,1378,554,0,0
161,470,0,0,0,0,0,0,0,0,0,-1,1385,554,0,0
168,470,0,0,0,0,0,0,0,0,0,-1,1392,554,0,0
175,470,0,0,0,0,0,0,0,0,0,-1,1399,554,0,0
182,470,0,0,0,0,0,0,0,0,0,-1,1406,554,0,0
189,470,0,0,0,0,0,0,0,0,0,-1,1413,554,0,0
196,470,0,0,0,0,0,0,0,0,0,-1,1420,554,0,0
203,470,0,0,0,0,0,0,0,0,0,-1,1427,554,0,0
210,470,0,0,0,0,0,0,0,0,0,-1,1434,554,0,0
217,470,0,0,0,0,0,0,0,0,0,-1,1441,554,0,0
224,470,0,0,0,0,0,0,0,0,0,-1,1448,554,0,0
231,470,0,0,0,0,0,0,0,0,0,-1,1455,554,0,0
238,470,0,0,0,0,0,0,0,0,0,-1,1462,554,0,0
245,470,0,0,0,0,0,0,0,0,0,-1,1469,554,0,0
252,470,0,0,0,0,0,0,0,0,0,-1,1476,554,0,0
259,470,0,0,0,0,0,0,0,0,0,-1,1483,554,0,0
266,470,0,0,0,0,0,0,0,0,0,-1,1490,554,0,0
273,470,0,0,0,0,0,0,0,0,0,-1,1497,554,0,0
280,470,0,0,0,0,0,0,0,0,0,-1,1504,554,0,0
287,470,0,0,0,0,0,0,0,0,0,-1,1511,554,0,0
294,470,0,0,0,0,0,0,0,0,0,-1,1518,554,0,0
301,470,0,0,0,0,0,0,0,0,0,-1,1525,554,0,0
308,470,0,0,0,0,0,0,0,0,0,-1,1532,554,0,0
315,470,0,0,0,0,0,0,0,0,0,-1,1539,554,0,0
322,470,0,0,0,0,0,0,0,0,0,-1,1546,554,0,0
329,470,0,0,0,0,0,0,0,0,0,-1,1553,554,0,0
336,470,0,0,0,0,0,0,0,0,0,-1,1560,554,0,0
343,470,0,0,0,0,0,0,0,0,0,-1,1567,554,0,0
350,470,0,0,0,0,0,0,0,0,0,-1,1574,554,0,0
357,470,0,0,0,0,0,0,0,0,0,-1,1581,554,0,0
364,470,1.33423,0.293335,0,0,0,0,0,0,0,-1,1588,554,1.33422,-0.293348
371,470,2.22498,-0.0305176,0,0,0,0,0,0,0,-1,1595,554,2.22494,0.0305046
378,470,6.27051,0.710083,0,0,0,0,0,0,0,-1,1602,554,6.27054,-0.710093
385,470,10.3657,1.47296,0,0,0,0,0,0,0,-1,1609,554,10.3657,-1.47299
392,470,15.3881,3.01935,0,0,0,0,0,0,0,-1,1616,554,15.388,-3.01937
399,470,18.4479,2.93793,0,0,0,0,0,0,0,-1,1623,554,18.4479,-2.93792
406,470,15.1896,1.36676,0,0,0,0,0,0,0,-1,1630,554,15.1896,-1.36679
413,470,6.55383,1.99207,0,0,0,0,0,0,0,-1,1637,554,6.5538,-1.99208
420,470,4.47095,0.845703,0,0,0,0,0,0,0,-1,1644,554,4.47098,-0.845718
427,470,3.51038,1.19684,0,0,0,0,0,0,0,-1,1651,554,3.51039,-1.19684
434,470,3.31775,-1.37427,0,0,0,0,0,0,0,-1,1658,554,3.31781,1.37426
441,470,2.55457,-2.05902,0,0,0,0,0,0,0,-1,1665,554,2.55461,2.05904
448,470,3.27258,-2.64032,0,0,0,0,0,0,0,-1,1672,554,3.27257,2.64029
455,470,10.3658,-9.82233,0,0,0,0,0,0,0,-1,1679,554,10.3659,9.82233
462,470,11.0651,-11.9958,0,0,0,0,0,0,0,-1,1686,554,11.0651,11.9958
469,470,15.4242,-19.0521,0,0,0,0,0,0,0,-1,1693,554,15.4242,19.0521
476,470,24.1082,-30.7822,0,0,0,0,0,0,0,-1,1700,554,24.1081,30.7822
483,470,24.0854,-29.7874,0.00171304,0.000274661,-0.000414278,0.00182383,0.000163875,-0.261306,0.00116511,0.0216969,1707,554,24.0855,29.7874
490,470,24.011,-28.9114,0.00162108,0.00057942,-0.000120683,0.00163488,0.000565621,-0.113847,0.000958712,0.0139382,1714,554,24.011,28.9114
497,470,23.9647,-28.0103,0.00157532,0.00112445,0.000414148,0.00182141,0.000878353,0.536155,0.00105181,0.0135544,1721,554,23.9647,28.0103
504,470,23.9247,-27.1618,0.00152805,0.00116373,0.00075348,0.00212107,0.000570702,0.666796,0.00126739,0.020467,1728,554,23.9246,27.1618
511,470,23.9747,-26.3138,0.00141599,0.00128262,0.00104008,0.00239152,0.000307093,0.753384,0.00150248,0.0291201,1735,554,23.9747,26.3138
518,470,23.9247,-25.397,0.00119053,0.00145818,0.00126361,0.00259503,5.36756e-05,0.838154,0.00171241,0.0281589,1742,554,23.9247,25.397
525,470,23.7869,-24.4151,0.000981069,0.00169609,0.00144681,0.0028289,-0.000151743,0.906523,0.0019385,0.0173132,1749,554,23.7869,24.4151
532,470,23.6582,-23.4138,0.000776258,0.00208363,0.00161621,0.00317335,-0.000313457,0.977569,0.00222742,0.0154325,1756,554,23.6582,23.4138
539,470,23.5884,-22.4979,0.000534831,0.00260442,0.00173861,0.00359288,-0.00045363,1.05383,0.0025599,0.0182418,1763,554,23.5884,22.4979
546,470,23.5573,-21.6053,0.000325113,0.0034065,0.00185659,0.00427841,-0.000546801,1.13174,0.00305092,0.016423,1770,554,23.5572,21.6053
553,470,23.562,-20.6483,0.000192509,0.00442946,0.00202883,0.00524426,-0.000622287,1.1889,0.00372099,0.0272552,1777,554,23.5621,20.6482
560,470,23.5854,-19.4571,0,0,0,0,0,0,0,-1,1784,554,23.5855,19.4571
567,470,23.4803,-18.4232,0,0,0,0,0,0,0,-1,1791,554,23.4804,18.4232
574,470,14.2793,-8.07147,0,0,0,0,0,0,0,-1,1798,554,14.2793,8.07147
581,470,8.24646,-4.06317,0,0,0,0,0,0,0,-1,1805,554,8.24648,4.06318
588,470,11.1803,1.74927,0,0,0,0,0,0,0,-1,1812,554,11.1803,-1.74926
595,470,4.72192,3.44116,0,0,0,0,0,0,0,-1,1819,554,4.72191,-3.44116
602,470,14.4307,2.76141,0,0,0,0,0,0,0,-1,1826,554,14.4306,-2.76139
609,470,20.9181,4.41058,0,0,0,0,0,0,0,-1,1833,554,20.9181,-4.4106
616,470,0,0,0,0,0,0,0,0,0,-1,1840,554,0,0
623,470,0,0,0,0,0,0,0,0,0,-1,1847,554,0,0
630,470,0,0,0,0,0,0,0,0,0,-1,1854,554,0,0
637,470,0,0,0,0,0,0,0,0,0,-1,1861,554,0,0
644,470,0,0,0,0,0,0,0,0,0,-1,1868,554,0,0
651,470,0,0,0,0,0,0,0,0,0,-1,1875,554,0,0
658,470,0,0,0,0,0,0,0,0,0,-1,1882,554,0,0
665,470,0,0,0,0,0,0,0,0,0,-1,1889,554,0,0
672,470,0,0,0,0,0,0,0,0,0,-1,1896,554,0,0
679,470,0,0,0,0,0,0,0,0,0,-1,1903,554,0,0
686,470,0,0,0,0,0,0,0,0,0,-1,1910,554,0,0
693,470,0,0,0,0,0,0,0,0,0,-1,1917,554,0,0
700,470,0,0,0,0,0,0,0,0,0,-1,1924,554,0,0
707,470,0,0,0,0,0,0,0,0,0,-1,1931,554,0,0
714,470,0,0,0,0,0,0,0,0,0,-1,1938,554,0,0
721,470,0,0,0,0,0,0,0,0,0,-1,1945,554,0,0
728,470,0,0,0,0,0,0,0,0,0,-1,1952,554,0,0
735,470,0,0,0,0,0,0,0,0,0,-1,1959,554,0,0
742,470,0,0,0,0,0,0,0,0,0,-1,1966,554,0,0
749,470,0,0,0,0,0,0,0,0,0,-1,1973,554,0,0
756,470,0,0,0,0,0,0,0,0,0,-1,1980,554,0,0
763,470,0,0,0,0,0,0,0,0,0,-1,1987,554,0,0
770,470,0,0,0,0,0,0,0,0,0,-1,1994,554,0,0
777,470,0,0,0,0,0,0,0,0,0,-1,2001,554,0,0
784,470,0,0,0,0,0,0,0,0,0,-1,2008,554,0,0
791,470,0,0,0,0,0,0,0,0,0,-1,2015,554,0,0
798,470,0,0,0,0,0,0,0,0,0,-1,2022,554,0,0
805,470,0,0,0,0,0,0,0,0,0,-1,2029,554,0,0
812,470,0,0,0,0,0,0,0,0,0,-1,2036,554,0,0
-700,463,0,0,0,0,0,0,0,0,0,-1,524,561,0,0
-693,463,0,0,0,0,0,0,0,0,0,-1,531,561,0,0
-686,463,0,0,0,0,0,0,0,0,0,-1,538,561,0,0
-679,463,0,0,0,0,0,0,0,0,0,-1,545,561,0,0
-672,463,0,0,0,0,0,0,0,0,0,-1,552,561,0,0
-665,463,0,0,0,0,0,0,0,0,0,-1,559,561,0,0
-658,463,0,0,0,0,0,0,0,0,0,-1,566,561,0,0
-651,463,0,0,0,0,0,0,0,0,0,-1,573,561,0,0
-644,463,0,0,0,0,0,0,0,0,0,-1,580,561,0,0
-637,463,0,0,0,0,0,0,0,0,0,-1,587,561,0,0
-630,463,0,0,0,0,0,0,0,0,0,-1,594,561,0,0
-623,463,0,0,0,0,0,0,0,0,0,-1,601,561,0,0
-616,463,0,0,0,0,0,0,0,0,0,-1,608,561,0,0
-609,463,0,0,0,0,0,0,0,0,0,-1,615,561,0,0
-602,463,0,0,0,0,0,0,0,0,0,-1,622,561,0,0
-595,463,0,0,0,0,0,0,0,0,0,-1,629,561,0,0
-588,463,0,0,0,0,0,0,0,0,0,-1,636,561,0,0
-581,463,0,0,0,0,0,0,0,0,0,-1,643,561,0,0
-574,463,0,0,0,0,0,0,0,0,0,-1,650,561,0,0
-567,463,0,0,0,0,0,0,0,0,0,-1,657,561,0,0
-560,463,0,0,0,0,0,0,0,0,0,-1,664,561,0,0
-553,463,0,0,0,0,0,0,0,0,0,-1,671,561,0,0
-546,463,0,0,0,0,0,0,0,0,0,-1,678,561,0,0
-539,463,0,0,0,0,0,0,0,0,0,-1,685,561,0,0
-532,463,0,0,0,0,0,0,0,0,0,-1,692,561,0,0
-525,463,0,0,0,0,0,0,0,0,0,-1,699,561,0,0
-518,463,0,0,0,0,0,0,0,0,0,-1,706,561,0,0
-511,463,0,0,0,0,0,0,0,0,0,-1,713,561,0,0
-504,463,0,0,0,0,0,0,0,0,0,-1,720,561,0,0
-497,463,-9.81451,-1.67126,0,0,0,0,0,0,0,-1,727,561,-9.81452,1.67127
-490,463,-8.57043,-1.58942,0,0,0,0,0,0,0,-1,734,561,-8.57045,1.58944
-483,463,-7.29224,-1.7226,0,0,0,0,0,0,0,-1,741,561,-7.29226,1.72261
-476,463,-5.77704,-1.7312,0,0,0,0,0,0,0,-1,748,561,-5.77703,1.73121
-469,463,-5.14545,-2.138,0,0,0,0,0,0,0,-1,755,561,-5.14546,2.13799
-462,463,-3.13672,-3.07977,0,0,0,0,0,0,0,-1,762,561,-3.13672,3.07974
-455,463,-2.91406,-5.61798,0,0,0,0,0,0,0,-1,769,561,-2.91406,5.61801
-448,463,-4.00177,-8.54681,0,0,0,0,0,0,0,-1,776,561,-4.00175,8.54683
-441,463,-9.01526,-18.9431,0,0,0,0,0,0,0,-1,783,561,-9.01526,18.9431
-434,463,-8.91614,-20.1818,-0.000192924,0.00700898,-0.0016285,0.0073601,-0.000544043,-1.35844,0.00509777,0.0399587,790,561,-8.91612,20.1817
-427,463,-8.974,-21.1412,0.000174113,0.00619814,-0.00190474,0.00674987,-0.000377617,-1.28885,0.00463092,0.0126509,797,561,-8.97401,21.1412
-420,463,-9.00128,-22.0662,0.000453196,0.00534675,-0.00204965,0.0060918,-0.000291856,-1.22214,0.0041619,0.0109587,804,561,-9.00128,22.0662
-413,463,-9.07703,-22.9883,0.000613337,0.00444244,-0.00199757,0.0052948,-0.00023902,-1.16749,0.00361217,0.0106489,811,561,-9.07701,22.9883
-406,463,-9.14453,-23.9052,0.000676244,0.00346214,-0.00171838,0.00428124,-0.000142854,-1.12599,0.00290295,0.0108704,818,561,-9.14454,23.9052
-399,463,-9.1886,-24.8041,0.000806913,0.00261691,-0.0014066,0.0033845,3.9322e-05,-1.07126,0.00224334,0.0119834,825,561,-9.18858,24.8041
-392,463,-9.26465,-25.6981,0.00105756,0.00182378,-0.00112212,0.00262639,0.000254949,-0.949901,0.00167243,0.0118706,832,561,-9.26466,25.6981
-385,463,-9.32947,-26.6156,0.00144828,0.00111027,-0.000864933,0.00216056,0.000397981,-0.688915,0.00132775,0.0120411,839,561,-9.32944,26.6156
-378,463,-9.36743,-27.5087,0.00187663,0.000405068,-0.000545106,0.00205656,0.000225145,-0.31881,0.00130249,0.0137091,846,561,-9.36743,27.5087
-371,463,-9.40918,-28.4023,0.00236105,-0.000202344,-0.000256756,0.00238652,-0.000227808,-0.0988539,0.00167213,0.0139647,853,561,-9.40916,28.4023
-364,463,-9.45258,-29.2631,0.00290406,-0.000663521,-1.01984e-05,0.00290409,-0.00066355,-0.0028586,0.002191,0.0153076,860,561,-9.45255,29.2631
-357,463,-9.55542,-30.1173,0.00353322,-0.00114384,0.000159938,0.00353868,-0.0011493,0.0341431,0.00282136,0.0209434,867,561,-9.5554,30.1173
-350,463,-9.49603,-31.083,0.00416294,-0.00185531,0.000340798,0.00418217,-0.00187454,0.0563872,0.00358045,0.0451697,874,561,-9.49604,31.083
-343,463,-9.1571,-32.0722,0,0,0,0,0,0,0,-1,881,561,-9.15709,32.0722
-336,463,-2.94928,-12.2127,0,0,0,0,0,0,0,-1,888,561,-2.94925,12.2127
-329,463,-2.64307,-12.7037,0,0,0,0,0,0,0,-1,895,561,-2.64307,12.7038
-322,463,-1.82898,-9.11957,0,0,0,0,0,0,0,-1,902,561,-1.829,9.11957
-315,463,-0.944763,-5.96234,0,0,0,0,0,0,0,-1,909,561,-0.94479,5.96237
-308,463,-1.1535,-3.17889,0,0,0,0,0,0,0,-1,916,561,-1.15352,3.17889
-301,463,-1.50366,-3.15338,0,0,0,0,0,0,0,-1,923,561,-1.50364,3.15341
-294,463,-2.35889,-3.93463,0,0,0,0,0,0,0,-1,930,561,-2.35886,3.93465
-287,463,-2.80322,2.73999,0,0,0,0,0,0,0,-1,937,561,-2.80322,-2.74
-280,463,-12.864,5.25146,0,0,0,0,0,0,0,-1,944,561,-12.864,-5.25149
-273,463,-12.4598,3.39178,0,0,0,0,0,0,0,-1,951,561,-12.4598,-3.3918
-266,463,-8.78101,-3.7356,0,0,0,0,0,0,0,-1,958,561,-8.78098,3.73562
-259,463,-6.23285,-5.68842,0,0,0,0,0,0,0,-1,965,561,-6.23288,5.68843
-252,463,0,0,0,0,0,0,0,0,0,-1,972,561,0,0
-245,463,0,0,0,0,0,0,0,0,0,-1,979,561,0,0
-238,463,0,0,0,0,0,0,0,0,0,-1,986,561,0,0
-231,463,0,0,0,0,0,0,0,0,0,-1,993,561,0,0
-224,463,0,0,0,0,0,0,0,0,0,-1,1000,561,0,0
-217,463,0,0,0,0,0,0,0,0,0,-1,1007,561,0,0
-210,463,0,0,0,0,0,0,0,0,0,-1,1014,561,0,0
-203,463,0,0,0,0,0,0,0,0,0,-1,1021,561,0,0
-196,463,0,0,0,0,0,0,0,0,0,-1,1028,561,0,0
-189,463,0,0,0,0,0,0,0,0,0,-1,1035,561,0,0
-182,463,0,0,0,0,0,0,0,0,0,-1,1042,561,0,0
-175,463,0,0,0,0,0,0,0,0,0,-1,1049,561,0,0
-168,463,0,0,0,0,0,0,0,0,0,-1,1056,561,0,0
-161,463,0,0,0,0,0,0,0,0,0,-1,1063,561,0,0
-154,463,0,0,0,0,0,0,0,0,0,-1,1070,561,0,0
-147,463,0,0,0,0,0,0,0,0,0,-1,1077,561,0,0
-140,463,0,0,0,0,0,0,0,0,0,-1,1084,561,0,0
-133,463,0,0,0,0,0,0,0,0,0,-1,1091,561,0,0
-126,463,0,0,0,0,0,0,0,0,0,-1,1098,561,0,0
-119,463,0,0,0,0,0,0,0,0,0,-1,1105,561,0,0
-112,463,0,0,0,0,0,0,0,0,0,-1,1112,561,0,0
-105,463,0,0,0,0,0,0,0,0,0,-1,1119,561,0,0
-98,463,0,0,0,0,0,0,0,0,0,-1,1126,561,0,0
-91,463,0,0,0,0,0,0,0,0,0,-1,1133,561,0,0
-84,463,0,0,0,0,0,0,0,0,0,-1,1140,561,0,0
-77,463,0,0,0,0,0,0,0,0,0,-1,1147,561,0,0
-70,463,0,0,0,0,0,0,0,0,0,-1,1154,561,0,0
-63,463,0,0,0,0,0,0,0,0,0,-1,1161,561,0,0
-56,463,0,0,0,0,0,0,0,0,0,-1,1168,561,0,0
-49,463,0,0,0,0,0,0,0,0,0,-1,1175,561,0,0
-42,463,0,0,0,0,0,0,0,0,0,-1,1182,561,0,0
-35,463,0,0,0,0,0,0,0,0,0,-1,1189,561,0,0
-28,463,0,0,0,0,0,0,0,0,0,-1,1196,561,0,0
-21,463,0,0,0,0,0,0,0,0,0,-1,1203,561,0,0
-14,463,0,0,0,0,0,0,0,0,0,-1,1210,561,0,0
-7,463,0,0,0,0,0,0,0,0,0,-1,1217,561,0,0
0,463,0,0,0,0,0,0,0,0,0,-1,1224,561,0,0
7,463,0,0,0,0,0,0,0,0,0,-1,1231,561,0,0
14,463,0,0,0,0,0,0,0,0,0,-1,1238,561,0,0
21,463,0,0,0,0,0,0,0,0,0,-1,1245,561,0,0
28,463,0,0,0,0,0,0,0,0,0,-1,1252,561,0,0
35,463,0,0,0,0,0,0,0,0,0,-1,1259,561,0,0
42,463,0,0,0,0,0,0,0,0,0,-1,1266,561,0,0
49,463,0,0,0,0,0,0,0,0,0,-1,1273,561,0,0
56,463,0,0,0,0,0,0,0,0,0,-1,1280,561,0,0
63,463,0,0,0,0,0,0,0,0,0,-1,1287,561,0,0
70,463,0,0,0,0,0,0,0,0,0,-1,1294,561,0,0
77,463,0,0,0,0,0,0,0,0,0,-1,1301,561,0,0
84,463,0,0,0,0,0,0,0,0,0,-1,1308,561,0,0
91,463,0,0,0,0,0,0,0,0,0,-1,1315,561,0,0
98,463,0,0,0,0,0,0,0,0,0,-1,1322,561,0,0
105,463,0,0,0,0,0,0,0,0,0,-1,1329,561,0,0
112,463,0,0,0,0,0,0,0,0,0,-1,1336,561,0,0
119,463,0,0,0,0,0,0,0,0,0,-1,1343,561,0,0
126,463,0,0,0,0,0,0,0,0,0,-1,1350,561,0,0
133,463,0,0,0,0,0,0,0,0,0,-1,1357,561,0,0
140,463,0,0,0,0,0,0,0,0,0,-1,1364,561,0,0
147,463,0,0,0,0,0,0,0,0,0,-1,1371,561,0,0
154,463,0,0,0,0,0,0,0,0,0,-1,1378,561,0,0
161,463,0,0,0,0,0,0,0,0,0,-1,1385,561,0,0
168,463,0,0,0,0,0,0,0,0,0,-1,1392,561,0,0
175,463,0,0,0,0,0,0,0,0,0,-1,1399,561,0,0
182,463,0,0,0,0,0,0,0,0,0,-1,1406,561,0,0
189,463,0,0,0,0,0,0,0,0,0,-1,1413,561,0,0
196,463,0,0,0,0,0,0,0,0,0,-1,1420,561,0,0
203,463,0,0,0,0,0,0,0,0,0,-1,1427,561,0,0
210,463,0,0,0,0,0,0,0,0,0,-1,1434,561,0,0
217,463,0,0,0,0,0,0,0,0,0,-1,1441,561,0,0
224,463,0,0,0,0,0,0,0,0,0,-1,1448,561,0,0
231,463,0,0,0,0,0,0,0,0,0,-1,1455,561,0,0
238,463,0,0,0,0,0,0,0,0,0,-1,1462,561,0,0
245,463,0,0,0,0,0,0,0,0,0,-1,1469,561,0,0
252,463,0,0,0,0,0,0,0,0,0,-1,1476,561,0,0
259,463,0,0,0,0,0,0,0,0,0,-1,1483,561,0,0
266,463,0,0,0,0,0,0,0,0,0,-1,1490,561,0,0
273,463,0,0,0,0,0,0,0,0,0,-1,1497,561,0,0
280,463,0,0,0,0,0,0,0,0,0,-1,1504,561,0,0
287,463,0,0,0,0,0,0,0,0,0,-1,1511,561,0,0
294,463,0,0,0,0,0,0,0,0,0,-1,1518,561,0,0
301,463,0,0,0,0,0,0,0,0,0,-1,1525,561,0,0
308,463,0,0,0,0,0,0,0,0,0,-1,1532,561,0,0
315,463,0,0,0,0,0,0,0,0,0,-1,1539,561,0,0
322,463,0,0,0,0,0,0,0,0,0,-1,1546,561,0,0
329,463,0,0,0,0,0,0,0,0,0,-1,1553,561,0,0
336,463,0,0,0,0,0,0,0,0,0,-1,1560,561,0,0
343,463,0,0,0,0,0,0,0,0,0,-1,1567,561,0,0
350,463,0,0,0,0,0,0,0,0,0,-1,1574,561,0,0
357,463,0,0,0,0,0,0,0,0,0,-1,1581,561,0,0
364,463,0,0,0,0,0,0,0,0,0,-1,1588,561,0,0
371,463,1.75842,0.152588,0,0,0,0,0,0,0,-1,1595,561,1.75844,-0.152558
378,463,4.58813,-0.0444336,0,0,0,0,0,0,0,-1,1602,561,4.58809,0.0444505
385,463,8.88574,1.65057,0,0,0,0,0,0,0,-1,1609,561,8.88575,-1.65055
392,463,14.0912,2.50513,0,0,0,0,0,0,0,-1,1616,561,14.0912,-2.5051
399,463,21.4769,2.7002,0,0,0,0,0,0,0,-1,1623,561,21.477,-2.70017
406,463,26.2987,4.32318,0,0,0,0,0,0,0,-1,1630,561,26.2987,-4.3232
413,463,26.5011,2.65222,0,0,0,0,0,0,0,-1,1637,561,26.5011,-2.65224
420,463,8.849,2.26611,0,0,0,0,0,0,0,-1,1644,561,8.84899,-2.26613
427,463,5.12207,1.69183,0,0,0,0,0,0,0,-1,1651,561,5.12206,-1.69184
434,463,4.59814,1.81995,0,0,0,0,0,0,0,-1,1658,561,4.59812,-1.81994
441,463,1.76392,-5.99225,0,0,0,0,0,0,0,-1,1665,561,1.7639,5.99225
448,463,2.49939,-4.30536,0,0,0,0,0,0,0,-1,1672,561,2.49941,4.30536
455,463,4.40295,-3.02557,0,0,0,0,0,0,0,-1,1679,561,4.40299,3.02558
462,463,5.38293,-4.06445,0,0,0,0,0,0,0,-1,1686,561,5.38289,4.06444
469,463,5.94373,-4.50647,0,0,0,0,0,0,0,-1,1693,561,5.94368,4.50646
476,463,15.2559,-17.3189,0,0,0,0,0,0,0,-1,1700,561,15.2558,17.3189
483,463,24.9725,-29.8552,0,0,0,0,0,0,0,-1,1707,561,24.9725,29.8552
490,463,24.9548,-28.9454,0.00192999,0.000327747,-0.000145286,0.00194306,0.000314679,-0.0897017,0.00120426,0.0350968,1714,561,24.9549,28.9455
497,463,24.8615,-27.9422,0.00192838,0.000971375,0.00044708,0.00210474,0.000795014,0.375732,0.00122722,0.0168087,1721,561,24.8614,27.9422
504,463,24.8296,-27.0638,0.00184397,0.00100204,0.000773154,0.00230334,0.000542676,0.5361,0.00139043,0.0176033,1728,561,24.8296,27.0639
511,463,24.8298,-26.2106,0.00171747,0.00105597,0.0010369,0.0024751,0.00029835,0.63101,0.00156015,0.0252067,1735,561,24.8298,26.2106
518,463,24.821,-25.293,0.00149919,0.00116394,0.00125952,0.00260219,6.09373e-05,0.719244,0.00171484,0.0263071,1742,561,24.8211,25.293
525,463,24.6886,-24.369,0.00126742,0.00135854,0.00141482,0.00272853,-0.000102577,0.801494,0.00185416,0.0207233,1749,561,24.6886,24.369
532,463,24.6443,-23.3912,0.0010459,0.00169054,0.00154693,0.00294837,-0.000211927,0.88811,0.0020399,0.0185083,1756,561,24.6442,23.3912
539,463,24.5436,-22.4279,0.000809395,0.00215604,0.0016517,0.00326639,-0.000300951,0.978942,0.00228453,0.0212359,1763,561,24.5436,22.4279
546,463,24.4664,-21.5868,0.000614713,0.00286686,0.00174313,0.00381601,-0.000334434,1.07218,0.00266249,0.0171256,1770,561,24.4665,21.5868
553,463,24.4478,-20.6268,0.000478621,0.00375931,0.00186105,0.00459974,-0.000361808,1.14662,0.00319393,0.0117103,1777,561,24.4477,20.6268
560,463,24.4349,-19.5358,0.000515059,0.0048649,0.00205027,0.00567894,-0.000298982,1.19284,0.00388945,0.024232,1784,561,24.4349,19.5358
567,463,24.2404,-18.6277,0.000621566,0.00617337,0.00235072,0.00703498,-0.000240046,1.21947,0.00477202,0.0399164,1791,561,24.2404,18.6277
574,463,24.3684,-17.6915,0,0,0,0,0,0,0,-1,1798,561,24.3683,17.6915
581,463,9.4939,-3.88245,0,0,0,0,0,0,0,-1,1805,561,9.49392,3.88245
588,463,1.97424,2.16016,0,0,0,0,0,0,0,-1,1812,561,1.97422,-2.16013
595,463,9.98657,2.99854,0,0,0,0,0,0,0,-1,1819,561,9.98662,-2.99856
602,463,17.2202,4.91302,0,0,0,0,0,0,0,-1,1826,561,17.2202,-4.91305
609,463,17.96,4.03131,0,0,0,0,0,0,0,-1,1833,561,17.96,-4.03132
616,463,20.8352,3.15131,0,0,0,0,0,0,0,-1,1840,561,20.8352,-3.1513
623,463,0,0,0,0,0,0,0,0,0,-1,1847,561,0,0
630,463,0,0,0,0,0,0,0,0,0,-1,1854,561,0,0
637,463,0,0,0,0,0,0,0,0,0,-1,1861,561,0,0
644,463,0,0,0,0,0,0,0,0,0,-1,1868,561,0,0
651,463,0,0,0,0,0,0,0,0,0,-1,1875,561,0,0
658,463,0,0,0,0,0,0,0,0,0,-1,1882,561,0,0
665,463,0,0,0,0,0,0,0,0,0,-1,1889,561,0,0
672,463,0,0,0,0,0,0,0,0,0,-1,1896,561,0,0
679,463,0,0,0,0,0,0,0,0,0,-1,1903,561,0,0
686,463,0,0,0,0,0,0,0,0,0,-1,1910,561,0,0
693,463,0,0,0,0,0,0,0,0,0,-1,1917,561,0,0
700,463,0,0,0,0,0,0,0,0,0,-1,1924,561,0,0
707,463,0,0,0,0,0,0,0,0,0,-1,1931,561,0,0
714,463,0,0,0,0,0,0,0,0,0,-1,1938,561,0,0
721,463,0,0,0,0,0,0,0,0,0,-1,1945,561,0,0
728,463,0,0,0,0,0,0,0,0,0,-1,1952,561,0,0
735,463,0,0,0,0,0,0,0,0,0,-1,1959,561,0,0
742,463,0,0,0,0,0,0,0,0,0,-1,1966,561,0,0
749,463,0,0,0,0,0,0,0,0,0,-1,1973,561,0,0
756,463,0,0,0,0,0,0,0,0,0,-1,1980,561,0,0
763,463,0,0,0,0,0,0,0,0,0,-1,1987,561,0,0
770,463,0,0,0,0,0,0,0,0,0,-1,1994,561,0,0
777,463,0,0,0,0,0,0,0,0,0,-1,2001,561,0,0
784,463,0,0,0,0,0,0,0,0,0,-1,2008,561,0,0
791,463,0,0,0,0,0,0,0,0,0,-1,2015,561,0,0
798,463,0,0,0,0,0,0,0,0,0,-1,2022,561,0,0
805,463,0,0,0,0,0,0,0,0,0,-1,2029,561,0,0
812,463,0,0,0,0,0,0,0,0,0,-1,2036,561,0,0
-700,456,0,0,0,0,0,0,0,0,0,-1,524,568,0,0
-693,456,0,0,0,0,0,0,0,0,0,-1,531,568,0,0
-686,456,0,0,0,0,0,0,0,0,0,-1,538,568,0,0
-679,456,0,0,0,0,0,0,0,0,0,-1,545,568,0,0
-672,456,0,0,0,0,0,0,0,0,0,-1,552,568,0,0
-665,456,0,0,0,0,0,0,0,0,0,-1,559,568,0,0
-658,456,0,0,0,0,0,0,0,0,0,-1,566,568,0,0
-651,456,0,0,0,0,0,0,0,0,0,-1,573,568,0,0
-644,456,0,0,0,0,0,0,0,0,0,-1,580,568,0,0
-637,456,0,0,0,0,0,0,0,0,0,-1,587,568,0,0
-630,456,0,0,0,0,0,0,0,0,0,-1,594,568,0,0
-623,456,0,0,0,0,0,0,0,0,0,-1,601,568,0,0
-616,456,0,0,0,0,0,0,0,0,0,-1,608,568,0,0
-609,456,0,0,0,0,0,0,0,0,0,-1,615,568,0,0
-602,456,0,0,0,0,0,0,0,0,0,-1,622,568,0,0
-595,456,0,0,0,0,0,0,0,0,0,-1,629,568,0,0
-588,456,0,0,0,0,0,0,0,0,0,-1,636,568,0,0
-581,456,0,0,0,0,0,0,0,0,0,-1,643,568,0,0
-574,456,0,0,0,0,0,0,0,0,0,-1,650,568,0,0
-567,456,0,0,0,0,0,0,0,0,0,-1,657,568,0,0
-560,456,0,0,0,0,0,0,0,0,0,-1,664,568,0,0
-553,456,0,0,0,0,0,0,0,0,0,-1,671,568,0,0
-546,456,0,0,0,0,0,0,0,0,0,-1,678,568,0,0
-539,456,0,0,0,0,0,0,0,0,0,-1,685,568,0,0
-532,456,0,0,0,0,0,0,0,0,0,-1,692,568,0,0
-525,456,0,0,0,0,0,0,0,0,0,-1,699,568,0,0
-518,456,0,0,0,0,0,0,0,0,0,-1,706,568,0,0
-511,456,0,0,0,0,0,0,0,0,0,-1,713,568,0,0
-504,456,-10.3994,-2.34839,0,0,0,0,0,0,0,-1,720,568,-10.3994,2.3484
-497,456,-9.21375,-2.38068,0,0,0,0,0,0,0,-1,727,568,-9.21372,2.38069
-490,456,-8.09058,-2.31824,0,0,0,0,0,0,0,-1,734,568,-8.09057,2.31821
-483,456,-6.66119,-2.24329,0,0,0,0,0,0,0,-1,741,568,-6.66121,2.24331
-476,456,-5.1499,-2.21185,0,0,0,0,0,0,0,-1,748,568,-5.14992,2.21184
-469,456,-2.81238,-3.51501,0,0,0,0,0,0,0,-1,755,568,-2.81237,3.51501
-462,456,-4.2431,-5.27478,0,0,0,0,0,0,0,-1,762,568,-4.24312,5.27476
-455,456,-5.98364,-8.72119,0,0,0,0,0,0,0,-1,769,568,-5.98364,8.72122
-448,456,-8.57849,-16.2391,0,0,0,0,0,0,0,-1,776,568,-8.57846,16.2392
-441,456,-9.95258,-19.0288,0,0,0,0,0,0,0,-1,783,568,-9.95258,19.0288
-434,456,-9.85333,-20.1327,-0.000332093,0.00506023,-0.00110981,0.00527971,-0.000551572,-1.37555,0.00371733,0.0239892,790,568,-9.85332,20.1327
-427,456,-9.87799,-21.0766,0.000148394,0.00445344,-0.00136486,0.00484968,-0.000247846,-1.28825,0.00331882,0.0100482,797,568,-9.87797,21.0766
-420,456,-9.92462,-22.001,0.000530381,0.00384719,-0.00152878,0.00444433,-6.67595e-05,-1.19842,0.00298539,0.00962547,804,568,-9.92463,22.001
-413,456,-9.98438,-22.9202,0.000758313,0.00315379,-0.00151194,0.00388492,2.71832e-05,-1.12038,0.00258093,0.00922519,811,568,-9.98438,22.9202
-406,456,-10.0675,-23.8176,0.000874438,0.00237332,-0.00128331,0.00311,0.00013776,-1.04968,0.00202897,0.00977842,818,568,-10.0675,23.8176
-399,456,-10.1227,-24.7231,0.00107508,0.0017391,-0.00105027,0.00250859,0.000305589,-0.938487,0.00158041,0.0120382,825,568,-10.1227,24.7231
-392,456,-10.1736,-25.6268,0.00137567,0.00113103,-0.000840097,0.00210231,0.000404398,-0.713105,0.00128808,0.0118048,832,568,-10.1736,25.6268
-385,456,-10.2176,-26.5323,0.00180829,0.000589369,-0.000655545,0.00209392,0.000303742,-0.410907,0.00130652,0.0109489,839,568,-10.2176,26.5323
-378,456,-10.2715,-27.4546,0.0023016,7.52587e-05,-0.000418579,0.00237769,-8.38307e-07,-0.179834,0.00158541,0.0120224,846,568,-10.2715,27.4546
-371,456,-10.3222,-28.3386,0.00289889,-0.00027399,-0.000224843,0.00291474,-0.000289845,-0.0703952,0.00204663,0.0132173,853,568,-10.3222,28.3387
-364,456,-10.3293,-29.1819,0.00358799,-0.000347866,-0.000128534,0.00359218,-0.000352059,-0.0326109,0.00252035,0.0235457,860,568,-10.3293,29.1819
-357,456,-10.3373,-30.1224,0,0,0,0,0,0,0,-1,867,568,-10.3373,30.1224
-350,456,-10.2214,-31.3089,0,0,0,0,0,0,0,-1,874,568,-10.2214,31.3089
-343,456,-3.39081,-12.0217,0,0,0,0,0,0,0,-1,881,568,-3.39078,12.0217
-336,456,-3.04517,-12.4623,0,0,0,0,0,0,0,-1,888,568,-3.04519,12.4624
-329,456,-1.06183,-10.7184,0,0,0,0,0,0,0,-1,895,568,-1.06184,10.7184
-322,456,-0.662537,-7.66632,0,0,0,0,0,0,0,-1,902,568,-0.662564,7.66633
-315,456,-0.675476,-3.38397,0,0,0,0,0,0,0,-1,909,568,-0.675473,3.38399
-308,456,-1.1618,-3.15314,0,0,0,0,0,0,0,-1,916,568,-1.16178,3.15314
-301,456,-1.83551,-3.26447,0,0,0,0,0,0,0,-1,923,568,-1.8355,3.26449
-294,456,-2.93414,-3.35449,0,0,0,0,0,0,0,-1,930,568,-2.93413,3.35451
-287,456,-3.7569,-3.53101,0,0,0,0,0,0,0,-1,937,568,-3.75692,3.53101
-280,456,-13.072,4.52856,0,0,0,0,0,0,0,-1,944,568,-13.072,-4.52855
-273,456,-8.26538,-6.66748,0,0,0,0,0,0,0,-1,951,568,-8.26536,6.66745
-266,456,-5.71527,-9.36884,0,0,0,0,0,0,0,-1,958,568,-5.71529,9.36885
-259,456,0,0,0,0,0,0,0,0,0,-1,965,568,0,0
-252,456,0,0,0,0,0,0,0,0,0,-1,972,568,0,0
-245,456,0,0,0,0,0,0,0,0,0,-1,979,568,0,0
-238,456,0,0,0,0,0,0,0,0,0,-1,986,568,0,0
-231,456,0,0,0,0,0,0,0,0,0,-1,993,568,0,0
-224,456,0,0,0,0,0,0,0,0,0,-1,1000,568,0,0
-217,456,0,0,0,0,0,0,0,0,0,-1,1007,568,0,0
-210,456,0,0,0,0,0,0,0,0,0,-1,1014,568,0,0
-203,456,0,0,0,0,0,0,0,0,0,-1,1021,568,0,0
-196,456,0,0,0,0,0,0,0,0,0,-1,1028,568,0,0
-189,456,0,0,0,0,0,0,0,0,0,-1,1035,568,0,0
-182,456,0,0,0,0,0,0,0,0,0,-1,1042,568,0,0
-175,456,0,0,0,0,0,0,0,0,0,-1,1049,568,0,0
-168,456,0,0,0,0,0,0,0,0,0,-1,1056,568,0,0
-161,456,0,0,0,0,0,0,0,0,0,-1,1063,568,0,0
-154,456,0,0,0,0,0,0,0,0,0,-1,1070,568,0,0
-147,456,0,0,0,0,0,0,0,0,0,-1,1077,568,0,0
-140,456,0,0,0,0,0,0,0,0,0,-1,1084,568,0,0
-133,456,0,0,0,0,0,0,0,0,0,-1,1091,568,0,0
-126,456,0,0,0,0,0,0,0,0,0,-1,1098,568,0,0
-119,456,0,0,0,0,0,0,0,0,0,-1,1105,568,0,0
-112,456,0,0,0,0,0,0,0,0,0,-1,1112,568,0,0
-105,456,0,0,0,0,0,0,0,0,0,-1,1119,568,0,0
-98,456,0,0,0,0,0,0,0,0,0,-1,1126,568,0,0
-91,456,0,0,0,0,0,0,0,0,0,-1,1133,568,0,0
-84,456,0,0,0,0,0,0,0,0,0,-1,1140,568,0,0
-77,456,0,0,0,0,0,0,0,0,0,-1,1147,568,0,0
-70,456,0,0,0,0,0,0,0,0,0,-1,1154,568,0,0
-63,456,0,0,0,0,0,0,0,0,0,-1,1161,568,0,0
-56,456,0,0,0,0,0,0,0,0,0,-1,1168,568,0,0
-49,456,0,0,0,0,0,0,0,0,0,-1,1175,568,0,0
-42,456,0,0,0,0,0,0,0,0,0,-1,1182,568,0,0
-35,456,0,0,0,0,0,0,0,0,0,-1,1189,568,0,0
-28,456,0,0,0,0,0,0,0,0,0,-1,1196,568,0,0
-21,456,0,0,0,0,0,0,0,0,0,-1,1203,568,0,0
-14,456,0,0,0,0,0,0,0,0,0,-1,1210,568,0,0
-7,456,0,0,0,0,0,0,0,0,0,-1,1217,568,0,0
0,456,0,0,0,0,0,0,0,0,0,-1,1224,568,0,0
7,456,0,0,0,0,0,0,0,0,0,-1,1231,568,0,0
14,456,0,0,0,0,0,0,0,0,0,-1,1238,568,0,0
21,456,0,0,0,0,0,0,0,0,0,-1,1245,568,0,0
28,456,0,0,0,0,0,0,0,0,0,-1,1252,568,0,0
35,456,0,0,0,0,0,0,0,0,0,-1,1259,568,0,0
42,456,0,0,0,0,0,0,0,0,0,-1,1266,568,0,0
49,456,0,0,0,0,0,0,0,0,0,-1,1273,568,0,0
56,456,0,0,0,0,0,0,0,0,0,-1,1280,568,0,0
63,456,0,0,0,0,0,0,0,0,0,-1,1287,568,0,0
70,456,0,0,0,0,0,0,0,0,0,-1,1294,568,0,0
77,456,0,0,0,0,0,0,0,0,0,-1,1301,568,0,0
84,456,0,0,0,0,0,0,0,0,0,-1,1308,568,0,0
91,456,0,0,0,0,0,0,0,0,0,-1,1315,568,0,0
98,456,0,0,0,0,0,0,0,0,0,-1,1322,568,0,0
105,456,0,0,0,0,0,0,0,0,0,-1,1329,568,0,0
112,456,0,0,0,0,0,0,0,0,0,-1,1336,568,0,0
119,456,0,0,0,0,0,0,0,0,0,-1,1343,568,0,0
126,456,0,0,0,0,0,0,0,0,0,-1,1350,568,0,0
133,456,0,0,0,0,0,0,0,0,0,-1,1357,568,0,0
140,456,0,0,0,0,0,0,0,0,0,-1,1364,568,0,0
147,456,0,0,0,0,0,0,0,0,0,-1,1371,568,0,0
154,456,0,0,0,0,0,0,0,0,0,-1,1378,568,0,0
161,456,0,0,0,0,0,0,0,0,0,-1,1385,568,0,0
168,456,0,0,0,0,0,0,0,0,0,-1,1392,568,0,0
175,456,0,0,0,0,0,0,0,0,0,-1,1399,568,0,0
182,456,0,0,0,0,0,0,0,0,0,-1,1406,568,0,0
189,456,0,0,0,0,0,0,0,0,0,-1,1413,568,0,0
196,456,0,0,0,0,0,0,0,0,0,-1,1420,568,0,0
203,456,0,0,0,0,0,0,0,0,0,-1,1427,568,0,0
210,456,0,0,0,0,0,0,0,0,0,-1,1434,568,0,0
217,456,0,0,0,0,0,0,0,0,0,-1,1441,568,0,0
224,456,0,0,0,0,0,0,0,0,0,-1,1448,568,0,0
231,456,0,0,0,0,0,0,0,0,0,-1,1455,568,0,0
238,456,0,0,0,0,0,0,0,0,0,-1,1462,568,0,0
245,456,0,0,0,0,0,0,0,0,0,-1,1469,568,0,0
252,456,0,0,0,0,0,0,0,0,0,-1,1476,568,0,0
259,456,0,0,0,0,0,0,0,0,0,-1,1483,568,0,0
266,456,0,0,0,0,0,0,0,0,0,-1,1490,568,0,0
273,456,0,0,0,0,0,0,0,0,0,-1,1497,568,0,0
280,456,0,0,0,0,0,0,0,0,0,-1,1504,568,0,0
287,456,0,0,0,0,0,0,0,0,0,-1,1511,568,0,0
294,456,0,0,0,0,0,0,0,0,0,-1,1518,568,0,0
301,456,0,0,0,0,0,0,0,0,0,-1,1525,568,0,0
308,456,0,0,0,0,0,0,0,0,0,-1,1532,568,0,0
315,456,0,0,0,0,0,0,0,0,0,-1,1539,568,0,0
322,456,0,0,0,0,0,0,0,0,0,-1,1546,568,0,0
329,456,0,0,0,0,0,0,0,0,0,-1,1553,568,0,0
336,456,0,0,0,0,0,0,0,0,0,-1,1560,568,0,0
343,456,0,0,0,0,0,0,0,0,0,-1,1567,568,0,0
350,456,0,0,0,0,0,0,0,0,0,-1,1574,568,0,0
357,456,0,0,0,0,0,0,0,0,0,-1,1581,568,0,0
364,456,0,0,0,0,0,0,0,0,0,-1,1588,568,0,0
371,456,0,0,0,0,0,0,0,0,0,-1,1595,568,0,0
378,456,0,0,0,0,0,0,0,0,0,-1,1602,568,0,0
385,456,5.66284,0.660645,0,0,0,0,0,0,0,-1,1609,568,5.66285,-0.660615
392,456,17.5027,4.32971,0,0,0,0,0,0,0,-1,1616,568,17.5026,-4.32971
399,456,24.1917,5.99652,0,0,0,0,0,0,0,-1,1623,568,24.1916,-5.99651
406,456,24.446,4.53003,0,0,0,0,0,0,0,-1,1630,568,24.446,-4.53005
413,456,24.9418,2.90521,0,0,0,0,0,0,0,-1,1637,568,24.9418,-2.90524
420,456,25.3048,1.04712,0,0,0,0,0,0,0,-1,1644,568,25.3048,-1.04713
427,456,6.21375,2.02905,0,0,0,0,0,0,0,-1,1651,568,6.21372,-2.02904
434,456,3.0719,-4.86285,0,0,0,0,0,0,0,-1,1658,568,3.07184,4.86287
441,456,2.90344,-4.70459,0,0,0,0,0,0,0,-1,1665,568,2.90346,4.7046
448,456,3.06995,-4.93689,0,0,0,0,0,0,0,-1,1672,568,3.06991,4.93687
455,456,3.46582,-3.43701,0,0,0,0,0,0,0,-1,1679,568,3.46585,3.43698
462,456,4.68445,-4.45831,0,0,0,0,0,0,0,-1,1686,568,4.68439,4.45833
469,456,4.93201,-2.289,0,0,0,0,0,0,0,-1,1693,568,4.93197,2.28903
476,456,4.8363,-2.79364,0,0,0,0,0,0,0,-1,1700,568,4.83636,2.79363
483,456,12.8522,-13.692,0,0,0,0,0,0,0,-1,1707,568,12.8522,13.6919
490,456,25.7018,-29.2465,0,0,0,0,0,0,0,-1,1714,568,25.7018,29.2465
497,456,25.738,-27.9064,0,0,0,0,0,0,0,-1,1721,568,25.738,27.9064
504,456,25.6779,-26.9913,0.00251006,0.00120788,0.000971798,0.00302872,0.000689222,0.490249,0.00183312,0.016797,1728,568,25.6778,26.9913
511,456,25.6781,-26.0975,0.00226148,0.00107308,0.00114968,0.00296143,0.000373127,0.546884,0.00186241,0.014328,1735,568,25.6781,26.0975
518,456,25.6494,-25.2157,0.00196462,0.00102011,0.00133129,0.00290493,7.9793e-05,0.614955,0.00191058,0.0176846,1742,568,25.6495,25.2157
525,456,25.5627,-24.2948,0.00163404,0.00110763,0.00142425,0.0028192,-7.75337e-05,0.694029,0.00190584,0.0171082,1749,568,25.5627,24.2948
532,456,25.5591,-23.311,0.00133776,0.00133653,0.00149324,0.00283038,-0.000156096,0.785192,0.00194104,0.0177586,1756,568,25.5591,23.311
539,456,25.4865,-22.3206,0.00107328,0.00171072,0.00155662,0.00298092,-0.000196914,0.886379,0.00205606,0.0263059,1763,568,25.4864,22.3206
546,456,25.3359,-21.4351,0.000882866,0.00230223,0.00160382,0.00334637,-0.000161275,0.993695,0.00228657,0.0297546,1770,568,25.336,21.4351
553,456,25.2795,-20.5009,0.000741262,0.00307617,0.00168339,0.00395731,-0.00013988,1.08858,0.00268605,0.0154769,1777,568,25.2795,20.5009
560,456,25.2911,-19.6052,0.000749528,0.00404194,0.00187497,0.00489083,-9.93642e-05,1.14566,0.00329417,0.0103708,1784,568,25.2911,19.6052
567,456,25.2617,-18.6565,0.000944073,0.00526475,0.00225641,0.00622826,-1.94395e-05,1.16722,0.00415867,0.0221002,1791,568,25.2617,18.6565
574,456,25.2305,-17.7416,0,0,0,0,0,0,0,-1,1798,568,25.2305,17.7415
581,456,16.2228,-9.08563,0,0,0,0,0,0,0,-1,1805,568,16.2228,9.08562
588,456,5.23901,-0.0901489,0,0,0,0,0,0,0,-1,1812,568,5.23906,0.0901656
595,456,6.90063,3.14886,0,0,0,0,0,0,0,-1,1819,568,6.90066,-3.14887
602,456,16.894,4.10938,0,0,0,0,0,0,0,-1,1826,568,16.8941,-4.1094
609,456,14.9966,3.5708,0,0,0,0,0,0,0,-1,1833,568,14.9966,-3.57083
616,456,17.7407,2.6579,0,0,0,0,0,0,0,-1,1840,568,17.7408,-2.6579
623,456,20.6838,1.7121,0,0,0,0,0,0,0,-1,1847,568,20.6838,-1.71208
630,456,0,0,0,0,0,0,0,0,0,-1,1854,568,0,0
637,456,0,0,0,0,0,0,0,0,0,-1,1861,568,0,0
644,456,0,0,0,0,0,0,0,0,0,-1,1868,568,0,0
651,456,0,0,0,0,0,0,0,0,0,-1,1875,568,0,0
658,456,0,0,0,0,0,0,0,0,0,-1,1882,568,0,0
665,456,0,0,0,0,0,0,0,0,0,-1,1889,568,0,0
672,456,0,0,0,0,0,0,0,0,0,-1,1896,568,0,0
679,456,0,0,0,0,0,0,0,0,0,-1,1903,568,0,0
686,456,0,0,0,0,0,0,0,0,0,-1,1910,568,0,0
693,456,0,0,0,0,0,0,0,0,0,-1,1917,568,0,0
700,456,0,0,0,0,0,0,0,0,0,-1,1924,568,0,0
707,456,0,0,0,0,0,0,0,0,0,-1,1931,568,0,0
714,456,0,0,0,0,0,0,0,0,0,-1,1938,568,0,0
721,456,0,0,0,0,0,0,0,0,0,-1,1945,568,0,0
728,456,0,0,0,0,0,0,0,0,0,-1,1952,568,0,0
735,456,0,0,0,0,0,0,0,0,0,-1,1959,568,0,0
742,456,0,0,0,0,0,0,0,0,0,-1,1966,568,0,0
749,456,0,0,0,0,0,0,0,0,0,-1,1973,568,0,0
756,456,0,0,0,0,0,0,0,0,0,-1,1980,568,0,0
763,456,0,0,0,0,0,0,0,0,0,-1,1987,568,0,0
770,456,0,0,0,0,0,0,0,0,0,-1,1994,568,0,0
777,456,0,0,0,0,0,0,0,0,0,-1,2001,568,0,0
784,456,0,0,0,0,0,0,0,0,0,-1,2008,568,0,0
791,456,0,0,0,0,0,0,0,0,0,-1,2015,568,0,0
798,456,0,0,0,0,0,0,0,0,0,-1,2022,568,0,0
805,456,0,0,0,0,0,0,0,0,0,-1,2029,568,0,0
812,456,0,0,0,0,0,0,0,0,0,-1,2036,568,0,0
-700,449,0,0,0,0,0,0,0,0,0,-1,524,575,0,0
-693,449,0,0,0,0,0,0,0,0,0,-1,531,575,0,0
-686,449,0,0,0,0,0,0,0,0,0,-1,538,575,0,0
-679,449,0,0,0,0,0,0,0,0,0,-1,545,575,0,0
-672,449,0,0,0,0,0,0,0,0,0,-1,552,575,0,0
-665,449,0,0,0,0,0,0,0,0,0,-1,559,575,0,0
-658,449,0,0,0,0,0,0,0,0,0,-1,566,575,0,0
-651,449,0,0,0,0,0,0,0,0,0,-1,573,575,0,0
-644,449,0,0,0,0,0,0,0,0,0,-1,580,575,0,0
-637,449,0,0,0,0,0,0,0,0,0,-1,587,575,0,0
-630,449,0,0,0,0,0,0,0,0,0,-1,594,575,0,0
-623,449,0,0,0,0,0,0,0,0,0,-1,601,575,0,0
-616,449,0,0,0,0,0,0,0,0,0,-1,608,575,0,0
-609,449,0,0,0,0,0,0,0,0,0,-1,615,575,0,0
-602,449,0,0,0,0,0,0,0,0,0,-1,622,575,0,0
-595,449,0,0,0,0,0,0,0,0,0,-1,629,575,0,0
-588,449,0,0,0,0,0,0,0,0,0,-1,636,575,0,0
-581,449,0,0,0,0,0,0,0,0,0,-1,643,575,0,0
-574,449,0,0,0,0,0,0,0,0,0,-1,650,575,0,0
-567,449,0,0,0,0,0,0,0,0,0,-1,657,575,0,0
-560,449,0,0,0,0,0,0,0,0,0,-1,664,575,0,0
-553,449,0,0,0,0,0,0,0,0,0,-1,671,575,0,0
-546,449,0,0,0,0,0,0,0,0,0,-1,678,575,0,0
-539,449,0,0,0,0,0,0,0,0,0,-1,685,575,0,0
-532,449,0,0,0,0,0,0,0,0,0,-1,692,575,0,0
-525,449,0,0,0,0,0,0,0,0,0,-1,699,575,0,0
-518,449,0,0,0,0,0,0,0,0,0,-1,706,575,0,0
-511,449,-0.941345,-4.4519,0,0,0,0,0,0,0,-1,713,575,-0.941356,4.45191
-504,449,-14.1078,0.318237,0,0,0,0,0,0,0,-1,720,575,-14.1078,-0.318231
-497,449,-8.61292,-3.09009,0,0,0,0,0,0,0,-1,727,575,-8.61291,3.09011
-490,449,-7.50995,-2.96252,0,0,0,0,0,0,0,-1,734,575,-7.50995,2.96251
-483,449,-5.77789,-2.50061,0,0,0,0,0,0,0,-1,741,575,-5.77792,2.50059
-476,449,-4.1723,-2.07739,0,0,0,0,0,0,0,-1,748,575,-4.17228,2.0774
-469,449,-5.0976,-5.78448,0,0,0,0,0,0,0,-1,755,575,-5.09758,5.78451
-462,449,-6.54181,-9.54535,0,0,0,0,0,0,0,-1,762,575,-6.54178,9.54536
-455,449,-8.67291,-13.2226,0,0,0,0,0,0,0,-1,769,575,-8.67289,13.2226
-448,449,-10.5834,-18.1855,0,0,0,0,0,0,0,-1,776,575,-10.5834,18.1855
-441,449,-10.6384,-19.259,-0.00114511,0.00397709,-0.000291043,0.00399357,-0.00116159,-1.51422,0.00312245,0.0268486,783,575,-10.6383,19.259
-434,449,-10.7749,-20.1035,-0.000350788,0.00356139,-0.000742643,0.00369762,-0.000487019,-1.38937,0.00264243,0.0158241,790,575,-10.7749,20.1035
-427,449,-10.7955,-20.9968,0.000213793,0.00314968,-0.0010053,0.00346092,-9.74418e-05,-1.27056,0.00234043,0.0143237,797,575,-10.7955,20.9967
-420,449,-10.8408,-21.9374,0.000691186,0.00274997,-0.0012071,0.003307,0.000134153,-1.13845,0.00216134,0.0132792,804,575,-10.8408,21.9374
-413,449,-10.886,-22.8571,0.000989284,0.00224988,-0.00123357,0.00300485,0.000234312,-1.02158,0.00192988,0.010826,811,575,-10.886,22.8571
-406,449,-10.9651,-23.7661,0.00116281,0.0016652,-0.00106719,0.00251036,0.000317652,-0.900985,0.00157838,0.010512,818,575,-10.9651,23.7661
-399,449,-11.0344,-24.6682,0.00143149,0.00122281,-0.000918789,0.00225184,0.000402453,-0.728859,0.00138668,0.0100108,825,575,-11.0344,24.6682
-392,449,-11.0681,-25.5699,0.00177769,0.000780877,-0.000786947,0.00221078,0.000347782,-0.503111,0.00137269,0.0110953,832,575,-11.068,25.57
-385,449,-11.1136,-26.4706,0.00223984,0.00037314,-0.000668653,0.00245464,0.000158345,-0.310824,0.00158628,0.0115112,839,575,-11.1136,26.4706
-378,449,-11.177,-27.3701,0.00279733,1.32716e-05,-0.000506897,0.00288675,-7.61477e-05,-0.174609,0.00195038,0.0104864,846,575,-11.177,27.37
-371,449,-11.2066,-28.2871,0.00351001,-0.000119863,-0.000391782,0.00355181,-0.000161667,-0.106302,0.00242356,0.0199047,853,575,-11.2066,28.2871
-364,449,-11.2062,-29.2338,0,0,0,0,0,0,0,-1,860,575,-11.2063,29.2338
-357,449,-5.88049,-15.8704,0,0,0,0,0,0,0,-1,867,575,-5.88051,15.8704
-350,449,-2.8764,-9.90204,0,0,0,0,0,0,0,-1,874,575,-2.87638,9.90203
-343,449,-2.98492,-9.2254,0,0,0,0,0,0,0,-1,881,575,-2.98491,9.22541
-336,449,-1.29523,-9.54626,0,0,0,0,0,0,0,-1,888,575,-1.29525,9.54626
-329,449,-0.733398,-7.78937,0,0,0,0,0,0,0,-1,895,575,-0.733398,7.78937
-322,449,-0.628845,-3.16669,0,0,0,0,0,0,0,-1,902,575,-0.628861,3.16667
-315,449,-0.540344,-3.21918,0,0,0,0,0,0,0,-1,909,575,-0.540336,3.21917
-308,449,-1.04413,-2.99341,0,0,0,0,0,0,0,-1,916,575,-1.04415,2.99338
-301,449,-1.58691,-2.80725,0,0,0,0,0,0,0,-1,923,575,-1.58692,2.80728
-294,449,-3.71118,-2.76086,0,0,0,0,0,0,0,-1,930,575,-3.71119,2.76087
-287,449,-4.4082,-2.69525,0,0,0,0,0,0,0,-1,937,575,-4.40822,2.69526
-280,449,0.723999,-14.2697,0,0,0,0,0,0,0,-1,944,575,0.723977,14.2696
-273,449,0,0,0,0,0,0,0,0,0,-1,951,575,0,0
-266,449,0,0,0,0,0,0,0,0,0,-1,958,575,0,0
-259,449,0,0,0,0,0,0,0,0,0,-1,965,575,0,0
-252,449,0,0,0,0,0,0,0,0,0,-1,972,575,0,0
-245,449,0,0,0,0,0,0,0,0,0,-1,979,575,0,0
-238,449,0,0,0,0,0,0,0,0,0,-1,986,575,0,0
-231,449,0,0,0,0,0,0,0,0,0,-1,993,575,0,0
-224,449,0,0,0,0,0,0,0,0,0,-1,1000,575,0,0
-217,449,0,0,0,0,0,0,0,0,0,-1,1007,575,0,0
-210,449,0,0,0,0,0,0,0,0,0,-1,1014,575,0,0
-203,449,0,0,0,0,0,0,0,0,0,-1,1021,575,0,0
-196,449,0,0,0,0,0,0,0,0,0,-1,1028,575,0,0
-189,449,0,0,0,0,0,0,0,0,0,-1,1035,575,0,0
-182,449,0,0,0,0,0,0,0,0,0,-1,1042,575,0,0
-175,449,0,0,0,0,0,0,0,0,0,-1,1049,575,0,0
-168,449,0,0,0,0,0,0,0,0,0,-1,1056,575,0,0
-161,449,0,0,0,0,0,0,0,0,0,-1,1063,575,0,0
-154,449,0,0,0,0,0,0,0,0,0,-1,1070,575,0,0
-147,449,0,0,0,0,0,0,0,0,0,-1,1077,575,0,0
-140,449,0,0,0,0,0,0,0,0,0,-1,1084,575,0,0
-133,449,0,0,0,0,0,0,0,0,0,-1,1091,575,0,0
-126,449,0,0,0,0,0,0,0,0,0,-1,1098,575,0,0
-119,449,0,0,0,0,0,0,0,0,0,-1,1105,575,0,0
-112,449,0,0,0,0,0,0,0,0,0,-1,1112,575,0,0
-105,449,0,0,0,0,0,0,0,0,0,-1,1119,575,0,0
-98,449,0,0,0,0,0,0,0,0,0,-1,1126,575,0,0
-91,449,0,0,0,0,0,0,0,0,0,-1,1133,575,0,0
-84,449,0,0,0,0,0,0,0,0,0,-1,1140,575,0,0
-77,449,0,0,0,0,0,0,0,0,0,-1,1147,575,0,0
-70,449,0,0,0,0,0,0,0,0,0,-1,1154,575,0,0
-63,449,0,0,0,0,0,0,0,0,0,-1,1161,575,0,0
-56,449,0,0,0,0,0,0,0,0,0,-1,1168,575,0,0
-49,449,0,0,0,0,0,0,0,0,0,-1,1175,575,0,0
-42,449,0,0,0,0,0,0,0,0,0,-1,1182,575,0,0
-35,449,0,0,0,0,0,0,0,0,0,-1,1189,575,0,0
-28,449,0,0,0,0,0,0,0,0,0,-1,1196,575,0,0
-21,449,0,0,0,0,0,0,0,0,0,-1,1203,575,0,0
-14,449,0,0,0,0,0,0,0,0,0,-1,1210,575,0,0
-7,449,0,0,0,0,0,0,0,0,0,-1,1217,575,0,0
0,449,0,0,0,0,0,0,0,0,0,-1,1224,575,0,0
7,449,0,0,0,0,0,0,0,0,0,-1,1231,575,0,0
14,449,0,0,0,0,0,0,0,0,0,-1,1238,575,0,0
21,449,0,0,0,0,0,0,0,0,0,-1,1245,575,0,0
28,449,0,0,0,0,0,0,0,0,0,-1,1252,575,0,0
35,449,0,0,0,0,0,0,0,0,0,-1,1259,575,0,0
42,449,0,0,0,0,0,0,0,0,0,-1,1266,575,0,0
49,449,0,0,0,0,0,0,0,0,0,-1,1273,575,0,0
56,449,0,0,0,0,0,0,0,0,0,-1,1280,575,0,0
63,449,0,0,0,0,0,0,0,0,0,-1,1287,575,0,0
70,449,0,0,0,0,0,0,0,0,0,-1,1294,575,0,0
77,449,0,0,0,0,0,0,0,0,0,-1,1301,575,0,0
84,449,0,0,0,0,0,0,0,0,0,-1,1308,575,0,0
91,449,0,0,0,0,0,0,0,0,0,-1,1315,575,0,0
98,449,0,0,0,0,0,0,0,0,0,-1,1322,575,0,0
105,449,0,0,0,0,0,0,0,0,0,-1,1329,575,0,0
112,449,0,0,0,0,0,0,0,0,0,-1,1336,575,0,0
119,449,0,0,0,0,0,0,0,0,0,-1,1343,575,0,0
126,449,0,0,0,0,0,0,0,0,0,-1,1350,575,0,0
133,449,0,0,0,0,0,0,0,0,0,-1,1357,575,0,0
140,449,0,0,0,0,0,0,0,0,0,-1,1364,575,0,0
147,449,0,0,0,0,0,0,0,0,0,-1,1371,575,0,0
154,449,0,0,0,0,0,0,0,0,0,-1,1378,575,0,0
161,449,0,0,0,0,0,0,0,0,0,-1,1385,575,0,0
168,449,0,0,0,0,0,0,0,0,0,-1,1392,575,0,0
175,449,0,0,0,0,0,0,0,0,0,-1,1399,575,0,0
182,449,0,0,0,0,0,0,0,0,0,-1,1406,575,0,0
189,449,0,0,0,0,0,0,0,0,0,-1,1413,575,0,0
196,449,0,0,0,0,0,0,0,0,0,-1,1420,575,0,0
203,449,0,0,0,0,0,0,0,0,0,-1,1427,575,0,0
210,449,0,0,0,0,0,0,0,0,0,-1,1434,575,0,0
217,449,0,0,0,0,0,0,0,0,0,-1,1441,575,0,0
224,449,0,0,0,0,0,0,0,0,0,-1,1448,575,0,0
231,449,0,0,0,0,0,0,0,0,0,-1,1455,575,0,0
238,449,0,0,0,0,0,0,0,0,0,-1,1462,575,0,0
245,449,0,0,0,0,0,0,0,0,0,-1,1469,575,0,0
252,449,0,0,0,0,0,0,0,0,0,-1,1476,575,0,0
259,449,0,0,0,0,0,0,0,0,0,-1,1483,575,0,0
266,449,0,0,0,0,0,0,0,0,0,-1,1490,575,0,0
273,449,0,0,0,0,0,0,0,0,0,-1,1497,575,0,0
280,449,0,0,0,0,0,0,0,0,0,-1,1504,575,0,0
287,449,0,0,0,0,0,0,0,0,0,-1,1511,575,0,0
294,449,0,0,0,0,0,0,0,0,0,-1,1518,575,0,0
301,449,0,0,0,0,0,0,0,0,0,-1,1525,575,0,0
308,449,0,0,0,0,0,0,0,0,0,-1,1532,575,0,0
315,449,0,0,0,0,0,0,0,0,0,-1,1539,575,0,0
322,449,0,0,0,0,0,0,0,0,0,-1,1546,575,0,0
329,449,0,0,0,0,0,0,0,0,0,-1,1553,575,0,0
336,449,0,0,0,0,0,0,0,0,0,-1,1560,575,0,0
343,449,0,0,0,0,0,0,0,0,0,-1,1567,575,0,0
350,449,0,0,0,0,0,0,0,0,0,-1,1574,575,0,0
357,449,0,0,0,0,0,0,0,0,0,-1,1581,575,0,0
364,449,0,0,0,0,0,0,0,0,0,-1,1588,575,0,0
371,449,0,0,0,0,0,0,0,0,0,-1,1595,575,0,0
378,449,0,0,0,0,0,0,0,0,0,-1,1602,575,0,0
385,449,0,0,0,0,0,0,0,0,0,-1,1609,575,0,0
392,449,7.95471,3.66217,0,0,0,0,0,0,0,-1,1616,575,7.95471,-3.66218
399,449,19.9791,5.565,0,0,0,0,0,0,0,-1,1623,575,19.9791,-5.56499
406,449,24.9847,4.55969,0,0,0,0,0,0,0,-1,1630,575,24.9848,-4.55968
413,449,30.4159,3.15027,0,0,0,0,0,0,0,-1,1637,575,30.4159,-3.15028
420,449,23.9675,1.29718,0,0,0,0,0,0,0,-1,1644,575,23.9675,-1.29721
427,449,24.4276,-0.596558,0,0,0,0,0,0,0,-1,1651,575,24.4277,0.596569
434,449,25.61,-2.96594,0,0,0,0,0,0,0,-1,1658,575,25.61,2.96595
441,449,3.89856,-6.06458,0,0,0,0,0,0,0,-1,1665,575,3.89855,6.06459
448,449,4.03198,-5.18207,0,0,0,0,0,0,0,-1,1672,575,4.03197,5.18207
455,449,4.21948,-4.09467,0,0,0,0,0,0,0,-1,1679,575,4.21952,4.09465
462,449,4.23181,-2.96924,0,0,0,0,0,0,0,-1,1686,575,4.23185,2.96926
469,449,4.51672,-2.95135,0,0,0,0,0,0,0,-1,1693,575,4.51672,2.95135
476,449,4.71838,-1.86688,0,0,0,0,0,0,0,-1,1700,575,4.71842,1.86689
483,449,4.87878,-1.73126,0,0,0,0,0,0,0,-1,1707,575,4.87875,1.73128
490,449,5.73279,-2.74573,0,0,0,0,0,0,0,-1,1714,575,5.73282,2.74575
497,449,17.2095,-16.4381,0,0,0,0,0,0,0,-1,1721,575,17.2094,16.4381
504,449,26.5082,-27.0143,0,0,0,0,0,0,0,-1,1728,575,26.5082,27.0143
511,449,26.5806,-26.0326,0.00316042,0.00124755,0.00142248,0.00391811,0.000489866,0.489427,0.00246506,0.016852,1735,575,26.5806,26.0326
518,449,26.5509,-25.1534,0.002767,0.00104413,0.00156567,0.00369257,0.000118565,0.533899,0.00242316,0.013788,1742,575,26.5509,25.1534
525,449,26.4629,-24.2068,0.00230977,0.00104743,0.00158302,0.0033828,-2.56054e-05,0.5957,0.00226379,0.0137246,1749,575,26.4629,24.2068
532,449,26.3964,-23.2604,0.00190095,0.00118424,0.00156702,0.00315006,-6.48759e-05,0.672988,0.002122,0.0121535,1756,575,26.3963,23.2604
539,449,26.3389,-22.3496,0.0015663,0.0014721,0.00156462,0.00308453,-4.61275e-05,0.770351,0.0020719,0.0186629,1763,575,26.3389,22.3496
546,449,26.2449,-21.3508,0.00132053,0.00194033,0.00154165,0.00320291,5.79433e-05,0.884586,0.00211623,0.0335696,1770,575,26.2448,21.3508
553,449,26.1967,-20.4728,0.00109923,0.00259198,0.00155111,0.00356695,0.000124263,1.00964,0.00233765,0.0221614,1777,575,26.1967,20.4728
560,449,26.2078,-19.5908,0.000984612,0.00340357,0.00167869,0.00426311,0.000125076,1.09757,0.00280131,0.0144137,1784,575,26.2077,19.5907
567,449,26.1458,-18.6623,0.00107313,0.00448843,0.00201019,0.00541838,0.000143186,1.1375,0.00356548,0.0105838,1791,575,26.1457,18.6623
574,449,26.1093,-17.6859,0.00117555,0.00577254,0.00246448,0.00684402,0.000104072,1.16068,0.00452839,0.0283336,1798,575,26.1093,17.6859
581,449,26.0905,-16.6136,0,0,0,0,0,0,0,-1,1805,575,26.0905,16.6136
588,449,12.3274,-4.5672,0,0,0,0,0,0,0,-1,1812,575,12.3274,4.5672
595,449,15.9352,-5.65479,0,0,0,0,0,0,0,-1,1819,575,15.9352,5.65478
602,449,9.46167,4.17444,0,0,0,0,0,0,0,-1,1826,575,9.46164,-4.17442
609,449,12.2028,3.18652,0,0,0,0,0,0,0,-1,1833,575,12.2027,-3.18655
616,449,14.9438,2.19867,0,0,0,0,0,0,0,-1,1840,575,14.9438,-2.19867
623,449,9.83789,-0.0820313,0,0,0,0,0,0,0,-1,1847,575,9.83794,0.0820443
630,449,8.90686,4.99329,0,0,0,0,0,0,0,-1,1854,575,8.90685,-4.99327
637,449,0,0,0,0,0,0,0,0,0,-1,1861,575,0,0
644,449,0,0,0,0,0,0,0,0,0,-1,1868,575,0,0
651,449,0,0,0,0,0,0,0,0,0,-1,1875,575,0,0
658,449,0,0,0,0,0,0,0,0,0,-1,1882,575,0,0
665,449,0,0,0,0,0,0,0,0,0,-1,1889,575,0,0
672,449,0,0,0,0,0,0,0,0,0,-1,1896,575,0,0
679,449,0,0,0,0,0,0,0,0,0,-1,1903,575,0,0
686,449,0,0,0,0,0,0,0,0,0,-1,1910,575,0,0
693,449,0,0,0,0,0,0,0,0,0,-1,1917,575,0,0
700,449,0,0,0,0,0,0,0,0,0,-1,1924,575,0,0
707,449,0,0,0,0,0,0,0,0,0,-1,1931,575,0,0
714,449,0,0,0,0,0,0,0,0,0,-1,1938,575,0,0
721,449,0,0,0,0,0,0,0,0,0,-1,1945,575,0,0
728,449,0,0,0,0,0,0,0,0,0,-1,1952,575,0,0
735,449,0,0,0,0,0,0,0,0,0,-1,1959,575,0,0
742,449,0,0,0,0,0,0,0,0,0,-1,1966,575,0,0
749,449,0,0,0,0,0,0,0,0,0,-1,1973,575,0,0
756,449,0,0,0,0,0,0,0,0,0,-1,1980,575,0,0
763,449,0,0,0,0,0,0,0,0,0,-1,1987,575,0,0
770,449,0,0,0,0,0,0,0,0,0,-1,1994,575,0,0
777,449,0,0,0,0,0,0,0,0,0,-1,2001,575,0,0
784,449,0,0,0,0,0,0,0,0,0,-1,2008,575,0,0
791,449,0,0,0,0,0,0,0,0,0,-1,2015,575,0,0
798,449,0,0,0,0,0,0,0,0,0,-1,2022,575,0,0
805,449,0,0,0,0,0,0,0,0,0,-1,2029,575,0,0
812,449,0,0,0,0,0,0,0,0,0,-1,2036,575,0,0
-700,442,0,0,0,0,0,0,0,0,0,-1,524,582,0,0
-693,442,0,0,0,0,0,0,0,0,0,-1,531,582,0,0
-686,442,0,0,0,0,0,0,0,0,0,-1,538,582,0,0
-679,442,0,0,0,0,0,0,0,0,0,-1,545,582,0,0
-672,442,0,0,0,0,0,0,0,0,0,-1,552,582,0,0
-665,442,0,0,0,0,0,0,0,0,0,-1,559,582,0,0
-658,442,0,0,0,0,0,0,0,0,0,-1,566,582,0,0
-651,442,0,0,0,0,0,0,0,0,0,-1,573,582,0,0
-644,442,0,0,0,0,0,0,0,0,0,-1,580,582,0,0
-637,442,0,0,0,0,0,0,0,0,0,-1,587,582,0,0
-630,442,0,0,0,0,0,0,0,0,0,-1,594,582,0,0
-623,442,0,0,0,0,0,0,0,0,0,-1,601,582,0,0
-616,442,0,0,0,0,0,0,0,0,0,-1,608,582,0,0
-609,442,0,0,0,0,0,0,0,0,0,-1,615,582,0,0
-602,442,0,0,0,0,0,0,0,0,0,-1,622,582,0,0
-595,442,0,0,0,0,0,0,0,0,0,-1,629,582,0,0
-588,442,0,0,0,0,0,0,0,0,0,-1,636,582,0,0
-581,442,0,0,0,0,0,0,0,0,0,-1,643,582,0,0
-574,442,0,0,0,0,0,0,0,0,0,-1,650,582,0,0
-567,442,0,0,0,0,0,0,0,0,0,-1,657,582,0,0
-560,442,0,0,0,0,0,0,0,0,0,-1,664,582,0,0
-553,442,0,0,0,0,0,0,0,0,0,-1,671,582,0,0
-546,442,0,0,0,0,0,0,0,0,0,-1,678,582,0,0
-539,442,0,0,0,0,0,0,0,0,0,-1,685,582,0,0
-532,442,0,0,0,0,0,0,0,0,0,-1,692,582,0,0
-525,442,0,0,0,0,0,0,0,0,0,-1,699,582,0,0
-518,442,-0.493774,-5.72943,0,0,0,0,0,0,0,-1,706,582,-0.493791,5.72946
-511,442,-1.33008,-6.18512,0,0,0,0,0,0,0,-1,713,582,-1.33006,6.18511
-504,442,-3.20807,-6.34082,0,0,0,0,0,0,0,-1,720,582,-3.2081,6.34083
-497,442,-13.6886,-0.250122,0,0,0,0,0,0,0,-1,727,582,-13.6886,0.250143
-490,442,-9.09039,-3.64862,0,0,0,0,0,0,0,-1,734,582,-9.09037,3.64861
-483,442,-7.36499,-1.01892,0,0,0,0,0,0,0,-1,741,582,-7.365,1.01895
-476,442,-4.84784,-4.44141,0,0,0,0,0,0,0,-1,748,582,-4.84787,4.44138
-469,442,-11.6746,-14.5698,0,0,0,0,0,0,0,-1,755,582,-11.6746,14.5698
-462,442,-10.2018,-14.6873,0,0,0,0,0,0,0,-1,762,582,-10.2019,14.6873
-455,442,-11.4789,-17.1077,0,0,0,0,0,0,0,-1,769,582,-11.4789,17.1077
-448,442,-11.4987,-18.174,-0.00206224,0.00305843,0.000498695,0.00310655,-0.00211036,1.47461,0.00303023,0.0242586,776,582,-11.4987,18.174
-441,442,-11.5928,-19.1365,-0.00099196,0.00274908,-9.9759e-05,0.00275174,-0.000994619,-1.54416,0.00224086,0.0148816,783,582,-11.5928,19.1366
-434,442,-11.6693,-20.0459,-0.000201949,0.00243383,-0.000511214,0.00252951,-0.000297626,-1.38578,0.0017938,0.0140928,790,582,-11.6693,20.0459
-427,442,-11.7266,-20.9604,0.000418429,0.00216466,-0.000790104,0.00246908,0.000114006,-1.20303,0.0016094,0.013868,797,582,-11.7266,20.9604
-420,442,-11.7571,-21.8962,0.000963269,0.00192699,-0.00102908,0.00258143,0.000308822,-1.00436,0.00162781,0.0142833,804,582,-11.7571,21.8962
-413,442,-11.7913,-22.8114,0.00131191,0.00159827,-0.00109971,0.00256409,0.000346099,-0.850134,0.0016065,0.0120907,811,582,-11.7913,22.8114
-406,442,-11.8611,-23.7326,0.0015337,0.00122088,-0.0010127,0.00240199,0.000352586,-0.708778,0.0014977,0.0106964,818,582,-11.8612,23.7326
-399,442,-11.9359,-24.6211,0.00186223,0.000985133,-0.000971457,0.00248954,0.000357821,-0.573376,0.00155421,0.00936342,825,582,-11.9358,24.6211
-392,442,-11.9847,-25.5071,0.00224628,0.000747697,-0.000947651,0.00270508,0.000288899,-0.450881,0.00171522,0.0114861,832,582,-11.9847,25.5071
-385,442,-12.0355,-26.41,0.0027227,0.00050932,-0.000929373,0.00306118,0.000170847,-0.349264,0.00198629,0.0132488,839,582,-12.0355,26.41
-378,442,-12.0591,-27.3342,0.00333962,0.000360989,-0.000885269,0.00358287,0.000117745,-0.26815,0.00235031,0.0194174,846,582,-12.0591,27.3342
-371,442,-12.121,-28.3506,0,0,0,0,0,0,0,-1,853,582,-12.121,28.3506
-364,442,-6.89764,-17.5333,0,0,0,0,0,0,0,-1,860,582,-6.89765,17.5333
-357,442,-4.9115,-11.2649,0,0,0,0,0,0,0,-1,867,582,-4.91147,11.2649
-350,442,-1.75372,-6.27618,0,0,0,0,0,0,0,-1,874,582,-1.75371,6.27618
-343,442,-1.4599,-4.63605,0,0,0,0,0,0,0,-1,881,582,-1.4599,4.63607
-336,442,-1.4054,-2.64313,0,0,0,0,0,0,0,-1,888,582,-1.40539,2.64315
-329,442,-0.952576,-2.76923,0,0,0,0,0,0,0,-1,895,582,-0.952571,2.7692
-322,442,-0.972534,-2.63208,0,0,0,0,0,0,0,-1,902,582,-0.972512,2.6321
-315,442,-0.445557,-2.89764,0,0,0,0,0,0,0,-1,909,582,-0.445582,2.89765
-308,442,-0.654175,-3.07831,0,0,0,0,0,0,0,-1,916,582,-0.654145,3.07832
-301,442,-1.37427,-2.41455,0,0,0,0,0,0,0,-1,923,582,-1.37425,2.41453
-294,442,-2.99963,-2.07855,0,0,0,0,0,0,0,-1,930,582,-2.99964,2.07857
-287,442,3.91034,-10.1913,0,0,0,0,0,0,0,-1,937,582,3.91034,10.1913
-280,442,0,0,0,0,0,0,0,0,0,-1,944,582,0,0
-273,442,0,0,0,0,0,0,0,0,0,-1,951,582,0,0
-266,442,0,0,0,0,0,0,0,0,0,-1,958,582,0,0
-259,442,0,0,0,0,0,0,0,0,0,-1,965,582,0,0
-252,442,0,0,0,0,0,0,0,0,0,-1,972,582,0,0
-245,442,0,0,0,0,0,0,0,0,0,-1,979,582,0,0
-238,442,0,0,0,0,0,0,0,0,0,-1,986,582,0,0
-231,442,0,0,0,0,0,0,0,0,0,-1,993,582,0,0
-224,442,0,0,0,0,0,0,0,0,0,-1,1000,582,0,0
-217,442,0,0,0,0,0,0,0,0,0,-1,1007,582,0,0
-210,442,0,0,0,0,0,0,0,0,0,-1,1014,582,0,0
-203,442,0,0,0,0,0,0,0,0,0,-1,1021,582,0,0
-196,442,0,0,0,0,0,0,0,0,0,-1,1028,582,0,0
-189,442,0,0,0,0,0,0,0,0,0,-1,1035,582,0,0
-182,442,0,0,0,0,0,0,0,0,0,-1,1042,582,0,0
-175,442,0,0,0,0,0,0,0,0,0,-1,1049,582,0,0
-168,442,0,0,0,0,0,0,0,0,0,-1,1056,582,0,0
-161,442,0,0,0,0,0,0,0,0,0,-1,1063,582,0,0
-154,442,0,0,0,0,0,0,0,0,0,-1,1070,582,0,0
-147,442,0,0,0,0,0,0,0,0,0,-1,1077,582,0,0
-140,442,0,0,0,0,0,0,0,0,0,-1,1084,582,0,0
-133,442,0,0,0,0,0,0,0,0,0,-1,1091,582,0,0
-126,442,0,0,0,0,0,0,0,0,0,-1,1098,582,0,0
-119,442,0,0,0,0,0,0,0,0,0,-1,1105,582,0,0
-112,442,0,0,0,0,0,0,0,0,0,-1,1112,582,0,0
-105,442,0,0,0,0,0,0,0,0,0,-1,1119,582,0,0
-98,442,0,0,0,0,0,0,0,0,0,-1,1126,582,0,0
-91,442,0,0,0,0,0,0,0,0,0,-1,1133,582,0,0
-84,442,0,0,0,0,0,0,0,0,0,-1,1140,582,0,0
-77,442,0,0,0,0,0,0,0,0,0,-1,1147,582,0,0
-70,442,0,0,0,0,0,0,0,0,0,-1,1154,582,0,0
-63,442,0,0,0,0,0,0,0,0,0,-1,1161,582,0,0
-56,442,0,0,0,0,0,0,0,0,0,-1,1168,582,0,0
-49,442,0,0,0,0,0,0,0,0,0,-1,1175,582,0,0
-42,442,0,0,0,0,0,0,0,0,0,-1,1182,582,0,0
-35,442,0,0,0,0,0,0,0,0,0,-1,1189,582,0,0
-28,442,0,0,0,0,0,0,0,0,0,-1,1196,582,0,0
-21,442,0,0,0,0,0,0,0,0,0,-1,1203,582,0,0
-14,442,0,0,0,0,0,0,0,0,0,-1,1210,582,0,0
-7,442,0,0,0,0,0,0,0,0,0,-1,1217,582,0,0
0,442,0,0,0,0,0,0,0,0,0,-1,1224,582,0,0
7,442,0,0,0,0,0,0,0,0,0,-1,1231,582,0,0
14,442,0,0,0,0,0,0,0,0,0,-1,1238,582,0,0
21,442,0,0,0,0,0,0,0,0,0,-1,1245,582,0,0
28,442,0,0,0,0,0,0,0,0,0,-1,1252,582,0,0
35,442,0,0,0,0,0,0,0,0,0,-1,1259,582,0,0
42,442,0,0,0,0,0,0,0,0,0,-1,1266,582,0,0
49,442,0,0,0,0,0,0,0,0,0,-1,1273,582,0,0
56,442,0,0,0,0,0,0,0,0,0,-1,1280,582,0,0
63,442,0,0,0,0,0,0,0,0,0,-1,1287,582,0,0
70,442,0,0,0,0,0,0,0,0,0,-1,1294,582,0,0
77,442,0,0,0,0,0,0,0,0,0,-1,1301,582,0,0
84,442,0,0,0,0,0,0,0,0,0,-1,1308,582,0,0
91,442,0,0,0,0,0,0,0,0,0,-1,1315,582,0,0
98,442,0,0,0,0,0,0,0,0,0,-1,1322,582,0,0
105,442,0,0,0,0,0,0,0,0,0,-1,1329,582,0,0
112,442,0,0,0,0,0,0,0,0,0,-1,1336,582,0,0
119,442,0,0,0,0,0,0,0,0,0,-1,1343,582,0,0
126,442,0,0,0,0,0,0,0,0,0,-1,1350,582,0,0
133,442,0,0,0,0,0,0,0,0,0,-1,1357,582,0,0
140,442,0,0,0,0,0,0,0,0,0,-1,1364,582,0,0
147,442,0,0,0,0,0,0,0,0,0,-1,1371,582,0,0
154,442,0,0,0,0,0,0,0,0,0,-1,1378,582,0,0
161,442,0,0,0,0,0,0,0,0,0,-1,1385,582,0,0
168,442,0,0,0,0,0,0,0,0,0,-1,1392,582,0,0
175,442,0,0,0,0,0,0,0,0,0,-1,1399,582,0,0
182,442,0,0,0,0,0,0,0,0,0,-1,1406,582,0,0
189,442,0,0,0,0,0,0,0,0,0,-1,1413,582,0,0
196,442,0,0,0,0,0,0,0,0,0,-1,1420,582,0,0
203,442,0,0,0,0,0,0,0,0,0,-1,1427,582,0,0
210,442,0,0,0,0,0,0,0,0,0,-1,1434,582,0,0
217,442,0,0,0,0,0,0,0,0,0,-1,1441,582,0,0
224,442,0,0,0,0,0,0,0,0,0,-1,1448,582,0,0
231,442,0,0,0,0,0,0,0,0,0,-1,1455,582,0,0
238,442,0,0,0,0,0,0,0,0,0,-1,1462,582,0,0
245,442,0,0,0,0,0,0,0,0,0,-1,1469,582,0,0
252,442,0,0,0,0,0,0,0,0,0,-1,1476,582,0,0
259,442,0,0,0,0,0,0,0,0,0,-1,1483,582,0,0
266,442,0,0,0,0,0,0,0,0,0,-1,1490,582,0,0
273,442,0,0,0,0,0,0,0,0,0,-1,1497,582,0,0
280,442,0,0,0,0,0,0,0,0,0,-1,1504,582,0,0
287,442,0,0,0,0,0,0,0,0,0,-1,1511,582,0,0
294,442,0,0,0,0,0,0,0,0,0,-1,1518,582,0,0
301,442,0,0,0,0,0,0,0,0,0,-1,1525,582,0,0
308,442,0,0,0,0,0,0,0,0,0,-1,1532,582,0,0
315,442,0,0,0,0,0,0,0,0,0,-1,1539,582,0,0
322,442,0,0,0,0,0,0,0,0,0,-1,1546,582,0,0
329,442,0,0,0,0,0,0,0,0,0,-1,1553,582,0,0
336,442,0,0,0,0,0,0,0,0,0,-1,1560,582,0,0
343,442,0,0,0,0,0,0,0,0,0,-1,1567,582,0,0
350,442,0,0,0,0,0,0,0,0,0,-1,1574,582,0,0
357,442,0,0,0,0,0,0,0,0,0,-1,1581,582,0,0
364,442,0,0,0,0,0,0,0,0,0,-1,1588,582,0,0
371,442,0,0,0,0,0,0,0,0,0,-1,1595,582,0,0
378,442,0,0,0,0,0,0,0,0,0,-1,1602,582,0,0
385,442,0,0,0,0,0,0,0,0,0,-1,1609,582,0,0
392,442,0,0,0,0,0,0,0,0,0,-1,1616,582,0,0
399,442,0,0,0,0,0,0,0,0,0,-1,1623,582,0,0
406,442,17.6321,4.08295,0,0,0,0,0,0,0,-1,1630,582,17.6321,-4.08293
413,442,25.4768,2.74445,0,0,0,0,0,0,0,-1,1637,582,25.4768,-2.74444
420,442,22.7478,1.55011,0,0,0,0,0,0,0,-1,1644,582,22.7478,-1.55009
427,442,23.2969,-0.456787,0,0,0,0,0,0,0,-1,1651,582,23.2968,0.456769
434,442,23.9512,-2.49365,0,0,0,0,0,0,0,-1,1658,582,23.9512,2.49366
441,442,24.8251,-4.43958,0,0,0,0,0,0,0,-1,1665,582,24.8251,4.43956
448,442,4.7749,-5.88562,0,0,0,0,0,0,0,-1,1672,582,4.7749,5.8856
455,442,4.87024,-4.60687,0,0,0,0,0,0,0,-1,1679,582,4.87019,4.60686
462,442,5.02307,-3.72821,0,0,0,0,0,0,0,-1,1686,582,5.02311,3.7282
469,442,5.12976,-2.98834,0,0,0,0,0,0,0,-1,1693,582,5.12971,2.98834
476,442,5.4624,1.76947,0,0,0,0,0,0,0,-1,1700,582,5.46234,-1.76944
483,442,5.98486,1.87042,0,0,0,0,0,0,0,-1,1707,582,5.98492,-1.87045
490,442,5.04407,-2.35834,0,0,0,0,0,0,0,-1,1714,582,5.04411,2.35837
497,442,6.20984,-3.07831,0,0,0,0,0,0,0,-1,1721,582,6.2098,3.07833
504,442,20.9276,-19.7709,0,0,0,0,0,0,0,-1,1728,582,20.9276,19.771
511,442,27.478,-25.9779,0,0,0,0,0,0,0,-1,1735,582,27.4781,25.9779
518,442,27.4523,-25.0609,0.00355887,0.00122663,0.001937,0.00465368,0.000131818,0.514445,0.00305946,0.017071,1742,582,27.4522,25.0609
525,442,27.3696,-24.1218,0.00303744,0.00114232,0.00184685,0.00416563,1.41314e-05,0.548375,0.00277239,0.0115185,1749,582,27.3696,24.1218
532,442,27.3147,-23.2057,0.00255411,0.00116863,0.00171879,0.00371451,8.23184e-06,0.593836,0.0024736,0.0122626,1756,582,27.3147,23.2057
539,442,27.2836,-22.287,0.00217653,0.00135941,0.0016298,0.0034482,8.77362e-05,0.662589,0.00227012,0.0154933,1763,582,27.2836,22.287
546,442,27.2566,-21.3342,0.00188876,0.00169689,0.00152642,0.00332226,0.000263394,0.754014,0.00213247,0.021136,1770,582,27.2566,21.3342
553,442,27.1539,-20.4288,0.00160573,0.00221472,0.00146297,0.00340454,0.000415899,0.888001,0.00214455,0.0211818,1777,582,27.1539,20.4288
560,442,27.1384,-19.5318,0.00139817,0.00286811,0.00151618,0.00381807,0.000448208,1.01109,0.00240991,0.0151182,1784,582,27.1384,19.5318
567,442,27.0508,-18.615,0.00140938,0.00378659,0.00178601,0.00474336,0.000452614,1.079,0.00302269,0.0110435,1791,582,27.0508,18.615
574,442,27.0103,-17.6905,0.00148881,0.00487983,0.00217783,0.00594434,0.000424302,1.11615,0.0038293,0.0132864,1798,582,27.0103,17.6905
581,442,27.0447,-16.6373,0.00177033,0.00639359,0.00292812,0.00781258,0.000351338,1.11954,0.00509531,0.0316063,1805,582,27.0447,16.6373
588,442,27.1409,-15.5439,0,0,0,0,0,0,0,-1,1812,582,27.1409,15.5439
595,442,16.27,-6.47083,0,0,0,0,0,0,0,-1,1819,582,16.27,6.47082
602,442,16.2213,-4.49225,0,0,0,0,0,0,0,-1,1826,582,16.2213,4.49223
609,442,12.761,2.97223,0,0,0,0,0,0,0,-1,1833,582,12.761,-2.97221
616,442,9.78345,-0.103394,0,0,0,0,0,0,0,-1,1840,582,9.78341,0.103424
623,442,9.23828,0.326721,0,0,0,0,0,0,0,-1,1847,582,9.23829,-0.326727
630,442,7.74304,2.3924,0,0,0,0,0,0,0,-1,1854,582,7.7431,-2.39238
637,442,5.87805,1.84027,0,0,0,0,0,0,0,-1,1861,582,5.87807,-1.84025
644,442,0,0,0,0,0,0,0,0,0,-1,1868,582,0,0
651,442,0,0,0,0,0,0,0,0,0,-1,1875,582,0,0
658,442,0,0,0,0,0,0,0,0,0,-1,1882,582,0,0
665,442,0,0,0,0,0,0,0,0,0,-1,1889,582,0,0
672,442,0,0,0,0,0,0,0,0,0,-1,1896,582,0,0
679,442,0,0,0,0,0,0,0,0,0,-1,1903,582,0,0
686,442,0,0,0,0,0,0,0,0,0,-1,1910,582,0,0
693,442,0,0,0,0,0,0,0,0,0,-1,1917,582,0,0
700,442,0,0,0,0,0,0,0,0,0,-1,1924,582,0,0
707,442,0,0,0,0,0,0,0,0,0,-1,1931,582,0,0
714,442,0,0,0,0,0,0,0,0,0,-1,1938,582,0,0
721,442,0,0,0,0,0,0,0,0,0,-1,1945,582,0,0
728,442,0,0,0,0,0,0,0,0,0,-1,1952,582,0,0
735,442,0,0,0,0,0,0,0,0,0,-1,1959,582,0,0
742,442,0,0,0,0,0,0,0,0,0,-1,1966,582,0,0
749,442,0,0,0,0,0,0,0,0,0,-1,1973,582,0,0
756,442,0,0,0,0,0,0,0,0,0,-1,1980,582,0,0
763,442,0,0,0,0,0,0,0,0,0,-1,1987,582,0,0
770,442,0,0,0,0,0,0,0,0,0,-1,1994,582,0,0
777,442,0,0,0,0,0,0,0,0,0,-1,2001,582,0,0
784,442,0,0,0,0,0,0,0,0,0,-1,2008,582,0,0
791,442,0,0,0,0,0,0,0,0,0,-1,2015,582,0,0
798,442,0,0,0,0,0,0,0,0,0,-1,2022,582,0,0
805,442,0,0,0,0,0,0,0,0,0,-1,2029,582,0,0
812,442,0,0,0,0,0,0,0,0,0,-1,2036,582,0,0
-700,435,0,0,0,0,0,0,0,0,0,-1,524,589,0,0
-693,435,0,0,0,0,0,0,0,0,0,-1,531,589,0,0
-686,435,0,0,0,0,0,0,0,0,0,-1,538,589,0,0
-679,435,0,0,0,0,0,0,0,0,0,-1,545,589,0,0
-672,435,0,0,0,0,0,0,0,0,0,-1,552,589,0,0
-665,435,0,0,0,0,0,0,0,0,0,-1,559,589,0,0
-658,435,0,0,0,0,0,0,0,0,0,-1,566,589,0,0
-651,435,0,0,0,0,0,0,0,0,0,-1,573,589,0,0
-644,435,0,0,0,0,0,0,0,0,0,-1,580,589,0,0
-637,435,0,0,0,0,0,0,0,0,0,-1,587,589,0,0
-630,435,0,0,0,0,0,0,0,0,0,-1,594,589,0,0
-623,435,0,0,0,0,0,0,0,0,0,-1,601,589,0,0
-616,435,0,0,0,0,0,0,0,0,0,-1,608,589,0,0
-609,435,0,0,0,0,0,0,0,0,0,-1,615,589,0,0
-602,435,0,0,0,0,0,0,0,0,0,-1,622,589,0,0
-595,435,0,0,0,0,0,0,0,0,0,-1,629,589,0,0
-588,435,0,0,0,0,0,0,0,0,0,-1,636,589,0,0
-581,435,0,0,0,0,0,0,0,0,0,-1,643,589,0,0
-574,435,0,0,0,0,0,0,0,0,0,-1,650,589,0,0
-567,435,0,0,0,0,0,0,0,0,0,-1,657,589,0,0
-560,435,0,0,0,0,0,0,0,0,0,-1,664,589,0,0
-553,435,0,0,0,0,0,0,0,0,0,-1,671,589,0,0
-546,435,0,0,0,0,0,0,0,0,0,-1,678,589,0,0
-539,435,0,0,0,0,0,0,0,0,0,-1,685,589,0,0
-532,435,0,0,0,0,0,0,0,0,0,-1,692,589,0,0
-525,435,-10.0776,10.0547,0,0,0,0,0,0,0,-1,699,589,-10.0776,-10.0547
-518,435,-1.83093,-5.82367,0,0,0,0,0,0,0,-1,706,589,-1.83093,5.8237
-511,435,-2.45154,-5.33118,0,0,0,0,0,0,0,-1,713,589,-2.45151,5.33115
-504,435,-3.07208,-4.83862,0,0,0,0,0,0,0,-1,720,589,-3.0721,4.8386
-497,435,-6.31012,-5.84698,0,0,0,0,0,0,0,-1,727,589,-6.31012,5.84697
-490,435,-5.81903,-0.458679,0,0,0,0,0,0,0,-1,734,589,-5.81902,0.458684
-483,435,-6.96503,-3.01624,0,0,0,0,0,0,0,-1,741,589,-6.96505,3.01623
-476,435,-12.6813,-13.8081,0,0,0,0,0,0,0,-1,748,589,-12.6814,13.8081
-469,435,-12.3432,-14.9377,0,0,0,0,0,0,0,-1,755,589,-12.3432,14.9377
-462,435,-12.3406,-15.9264,0,0,0,0,0,0,0,-1,762,589,-12.3406,15.9264
-455,435,-12.4117,-17.1163,-0.00295933,0.0023453,0.00128407,0.00263978,-0.00325381,1.34536,0.00340881,0.030328,769,589,-12.4117,17.1162
-448,435,-12.425,-18.1229,-0.00170795,0.00217835,0.000514153,0.00224523,-0.00177482,1.44146,0.00232627,0.0144089,776,589,-12.4251,18.1229
-441,435,-12.4948,-19.0703,-0.000683938,0.00195904,-4.49566e-05,0.00195981,-0.000684703,-1.55379,0.00158486,0.0115026,783,589,-12.4948,19.0703
-434,435,-12.5744,-19.9856,9.62724e-05,0.00172961,-0.000438715,0.00183999,-1.4107e-05,-1.32432,0.00123139,0.012315,790,589,-12.5744,19.9856
-427,435,-12.6357,-20.9296,0.000757099,0.00157453,-0.000746991,0.00201731,0.000314318,-1.03572,0.00125331,0.0106976,797,589,-12.6357,20.9296
-420,435,-12.6699,-21.8383,0.0013474,0.00146165,-0.00102368,0.0024298,0.000379252,-0.813272,0.00150942,0.0115705,804,589,-12.6699,21.8382
-413,435,-12.7081,-22.7601,0.00173531,0.00127472,-0.00114374,0.00267171,0.00033832,-0.686051,0.00167976,0.0121733,811,589,-12.7081,22.7601
-406,435,-12.767,-23.6772,0.00200803,0.00108899,-0.0011578,0.00279417,0.000302852,-0.596487,0.00177049,0.0124352,818,589,-12.767,23.6772
-399,435,-12.8349,-24.5671,0.0024054,0.0010309,-0.00124912,0.00314385,0.000292448,-0.533904,0.00200554,0.0106569,825,589,-12.8349,24.5671
-392,435,-12.9095,-25.4667,0.00284222,0.000976781,-0.00135847,0.00355735,0.000261652,-0.484561,0.00228934,0.0113325,832,589,-12.9095,25.4667
-385,435,-12.9526,-26.3879,0.00332578,0.000877257,-0.00145844,0.00400568,0.00019735,-0.436235,0.00260716,0.0239068,839,589,-12.9526,26.388
-378,435,-12.9018,-27.3898,0,0,0,0,0,0,0,-1,846,589,-12.9018,27.3897
-371,435,-10.247,-21.7153,0,0,0,0,0,0,0,-1,853,589,-10.247,21.7153
-364,435,-5.62848,-11.5937,0,0,0,0,0,0,0,-1,860,589,-5.62847,11.5937
-357,435,-5.57343,-10.9666,0,0,0,0,0,0,0,-1,867,589,-5.57342,10.9666
-350,435,-0.86676,-3.69836,0,0,0,0,0,0,0,-1,874,589,-0.866784,3.69834
-343,435,-1.60706,-2.36835,0,0,0,0,0,0,0,-1,881,589,-1.60706,2.36838
-336,435,-2.07263,-1.94012,0,0,0,0,0,0,0,-1,888,589,-2.07265,1.94014
-329,435,-2.55963,-1.5517,0,0,0,0,0,0,0,-1,895,589,-2.5596,1.55168
-322,435,-3.08545,-1.55255,0,0,0,0,0,0,0,-1,902,589,-3.08544,1.55254
-315,435,-0.404297,-2.63763,0,0,0,0,0,0,0,-1,909,589,-0.404276,2.63761
-308,435,-1.70056,-1.90369,0,0,0,0,0,0,0,-1,916,589,-1.70056,1.90367
-301,435,-1.19391,-2.41632,0,0,0,0,0,0,0,-1,923,589,-1.1939,2.41635
-294,435,3.78278,-10.3275,0,0,0,0,0,0,0,-1,930,589,3.78281,10.3275
-287,435,0,0,0,0,0,0,0,0,0,-1,937,589,0,0
-280,435,0,0,0,0,0,0,0,0,0,-1,944,589,0,0
-273,435,0,0,0,0,0,0,0,0,0,-1,951,589,0,0
-266,435,0,0,0,0,0,0,0,0,0,-1,958,589,0,0
-259,435,0,0,0,0,0,0,0,0,0,-1,965,589,0,0
-252,435,0,0,0,0,0,0,0,0,0,-1,972,589,0,0
-245,435,0,0,0,0,0,0,0,0,0,-1,979,589,0,0
-238,435,0,0,0,0,0,0,0,0,0,-1,986,589,0,0
-231,435,0,0,0,0,0,0,0,0,0,-1,993,589,0,0
-224,435,0,0,0,0,0,0,0,0,0,-1,1000,589,0,0
-217,435,0,0,0,0,0,0,0,0,0,-1,1007,589,0,0
-210,435,0,0,0,0,0,0,0,0,0,-1,1014,589,0,0
-203,435,0,0,0,0,0,0,0,0,0,-1,1021,589,0,0
-196,435,0,0,0,0,0,0,0,0,0,-1,1028,589,0,0
-189,435,0,0,0,0,0,0,0,0,0,-1,1035,589,0,0
-182,435,0,0,0,0,0,0,0,0,0,-1,1042,589,0,0
-175,435,0,0,0,0,0,0,0,0,0,-1,1049,589,0,0
-168,435,0,0,0,0,0,0,0,0,0,-1,1056,589,0,0
-161,435,0,0,0,0,0,0,0,0,0,-1,1063,589,0,0
-154,435,0,0,0,0,0,0,0,0,0,-1,1070,589,0,0
-147,435,0,0,0,0,0,0,0,0,0,-1,1077,589,0,0
-140,435,0,0,0,0,0,0,0,0,0,-1,1084,589,0,0
-133,435,0,0,0,0,0,0,0,0,0,-1,1091,589,0,0
-126,435,0,0,0,0,0,0,0,0,0,-1,1098,589,0,0
-119,435,0,0,0,0,0,0,0,0,0,-1,1105,589,0,0
-112,435,0,0,0,0,0,0,0,0,0,-1,1112,589,0,0
-105,435,0,0,0,0,0,0,0,0,0,-1,1119,589,0,0
-98,435,0,0,0,0,0,0,0,0,0,-1,1126,589,0,0
-91,435,0,0,0,0,0,0,0,0,0,-1,1133,589,0,0
-84,435,0,0,0,0,0,0,0,0,0,-1,1140,589,0,0
-77,435,0,0,0,0,0,0,0,0,0,-1,1147,589,0,0
-70,435,0,0,0,0,0,0,0,0,0,-1,1154,589,0,0
-63,435,0,0,0,0,0,0,0,0,0,-1,1161,589,0,0
-56,435,0,0,0,0,0,0,0,0,0,-1,1168,589,0,0
-49,435,0,0,0,0,0,0,0,0,0,-1,1175,589,0,0
-42,435,0,0,0,0,0,0,0,0,0,-1,1182,589,0,0
-35,435,0,0,0,0,0,0,0,0,0,-1,1189,589,0,0
-28,435,0,0,0,0,0,0,0,0,0,-1,1196,589,0,0
-21,435,0,0,0,0,0,0,0,0,0,-1,1203,589,0,0
-14,435,0,0,0,0,0,0,0,0,0,-1,1210,589,0,0
-7,435,0,0,0,0,0,0,0,0,0,-1,1217,589,0,0
0,435,0,0,0,0,0,0,0,0,0,-1,1224,589,0,0
7,435,0,0,0,0,0,0,0,0,0,-1,1231,589,0,0
14,435,0,0,0,0,0,0,0,0,0,-1,1238,589,0,0
21,435,0,0,0,0,0,0,0,0,0,-1,1245,589,0,0
28,435,0,0,0,0,0,0,0,0,0,-1,1252,589,0,0
35,435,0,0,0,0,0,0,0,0,0,-1,1259,589,0,0
42,435,0,0,0,0,0,0,0,0,0,-1,1266,589,0,0
49,435,0,0,0,0,0,0,0,0,0,-1,1273,589,0,0
56,435,0,0,0,0,0,0,0,0,0,-1,1280,589,0,0
63,435,0,0,0,0,0,0,0,0,0,-1,1287,589,0,0
70,435,0,0,0,0,0,0,0,0,0,-1,1294,589,0,0
77,435,0,0,0,0,0,0,0,0,0,-1,1301,589,0,0
84,435,0,0,0,0,0,0,0,0,0,-1,1308,589,0,0
91,435,0,0,0,0,0,0,0,0,0,-1,1315,589,0,0
98,435,0,0,0,0,0,0,0,0,0,-1,1322,589,0,0
105,435,0,0,0,0,0,0,0,0,0,-1,1329,589,0,0
112,435,0,0,0,0,0,0,0,0,0,-1,1336,589,0,0
119,435,0,0,0,0,0,0,0,0,0,-1,1343,589,0,0
126,435,0,0,0,0,0,0,0,0,0,-1,1350,589,0,0
133,435,0,0,0,0,0,0,0,0,0,-1,1357,589,0,0
140,435,0,0,0,0,0,0,0,0,0,-1,1364,589,0,0
147,435,0,0,0,0,0,0,0,0,0,-1,1371,589,0,0
154,435,0,0,0,0,0,0,0,0,0,-1,1378,589,0,0
161,435,0,0,0,0,0,0,0,0,0,-1,1385,589,0,0
168,435,0,0,0,0,0,0,0,0,0,-1,1392,589,0,0
175,435,0,0,0,0,0,0,0,0,0,-1,1399,589,0,0
182,435,0,0,0,0,0,0,0,0,0,-1,1406,589,0,0
189,435,0,0,0,0,0,0,0,0,0,-1,1413,589,0,0
196,435,0,0,0,0,0,0,0,0,0,-1,1420,589,0,0
203,435,0,0,0,0,0,0,0,0,0,-1,1427,589,0,0
210,435,0,0,0,0,0,0,0,0,0,-1,1434,589,0,0
217,435,0,0,0,0,0,0,0,0,0,-1,1441,589,0,0
224,435,0,0,0,0,0,0,0,0,0,-1,1448,589,0,0
231,435,0,0,0,0,0,0,0,0,0,-1,1455,589,0,0
238,435,0,0,0,0,0,0,0,0,0,-1,1462,589,0,0
245,435,0,0,0,0,0,0,0,0,0,-1,1469,589,0,0
252,435,0,0,0,0,0,0,0,0,0,-1,1476,589,0,0
259,435,0,0,0,0,0,0,0,0,0,-1,1483,589,0,0
266,435,0,0,0,0,0,0,0,0,0,-1,1490,589,0,0
273,435,0,0,0,0,0,0,0,0,0,-1,1497,589,0,0
280,435,0,0,0,0,0,0,0,0,0,-1,1504,589,0,0
287,435,0,0,0,0,0,0,0,0,0,-1,1511,589,0,0
294,435,0,0,0,0,0,0,0,0,0,-1,1518,589,0,0
301,435,0,0,0,0,0,0,0,0,0,-1,1525,589,0,0
308,435,0,0,0,0,0,0,0,0,0,-1,1532,589,0,0
315,435,0,0,0,0,0,0,0,0,0,-1,1539,589,0,0
322,435,0,0,0,0,0,0,0,0,0,-1,1546,589,0,0
329,435,0,0,0,0,0,0,0,0,0,-1,1553,589,0,0
336,435,0,0,0,0,0,0,0,0,0,-1,1560,589,0,0
343,435,0,0,0,0,0,0,0,0,0,-1,1567,589,0,0
350,435,0,0,0,0,0,0,0,0,0,-1,1574,589,0,0
357,435,0,0,0,0,0,0,0,0,0,-1,1581,589,0,0
364,435,0,0,0,0,0,0,0,0,0,-1,1588,589,0,0
371,435,0,0,0,0,0,0,0,0,0,-1,1595,589,0,0
378,435,0,0,0,0,0,0,0,0,0,-1,1602,589,0,0
385,435,0,0,0,0,0,0,0,0,0,-1,1609,589,0,0
392,435,0,0,0,0,0,0,0,0,0,-1,1616,589,0,0
399,435,0,0,0,0,0,0,0,0,0,-1,1623,589,0,0
406,435,0,0,0,0,0,0,0,0,0,-1,1630,589,0,0
413,435,20.4565,3.49835,0,0,0,0,0,0,0,-1,1637,589,20.4565,-3.49836
420,435,21.4015,1.49609,0,0,0,0,0,0,0,-1,1644,589,21.4015,-1.49609
427,435,22.0464,-0.373962,0,0,0,0,0,0,0,-1,1651,589,22.0464,0.373972
434,435,22.1863,-1.54407,0,0,0,0,0,0,0,-1,1658,589,22.1862,1.54405
441,435,22.3992,-2.38287,0,0,0,0,0,0,0,-1,1665,589,22.3992,2.38289
448,435,7.4585,-0.00292969,0,0,0,0,0,0,0,-1,1672,589,7.45848,0.00294131
455,435,5.49915,-5.047,0,0,0,0,0,0,0,-1,1679,589,5.49914,5.04703
462,435,5.60669,-4.71466,0,0,0,0,0,0,0,-1,1686,589,5.60675,4.71469
469,435,5.87708,1.22351,0,0,0,0,0,0,0,-1,1693,589,5.87703,-1.22351
476,435,6.14136,1.37714,0,0,0,0,0,0,0,-1,1700,589,6.14138,-1.37712
483,435,6.49243,1.36169,0,0,0,0,0,0,0,-1,1707,589,6.49242,-1.36171
490,435,4.38391,-1.36218,0,0,0,0,0,0,0,-1,1714,589,4.38389,1.3622
497,435,7.23499,-3.64551,0,0,0,0,0,0,0,-1,1721,589,7.23495,3.64551
504,435,7.31189,-3.75909,0,0,0,0,0,0,0,-1,1728,589,7.31184,3.75911
511,435,28.139,-26.1292,0,0,0,0,0,0,0,-1,1735,589,28.1391,26.1292
518,435,28.3634,-25.0079,0.00463327,0.00161118,0.00247833,0.00602488,0.000219577,0.511636,0.00394543,0.04857,1742,589,28.3634,25.0079
525,435,28.2894,-24.0704,0.00390619,0.00136826,0.00223606,0.00520827,6.61847e-05,0.527308,0.00345033,0.0141105,1749,589,28.2895,24.0704
532,435,28.2532,-23.1461,0.00325153,0.00123323,0.00195275,0.00444047,4.42869e-05,0.546906,0.00294566,0.0160416,1756,589,28.2532,23.1461
539,435,28.2112,-22.2072,0.00276105,0.00130861,0.0017463,0.00392611,0.000143546,0.588347,0.0025709,0.0174478,1763,589,28.2112,22.2072
546,435,28.1667,-21.3058,0.00237147,0.00150437,0.00154416,0.0035418,0.000334051,0.648538,0.0022581,0.0166579,1770,589,28.1668,21.3058
553,435,28.1006,-20.3968,0.00199867,0.0018855,0.00140264,0.00334586,0.000538303,0.765239,0.00207455,0.0116758,1777,589,28.1005,20.3968
560,435,28.0319,-19.4815,0.00169631,0.00239056,0.00138604,0.00347228,0.000614593,0.908096,0.00213962,0.00937705,1784,589,28.0319,19.4815
567,435,27.9865,-18.5458,0.00161842,0.00315917,0.00160066,0.00416519,0.000612397,1.00968,0.00259685,0.00877794,1791,589,27.9865,18.5459
574,435,27.9426,-17.6269,0.00167458,0.00409544,0.00193838,0.00517028,0.000599739,1.0645,0.00326535,0.00998326,1798,589,27.9426,17.6269
581,435,27.894,-16.71,0.00195958,0.00535773,0.00258693,0.00675366,0.000563653,1.07597,0.00432681,0.0173296,1805,589,27.8941,16.71
588,435,27.8285,-15.7532,0,0,0,0,0,0,0,-1,1812,589,27.8285,15.7533
595,435,27.5966,-14.4719,0,0,0,0,0,0,0,-1,1819,589,27.5965,14.4718
602,435,16.8671,-6.39026,0,0,0,0,0,0,0,-1,1826,589,16.867,6.39024
609,435,15.2611,-3.42242,0,0,0,0,0,0,0,-1,1833,589,15.2611,3.42242
616,435,5.05151,-2.75269,0,0,0,0,0,0,0,-1,1840,589,5.05157,2.7527
623,435,11.7588,3.9704,0,0,0,0,0,0,0,-1,1847,589,11.7587,-3.97043
630,435,4.72742,-0.87561,0,0,0,0,0,0,0,-1,1854,589,4.7274,0.875636
637,435,5.05286,1.48792,0,0,0,0,0,0,0,-1,1861,589,5.05291,-1.48792
644,435,0,0,0,0,0,0,0,0,0,-1,1868,589,0,0
651,435,0,0,0,0,0,0,0,0,0,-1,1875,589,0,0
658,435,0,0,0,0,0,0,0,0,0,-1,1882,589,0,0
665,435,0,0,0,0,0,0,0,0,0,-1,1889,589,0,0
672,435,0,0,0,0,0,0,0,0,0,-1,1896,589,0,0
679,435,0,0,0,0,0,0,0,0,0,-1,1903,589,0,0
686,435,0,0,0,0,0,0,0,0,0,-1,1910,589,0,0
693,435,0,0,0,0,0,0,0,0,0,-1,1917,589,0,0
700,435,0,0,0,0,0,0,0,0,0,-1,1924,589,0,0
707,435,0,0,0,0,0,0,0,0,0,-1,1931,589,0,0
714,435,0,0,0,0,0,0,0,0,0,-1,1938,589,0,0
721,435,0,0,0,0,0,0,0,0,0,-1,1945,589,0,0
728,435,0,0,0,0,0,0,0,0,0,-1,1952,589,0,0
735,435,0,0,0,0,0,0,0,0,0,-1,1959,589,0,0
742,435,0,0,0,0,0,0,0,0,0,-1,1966,589,0,0
749,435,0,0,0,0,0,0,0,0,0,-1,1973,589,0,0
756,435,0,0,0,0,0,0,0,0,0,-1,1980,589,0,0
763,435,0,0,0,0,0,0,0,0,0,-1,1987,589,0,0
770,435,0,0,0,0,0,0,0,0,0,-1,1994,589,0,0
777,435,0,0,0,0,0,0,0,0,0,-1,2001,589,0,0
784,435,0,0,0,0,0,0,0,0,0,-1,2008,589,0,0
791,435,0,0,0,0,0,0,0,0,0,-1,2015,589,0,0
798,435,0,0,0,0,0,0,0,0,0,-1,2022,589,0,0
805,435,0,0,0,0,0,0,0,0,0,-1,2029,589,0,0
812,435,0,0,0,0,0,0,0,0,0,-1,2036,589,0,0
-700,428,0,0,0,0,0,0,0,0,0,-1,524,596,0,0
-693,428,0,0,0,0,0,0,0,0,0,-1,531,596,0,0
-686,428,0,0,0,0,0,0,0,0,0,-1,538,596,0,0
-679,428,0,0,0,0,0,0,0,0,0,-1,545,596,0,0
-672,428,0,0,0,0,0,0,0,0,0,-1,552,596,0,0
-665,428,0,0,0,0,0,0,0,0,0,-1,559,596,0,0
-658,428,0,0,0,0,0,0,0,0,0,-1,566,596,0,0
-651,428,0,0,0,0,0,0,0,0,0,-1,573,596,0,0
-644,428,0,0,0,0,0,0,0,0,0,-1,580,596,0,0
-637,428,0,0,0,0,0,0,0,0,0,-1,587,596,0,0
-630,428,0,0,0,0,0,0,0,0,0,-1,594,596,0,0
-623,428,0,0,0,0,0,0,0,0,0,-1,601,596,0,0
-616,428,0,0,0,0,0,0,0,0,0,-1,608,596,0,0
-609,428,0,0,0,0,0,0,0,0,0,-1,615,596,0,0
-602,428,0,0,0,0,0,0,0,0,0,-1,622,596,0,0
-595,428,0,0,0,0,0,0,0,0,0,-1,629,596,0,0
-588,428,0,0,0,0,0,0,0,0,0,-1,636,596,0,0
-581,428,0,0,0,0,0,0,0,0,0,-1,643,596,0,0
-574,428,0,0,0,0,0,0,0,0,0,-1,650,596,0,0
-567,428,0,0,0,0,0,0,0,0,0,-1,657,596,0,0
-560,428,0,0,0,0,0,0,0,0,0,-1,664,596,0,0
-553,428,0,0,0,0,0,0,0,0,0,-1,671,596,0,0
-546,428,0,0,0,0,0,0,0,0,0,-1,678,596,0,0
-539,428,0,0,0,0,0,0,0,0,0,-1,685,596,0,0
-532,428,0,0,0,0,0,0,0,0,0,-1,692,596,0,0
-525,428,-9.59918,7.58618,0,0,0,0,0,0,0,-1,699,596,-9.59918,-7.5862
-518,428,-2.92285,-4.81854,0,0,0,0,0,0,0,-1,706,596,-2.92285,4.81856
-511,428,-3.68811,-4.79474,0,0,0,0,0,0,0,-1,713,596,-3.68811,4.79474
-504,428,-4.45337,-4.77094,0,0,0,0,0,0,0,-1,720,596,-4.45337,4.77092
-497,428,-2.98108,-3.77502,0,0,0,0,0,0,0,-1,727,596,-2.98106,3.77505
-490,428,-6.39044,-2.80481,0,0,0,0,0,0,0,-1,734,596,-6.39047,2.80483
-483,428,-10.8474,-9.11322,0,0,0,0,0,0,0,-1,741,596,-10.8473,9.11321
-476,428,-13.0256,-14.289,0,0,0,0,0,0,0,-1,748,596,-13.0256,14.289
-469,428,-13.0083,-15.2177,-0.00509566,0.00214141,0.00295871,0.00319704,-0.00615128,1.22809,0.00548636,0.0382871,755,596,-13.0083,15.2177
-462,428,-13.1991,-16.0275,-0.00359404,0.00206762,0.00184545,0.00261604,-0.00414246,1.28194,0.00393505,0.0389323,762,596,-13.1991,16.0275
-455,428,-13.3163,-17.0591,-0.00229673,0.00172305,0.00107385,0.00199194,-0.00256562,1.32545,0.00263824,0.0177589,769,596,-13.3164,17.0591
-448,428,-13.3611,-18.0317,-0.00116401,0.00157724,0.000407498,0.00163653,-0.00122331,1.4263,0.00165686,0.0119035,776,596,-13.3611,18.0318
-441,428,-13.4169,-18.9759,-0.000195468,0.00142049,-0.000111689,0.00142817,-0.000203152,-1.50212,0.00102655,0.0136811,783,596,-13.417,18.9759
-434,428,-13.4767,-19.9419,0.000571098,0.00126467,-0.000495977,0.00152307,0.000312694,-1.09049,0.000928862,0.0104504,790,596,-13.4767,19.9419
-427,428,-13.5156,-20.8761,0.00125973,0.00120897,-0.000841305,0.00207604,0.00039266,-0.770319,0.00127348,0.0113163,797,596,-13.5156,20.8761
-420,428,-13.5607,-21.7578,0.0018728,0.00120408,-0.00115726,0.00274303,0.000333845,-0.644766,0.00172819,0.0122708,804,596,-13.5607,21.7577
-413,428,-13.612,-22.6599,0.00228394,0.00115684,-0.00133739,0.00317166,0.00026912,-0.585998,0.00203069,0.0143373,811,596,-13.612,22.6599
-406,428,-13.678,-23.5785,0.00260043,0.00117833,-0.00148725,0.00353787,0.000240895,-0.562412,0.00228252,0.0169094,818,596,-13.678,23.5785
-399,428,-13.7034,-24.5056,0.00306093,0.00130134,-0.00176594,0.0041541,0.000208172,-0.554294,0.00270268,0.0176583,825,596,-13.7035,24.5056
-392,428,-13.7327,-25.4812,0.0035422,0.00142664,-0.0020724,0.00481116,0.000157681,-0.549426,0.0031562,0.0378698,832,596,-13.7327,25.4812
-385,428,-13.8397,-26.3759,0,0,0,0,0,0,0,-1,839,596,-13.8398,26.3759
-378,428,-10.8172,-20.952,0,0,0,0,0,0,0,-1,846,596,-10.8172,20.952
-371,428,-5.96155,-11.0703,0,0,0,0,0,0,0,-1,853,596,-5.96154,11.0702
-364,428,-6.33643,-10.7223,0,0,0,0,0,0,0,-1,860,596,-6.33645,10.7223
-357,428,-3.20996,-4.70966,0,0,0,0,0,0,0,-1,867,596,-3.20997,4.70965
-350,428,-1.62793,-3.94055,0,0,0,0,0,0,0,-1,874,596,-1.62794,3.94055
-343,428,-0.0567017,-4.80994,0,0,0,0,0,0,0,-1,881,596,-0.0567096,4.80996
-336,428,-3.29175,-1.39569,0,0,0,0,0,0,0,-1,888,596,-3.29172,1.39568
-329,428,-3.71564,-0.791321,0,0,0,0,0,0,0,-1,895,596,-3.71564,0.791299
-322,428,-5.52863,-3.59827,0,0,0,0,0,0,0,-1,902,596,-5.52865,3.59829
-315,428,-4.57172,-1.22052,0,0,0,0,0,0,0,-1,909,596,-4.57171,1.22052
-308,428,-5.60742,-3.40961,0,0,0,0,0,0,0,-1,916,596,-5.60744,3.40959
-301,428,0,0,0,0,0,0,0,0,0,-1,923,596,0,0
-294,428,0,0,0,0,0,0,0,0,0,-1,930,596,0,0
-287,428,0,0,0,0,0,0,0,0,0,-1,937,596,0,0
-280,428,0,0,0,0,0,0,0,0,0,-1,944,596,0,0
-273,428,0,0,0,0,0,0,0,0,0,-1,951,596,0,0
-266,428,0,0,0,0,0,0,0,0,0,-1,958,596,0,0
-259,428,0,0,0,0,0,0,0,0,0,-1,965,596,0,0
-252,428,0,0,0,0,0,0,0,0,0,-1,972,596,0,0
-245,428,0,0,0,0,0,0,0,0,0,-1,979,596,0,0
-238,428,0,0,0,0,0,0,0,0,0,-1,986,596,0,0
-231,428,0,0,0,0,0,0,0,0,0,-1,993,596,0,0
-224,428,0,0,0,0,0,0,0,0,0,-1,1000,596,0,0
-217,428,0,0,0,0,0,0,0,0,0,-1,1007,596,0,0
-210,428,0,0,0,0,0,0,0,0,0,-1,1014,596,0,0
-203,428,0,0,0,0,0,0,0,0,0,-1,1021,596,0,0
-196,428,0,0,0,0,0,0,0,0,0,-1,1028,596,0,0
-189,428,0,0,0,0,0,0,0,0,0,-1,1035,596,0,0
-182,428,0,0,0,0,0,0,0,0,0,-1,1042,596,0,0
-175,428,0,0,0,0,0,0,0,0,0,-1,1049,596,0,0
-168,428,0,0,0,0,0,0,0,0,0,-1,1056,596,0,0
-161,428,0,0,0,0,0,0,0,0,0,-1,1063,596,0,0
-154,428,0,0,0,0,0,0,0,0,0,-1,1070,596,0,0
-147,428,0,0,0,0,0,0,0,0,0,-1,1077,596,0,0
-140,428,0,0,0,0,0,0,0,0,0,-1,1084,596,0,0
-133,428,0,0,0,0,0,0,0,0,0,-1,1091,596,0,0
-126,428,0,0,0,0,0,0,0,0,0,-1,1098,596,0,0
-119,428,0,0,0,0,0,0,0,0,0,-1,1105,596,0,0
-112,428,0,0,0,0,0,0,0,0,0,-1,1112,596,0,0
-105,428,0,0,0,0,0,0,0,0,0,-1,1119,596,0,0
-98,428,0,0,0,0,0,0,0,0,0,-1,1126,596,0,0
-91,428,0,0,0,0,0,0,0,0,0,-1,1133,596,0,0
-84,428,0,0,0,0,0,0,0,0,0,-1,1140,596,0,0
-77,428,0,0,0,0,0,0,0,0,0,-1,1147,596,0,0
-70,428,0,0,0,0,0,0,0,0,0,-1,1154,596,0,0
-63,428,0,0,0,0,0,0,0,0,0,-1,1161,596,0,0
-56,428,0,0,0,0,0,0,0,0,0,-1,1168,596,0,0
-49,428,0,0,0,0,0,0,0,0,0,-1,1175,596,0,0
-42,428,0,0,0,0,0,0,0,0,0,-1,1182,596,0,0
-35,428,0,0,0,0,0,0,0,0,0,-1,1189,596,0,0
-28,428,0,0,0,0,0,0,0,0,0,-1,1196,596,0,0
-21,428,0,0,0,0,0,0,0,0,0,-1,1203,596,0,0
-14,428,0,0,0,0,0,0,0,0,0,-1,1210,596,0,0
-7,428,0,0,0,0,0,0,0,0,0,-1,1217,596,0,0
0,428,0,0,0,0,0,0,0,0,0,-1,1224,596,0,0
7,428,0,0,0,0,0,0,0,0,0,-1,1231,596,0,0
14,428,0,0,0,0,0,0,0,0,0,-1,1238,596,0,0
21,428,0,0,0,0,0,0,0,0,0,-1,1245,596,0,0
28,428,0,0,0,0,0,0,0,0,0,-1,1252,596,0,0
35,428,0,0,0,0,0,0,0,0,0,-1,1259,596,0,0
42,428,0,0,0,0,0,0,0,0,0,-1,1266,596,0,0
49,428,0,0,0,0,0,0,0,0,0,-1,1273,596,0,0
56,428,0,0,0,0,0,0,0,0,0,-1,1280,596,0,0
63,428,0,0,0,0,0,0,0,0,0,-1,1287,596,0,0
70,428,0,0,0,0,0,0,0,0,0,-1,1294,596,0,0
77,428,0,0,0,0,0,0,0,0,0,-1,1301,596,0,0
84,428,0,0,0,0,0,0,0,0,0,-1,1308,596,0,0
91,428,0,0,0,0,0,0,0,0,0,-1,1315,596,0,0
98,428,0,0,0,0,0,0,0,0,0,-1,1322,596,0,0
105,428,0,0,0,0,0,0,0,0,0,-1,1329,596,0,0
112,428,0,0,0,0,0,0,0,0,0,-1,1336,596,0,0
119,428,0,0,0,0,0,0,0,0,0,-1,1343,596,0,0
126,428,0,0,0,0,0,0,0,0,0,-1,1350,596,0,0
133,428,0,0,0,0,0,0,0,0,0,-1,1357,596,0,0
140,428,0,0,0,0,0,0,0,0,0,-1,1364,596,0,0
147,428,0,0,0,0,0,0,0,0,0,-1,1371,596,0,0
154,428,0,0,0,0,0,0,0,0,0,-1,1378,596,0,0
161,428,0,0,0,0,0,0,0,0,0,-1,1385,596,0,0
168,428,0,0,0,0,0,0,0,0,0,-1,1392,596,0,0
175,428,0,0,0,0,0,0,0,0,0,-1,1399,596,0,0
182,428,0,0,0,0,0,0,0,0,0,-1,1406,596,0,0
189,428,0,0,0,0,0,0,0,0,0,-1,1413,596,0,0
196,428,0,0,0,0,0,0,0,0,0,-1,1420,596,0,0
203,428,0,0,0,0,0,0,0,0,0,-1,1427,596,0,0
210,428,0,0,0,0,0,0,0,0,0,-1,1434,596,0,0
217,428,0,0,0,0,0,0,0,0,0,-1,1441,596,0,0
224,428,0,0,0,0,0,0,0,0,0,-1,1448,596,0,0
231,428,0,0,0,0,0,0,0,0,0,-1,1455,596,0,0
238,428,0,0,0,0,0,0,0,0,0,-1,1462,596,0,0
245,428,0,0,0,0,0,0,0,0,0,-1,1469,596,0,0
252,428,0,0,0,0,0,0,0,0,0,-1,1476,596,0,0
259,428,0,0,0,0,0,0,0,0,0,-1,1483,596,0,0
266,428,0,0,0,0,0,0,0,0,0,-1,1490,596,0,0
273,428,0,0,0,0,0,0,0,0,0,-1,1497,596,0,0
280,428,0,0,0,0,0,0,0,0,0,-1,1504,596,0,0
287,428,0,0,0,0,0,0,0,0,0,-1,1511,596,0,0
294,428,0,0,0,0,0,0,0,0,0,-1,1518,596,0,0
301,428,0,0,0,0,0,0,0,0,0,-1,1525,596,0,0
308,428,0,0,0,0,0,0,0,0,0,-1,1532,596,0,0
315,428,0,0,0,0,0,0,0,0,0,-1,1539,596,0,0
322,428,0,0,0,0,0,0,0,0,0,-1,1546,596,0,0
329,428,0,0,0,0,0,0,0,0,0,-1,1553,596,0,0
336,428,0,0,0,0,0,0,0,0,0,-1,1560,596,0,0
343,428,0,0,0,0,0,0,0,0,0,-1,1567,596,0,0
350,428,0,0,0,0,0,0,0,0,0,-1,1574,596,0,0
357,428,0,0,0,0,0,0,0,0,0,-1,1581,596,0,0
364,428,0,0,0,0,0,0,0,0,0,-1,1588,596,0,0
371,428,0,0,0,0,0,0,0,0,0,-1,1595,596,0,0
378,428,0,0,0,0,0,0,0,0,0,-1,1602,596,0,0
385,428,0,0,0,0,0,0,0,0,0,-1,1609,596,0,0
392,428,0,0,0,0,0,0,0,0,0,-1,1616,596,0,0
399,428,0,0,0,0,0,0,0,0,0,-1,1623,596,0,0
406,428,0,0,0,0,0,0,0,0,0,-1,1630,596,0,0
413,428,0,0,0,0,0,0,0,0,0,-1,1637,596,0,0
420,428,19.8469,1.3399,0,0,0,0,0,0,0,-1,1644,596,19.8469,-1.33992
427,428,20.7299,-0.225281,0,0,0,0,0,0,0,-1,1651,596,20.7299,0.225262
434,428,19.8915,-0.583069,0,0,0,0,0,0,0,-1,1658,596,19.8915,0.583075
441,428,8.17993,0.607483,0,0,0,0,0,0,0,-1,1665,596,8.17997,-0.607513
448,428,7.84338,-0.385986,0,0,0,0,0,0,0,-1,1672,596,7.84336,0.385978
455,428,6.64038,2.1123,0,0,0,0,0,0,0,-1,1679,596,6.64037,-2.11229
462,428,4.84106,4.12341,0,0,0,0,0,0,0,-1,1686,596,4.84107,-4.12339
469,428,7.83789,3.10083,0,0,0,0,0,0,0,-1,1693,596,7.83785,-3.10086
476,428,7.61255,1.73956,0,0,0,0,0,0,0,-1,1700,596,7.61252,-1.73958
483,428,7.22766,1.05121,0,0,0,0,0,0,0,-1,1707,596,7.2277,-1.05121
490,428,5.4071,-3.2793,0,0,0,0,0,0,0,-1,1714,596,5.40707,3.27929
497,428,7.84106,-3.65491,0,0,0,0,0,0,0,-1,1721,596,7.84107,3.65491
504,428,6.92139,-2.83356,0,0,0,0,0,0,0,-1,1728,596,6.92137,2.83353
511,428,7.88501,-3.78723,0,0,0,0,0,0,0,-1,1735,596,7.88502,3.78722
518,428,29.193,-25.0878,0,0,0,0,0,0,0,-1,1742,596,29.193,25.0878
525,428,29.0999,-24.1235,0.00486687,0.00168663,0.0028361,0.0065282,2.52964e-05,0.529899,0.00434373,0.0462686,1749,596,29.0999,24.1235
532,428,29.1414,-23.0754,0.00401212,0.00135374,0.00231478,0.00535219,1.3673e-05,0.524774,0.00356358,0.0228514,1756,596,29.1414,23.0754
539,428,29.1276,-22.1363,0.00339544,0.00129952,0.00193742,0.00455016,0.000144795,0.537481,0.00298634,0.0233695,1763,596,29.1276,22.1363
546,428,29.0668,-21.2539,0.0028812,0.00133809,0.00160497,0.00389044,0.000328854,0.561343,0.00249126,0.0170462,1770,596,29.0668,21.2539
553,428,29.0099,-20.3561,0.00240563,0.00158025,0.0013674,0.00342126,0.000564618,0.638841,0.00211787,0.0119255,1777,596,29.0099,20.3561
560,428,28.9618,-19.4249,0.00199735,0.00194189,0.00126901,0.00323893,0.000700313,0.774474,0.00196784,0.0125322,1784,596,28.9618,19.4249
567,428,28.9226,-18.4936,0.00181504,0.00256229,0.00141737,0.00365445,0.000722883,0.914268,0.00223466,0.0114061,1791,596,28.9226,18.4936
574,428,28.8899,-17.5919,0.00180474,0.00334772,0.00170077,0.0044438,0.000708662,0.998325,0.00275684,0.0133494,1798,596,28.8898,17.5918
581,428,28.814,-16.6677,0.00200708,0.00438257,0.0022658,0.00575306,0.000636584,1.02681,0.00364177,0.0115928,1805,596,28.814,16.6677
588,428,28.7305,-15.695,0.0025029,0.0057946,0.00316115,0.00771269,0.000584807,1.02541,0.00495837,0.0178799,1812,596,28.7305,15.695
595,428,28.6492,-14.6782,0.00322661,0.00749971,0.00427792,0.0101449,0.000581374,1.017,0.00657807,0.0321417,1819,596,28.6491,14.6782
602,428,28.7595,-13.6207,0,0,0,0,0,0,0,-1,1826,596,28.7595,13.6207
609,428,17.2073,-4.82446,0,0,0,0,0,0,0,-1,1833,596,17.2073,4.82447
616,428,15.7817,-3.09558,0,0,0,0,0,0,0,-1,1840,596,15.7817,3.09556
623,428,9.53577,1.12518,0,0,0,0,0,0,0,-1,1847,596,9.5358,-1.1252
630,428,7.07996,6.88562,0,0,0,0,0,0,0,-1,1854,596,7.0799,-6.88565
637,428,3.95435,1.90857,0,0,0,0,0,0,0,-1,1861,596,3.95439,-1.90858
644,428,5.75476,0.888977,0,0,0,0,0,0,0,-1,1868,596,5.75472,-0.888955
651,428,0,0,0,0,0,0,0,0,0,-1,1875,596,0,0
658,428,0,0,0,0,0,0,0,0,0,-1,1882,596,0,0
665,428,0,0,0,0,0,0,0,0,0,-1,1889,596,0,0
672,428,0,0,0,0,0,0,0,0,0,-1,1896,596,0,0
679,428,0,0,0,0,0,0,0,0,0,-1,1903,596,0,0
686,428,0,0,0,0,0,0,0,0,0,-1,1910,596,0,0
693,428,0,0,0,0,0,0,0,0,0,-1,1917,596,0,0
700,428,0,0,0,0,0,0,0,0,0,-1,1924,596,0,0
707,428,0,0,0,0,0,0,0,0,0,-1,1931,596,0,0
714,428,0,0,0,0,0,0,0,0,0,-1,1938,596,0,0
721,428,0,0,0,0,0,0,0,0,0,-1,1945,596,0,0
728,428,0,0,0,0,0,0,0,0,0,-1,1952,596,0,0
735,428,0,0,0,0,0,0,0,0,0,-1,1959,596,0,0
742,428,0,0,0,0,0,0,0,0,0,-1,1966,596,0,0
749,428,0,0,0,0,0,0,0,0,0,-1,1973,596,0,0
756,428,0,0,0,0,0,0,0,0,0,-1,1980,596,0,0
763,428,0,0,0,0,0,0,0,0,0,-1,1987,596,0,0
770,428,0,0,0,0,0,0,0,0,0,-1,1994,596,0,0
777,428,0,0,0,0,0,0,0,0,0,-1,2001,596,0,0
784,428,0,0,0,0,0,0,0,0,0,-1,2008,596,0,0
791,428,0,0,0,0,0,0,0,0,0,-1,2015,596,0,0
798,428,0,0,0,0,0,0,0,0,0,-1,2022,596,0,0
805,428,0,0,0,0,0,0,0,0,0,-1,2029,596,0,0
812,428,0,0,0,0,0,0,0,0,0,-1,2036,596,0,0
-700,421,0,0,0,0,0,0,0,0,0,-1,524,603,0,0
-693,421,0,0,0,0,0,0,0,0,0,-1,531,603,0,0
-686,421,0,0,0,0,0,0,0,0,0,-1,538,603,0,0
-679,421,0,0,0,0,0,0,0,0,0,-1,545,603,0,0
-672,421,0,0,0,0,0,0,0,0,0,-1,552,603,0,0
-665,421,0,0,0,0,0,0,0,0,0,-1,559,603,0,0
-658,421,0,0,0,0,0,0,0,0,0,-1,566,603,0,0
-651,421,0,0,0,0,0,0,0,0,0,-1,573,603,0,0
-644,421,0,0,0,0,0,0,0,0,0,-1,580,603,0,0
-637,421,0,0,0,0,0,0,0,0,0,-1,587,603,0,0
-630,421,0,0,0,0,0,0,0,0,0,-1,594,603,0,0
-623,421,0,0,0,0,0,0,0,0,0,-1,601,603,0,0
-616,421,0,0,0,0,0,0,0,0,0,-1,608,603,0,0
-609,421,0,0,0,0,0,0,0,0,0,-1,615,603,0,0
-602,421,0,0,0,0,0,0,0,0,0,-1,622,603,0,0
-595,421,0,0,0,0,0,0,0,0,0,-1,629,603,0,0
-588,421,0,0,0,0,0,0,0,0,0,-1,636,603,0,0
-581,421,0,0,0,0,0,0,0,0,0,-1,643,603,0,0
-574,421,0,0,0,0,0,0,0,0,0,-1,650,603,0,0
-567,421,0,0,0,0,0,0,0,0,0,-1,657,603,0,0
-560,421,0,0,0,0,0,0,0,0,0,-1,664,603,0,0
-553,421,0,0,0,0,0,0,0,0,0,-1,671,603,0,0
-546,421,0,0,0,0,0,0,0,0,0,-1,678,603,0,0
-539,421,0,0,0,0,0,0,0,0,0,-1,685,603,0,0
-532,421,-8.97382,6.95636,0,0,0,0,0,0,0,-1,692,603,-8.97384,-6.95634
-525,421,-2.11481,-8.04272,0,0,0,0,0,0,0,-1,699,603,-2.11483,8.0427
-518,421,-3.05908,-5.07233,0,0,0,0,0,0,0,-1,706,603,-3.0591,5.07235
-511,421,-4.63525,-4.08447,0,0,0,0,0,0,0,-1,713,603,-4.63524,4.08449
-504,421,-5.17029,-4.94458,0,0,0,0,0,0,0,-1,720,603,-5.17029,4.9446
-497,421,-6.63141,-2.32501,0,0,0,0,0,0,0,-1,727,603,-6.6314,2.32498
-490,421,-6.7616,-4.14783,0,0,0,0,0,0,0,-1,734,603,-6.76159,4.1478
-483,421,-13.6949,-13.5654,0,0,0,0,0,0,0,-1,741,603,-13.6949,13.5654
-476,421,-13.8895,-14.3664,-0.00491427,0.00169248,0.00326431,0.00303324,-0.00625503,1.18107,0.00546907,0.0461231,748,603,-13.8895,14.3664
-469,421,-14.133,-15.081,-0.00383375,0.00156728,0.00221694,0.0023607,-0.00462718,1.22711,0.00410458,0.0361071,755,603,-14.133,15.081
-462,421,-14.1653,-16.0958,-0.0026729,0.00138274,0.00138864,0.00181264,-0.00310279,1.27057,0.00287032,0.02329,762,603,-14.1653,16.0958
-455,421,-14.2192,-17.0598,-0.00159157,0.00110156,0.000748969,0.00129583,-0.00178585,1.317,0.00178669,0.020454,769,603,-14.2192,17.0598
-448,421,-14.2871,-17.9755,-0.000578693,0.000959018,0.000179156,0.000979615,-0.000599291,1.45633,0.000920355,0.0195641,776,603,-14.2871,17.9755
-441,421,-14.343,-18.9087,0.000341802,0.000863908,-0.000299756,0.00100035,0.00020536,-1.14365,0.000610079,0.0162435,783,603,-14.3429,18.9087
-434,421,-14.419,-19.8749,0.00111706,0.000813196,-0.000679725,0.00166163,0.00026863,-0.675446,0.00102995,0.0115522,790,603,-14.419,19.8749
-427,421,-14.4448,-20.8137,0.00185826,0.000915772,-0.00106384,0.00255055,0.000223477,-0.576904,0.00163099,0.00992586,797,603,-14.4448,20.8137
-420,421,-14.4882,-21.6965,0.00251771,0.00110402,-0.00141167,0.00338961,0.000232118,-0.553288,0.00218648,0.0115876,804,603,-14.4882,21.6965
-413,421,-14.5464,-22.5883,0.00299466,0.00133253,-0.00165556,0.00401604,0.000311151,-0.552782,0.00257991,0.01452,811,603,-14.5464,22.5882
-406,421,-14.6368,-23.5355,0.00342712,0.00176029,-0.00198122,0.00474308,0.000444331,-0.586304,0.00302484,0.0225045,818,603,-14.6368,23.5355
-399,421,-14.5594,-24.3939,0,0,0,0,0,0,0,-1,825,603,-14.5594,24.3938
-392,421,-14.425,-25.5565,0,0,0,0,0,0,0,-1,832,603,-14.425,25.5565
-385,421,-11.5825,-18.8583,0,0,0,0,0,0,0,-1,839,603,-11.5825,18.8583
-378,421,-4.94733,-8.87909,0,0,0,0,0,0,0,-1,846,603,-4.94731,8.87906
-371,421,-5.65082,-7.01849,0,0,0,0,0,0,0,-1,853,603,-5.65082,7.0185
-364,421,-5.94189,-7.09875,0,0,0,0,0,0,0,-1,860,603,-5.94192,7.09878
-357,421,-7.62531,-8.26337,0,0,0,0,0,0,0,-1,867,603,-7.62532,8.26337
-350,421,-5.38019,-3.75024,0,0,0,0,0,0,0,-1,874,603,-5.38017,3.75026
-343,421,-6.22797,-2.57123,0,0,0,0,0,0,0,-1,881,603,-6.22798,2.57121
-336,421,-6.22882,-2.59369,0,0,0,0,0,0,0,-1,888,603,-6.22883,2.5937
-329,421,-4.50134,-1.49469,0,0,0,0,0,0,0,-1,895,603,-4.50137,1.49468
-322,421,-7.55817,1.13263,0,0,0,0,0,0,0,-1,902,603,-7.55818,-1.13263
-315,421,-4.16144,-1.96649,0,0,0,0,0,0,0,-1,909,603,-4.16146,1.9665
-308,421,0,0,0,0,0,0,0,0,0,-1,916,603,0,0
-301,421,0,0,0,0,0,0,0,0,0,-1,923,603,0,0
-294,421,0,0,0,0,0,0,0,0,0,-1,930,603,0,0
-287,421,0,0,0,0,0,0,0,0,0,-1,937,603,0,0
-280,421,0,0,0,0,0,0,0,0,0,-1,944,603,0,0
-273,421,0,0,0,0,0,0,0,0,0,-1,951,603,0,0
-266,421,0,0,0,0,0,0,0,0,0,-1,958,603,0,0
-259,421,0,0,0,0,0,0,0,0,0,-1,965,603,0,0
-252,421,0,0,0,0,0,0,0,0,0,-1,972,603,0,0
-245,421,0,0,0,0,0,0,0,0,0,-1,979,603,0,0
-238,421,0,0,0,0,0,0,0,0,0,-1,986,603,0,0
-231,421,0,0,0,0,0,0,0,0,0,-1,993,603,0,0
-224,421,0,0,0,0,0,0,0,0,0,-1,1000,603,0,0
-217,421,0,0,0,0,0,0,0,0,0,-1,1007,603,0,0
-210,421,0,0,0,0,0,0,0,0,0,-1,1014,603,0,0
-203,421,0,0,0,0,0,0,0,0,0,-1,1021,603,0,0
-196,421,0,0,0,0,0,0,0,0,0,-1,1028,603,0,0
-189,421,0,0,0,0,0,0,0,0,0,-1,1035,603,0,0
-182,421,0,0,0,0,0,0,0,0,0,-1,1042,603,0,0
-175,421,0,0,0,0,0,0,0,0,0,-1,1049,603,0,0
-168,421,0,0,0,0,0,0,0,0,0,-1,1056,603,0,0
-161,421,0,0,0,0,0,0,0,0,0,-1,1063,603,0,0
-154,421,0,0,0,0,0,0,0,0,0,-1,1070,603,0,0
-147,421,0,0,0,0,0,0,0,0,0,-1,1077,603,0,0
-140,421,0,0,0,0,0,0,0,0,0,-1,1084,603,0,0
-133,421,0,0,0,0,0,0,0,0,0,-1,1091,603,0,0
-126,421,0,0,0,0,0,0,0,0,0,-1,1098,603,0,0
-119,421,0,0,0,0,0,0,0,0,0,-1,1105,603,0,0
-112,421,0,0,0,0,0,0,0,0,0,-1,1112,603,0,0
-105,421,0,0,0,0,0,0,0,0,0,-1,1119,603,0,0
-98,421,0,0,0,0,0,0,0,0,0,-1,1126,603,0,0
-91,421,0,0,0,0,0,0,0,0,0,-1,1133,603,0,0
-84,421,0,0,0,0,0,0,0,0,0,-1,1140,603,0,0
-77,421,0,0,0,0,0,0,0,0,0,-1,1147,603,0,0
-70,421,0,0,0,0,0,0,0,0,0,-1,1154,603,0,0
-63,421,0,0,0,0,0,0,0,0,0,-1,1161,603,0,0
-56,421,0,0,0,0,0,0,0,0,0,-1,1168,603,0,0
-49,421,0,0,0,0,0,0,0,0,0,-1,1175,603,0,0
-42,421,0,0,0,0,0,0,0,0,0,-1,1182,603,0,0
-35,421,0,0,0,0,0,0,0,0,0,-1,1189,603,0,0
-28,421,0,0,0,0,0,0,0,0,0,-1,1196,603,0,0
-21,421,0,0,0,0,0,0,0,0,0,-1,1203,603,0,0
-14,421,0,0,0,0,0,0,0,0,0,-1,1210,603,0,0
-7,421,0,0,0,0,0,0,0,0,0,-1,1217,603,0,0
0,421,0,0,0,0,0,0,0,0,0,-1,1224,603,0,0
7,421,0,0,0,0,0,0,0,0,0,-1,1231,603,0,0
14,421,0,0,0,0,0,0,0,0,0,-1,1238,603,0,0
21,421,0,0,0,0,0,0,0,0,0,-1,1245,603,0,0
28,421,0,0,0,0,0,0,0,0,0,-1,1252,603,0,0
35,421,0,0,0,0,0,0,0,0,0,-1,1259,603,0,0
42,421,0,0,0,0,0,0,0,0,0,-1,1266,603,0,0
49,421,0,0,0,0,0,0,0,0,0,-1,1273,603,0,0
56,421,0,0,0,0,0,0,0,0,0,-1,1280,603,0,0
63,421,0,0,0,0,0,0,0,0,0,-1,1287,603,0,0
70,421,0,0,0,0,0,0,0,0,0,-1,1294,603,0,0
77,421,0,0,0,0,0,0,0,0,0,-1,1301,603,0,0
84,421,0,0,0,0,0,0,0,0,0,-1,1308,603,0,0
91,421,0,0,0,0,0,0,0,0,0,-1,1315,603,0,0
98,421,0,0,0,0,0,0,0,0,0,-1,1322,603,0,0
105,421,0,0,0,0,0,0,0,0,0,-1,1329,603,0,0
112,421,0,0,0,0,0,0,0,0,0,-1,1336,603,0,0
119,421,0,0,0,0,0,0,0,0,0,-1,1343,603,0,0
126,421,0,0,0,0,0,0,0,0,0,-1,1350,603,0,0
133,421,0,0,0,0,0,0,0,0,0,-1,1357,603,0,0
140,421,0,0,0,0,0,0,0,0,0,-1,1364,603,0,0
147,421,0,0,0,0,0,0,0,0,0,-1,1371,603,0,0
154,421,0,0,0,0,0,0,0,0,0,-1,1378,603,0,0
161,421,0,0,0,0,0,0,0,0,0,-1,1385,603,0,0
168,421,0,0,0,0,0,0,0,0,0,-1,1392,603,0,0
175,421,0,0,0,0,0,0,0,0,0,-1,1399,603,0,0
182,421,0,0,0,0,0,0,0,0,0,-1,1406,603,0,0
189,421,0,0,0,0,0,0,0,0,0,-1,1413,603,0,0
196,421,0,0,0,0,0,0,0,0,0,-1,1420,603,0,0
203,421,0,0,0,0,0,0,0,0,0,-1,1427,603,0,0
210,421,0,0,0,0,0,0,0,0,0,-1,1434,603,0,0
217,421,0,0,0,0,0,0,0,0,0,-1,1441,603,0,0
224,421,0,0,0,0,0,0,0,0,0,-1,1448,603,0,0
231,421,0,0,0,0,0,0,0,0,0,-1,1455,603,0,0
238,421,0,0,0,0,0,0,0,0,0,-1,1462,603,0,0
245,421,0,0,0,0,0,0,0,0,0,-1,1469,603,0,0
252,421,0,0,0,0,0,0,0,0,0,-1,1476,603,0,0
259,421,0,0,0,0,0,0,0,0,0,-1,1483,603,0,0
266,421,0,0,0,0,0,0,0,0,0,-1,1490,603,0,0
273,421,0,0,0,0,0,0,0,0,0,-1,1497,603,0,0
280,421,0,0,0,0,0,0,0,0,0,-1,1504,603,0,0
287,421,0,0,0,0,0,0,0,0,0,-1,1511,603,0,0
294,421,0,0,0,0,0,0,0,0,0,-1,1518,603,0,0
301,421,0,0,0,0,0,0,0,0,0,-1,1525,603,0,0
308,421,0,0,0,0,0,0,0,0,0,-1,1532,603,0,0
315,421,0,0,0,0,0,0,0,0,0,-1,1539,603,0,0
322,421,0,0,0,0,0,0,0,0,0,-1,1546,603,0,0
329,421,0,0,0,0,0,0,0,0,0,-1,1553,603,0,0
336,421,0,0,0,0,0,0,0,0,0,-1,1560,603,0,0
343,421,0,0,0,0,0,0,0,0,0,-1,1567,603,0,0
350,421,0,0,0,0,0,0,0,0,0,-1,1574,603,0,0
357,421,0,0,0,0,0,0,0,0,0,-1,1581,603,0,0
364,421,0,0,0,0,0,0,0,0,0,-1,1588,603,0,0
371,421,0,0,0,0,0,0,0,0,0,-1,1595,603,0,0
378,421,0,0,0,0,0,0,0,0,0,-1,1602,603,0,0
385,421,0,0,0,0,0,0,0,0,0,-1,1609,603,0,0
392,421,0,0,0,0,0,0,0,0,0,-1,1616,603,0,0
399,421,0,0,0,0,0,0,0,0,0,-1,1623,603,0,0
406,421,0,0,0,0,0,0,0,0,0,-1,1630,603,0,0
413,421,0,0,0,0,0,0,0,0,0,-1,1637,603,0,0
420,421,0,0,0,0,0,0,0,0,0,-1,1644,603,0,0
427,421,0,0,0,0,0,0,0,0,0,-1,1651,603,0,0
434,421,3.68176,-0.0327759,0,0,0,0,0,0,0,-1,1658,603,3.6818,0.0328037
441,421,8.06689,0.527832,0,0,0,0,0,0,0,-1,1665,603,8.06693,-0.527851
448,421,6.93921,0.802246,0,0,0,0,0,0,0,-1,1672,603,6.93923,-0.802251
455,421,7.29456,2.14825,0,0,0,0,0,0,0,-1,1679,603,7.29461,-2.14827
462,421,7.86902,3.53174,0,0,0,0,0,0,0,-1,1686,603,7.869,-3.53173
469,421,8.06604,2.81213,0,0,0,0,0,0,0,-1,1693,603,8.06606,-2.81212
476,421,8.26306,2.09253,0,0,0,0,0,0,0,-1,1700,603,8.26312,-2.09251
483,421,8.05322,0.798096,0,0,0,0,0,0,0,-1,1707,603,8.05323,-0.7981
490,421,7.51233,0.213074,0,0,0,0,0,0,0,-1,1714,603,7.51235,-0.213043
497,421,7.49634,-2.86688,0,0,0,0,0,0,0,-1,1721,603,7.4963,2.86688
504,421,6.90491,-2.18671,0,0,0,0,0,0,0,-1,1728,603,6.90491,2.18669
511,421,6.31348,-1.50653,0,0,0,0,0,0,0,-1,1735,603,6.31353,1.5065
518,421,6.27588,-2.49878,0,0,0,0,0,0,0,-1,1742,603,6.2759,2.4988
525,421,29.8356,-24.2095,0,0,0,0,0,0,0,-1,1749,603,29.8356,24.2095
532,421,29.9843,-23.0849,0.00474794,0.00144658,0.00269277,0.00625569,-6.11774e-05,0.510435,0.004191,0.0477697,1756,603,29.9843,23.0849
539,421,30.0562,-22.0959,0.00398681,0.0012942,0.00213204,0.00516204,0.000118972,0.503781,0.00340239,0.0252652,1763,603,30.0561,22.096
546,421,29.9984,-21.2031,0.00332907,0.00117958,0.00167038,0.00424059,0.000268061,0.499533,0.00274208,0.0135045,1770,603,29.9984,21.2031
553,421,29.9465,-20.2752,0.00275591,0.00129707,0.00134614,0.00355755,0.000495434,0.537111,0.00222502,0.0137634,1777,603,29.9466,20.2752
560,421,29.8851,-19.3453,0.00224895,0.00152423,0.00117099,0.00311236,0.000660822,0.635347,0.00189347,0.0162208,1784,603,29.8851,19.3453
567,421,29.8423,-18.4276,0.00196586,0.00198726,0.00124855,0.00322515,0.000727967,0.789685,0.0019532,0.0184152,1791,603,29.8423,18.4275
574,421,29.8104,-17.5361,0.00189282,0.00263227,0.0014899,0.00379764,0.000727452,0.907019,0.00232748,0.0212612,1798,603,29.8105,17.5361
581,421,29.7476,-16.6005,0.00201675,0.00347103,0.00197801,0.00485132,0.000636454,0.961537,0.00304432,0.0218829,1805,603,29.7476,16.6006
588,421,29.6694,-15.6921,0.00239759,0.0046802,0.00277685,0.00654114,0.000536655,0.980378,0.00419334,0.014666,1812,603,29.6695,15.6921
595,421,29.6743,-14.7231,0.00304181,0.00616396,0.00382347,0.00873276,0.000473008,0.979213,0.00567075,0.0204613,1819,603,29.6744,14.7231
602,421,29.6069,-13.7404,0,0,0,0,0,0,0,-1,1826,603,29.607,13.7404
609,421,22.8762,-8.37524,0,0,0,0,0,0,0,-1,1833,603,22.8762,8.37525
616,421,17.7633,-4.72491,0,0,0,0,0,0,0,-1,1840,603,17.7633,4.7249
623,421,6.19885,0.376648,0,0,0,0,0,0,0,-1,1847,603,6.19881,-0.376624
630,421,6.54993,0.778748,0,0,0,0,0,0,0,-1,1854,603,6.54991,-0.778744
637,421,3.74512,1.65405,0,0,0,0,0,0,0,-1,1861,603,3.74517,-1.65407
644,421,3.58081,0.354675,0,0,0,0,0,0,0,-1,1868,603,3.58082,-0.354704
651,421,3.28687,3.66351,0,0,0,0,0,0,0,-1,1875,603,3.28688,-3.66353
658,421,0,0,0,0,0,0,0,0,0,-1,1882,603,0,0
665,421,0,0,0,0,0,0,0,0,0,-1,1889,603,0,0
672,421,0,0,0,0,0,0,0,0,0,-1,1896,603,0,0
679,421,0,0,0,0,0,0,0,0,0,-1,1903,603,0,0
686,421,0,0,0,0,0,0,0,0,0,-1,1910,603,0,0
693,421,0,0,0,0,0,0,0,0,0,-1,1917,603,0,0
700,421,0,0,0,0,0,0,0,0,0,-1,1924,603,0,0
707,421,0,0,0,0,0,0,0,0,0,-1,1931,603,0,0
714,421,0,0,0,0,0,0,0,0,0,-1,1938,603,0,0
721,421,0,0,0,0,0,0,0,0,0,-1,1945,603,0,0
728,421,0,0,0,0,0,0,0,0,0,-1,1952,603,0,0
735,421,0,0,0,0,0,0,0,0,0,-1,1959,603,0,0
742,421,0,0,0,0,0,0,0,0,0,-1,1966,603,0,0
749,421,0,0,0,0,0,0,0,0,0,-1,1973,603,0,0
756,421,0,0,0,0,0,0,0,0,0,-1,1980,603,0,0
763,421,0,0,0,0,0,0,0,0,0,-1,1987,603,0,0
770,421,0,0,0,0,0,0,0,0,0,-1,1994,603,0,0
777,421,0,0,0,0,0,0,0,0,0,-1,2001,603,0,0
784,421,0,0,0,0,0,0,0,0,0,-1,2008,603,0,0
791,421,0,0,0,0,0,0,0,0,0,-1,2015,603,0,0
798,421,0,0,0,0,0,0,0,0,0,-1,2022,603,0,0
805,421,0,0,0,0,0,0,0,0,0,-1,2029,603,0,0
812,421,0,0,0,0,0,0,0,0,0,-1,2036,603,0,0
-700,414,0,0,0,0,0,0,0,0,0,-1,524,610,0,0
-693,414,0,0,0,0,0,0,0,0,0,-1,531,610,0,0
-686,414,0,0,0,0,0,0,0,0,0,-1,538,610,0,0
-679,414,0,0,0,0,0,0,0,0,0,-1,545,610,0,0
-672,414,0,0,0,0,0,0,0,0,0,-1,552,610,0,0
-665,414,0,0,0,0,0,0,0,0,0,-1,559,610,0,0
-658,414,0,0,0,0,0,0,0,0,0,-1,566,610,0,0
-651,414,0,0,0,0,0,0,0,0,0,-1,573,610,0,0
-644,414,0,0,0,0,0,0,0,0,0,-1,580,610,0,0
-637,414,0,0,0,0,0,0,0,0,0,-1,587,610,0,0
-630,414,0,0,0,0,0,0,0,0,0,-1,594,610,0,0
-623,414,0,0,0,0,0,0,0,0,0,-1,601,610,0,0
-616,414,0,0,0,0,0,0,0,0,0,-1,608,610,0,0
-609,414,0,0,0,0,0,0,0,0,0,-1,615,610,0,0
-602,414,0,0,0,0,0,0,0,0,0,-1,622,610,0,0
-595,414,0,0,0,0,0,0,0,0,0,-1,629,610,0,0
-588,414,0,0,0,0,0,0,0,0,0,-1,636,610,0,0
-581,414,0,0,0,0,0,0,0,0,0,-1,643,610,0,0
-574,414,0,0,0,0,0,0,0,0,0,-1,650,610,0,0
-567,414,0,0,0,0,0,0,0,0,0,-1,657,610,0,0
-560,414,0,0,0,0,0,0,0,0,0,-1,664,610,0,0
-553,414,0,0,0,0,0,0,0,0,0,-1,671,610,0,0
-546,414,0,0,0,0,0,0,0,0,0,-1,678,610,0,0
-539,414,-7.50146,5.65619,0,0,0,0,0,0,0,-1,685,610,-7.50149,-5.65617
-532,414,-8.15204,4.01605,0,0,0,0,0,0,0,-1,692,610,-8.15206,-4.01606
-525,414,-3.47137,-3.27924,0,0,0,0,0,0,0,-1,699,610,-3.47136,3.27922
-518,414,-4.12909,-4.36908,0,0,0,0,0,0,0,-1,706,610,-4.12909,4.36909
-511,414,-3.92542,-4.97021,0,0,0,0,0,0,0,-1,713,610,-3.92542,4.97023
-504,414,-9.35394,-5.49896,0,0,0,0,0,0,0,-1,720,610,-9.35394,5.49898
-497,414,-9.67627,-6.54761,0,0,0,0,0,0,0,-1,727,610,-9.6763,6.5476
-490,414,-10.9006,-8.3277,0,0,0,0,0,0,0,-1,734,610,-10.9006,8.3277
-483,414,-14.81,-13.338,0,0,0,0,0,0,0,-1,741,610,-14.81,13.338
-476,414,-14.9915,-14.2371,-0.00336075,0.00145556,0.00227902,0.002363,-0.00426818,1.19187,0.00388083,0.0260831,748,610,-14.9915,14.237
-469,414,-15.0768,-15.1147,-0.00261262,0.00123878,0.00156692,0.00179574,-0.00316957,1.22928,0.00290307,0.0156132,755,610,-15.0768,15.1147
-462,414,-15.1011,-16.0496,-0.00171998,0.00100673,0.000954195,0.00130747,-0.00202072,1.26547,0.00193619,0.0242572,762,610,-15.1012,16.0496
-455,414,-15.1653,-17.006,-0.000825143,0.000793841,0.000423315,0.000897844,-0.000929145,1.32988,0.00105486,0.0250195,769,610,-15.1653,17.006
-448,414,-15.2172,-17.9415,8.66668e-05,0.000665105,-7.26287e-05,0.000674085,7.76869e-05,-1.44778,0.000425863,0.0247997,776,610,-15.2173,17.9415
-441,414,-15.2684,-18.8753,0.000977958,0.000623753,-0.000533119,0.00136262,0.00023909,-0.625033,0.000840135,0.0196823,783,610,-15.2684,18.8753
-434,414,-15.3565,-19.8146,0.00178941,0.000661939,-0.00094002,0.00232177,0.000129573,-0.515297,0.00150652,0.011159,790,610,-15.3565,19.8146
-427,414,-15.3994,-20.7422,0.00260281,0.000883487,-0.00139236,0.00337951,0.000106789,-0.508835,0.00221827,0.0106154,797,610,-15.3994,20.7422
-420,414,-15.4346,-21.6414,0.0033228,0.00121135,-0.00178982,0.00434506,0.000189094,-0.518935,0.00283577,0.0104816,804,610,-15.4346,21.6414
-413,414,-15.4909,-22.5608,0.0039111,0.00167883,-0.00212767,0.00519762,0.000392306,-0.543839,0.00334199,0.0118579,811,610,-15.4909,22.5608
-406,414,-15.482,-23.6568,0.00452998,0.00251268,-0.00268941,0.00639366,0.000649002,-0.605992,0.00406342,0.0439313,818,610,-15.482,23.6568
-399,414,-15.3281,-24.7521,0,0,0,0,0,0,0,-1,825,610,-15.3281,24.7521
-392,414,-9.43781,-14.5624,0,0,0,0,0,0,0,-1,832,610,-9.43779,14.5624
-385,414,-8.14691,-13.0653,0,0,0,0,0,0,0,-1,839,610,-8.14692,13.0653
-378,414,-8.04907,-11.3331,0,0,0,0,0,0,0,-1,846,610,-8.04905,11.3331
-371,414,-5.20886,-8.05151,0,0,0,0,0,0,0,-1,853,610,-5.20887,8.05153
-364,414,-6.76282,-6.58759,0,0,0,0,0,0,0,-1,860,610,-6.7628,6.58756
-357,414,-9.08685,-8.86188,0,0,0,0,0,0,0,-1,867,610,-9.08688,8.86187
-350,414,-6.4502,-2.41821,0,0,0,0,0,0,0,-1,874,610,-6.45021,2.41822
-343,414,-6.80249,-2.32117,0,0,0,0,0,0,0,-1,881,610,-6.80252,2.32116
-336,414,-7.11017,-2.52026,0,0,0,0,0,0,0,-1,888,610,-7.11016,2.52026
-329,414,-7.59747,-2.70313,0,0,0,0,0,0,0,-1,895,610,-7.59747,2.70315
-322,414,-4.42236,-1.29163,0,0,0,0,0,0,0,-1,902,610,-4.42238,1.2916
-315,414,0,0,0,0,0,0,0,0,0,-1,909,610,0,0
-308,414,0,0,0,0,0,0,0,0,0,-1,916,610,0,0
-301,414,0,0,0,0,0,0,0,0,0,-1,923,610,0,0
-294,414,0,0,0,0,0,0,0,0,0,-1,930,610,0,0
-287,414,0,0,0,0,0,0,0,0,0,-1,937,610,0,0
-280,414,0,0,0,0,0,0,0,0,0,-1,944,610,0,0
-273,414,0,0,0,0,0,0,0,0,0,-1,951,610,0,0
-266,414,0,0,0,0,0,0,0,0,0,-1,958,610,0,0
-259,414,0,0,0,0,0,0,0,0,0,-1,965,610,0,0
-252,414,0,0,0,0,0,0,0,0,0,-1,972,610,0,0
-245,414,0,0,0,0,0,0,0,0,0,-1,979,610,0,0
-238,414,0,0,0,0,0,0,0,0,0,-1,986,610,0,0
-231,414,0,0,0,0,0,0,0,0,0,-1,993,610,0,0
-224,414,0,0,0,0,0,0,0,0,0,-1,1000,610,0,0
-217,414,0,0,0,0,0,0,0,0,0,-1,1007,610,0,0
-210,414,0,0,0,0,0,0,0,0,0,-1,1014,610,0,0
-203,414,0,0,0,0,0,0,0,0,0,-1,1021,610,0,0
-196,414,0,0,0,0,0,0,0,0,0,-1,1028,610,0,0
-189,414,0,0,0,0,0,0,0,0,0,-1,1035,610,0,0
-182,414,0,0,0,0,0,0,0,0,0,-1,1042,610,0,0
-175,414,0,0,0,0,0,0,0,0,0,-1,1049,610,0,0
-168,414,0,0,0,0,0,0,0,0,0,-1,1056,610,0,0
-161,414,0,0,0,0,0,0,0,0,0,-1,1063,610,0,0
-154,414,0,0,0,0,0,0,0,0,0,-1,1070,610,0,0
-147,414,0,0,0,0,0,0,0,0,0,-1,1077,610,0,0
-140,414,0,0,0,0,0,0,0,0,0,-1,1084,610,0,0
-133,414,0,0,0,0,0,0,0,0,0,-1,1091,610,0,0
-126,414,0,0,0,0,0,0,0,0,0,-1,1098,610,0,0
-119,414,0,0,0,0,0,0,0,0,0,-1,1105,610,0,0
-112,414,0,0,0,0,0,0,0,0,0,-1,1112,610,0,0
-105,414,0,0,0,0,0,0,0,0,0,-1,1119,610,0,0
-98,414,0,0,0,0,0,0,0,0,0,-1,1126,610,0,0
-91,414,0,0,0,0,0,0,0,0,0,-1,1133,610,0,0
-84,414,0,0,0,0,0,0,0,0,0,-1,1140,610,0,0
-77,414,0,0,0,0,0,0,0,0,0,-1,1147,610,0,0
-70,414,0,0,0,0,0,0,0,0,0,-1,1154,610,0,0
-63,414,0,0,0,0,0,0,0,0,0,-1,1161,610,0,0
-56,414,0,0,0,0,0,0,0,0,0,-1,1168,610,0,0
-49,414,0,0,0,0,0,0,0,0,0,-1,1175,610,0,0
-42,414,0,0,0,0,0,0,0,0,0,-1,1182,610,0,0
-35,414,0,0,0,0,0,0,0,0,0,-1,1189,610,0,0
-28,414,0,0,0,0,0,0,0,0,0,-1,1196,610,0,0
-21,414,0,0,0,0,0,0,0,0,0,-1,1203,610,0,0
-14,414,0,0,0,0,0,0,0,0,0,-1,1210,610,0,0
-7,414,0,0,0,0,0,0,0,0,0,-1,1217,610,0,0
0,414,0,0,0,0,0,0,0,0,0,-1,1224,610,0,0
7,414,0,0,0,0,0,0,0,0,0,-1,1231,610,0,0
14,414,0,0,0,0,0,0,0,0,0,-1,1238,610,0,0
21,414,0,0,0,0,0,0,0,0,0,-1,1245,610,0,0
28,414,0,0,0,0,0,0,0,0,0,-1,1252,610,0,0
35,414,0,0,0,0,0,0,0,0,0,-1,1259,610,0,0
42,414,0,0,0,0,0,0,0,0,0,-1,1266,610,0,0
49,414,0,0,0,0,0,0,0,0,0,-1,1273,610,0,0
56,414,0,0,0,0,0,0,0,0,0,-1,1280,610,0,0
63,414,0,0,0,0,0,0,0,0,0,-1,1287,610,0,0
70,414,0,0,0,0,0,0,0,0,0,-1,1294,610,0,0
77,414,0,0,0,0,0,0,0,0,0,-1,1301,610,0,0
84,414,0,0,0,0,0,0,0,0,0,-1,1308,610,0,0
91,414,0,0,0,0,0,0,0,0,0,-1,1315,610,0,0
98,414,0,0,0,0,0,0,0,0,0,-1,1322,610,0,0
105,414,0,0,0,0,0,0,0,0,0,-1,1329,610,0,0
112,414,0,0,0,0,0,0,0,0,0,-1,1336,610,0,0
119,414,0,0,0,0,0,0,0,0,0,-1,1343,610,0,0
126,414,0,0,0,0,0,0,0,0,0,-1,1350,610,0,0
133,414,0,0,0,0,0,0,0,0,0,-1,1357,610,0,0
140,414,0,0,0,0,0,0,0,0,0,-1,1364,610,0,0
147,414,0,0,0,0,0,0,0,0,0,-1,1371,610,0,0
154,414,0,0,0,0,0,0,0,0,0,-1,1378,610,0,0
161,414,0,0,0,0,0,0,0,0,0,-1,1385,610,0,0
168,414,0,0,0,0,0,0,0,0,0,-1,1392,610,0,0
175,414,0,0,0,0,0,0,0,0,0,-1,1399,610,0,0
182,414,0,0,0,0,0,0,0,0,0,-1,1406,610,0,0
189,414,0,0,0,0,0,0,0,0,0,-1,1413,610,0,0
196,414,0,0,0,0,0,0,0,0,0,-1,1420,610,0,0
203,414,0,0,0,0,0,0,0,0,0,-1,1427,610,0,0
210,414,0,0,0,0,0,0,0,0,0,-1,1434,610,0,0
217,414,0,0,0,0,0,0,0,0,0,-1,1441,610,0,0
224,414,0,0,0,0,0,0,0,0,0,-1,1448,610,0,0
231,414,0,0,0,0,0,0,0,0,0,-1,1455,610,0,0
238,414,0,0,0,0,0,0,0,0,0,-1,1462,610,0,0
245,414,0,0,0,0,0,0,0,0,0,-1,1469,610,0,0
252,414,0,0,0,0,0,0,0,0,0,-1,1476,610,0,0
259,414,0,0,0,0,0,0,0,0,0,-1,1483,610,0,0
266,414,0,0,0,0,0,0,0,0,0,-1,1490,610,0,0
273,414,0,0,0,0,0,0,0,0,0,-1,1497,610,0,0
280,414,0,0,0,0,0,0,0,0,0,-1,1504,610,0,0
287,414,0,0,0,0,0,0,0,0,0,-1,1511,610,0,0
294,414,0,0,0,0,0,0,0,0,0,-1,1518,610,0,0
301,414,0,0,0,0,0,0,0,0,0,-1,1525,610,0,0
308,414,0,0,0,0,0,0,0,0,0,-1,1532,610,0,0
315,414,0,0,0,0,0,0,0,0,0,-1,1539,610,0,0
322,414,0,0,0,0,0,0,0,0,0,-1,1546,610,0,0
329,414,0,0,0,0,0,0,0,0,0,-1,1553,610,0,0
336,414,0,0,0,0,0,0,0,0,0,-1,1560,610,0,0
343,414,0,0,0,0,0,0,0,0,0,-1,1567,610,0,0
350,414,0,0,0,0,0,0,0,0,0,-1,1574,610,0,0
357,414,0,0,0,0,0,0,0,0,0,-1,1581,610,0,0
364,414,0,0,0,0,0,0,0,0,0,-1,1588,610,0,0
371,414,0,0,0,0,0,0,0,0,0,-1,1595,610,0,0
378,414,0,0,0,0,0,0,0,0,0,-1,1602,610,0,0
385,414,0,0,0,0,0,0,0,0,0,-1,1609,610,0,0
392,414,0,0,0,0,0,0,0,0,0,-1,1616,610,0,0
399,414,0,0,0,0,0,0,0,0,0,-1,1623,610,0,0
406,414,0,0,0,0,0,0,0,0,0,-1,1630,610,0,0
413,414,0,0,0,0,0,0,0,0,0,-1,1637,610,0,0
420,414,0,0,0,0,0,0,0,0,0,-1,1644,610,0,0
427,414,0,0,0,0,0,0,0,0,0,-1,1651,610,0,0
434,414,0,0,0,0,0,0,0,0,0,-1,1658,610,0,0
441,414,7.84375,0.584412,0,0,0,0,0,0,0,-1,1665,610,7.84379,-0.584394
448,414,7.40808,1.25446,0,0,0,0,0,0,0,-1,1672,610,7.40807,-1.25446
455,414,6.3512,1.73846,0,0,0,0,0,0,0,-1,1679,610,6.3512,-1.73847
462,414,8.18103,3.22113,0,0,0,0,0,0,0,-1,1686,610,8.18108,-3.22112
469,414,8.38513,2.49579,0,0,0,0,0,0,0,-1,1693,610,8.38516,-2.49576
476,414,8.64099,1.71161,0,0,0,0,0,0,0,-1,1700,610,8.64097,-1.71164
483,414,8.62744,0.687622,0,0,0,0,0,0,0,-1,1707,610,8.62749,-0.687615
490,414,8.38831,-0.0302734,0,0,0,0,0,0,0,-1,1714,610,8.38835,0.0302913
497,414,4.71094,-0.110046,0,0,0,0,0,0,0,-1,1721,610,4.71089,0.110024
504,414,7.19568,-1.43835,0,0,0,0,0,0,0,-1,1728,610,7.19563,1.43836
511,414,5.94153,-1.28772,0,0,0,0,0,0,0,-1,1735,610,5.94151,1.28769
518,414,4.53381,-0.0996704,0,0,0,0,0,0,0,-1,1742,610,4.53378,0.0996819
525,414,6.18811,-1.64056,0,0,0,0,0,0,0,-1,1749,610,6.18814,1.64055
532,414,30.855,-23.1742,0,0,0,0,0,0,0,-1,1756,610,30.855,23.1742
539,414,30.9952,-22.0977,0,0,0,0,0,0,0,-1,1763,610,30.9952,22.0976
546,414,30.92,-21.1475,0.00385461,0.00115496,0.00185645,0.00480009,0.00020948,0.471057,0.00313257,0.0180871,1770,610,30.92,21.1475
553,414,30.8735,-20.228,0.00313022,0.00111255,0.00142967,0.00387116,0.000371609,0.478147,0.00246625,0.0151215,1777,610,30.8735,20.228
560,414,30.8387,-19.3108,0.00249037,0.00117252,0.00115359,0.00315996,0.000502932,0.525914,0.00196062,0.0176539,1784,610,30.8388,19.3108
567,414,30.7915,-18.3638,0.00206793,0.00143911,0.00112071,0.00291749,0.000589541,0.64864,0.0017813,0.027024,1791,610,30.7915,18.3638
574,414,30.7126,-17.458,0.00189881,0.00193413,0.00128604,0.00320264,0.00063031,0.792264,0.00195908,0.0240432,1798,610,30.7127,17.458
581,414,30.6797,-16.5422,0.00192102,0.00260397,0.00166874,0.00396581,0.000559177,0.88632,0.0024786,0.0214388,1805,610,30.6797,16.5422
588,414,30.6163,-15.6301,0.00218414,0.00363648,0.00233405,0.00535471,0.000465913,0.936212,0.00342508,0.0202425,1812,610,30.6164,15.6301
595,414,30.5487,-14.6283,0.00275161,0.00493533,0.003251,0.00727293,0.000414019,0.947407,0.00471667,0.0224185,1819,610,30.5487,14.6283
602,414,30.4705,-13.7051,0.0035757,0.00665615,0.00443236,0.00980827,0.000423577,0.952619,0.00640233,0.0288428,1826,610,30.4705,13.7051
609,414,30.4199,-12.7214,0,0,0,0,0,0,0,-1,1833,610,30.4199,12.7215
616,414,30.743,-11.3726,0,0,0,0,0,0,0,-1,1840,610,30.743,11.3726
623,414,9.6969,0.0378418,0,0,0,0,0,0,0,-1,1847,610,9.69685,-0.0378644
630,414,5.47144,0.499329,0,0,0,0,0,0,0,-1,1854,610,5.47142,-0.499303
637,414,8.36707,4.16278,0,0,0,0,0,0,0,-1,1861,610,8.36709,-4.16278
644,414,5.87073,1.51422,0,0,0,0,0,0,0,-1,1868,610,5.87076,-1.51424
651,414,3.6377,0.820557,0,0,0,0,0,0,0,-1,1875,610,3.6377,-0.820543
658,414,2.29761,3.87323,0,0,0,0,0,0,0,-1,1882,610,2.29758,-3.87325
665,414,0,0,0,0,0,0,0,0,0,-1,1889,610,0,0
672,414,0,0,0,0,0,0,0,0,0,-1,1896,610,0,0
679,414,0,0,0,0,0,0,0,0,0,-1,1903,610,0,0
686,414,0,0,0,0,0,0,0,0,0,-1,1910,610,0,0
693,414,0,0,0,0,0,0,0,0,0,-1,1917,610,0,0
700,414,0,0,0,0,0,0,0,0,0,-1,1924,610,0,0
707,414,0,0,0,0,0,0,0,0,0,-1,1931,610,0,0
714,414,0,0,0,0,0,0,0,0,0,-1,1938,610,0,0
721,414,0,0,0,0,0,0,0,0,0,-1,1945,610,0,0
728,414,0,0,0,0,0,0,0,0,0,-1,1952,610,0,0
735,414,0,0,0,0,0,0,0,0,0,-1,1959,610,0,0
742,414,0,0,0,0,0,0,0,0,0,-1,1966,610,0,0
749,414,0,0,0,0,0,0,0,0,0,-1,1973,610,0,0
756,414,0,0,0,0,0,0,0,0,0,-1,1980,610,0,0
763,414,0,0,0,0,0,0,0,0,0,-1,1987,610,0,0
770,414,0,0,0,0,0,0,0,0,0,-1,1994,610,0,0
777,414,0,0,0,0,0,0,0,0,0,-1,2001,610,0,0
784,414,0,0,0,0,0,0,0,0,0,-1,2008,610,0,0
791,414,0,0,0,0,0,0,0,0,0,-1,2015,610,0,0
798,414,0,0,0,0,0,0,0,0,0,-1,2022,610,0,0
805,414,0,0,0,0,0,0,0,0,0,-1,2029,610,0,0
812,414,0,0,0,0,0,0,0,0,0,-1,2036,610,0,0
-700,407,0,0,0,0,0,0,0,0,0,-1,524,617,0,0
-693,407,0,0,0,0,0,0,0,0,0,-1,531,617,0,0
-686,407,0,0,0,0,0,0,0,0,0,-1,538,617,0,0
-679,407,0,0,0,0,0,0,0,0,0,-1,545,617,0,0
-672,407,0,0,0,0,0,0,0,0,0,-1,552,617,0,0
-665,407,0,0,0,0,0,0,0,0,0,-1,559,617,0,0
-658,407,0,0,0,0,0,0,0,0,0,-1,566,617,0,0
-651,407,0,0,0,0,0,0,0,0,0,-1,573,617,0,0
-644,407,0,0,0,0,0,0,0,0,0,-1,580,617,0,0
-637,407,0,0,0,0,0,0,0,0,0,-1,587,617,0,0
-630,407,0,0,0,0,0,0,0,0,0,-1,594,617,0,0
-623,407,0,0,0,0,0,0,0,0,0,-1,601,617,0,0
-616,407,0,0,0,0,0,0,0,0,0,-1,608,617,0,0
-609,407,0,0,0,0,0,0,0,0,0,-1,615,617,0,0
-602,407,0,0,0,0,0,0,0,0,0,-1,622,617,0,0
-595,407,0,0,0,0,0,0,0,0,0,-1,629,617,0,0
-588,407,0,0,0,0,0,0,0,0,0,-1,636,617,0,0
-581,407,0,0,0,0,0,0,0,0,0,-1,643,617,0,0
-574,407,0,0,0,0,0,0,0,0,0,-1,650,617,0,0
-567,407,0,0,0,0,0,0,0,0,0,-1,657,617,0,0
-560,407,0,0,0,0,0,0,0,0,0,-1,664,617,0,0
-553,407,0,0,0,0,0,0,0,0,0,-1,671,617,0,0
-546,407,-8.54517,-0.658142,0,0,0,0,0,0,0,-1,678,617,-8.54515,0.658112
-539,407,-6.09442,-1.01154,0,0,0,0,0,0,0,-1,685,617,-6.09441,1.01155
-532,407,-7.75665,1.62152,0,0,0,0,0,0,0,-1,692,617,-7.75667,-1.62154
-525,407,-3.78247,-2.67639,0,0,0,0,0,0,0,-1,699,617,-3.78246,2.67638
-518,407,-5.013,-5.87323,0,0,0,0,0,0,0,-1,706,617,-5.013,5.87324
-511,407,-9.42743,-4.94189,0,0,0,0,0,0,0,-1,713,617,-9.42745,4.94191
-504,407,-10.8291,-8.05927,0,0,0,0,0,0,0,-1,720,617,-10.8291,8.05927
-497,407,-9.84467,-6.81641,0,0,0,0,0,0,0,-1,727,617,-9.84468,6.8164
-490,407,-16.0781,-12.2421,0,0,0,0,0,0,0,-1,734,617,-16.0781,12.2421
-483,407,-15.7947,-13.1664,0,0,0,0,0,0,0,-1,741,617,-15.7948,13.1664
-476,407,-15.8958,-14.1049,-0.00202501,0.00116319,0.00151266,0.00176666,-0.00262847,1.1912,0.00255374,0.016785,748,617,-15.8958,14.1049
-469,407,-15.9838,-15.0323,-0.00151714,0.000953617,0.001016,0.00131774,-0.00188126,1.22667,0.00185647,0.0139345,755,617,-15.9838,15.0324
-462,407,-16.0672,-15.982,-0.000829871,0.000730548,0.000550635,0.000905287,-0.00100461,1.26351,0.00110318,0.0212367,762,617,-16.0672,15.982
-455,407,-16.113,-16.9523,-7.30899e-05,0.00059885,8.90921e-05,0.000610462,-8.4702e-05,1.44119,0.000437947,0.0223965,769,617,-16.113,16.9523
-448,407,-16.125,-17.8974,0.000762877,0.000504959,-0.000361529,0.00101776,0.000250077,-0.614081,0.00061241,0.0197991,776,617,-16.125,17.8974
-441,407,-16.2006,-18.8049,0.00164181,0.000516345,-0.000819527,0.00207321,8.49483e-05,-0.484542,0.00135471,0.0156438,783,617,-16.2006,18.8049
-434,407,-16.2935,-19.722,0.00251987,0.000636876,-0.00127214,0.00316101,-4.26662e-06,-0.466834,0.00210876,0.0117612,790,617,-16.2935,19.7221
-427,407,-16.3383,-20.6486,0.00342848,0.000935437,-0.00180218,0.00437323,-9.31206e-06,-0.48284,0.0029186,0.0120519,797,617,-16.3383,20.6486
-420,407,-16.3445,-21.5559,0.00421959,0.00133302,-0.00225541,0.00545398,9.86333e-05,-0.500769,0.00360356,0.0115762,804,617,-16.3446,21.5559
-413,407,-16.3768,-22.478,0.00495602,0.00197352,-0.00270492,0.00655353,0.00037601,-0.533473,0.00424923,0.0200271,811,617,-16.3767,22.478
-406,407,-16.1928,-23.5257,0,0,0,0,0,0,0,-1,818,617,-16.1928,23.5257
-399,407,-15.6417,-22.1682,0,0,0,0,0,0,0,-1,825,617,-15.6417,22.1681
-392,407,-8.33612,-12.195,0,0,0,0,0,0,0,-1,832,617,-8.33611,12.195
-385,407,-7.65765,-10.7744,0,0,0,0,0,0,0,-1,839,617,-7.65767,10.7744
-378,407,-6.08655,-7.42291,0,0,0,0,0,0,0,-1,846,617,-6.08652,7.42292
-371,407,-7.4007,-5.79449,0,0,0,0,0,0,0,-1,853,617,-7.40072,5.79447
-364,407,-10.0638,-6.6228,0,0,0,0,0,0,0,-1,860,617,-10.0639,6.62279
-357,407,-6.64447,-1.83337,0,0,0,0,0,0,0,-1,867,617,-6.64446,1.8334
-350,407,-7.03351,-1.77551,0,0,0,0,0,0,0,-1,874,617,-7.03349,1.77551
-343,407,-7.40967,-1.95026,0,0,0,0,0,0,0,-1,881,617,-7.40969,1.95026
-336,407,-8.10229,-2.40662,0,0,0,0,0,0,0,-1,888,617,-8.10229,2.40664
-329,407,-8.81232,-2.76331,0,0,0,0,0,0,0,-1,895,617,-8.81235,2.76331
-322,407,0,0,0,0,0,0,0,0,0,-1,902,617,0,0
-315,407,0,0,0,0,0,0,0,0,0,-1,909,617,0,0
-308,407,0,0,0,0,0,0,0,0,0,-1,916,617,0,0
-301,407,0,0,0,0,0,0,0,0,0,-1,923,617,0,0
-294,407,0,0,0,0,0,0,0,0,0,-1,930,617,0,0
-287,407,0,0,0,0,0,0,0,0,0,-1,937,617,0,0
-280,407,0,0,0,0,0,0,0,0,0,-1,944,617,0,0
-273,407,0,0,0,0,0,0,0,0,0,-1,951,617,0,0
-266,407,0,0,0,0,0,0,0,0,0,-1,958,617,0,0
-259,407,0,0,0,0,0,0,0,0,0,-1,965,617,0,0
-252,407,0,0,0,0,0,0,0,0,0,-1,972,617,0,0
-245,407,0,0,0,0,0,0,0,0,0,-1,979,617,0,0
-238,407,0,0,0,0,0,0,0,0,0,-1,986,617,0,0
-231,407,0,0,0,0,0,0,0,0,0,-1,993,617,0,0
-224,407,0,0,0,0,0,0,0,0,0,-1,1000,617,0,0
-217,407,0,0,0,0,0,0,0,0,0,-1,1007,617,0,0
-210,407,0,0,0,0,0,0,0,0,0,-1,1014,617,0,0
-203,407,0,0,0,0,0,0,0,0,0,-1,1021,617,0,0
-196,407,0,0,0,0,0,0,0,0,0,-1,1028,617,0,0
-189,407,0,0,0,0,0,0,0,0,0,-1,1035,617,0,0
-182,407,0,0,0,0,0,0,0,0,0,-1,1042,617,0,0
-175,407,0,0,0,0,0,0,0,0,0,-1,1049,617,0,0
-168,407,0,0,0,0,0,0,0,0,0,-1,1056,617,0,0
-161,407,0,0,0,0,0,0,0,0,0,-1,1063,617,0,0
-154,407,0,0,0,0,0,0,0,0,0,-1,1070,617,0,0
-147,407,0,0,0,0,0,0,0,0,0,-1,1077,617,0,0
-140,407,0,0,0,0,0,0,0,0,0,-1,1084,617,0,0
-133,407,0,0,0,0,0,0,0,0,0,-1,1091,617,0,0
-126,407,0,0,0,0,0,0,0,0,0,-1,1098,617,0,0
-119,407,0,0,0,0,0,0,0,0,0,-1,1105,617,0,0
-112,407,0,0,0,0,0,0,0,0,0,-1,1112,617,0,0
-105,407,0,0,0,0,0,0,0,0,0,-1,1119,617,0,0
-98,407,0,0,0,0,0,0,0,0,0,-1,1126,617,0,0
-91,407,0,0,0,0,0,0,0,0,0,-1,1133,617,0,0
-84,407,0,0,0,0,0,0,0,0,0,-1,1140,617,0,0
-77,407,0,0,0,0,0,0,0,0,0,-1,1147,617,0,0
-70,407,0,0,0,0,0,0,0,0,0,-1,1154,617,0,0
-63,407,0,0,0,0,0,0,0,0,0,-1,1161,617,0,0
-56,407,0,0,0,0,0,0,0,0,0,-1,1168,617,0,0
-49,407,0,0,0,0,0,0,0,0,0,-1,1175,617,0,0
-42,407,0,0,0,0,0,0,0,0,0,-1,1182,617,0,0
-35,407,0,0,0,0,0,0,0,0,0,-1,1189,617,0,0
-28,407,0,0,0,0,0,0,0,0,0,-1,1196,617,0,0
-21,407,0,0,0,0,0,0,0,0,0,-1,1203,617,0,0
-14,407,0,0,0,0,0,0,0,0,0,-1,1210,617,0,0
-7,407,0,0,0,0,0,0,0,0,0,-1,1217,617,0,0
0,407,0,0,0,0,0,0,0,0,0,-1,1224,617,0,0
7,407,0,0,0,0,0,0,0,0,0,-1,1231,617,0,0
14,407,0,0,0,0,0,0,0,0,0,-1,1238,617,0,0
21,407,0,0,0,0,0,0,0,0,0,-1,1245,617,0,0
28,407,0,0,0,0,0,0,0,0,0,-1,1252,617,0,0
35,407,0,0,0,0,0,0,0,0,0,-1,1259,617,0,0
42,407,0,0,0,0,0,0,0,0,0,-1,1266,617,0,0
49,407,0,0,0,0,0,0,0,0,0,-1,1273,617,0,0
56,407,0,0,0,0,0,0,0,0,0,-1,1280,617,0,0
63,407,0,0,0,0,0,0,0,0,0,-1,1287,617,0,0
70,407,0,0,0,0,0,0,0,0,0,-1,1294,617,0,0
77,407,0,0,0,0,0,0,0,0,0,-1,1301,617,0,0
84,407,0,0,0,0,0,0,0,0,0,-1,1308,617,0,0
91,407,0,0,0,0,0,0,0,0,0,-1,1315,617,0,0
98,407,0,0,0,0,0,0,0,0,0,-1,1322,617,0,0
105,407,0,0,0,0,0,0,0,0,0,-1,1329,617,0,0
112,407,0,0,0,0,0,0,0,0,0,-1,1336,617,0,0
119,407,0,0,0,0,0,0,0,0,0,-1,1343,617,0,0
126,407,0,0,0,0,0,0,0,0,0,-1,1350,617,0,0
133,407,0,0,0,0,0,0,0,0,0,-1,1357,617,0,0
140,407,0,0,0,0,0,0,0,0,0,-1,1364,617,0,0
147,407,0,0,0,0,0,0,0,0,0,-1,1371,617,0,0
154,407,0,0,0,0,0,0,0,0,0,-1,1378,617,0,0
161,407,0,0,0,0,0,0,0,0,0,-1,1385,617,0,0
168,407,0,0,0,0,0,0,0,0,0,-1,1392,617,0,0
175,407,0,0,0,0,0,0,0,0,0,-1,1399,617,0,0
182,407,0,0,0,0,0,0,0,0,0,-1,1406,617,0,0
189,407,0,0,0,0,0,0,0,0,0,-1,1413,617,0,0
196,407,0,0,0,0,0,0,0,0,0,-1,1420,617,0,0
203,407,0,0,0,0,0,0,0,0,0,-1,1427,617,0,0
210,407,0,0,0,0,0,0,0,0,0,-1,1434,617,0,0
217,407,0,0,0,0,0,0,0,0,0,-1,1441,617,0,0
224,407,0,0,0,0,0,0,0,0,0,-1,1448,617,0,0
231,407,0,0,0,0,0,0,0,0,0,-1,1455,617,0,0
238,407,0,0,0,0,0,0,0,0,0,-1,1462,617,0,0
245,407,0,0,0,0,0,0,0,0,0,-1,1469,617,0,0
252,407,0,0,0,0,0,0,0,0,0,-1,1476,617,0,0
259,407,0,0,0,0,0,0,0,0,0,-1,1483,617,0,0
266,407,0,0,0,0,0,0,0,0,0,-1,1490,617,0,0
273,407,0,0,0,0,0,0,0,0,0,-1,1497,617,0,0
280,407,0,0,0,0,0,0,0,0,0,-1,1504,617,0,0
287,407,0,0,0,0,0,0,0,0,0,-1,1511,617,0,0
294,407,0,0,0,0,0,0,0,0,0,-1,1518,617,0,0
301,407,0,0,0,0,0,0,0,0,0,-1,1525,617,0,0
308,407,0,0,0,0,0,0,0,0,0,-1,1532,617,0,0
315,407,0,0,0,0,0,0,0,0,0,-1,1539,617,0,0
322,407,0,0,0,0,0,0,0,0,0,-1,1546,617,0,0
329,407,0,0,0,0,0,0,0,0,0,-1,1553,617,0,0
336,407,0,0,0,0,0,0,0,0,0,-1,1560,617,0,0
343,407,0,0,0,0,0,0,0,0,0,-1,1567,617,0,0
350,407,0,0,0,0,0,0,0,0,0,-1,1574,617,0,0
357,407,0,0,0,0,0,0,0,0,0,-1,1581,617,0,0
364,407,0,0,0,0,0,0,0,0,0,-1,1588,617,0,0
371,407,0,0,0,0,0,0,0,0,0,-1,1595,617,0,0
378,407,0,0,0,0,0,0,0,0,0,-1,1602,617,0,0
385,407,0,0,0,0,0,0,0,0,0,-1,1609,617,0,0
392,407,0,0,0,0,0,0,0,0,0,-1,1616,617,0,0
399,407,0,0,0,0,0,0,0,0,0,-1,1623,617,0,0
406,407,0,0,0,0,0,0,0,0,0,-1,1630,617,0,0
413,407,0,0,0,0,0,0,0,0,0,-1,1637,617,0,0
420,407,0,0,0,0,0,0,0,0,0,-1,1644,617,0,0
427,407,0,0,0,0,0,0,0,0,0,-1,1651,617,0,0
434,407,0,0,0,0,0,0,0,0,0,-1,1658,617,0,0
441,407,0,0,0,0,0,0,0,0,0,-1,1665,617,0,0
448,407,7.02893,2.13843,0,0,0,0,0,0,0,-1,1672,617,7.02899,-2.13844
455,407,7.55237,2.29242,0,0,0,0,0,0,0,-1,1679,617,7.55236,-2.29244
462,407,8.2926,2.46173,0,0,0,0,0,0,0,-1,1686,617,8.29261,-2.46174
469,407,8.71509,2.22681,0,0,0,0,0,0,0,-1,1693,617,8.71511,-2.22681
476,407,8.89917,1.47766,0,0,0,0,0,0,0,-1,1700,617,8.89914,-1.47768
483,407,9.02612,0.682983,0,0,0,0,0,0,0,-1,1707,617,9.02608,-0.683004
490,407,9.12659,0.000671387,0,0,0,0,0,0,0,-1,1714,617,9.12653,-0.000675931
497,407,7.76819,0.855835,0,0,0,0,0,0,0,-1,1721,617,7.7682,-0.855865
504,407,4.69336,0.160706,0,0,0,0,0,0,0,-1,1728,617,4.69337,-0.1607
511,407,4.07104,-0.00140381,0,0,0,0,0,0,0,-1,1735,617,4.07109,0.00141425
518,407,6.09534,1.9411,0,0,0,0,0,0,0,-1,1742,617,6.09532,-1.94113
525,407,5.72534,-1.35986,0,0,0,0,0,0,0,-1,1749,617,5.72529,1.35988
532,407,18.5767,-10.6388,0,0,0,0,0,0,0,-1,1756,617,18.5766,10.6388
539,407,31.7802,-22.1342,0,0,0,0,0,0,0,-1,1763,617,31.7801,22.1341
546,407,31.8538,-21.1176,0.00417736,0.00133726,0.00211717,0.00530662,0.000208007,0.489993,0.00347049,0.0309762,1770,617,31.8537,21.1175
553,407,31.7776,-20.1977,0.00336316,0.00109103,0.00156474,0.00416075,0.000293432,0.471403,0.00268138,0.0187719,1777,617,31.7776,20.1977
560,407,31.7632,-19.2725,0.00265443,0.000952366,0.00115738,0.00323999,0.000366809,0.468383,0.0020487,0.0193203,1784,617,31.7631,19.2725
567,407,31.7067,-18.3386,0.00213927,0.000985097,0.000981002,0.00270034,0.00042403,0.519526,0.00167685,0.0322533,1791,617,31.7067,18.3386
574,407,31.6471,-17.4072,0.00191962,0.0013223,0.00106218,0.00272433,0.000517589,0.64835,0.00167064,0.0275479,1798,617,31.6471,17.4072
581,407,31.5897,-16.4344,0.00188348,0.00184163,0.00135023,0.00321294,0.000512157,0.77765,0.0019933,0.0197424,1805,617,31.5897,16.4344
588,407,31.4961,-15.5307,0.00207454,0.00271643,0.0019062,0.00432852,0.000462448,0.868801,0.00274455,0.0148747,1812,617,31.4961,15.5307
595,407,31.5002,-14.6422,0.00258044,0.00383997,0.00271511,0.0059974,0.000423009,0.899357,0.00386498,0.0293932,1819,617,31.5003,14.6422
602,407,31.4613,-13.6319,0.00334845,0.00530176,0.00375559,0.00820561,0.000444597,0.912607,0.00532839,0.0235769,1826,617,31.4613,13.6319
609,407,31.2885,-12.638,0.00451152,0.00715294,0.00512731,0.0111269,0.000537556,0.911449,0.0072454,0.0216922,1833,617,31.2885,12.638
616,407,31.3517,-11.494,0.00607595,0.00945119,0.00679237,0.0147625,0.000764696,0.907162,0.0095969,0.0408092,1840,617,31.3517,11.494
623,407,31.6642,-10.2067,0,0,0,0,0,0,0,-1,1847,617,31.6642,10.2067
630,407,7.06177,0.814575,0,0,0,0,0,0,0,-1,1854,617,7.06178,-0.814579
637,407,11.1063,0.391846,0,0,0,0,0,0,0,-1,1861,617,11.1063,-0.391862
644,407,5.09766,2.27747,0,0,0,0,0,0,0,-1,1868,617,5.09764,-2.27746
651,407,7.37524,0.0513916,0,0,0,0,0,0,0,-1,1875,617,7.3752,-0.0513923
658,407,3.76685,0.594177,0,0,0,0,0,0,0,-1,1882,617,3.76683,-0.594184
665,407,5.76123,0.375061,0,0,0,0,0,0,0,-1,1889,617,5.76118,-0.37509
672,407,0,0,0,0,0,0,0,0,0,-1,1896,617,0,0
679,407,0,0,0,0,0,0,0,0,0,-1,1903,617,0,0
686,407,0,0,0,0,0,0,0,0,0,-1,1910,617,0,0
693,407,0,0,0,0,0,0,0,0,0,-1,1917,617,0,0
700,407,0,0,0,0,0,0,0,0,0,-1,1924,617,0,0
707,407,0,0,0,0,0,0,0,0,0,-1,1931,617,0,0
714,407,0,0,0,0,0,0,0,0,0,-1,1938,617,0,0
721,407,0,0,0,0,0,0,0,0,0,-1,1945,617,0,0
728,407,0,0,0,0,0,0,0,0,0,-1,1952,617,0,0
735,407,0,0,0,0,0,0,0,0,0,-1,1959,617,0,0
742,407,0,0,0,0,0,0,0,0,0,-1,1966,617,0,0
749,407,0,0,0,0,0,0,0,0,0,-1,1973,617,0,0
756,407,0,0,0,0,0,0,0,0,0,-1,1980,617,0,0
763,407,0,0,0,0,0,0,0,0,0,-1,1987,617,0,0
770,407,0,0,0,0,0,0,0,0,0,-1,1994,617,0,0
777,407,0,0,0,0,0,0,0,0,0,-1,2001,617,0,0
784,407,0,0,0,0,0,0,0,0,0,-1,2008,617,0,0
791,407,0,0,0,0,0,0,0,0,0,-1,2015,617,0,0
798,407,0,0,0,0,0,0,0,0,0,-1,2022,617,0,0
805,407,0,0,0,0,0,0,0,0,0,-1,2029,617,0,0
812,407,0,0,0,0,0,0,0,0,0,-1,2036,617,0,0
-700,400,0,0,0,0,0,0,0,0,0,-1,524,624,0,0
-693,400,0,0,0,0,0,0,0,0,0,-1,531,624,0,0
-686,400,0,0,0,0,0,0,0,0,0,-1,538,624,0,0
-679,400,0,0,0,0,0,0,0,0,0,-1,545,624,0,0
-672,400,0,0,0,0,0,0,0,0,0,-1,552,624,0,0
-665,400,0,0,0,0,0,0,0,0,0,-1,559,624,0,0
-658,400,0,0,0,0,0,0,0,0,0,-1,566,624,0,0
-651,400,0,0,0,0,0,0,0,0,0,-1,573,624,0,0
-644,400,0,0,0,0,0,0,0,0,0,-1,580,624,0,0
-637,400,0,0,0,0,0,0,0,0,0,-1,587,624,0,0
-630,400,0,0,0,0,0,0,0,0,0,-1,594,624,0,0
-623,400,0,0,0,0,0,0,0,0,0,-1,601,624,0,0
-616,400,0,0,0,0,0,0,0,0,0,-1,608,624,0,0
-609,400,0,0,0,0,0,0,0,0,0,-1,615,624,0,0
-602,400,0,0,0,0,0,0,0,0,0,-1,622,624,0,0
-595,400,0,0,0,0,0,0,0,0,0,-1,629,624,0,0
-588,400,0,0,0,0,0,0,0,0,0,-1,636,624,0,0
-581,400,0,0,0,0,0,0,0,0,0,-1,643,624,0,0
-574,400,0,0,0,0,0,0,0,0,0,-1,650,624,0,0
-567,400,0,0,0,0,0,0,0,0,0,-1,657,624,0,0
-560,400,0,0,0,0,0,0,0,0,0,-1,664,624,0,0
-553,400,0,0,0,0,0,0,0,0,0,-1,671,624,0,0
-546,400,-8.41174,-1.4599,0,0,0,0,0,0,0,-1,678,624,-8.41173,1.45989
-539,400,-5.69104,-1.7337,0,0,0,0,0,0,0,-1,685,624,-5.69103,1.7337
-532,400,-3.03632,-2.03912,0,0,0,0,0,0,0,-1,692,624,-3.03632,2.03909
-525,400,-6.20813,-7.04071,0,0,0,0,0,0,0,-1,699,624,-6.20814,7.04071
-518,400,-5.26544,-1.58661,0,0,0,0,0,0,0,-1,706,624,-5.26544,1.58658
-511,400,-10.6307,-6.7121,0,0,0,0,0,0,0,-1,713,624,-10.6307,6.71209
-504,400,-10.2663,-6.55109,0,0,0,0,0,0,0,-1,720,624,-10.2663,6.55106
-497,400,-16.9553,-10.957,0,0,0,0,0,0,0,-1,727,624,-16.9553,10.957
-490,400,-16.7202,-12.0554,-0.000943843,0.00104004,0.00152286,0.00186553,-0.00176933,1.07407,0.00209883,0.044927,734,624,-16.7202,12.0554
-483,400,-16.7449,-13.1257,-0.00108553,0.000925964,0.00124807,0.00152309,-0.00168266,1.12454,0.00185161,0.0181137,741,624,-16.7449,13.1257
-476,400,-16.8103,-14.0266,-0.000991044,0.000823484,0.000919589,0.00120803,-0.00137559,1.17472,0.0014927,0.0153816,748,624,-16.8103,14.0266
-469,400,-16.8939,-14.9568,-0.00062725,0.000661393,0.000550297,0.000864406,-0.000830263,1.21737,0.000978484,0.0160587,755,624,-16.8939,14.9569
-462,400,-16.9487,-15.9341,-7.76747e-05,0.00047154,0.00017542,0.000522788,-0.000128922,1.28656,0.000398512,0.0207466,762,624,-16.9487,15.9341
-455,400,-16.986,-16.8919,0.000599082,0.000420554,-0.000250529,0.000775775,0.000243861,-0.61426,0.00045807,0.0219494,769,624,-16.986,16.8919
-448,400,-17.043,-17.8494,0.00140093,0.000365965,-0.000679819,0.00173782,2.90818e-05,-0.46008,0.00114897,0.0160565,776,624,-17.0429,17.8494
-441,400,-17.1301,-18.7181,0.00229847,0.000424185,-0.00114812,0.00284336,-0.000120704,-0.443115,0.00193706,0.0151029,783,624,-17.1301,18.7182
-434,400,-17.2069,-19.6308,0.00329132,0.000632342,-0.00166238,0.00409046,-0.000166799,-0.448105,0.00278424,0.012774,790,624,-17.2069,19.6308
-427,400,-17.2635,-20.5505,0.00434496,0.000998944,-0.00227115,0.00549279,-0.000148878,-0.467952,0.00371248,0.012018,797,624,-17.2636,20.5506
-420,400,-17.2202,-21.5181,0.00525143,0.00144855,-0.00277847,0.00671679,-1.68113e-05,-0.485326,0.00448348,0.0256618,804,624,-17.2201,21.5181
-413,400,-17.2056,-22.3939,0,0,0,0,0,0,0,-1,811,624,-17.2056,22.3939
-406,400,-17.7161,-22.9142,0,0,0,0,0,0,0,-1,818,624,-17.7161,22.9142
-399,400,-11.0176,-13.2944,0,0,0,0,0,0,0,-1,825,624,-11.0176,13.2944
-392,400,-4.92285,-6.63354,0,0,0,0,0,0,0,-1,832,624,-4.92285,6.63354
-385,400,-3.68738,-5.04205,0,0,0,0,0,0,0,-1,839,624,-3.68736,5.04207
-378,400,-6.84064,-1.28662,0,0,0,0,0,0,0,-1,846,624,-6.84062,1.28662
-371,400,-6.98865,-1.2572,0,0,0,0,0,0,0,-1,853,624,-6.98865,1.25721
-364,400,-6.97247,-1.24133,0,0,0,0,0,0,0,-1,860,624,-6.97249,1.24135
-357,400,-7.18329,-1.23218,0,0,0,0,0,0,0,-1,867,624,-7.18327,1.2322
-350,400,-7.40186,-1.19409,0,0,0,0,0,0,0,-1,874,624,-7.40187,1.19407
-343,400,-8.09357,-1.51147,0,0,0,0,0,0,0,-1,881,624,-8.09355,1.51148
-336,400,0,0,0,0,0,0,0,0,0,-1,888,624,0,0
-329,400,0,0,0,0,0,0,0,0,0,-1,895,624,0,0
-322,400,0,0,0,0,0,0,0,0,0,-1,902,624,0,0
-315,400,0,0,0,0,0,0,0,0,0,-1,909,624,0,0
-308,400,0,0,0,0,0,0,0,0,0,-1,916,624,0,0
-301,400,0,0,0,0,0,0,0,0,0,-1,923,624,0,0
-294,400,0,0,0,0,0,0,0,0,0,-1,930,624,0,0
-287,400,0,0,0,0,0,0,0,0,0,-1,937,624,0,0
-280,400,0,0,0,0,0,0,0,0,0,-1,944,624,0,0
-273,400,0,0,0,0,0,0,0,0,0,-1,951,624,0,0
-266,400,0,0,0,0,0,0,0,0,0,-1,958,624,0,0
-259,400,0,0,0,0,0,0,0,0,0,-1,965,624,0,0
-252,400,0,0,0,0,0,0,0,0,0,-1,972,624,0,0
-245,400,0,0,0,0,0,0,0,0,0,-1,979,624,0,0
-238,400,0,0,0,0,0,0,0,0,0,-1,986,624,0,0
-231,400,0,0,0,0,0,0,0,0,0,-1,993,624,0,0
-224,400,0,0,0,0,0,0,0,0,0,-1,1000,624,0,0
-217,400,0,0,0,0,0,0,0,0,0,-1,1007,624,0,0
-210,400,0,0,0,0,0,0,0,0,0,-1,1014,624,0,0
-203,400,0,0,0,0,0,0,0,0,0,-1,1021,624,0,0
-196,400,0,0,0,0,0,0,0,0,0,-1,1028,624,0,0
-189,400,0,0,0,0,0,0,0,0,0,-1,1035,624,0,0
-182,400,0,0,0,0,0,0,0,0,0,-1,1042,624,0,0
-175,400,0,0,0,0,0,0,0,0,0,-1,1049,624,0,0
-168,400,0,0,0,0,0,0,0,0,0,-1,1056,624,0,0
-161,400,0,0,0,0,0,0,0,0,0,-1,1063,624,0,0
-154,400,0,0,0,0,0,0,0,0,0,-1,1070,624,0,0
-147,400,0,0,0,0,0,0,0,0,0,-1,1077,624,0,0
-140,400,0,0,0,0,0,0,0,0,0,-1,1084,624,0,0
-133,400,0,0,0,0,0,0,0,0,0,-1,1091,624,0,0
-126,400,0,0,0,0,0,0,0,0,0,-1,1098,624,0,0
-119,400,0,0,0,0,0,0,0,0,0,-1,1105,624,0,0
-112,400,0,0,0,0,0,0,0,0,0,-1,1112,624,0,0
-105,400,0,0,0,0,0,0,0,0,0,-1,1119,624,0,0
-98,400,0,0,0,0,0,0,0,0,0,-1,1126,624,0,0
-91,400,0,0,0,0,0,0,0,0,0,-1,1133,624,0,0
-84,400,0,0,0,0,0,0,0,0,0,-1,1140,624,0,0
-77,400,0,0,0,0,0,0,0,0,0,-1,1147,624,0,0
-70,400,0,0,0,0,0,0,0,0,0,-1,1154,624,0,0
-63,400,0,0,0,0,0,0,0,0,0,-1,1161,624,0,0
-56,400,0,0,0,0,0,0,0,0,0,-1,1168,624,0,0
-49,400,0,0,0,0,0,0,0,0,0,-1,1175,624,0,0
-42,400,0,0,0,0,0,0,0,0,0,-1,1182,624,0,0
-35,400,0,0,0,0,0,0,0,0,0,-1,1189,624,0,0
-28,400,0,0,0,0,0,0,0,0,0,-1,1196,624,0,0
-21,400,0,0,0,0,0,0,0,0,0,-1,1203,624,0,0
-14,400,0,0,0,0,0,0,0,0,0,-1,1210,624,0,0
-7,400,0,0,0,0,0,0,0,0,0,-1,1217,624,0,0
0,400,0,0,0,0,0,0,0,0,0,-1,1224,624,0,0
7,400,0,0,0,0,0,0,0,0,0,-1,1231,624,0,0
14,400,0,0,0,0,0,0,0,0,0,-1,1238,624,0,0
21,400,0,0,0,0,0,0,0,0,0,-1,1245,624,0,0
28,400,0,0,0,0,0,0,0,0,0,-1,1252,624,0,0
35,400,0,0,0,0,0,0,0,0,0,-1,1259,624,0,0
42,400,0,0,0,0,0,0,0,0,0,-1,1266,624,0,0
49,400,0,0,0,0,0,0,0,0,0,-1,1273,624,0,0
56,400,0,0,0,0,0,0,0,0,0,-1,1280,624,0,0
63,400,0,0,0,0,0,0,0,0,0,-1,1287,624,0,0
70,400,0,0,0,0,0,0,0,0,0,-1,1294,624,0,0
77,400,0,0,0,0,0,0,0,0,0,-1,1301,624,0,0
84,400,0,0,0,0,0,0,0,0,0,-1,1308,624,0,0
91,400,0,0,0,0,0,0,0,0,0,-1,1315,624,0,0
98,400,0,0,0,0,0,0,0,0,0,-1,1322,624,0,0
105,400,0,0,0,0,0,0,0,0,0,-1,1329,624,0,0
112,400,0,0,0,0,0,0,0,0,0,-1,1336,624,0,0
119,400,0,0,0,0,0,0,0,0,0,-1,1343,624,0,0
126,400,0,0,0,0,0,0,0,0,0,-1,1350,624,0,0
133,400,0,0,0,0,0,0,0,0,0,-1,1357,624,0,0
140,400,0,0,0,0,0,0,0,0,0,-1,1364,624,0,0
147,400,0,0,0,0,0,0,0,0,0,-1,1371,624,0,0
154,400,0,0,0,0,0,0,0,0,0,-1,1378,624,0,0
161,400,0,0,0,0,0,0,0,0,0,-1,1385,624,0,0
168,400,0,0,0,0,0,0,0,0,0,-1,1392,624,0,0
175,400,0,0,0,0,0,0,0,0,0,-1,1399,624,0,0
182,400,0,0,0,0,0,0,0,0,0,-1,1406,624,0,0
189,400,0,0,0,0,0,0,0,0,0,-1,1413,624,0,0
196,400,0,0,0,0,0,0,0,0,0,-1,1420,624,0,0
203,400,0,0,0,0,0,0,0,0,0,-1,1427,624,0,0
210,400,0,0,0,0,0,0,0,0,0,-1,1434,624,0,0
217,400,0,0,0,0,0,0,0,0,0,-1,1441,624,0,0
224,400,0,0,0,0,0,0,0,0,0,-1,1448,624,0,0
231,400,0,0,0,0,0,0,0,0,0,-1,1455,624,0,0
238,400,0,0,0,0,0,0,0,0,0,-1,1462,624,0,0
245,400,0,0,0,0,0,0,0,0,0,-1,1469,624,0,0
252,400,0,0,0,0,0,0,0,0,0,-1,1476,624,0,0
259,400,0,0,0,0,0,0,0,0,0,-1,1483,624,0,0
266,400,0,0,0,0,0,0,0,0,0,-1,1490,624,0,0
273,400,0,0,0,0,0,0,0,0,0,-1,1497,624,0,0
280,400,0,0,0,0,0,0,0,0,0,-1,1504,624,0,0
287,400,0,0,0,0,0,0,0,0,0,-1,1511,624,0,0
294,400,0,0,0,0,0,0,0,0,0,-1,1518,624,0,0
301,400,0,0,0,0,0,0,0,0,0,-1,1525,624,0,0
308,400,0,0,0,0,0,0,0,0,0,-1,1532,624,0,0
315,400,0,0,0,0,0,0,0,0,0,-1,1539,624,0,0
322,400,0,0,0,0,0,0,0,0,0,-1,1546,624,0,0
329,400,0,0,0,0,0,0,0,0,0,-1,1553,624,0,0
336,400,0,0,0,0,0,0,0,0,0,-1,1560,624,0,0
343,400,0,0,0,0,0,0,0,0,0,-1,1567,624,0,0
350,400,0,0,0,0,0,0,0,0,0,-1,1574,624,0,0
357,400,0,0,0,0,0,0,0,0,0,-1,1581,624,0,0
364,400,0,0,0,0,0,0,0,0,0,-1,1588,624,0,0
371,400,0,0,0,0,0,0,0,0,0,-1,1595,624,0,0
378,400,0,0,0,0,0,0,0,0,0,-1,1602,624,0,0
385,400,0,0,0,0,0,0,0,0,0,-1,1609,624,0,0
392,400,0,0,0,0,0,0,0,0,0,-1,1616,624,0,0
399,400,0,0,0,0,0,0,0,0,0,-1,1623,624,0,0
406,400,0,0,0,0,0,0,0,0,0,-1,1630,624,0,0
413,400,0,0,0,0,0,0,0,0,0,-1,1637,624,0,0
420,400,0,0,0,0,0,0,0,0,0,-1,1644,624,0,0
427,400,0,0,0,0,0,0,0,0,0,-1,1651,624,0,0
434,400,0,0,0,0,0,0,0,0,0,-1,1658,624,0,0
441,400,0,0,0,0,0,0,0,0,0,-1,1665,624,0,0
448,400,0,0,0,0,0,0,0,0,0,-1,1672,624,0,0
455,400,8.91309,2.75885,0,0,0,0,0,0,0,-1,1679,624,8.91312,-2.75885
462,400,8.90356,2.37878,0,0,0,0,0,0,0,-1,1686,624,8.90353,-2.37878
469,400,9.14429,1.76849,0,0,0,0,0,0,0,-1,1693,624,9.14432,-1.76847
476,400,9.23254,1.25995,0,0,0,0,0,0,0,-1,1700,624,9.23252,-1.25994
483,400,9.59766,0.562439,0,0,0,0,0,0,0,-1,1707,624,9.59771,-0.56242
490,400,9.92578,-0.213745,0,0,0,0,0,0,0,-1,1714,624,9.92579,0.21376
497,400,9.19141,0.175232,0,0,0,0,0,0,0,-1,1721,624,9.19138,-0.175209
504,400,9.23438,0.00823975,0,0,0,0,0,0,0,-1,1728,624,9.23436,-0.00823766
511,400,6.16687,3.3501,0,0,0,0,0,0,0,-1,1735,624,6.16682,-3.35007
518,400,6.55237,1.74994,0,0,0,0,0,0,0,-1,1742,624,6.55236,-1.74993
525,400,6.99731,1.08783,0,0,0,0,0,0,0,-1,1749,624,6.99736,-1.08785
532,400,6.96582,-1.74982,0,0,0,0,0,0,0,-1,1756,624,6.96585,1.74983
539,400,21.2305,-10.5841,0,0,0,0,0,0,0,-1,1763,624,21.2304,10.5841
546,400,32.8129,-21.0824,0,0,0,0,0,0,0,-1,1770,624,32.8129,21.0824
553,400,32.6166,-20.176,0.00377931,0.00116806,0.00169256,0.0046113,0.000336072,0.456872,0.00296853,0.0460383,1777,624,32.6166,20.176
560,400,32.6729,-19.1995,0.00294602,0.000867359,0.00115665,0.0034617,0.000351681,0.419386,0.00219996,0.0170641,1784,624,32.6729,19.1995
567,400,32.6436,-18.2682,0.00225512,0.000675354,0.000822041,0.00260527,0.000325208,0.402673,0.00163923,0.018653,1791,624,32.6435,18.2682
574,400,32.593,-17.3125,0.00190975,0.000869,0.000820629,0.00236108,0.000417664,0.502834,0.00145496,0.0217215,1798,624,32.593,17.3125
581,400,32.4901,-16.3869,0.00175356,0.00126108,0.00102451,0.00256101,0.000453633,0.667463,0.00157801,0.0233937,1805,624,32.4901,16.3869
588,400,32.3641,-15.3928,0.00183436,0.00198496,0.00148771,0.00339927,0.000420049,0.810683,0.00213995,0.0206681,1812,624,32.3642,15.3928
595,400,32.3889,-14.4908,0.00223703,0.0029408,0.00219826,0.00481516,0.00036267,0.864762,0.00309631,0.0194746,1819,624,32.389,14.4908
602,400,32.3628,-13.577,0.00288713,0.00415459,0.00310854,0.00669334,0.000348377,0.885954,0.00435075,0.0180653,1826,624,32.3628,13.577
609,400,32.1981,-12.6124,0.00381717,0.00564552,0.00425339,0.00908187,0.000380815,0.891252,0.00593172,0.0162085,1833,624,32.1981,12.6125
616,400,32.1455,-11.6418,0.0050758,0.00747739,0.00563777,0.0120408,0.000512361,0.890326,0.007862,0.0191769,1840,624,32.1455,11.6418
623,400,32.1619,-10.6385,0,0,0,0,0,0,0,-1,1847,624,32.1619,10.6385
630,400,11.9432,0.09021,0,0,0,0,0,0,0,-1,1854,624,11.9432,-0.0902007
637,400,6.92896,1.01917,0,0,0,0,0,0,0,-1,1861,624,6.92899,-1.01918
644,400,8.65381,1.4599,0,0,0,0,0,0,0,-1,1868,624,8.65379,-1.45991
651,400,7.90601,0.424072,0,0,0,0,0,0,0,-1,1875,624,7.90598,-0.424097
658,400,8.69031,1.0484,0,0,0,0,0,0,0,-1,1882,624,8.6903,-1.0484
665,400,5.98438,0.522522,0,0,0,0,0,0,0,-1,1889,624,5.98442,-0.522552
672,400,0,0,0,0,0,0,0,0,0,-1,1896,624,0,0
679,400,0,0,0,0,0,0,0,0,0,-1,1903,624,0,0
686,400,0,0,0,0,0,0,0,0,0,-1,1910,624,0,0
693,400,0,0,0,0,0,0,0,0,0,-1,1917,624,0,0
700,400,0,0,0,0,0,0,0,0,0,-1,1924,624,0,0
707,400,0,0,0,0,0,0,0,0,0,-1,1931,624,0,0
714,400,0,0,0,0,0,0,0,0,0,-1,1938,624,0,0
721,400,0,0,0,0,0,0,0,0,0,-1,1945,624,0,0
728,400,0,0,0,0,0,0,0,0,0,-1,1952,624,0,0
735,400,0,0,0,0,0,0,0,0,0,-1,1959,624,0,0
742,400,0,0,0,0,0,0,0,0,0,-1,1966,624,0,0
749,400,0,0,0,0,0,0,0,0,0,-1,1973,624,0,0
756,400,0,0,0,0,0,0,0,0,0,-1,1980,624,0,0
763,400,0,0,0,0,0,0,0,0,0,-1,1987,624,0,0
770,400,0,0,0,0,0,0,0,0,0,-1,1994,624,0,0
777,400,0,0,0,0,0,0,0,0,0,-1,2001,624,0,0
784,400,0,0,0,0,0,0,0,0,0,-1,2008,624,0,0
791,400,0,0,0,0,0,0,0,0,0,-1,2015,624,0,0
798,400,0,0,0,0,0,0,0,0,0,-1,2022,624,0,0
805,400,0,0,0,0,0,0,0,0,0,-1,2029,624,0,0
812,400,0,0,0,0,0,0,0,0,0,-1,2036,624,0,0
-700,393,0,0,0,0,0,0,0,0,0,-1,524,631,0,0
-693,393,0,0,0,0,0,0,0,0,0,-1,531,631,0,0
-686,393,0,0,0,0,0,0,0,0,0,-1,538,631,0,0
-679,393,0,0,0,0,0,0,0,0,0,-1,545,631,0,0
-672,393,0,0,0,0,0,0,0,0,0,-1,552,631,0,0
-665,393,0,0,0,0,0,0,0,0,0,-1,559,631,0,0
-658,393,0,0,0,0,0,0,0,0,0,-1,566,631,0,0
-651,393,0,0,0,0,0,0,0,0,0,-1,573,631,0,0
-644,393,0,0,0,0,0,0,0,0,0,-1,580,631,0,0
-637,393,0,0,0,0,0,0,0,0,0,-1,587,631,0,0
-630,393,0,0,0,0,0,0,0,0,0,-1,594,631,0,0
-623,393,0,0,0,0,0,0,0,0,0,-1,601,631,0,0
-616,393,0,0,0,0,0,0,0,0,0,-1,608,631,0,0
-609,393,0,0,0,0,0,0,0,0,0,-1,615,631,0,0
-602,393,0,0,0,0,0,0,0,0,0,-1,622,631,0,0
-595,393,0,0,0,0,0,0,0,0,0,-1,629,631,0,0
-588,393,0,0,0,0,0,0,0,0,0,-1,636,631,0,0
-581,393,0,0,0,0,0,0,0,0,0,-1,643,631,0,0
-574,393,0,0,0,0,0,0,0,0,0,-1,650,631,0,0
-567,393,0,0,0,0,0,0,0,0,0,-1,657,631,0,0
-560,393,0,0,0,0,0,0,0,0,0,-1,664,631,0,0
-553,393,-2.35107,3.92633,0,0,0,0,0,0,0,-1,671,631,-2.35108,-3.92634
-546,393,-1.78778,2.4856,0,0,0,0,0,0,0,-1,678,631,-1.78778,-2.48557
-539,393,-5.2113,-2.20245,0,0,0,0,0,0,0,-1,685,631,-5.21128,2.20247
-532,393,-2.83643,-2.01624,0,0,0,0,0,0,0,-1,692,631,-2.83642,2.01626
-525,393,-5.9505,-0.952698,0,0,0,0,0,0,0,-1,699,631,-5.95053,0.95268
-518,393,-5.80219,-1.57739,0,0,0,0,0,0,0,-1,706,631,-5.80219,1.57738
-511,393,-6.15527,-2.09906,0,0,0,0,0,0,0,-1,713,631,-6.15526,2.09903
-504,393,-13.6063,-6.95947,0,0,0,0,0,0,0,-1,720,631,-13.6063,6.95946
-497,393,-17.7281,-11.0694,0,0,0,0,0,0,0,-1,727,631,-17.7281,11.0694
-490,393,-17.6663,-12.0754,-1.10096e-05,0.000641128,0.000892683,0.00126543,-0.000635311,0.960504,0.00111731,0.0265418,734,631,-17.6663,12.0754
-483,393,-17.668,-13.0626,-0.00019854,0.000614689,0.000698468,0.00101628,-0.000600129,1.04899,0.000943486,0.0204898,741,631,-17.668,13.0625
-476,393,-17.7406,-13.971,-0.000160562,0.000566541,0.000445754,0.000778199,-0.00037222,1.12748,0.00067784,0.0187773,748,631,-17.7406,13.971
-469,393,-17.8069,-14.8964,0.000123616,0.000459298,0.000147951,0.000515199,6.77156e-05,1.20955,0.000323267,0.0135922,755,631,-17.8069,14.8964
-462,393,-17.8621,-15.8876,0.000583162,0.000303069,-0.000172449,0.000665268,0.000220963,-0.444359,0.000391241,0.0146043,762,631,-17.8621,15.8876
-455,393,-17.9262,-16.8643,0.00120634,0.000303304,-0.000573886,0.00148504,2.46068e-05,-0.452086,0.000981925,0.0152044,769,631,-17.9262,16.8643
-448,393,-18.0042,-17.7936,0.00198233,0.000267279,-0.000984089,0.0024301,-0.000180484,-0.427007,0.00168345,0.0147118,776,631,-18.0042,17.7937
-441,393,-18.0784,-18.6693,0.00289274,0.000348386,-0.00145922,0.00355648,-0.000315352,-0.426886,0.00248279,0.0138704,783,631,-18.0784,18.6693
-434,393,-18.1309,-19.5557,0.0040092,0.000634814,-0.00203915,0.00496865,-0.000324642,-0.439785,0.00342578,0.0134632,790,631,-18.1309,19.5558
-427,393,-18.098,-20.5194,0.00521068,0.00104413,-0.00272033,0.00655381,-0.000298998,-0.458625,0.00447221,0.0268726,797,631,-18.098,20.5194
-420,393,-17.9869,-21.5754,0,0,0,0,0,0,0,-1,804,631,-17.9869,21.5755
-413,393,-15.0913,-18.3777,0,0,0,0,0,0,0,-1,811,631,-15.0913,18.3777
-406,393,-11.826,-12.7987,0,0,0,0,0,0,0,-1,818,631,-11.8261,12.7987
-399,393,-5.07343,-5.92365,0,0,0,0,0,0,0,-1,825,631,-5.07344,5.92364
-392,393,-2.08063,-3.02386,0,0,0,0,0,0,0,-1,832,631,-2.08063,3.02384
-385,393,-3.16931,-0.624756,0,0,0,0,0,0,0,-1,839,631,-3.16928,0.624764
-378,393,-7.33081,-0.872314,0,0,0,0,0,0,0,-1,846,631,-7.33081,0.872325
-371,393,-7.47858,-0.811096,0,0,0,0,0,0,0,-1,853,631,-7.47859,0.811075
-364,393,-7.64917,-0.662415,0,0,0,0,0,0,0,-1,860,631,-7.64917,0.662406
-357,393,-8.09686,-0.726013,0,0,0,0,0,0,0,-1,867,631,-8.09689,0.726029
-350,393,-8.38788,-0.511841,0,0,0,0,0,0,0,-1,874,631,-8.38785,0.511811
-343,393,0,0,0,0,0,0,0,0,0,-1,881,631,0,0
-336,393,0,0,0,0,0,0,0,0,0,-1,888,631,0,0
-329,393,0,0,0,0,0,0,0,0,0,-1,895,631,0,0
-322,393,0,0,0,0,0,0,0,0,0,-1,902,631,0,0
-315,393,0,0,0,0,0,0,0,0,0,-1,909,631,0,0
-308,393,0,0,0,0,0,0,0,0,0,-1,916,631,0,0
-301,393,0,0,0,0,0,0,0,0,0,-1,923,631,0,0
-294,393,0,0,0,0,0,0,0,0,0,-1,930,631,0,0
-287,393,0,0,0,0,0,0,0,0,0,-1,937,631,0,0
-280,393,0,0,0,0,0,0,0,0,0,-1,944,631,0,0
-273,393,0,0,0,0,0,0,0,0,0,-1,951,631,0,0
-266,393,0,0,0,0,0,0,0,0,0,-1,958,631,0,0
-259,393,0,0,0,0,0,0,0,0,0,-1,965,631,0,0
-252,393,0,0,0,0,0,0,0,0,0,-1,972,631,0,0
-245,393,0,0,0,0,0,0,0,0,0,-1,979,631,0,0
-238,393,0,0,0,0,0,0,0,0,0,-1,986,631,0,0
-231,393,0,0,0,0,0,0,0,0,0,-1,993,631,0,0
-224,393,0,0,0,0,0,0,0,0,0,-1,1000,631,0,0
-217,393,0,0,0,0,0,0,0,0,0,-1,1007,631,0,0
-210,393,0,0,0,0,0,0,0,0,0,-1,1014,631,0,0
-203,393,0,0,0,0,0,0,0,0,0,-1,1021,631,0,0
-196,393,0,0,0,0,0,0,0,0,0,-1,1028,631,0,0
-189,393,0,0,0,0,0,0,0,0,0,-1,1035,631,0,0
-182,393,0,0,0,0,0,0,0,0,0,-1,1042,631,0,0
-175,393,0,0,0,0,0,0,0,0,0,-1,1049,631,0,0
-168,393,0,0,0,0,0,0,0,0,0,-1,1056,631,0,0
-161,393,0,0,0,0,0,0,0,0,0,-1,1063,631,0,0
-154,393,0,0,0,0,0,0,0,0,0,-1,1070,631,0,0
-147,393,0,0,0,0,0,0,0,0,0,-1,1077,631,0,0
-140,393,0,0,0,0,0,0,0,0,0,-1,1084,631,0,0
-133,393,0,0,0,0,0,0,0,0,0,-1,1091,631,0,0
-126,393,0,0,0,0,0,0,0,0,0,-1,1098,631,0,0
-119,393,0,0,0,0,0,0,0,0,0,-1,1105,631,0,0
-112,393,0,0,0,0,0,0,0,0,0,-1,1112,631,0,0
-105,393,0,0,0,0,0,0,0,0,0,-1,1119,631,0,0
-98,393,0,0,0,0,0,0,0,0,0,-1,1126,631,0,0
-91,393,0,0,0,0,0,0,0,0,0,-1,1133,631,0,0
-84,393,0,0,0,0,0,0,0,0,0,-1,1140,631,0,0
-77,393,0,0,0,0,0,0,0,0,0,-1,1147,631,0,0
-70,393,0,0,0,0,0,0,0,0,0,-1,1154,631,0,0
-63,393,0,0,0,0,0,0,0,0,0,-1,1161,631,0,0
-56,393,0,0,0,0,0,0,0,0,0,-1,1168,631,0,0
-49,393,0,0,0,0,0,0,0,0,0,-1,1175,631,0,0
-42,393,0,0,0,0,0,0,0,0,0,-1,1182,631,0,0
-35,393,0,0,0,0,0,0,0,0,0,-1,1189,631,0,0
-28,393,0,0,0,0,0,0,0,0,0,-1,1196,631,0,0
-21,393,0,0,0,0,0,0,0,0,0,-1,1203,631,0,0
-14,393,0,0,0,0,0,0,0,0,0,-1,1210,631,0,0
-7,393,0,0,0,0,0,0,0,0,0,-1,1217,631,0,0
0,393,0,0,0,0,0,0,0,0,0,-1,1224,631,0,0
7,393,0,0,0,0,0,0,0,0,0,-1,1231,631,0,0
14,393,0,0,0,0,0,0,0,0,0,-1,1238,631,0,0
21,393,0,0,0,0,0,0,0,0,0,-1,1245,631,0,0
28,393,0,0,0,0,0,0,0,0,0,-1,1252,631,0,0
35,393,0,0,0,0,0,0,0,0,0,-1,1259,631,0,0
42,393,0,0,0,0,0,0,0,0,0,-1,1266,631,0,0
49,393,0,0,0,0,0,0,0,0,0,-1,1273,631,0,0
56,393,0,0,0,0,0,0,0,0,0,-1,1280,631,0,0
63,393,0,0,0,0,0,0,0,0,0,-1,1287,631,0,0
70,393,0,0,0,0,0,0,0,0,0,-1,1294,631,0,0
77,393,0,0,0,0,0,0,0,0,0,-1,1301,631,0,0
84,393,0,0,0,0,0,0,0,0,0,-1,1308,631,0,0
91,393,0,0,0,0,0,0,0,0,0,-1,1315,631,0,0
98,393,0,0,0,0,0,0,0,0,0,-1,1322,631,0,0
105,393,0,0,0,0,0,0,0,0,0,-1,1329,631,0,0
112,393,0,0,0,0,0,0,0,0,0,-1,1336,631,0,0
119,393,0,0,0,0,0,0,0,0,0,-1,1343,631,0,0
126,393,0,0,0,0,0,0,0,0,0,-1,1350,631,0,0
133,393,0,0,0,0,0,0,0,0,0,-1,1357,631,0,0
140,393,0,0,0,0,0,0,0,0,0,-1,1364,631,0,0
147,393,0,0,0,0,0,0,0,0,0,-1,1371,631,0,0
154,393,0,0,0,0,0,0,0,0,0,-1,1378,631,0,0
161,393,0,0,0,0,0,0,0,0,0,-1,1385,631,0,0
168,393,0,0,0,0,0,0,0,0,0,-1,1392,631,0,0
175,393,0,0,0,0,0,0,0,0,0,-1,1399,631,0,0
182,393,0,0,0,0,0,0,0,0,0,-1,1406,631,0,0
189,393,0,0,0,0,0,0,0,0,0,-1,1413,631,0,0
196,393,0,0,0,0,0,0,0,0,0,-1,1420,631,0,0
203,393,0,0,0,0,0,0,0,0,0,-1,1427,631,0,0
210,393,0,0,0,0,0,0,0,0,0,-1,1434,631,0,0
217,393,0,0,0,0,0,0,0,0,0,-1,1441,631,0,0
224,393,0,0,0,0,0,0,0,0,0,-1,1448,631,0,0
231,393,0,0,0,0,0,0,0,0,0,-1,1455,631,0,0
238,393,0,0,0,0,0,0,0,0,0,-1,1462,631,0,0
245,393,0,0,0,0,0,0,0,0,0,-1,1469,631,0,0
252,393,0,0,0,0,0,0,0,0,0,-1,1476,631,0,0
259,393,0,0,0,0,0,0,0,0,0,-1,1483,631,0,0
266,393,0,0,0,0,0,0,0,0,0,-1,1490,631,0,0
273,393,0,0,0,0,0,0,0,0,0,-1,1497,631,0,0
280,393,0,0,0,0,0,0,0,0,0,-1,1504,631,0,0
287,393,0,0,0,0,0,0,0,0,0,-1,1511,631,0,0
294,393,0,0,0,0,0,0,0,0,0,-1,1518,631,0,0
301,393,0,0,0,0,0,0,0,0,0,-1,1525,631,0,0
308,393,0,0,0,0,0,0,0,0,0,-1,1532,631,0,0
315,393,0,0,0,0,0,0,0,0,0,-1,1539,631,0,0
322,393,0,0,0,0,0,0,0,0,0,-1,1546,631,0,0
329,393,0,0,0,0,0,0,0,0,0,-1,1553,631,0,0
336,393,0,0,0,0,0,0,0,0,0,-1,1560,631,0,0
343,393,0,0,0,0,0,0,0,0,0,-1,1567,631,0,0
350,393,0,0,0,0,0,0,0,0,0,-1,1574,631,0,0
357,393,0,0,0,0,0,0,0,0,0,-1,1581,631,0,0
364,393,0,0,0,0,0,0,0,0,0,-1,1588,631,0,0
371,393,0,0,0,0,0,0,0,0,0,-1,1595,631,0,0
378,393,0,0,0,0,0,0,0,0,0,-1,1602,631,0,0
385,393,0,0,0,0,0,0,0,0,0,-1,1609,631,0,0
392,393,0,0,0,0,0,0,0,0,0,-1,1616,631,0,0
399,393,0,0,0,0,0,0,0,0,0,-1,1623,631,0,0
406,393,0,0,0,0,0,0,0,0,0,-1,1630,631,0,0
413,393,0,0,0,0,0,0,0,0,0,-1,1637,631,0,0
420,393,0,0,0,0,0,0,0,0,0,-1,1644,631,0,0
427,393,0,0,0,0,0,0,0,0,0,-1,1651,631,0,0
434,393,0,0,0,0,0,0,0,0,0,-1,1658,631,0,0
441,393,0,0,0,0,0,0,0,0,0,-1,1665,631,0,0
448,393,0,0,0,0,0,0,0,0,0,-1,1672,631,0,0
455,393,0,0,0,0,0,0,0,0,0,-1,1679,631,0,0
462,393,8.51099,1.89502,0,0,0,0,0,0,0,-1,1686,631,8.51103,-1.89504
469,393,9.39465,1.51703,0,0,0,0,0,0,0,-1,1693,631,9.39465,-1.51703
476,393,9.95569,1.185,0,0,0,0,0,0,0,-1,1700,631,9.95575,-1.18497
483,393,10.5267,0.887329,0,0,0,0,0,0,0,-1,1707,631,10.5267,-0.887321
490,393,10.9303,0.761414,0,0,0,0,0,0,0,-1,1714,631,10.9303,-0.761386
497,393,8.32153,1.88104,0,0,0,0,0,0,0,-1,1721,631,8.32148,-1.88103
504,393,9.46985,1.78711,0,0,0,0,0,0,0,-1,1728,631,9.46986,-1.78713
511,393,9.66565,-0.375977,0,0,0,0,0,0,0,-1,1735,631,9.66571,0.375949
518,393,7.01599,1.62482,0,0,0,0,0,0,0,-1,1742,631,7.01597,-1.62483
525,393,7.88245,-1.13422,0,0,0,0,0,0,0,-1,1749,631,7.88246,1.13423
532,393,7.06335,-1.18103,0,0,0,0,0,0,0,-1,1756,631,7.06332,1.18101
539,393,9.91626,-2.46301,0,0,0,0,0,0,0,-1,1763,631,9.91625,2.46302
546,393,16.4094,-8.04651,0,0,0,0,0,0,0,-1,1770,631,16.4094,8.04649
553,393,33.2902,-20.3198,0,0,0,0,0,0,0,-1,1777,631,33.2902,20.3198
560,393,33.5946,-19.1865,0.00316902,0.000811207,0.00114785,0.00363552,0.000344702,0.386026,0.00231734,0.0444163,1784,631,33.5946,19.1865
567,393,33.5424,-18.1887,0.00225297,0.000367663,0.00062553,0.00244163,0.000178997,0.292933,0.00157149,0.0166679,1791,631,33.5424,18.1887
574,393,33.527,-17.2658,0.00176224,0.000414028,0.000536432,0.00194963,0.000226637,0.336077,0.00123118,0.0160356,1798,631,33.5269,17.2658
581,393,33.3967,-16.3046,0.00149293,0.000703692,0.000659476,0.00186684,0.000329786,0.515782,0.0011505,0.01881,1805,631,33.3968,16.3046
588,393,33.2953,-15.3066,0.00150857,0.00130171,0.00103707,0.00244735,0.00036293,0.735696,0.00152506,0.0226702,1812,631,33.2953,15.3066
595,393,33.317,-14.4258,0.00186797,0.00213047,0.00165579,0.0036602,0.000338231,0.82495,0.00233557,0.0190057,1819,631,33.317,14.4258
602,393,33.2831,-13.5136,0.00247597,0.00316817,0.00245138,0.00529776,0.000346378,0.855527,0.00342223,0.0196365,1826,631,33.2831,13.5136
609,393,33.1761,-12.5702,0.00328125,0.00442538,0.00341003,0.00731099,0.000395634,0.868504,0.00474761,0.0171613,1833,631,33.1762,12.5702
616,393,33.098,-11.6224,0.0043041,0.0059631,0.00451415,0.00972333,0.000543872,0.876262,0.00630875,0.015723,1840,631,33.0981,11.6224
623,393,33.0979,-10.5281,0.00551315,0.00761547,0.00577273,0.012432,0.000696662,0.875457,0.00806579,0.0357922,1847,631,33.0979,10.5282
630,393,33.394,-9.46484,0,0,0,0,0,0,0,-1,1854,631,33.3941,9.46487
637,393,11.4626,0.608887,0,0,0,0,0,0,0,-1,1861,631,11.4627,-0.608904
644,393,8.97583,1.30585,0,0,0,0,0,0,0,-1,1868,631,8.97586,-1.30584
651,393,11.348,0.53302,0,0,0,0,0,0,0,-1,1875,631,11.348,-0.53305
658,393,9.21338,1.50836,0,0,0,0,0,0,0,-1,1882,631,9.21338,-1.50834
665,393,6.1001,2.32129,0,0,0,0,0,0,0,-1,1889,631,6.10012,-2.3213
672,393,7.14575,2.43225,0,0,0,0,0,0,0,-1,1896,631,7.14572,-2.43222
679,393,0,0,0,0,0,0,0,0,0,-1,1903,631,0,0
686,393,0,0,0,0,0,0,0,0,0,-1,1910,631,0,0
693,393,0,0,0,0,0,0,0,0,0,-1,1917,631,0,0
700,393,0,0,0,0,0,0,0,0,0,-1,1924,631,0,0
707,393,0,0,0,0,0,0,0,0,0,-1,1931,631,0,0
714,393,0,0,0,0,0,0,0,0,0,-1,1938,631,0,0
721,393,0,0,0,0,0,0,0,0,0,-1,1945,631,0,0
728,393,0,0,0,0,0,0,0,0,0,-1,1952,631,0,0
735,393,0,0,0,0,0,0,0,0,0,-1,1959,631,0,0
742,393,0,0,0,0,0,0,0,0,0,-1,1966,631,0,0
749,393,0,0,0,0,0,0,0,0,0,-1,1973,631,0,0
756,393,0,0,0,0,0,0,0,0,0,-1,1980,631,0,0
763,393,0,0,0,0,0,0,0,0,0,-1,1987,631,0,0
770,393,0,0,0,0,0,0,0,0,0,-1,1994,631,0,0
777,393,0,0,0,0,0,0,0,0,0,-1,2001,631,0,0
784,393,0,0,0,0,0,0,0,0,0,-1,2008,631,0,0
791,393,0,0,0,0,0,0,0,0,0,-1,2015,631,0,0
798,393,0,0,0,0,0,0,0,0,0,-1,2022,631,0,0
805,393,0,0,0,0,0,0,0,0,0,-1,2029,631,0,0
812,393,0,0,0,0,0,0,0,0,0,-1,2036,631,0,0
-700,386,0,0,0,0,0,0,0,0,0,-1,524,638,0,0
-693,386,0,0,0,0,0,0,0,0,0,-1,531,638,0,0
-686,386,0,0,0,0,0,0,0,0,0,-1,538,638,0,0
-679,386,0,0,0,0,0,0,0,0,0,-1,545,638,0,0
-672,386,0,0,0,0,0,0,0,0,0,-1,552,638,0,0
-665,386,0,0,0,0,0,0,0,0,0,-1,559,638,0,0
-658,386,0,0,0,0,0,0,0,0,0,-1,566,638,0,0
-651,386,0,0,0,0,0,0,0,0,0,-1,573,638,0,0
-644,386,0,0,0,0,0,0,0,0,0,-1,580,638,0,0
-637,386,0,0,0,0,0,0,0,0,0,-1,587,638,0,0
-630,386,0,0,0,0,0,0,0,0,0,-1,594,638,0,0
-623,386,0,0,0,0,0,0,0,0,0,-1,601,638,0,0
-616,386,0,0,0,0,0,0,0,0,0,-1,608,638,0,0
-609,386,0,0,0,0,0,0,0,0,0,-1,615,638,0,0
-602,386,0,0,0,0,0,0,0,0,0,-1,622,638,0,0
-595,386,0,0,0,0,0,0,0,0,0,-1,629,638,0,0
-588,386,0,0,0,0,0,0,0,0,0,-1,636,638,0,0
-581,386,0,0,0,0,0,0,0,0,0,-1,643,638,0,0
-574,386,0,0,0,0,0,0,0,0,0,-1,650,638,0,0
-567,386,0,0,0,0,0,0,0,0,0,-1,657,638,0,0
-560,386,-3.97229,-5.13898,0,0,0,0,0,0,0,-1,664,638,-3.97232,5.13897
-553,386,-4.94244,-5.54309,0,0,0,0,0,0,0,-1,671,638,-4.94242,5.5431
-546,386,-1.78668,1.72827,0,0,0,0,0,0,0,-1,678,638,-1.78668,-1.72829
-539,386,-0.879456,-2.90009,0,0,0,0,0,0,0,-1,685,638,-0.879442,2.90008
-532,386,-5.4884,1.73328,0,0,0,0,0,0,0,-1,692,638,-5.4884,-1.73325
-525,386,-6.64148,-1.50604,0,0,0,0,0,0,0,-1,699,638,-6.64149,1.50603
-518,386,-11.1217,-4.10382,0,0,0,0,0,0,0,-1,706,638,-11.1217,4.1038
-511,386,-13.0612,-5.05151,0,0,0,0,0,0,0,-1,713,638,-13.0612,5.05149
-504,386,-18.6106,-10.0272,0,0,0,0,0,0,0,-1,720,638,-18.6106,10.0272
-497,386,-18.5469,-11.1782,0,0,0,0,0,0,0,-1,727,638,-18.5469,11.1782
-490,386,-18.5901,-12.1002,0.000667584,0.000363673,0.000440371,0.000981479,4.9778e-05,0.619264,0.000638374,0.0134796,734,638,-18.5902,12.1002
-483,386,-18.6151,-13.0322,0.000450482,0.000390715,0.000311247,0.000733277,0.00010792,0.737539,0.000457144,0.0178307,741,638,-18.6151,13.0323
-476,386,-18.6801,-13.9664,0.000447543,0.00037531,0.00011353,0.000530563,0.00029229,0.631397,0.000306849,0.0179499,748,638,-18.6801,13.9664
-469,386,-18.753,-14.8809,0.000663877,0.000304711,-0.000130952,0.000706551,0.000262036,-0.315028,0.000412438,0.0128068,755,638,-18.753,14.8808
-462,386,-18.8011,-15.8363,0.00105451,0.000180352,-0.000422308,0.0012252,9.66317e-06,-0.384105,0.000813599,0.0114696,762,638,-18.8012,15.8363
-455,386,-18.8554,-16.803,0.00164516,0.000210365,-0.000821754,0.0020186,-0.000163082,-0.426549,0.00140326,0.0138764,769,638,-18.8554,16.803
-448,386,-18.9487,-17.7067,0.0024206,0.000182702,-0.00124295,0.00297406,-0.000370764,-0.418926,0.00211715,0.0143199,776,638,-18.9487,17.7067
-441,386,-19.024,-18.6033,0.00337502,0.000286495,-0.00176943,0.00417929,-0.000517778,-0.426622,0.00297385,0.0147782,783,638,-19.024,18.6033
-434,386,-18.9944,-19.5682,0.00467374,0.000676701,-0.00248021,0.00586042,-0.000509984,-0.446269,0.00408756,0.0334139,790,638,-18.9944,19.5682
-427,386,-18.8903,-20.6187,0,0,0,0,0,0,0,-1,797,638,-18.8903,20.6187
-420,386,-14.5338,-16.0451,0,0,0,0,0,0,0,-1,804,638,-14.5338,16.0451
-413,386,-5.45691,-5.35785,0,0,0,0,0,0,0,-1,811,638,-5.45691,5.35783
-406,386,-4.51135,-4.10999,0,0,0,0,0,0,0,-1,818,638,-4.51135,4.10996
-399,386,-3.57117,-3.42126,0,0,0,0,0,0,0,-1,825,638,-3.57116,3.42129
-392,386,-4.00977,0.403625,0,0,0,0,0,0,0,-1,832,638,-4.0098,-0.403616
-385,386,-3.2406,-0.118469,0,0,0,0,0,0,0,-1,839,638,-3.24058,0.118485
-378,386,-2.55243,-1.22748,0,0,0,0,0,0,0,-1,846,638,-2.55243,1.22748
-371,386,-7.95807,-0.330261,0,0,0,0,0,0,0,-1,853,638,-7.95806,0.330284
-364,386,-8.90637,-0.665955,0,0,0,0,0,0,0,-1,860,638,-8.90635,0.665951
-357,386,-9.10364,-0.388733,0,0,0,0,0,0,0,-1,867,638,-9.10364,0.388744
-350,386,0,0,0,0,0,0,0,0,0,-1,874,638,0,0
-343,386,0,0,0,0,0,0,0,0,0,-1,881,638,0,0
-336,386,0,0,0,0,0,0,0,0,0,-1,888,638,0,0
-329,386,0,0,0,0,0,0,0,0,0,-1,895,638,0,0
-322,386,0,0,0,0,0,0,0,0,0,-1,902,638,0,0
-315,386,0,0,0,0,0,0,0,0,0,-1,909,638,0,0
-308,386,0,0,0,0,0,0,0,0,0,-1,916,638,0,0
-301,386,0,0,0,0,0,0,0,0,0,-1,923,638,0,0
-294,386,0,0,0,0,0,0,0,0,0,-1,930,638,0,0
-287,386,0,0,0,0,0,0,0,0,0,-1,937,638,0,0
-280,386,0,0,0,0,0,0,0,0,0,-1,944,638,0,0
-273,386,0,0,0,0,0,0,0,0,0,-1,951,638,0,0
-266,386,0,0,0,0,0,0,0,0,0,-1,958,638,0,0
-259,386,0,0,0,0,0,0,0,0,0,-1,965,638,0,0
-252,386,0,0,0,0,0,0,0,0,0,-1,972,638,0,0
-245,386,0,0,0,0,0,0,0,0,0,-1,979,638,0,0
-238,386,0,0,0,0,0,0,0,0,0,-1,986,638,0,0
-231,386,0,0,0,0,0,0,0,0,0,-1,993,638,0,0
-224,386,0,0,0,0,0,0,0,0,0,-1,1000,638,0,0
-217,386,0,0,0,0,0,0,0,0,0,-1,1007,638,0,0
-210,386,0,0,0,0,0,0,0,0,0,-1,1014,638,0,0
-203,386,0,0,0,0,0,0,0,0,0,-1,1021,638,0,0
-196,386,0,0,0,0,0,0,0,0,0,-1,1028,638,0,0
-189,386,0,0,0,0,0,0,0,0,0,-1,1035,638,0,0
-182,386,0,0,0,0,0,0,0,0,0,-1,1042,638,0,0
-175,386,0,0,0,0,0,0,0,0,0,-1,1049,638,0,0
-168,386,0,0,0,0,0,0,0,0,0,-1,1056,638,0,0
-161,386,0,0,0,0,0,0,0,0,0,-1,1063,638,0,0
-154,386,0,0,0,0,0,0,0,0,0,-1,1070,638,0,0
-147,386,0,0,0,0,0,0,0,0,0,-1,1077,638,0,0
-140,386,0,0,0,0,0,0,0,0,0,-1,1084,638,0,0
-133,386,0,0,0,0,0,0,0,0,0,-1,1091,638,0,0
-126,386,0,0,0,0,0,0,0,0,0,-1,1098,638,0,0
-119,386,0,0,0,0,0,0,0,0,0,-1,1105,638,0,0
-112,386,0,0,0,0,0,0,0,0,0,-1,1112,638,0,0
-105,386,0,0,0,0,0,0,0,0,0,-1,1119,638,0,0
-98,386,0,0,0,0,0,0,0,0,0,-1,1126,638,0,0
-91,386,0,0,0,0,0,0,0,0,0,-1,1133,638,0,0
-84,386,0,0,0,0,0,0,0,0,0,-1,1140,638,0,0
-77,386,0,0,0,0,0,0,0,0,0,-1,1147,638,0,0
-70,386,0,0,0,0,0,0,0,0,0,-1,1154,638,0,0
-63,386,0,0,0,0,0,0,0,0,0,-1,1161,638,0,0
-56,386,0,0,0,0,0,0,0,0,0,-1,1168,638,0,0
-49,386,0,0,0,0,0,0,0,0,0,-1,1175,638,0,0
-42,386,0,0,0,0,0,0,0,0,0,-1,1182,638,0,0
-35,386,0,0,0,0,0,0,0,0,0,-1,1189,638,0,0
-28,386,0,0,0,0,0,0,0,0,0,-1,1196,638,0,0
-21,386,0,0,0,0,0,0,0,0,0,-1,1203,638,0,0
-14,386,0,0,0,0,0,0,0,0,0,-1,1210,638,0,0
-7,386,0,0,0,0,0,0,0,0,0,-1,1217,638,0,0
0,386,0,0,0,0,0,0,0,0,0,-1,1224,638,0,0
7,386,0,0,0,0,0,0,0,0,0,-1,1231,638,0,0
14,386,0,0,0,0,0,0,0,0,0,-1,1238,638,0,0
21,386,0,0,0,0,0,0,0,0,0,-1,1245,638,0,0
28,386,0,0,0,0,0,0,0,0,0,-1,1252,638,0,0
35,386,0,0,0,0,0,0,0,0,0,-1,1259,638,0,0
42,386,0,0,0,0,0,0,0,0,0,-1,1266,638,0,0
49,386,0,0,0,0,0,0,0,0,0,-1,1273,638,0,0
56,386,0,0,0,0,0,0,0,0,0,-1,1280,638,0,0
63,386,0,0,0,0,0,0,0,0,0,-1,1287,638,0,0
70,386,0,0,0,0,0,0,0,0,0,-1,1294,638,0,0
77,386,0,0,0,0,0,0,0,0,0,-1,1301,638,0,0
84,386,0,0,0,0,0,0,0,0,0,-1,1308,638,0,0
91,386,0,0,0,0,0,0,0,0,0,-1,1315,638,0,0
98,386,0,0,0,0,0,0,0,0,0,-1,1322,638,0,0
105,386,0,0,0,0,0,0,0,0,0,-1,1329,638,0,0
112,386,0,0,0,0,0,0,0,0,0,-1,1336,638,0,0
119,386,0,0,0,0,0,0,0,0,0,-1,1343,638,0,0
126,386,0,0,0,0,0,0,0,0,0,-1,1350,638,0,0
133,386,0,0,0,0,0,0,0,0,0,-1,1357,638,0,0
140,386,0,0,0,0,0,0,0,0,0,-1,1364,638,0,0
147,386,0,0,0,0,0,0,0,0,0,-1,1371,638,0,0
154,386,0,0,0,0,0,0,0,0,0,-1,1378,638,0,0
161,386,0,0,0,0,0,0,0,0,0,-1,1385,638,0,0
168,386,0,0,0,0,0,0,0,0,0,-1,1392,638,0,0
175,386,0,0,0,0,0,0,0,0,0,-1,1399,638,0,0
182,386,0,0,0,0,0,0,0,0,0,-1,1406,638,0,0
189,386,0,0,0,0,0,0,0,0,0,-1,1413,638,0,0
196,386,0,0,0,0,0,0,0,0,0,-1,1420,638,0,0
203,386,0,0,0,0,0,0,0,0,0,-1,1427,638,0,0
210,386,0,0,0,0,0,0,0,0,0,-1,1434,638,0,0
217,386,0,0,0,0,0,0,0,0,0,-1,1441,638,0,0
224,386,0,0,0,0,0,0,0,0,0,-1,1448,638,0,0
231,386,0,0,0,0,0,0,0,0,0,-1,1455,638,0,0
238,386,0,0,0,0,0,0,0,0,0,-1,1462,638,0,0
245,386,0,0,0,0,0,0,0,0,0,-1,1469,638,0,0
252,386,0,0,0,0,0,0,0,0,0,-1,1476,638,0,0
259,386,0,0,0,0,0,0,0,0,0,-1,1483,638,0,0
266,386,0,0,0,0,0,0,0,0,0,-1,1490,638,0,0
273,386,0,0,0,0,0,0,0,0,0,-1,1497,638,0,0
280,386,0,0,0,0,0,0,0,0,0,-1,1504,638,0,0
287,386,0,0,0,0,0,0,0,0,0,-1,1511,638,0,0
294,386,0,0,0,0,0,0,0,0,0,-1,1518,638,0,0
301,386,0,0,0,0,0,0,0,0,0,-1,1525,638,0,0
308,386,0,0,0,0,0,0,0,0,0,-1,1532,638,0,0
315,386,0,0,0,0,0,0,0,0,0,-1,1539,638,0,0
322,386,0,0,0,0,0,0,0,0,0,-1,1546,638,0,0
329,386,0,0,0,0,0,0,0,0,0,-1,1553,638,0,0
336,386,0,0,0,0,0,0,0,0,0,-1,1560,638,0,0
343,386,0,0,0,0,0,0,0,0,0,-1,1567,638,0,0
350,386,0,0,0,0,0,0,0,0,0,-1,1574,638,0,0
357,386,0,0,0,0,0,0,0,0,0,-1,1581,638,0,0
364,386,0,0,0,0,0,0,0,0,0,-1,1588,638,0,0
371,386,0,0,0,0,0,0,0,0,0,-1,1595,638,0,0
378,386,0,0,0,0,0,0,0,0,0,-1,1602,638,0,0
385,386,0,0,0,0,0,0,0,0,0,-1,1609,638,0,0
392,386,0,0,0,0,0,0,0,0,0,-1,1616,638,0,0
399,386,0,0,0,0,0,0,0,0,0,-1,1623,638,0,0
406,386,0,0,0,0,0,0,0,0,0,-1,1630,638,0,0
413,386,0,0,0,0,0,0,0,0,0,-1,1637,638,0,0
420,386,0,0,0,0,0,0,0,0,0,-1,1644,638,0,0
427,386,0,0,0,0,0,0,0,0,0,-1,1651,638,0,0
434,386,0,0,0,0,0,0,0,0,0,-1,1658,638,0,0
441,386,0,0,0,0,0,0,0,0,0,-1,1665,638,0,0
448,386,0,0,0,0,0,0,0,0,0,-1,1672,638,0,0
455,386,0,0,0,0,0,0,0,0,0,-1,1679,638,0,0
462,386,0,0,0,0,0,0,0,0,0,-1,1686,638,0,0
469,386,9.84692,1.55804,0,0,0,0,0,0,0,-1,1693,638,9.84691,-1.55807
476,386,10.6145,0.986511,0,0,0,0,0,0,0,-1,1700,638,10.6145,-0.986529
483,386,11.4113,0.732971,0,0,0,0,0,0,0,-1,1707,638,11.4112,-0.732958
490,386,7.79785,1.79572,0,0,0,0,0,0,0,-1,1714,638,7.79788,-1.7957
497,386,8.96362,1.77081,0,0,0,0,0,0,0,-1,1721,638,8.96357,-1.77081
504,386,10.0555,1.69427,0,0,0,0,0,0,0,-1,1728,638,10.0555,-1.69426
511,386,11.2172,1.534,0,0,0,0,0,0,0,-1,1735,638,11.2172,-1.53398
518,386,7.41553,1.75238,0,0,0,0,0,0,0,-1,1742,638,7.41547,-1.75238
525,386,8.82422,-1.1449,0,0,0,0,0,0,0,-1,1749,638,8.82426,1.14492
532,386,10.6432,0.617371,0,0,0,0,0,0,0,-1,1756,638,10.6432,-0.617359
539,386,9.62061,-0.393616,0,0,0,0,0,0,0,-1,1763,638,9.62059,0.393634
546,386,10.7963,-2.854,0,0,0,0,0,0,0,-1,1770,638,10.7962,2.854
553,386,16.9939,-7.27942,0,0,0,0,0,0,0,-1,1777,638,16.9939,7.27944
560,386,34.3999,-19.4365,0,0,0,0,0,0,0,-1,1784,638,34.3999,19.4365
567,386,34.4125,-18.1789,0,0,0,0,0,0,0,-1,1791,638,34.4125,18.1789
574,386,34.4352,-17.186,0.00166925,0.000102412,0.000358244,0.00174727,2.43881e-05,0.214447,0.0011568,0.015561,1798,638,34.4351,17.186
581,386,34.3448,-16.2568,0.00125492,0.000287646,0.000376283,0.00138406,0.000158508,0.330599,0.00087467,0.0158357,1805,638,34.3449,16.2568
588,386,34.3032,-15.3159,0.00118858,0.000745041,0.0006481,0.0016518,0.000281816,0.620552,0.00102032,0.0141402,1812,638,34.3033,15.3158
595,386,34.2534,-14.3979,0.00147686,0.00143824,0.00115035,0.00260806,0.000307034,0.777005,0.00164594,0.0155687,1819,638,34.2534,14.3979
602,386,34.1875,-13.4841,0.00200623,0.00230308,0.00180452,0.00396527,0.00034405,0.826432,0.00253662,0.0168056,1826,638,34.1874,13.4841
609,386,34.1537,-12.548,0.00267804,0.00334102,0.00256543,0.00559629,0.000422775,0.849649,0.00359822,0.0158046,1833,638,34.1537,12.548
616,386,34.0889,-11.5706,0.00351729,0.0045944,0.00340695,0.0075051,0.00060659,0.863788,0.00481396,0.01305,1840,638,34.0889,11.5706
623,386,34.0061,-10.6116,0.00450548,0.00595094,0.0043701,0.00965767,0.000798751,0.867347,0.0061894,0.0115304,1847,638,34.0061,10.6116
630,386,34.098,-9.60931,0.00553137,0.00733733,0.00532732,0.0118377,0.00103105,0.86935,0.00757153,0.0377595,1854,638,34.0981,9.60933
637,386,34.2701,-8.58673,0,0,0,0,0,0,0,-1,1861,638,34.2702,8.58675
644,386,11.6521,0.723328,0,0,0,0,0,0,0,-1,1868,638,11.6521,-0.723355
651,386,9.3866,1.31097,0,0,0,0,0,0,0,-1,1875,638,9.3866,-1.31095
658,386,12.0731,-0.00415039,0,0,0,0,0,0,0,-1,1882,638,12.0731,0.00412803
665,386,6.33167,1.78601,0,0,0,0,0,0,0,-1,1889,638,6.33171,-1.78601
672,386,7.23352,2.14435,0,0,0,0,0,0,0,-1,1896,638,7.23353,-2.14433
679,386,8.07764,2.57104,0,0,0,0,0,0,0,-1,1903,638,8.07758,-2.57103
686,386,0,0,0,0,0,0,0,0,0,-1,1910,638,0,0
693,386,0,0,0,0,0,0,0,0,0,-1,1917,638,0,0
700,386,0,0,0,0,0,0,0,0,0,-1,1924,638,0,0
707,386,0,0,0,0,0,0,0,0,0,-1,1931,638,0,0
714,386,0,0,0,0,0,0,0,0,0,-1,1938,638,0,0
721,386,0,0,0,0,0,0,0,0,0,-1,1945,638,0,0
728,386,0,0,0,0,0,0,0,0,0,-1,1952,638,0,0
735,386,0,0,0,0,0,0,0,0,0,-1,1959,638,0,0
742,386,0,0,0,0,0,0,0,0,0,-1,1966,638,0,0
749,386,0,0,0,0,0,0,0,0,0,-1,1973,638,0,0
756,386,0,0,0,0,0,0,0,0,0,-1,1980,638,0,0
763,386,0,0,0,0,0,0,0,0,0,-1,1987,638,0,0
770,386,0,0,0,0,0,0,0,0,0,-1,1994,638,0,0
777,386,0,0,0,0,0,0,0,0,0,-1,2001,638,0,0
784,386,0,0,0,0,0,0,0,0,0,-1,2008,638,0,0
791,386,0,0,0,0,0,0,0,0,0,-1,2015,638,0,0
798,386,0,0,0,0,0,0,0,0,0,-1,2022,638,0,0
805,386,0,0,0,0,0,0,0,0,0,-1,2029,638,0,0
812,386,0,0,0,0,0,0,0,0,0,-1,2036,638,0,0
-700,379,0,0,0,0,0,0,0,0,0,-1,524,645,0,0
-693,379,0,0,0,0,0,0,0,0,0,-1,531,645,0,0
-686,379,0,0,0,0,0,0,0,0,0,-1,538,645,0,0
-679,379,0,0,0,0,0,0,0,0,0,-1,545,645,0,0
-672,379,0,0,0,0,0,0,0,0,0,-1,552,645,0,0
-665,379,0,0,0,0,0,0,0,0,0,-1,559,645,0,0
-658,379,0,0,0,0,0,0,0,0,0,-1,566,645,0,0
-651,379,0,0,0,0,0,0,0,0,0,-1,573,645,0,0
-644,379,0,0,0,0,0,0,0,0,0,-1,580,645,0,0
-637,379,0,0,0,0,0,0,0,0,0,-1,587,645,0,0
-630,379,0,0,0,0,0,0,0,0,0,-1,594,645,0,0
-623,379,0,0,0,0,0,0,0,0,0,-1,601,645,0,0
-616,379,0,0,0,0,0,0,0,0,0,-1,608,645,0,0
-609,379,0,0,0,0,0,0,0,0,0,-1,615,645,0,0
-602,379,0,0,0,0,0,0,0,0,0,-1,622,645,0,0
-595,379,0,0,0,0,0,0,0,0,0,-1,629,645,0,0
-588,379,0,0,0,0,0,0,0,0,0,-1,636,645,0,0
-581,379,0,0,0,0,0,0,0,0,0,-1,643,645,0,0
-574,379,0,0,0,0,0,0,0,0,0,-1,650,645,0,0
-567,379,-8.78058,0.59668,0,0,0,0,0,0,0,-1,657,645,-8.7806,-0.596692
-560,379,-9.53485,-0.211304,0,0,0,0,0,0,0,-1,664,645,-9.53487,0.211282
-553,379,-5.17108,-4.53119,0,0,0,0,0,0,0,-1,671,645,-5.17106,4.53117
-546,379,-6.23053,-4.92102,0,0,0,0,0,0,0,-1,678,645,-6.23054,4.92105
-539,379,-0.71698,-2.19427,0,0,0,0,0,0,0,-1,685,645,-0.716959,2.19427
-532,379,-7.69611,0.217224,0,0,0,0,0,0,0,-1,692,645,-7.69614,-0.217204
-525,379,-7.09833,-1.13043,0,0,0,0,0,0,0,-1,699,645,-7.0983,1.13041
-518,379,-13.126,-5.33893,0,0,0,0,0,0,0,-1,706,645,-13.126,5.33895
-511,379,-19.3975,-9.16827,0,0,0,0,0,0,0,-1,713,645,-19.3975,9.16826
-504,379,-19.3834,-10.192,0.00190081,-0.000207915,0.000110086,0.00190654,-0.000213647,0.0520165,0.0013479,0.0360717,720,645,-19.3834,10.192
-497,379,-19.4791,-11.0945,0.00148194,5.66085e-05,0.000140976,0.00149575,4.27986e-05,0.0976472,0.000983209,0.0156978,727,645,-19.4791,11.0945
-490,379,-19.5298,-12.035,0.00112393,0.000154567,0.000140057,0.00114376,0.000134737,0.140653,0.000721796,0.0117052,734,645,-19.5298,12.035
-483,379,-19.5714,-12.9623,0.000886805,0.000201108,6.14768e-05,0.000892273,0.00019564,0.0887133,0.000541546,0.0139314,741,645,-19.5714,12.9623
-476,379,-19.6158,-13.8945,0.000844782,0.000202575,-9.40121e-05,0.000858261,0.000189096,-0.142409,0.000520716,0.0149388,748,645,-19.6158,13.8945
-469,379,-19.697,-14.8124,0.00101923,0.000163276,-0.000318212,0.00112456,5.79391e-05,-0.319674,0.000731161,0.0138626,755,645,-19.697,14.8124
-462,379,-19.7649,-15.7626,0.00137601,7.86178e-05,-0.000610902,0.00161838,-0.000163757,-0.377701,0.00113744,0.0103857,762,645,-19.7649,15.7626
-455,379,-19.826,-16.7157,0.0019675,0.000131175,-0.00103437,0.00243243,-0.000333758,-0.422423,0.00174355,0.0110915,769,645,-19.826,16.7157
-448,379,-19.8752,-17.6112,0.00278685,0.000112932,-0.00150057,0.00345967,-0.00055988,-0.421497,0.00251394,0.0138764,776,645,-19.8752,17.6112
-441,379,-19.897,-18.5795,0.00384398,0.000239366,-0.00212018,0.00482438,-0.000741041,-0.433131,0.0034896,0.0247795,783,645,-19.897,18.5795
-434,379,-19.8265,-19.735,0,0,0,0,0,0,0,-1,790,645,-19.8266,19.735
-427,379,-4.16113,-4.13452,0,0,0,0,0,0,0,-1,797,645,-4.16116,4.1345
-420,379,-4.63953,-3.46869,0,0,0,0,0,0,0,-1,804,645,-4.63953,3.46872
-413,379,-4.62543,-3.7912,0,0,0,0,0,0,0,-1,811,645,-4.62541,3.79123
-406,379,-4.64063,-4.38489,0,0,0,0,0,0,0,-1,818,645,-4.64065,4.3849
-399,379,-2.93536,-1.40118,0,0,0,0,0,0,0,-1,825,645,-2.93534,1.40119
-392,379,-4.16711,-0.466003,0,0,0,0,0,0,0,-1,832,645,-4.16714,0.465992
-385,379,-3.51862,0.441101,0,0,0,0,0,0,0,-1,839,645,-3.51859,-0.441072
-378,379,-5.3504,0.212219,0,0,0,0,0,0,0,-1,846,645,-5.35038,-0.212241
-371,379,-4.32092,-0.186707,0,0,0,0,0,0,0,-1,853,645,-4.3209,0.186707
-364,379,-3.40887,-0.549805,0,0,0,0,0,0,0,-1,860,645,-3.4089,0.549802
-357,379,0,0,0,0,0,0,0,0,0,-1,867,645,0,0
-350,379,0,0,0,0,0,0,0,0,0,-1,874,645,0,0
-343,379,0,0,0,0,0,0,0,0,0,-1,881,645,0,0
-336,379,0,0,0,0,0,0,0,0,0,-1,888,645,0,0
-329,379,0,0,0,0,0,0,0,0,0,-1,895,645,0,0
-322,379,0,0,0,0,0,0,0,0,0,-1,902,645,0,0
-315,379,0,0,0,0,0,0,0,0,0,-1,909,645,0,0
-308,379,0,0,0,0,0,0,0,0,0,-1,916,645,0,0
-301,379,0,0,0,0,0,0,0,0,0,-1,923,645,0,0
-294,379,0,0,0,0,0,0,0,0,0,-1,930,645,0,0
-287,379,0,0,0,0,0,0,0,0,0,-1,937,645,0,0
-280,379,0,0,0,0,0,0,0,0,0,-1,944,645,0,0
-273,379,0,0,0,0,0,0,0,0,0,-1,951,645,0,0
-266,379,0,0,0,0,0,0,0,0,0,-1,958,645,0,0
-259,379,0,0,0,0,0,0,0,0,0,-1,965,645,0,0
-252,379,0,0,0,0,0,0,0,0,0,-1,972,645,0,0
-245,379,0,0,0,0,0,0,0,0,0,-1,979,645,0,0
-238,379,0,0,0,0,0,0,0,0,0,-1,986,645,0,0
-231,379,0,0,0,0,0,0,0,0,0,-1,993,645,0,0
-224,379,0,0,0,0,0,0,0,0,0,-1,1000,645,0,0
-217,379,0,0,0,0,0,0,0,0,0,-1,1007,645,0,0
-210,379,0,0,0,0,0,0,0,0,0,-1,1014,645,0,0
-203,379,0,0,0,0,0,0,0,0,0,-1,1021,645,0,0
-196,379,0,0,0,0,0,0,0,0,0,-1,1028,645,0,0
-189,379,0,0,0,0,0,0,0,0,0,-1,1035,645,0,0
-182,379,0,0,0,0,0,0,0,0,0,-1,1042,645,0,0
-175,379,0,0,0,0,0,0,0,0,0,-1,1049,645,0,0
-168,379,0,0,0,0,0,0,0,0,0,-1,1056,645,0,0
-161,379,0,0,0,0,0,0,0,0,0,-1,1063,645,0,0
-154,379,0,0,0,0,0,0,0,0,0,-1,1070,645,0,0
-147,379,0,0,0,0,0,0,0,0,0,-1,1077,645,0,0
-140,379,0,0,0,0,0,0,0,0,0,-1,1084,645,0,0
-133,379,0,0,0,0,0,0,0,0,0,-1,1091,645,0,0
-126,379,0,0,0,0,0,0,0,0,0,-1,1098,645,0,0
-119,379,0,0,0,0,0,0,0,0,0,-1,1105,645,0,0
-112,379,0,0,0,0,0,0,0,0,0,-1,1112,645,0,0
-105,379,0,0,0,0,0,0,0,0,0,-1,1119,645,0,0
-98,379,0,0,0,0,0,0,0,0,0,-1,1126,645,0,0
-91,379,0,0,0,0,0,0,0,0,0,-1,1133,645,0,0
-84,379,0,0,0,0,0,0,0,0,0,-1,1140,645,0,0
-77,379,0,0,0,0,0,0,0,0,0,-1,1147,645,0,0
-70,379,0,0,0,0,0,0,0,0,0,-1,1154,645,0,0
-63,379,0,0,0,0,0,0,0,0,0,-1,1161,645,0,0
-56,379,0,0,0,0,0,0,0,0,0,-1,1168,645,0,0
-49,379,0,0,0,0,0,0,0,0,0,-1,1175,645,0,0
-42,379,0,0,0,0,0,0,0,0,0,-1,1182,645,0,0
-35,379,0,0,0,0,0,0,0,0,0,-1,1189,645,0,0
-28,379,0,0,0,0,0,0,0,0,0,-1,1196,645,0,0
-21,379,0,0,0,0,0,0,0,0,0,-1,1203,645,0,0
-14,379,0,0,0,0,0,0,0,0,0,-1,1210,645,0,0
-7,379,0,0,0,0,0,0,0,0,0,-1,1217,645,0,0
0,379,0,0,0,0,0,0,0,0,0,-1,1224,645,0,0
7,379,0,0,0,0,0,0,0,0,0,-1,1231,645,0,0
14,379,0,0,0,0,0,0,0,0,0,-1,1238,645,0,0
21,379,0,0,0,0,0,0,0,0,0,-1,1245,645,0,0
28,379,0,0,0,0,0,0,0,0,0,-1,1252,645,0,0
35,379,0,0,0,0,0,0,0,0,0,-1,1259,645,0,0
42,379,0,0,0,0,0,0,0,0,0,-1,1266,645,0,0
49,379,0,0,0,0,0,0,0,0,0,-1,1273,645,0,0
56,379,0,0,0,0,0,0,0,0,0,-1,1280,645,0,0
63,379,0,0,0,0,0,0,0,0,0,-1,1287,645,0,0
70,379,0,0,0,0,0,0,0,0,0,-1,1294,645,0,0
77,379,0,0,0,0,0,0,0,0,0,-1,1301,645,0,0
84,379,0,0,0,0,0,0,0,0,0,-1,1308,645,0,0
91,379,0,0,0,0,0,0,0,0,0,-1,1315,645,0,0
98,379,0,0,0,0,0,0,0,0,0,-1,1322,645,0,0
105,379,0,0,0,0,0,0,0,0,0,-1,1329,645,0,0
112,379,0,0,0,0,0,0,0,0,0,-1,1336,645,0,0
119,379,0,0,0,0,0,0,0,0,0,-1,1343,645,0,0
126,379,0,0,0,0,0,0,0,0,0,-1,1350,645,0,0
133,379,0,0,0,0,0,0,0,0,0,-1,1357,645,0,0
140,379,0,0,0,0,0,0,0,0,0,-1,1364,645,0,0
147,379,0,0,0,0,0,0,0,0,0,-1,1371,645,0,0
154,379,0,0,0,0,0,0,0,0,0,-1,1378,645,0,0
161,379,0,0,0,0,0,0,0,0,0,-1,1385,645,0,0
168,379,0,0,0,0,0,0,0,0,0,-1,1392,645,0,0
175,379,0,0,0,0,0,0,0,0,0,-1,1399,645,0,0
182,379,0,0,0,0,0,0,0,0,0,-1,1406,645,0,0
189,379,0,0,0,0,0,0,0,0,0,-1,1413,645,0,0
196,379,0,0,0,0,0,0,0,0,0,-1,1420,645,0,0
203,379,0,0,0,0,0,0,0,0,0,-1,1427,645,0,0
210,379,0,0,0,0,0,0,0,0,0,-1,1434,645,0,0
217,379,0,0,0,0,0,0,0,0,0,-1,1441,645,0,0
224,379,0,0,0,0,0,0,0,0,0,-1,1448,645,0,0
231,379,0,0,0,0,0,0,0,0,0,-1,1455,645,0,0
238,379,0,0,0,0,0,0,0,0,0,-1,1462,645,0,0
245,379,0,0,0,0,0,0,0,0,0,-1,1469,645,0,0
252,379,0,0,0,0,0,0,0,0,0,-1,1476,645,0,0
259,379,0,0,0,0,0,0,0,0,0,-1,1483,645,0,0
266,379,0,0,0,0,0,0,0,0,0,-1,1490,645,0,0
273,379,0,0,0,0,0,0,0,0,0,-1,1497,645,0,0
280,379,0,0,0,0,0,0,0,0,0,-1,1504,645,0,0
287,379,0,0,0,0,0,0,0,0,0,-1,1511,645,0,0
294,379,0,0,0,0,0,0,0,0,0,-1,1518,645,0,0
301,379,0,0,0,0,0,0,0,0,0,-1,1525,645,0,0
308,379,0,0,0,0,0,0,0,0,0,-1,1532,645,0,0
315,379,0,0,0,0,0,0,0,0,0,-1,1539,645,0,0
322,379,0,0,0,0,0,0,0,0,0,-1,1546,645,0,0
329,379,0,0,0,0,0,0,0,0,0,-1,1553,645,0,0
336,379,0,0,0,0,0,0,0,0,0,-1,1560,645,0,0
343,379,0,0,0,0,0,0,0,0,0,-1,1567,645,0,0
350,379,0,0,0,0,0,0,0,0,0,-1,1574,645,0,0
357,379,0,0,0,0,0,0,0,0,0,-1,1581,645,0,0
364,379,0,0,0,0,0,0,0,0,0,-1,1588,645,0,0
371,379,0,0,0,0,0,0,0,0,0,-1,1595,645,0,0
378,379,0,0,0,0,0,0,0,0,0,-1,1602,645,0,0
385,379,0,0,0,0,0,0,0,0,0,-1,1609,645,0,0
392,379,0,0,0,0,0,0,0,0,0,-1,1616,645,0,0
399,379,0,0,0,0,0,0,0,0,0,-1,1623,645,0,0
406,379,0,0,0,0,0,0,0,0,0,-1,1630,645,0,0
413,379,0,0,0,0,0,0,0,0,0,-1,1637,645,0,0
420,379,0,0,0,0,0,0,0,0,0,-1,1644,645,0,0
427,379,0,0,0,0,0,0,0,0,0,-1,1651,645,0,0
434,379,0,0,0,0,0,0,0,0,0,-1,1658,645,0,0
441,379,0,0,0,0,0,0,0,0,0,-1,1665,645,0,0
448,379,0,0,0,0,0,0,0,0,0,-1,1672,645,0,0
455,379,0,0,0,0,0,0,0,0,0,-1,1679,645,0,0
462,379,0,0,0,0,0,0,0,0,0,-1,1686,645,0,0
469,379,0,0,0,0,0,0,0,0,0,-1,1693,645,0,0
476,379,11.1787,0.830383,0,0,0,0,0,0,0,-1,1700,645,11.1787,-0.830365
483,379,7.4231,1.54321,0,0,0,0,0,0,0,-1,1707,645,7.42314,-1.54324
490,379,8.52881,1.56677,0,0,0,0,0,0,0,-1,1714,645,8.52878,-1.56677
497,379,9.63599,1.49573,0,0,0,0,0,0,0,-1,1721,645,9.63604,-1.4957
504,379,10.0833,1.35229,0,0,0,0,0,0,0,-1,1728,645,10.0832,-1.35227
511,379,8.14343,1.59912,0,0,0,0,0,0,0,-1,1735,645,8.14347,-1.59912
518,379,12.7955,-0.324097,0,0,0,0,0,0,0,-1,1742,645,12.7955,0.324101
525,379,6.03711,1.10352,0,0,0,0,0,0,0,-1,1749,645,6.03711,-1.10351
532,379,8.70947,0.887817,0,0,0,0,0,0,0,-1,1756,645,8.70953,-0.887808
539,379,9.87097,0.111389,0,0,0,0,0,0,0,-1,1763,645,9.87095,-0.111395
546,379,8.42383,-0.730652,0,0,0,0,0,0,0,-1,1770,645,8.42378,0.730638
553,379,19.2905,-7.67834,0,0,0,0,0,0,0,-1,1777,645,19.2905,7.67837
560,379,22.5734,-10.4749,0,0,0,0,0,0,0,-1,1784,645,22.5734,10.4749
567,379,35.3881,-18.1124,0,0,0,0,0,0,0,-1,1791,645,35.3881,18.1124
574,379,35.3649,-17.1093,0.0015545,-0.000169513,0.000126958,0.0015638,-0.000178812,0.073115,0.00110696,0.0188367,1798,645,35.3649,17.1093
581,379,35.3302,-16.1859,0.00104484,-3.41776e-05,0.000109422,0.00105583,-4.51621e-05,0.100052,0.000719413,0.0162303,1805,645,35.3302,16.1859
588,379,35.2677,-15.2568,0.000937103,0.000302455,0.000327447,0.00107576,0.000163801,0.400549,0.000669286,0.016844,1812,645,35.2677,15.2569
595,379,35.205,-14.3536,0.0011711,0.000893429,0.000748473,0.00179351,0.000271025,0.693694,0.00111635,0.0148299,1819,645,35.2049,14.3536
602,379,35.1276,-13.4296,0.00162896,0.00161772,0.00128972,0.00291307,0.000333605,0.78322,0.00184095,0.017878,1826,645,35.1276,13.4296
609,379,35.0564,-12.5193,0.00217452,0.00247026,0.001895,0.00422315,0.000421629,0.824335,0.00268594,0.0202613,1833,645,35.0564,12.5193
616,379,34.9875,-11.5699,0.00284485,0.00347882,0.00254087,0.0057224,0.000601265,0.847456,0.00363115,0.0160903,1840,645,34.9876,11.57
623,379,34.9592,-10.5605,0.00365602,0.0045574,0.00328392,0.00742141,0.000792009,0.853593,0.00470587,0.0134129,1847,645,34.9592,10.5605
630,379,34.9121,-9.62152,0.00444311,0.00564781,0.00399316,0.00908379,0.00100713,0.860257,0.00574963,0.015056,1854,645,34.9121,9.62155
637,379,34.8975,-8.56122,0.00510735,0.00688223,0.0046664,0.0107448,0.00124476,0.879364,0.00678646,0.0460381,1861,645,34.8975,8.56122
644,379,35.1207,-7.35388,0,0,0,0,0,0,0,-1,1868,645,35.1207,7.35389
651,379,12.9515,0.220825,0,0,0,0,0,0,0,-1,1875,645,12.9515,-0.220814
658,379,13.7498,0.37439,0,0,0,0,0,0,0,-1,1882,645,13.7498,-0.374371
665,379,11.9719,0.353333,0,0,0,0,0,0,0,-1,1889,645,11.9719,-0.353321
672,379,7.57605,2.15326,0,0,0,0,0,0,0,-1,1896,645,7.57599,-2.15326
679,379,8.55078,2.50409,0,0,0,0,0,0,0,-1,1903,645,8.55073,-2.50406
686,379,0,0,0,0,0,0,0,0,0,-1,1910,645,0,0
693,379,0,0,0,0,0,0,0,0,0,-1,1917,645,0,0
700,379,0,0,0,0,0,0,0,0,0,-1,1924,645,0,0
707,379,0,0,0,0,0,0,0,0,0,-1,1931,645,0,0
714,379,0,0,0,0,0,0,0,0,0,-1,1938,645,0,0
721,379,0,0,0,0,0,0,0,0,0,-1,1945,645,0,0
728,379,0,0,0,0,0,0,0,0,0,-1,1952,645,0,0
735,379,0,0,0,0,0,0,0,0,0,-1,1959,645,0,0
742,379,0,0,0,0,0,0,0,0,0,-1,1966,645,0,0
749,379,0,0,0,0,0,0,0,0,0,-1,1973,645,0,0
756,379,0,0,0,0,0,0,0,0,0,-1,1980,645,0,0
763,379,0,0,0,0,0,0,0,0,0,-1,1987,645,0,0
770,379,0,0,0,0,0,0,0,0,0,-1,1994,645,0,0
777,379,0,0,0,0,0,0,0,0,0,-1,2001,645,0,0
784,379,0,0,0,0,0,0,0,0,0,-1,2008,645,0,0
791,379,0,0,0,0,0,0,0,0,0,-1,2015,645,0,0
798,379,0,0,0,0,0,0,0,0,0,-1,2022,645,0,0
805,379,0,0,0,0,0,0,0,0,0,-1,2029,645,0,0
812,379,0,0,0,0,0,0,0,0,0,-1,2036,645,0,0
-700,372,0,0,0,0,0,0,0,0,0,-1,524,652,0,0
-693,372,0,0,0,0,0,0,0,0,0,-1,531,652,0,0
-686,372,0,0,0,0,0,0,0,0,0,-1,538,652,0,0
-679,372,0,0,0,0,0,0,0,0,0,-1,545,652,0,0
-672,372,0,0,0,0,0,0,0,0,0,-1,552,652,0,0
-665,372,0,0,0,0,0,0,0,0,0,-1,559,652,0,0
-658,372,0,0,0,0,0,0,0,0,0,-1,566,652,0,0
-651,372,0,0,0,0,0,0,0,0,0,-1,573,652,0,0
-644,372,0,0,0,0,0,0,0,0,0,-1,580,652,0,0
-637,372,0,0,0,0,0,0,0,0,0,-1,587,652,0,0
-630,372,0,0,0,0,0,0,0,0,0,-1,594,652,0,0
-623,372,0,0,0,0,0,0,0,0,0,-1,601,652,0,0
-616,372,0,0,0,0,0,0,0,0,0,-1,608,652,0,0
-609,372,0,0,0,0,0,0,0,0,0,-1,615,652,0,0
-602,372,0,0,0,0,0,0,0,0,0,-1,622,652,0,0
-595,372,0,0,0,0,0,0,0,0,0,-1,629,652,0,0
-588,372,0,0,0,0,0,0,0,0,0,-1,636,652,0,0
-581,372,0,0,0,0,0,0,0,0,0,-1,643,652,0,0
-574,372,0,0,0,0,0,0,0,0,0,-1,650,652,0,0
-567,372,-7.93744,0.73407,0,0,0,0,0,0,0,-1,657,652,-7.93741,-0.734076
-560,372,-8.78552,-0.158203,0,0,0,0,0,0,0,-1,664,652,-8.78552,0.158216
-553,372,-7.95551,1.61694,0,0,0,0,0,0,0,-1,671,652,-7.95552,-1.61697
-546,372,-4.2403,-3.75372,0,0,0,0,0,0,0,-1,678,652,-4.24028,3.75369
-539,372,-7.92285,-0.0650024,0,0,0,0,0,0,0,-1,685,652,-7.92287,0.0649772
-532,372,-8.59589,-0.419556,0,0,0,0,0,0,0,-1,692,652,-8.59591,0.419539
-525,372,-8.03674,-1.36804,0,0,0,0,0,0,0,-1,699,652,-8.03676,1.36806
-518,372,-20.2939,-8.07513,0,0,0,0,0,0,0,-1,706,652,-20.2939,8.07514
-511,372,-20.2975,-9.16736,0.00257397,-0.000445894,-0.000637595,0.00270306,-0.000574993,-0.199777,0.00202116,0.0409605,713,652,-20.2975,9.16738
-504,372,-20.3627,-10.0582,0.00219285,-0.000186304,-0.000376675,0.00225106,-0.000244516,-0.153329,0.0015885,0.0193343,720,652,-20.3627,10.0582
-497,372,-20.3781,-11.0417,0.00183113,-6.48804e-05,-0.000224013,0.00185724,-9.09881e-05,-0.116022,0.00126957,0.0128058,727,652,-20.3781,11.0417
-490,372,-20.4619,-11.9659,0.00150101,-1.38565e-05,-0.000144772,0.00151472,-2.7568e-05,-0.0944292,0.00101912,0.0134459,734,652,-20.4619,11.9659
-483,372,-20.515,-12.8786,0.00127618,1.90171e-05,-0.000159983,0.00129622,-1.02253e-06,-0.124612,0.000864485,0.0132736,741,652,-20.515,12.8786
-476,372,-20.5527,-13.7963,0.00119185,4.02547e-05,-0.000265519,0.00125012,-1.80167e-05,-0.216037,0.000839481,0.0144118,748,652,-20.5527,13.7963
-469,372,-20.649,-14.7181,0.00128739,4.7427e-05,-0.000457053,0.00143765,-0.000102835,-0.31763,0.000994488,0.0120783,755,652,-20.649,14.7181
-462,372,-20.7067,-15.6647,0.00155635,3.3442e-05,-0.000732398,0.0018514,-0.000261617,-0.382976,0.00133008,0.0104863,762,652,-20.7067,15.6648
-455,372,-20.7651,-16.5976,0.00207621,0.000131867,-0.00115217,0.00261156,-0.000403483,-0.434965,0.00188995,0.0104815,769,652,-20.7651,16.5976
-448,372,-20.7966,-17.5438,0.00284421,0.000167185,-0.00163185,0.00361627,-0.00060488,-0.441916,0.00263571,0.0165295,776,652,-20.7966,17.5438
-441,372,-20.7803,-18.612,0,0,0,0,0,0,0,-1,783,652,-20.7803,18.612
-434,372,-9.86865,-9.68494,0,0,0,0,0,0,0,-1,790,652,-9.86863,9.68492
-427,372,-4.54248,-3.56268,0,0,0,0,0,0,0,-1,797,652,-4.54247,3.56266
-420,372,-4.66168,-2.93597,0,0,0,0,0,0,0,-1,804,652,-4.66166,2.93599
-413,372,-4.74762,-3.29541,0,0,0,0,0,0,0,-1,811,652,-4.74763,3.29542
-406,372,-0.885437,-0.583923,0,0,0,0,0,0,0,-1,818,652,-0.885437,0.5839
-399,372,-3.97357,-0.825012,0,0,0,0,0,0,0,-1,825,652,-3.97359,0.825037
-392,372,-7.64337,0.173035,0,0,0,0,0,0,0,-1,832,652,-7.64337,-0.173019
-385,372,-6.48871,-0.0271606,0,0,0,0,0,0,0,-1,839,652,-6.48874,0.0271353
-378,372,-5.33044,-0.242432,0,0,0,0,0,0,0,-1,846,652,-5.33042,0.242457
-371,372,-4.40802,-0.495667,0,0,0,0,0,0,0,-1,853,652,-4.40802,0.495661
-364,372,0,0,0,0,0,0,0,0,0,-1,860,652,0,0
-357,372,0,0,0,0,0,0,0,0,0,-1,867,652,0,0
-350,372,0,0,0,0,0,0,0,0,0,-1,874,652,0,0
-343,372,0,0,0,0,0,0,0,0,0,-1,881,652,0,0
-336,372,0,0,0,0,0,0,0,0,0,-1,888,652,0,0
-329,372,0,0,0,0,0,0,0,0,0,-1,895,652,0,0
-322,372,0,0,0,0,0,0,0,0,0,-1,902,652,0,0
-315,372,0,0,0,0,0,0,0,0,0,-1,909,652,0,0
-308,372,0,0,0,0,0,0,0,0,0,-1,916,652,0,0
-301,372,0,0,0,0,0,0,0,0,0,-1,923,652,0,0
-294,372,0,0,0,0,0,0,0,0,0,-1,930,652,0,0
-287,372,0,0,0,0,0,0,0,0,0,-1,937,652,0,0
-280,372,0,0,0,0,0,0,0,0,0,-1,944,652,0,0
-273,372,0,0,0,0,0,0,0,0,0,-1,951,652,0,0
-266,372,0,0,0,0,0,0,0,0,0,-1,958,652,0,0
-259,372,0,0,0,0,0,0,0,0,0,-1,965,652,0,0
-252,372,0,0,0,0,0,0,0,0,0,-1,972,652,0,0
-245,372,0,0,0,0,0,0,0,0,0,-1,979,652,0,0
-238,372,0,0,0,0,0,0,0,0,0,-1,986,652,0,0
-231,372,0,0,0,0,0,0,0,0,0,-1,993,652,0,0
-224,372,0,0,0,0,0,0,0,0,0,-1,1000,652,0,0
-217,372,0,0,0,0,0,0,0,0,0,-1,1007,652,0,0
-210,372,0,0,0,0,0,0,0,0,0,-1,1014,652,0,0
-203,372,0,0,0,0,0,0,0,0,0,-1,1021,652,0,0
-196,372,0,0,0,0,0,0,0,0,0,-1,1028,652,0,0
-189,372,0,0,0,0,0,0,0,0,0,-1,1035,652,0,0
-182,372,0,0,0,0,0,0,0,0,0,-1,1042,652,0,0
-175,372,0,0,0,0,0,0,0,0,0,-1,1049,652,0,0
-168,372,0,0,0,0,0,0,0,0,0,-1,1056,652,0,0
-161,372,0,0,0,0,0,0,0,0,0,-1,1063,652,0,0
-154,372,0,0,0,0,0,0,0,0,0,-1,1070,652,0,0
-147,372,0,0,0,0,0,0,0,0,0,-1,1077,652,0,0
-140,372,0,0,0,0,0,0,0,0,0,-1,1084,652,0,0
-133,372,0,0,0,0,0,0,0,0,0,-1,1091,652,0,0
-126,372,0,0,0,0,0,0,0,0,0,-1,1098,652,0,0
-119,372,0,0,0,0,0,0,0,0,0,-1,1105,652,0,0
-112,372,0,0,0,0,0,0,0,0,0,-1,1112,652,0,0
-105,372,0,0,0,0,0,0,0,0,0,-1,1119,652,0,0
-98,372,0,0,0,0,0,0,0,0,0,-1,1126,652,0,0
-91,372,0,0,0,0,0,0,0,0,0,-1,1133,652,0,0
-84,372,0,0,0,0,0,0,0,0,0,-1,1140,652,0,0
-77,372,0,0,0,0,0,0,0,0,0,-1,1147,652,0,0
-70,372,0,0,0,0,0,0,0,0,0,-1,1154,652,0,0
-63,372,0,0,0,0,0,0,0,0,0,-1,1161,652,0,0
-56,372,0,0,0,0,0,0,0,0,0,-1,1168,652,0,0
-49,372,0,0,0,0,0,0,0,0,0,-1,1175,652,0,0
-42,372,0,0,0,0,0,0,0,0,0,-1,1182,652,0,0
-35,372,0,0,0,0,0,0,0,0,0,-1,1189,652,0,0
-28,372,0,0,0,0,0,0,0,0,0,-1,1196,652,0,0
-21,372,0,0,0,0,0,0,0,0,0,-1,1203,652,0,0
-14,372,0,0,0,0,0,0,0,0,0,-1,1210,652,0,0
-7,372,0,0,0,0,0,0,0,0,0,-1,1217,652,0,0
0,372,0,0,0,0,0,0,0,0,0,-1,1224,652,0,0
7,372,0,0,0,0,0,0,0,0,0,-1,1231,652,0,0
14,372,0,0,0,0,0,0,0,0,0,-1,1238,652,0,0
21,372,0,0,0,0,0,0,0,0,0,-1,1245,652,0,0
28,372,0,0,0,0,0,0,0,0,0,-1,1252,652,0,0
35,372,0,0,0,0,0,0,0,0,0,-1,1259,652,0,0
42,372,0,0,0,0,0,0,0,0,0,-1,1266,652,0,0
49,372,0,0,0,0,0,0,0,0,0,-1,1273,652,0,0
56,372,0,0,0,0,0,0,0,0,0,-1,1280,652,0,0
63,372,0,0,0,0,0,0,0,0,0,-1,1287,652,0,0
70,372,0,0,0,0,0,0,0,0,0,-1,1294,652,0,0
77,372,0,0,0,0,0,0,0,0,0,-1,1301,652,0,0
84,372,0,0,0,0,0,0,0,0,0,-1,1308,652,0,0
91,372,0,0,0,0,0,0,0,0,0,-1,1315,652,0,0
98,372,0,0,0,0,0,0,0,0,0,-1,1322,652,0,0
105,372,0,0,0,0,0,0,0,0,0,-1,1329,652,0,0
112,372,0,0,0,0,0,0,0,0,0,-1,1336,652,0,0
119,372,0,0,0,0,0,0,0,0,0,-1,1343,652,0,0
126,372,0,0,0,0,0,0,0,0,0,-1,1350,652,0,0
133,372,0,0,0,0,0,0,0,0,0,-1,1357,652,0,0
140,372,0,0,0,0,0,0,0,0,0,-1,1364,652,0,0
147,372,0,0,0,0,0,0,0,0,0,-1,1371,652,0,0
154,372,0,0,0,0,0,0,0,0,0,-1,1378,652,0,0
161,372,0,0,0,0,0,0,0,0,0,-1,1385,652,0,0
168,372,0,0,0,0,0,0,0,0,0,-1,1392,652,0,0
175,372,0,0,0,0,0,0,0,0,0,-1,1399,652,0,0
182,372,0,0,0,0,0,0,0,0,0,-1,1406,652,0,0
189,372,0,0,0,0,0,0,0,0,0,-1,1413,652,0,0
196,372,0,0,0,0,0,0,0,0,0,-1,1420,652,0,0
203,372,0,0,0,0,0,0,0,0,0,-1,1427,652,0,0
210,372,0,0,0,0,0,0,0,0,0,-1,1434,652,0,0
217,372,0,0,0,0,0,0,0,0,0,-1,1441,652,0,0
224,372,0,0,0,0,0,0,0,0,0,-1,1448,652,0,0
231,372,0,0,0,0,0,0,0,0,0,-1,1455,652,0,0
238,372,0,0,0,0,0,0,0,0,0,-1,1462,652,0,0
245,372,0,0,0,0,0,0,0,0,0,-1,1469,652,0,0
252,372,0,0,0,0,0,0,0,0,0,-1,1476,652,0,0
259,372,0,0,0,0,0,0,0,0,0,-1,1483,652,0,0
266,372,0,0,0,0,0,0,0,0,0,-1,1490,652,0,0
273,372,0,0,0,0,0,0,0,0,0,-1,1497,652,0,0
280,372,0,0,0,0,0,0,0,0,0,-1,1504,652,0,0
287,372,0,0,0,0,0,0,0,0,0,-1,1511,652,0,0
294,372,0,0,0,0,0,0,0,0,0,-1,1518,652,0,0
301,372,0,0,0,0,0,0,0,0,0,-1,1525,652,0,0
308,372,0,0,0,0,0,0,0,0,0,-1,1532,652,0,0
315,372,0,0,0,0,0,0,0,0,0,-1,1539,652,0,0
322,372,0,0,0,0,0,0,0,0,0,-1,1546,652,0,0
329,372,0,0,0,0,0,0,0,0,0,-1,1553,652,0,0
336,372,0,0,0,0,0,0,0,0,0,-1,1560,652,0,0
343,372,0,0,0,0,0,0,0,0,0,-1,1567,652,0,0
350,372,0,0,0,0,0,0,0,0,0,-1,1574,652,0,0
357,372,0,0,0,0,0,0,0,0,0,-1,1581,652,0,0
364,372,0,0,0,0,0,0,0,0,0,-1,1588,652,0,0
371,372,0,0,0,0,0,0,0,0,0,-1,1595,652,0,0
378,372,0,0,0,0,0,0,0,0,0,-1,1602,652,0,0
385,372,0,0,0,0,0,0,0,0,0,-1,1609,652,0,0
392,372,0,0,0,0,0,0,0,0,0,-1,1616,652,0,0
399,372,0,0,0,0,0,0,0,0,0,-1,1623,652,0,0
406,372,0,0,0,0,0,0,0,0,0,-1,1630,652,0,0
413,372,0,0,0,0,0,0,0,0,0,-1,1637,652,0,0
420,372,0,0,0,0,0,0,0,0,0,-1,1644,652,0,0
427,372,0,0,0,0,0,0,0,0,0,-1,1651,652,0,0
434,372,0,0,0,0,0,0,0,0,0,-1,1658,652,0,0
441,372,0,0,0,0,0,0,0,0,0,-1,1665,652,0,0
448,372,0,0,0,0,0,0,0,0,0,-1,1672,652,0,0
455,372,0,0,0,0,0,0,0,0,0,-1,1679,652,0,0
462,372,0,0,0,0,0,0,0,0,0,-1,1686,652,0,0
469,372,0,0,0,0,0,0,0,0,0,-1,1693,652,0,0
476,372,0,0,0,0,0,0,0,0,0,-1,1700,652,0,0
483,372,8.74182,1.53125,0,0,0,0,0,0,0,-1,1707,652,8.74186,-1.53126
490,372,9.78455,1.67096,0,0,0,0,0,0,0,-1,1714,652,9.7846,-1.67093
497,372,9.97644,1.46069,0,0,0,0,0,0,0,-1,1721,652,9.97647,-1.46071
504,372,10.1216,1.28375,0,0,0,0,0,0,0,-1,1728,652,10.1216,-1.28376
511,372,11.7367,-0.0272217,0,0,0,0,0,0,0,-1,1735,652,11.7367,0.0272326
518,372,12.0657,-0.0995483,0,0,0,0,0,0,0,-1,1742,652,12.0657,0.0995285
525,372,12.3947,-0.171814,0,0,0,0,0,0,0,-1,1749,652,12.3946,0.171824
532,372,9.36597,1.72034,0,0,0,0,0,0,0,-1,1756,652,9.36597,-1.72036
539,372,7.82886,-0.0865479,0,0,0,0,0,0,0,-1,1763,652,7.82882,0.0865771
546,372,10.953,-0.187195,0,0,0,0,0,0,0,-1,1770,652,10.953,0.187181
553,372,14.1201,-4.83234,0,0,0,0,0,0,0,-1,1777,652,14.1201,4.83235
560,372,20.1057,-8.06934,0,0,0,0,0,0,0,-1,1784,652,20.1058,8.06936
567,372,36.3737,-18.1713,0,0,0,0,0,0,0,-1,1791,652,36.3736,18.1713
574,372,36.3175,-16.9703,0.0014192,-0.000354844,-4.63921e-05,0.00142041,-0.000356057,-0.0261267,0.00108527,0.0455294,1798,652,36.3175,16.9702
581,372,36.2648,-16.1292,0.000911787,-0.00025537,-3.80778e-05,0.000913028,-0.000256611,-0.0325782,0.000709855,0.0228361,1805,652,36.2647,16.1292
588,372,36.1991,-15.2205,0.000809613,-5.49327e-05,0.000146483,0.000833758,-7.90774e-05,0.163361,0.000583985,0.0158825,1812,652,36.1991,15.2205
595,372,36.1417,-14.3,0.00100102,0.000434646,0.000483512,0.00127817,0.000157495,0.520485,0.000804768,0.0145641,1819,652,36.1417,14.3
602,372,36.1062,-13.36,0.00138879,0.00102202,0.000911696,0.00213536,0.000275449,0.686149,0.00134122,0.019056,1826,652,36.1061,13.36
609,372,35.9528,-12.456,0.0018131,0.00170784,0.00137807,0.00313955,0.000381393,0.766313,0.00197819,0.0212069,1833,652,35.9527,12.456
616,372,35.8988,-11.486,0.00231379,0.00251202,0.00185664,0.00427219,0.000553614,0.812065,0.0026827,0.019852,1840,652,35.8988,11.4859
623,372,35.9048,-10.4819,0.00293601,0.00337448,0.00241508,0.00558026,0.000730234,0.830663,0.00350223,0.0138823,1847,652,35.9048,10.482
630,372,35.8621,-9.54297,0.0034851,0.00425586,0.00293405,0.00682973,0.000911232,0.850698,0.00428185,0.0178091,1854,652,35.8621,9.54298
637,372,35.8215,-8.64038,0.00392254,0.00521231,0.00340904,0.00803692,0.00109792,0.878878,0.00503206,0.0300977,1861,652,35.8216,8.64039
644,372,35.9586,-7.68689,0,0,0,0,0,0,0,-1,1868,652,35.9587,7.6869
651,372,21.3998,-0.888,0,0,0,0,0,0,0,-1,1875,652,21.3998,0.887992
658,372,14.157,0.280273,0,0,0,0,0,0,0,-1,1882,652,14.157,-0.280264
665,372,15.2286,0.463867,0,0,0,0,0,0,0,-1,1889,652,15.2287,-0.463854
672,372,9.34106,1.48444,0,0,0,0,0,0,0,-1,1896,652,9.34109,-1.48444
679,372,10.7308,2.32391,0,0,0,0,0,0,0,-1,1903,652,10.7309,-2.3239
686,372,11.6295,2.52997,0,0,0,0,0,0,0,-1,1910,652,11.6296,-2.52996
693,372,0,0,0,0,0,0,0,0,0,-1,1917,652,0,0
700,372,0,0,0,0,0,0,0,0,0,-1,1924,652,0,0
707,372,0,0,0,0,0,0,0,0,0,-1,1931,652,0,0
714,372,0,0,0,0,0,0,0,0,0,-1,1938,652,0,0
721,372,0,0,0,0,0,0,0,0,0,-1,1945,652,0,0
728,372,0,0,0,0,0,0,0,0,0,-1,1952,652,0,0
735,372,0,0,0,0,0,0,0,0,0,-1,1959,652,0,0
742,372,0,0,0,0,0,0,0,0,0,-1,1966,652,0,0
749,372,0,0,0,0,0,0,0,0,0,-1,1973,652,0,0
756,372,0,0,0,0,0,0,0,0,0,-1,1980,652,0,0
763,372,0,0,0,0,0,0,0,0,0,-1,1987,652,0,0
770,372,0,0,0,0,0,0,0,0,0,-1,1994,652,0,0
777,372,0,0,0,0,0,0,0,0,0,-1,2001,652,0,0
784,372,0,0,0,0,0,0,0,0,0,-1,2008,652,0,0
791,372,0,0,0,0,0,0,0,0,0,-1,2015,652,0,0
798,372,0,0,0,0,0,0,0,0,0,-1,2022,652,0,0
805,372,0,0,0,0,0,0,0,0,0,-1,2029,652,0,0
812,372,0,0,0,0,0,0,0,0,0,-1,2036,652,0,0
-700,365,0,0,0,0,0,0,0,0,0,-1,524,659,0,0
-693,365,0,0,0,0,0,0,0,0,0,-1,531,659,0,0
-686,365,0,0,0,0,0,0,0,0,0,-1,538,659,0,0
-679,365,0,0,0,0,0,0,0,0,0,-1,545,659,0,0
-672,365,0,0,0,0,0,0,0,0,0,-1,552,659,0,0
-665,365,0,0,0,0,0,0,0,0,0,-1,559,659,0,0
-658,365,0,0,0,0,0,0,0,0,0,-1,566,659,0,0
-651,365,0,0,0,0,0,0,0,0,0,-1,573,659,0,0
-644,365,0,0,0,0,0,0,0,0,0,-1,580,659,0,0
-637,365,0,0,0,0,0,0,0,0,0,-1,587,659,0,0
-630,365,0,0,0,0,0,0,0,0,0,-1,594,659,0,0
-623,365,0,0,0,0,0,0,0,0,0,-1,601,659,0,0
-616,365,0,0,0,0,0,0,0,0,0,-1,608,659,0,0
-609,365,0,0,0,0,0,0,0,0,0,-1,615,659,0,0
-602,365,0,0,0,0,0,0,0,0,0,-1,622,659,0,0
-595,365,0,0,0,0,0,0,0,0,0,-1,629,659,0,0
-588,365,0,0,0,0,0,0,0,0,0,-1,636,659,0,0
-581,365,0,0,0,0,0,0,0,0,0,-1,643,659,0,0
-574,365,-7.69281,1.59015,0,0,0,0,0,0,0,-1,650,659,-7.69282,-1.59018
-567,365,-8.2583,1.72638,0,0,0,0,0,0,0,-1,657,659,-8.25827,-1.72637
-560,365,-7.17767,0.275757,0,0,0,0,0,0,0,-1,664,659,-7.17768,-0.27577
-553,365,-10.0349,-0.169617,0,0,0,0,0,0,0,-1,671,659,-10.0349,0.169593
-546,365,-10.6303,-1.51642,0,0,0,0,0,0,0,-1,678,659,-10.6303,1.5164
-539,365,-8.38599,1.52936,0,0,0,0,0,0,0,-1,685,659,-8.38598,-1.52935
-532,365,-8.52863,0.166504,0,0,0,0,0,0,0,-1,692,659,-8.52863,-0.166501
-525,365,-9.28229,-2.62726,0,0,0,0,0,0,0,-1,699,659,-9.28227,2.62724
-518,365,-21.2073,-7.96814,0,0,0,0,0,0,0,-1,706,659,-21.2073,7.96813
-511,365,-21.2342,-9.03009,0.00277331,-0.000198907,-0.00102773,0.00309406,-0.000519661,-0.302519,0.00225597,0.0384922,713,659,-21.2342,9.03009
-504,365,-21.2598,-9.99365,0.00242313,-0.000127491,-0.000697987,0.00260164,-0.000306004,-0.250387,0.00184491,0.0141708,720,659,-21.2598,9.99368
-497,365,-21.3158,-10.9628,0.00207061,-0.000105005,-0.000476733,0.00217049,-0.000204884,-0.20652,0.0015199,0.0140381,727,659,-21.3158,10.9629
-490,365,-21.4001,-11.9084,0.00173476,-8.58804e-05,-0.00034447,0.00179776,-0.000148875,-0.180876,0.00125109,0.0153537,734,659,-21.4001,11.9084
-483,365,-21.467,-12.8175,0.00148842,-5.49823e-05,-0.000309926,0.00154833,-0.000114892,-0.190949,0.00107257,0.0144381,741,659,-21.467,12.8175
-476,365,-21.4379,-13.748,0.00133787,-6.22086e-06,-0.000368792,0.00143241,-0.00010076,-0.250945,0.000990238,0.0189646,748,659,-21.4379,13.7481
-469,365,-21.5271,-14.6777,0.00133914,5.20375e-05,-0.0005228,0.00152473,-0.000133554,-0.341117,0.00106381,0.0189043,755,659,-21.5271,14.6777
-462,365,-21.6357,-15.5773,0.00151385,0.000118795,-0.00077148,0.00185639,-0.000223737,-0.417848,0.00131851,0.0148956,762,659,-21.6357,15.5773
-455,365,-21.6876,-16.5021,0.00196509,0.000238024,-0.0011559,0.0025444,-0.000341288,-0.464589,0.00182072,0.0176243,769,659,-21.6876,16.5021
-448,365,-21.7253,-17.5558,0,0,0,0,0,0,0,-1,776,659,-21.7253,17.5559
-441,365,-16.9571,-15.1896,0,0,0,0,0,0,0,-1,783,659,-16.9571,15.1896
-434,365,-5.45056,-3.98041,0,0,0,0,0,0,0,-1,790,659,-5.45055,3.98042
-427,365,-5.05377,-4.74689,0,0,0,0,0,0,0,-1,797,659,-5.05376,4.7469
-420,365,-4.58813,-3.16376,0,0,0,0,0,0,0,-1,804,659,-4.58816,3.16374
-413,365,0.141357,0.672729,0,0,0,0,0,0,0,-1,811,659,0.141365,-0.672714
-406,365,-1.75067,-0.934448,0,0,0,0,0,0,0,-1,818,659,-1.7507,0.934424
-399,365,-4.10242,-1.25439,0,0,0,0,0,0,0,-1,825,659,-4.10244,1.25438
-392,365,-7.46545,-0.779724,0,0,0,0,0,0,0,-1,832,659,-7.46543,0.779744
-385,365,-6.27875,-0.887573,0,0,0,0,0,0,0,-1,839,659,-6.27874,0.887545
-378,365,-5.34503,-0.263306,0,0,0,0,0,0,0,-1,846,659,-5.34504,0.263275
-371,365,0,0,0,0,0,0,0,0,0,-1,853,659,0,0
-364,365,0,0,0,0,0,0,0,0,0,-1,860,659,0,0
-357,365,0,0,0,0,0,0,0,0,0,-1,867,659,0,0
-350,365,0,0,0,0,0,0,0,0,0,-1,874,659,0,0
-343,365,0,0,0,0,0,0,0,0,0,-1,881,659,0,0
-336,365,0,0,0,0,0,0,0,0,0,-1,888,659,0,0
-329,365,0,0,0,0,0,0,0,0,0,-1,895,659,0,0
-322,365,0,0,0,0,0,0,0,0,0,-1,902,659,0,0
-315,365,0,0,0,0,0,0,0,0,0,-1,909,659,0,0
-308,365,0,0,0,0,0,0,0,0,0,-1,916,659,0,0
-301,365,0,0,0,0,0,0,0,0,0,-1,923,659,0,0
-294,365,0,0,0,0,0,0,0,0,0,-1,930,659,0,0
-287,365,0,0,0,0,0,0,0,0,0,-1,937,659,0,0
-280,365,0,0,0,0,0,0,0,0,0,-1,944,659,0,0
-273,365,0,0,0,0,0,0,0,0,0,-1,951,659,0,0
-266,365,0,0,0,0,0,0,0,0,0,-1,958,659,0,0
-259,365,0,0,0,0,0,0,0,0,0,-1,965,659,0,0
-252,365,0,0,0,0,0,0,0,0,0,-1,972,659,0,0
-245,365,0,0,0,0,0,0,0,0,0,-1,979,659,0,0
-238,365,0,0,0,0,0,0,0,0,0,-1,986,659,0,0
-231,365,0,0,0,0,0,0,0,0,0,-1,993,659,0,0
-224,365,0,0,0,0,0,0,0,0,0,-1,1000,659,0,0
-217,365,0,0,0,0,0,0,0,0,0,-1,1007,659,0,0
-210,365,0,0,0,0,0,0,0,0,0,-1,1014,659,0,0
-203,365,0,0,0,0,0,0,0,0,0,-1,1021,659,0,0
-196,365,0,0,0,0,0,0,0,0,0,-1,1028,659,0,0
-189,365,0,0,0,0,0,0,0,0,0,-1,1035,659,0,0
-182,365,0,0,0,0,0,0,0,0,0,-1,1042,659,0,0
-175,365,0,0,0,0,0,0,0,0,0,-1,1049,659,0,0
-168,365,0,0,0,0,0,0,0,0,0,-1,1056,659,0,0
-161,365,0,0,0,0,0,0,0,0,0,-1,1063,659,0,0
-154,365,0,0,0,0,0,0,0,0,0,-1,1070,659,0,0
-147,365,0,0,0,0,0,0,0,0,0,-1,1077,659,0,0
-140,365,0,0,0,0,0,0,0,0,0,-1,1084,659,0,0
-133,365,0,0,0,0,0,0,0,0,0,-1,1091,659,0,0
-126,365,0,0,0,0,0,0,0,0,0,-1,1098,659,0,0
-119,365,0,0,0,0,0,0,0,0,0,-1,1105,659,0,0
-112,365,0,0,0,0,0,0,0,0,0,-1,1112,659,0,0
-105,365,0,0,0,0,0,0,0,0,0,-1,1119,659,0,0
-98,365,0,0,0,0,0,0,0,0,0,-1,1126,659,0,0
-91,365,0,0,0,0,0,0,0,0,0,-1,1133,659,0,0
-84,365,0,0,0,0,0,0,0,0,0,-1,1140,659,0,0
-77,365,0,0,0,0,0,0,0,0,0,-1,1147,659,0,0
-70,365,0,0,0,0,0,0,0,0,0,-1,1154,659,0,0
-63,365,0,0,0,0,0,0,0,0,0,-1,1161,659,0,0
-56,365,0,0,0,0,0,0,0,0,0,-1,1168,659,0,0
-49,365,0,0,0,0,0,0,0,0,0,-1,1175,659,0,0
-42,365,0,0,0,0,0,0,0,0,0,-1,1182,659,0,0
-35,365,0,0,0,0,0,0,0,0,0,-1,1189,659,0,0
-28,365,0,0,0,0,0,0,0,0,0,-1,1196,659,0,0
-21,365,0,0,0,0,0,0,0,0,0,-1,1203,659,0,0
-14,365,0,0,0,0,0,0,0,0,0,-1,1210,659,0,0
-7,365,0,0,0,0,0,0,0,0,0,-1,1217,659,0,0
0,365,0,0,0,0,0,0,0,0,0,-1,1224,659,0,0
7,365,0,0,0,0,0,0,0,0,0,-1,1231,659,0,0
14,365,0,0,0,0,0,0,0,0,0,-1,1238,659,0,0
21,365,0,0,0,0,0,0,0,0,0,-1,1245,659,0,0
28,365,0,0,0,0,0,0,0,0,0,-1,1252,659,0,0
35,365,0,0,0,0,0,0,0,0,0,-1,1259,659,0,0
42,365,0,0,0,0,0,0,0,0,0,-1,1266,659,0,0
49,365,0,0,0,0,0,0,0,0,0,-1,1273,659,0,0
56,365,0,0,0,0,0,0,0,0,0,-1,1280,659,0,0
63,365,0,0,0,0,0,0,0,0,0,-1,1287,659,0,0
70,365,0,0,0,0,0,0,0,0,0,-1,1294,659,0,0
77,365,0,0,0,0,0,0,0,0,0,-1,1301,659,0,0
84,365,0,0,0,0,0,0,0,0,0,-1,1308,659,0,0
91,365,0,0,0,0,0,0,0,0,0,-1,1315,659,0,0
98,365,0,0,0,0,0,0,0,0,0,-1,1322,659,0,0
105,365,0,0,0,0,0,0,0,0,0,-1,1329,659,0,0
112,365,0,0,0,0,0,0,0,0,0,-1,1336,659,0,0
119,365,0,0,0,0,0,0,0,0,0,-1,1343,659,0,0
126,365,0,0,0,0,0,0,0,0,0,-1,1350,659,0,0
133,365,0,0,0,0,0,0,0,0,0,-1,1357,659,0,0
140,365,0,0,0,0,0,0,0,0,0,-1,1364,659,0,0
147,365,0,0,0,0,0,0,0,0,0,-1,1371,659,0,0
154,365,0,0,0,0,0,0,0,0,0,-1,1378,659,0,0
161,365,0,0,0,0,0,0,0,0,0,-1,1385,659,0,0
168,365,0,0,0,0,0,0,0,0,0,-1,1392,659,0,0
175,365,0,0,0,0,0,0,0,0,0,-1,1399,659,0,0
182,365,0,0,0,0,0,0,0,0,0,-1,1406,659,0,0
189,365,0,0,0,0,0,0,0,0,0,-1,1413,659,0,0
196,365,0,0,0,0,0,0,0,0,0,-1,1420,659,0,0
203,365,0,0,0,0,0,0,0,0,0,-1,1427,659,0,0
210,365,0,0,0,0,0,0,0,0,0,-1,1434,659,0,0
217,365,0,0,0,0,0,0,0,0,0,-1,1441,659,0,0
224,365,0,0,0,0,0,0,0,0,0,-1,1448,659,0,0
231,365,0,0,0,0,0,0,0,0,0,-1,1455,659,0,0
238,365,0,0,0,0,0,0,0,0,0,-1,1462,659,0,0
245,365,0,0,0,0,0,0,0,0,0,-1,1469,659,0,0
252,365,0,0,0,0,0,0,0,0,0,-1,1476,659,0,0
259,365,0,0,0,0,0,0,0,0,0,-1,1483,659,0,0
266,365,0,0,0,0,0,0,0,0,0,-1,1490,659,0,0
273,365,0,0,0,0,0,0,0,0,0,-1,1497,659,0,0
280,365,0,0,0,0,0,0,0,0,0,-1,1504,659,0,0
287,365,0,0,0,0,0,0,0,0,0,-1,1511,659,0,0
294,365,0,0,0,0,0,0,0,0,0,-1,1518,659,0,0
301,365,0,0,0,0,0,0,0,0,0,-1,1525,659,0,0
308,365,0,0,0,0,0,0,0,0,0,-1,1532,659,0,0
315,365,0,0,0,0,0,0,0,0,0,-1,1539,659,0,0
322,365,0,0,0,0,0,0,0,0,0,-1,1546,659,0,0
329,365,0,0,0,0,0,0,0,0,0,-1,1553,659,0,0
336,365,0,0,0,0,0,0,0,0,0,-1,1560,659,0,0
343,365,0,0,0,0,0,0,0,0,0,-1,1567,659,0,0
350,365,0,0,0,0,0,0,0,0,0,-1,1574,659,0,0
357,365,0,0,0,0,0,0,0,0,0,-1,1581,659,0,0
364,365,0,0,0,0,0,0,0,0,0,-1,1588,659,0,0
371,365,0,0,0,0,0,0,0,0,0,-1,1595,659,0,0
378,365,0,0,0,0,0,0,0,0,0,-1,1602,659,0,0
385,365,0,0,0,0,0,0,0,0,0,-1,1609,659,0,0
392,365,0,0,0,0,0,0,0,0,0,-1,1616,659,0,0
399,365,0,0,0,0,0,0,0,0,0,-1,1623,659,0,0
406,365,0,0,0,0,0,0,0,0,0,-1,1630,659,0,0
413,365,0,0,0,0,0,0,0,0,0,-1,1637,659,0,0
420,365,0,0,0,0,0,0,0,0,0,-1,1644,659,0,0
427,365,0,0,0,0,0,0,0,0,0,-1,1651,659,0,0
434,365,0,0,0,0,0,0,0,0,0,-1,1658,659,0,0
441,365,0,0,0,0,0,0,0,0,0,-1,1665,659,0,0
448,365,0,0,0,0,0,0,0,0,0,-1,1672,659,0,0
455,365,0,0,0,0,0,0,0,0,0,-1,1679,659,0,0
462,365,0,0,0,0,0,0,0,0,0,-1,1686,659,0,0
469,365,0,0,0,0,0,0,0,0,0,-1,1693,659,0,0
476,365,0,0,0,0,0,0,0,0,0,-1,1700,659,0,0
483,365,0,0,0,0,0,0,0,0,0,-1,1707,659,0,0
490,365,8.39551,0.471252,0,0,0,0,0,0,0,-1,1714,659,8.39551,-0.471241
497,365,9.89233,1.35394,0,0,0,0,0,0,0,-1,1721,659,9.89237,-1.35396
504,365,10.1414,1.18005,0,0,0,0,0,0,0,-1,1728,659,10.1413,-1.18004
511,365,10.5151,0.993896,0,0,0,0,0,0,0,-1,1735,659,10.5152,-0.993894
518,365,11.2029,0.398132,0,0,0,0,0,0,0,-1,1742,659,11.2029,-0.398136
525,365,15.5748,3.85303,0,0,0,0,0,0,0,-1,1749,659,15.5748,-3.85303
532,365,11.2446,1.00629,0,0,0,0,0,0,0,-1,1756,659,11.2446,-1.00631
539,365,12.6301,1.03204,0,0,0,0,0,0,0,-1,1763,659,12.6302,-1.03204
546,365,11.647,0.84198,0,0,0,0,0,0,0,-1,1770,659,11.6469,-0.841955
553,365,12.028,-0.558899,0,0,0,0,0,0,0,-1,1777,659,12.028,0.558873
560,365,14.5372,-4.55548,0,0,0,0,0,0,0,-1,1784,659,14.5373,4.55547
567,365,20.5676,-7.53888,0,0,0,0,0,0,0,-1,1791,659,20.5676,7.53887
574,365,37.4824,-16.843,0,0,0,0,0,0,0,-1,1798,659,37.4825,16.843
581,365,37.1727,-15.9994,0,0,0,0,0,0,0,-1,1805,659,37.1728,15.9994
588,365,37.0962,-15.2057,0.000645401,-0.000309667,2.83208e-06,0.000645409,-0.000309675,0.00296529,0.00056266,0.0228738,1812,659,37.0962,15.2057
595,365,37.0675,-14.2277,0.000793198,0.000130134,0.000273401,0.000891389,3.19434e-05,0.344799,0.000583903,0.0134758,1819,659,37.0675,14.2277
602,365,36.9933,-13.2521,0.00111662,0.000607925,0.00060909,0.00152233,0.000202208,0.587612,0.000954652,0.017933,1826,659,36.9933,13.2521
609,365,36.8591,-12.3053,0.00145645,0.00115317,0.000973173,0.00228973,0.000319894,0.708109,0.00143181,0.0208374,1833,659,36.8592,12.3053
616,365,36.8446,-11.3591,0.00183968,0.00178214,0.00133334,0.00314456,0.000477259,0.774612,0.00195678,0.0223493,1840,659,36.8446,11.3591
623,365,36.8467,-10.419,0.00233037,0.00246048,0.00175591,0.00415254,0.000638309,0.803914,0.00258203,0.0129412,1847,659,36.8467,10.419
630,365,36.7925,-9.49695,0.00273067,0.00316636,0.00214952,0.00510904,0.000787985,0.835899,0.00317612,0.016276,1854,659,36.7925,9.49694
637,365,36.7194,-8.59406,0.00303493,0.00390591,0.00249242,0.0060006,0.000940237,0.871888,0.00372673,0.0236705,1861,659,36.7193,8.59407
644,365,36.7079,-7.64978,0.00323919,0.00476876,0.00282009,0.00692593,0.00108202,0.91781,0.00430221,0.0273533,1868,659,36.7078,7.64976
651,365,36.7725,-6.61395,0,0,0,0,0,0,0,-1,1875,659,36.7725,6.61397
658,365,24.745,-2.13275,0,0,0,0,0,0,0,-1,1882,659,24.745,2.13277
665,365,14.0961,0.769043,0,0,0,0,0,0,0,-1,1889,659,14.0961,-0.769063
672,365,10.0579,2.15088,0,0,0,0,0,0,0,-1,1896,659,10.0579,-2.15088
679,365,10.9718,2.19208,0,0,0,0,0,0,0,-1,1903,659,10.9718,-2.19211
686,365,12.2134,2.17108,0,0,0,0,0,0,0,-1,1910,659,12.2134,-2.17109
693,365,13.7141,1.98279,0,0,0,0,0,0,0,-1,1917,659,13.7141,-1.98278
700,365,0,0,0,0,0,0,0,0,0,-1,1924,659,0,0
707,365,0,0,0,0,0,0,0,0,0,-1,1931,659,0,0
714,365,0,0,0,0,0,0,0,0,0,-1,1938,659,0,0
721,365,0,0,0,0,0,0,0,0,0,-1,1945,659,0,0
728,365,0,0,0,0,0,0,0,0,0,-1,1952,659,0,0
735,365,0,0,0,0,0,0,0,0,0,-1,1959,659,0,0
742,365,0,0,0,0,0,0,0,0,0,-1,1966,659,0,0
749,365,0,0,0,0,0,0,0,0,0,-1,1973,659,0,0
756,365,0,0,0,0,0,0,0,0,0,-1,1980,659,0,0
763,365,0,0,0,0,0,0,0,0,0,-1,1987,659,0,0
770,365,0,0,0,0,0,0,0,0,0,-1,1994,659,0,0
777,365,0,0,0,0,0,0,0,0,0,-1,2001,659,0,0
784,365,0,0,0,0,0,0,0,0,0,-1,2008,659,0,0
791,365,0,0,0,0,0,0,0,0,0,-1,2015,659,0,0
798,365,0,0,0,0,0,0,0,0,0,-1,2022,659,0,0
805,365,0,0,0,0,0,0,0,0,0,-1,2029,659,0,0
812,365,0,0,0,0,0,0,0,0,0,-1,2036,659,0,0
-700,358,0,0,0,0,0,0,0,0,0,-1,524,666,0,0
-693,358,0,0,0,0,0,0,0,0,0,-1,531,666,0,0
-686,358,0,0,0,0,0,0,0,0,0,-1,538,666,0,0
-679,358,0,0,0,0,0,0,0,0,0,-1,545,666,0,0
-672,358,0,0,0,0,0,0,0,0,0,-1,552,666,0,0
-665,358,0,0,0,0,0,0,0,0,0,-1,559,666,0,0
-658,358,0,0,0,0,0,0,0,0,0,-1,566,666,0,0
-651,358,0,0,0,0,0,0,0,0,0,-1,573,666,0,0
-644,358,0,0,0,0,0,0,0,0,0,-1,580,666,0,0
-637,358,0,0,0,0,0,0,0,0,0,-1,587,666,0,0
-630,358,0,0,0,0,0,0,0,0,0,-1,594,666,0,0
-623,358,0,0,0,0,0,0,0,0,0,-1,601,666,0,0
-616,358,0,0,0,0,0,0,0,0,0,-1,608,666,0,0
-609,358,0,0,0,0,0,0,0,0,0,-1,615,666,0,0
-602,358,0,0,0,0,0,0,0,0,0,-1,622,666,0,0
-595,358,0,0,0,0,0,0,0,0,0,-1,629,666,0,0
-588,358,0,0,0,0,0,0,0,0,0,-1,636,666,0,0
-581,358,-8.31616,1.61993,0,0,0,0,0,0,0,-1,643,666,-8.31614,-1.61993
-574,358,-8.22406,1.75385,0,0,0,0,0,0,0,-1,650,666,-8.22408,-1.75383
-567,358,-8.14215,1.91577,0,0,0,0,0,0,0,-1,657,666,-8.14214,-1.91579
-560,358,-10.6086,2.18872,0,0,0,0,0,0,0,-1,664,666,-10.6086,-2.18873
-553,358,-13.4767,1.09552,0,0,0,0,0,0,0,-1,671,666,-13.4767,-1.09551
-546,358,-13.3743,-0.185059,0,0,0,0,0,0,0,-1,678,666,-13.3743,0.185037
-539,358,-9.43884,-2.04785,0,0,0,0,0,0,0,-1,685,666,-9.43884,2.04785
-532,358,-12.4141,-2.36572,0,0,0,0,0,0,0,-1,692,666,-12.4141,2.3657
-525,358,-12.731,-3.88031,0,0,0,0,0,0,0,-1,699,666,-12.731,3.88029
-518,358,-22.1163,-8.05609,0,0,0,0,0,0,0,-1,706,666,-22.1163,8.05609
-511,358,-22.1721,-8.98547,0.00290323,3.92474e-05,-0.00119849,0.00333858,-0.000396105,-0.348431,0.00236882,0.0169299,713,666,-22.1721,8.98546
-504,358,-22.2255,-9.92108,0.00247056,-2.65935e-05,-0.000781449,0.00269494,-0.000250975,-0.279613,0.00188586,0.0127652,720,666,-22.2254,9.92106
-497,358,-22.2565,-10.8866,0.00207761,-7.75943e-05,-0.000495546,0.00218609,-0.000186075,-0.215511,0.00152321,0.0123209,727,666,-22.2565,10.8866
-490,358,-22.3113,-11.8291,0.00171442,-8.51274e-05,-0.0003207,0.00176986,-0.000140572,-0.171193,0.00122945,0.0118547,734,666,-22.3113,11.8291
-483,358,-22.3745,-12.7512,0.00147091,-4.41696e-05,-0.000277846,0.00152026,-9.35159e-05,-0.17577,0.00104607,0.0113261,741,666,-22.3745,12.7512
-476,358,-22.3511,-13.6531,0.00131834,3.70843e-05,-0.00034635,0.00140597,-5.05476e-05,-0.247815,0.00095461,0.0146898,748,666,-22.3512,13.6531
-469,358,-22.4456,-14.5764,0.00130638,0.000147122,-0.000527367,0.00151039,-5.68856e-05,-0.369111,0.00102641,0.0190223,755,666,-22.4456,14.5764
-462,358,-22.5811,-15.515,0.00145985,0.000306279,-0.000812837,0.00187975,-0.000113622,-0.476829,0.00129271,0.0193501,762,666,-22.5811,15.515
-455,358,-22.5953,-16.4814,0,0,0,0,0,0,0,-1,769,666,-22.5953,16.4814
-448,358,-17.7847,-14.434,0,0,0,0,0,0,0,-1,776,666,-17.7847,14.434
-441,358,-5.56293,-3.98041,0,0,0,0,0,0,0,-1,783,666,-5.56291,3.98043
-434,358,-5.21558,-4.43127,0,0,0,0,0,0,0,-1,790,666,-5.21559,4.43125
-427,358,-3.56189,-3.15729,0,0,0,0,0,0,0,-1,797,666,-3.56192,3.15729
-420,358,0.200195,1.08234,0,0,0,0,0,0,0,-1,804,666,0.200174,-1.08231
-413,358,0.0325317,0.161072,0,0,0,0,0,0,0,-1,811,666,0.0325501,-0.161098
-406,358,-3.85846,0.753113,0,0,0,0,0,0,0,-1,818,666,-3.85846,-0.753129
-399,358,-1.31213,0.190735,0,0,0,0,0,0,0,-1,825,666,-1.31215,-0.190763
-392,358,-3.73914,-0.832214,0,0,0,0,0,0,0,-1,832,666,-3.73915,0.832202
-385,358,-5.95178,-1.69141,0,0,0,0,0,0,0,-1,839,666,-5.9518,1.69143
-378,358,0,0,0,0,0,0,0,0,0,-1,846,666,0,0
-371,358,0,0,0,0,0,0,0,0,0,-1,853,666,0,0
-364,358,0,0,0,0,0,0,0,0,0,-1,860,666,0,0
-357,358,0,0,0,0,0,0,0,0,0,-1,867,666,0,0
-350,358,0,0,0,0,0,0,0,0,0,-1,874,666,0,0
-343,358,0,0,0,0,0,0,0,0,0,-1,881,666,0,0
-336,358,0,0,0,0,0,0,0,0,0,-1,888,666,0,0
-329,358,0,0,0,0,0,0,0,0,0,-1,895,666,0,0
-322,358,0,0,0,0,0,0,0,0,0,-1,902,666,0,0
-315,358,0,0,0,0,0,0,0,0,0,-1,909,666,0,0
-308,358,0,0,0,0,0,0,0,0,0,-1,916,666,0,0
-301,358,0,0,0,0,0,0,0,0,0,-1,923,666,0,0
-294,358,0,0,0,0,0,0,0,0,0,-1,930,666,0,0
-287,358,0,0,0,0,0,0,0,0,0,-1,937,666,0,0
-280,358,0,0,0,0,0,0,0,0,0,-1,944,666,0,0
-273,358,0,0,0,0,0,0,0,0,0,-1,951,666,0,0
-266,358,0,0,0,0,0,0,0,0,0,-1,958,666,0,0
-259,358,0,0,0,0,0,0,0,0,0,-1,965,666,0,0
-252,358,0,0,0,0,0,0,0,0,0,-1,972,666,0,0
-245,358,0,0,0,0,0,0,0,0,0,-1,979,666,0,0
-238,358,0,0,0,0,0,0,0,0,0,-1,986,666,0,0
-231,358,0,0,0,0,0,0,0,0,0,-1,993,666,0,0
-224,358,0,0,0,0,0,0,0,0,0,-1,1000,666,0,0
-217,358,0,0,0,0,0,0,0,0,0,-1,1007,666,0,0
-210,358,0,0,0,0,0,0,0,0,0,-1,1014,666,0,0
-203,358,0,0,0,0,0,0,0,0,0,-1,1021,666,0,0
-196,358,0,0,0,0,0,0,0,0,0,-1,1028,666,0,0
-189,358,0,0,0,0,0,0,0,0,0,-1,1035,666,0,0
-182,358,0,0,0,0,0,0,0,0,0,-1,1042,666,0,0
-175,358,0,0,0,0,0,0,0,0,0,-1,1049,666,0,0
-168,358,0,0,0,0,0,0,0,0,0,-1,1056,666,0,0
-161,358,0,0,0,0,0,0,0,0,0,-1,1063,666,0,0
-154,358,0,0,0,0,0,0,0,0,0,-1,1070,666,0,0
-147,358,0,0,0,0,0,0,0,0,0,-1,1077,666,0,0
-140,358,0,0,0,0,0,0,0,0,0,-1,1084,666,0,0
-133,358,0,0,0,0,0,0,0,0,0,-1,1091,666,0,0
-126,358,0,0,0,0,0,0,0,0,0,-1,1098,666,0,0
-119,358,0,0,0,0,0,0,0,0,0,-1,1105,666,0,0
-112,358,0,0,0,0,0,0,0,0,0,-1,1112,666,0,0
-105,358,0,0,0,0,0,0,0,0,0,-1,1119,666,0,0
-98,358,0,0,0,0,0,0,0,0,0,-1,1126,666,0,0
-91,358,0,0,0,0,0,0,0,0,0,-1,1133,666,0,0
-84,358,0,0,0,0,0,0,0,0,0,-1,1140,666,0,0
-77,358,0,0,0,0,0,0,0,0,0,-1,1147,666,0,0
-70,358,0,0,0,0,0,0,0,0,0,-1,1154,666,0,0
-63,358,0,0,0,0,0,0,0,0,0,-1,1161,666,0,0
-56,358,0,0,0,0,0,0,0,0,0,-1,1168,666,0,0
-49,358,0,0,0,0,0,0,0,0,0,-1,1175,666,0,0
-42,358,0,0,0,0,0,0,0,0,0,-1,1182,666,0,0
-35,358,0,0,0,0,0,0,0,0,0,-1,1189,666,0,0
-28,358,0,0,0,0,0,0,0,0,0,-1,1196,666,0,0
-21,358,0,0,0,0,0,0,0,0,0,-1,1203,666,0,0
-14,358,0,0,0,0,0,0,0,0,0,-1,1210,666,0,0
-7,358,0,0,0,0,0,0,0,0,0,-1,1217,666,0,0
0,358,0,0,0,0,0,0,0,0,0,-1,1224,666,0,0
7,358,0,0,0,0,0,0,0,0,0,-1,1231,666,0,0
14,358,0,0,0,0,0,0,0,0,0,-1,1238,666,0,0
21,358,0,0,0,0,0,0,0,0,0,-1,1245,666,0,0
28,358,0,0,0,0,0,0,0,0,0,-1,1252,666,0,0
35,358,0,0,0,0,0,0,0,0,0,-1,1259,666,0,0
42,358,0,0,0,0,0,0,0,0,0,-1,1266,666,0,0
49,358,0,0,0,0,0,0,0,0,0,-1,1273,666,0,0
56,358,0,0,0,0,0,0,0,0,0,-1,1280,666,0,0
63,358,0,0,0,0,0,0,0,0,0,-1,1287,666,0,0
70,358,0,0,0,0,0,0,0,0,0,-1,1294,666,0,0
77,358,0,0,0,0,0,0,0,0,0,-1,1301,666,0,0
84,358,0,0,0,0,0,0,0,0,0,-1,1308,666,0,0
91,358,0,0,0,0,0,0,0,0,0,-1,1315,666,0,0
98,358,0,0,0,0,0,0,0,0,0,-1,1322,666,0,0
105,358,0,0,0,0,0,0,0,0,0,-1,1329,666,0,0
112,358,0,0,0,0,0,0,0,0,0,-1,1336,666,0,0
119,358,0,0,0,0,0,0,0,0,0,-1,1343,666,0,0
126,358,0,0,0,0,0,0,0,0,0,-1,1350,666,0,0
133,358,0,0,0,0,0,0,0,0,0,-1,1357,666,0,0
140,358,0,0,0,0,0,0,0,0,0,-1,1364,666,0,0
147,358,0,0,0,0,0,0,0,0,0,-1,1371,666,0,0
154,358,0,0,0,0,0,0,0,0,0,-1,1378,666,0,0
161,358,0,0,0,0,0,0,0,0,0,-1,1385,666,0,0
168,358,0,0,0,0,0,0,0,0,0,-1,1392,666,0,0
175,358,0,0,0,0,0,0,0,0,0,-1,1399,666,0,0
182,358,0,0,0,0,0,0,0,0,0,-1,1406,666,0,0
189,358,0,0,0,0,0,0,0,0,0,-1,1413,666,0,0
196,358,0,0,0,0,0,0,0,0,0,-1,1420,666,0,0
203,358,0,0,0,0,0,0,0,0,0,-1,1427,666,0,0
210,358,0,0,0,0,0,0,0,0,0,-1,1434,666,0,0
217,358,0,0,0,0,0,0,0,0,0,-1,1441,666,0,0
224,358,0,0,0,0,0,0,0,0,0,-1,1448,666,0,0
231,358,0,0,0,0,0,0,0,0,0,-1,1455,666,0,0
238,358,0,0,0,0,0,0,0,0,0,-1,1462,666,0,0
245,358,0,0,0,0,0,0,0,0,0,-1,1469,666,0,0
252,358,0,0,0,0,0,0,0,0,0,-1,1476,666,0,0
259,358,0,0,0,0,0,0,0,0,0,-1,1483,666,0,0
266,358,0,0,0,0,0,0,0,0,0,-1,1490,666,0,0
273,358,0,0,0,0,0,0,0,0,0,-1,1497,666,0,0
280,358,0,0,0,0,0,0,0,0,0,-1,1504,666,0,0
287,358,0,0,0,0,0,0,0,0,0,-1,1511,666,0,0
294,358,0,0,0,0,0,0,0,0,0,-1,1518,666,0,0
301,358,0,0,0,0,0,0,0,0,0,-1,1525,666,0,0
308,358,0,0,0,0,0,0,0,0,0,-1,1532,666,0,0
315,358,0,0,0,0,0,0,0,0,0,-1,1539,666,0,0
322,358,0,0,0,0,0,0,0,0,0,-1,1546,666,0,0
329,358,0,0,0,0,0,0,0,0,0,-1,1553,666,0,0
336,358,0,0,0,0,0,0,0,0,0,-1,1560,666,0,0
343,358,0,0,0,0,0,0,0,0,0,-1,1567,666,0,0
350,358,0,0,0,0,0,0,0,0,0,-1,1574,666,0,0
357,358,0,0,0,0,0,0,0,0,0,-1,1581,666,0,0
364,358,0,0,0,0,0,0,0,0,0,-1,1588,666,0,0
371,358,0,0,0,0,0,0,0,0,0,-1,1595,666,0,0
378,358,0,0,0,0,0,0,0,0,0,-1,1602,666,0,0
385,358,0,0,0,0,0,0,0,0,0,-1,1609,666,0,0
392,358,0,0,0,0,0,0,0,0,0,-1,1616,666,0,0
399,358,0,0,0,0,0,0,0,0,0,-1,1623,666,0,0
406,358,0,0,0,0,0,0,0,0,0,-1,1630,666,0,0
413,358,0,0,0,0,0,0,0,0,0,-1,1637,666,0,0
420,358,0,0,0,0,0,0,0,0,0,-1,1644,666,0,0
427,358,0,0,0,0,0,0,0,0,0,-1,1651,666,0,0
434,358,0,0,0,0,0,0,0,0,0,-1,1658,666,0,0
441,358,0,0,0,0,0,0,0,0,0,-1,1665,666,0,0
448,358,0,0,0,0,0,0,0,0,0,-1,1672,666,0,0
455,358,0,0,0,0,0,0,0,0,0,-1,1679,666,0,0
462,358,0,0,0,0,0,0,0,0,0,-1,1686,666,0,0
469,358,0,0,0,0,0,0,0,0,0,-1,1693,666,0,0
476,358,0,0,0,0,0,0,0,0,0,-1,1700,666,0,0
483,358,0,0,0,0,0,0,0,0,0,-1,1707,666,0,0
490,358,0,0,0,0,0,0,0,0,0,-1,1714,666,0,0
497,358,8.57239,1.1322,0,0,0,0,0,0,0,-1,1721,666,8.57234,-1.13219
504,358,10.5972,0.832947,0,0,0,0,0,0,0,-1,1728,666,10.5972,-0.832968
511,358,10.6873,0.868469,0,0,0,0,0,0,0,-1,1735,666,10.6872,-0.868484
518,358,16.5884,2.34894,0,0,0,0,0,0,0,-1,1742,666,16.5884,-2.34894
525,358,15.7626,3.65344,0,0,0,0,0,0,0,-1,1749,666,15.7626,-3.65342
532,358,14.9368,4.95789,0,0,0,0,0,0,0,-1,1756,666,14.9367,-4.9579
539,358,15.1597,3.42694,0,0,0,0,0,0,0,-1,1763,666,15.1597,-3.42692
546,358,12.3792,1.53558,0,0,0,0,0,0,0,-1,1770,666,12.3792,-1.5356
553,358,11.6584,1.26172,0,0,0,0,0,0,0,-1,1777,666,11.6585,-1.26175
560,358,10.8234,1.43042,0,0,0,0,0,0,0,-1,1784,666,10.8233,-1.43041
567,358,10.1333,-0.955139,0,0,0,0,0,0,0,-1,1791,666,10.1333,0.955132
574,358,14.7886,-2.69293,0,0,0,0,0,0,0,-1,1798,666,14.7885,2.6929
581,358,20.1738,-6.76135,0,0,0,0,0,0,0,-1,1805,666,20.1738,6.76137
588,358,37.9641,-15.1967,0,0,0,0,0,0,0,-1,1812,666,37.9641,15.1967
595,358,37.9728,-14.1688,0.000613145,-1.8563e-05,0.000214755,0.000679238,-8.46559e-05,0.298561,0.000483521,0.0165378,1819,666,37.9728,14.1687
602,358,37.8901,-13.1531,0.000921985,0.000377924,0.000454797,0.0011799,0.000120011,0.515874,0.000749804,0.0138578,1826,666,37.8901,13.1531
609,358,37.7858,-12.2124,0.00123473,0.000805049,0.000723534,0.00177465,0.000265133,0.641078,0.00110537,0.0184738,1833,666,37.7858,12.2124
616,358,37.7526,-11.3016,0.00154288,0.00127888,0.000984894,0.00240458,0.00041718,0.718785,0.00148367,0.0182464,1840,666,37.7526,11.3016
623,358,37.7864,-10.383,0.00192574,0.00179527,0.00128917,0.00315132,0.000569685,0.760119,0.00193908,0.0161793,1847,666,37.7863,10.383
630,358,37.7395,-9.45544,0.00223137,0.00236327,0.00159097,0.00388965,0.000704987,0.806113,0.00239297,0.0191123,1854,666,37.7395,9.45542
637,358,37.6451,-8.54755,0.00246016,0.00293524,0.00184172,0.00455468,0.00084072,0.849533,0.00279863,0.0265543,1861,666,37.6451,8.54754
644,358,37.6017,-7.60785,0.00261009,0.00360066,0.00207999,0.00524352,0.000967224,0.902281,0.00322203,0.0213927,1868,666,37.6016,7.60786
651,358,37.6158,-6.6217,0,0,0,0,0,0,0,-1,1875,666,37.6159,6.62171
658,358,37.3925,-5.35565,0,0,0,0,0,0,0,-1,1882,666,37.3925,5.35567
665,358,28.0272,-2.07764,0,0,0,0,0,0,0,-1,1889,666,28.0272,2.07764
672,358,12.4299,1.47272,0,0,0,0,0,0,0,-1,1896,666,12.4299,-1.4727
679,358,12.1294,2.19702,0,0,0,0,0,0,0,-1,1903,666,12.1294,-2.19703
686,358,11.9557,2.2002,0,0,0,0,0,0,0,-1,1910,666,11.9557,-2.20021
693,358,13.188,2.52203,0,0,0,0,0,0,0,-1,1917,666,13.188,-2.52202
700,358,0,0,0,0,0,0,0,0,0,-1,1924,666,0,0
707,358,0,0,0,0,0,0,0,0,0,-1,1931,666,0,0
714,358,0,0,0,0,0,0,0,0,0,-1,1938,666,0,0
721,358,0,0,0,0,0,0,0,0,0,-1,1945,666,0,0
728,358,0,0,0,0,0,0,0,0,0,-1,1952,666,0,0
735,358,0,0,0,0,0,0,0,0,0,-1,1959,666,0,0
742,358,0,0,0,0,0,0,0,0,0,-1,1966,666,0,0
749,358,0,0,0,0,0,0,0,0,0,-1,1973,666,0,0
756,358,0,0,0,0,0,0,0,0,0,-1,1980,666,0,0
763,358,0,0,0,0,0,0,0,0,0,-1,1987,666,0,0
770,358,0,0,0,0,0,0,0,0,0,-1,1994,666,0,0
777,358,0,0,0,0,0,0,0,0,0,-1,2001,666,0,0
784,358,0,0,0,0,0,0,0,0,0,-1,2008,666,0,0
791,358,0,0,0,0,0,0,0,0,0,-1,2015,666,0,0
798,358,0,0,0,0,0,0,0,0,0,-1,2022,666,0,0
805,358,0,0,0,0,0,0,0,0,0,-1,2029,666,0,0
812,358,0,0,0,0,0,0,0,0,0,-1,2036,666,0,0
-700,351,0,0,0,0,0,0,0,0,0,-1,524,673,0,0
-693,351,0,0,0,0,0,0,0,0,0,-1,531,673,0,0
-686,351,0,0,0,0,0,0,0,0,0,-1,538,673,0,0
-679,351,0,0,0,0,0,0,0,0,0,-1,545,673,0,0
-672,351,0,0,0,0,0,0,0,0,0,-1,552,673,0,0
-665,351,0,0,0,0,0,0,0,0,0,-1,559,673,0,0
-658,351,0,0,0,0,0,0,0,0,0,-1,566,673,0,0
-651,351,0,0,0,0,0,0,0,0,0,-1,573,673,0,0
-644,351,0,0,0,0,0,0,0,0,0,-1,580,673,0,0
-637,351,0,0,0,0,0,0,0,0,0,-1,587,673,0,0
-630,351,0,0,0,0,0,0,0,0,0,-1,594,673,0,0
-623,351,0,0,0,0,0,0,0,0,0,-1,601,673,0,0
-616,351,0,0,0,0,0,0,0,0,0,-1,608,673,0,0
-609,351,0,0,0,0,0,0,0,0,0,-1,615,673,0,0
-602,351,0,0,0,0,0,0,0,0,0,-1,622,673,0,0
-595,351,0,0,0,0,0,0,0,0,0,-1,629,673,0,0
-588,351,0,0,0,0,0,0,0,0,0,-1,636,673,0,0
-581,351,-9.0647,1.71906,0,0,0,0,0,0,0,-1,643,673,-9.06472,-1.71908
-574,351,-8.23584,2.64764,0,0,0,0,0,0,0,-1,650,673,-8.23584,-2.64764
-567,351,-10.8027,4.56836,0,0,0,0,0,0,0,-1,657,673,-10.8027,-4.56839
-560,351,-14.2001,2.17084,0,0,0,0,0,0,0,-1,664,673,-14.2002,-2.17086
-553,351,-13.4979,0.779541,0,0,0,0,0,0,0,-1,671,673,-13.4978,-0.779519
-546,351,-14.0065,0.73645,0,0,0,0,0,0,0,-1,678,673,-14.0065,-0.736473
-539,351,-12.8123,-1.46393,0,0,0,0,0,0,0,-1,685,673,-12.8123,1.46395
-532,351,-16.0198,-4.03937,0,0,0,0,0,0,0,-1,692,673,-16.0198,4.03936
-525,351,-23.1002,-6.99945,0,0,0,0,0,0,0,-1,699,673,-23.1001,6.99944
-518,351,-23.078,-7.92865,0.00344735,0.000703907,-0.00204932,0.00454167,-0.00039041,-0.490468,0.00316595,0.0225392,706,673,-23.078,7.92866
-511,351,-23.1099,-8.91211,0.00291465,0.000276821,-0.00125532,0.00341655,-0.000225082,-0.38035,0.00235632,0.0129797,713,673,-23.1099,8.91208
-504,351,-23.17,-9.85461,0.00241684,6.28467e-05,-0.000751399,0.00263624,-0.000156553,-0.28409,0.00181193,0.0120101,720,673,-23.17,9.85461
-497,351,-23.198,-10.8007,0.00198016,-8.7316e-05,-0.000393142,0.00205239,-0.000159551,-0.18171,0.00142443,0.011359,727,673,-23.198,10.8007
-490,351,-23.2459,-11.7524,0.00160303,-0.000120499,-0.000193916,0.00162458,-0.000142047,-0.110668,0.00113337,0.0103694,734,673,-23.2459,11.7525
-483,351,-23.2954,-12.6661,0.00135085,-6.73058e-05,-0.000158923,0.00136844,-8.4897e-05,-0.110241,0.00094187,0.0123179,741,673,-23.2954,12.6661
-476,351,-23.3597,-13.5714,0.00118087,5.07028e-05,-0.000267193,0.00124086,-9.28267e-06,-0.220841,0.000830349,0.0117892,748,673,-23.3598,13.5714
-469,351,-23.4125,-14.4868,0.00114113,0.00022119,-0.00051654,0.00137282,-1.0494e-05,-0.421631,0.00091873,0.01432,755,673,-23.4124,14.4867
-462,351,-23.4699,-15.4993,0.00126365,0.000509861,-0.000913351,0.00187482,-0.000101303,-0.589716,0.00128498,0.0411991,762,673,-23.4699,15.4993
-455,351,-23.4576,-16.5424,0,0,0,0,0,0,0,-1,769,673,-23.4577,16.5424
-448,351,-6.61456,-4.38654,0,0,0,0,0,0,0,-1,776,673,-6.61456,4.38654
-441,351,-4.31567,-2.3009,0,0,0,0,0,0,0,-1,783,673,-4.31565,2.30089
-434,351,-3.81708,-2.28003,0,0,0,0,0,0,0,-1,790,673,-3.81706,2.28006
-427,351,-2.05157,-2.7785,0,0,0,0,0,0,0,-1,797,673,-2.05157,2.77848
-420,351,-1.06989,-2.43665,0,0,0,0,0,0,0,-1,804,673,-1.06991,2.43663
-413,351,-0.392334,-2.06671,0,0,0,0,0,0,0,-1,811,673,-0.392363,2.06672
-406,351,-1.86316,-2.58105,0,0,0,0,0,0,0,-1,818,673,-1.86313,2.58106
-399,351,1.00952,-1.53455,0,0,0,0,0,0,0,-1,825,673,1.00954,1.53457
-392,351,-1.02197,0.877136,0,0,0,0,0,0,0,-1,832,673,-1.02195,-0.877143
-385,351,-1.47205,1.04437,0,0,0,0,0,0,0,-1,839,673,-1.47207,-1.04435
-378,351,0,0,0,0,0,0,0,0,0,-1,846,673,0,0
-371,351,0,0,0,0,0,0,0,0,0,-1,853,673,0,0
-364,351,0,0,0,0,0,0,0,0,0,-1,860,673,0,0
-357,351,0,0,0,0,0,0,0,0,0,-1,867,673,0,0
-350,351,0,0,0,0,0,0,0,0,0,-1,874,673,0,0
-343,351,0,0,0,0,0,0,0,0,0,-1,881,673,0,0
-336,351,0,0,0,0,0,0,0,0,0,-1,888,673,0,0
-329,351,0,0,0,0,0,0,0,0,0,-1,895,673,0,0
-322,351,0,0,0,0,0,0,0,0,0,-1,902,673,0,0
-315,351,0,0,0,0,0,0,0,0,0,-1,909,673,0,0
-308,351,0,0,0,0,0,0,0,0,0,-1,916,673,0,0
-301,351,0,0,0,0,0,0,0,0,0,-1,923,673,0,0
-294,351,0,0,0,0,0,0,0,0,0,-1,930,673,0,0
-287,351,0,0,0,0,0,0,0,0,0,-1,937,673,0,0
-280,351,0,0,0,0,0,0,0,0,0,-1,944,673,0,0
-273,351,0,0,0,0,0,0,0,0,0,-1,951,673,0,0
-266,351,0,0,0,0,0,0,0,0,0,-1,958,673,0,0
-259,351,0,0,0,0,0,0,0,0,0,-1,965,673,0,0
-252,351,0,0,0,0,0,0,0,0,0,-1,972,673,0,0
-245,351,0,0,0,0,0,0,0,0,0,-1,979,673,0,0
-238,351,0,0,0,0,0,0,0,0,0,-1,986,673,0,0
-231,351,0,0,0,0,0,0,0,0,0,-1,993,673,0,0
-224,351,0,0,0,0,0,0,0,0,0,-1,1000,673,0,0
-217,351,0,0,0,0,0,0,0,0,0,-1,1007,673,0,0
-210,351,0,0,0,0,0,0,0,0,0,-1,1014,673,0,0
-203,351,0,0,0,0,0,0,0,0,0,-1,1021,673,0,0
-196,351,0,0,0,0,0,0,0,0,0,-1,1028,673,0,0
-189,351,0,0,0,0,0,0,0,0,0,-1,1035,673,0,0
-182,351,0,0,0,0,0,0,0,0,0,-1,1042,673,0,0
-175,351,0,0,0,0,0,0,0,0,0,-1,1049,673,0,0
-168,351,0,0,0,0,0,0,0,0,0,-1,1056,673,0,0
-161,351,0,0,0,0,0,0,0,0,0,-1,1063,673,0,0
-154,351,0,0,0,0,0,0,0,0,0,-1,1070,673,0,0
-147,351,0,0,0,0,0,0,0,0,0,-1,1077,673,0,0
-140,351,0,0,0,0,0,0,0,0,0,-1,1084,673,0,0
-133,351,0,0,0,0,0,0,0,0,0,-1,1091,673,0,0
-126,351,0,0,0,0,0,0,0,0,0,-1,1098,673,0,0
-119,351,0,0,0,0,0,0,0,0,0,-1,1105,673,0,0
-112,351,0,0,0,0,0,0,0,0,0,-1,1112,673,0,0
-105,351,0,0,0,0,0,0,0,0,0,-1,1119,673,0,0
-98,351,0,0,0,0,0,0,0,0,0,-1,1126,673,0,0
-91,351,0,0,0,0,0,0,0,0,0,-1,1133,673,0,0
-84,351,0,0,0,0,0,0,0,0,0,-1,1140,673,0,0
-77,351,0,0,0,0,0,0,0,0,0,-1,1147,673,0,0
-70,351,0,0,0,0,0,0,0,0,0,-1,1154,673,0,0
-63,351,0,0,0,0,0,0,0,0,0,-1,1161,673,0,0
-56,351,0,0,0,0,0,0,0,0,0,-1,1168,673,0,0
-49,351,0,0,0,0,0,0,0,0,0,-1,1175,673,0,0
-42,351,0,0,0,0,0,0,0,0,0,-1,1182,673,0,0
-35,351,0,0,0,0,0,0,0,0,0,-1,1189,673,0,0
-28,351,0,0,0,0,0,0,0,0,0,-1,1196,673,0,0
-21,351,0,0,0,0,0,0,0,0,0,-1,1203,673,0,0
-14,351,0,0,0,0,0,0,0,0,0,-1,1210,673,0,0
-7,351,0,0,0,0,0,0,0,0,0,-1,1217,673,0,0
0,351,0,0,0,0,0,0,0,0,0,-1,1224,673,0,0
7,351,0,0,0,0,0,0,0,0,0,-1,1231,673,0,0
14,351,0,0,0,0,0,0,0,0,0,-1,1238,673,0,0
21,351,0,0,0,0,0,0,0,0,0,-1,1245,673,0,0
28,351,0,0,0,0,0,0,0,0,0,-1,1252,673,0,0
35,351,0,0,0,0,0,0,0,0,0,-1,1259,673,0,0
42,351,0,0,0,0,0,0,0,0,0,-1,1266,673,0,0
49,351,0,0,0,0,0,0,0,0,0,-1,1273,673,0,0
56,351,0,0,0,0,0,0,0,0,0,-1,1280,673,0,0
63,351,0,0,0,0,0,0,0,0,0,-1,1287,673,0,0
70,351,0,0,0,0,0,0,0,0,0,-1,1294,673,0,0
77,351,0,0,0,0,0,0,0,0,0,-1,1301,673,0,0
84,351,0,0,0,0,0,0,0,0,0,-1,1308,673,0,0
91,351,0,0,0,0,0,0,0,0,0,-1,1315,673,0,0
98,351,0,0,0,0,0,0,0,0,0,-1,1322,673,0,0
105,351,0,0,0,0,0,0,0,0,0,-1,1329,673,0,0
112,351,0,0,0,0,0,0,0,0,0,-1,1336,673,0,0
119,351,0,0,0,0,0,0,0,0,0,-1,1343,673,0,0
126,351,0,0,0,0,0,0,0,0,0,-1,1350,673,0,0
133,351,0,0,0,0,0,0,0,0,0,-1,1357,673,0,0
140,351,0,0,0,0,0,0,0,0,0,-1,1364,673,0,0
147,351,0,0,0,0,0,0,0,0,0,-1,1371,673,0,0
154,351,0,0,0,0,0,0,0,0,0,-1,1378,673,0,0
161,351,0,0,0,0,0,0,0,0,0,-1,1385,673,0,0
168,351,0,0,0,0,0,0,0,0,0,-1,1392,673,0,0
175,351,0,0,0,0,0,0,0,0,0,-1,1399,673,0,0
182,351,0,0,0,0,0,0,0,0,0,-1,1406,673,0,0
189,351,0,0,0,0,0,0,0,0,0,-1,1413,673,0,0
196,351,0,0,0,0,0,0,0,0,0,-1,1420,673,0,0
203,351,0,0,0,0,0,0,0,0,0,-1,1427,673,0,0
210,351,0,0,0,0,0,0,0,0,0,-1,1434,673,0,0
217,351,0,0,0,0,0,0,0,0,0,-1,1441,673,0,0
224,351,0,0,0,0,0,0,0,0,0,-1,1448,673,0,0
231,351,0,0,0,0,0,0,0,0,0,-1,1455,673,0,0
238,351,0,0,0,0,0,0,0,0,0,-1,1462,673,0,0
245,351,0,0,0,0,0,0,0,0,0,-1,1469,673,0,0
252,351,0,0,0,0,0,0,0,0,0,-1,1476,673,0,0
259,351,0,0,0,0,0,0,0,0,0,-1,1483,673,0,0
266,351,0,0,0,0,0,0,0,0,0,-1,1490,673,0,0
273,351,0,0,0,0,0,0,0,0,0,-1,1497,673,0,0
280,351,0,0,0,0,0,0,0,0,0,-1,1504,673,0,0
287,351,0,0,0,0,0,0,0,0,0,-1,1511,673,0,0
294,351,0,0,0,0,0,0,0,0,0,-1,1518,673,0,0
301,351,0,0,0,0,0,0,0,0,0,-1,1525,673,0,0
308,351,0,0,0,0,0,0,0,0,0,-1,1532,673,0,0
315,351,0,0,0,0,0,0,0,0,0,-1,1539,673,0,0
322,351,0,0,0,0,0,0,0,0,0,-1,1546,673,0,0
329,351,0,0,0,0,0,0,0,0,0,-1,1553,673,0,0
336,351,0,0,0,0,0,0,0,0,0,-1,1560,673,0,0
343,351,0,0,0,0,0,0,0,0,0,-1,1567,673,0,0
350,351,0,0,0,0,0,0,0,0,0,-1,1574,673,0,0
357,351,0,0,0,0,0,0,0,0,0,-1,1581,673,0,0
364,351,0,0,0,0,0,0,0,0,0,-1,1588,673,0,0
371,351,0,0,0,0,0,0,0,0,0,-1,1595,673,0,0
378,351,0,0,0,0,0,0,0,0,0,-1,1602,673,0,0
385,351,0,0,0,0,0,0,0,0,0,-1,1609,673,0,0
392,351,0,0,0,0,0,0,0,0,0,-1,1616,673,0,0
399,351,0,0,0,0,0,0,0,0,0,-1,1623,673,0,0
406,351,0,0,0,0,0,0,0,0,0,-1,1630,673,0,0
413,351,0,0,0,0,0,0,0,0,0,-1,1637,673,0,0
420,351,0,0,0,0,0,0,0,0,0,-1,1644,673,0,0
427,351,0,0,0,0,0,0,0,0,0,-1,1651,673,0,0
434,351,0,0,0,0,0,0,0,0,0,-1,1658,673,0,0
441,351,0,0,0,0,0,0,0,0,0,-1,1665,673,0,0
448,351,0,0,0,0,0,0,0,0,0,-1,1672,673,0,0
455,351,0,0,0,0,0,0,0,0,0,-1,1679,673,0,0
462,351,0,0,0,0,0,0,0,0,0,-1,1686,673,0,0
469,351,0,0,0,0,0,0,0,0,0,-1,1693,673,0,0
476,351,0,0,0,0,0,0,0,0,0,-1,1700,673,0,0
483,351,0,0,0,0,0,0,0,0,0,-1,1707,673,0,0
490,351,0,0,0,0,0,0,0,0,0,-1,1714,673,0,0
497,351,0,0,0,0,0,0,0,0,0,-1,1721,673,0,0
504,351,10.8842,1.61615,0,0,0,0,0,0,0,-1,1728,673,10.8842,-1.61618
511,351,15.4548,0.0236816,0,0,0,0,0,0,0,-1,1735,673,15.4549,-0.0236664
518,351,16.7448,2.49268,0,0,0,0,0,0,0,-1,1742,673,16.7448,-2.49269
525,351,16.0701,3.43225,0,0,0,0,0,0,0,-1,1749,673,16.07,-3.43227
532,351,32.3822,3.03021,0,0,0,0,0,0,0,-1,1756,673,32.3822,-3.03019
539,351,15.3387,3.54486,0,0,0,0,0,0,0,-1,1763,673,15.3387,-3.54485
546,351,13.9387,4.59357,0,0,0,0,0,0,0,-1,1770,673,13.9388,-4.59359
553,351,12.0682,2.02832,0,0,0,0,0,0,0,-1,1777,673,12.0683,-2.02831
560,351,12.0173,0.55304,0,0,0,0,0,0,0,-1,1784,673,12.0174,-0.553028
567,351,10.7827,0.130188,0,0,0,0,0,0,0,-1,1791,673,10.7827,-0.130183
574,351,13.405,-1.09204,0,0,0,0,0,0,0,-1,1798,673,13.405,1.09207
581,351,15.2351,-3.06049,0,0,0,0,0,0,0,-1,1805,673,15.2351,3.06046
588,351,38.7786,-15.1984,0,0,0,0,0,0,0,-1,1812,673,38.7786,15.1984
595,351,38.8719,-14.1628,0.000603332,1.95706e-05,0.000386685,0.00079593,-0.000173028,0.462106,0.000596717,0.0424894,1819,673,38.8719,14.1628
602,351,38.879,-13.141,0.000840272,0.000288722,0.000431923,0.00107695,5.20432e-05,0.50128,0.000701264,0.0186504,1826,673,38.8791,13.141
609,351,38.8232,-12.2314,0.00110247,0.00056053,0.000545484,0.00144058,0.000222422,0.554874,0.000895503,0.0179938,1833,673,38.8233,12.2314
616,351,38.7408,-11.2915,0.00131737,0.000859667,0.000685295,0.00181102,0.000366022,0.624247,0.00110572,0.0161388,1840,673,38.7408,11.2915
623,351,38.7494,-10.3514,0.00157592,0.00122561,0.000862847,0.00228121,0.000520322,0.68526,0.00138045,0.0169633,1847,673,38.7494,10.3515
630,351,38.6494,-9.43372,0.00179325,0.00167369,0.00108126,0.00281638,0.000650554,0.757782,0.00170268,0.0265386,1854,673,38.6494,9.43374
637,351,38.5469,-8.51288,0.0019701,0.00214519,0.00128212,0.00334275,0.000772548,0.819486,0.00202082,0.02989,1861,673,38.5469,8.51287
644,351,38.516,-7.53937,0.00210297,0.00269625,0.00148815,0.00391704,0.000882184,0.883776,0.00237261,0.020899,1868,673,38.5159,7.53937
651,351,38.4952,-6.52777,0.00226746,0.00338905,0.00175523,0.0046709,0.000985618,0.940022,0.00284293,0.0176756,1875,673,38.4953,6.52778
658,351,38.3738,-5.52509,0.00232948,0.004215,0.00198292,0.00546787,0.00107662,1.0073,0.00334464,0.0464078,1882,673,38.3737,5.52512
665,351,37.9592,-4.42963,0,0,0,0,0,0,0,-1,1889,673,37.9592,4.42964
672,351,34.9646,-3.1748,0,0,0,0,0,0,0,-1,1896,673,34.9646,3.17482
679,351,14.1252,1.85681,0,0,0,0,0,0,0,-1,1903,673,14.1253,-1.85682
686,351,13.0294,2.1189,0,0,0,0,0,0,0,-1,1910,673,13.0294,-2.11892
693,351,13.5187,2.34595,0,0,0,0,0,0,0,-1,1917,673,13.5187,-2.34596
700,351,14.5629,-2.40173,0,0,0,0,0,0,0,-1,1924,673,14.5629,2.40172
707,351,0,0,0,0,0,0,0,0,0,-1,1931,673,0,0
714,351,0,0,0,0,0,0,0,0,0,-1,1938,673,0,0
721,351,0,0,0,0,0,0,0,0,0,-1,1945,673,0,0
728,351,0,0,0,0,0,0,0,0,0,-1,1952,673,0,0
735,351,0,0,0,0,0,0,0,0,0,-1,1959,673,0,0
742,351,0,0,0,0,0,0,0,0,0,-1,1966,673,0,0
749,351,0,0,0,0,0,0,0,0,0,-1,1973,673,0,0
756,351,0,0,0,0,0,0,0,0,0,-1,1980,673,0,0
763,351,0,0,0,0,0,0,0,0,0,-1,1987,673,0,0
770,351,0,0,0,0,0,0,0,0,0,-1,1994,673,0,0
777,351,0,0,0,0,0,0,0,0,0,-1,2001,673,0,0
784,351,0,0,0,0,0,0,0,0,0,-1,2008,673,0,0
791,351,0,0,0,0,0,0,0,0,0,-1,2015,673,0,0
798,351,0,0,0,0,0,0,0,0,0,-1,2022,673,0,0
805,351,0,0,0,0,0,0,0,0,0,-1,2029,673,0,0
812,351,0,0,0,0,0,0,0,0,0,-1,2036,673,0,0
-700,344,0,0,0,0,0,0,0,0,0,-1,524,680,0,0
-693,344,0,0,0,0,0,0,0,0,0,-1,531,680,0,0
-686,344,0,0,0,0,0,0,0,0,0,-1,538,680,0,0
-679,344,0,0,0,0,0,0,0,0,0,-1,545,680,0,0
-672,344,0,0,0,0,0,0,0,0,0,-1,552,680,0,0
-665,344,0,0,0,0,0,0,0,0,0,-1,559,680,0,0
-658,344,0,0,0,0,0,0,0,0,0,-1,566,680,0,0
-651,344,0,0,0,0,0,0,0,0,0,-1,573,680,0,0
-644,344,0,0,0,0,0,0,0,0,0,-1,580,680,0,0
-637,344,0,0,0,0,0,0,0,0,0,-1,587,680,0,0
-630,344,0,0,0,0,0,0,0,0,0,-1,594,680,0,0
-623,344,0,0,0,0,0,0,0,0,0,-1,601,680,0,0
-616,344,0,0,0,0,0,0,0,0,0,-1,608,680,0,0
-609,344,0,0,0,0,0,0,0,0,0,-1,615,680,0,0
-602,344,0,0,0,0,0,0,0,0,0,-1,622,680,0,0
-595,344,0,0,0,0,0,0,0,0,0,-1,629,680,0,0
-588,344,-9.27826,1.47302,0,0,0,0,0,0,0,-1,636,680,-9.27829,-1.473
-581,344,-10.0098,1.71753,0,0,0,0,0,0,0,-1,643,680,-10.0098,-1.7175
-574,344,-10.2208,3.04871,0,0,0,0,0,0,0,-1,650,680,-10.2208,-3.04869
-567,344,-14.3779,2.29016,0,0,0,0,0,0,0,-1,657,680,-14.3779,-2.29014
-560,344,-14.1238,1.8374,0,0,0,0,0,0,0,-1,664,680,-14.1238,-1.83743
-553,344,-14.7884,2.00116,0,0,0,0,0,0,0,-1,671,680,-14.7884,-2.00115
-546,344,-17.4192,0.157654,0,0,0,0,0,0,0,-1,678,680,-17.4192,-0.157635
-539,344,-17.2671,-2.75714,0,0,0,0,0,0,0,-1,685,680,-17.2671,2.75712
-532,344,-18.4417,-4.38605,0,0,0,0,0,0,0,-1,692,680,-18.4417,4.38603
-525,344,-23.9744,-6.97461,0,0,0,0,0,0,0,-1,699,680,-23.9744,6.9746
-518,344,-24.0171,-7.90723,0.0033108,0.000932354,-0.00191745,0.00437787,-0.000134713,-0.507823,0.00296451,0.0229861,706,680,-24.0171,7.90723
-511,344,-24.0563,-8.85645,0.0027184,0.000346159,-0.0011307,0.00317099,-0.000106426,-0.38074,0.00215035,0.0190198,713,680,-24.0563,8.85645
-504,344,-24.1184,-9.79468,0.00219727,-3.80301e-05,-0.000584879,0.00234106,-0.000181818,-0.241061,0.00162471,0.0186285,720,680,-24.1184,9.79465
-497,344,-24.1397,-10.7548,0.00175318,-0.000280653,-0.000189258,0.00177064,-0.000298114,-0.0920024,0.00129132,0.0166169,727,680,-24.1397,10.7548
-490,344,-24.1933,-11.7183,0.00138309,-0.000349784,1.4487e-05,0.00138321,-0.000349905,0.00835932,0.00105824,0.0147519,734,680,-24.1933,11.7183
-483,344,-24.2131,-12.62,0.00112851,-0.000279979,2.75189e-05,0.00112905,-0.000280517,0.0195279,0.000861564,0.0142366,741,680,-24.2132,12.62
-476,344,-24.2667,-13.5254,0.000959002,-0.00011027,-0.000144333,0.000978142,-0.00012941,-0.13184,0.000699234,0.0145723,748,680,-24.2667,13.5254
-469,344,-24.3113,-14.5095,0.000893401,0.000161071,-0.000491801,0.00114038,-8.59069e-05,-0.4654,0.000790446,0.0237077,755,680,-24.3113,14.5095
-462,344,-24.2843,-15.5432,0,0,0,0,0,0,0,-1,762,680,-24.2843,15.5432
-455,344,-12.1653,-7.99176,0,0,0,0,0,0,0,-1,769,680,-12.1653,7.99174
-448,344,-5.67657,-2.72864,0,0,0,0,0,0,0,-1,776,680,-5.6766,2.72863
-441,344,-5.09229,-2.34167,0,0,0,0,0,0,0,-1,783,680,-5.09229,2.34168
-434,344,-4.28778,-2.08807,0,0,0,0,0,0,0,-1,790,680,-4.28778,2.08809
-427,344,-3.06506,-1.45404,0,0,0,0,0,0,0,-1,797,680,-3.06505,1.45402
-420,344,-1.96582,-1.57574,0,0,0,0,0,0,0,-1,804,680,-1.96579,1.57574
-413,344,-0.817993,-1.4751,0,0,0,0,0,0,0,-1,811,680,-0.818017,1.47511
-406,344,-0.00714111,-1.25189,0,0,0,0,0,0,0,-1,818,680,-0.00714956,1.25191
-399,344,0.240051,-1.75769,0,0,0,0,0,0,0,-1,825,680,0.240079,1.75767
-392,344,1.11353,-2.05615,0,0,0,0,0,0,0,-1,832,680,1.11351,2.05616
-385,344,0,0,0,0,0,0,0,0,0,-1,839,680,0,0
-378,344,0,0,0,0,0,0,0,0,0,-1,846,680,0,0
-371,344,0,0,0,0,0,0,0,0,0,-1,853,680,0,0
-364,344,0,0,0,0,0,0,0,0,0,-1,860,680,0,0
-357,344,0,0,0,0,0,0,0,0,0,-1,867,680,0,0
-350,344,0,0,0,0,0,0,0,0,0,-1,874,680,0,0
-343,344,0,0,0,0,0,0,0,0,0,-1,881,680,0,0
-336,344,0,0,0,0,0,0,0,0,0,-1,888,680,0,0
-329,344,0,0,0,0,0,0,0,0,0,-1,895,680,0,0
-322,344,0,0,0,0,0,0,0,0,0,-1,902,680,0,0
-315,344,0,0,0,0,0,0,0,0,0,-1,909,680,0,0
-308,344,0,0,0,0,0,0,0,0,0,-1,916,680,0,0
-301,344,0,0,0,0,0,0,0,0,0,-1,923,680,0,0
-294,344,0,0,0,0,0,0,0,0,0,-1,930,680,0,0
-287,344,0,0,0,0,0,0,0,0,0,-1,937,680,0,0
-280,344,0,0,0,0,0,0,0,0,0,-1,944,680,0,0
-273,344,0,0,0,0,0,0,0,0,0,-1,951,680,0,0
-266,344,0,0,0,0,0,0,0,0,0,-1,958,680,0,0
-259,344,0,0,0,0,0,0,0,0,0,-1,965,680,0,0
-252,344,0,0,0,0,0,0,0,0,0,-1,972,680,0,0
-245,344,0,0,0,0,0,0,0,0,0,-1,979,680,0,0
-238,344,0,0,0,0,0,0,0,0,0,-1,986,680,0,0
-231,344,0,0,0,0,0,0,0,0,0,-1,993,680,0,0
-224,344,0,0,0,0,0,0,0,0,0,-1,1000,680,0,0
-217,344,0,0,0,0,0,0,0,0,0,-1,1007,680,0,0
-210,344,0,0,0,0,0,0,0,0,0,-1,1014,680,0,0
-203,344,0,0,0,0,0,0,0,0,0,-1,1021,680,0,0
-196,344,0,0,0,0,0,0,0,0,0,-1,1028,680,0,0
-189,344,0,0,0,0,0,0,0,0,0,-1,1035,680,0,0
-182,344,0,0,0,0,0,0,0,0,0,-1,1042,680,0,0
-175,344,0,0,0,0,0,0,0,0,0,-1,1049,680,0,0
-168,344,0,0,0,0,0,0,0,0,0,-1,1056,680,0,0
-161,344,0,0,0,0,0,0,0,0,0,-1,1063,680,0,0
-154,344,0,0,0,0,0,0,0,0,0,-1,1070,680,0,0
-147,344,0,0,0,0,0,0,0,0,0,-1,1077,680,0,0
-140,344,0,0,0,0,0,0,0,0,0,-1,1084,680,0,0
-133,344,0,0,0,0,0,0,0,0,0,-1,1091,680,0,0
-126,344,0,0,0,0,0,0,0,0,0,-1,1098,680,0,0
-119,344,0,0,0,0,0,0,0,0,0,-1,1105,680,0,0
-112,344,0,0,0,0,0,0,0,0,0,-1,1112,680,0,0
-105,344,0,0,0,0,0,0,0,0,0,-1,1119,680,0,0
-98,344,0,0,0,0,0,0,0,0,0,-1,1126,680,0,0
-91,344,0,0,0,0,0,0,0,0,0,-1,1133,680,0,0
-84,344,0,0,0,0,0,0,0,0,0,-1,1140,680,0,0
-77,344,0,0,0,0,0,0,0,0,0,-1,1147,680,0,0
-70,344,0,0,0,0,0,0,0,0,0,-1,1154,680,0,0
-63,344,0,0,0,0,0,0,0,0,0,-1,1161,680,0,0
-56,344,0,0,0,0,0,0,0,0,0,-1,1168,680,0,0
-49,344,0,0,0,0,0,0,0,0,0,-1,1175,680,0,0
-42,344,0,0,0,0,0,0,0,0,0,-1,1182,680,0,0
-35,344,0,0,0,0,0,0,0,0,0,-1,1189,680,0,0
-28,344,0,0,0,0,0,0,0,0,0,-1,1196,680,0,0
-21,344,0,0,0,0,0,0,0,0,0,-1,1203,680,0,0
-14,344,0,0,0,0,0,0,0,0,0,-1,1210,680,0,0
-7,344,0,0,0,0,0,0,0,0,0,-1,1217,680,0,0
0,344,0,0,0,0,0,0,0,0,0,-1,1224,680,0,0
7,344,0,0,0,0,0,0,0,0,0,-1,1231,680,0,0
14,344,0,0,0,0,0,0,0,0,0,-1,1238,680,0,0
21,344,0,0,0,0,0,0,0,0,0,-1,1245,680,0,0
28,344,0,0,0,0,0,0,0,0,0,-1,1252,680,0,0
35,344,0,0,0,0,0,0,0,0,0,-1,1259,680,0,0
42,344,0,0,0,0,0,0,0,0,0,-1,1266,680,0,0
49,344,0,0,0,0,0,0,0,0,0,-1,1273,680,0,0
56,344,0,0,0,0,0,0,0,0,0,-1,1280,680,0,0
63,344,0,0,0,0,0,0,0,0,0,-1,1287,680,0,0
70,344,0,0,0,0,0,0,0,0,0,-1,1294,680,0,0
77,344,0,0,0,0,0,0,0,0,0,-1,1301,680,0,0
84,344,0,0,0,0,0,0,0,0,0,-1,1308,680,0,0
91,344,0,0,0,0,0,0,0,0,0,-1,1315,680,0,0
98,344,0,0,0,0,0,0,0,0,0,-1,1322,680,0,0
105,344,0,0,0,0,0,0,0,0,0,-1,1329,680,0,0
112,344,0,0,0,0,0,0,0,0,0,-1,1336,680,0,0
119,344,0,0,0,0,0,0,0,0,0,-1,1343,680,0,0
126,344,0,0,0,0,0,0,0,0,0,-1,1350,680,0,0
133,344,0,0,0,0,0,0,0,0,0,-1,1357,680,0,0
140,344,0,0,0,0,0,0,0,0,0,-1,1364,680,0,0
147,344,0,0,0,0,0,0,0,0,0,-1,1371,680,0,0
154,344,0,0,0,0,0,0,0,0,0,-1,1378,680,0,0
161,344,0,0,0,0,0,0,0,0,0,-1,1385,680,0,0
168,344,0,0,0,0,0,0,0,0,0,-1,1392,680,0,0
175,344,0,0,0,0,0,0,0,0,0,-1,1399,680,0,0
182,344,0,0,0,0,0,0,0,0,0,-1,1406,680,0,0
189,344,0,0,0,0,0,0,0,0,0,-1,1413,680,0,0
196,344,0,0,0,0,0,0,0,0,0,-1,1420,680,0,0
203,344,0,0,0,0,0,0,0,0,0,-1,1427,680,0,0
210,344,0,0,0,0,0,0,0,0,0,-1,1434,680,0,0
217,344,0,0,0,0,0,0,0,0,0,-1,1441,680,0,0
224,344,0,0,0,0,0,0,0,0,0,-1,1448,680,0,0
231,344,0,0,0,0,0,0,0,0,0,-1,1455,680,0,0
238,344,0,0,0,0,0,0,0,0,0,-1,1462,680,0,0
245,344,0,0,0,0,0,0,0,0,0,-1,1469,680,0,0
252,344,0,0,0,0,0,0,0,0,0,-1,1476,680,0,0
259,344,0,0,0,0,0,0,0,0,0,-1,1483,680,0,0
266,344,0,0,0,0,0,0,0,0,0,-1,1490,680,0,0
273,344,0,0,0,0,0,0,0,0,0,-1,1497,680,0,0
280,344,0,0,0,0,0,0,0,0,0,-1,1504,680,0,0
287,344,0,0,0,0,0,0,0,0,0,-1,1511,680,0,0
294,344,0,0,0,0,0,0,0,0,0,-1,1518,680,0,0
301,344,0,0,0,0,0,0,0,0,0,-1,1525,680,0,0
308,344,0,0,0,0,0,0,0,0,0,-1,1532,680,0,0
315,344,0,0,0,0,0,0,0,0,0,-1,1539,680,0,0
322,344,0,0,0,0,0,0,0,0,0,-1,1546,680,0,0
329,344,0,0,0,0,0,0,0,0,0,-1,1553,680,0,0
336,344,0,0,0,0,0,0,0,0,0,-1,1560,680,0,0
343,344,0,0,0,0,0,0,0,0,0,-1,1567,680,0,0
350,344,0,0,0,0,0,0,0,0,0,-1,1574,680,0,0
357,344,0,0,0,0,0,0,0,0,0,-1,1581,680,0,0
364,344,0,0,0,0,0,0,0,0,0,-1,1588,680,0,0
371,344,0,0,0,0,0,0,0,0,0,-1,1595,680,0,0
378,344,0,0,0,0,0,0,0,0,0,-1,1602,680,0,0
385,344,0,0,0,0,0,0,0,0,0,-1,1609,680,0,0
392,344,0,0,0,0,0,0,0,0,0,-1,1616,680,0,0
399,344,0,0,0,0,0,0,0,0,0,-1,1623,680,0,0
406,344,0,0,0,0,0,0,0,0,0,-1,1630,680,0,0
413,344,0,0,0,0,0,0,0,0,0,-1,1637,680,0,0
420,344,0,0,0,0,0,0,0,0,0,-1,1644,680,0,0
427,344,0,0,0,0,0,0,0,0,0,-1,1651,680,0,0
434,344,0,0,0,0,0,0,0,0,0,-1,1658,680,0,0
441,344,0,0,0,0,0,0,0,0,0,-1,1665,680,0,0
448,344,0,0,0,0,0,0,0,0,0,-1,1672,680,0,0
455,344,0,0,0,0,0,0,0,0,0,-1,1679,680,0,0
462,344,0,0,0,0,0,0,0,0,0,-1,1686,680,0,0
469,344,0,0,0,0,0,0,0,0,0,-1,1693,680,0,0
476,344,0,0,0,0,0,0,0,0,0,-1,1700,680,0,0
483,344,0,0,0,0,0,0,0,0,0,-1,1707,680,0,0
490,344,0,0,0,0,0,0,0,0,0,-1,1714,680,0,0
497,344,0,0,0,0,0,0,0,0,0,-1,1721,680,0,0
504,344,0,0,0,0,0,0,0,0,0,-1,1728,680,0,0
511,344,15.4819,0.452637,0,0,0,0,0,0,0,-1,1735,680,15.4819,-0.452656
518,344,17.1357,2.31207,0,0,0,0,0,0,0,-1,1742,680,17.1358,-2.31207
525,344,31.5201,2.6217,0,0,0,0,0,0,0,-1,1749,680,31.5201,-2.62168
532,344,31.9766,2.61047,0,0,0,0,0,0,0,-1,1756,680,31.9765,-2.6105
539,344,32.4379,2.65314,0,0,0,0,0,0,0,-1,1763,680,32.4378,-2.65316
546,344,14.6722,4.30243,0,0,0,0,0,0,0,-1,1770,680,14.6722,-4.30241
553,344,14.8136,4.35681,0,0,0,0,0,0,0,-1,1777,680,14.8136,-4.35679
560,344,11.9363,2.14185,0,0,0,0,0,0,0,-1,1784,680,11.9362,-2.14182
567,344,11.397,0.925842,0,0,0,0,0,0,0,-1,1791,680,11.397,-0.92583
574,344,10.0004,0.504639,0,0,0,0,0,0,0,-1,1798,680,10.0004,-0.504645
581,344,13.6709,-0.969604,0,0,0,0,0,0,0,-1,1805,680,13.6709,0.969629
588,344,16.1447,-3.15948,0,0,0,0,0,0,0,-1,1812,680,16.1447,3.15946
595,344,39.7194,-14.1328,0,0,0,0,0,0,0,-1,1819,680,39.7194,14.1327
602,344,39.9277,-13.0601,0.000775453,0.000290613,0.000474681,0.00106603,3.20724e-08,0.549312,0.000710678,0.0338505,1826,680,39.9277,13.0601
609,344,39.7858,-12.1636,0.00110561,0.000419584,0.000512488,0.00137928,0.000145909,0.490485,0.000874948,0.0168444,1833,680,39.7857,12.1637
616,344,39.6855,-11.2188,0.00127887,0.000567586,0.000595399,0.00161676,0.000229701,0.516175,0.00101002,0.0239873,1840,680,39.6855,11.2187
623,344,39.6803,-10.2952,0.00143413,0.000816328,0.00068697,0.00187845,0.000372004,0.574114,0.00114856,0.0204386,1847,680,39.6803,10.2952
630,344,39.5903,-9.37799,0.00158831,0.00117126,0.000846138,0.00225124,0.000508328,0.664583,0.00136335,0.0253364,1854,680,39.5903,9.37799
637,344,39.5173,-8.43646,0.00173131,0.00157476,0.00100969,0.00266575,0.000640311,0.746713,0.00160684,0.0242382,1861,680,39.5173,8.43646
644,344,39.485,-7.47119,0.00186324,0.00205414,0.00118701,0.00314953,0.000767847,0.825519,0.00189629,0.0167288,1868,680,39.4849,7.47121
651,344,39.4187,-6.49805,0.00205774,0.00267839,0.00141838,0.00381999,0.000916134,0.893095,0.00230285,0.0120519,1875,680,39.4188,6.49805
658,344,39.3558,-5.43768,0.00225979,0.00345949,0.00167065,0.00463471,0.00108457,0.957757,0.00279922,0.0282561,1882,680,39.3558,5.43768
665,344,39.1521,-4.54242,0.00272542,0.00442575,0.00202061,0.00576776,0.00138341,0.984529,0.00347702,0.0472611,1889,680,39.1522,4.54244
672,344,39.1886,-3.69043,0,0,0,0,0,0,0,-1,1896,680,39.1885,3.69044
679,344,36.7468,-2.59857,0,0,0,0,0,0,0,-1,1903,680,36.7468,2.59857
686,344,15.024,1.82709,0,0,0,0,0,0,0,-1,1910,680,15.024,-1.82706
693,344,12.4362,-1.42346,0,0,0,0,0,0,0,-1,1917,680,12.4361,1.42348
700,344,17.5396,2.61206,0,0,0,0,0,0,0,-1,1924,680,17.5396,-2.61204
707,344,18.5829,3.29352,0,0,0,0,0,0,0,-1,1931,680,18.5828,-3.2935
714,344,0,0,0,0,0,0,0,0,0,-1,1938,680,0,0
721,344,0,0,0,0,0,0,0,0,0,-1,1945,680,0,0
728,344,0,0,0,0,0,0,0,0,0,-1,1952,680,0,0
735,344,0,0,0,0,0,0,0,0,0,-1,1959,680,0,0
742,344,0,0,0,0,0,0,0,0,0,-1,1966,680,0,0
749,344,0,0,0,0,0,0,0,0,0,-1,1973,680,0,0
756,344,0,0,0,0,0,0,0,0,0,-1,1980,680,0,0
763,344,0,0,0,0,0,0,0,0,0,-1,1987,680,0,0
770,344,0,0,0,0,0,0,0,0,0,-1,1994,680,0,0
777,344,0,0,0,0,0,0,0,0,0,-1,2001,680,0,0
784,344,0,0,0,0,0,0,0,0,0,-1,2008,680,0,0
791,344,0,0,0,0,0,0,0,0,0,-1,2015,680,0,0
798,344,0,0,0,0,0,0,0,0,0,-1,2022,680,0,0
805,344,0,0,0,0,0,0,0,0,0,-1,2029,680,0,0
812,344,0,0,0,0,0,0,0,0,0,-1,2036,680,0,0
-700,337,0,0,0,0,0,0,0,0,0,-1,524,687,0,0
-693,337,0,0,0,0,0,0,0,0,0,-1,531,687,0,0
-686,337,0,0,0,0,0,0,0,0,0,-1,538,687,0,0
-679,337,0,0,0,0,0,0,0,0,0,-1,545,687,0,0
-672,337,0,0,0,0,0,0,0,0,0,-1,552,687,0,0
-665,337,0,0,0,0,0,0,0,0,0,-1,559,687,0,0
-658,337,0,0,0,0,0,0,0,0,0,-1,566,687,0,0
-651,337,0,0,0,0,0,0,0,0,0,-1,573,687,0,0
-644,337,0,0,0,0,0,0,0,0,0,-1,580,687,0,0
-637,337,0,0,0,0,0,0,0,0,0,-1,587,687,0,0
-630,337,0,0,0,0,0,0,0,0,0,-1,594,687,0,0
-623,337,0,0,0,0,0,0,0,0,0,-1,601,687,0,0
-616,337,0,0,0,0,0,0,0,0,0,-1,608,687,0,0
-609,337,0,0,0,0,0,0,0,0,0,-1,615,687,0,0
-602,337,0,0,0,0,0,0,0,0,0,-1,622,687,0,0
-595,337,0,0,0,0,0,0,0,0,0,-1,629,687,0,0
-588,337,-10.8413,1.27863,0,0,0,0,0,0,0,-1,636,687,-10.8413,-1.27861
-581,337,-11.2157,1.31567,0,0,0,0,0,0,0,-1,643,687,-11.2157,-1.3157
-574,337,-6.03339,2.0321,0,0,0,0,0,0,0,-1,650,687,-6.03337,-2.03213
-567,337,-13.8102,1.56787,0,0,0,0,0,0,0,-1,657,687,-13.8102,-1.56789
-560,337,-15.5435,2.34247,0,0,0,0,0,0,0,-1,664,687,-15.5435,-2.34247
-553,337,-18.0128,1.12927,0,0,0,0,0,0,0,-1,671,687,-18.0128,-1.12926
-546,337,-18.0244,-2.03845,0,0,0,0,0,0,0,-1,678,687,-18.0244,2.03846
-539,337,-19.2426,-3.53815,0,0,0,0,0,0,0,-1,685,687,-19.2426,3.53813
-532,337,-24.9053,-5.95776,0,0,0,0,0,0,0,-1,692,687,-24.9054,5.95779
-525,337,-24.9327,-6.92804,0.00347988,0.00189494,-0.00272671,0.00552694,-0.000152125,-0.643978,0.00373637,0.0227831,699,687,-24.9328,6.92801
-518,337,-24.9467,-7.91071,0.00288645,0.000924964,-0.00173116,0.00389537,-8.39641e-05,-0.527679,0.00262535,0.0255455,706,687,-24.9467,7.91072
-511,337,-24.9872,-8.85266,0.00239721,0.000223193,-0.000942437,0.00274887,-0.00012847,-0.357141,0.00187687,0.0256096,713,687,-24.9872,8.85264
-504,337,-25.0365,-9.75897,0.00191303,-0.000294196,-0.000317667,0.00195784,-0.000339005,-0.140133,0.00143167,0.0251868,720,687,-25.0365,9.75899
-497,337,-25.0849,-10.7018,0.00149314,-0.00063468,0.000156804,0.00150464,-0.000646173,0.0731656,0.00127431,0.0181045,727,687,-25.0849,10.7018
-490,337,-25.1247,-11.6581,0.00116544,-0.000771271,0.000421716,0.00125328,-0.000859115,0.205364,0.00122665,0.0152171,734,687,-25.1247,11.6581
-483,337,-25.1489,-12.581,0.000915175,-0.00071893,0.000476835,0.00104414,-0.000847893,0.264138,0.00109432,0.0150592,741,687,-25.1489,12.581
-476,337,-25.2068,-13.5429,0.00074341,-0.000537977,0.000296222,0.000808575,-0.000603141,0.216536,0.000817926,0.0184232,748,687,-25.2069,13.5429
-469,337,-25.2749,-14.5143,0,0,0,0,0,0,0,-1,755,687,-25.2749,14.5143
-462,337,-14.186,-8.89264,0,0,0,0,0,0,0,-1,762,687,-14.186,8.89266
-455,337,-6.00574,-3.12933,0,0,0,0,0,0,0,-1,769,687,-6.00576,3.12934
-448,337,-5.30627,-2.07202,0,0,0,0,0,0,0,-1,776,687,-5.30628,2.07205
-441,337,-4.24762,-1.49597,0,0,0,0,0,0,0,-1,783,687,-4.24762,1.49598
-434,337,-6.86908,1.37531,0,0,0,0,0,0,0,-1,790,687,-6.86908,-1.3753
-427,337,-9.92004,2.487,0,0,0,0,0,0,0,-1,797,687,-9.92002,-2.48701
-420,337,-2.95996,-1.76697,0,0,0,0,0,0,0,-1,804,687,-2.95998,1.76696
-413,337,-1.29169,-1.99487,0,0,0,0,0,0,0,-1,811,687,-1.29171,1.9949
-406,337,-1.02356,-1.89563,0,0,0,0,0,0,0,-1,818,687,-1.02357,1.89564
-399,337,-0.472839,-2.21338,0,0,0,0,0,0,0,-1,825,687,-0.472837,2.2134
-392,337,0,0,0,0,0,0,0,0,0,-1,832,687,0,0
-385,337,0,0,0,0,0,0,0,0,0,-1,839,687,0,0
-378,337,0,0,0,0,0,0,0,0,0,-1,846,687,0,0
-371,337,0,0,0,0,0,0,0,0,0,-1,853,687,0,0
-364,337,0,0,0,0,0,0,0,0,0,-1,860,687,0,0
-357,337,0,0,0,0,0,0,0,0,0,-1,867,687,0,0
-350,337,0,0,0,0,0,0,0,0,0,-1,874,687,0,0
-343,337,0,0,0,0,0,0,0,0,0,-1,881,687,0,0
-336,337,0,0,0,0,0,0,0,0,0,-1,888,687,0,0
-329,337,0,0,0,0,0,0,0,0,0,-1,895,687,0,0
-322,337,0,0,0,0,0,0,0,0,0,-1,902,687,0,0
-315,337,0,0,0,0,0,0,0,0,0,-1,909,687,0,0
-308,337,0,0,0,0,0,0,0,0,0,-1,916,687,0,0
-301,337,0,0,0,0,0,0,0,0,0,-1,923,687,0,0
-294,337,0,0,0,0,0,0,0,0,0,-1,930,687,0,0
-287,337,0,0,0,0,0,0,0,0,0,-1,937,687,0,0
-280,337,0,0,0,0,0,0,0,0,0,-1,944,687,0,0
-273,337,0,0,0,0,0,0,0,0,0,-1,951,687,0,0
-266,337,0,0,0,0,0,0,0,0,0,-1,958,687,0,0
-259,337,0,0,0,0,0,0,0,0,0,-1,965,687,0,0
-252,337,0,0,0,0,0,0,0,0,0,-1,972,687,0,0
-245,337,0,0,0,0,0,0,0,0,0,-1,979,687,0,0
-238,337,0,0,0,0,0,0,0,0,0,-1,986,687,0,0
-231,337,0,0,0,0,0,0,0,0,0,-1,993,687,0,0
-224,337,0,0,0,0,0,0,0,0,0,-1,1000,687,0,0
-217,337,0,0,0,0,0,0,0,0,0,-1,1007,687,0,0
-210,337,0,0,0,0,0,0,0,0,0,-1,1014,687,0,0
-203,337,0,0,0,0,0,0,0,0,0,-1,1021,687,0,0
-196,337,0,0,0,0,0,0,0,0,0,-1,1028,687,0,0
-189,337,0,0,0,0,0,0,0,0,0,-1,1035,687,0,0
-182,337,0,0,0,0,0,0,0,0,0,-1,1042,687,0,0
-175,337,0,0,0,0,0,0,0,0,0,-1,1049,687,0,0
-168,337,0,0,0,0,0,0,0,0,0,-1,1056,687,0,0
-161,337,0,0,0,0,0,0,0,0,0,-1,1063,687,0,0
-154,337,0,0,0,0,0,0,0,0,0,-1,1070,687,0,0
-147,337,0,0,0,0,0,0,0,0,0,-1,1077,687,0,0
-140,337,0,0,0,0,0,0,0,0,0,-1,1084,687,0,0
-133,337,0,0,0,0,0,0,0,0,0,-1,1091,687,0,0
-126,337,0,0,0,0,0,0,0,0,0,-1,1098,687,0,0
-119,337,0,0,0,0,0,0,0,0,0,-1,1105,687,0,0
-112,337,0,0,0,0,0,0,0,0,0,-1,1112,687,0,0
-105,337,0,0,0,0,0,0,0,0,0,-1,1119,687,0,0
-98,337,0,0,0,0,0,0,0,0,0,-1,1126,687,0,0
-91,337,0,0,0,0,0,0,0,0,0,-1,1133,687,0,0
-84,337,0,0,0,0,0,0,0,0,0,-1,1140,687,0,0
-77,337,0,0,0,0,0,0,0,0,0,-1,1147,687,0,0
-70,337,0,0,0,0,0,0,0,0,0,-1,1154,687,0,0
-63,337,0,0,0,0,0,0,0,0,0,-1,1161,687,0,0
-56,337,0,0,0,0,0,0,0,0,0,-1,1168,687,0,0
-49,337,0,0,0,0,0,0,0,0,0,-1,1175,687,0,0
-42,337,0,0,0,0,0,0,0,0,0,-1,1182,687,0,0
-35,337,0,0,0,0,0,0,0,0,0,-1,1189,687,0,0
-28,337,0,0,0,0,0,0,0,0,0,-1,1196,687,0,0
-21,337,0,0,0,0,0,0,0,0,0,-1,1203,687,0,0
-14,337,0,0,0,0,0,0,0,0,0,-1,1210,687,0,0
-7,337,0,0,0,0,0,0,0,0,0,-1,1217,687,0,0
0,337,0,0,0,0,0,0,0,0,0,-1,1224,687,0,0
7,337,0,0,0,0,0,0,0,0,0,-1,1231,687,0,0
14,337,0,0,0,0,0,0,0,0,0,-1,1238,687,0,0
21,337,0,0,0,0,0,0,0,0,0,-1,1245,687,0,0
28,337,0,0,0,0,0,0,0,0,0,-1,1252,687,0,0
35,337,0,0,0,0,0,0,0,0,0,-1,1259,687,0,0
42,337,0,0,0,0,0,0,0,0,0,-1,1266,687,0,0
49,337,0,0,0,0,0,0,0,0,0,-1,1273,687,0,0
56,337,0,0,0,0,0,0,0,0,0,-1,1280,687,0,0
63,337,0,0,0,0,0,0,0,0,0,-1,1287,687,0,0
70,337,0,0,0,0,0,0,0,0,0,-1,1294,687,0,0
77,337,0,0,0,0,0,0,0,0,0,-1,1301,687,0,0
84,337,0,0,0,0,0,0,0,0,0,-1,1308,687,0,0
91,337,0,0,0,0,0,0,0,0,0,-1,1315,687,0,0
98,337,0,0,0,0,0,0,0,0,0,-1,1322,687,0,0
105,337,0,0,0,0,0,0,0,0,0,-1,1329,687,0,0
112,337,0,0,0,0,0,0,0,0,0,-1,1336,687,0,0
119,337,0,0,0,0,0,0,0,0,0,-1,1343,687,0,0
126,337,0,0,0,0,0,0,0,0,0,-1,1350,687,0,0
133,337,0,0,0,0,0,0,0,0,0,-1,1357,687,0,0
140,337,0,0,0,0,0,0,0,0,0,-1,1364,687,0,0
147,337,0,0,0,0,0,0,0,0,0,-1,1371,687,0,0
154,337,0,0,0,0,0,0,0,0,0,-1,1378,687,0,0
161,337,0,0,0,0,0,0,0,0,0,-1,1385,687,0,0
168,337,0,0,0,0,0,0,0,0,0,-1,1392,687,0,0
175,337,0,0,0,0,0,0,0,0,0,-1,1399,687,0,0
182,337,0,0,0,0,0,0,0,0,0,-1,1406,687,0,0
189,337,0,0,0,0,0,0,0,0,0,-1,1413,687,0,0
196,337,0,0,0,0,0,0,0,0,0,-1,1420,687,0,0
203,337,0,0,0,0,0,0,0,0,0,-1,1427,687,0,0
210,337,0,0,0,0,0,0,0,0,0,-1,1434,687,0,0
217,337,0,0,0,0,0,0,0,0,0,-1,1441,687,0,0
224,337,0,0,0,0,0,0,0,0,0,-1,1448,687,0,0
231,337,0,0,0,0,0,0,0,0,0,-1,1455,687,0,0
238,337,0,0,0,0,0,0,0,0,0,-1,1462,687,0,0
245,337,0,0,0,0,0,0,0,0,0,-1,1469,687,0,0
252,337,0,0,0,0,0,0,0,0,0,-1,1476,687,0,0
259,337,0,0,0,0,0,0,0,0,0,-1,1483,687,0,0
266,337,0,0,0,0,0,0,0,0,0,-1,1490,687,0,0
273,337,0,0,0,0,0,0,0,0,0,-1,1497,687,0,0
280,337,0,0,0,0,0,0,0,0,0,-1,1504,687,0,0
287,337,0,0,0,0,0,0,0,0,0,-1,1511,687,0,0
294,337,0,0,0,0,0,0,0,0,0,-1,1518,687,0,0
301,337,0,0,0,0,0,0,0,0,0,-1,1525,687,0,0
308,337,0,0,0,0,0,0,0,0,0,-1,1532,687,0,0
315,337,0,0,0,0,0,0,0,0,0,-1,1539,687,0,0
322,337,0,0,0,0,0,0,0,0,0,-1,1546,687,0,0
329,337,0,0,0,0,0,0,0,0,0,-1,1553,687,0,0
336,337,0,0,0,0,0,0,0,0,0,-1,1560,687,0,0
343,337,0,0,0,0,0,0,0,0,0,-1,1567,687,0,0
350,337,0,0,0,0,0,0,0,0,0,-1,1574,687,0,0
357,337,0,0,0,0,0,0,0,0,0,-1,1581,687,0,0
364,337,0,0,0,0,0,0,0,0,0,-1,1588,687,0,0
371,337,0,0,0,0,0,0,0,0,0,-1,1595,687,0,0
378,337,0,0,0,0,0,0,0,0,0,-1,1602,687,0,0
385,337,0,0,0,0,0,0,0,0,0,-1,1609,687,0,0
392,337,0,0,0,0,0,0,0,0,0,-1,1616,687,0,0
399,337,0,0,0,0,0,0,0,0,0,-1,1623,687,0,0
406,337,0,0,0,0,0,0,0,0,0,-1,1630,687,0,0
413,337,0,0,0,0,0,0,0,0,0,-1,1637,687,0,0
420,337,0,0,0,0,0,0,0,0,0,-1,1644,687,0,0
427,337,0,0,0,0,0,0,0,0,0,-1,1651,687,0,0
434,337,0,0,0,0,0,0,0,0,0,-1,1658,687,0,0
441,337,0,0,0,0,0,0,0,0,0,-1,1665,687,0,0
448,337,0,0,0,0,0,0,0,0,0,-1,1672,687,0,0
455,337,0,0,0,0,0,0,0,0,0,-1,1679,687,0,0
462,337,0,0,0,0,0,0,0,0,0,-1,1686,687,0,0
469,337,0,0,0,0,0,0,0,0,0,-1,1693,687,0,0
476,337,0,0,0,0,0,0,0,0,0,-1,1700,687,0,0
483,337,0,0,0,0,0,0,0,0,0,-1,1707,687,0,0
490,337,0,0,0,0,0,0,0,0,0,-1,1714,687,0,0
497,337,0,0,0,0,0,0,0,0,0,-1,1721,687,0,0
504,337,0,0,0,0,0,0,0,0,0,-1,1728,687,0,0
511,337,0,0,0,0,0,0,0,0,0,-1,1735,687,0,0
518,337,18.0369,1.64581,0,0,0,0,0,0,0,-1,1742,687,18.0368,-1.64581
525,337,31.0717,2.13745,0,0,0,0,0,0,0,-1,1749,687,31.0717,-2.13747
532,337,31.5126,2.13904,0,0,0,0,0,0,0,-1,1756,687,31.5125,-2.13905
539,337,31.9684,2.15594,0,0,0,0,0,0,0,-1,1763,687,31.9684,-2.15596
546,337,32.3584,1.43719,0,0,0,0,0,0,0,-1,1770,687,32.3585,-1.43722
553,337,32.1809,1.36395,0,0,0,0,0,0,0,-1,1777,687,32.181,-1.36396
560,337,18.4053,3.62793,0,0,0,0,0,0,0,-1,1784,687,18.4052,-3.6279
567,337,11.9288,1.38776,0,0,0,0,0,0,0,-1,1791,687,11.9288,-1.38777
574,337,10.704,1.19476,0,0,0,0,0,0,0,-1,1798,687,10.704,-1.19478
581,337,8.50427,0.561768,0,0,0,0,0,0,0,-1,1805,687,8.5043,-0.561754
588,337,8.5885,-0.0536499,0,0,0,0,0,0,0,-1,1812,687,8.58844,0.0536788
595,337,40.5758,-14.2371,0,0,0,0,0,0,0,-1,1819,687,40.5758,14.2371
602,337,40.7955,-13.0288,0.00099092,0.000301251,0.000639887,0.00137297,-8.08029e-05,0.538258,0.000943405,0.0453812,1826,687,40.7956,13.0288
609,337,40.7273,-12.0724,0.00128698,0.000256744,0.000576107,0.00154468,-9.54664e-07,0.420615,0.00103011,0.023176,1833,687,40.7273,12.0724
616,337,40.6334,-11.1333,0.00136054,0.000263044,0.0006116,0.00163349,-9.90031e-06,0.419755,0.00109231,0.0190121,1840,687,40.6334,11.1333
623,337,40.5981,-10.2116,0.00137348,0.000415324,0.000613574,0.00167285,0.000115949,0.453937,0.00107867,0.0163718,1847,687,40.5981,10.2116
630,337,40.5524,-9.25818,0.00144649,0.000699447,0.000709224,0.00187454,0.000271397,0.543024,0.00116977,0.0200177,1854,687,40.5524,9.25821
637,337,40.5193,-8.31281,0.00154304,0.0010634,0.000837057,0.00217395,0.000432484,0.645884,0.00132881,0.0180299,1861,687,40.5193,8.31279
644,337,40.4465,-7.3587,0.00167831,0.00153362,0.00100595,0.00261451,0.000597416,0.7495,0.00158193,0.0124057,1868,687,40.4466,7.35873
651,337,40.3511,-6.4187,0.00189709,0.00214438,0.00122825,0.00325519,0.000786284,0.835562,0.00196129,0.0112399,1875,687,40.3511,6.41869
658,337,40.3091,-5.4895,0.00220841,0.00292989,0.00152423,0.00413548,0.00100282,0.901595,0.00249094,0.0130093,1882,687,40.3091,5.48952
665,337,40.2889,-4.56097,0.0028002,0.00392024,0.0019532,0.00539212,0.00132832,0.925013,0.00324393,0.0178526,1889,687,40.2889,4.56099
672,337,40.3228,-3.56494,0,0,0,0,0,0,0,-1,1896,687,40.3228,3.56496
679,337,40.5684,-2.60254,0,0,0,0,0,0,0,-1,1903,687,40.5683,2.60255
686,337,18.5614,1.68597,0,0,0,0,0,0,0,-1,1910,687,18.5614,-1.68598
693,337,16.5415,2.21411,0,0,0,0,0,0,0,-1,1917,687,16.5415,-2.2141
700,337,17.2661,2.44379,0,0,0,0,0,0,0,-1,1924,687,17.2661,-2.44378
707,337,17.3544,5.61853,0,0,0,0,0,0,0,-1,1931,687,17.3543,-5.61851
714,337,0,0,0,0,0,0,0,0,0,-1,1938,687,0,0
721,337,0,0,0,0,0,0,0,0,0,-1,1945,687,0,0
728,337,0,0,0,0,0,0,0,0,0,-1,1952,687,0,0
735,337,0,0,0,0,0,0,0,0,0,-1,1959,687,0,0
742,337,0,0,0,0,0,0,0,0,0,-1,1966,687,0,0
749,337,0,0,0,0,0,0,0,0,0,-1,1973,687,0,0
756,337,0,0,0,0,0,0,0,0,0,-1,1980,687,0,0
763,337,0,0,0,0,0,0,0,0,0,-1,1987,687,0,0
770,337,0,0,0,0,0,0,0,0,0,-1,1994,687,0,0
777,337,0,0,0,0,0,0,0,0,0,-1,2001,687,0,0
784,337,0,0,0,0,0,0,0,0,0,-1,2008,687,0,0
791,337,0,0,0,0,0,0,0,0,0,-1,2015,687,0,0
798,337,0,0,0,0,0,0,0,0,0,-1,2022,687,0,0
805,337,0,0,0,0,0,0,0,0,0,-1,2029,687,0,0
812,337,0,0,0,0,0,0,0,0,0,-1,2036,687,0,0
-700,330,0,0,0,0,0,0,0,0,0,-1,524,694,0,0
-693,330,0,0,0,0,0,0,0,0,0,-1,531,694,0,0
-686,330,0,0,0,0,0,0,0,0,0,-1,538,694,0,0
-679,330,0,0,0,0,0,0,0,0,0,-1,545,694,0,0
-672,330,0,0,0,0,0,0,0,0,0,-1,552,694,0,0
-665,330,0,0,0,0,0,0,0,0,0,-1,559,694,0,0
-658,330,0,0,0,0,0,0,0,0,0,-1,566,694,0,0
-651,330,0,0,0,0,0,0,0,0,0,-1,573,694,0,0
-644,330,0,0,0,0,0,0,0,0,0,-1,580,694,0,0
-637,330,0,0,0,0,0,0,0,0,0,-1,587,694,0,0
-630,330,0,0,0,0,0,0,0,0,0,-1,594,694,0,0
-623,330,0,0,0,0,0,0,0,0,0,-1,601,694,0,0
-616,330,0,0,0,0,0,0,0,0,0,-1,608,694,0,0
-609,330,0,0,0,0,0,0,0,0,0,-1,615,694,0,0
-602,330,0,0,0,0,0,0,0,0,0,-1,622,694,0,0
-595,330,-4.67883,1.65515,0,0,0,0,0,0,0,-1,629,694,-4.67881,-1.65515
-588,330,-8.5047,2.67346,0,0,0,0,0,0,0,-1,636,694,-8.50469,-2.67348
-581,330,-12.4227,0.947083,0,0,0,0,0,0,0,-1,643,694,-12.4227,-0.947109
-574,330,-9.02118,1.87952,0,0,0,0,0,0,0,-1,650,694,-9.02115,-1.87953
-567,330,-8.35577,0.909973,0,0,0,0,0,0,0,-1,657,694,-8.35575,-0.909945
-560,330,-13.1036,-0.584656,0,0,0,0,0,0,0,-1,664,694,-13.1035,0.584658
-553,330,-17.5484,-1.21545,0,0,0,0,0,0,0,-1,671,694,-17.5484,1.21547
-546,330,-25.5126,-3.72876,0,0,0,0,0,0,0,-1,678,694,-25.5126,3.72876
-539,330,-25.7089,-4.79114,0,0,0,0,0,0,0,-1,685,694,-25.7089,4.79114
-532,330,-25.8461,-5.90637,0.00350079,0.00279269,-0.00318992,0.00635625,-6.27707e-05,-0.730129,0.00425858,0.0286552,692,694,-25.8461,5.90637
-525,330,-25.8108,-6.90527,0.00299314,0.00162748,-0.00223269,0.00464508,-2.44637e-05,-0.636999,0.00310491,0.010865,699,694,-25.8108,6.90529
-518,330,-25.8585,-7.83124,0.00250146,0.000707175,-0.00134862,0.00322408,-1.54483e-05,-0.491895,0.00215455,0.0151331,706,694,-25.8584,7.83125
-511,330,-25.9254,-8.77557,0.00202773,3.07005e-06,-0.000608744,0.00219666,-0.000165863,-0.270699,0.00152274,0.0209453,713,694,-25.9253,8.77555
-504,330,-25.9599,-9.72815,0.00152744,-0.000541116,4.11532e-05,0.00152826,-0.000541934,0.0198841,0.00123962,0.0192187,720,694,-25.9599,9.72815
-497,330,-26.0302,-10.6412,0.00109951,-0.000908777,0.000553258,0.00124184,-0.00105111,0.251796,0.00132536,0.0139687,727,694,-26.0302,10.6412
-490,330,-26.0542,-11.5671,0.000782771,-0.001074,0.000859567,0.00111959,-0.00141082,0.373463,0.00146416,0.0141062,734,694,-26.0542,11.5672
-483,330,-26.0901,-12.527,0.000484555,-0.00102738,0.000973042,0.000960781,-0.0015036,0.455147,0.00143427,0.0150387,741,694,-26.0901,12.5271
-476,330,-26.1871,-13.5087,0,0,0,0,0,0,0,-1,748,694,-26.1871,13.5087
-469,330,-16.1478,-9.23303,0,0,0,0,0,0,0,-1,755,694,-16.1478,9.23301
-462,330,-7.26733,-3.84833,0,0,0,0,0,0,0,-1,762,694,-7.26731,3.84832
-455,330,-5.04254,-1.79303,0,0,0,0,0,0,0,-1,769,694,-5.04252,1.79305
-448,330,-4.89886,-1.66156,0,0,0,0,0,0,0,-1,776,694,-4.89886,1.66157
-441,330,-5.30676,-2.34045,0,0,0,0,0,0,0,-1,783,694,-5.30679,2.34048
-434,330,-7.20428,1.00024,0,0,0,0,0,0,0,-1,790,694,-7.20431,-1.00027
-427,330,-16.0428,2.89258,0,0,0,0,0,0,0,-1,797,694,-16.0428,-2.89259
-420,330,-29.0331,0.271606,0,0,0,0,0,0,0,-1,804,694,-29.0331,-0.27158
-413,330,-29.0896,0.56366,0,0,0,0,0,0,0,-1,811,694,-29.0896,-0.563671
-406,330,-1.65375,-1.74371,0,0,0,0,0,0,0,-1,818,694,-1.65375,1.74371
-399,330,0,0,0,0,0,0,0,0,0,-1,825,694,0,0
-392,330,0,0,0,0,0,0,0,0,0,-1,832,694,0,0
-385,330,0,0,0,0,0,0,0,0,0,-1,839,694,0,0
-378,330,0,0,0,0,0,0,0,0,0,-1,846,694,0,0
-371,330,0,0,0,0,0,0,0,0,0,-1,853,694,0,0
-364,330,0,0,0,0,0,0,0,0,0,-1,860,694,0,0
-357,330,0,0,0,0,0,0,0,0,0,-1,867,694,0,0
-350,330,0,0,0,0,0,0,0,0,0,-1,874,694,0,0
-343,330,0,0,0,0,0,0,0,0,0,-1,881,694,0,0
-336,330,0,0,0,0,0,0,0,0,0,-1,888,694,0,0
-329,330,0,0,0,0,0,0,0,0,0,-1,895,694,0,0
-322,330,0,0,0,0,0,0,0,0,0,-1,902,694,0,0
-315,330,0,0,0,0,0,0,0,0,0,-1,909,694,0,0
-308,330,0,0,0,0,0,0,0,0,0,-1,916,694,0,0
-301,330,0,0,0,0,0,0,0,0,0,-1,923,694,0,0
-294,330,0,0,0,0,0,0,0,0,0,-1,930,694,0,0
-287,330,0,0,0,0,0,0,0,0,0,-1,937,694,0,0
-280,330,0,0,0,0,0,0,0,0,0,-1,944,694,0,0
-273,330,0,0,0,0,0,0,0,0,0,-1,951,694,0,0
-266,330,0,0,0,0,0,0,0,0,0,-1,958,694,0,0
-259,330,0,0,0,0,0,0,0,0,0,-1,965,694,0,0
-252,330,0,0,0,0,0,0,0,0,0,-1,972,694,0,0
-245,330,0,0,0,0,0,0,0,0,0,-1,979,694,0,0
-238,330,0,0,0,0,0,0,0,0,0,-1,986,694,0,0
-231,330,0,0,0,0,0,0,0,0,0,-1,993,694,0,0
-224,330,0,0,0,0,0,0,0,0,0,-1,1000,694,0,0
-217,330,0,0,0,0,0,0,0,0,0,-1,1007,694,0,0
-210,330,0,0,0,0,0,0,0,0,0,-1,1014,694,0,0
-203,330,0,0,0,0,0,0,0,0,0,-1,1021,694,0,0
-196,330,0,0,0,0,0,0,0,0,0,-1,1028,694,0,0
-189,330,0,0,0,0,0,0,0,0,0,-1,1035,694,0,0
-182,330,0,0,0,0,0,0,0,0,0,-1,1042,694,0,0
-175,330,0,0,0,0,0,0,0,0,0,-1,1049,694,0,0
-168,330,0,0,0,0,0,0,0,0,0,-1,1056,694,0,0
-161,330,0,0,0,0,0,0,0,0,0,-1,1063,694,0,0
-154,330,0,0,0,0,0,0,0,0,0,-1,1070,694,0,0
-147,330,0,0,0,0,0,0,0,0,0,-1,1077,694,0,0
-140,330,0,0,0,0,0,0,0,0,0,-1,1084,694,0,0
-133,330,0,0,0,0,0,0,0,0,0,-1,1091,694,0,0
-126,330,0,0,0,0,0,0,0,0,0,-1,1098,694,0,0
-119,330,0,0,0,0,0,0,0,0,0,-1,1105,694,0,0
-112,330,0,0,0,0,0,0,0,0,0,-1,1112,694,0,0
-105,330,0,0,0,0,0,0,0,0,0,-1,1119,694,0,0
-98,330,0,0,0,0,0,0,0,0,0,-1,1126,694,0,0
-91,330,0,0,0,0,0,0,0,0,0,-1,1133,694,0,0
-84,330,0,0,0,0,0,0,0,0,0,-1,1140,694,0,0
-77,330,0,0,0,0,0,0,0,0,0,-1,1147,694,0,0
-70,330,0,0,0,0,0,0,0,0,0,-1,1154,694,0,0
-63,330,0,0,0,0,0,0,0,0,0,-1,1161,694,0,0
-56,330,0,0,0,0,0,0,0,0,0,-1,1168,694,0,0
-49,330,0,0,0,0,0,0,0,0,0,-1,1175,694,0,0
-42,330,0,0,0,0,0,0,0,0,0,-1,1182,694,0,0
-35,330,0,0,0,0,0,0,0,0,0,-1,1189,694,0,0
-28,330,0,0,0,0,0,0,0,0,0,-1,1196,694,0,0
-21,330,0,0,0,0,0,0,0,0,0,-1,1203,694,0,0
-14,330,0,0,0,0,0,0,0,0,0,-1,1210,694,0,0
-7,330,0,0,0,0,0,0,0,0,0,-1,1217,694,0,0
0,330,0,0,0,0,0,0,0,0,0,-1,1224,694,0,0
7,330,0,0,0,0,0,0,0,0,0,-1,1231,694,0,0
14,330,0,0,0,0,0,0,0,0,0,-1,1238,694,0,0
21,330,0,0,0,0,0,0,0,0,0,-1,1245,694,0,0
28,330,0,0,0,0,0,0,0,0,0,-1,1252,694,0,0
35,330,0,0,0,0,0,0,0,0,0,-1,1259,694,0,0
42,330,0,0,0,0,0,0,0,0,0,-1,1266,694,0,0
49,330,0,0,0,0,0,0,0,0,0,-1,1273,694,0,0
56,330,0,0,0,0,0,0,0,0,0,-1,1280,694,0,0
63,330,0,0,0,0,0,0,0,0,0,-1,1287,694,0,0
70,330,0,0,0,0,0,0,0,0,0,-1,1294,694,0,0
77,330,0,0,0,0,0,0,0,0,0,-1,1301,694,0,0
84,330,0,0,0,0,0,0,0,0,0,-1,1308,694,0,0
91,330,0,0,0,0,0,0,0,0,0,-1,1315,694,0,0
98,330,0,0,0,0,0,0,0,0,0,-1,1322,694,0,0
105,330,0,0,0,0,0,0,0,0,0,-1,1329,694,0,0
112,330,0,0,0,0,0,0,0,0,0,-1,1336,694,0,0
119,330,0,0,0,0,0,0,0,0,0,-1,1343,694,0,0
126,330,0,0,0,0,0,0,0,0,0,-1,1350,694,0,0
133,330,0,0,0,0,0,0,0,0,0,-1,1357,694,0,0
140,330,0,0,0,0,0,0,0,0,0,-1,1364,694,0,0
147,330,0,0,0,0,0,0,0,0,0,-1,1371,694,0,0
154,330,0,0,0,0,0,0,0,0,0,-1,1378,694,0,0
161,330,0,0,0,0,0,0,0,0,0,-1,1385,694,0,0
168,330,0,0,0,0,0,0,0,0,0,-1,1392,694,0,0
175,330,0,0,0,0,0,0,0,0,0,-1,1399,694,0,0
182,330,0,0,0,0,0,0,0,0,0,-1,1406,694,0,0
189,330,0,0,0,0,0,0,0,0,0,-1,1413,694,0,0
196,330,0,0,0,0,0,0,0,0,0,-1,1420,694,0,0
203,330,0,0,0,0,0,0,0,0,0,-1,1427,694,0,0
210,330,0,0,0,0,0,0,0,0,0,-1,1434,694,0,0
217,330,0,0,0,0,0,0,0,0,0,-1,1441,694,0,0
224,330,0,0,0,0,0,0,0,0,0,-1,1448,694,0,0
231,330,0,0,0,0,0,0,0,0,0,-1,1455,694,0,0
238,330,0,0,0,0,0,0,0,0,0,-1,1462,694,0,0
245,330,0,0,0,0,0,0,0,0,0,-1,1469,694,0,0
252,330,0,0,0,0,0,0,0,0,0,-1,1476,694,0,0
259,330,0,0,0,0,0,0,0,0,0,-1,1483,694,0,0
266,330,0,0,0,0,0,0,0,0,0,-1,1490,694,0,0
273,330,0,0,0,0,0,0,0,0,0,-1,1497,694,0,0
280,330,0,0,0,0,0,0,0,0,0,-1,1504,694,0,0
287,330,0,0,0,0,0,0,0,0,0,-1,1511,694,0,0
294,330,0,0,0,0,0,0,0,0,0,-1,1518,694,0,0
301,330,0,0,0,0,0,0,0,0,0,-1,1525,694,0,0
308,330,0,0,0,0,0,0,0,0,0,-1,1532,694,0,0
315,330,0,0,0,0,0,0,0,0,0,-1,1539,694,0,0
322,330,0,0,0,0,0,0,0,0,0,-1,1546,694,0,0
329,330,0,0,0,0,0,0,0,0,0,-1,1553,694,0,0
336,330,0,0,0,0,0,0,0,0,0,-1,1560,694,0,0
343,330,0,0,0,0,0,0,0,0,0,-1,1567,694,0,0
350,330,0,0,0,0,0,0,0,0,0,-1,1574,694,0,0
357,330,0,0,0,0,0,0,0,0,0,-1,1581,694,0,0
364,330,0,0,0,0,0,0,0,0,0,-1,1588,694,0,0
371,330,0,0,0,0,0,0,0,0,0,-1,1595,694,0,0
378,330,0,0,0,0,0,0,0,0,0,-1,1602,694,0,0
385,330,0,0,0,0,0,0,0,0,0,-1,1609,694,0,0
392,330,0,0,0,0,0,0,0,0,0,-1,1616,694,0,0
399,330,0,0,0,0,0,0,0,0,0,-1,1623,694,0,0
406,330,0,0,0,0,0,0,0,0,0,-1,1630,694,0,0
413,330,0,0,0,0,0,0,0,0,0,-1,1637,694,0,0
420,330,0,0,0,0,0,0,0,0,0,-1,1644,694,0,0
427,330,0,0,0,0,0,0,0,0,0,-1,1651,694,0,0
434,330,0,0,0,0,0,0,0,0,0,-1,1658,694,0,0
441,330,0,0,0,0,0,0,0,0,0,-1,1665,694,0,0
448,330,0,0,0,0,0,0,0,0,0,-1,1672,694,0,0
455,330,0,0,0,0,0,0,0,0,0,-1,1679,694,0,0
462,330,0,0,0,0,0,0,0,0,0,-1,1686,694,0,0
469,330,0,0,0,0,0,0,0,0,0,-1,1693,694,0,0
476,330,0,0,0,0,0,0,0,0,0,-1,1700,694,0,0
483,330,0,0,0,0,0,0,0,0,0,-1,1707,694,0,0
490,330,0,0,0,0,0,0,0,0,0,-1,1714,694,0,0
497,330,0,0,0,0,0,0,0,0,0,-1,1721,694,0,0
504,330,0,0,0,0,0,0,0,0,0,-1,1728,694,0,0
511,330,0,0,0,0,0,0,0,0,0,-1,1735,694,0,0
518,330,0,0,0,0,0,0,0,0,0,-1,1742,694,0,0
525,330,30.6694,0.69519,0,0,0,0,0,0,0,-1,1749,694,30.6694,-0.695206
532,330,30.9469,1.32501,0,0,0,0,0,0,0,-1,1756,694,30.9469,-1.32501
539,330,31.5155,1.62506,0,0,0,0,0,0,0,-1,1763,694,31.5155,-1.62507
546,330,31.4187,1.85651,0,0,0,0,0,0,0,-1,1770,694,31.4187,-1.85651
553,330,31.8452,1.81476,0,0,0,0,0,0,0,-1,1777,694,31.8452,-1.81475
560,330,32.2401,2.43225,0,0,0,0,0,0,0,-1,1784,694,32.2401,-2.43227
567,330,18.0321,3.98578,0,0,0,0,0,0,0,-1,1791,694,18.0321,-3.98576
574,330,12.0454,2.1662,0,0,0,0,0,0,0,-1,1798,694,12.0455,-2.16618
581,330,11.4215,4.50836,0,0,0,0,0,0,0,-1,1805,694,11.4215,-4.50837
588,330,6.45667,-0.0630493,0,0,0,0,0,0,0,-1,1812,694,6.45661,0.0630695
595,330,8.23193,-0.258484,0,0,0,0,0,0,0,-1,1819,694,8.23188,0.258459
602,330,41.4751,-13.2646,0,0,0,0,0,0,0,-1,1826,694,41.4751,13.2646
609,330,41.6222,-12.0527,0.00172706,0.000229591,0.000771921,0.00205371,-9.70658e-05,0.400323,0.00140262,0.0281522,1833,694,41.6222,12.0527
616,330,41.6034,-11.1044,0.0016375,9.39559e-05,0.00073011,0.00192813,-0.000196671,0.378832,0.00135574,0.0126478,1840,694,41.6034,11.1044
623,330,41.5326,-10.16,0.00145486,0.000167644,0.000628107,0.00171056,-8.80528e-05,0.386604,0.00117083,0.015293,1847,694,41.5326,10.16
630,330,41.4924,-9.1955,0.00141764,0.000378575,0.000656405,0.00173523,6.09797e-05,0.450636,0.00113704,0.0152674,1854,694,41.4924,9.19547
637,330,41.4606,-8.24091,0.00144052,0.000697696,0.000741314,0.00189826,0.000239958,0.553166,0.00119359,0.0139335,1861,694,41.4605,8.24093
644,330,41.3787,-7.30432,0.00153635,0.00114108,0.000891898,0.00225224,0.000425179,0.676365,0.00138175,0.00977188,1868,694,41.3787,7.30434
651,330,41.3163,-6.36176,0.00173003,0.00171711,0.00110261,0.0028262,0.00062094,0.782469,0.00171504,0.0131946,1875,694,41.3162,6.36173
658,330,41.2445,-5.4306,0.00206474,0.00246132,0.00141146,0.00368835,0.000837712,0.855184,0.00223268,0.0134191,1882,694,41.2445,5.43062
665,330,41.1715,-4.47852,0.00265668,0.00339916,0.00186208,0.00492665,0.00112919,0.883792,0.00298022,0.0119171,1889,694,41.1715,4.47853
672,330,41.2456,-3.48553,0.00357571,0.00465362,0.00237104,0.00654619,0.00168314,0.897153,0.00392527,0.0399362,1896,694,41.2456,3.48552
679,330,41.443,-2.42694,0,0,0,0,0,0,0,-1,1903,694,41.443,2.42694
686,330,30.6691,0.582825,0,0,0,0,0,0,0,-1,1910,694,30.6691,-0.582798
693,330,17.3999,2.5976,0,0,0,0,0,0,0,-1,1917,694,17.4,-2.59759
700,330,17.1072,4.13,0,0,0,0,0,0,0,-1,1924,694,17.1071,-4.13002
707,330,16.663,4.88672,0,0,0,0,0,0,0,-1,1931,694,16.6629,-4.88673
714,330,16.5454,5.80896,0,0,0,0,0,0,0,-1,1938,694,16.5454,-5.80899
721,330,0,0,0,0,0,0,0,0,0,-1,1945,694,0,0
728,330,0,0,0,0,0,0,0,0,0,-1,1952,694,0,0
735,330,0,0,0,0,0,0,0,0,0,-1,1959,694,0,0
742,330,0,0,0,0,0,0,0,0,0,-1,1966,694,0,0
749,330,0,0,0,0,0,0,0,0,0,-1,1973,694,0,0
756,330,0,0,0,0,0,0,0,0,0,-1,1980,694,0,0
763,330,0,0,0,0,0,0,0,0,0,-1,1987,694,0,0
770,330,0,0,0,0,0,0,0,0,0,-1,1994,694,0,0
777,330,0,0,0,0,0,0,0,0,0,-1,2001,694,0,0
784,330,0,0,0,0,0,0,0,0,0,-1,2008,694,0,0
791,330,0,0,0,0,0,0,0,0,0,-1,2015,694,0,0
798,330,0,0,0,0,0,0,0,0,0,-1,2022,694,0,0
805,330,0,0,0,0,0,0,0,0,0,-1,2029,694,0,0
812,330,0,0,0,0,0,0,0,0,0,-1,2036,694,0,0
-700,323,0,0,0,0,0,0,0,0,0,-1,524,701,0,0
-693,323,0,0,0,0,0,0,0,0,0,-1,531,701,0,0
-686,323,0,0,0,0,0,0,0,0,0,-1,538,701,0,0
-679,323,0,0,0,0,0,0,0,0,0,-1,545,701,0,0
-672,323,0,0,0,0,0,0,0,0,0,-1,552,701,0,0
-665,323,0,0,0,0,0,0,0,0,0,-1,559,701,0,0
-658,323,0,0,0,0,0,0,0,0,0,-1,566,701,0,0
-651,323,0,0,0,0,0,0,0,0,0,-1,573,701,0,0
-644,323,0,0,0,0,0,0,0,0,0,-1,580,701,0,0
-637,323,0,0,0,0,0,0,0,0,0,-1,587,701,0,0
-630,323,0,0,0,0,0,0,0,0,0,-1,594,701,0,0
-623,323,0,0,0,0,0,0,0,0,0,-1,601,701,0,0
-616,323,0,0,0,0,0,0,0,0,0,-1,608,701,0,0
-609,323,0,0,0,0,0,0,0,0,0,-1,615,701,0,0
-602,323,-4.15833,2.12256,0,0,0,0,0,0,0,-1,622,701,-4.1583,-2.12257
-595,323,-4.052,1.79156,0,0,0,0,0,0,0,-1,629,701,-4.05198,-1.79158
-588,323,-4.07019,1.94543,0,0,0,0,0,0,0,-1,636,701,-4.07019,-1.94542
-581,323,-6.63727,0.562805,0,0,0,0,0,0,0,-1,643,701,-6.63728,-0.56279
-574,323,-6.15887,0.426697,0,0,0,0,0,0,0,-1,650,701,-6.15887,-0.426727
-567,323,-10.0015,0.0371094,0,0,0,0,0,0,0,-1,657,701,-10.0015,-0.037126
-560,323,-16.3503,-1.16956,0,0,0,0,0,0,0,-1,664,701,-16.3503,1.16957
-553,323,-26.7068,-3.21954,0,0,0,0,0,0,0,-1,671,701,-26.7068,3.21951
-546,323,-26.6181,-4.00568,0,0,0,0,0,0,0,-1,678,701,-26.6181,4.00569
-539,323,-26.5884,-4.84729,0.00307227,0.00331906,-0.00320595,0.00640399,-1.26576e-05,-0.804633,0.00427355,0.0322389,685,701,-26.5885,4.8473
-532,323,-26.7011,-5.85913,0.00283846,0.0022557,-0.00245805,0.00502234,7.18164e-05,-0.726403,0.00332454,0.0127547,692,701,-26.7011,5.85914
-525,323,-26.7539,-6.82739,0.00246963,0.00129077,-0.00167818,0.00365889,0.000101514,-0.616513,0.00240613,0.00812007,699,701,-26.7539,6.82741
-518,323,-26.7817,-7.72778,0.00207239,0.000490151,-0.00093265,0.00250426,5.82794e-05,-0.43366,0.00165042,0.0103354,706,701,-26.7817,7.72781
-511,323,-26.8684,-8.66626,0.00159272,-0.000168679,-0.000260953,0.00163057,-0.000206526,-0.14403,0.00116202,0.0143033,713,701,-26.8684,8.66629
-504,323,-26.9501,-9.60797,0.00104086,-0.000707795,0.000385425,0.00112204,-0.000788978,0.207599,0.0011089,0.0149835,720,701,-26.9501,9.60796
-497,323,-26.9891,-10.5316,0.000554918,-0.00108626,0.000921844,0.000968493,-0.00149984,0.421722,0.00143606,0.011771,727,701,-26.9892,10.5316
-490,323,-27.0255,-11.4698,0.000197771,-0.00129662,0.00127977,0.000932509,-0.00203136,0.521169,0.00174995,0.0138143,734,701,-27.0255,11.4698
-483,323,-27.0691,-12.4058,-0.000180474,-0.00125912,0.00146684,0.000843055,-0.00228265,0.609232,0.00186733,0.0342765,741,701,-27.0691,12.4058
-476,323,-27.0749,-13.3842,0,0,0,0,0,0,0,-1,748,701,-27.0749,13.3842
-469,323,-8.33301,-3.64001,0,0,0,0,0,0,0,-1,755,701,-8.33298,3.64
-462,323,-5.29431,-1.45697,0,0,0,0,0,0,0,-1,762,701,-5.29431,1.45699
-455,323,-5.0658,-1.36639,0,0,0,0,0,0,0,-1,769,701,-5.06578,1.3664
-448,323,-4.91608,-1.59601,0,0,0,0,0,0,0,-1,776,701,-4.91606,1.59604
-441,323,-14.4006,0.535217,0,0,0,0,0,0,0,-1,783,701,-14.4006,-0.535203
-434,323,-15.3158,2.479,0,0,0,0,0,0,0,-1,790,701,-15.3158,-2.47898
-427,323,-28.3923,1.16797,0,0,0,0,0,0,0,-1,797,701,-28.3923,-1.16796
-420,323,-28.7292,1.09302,0,0,0,0,0,0,0,-1,804,701,-28.7292,-1.09304
-413,323,-28.7955,1.22418,0,0,0,0,0,0,0,-1,811,701,-28.7956,-1.22419
-406,323,0,0,0,0,0,0,0,0,0,-1,818,701,0,0
-399,323,0,0,0,0,0,0,0,0,0,-1,825,701,0,0
-392,323,0,0,0,0,0,0,0,0,0,-1,832,701,0,0
-385,323,0,0,0,0,0,0,0,0,0,-1,839,701,0,0
-378,323,0,0,0,0,0,0,0,0,0,-1,846,701,0,0
-371,323,0,0,0,0,0,0,0,0,0,-1,853,701,0,0
-364,323,0,0,0,0,0,0,0,0,0,-1,860,701,0,0
-357,323,0,0,0,0,0,0,0,0,0,-1,867,701,0,0
-350,323,0,0,0,0,0,0,0,0,0,-1,874,701,0,0
-343,323,0,0,0,0,0,0,0,0,0,-1,881,701,0,0
-336,323,0,0,0,0,0,0,0,0,0,-1,888,701,0,0
-329,323,0,0,0,0,0,0,0,0,0,-1,895,701,0,0
-322,323,0,0,0,0,0,0,0,0,0,-1,902,701,0,0
-315,323,0,0,0,0,0,0,0,0,0,-1,909,701,0,0
-308,323,0,0,0,0,0,0,0,0,0,-1,916,701,0,0
-301,323,0,0,0,0,0,0,0,0,0,-1,923,701,0,0
-294,323,0,0,0,0,0,0,0,0,0,-1,930,701,0,0
-287,323,0,0,0,0,0,0,0,0,0,-1,937,701,0,0
-280,323,0,0,0,0,0,0,0,0,0,-1,944,701,0,0
-273,323,0,0,0,0,0,0,0,0,0,-1,951,701,0,0
-266,323,0,0,0,0,0,0,0,0,0,-1,958,701,0,0
-259,323,0,0,0,0,0,0,0,0,0,-1,965,701,0,0
-252,323,0,0,0,0,0,0,0,0,0,-1,972,701,0,0
-245,323,0,0,0,0,0,0,0,0,0,-1,979,701,0,0
-238,323,0,0,0,0,0,0,0,0,0,-1,986,701,0,0
-231,323,0,0,0,0,0,0,0,0,0,-1,993,701,0,0
-224,323,0,0,0,0,0,0,0,0,0,-1,1000,701,0,0
-217,323,0,0,0,0,0,0,0,0,0,-1,1007,701,0,0
-210,323,0,0,0,0,0,0,0,0,0,-1,1014,701,0,0
-203,323,0,0,0,0,0,0,0,0,0,-1,1021,701,0,0
-196,323,0,0,0,0,0,0,0,0,0,-1,1028,701,0,0
-189,323,0,0,0,0,0,0,0,0,0,-1,1035,701,0,0
-182,323,0,0,0,0,0,0,0,0,0,-1,1042,701,0,0
-175,323,0,0,0,0,0,0,0,0,0,-1,1049,701,0,0
-168,323,0,0,0,0,0,0,0,0,0,-1,1056,701,0,0
-161,323,0,0,0,0,0,0,0,0,0,-1,1063,701,0,0
-154,323,0,0,0,0,0,0,0,0,0,-1,1070,701,0,0
-147,323,0,0,0,0,0,0,0,0,0,-1,1077,701,0,0
-140,323,0,0,0,0,0,0,0,0,0,-1,1084,701,0,0
-133,323,0,0,0,0,0,0,0,0,0,-1,1091,701,0,0
-126,323,0,0,0,0,0,0,0,0,0,-1,1098,701,0,0
-119,323,0,0,0,0,0,0,0,0,0,-1,1105,701,0,0
-112,323,0,0,0,0,0,0,0,0,0,-1,1112,701,0,0
-105,323,0,0,0,0,0,0,0,0,0,-1,1119,701,0,0
-98,323,0,0,0,0,0,0,0,0,0,-1,1126,701,0,0
-91,323,0,0,0,0,0,0,0,0,0,-1,1133,701,0,0
-84,323,0,0,0,0,0,0,0,0,0,-1,1140,701,0,0
-77,323,0,0,0,0,0,0,0,0,0,-1,1147,701,0,0
-70,323,0,0,0,0,0,0,0,0,0,-1,1154,701,0,0
-63,323,0,0,0,0,0,0,0,0,0,-1,1161,701,0,0
-56,323,0,0,0,0,0,0,0,0,0,-1,1168,701,0,0
-49,323,0,0,0,0,0,0,0,0,0,-1,1175,701,0,0
-42,323,0,0,0,0,0,0,0,0,0,-1,1182,701,0,0
-35,323,0,0,0,0,0,0,0,0,0,-1,1189,701,0,0
-28,323,0,0,0,0,0,0,0,0,0,-1,1196,701,0,0
-21,323,0,0,0,0,0,0,0,0,0,-1,1203,701,0,0
-14,323,0,0,0,0,0,0,0,0,0,-1,1210,701,0,0
-7,323,0,0,0,0,0,0,0,0,0,-1,1217,701,0,0
0,323,0,0,0,0,0,0,0,0,0,-1,1224,701,0,0
7,323,0,0,0,0,0,0,0,0,0,-1,1231,701,0,0
14,323,0,0,0,0,0,0,0,0,0,-1,1238,701,0,0
21,323,0,0,0,0,0,0,0,0,0,-1,1245,701,0,0
28,323,0,0,0,0,0,0,0,0,0,-1,1252,701,0,0
35,323,0,0,0,0,0,0,0,0,0,-1,1259,701,0,0
42,323,0,0,0,0,0,0,0,0,0,-1,1266,701,0,0
49,323,0,0,0,0,0,0,0,0,0,-1,1273,701,0,0
56,323,0,0,0,0,0,0,0,0,0,-1,1280,701,0,0
63,323,0,0,0,0,0,0,0,0,0,-1,1287,701,0,0
70,323,0,0,0,0,0,0,0,0,0,-1,1294,701,0,0
77,323,0,0,0,0,0,0,0,0,0,-1,1301,701,0,0
84,323,0,0,0,0,0,0,0,0,0,-1,1308,701,0,0
91,323,0,0,0,0,0,0,0,0,0,-1,1315,701,0,0
98,323,0,0,0,0,0,0,0,0,0,-1,1322,701,0,0
105,323,0,0,0,0,0,0,0,0,0,-1,1329,701,0,0
112,323,0,0,0,0,0,0,0,0,0,-1,1336,701,0,0
119,323,0,0,0,0,0,0,0,0,0,-1,1343,701,0,0
126,323,0,0,0,0,0,0,0,0,0,-1,1350,701,0,0
133,323,0,0,0,0,0,0,0,0,0,-1,1357,701,0,0
140,323,0,0,0,0,0,0,0,0,0,-1,1364,701,0,0
147,323,0,0,0,0,0,0,0,0,0,-1,1371,701,0,0
154,323,0,0,0,0,0,0,0,0,0,-1,1378,701,0,0
161,323,0,0,0,0,0,0,0,0,0,-1,1385,701,0,0
168,323,0,0,0,0,0,0,0,0,0,-1,1392,701,0,0
175,323,0,0,0,0,0,0,0,0,0,-1,1399,701,0,0
182,323,0,0,0,0,0,0,0,0,0,-1,1406,701,0,0
189,323,0,0,0,0,0,0,0,0,0,-1,1413,701,0,0
196,323,0,0,0,0,0,0,0,0,0,-1,1420,701,0,0
203,323,0,0,0,0,0,0,0,0,0,-1,1427,701,0,0
210,323,0,0,0,0,0,0,0,0,0,-1,1434,701,0,0
217,323,0,0,0,0,0,0,0,0,0,-1,1441,701,0,0
224,323,0,0,0,0,0,0,0,0,0,-1,1448,701,0,0
231,323,0,0,0,0,0,0,0,0,0,-1,1455,701,0,0
238,323,0,0,0,0,0,0,0,0,0,-1,1462,701,0,0
245,323,0,0,0,0,0,0,0,0,0,-1,1469,701,0,0
252,323,0,0,0,0,0,0,0,0,0,-1,1476,701,0,0
259,323,0,0,0,0,0,0,0,0,0,-1,1483,701,0,0
266,323,0,0,0,0,0,0,0,0,0,-1,1490,701,0,0
273,323,0,0,0,0,0,0,0,0,0,-1,1497,701,0,0
280,323,0,0,0,0,0,0,0,0,0,-1,1504,701,0,0
287,323,0,0,0,0,0,0,0,0,0,-1,1511,701,0,0
294,323,0,0,0,0,0,0,0,0,0,-1,1518,701,0,0
301,323,0,0,0,0,0,0,0,0,0,-1,1525,701,0,0
308,323,0,0,0,0,0,0,0,0,0,-1,1532,701,0,0
315,323,0,0,0,0,0,0,0,0,0,-1,1539,701,0,0
322,323,0,0,0,0,0,0,0,0,0,-1,1546,701,0,0
329,323,0,0,0,0,0,0,0,0,0,-1,1553,701,0,0
336,323,0,0,0,0,0,0,0,0,0,-1,1560,701,0,0
343,323,0,0,0,0,0,0,0,0,0,-1,1567,701,0,0
350,323,0,0,0,0,0,0,0,0,0,-1,1574,701,0,0
357,323,0,0,0,0,0,0,0,0,0,-1,1581,701,0,0
364,323,0,0,0,0,0,0,0,0,0,-1,1588,701,0,0
371,323,0,0,0,0,0,0,0,0,0,-1,1595,701,0,0
378,323,0,0,0,0,0,0,0,0,0,-1,1602,701,0,0
385,323,0,0,0,0,0,0,0,0,0,-1,1609,701,0,0
392,323,0,0,0,0,0,0,0,0,0,-1,1616,701,0,0
399,323,0,0,0,0,0,0,0,0,0,-1,1623,701,0,0
406,323,0,0,0,0,0,0,0,0,0,-1,1630,701,0,0
413,323,0,0,0,0,0,0,0,0,0,-1,1637,701,0,0
420,323,0,0,0,0,0,0,0,0,0,-1,1644,701,0,0
427,323,0,0,0,0,0,0,0,0,0,-1,1651,701,0,0
434,323,0,0,0,0,0,0,0,0,0,-1,1658,701,0,0
441,323,0,0,0,0,0,0,0,0,0,-1,1665,701,0,0
448,323,0,0,0,0,0,0,0,0,0,-1,1672,701,0,0
455,323,0,0,0,0,0,0,0,0,0,-1,1679,701,0,0
462,323,0,0,0,0,0,0,0,0,0,-1,1686,701,0,0
469,323,0,0,0,0,0,0,0,0,0,-1,1693,701,0,0
476,323,0,0,0,0,0,0,0,0,0,-1,1700,701,0,0
483,323,0,0,0,0,0,0,0,0,0,-1,1707,701,0,0
490,323,0,0,0,0,0,0,0,0,0,-1,1714,701,0,0
497,323,0,0,0,0,0,0,0,0,0,-1,1721,701,0,0
504,323,0,0,0,0,0,0,0,0,0,-1,1728,701,0,0
511,323,0,0,0,0,0,0,0,0,0,-1,1735,701,0,0
518,323,0,0,0,0,0,0,0,0,0,-1,1742,701,0,0
525,323,0,0,0,0,0,0,0,0,0,-1,1749,701,0,0
532,323,33.6193,1.69446,0,0,0,0,0,0,0,-1,1756,701,33.6193,-1.69444
539,323,32.2698,2.44037,0,0,0,0,0,0,0,-1,1763,701,32.2697,-2.44036
546,323,31.1644,3.9444,0,0,0,0,0,0,0,-1,1770,701,31.1644,-3.94438
553,323,30.2488,5.8775,0,0,0,0,0,0,0,-1,1777,701,30.2487,-5.87752
560,323,40.6711,1.25153,0,0,0,0,0,0,0,-1,1784,701,40.6711,-1.25154
567,323,42.1637,2.01208,0,0,0,0,0,0,0,-1,1791,701,42.1637,-2.01207
574,323,12.514,5.89685,0,0,0,0,0,0,0,-1,1798,701,12.5141,-5.89683
581,323,11.821,5.3476,0,0,0,0,0,0,0,-1,1805,701,11.821,-5.34762
588,323,11.7933,7.00818,0,0,0,0,0,0,0,-1,1812,701,11.7933,-7.00819
595,323,6.67847,0.06604,0,0,0,0,0,0,0,-1,1819,701,6.67841,-0.0660418
602,323,42.304,-13.0413,0,0,0,0,0,0,0,-1,1826,701,42.3039,13.0413
609,323,42.4822,-11.9922,0.00230463,0.000489644,0.00113094,0.00284716,-5.2885e-05,0.447289,0.00191598,0.0410982,1833,701,42.4822,11.9923
616,323,42.5294,-11.0049,0.00208266,0.000191233,0.000993717,0.00250875,-0.000234859,0.405073,0.00175603,0.0132336,1840,701,42.5294,11.0049
623,323,42.4697,-10.0797,0.00171336,0.000165939,0.000771458,0.00203225,-0.00015295,0.39197,0.00140859,0.0138953,1847,701,42.4697,10.0797
630,323,42.4055,-9.13031,0.00158707,0.000272598,0.000717285,0.0019027,-4.30255e-05,0.414528,0.00128305,0.0146555,1854,701,42.4055,9.1303
637,323,42.3754,-8.17621,0.00153463,0.00051526,0.000744561,0.00192725,0.000122641,0.48526,0.00124596,0.0118992,1861,701,42.3754,8.17622
644,323,42.309,-7.26813,0.001572,0.000893438,0.000853422,0.00215111,0.000314329,0.5962,0.00134163,0.00929236,1868,701,42.309,7.26811
651,323,42.2854,-6.32574,0.00169994,0.00139793,0.00102459,0.0025846,0.000513276,0.712234,0.00158001,0.0130791,1875,701,42.2854,6.32573
658,323,42.1669,-5.35455,0.00195071,0.00207609,0.00128298,0.00329791,0.000728882,0.80981,0.00200041,0.0227887,1882,701,42.1669,5.35454
665,323,42.0547,-4.40344,0.00240885,0.00292772,0.00167181,0.0043601,0.00097646,0.862375,0.0026421,0.018532,1889,701,42.0547,4.40342
672,323,42.121,-3.40613,0.00308211,0.00405863,0.00213105,0.00575664,0.0013841,0.898013,0.00346967,0.0231888,1896,701,42.1209,3.40614
679,323,42.2565,-2.29126,0,0,0,0,0,0,0,-1,1903,701,42.2565,2.29124
686,323,30.4916,0.378235,0,0,0,0,0,0,0,-1,1910,701,30.4916,-0.37825
693,323,23.8806,1.08844,0,0,0,0,0,0,0,-1,1917,701,23.8806,-1.08845
700,323,10.7705,0.828613,0,0,0,0,0,0,0,-1,1924,701,10.7705,-0.828591
707,323,16.9005,4.79193,0,0,0,0,0,0,0,-1,1931,701,16.9005,-4.7919
714,323,16.2346,6.25958,0,0,0,0,0,0,0,-1,1938,701,16.2346,-6.25956
721,323,0,0,0,0,0,0,0,0,0,-1,1945,701,0,0
728,323,0,0,0,0,0,0,0,0,0,-1,1952,701,0,0
735,323,0,0,0,0,0,0,0,0,0,-1,1959,701,0,0
742,323,0,0,0,0,0,0,0,0,0,-1,1966,701,0,0
749,323,0,0,0,0,0,0,0,0,0,-1,1973,701,0,0
756,323,0,0,0,0,0,0,0,0,0,-1,1980,701,0,0
763,323,0,0,0,0,0,0,0,0,0,-1,1987,701,0,0
770,323,0,0,0,0,0,0,0,0,0,-1,1994,701,0,0
777,323,0,0,0,0,0,0,0,0,0,-1,2001,701,0,0
784,323,0,0,0,0,0,0,0,0,0,-1,2008,701,0,0
791,323,0,0,0,0,0,0,0,0,0,-1,2015,701,0,0
798,323,0,0,0,0,0,0,0,0,0,-1,2022,701,0,0
805,323,0,0,0,0,0,0,0,0,0,-1,2029,701,0,0
812,323,0,0,0,0,0,0,0,0,0,-1,2036,701,0,0
-700,316,0,0,0,0,0,0,0,0,0,-1,524,708,0,0
-693,316,0,0,0,0,0,0,0,0,0,-1,531,708,0,0
-686,316,0,0,0,0,0,0,0,0,0,-1,538,708,0,0
-679,316,0,0,0,0,0,0,0,0,0,-1,545,708,0,0
-672,316,0,0,0,0,0,0,0,0,0,-1,552,708,0,0
-665,316,0,0,0,0,0,0,0,0,0,-1,559,708,0,0
-658,316,0,0,0,0,0,0,0,0,0,-1,566,708,0,0
-651,316,0,0,0,0,0,0,0,0,0,-1,573,708,0,0
-644,316,0,0,0,0,0,0,0,0,0,-1,580,708,0,0
-637,316,0,0,0,0,0,0,0,0,0,-1,587,708,0,0
-630,316,0,0,0,0,0,0,0,0,0,-1,594,708,0,0
-623,316,0,0,0,0,0,0,0,0,0,-1,601,708,0,0
-616,316,0,0,0,0,0,0,0,0,0,-1,608,708,0,0
-609,316,0,0,0,0,0,0,0,0,0,-1,615,708,0,0
-602,316,-0.451782,-0.0494995,0,0,0,0,0,0,0,-1,622,708,-0.451768,0.0495022
-595,316,-3.3761,2.17188,0,0,0,0,0,0,0,-1,629,708,-3.37609,-2.17189
-588,316,-5.00177,2.60675,0,0,0,0,0,0,0,-1,636,708,-5.00175,-2.60676
-581,316,-3.94653,0.393433,0,0,0,0,0,0,0,-1,643,708,-3.94655,-0.39342
-574,316,-9.67395,1.06067,0,0,0,0,0,0,0,-1,650,708,-9.67396,-1.06065
-567,316,-10.1962,0.448425,0,0,0,0,0,0,0,-1,657,708,-10.1962,-0.448411
-560,316,-18.9941,-1.75067,0,0,0,0,0,0,0,-1,664,708,-18.9941,1.75068
-553,316,-25.6896,-2.78827,0,0,0,0,0,0,0,-1,671,708,-25.6896,2.78827
-546,316,-27.4567,-3.88165,0,0,0,0,0,0,0,-1,678,708,-27.4567,3.88165
-539,316,-27.5273,-4.85339,0.00207156,0.0029759,-0.0024225,0.00498807,5.93967e-05,-0.877664,0.00330576,0.0146589,685,708,-27.5274,4.8534
-532,316,-27.6086,-5.79828,0.00205738,0.00192769,-0.00182631,0.00382,0.000165074,-0.767652,0.00249346,0.0113243,692,708,-27.6086,5.79828
-525,316,-27.6555,-6.72308,0.00184821,0.000957258,-0.00116659,0.00265148,0.000153979,-0.603013,0.00171863,0.0103866,699,708,-27.6555,6.72309
-518,316,-27.6962,-7.66046,0.00156076,0.000192956,-0.000509857,0.0017299,2.38188e-05,-0.320311,0.00114541,0.0109423,706,708,-27.6962,7.66047
-511,316,-27.7902,-8.60864,0.00112029,-0.00047925,0.000126472,0.00113023,-0.000489188,0.0784185,0.000959075,0.0118058,713,708,-27.7901,8.60863
-504,316,-27.8934,-9.55157,0.000572185,-0.00106306,0.000792894,0.000893504,-0.00138438,0.385023,0.00132528,0.0157779,720,708,-27.8934,9.55158
-497,316,-27.921,-10.4496,8.32371e-05,-0.00149767,0.00137778,0.000881207,-0.00229564,0.524964,0.00189378,0.0139562,727,708,-27.9209,10.4496
-490,316,-27.9824,-11.3797,-0.000243536,-0.00178713,0.00179441,0.000938012,-0.00296868,0.582301,0.00235491,0.0192508,734,708,-27.9824,11.3797
-483,316,-28.0049,-12.3566,0,0,0,0,0,0,0,-1,741,708,-28.0049,12.3566
-476,316,-8.90894,-3.31207,0,0,0,0,0,0,0,-1,748,708,-8.90896,3.31206
-469,316,-6.24194,-1.42725,0,0,0,0,0,0,0,-1,755,708,-6.24192,1.42725
-462,316,-5.74237,-1.40039,0,0,0,0,0,0,0,-1,762,708,-5.74238,1.40039
-455,316,-5.44745,-1.21899,0,0,0,0,0,0,0,-1,769,708,-5.44746,1.21898
-448,316,-14.8945,0.655396,0,0,0,0,0,0,0,-1,776,708,-14.8946,-0.655396
-441,316,-14.9626,0.576111,0,0,0,0,0,0,0,-1,783,708,-14.9626,-0.576115
-434,316,-27.7723,1.15576,0,0,0,0,0,0,0,-1,790,708,-27.7723,-1.15579
-427,316,-28.0504,1.31427,0,0,0,0,0,0,0,-1,797,708,-28.0504,-1.31427
-420,316,-28.198,1.62891,0,0,0,0,0,0,0,-1,804,708,-28.198,-1.62889
-413,316,0,0,0,0,0,0,0,0,0,-1,811,708,0,0
-406,316,0,0,0,0,0,0,0,0,0,-1,818,708,0,0
-399,316,0,0,0,0,0,0,0,0,0,-1,825,708,0,0
-392,316,0,0,0,0,0,0,0,0,0,-1,832,708,0,0
-385,316,0,0,0,0,0,0,0,0,0,-1,839,708,0,0
-378,316,0,0,0,0,0,0,0,0,0,-1,846,708,0,0
-371,316,0,0,0,0,0,0,0,0,0,-1,853,708,0,0
-364,316,0,0,0,0,0,0,0,0,0,-1,860,708,0,0
-357,316,0,0,0,0,0,0,0,0,0,-1,867,708,0,0
-350,316,0,0,0,0,0,0,0,0,0,-1,874,708,0,0
-343,316,0,0,0,0,0,0,0,0,0,-1,881,708,0,0
-336,316,0,0,0,0,0,0,0,0,0,-1,888,708,0,0
-329,316,0,0,0,0,0,0,0,0,0,-1,895,708,0,0
-322,316,0,0,0,0,0,0,0,0,0,-1,902,708,0,0
-315,316,0,0,0,0,0,0,0,0,0,-1,909,708,0,0
-308,316,0,0,0,0,0,0,0,0,0,-1,916,708,0,0
-301,316,0,0,0,0,0,0,0,0,0,-1,923,708,0,0
-294,316,0,0,0,0,0,0,0,0,0,-1,930,708,0,0
-287,316,0,0,0,0,0,0,0,0,0,-1,937,708,0,0
-280,316,0,0,0,0,0,0,0,0,0,-1,944,708,0,0
-273,316,0,0,0,0,0,0,0,0,0,-1,951,708,0,0
-266,316,0,0,0,0,0,0,0,0,0,-1,958,708,0,0
-259,316,0,0,0,0,0,0,0,0,0,-1,965,708,0,0
-252,316,0,0,0,0,0,0,0,0,0,-1,972,708,0,0
-245,316,0,0,0,0,0,0,0,0,0,-1,979,708,0,0
-238,316,0,0,0,0,0,0,0,0,0,-1,986,708,0,0
-231,316,0,0,0,0,0,0,0,0,0,-1,993,708,0,0
-224,316,0,0,0,0,0,0,0,0,0,-1,1000,708,0,0
-217,316,0,0,0,0,0,0,0,0,0,-1,1007,708,0,0
-210,316,0,0,0,0,0,0,0,0,0,-1,1014,708,0,0
-203,316,0,0,0,0,0,0,0,0,0,-1,1021,708,0,0
-196,316,0,0,0,0,0,0,0,0,0,-1,1028,708,0,0
-189,316,0,0,0,0,0,0,0,0,0,-1,1035,708,0,0
-182,316,0,0,0,0,0,0,0,0,0,-1,1042,708,0,0
-175,316,0,0,0,0,0,0,0,0,0,-1,1049,708,0,0
-168,316,0,0,0,0,0,0,0,0,0,-1,1056,708,0,0
-161,316,0,0,0,0,0,0,0,0,0,-1,1063,708,0,0
-154,316,0,0,0,0,0,0,0,0,0,-1,1070,708,0,0
-147,316,0,0,0,0,0,0,0,0,0,-1,1077,708,0,0
-140,316,0,0,0,0,0,0,0,0,0,-1,1084,708,0,0
-133,316,0,0,0,0,0,0,0,0,0,-1,1091,708,0,0
-126,316,0,0,0,0,0,0,0,0,0,-1,1098,708,0,0
-119,316,0,0,0,0,0,0,0,0,0,-1,1105,708,0,0
-112,316,0,0,0,0,0,0,0,0,0,-1,1112,708,0,0
-105,316,0,0,0,0,0,0,0,0,0,-1,1119,708,0,0
-98,316,0,0,0,0,0,0,0,0,0,-1,1126,708,0,0
-91,316,0,0,0,0,0,0,0,0,0,-1,1133,708,0,0
-84,316,0,0,0,0,0,0,0,0,0,-1,1140,708,0,0
-77,316,0,0,0,0,0,0,0,0,0,-1,1147,708,0,0
-70,316,0,0,0,0,0,0,0,0,0,-1,1154,708,0,0
-63,316,0,0,0,0,0,0,0,0,0,-1,1161,708,0,0
-56,316,0,0,0,0,0,0,0,0,0,-1,1168,708,0,0
-49,316,0,0,0,0,0,0,0,0,0,-1,1175,708,0,0
-42,316,0,0,0,0,0,0,0,0,0,-1,1182,708,0,0
-35,316,0,0,0,0,0,0,0,0,0,-1,1189,708,0,0
-28,316,0,0,0,0,0,0,0,0,0,-1,1196,708,0,0
-21,316,0,0,0,0,0,0,0,0,0,-1,1203,708,0,0
-14,316,0,0,0,0,0,0,0,0,0,-1,1210,708,0,0
-7,316,0,0,0,0,0,0,0,0,0,-1,1217,708,0,0
0,316,0,0,0,0,0,0,0,0,0,-1,1224,708,0,0
7,316,0,0,0,0,0,0,0,0,0,-1,1231,708,0,0
14,316,0,0,0,0,0,0,0,0,0,-1,1238,708,0,0
21,316,0,0,0,0,0,0,0,0,0,-1,1245,708,0,0
28,316,0,0,0,0,0,0,0,0,0,-1,1252,708,0,0
35,316,0,0,0,0,0,0,0,0,0,-1,1259,708,0,0
42,316,0,0,0,0,0,0,0,0,0,-1,1266,708,0,0
49,316,0,0,0,0,0,0,0,0,0,-1,1273,708,0,0
56,316,0,0,0,0,0,0,0,0,0,-1,1280,708,0,0
63,316,0,0,0,0,0,0,0,0,0,-1,1287,708,0,0
70,316,0,0,0,0,0,0,0,0,0,-1,1294,708,0,0
77,316,0,0,0,0,0,0,0,0,0,-1,1301,708,0,0
84,316,0,0,0,0,0,0,0,0,0,-1,1308,708,0,0
91,316,0,0,0,0,0,0,0,0,0,-1,1315,708,0,0
98,316,0,0,0,0,0,0,0,0,0,-1,1322,708,0,0
105,316,0,0,0,0,0,0,0,0,0,-1,1329,708,0,0
112,316,0,0,0,0,0,0,0,0,0,-1,1336,708,0,0
119,316,0,0,0,0,0,0,0,0,0,-1,1343,708,0,0
126,316,0,0,0,0,0,0,0,0,0,-1,1350,708,0,0
133,316,0,0,0,0,0,0,0,0,0,-1,1357,708,0,0
140,316,0,0,0,0,0,0,0,0,0,-1,1364,708,0,0
147,316,0,0,0,0,0,0,0,0,0,-1,1371,708,0,0
154,316,0,0,0,0,0,0,0,0,0,-1,1378,708,0,0
161,316,0,0,0,0,0,0,0,0,0,-1,1385,708,0,0
168,316,0,0,0,0,0,0,0,0,0,-1,1392,708,0,0
175,316,0,0,0,0,0,0,0,0,0,-1,1399,708,0,0
182,316,0,0,0,0,0,0,0,0,0,-1,1406,708,0,0
189,316,0,0,0,0,0,0,0,0,0,-1,1413,708,0,0
196,316,0,0,0,0,0,0,0,0,0,-1,1420,708,0,0
203,316,0,0,0,0,0,0,0,0,0,-1,1427,708,0,0
210,316,0,0,0,0,0,0,0,0,0,-1,1434,708,0,0
217,316,0,0,0,0,0,0,0,0,0,-1,1441,708,0,0
224,316,0,0,0,0,0,0,0,0,0,-1,1448,708,0,0
231,316,0,0,0,0,0,0,0,0,0,-1,1455,708,0,0
238,316,0,0,0,0,0,0,0,0,0,-1,1462,708,0,0
245,316,0,0,0,0,0,0,0,0,0,-1,1469,708,0,0
252,316,0,0,0,0,0,0,0,0,0,-1,1476,708,0,0
259,316,0,0,0,0,0,0,0,0,0,-1,1483,708,0,0
266,316,0,0,0,0,0,0,0,0,0,-1,1490,708,0,0
273,316,0,0,0,0,0,0,0,0,0,-1,1497,708,0,0
280,316,0,0,0,0,0,0,0,0,0,-1,1504,708,0,0
287,316,0,0,0,0,0,0,0,0,0,-1,1511,708,0,0
294,316,0,0,0,0,0,0,0,0,0,-1,1518,708,0,0
301,316,0,0,0,0,0,0,0,0,0,-1,1525,708,0,0
308,316,0,0,0,0,0,0,0,0,0,-1,1532,708,0,0
315,316,0,0,0,0,0,0,0,0,0,-1,1539,708,0,0
322,316,0,0,0,0,0,0,0,0,0,-1,1546,708,0,0
329,316,0,0,0,0,0,0,0,0,0,-1,1553,708,0,0
336,316,0,0,0,0,0,0,0,0,0,-1,1560,708,0,0
343,316,0,0,0,0,0,0,0,0,0,-1,1567,708,0,0
350,316,0,0,0,0,0,0,0,0,0,-1,1574,708,0,0
357,316,0,0,0,0,0,0,0,0,0,-1,1581,708,0,0
364,316,0,0,0,0,0,0,0,0,0,-1,1588,708,0,0
371,316,0,0,0,0,0,0,0,0,0,-1,1595,708,0,0
378,316,0,0,0,0,0,0,0,0,0,-1,1602,708,0,0
385,316,0,0,0,0,0,0,0,0,0,-1,1609,708,0,0
392,316,0,0,0,0,0,0,0,0,0,-1,1616,708,0,0
399,316,0,0,0,0,0,0,0,0,0,-1,1623,708,0,0
406,316,0,0,0,0,0,0,0,0,0,-1,1630,708,0,0
413,316,0,0,0,0,0,0,0,0,0,-1,1637,708,0,0
420,316,0,0,0,0,0,0,0,0,0,-1,1644,708,0,0
427,316,0,0,0,0,0,0,0,0,0,-1,1651,708,0,0
434,316,0,0,0,0,0,0,0,0,0,-1,1658,708,0,0
441,316,0,0,0,0,0,0,0,0,0,-1,1665,708,0,0
448,316,0,0,0,0,0,0,0,0,0,-1,1672,708,0,0
455,316,0,0,0,0,0,0,0,0,0,-1,1679,708,0,0
462,316,0,0,0,0,0,0,0,0,0,-1,1686,708,0,0
469,316,0,0,0,0,0,0,0,0,0,-1,1693,708,0,0
476,316,0,0,0,0,0,0,0,0,0,-1,1700,708,0,0
483,316,0,0,0,0,0,0,0,0,0,-1,1707,708,0,0
490,316,0,0,0,0,0,0,0,0,0,-1,1714,708,0,0
497,316,0,0,0,0,0,0,0,0,0,-1,1721,708,0,0
504,316,0,0,0,0,0,0,0,0,0,-1,1728,708,0,0
511,316,0,0,0,0,0,0,0,0,0,-1,1735,708,0,0
518,316,0,0,0,0,0,0,0,0,0,-1,1742,708,0,0
525,316,0,0,0,0,0,0,0,0,0,-1,1749,708,0,0
532,316,33.8604,0.531128,0,0,0,0,0,0,0,-1,1756,708,33.8604,-0.531151
539,316,44.4543,2.73468,0,0,0,0,0,0,0,-1,1763,708,44.4543,-2.7347
546,316,44.713,3.35498,0,0,0,0,0,0,0,-1,1770,708,44.7131,-3.35501
553,316,39.9031,6.57275,0,0,0,0,0,0,0,-1,1777,708,39.9031,-6.57274
560,316,39.1196,1.10046,0,0,0,0,0,0,0,-1,1784,708,39.1197,-1.10048
567,316,47.3683,6.04919,0,0,0,0,0,0,0,-1,1791,708,47.3683,-6.04918
574,316,45.9872,6.7655,0,0,0,0,0,0,0,-1,1798,708,45.9871,-6.76552
581,316,24.6815,7.77496,0,0,0,0,0,0,0,-1,1805,708,24.6815,-7.77499
588,316,19.7659,2.90198,0,0,0,0,0,0,0,-1,1812,708,19.7659,-2.902
595,316,12.5363,1.50702,0,0,0,0,0,0,0,-1,1819,708,12.5363,-1.50701
602,316,7.79919,0.0422363,0,0,0,0,0,0,0,-1,1826,708,7.79923,-0.0422066
609,316,43.5027,-11.8163,0,0,0,0,0,0,0,-1,1833,708,43.5027,11.8163
616,316,43.4467,-10.9052,0.0025603,0.000307101,0.00123774,0.00310739,-0.000239986,0.416185,0.00215605,0.014624,1840,708,43.4467,10.9052
623,316,43.3975,-10.0063,0.00199658,0.000211105,0.000928539,0.00239193,-0.000184244,0.402527,0.00165945,0.0112967,1847,708,43.3975,10.0063
630,316,43.3357,-9.10382,0.00179159,0.000233049,0.000815092,0.00213999,-0.00011535,0.403931,0.00146662,0.0129388,1854,708,43.3356,9.1038
637,316,43.2727,-8.12219,0.00167769,0.000425048,0.000812783,0.00207748,2.52638e-05,0.457124,0.00137664,0.0126327,1861,708,43.2727,8.12219
644,316,43.2546,-7.17297,0.00166786,0.000766354,0.000900934,0.00222451,0.000209704,0.553448,0.00141828,0.0129502,1868,708,43.2546,7.17299
651,316,43.2108,-6.23737,0.00174929,0.00122716,0.00105072,0.00257089,0.00040556,0.663632,0.00159601,0.0176175,1875,708,43.2108,6.23737
658,316,43.0865,-5.25134,0.00194489,0.00186115,0.00126795,0.00317166,0.000634379,0.768894,0.0019379,0.038203,1882,708,43.0866,5.25134
665,316,42.9398,-4.32452,0.00230331,0.00265486,0.00160041,0.00408912,0.000869047,0.840094,0.00248753,0.0270126,1889,708,42.9398,4.3245
672,316,42.9698,-3.38959,0.00283019,0.00369873,0.00201148,0.00532228,0.00120663,0.891713,0.00322219,0.0145579,1896,708,42.9699,3.38958
679,316,42.995,-2.422,0,0,0,0,0,0,0,-1,1903,708,42.995,2.42198
686,316,34.0828,0.223206,0,0,0,0,0,0,0,-1,1910,708,34.0828,-0.223183
693,316,26.4315,1.80652,0,0,0,0,0,0,0,-1,1917,708,26.4315,-1.80651
700,316,12.8749,2.89136,0,0,0,0,0,0,0,-1,1924,708,12.8748,-2.89137
707,316,15.7089,5.41486,0,0,0,0,0,0,0,-1,1931,708,15.7088,-5.41487
714,316,16.1727,5.52045,0,0,0,0,0,0,0,-1,1938,708,16.1728,-5.52042
721,316,16.7094,6.53351,0,0,0,0,0,0,0,-1,1945,708,16.7094,-6.5335
728,316,0,0,0,0,0,0,0,0,0,-1,1952,708,0,0
735,316,0,0,0,0,0,0,0,0,0,-1,1959,708,0,0
742,316,0,0,0,0,0,0,0,0,0,-1,1966,708,0,0
749,316,0,0,0,0,0,0,0,0,0,-1,1973,708,0,0
756,316,0,0,0,0,0,0,0,0,0,-1,1980,708,0,0
763,316,0,0,0,0,0,0,0,0,0,-1,1987,708,0,0
770,316,0,0,0,0,0,0,0,0,0,-1,1994,708,0,0
777,316,0,0,0,0,0,0,0,0,0,-1,2001,708,0,0
784,316,0,0,0,0,0,0,0,0,0,-1,2008,708,0,0
791,316,0,0,0,0,0,0,0,0,0,-1,2015,708,0,0
798,316,0,0,0,0,0,0,0,0,0,-1,2022,708,0,0
805,316,0,0,0,0,0,0,0,0,0,-1,2029,708,0,0
812,316,0,0,0,0,0,0,0,0,0,-1,2036,708,0,0
-700,309,0,0,0,0,0,0,0,0,0,-1,524,715,0,0
-693,309,0,0,0,0,0,0,0,0,0,-1,531,715,0,0
-686,309,0,0,0,0,0,0,0,0,0,-1,538,715,0,0
-679,309,0,0,0,0,0,0,0,0,0,-1,545,715,0,0
-672,309,0,0,0,0,0,0,0,0,0,-1,552,715,0,0
-665,309,0,0,0,0,0,0,0,0,0,-1,559,715,0,0
-658,309,0,0,0,0,0,0,0,0,0,-1,566,715,0,0
-651,309,0,0,0,0,0,0,0,0,0,-1,573,715,0,0
-644,309,0,0,0,0,0,0,0,0,0,-1,580,715,0,0
-637,309,0,0,0,0,0,0,0,0,0,-1,587,715,0,0
-630,309,0,0,0,0,0,0,0,0,0,-1,594,715,0,0
-623,309,0,0,0,0,0,0,0,0,0,-1,601,715,0,0
-616,309,0,0,0,0,0,0,0,0,0,-1,608,715,0,0
-609,309,-5.95392,-3.93689,0,0,0,0,0,0,0,-1,615,715,-5.95392,3.93686
-602,309,-4.99786,-3.31287,0,0,0,0,0,0,0,-1,622,715,-4.99786,3.31284
-595,309,-6.80847,2.4046,0,0,0,0,0,0,0,-1,629,715,-6.80845,-2.40458
-588,309,-6.08795,2.19324,0,0,0,0,0,0,0,-1,636,715,-6.08793,-2.19325
-581,309,-5.97552,1.3277,0,0,0,0,0,0,0,-1,643,715,-5.97552,-1.32769
-574,309,-8.73602,0.208435,0,0,0,0,0,0,0,-1,650,715,-8.73604,-0.208437
-567,309,-10.3909,0.85968,0,0,0,0,0,0,0,-1,657,715,-10.3909,-0.859696
-560,309,-18.6088,-1.73389,0,0,0,0,0,0,0,-1,664,715,-18.6088,1.73389
-553,309,-28.5826,-2.73108,0,0,0,0,0,0,0,-1,671,715,-28.5826,2.73105
-546,309,-28.5716,-3.81451,0.00105388,0.00370973,-0.00197891,0.00476496,-1.35438e-06,-1.08091,0.00317709,0.0412388,678,715,-28.5716,3.81454
-539,309,-28.4741,-4.80096,0.00138741,0.00253492,-0.00161475,0.00367482,0.000247517,-0.956102,0.00237168,0.0161177,685,715,-28.4741,4.80096
-532,309,-28.522,-5.72992,0.00140317,0.00151162,-0.00114939,0.00260806,0.000306724,-0.808968,0.00164602,0.0124306,692,715,-28.522,5.72993
-525,309,-28.5976,-6.68488,0.00119393,0.000559483,-0.000606544,0.0015612,0.000192217,-0.544458,0.00098301,0.017105,699,715,-28.5976,6.6849
-518,309,-28.6499,-7.62,0.000889937,-0.000168063,-2.90705e-05,0.000890735,-0.000168861,-0.0274492,0.00065738,0.0177688,706,715,-28.6499,7.61998
-511,309,-28.7256,-8.53882,0.000392101,-0.000831391,0.000578911,0.000622597,-0.00106189,0.378914,0.000983499,0.0129699,713,715,-28.7256,8.53881
-504,309,-28.7992,-9.46869,-0.000210355,-0.00142377,0.00125948,0.000580936,-0.00221506,0.560944,0.00170369,0.0108712,720,715,-28.7992,9.46866
-497,309,-28.8619,-10.3682,-0.000719532,-0.00187453,0.001872,0.000662018,-0.00325608,0.635783,0.00242174,0.01587,727,715,-28.8619,10.3682
-490,309,-28.9227,-11.2773,0,0,0,0,0,0,0,-1,734,715,-28.9227,11.2773
-483,309,-17.7261,-7.75836,0,0,0,0,0,0,0,-1,741,715,-17.7261,7.75839
-476,309,-5.29486,-1.2262,0,0,0,0,0,0,0,-1,748,715,-5.29484,1.22622
-469,309,-4.22717,-0.592896,0,0,0,0,0,0,0,-1,755,715,-4.2272,0.592905
-462,309,-10.428,2.46948,0,0,0,0,0,0,0,-1,762,715,-10.428,-2.46947
-455,309,-15.8216,0.00915527,0,0,0,0,0,0,0,-1,769,715,-15.8216,-0.00913359
-448,309,-37.3543,-1.02441,0,0,0,0,0,0,0,-1,776,715,-37.3543,1.02444
-441,309,-19.8181,1.4425,0,0,0,0,0,0,0,-1,783,715,-19.8181,-1.44249
-434,309,-46.7953,1.72064,0,0,0,0,0,0,0,-1,790,715,-46.7953,-1.72067
-427,309,-27.8553,1.40332,0,0,0,0,0,0,0,-1,797,715,-27.8553,-1.40334
-420,309,-27.3148,1.90747,0,0,0,0,0,0,0,-1,804,715,-27.3148,-1.90745
-413,309,0,0,0,0,0,0,0,0,0,-1,811,715,0,0
-406,309,0,0,0,0,0,0,0,0,0,-1,818,715,0,0
-399,309,0,0,0,0,0,0,0,0,0,-1,825,715,0,0
-392,309,0,0,0,0,0,0,0,0,0,-1,832,715,0,0
-385,309,0,0,0,0,0,0,0,0,0,-1,839,715,0,0
-378,309,0,0,0,0,0,0,0,0,0,-1,846,715,0,0
-371,309,0,0,0,0,0,0,0,0,0,-1,853,715,0,0
-364,309,0,0,0,0,0,0,0,0,0,-1,860,715,0,0
-357,309,0,0,0,0,0,0,0,0,0,-1,867,715,0,0
-350,309,0,0,0,0,0,0,0,0,0,-1,874,715,0,0
-343,309,0,0,0,0,0,0,0,0,0,-1,881,715,0,0
-336,309,0,0,0,0,0,0,0,0,0,-1,888,715,0,0
-329,309,0,0,0,0,0,0,0,0,0,-1,895,715,0,0
-322,309,0,0,0,0,0,0,0,0,0,-1,902,715,0,0
-315,309,0,0,0,0,0,0,0,0,0,-1,909,715,0,0
-308,309,0,0,0,0,0,0,0,0,0,-1,916,715,0,0
-301,309,0,0,0,0,0,0,0,0,0,-1,923,715,0,0
-294,309,0,0,0,0,0,0,0,0,0,-1,930,715,0,0
-287,309,0,0,0,0,0,0,0,0,0,-1,937,715,0,0
-280,309,0,0,0,0,0,0,0,0,0,-1,944,715,0,0
-273,309,0,0,0,0,0,0,0,0,0,-1,951,715,0,0
-266,309,0,0,0,0,0,0,0,0,0,-1,958,715,0,0
-259,309,0,0,0,0,0,0,0,0,0,-1,965,715,0,0
-252,309,0,0,0,0,0,0,0,0,0,-1,972,715,0,0
-245,309,0,0,0,0,0,0,0,0,0,-1,979,715,0,0
-238,309,0,0,0,0,0,0,0,0,0,-1,986,715,0,0
-231,309,0,0,0,0,0,0,0,0,0,-1,993,715,0,0
-224,309,0,0,0,0,0,0,0,0,0,-1,1000,715,0,0
-217,309,0,0,0,0,0,0,0,0,0,-1,1007,715,0,0
-210,309,0,0,0,0,0,0,0,0,0,-1,1014,715,0,0
-203,309,0,0,0,0,0,0,0,0,0,-1,1021,715,0,0
-196,309,0,0,0,0,0,0,0,0,0,-1,1028,715,0,0
-189,309,0,0,0,0,0,0,0,0,0,-1,1035,715,0,0
-182,309,0,0,0,0,0,0,0,0,0,-1,1042,715,0,0
-175,309,0,0,0,0,0,0,0,0,0,-1,1049,715,0,0
-168,309,0,0,0,0,0,0,0,0,0,-1,1056,715,0,0
-161,309,0,0,0,0,0,0,0,0,0,-1,1063,715,0,0
-154,309,0,0,0,0,0,0,0,0,0,-1,1070,715,0,0
-147,309,0,0,0,0,0,0,0,0,0,-1,1077,715,0,0
-140,309,0,0,0,0,0,0,0,0,0,-1,1084,715,0,0
-133,309,0,0,0,0,0,0,0,0,0,-1,1091,715,0,0
-126,309,0,0,0,0,0,0,0,0,0,-1,1098,715,0,0
-119,309,0,0,0,0,0,0,0,0,0,-1,1105,715,0,0
-112,309,0,0,0,0,0,0,0,0,0,-1,1112,715,0,0
-105,309,0,0,0,0,0,0,0,0,0,-1,1119,715,0,0
-98,309,0,0,0,0,0,0,0,0,0,-1,1126,715,0,0
-91,309,0,0,0,0,0,0,0,0,0,-1,1133,715,0,0
-84,309,0,0,0,0,0,0,0,0,0,-1,1140,715,0,0
-77,309,0,0,0,0,0,0,0,0,0,-1,1147,715,0,0
-70,309,0,0,0,0,0,0,0,0,0,-1,1154,715,0,0
-63,309,0,0,0,0,0,0,0,0,0,-1,1161,715,0,0
-56,309,0,0,0,0,0,0,0,0,0,-1,1168,715,0,0
-49,309,0,0,0,0,0,0,0,0,0,-1,1175,715,0,0
-42,309,0,0,0,0,0,0,0,0,0,-1,1182,715,0,0
-35,309,0,0,0,0,0,0,0,0,0,-1,1189,715,0,0
-28,309,0,0,0,0,0,0,0,0,0,-1,1196,715,0,0
-21,309,0,0,0,0,0,0,0,0,0,-1,1203,715,0,0
-14,309,0,0,0,0,0,0,0,0,0,-1,1210,715,0,0
-7,309,0,0,0,0,0,0,0,0,0,-1,1217,715,0,0
0,309,0,0,0,0,0,0,0,0,0,-1,1224,715,0,0
7,309,0,0,0,0,0,0,0,0,0,-1,1231,715,0,0
14,309,0,0,0,0,0,0,0,0,0,-1,1238,715,0,0
21,309,0,0,0,0,0,0,0,0,0,-1,1245,715,0,0
28,309,0,0,0,0,0,0,0,0,0,-1,1252,715,0,0
35,309,0,0,0,0,0,0,0,0,0,-1,1259,715,0,0
42,309,0,0,0,0,0,0,0,0,0,-1,1266,715,0,0
49,309,0,0,0,0,0,0,0,0,0,-1,1273,715,0,0
56,309,0,0,0,0,0,0,0,0,0,-1,1280,715,0,0
63,309,0,0,0,0,0,0,0,0,0,-1,1287,715,0,0
70,309,0,0,0,0,0,0,0,0,0,-1,1294,715,0,0
77,309,0,0,0,0,0,0,0,0,0,-1,1301,715,0,0
84,309,0,0,0,0,0,0,0,0,0,-1,1308,715,0,0
91,309,0,0,0,0,0,0,0,0,0,-1,1315,715,0,0
98,309,0,0,0,0,0,0,0,0,0,-1,1322,715,0,0
105,309,0,0,0,0,0,0,0,0,0,-1,1329,715,0,0
112,309,0,0,0,0,0,0,0,0,0,-1,1336,715,0,0
119,309,0,0,0,0,0,0,0,0,0,-1,1343,715,0,0
126,309,0,0,0,0,0,0,0,0,0,-1,1350,715,0,0
133,309,0,0,0,0,0,0,0,0,0,-1,1357,715,0,0
140,309,0,0,0,0,0,0,0,0,0,-1,1364,715,0,0
147,309,0,0,0,0,0,0,0,0,0,-1,1371,715,0,0
154,309,0,0,0,0,0,0,0,0,0,-1,1378,715,0,0
161,309,0,0,0,0,0,0,0,0,0,-1,1385,715,0,0
168,309,0,0,0,0,0,0,0,0,0,-1,1392,715,0,0
175,309,0,0,0,0,0,0,0,0,0,-1,1399,715,0,0
182,309,0,0,0,0,0,0,0,0,0,-1,1406,715,0,0
189,309,0,0,0,0,0,0,0,0,0,-1,1413,715,0,0
196,309,0,0,0,0,0,0,0,0,0,-1,1420,715,0,0
203,309,0,0,0,0,0,0,0,0,0,-1,1427,715,0,0
210,309,0,0,0,0,0,0,0,0,0,-1,1434,715,0,0
217,309,0,0,0,0,0,0,0,0,0,-1,1441,715,0,0
224,309,0,0,0,0,0,0,0,0,0,-1,1448,715,0,0
231,309,0,0,0,0,0,0,0,0,0,-1,1455,715,0,0
238,309,0,0,0,0,0,0,0,0,0,-1,1462,715,0,0
245,309,0,0,0,0,0,0,0,0,0,-1,1469,715,0,0
252,309,0,0,0,0,0,0,0,0,0,-1,1476,715,0,0
259,309,0,0,0,0,0,0,0,0,0,-1,1483,715,0,0
266,309,0,0,0,0,0,0,0,0,0,-1,1490,715,0,0
273,309,0,0,0,0,0,0,0,0,0,-1,1497,715,0,0
280,309,0,0,0,0,0,0,0,0,0,-1,1504,715,0,0
287,309,0,0,0,0,0,0,0,0,0,-1,1511,715,0,0
294,309,0,0,0,0,0,0,0,0,0,-1,1518,715,0,0
301,309,0,0,0,0,0,0,0,0,0,-1,1525,715,0,0
308,309,0,0,0,0,0,0,0,0,0,-1,1532,715,0,0
315,309,0,0,0,0,0,0,0,0,0,-1,1539,715,0,0
322,309,0,0,0,0,0,0,0,0,0,-1,1546,715,0,0
329,309,0,0,0,0,0,0,0,0,0,-1,1553,715,0,0
336,309,0,0,0,0,0,0,0,0,0,-1,1560,715,0,0
343,309,0,0,0,0,0,0,0,0,0,-1,1567,715,0,0
350,309,0,0,0,0,0,0,0,0,0,-1,1574,715,0,0
357,309,0,0,0,0,0,0,0,0,0,-1,1581,715,0,0
364,309,0,0,0,0,0,0,0,0,0,-1,1588,715,0,0
371,309,0,0,0,0,0,0,0,0,0,-1,1595,715,0,0
378,309,0,0,0,0,0,0,0,0,0,-1,1602,715,0,0
385,309,0,0,0,0,0,0,0,0,0,-1,1609,715,0,0
392,309,0,0,0,0,0,0,0,0,0,-1,1616,715,0,0
399,309,0,0,0,0,0,0,0,0,0,-1,1623,715,0,0
406,309,0,0,0,0,0,0,0,0,0,-1,1630,715,0,0
413,309,0,0,0,0,0,0,0,0,0,-1,1637,715,0,0
420,309,0,0,0,0,0,0,0,0,0,-1,1644,715,0,0
427,309,0,0,0,0,0,0,0,0,0,-1,1651,715,0,0
434,309,0,0,0,0,0,0,0,0,0,-1,1658,715,0,0
441,309,0,0,0,0,0,0,0,0,0,-1,1665,715,0,0
448,309,0,0,0,0,0,0,0,0,0,-1,1672,715,0,0
455,309,0,0,0,0,0,0,0,0,0,-1,1679,715,0,0
462,309,0,0,0,0,0,0,0,0,0,-1,1686,715,0,0
469,309,0,0,0,0,0,0,0,0,0,-1,1693,715,0,0
476,309,0,0,0,0,0,0,0,0,0,-1,1700,715,0,0
483,309,0,0,0,0,0,0,0,0,0,-1,1707,715,0,0
490,309,0,0,0,0,0,0,0,0,0,-1,1714,715,0,0
497,309,0,0,0,0,0,0,0,0,0,-1,1721,715,0,0
504,309,0,0,0,0,0,0,0,0,0,-1,1728,715,0,0
511,309,0,0,0,0,0,0,0,0,0,-1,1735,715,0,0
518,309,0,0,0,0,0,0,0,0,0,-1,1742,715,0,0
525,309,0,0,0,0,0,0,0,0,0,-1,1749,715,0,0
532,309,0,0,0,0,0,0,0,0,0,-1,1756,715,0,0
539,309,44.2073,2.66235,0,0,0,0,0,0,0,-1,1763,715,44.2073,-2.66238
546,309,44.4976,3.25531,0,0,0,0,0,0,0,-1,1770,715,44.4976,-3.25533
553,309,47.9611,4.06433,0,0,0,0,0,0,0,-1,1777,715,47.9611,-4.06434
560,309,47.9784,4.64801,0,0,0,0,0,0,0,-1,1784,715,47.9784,-4.64799
567,309,47.0073,5.43121,0,0,0,0,0,0,0,-1,1791,715,47.0073,-5.43121
574,309,45.8746,6.53271,0,0,0,0,0,0,0,-1,1798,715,45.8747,-6.53269
581,309,45.0629,7.73468,0,0,0,0,0,0,0,-1,1805,715,45.0629,-7.73471
588,309,26.2064,7.76422,0,0,0,0,0,0,0,-1,1812,715,26.2064,-7.7642
595,309,19.585,3.71558,0,0,0,0,0,0,0,-1,1819,715,19.5849,-3.71555
602,309,11.0811,3.47772,0,0,0,0,0,0,0,-1,1826,715,11.0811,-3.47772
609,309,44.493,-11.9138,0,0,0,0,0,0,0,-1,1833,715,44.4931,11.9138
616,309,44.4163,-10.9032,0.00289668,0.000363011,0.0012439,0.00340528,-0.000145586,0.388132,0.00232024,0.0338437,1840,715,44.4163,10.9032
623,309,44.35,-9.92352,0.00212266,0.000220303,0.000911028,0.00248856,-0.000145604,0.381921,0.00170965,0.0125417,1847,715,44.35,9.92351
630,309,44.2659,-9.02448,0.00183059,0.000178961,0.000778185,0.00213947,-0.000129923,0.377857,0.00147154,0.0110359,1854,715,44.2659,9.02447
637,309,44.193,-8.08948,0.00164781,0.000320404,0.000763721,0.00199592,-2.77096e-05,0.427677,0.00133995,0.0138273,1861,715,44.1929,8.08945
644,309,44.1343,-7.1214,0.0015925,0.00062984,0.000844965,0.00208362,0.000138728,0.526497,0.00134522,0.014952,1868,715,44.1343,7.12143
651,309,44.0825,-6.1582,0.00164366,0.00105771,0.000993716,0.00238669,0.000314679,0.642044,0.0014973,0.0150839,1875,715,44.0826,6.15818
658,309,44.0438,-5.2121,0.00181809,0.00165311,0.00120109,0.00293952,0.000531687,0.751113,0.00180869,0.0223807,1882,715,44.0438,5.21208
665,309,43.9958,-4.29907,0.00214403,0.00239065,0.00150772,0.00378009,0.000754586,0.8262,0.00230998,0.018281,1889,715,43.9958,4.29905
672,309,43.9288,-3.35834,0.00263113,0.0033459,0.00190734,0.00492905,0.00104798,0.878011,0.00299839,0.0164428,1896,715,43.9288,3.35832
679,309,43.9119,-2.32568,0.00325005,0.00447379,0.00237791,0.00631729,0.00140655,0.911324,0.00382976,0.0305164,1903,715,43.9118,2.32567
686,309,43.8643,-1.29779,0,0,0,0,0,0,0,-1,1910,715,43.8642,1.29782
693,309,32.7026,1.51727,0,0,0,0,0,0,0,-1,1917,715,32.7026,-1.51727
700,309,23.0179,3.08337,0,0,0,0,0,0,0,-1,1924,715,23.018,-3.08336
707,309,15.6318,4.58655,0,0,0,0,0,0,0,-1,1931,715,15.6318,-4.58657
714,309,16.7573,6.68286,0,0,0,0,0,0,0,-1,1938,715,16.7574,-6.68284
721,309,16.8337,5.4458,0,0,0,0,0,0,0,-1,1945,715,16.8338,-5.44582
728,309,0,0,0,0,0,0,0,0,0,-1,1952,715,0,0
735,309,0,0,0,0,0,0,0,0,0,-1,1959,715,0,0
742,309,0,0,0,0,0,0,0,0,0,-1,1966,715,0,0
749,309,0,0,0,0,0,0,0,0,0,-1,1973,715,0,0
756,309,0,0,0,0,0,0,0,0,0,-1,1980,715,0,0
763,309,0,0,0,0,0,0,0,0,0,-1,1987,715,0,0
770,309,0,0,0,0,0,0,0,0,0,-1,1994,715,0,0
777,309,0,0,0,0,0,0,0,0,0,-1,2001,715,0,0
784,309,0,0,0,0,0,0,0,0,0,-1,2008,715,0,0
791,309,0,0,0,0,0,0,0,0,0,-1,2015,715,0,0
798,309,0,0,0,0,0,0,0,0,0,-1,2022,715,0,0
805,309,0,0,0,0,0,0,0,0,0,-1,2029,715,0,0
812,309,0,0,0,0,0,0,0,0,0,-1,2036,715,0,0
-700,302,0,0,0,0,0,0,0,0,0,-1,524,722,0,0
-693,302,0,0,0,0,0,0,0,0,0,-1,531,722,0,0
-686,302,0,0,0,0,0,0,0,0,0,-1,538,722,0,0
-679,302,0,0,0,0,0,0,0,0,0,-1,545,722,0,0
-672,302,0,0,0,0,0,0,0,0,0,-1,552,722,0,0
-665,302,0,0,0,0,0,0,0,0,0,-1,559,722,0,0
-658,302,0,0,0,0,0,0,0,0,0,-1,566,722,0,0
-651,302,0,0,0,0,0,0,0,0,0,-1,573,722,0,0
-644,302,0,0,0,0,0,0,0,0,0,-1,580,722,0,0
-637,302,0,0,0,0,0,0,0,0,0,-1,587,722,0,0
-630,302,0,0,0,0,0,0,0,0,0,-1,594,722,0,0
-623,302,0,0,0,0,0,0,0,0,0,-1,601,722,0,0
-616,302,0,0,0,0,0,0,0,0,0,-1,608,722,0,0
-609,302,-7.79266,-3.71649,0,0,0,0,0,0,0,-1,615,722,-7.79267,3.7165
-602,302,0.92865,-1.99158,0,0,0,0,0,0,0,-1,622,722,0.928637,1.99157
-595,302,-7.89941,2.13641,0,0,0,0,0,0,0,-1,629,722,-7.89939,-2.13639
-588,302,-7.10895,1.79163,0,0,0,0,0,0,0,-1,636,722,-7.10896,-1.79163
-581,302,-9.17566,1.09448,0,0,0,0,0,0,0,-1,643,722,-9.17569,-1.09445
-574,302,-11.5183,-0.344543,0,0,0,0,0,0,0,-1,650,722,-11.5183,0.344557
-567,302,-12.1534,-0.672241,0,0,0,0,0,0,0,-1,657,722,-12.1535,0.672246
-560,302,-29.5417,-1.84088,0,0,0,0,0,0,0,-1,664,722,-29.5418,1.84089
-553,302,-29.3867,-2.79175,-0.000493645,0.00412525,-0.00118848,0.00441311,-0.000781511,-1.33316,0.00323421,0.0437553,671,722,-29.3867,2.79174
-546,302,-29.3773,-3.79962,0.000339125,0.00307401,-0.00115857,0.00349882,-8.56861e-05,-1.21935,0.00236163,0.0200786,678,722,-29.3772,3.79964
-539,302,-29.4329,-4.70856,0.000694076,0.00201041,-0.00091717,0.00248113,0.000223357,-1.09662,0.00158489,0.016001,685,722,-29.4329,4.70858
-532,302,-29.4897,-5.64471,0.000713807,0.00108993,-0.000573129,0.00150506,0.000298674,-0.94393,0.000920121,0.0147271,692,722,-29.4897,5.64469
-525,302,-29.5145,-6.65082,0.00048608,0.000236934,-0.000149494,0.000556101,0.000166912,-0.43804,0.000329503,0.0210675,699,722,-29.5145,6.65081
-518,302,-29.5869,-7.56665,0.000136268,-0.000405311,0.000336922,0.000297733,-0.000566776,0.446897,0.000507117,0.023799,706,722,-29.5868,7.56664
-511,302,-29.6427,-8.47046,-0.000447564,-0.00101367,0.000903986,0.000216646,-0.00167788,0.633674,0.00119736,0.0119243,713,722,-29.6427,8.47045
-504,302,-29.733,-9.38831,-0.00111865,-0.00157504,0.00157547,0.000245058,-0.00293876,0.713477,0.00204575,0.0102115,720,722,-29.733,9.38828
-497,302,-29.8336,-10.2863,-0.00164509,-0.00201266,0.00220282,0.000381598,-0.00403935,0.743779,0.00282869,0.0163738,727,722,-29.8336,10.2863
-490,302,-29.9337,-11.187,0,0,0,0,0,0,0,-1,734,722,-29.9337,11.187
-483,302,-9.53412,-3.1673,0,0,0,0,0,0,0,-1,741,722,-9.53411,3.1673
-476,302,-4.29749,-0.203491,0,0,0,0,0,0,0,-1,748,722,-4.29751,0.203464
-469,302,-12.369,1.42859,0,0,0,0,0,0,0,-1,755,722,-12.3689,-1.42857
-462,302,-17.4766,0.310791,0,0,0,0,0,0,0,-1,762,722,-17.4766,-0.310788
-455,302,-36.7368,-2.97418,0,0,0,0,0,0,0,-1,769,722,-36.7368,2.97416
-448,302,-42.1174,-1.44232,0,0,0,0,0,0,0,-1,776,722,-42.1174,1.44229
-441,302,-46.7637,0.580078,0,0,0,0,0,0,0,-1,783,722,-46.7636,-0.58007
-434,302,-46.574,1.30511,0,0,0,0,0,0,0,-1,790,722,-46.574,-1.30509
-427,302,-46.7514,1.51532,0,0,0,0,0,0,0,-1,797,722,-46.7514,-1.51532
-420,302,0,0,0,0,0,0,0,0,0,-1,804,722,0,0
-413,302,0,0,0,0,0,0,0,0,0,-1,811,722,0,0
-406,302,0,0,0,0,0,0,0,0,0,-1,818,722,0,0
-399,302,0,0,0,0,0,0,0,0,0,-1,825,722,0,0
-392,302,0,0,0,0,0,0,0,0,0,-1,832,722,0,0
-385,302,0,0,0,0,0,0,0,0,0,-1,839,722,0,0
-378,302,0,0,0,0,0,0,0,0,0,-1,846,722,0,0
-371,302,0,0,0,0,0,0,0,0,0,-1,853,722,0,0
-364,302,0,0,0,0,0,0,0,0,0,-1,860,722,0,0
-357,302,0,0,0,0,0,0,0,0,0,-1,867,722,0,0
-350,302,0,0,0,0,0,0,0,0,0,-1,874,722,0,0
-343,302,0,0,0,0,0,0,0,0,0,-1,881,722,0,0
-336,302,0,0,0,0,0,0,0,0,0,-1,888,722,0,0
-329,302,0,0,0,0,0,0,0,0,0,-1,895,722,0,0
-322,302,0,0,0,0,0,0,0,0,0,-1,902,722,0,0
-315,302,0,0,0,0,0,0,0,0,0,-1,909,722,0,0
-308,302,0,0,0,0,0,0,0,0,0,-1,916,722,0,0
-301,302,0,0,0,0,0,0,0,0,0,-1,923,722,0,0
-294,302,0,0,0,0,0,0,0,0,0,-1,930,722,0,0
-287,302,0,0,0,0,0,0,0,0,0,-1,937,722,0,0
-280,302,0,0,0,0,0,0,0,0,0,-1,944,722,0,0
-273,302,0,0,0,0,0,0,0,0,0,-1,951,722,0,0
-266,302,0,0,0,0,0,0,0,0,0,-1,958,722,0,0
-259,302,0,0,0,0,0,0,0,0,0,-1,965,722,0,0
-252,302,0,0,0,0,0,0,0,0,0,-1,972,722,0,0
-245,302,0,0,0,0,0,0,0,0,0,-1,979,722,0,0
-238,302,0,0,0,0,0,0,0,0,0,-1,986,722,0,0
-231,302,0,0,0,0,0,0,0,0,0,-1,993,722,0,0
-224,302,0,0,0,0,0,0,0,0,0,-1,1000,722,0,0
-217,302,0,0,0,0,0,0,0,0,0,-1,1007,722,0,0
-210,302,0,0,0,0,0,0,0,0,0,-1,1014,722,0,0
-203,302,0,0,0,0,0,0,0,0,0,-1,1021,722,0,0
-196,302,0,0,0,0,0,0,0,0,0,-1,1028,722,0,0
-189,302,0,0,0,0,0,0,0,0,0,-1,1035,722,0,0
-182,302,0,0,0,0,0,0,0,0,0,-1,1042,722,0,0
-175,302,0,0,0,0,0,0,0,0,0,-1,1049,722,0,0
-168,302,0,0,0,0,0,0,0,0,0,-1,1056,722,0,0
-161,302,0,0,0,0,0,0,0,0,0,-1,1063,722,0,0
-154,302,0,0,0,0,0,0,0,0,0,-1,1070,722,0,0
-147,302,0,0,0,0,0,0,0,0,0,-1,1077,722,0,0
-140,302,0,0,0,0,0,0,0,0,0,-1,1084,722,0,0
-133,302,0,0,0,0,0,0,0,0,0,-1,1091,722,0,0
-126,302,0,0,0,0,0,0,0,0,0,-1,1098,722,0,0
-119,302,0,0,0,0,0,0,0,0,0,-1,1105,722,0,0
-112,302,0,0,0,0,0,0,0,0,0,-1,1112,722,0,0
-105,302,0,0,0,0,0,0,0,0,0,-1,1119,722,0,0
-98,302,0,0,0,0,0,0,0,0,0,-1,1126,722,0,0
-91,302,0,0,0,0,0,0,0,0,0,-1,1133,722,0,0
-84,302,0,0,0,0,0,0,0,0,0,-1,1140,722,0,0
-77,302,0,0,0,0,0,0,0,0,0,-1,1147,722,0,0
-70,302,0,0,0,0,0,0,0,0,0,-1,1154,722,0,0
-63,302,0,0,0,0,0,0,0,0,0,-1,1161,722,0,0
-56,302,0,0,0,0,0,0,0,0,0,-1,1168,722,0,0
-49,302,0,0,0,0,0,0,0,0,0,-1,1175,722,0,0
-42,302,0,0,0,0,0,0,0,0,0,-1,1182,722,0,0
-35,302,0,0,0,0,0,0,0,0,0,-1,1189,722,0,0
-28,302,0,0,0,0,0,0,0,0,0,-1,1196,722,0,0
-21,302,0,0,0,0,0,0,0,0,0,-1,1203,722,0,0
-14,302,0,0,0,0,0,0,0,0,0,-1,1210,722,0,0
-7,302,0,0,0,0,0,0,0,0,0,-1,1217,722,0,0
0,302,0,0,0,0,0,0,0,0,0,-1,1224,722,0,0
7,302,0,0,0,0,0,0,0,0,0,-1,1231,722,0,0
14,302,0,0,0,0,0,0,0,0,0,-1,1238,722,0,0
21,302,0,0,0,0,0,0,0,0,0,-1,1245,722,0,0
28,302,0,0,0,0,0,0,0,0,0,-1,1252,722,0,0
35,302,0,0,0,0,0,0,0,0,0,-1,1259,722,0,0
42,302,0,0,0,0,0,0,0,0,0,-1,1266,722,0,0
49,302,0,0,0,0,0,0,0,0,0,-1,1273,722,0,0
56,302,0,0,0,0,0,0,0,0,0,-1,1280,722,0,0
63,302,0,0,0,0,0,0,0,0,0,-1,1287,722,0,0
70,302,0,0,0,0,0,0,0,0,0,-1,1294,722,0,0
77,302,0,0,0,0,0,0,0,0,0,-1,1301,722,0,0
84,302,0,0,0,0,0,0,0,0,0,-1,1308,722,0,0
91,302,0,0,0,0,0,0,0,0,0,-1,1315,722,0,0
98,302,0,0,0,0,0,0,0,0,0,-1,1322,722,0,0
105,302,0,0,0,0,0,0,0,0,0,-1,1329,722,0,0
112,302,0,0,0,0,0,0,0,0,0,-1,1336,722,0,0
119,302,0,0,0,0,0,0,0,0,0,-1,1343,722,0,0
126,302,0,0,0,0,0,0,0,0,0,-1,1350,722,0,0
133,302,0,0,0,0,0,0,0,0,0,-1,1357,722,0,0
140,302,0,0,0,0,0,0,0,0,0,-1,1364,722,0,0
147,302,0,0,0,0,0,0,0,0,0,-1,1371,722,0,0
154,302,0,0,0,0,0,0,0,0,0,-1,1378,722,0,0
161,302,0,0,0,0,0,0,0,0,0,-1,1385,722,0,0
168,302,0,0,0,0,0,0,0,0,0,-1,1392,722,0,0
175,302,0,0,0,0,0,0,0,0,0,-1,1399,722,0,0
182,302,0,0,0,0,0,0,0,0,0,-1,1406,722,0,0
189,302,0,0,0,0,0,0,0,0,0,-1,1413,722,0,0
196,302,0,0,0,0,0,0,0,0,0,-1,1420,722,0,0
203,302,0,0,0,0,0,0,0,0,0,-1,1427,722,0,0
210,302,0,0,0,0,0,0,0,0,0,-1,1434,722,0,0
217,302,0,0,0,0,0,0,0,0,0,-1,1441,722,0,0
224,302,0,0,0,0,0,0,0,0,0,-1,1448,722,0,0
231,302,0,0,0,0,0,0,0,0,0,-1,1455,722,0,0
238,302,0,0,0,0,0,0,0,0,0,-1,1462,722,0,0
245,302,0,0,0,0,0,0,0,0,0,-1,1469,722,0,0
252,302,0,0,0,0,0,0,0,0,0,-1,1476,722,0,0
259,302,0,0,0,0,0,0,0,0,0,-1,1483,722,0,0
266,302,0,0,0,0,0,0,0,0,0,-1,1490,722,0,0
273,302,0,0,0,0,0,0,0,0,0,-1,1497,722,0,0
280,302,0,0,0,0,0,0,0,0,0,-1,1504,722,0,0
287,302,0,0,0,0,0,0,0,0,0,-1,1511,722,0,0
294,302,0,0,0,0,0,0,0,0,0,-1,1518,722,0,0
301,302,0,0,0,0,0,0,0,0,0,-1,1525,722,0,0
308,302,0,0,0,0,0,0,0,0,0,-1,1532,722,0,0
315,302,0,0,0,0,0,0,0,0,0,-1,1539,722,0,0
322,302,0,0,0,0,0,0,0,0,0,-1,1546,722,0,0
329,302,0,0,0,0,0,0,0,0,0,-1,1553,722,0,0
336,302,0,0,0,0,0,0,0,0,0,-1,1560,722,0,0
343,302,0,0,0,0,0,0,0,0,0,-1,1567,722,0,0
350,302,0,0,0,0,0,0,0,0,0,-1,1574,722,0,0
357,302,0,0,0,0,0,0,0,0,0,-1,1581,722,0,0
364,302,0,0,0,0,0,0,0,0,0,-1,1588,722,0,0
371,302,0,0,0,0,0,0,0,0,0,-1,1595,722,0,0
378,302,0,0,0,0,0,0,0,0,0,-1,1602,722,0,0
385,302,0,0,0,0,0,0,0,0,0,-1,1609,722,0,0
392,302,0,0,0,0,0,0,0,0,0,-1,1616,722,0,0
399,302,0,0,0,0,0,0,0,0,0,-1,1623,722,0,0
406,302,0,0,0,0,0,0,0,0,0,-1,1630,722,0,0
413,302,0,0,0,0,0,0,0,0,0,-1,1637,722,0,0
420,302,0,0,0,0,0,0,0,0,0,-1,1644,722,0,0
427,302,0,0,0,0,0,0,0,0,0,-1,1651,722,0,0
434,302,0,0,0,0,0,0,0,0,0,-1,1658,722,0,0
441,302,0,0,0,0,0,0,0,0,0,-1,1665,722,0,0
448,302,0,0,0,0,0,0,0,0,0,-1,1672,722,0,0
455,302,0,0,0,0,0,0,0,0,0,-1,1679,722,0,0
462,302,0,0,0,0,0,0,0,0,0,-1,1686,722,0,0
469,302,0,0,0,0,0,0,0,0,0,-1,1693,722,0,0
476,302,0,0,0,0,0,0,0,0,0,-1,1700,722,0,0
483,302,0,0,0,0,0,0,0,0,0,-1,1707,722,0,0
490,302,0,0,0,0,0,0,0,0,0,-1,1714,722,0,0
497,302,0,0,0,0,0,0,0,0,0,-1,1721,722,0,0
504,302,0,0,0,0,0,0,0,0,0,-1,1728,722,0,0
511,302,0,0,0,0,0,0,0,0,0,-1,1735,722,0,0
518,302,0,0,0,0,0,0,0,0,0,-1,1742,722,0,0
525,302,0,0,0,0,0,0,0,0,0,-1,1749,722,0,0
532,302,0,0,0,0,0,0,0,0,0,-1,1756,722,0,0
539,302,0,0,0,0,0,0,0,0,0,-1,1763,722,0,0
546,302,48.9873,1.50562,0,0,0,0,0,0,0,-1,1770,722,48.9873,-1.50562
553,302,56.7844,3.46533,0,0,0,0,0,0,0,-1,1777,722,56.7844,-3.4653
560,302,56.7115,3.84808,0,0,0,0,0,0,0,-1,1784,722,56.7116,-3.84806
567,302,55.9475,4.24542,0,0,0,0,0,0,0,-1,1791,722,55.9475,-4.24542
574,302,45.9537,6.00867,0,0,0,0,0,0,0,-1,1798,722,45.9537,-6.00864
581,302,45.137,7.38043,0,0,0,0,0,0,0,-1,1805,722,45.1369,-7.38044
588,302,26.9731,7.19983,0,0,0,0,0,0,0,-1,1812,722,26.9732,-7.19981
595,302,27.3826,8.13104,0,0,0,0,0,0,0,-1,1819,722,27.3825,-8.13102
602,302,14.7349,5.21246,0,0,0,0,0,0,0,-1,1826,722,14.7349,-5.21247
609,302,31.1039,-6.34253,0,0,0,0,0,0,0,-1,1833,722,31.1039,6.34254
616,302,45.3837,-10.8607,0,0,0,0,0,0,0,-1,1840,722,45.3836,10.8607
623,302,45.2753,-9.8515,0.00234503,0.000208186,0.000970646,0.0027201,-0.000166887,0.368742,0.00187151,0.0185694,1847,722,45.2753,9.85151
630,302,45.2074,-8.94781,0.00195002,0.000106991,0.000793904,0.00224484,-0.00018783,0.355572,0.00156294,0.0119439,1854,722,45.2074,8.94784
637,302,45.1246,-8.02002,0.00167501,0.00020159,0.000741043,0.00198323,-0.000106634,0.394165,0.00135909,0.015436,1861,722,45.1247,8.02004
644,302,45.073,-7.07123,0.00154282,0.00047517,0.000779029,0.00195337,6.46136e-05,0.485022,0.00128125,0.0166426,1868,722,45.073,7.07121
651,302,45.0206,-6.104,0.00153565,0.000876483,0.000899231,0.00216379,0.000248338,0.609743,0.00136729,0.0162246,1875,722,45.0206,6.10401
658,302,44.9823,-5.18195,0.00165757,0.00143243,0.00106793,0.00261884,0.00047115,0.732887,0.00161196,0.0178841,1882,722,44.9823,5.18192
665,302,44.9404,-4.27905,0.00191186,0.00210754,0.00132118,0.0033345,0.000684895,0.822358,0.00203352,0.0159791,1889,722,44.9404,4.27904
672,302,44.8567,-3.32599,0.00230725,0.00295652,0.00167295,0.00433605,0.000927728,0.881232,0.00263644,0.0122031,1896,722,44.8567,3.32597
679,302,44.8008,-2.362,0.00283297,0.00396611,0.00208958,0.00556456,0.00123451,0.917786,0.00337434,0.0103111,1903,722,44.8008,2.362
686,302,44.775,-1.34961,0.00351094,0.00509614,0.00261354,0.00703462,0.00157246,0.932623,0.00426337,0.0264092,1910,722,44.775,1.34961
693,302,44.6886,-0.344299,0,0,0,0,0,0,0,-1,1917,722,44.6885,0.344317
700,302,25.4069,1.97308,0,0,0,0,0,0,0,-1,1924,722,25.4068,-1.97311
707,302,16.7321,4.76685,0,0,0,0,0,0,0,-1,1931,722,16.7321,-4.76687
714,302,17.2,5.77594,0,0,0,0,0,0,0,-1,1938,722,17.2,-5.77595
721,302,17.7914,6.60394,0,0,0,0,0,0,0,-1,1945,722,17.7914,-6.60395
728,302,17.2798,4.81702,0,0,0,0,0,0,0,-1,1952,722,17.2798,-4.81703
735,302,0,0,0,0,0,0,0,0,0,-1,1959,722,0,0
742,302,0,0,0,0,0,0,0,0,0,-1,1966,722,0,0
749,302,0,0,0,0,0,0,0,0,0,-1,1973,722,0,0
756,302,0,0,0,0,0,0,0,0,0,-1,1980,722,0,0
763,302,0,0,0,0,0,0,0,0,0,-1,1987,722,0,0
770,302,0,0,0,0,0,0,0,0,0,-1,1994,722,0,0
777,302,0,0,0,0,0,0,0,0,0,-1,2001,722,0,0
784,302,0,0,0,0,0,0,0,0,0,-1,2008,722,0,0
791,302,0,0,0,0,0,0,0,0,0,-1,2015,722,0,0
798,302,0,0,0,0,0,0,0,0,0,-1,2022,722,0,0
805,302,0,0,0,0,0,0,0,0,0,-1,2029,722,0,0
812,302,0,0,0,0,0,0,0,0,0,-1,2036,722,0,0
-700,295,0,0,0,0,0,0,0,0,0,-1,524,729,0,0
-693,295,0,0,0,0,0,0,0,0,0,-1,531,729,0,0
-686,295,0,0,0,0,0,0,0,0,0,-1,538,729,0,0
-679,295,0,0,0,0,0,0,0,0,0,-1,545,729,0,0
-672,295,0,0,0,0,0,0,0,0,0,-1,552,729,0,0
-665,295,0,0,0,0,0,0,0,0,0,-1,559,729,0,0
-658,295,0,0,0,0,0,0,0,0,0,-1,566,729,0,0
-651,295,0,0,0,0,0,0,0,0,0,-1,573,729,0,0
-644,295,0,0,0,0,0,0,0,0,0,-1,580,729,0,0
-637,295,0,0,0,0,0,0,0,0,0,-1,587,729,0,0
-630,295,0,0,0,0,0,0,0,0,0,-1,594,729,0,0
-623,295,0,0,0,0,0,0,0,0,0,-1,601,729,0,0
-616,295,-13.4911,1.31738,0,0,0,0,0,0,0,-1,608,729,-13.4911,-1.3174
-609,295,-10.2864,0.832031,0,0,0,0,0,0,0,-1,615,729,-10.2863,-0.832034
-602,295,-8.19006,3.01587,0,0,0,0,0,0,0,-1,622,729,-8.19005,-3.01588
-595,295,-0.615479,-1.95447,0,0,0,0,0,0,0,-1,629,729,-0.615481,1.95445
-588,295,-7.98999,1.56903,0,0,0,0,0,0,0,-1,636,729,-7.98997,-1.56905
-581,295,-12.0404,0.150574,0,0,0,0,0,0,0,-1,643,729,-12.0404,-0.150604
-574,295,-12.1605,-0.0739746,0,0,0,0,0,0,0,-1,650,729,-12.1605,0.0739856
-567,295,-29.8959,-0.805481,0,0,0,0,0,0,0,-1,657,729,-29.8959,0.805484
-560,295,-30.1724,-1.90363,-0.00274957,0.00508819,-0.00050235,0.00512025,-0.00278164,-1.50705,0.00462828,0.0421292,664,729,-30.1724,1.90366
-553,295,-30.2144,-2.85663,-0.00119443,0.00346318,-0.000588458,0.00353638,-0.00126762,-1.44704,0.00287485,0.023418,671,729,-30.2144,2.85665
-546,295,-30.3348,-3.73438,-0.000381012,0.00247056,-0.000553562,0.00257425,-0.000484701,-1.38563,0.00189847,0.0231026,678,729,-30.3349,3.73436
-539,295,-30.3929,-4.64569,-6.46666e-06,0.00151947,-0.000363297,0.00160155,-8.85459e-05,-1.3486,0.00109841,0.0204036,685,729,-30.3929,4.64569
-532,295,-30.4348,-5.57513,3.71107e-05,0.000715478,-7.94279e-05,0.000724654,2.79348e-05,-1.45578,0.000474065,0.0173235,692,729,-30.4348,5.57516
-525,295,-30.4594,-6.55774,-0.000188626,-4.81377e-05,0.000272642,0.000163164,-0.000399928,0.911477,0.000334543,0.0163909,699,729,-30.4594,6.55776
-518,295,-30.498,-7.49164,-0.000609424,-0.000607289,0.000670381,6.20257e-05,-0.00127874,0.786194,0.000873902,0.0121364,706,729,-30.4981,7.49162
-511,295,-30.5879,-8.38611,-0.00135046,-0.00119527,0.00109816,-0.000171967,-0.00237377,0.82067,0.00152842,0.0101089,713,729,-30.5879,8.38611
-504,295,-30.6597,-9.28906,-0.0021872,-0.00176309,0.00159171,-0.00036937,-0.00358091,0.851621,0.00227417,0.0113417,720,729,-30.6597,9.28904
-497,295,-30.7492,-10.1498,-0.00294135,-0.00227463,0.00193345,-0.00064601,-0.00456996,0.870767,0.00285577,0.0256912,727,729,-30.7492,10.1499
-490,295,-30.847,-10.9869,0,0,0,0,0,0,0,-1,734,729,-30.847,10.9869
-483,295,-6.84503,-0.454651,0,0,0,0,0,0,0,-1,741,729,-6.84505,0.454639
-476,295,-13.1738,-0.836243,0,0,0,0,0,0,0,-1,748,729,-13.1738,0.836223
-469,295,-26.5608,-0.466187,0,0,0,0,0,0,0,-1,755,729,-26.5608,0.466162
-462,295,-29.7701,-0.792664,0,0,0,0,0,0,0,-1,762,729,-29.7701,0.792642
-455,295,-45.11,-2.79272,0,0,0,0,0,0,0,-1,769,729,-45.11,2.79272
-448,295,-48.0288,1.41229,0,0,0,0,0,0,0,-1,776,729,-48.0288,-1.41227
-441,295,-47.1089,1.03058,0,0,0,0,0,0,0,-1,783,729,-47.109,-1.0306
-434,295,-46.2319,1.10614,0,0,0,0,0,0,0,-1,790,729,-46.2319,-1.10612
-427,295,0,0,0,0,0,0,0,0,0,-1,797,729,0,0
-420,295,0,0,0,0,0,0,0,0,0,-1,804,729,0,0
-413,295,0,0,0,0,0,0,0,0,0,-1,811,729,0,0
-406,295,0,0,0,0,0,0,0,0,0,-1,818,729,0,0
-399,295,0,0,0,0,0,0,0,0,0,-1,825,729,0,0
-392,295,0,0,0,0,0,0,0,0,0,-1,832,729,0,0
-385,295,0,0,0,0,0,0,0,0,0,-1,839,729,0,0
-378,295,0,0,0,0,0,0,0,0,0,-1,846,729,0,0
-371,295,0,0,0,0,0,0,0,0,0,-1,853,729,0,0
-364,295,0,0,0,0,0,0,0,0,0,-1,860,729,0,0
-357,295,0,0,0,0,0,0,0,0,0,-1,867,729,0,0
-350,295,0,0,0,0,0,0,0,0,0,-1,874,729,0,0
-343,295,0,0,0,0,0,0,0,0,0,-1,881,729,0,0
-336,295,0,0,0,0,0,0,0,0,0,-1,888,729,0,0
-329,295,0,0,0,0,0,0,0,0,0,-1,895,729,0,0
-322,295,0,0,0,0,0,0,0,0,0,-1,902,729,0,0
-315,295,0,0,0,0,0,0,0,0,0,-1,909,729,0,0
-308,295,0,0,0,0,0,0,0,0,0,-1,916,729,0,0
-301,295,0,0,0,0,0,0,0,0,0,-1,923,729,0,0
-294,295,0,0,0,0,0,0,0,0,0,-1,930,729,0,0
-287,295,0,0,0,0,0,0,0,0,0,-1,937,729,0,0
-280,295,0,0,0,0,0,0,0,0,0,-1,944,729,0,0
-273,295,0,0,0,0,0,0,0,0,0,-1,951,729,0,0
-266,295,0,0,0,0,0,0,0,0,0,-1,958,729,0,0
-259,295,0,0,0,0,0,0,0,0,0,-1,965,729,0,0
-252,295,0,0,0,0,0,0,0,0,0,-1,972,729,0,0
-245,295,0,0,0,0,0,0,0,0,0,-1,979,729,0,0
-238,295,0,0,0,0,0,0,0,0,0,-1,986,729,0,0
-231,295,0,0,0,0,0,0,0,0,0,-1,993,729,0,0
-224,295,0,0,0,0,0,0,0,0,0,-1,1000,729,0,0
-217,295,0,0,0,0,0,0,0,0,0,-1,1007,729,0,0
-210,295,0,0,0,0,0,0,0,0,0,-1,1014,729,0,0
-203,295,0,0,0,0,0,0,0,0,0,-1,1021,729,0,0
-196,295,0,0,0,0,0,0,0,0,0,-1,1028,729,0,0
-189,295,0,0,0,0,0,0,0,0,0,-1,1035,729,0,0
-182,295,0,0,0,0,0,0,0,0,0,-1,1042,729,0,0
-175,295,0,0,0,0,0,0,0,0,0,-1,1049,729,0,0
-168,295,0,0,0,0,0,0,0,0,0,-1,1056,729,0,0
-161,295,0,0,0,0,0,0,0,0,0,-1,1063,729,0,0
-154,295,0,0,0,0,0,0,0,0,0,-1,1070,729,0,0
-147,295,0,0,0,0,0,0,0,0,0,-1,1077,729,0,0
-140,295,0,0,0,0,0,0,0,0,0,-1,1084,729,0,0
-133,295,0,0,0,0,0,0,0,0,0,-1,1091,729,0,0
-126,295,0,0,0,0,0,0,0,0,0,-1,1098,729,0,0
-119,295,0,0,0,0,0,0,0,0,0,-1,1105,729,0,0
-112,295,0,0,0,0,0,0,0,0,0,-1,1112,729,0,0
-105,295,0,0,0,0,0,0,0,0,0,-1,1119,729,0,0
-98,295,0,0,0,0,0,0,0,0,0,-1,1126,729,0,0
-91,295,0,0,0,0,0,0,0,0,0,-1,1133,729,0,0
-84,295,0,0,0,0,0,0,0,0,0,-1,1140,729,0,0
-77,295,0,0,0,0,0,0,0,0,0,-1,1147,729,0,0
-70,295,0,0,0,0,0,0,0,0,0,-1,1154,729,0,0
-63,295,0,0,0,0,0,0,0,0,0,-1,1161,729,0,0
-56,295,0,0,0,0,0,0,0,0,0,-1,1168,729,0,0
-49,295,0,0,0,0,0,0,0,0,0,-1,1175,729,0,0
-42,295,0,0,0,0,0,0,0,0,0,-1,1182,729,0,0
-35,295,0,0,0,0,0,0,0,0,0,-1,1189,729,0,0
-28,295,0,0,0,0,0,0,0,0,0,-1,1196,729,0,0
-21,295,0,0,0,0,0,0,0,0,0,-1,1203,729,0,0
-14,295,0,0,0,0,0,0,0,0,0,-1,1210,729,0,0
-7,295,0,0,0,0,0,0,0,0,0,-1,1217,729,0,0
0,295,0,0,0,0,0,0,0,0,0,-1,1224,729,0,0
7,295,0,0,0,0,0,0,0,0,0,-1,1231,729,0,0
14,295,0,0,0,0,0,0,0,0,0,-1,1238,729,0,0
21,295,0,0,0,0,0,0,0,0,0,-1,1245,729,0,0
28,295,0,0,0,0,0,0,0,0,0,-1,1252,729,0,0
35,295,0,0,0,0,0,0,0,0,0,-1,1259,729,0,0
42,295,0,0,0,0,0,0,0,0,0,-1,1266,729,0,0
49,295,0,0,0,0,0,0,0,0,0,-1,1273,729,0,0
56,295,0,0,0,0,0,0,0,0,0,-1,1280,729,0,0
63,295,0,0,0,0,0,0,0,0,0,-1,1287,729,0,0
70,295,0,0,0,0,0,0,0,0,0,-1,1294,729,0,0
77,295,0,0,0,0,0,0,0,0,0,-1,1301,729,0,0
84,295,0,0,0,0,0,0,0,0,0,-1,1308,729,0,0
91,295,0,0,0,0,0,0,0,0,0,-1,1315,729,0,0
98,295,0,0,0,0,0,0,0,0,0,-1,1322,729,0,0
105,295,0,0,0,0,0,0,0,0,0,-1,1329,729,0,0
112,295,0,0,0,0,0,0,0,0,0,-1,1336,729,0,0
119,295,0,0,0,0,0,0,0,0,0,-1,1343,729,0,0
126,295,0,0,0,0,0,0,0,0,0,-1,1350,729,0,0
133,295,0,0,0,0,0,0,0,0,0,-1,1357,729,0,0
140,295,0,0,0,0,0,0,0,0,0,-1,1364,729,0,0
147,295,0,0,0,0,0,0,0,0,0,-1,1371,729,0,0
154,295,0,0,0,0,0,0,0,0,0,-1,1378,729,0,0
161,295,0,0,0,0,0,0,0,0,0,-1,1385,729,0,0
168,295,0,0,0,0,0,0,0,0,0,-1,1392,729,0,0
175,295,0,0,0,0,0,0,0,0,0,-1,1399,729,0,0
182,295,0,0,0,0,0,0,0,0,0,-1,1406,729,0,0
189,295,0,0,0,0,0,0,0,0,0,-1,1413,729,0,0
196,295,0,0,0,0,0,0,0,0,0,-1,1420,729,0,0
203,295,0,0,0,0,0,0,0,0,0,-1,1427,729,0,0
210,295,0,0,0,0,0,0,0,0,0,-1,1434,729,0,0
217,295,0,0,0,0,0,0,0,0,0,-1,1441,729,0,0
224,295,0,0,0,0,0,0,0,0,0,-1,1448,729,0,0
231,295,0,0,0,0,0,0,0,0,0,-1,1455,729,0,0
238,295,0,0,0,0,0,0,0,0,0,-1,1462,729,0,0
245,295,0,0,0,0,0,0,0,0,0,-1,1469,729,0,0
252,295,0,0,0,0,0,0,0,0,0,-1,1476,729,0,0
259,295,0,0,0,0,0,0,0,0,0,-1,1483,729,0,0
266,295,0,0,0,0,0,0,0,0,0,-1,1490,729,0,0
273,295,0,0,0,0,0,0,0,0,0,-1,1497,729,0,0
280,295,0,0,0,0,0,0,0,0,0,-1,1504,729,0,0
287,295,0,0,0,0,0,0,0,0,0,-1,1511,729,0,0
294,295,0,0,0,0,0,0,0,0,0,-1,1518,729,0,0
301,295,0,0,0,0,0,0,0,0,0,-1,1525,729,0,0
308,295,0,0,0,0,0,0,0,0,0,-1,1532,729,0,0
315,295,0,0,0,0,0,0,0,0,0,-1,1539,729,0,0
322,295,0,0,0,0,0,0,0,0,0,-1,1546,729,0,0
329,295,0,0,0,0,0,0,0,0,0,-1,1553,729,0,0
336,295,0,0,0,0,0,0,0,0,0,-1,1560,729,0,0
343,295,0,0,0,0,0,0,0,0,0,-1,1567,729,0,0
350,295,0,0,0,0,0,0,0,0,0,-1,1574,729,0,0
357,295,0,0,0,0,0,0,0,0,0,-1,1581,729,0,0
364,295,0,0,0,0,0,0,0,0,0,-1,1588,729,0,0
371,295,0,0,0,0,0,0,0,0,0,-1,1595,729,0,0
378,295,0,0,0,0,0,0,0,0,0,-1,1602,729,0,0
385,295,0,0,0,0,0,0,0,0,0,-1,1609,729,0,0
392,295,0,0,0,0,0,0,0,0,0,-1,1616,729,0,0
399,295,0,0,0,0,0,0,0,0,0,-1,1623,729,0,0
406,295,0,0,0,0,0,0,0,0,0,-1,1630,729,0,0
413,295,0,0,0,0,0,0,0,0,0,-1,1637,729,0,0
420,295,0,0,0,0,0,0,0,0,0,-1,1644,729,0,0
427,295,0,0,0,0,0,0,0,0,0,-1,1651,729,0,0
434,295,0,0,0,0,0,0,0,0,0,-1,1658,729,0,0
441,295,0,0,0,0,0,0,0,0,0,-1,1665,729,0,0
448,295,0,0,0,0,0,0,0,0,0,-1,1672,729,0,0
455,295,0,0,0,0,0,0,0,0,0,-1,1679,729,0,0
462,295,0,0,0,0,0,0,0,0,0,-1,1686,729,0,0
469,295,0,0,0,0,0,0,0,0,0,-1,1693,729,0,0
476,295,0,0,0,0,0,0,0,0,0,-1,1700,729,0,0
483,295,0,0,0,0,0,0,0,0,0,-1,1707,729,0,0
490,295,0,0,0,0,0,0,0,0,0,-1,1714,729,0,0
497,295,0,0,0,0,0,0,0,0,0,-1,1721,729,0,0
504,295,0,0,0,0,0,0,0,0,0,-1,1728,729,0,0
511,295,0,0,0,0,0,0,0,0,0,-1,1735,729,0,0
518,295,0,0,0,0,0,0,0,0,0,-1,1742,729,0,0
525,295,0,0,0,0,0,0,0,0,0,-1,1749,729,0,0
532,295,0,0,0,0,0,0,0,0,0,-1,1756,729,0,0
539,295,0,0,0,0,0,0,0,0,0,-1,1763,729,0,0
546,295,57.4674,2.36884,0,0,0,0,0,0,0,-1,1770,729,57.4674,-2.36883
553,295,57.1969,2.73846,0,0,0,0,0,0,0,-1,1777,729,57.197,-2.73843
560,295,57.0291,3.27454,0,0,0,0,0,0,0,-1,1784,729,57.029,-3.27454
567,295,56.6243,3.88239,0,0,0,0,0,0,0,-1,1791,729,56.6242,-3.8824
574,295,56.5275,4.755,0,0,0,0,0,0,0,-1,1798,729,56.5274,-4.75501
581,295,37.8191,2.19592,0,0,0,0,0,0,0,-1,1805,729,37.8191,-2.19594
588,295,39.0542,2.45679,0,0,0,0,0,0,0,-1,1812,729,39.0542,-2.45676
595,295,27.2102,6.99121,0,0,0,0,0,0,0,-1,1819,729,27.2103,-6.99121
602,295,26.9065,7.82141,0,0,0,0,0,0,0,-1,1826,729,26.9064,-7.8214
609,295,11.7737,2.19989,0,0,0,0,0,0,0,-1,1833,729,11.7736,-2.19988
616,295,45.2537,-10.4867,0,0,0,0,0,0,0,-1,1840,729,45.2537,10.4867
623,295,46.1746,-9.83698,0,0,0,0,0,0,0,-1,1847,729,46.1746,9.83696
630,295,46.1476,-8.88953,0.00273517,-0.000521148,0.000853009,0.00294509,-0.000731065,0.241296,0.00224708,0.0143687,1854,729,46.1476,8.88955
637,295,46.0775,-7.93353,0.0020265,-0.000149037,0.000798724,0.00228825,-0.000410787,0.316682,0.00167926,0.01516,1861,729,46.0775,7.9335
644,295,46.0459,-6.99963,0.00160772,0.000269271,0.000742775,0.00193829,-6.12921e-05,0.41872,0.0013131,0.0141986,1868,729,46.0459,6.99963
651,295,46.0038,-6.06293,0.00144545,0.000704293,0.000785289,0.00194321,0.000206535,0.56494,0.00123241,0.0153849,1875,729,46.0038,6.0629
658,295,45.9271,-5.13776,0.00151284,0.00120576,0.000895556,0.00226792,0.000450674,0.700501,0.00138636,0.0157381,1882,729,45.9271,5.13773
665,295,45.8468,-4.21155,0.001688,0.00181374,0.0010818,0.0028345,0.000667245,0.814422,0.00171118,0.0132748,1889,729,45.8468,4.21153
672,295,45.7825,-3.28119,0.00201627,0.00256066,0.00138243,0.00369744,0.000879496,0.882604,0.00223036,0.013767,1896,729,45.7825,3.28122
679,295,45.7231,-2.33881,0.00254923,0.00345347,0.00180889,0.00486588,0.00113682,0.90786,0.0029392,0.0108878,1903,729,45.7231,2.33879
686,295,45.7134,-1.3924,0.00319779,0.00444752,0.00231777,0.00622318,0.00142214,0.917067,0.00376535,0.0123063,1910,729,45.7134,1.39238
693,295,45.7056,-0.437866,0,0,0,0,0,0,0,-1,1917,729,45.7056,0.437889
700,295,31.3757,2.06982,0,0,0,0,0,0,0,-1,1924,729,31.3758,-2.0698
707,295,22.2661,3.05206,0,0,0,0,0,0,0,-1,1931,729,22.2662,-3.05207
714,295,17.4906,4.63068,0,0,0,0,0,0,0,-1,1938,729,17.4906,-4.63066
721,295,18.3792,5.32281,0,0,0,0,0,0,0,-1,1945,729,18.3791,-5.32283
728,295,17.379,3.74866,0,0,0,0,0,0,0,-1,1952,729,17.379,-3.74863
735,295,0,0,0,0,0,0,0,0,0,-1,1959,729,0,0
742,295,0,0,0,0,0,0,0,0,0,-1,1966,729,0,0
749,295,0,0,0,0,0,0,0,0,0,-1,1973,729,0,0
756,295,0,0,0,0,0,0,0,0,0,-1,1980,729,0,0
763,295,0,0,0,0,0,0,0,0,0,-1,1987,729,0,0
770,295,0,0,0,0,0,0,0,0,0,-1,1994,729,0,0
777,295,0,0,0,0,0,0,0,0,0,-1,2001,729,0,0
784,295,0,0,0,0,0,0,0,0,0,-1,2008,729,0,0
791,295,0,0,0,0,0,0,0,0,0,-1,2015,729,0,0
798,295,0,0,0,0,0,0,0,0,0,-1,2022,729,0,0
805,295,0,0,0,0,0,0,0,0,0,-1,2029,729,0,0
812,295,0,0,0,0,0,0,0,0,0,-1,2036,729,0,0
-700,288,0,0,0,0,0,0,0,0,0,-1,524,736,0,0
-693,288,0,0,0,0,0,0,0,0,0,-1,531,736,0,0
-686,288,0,0,0,0,0,0,0,0,0,-1,538,736,0,0
-679,288,0,0,0,0,0,0,0,0,0,-1,545,736,0,0
-672,288,0,0,0,0,0,0,0,0,0,-1,552,736,0,0
-665,288,0,0,0,0,0,0,0,0,0,-1,559,736,0,0
-658,288,0,0,0,0,0,0,0,0,0,-1,566,736,0,0
-651,288,0,0,0,0,0,0,0,0,0,-1,573,736,0,0
-644,288,0,0,0,0,0,0,0,0,0,-1,580,736,0,0
-637,288,0,0,0,0,0,0,0,0,0,-1,587,736,0,0
-630,288,0,0,0,0,0,0,0,0,0,-1,594,736,0,0
-623,288,0,0,0,0,0,0,0,0,0,-1,601,736,0,0
-616,288,-11.7584,2.4425,0,0,0,0,0,0,0,-1,608,736,-11.7584,-2.44251
-609,288,-10.3007,2.32178,0,0,0,0,0,0,0,-1,615,736,-10.3007,-2.32178
-602,288,-10.1458,-1.85559,0,0,0,0,0,0,0,-1,622,736,-10.1458,1.85556
-595,288,-7.63208,1.81769,0,0,0,0,0,0,0,-1,629,736,-7.63205,-1.81766
-588,288,-8.19269,1.50598,0,0,0,0,0,0,0,-1,636,736,-8.19268,-1.50601
-581,288,-13.1915,0.659241,0,0,0,0,0,0,0,-1,643,736,-13.1915,-0.659228
-574,288,-30.8068,-0.0393677,0,0,0,0,0,0,0,-1,650,736,-30.8068,0.0393761
-567,288,-30.8613,-0.93634,-0.00480186,0.00600705,-0.000262477,0.00601342,-0.00480823,-1.54653,0.00626078,0.038535,657,736,-30.8613,0.936332
-560,288,-31.1392,-1.93585,-0.00295638,0.00431147,-0.000192268,0.00431655,-0.00296146,-1.54437,0.00422617,0.0179534,664,736,-31.1392,1.93586
-553,288,-31.1415,-2.76501,-0.00165674,0.00290307,-0.000174438,0.00290974,-0.0016634,-1.53262,0.00267279,0.0201373,671,736,-31.1415,2.76499
-546,288,-31.2419,-3.67761,-0.000964027,0.00193625,-6.81624e-05,0.00193785,-0.000965628,-1.54731,0.00170736,0.0221255,678,736,-31.2419,3.67763
-539,288,-31.3168,-4.60559,-0.000660734,0.00106621,0.000134025,0.00107655,-0.000671073,1.4938,0.001018,0.0186932,685,736,-31.3168,4.60559
-532,288,-31.3029,-5.52777,-0.000666442,0.000347083,0.00041203,0.000493449,-0.000812808,1.22947,0.000761644,0.0162374,692,736,-31.3028,5.52775
-525,288,-31.3628,-6.47327,-0.000921308,-0.000301396,0.000730689,0.00018236,-0.00140506,0.985993,0.00100304,0.0147629,699,736,-31.3628,6.47326
-518,288,-31.4589,-7.40808,-0.00138848,-0.000717852,0.00105179,5.07844e-05,-0.00215712,0.939706,0.0014553,0.0122939,706,736,-31.4589,7.40807
-511,288,-31.5392,-8.31586,-0.00212317,-0.00122688,0.00129751,-0.000302297,-0.00304774,0.951679,0.00193894,0.00966773,713,736,-31.5392,8.31587
-504,288,-31.6104,-9.22339,-0.00283338,-0.0016931,0.00158627,-0.00057762,-0.00394886,0.957919,0.00246272,0.0116747,720,736,-31.6104,9.22338
-497,288,-31.6027,-9.91962,-0.00334908,-0.00214973,0.00166979,-0.000975203,-0.00452361,0.957791,0.00274895,0.0377027,727,736,-31.6027,9.91963
-490,288,-31.4637,-10.5436,0,0,0,0,0,0,0,-1,734,736,-31.4637,10.5436
-483,288,-17.3287,0.564758,0,0,0,0,0,0,0,-1,741,736,-17.3287,-0.56477
-476,288,-26.136,0.452148,0,0,0,0,0,0,0,-1,748,736,-26.136,-0.452177
-469,288,-27.7904,0.649841,0,0,0,0,0,0,0,-1,755,736,-27.7904,-0.649854
-462,288,-44.999,-2.65112,0,0,0,0,0,0,0,-1,762,736,-44.999,2.65111
-455,288,-49.1631,1.86432,0,0,0,0,0,0,0,-1,769,736,-49.1632,-1.8643
-448,288,-55.5283,0.0455933,0,0,0,0,0,0,0,-1,776,736,-55.5284,-0.0456
-441,288,-55.0096,0.39325,0,0,0,0,0,0,0,-1,783,736,-55.0096,-0.393269
-434,288,-46.7119,1.66388,0,0,0,0,0,0,0,-1,790,736,-46.7119,-1.66385
-427,288,0,0,0,0,0,0,0,0,0,-1,797,736,0,0
-420,288,0,0,0,0,0,0,0,0,0,-1,804,736,0,0
-413,288,0,0,0,0,0,0,0,0,0,-1,811,736,0,0
-406,288,0,0,0,0,0,0,0,0,0,-1,818,736,0,0
-399,288,0,0,0,0,0,0,0,0,0,-1,825,736,0,0
-392,288,0,0,0,0,0,0,0,0,0,-1,832,736,0,0
-385,288,0,0,0,0,0,0,0,0,0,-1,839,736,0,0
-378,288,0,0,0,0,0,0,0,0,0,-1,846,736,0,0
-371,288,0,0,0,0,0,0,0,0,0,-1,853,736,0,0
-364,288,0,0,0,0,0,0,0,0,0,-1,860,736,0,0
-357,288,0,0,0,0,0,0,0,0,0,-1,867,736,0,0
-350,288,0,0,0,0,0,0,0,0,0,-1,874,736,0,0
-343,288,0,0,0,0,0,0,0,0,0,-1,881,736,0,0
-336,288,0,0,0,0,0,0,0,0,0,-1,888,736,0,0
-329,288,0,0,0,0,0,0,0,0,0,-1,895,736,0,0
-322,288,0,0,0,0,0,0,0,0,0,-1,902,736,0,0
-315,288,0,0,0,0,0,0,0,0,0,-1,909,736,0,0
-308,288,0,0,0,0,0,0,0,0,0,-1,916,736,0,0
-301,288,0,0,0,0,0,0,0,0,0,-1,923,736,0,0
-294,288,0,0,0,0,0,0,0,0,0,-1,930,736,0,0
-287,288,0,0,0,0,0,0,0,0,0,-1,937,736,0,0
-280,288,0,0,0,0,0,0,0,0,0,-1,944,736,0,0
-273,288,0,0,0,0,0,0,0,0,0,-1,951,736,0,0
-266,288,0,0,0,0,0,0,0,0,0,-1,958,736,0,0
-259,288,0,0,0,0,0,0,0,0,0,-1,965,736,0,0
-252,288,0,0,0,0,0,0,0,0,0,-1,972,736,0,0
-245,288,0,0,0,0,0,0,0,0,0,-1,979,736,0,0
-238,288,0,0,0,0,0,0,0,0,0,-1,986,736,0,0
-231,288,0,0,0,0,0,0,0,0,0,-1,993,736,0,0
-224,288,0,0,0,0,0,0,0,0,0,-1,1000,736,0,0
-217,288,0,0,0,0,0,0,0,0,0,-1,1007,736,0,0
-210,288,0,0,0,0,0,0,0,0,0,-1,1014,736,0,0
-203,288,0,0,0,0,0,0,0,0,0,-1,1021,736,0,0
-196,288,0,0,0,0,0,0,0,0,0,-1,1028,736,0,0
-189,288,0,0,0,0,0,0,0,0,0,-1,1035,736,0,0
-182,288,0,0,0,0,0,0,0,0,0,-1,1042,736,0,0
-175,288,0,0,0,0,0,0,0,0,0,-1,1049,736,0,0
-168,288,0,0,0,0,0,0,0,0,0,-1,1056,736,0,0
-161,288,0,0,0,0,0,0,0,0,0,-1,1063,736,0,0
-154,288,0,0,0,0,0,0,0,0,0,-1,1070,736,0,0
-147,288,0,0,0,0,0,0,0,0,0,-1,1077,736,0,0
-140,288,0,0,0,0,0,0,0,0,0,-1,1084,736,0,0
-133,288,0,0,0,0,0,0,0,0,0,-1,1091,736,0,0
-126,288,0,0,0,0,0,0,0,0,0,-1,1098,736,0,0
-119,288,0,0,0,0,0,0,0,0,0,-1,1105,736,0,0
-112,288,0,0,0,0,0,0,0,0,0,-1,1112,736,0,0
-105,288,0,0,0,0,0,0,0,0,0,-1,1119,736,0,0
-98,288,0,0,0,0,0,0,0,0,0,-1,1126,736,0,0
-91,288,0,0,0,0,0,0,0,0,0,-1,1133,736,0,0
-84,288,0,0,0,0,0,0,0,0,0,-1,1140,736,0,0
-77,288,0,0,0,0,0,0,0,0,0,-1,1147,736,0,0
-70,288,0,0,0,0,0,0,0,0,0,-1,1154,736,0,0
-63,288,0,0,0,0,0,0,0,0,0,-1,1161,736,0,0
-56,288,0,0,0,0,0,0,0,0,0,-1,1168,736,0,0
-49,288,0,0,0,0,0,0,0,0,0,-1,1175,736,0,0
-42,288,0,0,0,0,0,0,0,0,0,-1,1182,736,0,0
-35,288,0,0,0,0,0,0,0,0,0,-1,1189,736,0,0
-28,288,0,0,0,0,0,0,0,0,0,-1,1196,736,0,0
-21,288,0,0,0,0,0,0,0,0,0,-1,1203,736,0,0
-14,288,0,0,0,0,0,0,0,0,0,-1,1210,736,0,0
-7,288,0,0,0,0,0,0,0,0,0,-1,1217,736,0,0
0,288,0,0,0,0,0,0,0,0,0,-1,1224,736,0,0
7,288,0,0,0,0,0,0,0,0,0,-1,1231,736,0,0
14,288,0,0,0,0,0,0,0,0,0,-1,1238,736,0,0
21,288,0,0,0,0,0,0,0,0,0,-1,1245,736,0,0
28,288,0,0,0,0,0,0,0,0,0,-1,1252,736,0,0
35,288,0,0,0,0,0,0,0,0,0,-1,1259,736,0,0
42,288,0,0,0,0,0,0,0,0,0,-1,1266,736,0,0
49,288,0,0,0,0,0,0,0,0,0,-1,1273,736,0,0
56,288,0,0,0,0,0,0,0,0,0,-1,1280,736,0,0
63,288,0,0,0,0,0,0,0,0,0,-1,1287,736,0,0
70,288,0,0,0,0,0,0,0,0,0,-1,1294,736,0,0
77,288,0,0,0,0,0,0,0,0,0,-1,1301,736,0,0
84,288,0,0,0,0,0,0,0,0,0,-1,1308,736,0,0
91,288,0,0,0,0,0,0,0,0,0,-1,1315,736,0,0
98,288,0,0,0,0,0,0,0,0,0,-1,1322,736,0,0
105,288,0,0,0,0,0,0,0,0,0,-1,1329,736,0,0
112,288,0,0,0,0,0,0,0,0,0,-1,1336,736,0,0
119,288,0,0,0,0,0,0,0,0,0,-1,1343,736,0,0
126,288,0,0,0,0,0,0,0,0,0,-1,1350,736,0,0
133,288,0,0,0,0,0,0,0,0,0,-1,1357,736,0,0
140,288,0,0,0,0,0,0,0,0,0,-1,1364,736,0,0
147,288,0,0,0,0,0,0,0,0,0,-1,1371,736,0,0
154,288,0,0,0,0,0,0,0,0,0,-1,1378,736,0,0
161,288,0,0,0,0,0,0,0,0,0,-1,1385,736,0,0
168,288,0,0,0,0,0,0,0,0,0,-1,1392,736,0,0
175,288,0,0,0,0,0,0,0,0,0,-1,1399,736,0,0
182,288,0,0,0,0,0,0,0,0,0,-1,1406,736,0,0
189,288,0,0,0,0,0,0,0,0,0,-1,1413,736,0,0
196,288,0,0,0,0,0,0,0,0,0,-1,1420,736,0,0
203,288,0,0,0,0,0,0,0,0,0,-1,1427,736,0,0
210,288,0,0,0,0,0,0,0,0,0,-1,1434,736,0,0
217,288,0,0,0,0,0,0,0,0,0,-1,1441,736,0,0
224,288,0,0,0,0,0,0,0,0,0,-1,1448,736,0,0
231,288,0,0,0,0,0,0,0,0,0,-1,1455,736,0,0
238,288,0,0,0,0,0,0,0,0,0,-1,1462,736,0,0
245,288,0,0,0,0,0,0,0,0,0,-1,1469,736,0,0
252,288,0,0,0,0,0,0,0,0,0,-1,1476,736,0,0
259,288,0,0,0,0,0,0,0,0,0,-1,1483,736,0,0
266,288,0,0,0,0,0,0,0,0,0,-1,1490,736,0,0
273,288,0,0,0,0,0,0,0,0,0,-1,1497,736,0,0
280,288,0,0,0,0,0,0,0,0,0,-1,1504,736,0,0
287,288,0,0,0,0,0,0,0,0,0,-1,1511,736,0,0
294,288,0,0,0,0,0,0,0,0,0,-1,1518,736,0,0
301,288,0,0,0,0,0,0,0,0,0,-1,1525,736,0,0
308,288,0,0,0,0,0,0,0,0,0,-1,1532,736,0,0
315,288,0,0,0,0,0,0,0,0,0,-1,1539,736,0,0
322,288,0,0,0,0,0,0,0,0,0,-1,1546,736,0,0
329,288,0,0,0,0,0,0,0,0,0,-1,1553,736,0,0
336,288,0,0,0,0,0,0,0,0,0,-1,1560,736,0,0
343,288,0,0,0,0,0,0,0,0,0,-1,1567,736,0,0
350,288,0,0,0,0,0,0,0,0,0,-1,1574,736,0,0
357,288,0,0,0,0,0,0,0,0,0,-1,1581,736,0,0
364,288,0,0,0,0,0,0,0,0,0,-1,1588,736,0,0
371,288,0,0,0,0,0,0,0,0,0,-1,1595,736,0,0
378,288,0,0,0,0,0,0,0,0,0,-1,1602,736,0,0
385,288,0,0,0,0,0,0,0,0,0,-1,1609,736,0,0
392,288,0,0,0,0,0,0,0,0,0,-1,1616,736,0,0
399,288,0,0,0,0,0,0,0,0,0,-1,1623,736,0,0
406,288,0,0,0,0,0,0,0,0,0,-1,1630,736,0,0
413,288,0,0,0,0,0,0,0,0,0,-1,1637,736,0,0
420,288,0,0,0,0,0,0,0,0,0,-1,1644,736,0,0
427,288,0,0,0,0,0,0,0,0,0,-1,1651,736,0,0
434,288,0,0,0,0,0,0,0,0,0,-1,1658,736,0,0
441,288,0,0,0,0,0,0,0,0,0,-1,1665,736,0,0
448,288,0,0,0,0,0,0,0,0,0,-1,1672,736,0,0
455,288,0,0,0,0,0,0,0,0,0,-1,1679,736,0,0
462,288,0,0,0,0,0,0,0,0,0,-1,1686,736,0,0
469,288,0,0,0,0,0,0,0,0,0,-1,1693,736,0,0
476,288,0,0,0,0,0,0,0,0,0,-1,1700,736,0,0
483,288,0,0,0,0,0,0,0,0,0,-1,1707,736,0,0
490,288,0,0,0,0,0,0,0,0,0,-1,1714,736,0,0
497,288,0,0,0,0,0,0,0,0,0,-1,1721,736,0,0
504,288,0,0,0,0,0,0,0,0,0,-1,1728,736,0,0
511,288,0,0,0,0,0,0,0,0,0,-1,1735,736,0,0
518,288,0,0,0,0,0,0,0,0,0,-1,1742,736,0,0
525,288,0,0,0,0,0,0,0,0,0,-1,1749,736,0,0
532,288,0,0,0,0,0,0,0,0,0,-1,1756,736,0,0
539,288,0,0,0,0,0,0,0,0,0,-1,1763,736,0,0
546,288,0,0,0,0,0,0,0,0,0,-1,1770,736,0,0
553,288,57.4934,2.28064,0,0,0,0,0,0,0,-1,1777,736,57.4934,-2.28064
560,288,57.3807,3.02881,0,0,0,0,0,0,0,-1,1784,736,57.3808,-3.0288
567,288,57.2081,3.74274,0,0,0,0,0,0,0,-1,1791,736,57.2081,-3.74273
574,288,56.9817,4.36981,0,0,0,0,0,0,0,-1,1798,736,56.9816,-4.36984
581,288,53.4904,5.33215,0,0,0,0,0,0,0,-1,1805,736,53.4904,-5.33218
588,288,54.9313,3.29852,0,0,0,0,0,0,0,-1,1812,736,54.9313,-3.29849
595,288,47.035,3.35156,0,0,0,0,0,0,0,-1,1819,736,47.035,-3.35157
602,288,26.7634,7.61279,0,0,0,0,0,0,0,-1,1826,736,26.7635,-7.61279
609,288,17.5223,4.86414,0,0,0,0,0,0,0,-1,1833,736,17.5223,-4.86412
616,288,13.4886,0.801331,0,0,0,0,0,0,0,-1,1840,736,13.4886,-0.80132
623,288,47.0967,-9.68018,0,0,0,0,0,0,0,-1,1847,736,47.0967,9.68016
630,288,47.035,-8.76617,0.00291758,-0.000887512,0.000850765,0.00309914,-0.00106907,0.21025,0.00249984,0.0357121,1854,736,47.0351,8.76618
637,288,47.0138,-7.85931,0.00219165,-0.000329316,0.000834756,0.00244299,-0.000580665,0.29247,0.0018528,0.0125564,1861,736,47.0138,7.85931
644,288,46.9775,-6.94098,0.00162695,0.000176597,0.000723638,0.00192624,-0.000122694,0.392168,0.00132695,0.0106091,1868,736,46.9776,6.94096
651,288,46.921,-6.02734,0.00137136,0.00059661,0.000689334,0.00177471,0.000193263,0.529411,0.00112427,0.0125296,1875,736,46.921,6.02736
658,288,46.8413,-5.04883,0.00142914,0.000955484,0.000771555,0.0019994,0.000385228,0.636488,0.00122488,0.0184873,1882,736,46.8413,5.04882
665,288,46.7871,-4.12073,0.00153698,0.00146069,0.000915924,0.00241555,0.000582116,0.764586,0.00145566,0.0181299,1889,736,46.7872,4.12074
672,288,46.7377,-3.22015,0.00179782,0.00208783,0.00117696,0.00312868,0.000756966,0.846691,0.00188483,0.0168332,1896,736,46.7376,3.22018
679,288,46.6707,-2.2796,0.00228747,0.00290179,0.00161,0.00423367,0.00095559,0.879657,0.00256398,0.0139171,1903,736,46.6707,2.27962
686,288,46.6006,-1.3736,0.00284641,0.00381148,0.00208947,0.00547341,0.00118448,0.898877,0.0033252,0.0111476,1910,736,46.6005,1.37361
693,288,46.6066,-0.340271,0.00373992,0.0050477,0.0027956,0.00726487,0.00152275,0.900282,0.0044239,0.0276897,1917,736,46.6065,0.340241
700,288,46.6161,0.762085,0,0,0,0,0,0,0,-1,1924,736,46.616,-0.76211
707,288,30.9496,3.07977,0,0,0,0,0,0,0,-1,1931,736,30.9496,-3.07975
714,288,23.0149,3.82544,0,0,0,0,0,0,0,-1,1938,736,23.0149,-3.82541
721,288,18.0732,3.69385,0,0,0,0,0,0,0,-1,1945,736,18.0732,-3.69387
728,288,19.3208,3.91455,0,0,0,0,0,0,0,-1,1952,736,19.3209,-3.91455
735,288,18.7712,3.51312,0,0,0,0,0,0,0,-1,1959,736,18.7713,-3.51309
742,288,0,0,0,0,0,0,0,0,0,-1,1966,736,0,0
749,288,0,0,0,0,0,0,0,0,0,-1,1973,736,0,0
756,288,0,0,0,0,0,0,0,0,0,-1,1980,736,0,0
763,288,0,0,0,0,0,0,0,0,0,-1,1987,736,0,0
770,288,0,0,0,0,0,0,0,0,0,-1,1994,736,0,0
777,288,0,0,0,0,0,0,0,0,0,-1,2001,736,0,0
784,288,0,0,0,0,0,0,0,0,0,-1,2008,736,0,0
791,288,0,0,0,0,0,0,0,0,0,-1,2015,736,0,0
798,288,0,0,0,0,0,0,0,0,0,-1,2022,736,0,0
805,288,0,0,0,0,0,0,0,0,0,-1,2029,736,0,0
812,288,0,0,0,0,0,0,0,0,0,-1,2036,736,0,0
-700,281,0,0,0,0,0,0,0,0,0,-1,524,743,0,0
-693,281,0,0,0,0,0,0,0,0,0,-1,531,743,0,0
-686,281,0,0,0,0,0,0,0,0,0,-1,538,743,0,0
-679,281,0,0,0,0,0,0,0,0,0,-1,545,743,0,0
-672,281,0,0,0,0,0,0,0,0,0,-1,552,743,0,0
-665,281,0,0,0,0,0,0,0,0,0,-1,559,743,0,0
-658,281,0,0,0,0,0,0,0,0,0,-1,566,743,0,0
-651,281,0,0,0,0,0,0,0,0,0,-1,573,743,0,0
-644,281,0,0,0,0,0,0,0,0,0,-1,580,743,0,0
-637,281,0,0,0,0,0,0,0,0,0,-1,587,743,0,0
-630,281,0,0,0,0,0,0,0,0,0,-1,594,743,0,0
-623,281,-19.1697,5.67017,0,0,0,0,0,0,0,-1,601,743,-19.1697,-5.67019
-616,281,-11.5906,2.6853,0,0,0,0,0,0,0,-1,608,743,-11.5906,-2.68529
-609,281,-16.1972,4.14838,0,0,0,0,0,0,0,-1,615,743,-16.1972,-4.14837
-602,281,-21.9772,6.77417,0,0,0,0,0,0,0,-1,622,743,-21.9771,-6.77415
-595,281,-10.4797,-1.07404,0,0,0,0,0,0,0,-1,629,743,-10.4798,1.07402
-588,281,-13.277,1.49817,0,0,0,0,0,0,0,-1,636,743,-13.2771,-1.49817
-581,281,-31.8777,0.935669,0,0,0,0,0,0,0,-1,643,743,-31.8778,-0.935698
-574,281,-31.7819,-0.0115356,-0.00740681,0.00778332,-0.000459878,0.00779723,-0.00742072,-1.54056,0.00878699,0.0475468,650,743,-31.7819,0.0115354
-567,281,-31.9928,-0.896667,-0.00473319,0.00548735,-0.000158961,0.00548982,-0.00473566,-1.55525,0.00590904,0.022135,657,743,-31.9928,0.896673
-560,281,-32.0916,-1.80798,-0.00314211,0.00381889,4.82006e-05,0.00381922,-0.00314244,1.56387,0.00402564,0.00892188,664,743,-32.0916,1.80796
-553,281,-32.0973,-2.72388,-0.00203113,0.00249716,0.000171271,0.00250363,-0.0020376,1.53305,0.00262648,0.0142199,671,743,-32.0973,2.7239
-546,281,-32.1616,-3.61896,-0.00143065,0.00151459,0.000337744,0.00155282,-0.00146888,1.45807,0.00174481,0.0162915,678,743,-32.1616,3.61898
-539,281,-32.2216,-4.5426,-0.00119024,0.000667893,0.000559176,0.000823189,-0.00134553,1.2999,0.00126416,0.0146079,685,743,-32.2216,4.54257
-532,281,-32.2685,-5.44458,-0.00121598,3.69602e-05,0.000794133,0.00042198,-0.001601,1.11936,0.00123232,0.0152485,692,743,-32.2685,5.44458
-525,281,-32.3605,-6.39899,-0.00140408,-0.000450141,0.00102085,0.000199667,-0.00205389,1.00394,0.00144043,0.017914,699,743,-32.3605,6.399
-518,281,-32.4175,-7.34796,-0.0017648,-0.000681188,0.00118802,8.27436e-05,-0.00252874,0.999338,0.00171407,0.0136407,706,743,-32.4175,7.34799
-511,281,-32.4654,-8.27814,-0.00230381,-0.00109856,0.00120527,-0.000353658,-0.00304871,1.01722,0.00192544,0.0136681,713,743,-32.4654,8.27812
-504,281,-32.5798,-9.19653,-0.00263841,-0.00146488,0.00125968,-0.000662005,-0.00344128,1.00336,0.00210845,0.0185472,720,743,-32.5798,9.19653
-497,281,-32.6889,-10.0978,0,0,0,0,0,0,0,-1,727,743,-32.6889,10.0979
-490,281,-27.6985,-9.63165,0,0,0,0,0,0,0,-1,734,743,-27.6986,9.63165
-483,281,-22.1078,-2.34973,0,0,0,0,0,0,0,-1,741,743,-22.1078,2.3497
-476,281,-28.0016,2.17786,0,0,0,0,0,0,0,-1,748,743,-28.0016,-2.17786
-469,281,-34.6448,0.171692,0,0,0,0,0,0,0,-1,755,743,-34.6448,-0.171685
-462,281,-46.6214,0.0193481,0,0,0,0,0,0,0,-1,762,743,-46.6214,-0.0193665
-455,281,-56.0239,-0.1521,0,0,0,0,0,0,0,-1,769,743,-56.024,0.152123
-448,281,-55.8145,0.304321,0,0,0,0,0,0,0,-1,776,743,-55.8145,-0.304294
-441,281,-55.4486,0.766052,0,0,0,0,0,0,0,-1,783,743,-55.4486,-0.766078
-434,281,0,0,0,0,0,0,0,0,0,-1,790,743,0,0
-427,281,0,0,0,0,0,0,0,0,0,-1,797,743,0,0
-420,281,0,0,0,0,0,0,0,0,0,-1,804,743,0,0
-413,281,0,0,0,0,0,0,0,0,0,-1,811,743,0,0
-406,281,0,0,0,0,0,0,0,0,0,-1,818,743,0,0
-399,281,0,0,0,0,0,0,0,0,0,-1,825,743,0,0
-392,281,0,0,0,0,0,0,0,0,0,-1,832,743,0,0
-385,281,0,0,0,0,0,0,0,0,0,-1,839,743,0,0
-378,281,0,0,0,0,0,0,0,0,0,-1,846,743,0,0
-371,281,0,0,0,0,0,0,0,0,0,-1,853,743,0,0
-364,281,0,0,0,0,0,0,0,0,0,-1,860,743,0,0
-357,281,0,0,0,0,0,0,0,0,0,-1,867,743,0,0
-350,281,0,0,0,0,0,0,0,0,0,-1,874,743,0,0
-343,281,0,0,0,0,0,0,0,0,0,-1,881,743,0,0
-336,281,0,0,0,0,0,0,0,0,0,-1,888,743,0,0
-329,281,0,0,0,0,0,0,0,0,0,-1,895,743,0,0
-322,281,0,0,0,0,0,0,0,0,0,-1,902,743,0,0
-315,281,0,0,0,0,0,0,0,0,0,-1,909,743,0,0
-308,281,0,0,0,0,0,0,0,0,0,-1,916,743,0,0
-301,281,0,0,0,0,0,0,0,0,0,-1,923,743,0,0
-294,281,0,0,0,0,0,0,0,0,0,-1,930,743,0,0
-287,281,0,0,0,0,0,0,0,0,0,-1,937,743,0,0
-280,281,0,0,0,0,0,0,0,0,0,-1,944,743,0,0
-273,281,0,0,0,0,0,0,0,0,0,-1,951,743,0,0
-266,281,0,0,0,0,0,0,0,0,0,-1,958,743,0,0
-259,281,0,0,0,0,0,0,0,0,0,-1,965,743,0,0
-252,281,0,0,0,0,0,0,0,0,0,-1,972,743,0,0
-245,281,0,0,0,0,0,0,0,0,0,-1,979,743,0,0
-238,281,0,0,0,0,0,0,0,0,0,-1,986,743,0,0
-231,281,0,0,0,0,0,0,0,0,0,-1,993,743,0,0
-224,281,0,0,0,0,0,0,0,0,0,-1,1000,743,0,0
-217,281,0,0,0,0,0,0,0,0,0,-1,1007,743,0,0
-210,281,0,0,0,0,0,0,0,0,0,-1,1014,743,0,0
-203,281,0,0,0,0,0,0,0,0,0,-1,1021,743,0,0
-196,281,0,0,0,0,0,0,0,0,0,-1,1028,743,0,0
-189,281,0,0,0,0,0,0,0,0,0,-1,1035,743,0,0
-182,281,0,0,0,0,0,0,0,0,0,-1,1042,743,0,0
-175,281,0,0,0,0,0,0,0,0,0,-1,1049,743,0,0
-168,281,0,0,0,0,0,0,0,0,0,-1,1056,743,0,0
-161,281,0,0,0,0,0,0,0,0,0,-1,1063,743,0,0
-154,281,0,0,0,0,0,0,0,0,0,-1,1070,743,0,0
-147,281,0,0,0,0,0,0,0,0,0,-1,1077,743,0,0
-140,281,0,0,0,0,0,0,0,0,0,-1,1084,743,0,0
-133,281,0,0,0,0,0,0,0,0,0,-1,1091,743,0,0
-126,281,0,0,0,0,0,0,0,0,0,-1,1098,743,0,0
-119,281,0,0,0,0,0,0,0,0,0,-1,1105,743,0,0
-112,281,0,0,0,0,0,0,0,0,0,-1,1112,743,0,0
-105,281,0,0,0,0,0,0,0,0,0,-1,1119,743,0,0
-98,281,0,0,0,0,0,0,0,0,0,-1,1126,743,0,0
-91,281,0,0,0,0,0,0,0,0,0,-1,1133,743,0,0
-84,281,0,0,0,0,0,0,0,0,0,-1,1140,743,0,0
-77,281,0,0,0,0,0,0,0,0,0,-1,1147,743,0,0
-70,281,0,0,0,0,0,0,0,0,0,-1,1154,743,0,0
-63,281,0,0,0,0,0,0,0,0,0,-1,1161,743,0,0
-56,281,0,0,0,0,0,0,0,0,0,-1,1168,743,0,0
-49,281,0,0,0,0,0,0,0,0,0,-1,1175,743,0,0
-42,281,0,0,0,0,0,0,0,0,0,-1,1182,743,0,0
-35,281,0,0,0,0,0,0,0,0,0,-1,1189,743,0,0
-28,281,0,0,0,0,0,0,0,0,0,-1,1196,743,0,0
-21,281,0,0,0,0,0,0,0,0,0,-1,1203,743,0,0
-14,281,0,0,0,0,0,0,0,0,0,-1,1210,743,0,0
-7,281,0,0,0,0,0,0,0,0,0,-1,1217,743,0,0
0,281,0,0,0,0,0,0,0,0,0,-1,1224,743,0,0
7,281,0,0,0,0,0,0,0,0,0,-1,1231,743,0,0
14,281,0,0,0,0,0,0,0,0,0,-1,1238,743,0,0
21,281,0,0,0,0,0,0,0,0,0,-1,1245,743,0,0
28,281,0,0,0,0,0,0,0,0,0,-1,1252,743,0,0
35,281,0,0,0,0,0,0,0,0,0,-1,1259,743,0,0
42,281,0,0,0,0,0,0,0,0,0,-1,1266,743,0,0
49,281,0,0,0,0,0,0,0,0,0,-1,1273,743,0,0
56,281,0,0,0,0,0,0,0,0,0,-1,1280,743,0,0
63,281,0,0,0,0,0,0,0,0,0,-1,1287,743,0,0
70,281,0,0,0,0,0,0,0,0,0,-1,1294,743,0,0
77,281,0,0,0,0,0,0,0,0,0,-1,1301,743,0,0
84,281,0,0,0,0,0,0,0,0,0,-1,1308,743,0,0
91,281,0,0,0,0,0,0,0,0,0,-1,1315,743,0,0
98,281,0,0,0,0,0,0,0,0,0,-1,1322,743,0,0
105,281,0,0,0,0,0,0,0,0,0,-1,1329,743,0,0
112,281,0,0,0,0,0,0,0,0,0,-1,1336,743,0,0
119,281,0,0,0,0,0,0,0,0,0,-1,1343,743,0,0
126,281,0,0,0,0,0,0,0,0,0,-1,1350,743,0,0
133,281,0,0,0,0,0,0,0,0,0,-1,1357,743,0,0
140,281,0,0,0,0,0,0,0,0,0,-1,1364,743,0,0
147,281,0,0,0,0,0,0,0,0,0,-1,1371,743,0,0
154,281,0,0,0,0,0,0,0,0,0,-1,1378,743,0,0
161,281,0,0,0,0,0,0,0,0,0,-1,1385,743,0,0
168,281,0,0,0,0,0,0,0,0,0,-1,1392,743,0,0
175,281,0,0,0,0,0,0,0,0,0,-1,1399,743,0,0
182,281,0,0,0,0,0,0,0,0,0,-1,1406,743,0,0
189,281,0,0,0,0,0,0,0,0,0,-1,1413,743,0,0
196,281,0,0,0,0,0,0,0,0,0,-1,1420,743,0,0
203,281,0,0,0,0,0,0,0,0,0,-1,1427,743,0,0
210,281,0,0,0,0,0,0,0,0,0,-1,1434,743,0,0
217,281,0,0,0,0,0,0,0,0,0,-1,1441,743,0,0
224,281,0,0,0,0,0,0,0,0,0,-1,1448,743,0,0
231,281,0,0,0,0,0,0,0,0,0,-1,1455,743,0,0
238,281,0,0,0,0,0,0,0,0,0,-1,1462,743,0,0
245,281,0,0,0,0,0,0,0,0,0,-1,1469,743,0,0
252,281,0,0,0,0,0,0,0,0,0,-1,1476,743,0,0
259,281,0,0,0,0,0,0,0,0,0,-1,1483,743,0,0
266,281,0,0,0,0,0,0,0,0,0,-1,1490,743,0,0
273,281,0,0,0,0,0,0,0,0,0,-1,1497,743,0,0
280,281,0,0,0,0,0,0,0,0,0,-1,1504,743,0,0
287,281,0,0,0,0,0,0,0,0,0,-1,1511,743,0,0
294,281,0,0,0,0,0,0,0,0,0,-1,1518,743,0,0
301,281,0,0,0,0,0,0,0,0,0,-1,1525,743,0,0
308,281,0,0,0,0,0,0,0,0,0,-1,1532,743,0,0
315,281,0,0,0,0,0,0,0,0,0,-1,1539,743,0,0
322,281,0,0,0,0,0,0,0,0,0,-1,1546,743,0,0
329,281,0,0,0,0,0,0,0,0,0,-1,1553,743,0,0
336,281,0,0,0,0,0,0,0,0,0,-1,1560,743,0,0
343,281,0,0,0,0,0,0,0,0,0,-1,1567,743,0,0
350,281,0,0,0,0,0,0,0,0,0,-1,1574,743,0,0
357,281,0,0,0,0,0,0,0,0,0,-1,1581,743,0,0
364,281,0,0,0,0,0,0,0,0,0,-1,1588,743,0,0
371,281,0,0,0,0,0,0,0,0,0,-1,1595,743,0,0
378,281,0,0,0,0,0,0,0,0,0,-1,1602,743,0,0
385,281,0,0,0,0,0,0,0,0,0,-1,1609,743,0,0
392,281,0,0,0,0,0,0,0,0,0,-1,1616,743,0,0
399,281,0,0,0,0,0,0,0,0,0,-1,1623,743,0,0
406,281,0,0,0,0,0,0,0,0,0,-1,1630,743,0,0
413,281,0,0,0,0,0,0,0,0,0,-1,1637,743,0,0
420,281,0,0,0,0,0,0,0,0,0,-1,1644,743,0,0
427,281,0,0,0,0,0,0,0,0,0,-1,1651,743,0,0
434,281,0,0,0,0,0,0,0,0,0,-1,1658,743,0,0
441,281,0,0,0,0,0,0,0,0,0,-1,1665,743,0,0
448,281,0,0,0,0,0,0,0,0,0,-1,1672,743,0,0
455,281,0,0,0,0,0,0,0,0,0,-1,1679,743,0,0
462,281,0,0,0,0,0,0,0,0,0,-1,1686,743,0,0
469,281,0,0,0,0,0,0,0,0,0,-1,1693,743,0,0
476,281,0,0,0,0,0,0,0,0,0,-1,1700,743,0,0
483,281,0,0,0,0,0,0,0,0,0,-1,1707,743,0,0
490,281,0,0,0,0,0,0,0,0,0,-1,1714,743,0,0
497,281,0,0,0,0,0,0,0,0,0,-1,1721,743,0,0
504,281,0,0,0,0,0,0,0,0,0,-1,1728,743,0,0
511,281,0,0,0,0,0,0,0,0,0,-1,1735,743,0,0
518,281,0,0,0,0,0,0,0,0,0,-1,1742,743,0,0
525,281,0,0,0,0,0,0,0,0,0,-1,1749,743,0,0
532,281,0,0,0,0,0,0,0,0,0,-1,1756,743,0,0
539,281,0,0,0,0,0,0,0,0,0,-1,1763,743,0,0
546,281,0,0,0,0,0,0,0,0,0,-1,1770,743,0,0
553,281,0,0,0,0,0,0,0,0,0,-1,1777,743,0,0
560,281,57.8354,3.06482,0,0,0,0,0,0,0,-1,1784,743,57.8354,-3.06479
567,281,57.6156,3.64508,0,0,0,0,0,0,0,-1,1791,743,57.6156,-3.64511
574,281,57.3431,4.17767,0,0,0,0,0,0,0,-1,1798,743,57.3431,-4.17769
581,281,57.0648,4.53906,0,0,0,0,0,0,0,-1,1805,743,57.0648,-4.53908
588,281,53.5422,6.00092,0,0,0,0,0,0,0,-1,1812,743,53.5422,-6.00092
595,281,54.8569,3.32269,0,0,0,0,0,0,0,-1,1819,743,54.857,-3.32269
602,281,45.9985,3.98254,0,0,0,0,0,0,0,-1,1826,743,45.9985,-3.98254
609,281,32.7925,1.28723,0,0,0,0,0,0,0,-1,1833,743,32.7925,-1.28722
616,281,21.3191,-0.253906,0,0,0,0,0,0,0,-1,1840,743,21.3191,0.253931
623,281,31.8741,-4.74182,0,0,0,0,0,0,0,-1,1847,743,31.8741,4.74184
630,281,47.8716,-8.60175,0,0,0,0,0,0,0,-1,1854,743,47.8716,8.60176
637,281,47.8481,-7.78461,0.00213507,-0.000198276,0.000447748,0.00221804,-0.000281245,0.183224,0.0015808,0.0235998,1861,743,47.8481,7.78458
644,281,47.8678,-6.87482,0.00145993,0.000275535,0.000458356,0.00161659,0.000118875,0.329339,0.00104037,0.0108094,1868,743,47.8677,6.87482
651,281,47.8486,-5.95221,0.00111223,0.000600042,0.000452234,0.00137585,0.000336426,0.527767,0.00082819,0.0122454,1875,743,47.8487,5.9522
658,281,47.7889,-4.9848,0.00119605,0.000757686,0.000576023,0.00159318,0.000360555,0.603601,0.000964666,0.021514,1882,743,47.7889,4.98482
665,281,47.7067,-4.05603,0.00124273,0.00115012,0.000703132,0.00190108,0.000491769,0.752517,0.0011394,0.0219127,1889,743,47.7067,4.05604
672,281,47.6528,-3.14978,0.00141207,0.0016777,0.000904577,0.00245916,0.000630611,0.858291,0.00147488,0.0144199,1896,743,47.6528,3.14979
679,281,47.6013,-2.23798,0.0018145,0.00245485,0.00129465,0.00346832,0.000801025,0.906619,0.00209684,0.0223109,1903,743,47.6013,2.23798
686,281,47.484,-1.32288,0.00226946,0.00331028,0.00170584,0.00457332,0.00100642,0.933451,0.00277493,0.0174439,1910,743,47.484,1.32289
693,281,47.4556,-0.393127,0.00297543,0.00442229,0.00229932,0.0061093,0.00128842,0.937809,0.00371856,0.0129777,1917,743,47.4556,0.393149
700,281,47.4126,0.591125,0.00396646,0.0058081,0.00317679,0.00819483,0.00157973,0.926462,0.00502019,0.0469021,1924,743,47.4126,-0.591145
707,281,47.1417,1.63824,0,0,0,0,0,0,0,-1,1931,743,47.1417,-1.63824
714,281,25.0125,2.5105,0,0,0,0,0,0,0,-1,1938,743,25.0124,-2.51053
721,281,16.9656,3.22174,0,0,0,0,0,0,0,-1,1945,743,16.9656,-3.22172
728,281,19.0251,3.63934,0,0,0,0,0,0,0,-1,1952,743,19.0252,-3.63932
735,281,19.0869,2.50311,0,0,0,0,0,0,0,-1,1959,743,19.0869,-2.5031
742,281,0,0,0,0,0,0,0,0,0,-1,1966,743,0,0
749,281,0,0,0,0,0,0,0,0,0,-1,1973,743,0,0
756,281,0,0,0,0,0,0,0,0,0,-1,1980,743,0,0
763,281,0,0,0,0,0,0,0,0,0,-1,1987,743,0,0
770,281,0,0,0,0,0,0,0,0,0,-1,1994,743,0,0
777,281,0,0,0,0,0,0,0,0,0,-1,2001,743,0,0
784,281,0,0,0,0,0,0,0,0,0,-1,2008,743,0,0
791,281,0,0,0,0,0,0,0,0,0,-1,2015,743,0,0
798,281,0,0,0,0,0,0,0,0,0,-1,2022,743,0,0
805,281,0,0,0,0,0,0,0,0,0,-1,2029,743,0,0
812,281,0,0,0,0,0,0,0,0,0,-1,2036,743,0,0
-700,274,0,0,0,0,0,0,0,0,0,-1,524,750,0,0
-693,274,0,0,0,0,0,0,0,0,0,-1,531,750,0,0
-686,274,0,0,0,0,0,0,0,0,0,-1,538,750,0,0
-679,274,0,0,0,0,0,0,0,0,0,-1,545,750,0,0
-672,274,0,0,0,0,0,0,0,0,0,-1,552,750,0,0
-665,274,0,0,0,0,0,0,0,0,0,-1,559,750,0,0
-658,274,0,0,0,0,0,0,0,0,0,-1,566,750,0,0
-651,274,0,0,0,0,0,0,0,0,0,-1,573,750,0,0
-644,274,0,0,0,0,0,0,0,0,0,-1,580,750,0,0
-637,274,0,0,0,0,0,0,0,0,0,-1,587,750,0,0
-630,274,0,0,0,0,0,0,0,0,0,-1,594,750,0,0
-623,274,-19.6909,5.12701,0,0,0,0,0,0,0,-1,601,750,-19.6908,-5.12703
-616,274,-17.9133,3.9024,0,0,0,0,0,0,0,-1,608,750,-17.9133,-3.90239
-609,274,-26.0861,5.57306,0,0,0,0,0,0,0,-1,615,750,-26.0861,-5.57307
-602,274,-25.7372,3.73846,0,0,0,0,0,0,0,-1,622,750,-25.7372,-3.73849
-595,274,-25.258,2.53473,0,0,0,0,0,0,0,-1,629,750,-25.258,-2.53474
-588,274,-24.9805,2.2334,0,0,0,0,0,0,0,-1,636,750,-24.9805,-2.23341
-581,274,-32.5797,1.53265,0,0,0,0,0,0,0,-1,643,750,-32.5797,-1.53263
-574,274,-32.6794,-0.0217896,-0.00661253,0.00693931,-0.000583998,0.00696443,-0.00663765,-1.52781,0.00785392,0.0319539,650,750,-32.6795,0.0217804
-567,274,-32.9359,-0.891724,-0.00441485,0.00484029,-8.19978e-05,0.00484102,-0.00441558,-1.56194,0.00534618,0.0300869,657,750,-32.9358,0.891713
-560,274,-33.0071,-1.73413,-0.00308233,0.00332532,0.000245174,0.00333469,-0.0030917,1.53261,0.00371116,0.0152851,664,750,-33.0071,1.73412
-553,274,-33.0491,-2.66443,-0.002168,0.00217586,0.000465656,0.00222522,-0.00221736,1.4652,0.00256492,0.00985273,671,750,-33.0491,2.66444
-546,274,-33.1169,-3.59161,-0.00167564,0.00126638,0.00069261,0.00142128,-0.00183054,1.35077,0.00188239,0.0119563,678,750,-33.1169,3.59164
-539,274,-33.168,-4.51141,-0.0015255,0.00049585,0.000936087,0.000862753,-0.00189241,1.19725,0.0016273,0.012526,685,750,-33.168,4.51139
-532,274,-33.2396,-5.40411,-0.00157241,-2.42133e-05,0.00111919,0.000562506,-0.00215912,1.08795,0.00165902,0.0136035,692,750,-33.2396,5.40413
-525,274,-33.3061,-6.32562,-0.00169608,-0.000364712,0.00124248,0.000379177,-0.00243997,1.03132,0.00176665,0.0145184,699,750,-33.3061,6.32559
-518,274,-33.3544,-7.28687,-0.0019926,-0.000511173,0.00125914,0.000208967,-0.00271274,1.05127,0.00188202,0.0138098,706,750,-33.3544,7.28684
-511,274,-33.398,-8.24982,-0.00240304,-0.0009639,0.00106901,-0.000394845,-0.00297209,1.08163,0.00186378,0.0214617,713,750,-33.398,8.24983
-504,274,-33.5629,-9.27094,-0.00255238,-0.00137031,0.000942261,-0.000849062,-0.00307363,1.06551,0.00183284,0.0394935,720,750,-33.5629,9.27093
-497,274,-33.827,-10.3391,0,0,0,0,0,0,0,-1,727,750,-33.827,10.3391
-490,274,-13.6545,-3.58826,0,0,0,0,0,0,0,-1,734,750,-13.6546,3.58825
-483,274,-27.8608,1.30981,0,0,0,0,0,0,0,-1,741,750,-27.8608,-1.30979
-476,274,-33.7561,-0.508606,0,0,0,0,0,0,0,-1,748,750,-33.7561,0.508636
-469,274,-41.1387,0.907715,0,0,0,0,0,0,0,-1,755,750,-41.1387,-0.907744
-462,274,-56.4362,0.240723,0,0,0,0,0,0,0,-1,762,750,-56.4362,-0.240732
-455,274,-56.3354,0.39563,0,0,0,0,0,0,0,-1,769,750,-56.3354,-0.395609
-448,274,-56.1052,0.421143,0,0,0,0,0,0,0,-1,776,750,-56.1052,-0.421134
-441,274,0,0,0,0,0,0,0,0,0,-1,783,750,0,0
-434,274,0,0,0,0,0,0,0,0,0,-1,790,750,0,0
-427,274,0,0,0,0,0,0,0,0,0,-1,797,750,0,0
-420,274,0,0,0,0,0,0,0,0,0,-1,804,750,0,0
-413,274,0,0,0,0,0,0,0,0,0,-1,811,750,0,0
-406,274,0,0,0,0,0,0,0,0,0,-1,818,750,0,0
-399,274,0,0,0,0,0,0,0,0,0,-1,825,750,0,0
-392,274,0,0,0,0,0,0,0,0,0,-1,832,750,0,0
-385,274,0,0,0,0,0,0,0,0,0,-1,839,750,0,0
-378,274,0,0,0,0,0,0,0,0,0,-1,846,750,0,0
-371,274,0,0,0,0,0,0,0,0,0,-1,853,750,0,0
-364,274,0,0,0,0,0,0,0,0,0,-1,860,750,0,0
-357,274,0,0,0,0,0,0,0,0,0,-1,867,750,0,0
-350,274,0,0,0,0,0,0,0,0,0,-1,874,750,0,0
-343,274,0,0,0,0,0,0,0,0,0,-1,881,750,0,0
-336,274,0,0,0,0,0,0,0,0,0,-1,888,750,0,0
-329,274,0,0,0,0,0,0,0,0,0,-1,895,750,0,0
-322,274,0,0,0,0,0,0,0,0,0,-1,902,750,0,0
-315,274,0,0,0,0,0,0,0,0,0,-1,909,750,0,0
-308,274,0,0,0,0,0,0,0,0,0,-1,916,750,0,0
-301,274,0,0,0,0,0,0,0,0,0,-1,923,750,0,0
-294,274,0,0,0,0,0,0,0,0,0,-1,930,750,0,0
-287,274,0,0,0,0,0,0,0,0,0,-1,937,750,0,0
-280,274,0,0,0,0,0,0,0,0,0,-1,944,750,0,0
-273,274,0,0,0,0,0,0,0,0,0,-1,951,750,0,0
-266,274,0,0,0,0,0,0,0,0,0,-1,958,750,0,0
-259,274,0,0,0,0,0,0,0,0,0,-1,965,750,0,0
-252,274,0,0,0,0,0,0,0,0,0,-1,972,750,0,0
-245,274,0,0,0,0,0,0,0,0,0,-1,979,750,0,0
-238,274,0,0,0,0,0,0,0,0,0,-1,986,750,0,0
-231,274,0,0,0,0,0,0,0,0,0,-1,993,750,0,0
-224,274,0,0,0,0,0,0,0,0,0,-1,1000,750,0,0
-217,274,0,0,0,0,0,0,0,0,0,-1,1007,750,0,0
-210,274,0,0,0,0,0,0,0,0,0,-1,1014,750,0,0
-203,274,0,0,0,0,0,0,0,0,0,-1,1021,750,0,0
-196,274,0,0,0,0,0,0,0,0,0,-1,1028,750,0,0
-189,274,0,0,0,0,0,0,0,0,0,-1,1035,750,0,0
-182,274,0,0,0,0,0,0,0,0,0,-1,1042,750,0,0
-175,274,0,0,0,0,0,0,0,0,0,-1,1049,750,0,0
-168,274,0,0,0,0,0,0,0,0,0,-1,1056,750,0,0
-161,274,0,0,0,0,0,0,0,0,0,-1,1063,750,0,0
-154,274,0,0,0,0,0,0,0,0,0,-1,1070,750,0,0
-147,274,0,0,0,0,0,0,0,0,0,-1,1077,750,0,0
-140,274,0,0,0,0,0,0,0,0,0,-1,1084,750,0,0
-133,274,0,0,0,0,0,0,0,0,0,-1,1091,750,0,0
-126,274,0,0,0,0,0,0,0,0,0,-1,1098,750,0,0
-119,274,0,0,0,0,0,0,0,0,0,-1,1105,750,0,0
-112,274,0,0,0,0,0,0,0,0,0,-1,1112,750,0,0
-105,274,0,0,0,0,0,0,0,0,0,-1,1119,750,0,0
-98,274,0,0,0,0,0,0,0,0,0,-1,1126,750,0,0
-91,274,0,0,0,0,0,0,0,0,0,-1,1133,750,0,0
-84,274,0,0,0,0,0,0,0,0,0,-1,1140,750,0,0
-77,274,0,0,0,0,0,0,0,0,0,-1,1147,750,0,0
-70,274,0,0,0,0,0,0,0,0,0,-1,1154,750,0,0
-63,274,0,0,0,0,0,0,0,0,0,-1,1161,750,0,0
-56,274,0,0,0,0,0,0,0,0,0,-1,1168,750,0,0
-49,274,0,0,0,0,0,0,0,0,0,-1,1175,750,0,0
-42,274,0,0,0,0,0,0,0,0,0,-1,1182,750,0,0
-35,274,0,0,0,0,0,0,0,0,0,-1,1189,750,0,0
-28,274,0,0,0,0,0,0,0,0,0,-1,1196,750,0,0
-21,274,0,0,0,0,0,0,0,0,0,-1,1203,750,0,0
-14,274,0,0,0,0,0,0,0,0,0,-1,1210,750,0,0
-7,274,0,0,0,0,0,0,0,0,0,-1,1217,750,0,0
0,274,0,0,0,0,0,0,0,0,0,-1,1224,750,0,0
7,274,0,0,0,0,0,0,0,0,0,-1,1231,750,0,0
14,274,0,0,0,0,0,0,0,0,0,-1,1238,750,0,0
21,274,0,0,0,0,0,0,0,0,0,-1,1245,750,0,0
28,274,0,0,0,0,0,0,0,0,0,-1,1252,750,0,0
35,274,0,0,0,0,0,0,0,0,0,-1,1259,750,0,0
42,274,0,0,0,0,0,0,0,0,0,-1,1266,750,0,0
49,274,0,0,0,0,0,0,0,0,0,-1,1273,750,0,0
56,274,0,0,0,0,0,0,0,0,0,-1,1280,750,0,0
63,274,0,0,0,0,0,0,0,0,0,-1,1287,750,0,0
70,274,0,0,0,0,0,0,0,0,0,-1,1294,750,0,0
77,274,0,0,0,0,0,0,0,0,0,-1,1301,750,0,0
84,274,0,0,0,0,0,0,0,0,0,-1,1308,750,0,0
91,274,0,0,0,0,0,0,0,0,0,-1,1315,750,0,0
98,274,0,0,0,0,0,0,0,0,0,-1,1322,750,0,0
105,274,0,0,0,0,0,0,0,0,0,-1,1329,750,0,0
112,274,0,0,0,0,0,0,0,0,0,-1,1336,750,0,0
119,274,0,0,0,0,0,0,0,0,0,-1,1343,750,0,0
126,274,0,0,0,0,0,0,0,0,0,-1,1350,750,0,0
133,274,0,0,0,0,0,0,0,0,0,-1,1357,750,0,0
140,274,0,0,0,0,0,0,0,0,0,-1,1364,750,0,0
147,274,0,0,0,0,0,0,0,0,0,-1,1371,750,0,0
154,274,0,0,0,0,0,0,0,0,0,-1,1378,750,0,0
161,274,0,0,0,0,0,0,0,0,0,-1,1385,750,0,0
168,274,0,0,0,0,0,0,0,0,0,-1,1392,750,0,0
175,274,0,0,0,0,0,0,0,0,0,-1,1399,750,0,0
182,274,0,0,0,0,0,0,0,0,0,-1,1406,750,0,0
189,274,0,0,0,0,0,0,0,0,0,-1,1413,750,0,0
196,274,0,0,0,0,0,0,0,0,0,-1,1420,750,0,0
203,274,0,0,0,0,0,0,0,0,0,-1,1427,750,0,0
210,274,0,0,0,0,0,0,0,0,0,-1,1434,750,0,0
217,274,0,0,0,0,0,0,0,0,0,-1,1441,750,0,0
224,274,0,0,0,0,0,0,0,0,0,-1,1448,750,0,0
231,274,0,0,0,0,0,0,0,0,0,-1,1455,750,0,0
238,274,0,0,0,0,0,0,0,0,0,-1,1462,750,0,0
245,274,0,0,0,0,0,0,0,0,0,-1,1469,750,0,0
252,274,0,0,0,0,0,0,0,0,0,-1,1476,750,0,0
259,274,0,0,0,0,0,0,0,0,0,-1,1483,750,0,0
266,274,0,0,0,0,0,0,0,0,0,-1,1490,750,0,0
273,274,0,0,0,0,0,0,0,0,0,-1,1497,750,0,0
280,274,0,0,0,0,0,0,0,0,0,-1,1504,750,0,0
287,274,0,0,0,0,0,0,0,0,0,-1,1511,750,0,0
294,274,0,0,0,0,0,0,0,0,0,-1,1518,750,0,0
301,274,0,0,0,0,0,0,0,0,0,-1,1525,750,0,0
308,274,0,0,0,0,0,0,0,0,0,-1,1532,750,0,0
315,274,0,0,0,0,0,0,0,0,0,-1,1539,750,0,0
322,274,0,0,0,0,0,0,0,0,0,-1,1546,750,0,0
329,274,0,0,0,0,0,0,0,0,0,-1,1553,750,0,0
336,274,0,0,0,0,0,0,0,0,0,-1,1560,750,0,0
343,274,0,0,0,0,0,0,0,0,0,-1,1567,750,0,0
350,274,0,0,0,0,0,0,0,0,0,-1,1574,750,0,0
357,274,0,0,0,0,0,0,0,0,0,-1,1581,750,0,0
364,274,0,0,0,0,0,0,0,0,0,-1,1588,750,0,0
371,274,0,0,0,0,0,0,0,0,0,-1,1595,750,0,0
378,274,0,0,0,0,0,0,0,0,0,-1,1602,750,0,0
385,274,0,0,0,0,0,0,0,0,0,-1,1609,750,0,0
392,274,0,0,0,0,0,0,0,0,0,-1,1616,750,0,0
399,274,0,0,0,0,0,0,0,0,0,-1,1623,750,0,0
406,274,0,0,0,0,0,0,0,0,0,-1,1630,750,0,0
413,274,0,0,0,0,0,0,0,0,0,-1,1637,750,0,0
420,274,0,0,0,0,0,0,0,0,0,-1,1644,750,0,0
427,274,0,0,0,0,0,0,0,0,0,-1,1651,750,0,0
434,274,0,0,0,0,0,0,0,0,0,-1,1658,750,0,0
441,274,0,0,0,0,0,0,0,0,0,-1,1665,750,0,0
448,274,0,0,0,0,0,0,0,0,0,-1,1672,750,0,0
455,274,0,0,0,0,0,0,0,0,0,-1,1679,750,0,0
462,274,0,0,0,0,0,0,0,0,0,-1,1686,750,0,0
469,274,0,0,0,0,0,0,0,0,0,-1,1693,750,0,0
476,274,0,0,0,0,0,0,0,0,0,-1,1700,750,0,0
483,274,0,0,0,0,0,0,0,0,0,-1,1707,750,0,0
490,274,0,0,0,0,0,0,0,0,0,-1,1714,750,0,0
497,274,0,0,0,0,0,0,0,0,0,-1,1721,750,0,0
504,274,0,0,0,0,0,0,0,0,0,-1,1728,750,0,0
511,274,0,0,0,0,0,0,0,0,0,-1,1735,750,0,0
518,274,0,0,0,0,0,0,0,0,0,-1,1742,750,0,0
525,274,0,0,0,0,0,0,0,0,0,-1,1749,750,0,0
532,274,0,0,0,0,0,0,0,0,0,-1,1756,750,0,0
539,274,0,0,0,0,0,0,0,0,0,-1,1763,750,0,0
546,274,0,0,0,0,0,0,0,0,0,-1,1770,750,0,0
553,274,0,0,0,0,0,0,0,0,0,-1,1777,750,0,0
560,274,57.9182,3.24518,0,0,0,0,0,0,0,-1,1784,750,57.9182,-3.24516
567,274,57.8315,3.4137,0,0,0,0,0,0,0,-1,1791,750,57.8315,-3.41368
574,274,58.2571,3.11115,0,0,0,0,0,0,0,-1,1798,750,58.2571,-3.11114
581,274,54.4941,4.68127,0,0,0,0,0,0,0,-1,1805,750,54.4941,-4.68125
588,274,53.9908,5.6676,0,0,0,0,0,0,0,-1,1812,750,53.9908,-5.66763
595,274,66.2316,2.66986,0,0,0,0,0,0,0,-1,1819,750,66.2315,-2.66988
602,274,55.6321,2.56519,0,0,0,0,0,0,0,-1,1826,750,55.6321,-2.56521
609,274,44.6676,3.10461,0,0,0,0,0,0,0,-1,1833,750,44.6676,-3.1046
616,274,32.7869,1.78436,0,0,0,0,0,0,0,-1,1840,750,32.7868,-1.78437
623,274,24.8231,-1.80353,0,0,0,0,0,0,0,-1,1847,750,24.8232,1.80351
630,274,48.9025,-8.75153,0,0,0,0,0,0,0,-1,1854,750,48.9024,8.75151
637,274,48.7432,-7.84711,0.00159335,0.000211403,8.02132e-05,0.00159799,0.000206763,0.0577848,0.00100353,0.0313486,1861,750,48.7431,7.84709
644,274,48.7592,-6.84833,0.000945808,0.000648651,0.000241541,0.00108081,0.000513649,0.509665,0.000624261,0.015535,1868,750,48.7592,6.84835
651,274,48.7439,-5.88245,0.000645344,0.00084693,0.000248006,0.00101384,0.000478431,0.97841,0.00058565,0.0144091,1875,750,48.7439,5.88246
658,274,48.707,-4.93591,0.000897515,0.000728379,0.000371175,0.00119363,0.000432259,0.673391,0.000697822,0.0171795,1882,750,48.7071,4.9359
665,274,48.6304,-4.00476,0.000992196,0.000943175,0.000466377,0.00143471,0.000500664,0.759144,0.000840831,0.0168031,1889,750,48.6303,4.00473
672,274,48.5892,-3.10541,0.00112626,0.00133837,0.000589001,0.00183079,0.000633847,0.874473,0.00107355,0.0143266,1896,750,48.5893,3.10539
679,274,48.5198,-2.15271,0.00144356,0.00202615,0.000920887,0.00270071,0.000768995,0.938577,0.0016067,0.0165194,1903,750,48.5198,2.15273
686,274,48.4382,-1.21515,0.00179397,0.00281381,0.00127242,0.00367468,0.000933101,0.975973,0.00220556,0.0184188,1910,750,48.4382,1.21514
693,274,48.3654,-0.304138,0.00233934,0.00377624,0.00178058,0.00497785,0.00113773,0.977154,0.00301183,0.0135282,1917,750,48.3654,0.30411
700,274,48.3323,0.615906,0.00314505,0.00497222,0.00254879,0.00676621,0.00135105,0.957484,0.0041347,0.0203705,1924,750,48.3322,-0.615895
707,274,48.1644,1.58484,0.00405248,0.00621222,0.00342163,0.00872034,0.00154436,0.938252,0.00537327,0.0482917,1931,750,48.1644,-1.58484
714,274,47.9329,2.62585,0,0,0,0,0,0,0,-1,1938,750,47.9329,-2.62587
721,274,25.6215,3.91144,0,0,0,0,0,0,0,-1,1945,750,25.6214,-3.91141
728,274,19.2209,3.95154,0,0,0,0,0,0,0,-1,1952,750,19.221,-3.95151
735,274,20.6608,4.10931,0,0,0,0,0,0,0,-1,1959,750,20.6607,-4.10932
742,274,11.7815,-0.740234,0,0,0,0,0,0,0,-1,1966,750,11.7815,0.740253
749,274,0,0,0,0,0,0,0,0,0,-1,1973,750,0,0
756,274,0,0,0,0,0,0,0,0,0,-1,1980,750,0,0
763,274,0,0,0,0,0,0,0,0,0,-1,1987,750,0,0
770,274,0,0,0,0,0,0,0,0,0,-1,1994,750,0,0
777,274,0,0,0,0,0,0,0,0,0,-1,2001,750,0,0
784,274,0,0,0,0,0,0,0,0,0,-1,2008,750,0,0
791,274,0,0,0,0,0,0,0,0,0,-1,2015,750,0,0
798,274,0,0,0,0,0,0,0,0,0,-1,2022,750,0,0
805,274,0,0,0,0,0,0,0,0,0,-1,2029,750,0,0
812,274,0,0,0,0,0,0,0,0,0,-1,2036,750,0,0
-700,267,0,0,0,0,0,0,0,0,0,-1,524,757,0,0
-693,267,0,0,0,0,0,0,0,0,0,-1,531,757,0,0
-686,267,0,0,0,0,0,0,0,0,0,-1,538,757,0,0
-679,267,0,0,0,0,0,0,0,0,0,-1,545,757,0,0
-672,267,0,0,0,0,0,0,0,0,0,-1,552,757,0,0
-665,267,0,0,0,0,0,0,0,0,0,-1,559,757,0,0
-658,267,0,0,0,0,0,0,0,0,0,-1,566,757,0,0
-651,267,0,0,0,0,0,0,0,0,0,-1,573,757,0,0
-644,267,0,0,0,0,0,0,0,0,0,-1,580,757,0,0
-637,267,0,0,0,0,0,0,0,0,0,-1,587,757,0,0
-630,267,-21.3979,5.17529,0,0,0,0,0,0,0,-1,594,757,-21.3979,-5.17529
-623,267,-20.043,4.43115,0,0,0,0,0,0,0,-1,601,757,-20.043,-4.43116
-616,267,-27.1628,5.9325,0,0,0,0,0,0,0,-1,608,757,-27.1629,-5.93249
-609,267,-26.9868,4.99658,0,0,0,0,0,0,0,-1,615,757,-26.9868,-4.99656
-602,267,-26.6637,3.74072,0,0,0,0,0,0,0,-1,622,757,-26.6637,-3.74075
-595,267,-32.7299,2.1203,0,0,0,0,0,0,0,-1,629,757,-32.7299,-2.12028
-588,267,-33.3719,2.53784,0,0,0,0,0,0,0,-1,636,757,-33.3719,-2.53787
-581,267,-33.5331,1.31567,-0.00757,0.00788007,-0.00134142,0.00799567,-0.0076856,-1.48483,0.00905418,0.0487775,643,757,-33.5332,-1.31568
-574,267,-33.6829,0.157776,-0.00537936,0.00586343,-0.000551273,0.0058904,-0.00540632,-1.52192,0.00652416,0.0291843,650,757,-33.6829,-0.157803
-567,267,-33.8578,-0.751038,-0.00371673,0.0041307,2.168e-05,0.00413076,-0.00371679,1.56803,0.00453288,0.0321545,657,757,-33.8578,0.751022
-560,267,-33.9146,-1.63135,-0.00271078,0.0028695,0.000408548,0.00289926,-0.00274053,1.4981,0.00325656,0.0237673,664,757,-33.9146,1.63138
-553,267,-33.9863,-2.56921,-0.00207397,0.00194969,0.000695326,0.00206646,-0.00219074,1.40441,0.00245825,0.0183035,671,757,-33.9863,2.56924
-546,267,-34.0353,-3.52393,-0.00180745,0.00118453,0.000956015,0.00146392,-0.00208683,1.28648,0.00206052,0.0126244,678,757,-34.0353,3.52394
-539,267,-34.0693,-4.47461,-0.00190531,0.000516549,0.00118734,0.00100153,-0.0023903,1.18302,0.00201225,0.0127756,685,757,-34.0693,4.47463
-532,267,-34.1104,-5.38531,-0.00210451,6.31975e-05,0.00130283,0.000674068,-0.00271538,1.13235,0.00207182,0.013895,692,757,-34.1104,5.38531
-525,267,-34.2114,-6.25934,-0.00222466,-0.000243122,0.00136016,0.000448861,-0.00291665,1.10017,0.00211003,0.0130907,699,757,-34.2114,6.25934
-518,267,-34.2988,-7.20398,-0.00250044,-0.000425172,0.001283,0.000187277,-0.00311289,1.12543,0.00214042,0.0161239,706,757,-34.2988,7.20395
-511,267,-34.2893,-8.18994,-0.00280985,-0.000995948,0.000972095,-0.000573415,-0.00323238,1.16077,0.00199149,0.0357037,713,757,-34.2893,8.18993
-504,267,-34.2574,-9.13983,0,0,0,0,0,0,0,-1,720,757,-34.2574,9.13983
-497,267,-31.5913,-8.72119,0,0,0,0,0,0,0,-1,727,757,-31.5913,8.72117
-490,267,-23.4949,-0.494995,0,0,0,0,0,0,0,-1,734,757,-23.4949,0.494981
-483,267,-33.2785,-0.448425,0,0,0,0,0,0,0,-1,741,757,-33.2785,0.448407
-476,267,-40.2954,0.52002,0,0,0,0,0,0,0,-1,748,757,-40.2954,-0.520037
-469,267,-52.9857,0.187744,0,0,0,0,0,0,0,-1,755,757,-52.9857,-0.187726
-462,267,-58.0247,0.0516357,0,0,0,0,0,0,0,-1,762,757,-58.0247,-0.0516229
-455,267,-56.5999,0.790771,0,0,0,0,0,0,0,-1,769,757,-56.5999,-0.790769
-448,267,-56.4718,0.802429,0,0,0,0,0,0,0,-1,776,757,-56.4718,-0.802434
-441,267,0,0,0,0,0,0,0,0,0,-1,783,757,0,0
-434,267,0,0,0,0,0,0,0,0,0,-1,790,757,0,0
-427,267,0,0,0,0,0,0,0,0,0,-1,797,757,0,0
-420,267,0,0,0,0,0,0,0,0,0,-1,804,757,0,0
-413,267,0,0,0,0,0,0,0,0,0,-1,811,757,0,0
-406,267,0,0,0,0,0,0,0,0,0,-1,818,757,0,0
-399,267,0,0,0,0,0,0,0,0,0,-1,825,757,0,0
-392,267,0,0,0,0,0,0,0,0,0,-1,832,757,0,0
-385,267,0,0,0,0,0,0,0,0,0,-1,839,757,0,0
-378,267,0,0,0,0,0,0,0,0,0,-1,846,757,0,0
-371,267,0,0,0,0,0,0,0,0,0,-1,853,757,0,0
-364,267,0,0,0,0,0,0,0,0,0,-1,860,757,0,0
-357,267,0,0,0,0,0,0,0,0,0,-1,867,757,0,0
-350,267,0,0,0,0,0,0,0,0,0,-1,874,757,0,0
-343,267,0,0,0,0,0,0,0,0,0,-1,881,757,0,0
-336,267,0,0,0,0,0,0,0,0,0,-1,888,757,0,0
-329,267,0,0,0,0,0,0,0,0,0,-1,895,757,0,0
-322,267,0,0,0,0,0,0,0,0,0,-1,902,757,0,0
-315,267,0,0,0,0,0,0,0,0,0,-1,909,757,0,0
-308,267,0,0,0,0,0,0,0,0,0,-1,916,757,0,0
-301,267,0,0,0,0,0,0,0,0,0,-1,923,757,0,0
-294,267,0,0,0,0,0,0,0,0,0,-1,930,757,0,0
-287,267,0,0,0,0,0,0,0,0,0,-1,937,757,0,0
-280,267,0,0,0,0,0,0,0,0,0,-1,944,757,0,0
-273,267,0,0,0,0,0,0,0,0,0,-1,951,757,0,0
-266,267,0,0,0,0,0,0,0,0,0,-1,958,757,0,0
-259,267,0,0,0,0,0,0,0,0,0,-1,965,757,0,0
-252,267,0,0,0,0,0,0,0,0,0,-1,972,757,0,0
-245,267,0,0,0,0,0,0,0,0,0,-1,979,757,0,0
-238,267,0,0,0,0,0,0,0,0,0,-1,986,757,0,0
-231,267,0,0,0,0,0,0,0,0,0,-1,993,757,0,0
-224,267,0,0,0,0,0,0,0,0,0,-1,1000,757,0,0
-217,267,0,0,0,0,0,0,0,0,0,-1,1007,757,0,0
-210,267,0,0,0,0,0,0,0,0,0,-1,1014,757,0,0
-203,267,0,0,0,0,0,0,0,0,0,-1,1021,757,0,0
-196,267,0,0,0,0,0,0,0,0,0,-1,1028,757,0,0
-189,267,0,0,0,0,0,0,0,0,0,-1,1035,757,0,0
-182,267,0,0,0,0,0,0,0,0,0,-1,1042,757,0,0
-175,267,0,0,0,0,0,0,0,0,0,-1,1049,757,0,0
-168,267,0,0,0,0,0,0,0,0,0,-1,1056,757,0,0
-161,267,0,0,0,0,0,0,0,0,0,-1,1063,757,0,0
-154,267,0,0,0,0,0,0,0,0,0,-1,1070,757,0,0
-147,267,0,0,0,0,0,0,0,0,0,-1,1077,757,0,0
-140,267,0,0,0,0,0,0,0,0,0,-1,1084,757,0,0
-133,267,0,0,0,0,0,0,0,0,0,-1,1091,757,0,0
-126,267,0,0,0,0,0,0,0,0,0,-1,1098,757,0,0
-119,267,0,0,0,0,0,0,0,0,0,-1,1105,757,0,0
-112,267,0,0,0,0,0,0,0,0,0,-1,1112,757,0,0
-105,267,0,0,0,0,0,0,0,0,0,-1,1119,757,0,0
-98,267,0,0,0,0,0,0,0,0,0,-1,1126,757,0,0
-91,267,0,0,0,0,0,0,0,0,0,-1,1133,757,0,0
-84,267,0,0,0,0,0,0,0,0,0,-1,1140,757,0,0
-77,267,0,0,0,0,0,0,0,0,0,-1,1147,757,0,0
-70,267,0,0,0,0,0,0,0,0,0,-1,1154,757,0,0
-63,267,0,0,0,0,0,0,0,0,0,-1,1161,757,0,0
-56,267,0,0,0,0,0,0,0,0,0,-1,1168,757,0,0
-49,267,0,0,0,0,0,0,0,0,0,-1,1175,757,0,0
-42,267,0,0,0,0,0,0,0,0,0,-1,1182,757,0,0
-35,267,0,0,0,0,0,0,0,0,0,-1,1189,757,0,0
-28,267,0,0,0,0,0,0,0,0,0,-1,1196,757,0,0
-21,267,0,0,0,0,0,0,0,0,0,-1,1203,757,0,0
-14,267,0,0,0,0,0,0,0,0,0,-1,1210,757,0,0
-7,267,0,0,0,0,0,0,0,0,0,-1,1217,757,0,0
0,267,0,0,0,0,0,0,0,0,0,-1,1224,757,0,0
7,267,0,0,0,0,0,0,0,0,0,-1,1231,757,0,0
14,267,0,0,0,0,0,0,0,0,0,-1,1238,757,0,0
21,267,0,0,0,0,0,0,0,0,0,-1,1245,757,0,0
28,267,0,0,0,0,0,0,0,0,0,-1,1252,757,0,0
35,267,0,0,0,0,0,0,0,0,0,-1,1259,757,0,0
42,267,0,0,0,0,0,0,0,0,0,-1,1266,757,0,0
49,267,0,0,0,0,0,0,0,0,0,-1,1273,757,0,0
56,267,0,0,0,0,0,0,0,0,0,-1,1280,757,0,0
63,267,0,0,0,0,0,0,0,0,0,-1,1287,757,0,0
70,267,0,0,0,0,0,0,0,0,0,-1,1294,757,0,0
77,267,0,0,0,0,0,0,0,0,0,-1,1301,757,0,0
84,267,0,0,0,0,0,0,0,0,0,-1,1308,757,0,0
91,267,0,0,0,0,0,0,0,0,0,-1,1315,757,0,0
98,267,0,0,0,0,0,0,0,0,0,-1,1322,757,0,0
105,267,0,0,0,0,0,0,0,0,0,-1,1329,757,0,0
112,267,0,0,0,0,0,0,0,0,0,-1,1336,757,0,0
119,267,0,0,0,0,0,0,0,0,0,-1,1343,757,0,0
126,267,0,0,0,0,0,0,0,0,0,-1,1350,757,0,0
133,267,0,0,0,0,0,0,0,0,0,-1,1357,757,0,0
140,267,0,0,0,0,0,0,0,0,0,-1,1364,757,0,0
147,267,0,0,0,0,0,0,0,0,0,-1,1371,757,0,0
154,267,0,0,0,0,0,0,0,0,0,-1,1378,757,0,0
161,267,0,0,0,0,0,0,0,0,0,-1,1385,757,0,0
168,267,0,0,0,0,0,0,0,0,0,-1,1392,757,0,0
175,267,0,0,0,0,0,0,0,0,0,-1,1399,757,0,0
182,267,0,0,0,0,0,0,0,0,0,-1,1406,757,0,0
189,267,0,0,0,0,0,0,0,0,0,-1,1413,757,0,0
196,267,0,0,0,0,0,0,0,0,0,-1,1420,757,0,0
203,267,0,0,0,0,0,0,0,0,0,-1,1427,757,0,0
210,267,0,0,0,0,0,0,0,0,0,-1,1434,757,0,0
217,267,0,0,0,0,0,0,0,0,0,-1,1441,757,0,0
224,267,0,0,0,0,0,0,0,0,0,-1,1448,757,0,0
231,267,0,0,0,0,0,0,0,0,0,-1,1455,757,0,0
238,267,0,0,0,0,0,0,0,0,0,-1,1462,757,0,0
245,267,0,0,0,0,0,0,0,0,0,-1,1469,757,0,0
252,267,0,0,0,0,0,0,0,0,0,-1,1476,757,0,0
259,267,0,0,0,0,0,0,0,0,0,-1,1483,757,0,0
266,267,0,0,0,0,0,0,0,0,0,-1,1490,757,0,0
273,267,0,0,0,0,0,0,0,0,0,-1,1497,757,0,0
280,267,0,0,0,0,0,0,0,0,0,-1,1504,757,0,0
287,267,0,0,0,0,0,0,0,0,0,-1,1511,757,0,0
294,267,0,0,0,0,0,0,0,0,0,-1,1518,757,0,0
301,267,0,0,0,0,0,0,0,0,0,-1,1525,757,0,0
308,267,0,0,0,0,0,0,0,0,0,-1,1532,757,0,0
315,267,0,0,0,0,0,0,0,0,0,-1,1539,757,0,0
322,267,0,0,0,0,0,0,0,0,0,-1,1546,757,0,0
329,267,0,0,0,0,0,0,0,0,0,-1,1553,757,0,0
336,267,0,0,0,0,0,0,0,0,0,-1,1560,757,0,0
343,267,0,0,0,0,0,0,0,0,0,-1,1567,757,0,0
350,267,0,0,0,0,0,0,0,0,0,-1,1574,757,0,0
357,267,0,0,0,0,0,0,0,0,0,-1,1581,757,0,0
364,267,0,0,0,0,0,0,0,0,0,-1,1588,757,0,0
371,267,0,0,0,0,0,0,0,0,0,-1,1595,757,0,0
378,267,0,0,0,0,0,0,0,0,0,-1,1602,757,0,0
385,267,0,0,0,0,0,0,0,0,0,-1,1609,757,0,0
392,267,0,0,0,0,0,0,0,0,0,-1,1616,757,0,0
399,267,0,0,0,0,0,0,0,0,0,-1,1623,757,0,0
406,267,0,0,0,0,0,0,0,0,0,-1,1630,757,0,0
413,267,0,0,0,0,0,0,0,0,0,-1,1637,757,0,0
420,267,0,0,0,0,0,0,0,0,0,-1,1644,757,0,0
427,267,0,0,0,0,0,0,0,0,0,-1,1651,757,0,0
434,267,0,0,0,0,0,0,0,0,0,-1,1658,757,0,0
441,267,0,0,0,0,0,0,0,0,0,-1,1665,757,0,0
448,267,0,0,0,0,0,0,0,0,0,-1,1672,757,0,0
455,267,0,0,0,0,0,0,0,0,0,-1,1679,757,0,0
462,267,0,0,0,0,0,0,0,0,0,-1,1686,757,0,0
469,267,0,0,0,0,0,0,0,0,0,-1,1693,757,0,0
476,267,0,0,0,0,0,0,0,0,0,-1,1700,757,0,0
483,267,0,0,0,0,0,0,0,0,0,-1,1707,757,0,0
490,267,0,0,0,0,0,0,0,0,0,-1,1714,757,0,0
497,267,0,0,0,0,0,0,0,0,0,-1,1721,757,0,0
504,267,0,0,0,0,0,0,0,0,0,-1,1728,757,0,0
511,267,0,0,0,0,0,0,0,0,0,-1,1735,757,0,0
518,267,0,0,0,0,0,0,0,0,0,-1,1742,757,0,0
525,267,0,0,0,0,0,0,0,0,0,-1,1749,757,0,0
532,267,0,0,0,0,0,0,0,0,0,-1,1756,757,0,0
539,267,0,0,0,0,0,0,0,0,0,-1,1763,757,0,0
546,267,0,0,0,0,0,0,0,0,0,-1,1770,757,0,0
553,267,0,0,0,0,0,0,0,0,0,-1,1777,757,0,0
560,267,0,0,0,0,0,0,0,0,0,-1,1784,757,0,0
567,267,58.0104,3.24304,0,0,0,0,0,0,0,-1,1791,757,58.0104,-3.24306
574,267,64.5414,2.91858,0,0,0,0,0,0,0,-1,1798,757,64.5414,-2.91855
581,267,58.374,2.95636,0,0,0,0,0,0,0,-1,1805,757,58.3741,-2.95639
588,267,65.9681,2.6438,0,0,0,0,0,0,0,-1,1812,757,65.9682,-2.64382
595,267,66.191,2.60791,0,0,0,0,0,0,0,-1,1819,757,66.191,-2.60792
602,267,66.4139,2.57202,0,0,0,0,0,0,0,-1,1826,757,66.4139,-2.57203
609,267,54.5498,3.24054,0,0,0,0,0,0,0,-1,1833,757,54.5498,-3.24052
616,267,44.2543,3.28918,0,0,0,0,0,0,0,-1,1840,757,44.2542,-3.28918
623,267,24.1475,-1.1391,0,0,0,0,0,0,0,-1,1847,757,24.1475,1.13913
630,267,40.7198,-5.42108,0,0,0,0,0,0,0,-1,1854,757,40.7198,5.4211
637,267,49.6008,-7.67651,0,0,0,0,0,0,0,-1,1861,757,49.6008,7.67652
644,267,49.6735,-6.86206,0.000524801,0.000835277,-0.0001079,0.000869092,0.000490986,-1.26709,0.000503179,0.0242082,1868,757,49.6735,6.86204
651,267,49.6155,-5.81079,0.000219024,0.00105544,-5.68313e-05,0.00105929,0.00021518,-1.50326,0.000646513,0.0173795,1875,757,49.6154,5.81082
658,267,49.5972,-4.87836,0.000629356,0.000742726,0.000112797,0.00081228,0.000559802,1.01824,0.000480028,0.0156146,1882,757,49.5971,4.87836
665,267,49.5482,-3.94519,0.000841612,0.00078299,0.000226191,0.00104038,0.000584218,0.720965,0.00060218,0.0160863,1889,757,49.5482,3.94518
672,267,49.5137,-3.04248,0.000993883,0.00102897,0.000305574,0.0013175,0.00070535,0.814074,0.000761296,0.0145856,1896,757,49.5136,3.04245
679,267,49.455,-2.1106,0.00125998,0.00158182,0.000589989,0.00203244,0.000809361,0.918536,0.00118151,0.0134319,1903,757,49.455,2.11062
686,267,49.3932,-1.15619,0.00153714,0.00230696,0.000894578,0.00289592,0.000948177,0.98856,0.00170484,0.0178371,1910,757,49.3932,1.15619
693,267,49.3043,-0.287231,0.00197194,0.00315179,0.00134236,0.00402813,0.00109559,0.992428,0.0024049,0.0178289,1917,757,49.3043,0.287223
700,267,49.256,0.642212,0.00265705,0.00420998,0.00203453,0.00561118,0.00125585,0.967689,0.00340037,0.0167263,1924,757,49.256,-0.642193
707,267,49.2341,1.56805,0.00349383,0.00535662,0.00288856,0.00746024,0.00139022,0.941357,0.00458095,0.0239098,1931,757,49.2342,-1.56806
714,267,49.2145,2.55096,0,0,0,0,0,0,0,-1,1938,757,49.2145,-2.55095
721,267,47.0829,3.73804,0,0,0,0,0,0,0,-1,1945,757,47.0828,-3.73803
728,267,26.7886,3.90027,0,0,0,0,0,0,0,-1,1952,757,26.7886,-3.90028
735,267,24.6713,2.82483,0,0,0,0,0,0,0,-1,1959,757,24.6713,-2.82483
742,267,18.1177,3.56561,0,0,0,0,0,0,0,-1,1966,757,18.1176,-3.56564
749,267,0,0,0,0,0,0,0,0,0,-1,1973,757,0,0
756,267,0,0,0,0,0,0,0,0,0,-1,1980,757,0,0
763,267,0,0,0,0,0,0,0,0,0,-1,1987,757,0,0
770,267,0,0,0,0,0,0,0,0,0,-1,1994,757,0,0
777,267,0,0,0,0,0,0,0,0,0,-1,2001,757,0,0
784,267,0,0,0,0,0,0,0,0,0,-1,2008,757,0,0
791,267,0,0,0,0,0,0,0,0,0,-1,2015,757,0,0
798,267,0,0,0,0,0,0,0,0,0,-1,2022,757,0,0
805,267,0,0,0,0,0,0,0,0,0,-1,2029,757,0,0
812,267,0,0,0,0,0,0,0,0,0,-1,2036,757,0,0
-700,260,0,0,0,0,0,0,0,0,0,-1,524,764,0,0
-693,260,0,0,0,0,0,0,0,0,0,-1,531,764,0,0
-686,260,0,0,0,0,0,0,0,0,0,-1,538,764,0,0
-679,260,0,0,0,0,0,0,0,0,0,-1,545,764,0,0
-672,260,0,0,0,0,0,0,0,0,0,-1,552,764,0,0
-665,260,0,0,0,0,0,0,0,0,0,-1,559,764,0,0
-658,260,0,0,0,0,0,0,0,0,0,-1,566,764,0,0
-651,260,0,0,0,0,0,0,0,0,0,-1,573,764,0,0
-644,260,0,0,0,0,0,0,0,0,0,-1,580,764,0,0
-637,260,0,0,0,0,0,0,0,0,0,-1,587,764,0,0
-630,260,-21.8905,4.49341,0,0,0,0,0,0,0,-1,594,764,-21.8905,-4.49342
-623,260,-20.3127,3.53546,0,0,0,0,0,0,0,-1,601,764,-20.3127,-3.53544
-616,260,-23.4346,3.65009,0,0,0,0,0,0,0,-1,608,764,-23.4345,-3.65008
-609,260,-27.8874,4.42004,0,0,0,0,0,0,0,-1,615,764,-27.8874,-4.42005
-602,260,-32.8671,3.61243,0,0,0,0,0,0,0,-1,622,764,-32.867,-3.61241
-595,260,-34.914,3.3045,0,0,0,0,0,0,0,-1,629,764,-34.914,-3.30452
-588,260,-34.7902,2.18854,0,0,0,0,0,0,0,-1,636,764,-34.7902,-2.18852
-581,260,-34.6776,1.10681,-0.00612009,0.00680112,-0.00138992,0.00694894,-0.00626791,-1.46484,0.00763412,0.0330631,643,764,-34.6776,-1.10681
-574,260,-34.7325,0.199341,-0.00439998,0.00509219,-0.000608483,0.00513104,-0.00443883,-1.50704,0.00552998,0.0215237,650,764,-34.7325,-0.199317
-567,260,-34.7916,-0.670044,-0.00311196,0.00359452,3.30627e-05,0.00359468,-0.00311212,1.56587,0.00387552,0.0190545,657,764,-34.7916,0.670021
-560,260,-34.8411,-1.58978,-0.00231893,0.00246142,0.000517922,0.00251689,-0.0023744,1.4641,0.00282438,0.0211856,664,764,-34.8411,1.58979
-553,260,-34.9107,-2.5083,-0.00186453,0.00166306,0.000915282,0.0018864,-0.00208787,1.33146,0.00229553,0.0178927,671,764,-34.9107,2.5083
-546,260,-34.9411,-3.4563,-0.00181119,0.000937482,0.00124531,0.00141776,-0.00229147,1.2027,0.00216124,0.0123756,678,764,-34.9411,3.45628
-539,260,-34.9625,-4.3866,-0.00217263,0.000275971,0.00148717,0.000977962,-0.00287462,1.12977,0.00231239,0.014737,685,764,-34.9625,4.38662
-532,260,-34.9742,-5.23596,-0.00251764,-0.000212496,0.00153669,0.000555824,-0.00328596,1.10716,0.00239749,0.0200228,692,764,-34.9742,5.23599
-525,260,-35.101,-6.1286,-0.00265447,-0.000533806,0.00155092,0.000284605,-0.00347288,1.08524,0.00241571,0.0192573,699,764,-35.101,6.12859
-518,260,-35.3449,-7.07794,-0.00295747,-0.000736361,0.00138918,-6.83889e-05,-0.00362544,1.1226,0.00239449,0.0297098,706,764,-35.3449,7.07796
-511,260,-35.6896,-8.20044,0,0,0,0,0,0,0,-1,713,764,-35.6896,8.20044
-504,260,-34.7117,-8.67163,0,0,0,0,0,0,0,-1,720,764,-34.7117,8.6716
-497,260,-16.6542,-3.67334,0,0,0,0,0,0,0,-1,727,764,-16.6542,3.67331
-490,260,-29.4557,0.921387,0,0,0,0,0,0,0,-1,734,764,-29.4557,-0.921369
-483,260,-40.8972,1.04193,0,0,0,0,0,0,0,-1,741,764,-40.8972,-1.04193
-476,260,-53.8282,0.00378418,0,0,0,0,0,0,0,-1,748,764,-53.8283,-0.00378825
-469,260,-59.9272,0.081604,0,0,0,0,0,0,0,-1,755,764,-59.9272,-0.0816007
-462,260,-58.0533,0.0831299,0,0,0,0,0,0,0,-1,762,764,-58.0533,-0.0831578
-455,260,-58.0157,0.299377,0,0,0,0,0,0,0,-1,769,764,-58.0157,-0.299348
-448,260,0,0,0,0,0,0,0,0,0,-1,776,764,0,0
-441,260,0,0,0,0,0,0,0,0,0,-1,783,764,0,0
-434,260,0,0,0,0,0,0,0,0,0,-1,790,764,0,0
-427,260,0,0,0,0,0,0,0,0,0,-1,797,764,0,0
-420,260,0,0,0,0,0,0,0,0,0,-1,804,764,0,0
-413,260,0,0,0,0,0,0,0,0,0,-1,811,764,0,0
-406,260,0,0,0,0,0,0,0,0,0,-1,818,764,0,0
-399,260,0,0,0,0,0,0,0,0,0,-1,825,764,0,0
-392,260,0,0,0,0,0,0,0,0,0,-1,832,764,0,0
-385,260,0,0,0,0,0,0,0,0,0,-1,839,764,0,0
-378,260,0,0,0,0,0,0,0,0,0,-1,846,764,0,0
-371,260,0,0,0,0,0,0,0,0,0,-1,853,764,0,0
-364,260,0,0,0,0,0,0,0,0,0,-1,860,764,0,0
-357,260,0,0,0,0,0,0,0,0,0,-1,867,764,0,0
-350,260,0,0,0,0,0,0,0,0,0,-1,874,764,0,0
-343,260,0,0,0,0,0,0,0,0,0,-1,881,764,0,0
-336,260,0,0,0,0,0,0,0,0,0,-1,888,764,0,0
-329,260,0,0,0,0,0,0,0,0,0,-1,895,764,0,0
-322,260,0,0,0,0,0,0,0,0,0,-1,902,764,0,0
-315,260,0,0,0,0,0,0,0,0,0,-1,909,764,0,0
-308,260,0,0,0,0,0,0,0,0,0,-1,916,764,0,0
-301,260,0,0,0,0,0,0,0,0,0,-1,923,764,0,0
-294,260,0,0,0,0,0,0,0,0,0,-1,930,764,0,0
-287,260,0,0,0,0,0,0,0,0,0,-1,937,764,0,0
-280,260,0,0,0,0,0,0,0,0,0,-1,944,764,0,0
-273,260,0,0,0,0,0,0,0,0,0,-1,951,764,0,0
-266,260,0,0,0,0,0,0,0,0,0,-1,958,764,0,0
-259,260,0,0,0,0,0,0,0,0,0,-1,965,764,0,0
-252,260,0,0,0,0,0,0,0,0,0,-1,972,764,0,0
-245,260,0,0,0,0,0,0,0,0,0,-1,979,764,0,0
-238,260,0,0,0,0,0,0,0,0,0,-1,986,764,0,0
-231,260,0,0,0,0,0,0,0,0,0,-1,993,764,0,0
-224,260,0,0,0,0,0,0,0,0,0,-1,1000,764,0,0
-217,260,0,0,0,0,0,0,0,0,0,-1,1007,764,0,0
-210,260,0,0,0,0,0,0,0,0,0,-1,1014,764,0,0
-203,260,0,0,0,0,0,0,0,0,0,-1,1021,764,0,0
-196,260,0,0,0,0,0,0,0,0,0,-1,1028,764,0,0
-189,260,0,0,0,0,0,0,0,0,0,-1,1035,764,0,0
-182,260,0,0,0,0,0,0,0,0,0,-1,1042,764,0,0
-175,260,0,0,0,0,0,0,0,0,0,-1,1049,764,0,0
-168,260,0,0,0,0,0,0,0,0,0,-1,1056,764,0,0
-161,260,0,0,0,0,0,0,0,0,0,-1,1063,764,0,0
-154,260,0,0,0,0,0,0,0,0,0,-1,1070,764,0,0
-147,260,0,0,0,0,0,0,0,0,0,-1,1077,764,0,0
-140,260,0,0,0,0,0,0,0,0,0,-1,1084,764,0,0
-133,260,0,0,0,0,0,0,0,0,0,-1,1091,764,0,0
-126,260,0,0,0,0,0,0,0,0,0,-1,1098,764,0,0
-119,260,0,0,0,0,0,0,0,0,0,-1,1105,764,0,0
-112,260,0,0,0,0,0,0,0,0,0,-1,1112,764,0,0
-105,260,0,0,0,0,0,0,0,0,0,-1,1119,764,0,0
-98,260,0,0,0,0,0,0,0,0,0,-1,1126,764,0,0
-91,260,0,0,0,0,0,0,0,0,0,-1,1133,764,0,0
-84,260,0,0,0,0,0,0,0,0,0,-1,1140,764,0,0
-77,260,0,0,0,0,0,0,0,0,0,-1,1147,764,0,0
-70,260,0,0,0,0,0,0,0,0,0,-1,1154,764,0,0
-63,260,0,0,0,0,0,0,0,0,0,-1,1161,764,0,0
-56,260,0,0,0,0,0,0,0,0,0,-1,1168,764,0,0
-49,260,0,0,0,0,0,0,0,0,0,-1,1175,764,0,0
-42,260,0,0,0,0,0,0,0,0,0,-1,1182,764,0,0
-35,260,0,0,0,0,0,0,0,0,0,-1,1189,764,0,0
-28,260,0,0,0,0,0,0,0,0,0,-1,1196,764,0,0
-21,260,0,0,0,0,0,0,0,0,0,-1,1203,764,0,0
-14,260,0,0,0,0,0,0,0,0,0,-1,1210,764,0,0
-7,260,0,0,0,0,0,0,0,0,0,-1,1217,764,0,0
0,260,0,0,0,0,0,0,0,0,0,-1,1224,764,0,0
7,260,0,0,0,0,0,0,0,0,0,-1,1231,764,0,0
14,260,0,0,0,0,0,0,0,0,0,-1,1238,764,0,0
21,260,0,0,0,0,0,0,0,0,0,-1,1245,764,0,0
28,260,0,0,0,0,0,0,0,0,0,-1,1252,764,0,0
35,260,0,0,0,0,0,0,0,0,0,-1,1259,764,0,0
42,260,0,0,0,0,0,0,0,0,0,-1,1266,764,0,0
49,260,0,0,0,0,0,0,0,0,0,-1,1273,764,0,0
56,260,0,0,0,0,0,0,0,0,0,-1,1280,764,0,0
63,260,0,0,0,0,0,0,0,0,0,-1,1287,764,0,0
70,260,0,0,0,0,0,0,0,0,0,-1,1294,764,0,0
77,260,0,0,0,0,0,0,0,0,0,-1,1301,764,0,0
84,260,0,0,0,0,0,0,0,0,0,-1,1308,764,0,0
91,260,0,0,0,0,0,0,0,0,0,-1,1315,764,0,0
98,260,0,0,0,0,0,0,0,0,0,-1,1322,764,0,0
105,260,0,0,0,0,0,0,0,0,0,-1,1329,764,0,0
112,260,0,0,0,0,0,0,0,0,0,-1,1336,764,0,0
119,260,0,0,0,0,0,0,0,0,0,-1,1343,764,0,0
126,260,0,0,0,0,0,0,0,0,0,-1,1350,764,0,0
133,260,0,0,0,0,0,0,0,0,0,-1,1357,764,0,0
140,260,0,0,0,0,0,0,0,0,0,-1,1364,764,0,0
147,260,0,0,0,0,0,0,0,0,0,-1,1371,764,0,0
154,260,0,0,0,0,0,0,0,0,0,-1,1378,764,0,0
161,260,0,0,0,0,0,0,0,0,0,-1,1385,764,0,0
168,260,0,0,0,0,0,0,0,0,0,-1,1392,764,0,0
175,260,0,0,0,0,0,0,0,0,0,-1,1399,764,0,0
182,260,0,0,0,0,0,0,0,0,0,-1,1406,764,0,0
189,260,0,0,0,0,0,0,0,0,0,-1,1413,764,0,0
196,260,0,0,0,0,0,0,0,0,0,-1,1420,764,0,0
203,260,0,0,0,0,0,0,0,0,0,-1,1427,764,0,0
210,260,0,0,0,0,0,0,0,0,0,-1,1434,764,0,0
217,260,0,0,0,0,0,0,0,0,0,-1,1441,764,0,0
224,260,0,0,0,0,0,0,0,0,0,-1,1448,764,0,0
231,260,0,0,0,0,0,0,0,0,0,-1,1455,764,0,0
238,260,0,0,0,0,0,0,0,0,0,-1,1462,764,0,0
245,260,0,0,0,0,0,0,0,0,0,-1,1469,764,0,0
252,260,0,0,0,0,0,0,0,0,0,-1,1476,764,0,0
259,260,0,0,0,0,0,0,0,0,0,-1,1483,764,0,0
266,260,0,0,0,0,0,0,0,0,0,-1,1490,764,0,0
273,260,0,0,0,0,0,0,0,0,0,-1,1497,764,0,0
280,260,0,0,0,0,0,0,0,0,0,-1,1504,764,0,0
287,260,0,0,0,0,0,0,0,0,0,-1,1511,764,0,0
294,260,0,0,0,0,0,0,0,0,0,-1,1518,764,0,0
301,260,0,0,0,0,0,0,0,0,0,-1,1525,764,0,0
308,260,0,0,0,0,0,0,0,0,0,-1,1532,764,0,0
315,260,0,0,0,0,0,0,0,0,0,-1,1539,764,0,0
322,260,0,0,0,0,0,0,0,0,0,-1,1546,764,0,0
329,260,0,0,0,0,0,0,0,0,0,-1,1553,764,0,0
336,260,0,0,0,0,0,0,0,0,0,-1,1560,764,0,0
343,260,0,0,0,0,0,0,0,0,0,-1,1567,764,0,0
350,260,0,0,0,0,0,0,0,0,0,-1,1574,764,0,0
357,260,0,0,0,0,0,0,0,0,0,-1,1581,764,0,0
364,260,0,0,0,0,0,0,0,0,0,-1,1588,764,0,0
371,260,0,0,0,0,0,0,0,0,0,-1,1595,764,0,0
378,260,0,0,0,0,0,0,0,0,0,-1,1602,764,0,0
385,260,0,0,0,0,0,0,0,0,0,-1,1609,764,0,0
392,260,0,0,0,0,0,0,0,0,0,-1,1616,764,0,0
399,260,0,0,0,0,0,0,0,0,0,-1,1623,764,0,0
406,260,0,0,0,0,0,0,0,0,0,-1,1630,764,0,0
413,260,0,0,0,0,0,0,0,0,0,-1,1637,764,0,0
420,260,0,0,0,0,0,0,0,0,0,-1,1644,764,0,0
427,260,0,0,0,0,0,0,0,0,0,-1,1651,764,0,0
434,260,0,0,0,0,0,0,0,0,0,-1,1658,764,0,0
441,260,0,0,0,0,0,0,0,0,0,-1,1665,764,0,0
448,260,0,0,0,0,0,0,0,0,0,-1,1672,764,0,0
455,260,0,0,0,0,0,0,0,0,0,-1,1679,764,0,0
462,260,0,0,0,0,0,0,0,0,0,-1,1686,764,0,0
469,260,0,0,0,0,0,0,0,0,0,-1,1693,764,0,0
476,260,0,0,0,0,0,0,0,0,0,-1,1700,764,0,0
483,260,0,0,0,0,0,0,0,0,0,-1,1707,764,0,0
490,260,0,0,0,0,0,0,0,0,0,-1,1714,764,0,0
497,260,0,0,0,0,0,0,0,0,0,-1,1721,764,0,0
504,260,0,0,0,0,0,0,0,0,0,-1,1728,764,0,0
511,260,0,0,0,0,0,0,0,0,0,-1,1735,764,0,0
518,260,0,0,0,0,0,0,0,0,0,-1,1742,764,0,0
525,260,0,0,0,0,0,0,0,0,0,-1,1749,764,0,0
532,260,0,0,0,0,0,0,0,0,0,-1,1756,764,0,0
539,260,0,0,0,0,0,0,0,0,0,-1,1763,764,0,0
546,260,0,0,0,0,0,0,0,0,0,-1,1770,764,0,0
553,260,0,0,0,0,0,0,0,0,0,-1,1777,764,0,0
560,260,0,0,0,0,0,0,0,0,0,-1,1784,764,0,0
567,260,0,0,0,0,0,0,0,0,0,-1,1791,764,0,0
574,260,75.5217,2.18555,0,0,0,0,0,0,0,-1,1798,764,75.5217,-2.18552
581,260,75.354,2.31476,0,0,0,0,0,0,0,-1,1805,764,75.354,-2.31474
588,260,70.8303,2.6853,0,0,0,0,0,0,0,-1,1812,764,70.8304,-2.6853
595,260,66.1678,2.56989,0,0,0,0,0,0,0,-1,1819,764,66.1678,-2.56989
602,260,65.9274,2.69824,0,0,0,0,0,0,0,-1,1826,764,65.9274,-2.69825
609,260,65.4674,3.08105,0,0,0,0,0,0,0,-1,1833,764,65.4673,-3.08107
616,260,46.0709,2.74542,0,0,0,0,0,0,0,-1,1840,764,46.0709,-2.74545
623,260,32.2268,3.25836,0,0,0,0,0,0,0,-1,1847,764,32.2268,-3.25833
630,260,24.3739,-0.536316,0,0,0,0,0,0,0,-1,1854,764,24.3739,0.536343
637,260,42.7155,-5.35486,0,0,0,0,0,0,0,-1,1861,764,42.7154,5.35488
644,260,50.932,-6.80817,0,0,0,0,0,0,0,-1,1868,764,50.932,6.80816
651,260,50.7646,-5.69507,4.22705e-05,0.00097833,-0.000386855,0.00111751,-9.69134e-05,-1.22543,0.000779325,0.027796,1875,764,50.7646,5.69506
658,260,50.5608,-4.76343,0.000546897,0.000605611,-0.000179223,0.000757865,0.000394643,-0.866577,0.000437679,0.0170189,1882,764,50.5607,4.76345
665,260,50.4629,-3.88373,0.000831863,0.000554662,-2.57587e-05,0.000834237,0.000552288,-0.0918759,0.000490004,0.0159706,1889,764,50.4629,3.88372
672,260,50.428,-2.95776,0.000990544,0.00070524,6.0419e-05,0.00100281,0.000692973,0.200318,0.000592892,0.0147994,1896,764,50.428,2.95775
679,260,50.3541,-2.03516,0.00122298,0.00112527,0.000334577,0.00151225,0.000836004,0.7129,0.000874723,0.0130792,1903,764,50.3542,2.03516
686,260,50.2826,-1.1095,0.00147571,0.0018185,0.000636808,0.00230657,0.000987635,0.916856,0.00133627,0.0224323,1910,764,50.2825,1.10949
693,260,50.1888,-0.247925,0.00187007,0.00257188,0.00106317,0.00334056,0.0011014,0.944797,0.00196561,0.0222343,1917,764,50.1888,0.24792
700,260,50.1161,0.670471,0.0025149,0.00353249,0.0017228,0.00482005,0.00122733,0.928982,0.0028924,0.0163634,1924,764,50.1161,-0.670494
707,260,50.1381,1.60315,0.00335917,0.00463274,0.00259665,0.00666955,0.00132236,0.905642,0.00407769,0.0179967,1931,764,50.1381,-1.60318
714,260,50.135,2.49951,0.00442482,0.00585935,0.00380887,0.00901791,0.00126627,0.878466,0.00563745,0.0398049,1938,764,50.1351,-2.49951
721,260,50.1393,3.42175,0,0,0,0,0,0,0,-1,1945,764,50.1393,-3.42175
728,260,33.4344,5.75409,0,0,0,0,0,0,0,-1,1952,764,33.4345,-5.75408
735,260,26.9788,4.85681,0,0,0,0,0,0,0,-1,1959,764,26.9787,-4.85678
742,260,32.1443,1.73688,0,0,0,0,0,0,0,-1,1966,764,32.1442,-1.73688
749,260,33.6013,2.94733,0,0,0,0,0,0,0,-1,1973,764,33.6013,-2.9473
756,260,0,0,0,0,0,0,0,0,0,-1,1980,764,0,0
763,260,0,0,0,0,0,0,0,0,0,-1,1987,764,0,0
770,260,0,0,0,0,0,0,0,0,0,-1,1994,764,0,0
777,260,0,0,0,0,0,0,0,0,0,-1,2001,764,0,0
784,260,0,0,0,0,0,0,0,0,0,-1,2008,764,0,0
791,260,0,0,0,0,0,0,0,0,0,-1,2015,764,0,0
798,260,0,0,0,0,0,0,0,0,0,-1,2022,764,0,0
805,260,0,0,0,0,0,0,0,0,0,-1,2029,764,0,0
812,260,0,0,0,0,0,0,0,0,0,-1,2036,764,0,0
-700,253,0,0,0,0,0,0,0,0,0,-1,524,771,0,0
-693,253,0,0,0,0,0,0,0,0,0,-1,531,771,0,0
-686,253,0,0,0,0,0,0,0,0,0,-1,538,771,0,0
-679,253,0,0,0,0,0,0,0,0,0,-1,545,771,0,0
-672,253,0,0,0,0,0,0,0,0,0,-1,552,771,0,0
-665,253,0,0,0,0,0,0,0,0,0,-1,559,771,0,0
-658,253,0,0,0,0,0,0,0,0,0,-1,566,771,0,0
-651,253,0,0,0,0,0,0,0,0,0,-1,573,771,0,0
-644,253,0,0,0,0,0,0,0,0,0,-1,580,771,0,0
-637,253,-24.7979,-0.491394,0,0,0,0,0,0,0,-1,587,771,-24.7978,0.491371
-630,253,-25.156,0.540405,0,0,0,0,0,0,0,-1,594,771,-25.156,-0.540421
-623,253,-20.808,2.84314,0,0,0,0,0,0,0,-1,601,771,-20.8081,-2.84312
-616,253,-25.0877,2.96875,0,0,0,0,0,0,0,-1,608,771,-25.0877,-2.96876
-609,253,-24.28,2.08228,0,0,0,0,0,0,0,-1,615,771,-24.2801,-2.08227
-602,253,-34.9555,4.33972,0,0,0,0,0,0,0,-1,622,771,-34.9555,-4.3397
-595,253,-35.4163,3.08038,0,0,0,0,0,0,0,-1,629,771,-35.4163,-3.0804
-588,253,-35.9193,1.96356,0,0,0,0,0,0,0,-1,636,771,-35.9193,-1.96357
-581,253,-35.5878,1.11237,-0.00502399,0.00593965,-0.00127828,0.00608671,-0.00517106,-1.45625,0.00650684,0.029006,643,771,-35.5878,-1.11235
-574,253,-35.656,0.210876,-0.00356072,0.00444617,-0.000558548,0.00448494,-0.00359949,-1.50149,0.00467688,0.0227235,650,771,-35.656,-0.210897
-567,253,-35.7444,-0.709534,-0.00250199,0.00313868,8.06247e-05,0.00313984,-0.00250314,1.55651,0.00326488,0.0184403,657,771,-35.7444,0.70952
-560,253,-35.7546,-1.54022,-0.00184012,0.00212123,0.00060686,0.00221212,-0.00193101,1.42214,0.00239387,0.0150379,664,771,-35.7546,1.54021
-553,253,-35.7999,-2.45459,-0.00153889,0.00144521,0.00107272,0.00179081,-0.00188449,1.25913,0.00212216,0.0129717,671,771,-35.7999,2.45458
-546,253,-35.8668,-3.3739,-0.00178041,0.000797262,0.00141184,0.00142007,-0.00240321,1.15534,0.00223157,0.0113399,678,771,-35.8667,3.37389
-539,253,-35.9494,-4.3031,-0.00247324,0.000179916,0.00160227,0.000933503,-0.00322683,1.13117,0.00252068,0.0137115,685,771,-35.9494,4.3031
-532,253,-35.9562,-5.20343,-0.00296977,-0.000297703,0.00154265,0.000407038,-0.00367451,1.14227,0.00259601,0.0203505,692,771,-35.9562,5.20341
-525,253,-36.0479,-6.05597,-0.00315441,-0.00062807,0.00152471,8.87444e-05,-0.00387123,1.13133,0.0026109,0.0296809,699,771,-36.0479,6.05596
-518,253,-36.2965,-7.10681,-0.00348966,-0.000838486,0.0013219,-0.000292017,-0.00403613,1.17879,0.00259889,0.0478982,706,771,-36.2965,7.10684
-511,253,-36.7728,-8.07745,0,0,0,0,0,0,0,-1,713,771,-36.7728,8.07745
-504,253,-19.317,-4.1723,0,0,0,0,0,0,0,-1,720,771,-19.317,4.1723
-497,253,-21.7737,-1.76837,0,0,0,0,0,0,0,-1,727,771,-21.7738,1.7684
-490,253,-29.7674,0.438354,0,0,0,0,0,0,0,-1,734,771,-29.7674,-0.438339
-483,253,-45.4489,1.59302,0,0,0,0,0,0,0,-1,741,771,-45.4489,-1.59303
-476,253,-59.5293,0.400208,0,0,0,0,0,0,0,-1,748,771,-59.5293,-0.40018
-469,253,-59.7595,0.221741,0,0,0,0,0,0,0,-1,755,771,-59.7595,-0.221751
-462,253,-59.9898,0.043335,0,0,0,0,0,0,0,-1,762,771,-59.9898,-0.043322
-455,253,-57.998,0.343689,0,0,0,0,0,0,0,-1,769,771,-57.9981,-0.343679
-448,253,0,0,0,0,0,0,0,0,0,-1,776,771,0,0
-441,253,0,0,0,0,0,0,0,0,0,-1,783,771,0,0
-434,253,0,0,0,0,0,0,0,0,0,-1,790,771,0,0
-427,253,0,0,0,0,0,0,0,0,0,-1,797,771,0,0
-420,253,0,0,0,0,0,0,0,0,0,-1,804,771,0,0
-413,253,0,0,0,0,0,0,0,0,0,-1,811,771,0,0
-406,253,0,0,0,0,0,0,0,0,0,-1,818,771,0,0
-399,253,0,0,0,0,0,0,0,0,0,-1,825,771,0,0
-392,253,0,0,0,0,0,0,0,0,0,-1,832,771,0,0
-385,253,0,0,0,0,0,0,0,0,0,-1,839,771,0,0
-378,253,0,0,0,0,0,0,0,0,0,-1,846,771,0,0
-371,253,0,0,0,0,0,0,0,0,0,-1,853,771,0,0
-364,253,0,0,0,0,0,0,0,0,0,-1,860,771,0,0
-357,253,0,0,0,0,0,0,0,0,0,-1,867,771,0,0
-350,253,0,0,0,0,0,0,0,0,0,-1,874,771,0,0
-343,253,0,0,0,0,0,0,0,0,0,-1,881,771,0,0
-336,253,0,0,0,0,0,0,0,0,0,-1,888,771,0,0
-329,253,0,0,0,0,0,0,0,0,0,-1,895,771,0,0
-322,253,0,0,0,0,0,0,0,0,0,-1,902,771,0,0
-315,253,0,0,0,0,0,0,0,0,0,-1,909,771,0,0
-308,253,0,0,0,0,0,0,0,0,0,-1,916,771,0,0
-301,253,0,0,0,0,0,0,0,0,0,-1,923,771,0,0
-294,253,0,0,0,0,0,0,0,0,0,-1,930,771,0,0
-287,253,0,0,0,0,0,0,0,0,0,-1,937,771,0,0
-280,253,0,0,0,0,0,0,0,0,0,-1,944,771,0,0
-273,253,0,0,0,0,0,0,0,0,0,-1,951,771,0,0
-266,253,0,0,0,0,0,0,0,0,0,-1,958,771,0,0
-259,253,0,0,0,0,0,0,0,0,0,-1,965,771,0,0
-252,253,0,0,0,0,0,0,0,0,0,-1,972,771,0,0
-245,253,0,0,0,0,0,0,0,0,0,-1,979,771,0,0
-238,253,0,0,0,0,0,0,0,0,0,-1,986,771,0,0
-231,253,0,0,0,0,0,0,0,0,0,-1,993,771,0,0
-224,253,0,0,0,0,0,0,0,0,0,-1,1000,771,0,0
-217,253,0,0,0,0,0,0,0,0,0,-1,1007,771,0,0
-210,253,0,0,0,0,0,0,0,0,0,-1,1014,771,0,0
-203,253,0,0,0,0,0,0,0,0,0,-1,1021,771,0,0
-196,253,0,0,0,0,0,0,0,0,0,-1,1028,771,0,0
-189,253,0,0,0,0,0,0,0,0,0,-1,1035,771,0,0
-182,253,0,0,0,0,0,0,0,0,0,-1,1042,771,0,0
-175,253,0,0,0,0,0,0,0,0,0,-1,1049,771,0,0
-168,253,0,0,0,0,0,0,0,0,0,-1,1056,771,0,0
-161,253,0,0,0,0,0,0,0,0,0,-1,1063,771,0,0
-154,253,0,0,0,0,0,0,0,0,0,-1,1070,771,0,0
-147,253,0,0,0,0,0,0,0,0,0,-1,1077,771,0,0
-140,253,0,0,0,0,0,0,0,0,0,-1,1084,771,0,0
-133,253,0,0,0,0,0,0,0,0,0,-1,1091,771,0,0
-126,253,0,0,0,0,0,0,0,0,0,-1,1098,771,0,0
-119,253,0,0,0,0,0,0,0,0,0,-1,1105,771,0,0
-112,253,0,0,0,0,0,0,0,0,0,-1,1112,771,0,0
-105,253,0,0,0,0,0,0,0,0,0,-1,1119,771,0,0
-98,253,0,0,0,0,0,0,0,0,0,-1,1126,771,0,0
-91,253,0,0,0,0,0,0,0,0,0,-1,1133,771,0,0
-84,253,0,0,0,0,0,0,0,0,0,-1,1140,771,0,0
-77,253,0,0,0,0,0,0,0,0,0,-1,1147,771,0,0
-70,253,0,0,0,0,0,0,0,0,0,-1,1154,771,0,0
-63,253,0,0,0,0,0,0,0,0,0,-1,1161,771,0,0
-56,253,0,0,0,0,0,0,0,0,0,-1,1168,771,0,0
-49,253,0,0,0,0,0,0,0,0,0,-1,1175,771,0,0
-42,253,0,0,0,0,0,0,0,0,0,-1,1182,771,0,0
-35,253,0,0,0,0,0,0,0,0,0,-1,1189,771,0,0
-28,253,0,0,0,0,0,0,0,0,0,-1,1196,771,0,0
-21,253,0,0,0,0,0,0,0,0,0,-1,1203,771,0,0
-14,253,0,0,0,0,0,0,0,0,0,-1,1210,771,0,0
-7,253,0,0,0,0,0,0,0,0,0,-1,1217,771,0,0
0,253,0,0,0,0,0,0,0,0,0,-1,1224,771,0,0
7,253,0,0,0,0,0,0,0,0,0,-1,1231,771,0,0
14,253,0,0,0,0,0,0,0,0,0,-1,1238,771,0,0
21,253,0,0,0,0,0,0,0,0,0,-1,1245,771,0,0
28,253,0,0,0,0,0,0,0,0,0,-1,1252,771,0,0
35,253,0,0,0,0,0,0,0,0,0,-1,1259,771,0,0
42,253,0,0,0,0,0,0,0,0,0,-1,1266,771,0,0
49,253,0,0,0,0,0,0,0,0,0,-1,1273,771,0,0
56,253,0,0,0,0,0,0,0,0,0,-1,1280,771,0,0
63,253,0,0,0,0,0,0,0,0,0,-1,1287,771,0,0
70,253,0,0,0,0,0,0,0,0,0,-1,1294,771,0,0
77,253,0,0,0,0,0,0,0,0,0,-1,1301,771,0,0
84,253,0,0,0,0,0,0,0,0,0,-1,1308,771,0,0
91,253,0,0,0,0,0,0,0,0,0,-1,1315,771,0,0
98,253,0,0,0,0,0,0,0,0,0,-1,1322,771,0,0
105,253,0,0,0,0,0,0,0,0,0,-1,1329,771,0,0
112,253,0,0,0,0,0,0,0,0,0,-1,1336,771,0,0
119,253,0,0,0,0,0,0,0,0,0,-1,1343,771,0,0
126,253,0,0,0,0,0,0,0,0,0,-1,1350,771,0,0
133,253,0,0,0,0,0,0,0,0,0,-1,1357,771,0,0
140,253,0,0,0,0,0,0,0,0,0,-1,1364,771,0,0
147,253,0,0,0,0,0,0,0,0,0,-1,1371,771,0,0
154,253,0,0,0,0,0,0,0,0,0,-1,1378,771,0,0
161,253,0,0,0,0,0,0,0,0,0,-1,1385,771,0,0
168,253,0,0,0,0,0,0,0,0,0,-1,1392,771,0,0
175,253,0,0,0,0,0,0,0,0,0,-1,1399,771,0,0
182,253,0,0,0,0,0,0,0,0,0,-1,1406,771,0,0
189,253,0,0,0,0,0,0,0,0,0,-1,1413,771,0,0
196,253,0,0,0,0,0,0,0,0,0,-1,1420,771,0,0
203,253,0,0,0,0,0,0,0,0,0,-1,1427,771,0,0
210,253,0,0,0,0,0,0,0,0,0,-1,1434,771,0,0
217,253,0,0,0,0,0,0,0,0,0,-1,1441,771,0,0
224,253,0,0,0,0,0,0,0,0,0,-1,1448,771,0,0
231,253,0,0,0,0,0,0,0,0,0,-1,1455,771,0,0
238,253,0,0,0,0,0,0,0,0,0,-1,1462,771,0,0
245,253,0,0,0,0,0,0,0,0,0,-1,1469,771,0,0
252,253,0,0,0,0,0,0,0,0,0,-1,1476,771,0,0
259,253,0,0,0,0,0,0,0,0,0,-1,1483,771,0,0
266,253,0,0,0,0,0,0,0,0,0,-1,1490,771,0,0
273,253,0,0,0,0,0,0,0,0,0,-1,1497,771,0,0
280,253,0,0,0,0,0,0,0,0,0,-1,1504,771,0,0
287,253,0,0,0,0,0,0,0,0,0,-1,1511,771,0,0
294,253,0,0,0,0,0,0,0,0,0,-1,1518,771,0,0
301,253,0,0,0,0,0,0,0,0,0,-1,1525,771,0,0
308,253,0,0,0,0,0,0,0,0,0,-1,1532,771,0,0
315,253,0,0,0,0,0,0,0,0,0,-1,1539,771,0,0
322,253,0,0,0,0,0,0,0,0,0,-1,1546,771,0,0
329,253,0,0,0,0,0,0,0,0,0,-1,1553,771,0,0
336,253,0,0,0,0,0,0,0,0,0,-1,1560,771,0,0
343,253,0,0,0,0,0,0,0,0,0,-1,1567,771,0,0
350,253,0,0,0,0,0,0,0,0,0,-1,1574,771,0,0
357,253,0,0,0,0,0,0,0,0,0,-1,1581,771,0,0
364,253,0,0,0,0,0,0,0,0,0,-1,1588,771,0,0
371,253,0,0,0,0,0,0,0,0,0,-1,1595,771,0,0
378,253,0,0,0,0,0,0,0,0,0,-1,1602,771,0,0
385,253,0,0,0,0,0,0,0,0,0,-1,1609,771,0,0
392,253,0,0,0,0,0,0,0,0,0,-1,1616,771,0,0
399,253,0,0,0,0,0,0,0,0,0,-1,1623,771,0,0
406,253,0,0,0,0,0,0,0,0,0,-1,1630,771,0,0
413,253,0,0,0,0,0,0,0,0,0,-1,1637,771,0,0
420,253,0,0,0,0,0,0,0,0,0,-1,1644,771,0,0
427,253,0,0,0,0,0,0,0,0,0,-1,1651,771,0,0
434,253,0,0,0,0,0,0,0,0,0,-1,1658,771,0,0
441,253,0,0,0,0,0,0,0,0,0,-1,1665,771,0,0
448,253,0,0,0,0,0,0,0,0,0,-1,1672,771,0,0
455,253,0,0,0,0,0,0,0,0,0,-1,1679,771,0,0
462,253,0,0,0,0,0,0,0,0,0,-1,1686,771,0,0
469,253,0,0,0,0,0,0,0,0,0,-1,1693,771,0,0
476,253,0,0,0,0,0,0,0,0,0,-1,1700,771,0,0
483,253,0,0,0,0,0,0,0,0,0,-1,1707,771,0,0
490,253,0,0,0,0,0,0,0,0,0,-1,1714,771,0,0
497,253,0,0,0,0,0,0,0,0,0,-1,1721,771,0,0
504,253,0,0,0,0,0,0,0,0,0,-1,1728,771,0,0
511,253,0,0,0,0,0,0,0,0,0,-1,1735,771,0,0
518,253,0,0,0,0,0,0,0,0,0,-1,1742,771,0,0
525,253,0,0,0,0,0,0,0,0,0,-1,1749,771,0,0
532,253,0,0,0,0,0,0,0,0,0,-1,1756,771,0,0
539,253,0,0,0,0,0,0,0,0,0,-1,1763,771,0,0
546,253,0,0,0,0,0,0,0,0,0,-1,1770,771,0,0
553,253,0,0,0,0,0,0,0,0,0,-1,1777,771,0,0
560,253,0,0,0,0,0,0,0,0,0,-1,1784,771,0,0
567,253,0,0,0,0,0,0,0,0,0,-1,1791,771,0,0
574,253,75.4198,2.18286,0,0,0,0,0,0,0,-1,1798,771,75.4198,-2.18287
581,253,75.3253,2.30786,0,0,0,0,0,0,0,-1,1805,771,75.3253,-2.30784
588,253,75.5208,2.15869,0,0,0,0,0,0,0,-1,1812,771,75.5208,-2.15869
595,253,75.8896,1.96484,0,0,0,0,0,0,0,-1,1819,771,75.8897,-1.96483
602,253,66.4502,2.6098,0,0,0,0,0,0,0,-1,1826,771,66.4502,-2.60979
609,253,65.2542,3.18195,0,0,0,0,0,0,0,-1,1833,771,65.2541,-3.18193
616,253,58.416,2.69031,0,0,0,0,0,0,0,-1,1840,771,58.4161,-2.69031
623,253,48.8328,3.01001,0,0,0,0,0,0,0,-1,1847,771,48.8328,-3.01002
630,253,33.561,2.96838,0,0,0,0,0,0,0,-1,1854,771,33.561,-2.96836
637,253,22.3192,-0.604004,0,0,0,0,0,0,0,-1,1861,771,22.3192,0.603986
644,253,48.2843,-5.22784,0,0,0,0,0,0,0,-1,1868,771,48.2843,5.22783
651,253,51.9954,-5.56531,0,0,0,0,0,0,0,-1,1875,771,51.9954,5.56528
658,253,51.4982,-4.67175,0.000302172,0.000481724,-0.000437121,0.000838193,-5.42972e-05,-0.88668,0.000577746,0.0266323,1882,771,51.4982,4.67178
665,253,51.392,-3.83643,0.000668689,0.000380573,-0.000264487,0.000825805,0.000223457,-0.536028,0.000493223,0.0214053,1889,771,51.392,3.83645
672,253,51.3064,-2.9386,0.000869778,0.000457173,-0.000180409,0.000937534,0.000389417,-0.359269,0.000543864,0.0175231,1896,771,51.3064,2.93858
679,253,51.2867,-1.98798,0.00110477,0.000710254,5.67145e-05,0.00111277,0.000702262,0.13998,0.000649775,0.0139434,1903,771,51.2868,1.98797
686,253,51.2003,-1.05487,0.00134791,0.00137703,0.000344309,0.00170709,0.00101786,0.806529,0.000991658,0.0254012,1910,771,51.2003,1.05487
693,253,51.0958,-0.164001,0.00172689,0.00201061,0.000738767,0.00262102,0.00111649,0.880255,0.00151876,0.0244002,1917,771,51.0958,0.16398
700,253,51.0365,0.722351,0.00232009,0.00269444,0.00128031,0.00380118,0.00121335,0.857982,0.00224193,0.0164708,1924,771,51.0365,-0.722342
707,253,51.0425,1.646,0.00312951,0.00355136,0.00204329,0.00539458,0.00128629,0.836831,0.00325351,0.0156714,1931,771,51.0425,-1.64597
714,253,51.024,2.54144,0.0041156,0.00439895,0.00301558,0.00727618,0.00123837,0.808872,0.00449522,0.0282419,1938,771,51.024,-2.54142
721,253,50.9401,3.4519,0.00558158,0.00537194,0.00439597,0.00987398,0.00107954,0.773478,0.00625394,0.047229,1945,771,50.9401,-3.45189
728,253,50.9059,4.37769,0,0,0,0,0,0,0,-1,1952,771,50.9059,-4.37767
735,253,34.5735,6.15118,0,0,0,0,0,0,0,-1,1959,771,34.5734,-6.1512
742,253,31.0571,5.7337,0,0,0,0,0,0,0,-1,1966,771,31.0571,-5.73373
749,253,33.7754,3.21533,0,0,0,0,0,0,0,-1,1973,771,33.7754,-3.21533
756,253,0,0,0,0,0,0,0,0,0,-1,1980,771,0,0
763,253,0,0,0,0,0,0,0,0,0,-1,1987,771,0,0
770,253,0,0,0,0,0,0,0,0,0,-1,1994,771,0,0
777,253,0,0,0,0,0,0,0,0,0,-1,2001,771,0,0
784,253,0,0,0,0,0,0,0,0,0,-1,2008,771,0,0
791,253,0,0,0,0,0,0,0,0,0,-1,2015,771,0,0
798,253,0,0,0,0,0,0,0,0,0,-1,2022,771,0,0
805,253,0,0,0,0,0,0,0,0,0,-1,2029,771,0,0
812,253,0,0,0,0,0,0,0,0,0,-1,2036,771,0,0
-700,246,0,0,0,0,0,0,0,0,0,-1,524,778,0,0
-693,246,0,0,0,0,0,0,0,0,0,-1,531,778,0,0
-686,246,0,0,0,0,0,0,0,0,0,-1,538,778,0,0
-679,246,0,0,0,0,0,0,0,0,0,-1,545,778,0,0
-672,246,0,0,0,0,0,0,0,0,0,-1,552,778,0,0
-665,246,0,0,0,0,0,0,0,0,0,-1,559,778,0,0
-658,246,0,0,0,0,0,0,0,0,0,-1,566,778,0,0
-651,246,0,0,0,0,0,0,0,0,0,-1,573,778,0,0
-644,246,0,0,0,0,0,0,0,0,0,-1,580,778,0,0
-637,246,-24.1234,0.130432,0,0,0,0,0,0,0,-1,587,778,-24.1234,-0.130438
-630,246,-24.0781,1.38916,0,0,0,0,0,0,0,-1,594,778,-24.0781,-1.38913
-623,246,-23.9183,2.49573,0,0,0,0,0,0,0,-1,601,778,-23.9183,-2.49575
-616,246,-26.8182,2.0705,0,0,0,0,0,0,0,-1,608,778,-26.8182,-2.07052
-609,246,-26.0615,1.16388,0,0,0,0,0,0,0,-1,615,778,-26.0615,-1.16388
-602,246,-35.4651,4.60522,0,0,0,0,0,0,0,-1,622,778,-35.4652,-4.60521
-595,246,-35.9725,3.38177,0,0,0,0,0,0,0,-1,629,778,-35.9725,-3.38176
-588,246,-36.4053,2.15588,-0.00542526,0.00657541,-0.00145131,0.00674843,-0.00559828,-1.45214,0.00713868,0.0362928,636,778,-36.4054,-2.15587
-581,246,-36.5336,1.23499,-0.0039036,0.00516963,-0.00115101,0.00531337,-0.00404733,-1.44656,0.00542085,0.0205323,643,778,-36.5335,-1.23496
-574,246,-36.5113,0.219727,-0.00263762,0.00389087,-0.00046565,0.00392392,-0.00267067,-1.49995,0.00383023,0.0204359,650,778,-36.5113,-0.219732
-567,246,-36.5768,-0.664673,-0.00175973,0.00278371,0.000182743,0.00279105,-0.00176707,1.53066,0.00265367,0.0263905,657,778,-36.5769,0.664692
-560,246,-36.6729,-1.50983,-0.00120595,0.0019016,0.000763459,0.00207904,-0.00138339,1.34244,0.00201244,0.0206773,664,778,-36.6729,1.50982
-553,246,-36.7186,-2.36005,-0.00107038,0.00134064,0.00130917,0.00191479,-0.00164453,1.1575,0.00205695,0.0140315,671,778,-36.7186,2.36007
-546,246,-36.8057,-3.27643,-0.00164114,0.000753746,0.00162024,0.00157101,-0.0024584,1.10363,0.00234511,0.0115841,678,778,-36.8057,3.27645
-539,246,-36.896,-4.23627,-0.00258658,0.000152196,0.00171695,0.000978974,-0.00341336,1.12203,0.00266258,0.0129408,685,778,-36.896,4.23626
-532,246,-36.9376,-5.15417,-0.00306401,-0.000331135,0.00151898,0.000345575,-0.00374072,1.15169,0.00261662,0.0299055,692,778,-36.9376,5.15419
-525,246,-37.0778,-6.05566,0,0,0,0,0,0,0,-1,699,778,-37.0778,6.05567
-518,246,-37.2844,-7.39386,0,0,0,0,0,0,0,-1,706,778,-37.2844,7.39389
-511,246,-28.5886,-5.38635,0,0,0,0,0,0,0,-1,713,778,-28.5886,5.38633
-504,246,-20.0047,-2.88214,0,0,0,0,0,0,0,-1,720,778,-20.0047,2.88216
-497,246,-29.4669,1.82684,0,0,0,0,0,0,0,-1,727,778,-29.4669,-1.82687
-490,246,-40.4299,1.04309,0,0,0,0,0,0,0,-1,734,778,-40.4299,-1.04308
-483,246,-55.5514,-0.0795898,0,0,0,0,0,0,0,-1,741,778,-55.5514,0.0795595
-476,246,-59.5438,0.49823,0,0,0,0,0,0,0,-1,748,778,-59.5438,-0.498208
-469,246,-59.5747,0.413574,-0.00123771,-0.00513184,-0.000912187,-0.00103462,-0.00533493,-0.219063,0.00326682,0.0417659,755,778,-59.5747,-0.413575
-462,246,-59.7189,0.306641,-0.00220415,-0.00612346,-0.00178965,-0.00150992,-0.00681769,-0.370043,0.00413476,0.0486787,762,778,-59.719,-0.306617
-455,246,0,0,0,0,0,0,0,0,0,-1,769,778,0,0
-448,246,0,0,0,0,0,0,0,0,0,-1,776,778,0,0
-441,246,0,0,0,0,0,0,0,0,0,-1,783,778,0,0
-434,246,0,0,0,0,0,0,0,0,0,-1,790,778,0,0
-427,246,0,0,0,0,0,0,0,0,0,-1,797,778,0,0
-420,246,0,0,0,0,0,0,0,0,0,-1,804,778,0,0
-413,246,0,0,0,0,0,0,0,0,0,-1,811,778,0,0
-406,246,0,0,0,0,0,0,0,0,0,-1,818,778,0,0
-399,246,0,0,0,0,0,0,0,0,0,-1,825,778,0,0
-392,246,0,0,0,0,0,0,0,0,0,-1,832,778,0,0
-385,246,0,0,0,0,0,0,0,0,0,-1,839,778,0,0
-378,246,0,0,0,0,0,0,0,0,0,-1,846,778,0,0
-371,246,0,0,0,0,0,0,0,0,0,-1,853,778,0,0
-364,246,0,0,0,0,0,0,0,0,0,-1,860,778,0,0
-357,246,0,0,0,0,0,0,0,0,0,-1,867,778,0,0
-350,246,0,0,0,0,0,0,0,0,0,-1,874,778,0,0
-343,246,0,0,0,0,0,0,0,0,0,-1,881,778,0,0
-336,246,0,0,0,0,0,0,0,0,0,-1,888,778,0,0
-329,246,0,0,0,0,0,0,0,0,0,-1,895,778,0,0
-322,246,0,0,0,0,0,0,0,0,0,-1,902,778,0,0
-315,246,0,0,0,0,0,0,0,0,0,-1,909,778,0,0
-308,246,0,0,0,0,0,0,0,0,0,-1,916,778,0,0
-301,246,0,0,0,0,0,0,0,0,0,-1,923,778,0,0
-294,246,0,0,0,0,0,0,0,0,0,-1,930,778,0,0
-287,246,0,0,0,0,0,0,0,0,0,-1,937,778,0,0
-280,246,0,0,0,0,0,0,0,0,0,-1,944,778,0,0
-273,246,0,0,0,0,0,0,0,0,0,-1,951,778,0,0
-266,246,0,0,0,0,0,0,0,0,0,-1,958,778,0,0
-259,246,0,0,0,0,0,0,0,0,0,-1,965,778,0,0
-252,246,0,0,0,0,0,0,0,0,0,-1,972,778,0,0
-245,246,0,0,0,0,0,0,0,0,0,-1,979,778,0,0
-238,246,0,0,0,0,0,0,0,0,0,-1,986,778,0,0
-231,246,0,0,0,0,0,0,0,0,0,-1,993,778,0,0
-224,246,0,0,0,0,0,0,0,0,0,-1,1000,778,0,0
-217,246,0,0,0,0,0,0,0,0,0,-1,1007,778,0,0
-210,246,0,0,0,0,0,0,0,0,0,-1,1014,778,0,0
-203,246,0,0,0,0,0,0,0,0,0,-1,1021,778,0,0
-196,246,0,0,0,0,0,0,0,0,0,-1,1028,778,0,0
-189,246,0,0,0,0,0,0,0,0,0,-1,1035,778,0,0
-182,246,0,0,0,0,0,0,0,0,0,-1,1042,778,0,0
-175,246,0,0,0,0,0,0,0,0,0,-1,1049,778,0,0
-168,246,0,0,0,0,0,0,0,0,0,-1,1056,778,0,0
-161,246,0,0,0,0,0,0,0,0,0,-1,1063,778,0,0
-154,246,0,0,0,0,0,0,0,0,0,-1,1070,778,0,0
-147,246,0,0,0,0,0,0,0,0,0,-1,1077,778,0,0
-140,246,0,0,0,0,0,0,0,0,0,-1,1084,778,0,0
-133,246,0,0,0,0,0,0,0,0,0,-1,1091,778,0,0
-126,246,0,0,0,0,0,0,0,0,0,-1,1098,778,0,0
-119,246,0,0,0,0,0,0,0,0,0,-1,1105,778,0,0
-112,246,0,0,0,0,0,0,0,0,0,-1,1112,778,0,0
-105,246,0,0,0,0,0,0,0,0,0,-1,1119,778,0,0
-98,246,0,0,0,0,0,0,0,0,0,-1,1126,778,0,0
-91,246,0,0,0,0,0,0,0,0,0,-1,1133,778,0,0
-84,246,0,0,0,0,0,0,0,0,0,-1,1140,778,0,0
-77,246,0,0,0,0,0,0,0,0,0,-1,1147,778,0,0
-70,246,0,0,0,0,0,0,0,0,0,-1,1154,778,0,0
-63,246,0,0,0,0,0,0,0,0,0,-1,1161,778,0,0
-56,246,0,0,0,0,0,0,0,0,0,-1,1168,778,0,0
-49,246,0,0,0,0,0,0,0,0,0,-1,1175,778,0,0
-42,246,0,0,0,0,0,0,0,0,0,-1,1182,778,0,0
-35,246,0,0,0,0,0,0,0,0,0,-1,1189,778,0,0
-28,246,0,0,0,0,0,0,0,0,0,-1,1196,778,0,0
-21,246,0,0,0,0,0,0,0,0,0,-1,1203,778,0,0
-14,246,0,0,0,0,0,0,0,0,0,-1,1210,778,0,0
-7,246,0,0,0,0,0,0,0,0,0,-1,1217,778,0,0
0,246,0,0,0,0,0,0,0,0,0,-1,1224,778,0,0
7,246,0,0,0,0,0,0,0,0,0,-1,1231,778,0,0
14,246,0,0,0,0,0,0,0,0,0,-1,1238,778,0,0
21,246,0,0,0,0,0,0,0,0,0,-1,1245,778,0,0
28,246,0,0,0,0,0,0,0,0,0,-1,1252,778,0,0
35,246,0,0,0,0,0,0,0,0,0,-1,1259,778,0,0
42,246,0,0,0,0,0,0,0,0,0,-1,1266,778,0,0
49,246,0,0,0,0,0,0,0,0,0,-1,1273,778,0,0
56,246,0,0,0,0,0,0,0,0,0,-1,1280,778,0,0
63,246,0,0,0,0,0,0,0,0,0,-1,1287,778,0,0
70,246,0,0,0,0,0,0,0,0,0,-1,1294,778,0,0
77,246,0,0,0,0,0,0,0,0,0,-1,1301,778,0,0
84,246,0,0,0,0,0,0,0,0,0,-1,1308,778,0,0
91,246,0,0,0,0,0,0,0,0,0,-1,1315,778,0,0
98,246,0,0,0,0,0,0,0,0,0,-1,1322,778,0,0
105,246,0,0,0,0,0,0,0,0,0,-1,1329,778,0,0
112,246,0,0,0,0,0,0,0,0,0,-1,1336,778,0,0
119,246,0,0,0,0,0,0,0,0,0,-1,1343,778,0,0
126,246,0,0,0,0,0,0,0,0,0,-1,1350,778,0,0
133,246,0,0,0,0,0,0,0,0,0,-1,1357,778,0,0
140,246,0,0,0,0,0,0,0,0,0,-1,1364,778,0,0
147,246,0,0,0,0,0,0,0,0,0,-1,1371,778,0,0
154,246,0,0,0,0,0,0,0,0,0,-1,1378,778,0,0
161,246,0,0,0,0,0,0,0,0,0,-1,1385,778,0,0
168,246,0,0,0,0,0,0,0,0,0,-1,1392,778,0,0
175,246,0,0,0,0,0,0,0,0,0,-1,1399,778,0,0
182,246,0,0,0,0,0,0,0,0,0,-1,1406,778,0,0
189,246,0,0,0,0,0,0,0,0,0,-1,1413,778,0,0
196,246,0,0,0,0,0,0,0,0,0,-1,1420,778,0,0
203,246,0,0,0,0,0,0,0,0,0,-1,1427,778,0,0
210,246,0,0,0,0,0,0,0,0,0,-1,1434,778,0,0
217,246,0,0,0,0,0,0,0,0,0,-1,1441,778,0,0
224,246,0,0,0,0,0,0,0,0,0,-1,1448,778,0,0
231,246,0,0,0,0,0,0,0,0,0,-1,1455,778,0,0
238,246,0,0,0,0,0,0,0,0,0,-1,1462,778,0,0
245,246,0,0,0,0,0,0,0,0,0,-1,1469,778,0,0
252,246,0,0,0,0,0,0,0,0,0,-1,1476,778,0,0
259,246,0,0,0,0,0,0,0,0,0,-1,1483,778,0,0
266,246,0,0,0,0,0,0,0,0,0,-1,1490,778,0,0
273,246,0,0,0,0,0,0,0,0,0,-1,1497,778,0,0
280,246,0,0,0,0,0,0,0,0,0,-1,1504,778,0,0
287,246,0,0,0,0,0,0,0,0,0,-1,1511,778,0,0
294,246,0,0,0,0,0,0,0,0,0,-1,1518,778,0,0
301,246,0,0,0,0,0,0,0,0,0,-1,1525,778,0,0
308,246,0,0,0,0,0,0,0,0,0,-1,1532,778,0,0
315,246,0,0,0,0,0,0,0,0,0,-1,1539,778,0,0
322,246,0,0,0,0,0,0,0,0,0,-1,1546,778,0,0
329,246,0,0,0,0,0,0,0,0,0,-1,1553,778,0,0
336,246,0,0,0,0,0,0,0,0,0,-1,1560,778,0,0
343,246,0,0,0,0,0,0,0,0,0,-1,1567,778,0,0
350,246,0,0,0,0,0,0,0,0,0,-1,1574,778,0,0
357,246,0,0,0,0,0,0,0,0,0,-1,1581,778,0,0
364,246,0,0,0,0,0,0,0,0,0,-1,1588,778,0,0
371,246,0,0,0,0,0,0,0,0,0,-1,1595,778,0,0
378,246,0,0,0,0,0,0,0,0,0,-1,1602,778,0,0
385,246,0,0,0,0,0,0,0,0,0,-1,1609,778,0,0
392,246,0,0,0,0,0,0,0,0,0,-1,1616,778,0,0
399,246,0,0,0,0,0,0,0,0,0,-1,1623,778,0,0
406,246,0,0,0,0,0,0,0,0,0,-1,1630,778,0,0
413,246,0,0,0,0,0,0,0,0,0,-1,1637,778,0,0
420,246,0,0,0,0,0,0,0,0,0,-1,1644,778,0,0
427,246,0,0,0,0,0,0,0,0,0,-1,1651,778,0,0
434,246,0,0,0,0,0,0,0,0,0,-1,1658,778,0,0
441,246,0,0,0,0,0,0,0,0,0,-1,1665,778,0,0
448,246,0,0,0,0,0,0,0,0,0,-1,1672,778,0,0
455,246,0,0,0,0,0,0,0,0,0,-1,1679,778,0,0
462,246,0,0,0,0,0,0,0,0,0,-1,1686,778,0,0
469,246,0,0,0,0,0,0,0,0,0,-1,1693,778,0,0
476,246,0,0,0,0,0,0,0,0,0,-1,1700,778,0,0
483,246,0,0,0,0,0,0,0,0,0,-1,1707,778,0,0
490,246,0,0,0,0,0,0,0,0,0,-1,1714,778,0,0
497,246,0,0,0,0,0,0,0,0,0,-1,1721,778,0,0
504,246,0,0,0,0,0,0,0,0,0,-1,1728,778,0,0
511,246,0,0,0,0,0,0,0,0,0,-1,1735,778,0,0
518,246,0,0,0,0,0,0,0,0,0,-1,1742,778,0,0
525,246,0,0,0,0,0,0,0,0,0,-1,1749,778,0,0
532,246,0,0,0,0,0,0,0,0,0,-1,1756,778,0,0
539,246,0,0,0,0,0,0,0,0,0,-1,1763,778,0,0
546,246,0,0,0,0,0,0,0,0,0,-1,1770,778,0,0
553,246,0,0,0,0,0,0,0,0,0,-1,1777,778,0,0
560,246,0,0,0,0,0,0,0,0,0,-1,1784,778,0,0
567,246,0,0,0,0,0,0,0,0,0,-1,1791,778,0,0
574,246,0,0,0,0,0,0,0,0,0,-1,1798,778,0,0
581,246,75.3224,2.32806,0.0127817,-0.010712,-0.00488351,0.0137564,-0.0116867,-0.196996,0.0147057,0.0405259,1805,778,75.3224,-2.32805
588,246,75.4403,2.22278,0.0098949,-0.00844775,-0.00397531,0.0107194,-0.00927224,-0.204503,0.0115522,0.0449498,1812,778,75.4403,-2.22278
595,246,75.6575,2.10876,0.00768302,-0.00612094,-0.00320353,0.00839024,-0.00682816,-0.217278,0.00880176,0.0499733,1819,778,75.6575,-2.10875
602,246,75.3324,2.33191,0,0,0,0,0,0,0,-1,1826,778,75.3324,-2.33188
609,246,65.04,3.03278,0,0,0,0,0,0,0,-1,1833,778,65.04,-3.03277
616,246,60.4568,3.98492,0,0,0,0,0,0,0,-1,1840,778,60.4568,-3.98491
623,246,55.8947,3.95953,0,0,0,0,0,0,0,-1,1847,778,55.8947,-3.95952
630,246,49.5938,1.99902,0,0,0,0,0,0,0,-1,1854,778,49.5937,-1.999
637,246,29.5785,0.837585,0,0,0,0,0,0,0,-1,1861,778,29.5785,-0.837606
644,246,28.1232,-1.43188,0,0,0,0,0,0,0,-1,1868,778,28.1232,1.43188
651,246,48.5865,-4.32922,0,0,0,0,0,0,0,-1,1875,778,48.5865,4.32921
658,246,52.3861,-4.58069,0,0,0,0,0,0,0,-1,1882,778,52.3861,4.5807
665,246,52.307,-3.80518,0.000540993,0.000193145,-0.000381623,0.000786457,-5.23189e-05,-0.571586,0.000542586,0.0306309,1889,778,52.307,3.80515
672,246,52.2305,-2.88177,0.000694669,0.000277328,-0.000326314,0.000873328,9.86689e-05,-0.500927,0.000552275,0.0226359,1896,778,52.2304,2.88178
679,246,52.1982,-1.94391,0.000917109,0.000340128,-0.000137617,0.000948252,0.000308986,-0.222549,0.000558433,0.0229339,1903,778,52.1983,1.94392
686,246,52.174,-0.991394,0.00115333,0.00100373,0.000104567,0.0012071,0.000949964,0.47493,0.000734186,0.0226024,1910,778,52.1739,0.991407
693,246,52.1245,-0.10791,0.0015363,0.00154181,0.000463082,0.00200214,0.00107596,0.788376,0.00115702,0.0178091,1917,778,52.1245,0.107882
700,246,52.0431,0.774963,0.00208877,0.00202068,0.000929262,0.00298461,0.00112484,0.767087,0.00174049,0.0145817,1924,778,52.0431,-0.774956
707,246,51.9789,1.70935,0.0028517,0.0026921,0.00162166,0.00439552,0.00114828,0.760814,0.00263244,0.0138369,1931,778,51.9789,-1.70933
714,246,51.928,2.64447,0.0037369,0.00326651,0.00246323,0.00597615,0.00102727,0.737801,0.00368965,0.015531,1938,778,51.928,-2.64446
721,246,51.822,3.49005,0.00492204,0.00372751,0.00356981,0.0079442,0.000705345,0.70251,0.00507738,0.0208194,1945,778,51.8221,-3.49004
728,246,51.9844,4.71338,0.00632517,0.00370209,0.00476853,0.00995923,6.80271e-05,0.651196,0.00661693,0.0408232,1952,778,51.9844,-4.71339
735,246,52.2709,6.05878,0,0,0,0,0,0,0,-1,1959,778,52.2709,-6.05879
742,246,31.7356,6.70013,0,0,0,0,0,0,0,-1,1966,778,31.7356,-6.70011
749,246,32.3883,7.69324,0,0,0,0,0,0,0,-1,1973,778,32.3883,-7.69322
756,246,33.6919,3.45264,0,0,0,0,0,0,0,-1,1980,778,33.6919,-3.45262
763,246,0,0,0,0,0,0,0,0,0,-1,1987,778,0,0
770,246,0,0,0,0,0,0,0,0,0,-1,1994,778,0,0
777,246,0,0,0,0,0,0,0,0,0,-1,2001,778,0,0
784,246,0,0,0,0,0,0,0,0,0,-1,2008,778,0,0
791,246,0,0,0,0,0,0,0,0,0,-1,2015,778,0,0
798,246,0,0,0,0,0,0,0,0,0,-1,2022,778,0,0
805,246,0,0,0,0,0,0,0,0,0,-1,2029,778,0,0
812,246,0,0,0,0,0,0,0,0,0,-1,2036,778,0,0
-700,239,0,0,0,0,0,0,0,0,0,-1,524,785,0,0
-693,239,0,0,0,0,0,0,0,0,0,-1,531,785,0,0
-686,239,0,0,0,0,0,0,0,0,0,-1,538,785,0,0
-679,239,0,0,0,0,0,0,0,0,0,-1,545,785,0,0
-672,239,0,0,0,0,0,0,0,0,0,-1,552,785,0,0
-665,239,0,0,0,0,0,0,0,0,0,-1,559,785,0,0
-658,239,0,0,0,0,0,0,0,0,0,-1,566,785,0,0
-651,239,0,0,0,0,0,0,0,0,0,-1,573,785,0,0
-644,239,0,0,0,0,0,0,0,0,0,-1,580,785,0,0
-637,239,-23.2709,0.465088,0,0,0,0,0,0,0,-1,587,785,-23.271,-0.465116
-630,239,-23.4006,0.956299,0,0,0,0,0,0,0,-1,594,785,-23.4005,-0.956285
-623,239,-30.6328,2.52185,0,0,0,0,0,0,0,-1,601,785,-30.6328,-2.52183
-616,239,-29.1425,1.42139,0,0,0,0,0,0,0,-1,608,785,-29.1425,-1.42139
-609,239,-27.8569,0.322937,0,0,0,0,0,0,0,-1,615,785,-27.857,-0.322963
-602,239,-36.8935,5.38098,0,0,0,0,0,0,0,-1,622,785,-36.8935,-5.38096
-595,239,-36.5143,3.64185,0,0,0,0,0,0,0,-1,629,785,-36.5144,-3.64182
-588,239,-37.2658,2.33307,-0.0038808,0.00550789,-0.00112218,0.00564015,-0.00401306,-1.45347,0.00559961,0.0216632,636,785,-37.2658,-2.33306
-581,239,-37.4428,1.30017,-0.0025763,0.0044479,-0.000915788,0.00456533,-0.00269373,-1.44326,0.0042372,0.0122035,643,785,-37.4428,-1.30017
-574,239,-37.466,0.336914,-0.00149087,0.00342955,-0.000357266,0.00345535,-0.00151667,-1.49869,0.00294244,0.013766,650,785,-37.466,-0.336926
-567,239,-37.4882,-0.582764,-0.000754202,0.00255253,0.000234276,0.00256905,-0.000770718,1.50042,0.00201924,0.019268,657,785,-37.4882,0.582771
-560,239,-37.5836,-1.43787,-0.000282047,0.00186079,0.000892867,0.00218406,-0.000605314,1.22342,0.00169425,0.0194166,664,785,-37.5836,1.43786
-553,239,-37.644,-2.32056,-0.000261076,0.00150319,0.00161977,0.00246546,-0.00122334,1.03474,0.0021696,0.0153202,671,785,-37.644,2.32055
-546,239,-37.7148,-3.21869,-0.00114307,0.00103449,0.0019644,0.00219167,-0.00230025,1.03845,0.00259366,0.0174648,678,785,-37.7148,3.2187
-539,239,-37.904,-4.15375,-0.00229488,0.000485345,0.00203126,0.00155662,-0.00336615,1.08547,0.00290546,0.0345644,685,785,-37.904,4.15376
-532,239,-38.189,-5.03101,-0.00277677,-1.05757e-05,0.00182961,0.000899886,-0.00368724,1.10905,0.00280663,0.03687,692,785,-38.1889,5.03103
-525,239,-38.0363,-5.64471,0,0,0,0,0,0,0,-1,699,785,-38.0363,5.64471
-518,239,-38.0776,-6.18799,0,0,0,0,0,0,0,-1,706,785,-38.0777,6.18801
-511,239,-20.9849,-2.09235,0,0,0,0,0,0,0,-1,713,785,-20.9848,2.09234
-504,239,-25.5015,2.00421,0,0,0,0,0,0,0,-1,720,785,-25.5015,-2.00422
-497,239,-40.2453,1.4447,0,0,0,0,0,0,0,-1,727,785,-40.2453,-1.4447
-490,239,-55.7633,-0.30426,0,0,0,0,0,0,0,-1,734,785,-55.7633,0.304271
-483,239,-59.9614,0.237366,0,0,0,0,0,0,0,-1,741,785,-59.9614,-0.237347
-476,239,-59.6375,0.39856,-0.00161769,-0.00428509,-0.000932616,-0.00132396,-0.00457882,-0.305118,0.00272081,0.0421215,748,785,-59.6375,-0.398563
-469,239,-59.5909,0.411682,-0.00115547,-0.00544231,-0.00119039,-0.000847095,-0.00575068,-0.253478,0.00358494,0.0416913,755,785,-59.5909,-0.411702
-462,239,-59.6257,0.423035,-0.0013583,-0.00681127,-0.00165478,-0.000895428,-0.00727415,-0.272748,0.00458022,0.0449835,762,785,-59.6257,-0.423065
-455,239,0,0,0,0,0,0,0,0,0,-1,769,785,0,0
-448,239,0,0,0,0,0,0,0,0,0,-1,776,785,0,0
-441,239,0,0,0,0,0,0,0,0,0,-1,783,785,0,0
-434,239,0,0,0,0,0,0,0,0,0,-1,790,785,0,0
-427,239,0,0,0,0,0,0,0,0,0,-1,797,785,0,0
-420,239,0,0,0,0,0,0,0,0,0,-1,804,785,0,0
-413,239,0,0,0,0,0,0,0,0,0,-1,811,785,0,0
-406,239,0,0,0,0,0,0,0,0,0,-1,818,785,0,0
-399,239,0,0,0,0,0,0,0,0,0,-1,825,785,0,0
-392,239,0,0,0,0,0,0,0,0,0,-1,832,785,0,0
-385,239,0,0,0,0,0,0,0,0,0,-1,839,785,0,0
-378,239,0,0,0,0,0,0,0,0,0,-1,846,785,0,0
-371,239,0,0,0,0,0,0,0,0,0,-1,853,785,0,0
-364,239,0,0,0,0,0,0,0,0,0,-1,860,785,0,0
-357,239,0,0,0,0,0,0,0,0,0,-1,867,785,0,0
-350,239,0,0,0,0,0,0,0,0,0,-1,874,785,0,0
-343,239,0,0,0,0,0,0,0,0,0,-1,881,785,0,0
-336,239,0,0,0,0,0,0,0,0,0,-1,888,785,0,0
-329,239,0,0,0,0,0,0,0,0,0,-1,895,785,0,0
-322,239,0,0,0,0,0,0,0,0,0,-1,902,785,0,0
-315,239,0,0,0,0,0,0,0,0,0,-1,909,785,0,0
-308,239,0,0,0,0,0,0,0,0,0,-1,916,785,0,0
-301,239,0,0,0,0,0,0,0,0,0,-1,923,785,0,0
-294,239,0,0,0,0,0,0,0,0,0,-1,930,785,0,0
-287,239,0,0,0,0,0,0,0,0,0,-1,937,785,0,0
-280,239,0,0,0,0,0,0,0,0,0,-1,944,785,0,0
-273,239,0,0,0,0,0,0,0,0,0,-1,951,785,0,0
-266,239,0,0,0,0,0,0,0,0,0,-1,958,785,0,0
-259,239,0,0,0,0,0,0,0,0,0,-1,965,785,0,0
-252,239,0,0,0,0,0,0,0,0,0,-1,972,785,0,0
-245,239,0,0,0,0,0,0,0,0,0,-1,979,785,0,0
-238,239,0,0,0,0,0,0,0,0,0,-1,986,785,0,0
-231,239,0,0,0,0,0,0,0,0,0,-1,993,785,0,0
-224,239,0,0,0,0,0,0,0,0,0,-1,1000,785,0,0
-217,239,0,0,0,0,0,0,0,0,0,-1,1007,785,0,0
-210,239,0,0,0,0,0,0,0,0,0,-1,1014,785,0,0
-203,239,0,0,0,0,0,0,0,0,0,-1,1021,785,0,0
-196,239,0,0,0,0,0,0,0,0,0,-1,1028,785,0,0
-189,239,0,0,0,0,0,0,0,0,0,-1,1035,785,0,0
-182,239,0,0,0,0,0,0,0,0,0,-1,1042,785,0,0
-175,239,0,0,0,0,0,0,0,0,0,-1,1049,785,0,0
-168,239,0,0,0,0,0,0,0,0,0,-1,1056,785,0,0
-161,239,0,0,0,0,0,0,0,0,0,-1,1063,785,0,0
-154,239,0,0,0,0,0,0,0,0,0,-1,1070,785,0,0
-147,239,0,0,0,0,0,0,0,0,0,-1,1077,785,0,0
-140,239,0,0,0,0,0,0,0,0,0,-1,1084,785,0,0
-133,239,0,0,0,0,0,0,0,0,0,-1,1091,785,0,0
-126,239,0,0,0,0,0,0,0,0,0,-1,1098,785,0,0
-119,239,0,0,0,0,0,0,0,0,0,-1,1105,785,0,0
-112,239,0,0,0,0,0,0,0,0,0,-1,1112,785,0,0
-105,239,0,0,0,0,0,0,0,0,0,-1,1119,785,0,0
-98,239,0,0,0,0,0,0,0,0,0,-1,1126,785,0,0
-91,239,0,0,0,0,0,0,0,0,0,-1,1133,785,0,0
-84,239,0,0,0,0,0,0,0,0,0,-1,1140,785,0,0
-77,239,0,0,0,0,0,0,0,0,0,-1,1147,785,0,0
-70,239,0,0,0,0,0,0,0,0,0,-1,1154,785,0,0
-63,239,0,0,0,0,0,0,0,0,0,-1,1161,785,0,0
-56,239,0,0,0,0,0,0,0,0,0,-1,1168,785,0,0
-49,239,0,0,0,0,0,0,0,0,0,-1,1175,785,0,0
-42,239,0,0,0,0,0,0,0,0,0,-1,1182,785,0,0
-35,239,0,0,0,0,0,0,0,0,0,-1,1189,785,0,0
-28,239,0,0,0,0,0,0,0,0,0,-1,1196,785,0,0
-21,239,0,0,0,0,0,0,0,0,0,-1,1203,785,0,0
-14,239,0,0,0,0,0,0,0,0,0,-1,1210,785,0,0
-7,239,0,0,0,0,0,0,0,0,0,-1,1217,785,0,0
0,239,0,0,0,0,0,0,0,0,0,-1,1224,785,0,0
7,239,0,0,0,0,0,0,0,0,0,-1,1231,785,0,0
14,239,0,0,0,0,0,0,0,0,0,-1,1238,785,0,0
21,239,0,0,0,0,0,0,0,0,0,-1,1245,785,0,0
28,239,0,0,0,0,0,0,0,0,0,-1,1252,785,0,0
35,239,0,0,0,0,0,0,0,0,0,-1,1259,785,0,0
42,239,0,0,0,0,0,0,0,0,0,-1,1266,785,0,0
49,239,0,0,0,0,0,0,0,0,0,-1,1273,785,0,0
56,239,0,0,0,0,0,0,0,0,0,-1,1280,785,0,0
63,239,0,0,0,0,0,0,0,0,0,-1,1287,785,0,0
70,239,0,0,0,0,0,0,0,0,0,-1,1294,785,0,0
77,239,0,0,0,0,0,0,0,0,0,-1,1301,785,0,0
84,239,0,0,0,0,0,0,0,0,0,-1,1308,785,0,0
91,239,0,0,0,0,0,0,0,0,0,-1,1315,785,0,0
98,239,0,0,0,0,0,0,0,0,0,-1,1322,785,0,0
105,239,0,0,0,0,0,0,0,0,0,-1,1329,785,0,0
112,239,0,0,0,0,0,0,0,0,0,-1,1336,785,0,0
119,239,0,0,0,0,0,0,0,0,0,-1,1343,785,0,0
126,239,0,0,0,0,0,0,0,0,0,-1,1350,785,0,0
133,239,0,0,0,0,0,0,0,0,0,-1,1357,785,0,0
140,239,0,0,0,0,0,0,0,0,0,-1,1364,785,0,0
147,239,0,0,0,0,0,0,0,0,0,-1,1371,785,0,0
154,239,0,0,0,0,0,0,0,0,0,-1,1378,785,0,0
161,239,0,0,0,0,0,0,0,0,0,-1,1385,785,0,0
168,239,0,0,0,0,0,0,0,0,0,-1,1392,785,0,0
175,239,0,0,0,0,0,0,0,0,0,-1,1399,785,0,0
182,239,0,0,0,0,0,0,0,0,0,-1,1406,785,0,0
189,239,0,0,0,0,0,0,0,0,0,-1,1413,785,0,0
196,239,0,0,0,0,0,0,0,0,0,-1,1420,785,0,0
203,239,0,0,0,0,0,0,0,0,0,-1,1427,785,0,0
210,239,0,0,0,0,0,0,0,0,0,-1,1434,785,0,0
217,239,0,0,0,0,0,0,0,0,0,-1,1441,785,0,0
224,239,0,0,0,0,0,0,0,0,0,-1,1448,785,0,0
231,239,0,0,0,0,0,0,0,0,0,-1,1455,785,0,0
238,239,0,0,0,0,0,0,0,0,0,-1,1462,785,0,0
245,239,0,0,0,0,0,0,0,0,0,-1,1469,785,0,0
252,239,0,0,0,0,0,0,0,0,0,-1,1476,785,0,0
259,239,0,0,0,0,0,0,0,0,0,-1,1483,785,0,0
266,239,0,0,0,0,0,0,0,0,0,-1,1490,785,0,0
273,239,0,0,0,0,0,0,0,0,0,-1,1497,785,0,0
280,239,0,0,0,0,0,0,0,0,0,-1,1504,785,0,0
287,239,0,0,0,0,0,0,0,0,0,-1,1511,785,0,0
294,239,0,0,0,0,0,0,0,0,0,-1,1518,785,0,0
301,239,0,0,0,0,0,0,0,0,0,-1,1525,785,0,0
308,239,0,0,0,0,0,0,0,0,0,-1,1532,785,0,0
315,239,0,0,0,0,0,0,0,0,0,-1,1539,785,0,0
322,239,0,0,0,0,0,0,0,0,0,-1,1546,785,0,0
329,239,0,0,0,0,0,0,0,0,0,-1,1553,785,0,0
336,239,0,0,0,0,0,0,0,0,0,-1,1560,785,0,0
343,239,0,0,0,0,0,0,0,0,0,-1,1567,785,0,0
350,239,0,0,0,0,0,0,0,0,0,-1,1574,785,0,0
357,239,0,0,0,0,0,0,0,0,0,-1,1581,785,0,0
364,239,0,0,0,0,0,0,0,0,0,-1,1588,785,0,0
371,239,0,0,0,0,0,0,0,0,0,-1,1595,785,0,0
378,239,0,0,0,0,0,0,0,0,0,-1,1602,785,0,0
385,239,0,0,0,0,0,0,0,0,0,-1,1609,785,0,0
392,239,0,0,0,0,0,0,0,0,0,-1,1616,785,0,0
399,239,0,0,0,0,0,0,0,0,0,-1,1623,785,0,0
406,239,0,0,0,0,0,0,0,0,0,-1,1630,785,0,0
413,239,0,0,0,0,0,0,0,0,0,-1,1637,785,0,0
420,239,0,0,0,0,0,0,0,0,0,-1,1644,785,0,0
427,239,0,0,0,0,0,0,0,0,0,-1,1651,785,0,0
434,239,0,0,0,0,0,0,0,0,0,-1,1658,785,0,0
441,239,0,0,0,0,0,0,0,0,0,-1,1665,785,0,0
448,239,0,0,0,0,0,0,0,0,0,-1,1672,785,0,0
455,239,0,0,0,0,0,0,0,0,0,-1,1679,785,0,0
462,239,0,0,0,0,0,0,0,0,0,-1,1686,785,0,0
469,239,0,0,0,0,0,0,0,0,0,-1,1693,785,0,0
476,239,0,0,0,0,0,0,0,0,0,-1,1700,785,0,0
483,239,0,0,0,0,0,0,0,0,0,-1,1707,785,0,0
490,239,0,0,0,0,0,0,0,0,0,-1,1714,785,0,0
497,239,0,0,0,0,0,0,0,0,0,-1,1721,785,0,0
504,239,0,0,0,0,0,0,0,0,0,-1,1728,785,0,0
511,239,0,0,0,0,0,0,0,0,0,-1,1735,785,0,0
518,239,0,0,0,0,0,0,0,0,0,-1,1742,785,0,0
525,239,0,0,0,0,0,0,0,0,0,-1,1749,785,0,0
532,239,0,0,0,0,0,0,0,0,0,-1,1756,785,0,0
539,239,0,0,0,0,0,0,0,0,0,-1,1763,785,0,0
546,239,0,0,0,0,0,0,0,0,0,-1,1770,785,0,0
553,239,0,0,0,0,0,0,0,0,0,-1,1777,785,0,0
560,239,0,0,0,0,0,0,0,0,0,-1,1784,785,0,0
567,239,0,0,0,0,0,0,0,0,0,-1,1791,785,0,0
574,239,0,0,0,0,0,0,0,0,0,-1,1798,785,0,0
581,239,75.3575,2.38831,0.0101853,-0.00844776,-0.00562442,0.0117514,-0.0100139,-0.271569,0.0125795,0.03573,1805,785,75.3575,-2.38829
588,239,75.3353,2.38904,0.00743074,-0.00655823,-0.00481636,0.00892862,-0.00805611,-0.301515,0.00981045,0.0386637,1812,785,75.3353,-2.38903
595,239,75.4749,2.28308,0.00553703,-0.00458707,-0.0039572,0.00690023,-0.00595026,-0.331753,0.00742599,0.0380668,1819,785,75.4748,-2.28311
602,239,75.356,2.3197,0.00388508,-0.00312238,-0.00320006,0.00512651,-0.0043638,-0.370065,0.00548513,0.0492589,1826,785,75.356,-2.31971
609,239,75.1887,2.3797,0,0,0,0,0,0,0,-1,1833,785,75.1887,-2.3797
616,239,55.8469,3.72443,0,0,0,0,0,0,0,-1,1840,785,55.8469,-3.72445
623,239,65.0618,2.66516,0,0,0,0,0,0,0,-1,1847,785,65.0617,-2.66519
630,239,54.5767,3.64667,0,0,0,0,0,0,0,-1,1854,785,54.5766,-3.64667
637,239,39.5542,2.54114,0,0,0,0,0,0,0,-1,1861,785,39.5543,-2.54114
644,239,18.3466,0.735413,0,0,0,0,0,0,0,-1,1868,785,18.3465,-0.735414
651,239,34.2471,-2.15778,0,0,0,0,0,0,0,-1,1875,785,34.2471,2.1578
658,239,52.9932,-4.85895,0,0,0,0,0,0,0,-1,1882,785,52.9932,4.85895
665,239,53.1833,-3.7691,0.000248259,0.0001179,-0.000248197,0.000439692,-7.35331e-05,-0.656992,0.000320464,0.0427351,1889,785,53.1833,3.76909
672,239,53.2278,-2.79474,0.000269798,0.000266195,-0.000322152,0.000590154,-5.41602e-05,-0.782603,0.000412675,0.0241535,1896,785,53.2278,2.79476
679,239,53.1211,-1.83588,0.000475913,0.000136207,-0.000250093,0.000608379,3.74141e-06,-0.487097,0.000404344,0.0247098,1903,785,53.1211,1.8359
686,239,53.0531,-0.872864,0.000811509,0.0007491,-0.000109083,0.000893763,0.000666846,-0.646089,0.000536447,0.0254124,1910,785,53.053,0.872867
693,239,53.046,-0.046936,0.00128042,0.00121019,0.000217082,0.00146521,0.0010254,0.705208,0.000868166,0.0170134,1917,785,53.046,0.0469575
700,239,52.974,0.837646,0.00185249,0.00156754,0.000628756,0.00235471,0.00106532,0.673979,0.00136154,0.0124621,1924,785,52.974,-0.837618
707,239,52.9059,1.76196,0.00260179,0.00211316,0.00126871,0.00364949,0.00106546,0.690279,0.00216699,0.0120492,1931,785,52.9059,-1.76199
714,239,52.8529,2.67548,0.00345788,0.00251256,0.00200753,0.00504764,0.000922801,0.669783,0.00310356,0.0117181,1938,785,52.853,-2.67546
721,239,52.7517,3.57935,0.00452844,0.00267581,0.00290429,0.00665056,0.000553688,0.631025,0.00426115,0.0216663,1945,785,52.7517,-3.57932
728,239,52.7787,4.75342,0.00575454,0.00228868,0.00381688,0.00821346,-0.000170245,0.572303,0.00553326,0.0433733,1952,785,52.7787,-4.75343
735,239,53.1201,6.18616,0,0,0,0,0,0,0,-1,1959,785,53.1202,-6.18617
742,239,32.4141,7.6665,0,0,0,0,0,0,0,-1,1966,785,32.4141,-7.6665
749,239,32.1489,3.4411,0,0,0,0,0,0,0,-1,1973,785,32.149,-3.44109
756,239,32.9064,3.6687,0,0,0,0,0,0,0,-1,1980,785,32.9063,-3.66873
763,239,0,0,0,0,0,0,0,0,0,-1,1987,785,0,0
770,239,0,0,0,0,0,0,0,0,0,-1,1994,785,0,0
777,239,0,0,0,0,0,0,0,0,0,-1,2001,785,0,0
784,239,0,0,0,0,0,0,0,0,0,-1,2008,785,0,0
791,239,0,0,0,0,0,0,0,0,0,-1,2015,785,0,0
798,239,0,0,0,0,0,0,0,0,0,-1,2022,785,0,0
805,239,0,0,0,0,0,0,0,0,0,-1,2029,785,0,0
812,239,0,0,0,0,0,0,0,0,0,-1,2036,785,0,0
-700,232,0,0,0,0,0,0,0,0,0,-1,524,792,0,0
-693,232,0,0,0,0,0,0,0,0,0,-1,531,792,0,0
-686,232,0,0,0,0,0,0,0,0,0,-1,538,792,0,0
-679,232,0,0,0,0,0,0,0,0,0,-1,545,792,0,0
-672,232,0,0,0,0,0,0,0,0,0,-1,552,792,0,0
-665,232,0,0,0,0,0,0,0,0,0,-1,559,792,0,0
-658,232,0,0,0,0,0,0,0,0,0,-1,566,792,0,0
-651,232,0,0,0,0,0,0,0,0,0,-1,573,792,0,0
-644,232,-41.2348,4.28168,0,0,0,0,0,0,0,-1,580,792,-41.2348,-4.28166
-637,232,-42.1427,3.51453,0,0,0,0,0,0,0,-1,587,792,-42.1427,-3.51452
-630,232,-32.2345,1.80212,0,0,0,0,0,0,0,-1,594,792,-32.2345,-1.80211
-623,232,-31.5665,1.05115,0,0,0,0,0,0,0,-1,601,792,-31.5664,-1.05112
-616,232,-30.6812,0.432861,0,0,0,0,0,0,0,-1,608,792,-30.6812,-0.432881
-609,232,-29.7142,-0.478943,0,0,0,0,0,0,0,-1,615,792,-29.7142,0.478965
-602,232,-37.8893,5.03613,0,0,0,0,0,0,0,-1,622,792,-37.8893,-5.03611
-595,232,-38.0623,3.68005,-0.00396364,0.00542934,-0.00077186,0.00549234,-0.00402665,-1.48935,0.00551747,0.0358873,629,792,-38.0623,-3.68006
-588,232,-38.2654,2.32996,-0.00237858,0.00468358,-0.00088027,0.00479165,-0.00248665,-1.44864,0.00427179,0.013723,636,792,-38.2654,-2.32998
-581,232,-38.3277,1.328,-0.00124589,0.00386635,-0.000701723,0.00396092,-0.00134046,-1.43683,0.00318295,0.00917081,643,792,-38.3277,-1.32798
-574,232,-38.3761,0.426331,-0.000310926,0.00304525,-0.000220265,0.00305964,-0.00032532,-1.50554,0.0021564,0.00929131,650,792,-38.3761,-0.426313
-567,232,-38.4535,-0.465515,0.000300599,0.00234147,0.000346468,0.00239869,0.000243385,1.40714,0.00152449,0.0113637,657,792,-38.4535,0.465487
-560,232,-38.529,-1.36115,0.000710845,0.00179081,0.0011387,0.00251108,-9.41742e-06,1.0068,0.0016772,0.0159584,664,792,-38.529,1.36112
-553,232,-38.6047,-2.26965,0.000571408,0.00166674,0.00209002,0.00327966,-0.00104151,0.913536,0.00260399,0.0159283,671,792,-38.6047,2.26965
-546,232,-38.5915,-3.14178,-0.000636104,0.00133822,0.00242578,0.00297,-0.00226789,0.978639,0.00303314,0.0351515,678,792,-38.5915,3.1418
-539,232,-38.8898,-4.03864,0,0,0,0,0,0,0,-1,685,792,-38.8898,4.03862
-532,232,-39.3629,-4.72864,0,0,0,0,0,0,0,-1,692,792,-39.3628,4.72866
-525,232,-39.0743,-5.89032,0,0,0,0,0,0,0,-1,699,792,-39.0743,5.89033
-518,232,-20.8098,-3.08154,0,0,0,0,0,0,0,-1,706,792,-20.8098,3.08155
-511,232,-21.6708,-0.962708,0,0,0,0,0,0,0,-1,713,792,-21.6708,0.962731
-504,232,-34.2155,0.346985,0,0,0,0,0,0,0,-1,720,792,-34.2155,-0.346955
-497,232,-52.7195,0.518677,0,0,0,0,0,0,0,-1,727,792,-52.7195,-0.518678
-490,232,-59.6912,0.209351,0,0,0,0,0,0,0,-1,734,792,-59.6912,-0.209347
-483,232,-59.8095,0.262939,-0.00275024,-0.00352485,-0.000893257,-0.00216394,-0.00411116,-0.580837,0.00237468,0.0413405,741,792,-59.8095,-0.262957
-476,232,-59.6579,0.314941,-0.0018414,-0.00458328,-0.00116494,-0.00141329,-0.00501138,-0.352171,0.00298357,0.0359531,748,792,-59.6579,-0.31492
-469,232,-59.6252,0.336121,-0.000813698,-0.00607392,-0.00119677,-0.000554217,-0.0063334,-0.213513,0.00405019,0.0344789,755,792,-59.6252,-0.336151
-462,232,0,0,0,0,0,0,0,0,0,-1,762,792,0,0
-455,232,0,0,0,0,0,0,0,0,0,-1,769,792,0,0
-448,232,0,0,0,0,0,0,0,0,0,-1,776,792,0,0
-441,232,0,0,0,0,0,0,0,0,0,-1,783,792,0,0
-434,232,0,0,0,0,0,0,0,0,0,-1,790,792,0,0
-427,232,0,0,0,0,0,0,0,0,0,-1,797,792,0,0
-420,232,0,0,0,0,0,0,0,0,0,-1,804,792,0,0
-413,232,0,0,0,0,0,0,0,0,0,-1,811,792,0,0
-406,232,0,0,0,0,0,0,0,0,0,-1,818,792,0,0
-399,232,0,0,0,0,0,0,0,0,0,-1,825,792,0,0
-392,232,0,0,0,0,0,0,0,0,0,-1,832,792,0,0
-385,232,0,0,0,0,0,0,0,0,0,-1,839,792,0,0
-378,232,0,0,0,0,0,0,0,0,0,-1,846,792,0,0
-371,232,0,0,0,0,0,0,0,0,0,-1,853,792,0,0
-364,232,0,0,0,0,0,0,0,0,0,-1,860,792,0,0
-357,232,0,0,0,0,0,0,0,0,0,-1,867,792,0,0
-350,232,0,0,0,0,0,0,0,0,0,-1,874,792,0,0
-343,232,0,0,0,0,0,0,0,0,0,-1,881,792,0,0
-336,232,0,0,0,0,0,0,0,0,0,-1,888,792,0,0
-329,232,0,0,0,0,0,0,0,0,0,-1,895,792,0,0
-322,232,0,0,0,0,0,0,0,0,0,-1,902,792,0,0
-315,232,0,0,0,0,0,0,0,0,0,-1,909,792,0,0
-308,232,0,0,0,0,0,0,0,0,0,-1,916,792,0,0
-301,232,0,0,0,0,0,0,0,0,0,-1,923,792,0,0
-294,232,0,0,0,0,0,0,0,0,0,-1,930,792,0,0
-287,232,0,0,0,0,0,0,0,0,0,-1,937,792,0,0
-280,232,0,0,0,0,0,0,0,0,0,-1,944,792,0,0
-273,232,0,0,0,0,0,0,0,0,0,-1,951,792,0,0
-266,232,0,0,0,0,0,0,0,0,0,-1,958,792,0,0
-259,232,0,0,0,0,0,0,0,0,0,-1,965,792,0,0
-252,232,0,0,0,0,0,0,0,0,0,-1,972,792,0,0
-245,232,0,0,0,0,0,0,0,0,0,-1,979,792,0,0
-238,232,0,0,0,0,0,0,0,0,0,-1,986,792,0,0
-231,232,0,0,0,0,0,0,0,0,0,-1,993,792,0,0
-224,232,0,0,0,0,0,0,0,0,0,-1,1000,792,0,0
-217,232,0,0,0,0,0,0,0,0,0,-1,1007,792,0,0
-210,232,0,0,0,0,0,0,0,0,0,-1,1014,792,0,0
-203,232,0,0,0,0,0,0,0,0,0,-1,1021,792,0,0
-196,232,0,0,0,0,0,0,0,0,0,-1,1028,792,0,0
-189,232,0,0,0,0,0,0,0,0,0,-1,1035,792,0,0
-182,232,0,0,0,0,0,0,0,0,0,-1,1042,792,0,0
-175,232,0,0,0,0,0,0,0,0,0,-1,1049,792,0,0
-168,232,0,0,0,0,0,0,0,0,0,-1,1056,792,0,0
-161,232,0,0,0,0,0,0,0,0,0,-1,1063,792,0,0
-154,232,0,0,0,0,0,0,0,0,0,-1,1070,792,0,0
-147,232,0,0,0,0,0,0,0,0,0,-1,1077,792,0,0
-140,232,0,0,0,0,0,0,0,0,0,-1,1084,792,0,0
-133,232,0,0,0,0,0,0,0,0,0,-1,1091,792,0,0
-126,232,0,0,0,0,0,0,0,0,0,-1,1098,792,0,0
-119,232,0,0,0,0,0,0,0,0,0,-1,1105,792,0,0
-112,232,0,0,0,0,0,0,0,0,0,-1,1112,792,0,0
-105,232,0,0,0,0,0,0,0,0,0,-1,1119,792,0,0
-98,232,0,0,0,0,0,0,0,0,0,-1,1126,792,0,0
-91,232,0,0,0,0,0,0,0,0,0,-1,1133,792,0,0
-84,232,0,0,0,0,0,0,0,0,0,-1,1140,792,0,0
-77,232,0,0,0,0,0,0,0,0,0,-1,1147,792,0,0
-70,232,0,0,0,0,0,0,0,0,0,-1,1154,792,0,0
-63,232,0,0,0,0,0,0,0,0,0,-1,1161,792,0,0
-56,232,0,0,0,0,0,0,0,0,0,-1,1168,792,0,0
-49,232,0,0,0,0,0,0,0,0,0,-1,1175,792,0,0
-42,232,0,0,0,0,0,0,0,0,0,-1,1182,792,0,0
-35,232,0,0,0,0,0,0,0,0,0,-1,1189,792,0,0
-28,232,0,0,0,0,0,0,0,0,0,-1,1196,792,0,0
-21,232,0,0,0,0,0,0,0,0,0,-1,1203,792,0,0
-14,232,0,0,0,0,0,0,0,0,0,-1,1210,792,0,0
-7,232,0,0,0,0,0,0,0,0,0,-1,1217,792,0,0
0,232,0,0,0,0,0,0,0,0,0,-1,1224,792,0,0
7,232,0,0,0,0,0,0,0,0,0,-1,1231,792,0,0
14,232,0,0,0,0,0,0,0,0,0,-1,1238,792,0,0
21,232,0,0,0,0,0,0,0,0,0,-1,1245,792,0,0
28,232,0,0,0,0,0,0,0,0,0,-1,1252,792,0,0
35,232,0,0,0,0,0,0,0,0,0,-1,1259,792,0,0
42,232,0,0,0,0,0,0,0,0,0,-1,1266,792,0,0
49,232,0,0,0,0,0,0,0,0,0,-1,1273,792,0,0
56,232,0,0,0,0,0,0,0,0,0,-1,1280,792,0,0
63,232,0,0,0,0,0,0,0,0,0,-1,1287,792,0,0
70,232,0,0,0,0,0,0,0,0,0,-1,1294,792,0,0
77,232,0,0,0,0,0,0,0,0,0,-1,1301,792,0,0
84,232,0,0,0,0,0,0,0,0,0,-1,1308,792,0,0
91,232,0,0,0,0,0,0,0,0,0,-1,1315,792,0,0
98,232,0,0,0,0,0,0,0,0,0,-1,1322,792,0,0
105,232,0,0,0,0,0,0,0,0,0,-1,1329,792,0,0
112,232,0,0,0,0,0,0,0,0,0,-1,1336,792,0,0
119,232,0,0,0,0,0,0,0,0,0,-1,1343,792,0,0
126,232,0,0,0,0,0,0,0,0,0,-1,1350,792,0,0
133,232,0,0,0,0,0,0,0,0,0,-1,1357,792,0,0
140,232,0,0,0,0,0,0,0,0,0,-1,1364,792,0,0
147,232,0,0,0,0,0,0,0,0,0,-1,1371,792,0,0
154,232,0,0,0,0,0,0,0,0,0,-1,1378,792,0,0
161,232,0,0,0,0,0,0,0,0,0,-1,1385,792,0,0
168,232,0,0,0,0,0,0,0,0,0,-1,1392,792,0,0
175,232,0,0,0,0,0,0,0,0,0,-1,1399,792,0,0
182,232,0,0,0,0,0,0,0,0,0,-1,1406,792,0,0
189,232,0,0,0,0,0,0,0,0,0,-1,1413,792,0,0
196,232,0,0,0,0,0,0,0,0,0,-1,1420,792,0,0
203,232,0,0,0,0,0,0,0,0,0,-1,1427,792,0,0
210,232,0,0,0,0,0,0,0,0,0,-1,1434,792,0,0
217,232,0,0,0,0,0,0,0,0,0,-1,1441,792,0,0
224,232,0,0,0,0,0,0,0,0,0,-1,1448,792,0,0
231,232,0,0,0,0,0,0,0,0,0,-1,1455,792,0,0
238,232,0,0,0,0,0,0,0,0,0,-1,1462,792,0,0
245,232,0,0,0,0,0,0,0,0,0,-1,1469,792,0,0
252,232,0,0,0,0,0,0,0,0,0,-1,1476,792,0,0
259,232,0,0,0,0,0,0,0,0,0,-1,1483,792,0,0
266,232,0,0,0,0,0,0,0,0,0,-1,1490,792,0,0
273,232,0,0,0,0,0,0,0,0,0,-1,1497,792,0,0
280,232,0,0,0,0,0,0,0,0,0,-1,1504,792,0,0
287,232,0,0,0,0,0,0,0,0,0,-1,1511,792,0,0
294,232,0,0,0,0,0,0,0,0,0,-1,1518,792,0,0
301,232,0,0,0,0,0,0,0,0,0,-1,1525,792,0,0
308,232,0,0,0,0,0,0,0,0,0,-1,1532,792,0,0
315,232,0,0,0,0,0,0,0,0,0,-1,1539,792,0,0
322,232,0,0,0,0,0,0,0,0,0,-1,1546,792,0,0
329,232,0,0,0,0,0,0,0,0,0,-1,1553,792,0,0
336,232,0,0,0,0,0,0,0,0,0,-1,1560,792,0,0
343,232,0,0,0,0,0,0,0,0,0,-1,1567,792,0,0
350,232,0,0,0,0,0,0,0,0,0,-1,1574,792,0,0
357,232,0,0,0,0,0,0,0,0,0,-1,1581,792,0,0
364,232,0,0,0,0,0,0,0,0,0,-1,1588,792,0,0
371,232,0,0,0,0,0,0,0,0,0,-1,1595,792,0,0
378,232,0,0,0,0,0,0,0,0,0,-1,1602,792,0,0
385,232,0,0,0,0,0,0,0,0,0,-1,1609,792,0,0
392,232,0,0,0,0,0,0,0,0,0,-1,1616,792,0,0
399,232,0,0,0,0,0,0,0,0,0,-1,1623,792,0,0
406,232,0,0,0,0,0,0,0,0,0,-1,1630,792,0,0
413,232,0,0,0,0,0,0,0,0,0,-1,1637,792,0,0
420,232,0,0,0,0,0,0,0,0,0,-1,1644,792,0,0
427,232,0,0,0,0,0,0,0,0,0,-1,1651,792,0,0
434,232,0,0,0,0,0,0,0,0,0,-1,1658,792,0,0
441,232,0,0,0,0,0,0,0,0,0,-1,1665,792,0,0
448,232,0,0,0,0,0,0,0,0,0,-1,1672,792,0,0
455,232,0,0,0,0,0,0,0,0,0,-1,1679,792,0,0
462,232,0,0,0,0,0,0,0,0,0,-1,1686,792,0,0
469,232,0,0,0,0,0,0,0,0,0,-1,1693,792,0,0
476,232,0,0,0,0,0,0,0,0,0,-1,1700,792,0,0
483,232,0,0,0,0,0,0,0,0,0,-1,1707,792,0,0
490,232,0,0,0,0,0,0,0,0,0,-1,1714,792,0,0
497,232,0,0,0,0,0,0,0,0,0,-1,1721,792,0,0
504,232,0,0,0,0,0,0,0,0,0,-1,1728,792,0,0
511,232,0,0,0,0,0,0,0,0,0,-1,1735,792,0,0
518,232,0,0,0,0,0,0,0,0,0,-1,1742,792,0,0
525,232,0,0,0,0,0,0,0,0,0,-1,1749,792,0,0
532,232,0,0,0,0,0,0,0,0,0,-1,1756,792,0,0
539,232,0,0,0,0,0,0,0,0,0,-1,1763,792,0,0
546,232,0,0,0,0,0,0,0,0,0,-1,1770,792,0,0
553,232,0,0,0,0,0,0,0,0,0,-1,1777,792,0,0
560,232,0,0,0,0,0,0,0,0,0,-1,1784,792,0,0
567,232,0,0,0,0,0,0,0,0,0,-1,1791,792,0,0
574,232,0,0,0,0,0,0,0,0,0,-1,1798,792,0,0
581,232,0,0,0,0,0,0,0,0,0,-1,1805,792,0,0
588,232,75.3826,2.40491,0.00607151,-0.00608044,-0.00452764,0.00757293,-0.00758186,-0.320201,0.00874963,0.0379244,1812,792,75.3826,-2.40489
595,232,75.455,2.36505,0.00402799,-0.00413841,-0.00394761,0.00562424,-0.00573465,-0.384258,0.00655816,0.0364312,1819,792,75.455,-2.36503
602,232,75.4263,2.26611,0.00248898,-0.00262161,-0.00325217,0.00406964,-0.00420227,-0.452412,0.00477599,0.0366586,1826,792,75.4263,-2.2661
609,232,75.3386,2.2312,0.00129857,-0.00170895,-0.00262003,0.00281571,-0.0032261,-0.524877,0.00349092,0.0467155,1833,792,75.3386,-2.23119
616,232,75.3634,2.24567,0,0,0,0,0,0,0,-1,1840,792,75.3634,-2.24569
623,232,74.9668,2.53278,0,0,0,0,0,0,0,-1,1847,792,74.9667,-2.5328
630,232,64.9034,2.97992,0,0,0,0,0,0,0,-1,1854,792,64.9035,-2.9799
637,232,47.0471,4.04309,0,0,0,0,0,0,0,-1,1861,792,47.0471,-4.04309
644,232,30.7756,4.24139,0,0,0,0,0,0,0,-1,1868,792,30.7757,-4.24141
651,232,31.6797,-0.564087,0,0,0,0,0,0,0,-1,1875,792,31.6797,0.564059
658,232,46.7423,-3.10736,0,0,0,0,0,0,0,-1,1882,792,46.7423,3.10735
665,232,53.9063,-3.69043,0,0,0,0,0,0,0,-1,1889,792,53.9063,3.6904
672,232,54.0544,-2.71912,0,0,0,0,0,0,0,-1,1896,792,54.0544,2.71911
679,232,53.9818,-1.77136,0.000178609,1.39816e-05,-0.000368305,0.000473687,-0.000281096,-0.675458,0.000440477,0.0230806,1903,792,53.9818,1.77136
686,232,53.9393,-0.824158,0.000535792,0.000531852,-0.000373173,0.000907,0.000160644,-0.782759,0.000558868,0.0220526,1910,792,53.9393,0.824147
693,232,53.9152,0.0106201,0.0010529,0.000897722,-0.000109767,0.00110973,0.00084089,-0.47774,0.000668478,0.0127266,1917,792,53.9152,-0.0106044
700,232,53.8871,0.889282,0.00162746,0.00116803,0.000239723,0.00172976,0.00106573,0.40336,0.00100761,0.0140983,1924,792,53.8871,-0.889269
707,232,53.8412,1.80066,0.00234348,0.00160684,0.000838514,0.002891,0.00105932,0.578459,0.00168886,0.0145081,1931,792,53.8412,-1.80069
714,232,53.7642,2.71191,0.00316193,0.00187859,0.00151239,0.00416314,0.000877381,0.584771,0.00253411,0.0155991,1938,792,53.7642,-2.7119
721,232,53.7023,3.63293,0.00412463,0.00185096,0.00227141,0.00552781,0.000447778,0.553375,0.00354538,0.0207207,1945,792,53.7022,-3.63292
728,232,53.6108,4.48206,0.00519931,0.00126754,0.00301023,0.00682873,-0.000361877,0.496133,0.00467778,0.0495096,1952,792,53.6108,-4.48203
735,232,53.7742,5.61615,0,0,0,0,0,0,0,-1,1959,792,53.7742,-5.61614
742,232,25.6461,6.00684,0,0,0,0,0,0,0,-1,1966,792,25.6461,-6.00684
749,232,31.2874,3.74713,0,0,0,0,0,0,0,-1,1973,792,31.2874,-3.74713
756,232,34.9586,15.3984,0,0,0,0,0,0,0,-1,1980,792,34.9586,-15.3984
763,232,33.09,17.3107,0,0,0,0,0,0,0,-1,1987,792,33.0899,-17.3106
770,232,0,0,0,0,0,0,0,0,0,-1,1994,792,0,0
777,232,0,0,0,0,0,0,0,0,0,-1,2001,792,0,0
784,232,0,0,0,0,0,0,0,0,0,-1,2008,792,0,0
791,232,0,0,0,0,0,0,0,0,0,-1,2015,792,0,0
798,232,0,0,0,0,0,0,0,0,0,-1,2022,792,0,0
805,232,0,0,0,0,0,0,0,0,0,-1,2029,792,0,0
812,232,0,0,0,0,0,0,0,0,0,-1,2036,792,0,0
-700,225,0,0,0,0,0,0,0,0,0,-1,524,799,0,0
-693,225,0,0,0,0,0,0,0,0,0,-1,531,799,0,0
-686,225,0,0,0,0,0,0,0,0,0,-1,538,799,0,0
-679,225,0,0,0,0,0,0,0,0,0,-1,545,799,0,0
-672,225,0,0,0,0,0,0,0,0,0,-1,552,799,0,0
-665,225,0,0,0,0,0,0,0,0,0,-1,559,799,0,0
-658,225,0,0,0,0,0,0,0,0,0,-1,566,799,0,0
-651,225,0,0,0,0,0,0,0,0,0,-1,573,799,0,0
-644,225,-40.8898,4.14661,0,0,0,0,0,0,0,-1,580,799,-40.8898,-4.14661
-637,225,-41.61,3.36749,0,0,0,0,0,0,0,-1,587,799,-41.61,-3.36751
-630,225,-30.244,4.82196,0,0,0,0,0,0,0,-1,594,799,-30.244,-4.82193
-623,225,-32.8276,-0.00836182,0,0,0,0,0,0,0,-1,601,799,-32.8276,0.00837668
-616,225,-32.0569,-0.549255,0,0,0,0,0,0,0,-1,608,799,-32.0569,0.549265
-609,225,-38.3466,5.74518,0,0,0,0,0,0,0,-1,615,799,-38.3466,-5.7452
-602,225,-39.0795,4.57324,0,0,0,0,0,0,0,-1,622,799,-39.0794,-4.57323
-595,225,-39.1643,3.39581,-0.00248492,0.00434953,-0.000472537,0.00438204,-0.00251743,-1.50209,0.00403161,0.0308678,629,799,-39.1643,-3.39579
-588,225,-39.2147,2.26697,-0.00120122,0.00388976,-0.000612805,0.00396249,-0.00127395,-1.45267,0.00315329,0.0133818,636,799,-39.2146,-2.26695
-581,225,-39.2496,1.37311,-0.000211125,0.00329338,-0.000428389,0.00334498,-0.000262731,-1.45091,0.00232252,0.0113174,643,799,-39.2496,-1.3731
-574,225,-39.2936,0.484253,0.000618623,0.00266342,2.82451e-06,0.00266342,0.000618619,1.56941,0.00160954,0.00938958,650,799,-39.2936,-0.484264
-567,225,-39.3389,-0.416565,0.0011356,0.00211125,0.000532817,0.00234583,0.00090102,1.15607,0.00136644,0.0126244,657,799,-39.3389,0.416579
-560,225,-39.4202,-1.30231,0.00147643,0.00163423,0.00142509,0.00298261,0.000128058,0.813052,0.00194712,0.0148261,664,799,-39.4202,1.30228
-553,225,-39.4868,-2.20868,0.00114839,0.00168577,0.00249969,0.00393117,-0.00109701,0.838937,0.00305287,0.0137926,671,799,-39.4867,2.2087
-546,225,-39.3953,-2.99817,-0.00024256,0.00149882,0.00270466,0.00346948,-0.00221322,0.941121,0.00330753,0.0376071,678,799,-39.3953,2.99815
-539,225,-39.2476,-3.59174,0,0,0,0,0,0,0,-1,685,799,-39.2475,3.59175
-532,225,-40.7008,-4.56714,0,0,0,0,0,0,0,-1,692,799,-40.7008,4.56711
-525,225,-29.1705,-3.88239,0,0,0,0,0,0,0,-1,699,799,-29.1705,3.88237
-518,225,-21.963,0.171326,0,0,0,0,0,0,0,-1,706,799,-21.9629,-0.171319
-511,225,-33.0002,0.660217,0,0,0,0,0,0,0,-1,713,799,-33.0002,-0.660239
-504,225,-50.4542,0.524109,0,0,0,0,0,0,0,-1,720,799,-50.4542,-0.524105
-497,225,-59.6252,0.235229,0,0,0,0,0,0,0,-1,727,799,-59.6252,-0.235202
-490,225,-59.6482,0.261353,-0.00331785,-0.00288273,0.000137068,-0.00284315,-0.00335743,1.28969,0.00208808,0.0394104,734,799,-59.6482,-0.261333
-483,225,-59.6668,0.308655,-0.00252956,-0.00367909,-0.000558774,-0.00230271,-0.00390594,-0.385646,0.00226711,0.0331489,741,799,-59.6668,-0.308673
-476,225,-59.6197,0.350098,-0.0011364,-0.0047895,-0.000801657,-0.000968222,-0.00495768,-0.206789,0.00303432,0.031557,748,799,-59.6197,-0.350079
-469,225,-59.6483,0.380676,0.000803614,-0.0062776,-0.000719488,0.000875979,-0.00634997,-0.10024,0.00455348,0.0368465,755,799,-59.6483,-0.3807
-462,225,0,0,0,0,0,0,0,0,0,-1,762,799,0,0
-455,225,0,0,0,0,0,0,0,0,0,-1,769,799,0,0
-448,225,0,0,0,0,0,0,0,0,0,-1,776,799,0,0
-441,225,0,0,0,0,0,0,0,0,0,-1,783,799,0,0
-434,225,0,0,0,0,0,0,0,0,0,-1,790,799,0,0
-427,225,0,0,0,0,0,0,0,0,0,-1,797,799,0,0
-420,225,0,0,0,0,0,0,0,0,0,-1,804,799,0,0
-413,225,0,0,0,0,0,0,0,0,0,-1,811,799,0,0
-406,225,0,0,0,0,0,0,0,0,0,-1,818,799,0,0
-399,225,0,0,0,0,0,0,0,0,0,-1,825,799,0,0
-392,225,0,0,0,0,0,0,0,0,0,-1,832,799,0,0
-385,225,0,0,0,0,0,0,0,0,0,-1,839,799,0,0
-378,225,0,0,0,0,0,0,0,0,0,-1,846,799,0,0
-371,225,0,0,0,0,0,0,0,0,0,-1,853,799,0,0
-364,225,0,0,0,0,0,0,0,0,0,-1,860,799,0,0
-357,225,0,0,0,0,0,0,0,0,0,-1,867,799,0,0
-350,225,0,0,0,0,0,0,0,0,0,-1,874,799,0,0
-343,225,0,0,0,0,0,0,0,0,0,-1,881,799,0,0
-336,225,0,0,0,0,0,0,0,0,0,-1,888,799,0,0
-329,225,0,0,0,0,0,0,0,0,0,-1,895,799,0,0
-322,225,0,0,0,0,0,0,0,0,0,-1,902,799,0,0
-315,225,0,0,0,0,0,0,0,0,0,-1,909,799,0,0
-308,225,0,0,0,0,0,0,0,0,0,-1,916,799,0,0
-301,225,0,0,0,0,0,0,0,0,0,-1,923,799,0,0
-294,225,0,0,0,0,0,0,0,0,0,-1,930,799,0,0
-287,225,0,0,0,0,0,0,0,0,0,-1,937,799,0,0
-280,225,0,0,0,0,0,0,0,0,0,-1,944,799,0,0
-273,225,0,0,0,0,0,0,0,0,0,-1,951,799,0,0
-266,225,0,0,0,0,0,0,0,0,0,-1,958,799,0,0
-259,225,0,0,0,0,0,0,0,0,0,-1,965,799,0,0
-252,225,0,0,0,0,0,0,0,0,0,-1,972,799,0,0
-245,225,0,0,0,0,0,0,0,0,0,-1,979,799,0,0
-238,225,0,0,0,0,0,0,0,0,0,-1,986,799,0,0
-231,225,0,0,0,0,0,0,0,0,0,-1,993,799,0,0
-224,225,0,0,0,0,0,0,0,0,0,-1,1000,799,0,0
-217,225,0,0,0,0,0,0,0,0,0,-1,1007,799,0,0
-210,225,0,0,0,0,0,0,0,0,0,-1,1014,799,0,0
-203,225,0,0,0,0,0,0,0,0,0,-1,1021,799,0,0
-196,225,0,0,0,0,0,0,0,0,0,-1,1028,799,0,0
-189,225,0,0,0,0,0,0,0,0,0,-1,1035,799,0,0
-182,225,0,0,0,0,0,0,0,0,0,-1,1042,799,0,0
-175,225,0,0,0,0,0,0,0,0,0,-1,1049,799,0,0
-168,225,0,0,0,0,0,0,0,0,0,-1,1056,799,0,0
-161,225,0,0,0,0,0,0,0,0,0,-1,1063,799,0,0
-154,225,0,0,0,0,0,0,0,0,0,-1,1070,799,0,0
-147,225,0,0,0,0,0,0,0,0,0,-1,1077,799,0,0
-140,225,0,0,0,0,0,0,0,0,0,-1,1084,799,0,0
-133,225,0,0,0,0,0,0,0,0,0,-1,1091,799,0,0
-126,225,0,0,0,0,0,0,0,0,0,-1,1098,799,0,0
-119,225,0,0,0,0,0,0,0,0,0,-1,1105,799,0,0
-112,225,0,0,0,0,0,0,0,0,0,-1,1112,799,0,0
-105,225,0,0,0,0,0,0,0,0,0,-1,1119,799,0,0
-98,225,0,0,0,0,0,0,0,0,0,-1,1126,799,0,0
-91,225,0,0,0,0,0,0,0,0,0,-1,1133,799,0,0
-84,225,0,0,0,0,0,0,0,0,0,-1,1140,799,0,0
-77,225,0,0,0,0,0,0,0,0,0,-1,1147,799,0,0
-70,225,0,0,0,0,0,0,0,0,0,-1,1154,799,0,0
-63,225,0,0,0,0,0,0,0,0,0,-1,1161,799,0,0
-56,225,0,0,0,0,0,0,0,0,0,-1,1168,799,0,0
-49,225,0,0,0,0,0,0,0,0,0,-1,1175,799,0,0
-42,225,0,0,0,0,0,0,0,0,0,-1,1182,799,0,0
-35,225,0,0,0,0,0,0,0,0,0,-1,1189,799,0,0
-28,225,0,0,0,0,0,0,0,0,0,-1,1196,799,0,0
-21,225,0,0,0,0,0,0,0,0,0,-1,1203,799,0,0
-14,225,0,0,0,0,0,0,0,0,0,-1,1210,799,0,0
-7,225,0,0,0,0,0,0,0,0,0,-1,1217,799,0,0
0,225,0,0,0,0,0,0,0,0,0,-1,1224,799,0,0
7,225,0,0,0,0,0,0,0,0,0,-1,1231,799,0,0
14,225,0,0,0,0,0,0,0,0,0,-1,1238,799,0,0
21,225,0,0,0,0,0,0,0,0,0,-1,1245,799,0,0
28,225,0,0,0,0,0,0,0,0,0,-1,1252,799,0,0
35,225,0,0,0,0,0,0,0,0,0,-1,1259,799,0,0
42,225,0,0,0,0,0,0,0,0,0,-1,1266,799,0,0
49,225,0,0,0,0,0,0,0,0,0,-1,1273,799,0,0
56,225,0,0,0,0,0,0,0,0,0,-1,1280,799,0,0
63,225,0,0,0,0,0,0,0,0,0,-1,1287,799,0,0
70,225,0,0,0,0,0,0,0,0,0,-1,1294,799,0,0
77,225,0,0,0,0,0,0,0,0,0,-1,1301,799,0,0
84,225,0,0,0,0,0,0,0,0,0,-1,1308,799,0,0
91,225,0,0,0,0,0,0,0,0,0,-1,1315,799,0,0
98,225,0,0,0,0,0,0,0,0,0,-1,1322,799,0,0
105,225,0,0,0,0,0,0,0,0,0,-1,1329,799,0,0
112,225,0,0,0,0,0,0,0,0,0,-1,1336,799,0,0
119,225,0,0,0,0,0,0,0,0,0,-1,1343,799,0,0
126,225,0,0,0,0,0,0,0,0,0,-1,1350,799,0,0
133,225,0,0,0,0,0,0,0,0,0,-1,1357,799,0,0
140,225,0,0,0,0,0,0,0,0,0,-1,1364,799,0,0
147,225,0,0,0,0,0,0,0,0,0,-1,1371,799,0,0
154,225,0,0,0,0,0,0,0,0,0,-1,1378,799,0,0
161,225,0,0,0,0,0,0,0,0,0,-1,1385,799,0,0
168,225,0,0,0,0,0,0,0,0,0,-1,1392,799,0,0
175,225,0,0,0,0,0,0,0,0,0,-1,1399,799,0,0
182,225,0,0,0,0,0,0,0,0,0,-1,1406,799,0,0
189,225,0,0,0,0,0,0,0,0,0,-1,1413,799,0,0
196,225,0,0,0,0,0,0,0,0,0,-1,1420,799,0,0
203,225,0,0,0,0,0,0,0,0,0,-1,1427,799,0,0
210,225,0,0,0,0,0,0,0,0,0,-1,1434,799,0,0
217,225,0,0,0,0,0,0,0,0,0,-1,1441,799,0,0
224,225,0,0,0,0,0,0,0,0,0,-1,1448,799,0,0
231,225,0,0,0,0,0,0,0,0,0,-1,1455,799,0,0
238,225,0,0,0,0,0,0,0,0,0,-1,1462,799,0,0
245,225,0,0,0,0,0,0,0,0,0,-1,1469,799,0,0
252,225,0,0,0,0,0,0,0,0,0,-1,1476,799,0,0
259,225,0,0,0,0,0,0,0,0,0,-1,1483,799,0,0
266,225,0,0,0,0,0,0,0,0,0,-1,1490,799,0,0
273,225,0,0,0,0,0,0,0,0,0,-1,1497,799,0,0
280,225,0,0,0,0,0,0,0,0,0,-1,1504,799,0,0
287,225,0,0,0,0,0,0,0,0,0,-1,1511,799,0,0
294,225,0,0,0,0,0,0,0,0,0,-1,1518,799,0,0
301,225,0,0,0,0,0,0,0,0,0,-1,1525,799,0,0
308,225,0,0,0,0,0,0,0,0,0,-1,1532,799,0,0
315,225,0,0,0,0,0,0,0,0,0,-1,1539,799,0,0
322,225,0,0,0,0,0,0,0,0,0,-1,1546,799,0,0
329,225,0,0,0,0,0,0,0,0,0,-1,1553,799,0,0
336,225,0,0,0,0,0,0,0,0,0,-1,1560,799,0,0
343,225,0,0,0,0,0,0,0,0,0,-1,1567,799,0,0
350,225,0,0,0,0,0,0,0,0,0,-1,1574,799,0,0
357,225,0,0,0,0,0,0,0,0,0,-1,1581,799,0,0
364,225,0,0,0,0,0,0,0,0,0,-1,1588,799,0,0
371,225,0,0,0,0,0,0,0,0,0,-1,1595,799,0,0
378,225,0,0,0,0,0,0,0,0,0,-1,1602,799,0,0
385,225,0,0,0,0,0,0,0,0,0,-1,1609,799,0,0
392,225,0,0,0,0,0,0,0,0,0,-1,1616,799,0,0
399,225,0,0,0,0,0,0,0,0,0,-1,1623,799,0,0
406,225,0,0,0,0,0,0,0,0,0,-1,1630,799,0,0
413,225,0,0,0,0,0,0,0,0,0,-1,1637,799,0,0
420,225,0,0,0,0,0,0,0,0,0,-1,1644,799,0,0
427,225,0,0,0,0,0,0,0,0,0,-1,1651,799,0,0
434,225,0,0,0,0,0,0,0,0,0,-1,1658,799,0,0
441,225,0,0,0,0,0,0,0,0,0,-1,1665,799,0,0
448,225,0,0,0,0,0,0,0,0,0,-1,1672,799,0,0
455,225,0,0,0,0,0,0,0,0,0,-1,1679,799,0,0
462,225,0,0,0,0,0,0,0,0,0,-1,1686,799,0,0
469,225,0,0,0,0,0,0,0,0,0,-1,1693,799,0,0
476,225,0,0,0,0,0,0,0,0,0,-1,1700,799,0,0
483,225,0,0,0,0,0,0,0,0,0,-1,1707,799,0,0
490,225,0,0,0,0,0,0,0,0,0,-1,1714,799,0,0
497,225,0,0,0,0,0,0,0,0,0,-1,1721,799,0,0
504,225,0,0,0,0,0,0,0,0,0,-1,1728,799,0,0
511,225,0,0,0,0,0,0,0,0,0,-1,1735,799,0,0
518,225,0,0,0,0,0,0,0,0,0,-1,1742,799,0,0
525,225,0,0,0,0,0,0,0,0,0,-1,1749,799,0,0
532,225,0,0,0,0,0,0,0,0,0,-1,1756,799,0,0
539,225,0,0,0,0,0,0,0,0,0,-1,1763,799,0,0
546,225,0,0,0,0,0,0,0,0,0,-1,1770,799,0,0
553,225,0,0,0,0,0,0,0,0,0,-1,1777,799,0,0
560,225,0,0,0,0,0,0,0,0,0,-1,1784,799,0,0
567,225,0,0,0,0,0,0,0,0,0,-1,1791,799,0,0
574,225,0,0,0,0,0,0,0,0,0,-1,1798,799,0,0
581,225,0,0,0,0,0,0,0,0,0,-1,1805,799,0,0
588,225,75.4275,2.41211,0.00592835,-0.00549402,-0.00389299,0.00712897,-0.00669464,-0.29915,0.00798237,0.0390175,1812,799,75.4275,-2.41209
595,225,75.5087,2.19299,0.00369906,-0.00399291,-0.00351509,0.0050634,-0.00535724,-0.370238,0.00601716,0.0359883,1819,799,75.5087,-2.19299
602,225,75.4919,2.17065,0.00190689,-0.00256044,-0.00295039,0.00337377,-0.00402732,-0.461391,0.00427857,0.0327725,1826,799,75.4919,-2.17063
609,225,75.481,2.19379,0.000613197,-0.00164693,-0.00245002,0.00218121,-0.00321494,-0.569314,0.00313447,0.033293,1833,799,75.481,-2.19381
616,225,75.413,2.2171,8.08542e-05,-0.000984156,-0.00185734,0.00148051,-0.00238382,-0.645791,0.0022513,0.0418385,1840,799,75.413,-2.21707
623,225,75.2858,2.33203,-0.000126521,-0.000601846,-0.00134187,0.000998568,-0.00172694,-0.697751,0.00159219,0.0499707,1847,799,75.2857,-2.33201
630,225,75.2485,2.28778,0,0,0,0,0,0,0,-1,1854,799,75.2485,-2.28778
637,225,55.6359,2.8064,0,0,0,0,0,0,0,-1,1861,799,55.6359,-2.80637
644,225,42.0298,2.46411,0,0,0,0,0,0,0,-1,1868,799,42.0298,-2.4641
651,225,27.9657,0.579529,0,0,0,0,0,0,0,-1,1875,799,27.9657,-0.579541
658,225,47.9047,-1.92926,0,0,0,0,0,0,0,-1,1882,799,47.9047,1.92927
665,225,47.541,-2.27985,0,0,0,0,0,0,0,-1,1889,799,47.5411,2.27983
672,225,54.9055,-2.94336,0,0,0,0,0,0,0,-1,1896,799,54.9055,2.94335
679,225,54.8146,-1.70996,-0.000258768,-0.000171211,-0.000505377,0.00029228,-0.000722259,-0.828603,0.000603025,0.0461598,1903,799,54.8146,1.70999
686,225,54.8434,-0.835205,9.22795e-05,0.000251642,-0.000657952,0.00083472,-0.000490799,-0.845657,0.000773828,0.0138334,1910,799,54.8434,0.835202
693,225,54.807,0.0579224,0.000692553,0.00053709,-0.000474389,0.00109554,0.000134106,-0.704192,0.000690014,0.0112577,1917,799,54.807,-0.0579334
700,225,54.7777,0.946777,0.00134071,0.000781403,-0.000189475,0.00139886,0.00072326,-0.297743,0.000807787,0.0123573,1924,799,54.7777,-0.946783
707,225,54.7162,1.85522,0.00209043,0.00115515,0.000366272,0.0022168,0.00102879,0.332217,0.00128097,0.0128146,1931,799,54.7162,-1.85522
714,225,54.6484,2.78601,0.00298595,0.0013527,0.00100245,0.0034623,0.000876357,0.443599,0.0020786,0.0142673,1938,799,54.6485,-2.78599
721,225,54.6401,3.6994,0.00401032,0.00121691,0.00167207,0.00479229,0.000434941,0.437446,0.0030602,0.0170184,1945,799,54.6401,-3.69943
728,225,54.6281,4.61108,0,0,0,0,0,0,0,-1,1952,799,54.6281,-4.61108
735,225,53.493,5.29071,0,0,0,0,0,0,0,-1,1959,799,53.4931,-5.29068
742,225,29.0922,3.2132,0,0,0,0,0,0,0,-1,1966,799,29.0921,-3.21322
749,225,29.9529,4.45538,0,0,0,0,0,0,0,-1,1973,799,29.9529,-4.45537
756,225,39.1752,11.743,0,0,0,0,0,0,0,-1,1980,799,39.1751,-11.743
763,225,39.9703,12.194,0,0,0,0,0,0,0,-1,1987,799,39.9703,-12.194
770,225,0,0,0,0,0,0,0,0,0,-1,1994,799,0,0
777,225,0,0,0,0,0,0,0,0,0,-1,2001,799,0,0
784,225,0,0,0,0,0,0,0,0,0,-1,2008,799,0,0
791,225,0,0,0,0,0,0,0,0,0,-1,2015,799,0,0
798,225,0,0,0,0,0,0,0,0,0,-1,2022,799,0,0
805,225,0,0,0,0,0,0,0,0,0,-1,2029,799,0,0
812,225,0,0,0,0,0,0,0,0,0,-1,2036,799,0,0
-700,218,0,0,0,0,0,0,0,0,0,-1,524,806,0,0
-693,218,0,0,0,0,0,0,0,0,0,-1,531,806,0,0
-686,218,0,0,0,0,0,0,0,0,0,-1,538,806,0,0
-679,218,0,0,0,0,0,0,0,0,0,-1,545,806,0,0
-672,218,0,0,0,0,0,0,0,0,0,-1,552,806,0,0
-665,218,0,0,0,0,0,0,0,0,0,-1,559,806,0,0
-658,218,0,0,0,0,0,0,0,0,0,-1,566,806,0,0
-651,218,-40.3778,5.1792,0,0,0,0,0,0,0,-1,573,806,-40.3778,-5.1792
-644,218,-40.7704,4.19714,0,0,0,0,0,0,0,-1,580,806,-40.7704,-4.19714
-637,218,-41.541,3.36328,0,0,0,0,0,0,0,-1,587,806,-41.541,-3.36326
-630,218,-42.1423,2.85565,0,0,0,0,0,0,0,-1,594,806,-42.1423,-2.85567
-623,218,-42.7292,2.59015,0,0,0,0,0,0,0,-1,601,806,-42.7292,-2.59015
-616,218,-20.0258,1.87585,0,0,0,0,0,0,0,-1,608,806,-20.0258,-1.87585
-609,218,-39.8938,4.81775,0,0,0,0,0,0,0,-1,615,806,-39.8938,-4.81774
-602,218,-40.0115,3.99268,-0.00186241,0.00377233,0.000547206,0.00382498,-0.00191506,1.47488,0.00337461,0.0443204,622,806,-40.0115,-3.9927
-595,218,-40.1105,3.22961,-0.00106128,0.00358402,-0.000123505,0.0035873,-0.00106456,-1.54423,0.00281432,0.0189236,629,806,-40.1105,-3.22961
-588,218,-40.148,2.3017,-0.000113796,0.00332569,-0.000268718,0.00334655,-0.000134664,-1.4933,0.00227725,0.0122207,636,806,-40.148,-2.3017
-581,218,-40.1792,1.43573,0.000698465,0.00289708,-7.83597e-05,0.00289987,0.000695676,-1.53522,0.00174812,0.0112369,643,806,-40.1792,-1.43576
-574,218,-40.233,0.5625,0.00137803,0.0024046,0.000318026,0.00249514,0.00128749,1.29345,0.00144082,0.010639,650,806,-40.233,-0.562515
-567,218,-40.2253,-0.373901,0.00171134,0.00192338,0.000800262,0.00262461,0.0010101,0.851257,0.00152866,0.0185709,657,806,-40.2253,0.373913
-560,218,-40.2855,-1.27893,0.00191622,0.00148847,0.00173385,0.00344933,-4.46405e-05,0.724031,0.00231458,0.0195965,664,806,-40.2855,1.27892
-553,218,-40.2425,-2.37897,0.0014235,0.00173031,0.00278746,0.00436858,-0.00121477,0.812887,0.00339064,0.022529,671,806,-40.2425,2.379
-546,218,-40.4435,-3.34625,1.91759e-05,0.00179346,0.00281898,0.00386159,-0.00204896,0.937844,0.00346554,0.0309801,678,806,-40.4435,3.34624
-539,218,-40.6098,-4.04974,-0.000944346,0.00132057,0.002537,0.0029664,-0.00259017,0.995317,0.00321053,0.0338753,685,806,-40.6098,4.04972
-532,218,-40.5658,-4.64856,0,0,0,0,0,0,0,-1,692,806,-40.5658,4.64854
-525,218,-29.3521,-3.64417,0,0,0,0,0,0,0,-1,699,806,-29.3521,3.64414
-518,218,-23.61,2.54181,0,0,0,0,0,0,0,-1,706,806,-23.61,-2.54183
-511,218,-41.0953,1.06879,0,0,0,0,0,0,0,-1,713,806,-41.0953,-1.06876
-504,218,-59.1388,0.682068,0,0,0,0,0,0,0,-1,720,806,-59.1388,-0.682072
-497,218,-59.4254,0.465515,-0.00334884,-0.00180972,0.0013776,-0.00100131,-0.00415725,1.04012,0.00250534,0.0493368,727,806,-59.4254,-0.465539
-490,218,-59.6271,0.299744,-0.00308156,-0.00253923,0.000496238,-0.0022449,-0.00337589,1.03545,0.00198412,0.0359776,734,806,-59.6272,-0.29974
-483,218,-59.6849,0.356323,-0.00192277,-0.00321863,-0.000344439,-0.00183691,-0.00330449,-0.244304,0.00191182,0.0335703,741,806,-59.6849,-0.356311
-476,218,-59.606,0.508362,0.000492629,-0.0040363,-0.000618241,0.000575508,-0.00411918,-0.133262,0.00295669,0.035351,748,806,-59.606,-0.508337
-469,218,0,0,0,0,0,0,0,0,0,-1,755,806,0,0
-462,218,0,0,0,0,0,0,0,0,0,-1,762,806,0,0
-455,218,0,0,0,0,0,0,0,0,0,-1,769,806,0,0
-448,218,0,0,0,0,0,0,0,0,0,-1,776,806,0,0
-441,218,0,0,0,0,0,0,0,0,0,-1,783,806,0,0
-434,218,0,0,0,0,0,0,0,0,0,-1,790,806,0,0
-427,218,0,0,0,0,0,0,0,0,0,-1,797,806,0,0
-420,218,0,0,0,0,0,0,0,0,0,-1,804,806,0,0
-413,218,0,0,0,0,0,0,0,0,0,-1,811,806,0,0
-406,218,0,0,0,0,0,0,0,0,0,-1,818,806,0,0
-399,218,0,0,0,0,0,0,0,0,0,-1,825,806,0,0
-392,218,0,0,0,0,0,0,0,0,0,-1,832,806,0,0
-385,218,0,0,0,0,0,0,0,0,0,-1,839,806,0,0
-378,218,0,0,0,0,0,0,0,0,0,-1,846,806,0,0
-371,218,0,0,0,0,0,0,0,0,0,-1,853,806,0,0
-364,218,0,0,0,0,0,0,0,0,0,-1,860,806,0,0
-357,218,0,0,0,0,0,0,0,0,0,-1,867,806,0,0
-350,218,0,0,0,0,0,0,0,0,0,-1,874,806,0,0
-343,218,0,0,0,0,0,0,0,0,0,-1,881,806,0,0
-336,218,0,0,0,0,0,0,0,0,0,-1,888,806,0,0
-329,218,0,0,0,0,0,0,0,0,0,-1,895,806,0,0
-322,218,0,0,0,0,0,0,0,0,0,-1,902,806,0,0
-315,218,0,0,0,0,0,0,0,0,0,-1,909,806,0,0
-308,218,0,0,0,0,0,0,0,0,0,-1,916,806,0,0
-301,218,0,0,0,0,0,0,0,0,0,-1,923,806,0,0
-294,218,0,0,0,0,0,0,0,0,0,-1,930,806,0,0
-287,218,0,0,0,0,0,0,0,0,0,-1,937,806,0,0
-280,218,0,0,0,0,0,0,0,0,0,-1,944,806,0,0
-273,218,0,0,0,0,0,0,0,0,0,-1,951,806,0,0
-266,218,0,0,0,0,0,0,0,0,0,-1,958,806,0,0
-259,218,0,0,0,0,0,0,0,0,0,-1,965,806,0,0
-252,218,0,0,0,0,0,0,0,0,0,-1,972,806,0,0
-245,218,0,0,0,0,0,0,0,0,0,-1,979,806,0,0
-238,218,0,0,0,0,0,0,0,0,0,-1,986,806,0,0
-231,218,0,0,0,0,0,0,0,0,0,-1,993,806,0,0
-224,218,0,0,0,0,0,0,0,0,0,-1,1000,806,0,0
-217,218,0,0,0,0,0,0,0,0,0,-1,1007,806,0,0
-210,218,0,0,0,0,0,0,0,0,0,-1,1014,806,0,0
-203,218,0,0,0,0,0,0,0,0,0,-1,1021,806,0,0
-196,218,0,0,0,0,0,0,0,0,0,-1,1028,806,0,0
-189,218,0,0,0,0,0,0,0,0,0,-1,1035,806,0,0
-182,218,0,0,0,0,0,0,0,0,0,-1,1042,806,0,0
-175,218,0,0,0,0,0,0,0,0,0,-1,1049,806,0,0
-168,218,0,0,0,0,0,0,0,0,0,-1,1056,806,0,0
-161,218,0,0,0,0,0,0,0,0,0,-1,1063,806,0,0
-154,218,0,0,0,0,0,0,0,0,0,-1,1070,806,0,0
-147,218,0,0,0,0,0,0,0,0,0,-1,1077,806,0,0
-140,218,0,0,0,0,0,0,0,0,0,-1,1084,806,0,0
-133,218,0,0,0,0,0,0,0,0,0,-1,1091,806,0,0
-126,218,0,0,0,0,0,0,0,0,0,-1,1098,806,0,0
-119,218,0,0,0,0,0,0,0,0,0,-1,1105,806,0,0
-112,218,0,0,0,0,0,0,0,0,0,-1,1112,806,0,0
-105,218,0,0,0,0,0,0,0,0,0,-1,1119,806,0,0
-98,218,0,0,0,0,0,0,0,0,0,-1,1126,806,0,0
-91,218,0,0,0,0,0,0,0,0,0,-1,1133,806,0,0
-84,218,0,0,0,0,0,0,0,0,0,-1,1140,806,0,0
-77,218,0,0,0,0,0,0,0,0,0,-1,1147,806,0,0
-70,218,0,0,0,0,0,0,0,0,0,-1,1154,806,0,0
-63,218,0,0,0,0,0,0,0,0,0,-1,1161,806,0,0
-56,218,0,0,0,0,0,0,0,0,0,-1,1168,806,0,0
-49,218,0,0,0,0,0,0,0,0,0,-1,1175,806,0,0
-42,218,0,0,0,0,0,0,0,0,0,-1,1182,806,0,0
-35,218,0,0,0,0,0,0,0,0,0,-1,1189,806,0,0
-28,218,0,0,0,0,0,0,0,0,0,-1,1196,806,0,0
-21,218,0,0,0,0,0,0,0,0,0,-1,1203,806,0,0
-14,218,0,0,0,0,0,0,0,0,0,-1,1210,806,0,0
-7,218,0,0,0,0,0,0,0,0,0,-1,1217,806,0,0
0,218,0,0,0,0,0,0,0,0,0,-1,1224,806,0,0
7,218,0,0,0,0,0,0,0,0,0,-1,1231,806,0,0
14,218,0,0,0,0,0,0,0,0,0,-1,1238,806,0,0
21,218,0,0,0,0,0,0,0,0,0,-1,1245,806,0,0
28,218,0,0,0,0,0,0,0,0,0,-1,1252,806,0,0
35,218,0,0,0,0,0,0,0,0,0,-1,1259,806,0,0
42,218,0,0,0,0,0,0,0,0,0,-1,1266,806,0,0
49,218,0,0,0,0,0,0,0,0,0,-1,1273,806,0,0
56,218,0,0,0,0,0,0,0,0,0,-1,1280,806,0,0
63,218,0,0,0,0,0,0,0,0,0,-1,1287,806,0,0
70,218,0,0,0,0,0,0,0,0,0,-1,1294,806,0,0
77,218,0,0,0,0,0,0,0,0,0,-1,1301,806,0,0
84,218,0,0,0,0,0,0,0,0,0,-1,1308,806,0,0
91,218,0,0,0,0,0,0,0,0,0,-1,1315,806,0,0
98,218,0,0,0,0,0,0,0,0,0,-1,1322,806,0,0
105,218,0,0,0,0,0,0,0,0,0,-1,1329,806,0,0
112,218,0,0,0,0,0,0,0,0,0,-1,1336,806,0,0
119,218,0,0,0,0,0,0,0,0,0,-1,1343,806,0,0
126,218,0,0,0,0,0,0,0,0,0,-1,1350,806,0,0
133,218,0,0,0,0,0,0,0,0,0,-1,1357,806,0,0
140,218,0,0,0,0,0,0,0,0,0,-1,1364,806,0,0
147,218,0,0,0,0,0,0,0,0,0,-1,1371,806,0,0
154,218,0,0,0,0,0,0,0,0,0,-1,1378,806,0,0
161,218,0,0,0,0,0,0,0,0,0,-1,1385,806,0,0
168,218,0,0,0,0,0,0,0,0,0,-1,1392,806,0,0
175,218,0,0,0,0,0,0,0,0,0,-1,1399,806,0,0
182,218,0,0,0,0,0,0,0,0,0,-1,1406,806,0,0
189,218,0,0,0,0,0,0,0,0,0,-1,1413,806,0,0
196,218,0,0,0,0,0,0,0,0,0,-1,1420,806,0,0
203,218,0,0,0,0,0,0,0,0,0,-1,1427,806,0,0
210,218,0,0,0,0,0,0,0,0,0,-1,1434,806,0,0
217,218,0,0,0,0,0,0,0,0,0,-1,1441,806,0,0
224,218,0,0,0,0,0,0,0,0,0,-1,1448,806,0,0
231,218,0,0,0,0,0,0,0,0,0,-1,1455,806,0,0
238,218,0,0,0,0,0,0,0,0,0,-1,1462,806,0,0
245,218,0,0,0,0,0,0,0,0,0,-1,1469,806,0,0
252,218,0,0,0,0,0,0,0,0,0,-1,1476,806,0,0
259,218,0,0,0,0,0,0,0,0,0,-1,1483,806,0,0
266,218,0,0,0,0,0,0,0,0,0,-1,1490,806,0,0
273,218,0,0,0,0,0,0,0,0,0,-1,1497,806,0,0
280,218,0,0,0,0,0,0,0,0,0,-1,1504,806,0,0
287,218,0,0,0,0,0,0,0,0,0,-1,1511,806,0,0
294,218,0,0,0,0,0,0,0,0,0,-1,1518,806,0,0
301,218,0,0,0,0,0,0,0,0,0,-1,1525,806,0,0
308,218,0,0,0,0,0,0,0,0,0,-1,1532,806,0,0
315,218,0,0,0,0,0,0,0,0,0,-1,1539,806,0,0
322,218,0,0,0,0,0,0,0,0,0,-1,1546,806,0,0
329,218,0,0,0,0,0,0,0,0,0,-1,1553,806,0,0
336,218,0,0,0,0,0,0,0,0,0,-1,1560,806,0,0
343,218,0,0,0,0,0,0,0,0,0,-1,1567,806,0,0
350,218,0,0,0,0,0,0,0,0,0,-1,1574,806,0,0
357,218,0,0,0,0,0,0,0,0,0,-1,1581,806,0,0
364,218,0,0,0,0,0,0,0,0,0,-1,1588,806,0,0
371,218,0,0,0,0,0,0,0,0,0,-1,1595,806,0,0
378,218,0,0,0,0,0,0,0,0,0,-1,1602,806,0,0
385,218,0,0,0,0,0,0,0,0,0,-1,1609,806,0,0
392,218,0,0,0,0,0,0,0,0,0,-1,1616,806,0,0
399,218,0,0,0,0,0,0,0,0,0,-1,1623,806,0,0
406,218,0,0,0,0,0,0,0,0,0,-1,1630,806,0,0
413,218,0,0,0,0,0,0,0,0,0,-1,1637,806,0,0
420,218,0,0,0,0,0,0,0,0,0,-1,1644,806,0,0
427,218,0,0,0,0,0,0,0,0,0,-1,1651,806,0,0
434,218,0,0,0,0,0,0,0,0,0,-1,1658,806,0,0
441,218,0,0,0,0,0,0,0,0,0,-1,1665,806,0,0
448,218,0,0,0,0,0,0,0,0,0,-1,1672,806,0,0
455,218,0,0,0,0,0,0,0,0,0,-1,1679,806,0,0
462,218,0,0,0,0,0,0,0,0,0,-1,1686,806,0,0
469,218,0,0,0,0,0,0,0,0,0,-1,1693,806,0,0
476,218,0,0,0,0,0,0,0,0,0,-1,1700,806,0,0
483,218,0,0,0,0,0,0,0,0,0,-1,1707,806,0,0
490,218,0,0,0,0,0,0,0,0,0,-1,1714,806,0,0
497,218,0,0,0,0,0,0,0,0,0,-1,1721,806,0,0
504,218,0,0,0,0,0,0,0,0,0,-1,1728,806,0,0
511,218,0,0,0,0,0,0,0,0,0,-1,1735,806,0,0
518,218,0,0,0,0,0,0,0,0,0,-1,1742,806,0,0
525,218,0,0,0,0,0,0,0,0,0,-1,1749,806,0,0
532,218,0,0,0,0,0,0,0,0,0,-1,1756,806,0,0
539,218,0,0,0,0,0,0,0,0,0,-1,1763,806,0,0
546,218,0,0,0,0,0,0,0,0,0,-1,1770,806,0,0
553,218,0,0,0,0,0,0,0,0,0,-1,1777,806,0,0
560,218,0,0,0,0,0,0,0,0,0,-1,1784,806,0,0
567,218,0,0,0,0,0,0,0,0,0,-1,1791,806,0,0
574,218,0,0,0,0,0,0,0,0,0,-1,1798,806,0,0
581,218,0,0,0,0,0,0,0,0,0,-1,1805,806,0,0
588,218,0,0,0,0,0,0,0,0,0,-1,1812,806,0,0
595,218,75.4629,2.29376,0.0044043,-0.00383234,-0.00270697,0.00521429,-0.00464233,-0.290745,0.00569392,0.0371512,1819,806,75.4629,-2.29374
602,218,75.499,2.22894,0.00228711,-0.00257426,-0.00236337,0.00324666,-0.00353381,-0.385679,0.00391588,0.0329125,1826,806,75.499,-2.22893
609,218,75.5065,2.24805,0.00054151,-0.00172063,-0.00212117,0.00181433,-0.00299344,-0.54046,0.00280345,0.0308361,1833,806,75.5065,-2.24806
616,218,75.4495,2.20911,-0.000309176,-0.00110922,-0.00170728,0.00104432,-0.00246272,-0.670323,0.00207926,0.0341762,1840,806,75.4494,-2.20913
623,218,75.4335,2.17151,-0.000627878,-0.000736797,-0.0012857,0.000604519,-0.00196919,-0.764232,0.001554,0.0401695,1847,806,75.4334,-2.1715
630,218,75.4762,2.06805,0,0,0,0,0,0,0,-1,1854,806,75.4763,-2.06807
637,218,75.0532,2.44513,0,0,0,0,0,0,0,-1,1861,806,75.0532,-2.44515
644,218,52.4042,2.47949,0,0,0,0,0,0,0,-1,1868,806,52.4041,-2.47949
651,218,41.7338,1.99164,0,0,0,0,0,0,0,-1,1875,806,41.7338,-1.99162
658,218,28.41,0.514954,0,0,0,0,0,0,0,-1,1882,806,28.41,-0.514983
665,218,52.1176,-2.84406,0,0,0,0,0,0,0,-1,1889,806,52.1176,2.84404
672,218,52.8506,-2.1853,0,0,0,0,0,0,0,-1,1896,806,52.8506,2.18533
679,218,55.7283,-1.98041,0,0,0,0,0,0,0,-1,1903,806,55.7282,1.98043
686,218,55.714,-0.788513,-0.000470131,9.98519e-05,-0.000898991,0.000757943,-0.00112822,-0.938893,0.00109595,0.0268064,1910,806,55.714,0.788537
693,218,55.7289,0.113037,0.000196822,0.000263498,-0.000785392,0.00101626,-0.000555939,-0.806609,0.000920587,0.0117243,1917,806,55.7289,-0.113062
700,218,55.6787,0.997986,0.000900112,0.000452435,-0.000571187,0.00128975,6.27927e-05,-0.598653,0.000839688,0.00970627,1924,806,55.6787,-0.997961
707,218,55.6049,1.90442,0.00167032,0.000740853,-7.21984e-05,0.0016759,0.000735279,-0.077061,0.000969999,0.00844371,1931,806,55.6049,-1.90444
714,218,55.5444,2.83423,0.00262399,0.000855886,0.000536029,0.0027738,0.000706073,0.272532,0.00166453,0.0109236,1938,806,55.5444,-2.8342
721,218,55.5181,3.71844,0.00368307,0.000619958,0.00113556,0.00405812,0.000244902,0.319002,0.00262759,0.0146288,1945,806,55.5181,-3.71843
728,218,55.4645,4.64227,0.00486172,-0.000144553,0.00167608,0.00537105,-0.00065388,0.295013,0.00381737,0.0302124,1952,806,55.4644,-4.64228
735,218,55.8232,5.68652,0,0,0,0,0,0,0,-1,1959,806,55.8233,-5.68652
742,218,47.8733,6.84155,0,0,0,0,0,0,0,-1,1966,806,47.8733,-6.84158
749,218,42.0249,6.64703,0,0,0,0,0,0,0,-1,1973,806,42.0249,-6.64703
756,218,52.5194,6.16064,0,0,0,0,0,0,0,-1,1980,806,52.5194,-6.16066
763,218,44.9403,8.54736,0,0,0,0,0,0,0,-1,1987,806,44.9403,-8.54737
770,218,0,0,0,0,0,0,0,0,0,-1,1994,806,0,0
777,218,0,0,0,0,0,0,0,0,0,-1,2001,806,0,0
784,218,0,0,0,0,0,0,0,0,0,-1,2008,806,0,0
791,218,0,0,0,0,0,0,0,0,0,-1,2015,806,0,0
798,218,0,0,0,0,0,0,0,0,0,-1,2022,806,0,0
805,218,0,0,0,0,0,0,0,0,0,-1,2029,806,0,0
812,218,0,0,0,0,0,0,0,0,0,-1,2036,806,0,0
-700,211,0,0,0,0,0,0,0,0,0,-1,524,813,0,0
-693,211,0,0,0,0,0,0,0,0,0,-1,531,813,0,0
-686,211,0,0,0,0,0,0,0,0,0,-1,538,813,0,0
-679,211,0,0,0,0,0,0,0,0,0,-1,545,813,0,0
-672,211,0,0,0,0,0,0,0,0,0,-1,552,813,0,0
-665,211,0,0,0,0,0,0,0,0,0,-1,559,813,0,0
-658,211,0,0,0,0,0,0,0,0,0,-1,566,813,0,0
-651,211,-40.2495,5.20386,0,0,0,0,0,0,0,-1,573,813,-40.2494,-5.20384
-644,211,-40.6288,4.32092,0,0,0,0,0,0,0,-1,580,813,-40.6288,-4.3209
-637,211,-41.3664,3.51849,0,0,0,0,0,0,0,-1,587,813,-41.3664,-3.51847
-630,211,-41.9262,2.94977,0,0,0,0,0,0,0,-1,594,813,-41.9262,-2.94975
-623,211,-42.5012,2.62903,0,0,0,0,0,0,0,-1,601,813,-42.5011,-2.629
-616,211,-40.9203,5.62433,0,0,0,0,0,0,0,-1,608,813,-40.9204,-5.62433
-609,211,-40.8231,4.84216,-0.000191741,0.00299145,0.00126381,0.00343219,-0.000632481,1.23524,0.00252549,0.0409437,615,813,-40.8231,-4.84217
-602,211,-40.8651,4.10498,-0.000232587,0.00282508,0.000936663,0.0030892,-0.000496703,1.29596,0.00224344,0.0230592,622,813,-40.865,-4.105
-595,211,-40.9935,3.27997,0.000119192,0.00278718,0.000338986,0.00282958,7.67951e-05,1.44637,0.00186132,0.0115371,629,813,-40.9935,-3.27995
-588,211,-41.0487,2.37579,0.000681308,0.00264749,0.000182736,0.00266433,0.000664469,1.47891,0.00160136,0.0115029,636,813,-41.0487,-2.37581
-581,211,-41.0953,1.48871,0.00126945,0.00235916,0.00034789,0.00246076,0.00116786,1.28667,0.00142133,0.0113784,643,813,-41.0953,-1.48869
-574,211,-41.1432,0.603088,0.00173538,0.00198889,0.000668143,0.00254219,0.00118207,0.87914,0.00146894,0.0134253,650,813,-41.1432,-0.603118
-567,211,-41.1851,-0.320374,0.00181376,0.0015969,0.000999058,0.00271026,0.000700406,0.731346,0.0016245,0.0213416,657,813,-41.1851,0.320373
-560,211,-41.2328,-1.30322,0.00190158,0.00122879,0.00184138,0.00343704,-0.000306673,0.695051,0.00240013,0.0399911,664,813,-41.2329,1.30323
-553,211,-40.9606,-2.6319,0,0,0,0,0,0,0,-1,671,813,-40.9606,2.63192
-546,211,-41.4982,-3.21661,0.000104727,0.00190079,0.00263384,0.00378549,-0.00177997,0.949697,0.00328203,0.0490271,678,813,-41.4982,3.21663
-539,211,-41.4731,-3.95544,-0.000638651,0.00146975,0.00231625,0.00296042,-0.00212932,0.998955,0.00295159,0.0295045,685,813,-41.4731,3.95542
-532,211,-41.3856,-4.66028,0,0,0,0,0,0,0,-1,692,813,-41.3855,4.66028
-525,211,-14.3009,2.3233,0,0,0,0,0,0,0,-1,699,813,-14.3009,-2.3233
-518,211,-34.952,1.93011,0,0,0,0,0,0,0,-1,706,813,-34.952,-1.9301
-511,211,-53.0876,0.677734,0,0,0,0,0,0,0,-1,713,813,-53.0876,-0.677737
-504,211,-59.1596,0.743164,0,0,0,0,0,0,0,-1,720,813,-59.1596,-0.743192
-497,211,-59.421,0.517334,-0.00315822,-0.00115632,0.00153868,-0.000321671,-0.00399288,1.07377,0.00256144,0.0448376,727,813,-59.421,-0.517344
-490,211,-59.7004,0.364807,-0.0025913,-0.00173566,0.00047925,-0.00152106,-0.0028059,1.14978,0.0016219,0.0336747,734,813,-59.7004,-0.364796
-483,211,-59.7394,0.45752,-0.000573142,-0.00215252,-0.000664526,-0.000330744,-0.00239492,-0.34977,0.00149858,0.0325197,741,813,-59.7395,-0.4575
-476,211,-59.7159,0.563477,0.00379402,-0.00250232,-0.00112409,0.00398869,-0.00269699,-0.171475,0.00388392,0.0370264,748,813,-59.7159,-0.563484
-469,211,0,0,0,0,0,0,0,0,0,-1,755,813,0,0
-462,211,0,0,0,0,0,0,0,0,0,-1,762,813,0,0
-455,211,0,0,0,0,0,0,0,0,0,-1,769,813,0,0
-448,211,0,0,0,0,0,0,0,0,0,-1,776,813,0,0
-441,211,0,0,0,0,0,0,0,0,0,-1,783,813,0,0
-434,211,0,0,0,0,0,0,0,0,0,-1,790,813,0,0
-427,211,0,0,0,0,0,0,0,0,0,-1,797,813,0,0
-420,211,0,0,0,0,0,0,0,0,0,-1,804,813,0,0
-413,211,0,0,0,0,0,0,0,0,0,-1,811,813,0,0
-406,211,0,0,0,0,0,0,0,0,0,-1,818,813,0,0
-399,211,0,0,0,0,0,0,0,0,0,-1,825,813,0,0
-392,211,0,0,0,0,0,0,0,0,0,-1,832,813,0,0
-385,211,0,0,0,0,0,0,0,0,0,-1,839,813,0,0
-378,211,0,0,0,0,0,0,0,0,0,-1,846,813,0,0
-371,211,0,0,0,0,0,0,0,0,0,-1,853,813,0,0
-364,211,0,0,0,0,0,0,0,0,0,-1,860,813,0,0
-357,211,0,0,0,0,0,0,0,0,0,-1,867,813,0,0
-350,211,0,0,0,0,0,0,0,0,0,-1,874,813,0,0
-343,211,0,0,0,0,0,0,0,0,0,-1,881,813,0,0
-336,211,0,0,0,0,0,0,0,0,0,-1,888,813,0,0
-329,211,0,0,0,0,0,0,0,0,0,-1,895,813,0,0
-322,211,0,0,0,0,0,0,0,0,0,-1,902,813,0,0
-315,211,0,0,0,0,0,0,0,0,0,-1,909,813,0,0
-308,211,0,0,0,0,0,0,0,0,0,-1,916,813,0,0
-301,211,0,0,0,0,0,0,0,0,0,-1,923,813,0,0
-294,211,0,0,0,0,0,0,0,0,0,-1,930,813,0,0
-287,211,0,0,0,0,0,0,0,0,0,-1,937,813,0,0
-280,211,0,0,0,0,0,0,0,0,0,-1,944,813,0,0
-273,211,0,0,0,0,0,0,0,0,0,-1,951,813,0,0
-266,211,0,0,0,0,0,0,0,0,0,-1,958,813,0,0
-259,211,0,0,0,0,0,0,0,0,0,-1,965,813,0,0
-252,211,0,0,0,0,0,0,0,0,0,-1,972,813,0,0
-245,211,0,0,0,0,0,0,0,0,0,-1,979,813,0,0
-238,211,0,0,0,0,0,0,0,0,0,-1,986,813,0,0
-231,211,0,0,0,0,0,0,0,0,0,-1,993,813,0,0
-224,211,0,0,0,0,0,0,0,0,0,-1,1000,813,0,0
-217,211,0,0,0,0,0,0,0,0,0,-1,1007,813,0,0
-210,211,0,0,0,0,0,0,0,0,0,-1,1014,813,0,0
-203,211,0,0,0,0,0,0,0,0,0,-1,1021,813,0,0
-196,211,0,0,0,0,0,0,0,0,0,-1,1028,813,0,0
-189,211,0,0,0,0,0,0,0,0,0,-1,1035,813,0,0
-182,211,0,0,0,0,0,0,0,0,0,-1,1042,813,0,0
-175,211,0,0,0,0,0,0,0,0,0,-1,1049,813,0,0
-168,211,0,0,0,0,0,0,0,0,0,-1,1056,813,0,0
-161,211,0,0,0,0,0,0,0,0,0,-1,1063,813,0,0
-154,211,0,0,0,0,0,0,0,0,0,-1,1070,813,0,0
-147,211,0,0,0,0,0,0,0,0,0,-1,1077,813,0,0
-140,211,0,0,0,0,0,0,0,0,0,-1,1084,813,0,0
-133,211,0,0,0,0,0,0,0,0,0,-1,1091,813,0,0
-126,211,0,0,0,0,0,0,0,0,0,-1,1098,813,0,0
-119,211,0,0,0,0,0,0,0,0,0,-1,1105,813,0,0
-112,211,0,0,0,0,0,0,0,0,0,-1,1112,813,0,0
-105,211,0,0,0,0,0,0,0,0,0,-1,1119,813,0,0
-98,211,0,0,0,0,0,0,0,0,0,-1,1126,813,0,0
-91,211,0,0,0,0,0,0,0,0,0,-1,1133,813,0,0
-84,211,0,0,0,0,0,0,0,0,0,-1,1140,813,0,0
-77,211,0,0,0,0,0,0,0,0,0,-1,1147,813,0,0
-70,211,0,0,0,0,0,0,0,0,0,-1,1154,813,0,0
-63,211,0,0,0,0,0,0,0,0,0,-1,1161,813,0,0
-56,211,0,0,0,0,0,0,0,0,0,-1,1168,813,0,0
-49,211,0,0,0,0,0,0,0,0,0,-1,1175,813,0,0
-42,211,0,0,0,0,0,0,0,0,0,-1,1182,813,0,0
-35,211,0,0,0,0,0,0,0,0,0,-1,1189,813,0,0
-28,211,0,0,0,0,0,0,0,0,0,-1,1196,813,0,0
-21,211,0,0,0,0,0,0,0,0,0,-1,1203,813,0,0
-14,211,0,0,0,0,0,0,0,0,0,-1,1210,813,0,0
-7,211,0,0,0,0,0,0,0,0,0,-1,1217,813,0,0
0,211,0,0,0,0,0,0,0,0,0,-1,1224,813,0,0
7,211,0,0,0,0,0,0,0,0,0,-1,1231,813,0,0
14,211,0,0,0,0,0,0,0,0,0,-1,1238,813,0,0
21,211,0,0,0,0,0,0,0,0,0,-1,1245,813,0,0
28,211,0,0,0,0,0,0,0,0,0,-1,1252,813,0,0
35,211,0,0,0,0,0,0,0,0,0,-1,1259,813,0,0
42,211,0,0,0,0,0,0,0,0,0,-1,1266,813,0,0
49,211,0,0,0,0,0,0,0,0,0,-1,1273,813,0,0
56,211,0,0,0,0,0,0,0,0,0,-1,1280,813,0,0
63,211,0,0,0,0,0,0,0,0,0,-1,1287,813,0,0
70,211,0,0,0,0,0,0,0,0,0,-1,1294,813,0,0
77,211,0,0,0,0,0,0,0,0,0,-1,1301,813,0,0
84,211,0,0,0,0,0,0,0,0,0,-1,1308,813,0,0
91,211,0,0,0,0,0,0,0,0,0,-1,1315,813,0,0
98,211,0,0,0,0,0,0,0,0,0,-1,1322,813,0,0
105,211,0,0,0,0,0,0,0,0,0,-1,1329,813,0,0
112,211,0,0,0,0,0,0,0,0,0,-1,1336,813,0,0
119,211,0,0,0,0,0,0,0,0,0,-1,1343,813,0,0
126,211,0,0,0,0,0,0,0,0,0,-1,1350,813,0,0
133,211,0,0,0,0,0,0,0,0,0,-1,1357,813,0,0
140,211,0,0,0,0,0,0,0,0,0,-1,1364,813,0,0
147,211,0,0,0,0,0,0,0,0,0,-1,1371,813,0,0
154,211,0,0,0,0,0,0,0,0,0,-1,1378,813,0,0
161,211,0,0,0,0,0,0,0,0,0,-1,1385,813,0,0
168,211,0,0,0,0,0,0,0,0,0,-1,1392,813,0,0
175,211,0,0,0,0,0,0,0,0,0,-1,1399,813,0,0
182,211,0,0,0,0,0,0,0,0,0,-1,1406,813,0,0
189,211,0,0,0,0,0,0,0,0,0,-1,1413,813,0,0
196,211,0,0,0,0,0,0,0,0,0,-1,1420,813,0,0
203,211,0,0,0,0,0,0,0,0,0,-1,1427,813,0,0
210,211,0,0,0,0,0,0,0,0,0,-1,1434,813,0,0
217,211,0,0,0,0,0,0,0,0,0,-1,1441,813,0,0
224,211,0,0,0,0,0,0,0,0,0,-1,1448,813,0,0
231,211,0,0,0,0,0,0,0,0,0,-1,1455,813,0,0
238,211,0,0,0,0,0,0,0,0,0,-1,1462,813,0,0
245,211,0,0,0,0,0,0,0,0,0,-1,1469,813,0,0
252,211,0,0,0,0,0,0,0,0,0,-1,1476,813,0,0
259,211,0,0,0,0,0,0,0,0,0,-1,1483,813,0,0
266,211,0,0,0,0,0,0,0,0,0,-1,1490,813,0,0
273,211,0,0,0,0,0,0,0,0,0,-1,1497,813,0,0
280,211,0,0,0,0,0,0,0,0,0,-1,1504,813,0,0
287,211,0,0,0,0,0,0,0,0,0,-1,1511,813,0,0
294,211,0,0,0,0,0,0,0,0,0,-1,1518,813,0,0
301,211,0,0,0,0,0,0,0,0,0,-1,1525,813,0,0
308,211,0,0,0,0,0,0,0,0,0,-1,1532,813,0,0
315,211,0,0,0,0,0,0,0,0,0,-1,1539,813,0,0
322,211,0,0,0,0,0,0,0,0,0,-1,1546,813,0,0
329,211,0,0,0,0,0,0,0,0,0,-1,1553,813,0,0
336,211,0,0,0,0,0,0,0,0,0,-1,1560,813,0,0
343,211,0,0,0,0,0,0,0,0,0,-1,1567,813,0,0
350,211,0,0,0,0,0,0,0,0,0,-1,1574,813,0,0
357,211,0,0,0,0,0,0,0,0,0,-1,1581,813,0,0
364,211,0,0,0,0,0,0,0,0,0,-1,1588,813,0,0
371,211,0,0,0,0,0,0,0,0,0,-1,1595,813,0,0
378,211,0,0,0,0,0,0,0,0,0,-1,1602,813,0,0
385,211,0,0,0,0,0,0,0,0,0,-1,1609,813,0,0
392,211,0,0,0,0,0,0,0,0,0,-1,1616,813,0,0
399,211,0,0,0,0,0,0,0,0,0,-1,1623,813,0,0
406,211,0,0,0,0,0,0,0,0,0,-1,1630,813,0,0
413,211,0,0,0,0,0,0,0,0,0,-1,1637,813,0,0
420,211,0,0,0,0,0,0,0,0,0,-1,1644,813,0,0
427,211,0,0,0,0,0,0,0,0,0,-1,1651,813,0,0
434,211,0,0,0,0,0,0,0,0,0,-1,1658,813,0,0
441,211,0,0,0,0,0,0,0,0,0,-1,1665,813,0,0
448,211,0,0,0,0,0,0,0,0,0,-1,1672,813,0,0
455,211,0,0,0,0,0,0,0,0,0,-1,1679,813,0,0
462,211,0,0,0,0,0,0,0,0,0,-1,1686,813,0,0
469,211,0,0,0,0,0,0,0,0,0,-1,1693,813,0,0
476,211,0,0,0,0,0,0,0,0,0,-1,1700,813,0,0
483,211,0,0,0,0,0,0,0,0,0,-1,1707,813,0,0
490,211,0,0,0,0,0,0,0,0,0,-1,1714,813,0,0
497,211,0,0,0,0,0,0,0,0,0,-1,1721,813,0,0
504,211,0,0,0,0,0,0,0,0,0,-1,1728,813,0,0
511,211,0,0,0,0,0,0,0,0,0,-1,1735,813,0,0
518,211,0,0,0,0,0,0,0,0,0,-1,1742,813,0,0
525,211,0,0,0,0,0,0,0,0,0,-1,1749,813,0,0
532,211,0,0,0,0,0,0,0,0,0,-1,1756,813,0,0
539,211,0,0,0,0,0,0,0,0,0,-1,1763,813,0,0
546,211,0,0,0,0,0,0,0,0,0,-1,1770,813,0,0
553,211,0,0,0,0,0,0,0,0,0,-1,1777,813,0,0
560,211,0,0,0,0,0,0,0,0,0,-1,1784,813,0,0
567,211,0,0,0,0,0,0,0,0,0,-1,1791,813,0,0
574,211,0,0,0,0,0,0,0,0,0,-1,1798,813,0,0
581,211,0,0,0,0,0,0,0,0,0,-1,1805,813,0,0
588,211,0,0,0,0,0,0,0,0,0,-1,1812,813,0,0
595,211,75.5306,2.24792,0.00528375,-0.00377211,-0.00197073,0.00569403,-0.00418239,-0.205255,0.00572437,0.0369375,1819,813,75.5307,-2.24791
602,211,75.4637,2.21295,0.00331476,-0.00262713,-0.00165939,0.00374677,-0.00305914,-0.254688,0.00393607,0.0348134,1826,813,75.4637,-2.21296
609,211,75.4081,2.25842,0.0013527,-0.00174177,-0.00150786,0.00196592,-0.00235499,-0.386255,0.00249805,0.0357461,1833,813,75.4081,-2.2584
616,211,75.4379,2.26422,-3.73315e-05,-0.00109892,-0.00129216,0.000828804,-0.00196505,-0.590516,0.0016569,0.0331884,1840,813,75.4378,-2.26421
623,211,75.5024,2.21295,-0.000732246,-0.000679074,-0.00101787,0.000312553,-0.00172387,-0.798455,0.00126636,0.0352139,1847,813,75.5025,-2.21296
630,211,75.5428,2.03979,-0.000533286,-0.000246391,-0.000572021,0.000199895,-0.000979572,-0.908251,0.000728875,0.04037,1854,813,75.5429,-2.03981
637,211,75.3998,2.22418,0,0,0,0,0,0,0,-1,1861,813,75.3998,-2.22418
644,211,66.401,2.3595,0,0,0,0,0,0,0,-1,1868,813,66.401,-2.35952
651,211,48.5043,2.95557,0,0,0,0,0,0,0,-1,1875,813,48.5043,-2.95558
658,211,27.7909,1.52234,0,0,0,0,0,0,0,-1,1882,813,27.7909,-1.52234
665,211,42.2053,-0.745605,0,0,0,0,0,0,0,-1,1889,813,42.2054,0.745605
672,211,53.189,-1.99603,0,0,0,0,0,0,0,-1,1896,813,53.189,1.99603
679,211,56.5776,-1.49176,0,0,0,0,0,0,0,-1,1903,813,56.5776,1.49173
686,211,56.6672,-0.729553,-0.00100684,9.10454e-05,-0.00109992,0.000771392,-0.00168719,-1.01685,0.00145192,0.0313239,1910,813,56.6672,0.729548
693,211,56.603,0.147217,-0.000445721,0.000125194,-0.00109601,0.00097231,-0.00129284,-0.912794,0.00131214,0.0146096,1917,813,56.6031,-0.147204
700,211,56.5162,1.03204,0.000217739,0.000231856,-0.000987094,0.00121192,-0.000762321,-0.788973,0.00114964,0.0136658,1924,813,56.5162,-1.03203
707,211,56.4916,1.96692,0.000965624,0.000407838,-0.000576148,0.00132683,4.66311e-05,-0.559989,0.000869427,0.0216224,1931,813,56.4916,-1.96691
714,211,56.4835,2.89545,0.00198652,0.000451603,-1.71307e-06,0.00198652,0.000451602,-0.00111607,0.00120242,0.0228279,1938,813,56.4835,-2.89548
721,211,56.4536,3.74854,0.00312165,0.000153971,0.000541319,0.00321731,5.83143e-05,0.174904,0.0021257,0.0180411,1945,813,56.4536,-3.74854
728,211,56.386,4.63257,0.00438281,-0.000651056,0.00101132,0.00457839,-0.000846633,0.191031,0.00337011,0.0203694,1952,813,56.386,-4.63256
735,211,56.4536,5.59644,0.00585113,-0.00211178,0.00139809,0.00608946,-0.00235011,0.168849,0.00502949,0.0386809,1959,813,56.4536,-5.59647
742,211,56.6821,6.54657,0,0,0,0,0,0,0,-1,1966,813,56.6821,-6.54655
749,211,56.4303,5.88312,0,0,0,0,0,0,0,-1,1973,813,56.4304,-5.88314
756,211,53.679,6.68317,0,0,0,0,0,0,0,-1,1980,813,53.6789,-6.68316
763,211,53.2612,7.49786,0,0,0,0,0,0,0,-1,1987,813,53.2612,-7.49788
770,211,46.2148,12.9099,0,0,0,0,0,0,0,-1,1994,813,46.2148,-12.9099
777,211,0,0,0,0,0,0,0,0,0,-1,2001,813,0,0
784,211,0,0,0,0,0,0,0,0,0,-1,2008,813,0,0
791,211,0,0,0,0,0,0,0,0,0,-1,2015,813,0,0
798,211,0,0,0,0,0,0,0,0,0,-1,2022,813,0,0
805,211,0,0,0,0,0,0,0,0,0,-1,2029,813,0,0
812,211,0,0,0,0,0,0,0,0,0,-1,2036,813,0,0
-700,204,0,0,0,0,0,0,0,0,0,-1,524,820,0,0
-693,204,0,0,0,0,0,0,0,0,0,-1,531,820,0,0
-686,204,0,0,0,0,0,0,0,0,0,-1,538,820,0,0
-679,204,0,0,0,0,0,0,0,0,0,-1,545,820,0,0
-672,204,0,0,0,0,0,0,0,0,0,-1,552,820,0,0
-665,204,0,0,0,0,0,0,0,0,0,-1,559,820,0,0
-658,204,0,0,0,0,0,0,0,0,0,-1,566,820,0,0
-651,204,-40.064,5.25806,0,0,0,0,0,0,0,-1,573,820,-40.064,-5.25806
-644,204,-40.4117,4.54321,0,0,0,0,0,0,0,-1,580,820,-40.4117,-4.54323
-637,204,-40.8671,3.93817,0,0,0,0,0,0,0,-1,587,820,-40.8671,-3.93819
-630,204,-41.7101,3.04382,0,0,0,0,0,0,0,-1,594,820,-41.7101,-3.04383
-623,204,-41.8597,2.11951,0,0,0,0,0,0,0,-1,601,820,-41.8597,-2.11951
-616,204,-41.7949,5.94879,0,0,0,0,0,0,0,-1,608,820,-41.7948,-5.94881
-609,204,-41.7175,5.05933,0.0013067,0.00205806,0.00130323,0.00303868,0.000326082,0.925727,0.00192631,0.0382116,615,820,-41.7175,-5.05932
-602,204,-41.7993,4.18457,0.000837822,0.00206157,0.00105082,0.00266568,0.000233716,1.04904,0.00170456,0.0189879,622,820,-41.7993,-4.18457
-595,204,-41.8951,3.3092,0.000766195,0.0021283,0.000642107,0.00238327,0.000511228,1.19281,0.00144882,0.0160834,629,820,-41.8952,-3.30918
-588,204,-41.9479,2.42548,0.000948288,0.0020686,0.00057203,0.00230906,0.000707824,1.17285,0.001366,0.0136695,636,820,-41.9479,-2.4255
-581,204,-42.0007,1.52551,0.00125596,0.00190652,0.000780347,0.00242666,0.000735812,0.982866,0.00143675,0.0126775,643,820,-42.0007,-1.52549
-574,204,-42.0147,0.645874,0.00141451,0.00165989,0.00106238,0.00260665,0.000467758,0.842887,0.00160473,0.0142183,650,820,-42.0147,-0.645856
-567,204,-42.0485,-0.202026,0.0012557,0.0013784,0.00122573,0.00254431,8.97874e-05,0.810405,0.00166708,0.0157443,657,820,-42.0486,0.202021
-560,204,-41.9207,-1.19427,0.00138144,0.00104087,0.00187999,0.00309884,-0.000676537,0.740232,0.00232446,0.0373569,664,820,-41.9207,1.1943
-553,204,-42.8048,-1.9502,0,0,0,0,0,0,0,-1,671,820,-42.8048,1.95018
-546,204,-42.5779,-2.8291,0,0,0,0,0,0,0,-1,678,820,-42.5779,2.82907
-539,204,-42.3511,-3.70795,0,0,0,0,0,0,0,-1,685,820,-42.3511,3.70797
-532,204,-30.0565,-3.29065,0,0,0,0,0,0,0,-1,692,820,-30.0565,3.29063
-525,204,-25.7137,1.52496,0,0,0,0,0,0,0,-1,699,820,-25.7137,-1.52496
-518,204,-43.4591,0.383972,0,0,0,0,0,0,0,-1,706,820,-43.4591,-0.383942
-511,204,-59.0981,0.594971,0,0,0,0,0,0,0,-1,713,820,-59.0982,-0.594998
-504,204,-59.2518,0.64801,-0.00259558,0.000206123,0.00205747,0.00129437,-0.00368382,1.08428,0.00298248,0.0456664,720,820,-59.2518,-0.648028
-497,204,-59.432,0.530945,-0.00242443,-0.000510319,0.00133173,0.000172582,-0.00310733,1.09697,0.00213141,0.0388379,727,820,-59.432,-0.530964
-490,204,-59.5638,0.486816,-0.00133712,-0.000766135,-3.62457e-05,-0.000763843,-0.00133942,-1.50766,0.000775854,0.0338511,734,820,-59.5638,-0.486845
-483,204,-59.5609,0.517273,0.00170686,-0.000713965,-0.00176382,0.00263564,-0.00164275,-0.484682,0.00249221,0.0387422,741,820,-59.5609,-0.51726
-476,204,0,0,0,0,0,0,0,0,0,-1,748,820,0,0
-469,204,0,0,0,0,0,0,0,0,0,-1,755,820,0,0
-462,204,0,0,0,0,0,0,0,0,0,-1,762,820,0,0
-455,204,0,0,0,0,0,0,0,0,0,-1,769,820,0,0
-448,204,0,0,0,0,0,0,0,0,0,-1,776,820,0,0
-441,204,0,0,0,0,0,0,0,0,0,-1,783,820,0,0
-434,204,0,0,0,0,0,0,0,0,0,-1,790,820,0,0
-427,204,0,0,0,0,0,0,0,0,0,-1,797,820,0,0
-420,204,0,0,0,0,0,0,0,0,0,-1,804,820,0,0
-413,204,0,0,0,0,0,0,0,0,0,-1,811,820,0,0
-406,204,0,0,0,0,0,0,0,0,0,-1,818,820,0,0
-399,204,0,0,0,0,0,0,0,0,0,-1,825,820,0,0
-392,204,0,0,0,0,0,0,0,0,0,-1,832,820,0,0
-385,204,0,0,0,0,0,0,0,0,0,-1,839,820,0,0
-378,204,0,0,0,0,0,0,0,0,0,-1,846,820,0,0
-371,204,0,0,0,0,0,0,0,0,0,-1,853,820,0,0
-364,204,0,0,0,0,0,0,0,0,0,-1,860,820,0,0
-357,204,0,0,0,0,0,0,0,0,0,-1,867,820,0,0
-350,204,0,0,0,0,0,0,0,0,0,-1,874,820,0,0
-343,204,0,0,0,0,0,0,0,0,0,-1,881,820,0,0
-336,204,0,0,0,0,0,0,0,0,0,-1,888,820,0,0
-329,204,0,0,0,0,0,0,0,0,0,-1,895,820,0,0
-322,204,0,0,0,0,0,0,0,0,0,-1,902,820,0,0
-315,204,0,0,0,0,0,0,0,0,0,-1,909,820,0,0
-308,204,0,0,0,0,0,0,0,0,0,-1,916,820,0,0
-301,204,0,0,0,0,0,0,0,0,0,-1,923,820,0,0
-294,204,0,0,0,0,0,0,0,0,0,-1,930,820,0,0
-287,204,0,0,0,0,0,0,0,0,0,-1,937,820,0,0
-280,204,0,0,0,0,0,0,0,0,0,-1,944,820,0,0
-273,204,0,0,0,0,0,0,0,0,0,-1,951,820,0,0
-266,204,0,0,0,0,0,0,0,0,0,-1,958,820,0,0
-259,204,0,0,0,0,0,0,0,0,0,-1,965,820,0,0
-252,204,0,0,0,0,0,0,0,0,0,-1,972,820,0,0
-245,204,0,0,0,0,0,0,0,0,0,-1,979,820,0,0
-238,204,0,0,0,0,0,0,0,0,0,-1,986,820,0,0
-231,204,0,0,0,0,0,0,0,0,0,-1,993,820,0,0
-224,204,0,0,0,0,0,0,0,0,0,-1,1000,820,0,0
-217,204,0,0,0,0,0,0,0,0,0,-1,1007,820,0,0
-210,204,0,0,0,0,0,0,0,0,0,-1,1014,820,0,0
-203,204,0,0,0,0,0,0,0,0,0,-1,1021,820,0,0
-196,204,0,0,0,0,0,0,0,0,0,-1,1028,820,0,0
-189,204,0,0,0,0,0,0,0,0,0,-1,1035,820,0,0
-182,204,0,0,0,0,0,0,0,0,0,-1,1042,820,0,0
-175,204,0,0,0,0,0,0,0,0,0,-1,1049,820,0,0
-168,204,0,0,0,0,0,0,0,0,0,-1,1056,820,0,0
-161,204,0,0,0,0,0,0,0,0,0,-1,1063,820,0,0
-154,204,0,0,0,0,0,0,0,0,0,-1,1070,820,0,0
-147,204,0,0,0,0,0,0,0,0,0,-1,1077,820,0,0
-140,204,0,0,0,0,0,0,0,0,0,-1,1084,820,0,0
-133,204,0,0,0,0,0,0,0,0,0,-1,1091,820,0,0
-126,204,0,0,0,0,0,0,0,0,0,-1,1098,820,0,0
-119,204,0,0,0,0,0,0,0,0,0,-1,1105,820,0,0
-112,204,0,0,0,0,0,0,0,0,0,-1,1112,820,0,0
-105,204,0,0,0,0,0,0,0,0,0,-1,1119,820,0,0
-98,204,0,0,0,0,0,0,0,0,0,-1,1126,820,0,0
-91,204,0,0,0,0,0,0,0,0,0,-1,1133,820,0,0
-84,204,0,0,0,0,0,0,0,0,0,-1,1140,820,0,0
-77,204,0,0,0,0,0,0,0,0,0,-1,1147,820,0,0
-70,204,0,0,0,0,0,0,0,0,0,-1,1154,820,0,0
-63,204,0,0,0,0,0,0,0,0,0,-1,1161,820,0,0
-56,204,0,0,0,0,0,0,0,0,0,-1,1168,820,0,0
-49,204,0,0,0,0,0,0,0,0,0,-1,1175,820,0,0
-42,204,0,0,0,0,0,0,0,0,0,-1,1182,820,0,0
-35,204,0,0,0,0,0,0,0,0,0,-1,1189,820,0,0
-28,204,0,0,0,0,0,0,0,0,0,-1,1196,820,0,0
-21,204,0,0,0,0,0,0,0,0,0,-1,1203,820,0,0
-14,204,0,0,0,0,0,0,0,0,0,-1,1210,820,0,0
-7,204,0,0,0,0,0,0,0,0,0,-1,1217,820,0,0
0,204,0,0,0,0,0,0,0,0,0,-1,1224,820,0,0
7,204,0,0,0,0,0,0,0,0,0,-1,1231,820,0,0
14,204,0,0,0,0,0,0,0,0,0,-1,1238,820,0,0
21,204,0,0,0,0,0,0,0,0,0,-1,1245,820,0,0
28,204,0,0,0,0,0,0,0,0,0,-1,1252,820,0,0
35,204,0,0,0,0,0,0,0,0,0,-1,1259,820,0,0
42,204,0,0,0,0,0,0,0,0,0,-1,1266,820,0,0
49,204,0,0,0,0,0,0,0,0,0,-1,1273,820,0,0
56,204,0,0,0,0,0,0,0,0,0,-1,1280,820,0,0
63,204,0,0,0,0,0,0,0,0,0,-1,1287,820,0,0
70,204,0,0,0,0,0,0,0,0,0,-1,1294,820,0,0
77,204,0,0,0,0,0,0,0,0,0,-1,1301,820,0,0
84,204,0,0,0,0,0,0,0,0,0,-1,1308,820,0,0
91,204,0,0,0,0,0,0,0,0,0,-1,1315,820,0,0
98,204,0,0,0,0,0,0,0,0,0,-1,1322,820,0,0
105,204,0,0,0,0,0,0,0,0,0,-1,1329,820,0,0
112,204,0,0,0,0,0,0,0,0,0,-1,1336,820,0,0
119,204,0,0,0,0,0,0,0,0,0,-1,1343,820,0,0
126,204,0,0,0,0,0,0,0,0,0,-1,1350,820,0,0
133,204,0,0,0,0,0,0,0,0,0,-1,1357,820,0,0
140,204,0,0,0,0,0,0,0,0,0,-1,1364,820,0,0
147,204,0,0,0,0,0,0,0,0,0,-1,1371,820,0,0
154,204,0,0,0,0,0,0,0,0,0,-1,1378,820,0,0
161,204,0,0,0,0,0,0,0,0,0,-1,1385,820,0,0
168,204,0,0,0,0,0,0,0,0,0,-1,1392,820,0,0
175,204,0,0,0,0,0,0,0,0,0,-1,1399,820,0,0
182,204,0,0,0,0,0,0,0,0,0,-1,1406,820,0,0
189,204,0,0,0,0,0,0,0,0,0,-1,1413,820,0,0
196,204,0,0,0,0,0,0,0,0,0,-1,1420,820,0,0
203,204,0,0,0,0,0,0,0,0,0,-1,1427,820,0,0
210,204,0,0,0,0,0,0,0,0,0,-1,1434,820,0,0
217,204,0,0,0,0,0,0,0,0,0,-1,1441,820,0,0
224,204,0,0,0,0,0,0,0,0,0,-1,1448,820,0,0
231,204,0,0,0,0,0,0,0,0,0,-1,1455,820,0,0
238,204,0,0,0,0,0,0,0,0,0,-1,1462,820,0,0
245,204,0,0,0,0,0,0,0,0,0,-1,1469,820,0,0
252,204,0,0,0,0,0,0,0,0,0,-1,1476,820,0,0
259,204,0,0,0,0,0,0,0,0,0,-1,1483,820,0,0
266,204,0,0,0,0,0,0,0,0,0,-1,1490,820,0,0
273,204,0,0,0,0,0,0,0,0,0,-1,1497,820,0,0
280,204,0,0,0,0,0,0,0,0,0,-1,1504,820,0,0
287,204,0,0,0,0,0,0,0,0,0,-1,1511,820,0,0
294,204,0,0,0,0,0,0,0,0,0,-1,1518,820,0,0
301,204,0,0,0,0,0,0,0,0,0,-1,1525,820,0,0
308,204,0,0,0,0,0,0,0,0,0,-1,1532,820,0,0
315,204,0,0,0,0,0,0,0,0,0,-1,1539,820,0,0
322,204,0,0,0,0,0,0,0,0,0,-1,1546,820,0,0
329,204,0,0,0,0,0,0,0,0,0,-1,1553,820,0,0
336,204,0,0,0,0,0,0,0,0,0,-1,1560,820,0,0
343,204,0,0,0,0,0,0,0,0,0,-1,1567,820,0,0
350,204,0,0,0,0,0,0,0,0,0,-1,1574,820,0,0
357,204,0,0,0,0,0,0,0,0,0,-1,1581,820,0,0
364,204,0,0,0,0,0,0,0,0,0,-1,1588,820,0,0
371,204,0,0,0,0,0,0,0,0,0,-1,1595,820,0,0
378,204,0,0,0,0,0,0,0,0,0,-1,1602,820,0,0
385,204,0,0,0,0,0,0,0,0,0,-1,1609,820,0,0
392,204,0,0,0,0,0,0,0,0,0,-1,1616,820,0,0
399,204,0,0,0,0,0,0,0,0,0,-1,1623,820,0,0
406,204,0,0,0,0,0,0,0,0,0,-1,1630,820,0,0
413,204,0,0,0,0,0,0,0,0,0,-1,1637,820,0,0
420,204,0,0,0,0,0,0,0,0,0,-1,1644,820,0,0
427,204,0,0,0,0,0,0,0,0,0,-1,1651,820,0,0
434,204,0,0,0,0,0,0,0,0,0,-1,1658,820,0,0
441,204,0,0,0,0,0,0,0,0,0,-1,1665,820,0,0
448,204,0,0,0,0,0,0,0,0,0,-1,1672,820,0,0
455,204,0,0,0,0,0,0,0,0,0,-1,1679,820,0,0
462,204,0,0,0,0,0,0,0,0,0,-1,1686,820,0,0
469,204,0,0,0,0,0,0,0,0,0,-1,1693,820,0,0
476,204,0,0,0,0,0,0,0,0,0,-1,1700,820,0,0
483,204,0,0,0,0,0,0,0,0,0,-1,1707,820,0,0
490,204,0,0,0,0,0,0,0,0,0,-1,1714,820,0,0
497,204,0,0,0,0,0,0,0,0,0,-1,1721,820,0,0
504,204,0,0,0,0,0,0,0,0,0,-1,1728,820,0,0
511,204,0,0,0,0,0,0,0,0,0,-1,1735,820,0,0
518,204,0,0,0,0,0,0,0,0,0,-1,1742,820,0,0
525,204,0,0,0,0,0,0,0,0,0,-1,1749,820,0,0
532,204,0,0,0,0,0,0,0,0,0,-1,1756,820,0,0
539,204,0,0,0,0,0,0,0,0,0,-1,1763,820,0,0
546,204,0,0,0,0,0,0,0,0,0,-1,1770,820,0,0
553,204,0,0,0,0,0,0,0,0,0,-1,1777,820,0,0
560,204,0,0,0,0,0,0,0,0,0,-1,1784,820,0,0
567,204,0,0,0,0,0,0,0,0,0,-1,1791,820,0,0
574,204,0,0,0,0,0,0,0,0,0,-1,1798,820,0,0
581,204,0,0,0,0,0,0,0,0,0,-1,1805,820,0,0
588,204,0,0,0,0,0,0,0,0,0,-1,1812,820,0,0
595,204,0,0,0,0,0,0,0,0,0,-1,1819,820,0,0
602,204,75.5374,2.19562,0.00369859,-0.00262804,-0.00136847,0.00398191,-0.00291135,-0.204148,0.00399579,0.0356348,1826,820,75.5373,-2.19563
609,204,75.4407,2.20264,0.00215929,-0.00177598,-0.00101496,0.00240564,-0.00202233,-0.238114,0.00255968,0.0384655,1833,820,75.4407,-2.20265
616,204,75.494,2.16272,0.000695043,-0.00110738,-0.000724352,0.000950061,-0.0013624,-0.338512,0.00134216,0.038767,1840,820,75.494,-2.1627
623,204,75.4844,2.24402,-0.000288305,-0.000633394,-0.000433832,6.03567e-06,-0.000927734,-0.596127,0.000620511,0.0322238,1847,820,75.4843,-2.24403
630,204,75.4396,2.20557,-0.00031378,-0.000120526,-7.28141e-05,-9.6163e-05,-0.000338144,-1.24791,0.000201187,0.0315034,1854,820,75.4395,-2.20554
637,204,75.4534,2.17987,-0.000252139,-0.000135178,-0.000141176,-4.08493e-05,-0.000346468,-0.981758,0.000218638,0.0411094,1861,820,75.4533,-2.17984
644,204,75.4534,2.16583,0,0,0,0,0,0,0,-1,1868,820,75.4534,-2.16583
651,204,53.7611,2.32251,0,0,0,0,0,0,0,-1,1875,820,53.7611,-2.32249
658,204,34.9631,1.64844,0,0,0,0,0,0,0,-1,1882,820,34.9631,-1.64842
665,204,21.8292,1.51099,0,0,0,0,0,0,0,-1,1889,820,21.8292,-1.51099
672,204,57.7555,-2.20721,0,0,0,0,0,0,0,-1,1896,820,57.7555,2.20724
679,204,57.7507,-1.44666,-0.00134046,-0.000197648,-0.000667428,0.000109561,-0.00164767,-1.13942,0.00113673,0.0445097,1903,820,57.7507,1.44665
686,204,57.7247,-0.672363,-0.00127481,-8.21282e-05,-0.00112299,0.000593039,-0.00194998,-1.02948,0.00153631,0.0272173,1910,820,57.7247,0.67235
693,204,57.3696,0.174011,-0.000889405,-0.000113718,-0.00128027,0.000836163,-0.00183929,-0.932474,0.00158045,0.0289983,1917,820,57.3696,-0.173989
700,204,57.4001,1.09174,-0.000370817,-6.25124e-05,-0.00136002,0.00115206,-0.00158539,-0.84183,0.00158706,0.0186602,1924,820,57.4002,-1.09172
707,204,57.3901,2.02972,0.00026271,7.58708e-05,-0.00109346,0.00126674,-0.000928155,-0.742784,0.00127224,0.0166719,1931,820,57.3901,-2.02971
714,204,57.3669,2.96399,0.00130617,0.000142087,-0.000547459,0.00152318,-7.49235e-05,-0.377395,0.00104133,0.025131,1938,820,57.367,-2.96398
721,204,57.321,3.80481,0.00249838,-0.000114993,-9.36039e-06,0.00249841,-0.000115026,-0.00358167,0.00170524,0.0233537,1945,820,57.321,-3.80482
728,204,57.2726,4.64368,0.00382271,-0.000856261,0.000465926,0.00386866,-0.000902206,0.0982926,0.00292657,0.0155622,1952,820,57.2725,-4.64367
735,204,57.1605,5.55768,0.00532786,-0.00219315,0.000846928,0.00542205,-0.00228734,0.11076,0.00457203,0.0183287,1959,820,57.1605,-5.55765
742,204,57.1979,6.28674,0.00698237,-0.00486648,0.000965285,0.0070605,-0.0049446,0.0807569,0.00696694,0.0342096,1966,820,57.1979,-6.28672
749,204,57.1049,6.58722,0.0086407,-0.00981829,0.000543787,0.00865671,-0.00983429,0.0294252,0.010683,0.0483456,1973,820,57.1049,-6.58723
756,204,56.6069,7.67114,0,0,0,0,0,0,0,-1,1980,820,56.607,-7.67111
763,204,54.1107,7.71759,0,0,0,0,0,0,0,-1,1987,820,54.1107,-7.71761
770,204,53.3718,8.26947,0,0,0,0,0,0,0,-1,1994,820,53.3718,-8.26946
777,204,0,0,0,0,0,0,0,0,0,-1,2001,820,0,0
784,204,0,0,0,0,0,0,0,0,0,-1,2008,820,0,0
791,204,0,0,0,0,0,0,0,0,0,-1,2015,820,0,0
798,204,0,0,0,0,0,0,0,0,0,-1,2022,820,0,0
805,204,0,0,0,0,0,0,0,0,0,-1,2029,820,0,0
812,204,0,0,0,0,0,0,0,0,0,-1,2036,820,0,0
-700,197,0,0,0,0,0,0,0,0,0,-1,524,827,0,0
-693,197,0,0,0,0,0,0,0,0,0,-1,531,827,0,0
-686,197,0,0,0,0,0,0,0,0,0,-1,538,827,0,0
-679,197,0,0,0,0,0,0,0,0,0,-1,545,827,0,0
-672,197,0,0,0,0,0,0,0,0,0,-1,552,827,0,0
-665,197,0,0,0,0,0,0,0,0,0,-1,559,827,0,0
-658,197,-39.9774,5.66638,0,0,0,0,0,0,0,-1,566,827,-39.9774,-5.66637
-651,197,-39.9665,5.23578,0,0,0,0,0,0,0,-1,573,827,-39.9665,-5.23575
-644,197,-38.9225,4.75665,0,0,0,0,0,0,0,-1,580,827,-38.9225,-4.75665
-637,197,-45.2572,7.41498,0,0,0,0,0,0,0,-1,587,827,-45.2572,-7.415
-630,197,-40.4908,2.45648,0,0,0,0,0,0,0,-1,594,827,-40.4908,-2.45649
-623,197,-43.6929,7.67633,0,0,0,0,0,0,0,-1,601,827,-43.6929,-7.67635
-616,197,-42.7701,5.98004,0,0,0,0,0,0,0,-1,608,827,-42.7701,-5.98003
-609,197,-42.6312,5.09015,0.00192391,0.00145935,0.00120037,0.00291426,0.000468992,0.689825,0.00180692,0.0361616,615,827,-42.6312,-5.09013
-602,197,-42.6654,4.21539,0.00119806,0.00160576,0.00113133,0.00255146,0.00025236,0.874536,0.0016234,0.0218264,622,827,-42.6654,-4.21542
-595,197,-42.8051,3.34924,0.000835745,0.0017653,0.000972222,0.00237813,0.000222918,1.00837,0.00151659,0.0193961,629,827,-42.8051,-3.34923
-588,197,-42.8298,2.46875,0.000723737,0.00177887,0.0010451,0.00242202,8.059e-05,1.01914,0.0015885,0.0213488,636,827,-42.8298,-2.46875
-581,197,-42.8816,1.56506,0.000767185,0.00174138,0.00133145,0.00267203,-0.000163467,0.960757,0.00183827,0.0125186,643,827,-42.8816,-1.56507
-574,197,-42.9161,0.673523,0.000682249,0.00158871,0.00157389,0.00277333,-0.000502373,0.925589,0.0020371,0.0138459,650,827,-42.9161,-0.673528
-567,197,-42.8548,-0.130859,0.000467498,0.00133721,0.00157958,0.0025407,-0.000735993,0.91972,0.00198515,0.0215292,657,827,-42.8548,0.130842
-560,197,-42.7898,-1.15839,0,0,0,0,0,0,0,-1,664,827,-42.7898,1.15836
-553,197,-33.1771,-1.4881,0,0,0,0,0,0,0,-1,671,827,-33.1771,1.4881
-546,197,-43.6169,-2.573,0,0,0,0,0,0,0,-1,678,827,-43.617,2.57302
-539,197,-32.8993,-2.61737,0,0,0,0,0,0,0,-1,685,827,-32.8993,2.61737
-532,197,-16.0519,0.0410156,0,0,0,0,0,0,0,-1,692,827,-16.0519,-0.0410415
-525,197,-35.3785,2.11829,0,0,0,0,0,0,0,-1,699,827,-35.3785,-2.11826
-518,197,-57.6698,0.308533,0,0,0,0,0,0,0,-1,706,827,-57.6698,-0.308561
-511,197,-59.646,0.165161,0,0,0,0,0,0,0,-1,713,827,-59.646,-0.165183
-504,197,-59.4758,0.600891,-0.00204698,0.000505271,0.00210007,0.00168654,-0.00322824,1.05841,0.00288371,0.0380885,720,827,-59.4759,-0.600891
-497,197,-59.5123,0.548645,-0.00153206,0.000136926,0.0010127,0.000614663,-0.00200979,1.13001,0.00158499,0.0387942,727,827,-59.5123,-0.548647
-490,197,-59.4669,0.445007,0.00042271,0.000514324,-0.000967531,0.00143713,-0.000500098,-0.809053,0.00116125,0.0378815,734,827,-59.4669,-0.445012
-483,197,-59.3628,0.431213,0.00495938,0.00143032,-0.00378831,0.00737394,-0.000984247,-0.567448,0.00527474,0.0410398,741,827,-59.3628,-0.431243
-476,197,0,0,0,0,0,0,0,0,0,-1,748,827,0,0
-469,197,0,0,0,0,0,0,0,0,0,-1,755,827,0,0
-462,197,0,0,0,0,0,0,0,0,0,-1,762,827,0,0
-455,197,0,0,0,0,0,0,0,0,0,-1,769,827,0,0
-448,197,0,0,0,0,0,0,0,0,0,-1,776,827,0,0
-441,197,0,0,0,0,0,0,0,0,0,-1,783,827,0,0
-434,197,0,0,0,0,0,0,0,0,0,-1,790,827,0,0
-427,197,0,0,0,0,0,0,0,0,0,-1,797,827,0,0
-420,197,0,0,0,0,0,0,0,0,0,-1,804,827,0,0
-413,197,0,0,0,0,0,0,0,0,0,-1,811,827,0,0
-406,197,0,0,0,0,0,0,0,0,0,-1,818,827,0,0
-399,197,0,0,0,0,0,0,0,0,0,-1,825,827,0,0
-392,197,0,0,0,0,0,0,0,0,0,-1,832,827,0,0
-385,197,0,0,0,0,0,0,0,0,0,-1,839,827,0,0
-378,197,0,0,0,0,0,0,0,0,0,-1,846,827,0,0
-371,197,0,0,0,0,0,0,0,0,0,-1,853,827,0,0
-364,197,0,0,0,0,0,0,0,0,0,-1,860,827,0,0
-357,197,0,0,0,0,0,0,0,0,0,-1,867,827,0,0
-350,197,0,0,0,0,0,0,0,0,0,-1,874,827,0,0
-343,197,0,0,0,0,0,0,0,0,0,-1,881,827,0,0
-336,197,0,0,0,0,0,0,0,0,0,-1,888,827,0,0
-329,197,0,0,0,0,0,0,0,0,0,-1,895,827,0,0
-322,197,0,0,0,0,0,0,0,0,0,-1,902,827,0,0
-315,197,0,0,0,0,0,0,0,0,0,-1,909,827,0,0
-308,197,0,0,0,0,0,0,0,0,0,-1,916,827,0,0
-301,197,0,0,0,0,0,0,0,0,0,-1,923,827,0,0
-294,197,0,0,0,0,0,0,0,0,0,-1,930,827,0,0
-287,197,0,0,0,0,0,0,0,0,0,-1,937,827,0,0
-280,197,0,0,0,0,0,0,0,0,0,-1,944,827,0,0
-273,197,0,0,0,0,0,0,0,0,0,-1,951,827,0,0
-266,197,0,0,0,0,0,0,0,0,0,-1,958,827,0,0
-259,197,0,0,0,0,0,0,0,0,0,-1,965,827,0,0
-252,197,0,0,0,0,0,0,0,0,0,-1,972,827,0,0
-245,197,0,0,0,0,0,0,0,0,0,-1,979,827,0,0
-238,197,0,0,0,0,0,0,0,0,0,-1,986,827,0,0
-231,197,0,0,0,0,0,0,0,0,0,-1,993,827,0,0
-224,197,0,0,0,0,0,0,0,0,0,-1,1000,827,0,0
-217,197,0,0,0,0,0,0,0,0,0,-1,1007,827,0,0
-210,197,0,0,0,0,0,0,0,0,0,-1,1014,827,0,0
-203,197,0,0,0,0,0,0,0,0,0,-1,1021,827,0,0
-196,197,0,0,0,0,0,0,0,0,0,-1,1028,827,0,0
-189,197,0,0,0,0,0,0,0,0,0,-1,1035,827,0,0
-182,197,0,0,0,0,0,0,0,0,0,-1,1042,827,0,0
-175,197,0,0,0,0,0,0,0,0,0,-1,1049,827,0,0
-168,197,0,0,0,0,0,0,0,0,0,-1,1056,827,0,0
-161,197,0,0,0,0,0,0,0,0,0,-1,1063,827,0,0
-154,197,0,0,0,0,0,0,0,0,0,-1,1070,827,0,0
-147,197,0,0,0,0,0,0,0,0,0,-1,1077,827,0,0
-140,197,0,0,0,0,0,0,0,0,0,-1,1084,827,0,0
-133,197,0,0,0,0,0,0,0,0,0,-1,1091,827,0,0
-126,197,0,0,0,0,0,0,0,0,0,-1,1098,827,0,0
-119,197,0,0,0,0,0,0,0,0,0,-1,1105,827,0,0
-112,197,0,0,0,0,0,0,0,0,0,-1,1112,827,0,0
-105,197,0,0,0,0,0,0,0,0,0,-1,1119,827,0,0
-98,197,0,0,0,0,0,0,0,0,0,-1,1126,827,0,0
-91,197,0,0,0,0,0,0,0,0,0,-1,1133,827,0,0
-84,197,0,0,0,0,0,0,0,0,0,-1,1140,827,0,0
-77,197,0,0,0,0,0,0,0,0,0,-1,1147,827,0,0
-70,197,0,0,0,0,0,0,0,0,0,-1,1154,827,0,0
-63,197,0,0,0,0,0,0,0,0,0,-1,1161,827,0,0
-56,197,0,0,0,0,0,0,0,0,0,-1,1168,827,0,0
-49,197,0,0,0,0,0,0,0,0,0,-1,1175,827,0,0
-42,197,0,0,0,0,0,0,0,0,0,-1,1182,827,0,0
-35,197,0,0,0,0,0,0,0,0,0,-1,1189,827,0,0
-28,197,0,0,0,0,0,0,0,0,0,-1,1196,827,0,0
-21,197,0,0,0,0,0,0,0,0,0,-1,1203,827,0,0
-14,197,0,0,0,0,0,0,0,0,0,-1,1210,827,0,0
-7,197,0,0,0,0,0,0,0,0,0,-1,1217,827,0,0
0,197,0,0,0,0,0,0,0,0,0,-1,1224,827,0,0
7,197,0,0,0,0,0,0,0,0,0,-1,1231,827,0,0
14,197,0,0,0,0,0,0,0,0,0,-1,1238,827,0,0
21,197,0,0,0,0,0,0,0,0,0,-1,1245,827,0,0
28,197,0,0,0,0,0,0,0,0,0,-1,1252,827,0,0
35,197,0,0,0,0,0,0,0,0,0,-1,1259,827,0,0
42,197,0,0,0,0,0,0,0,0,0,-1,1266,827,0,0
49,197,0,0,0,0,0,0,0,0,0,-1,1273,827,0,0
56,197,0,0,0,0,0,0,0,0,0,-1,1280,827,0,0
63,197,0,0,0,0,0,0,0,0,0,-1,1287,827,0,0
70,197,0,0,0,0,0,0,0,0,0,-1,1294,827,0,0
77,197,0,0,0,0,0,0,0,0,0,-1,1301,827,0,0
84,197,0,0,0,0,0,0,0,0,0,-1,1308,827,0,0
91,197,0,0,0,0,0,0,0,0,0,-1,1315,827,0,0
98,197,0,0,0,0,0,0,0,0,0,-1,1322,827,0,0
105,197,0,0,0,0,0,0,0,0,0,-1,1329,827,0,0
112,197,0,0,0,0,0,0,0,0,0,-1,1336,827,0,0
119,197,0,0,0,0,0,0,0,0,0,-1,1343,827,0,0
126,197,0,0,0,0,0,0,0,0,0,-1,1350,827,0,0
133,197,0,0,0,0,0,0,0,0,0,-1,1357,827,0,0
140,197,0,0,0,0,0,0,0,0,0,-1,1364,827,0,0
147,197,0,0,0,0,0,0,0,0,0,-1,1371,827,0,0
154,197,0,0,0,0,0,0,0,0,0,-1,1378,827,0,0
161,197,0,0,0,0,0,0,0,0,0,-1,1385,827,0,0
168,197,0,0,0,0,0,0,0,0,0,-1,1392,827,0,0
175,197,0,0,0,0,0,0,0,0,0,-1,1399,827,0,0
182,197,0,0,0,0,0,0,0,0,0,-1,1406,827,0,0
189,197,0,0,0,0,0,0,0,0,0,-1,1413,827,0,0
196,197,0,0,0,0,0,0,0,0,0,-1,1420,827,0,0
203,197,0,0,0,0,0,0,0,0,0,-1,1427,827,0,0
210,197,0,0,0,0,0,0,0,0,0,-1,1434,827,0,0
217,197,0,0,0,0,0,0,0,0,0,-1,1441,827,0,0
224,197,0,0,0,0,0,0,0,0,0,-1,1448,827,0,0
231,197,0,0,0,0,0,0,0,0,0,-1,1455,827,0,0
238,197,0,0,0,0,0,0,0,0,0,-1,1462,827,0,0
245,197,0,0,0,0,0,0,0,0,0,-1,1469,827,0,0
252,197,0,0,0,0,0,0,0,0,0,-1,1476,827,0,0
259,197,0,0,0,0,0,0,0,0,0,-1,1483,827,0,0
266,197,0,0,0,0,0,0,0,0,0,-1,1490,827,0,0
273,197,0,0,0,0,0,0,0,0,0,-1,1497,827,0,0
280,197,0,0,0,0,0,0,0,0,0,-1,1504,827,0,0
287,197,0,0,0,0,0,0,0,0,0,-1,1511,827,0,0
294,197,0,0,0,0,0,0,0,0,0,-1,1518,827,0,0
301,197,0,0,0,0,0,0,0,0,0,-1,1525,827,0,0
308,197,0,0,0,0,0,0,0,0,0,-1,1532,827,0,0
315,197,0,0,0,0,0,0,0,0,0,-1,1539,827,0,0
322,197,0,0,0,0,0,0,0,0,0,-1,1546,827,0,0
329,197,0,0,0,0,0,0,0,0,0,-1,1553,827,0,0
336,197,0,0,0,0,0,0,0,0,0,-1,1560,827,0,0
343,197,0,0,0,0,0,0,0,0,0,-1,1567,827,0,0
350,197,0,0,0,0,0,0,0,0,0,-1,1574,827,0,0
357,197,0,0,0,0,0,0,0,0,0,-1,1581,827,0,0
364,197,0,0,0,0,0,0,0,0,0,-1,1588,827,0,0
371,197,0,0,0,0,0,0,0,0,0,-1,1595,827,0,0
378,197,0,0,0,0,0,0,0,0,0,-1,1602,827,0,0
385,197,0,0,0,0,0,0,0,0,0,-1,1609,827,0,0
392,197,0,0,0,0,0,0,0,0,0,-1,1616,827,0,0
399,197,0,0,0,0,0,0,0,0,0,-1,1623,827,0,0
406,197,0,0,0,0,0,0,0,0,0,-1,1630,827,0,0
413,197,0,0,0,0,0,0,0,0,0,-1,1637,827,0,0
420,197,0,0,0,0,0,0,0,0,0,-1,1644,827,0,0
427,197,0,0,0,0,0,0,0,0,0,-1,1651,827,0,0
434,197,0,0,0,0,0,0,0,0,0,-1,1658,827,0,0
441,197,0,0,0,0,0,0,0,0,0,-1,1665,827,0,0
448,197,0,0,0,0,0,0,0,0,0,-1,1672,827,0,0
455,197,0,0,0,0,0,0,0,0,0,-1,1679,827,0,0
462,197,0,0,0,0,0,0,0,0,0,-1,1686,827,0,0
469,197,0,0,0,0,0,0,0,0,0,-1,1693,827,0,0
476,197,0,0,0,0,0,0,0,0,0,-1,1700,827,0,0
483,197,0,0,0,0,0,0,0,0,0,-1,1707,827,0,0
490,197,0,0,0,0,0,0,0,0,0,-1,1714,827,0,0
497,197,0,0,0,0,0,0,0,0,0,-1,1721,827,0,0
504,197,0,0,0,0,0,0,0,0,0,-1,1728,827,0,0
511,197,0,0,0,0,0,0,0,0,0,-1,1735,827,0,0
518,197,0,0,0,0,0,0,0,0,0,-1,1742,827,0,0
525,197,0,0,0,0,0,0,0,0,0,-1,1749,827,0,0
532,197,0,0,0,0,0,0,0,0,0,-1,1756,827,0,0
539,197,0,0,0,0,0,0,0,0,0,-1,1763,827,0,0
546,197,0,0,0,0,0,0,0,0,0,-1,1770,827,0,0
553,197,0,0,0,0,0,0,0,0,0,-1,1777,827,0,0
560,197,0,0,0,0,0,0,0,0,0,-1,1784,827,0,0
567,197,0,0,0,0,0,0,0,0,0,-1,1791,827,0,0
574,197,0,0,0,0,0,0,0,0,0,-1,1798,827,0,0
581,197,0,0,0,0,0,0,0,0,0,-1,1805,827,0,0
588,197,0,0,0,0,0,0,0,0,0,-1,1812,827,0,0
595,197,0,0,0,0,0,0,0,0,0,-1,1819,827,0,0
602,197,75.4845,2.20105,0.00379291,-0.00219363,-0.00120792,0.00402745,-0.00242817,-0.191779,0.00376508,0.0406166,1826,827,75.4844,-2.20104
609,197,75.483,2.17896,0.00263005,-0.00145365,-0.000778739,0.00277351,-0.00159711,-0.18218,0.00255367,0.0419444,1833,827,75.483,-2.17893
616,197,75.6079,2.23743,0.00127486,-0.000855067,-0.000405081,0.00134929,-0.000929506,-0.181736,0.00132309,0.0401519,1840,827,75.6079,-2.2374
623,197,75.7773,2.14783,0,0,0,0,0,0,0,-1,1847,827,75.7774,-2.1478
630,197,75.8429,2.07495,0,0,0,0,0,0,0,-1,1854,827,75.8429,-2.07494
637,197,75.4993,2.13916,0,0,0,0,0,0,0,-1,1861,827,75.4993,-2.13917
644,197,75.4291,2.2478,0,0,0,0,0,0,0,-1,1868,827,75.429,-2.24778
651,197,73.8147,2.2644,0,0,0,0,0,0,0,-1,1875,827,73.8147,-2.26442
658,197,40.4694,3.05927,0,0,0,0,0,0,0,-1,1882,827,40.4694,-3.05926
665,197,14.0618,1.80304,0,0,0,0,0,0,0,-1,1889,827,14.0617,-1.80303
672,197,58.8182,-2.71899,0,0,0,0,0,0,0,-1,1896,827,58.8183,2.71898
679,197,58.6542,-1.48865,-0.00164553,-0.000100911,-0.000639661,0.000129589,-0.00187603,-1.22493,0.00129605,0.0406729,1903,827,58.6542,1.48866
686,197,58.5778,-0.50769,-0.0016193,-0.000120302,-0.00111989,0.000477753,-0.00221735,-1.0803,0.00166056,0.0300172,1910,827,58.5778,0.507694
693,197,58.3374,0.426086,-0.00135832,-0.000276495,-0.00139171,0.000675723,-0.00231053,-0.970748,0.00180819,0.0382351,1917,827,58.3373,-0.426103
700,197,58.3019,1.13654,-0.000981193,-0.000337454,-0.00166086,0.00103244,-0.00235108,-0.88111,0.00200232,0.0330388,1924,827,58.3019,-1.13652
707,197,58.27,2.08862,-0.000462589,-0.000230569,-0.00157924,0.00123692,-0.00193008,-0.822062,0.00184301,0.0103686,1931,827,58.27,-2.0886
714,197,58.2263,2.95422,0.000649628,-9.59583e-05,-0.00113562,0.00147208,-0.00091841,-0.626804,0.00139243,0.0126595,1938,827,58.2263,-2.95425
721,197,58.1931,3.82599,0.00197421,-0.000217935,-0.000638909,0.00214683,-0.000390555,-0.263878,0.00157761,0.0134222,1945,827,58.1931,-3.82597
728,197,58.1371,4.70093,0.00346015,-0.000798441,-0.000190401,0.00346864,-0.000806937,-0.0445913,0.00262311,0.012462,1952,827,58.1371,-4.70092
735,197,58.0354,5.58624,0.00513034,-0.00189324,0.000133451,0.00513287,-0.00189577,0.0189913,0.004199,0.0126836,1959,827,58.0354,-5.58625
742,197,57.9984,6.46655,0.00702087,-0.00403268,0.000206692,0.00702474,-0.00403654,0.0186905,0.00646344,0.0236805,1966,827,57.9984,-6.46653
749,197,57.9199,7.35944,0.00912904,-0.00802341,-0.000225726,0.00913201,-0.00802638,-0.013157,0.00991326,0.0468288,1973,827,57.9199,-7.35942
756,197,57.6741,8.32062,0,0,0,0,0,0,0,-1,1980,827,57.6741,-8.32064
763,197,57.4331,9.17389,0,0,0,0,0,0,0,-1,1987,827,57.4331,-9.17388
770,197,54.2329,8.28735,0,0,0,0,0,0,0,-1,1994,827,54.233,-8.28735
777,197,0,0,0,0,0,0,0,0,0,-1,2001,827,0,0
784,197,0,0,0,0,0,0,0,0,0,-1,2008,827,0,0
791,197,0,0,0,0,0,0,0,0,0,-1,2015,827,0,0
798,197,0,0,0,0,0,0,0,0,0,-1,2022,827,0,0
805,197,0,0,0,0,0,0,0,0,0,-1,2029,827,0,0
812,197,0,0,0,0,0,0,0,0,0,-1,2036,827,0,0
-700,190,0,0,0,0,0,0,0,0,0,-1,524,834,0,0
-693,190,0,0,0,0,0,0,0,0,0,-1,531,834,0,0
-686,190,0,0,0,0,0,0,0,0,0,-1,538,834,0,0
-679,190,0,0,0,0,0,0,0,0,0,-1,545,834,0,0
-672,190,0,0,0,0,0,0,0,0,0,-1,552,834,0,0
-665,190,0,0,0,0,0,0,0,0,0,-1,559,834,0,0
-658,190,-41.9736,5.50092,0,0,0,0,0,0,0,-1,566,834,-41.9736,-5.50089
-651,190,-40.1895,4.99677,0,0,0,0,0,0,0,-1,573,834,-40.1894,-4.99677
-644,190,-43.4772,11.1134,0,0,0,0,0,0,0,-1,580,834,-43.4771,-11.1134
-637,190,-43.1797,9.53918,0,0,0,0,0,0,0,-1,587,834,-43.1797,-9.53917
-630,190,-43.9639,8.85596,0,0,0,0,0,0,0,-1,594,834,-43.9639,-8.85598
-623,190,-43.8776,6.63123,0,0,0,0,0,0,0,-1,601,834,-43.8776,-6.63123
-616,190,-43.752,5.84265,0.00360628,0.00104084,0.000786839,0.00382838,0.000818739,0.275112,0.00232784,0.0470698,608,834,-43.752,-5.84265
-609,190,-43.5142,5.09186,0.0020023,0.00144515,0.00116029,0.00291699,0.000530456,0.667584,0.00179417,0.0271815,615,834,-43.5142,-5.09187
-602,190,-43.5861,4.28656,0.00096212,0.00157669,0.001267,0.00257314,-3.43288e-05,0.904365,0.00172698,0.0199819,622,834,-43.5861,-4.28658
-595,190,-43.6939,3.37347,0.000244585,0.00169869,0.00132441,0.00248249,-0.00053921,1.03642,0.00186095,0.0208324,629,834,-43.6939,-3.3735
-588,190,-43.725,2.50421,-0.000208995,0.00167672,0.0015276,0.00252901,-0.00106129,1.06189,0.00212981,0.0209418,636,834,-43.725,-2.50422
-581,190,-43.7632,1.62122,-0.000423323,0.00169895,0.00184271,0.00276422,-0.00148859,1.04664,0.0024919,0.0150158,643,834,-43.7633,-1.62123
-574,190,-43.7934,0.738342,-0.000631478,0.00155182,0.0019816,0.00272257,-0.00180223,1.03716,0.00263035,0.0142192,650,834,-43.7934,-0.738316
-567,190,-43.6658,-0.271912,-0.000733215,0.0012569,0.0017892,0.00230913,-0.00178545,1.03917,0.00237044,0.0330956,657,834,-43.6658,0.271915
-560,190,-43.4228,-1.30896,0,0,0,0,0,0,0,-1,664,834,-43.4228,1.30894
-553,190,-33.9625,-1.6355,0,0,0,0,0,0,0,-1,671,834,-33.9625,1.63552
-546,190,-33.7621,-2.04889,0,0,0,0,0,0,0,-1,678,834,-33.7621,2.04886
-539,190,-16.4624,-0.542542,0,0,0,0,0,0,0,-1,685,834,-16.4624,0.542527
-532,190,-21.6292,2.06122,0,0,0,0,0,0,0,-1,692,834,-21.6292,-2.06123
-525,190,-38.9377,1.03369,0,0,0,0,0,0,0,-1,699,834,-38.9377,-1.0337
-518,190,-59.5134,0.224304,0,0,0,0,0,0,0,-1,706,834,-59.5134,-0.224305
-511,190,-59.635,0.134094,-0.00153087,0.000875757,0.00211281,0.00210389,-0.00275901,1.04426,0.00281607,0.0438813,713,834,-59.635,-0.134066
-504,190,-59.5089,0.78949,-0.00159232,0.000827522,0.00179035,0.00177845,-0.00254325,1.08255,0.00250812,0.0427859,720,834,-59.5089,-0.78947
-497,190,-59.4914,0.625,-0.000431616,0.000897096,0.000294708,0.000959529,-0.000494049,1.36204,0.000853446,0.0428176,727,834,-59.4914,-0.624973
-490,190,-59.5574,0.446411,0.00267059,0.00179851,-0.00207555,0.0043554,0.000113691,-0.681861,0.00286646,0.0416286,734,834,-59.5574,-0.446387
-483,190,0,0,0,0,0,0,0,0,0,-1,741,834,0,0
-476,190,0,0,0,0,0,0,0,0,0,-1,748,834,0,0
-469,190,0,0,0,0,0,0,0,0,0,-1,755,834,0,0
-462,190,0,0,0,0,0,0,0,0,0,-1,762,834,0,0
-455,190,0,0,0,0,0,0,0,0,0,-1,769,834,0,0
-448,190,0,0,0,0,0,0,0,0,0,-1,776,834,0,0
-441,190,0,0,0,0,0,0,0,0,0,-1,783,834,0,0
-434,190,0,0,0,0,0,0,0,0,0,-1,790,834,0,0
-427,190,0,0,0,0,0,0,0,0,0,-1,797,834,0,0
-420,190,0,0,0,0,0,0,0,0,0,-1,804,834,0,0
-413,190,0,0,0,0,0,0,0,0,0,-1,811,834,0,0
-406,190,0,0,0,0,0,0,0,0,0,-1,818,834,0,0
-399,190,0,0,0,0,0,0,0,0,0,-1,825,834,0,0
-392,190,0,0,0,0,0,0,0,0,0,-1,832,834,0,0
-385,190,0,0,0,0,0,0,0,0,0,-1,839,834,0,0
-378,190,0,0,0,0,0,0,0,0,0,-1,846,834,0,0
-371,190,0,0,0,0,0,0,0,0,0,-1,853,834,0,0
-364,190,0,0,0,0,0,0,0,0,0,-1,860,834,0,0
-357,190,0,0,0,0,0,0,0,0,0,-1,867,834,0,0
-350,190,0,0,0,0,0,0,0,0,0,-1,874,834,0,0
-343,190,0,0,0,0,0,0,0,0,0,-1,881,834,0,0
-336,190,0,0,0,0,0,0,0,0,0,-1,888,834,0,0
-329,190,0,0,0,0,0,0,0,0,0,-1,895,834,0,0
-322,190,0,0,0,0,0,0,0,0,0,-1,902,834,0,0
-315,190,0,0,0,0,0,0,0,0,0,-1,909,834,0,0
-308,190,0,0,0,0,0,0,0,0,0,-1,916,834,0,0
-301,190,0,0,0,0,0,0,0,0,0,-1,923,834,0,0
-294,190,0,0,0,0,0,0,0,0,0,-1,930,834,0,0
-287,190,0,0,0,0,0,0,0,0,0,-1,937,834,0,0
-280,190,0,0,0,0,0,0,0,0,0,-1,944,834,0,0
-273,190,0,0,0,0,0,0,0,0,0,-1,951,834,0,0
-266,190,0,0,0,0,0,0,0,0,0,-1,958,834,0,0
-259,190,0,0,0,0,0,0,0,0,0,-1,965,834,0,0
-252,190,0,0,0,0,0,0,0,0,0,-1,972,834,0,0
-245,190,0,0,0,0,0,0,0,0,0,-1,979,834,0,0
-238,190,0,0,0,0,0,0,0,0,0,-1,986,834,0,0
-231,190,0,0,0,0,0,0,0,0,0,-1,993,834,0,0
-224,190,0,0,0,0,0,0,0,0,0,-1,1000,834,0,0
-217,190,0,0,0,0,0,0,0,0,0,-1,1007,834,0,0
-210,190,0,0,0,0,0,0,0,0,0,-1,1014,834,0,0
-203,190,0,0,0,0,0,0,0,0,0,-1,1021,834,0,0
-196,190,0,0,0,0,0,0,0,0,0,-1,1028,834,0,0
-189,190,0,0,0,0,0,0,0,0,0,-1,1035,834,0,0
-182,190,0,0,0,0,0,0,0,0,0,-1,1042,834,0,0
-175,190,0,0,0,0,0,0,0,0,0,-1,1049,834,0,0
-168,190,0,0,0,0,0,0,0,0,0,-1,1056,834,0,0
-161,190,0,0,0,0,0,0,0,0,0,-1,1063,834,0,0
-154,190,0,0,0,0,0,0,0,0,0,-1,1070,834,0,0
-147,190,0,0,0,0,0,0,0,0,0,-1,1077,834,0,0
-140,190,0,0,0,0,0,0,0,0,0,-1,1084,834,0,0
-133,190,0,0,0,0,0,0,0,0,0,-1,1091,834,0,0
-126,190,0,0,0,0,0,0,0,0,0,-1,1098,834,0,0
-119,190,0,0,0,0,0,0,0,0,0,-1,1105,834,0,0
-112,190,0,0,0,0,0,0,0,0,0,-1,1112,834,0,0
-105,190,0,0,0,0,0,0,0,0,0,-1,1119,834,0,0
-98,190,0,0,0,0,0,0,0,0,0,-1,1126,834,0,0
-91,190,0,0,0,0,0,0,0,0,0,-1,1133,834,0,0
-84,190,0,0,0,0,0,0,0,0,0,-1,1140,834,0,0
-77,190,0,0,0,0,0,0,0,0,0,-1,1147,834,0,0
-70,190,0,0,0,0,0,0,0,0,0,-1,1154,834,0,0
-63,190,0,0,0,0,0,0,0,0,0,-1,1161,834,0,0
-56,190,0,0,0,0,0,0,0,0,0,-1,1168,834,0,0
-49,190,0,0,0,0,0,0,0,0,0,-1,1175,834,0,0
-42,190,0,0,0,0,0,0,0,0,0,-1,1182,834,0,0
-35,190,0,0,0,0,0,0,0,0,0,-1,1189,834,0,0
-28,190,0,0,0,0,0,0,0,0,0,-1,1196,834,0,0
-21,190,0,0,0,0,0,0,0,0,0,-1,1203,834,0,0
-14,190,0,0,0,0,0,0,0,0,0,-1,1210,834,0,0
-7,190,0,0,0,0,0,0,0,0,0,-1,1217,834,0,0
0,190,0,0,0,0,0,0,0,0,0,-1,1224,834,0,0
7,190,0,0,0,0,0,0,0,0,0,-1,1231,834,0,0
14,190,0,0,0,0,0,0,0,0,0,-1,1238,834,0,0
21,190,0,0,0,0,0,0,0,0,0,-1,1245,834,0,0
28,190,0,0,0,0,0,0,0,0,0,-1,1252,834,0,0
35,190,0,0,0,0,0,0,0,0,0,-1,1259,834,0,0
42,190,0,0,0,0,0,0,0,0,0,-1,1266,834,0,0
49,190,0,0,0,0,0,0,0,0,0,-1,1273,834,0,0
56,190,0,0,0,0,0,0,0,0,0,-1,1280,834,0,0
63,190,0,0,0,0,0,0,0,0,0,-1,1287,834,0,0
70,190,0,0,0,0,0,0,0,0,0,-1,1294,834,0,0
77,190,0,0,0,0,0,0,0,0,0,-1,1301,834,0,0
84,190,0,0,0,0,0,0,0,0,0,-1,1308,834,0,0
91,190,0,0,0,0,0,0,0,0,0,-1,1315,834,0,0
98,190,0,0,0,0,0,0,0,0,0,-1,1322,834,0,0
105,190,0,0,0,0,0,0,0,0,0,-1,1329,834,0,0
112,190,0,0,0,0,0,0,0,0,0,-1,1336,834,0,0
119,190,0,0,0,0,0,0,0,0,0,-1,1343,834,0,0
126,190,0,0,0,0,0,0,0,0,0,-1,1350,834,0,0
133,190,0,0,0,0,0,0,0,0,0,-1,1357,834,0,0
140,190,0,0,0,0,0,0,0,0,0,-1,1364,834,0,0
147,190,0,0,0,0,0,0,0,0,0,-1,1371,834,0,0
154,190,0,0,0,0,0,0,0,0,0,-1,1378,834,0,0
161,190,0,0,0,0,0,0,0,0,0,-1,1385,834,0,0
168,190,0,0,0,0,0,0,0,0,0,-1,1392,834,0,0
175,190,0,0,0,0,0,0,0,0,0,-1,1399,834,0,0
182,190,0,0,0,0,0,0,0,0,0,-1,1406,834,0,0
189,190,0,0,0,0,0,0,0,0,0,-1,1413,834,0,0
196,190,0,0,0,0,0,0,0,0,0,-1,1420,834,0,0
203,190,0,0,0,0,0,0,0,0,0,-1,1427,834,0,0
210,190,0,0,0,0,0,0,0,0,0,-1,1434,834,0,0
217,190,0,0,0,0,0,0,0,0,0,-1,1441,834,0,0
224,190,0,0,0,0,0,0,0,0,0,-1,1448,834,0,0
231,190,0,0,0,0,0,0,0,0,0,-1,1455,834,0,0
238,190,0,0,0,0,0,0,0,0,0,-1,1462,834,0,0
245,190,0,0,0,0,0,0,0,0,0,-1,1469,834,0,0
252,190,0,0,0,0,0,0,0,0,0,-1,1476,834,0,0
259,190,0,0,0,0,0,0,0,0,0,-1,1483,834,0,0
266,190,0,0,0,0,0,0,0,0,0,-1,1490,834,0,0
273,190,0,0,0,0,0,0,0,0,0,-1,1497,834,0,0
280,190,0,0,0,0,0,0,0,0,0,-1,1504,834,0,0
287,190,0,0,0,0,0,0,0,0,0,-1,1511,834,0,0
294,190,0,0,0,0,0,0,0,0,0,-1,1518,834,0,0
301,190,0,0,0,0,0,0,0,0,0,-1,1525,834,0,0
308,190,0,0,0,0,0,0,0,0,0,-1,1532,834,0,0
315,190,0,0,0,0,0,0,0,0,0,-1,1539,834,0,0
322,190,0,0,0,0,0,0,0,0,0,-1,1546,834,0,0
329,190,0,0,0,0,0,0,0,0,0,-1,1553,834,0,0
336,190,0,0,0,0,0,0,0,0,0,-1,1560,834,0,0
343,190,0,0,0,0,0,0,0,0,0,-1,1567,834,0,0
350,190,0,0,0,0,0,0,0,0,0,-1,1574,834,0,0
357,190,0,0,0,0,0,0,0,0,0,-1,1581,834,0,0
364,190,0,0,0,0,0,0,0,0,0,-1,1588,834,0,0
371,190,0,0,0,0,0,0,0,0,0,-1,1595,834,0,0
378,190,0,0,0,0,0,0,0,0,0,-1,1602,834,0,0
385,190,0,0,0,0,0,0,0,0,0,-1,1609,834,0,0
392,190,0,0,0,0,0,0,0,0,0,-1,1616,834,0,0
399,190,0,0,0,0,0,0,0,0,0,-1,1623,834,0,0
406,190,0,0,0,0,0,0,0,0,0,-1,1630,834,0,0
413,190,0,0,0,0,0,0,0,0,0,-1,1637,834,0,0
420,190,0,0,0,0,0,0,0,0,0,-1,1644,834,0,0
427,190,0,0,0,0,0,0,0,0,0,-1,1651,834,0,0
434,190,0,0,0,0,0,0,0,0,0,-1,1658,834,0,0
441,190,0,0,0,0,0,0,0,0,0,-1,1665,834,0,0
448,190,0,0,0,0,0,0,0,0,0,-1,1672,834,0,0
455,190,0,0,0,0,0,0,0,0,0,-1,1679,834,0,0
462,190,0,0,0,0,0,0,0,0,0,-1,1686,834,0,0
469,190,0,0,0,0,0,0,0,0,0,-1,1693,834,0,0
476,190,0,0,0,0,0,0,0,0,0,-1,1700,834,0,0
483,190,0,0,0,0,0,0,0,0,0,-1,1707,834,0,0
490,190,0,0,0,0,0,0,0,0,0,-1,1714,834,0,0
497,190,0,0,0,0,0,0,0,0,0,-1,1721,834,0,0
504,190,0,0,0,0,0,0,0,0,0,-1,1728,834,0,0
511,190,0,0,0,0,0,0,0,0,0,-1,1735,834,0,0
518,190,0,0,0,0,0,0,0,0,0,-1,1742,834,0,0
525,190,0,0,0,0,0,0,0,0,0,-1,1749,834,0,0
532,190,0,0,0,0,0,0,0,0,0,-1,1756,834,0,0
539,190,0,0,0,0,0,0,0,0,0,-1,1763,834,0,0
546,190,0,0,0,0,0,0,0,0,0,-1,1770,834,0,0
553,190,0,0,0,0,0,0,0,0,0,-1,1777,834,0,0
560,190,0,0,0,0,0,0,0,0,0,-1,1784,834,0,0
567,190,0,0,0,0,0,0,0,0,0,-1,1791,834,0,0
574,190,0,0,0,0,0,0,0,0,0,-1,1798,834,0,0
581,190,0,0,0,0,0,0,0,0,0,-1,1805,834,0,0
588,190,0,0,0,0,0,0,0,0,0,-1,1812,834,0,0
595,190,0,0,0,0,0,0,0,0,0,-1,1819,834,0,0
602,190,75.3407,2.32526,0.00303244,-0.00130952,-0.00165005,0.00358834,-0.00186541,-0.324951,0.00320067,0.0459913,1826,834,75.3407,-2.32528
609,190,75.2473,2.35913,0.0023237,-0.000688254,-0.00109689,0.00268082,-0.00104537,-0.314753,0.00221932,0.0411283,1833,834,75.2473,-2.35913
616,190,75.4292,2.42877,0.00133433,-0.000186684,-0.000579856,0.00153017,-0.000382526,-0.325713,0.00116868,0.038755,1840,834,75.4292,-2.42879
623,190,75.7041,2.49207,0.000283367,0.000103738,-2.87368e-05,0.000287852,9.92532e-05,-0.154832,0.000168839,0.0392908,1847,834,75.7041,-2.49207
630,190,75.7869,2.43176,-0.000365117,0.000573706,0.000392249,0.000716019,-0.00050743,1.22275,0.000709772,0.0425322,1854,834,75.7869,-2.43175
637,190,75.5398,2.21332,-0.000649608,0.000600555,0.000308501,0.000672538,-0.000721592,1.34156,0.000805068,0.0360071,1861,834,75.5398,-2.21331
644,190,75.4226,2.29913,-0.000975249,0.000377925,2.97216e-05,0.000378578,-0.000975902,1.54885,0.000806959,0.0326711,1868,834,75.4226,-2.29911
651,190,75.3604,2.46222,0,0,0,0,0,0,0,-1,1875,834,75.3603,-2.46221
658,190,54.0599,3.0943,0,0,0,0,0,0,0,-1,1882,834,54.0599,-3.09428
665,190,25.9916,3.05157,0,0,0,0,0,0,0,-1,1889,834,25.9916,-3.05156
672,190,27.2662,1.70862,0,0,0,0,0,0,0,-1,1896,834,27.2662,-1.70861
679,190,59.4072,-1.29803,0,0,0,0,0,0,0,-1,1903,834,59.4072,1.29806
686,190,59.4514,-0.421448,-0.00207603,0.000253475,-0.00129181,0.000828097,-0.00265065,-1.15226,0.00209833,0.0301167,1910,834,59.4514,0.421474
693,190,59.4584,0.465332,-0.00184586,5.3644e-05,-0.00157917,0.000946666,-0.00273889,-1.05613,0.00221013,0.0375189,1917,834,59.4583,-0.465355
700,190,59.1572,1.26813,-0.00156953,-0.000127463,-0.00194355,0.00122449,-0.00292148,-0.963022,0.00245961,0.0256209,1924,834,59.1573,-1.26811
707,190,59.1342,2.15717,-0.00119096,-0.000112917,-0.00204017,0.00145824,-0.00276212,-0.914549,0.00247508,0.0142301,1931,834,59.1342,-2.15715
714,190,59.1141,3.01056,-7.01735e-05,-2.34092e-05,-0.00175216,0.00170553,-0.00179911,-0.79207,0.00202364,0.0126282,1938,834,59.1142,-3.01055
721,190,59.0829,3.87,0.0013172,-7.85154e-05,-0.00134952,0.00213862,-0.000899934,-0.546775,0.00180224,0.0117716,1945,834,59.0829,-3.87002
728,190,59.0122,4.73029,0.00289749,-0.000537791,-0.000949797,0.0031426,-0.000782905,-0.252559,0.002399,0.014215,1952,834,59.0122,-4.73029
735,190,58.9437,5.57849,0.00467635,-0.00141025,-0.000684877,0.00475246,-0.00148636,-0.110678,0.00376292,0.0136237,1959,834,58.9437,-5.57847
742,190,58.9015,6.50952,0.00672605,-0.00310155,-0.000652675,0.0067692,-0.00314471,-0.066026,0.00584992,0.0199209,1966,834,58.9015,-6.50952
749,190,58.957,7.63452,0.00915394,-0.00630385,-0.00108098,0.00922917,-0.00637907,-0.0694803,0.00906136,0.0429896,1973,834,58.957,-7.63455
756,190,58.9778,8.75018,0,0,0,0,0,0,0,-1,1980,834,58.9778,-8.75019
763,190,55.6498,8.02094,0,0,0,0,0,0,0,-1,1987,834,55.6498,-8.02092
770,190,54.7947,10.1494,0,0,0,0,0,0,0,-1,1994,834,54.7947,-10.1494
777,190,51.4365,10.3331,0,0,0,0,0,0,0,-1,2001,834,51.4366,-10.3331
784,190,0,0,0,0,0,0,0,0,0,-1,2008,834,0,0
791,190,0,0,0,0,0,0,0,0,0,-1,2015,834,0,0
798,190,0,0,0,0,0,0,0,0,0,-1,2022,834,0,0
805,190,0,0,0,0,0,0,0,0,0,-1,2029,834,0,0
812,190,0,0,0,0,0,0,0,0,0,-1,2036,834,0,0
-700,183,0,0,0,0,0,0,0,0,0,-1,524,841,0,0
-693,183,0,0,0,0,0,0,0,0,0,-1,531,841,0,0
-686,183,0,0,0,0,0,0,0,0,0,-1,538,841,0,0
-679,183,0,0,0,0,0,0,0,0,0,-1,545,841,0,0
-672,183,0,0,0,0,0,0,0,0,0,-1,552,841,0,0
-665,183,0,0,0,0,0,0,0,0,0,-1,559,841,0,0
-658,183,-56.7401,1.32843,0,0,0,0,0,0,0,-1,566,841,-56.7401,-1.32844
-651,183,-44.3059,12.2423,0,0,0,0,0,0,0,-1,573,841,-44.3059,-12.2423
-644,183,-44.0252,10.6679,0,0,0,0,0,0,0,-1,580,841,-44.0252,-10.6679
-637,183,-44.7339,9.56293,0,0,0,0,0,0,0,-1,587,841,-44.7339,-9.5629
-630,183,-43.67,8.18091,0,0,0,0,0,0,0,-1,594,841,-43.67,-8.1809
-623,183,-44.5736,6.6593,0,0,0,0,0,0,0,-1,601,841,-44.5736,-6.65929
-616,183,-44.5121,5.89423,0.00271064,0.00140732,0.000689706,0.00300785,0.00111011,0.406877,0.00175632,0.0392389,608,841,-44.5121,-5.89423
-609,183,-44.4666,5.15759,0.00126079,0.00157235,0.00122589,0.00265232,0.000180818,0.848598,0.00171113,0.0189563,615,841,-44.4666,-5.15757
-602,183,-44.5128,4.32813,0.000179403,0.00158987,0.00151952,0.00255984,-0.000790566,1.00266,0.00202227,0.012528,622,841,-44.5128,-4.32814
-595,183,-44.5495,3.41479,-0.000665962,0.0016055,0.00177758,0.00257919,-0.00163965,1.06967,0.0024558,0.0125108,629,841,-44.5495,-3.41482
-588,183,-44.5764,2.52673,-0.00119206,0.00149763,0.0020707,0.00262188,-0.00231631,1.0734,0.00285288,0.0158085,636,841,-44.5763,-2.52674
-581,183,-44.6636,1.66797,-0.00138495,0.00157111,0.00231503,0.0028397,-0.00265354,1.0695,0.00317213,0.0165735,643,841,-44.6636,-1.66796
-574,183,-44.682,0.808289,-0.00149068,0.00137462,0.00229723,0.00264932,-0.00276538,1.06421,0.00312642,0.0225043,650,841,-44.682,-0.808285
-567,183,-44.515,-0.323914,0,0,0,0,0,0,0,-1,657,841,-44.515,0.323895
-560,183,-34.0303,-1.05511,0,0,0,0,0,0,0,-1,664,841,-34.0303,1.05511
-553,183,-32.2224,-1.71942,0,0,0,0,0,0,0,-1,671,841,-32.2224,1.71944
-546,183,-27.8053,-1.91199,0,0,0,0,0,0,0,-1,678,841,-27.8053,1.91201
-539,183,-16.8032,-0.417297,0,0,0,0,0,0,0,-1,685,841,-16.8032,0.41732
-532,183,-29.9686,0.953613,0,0,0,0,0,0,0,-1,692,841,-29.9686,-0.953627
-525,183,-55.6847,0.842468,0,0,0,0,0,0,0,-1,699,841,-55.6847,-0.842446
-518,183,-59.6412,0.0793457,0,0,0,0,0,0,0,-1,706,841,-59.6412,-0.0793375
-511,183,-59.6447,0.0438232,-0.00128265,0.000829882,0.00171868,0.00179093,-0.0022437,1.06093,0.00233428,0.042007,713,841,-59.6447,-0.0438505
-504,183,-59.5415,0.307678,-0.00096708,0.000983628,0.00110024,0.0014786,-0.00146205,1.14805,0.00169779,0.0421001,720,841,-59.5415,-0.307671
-497,183,-59.5554,0.656372,0.000774341,0.00145481,-0.000815662,0.00199835,0.000230798,-0.98299,0.00126236,0.0431471,727,841,-59.5554,-0.65638
-490,183,-59.494,0.444885,0.00473914,0.00268307,-0.00341754,0.00727992,0.000142295,-0.639297,0.00480655,0.0414688,734,841,-59.494,-0.444898
-483,183,0,0,0,0,0,0,0,0,0,-1,741,841,0,0
-476,183,0,0,0,0,0,0,0,0,0,-1,748,841,0,0
-469,183,0,0,0,0,0,0,0,0,0,-1,755,841,0,0
-462,183,0,0,0,0,0,0,0,0,0,-1,762,841,0,0
-455,183,0,0,0,0,0,0,0,0,0,-1,769,841,0,0
-448,183,0,0,0,0,0,0,0,0,0,-1,776,841,0,0
-441,183,0,0,0,0,0,0,0,0,0,-1,783,841,0,0
-434,183,0,0,0,0,0,0,0,0,0,-1,790,841,0,0
-427,183,0,0,0,0,0,0,0,0,0,-1,797,841,0,0
-420,183,0,0,0,0,0,0,0,0,0,-1,804,841,0,0
-413,183,0,0,0,0,0,0,0,0,0,-1,811,841,0,0
-406,183,0,0,0,0,0,0,0,0,0,-1,818,841,0,0
-399,183,0,0,0,0,0,0,0,0,0,-1,825,841,0,0
-392,183,0,0,0,0,0,0,0,0,0,-1,832,841,0,0
-385,183,0,0,0,0,0,0,0,0,0,-1,839,841,0,0
-378,183,0,0,0,0,0,0,0,0,0,-1,846,841,0,0
-371,183,0,0,0,0,0,0,0,0,0,-1,853,841,0,0
-364,183,0,0,0,0,0,0,0,0,0,-1,860,841,0,0
-357,183,0,0,0,0,0,0,0,0,0,-1,867,841,0,0
-350,183,0,0,0,0,0,0,0,0,0,-1,874,841,0,0
-343,183,0,0,0,0,0,0,0,0,0,-1,881,841,0,0
-336,183,0,0,0,0,0,0,0,0,0,-1,888,841,0,0
-329,183,0,0,0,0,0,0,0,0,0,-1,895,841,0,0
-322,183,0,0,0,0,0,0,0,0,0,-1,902,841,0,0
-315,183,0,0,0,0,0,0,0,0,0,-1,909,841,0,0
-308,183,0,0,0,0,0,0,0,0,0,-1,916,841,0,0
-301,183,0,0,0,0,0,0,0,0,0,-1,923,841,0,0
-294,183,0,0,0,0,0,0,0,0,0,-1,930,841,0,0
-287,183,0,0,0,0,0,0,0,0,0,-1,937,841,0,0
-280,183,0,0,0,0,0,0,0,0,0,-1,944,841,0,0
-273,183,0,0,0,0,0,0,0,0,0,-1,951,841,0,0
-266,183,0,0,0,0,0,0,0,0,0,-1,958,841,0,0
-259,183,0,0,0,0,0,0,0,0,0,-1,965,841,0,0
-252,183,0,0,0,0,0,0,0,0,0,-1,972,841,0,0
-245,183,0,0,0,0,0,0,0,0,0,-1,979,841,0,0
-238,183,0,0,0,0,0,0,0,0,0,-1,986,841,0,0
-231,183,0,0,0,0,0,0,0,0,0,-1,993,841,0,0
-224,183,0,0,0,0,0,0,0,0,0,-1,1000,841,0,0
-217,183,0,0,0,0,0,0,0,0,0,-1,1007,841,0,0
-210,183,0,0,0,0,0,0,0,0,0,-1,1014,841,0,0
-203,183,0,0,0,0,0,0,0,0,0,-1,1021,841,0,0
-196,183,0,0,0,0,0,0,0,0,0,-1,1028,841,0,0
-189,183,0,0,0,0,0,0,0,0,0,-1,1035,841,0,0
-182,183,0,0,0,0,0,0,0,0,0,-1,1042,841,0,0
-175,183,0,0,0,0,0,0,0,0,0,-1,1049,841,0,0
-168,183,0,0,0,0,0,0,0,0,0,-1,1056,841,0,0
-161,183,0,0,0,0,0,0,0,0,0,-1,1063,841,0,0
-154,183,0,0,0,0,0,0,0,0,0,-1,1070,841,0,0
-147,183,0,0,0,0,0,0,0,0,0,-1,1077,841,0,0
-140,183,0,0,0,0,0,0,0,0,0,-1,1084,841,0,0
-133,183,0,0,0,0,0,0,0,0,0,-1,1091,841,0,0
-126,183,0,0,0,0,0,0,0,0,0,-1,1098,841,0,0
-119,183,0,0,0,0,0,0,0,0,0,-1,1105,841,0,0
-112,183,0,0,0,0,0,0,0,0,0,-1,1112,841,0,0
-105,183,0,0,0,0,0,0,0,0,0,-1,1119,841,0,0
-98,183,0,0,0,0,0,0,0,0,0,-1,1126,841,0,0
-91,183,0,0,0,0,0,0,0,0,0,-1,1133,841,0,0
-84,183,0,0,0,0,0,0,0,0,0,-1,1140,841,0,0
-77,183,0,0,0,0,0,0,0,0,0,-1,1147,841,0,0
-70,183,0,0,0,0,0,0,0,0,0,-1,1154,841,0,0
-63,183,0,0,0,0,0,0,0,0,0,-1,1161,841,0,0
-56,183,0,0,0,0,0,0,0,0,0,-1,1168,841,0,0
-49,183,0,0,0,0,0,0,0,0,0,-1,1175,841,0,0
-42,183,0,0,0,0,0,0,0,0,0,-1,1182,841,0,0
-35,183,0,0,0,0,0,0,0,0,0,-1,1189,841,0,0
-28,183,0,0,0,0,0,0,0,0,0,-1,1196,841,0,0
-21,183,0,0,0,0,0,0,0,0,0,-1,1203,841,0,0
-14,183,0,0,0,0,0,0,0,0,0,-1,1210,841,0,0
-7,183,0,0,0,0,0,0,0,0,0,-1,1217,841,0,0
0,183,0,0,0,0,0,0,0,0,0,-1,1224,841,0,0
7,183,0,0,0,0,0,0,0,0,0,-1,1231,841,0,0
14,183,0,0,0,0,0,0,0,0,0,-1,1238,841,0,0
21,183,0,0,0,0,0,0,0,0,0,-1,1245,841,0,0
28,183,0,0,0,0,0,0,0,0,0,-1,1252,841,0,0
35,183,0,0,0,0,0,0,0,0,0,-1,1259,841,0,0
42,183,0,0,0,0,0,0,0,0,0,-1,1266,841,0,0
49,183,0,0,0,0,0,0,0,0,0,-1,1273,841,0,0
56,183,0,0,0,0,0,0,0,0,0,-1,1280,841,0,0
63,183,0,0,0,0,0,0,0,0,0,-1,1287,841,0,0
70,183,0,0,0,0,0,0,0,0,0,-1,1294,841,0,0
77,183,0,0,0,0,0,0,0,0,0,-1,1301,841,0,0
84,183,0,0,0,0,0,0,0,0,0,-1,1308,841,0,0
91,183,0,0,0,0,0,0,0,0,0,-1,1315,841,0,0
98,183,0,0,0,0,0,0,0,0,0,-1,1322,841,0,0
105,183,0,0,0,0,0,0,0,0,0,-1,1329,841,0,0
112,183,0,0,0,0,0,0,0,0,0,-1,1336,841,0,0
119,183,0,0,0,0,0,0,0,0,0,-1,1343,841,0,0
126,183,0,0,0,0,0,0,0,0,0,-1,1350,841,0,0
133,183,0,0,0,0,0,0,0,0,0,-1,1357,841,0,0
140,183,0,0,0,0,0,0,0,0,0,-1,1364,841,0,0
147,183,0,0,0,0,0,0,0,0,0,-1,1371,841,0,0
154,183,0,0,0,0,0,0,0,0,0,-1,1378,841,0,0
161,183,0,0,0,0,0,0,0,0,0,-1,1385,841,0,0
168,183,0,0,0,0,0,0,0,0,0,-1,1392,841,0,0
175,183,0,0,0,0,0,0,0,0,0,-1,1399,841,0,0
182,183,0,0,0,0,0,0,0,0,0,-1,1406,841,0,0
189,183,0,0,0,0,0,0,0,0,0,-1,1413,841,0,0
196,183,0,0,0,0,0,0,0,0,0,-1,1420,841,0,0
203,183,0,0,0,0,0,0,0,0,0,-1,1427,841,0,0
210,183,0,0,0,0,0,0,0,0,0,-1,1434,841,0,0
217,183,0,0,0,0,0,0,0,0,0,-1,1441,841,0,0
224,183,0,0,0,0,0,0,0,0,0,-1,1448,841,0,0
231,183,0,0,0,0,0,0,0,0,0,-1,1455,841,0,0
238,183,0,0,0,0,0,0,0,0,0,-1,1462,841,0,0
245,183,0,0,0,0,0,0,0,0,0,-1,1469,841,0,0
252,183,0,0,0,0,0,0,0,0,0,-1,1476,841,0,0
259,183,0,0,0,0,0,0,0,0,0,-1,1483,841,0,0
266,183,0,0,0,0,0,0,0,0,0,-1,1490,841,0,0
273,183,0,0,0,0,0,0,0,0,0,-1,1497,841,0,0
280,183,0,0,0,0,0,0,0,0,0,-1,1504,841,0,0
287,183,0,0,0,0,0,0,0,0,0,-1,1511,841,0,0
294,183,0,0,0,0,0,0,0,0,0,-1,1518,841,0,0
301,183,0,0,0,0,0,0,0,0,0,-1,1525,841,0,0
308,183,0,0,0,0,0,0,0,0,0,-1,1532,841,0,0
315,183,0,0,0,0,0,0,0,0,0,-1,1539,841,0,0
322,183,0,0,0,0,0,0,0,0,0,-1,1546,841,0,0
329,183,0,0,0,0,0,0,0,0,0,-1,1553,841,0,0
336,183,0,0,0,0,0,0,0,0,0,-1,1560,841,0,0
343,183,0,0,0,0,0,0,0,0,0,-1,1567,841,0,0
350,183,0,0,0,0,0,0,0,0,0,-1,1574,841,0,0
357,183,0,0,0,0,0,0,0,0,0,-1,1581,841,0,0
364,183,0,0,0,0,0,0,0,0,0,-1,1588,841,0,0
371,183,0,0,0,0,0,0,0,0,0,-1,1595,841,0,0
378,183,0,0,0,0,0,0,0,0,0,-1,1602,841,0,0
385,183,0,0,0,0,0,0,0,0,0,-1,1609,841,0,0
392,183,0,0,0,0,0,0,0,0,0,-1,1616,841,0,0
399,183,0,0,0,0,0,0,0,0,0,-1,1623,841,0,0
406,183,0,0,0,0,0,0,0,0,0,-1,1630,841,0,0
413,183,0,0,0,0,0,0,0,0,0,-1,1637,841,0,0
420,183,0,0,0,0,0,0,0,0,0,-1,1644,841,0,0
427,183,0,0,0,0,0,0,0,0,0,-1,1651,841,0,0
434,183,0,0,0,0,0,0,0,0,0,-1,1658,841,0,0
441,183,0,0,0,0,0,0,0,0,0,-1,1665,841,0,0
448,183,0,0,0,0,0,0,0,0,0,-1,1672,841,0,0
455,183,0,0,0,0,0,0,0,0,0,-1,1679,841,0,0
462,183,0,0,0,0,0,0,0,0,0,-1,1686,841,0,0
469,183,0,0,0,0,0,0,0,0,0,-1,1693,841,0,0
476,183,0,0,0,0,0,0,0,0,0,-1,1700,841,0,0
483,183,0,0,0,0,0,0,0,0,0,-1,1707,841,0,0
490,183,0,0,0,0,0,0,0,0,0,-1,1714,841,0,0
497,183,0,0,0,0,0,0,0,0,0,-1,1721,841,0,0
504,183,0,0,0,0,0,0,0,0,0,-1,1728,841,0,0
511,183,0,0,0,0,0,0,0,0,0,-1,1735,841,0,0
518,183,0,0,0,0,0,0,0,0,0,-1,1742,841,0,0
525,183,0,0,0,0,0,0,0,0,0,-1,1749,841,0,0
532,183,0,0,0,0,0,0,0,0,0,-1,1756,841,0,0
539,183,0,0,0,0,0,0,0,0,0,-1,1763,841,0,0
546,183,0,0,0,0,0,0,0,0,0,-1,1770,841,0,0
553,183,0,0,0,0,0,0,0,0,0,-1,1777,841,0,0
560,183,0,0,0,0,0,0,0,0,0,-1,1784,841,0,0
567,183,0,0,0,0,0,0,0,0,0,-1,1791,841,0,0
574,183,0,0,0,0,0,0,0,0,0,-1,1798,841,0,0
581,183,0,0,0,0,0,0,0,0,0,-1,1805,841,0,0
588,183,0,0,0,0,0,0,0,0,0,-1,1812,841,0,0
595,183,0,0,0,0,0,0,0,0,0,-1,1819,841,0,0
602,183,0,0,0,0,0,0,0,0,0,-1,1826,841,0,0
609,183,75.2117,2.57971,0.00192136,-0.000257026,-0.0019134,0.00303385,-0.00136952,-0.526649,0.00260212,0.0386965,1833,841,75.2117,-2.57972
616,183,75.2552,2.54987,0.00130484,0.000242987,-0.00119035,0.0020773,-0.000529476,-0.575627,0.001591,0.0387592,1840,841,75.2553,-2.54987
623,183,75.5676,2.46838,0.000434558,0.000453518,-0.000404685,0.000848834,3.92422e-05,-0.797109,0.000553273,0.0430203,1847,841,75.5676,-2.46839
630,183,75.5222,2.35889,-0.000349691,0.000813101,0.000243871,0.000862176,-0.000398767,1.37221,0.000744213,0.0417154,1854,841,75.5222,-2.35891
637,183,75.5215,2.24969,-0.000871375,0.000877436,0.000311209,0.000931166,-0.000925105,1.39983,0.00107172,0.0352257,1861,841,75.5215,-2.2497
644,183,75.3527,2.26141,-0.00130526,0.000615682,2.35774e-05,0.000615972,-0.00130555,1.55852,0.00113296,0.0313188,1868,841,75.3527,-2.26144
651,183,75.4297,2.28369,-0.00154779,0.000505629,-0.000232926,0.000531719,-0.00157388,-1.45925,0.00126433,0.0408914,1875,841,75.4296,-2.28369
658,183,75.5262,2.21143,0,0,0,0,0,0,0,-1,1882,841,75.5263,-2.21141
665,183,38.4337,2.66992,0,0,0,0,0,0,0,-1,1889,841,38.4337,-2.6699
672,183,29.168,1.54572,0,0,0,0,0,0,0,-1,1896,841,29.168,-1.54574
679,183,60.3512,-1.15088,0,0,0,0,0,0,0,-1,1903,841,60.3512,1.1509
686,183,60.3381,-0.333374,-0.00246539,0.000321231,-0.0015031,0.000977462,-0.00312162,-1.15915,0.00247217,0.0387096,1910,841,60.3381,0.333346
693,183,60.2815,0.434265,-0.00222074,0.000170525,-0.00176757,0.00110886,-0.00315908,-1.08276,0.00255711,0.035782,1917,841,60.2815,-0.434257
700,183,60.0089,1.32629,0,0,0,0,0,0,0,-1,1924,841,60.0089,-1.32627
707,183,60.0026,2.21063,-0.00172621,1.69282e-05,-0.00239383,0.00169291,-0.0034022,-0.959984,0.00299634,0.0143867,1931,841,60.0026,-2.21064
714,183,60.0016,3.04535,-0.00067193,0.000128861,-0.00224952,0.00201334,-0.00255641,-0.873472,0.00264455,0.0171076,1938,841,60.0016,-3.04535
721,183,59.9658,3.91461,0.000716648,0.000166936,-0.00192719,0.00238848,-0.0015049,-0.714566,0.00226705,0.0159003,1945,841,59.9658,-3.91461
728,183,59.9001,4.77441,0.00233527,-0.000178026,-0.0015379,0.00306465,-0.000907404,-0.442852,0.00240336,0.0145554,1952,841,59.9002,-4.77443
735,183,59.8623,5.60272,0.00418169,-0.000830186,-0.00126963,0.00448497,-0.00113346,-0.234476,0.00343079,0.0141762,1959,841,59.8623,-5.60274
742,183,59.8269,6.48431,0.00630159,-0.002071,-0.00120965,0.00647286,-0.00224226,-0.140647,0.00522555,0.0145674,1966,841,59.8269,-6.48431
749,183,59.897,7.64917,0.00884966,-0.00448095,-0.00155046,0.00902761,-0.00465891,-0.114276,0.00803498,0.038452,1973,841,59.897,-7.64918
756,183,59.9812,8.8576,0,0,0,0,0,0,0,-1,1980,841,59.9813,-8.85763
763,183,59.205,10.0618,0,0,0,0,0,0,0,-1,1987,841,59.205,-10.0618
770,183,51.5659,9.50665,0,0,0,0,0,0,0,-1,1994,841,51.5659,-9.50663
777,183,42.1948,7.22906,0,0,0,0,0,0,0,-1,2001,841,42.1948,-7.22905
784,183,0,0,0,0,0,0,0,0,0,-1,2008,841,0,0
791,183,0,0,0,0,0,0,0,0,0,-1,2015,841,0,0
798,183,0,0,0,0,0,0,0,0,0,-1,2022,841,0,0
805,183,0,0,0,0,0,0,0,0,0,-1,2029,841,0,0
812,183,0,0,0,0,0,0,0,0,0,-1,2036,841,0,0
-700,176,0,0,0,0,0,0,0,0,0,-1,524,848,0,0
-693,176,0,0,0,0,0,0,0,0,0,-1,531,848,0,0
-686,176,0,0,0,0,0,0,0,0,0,-1,538,848,0,0
-679,176,0,0,0,0,0,0,0,0,0,-1,545,848,0,0
-672,176,0,0,0,0,0,0,0,0,0,-1,552,848,0,0
-665,176,-59.6962,8.75854,0,0,0,0,0,0,0,-1,559,848,-59.6962,-8.75853
-658,176,-59.6349,7.95142,0,0,0,0,0,0,0,-1,566,848,-59.6349,-7.95144
-651,176,-44.4019,11.7273,0,0,0,0,0,0,0,-1,573,848,-44.4018,-11.7273
-644,176,-44.2437,10.2178,0,0,0,0,0,0,0,-1,580,848,-44.2437,-10.2178
-637,176,-44.488,9.01129,0,0,0,0,0,0,0,-1,587,848,-44.488,-9.01132
-630,176,-45.0089,7.84039,0,0,0,0,0,0,0,-1,594,848,-45.0088,-7.84039
-623,176,-45.148,6.93414,0.00344503,0.00204382,-0.000220954,0.00347905,0.00200981,-0.152752,0.0020167,0.0450363,601,848,-45.148,-6.93413
-616,176,-45.2463,6.0423,0.00162875,0.00164724,0.000773372,0.00241142,0.000864564,0.791375,0.00141069,0.028626,608,848,-45.2463,-6.04231
-609,176,-45.3466,5.21106,0.000326554,0.00158271,0.00148047,0.00256282,-0.000653555,0.986013,0.001963,0.013314,615,848,-45.3465,-5.21106
-602,176,-45.3792,4.34113,-0.000790506,0.00149145,0.00196944,0.00262656,-0.00192561,1.04794,0.00263856,0.0129386,622,848,-45.3792,-4.34115
-595,176,-45.4321,3.45233,-0.00174855,0.00142185,0.00239295,0.00270703,-0.00303373,1.07794,0.00331622,0.0124321,629,848,-45.4321,-3.45234
-588,176,-45.464,2.58838,-0.00228499,0.00123093,0.00270906,0.00270243,-0.00375649,1.07321,0.00374557,0.0154289,636,848,-45.464,-2.58835
-581,176,-45.5692,1.77924,-0.0023983,0.00127587,0.00289901,0.00287086,-0.00399329,1.06781,0.00398064,0.0154887,643,848,-45.5692,-1.77923
-574,176,-45.694,0.943359,-0.00239987,0.000979503,0.00280407,0.00256363,-0.003984,1.05656,0.00380981,0.0312613,650,848,-45.694,-0.943375
-567,176,-45.6943,-0.0415649,0,0,0,0,0,0,0,-1,657,848,-45.6943,0.0415813
-560,176,-31.6935,-0.0994873,0,0,0,0,0,0,0,-1,664,848,-31.6936,0.0994584
-553,176,-29.4605,-1.50214,0,0,0,0,0,0,0,-1,671,848,-29.4605,1.50211
-546,176,-16.657,-0.403198,0,0,0,0,0,0,0,-1,678,848,-16.657,0.403182
-539,176,-22.7061,1.48657,0,0,0,0,0,0,0,-1,685,848,-22.7061,-1.48657
-532,176,-38.8326,1.29749,0,0,0,0,0,0,0,-1,692,848,-38.8326,-1.29747
-525,176,-59.5065,0.222046,0,0,0,0,0,0,0,-1,699,848,-59.5065,-0.222064
-518,176,-59.5884,0.294983,-0.00067943,0.000740727,0.00151689,0.00170551,-0.00164421,1.00431,0.00193407,0.0414337,706,848,-59.5885,-0.29497
-511,176,-59.6273,0.251282,-0.00117269,0.000653615,0.00147343,0.00147391,-0.00199299,1.0628,0.00200908,0.0384607,713,848,-59.6272,-0.251298
-504,176,-59.6698,0.282654,-0.000148048,0.00104579,0.000339321,0.00113549,-0.000237752,1.31235,0.000847436,0.0407076,720,848,-59.6698,-0.28263
-497,176,-59.6453,0.494934,0.00223393,0.00184991,-0.00195453,0.00400585,7.79843e-05,-0.736435,0.00264496,0.0399711,727,848,-59.6453,-0.494957
-490,176,-59.5159,0.457275,0.0064503,0.00311949,-0.0046263,0.00970183,-0.000132032,-0.612626,0.00651234,0.0384808,734,848,-59.5159,-0.457291
-483,176,0,0,0,0,0,0,0,0,0,-1,741,848,0,0
-476,176,0,0,0,0,0,0,0,0,0,-1,748,848,0,0
-469,176,0,0,0,0,0,0,0,0,0,-1,755,848,0,0
-462,176,0,0,0,0,0,0,0,0,0,-1,762,848,0,0
-455,176,0,0,0,0,0,0,0,0,0,-1,769,848,0,0
-448,176,0,0,0,0,0,0,0,0,0,-1,776,848,0,0
-441,176,0,0,0,0,0,0,0,0,0,-1,783,848,0,0
-434,176,0,0,0,0,0,0,0,0,0,-1,790,848,0,0
-427,176,0,0,0,0,0,0,0,0,0,-1,797,848,0,0
-420,176,0,0,0,0,0,0,0,0,0,-1,804,848,0,0
-413,176,0,0,0,0,0,0,0,0,0,-1,811,848,0,0
-406,176,0,0,0,0,0,0,0,0,0,-1,818,848,0,0
-399,176,0,0,0,0,0,0,0,0,0,-1,825,848,0,0
-392,176,0,0,0,0,0,0,0,0,0,-1,832,848,0,0
-385,176,0,0,0,0,0,0,0,0,0,-1,839,848,0,0
-378,176,0,0,0,0,0,0,0,0,0,-1,846,848,0,0
-371,176,0,0,0,0,0,0,0,0,0,-1,853,848,0,0
-364,176,0,0,0,0,0,0,0,0,0,-1,860,848,0,0
-357,176,0,0,0,0,0,0,0,0,0,-1,867,848,0,0
-350,176,0,0,0,0,0,0,0,0,0,-1,874,848,0,0
-343,176,0,0,0,0,0,0,0,0,0,-1,881,848,0,0
-336,176,0,0,0,0,0,0,0,0,0,-1,888,848,0,0
-329,176,0,0,0,0,0,0,0,0,0,-1,895,848,0,0
-322,176,0,0,0,0,0,0,0,0,0,-1,902,848,0,0
-315,176,0,0,0,0,0,0,0,0,0,-1,909,848,0,0
-308,176,0,0,0,0,0,0,0,0,0,-1,916,848,0,0
-301,176,0,0,0,0,0,0,0,0,0,-1,923,848,0,0
-294,176,0,0,0,0,0,0,0,0,0,-1,930,848,0,0
-287,176,0,0,0,0,0,0,0,0,0,-1,937,848,0,0
-280,176,0,0,0,0,0,0,0,0,0,-1,944,848,0,0
-273,176,0,0,0,0,0,0,0,0,0,-1,951,848,0,0
-266,176,0,0,0,0,0,0,0,0,0,-1,958,848,0,0
-259,176,0,0,0,0,0,0,0,0,0,-1,965,848,0,0
-252,176,0,0,0,0,0,0,0,0,0,-1,972,848,0,0
-245,176,0,0,0,0,0,0,0,0,0,-1,979,848,0,0
-238,176,0,0,0,0,0,0,0,0,0,-1,986,848,0,0
-231,176,0,0,0,0,0,0,0,0,0,-1,993,848,0,0
-224,176,0,0,0,0,0,0,0,0,0,-1,1000,848,0,0
-217,176,0,0,0,0,0,0,0,0,0,-1,1007,848,0,0
-210,176,0,0,0,0,0,0,0,0,0,-1,1014,848,0,0
-203,176,0,0,0,0,0,0,0,0,0,-1,1021,848,0,0
-196,176,0,0,0,0,0,0,0,0,0,-1,1028,848,0,0
-189,176,0,0,0,0,0,0,0,0,0,-1,1035,848,0,0
-182,176,0,0,0,0,0,0,0,0,0,-1,1042,848,0,0
-175,176,0,0,0,0,0,0,0,0,0,-1,1049,848,0,0
-168,176,0,0,0,0,0,0,0,0,0,-1,1056,848,0,0
-161,176,0,0,0,0,0,0,0,0,0,-1,1063,848,0,0
-154,176,0,0,0,0,0,0,0,0,0,-1,1070,848,0,0
-147,176,0,0,0,0,0,0,0,0,0,-1,1077,848,0,0
-140,176,0,0,0,0,0,0,0,0,0,-1,1084,848,0,0
-133,176,0,0,0,0,0,0,0,0,0,-1,1091,848,0,0
-126,176,0,0,0,0,0,0,0,0,0,-1,1098,848,0,0
-119,176,0,0,0,0,0,0,0,0,0,-1,1105,848,0,0
-112,176,0,0,0,0,0,0,0,0,0,-1,1112,848,0,0
-105,176,0,0,0,0,0,0,0,0,0,-1,1119,848,0,0
-98,176,0,0,0,0,0,0,0,0,0,-1,1126,848,0,0
-91,176,0,0,0,0,0,0,0,0,0,-1,1133,848,0,0
-84,176,0,0,0,0,0,0,0,0,0,-1,1140,848,0,0
-77,176,0,0,0,0,0,0,0,0,0,-1,1147,848,0,0
-70,176,0,0,0,0,0,0,0,0,0,-1,1154,848,0,0
-63,176,0,0,0,0,0,0,0,0,0,-1,1161,848,0,0
-56,176,0,0,0,0,0,0,0,0,0,-1,1168,848,0,0
-49,176,0,0,0,0,0,0,0,0,0,-1,1175,848,0,0
-42,176,0,0,0,0,0,0,0,0,0,-1,1182,848,0,0
-35,176,0,0,0,0,0,0,0,0,0,-1,1189,848,0,0
-28,176,0,0,0,0,0,0,0,0,0,-1,1196,848,0,0
-21,176,0,0,0,0,0,0,0,0,0,-1,1203,848,0,0
-14,176,0,0,0,0,0,0,0,0,0,-1,1210,848,0,0
-7,176,0,0,0,0,0,0,0,0,0,-1,1217,848,0,0
0,176,0,0,0,0,0,0,0,0,0,-1,1224,848,0,0
7,176,0,0,0,0,0,0,0,0,0,-1,1231,848,0,0
14,176,0,0,0,0,0,0,0,0,0,-1,1238,848,0,0
21,176,0,0,0,0,0,0,0,0,0,-1,1245,848,0,0
28,176,0,0,0,0,0,0,0,0,0,-1,1252,848,0,0
35,176,0,0,0,0,0,0,0,0,0,-1,1259,848,0,0
42,176,0,0,0,0,0,0,0,0,0,-1,1266,848,0,0
49,176,0,0,0,0,0,0,0,0,0,-1,1273,848,0,0
56,176,0,0,0,0,0,0,0,0,0,-1,1280,848,0,0
63,176,0,0,0,0,0,0,0,0,0,-1,1287,848,0,0
70,176,0,0,0,0,0,0,0,0,0,-1,1294,848,0,0
77,176,0,0,0,0,0,0,0,0,0,-1,1301,848,0,0
84,176,0,0,0,0,0,0,0,0,0,-1,1308,848,0,0
91,176,0,0,0,0,0,0,0,0,0,-1,1315,848,0,0
98,176,0,0,0,0,0,0,0,0,0,-1,1322,848,0,0
105,176,0,0,0,0,0,0,0,0,0,-1,1329,848,0,0
112,176,0,0,0,0,0,0,0,0,0,-1,1336,848,0,0
119,176,0,0,0,0,0,0,0,0,0,-1,1343,848,0,0
126,176,0,0,0,0,0,0,0,0,0,-1,1350,848,0,0
133,176,0,0,0,0,0,0,0,0,0,-1,1357,848,0,0
140,176,0,0,0,0,0,0,0,0,0,-1,1364,848,0,0
147,176,0,0,0,0,0,0,0,0,0,-1,1371,848,0,0
154,176,0,0,0,0,0,0,0,0,0,-1,1378,848,0,0
161,176,0,0,0,0,0,0,0,0,0,-1,1385,848,0,0
168,176,0,0,0,0,0,0,0,0,0,-1,1392,848,0,0
175,176,0,0,0,0,0,0,0,0,0,-1,1399,848,0,0
182,176,0,0,0,0,0,0,0,0,0,-1,1406,848,0,0
189,176,0,0,0,0,0,0,0,0,0,-1,1413,848,0,0
196,176,0,0,0,0,0,0,0,0,0,-1,1420,848,0,0
203,176,0,0,0,0,0,0,0,0,0,-1,1427,848,0,0
210,176,0,0,0,0,0,0,0,0,0,-1,1434,848,0,0
217,176,0,0,0,0,0,0,0,0,0,-1,1441,848,0,0
224,176,0,0,0,0,0,0,0,0,0,-1,1448,848,0,0
231,176,0,0,0,0,0,0,0,0,0,-1,1455,848,0,0
238,176,0,0,0,0,0,0,0,0,0,-1,1462,848,0,0
245,176,0,0,0,0,0,0,0,0,0,-1,1469,848,0,0
252,176,0,0,0,0,0,0,0,0,0,-1,1476,848,0,0
259,176,0,0,0,0,0,0,0,0,0,-1,1483,848,0,0
266,176,0,0,0,0,0,0,0,0,0,-1,1490,848,0,0
273,176,0,0,0,0,0,0,0,0,0,-1,1497,848,0,0
280,176,0,0,0,0,0,0,0,0,0,-1,1504,848,0,0
287,176,0,0,0,0,0,0,0,0,0,-1,1511,848,0,0
294,176,0,0,0,0,0,0,0,0,0,-1,1518,848,0,0
301,176,0,0,0,0,0,0,0,0,0,-1,1525,848,0,0
308,176,0,0,0,0,0,0,0,0,0,-1,1532,848,0,0
315,176,0,0,0,0,0,0,0,0,0,-1,1539,848,0,0
322,176,0,0,0,0,0,0,0,0,0,-1,1546,848,0,0
329,176,0,0,0,0,0,0,0,0,0,-1,1553,848,0,0
336,176,0,0,0,0,0,0,0,0,0,-1,1560,848,0,0
343,176,0,0,0,0,0,0,0,0,0,-1,1567,848,0,0
350,176,0,0,0,0,0,0,0,0,0,-1,1574,848,0,0
357,176,0,0,0,0,0,0,0,0,0,-1,1581,848,0,0
364,176,0,0,0,0,0,0,0,0,0,-1,1588,848,0,0
371,176,0,0,0,0,0,0,0,0,0,-1,1595,848,0,0
378,176,0,0,0,0,0,0,0,0,0,-1,1602,848,0,0
385,176,0,0,0,0,0,0,0,0,0,-1,1609,848,0,0
392,176,0,0,0,0,0,0,0,0,0,-1,1616,848,0,0
399,176,0,0,0,0,0,0,0,0,0,-1,1623,848,0,0
406,176,0,0,0,0,0,0,0,0,0,-1,1630,848,0,0
413,176,0,0,0,0,0,0,0,0,0,-1,1637,848,0,0
420,176,0,0,0,0,0,0,0,0,0,-1,1644,848,0,0
427,176,0,0,0,0,0,0,0,0,0,-1,1651,848,0,0
434,176,0,0,0,0,0,0,0,0,0,-1,1658,848,0,0
441,176,0,0,0,0,0,0,0,0,0,-1,1665,848,0,0
448,176,0,0,0,0,0,0,0,0,0,-1,1672,848,0,0
455,176,0,0,0,0,0,0,0,0,0,-1,1679,848,0,0
462,176,0,0,0,0,0,0,0,0,0,-1,1686,848,0,0
469,176,0,0,0,0,0,0,0,0,0,-1,1693,848,0,0
476,176,0,0,0,0,0,0,0,0,0,-1,1700,848,0,0
483,176,0,0,0,0,0,0,0,0,0,-1,1707,848,0,0
490,176,0,0,0,0,0,0,0,0,0,-1,1714,848,0,0
497,176,0,0,0,0,0,0,0,0,0,-1,1721,848,0,0
504,176,0,0,0,0,0,0,0,0,0,-1,1728,848,0,0
511,176,0,0,0,0,0,0,0,0,0,-1,1735,848,0,0
518,176,0,0,0,0,0,0,0,0,0,-1,1742,848,0,0
525,176,0,0,0,0,0,0,0,0,0,-1,1749,848,0,0
532,176,0,0,0,0,0,0,0,0,0,-1,1756,848,0,0
539,176,0,0,0,0,0,0,0,0,0,-1,1763,848,0,0
546,176,0,0,0,0,0,0,0,0,0,-1,1770,848,0,0
553,176,0,0,0,0,0,0,0,0,0,-1,1777,848,0,0
560,176,0,0,0,0,0,0,0,0,0,-1,1784,848,0,0
567,176,0,0,0,0,0,0,0,0,0,-1,1791,848,0,0
574,176,0,0,0,0,0,0,0,0,0,-1,1798,848,0,0
581,176,0,0,0,0,0,0,0,0,0,-1,1805,848,0,0
588,176,0,0,0,0,0,0,0,0,0,-1,1812,848,0,0
595,176,0,0,0,0,0,0,0,0,0,-1,1819,848,0,0
602,176,0,0,0,0,0,0,0,0,0,-1,1826,848,0,0
609,176,75.2782,2.41943,0.00126949,-0.000158359,-0.002524,0.00317859,-0.00206746,-0.647572,0.00305137,0.0389403,1833,848,75.2782,-2.41946
616,176,75.3014,2.33051,0.000937023,0.000414523,-0.00167229,0.00236834,-0.0010168,-0.707913,0.00200566,0.0417603,1840,848,75.3014,-2.33053
623,176,75.4779,2.25842,0.000306392,0.000571074,-0.000761859,0.001212,-0.000334535,-0.871394,0.000939578,0.0475884,1847,848,75.478,-2.25844
630,176,75.4724,2.33936,-0.00036246,0.000809048,4.17659e-05,0.000810535,-0.000363947,1.53521,0.000694236,0.0413436,1854,848,75.4724,-2.33934
637,176,75.4441,2.25787,-0.000941608,0.000905525,0.000325466,0.000961195,-0.000997277,1.40139,0.00113079,0.0325594,1861,848,75.4441,-2.25785
644,176,75.3013,2.24585,-0.00143145,0.00064685,0.000114995,0.000653193,-0.00143779,1.51569,0.00123524,0.0325466,1868,848,75.3013,-2.24583
651,176,75.3452,2.27563,-0.00177441,0.000510091,-0.000183234,0.000524694,-0.00178902,-1.49127,0.00140072,0.0369312,1875,848,75.3453,-2.27562
658,176,75.4189,2.26367,0,0,0,0,0,0,0,-1,1882,848,75.419,-2.26365
665,176,54.3333,2.34277,0,0,0,0,0,0,0,-1,1889,848,54.3333,-2.34279
672,176,16.9304,2.80719,0,0,0,0,0,0,0,-1,1896,848,16.9305,-2.80719
679,176,50.9341,0.315979,0,0,0,0,0,0,0,-1,1903,848,50.9341,-0.315984
686,176,61.1702,-0.262451,0,0,0,0,0,0,0,-1,1910,848,61.1701,0.262443
693,176,61.1941,0.608582,-0.00241557,-3.94698e-05,-0.00185009,0.000971187,-0.00342623,-1.07082,0.00266748,0.0350009,1917,848,61.1941,-0.608555
700,176,61.0939,1.57916,-0.0022123,-0.000155981,-0.00225552,0.00129466,-0.00366294,-0.999249,0.00296914,0.0417626,1924,848,61.0939,-1.57914
707,176,61.0331,2.35168,-0.00207692,-6.25332e-05,-0.00262886,0.00174547,-0.00388493,-0.968338,0.00332802,0.0304684,1931,848,61.033,-2.3517
714,176,60.8663,3.10461,-0.00121019,0.00013695,-0.00264845,0.00219614,-0.00326938,-0.909921,0.00317574,0.0141942,1938,848,60.8664,-3.10464
721,176,60.845,3.95795,4.55776e-05,0.000333677,-0.00241875,0.00261266,-0.0022334,-0.815141,0.00280073,0.0142892,1945,848,60.8449,-3.95794
728,176,60.7885,4.83905,0.00164068,0.000143412,-0.00203696,0.00306222,-0.00127812,-0.609297,0.0025755,0.0180967,1952,848,60.7885,-4.83903
735,176,60.7217,5.69513,0.00357484,-0.000236072,-0.00175023,0.00425667,-0.000917903,-0.371481,0.0031881,0.0165152,1959,848,60.7217,-5.69513
742,176,60.6665,6.53113,0.00580121,-0.000979437,-0.00166744,0.00618907,-0.00136729,-0.228542,0.00464932,0.0253705,1966,848,60.6665,-6.53112
749,176,60.9823,7.48688,0.0084722,-0.00255031,-0.0019608,0.00881061,-0.00288873,-0.170907,0.00703714,0.038628,1973,848,60.9823,-7.48688
756,176,61.4039,8.5014,0,0,0,0,0,0,0,-1,1980,848,61.4039,-8.5014
763,176,44.4343,7.70581,0,0,0,0,0,0,0,-1,1987,848,44.4343,-7.70578
770,176,36.4186,4.25641,0,0,0,0,0,0,0,-1,1994,848,36.4186,-4.25639
777,176,43.8328,7.50177,0,0,0,0,0,0,0,-1,2001,848,43.8328,-7.50178
784,176,0,0,0,0,0,0,0,0,0,-1,2008,848,0,0
791,176,0,0,0,0,0,0,0,0,0,-1,2015,848,0,0
798,176,0,0,0,0,0,0,0,0,0,-1,2022,848,0,0
805,176,0,0,0,0,0,0,0,0,0,-1,2029,848,0,0
812,176,0,0,0,0,0,0,0,0,0,-1,2036,848,0,0
-700,169,0,0,0,0,0,0,0,0,0,-1,524,855,0,0
-693,169,0,0,0,0,0,0,0,0,0,-1,531,855,0,0
-686,169,0,0,0,0,0,0,0,0,0,-1,538,855,0,0
-679,169,0,0,0,0,0,0,0,0,0,-1,545,855,0,0
-672,169,0,0,0,0,0,0,0,0,0,-1,552,855,0,0
-665,169,-50.4697,8.3269,0,0,0,0,0,0,0,-1,559,855,-50.4697,-8.32688
-658,169,-58.8608,8.22839,0,0,0,0,0,0,0,-1,566,855,-58.8608,-8.2284
-651,169,-45.7366,10.7646,0,0,0,0,0,0,0,-1,573,855,-45.7366,-10.7647
-644,169,-45.5977,10.3019,0,0,0,0,0,0,0,-1,580,855,-45.5977,-10.3019
-637,169,-45.5289,9.14014,0,0,0,0,0,0,0,-1,587,855,-45.5289,-9.14013
-630,169,-45.9813,7.97406,0,0,0,0,0,0,0,-1,594,855,-45.9813,-7.97406
-623,169,-46.0815,7.02057,0.00149534,0.00298836,-0.000275063,0.00303743,0.00144627,-1.39428,0.00175432,0.0404885,601,855,-46.0816,-7.02059
-616,169,-46.1602,6.10803,0.000162199,0.00230807,0.000815136,0.00258259,-0.000112322,1.24595,0.00176036,0.022813,608,855,-46.1601,-6.10804
-609,169,-46.2085,5.26672,-0.000912378,0.00196821,0.00167728,0.00273873,-0.0016829,1.14016,0.00257698,0.0141884,615,855,-46.2085,-5.2667
-602,169,-46.2585,4.37958,-0.0019708,0.00167289,0.00238451,0.00285188,-0.00314979,1.11161,0.00346649,0.0137032,622,855,-46.2585,-4.37958
-595,169,-46.3138,3.50043,-0.00291361,0.0013649,0.00294953,0.00286929,-0.004418,1.09915,0.00423887,0.0127828,629,855,-46.3139,-3.50041
-588,169,-46.3438,2.66394,-0.00333224,0.000965549,0.00322729,0.00269392,-0.00506061,1.07912,0.00454605,0.0116961,636,855,-46.3438,-2.66393
-581,169,-46.4313,1.85852,-0.00336118,0.000903301,0.00333749,0.00273153,-0.00518941,1.06966,0.00464596,0.0275024,643,855,-46.4313,-1.85855
-574,169,-46.8039,0.969055,-0.00337971,0.000556664,0.00317972,0.00232805,-0.00515109,1.06253,0.00441943,0.0434592,650,855,-46.8039,-0.969027
-567,169,-46.6271,0.0708618,0,0,0,0,0,0,0,-1,657,855,-46.6271,-0.0708511
-560,169,-46.6846,-0.682922,0,0,0,0,0,0,0,-1,664,855,-46.6846,0.682904
-553,169,-32.1944,-0.787964,0,0,0,0,0,0,0,-1,671,855,-32.1944,0.787959
-546,169,-19.0852,-1.05609,0,0,0,0,0,0,0,-1,678,855,-19.0852,1.05612
-539,169,-33.2307,1.10706,0,0,0,0,0,0,0,-1,685,855,-33.2307,-1.10708
-532,169,-59.4035,0.336365,0,0,0,0,0,0,0,-1,692,855,-59.4035,-0.336337
-525,169,-59.4854,0.292297,-0.000678873,0.000240816,0.00173513,0.00157601,-0.00201406,0.91493,0.00207786,0.0494912,699,855,-59.4854,-0.292323
-518,169,-59.5464,0.376221,-0.00107919,0.000331853,0.0014705,0.00125732,-0.00200466,1.00907,0.00189971,0.041218,706,855,-59.5464,-0.376211
-511,169,-59.5764,0.297546,-0.000896662,0.000575609,0.00116789,0.00122001,-0.00154106,1.0666,0.00159769,0.0395221,713,855,-59.5763,-0.297525
-504,169,-59.6174,0.0984497,0.00111108,0.0013802,-0.000274468,0.00155132,0.00093996,-1.01331,0.000902326,0.0409684,720,855,-59.6174,-0.0984619
-497,169,-59.5975,0.163147,0.00405777,0.00253138,-0.00247327,0.00588292,0.000706233,-0.635744,0.00370902,0.0388528,727,855,-59.5975,-0.163175
-490,169,0,0,0,0,0,0,0,0,0,-1,734,855,0,0
-483,169,0,0,0,0,0,0,0,0,0,-1,741,855,0,0
-476,169,0,0,0,0,0,0,0,0,0,-1,748,855,0,0
-469,169,0,0,0,0,0,0,0,0,0,-1,755,855,0,0
-462,169,0,0,0,0,0,0,0,0,0,-1,762,855,0,0
-455,169,0,0,0,0,0,0,0,0,0,-1,769,855,0,0
-448,169,0,0,0,0,0,0,0,0,0,-1,776,855,0,0
-441,169,0,0,0,0,0,0,0,0,0,-1,783,855,0,0
-434,169,0,0,0,0,0,0,0,0,0,-1,790,855,0,0
-427,169,0,0,0,0,0,0,0,0,0,-1,797,855,0,0
-420,169,0,0,0,0,0,0,0,0,0,-1,804,855,0,0
-413,169,0,0,0,0,0,0,0,0,0,-1,811,855,0,0
-406,169,0,0,0,0,0,0,0,0,0,-1,818,855,0,0
-399,169,0,0,0,0,0,0,0,0,0,-1,825,855,0,0
-392,169,0,0,0,0,0,0,0,0,0,-1,832,855,0,0
-385,169,0,0,0,0,0,0,0,0,0,-1,839,855,0,0
-378,169,0,0,0,0,0,0,0,0,0,-1,846,855,0,0
-371,169,0,0,0,0,0,0,0,0,0,-1,853,855,0,0
-364,169,0,0,0,0,0,0,0,0,0,-1,860,855,0,0
-357,169,0,0,0,0,0,0,0,0,0,-1,867,855,0,0
-350,169,0,0,0,0,0,0,0,0,0,-1,874,855,0,0
-343,169,0,0,0,0,0,0,0,0,0,-1,881,855,0,0
-336,169,0,0,0,0,0,0,0,0,0,-1,888,855,0,0
-329,169,0,0,0,0,0,0,0,0,0,-1,895,855,0,0
-322,169,0,0,0,0,0,0,0,0,0,-1,902,855,0,0
-315,169,0,0,0,0,0,0,0,0,0,-1,909,855,0,0
-308,169,0,0,0,0,0,0,0,0,0,-1,916,855,0,0
-301,169,0,0,0,0,0,0,0,0,0,-1,923,855,0,0
-294,169,0,0,0,0,0,0,0,0,0,-1,930,855,0,0
-287,169,0,0,0,0,0,0,0,0,0,-1,937,855,0,0
-280,169,0,0,0,0,0,0,0,0,0,-1,944,855,0,0
-273,169,0,0,0,0,0,0,0,0,0,-1,951,855,0,0
-266,169,0,0,0,0,0,0,0,0,0,-1,958,855,0,0
-259,169,0,0,0,0,0,0,0,0,0,-1,965,855,0,0
-252,169,0,0,0,0,0,0,0,0,0,-1,972,855,0,0
-245,169,0,0,0,0,0,0,0,0,0,-1,979,855,0,0
-238,169,0,0,0,0,0,0,0,0,0,-1,986,855,0,0
-231,169,0,0,0,0,0,0,0,0,0,-1,993,855,0,0
-224,169,0,0,0,0,0,0,0,0,0,-1,1000,855,0,0
-217,169,0,0,0,0,0,0,0,0,0,-1,1007,855,0,0
-210,169,0,0,0,0,0,0,0,0,0,-1,1014,855,0,0
-203,169,0,0,0,0,0,0,0,0,0,-1,1021,855,0,0
-196,169,0,0,0,0,0,0,0,0,0,-1,1028,855,0,0
-189,169,0,0,0,0,0,0,0,0,0,-1,1035,855,0,0
-182,169,0,0,0,0,0,0,0,0,0,-1,1042,855,0,0
-175,169,0,0,0,0,0,0,0,0,0,-1,1049,855,0,0
-168,169,0,0,0,0,0,0,0,0,0,-1,1056,855,0,0
-161,169,0,0,0,0,0,0,0,0,0,-1,1063,855,0,0
-154,169,0,0,0,0,0,0,0,0,0,-1,1070,855,0,0
-147,169,0,0,0,0,0,0,0,0,0,-1,1077,855,0,0
-140,169,0,0,0,0,0,0,0,0,0,-1,1084,855,0,0
-133,169,0,0,0,0,0,0,0,0,0,-1,1091,855,0,0
-126,169,0,0,0,0,0,0,0,0,0,-1,1098,855,0,0
-119,169,0,0,0,0,0,0,0,0,0,-1,1105,855,0,0
-112,169,0,0,0,0,0,0,0,0,0,-1,1112,855,0,0
-105,169,0,0,0,0,0,0,0,0,0,-1,1119,855,0,0
-98,169,0,0,0,0,0,0,0,0,0,-1,1126,855,0,0
-91,169,0,0,0,0,0,0,0,0,0,-1,1133,855,0,0
-84,169,0,0,0,0,0,0,0,0,0,-1,1140,855,0,0
-77,169,0,0,0,0,0,0,0,0,0,-1,1147,855,0,0
-70,169,0,0,0,0,0,0,0,0,0,-1,1154,855,0,0
-63,169,0,0,0,0,0,0,0,0,0,-1,1161,855,0,0
-56,169,0,0,0,0,0,0,0,0,0,-1,1168,855,0,0
-49,169,0,0,0,0,0,0,0,0,0,-1,1175,855,0,0
-42,169,0,0,0,0,0,0,0,0,0,-1,1182,855,0,0
-35,169,0,0,0,0,0,0,0,0,0,-1,1189,855,0,0
-28,169,0,0,0,0,0,0,0,0,0,-1,1196,855,0,0
-21,169,0,0,0,0,0,0,0,0,0,-1,1203,855,0,0
-14,169,0,0,0,0,0,0,0,0,0,-1,1210,855,0,0
-7,169,0,0,0,0,0,0,0,0,0,-1,1217,855,0,0
0,169,0,0,0,0,0,0,0,0,0,-1,1224,855,0,0
7,169,0,0,0,0,0,0,0,0,0,-1,1231,855,0,0
14,169,0,0,0,0,0,0,0,0,0,-1,1238,855,0,0
21,169,0,0,0,0,0,0,0,0,0,-1,1245,855,0,0
28,169,0,0,0,0,0,0,0,0,0,-1,1252,855,0,0
35,169,0,0,0,0,0,0,0,0,0,-1,1259,855,0,0
42,169,0,0,0,0,0,0,0,0,0,-1,1266,855,0,0
49,169,0,0,0,0,0,0,0,0,0,-1,1273,855,0,0
56,169,0,0,0,0,0,0,0,0,0,-1,1280,855,0,0
63,169,0,0,0,0,0,0,0,0,0,-1,1287,855,0,0
70,169,0,0,0,0,0,0,0,0,0,-1,1294,855,0,0
77,169,0,0,0,0,0,0,0,0,0,-1,1301,855,0,0
84,169,0,0,0,0,0,0,0,0,0,-1,1308,855,0,0
91,169,0,0,0,0,0,0,0,0,0,-1,1315,855,0,0
98,169,0,0,0,0,0,0,0,0,0,-1,1322,855,0,0
105,169,0,0,0,0,0,0,0,0,0,-1,1329,855,0,0
112,169,0,0,0,0,0,0,0,0,0,-1,1336,855,0,0
119,169,0,0,0,0,0,0,0,0,0,-1,1343,855,0,0
126,169,0,0,0,0,0,0,0,0,0,-1,1350,855,0,0
133,169,0,0,0,0,0,0,0,0,0,-1,1357,855,0,0
140,169,0,0,0,0,0,0,0,0,0,-1,1364,855,0,0
147,169,0,0,0,0,0,0,0,0,0,-1,1371,855,0,0
154,169,0,0,0,0,0,0,0,0,0,-1,1378,855,0,0
161,169,0,0,0,0,0,0,0,0,0,-1,1385,855,0,0
168,169,0,0,0,0,0,0,0,0,0,-1,1392,855,0,0
175,169,0,0,0,0,0,0,0,0,0,-1,1399,855,0,0
182,169,0,0,0,0,0,0,0,0,0,-1,1406,855,0,0
189,169,0,0,0,0,0,0,0,0,0,-1,1413,855,0,0
196,169,0,0,0,0,0,0,0,0,0,-1,1420,855,0,0
203,169,0,0,0,0,0,0,0,0,0,-1,1427,855,0,0
210,169,0,0,0,0,0,0,0,0,0,-1,1434,855,0,0
217,169,0,0,0,0,0,0,0,0,0,-1,1441,855,0,0
224,169,0,0,0,0,0,0,0,0,0,-1,1448,855,0,0
231,169,0,0,0,0,0,0,0,0,0,-1,1455,855,0,0
238,169,0,0,0,0,0,0,0,0,0,-1,1462,855,0,0
245,169,0,0,0,0,0,0,0,0,0,-1,1469,855,0,0
252,169,0,0,0,0,0,0,0,0,0,-1,1476,855,0,0
259,169,0,0,0,0,0,0,0,0,0,-1,1483,855,0,0
266,169,0,0,0,0,0,0,0,0,0,-1,1490,855,0,0
273,169,0,0,0,0,0,0,0,0,0,-1,1497,855,0,0
280,169,0,0,0,0,0,0,0,0,0,-1,1504,855,0,0
287,169,0,0,0,0,0,0,0,0,0,-1,1511,855,0,0
294,169,0,0,0,0,0,0,0,0,0,-1,1518,855,0,0
301,169,0,0,0,0,0,0,0,0,0,-1,1525,855,0,0
308,169,0,0,0,0,0,0,0,0,0,-1,1532,855,0,0
315,169,0,0,0,0,0,0,0,0,0,-1,1539,855,0,0
322,169,0,0,0,0,0,0,0,0,0,-1,1546,855,0,0
329,169,0,0,0,0,0,0,0,0,0,-1,1553,855,0,0
336,169,0,0,0,0,0,0,0,0,0,-1,1560,855,0,0
343,169,0,0,0,0,0,0,0,0,0,-1,1567,855,0,0
350,169,0,0,0,0,0,0,0,0,0,-1,1574,855,0,0
357,169,0,0,0,0,0,0,0,0,0,-1,1581,855,0,0
364,169,0,0,0,0,0,0,0,0,0,-1,1588,855,0,0
371,169,0,0,0,0,0,0,0,0,0,-1,1595,855,0,0
378,169,0,0,0,0,0,0,0,0,0,-1,1602,855,0,0
385,169,0,0,0,0,0,0,0,0,0,-1,1609,855,0,0
392,169,0,0,0,0,0,0,0,0,0,-1,1616,855,0,0
399,169,0,0,0,0,0,0,0,0,0,-1,1623,855,0,0
406,169,0,0,0,0,0,0,0,0,0,-1,1630,855,0,0
413,169,0,0,0,0,0,0,0,0,0,-1,1637,855,0,0
420,169,0,0,0,0,0,0,0,0,0,-1,1644,855,0,0
427,169,0,0,0,0,0,0,0,0,0,-1,1651,855,0,0
434,169,0,0,0,0,0,0,0,0,0,-1,1658,855,0,0
441,169,0,0,0,0,0,0,0,0,0,-1,1665,855,0,0
448,169,0,0,0,0,0,0,0,0,0,-1,1672,855,0,0
455,169,0,0,0,0,0,0,0,0,0,-1,1679,855,0,0
462,169,0,0,0,0,0,0,0,0,0,-1,1686,855,0,0
469,169,0,0,0,0,0,0,0,0,0,-1,1693,855,0,0
476,169,0,0,0,0,0,0,0,0,0,-1,1700,855,0,0
483,169,0,0,0,0,0,0,0,0,0,-1,1707,855,0,0
490,169,0,0,0,0,0,0,0,0,0,-1,1714,855,0,0
497,169,0,0,0,0,0,0,0,0,0,-1,1721,855,0,0
504,169,0,0,0,0,0,0,0,0,0,-1,1728,855,0,0
511,169,0,0,0,0,0,0,0,0,0,-1,1735,855,0,0
518,169,0,0,0,0,0,0,0,0,0,-1,1742,855,0,0
525,169,0,0,0,0,0,0,0,0,0,-1,1749,855,0,0
532,169,0,0,0,0,0,0,0,0,0,-1,1756,855,0,0
539,169,0,0,0,0,0,0,0,0,0,-1,1763,855,0,0
546,169,0,0,0,0,0,0,0,0,0,-1,1770,855,0,0
553,169,0,0,0,0,0,0,0,0,0,-1,1777,855,0,0
560,169,0,0,0,0,0,0,0,0,0,-1,1784,855,0,0
567,169,0,0,0,0,0,0,0,0,0,-1,1791,855,0,0
574,169,0,0,0,0,0,0,0,0,0,-1,1798,855,0,0
581,169,0,0,0,0,0,0,0,0,0,-1,1805,855,0,0
588,169,0,0,0,0,0,0,0,0,0,-1,1812,855,0,0
595,169,0,0,0,0,0,0,0,0,0,-1,1819,855,0,0
602,169,0,0,0,0,0,0,0,0,0,-1,1826,855,0,0
609,169,0,0,0,0,0,0,0,0,0,-1,1833,855,0,0
616,169,75.4562,2.31305,2.53659e-05,0.000751028,-0.00229139,0.00270813,-0.00193174,-0.863919,0.0026913,0.0447688,1840,855,75.4562,-2.31303
623,169,75.5555,2.31146,-0.000257804,0.000755743,-0.00128772,0.00163282,-0.00113488,-0.972862,0.00160653,0.0468179,1847,855,75.5556,-2.31146
630,169,75.5237,2.27246,-0.000614396,0.000806851,-0.000373387,0.000898975,-0.000706521,-1.3289,0.000929151,0.0405727,1854,855,75.5237,-2.27249
637,169,75.4594,2.2298,-0.0010523,0.000883021,0.000119472,0.000890369,-0.00105965,1.50937,0.00112726,0.0365092,1861,855,75.4594,-2.22977
644,169,75.4033,2.22894,-0.00151249,0.000633394,4.69256e-05,0.000634419,-0.00151352,1.54894,0.00127426,0.0369191,1868,855,75.4033,-2.22896
651,169,75.325,2.35016,-0.00190714,0.000472505,-0.000229707,0.000494476,-0.00192911,-1.47544,0.00147872,0.0377146,1875,855,75.325,-2.35015
658,169,75.3942,2.2655,0,0,0,0,0,0,0,-1,1882,855,75.3942,-2.26548
665,169,74.1068,1.9809,0,0,0,0,0,0,0,-1,1889,855,74.1069,-1.98093
672,169,31.2465,2.96387,0,0,0,0,0,0,0,-1,1896,855,31.2464,-2.9639
679,169,38.4297,1.08197,0,0,0,0,0,0,0,-1,1903,855,38.4296,-1.08194
686,169,62.032,-0.217957,0,0,0,0,0,0,0,-1,1910,855,62.0319,0.217981
693,169,62.1924,0.732727,-0.00254917,-0.000160044,-0.00198119,0.000958855,-0.00366807,-1.05669,0.00281987,0.0402292,1917,855,62.1924,-0.732741
700,169,62.2007,1.68884,-0.00234917,-0.000188235,-0.00237673,0.00134209,-0.0038795,-0.998736,0.00313109,0.0343701,1924,855,62.2006,-1.68883
707,169,62.0497,2.49597,-0.00230247,-4.93954e-05,-0.00281822,0.0018591,-0.00421097,-0.975537,0.00359117,0.0381042,1931,855,62.0496,-2.49596
714,169,61.7025,3.13416,-0.00168746,0.000180293,-0.00295274,0.00234332,-0.00385049,-0.938558,0.00361111,0.0209797,1938,855,61.7025,-3.13417
721,169,61.6965,4.0119,-0.000697949,0.000543495,-0.00283828,0.00282813,-0.00298258,-0.893052,0.00335521,0.0193629,1945,855,61.6965,-4.01187
728,169,61.6436,4.89032,0.000716814,0.00054237,-0.0025231,0.00315419,-0.00189501,-0.76812,0.00294522,0.0161225,1952,855,61.6435,-4.89029
735,169,61.5692,5.74109,0.00260189,0.000443905,-0.00228229,0.0040474,-0.0010016,-0.564585,0.00308678,0.0209547,1959,855,61.5692,-5.74112
742,169,61.5548,6.56665,0.00484863,0.000132505,-0.00222002,0.00572923,-0.000748101,-0.377628,0.00409171,0.0195461,1966,855,61.5549,-6.56662
749,169,61.5248,7.32587,0.00751308,-0.000777204,-0.00252238,0.00822021,-0.00148434,-0.273328,0.00603607,0.0320539,1973,855,61.5248,-7.32586
756,169,61.724,8.08521,0,0,0,0,0,0,0,-1,1980,855,61.724,-8.08523
763,169,61.2976,7.40009,0,0,0,0,0,0,0,-1,1987,855,61.2975,-7.40007
770,169,37.2059,3.97021,0,0,0,0,0,0,0,-1,1994,855,37.2059,-3.97022
777,169,41.7505,8.7085,0,0,0,0,0,0,0,-1,2001,855,41.7505,-8.70852
784,169,40.7385,9.24359,0,0,0,0,0,0,0,-1,2008,855,40.7384,-9.24361
791,169,0,0,0,0,0,0,0,0,0,-1,2015,855,0,0
798,169,0,0,0,0,0,0,0,0,0,-1,2022,855,0,0
805,169,0,0,0,0,0,0,0,0,0,-1,2029,855,0,0
812,169,0,0,0,0,0,0,0,0,0,-1,2036,855,0,0
-700,162,0,0,0,0,0,0,0,0,0,-1,524,862,0,0
-693,162,0,0,0,0,0,0,0,0,0,-1,531,862,0,0
-686,162,0,0,0,0,0,0,0,0,0,-1,538,862,0,0
-679,162,0,0,0,0,0,0,0,0,0,-1,545,862,0,0
-672,162,0,0,0,0,0,0,0,0,0,-1,552,862,0,0
-665,162,-50.6751,7.18884,0,0,0,0,0,0,0,-1,559,862,-50.6751,-7.18885
-658,162,-50.7888,6.02673,0,0,0,0,0,0,0,-1,566,862,-50.7888,-6.02673
-651,162,-46.6468,10.7962,0,0,0,0,0,0,0,-1,573,862,-46.6468,-10.7962
-644,162,-46.5665,9.83966,0,0,0,0,0,0,0,-1,580,862,-46.5665,-9.83966
-637,162,-46.1418,8.17126,0,0,0,0,0,0,0,-1,587,862,-46.1419,-8.1713
-630,162,-47.2322,7.84106,0,0,0,0,0,0,0,-1,594,862,-47.2322,-7.84106
-623,162,-47.09,6.97974,-0.00036145,0.00410193,-0.000248739,0.00411575,-0.000375269,-1.5153,0.00287709,0.0366344,601,862,-47.0899,-6.97973
-616,162,-47.0106,6.12079,-0.00120539,0.00320815,0.000923067,0.00339343,-0.00139067,1.37271,0.00284163,0.0209974,608,862,-47.0105,-6.12079
-609,162,-47.0957,5.27106,-0.00202962,0.00260886,0.0019465,0.00331744,-0.00273821,1.22168,0.00350156,0.0138388,615,862,-47.0957,-5.27103
-602,162,-47.152,4.43951,-0.00299751,0.0020677,0.00289477,0.00338136,-0.00431117,1.14478,0.00445209,0.0120532,622,862,-47.1521,-4.43952
-595,162,-47.1868,3.58881,-0.00378097,0.00151956,0.00354769,0.00329762,-0.00555902,1.1062,0.00516865,0.0122103,629,862,-47.1868,-3.58878
-588,162,-47.1719,2.75189,-0.00398226,0.000994023,0.00371395,0.00297625,-0.0059645,1.08053,0.00525717,0.0178841,636,862,-47.1719,-2.75189
-581,162,-47.4931,1.8999,-0.00393347,0.000884348,0.00370787,0.0028971,-0.00594622,1.07347,0.00520588,0.0470401,643,862,-47.4931,-1.8999
-574,162,-47.6788,1.03906,0,0,0,0,0,0,0,-1,650,862,-47.6787,-1.03907
-567,162,-47.986,-0.0360718,0,0,0,0,0,0,0,-1,657,862,-47.986,0.0360826
-560,162,-36.5075,-0.831665,0,0,0,0,0,0,0,-1,664,862,-36.5075,0.831657
-553,162,-35.9823,-1.60956,0,0,0,0,0,0,0,-1,671,862,-35.9823,1.60954
-546,162,-22.8181,-1.51154,0,0,0,0,0,0,0,-1,678,862,-22.8181,1.51155
-539,162,-53.0229,0.9328,0,0,0,0,0,0,0,-1,685,862,-53.0229,-0.932798
-532,162,-59.3757,0.44397,0,0,0,0,0,0,0,-1,692,862,-59.3757,-0.443946
-525,162,-59.4663,0.381897,-0.000893056,1.11928e-05,0.00179067,0.00140593,-0.0022878,0.909058,0.00215274,0.0408603,699,862,-59.4663,-0.3819
-518,162,-59.5802,0.351013,-0.0010556,0.000191912,0.0014027,0.00110329,-0.00196698,0.994609,0.00179585,0.0413648,706,862,-59.5802,-0.350993
-511,162,-59.5925,0.20813,-0.000309131,0.000867054,0.000825061,0.00129216,-0.000734241,1.09503,0.00118463,0.0449503,713,862,-59.5924,-0.208111
-504,162,-59.5756,0.0702515,0.00201837,0.00206012,-0.000759248,0.00279878,0.00127971,-0.799142,0.00161785,0.0449867,720,862,-59.5756,-0.0702383
-497,162,-59.5298,-0.112854,0,0,0,0,0,0,0,-1,727,862,-59.5298,0.112828
-490,162,0,0,0,0,0,0,0,0,0,-1,734,862,0,0
-483,162,0,0,0,0,0,0,0,0,0,-1,741,862,0,0
-476,162,0,0,0,0,0,0,0,0,0,-1,748,862,0,0
-469,162,0,0,0,0,0,0,0,0,0,-1,755,862,0,0
-462,162,0,0,0,0,0,0,0,0,0,-1,762,862,0,0
-455,162,0,0,0,0,0,0,0,0,0,-1,769,862,0,0
-448,162,0,0,0,0,0,0,0,0,0,-1,776,862,0,0
-441,162,0,0,0,0,0,0,0,0,0,-1,783,862,0,0
-434,162,0,0,0,0,0,0,0,0,0,-1,790,862,0,0
-427,162,0,0,0,0,0,0,0,0,0,-1,797,862,0,0
-420,162,0,0,0,0,0,0,0,0,0,-1,804,862,0,0
-413,162,0,0,0,0,0,0,0,0,0,-1,811,862,0,0
-406,162,0,0,0,0,0,0,0,0,0,-1,818,862,0,0
-399,162,0,0,0,0,0,0,0,0,0,-1,825,862,0,0
-392,162,0,0,0,0,0,0,0,0,0,-1,832,862,0,0
-385,162,0,0,0,0,0,0,0,0,0,-1,839,862,0,0
-378,162,0,0,0,0,0,0,0,0,0,-1,846,862,0,0
-371,162,0,0,0,0,0,0,0,0,0,-1,853,862,0,0
-364,162,0,0,0,0,0,0,0,0,0,-1,860,862,0,0
-357,162,0,0,0,0,0,0,0,0,0,-1,867,862,0,0
-350,162,0,0,0,0,0,0,0,0,0,-1,874,862,0,0
-343,162,0,0,0,0,0,0,0,0,0,-1,881,862,0,0
-336,162,0,0,0,0,0,0,0,0,0,-1,888,862,0,0
-329,162,0,0,0,0,0,0,0,0,0,-1,895,862,0,0
-322,162,0,0,0,0,0,0,0,0,0,-1,902,862,0,0
-315,162,0,0,0,0,0,0,0,0,0,-1,909,862,0,0
-308,162,0,0,0,0,0,0,0,0,0,-1,916,862,0,0
-301,162,0,0,0,0,0,0,0,0,0,-1,923,862,0,0
-294,162,0,0,0,0,0,0,0,0,0,-1,930,862,0,0
-287,162,0,0,0,0,0,0,0,0,0,-1,937,862,0,0
-280,162,0,0,0,0,0,0,0,0,0,-1,944,862,0,0
-273,162,0,0,0,0,0,0,0,0,0,-1,951,862,0,0
-266,162,0,0,0,0,0,0,0,0,0,-1,958,862,0,0
-259,162,0,0,0,0,0,0,0,0,0,-1,965,862,0,0
-252,162,0,0,0,0,0,0,0,0,0,-1,972,862,0,0
-245,162,0,0,0,0,0,0,0,0,0,-1,979,862,0,0
-238,162,0,0,0,0,0,0,0,0,0,-1,986,862,0,0
-231,162,0,0,0,0,0,0,0,0,0,-1,993,862,0,0
-224,162,0,0,0,0,0,0,0,0,0,-1,1000,862,0,0
-217,162,0,0,0,0,0,0,0,0,0,-1,1007,862,0,0
-210,162,0,0,0,0,0,0,0,0,0,-1,1014,862,0,0
-203,162,0,0,0,0,0,0,0,0,0,-1,1021,862,0,0
-196,162,0,0,0,0,0,0,0,0,0,-1,1028,862,0,0
-189,162,0,0,0,0,0,0,0,0,0,-1,1035,862,0,0
-182,162,0,0,0,0,0,0,0,0,0,-1,1042,862,0,0
-175,162,0,0,0,0,0,0,0,0,0,-1,1049,862,0,0
-168,162,0,0,0,0,0,0,0,0,0,-1,1056,862,0,0
-161,162,0,0,0,0,0,0,0,0,0,-1,1063,862,0,0
-154,162,0,0,0,0,0,0,0,0,0,-1,1070,862,0,0
-147,162,0,0,0,0,0,0,0,0,0,-1,1077,862,0,0
-140,162,0,0,0,0,0,0,0,0,0,-1,1084,862,0,0
-133,162,0,0,0,0,0,0,0,0,0,-1,1091,862,0,0
-126,162,0,0,0,0,0,0,0,0,0,-1,1098,862,0,0
-119,162,0,0,0,0,0,0,0,0,0,-1,1105,862,0,0
-112,162,0,0,0,0,0,0,0,0,0,-1,1112,862,0,0
-105,162,0,0,0,0,0,0,0,0,0,-1,1119,862,0,0
-98,162,0,0,0,0,0,0,0,0,0,-1,1126,862,0,0
-91,162,0,0,0,0,0,0,0,0,0,-1,1133,862,0,0
-84,162,0,0,0,0,0,0,0,0,0,-1,1140,862,0,0
-77,162,0,0,0,0,0,0,0,0,0,-1,1147,862,0,0
-70,162,0,0,0,0,0,0,0,0,0,-1,1154,862,0,0
-63,162,0,0,0,0,0,0,0,0,0,-1,1161,862,0,0
-56,162,0,0,0,0,0,0,0,0,0,-1,1168,862,0,0
-49,162,0,0,0,0,0,0,0,0,0,-1,1175,862,0,0
-42,162,0,0,0,0,0,0,0,0,0,-1,1182,862,0,0
-35,162,0,0,0,0,0,0,0,0,0,-1,1189,862,0,0
-28,162,0,0,0,0,0,0,0,0,0,-1,1196,862,0,0
-21,162,0,0,0,0,0,0,0,0,0,-1,1203,862,0,0
-14,162,0,0,0,0,0,0,0,0,0,-1,1210,862,0,0
-7,162,0,0,0,0,0,0,0,0,0,-1,1217,862,0,0
0,162,0,0,0,0,0,0,0,0,0,-1,1224,862,0,0
7,162,0,0,0,0,0,0,0,0,0,-1,1231,862,0,0
14,162,0,0,0,0,0,0,0,0,0,-1,1238,862,0,0
21,162,0,0,0,0,0,0,0,0,0,-1,1245,862,0,0
28,162,0,0,0,0,0,0,0,0,0,-1,1252,862,0,0
35,162,0,0,0,0,0,0,0,0,0,-1,1259,862,0,0
42,162,0,0,0,0,0,0,0,0,0,-1,1266,862,0,0
49,162,0,0,0,0,0,0,0,0,0,-1,1273,862,0,0
56,162,0,0,0,0,0,0,0,0,0,-1,1280,862,0,0
63,162,0,0,0,0,0,0,0,0,0,-1,1287,862,0,0
70,162,0,0,0,0,0,0,0,0,0,-1,1294,862,0,0
77,162,0,0,0,0,0,0,0,0,0,-1,1301,862,0,0
84,162,0,0,0,0,0,0,0,0,0,-1,1308,862,0,0
91,162,0,0,0,0,0,0,0,0,0,-1,1315,862,0,0
98,162,0,0,0,0,0,0,0,0,0,-1,1322,862,0,0
105,162,0,0,0,0,0,0,0,0,0,-1,1329,862,0,0
112,162,0,0,0,0,0,0,0,0,0,-1,1336,862,0,0
119,162,0,0,0,0,0,0,0,0,0,-1,1343,862,0,0
126,162,0,0,0,0,0,0,0,0,0,-1,1350,862,0,0
133,162,0,0,0,0,0,0,0,0,0,-1,1357,862,0,0
140,162,0,0,0,0,0,0,0,0,0,-1,1364,862,0,0
147,162,0,0,0,0,0,0,0,0,0,-1,1371,862,0,0
154,162,0,0,0,0,0,0,0,0,0,-1,1378,862,0,0
161,162,0,0,0,0,0,0,0,0,0,-1,1385,862,0,0
168,162,0,0,0,0,0,0,0,0,0,-1,1392,862,0,0
175,162,0,0,0,0,0,0,0,0,0,-1,1399,862,0,0
182,162,0,0,0,0,0,0,0,0,0,-1,1406,862,0,0
189,162,0,0,0,0,0,0,0,0,0,-1,1413,862,0,0
196,162,0,0,0,0,0,0,0,0,0,-1,1420,862,0,0
203,162,0,0,0,0,0,0,0,0,0,-1,1427,862,0,0
210,162,0,0,0,0,0,0,0,0,0,-1,1434,862,0,0
217,162,0,0,0,0,0,0,0,0,0,-1,1441,862,0,0
224,162,0,0,0,0,0,0,0,0,0,-1,1448,862,0,0
231,162,0,0,0,0,0,0,0,0,0,-1,1455,862,0,0
238,162,0,0,0,0,0,0,0,0,0,-1,1462,862,0,0
245,162,0,0,0,0,0,0,0,0,0,-1,1469,862,0,0
252,162,0,0,0,0,0,0,0,0,0,-1,1476,862,0,0
259,162,0,0,0,0,0,0,0,0,0,-1,1483,862,0,0
266,162,0,0,0,0,0,0,0,0,0,-1,1490,862,0,0
273,162,0,0,0,0,0,0,0,0,0,-1,1497,862,0,0
280,162,0,0,0,0,0,0,0,0,0,-1,1504,862,0,0
287,162,0,0,0,0,0,0,0,0,0,-1,1511,862,0,0
294,162,0,0,0,0,0,0,0,0,0,-1,1518,862,0,0
301,162,0,0,0,0,0,0,0,0,0,-1,1525,862,0,0
308,162,0,0,0,0,0,0,0,0,0,-1,1532,862,0,0
315,162,0,0,0,0,0,0,0,0,0,-1,1539,862,0,0
322,162,0,0,0,0,0,0,0,0,0,-1,1546,862,0,0
329,162,0,0,0,0,0,0,0,0,0,-1,1553,862,0,0
336,162,0,0,0,0,0,0,0,0,0,-1,1560,862,0,0
343,162,0,0,0,0,0,0,0,0,0,-1,1567,862,0,0
350,162,0,0,0,0,0,0,0,0,0,-1,1574,862,0,0
357,162,0,0,0,0,0,0,0,0,0,-1,1581,862,0,0
364,162,0,0,0,0,0,0,0,0,0,-1,1588,862,0,0
371,162,0,0,0,0,0,0,0,0,0,-1,1595,862,0,0
378,162,0,0,0,0,0,0,0,0,0,-1,1602,862,0,0
385,162,0,0,0,0,0,0,0,0,0,-1,1609,862,0,0
392,162,0,0,0,0,0,0,0,0,0,-1,1616,862,0,0
399,162,0,0,0,0,0,0,0,0,0,-1,1623,862,0,0
406,162,0,0,0,0,0,0,0,0,0,-1,1630,862,0,0
413,162,0,0,0,0,0,0,0,0,0,-1,1637,862,0,0
420,162,0,0,0,0,0,0,0,0,0,-1,1644,862,0,0
427,162,0,0,0,0,0,0,0,0,0,-1,1651,862,0,0
434,162,0,0,0,0,0,0,0,0,0,-1,1658,862,0,0
441,162,0,0,0,0,0,0,0,0,0,-1,1665,862,0,0
448,162,0,0,0,0,0,0,0,0,0,-1,1672,862,0,0
455,162,0,0,0,0,0,0,0,0,0,-1,1679,862,0,0
462,162,0,0,0,0,0,0,0,0,0,-1,1686,862,0,0
469,162,0,0,0,0,0,0,0,0,0,-1,1693,862,0,0
476,162,0,0,0,0,0,0,0,0,0,-1,1700,862,0,0
483,162,0,0,0,0,0,0,0,0,0,-1,1707,862,0,0
490,162,0,0,0,0,0,0,0,0,0,-1,1714,862,0,0
497,162,0,0,0,0,0,0,0,0,0,-1,1721,862,0,0
504,162,0,0,0,0,0,0,0,0,0,-1,1728,862,0,0
511,162,0,0,0,0,0,0,0,0,0,-1,1735,862,0,0
518,162,0,0,0,0,0,0,0,0,0,-1,1742,862,0,0
525,162,0,0,0,0,0,0,0,0,0,-1,1749,862,0,0
532,162,0,0,0,0,0,0,0,0,0,-1,1756,862,0,0
539,162,0,0,0,0,0,0,0,0,0,-1,1763,862,0,0
546,162,0,0,0,0,0,0,0,0,0,-1,1770,862,0,0
553,162,0,0,0,0,0,0,0,0,0,-1,1777,862,0,0
560,162,0,0,0,0,0,0,0,0,0,-1,1784,862,0,0
567,162,0,0,0,0,0,0,0,0,0,-1,1791,862,0,0
574,162,0,0,0,0,0,0,0,0,0,-1,1798,862,0,0
581,162,0,0,0,0,0,0,0,0,0,-1,1805,862,0,0
588,162,0,0,0,0,0,0,0,0,0,-1,1812,862,0,0
595,162,0,0,0,0,0,0,0,0,0,-1,1819,862,0,0
602,162,0,0,0,0,0,0,0,0,0,-1,1826,862,0,0
609,162,0,0,0,0,0,0,0,0,0,-1,1833,862,0,0
616,162,75.4178,2.39136,-0.00116911,0.00146252,-0.00299382,0.00341693,-0.00312352,-0.992446,0.00377739,0.0450644,1840,862,75.4178,-2.39137
623,162,75.4312,2.35938,-0.00122376,0.00133856,-0.00187198,0.00232581,-0.00221101,-1.08548,0.00261962,0.0460865,1847,862,75.4311,-2.35938
630,162,75.448,2.24042,-0.00129439,0.0012081,-0.00087889,0.00148592,-0.00157221,-1.26462,0.00176585,0.0416836,1854,862,75.448,-2.24041
637,162,75.5436,2.14984,-0.00144843,0.00121057,-0.000236689,0.00123147,-0.00146934,-1.48271,0.00156133,0.041182,1861,862,75.5436,-2.14985
644,162,75.5519,2.14691,-0.00172505,0.000942254,-0.000129567,0.000948533,-0.00173133,-1.52237,0.00156907,0.0401732,1868,862,75.5519,-2.14693
651,162,75.4708,2.25372,-0.00202987,0.000726656,-0.000336974,0.000767252,-0.00207046,-1.4509,0.00169497,0.0360715,1875,862,75.4709,-2.25374
658,162,75.4703,2.21307,-0.00246728,0.000431367,-0.000862372,0.000668526,-0.00270444,-1.30242,0.00206224,0.036662,1882,862,75.4703,-2.21308
665,162,75.479,1.98578,0,0,0,0,0,0,0,-1,1889,862,75.479,-1.98576
672,162,56.9712,3.04034,0,0,0,0,0,0,0,-1,1896,862,56.9711,-3.04034
679,162,26.5077,2.54785,0,0,0,0,0,0,0,-1,1903,862,26.5077,-2.54787
686,162,62.5638,-0.33844,0,0,0,0,0,0,0,-1,1910,862,62.5638,0.338421
693,162,63.0818,0.883118,-0.00242671,-4.62903e-05,-0.0021586,0.00122849,-0.00370149,-1.03735,0.00296329,0.0468333,1917,862,63.0818,-0.8831
700,162,63.0354,1.6759,-0.00217995,-1.23388e-05,-0.00251088,0.00163866,-0.00383095,-0.98914,0.00324133,0.0465019,1924,862,63.0354,-1.67592
707,162,62.8425,2.47321,-0.00214991,7.00146e-05,-0.00292588,0.00208939,-0.00416929,-0.966692,0.00367936,0.0317747,1931,862,62.8425,-2.47318
714,162,62.5845,3.13898,-0.00174537,0.000234624,-0.00312257,0.00252038,-0.00403112,-0.938908,0.00381588,0.036183,1938,862,62.5844,-3.13897
721,162,62.4794,4.0979,-0.00107205,0.000666381,-0.00312431,0.00304014,-0.0034458,-0.921072,0.0037471,0.0334651,1945,862,62.4794,-4.09791
728,162,62.4404,4.94403,-1.05263e-05,0.000812604,-0.00288964,0.00331984,-0.00251776,-0.856136,0.00338093,0.0263766,1952,862,62.4404,-4.94403
735,162,62.4208,5.76239,0.00160625,0.000937667,-0.00271341,0.00400588,-0.00146197,-0.724107,0.00326877,0.0118189,1959,862,62.4208,-5.7624
742,162,62.3809,6.57709,0.00368691,0.000985721,-0.00268885,0.00534531,-0.000672674,-0.552657,0.00380762,0.0136241,1966,862,62.3809,-6.57706
749,162,62.3054,7.38788,0.00611051,0.00060431,-0.00300168,0.00743044,-0.000715628,-0.414283,0.00520858,0.0214984,1973,862,62.3055,-7.38785
756,162,62.2764,8.09631,0.00871885,6.65323e-05,-0.00379088,0.0101448,-0.00135939,-0.359774,0.00725887,0.0471892,1980,862,62.2764,-8.09633
763,162,62.3352,8.87134,0,0,0,0,0,0,0,-1,1987,862,62.3351,-8.87133
770,162,54.8257,9.36987,0,0,0,0,0,0,0,-1,1994,862,54.8256,-9.36988
777,162,54.9807,10.2266,0,0,0,0,0,0,0,-1,2001,862,54.9806,-10.2265
784,162,55.6492,10.6049,0,0,0,0,0,0,0,-1,2008,862,55.6491,-10.6049
791,162,0,0,0,0,0,0,0,0,0,-1,2015,862,0,0
798,162,0,0,0,0,0,0,0,0,0,-1,2022,862,0,0
805,162,0,0,0,0,0,0,0,0,0,-1,2029,862,0,0
812,162,0,0,0,0,0,0,0,0,0,-1,2036,862,0,0
-700,155,0,0,0,0,0,0,0,0,0,-1,524,869,0,0
-693,155,0,0,0,0,0,0,0,0,0,-1,531,869,0,0
-686,155,0,0,0,0,0,0,0,0,0,-1,538,869,0,0
-679,155,0,0,0,0,0,0,0,0,0,-1,545,869,0,0
-672,155,0,0,0,0,0,0,0,0,0,-1,552,869,0,0
-665,155,-50.9639,6.01917,0,0,0,0,0,0,0,-1,559,869,-50.9639,-6.01917
-658,155,-51.2028,4.90723,0,0,0,0,0,0,0,-1,566,869,-51.2028,-4.90722
-651,155,-51.22,3.81226,0,0,0,0,0,0,0,-1,573,869,-51.2201,-3.81228
-644,155,-47.5779,9.1366,0,0,0,0,0,0,0,-1,580,869,-47.5779,-9.13658
-637,155,-47.4189,8.37805,0,0,0,0,0,0,0,-1,587,869,-47.4189,-8.37807
-630,155,-47.941,7.77515,0,0,0,0,0,0,0,-1,594,869,-47.941,-7.77514
-623,155,-47.855,6.99207,-0.00343439,0.0055681,2.63481e-05,0.00556817,-0.00343446,1.56787,0.00524611,0.0324504,601,869,-47.855,-6.99205
-616,155,-47.8679,6.15582,-0.00334169,0.00434329,0.00121163,0.00452979,-0.00352819,1.41807,0.00466424,0.0175407,608,869,-47.8679,-6.15581
-609,155,-47.9722,5.28735,-0.0035771,0.00337363,0.00235605,0.00409697,-0.00430044,1.27292,0.00484872,0.0152175,615,869,-47.9722,-5.28735
-602,155,-48.0459,4.47638,-0.00415013,0.00251777,0.00346676,0.00399357,-0.00562593,1.16833,0.00558041,0.0138176,622,869,-48.0459,-4.47636
-595,155,-48.0869,3.6546,-0.00456658,0.00181745,0.00400362,0.00374578,-0.00649491,1.12194,0.00598306,0.0132147,629,869,-48.0868,-3.65459
-588,155,-48.0479,2.88226,-0.00455558,0.0013277,0.00395007,0.00331113,-0.00653901,1.10545,0.00578787,0.0249838,636,869,-48.0479,-2.88227
-581,155,-48.4065,2.21112,-0.0044844,0.00129933,0.00379694,0.00318027,-0.00636534,1.11085,0.00561249,0.0484824,643,869,-48.4065,-2.21113
-574,155,-48.6885,1.66571,0,0,0,0,0,0,0,-1,650,869,-48.6885,-1.66571
-567,155,-38.0134,0.582214,0,0,0,0,0,0,0,-1,657,869,-38.0134,-0.582192
-560,155,-37.1416,-0.708008,0,0,0,0,0,0,0,-1,664,869,-37.1416,0.70801
-553,155,-36.7729,-1.71521,0,0,0,0,0,0,0,-1,671,869,-36.7729,1.71523
-546,155,-22.7988,0.873657,0,0,0,0,0,0,0,-1,678,869,-22.7988,-0.873645
-539,155,-59.4105,0.205811,0,0,0,0,0,0,0,-1,685,869,-59.4105,-0.205782
-532,155,-59.3234,0.402222,-0.00281306,6.37301e-05,0.00193882,0.00103946,-0.00378879,1.10454,0.00293437,0.0488453,692,869,-59.3234,-0.402207
-525,155,-59.4236,0.428406,-0.00139621,0.000405397,0.00152169,0.00127292,-0.00226374,1.05265,0.00206843,0.0384304,699,869,-59.4236,-0.42838
-518,155,-59.5536,0.340393,-0.00110145,0.000560364,0.00110989,0.00111592,-0.00165701,1.10671,0.00161107,0.0427467,706,869,-59.5536,-0.340369
-511,155,-59.5096,0.347778,0.000523818,0.00127855,0.000526318,0.00154881,0.000253561,1.09642,0.000959254,0.0454704,713,869,-59.5096,-0.347793
-504,155,-59.4596,0.216614,0.00325409,0.00235359,-0.000748868,0.00367764,0.00193004,-0.514734,0.00212416,0.0452789,720,869,-59.4596,-0.21663
-497,155,0,0,0,0,0,0,0,0,0,-1,727,869,0,0
-490,155,0,0,0,0,0,0,0,0,0,-1,734,869,0,0
-483,155,0,0,0,0,0,0,0,0,0,-1,741,869,0,0
-476,155,0,0,0,0,0,0,0,0,0,-1,748,869,0,0
-469,155,0,0,0,0,0,0,0,0,0,-1,755,869,0,0
-462,155,0,0,0,0,0,0,0,0,0,-1,762,869,0,0
-455,155,0,0,0,0,0,0,0,0,0,-1,769,869,0,0
-448,155,0,0,0,0,0,0,0,0,0,-1,776,869,0,0
-441,155,0,0,0,0,0,0,0,0,0,-1,783,869,0,0
-434,155,0,0,0,0,0,0,0,0,0,-1,790,869,0,0
-427,155,0,0,0,0,0,0,0,0,0,-1,797,869,0,0
-420,155,0,0,0,0,0,0,0,0,0,-1,804,869,0,0
-413,155,0,0,0,0,0,0,0,0,0,-1,811,869,0,0
-406,155,0,0,0,0,0,0,0,0,0,-1,818,869,0,0
-399,155,0,0,0,0,0,0,0,0,0,-1,825,869,0,0
-392,155,0,0,0,0,0,0,0,0,0,-1,832,869,0,0
-385,155,0,0,0,0,0,0,0,0,0,-1,839,869,0,0
-378,155,0,0,0,0,0,0,0,0,0,-1,846,869,0,0
-371,155,0,0,0,0,0,0,0,0,0,-1,853,869,0,0
-364,155,0,0,0,0,0,0,0,0,0,-1,860,869,0,0
-357,155,0,0,0,0,0,0,0,0,0,-1,867,869,0,0
-350,155,0,0,0,0,0,0,0,0,0,-1,874,869,0,0
-343,155,0,0,0,0,0,0,0,0,0,-1,881,869,0,0
-336,155,0,0,0,0,0,0,0,0,0,-1,888,869,0,0
-329,155,0,0,0,0,0,0,0,0,0,-1,895,869,0,0
-322,155,0,0,0,0,0,0,0,0,0,-1,902,869,0,0
-315,155,0,0,0,0,0,0,0,0,0,-1,909,869,0,0
-308,155,0,0,0,0,0,0,0,0,0,-1,916,869,0,0
-301,155,0,0,0,0,0,0,0,0,0,-1,923,869,0,0
-294,155,0,0,0,0,0,0,0,0,0,-1,930,869,0,0
-287,155,0,0,0,0,0,0,0,0,0,-1,937,869,0,0
-280,155,0,0,0,0,0,0,0,0,0,-1,944,869,0,0
-273,155,0,0,0,0,0,0,0,0,0,-1,951,869,0,0
-266,155,0,0,0,0,0,0,0,0,0,-1,958,869,0,0
-259,155,0,0,0,0,0,0,0,0,0,-1,965,869,0,0
-252,155,0,0,0,0,0,0,0,0,0,-1,972,869,0,0
-245,155,0,0,0,0,0,0,0,0,0,-1,979,869,0,0
-238,155,0,0,0,0,0,0,0,0,0,-1,986,869,0,0
-231,155,0,0,0,0,0,0,0,0,0,-1,993,869,0,0
-224,155,0,0,0,0,0,0,0,0,0,-1,1000,869,0,0
-217,155,0,0,0,0,0,0,0,0,0,-1,1007,869,0,0
-210,155,0,0,0,0,0,0,0,0,0,-1,1014,869,0,0
-203,155,0,0,0,0,0,0,0,0,0,-1,1021,869,0,0
-196,155,0,0,0,0,0,0,0,0,0,-1,1028,869,0,0
-189,155,0,0,0,0,0,0,0,0,0,-1,1035,869,0,0
-182,155,0,0,0,0,0,0,0,0,0,-1,1042,869,0,0
-175,155,0,0,0,0,0,0,0,0,0,-1,1049,869,0,0
-168,155,0,0,0,0,0,0,0,0,0,-1,1056,869,0,0
-161,155,0,0,0,0,0,0,0,0,0,-1,1063,869,0,0
-154,155,0,0,0,0,0,0,0,0,0,-1,1070,869,0,0
-147,155,0,0,0,0,0,0,0,0,0,-1,1077,869,0,0
-140,155,0,0,0,0,0,0,0,0,0,-1,1084,869,0,0
-133,155,0,0,0,0,0,0,0,0,0,-1,1091,869,0,0
-126,155,0,0,0,0,0,0,0,0,0,-1,1098,869,0,0
-119,155,0,0,0,0,0,0,0,0,0,-1,1105,869,0,0
-112,155,0,0,0,0,0,0,0,0,0,-1,1112,869,0,0
-105,155,0,0,0,0,0,0,0,0,0,-1,1119,869,0,0
-98,155,0,0,0,0,0,0,0,0,0,-1,1126,869,0,0
-91,155,0,0,0,0,0,0,0,0,0,-1,1133,869,0,0
-84,155,0,0,0,0,0,0,0,0,0,-1,1140,869,0,0
-77,155,0,0,0,0,0,0,0,0,0,-1,1147,869,0,0
-70,155,0,0,0,0,0,0,0,0,0,-1,1154,869,0,0
-63,155,0,0,0,0,0,0,0,0,0,-1,1161,869,0,0
-56,155,0,0,0,0,0,0,0,0,0,-1,1168,869,0,0
-49,155,0,0,0,0,0,0,0,0,0,-1,1175,869,0,0
-42,155,0,0,0,0,0,0,0,0,0,-1,1182,869,0,0
-35,155,0,0,0,0,0,0,0,0,0,-1,1189,869,0,0
-28,155,0,0,0,0,0,0,0,0,0,-1,1196,869,0,0
-21,155,0,0,0,0,0,0,0,0,0,-1,1203,869,0,0
-14,155,0,0,0,0,0,0,0,0,0,-1,1210,869,0,0
-7,155,0,0,0,0,0,0,0,0,0,-1,1217,869,0,0
0,155,0,0,0,0,0,0,0,0,0,-1,1224,869,0,0
7,155,0,0,0,0,0,0,0,0,0,-1,1231,869,0,0
14,155,0,0,0,0,0,0,0,0,0,-1,1238,869,0,0
21,155,0,0,0,0,0,0,0,0,0,-1,1245,869,0,0
28,155,0,0,0,0,0,0,0,0,0,-1,1252,869,0,0
35,155,0,0,0,0,0,0,0,0,0,-1,1259,869,0,0
42,155,0,0,0,0,0,0,0,0,0,-1,1266,869,0,0
49,155,0,0,0,0,0,0,0,0,0,-1,1273,869,0,0
56,155,0,0,0,0,0,0,0,0,0,-1,1280,869,0,0
63,155,0,0,0,0,0,0,0,0,0,-1,1287,869,0,0
70,155,0,0,0,0,0,0,0,0,0,-1,1294,869,0,0
77,155,0,0,0,0,0,0,0,0,0,-1,1301,869,0,0
84,155,0,0,0,0,0,0,0,0,0,-1,1308,869,0,0
91,155,0,0,0,0,0,0,0,0,0,-1,1315,869,0,0
98,155,0,0,0,0,0,0,0,0,0,-1,1322,869,0,0
105,155,0,0,0,0,0,0,0,0,0,-1,1329,869,0,0
112,155,0,0,0,0,0,0,0,0,0,-1,1336,869,0,0
119,155,0,0,0,0,0,0,0,0,0,-1,1343,869,0,0
126,155,0,0,0,0,0,0,0,0,0,-1,1350,869,0,0
133,155,0,0,0,0,0,0,0,0,0,-1,1357,869,0,0
140,155,0,0,0,0,0,0,0,0,0,-1,1364,869,0,0
147,155,0,0,0,0,0,0,0,0,0,-1,1371,869,0,0
154,155,0,0,0,0,0,0,0,0,0,-1,1378,869,0,0
161,155,0,0,0,0,0,0,0,0,0,-1,1385,869,0,0
168,155,0,0,0,0,0,0,0,0,0,-1,1392,869,0,0
175,155,0,0,0,0,0,0,0,0,0,-1,1399,869,0,0
182,155,0,0,0,0,0,0,0,0,0,-1,1406,869,0,0
189,155,0,0,0,0,0,0,0,0,0,-1,1413,869,0,0
196,155,0,0,0,0,0,0,0,0,0,-1,1420,869,0,0
203,155,0,0,0,0,0,0,0,0,0,-1,1427,869,0,0
210,155,0,0,0,0,0,0,0,0,0,-1,1434,869,0,0
217,155,0,0,0,0,0,0,0,0,0,-1,1441,869,0,0
224,155,0,0,0,0,0,0,0,0,0,-1,1448,869,0,0
231,155,0,0,0,0,0,0,0,0,0,-1,1455,869,0,0
238,155,0,0,0,0,0,0,0,0,0,-1,1462,869,0,0
245,155,0,0,0,0,0,0,0,0,0,-1,1469,869,0,0
252,155,0,0,0,0,0,0,0,0,0,-1,1476,869,0,0
259,155,0,0,0,0,0,0,0,0,0,-1,1483,869,0,0
266,155,0,0,0,0,0,0,0,0,0,-1,1490,869,0,0
273,155,0,0,0,0,0,0,0,0,0,-1,1497,869,0,0
280,155,0,0,0,0,0,0,0,0,0,-1,1504,869,0,0
287,155,0,0,0,0,0,0,0,0,0,-1,1511,869,0,0
294,155,0,0,0,0,0,0,0,0,0,-1,1518,869,0,0
301,155,0,0,0,0,0,0,0,0,0,-1,1525,869,0,0
308,155,0,0,0,0,0,0,0,0,0,-1,1532,869,0,0
315,155,0,0,0,0,0,0,0,0,0,-1,1539,869,0,0
322,155,0,0,0,0,0,0,0,0,0,-1,1546,869,0,0
329,155,0,0,0,0,0,0,0,0,0,-1,1553,869,0,0
336,155,0,0,0,0,0,0,0,0,0,-1,1560,869,0,0
343,155,0,0,0,0,0,0,0,0,0,-1,1567,869,0,0
350,155,0,0,0,0,0,0,0,0,0,-1,1574,869,0,0
357,155,0,0,0,0,0,0,0,0,0,-1,1581,869,0,0
364,155,0,0,0,0,0,0,0,0,0,-1,1588,869,0,0
371,155,0,0,0,0,0,0,0,0,0,-1,1595,869,0,0
378,155,0,0,0,0,0,0,0,0,0,-1,1602,869,0,0
385,155,0,0,0,0,0,0,0,0,0,-1,1609,869,0,0
392,155,0,0,0,0,0,0,0,0,0,-1,1616,869,0,0
399,155,0,0,0,0,0,0,0,0,0,-1,1623,869,0,0
406,155,0,0,0,0,0,0,0,0,0,-1,1630,869,0,0
413,155,0,0,0,0,0,0,0,0,0,-1,1637,869,0,0
420,155,0,0,0,0,0,0,0,0,0,-1,1644,869,0,0
427,155,0,0,0,0,0,0,0,0,0,-1,1651,869,0,0
434,155,0,0,0,0,0,0,0,0,0,-1,1658,869,0,0
441,155,0,0,0,0,0,0,0,0,0,-1,1665,869,0,0
448,155,0,0,0,0,0,0,0,0,0,-1,1672,869,0,0
455,155,0,0,0,0,0,0,0,0,0,-1,1679,869,0,0
462,155,0,0,0,0,0,0,0,0,0,-1,1686,869,0,0
469,155,0,0,0,0,0,0,0,0,0,-1,1693,869,0,0
476,155,0,0,0,0,0,0,0,0,0,-1,1700,869,0,0
483,155,0,0,0,0,0,0,0,0,0,-1,1707,869,0,0
490,155,0,0,0,0,0,0,0,0,0,-1,1714,869,0,0
497,155,0,0,0,0,0,0,0,0,0,-1,1721,869,0,0
504,155,0,0,0,0,0,0,0,0,0,-1,1728,869,0,0
511,155,0,0,0,0,0,0,0,0,0,-1,1735,869,0,0
518,155,0,0,0,0,0,0,0,0,0,-1,1742,869,0,0
525,155,0,0,0,0,0,0,0,0,0,-1,1749,869,0,0
532,155,0,0,0,0,0,0,0,0,0,-1,1756,869,0,0
539,155,0,0,0,0,0,0,0,0,0,-1,1763,869,0,0
546,155,0,0,0,0,0,0,0,0,0,-1,1770,869,0,0
553,155,0,0,0,0,0,0,0,0,0,-1,1777,869,0,0
560,155,0,0,0,0,0,0,0,0,0,-1,1784,869,0,0
567,155,0,0,0,0,0,0,0,0,0,-1,1791,869,0,0
574,155,0,0,0,0,0,0,0,0,0,-1,1798,869,0,0
581,155,0,0,0,0,0,0,0,0,0,-1,1805,869,0,0
588,155,0,0,0,0,0,0,0,0,0,-1,1812,869,0,0
595,155,0,0,0,0,0,0,0,0,0,-1,1819,869,0,0
602,155,0,0,0,0,0,0,0,0,0,-1,1826,869,0,0
609,155,0,0,0,0,0,0,0,0,0,-1,1833,869,0,0
616,155,75.6108,2.38324,-0.00213003,0.00223461,-0.00335439,0.0040541,-0.00394952,-1.07379,0.00462102,0.0460239,1840,869,75.6109,-2.38322
623,155,75.4182,2.35083,-0.00213292,0.00206527,-0.00217169,0.00298651,-0.00305416,-1.1696,0.00348766,0.0466202,1847,869,75.4182,-2.35086
630,155,75.3475,2.38287,-0.00204526,0.00182227,-0.00117939,0.00215354,-0.00237654,-1.29697,0.0026165,0.0452436,1854,869,75.3475,-2.38285
637,155,75.4009,2.36029,-0.00195734,0.00175985,-0.000505348,0.00182733,-0.00202481,-1.43806,0.00222501,0.0416061,1861,869,75.4009,-2.36031
644,155,75.4885,2.22076,-0.00199906,0.00145795,-0.000277491,0.00148008,-0.0020212,-1.49121,0.0020295,0.0386194,1868,869,75.4885,-2.22077
651,155,75.5225,2.1886,-0.00213754,0.00118028,-0.000406906,0.00122946,-0.00218672,-1.45053,0.00199797,0.0363936,1875,869,75.5225,-2.18861
658,155,75.4722,2.15961,-0.00250711,0.000834963,-0.000896056,0.00106005,-0.00273219,-1.32469,0.00225929,0.0303829,1882,869,75.4722,-2.15958
665,155,75.4078,2.10181,-0.0028912,0.000680618,-0.00134981,0.00113334,-0.00334392,-1.24719,0.00268792,0.0402553,1889,869,75.4078,-2.10183
672,155,75.3496,2.10968,0,0,0,0,0,0,0,-1,1896,869,75.3495,-2.10968
679,155,35.1565,2.78528,0,0,0,0,0,0,0,-1,1903,869,35.1565,-2.7853
686,155,43.6101,1.63361,0,0,0,0,0,0,0,-1,1910,869,43.6101,-1.63362
693,155,64.0889,1.09558,0,0,0,0,0,0,0,-1,1917,869,64.0888,-1.09558
700,155,63.735,1.61694,0,0,0,0,0,0,0,-1,1924,869,63.735,-1.61693
707,155,63.7853,2.63495,0,0,0,0,0,0,0,-1,1931,869,63.7853,-2.63498
714,155,63.4807,3.16882,0,0,0,0,0,0,0,-1,1938,869,63.4807,-3.16879
721,155,63.3893,4.11987,-0.00135488,0.000732403,-0.00340742,0.00325242,-0.0038749,-0.934004,0.00412019,0.0493768,1945,869,63.3893,-4.1199
728,155,63.3394,4.98975,-0.000681384,0.000981282,-0.00326435,0.00351849,-0.0032186,-0.910083,0.00389095,0.0214402,1952,869,63.3394,-4.98976
735,155,63.2574,5.78186,0.000565178,0.0013299,-0.0031622,0.00413277,-0.00223769,-0.845564,0.00373184,0.0176915,1959,869,63.2575,-5.78187
742,155,63.2422,6.60297,0.00237438,0.00177851,-0.00318814,0.00527847,-0.00112559,-0.738808,0.00394803,0.0189872,1966,869,63.2421,-6.60297
749,155,63.1563,7.39471,0.00448285,0.00190489,-0.00351928,0.00694178,-0.000554035,-0.609854,0.00482315,0.017891,1973,869,63.1562,-7.39474
756,155,63.0959,8.27692,0.00673101,0.00197646,-0.00425939,0.00923163,-0.000524159,-0.530868,0.00633637,0.0306772,1980,869,63.0959,-8.27693
763,155,63.2288,8.84528,0,0,0,0,0,0,0,-1,1987,869,63.2287,-8.84528
770,155,62.4395,10.1653,0,0,0,0,0,0,0,-1,1994,869,62.4394,-10.1653
777,155,66.1169,10.5297,0,0,0,0,0,0,0,-1,2001,869,66.1171,-10.5298
784,155,55.3955,10.5024,0,0,0,0,0,0,0,-1,2008,869,55.3955,-10.5024
791,155,0,0,0,0,0,0,0,0,0,-1,2015,869,0,0
798,155,0,0,0,0,0,0,0,0,0,-1,2022,869,0,0
805,155,0,0,0,0,0,0,0,0,0,-1,2029,869,0,0
812,155,0,0,0,0,0,0,0,0,0,-1,2036,869,0,0
-700,148,0,0,0,0,0,0,0,0,0,-1,524,876,0,0
-693,148,0,0,0,0,0,0,0,0,0,-1,531,876,0,0
-686,148,0,0,0,0,0,0,0,0,0,-1,538,876,0,0
-679,148,0,0,0,0,0,0,0,0,0,-1,545,876,0,0
-672,148,-48.1407,-0.726746,0,0,0,0,0,0,0,-1,552,876,-48.1407,0.726755
-665,148,-48.2041,-3.97095,0,0,0,0,0,0,0,-1,559,876,-48.2041,3.97096
-658,148,-51.7661,3.82794,0,0,0,0,0,0,0,-1,566,876,-51.7661,-3.82797
-651,148,-52.0392,2.79663,0,0,0,0,0,0,0,-1,573,876,-52.0392,-2.79661
-644,148,-52.2687,1.81482,0,0,0,0,0,0,0,-1,580,876,-52.2687,-1.81482
-637,148,-52.5708,0.881165,0,0,0,0,0,0,0,-1,587,876,-52.5708,-0.88117
-630,148,-48.2549,8.18604,0,0,0,0,0,0,0,-1,594,876,-48.2549,-8.18606
-623,148,-48.5016,7.14978,-0.00377092,0.00693048,0.0023425,0.00742078,-0.00426122,1.36447,0.00682634,0.031544,601,876,-48.5016,-7.1498
-616,148,-48.7166,6.17957,-0.00411935,0.00529944,0.0026039,0.00597138,-0.00479129,1.31826,0.00622627,0.0155625,608,876,-48.7166,-6.17955
-609,148,-48.8408,5.3277,-0.0045708,0.00387059,0.00314302,0.0049123,-0.0056125,1.25076,0.00608098,0.0147441,615,876,-48.8407,-5.32768
-602,148,-48.9359,4.50208,-0.00489296,0.00262991,0.00390418,0.00428982,-0.00655287,1.16879,0.00630531,0.0163671,622,876,-48.9358,-4.50208
-595,148,-48.9631,3.69263,-0.00492916,0.00175271,0.00409999,0.00370061,-0.00687706,1.12727,0.00619813,0.0139946,629,876,-48.9631,-3.69265
-588,148,-48.9773,2.79218,-0.00481363,0.00130672,0.00384696,0.00316221,-0.00666912,1.12139,0.00579524,0.0336406,636,876,-48.9773,-2.79216
-581,148,-49.1889,2.21826,-0.00483954,0.00136483,0.00367703,0.00307348,-0.00654819,1.1358,0.00567453,0.0491455,643,876,-49.1889,-2.21824
-574,148,-49.2101,1.8949,0,0,0,0,0,0,0,-1,650,876,-49.2101,-1.89488
-567,148,-35.6293,0.615784,0,0,0,0,0,0,0,-1,657,876,-35.6293,-0.615792
-560,148,-37.7973,-0.588135,0,0,0,0,0,0,0,-1,664,876,-37.7973,0.588143
-553,148,-18.3896,-0.00280762,0,0,0,0,0,0,0,-1,671,876,-18.3897,0.00278524
-546,148,-59.4573,0.14978,0,0,0,0,0,0,0,-1,678,876,-59.4573,-0.149785
-539,148,-59.3772,0.218872,-0.00462413,0.000360978,0.00247872,0.00138366,-0.00564681,1.17949,0.00430061,0.0486385,685,876,-59.3772,-0.218901
-532,148,-59.4132,0.320435,-0.00341718,0.000100389,0.00193898,0.000959422,-0.00427622,1.15375,0.00321864,0.034751,692,876,-59.4132,-0.320425
-525,148,-59.4404,0.346619,-0.00179223,0.000423778,0.00144214,0.00113441,-0.00250286,1.11296,0.00214895,0.0364342,699,876,-59.4404,-0.346603
-518,148,-59.4836,0.333862,-0.000984989,0.000611887,0.00105672,0.0011379,-0.001511,1.10893,0.00153439,0.0449245,706,876,-59.4837,-0.333873
-511,148,-59.4555,0.39447,0.000913075,0.00139395,0.000541606,0.00174609,0.000560936,0.994298,0.00102936,0.0431353,713,876,-59.4555,-0.394451
-504,148,-59.4153,0.435913,0.00323036,0.00240249,-0.000258738,0.00330457,0.00232828,-0.279325,0.0019604,0.0433609,720,876,-59.4154,-0.435912
-497,148,0,0,0,0,0,0,0,0,0,-1,727,876,0,0
-490,148,0,0,0,0,0,0,0,0,0,-1,734,876,0,0
-483,148,0,0,0,0,0,0,0,0,0,-1,741,876,0,0
-476,148,0,0,0,0,0,0,0,0,0,-1,748,876,0,0
-469,148,0,0,0,0,0,0,0,0,0,-1,755,876,0,0
-462,148,0,0,0,0,0,0,0,0,0,-1,762,876,0,0
-455,148,0,0,0,0,0,0,0,0,0,-1,769,876,0,0
-448,148,0,0,0,0,0,0,0,0,0,-1,776,876,0,0
-441,148,0,0,0,0,0,0,0,0,0,-1,783,876,0,0
-434,148,0,0,0,0,0,0,0,0,0,-1,790,876,0,0
-427,148,0,0,0,0,0,0,0,0,0,-1,797,876,0,0
-420,148,0,0,0,0,0,0,0,0,0,-1,804,876,0,0
-413,148,0,0,0,0,0,0,0,0,0,-1,811,876,0,0
-406,148,0,0,0,0,0,0,0,0,0,-1,818,876,0,0
-399,148,0,0,0,0,0,0,0,0,0,-1,825,876,0,0
-392,148,0,0,0,0,0,0,0,0,0,-1,832,876,0,0
-385,148,0,0,0,0,0,0,0,0,0,-1,839,876,0,0
-378,148,0,0,0,0,0,0,0,0,0,-1,846,876,0,0
-371,148,0,0,0,0,0,0,0,0,0,-1,853,876,0,0
-364,148,0,0,0,0,0,0,0,0,0,-1,860,876,0,0
-357,148,0,0,0,0,0,0,0,0,0,-1,867,876,0,0
-350,148,0,0,0,0,0,0,0,0,0,-1,874,876,0,0
-343,148,0,0,0,0,0,0,0,0,0,-1,881,876,0,0
-336,148,0,0,0,0,0,0,0,0,0,-1,888,876,0,0
-329,148,0,0,0,0,0,0,0,0,0,-1,895,876,0,0
-322,148,0,0,0,0,0,0,0,0,0,-1,902,876,0,0
-315,148,0,0,0,0,0,0,0,0,0,-1,909,876,0,0
-308,148,0,0,0,0,0,0,0,0,0,-1,916,876,0,0
-301,148,0,0,0,0,0,0,0,0,0,-1,923,876,0,0
-294,148,0,0,0,0,0,0,0,0,0,-1,930,876,0,0
-287,148,0,0,0,0,0,0,0,0,0,-1,937,876,0,0
-280,148,0,0,0,0,0,0,0,0,0,-1,944,876,0,0
-273,148,0,0,0,0,0,0,0,0,0,-1,951,876,0,0
-266,148,0,0,0,0,0,0,0,0,0,-1,958,876,0,0
-259,148,0,0,0,0,0,0,0,0,0,-1,965,876,0,0
-252,148,0,0,0,0,0,0,0,0,0,-1,972,876,0,0
-245,148,0,0,0,0,0,0,0,0,0,-1,979,876,0,0
-238,148,0,0,0,0,0,0,0,0,0,-1,986,876,0,0
-231,148,0,0,0,0,0,0,0,0,0,-1,993,876,0,0
-224,148,0,0,0,0,0,0,0,0,0,-1,1000,876,0,0
-217,148,0,0,0,0,0,0,0,0,0,-1,1007,876,0,0
-210,148,0,0,0,0,0,0,0,0,0,-1,1014,876,0,0
-203,148,0,0,0,0,0,0,0,0,0,-1,1021,876,0,0
-196,148,0,0,0,0,0,0,0,0,0,-1,1028,876,0,0
-189,148,0,0,0,0,0,0,0,0,0,-1,1035,876,0,0
-182,148,0,0,0,0,0,0,0,0,0,-1,1042,876,0,0
-175,148,0,0,0,0,0,0,0,0,0,-1,1049,876,0,0
-168,148,0,0,0,0,0,0,0,0,0,-1,1056,876,0,0
-161,148,0,0,0,0,0,0,0,0,0,-1,1063,876,0,0
-154,148,0,0,0,0,0,0,0,0,0,-1,1070,876,0,0
-147,148,0,0,0,0,0,0,0,0,0,-1,1077,876,0,0
-140,148,0,0,0,0,0,0,0,0,0,-1,1084,876,0,0
-133,148,0,0,0,0,0,0,0,0,0,-1,1091,876,0,0
-126,148,0,0,0,0,0,0,0,0,0,-1,1098,876,0,0
-119,148,0,0,0,0,0,0,0,0,0,-1,1105,876,0,0
-112,148,0,0,0,0,0,0,0,0,0,-1,1112,876,0,0
-105,148,0,0,0,0,0,0,0,0,0,-1,1119,876,0,0
-98,148,0,0,0,0,0,0,0,0,0,-1,1126,876,0,0
-91,148,0,0,0,0,0,0,0,0,0,-1,1133,876,0,0
-84,148,0,0,0,0,0,0,0,0,0,-1,1140,876,0,0
-77,148,0,0,0,0,0,0,0,0,0,-1,1147,876,0,0
-70,148,0,0,0,0,0,0,0,0,0,-1,1154,876,0,0
-63,148,0,0,0,0,0,0,0,0,0,-1,1161,876,0,0
-56,148,0,0,0,0,0,0,0,0,0,-1,1168,876,0,0
-49,148,0,0,0,0,0,0,0,0,0,-1,1175,876,0,0
-42,148,0,0,0,0,0,0,0,0,0,-1,1182,876,0,0
-35,148,0,0,0,0,0,0,0,0,0,-1,1189,876,0,0
-28,148,0,0,0,0,0,0,0,0,0,-1,1196,876,0,0
-21,148,0,0,0,0,0,0,0,0,0,-1,1203,876,0,0
-14,148,0,0,0,0,0,0,0,0,0,-1,1210,876,0,0
-7,148,0,0,0,0,0,0,0,0,0,-1,1217,876,0,0
0,148,0,0,0,0,0,0,0,0,0,-1,1224,876,0,0
7,148,0,0,0,0,0,0,0,0,0,-1,1231,876,0,0
14,148,0,0,0,0,0,0,0,0,0,-1,1238,876,0,0
21,148,0,0,0,0,0,0,0,0,0,-1,1245,876,0,0
28,148,0,0,0,0,0,0,0,0,0,-1,1252,876,0,0
35,148,0,0,0,0,0,0,0,0,0,-1,1259,876,0,0
42,148,0,0,0,0,0,0,0,0,0,-1,1266,876,0,0
49,148,0,0,0,0,0,0,0,0,0,-1,1273,876,0,0
56,148,0,0,0,0,0,0,0,0,0,-1,1280,876,0,0
63,148,0,0,0,0,0,0,0,0,0,-1,1287,876,0,0
70,148,0,0,0,0,0,0,0,0,0,-1,1294,876,0,0
77,148,0,0,0,0,0,0,0,0,0,-1,1301,876,0,0
84,148,0,0,0,0,0,0,0,0,0,-1,1308,876,0,0
91,148,0,0,0,0,0,0,0,0,0,-1,1315,876,0,0
98,148,0,0,0,0,0,0,0,0,0,-1,1322,876,0,0
105,148,0,0,0,0,0,0,0,0,0,-1,1329,876,0,0
112,148,0,0,0,0,0,0,0,0,0,-1,1336,876,0,0
119,148,0,0,0,0,0,0,0,0,0,-1,1343,876,0,0
126,148,0,0,0,0,0,0,0,0,0,-1,1350,876,0,0
133,148,0,0,0,0,0,0,0,0,0,-1,1357,876,0,0
140,148,0,0,0,0,0,0,0,0,0,-1,1364,876,0,0
147,148,0,0,0,0,0,0,0,0,0,-1,1371,876,0,0
154,148,0,0,0,0,0,0,0,0,0,-1,1378,876,0,0
161,148,0,0,0,0,0,0,0,0,0,-1,1385,876,0,0
168,148,0,0,0,0,0,0,0,0,0,-1,1392,876,0,0
175,148,0,0,0,0,0,0,0,0,0,-1,1399,876,0,0
182,148,0,0,0,0,0,0,0,0,0,-1,1406,876,0,0
189,148,0,0,0,0,0,0,0,0,0,-1,1413,876,0,0
196,148,0,0,0,0,0,0,0,0,0,-1,1420,876,0,0
203,148,0,0,0,0,0,0,0,0,0,-1,1427,876,0,0
210,148,0,0,0,0,0,0,0,0,0,-1,1434,876,0,0
217,148,0,0,0,0,0,0,0,0,0,-1,1441,876,0,0
224,148,0,0,0,0,0,0,0,0,0,-1,1448,876,0,0
231,148,0,0,0,0,0,0,0,0,0,-1,1455,876,0,0
238,148,0,0,0,0,0,0,0,0,0,-1,1462,876,0,0
245,148,0,0,0,0,0,0,0,0,0,-1,1469,876,0,0
252,148,0,0,0,0,0,0,0,0,0,-1,1476,876,0,0
259,148,0,0,0,0,0,0,0,0,0,-1,1483,876,0,0
266,148,0,0,0,0,0,0,0,0,0,-1,1490,876,0,0
273,148,0,0,0,0,0,0,0,0,0,-1,1497,876,0,0
280,148,0,0,0,0,0,0,0,0,0,-1,1504,876,0,0
287,148,0,0,0,0,0,0,0,0,0,-1,1511,876,0,0
294,148,0,0,0,0,0,0,0,0,0,-1,1518,876,0,0
301,148,0,0,0,0,0,0,0,0,0,-1,1525,876,0,0
308,148,0,0,0,0,0,0,0,0,0,-1,1532,876,0,0
315,148,0,0,0,0,0,0,0,0,0,-1,1539,876,0,0
322,148,0,0,0,0,0,0,0,0,0,-1,1546,876,0,0
329,148,0,0,0,0,0,0,0,0,0,-1,1553,876,0,0
336,148,0,0,0,0,0,0,0,0,0,-1,1560,876,0,0
343,148,0,0,0,0,0,0,0,0,0,-1,1567,876,0,0
350,148,0,0,0,0,0,0,0,0,0,-1,1574,876,0,0
357,148,0,0,0,0,0,0,0,0,0,-1,1581,876,0,0
364,148,0,0,0,0,0,0,0,0,0,-1,1588,876,0,0
371,148,0,0,0,0,0,0,0,0,0,-1,1595,876,0,0
378,148,0,0,0,0,0,0,0,0,0,-1,1602,876,0,0
385,148,0,0,0,0,0,0,0,0,0,-1,1609,876,0,0
392,148,0,0,0,0,0,0,0,0,0,-1,1616,876,0,0
399,148,0,0,0,0,0,0,0,0,0,-1,1623,876,0,0
406,148,0,0,0,0,0,0,0,0,0,-1,1630,876,0,0
413,148,0,0,0,0,0,0,0,0,0,-1,1637,876,0,0
420,148,0,0,0,0,0,0,0,0,0,-1,1644,876,0,0
427,148,0,0,0,0,0,0,0,0,0,-1,1651,876,0,0
434,148,0,0,0,0,0,0,0,0,0,-1,1658,876,0,0
441,148,0,0,0,0,0,0,0,0,0,-1,1665,876,0,0
448,148,0,0,0,0,0,0,0,0,0,-1,1672,876,0,0
455,148,0,0,0,0,0,0,0,0,0,-1,1679,876,0,0
462,148,0,0,0,0,0,0,0,0,0,-1,1686,876,0,0
469,148,0,0,0,0,0,0,0,0,0,-1,1693,876,0,0
476,148,0,0,0,0,0,0,0,0,0,-1,1700,876,0,0
483,148,0,0,0,0,0,0,0,0,0,-1,1707,876,0,0
490,148,0,0,0,0,0,0,0,0,0,-1,1714,876,0,0
497,148,0,0,0,0,0,0,0,0,0,-1,1721,876,0,0
504,148,0,0,0,0,0,0,0,0,0,-1,1728,876,0,0
511,148,0,0,0,0,0,0,0,0,0,-1,1735,876,0,0
518,148,0,0,0,0,0,0,0,0,0,-1,1742,876,0,0
525,148,0,0,0,0,0,0,0,0,0,-1,1749,876,0,0
532,148,0,0,0,0,0,0,0,0,0,-1,1756,876,0,0
539,148,0,0,0,0,0,0,0,0,0,-1,1763,876,0,0
546,148,0,0,0,0,0,0,0,0,0,-1,1770,876,0,0
553,148,0,0,0,0,0,0,0,0,0,-1,1777,876,0,0
560,148,0,0,0,0,0,0,0,0,0,-1,1784,876,0,0
567,148,0,0,0,0,0,0,0,0,0,-1,1791,876,0,0
574,148,0,0,0,0,0,0,0,0,0,-1,1798,876,0,0
581,148,0,0,0,0,0,0,0,0,0,-1,1805,876,0,0
588,148,0,0,0,0,0,0,0,0,0,-1,1812,876,0,0
595,148,0,0,0,0,0,0,0,0,0,-1,1819,876,0,0
602,148,0,0,0,0,0,0,0,0,0,-1,1826,876,0,0
609,148,0,0,0,0,0,0,0,0,0,-1,1833,876,0,0
616,148,0,0,0,0,0,0,0,0,0,-1,1840,876,0,0
623,148,75.4496,2.28729,-0.0028837,0.00314299,-0.002207,0.00386476,-0.00360548,-1.25472,0.00431381,0.0429822,1847,876,75.4496,-2.2873
630,148,75.2389,2.32025,-0.0026294,0.00267701,-0.00127711,0.00296838,-0.00292077,-1.34649,0.00340014,0.0427106,1854,876,75.239,-2.32024
637,148,75.2709,2.30762,-0.00234257,0.00243417,-0.000650535,0.00252118,-0.00242958,-1.43783,0.00285848,0.0383481,1861,876,75.2709,-2.30764
644,148,75.2917,2.23798,-0.00214179,0.00203793,-0.000347676,0.00206665,-0.00217051,-1.48837,0.00244657,0.0389444,1868,876,75.2918,-2.23798
651,148,75.3689,2.13947,-0.00207966,0.00167111,-0.000385165,0.00171025,-0.00211881,-1.46952,0.0022149,0.0410917,1875,876,75.3689,-2.13947
658,148,75.4178,2.2002,-0.0023183,0.00129101,-0.000791556,0.00145697,-0.00248426,-1.36412,0.00230109,0.0352951,1882,876,75.4179,-2.2002
665,148,75.3291,2.28131,-0.00263888,0.00111162,-0.00123018,0.00147911,-0.00300638,-1.2805,0.00263926,0.0263203,1889,876,75.3291,-2.28133
672,148,75.1459,2.43256,0,0,0,0,0,0,0,-1,1896,876,75.1458,-2.43259
679,148,74.9795,2.56323,0,0,0,0,0,0,0,-1,1903,876,74.9795,-2.56321
686,148,21.6195,2.40845,0,0,0,0,0,0,0,-1,1910,876,21.6196,-2.40846
693,148,48.1387,1.97351,0,0,0,0,0,0,0,-1,1917,876,48.1387,-1.97351
700,148,64.6954,2.26196,0,0,0,0,0,0,0,-1,1924,876,64.6955,-2.26195
707,148,64.6913,2.87427,0,0,0,0,0,0,0,-1,1931,876,64.6913,-2.87426
714,148,64.598,3.53558,0,0,0,0,0,0,0,-1,1938,876,64.5981,-3.53561
721,148,64.2251,4.28339,-0.00137269,0.00110471,-0.00343215,0.00351485,-0.00378284,-0.958579,0.00421427,0.0359553,1945,876,64.2251,-4.2834
728,148,64.1984,5.02466,-0.00102948,0.00140683,-0.003377,0.00377867,-0.00340131,-0.958495,0.00414727,0.0230378,1952,876,64.1983,-5.02468
735,148,64.1586,5.84558,6.13834e-05,0.00212433,-0.00333166,0.00458054,-0.00239483,-0.935517,0.0040926,0.0235502,1959,876,64.1586,-5.84556
742,148,64.0812,6.65155,0.00205282,0.0034885,-0.00331361,0.00616113,-0.000619818,-0.892066,0.00432885,0.0237543,1966,876,64.0811,-6.65158
749,148,63.9742,7.41583,0.00479024,0.00497403,-0.00343374,0.00831711,0.00144716,-0.798776,0.00513084,0.0218557,1973,876,63.9742,-7.41586
756,148,63.9502,8.29681,0.0081616,0.00694999,-0.00382496,0.0114284,0.00368316,-0.70686,0.00673571,0.026211,1980,876,63.9502,-8.29681
763,148,64.1604,8.78528,0.0122215,0.00955305,-0.00454886,0.0156278,0.00614679,-0.642743,0.0090909,0.0441121,1987,876,64.1603,-8.78525
770,148,64.3406,9.29352,0,0,0,0,0,0,0,-1,1994,876,64.3406,-9.29353
777,148,67.3845,10.6894,0,0,0,0,0,0,0,-1,2001,876,67.3844,-10.6894
784,148,69.7029,11.9343,0,0,0,0,0,0,0,-1,2008,876,69.7029,-11.9343
791,148,71.9668,12.1055,0,0,0,0,0,0,0,-1,2015,876,71.9667,-12.1055
798,148,0,0,0,0,0,0,0,0,0,-1,2022,876,0,0
805,148,0,0,0,0,0,0,0,0,0,-1,2029,876,0,0
812,148,0,0,0,0,0,0,0,0,0,-1,2036,876,0,0
-700,141,0,0,0,0,0,0,0,0,0,-1,524,883,0,0
-693,141,0,0,0,0,0,0,0,0,0,-1,531,883,0,0
-686,141,0,0,0,0,0,0,0,0,0,-1,538,883,0,0
-679,141,0,0,0,0,0,0,0,0,0,-1,545,883,0,0
-672,141,-48.7804,-0.600891,0,0,0,0,0,0,0,-1,552,883,-48.7804,0.600898
-665,141,-48.764,-3.67065,0,0,0,0,0,0,0,-1,559,883,-48.764,3.67066
-658,141,-52.3438,3.12531,0,0,0,0,0,0,0,-1,566,883,-52.3438,-3.1253
-651,141,-53.1779,1.50293,0,0,0,0,0,0,0,-1,573,883,-53.1778,-1.50292
-644,141,-52.4205,-0.191956,0,0,0,0,0,0,0,-1,580,883,-52.4205,0.191941
-637,141,-52.859,0.400024,0,0,0,0,0,0,0,-1,587,883,-52.859,-0.400006
-630,141,-49.0532,8.11597,0,0,0,0,0,0,0,-1,594,883,-49.0532,-8.11595
-623,141,-49.2951,7.07886,-0.00304583,0.00780323,0.00521316,0.00990217,-0.00514477,1.18803,0.00883091,0.0370148,601,883,-49.2951,-7.07887
-616,141,-49.5725,6.17316,-0.00436947,0.00602981,0.00403312,0.00741062,-0.00575028,1.24094,0.00761858,0.0149373,608,883,-49.5725,-6.17317
-609,141,-49.698,5.3634,-0.00524674,0.00418536,0.00385774,0.0055622,-0.00662358,1.22799,0.00704435,0.0151563,615,883,-49.698,-5.36342
-602,141,-49.7686,4.54657,-0.00565553,0.00258518,0.00415783,0.00431845,-0.0073888,1.17583,0.00683623,0.0163574,622,883,-49.7686,-4.54655
-595,141,-49.7215,3.70081,-0.00564146,0.0015725,0.00402019,0.00336665,-0.00743561,1.15104,0.00638246,0.0200017,629,883,-49.7215,-3.70081
-588,141,-50.1885,2.81763,-0.00553688,0.00113768,0.00364364,0.00274141,-0.00714061,1.15617,0.00589082,0.0389988,636,883,-50.1885,-2.8176
-581,141,-50.6033,1.91827,0,0,0,0,0,0,0,-1,643,883,-50.6033,-1.9183
-574,141,-42.7302,0.864685,0,0,0,0,0,0,0,-1,650,883,-42.7301,-0.864692
-567,141,-30.5335,0.480103,0,0,0,0,0,0,0,-1,657,883,-30.5335,-0.480081
-560,141,-30.5542,0.23175,0,0,0,0,0,0,0,-1,664,883,-30.5542,-0.231742
-553,141,-32.0876,1.39459,0,0,0,0,0,0,0,-1,671,883,-32.0876,-1.3946
-546,141,-59.3972,0.213318,0,0,0,0,0,0,0,-1,678,883,-59.3972,-0.213298
-539,141,-59.4081,0.246521,-0.00550976,0.000276618,0.00226702,0.00105901,-0.00629215,1.23847,0.00458869,0.029973,685,883,-59.4081,-0.246505
-532,141,-59.4408,0.266357,-0.00397537,6.03984e-05,0.00173041,0.000700744,-0.00461572,1.21637,0.00333535,0.0270789,692,883,-59.4408,-0.266364
-525,141,-59.4749,0.296326,-0.00222214,0.000428561,0.00128314,0.000947935,-0.00274151,1.18619,0.00221241,0.0348939,699,883,-59.4749,-0.296327
-518,141,-59.4861,0.379761,-0.00135601,0.000644568,0.00114321,0.00116333,-0.00187477,1.14481,0.00177001,0.0421169,706,883,-59.4862,-0.379752
-511,141,-59.5165,0.447266,0.000193999,0.00123839,0.000900901,0.0017575,-0.000325107,1.04805,0.00129372,0.0389503,713,883,-59.5165,-0.447275
-504,141,-59.5291,0.438293,0.00207069,0.00193977,0.000497818,0.00250733,0.00150313,0.720026,0.00145713,0.0398738,720,883,-59.529,-0.438302
-497,141,0,0,0,0,0,0,0,0,0,-1,727,883,0,0
-490,141,0,0,0,0,0,0,0,0,0,-1,734,883,0,0
-483,141,0,0,0,0,0,0,0,0,0,-1,741,883,0,0
-476,141,0,0,0,0,0,0,0,0,0,-1,748,883,0,0
-469,141,0,0,0,0,0,0,0,0,0,-1,755,883,0,0
-462,141,0,0,0,0,0,0,0,0,0,-1,762,883,0,0
-455,141,0,0,0,0,0,0,0,0,0,-1,769,883,0,0
-448,141,0,0,0,0,0,0,0,0,0,-1,776,883,0,0
-441,141,0,0,0,0,0,0,0,0,0,-1,783,883,0,0
-434,141,0,0,0,0,0,0,0,0,0,-1,790,883,0,0
-427,141,0,0,0,0,0,0,0,0,0,-1,797,883,0,0
-420,141,0,0,0,0,0,0,0,0,0,-1,804,883,0,0
-413,141,0,0,0,0,0,0,0,0,0,-1,811,883,0,0
-406,141,0,0,0,0,0,0,0,0,0,-1,818,883,0,0
-399,141,0,0,0,0,0,0,0,0,0,-1,825,883,0,0
-392,141,0,0,0,0,0,0,0,0,0,-1,832,883,0,0
-385,141,0,0,0,0,0,0,0,0,0,-1,839,883,0,0
-378,141,0,0,0,0,0,0,0,0,0,-1,846,883,0,0
-371,141,0,0,0,0,0,0,0,0,0,-1,853,883,0,0
-364,141,0,0,0,0,0,0,0,0,0,-1,860,883,0,0
-357,141,0,0,0,0,0,0,0,0,0,-1,867,883,0,0
-350,141,0,0,0,0,0,0,0,0,0,-1,874,883,0,0
-343,141,0,0,0,0,0,0,0,0,0,-1,881,883,0,0
-336,141,0,0,0,0,0,0,0,0,0,-1,888,883,0,0
-329,141,0,0,0,0,0,0,0,0,0,-1,895,883,0,0
-322,141,0,0,0,0,0,0,0,0,0,-1,902,883,0,0
-315,141,0,0,0,0,0,0,0,0,0,-1,909,883,0,0
-308,141,0,0,0,0,0,0,0,0,0,-1,916,883,0,0
-301,141,0,0,0,0,0,0,0,0,0,-1,923,883,0,0
-294,141,0,0,0,0,0,0,0,0,0,-1,930,883,0,0
-287,141,0,0,0,0,0,0,0,0,0,-1,937,883,0,0
-280,141,0,0,0,0,0,0,0,0,0,-1,944,883,0,0
-273,141,0,0,0,0,0,0,0,0,0,-1,951,883,0,0
-266,141,0,0,0,0,0,0,0,0,0,-1,958,883,0,0
-259,141,0,0,0,0,0,0,0,0,0,-1,965,883,0,0
-252,141,0,0,0,0,0,0,0,0,0,-1,972,883,0,0
-245,141,0,0,0,0,0,0,0,0,0,-1,979,883,0,0
-238,141,0,0,0,0,0,0,0,0,0,-1,986,883,0,0
-231,141,0,0,0,0,0,0,0,0,0,-1,993,883,0,0
-224,141,0,0,0,0,0,0,0,0,0,-1,1000,883,0,0
-217,141,0,0,0,0,0,0,0,0,0,-1,1007,883,0,0
-210,141,0,0,0,0,0,0,0,0,0,-1,1014,883,0,0
-203,141,0,0,0,0,0,0,0,0,0,-1,1021,883,0,0
-196,141,0,0,0,0,0,0,0,0,0,-1,1028,883,0,0
-189,141,0,0,0,0,0,0,0,0,0,-1,1035,883,0,0
-182,141,0,0,0,0,0,0,0,0,0,-1,1042,883,0,0
-175,141,0,0,0,0,0,0,0,0,0,-1,1049,883,0,0
-168,141,0,0,0,0,0,0,0,0,0,-1,1056,883,0,0
-161,141,0,0,0,0,0,0,0,0,0,-1,1063,883,0,0
-154,141,0,0,0,0,0,0,0,0,0,-1,1070,883,0,0
-147,141,0,0,0,0,0,0,0,0,0,-1,1077,883,0,0
-140,141,0,0,0,0,0,0,0,0,0,-1,1084,883,0,0
-133,141,0,0,0,0,0,0,0,0,0,-1,1091,883,0,0
-126,141,0,0,0,0,0,0,0,0,0,-1,1098,883,0,0
-119,141,0,0,0,0,0,0,0,0,0,-1,1105,883,0,0
-112,141,0,0,0,0,0,0,0,0,0,-1,1112,883,0,0
-105,141,0,0,0,0,0,0,0,0,0,-1,1119,883,0,0
-98,141,0,0,0,0,0,0,0,0,0,-1,1126,883,0,0
-91,141,0,0,0,0,0,0,0,0,0,-1,1133,883,0,0
-84,141,0,0,0,0,0,0,0,0,0,-1,1140,883,0,0
-77,141,0,0,0,0,0,0,0,0,0,-1,1147,883,0,0
-70,141,0,0,0,0,0,0,0,0,0,-1,1154,883,0,0
-63,141,0,0,0,0,0,0,0,0,0,-1,1161,883,0,0
-56,141,0,0,0,0,0,0,0,0,0,-1,1168,883,0,0
-49,141,0,0,0,0,0,0,0,0,0,-1,1175,883,0,0
-42,141,0,0,0,0,0,0,0,0,0,-1,1182,883,0,0
-35,141,0,0,0,0,0,0,0,0,0,-1,1189,883,0,0
-28,141,0,0,0,0,0,0,0,0,0,-1,1196,883,0,0
-21,141,0,0,0,0,0,0,0,0,0,-1,1203,883,0,0
-14,141,0,0,0,0,0,0,0,0,0,-1,1210,883,0,0
-7,141,0,0,0,0,0,0,0,0,0,-1,1217,883,0,0
0,141,0,0,0,0,0,0,0,0,0,-1,1224,883,0,0
7,141,0,0,0,0,0,0,0,0,0,-1,1231,883,0,0
14,141,0,0,0,0,0,0,0,0,0,-1,1238,883,0,0
21,141,0,0,0,0,0,0,0,0,0,-1,1245,883,0,0
28,141,0,0,0,0,0,0,0,0,0,-1,1252,883,0,0
35,141,0,0,0,0,0,0,0,0,0,-1,1259,883,0,0
42,141,0,0,0,0,0,0,0,0,0,-1,1266,883,0,0
49,141,0,0,0,0,0,0,0,0,0,-1,1273,883,0,0
56,141,0,0,0,0,0,0,0,0,0,-1,1280,883,0,0
63,141,0,0,0,0,0,0,0,0,0,-1,1287,883,0,0
70,141,0,0,0,0,0,0,0,0,0,-1,1294,883,0,0
77,141,0,0,0,0,0,0,0,0,0,-1,1301,883,0,0
84,141,0,0,0,0,0,0,0,0,0,-1,1308,883,0,0
91,141,0,0,0,0,0,0,0,0,0,-1,1315,883,0,0
98,141,0,0,0,0,0,0,0,0,0,-1,1322,883,0,0
105,141,0,0,0,0,0,0,0,0,0,-1,1329,883,0,0
112,141,0,0,0,0,0,0,0,0,0,-1,1336,883,0,0
119,141,0,0,0,0,0,0,0,0,0,-1,1343,883,0,0
126,141,0,0,0,0,0,0,0,0,0,-1,1350,883,0,0
133,141,0,0,0,0,0,0,0,0,0,-1,1357,883,0,0
140,141,0,0,0,0,0,0,0,0,0,-1,1364,883,0,0
147,141,0,0,0,0,0,0,0,0,0,-1,1371,883,0,0
154,141,0,0,0,0,0,0,0,0,0,-1,1378,883,0,0
161,141,0,0,0,0,0,0,0,0,0,-1,1385,883,0,0
168,141,0,0,0,0,0,0,0,0,0,-1,1392,883,0,0
175,141,0,0,0,0,0,0,0,0,0,-1,1399,883,0,0
182,141,0,0,0,0,0,0,0,0,0,-1,1406,883,0,0
189,141,0,0,0,0,0,0,0,0,0,-1,1413,883,0,0
196,141,0,0,0,0,0,0,0,0,0,-1,1420,883,0,0
203,141,0,0,0,0,0,0,0,0,0,-1,1427,883,0,0
210,141,0,0,0,0,0,0,0,0,0,-1,1434,883,0,0
217,141,0,0,0,0,0,0,0,0,0,-1,1441,883,0,0
224,141,0,0,0,0,0,0,0,0,0,-1,1448,883,0,0
231,141,0,0,0,0,0,0,0,0,0,-1,1455,883,0,0
238,141,0,0,0,0,0,0,0,0,0,-1,1462,883,0,0
245,141,0,0,0,0,0,0,0,0,0,-1,1469,883,0,0
252,141,0,0,0,0,0,0,0,0,0,-1,1476,883,0,0
259,141,0,0,0,0,0,0,0,0,0,-1,1483,883,0,0
266,141,0,0,0,0,0,0,0,0,0,-1,1490,883,0,0
273,141,0,0,0,0,0,0,0,0,0,-1,1497,883,0,0
280,141,0,0,0,0,0,0,0,0,0,-1,1504,883,0,0
287,141,0,0,0,0,0,0,0,0,0,-1,1511,883,0,0
294,141,0,0,0,0,0,0,0,0,0,-1,1518,883,0,0
301,141,0,0,0,0,0,0,0,0,0,-1,1525,883,0,0
308,141,0,0,0,0,0,0,0,0,0,-1,1532,883,0,0
315,141,0,0,0,0,0,0,0,0,0,-1,1539,883,0,0
322,141,0,0,0,0,0,0,0,0,0,-1,1546,883,0,0
329,141,0,0,0,0,0,0,0,0,0,-1,1553,883,0,0
336,141,0,0,0,0,0,0,0,0,0,-1,1560,883,0,0
343,141,0,0,0,0,0,0,0,0,0,-1,1567,883,0,0
350,141,0,0,0,0,0,0,0,0,0,-1,1574,883,0,0
357,141,0,0,0,0,0,0,0,0,0,-1,1581,883,0,0
364,141,0,0,0,0,0,0,0,0,0,-1,1588,883,0,0
371,141,0,0,0,0,0,0,0,0,0,-1,1595,883,0,0
378,141,0,0,0,0,0,0,0,0,0,-1,1602,883,0,0
385,141,0,0,0,0,0,0,0,0,0,-1,1609,883,0,0
392,141,0,0,0,0,0,0,0,0,0,-1,1616,883,0,0
399,141,0,0,0,0,0,0,0,0,0,-1,1623,883,0,0
406,141,0,0,0,0,0,0,0,0,0,-1,1630,883,0,0
413,141,0,0,0,0,0,0,0,0,0,-1,1637,883,0,0
420,141,0,0,0,0,0,0,0,0,0,-1,1644,883,0,0
427,141,0,0,0,0,0,0,0,0,0,-1,1651,883,0,0
434,141,0,0,0,0,0,0,0,0,0,-1,1658,883,0,0
441,141,0,0,0,0,0,0,0,0,0,-1,1665,883,0,0
448,141,0,0,0,0,0,0,0,0,0,-1,1672,883,0,0
455,141,0,0,0,0,0,0,0,0,0,-1,1679,883,0,0
462,141,0,0,0,0,0,0,0,0,0,-1,1686,883,0,0
469,141,0,0,0,0,0,0,0,0,0,-1,1693,883,0,0
476,141,0,0,0,0,0,0,0,0,0,-1,1700,883,0,0
483,141,0,0,0,0,0,0,0,0,0,-1,1707,883,0,0
490,141,0,0,0,0,0,0,0,0,0,-1,1714,883,0,0
497,141,0,0,0,0,0,0,0,0,0,-1,1721,883,0,0
504,141,0,0,0,0,0,0,0,0,0,-1,1728,883,0,0
511,141,0,0,0,0,0,0,0,0,0,-1,1735,883,0,0
518,141,0,0,0,0,0,0,0,0,0,-1,1742,883,0,0
525,141,0,0,0,0,0,0,0,0,0,-1,1749,883,0,0
532,141,0,0,0,0,0,0,0,0,0,-1,1756,883,0,0
539,141,0,0,0,0,0,0,0,0,0,-1,1763,883,0,0
546,141,0,0,0,0,0,0,0,0,0,-1,1770,883,0,0
553,141,0,0,0,0,0,0,0,0,0,-1,1777,883,0,0
560,141,0,0,0,0,0,0,0,0,0,-1,1784,883,0,0
567,141,0,0,0,0,0,0,0,0,0,-1,1791,883,0,0
574,141,0,0,0,0,0,0,0,0,0,-1,1798,883,0,0
581,141,0,0,0,0,0,0,0,0,0,-1,1805,883,0,0
588,141,0,0,0,0,0,0,0,0,0,-1,1812,883,0,0
595,141,0,0,0,0,0,0,0,0,0,-1,1819,883,0,0
602,141,0,0,0,0,0,0,0,0,0,-1,1826,883,0,0
609,141,0,0,0,0,0,0,0,0,0,-1,1833,883,0,0
616,141,0,0,0,0,0,0,0,0,0,-1,1840,883,0,0
623,141,75.5122,2.1853,-0.00356091,0.00430604,-0.0020808,0.0048225,-0.00407737,-1.32751,0.00514434,0.0461503,1847,883,75.5122,-2.18529
630,141,75.3815,2.10077,-0.00315357,0.00358428,-0.00114439,0.00377335,-0.00334264,-1.40707,0.00411092,0.046526,1854,883,75.3814,-2.10074
637,141,75.3334,2.09839,-0.00271333,0.00315253,-0.00060915,0.00321512,-0.00277592,-1.46841,0.00346202,0.0445166,1861,883,75.3334,-2.09838
644,141,75.2667,2.08411,-0.00232207,0.00263662,-0.000322744,0.00265753,-0.00234299,-1.50607,0.00288896,0.0435114,1868,883,75.2667,-2.08411
651,141,75.4432,2.09045,-0.00204659,0.00215141,-0.000315647,0.00217501,-0.00207019,-1.49617,0.00245122,0.0424648,1875,883,75.4432,-2.09045
658,141,75.4757,2.10803,-0.0020804,0.00170038,-0.000632274,0.00180332,-0.00218333,-1.40941,0.00230518,0.0380817,1882,883,75.4757,-2.108
665,141,75.3094,2.24091,-0.00227874,0.00145287,-0.00101703,0.00171205,-0.00253792,-1.32126,0.00246912,0.0305179,1889,883,75.3094,-2.24088
672,141,75.2949,2.29675,-0.00211415,0.00113323,-0.00133584,0.00161212,-0.00259304,-1.22658,0.00244977,0.0291033,1896,883,75.2949,-2.29678
679,141,75.2375,2.34253,-0.00196951,0.000860769,-0.00157496,0.00156296,-0.0026717,-1.1514,0.00247266,0.046168,1903,883,75.2376,-2.34253
686,141,75.1658,2.36035,0,0,0,0,0,0,0,-1,1910,883,75.1658,-2.36038
693,141,51.7202,1.76593,0,0,0,0,0,0,0,-1,1917,883,51.7202,-1.76595
700,141,62.7651,1.95361,0,0,0,0,0,0,0,-1,1924,883,62.7651,-1.95364
707,141,65.3677,2.8916,0,0,0,0,0,0,0,-1,1931,883,65.3677,-2.89159
714,141,64.9357,3.55981,0,0,0,0,0,0,0,-1,1938,883,64.9357,-3.55979
721,141,65.0336,4.28937,-0.00148108,0.00114526,-0.0033395,0.0034205,-0.00375632,-0.972723,0.00414505,0.0232129,1945,883,65.0336,-4.28939
728,141,65.0922,5.04865,-0.00145458,0.00142354,-0.00340372,0.00367991,-0.00371095,-0.985397,0.00426713,0.0189605,1952,883,65.0922,-5.04867
735,141,65.0225,5.94312,-0.000567745,0.00234166,-0.00351315,0.00468938,-0.00291546,-0.981688,0.00443029,0.022883,1959,883,65.0225,-5.94314
742,141,64.9036,6.71881,0.00146679,0.00446803,-0.00359763,0.00686546,-0.000930644,-0.982984,0.00491663,0.022758,1966,883,64.9036,-6.71878
749,141,64.8544,7.44183,0.00462255,0.00715094,-0.00349847,0.00960663,0.00216687,-0.958776,0.00581822,0.0157825,1973,883,64.8544,-7.44185
756,141,64.8822,8.2702,0.00871937,0.0106915,-0.00346224,0.0133054,0.00610551,-0.924127,0.00769051,0.0226295,1980,883,64.8822,-8.27022
763,141,65.0735,8.79218,0.0139509,0.0152902,-0.00335057,0.0180374,0.0112037,-0.884035,0.0105153,0.0445927,1987,883,65.0736,-8.79215
770,141,65.2241,9.32153,0,0,0,0,0,0,0,-1,1994,883,65.2242,-9.32152
777,141,68.2373,10.8281,0,0,0,0,0,0,0,-1,2001,883,68.2373,-10.8281
784,141,70.6033,11.7555,0,0,0,0,0,0,0,-1,2008,883,70.6033,-11.7555
791,141,72.6221,12.8146,0,0,0,0,0,0,0,-1,2015,883,72.622,-12.8147
798,141,0,0,0,0,0,0,0,0,0,-1,2022,883,0,0
805,141,0,0,0,0,0,0,0,0,0,-1,2029,883,0,0
812,141,0,0,0,0,0,0,0,0,0,-1,2036,883,0,0
-700,134,0,0,0,0,0,0,0,0,0,-1,524,890,0,0
-693,134,0,0,0,0,0,0,0,0,0,-1,531,890,0,0
-686,134,0,0,0,0,0,0,0,0,0,-1,538,890,0,0
-679,134,0,0,0,0,0,0,0,0,0,-1,545,890,0,0
-672,134,-49.3306,-0.500671,0,0,0,0,0,0,0,-1,552,890,-49.3306,0.500651
-665,134,-49.3356,-3.00098,0,0,0,0,0,0,0,-1,559,890,-49.3356,3.00096
-658,134,-49.3368,-5.46246,0,0,0,0,0,0,0,-1,566,890,-49.3368,5.46248
-651,134,-53.0905,0.530762,0,0,0,0,0,0,0,-1,573,890,-53.0905,-0.530792
-644,134,-51.8253,-1.26782,0,0,0,0,0,0,0,-1,580,890,-51.8253,1.26783
-637,134,-50.5067,-2.83545,0,0,0,0,0,0,0,-1,587,890,-50.5066,2.83545
-630,134,-49.9714,7.60059,0,0,0,0,0,0,0,-1,594,890,-49.9714,-7.60061
-623,134,-50.1425,6.9433,-0.00225945,0.00788515,0.0082744,0.0125182,-0.00689251,1.06036,0.0113626,0.0356087,601,890,-50.1425,-6.9433
-616,134,-50.4133,6.1886,-0.00461426,0.00626514,0.00567441,0.00868606,-0.00703518,1.16754,0.00909332,0.0151027,608,890,-50.4132,-6.18858
-609,134,-50.558,5.40186,-0.00598225,0.00419518,0.00461015,0.00597295,-0.00776002,1.20275,0.00795108,0.0122371,615,890,-50.558,-5.40186
-602,134,-50.5801,4.57538,-0.00645385,0.00234746,0.00434857,0.00413356,-0.00823994,1.18107,0.00727379,0.0132864,622,890,-50.5801,-4.57538
-595,134,-50.4601,3.81384,-0.00641592,0.00125933,0.00394562,0.00292582,-0.00808241,1.17116,0.00658393,0.0307009,629,890,-50.4601,-3.81386
-588,134,-50.4288,3.04694,0,0,0,0,0,0,0,-1,636,890,-50.4287,-3.04694
-581,134,-50.1758,2.15265,0,0,0,0,0,0,0,-1,643,890,-50.1758,-2.15267
-574,134,-31.1517,0.757751,0,0,0,0,0,0,0,-1,650,890,-31.1517,-0.757758
-567,134,-30.9003,0.296326,0,0,0,0,0,0,0,-1,657,890,-30.9002,-0.296302
-560,134,-22.9123,0.106567,0,0,0,0,0,0,0,-1,664,890,-22.9123,-0.106594
-553,134,-59.3293,0.287476,0,0,0,0,0,0,0,-1,671,890,-59.3294,-0.28745
-546,134,-59.4061,0.252197,-0.00587553,-8.5711e-05,0.00227988,0.000704263,-0.00666551,1.23725,0.00469606,0.0325316,678,890,-59.4061,-0.252224
-539,134,-59.4183,0.227966,-0.00627544,6.34661e-05,0.00191107,0.000595042,-0.00680702,1.2995,0.0047488,0.0183865,685,890,-59.4182,-0.227994
-532,134,-59.4028,0.222595,-0.00442485,-2.89903e-06,0.00137309,0.000388776,-0.00481653,1.29293,0.00334814,0.0223816,692,890,-59.4028,-0.22262
-525,134,-59.434,0.351501,-0.00265428,0.000446592,0.00104131,0.00076382,-0.00297151,1.27508,0.00227869,0.0344473,699,890,-59.4339,-0.351512
-518,134,-59.4307,0.533081,-0.00185017,0.000720079,0.00115258,0.00116122,-0.00229131,1.20526,0.0020286,0.0415692,706,890,-59.4308,-0.533079
-511,134,-59.4276,0.566956,-0.000612433,0.00115074,0.00123911,0.00178987,-0.00125156,1.09459,0.00176512,0.0411919,713,890,-59.4276,-0.566943
-504,134,0,0,0,0,0,0,0,0,0,-1,720,890,0,0
-497,134,0,0,0,0,0,0,0,0,0,-1,727,890,0,0
-490,134,0,0,0,0,0,0,0,0,0,-1,734,890,0,0
-483,134,0,0,0,0,0,0,0,0,0,-1,741,890,0,0
-476,134,0,0,0,0,0,0,0,0,0,-1,748,890,0,0
-469,134,0,0,0,0,0,0,0,0,0,-1,755,890,0,0
-462,134,0,0,0,0,0,0,0,0,0,-1,762,890,0,0
-455,134,0,0,0,0,0,0,0,0,0,-1,769,890,0,0
-448,134,0,0,0,0,0,0,0,0,0,-1,776,890,0,0
-441,134,0,0,0,0,0,0,0,0,0,-1,783,890,0,0
-434,134,0,0,0,0,0,0,0,0,0,-1,790,890,0,0
-427,134,0,0,0,0,0,0,0,0,0,-1,797,890,0,0
-420,134,0,0,0,0,0,0,0,0,0,-1,804,890,0,0
-413,134,0,0,0,0,0,0,0,0,0,-1,811,890,0,0
-406,134,0,0,0,0,0,0,0,0,0,-1,818,890,0,0
-399,134,0,0,0,0,0,0,0,0,0,-1,825,890,0,0
-392,134,0,0,0,0,0,0,0,0,0,-1,832,890,0,0
-385,134,0,0,0,0,0,0,0,0,0,-1,839,890,0,0
-378,134,0,0,0,0,0,0,0,0,0,-1,846,890,0,0
-371,134,0,0,0,0,0,0,0,0,0,-1,853,890,0,0
-364,134,0,0,0,0,0,0,0,0,0,-1,860,890,0,0
-357,134,0,0,0,0,0,0,0,0,0,-1,867,890,0,0
-350,134,0,0,0,0,0,0,0,0,0,-1,874,890,0,0
-343,134,0,0,0,0,0,0,0,0,0,-1,881,890,0,0
-336,134,0,0,0,0,0,0,0,0,0,-1,888,890,0,0
-329,134,0,0,0,0,0,0,0,0,0,-1,895,890,0,0
-322,134,0,0,0,0,0,0,0,0,0,-1,902,890,0,0
-315,134,0,0,0,0,0,0,0,0,0,-1,909,890,0,0
-308,134,0,0,0,0,0,0,0,0,0,-1,916,890,0,0
-301,134,0,0,0,0,0,0,0,0,0,-1,923,890,0,0
-294,134,0,0,0,0,0,0,0,0,0,-1,930,890,0,0
-287,134,0,0,0,0,0,0,0,0,0,-1,937,890,0,0
-280,134,0,0,0,0,0,0,0,0,0,-1,944,890,0,0
-273,134,0,0,0,0,0,0,0,0,0,-1,951,890,0,0
-266,134,0,0,0,0,0,0,0,0,0,-1,958,890,0,0
-259,134,0,0,0,0,0,0,0,0,0,-1,965,890,0,0
-252,134,0,0,0,0,0,0,0,0,0,-1,972,890,0,0
-245,134,0,0,0,0,0,0,0,0,0,-1,979,890,0,0
-238,134,0,0,0,0,0,0,0,0,0,-1,986,890,0,0
-231,134,0,0,0,0,0,0,0,0,0,-1,993,890,0,0
-224,134,0,0,0,0,0,0,0,0,0,-1,1000,890,0,0
-217,134,0,0,0,0,0,0,0,0,0,-1,1007,890,0,0
-210,134,0,0,0,0,0,0,0,0,0,-1,1014,890,0,0
-203,134,0,0,0,0,0,0,0,0,0,-1,1021,890,0,0
-196,134,0,0,0,0,0,0,0,0,0,-1,1028,890,0,0
-189,134,0,0,0,0,0,0,0,0,0,-1,1035,890,0,0
-182,134,0,0,0,0,0,0,0,0,0,-1,1042,890,0,0
-175,134,0,0,0,0,0,0,0,0,0,-1,1049,890,0,0
-168,134,0,0,0,0,0,0,0,0,0,-1,1056,890,0,0
-161,134,0,0,0,0,0,0,0,0,0,-1,1063,890,0,0
-154,134,0,0,0,0,0,0,0,0,0,-1,1070,890,0,0
-147,134,0,0,0,0,0,0,0,0,0,-1,1077,890,0,0
-140,134,0,0,0,0,0,0,0,0,0,-1,1084,890,0,0
-133,134,0,0,0,0,0,0,0,0,0,-1,1091,890,0,0
-126,134,0,0,0,0,0,0,0,0,0,-1,1098,890,0,0
-119,134,0,0,0,0,0,0,0,0,0,-1,1105,890,0,0
-112,134,0,0,0,0,0,0,0,0,0,-1,1112,890,0,0
-105,134,0,0,0,0,0,0,0,0,0,-1,1119,890,0,0
-98,134,0,0,0,0,0,0,0,0,0,-1,1126,890,0,0
-91,134,0,0,0,0,0,0,0,0,0,-1,1133,890,0,0
-84,134,0,0,0,0,0,0,0,0,0,-1,1140,890,0,0
-77,134,0,0,0,0,0,0,0,0,0,-1,1147,890,0,0
-70,134,0,0,0,0,0,0,0,0,0,-1,1154,890,0,0
-63,134,0,0,0,0,0,0,0,0,0,-1,1161,890,0,0
-56,134,0,0,0,0,0,0,0,0,0,-1,1168,890,0,0
-49,134,0,0,0,0,0,0,0,0,0,-1,1175,890,0,0
-42,134,0,0,0,0,0,0,0,0,0,-1,1182,890,0,0
-35,134,0,0,0,0,0,0,0,0,0,-1,1189,890,0,0
-28,134,0,0,0,0,0,0,0,0,0,-1,1196,890,0,0
-21,134,0,0,0,0,0,0,0,0,0,-1,1203,890,0,0
-14,134,0,0,0,0,0,0,0,0,0,-1,1210,890,0,0
-7,134,0,0,0,0,0,0,0,0,0,-1,1217,890,0,0
0,134,0,0,0,0,0,0,0,0,0,-1,1224,890,0,0
7,134,0,0,0,0,0,0,0,0,0,-1,1231,890,0,0
14,134,0,0,0,0,0,0,0,0,0,-1,1238,890,0,0
21,134,0,0,0,0,0,0,0,0,0,-1,1245,890,0,0
28,134,0,0,0,0,0,0,0,0,0,-1,1252,890,0,0
35,134,0,0,0,0,0,0,0,0,0,-1,1259,890,0,0
42,134,0,0,0,0,0,0,0,0,0,-1,1266,890,0,0
49,134,0,0,0,0,0,0,0,0,0,-1,1273,890,0,0
56,134,0,0,0,0,0,0,0,0,0,-1,1280,890,0,0
63,134,0,0,0,0,0,0,0,0,0,-1,1287,890,0,0
70,134,0,0,0,0,0,0,0,0,0,-1,1294,890,0,0
77,134,0,0,0,0,0,0,0,0,0,-1,1301,890,0,0
84,134,0,0,0,0,0,0,0,0,0,-1,1308,890,0,0
91,134,0,0,0,0,0,0,0,0,0,-1,1315,890,0,0
98,134,0,0,0,0,0,0,0,0,0,-1,1322,890,0,0
105,134,0,0,0,0,0,0,0,0,0,-1,1329,890,0,0
112,134,0,0,0,0,0,0,0,0,0,-1,1336,890,0,0
119,134,0,0,0,0,0,0,0,0,0,-1,1343,890,0,0
126,134,0,0,0,0,0,0,0,0,0,-1,1350,890,0,0
133,134,0,0,0,0,0,0,0,0,0,-1,1357,890,0,0
140,134,0,0,0,0,0,0,0,0,0,-1,1364,890,0,0
147,134,0,0,0,0,0,0,0,0,0,-1,1371,890,0,0
154,134,0,0,0,0,0,0,0,0,0,-1,1378,890,0,0
161,134,0,0,0,0,0,0,0,0,0,-1,1385,890,0,0
168,134,0,0,0,0,0,0,0,0,0,-1,1392,890,0,0
175,134,0,0,0,0,0,0,0,0,0,-1,1399,890,0,0
182,134,0,0,0,0,0,0,0,0,0,-1,1406,890,0,0
189,134,0,0,0,0,0,0,0,0,0,-1,1413,890,0,0
196,134,0,0,0,0,0,0,0,0,0,-1,1420,890,0,0
203,134,0,0,0,0,0,0,0,0,0,-1,1427,890,0,0
210,134,0,0,0,0,0,0,0,0,0,-1,1434,890,0,0
217,134,0,0,0,0,0,0,0,0,0,-1,1441,890,0,0
224,134,0,0,0,0,0,0,0,0,0,-1,1448,890,0,0
231,134,0,0,0,0,0,0,0,0,0,-1,1455,890,0,0
238,134,0,0,0,0,0,0,0,0,0,-1,1462,890,0,0
245,134,0,0,0,0,0,0,0,0,0,-1,1469,890,0,0
252,134,0,0,0,0,0,0,0,0,0,-1,1476,890,0,0
259,134,0,0,0,0,0,0,0,0,0,-1,1483,890,0,0
266,134,0,0,0,0,0,0,0,0,0,-1,1490,890,0,0
273,134,0,0,0,0,0,0,0,0,0,-1,1497,890,0,0
280,134,0,0,0,0,0,0,0,0,0,-1,1504,890,0,0
287,134,0,0,0,0,0,0,0,0,0,-1,1511,890,0,0
294,134,0,0,0,0,0,0,0,0,0,-1,1518,890,0,0
301,134,0,0,0,0,0,0,0,0,0,-1,1525,890,0,0
308,134,0,0,0,0,0,0,0,0,0,-1,1532,890,0,0
315,134,0,0,0,0,0,0,0,0,0,-1,1539,890,0,0
322,134,0,0,0,0,0,0,0,0,0,-1,1546,890,0,0
329,134,0,0,0,0,0,0,0,0,0,-1,1553,890,0,0
336,134,0,0,0,0,0,0,0,0,0,-1,1560,890,0,0
343,134,0,0,0,0,0,0,0,0,0,-1,1567,890,0,0
350,134,0,0,0,0,0,0,0,0,0,-1,1574,890,0,0
357,134,0,0,0,0,0,0,0,0,0,-1,1581,890,0,0
364,134,0,0,0,0,0,0,0,0,0,-1,1588,890,0,0
371,134,0,0,0,0,0,0,0,0,0,-1,1595,890,0,0
378,134,0,0,0,0,0,0,0,0,0,-1,1602,890,0,0
385,134,0,0,0,0,0,0,0,0,0,-1,1609,890,0,0
392,134,0,0,0,0,0,0,0,0,0,-1,1616,890,0,0
399,134,0,0,0,0,0,0,0,0,0,-1,1623,890,0,0
406,134,0,0,0,0,0,0,0,0,0,-1,1630,890,0,0
413,134,0,0,0,0,0,0,0,0,0,-1,1637,890,0,0
420,134,0,0,0,0,0,0,0,0,0,-1,1644,890,0,0
427,134,0,0,0,0,0,0,0,0,0,-1,1651,890,0,0
434,134,0,0,0,0,0,0,0,0,0,-1,1658,890,0,0
441,134,0,0,0,0,0,0,0,0,0,-1,1665,890,0,0
448,134,0,0,0,0,0,0,0,0,0,-1,1672,890,0,0
455,134,0,0,0,0,0,0,0,0,0,-1,1679,890,0,0
462,134,0,0,0,0,0,0,0,0,0,-1,1686,890,0,0
469,134,0,0,0,0,0,0,0,0,0,-1,1693,890,0,0
476,134,0,0,0,0,0,0,0,0,0,-1,1700,890,0,0
483,134,0,0,0,0,0,0,0,0,0,-1,1707,890,0,0
490,134,0,0,0,0,0,0,0,0,0,-1,1714,890,0,0
497,134,0,0,0,0,0,0,0,0,0,-1,1721,890,0,0
504,134,0,0,0,0,0,0,0,0,0,-1,1728,890,0,0
511,134,0,0,0,0,0,0,0,0,0,-1,1735,890,0,0
518,134,0,0,0,0,0,0,0,0,0,-1,1742,890,0,0
525,134,0,0,0,0,0,0,0,0,0,-1,1749,890,0,0
532,134,0,0,0,0,0,0,0,0,0,-1,1756,890,0,0
539,134,0,0,0,0,0,0,0,0,0,-1,1763,890,0,0
546,134,0,0,0,0,0,0,0,0,0,-1,1770,890,0,0
553,134,0,0,0,0,0,0,0,0,0,-1,1777,890,0,0
560,134,0,0,0,0,0,0,0,0,0,-1,1784,890,0,0
567,134,0,0,0,0,0,0,0,0,0,-1,1791,890,0,0
574,134,0,0,0,0,0,0,0,0,0,-1,1798,890,0,0
581,134,0,0,0,0,0,0,0,0,0,-1,1805,890,0,0
588,134,0,0,0,0,0,0,0,0,0,-1,1812,890,0,0
595,134,0,0,0,0,0,0,0,0,0,-1,1819,890,0,0
602,134,0,0,0,0,0,0,0,0,0,-1,1826,890,0,0
609,134,0,0,0,0,0,0,0,0,0,-1,1833,890,0,0
616,134,0,0,0,0,0,0,0,0,0,-1,1840,890,0,0
623,134,75.6246,2.2124,-0.00379213,0.00488298,-0.00241436,0.00550965,-0.0044188,-1.31684,0.00574371,0.0475101,1847,890,75.6247,-2.2124
630,134,75.5225,2.0567,-0.00321895,0.00391629,-0.00135655,0.0041655,-0.00346816,-1.38912,0.00441342,0.0476982,1854,890,75.5225,-2.05668
637,134,75.4673,2.02832,-0.00265637,0.00342745,-0.000811513,0.00353384,-0.00276276,-1.44044,0.00364442,0.0458435,1861,890,75.4673,-2.02833
644,134,75.467,2.11731,-0.00220886,0.00292597,-0.000473915,0.00296935,-0.00225223,-1.47953,0.00302414,0.0421107,1868,890,75.467,-2.11729
651,134,75.4631,2.15912,-0.00183579,0.00244103,-0.000354121,0.00247015,-0.00186491,-1.48874,0.00251097,0.0448534,1875,890,75.4631,-2.15915
658,134,75.4197,2.14581,-0.00172722,0.00199121,-0.000501786,0.00205774,-0.00179374,-1.43899,0.00222539,0.0404801,1882,890,75.4196,-2.14582
665,134,75.3174,2.12195,-0.0018181,0.00170682,-0.000752503,0.00186074,-0.00197202,-1.36903,0.00221316,0.0380813,1889,890,75.3174,-2.12196
672,134,75.3892,2.15131,-0.00170675,0.00131298,-0.00101669,0.00162338,-0.00201715,-1.27448,0.00210596,0.0307635,1896,890,75.3892,-2.15133
679,134,75.3905,2.17316,-0.0016331,0.000943547,-0.00124601,0.00144752,-0.00213707,-1.18644,0.00208229,0.0302168,1903,890,75.3905,-2.17317
686,134,75.3464,2.1886,0,0,0,0,0,0,0,-1,1910,890,75.3465,-2.18862
693,134,34.5778,2.48096,0,0,0,0,0,0,0,-1,1917,890,34.5777,-2.48099
700,134,65.3165,1.68256,0,0,0,0,0,0,0,-1,1924,890,65.3165,-1.68257
707,134,65.3483,2.48071,0,0,0,0,0,0,0,-1,1931,890,65.3482,-2.48071
714,134,65.6313,3.26154,0,0,0,0,0,0,0,-1,1938,890,65.6313,-3.26153
721,134,65.9073,4.15021,-0.00173585,0.00116163,-0.0030878,0.00312366,-0.00369788,-1.00474,0.00394306,0.0273842,1945,890,65.9073,-4.15018
728,134,65.9381,4.98474,-0.00192934,0.00140041,-0.00327299,0.00340763,-0.00393656,-1.02068,0.00424383,0.0245321,1952,890,65.9382,-4.98476
735,134,65.8568,5.93018,-0.00109295,0.00226035,-0.00359127,0.00454708,-0.00337968,-1.00379,0.00459303,0.0312863,1959,890,65.8569,-5.93017
742,134,65.7546,6.76379,0.00111595,0.00460837,-0.00394979,0.00718073,-0.00145641,-0.993531,0.00533925,0.0202525,1966,890,65.7546,-6.7638
749,134,65.7323,7.47479,0.00488076,0.00776464,-0.00399127,0.0105665,0.00207894,-0.95874,0.00646374,0.0138752,1973,890,65.7323,-7.47477
756,134,65.6835,8.20508,0.0101489,0.0118887,-0.003978,0.0150908,0.0069468,-0.893046,0.00872182,0.0185063,1980,890,65.6835,-8.2051
763,134,65.593,8.94098,0.0169517,0.0169735,-0.00382016,0.0207828,0.0131425,-0.786827,0.0121383,0.0408025,1987,890,65.5931,-8.94097
770,134,65.4521,9.66907,0,0,0,0,0,0,0,-1,1994,890,65.4522,-9.66904
777,134,69.6218,11.1589,0,0,0,0,0,0,0,-1,2001,890,69.6219,-11.1589
784,134,71.5513,12.4056,0,0,0,0,0,0,0,-1,2008,890,71.5512,-12.4055
791,134,73.1692,13.4717,0,0,0,0,0,0,0,-1,2015,890,73.1691,-13.4717
798,134,0,0,0,0,0,0,0,0,0,-1,2022,890,0,0
805,134,0,0,0,0,0,0,0,0,0,-1,2029,890,0,0
812,134,0,0,0,0,0,0,0,0,0,-1,2036,890,0,0
-700,127,0,0,0,0,0,0,0,0,0,-1,524,897,0,0
-693,127,0,0,0,0,0,0,0,0,0,-1,531,897,0,0
-686,127,0,0,0,0,0,0,0,0,0,-1,538,897,0,0
-679,127,-52.0821,4.30957,0,0,0,0,0,0,0,-1,545,897,-52.0821,-4.30955
-672,127,-50.373,4.8219,0,0,0,0,0,0,0,-1,552,897,-50.373,-4.8219
-665,127,-49.6271,-2.44153,0,0,0,0,0,0,0,-1,559,897,-49.6271,2.44154
-658,127,-48.965,-4.18744,0,0,0,0,0,0,0,-1,566,897,-48.965,4.18745
-651,127,-52.9149,-0.455505,0,0,0,0,0,0,0,-1,573,897,-52.9149,0.455524
-644,127,-51.6913,-2.33765,0,0,0,0,0,0,0,-1,580,897,-51.6914,2.33763
-637,127,-50.3104,-4.18658,0,0,0,0,0,0,0,-1,587,897,-50.3104,4.18656
-630,127,-51.1765,7.43823,0,0,0,0,0,0,0,-1,594,897,-51.1765,-7.43826
-623,127,-51.2156,6.86206,-0.00239926,0.00818099,0.0100342,0.0142342,-0.00845245,1.02799,0.0132392,0.0231534,601,897,-51.2156,-6.86208
-616,127,-51.2881,6.18475,-0.00495146,0.00644964,0.00673311,0.00957128,-0.0080731,1.13667,0.0101992,0.0132621,608,897,-51.2881,-6.18477
-609,127,-51.4005,5.40668,-0.00629061,0.00414517,0.00509942,0.0062232,-0.00836864,1.18384,0.0084549,0.0144963,615,897,-51.4004,-5.40669
-602,127,-51.4138,4.63141,-0.00654488,0.00216583,0.00440885,0.00400782,-0.00838687,1.17505,0.00730343,0.0172121,622,897,-51.4138,-4.63139
-595,127,-51.3214,3.92676,-0.00636411,0.00107196,0.0038226,0.00268647,-0.00797863,1.17116,0.00640521,0.0362189,629,897,-51.3214,-3.92673
-588,127,-51.2318,3.57794,0,0,0,0,0,0,0,-1,636,897,-51.2318,-3.57792
-581,127,-49.9243,1.83459,0,0,0,0,0,0,0,-1,643,897,-49.9243,-1.83457
-574,127,-25.2603,0.511169,0,0,0,0,0,0,0,-1,650,897,-25.2603,-0.51117
-567,127,-24.5417,-0.0447388,0,0,0,0,0,0,0,-1,657,897,-24.5417,0.0447226
-560,127,-18.9678,1.21667,0,0,0,0,0,0,0,-1,664,897,-18.9677,-1.2167
-553,127,-59.3816,0.35614,0,0,0,0,0,0,0,-1,671,897,-59.3816,-0.356161
-546,127,-59.4139,0.304871,-0.00585391,-9.6956e-05,0.00187601,0.000460414,-0.00641128,1.282,0.00443563,0.0210771,678,897,-59.414,-0.304844
-539,127,-59.4113,0.261353,-0.00618529,0.000157974,0.00145139,0.000474292,-0.00650161,1.35621,0.00450084,0.0203607,685,897,-59.4113,-0.261383
-532,127,-59.3245,0.25708,-0.00431878,0.000324358,0.0010618,0.000555652,-0.00455007,1.35632,0.00323455,0.0175209,692,897,-59.3245,-0.257088
-525,127,-59.4163,0.490845,-0.00296862,0.000779709,0.000995062,0.00102749,-0.0032164,1.32675,0.00255654,0.0332968,699,897,-59.4163,-0.490815
-518,127,-59.3793,0.652039,-0.00250676,0.00102169,0.00131797,0.00145963,-0.0029447,1.24999,0.00259057,0.0407635,706,897,-59.3792,-0.652026
-511,127,-59.2629,0.427734,-0.00160761,0.00130732,0.00157154,0.0019932,-0.00229349,1.15928,0.00247694,0.0413359,713,897,-59.2629,-0.427717
-504,127,0,0,0,0,0,0,0,0,0,-1,720,897,0,0
-497,127,0,0,0,0,0,0,0,0,0,-1,727,897,0,0
-490,127,0,0,0,0,0,0,0,0,0,-1,734,897,0,0
-483,127,0,0,0,0,0,0,0,0,0,-1,741,897,0,0
-476,127,0,0,0,0,0,0,0,0,0,-1,748,897,0,0
-469,127,0,0,0,0,0,0,0,0,0,-1,755,897,0,0
-462,127,0,0,0,0,0,0,0,0,0,-1,762,897,0,0
-455,127,0,0,0,0,0,0,0,0,0,-1,769,897,0,0
-448,127,0,0,0,0,0,0,0,0,0,-1,776,897,0,0
-441,127,0,0,0,0,0,0,0,0,0,-1,783,897,0,0
-434,127,0,0,0,0,0,0,0,0,0,-1,790,897,0,0
-427,127,0,0,0,0,0,0,0,0,0,-1,797,897,0,0
-420,127,0,0,0,0,0,0,0,0,0,-1,804,897,0,0
-413,127,0,0,0,0,0,0,0,0,0,-1,811,897,0,0
-406,127,0,0,0,0,0,0,0,0,0,-1,818,897,0,0
-399,127,0,0,0,0,0,0,0,0,0,-1,825,897,0,0
-392,127,0,0,0,0,0,0,0,0,0,-1,832,897,0,0
-385,127,0,0,0,0,0,0,0,0,0,-1,839,897,0,0
-378,127,0,0,0,0,0,0,0,0,0,-1,846,897,0,0
-371,127,0,0,0,0,0,0,0,0,0,-1,853,897,0,0
-364,127,0,0,0,0,0,0,0,0,0,-1,860,897,0,0
-357,127,0,0,0,0,0,0,0,0,0,-1,867,897,0,0
-350,127,0,0,0,0,0,0,0,0,0,-1,874,897,0,0
-343,127,0,0,0,0,0,0,0,0,0,-1,881,897,0,0
-336,127,0,0,0,0,0,0,0,0,0,-1,888,897,0,0
-329,127,0,0,0,0,0,0,0,0,0,-1,895,897,0,0
-322,127,0,0,0,0,0,0,0,0,0,-1,902,897,0,0
-315,127,0,0,0,0,0,0,0,0,0,-1,909,897,0,0
-308,127,0,0,0,0,0,0,0,0,0,-1,916,897,0,0
-301,127,0,0,0,0,0,0,0,0,0,-1,923,897,0,0
-294,127,0,0,0,0,0,0,0,0,0,-1,930,897,0,0
-287,127,0,0,0,0,0,0,0,0,0,-1,937,897,0,0
-280,127,0,0,0,0,0,0,0,0,0,-1,944,897,0,0
-273,127,0,0,0,0,0,0,0,0,0,-1,951,897,0,0
-266,127,0,0,0,0,0,0,0,0,0,-1,958,897,0,0
-259,127,0,0,0,0,0,0,0,0,0,-1,965,897,0,0
-252,127,0,0,0,0,0,0,0,0,0,-1,972,897,0,0
-245,127,0,0,0,0,0,0,0,0,0,-1,979,897,0,0
-238,127,0,0,0,0,0,0,0,0,0,-1,986,897,0,0
-231,127,0,0,0,0,0,0,0,0,0,-1,993,897,0,0
-224,127,0,0,0,0,0,0,0,0,0,-1,1000,897,0,0
-217,127,0,0,0,0,0,0,0,0,0,-1,1007,897,0,0
-210,127,0,0,0,0,0,0,0,0,0,-1,1014,897,0,0
-203,127,0,0,0,0,0,0,0,0,0,-1,1021,897,0,0
-196,127,0,0,0,0,0,0,0,0,0,-1,1028,897,0,0
-189,127,0,0,0,0,0,0,0,0,0,-1,1035,897,0,0
-182,127,0,0,0,0,0,0,0,0,0,-1,1042,897,0,0
-175,127,0,0,0,0,0,0,0,0,0,-1,1049,897,0,0
-168,127,0,0,0,0,0,0,0,0,0,-1,1056,897,0,0
-161,127,0,0,0,0,0,0,0,0,0,-1,1063,897,0,0
-154,127,0,0,0,0,0,0,0,0,0,-1,1070,897,0,0
-147,127,0,0,0,0,0,0,0,0,0,-1,1077,897,0,0
-140,127,0,0,0,0,0,0,0,0,0,-1,1084,897,0,0
-133,127,0,0,0,0,0,0,0,0,0,-1,1091,897,0,0
-126,127,0,0,0,0,0,0,0,0,0,-1,1098,897,0,0
-119,127,0,0,0,0,0,0,0,0,0,-1,1105,897,0,0
-112,127,0,0,0,0,0,0,0,0,0,-1,1112,897,0,0
-105,127,0,0,0,0,0,0,0,0,0,-1,1119,897,0,0
-98,127,0,0,0,0,0,0,0,0,0,-1,1126,897,0,0
-91,127,0,0,0,0,0,0,0,0,0,-1,1133,897,0,0
-84,127,0,0,0,0,0,0,0,0,0,-1,1140,897,0,0
-77,127,0,0,0,0,0,0,0,0,0,-1,1147,897,0,0
-70,127,0,0,0,0,0,0,0,0,0,-1,1154,897,0,0
-63,127,0,0,0,0,0,0,0,0,0,-1,1161,897,0,0
-56,127,0,0,0,0,0,0,0,0,0,-1,1168,897,0,0
-49,127,0,0,0,0,0,0,0,0,0,-1,1175,897,0,0
-42,127,0,0,0,0,0,0,0,0,0,-1,1182,897,0,0
-35,127,0,0,0,0,0,0,0,0,0,-1,1189,897,0,0
-28,127,0,0,0,0,0,0,0,0,0,-1,1196,897,0,0
-21,127,0,0,0,0,0,0,0,0,0,-1,1203,897,0,0
-14,127,0,0,0,0,0,0,0,0,0,-1,1210,897,0,0
-7,127,0,0,0,0,0,0,0,0,0,-1,1217,897,0,0
0,127,0,0,0,0,0,0,0,0,0,-1,1224,897,0,0
7,127,0,0,0,0,0,0,0,0,0,-1,1231,897,0,0
14,127,0,0,0,0,0,0,0,0,0,-1,1238,897,0,0
21,127,0,0,0,0,0,0,0,0,0,-1,1245,897,0,0
28,127,0,0,0,0,0,0,0,0,0,-1,1252,897,0,0
35,127,0,0,0,0,0,0,0,0,0,-1,1259,897,0,0
42,127,0,0,0,0,0,0,0,0,0,-1,1266,897,0,0
49,127,0,0,0,0,0,0,0,0,0,-1,1273,897,0,0
56,127,0,0,0,0,0,0,0,0,0,-1,1280,897,0,0
63,127,0,0,0,0,0,0,0,0,0,-1,1287,897,0,0
70,127,0,0,0,0,0,0,0,0,0,-1,1294,897,0,0
77,127,0,0,0,0,0,0,0,0,0,-1,1301,897,0,0
84,127,0,0,0,0,0,0,0,0,0,-1,1308,897,0,0
91,127,0,0,0,0,0,0,0,0,0,-1,1315,897,0,0
98,127,0,0,0,0,0,0,0,0,0,-1,1322,897,0,0
105,127,0,0,0,0,0,0,0,0,0,-1,1329,897,0,0
112,127,0,0,0,0,0,0,0,0,0,-1,1336,897,0,0
119,127,0,0,0,0,0,0,0,0,0,-1,1343,897,0,0
126,127,0,0,0,0,0,0,0,0,0,-1,1350,897,0,0
133,127,0,0,0,0,0,0,0,0,0,-1,1357,897,0,0
140,127,0,0,0,0,0,0,0,0,0,-1,1364,897,0,0
147,127,0,0,0,0,0,0,0,0,0,-1,1371,897,0,0
154,127,0,0,0,0,0,0,0,0,0,-1,1378,897,0,0
161,127,0,0,0,0,0,0,0,0,0,-1,1385,897,0,0
168,127,0,0,0,0,0,0,0,0,0,-1,1392,897,0,0
175,127,0,0,0,0,0,0,0,0,0,-1,1399,897,0,0
182,127,0,0,0,0,0,0,0,0,0,-1,1406,897,0,0
189,127,0,0,0,0,0,0,0,0,0,-1,1413,897,0,0
196,127,0,0,0,0,0,0,0,0,0,-1,1420,897,0,0
203,127,0,0,0,0,0,0,0,0,0,-1,1427,897,0,0
210,127,0,0,0,0,0,0,0,0,0,-1,1434,897,0,0
217,127,0,0,0,0,0,0,0,0,0,-1,1441,897,0,0
224,127,0,0,0,0,0,0,0,0,0,-1,1448,897,0,0
231,127,0,0,0,0,0,0,0,0,0,-1,1455,897,0,0
238,127,0,0,0,0,0,0,0,0,0,-1,1462,897,0,0
245,127,0,0,0,0,0,0,0,0,0,-1,1469,897,0,0
252,127,0,0,0,0,0,0,0,0,0,-1,1476,897,0,0
259,127,0,0,0,0,0,0,0,0,0,-1,1483,897,0,0
266,127,0,0,0,0,0,0,0,0,0,-1,1490,897,0,0
273,127,0,0,0,0,0,0,0,0,0,-1,1497,897,0,0
280,127,0,0,0,0,0,0,0,0,0,-1,1504,897,0,0
287,127,0,0,0,0,0,0,0,0,0,-1,1511,897,0,0
294,127,0,0,0,0,0,0,0,0,0,-1,1518,897,0,0
301,127,0,0,0,0,0,0,0,0,0,-1,1525,897,0,0
308,127,0,0,0,0,0,0,0,0,0,-1,1532,897,0,0
315,127,0,0,0,0,0,0,0,0,0,-1,1539,897,0,0
322,127,0,0,0,0,0,0,0,0,0,-1,1546,897,0,0
329,127,0,0,0,0,0,0,0,0,0,-1,1553,897,0,0
336,127,0,0,0,0,0,0,0,0,0,-1,1560,897,0,0
343,127,0,0,0,0,0,0,0,0,0,-1,1567,897,0,0
350,127,0,0,0,0,0,0,0,0,0,-1,1574,897,0,0
357,127,0,0,0,0,0,0,0,0,0,-1,1581,897,0,0
364,127,0,0,0,0,0,0,0,0,0,-1,1588,897,0,0
371,127,0,0,0,0,0,0,0,0,0,-1,1595,897,0,0
378,127,0,0,0,0,0,0,0,0,0,-1,1602,897,0,0
385,127,0,0,0,0,0,0,0,0,0,-1,1609,897,0,0
392,127,0,0,0,0,0,0,0,0,0,-1,1616,897,0,0
399,127,0,0,0,0,0,0,0,0,0,-1,1623,897,0,0
406,127,0,0,0,0,0,0,0,0,0,-1,1630,897,0,0
413,127,0,0,0,0,0,0,0,0,0,-1,1637,897,0,0
420,127,0,0,0,0,0,0,0,0,0,-1,1644,897,0,0
427,127,0,0,0,0,0,0,0,0,0,-1,1651,897,0,0
434,127,0,0,0,0,0,0,0,0,0,-1,1658,897,0,0
441,127,0,0,0,0,0,0,0,0,0,-1,1665,897,0,0
448,127,0,0,0,0,0,0,0,0,0,-1,1672,897,0,0
455,127,0,0,0,0,0,0,0,0,0,-1,1679,897,0,0
462,127,0,0,0,0,0,0,0,0,0,-1,1686,897,0,0
469,127,0,0,0,0,0,0,0,0,0,-1,1693,897,0,0
476,127,0,0,0,0,0,0,0,0,0,-1,1700,897,0,0
483,127,0,0,0,0,0,0,0,0,0,-1,1707,897,0,0
490,127,0,0,0,0,0,0,0,0,0,-1,1714,897,0,0
497,127,0,0,0,0,0,0,0,0,0,-1,1721,897,0,0
504,127,0,0,0,0,0,0,0,0,0,-1,1728,897,0,0
511,127,0,0,0,0,0,0,0,0,0,-1,1735,897,0,0
518,127,0,0,0,0,0,0,0,0,0,-1,1742,897,0,0
525,127,0,0,0,0,0,0,0,0,0,-1,1749,897,0,0
532,127,0,0,0,0,0,0,0,0,0,-1,1756,897,0,0
539,127,0,0,0,0,0,0,0,0,0,-1,1763,897,0,0
546,127,0,0,0,0,0,0,0,0,0,-1,1770,897,0,0
553,127,0,0,0,0,0,0,0,0,0,-1,1777,897,0,0
560,127,0,0,0,0,0,0,0,0,0,-1,1784,897,0,0
567,127,0,0,0,0,0,0,0,0,0,-1,1791,897,0,0
574,127,0,0,0,0,0,0,0,0,0,-1,1798,897,0,0
581,127,0,0,0,0,0,0,0,0,0,-1,1805,897,0,0
588,127,0,0,0,0,0,0,0,0,0,-1,1812,897,0,0
595,127,0,0,0,0,0,0,0,0,0,-1,1819,897,0,0
602,127,0,0,0,0,0,0,0,0,0,-1,1826,897,0,0
609,127,0,0,0,0,0,0,0,0,0,-1,1833,897,0,0
616,127,0,0,0,0,0,0,0,0,0,-1,1840,897,0,0
623,127,0,0,0,0,0,0,0,0,0,-1,1847,897,0,0
630,127,75.4817,2.12659,-0.00301737,0.00327971,-0.00125659,0.0035212,-0.00325886,-1.38093,0.00391545,0.0425155,1854,897,75.4817,-2.12658
637,127,75.5344,2.11603,-0.00247953,0.00297645,-0.000807156,0.00309335,-0.00259643,-1.42696,0.00328917,0.0405821,1861,897,75.5344,-2.11604
644,127,75.5443,2.17603,-0.00209565,0.00270637,-0.000490769,0.00275601,-0.00214529,-1.46998,0.00283708,0.0409805,1868,897,75.5443,-2.17601
651,127,75.3849,2.24719,-0.00175211,0.00243505,-0.000318682,0.00245916,-0.00177622,-1.49527,0.00245588,0.044181,1875,897,75.3848,-2.24719
658,127,75.2471,2.32135,-0.0015839,0.00219453,-0.000329257,0.00222301,-0.00161237,-1.48452,0.00222369,0.0427972,1882,897,75.247,-2.32136
665,127,75.2856,2.26453,-0.00159868,0.00204731,-0.000437234,0.00209901,-0.00165038,-1.4531,0.00216987,0.0421109,1889,897,75.2857,-2.2645
672,127,75.3387,2.13574,-0.00152306,0.00162355,-0.00062271,0.0017423,-0.00164181,-1.38236,0.00195411,0.0383838,1896,897,75.3388,-2.13571
679,127,75.4395,2.15686,-0.00150093,0.00115987,-0.000834629,0.0014,-0.00174106,-1.29065,0.00181705,0.0311869,1903,897,75.4395,-2.15688
686,127,75.3939,2.18311,0,0,0,0,0,0,0,-1,1910,897,75.3939,-2.18311
693,127,59.2523,2.33673,0,0,0,0,0,0,0,-1,1917,897,59.2524,-2.33674
700,127,58.717,1.80957,0,0,0,0,0,0,0,-1,1924,897,58.717,-1.80956
707,127,66.5527,2.31354,0,0,0,0,0,0,0,-1,1931,897,66.5527,-2.31353
714,127,66.8779,3.36633,0,0,0,0,0,0,0,-1,1938,897,66.8779,-3.36631
721,127,66.921,4.34082,-0.00206799,0.00131764,-0.00280492,0.00290098,-0.00365133,-1.0569,0.00379124,0.0271917,1945,897,66.9211,-4.3408
728,127,66.7697,5.11084,-0.00245042,0.00149568,-0.00304516,0.00315112,-0.00410586,-1.07286,0.00420189,0.0247631,1952,897,66.7697,-5.11083
735,127,66.6885,5.95203,-0.0018033,0.00223395,-0.0034204,0.00418697,-0.00375632,-1.05198,0.00458831,0.0209958,1959,897,66.6885,-5.95202
742,127,66.6249,6.75208,0.000256741,0.00462655,-0.00384707,0.00686587,-0.00198258,-1.04365,0.00536172,0.02046,1966,897,66.6249,-6.75208
749,127,66.5562,7.48254,0.00406138,0.00802436,-0.00376669,0.010299,0.00178678,-1.02754,0.00635467,0.0145397,1973,897,66.5562,-7.48257
756,127,66.472,8.15942,0.00962772,0.0124829,-0.00339429,0.0147376,0.00737302,-0.984462,0.00850876,0.0171084,1980,897,66.4721,-8.15944
763,127,66.3601,8.84906,0.0168097,0.017779,-0.00271147,0.0200488,0.0145399,-0.873833,0.0119602,0.0279487,1987,897,66.3602,-8.84903
770,127,66.3081,9.53137,0,0,0,0,0,0,0,-1,1994,897,66.308,-9.53137
777,127,42.703,5.33789,0,0,0,0,0,0,0,-1,2001,897,42.7031,-5.33791
784,127,71.8792,12.5832,0,0,0,0,0,0,0,-1,2008,897,71.8792,-12.5832
791,127,73.6824,14.1336,0,0,0,0,0,0,0,-1,2015,897,73.6823,-14.1336
798,127,0,0,0,0,0,0,0,0,0,-1,2022,897,0,0
805,127,0,0,0,0,0,0,0,0,0,-1,2029,897,0,0
812,127,0,0,0,0,0,0,0,0,0,-1,2036,897,0,0
-700,120,0,0,0,0,0,0,0,0,0,-1,524,904,0,0
-693,120,0,0,0,0,0,0,0,0,0,-1,531,904,0,0
-686,120,0,0,0,0,0,0,0,0,0,-1,538,904,0,0
-679,120,-52.0888,4.76025,0,0,0,0,0,0,0,-1,545,904,-52.0888,-4.76024
-672,120,-51.1454,5.42755,0,0,0,0,0,0,0,-1,552,904,-51.1454,-5.42753
-665,120,-50.2376,-2.67987,0,0,0,0,0,0,0,-1,559,904,-50.2376,2.67988
-658,120,-54.6443,7.5307,0,0,0,0,0,0,0,-1,566,904,-54.6443,-7.53071
-651,120,-52.9452,-1.22644,0,0,0,0,0,0,0,-1,573,904,-52.9452,1.22647
-644,120,-51.6526,-3.15863,0,0,0,0,0,0,0,-1,580,904,-51.6526,3.15864
-637,120,-51.9716,8.1684,0,0,0,0,0,0,0,-1,587,904,-51.9716,-8.16841
-630,120,-51.9821,7.53589,0.00415754,0.00892148,0.0177921,0.0244903,-0.0114113,0.851942,0.0211813,0.0433118,594,904,-51.9821,-7.53591
-623,120,-52.0804,6.85455,-0.00211997,0.00851835,0.0113286,0.0157144,-0.00931606,1.00489,0.0146079,0.0147645,601,904,-52.0804,-6.85457
-616,120,-52.1321,6.15546,-0.0048936,0.00655842,0.00749443,0.0102639,-0.00859911,1.11161,0.0109047,0.011567,608,904,-52.1321,-6.15549
-609,120,-52.1964,5.40698,-0.00627759,0.00398129,0.00544435,0.00633197,-0.00862827,1.16321,0.00867114,0.0145721,615,904,-52.1964,-5.407
-602,120,-52.2319,4.66669,-0.00645046,0.00189604,0.00445358,0.0038261,-0.00838052,1.16186,0.00720916,0.0181087,622,904,-52.232,-4.66668
-595,120,-52.1378,3.95178,-0.00617931,0.000815643,0.00373285,0.00243349,-0.00779715,1.16183,0.00617132,0.0376689,629,904,-52.1378,-3.95181
-588,120,-52.116,3.38745,0,0,0,0,0,0,0,-1,636,904,-52.116,-3.38742
-581,120,-52.3209,2.63898,0,0,0,0,0,0,0,-1,643,904,-52.3209,-2.639
-574,120,-27.5438,0.505066,0,0,0,0,0,0,0,-1,650,904,-27.5438,-0.505085
-567,120,-25.2822,-0.410645,0,0,0,0,0,0,0,-1,657,904,-25.2821,0.410629
-560,120,-27.3358,1.10327,0,0,0,0,0,0,0,-1,664,904,-27.3358,-1.10324
-553,120,-59.348,0.537781,0,0,0,0,0,0,0,-1,671,904,-59.348,-0.53778
-546,120,-59.3577,0.439514,-0.00565352,-0.00013273,0.0014895,0.000243496,-0.00602975,1.32339,0.00410341,0.0286521,678,904,-59.3577,-0.439539
-539,120,-59.3615,0.332214,-0.00587836,0.000292529,0.00107501,0.000474439,-0.00606027,1.40317,0.00420725,0.0246459,685,904,-59.3614,-0.3322
-532,120,-59.3935,0.350586,-0.00418976,0.000747463,0.000938153,0.000919718,-0.00436201,1.38921,0.00325814,0.0271527,692,904,-59.3935,-0.350595
-525,120,-59.5295,0.450317,-0.00346264,0.00117808,0.0011598,0.00145179,-0.00373635,1.33904,0.00309066,0.0347178,699,904,-59.5295,-0.450336
-518,120,-59.6951,0.549011,-0.00345363,0.00132842,0.00161872,0.00182482,-0.00395003,1.27324,0.00340854,0.0381562,706,904,-59.695,-0.54904
-511,120,-59.5521,0.535828,-0.00304493,0.00140017,0.00200122,0.00216838,-0.00381314,1.20427,0.00349668,0.0388709,713,904,-59.5521,-0.535827
-504,120,0,0,0,0,0,0,0,0,0,-1,720,904,0,0
-497,120,0,0,0,0,0,0,0,0,0,-1,727,904,0,0
-490,120,0,0,0,0,0,0,0,0,0,-1,734,904,0,0
-483,120,0,0,0,0,0,0,0,0,0,-1,741,904,0,0
-476,120,0,0,0,0,0,0,0,0,0,-1,748,904,0,0
-469,120,0,0,0,0,0,0,0,0,0,-1,755,904,0,0
-462,120,0,0,0,0,0,0,0,0,0,-1,762,904,0,0
-455,120,0,0,0,0,0,0,0,0,0,-1,769,904,0,0
-448,120,0,0,0,0,0,0,0,0,0,-1,776,904,0,0
-441,120,0,0,0,0,0,0,0,0,0,-1,783,904,0,0
-434,120,0,0,0,0,0,0,0,0,0,-1,790,904,0,0
-427,120,0,0,0,0,0,0,0,0,0,-1,797,904,0,0
-420,120,0,0,0,0,0,0,0,0,0,-1,804,904,0,0
-413,120,0,0,0,0,0,0,0,0,0,-1,811,904,0,0
-406,120,0,0,0,0,0,0,0,0,0,-1,818,904,0,0
-399,120,0,0,0,0,0,0,0,0,0,-1,825,904,0,0
-392,120,0,0,0,0,0,0,0,0,0,-1,832,904,0,0
-385,120,0,0,0,0,0,0,0,0,0,-1,839,904,0,0
-378,120,0,0,0,0,0,0,0,0,0,-1,846,904,0,0
-371,120,0,0,0,0,0,0,0,0,0,-1,853,904,0,0
-364,120,0,0,0,0,0,0,0,0,0,-1,860,904,0,0
-357,120,0,0,0,0,0,0,0,0,0,-1,867,904,0,0
-350,120,0,0,0,0,0,0,0,0,0,-1,874,904,0,0
-343,120,0,0,0,0,0,0,0,0,0,-1,881,904,0,0
-336,120,0,0,0,0,0,0,0,0,0,-1,888,904,0,0
-329,120,0,0,0,0,0,0,0,0,0,-1,895,904,0,0
-322,120,0,0,0,0,0,0,0,0,0,-1,902,904,0,0
-315,120,0,0,0,0,0,0,0,0,0,-1,909,904,0,0
-308,120,0,0,0,0,0,0,0,0,0,-1,916,904,0,0
-301,120,0,0,0,0,0,0,0,0,0,-1,923,904,0,0
-294,120,0,0,0,0,0,0,0,0,0,-1,930,904,0,0
-287,120,0,0,0,0,0,0,0,0,0,-1,937,904,0,0
-280,120,0,0,0,0,0,0,0,0,0,-1,944,904,0,0
-273,120,0,0,0,0,0,0,0,0,0,-1,951,904,0,0
-266,120,0,0,0,0,0,0,0,0,0,-1,958,904,0,0
-259,120,0,0,0,0,0,0,0,0,0,-1,965,904,0,0
-252,120,0,0,0,0,0,0,0,0,0,-1,972,904,0,0
-245,120,0,0,0,0,0,0,0,0,0,-1,979,904,0,0
-238,120,0,0,0,0,0,0,0,0,0,-1,986,904,0,0
-231,120,0,0,0,0,0,0,0,0,0,-1,993,904,0,0
-224,120,0,0,0,0,0,0,0,0,0,-1,1000,904,0,0
-217,120,0,0,0,0,0,0,0,0,0,-1,1007,904,0,0
-210,120,0,0,0,0,0,0,0,0,0,-1,1014,904,0,0
-203,120,0,0,0,0,0,0,0,0,0,-1,1021,904,0,0
-196,120,0,0,0,0,0,0,0,0,0,-1,1028,904,0,0
-189,120,0,0,0,0,0,0,0,0,0,-1,1035,904,0,0
-182,120,0,0,0,0,0,0,0,0,0,-1,1042,904,0,0
-175,120,0,0,0,0,0,0,0,0,0,-1,1049,904,0,0
-168,120,0,0,0,0,0,0,0,0,0,-1,1056,904,0,0
-161,120,0,0,0,0,0,0,0,0,0,-1,1063,904,0,0
-154,120,0,0,0,0,0,0,0,0,0,-1,1070,904,0,0
-147,120,0,0,0,0,0,0,0,0,0,-1,1077,904,0,0
-140,120,0,0,0,0,0,0,0,0,0,-1,1084,904,0,0
-133,120,0,0,0,0,0,0,0,0,0,-1,1091,904,0,0
-126,120,0,0,0,0,0,0,0,0,0,-1,1098,904,0,0
-119,120,0,0,0,0,0,0,0,0,0,-1,1105,904,0,0
-112,120,0,0,0,0,0,0,0,0,0,-1,1112,904,0,0
-105,120,0,0,0,0,0,0,0,0,0,-1,1119,904,0,0
-98,120,0,0,0,0,0,0,0,0,0,-1,1126,904,0,0
-91,120,0,0,0,0,0,0,0,0,0,-1,1133,904,0,0
-84,120,0,0,0,0,0,0,0,0,0,-1,1140,904,0,0
-77,120,0,0,0,0,0,0,0,0,0,-1,1147,904,0,0
-70,120,0,0,0,0,0,0,0,0,0,-1,1154,904,0,0
-63,120,0,0,0,0,0,0,0,0,0,-1,1161,904,0,0
-56,120,0,0,0,0,0,0,0,0,0,-1,1168,904,0,0
-49,120,0,0,0,0,0,0,0,0,0,-1,1175,904,0,0
-42,120,0,0,0,0,0,0,0,0,0,-1,1182,904,0,0
-35,120,0,0,0,0,0,0,0,0,0,-1,1189,904,0,0
-28,120,0,0,0,0,0,0,0,0,0,-1,1196,904,0,0
-21,120,0,0,0,0,0,0,0,0,0,-1,1203,904,0,0
-14,120,0,0,0,0,0,0,0,0,0,-1,1210,904,0,0
-7,120,0,0,0,0,0,0,0,0,0,-1,1217,904,0,0
0,120,0,0,0,0,0,0,0,0,0,-1,1224,904,0,0
7,120,0,0,0,0,0,0,0,0,0,-1,1231,904,0,0
14,120,0,0,0,0,0,0,0,0,0,-1,1238,904,0,0
21,120,0,0,0,0,0,0,0,0,0,-1,1245,904,0,0
28,120,0,0,0,0,0,0,0,0,0,-1,1252,904,0,0
35,120,0,0,0,0,0,0,0,0,0,-1,1259,904,0,0
42,120,0,0,0,0,0,0,0,0,0,-1,1266,904,0,0
49,120,0,0,0,0,0,0,0,0,0,-1,1273,904,0,0
56,120,0,0,0,0,0,0,0,0,0,-1,1280,904,0,0
63,120,0,0,0,0,0,0,0,0,0,-1,1287,904,0,0
70,120,0,0,0,0,0,0,0,0,0,-1,1294,904,0,0
77,120,0,0,0,0,0,0,0,0,0,-1,1301,904,0,0
84,120,0,0,0,0,0,0,0,0,0,-1,1308,904,0,0
91,120,0,0,0,0,0,0,0,0,0,-1,1315,904,0,0
98,120,0,0,0,0,0,0,0,0,0,-1,1322,904,0,0
105,120,0,0,0,0,0,0,0,0,0,-1,1329,904,0,0
112,120,0,0,0,0,0,0,0,0,0,-1,1336,904,0,0
119,120,0,0,0,0,0,0,0,0,0,-1,1343,904,0,0
126,120,0,0,0,0,0,0,0,0,0,-1,1350,904,0,0
133,120,0,0,0,0,0,0,0,0,0,-1,1357,904,0,0
140,120,0,0,0,0,0,0,0,0,0,-1,1364,904,0,0
147,120,0,0,0,0,0,0,0,0,0,-1,1371,904,0,0
154,120,0,0,0,0,0,0,0,0,0,-1,1378,904,0,0
161,120,0,0,0,0,0,0,0,0,0,-1,1385,904,0,0
168,120,0,0,0,0,0,0,0,0,0,-1,1392,904,0,0
175,120,0,0,0,0,0,0,0,0,0,-1,1399,904,0,0
182,120,0,0,0,0,0,0,0,0,0,-1,1406,904,0,0
189,120,0,0,0,0,0,0,0,0,0,-1,1413,904,0,0
196,120,0,0,0,0,0,0,0,0,0,-1,1420,904,0,0
203,120,0,0,0,0,0,0,0,0,0,-1,1427,904,0,0
210,120,0,0,0,0,0,0,0,0,0,-1,1434,904,0,0
217,120,0,0,0,0,0,0,0,0,0,-1,1441,904,0,0
224,120,0,0,0,0,0,0,0,0,0,-1,1448,904,0,0
231,120,0,0,0,0,0,0,0,0,0,-1,1455,904,0,0
238,120,0,0,0,0,0,0,0,0,0,-1,1462,904,0,0
245,120,0,0,0,0,0,0,0,0,0,-1,1469,904,0,0
252,120,0,0,0,0,0,0,0,0,0,-1,1476,904,0,0
259,120,0,0,0,0,0,0,0,0,0,-1,1483,904,0,0
266,120,0,0,0,0,0,0,0,0,0,-1,1490,904,0,0
273,120,0,0,0,0,0,0,0,0,0,-1,1497,904,0,0
280,120,0,0,0,0,0,0,0,0,0,-1,1504,904,0,0
287,120,0,0,0,0,0,0,0,0,0,-1,1511,904,0,0
294,120,0,0,0,0,0,0,0,0,0,-1,1518,904,0,0
301,120,0,0,0,0,0,0,0,0,0,-1,1525,904,0,0
308,120,0,0,0,0,0,0,0,0,0,-1,1532,904,0,0
315,120,0,0,0,0,0,0,0,0,0,-1,1539,904,0,0
322,120,0,0,0,0,0,0,0,0,0,-1,1546,904,0,0
329,120,0,0,0,0,0,0,0,0,0,-1,1553,904,0,0
336,120,0,0,0,0,0,0,0,0,0,-1,1560,904,0,0
343,120,0,0,0,0,0,0,0,0,0,-1,1567,904,0,0
350,120,0,0,0,0,0,0,0,0,0,-1,1574,904,0,0
357,120,0,0,0,0,0,0,0,0,0,-1,1581,904,0,0
364,120,0,0,0,0,0,0,0,0,0,-1,1588,904,0,0
371,120,0,0,0,0,0,0,0,0,0,-1,1595,904,0,0
378,120,0,0,0,0,0,0,0,0,0,-1,1602,904,0,0
385,120,0,0,0,0,0,0,0,0,0,-1,1609,904,0,0
392,120,0,0,0,0,0,0,0,0,0,-1,1616,904,0,0
399,120,0,0,0,0,0,0,0,0,0,-1,1623,904,0,0
406,120,0,0,0,0,0,0,0,0,0,-1,1630,904,0,0
413,120,0,0,0,0,0,0,0,0,0,-1,1637,904,0,0
420,120,0,0,0,0,0,0,0,0,0,-1,1644,904,0,0
427,120,0,0,0,0,0,0,0,0,0,-1,1651,904,0,0
434,120,0,0,0,0,0,0,0,0,0,-1,1658,904,0,0
441,120,0,0,0,0,0,0,0,0,0,-1,1665,904,0,0
448,120,0,0,0,0,0,0,0,0,0,-1,1672,904,0,0
455,120,0,0,0,0,0,0,0,0,0,-1,1679,904,0,0
462,120,0,0,0,0,0,0,0,0,0,-1,1686,904,0,0
469,120,0,0,0,0,0,0,0,0,0,-1,1693,904,0,0
476,120,0,0,0,0,0,0,0,0,0,-1,1700,904,0,0
483,120,0,0,0,0,0,0,0,0,0,-1,1707,904,0,0
490,120,0,0,0,0,0,0,0,0,0,-1,1714,904,0,0
497,120,0,0,0,0,0,0,0,0,0,-1,1721,904,0,0
504,120,0,0,0,0,0,0,0,0,0,-1,1728,904,0,0
511,120,0,0,0,0,0,0,0,0,0,-1,1735,904,0,0
518,120,0,0,0,0,0,0,0,0,0,-1,1742,904,0,0
525,120,0,0,0,0,0,0,0,0,0,-1,1749,904,0,0
532,120,0,0,0,0,0,0,0,0,0,-1,1756,904,0,0
539,120,0,0,0,0,0,0,0,0,0,-1,1763,904,0,0
546,120,0,0,0,0,0,0,0,0,0,-1,1770,904,0,0
553,120,0,0,0,0,0,0,0,0,0,-1,1777,904,0,0
560,120,0,0,0,0,0,0,0,0,0,-1,1784,904,0,0
567,120,0,0,0,0,0,0,0,0,0,-1,1791,904,0,0
574,120,0,0,0,0,0,0,0,0,0,-1,1798,904,0,0
581,120,0,0,0,0,0,0,0,0,0,-1,1805,904,0,0
588,120,0,0,0,0,0,0,0,0,0,-1,1812,904,0,0
595,120,0,0,0,0,0,0,0,0,0,-1,1819,904,0,0
602,120,0,0,0,0,0,0,0,0,0,-1,1826,904,0,0
609,120,0,0,0,0,0,0,0,0,0,-1,1833,904,0,0
616,120,0,0,0,0,0,0,0,0,0,-1,1840,904,0,0
623,120,0,0,0,0,0,0,0,0,0,-1,1847,904,0,0
630,120,75.4175,2.15515,-0.00248846,0.00257564,-0.000723971,0.00267711,-0.00258992,-1.43155,0.00304106,0.039005,1854,904,75.4174,-2.15518
637,120,75.4174,2.18732,-0.00200566,0.00250889,-0.00048611,0.00256064,-0.00205741,-1.46474,0.00267151,0.0399554,1861,904,75.4174,-2.18734
644,120,75.3691,2.25531,-0.00171037,0.00245128,-0.000296734,0.00247233,-0.00173142,-1.49997,0.00243957,0.0409574,1868,904,75.3692,-2.25532
651,120,75.189,2.52692,-0.00142991,0.00238803,-0.000167127,0.00239534,-0.00143721,-1.52713,0.00223565,0.0438216,1875,904,75.189,-2.52693
658,120,75.1691,2.42383,-0.00122798,0.00237523,-0.000107642,0.00237844,-0.0012312,-1.54096,0.00211882,0.0421102,1882,904,75.1691,-2.42381
665,120,75.3065,2.36987,-0.00114234,0.00242913,-8.89746e-05,0.00243134,-0.00114456,-1.5459,0.00210863,0.03823,1889,904,75.3065,-2.36986
672,120,75.3749,2.17816,-0.00115387,0.00201371,-0.000163659,0.00202214,-0.00116231,-1.51931,0.00186075,0.0380026,1896,904,75.3748,-2.17819
679,120,75.4276,2.08655,-0.00122095,0.00145496,-0.000321892,0.00149313,-0.00125913,-1.45275,0.00159093,0.0354516,1903,904,75.4277,-2.08656
686,120,75.3812,2.16589,-0.00146366,0.00110475,-0.000603927,0.00123967,-0.00159858,-1.351,0.00164302,0.0350034,1910,904,75.3813,-2.1659
693,120,75.5011,2.10114,0,0,0,0,0,0,0,-1,1917,904,75.501,-2.10114
700,120,42.2007,3.00946,0,0,0,0,0,0,0,-1,1924,904,42.2007,-3.00944
707,120,66.8478,3.06818,0,0,0,0,0,0,0,-1,1931,904,66.8478,-3.06816
714,120,68.1245,3.47113,0,0,0,0,0,0,0,-1,1938,904,68.1245,-3.4711
721,120,67.7045,4.55432,-0.00241598,0.00147673,-0.00240381,0.00262337,-0.00356261,-1.12571,0.00358517,0.0257738,1945,904,67.7045,-4.55431
728,120,67.5714,5.30682,-0.0030009,0.00162426,-0.00267322,0.00284639,-0.00422303,-1.14199,0.00410724,0.0175838,1952,904,67.5715,-5.30682
735,120,67.5186,5.98151,-0.00257068,0.00232612,-0.00309342,0.00382283,-0.00406739,-1.12016,0.00455615,0.0150215,1959,904,67.5185,-5.98152
742,120,67.4282,6.75574,-0.000717275,0.00481433,-0.00362654,0.00660939,-0.00251234,-1.11117,0.00544063,0.0160221,1966,904,67.4282,-6.75571
749,120,67.359,7.48419,0.0029983,0.00853753,-0.00354496,0.0102665,0.0012693,-1.11701,0.00646293,0.0122846,1973,904,67.359,-7.48417
756,120,67.2491,8.20941,0.0087185,0.0135232,-0.00300357,0.014967,0.00727473,-1.12272,0.00864233,0.0157903,1980,904,67.2491,-8.20942
763,120,67.1284,8.90112,0.0161229,0.0193242,-0.00204016,0.0203167,0.0151304,-1.11803,0.0121892,0.0345299,1987,904,67.1283,-8.90114
770,120,67.0728,9.61865,0,0,0,0,0,0,0,-1,1994,904,67.0727,-9.61863
777,120,59.313,9.57587,0,0,0,0,0,0,0,-1,2001,904,59.3129,-9.57587
784,120,60.7788,13.7254,0,0,0,0,0,0,0,-1,2008,904,60.7789,-13.7254
791,120,74.3335,14.8156,0,0,0,0,0,0,0,-1,2015,904,74.3336,-14.8156
798,120,62.2224,11.3201,0,0,0,0,0,0,0,-1,2022,904,62.2225,-11.3201
805,120,0,0,0,0,0,0,0,0,0,-1,2029,904,0,0
812,120,0,0,0,0,0,0,0,0,0,-1,2036,904,0,0
-700,113,0,0,0,0,0,0,0,0,0,-1,524,911,0,0
-693,113,0,0,0,0,0,0,0,0,0,-1,531,911,0,0
-686,113,0,0,0,0,0,0,0,0,0,-1,538,911,0,0
-679,113,-54.8417,4.68896,0,0,0,0,0,0,0,-1,545,911,-54.8417,-4.68894
-672,113,-52.5881,5.49811,0,0,0,0,0,0,0,-1,552,911,-52.5881,-5.49808
-665,113,-56.8114,7.23682,0,0,0,0,0,0,0,-1,559,911,-56.8114,-7.23679
-658,113,-54.1535,7.58624,0,0,0,0,0,0,0,-1,566,911,-54.1535,-7.58627
-651,113,-53.3762,7.8313,0,0,0,0,0,0,0,-1,573,911,-53.3762,-7.8313
-644,113,-48.5211,7.83691,0,0,0,0,0,0,0,-1,580,911,-48.5211,-7.83694
-637,113,-52.6181,8.07367,0,0,0,0,0,0,0,-1,587,911,-52.6181,-8.07364
-630,113,-52.8159,7.52863,0.00457404,0.00913178,0.0189882,0.0259774,-0.0122716,0.84512,0.0225507,0.0262201,594,911,-52.8159,-7.52862
-623,113,-52.9336,6.84027,-0.00189259,0.00869016,0.0121808,0.0166793,-0.0098817,0.990302,0.0155015,0.0136942,601,911,-52.9336,-6.84025
-616,113,-52.9611,6.14764,-0.00473934,0.00650253,0.00801571,0.0106717,-0.00890853,1.09118,0.0113199,0.0120662,608,911,-52.9611,-6.14763
-609,113,-52.9715,5.46112,-0.00610851,0.00371047,0.00571371,0.00633421,-0.00873225,1.14032,0.00873527,0.0123479,615,911,-52.9715,-5.46112
-602,113,-53.0215,4.67731,-0.00624314,0.00156727,0.00451488,0.00363155,-0.00830742,1.14196,0.00706699,0.021154,622,911,-53.0215,-4.67729
-595,113,-53.0605,4.08398,-0.00593986,0.000485566,0.00368453,0.00216134,-0.00761563,1.14395,0.00593031,0.0289878,629,911,-53.0605,-4.08397
-588,113,-52.985,3.28583,0,0,0,0,0,0,0,-1,636,911,-52.985,-3.2858
-581,113,-53.0342,2.53662,0,0,0,0,0,0,0,-1,643,911,-53.0343,-2.53664
-574,113,-53.0278,1.56097,0,0,0,0,0,0,0,-1,650,911,-53.0278,-1.56099
-567,113,-21.8396,0.437378,0,0,0,0,0,0,0,-1,657,911,-21.8396,-0.437351
-560,113,-59.4086,0.22406,0,0,0,0,0,0,0,-1,664,911,-59.4086,-0.224048
-553,113,-59.3559,0.359741,-0.00512802,-0.00065348,0.00154624,-0.000171149,-0.00561035,1.26842,0.00368451,0.0456885,671,911,-59.3559,-0.359734
-546,113,-59.3227,0.325317,-0.00541398,-0.000377527,0.00115413,-0.00012565,-0.00566586,1.35592,0.00373606,0.0335305,678,911,-59.3227,-0.325315
-539,113,-59.3674,0.30365,-0.00553779,0.000183454,0.000803685,0.000294207,-0.00564855,1.43385,0.0038675,0.0353564,685,911,-59.3673,-0.303638
-532,113,-59.4904,0.280457,-0.00414331,0.000792256,0.000916302,0.000956879,-0.00430793,1.39303,0.00323839,0.038347,692,911,-59.4903,-0.280457
-525,113,-59.5949,0.301147,-0.00396948,0.00101938,0.0014061,0.00138839,-0.00433849,1.31415,0.00344955,0.0389094,699,911,-59.5949,-0.301159
-518,113,-59.5745,0.430542,-0.00423801,0.000933127,0.00202048,0.00162895,-0.00493383,1.23913,0.00394592,0.0382578,706,911,-59.5745,-0.430512
-511,113,-59.6911,0.452209,-0.00413448,0.000707943,0.00265118,0.00187714,-0.00530367,1.15544,0.0043003,0.0390299,713,911,-59.6911,-0.452199
-504,113,0,0,0,0,0,0,0,0,0,-1,720,911,0,0
-497,113,0,0,0,0,0,0,0,0,0,-1,727,911,0,0
-490,113,0,0,0,0,0,0,0,0,0,-1,734,911,0,0
-483,113,0,0,0,0,0,0,0,0,0,-1,741,911,0,0
-476,113,0,0,0,0,0,0,0,0,0,-1,748,911,0,0
-469,113,0,0,0,0,0,0,0,0,0,-1,755,911,0,0
-462,113,0,0,0,0,0,0,0,0,0,-1,762,911,0,0
-455,113,0,0,0,0,0,0,0,0,0,-1,769,911,0,0
-448,113,0,0,0,0,0,0,0,0,0,-1,776,911,0,0
-441,113,0,0,0,0,0,0,0,0,0,-1,783,911,0,0
-434,113,0,0,0,0,0,0,0,0,0,-1,790,911,0,0
-427,113,0,0,0,0,0,0,0,0,0,-1,797,911,0,0
-420,113,0,0,0,0,0,0,0,0,0,-1,804,911,0,0
-413,113,0,0,0,0,0,0,0,0,0,-1,811,911,0,0
-406,113,0,0,0,0,0,0,0,0,0,-1,818,911,0,0
-399,113,0,0,0,0,0,0,0,0,0,-1,825,911,0,0
-392,113,0,0,0,0,0,0,0,0,0,-1,832,911,0,0
-385,113,0,0,0,0,0,0,0,0,0,-1,839,911,0,0
-378,113,0,0,0,0,0,0,0,0,0,-1,846,911,0,0
-371,113,0,0,0,0,0,0,0,0,0,-1,853,911,0,0
-364,113,0,0,0,0,0,0,0,0,0,-1,860,911,0,0
-357,113,0,0,0,0,0,0,0,0,0,-1,867,911,0,0
-350,113,0,0,0,0,0,0,0,0,0,-1,874,911,0,0
-343,113,0,0,0,0,0,0,0,0,0,-1,881,911,0,0
-336,113,0,0,0,0,0,0,0,0,0,-1,888,911,0,0
-329,113,0,0,0,0,0,0,0,0,0,-1,895,911,0,0
-322,113,0,0,0,0,0,0,0,0,0,-1,902,911,0,0
-315,113,0,0,0,0,0,0,0,0,0,-1,909,911,0,0
-308,113,0,0,0,0,0,0,0,0,0,-1,916,911,0,0
-301,113,0,0,0,0,0,0,0,0,0,-1,923,911,0,0
-294,113,0,0,0,0,0,0,0,0,0,-1,930,911,0,0
-287,113,0,0,0,0,0,0,0,0,0,-1,937,911,0,0
-280,113,0,0,0,0,0,0,0,0,0,-1,944,911,0,0
-273,113,0,0,0,0,0,0,0,0,0,-1,951,911,0,0
-266,113,0,0,0,0,0,0,0,0,0,-1,958,911,0,0
-259,113,0,0,0,0,0,0,0,0,0,-1,965,911,0,0
-252,113,0,0,0,0,0,0,0,0,0,-1,972,911,0,0
-245,113,0,0,0,0,0,0,0,0,0,-1,979,911,0,0
-238,113,0,0,0,0,0,0,0,0,0,-1,986,911,0,0
-231,113,0,0,0,0,0,0,0,0,0,-1,993,911,0,0
-224,113,0,0,0,0,0,0,0,0,0,-1,1000,911,0,0
-217,113,0,0,0,0,0,0,0,0,0,-1,1007,911,0,0
-210,113,0,0,0,0,0,0,0,0,0,-1,1014,911,0,0
-203,113,0,0,0,0,0,0,0,0,0,-1,1021,911,0,0
-196,113,0,0,0,0,0,0,0,0,0,-1,1028,911,0,0
-189,113,0,0,0,0,0,0,0,0,0,-1,1035,911,0,0
-182,113,0,0,0,0,0,0,0,0,0,-1,1042,911,0,0
-175,113,0,0,0,0,0,0,0,0,0,-1,1049,911,0,0
-168,113,0,0,0,0,0,0,0,0,0,-1,1056,911,0,0
-161,113,0,0,0,0,0,0,0,0,0,-1,1063,911,0,0
-154,113,0,0,0,0,0,0,0,0,0,-1,1070,911,0,0
-147,113,0,0,0,0,0,0,0,0,0,-1,1077,911,0,0
-140,113,0,0,0,0,0,0,0,0,0,-1,1084,911,0,0
-133,113,0,0,0,0,0,0,0,0,0,-1,1091,911,0,0
-126,113,0,0,0,0,0,0,0,0,0,-1,1098,911,0,0
-119,113,0,0,0,0,0,0,0,0,0,-1,1105,911,0,0
-112,113,0,0,0,0,0,0,0,0,0,-1,1112,911,0,0
-105,113,0,0,0,0,0,0,0,0,0,-1,1119,911,0,0
-98,113,0,0,0,0,0,0,0,0,0,-1,1126,911,0,0
-91,113,0,0,0,0,0,0,0,0,0,-1,1133,911,0,0
-84,113,0,0,0,0,0,0,0,0,0,-1,1140,911,0,0
-77,113,0,0,0,0,0,0,0,0,0,-1,1147,911,0,0
-70,113,0,0,0,0,0,0,0,0,0,-1,1154,911,0,0
-63,113,0,0,0,0,0,0,0,0,0,-1,1161,911,0,0
-56,113,0,0,0,0,0,0,0,0,0,-1,1168,911,0,0
-49,113,0,0,0,0,0,0,0,0,0,-1,1175,911,0,0
-42,113,0,0,0,0,0,0,0,0,0,-1,1182,911,0,0
-35,113,0,0,0,0,0,0,0,0,0,-1,1189,911,0,0
-28,113,0,0,0,0,0,0,0,0,0,-1,1196,911,0,0
-21,113,0,0,0,0,0,0,0,0,0,-1,1203,911,0,0
-14,113,0,0,0,0,0,0,0,0,0,-1,1210,911,0,0
-7,113,0,0,0,0,0,0,0,0,0,-1,1217,911,0,0
0,113,0,0,0,0,0,0,0,0,0,-1,1224,911,0,0
7,113,0,0,0,0,0,0,0,0,0,-1,1231,911,0,0
14,113,0,0,0,0,0,0,0,0,0,-1,1238,911,0,0
21,113,0,0,0,0,0,0,0,0,0,-1,1245,911,0,0
28,113,0,0,0,0,0,0,0,0,0,-1,1252,911,0,0
35,113,0,0,0,0,0,0,0,0,0,-1,1259,911,0,0
42,113,0,0,0,0,0,0,0,0,0,-1,1266,911,0,0
49,113,0,0,0,0,0,0,0,0,0,-1,1273,911,0,0
56,113,0,0,0,0,0,0,0,0,0,-1,1280,911,0,0
63,113,0,0,0,0,0,0,0,0,0,-1,1287,911,0,0
70,113,0,0,0,0,0,0,0,0,0,-1,1294,911,0,0
77,113,0,0,0,0,0,0,0,0,0,-1,1301,911,0,0
84,113,0,0,0,0,0,0,0,0,0,-1,1308,911,0,0
91,113,0,0,0,0,0,0,0,0,0,-1,1315,911,0,0
98,113,0,0,0,0,0,0,0,0,0,-1,1322,911,0,0
105,113,0,0,0,0,0,0,0,0,0,-1,1329,911,0,0
112,113,0,0,0,0,0,0,0,0,0,-1,1336,911,0,0
119,113,0,0,0,0,0,0,0,0,0,-1,1343,911,0,0
126,113,0,0,0,0,0,0,0,0,0,-1,1350,911,0,0
133,113,0,0,0,0,0,0,0,0,0,-1,1357,911,0,0
140,113,0,0,0,0,0,0,0,0,0,-1,1364,911,0,0
147,113,0,0,0,0,0,0,0,0,0,-1,1371,911,0,0
154,113,0,0,0,0,0,0,0,0,0,-1,1378,911,0,0
161,113,0,0,0,0,0,0,0,0,0,-1,1385,911,0,0
168,113,0,0,0,0,0,0,0,0,0,-1,1392,911,0,0
175,113,0,0,0,0,0,0,0,0,0,-1,1399,911,0,0
182,113,0,0,0,0,0,0,0,0,0,-1,1406,911,0,0
189,113,0,0,0,0,0,0,0,0,0,-1,1413,911,0,0
196,113,0,0,0,0,0,0,0,0,0,-1,1420,911,0,0
203,113,0,0,0,0,0,0,0,0,0,-1,1427,911,0,0
210,113,0,0,0,0,0,0,0,0,0,-1,1434,911,0,0
217,113,0,0,0,0,0,0,0,0,0,-1,1441,911,0,0
224,113,0,0,0,0,0,0,0,0,0,-1,1448,911,0,0
231,113,0,0,0,0,0,0,0,0,0,-1,1455,911,0,0
238,113,0,0,0,0,0,0,0,0,0,-1,1462,911,0,0
245,113,0,0,0,0,0,0,0,0,0,-1,1469,911,0,0
252,113,0,0,0,0,0,0,0,0,0,-1,1476,911,0,0
259,113,0,0,0,0,0,0,0,0,0,-1,1483,911,0,0
266,113,0,0,0,0,0,0,0,0,0,-1,1490,911,0,0
273,113,0,0,0,0,0,0,0,0,0,-1,1497,911,0,0
280,113,0,0,0,0,0,0,0,0,0,-1,1504,911,0,0
287,113,0,0,0,0,0,0,0,0,0,-1,1511,911,0,0
294,113,0,0,0,0,0,0,0,0,0,-1,1518,911,0,0
301,113,0,0,0,0,0,0,0,0,0,-1,1525,911,0,0
308,113,0,0,0,0,0,0,0,0,0,-1,1532,911,0,0
315,113,0,0,0,0,0,0,0,0,0,-1,1539,911,0,0
322,113,0,0,0,0,0,0,0,0,0,-1,1546,911,0,0
329,113,0,0,0,0,0,0,0,0,0,-1,1553,911,0,0
336,113,0,0,0,0,0,0,0,0,0,-1,1560,911,0,0
343,113,0,0,0,0,0,0,0,0,0,-1,1567,911,0,0
350,113,0,0,0,0,0,0,0,0,0,-1,1574,911,0,0
357,113,0,0,0,0,0,0,0,0,0,-1,1581,911,0,0
364,113,0,0,0,0,0,0,0,0,0,-1,1588,911,0,0
371,113,0,0,0,0,0,0,0,0,0,-1,1595,911,0,0
378,113,0,0,0,0,0,0,0,0,0,-1,1602,911,0,0
385,113,0,0,0,0,0,0,0,0,0,-1,1609,911,0,0
392,113,0,0,0,0,0,0,0,0,0,-1,1616,911,0,0
399,113,0,0,0,0,0,0,0,0,0,-1,1623,911,0,0
406,113,0,0,0,0,0,0,0,0,0,-1,1630,911,0,0
413,113,0,0,0,0,0,0,0,0,0,-1,1637,911,0,0
420,113,0,0,0,0,0,0,0,0,0,-1,1644,911,0,0
427,113,0,0,0,0,0,0,0,0,0,-1,1651,911,0,0
434,113,0,0,0,0,0,0,0,0,0,-1,1658,911,0,0
441,113,0,0,0,0,0,0,0,0,0,-1,1665,911,0,0
448,113,0,0,0,0,0,0,0,0,0,-1,1672,911,0,0
455,113,0,0,0,0,0,0,0,0,0,-1,1679,911,0,0
462,113,0,0,0,0,0,0,0,0,0,-1,1686,911,0,0
469,113,0,0,0,0,0,0,0,0,0,-1,1693,911,0,0
476,113,0,0,0,0,0,0,0,0,0,-1,1700,911,0,0
483,113,0,0,0,0,0,0,0,0,0,-1,1707,911,0,0
490,113,0,0,0,0,0,0,0,0,0,-1,1714,911,0,0
497,113,0,0,0,0,0,0,0,0,0,-1,1721,911,0,0
504,113,0,0,0,0,0,0,0,0,0,-1,1728,911,0,0
511,113,0,0,0,0,0,0,0,0,0,-1,1735,911,0,0
518,113,0,0,0,0,0,0,0,0,0,-1,1742,911,0,0
525,113,0,0,0,0,0,0,0,0,0,-1,1749,911,0,0
532,113,0,0,0,0,0,0,0,0,0,-1,1756,911,0,0
539,113,0,0,0,0,0,0,0,0,0,-1,1763,911,0,0
546,113,0,0,0,0,0,0,0,0,0,-1,1770,911,0,0
553,113,0,0,0,0,0,0,0,0,0,-1,1777,911,0,0
560,113,0,0,0,0,0,0,0,0,0,-1,1784,911,0,0
567,113,0,0,0,0,0,0,0,0,0,-1,1791,911,0,0
574,113,0,0,0,0,0,0,0,0,0,-1,1798,911,0,0
581,113,0,0,0,0,0,0,0,0,0,-1,1805,911,0,0
588,113,0,0,0,0,0,0,0,0,0,-1,1812,911,0,0
595,113,0,0,0,0,0,0,0,0,0,-1,1819,911,0,0
602,113,0,0,0,0,0,0,0,0,0,-1,1826,911,0,0
609,113,0,0,0,0,0,0,0,0,0,-1,1833,911,0,0
616,113,0,0,0,0,0,0,0,0,0,-1,1840,911,0,0
623,113,0,0,0,0,0,0,0,0,0,-1,1847,911,0,0
630,113,75.5786,2.0437,-0.00170758,0.002322,-0.00011111,0.00232506,-0.00171064,-1.54325,0.002339,0.0383281,1854,911,75.5786,-2.04367
637,113,75.5992,2.20966,-0.00134106,0.00231264,-6.56242e-05,0.00231382,-0.00134224,-1.55284,0.00213553,0.0376255,1861,911,75.5993,-2.20963
644,113,75.4447,2.50018,-0.00118023,0.00231648,-6.24224e-06,0.00231649,-0.00118024,-1.56901,0.00205406,0.0393485,1868,911,75.4448,-2.50016
651,113,75.3436,2.43475,-0.00101588,0.00233244,6.19344e-05,0.00233358,-0.00101703,1.55231,0.00198363,0.0430506,1875,911,75.3436,-2.43475
658,113,75.3704,2.19421,-0.000848838,0.00243095,0.000136851,0.00243665,-0.000854538,1.52917,0.001972,0.0435605,1882,911,75.3703,-2.19419
665,113,75.4144,2.31946,-0.000707535,0.0025917,0.000235022,0.00260835,-0.000724192,1.50004,0.00202396,0.0376415,1889,911,75.4144,-2.31948
672,113,75.3927,2.28333,-0.00084588,0.00219301,0.000274029,0.00221753,-0.000870393,1.48158,0.00183849,0.0363114,1896,911,75.3927,-2.28335
679,113,75.4159,2.17297,-0.00103511,0.00154657,0.000179456,0.00155898,-0.00104752,1.50173,0.00151449,0.0313766,1903,911,75.4159,-2.17299
686,113,75.4526,2.22028,-0.00132669,0.00111017,-0.000127555,0.00111683,-0.00133335,-1.51864,0.00141645,0.0337493,1910,911,75.4526,-2.22028
693,113,75.2371,2.38428,0,0,0,0,0,0,0,-1,1917,911,75.237,-2.38425
700,113,43.897,2.79669,0,0,0,0,0,0,0,-1,1924,911,43.897,-2.79671
707,113,68.3326,3.07886,0,0,0,0,0,0,0,-1,1931,911,68.3327,-3.07888
714,113,68.351,3.83093,0,0,0,0,0,0,0,-1,1938,911,68.351,-3.83092
721,113,68.3348,4.53851,-0.00264539,0.0014772,-0.00205719,0.00232811,-0.00349631,-1.1786,0.0033852,0.0273216,1945,911,68.3348,-4.53852
728,113,68.4443,5.31433,-0.00334612,0.0016549,-0.00234211,0.00258047,-0.00427169,-1.19445,0.00399606,0.0281753,1952,911,68.4443,-5.31431
735,113,68.3241,6.06183,-0.00296728,0.00243189,-0.00279879,0.00362088,-0.00415626,-1.16908,0.00449368,0.0239564,1959,911,68.3241,-6.06182
742,113,68.1906,6.74109,-0.00120391,0.00503299,-0.003432,0.00655171,-0.00272263,-1.15418,0.00550457,0.0146325,1966,911,68.1906,-6.74108
749,113,68.1664,7.48096,0.00248582,0.00904879,-0.00343242,0.010516,0.00101866,-1.16686,0.00669696,0.0107666,1973,911,68.1663,-7.48096
756,113,68.0664,8.24146,0.00842639,0.0145234,-0.00286832,0.0156607,0.00728912,-1.19332,0.00904888,0.0163404,1980,911,68.0665,-8.24143
763,113,67.8828,9.12885,0.0161214,0.0208236,-0.00180222,0.0214349,0.0155101,-1.2438,0.0127812,0.0399418,1987,911,67.8828,-9.12883
770,113,67.7781,10.035,0,0,0,0,0,0,0,-1,1994,911,67.7781,-10.035
777,113,58.1719,9.65338,0,0,0,0,0,0,0,-1,2001,911,58.172,-9.6534
784,113,59.4839,11.6239,0,0,0,0,0,0,0,-1,2008,911,59.4839,-11.6239
791,113,63.7207,8.32813,0,0,0,0,0,0,0,-1,2015,911,63.7207,-8.32813
798,113,67.3394,10.7512,0,0,0,0,0,0,0,-1,2022,911,67.3393,-10.7512
805,113,0,0,0,0,0,0,0,0,0,-1,2029,911,0,0
812,113,0,0,0,0,0,0,0,0,0,-1,2036,911,0,0
-700,106,0,0,0,0,0,0,0,0,0,-1,524,918,0,0
-693,106,0,0,0,0,0,0,0,0,0,-1,531,918,0,0
-686,106,0,0,0,0,0,0,0,0,0,-1,538,918,0,0
-679,106,-55.3426,4.73175,0,0,0,0,0,0,0,-1,545,918,-55.3426,-4.73174
-672,106,-54.8782,5.55206,0,0,0,0,0,0,0,-1,552,918,-54.8782,-5.55205
-665,106,-56.1707,6.97803,0,0,0,0,0,0,0,-1,559,918,-56.1707,-6.97802
-658,106,-54.5925,7.76459,0,0,0,0,0,0,0,-1,566,918,-54.5925,-7.76457
-651,106,-52.8008,8.01733,0,0,0,0,0,0,0,-1,573,918,-52.8008,-8.01734
-644,106,-52.5258,9.12427,0,0,0,0,0,0,0,-1,580,918,-52.5258,-9.12424
-637,106,-53.0104,8.29364,0.0139167,0.00814815,0.0285257,0.0397036,-0.0176387,0.735013,0.0339137,0.0432964,587,918,-53.0105,-8.29367
-630,106,-53.5156,7.60236,0.00491638,0.00917478,0.0197023,0.0268626,-0.0127714,0.839224,0.0233598,0.0195993,594,918,-53.5156,-7.60237
-623,106,-53.7506,6.78363,-0.00165431,0.00871429,0.0126762,0.0172254,-0.0101654,0.979509,0.0159882,0.0195815,601,918,-53.7506,-6.78363
-616,106,-53.8095,6.09528,-0.00453307,0.00639135,0.00833596,0.0108953,-0.009037,1.07543,0.0115246,0.0194099,608,918,-53.8095,-6.09527
-609,106,-53.7769,5.46558,-0.00589993,0.00353331,0.0059118,0.00637949,-0.00874611,1.12211,0.00876833,0.0133395,615,918,-53.7769,-5.46557
-602,106,-53.8216,4.71277,-0.00606942,0.00145912,0.00459904,0.00363799,-0.00824829,1.12836,0.00703251,0.022999,622,918,-53.8216,-4.71279
-595,106,-53.9781,4.02936,-0.00575669,0.000373412,0.00370337,0.00211559,-0.00749887,1.13108,0.00583375,0.0277298,629,918,-53.9781,-4.02937
-588,106,-54.0853,3.32074,0,0,0,0,0,0,0,-1,636,918,-54.0853,-3.32072
-581,106,-53.8344,2.47388,0,0,0,0,0,0,0,-1,643,918,-53.8343,-2.47386
-574,106,-54.1566,1.69098,0,0,0,0,0,0,0,-1,650,918,-54.1565,-1.69097
-567,106,-41.3706,0.420776,0,0,0,0,0,0,0,-1,657,918,-41.3706,-0.420794
-560,106,-59.375,0.205444,0,0,0,0,0,0,0,-1,664,918,-59.375,-0.205419
-553,106,-59.4038,0.260193,-0.00495815,-0.000893889,0.00128635,-0.000520971,-0.00533107,1.28863,0.00339374,0.0349872,671,918,-59.4038,-0.260216
-546,106,-59.3525,0.144836,-0.00520433,-0.000485064,0.00092473,-0.000310335,-0.00537906,1.38405,0.0034872,0.037364,678,918,-59.3526,-0.144817
-539,106,-59.3738,0.185974,-0.00524323,0.00017396,0.000654808,0.000251987,-0.00532126,1.4522,0.00363442,0.0420771,685,918,-59.3738,-0.18596
-532,106,-59.4594,0.345581,-0.00423266,0.000794199,0.000857283,0.000936379,-0.00437484,1.40644,0.00327364,0.0421546,692,918,-59.4594,-0.345589
-525,106,-59.4985,0.267334,-0.00461547,0.000866276,0.00137998,0.00119407,-0.00494327,1.33758,0.00375732,0.0394552,699,918,-59.4985,-0.267341
-518,106,-59.4891,0.248901,-0.00517546,0.000781534,0.00200034,0.00139091,-0.00578483,1.27509,0.00439419,0.0398312,706,918,-59.489,-0.248907
-511,106,0,0,0,0,0,0,0,0,0,-1,713,918,0,0
-504,106,0,0,0,0,0,0,0,0,0,-1,720,918,0,0
-497,106,0,0,0,0,0,0,0,0,0,-1,727,918,0,0
-490,106,0,0,0,0,0,0,0,0,0,-1,734,918,0,0
-483,106,0,0,0,0,0,0,0,0,0,-1,741,918,0,0
-476,106,0,0,0,0,0,0,0,0,0,-1,748,918,0,0
-469,106,0,0,0,0,0,0,0,0,0,-1,755,918,0,0
-462,106,0,0,0,0,0,0,0,0,0,-1,762,918,0,0
-455,106,0,0,0,0,0,0,0,0,0,-1,769,918,0,0
-448,106,0,0,0,0,0,0,0,0,0,-1,776,918,0,0
-441,106,0,0,0,0,0,0,0,0,0,-1,783,918,0,0
-434,106,0,0,0,0,0,0,0,0,0,-1,790,918,0,0
-427,106,0,0,0,0,0,0,0,0,0,-1,797,918,0,0
-420,106,0,0,0,0,0,0,0,0,0,-1,804,918,0,0
-413,106,0,0,0,0,0,0,0,0,0,-1,811,918,0,0
-406,106,0,0,0,0,0,0,0,0,0,-1,818,918,0,0
-399,106,0,0,0,0,0,0,0,0,0,-1,825,918,0,0
-392,106,0,0,0,0,0,0,0,0,0,-1,832,918,0,0
-385,106,0,0,0,0,0,0,0,0,0,-1,839,918,0,0
-378,106,0,0,0,0,0,0,0,0,0,-1,846,918,0,0
-371,106,0,0,0,0,0,0,0,0,0,-1,853,918,0,0
-364,106,0,0,0,0,0,0,0,0,0,-1,860,918,0,0
-357,106,0,0,0,0,0,0,0,0,0,-1,867,918,0,0
-350,106,0,0,0,0,0,0,0,0,0,-1,874,918,0,0
-343,106,0,0,0,0,0,0,0,0,0,-1,881,918,0,0
-336,106,0,0,0,0,0,0,0,0,0,-1,888,918,0,0
-329,106,0,0,0,0,0,0,0,0,0,-1,895,918,0,0
-322,106,0,0,0,0,0,0,0,0,0,-1,902,918,0,0
-315,106,0,0,0,0,0,0,0,0,0,-1,909,918,0,0
-308,106,0,0,0,0,0,0,0,0,0,-1,916,918,0,0
-301,106,0,0,0,0,0,0,0,0,0,-1,923,918,0,0
-294,106,0,0,0,0,0,0,0,0,0,-1,930,918,0,0
-287,106,0,0,0,0,0,0,0,0,0,-1,937,918,0,0
-280,106,0,0,0,0,0,0,0,0,0,-1,944,918,0,0
-273,106,0,0,0,0,0,0,0,0,0,-1,951,918,0,0
-266,106,0,0,0,0,0,0,0,0,0,-1,958,918,0,0
-259,106,0,0,0,0,0,0,0,0,0,-1,965,918,0,0
-252,106,0,0,0,0,0,0,0,0,0,-1,972,918,0,0
-245,106,0,0,0,0,0,0,0,0,0,-1,979,918,0,0
-238,106,0,0,0,0,0,0,0,0,0,-1,986,918,0,0
-231,106,0,0,0,0,0,0,0,0,0,-1,993,918,0,0
-224,106,0,0,0,0,0,0,0,0,0,-1,1000,918,0,0
-217,106,0,0,0,0,0,0,0,0,0,-1,1007,918,0,0
-210,106,0,0,0,0,0,0,0,0,0,-1,1014,918,0,0
-203,106,0,0,0,0,0,0,0,0,0,-1,1021,918,0,0
-196,106,0,0,0,0,0,0,0,0,0,-1,1028,918,0,0
-189,106,0,0,0,0,0,0,0,0,0,-1,1035,918,0,0
-182,106,0,0,0,0,0,0,0,0,0,-1,1042,918,0,0
-175,106,0,0,0,0,0,0,0,0,0,-1,1049,918,0,0
-168,106,0,0,0,0,0,0,0,0,0,-1,1056,918,0,0
-161,106,0,0,0,0,0,0,0,0,0,-1,1063,918,0,0
-154,106,0,0,0,0,0,0,0,0,0,-1,1070,918,0,0
-147,106,0,0,0,0,0,0,0,0,0,-1,1077,918,0,0
-140,106,0,0,0,0,0,0,0,0,0,-1,1084,918,0,0
-133,106,0,0,0,0,0,0,0,0,0,-1,1091,918,0,0
-126,106,0,0,0,0,0,0,0,0,0,-1,1098,918,0,0
-119,106,0,0,0,0,0,0,0,0,0,-1,1105,918,0,0
-112,106,0,0,0,0,0,0,0,0,0,-1,1112,918,0,0
-105,106,0,0,0,0,0,0,0,0,0,-1,1119,918,0,0
-98,106,0,0,0,0,0,0,0,0,0,-1,1126,918,0,0
-91,106,0,0,0,0,0,0,0,0,0,-1,1133,918,0,0
-84,106,0,0,0,0,0,0,0,0,0,-1,1140,918,0,0
-77,106,0,0,0,0,0,0,0,0,0,-1,1147,918,0,0
-70,106,0,0,0,0,0,0,0,0,0,-1,1154,918,0,0
-63,106,0,0,0,0,0,0,0,0,0,-1,1161,918,0,0
-56,106,0,0,0,0,0,0,0,0,0,-1,1168,918,0,0
-49,106,0,0,0,0,0,0,0,0,0,-1,1175,918,0,0
-42,106,0,0,0,0,0,0,0,0,0,-1,1182,918,0,0
-35,106,0,0,0,0,0,0,0,0,0,-1,1189,918,0,0
-28,106,0,0,0,0,0,0,0,0,0,-1,1196,918,0,0
-21,106,0,0,0,0,0,0,0,0,0,-1,1203,918,0,0
-14,106,0,0,0,0,0,0,0,0,0,-1,1210,918,0,0
-7,106,0,0,0,0,0,0,0,0,0,-1,1217,918,0,0
0,106,0,0,0,0,0,0,0,0,0,-1,1224,918,0,0
7,106,0,0,0,0,0,0,0,0,0,-1,1231,918,0,0
14,106,0,0,0,0,0,0,0,0,0,-1,1238,918,0,0
21,106,0,0,0,0,0,0,0,0,0,-1,1245,918,0,0
28,106,0,0,0,0,0,0,0,0,0,-1,1252,918,0,0
35,106,0,0,0,0,0,0,0,0,0,-1,1259,918,0,0
42,106,0,0,0,0,0,0,0,0,0,-1,1266,918,0,0
49,106,0,0,0,0,0,0,0,0,0,-1,1273,918,0,0
56,106,0,0,0,0,0,0,0,0,0,-1,1280,918,0,0
63,106,0,0,0,0,0,0,0,0,0,-1,1287,918,0,0
70,106,0,0,0,0,0,0,0,0,0,-1,1294,918,0,0
77,106,0,0,0,0,0,0,0,0,0,-1,1301,918,0,0
84,106,0,0,0,0,0,0,0,0,0,-1,1308,918,0,0
91,106,0,0,0,0,0,0,0,0,0,-1,1315,918,0,0
98,106,0,0,0,0,0,0,0,0,0,-1,1322,918,0,0
105,106,0,0,0,0,0,0,0,0,0,-1,1329,918,0,0
112,106,0,0,0,0,0,0,0,0,0,-1,1336,918,0,0
119,106,0,0,0,0,0,0,0,0,0,-1,1343,918,0,0
126,106,0,0,0,0,0,0,0,0,0,-1,1350,918,0,0
133,106,0,0,0,0,0,0,0,0,0,-1,1357,918,0,0
140,106,0,0,0,0,0,0,0,0,0,-1,1364,918,0,0
147,106,0,0,0,0,0,0,0,0,0,-1,1371,918,0,0
154,106,0,0,0,0,0,0,0,0,0,-1,1378,918,0,0
161,106,0,0,0,0,0,0,0,0,0,-1,1385,918,0,0
168,106,0,0,0,0,0,0,0,0,0,-1,1392,918,0,0
175,106,0,0,0,0,0,0,0,0,0,-1,1399,918,0,0
182,106,0,0,0,0,0,0,0,0,0,-1,1406,918,0,0
189,106,0,0,0,0,0,0,0,0,0,-1,1413,918,0,0
196,106,0,0,0,0,0,0,0,0,0,-1,1420,918,0,0
203,106,0,0,0,0,0,0,0,0,0,-1,1427,918,0,0
210,106,0,0,0,0,0,0,0,0,0,-1,1434,918,0,0
217,106,0,0,0,0,0,0,0,0,0,-1,1441,918,0,0
224,106,0,0,0,0,0,0,0,0,0,-1,1448,918,0,0
231,106,0,0,0,0,0,0,0,0,0,-1,1455,918,0,0
238,106,0,0,0,0,0,0,0,0,0,-1,1462,918,0,0
245,106,0,0,0,0,0,0,0,0,0,-1,1469,918,0,0
252,106,0,0,0,0,0,0,0,0,0,-1,1476,918,0,0
259,106,0,0,0,0,0,0,0,0,0,-1,1483,918,0,0
266,106,0,0,0,0,0,0,0,0,0,-1,1490,918,0,0
273,106,0,0,0,0,0,0,0,0,0,-1,1497,918,0,0
280,106,0,0,0,0,0,0,0,0,0,-1,1504,918,0,0
287,106,0,0,0,0,0,0,0,0,0,-1,1511,918,0,0
294,106,0,0,0,0,0,0,0,0,0,-1,1518,918,0,0
301,106,0,0,0,0,0,0,0,0,0,-1,1525,918,0,0
308,106,0,0,0,0,0,0,0,0,0,-1,1532,918,0,0
315,106,0,0,0,0,0,0,0,0,0,-1,1539,918,0,0
322,106,0,0,0,0,0,0,0,0,0,-1,1546,918,0,0
329,106,0,0,0,0,0,0,0,0,0,-1,1553,918,0,0
336,106,0,0,0,0,0,0,0,0,0,-1,1560,918,0,0
343,106,0,0,0,0,0,0,0,0,0,-1,1567,918,0,0
350,106,0,0,0,0,0,0,0,0,0,-1,1574,918,0,0
357,106,0,0,0,0,0,0,0,0,0,-1,1581,918,0,0
364,106,0,0,0,0,0,0,0,0,0,-1,1588,918,0,0
371,106,0,0,0,0,0,0,0,0,0,-1,1595,918,0,0
378,106,0,0,0,0,0,0,0,0,0,-1,1602,918,0,0
385,106,0,0,0,0,0,0,0,0,0,-1,1609,918,0,0
392,106,0,0,0,0,0,0,0,0,0,-1,1616,918,0,0
399,106,0,0,0,0,0,0,0,0,0,-1,1623,918,0,0
406,106,0,0,0,0,0,0,0,0,0,-1,1630,918,0,0
413,106,0,0,0,0,0,0,0,0,0,-1,1637,918,0,0
420,106,0,0,0,0,0,0,0,0,0,-1,1644,918,0,0
427,106,0,0,0,0,0,0,0,0,0,-1,1651,918,0,0
434,106,0,0,0,0,0,0,0,0,0,-1,1658,918,0,0
441,106,0,0,0,0,0,0,0,0,0,-1,1665,918,0,0
448,106,0,0,0,0,0,0,0,0,0,-1,1672,918,0,0
455,106,0,0,0,0,0,0,0,0,0,-1,1679,918,0,0
462,106,0,0,0,0,0,0,0,0,0,-1,1686,918,0,0
469,106,0,0,0,0,0,0,0,0,0,-1,1693,918,0,0
476,106,0,0,0,0,0,0,0,0,0,-1,1700,918,0,0
483,106,0,0,0,0,0,0,0,0,0,-1,1707,918,0,0
490,106,0,0,0,0,0,0,0,0,0,-1,1714,918,0,0
497,106,0,0,0,0,0,0,0,0,0,-1,1721,918,0,0
504,106,0,0,0,0,0,0,0,0,0,-1,1728,918,0,0
511,106,0,0,0,0,0,0,0,0,0,-1,1735,918,0,0
518,106,0,0,0,0,0,0,0,0,0,-1,1742,918,0,0
525,106,0,0,0,0,0,0,0,0,0,-1,1749,918,0,0
532,106,0,0,0,0,0,0,0,0,0,-1,1756,918,0,0
539,106,0,0,0,0,0,0,0,0,0,-1,1763,918,0,0
546,106,0,0,0,0,0,0,0,0,0,-1,1770,918,0,0
553,106,0,0,0,0,0,0,0,0,0,-1,1777,918,0,0
560,106,0,0,0,0,0,0,0,0,0,-1,1784,918,0,0
567,106,0,0,0,0,0,0,0,0,0,-1,1791,918,0,0
574,106,0,0,0,0,0,0,0,0,0,-1,1798,918,0,0
581,106,0,0,0,0,0,0,0,0,0,-1,1805,918,0,0
588,106,0,0,0,0,0,0,0,0,0,-1,1812,918,0,0
595,106,0,0,0,0,0,0,0,0,0,-1,1819,918,0,0
602,106,0,0,0,0,0,0,0,0,0,-1,1826,918,0,0
609,106,0,0,0,0,0,0,0,0,0,-1,1833,918,0,0
616,106,0,0,0,0,0,0,0,0,0,-1,1840,918,0,0
623,106,0,0,0,0,0,0,0,0,0,-1,1847,918,0,0
630,106,75.524,2.01288,-0.000587777,0.00190488,0.000358363,0.00195538,-0.000638274,1.43081,0.00156048,0.0403066,1854,918,75.5241,-2.01285
637,106,75.5208,2.15381,-0.000434522,0.00199822,0.000232756,0.00202029,-0.000456591,1.47626,0.00152206,0.0394819,1861,918,75.5207,-2.15383
644,106,75.5092,2.3634,-0.000512911,0.00207749,0.00018224,0.00209025,-0.000525669,1.5009,0.00159781,0.0396734,1868,918,75.5092,-2.36342
651,106,75.557,2.0564,-0.000533357,0.00217853,0.000227823,0.00219753,-0.000552363,1.48756,0.00167969,0.0423016,1875,918,75.557,-2.0564
658,106,75.5205,1.97144,-0.000476393,0.00238988,0.00034959,0.0024319,-0.000518415,1.45117,0.00181887,0.043515,1882,918,75.5206,-1.97145
665,106,75.4236,2.09619,-0.000356331,0.00266372,0.000550253,0.00276085,-0.000453463,1.39607,0.00200885,0.0417878,1889,918,75.4236,-2.09622
672,106,75.3738,2.29156,-0.000587239,0.00233099,0.000727255,0.00250219,-0.000758435,1.3396,0.00197022,0.0396035,1896,918,75.3738,-2.29155
679,106,75.4521,2.2514,-0.000867539,0.0016356,0.000721435,0.00182864,-0.00106058,1.30934,0.00168763,0.0328751,1903,918,75.4522,-2.25142
686,106,75.5242,2.30371,-0.00117442,0.00111769,0.000397348,0.00118462,-0.00124135,1.40393,0.00140076,0.0384016,1910,918,75.5242,-2.3037
693,106,75.3942,2.17847,-0.00161872,0.000933499,-0.000101378,0.000937519,-0.00162275,-1.53116,0.00149571,0.0450929,1917,918,75.3942,-2.17849
700,106,75.3741,1.96722,0,0,0,0,0,0,0,-1,1924,918,75.3741,-1.96723
707,106,59.4137,3.22595,0,0,0,0,0,0,0,-1,1931,918,59.4136,-3.22598
714,106,68.8394,3.7829,0,0,0,0,0,0,0,-1,1938,918,68.8393,-3.7829
721,106,69.1787,4.64587,-0.0028581,0.00155564,-0.00168718,0.00212669,-0.00342915,-1.24443,0.00323691,0.0347262,1945,918,69.1788,-4.64586
728,106,69.2413,5.40448,-0.00362127,0.00178852,-0.00200061,0.00244798,-0.00428073,-1.25238,0.00393256,0.0335919,1952,918,69.2413,-5.40447
735,106,69.1302,6.1264,-0.00322567,0.00265764,-0.00248772,0.00356853,-0.00413656,-1.2198,0.00445256,0.0294263,1959,918,69.1303,-6.12642
742,106,69.0048,6.75812,-0.00160576,0.005298,-0.00318447,0.00654253,-0.0028503,-1.19823,0.00556086,0.0150015,1966,918,69.0048,-6.75813
749,106,68.9528,7.45886,0.00185576,0.00942354,-0.00324372,0.0106236,0.000655724,-1.21645,0.00687424,0.0115322,1973,918,68.9528,-7.45888
756,106,68.8723,8.1507,0.0077633,0.0151723,-0.00262529,0.0160082,0.00692738,-1.26253,0.00927018,0.0148421,1980,918,68.8724,-8.1507
763,106,68.7578,9.01483,0.0155566,0.0217861,-0.0014187,0.0220939,0.0152488,-1.35709,0.0130599,0.0332134,1987,918,68.7578,-9.01485
770,106,68.6919,9.92462,0,0,0,0,0,0,0,-1,1994,918,68.692,-9.92459
777,106,69.7483,10.4918,0,0,0,0,0,0,0,-1,2001,918,69.7483,-10.4918
784,106,70.5969,11.423,0,0,0,0,0,0,0,-1,2008,918,70.5968,-11.423
791,106,71.4124,12.0047,0,0,0,0,0,0,0,-1,2015,918,71.4125,-12.0047
798,106,71.9023,11.7274,0,0,0,0,0,0,0,-1,2022,918,71.9024,-11.7274
805,106,0,0,0,0,0,0,0,0,0,-1,2029,918,0,0
812,106,0,0,0,0,0,0,0,0,0,-1,2036,918,0,0
-700,99,0,0,0,0,0,0,0,0,0,-1,524,925,0,0
-693,99,0,0,0,0,0,0,0,0,0,-1,531,925,0,0
-686,99,0,0,0,0,0,0,0,0,0,-1,538,925,0,0
-679,99,-55.9791,5.00439,0,0,0,0,0,0,0,-1,545,925,-55.9791,-5.00441
-672,99,-55.167,5.92871,0,0,0,0,0,0,0,-1,552,925,-55.167,-5.92869
-665,99,-55.4436,6.70691,0.0673365,-0.00241172,0.072704,0.113098,-0.048173,0.561771,0.0955918,0.0480711,559,925,-55.4436,-6.70692
-658,99,-54.8077,7.27966,0.0515621,0.00156722,0.0606385,0.0921535,-0.0390242,0.589893,0.0777785,0.0491821,566,925,-54.8077,-7.27967
-651,99,-53.9423,7.83984,0,0,0,0,0,0,0,-1,573,925,-53.9423,-7.83987
-644,99,-53.7947,8.789,0,0,0,0,0,0,0,-1,580,925,-53.7947,-8.78901
-637,99,-53.9974,8.17999,0.0140065,0.00856524,0.0287477,0.040162,-0.0175902,0.73822,0.0341816,0.0384598,587,925,-53.9975,-8.17998
-630,99,-54.277,7.56134,0.00497884,0.00932119,0.019913,0.0271811,-0.012881,0.8397,0.0236159,0.0203324,594,925,-54.277,-7.56136
-623,99,-54.545,6.79913,-0.00154929,0.00874854,0.0128183,0.0174134,-0.0102141,0.976377,0.0161303,0.0139351,601,925,-54.545,-6.79912
-616,99,-54.5746,6.10791,-0.00428318,0.00625645,0.00845553,0.0109499,-0.00897665,1.06406,0.0115234,0.0159566,608,925,-54.5746,-6.1079
-609,99,-54.5606,5.49091,-0.00553928,0.00333126,0.00599492,0.00635325,-0.00856127,1.10388,0.0086423,0.0127972,615,925,-54.5606,-5.49088
-602,99,-54.5651,4.8429,-0.00573807,0.00128848,0.0045826,0.00354957,-0.00799916,1.11244,0.00683064,0.0191662,622,925,-54.5651,-4.84288
-595,99,-54.6943,4.1701,-0.00543079,0.000150074,0.00360258,0.00191652,-0.00719724,1.11492,0.00554845,0.0260333,629,925,-54.6943,-4.17008
-588,99,-54.7003,3.43988,-0.00519211,-0.00044031,0.00288442,0.000920741,-0.00655316,1.12991,0.00470581,0.0298863,636,925,-54.7003,-3.43989
-581,99,-54.8704,2.52069,-0.00498979,-0.000844385,0.00235053,0.000216777,-0.00605095,1.14673,0.00410813,0.0287071,643,925,-54.8704,-2.52069
-574,99,-55.4244,1.66742,0,0,0,0,0,0,0,-1,650,925,-55.4244,-1.66739
-567,99,-50.5977,0.659485,0,0,0,0,0,0,0,-1,657,925,-50.5977,-0.659461
-560,99,-59.2361,0.200562,0,0,0,0,0,0,0,-1,664,925,-59.2361,-0.200539
-553,99,-59.3926,0.273193,-0.00479799,-0.00131503,0.000914766,-0.00108939,-0.00502362,1.32896,0.00305148,0.0377783,671,925,-59.3926,-0.273192
-546,99,-59.3121,0.157959,-0.00502145,-0.000760814,0.000591936,-0.000680104,-0.00510216,1.43528,0.00319893,0.0425238,678,925,-59.3121,-0.157931
-539,99,-59.3013,0.0560913,-0.00502307,1.77487e-05,0.000419808,5.24719e-05,-0.0050578,1.48827,0.00338949,0.043316,685,925,-59.3013,-0.056076
-532,99,-59.3549,0.155884,-0.00440431,0.000677924,0.000706854,0.000774404,-0.00450079,1.43514,0.00328919,0.0433039,692,925,-59.3549,-0.155883
-525,99,-59.4698,0.219299,-0.00534809,0.000695569,0.00129946,0.000963123,-0.00561565,1.36774,0.00410266,0.0396366,699,925,-59.4698,-0.219293
-518,99,-59.5801,0.110168,-0.00621289,0.000726144,0.00198396,0.00125333,-0.00674007,1.31107,0.00496418,0.0402592,706,925,-59.5801,-0.110181
-511,99,0,0,0,0,0,0,0,0,0,-1,713,925,0,0
-504,99,0,0,0,0,0,0,0,0,0,-1,720,925,0,0
-497,99,0,0,0,0,0,0,0,0,0,-1,727,925,0,0
-490,99,0,0,0,0,0,0,0,0,0,-1,734,925,0,0
-483,99,0,0,0,0,0,0,0,0,0,-1,741,925,0,0
-476,99,0,0,0,0,0,0,0,0,0,-1,748,925,0,0
-469,99,0,0,0,0,0,0,0,0,0,-1,755,925,0,0
-462,99,0,0,0,0,0,0,0,0,0,-1,762,925,0,0
-455,99,0,0,0,0,0,0,0,0,0,-1,769,925,0,0
-448,99,0,0,0,0,0,0,0,0,0,-1,776,925,0,0
-441,99,0,0,0,0,0,0,0,0,0,-1,783,925,0,0
-434,99,0,0,0,0,0,0,0,0,0,-1,790,925,0,0
-427,99,0,0,0,0,0,0,0,0,0,-1,797,925,0,0
-420,99,0,0,0,0,0,0,0,0,0,-1,804,925,0,0
-413,99,0,0,0,0,0,0,0,0,0,-1,811,925,0,0
-406,99,0,0,0,0,0,0,0,0,0,-1,818,925,0,0
-399,99,0,0,0,0,0,0,0,0,0,-1,825,925,0,0
-392,99,0,0,0,0,0,0,0,0,0,-1,832,925,0,0
-385,99,0,0,0,0,0,0,0,0,0,-1,839,925,0,0
-378,99,0,0,0,0,0,0,0,0,0,-1,846,925,0,0
-371,99,0,0,0,0,0,0,0,0,0,-1,853,925,0,0
-364,99,0,0,0,0,0,0,0,0,0,-1,860,925,0,0
-357,99,0,0,0,0,0,0,0,0,0,-1,867,925,0,0
-350,99,0,0,0,0,0,0,0,0,0,-1,874,925,0,0
-343,99,0,0,0,0,0,0,0,0,0,-1,881,925,0,0
-336,99,0,0,0,0,0,0,0,0,0,-1,888,925,0,0
-329,99,0,0,0,0,0,0,0,0,0,-1,895,925,0,0
-322,99,0,0,0,0,0,0,0,0,0,-1,902,925,0,0
-315,99,0,0,0,0,0,0,0,0,0,-1,909,925,0,0
-308,99,0,0,0,0,0,0,0,0,0,-1,916,925,0,0
-301,99,0,0,0,0,0,0,0,0,0,-1,923,925,0,0
-294,99,0,0,0,0,0,0,0,0,0,-1,930,925,0,0
-287,99,0,0,0,0,0,0,0,0,0,-1,937,925,0,0
-280,99,0,0,0,0,0,0,0,0,0,-1,944,925,0,0
-273,99,0,0,0,0,0,0,0,0,0,-1,951,925,0,0
-266,99,0,0,0,0,0,0,0,0,0,-1,958,925,0,0
-259,99,0,0,0,0,0,0,0,0,0,-1,965,925,0,0
-252,99,0,0,0,0,0,0,0,0,0,-1,972,925,0,0
-245,99,0,0,0,0,0,0,0,0,0,-1,979,925,0,0
-238,99,0,0,0,0,0,0,0,0,0,-1,986,925,0,0
-231,99,0,0,0,0,0,0,0,0,0,-1,993,925,0,0
-224,99,0,0,0,0,0,0,0,0,0,-1,1000,925,0,0
-217,99,0,0,0,0,0,0,0,0,0,-1,1007,925,0,0
-210,99,0,0,0,0,0,0,0,0,0,-1,1014,925,0,0
-203,99,0,0,0,0,0,0,0,0,0,-1,1021,925,0,0
-196,99,0,0,0,0,0,0,0,0,0,-1,1028,925,0,0
-189,99,0,0,0,0,0,0,0,0,0,-1,1035,925,0,0
-182,99,0,0,0,0,0,0,0,0,0,-1,1042,925,0,0
-175,99,0,0,0,0,0,0,0,0,0,-1,1049,925,0,0
-168,99,0,0,0,0,0,0,0,0,0,-1,1056,925,0,0
-161,99,0,0,0,0,0,0,0,0,0,-1,1063,925,0,0
-154,99,0,0,0,0,0,0,0,0,0,-1,1070,925,0,0
-147,99,0,0,0,0,0,0,0,0,0,-1,1077,925,0,0
-140,99,0,0,0,0,0,0,0,0,0,-1,1084,925,0,0
-133,99,0,0,0,0,0,0,0,0,0,-1,1091,925,0,0
-126,99,0,0,0,0,0,0,0,0,0,-1,1098,925,0,0
-119,99,0,0,0,0,0,0,0,0,0,-1,1105,925,0,0
-112,99,0,0,0,0,0,0,0,0,0,-1,1112,925,0,0
-105,99,0,0,0,0,0,0,0,0,0,-1,1119,925,0,0
-98,99,0,0,0,0,0,0,0,0,0,-1,1126,925,0,0
-91,99,0,0,0,0,0,0,0,0,0,-1,1133,925,0,0
-84,99,0,0,0,0,0,0,0,0,0,-1,1140,925,0,0
-77,99,0,0,0,0,0,0,0,0,0,-1,1147,925,0,0
-70,99,0,0,0,0,0,0,0,0,0,-1,1154,925,0,0
-63,99,0,0,0,0,0,0,0,0,0,-1,1161,925,0,0
-56,99,0,0,0,0,0,0,0,0,0,-1,1168,925,0,0
-49,99,0,0,0,0,0,0,0,0,0,-1,1175,925,0,0
-42,99,0,0,0,0,0,0,0,0,0,-1,1182,925,0,0
-35,99,0,0,0,0,0,0,0,0,0,-1,1189,925,0,0
-28,99,0,0,0,0,0,0,0,0,0,-1,1196,925,0,0
-21,99,0,0,0,0,0,0,0,0,0,-1,1203,925,0,0
-14,99,0,0,0,0,0,0,0,0,0,-1,1210,925,0,0
-7,99,0,0,0,0,0,0,0,0,0,-1,1217,925,0,0
0,99,0,0,0,0,0,0,0,0,0,-1,1224,925,0,0
7,99,0,0,0,0,0,0,0,0,0,-1,1231,925,0,0
14,99,0,0,0,0,0,0,0,0,0,-1,1238,925,0,0
21,99,0,0,0,0,0,0,0,0,0,-1,1245,925,0,0
28,99,0,0,0,0,0,0,0,0,0,-1,1252,925,0,0
35,99,0,0,0,0,0,0,0,0,0,-1,1259,925,0,0
42,99,0,0,0,0,0,0,0,0,0,-1,1266,925,0,0
49,99,0,0,0,0,0,0,0,0,0,-1,1273,925,0,0
56,99,0,0,0,0,0,0,0,0,0,-1,1280,925,0,0
63,99,0,0,0,0,0,0,0,0,0,-1,1287,925,0,0
70,99,0,0,0,0,0,0,0,0,0,-1,1294,925,0,0
77,99,0,0,0,0,0,0,0,0,0,-1,1301,925,0,0
84,99,0,0,0,0,0,0,0,0,0,-1,1308,925,0,0
91,99,0,0,0,0,0,0,0,0,0,-1,1315,925,0,0
98,99,0,0,0,0,0,0,0,0,0,-1,1322,925,0,0
105,99,0,0,0,0,0,0,0,0,0,-1,1329,925,0,0
112,99,0,0,0,0,0,0,0,0,0,-1,1336,925,0,0
119,99,0,0,0,0,0,0,0,0,0,-1,1343,925,0,0
126,99,0,0,0,0,0,0,0,0,0,-1,1350,925,0,0
133,99,0,0,0,0,0,0,0,0,0,-1,1357,925,0,0
140,99,0,0,0,0,0,0,0,0,0,-1,1364,925,0,0
147,99,0,0,0,0,0,0,0,0,0,-1,1371,925,0,0
154,99,0,0,0,0,0,0,0,0,0,-1,1378,925,0,0
161,99,0,0,0,0,0,0,0,0,0,-1,1385,925,0,0
168,99,0,0,0,0,0,0,0,0,0,-1,1392,925,0,0
175,99,0,0,0,0,0,0,0,0,0,-1,1399,925,0,0
182,99,0,0,0,0,0,0,0,0,0,-1,1406,925,0,0
189,99,0,0,0,0,0,0,0,0,0,-1,1413,925,0,0
196,99,0,0,0,0,0,0,0,0,0,-1,1420,925,0,0
203,99,0,0,0,0,0,0,0,0,0,-1,1427,925,0,0
210,99,0,0,0,0,0,0,0,0,0,-1,1434,925,0,0
217,99,0,0,0,0,0,0,0,0,0,-1,1441,925,0,0
224,99,0,0,0,0,0,0,0,0,0,-1,1448,925,0,0
231,99,0,0,0,0,0,0,0,0,0,-1,1455,925,0,0
238,99,0,0,0,0,0,0,0,0,0,-1,1462,925,0,0
245,99,0,0,0,0,0,0,0,0,0,-1,1469,925,0,0
252,99,0,0,0,0,0,0,0,0,0,-1,1476,925,0,0
259,99,0,0,0,0,0,0,0,0,0,-1,1483,925,0,0
266,99,0,0,0,0,0,0,0,0,0,-1,1490,925,0,0
273,99,0,0,0,0,0,0,0,0,0,-1,1497,925,0,0
280,99,0,0,0,0,0,0,0,0,0,-1,1504,925,0,0
287,99,0,0,0,0,0,0,0,0,0,-1,1511,925,0,0
294,99,0,0,0,0,0,0,0,0,0,-1,1518,925,0,0
301,99,0,0,0,0,0,0,0,0,0,-1,1525,925,0,0
308,99,0,0,0,0,0,0,0,0,0,-1,1532,925,0,0
315,99,0,0,0,0,0,0,0,0,0,-1,1539,925,0,0
322,99,0,0,0,0,0,0,0,0,0,-1,1546,925,0,0
329,99,0,0,0,0,0,0,0,0,0,-1,1553,925,0,0
336,99,0,0,0,0,0,0,0,0,0,-1,1560,925,0,0
343,99,0,0,0,0,0,0,0,0,0,-1,1567,925,0,0
350,99,0,0,0,0,0,0,0,0,0,-1,1574,925,0,0
357,99,0,0,0,0,0,0,0,0,0,-1,1581,925,0,0
364,99,0,0,0,0,0,0,0,0,0,-1,1588,925,0,0
371,99,0,0,0,0,0,0,0,0,0,-1,1595,925,0,0
378,99,0,0,0,0,0,0,0,0,0,-1,1602,925,0,0
385,99,0,0,0,0,0,0,0,0,0,-1,1609,925,0,0
392,99,0,0,0,0,0,0,0,0,0,-1,1616,925,0,0
399,99,0,0,0,0,0,0,0,0,0,-1,1623,925,0,0
406,99,0,0,0,0,0,0,0,0,0,-1,1630,925,0,0
413,99,0,0,0,0,0,0,0,0,0,-1,1637,925,0,0
420,99,0,0,0,0,0,0,0,0,0,-1,1644,925,0,0
427,99,0,0,0,0,0,0,0,0,0,-1,1651,925,0,0
434,99,0,0,0,0,0,0,0,0,0,-1,1658,925,0,0
441,99,0,0,0,0,0,0,0,0,0,-1,1665,925,0,0
448,99,0,0,0,0,0,0,0,0,0,-1,1672,925,0,0
455,99,0,0,0,0,0,0,0,0,0,-1,1679,925,0,0
462,99,0,0,0,0,0,0,0,0,0,-1,1686,925,0,0
469,99,0,0,0,0,0,0,0,0,0,-1,1693,925,0,0
476,99,0,0,0,0,0,0,0,0,0,-1,1700,925,0,0
483,99,0,0,0,0,0,0,0,0,0,-1,1707,925,0,0
490,99,0,0,0,0,0,0,0,0,0,-1,1714,925,0,0
497,99,0,0,0,0,0,0,0,0,0,-1,1721,925,0,0
504,99,0,0,0,0,0,0,0,0,0,-1,1728,925,0,0
511,99,0,0,0,0,0,0,0,0,0,-1,1735,925,0,0
518,99,0,0,0,0,0,0,0,0,0,-1,1742,925,0,0
525,99,0,0,0,0,0,0,0,0,0,-1,1749,925,0,0
532,99,0,0,0,0,0,0,0,0,0,-1,1756,925,0,0
539,99,0,0,0,0,0,0,0,0,0,-1,1763,925,0,0
546,99,0,0,0,0,0,0,0,0,0,-1,1770,925,0,0
553,99,0,0,0,0,0,0,0,0,0,-1,1777,925,0,0
560,99,0,0,0,0,0,0,0,0,0,-1,1784,925,0,0
567,99,0,0,0,0,0,0,0,0,0,-1,1791,925,0,0
574,99,0,0,0,0,0,0,0,0,0,-1,1798,925,0,0
581,99,0,0,0,0,0,0,0,0,0,-1,1805,925,0,0
588,99,0,0,0,0,0,0,0,0,0,-1,1812,925,0,0
595,99,0,0,0,0,0,0,0,0,0,-1,1819,925,0,0
602,99,0,0,0,0,0,0,0,0,0,-1,1826,925,0,0
609,99,0,0,0,0,0,0,0,0,0,-1,1833,925,0,0
616,99,0,0,0,0,0,0,0,0,0,-1,1840,925,0,0
623,99,0,0,0,0,0,0,0,0,0,-1,1847,925,0,0
630,99,0,0,0,0,0,0,0,0,0,-1,1854,925,0,0
637,99,75.4268,1.89673,0.000750445,0.00125042,0.000161887,0.00129826,0.000702605,1.28346,0.000750397,0.0424665,1861,925,75.4268,-1.89672
644,99,75.5118,2.1853,0.00030819,0.00149162,7.21578e-05,0.001496,0.000303806,1.51012,0.00091307,0.0378371,1868,925,75.5118,-2.18529
651,99,75.6138,2.13171,4.36663e-05,0.00171692,0.000157422,0.0017316,2.89846e-05,1.4778,0.00114486,0.0390625,1875,925,75.6138,-2.1317
658,99,75.5336,1.94177,-6.04211e-05,0.00208386,0.000371915,0.00214653,-0.000123096,1.40385,0.00147377,0.0422778,1882,925,75.5336,-1.94176
665,99,75.3767,2.01044,-5.63443e-05,0.00250922,0.00068682,0.00268152,-0.00022864,1.32501,0.00186856,0.0416513,1889,925,75.3767,-2.01042
672,99,75.4889,2.13855,-0.000434639,0.00234119,0.00102121,0.00267641,-0.000769855,1.25363,0.00208873,0.0402418,1896,925,75.4889,-2.13852
679,99,75.5319,2.12445,-0.000840481,0.00171626,0.00114812,0.00215615,-0.00128037,1.20491,0.00200544,0.0348109,1903,925,75.5319,-2.12443
686,99,75.4219,2.21118,-0.00118613,0.00117979,0.000877481,0.00146971,-0.00147605,1.25169,0.00170074,0.034014,1910,925,75.4219,-2.21118
693,99,75.4532,2.2771,-0.00169389,0.000939549,0.000408985,0.0010016,-0.00175594,1.42022,0.0016118,0.0406458,1917,925,75.4532,-2.27708
700,99,75.2991,2.25812,0,0,0,0,0,0,0,-1,1924,925,75.2991,-2.25814
707,99,47.9915,3.27429,0,0,0,0,0,0,0,-1,1931,925,47.9914,-3.27427
714,99,69.4276,3.85944,0,0,0,0,0,0,0,-1,1938,925,69.4276,-3.85947
721,99,69.9059,4.61182,0,0,0,0,0,0,0,-1,1945,925,69.9059,-4.61181
728,99,69.9817,5.39355,0,0,0,0,0,0,0,-1,1952,925,69.9817,-5.39355
735,99,69.865,6.10968,-0.00346643,0.00312611,-0.00221034,0.00379859,-0.00413891,-1.27545,0.00458412,0.02526,1959,925,69.865,-6.10968
742,99,69.774,6.7796,-0.00192004,0.00575987,-0.00294924,0.00676174,-0.00292192,-1.24332,0.0057355,0.0159525,1966,925,69.774,-6.77959
749,99,69.7018,7.43915,0.00120939,0.0097621,-0.00309945,0.0107672,0.000204285,-1.25721,0.00711102,0.014275,1973,925,69.7017,-7.43916
756,99,69.6311,8.06641,0.00681385,0.0154711,-0.00253505,0.0161588,0.00612615,-1.3059,0.00941972,0.0146139,1980,925,69.6312,-8.06642
763,99,69.6138,8.7486,0.0144987,0.0221985,-0.0012884,0.0224084,0.0142888,-1.40933,0.0130999,0.0184822,1987,925,69.6138,-8.74857
770,99,69.8757,9.40704,0.0238723,0.0295009,0.000495573,0.0295442,0.023829,1.48364,0.0180945,0.0329927,1994,925,69.8758,-9.40707
777,99,70.3958,9.95538,0,0,0,0,0,0,0,-1,2001,925,70.3957,-9.95536
784,99,71.1782,10.6148,0.0506921,0.0468537,0.00715766,0.0561834,0.0413624,0.654415,0.0336224,0.0452404,2008,925,71.1782,-10.6148
791,99,71.8975,11.109,0.0691591,0.0569902,0.0116438,0.0762123,0.0499369,0.544636,0.0447025,0.0483467,2015,925,71.8974,-11.109
798,99,72.2244,11.5193,0.0895323,0.0679056,0.0169026,0.0987845,0.0586534,0.500831,0.0573665,0.0488729,2022,925,72.2245,-11.5193
805,99,0,0,0,0,0,0,0,0,0,-1,2029,925,0,0
812,99,0,0,0,0,0,0,0,0,0,-1,2036,925,0,0
-700,92,0,0,0,0,0,0,0,0,0,-1,524,932,0,0
-693,92,0,0,0,0,0,0,0,0,0,-1,531,932,0,0
-686,92,-57.0371,4.479,0.121222,-0.0145203,0.11271,0.184918,-0.0782166,0.514389,0.156029,0.044382,538,932,-57.0371,-4.47903
-679,92,-56.3676,5.16608,0.101826,-0.0093357,0.0989613,0.159747,-0.0672563,0.529529,0.134638,0.0459024,545,932,-56.3676,-5.16605
-672,92,-55.7574,5.92126,0.083171,-0.00423656,0.0855428,0.135528,-0.0565931,0.549234,0.113999,0.0454351,552,932,-55.7574,-5.92126
-665,92,-55.5067,6.60303,0.0660056,-5.76663e-05,0.072598,0.112733,-0.0467854,0.571899,0.0946854,0.044183,559,932,-55.5067,-6.60305
-658,92,-55.1134,7.12122,0.0502648,0.00338504,0.0602192,0.0914453,-0.0377954,0.599799,0.0767302,0.0434732,566,932,-55.1134,-7.12119
-651,92,-56.3898,9.11255,0,0,0,0,0,0,0,-1,573,932,-56.3898,-9.11254
-644,92,-55.8085,8.69971,0,0,0,0,0,0,0,-1,580,932,-55.8085,-8.69968
-637,92,-55.0576,8.14227,0.0137181,0.00921591,0.0284329,0.0399889,-0.0170549,0.745895,0.0338098,0.0323509,587,932,-55.0576,-8.1423
-630,92,-55.0776,7.45276,0.00481634,0.00960853,0.0196975,0.0270551,-0.0126302,0.845923,0.0234114,0.0173597,594,932,-55.0777,-7.45278
-623,92,-55.2341,6.79639,-0.00152434,0.0088078,0.0126951,0.0173477,-0.0100642,0.978633,0.0160114,0.010821,601,932,-55.2341,-6.79636
-616,92,-55.2719,6.16046,-0.00400368,0.00608612,0.00847946,0.0109079,-0.00882551,1.05375,0.0114142,0.00992451,608,932,-55.2719,-6.16048
-609,92,-55.3194,5.52161,-0.00512267,0.00306955,0.00608994,0.00631275,-0.00836587,1.08145,0.00850229,0.0100866,615,932,-55.3194,-5.52163
-602,92,-55.3099,4.85846,-0.00536595,0.000978547,0.00464289,0.00342943,-0.00781683,1.0851,0.00665569,0.0125324,622,932,-55.3099,-4.85845
-595,92,-55.2086,4.1001,-0.00508061,-0.000251858,0.00360639,0.00167373,-0.0070062,1.08037,0.00531725,0.0262535,629,932,-55.2086,-4.10008
-588,92,-55.1749,3.45642,-0.00485341,-0.00103862,0.00283925,0.000474439,-0.00636647,1.08117,0.00441097,0.0364174,636,932,-55.1748,-3.45645
-581,92,-55.9366,2.7666,-0.00463714,-0.00164673,0.0022334,-0.000454242,-0.00582963,1.08037,0.0037442,0.0464854,643,932,-55.9366,-2.76662
-574,92,-56.8612,1.9303,0,0,0,0,0,0,0,-1,650,932,-56.8612,-1.93029
-567,92,-59.2786,0.11322,0,0,0,0,0,0,0,-1,657,932,-59.2785,-0.113225
-560,92,-59.2092,0.131226,-0.0044946,-0.00231154,0.00101203,-0.00191457,-0.00489158,1.19698,0.00284627,0.0410745,664,932,-59.2092,-0.131212
-553,92,-59.3226,0.280457,-0.00467705,-0.00199992,0.000614775,-0.0018655,-0.00481148,1.35552,0.00280116,0.0378002,671,932,-59.3226,-0.280468
-546,92,-59.2946,0.204468,-0.00483474,-0.00134397,0.000316425,-0.00131552,-0.00486319,1.48112,0.00290468,0.0404264,678,932,-59.2945,-0.204484
-539,92,-59.2684,0.0769043,-0.00474408,-0.000517711,0.000202554,-0.000508026,-0.00475377,1.52302,0.00301414,0.0405077,685,932,-59.2684,-0.0768761
-532,92,-59.3472,0.114441,-0.00436256,4.39791e-05,0.000496908,9.93183e-05,-0.0044179,1.45989,0.00297893,0.0421489,692,932,-59.3471,-0.114415
-525,92,-59.4371,0.23407,-0.00574229,-0.000120346,0.00105803,7.21789e-05,-0.00593481,1.3908,0.00398082,0.038044,699,932,-59.4371,-0.234058
-518,92,-59.6153,0.283691,-0.00677951,-0.000100181,0.00169713,0.000306298,-0.00718599,1.33571,0.00489595,0.039075,706,932,-59.6153,-0.283667
-511,92,0,0,0,0,0,0,0,0,0,-1,713,932,0,0
-504,92,0,0,0,0,0,0,0,0,0,-1,720,932,0,0
-497,92,0,0,0,0,0,0,0,0,0,-1,727,932,0,0
-490,92,0,0,0,0,0,0,0,0,0,-1,734,932,0,0
-483,92,0,0,0,0,0,0,0,0,0,-1,741,932,0,0
-476,92,0,0,0,0,0,0,0,0,0,-1,748,932,0,0
-469,92,0,0,0,0,0,0,0,0,0,-1,755,932,0,0
-462,92,0,0,0,0,0,0,0,0,0,-1,762,932,0,0
-455,92,0,0,0,0,0,0,0,0,0,-1,769,932,0,0
-448,92,0,0,0,0,0,0,0,0,0,-1,776,932,0,0
-441,92,0,0,0,0,0,0,0,0,0,-1,783,932,0,0
-434,92,0,0,0,0,0,0,0,0,0,-1,790,932,0,0
-427,92,0,0,0,0,0,0,0,0,0,-1,797,932,0,0
-420,92,0,0,0,0,0,0,0,0,0,-1,804,932,0,0
-413,92,0,0,0,0,0,0,0,0,0,-1,811,932,0,0
-406,92,0,0,0,0,0,0,0,0,0,-1,818,932,0,0
-399,92,0,0,0,0,0,0,0,0,0,-1,825,932,0,0
-392,92,0,0,0,0,0,0,0,0,0,-1,832,932,0,0
-385,92,0,0,0,0,0,0,0,0,0,-1,839,932,0,0
-378,92,0,0,0,0,0,0,0,0,0,-1,846,932,0,0
-371,92,0,0,0,0,0,0,0,0,0,-1,853,932,0,0
-364,92,0,0,0,0,0,0,0,0,0,-1,860,932,0,0
-357,92,0,0,0,0,0,0,0,0,0,-1,867,932,0,0
-350,92,0,0,0,0,0,0,0,0,0,-1,874,932,0,0
-343,92,0,0,0,0,0,0,0,0,0,-1,881,932,0,0
-336,92,0,0,0,0,0,0,0,0,0,-1,888,932,0,0
-329,92,0,0,0,0,0,0,0,0,0,-1,895,932,0,0
-322,92,0,0,0,0,0,0,0,0,0,-1,902,932,0,0
-315,92,0,0,0,0,0,0,0,0,0,-1,909,932,0,0
-308,92,0,0,0,0,0,0,0,0,0,-1,916,932,0,0
-301,92,0,0,0,0,0,0,0,0,0,-1,923,932,0,0
-294,92,0,0,0,0,0,0,0,0,0,-1,930,932,0,0
-287,92,0,0,0,0,0,0,0,0,0,-1,937,932,0,0
-280,92,0,0,0,0,0,0,0,0,0,-1,944,932,0,0
-273,92,0,0,0,0,0,0,0,0,0,-1,951,932,0,0
-266,92,0,0,0,0,0,0,0,0,0,-1,958,932,0,0
-259,92,0,0,0,0,0,0,0,0,0,-1,965,932,0,0
-252,92,0,0,0,0,0,0,0,0,0,-1,972,932,0,0
-245,92,0,0,0,0,0,0,0,0,0,-1,979,932,0,0
-238,92,0,0,0,0,0,0,0,0,0,-1,986,932,0,0
-231,92,0,0,0,0,0,0,0,0,0,-1,993,932,0,0
-224,92,0,0,0,0,0,0,0,0,0,-1,1000,932,0,0
-217,92,0,0,0,0,0,0,0,0,0,-1,1007,932,0,0
-210,92,0,0,0,0,0,0,0,0,0,-1,1014,932,0,0
-203,92,0,0,0,0,0,0,0,0,0,-1,1021,932,0,0
-196,92,0,0,0,0,0,0,0,0,0,-1,1028,932,0,0
-189,92,0,0,0,0,0,0,0,0,0,-1,1035,932,0,0
-182,92,0,0,0,0,0,0,0,0,0,-1,1042,932,0,0
-175,92,0,0,0,0,0,0,0,0,0,-1,1049,932,0,0
-168,92,0,0,0,0,0,0,0,0,0,-1,1056,932,0,0
-161,92,0,0,0,0,0,0,0,0,0,-1,1063,932,0,0
-154,92,0,0,0,0,0,0,0,0,0,-1,1070,932,0,0
-147,92,0,0,0,0,0,0,0,0,0,-1,1077,932,0,0
-140,92,0,0,0,0,0,0,0,0,0,-1,1084,932,0,0
-133,92,0,0,0,0,0,0,0,0,0,-1,1091,932,0,0
-126,92,0,0,0,0,0,0,0,0,0,-1,1098,932,0,0
-119,92,0,0,0,0,0,0,0,0,0,-1,1105,932,0,0
-112,92,0,0,0,0,0,0,0,0,0,-1,1112,932,0,0
-105,92,0,0,0,0,0,0,0,0,0,-1,1119,932,0,0
-98,92,0,0,0,0,0,0,0,0,0,-1,1126,932,0,0
-91,92,0,0,0,0,0,0,0,0,0,-1,1133,932,0,0
-84,92,0,0,0,0,0,0,0,0,0,-1,1140,932,0,0
-77,92,0,0,0,0,0,0,0,0,0,-1,1147,932,0,0
-70,92,0,0,0,0,0,0,0,0,0,-1,1154,932,0,0
-63,92,0,0,0,0,0,0,0,0,0,-1,1161,932,0,0
-56,92,0,0,0,0,0,0,0,0,0,-1,1168,932,0,0
-49,92,0,0,0,0,0,0,0,0,0,-1,1175,932,0,0
-42,92,0,0,0,0,0,0,0,0,0,-1,1182,932,0,0
-35,92,0,0,0,0,0,0,0,0,0,-1,1189,932,0,0
-28,92,0,0,0,0,0,0,0,0,0,-1,1196,932,0,0
-21,92,0,0,0,0,0,0,0,0,0,-1,1203,932,0,0
-14,92,0,0,0,0,0,0,0,0,0,-1,1210,932,0,0
-7,92,0,0,0,0,0,0,0,0,0,-1,1217,932,0,0
0,92,0,0,0,0,0,0,0,0,0,-1,1224,932,0,0
7,92,0,0,0,0,0,0,0,0,0,-1,1231,932,0,0
14,92,0,0,0,0,0,0,0,0,0,-1,1238,932,0,0
21,92,0,0,0,0,0,0,0,0,0,-1,1245,932,0,0
28,92,0,0,0,0,0,0,0,0,0,-1,1252,932,0,0
35,92,0,0,0,0,0,0,0,0,0,-1,1259,932,0,0
42,92,0,0,0,0,0,0,0,0,0,-1,1266,932,0,0
49,92,0,0,0,0,0,0,0,0,0,-1,1273,932,0,0
56,92,0,0,0,0,0,0,0,0,0,-1,1280,932,0,0
63,92,0,0,0,0,0,0,0,0,0,-1,1287,932,0,0
70,92,0,0,0,0,0,0,0,0,0,-1,1294,932,0,0
77,92,0,0,0,0,0,0,0,0,0,-1,1301,932,0,0
84,92,0,0,0,0,0,0,0,0,0,-1,1308,932,0,0
91,92,0,0,0,0,0,0,0,0,0,-1,1315,932,0,0
98,92,0,0,0,0,0,0,0,0,0,-1,1322,932,0,0
105,92,0,0,0,0,0,0,0,0,0,-1,1329,932,0,0
112,92,0,0,0,0,0,0,0,0,0,-1,1336,932,0,0
119,92,0,0,0,0,0,0,0,0,0,-1,1343,932,0,0
126,92,0,0,0,0,0,0,0,0,0,-1,1350,932,0,0
133,92,0,0,0,0,0,0,0,0,0,-1,1357,932,0,0
140,92,0,0,0,0,0,0,0,0,0,-1,1364,932,0,0
147,92,0,0,0,0,0,0,0,0,0,-1,1371,932,0,0
154,92,0,0,0,0,0,0,0,0,0,-1,1378,932,0,0
161,92,0,0,0,0,0,0,0,0,0,-1,1385,932,0,0
168,92,0,0,0,0,0,0,0,0,0,-1,1392,932,0,0
175,92,0,0,0,0,0,0,0,0,0,-1,1399,932,0,0
182,92,0,0,0,0,0,0,0,0,0,-1,1406,932,0,0
189,92,0,0,0,0,0,0,0,0,0,-1,1413,932,0,0
196,92,0,0,0,0,0,0,0,0,0,-1,1420,932,0,0
203,92,0,0,0,0,0,0,0,0,0,-1,1427,932,0,0
210,92,0,0,0,0,0,0,0,0,0,-1,1434,932,0,0
217,92,0,0,0,0,0,0,0,0,0,-1,1441,932,0,0
224,92,0,0,0,0,0,0,0,0,0,-1,1448,932,0,0
231,92,0,0,0,0,0,0,0,0,0,-1,1455,932,0,0
238,92,0,0,0,0,0,0,0,0,0,-1,1462,932,0,0
245,92,0,0,0,0,0,0,0,0,0,-1,1469,932,0,0
252,92,0,0,0,0,0,0,0,0,0,-1,1476,932,0,0
259,92,0,0,0,0,0,0,0,0,0,-1,1483,932,0,0
266,92,0,0,0,0,0,0,0,0,0,-1,1490,932,0,0
273,92,0,0,0,0,0,0,0,0,0,-1,1497,932,0,0
280,92,0,0,0,0,0,0,0,0,0,-1,1504,932,0,0
287,92,0,0,0,0,0,0,0,0,0,-1,1511,932,0,0
294,92,0,0,0,0,0,0,0,0,0,-1,1518,932,0,0
301,92,0,0,0,0,0,0,0,0,0,-1,1525,932,0,0
308,92,0,0,0,0,0,0,0,0,0,-1,1532,932,0,0
315,92,0,0,0,0,0,0,0,0,0,-1,1539,932,0,0
322,92,0,0,0,0,0,0,0,0,0,-1,1546,932,0,0
329,92,0,0,0,0,0,0,0,0,0,-1,1553,932,0,0
336,92,0,0,0,0,0,0,0,0,0,-1,1560,932,0,0
343,92,0,0,0,0,0,0,0,0,0,-1,1567,932,0,0
350,92,0,0,0,0,0,0,0,0,0,-1,1574,932,0,0
357,92,0,0,0,0,0,0,0,0,0,-1,1581,932,0,0
364,92,0,0,0,0,0,0,0,0,0,-1,1588,932,0,0
371,92,0,0,0,0,0,0,0,0,0,-1,1595,932,0,0
378,92,0,0,0,0,0,0,0,0,0,-1,1602,932,0,0
385,92,0,0,0,0,0,0,0,0,0,-1,1609,932,0,0
392,92,0,0,0,0,0,0,0,0,0,-1,1616,932,0,0
399,92,0,0,0,0,0,0,0,0,0,-1,1623,932,0,0
406,92,0,0,0,0,0,0,0,0,0,-1,1630,932,0,0
413,92,0,0,0,0,0,0,0,0,0,-1,1637,932,0,0
420,92,0,0,0,0,0,0,0,0,0,-1,1644,932,0,0
427,92,0,0,0,0,0,0,0,0,0,-1,1651,932,0,0
434,92,0,0,0,0,0,0,0,0,0,-1,1658,932,0,0
441,92,0,0,0,0,0,0,0,0,0,-1,1665,932,0,0
448,92,0,0,0,0,0,0,0,0,0,-1,1672,932,0,0
455,92,0,0,0,0,0,0,0,0,0,-1,1679,932,0,0
462,92,0,0,0,0,0,0,0,0,0,-1,1686,932,0,0
469,92,0,0,0,0,0,0,0,0,0,-1,1693,932,0,0
476,92,0,0,0,0,0,0,0,0,0,-1,1700,932,0,0
483,92,0,0,0,0,0,0,0,0,0,-1,1707,932,0,0
490,92,0,0,0,0,0,0,0,0,0,-1,1714,932,0,0
497,92,0,0,0,0,0,0,0,0,0,-1,1721,932,0,0
504,92,0,0,0,0,0,0,0,0,0,-1,1728,932,0,0
511,92,0,0,0,0,0,0,0,0,0,-1,1735,932,0,0
518,92,0,0,0,0,0,0,0,0,0,-1,1742,932,0,0
525,92,0,0,0,0,0,0,0,0,0,-1,1749,932,0,0
532,92,0,0,0,0,0,0,0,0,0,-1,1756,932,0,0
539,92,0,0,0,0,0,0,0,0,0,-1,1763,932,0,0
546,92,0,0,0,0,0,0,0,0,0,-1,1770,932,0,0
553,92,0,0,0,0,0,0,0,0,0,-1,1777,932,0,0
560,92,0,0,0,0,0,0,0,0,0,-1,1784,932,0,0
567,92,0,0,0,0,0,0,0,0,0,-1,1791,932,0,0
574,92,0,0,0,0,0,0,0,0,0,-1,1798,932,0,0
581,92,0,0,0,0,0,0,0,0,0,-1,1805,932,0,0
588,92,0,0,0,0,0,0,0,0,0,-1,1812,932,0,0
595,92,0,0,0,0,0,0,0,0,0,-1,1819,932,0,0
602,92,0,0,0,0,0,0,0,0,0,-1,1826,932,0,0
609,92,0,0,0,0,0,0,0,0,0,-1,1833,932,0,0
616,92,0,0,0,0,0,0,0,0,0,-1,1840,932,0,0
623,92,0,0,0,0,0,0,0,0,0,-1,1847,932,0,0
630,92,0,0,0,0,0,0,0,0,0,-1,1854,932,0,0
637,92,75.4364,1.76874,0.00187044,-2.4098e-05,-0.000205217,0.00189241,-4.60724e-05,-0.106672,0.00127724,0.046132,1861,932,75.4364,-1.76872
644,92,75.5868,1.77869,0.00106627,0.000393919,-0.000248987,0.00114844,0.000311755,-0.318743,0.000685748,0.0382587,1868,932,75.5868,-1.7787
651,92,75.6478,1.93536,0.000565885,0.000746685,-8.04957e-05,0.00077733,0.000535241,-1.20704,0.000459306,0.0409712,1875,932,75.6478,-1.93539
658,92,75.4546,1.94568,0.000322854,0.00126337,0.000242704,0.00132231,0.000263917,1.33257,0.000808061,0.0463961,1882,932,75.4546,-1.94566
665,92,75.2793,2.18811,0.000238607,0.00183511,0.000660842,0.00207316,5.58328e-07,1.22505,0.00138192,0.0433795,1889,932,75.2793,-2.18812
672,92,75.5474,2.07318,-0.000230617,0.00186694,0.00114164,0.00236841,-0.000732092,1.15691,0.00187133,0.0414542,1896,932,75.5473,-2.07316
679,92,75.5148,1.9754,-0.000729981,0.00138524,0.00141583,0.00209486,-0.0014396,1.10618,0.00205228,0.0389397,1903,932,75.5148,-1.97538
686,92,75.3481,2.0351,-0.00109702,0.000912993,0.00123579,0.00150085,-0.00168488,1.12678,0.00184031,0.0326965,1910,932,75.3481,-2.03512
693,92,75.4391,2.26294,-0.00164809,0.000697272,0.000837398,0.000965568,-0.00191639,1.26074,0.00169381,0.0358674,1917,932,75.439,-2.26294
700,92,75.3694,2.34955,0,0,0,0,0,0,0,-1,1924,932,75.3694,-2.34956
707,92,32.9893,3.26874,0,0,0,0,0,0,0,-1,1931,932,32.9893,-3.26874
714,92,71.0792,4.04175,0,0,0,0,0,0,0,-1,1938,932,71.0792,-4.04176
721,92,70.8561,4.81049,-0.00368833,0.00172246,-0.000918759,0.00187421,-0.00384008,-1.40711,0.0033636,0.036317,1945,932,70.8561,-4.81047
728,92,70.6011,5.49976,-0.00436149,0.00228987,-0.00130739,0.00253762,-0.00460924,-1.38352,0.00418363,0.0301055,1952,932,70.6011,-5.49974
735,92,70.5471,6.16742,-0.00364766,0.00350434,-0.00180089,0.00393221,-0.00407553,-1.33753,0.00462352,0.0232659,1959,932,70.5471,-6.16745
742,92,70.5704,6.78009,-0.002234,0.00617148,-0.00251377,0.00686588,-0.00292841,-1.30128,0.00580506,0.021823,1966,932,70.5704,-6.78008
749,92,70.4645,7.42596,0.000468386,0.0100643,-0.00270152,0.0107726,-0.000239886,-1.31439,0.00726303,0.02053,1973,932,70.4644,-7.42598
756,92,70.343,8.03021,0.00554135,0.0157046,-0.00217185,0.0161492,0.00509668,-1.36885,0.00953279,0.0165405,1980,932,70.343,-8.03022
763,92,70.3445,8.66327,0.0128543,0.0225263,-0.000882686,0.0226062,0.0127744,-1.48053,0.0130885,0.0181221,1987,932,70.3445,-8.6633
770,92,70.4006,9.22473,0.0218076,0.0298701,0.00095267,0.0299811,0.0216965,1.45476,0.0178776,0.0278542,1994,932,70.4008,-9.22472
777,92,71.0432,9.41895,0,0,0,0,0,0,0,-1,2001,932,71.0431,-9.41895
784,92,71.7515,9.82281,0.0471324,0.0469147,0.00761103,0.0546353,0.0394117,0.778246,0.0325579,0.0454957,2008,932,71.7515,-9.82282
791,92,72.3196,10.3608,0.0648055,0.0566983,0.0121615,0.0735712,0.0479326,0.624531,0.0431215,0.0453849,2015,932,72.3196,-10.3608
798,92,72.5515,11.3228,0.0846012,0.0672048,0.0175552,0.095495,0.056311,0.555386,0.0554288,0.0478192,2022,932,72.5515,-11.3228
805,92,0,0,0,0,0,0,0,0,0,-1,2029,932,0,0
812,92,0,0,0,0,0,0,0,0,0,-1,2036,932,0,0
-700,85,0,0,0,0,0,0,0,0,0,-1,524,939,0,0
-693,85,0,0,0,0,0,0,0,0,0,-1,531,939,0,0
-686,85,-57.6277,5.02277,0.118643,-0.00726154,0.114236,0.186124,-0.0747422,0.533564,0.15512,0.0444905,538,939,-57.6277,-5.02274
-679,85,-57.0789,5.38409,0.0994051,-0.00419904,0.0993104,0.159612,-0.0644059,0.545002,0.133173,0.0463177,545,939,-57.0788,-5.38407
-672,85,-56.3697,5.9696,0.0806711,-0.000586168,0.0849582,0.134216,-0.0541307,0.562362,0.11197,0.0435757,552,939,-56.3697,-5.96959
-665,85,-55.8256,6.53369,0.0634565,0.0028058,0.0714867,0.110784,-0.0445217,0.584797,0.0923462,0.0408183,559,939,-55.8256,-6.53369
-658,85,-55.4081,7.12415,0.0478451,0.00574904,0.0588835,0.0893293,-0.0357352,0.613749,0.0743832,0.0425118,566,939,-55.4081,-7.12414
-651,85,-55.269,7.74817,0.0339743,0.00811104,0.0472,0.0699821,-0.0278967,0.651692,0.0582256,0.0417962,573,939,-55.269,-7.74819
-644,85,-56.5062,8.28345,0,0,0,0,0,0,0,-1,580,939,-56.5062,-8.28346
-637,85,-55.7278,7.94006,0.0126676,0.0103116,0.0274571,0.0389719,-0.0159927,0.763959,0.0326452,0.0251486,587,939,-55.7278,-7.94005
-630,85,-55.829,7.33154,0.00415436,0.0102516,0.0189517,0.0263984,-0.0119924,0.865146,0.0226791,0.0154567,594,939,-55.829,-7.33152
-623,85,-55.9431,6.7276,-0.00174851,0.00908413,0.0122279,0.0170416,-0.009706,0.993885,0.0156351,0.010725,601,939,-55.9431,-6.72763
-616,85,-55.9854,6.12714,-0.0037908,0.00607184,0.00832057,0.0108126,-0.0085316,1.0529,0.0111942,0.0109416,608,939,-55.9854,-6.12711
-609,85,-56.0557,5.5105,-0.00464924,0.00296524,0.00611002,0.00635713,-0.00804113,1.06402,0.00833177,0.0134041,615,939,-56.0557,-5.5105
-602,85,-56.0582,4.89026,-0.00485051,0.000829774,0.00470937,0.00348914,-0.00750988,1.05674,0.00649018,0.0168462,622,939,-56.0582,-4.89024
-595,85,-55.924,4.24548,-0.00455234,-0.000497434,0.00366784,0.00166601,-0.00671579,1.03788,0.00512362,0.0206771,629,939,-55.924,-4.2455
-588,85,-55.8477,3.57202,-0.00433672,-0.00150422,0.00290066,0.000307467,-0.00614842,1.0125,0.00420518,0.0278676,636,939,-55.8477,-3.57202
-581,85,-56.5365,2.95856,-0.00412489,-0.0023271,0.00225772,-0.00079591,-0.00565608,0.974849,0.00353541,0.0443132,643,939,-56.5365,-2.95857
-574,85,-57.1787,1.97198,0,0,0,0,0,0,0,-1,650,939,-57.1787,-1.97196
-567,85,-59.2852,0.0960083,0,0,0,0,0,0,0,-1,657,939,-59.2852,-0.0960106
-560,85,-59.2506,0.172607,-0.00420064,-0.00299428,0.000899571,-0.00251439,-0.00468054,1.08073,0.0027048,0.0346526,664,939,-59.2506,-0.172628
-553,85,-59.2308,0.199158,-0.00439154,-0.00259669,0.000482854,-0.00247504,-0.00451319,1.32399,0.00260976,0.0392654,671,939,-59.2309,-0.199156
-546,85,-59.2869,0.186218,-0.00448601,-0.00189148,0.00016216,-0.00188139,-0.00449611,1.50862,0.00260731,0.0389103,678,939,-59.2869,-0.186195
-539,85,-59.3288,0.184326,-0.0043439,-0.0011078,1.136e-05,-0.00110776,-0.00434394,1.56729,0.00260639,0.0375357,685,939,-59.3288,-0.184353
-532,85,-59.3163,0.203125,-0.00410747,-0.000758031,0.0001472,-0.000751574,-0.00411393,1.52696,0.00252959,0.0391009,692,939,-59.3163,-0.203139
-525,85,-59.3694,0.212646,-0.00573068,-0.00115347,0.000512973,-0.00109669,-0.00578747,1.46055,0.00354968,0.0377331,699,939,-59.3695,-0.212634
-518,85,-59.4431,0.403198,-0.00674428,-0.00121364,0.000928109,-0.00106205,-0.00689587,1.40889,0.00428731,0.0376518,706,939,-59.4431,-0.403199
-511,85,0,0,0,0,0,0,0,0,0,-1,713,939,0,0
-504,85,0,0,0,0,0,0,0,0,0,-1,720,939,0,0
-497,85,0,0,0,0,0,0,0,0,0,-1,727,939,0,0
-490,85,0,0,0,0,0,0,0,0,0,-1,734,939,0,0
-483,85,0,0,0,0,0,0,0,0,0,-1,741,939,0,0
-476,85,0,0,0,0,0,0,0,0,0,-1,748,939,0,0
-469,85,0,0,0,0,0,0,0,0,0,-1,755,939,0,0
-462,85,0,0,0,0,0,0,0,0,0,-1,762,939,0,0
-455,85,0,0,0,0,0,0,0,0,0,-1,769,939,0,0
-448,85,0,0,0,0,0,0,0,0,0,-1,776,939,0,0
-441,85,0,0,0,0,0,0,0,0,0,-1,783,939,0,0
-434,85,0,0,0,0,0,0,0,0,0,-1,790,939,0,0
-427,85,0,0,0,0,0,0,0,0,0,-1,797,939,0,0
-420,85,0,0,0,0,0,0,0,0,0,-1,804,939,0,0
-413,85,0,0,0,0,0,0,0,0,0,-1,811,939,0,0
-406,85,0,0,0,0,0,0,0,0,0,-1,818,939,0,0
-399,85,0,0,0,0,0,0,0,0,0,-1,825,939,0,0
-392,85,0,0,0,0,0,0,0,0,0,-1,832,939,0,0
-385,85,0,0,0,0,0,0,0,0,0,-1,839,939,0,0
-378,85,0,0,0,0,0,0,0,0,0,-1,846,939,0,0
-371,85,0,0,0,0,0,0,0,0,0,-1,853,939,0,0
-364,85,0,0,0,0,0,0,0,0,0,-1,860,939,0,0
-357,85,0,0,0,0,0,0,0,0,0,-1,867,939,0,0
-350,85,0,0,0,0,0,0,0,0,0,-1,874,939,0,0
-343,85,0,0,0,0,0,0,0,0,0,-1,881,939,0,0
-336,85,0,0,0,0,0,0,0,0,0,-1,888,939,0,0
-329,85,0,0,0,0,0,0,0,0,0,-1,895,939,0,0
-322,85,0,0,0,0,0,0,0,0,0,-1,902,939,0,0
-315,85,0,0,0,0,0,0,0,0,0,-1,909,939,0,0
-308,85,0,0,0,0,0,0,0,0,0,-1,916,939,0,0
-301,85,0,0,0,0,0,0,0,0,0,-1,923,939,0,0
-294,85,0,0,0,0,0,0,0,0,0,-1,930,939,0,0
-287,85,0,0,0,0,0,0,0,0,0,-1,937,939,0,0
-280,85,0,0,0,0,0,0,0,0,0,-1,944,939,0,0
-273,85,0,0,0,0,0,0,0,0,0,-1,951,939,0,0
-266,85,0,0,0,0,0,0,0,0,0,-1,958,939,0,0
-259,85,0,0,0,0,0,0,0,0,0,-1,965,939,0,0
-252,85,0,0,0,0,0,0,0,0,0,-1,972,939,0,0
-245,85,0,0,0,0,0,0,0,0,0,-1,979,939,0,0
-238,85,0,0,0,0,0,0,0,0,0,-1,986,939,0,0
-231,85,0,0,0,0,0,0,0,0,0,-1,993,939,0,0
-224,85,0,0,0,0,0,0,0,0,0,-1,1000,939,0,0
-217,85,0,0,0,0,0,0,0,0,0,-1,1007,939,0,0
-210,85,0,0,0,0,0,0,0,0,0,-1,1014,939,0,0
-203,85,0,0,0,0,0,0,0,0,0,-1,1021,939,0,0
-196,85,0,0,0,0,0,0,0,0,0,-1,1028,939,0,0
-189,85,0,0,0,0,0,0,0,0,0,-1,1035,939,0,0
-182,85,0,0,0,0,0,0,0,0,0,-1,1042,939,0,0
-175,85,0,0,0,0,0,0,0,0,0,-1,1049,939,0,0
-168,85,0,0,0,0,0,0,0,0,0,-1,1056,939,0,0
-161,85,0,0,0,0,0,0,0,0,0,-1,1063,939,0,0
-154,85,0,0,0,0,0,0,0,0,0,-1,1070,939,0,0
-147,85,0,0,0,0,0,0,0,0,0,-1,1077,939,0,0
-140,85,0,0,0,0,0,0,0,0,0,-1,1084,939,0,0
-133,85,0,0,0,0,0,0,0,0,0,-1,1091,939,0,0
-126,85,0,0,0,0,0,0,0,0,0,-1,1098,939,0,0
-119,85,0,0,0,0,0,0,0,0,0,-1,1105,939,0,0
-112,85,0,0,0,0,0,0,0,0,0,-1,1112,939,0,0
-105,85,0,0,0,0,0,0,0,0,0,-1,1119,939,0,0
-98,85,0,0,0,0,0,0,0,0,0,-1,1126,939,0,0
-91,85,0,0,0,0,0,0,0,0,0,-1,1133,939,0,0
-84,85,0,0,0,0,0,0,0,0,0,-1,1140,939,0,0
-77,85,0,0,0,0,0,0,0,0,0,-1,1147,939,0,0
-70,85,0,0,0,0,0,0,0,0,0,-1,1154,939,0,0
-63,85,0,0,0,0,0,0,0,0,0,-1,1161,939,0,0
-56,85,0,0,0,0,0,0,0,0,0,-1,1168,939,0,0
-49,85,0,0,0,0,0,0,0,0,0,-1,1175,939,0,0
-42,85,0,0,0,0,0,0,0,0,0,-1,1182,939,0,0
-35,85,0,0,0,0,0,0,0,0,0,-1,1189,939,0,0
-28,85,0,0,0,0,0,0,0,0,0,-1,1196,939,0,0
-21,85,0,0,0,0,0,0,0,0,0,-1,1203,939,0,0
-14,85,0,0,0,0,0,0,0,0,0,-1,1210,939,0,0
-7,85,0,0,0,0,0,0,0,0,0,-1,1217,939,0,0
0,85,0,0,0,0,0,0,0,0,0,-1,1224,939,0,0
7,85,0,0,0,0,0,0,0,0,0,-1,1231,939,0,0
14,85,0,0,0,0,0,0,0,0,0,-1,1238,939,0,0
21,85,0,0,0,0,0,0,0,0,0,-1,1245,939,0,0
28,85,0,0,0,0,0,0,0,0,0,-1,1252,939,0,0
35,85,0,0,0,0,0,0,0,0,0,-1,1259,939,0,0
42,85,0,0,0,0,0,0,0,0,0,-1,1266,939,0,0
49,85,0,0,0,0,0,0,0,0,0,-1,1273,939,0,0
56,85,0,0,0,0,0,0,0,0,0,-1,1280,939,0,0
63,85,0,0,0,0,0,0,0,0,0,-1,1287,939,0,0
70,85,0,0,0,0,0,0,0,0,0,-1,1294,939,0,0
77,85,0,0,0,0,0,0,0,0,0,-1,1301,939,0,0
84,85,0,0,0,0,0,0,0,0,0,-1,1308,939,0,0
91,85,0,0,0,0,0,0,0,0,0,-1,1315,939,0,0
98,85,0,0,0,0,0,0,0,0,0,-1,1322,939,0,0
105,85,0,0,0,0,0,0,0,0,0,-1,1329,939,0,0
112,85,0,0,0,0,0,0,0,0,0,-1,1336,939,0,0
119,85,0,0,0,0,0,0,0,0,0,-1,1343,939,0,0
126,85,0,0,0,0,0,0,0,0,0,-1,1350,939,0,0
133,85,0,0,0,0,0,0,0,0,0,-1,1357,939,0,0
140,85,0,0,0,0,0,0,0,0,0,-1,1364,939,0,0
147,85,0,0,0,0,0,0,0,0,0,-1,1371,939,0,0
154,85,0,0,0,0,0,0,0,0,0,-1,1378,939,0,0
161,85,0,0,0,0,0,0,0,0,0,-1,1385,939,0,0
168,85,0,0,0,0,0,0,0,0,0,-1,1392,939,0,0
175,85,0,0,0,0,0,0,0,0,0,-1,1399,939,0,0
182,85,0,0,0,0,0,0,0,0,0,-1,1406,939,0,0
189,85,0,0,0,0,0,0,0,0,0,-1,1413,939,0,0
196,85,0,0,0,0,0,0,0,0,0,-1,1420,939,0,0
203,85,0,0,0,0,0,0,0,0,0,-1,1427,939,0,0
210,85,0,0,0,0,0,0,0,0,0,-1,1434,939,0,0
217,85,0,0,0,0,0,0,0,0,0,-1,1441,939,0,0
224,85,0,0,0,0,0,0,0,0,0,-1,1448,939,0,0
231,85,0,0,0,0,0,0,0,0,0,-1,1455,939,0,0
238,85,0,0,0,0,0,0,0,0,0,-1,1462,939,0,0
245,85,0,0,0,0,0,0,0,0,0,-1,1469,939,0,0
252,85,0,0,0,0,0,0,0,0,0,-1,1476,939,0,0
259,85,0,0,0,0,0,0,0,0,0,-1,1483,939,0,0
266,85,0,0,0,0,0,0,0,0,0,-1,1490,939,0,0
273,85,0,0,0,0,0,0,0,0,0,-1,1497,939,0,0
280,85,0,0,0,0,0,0,0,0,0,-1,1504,939,0,0
287,85,0,0,0,0,0,0,0,0,0,-1,1511,939,0,0
294,85,0,0,0,0,0,0,0,0,0,-1,1518,939,0,0
301,85,0,0,0,0,0,0,0,0,0,-1,1525,939,0,0
308,85,0,0,0,0,0,0,0,0,0,-1,1532,939,0,0
315,85,0,0,0,0,0,0,0,0,0,-1,1539,939,0,0
322,85,0,0,0,0,0,0,0,0,0,-1,1546,939,0,0
329,85,0,0,0,0,0,0,0,0,0,-1,1553,939,0,0
336,85,0,0,0,0,0,0,0,0,0,-1,1560,939,0,0
343,85,0,0,0,0,0,0,0,0,0,-1,1567,939,0,0
350,85,0,0,0,0,0,0,0,0,0,-1,1574,939,0,0
357,85,0,0,0,0,0,0,0,0,0,-1,1581,939,0,0
364,85,0,0,0,0,0,0,0,0,0,-1,1588,939,0,0
371,85,0,0,0,0,0,0,0,0,0,-1,1595,939,0,0
378,85,0,0,0,0,0,0,0,0,0,-1,1602,939,0,0
385,85,0,0,0,0,0,0,0,0,0,-1,1609,939,0,0
392,85,0,0,0,0,0,0,0,0,0,-1,1616,939,0,0
399,85,0,0,0,0,0,0,0,0,0,-1,1623,939,0,0
406,85,0,0,0,0,0,0,0,0,0,-1,1630,939,0,0
413,85,0,0,0,0,0,0,0,0,0,-1,1637,939,0,0
420,85,0,0,0,0,0,0,0,0,0,-1,1644,939,0,0
427,85,0,0,0,0,0,0,0,0,0,-1,1651,939,0,0
434,85,0,0,0,0,0,0,0,0,0,-1,1658,939,0,0
441,85,0,0,0,0,0,0,0,0,0,-1,1665,939,0,0
448,85,0,0,0,0,0,0,0,0,0,-1,1672,939,0,0
455,85,0,0,0,0,0,0,0,0,0,-1,1679,939,0,0
462,85,0,0,0,0,0,0,0,0,0,-1,1686,939,0,0
469,85,0,0,0,0,0,0,0,0,0,-1,1693,939,0,0
476,85,0,0,0,0,0,0,0,0,0,-1,1700,939,0,0
483,85,0,0,0,0,0,0,0,0,0,-1,1707,939,0,0
490,85,0,0,0,0,0,0,0,0,0,-1,1714,939,0,0
497,85,0,0,0,0,0,0,0,0,0,-1,1721,939,0,0
504,85,0,0,0,0,0,0,0,0,0,-1,1728,939,0,0
511,85,0,0,0,0,0,0,0,0,0,-1,1735,939,0,0
518,85,0,0,0,0,0,0,0,0,0,-1,1742,939,0,0
525,85,0,0,0,0,0,0,0,0,0,-1,1749,939,0,0
532,85,0,0,0,0,0,0,0,0,0,-1,1756,939,0,0
539,85,0,0,0,0,0,0,0,0,0,-1,1763,939,0,0
546,85,0,0,0,0,0,0,0,0,0,-1,1770,939,0,0
553,85,0,0,0,0,0,0,0,0,0,-1,1777,939,0,0
560,85,0,0,0,0,0,0,0,0,0,-1,1784,939,0,0
567,85,0,0,0,0,0,0,0,0,0,-1,1791,939,0,0
574,85,0,0,0,0,0,0,0,0,0,-1,1798,939,0,0
581,85,0,0,0,0,0,0,0,0,0,-1,1805,939,0,0
588,85,0,0,0,0,0,0,0,0,0,-1,1812,939,0,0
595,85,0,0,0,0,0,0,0,0,0,-1,1819,939,0,0
602,85,0,0,0,0,0,0,0,0,0,-1,1826,939,0,0
609,85,0,0,0,0,0,0,0,0,0,-1,1833,939,0,0
616,85,0,0,0,0,0,0,0,0,0,-1,1840,939,0,0
623,85,0,0,0,0,0,0,0,0,0,-1,1847,939,0,0
630,85,0,0,0,0,0,0,0,0,0,-1,1854,939,0,0
637,85,75.3638,2.07831,0.00268183,-0.00104803,-0.000461697,0.00273813,-0.00110433,-0.121344,0.00228432,0.0493791,1861,939,75.3638,-2.07832
644,85,75.5,1.78796,0.00159287,-0.0005405,-0.000487869,0.00169914,-0.000646774,-0.214483,0.0013991,0.0426482,1868,939,75.5,-1.78797
651,85,75.743,1.33569,0,0,0,0,0,0,0,-1,1875,939,75.743,-1.33568
658,85,75.3279,1.992,0.00061866,0.00041505,0.000143164,0.000692526,0.000341185,0.476327,0.000399844,0.0457518,1882,939,75.3278,-1.99201
665,85,75.2748,2.20691,0.000516936,0.00102585,0.0006272,0.00144824,9.45404e-05,0.978104,0.000935576,0.0430027,1889,939,75.2747,-2.20691
672,85,75.3988,2.19269,2.47151e-05,0.00115979,0.00120013,0.00191981,-0.000735305,1.00626,0.00158297,0.0424189,1896,939,75.3988,-2.19267
679,85,75.4958,1.96869,-0.000501225,0.000760434,0.00158383,0.00183444,-0.00157523,0.974916,0.00197047,0.0413311,1903,939,75.4959,-1.96869
686,85,75.2854,2.08276,-0.000858127,0.00033388,0.00148524,0.00133824,-0.00186249,0.976204,0.00185619,0.0363919,1910,939,75.2854,-2.08275
693,85,75.3458,2.24365,-0.00143916,0.000147643,0.00116504,0.000763781,-0.0020553,1.08433,0.00168357,0.0369318,1917,939,75.3458,-2.24365
700,85,75.3661,2.42267,-0.00211471,0.000141243,0.000768237,0.000378007,-0.00235148,1.27184,0.00170766,0.0482112,1924,939,75.3661,-2.42269
707,85,75.3995,2.50568,0,0,0,0,0,0,0,-1,1931,939,75.3995,-2.50569
714,85,71.9597,4.12665,0,0,0,0,0,0,0,-1,1938,939,71.9597,-4.12663
721,85,71.5935,4.90106,-0.00382793,0.00148321,-0.000603123,0.00155084,-0.00389556,-1.45913,0.00324016,0.0359626,1945,939,71.5935,-4.90105
728,85,71.2664,5.74176,-0.00448087,0.00225609,-0.000997118,0.00240058,-0.00462535,-1.4269,0.00412365,0.0391536,1952,939,71.2664,-5.74177
735,85,71.2512,6.25677,-0.00371495,0.00368541,-0.00145658,0.00396178,-0.00399132,-1.38329,0.00459173,0.0367818,1959,939,71.2512,-6.25675
742,85,71.3248,6.83392,-0.00250169,0.00641718,-0.00211829,0.00689472,-0.00297923,-1.34907,0.00584822,0.0237461,1966,939,71.3248,-6.83393
749,85,71.2018,7.44812,-0.000303517,0.0102587,-0.00234655,0.0107565,-0.000801372,-1.36173,0.00745252,0.0163577,1973,939,71.2017,-7.4481
756,85,71.0364,8.01337,0.00403919,0.015843,-0.00188789,0.0161376,0.0037446,-1.416,0.00975287,0.0146214,1980,939,71.0363,-8.01337
763,85,70.9915,8.56653,0.0106933,0.0227577,-0.00062031,0.0227895,0.0106615,-1.51956,0.0131666,0.0146154,1987,939,70.9914,-8.56654
770,85,70.9023,9.09668,0.0189404,0.0301643,0.00119692,0.0302905,0.0188142,1.46573,0.0176585,0.0208829,1994,939,70.9023,-9.09669
777,85,70.8032,9.84839,0.0290484,0.0382499,0.00394181,0.0397076,0.0275907,1.21659,0.0234982,0.0449345,2001,939,70.8033,-9.84836
784,85,72.3113,9.06415,0.0421715,0.0469957,0.00775059,0.0527008,0.0364663,0.936255,0.0311652,0.0473606,2008,939,72.3112,-9.06417
791,85,72.938,9.63995,0,0,0,0,0,0,0,-1,2015,939,72.9379,-9.63997
798,85,72.8538,11.0841,0,0,0,0,0,0,0,-1,2022,939,72.8539,-11.0841
805,85,67.4045,8.44751,0,0,0,0,0,0,0,-1,2029,939,67.4046,-8.4475
812,85,0,0,0,0,0,0,0,0,0,-1,2036,939,0,0
-700,78,0,0,0,0,0,0,0,0,0,-1,524,946,0,0
-693,78,0,0,0,0,0,0,0,0,0,-1,531,946,0,0
-686,78,-58.6884,5.07733,0.115001,9.64454e-05,0.114285,0.185462,-0.0703651,0.552493,0.152603,0.0435885,538,946,-58.6884,-5.07733
-679,78,-58.035,5.41931,0.0959854,0.0012227,0.0986596,0.158051,-0.0608433,0.561536,0.130467,0.0479129,545,946,-58.035,-5.41931
-672,78,-56.5537,5.96765,0,0,0,0,0,0,0,-1,552,946,-56.5537,-5.96766
-665,78,-56.1352,6.51892,0,0,0,0,0,0,0,-1,559,946,-56.1352,-6.5189
-658,78,-55.8481,8.34375,0,0,0,0,0,0,0,-1,566,946,-55.8481,-8.34375
-651,78,-55.9536,8.24152,0.0310714,0.0106326,0.0454151,0.0674027,-0.0256987,0.67473,0.0555206,0.0466291,573,946,-55.9536,-8.24151
-644,78,-56.0255,8.18512,0,0,0,0,0,0,0,-1,580,946,-56.0254,-8.1851
-637,78,-56.369,7.71234,0.0108737,0.011867,0.0261255,0.0375006,-0.0147599,0.794903,0.0311102,0.0228872,587,946,-56.369,-7.71232
-630,78,-56.5554,7.20795,0.00290178,0.0112843,0.0179104,0.0254873,-0.0113013,0.900335,0.0217599,0.0191377,594,946,-56.5554,-7.20792
-623,78,-56.6082,6.65259,-0.00245856,0.00965471,0.0115682,0.0166559,-0.00945971,1.02656,0.0152674,0.0139367,601,946,-56.6082,-6.65256
-616,78,-56.6508,6.07092,-0.0040717,0.00632703,0.00801474,0.0106812,-0.00842585,1.07314,0.011057,0.0131963,608,946,-56.6508,-6.0709
-609,78,-56.6765,5.53522,-0.0046929,0.00313418,0.00599736,0.00638194,-0.00794066,1.07448,0.00828546,0.0127634,615,946,-56.6764,-5.53519
-602,78,-56.694,4.9552,-0.00483357,0.000949109,0.00468101,0.00355974,-0.00744421,1.06206,0.00648374,0.0177737,622,946,-56.694,-4.95517
-595,78,-56.5858,4.31067,-0.00450448,-0.000489991,0.00367496,0.00169017,-0.00668464,1.03536,0.00511379,0.018265,629,946,-56.5858,-4.31068
-588,78,-56.5735,3.73114,-0.0042578,-0.00169646,0.0029328,0.000223092,-0.00617735,0.991256,0.00419458,0.0155748,636,946,-56.5735,-3.73111
-581,78,-56.4705,2.96918,0,0,0,0,0,0,0,-1,643,946,-56.4704,-2.96918
-574,78,-59.2811,0.0726929,0,0,0,0,0,0,0,-1,650,946,-59.2811,-0.072711
-567,78,-59.2733,0.175354,-0.00393832,-0.00343744,0.001322,-0.00234237,-0.0050334,0.879009,0.00290836,0.03485,657,946,-59.2732,-0.175381
-560,78,-59.2611,0.25531,-0.00406942,-0.003341,0.000847841,-0.00278245,-0.00462797,0.988269,0.00269015,0.0316592,664,946,-59.2611,-0.255307
-553,78,-59.2423,0.211182,-0.00416783,-0.00287129,0.000413652,-0.00275056,-0.00428856,1.28682,0.00250878,0.0405918,671,946,-59.2423,-0.211172
-546,78,-59.3374,0.22821,-0.00410749,-0.00212762,5.11597e-05,-0.0021263,-0.00410881,1.54498,0.00237271,0.0429825,678,946,-59.3374,-0.228193
-539,78,-59.2411,0.266418,-0.00383132,-0.00139915,-0.000175703,-0.00138653,-0.00384395,-1.49905,0.00224783,0.0398011,685,946,-59.2411,-0.26643
-532,78,-59.2227,0.141968,-0.00361762,-0.00126147,-0.000229833,-0.00123926,-0.00363983,-1.47446,0.00213681,0.0393001,692,946,-59.2227,-0.141964
-525,78,-59.3226,0.192505,-0.00523449,-0.00184606,-0.000106932,-0.00184269,-0.00523786,-1.53928,0.00306804,0.039509,699,946,-59.3226,-0.192488
-518,78,-59.2895,0.39209,-0.00605694,-0.00202195,3.27574e-05,-0.00202169,-0.00605721,1.56268,0.00356097,0.0415845,706,946,-59.2895,-0.392082
-511,78,0,0,0,0,0,0,0,0,0,-1,713,946,0,0
-504,78,0,0,0,0,0,0,0,0,0,-1,720,946,0,0
-497,78,0,0,0,0,0,0,0,0,0,-1,727,946,0,0
-490,78,0,0,0,0,0,0,0,0,0,-1,734,946,0,0
-483,78,0,0,0,0,0,0,0,0,0,-1,741,946,0,0
-476,78,0,0,0,0,0,0,0,0,0,-1,748,946,0,0
-469,78,0,0,0,0,0,0,0,0,0,-1,755,946,0,0
-462,78,0,0,0,0,0,0,0,0,0,-1,762,946,0,0
-455,78,0,0,0,0,0,0,0,0,0,-1,769,946,0,0
-448,78,0,0,0,0,0,0,0,0,0,-1,776,946,0,0
-441,78,0,0,0,0,0,0,0,0,0,-1,783,946,0,0
-434,78,0,0,0,0,0,0,0,0,0,-1,790,946,0,0
-427,78,0,0,0,0,0,0,0,0,0,-1,797,946,0,0
-420,78,0,0,0,0,0,0,0,0,0,-1,804,946,0,0
-413,78,0,0,0,0,0,0,0,0,0,-1,811,946,0,0
-406,78,0,0,0,0,0,0,0,0,0,-1,818,946,0,0
-399,78,0,0,0,0,0,0,0,0,0,-1,825,946,0,0
-392,78,0,0,0,0,0,0,0,0,0,-1,832,946,0,0
-385,78,0,0,0,0,0,0,0,0,0,-1,839,946,0,0
-378,78,0,0,0,0,0,0,0,0,0,-1,846,946,0,0
-371,78,0,0,0,0,0,0,0,0,0,-1,853,946,0,0
-364,78,0,0,0,0,0,0,0,0,0,-1,860,946,0,0
-357,78,0,0,0,0,0,0,0,0,0,-1,867,946,0,0
-350,78,0,0,0,0,0,0,0,0,0,-1,874,946,0,0
-343,78,0,0,0,0,0,0,0,0,0,-1,881,946,0,0
-336,78,0,0,0,0,0,0,0,0,0,-1,888,946,0,0
-329,78,0,0,0,0,0,0,0,0,0,-1,895,946,0,0
-322,78,0,0,0,0,0,0,0,0,0,-1,902,946,0,0
-315,78,0,0,0,0,0,0,0,0,0,-1,909,946,0,0
-308,78,0,0,0,0,0,0,0,0,0,-1,916,946,0,0
-301,78,0,0,0,0,0,0,0,0,0,-1,923,946,0,0
-294,78,0,0,0,0,0,0,0,0,0,-1,930,946,0,0
-287,78,0,0,0,0,0,0,0,0,0,-1,937,946,0,0
-280,78,0,0,0,0,0,0,0,0,0,-1,944,946,0,0
-273,78,0,0,0,0,0,0,0,0,0,-1,951,946,0,0
-266,78,0,0,0,0,0,0,0,0,0,-1,958,946,0,0
-259,78,0,0,0,0,0,0,0,0,0,-1,965,946,0,0
-252,78,0,0,0,0,0,0,0,0,0,-1,972,946,0,0
-245,78,0,0,0,0,0,0,0,0,0,-1,979,946,0,0
-238,78,0,0,0,0,0,0,0,0,0,-1,986,946,0,0
-231,78,0,0,0,0,0,0,0,0,0,-1,993,946,0,0
-224,78,0,0,0,0,0,0,0,0,0,-1,1000,946,0,0
-217,78,0,0,0,0,0,0,0,0,0,-1,1007,946,0,0
-210,78,0,0,0,0,0,0,0,0,0,-1,1014,946,0,0
-203,78,0,0,0,0,0,0,0,0,0,-1,1021,946,0,0
-196,78,0,0,0,0,0,0,0,0,0,-1,1028,946,0,0
-189,78,0,0,0,0,0,0,0,0,0,-1,1035,946,0,0
-182,78,0,0,0,0,0,0,0,0,0,-1,1042,946,0,0
-175,78,0,0,0,0,0,0,0,0,0,-1,1049,946,0,0
-168,78,0,0,0,0,0,0,0,0,0,-1,1056,946,0,0
-161,78,0,0,0,0,0,0,0,0,0,-1,1063,946,0,0
-154,78,0,0,0,0,0,0,0,0,0,-1,1070,946,0,0
-147,78,0,0,0,0,0,0,0,0,0,-1,1077,946,0,0
-140,78,0,0,0,0,0,0,0,0,0,-1,1084,946,0,0
-133,78,0,0,0,0,0,0,0,0,0,-1,1091,946,0,0
-126,78,0,0,0,0,0,0,0,0,0,-1,1098,946,0,0
-119,78,0,0,0,0,0,0,0,0,0,-1,1105,946,0,0
-112,78,0,0,0,0,0,0,0,0,0,-1,1112,946,0,0
-105,78,0,0,0,0,0,0,0,0,0,-1,1119,946,0,0
-98,78,0,0,0,0,0,0,0,0,0,-1,1126,946,0,0
-91,78,0,0,0,0,0,0,0,0,0,-1,1133,946,0,0
-84,78,0,0,0,0,0,0,0,0,0,-1,1140,946,0,0
-77,78,0,0,0,0,0,0,0,0,0,-1,1147,946,0,0
-70,78,0,0,0,0,0,0,0,0,0,-1,1154,946,0,0
-63,78,0,0,0,0,0,0,0,0,0,-1,1161,946,0,0
-56,78,0,0,0,0,0,0,0,0,0,-1,1168,946,0,0
-49,78,0,0,0,0,0,0,0,0,0,-1,1175,946,0,0
-42,78,0,0,0,0,0,0,0,0,0,-1,1182,946,0,0
-35,78,0,0,0,0,0,0,0,0,0,-1,1189,946,0,0
-28,78,0,0,0,0,0,0,0,0,0,-1,1196,946,0,0
-21,78,0,0,0,0,0,0,0,0,0,-1,1203,946,0,0
-14,78,0,0,0,0,0,0,0,0,0,-1,1210,946,0,0
-7,78,0,0,0,0,0,0,0,0,0,-1,1217,946,0,0
0,78,0,0,0,0,0,0,0,0,0,-1,1224,946,0,0
7,78,0,0,0,0,0,0,0,0,0,-1,1231,946,0,0
14,78,0,0,0,0,0,0,0,0,0,-1,1238,946,0,0
21,78,0,0,0,0,0,0,0,0,0,-1,1245,946,0,0
28,78,0,0,0,0,0,0,0,0,0,-1,1252,946,0,0
35,78,0,0,0,0,0,0,0,0,0,-1,1259,946,0,0
42,78,0,0,0,0,0,0,0,0,0,-1,1266,946,0,0
49,78,0,0,0,0,0,0,0,0,0,-1,1273,946,0,0
56,78,0,0,0,0,0,0,0,0,0,-1,1280,946,0,0
63,78,0,0,0,0,0,0,0,0,0,-1,1287,946,0,0
70,78,0,0,0,0,0,0,0,0,0,-1,1294,946,0,0
77,78,0,0,0,0,0,0,0,0,0,-1,1301,946,0,0
84,78,0,0,0,0,0,0,0,0,0,-1,1308,946,0,0
91,78,0,0,0,0,0,0,0,0,0,-1,1315,946,0,0
98,78,0,0,0,0,0,0,0,0,0,-1,1322,946,0,0
105,78,0,0,0,0,0,0,0,0,0,-1,1329,946,0,0
112,78,0,0,0,0,0,0,0,0,0,-1,1336,946,0,0
119,78,0,0,0,0,0,0,0,0,0,-1,1343,946,0,0
126,78,0,0,0,0,0,0,0,0,0,-1,1350,946,0,0
133,78,0,0,0,0,0,0,0,0,0,-1,1357,946,0,0
140,78,0,0,0,0,0,0,0,0,0,-1,1364,946,0,0
147,78,0,0,0,0,0,0,0,0,0,-1,1371,946,0,0
154,78,0,0,0,0,0,0,0,0,0,-1,1378,946,0,0
161,78,0,0,0,0,0,0,0,0,0,-1,1385,946,0,0
168,78,0,0,0,0,0,0,0,0,0,-1,1392,946,0,0
175,78,0,0,0,0,0,0,0,0,0,-1,1399,946,0,0
182,78,0,0,0,0,0,0,0,0,0,-1,1406,946,0,0
189,78,0,0,0,0,0,0,0,0,0,-1,1413,946,0,0
196,78,0,0,0,0,0,0,0,0,0,-1,1420,946,0,0
203,78,0,0,0,0,0,0,0,0,0,-1,1427,946,0,0
210,78,0,0,0,0,0,0,0,0,0,-1,1434,946,0,0
217,78,0,0,0,0,0,0,0,0,0,-1,1441,946,0,0
224,78,0,0,0,0,0,0,0,0,0,-1,1448,946,0,0
231,78,0,0,0,0,0,0,0,0,0,-1,1455,946,0,0
238,78,0,0,0,0,0,0,0,0,0,-1,1462,946,0,0
245,78,0,0,0,0,0,0,0,0,0,-1,1469,946,0,0
252,78,0,0,0,0,0,0,0,0,0,-1,1476,946,0,0
259,78,0,0,0,0,0,0,0,0,0,-1,1483,946,0,0
266,78,0,0,0,0,0,0,0,0,0,-1,1490,946,0,0
273,78,0,0,0,0,0,0,0,0,0,-1,1497,946,0,0
280,78,0,0,0,0,0,0,0,0,0,-1,1504,946,0,0
287,78,0,0,0,0,0,0,0,0,0,-1,1511,946,0,0
294,78,0,0,0,0,0,0,0,0,0,-1,1518,946,0,0
301,78,0,0,0,0,0,0,0,0,0,-1,1525,946,0,0
308,78,0,0,0,0,0,0,0,0,0,-1,1532,946,0,0
315,78,0,0,0,0,0,0,0,0,0,-1,1539,946,0,0
322,78,0,0,0,0,0,0,0,0,0,-1,1546,946,0,0
329,78,0,0,0,0,0,0,0,0,0,-1,1553,946,0,0
336,78,0,0,0,0,0,0,0,0,0,-1,1560,946,0,0
343,78,0,0,0,0,0,0,0,0,0,-1,1567,946,0,0
350,78,0,0,0,0,0,0,0,0,0,-1,1574,946,0,0
357,78,0,0,0,0,0,0,0,0,0,-1,1581,946,0,0
364,78,0,0,0,0,0,0,0,0,0,-1,1588,946,0,0
371,78,0,0,0,0,0,0,0,0,0,-1,1595,946,0,0
378,78,0,0,0,0,0,0,0,0,0,-1,1602,946,0,0
385,78,0,0,0,0,0,0,0,0,0,-1,1609,946,0,0
392,78,0,0,0,0,0,0,0,0,0,-1,1616,946,0,0
399,78,0,0,0,0,0,0,0,0,0,-1,1623,946,0,0
406,78,0,0,0,0,0,0,0,0,0,-1,1630,946,0,0
413,78,0,0,0,0,0,0,0,0,0,-1,1637,946,0,0
420,78,0,0,0,0,0,0,0,0,0,-1,1644,946,0,0
427,78,0,0,0,0,0,0,0,0,0,-1,1651,946,0,0
434,78,0,0,0,0,0,0,0,0,0,-1,1658,946,0,0
441,78,0,0,0,0,0,0,0,0,0,-1,1665,946,0,0
448,78,0,0,0,0,0,0,0,0,0,-1,1672,946,0,0
455,78,0,0,0,0,0,0,0,0,0,-1,1679,946,0,0
462,78,0,0,0,0,0,0,0,0,0,-1,1686,946,0,0
469,78,0,0,0,0,0,0,0,0,0,-1,1693,946,0,0
476,78,0,0,0,0,0,0,0,0,0,-1,1700,946,0,0
483,78,0,0,0,0,0,0,0,0,0,-1,1707,946,0,0
490,78,0,0,0,0,0,0,0,0,0,-1,1714,946,0,0
497,78,0,0,0,0,0,0,0,0,0,-1,1721,946,0,0
504,78,0,0,0,0,0,0,0,0,0,-1,1728,946,0,0
511,78,0,0,0,0,0,0,0,0,0,-1,1735,946,0,0
518,78,0,0,0,0,0,0,0,0,0,-1,1742,946,0,0
525,78,0,0,0,0,0,0,0,0,0,-1,1749,946,0,0
532,78,0,0,0,0,0,0,0,0,0,-1,1756,946,0,0
539,78,0,0,0,0,0,0,0,0,0,-1,1763,946,0,0
546,78,0,0,0,0,0,0,0,0,0,-1,1770,946,0,0
553,78,0,0,0,0,0,0,0,0,0,-1,1777,946,0,0
560,78,0,0,0,0,0,0,0,0,0,-1,1784,946,0,0
567,78,0,0,0,0,0,0,0,0,0,-1,1791,946,0,0
574,78,0,0,0,0,0,0,0,0,0,-1,1798,946,0,0
581,78,0,0,0,0,0,0,0,0,0,-1,1805,946,0,0
588,78,0,0,0,0,0,0,0,0,0,-1,1812,946,0,0
595,78,0,0,0,0,0,0,0,0,0,-1,1819,946,0,0
602,78,0,0,0,0,0,0,0,0,0,-1,1826,946,0,0
609,78,0,0,0,0,0,0,0,0,0,-1,1833,946,0,0
616,78,0,0,0,0,0,0,0,0,0,-1,1840,946,0,0
623,78,0,0,0,0,0,0,0,0,0,-1,1847,946,0,0
630,78,0,0,0,0,0,0,0,0,0,-1,1854,946,0,0
637,78,75.5126,2.3277,0.00331593,-0.00157425,-0.000749659,0.00342827,-0.00168659,-0.14875,0.00300959,0.0458505,1861,946,75.5126,-2.3277
644,78,75.6603,1.96887,0.00197094,-0.00106689,-0.000759745,0.00215035,-0.0012463,-0.2319,0.00198408,0.0434277,1868,946,75.6602,-1.96886
651,78,75.5741,1.81036,0.00115125,-0.0007144,-0.000485876,0.00127021,-0.000833353,-0.2401,0.00122319,0.0444617,1875,946,75.5741,-1.81035
658,78,75.34,2.11908,0.000783537,-0.000168344,-1.54365e-05,0.000783787,-0.000168594,-0.0162112,0.000586851,0.0408259,1882,946,75.3399,-2.11908
665,78,75.3561,2.17828,0.000666713,0.000422066,0.000505359,0.00106434,2.44377e-05,0.666656,0.000701557,0.0413459,1889,946,75.356,-2.17829
672,78,75.4515,2.17706,0.000195944,0.00061738,0.00113106,0.00155718,-0.000743861,0.877493,0.00135589,0.0432517,1896,946,75.4516,-2.17706
679,78,75.4569,2.05414,-0.000299347,0.000273484,0.00158247,0.00159525,-0.00162112,0.874925,0.00185699,0.0416254,1903,946,75.4569,-2.05414
686,78,75.3219,2.09155,-0.000609351,-0.000129297,0.00156147,0.00121048,-0.00194913,0.861661,0.00184074,0.0379625,1910,946,75.3219,-2.09155
693,78,75.3354,2.09802,-0.00117829,-0.000314739,0.00132474,0.000646816,-0.00213984,0.942935,0.00168409,0.0352163,1917,946,75.3354,-2.09803
700,78,75.3279,2.25824,-0.00185739,-0.000308507,0.000973408,0.00016095,-0.00232684,1.12142,0.00160757,0.0315105,1924,946,75.3279,-2.25823
707,78,75.3013,2.42993,0,0,0,0,0,0,0,-1,1931,946,75.3013,-2.42991
714,78,72.3286,4.29468,0,0,0,0,0,0,0,-1,1938,946,72.3287,-4.29469
721,78,72.1361,4.99054,-0.00372466,0.00125079,-0.000457391,0.00129249,-0.00376636,-1.47988,0.00303491,0.033882,1945,946,72.1361,-4.99052
728,78,72.0264,5.8194,-0.00433428,0.00221121,-0.000840825,0.00231749,-0.00444056,-1.44506,0.00396543,0.048717,1952,946,72.0264,-5.81942
735,78,72.0286,6.34253,-0.00358631,0.00381712,-0.00125614,0.00402444,-0.00379363,-1.40722,0.00451442,0.0328311,1959,946,72.0286,-6.34252
742,78,72.0066,6.84827,-0.00261424,0.00661838,-0.00184491,0.00697339,-0.00296925,-1.38069,0.00589351,0.0234774,1966,946,72.0066,-6.84828
749,78,71.8347,7.4198,-0.000947925,0.0104105,-0.00206167,0.0107731,-0.00131056,-1.39668,0.0076564,0.0174107,1973,946,71.8347,-7.41979
756,78,71.7468,7.93915,0.00253745,0.0159042,-0.00161012,0.0160954,0.00234623,-1.45259,0.01004,0.016229,1980,946,71.7468,-7.93915
763,78,71.6387,8.4068,0.00827792,0.0228727,-0.000285929,0.0228783,0.00827232,-1.55122,0.0133764,0.0176345,1987,946,71.6386,-8.40678
770,78,71.5046,8.89276,0.0155488,0.0303363,0.00162196,0.0305121,0.015373,1.46282,0.0176164,0.0230701,1994,946,71.5046,-8.89277
777,78,71.3311,9.76117,0.0243617,0.0383684,0.00445102,0.0396632,0.023067,1.28772,0.0230009,0.0416602,2001,946,71.331,-9.76118
784,78,71.3171,10.7086,0.035987,0.0469887,0.00846742,0.0515852,0.0313905,1.07346,0.0300156,0.0479158,2008,946,71.3171,-10.7086
791,78,71.0723,11.4932,0,0,0,0,0,0,0,-1,2015,946,71.0722,-11.4931
798,78,67.9287,7.90448,0,0,0,0,0,0,0,-1,2022,946,67.9287,-7.90446
805,78,68.5852,7.34106,0,0,0,0,0,0,0,-1,2029,946,68.5853,-7.34105
812,78,0,0,0,0,0,0,0,0,0,-1,2036,946,0,0
-700,71,0,0,0,0,0,0,0,0,0,-1,524,953,0,0
-693,71,0,0,0,0,0,0,0,0,0,-1,531,953,0,0
-686,71,-59.5884,4.57697,0.11071,0.00718083,0.113904,0.18406,-0.0661695,0.572121,0.149719,0.0403325,538,953,-59.5885,-4.57697
-679,71,-58.8521,5.59479,0.0917731,0.00652672,0.0976439,0.155691,-0.0573915,0.579606,0.127312,0.0450618,545,953,-58.8521,-5.59481
-672,71,-57.6769,6.68195,0,0,0,0,0,0,0,-1,552,953,-57.6769,-6.68194
-665,71,-56.3976,6.53619,0,0,0,0,0,0,0,-1,559,953,-56.3976,-6.5362
-658,71,-56.8401,8.33331,0,0,0,0,0,0,0,-1,566,953,-56.8401,-8.3333
-651,71,-56.823,8.23071,0,0,0,0,0,0,0,-1,573,953,-56.823,-8.23074
-644,71,-56.975,8.01044,0,0,0,0,0,0,0,-1,580,953,-56.975,-8.01041
-637,71,-57.0266,7.63873,0.00812427,0.0137266,0.0244961,0.0355811,-0.0137303,0.842326,0.0293869,0.021667,587,953,-57.0266,-7.63876
-630,71,-57.181,7.10779,0.000897218,0.0125436,0.0166547,0.0243638,-0.010923,0.953576,0.0208596,0.0192445,594,953,-57.181,-7.10779
-623,71,-57.2358,6.5885,-0.00371438,0.0103532,0.0107946,0.0162034,-0.00956456,1.07415,0.0150408,0.0163494,601,953,-57.2358,-6.58851
-616,71,-57.2834,6.02057,-0.00478256,0.0066941,0.00761377,0.0104898,-0.00857827,1.10832,0.0110274,0.016045,608,953,-57.2834,-6.02058
-609,71,-57.2782,5.53192,-0.00506191,0.00341055,0.0057869,0.00634606,-0.00799742,1.10135,0.00829948,0.0167668,615,953,-57.2782,-5.53194
-602,71,-57.261,5.03522,-0.00502699,0.00116884,0.00456898,0.00359113,-0.00744929,1.08331,0.00650263,0.0189944,622,953,-57.261,-5.03522
-595,71,-57.2445,4.51965,-0.00459429,-0.000371011,0.0036136,0.0017027,-0.006668,1.04982,0.00510838,0.0231058,629,953,-57.2445,-4.51963
-588,71,-57.1997,3.99506,-0.00425677,-0.00173884,0.00288605,0.000150885,-0.0061465,0.991068,0.00414887,0.0302386,636,953,-57.1997,-3.99507
-581,71,-56.9789,3.35999,0,0,0,0,0,0,0,-1,643,953,-56.979,-3.36
-574,71,-59.2797,0.0828857,0,0,0,0,0,0,0,-1,650,953,-59.2797,-0.0828634
-567,71,-59.254,0.198975,-0.00379464,-0.00364947,0.00118663,-0.00253321,-0.00491091,0.815944,0.00283579,0.0210225,657,953,-59.254,-0.198984
-560,71,-59.2732,0.266357,-0.0038845,-0.003494,0.000705634,-0.0029571,-0.0044214,0.920371,0.00260074,0.0278108,664,953,-59.2732,-0.266383
-553,71,-59.3641,0.307434,-0.00389773,-0.00296087,0.000241266,-0.00290239,-0.00395621,1.33299,0.00236578,0.0386637,671,953,-59.3641,-0.307419
-546,71,-59.4073,0.363159,-0.003753,-0.00218878,-0.000173465,-0.00216978,-0.003772,-1.46167,0.00218597,0.0416509,678,953,-59.4073,-0.36318
-539,71,-59.2318,0.210327,-0.00348657,-0.00152439,-0.000490716,-0.00140852,-0.00360245,-1.3389,0.00209629,0.0415087,685,953,-59.2318,-0.210303
-532,71,-59.2302,-0.0519409,-0.00341921,-0.00158674,-0.000725407,-0.00133434,-0.00367161,-1.23596,0.002146,0.0442373,692,953,-59.2303,0.0519492
-525,71,-59.3516,0.0454102,-0.00511772,-0.00227134,-0.000841762,-0.00204104,-0.00534802,-1.30374,0.00311638,0.0439501,699,953,-59.3516,-0.0454189
-518,71,0,0,0,0,0,0,0,0,0,-1,706,953,0,0
-511,71,0,0,0,0,0,0,0,0,0,-1,713,953,0,0
-504,71,0,0,0,0,0,0,0,0,0,-1,720,953,0,0
-497,71,0,0,0,0,0,0,0,0,0,-1,727,953,0,0
-490,71,0,0,0,0,0,0,0,0,0,-1,734,953,0,0
-483,71,0,0,0,0,0,0,0,0,0,-1,741,953,0,0
-476,71,0,0,0,0,0,0,0,0,0,-1,748,953,0,0
-469,71,0,0,0,0,0,0,0,0,0,-1,755,953,0,0
-462,71,0,0,0,0,0,0,0,0,0,-1,762,953,0,0
-455,71,0,0,0,0,0,0,0,0,0,-1,769,953,0,0
-448,71,0,0,0,0,0,0,0,0,0,-1,776,953,0,0
-441,71,0,0,0,0,0,0,0,0,0,-1,783,953,0,0
-434,71,0,0,0,0,0,0,0,0,0,-1,790,953,0,0
-427,71,0,0,0,0,0,0,0,0,0,-1,797,953,0,0
-420,71,0,0,0,0,0,0,0,0,0,-1,804,953,0,0
-413,71,0,0,0,0,0,0,0,0,0,-1,811,953,0,0
-406,71,0,0,0,0,0,0,0,0,0,-1,818,953,0,0
-399,71,0,0,0,0,0,0,0,0,0,-1,825,953,0,0
-392,71,0,0,0,0,0,0,0,0,0,-1,832,953,0,0
-385,71,0,0,0,0,0,0,0,0,0,-1,839,953,0,0
-378,71,0,0,0,0,0,0,0,0,0,-1,846,953,0,0
-371,71,0,0,0,0,0,0,0,0,0,-1,853,953,0,0
-364,71,0,0,0,0,0,0,0,0,0,-1,860,953,0,0
-357,71,0,0,0,0,0,0,0,0,0,-1,867,953,0,0
-350,71,0,0,0,0,0,0,0,0,0,-1,874,953,0,0
-343,71,0,0,0,0,0,0,0,0,0,-1,881,953,0,0
-336,71,0,0,0,0,0,0,0,0,0,-1,888,953,0,0
-329,71,0,0,0,0,0,0,0,0,0,-1,895,953,0,0
-322,71,0,0,0,0,0,0,0,0,0,-1,902,953,0,0
-315,71,0,0,0,0,0,0,0,0,0,-1,909,953,0,0
-308,71,0,0,0,0,0,0,0,0,0,-1,916,953,0,0
-301,71,0,0,0,0,0,0,0,0,0,-1,923,953,0,0
-294,71,0,0,0,0,0,0,0,0,0,-1,930,953,0,0
-287,71,0,0,0,0,0,0,0,0,0,-1,937,953,0,0
-280,71,0,0,0,0,0,0,0,0,0,-1,944,953,0,0
-273,71,0,0,0,0,0,0,0,0,0,-1,951,953,0,0
-266,71,0,0,0,0,0,0,0,0,0,-1,958,953,0,0
-259,71,0,0,0,0,0,0,0,0,0,-1,965,953,0,0
-252,71,0,0,0,0,0,0,0,0,0,-1,972,953,0,0
-245,71,0,0,0,0,0,0,0,0,0,-1,979,953,0,0
-238,71,0,0,0,0,0,0,0,0,0,-1,986,953,0,0
-231,71,0,0,0,0,0,0,0,0,0,-1,993,953,0,0
-224,71,0,0,0,0,0,0,0,0,0,-1,1000,953,0,0
-217,71,0,0,0,0,0,0,0,0,0,-1,1007,953,0,0
-210,71,0,0,0,0,0,0,0,0,0,-1,1014,953,0,0
-203,71,0,0,0,0,0,0,0,0,0,-1,1021,953,0,0
-196,71,0,0,0,0,0,0,0,0,0,-1,1028,953,0,0
-189,71,0,0,0,0,0,0,0,0,0,-1,1035,953,0,0
-182,71,0,0,0,0,0,0,0,0,0,-1,1042,953,0,0
-175,71,0,0,0,0,0,0,0,0,0,-1,1049,953,0,0
-168,71,0,0,0,0,0,0,0,0,0,-1,1056,953,0,0
-161,71,0,0,0,0,0,0,0,0,0,-1,1063,953,0,0
-154,71,0,0,0,0,0,0,0,0,0,-1,1070,953,0,0
-147,71,0,0,0,0,0,0,0,0,0,-1,1077,953,0,0
-140,71,0,0,0,0,0,0,0,0,0,-1,1084,953,0,0
-133,71,0,0,0,0,0,0,0,0,0,-1,1091,953,0,0
-126,71,0,0,0,0,0,0,0,0,0,-1,1098,953,0,0
-119,71,0,0,0,0,0,0,0,0,0,-1,1105,953,0,0
-112,71,0,0,0,0,0,0,0,0,0,-1,1112,953,0,0
-105,71,0,0,0,0,0,0,0,0,0,-1,1119,953,0,0
-98,71,0,0,0,0,0,0,0,0,0,-1,1126,953,0,0
-91,71,0,0,0,0,0,0,0,0,0,-1,1133,953,0,0
-84,71,0,0,0,0,0,0,0,0,0,-1,1140,953,0,0
-77,71,0,0,0,0,0,0,0,0,0,-1,1147,953,0,0
-70,71,0,0,0,0,0,0,0,0,0,-1,1154,953,0,0
-63,71,0,0,0,0,0,0,0,0,0,-1,1161,953,0,0
-56,71,0,0,0,0,0,0,0,0,0,-1,1168,953,0,0
-49,71,0,0,0,0,0,0,0,0,0,-1,1175,953,0,0
-42,71,0,0,0,0,0,0,0,0,0,-1,1182,953,0,0
-35,71,0,0,0,0,0,0,0,0,0,-1,1189,953,0,0
-28,71,0,0,0,0,0,0,0,0,0,-1,1196,953,0,0
-21,71,0,0,0,0,0,0,0,0,0,-1,1203,953,0,0
-14,71,0,0,0,0,0,0,0,0,0,-1,1210,953,0,0
-7,71,0,0,0,0,0,0,0,0,0,-1,1217,953,0,0
0,71,0,0,0,0,0,0,0,0,0,-1,1224,953,0,0
7,71,0,0,0,0,0,0,0,0,0,-1,1231,953,0,0
14,71,0,0,0,0,0,0,0,0,0,-1,1238,953,0,0
21,71,0,0,0,0,0,0,0,0,0,-1,1245,953,0,0
28,71,0,0,0,0,0,0,0,0,0,-1,1252,953,0,0
35,71,0,0,0,0,0,0,0,0,0,-1,1259,953,0,0
42,71,0,0,0,0,0,0,0,0,0,-1,1266,953,0,0
49,71,0,0,0,0,0,0,0,0,0,-1,1273,953,0,0
56,71,0,0,0,0,0,0,0,0,0,-1,1280,953,0,0
63,71,0,0,0,0,0,0,0,0,0,-1,1287,953,0,0
70,71,0,0,0,0,0,0,0,0,0,-1,1294,953,0,0
77,71,0,0,0,0,0,0,0,0,0,-1,1301,953,0,0
84,71,0,0,0,0,0,0,0,0,0,-1,1308,953,0,0
91,71,0,0,0,0,0,0,0,0,0,-1,1315,953,0,0
98,71,0,0,0,0,0,0,0,0,0,-1,1322,953,0,0
105,71,0,0,0,0,0,0,0,0,0,-1,1329,953,0,0
112,71,0,0,0,0,0,0,0,0,0,-1,1336,953,0,0
119,71,0,0,0,0,0,0,0,0,0,-1,1343,953,0,0
126,71,0,0,0,0,0,0,0,0,0,-1,1350,953,0,0
133,71,0,0,0,0,0,0,0,0,0,-1,1357,953,0,0
140,71,0,0,0,0,0,0,0,0,0,-1,1364,953,0,0
147,71,0,0,0,0,0,0,0,0,0,-1,1371,953,0,0
154,71,0,0,0,0,0,0,0,0,0,-1,1378,953,0,0
161,71,0,0,0,0,0,0,0,0,0,-1,1385,953,0,0
168,71,0,0,0,0,0,0,0,0,0,-1,1392,953,0,0
175,71,0,0,0,0,0,0,0,0,0,-1,1399,953,0,0
182,71,0,0,0,0,0,0,0,0,0,-1,1406,953,0,0
189,71,0,0,0,0,0,0,0,0,0,-1,1413,953,0,0
196,71,0,0,0,0,0,0,0,0,0,-1,1420,953,0,0
203,71,0,0,0,0,0,0,0,0,0,-1,1427,953,0,0
210,71,0,0,0,0,0,0,0,0,0,-1,1434,953,0,0
217,71,0,0,0,0,0,0,0,0,0,-1,1441,953,0,0
224,71,0,0,0,0,0,0,0,0,0,-1,1448,953,0,0
231,71,0,0,0,0,0,0,0,0,0,-1,1455,953,0,0
238,71,0,0,0,0,0,0,0,0,0,-1,1462,953,0,0
245,71,0,0,0,0,0,0,0,0,0,-1,1469,953,0,0
252,71,0,0,0,0,0,0,0,0,0,-1,1476,953,0,0
259,71,0,0,0,0,0,0,0,0,0,-1,1483,953,0,0
266,71,0,0,0,0,0,0,0,0,0,-1,1490,953,0,0
273,71,0,0,0,0,0,0,0,0,0,-1,1497,953,0,0
280,71,0,0,0,0,0,0,0,0,0,-1,1504,953,0,0
287,71,0,0,0,0,0,0,0,0,0,-1,1511,953,0,0
294,71,0,0,0,0,0,0,0,0,0,-1,1518,953,0,0
301,71,0,0,0,0,0,0,0,0,0,-1,1525,953,0,0
308,71,0,0,0,0,0,0,0,0,0,-1,1532,953,0,0
315,71,0,0,0,0,0,0,0,0,0,-1,1539,953,0,0
322,71,0,0,0,0,0,0,0,0,0,-1,1546,953,0,0
329,71,0,0,0,0,0,0,0,0,0,-1,1553,953,0,0
336,71,0,0,0,0,0,0,0,0,0,-1,1560,953,0,0
343,71,0,0,0,0,0,0,0,0,0,-1,1567,953,0,0
350,71,0,0,0,0,0,0,0,0,0,-1,1574,953,0,0
357,71,0,0,0,0,0,0,0,0,0,-1,1581,953,0,0
364,71,0,0,0,0,0,0,0,0,0,-1,1588,953,0,0
371,71,0,0,0,0,0,0,0,0,0,-1,1595,953,0,0
378,71,0,0,0,0,0,0,0,0,0,-1,1602,953,0,0
385,71,0,0,0,0,0,0,0,0,0,-1,1609,953,0,0
392,71,0,0,0,0,0,0,0,0,0,-1,1616,953,0,0
399,71,0,0,0,0,0,0,0,0,0,-1,1623,953,0,0
406,71,0,0,0,0,0,0,0,0,0,-1,1630,953,0,0
413,71,0,0,0,0,0,0,0,0,0,-1,1637,953,0,0
420,71,0,0,0,0,0,0,0,0,0,-1,1644,953,0,0
427,71,0,0,0,0,0,0,0,0,0,-1,1651,953,0,0
434,71,0,0,0,0,0,0,0,0,0,-1,1658,953,0,0
441,71,0,0,0,0,0,0,0,0,0,-1,1665,953,0,0
448,71,0,0,0,0,0,0,0,0,0,-1,1672,953,0,0
455,71,0,0,0,0,0,0,0,0,0,-1,1679,953,0,0
462,71,0,0,0,0,0,0,0,0,0,-1,1686,953,0,0
469,71,0,0,0,0,0,0,0,0,0,-1,1693,953,0,0
476,71,0,0,0,0,0,0,0,0,0,-1,1700,953,0,0
483,71,0,0,0,0,0,0,0,0,0,-1,1707,953,0,0
490,71,0,0,0,0,0,0,0,0,0,-1,1714,953,0,0
497,71,0,0,0,0,0,0,0,0,0,-1,1721,953,0,0
504,71,0,0,0,0,0,0,0,0,0,-1,1728,953,0,0
511,71,0,0,0,0,0,0,0,0,0,-1,1735,953,0,0
518,71,0,0,0,0,0,0,0,0,0,-1,1742,953,0,0
525,71,0,0,0,0,0,0,0,0,0,-1,1749,953,0,0
532,71,0,0,0,0,0,0,0,0,0,-1,1756,953,0,0
539,71,0,0,0,0,0,0,0,0,0,-1,1763,953,0,0
546,71,0,0,0,0,0,0,0,0,0,-1,1770,953,0,0
553,71,0,0,0,0,0,0,0,0,0,-1,1777,953,0,0
560,71,0,0,0,0,0,0,0,0,0,-1,1784,953,0,0
567,71,0,0,0,0,0,0,0,0,0,-1,1791,953,0,0
574,71,0,0,0,0,0,0,0,0,0,-1,1798,953,0,0
581,71,0,0,0,0,0,0,0,0,0,-1,1805,953,0,0
588,71,0,0,0,0,0,0,0,0,0,-1,1812,953,0,0
595,71,0,0,0,0,0,0,0,0,0,-1,1819,953,0,0
602,71,0,0,0,0,0,0,0,0,0,-1,1826,953,0,0
609,71,0,0,0,0,0,0,0,0,0,-1,1833,953,0,0
616,71,0,0,0,0,0,0,0,0,0,-1,1840,953,0,0
623,71,0,0,0,0,0,0,0,0,0,-1,1847,953,0,0
630,71,0,0,0,0,0,0,0,0,0,-1,1854,953,0,0
637,71,75.5035,2.23132,0.00332951,-0.00177082,-0.00126688,0.00362686,-0.00206816,-0.230535,0.00332882,0.0406376,1861,953,75.5036,-2.2313
644,71,75.5754,2.10461,0.00197456,-0.00124768,-0.00111887,0.00232497,-0.00159809,-0.3035,0.0022779,0.0448732,1868,953,75.5754,-2.10464
651,71,75.421,2.25098,0.00113691,-0.000924484,-0.000737558,0.00137362,-0.0011612,-0.310557,0.00146519,0.0433154,1875,953,75.421,-2.25098
658,71,75.3959,2.20386,0.000788422,-0.000420016,-0.000191243,0.000817966,-0.000449559,-0.153268,0.000742038,0.0397537,1882,953,75.3959,-2.20388
665,71,75.3846,2.11536,0.000706481,0.000115718,0.000353947,0.000872108,-4.99093e-05,0.437674,0.000598735,0.0414966,1889,953,75.3846,-2.11537
672,71,75.4182,2.03802,0.00033,0.000342788,0.000998459,0.00133487,-0.000662086,0.7886,0.00117455,0.0429355,1896,953,75.4182,-2.03803
679,71,75.5079,1.83997,-6.36643e-05,5.89998e-05,0.00149933,0.00149825,-0.00150291,0.80584,0.00173272,0.039291,1903,953,75.5079,-1.83995
686,71,75.069,2.25146,0,0,0,0,0,0,0,-1,1910,953,75.069,-2.25145
693,71,75.3508,1.95648,-0.000779071,-0.000539436,0.00140082,0.000746677,-0.00206518,0.828061,0.00168187,0.0349519,1917,953,75.3509,-1.95648
700,71,75.3729,2.09937,-0.00141017,-0.000525767,0.00110263,0.000220024,-0.00215596,0.976101,0.00151598,0.0388299,1924,953,75.3729,-2.09936
707,71,75.2975,2.31622,0,0,0,0,0,0,0,-1,1931,953,75.2975,-2.31624
714,71,73.1748,4.45123,0,0,0,0,0,0,0,-1,1938,953,73.1748,-4.45123
721,71,72.8193,5.11365,-0.00340454,0.00120478,-0.00031369,0.00122603,-0.00342579,-1.50316,0.00278403,0.037073,1945,953,72.8194,-5.11367
728,71,72.568,5.86371,-0.00400988,0.00233635,-0.000670233,0.00240636,-0.00407989,-1.46671,0.00378616,0.0390201,1952,953,72.568,-5.86368
735,71,72.583,6.43115,-0.00338749,0.00407826,-0.00103413,0.00421886,-0.00352809,-1.43567,0.00447863,0.0265754,1959,953,72.583,-6.43114
742,71,72.5986,6.89685,-0.00274007,0.00689513,-0.00154487,0.00713677,-0.00298171,-1.41564,0.00600384,0.0253292,1966,953,72.5987,-6.89687
749,71,72.5101,7.38049,-0.00165013,0.0105957,-0.00176342,0.0108446,-0.00189901,-1.43059,0.00793881,0.021635,1973,953,72.5101,-7.38051
756,71,72.4155,7.82257,0.000916264,0.0159615,-0.00136869,0.016085,0.000792765,-1.48081,0.0104691,0.0184798,1980,953,72.4156,-7.82254
763,71,72.3076,8.31738,0.00561061,0.0229501,-7.34487e-05,0.0229504,0.0056103,-1.56656,0.0138153,0.021532,1987,953,72.3077,-8.31739
770,71,72.0537,8.75653,0.0118132,0.0305001,0.00182988,0.0306776,0.0116357,1.4741,0.0178829,0.0253854,1994,953,72.0536,-8.75652
777,71,71.8445,9.56104,0.0193251,0.0385766,0.00464965,0.0396407,0.0182609,1.3458,0.0229102,0.043291,2001,953,71.8444,-9.56105
784,71,71.697,10.5225,0.0293885,0.0472414,0.00872302,0.0507958,0.025834,1.18386,0.0293284,0.0459538,2008,953,71.6971,-10.5225
791,71,71.3491,11.3737,0,0,0,0,0,0,0,-1,2015,953,71.3492,-11.3737
798,71,68.2634,9.50574,0,0,0,0,0,0,0,-1,2022,953,68.2634,-9.50571
805,71,59.978,6.41992,0,0,0,0,0,0,0,-1,2029,953,59.9781,-6.41992
812,71,0,0,0,0,0,0,0,0,0,-1,2036,953,0,0
-700,64,0,0,0,0,0,0,0,0,0,-1,524,960,0,0
-693,64,0,0,0,0,0,0,0,0,0,-1,531,960,0,0
-686,64,-60.274,4.05615,0,0,0,0,0,0,0,-1,538,960,-60.2739,-4.05614
-679,64,-59.7413,5.72864,0,0,0,0,0,0,0,-1,545,960,-59.7413,-5.72864
-672,64,-58.6182,6.78094,0,0,0,0,0,0,0,-1,552,960,-58.6182,-6.78093
-665,64,-58.3022,6.2099,0,0,0,0,0,0,0,-1,559,960,-58.3022,-6.20988
-658,64,-57.7641,8.20935,0,0,0,0,0,0,0,-1,566,960,-57.7641,-8.20937
-651,64,-57.7641,8.13873,0,0,0,0,0,0,0,-1,573,960,-57.7641,-8.13876
-644,64,-57.6548,7.82147,0.0124858,0.0167614,0.030681,0.045379,-0.0161318,0.820181,0.0368271,0.0390269,580,960,-57.6548,-7.82144
-637,64,-57.6902,7.401,0.00515157,0.0157376,0.0225437,0.0336014,-0.0127122,0.900704,0.0276309,0.0210399,587,960,-57.6902,-7.40097
-630,64,-57.7609,6.97375,-0.00118613,0.0139133,0.0151813,0.0233185,-0.0105913,1.01614,0.0200322,0.0164095,594,960,-57.7609,-6.97376
-623,64,-57.8077,6.54114,-0.00496029,0.0111443,0.00987795,0.0158361,-0.00965215,1.12736,0.0148593,0.0160198,601,960,-57.8077,-6.54112
-616,64,-57.879,6.06873,-0.00550101,0.00720255,0.00708037,0.0103627,-0.00866116,1.151,0.0109981,0.0198875,608,960,-57.879,-6.06871
-609,64,-57.8497,5.6189,-0.00544888,0.00385532,0.00545512,0.00637263,-0.00796619,1.13846,0.00829554,0.0204185,615,960,-57.8497,-5.6189
-602,64,-57.8332,5.12738,-0.00520933,0.00156798,0.00435882,0.0037004,-0.00734175,1.11581,0.00648971,0.0195063,622,960,-57.8332,-5.12738
-595,64,-57.8559,4.68805,-0.00465638,-7.04812e-05,0.00348791,0.00181068,-0.00653753,1.07618,0.00507084,0.0301359,629,960,-57.8559,-4.68807
-588,64,-57.6815,4.25275,-0.00422341,-0.00159094,0.00278648,0.000174537,-0.00598889,1.00605,0.00405203,0.046888,636,960,-57.6815,-4.25276
-581,64,-57.3762,3.6842,0,0,0,0,0,0,0,-1,643,960,-57.3762,-3.68419
-574,64,-59.2761,0.0512085,0,0,0,0,0,0,0,-1,650,960,-59.2761,-0.051237
-567,64,-59.248,0.147705,-0.00353105,-0.00377589,0.00103057,-0.00261565,-0.00469129,0.72628,0.00271449,0.0275594,657,960,-59.248,-0.147711
-560,64,-59.2758,0.220337,-0.00354121,-0.00363793,0.000530461,-0.00305691,-0.00412223,0.739945,0.00247082,0.0347261,664,960,-59.2758,-0.220321
-553,64,-59.2795,0.33429,-0.00346014,-0.00315362,2.92149e-05,-0.00315086,-0.0034629,1.47662,0.00221194,0.0381894,671,960,-59.2795,-0.334261
-546,64,-59.3006,0.371094,-0.00326233,-0.00249491,-0.000468454,-0.00227308,-0.00348416,-1.12854,0.00204249,0.0402731,678,960,-59.3006,-0.371075
-539,64,-59.3581,0.239746,-0.0030826,-0.0020867,-0.000953609,-0.00150886,-0.00366044,-1.02601,0.00212419,0.0414838,685,960,-59.3581,-0.239756
-532,64,-59.4197,0.115784,-0.00316645,-0.00250381,-0.00149446,-0.00130438,-0.00436587,-0.894484,0.00258779,0.0428691,692,960,-59.4197,-0.115791
-525,64,-59.3929,0.153381,-0.00486834,-0.00333588,-0.00204347,-0.00191971,-0.00628451,-0.964768,0.00371877,0.042004,699,960,-59.393,-0.153352
-518,64,0,0,0,0,0,0,0,0,0,-1,706,960,0,0
-511,64,0,0,0,0,0,0,0,0,0,-1,713,960,0,0
-504,64,0,0,0,0,0,0,0,0,0,-1,720,960,0,0
-497,64,0,0,0,0,0,0,0,0,0,-1,727,960,0,0
-490,64,0,0,0,0,0,0,0,0,0,-1,734,960,0,0
-483,64,0,0,0,0,0,0,0,0,0,-1,741,960,0,0
-476,64,0,0,0,0,0,0,0,0,0,-1,748,960,0,0
-469,64,0,0,0,0,0,0,0,0,0,-1,755,960,0,0
-462,64,0,0,0,0,0,0,0,0,0,-1,762,960,0,0
-455,64,0,0,0,0,0,0,0,0,0,-1,769,960,0,0
-448,64,0,0,0,0,0,0,0,0,0,-1,776,960,0,0
-441,64,0,0,0,0,0,0,0,0,0,-1,783,960,0,0
-434,64,0,0,0,0,0,0,0,0,0,-1,790,960,0,0
-427,64,0,0,0,0,0,0,0,0,0,-1,797,960,0,0
-420,64,0,0,0,0,0,0,0,0,0,-1,804,960,0,0
-413,64,0,0,0,0,0,0,0,0,0,-1,811,960,0,0
-406,64,0,0,0,0,0,0,0,0,0,-1,818,960,0,0
-399,64,0,0,0,0,0,0,0,0,0,-1,825,960,0,0
-392,64,0,0,0,0,0,0,0,0,0,-1,832,960,0,0
-385,64,0,0,0,0,0,0,0,0,0,-1,839,960,0,0
-378,64,0,0,0,0,0,0,0,0,0,-1,846,960,0,0
-371,64,0,0,0,0,0,0,0,0,0,-1,853,960,0,0
-364,64,0,0,0,0,0,0,0,0,0,-1,860,960,0,0
-357,64,0,0,0,0,0,0,0,0,0,-1,867,960,0,0
-350,64,0,0,0,0,0,0,0,0,0,-1,874,960,0,0
-343,64,0,0,0,0,0,0,0,0,0,-1,881,960,0,0
-336,64,0,0,0,0,0,0,0,0,0,-1,888,960,0,0
-329,64,0,0,0,0,0,0,0,0,0,-1,895,960,0,0
-322,64,0,0,0,0,0,0,0,0,0,-1,902,960,0,0
-315,64,0,0,0,0,0,0,0,0,0,-1,909,960,0,0
-308,64,0,0,0,0,0,0,0,0,0,-1,916,960,0,0
-301,64,0,0,0,0,0,0,0,0,0,-1,923,960,0,0
-294,64,0,0,0,0,0,0,0,0,0,-1,930,960,0,0
-287,64,0,0,0,0,0,0,0,0,0,-1,937,960,0,0
-280,64,0,0,0,0,0,0,0,0,0,-1,944,960,0,0
-273,64,0,0,0,0,0,0,0,0,0,-1,951,960,0,0
-266,64,0,0,0,0,0,0,0,0,0,-1,958,960,0,0
-259,64,0,0,0,0,0,0,0,0,0,-1,965,960,0,0
-252,64,0,0,0,0,0,0,0,0,0,-1,972,960,0,0
-245,64,0,0,0,0,0,0,0,0,0,-1,979,960,0,0
-238,64,0,0,0,0,0,0,0,0,0,-1,986,960,0,0
-231,64,0,0,0,0,0,0,0,0,0,-1,993,960,0,0
-224,64,0,0,0,0,0,0,0,0,0,-1,1000,960,0,0
-217,64,0,0,0,0,0,0,0,0,0,-1,1007,960,0,0
-210,64,0,0,0,0,0,0,0,0,0,-1,1014,960,0,0
-203,64,0,0,0,0,0,0,0,0,0,-1,1021,960,0,0
-196,64,0,0,0,0,0,0,0,0,0,-1,1028,960,0,0
-189,64,0,0,0,0,0,0,0,0,0,-1,1035,960,0,0
-182,64,0,0,0,0,0,0,0,0,0,-1,1042,960,0,0
-175,64,0,0,0,0,0,0,0,0,0,-1,1049,960,0,0
-168,64,0,0,0,0,0,0,0,0,0,-1,1056,960,0,0
-161,64,0,0,0,0,0,0,0,0,0,-1,1063,960,0,0
-154,64,0,0,0,0,0,0,0,0,0,-1,1070,960,0,0
-147,64,0,0,0,0,0,0,0,0,0,-1,1077,960,0,0
-140,64,0,0,0,0,0,0,0,0,0,-1,1084,960,0,0
-133,64,0,0,0,0,0,0,0,0,0,-1,1091,960,0,0
-126,64,0,0,0,0,0,0,0,0,0,-1,1098,960,0,0
-119,64,0,0,0,0,0,0,0,0,0,-1,1105,960,0,0
-112,64,0,0,0,0,0,0,0,0,0,-1,1112,960,0,0
-105,64,0,0,0,0,0,0,0,0,0,-1,1119,960,0,0
-98,64,0,0,0,0,0,0,0,0,0,-1,1126,960,0,0
-91,64,0,0,0,0,0,0,0,0,0,-1,1133,960,0,0
-84,64,0,0,0,0,0,0,0,0,0,-1,1140,960,0,0
-77,64,0,0,0,0,0,0,0,0,0,-1,1147,960,0,0
-70,64,0,0,0,0,0,0,0,0,0,-1,1154,960,0,0
-63,64,0,0,0,0,0,0,0,0,0,-1,1161,960,0,0
-56,64,0,0,0,0,0,0,0,0,0,-1,1168,960,0,0
-49,64,0,0,0,0,0,0,0,0,0,-1,1175,960,0,0
-42,64,0,0,0,0,0,0,0,0,0,-1,1182,960,0,0
-35,64,0,0,0,0,0,0,0,0,0,-1,1189,960,0,0
-28,64,0,0,0,0,0,0,0,0,0,-1,1196,960,0,0
-21,64,0,0,0,0,0,0,0,0,0,-1,1203,960,0,0
-14,64,0,0,0,0,0,0,0,0,0,-1,1210,960,0,0
-7,64,0,0,0,0,0,0,0,0,0,-1,1217,960,0,0
0,64,0,0,0,0,0,0,0,0,0,-1,1224,960,0,0
7,64,0,0,0,0,0,0,0,0,0,-1,1231,960,0,0
14,64,0,0,0,0,0,0,0,0,0,-1,1238,960,0,0
21,64,0,0,0,0,0,0,0,0,0,-1,1245,960,0,0
28,64,0,0,0,0,0,0,0,0,0,-1,1252,960,0,0
35,64,0,0,0,0,0,0,0,0,0,-1,1259,960,0,0
42,64,0,0,0,0,0,0,0,0,0,-1,1266,960,0,0
49,64,0,0,0,0,0,0,0,0,0,-1,1273,960,0,0
56,64,0,0,0,0,0,0,0,0,0,-1,1280,960,0,0
63,64,0,0,0,0,0,0,0,0,0,-1,1287,960,0,0
70,64,0,0,0,0,0,0,0,0,0,-1,1294,960,0,0
77,64,0,0,0,0,0,0,0,0,0,-1,1301,960,0,0
84,64,0,0,0,0,0,0,0,0,0,-1,1308,960,0,0
91,64,0,0,0,0,0,0,0,0,0,-1,1315,960,0,0
98,64,0,0,0,0,0,0,0,0,0,-1,1322,960,0,0
105,64,0,0,0,0,0,0,0,0,0,-1,1329,960,0,0
112,64,0,0,0,0,0,0,0,0,0,-1,1336,960,0,0
119,64,0,0,0,0,0,0,0,0,0,-1,1343,960,0,0
126,64,0,0,0,0,0,0,0,0,0,-1,1350,960,0,0
133,64,0,0,0,0,0,0,0,0,0,-1,1357,960,0,0
140,64,0,0,0,0,0,0,0,0,0,-1,1364,960,0,0
147,64,0,0,0,0,0,0,0,0,0,-1,1371,960,0,0
154,64,0,0,0,0,0,0,0,0,0,-1,1378,960,0,0
161,64,0,0,0,0,0,0,0,0,0,-1,1385,960,0,0
168,64,0,0,0,0,0,0,0,0,0,-1,1392,960,0,0
175,64,0,0,0,0,0,0,0,0,0,-1,1399,960,0,0
182,64,0,0,0,0,0,0,0,0,0,-1,1406,960,0,0
189,64,0,0,0,0,0,0,0,0,0,-1,1413,960,0,0
196,64,0,0,0,0,0,0,0,0,0,-1,1420,960,0,0
203,64,0,0,0,0,0,0,0,0,0,-1,1427,960,0,0
210,64,0,0,0,0,0,0,0,0,0,-1,1434,960,0,0
217,64,0,0,0,0,0,0,0,0,0,-1,1441,960,0,0
224,64,0,0,0,0,0,0,0,0,0,-1,1448,960,0,0
231,64,0,0,0,0,0,0,0,0,0,-1,1455,960,0,0
238,64,0,0,0,0,0,0,0,0,0,-1,1462,960,0,0
245,64,0,0,0,0,0,0,0,0,0,-1,1469,960,0,0
252,64,0,0,0,0,0,0,0,0,0,-1,1476,960,0,0
259,64,0,0,0,0,0,0,0,0,0,-1,1483,960,0,0
266,64,0,0,0,0,0,0,0,0,0,-1,1490,960,0,0
273,64,0,0,0,0,0,0,0,0,0,-1,1497,960,0,0
280,64,0,0,0,0,0,0,0,0,0,-1,1504,960,0,0
287,64,0,0,0,0,0,0,0,0,0,-1,1511,960,0,0
294,64,0,0,0,0,0,0,0,0,0,-1,1518,960,0,0
301,64,0,0,0,0,0,0,0,0,0,-1,1525,960,0,0
308,64,0,0,0,0,0,0,0,0,0,-1,1532,960,0,0
315,64,0,0,0,0,0,0,0,0,0,-1,1539,960,0,0
322,64,0,0,0,0,0,0,0,0,0,-1,1546,960,0,0
329,64,0,0,0,0,0,0,0,0,0,-1,1553,960,0,0
336,64,0,0,0,0,0,0,0,0,0,-1,1560,960,0,0
343,64,0,0,0,0,0,0,0,0,0,-1,1567,960,0,0
350,64,0,0,0,0,0,0,0,0,0,-1,1574,960,0,0
357,64,0,0,0,0,0,0,0,0,0,-1,1581,960,0,0
364,64,0,0,0,0,0,0,0,0,0,-1,1588,960,0,0
371,64,0,0,0,0,0,0,0,0,0,-1,1595,960,0,0
378,64,0,0,0,0,0,0,0,0,0,-1,1602,960,0,0
385,64,0,0,0,0,0,0,0,0,0,-1,1609,960,0,0
392,64,0,0,0,0,0,0,0,0,0,-1,1616,960,0,0
399,64,0,0,0,0,0,0,0,0,0,-1,1623,960,0,0
406,64,0,0,0,0,0,0,0,0,0,-1,1630,960,0,0
413,64,0,0,0,0,0,0,0,0,0,-1,1637,960,0,0
420,64,0,0,0,0,0,0,0,0,0,-1,1644,960,0,0
427,64,0,0,0,0,0,0,0,0,0,-1,1651,960,0,0
434,64,0,0,0,0,0,0,0,0,0,-1,1658,960,0,0
441,64,0,0,0,0,0,0,0,0,0,-1,1665,960,0,0
448,64,0,0,0,0,0,0,0,0,0,-1,1672,960,0,0
455,64,0,0,0,0,0,0,0,0,0,-1,1679,960,0,0
462,64,0,0,0,0,0,0,0,0,0,-1,1686,960,0,0
469,64,0,0,0,0,0,0,0,0,0,-1,1693,960,0,0
476,64,0,0,0,0,0,0,0,0,0,-1,1700,960,0,0
483,64,0,0,0,0,0,0,0,0,0,-1,1707,960,0,0
490,64,0,0,0,0,0,0,0,0,0,-1,1714,960,0,0
497,64,0,0,0,0,0,0,0,0,0,-1,1721,960,0,0
504,64,0,0,0,0,0,0,0,0,0,-1,1728,960,0,0
511,64,0,0,0,0,0,0,0,0,0,-1,1735,960,0,0
518,64,0,0,0,0,0,0,0,0,0,-1,1742,960,0,0
525,64,0,0,0,0,0,0,0,0,0,-1,1749,960,0,0
532,64,0,0,0,0,0,0,0,0,0,-1,1756,960,0,0
539,64,0,0,0,0,0,0,0,0,0,-1,1763,960,0,0
546,64,0,0,0,0,0,0,0,0,0,-1,1770,960,0,0
553,64,0,0,0,0,0,0,0,0,0,-1,1777,960,0,0
560,64,0,0,0,0,0,0,0,0,0,-1,1784,960,0,0
567,64,0,0,0,0,0,0,0,0,0,-1,1791,960,0,0
574,64,0,0,0,0,0,0,0,0,0,-1,1798,960,0,0
581,64,0,0,0,0,0,0,0,0,0,-1,1805,960,0,0
588,64,0,0,0,0,0,0,0,0,0,-1,1812,960,0,0
595,64,0,0,0,0,0,0,0,0,0,-1,1819,960,0,0
602,64,0,0,0,0,0,0,0,0,0,-1,1826,960,0,0
609,64,0,0,0,0,0,0,0,0,0,-1,1833,960,0,0
616,64,0,0,0,0,0,0,0,0,0,-1,1840,960,0,0
623,64,0,0,0,0,0,0,0,0,0,-1,1847,960,0,0
630,64,0,0,0,0,0,0,0,0,0,-1,1854,960,0,0
637,64,0,0,0,0,0,0,0,0,0,-1,1861,960,0,0
644,64,75.4465,2.0993,0.00183728,-0.00109403,-0.00138898,0.00239089,-0.00164764,-0.379273,0.00234477,0.0444549,1868,960,75.4466,-2.09929
651,64,75.3865,2.27753,0.00102154,-0.000806919,-0.000865277,0.00136609,-0.00115147,-0.378948,0.00145527,0.0427844,1875,960,75.3865,-2.27752
658,64,75.3483,2.20532,0.00072606,-0.000371469,-0.000233647,0.000773729,-0.000419139,-0.201261,0.000698771,0.0391151,1882,960,75.3482,-2.20534
665,64,75.2836,2.12085,0.000717785,9.54515e-05,0.000330481,0.000860537,-4.73008e-05,0.407745,0.00059009,0.0404168,1889,960,75.2835,-2.12087
672,64,75.2903,2.15698,0.000475741,0.000335092,0.000954258,0.00136226,-0.00055143,0.748617,0.00113745,0.0429521,1896,960,75.2903,-2.15695
679,64,75.5282,1.95551,0.000217084,8.43122e-05,0.00146054,0.00161274,-0.00131135,0.762687,0.00169121,0.0402074,1903,960,75.5282,-1.95548
686,64,75.3101,1.98871,0.00011403,-0.000314174,0.00156644,0.00148093,-0.00168108,0.717479,0.00182681,0.0370437,1910,960,75.3101,-1.98871
693,64,75.2673,1.93042,-0.000294072,-0.000582337,0.00146652,0.00103538,-0.00191179,0.736414,0.00172644,0.033393,1917,960,75.2673,-1.9304
700,64,75.3798,2.04993,-0.00084911,-0.00059806,0.0012005,0.000483458,-0.00193063,0.837489,0.00147489,0.0403649,1924,960,75.3798,-2.04996
707,64,75.4147,2.20123,0,0,0,0,0,0,0,-1,1931,960,75.4147,-2.20122
714,64,74.0062,4.68933,0,0,0,0,0,0,0,-1,1938,960,74.0062,-4.68932
721,64,73.349,5.22906,-0.00295745,0.0012412,-0.000213218,0.001252,-0.00296825,-1.52019,0.00250282,0.0376781,1945,960,73.349,-5.22907
728,64,73.0345,5.88293,-0.00360769,0.00249059,-0.000561579,0.00254187,-0.00365897,-1.47973,0.00359937,0.0279256,1952,960,73.0345,-5.88292
735,64,72.9874,6.48431,-0.00320088,0.00432721,-0.000879787,0.00442866,-0.00330233,-1.45599,0.00447925,0.0355049,1959,960,72.9875,-6.48431
742,64,73.1333,6.86743,-0.00291122,0.00715347,-0.00130318,0.00731947,-0.00307722,-1.4441,0.00616685,0.02997,1966,960,73.1333,-6.86741
749,64,73.0927,7.32751,-0.00239001,0.0107991,-0.00150921,0.0109696,-0.00256051,-1.45831,0.00829931,0.017973,1973,960,73.0927,-7.32752
756,64,72.9958,7.77368,-0.000758242,0.0160779,-0.00116473,0.0161581,-0.000838437,-1.50205,0.0110621,0.0167996,1980,960,72.9957,-7.77368
763,64,72.9307,8.24207,0.0027584,0.0231093,8.54065e-05,0.0231097,0.00275804,1.5666,0.0145744,0.018799,1987,960,72.9306,-8.24204
770,64,72.6841,8.62781,0.00776955,0.0308433,0.0019829,0.0310125,0.00760038,1.48569,0.0186647,0.0195891,1994,960,72.6842,-8.62781
777,64,72.5752,9.21533,0.0138876,0.0390746,0.00480267,0.0399593,0.0130029,1.38863,0.0235347,0.035899,2001,960,72.5751,-9.21534
784,64,72.8308,9.85254,0.0222891,0.0478882,0.00894665,0.050705,0.0194722,1.26578,0.0295359,0.043939,2008,960,72.8308,-9.85255
791,64,72.9978,10.5183,0,0,0,0,0,0,0,-1,2015,960,72.9978,-10.5183
798,64,70.9221,7.01788,0,0,0,0,0,0,0,-1,2022,960,70.9221,-7.01791
805,64,71.8018,7.16925,0,0,0,0,0,0,0,-1,2029,960,71.8016,-7.16926
812,64,0,0,0,0,0,0,0,0,0,-1,2036,960,0,0
-700,57,0,0,0,0,0,0,0,0,0,-1,524,967,0,0
-693,57,0,0,0,0,0,0,0,0,0,-1,531,967,0,0
-686,57,-53.1282,5.49811,0,0,0,0,0,0,0,-1,538,967,-53.1282,-5.49809
-679,57,-53.1553,5.75092,0,0,0,0,0,0,0,-1,545,967,-53.1553,-5.75094
-672,57,-53.3279,5.89252,0,0,0,0,0,0,0,-1,552,967,-53.3278,-5.89251
-665,57,-59.2086,5.76245,0,0,0,0,0,0,0,-1,559,967,-59.2086,-5.76246
-658,57,-58.5062,6.42694,0,0,0,0,0,0,0,-1,566,967,-58.5062,-6.42695
-651,57,-58.4481,7.74744,0,0,0,0,0,0,0,-1,573,967,-58.4481,-7.74742
-644,57,-58.2971,7.47437,0.00796655,0.0195995,0.0280549,0.0424345,-0.0148684,0.887613,0.0343362,0.0404271,580,967,-58.297,-7.47434
-637,57,-58.2322,7.17297,0.00165961,0.0179182,0.02043,0.0317768,-0.012199,0.97475,0.0262148,0.0230099,587,967,-58.2322,-7.173
-630,57,-58.3207,6.81628,-0.00358058,0.0153801,0.0136518,0.0225205,-0.010721,1.08889,0.0195909,0.0148287,594,967,-58.3207,-6.81631
-623,57,-58.3486,6.47729,-0.00636535,0.0119746,0.00895907,0.0156246,-0.0100154,1.18391,0.0149209,0.0139946,601,967,-58.3486,-6.47731
-616,57,-58.3458,6.0744,-0.0063411,0.00774113,0.00652878,0.0103022,-0.00890218,1.19697,0.0110975,0.0166457,608,967,-58.3458,-6.07439
-609,57,-58.3654,5.63531,-0.00593183,0.00429945,0.00509014,0.00640041,-0.00803279,1.17935,0.00835076,0.0173106,615,967,-58.3654,-5.63528
-602,57,-58.373,5.16583,-0.00546157,0.00192502,0.00412098,0.00376552,-0.00730207,1.15076,0.00649771,0.0125178,622,967,-58.3731,-5.16586
-595,57,-58.3725,4.72626,-0.00478194,0.000186899,0.00335591,0.00187794,-0.00647299,1.10403,0.00505886,0.0219185,629,967,-58.3725,-4.72628
-588,57,-58.0842,4.55475,0,0,0,0,0,0,0,-1,636,967,-58.0842,-4.55474
-581,57,-58.9454,2.42877,0,0,0,0,0,0,0,-1,643,967,-58.9454,-2.42876
-574,57,-59.2191,0.184021,0,0,0,0,0,0,0,-1,650,967,-59.219,-0.184014
-567,57,-59.2574,0.146851,-0.00327694,-0.00389273,0.000975766,-0.00256164,-0.00460803,0.632569,0.00266598,0.0355296,657,967,-59.2574,-0.146869
-560,57,-59.2071,0.0689087,-0.0031673,-0.00380009,0.000503825,-0.00288876,-0.00407863,0.505025,0.00242193,0.0418949,664,967,-59.2071,-0.0689062
-553,57,-59.2083,0.397156,-0.00297615,-0.00337706,8.49099e-06,-0.00297597,-0.00337724,0.0211666,0.00213037,0.041414,671,967,-59.2082,-0.397148
-546,57,-59.3013,0.546143,-0.00270276,-0.00283756,-0.000527063,-0.00223881,-0.00330152,-0.721803,0.00194603,0.0420739,678,967,-59.3013,-0.546163
-539,57,-59.3953,0.513733,-0.00252872,-0.00268193,-0.00112387,-0.00147885,-0.0037318,-0.751371,0.00216995,0.0425611,685,967,-59.3953,-0.51373
-532,57,-59.4037,0.344666,-0.0025433,-0.00335762,-0.00188156,-0.00102535,-0.00487557,-0.678845,0.00296823,0.040692,692,967,-59.4037,-0.344695
-525,57,-59.4495,0.183716,-0.00389735,-0.00424081,-0.00276776,-0.001296,-0.00684216,-0.754415,0.00419668,0.0413497,699,967,-59.4496,-0.183746
-518,57,0,0,0,0,0,0,0,0,0,-1,706,967,0,0
-511,57,0,0,0,0,0,0,0,0,0,-1,713,967,0,0
-504,57,0,0,0,0,0,0,0,0,0,-1,720,967,0,0
-497,57,0,0,0,0,0,0,0,0,0,-1,727,967,0,0
-490,57,0,0,0,0,0,0,0,0,0,-1,734,967,0,0
-483,57,0,0,0,0,0,0,0,0,0,-1,741,967,0,0
-476,57,0,0,0,0,0,0,0,0,0,-1,748,967,0,0
-469,57,0,0,0,0,0,0,0,0,0,-1,755,967,0,0
-462,57,0,0,0,0,0,0,0,0,0,-1,762,967,0,0
-455,57,0,0,0,0,0,0,0,0,0,-1,769,967,0,0
-448,57,0,0,0,0,0,0,0,0,0,-1,776,967,0,0
-441,57,0,0,0,0,0,0,0,0,0,-1,783,967,0,0
-434,57,0,0,0,0,0,0,0,0,0,-1,790,967,0,0
-427,57,0,0,0,0,0,0,0,0,0,-1,797,967,0,0
-420,57,0,0,0,0,0,0,0,0,0,-1,804,967,0,0
-413,57,0,0,0,0,0,0,0,0,0,-1,811,967,0,0
-406,57,0,0,0,0,0,0,0,0,0,-1,818,967,0,0
-399,57,0,0,0,0,0,0,0,0,0,-1,825,967,0,0
-392,57,0,0,0,0,0,0,0,0,0,-1,832,967,0,0
-385,57,0,0,0,0,0,0,0,0,0,-1,839,967,0,0
-378,57,0,0,0,0,0,0,0,0,0,-1,846,967,0,0
-371,57,0,0,0,0,0,0,0,0,0,-1,853,967,0,0
-364,57,0,0,0,0,0,0,0,0,0,-1,860,967,0,0
-357,57,0,0,0,0,0,0,0,0,0,-1,867,967,0,0
-350,57,0,0,0,0,0,0,0,0,0,-1,874,967,0,0
-343,57,0,0,0,0,0,0,0,0,0,-1,881,967,0,0
-336,57,0,0,0,0,0,0,0,0,0,-1,888,967,0,0
-329,57,0,0,0,0,0,0,0,0,0,-1,895,967,0,0
-322,57,0,0,0,0,0,0,0,0,0,-1,902,967,0,0
-315,57,0,0,0,0,0,0,0,0,0,-1,909,967,0,0
-308,57,0,0,0,0,0,0,0,0,0,-1,916,967,0,0
-301,57,0,0,0,0,0,0,0,0,0,-1,923,967,0,0
-294,57,0,0,0,0,0,0,0,0,0,-1,930,967,0,0
-287,57,0,0,0,0,0,0,0,0,0,-1,937,967,0,0
-280,57,0,0,0,0,0,0,0,0,0,-1,944,967,0,0
-273,57,0,0,0,0,0,0,0,0,0,-1,951,967,0,0
-266,57,0,0,0,0,0,0,0,0,0,-1,958,967,0,0
-259,57,0,0,0,0,0,0,0,0,0,-1,965,967,0,0
-252,57,0,0,0,0,0,0,0,0,0,-1,972,967,0,0
-245,57,0,0,0,0,0,0,0,0,0,-1,979,967,0,0
-238,57,0,0,0,0,0,0,0,0,0,-1,986,967,0,0
-231,57,0,0,0,0,0,0,0,0,0,-1,993,967,0,0
-224,57,0,0,0,0,0,0,0,0,0,-1,1000,967,0,0
-217,57,0,0,0,0,0,0,0,0,0,-1,1007,967,0,0
-210,57,0,0,0,0,0,0,0,0,0,-1,1014,967,0,0
-203,57,0,0,0,0,0,0,0,0,0,-1,1021,967,0,0
-196,57,0,0,0,0,0,0,0,0,0,-1,1028,967,0,0
-189,57,0,0,0,0,0,0,0,0,0,-1,1035,967,0,0
-182,57,0,0,0,0,0,0,0,0,0,-1,1042,967,0,0
-175,57,0,0,0,0,0,0,0,0,0,-1,1049,967,0,0
-168,57,0,0,0,0,0,0,0,0,0,-1,1056,967,0,0
-161,57,0,0,0,0,0,0,0,0,0,-1,1063,967,0,0
-154,57,0,0,0,0,0,0,0,0,0,-1,1070,967,0,0
-147,57,0,0,0,0,0,0,0,0,0,-1,1077,967,0,0
-140,57,0,0,0,0,0,0,0,0,0,-1,1084,967,0,0
-133,57,0,0,0,0,0,0,0,0,0,-1,1091,967,0,0
-126,57,0,0,0,0,0,0,0,0,0,-1,1098,967,0,0
-119,57,0,0,0,0,0,0,0,0,0,-1,1105,967,0,0
-112,57,0,0,0,0,0,0,0,0,0,-1,1112,967,0,0
-105,57,0,0,0,0,0,0,0,0,0,-1,1119,967,0,0
-98,57,0,0,0,0,0,0,0,0,0,-1,1126,967,0,0
-91,57,0,0,0,0,0,0,0,0,0,-1,1133,967,0,0
-84,57,0,0,0,0,0,0,0,0,0,-1,1140,967,0,0
-77,57,0,0,0,0,0,0,0,0,0,-1,1147,967,0,0
-70,57,0,0,0,0,0,0,0,0,0,-1,1154,967,0,0
-63,57,0,0,0,0,0,0,0,0,0,-1,1161,967,0,0
-56,57,0,0,0,0,0,0,0,0,0,-1,1168,967,0,0
-49,57,0,0,0,0,0,0,0,0,0,-1,1175,967,0,0
-42,57,0,0,0,0,0,0,0,0,0,-1,1182,967,0,0
-35,57,0,0,0,0,0,0,0,0,0,-1,1189,967,0,0
-28,57,0,0,0,0,0,0,0,0,0,-1,1196,967,0,0
-21,57,0,0,0,0,0,0,0,0,0,-1,1203,967,0,0
-14,57,0,0,0,0,0,0,0,0,0,-1,1210,967,0,0
-7,57,0,0,0,0,0,0,0,0,0,-1,1217,967,0,0
0,57,0,0,0,0,0,0,0,0,0,-1,1224,967,0,0
7,57,0,0,0,0,0,0,0,0,0,-1,1231,967,0,0
14,57,0,0,0,0,0,0,0,0,0,-1,1238,967,0,0
21,57,0,0,0,0,0,0,0,0,0,-1,1245,967,0,0
28,57,0,0,0,0,0,0,0,0,0,-1,1252,967,0,0
35,57,0,0,0,0,0,0,0,0,0,-1,1259,967,0,0
42,57,0,0,0,0,0,0,0,0,0,-1,1266,967,0,0
49,57,0,0,0,0,0,0,0,0,0,-1,1273,967,0,0
56,57,0,0,0,0,0,0,0,0,0,-1,1280,967,0,0
63,57,0,0,0,0,0,0,0,0,0,-1,1287,967,0,0
70,57,0,0,0,0,0,0,0,0,0,-1,1294,967,0,0
77,57,0,0,0,0,0,0,0,0,0,-1,1301,967,0,0
84,57,0,0,0,0,0,0,0,0,0,-1,1308,967,0,0
91,57,0,0,0,0,0,0,0,0,0,-1,1315,967,0,0
98,57,0,0,0,0,0,0,0,0,0,-1,1322,967,0,0
105,57,0,0,0,0,0,0,0,0,0,-1,1329,967,0,0
112,57,0,0,0,0,0,0,0,0,0,-1,1336,967,0,0
119,57,0,0,0,0,0,0,0,0,0,-1,1343,967,0,0
126,57,0,0,0,0,0,0,0,0,0,-1,1350,967,0,0
133,57,0,0,0,0,0,0,0,0,0,-1,1357,967,0,0
140,57,0,0,0,0,0,0,0,0,0,-1,1364,967,0,0
147,57,0,0,0,0,0,0,0,0,0,-1,1371,967,0,0
154,57,0,0,0,0,0,0,0,0,0,-1,1378,967,0,0
161,57,0,0,0,0,0,0,0,0,0,-1,1385,967,0,0
168,57,0,0,0,0,0,0,0,0,0,-1,1392,967,0,0
175,57,0,0,0,0,0,0,0,0,0,-1,1399,967,0,0
182,57,0,0,0,0,0,0,0,0,0,-1,1406,967,0,0
189,57,0,0,0,0,0,0,0,0,0,-1,1413,967,0,0
196,57,0,0,0,0,0,0,0,0,0,-1,1420,967,0,0
203,57,0,0,0,0,0,0,0,0,0,-1,1427,967,0,0
210,57,0,0,0,0,0,0,0,0,0,-1,1434,967,0,0
217,57,0,0,0,0,0,0,0,0,0,-1,1441,967,0,0
224,57,0,0,0,0,0,0,0,0,0,-1,1448,967,0,0
231,57,0,0,0,0,0,0,0,0,0,-1,1455,967,0,0
238,57,0,0,0,0,0,0,0,0,0,-1,1462,967,0,0
245,57,0,0,0,0,0,0,0,0,0,-1,1469,967,0,0
252,57,0,0,0,0,0,0,0,0,0,-1,1476,967,0,0
259,57,0,0,0,0,0,0,0,0,0,-1,1483,967,0,0
266,57,0,0,0,0,0,0,0,0,0,-1,1490,967,0,0
273,57,0,0,0,0,0,0,0,0,0,-1,1497,967,0,0
280,57,0,0,0,0,0,0,0,0,0,-1,1504,967,0,0
287,57,0,0,0,0,0,0,0,0,0,-1,1511,967,0,0
294,57,0,0,0,0,0,0,0,0,0,-1,1518,967,0,0
301,57,0,0,0,0,0,0,0,0,0,-1,1525,967,0,0
308,57,0,0,0,0,0,0,0,0,0,-1,1532,967,0,0
315,57,0,0,0,0,0,0,0,0,0,-1,1539,967,0,0
322,57,0,0,0,0,0,0,0,0,0,-1,1546,967,0,0
329,57,0,0,0,0,0,0,0,0,0,-1,1553,967,0,0
336,57,0,0,0,0,0,0,0,0,0,-1,1560,967,0,0
343,57,0,0,0,0,0,0,0,0,0,-1,1567,967,0,0
350,57,0,0,0,0,0,0,0,0,0,-1,1574,967,0,0
357,57,0,0,0,0,0,0,0,0,0,-1,1581,967,0,0
364,57,0,0,0,0,0,0,0,0,0,-1,1588,967,0,0
371,57,0,0,0,0,0,0,0,0,0,-1,1595,967,0,0
378,57,0,0,0,0,0,0,0,0,0,-1,1602,967,0,0
385,57,0,0,0,0,0,0,0,0,0,-1,1609,967,0,0
392,57,0,0,0,0,0,0,0,0,0,-1,1616,967,0,0
399,57,0,0,0,0,0,0,0,0,0,-1,1623,967,0,0
406,57,0,0,0,0,0,0,0,0,0,-1,1630,967,0,0
413,57,0,0,0,0,0,0,0,0,0,-1,1637,967,0,0
420,57,0,0,0,0,0,0,0,0,0,-1,1644,967,0,0
427,57,0,0,0,0,0,0,0,0,0,-1,1651,967,0,0
434,57,0,0,0,0,0,0,0,0,0,-1,1658,967,0,0
441,57,0,0,0,0,0,0,0,0,0,-1,1665,967,0,0
448,57,0,0,0,0,0,0,0,0,0,-1,1672,967,0,0
455,57,0,0,0,0,0,0,0,0,0,-1,1679,967,0,0
462,57,0,0,0,0,0,0,0,0,0,-1,1686,967,0,0
469,57,0,0,0,0,0,0,0,0,0,-1,1693,967,0,0
476,57,0,0,0,0,0,0,0,0,0,-1,1700,967,0,0
483,57,0,0,0,0,0,0,0,0,0,-1,1707,967,0,0
490,57,0,0,0,0,0,0,0,0,0,-1,1714,967,0,0
497,57,0,0,0,0,0,0,0,0,0,-1,1721,967,0,0
504,57,0,0,0,0,0,0,0,0,0,-1,1728,967,0,0
511,57,0,0,0,0,0,0,0,0,0,-1,1735,967,0,0
518,57,0,0,0,0,0,0,0,0,0,-1,1742,967,0,0
525,57,0,0,0,0,0,0,0,0,0,-1,1749,967,0,0
532,57,0,0,0,0,0,0,0,0,0,-1,1756,967,0,0
539,57,0,0,0,0,0,0,0,0,0,-1,1763,967,0,0
546,57,0,0,0,0,0,0,0,0,0,-1,1770,967,0,0
553,57,0,0,0,0,0,0,0,0,0,-1,1777,967,0,0
560,57,0,0,0,0,0,0,0,0,0,-1,1784,967,0,0
567,57,0,0,0,0,0,0,0,0,0,-1,1791,967,0,0
574,57,0,0,0,0,0,0,0,0,0,-1,1798,967,0,0
581,57,0,0,0,0,0,0,0,0,0,-1,1805,967,0,0
588,57,0,0,0,0,0,0,0,0,0,-1,1812,967,0,0
595,57,0,0,0,0,0,0,0,0,0,-1,1819,967,0,0
602,57,0,0,0,0,0,0,0,0,0,-1,1826,967,0,0
609,57,0,0,0,0,0,0,0,0,0,-1,1833,967,0,0
616,57,0,0,0,0,0,0,0,0,0,-1,1840,967,0,0
623,57,0,0,0,0,0,0,0,0,0,-1,1847,967,0,0
630,57,0,0,0,0,0,0,0,0,0,-1,1854,967,0,0
637,57,0,0,0,0,0,0,0,0,0,-1,1861,967,0,0
644,57,75.285,2.11652,0.00190126,-0.00119958,-0.00183046,0.00274967,-0.00204799,-0.434021,0.00277979,0.0426876,1868,967,75.2851,-2.1165
651,57,75.2969,2.1452,0.00109064,-0.000914558,-0.00111181,0.00158515,-0.00140907,-0.418503,0.00172971,0.0362157,1875,967,75.2969,-2.14519
658,57,75.3223,2.15198,0.000812049,-0.000514978,-0.000380184,0.000913251,-0.00061618,-0.26016,0.000888552,0.034778,1882,967,75.3223,-2.15199
665,57,75.3212,2.04034,0.000838882,-9.8297e-05,0.000203622,0.000881212,-0.000140626,0.204963,0.000639525,0.040109,1889,967,75.3212,-2.04037
672,57,75.4247,2.00562,0.000684784,0.000165037,0.000793028,0.00125943,-0.000409613,0.627063,0.0010044,0.0435351,1896,967,75.4247,-2.0056
679,57,75.5504,2.00208,0.000522721,-3.65468e-05,0.00127748,0.00155081,-0.00106464,0.67765,0.0015187,0.0404765,1903,967,75.5505,-2.0021
686,57,75.3569,2.00525,0.000504812,-0.000413281,0.00141358,0.00153201,-0.00144048,0.6284,0.00171644,0.0375775,1910,967,75.357,-2.00525
693,57,75.2186,1.98706,0.000178651,-0.000714554,0.00135669,0.00116035,-0.00169626,0.626391,0.00165891,0.0313686,1917,967,75.2187,-1.98706
700,57,75.3124,2.10083,-0.000309011,-0.000742907,0.0011206,0.000615447,-0.00166736,0.689781,0.00136383,0.0310836,1924,967,75.3123,-2.10081
707,57,75.5331,2.27454,0,0,0,0,0,0,0,-1,1931,967,75.533,-2.27452
714,57,72.0231,3.23383,0,0,0,0,0,0,0,-1,1938,967,72.023,-3.23382
721,57,73.9786,5.27954,0,0,0,0,0,0,0,-1,1945,967,73.9786,-5.27951
728,57,73.615,5.99231,-0.00332064,0.00261594,-0.000562257,0.00266872,-0.00337343,-1.47719,0.00349634,0.0252468,1952,967,73.615,-5.9923
735,57,73.6296,6.48169,-0.00319615,0.00453622,-0.000827494,0.00462379,-0.00328372,-1.46537,0.0045872,0.0326884,1959,967,73.6296,-6.48171
742,57,73.6625,6.84045,-0.00329987,0.00737106,-0.00113101,0.00748961,-0.00341843,-1.46635,0.00644232,0.0249141,1966,967,73.6625,-6.84044
749,57,73.5931,7.30823,-0.00334629,0.0109761,-0.00128383,0.0110903,-0.00346045,-1.4821,0.00877742,0.0171413,1973,967,73.5931,-7.30826
756,57,73.5046,7.7356,-0.00260645,0.0161518,-0.000964806,0.0162013,-0.00265595,-1.51954,0.0117864,0.0136294,1980,967,73.5046,-7.73562
763,57,73.386,8.15143,-0.000251738,0.023183,0.00023408,0.0231853,-0.000254076,1.56081,0.0155423,0.0144536,1987,967,73.3859,-8.15144
770,57,73.2339,8.49408,0.00360017,0.0311117,0.00211929,0.031274,0.00343787,1.49436,0.0198031,0.0140818,1994,967,73.2338,-8.49407
777,57,73.1528,8.93805,0.00840644,0.0395513,0.00494529,0.0403177,0.00764007,1.41705,0.0247284,0.0309279,2001,967,73.1527,-8.93802
784,57,73.0686,9.42242,0,0,0,0,0,0,0,-1,2008,967,73.0686,-9.4224
791,57,72.1709,9.83026,0,0,0,0,0,0,0,-1,2015,967,72.171,-9.83024
798,57,73.5361,10.7311,0,0,0,0,0,0,0,-1,2022,967,73.5362,-10.7311
805,57,72.4939,10.9913,0,0,0,0,0,0,0,-1,2029,967,72.4939,-10.9913
812,57,0,0,0,0,0,0,0,0,0,-1,2036,967,0,0
-700,50,0,0,0,0,0,0,0,0,0,-1,524,974,0,0
-693,50,-54.0315,0.366699,0,0,0,0,0,0,0,-1,531,974,-54.0315,-0.366708
-686,50,-74.1836,-2.89618,0,0,0,0,0,0,0,-1,538,974,-74.1836,2.89617
-679,50,-52.8586,4.81293,0,0,0,0,0,0,0,-1,545,974,-52.8586,-4.81296
-672,50,-57.1591,3.89862,0,0,0,0,0,0,0,-1,552,974,-57.1591,-3.89863
-665,50,-59.9923,5.35925,0,0,0,0,0,0,0,-1,559,974,-59.9923,-5.35923
-658,50,-57.9793,7.6366,0,0,0,0,0,0,0,-1,566,974,-57.9793,-7.63661
-651,50,-58.2928,7.39459,0.0111848,0.0232646,0.0344817,0.0522314,-0.017782,0.8721,0.0420217,0.0481851,573,974,-58.2928,-7.39458
-644,50,-58.5068,7.23785,0.00322219,0.0223226,0.0251847,0.039707,-0.0141623,0.966625,0.032246,0.0345511,580,974,-58.5068,-7.23783
-637,50,-58.6802,6.9577,-0.00177244,0.0199365,0.0182083,0.0302801,-0.0121161,1.05418,0.0252152,0.0198386,587,974,-58.6802,-6.95769
-630,50,-58.7891,6.67468,-0.00575107,0.0166684,0.0121156,0.0219646,-0.0110473,1.15869,0.0194037,0.0117875,594,974,-58.7891,-6.67469
-623,50,-58.8207,6.39209,-0.00751997,0.0126561,0.00805788,0.0154792,-0.0103431,1.2338,0.0150065,0.0132407,601,974,-58.8207,-6.39211
-616,50,-58.8339,6.06049,-0.00700225,0.00819344,0.00597347,0.0102605,-0.00906927,1.23766,0.0111671,0.0138201,608,974,-58.8338,-6.06049
-609,50,-58.8394,5.63562,-0.00629928,0.00469547,0.00470221,0.00643218,-0.00803598,1.217,0.00837029,0.012513,615,974,-58.8394,-5.63563
-602,50,-58.8461,5.21442,-0.00563888,0.00229349,0.00383779,0.00384629,-0.00719169,1.18632,0.00646961,0.0124419,622,974,-58.8462,-5.21444
-595,50,-58.8685,4.82733,-0.00485894,0.000531675,0.00316517,0.00199365,-0.00632091,1.1381,0.00501244,0.0173215,629,974,-58.8685,-4.82735
-588,50,-58.8489,4.21649,0,0,0,0,0,0,0,-1,636,974,-58.8489,-4.2165
-581,50,-59.097,1.63458,0,0,0,0,0,0,0,-1,643,974,-59.097,-1.63458
-574,50,-59.202,-0.598267,0,0,0,0,0,0,0,-1,650,974,-59.202,0.598238
-567,50,-59.2444,0.142944,-0.00306064,-0.0036101,0.000839191,-0.00245236,-0.00421839,0.627208,0.00244621,0.0367949,657,974,-59.2444,-0.142925
-560,50,-59.1902,0.0116577,-0.00284682,-0.00348973,0.000394893,-0.00265908,-0.00367747,0.443777,0.00219249,0.0415068,664,974,-59.1902,-0.0116511
-553,50,-59.2704,-0.00286865,-0.00257105,-0.00304431,-0.000104496,-0.00254901,-0.00306636,-0.207925,0.00189547,0.0387917,671,974,-59.2704,0.00285353
-546,50,-59.2801,0.361084,0,0,0,0,0,0,0,-1,678,974,-59.2801,-0.361099
-539,50,-59.2058,0.453125,0,0,0,0,0,0,0,-1,685,974,-59.2058,-0.453103
-532,50,-59.0146,0.445679,0,0,0,0,0,0,0,-1,692,974,-59.0146,-0.445684
-525,50,-59.3355,0.185547,0,0,0,0,0,0,0,-1,699,974,-59.3355,-0.185551
-518,50,0,0,0,0,0,0,0,0,0,-1,706,974,0,0
-511,50,0,0,0,0,0,0,0,0,0,-1,713,974,0,0
-504,50,0,0,0,0,0,0,0,0,0,-1,720,974,0,0
-497,50,0,0,0,0,0,0,0,0,0,-1,727,974,0,0
-490,50,0,0,0,0,0,0,0,0,0,-1,734,974,0,0
-483,50,0,0,0,0,0,0,0,0,0,-1,741,974,0,0
-476,50,0,0,0,0,0,0,0,0,0,-1,748,974,0,0
-469,50,0,0,0,0,0,0,0,0,0,-1,755,974,0,0
-462,50,0,0,0,0,0,0,0,0,0,-1,762,974,0,0
-455,50,0,0,0,0,0,0,0,0,0,-1,769,974,0,0
-448,50,0,0,0,0,0,0,0,0,0,-1,776,974,0,0
-441,50,0,0,0,0,0,0,0,0,0,-1,783,974,0,0
-434,50,0,0,0,0,0,0,0,0,0,-1,790,974,0,0
-427,50,0,0,0,0,0,0,0,0,0,-1,797,974,0,0
-420,50,0,0,0,0,0,0,0,0,0,-1,804,974,0,0
-413,50,0,0,0,0,0,0,0,0,0,-1,811,974,0,0
-406,50,0,0,0,0,0,0,0,0,0,-1,818,974,0,0
-399,50,0,0,0,0,0,0,0,0,0,-1,825,974,0,0
-392,50,0,0,0,0,0,0,0,0,0,-1,832,974,0,0
-385,50,0,0,0,0,0,0,0,0,0,-1,839,974,0,0
-378,50,0,0,0,0,0,0,0,0,0,-1,846,974,0,0
-371,50,0,0,0,0,0,0,0,0,0,-1,853,974,0,0
-364,50,0,0,0,0,0,0,0,0,0,-1,860,974,0,0
-357,50,0,0,0,0,0,0,0,0,0,-1,867,974,0,0
-350,50,0,0,0,0,0,0,0,0,0,-1,874,974,0,0
-343,50,0,0,0,0,0,0,0,0,0,-1,881,974,0,0
-336,50,0,0,0,0,0,0,0,0,0,-1,888,974,0,0
-329,50,0,0,0,0,0,0,0,0,0,-1,895,974,0,0
-322,50,0,0,0,0,0,0,0,0,0,-1,902,974,0,0
-315,50,0,0,0,0,0,0,0,0,0,-1,909,974,0,0
-308,50,0,0,0,0,0,0,0,0,0,-1,916,974,0,0
-301,50,0,0,0,0,0,0,0,0,0,-1,923,974,0,0
-294,50,0,0,0,0,0,0,0,0,0,-1,930,974,0,0
-287,50,0,0,0,0,0,0,0,0,0,-1,937,974,0,0
-280,50,0,0,0,0,0,0,0,0,0,-1,944,974,0,0
-273,50,0,0,0,0,0,0,0,0,0,-1,951,974,0,0
-266,50,0,0,0,0,0,0,0,0,0,-1,958,974,0,0
-259,50,0,0,0,0,0,0,0,0,0,-1,965,974,0,0
-252,50,0,0,0,0,0,0,0,0,0,-1,972,974,0,0
-245,50,0,0,0,0,0,0,0,0,0,-1,979,974,0,0
-238,50,0,0,0,0,0,0,0,0,0,-1,986,974,0,0
-231,50,0,0,0,0,0,0,0,0,0,-1,993,974,0,0
-224,50,0,0,0,0,0,0,0,0,0,-1,1000,974,0,0
-217,50,0,0,0,0,0,0,0,0,0,-1,1007,974,0,0
-210,50,0,0,0,0,0,0,0,0,0,-1,1014,974,0,0
-203,50,0,0,0,0,0,0,0,0,0,-1,1021,974,0,0
-196,50,0,0,0,0,0,0,0,0,0,-1,1028,974,0,0
-189,50,0,0,0,0,0,0,0,0,0,-1,1035,974,0,0
-182,50,0,0,0,0,0,0,0,0,0,-1,1042,974,0,0
-175,50,0,0,0,0,0,0,0,0,0,-1,1049,974,0,0
-168,50,0,0,0,0,0,0,0,0,0,-1,1056,974,0,0
-161,50,0,0,0,0,0,0,0,0,0,-1,1063,974,0,0
-154,50,0,0,0,0,0,0,0,0,0,-1,1070,974,0,0
-147,50,0,0,0,0,0,0,0,0,0,-1,1077,974,0,0
-140,50,0,0,0,0,0,0,0,0,0,-1,1084,974,0,0
-133,50,0,0,0,0,0,0,0,0,0,-1,1091,974,0,0
-126,50,0,0,0,0,0,0,0,0,0,-1,1098,974,0,0
-119,50,0,0,0,0,0,0,0,0,0,-1,1105,974,0,0
-112,50,0,0,0,0,0,0,0,0,0,-1,1112,974,0,0
-105,50,0,0,0,0,0,0,0,0,0,-1,1119,974,0,0
-98,50,0,0,0,0,0,0,0,0,0,-1,1126,974,0,0
-91,50,0,0,0,0,0,0,0,0,0,-1,1133,974,0,0
-84,50,0,0,0,0,0,0,0,0,0,-1,1140,974,0,0
-77,50,0,0,0,0,0,0,0,0,0,-1,1147,974,0,0
-70,50,0,0,0,0,0,0,0,0,0,-1,1154,974,0,0
-63,50,0,0,0,0,0,0,0,0,0,-1,1161,974,0,0
-56,50,0,0,0,0,0,0,0,0,0,-1,1168,974,0,0
-49,50,0,0,0,0,0,0,0,0,0,-1,1175,974,0,0
-42,50,0,0,0,0,0,0,0,0,0,-1,1182,974,0,0
-35,50,0,0,0,0,0,0,0,0,0,-1,1189,974,0,0
-28,50,0,0,0,0,0,0,0,0,0,-1,1196,974,0,0
-21,50,0,0,0,0,0,0,0,0,0,-1,1203,974,0,0
-14,50,0,0,0,0,0,0,0,0,0,-1,1210,974,0,0
-7,50,0,0,0,0,0,0,0,0,0,-1,1217,974,0,0
0,50,0,0,0,0,0,0,0,0,0,-1,1224,974,0,0
7,50,0,0,0,0,0,0,0,0,0,-1,1231,974,0,0
14,50,0,0,0,0,0,0,0,0,0,-1,1238,974,0,0
21,50,0,0,0,0,0,0,0,0,0,-1,1245,974,0,0
28,50,0,0,0,0,0,0,0,0,0,-1,1252,974,0,0
35,50,0,0,0,0,0,0,0,0,0,-1,1259,974,0,0
42,50,0,0,0,0,0,0,0,0,0,-1,1266,974,0,0
49,50,0,0,0,0,0,0,0,0,0,-1,1273,974,0,0
56,50,0,0,0,0,0,0,0,0,0,-1,1280,974,0,0
63,50,0,0,0,0,0,0,0,0,0,-1,1287,974,0,0
70,50,0,0,0,0,0,0,0,0,0,-1,1294,974,0,0
77,50,0,0,0,0,0,0,0,0,0,-1,1301,974,0,0
84,50,0,0,0,0,0,0,0,0,0,-1,1308,974,0,0
91,50,0,0,0,0,0,0,0,0,0,-1,1315,974,0,0
98,50,0,0,0,0,0,0,0,0,0,-1,1322,974,0,0
105,50,0,0,0,0,0,0,0,0,0,-1,1329,974,0,0
112,50,0,0,0,0,0,0,0,0,0,-1,1336,974,0,0
119,50,0,0,0,0,0,0,0,0,0,-1,1343,974,0,0
126,50,0,0,0,0,0,0,0,0,0,-1,1350,974,0,0
133,50,0,0,0,0,0,0,0,0,0,-1,1357,974,0,0
140,50,0,0,0,0,0,0,0,0,0,-1,1364,974,0,0
147,50,0,0,0,0,0,0,0,0,0,-1,1371,974,0,0
154,50,0,0,0,0,0,0,0,0,0,-1,1378,974,0,0
161,50,0,0,0,0,0,0,0,0,0,-1,1385,974,0,0
168,50,0,0,0,0,0,0,0,0,0,-1,1392,974,0,0
175,50,0,0,0,0,0,0,0,0,0,-1,1399,974,0,0
182,50,0,0,0,0,0,0,0,0,0,-1,1406,974,0,0
189,50,0,0,0,0,0,0,0,0,0,-1,1413,974,0,0
196,50,0,0,0,0,0,0,0,0,0,-1,1420,974,0,0
203,50,0,0,0,0,0,0,0,0,0,-1,1427,974,0,0
210,50,0,0,0,0,0,0,0,0,0,-1,1434,974,0,0
217,50,0,0,0,0,0,0,0,0,0,-1,1441,974,0,0
224,50,0,0,0,0,0,0,0,0,0,-1,1448,974,0,0
231,50,0,0,0,0,0,0,0,0,0,-1,1455,974,0,0
238,50,0,0,0,0,0,0,0,0,0,-1,1462,974,0,0
245,50,0,0,0,0,0,0,0,0,0,-1,1469,974,0,0
252,50,0,0,0,0,0,0,0,0,0,-1,1476,974,0,0
259,50,0,0,0,0,0,0,0,0,0,-1,1483,974,0,0
266,50,0,0,0,0,0,0,0,0,0,-1,1490,974,0,0
273,50,0,0,0,0,0,0,0,0,0,-1,1497,974,0,0
280,50,0,0,0,0,0,0,0,0,0,-1,1504,974,0,0
287,50,0,0,0,0,0,0,0,0,0,-1,1511,974,0,0
294,50,0,0,0,0,0,0,0,0,0,-1,1518,974,0,0
301,50,0,0,0,0,0,0,0,0,0,-1,1525,974,0,0
308,50,0,0,0,0,0,0,0,0,0,-1,1532,974,0,0
315,50,0,0,0,0,0,0,0,0,0,-1,1539,974,0,0
322,50,0,0,0,0,0,0,0,0,0,-1,1546,974,0,0
329,50,0,0,0,0,0,0,0,0,0,-1,1553,974,0,0
336,50,0,0,0,0,0,0,0,0,0,-1,1560,974,0,0
343,50,0,0,0,0,0,0,0,0,0,-1,1567,974,0,0
350,50,0,0,0,0,0,0,0,0,0,-1,1574,974,0,0
357,50,0,0,0,0,0,0,0,0,0,-1,1581,974,0,0
364,50,0,0,0,0,0,0,0,0,0,-1,1588,974,0,0
371,50,0,0,0,0,0,0,0,0,0,-1,1595,974,0,0
378,50,0,0,0,0,0,0,0,0,0,-1,1602,974,0,0
385,50,0,0,0,0,0,0,0,0,0,-1,1609,974,0,0
392,50,0,0,0,0,0,0,0,0,0,-1,1616,974,0,0
399,50,0,0,0,0,0,0,0,0,0,-1,1623,974,0,0
406,50,0,0,0,0,0,0,0,0,0,-1,1630,974,0,0
413,50,0,0,0,0,0,0,0,0,0,-1,1637,974,0,0
420,50,0,0,0,0,0,0,0,0,0,-1,1644,974,0,0
427,50,0,0,0,0,0,0,0,0,0,-1,1651,974,0,0
434,50,0,0,0,0,0,0,0,0,0,-1,1658,974,0,0
441,50,0,0,0,0,0,0,0,0,0,-1,1665,974,0,0
448,50,0,0,0,0,0,0,0,0,0,-1,1672,974,0,0
455,50,0,0,0,0,0,0,0,0,0,-1,1679,974,0,0
462,50,0,0,0,0,0,0,0,0,0,-1,1686,974,0,0
469,50,0,0,0,0,0,0,0,0,0,-1,1693,974,0,0
476,50,0,0,0,0,0,0,0,0,0,-1,1700,974,0,0
483,50,0,0,0,0,0,0,0,0,0,-1,1707,974,0,0
490,50,0,0,0,0,0,0,0,0,0,-1,1714,974,0,0
497,50,0,0,0,0,0,0,0,0,0,-1,1721,974,0,0
504,50,0,0,0,0,0,0,0,0,0,-1,1728,974,0,0
511,50,0,0,0,0,0,0,0,0,0,-1,1735,974,0,0
518,50,0,0,0,0,0,0,0,0,0,-1,1742,974,0,0
525,50,0,0,0,0,0,0,0,0,0,-1,1749,974,0,0
532,50,0,0,0,0,0,0,0,0,0,-1,1756,974,0,0
539,50,0,0,0,0,0,0,0,0,0,-1,1763,974,0,0
546,50,0,0,0,0,0,0,0,0,0,-1,1770,974,0,0
553,50,0,0,0,0,0,0,0,0,0,-1,1777,974,0,0
560,50,0,0,0,0,0,0,0,0,0,-1,1784,974,0,0
567,50,0,0,0,0,0,0,0,0,0,-1,1791,974,0,0
574,50,0,0,0,0,0,0,0,0,0,-1,1798,974,0,0
581,50,0,0,0,0,0,0,0,0,0,-1,1805,974,0,0
588,50,0,0,0,0,0,0,0,0,0,-1,1812,974,0,0
595,50,0,0,0,0,0,0,0,0,0,-1,1819,974,0,0
602,50,0,0,0,0,0,0,0,0,0,-1,1826,974,0,0
609,50,0,0,0,0,0,0,0,0,0,-1,1833,974,0,0
616,50,0,0,0,0,0,0,0,0,0,-1,1840,974,0,0
623,50,0,0,0,0,0,0,0,0,0,-1,1847,974,0,0
630,50,0,0,0,0,0,0,0,0,0,-1,1854,974,0,0
637,50,0,0,0,0,0,0,0,0,0,-1,1861,974,0,0
644,50,75.2656,2.25873,0.00151827,-0.00133853,-0.00242806,0.00290693,-0.00272719,-0.519517,0.00325341,0.0392399,1868,974,75.2657,-2.25875
651,50,75.1964,2.07343,0.000858926,-0.000992941,-0.00152974,0.00172113,-0.00185515,-0.513248,0.00206525,0.0339104,1875,974,75.1964,-2.07343
658,50,75.2529,2.11761,0.000693337,-0.000585953,-0.000700466,0.00100227,-0.000894885,-0.415376,0.00109591,0.0365908,1882,974,75.2529,-2.11764
665,50,75.326,2.01355,0.000825649,-0.000205784,-7.66245e-05,0.00083131,-0.000211445,-0.0737499,0.000636505,0.0410787,1889,974,75.3261,-2.01355
672,50,75.4276,1.94415,0.000821086,7.29088e-05,0.00051775,0.00108575,-0.000191757,0.472555,0.000795495,0.0423968,1896,974,75.4276,-1.94413
679,50,75.4163,2.04797,0.000802151,-7.57199e-05,0.00101264,0.00146689,-0.000740461,0.580892,0.00129722,0.0404358,1903,974,75.4163,-2.04795
686,50,75.3143,2.02057,0.00088957,-0.000437462,0.00120391,0.0016007,-0.00114859,0.533542,0.00159444,0.0405644,1910,974,75.3143,-2.02055
693,50,75.2175,2.04449,0.000669951,-0.000768903,0.00120518,0.0013541,-0.00145305,0.516312,0.00162104,0.0361046,1917,974,75.2175,-2.04452
700,50,75.2324,2.13318,0.000269719,-0.000819665,0.00101027,0.000872775,-0.00142272,0.538158,0.00133792,0.0245371,1924,974,75.2325,-2.13315
707,50,75.3463,2.1377,-0.000306621,-0.000473919,0.000622428,0.000237753,-0.00101829,0.718603,0.000770441,0.0413401,1931,974,75.3463,-2.13769
714,50,75.204,2.15088,0,0,0,0,0,0,0,-1,1938,974,75.2039,-2.15089
721,50,74.0809,5.60425,0,0,0,0,0,0,0,-1,1945,974,74.0809,-5.60426
728,50,74.135,6.02948,-0.00309994,0.00273473,-0.000537301,0.0027838,-0.003149,-1.47973,0.00342747,0.0209755,1952,974,74.135,-6.0295
735,50,74.161,6.45636,-0.00330884,0.00471513,-0.000766701,0.00478774,-0.00338144,-1.47638,0.00473971,0.022685,1959,974,74.1609,-6.45638
742,50,74.1437,6.91064,-0.00384503,0.00752546,-0.000979131,0.00760915,-0.00392873,-1.48552,0.00677342,0.0184178,1966,974,74.1437,-6.91064
749,50,74.078,7.26941,-0.00445542,0.0110829,-0.0010927,0.0111594,-0.00453188,-1.50093,0.00932482,0.0186028,1973,974,74.078,-7.26939
756,50,73.9812,7.63434,-0.00432415,0.0162338,-0.00101305,0.0162836,-0.00437395,-1.52168,0.01257,0.0159635,1980,974,73.9812,-7.63433
763,50,73.8491,8.01563,-0.00253368,0.0233007,-0.000425948,0.0233077,-0.0025407,-1.55431,0.0164509,0.0159736,1987,974,73.8492,-8.01563
770,50,73.7209,8.3302,0.000924534,0.0315358,0.000700253,0.0315518,0.000908524,1.54794,0.0207383,0.0154329,1994,974,73.7209,-8.33018
777,50,73.7153,8.72711,0.00578877,0.0403734,0.00224161,0.0405181,0.00564408,1.50634,0.0253411,0.0279513,2001,974,73.7152,-8.72711
784,50,73.8403,9.28119,0.0134371,0.0498985,0.00419692,0.0503754,0.0129602,1.45766,0.030205,0.0456127,2008,974,73.8404,-9.28118
791,50,73.9609,9.87195,0,0,0,0,0,0,0,-1,2015,974,73.961,-9.87198
798,50,74.7449,10.7426,0,0,0,0,0,0,0,-1,2022,974,74.745,-10.7426
805,50,75.4502,11.3271,0,0,0,0,0,0,0,-1,2029,974,75.4501,-11.3271
812,50,0,0,0,0,0,0,0,0,0,-1,2036,974,0,0
-700,43,0,0,0,0,0,0,0,0,0,-1,524,981,0,0
-693,43,-73.9099,-5.63873,0,0,0,0,0,0,0,-1,531,981,-73.9099,5.63874
-686,43,-73.2479,-2.8576,0,0,0,0,0,0,0,-1,538,981,-73.2479,2.85763
-679,43,-72.5858,-0.0765381,0,0,0,0,0,0,0,-1,545,981,-72.5858,0.0765161
-672,43,-54.7086,-1.5506,0,0,0,0,0,0,0,-1,552,981,-54.7086,1.55062
-665,43,-55.2656,-1.75293,0,0,0,0,0,0,0,-1,559,981,-55.2656,1.75292
-658,43,-58.2841,7.59399,0,0,0,0,0,0,0,-1,566,981,-58.2841,-7.594
-651,43,-58.6121,7.3407,0.00618691,0.026816,0.0340622,0.0520911,-0.0190882,0.932417,0.0425423,0.0457809,573,981,-58.6121,-7.34069
-644,43,-58.9218,7.07605,-0.000761406,0.0251908,0.0241804,0.0396568,-0.0152274,1.03166,0.032717,0.02584,580,981,-58.9218,-7.07603
-637,43,-59.1209,6.78418,-0.0047505,0.0220181,0.0171288,0.0303717,-0.0131041,1.11704,0.0257522,0.0183081,587,981,-59.1209,-6.7842
-630,43,-59.1847,6.55701,-0.00766054,0.0179472,0.0112692,0.0222001,-0.0119135,1.20993,0.0199917,0.014541,594,981,-59.1847,-6.55704
-623,43,-59.2141,6.2998,-0.00852117,0.0132979,0.00750037,0.0156275,-0.0108507,1.26965,0.0153699,0.01362,601,981,-59.2141,-6.29979
-616,43,-59.2277,5.9704,-0.00758957,0.0086302,0.0055462,0.0103453,-0.00930468,1.27088,0.0113502,0.013081,608,981,-59.2277,-5.97038
-609,43,-59.2408,5.59589,-0.00662648,0.00514021,0.00428803,0.00653705,-0.00802331,1.25589,0.00842101,0.0148058,615,981,-59.2408,-5.59588
-602,43,-59.2269,5.25793,-0.0057859,0.00274233,0.00345747,0.00396791,-0.00701148,1.23014,0.00641962,0.0176962,622,981,-59.2269,-5.25793
-595,43,-59.382,4.95398,-0.00492453,0.00102813,0.00287965,0.00219317,-0.00608957,1.18635,0.00495528,0.0199888,629,981,-59.382,-4.95397
-588,43,-59.6929,4.77679,0,0,0,0,0,0,0,-1,636,981,-59.6928,-4.7768
-581,43,-59.2486,0.840393,0,0,0,0,0,0,0,-1,643,981,-59.2486,-0.840399
-574,43,-59.2077,0.168518,-0.00315991,-0.00273475,0.00106833,-0.00185805,-0.00403661,0.883608,0.00233298,0.0278463,650,981,-59.2077,-0.168524
-567,43,-59.1868,0.140259,-0.00289179,-0.00301447,0.000648499,-0.00230174,-0.00360452,0.738244,0.00210754,0.0356577,657,981,-59.1868,-0.140259
-560,43,-59.142,0.0767212,-0.00259644,-0.00285224,0.000228499,-0.00246248,-0.0029862,0.530256,0.00184122,0.0385957,664,981,-59.142,-0.0767484
-553,43,-59.25,0.108215,-0.00226315,-0.0023926,-0.000273727,-0.0020466,-0.00260915,-0.6693,0.00158554,0.038776,671,981,-59.25,-0.108244
-546,43,-59.1761,0.365173,-0.00193412,-0.00197525,-0.000904526,-0.00104993,-0.00285945,-0.774031,0.00167021,0.0441536,678,981,-59.1761,-0.365181
-539,43,-59.1536,0.494202,-0.00188869,-0.00218717,-0.00167978,-0.000351539,-0.00372432,-0.741092,0.00237439,0.0498543,685,981,-59.1536,-0.49423
-532,43,-59.108,0.317505,-0.00181124,-0.00304656,-0.00269766,0.000338566,-0.00519636,-0.672857,0.00358243,0.0470324,692,981,-59.108,-0.317533
-525,43,-59.169,0.097168,0,0,0,0,0,0,0,-1,699,981,-59.169,-0.0971693
-518,43,0,0,0,0,0,0,0,0,0,-1,706,981,0,0
-511,43,0,0,0,0,0,0,0,0,0,-1,713,981,0,0
-504,43,0,0,0,0,0,0,0,0,0,-1,720,981,0,0
-497,43,0,0,0,0,0,0,0,0,0,-1,727,981,0,0
-490,43,0,0,0,0,0,0,0,0,0,-1,734,981,0,0
-483,43,0,0,0,0,0,0,0,0,0,-1,741,981,0,0
-476,43,0,0,0,0,0,0,0,0,0,-1,748,981,0,0
-469,43,0,0,0,0,0,0,0,0,0,-1,755,981,0,0
-462,43,0,0,0,0,0,0,0,0,0,-1,762,981,0,0
-455,43,0,0,0,0,0,0,0,0,0,-1,769,981,0,0
-448,43,0,0,0,0,0,0,0,0,0,-1,776,981,0,0
-441,43,0,0,0,0,0,0,0,0,0,-1,783,981,0,0
-434,43,0,0,0,0,0,0,0,0,0,-1,790,981,0,0
-427,43,0,0,0,0,0,0,0,0,0,-1,797,981,0,0
-420,43,0,0,0,0,0,0,0,0,0,-1,804,981,0,0
-413,43,0,0,0,0,0,0,0,0,0,-1,811,981,0,0
-406,43,0,0,0,0,0,0,0,0,0,-1,818,981,0,0
-399,43,0,0,0,0,0,0,0,0,0,-1,825,981,0,0
-392,43,0,0,0,0,0,0,0,0,0,-1,832,981,0,0
-385,43,0,0,0,0,0,0,0,0,0,-1,839,981,0,0
-378,43,0,0,0,0,0,0,0,0,0,-1,846,981,0,0
-371,43,0,0,0,0,0,0,0,0,0,-1,853,981,0,0
-364,43,0,0,0,0,0,0,0,0,0,-1,860,981,0,0
-357,43,0,0,0,0,0,0,0,0,0,-1,867,981,0,0
-350,43,0,0,0,0,0,0,0,0,0,-1,874,981,0,0
-343,43,0,0,0,0,0,0,0,0,0,-1,881,981,0,0
-336,43,0,0,0,0,0,0,0,0,0,-1,888,981,0,0
-329,43,0,0,0,0,0,0,0,0,0,-1,895,981,0,0
-322,43,0,0,0,0,0,0,0,0,0,-1,902,981,0,0
-315,43,0,0,0,0,0,0,0,0,0,-1,909,981,0,0
-308,43,0,0,0,0,0,0,0,0,0,-1,916,981,0,0
-301,43,0,0,0,0,0,0,0,0,0,-1,923,981,0,0
-294,43,0,0,0,0,0,0,0,0,0,-1,930,981,0,0
-287,43,0,0,0,0,0,0,0,0,0,-1,937,981,0,0
-280,43,0,0,0,0,0,0,0,0,0,-1,944,981,0,0
-273,43,0,0,0,0,0,0,0,0,0,-1,951,981,0,0
-266,43,0,0,0,0,0,0,0,0,0,-1,958,981,0,0
-259,43,0,0,0,0,0,0,0,0,0,-1,965,981,0,0
-252,43,0,0,0,0,0,0,0,0,0,-1,972,981,0,0
-245,43,0,0,0,0,0,0,0,0,0,-1,979,981,0,0
-238,43,0,0,0,0,0,0,0,0,0,-1,986,981,0,0
-231,43,0,0,0,0,0,0,0,0,0,-1,993,981,0,0
-224,43,0,0,0,0,0,0,0,0,0,-1,1000,981,0,0
-217,43,0,0,0,0,0,0,0,0,0,-1,1007,981,0,0
-210,43,0,0,0,0,0,0,0,0,0,-1,1014,981,0,0
-203,43,0,0,0,0,0,0,0,0,0,-1,1021,981,0,0
-196,43,0,0,0,0,0,0,0,0,0,-1,1028,981,0,0
-189,43,0,0,0,0,0,0,0,0,0,-1,1035,981,0,0
-182,43,0,0,0,0,0,0,0,0,0,-1,1042,981,0,0
-175,43,0,0,0,0,0,0,0,0,0,-1,1049,981,0,0
-168,43,0,0,0,0,0,0,0,0,0,-1,1056,981,0,0
-161,43,0,0,0,0,0,0,0,0,0,-1,1063,981,0,0
-154,43,0,0,0,0,0,0,0,0,0,-1,1070,981,0,0
-147,43,0,0,0,0,0,0,0,0,0,-1,1077,981,0,0
-140,43,0,0,0,0,0,0,0,0,0,-1,1084,981,0,0
-133,43,0,0,0,0,0,0,0,0,0,-1,1091,981,0,0
-126,43,0,0,0,0,0,0,0,0,0,-1,1098,981,0,0
-119,43,0,0,0,0,0,0,0,0,0,-1,1105,981,0,0
-112,43,0,0,0,0,0,0,0,0,0,-1,1112,981,0,0
-105,43,0,0,0,0,0,0,0,0,0,-1,1119,981,0,0
-98,43,0,0,0,0,0,0,0,0,0,-1,1126,981,0,0
-91,43,0,0,0,0,0,0,0,0,0,-1,1133,981,0,0
-84,43,0,0,0,0,0,0,0,0,0,-1,1140,981,0,0
-77,43,0,0,0,0,0,0,0,0,0,-1,1147,981,0,0
-70,43,0,0,0,0,0,0,0,0,0,-1,1154,981,0,0
-63,43,0,0,0,0,0,0,0,0,0,-1,1161,981,0,0
-56,43,0,0,0,0,0,0,0,0,0,-1,1168,981,0,0
-49,43,0,0,0,0,0,0,0,0,0,-1,1175,981,0,0
-42,43,0,0,0,0,0,0,0,0,0,-1,1182,981,0,0
-35,43,0,0,0,0,0,0,0,0,0,-1,1189,981,0,0
-28,43,0,0,0,0,0,0,0,0,0,-1,1196,981,0,0
-21,43,0,0,0,0,0,0,0,0,0,-1,1203,981,0,0
-14,43,0,0,0,0,0,0,0,0,0,-1,1210,981,0,0
-7,43,0,0,0,0,0,0,0,0,0,-1,1217,981,0,0
0,43,0,0,0,0,0,0,0,0,0,-1,1224,981,0,0
7,43,0,0,0,0,0,0,0,0,0,-1,1231,981,0,0
14,43,0,0,0,0,0,0,0,0,0,-1,1238,981,0,0
21,43,0,0,0,0,0,0,0,0,0,-1,1245,981,0,0
28,43,0,0,0,0,0,0,0,0,0,-1,1252,981,0,0
35,43,0,0,0,0,0,0,0,0,0,-1,1259,981,0,0
42,43,0,0,0,0,0,0,0,0,0,-1,1266,981,0,0
49,43,0,0,0,0,0,0,0,0,0,-1,1273,981,0,0
56,43,0,0,0,0,0,0,0,0,0,-1,1280,981,0,0
63,43,0,0,0,0,0,0,0,0,0,-1,1287,981,0,0
70,43,0,0,0,0,0,0,0,0,0,-1,1294,981,0,0
77,43,0,0,0,0,0,0,0,0,0,-1,1301,981,0,0
84,43,0,0,0,0,0,0,0,0,0,-1,1308,981,0,0
91,43,0,0,0,0,0,0,0,0,0,-1,1315,981,0,0
98,43,0,0,0,0,0,0,0,0,0,-1,1322,981,0,0
105,43,0,0,0,0,0,0,0,0,0,-1,1329,981,0,0
112,43,0,0,0,0,0,0,0,0,0,-1,1336,981,0,0
119,43,0,0,0,0,0,0,0,0,0,-1,1343,981,0,0
126,43,0,0,0,0,0,0,0,0,0,-1,1350,981,0,0
133,43,0,0,0,0,0,0,0,0,0,-1,1357,981,0,0
140,43,0,0,0,0,0,0,0,0,0,-1,1364,981,0,0
147,43,0,0,0,0,0,0,0,0,0,-1,1371,981,0,0
154,43,0,0,0,0,0,0,0,0,0,-1,1378,981,0,0
161,43,0,0,0,0,0,0,0,0,0,-1,1385,981,0,0
168,43,0,0,0,0,0,0,0,0,0,-1,1392,981,0,0
175,43,0,0,0,0,0,0,0,0,0,-1,1399,981,0,0
182,43,0,0,0,0,0,0,0,0,0,-1,1406,981,0,0
189,43,0,0,0,0,0,0,0,0,0,-1,1413,981,0,0
196,43,0,0,0,0,0,0,0,0,0,-1,1420,981,0,0
203,43,0,0,0,0,0,0,0,0,0,-1,1427,981,0,0
210,43,0,0,0,0,0,0,0,0,0,-1,1434,981,0,0
217,43,0,0,0,0,0,0,0,0,0,-1,1441,981,0,0
224,43,0,0,0,0,0,0,0,0,0,-1,1448,981,0,0
231,43,0,0,0,0,0,0,0,0,0,-1,1455,981,0,0
238,43,0,0,0,0,0,0,0,0,0,-1,1462,981,0,0
245,43,0,0,0,0,0,0,0,0,0,-1,1469,981,0,0
252,43,0,0,0,0,0,0,0,0,0,-1,1476,981,0,0
259,43,0,0,0,0,0,0,0,0,0,-1,1483,981,0,0
266,43,0,0,0,0,0,0,0,0,0,-1,1490,981,0,0
273,43,0,0,0,0,0,0,0,0,0,-1,1497,981,0,0
280,43,0,0,0,0,0,0,0,0,0,-1,1504,981,0,0
287,43,0,0,0,0,0,0,0,0,0,-1,1511,981,0,0
294,43,0,0,0,0,0,0,0,0,0,-1,1518,981,0,0
301,43,0,0,0,0,0,0,0,0,0,-1,1525,981,0,0
308,43,0,0,0,0,0,0,0,0,0,-1,1532,981,0,0
315,43,0,0,0,0,0,0,0,0,0,-1,1539,981,0,0
322,43,0,0,0,0,0,0,0,0,0,-1,1546,981,0,0
329,43,0,0,0,0,0,0,0,0,0,-1,1553,981,0,0
336,43,0,0,0,0,0,0,0,0,0,-1,1560,981,0,0
343,43,0,0,0,0,0,0,0,0,0,-1,1567,981,0,0
350,43,0,0,0,0,0,0,0,0,0,-1,1574,981,0,0
357,43,0,0,0,0,0,0,0,0,0,-1,1581,981,0,0
364,43,0,0,0,0,0,0,0,0,0,-1,1588,981,0,0
371,43,0,0,0,0,0,0,0,0,0,-1,1595,981,0,0
378,43,0,0,0,0,0,0,0,0,0,-1,1602,981,0,0
385,43,0,0,0,0,0,0,0,0,0,-1,1609,981,0,0
392,43,0,0,0,0,0,0,0,0,0,-1,1616,981,0,0
399,43,0,0,0,0,0,0,0,0,0,-1,1623,981,0,0
406,43,0,0,0,0,0,0,0,0,0,-1,1630,981,0,0
413,43,0,0,0,0,0,0,0,0,0,-1,1637,981,0,0
420,43,0,0,0,0,0,0,0,0,0,-1,1644,981,0,0
427,43,0,0,0,0,0,0,0,0,0,-1,1651,981,0,0
434,43,0,0,0,0,0,0,0,0,0,-1,1658,981,0,0
441,43,0,0,0,0,0,0,0,0,0,-1,1665,981,0,0
448,43,0,0,0,0,0,0,0,0,0,-1,1672,981,0,0
455,43,0,0,0,0,0,0,0,0,0,-1,1679,981,0,0
462,43,0,0,0,0,0,0,0,0,0,-1,1686,981,0,0
469,43,0,0,0,0,0,0,0,0,0,-1,1693,981,0,0
476,43,0,0,0,0,0,0,0,0,0,-1,1700,981,0,0
483,43,0,0,0,0,0,0,0,0,0,-1,1707,981,0,0
490,43,0,0,0,0,0,0,0,0,0,-1,1714,981,0,0
497,43,0,0,0,0,0,0,0,0,0,-1,1721,981,0,0
504,43,0,0,0,0,0,0,0,0,0,-1,1728,981,0,0
511,43,0,0,0,0,0,0,0,0,0,-1,1735,981,0,0
518,43,0,0,0,0,0,0,0,0,0,-1,1742,981,0,0
525,43,0,0,0,0,0,0,0,0,0,-1,1749,981,0,0
532,43,0,0,0,0,0,0,0,0,0,-1,1756,981,0,0
539,43,0,0,0,0,0,0,0,0,0,-1,1763,981,0,0
546,43,0,0,0,0,0,0,0,0,0,-1,1770,981,0,0
553,43,0,0,0,0,0,0,0,0,0,-1,1777,981,0,0
560,43,0,0,0,0,0,0,0,0,0,-1,1784,981,0,0
567,43,0,0,0,0,0,0,0,0,0,-1,1791,981,0,0
574,43,0,0,0,0,0,0,0,0,0,-1,1798,981,0,0
581,43,0,0,0,0,0,0,0,0,0,-1,1805,981,0,0
588,43,0,0,0,0,0,0,0,0,0,-1,1812,981,0,0
595,43,0,0,0,0,0,0,0,0,0,-1,1819,981,0,0
602,43,0,0,0,0,0,0,0,0,0,-1,1826,981,0,0
609,43,0,0,0,0,0,0,0,0,0,-1,1833,981,0,0
616,43,0,0,0,0,0,0,0,0,0,-1,1840,981,0,0
623,43,0,0,0,0,0,0,0,0,0,-1,1847,981,0,0
630,43,0,0,0,0,0,0,0,0,0,-1,1854,981,0,0
637,43,0,0,0,0,0,0,0,0,0,-1,1861,981,0,0
644,43,75.2589,2.25934,0.00100663,-0.00119233,-0.00285242,0.00296413,-0.00314983,-0.601445,0.00353044,0.0394509,1868,981,75.2589,-2.25936
651,43,75.2394,2.03833,0.000520206,-0.000860349,-0.00184228,0.00179728,-0.00213742,-0.60615,0.00227453,0.0384454,1875,981,75.2394,-2.03834
658,43,75.3365,2.04413,0.000458663,-0.000487104,-0.000953567,0.00105016,-0.0010786,-0.555213,0.00122908,0.0380338,1882,981,75.3365,-2.04414
665,43,75.3575,2.14526,0.000667457,-0.000165858,-0.000316398,0.000773974,-0.000272375,-0.324736,0.000626821,0.0394234,1889,981,75.3575,-2.14524
672,43,75.3158,2.18976,0.000793357,9.68091e-05,0.000254787,0.000876604,1.35612e-05,0.315801,0.000579935,0.0402273,1896,981,75.3158,-2.18975
679,43,75.2324,2.12085,0.000914954,-1.28776e-05,0.000728877,0.00131503,-0.000412952,0.501992,0.00104198,0.0412431,1903,981,75.2324,-2.12084
686,43,75.2267,2.10138,0.00111018,-0.000361828,0.00094765,0.00157407,-0.000825715,0.455224,0.00140779,0.0415621,1910,981,75.2267,-2.10139
693,43,75.2704,2.08923,0.00101934,-0.000727692,0.000990589,0.00146654,-0.00117489,0.424061,0.00152813,0.0371208,1917,981,75.2704,-2.08921
700,43,75.2804,2.09882,0.000727865,-0.000817866,0.000842502,0.0010983,-0.0011883,0.41424,0.00132051,0.0360541,1924,981,75.2805,-2.09882
707,43,75.423,2.02484,0.000117422,-0.000488978,0.000517963,0.000414402,-0.000785958,0.520602,0.000704008,0.0375301,1931,981,75.423,-2.02485
714,43,75.2617,2.0882,0,0,0,0,0,0,0,-1,1938,981,75.2618,-2.08822
721,43,74.4922,5.65991,0,0,0,0,0,0,0,-1,1945,981,74.4922,-5.65993
728,43,74.5404,6.07971,-0.00311747,0.00298173,-0.000554224,0.00303168,-0.00316742,-1.48091,0.00357934,0.0185578,1952,981,74.5404,-6.07974
735,43,74.585,6.50372,-0.0037016,0.00499948,-0.000781219,0.00506907,-0.00377119,-1.48196,0.00512223,0.0151246,1959,981,74.585,-6.50374
742,43,74.551,6.90869,-0.00468637,0.00767751,-0.000951597,0.00775032,-0.00475918,-1.49443,0.00729086,0.0174138,1966,981,74.551,-6.9087
749,43,74.5002,7.25104,-0.00577377,0.0110386,-0.00115589,0.0111177,-0.00585287,-1.50247,0.00995387,0.0202525,1973,981,74.5002,-7.25103
756,43,74.4502,7.54474,-0.00603673,0.015918,-0.00149311,0.016019,-0.00613781,-1.5032,0.0132095,0.0239948,1980,981,74.4502,-7.54475
763,43,74.3599,7.8277,-0.0045171,0.0225659,-0.00172095,0.0226748,-0.00462602,-1.50759,0.0168713,0.0273682,1987,981,74.3598,-7.82767
770,43,74.2,8.21637,-0.00113983,0.0305071,-0.00163132,0.030591,-0.0012237,-1.51943,0.0208139,0.0228698,1994,981,74.2,-8.21634
777,43,74.2668,8.57281,0.00425341,0.0388921,-0.00165818,0.0389713,0.00417422,-1.52307,0.0247072,0.0268275,2001,981,74.2668,-8.57283
784,43,74.3914,9.07043,0.013213,0.0476511,-0.00214098,0.0477837,0.0130804,-1.50894,0.0285139,0.0445713,2008,981,74.3913,-9.07045
791,43,74.4661,9.5802,0.0277393,0.056674,-0.00389879,0.0571902,0.0272231,-1.43918,0.0330314,0.0475936,2015,981,74.4662,-9.58018
798,43,74.8152,9.987,0,0,0,0,0,0,0,-1,2022,981,74.8153,-9.98703
805,43,75.4236,10.5087,0,0,0,0,0,0,0,-1,2029,981,75.4237,-10.5087
812,43,75.9934,10.9659,0,0,0,0,0,0,0,-1,2036,981,75.9934,-10.966
-700,36,0,0,0,0,0,0,0,0,0,-1,524,988,0,0
-693,36,-72.9533,-5.49408,0,0,0,0,0,0,0,-1,531,988,-72.9533,5.49406
-686,36,-72.3343,-2.78955,0,0,0,0,0,0,0,-1,538,988,-72.3343,2.78957
-679,36,-71.7153,-0.085083,0,0,0,0,0,0,0,-1,545,988,-71.7153,0.0850845
-672,36,-55.0911,-1.58173,0,0,0,0,0,0,0,-1,552,988,-55.0911,1.58172
-665,36,-55.481,-1.90393,0,0,0,0,0,0,0,-1,559,988,-55.481,1.90391
-658,36,-58.6095,7.37646,0,0,0,0,0,0,0,-1,566,988,-58.6095,-7.37647
-651,36,-58.9893,7.08911,0.00168736,0.0315419,0.0333374,0.0531414,-0.0199121,0.995895,0.0436077,0.04783,573,988,-58.9893,-7.08913
-644,36,-59.3224,6.79407,-0.00409266,0.0287059,0.0232272,0.0407397,-0.0161265,1.09278,0.0338413,0.0300853,580,988,-59.3224,-6.79409
-637,36,-59.4937,6.5575,-0.00715924,0.0243706,0.0162667,0.0312582,-0.0140469,1.17027,0.0267787,0.0220668,587,988,-59.4937,-6.55752
-630,36,-59.554,6.43781,-0.00902636,0.0191108,0.0106988,0.0227168,-0.0126323,1.24571,0.0206838,0.0163141,594,988,-59.554,-6.43779
-623,36,-59.6053,6.21454,-0.00909737,0.0137646,0.00716752,0.0158259,-0.0111586,1.29077,0.015657,0.0144113,601,988,-59.6053,-6.21455
-616,36,-59.5995,5.95862,-0.00789709,0.00893826,0.00523529,0.0104335,-0.00939231,1.2926,0.0114517,0.0120361,608,988,-59.5995,-5.95862
-609,36,-59.5172,5.70123,-0.00678101,0.0054656,0.00387662,0.00658957,-0.00790498,1.2886,0.00837992,0.0180935,615,988,-59.5171,-5.70125
-602,36,-59.5837,5.34406,-0.00577468,0.00302673,0.00301233,0.00395897,-0.00670692,1.27067,0.00622571,0.0222705,622,988,-59.5838,-5.34404
-595,36,-59.8835,5.05231,-0.0048248,0.00135125,0.00248833,0.00222903,-0.00570259,1.23166,0.00472343,0.0275613,629,988,-59.8835,-5.05232
-588,36,-60.1912,4.88898,0,0,0,0,0,0,0,-1,636,988,-60.1912,-4.88898
-581,36,-59.1882,0.273865,0,0,0,0,0,0,0,-1,643,988,-59.1882,-0.273867
-574,36,-59.174,0.197144,-0.00276992,-0.00242565,0.000769375,-0.00180939,-0.00338618,0.895455,0.00195655,0.0280246,650,988,-59.174,-0.197161
-567,36,-59.1498,0.112366,-0.00243935,-0.0026703,0.000385198,-0.00215269,-0.00295696,0.63977,0.00176538,0.0329394,657,988,-59.1498,-0.112368
-560,36,-59.1128,0.205444,-0.00210439,-0.00247838,2.89636e-06,-0.00210436,-0.0024784,0.00774384,0.00154278,0.036906,664,988,-59.1128,-0.205422
-553,36,-59.1577,0.265442,-0.00178412,-0.00201557,-0.000477604,-0.00140842,-0.00239127,-0.666539,0.00138787,0.042769,671,988,-59.1577,-0.265414
-546,36,-59.1229,0.354858,-0.00156292,-0.00168474,-0.0011125,-0.000509666,-0.002738,-0.758049,0.00168139,0.0469381,678,988,-59.1229,-0.354879
-539,36,-59.2148,0.513062,-0.00180351,-0.00208614,-0.00190751,-3.20909e-05,-0.00385756,-0.748424,0.00256108,0.0470545,685,988,-59.2148,-0.513077
-532,36,-59.3206,0.440674,-0.00182856,-0.00302886,-0.00297455,0.000605779,-0.0054632,-0.685854,0.00385994,0.0460468,692,988,-59.3206,-0.44069
-525,36,-59.2268,0.277893,-0.00198541,-0.00380172,-0.00448342,0.00168091,-0.00746804,-0.685471,0.00562337,0.046545,699,988,-59.2268,-0.277886
-518,36,0,0,0,0,0,0,0,0,0,-1,706,988,0,0
-511,36,0,0,0,0,0,0,0,0,0,-1,713,988,0,0
-504,36,0,0,0,0,0,0,0,0,0,-1,720,988,0,0
-497,36,0,0,0,0,0,0,0,0,0,-1,727,988,0,0
-490,36,0,0,0,0,0,0,0,0,0,-1,734,988,0,0
-483,36,0,0,0,0,0,0,0,0,0,-1,741,988,0,0
-476,36,0,0,0,0,0,0,0,0,0,-1,748,988,0,0
-469,36,0,0,0,0,0,0,0,0,0,-1,755,988,0,0
-462,36,0,0,0,0,0,0,0,0,0,-1,762,988,0,0
-455,36,0,0,0,0,0,0,0,0,0,-1,769,988,0,0
-448,36,0,0,0,0,0,0,0,0,0,-1,776,988,0,0
-441,36,0,0,0,0,0,0,0,0,0,-1,783,988,0,0
-434,36,0,0,0,0,0,0,0,0,0,-1,790,988,0,0
-427,36,0,0,0,0,0,0,0,0,0,-1,797,988,0,0
-420,36,0,0,0,0,0,0,0,0,0,-1,804,988,0,0
-413,36,0,0,0,0,0,0,0,0,0,-1,811,988,0,0
-406,36,0,0,0,0,0,0,0,0,0,-1,818,988,0,0
-399,36,0,0,0,0,0,0,0,0,0,-1,825,988,0,0
-392,36,0,0,0,0,0,0,0,0,0,-1,832,988,0,0
-385,36,0,0,0,0,0,0,0,0,0,-1,839,988,0,0
-378,36,0,0,0,0,0,0,0,0,0,-1,846,988,0,0
-371,36,0,0,0,0,0,0,0,0,0,-1,853,988,0,0
-364,36,0,0,0,0,0,0,0,0,0,-1,860,988,0,0
-357,36,0,0,0,0,0,0,0,0,0,-1,867,988,0,0
-350,36,0,0,0,0,0,0,0,0,0,-1,874,988,0,0
-343,36,0,0,0,0,0,0,0,0,0,-1,881,988,0,0
-336,36,0,0,0,0,0,0,0,0,0,-1,888,988,0,0
-329,36,0,0,0,0,0,0,0,0,0,-1,895,988,0,0
-322,36,0,0,0,0,0,0,0,0,0,-1,902,988,0,0
-315,36,0,0,0,0,0,0,0,0,0,-1,909,988,0,0
-308,36,0,0,0,0,0,0,0,0,0,-1,916,988,0,0
-301,36,0,0,0,0,0,0,0,0,0,-1,923,988,0,0
-294,36,0,0,0,0,0,0,0,0,0,-1,930,988,0,0
-287,36,0,0,0,0,0,0,0,0,0,-1,937,988,0,0
-280,36,0,0,0,0,0,0,0,0,0,-1,944,988,0,0
-273,36,0,0,0,0,0,0,0,0,0,-1,951,988,0,0
-266,36,0,0,0,0,0,0,0,0,0,-1,958,988,0,0
-259,36,0,0,0,0,0,0,0,0,0,-1,965,988,0,0
-252,36,0,0,0,0,0,0,0,0,0,-1,972,988,0,0
-245,36,0,0,0,0,0,0,0,0,0,-1,979,988,0,0
-238,36,0,0,0,0,0,0,0,0,0,-1,986,988,0,0
-231,36,0,0,0,0,0,0,0,0,0,-1,993,988,0,0
-224,36,0,0,0,0,0,0,0,0,0,-1,1000,988,0,0
-217,36,0,0,0,0,0,0,0,0,0,-1,1007,988,0,0
-210,36,0,0,0,0,0,0,0,0,0,-1,1014,988,0,0
-203,36,0,0,0,0,0,0,0,0,0,-1,1021,988,0,0
-196,36,0,0,0,0,0,0,0,0,0,-1,1028,988,0,0
-189,36,0,0,0,0,0,0,0,0,0,-1,1035,988,0,0
-182,36,0,0,0,0,0,0,0,0,0,-1,1042,988,0,0
-175,36,0,0,0,0,0,0,0,0,0,-1,1049,988,0,0
-168,36,0,0,0,0,0,0,0,0,0,-1,1056,988,0,0
-161,36,0,0,0,0,0,0,0,0,0,-1,1063,988,0,0
-154,36,0,0,0,0,0,0,0,0,0,-1,1070,988,0,0
-147,36,0,0,0,0,0,0,0,0,0,-1,1077,988,0,0
-140,36,0,0,0,0,0,0,0,0,0,-1,1084,988,0,0
-133,36,0,0,0,0,0,0,0,0,0,-1,1091,988,0,0
-126,36,0,0,0,0,0,0,0,0,0,-1,1098,988,0,0
-119,36,0,0,0,0,0,0,0,0,0,-1,1105,988,0,0
-112,36,0,0,0,0,0,0,0,0,0,-1,1112,988,0,0
-105,36,0,0,0,0,0,0,0,0,0,-1,1119,988,0,0
-98,36,0,0,0,0,0,0,0,0,0,-1,1126,988,0,0
-91,36,0,0,0,0,0,0,0,0,0,-1,1133,988,0,0
-84,36,0,0,0,0,0,0,0,0,0,-1,1140,988,0,0
-77,36,0,0,0,0,0,0,0,0,0,-1,1147,988,0,0
-70,36,0,0,0,0,0,0,0,0,0,-1,1154,988,0,0
-63,36,0,0,0,0,0,0,0,0,0,-1,1161,988,0,0
-56,36,0,0,0,0,0,0,0,0,0,-1,1168,988,0,0
-49,36,0,0,0,0,0,0,0,0,0,-1,1175,988,0,0
-42,36,0,0,0,0,0,0,0,0,0,-1,1182,988,0,0
-35,36,0,0,0,0,0,0,0,0,0,-1,1189,988,0,0
-28,36,0,0,0,0,0,0,0,0,0,-1,1196,988,0,0
-21,36,0,0,0,0,0,0,0,0,0,-1,1203,988,0,0
-14,36,0,0,0,0,0,0,0,0,0,-1,1210,988,0,0
-7,36,0,0,0,0,0,0,0,0,0,-1,1217,988,0,0
0,36,0,0,0,0,0,0,0,0,0,-1,1224,988,0,0
7,36,0,0,0,0,0,0,0,0,0,-1,1231,988,0,0
14,36,0,0,0,0,0,0,0,0,0,-1,1238,988,0,0
21,36,0,0,0,0,0,0,0,0,0,-1,1245,988,0,0
28,36,0,0,0,0,0,0,0,0,0,-1,1252,988,0,0
35,36,0,0,0,0,0,0,0,0,0,-1,1259,988,0,0
42,36,0,0,0,0,0,0,0,0,0,-1,1266,988,0,0
49,36,0,0,0,0,0,0,0,0,0,-1,1273,988,0,0
56,36,0,0,0,0,0,0,0,0,0,-1,1280,988,0,0
63,36,0,0,0,0,0,0,0,0,0,-1,1287,988,0,0
70,36,0,0,0,0,0,0,0,0,0,-1,1294,988,0,0
77,36,0,0,0,0,0,0,0,0,0,-1,1301,988,0,0
84,36,0,0,0,0,0,0,0,0,0,-1,1308,988,0,0
91,36,0,0,0,0,0,0,0,0,0,-1,1315,988,0,0
98,36,0,0,0,0,0,0,0,0,0,-1,1322,988,0,0
105,36,0,0,0,0,0,0,0,0,0,-1,1329,988,0,0
112,36,0,0,0,0,0,0,0,0,0,-1,1336,988,0,0
119,36,0,0,0,0,0,0,0,0,0,-1,1343,988,0,0
126,36,0,0,0,0,0,0,0,0,0,-1,1350,988,0,0
133,36,0,0,0,0,0,0,0,0,0,-1,1357,988,0,0
140,36,0,0,0,0,0,0,0,0,0,-1,1364,988,0,0
147,36,0,0,0,0,0,0,0,0,0,-1,1371,988,0,0
154,36,0,0,0,0,0,0,0,0,0,-1,1378,988,0,0
161,36,0,0,0,0,0,0,0,0,0,-1,1385,988,0,0
168,36,0,0,0,0,0,0,0,0,0,-1,1392,988,0,0
175,36,0,0,0,0,0,0,0,0,0,-1,1399,988,0,0
182,36,0,0,0,0,0,0,0,0,0,-1,1406,988,0,0
189,36,0,0,0,0,0,0,0,0,0,-1,1413,988,0,0
196,36,0,0,0,0,0,0,0,0,0,-1,1420,988,0,0
203,36,0,0,0,0,0,0,0,0,0,-1,1427,988,0,0
210,36,0,0,0,0,0,0,0,0,0,-1,1434,988,0,0
217,36,0,0,0,0,0,0,0,0,0,-1,1441,988,0,0
224,36,0,0,0,0,0,0,0,0,0,-1,1448,988,0,0
231,36,0,0,0,0,0,0,0,0,0,-1,1455,988,0,0
238,36,0,0,0,0,0,0,0,0,0,-1,1462,988,0,0
245,36,0,0,0,0,0,0,0,0,0,-1,1469,988,0,0
252,36,0,0,0,0,0,0,0,0,0,-1,1476,988,0,0
259,36,0,0,0,0,0,0,0,0,0,-1,1483,988,0,0
266,36,0,0,0,0,0,0,0,0,0,-1,1490,988,0,0
273,36,0,0,0,0,0,0,0,0,0,-1,1497,988,0,0
280,36,0,0,0,0,0,0,0,0,0,-1,1504,988,0,0
287,36,0,0,0,0,0,0,0,0,0,-1,1511,988,0,0
294,36,0,0,0,0,0,0,0,0,0,-1,1518,988,0,0
301,36,0,0,0,0,0,0,0,0,0,-1,1525,988,0,0
308,36,0,0,0,0,0,0,0,0,0,-1,1532,988,0,0
315,36,0,0,0,0,0,0,0,0,0,-1,1539,988,0,0
322,36,0,0,0,0,0,0,0,0,0,-1,1546,988,0,0
329,36,0,0,0,0,0,0,0,0,0,-1,1553,988,0,0
336,36,0,0,0,0,0,0,0,0,0,-1,1560,988,0,0
343,36,0,0,0,0,0,0,0,0,0,-1,1567,988,0,0
350,36,0,0,0,0,0,0,0,0,0,-1,1574,988,0,0
357,36,0,0,0,0,0,0,0,0,0,-1,1581,988,0,0
364,36,0,0,0,0,0,0,0,0,0,-1,1588,988,0,0
371,36,0,0,0,0,0,0,0,0,0,-1,1595,988,0,0
378,36,0,0,0,0,0,0,0,0,0,-1,1602,988,0,0
385,36,0,0,0,0,0,0,0,0,0,-1,1609,988,0,0
392,36,0,0,0,0,0,0,0,0,0,-1,1616,988,0,0
399,36,0,0,0,0,0,0,0,0,0,-1,1623,988,0,0
406,36,0,0,0,0,0,0,0,0,0,-1,1630,988,0,0
413,36,0,0,0,0,0,0,0,0,0,-1,1637,988,0,0
420,36,0,0,0,0,0,0,0,0,0,-1,1644,988,0,0
427,36,0,0,0,0,0,0,0,0,0,-1,1651,988,0,0
434,36,0,0,0,0,0,0,0,0,0,-1,1658,988,0,0
441,36,0,0,0,0,0,0,0,0,0,-1,1665,988,0,0
448,36,0,0,0,0,0,0,0,0,0,-1,1672,988,0,0
455,36,0,0,0,0,0,0,0,0,0,-1,1679,988,0,0
462,36,0,0,0,0,0,0,0,0,0,-1,1686,988,0,0
469,36,0,0,0,0,0,0,0,0,0,-1,1693,988,0,0
476,36,0,0,0,0,0,0,0,0,0,-1,1700,988,0,0
483,36,0,0,0,0,0,0,0,0,0,-1,1707,988,0,0
490,36,0,0,0,0,0,0,0,0,0,-1,1714,988,0,0
497,36,0,0,0,0,0,0,0,0,0,-1,1721,988,0,0
504,36,0,0,0,0,0,0,0,0,0,-1,1728,988,0,0
511,36,0,0,0,0,0,0,0,0,0,-1,1735,988,0,0
518,36,0,0,0,0,0,0,0,0,0,-1,1742,988,0,0
525,36,0,0,0,0,0,0,0,0,0,-1,1749,988,0,0
532,36,0,0,0,0,0,0,0,0,0,-1,1756,988,0,0
539,36,0,0,0,0,0,0,0,0,0,-1,1763,988,0,0
546,36,0,0,0,0,0,0,0,0,0,-1,1770,988,0,0
553,36,0,0,0,0,0,0,0,0,0,-1,1777,988,0,0
560,36,0,0,0,0,0,0,0,0,0,-1,1784,988,0,0
567,36,0,0,0,0,0,0,0,0,0,-1,1791,988,0,0
574,36,0,0,0,0,0,0,0,0,0,-1,1798,988,0,0
581,36,0,0,0,0,0,0,0,0,0,-1,1805,988,0,0
588,36,0,0,0,0,0,0,0,0,0,-1,1812,988,0,0
595,36,0,0,0,0,0,0,0,0,0,-1,1819,988,0,0
602,36,0,0,0,0,0,0,0,0,0,-1,1826,988,0,0
609,36,0,0,0,0,0,0,0,0,0,-1,1833,988,0,0
616,36,0,0,0,0,0,0,0,0,0,-1,1840,988,0,0
623,36,0,0,0,0,0,0,0,0,0,-1,1847,988,0,0
630,36,0,0,0,0,0,0,0,0,0,-1,1854,988,0,0
637,36,0,0,0,0,0,0,0,0,0,-1,1861,988,0,0
644,36,75.3093,2.2135,0.000139045,-0.000920535,-0.00291186,0.00256892,-0.00335041,-0.695412,0.00342744,0.0423298,1868,988,75.3093,-2.21351
651,36,75.2415,2.17078,-0.00011459,-0.000625912,-0.00190728,0.00155409,-0.00229459,-0.718773,0.00223571,0.0410747,1875,988,75.2414,-2.17081
658,36,75.3647,2.05896,-1.74944e-05,-0.000278539,-0.00103679,0.000896959,-0.00119299,-0.722782,0.00121066,0.0394894,1882,988,75.3647,-2.05897
665,36,75.4008,2.11853,0.000314626,1.65476e-05,-0.000431135,0.000621756,-0.000290583,-0.618983,0.000538182,0.0388454,1889,988,75.4007,-2.11853
672,36,75.3224,2.27148,0.000609799,0.000289073,9.57033e-05,0.000636186,0.000262686,0.269028,0.000369155,0.0397158,1896,988,75.3224,-2.27151
679,36,75.2214,2.24084,0.000913875,0.000248583,0.000548554,0.00122276,-6.03045e-05,0.51284,0.000836002,0.0406649,1903,988,75.2214,-2.24083
686,36,75.1484,2.15784,0.00123607,-7.71209e-05,0.000783979,0.00160209,-0.00044314,0.436798,0.0012424,0.0394589,1910,988,75.1485,-2.15786
693,36,75.3555,2.17053,0.0012871,-0.000452686,0.000874393,0.0016506,-0.000816194,0.393989,0.00145111,0.0405212,1917,988,75.3555,-2.17054
700,36,75.3599,2.24664,0.00110971,-0.000569306,0.000786893,0.00142084,-0.000880439,0.37653,0.0013408,0.0402651,1924,988,75.3599,-2.24666
707,36,75.4797,2.06897,0.000502064,-0.000230878,0.000529689,0.000779698,-0.000508513,0.482777,0.000749222,0.034725,1931,988,75.4798,-2.06896
714,36,75.2765,2.08392,0,0,0,0,0,0,0,-1,1938,988,75.2764,-2.08391
721,36,74.6768,5.74316,0,0,0,0,0,0,0,-1,1945,988,74.6767,-5.74316
728,36,74.7826,6.18488,-0.00301429,0.0034334,-0.000496186,0.00347136,-0.00305225,-1.49444,0.003769,0.0243783,1952,988,74.7826,-6.1849
735,36,74.8838,6.61597,-0.00381464,0.005416,-0.000743205,0.00547546,-0.0038741,-1.49097,0.0054243,0.0206813,1959,988,74.8838,-6.61595
742,36,74.8213,6.86731,-0.0050307,0.00789326,-0.000929881,0.00795982,-0.00509726,-1.49934,0.00759866,0.0171963,1966,988,74.8213,-6.8673
749,36,74.7994,7.20776,-0.0062976,0.0109835,-0.00130491,0.0110815,-0.00639558,-1.49585,0.0102106,0.0195416,1973,988,74.7994,-7.20779
756,36,74.7634,7.51288,-0.0066305,0.0154099,-0.00208325,0.0156051,-0.00682568,-1.47738,0.0132769,0.0191077,1980,988,74.7633,-7.51291
763,36,74.6355,7.71289,-0.00509663,0.0212639,-0.00309338,0.021622,-0.00545477,-1.45553,0.0165356,0.0213661,1987,988,74.6355,-7.71286
770,36,74.5396,7.99786,-0.00154248,0.0284388,-0.00409226,0.0289873,-0.00209102,-1.43755,0.0200582,0.0181039,1994,988,74.5395,-7.99789
777,36,74.5347,8.35803,0.00453963,0.0357736,-0.00560592,0.0367493,0.00356395,-1.39848,0.0234022,0.02618,2001,988,74.5347,-8.35804
784,36,74.6348,8.71069,0.0145735,0.0429226,-0.00814385,0.0450955,0.0124006,-1.31005,0.0269004,0.0469801,2008,988,74.6348,-8.71069
791,36,74.6082,8.94397,0.0305378,0.0496241,-0.012505,0.0558114,0.0243506,-1.11133,0.0323098,0.0464513,2015,988,74.6081,-8.94394
798,36,74.7324,9.15747,0,0,0,0,0,0,0,-1,2022,988,74.7324,-9.15748
805,36,75.3972,9.69043,0,0,0,0,0,0,0,-1,2029,988,75.3972,-9.6904
812,36,71.4768,9.2749,0,0,0,0,0,0,0,-1,2036,988,71.4769,-9.27489
-700,29,0,0,0,0,0,0,0,0,0,-1,524,995,0,0
-693,29,-72.0915,-5.29596,0,0,0,0,0,0,0,-1,531,995,-72.0915,5.29595
-686,29,-71.477,-2.59906,0,0,0,0,0,0,0,-1,538,995,-71.477,2.59905
-679,29,-70.9157,-0.0524292,0,0,0,0,0,0,0,-1,545,995,-70.9157,0.0524263
-672,29,-59.3404,4.76837,0,0,0,0,0,0,0,-1,552,995,-59.3404,-4.76836
-665,29,-59.0006,5.09985,0,0,0,0,0,0,0,-1,559,995,-59.0006,-5.09983
-658,29,-55.8938,-2.22638,0,0,0,0,0,0,0,-1,566,995,-55.8938,2.22638
-651,29,-59.1003,6.01215,0,0,0,0,0,0,0,-1,573,995,-59.1003,-6.01217
-644,29,-59.5282,6.23108,-0.0077835,0.0324237,0.0212868,0.0415995,-0.0169592,1.16381,0.0347923,0.0481795,580,995,-59.5282,-6.23111
-637,29,-59.7769,6.32788,-0.00939979,0.0266596,0.0148365,0.0319792,-0.0147194,1.22652,0.0275685,0.0283996,587,995,-59.7768,-6.3279
-630,29,-59.8138,6.26556,-0.0100387,0.0201109,0.00975632,0.0229925,-0.0129204,1.2836,0.0210044,0.0151933,594,995,-59.8138,-6.26558
-623,29,-59.8146,6.1474,-0.00940379,0.0141149,0.00654753,0.0158148,-0.0111037,1.31677,0.0156206,0.0136753,601,995,-59.8147,-6.1474
-616,29,-59.8266,5.93433,-0.00800489,0.00915401,0.00471409,0.0103638,-0.0092147,1.31958,0.0113102,0.0161547,608,995,-59.8266,-5.93435
-609,29,-59.7772,5.78284,-0.00679923,0.00567014,0.00334061,0.00650871,-0.0076378,1.32485,0.00817616,0.0264957,615,995,-59.7772,-5.78286
-602,29,-59.9877,5.50494,-0.00571474,0.00319187,0.00248716,0.00383933,-0.00636221,1.31612,0.0059496,0.0262318,622,995,-59.9877,-5.50495
-595,29,-60.2842,5.22235,-0.00474453,0.00151779,0.00207285,0.00214174,-0.00536849,1.27841,0.00446744,0.0283368,629,995,-60.2842,-5.22237
-588,29,-60.5583,4.97223,0,0,0,0,0,0,0,-1,636,995,-60.5583,-4.97225
-581,29,-59.1389,0.238708,0,0,0,0,0,0,0,-1,643,995,-59.1389,-0.238684
-574,29,-59.1542,0.170105,-0.00252563,-0.00220748,0.000487779,-0.00185349,-0.00287962,0.943019,0.00168527,0.0324436,650,995,-59.1543,-0.170092
-567,29,-59.1394,0.0742798,-0.00216209,-0.00242073,0.000157626,-0.00208753,-0.00249529,0.44187,0.00154564,0.0321849,657,995,-59.1394,-0.0742718
-560,29,-59.1266,0.205261,-0.00181275,-0.00219785,-0.000174783,-0.00174526,-0.00226535,-0.368534,0.00137018,0.0358244,664,995,-59.1266,-0.20526
-553,29,-59.0894,0.2854,-0.00153618,-0.00172804,-0.000628985,-0.000995852,-0.00226837,-0.709724,0.00131289,0.0425646,671,995,-59.0894,-0.285431
-546,29,-59.0907,0.345642,-0.00144499,-0.00145437,-0.00127251,-0.000177157,-0.0027222,-0.783556,0.00175873,0.045877,678,995,-59.0907,-0.345632
-539,29,-59.2111,0.460327,-0.00195732,-0.00193869,-0.00211081,0.000162819,-0.00405883,-0.787605,0.00276176,0.0420754,685,995,-59.2111,-0.460324
-532,29,-59.2653,0.462219,-0.00211118,-0.00281323,-0.00326244,0.000819064,-0.00574348,-0.731807,0.00412917,0.0433153,692,995,-59.2653,-0.462214
-525,29,-59.1238,0.353027,-0.00206079,-0.00348059,-0.00491482,0.00219514,-0.00773651,-0.713674,0.00602421,0.0436789,699,995,-59.1239,-0.35305
-518,29,0,0,0,0,0,0,0,0,0,-1,706,995,0,0
-511,29,0,0,0,0,0,0,0,0,0,-1,713,995,0,0
-504,29,0,0,0,0,0,0,0,0,0,-1,720,995,0,0
-497,29,0,0,0,0,0,0,0,0,0,-1,727,995,0,0
-490,29,0,0,0,0,0,0,0,0,0,-1,734,995,0,0
-483,29,0,0,0,0,0,0,0,0,0,-1,741,995,0,0
-476,29,0,0,0,0,0,0,0,0,0,-1,748,995,0,0
-469,29,0,0,0,0,0,0,0,0,0,-1,755,995,0,0
-462,29,0,0,0,0,0,0,0,0,0,-1,762,995,0,0
-455,29,0,0,0,0,0,0,0,0,0,-1,769,995,0,0
-448,29,0,0,0,0,0,0,0,0,0,-1,776,995,0,0
-441,29,0,0,0,0,0,0,0,0,0,-1,783,995,0,0
-434,29,0,0,0,0,0,0,0,0,0,-1,790,995,0,0
-427,29,0,0,0,0,0,0,0,0,0,-1,797,995,0,0
-420,29,0,0,0,0,0,0,0,0,0,-1,804,995,0,0
-413,29,0,0,0,0,0,0,0,0,0,-1,811,995,0,0
-406,29,0,0,0,0,0,0,0,0,0,-1,818,995,0,0
-399,29,0,0,0,0,0,0,0,0,0,-1,825,995,0,0
-392,29,0,0,0,0,0,0,0,0,0,-1,832,995,0,0
-385,29,0,0,0,0,0,0,0,0,0,-1,839,995,0,0
-378,29,0,0,0,0,0,0,0,0,0,-1,846,995,0,0
-371,29,0,0,0,0,0,0,0,0,0,-1,853,995,0,0
-364,29,0,0,0,0,0,0,0,0,0,-1,860,995,0,0
-357,29,0,0,0,0,0,0,0,0,0,-1,867,995,0,0
-350,29,0,0,0,0,0,0,0,0,0,-1,874,995,0,0
-343,29,0,0,0,0,0,0,0,0,0,-1,881,995,0,0
-336,29,0,0,0,0,0,0,0,0,0,-1,888,995,0,0
-329,29,0,0,0,0,0,0,0,0,0,-1,895,995,0,0
-322,29,0,0,0,0,0,0,0,0,0,-1,902,995,0,0
-315,29,0,0,0,0,0,0,0,0,0,-1,909,995,0,0
-308,29,0,0,0,0,0,0,0,0,0,-1,916,995,0,0
-301,29,0,0,0,0,0,0,0,0,0,-1,923,995,0,0
-294,29,0,0,0,0,0,0,0,0,0,-1,930,995,0,0
-287,29,0,0,0,0,0,0,0,0,0,-1,937,995,0,0
-280,29,0,0,0,0,0,0,0,0,0,-1,944,995,0,0
-273,29,0,0,0,0,0,0,0,0,0,-1,951,995,0,0
-266,29,0,0,0,0,0,0,0,0,0,-1,958,995,0,0
-259,29,0,0,0,0,0,0,0,0,0,-1,965,995,0,0
-252,29,0,0,0,0,0,0,0,0,0,-1,972,995,0,0
-245,29,0,0,0,0,0,0,0,0,0,-1,979,995,0,0
-238,29,0,0,0,0,0,0,0,0,0,-1,986,995,0,0
-231,29,0,0,0,0,0,0,0,0,0,-1,993,995,0,0
-224,29,0,0,0,0,0,0,0,0,0,-1,1000,995,0,0
-217,29,0,0,0,0,0,0,0,0,0,-1,1007,995,0,0
-210,29,0,0,0,0,0,0,0,0,0,-1,1014,995,0,0
-203,29,0,0,0,0,0,0,0,0,0,-1,1021,995,0,0
-196,29,0,0,0,0,0,0,0,0,0,-1,1028,995,0,0
-189,29,0,0,0,0,0,0,0,0,0,-1,1035,995,0,0
-182,29,0,0,0,0,0,0,0,0,0,-1,1042,995,0,0
-175,29,0,0,0,0,0,0,0,0,0,-1,1049,995,0,0
-168,29,0,0,0,0,0,0,0,0,0,-1,1056,995,0,0
-161,29,0,0,0,0,0,0,0,0,0,-1,1063,995,0,0
-154,29,0,0,0,0,0,0,0,0,0,-1,1070,995,0,0
-147,29,0,0,0,0,0,0,0,0,0,-1,1077,995,0,0
-140,29,0,0,0,0,0,0,0,0,0,-1,1084,995,0,0
-133,29,0,0,0,0,0,0,0,0,0,-1,1091,995,0,0
-126,29,0,0,0,0,0,0,0,0,0,-1,1098,995,0,0
-119,29,0,0,0,0,0,0,0,0,0,-1,1105,995,0,0
-112,29,0,0,0,0,0,0,0,0,0,-1,1112,995,0,0
-105,29,0,0,0,0,0,0,0,0,0,-1,1119,995,0,0
-98,29,0,0,0,0,0,0,0,0,0,-1,1126,995,0,0
-91,29,0,0,0,0,0,0,0,0,0,-1,1133,995,0,0
-84,29,0,0,0,0,0,0,0,0,0,-1,1140,995,0,0
-77,29,0,0,0,0,0,0,0,0,0,-1,1147,995,0,0
-70,29,0,0,0,0,0,0,0,0,0,-1,1154,995,0,0
-63,29,0,0,0,0,0,0,0,0,0,-1,1161,995,0,0
-56,29,0,0,0,0,0,0,0,0,0,-1,1168,995,0,0
-49,29,0,0,0,0,0,0,0,0,0,-1,1175,995,0,0
-42,29,0,0,0,0,0,0,0,0,0,-1,1182,995,0,0
-35,29,0,0,0,0,0,0,0,0,0,-1,1189,995,0,0
-28,29,0,0,0,0,0,0,0,0,0,-1,1196,995,0,0
-21,29,0,0,0,0,0,0,0,0,0,-1,1203,995,0,0
-14,29,0,0,0,0,0,0,0,0,0,-1,1210,995,0,0
-7,29,0,0,0,0,0,0,0,0,0,-1,1217,995,0,0
0,29,0,0,0,0,0,0,0,0,0,-1,1224,995,0,0
7,29,0,0,0,0,0,0,0,0,0,-1,1231,995,0,0
14,29,0,0,0,0,0,0,0,0,0,-1,1238,995,0,0
21,29,0,0,0,0,0,0,0,0,0,-1,1245,995,0,0
28,29,0,0,0,0,0,0,0,0,0,-1,1252,995,0,0
35,29,0,0,0,0,0,0,0,0,0,-1,1259,995,0,0
42,29,0,0,0,0,0,0,0,0,0,-1,1266,995,0,0
49,29,0,0,0,0,0,0,0,0,0,-1,1273,995,0,0
56,29,0,0,0,0,0,0,0,0,0,-1,1280,995,0,0
63,29,0,0,0,0,0,0,0,0,0,-1,1287,995,0,0
70,29,0,0,0,0,0,0,0,0,0,-1,1294,995,0,0
77,29,0,0,0,0,0,0,0,0,0,-1,1301,995,0,0
84,29,0,0,0,0,0,0,0,0,0,-1,1308,995,0,0
91,29,0,0,0,0,0,0,0,0,0,-1,1315,995,0,0
98,29,0,0,0,0,0,0,0,0,0,-1,1322,995,0,0
105,29,0,0,0,0,0,0,0,0,0,-1,1329,995,0,0
112,29,0,0,0,0,0,0,0,0,0,-1,1336,995,0,0
119,29,0,0,0,0,0,0,0,0,0,-1,1343,995,0,0
126,29,0,0,0,0,0,0,0,0,0,-1,1350,995,0,0
133,29,0,0,0,0,0,0,0,0,0,-1,1357,995,0,0
140,29,0,0,0,0,0,0,0,0,0,-1,1364,995,0,0
147,29,0,0,0,0,0,0,0,0,0,-1,1371,995,0,0
154,29,0,0,0,0,0,0,0,0,0,-1,1378,995,0,0
161,29,0,0,0,0,0,0,0,0,0,-1,1385,995,0,0
168,29,0,0,0,0,0,0,0,0,0,-1,1392,995,0,0
175,29,0,0,0,0,0,0,0,0,0,-1,1399,995,0,0
182,29,0,0,0,0,0,0,0,0,0,-1,1406,995,0,0
189,29,0,0,0,0,0,0,0,0,0,-1,1413,995,0,0
196,29,0,0,0,0,0,0,0,0,0,-1,1420,995,0,0
203,29,0,0,0,0,0,0,0,0,0,-1,1427,995,0,0
210,29,0,0,0,0,0,0,0,0,0,-1,1434,995,0,0
217,29,0,0,0,0,0,0,0,0,0,-1,1441,995,0,0
224,29,0,0,0,0,0,0,0,0,0,-1,1448,995,0,0
231,29,0,0,0,0,0,0,0,0,0,-1,1455,995,0,0
238,29,0,0,0,0,0,0,0,0,0,-1,1462,995,0,0
245,29,0,0,0,0,0,0,0,0,0,-1,1469,995,0,0
252,29,0,0,0,0,0,0,0,0,0,-1,1476,995,0,0
259,29,0,0,0,0,0,0,0,0,0,-1,1483,995,0,0
266,29,0,0,0,0,0,0,0,0,0,-1,1490,995,0,0
273,29,0,0,0,0,0,0,0,0,0,-1,1497,995,0,0
280,29,0,0,0,0,0,0,0,0,0,-1,1504,995,0,0
287,29,0,0,0,0,0,0,0,0,0,-1,1511,995,0,0
294,29,0,0,0,0,0,0,0,0,0,-1,1518,995,0,0
301,29,0,0,0,0,0,0,0,0,0,-1,1525,995,0,0
308,29,0,0,0,0,0,0,0,0,0,-1,1532,995,0,0
315,29,0,0,0,0,0,0,0,0,0,-1,1539,995,0,0
322,29,0,0,0,0,0,0,0,0,0,-1,1546,995,0,0
329,29,0,0,0,0,0,0,0,0,0,-1,1553,995,0,0
336,29,0,0,0,0,0,0,0,0,0,-1,1560,995,0,0
343,29,0,0,0,0,0,0,0,0,0,-1,1567,995,0,0
350,29,0,0,0,0,0,0,0,0,0,-1,1574,995,0,0
357,29,0,0,0,0,0,0,0,0,0,-1,1581,995,0,0
364,29,0,0,0,0,0,0,0,0,0,-1,1588,995,0,0
371,29,0,0,0,0,0,0,0,0,0,-1,1595,995,0,0
378,29,0,0,0,0,0,0,0,0,0,-1,1602,995,0,0
385,29,0,0,0,0,0,0,0,0,0,-1,1609,995,0,0
392,29,0,0,0,0,0,0,0,0,0,-1,1616,995,0,0
399,29,0,0,0,0,0,0,0,0,0,-1,1623,995,0,0
406,29,0,0,0,0,0,0,0,0,0,-1,1630,995,0,0
413,29,0,0,0,0,0,0,0,0,0,-1,1637,995,0,0
420,29,0,0,0,0,0,0,0,0,0,-1,1644,995,0,0
427,29,0,0,0,0,0,0,0,0,0,-1,1651,995,0,0
434,29,0,0,0,0,0,0,0,0,0,-1,1658,995,0,0
441,29,0,0,0,0,0,0,0,0,0,-1,1665,995,0,0
448,29,0,0,0,0,0,0,0,0,0,-1,1672,995,0,0
455,29,0,0,0,0,0,0,0,0,0,-1,1679,995,0,0
462,29,0,0,0,0,0,0,0,0,0,-1,1686,995,0,0
469,29,0,0,0,0,0,0,0,0,0,-1,1693,995,0,0
476,29,0,0,0,0,0,0,0,0,0,-1,1700,995,0,0
483,29,0,0,0,0,0,0,0,0,0,-1,1707,995,0,0
490,29,0,0,0,0,0,0,0,0,0,-1,1714,995,0,0
497,29,0,0,0,0,0,0,0,0,0,-1,1721,995,0,0
504,29,0,0,0,0,0,0,0,0,0,-1,1728,995,0,0
511,29,0,0,0,0,0,0,0,0,0,-1,1735,995,0,0
518,29,0,0,0,0,0,0,0,0,0,-1,1742,995,0,0
525,29,0,0,0,0,0,0,0,0,0,-1,1749,995,0,0
532,29,0,0,0,0,0,0,0,0,0,-1,1756,995,0,0
539,29,0,0,0,0,0,0,0,0,0,-1,1763,995,0,0
546,29,0,0,0,0,0,0,0,0,0,-1,1770,995,0,0
553,29,0,0,0,0,0,0,0,0,0,-1,1777,995,0,0
560,29,0,0,0,0,0,0,0,0,0,-1,1784,995,0,0
567,29,0,0,0,0,0,0,0,0,0,-1,1791,995,0,0
574,29,0,0,0,0,0,0,0,0,0,-1,1798,995,0,0
581,29,0,0,0,0,0,0,0,0,0,-1,1805,995,0,0
588,29,0,0,0,0,0,0,0,0,0,-1,1812,995,0,0
595,29,0,0,0,0,0,0,0,0,0,-1,1819,995,0,0
602,29,0,0,0,0,0,0,0,0,0,-1,1826,995,0,0
609,29,0,0,0,0,0,0,0,0,0,-1,1833,995,0,0
616,29,0,0,0,0,0,0,0,0,0,-1,1840,995,0,0
623,29,0,0,0,0,0,0,0,0,0,-1,1847,995,0,0
630,29,0,0,0,0,0,0,0,0,0,-1,1854,995,0,0
637,29,0,0,0,0,0,0,0,0,0,-1,1861,995,0,0
644,29,75.3781,2.15466,-0.000785448,0.000212144,-0.00253765,0.00229955,-0.00287286,-0.88244,0.0029924,0.0430113,1868,995,75.378,-2.15465
651,29,75.3663,2.13208,-0.000804106,0.000308392,-0.00168808,0.00152951,-0.00202522,-0.944554,0.00205896,0.043704,1875,995,75.3664,-2.13211
658,29,75.3873,2.08582,-0.000543166,0.000458939,-0.000946251,0.00102861,-0.00111284,-1.02889,0.00123668,0.0429755,1882,995,75.3873,-2.08583
665,29,75.3995,2.16058,-8.68779e-05,0.000594969,-0.000422071,0.000796607,-0.000288516,-1.12512,0.000648985,0.0422456,1889,995,75.3995,-2.1606
672,29,75.2993,2.20892,0.000363907,0.000762187,3.32861e-05,0.00076495,0.000361144,1.48799,0.000441873,0.0413304,1896,995,75.2993,-2.2089
679,29,75.2473,2.11053,0.000838739,0.000684557,0.000445272,0.00121354,0.000309751,0.699682,0.000728084,0.041548,1903,995,75.2473,-2.11054
686,29,75.2344,2.07196,0.00123628,0.000306024,0.000679122,0.00159428,-5.19833e-05,0.485141,0.0010806,0.0410433,1910,995,75.2344,-2.07197
693,29,75.328,2.31769,0.00137543,-0.000147944,0.000796716,0.00171598,-0.000488493,0.403936,0.0013369,0.0399222,1917,995,75.328,-2.3177
700,29,75.3788,2.24548,0.00128484,-0.000344599,0.000762141,0.00158575,-0.000645507,0.376033,0.0013258,0.0366873,1924,995,75.3788,-2.24547
707,29,75.3989,2.14624,0.00065593,-3.29956e-05,0.000570878,0.000978218,-0.000355283,0.513943,0.000797407,0.027443,1931,995,75.3989,-2.14626
714,29,75.2783,2.10358,0,0,0,0,0,0,0,-1,1938,995,75.2783,-2.10355
721,29,74.6213,6.08148,0,0,0,0,0,0,0,-1,1945,995,74.6214,-6.08147
728,29,75.0587,6.38708,-0.00323454,0.00376289,-0.00037727,0.00378317,-0.00325482,-1.51709,0.0040672,0.0441375,1952,995,75.0587,-6.38707
735,29,75.1438,6.67645,-0.00425479,0.00570774,-0.000625818,0.0057469,-0.00429395,-1.50831,0.00581728,0.0177999,1959,995,75.1439,-6.67643
742,29,75.1071,6.87823,-0.00558362,0.00798791,-0.000833745,0.00803894,-0.00563464,-1.50967,0.00793502,0.0155415,1966,995,75.1071,-6.87826
749,29,75.0635,7.16888,-0.00690827,0.0108043,-0.00133267,0.010904,-0.00700798,-1.49612,0.0104227,0.0170933,1973,995,75.0636,-7.16889
756,29,75.0442,7.4502,-0.00722042,0.0147951,-0.0023947,0.0150526,-0.00747789,-1.46369,0.0132507,0.0160174,1980,995,75.0442,-7.45017
763,29,74.9661,7.59222,-0.00565166,0.0198424,-0.0038759,0.0204186,-0.0062279,-1.42321,0.0160952,0.0132236,1987,995,74.966,-7.5922
770,29,74.8374,7.71887,-0.00198979,0.026243,-0.00556873,0.0273017,-0.00304849,-1.38292,0.0192977,0.0194445,1994,995,74.8375,-7.71889
777,29,74.6914,8.00452,0.00450147,0.0326515,-0.00797519,0.0347539,0.00239904,-1.31304,0.0224124,0.033582,2001,995,74.6914,-8.00453
784,29,74.5864,8.24854,0.0148669,0.0384593,-0.0115911,0.0432011,0.0101251,-1.18248,0.026089,0.049819,2008,995,74.5863,-8.24852
791,29,74.2661,8.53882,0.0307599,0.0434334,-0.0171195,0.0553514,0.018842,-0.962653,0.0324952,0.0458342,2015,995,74.2662,-8.5388
798,29,74.4092,8.72858,0.0528983,0.0473167,-0.0250973,0.0753595,0.0248556,-0.730026,0.0443408,0.0495408,2022,995,74.4093,-8.72859
805,29,74.6421,8.94165,0,0,0,0,0,0,0,-1,2029,995,74.6421,-8.94166
812,29,71.2014,6.55267,0,0,0,0,0,0,0,-1,2036,995,71.2014,-6.55267
-700,22,0,0,0,0,0,0,0,0,0,-1,524,1002,0,0
-693,22,-70.8194,-4.94739,0,0,0,0,0,0,0,-1,531,1002,-70.8194,4.94738
-686,22,-70.3534,-2.4563,0,0,0,0,0,0,0,-1,538,1002,-70.3534,2.45631
-679,22,-60.3727,4.12701,0,0,0,0,0,0,0,-1,545,1002,-60.3727,-4.127
-672,22,-59.425,4.79077,0,0,0,0,0,0,0,-1,552,1002,-59.4249,-4.79074
-665,22,-59.0871,5.10864,0,0,0,0,0,0,0,-1,559,1002,-59.0871,-5.10862
-658,22,-58.7256,5.39417,0,0,0,0,0,0,0,-1,566,1002,-58.7256,-5.39416
-651,22,-58.9793,5.72076,0,0,0,0,0,0,0,-1,573,1002,-58.9793,-5.72076
-644,22,-59.6288,5.91644,-0.00912874,0.033691,0.0205394,0.0419502,-0.0173879,1.18847,0.0352236,0.046373,580,1002,-59.6288,-5.91643
-637,22,-60.0096,6.08954,-0.00975758,0.0272481,0.0143921,0.0321864,-0.0146959,1.24026,0.0276883,0.0304505,587,1002,-60.0097,-6.08952
-630,22,-60.0051,6.08655,-0.00968571,0.0202714,0.009466,0.0230119,-0.0124261,1.289,0.0207622,0.0162323,594,1002,-60.005,-6.08654
-623,22,-60.0262,6.00189,-0.00896567,0.0140261,0.00624213,0.0156115,-0.0105511,1.32207,0.0151988,0.0132217,601,1002,-60.0263,-6.00191
-616,22,-60.001,5.81128,-0.00779355,0.00913661,0.00429161,0.0101623,-0.00881928,1.33619,0.0109682,0.0209029,608,1002,-60.001,-5.81128
-609,22,-60.1055,5.73169,-0.00672734,0.00571183,0.00282278,0.00632243,-0.00733794,1.35777,0.00789408,0.0346356,615,1002,-60.1055,-5.73168
-602,22,-60.374,5.6073,-0.00569991,0.00318966,0.0019243,0.00358833,-0.00609858,1.36651,0.00565499,0.0305837,622,1002,-60.374,-5.6073
-595,22,-60.6107,5.36804,-0.00479505,0.00157328,0.00156854,0.00193866,-0.00516043,1.34194,0.00423702,0.0389369,629,1002,-60.6107,-5.36806
-588,22,-60.7089,5.04309,0,0,0,0,0,0,0,-1,636,1002,-60.7088,-5.04312
-581,22,-59.1094,0.396179,0,0,0,0,0,0,0,-1,643,1002,-59.1094,-0.396176
-574,22,-59.1392,0.259705,-0.00257022,-0.00192998,0.000130022,-0.00190458,-0.00259562,1.37789,0.00155222,0.0347701,650,1002,-59.1392,-0.259711
-567,22,-59.1463,0.0577393,-0.00220104,-0.00206867,-0.000142518,-0.00197772,-0.00229199,-1.00279,0.00143476,0.0323057,657,1002,-59.1463,-0.0577147
-560,22,-59.1368,0.0974731,-0.00183806,-0.00176475,-0.000424769,-0.00137506,-0.00222775,-0.82844,0.00129793,0.0357332,664,1002,-59.1368,-0.0974444
-553,22,-59.08,0.22229,-0.00157714,-0.00123793,-0.00086176,-0.000529247,-0.00228583,-0.882562,0.00138168,0.0406267,671,1002,-59.08,-0.222286
-546,22,-59.0344,0.272766,-0.00154034,-0.000961477,-0.0015388,0.000314875,-0.00281669,-0.878356,0.00199107,0.0435309,678,1002,-59.0344,-0.272792
-539,22,-59.1768,0.320129,-0.00216462,-0.00143428,-0.00245695,0.000684491,-0.00428338,-0.859172,0.00310897,0.0397166,685,1002,-59.1768,-0.320135
-532,22,-59.2405,0.174133,-0.00243182,-0.00215474,-0.00373069,0.00143998,-0.00602654,-0.803957,0.00457388,0.0404773,692,1002,-59.2405,-0.17416
-525,22,0,0,0,0,0,0,0,0,0,-1,699,1002,0,0
-518,22,0,0,0,0,0,0,0,0,0,-1,706,1002,0,0
-511,22,0,0,0,0,0,0,0,0,0,-1,713,1002,0,0
-504,22,0,0,0,0,0,0,0,0,0,-1,720,1002,0,0
-497,22,0,0,0,0,0,0,0,0,0,-1,727,1002,0,0
-490,22,0,0,0,0,0,0,0,0,0,-1,734,1002,0,0
-483,22,0,0,0,0,0,0,0,0,0,-1,741,1002,0,0
-476,22,0,0,0,0,0,0,0,0,0,-1,748,1002,0,0
-469,22,0,0,0,0,0,0,0,0,0,-1,755,1002,0,0
-462,22,0,0,0,0,0,0,0,0,0,-1,762,1002,0,0
-455,22,0,0,0,0,0,0,0,0,0,-1,769,1002,0,0
-448,22,0,0,0,0,0,0,0,0,0,-1,776,1002,0,0
-441,22,0,0,0,0,0,0,0,0,0,-1,783,1002,0,0
-434,22,0,0,0,0,0,0,0,0,0,-1,790,1002,0,0
-427,22,0,0,0,0,0,0,0,0,0,-1,797,1002,0,0
-420,22,0,0,0,0,0,0,0,0,0,-1,804,1002,0,0
-413,22,0,0,0,0,0,0,0,0,0,-1,811,1002,0,0
-406,22,0,0,0,0,0,0,0,0,0,-1,818,1002,0,0
-399,22,0,0,0,0,0,0,0,0,0,-1,825,1002,0,0
-392,22,0,0,0,0,0,0,0,0,0,-1,832,1002,0,0
-385,22,0,0,0,0,0,0,0,0,0,-1,839,1002,0,0
-378,22,0,0,0,0,0,0,0,0,0,-1,846,1002,0,0
-371,22,0,0,0,0,0,0,0,0,0,-1,853,1002,0,0
-364,22,0,0,0,0,0,0,0,0,0,-1,860,1002,0,0
-357,22,0,0,0,0,0,0,0,0,0,-1,867,1002,0,0
-350,22,0,0,0,0,0,0,0,0,0,-1,874,1002,0,0
-343,22,0,0,0,0,0,0,0,0,0,-1,881,1002,0,0
-336,22,0,0,0,0,0,0,0,0,0,-1,888,1002,0,0
-329,22,0,0,0,0,0,0,0,0,0,-1,895,1002,0,0
-322,22,0,0,0,0,0,0,0,0,0,-1,902,1002,0,0
-315,22,0,0,0,0,0,0,0,0,0,-1,909,1002,0,0
-308,22,0,0,0,0,0,0,0,0,0,-1,916,1002,0,0
-301,22,0,0,0,0,0,0,0,0,0,-1,923,1002,0,0
-294,22,0,0,0,0,0,0,0,0,0,-1,930,1002,0,0
-287,22,0,0,0,0,0,0,0,0,0,-1,937,1002,0,0
-280,22,0,0,0,0,0,0,0,0,0,-1,944,1002,0,0
-273,22,0,0,0,0,0,0,0,0,0,-1,951,1002,0,0
-266,22,0,0,0,0,0,0,0,0,0,-1,958,1002,0,0
-259,22,0,0,0,0,0,0,0,0,0,-1,965,1002,0,0
-252,22,0,0,0,0,0,0,0,0,0,-1,972,1002,0,0
-245,22,0,0,0,0,0,0,0,0,0,-1,979,1002,0,0
-238,22,0,0,0,0,0,0,0,0,0,-1,986,1002,0,0
-231,22,0,0,0,0,0,0,0,0,0,-1,993,1002,0,0
-224,22,0,0,0,0,0,0,0,0,0,-1,1000,1002,0,0
-217,22,0,0,0,0,0,0,0,0,0,-1,1007,1002,0,0
-210,22,0,0,0,0,0,0,0,0,0,-1,1014,1002,0,0
-203,22,0,0,0,0,0,0,0,0,0,-1,1021,1002,0,0
-196,22,0,0,0,0,0,0,0,0,0,-1,1028,1002,0,0
-189,22,0,0,0,0,0,0,0,0,0,-1,1035,1002,0,0
-182,22,0,0,0,0,0,0,0,0,0,-1,1042,1002,0,0
-175,22,0,0,0,0,0,0,0,0,0,-1,1049,1002,0,0
-168,22,0,0,0,0,0,0,0,0,0,-1,1056,1002,0,0
-161,22,0,0,0,0,0,0,0,0,0,-1,1063,1002,0,0
-154,22,0,0,0,0,0,0,0,0,0,-1,1070,1002,0,0
-147,22,0,0,0,0,0,0,0,0,0,-1,1077,1002,0,0
-140,22,0,0,0,0,0,0,0,0,0,-1,1084,1002,0,0
-133,22,0,0,0,0,0,0,0,0,0,-1,1091,1002,0,0
-126,22,0,0,0,0,0,0,0,0,0,-1,1098,1002,0,0
-119,22,0,0,0,0,0,0,0,0,0,-1,1105,1002,0,0
-112,22,0,0,0,0,0,0,0,0,0,-1,1112,1002,0,0
-105,22,0,0,0,0,0,0,0,0,0,-1,1119,1002,0,0
-98,22,0,0,0,0,0,0,0,0,0,-1,1126,1002,0,0
-91,22,0,0,0,0,0,0,0,0,0,-1,1133,1002,0,0
-84,22,0,0,0,0,0,0,0,0,0,-1,1140,1002,0,0
-77,22,0,0,0,0,0,0,0,0,0,-1,1147,1002,0,0
-70,22,0,0,0,0,0,0,0,0,0,-1,1154,1002,0,0
-63,22,0,0,0,0,0,0,0,0,0,-1,1161,1002,0,0
-56,22,0,0,0,0,0,0,0,0,0,-1,1168,1002,0,0
-49,22,0,0,0,0,0,0,0,0,0,-1,1175,1002,0,0
-42,22,0,0,0,0,0,0,0,0,0,-1,1182,1002,0,0
-35,22,0,0,0,0,0,0,0,0,0,-1,1189,1002,0,0
-28,22,0,0,0,0,0,0,0,0,0,-1,1196,1002,0,0
-21,22,0,0,0,0,0,0,0,0,0,-1,1203,1002,0,0
-14,22,0,0,0,0,0,0,0,0,0,-1,1210,1002,0,0
-7,22,0,0,0,0,0,0,0,0,0,-1,1217,1002,0,0
0,22,0,0,0,0,0,0,0,0,0,-1,1224,1002,0,0
7,22,0,0,0,0,0,0,0,0,0,-1,1231,1002,0,0
14,22,0,0,0,0,0,0,0,0,0,-1,1238,1002,0,0
21,22,0,0,0,0,0,0,0,0,0,-1,1245,1002,0,0
28,22,0,0,0,0,0,0,0,0,0,-1,1252,1002,0,0
35,22,0,0,0,0,0,0,0,0,0,-1,1259,1002,0,0
42,22,0,0,0,0,0,0,0,0,0,-1,1266,1002,0,0
49,22,0,0,0,0,0,0,0,0,0,-1,1273,1002,0,0
56,22,0,0,0,0,0,0,0,0,0,-1,1280,1002,0,0
63,22,0,0,0,0,0,0,0,0,0,-1,1287,1002,0,0
70,22,0,0,0,0,0,0,0,0,0,-1,1294,1002,0,0
77,22,0,0,0,0,0,0,0,0,0,-1,1301,1002,0,0
84,22,0,0,0,0,0,0,0,0,0,-1,1308,1002,0,0
91,22,0,0,0,0,0,0,0,0,0,-1,1315,1002,0,0
98,22,0,0,0,0,0,0,0,0,0,-1,1322,1002,0,0
105,22,0,0,0,0,0,0,0,0,0,-1,1329,1002,0,0
112,22,0,0,0,0,0,0,0,0,0,-1,1336,1002,0,0
119,22,0,0,0,0,0,0,0,0,0,-1,1343,1002,0,0
126,22,0,0,0,0,0,0,0,0,0,-1,1350,1002,0,0
133,22,0,0,0,0,0,0,0,0,0,-1,1357,1002,0,0
140,22,0,0,0,0,0,0,0,0,0,-1,1364,1002,0,0
147,22,0,0,0,0,0,0,0,0,0,-1,1371,1002,0,0
154,22,0,0,0,0,0,0,0,0,0,-1,1378,1002,0,0
161,22,0,0,0,0,0,0,0,0,0,-1,1385,1002,0,0
168,22,0,0,0,0,0,0,0,0,0,-1,1392,1002,0,0
175,22,0,0,0,0,0,0,0,0,0,-1,1399,1002,0,0
182,22,0,0,0,0,0,0,0,0,0,-1,1406,1002,0,0
189,22,0,0,0,0,0,0,0,0,0,-1,1413,1002,0,0
196,22,0,0,0,0,0,0,0,0,0,-1,1420,1002,0,0
203,22,0,0,0,0,0,0,0,0,0,-1,1427,1002,0,0
210,22,0,0,0,0,0,0,0,0,0,-1,1434,1002,0,0
217,22,0,0,0,0,0,0,0,0,0,-1,1441,1002,0,0
224,22,0,0,0,0,0,0,0,0,0,-1,1448,1002,0,0
231,22,0,0,0,0,0,0,0,0,0,-1,1455,1002,0,0
238,22,0,0,0,0,0,0,0,0,0,-1,1462,1002,0,0
245,22,0,0,0,0,0,0,0,0,0,-1,1469,1002,0,0
252,22,0,0,0,0,0,0,0,0,0,-1,1476,1002,0,0
259,22,0,0,0,0,0,0,0,0,0,-1,1483,1002,0,0
266,22,0,0,0,0,0,0,0,0,0,-1,1490,1002,0,0
273,22,0,0,0,0,0,0,0,0,0,-1,1497,1002,0,0
280,22,0,0,0,0,0,0,0,0,0,-1,1504,1002,0,0
287,22,0,0,0,0,0,0,0,0,0,-1,1511,1002,0,0
294,22,0,0,0,0,0,0,0,0,0,-1,1518,1002,0,0
301,22,0,0,0,0,0,0,0,0,0,-1,1525,1002,0,0
308,22,0,0,0,0,0,0,0,0,0,-1,1532,1002,0,0
315,22,0,0,0,0,0,0,0,0,0,-1,1539,1002,0,0
322,22,0,0,0,0,0,0,0,0,0,-1,1546,1002,0,0
329,22,0,0,0,0,0,0,0,0,0,-1,1553,1002,0,0
336,22,0,0,0,0,0,0,0,0,0,-1,1560,1002,0,0
343,22,0,0,0,0,0,0,0,0,0,-1,1567,1002,0,0
350,22,0,0,0,0,0,0,0,0,0,-1,1574,1002,0,0
357,22,0,0,0,0,0,0,0,0,0,-1,1581,1002,0,0
364,22,0,0,0,0,0,0,0,0,0,-1,1588,1002,0,0
371,22,0,0,0,0,0,0,0,0,0,-1,1595,1002,0,0
378,22,0,0,0,0,0,0,0,0,0,-1,1602,1002,0,0
385,22,0,0,0,0,0,0,0,0,0,-1,1609,1002,0,0
392,22,0,0,0,0,0,0,0,0,0,-1,1616,1002,0,0
399,22,0,0,0,0,0,0,0,0,0,-1,1623,1002,0,0
406,22,0,0,0,0,0,0,0,0,0,-1,1630,1002,0,0
413,22,0,0,0,0,0,0,0,0,0,-1,1637,1002,0,0
420,22,0,0,0,0,0,0,0,0,0,-1,1644,1002,0,0
427,22,0,0,0,0,0,0,0,0,0,-1,1651,1002,0,0
434,22,0,0,0,0,0,0,0,0,0,-1,1658,1002,0,0
441,22,0,0,0,0,0,0,0,0,0,-1,1665,1002,0,0
448,22,0,0,0,0,0,0,0,0,0,-1,1672,1002,0,0
455,22,0,0,0,0,0,0,0,0,0,-1,1679,1002,0,0
462,22,0,0,0,0,0,0,0,0,0,-1,1686,1002,0,0
469,22,0,0,0,0,0,0,0,0,0,-1,1693,1002,0,0
476,22,0,0,0,0,0,0,0,0,0,-1,1700,1002,0,0
483,22,0,0,0,0,0,0,0,0,0,-1,1707,1002,0,0
490,22,0,0,0,0,0,0,0,0,0,-1,1714,1002,0,0
497,22,0,0,0,0,0,0,0,0,0,-1,1721,1002,0,0
504,22,0,0,0,0,0,0,0,0,0,-1,1728,1002,0,0
511,22,0,0,0,0,0,0,0,0,0,-1,1735,1002,0,0
518,22,0,0,0,0,0,0,0,0,0,-1,1742,1002,0,0
525,22,0,0,0,0,0,0,0,0,0,-1,1749,1002,0,0
532,22,0,0,0,0,0,0,0,0,0,-1,1756,1002,0,0
539,22,0,0,0,0,0,0,0,0,0,-1,1763,1002,0,0
546,22,0,0,0,0,0,0,0,0,0,-1,1770,1002,0,0
553,22,0,0,0,0,0,0,0,0,0,-1,1777,1002,0,0
560,22,0,0,0,0,0,0,0,0,0,-1,1784,1002,0,0
567,22,0,0,0,0,0,0,0,0,0,-1,1791,1002,0,0
574,22,0,0,0,0,0,0,0,0,0,-1,1798,1002,0,0
581,22,0,0,0,0,0,0,0,0,0,-1,1805,1002,0,0
588,22,0,0,0,0,0,0,0,0,0,-1,1812,1002,0,0
595,22,0,0,0,0,0,0,0,0,0,-1,1819,1002,0,0
602,22,0,0,0,0,0,0,0,0,0,-1,1826,1002,0,0
609,22,0,0,0,0,0,0,0,0,0,-1,1833,1002,0,0
616,22,0,0,0,0,0,0,0,0,0,-1,1840,1002,0,0
623,22,0,0,0,0,0,0,0,0,0,-1,1847,1002,0,0
630,22,0,0,0,0,0,0,0,0,0,-1,1854,1002,0,0
637,22,0,0,0,0,0,0,0,0,0,-1,1861,1002,0,0
644,22,75.3428,2.13159,-0.00155686,0.00151539,-0.00235189,0.00278837,-0.00282984,-1.07469,0.0032437,0.0411788,1868,1002,75.3428,-2.13158
651,22,75.3247,2.17548,-0.00134931,0.00134618,-0.00158077,0.00207575,-0.00207888,-1.1384,0.00239868,0.0448073,1875,1002,75.3248,-2.1755
658,22,75.272,2.32886,-0.000943767,0.00122622,-0.000906498,0.00155507,-0.00127261,-1.22279,0.00163528,0.0433468,1882,1002,75.272,-2.32883
665,22,75.349,2.16888,-0.000395494,0.0011345,-0.000407394,0.00123621,-0.00049721,-1.32612,0.00103066,0.0409612,1889,1002,75.349,-2.16886
672,22,75.2839,2.22113,0.0001496,0.00113442,3.38844e-05,0.00113558,0.000148436,1.53644,0.000712749,0.0413506,1896,1002,75.2839,-2.2211
679,22,75.3033,2.13245,0.000712275,0.00096609,0.000437689,0.0012949,0.000383467,0.926504,0.000768045,0.0409696,1903,1002,75.3034,-2.13247
686,22,75.3911,2.36041,0.00111568,0.000508234,0.000690363,0.00156618,5.77354e-05,0.578168,0.00102541,0.0414169,1910,1002,75.3911,-2.36038
693,22,75.3901,2.30469,0.00128552,-3.20681e-05,0.000833346,0.00168902,-0.00043557,0.450924,0.00129584,0.0379591,1917,1002,75.3901,-2.30467
700,22,75.3732,2.17822,0.00123626,-0.000326809,0.000841695,0.00160331,-0.000693859,0.411222,0.00136048,0.0334845,1924,1002,75.3732,-2.17824
707,22,75.3727,2.23987,0.000564589,-6.18986e-05,0.000705312,0.00102309,-0.000520397,0.576421,0.000906748,0.0337399,1931,1002,75.3726,-2.23989
714,22,75.1888,2.28784,0,0,0,0,0,0,0,-1,1938,1002,75.1888,-2.28782
721,22,74.8076,2.73041,0,0,0,0,0,0,0,-1,1945,1002,74.8076,-2.73038
728,22,75.3181,6.62848,0,0,0,0,0,0,0,-1,1952,1002,75.3181,-6.62849
735,22,75.3373,6.76678,-0.00463886,0.00580397,-0.00049922,0.00582778,-0.00466267,-1.52314,0.00606911,0.0192313,1959,1002,75.3373,-6.76677
742,22,75.3518,6.92786,-0.00590748,0.00787551,-0.000749433,0.00791614,-0.00594811,-1.51664,0.00803137,0.0191925,1966,1002,75.3518,-6.92784
749,22,75.2859,7.13788,-0.00704402,0.0104086,-0.00139031,0.0105186,-0.00715408,-1.4918,0.0102648,0.0147564,1973,1002,75.286,-7.13789
756,22,75.2666,7.34039,-0.00700313,0.0139439,-0.00276675,0.0143031,-0.00736241,-1.44166,0.0127208,0.0200432,1980,1002,75.2666,-7.34041
763,22,75.1738,7.50494,-0.0049493,0.018174,-0.00478419,0.0191248,-0.00590005,-1.37462,0.0151056,0.021046,1987,1002,75.1737,-7.50494
770,22,74.947,7.60944,-0.000468866,0.023629,-0.00740387,0.025722,-0.00256186,-1.2953,0.0180626,0.021844,1994,1002,74.9469,-7.60946
777,22,74.5479,7.5863,0.0072164,0.0290324,-0.0110187,0.0336292,0.00261968,-1.17557,0.0215992,0.0446473,2001,1002,74.548,-7.58628
784,22,74.2151,7.60382,0,0,0,0,0,0,0,-1,2008,1002,74.215,-7.60382
791,22,73.9402,8.15717,0,0,0,0,0,0,0,-1,2015,1002,73.9402,-8.15719
798,22,73.9695,8.43646,0,0,0,0,0,0,0,-1,2022,1002,73.9694,-8.43649
805,22,74.3533,8.9101,0,0,0,0,0,0,0,-1,2029,1002,74.3533,-8.91011
812,22,74.7207,4.20471,0,0,0,0,0,0,0,-1,2036,1002,74.7206,-4.20471
-700,15,0,0,0,0,0,0,0,0,0,-1,524,1009,0,0
-693,15,-70.0776,-4.84076,0,0,0,0,0,0,0,-1,531,1009,-70.0776,4.84076
-686,15,-69.4113,-2.55273,0,0,0,0,0,0,0,-1,538,1009,-69.4113,2.55274
-679,15,-59.8005,4.40851,0,0,0,0,0,0,0,-1,545,1009,-59.8005,-4.40851
-672,15,-59.5018,4.77869,0,0,0,0,0,0,0,-1,552,1009,-59.5018,-4.77866
-665,15,-59.3424,4.46161,0,0,0,0,0,0,0,-1,559,1009,-59.3424,-4.46161
-658,15,-59.0594,4.48022,0,0,0,0,0,0,0,-1,566,1009,-59.0594,-4.48023
-651,15,-51.4943,3.62128,0,0,0,0,0,0,0,-1,573,1009,-51.4943,-3.62128
-644,15,-59.9504,5.82123,0,0,0,0,0,0,0,-1,580,1009,-59.9504,-5.82122
-637,15,-60.0809,6.04333,-0.0100064,0.027291,0.0143,0.0321426,-0.0148581,1.24371,0.0277408,0.0337521,587,1009,-60.081,-6.04336
-630,15,-60.1017,5.97052,-0.00925085,0.0201138,0.00942609,0.0228792,-0.0120162,1.28543,0.0204697,0.018434,594,1009,-60.1018,-5.97053
-623,15,-60.1644,5.89496,-0.0083897,0.0138192,0.00609273,0.0153808,-0.00995136,1.31988,0.0147371,0.0121206,601,1009,-60.1643,-5.89494
-616,15,-60.1755,5.79913,-0.00739034,0.00905353,0.00397385,0.0099635,-0.00830031,1.34569,0.0105592,0.0187813,608,1009,-60.1755,-5.79913
-609,15,-60.3232,5.75586,-0.00644004,0.00572004,0.00235555,0.00616039,-0.00688039,1.38599,0.00753292,0.0259724,615,1009,-60.3232,-5.75584
-602,15,-60.4632,5.68353,-0.00546221,0.00315208,0.00134238,0.00335642,-0.00566654,1.41974,0.00526601,0.0255491,622,1009,-60.4632,-5.68353
-595,15,-60.5675,5.5329,0,0,0,0,0,0,0,-1,629,1009,-60.5675,-5.53288
-588,15,-59.1528,0.265076,0,0,0,0,0,0,0,-1,636,1009,-59.1528,-0.265081
-581,15,-59.1093,0.235657,-0.00302404,-0.00103549,0.00012983,-0.00102705,-0.00303248,1.50587,0.00178092,0.0425302,643,1009,-59.1093,-0.235657
-574,15,-59.0847,0.182678,-0.00246364,-0.00171209,-0.000262829,-0.00162929,-0.00254643,-1.26562,0.00148922,0.0329231,650,1009,-59.0847,-0.182665
-567,15,-59.1239,0.0950317,-0.00211707,-0.00179245,-0.000469014,-0.00145846,-0.00245106,-0.951978,0.00142362,0.0331108,657,1009,-59.1239,-0.0950021
-560,15,-59.1846,0.144836,-0.0017796,-0.0014221,-0.00068609,-0.000891859,-0.00230984,-0.912831,0.00134507,0.0389556,664,1009,-59.1847,-0.144821
-553,15,-59.0191,0.265869,-0.00157301,-0.000839919,-0.00106726,-7.80204e-05,-0.00233491,-0.950811,0.00153126,0.0417239,671,1009,-59.0191,-0.265844
-546,15,-58.9612,0.314026,-0.00161403,-0.000537108,-0.00170887,0.000716125,-0.00286726,-0.938024,0.00218961,0.041506,678,1009,-58.9612,-0.314019
-539,15,-59.1346,0.318848,-0.00232175,-0.00093012,-0.00259477,0.00106051,-0.00431238,-0.916396,0.00328597,0.0396169,685,1009,-59.1346,-0.31882
-532,15,-59.2388,0.0264282,-0.00268123,-0.00144341,-0.00381772,0.00180524,-0.00592988,-0.865757,0.00467272,0.0393684,692,1009,-59.2388,-0.0264214
-525,15,0,0,0,0,0,0,0,0,0,-1,699,1009,0,0
-518,15,0,0,0,0,0,0,0,0,0,-1,706,1009,0,0
-511,15,0,0,0,0,0,0,0,0,0,-1,713,1009,0,0
-504,15,0,0,0,0,0,0,0,0,0,-1,720,1009,0,0
-497,15,0,0,0,0,0,0,0,0,0,-1,727,1009,0,0
-490,15,0,0,0,0,0,0,0,0,0,-1,734,1009,0,0
-483,15,0,0,0,0,0,0,0,0,0,-1,741,1009,0,0
-476,15,0,0,0,0,0,0,0,0,0,-1,748,1009,0,0
-469,15,0,0,0,0,0,0,0,0,0,-1,755,1009,0,0
-462,15,0,0,0,0,0,0,0,0,0,-1,762,1009,0,0
-455,15,0,0,0,0,0,0,0,0,0,-1,769,1009,0,0
-448,15,0,0,0,0,0,0,0,0,0,-1,776,1009,0,0
-441,15,0,0,0,0,0,0,0,0,0,-1,783,1009,0,0
-434,15,0,0,0,0,0,0,0,0,0,-1,790,1009,0,0
-427,15,0,0,0,0,0,0,0,0,0,-1,797,1009,0,0
-420,15,0,0,0,0,0,0,0,0,0,-1,804,1009,0,0
-413,15,0,0,0,0,0,0,0,0,0,-1,811,1009,0,0
-406,15,0,0,0,0,0,0,0,0,0,-1,818,1009,0,0
-399,15,0,0,0,0,0,0,0,0,0,-1,825,1009,0,0
-392,15,0,0,0,0,0,0,0,0,0,-1,832,1009,0,0
-385,15,0,0,0,0,0,0,0,0,0,-1,839,1009,0,0
-378,15,0,0,0,0,0,0,0,0,0,-1,846,1009,0,0
-371,15,0,0,0,0,0,0,0,0,0,-1,853,1009,0,0
-364,15,0,0,0,0,0,0,0,0,0,-1,860,1009,0,0
-357,15,0,0,0,0,0,0,0,0,0,-1,867,1009,0,0
-350,15,0,0,0,0,0,0,0,0,0,-1,874,1009,0,0
-343,15,0,0,0,0,0,0,0,0,0,-1,881,1009,0,0
-336,15,0,0,0,0,0,0,0,0,0,-1,888,1009,0,0
-329,15,0,0,0,0,0,0,0,0,0,-1,895,1009,0,0
-322,15,0,0,0,0,0,0,0,0,0,-1,902,1009,0,0
-315,15,0,0,0,0,0,0,0,0,0,-1,909,1009,0,0
-308,15,0,0,0,0,0,0,0,0,0,-1,916,1009,0,0
-301,15,0,0,0,0,0,0,0,0,0,-1,923,1009,0,0
-294,15,0,0,0,0,0,0,0,0,0,-1,930,1009,0,0
-287,15,0,0,0,0,0,0,0,0,0,-1,937,1009,0,0
-280,15,0,0,0,0,0,0,0,0,0,-1,944,1009,0,0
-273,15,0,0,0,0,0,0,0,0,0,-1,951,1009,0,0
-266,15,0,0,0,0,0,0,0,0,0,-1,958,1009,0,0
-259,15,0,0,0,0,0,0,0,0,0,-1,965,1009,0,0
-252,15,0,0,0,0,0,0,0,0,0,-1,972,1009,0,0
-245,15,0,0,0,0,0,0,0,0,0,-1,979,1009,0,0
-238,15,0,0,0,0,0,0,0,0,0,-1,986,1009,0,0
-231,15,0,0,0,0,0,0,0,0,0,-1,993,1009,0,0
-224,15,0,0,0,0,0,0,0,0,0,-1,1000,1009,0,0
-217,15,0,0,0,0,0,0,0,0,0,-1,1007,1009,0,0
-210,15,0,0,0,0,0,0,0,0,0,-1,1014,1009,0,0
-203,15,0,0,0,0,0,0,0,0,0,-1,1021,1009,0,0
-196,15,0,0,0,0,0,0,0,0,0,-1,1028,1009,0,0
-189,15,0,0,0,0,0,0,0,0,0,-1,1035,1009,0,0
-182,15,0,0,0,0,0,0,0,0,0,-1,1042,1009,0,0
-175,15,0,0,0,0,0,0,0,0,0,-1,1049,1009,0,0
-168,15,0,0,0,0,0,0,0,0,0,-1,1056,1009,0,0
-161,15,0,0,0,0,0,0,0,0,0,-1,1063,1009,0,0
-154,15,0,0,0,0,0,0,0,0,0,-1,1070,1009,0,0
-147,15,0,0,0,0,0,0,0,0,0,-1,1077,1009,0,0
-140,15,0,0,0,0,0,0,0,0,0,-1,1084,1009,0,0
-133,15,0,0,0,0,0,0,0,0,0,-1,1091,1009,0,0
-126,15,0,0,0,0,0,0,0,0,0,-1,1098,1009,0,0
-119,15,0,0,0,0,0,0,0,0,0,-1,1105,1009,0,0
-112,15,0,0,0,0,0,0,0,0,0,-1,1112,1009,0,0
-105,15,0,0,0,0,0,0,0,0,0,-1,1119,1009,0,0
-98,15,0,0,0,0,0,0,0,0,0,-1,1126,1009,0,0
-91,15,0,0,0,0,0,0,0,0,0,-1,1133,1009,0,0
-84,15,0,0,0,0,0,0,0,0,0,-1,1140,1009,0,0
-77,15,0,0,0,0,0,0,0,0,0,-1,1147,1009,0,0
-70,15,0,0,0,0,0,0,0,0,0,-1,1154,1009,0,0
-63,15,0,0,0,0,0,0,0,0,0,-1,1161,1009,0,0
-56,15,0,0,0,0,0,0,0,0,0,-1,1168,1009,0,0
-49,15,0,0,0,0,0,0,0,0,0,-1,1175,1009,0,0
-42,15,0,0,0,0,0,0,0,0,0,-1,1182,1009,0,0
-35,15,0,0,0,0,0,0,0,0,0,-1,1189,1009,0,0
-28,15,0,0,0,0,0,0,0,0,0,-1,1196,1009,0,0
-21,15,0,0,0,0,0,0,0,0,0,-1,1203,1009,0,0
-14,15,0,0,0,0,0,0,0,0,0,-1,1210,1009,0,0
-7,15,0,0,0,0,0,0,0,0,0,-1,1217,1009,0,0
0,15,0,0,0,0,0,0,0,0,0,-1,1224,1009,0,0
7,15,0,0,0,0,0,0,0,0,0,-1,1231,1009,0,0
14,15,0,0,0,0,0,0,0,0,0,-1,1238,1009,0,0
21,15,0,0,0,0,0,0,0,0,0,-1,1245,1009,0,0
28,15,0,0,0,0,0,0,0,0,0,-1,1252,1009,0,0
35,15,0,0,0,0,0,0,0,0,0,-1,1259,1009,0,0
42,15,0,0,0,0,0,0,0,0,0,-1,1266,1009,0,0
49,15,0,0,0,0,0,0,0,0,0,-1,1273,1009,0,0
56,15,0,0,0,0,0,0,0,0,0,-1,1280,1009,0,0
63,15,0,0,0,0,0,0,0,0,0,-1,1287,1009,0,0
70,15,0,0,0,0,0,0,0,0,0,-1,1294,1009,0,0
77,15,0,0,0,0,0,0,0,0,0,-1,1301,1009,0,0
84,15,0,0,0,0,0,0,0,0,0,-1,1308,1009,0,0
91,15,0,0,0,0,0,0,0,0,0,-1,1315,1009,0,0
98,15,0,0,0,0,0,0,0,0,0,-1,1322,1009,0,0
105,15,0,0,0,0,0,0,0,0,0,-1,1329,1009,0,0
112,15,0,0,0,0,0,0,0,0,0,-1,1336,1009,0,0
119,15,0,0,0,0,0,0,0,0,0,-1,1343,1009,0,0
126,15,0,0,0,0,0,0,0,0,0,-1,1350,1009,0,0
133,15,0,0,0,0,0,0,0,0,0,-1,1357,1009,0,0
140,15,0,0,0,0,0,0,0,0,0,-1,1364,1009,0,0
147,15,0,0,0,0,0,0,0,0,0,-1,1371,1009,0,0
154,15,0,0,0,0,0,0,0,0,0,-1,1378,1009,0,0
161,15,0,0,0,0,0,0,0,0,0,-1,1385,1009,0,0
168,15,0,0,0,0,0,0,0,0,0,-1,1392,1009,0,0
175,15,0,0,0,0,0,0,0,0,0,-1,1399,1009,0,0
182,15,0,0,0,0,0,0,0,0,0,-1,1406,1009,0,0
189,15,0,0,0,0,0,0,0,0,0,-1,1413,1009,0,0
196,15,0,0,0,0,0,0,0,0,0,-1,1420,1009,0,0
203,15,0,0,0,0,0,0,0,0,0,-1,1427,1009,0,0
210,15,0,0,0,0,0,0,0,0,0,-1,1434,1009,0,0
217,15,0,0,0,0,0,0,0,0,0,-1,1441,1009,0,0
224,15,0,0,0,0,0,0,0,0,0,-1,1448,1009,0,0
231,15,0,0,0,0,0,0,0,0,0,-1,1455,1009,0,0
238,15,0,0,0,0,0,0,0,0,0,-1,1462,1009,0,0
245,15,0,0,0,0,0,0,0,0,0,-1,1469,1009,0,0
252,15,0,0,0,0,0,0,0,0,0,-1,1476,1009,0,0
259,15,0,0,0,0,0,0,0,0,0,-1,1483,1009,0,0
266,15,0,0,0,0,0,0,0,0,0,-1,1490,1009,0,0
273,15,0,0,0,0,0,0,0,0,0,-1,1497,1009,0,0
280,15,0,0,0,0,0,0,0,0,0,-1,1504,1009,0,0
287,15,0,0,0,0,0,0,0,0,0,-1,1511,1009,0,0
294,15,0,0,0,0,0,0,0,0,0,-1,1518,1009,0,0
301,15,0,0,0,0,0,0,0,0,0,-1,1525,1009,0,0
308,15,0,0,0,0,0,0,0,0,0,-1,1532,1009,0,0
315,15,0,0,0,0,0,0,0,0,0,-1,1539,1009,0,0
322,15,0,0,0,0,0,0,0,0,0,-1,1546,1009,0,0
329,15,0,0,0,0,0,0,0,0,0,-1,1553,1009,0,0
336,15,0,0,0,0,0,0,0,0,0,-1,1560,1009,0,0
343,15,0,0,0,0,0,0,0,0,0,-1,1567,1009,0,0
350,15,0,0,0,0,0,0,0,0,0,-1,1574,1009,0,0
357,15,0,0,0,0,0,0,0,0,0,-1,1581,1009,0,0
364,15,0,0,0,0,0,0,0,0,0,-1,1588,1009,0,0
371,15,0,0,0,0,0,0,0,0,0,-1,1595,1009,0,0
378,15,0,0,0,0,0,0,0,0,0,-1,1602,1009,0,0
385,15,0,0,0,0,0,0,0,0,0,-1,1609,1009,0,0
392,15,0,0,0,0,0,0,0,0,0,-1,1616,1009,0,0
399,15,0,0,0,0,0,0,0,0,0,-1,1623,1009,0,0
406,15,0,0,0,0,0,0,0,0,0,-1,1630,1009,0,0
413,15,0,0,0,0,0,0,0,0,0,-1,1637,1009,0,0
420,15,0,0,0,0,0,0,0,0,0,-1,1644,1009,0,0
427,15,0,0,0,0,0,0,0,0,0,-1,1651,1009,0,0
434,15,0,0,0,0,0,0,0,0,0,-1,1658,1009,0,0
441,15,0,0,0,0,0,0,0,0,0,-1,1665,1009,0,0
448,15,0,0,0,0,0,0,0,0,0,-1,1672,1009,0,0
455,15,0,0,0,0,0,0,0,0,0,-1,1679,1009,0,0
462,15,0,0,0,0,0,0,0,0,0,-1,1686,1009,0,0
469,15,0,0,0,0,0,0,0,0,0,-1,1693,1009,0,0
476,15,0,0,0,0,0,0,0,0,0,-1,1700,1009,0,0
483,15,0,0,0,0,0,0,0,0,0,-1,1707,1009,0,0
490,15,0,0,0,0,0,0,0,0,0,-1,1714,1009,0,0
497,15,0,0,0,0,0,0,0,0,0,-1,1721,1009,0,0
504,15,0,0,0,0,0,0,0,0,0,-1,1728,1009,0,0
511,15,0,0,0,0,0,0,0,0,0,-1,1735,1009,0,0
518,15,0,0,0,0,0,0,0,0,0,-1,1742,1009,0,0
525,15,0,0,0,0,0,0,0,0,0,-1,1749,1009,0,0
532,15,0,0,0,0,0,0,0,0,0,-1,1756,1009,0,0
539,15,0,0,0,0,0,0,0,0,0,-1,1763,1009,0,0
546,15,0,0,0,0,0,0,0,0,0,-1,1770,1009,0,0
553,15,0,0,0,0,0,0,0,0,0,-1,1777,1009,0,0
560,15,0,0,0,0,0,0,0,0,0,-1,1784,1009,0,0
567,15,0,0,0,0,0,0,0,0,0,-1,1791,1009,0,0
574,15,0,0,0,0,0,0,0,0,0,-1,1798,1009,0,0
581,15,0,0,0,0,0,0,0,0,0,-1,1805,1009,0,0
588,15,0,0,0,0,0,0,0,0,0,-1,1812,1009,0,0
595,15,0,0,0,0,0,0,0,0,0,-1,1819,1009,0,0
602,15,0,0,0,0,0,0,0,0,0,-1,1826,1009,0,0
609,15,0,0,0,0,0,0,0,0,0,-1,1833,1009,0,0
616,15,0,0,0,0,0,0,0,0,0,-1,1840,1009,0,0
623,15,0,0,0,0,0,0,0,0,0,-1,1847,1009,0,0
630,15,0,0,0,0,0,0,0,0,0,-1,1854,1009,0,0
637,15,0,0,0,0,0,0,0,0,0,-1,1861,1009,0,0
644,15,75.2422,2.17932,-0.00207398,0.0015247,-0.00243676,0.00275446,-0.00330373,-1.10342,0.00350249,0.040786,1868,1009,75.2421,-2.17935
651,15,75.1838,2.09998,-0.00177096,0.00141918,-0.00159588,0.00208045,-0.00243223,-1.17797,0.00260804,0.0395076,1875,1009,75.1839,-2.09995
658,15,75.2009,1.99664,-0.00131132,0.00129257,-0.000898042,0.00157225,-0.001591,-1.26888,0.00182631,0.0397667,1882,1009,75.2009,-1.99663
665,15,75.2332,1.97626,-0.00074426,0.00117961,-0.000369172,0.00124801,-0.000812668,-1.38757,0.00119855,0.0389821,1889,1009,75.2332,-1.97623
672,15,75.2408,2.14783,-0.0001713,0.00118626,0.000100369,0.00119364,-0.00017868,1.4974,0.000861517,0.0374182,1896,1009,75.2408,-2.14783
679,15,75.3032,2.18683,0.00044002,0.00106314,0.000520589,0.00135827,0.000144881,1.05505,0.000861294,0.0376489,1903,1009,75.3033,-2.18685
686,15,75.3564,2.11816,0.000834716,0.000627965,0.00078393,0.00152206,-5.93765e-05,0.719842,0.00103506,0.0442459,1910,1009,75.3564,-2.11815
693,15,75.312,2.04535,0.00102321,9.0332e-05,0.000948727,0.00161396,-0.000500418,0.556927,0.00127592,0.0412646,1917,1009,75.312,-2.04535
700,15,75.3031,2.08655,0.00102079,-0.000253794,0.000994843,0.00156496,-0.000797965,0.500531,0.00138798,0.0326615,1924,1009,75.3031,-2.08656
707,15,75.3262,2.18414,0.000325022,-5.5291e-06,0.000887413,0.00106242,-0.000742926,0.693331,0.00104774,0.0337644,1931,1009,75.3262,-2.18413
714,15,75.3213,2.21967,-0.000821434,0.000856077,0.000690354,0.00110365,-0.001069,1.22647,0.00125443,0.0416806,1938,1009,75.3213,-2.21965
721,15,75.0679,2.0484,0,0,0,0,0,0,0,-1,1945,1009,75.0678,-2.04841
728,15,75.5374,6.76935,0,0,0,0,0,0,0,-1,1952,1009,75.5373,-6.76934
735,15,75.4435,6.92047,-0.00501727,0.00586731,-0.000267228,0.00587387,-0.00502382,-1.54626,0.00629816,0.0250846,1959,1009,75.4434,-6.92046
742,15,75.4727,7.14722,-0.00624023,0.00772938,-0.000543153,0.00775047,-0.00626131,-1.53199,0.00810492,0.0480521,1966,1009,75.4726,-7.14722
749,15,75.4695,7.21484,-0.00716571,0.00993672,-0.00127762,0.0100316,-0.00726063,-1.49664,0.0100263,0.0302483,1973,1009,75.4694,-7.21483
756,15,75.4324,7.13214,-0.00678947,0.0129757,-0.00284882,0.0133781,-0.00719189,-1.43047,0.0120538,0.0205339,1980,1009,75.4324,-7.13215
763,15,75.334,7.31299,-0.00440177,0.0163598,-0.00519719,0.0175881,-0.0056301,-1.33871,0.0139851,0.0158385,1987,1009,75.334,-7.313
770,15,75.1306,7.32776,0.000732952,0.0205544,-0.00850197,0.0237014,-0.00241412,-1.21628,0.016664,0.0215042,1994,1009,75.1307,-7.32773
777,15,74.7043,7.31506,0.00947245,0.024551,-0.0131059,0.0321314,0.00189197,-1.04641,0.020819,0.0469827,2001,1009,74.7043,-7.31507
784,15,74.3564,7.32739,0,0,0,0,0,0,0,-1,2008,1009,74.3565,-7.32741
791,15,71.5635,6.11658,0,0,0,0,0,0,0,-1,2015,1009,71.5636,-6.1166
798,15,73.218,8.20026,0,0,0,0,0,0,0,-1,2022,1009,73.2179,-8.20025
805,15,73.0918,5.70203,0,0,0,0,0,0,0,-1,2029,1009,73.0919,-5.70202
812,15,74.7666,4.17609,0,0,0,0,0,0,0,-1,2036,1009,74.7665,-4.17609
-700,8,0,0,0,0,0,0,0,0,0,-1,524,1016,0,0
-693,8,-69.2416,-5.01489,0,0,0,0,0,0,0,-1,531,1016,-69.2416,5.01487
-686,8,-68.7694,-2.52966,0,0,0,0,0,0,0,-1,538,1016,-68.7694,2.52968
-679,8,-59.8243,4.43701,0,0,0,0,0,0,0,-1,545,1016,-59.8243,-4.43704
-672,8,-59.5292,4.77765,0,0,0,0,0,0,0,-1,552,1016,-59.5292,-4.77765
-665,8,-59.1773,4.76471,0,0,0,0,0,0,0,-1,559,1016,-59.1773,-4.76471
-658,8,-58.8746,4.82581,0,0,0,0,0,0,0,-1,566,1016,-58.8746,-4.82578
-651,8,-58.2461,5.43817,0,0,0,0,0,0,0,-1,573,1016,-58.2461,-5.43819
-644,8,-59.8719,5.52515,0,0,0,0,0,0,0,-1,580,1016,-59.872,-5.52515
-637,8,-59.9139,5.69672,-0.00790629,0.0263378,0.0157956,0.0325109,-0.0140795,1.19823,0.0275917,0.0467799,587,1016,-59.914,-5.6967
-630,8,-60.1763,5.84515,-0.00783763,0.0196739,0.00999718,0.022923,-0.0110867,1.25656,0.0200279,0.0289892,594,1016,-60.1763,-5.84517
-623,8,-60.1437,5.87933,-0.0074585,0.0135779,0.00617153,0.0152548,-0.0091354,1.30549,0.0142287,0.018404,601,1016,-60.1438,-5.87934
-616,8,-60.2099,5.81018,-0.00676553,0.00894322,0.00376224,0.00979778,-0.0076201,1.34744,0.0100824,0.0207061,608,1016,-60.2099,-5.81017
-609,8,-60.3331,5.68243,-0.00600164,0.00564805,0.00191003,0.00595321,-0.00630681,1.41237,0.00707931,0.0233203,615,1016,-60.3331,-5.68246
-602,8,-60.2712,5.75616,-0.00514207,0.00298275,0.000741353,0.00304984,-0.00520916,1.48054,0.00482236,0.0273342,622,1016,-60.2712,-5.75617
-595,8,-60.3396,5.67639,0,0,0,0,0,0,0,-1,629,1016,-60.3396,-5.67637
-588,8,-59.0349,0.081604,0,0,0,0,0,0,0,-1,636,1016,-59.0349,-0.0815991
-581,8,-59.0782,0.102417,-0.00282686,-0.00102433,-0.000333301,-0.00096467,-0.00288652,-1.39369,0.0016968,0.0323654,643,1016,-59.0782,-0.102406
-574,8,-59.0635,0.112915,-0.0022989,-0.00163809,-0.000642308,-0.00124619,-0.0026908,-1.02295,0.00155494,0.0342605,650,1016,-59.0635,-0.112932
-567,8,-59.1721,0.180847,-0.00199806,-0.00165638,-0.000778676,-0.00103003,-0.00262442,-0.893384,0.00152684,0.0369341,657,1016,-59.1721,-0.180834
-560,8,-59.2191,0.207031,-0.00172738,-0.00121279,-0.000926023,-0.000508982,-0.00243119,-0.920904,0.00148059,0.0412976,664,1016,-59.2191,-0.207018
-553,8,-59.0987,0.240479,-0.00162468,-0.000550314,-0.00123328,0.000257692,-0.00243269,-0.990795,0.00171416,0.0429509,671,1016,-59.0987,-0.240449
-546,8,-59.145,0.349792,-0.00180298,-0.000164323,-0.00180507,0.000998664,-0.00296597,-0.998446,0.00238106,0.0399535,678,1016,-59.145,-0.349781
-539,8,-59.2209,0.504456,-0.00266666,-0.000410292,-0.00261814,0.00131239,-0.00438935,-0.988831,0.00344798,0.0397158,685,1016,-59.2209,-0.504472
-532,8,-59.1678,0.401306,-0.00324202,-0.000672968,-0.00373116,0.00198859,-0.00590358,-0.951178,0.00473974,0.040256,692,1016,-59.1678,-0.4013
-525,8,0,0,0,0,0,0,0,0,0,-1,699,1016,0,0
-518,8,0,0,0,0,0,0,0,0,0,-1,706,1016,0,0
-511,8,0,0,0,0,0,0,0,0,0,-1,713,1016,0,0
-504,8,0,0,0,0,0,0,0,0,0,-1,720,1016,0,0
-497,8,0,0,0,0,0,0,0,0,0,-1,727,1016,0,0
-490,8,0,0,0,0,0,0,0,0,0,-1,734,1016,0,0
-483,8,0,0,0,0,0,0,0,0,0,-1,741,1016,0,0
-476,8,0,0,0,0,0,0,0,0,0,-1,748,1016,0,0
-469,8,0,0,0,0,0,0,0,0,0,-1,755,1016,0,0
-462,8,0,0,0,0,0,0,0,0,0,-1,762,1016,0,0
-455,8,0,0,0,0,0,0,0,0,0,-1,769,1016,0,0
-448,8,0,0,0,0,0,0,0,0,0,-1,776,1016,0,0
-441,8,0,0,0,0,0,0,0,0,0,-1,783,1016,0,0
-434,8,0,0,0,0,0,0,0,0,0,-1,790,1016,0,0
-427,8,0,0,0,0,0,0,0,0,0,-1,797,1016,0,0
-420,8,0,0,0,0,0,0,0,0,0,-1,804,1016,0,0
-413,8,0,0,0,0,0,0,0,0,0,-1,811,1016,0,0
-406,8,0,0,0,0,0,0,0,0,0,-1,818,1016,0,0
-399,8,0,0,0,0,0,0,0,0,0,-1,825,1016,0,0
-392,8,0,0,0,0,0,0,0,0,0,-1,832,1016,0,0
-385,8,0,0,0,0,0,0,0,0,0,-1,839,1016,0,0
-378,8,0,0,0,0,0,0,0,0,0,-1,846,1016,0,0
-371,8,0,0,0,0,0,0,0,0,0,-1,853,1016,0,0
-364,8,0,0,0,0,0,0,0,0,0,-1,860,1016,0,0
-357,8,0,0,0,0,0,0,0,0,0,-1,867,1016,0,0
-350,8,0,0,0,0,0,0,0,0,0,-1,874,1016,0,0
-343,8,0,0,0,0,0,0,0,0,0,-1,881,1016,0,0
-336,8,0,0,0,0,0,0,0,0,0,-1,888,1016,0,0
-329,8,0,0,0,0,0,0,0,0,0,-1,895,1016,0,0
-322,8,0,0,0,0,0,0,0,0,0,-1,902,1016,0,0
-315,8,0,0,0,0,0,0,0,0,0,-1,909,1016,0,0
-308,8,0,0,0,0,0,0,0,0,0,-1,916,1016,0,0
-301,8,0,0,0,0,0,0,0,0,0,-1,923,1016,0,0
-294,8,0,0,0,0,0,0,0,0,0,-1,930,1016,0,0
-287,8,0,0,0,0,0,0,0,0,0,-1,937,1016,0,0
-280,8,0,0,0,0,0,0,0,0,0,-1,944,1016,0,0
-273,8,0,0,0,0,0,0,0,0,0,-1,951,1016,0,0
-266,8,0,0,0,0,0,0,0,0,0,-1,958,1016,0,0
-259,8,0,0,0,0,0,0,0,0,0,-1,965,1016,0,0
-252,8,0,0,0,0,0,0,0,0,0,-1,972,1016,0,0
-245,8,0,0,0,0,0,0,0,0,0,-1,979,1016,0,0
-238,8,0,0,0,0,0,0,0,0,0,-1,986,1016,0,0
-231,8,0,0,0,0,0,0,0,0,0,-1,993,1016,0,0
-224,8,0,0,0,0,0,0,0,0,0,-1,1000,1016,0,0
-217,8,0,0,0,0,0,0,0,0,0,-1,1007,1016,0,0
-210,8,0,0,0,0,0,0,0,0,0,-1,1014,1016,0,0
-203,8,0,0,0,0,0,0,0,0,0,-1,1021,1016,0,0
-196,8,0,0,0,0,0,0,0,0,0,-1,1028,1016,0,0
-189,8,0,0,0,0,0,0,0,0,0,-1,1035,1016,0,0
-182,8,0,0,0,0,0,0,0,0,0,-1,1042,1016,0,0
-175,8,0,0,0,0,0,0,0,0,0,-1,1049,1016,0,0
-168,8,0,0,0,0,0,0,0,0,0,-1,1056,1016,0,0
-161,8,0,0,0,0,0,0,0,0,0,-1,1063,1016,0,0
-154,8,0,0,0,0,0,0,0,0,0,-1,1070,1016,0,0
-147,8,0,0,0,0,0,0,0,0,0,-1,1077,1016,0,0
-140,8,0,0,0,0,0,0,0,0,0,-1,1084,1016,0,0
-133,8,0,0,0,0,0,0,0,0,0,-1,1091,1016,0,0
-126,8,0,0,0,0,0,0,0,0,0,-1,1098,1016,0,0
-119,8,0,0,0,0,0,0,0,0,0,-1,1105,1016,0,0
-112,8,0,0,0,0,0,0,0,0,0,-1,1112,1016,0,0
-105,8,0,0,0,0,0,0,0,0,0,-1,1119,1016,0,0
-98,8,0,0,0,0,0,0,0,0,0,-1,1126,1016,0,0
-91,8,0,0,0,0,0,0,0,0,0,-1,1133,1016,0,0
-84,8,0,0,0,0,0,0,0,0,0,-1,1140,1016,0,0
-77,8,0,0,0,0,0,0,0,0,0,-1,1147,1016,0,0
-70,8,0,0,0,0,0,0,0,0,0,-1,1154,1016,0,0
-63,8,0,0,0,0,0,0,0,0,0,-1,1161,1016,0,0
-56,8,0,0,0,0,0,0,0,0,0,-1,1168,1016,0,0
-49,8,0,0,0,0,0,0,0,0,0,-1,1175,1016,0,0
-42,8,0,0,0,0,0,0,0,0,0,-1,1182,1016,0,0
-35,8,0,0,0,0,0,0,0,0,0,-1,1189,1016,0,0
-28,8,0,0,0,0,0,0,0,0,0,-1,1196,1016,0,0
-21,8,0,0,0,0,0,0,0,0,0,-1,1203,1016,0,0
-14,8,0,0,0,0,0,0,0,0,0,-1,1210,1016,0,0
-7,8,0,0,0,0,0,0,0,0,0,-1,1217,1016,0,0
0,8,0,0,0,0,0,0,0,0,0,-1,1224,1016,0,0
7,8,0,0,0,0,0,0,0,0,0,-1,1231,1016,0,0
14,8,0,0,0,0,0,0,0,0,0,-1,1238,1016,0,0
21,8,0,0,0,0,0,0,0,0,0,-1,1245,1016,0,0
28,8,0,0,0,0,0,0,0,0,0,-1,1252,1016,0,0
35,8,0,0,0,0,0,0,0,0,0,-1,1259,1016,0,0
42,8,0,0,0,0,0,0,0,0,0,-1,1266,1016,0,0
49,8,0,0,0,0,0,0,0,0,0,-1,1273,1016,0,0
56,8,0,0,0,0,0,0,0,0,0,-1,1280,1016,0,0
63,8,0,0,0,0,0,0,0,0,0,-1,1287,1016,0,0
70,8,0,0,0,0,0,0,0,0,0,-1,1294,1016,0,0
77,8,0,0,0,0,0,0,0,0,0,-1,1301,1016,0,0
84,8,0,0,0,0,0,0,0,0,0,-1,1308,1016,0,0
91,8,0,0,0,0,0,0,0,0,0,-1,1315,1016,0,0
98,8,0,0,0,0,0,0,0,0,0,-1,1322,1016,0,0
105,8,0,0,0,0,0,0,0,0,0,-1,1329,1016,0,0
112,8,0,0,0,0,0,0,0,0,0,-1,1336,1016,0,0
119,8,0,0,0,0,0,0,0,0,0,-1,1343,1016,0,0
126,8,0,0,0,0,0,0,0,0,0,-1,1350,1016,0,0
133,8,0,0,0,0,0,0,0,0,0,-1,1357,1016,0,0
140,8,0,0,0,0,0,0,0,0,0,-1,1364,1016,0,0
147,8,0,0,0,0,0,0,0,0,0,-1,1371,1016,0,0
154,8,0,0,0,0,0,0,0,0,0,-1,1378,1016,0,0
161,8,0,0,0,0,0,0,0,0,0,-1,1385,1016,0,0
168,8,0,0,0,0,0,0,0,0,0,-1,1392,1016,0,0
175,8,0,0,0,0,0,0,0,0,0,-1,1399,1016,0,0
182,8,0,0,0,0,0,0,0,0,0,-1,1406,1016,0,0
189,8,0,0,0,0,0,0,0,0,0,-1,1413,1016,0,0
196,8,0,0,0,0,0,0,0,0,0,-1,1420,1016,0,0
203,8,0,0,0,0,0,0,0,0,0,-1,1427,1016,0,0
210,8,0,0,0,0,0,0,0,0,0,-1,1434,1016,0,0
217,8,0,0,0,0,0,0,0,0,0,-1,1441,1016,0,0
224,8,0,0,0,0,0,0,0,0,0,-1,1448,1016,0,0
231,8,0,0,0,0,0,0,0,0,0,-1,1455,1016,0,0
238,8,0,0,0,0,0,0,0,0,0,-1,1462,1016,0,0
245,8,0,0,0,0,0,0,0,0,0,-1,1469,1016,0,0
252,8,0,0,0,0,0,0,0,0,0,-1,1476,1016,0,0
259,8,0,0,0,0,0,0,0,0,0,-1,1483,1016,0,0
266,8,0,0,0,0,0,0,0,0,0,-1,1490,1016,0,0
273,8,0,0,0,0,0,0,0,0,0,-1,1497,1016,0,0
280,8,0,0,0,0,0,0,0,0,0,-1,1504,1016,0,0
287,8,0,0,0,0,0,0,0,0,0,-1,1511,1016,0,0
294,8,0,0,0,0,0,0,0,0,0,-1,1518,1016,0,0
301,8,0,0,0,0,0,0,0,0,0,-1,1525,1016,0,0
308,8,0,0,0,0,0,0,0,0,0,-1,1532,1016,0,0
315,8,0,0,0,0,0,0,0,0,0,-1,1539,1016,0,0
322,8,0,0,0,0,0,0,0,0,0,-1,1546,1016,0,0
329,8,0,0,0,0,0,0,0,0,0,-1,1553,1016,0,0
336,8,0,0,0,0,0,0,0,0,0,-1,1560,1016,0,0
343,8,0,0,0,0,0,0,0,0,0,-1,1567,1016,0,0
350,8,0,0,0,0,0,0,0,0,0,-1,1574,1016,0,0
357,8,0,0,0,0,0,0,0,0,0,-1,1581,1016,0,0
364,8,0,0,0,0,0,0,0,0,0,-1,1588,1016,0,0
371,8,0,0,0,0,0,0,0,0,0,-1,1595,1016,0,0
378,8,0,0,0,0,0,0,0,0,0,-1,1602,1016,0,0
385,8,0,0,0,0,0,0,0,0,0,-1,1609,1016,0,0
392,8,0,0,0,0,0,0,0,0,0,-1,1616,1016,0,0
399,8,0,0,0,0,0,0,0,0,0,-1,1623,1016,0,0
406,8,0,0,0,0,0,0,0,0,0,-1,1630,1016,0,0
413,8,0,0,0,0,0,0,0,0,0,-1,1637,1016,0,0
420,8,0,0,0,0,0,0,0,0,0,-1,1644,1016,0,0
427,8,0,0,0,0,0,0,0,0,0,-1,1651,1016,0,0
434,8,0,0,0,0,0,0,0,0,0,-1,1658,1016,0,0
441,8,0,0,0,0,0,0,0,0,0,-1,1665,1016,0,0
448,8,0,0,0,0,0,0,0,0,0,-1,1672,1016,0,0
455,8,0,0,0,0,0,0,0,0,0,-1,1679,1016,0,0
462,8,0,0,0,0,0,0,0,0,0,-1,1686,1016,0,0
469,8,0,0,0,0,0,0,0,0,0,-1,1693,1016,0,0
476,8,0,0,0,0,0,0,0,0,0,-1,1700,1016,0,0
483,8,0,0,0,0,0,0,0,0,0,-1,1707,1016,0,0
490,8,0,0,0,0,0,0,0,0,0,-1,1714,1016,0,0
497,8,0,0,0,0,0,0,0,0,0,-1,1721,1016,0,0
504,8,0,0,0,0,0,0,0,0,0,-1,1728,1016,0,0
511,8,0,0,0,0,0,0,0,0,0,-1,1735,1016,0,0
518,8,0,0,0,0,0,0,0,0,0,-1,1742,1016,0,0
525,8,0,0,0,0,0,0,0,0,0,-1,1749,1016,0,0
532,8,0,0,0,0,0,0,0,0,0,-1,1756,1016,0,0
539,8,0,0,0,0,0,0,0,0,0,-1,1763,1016,0,0
546,8,0,0,0,0,0,0,0,0,0,-1,1770,1016,0,0
553,8,0,0,0,0,0,0,0,0,0,-1,1777,1016,0,0
560,8,0,0,0,0,0,0,0,0,0,-1,1784,1016,0,0
567,8,0,0,0,0,0,0,0,0,0,-1,1791,1016,0,0
574,8,0,0,0,0,0,0,0,0,0,-1,1798,1016,0,0
581,8,0,0,0,0,0,0,0,0,0,-1,1805,1016,0,0
588,8,0,0,0,0,0,0,0,0,0,-1,1812,1016,0,0
595,8,0,0,0,0,0,0,0,0,0,-1,1819,1016,0,0
602,8,0,0,0,0,0,0,0,0,0,-1,1826,1016,0,0
609,8,0,0,0,0,0,0,0,0,0,-1,1833,1016,0,0
616,8,0,0,0,0,0,0,0,0,0,-1,1840,1016,0,0
623,8,0,0,0,0,0,0,0,0,0,-1,1847,1016,0,0
630,8,0,0,0,0,0,0,0,0,0,-1,1854,1016,0,0
637,8,0,0,0,0,0,0,0,0,0,-1,1861,1016,0,0
644,8,75.0741,2.21466,-0.00302658,0.00106876,-0.00238918,0.00216769,-0.00412552,-1.13969,0.00369153,0.0456217,1868,1016,75.0742,-2.21466
651,8,75.1907,1.94128,-0.00244669,0.00108092,-0.00154012,0.00165869,-0.00302446,-1.2119,0.00274188,0.0380599,1875,1016,75.1907,-1.94126
658,8,75.1978,1.84729,-0.00180815,0.00107289,-0.000848962,0.00130444,-0.0020397,-1.30452,0.00194624,0.039206,1882,1016,75.1977,-1.84728
665,8,75.1648,1.89435,-0.00113724,0.00105331,-0.000306715,0.00109545,-0.00117937,-1.43428,0.00131367,0.040032,1889,1016,75.1648,-1.89433
672,8,75.1676,1.99005,-0.000482757,0.00117687,0.000183832,0.00119699,-0.000502876,1.46179,0.00100832,0.0387284,1896,1016,75.1675,-1.99003
679,8,75.2572,2.11761,0.000209573,0.00120804,0.000627883,0.00151098,-9.33593e-05,1.12127,0.00103983,0.0371912,1903,1016,75.2572,-2.11764
686,8,75.3219,2.11786,0.000589673,0.000874402,0.000909562,0.00165267,-0.000188598,0.863028,0.00116973,0.0410507,1910,1016,75.3219,-2.11784
693,8,75.3275,2.026,0.000759568,0.000392464,0.00110862,0.00169973,-0.000547699,0.703358,0.00135319,0.0413753,1917,1016,75.3276,-2.02603
700,8,75.3271,2.01648,0.000777605,4.35057e-05,0.00120088,0.00166628,-0.000845171,0.637082,0.00147559,0.0329055,1924,1016,75.3272,-2.01647
707,8,75.3009,2.07361,6.07465e-05,0.000276621,0.00112054,0.00129441,-0.000957043,0.833413,0.00130473,0.0289656,1931,1016,75.3009,-2.07358
714,8,75.3263,1.98163,-0.00109955,0.00114054,0.000954981,0.0014924,-0.0014514,1.21779,0.00169966,0.0379741,1938,1016,75.3262,-1.98166
721,8,75.2332,1.83838,0,0,0,0,0,0,0,-1,1945,1016,75.2332,-1.83837
728,8,52.1681,5.36774,0,0,0,0,0,0,0,-1,1952,1016,52.168,-5.36773
735,8,75.5146,7.10419,0,0,0,0,0,0,0,-1,1959,1016,75.5147,-7.10417
742,8,75.4316,7.32385,0,0,0,0,0,0,0,-1,1966,1016,75.4316,-7.32387
749,8,75.8035,7.15894,0,0,0,0,0,0,0,-1,1973,1016,75.8034,-7.15896
756,8,75.521,6.98737,-0.00688909,0.0120711,-0.00276111,0.012465,-0.007283,-1.42909,0.0115316,0.043008,1980,1016,75.5211,-6.98735
763,8,75.4548,7.1358,-0.00427755,0.014716,-0.0053296,0.0161093,-0.00567083,-1.3151,0.0130473,0.0180636,1987,1016,75.4548,-7.13578
770,8,75.2939,7.06421,0.00127369,0.0177053,-0.00911652,0.0217618,-0.00278285,-1.15214,0.0155189,0.0233618,1994,1016,75.2939,-7.06423
777,8,74.8987,7.04419,0.010819,0.0202659,-0.0144935,0.0307862,0.000298685,-0.942922,0.0204253,0.0381473,2001,1016,74.8988,-7.04422
784,8,74.4963,7.01086,0,0,0,0,0,0,0,-1,2008,1016,74.4962,-7.01088
791,8,71.7517,6.66052,0,0,0,0,0,0,0,-1,2015,1016,71.7516,-6.66053
798,8,72.3938,5.91559,0,0,0,0,0,0,0,-1,2022,1016,72.3939,-5.91561
805,8,74.0225,5.54028,0,0,0,0,0,0,0,-1,2029,1016,74.0224,-5.54026
812,8,75.1099,3.87701,0,0,0,0,0,0,0,-1,2036,1016,75.1098,-3.877
-700,1,0,0,0,0,0,0,0,0,0,-1,524,1023,0,0
-693,1,-68.1547,-5.27759,0,0,0,0,0,0,0,-1,531,1023,-68.1547,5.27762
-686,1,-67.2436,-3.32556,0,0,0,0,0,0,0,-1,538,1023,-67.2436,3.32553
-679,1,-56.7238,0.455078,0,0,0,0,0,0,0,-1,545,1023,-56.7238,-0.455081
-672,1,-59.5455,4.8078,0,0,0,0,0,0,0,-1,552,1023,-59.5455,-4.80781
-665,1,-59.6253,2.46619,0,0,0,0,0,0,0,-1,559,1023,-59.6253,-2.46619
-658,1,-59.945,4.57849,0,0,0,0,0,0,0,-1,566,1023,-59.945,-4.57849
-651,1,-58.5157,5.35773,0,0,0,0,0,0,0,-1,573,1023,-58.5157,-5.35774
-644,1,-59.71,5.72046,0,0,0,0,0,0,0,-1,580,1023,-59.71,-5.72044
-637,1,-59.9114,5.60736,-0.00601604,0.0252271,0.0171539,0.0328066,-0.0135955,1.15474,0.027545,0.0441457,587,1023,-59.9114,-5.60737
-630,1,-60.2463,5.63422,-0.00639599,0.0191639,0.0106115,0.0229951,-0.0102272,1.22432,0.0196474,0.0395089,594,1023,-60.2463,-5.63421
-623,1,-60.092,5.81793,-0.00634153,0.0133157,0.00631766,0.015171,-0.00819686,1.28515,0.0136903,0.0200321,601,1023,-60.092,-5.81793
-616,1,-60.2831,5.70581,-0.0058583,0.0087355,0.00366441,0.00960394,-0.00672673,1.3381,0.00947717,0.0262969,608,1023,-60.2831,-5.70582
-609,1,-60.3243,5.74164,-0.00524022,0.0054116,0.00160274,0.00564754,-0.00547615,1.42464,0.00642252,0.0279479,615,1023,-60.3244,-5.74165
-602,1,-60.1015,5.88422,-0.00448386,0.00256094,0.000232318,0.0025686,-0.00449152,1.53787,0.00412625,0.0178781,622,1023,-60.1015,-5.88423
-595,1,-60.0756,5.93909,0,0,0,0,0,0,0,-1,629,1023,-60.0756,-5.93911
-588,1,-60.0053,6.09814,0,0,0,0,0,0,0,-1,636,1023,-60.0053,-6.09814
-581,1,-59.096,0.139709,-0.0022851,-0.0013463,-0.000752911,-0.000928453,-0.00270295,-1.06414,0.00158583,0.027881,643,1023,-59.096,-0.139714
-574,1,-59.1521,0.151367,-0.00178169,-0.00189591,-0.000961483,-0.000875626,-0.00280198,-0.755734,0.0016552,0.0346788,650,1023,-59.1521,-0.151344
-567,1,-59.2006,0.313721,-0.00152567,-0.0018457,-0.00101903,-0.000654173,-0.0027172,-0.707522,0.00163756,0.0410536,657,1023,-59.2006,-0.31371
-560,1,-59.1703,0.411377,-0.00134136,-0.0013199,-0.00107396,-0.00025662,-0.00240464,-0.790393,0.00152477,0.0413523,664,1023,-59.1704,-0.4114
-553,1,-59.196,0.234802,-0.00135467,-0.000556514,-0.00125507,0.000361396,-0.00227258,-0.93933,0.00164877,0.0409177,671,1023,-59.196,-0.234792
-546,1,-59.2491,0.204285,-0.00165752,-3.38027e-05,-0.00165323,0.000996155,-0.00268748,-1.01364,0.00220021,0.0409468,678,1023,-59.2491,-0.204276
-539,1,-59.2364,0.365906,-0.00261609,-5.5837e-05,-0.00224374,0.00124727,-0.00391919,-1.04463,0.00311299,0.0413377,685,1023,-59.2364,-0.365929
-532,1,-59.1412,0.273621,-0.0033132,-5.68415e-05,-0.00304188,0.0017652,-0.00513524,-1.03112,0.00413931,0.0421893,692,1023,-59.1411,-0.273592
-525,1,0,0,0,0,0,0,0,0,0,-1,699,1023,0,0
-518,1,0,0,0,0,0,0,0,0,0,-1,706,1023,0,0
-511,1,0,0,0,0,0,0,0,0,0,-1,713,1023,0,0
-504,1,0,0,0,0,0,0,0,0,0,-1,720,1023,0,0
-497,1,0,0,0,0,0,0,0,0,0,-1,727,1023,0,0
-490,1,0,0,0,0,0,0,0,0,0,-1,734,1023,0,0
-483,1,0,0,0,0,0,0,0,0,0,-1,741,1023,0,0
-476,1,0,0,0,0,0,0,0,0,0,-1,748,1023,0,0
-469,1,0,0,0,0,0,0,0,0,0,-1,755,1023,0,0
-462,1,0,0,0,0,0,0,0,0,0,-1,762,1023,0,0
-455,1,0,0,0,0,0,0,0,0,0,-1,769,1023,0,0
-448,1,0,0,0,0,0,0,0,0,0,-1,776,1023,0,0
-441,1,0,0,0,0,0,0,0,0,0,-1,783,1023,0,0
-434,1,0,0,0,0,0,0,0,0,0,-1,790,1023,0,0
-427,1,0,0,0,0,0,0,0,0,0,-1,797,1023,0,0
-420,1,0,0,0,0,0,0,0,0,0,-1,804,1023,0,0
-413,1,0,0,0,0,0,0,0,0,0,-1,811,1023,0,0
-406,1,0,0,0,0,0,0,0,0,0,-1,818,1023,0,0
-399,1,0,0,0,0,0,0,0,0,0,-1,825,1023,0,0
-392,1,0,0,0,0,0,0,0,0,0,-1,832,1023,0,0
-385,1,0,0,0,0,0,0,0,0,0,-1,839,1023,0,0
-378,1,0,0,0,0,0,0,0,0,0,-1,846,1023,0,0
-371,1,0,0,0,0,0,0,0,0,0,-1,853,1023,0,0
-364,1,0,0,0,0,0,0,0,0,0,-1,860,1023,0,0
-357,1,0,0,0,0,0,0,0,0,0,-1,867,1023,0,0
-350,1,0,0,0,0,0,0,0,0,0,-1,874,1023,0,0
-343,1,0,0,0,0,0,0,0,0,0,-1,881,1023,0,0
-336,1,0,0,0,0,0,0,0,0,0,-1,888,1023,0,0
-329,1,0,0,0,0,0,0,0,0,0,-1,895,1023,0,0
-322,1,0,0,0,0,0,0,0,0,0,-1,902,1023,0,0
-315,1,0,0,0,0,0,0,0,0,0,-1,909,1023,0,0
-308,1,0,0,0,0,0,0,0,0,0,-1,916,1023,0,0
-301,1,0,0,0,0,0,0,0,0,0,-1,923,1023,0,0
-294,1,0,0,0,0,0,0,0,0,0,-1,930,1023,0,0
-287,1,0,0,0,0,0,0,0,0,0,-1,937,1023,0,0
-280,1,0,0,0,0,0,0,0,0,0,-1,944,1023,0,0
-273,1,0,0,0,0,0,0,0,0,0,-1,951,1023,0,0
-266,1,0,0,0,0,0,0,0,0,0,-1,958,1023,0,0
-259,1,0,0,0,0,0,0,0,0,0,-1,965,1023,0,0
-252,1,0,0,0,0,0,0,0,0,0,-1,972,1023,0,0
-245,1,0,0,0,0,0,0,0,0,0,-1,979,1023,0,0
-238,1,0,0,0,0,0,0,0,0,0,-1,986,1023,0,0
-231,1,0,0,0,0,0,0,0,0,0,-1,993,1023,0,0
-224,1,0,0,0,0,0,0,0,0,0,-1,1000,1023,0,0
-217,1,0,0,0,0,0,0,0,0,0,-1,1007,1023,0,0
-210,1,0,0,0,0,0,0,0,0,0,-1,1014,1023,0,0
-203,1,0,0,0,0,0,0,0,0,0,-1,1021,1023,0,0
-196,1,0,0,0,0,0,0,0,0,0,-1,1028,1023,0,0
-189,1,0,0,0,0,0,0,0,0,0,-1,1035,1023,0,0
-182,1,0,0,0,0,0,0,0,0,0,-1,1042,1023,0,0
-175,1,0,0,0,0,0,0,0,0,0,-1,1049,1023,0,0
-168,1,0,0,0,0,0,0,0,0,0,-1,1056,1023,0,0
-161,1,0,0,0,0,0,0,0,0,0,-1,1063,1023,0,0
-154,1,0,0,0,0,0,0,0,0,0,-1,1070,1023,0,0
-147,1,0,0,0,0,0,0,0,0,0,-1,1077,1023,0,0
-140,1,0,0,0,0,0,0,0,0,0,-1,1084,1023,0,0
-133,1,0,0,0,0,0,0,0,0,0,-1,1091,1023,0,0
-126,1,0,0,0,0,0,0,0,0,0,-1,1098,1023,0,0
-119,1,0,0,0,0,0,0,0,0,0,-1,1105,1023,0,0
-112,1,0,0,0,0,0,0,0,0,0,-1,1112,1023,0,0
-105,1,0,0,0,0,0,0,0,0,0,-1,1119,1023,0,0
-98,1,0,0,0,0,0,0,0,0,0,-1,1126,1023,0,0
-91,1,0,0,0,0,0,0,0,0,0,-1,1133,1023,0,0
-84,1,0,0,0,0,0,0,0,0,0,-1,1140,1023,0,0
-77,1,0,0,0,0,0,0,0,0,0,-1,1147,1023,0,0
-70,1,0,0,0,0,0,0,0,0,0,-1,1154,1023,0,0
-63,1,0,0,0,0,0,0,0,0,0,-1,1161,1023,0,0
-56,1,0,0,0,0,0,0,0,0,0,-1,1168,1023,0,0
-49,1,0,0,0,0,0,0,0,0,0,-1,1175,1023,0,0
-42,1,0,0,0,0,0,0,0,0,0,-1,1182,1023,0,0
-35,1,0,0,0,0,0,0,0,0,0,-1,1189,1023,0,0
-28,1,0,0,0,0,0,0,0,0,0,-1,1196,1023,0,0
-21,1,0,0,0,0,0,0,0,0,0,-1,1203,1023,0,0
-14,1,0,0,0,0,0,0,0,0,0,-1,1210,1023,0,0
-7,1,0,0,0,0,0,0,0,0,0,-1,1217,1023,0,0
0,1,0,0,0,0,0,0,0,0,0,-1,1224,1023,0,0
7,1,0,0,0,0,0,0,0,0,0,-1,1231,1023,0,0
14,1,0,0,0,0,0,0,0,0,0,-1,1238,1023,0,0
21,1,0,0,0,0,0,0,0,0,0,-1,1245,1023,0,0
28,1,0,0,0,0,0,0,0,0,0,-1,1252,1023,0,0
35,1,0,0,0,0,0,0,0,0,0,-1,1259,1023,0,0
42,1,0,0,0,0,0,0,0,0,0,-1,1266,1023,0,0
49,1,0,0,0,0,0,0,0,0,0,-1,1273,1023,0,0
56,1,0,0,0,0,0,0,0,0,0,-1,1280,1023,0,0
63,1,0,0,0,0,0,0,0,0,0,-1,1287,1023,0,0
70,1,0,0,0,0,0,0,0,0,0,-1,1294,1023,0,0
77,1,0,0,0,0,0,0,0,0,0,-1,1301,1023,0,0
84,1,0,0,0,0,0,0,0,0,0,-1,1308,1023,0,0
91,1,0,0,0,0,0,0,0,0,0,-1,1315,1023,0,0
98,1,0,0,0,0,0,0,0,0,0,-1,1322,1023,0,0
105,1,0,0,0,0,0,0,0,0,0,-1,1329,1023,0,0
112,1,0,0,0,0,0,0,0,0,0,-1,1336,1023,0,0
119,1,0,0,0,0,0,0,0,0,0,-1,1343,1023,0,0
126,1,0,0,0,0,0,0,0,0,0,-1,1350,1023,0,0
133,1,0,0,0,0,0,0,0,0,0,-1,1357,1023,0,0
140,1,0,0,0,0,0,0,0,0,0,-1,1364,1023,0,0
147,1,0,0,0,0,0,0,0,0,0,-1,1371,1023,0,0
154,1,0,0,0,0,0,0,0,0,0,-1,1378,1023,0,0
161,1,0,0,0,0,0,0,0,0,0,-1,1385,1023,0,0
168,1,0,0,0,0,0,0,0,0,0,-1,1392,1023,0,0
175,1,0,0,0,0,0,0,0,0,0,-1,1399,1023,0,0
182,1,0,0,0,0,0,0,0,0,0,-1,1406,1023,0,0
189,1,0,0,0,0,0,0,0,0,0,-1,1413,1023,0,0
196,1,0,0,0,0,0,0,0,0,0,-1,1420,1023,0,0
203,1,0,0,0,0,0,0,0,0,0,-1,1427,1023,0,0
210,1,0,0,0,0,0,0,0,0,0,-1,1434,1023,0,0
217,1,0,0,0,0,0,0,0,0,0,-1,1441,1023,0,0
224,1,0,0,0,0,0,0,0,0,0,-1,1448,1023,0,0
231,1,0,0,0,0,0,0,0,0,0,-1,1455,1023,0,0
238,1,0,0,0,0,0,0,0,0,0,-1,1462,1023,0,0
245,1,0,0,0,0,0,0,0,0,0,-1,1469,1023,0,0
252,1,0,0,0,0,0,0,0,0,0,-1,1476,1023,0,0
259,1,0,0,0,0,0,0,0,0,0,-1,1483,1023,0,0
266,1,0,0,0,0,0,0,0,0,0,-1,1490,1023,0,0
273,1,0,0,0,0,0,0,0,0,0,-1,1497,1023,0,0
280,1,0,0,0,0,0,0,0,0,0,-1,1504,1023,0,0
287,1,0,0,0,0,0,0,0,0,0,-1,1511,1023,0,0
294,1,0,0,0,0,0,0,0,0,0,-1,1518,1023,0,0
301,1,0,0,0,0,0,0,0,0,0,-1,1525,1023,0,0
308,1,0,0,0,0,0,0,0,0,0,-1,1532,1023,0,0
315,1,0,0,0,0,0,0,0,0,0,-1,1539,1023,0,0
322,1,0,0,0,0,0,0,0,0,0,-1,1546,1023,0,0
329,1,0,0,0,0,0,0,0,0,0,-1,1553,1023,0,0
336,1,0,0,0,0,0,0,0,0,0,-1,1560,1023,0,0
343,1,0,0,0,0,0,0,0,0,0,-1,1567,1023,0,0
350,1,0,0,0,0,0,0,0,0,0,-1,1574,1023,0,0
357,1,0,0,0,0,0,0,0,0,0,-1,1581,1023,0,0
364,1,0,0,0,0,0,0,0,0,0,-1,1588,1023,0,0
371,1,0,0,0,0,0,0,0,0,0,-1,1595,1023,0,0
378,1,0,0,0,0,0,0,0,0,0,-1,1602,1023,0,0
385,1,0,0,0,0,0,0,0,0,0,-1,1609,1023,0,0
392,1,0,0,0,0,0,0,0,0,0,-1,1616,1023,0,0
399,1,0,0,0,0,0,0,0,0,0,-1,1623,1023,0,0
406,1,0,0,0,0,0,0,0,0,0,-1,1630,1023,0,0
413,1,0,0,0,0,0,0,0,0,0,-1,1637,1023,0,0
420,1,0,0,0,0,0,0,0,0,0,-1,1644,1023,0,0
427,1,0,0,0,0,0,0,0,0,0,-1,1651,1023,0,0
434,1,0,0,0,0,0,0,0,0,0,-1,1658,1023,0,0
441,1,0,0,0,0,0,0,0,0,0,-1,1665,1023,0,0
448,1,0,0,0,0,0,0,0,0,0,-1,1672,1023,0,0
455,1,0,0,0,0,0,0,0,0,0,-1,1679,1023,0,0
462,1,0,0,0,0,0,0,0,0,0,-1,1686,1023,0,0
469,1,0,0,0,0,0,0,0,0,0,-1,1693,1023,0,0
476,1,0,0,0,0,0,0,0,0,0,-1,1700,1023,0,0
483,1,0,0,0,0,0,0,0,0,0,-1,1707,1023,0,0
490,1,0,0,0,0,0,0,0,0,0,-1,1714,1023,0,0
497,1,0,0,0,0,0,0,0,0,0,-1,1721,1023,0,0
504,1,0,0,0,0,0,0,0,0,0,-1,1728,1023,0,0
511,1,0,0,0,0,0,0,0,0,0,-1,1735,1023,0,0
518,1,0,0,0,0,0,0,0,0,0,-1,1742,1023,0,0
525,1,0,0,0,0,0,0,0,0,0,-1,1749,1023,0,0
532,1,0,0,0,0,0,0,0,0,0,-1,1756,1023,0,0
539,1,0,0,0,0,0,0,0,0,0,-1,1763,1023,0,0
546,1,0,0,0,0,0,0,0,0,0,-1,1770,1023,0,0
553,1,0,0,0,0,0,0,0,0,0,-1,1777,1023,0,0
560,1,0,0,0,0,0,0,0,0,0,-1,1784,1023,0,0
567,1,0,0,0,0,0,0,0,0,0,-1,1791,1023,0,0
574,1,0,0,0,0,0,0,0,0,0,-1,1798,1023,0,0
581,1,0,0,0,0,0,0,0,0,0,-1,1805,1023,0,0
588,1,0,0,0,0,0,0,0,0,0,-1,1812,1023,0,0
595,1,0,0,0,0,0,0,0,0,0,-1,1819,1023,0,0
602,1,0,0,0,0,0,0,0,0,0,-1,1826,1023,0,0
609,1,0,0,0,0,0,0,0,0,0,-1,1833,1023,0,0
616,1,0,0,0,0,0,0,0,0,0,-1,1840,1023,0,0
623,1,0,0,0,0,0,0,0,0,0,-1,1847,1023,0,0
630,1,0,0,0,0,0,0,0,0,0,-1,1854,1023,0,0
637,1,0,0,0,0,0,0,0,0,0,-1,1861,1023,0,0
644,1,0,0,0,0,0,0,0,0,0,-1,1868,1023,0,0
651,1,75.3413,1.92395,-0.00358074,0.000765311,-0.0011536,0.00105254,-0.00386797,-1.32678,0.00299185,0.039314,1875,1023,75.3413,-1.92398
658,1,75.3469,1.86035,-0.00262005,0.000722935,-0.000615103,0.00083252,-0.00272964,-1.39449,0.00215164,0.040615,1882,1023,75.3469,-1.86035
665,1,75.3301,1.87134,-0.00173436,0.000680964,-0.000147629,0.000689954,-0.00174335,-1.50998,0.00144809,0.0433011,1889,1023,75.33,-1.87131
672,1,75.3108,1.90704,-0.00091828,0.000811134,0.000313213,0.000866112,-0.000973258,1.39704,0.00106256,0.0442774,1896,1023,75.3107,-1.90702
679,1,75.2579,1.99396,-0.000113276,0.000893307,0.000765922,0.0013065,-0.000526466,1.07607,0.00108974,0.0416486,1903,1023,75.258,-1.99394
686,1,75.3496,1.95807,0.000244895,0.000596459,0.00107979,0.00151468,-0.000673324,0.866087,0.001294,0.0416974,1910,1023,75.3497,-1.95805
693,1,75.3412,2.09277,0.000369305,0.000157955,0.00132799,0.00159582,-0.00106856,0.745694,0.00154829,0.038916,1917,1023,75.3411,-2.09275
700,1,75.3427,2.07947,0.000371375,-0.000168969,0.00147757,0.00160327,-0.00140086,0.694972,0.00173575,0.0329578,1924,1023,75.3427,-2.07945
707,1,75.2938,2.05823,-0.000364982,7.99272e-05,0.00143768,0.00131226,-0.00159731,0.862155,0.00168253,0.0287015,1931,1023,75.2938,-2.05825
714,1,75.2755,2.02246,-0.0015165,0.000957762,0.00131524,0.00152627,-0.00208501,1.1628,0.00209327,0.0314201,1938,1023,75.2755,-2.02243
721,1,75.2523,2.0238,0,0,0,0,0,0,0,-1,1945,1023,75.2523,-2.02378
728,1,52.4639,5.59277,0,0,0,0,0,0,0,-1,1952,1023,52.4639,-5.59276
735,1,53.3617,6.10699,0,0,0,0,0,0,0,-1,1959,1023,53.3617,-6.10698
742,1,52.4393,5.81525,0,0,0,0,0,0,0,-1,1966,1023,52.4393,-5.81527
749,1,75.6831,6.90979,0,0,0,0,0,0,0,-1,1973,1023,75.6832,-6.90982
756,1,75.6184,7.13702,-0.00694109,0.0111765,-0.00256631,0.011533,-0.00729759,-1.43277,0.0109631,0.0475571,1980,1023,75.6183,-7.13701
763,1,75.4053,6.99164,-0.00414463,0.0133229,-0.00527246,0.014791,-0.0056127,-1.29923,0.0121709,0.019308,1987,1023,75.4054,-6.99161
770,1,75.3376,6.89655,0.001693,0.0154078,-0.00934648,0.0201426,-0.00304187,-1.10189,0.0145488,0.0211413,1994,1023,75.3378,-6.89655
777,1,75.0178,6.77307,0.0118104,0.0167644,-0.0152169,0.0297046,-0.00112981,-0.866079,0.0201902,0.0287926,2001,1023,75.0178,-6.77308
784,1,75.0122,6.54132,0,0,0,0,0,0,0,-1,2008,1023,75.0123,-6.54132
791,1,75.5308,4.78436,0,0,0,0,0,0,0,-1,2015,1023,75.5308,-4.78439
798,1,73.8259,5.2641,0,0,0,0,0,0,0,-1,2022,1023,73.8259,-5.26407
805,1,74.8782,4.77771,0.0930146,0.0101756,-0.0575178,0.122474,-0.0192842,-0.473348,0.0887786,0.0488568,2029,1023,74.8782,-4.77768
812,1,76.012,3.40363,0.127521,0.00594038,-0.0754518,0.163624,-0.0301633,-0.4463,0.120403,0.047898,2036,1023,76.012,-3.40363
-700,-6,0,0,0,0,0,0,0,0,0,-1,524,1030,0,0
-693,-6,-67.2183,-5.43787,0,0,0,0,0,0,0,-1,531,1030,-67.2183,5.43784
-686,-6,-66.2718,-3.52441,0,0,0,0,0,0,0,-1,538,1030,-66.2718,3.5244
-679,-6,-56.519,1.1947,0,0,0,0,0,0,0,-1,545,1030,-56.519,-1.19472
-672,-6,-60.0334,1.4303,0,0,0,0,0,0,0,-1,552,1030,-60.0334,-1.43025
-665,-6,-59.7169,2.38184,0.00660724,0.0313977,0.0651711,0.0853419,-0.047337,0.879373,0.0776426,0.0480705,559,1030,-59.7169,-2.38186
-658,-6,-59.602,3.84521,0.00287923,0.0331921,0.0510262,0.0712653,-0.0351939,0.929764,0.0626293,0.0430874,566,1030,-59.602,-3.84525
-651,-6,-59.7,4.16284,0,0,0,0,0,0,0,-1,573,1030,-59.6999,-4.16284
-644,-6,-59.6558,5.51477,0,0,0,0,0,0,0,-1,580,1030,-59.6558,-5.51473
-637,-6,-60.0358,5.7251,0,0,0,0,0,0,0,-1,587,1030,-60.0358,-5.72514
-630,-6,-60.113,5.55005,-0.00470383,0.0187099,0.0111858,0.0231948,-0.0091887,1.18948,0.0192707,0.0285593,594,1030,-60.113,-5.55004
-623,-6,-60.0316,5.69385,-0.00493001,0.0130111,0.00647817,0.0151057,-0.0070246,1.25807,0.0130578,0.0222249,601,1030,-60.0316,-5.6938
-616,-6,-60.116,5.70654,-0.0046225,0.00839453,0.00362254,0.00933475,-0.00556271,1.31685,0.00869247,0.0264025,608,1030,-60.116,-5.70654
-609,-6,-60.0981,5.84338,-0.00409592,0.00505984,0.00139321,0.00526715,-0.00430323,1.42308,0.00553479,0.0253787,615,1030,-60.0981,-5.84334
-602,-6,-59.988,5.99939,-0.00341803,0.0020904,-0.00013398,0.00209366,-0.00342129,-1.54649,0.00321466,0.0151787,622,1030,-59.988,-5.99941
-595,-6,-60.042,6.11487,0,0,0,0,0,0,0,-1,629,1030,-60.042,-6.1149
-588,-6,-59.0716,0.217651,0,0,0,0,0,0,0,-1,636,1030,-59.0716,-0.217608
-581,-6,-59.0996,0.140869,-0.0015201,-0.00175423,-0.0011089,-0.000522106,-0.00275223,-0.73281,0.00168792,0.0249154,643,1030,-59.0996,-0.140848
-574,-6,-59.0958,0.100708,-0.00107807,-0.0022463,-0.0012403,-0.000291225,-0.00303315,-0.565329,0.00193235,0.0333734,650,1030,-59.0958,-0.100675
-567,-6,-59.0923,0.251953,-0.000924623,-0.00215031,-0.00122999,-0.000163254,-0.00291168,-0.554275,0.00188905,0.041365,657,1030,-59.0924,-0.251987
-560,-6,-59.0208,0.254272,-0.000921419,-0.00157886,-0.00119831,-7.5592e-06,-0.00249272,-0.651531,0.0016593,0.0435533,664,1030,-59.0208,-0.254235
-553,-6,-58.9398,0.0118408,-0.00116644,-0.000775871,-0.00125865,0.000302555,-0.00224486,-0.862361,0.00160695,0.0416254,671,1030,-58.9398,-0.0118726
-546,-6,-59.0554,0.109619,-0.00173118,-0.000187644,-0.00149368,0.000721869,-0.0026407,-1.02385,0.00204403,0.0412876,678,1030,-59.0554,-0.109573
-539,-6,-59.1171,0.161011,-0.00291823,-7.82443e-05,-0.00189063,0.000866259,-0.00386274,-1.10749,0.00290725,0.0428778,685,1030,-59.1171,-0.161025
-532,-6,-59.2073,0.217896,-0.00389456,8.28245e-05,-0.00241394,0.00122175,-0.00503349,-1.12995,0.00382845,0.0416432,692,1030,-59.2072,-0.217867
-525,-6,0,0,0,0,0,0,0,0,0,-1,699,1030,0,0
-518,-6,0,0,0,0,0,0,0,0,0,-1,706,1030,0,0
-511,-6,0,0,0,0,0,0,0,0,0,-1,713,1030,0,0
-504,-6,0,0,0,0,0,0,0,0,0,-1,720,1030,0,0
-497,-6,0,0,0,0,0,0,0,0,0,-1,727,1030,0,0
-490,-6,0,0,0,0,0,0,0,0,0,-1,734,1030,0,0
-483,-6,0,0,0,0,0,0,0,0,0,-1,741,1030,0,0
-476,-6,0,0,0,0,0,0,0,0,0,-1,748,1030,0,0
-469,-6,0,0,0,0,0,0,0,0,0,-1,755,1030,0,0
-462,-6,0,0,0,0,0,0,0,0,0,-1,762,1030,0,0
-455,-6,0,0,0,0,0,0,0,0,0,-1,769,1030,0,0
-448,-6,0,0,0,0,0,0,0,0,0,-1,776,1030,0,0
-441,-6,0,0,0,0,0,0,0,0,0,-1,783,1030,0,0
-434,-6,0,0,0,0,0,0,0,0,0,-1,790,1030,0,0
-427,-6,0,0,0,0,0,0,0,0,0,-1,797,1030,0,0
-420,-6,0,0,0,0,0,0,0,0,0,-1,804,1030,0,0
-413,-6,0,0,0,0,0,0,0,0,0,-1,811,1030,0,0
-406,-6,0,0,0,0,0,0,0,0,0,-1,818,1030,0,0
-399,-6,0,0,0,0,0,0,0,0,0,-1,825,1030,0,0
-392,-6,0,0,0,0,0,0,0,0,0,-1,832,1030,0,0
-385,-6,0,0,0,0,0,0,0,0,0,-1,839,1030,0,0
-378,-6,0,0,0,0,0,0,0,0,0,-1,846,1030,0,0
-371,-6,0,0,0,0,0,0,0,0,0,-1,853,1030,0,0
-364,-6,0,0,0,0,0,0,0,0,0,-1,860,1030,0,0
-357,-6,0,0,0,0,0,0,0,0,0,-1,867,1030,0,0
-350,-6,0,0,0,0,0,0,0,0,0,-1,874,1030,0,0
-343,-6,0,0,0,0,0,0,0,0,0,-1,881,1030,0,0
-336,-6,0,0,0,0,0,0,0,0,0,-1,888,1030,0,0
-329,-6,0,0,0,0,0,0,0,0,0,-1,895,1030,0,0
-322,-6,0,0,0,0,0,0,0,0,0,-1,902,1030,0,0
-315,-6,0,0,0,0,0,0,0,0,0,-1,909,1030,0,0
-308,-6,0,0,0,0,0,0,0,0,0,-1,916,1030,0,0
-301,-6,0,0,0,0,0,0,0,0,0,-1,923,1030,0,0
-294,-6,0,0,0,0,0,0,0,0,0,-1,930,1030,0,0
-287,-6,0,0,0,0,0,0,0,0,0,-1,937,1030,0,0
-280,-6,0,0,0,0,0,0,0,0,0,-1,944,1030,0,0
-273,-6,0,0,0,0,0,0,0,0,0,-1,951,1030,0,0
-266,-6,0,0,0,0,0,0,0,0,0,-1,958,1030,0,0
-259,-6,0,0,0,0,0,0,0,0,0,-1,965,1030,0,0
-252,-6,0,0,0,0,0,0,0,0,0,-1,972,1030,0,0
-245,-6,0,0,0,0,0,0,0,0,0,-1,979,1030,0,0
-238,-6,0,0,0,0,0,0,0,0,0,-1,986,1030,0,0
-231,-6,0,0,0,0,0,0,0,0,0,-1,993,1030,0,0
-224,-6,0,0,0,0,0,0,0,0,0,-1,1000,1030,0,0
-217,-6,0,0,0,0,0,0,0,0,0,-1,1007,1030,0,0
-210,-6,0,0,0,0,0,0,0,0,0,-1,1014,1030,0,0
-203,-6,0,0,0,0,0,0,0,0,0,-1,1021,1030,0,0
-196,-6,0,0,0,0,0,0,0,0,0,-1,1028,1030,0,0
-189,-6,0,0,0,0,0,0,0,0,0,-1,1035,1030,0,0
-182,-6,0,0,0,0,0,0,0,0,0,-1,1042,1030,0,0
-175,-6,0,0,0,0,0,0,0,0,0,-1,1049,1030,0,0
-168,-6,0,0,0,0,0,0,0,0,0,-1,1056,1030,0,0
-161,-6,0,0,0,0,0,0,0,0,0,-1,1063,1030,0,0
-154,-6,0,0,0,0,0,0,0,0,0,-1,1070,1030,0,0
-147,-6,0,0,0,0,0,0,0,0,0,-1,1077,1030,0,0
-140,-6,0,0,0,0,0,0,0,0,0,-1,1084,1030,0,0
-133,-6,0,0,0,0,0,0,0,0,0,-1,1091,1030,0,0
-126,-6,0,0,0,0,0,0,0,0,0,-1,1098,1030,0,0
-119,-6,0,0,0,0,0,0,0,0,0,-1,1105,1030,0,0
-112,-6,0,0,0,0,0,0,0,0,0,-1,1112,1030,0,0
-105,-6,0,0,0,0,0,0,0,0,0,-1,1119,1030,0,0
-98,-6,0,0,0,0,0,0,0,0,0,-1,1126,1030,0,0
-91,-6,0,0,0,0,0,0,0,0,0,-1,1133,1030,0,0
-84,-6,0,0,0,0,0,0,0,0,0,-1,1140,1030,0,0
-77,-6,0,0,0,0,0,0,0,0,0,-1,1147,1030,0,0
-70,-6,0,0,0,0,0,0,0,0,0,-1,1154,1030,0,0
-63,-6,0,0,0,0,0,0,0,0,0,-1,1161,1030,0,0
-56,-6,0,0,0,0,0,0,0,0,0,-1,1168,1030,0,0
-49,-6,0,0,0,0,0,0,0,0,0,-1,1175,1030,0,0
-42,-6,0,0,0,0,0,0,0,0,0,-1,1182,1030,0,0
-35,-6,0,0,0,0,0,0,0,0,0,-1,1189,1030,0,0
-28,-6,0,0,0,0,0,0,0,0,0,-1,1196,1030,0,0
-21,-6,0,0,0,0,0,0,0,0,0,-1,1203,1030,0,0
-14,-6,0,0,0,0,0,0,0,0,0,-1,1210,1030,0,0
-7,-6,0,0,0,0,0,0,0,0,0,-1,1217,1030,0,0
0,-6,0,0,0,0,0,0,0,0,0,-1,1224,1030,0,0
7,-6,0,0,0,0,0,0,0,0,0,-1,1231,1030,0,0
14,-6,0,0,0,0,0,0,0,0,0,-1,1238,1030,0,0
21,-6,0,0,0,0,0,0,0,0,0,-1,1245,1030,0,0
28,-6,0,0,0,0,0,0,0,0,0,-1,1252,1030,0,0
35,-6,0,0,0,0,0,0,0,0,0,-1,1259,1030,0,0
42,-6,0,0,0,0,0,0,0,0,0,-1,1266,1030,0,0
49,-6,0,0,0,0,0,0,0,0,0,-1,1273,1030,0,0
56,-6,0,0,0,0,0,0,0,0,0,-1,1280,1030,0,0
63,-6,0,0,0,0,0,0,0,0,0,-1,1287,1030,0,0
70,-6,0,0,0,0,0,0,0,0,0,-1,1294,1030,0,0
77,-6,0,0,0,0,0,0,0,0,0,-1,1301,1030,0,0
84,-6,0,0,0,0,0,0,0,0,0,-1,1308,1030,0,0
91,-6,0,0,0,0,0,0,0,0,0,-1,1315,1030,0,0
98,-6,0,0,0,0,0,0,0,0,0,-1,1322,1030,0,0
105,-6,0,0,0,0,0,0,0,0,0,-1,1329,1030,0,0
112,-6,0,0,0,0,0,0,0,0,0,-1,1336,1030,0,0
119,-6,0,0,0,0,0,0,0,0,0,-1,1343,1030,0,0
126,-6,0,0,0,0,0,0,0,0,0,-1,1350,1030,0,0
133,-6,0,0,0,0,0,0,0,0,0,-1,1357,1030,0,0
140,-6,0,0,0,0,0,0,0,0,0,-1,1364,1030,0,0
147,-6,0,0,0,0,0,0,0,0,0,-1,1371,1030,0,0
154,-6,0,0,0,0,0,0,0,0,0,-1,1378,1030,0,0
161,-6,0,0,0,0,0,0,0,0,0,-1,1385,1030,0,0
168,-6,0,0,0,0,0,0,0,0,0,-1,1392,1030,0,0
175,-6,0,0,0,0,0,0,0,0,0,-1,1399,1030,0,0
182,-6,0,0,0,0,0,0,0,0,0,-1,1406,1030,0,0
189,-6,0,0,0,0,0,0,0,0,0,-1,1413,1030,0,0
196,-6,0,0,0,0,0,0,0,0,0,-1,1420,1030,0,0
203,-6,0,0,0,0,0,0,0,0,0,-1,1427,1030,0,0
210,-6,0,0,0,0,0,0,0,0,0,-1,1434,1030,0,0
217,-6,0,0,0,0,0,0,0,0,0,-1,1441,1030,0,0
224,-6,0,0,0,0,0,0,0,0,0,-1,1448,1030,0,0
231,-6,0,0,0,0,0,0,0,0,0,-1,1455,1030,0,0
238,-6,0,0,0,0,0,0,0,0,0,-1,1462,1030,0,0
245,-6,0,0,0,0,0,0,0,0,0,-1,1469,1030,0,0
252,-6,0,0,0,0,0,0,0,0,0,-1,1476,1030,0,0
259,-6,0,0,0,0,0,0,0,0,0,-1,1483,1030,0,0
266,-6,0,0,0,0,0,0,0,0,0,-1,1490,1030,0,0
273,-6,0,0,0,0,0,0,0,0,0,-1,1497,1030,0,0
280,-6,0,0,0,0,0,0,0,0,0,-1,1504,1030,0,0
287,-6,0,0,0,0,0,0,0,0,0,-1,1511,1030,0,0
294,-6,0,0,0,0,0,0,0,0,0,-1,1518,1030,0,0
301,-6,0,0,0,0,0,0,0,0,0,-1,1525,1030,0,0
308,-6,0,0,0,0,0,0,0,0,0,-1,1532,1030,0,0
315,-6,0,0,0,0,0,0,0,0,0,-1,1539,1030,0,0
322,-6,0,0,0,0,0,0,0,0,0,-1,1546,1030,0,0
329,-6,0,0,0,0,0,0,0,0,0,-1,1553,1030,0,0
336,-6,0,0,0,0,0,0,0,0,0,-1,1560,1030,0,0
343,-6,0,0,0,0,0,0,0,0,0,-1,1567,1030,0,0
350,-6,0,0,0,0,0,0,0,0,0,-1,1574,1030,0,0
357,-6,0,0,0,0,0,0,0,0,0,-1,1581,1030,0,0
364,-6,0,0,0,0,0,0,0,0,0,-1,1588,1030,0,0
371,-6,0,0,0,0,0,0,0,0,0,-1,1595,1030,0,0
378,-6,0,0,0,0,0,0,0,0,0,-1,1602,1030,0,0
385,-6,0,0,0,0,0,0,0,0,0,-1,1609,1030,0,0
392,-6,0,0,0,0,0,0,0,0,0,-1,1616,1030,0,0
399,-6,0,0,0,0,0,0,0,0,0,-1,1623,1030,0,0
406,-6,0,0,0,0,0,0,0,0,0,-1,1630,1030,0,0
413,-6,0,0,0,0,0,0,0,0,0,-1,1637,1030,0,0
420,-6,0,0,0,0,0,0,0,0,0,-1,1644,1030,0,0
427,-6,0,0,0,0,0,0,0,0,0,-1,1651,1030,0,0
434,-6,0,0,0,0,0,0,0,0,0,-1,1658,1030,0,0
441,-6,0,0,0,0,0,0,0,0,0,-1,1665,1030,0,0
448,-6,0,0,0,0,0,0,0,0,0,-1,1672,1030,0,0
455,-6,0,0,0,0,0,0,0,0,0,-1,1679,1030,0,0
462,-6,0,0,0,0,0,0,0,0,0,-1,1686,1030,0,0
469,-6,0,0,0,0,0,0,0,0,0,-1,1693,1030,0,0
476,-6,0,0,0,0,0,0,0,0,0,-1,1700,1030,0,0
483,-6,0,0,0,0,0,0,0,0,0,-1,1707,1030,0,0
490,-6,0,0,0,0,0,0,0,0,0,-1,1714,1030,0,0
497,-6,0,0,0,0,0,0,0,0,0,-1,1721,1030,0,0
504,-6,0,0,0,0,0,0,0,0,0,-1,1728,1030,0,0
511,-6,0,0,0,0,0,0,0,0,0,-1,1735,1030,0,0
518,-6,0,0,0,0,0,0,0,0,0,-1,1742,1030,0,0
525,-6,0,0,0,0,0,0,0,0,0,-1,1749,1030,0,0
532,-6,0,0,0,0,0,0,0,0,0,-1,1756,1030,0,0
539,-6,0,0,0,0,0,0,0,0,0,-1,1763,1030,0,0
546,-6,0,0,0,0,0,0,0,0,0,-1,1770,1030,0,0
553,-6,0,0,0,0,0,0,0,0,0,-1,1777,1030,0,0
560,-6,0,0,0,0,0,0,0,0,0,-1,1784,1030,0,0
567,-6,0,0,0,0,0,0,0,0,0,-1,1791,1030,0,0
574,-6,0,0,0,0,0,0,0,0,0,-1,1798,1030,0,0
581,-6,0,0,0,0,0,0,0,0,0,-1,1805,1030,0,0
588,-6,0,0,0,0,0,0,0,0,0,-1,1812,1030,0,0
595,-6,0,0,0,0,0,0,0,0,0,-1,1819,1030,0,0
602,-6,0,0,0,0,0,0,0,0,0,-1,1826,1030,0,0
609,-6,0,0,0,0,0,0,0,0,0,-1,1833,1030,0,0
616,-6,0,0,0,0,0,0,0,0,0,-1,1840,1030,0,0
623,-6,0,0,0,0,0,0,0,0,0,-1,1847,1030,0,0
630,-6,0,0,0,0,0,0,0,0,0,-1,1854,1030,0,0
637,-6,0,0,0,0,0,0,0,0,0,-1,1861,1030,0,0
644,-6,0,0,0,0,0,0,0,0,0,-1,1868,1030,0,0
651,-6,75.9779,1.99146,0,0,0,0,0,0,0,-1,1875,1030,75.978,-1.9914
658,-6,75.468,1.96326,-0.00326768,0.000151423,-0.000304424,0.000178316,-0.00329457,-1.48268,0.00225817,0.0419405,1882,1030,75.468,-1.96331
665,-6,75.5101,1.89197,-0.00220423,7.25318e-05,9.48663e-06,7.25714e-05,-0.00220427,1.56663,0.00149429,0.0446531,1889,1030,75.5101,-1.89199
672,-6,75.5342,1.92163,-0.00125115,0.000177597,0.000390918,0.000277561,-0.00135112,1.32044,0.00100611,0.0446386,1896,1030,75.5342,-1.92166
679,-6,75.2556,1.95654,-0.000339891,0.000257862,0.000813732,0.000825869,-0.000907897,0.961396,0.00100136,0.0437326,1903,1030,75.2556,-1.95654
686,-6,75.1968,1.8573,1.31328e-05,-1.61628e-05,0.00113444,0.00113302,-0.00113605,0.778943,0.00131005,0.0407355,1910,1030,75.1968,-1.85727
693,-6,75.2871,1.99365,0.000112077,-0.00039288,0.00141621,0.00129814,-0.00157894,0.697186,0.00166372,0.0380321,1917,1030,75.2871,-1.99366
700,-6,75.321,2.07312,9.70935e-05,-0.000640745,0.001622,0.0013916,-0.00193525,0.673577,0.00192929,0.0328718,1924,1030,75.3211,-2.07313
707,-6,75.2623,2.07666,-0.000648076,-0.000341798,0.00163365,0.00114588,-0.00213575,0.832132,0.00192317,0.0305221,1931,1030,75.2623,-2.07663
714,-6,75.2847,2.25024,0,0,0,0,0,0,0,-1,1938,1030,75.2847,-2.25027
721,-6,74.9573,2.03687,0,0,0,0,0,0,0,-1,1945,1030,74.9572,-2.03687
728,-6,53.1713,6.25494,0,0,0,0,0,0,0,-1,1952,1030,53.1713,-6.25495
735,-6,75.3,7.18646,0,0,0,0,0,0,0,-1,1959,1030,75.3,-7.18645
742,-6,75.4556,7.44135,0,0,0,0,0,0,0,-1,1966,1030,75.4556,-7.44134
749,-6,75.3994,6.85205,0,0,0,0,0,0,0,-1,1973,1030,75.3994,-6.85207
756,-6,75.5427,6.94556,-0.00694434,0.0103536,-0.00226922,0.0106463,-0.00723708,-1.4425,0.0103873,0.0415816,1980,1030,75.5427,-6.94553
763,-6,75.3152,6.78064,-0.00402771,0.0120819,-0.00503637,0.0135269,-0.00547263,-1.2914,0.0112931,0.0244755,1987,1030,75.3153,-6.78062
770,-6,75.2256,6.65137,0.0019173,0.0134388,-0.0092186,0.0185486,-0.0031925,-1.06466,0.0135558,0.0213689,1994,1030,75.2256,-6.65135
777,-6,75.0571,6.58459,0.0122985,0.0137463,-0.0152937,0.0283332,-0.00228844,-0.809048,0.019696,0.0222664,2001,1030,75.0571,-6.5846
784,-6,74.9243,6.26917,0.0257324,0.012787,-0.0227293,0.0428926,-0.00437326,-0.646683,0.0301587,0.0474126,2008,1030,74.9243,-6.26918
791,-6,75.2881,5.26721,0.0431499,0.0102209,-0.0320588,0.0627249,-0.00935409,-0.548175,0.045258,0.0491806,2015,1030,75.288,-5.2672
798,-6,74.7305,5.00989,0.0652799,0.00604337,-0.0435239,0.0883074,-0.0169841,-0.486637,0.0652737,0.0485223,2022,1030,74.7304,-5.00985
805,-6,75.8367,3.92761,0.0924339,0.000540914,-0.0571795,0.11984,-0.026865,-0.446948,0.090192,0.0470322,2029,1030,75.8366,-3.92757
812,-6,76.9097,2.96362,0.125652,-0.00671471,-0.0740698,0.158799,-0.039862,-0.420785,0.121356,0.0457409,2036,1030,76.9098,-2.96358
-700,-13,0,0,0,0,0,0,0,0,0,-1,524,1037,0,0
-693,-13,-59.7419,-3.81152,0,0,0,0,0,0,0,-1,531,1037,-59.7419,3.81154
-686,-13,-66.0693,-3.97852,0,0,0,0,0,0,0,-1,538,1037,-66.0693,3.97855
-679,-13,-65.2463,-2.0094,0,0,0,0,0,0,0,-1,545,1037,-65.2463,2.00935
-672,-13,-60.142,1.4353,0,0,0,0,0,0,0,-1,552,1037,-60.142,-1.43525
-665,-13,-59.839,2.32849,0.0108039,0.0280228,0.0661806,0.0861516,-0.0473248,0.85008,0.0781419,0.049537,559,1037,-59.839,-2.32855
-658,-13,-59.5964,3.2406,0.00726986,0.0296603,0.0519873,0.0716442,-0.034714,0.891451,0.0626277,0.0472435,566,1037,-59.5964,-3.24057
-651,-13,-59.6083,4.19202,0.00400033,0.0289282,0.0392834,0.0576776,-0.0247491,0.939016,0.0488384,0.0439482,573,1037,-59.6083,-4.19205
-644,-13,-59.5336,5.10437,0.00109235,0.0266588,0.0279939,0.04465,-0.0168989,0.999581,0.0367196,0.0407602,580,1037,-59.5336,-5.10439
-637,-13,-59.6841,5.31885,-0.0011358,0.0224346,0.0185258,0.0326061,-0.0113073,1.06869,0.0263287,0.0340891,587,1037,-59.6841,-5.3188
-630,-13,-59.8692,5.39319,-0.00243422,0.0177148,0.0111786,0.0226887,-0.00740818,1.15215,0.0181076,0.0203041,594,1037,-59.8692,-5.39317
-623,-13,-59.9162,5.59045,-0.0031593,0.0124414,0.00627281,0.0146507,-0.00536863,1.23216,0.0119651,0.0166444,601,1037,-59.9162,-5.59045
-616,-13,-59.8948,5.77417,-0.00322519,0.00801103,0.00331656,0.00891693,-0.00413109,1.30416,0.00770034,0.0144936,608,1037,-59.8948,-5.77414
-609,-13,-59.8317,5.95068,-0.00293875,0.00476143,0.00106004,0.00490469,-0.00308201,1.43646,0.00465098,0.017972,615,1037,-59.8317,-5.95064
-602,-13,-59.8285,6.08618,-0.00235452,0.00177227,-0.000563881,0.00184793,-0.00243018,-1.43741,0.00247759,0.0136251,622,1037,-59.8285,-6.08614
-595,-13,-59.8829,6.18652,0,0,0,0,0,0,0,-1,629,1037,-59.8829,-6.18657
-588,-13,-59.1347,0.150391,0,0,0,0,0,0,0,-1,636,1037,-59.1347,-0.150397
-581,-13,-59.0809,0.09729,-0.000826464,-0.00188905,-0.0014867,0.000221026,-0.00293654,-0.613789,0.00203537,0.0197811,643,1037,-59.0809,-0.0972374
-574,-13,-59.062,0.128052,-0.000477081,-0.00229224,-0.00155404,0.000414985,-0.00318431,-0.521107,0.00227386,0.0338911,650,1037,-59.062,-0.128105
-567,-13,-59.0314,0.171143,-0.000455463,-0.00212668,-0.00149112,0.000418219,-0.00300036,-0.530006,0.00215323,0.0405433,657,1037,-59.0314,-0.171189
-560,-13,-58.8736,-0.0698242,-0.000652665,-0.00149044,-0.00139496,0.000384941,-0.00252804,-0.639538,0.00182724,0.0449459,664,1037,-58.8736,0.0698144
-553,-13,-58.83,-0.0852051,-0.00112746,-0.000630615,-0.00136941,0.000512723,-0.0022708,-0.875127,0.00171058,0.0438625,671,1037,-58.83,0.0852295
-546,-13,-58.9819,0.199951,-0.00193327,3.88e-05,-0.001502,0.000849501,-0.00274398,-1.07586,0.00216867,0.0401846,678,1037,-58.9819,-0.199997
-539,-13,-59.123,0.417847,-0.00331547,0.000271475,-0.00180349,0.00102145,-0.00406544,-1.1767,0.00310725,0.041594,685,1037,-59.1231,-0.417812
-532,-13,-59.1501,0.435303,-0.00453844,0.000571632,-0.002155,0.00135908,-0.00532589,-1.22046,0.00407979,0.0402087,692,1037,-59.1501,-0.435319
-525,-13,0,0,0,0,0,0,0,0,0,-1,699,1037,0,0
-518,-13,0,0,0,0,0,0,0,0,0,-1,706,1037,0,0
-511,-13,0,0,0,0,0,0,0,0,0,-1,713,1037,0,0
-504,-13,0,0,0,0,0,0,0,0,0,-1,720,1037,0,0
-497,-13,0,0,0,0,0,0,0,0,0,-1,727,1037,0,0
-490,-13,0,0,0,0,0,0,0,0,0,-1,734,1037,0,0
-483,-13,0,0,0,0,0,0,0,0,0,-1,741,1037,0,0
-476,-13,0,0,0,0,0,0,0,0,0,-1,748,1037,0,0
-469,-13,0,0,0,0,0,0,0,0,0,-1,755,1037,0,0
-462,-13,0,0,0,0,0,0,0,0,0,-1,762,1037,0,0
-455,-13,0,0,0,0,0,0,0,0,0,-1,769,1037,0,0
-448,-13,0,0,0,0,0,0,0,0,0,-1,776,1037,0,0
-441,-13,0,0,0,0,0,0,0,0,0,-1,783,1037,0,0
-434,-13,0,0,0,0,0,0,0,0,0,-1,790,1037,0,0
-427,-13,0,0,0,0,0,0,0,0,0,-1,797,1037,0,0
-420,-13,0,0,0,0,0,0,0,0,0,-1,804,1037,0,0
-413,-13,0,0,0,0,0,0,0,0,0,-1,811,1037,0,0
-406,-13,0,0,0,0,0,0,0,0,0,-1,818,1037,0,0
-399,-13,0,0,0,0,0,0,0,0,0,-1,825,1037,0,0
-392,-13,0,0,0,0,0,0,0,0,0,-1,832,1037,0,0
-385,-13,0,0,0,0,0,0,0,0,0,-1,839,1037,0,0
-378,-13,0,0,0,0,0,0,0,0,0,-1,846,1037,0,0
-371,-13,0,0,0,0,0,0,0,0,0,-1,853,1037,0,0
-364,-13,0,0,0,0,0,0,0,0,0,-1,860,1037,0,0
-357,-13,0,0,0,0,0,0,0,0,0,-1,867,1037,0,0
-350,-13,0,0,0,0,0,0,0,0,0,-1,874,1037,0,0
-343,-13,0,0,0,0,0,0,0,0,0,-1,881,1037,0,0
-336,-13,0,0,0,0,0,0,0,0,0,-1,888,1037,0,0
-329,-13,0,0,0,0,0,0,0,0,0,-1,895,1037,0,0
-322,-13,0,0,0,0,0,0,0,0,0,-1,902,1037,0,0
-315,-13,0,0,0,0,0,0,0,0,0,-1,909,1037,0,0
-308,-13,0,0,0,0,0,0,0,0,0,-1,916,1037,0,0
-301,-13,0,0,0,0,0,0,0,0,0,-1,923,1037,0,0
-294,-13,0,0,0,0,0,0,0,0,0,-1,930,1037,0,0
-287,-13,0,0,0,0,0,0,0,0,0,-1,937,1037,0,0
-280,-13,0,0,0,0,0,0,0,0,0,-1,944,1037,0,0
-273,-13,0,0,0,0,0,0,0,0,0,-1,951,1037,0,0
-266,-13,0,0,0,0,0,0,0,0,0,-1,958,1037,0,0
-259,-13,0,0,0,0,0,0,0,0,0,-1,965,1037,0,0
-252,-13,0,0,0,0,0,0,0,0,0,-1,972,1037,0,0
-245,-13,0,0,0,0,0,0,0,0,0,-1,979,1037,0,0
-238,-13,0,0,0,0,0,0,0,0,0,-1,986,1037,0,0
-231,-13,0,0,0,0,0,0,0,0,0,-1,993,1037,0,0
-224,-13,0,0,0,0,0,0,0,0,0,-1,1000,1037,0,0
-217,-13,0,0,0,0,0,0,0,0,0,-1,1007,1037,0,0
-210,-13,0,0,0,0,0,0,0,0,0,-1,1014,1037,0,0
-203,-13,0,0,0,0,0,0,0,0,0,-1,1021,1037,0,0
-196,-13,0,0,0,0,0,0,0,0,0,-1,1028,1037,0,0
-189,-13,0,0,0,0,0,0,0,0,0,-1,1035,1037,0,0
-182,-13,0,0,0,0,0,0,0,0,0,-1,1042,1037,0,0
-175,-13,0,0,0,0,0,0,0,0,0,-1,1049,1037,0,0
-168,-13,0,0,0,0,0,0,0,0,0,-1,1056,1037,0,0
-161,-13,0,0,0,0,0,0,0,0,0,-1,1063,1037,0,0
-154,-13,0,0,0,0,0,0,0,0,0,-1,1070,1037,0,0
-147,-13,0,0,0,0,0,0,0,0,0,-1,1077,1037,0,0
-140,-13,0,0,0,0,0,0,0,0,0,-1,1084,1037,0,0
-133,-13,0,0,0,0,0,0,0,0,0,-1,1091,1037,0,0
-126,-13,0,0,0,0,0,0,0,0,0,-1,1098,1037,0,0
-119,-13,0,0,0,0,0,0,0,0,0,-1,1105,1037,0,0
-112,-13,0,0,0,0,0,0,0,0,0,-1,1112,1037,0,0
-105,-13,0,0,0,0,0,0,0,0,0,-1,1119,1037,0,0
-98,-13,0,0,0,0,0,0,0,0,0,-1,1126,1037,0,0
-91,-13,0,0,0,0,0,0,0,0,0,-1,1133,1037,0,0
-84,-13,0,0,0,0,0,0,0,0,0,-1,1140,1037,0,0
-77,-13,0,0,0,0,0,0,0,0,0,-1,1147,1037,0,0
-70,-13,0,0,0,0,0,0,0,0,0,-1,1154,1037,0,0
-63,-13,0,0,0,0,0,0,0,0,0,-1,1161,1037,0,0
-56,-13,0,0,0,0,0,0,0,0,0,-1,1168,1037,0,0
-49,-13,0,0,0,0,0,0,0,0,0,-1,1175,1037,0,0
-42,-13,0,0,0,0,0,0,0,0,0,-1,1182,1037,0,0
-35,-13,0,0,0,0,0,0,0,0,0,-1,1189,1037,0,0
-28,-13,0,0,0,0,0,0,0,0,0,-1,1196,1037,0,0
-21,-13,0,0,0,0,0,0,0,0,0,-1,1203,1037,0,0
-14,-13,0,0,0,0,0,0,0,0,0,-1,1210,1037,0,0
-7,-13,0,0,0,0,0,0,0,0,0,-1,1217,1037,0,0
0,-13,0,0,0,0,0,0,0,0,0,-1,1224,1037,0,0
7,-13,0,0,0,0,0,0,0,0,0,-1,1231,1037,0,0
14,-13,0,0,0,0,0,0,0,0,0,-1,1238,1037,0,0
21,-13,0,0,0,0,0,0,0,0,0,-1,1245,1037,0,0
28,-13,0,0,0,0,0,0,0,0,0,-1,1252,1037,0,0
35,-13,0,0,0,0,0,0,0,0,0,-1,1259,1037,0,0
42,-13,0,0,0,0,0,0,0,0,0,-1,1266,1037,0,0
49,-13,0,0,0,0,0,0,0,0,0,-1,1273,1037,0,0
56,-13,0,0,0,0,0,0,0,0,0,-1,1280,1037,0,0
63,-13,0,0,0,0,0,0,0,0,0,-1,1287,1037,0,0
70,-13,0,0,0,0,0,0,0,0,0,-1,1294,1037,0,0
77,-13,0,0,0,0,0,0,0,0,0,-1,1301,1037,0,0
84,-13,0,0,0,0,0,0,0,0,0,-1,1308,1037,0,0
91,-13,0,0,0,0,0,0,0,0,0,-1,1315,1037,0,0
98,-13,0,0,0,0,0,0,0,0,0,-1,1322,1037,0,0
105,-13,0,0,0,0,0,0,0,0,0,-1,1329,1037,0,0
112,-13,0,0,0,0,0,0,0,0,0,-1,1336,1037,0,0
119,-13,0,0,0,0,0,0,0,0,0,-1,1343,1037,0,0
126,-13,0,0,0,0,0,0,0,0,0,-1,1350,1037,0,0
133,-13,0,0,0,0,0,0,0,0,0,-1,1357,1037,0,0
140,-13,0,0,0,0,0,0,0,0,0,-1,1364,1037,0,0
147,-13,0,0,0,0,0,0,0,0,0,-1,1371,1037,0,0
154,-13,0,0,0,0,0,0,0,0,0,-1,1378,1037,0,0
161,-13,0,0,0,0,0,0,0,0,0,-1,1385,1037,0,0
168,-13,0,0,0,0,0,0,0,0,0,-1,1392,1037,0,0
175,-13,0,0,0,0,0,0,0,0,0,-1,1399,1037,0,0
182,-13,0,0,0,0,0,0,0,0,0,-1,1406,1037,0,0
189,-13,0,0,0,0,0,0,0,0,0,-1,1413,1037,0,0
196,-13,0,0,0,0,0,0,0,0,0,-1,1420,1037,0,0
203,-13,0,0,0,0,0,0,0,0,0,-1,1427,1037,0,0
210,-13,0,0,0,0,0,0,0,0,0,-1,1434,1037,0,0
217,-13,0,0,0,0,0,0,0,0,0,-1,1441,1037,0,0
224,-13,0,0,0,0,0,0,0,0,0,-1,1448,1037,0,0
231,-13,0,0,0,0,0,0,0,0,0,-1,1455,1037,0,0
238,-13,0,0,0,0,0,0,0,0,0,-1,1462,1037,0,0
245,-13,0,0,0,0,0,0,0,0,0,-1,1469,1037,0,0
252,-13,0,0,0,0,0,0,0,0,0,-1,1476,1037,0,0
259,-13,0,0,0,0,0,0,0,0,0,-1,1483,1037,0,0
266,-13,0,0,0,0,0,0,0,0,0,-1,1490,1037,0,0
273,-13,0,0,0,0,0,0,0,0,0,-1,1497,1037,0,0
280,-13,0,0,0,0,0,0,0,0,0,-1,1504,1037,0,0
287,-13,0,0,0,0,0,0,0,0,0,-1,1511,1037,0,0
294,-13,0,0,0,0,0,0,0,0,0,-1,1518,1037,0,0
301,-13,0,0,0,0,0,0,0,0,0,-1,1525,1037,0,0
308,-13,0,0,0,0,0,0,0,0,0,-1,1532,1037,0,0
315,-13,0,0,0,0,0,0,0,0,0,-1,1539,1037,0,0
322,-13,0,0,0,0,0,0,0,0,0,-1,1546,1037,0,0
329,-13,0,0,0,0,0,0,0,0,0,-1,1553,1037,0,0
336,-13,0,0,0,0,0,0,0,0,0,-1,1560,1037,0,0
343,-13,0,0,0,0,0,0,0,0,0,-1,1567,1037,0,0
350,-13,0,0,0,0,0,0,0,0,0,-1,1574,1037,0,0
357,-13,0,0,0,0,0,0,0,0,0,-1,1581,1037,0,0
364,-13,0,0,0,0,0,0,0,0,0,-1,1588,1037,0,0
371,-13,0,0,0,0,0,0,0,0,0,-1,1595,1037,0,0
378,-13,0,0,0,0,0,0,0,0,0,-1,1602,1037,0,0
385,-13,0,0,0,0,0,0,0,0,0,-1,1609,1037,0,0
392,-13,0,0,0,0,0,0,0,0,0,-1,1616,1037,0,0
399,-13,0,0,0,0,0,0,0,0,0,-1,1623,1037,0,0
406,-13,0,0,0,0,0,0,0,0,0,-1,1630,1037,0,0
413,-13,0,0,0,0,0,0,0,0,0,-1,1637,1037,0,0
420,-13,0,0,0,0,0,0,0,0,0,-1,1644,1037,0,0
427,-13,0,0,0,0,0,0,0,0,0,-1,1651,1037,0,0
434,-13,0,0,0,0,0,0,0,0,0,-1,1658,1037,0,0
441,-13,0,0,0,0,0,0,0,0,0,-1,1665,1037,0,0
448,-13,0,0,0,0,0,0,0,0,0,-1,1672,1037,0,0
455,-13,0,0,0,0,0,0,0,0,0,-1,1679,1037,0,0
462,-13,0,0,0,0,0,0,0,0,0,-1,1686,1037,0,0
469,-13,0,0,0,0,0,0,0,0,0,-1,1693,1037,0,0
476,-13,0,0,0,0,0,0,0,0,0,-1,1700,1037,0,0
483,-13,0,0,0,0,0,0,0,0,0,-1,1707,1037,0,0
490,-13,0,0,0,0,0,0,0,0,0,-1,1714,1037,0,0
497,-13,0,0,0,0,0,0,0,0,0,-1,1721,1037,0,0
504,-13,0,0,0,0,0,0,0,0,0,-1,1728,1037,0,0
511,-13,0,0,0,0,0,0,0,0,0,-1,1735,1037,0,0
518,-13,0,0,0,0,0,0,0,0,0,-1,1742,1037,0,0
525,-13,0,0,0,0,0,0,0,0,0,-1,1749,1037,0,0
532,-13,0,0,0,0,0,0,0,0,0,-1,1756,1037,0,0
539,-13,0,0,0,0,0,0,0,0,0,-1,1763,1037,0,0
546,-13,0,0,0,0,0,0,0,0,0,-1,1770,1037,0,0
553,-13,0,0,0,0,0,0,0,0,0,-1,1777,1037,0,0
560,-13,0,0,0,0,0,0,0,0,0,-1,1784,1037,0,0
567,-13,0,0,0,0,0,0,0,0,0,-1,1791,1037,0,0
574,-13,0,0,0,0,0,0,0,0,0,-1,1798,1037,0,0
581,-13,0,0,0,0,0,0,0,0,0,-1,1805,1037,0,0
588,-13,0,0,0,0,0,0,0,0,0,-1,1812,1037,0,0
595,-13,0,0,0,0,0,0,0,0,0,-1,1819,1037,0,0
602,-13,0,0,0,0,0,0,0,0,0,-1,1826,1037,0,0
609,-13,0,0,0,0,0,0,0,0,0,-1,1833,1037,0,0
616,-13,0,0,0,0,0,0,0,0,0,-1,1840,1037,0,0
623,-13,0,0,0,0,0,0,0,0,0,-1,1847,1037,0,0
630,-13,0,0,0,0,0,0,0,0,0,-1,1854,1037,0,0
637,-13,0,0,0,0,0,0,0,0,0,-1,1861,1037,0,0
644,-13,0,0,0,0,0,0,0,0,0,-1,1868,1037,0,0
651,-13,75.553,2.27917,-0.00507094,4.70678e-05,8.72507e-05,4.85547e-05,-0.00507243,1.55376,0.00339792,0.0410703,1875,1037,75.5529,-2.27913
658,-13,75.3436,2.21484,-0.00366913,-6.51064e-05,8.39688e-05,-6.31511e-05,-0.00367109,1.54751,0.00242662,0.0446844,1882,1037,75.3436,-2.21487
665,-13,75.3861,1.98914,-0.00248373,-0.000188002,0.000224746,-0.000166207,-0.00250553,1.47412,0.0016178,0.0450213,1889,1037,75.3861,-1.98919
672,-13,75.4308,2.00671,-0.00145393,-0.000123321,0.000497537,4.21414e-05,-0.00161939,1.24974,0.00109391,0.0389863,1896,1037,75.4308,-2.00673
679,-13,75.1537,2.09973,-0.000495388,-5.86113e-05,0.000847058,0.000597758,-0.00115176,0.911561,0.00102682,0.0374524,1903,1037,75.1537,-2.09969
686,-13,75.079,1.96631,-0.000200852,-0.000320681,0.00114108,0.000881883,-0.00140342,0.759169,0.00133082,0.0395925,1910,1037,75.079,-1.96626
693,-13,75.1731,1.94861,-0.000179081,-0.000657882,0.00142832,0.00102976,-0.00186672,0.702365,0.0016954,0.0404892,1917,1037,75.1731,-1.94863
700,-13,75.2847,1.97754,-0.000256708,-0.000840601,0.00168946,0.00116585,-0.00226316,0.699841,0.00201324,0.0378216,1924,1037,75.2846,-1.97756
707,-13,75.3448,2.04468,-0.00101043,-0.000528243,0.00175979,0.00100689,-0.00254556,0.853475,0.00211417,0.0350551,1931,1037,75.3449,-2.04471
714,-13,75.3036,2.2395,-0.00210145,0.000364871,0.00175628,0.00127769,-0.00301427,1.09148,0.00254467,0.0366033,1938,1037,75.3036,-2.23955
721,-13,75.0331,2.36389,0,0,0,0,0,0,0,-1,1945,1037,75.033,-2.36386
728,-13,75.3324,7.29822,0,0,0,0,0,0,0,-1,1952,1037,75.3323,-7.29816
735,-13,75.2308,7.25208,-0.00645838,0.00483194,0.00128534,0.00497642,-0.00660286,1.45886,0.00670725,0.0479363,1959,1037,75.2309,-7.25202
742,-13,75.2235,7.14929,-0.00748549,0.00607853,0.000872883,0.00613448,-0.00754143,1.5068,0.0079097,0.0319454,1966,1037,75.2235,-7.14931
749,-13,75.3669,6.99915,-0.00795896,0.00748725,-0.000132292,0.00748839,-0.00796009,-1.56223,0.00892057,0.0421349,1973,1037,75.3669,-6.99914
756,-13,75.3359,6.85559,-0.00693631,0.00940703,-0.00201245,0.00965119,-0.00718047,-1.45006,0.0097526,0.0236426,1980,1037,75.3359,-6.85557
763,-13,75.2637,6.69421,-0.00387357,0.010704,-0.00480312,0.0121443,-0.00531384,-1.27947,0.0103334,0.0331275,1987,1037,75.2637,-6.69422
770,-13,75.1653,6.55957,0.00208371,0.0114136,-0.00897111,0.0168601,-0.00336286,-1.02516,0.0125126,0.0275715,1994,1037,75.1654,-6.55952
777,-13,74.9243,6.34949,0.0125042,0.0108046,-0.0150414,0.0267197,-0.00341101,-0.757179,0.0190522,0.0201258,2001,1037,74.9243,-6.34945
784,-13,74.9033,6.09009,0.0258335,0.00877864,-0.0223664,0.0412429,-0.00663077,-0.603274,0.0299512,0.0391838,2008,1037,74.9032,-6.09014
791,-13,75.0537,5.53699,0.0428389,0.00495915,-0.0313619,0.0605363,-0.0127382,-0.513752,0.0452058,0.0448189,2015,1037,75.0538,-5.53699
798,-13,75.2847,4.9093,0.0642921,-0.00082405,-0.0422518,0.0850748,-0.0216068,-0.457129,0.0651247,0.0469226,2022,1037,75.2847,-4.90936
805,-13,76.29,3.85156,0.0904865,-0.00838267,-0.0549591,0.114973,-0.0328688,-0.419134,0.0896365,0.0423122,2029,1037,76.2901,-3.85153
812,-13,76.9299,2.95605,0.122147,-0.0184181,-0.0701157,0.151141,-0.0474121,-0.392104,0.119736,0.0409579,2036,1037,76.9299,-2.95601
-700,-20,-59.4762,-4.20142,0,0,0,0,0,0,0,-1,524,1044,-59.4762,4.20136
-693,-20,-59.2371,-3.81921,0,0,0,0,0,0,0,-1,531,1044,-59.2371,3.81924
-686,-20,-58.9052,-3.20142,0,0,0,0,0,0,0,-1,538,1044,-58.9052,3.2014
-679,-20,-59.1296,-2.22351,0,0,0,0,0,0,0,-1,545,1044,-59.1296,2.22356
-672,-20,-60.3438,6.05212,0,0,0,0,0,0,0,-1,552,1044,-60.3438,-6.05216
-665,-20,-59.1867,3.74854,0,0,0,0,0,0,0,-1,559,1044,-59.1868,-3.74849
-658,-20,-59.3345,4.03064,0,0,0,0,0,0,0,-1,566,1044,-59.3345,-4.03069
-651,-20,-59.5092,4.3363,0.00889883,0.0266055,0.0380504,0.056819,-0.0213147,0.899701,0.0466371,0.0428234,573,1044,-59.5092,-4.33628
-644,-20,-59.3668,4.74707,0.00547356,0.0244965,0.0271093,0.0437145,-0.0137445,0.954116,0.0346455,0.0311019,580,1044,-59.3668,-4.74706
-637,-20,-59.4501,4.9574,0.00235667,0.0203501,0.0183341,0.0317759,-0.00906914,1.01349,0.0247668,0.0247385,587,1044,-59.4501,-4.95742
-630,-20,-59.5729,5.27136,0.000332903,0.0164897,0.0109032,0.0219811,-0.00515853,1.10423,0.0166422,0.0199962,594,1044,-59.5729,-5.27134
-623,-20,-59.6703,5.5498,-0.00105656,0.0117526,0.00587853,0.0140414,-0.00334542,1.1995,0.0106526,0.0164593,601,1044,-59.6704,-5.5498
-616,-20,-59.6861,5.76404,-0.00170045,0.00760796,0.00286777,0.00842053,-0.00251303,1.29469,0.00661251,0.0151018,608,1044,-59.6861,-5.764
-609,-20,-59.6879,5.97925,-0.00184176,0.0044828,0.00065072,0.00454906,-0.00190802,1.46932,0.00383053,0.0160033,615,1044,-59.6879,-5.97925
-602,-20,-59.6494,6.14246,-0.00133616,0.00151291,-0.00103899,0.00185156,-0.00167481,-1.25572,0.0020368,0.0145214,622,1044,-59.6494,-6.14244
-595,-20,-59.6967,6.3125,0,0,0,0,0,0,0,-1,629,1044,-59.6966,-6.31252
-588,-20,-59.0878,0.224976,0,0,0,0,0,0,0,-1,636,1044,-59.0878,-0.225019
-581,-20,-59.0354,0.128296,-9.01503e-05,-0.00192424,-0.00190364,0.00110582,-0.00312021,-0.560935,0.0025306,0.0247116,643,1044,-59.0354,-0.128264
-574,-20,-59.0943,0.30249,0.000180052,-0.00223878,-0.00189822,0.0012214,-0.00328012,-0.50176,0.00268803,0.0362032,650,1044,-59.0943,-0.302545
-567,-20,-58.9407,0.415039,0.000113017,-0.00201621,-0.00177576,0.00111885,-0.00302204,-0.515364,0.00247348,0.042278,657,1044,-58.9407,-0.415032
-560,-20,-58.7933,0.1698,-0.000214745,-0.00133143,-0.00159797,0.000919621,-0.0024658,-0.617325,0.00202138,0.044587,664,1044,-58.7933,-0.169805
-553,-20,-58.7734,-0.00976563,-0.000827519,-0.00041918,-0.00145057,0.000841521,-0.00208822,-0.855314,0.00174179,0.0432434,671,1044,-58.7735,0.00972265
-546,-20,-58.9213,0.347656,-0.0017628,0.00033932,-0.00141334,0.00104958,-0.00247306,-1.10512,0.00208842,0.041738,678,1044,-58.9212,-0.347712
-539,-20,-59.0709,0.634155,-0.00323069,0.000681298,-0.00152675,0.00120661,-0.003756,-1.23941,0.00298853,0.0430179,685,1044,-59.0709,-0.634212
-532,-20,-59.0451,0.529541,-0.00460737,0.00112145,-0.00160228,0.00153913,-0.00502505,-1.31579,0.00396397,0.0406219,692,1044,-59.0451,-0.529585
-525,-20,0,0,0,0,0,0,0,0,0,-1,699,1044,0,0
-518,-20,0,0,0,0,0,0,0,0,0,-1,706,1044,0,0
-511,-20,0,0,0,0,0,0,0,0,0,-1,713,1044,0,0
-504,-20,0,0,0,0,0,0,0,0,0,-1,720,1044,0,0
-497,-20,0,0,0,0,0,0,0,0,0,-1,727,1044,0,0
-490,-20,0,0,0,0,0,0,0,0,0,-1,734,1044,0,0
-483,-20,0,0,0,0,0,0,0,0,0,-1,741,1044,0,0
-476,-20,0,0,0,0,0,0,0,0,0,-1,748,1044,0,0
-469,-20,0,0,0,0,0,0,0,0,0,-1,755,1044,0,0
-462,-20,0,0,0,0,0,0,0,0,0,-1,762,1044,0,0
-455,-20,0,0,0,0,0,0,0,0,0,-1,769,1044,0,0
-448,-20,0,0,0,0,0,0,0,0,0,-1,776,1044,0,0
-441,-20,0,0,0,0,0,0,0,0,0,-1,783,1044,0,0
-434,-20,0,0,0,0,0,0,0,0,0,-1,790,1044,0,0
-427,-20,0,0,0,0,0,0,0,0,0,-1,797,1044,0,0
-420,-20,0,0,0,0,0,0,0,0,0,-1,804,1044,0,0
-413,-20,0,0,0,0,0,0,0,0,0,-1,811,1044,0,0
-406,-20,0,0,0,0,0,0,0,0,0,-1,818,1044,0,0
-399,-20,0,0,0,0,0,0,0,0,0,-1,825,1044,0,0
-392,-20,0,0,0,0,0,0,0,0,0,-1,832,1044,0,0
-385,-20,0,0,0,0,0,0,0,0,0,-1,839,1044,0,0
-378,-20,0,0,0,0,0,0,0,0,0,-1,846,1044,0,0
-371,-20,0,0,0,0,0,0,0,0,0,-1,853,1044,0,0
-364,-20,0,0,0,0,0,0,0,0,0,-1,860,1044,0,0
-357,-20,0,0,0,0,0,0,0,0,0,-1,867,1044,0,0
-350,-20,0,0,0,0,0,0,0,0,0,-1,874,1044,0,0
-343,-20,0,0,0,0,0,0,0,0,0,-1,881,1044,0,0
-336,-20,0,0,0,0,0,0,0,0,0,-1,888,1044,0,0
-329,-20,0,0,0,0,0,0,0,0,0,-1,895,1044,0,0
-322,-20,0,0,0,0,0,0,0,0,0,-1,902,1044,0,0
-315,-20,0,0,0,0,0,0,0,0,0,-1,909,1044,0,0
-308,-20,0,0,0,0,0,0,0,0,0,-1,916,1044,0,0
-301,-20,0,0,0,0,0,0,0,0,0,-1,923,1044,0,0
-294,-20,0,0,0,0,0,0,0,0,0,-1,930,1044,0,0
-287,-20,0,0,0,0,0,0,0,0,0,-1,937,1044,0,0
-280,-20,0,0,0,0,0,0,0,0,0,-1,944,1044,0,0
-273,-20,0,0,0,0,0,0,0,0,0,-1,951,1044,0,0
-266,-20,0,0,0,0,0,0,0,0,0,-1,958,1044,0,0
-259,-20,0,0,0,0,0,0,0,0,0,-1,965,1044,0,0
-252,-20,0,0,0,0,0,0,0,0,0,-1,972,1044,0,0
-245,-20,0,0,0,0,0,0,0,0,0,-1,979,1044,0,0
-238,-20,0,0,0,0,0,0,0,0,0,-1,986,1044,0,0
-231,-20,0,0,0,0,0,0,0,0,0,-1,993,1044,0,0
-224,-20,0,0,0,0,0,0,0,0,0,-1,1000,1044,0,0
-217,-20,0,0,0,0,0,0,0,0,0,-1,1007,1044,0,0
-210,-20,0,0,0,0,0,0,0,0,0,-1,1014,1044,0,0
-203,-20,0,0,0,0,0,0,0,0,0,-1,1021,1044,0,0
-196,-20,0,0,0,0,0,0,0,0,0,-1,1028,1044,0,0
-189,-20,0,0,0,0,0,0,0,0,0,-1,1035,1044,0,0
-182,-20,0,0,0,0,0,0,0,0,0,-1,1042,1044,0,0
-175,-20,0,0,0,0,0,0,0,0,0,-1,1049,1044,0,0
-168,-20,0,0,0,0,0,0,0,0,0,-1,1056,1044,0,0
-161,-20,0,0,0,0,0,0,0,0,0,-1,1063,1044,0,0
-154,-20,0,0,0,0,0,0,0,0,0,-1,1070,1044,0,0
-147,-20,0,0,0,0,0,0,0,0,0,-1,1077,1044,0,0
-140,-20,0,0,0,0,0,0,0,0,0,-1,1084,1044,0,0
-133,-20,0,0,0,0,0,0,0,0,0,-1,1091,1044,0,0
-126,-20,0,0,0,0,0,0,0,0,0,-1,1098,1044,0,0
-119,-20,0,0,0,0,0,0,0,0,0,-1,1105,1044,0,0
-112,-20,0,0,0,0,0,0,0,0,0,-1,1112,1044,0,0
-105,-20,0,0,0,0,0,0,0,0,0,-1,1119,1044,0,0
-98,-20,0,0,0,0,0,0,0,0,0,-1,1126,1044,0,0
-91,-20,0,0,0,0,0,0,0,0,0,-1,1133,1044,0,0
-84,-20,0,0,0,0,0,0,0,0,0,-1,1140,1044,0,0
-77,-20,0,0,0,0,0,0,0,0,0,-1,1147,1044,0,0
-70,-20,0,0,0,0,0,0,0,0,0,-1,1154,1044,0,0
-63,-20,0,0,0,0,0,0,0,0,0,-1,1161,1044,0,0
-56,-20,0,0,0,0,0,0,0,0,0,-1,1168,1044,0,0
-49,-20,0,0,0,0,0,0,0,0,0,-1,1175,1044,0,0
-42,-20,0,0,0,0,0,0,0,0,0,-1,1182,1044,0,0
-35,-20,0,0,0,0,0,0,0,0,0,-1,1189,1044,0,0
-28,-20,0,0,0,0,0,0,0,0,0,-1,1196,1044,0,0
-21,-20,0,0,0,0,0,0,0,0,0,-1,1203,1044,0,0
-14,-20,0,0,0,0,0,0,0,0,0,-1,1210,1044,0,0
-7,-20,0,0,0,0,0,0,0,0,0,-1,1217,1044,0,0
0,-20,0,0,0,0,0,0,0,0,0,-1,1224,1044,0,0
7,-20,0,0,0,0,0,0,0,0,0,-1,1231,1044,0,0
14,-20,0,0,0,0,0,0,0,0,0,-1,1238,1044,0,0
21,-20,0,0,0,0,0,0,0,0,0,-1,1245,1044,0,0
28,-20,0,0,0,0,0,0,0,0,0,-1,1252,1044,0,0
35,-20,0,0,0,0,0,0,0,0,0,-1,1259,1044,0,0
42,-20,0,0,0,0,0,0,0,0,0,-1,1266,1044,0,0
49,-20,0,0,0,0,0,0,0,0,0,-1,1273,1044,0,0
56,-20,0,0,0,0,0,0,0,0,0,-1,1280,1044,0,0
63,-20,0,0,0,0,0,0,0,0,0,-1,1287,1044,0,0
70,-20,0,0,0,0,0,0,0,0,0,-1,1294,1044,0,0
77,-20,0,0,0,0,0,0,0,0,0,-1,1301,1044,0,0
84,-20,0,0,0,0,0,0,0,0,0,-1,1308,1044,0,0
91,-20,0,0,0,0,0,0,0,0,0,-1,1315,1044,0,0
98,-20,0,0,0,0,0,0,0,0,0,-1,1322,1044,0,0
105,-20,0,0,0,0,0,0,0,0,0,-1,1329,1044,0,0
112,-20,0,0,0,0,0,0,0,0,0,-1,1336,1044,0,0
119,-20,0,0,0,0,0,0,0,0,0,-1,1343,1044,0,0
126,-20,0,0,0,0,0,0,0,0,0,-1,1350,1044,0,0
133,-20,0,0,0,0,0,0,0,0,0,-1,1357,1044,0,0
140,-20,0,0,0,0,0,0,0,0,0,-1,1364,1044,0,0
147,-20,0,0,0,0,0,0,0,0,0,-1,1371,1044,0,0
154,-20,0,0,0,0,0,0,0,0,0,-1,1378,1044,0,0
161,-20,0,0,0,0,0,0,0,0,0,-1,1385,1044,0,0
168,-20,0,0,0,0,0,0,0,0,0,-1,1392,1044,0,0
175,-20,0,0,0,0,0,0,0,0,0,-1,1399,1044,0,0
182,-20,0,0,0,0,0,0,0,0,0,-1,1406,1044,0,0
189,-20,0,0,0,0,0,0,0,0,0,-1,1413,1044,0,0
196,-20,0,0,0,0,0,0,0,0,0,-1,1420,1044,0,0
203,-20,0,0,0,0,0,0,0,0,0,-1,1427,1044,0,0
210,-20,0,0,0,0,0,0,0,0,0,-1,1434,1044,0,0
217,-20,0,0,0,0,0,0,0,0,0,-1,1441,1044,0,0
224,-20,0,0,0,0,0,0,0,0,0,-1,1448,1044,0,0
231,-20,0,0,0,0,0,0,0,0,0,-1,1455,1044,0,0
238,-20,0,0,0,0,0,0,0,0,0,-1,1462,1044,0,0
245,-20,0,0,0,0,0,0,0,0,0,-1,1469,1044,0,0
252,-20,0,0,0,0,0,0,0,0,0,-1,1476,1044,0,0
259,-20,0,0,0,0,0,0,0,0,0,-1,1483,1044,0,0
266,-20,0,0,0,0,0,0,0,0,0,-1,1490,1044,0,0
273,-20,0,0,0,0,0,0,0,0,0,-1,1497,1044,0,0
280,-20,0,0,0,0,0,0,0,0,0,-1,1504,1044,0,0
287,-20,0,0,0,0,0,0,0,0,0,-1,1511,1044,0,0
294,-20,0,0,0,0,0,0,0,0,0,-1,1518,1044,0,0
301,-20,0,0,0,0,0,0,0,0,0,-1,1525,1044,0,0
308,-20,0,0,0,0,0,0,0,0,0,-1,1532,1044,0,0
315,-20,0,0,0,0,0,0,0,0,0,-1,1539,1044,0,0
322,-20,0,0,0,0,0,0,0,0,0,-1,1546,1044,0,0
329,-20,0,0,0,0,0,0,0,0,0,-1,1553,1044,0,0
336,-20,0,0,0,0,0,0,0,0,0,-1,1560,1044,0,0
343,-20,0,0,0,0,0,0,0,0,0,-1,1567,1044,0,0
350,-20,0,0,0,0,0,0,0,0,0,-1,1574,1044,0,0
357,-20,0,0,0,0,0,0,0,0,0,-1,1581,1044,0,0
364,-20,0,0,0,0,0,0,0,0,0,-1,1588,1044,0,0
371,-20,0,0,0,0,0,0,0,0,0,-1,1595,1044,0,0
378,-20,0,0,0,0,0,0,0,0,0,-1,1602,1044,0,0
385,-20,0,0,0,0,0,0,0,0,0,-1,1609,1044,0,0
392,-20,0,0,0,0,0,0,0,0,0,-1,1616,1044,0,0
399,-20,0,0,0,0,0,0,0,0,0,-1,1623,1044,0,0
406,-20,0,0,0,0,0,0,0,0,0,-1,1630,1044,0,0
413,-20,0,0,0,0,0,0,0,0,0,-1,1637,1044,0,0
420,-20,0,0,0,0,0,0,0,0,0,-1,1644,1044,0,0
427,-20,0,0,0,0,0,0,0,0,0,-1,1651,1044,0,0
434,-20,0,0,0,0,0,0,0,0,0,-1,1658,1044,0,0
441,-20,0,0,0,0,0,0,0,0,0,-1,1665,1044,0,0
448,-20,0,0,0,0,0,0,0,0,0,-1,1672,1044,0,0
455,-20,0,0,0,0,0,0,0,0,0,-1,1679,1044,0,0
462,-20,0,0,0,0,0,0,0,0,0,-1,1686,1044,0,0
469,-20,0,0,0,0,0,0,0,0,0,-1,1693,1044,0,0
476,-20,0,0,0,0,0,0,0,0,0,-1,1700,1044,0,0
483,-20,0,0,0,0,0,0,0,0,0,-1,1707,1044,0,0
490,-20,0,0,0,0,0,0,0,0,0,-1,1714,1044,0,0
497,-20,0,0,0,0,0,0,0,0,0,-1,1721,1044,0,0
504,-20,0,0,0,0,0,0,0,0,0,-1,1728,1044,0,0
511,-20,0,0,0,0,0,0,0,0,0,-1,1735,1044,0,0
518,-20,0,0,0,0,0,0,0,0,0,-1,1742,1044,0,0
525,-20,0,0,0,0,0,0,0,0,0,-1,1749,1044,0,0
532,-20,0,0,0,0,0,0,0,0,0,-1,1756,1044,0,0
539,-20,0,0,0,0,0,0,0,0,0,-1,1763,1044,0,0
546,-20,0,0,0,0,0,0,0,0,0,-1,1770,1044,0,0
553,-20,0,0,0,0,0,0,0,0,0,-1,1777,1044,0,0
560,-20,0,0,0,0,0,0,0,0,0,-1,1784,1044,0,0
567,-20,0,0,0,0,0,0,0,0,0,-1,1791,1044,0,0
574,-20,0,0,0,0,0,0,0,0,0,-1,1798,1044,0,0
581,-20,0,0,0,0,0,0,0,0,0,-1,1805,1044,0,0
588,-20,0,0,0,0,0,0,0,0,0,-1,1812,1044,0,0
595,-20,0,0,0,0,0,0,0,0,0,-1,1819,1044,0,0
602,-20,0,0,0,0,0,0,0,0,0,-1,1826,1044,0,0
609,-20,0,0,0,0,0,0,0,0,0,-1,1833,1044,0,0
616,-20,0,0,0,0,0,0,0,0,0,-1,1840,1044,0,0
623,-20,0,0,0,0,0,0,0,0,0,-1,1847,1044,0,0
630,-20,0,0,0,0,0,0,0,0,0,-1,1854,1044,0,0
637,-20,0,0,0,0,0,0,0,0,0,-1,1861,1044,0,0
644,-20,0,0,0,0,0,0,0,0,0,-1,1868,1044,0,0
651,-20,75.3384,2.37,-0.00531525,0.000592967,0.000454807,0.000627772,-0.00535005,1.49442,0.00379331,0.04132,1875,1044,75.3383,-2.37001
658,-20,75.2117,2.33337,-0.0038097,0.000233027,0.000286242,0.000253194,-0.00382987,1.50046,0.00264169,0.043453,1882,1044,75.2116,-2.33334
665,-20,75.2039,2.1615,-0.00255772,-5.18835e-05,0.000313327,-1.32995e-05,-0.00259631,1.44827,0.00172645,0.0434429,1889,1044,75.2039,-2.16146
672,-20,75.2635,2.10376,-0.00149436,-0.000110958,0.00050265,5.23899e-05,-0.00165771,1.25659,0.00112301,0.0294763,1896,1044,75.2636,-2.10381
679,-20,75.2477,2.04272,-0.000524993,-0.000118813,0.000781215,0.000485279,-0.00112909,0.912567,0.00095644,0.03027,1903,1044,75.2477,-2.04274
686,-20,75.2087,1.90198,-0.000301639,-0.000428181,0.00105281,0.000689803,-0.00141962,0.755386,0.00124194,0.0396244,1910,1044,75.2088,-1.90198
693,-20,75.163,1.85376,-0.000386015,-0.000779765,0.00134972,0.000781113,-0.00194689,0.712977,0.00162225,0.0450107,1917,1044,75.1629,-1.8538
700,-20,75.2075,1.92871,-0.000557522,-0.000950273,0.00166794,0.000925568,-0.00243336,0.726801,0.00200335,0.0411033,1924,1044,75.2075,-1.92874
707,-20,75.286,2.08423,-0.00129703,-0.000662557,0.00180347,0.00085136,-0.00281095,0.87246,0.00221303,0.0389853,1931,1044,75.286,-2.08422
714,-20,75.3168,2.29443,-0.0023605,0.000173803,0.00188002,0.00117384,-0.00336054,1.08193,0.0027175,0.0405556,1938,1044,75.3168,-2.29438
721,-20,75.0535,2.18494,0,0,0,0,0,0,0,-1,1945,1044,75.0535,-2.1849
728,-20,75.658,7.45227,0,0,0,0,0,0,0,-1,1952,1044,75.658,-7.45226
735,-20,75.3123,7.31213,-0.00658508,0.00434154,0.00161685,0.00457577,-0.00681931,1.42693,0.00662132,0.0353736,1959,1044,75.3123,-7.31215
742,-20,75.0081,7.00757,-0.00749674,0.00545903,0.00120029,0.00556929,-0.007607,1.47919,0.0076376,0.0375438,1966,1044,75.008,-7.00753
749,-20,75.1753,6.92346,-0.00782606,0.00666732,0.000225297,0.00667082,-0.00782957,1.55526,0.00838071,0.0369244,1973,1044,75.1752,-6.92342
756,-20,75.1753,6.80029,-0.00667312,0.00832273,-0.00158982,0.00848942,-0.00683981,-1.46633,0.0088674,0.0220878,1980,1044,75.1754,-6.80031
763,-20,75.0715,6.62561,-0.00347549,0.00923931,-0.00427175,0.0105412,-0.00477736,-1.27498,0.00905044,0.0339975,1987,1044,75.0716,-6.62562
770,-20,74.9578,6.52588,0.00244535,0.00948845,-0.00820989,0.0149002,-0.00296638,-0.988,0.0110557,0.0283392,1994,1044,74.9577,-6.52591
777,-20,74.7351,6.21033,0.0126827,0.00828413,-0.013924,0.02458,-0.00361322,-0.707071,0.0177143,0.0195031,2001,1044,74.7352,-6.21038
784,-20,74.7339,6.05054,0.0256145,0.00558969,-0.0207376,0.0386303,-0.00742608,-0.560496,0.0285526,0.022988,2008,1044,74.7339,-6.05049
791,-20,75,5.54285,0.0419034,0.000983359,-0.0289766,0.0569153,-0.0140285,-0.477998,0.0433825,0.0343134,2015,1044,75.0001,-5.54279
798,-20,75.386,4.96411,0.0623437,-0.00584868,-0.0388206,0.0799156,-0.0234206,-0.42505,0.0625627,0.0429941,2022,1044,75.3861,-4.9641
805,-20,75.7874,4.65881,0.0872466,-0.0148221,-0.0500926,0.107723,-0.0352984,-0.388043,0.0860301,0.0447882,2029,1044,75.7873,-4.65877
812,-20,76.2656,4.26306,0.117103,-0.0268252,-0.0630258,0.1408,-0.0505223,-0.35964,0.114486,0.0462245,2036,1044,76.2657,-4.26309
-700,-27,-59.0108,-4.72083,0,0,0,0,0,0,0,-1,524,1051,-59.0108,4.72086
-693,-27,-58.757,-3.84692,0,0,0,0,0,0,0,-1,531,1051,-58.7571,3.84696
-686,-27,-58.6404,-3.20178,0.014134,0.0167749,0.107344,0.122806,-0.0918976,0.791548,0.124387,0.0431573,538,1051,-58.6404,3.20178
-679,-27,-58.8738,-2.27966,0,0,0,0,0,0,0,-1,545,1051,-58.8738,2.27961
-672,-27,-58.6128,3.08472,0,0,0,0,0,0,0,-1,552,1051,-58.6128,-3.08476
-665,-27,-58.8185,3.46924,0,0,0,0,0,0,0,-1,559,1051,-58.8185,-3.46922
-658,-27,-59.0011,3.84131,0.0126438,0.0259668,0.0482401,0.0680031,-0.0293926,0.85401,0.0576855,0.0458309,566,1051,-59.0011,-3.84136
-651,-27,-59.0858,4.19946,0.00981456,0.0247091,0.0368224,0.0548298,-0.0203061,0.885176,0.0448802,0.0370038,573,1051,-59.0858,-4.19952
-644,-27,-59.1597,4.53625,0.00664005,0.0227235,0.0262119,0.0420995,-0.0127359,0.934239,0.0331377,0.0190362,580,1051,-59.1597,-4.53623
-637,-27,-59.2222,4.79407,0.0040643,0.018658,0.0177312,0.0305351,-0.00781277,0.9806,0.0233999,0.0166343,587,1051,-59.2222,-4.7941
-630,-27,-59.3472,5.23572,0.00205092,0.0152838,0.0103818,0.0209783,-0.00364362,1.0691,0.015345,0.0224166,594,1051,-59.3472,-5.23575
-623,-27,-59.4187,5.55322,0.000358992,0.0110192,0.0052925,0.0132005,-0.00182226,1.17987,0.0094664,0.019755,601,1051,-59.4187,-5.55328
-616,-27,-59.3867,5.80688,-0.000583378,0.00710724,0.0022997,0.00774245,-0.00121858,1.3013,0.0056121,0.0155846,608,1051,-59.3867,-5.80688
-609,-27,-59.348,6.03979,-0.000924126,0.00409402,0.000160428,0.00409915,-0.00092925,1.53887,0.00308946,0.0146887,615,1051,-59.348,-6.03983
-602,-27,-59.3276,6.26379,-0.000455197,0.00119663,-0.00155171,0.00212853,-0.0013871,-1.02996,0.00204474,0.0145274,622,1051,-59.3276,-6.26374
-595,-27,-59.3604,6.50842,-0.00023088,-0.000492032,-0.00220921,0.00185161,-0.00257452,-0.75588,0.00256676,0.0257441,629,1051,-59.3604,-6.50844
-588,-27,-59.5655,6.73291,0,0,0,0,0,0,0,-1,636,1051,-59.5655,-6.73286
-581,-27,-59.0255,0.179443,0.000601663,-0.00198622,-0.00232905,0.00197207,-0.00335663,-0.531844,0.00311095,0.0210968,643,1051,-59.0255,-0.179459
-574,-27,-59.0418,0.194214,0.000807304,-0.00220371,-0.00227141,0.00202684,-0.00342324,-0.492735,0.00318084,0.0345552,650,1051,-59.0418,-0.194182
-567,-27,-58.9329,0.35791,0.000671355,-0.00192341,-0.00209889,0.00184147,-0.00309352,-0.508577,0.00287962,0.0434301,657,1051,-58.9329,-0.35792
-560,-27,-58.9689,0.371216,0.000230004,-0.00120491,-0.00183829,0.00148588,-0.00246079,-0.599346,0.00230167,0.0452809,664,1051,-58.9689,-0.371256
-553,-27,-59.1014,0.0505371,0,0,0,0,0,0,0,-1,671,1051,-59.1014,-0.0505439
-546,-27,-59.1461,-0.153564,0,0,0,0,0,0,0,-1,678,1051,-59.146,0.153607
-539,-27,-59.0056,0.5177,-0.00315428,0.000825658,-0.00111751,0.00111797,-0.00344659,-1.31495,0.00274728,0.0457278,685,1051,-59.0056,-0.517685
-532,-27,-59.0136,0.299438,-0.00470985,0.00130305,-0.000829663,0.00141543,-0.00482223,-1.43617,0.00377611,0.0419602,692,1051,-59.0136,-0.299421
-525,-27,0,0,0,0,0,0,0,0,0,-1,699,1051,0,0
-518,-27,0,0,0,0,0,0,0,0,0,-1,706,1051,0,0
-511,-27,0,0,0,0,0,0,0,0,0,-1,713,1051,0,0
-504,-27,0,0,0,0,0,0,0,0,0,-1,720,1051,0,0
-497,-27,0,0,0,0,0,0,0,0,0,-1,727,1051,0,0
-490,-27,0,0,0,0,0,0,0,0,0,-1,734,1051,0,0
-483,-27,0,0,0,0,0,0,0,0,0,-1,741,1051,0,0
-476,-27,0,0,0,0,0,0,0,0,0,-1,748,1051,0,0
-469,-27,0,0,0,0,0,0,0,0,0,-1,755,1051,0,0
-462,-27,0,0,0,0,0,0,0,0,0,-1,762,1051,0,0
-455,-27,0,0,0,0,0,0,0,0,0,-1,769,1051,0,0
-448,-27,0,0,0,0,0,0,0,0,0,-1,776,1051,0,0
-441,-27,0,0,0,0,0,0,0,0,0,-1,783,1051,0,0
-434,-27,0,0,0,0,0,0,0,0,0,-1,790,1051,0,0
-427,-27,0,0,0,0,0,0,0,0,0,-1,797,1051,0,0
-420,-27,0,0,0,0,0,0,0,0,0,-1,804,1051,0,0
-413,-27,0,0,0,0,0,0,0,0,0,-1,811,1051,0,0
-406,-27,0,0,0,0,0,0,0,0,0,-1,818,1051,0,0
-399,-27,0,0,0,0,0,0,0,0,0,-1,825,1051,0,0
-392,-27,0,0,0,0,0,0,0,0,0,-1,832,1051,0,0
-385,-27,0,0,0,0,0,0,0,0,0,-1,839,1051,0,0
-378,-27,0,0,0,0,0,0,0,0,0,-1,846,1051,0,0
-371,-27,0,0,0,0,0,0,0,0,0,-1,853,1051,0,0
-364,-27,0,0,0,0,0,0,0,0,0,-1,860,1051,0,0
-357,-27,0,0,0,0,0,0,0,0,0,-1,867,1051,0,0
-350,-27,0,0,0,0,0,0,0,0,0,-1,874,1051,0,0
-343,-27,0,0,0,0,0,0,0,0,0,-1,881,1051,0,0
-336,-27,0,0,0,0,0,0,0,0,0,-1,888,1051,0,0
-329,-27,0,0,0,0,0,0,0,0,0,-1,895,1051,0,0
-322,-27,0,0,0,0,0,0,0,0,0,-1,902,1051,0,0
-315,-27,0,0,0,0,0,0,0,0,0,-1,909,1051,0,0
-308,-27,0,0,0,0,0,0,0,0,0,-1,916,1051,0,0
-301,-27,0,0,0,0,0,0,0,0,0,-1,923,1051,0,0
-294,-27,0,0,0,0,0,0,0,0,0,-1,930,1051,0,0
-287,-27,0,0,0,0,0,0,0,0,0,-1,937,1051,0,0
-280,-27,0,0,0,0,0,0,0,0,0,-1,944,1051,0,0
-273,-27,0,0,0,0,0,0,0,0,0,-1,951,1051,0,0
-266,-27,0,0,0,0,0,0,0,0,0,-1,958,1051,0,0
-259,-27,0,0,0,0,0,0,0,0,0,-1,965,1051,0,0
-252,-27,0,0,0,0,0,0,0,0,0,-1,972,1051,0,0
-245,-27,0,0,0,0,0,0,0,0,0,-1,979,1051,0,0
-238,-27,0,0,0,0,0,0,0,0,0,-1,986,1051,0,0
-231,-27,0,0,0,0,0,0,0,0,0,-1,993,1051,0,0
-224,-27,0,0,0,0,0,0,0,0,0,-1,1000,1051,0,0
-217,-27,0,0,0,0,0,0,0,0,0,-1,1007,1051,0,0
-210,-27,0,0,0,0,0,0,0,0,0,-1,1014,1051,0,0
-203,-27,0,0,0,0,0,0,0,0,0,-1,1021,1051,0,0
-196,-27,0,0,0,0,0,0,0,0,0,-1,1028,1051,0,0
-189,-27,0,0,0,0,0,0,0,0,0,-1,1035,1051,0,0
-182,-27,0,0,0,0,0,0,0,0,0,-1,1042,1051,0,0
-175,-27,0,0,0,0,0,0,0,0,0,-1,1049,1051,0,0
-168,-27,0,0,0,0,0,0,0,0,0,-1,1056,1051,0,0
-161,-27,0,0,0,0,0,0,0,0,0,-1,1063,1051,0,0
-154,-27,0,0,0,0,0,0,0,0,0,-1,1070,1051,0,0
-147,-27,0,0,0,0,0,0,0,0,0,-1,1077,1051,0,0
-140,-27,0,0,0,0,0,0,0,0,0,-1,1084,1051,0,0
-133,-27,0,0,0,0,0,0,0,0,0,-1,1091,1051,0,0
-126,-27,0,0,0,0,0,0,0,0,0,-1,1098,1051,0,0
-119,-27,0,0,0,0,0,0,0,0,0,-1,1105,1051,0,0
-112,-27,0,0,0,0,0,0,0,0,0,-1,1112,1051,0,0
-105,-27,0,0,0,0,0,0,0,0,0,-1,1119,1051,0,0
-98,-27,0,0,0,0,0,0,0,0,0,-1,1126,1051,0,0
-91,-27,0,0,0,0,0,0,0,0,0,-1,1133,1051,0,0
-84,-27,0,0,0,0,0,0,0,0,0,-1,1140,1051,0,0
-77,-27,0,0,0,0,0,0,0,0,0,-1,1147,1051,0,0
-70,-27,0,0,0,0,0,0,0,0,0,-1,1154,1051,0,0
-63,-27,0,0,0,0,0,0,0,0,0,-1,1161,1051,0,0
-56,-27,0,0,0,0,0,0,0,0,0,-1,1168,1051,0,0
-49,-27,0,0,0,0,0,0,0,0,0,-1,1175,1051,0,0
-42,-27,0,0,0,0,0,0,0,0,0,-1,1182,1051,0,0
-35,-27,0,0,0,0,0,0,0,0,0,-1,1189,1051,0,0
-28,-27,0,0,0,0,0,0,0,0,0,-1,1196,1051,0,0
-21,-27,0,0,0,0,0,0,0,0,0,-1,1203,1051,0,0
-14,-27,0,0,0,0,0,0,0,0,0,-1,1210,1051,0,0
-7,-27,0,0,0,0,0,0,0,0,0,-1,1217,1051,0,0
0,-27,0,0,0,0,0,0,0,0,0,-1,1224,1051,0,0
7,-27,0,0,0,0,0,0,0,0,0,-1,1231,1051,0,0
14,-27,0,0,0,0,0,0,0,0,0,-1,1238,1051,0,0
21,-27,0,0,0,0,0,0,0,0,0,-1,1245,1051,0,0
28,-27,0,0,0,0,0,0,0,0,0,-1,1252,1051,0,0
35,-27,0,0,0,0,0,0,0,0,0,-1,1259,1051,0,0
42,-27,0,0,0,0,0,0,0,0,0,-1,1266,1051,0,0
49,-27,0,0,0,0,0,0,0,0,0,-1,1273,1051,0,0
56,-27,0,0,0,0,0,0,0,0,0,-1,1280,1051,0,0
63,-27,0,0,0,0,0,0,0,0,0,-1,1287,1051,0,0
70,-27,0,0,0,0,0,0,0,0,0,-1,1294,1051,0,0
77,-27,0,0,0,0,0,0,0,0,0,-1,1301,1051,0,0
84,-27,0,0,0,0,0,0,0,0,0,-1,1308,1051,0,0
91,-27,0,0,0,0,0,0,0,0,0,-1,1315,1051,0,0
98,-27,0,0,0,0,0,0,0,0,0,-1,1322,1051,0,0
105,-27,0,0,0,0,0,0,0,0,0,-1,1329,1051,0,0
112,-27,0,0,0,0,0,0,0,0,0,-1,1336,1051,0,0
119,-27,0,0,0,0,0,0,0,0,0,-1,1343,1051,0,0
126,-27,0,0,0,0,0,0,0,0,0,-1,1350,1051,0,0
133,-27,0,0,0,0,0,0,0,0,0,-1,1357,1051,0,0
140,-27,0,0,0,0,0,0,0,0,0,-1,1364,1051,0,0
147,-27,0,0,0,0,0,0,0,0,0,-1,1371,1051,0,0
154,-27,0,0,0,0,0,0,0,0,0,-1,1378,1051,0,0
161,-27,0,0,0,0,0,0,0,0,0,-1,1385,1051,0,0
168,-27,0,0,0,0,0,0,0,0,0,-1,1392,1051,0,0
175,-27,0,0,0,0,0,0,0,0,0,-1,1399,1051,0,0
182,-27,0,0,0,0,0,0,0,0,0,-1,1406,1051,0,0
189,-27,0,0,0,0,0,0,0,0,0,-1,1413,1051,0,0
196,-27,0,0,0,0,0,0,0,0,0,-1,1420,1051,0,0
203,-27,0,0,0,0,0,0,0,0,0,-1,1427,1051,0,0
210,-27,0,0,0,0,0,0,0,0,0,-1,1434,1051,0,0
217,-27,0,0,0,0,0,0,0,0,0,-1,1441,1051,0,0
224,-27,0,0,0,0,0,0,0,0,0,-1,1448,1051,0,0
231,-27,0,0,0,0,0,0,0,0,0,-1,1455,1051,0,0
238,-27,0,0,0,0,0,0,0,0,0,-1,1462,1051,0,0
245,-27,0,0,0,0,0,0,0,0,0,-1,1469,1051,0,0
252,-27,0,0,0,0,0,0,0,0,0,-1,1476,1051,0,0
259,-27,0,0,0,0,0,0,0,0,0,-1,1483,1051,0,0
266,-27,0,0,0,0,0,0,0,0,0,-1,1490,1051,0,0
273,-27,0,0,0,0,0,0,0,0,0,-1,1497,1051,0,0
280,-27,0,0,0,0,0,0,0,0,0,-1,1504,1051,0,0
287,-27,0,0,0,0,0,0,0,0,0,-1,1511,1051,0,0
294,-27,0,0,0,0,0,0,0,0,0,-1,1518,1051,0,0
301,-27,0,0,0,0,0,0,0,0,0,-1,1525,1051,0,0
308,-27,0,0,0,0,0,0,0,0,0,-1,1532,1051,0,0
315,-27,0,0,0,0,0,0,0,0,0,-1,1539,1051,0,0
322,-27,0,0,0,0,0,0,0,0,0,-1,1546,1051,0,0
329,-27,0,0,0,0,0,0,0,0,0,-1,1553,1051,0,0
336,-27,0,0,0,0,0,0,0,0,0,-1,1560,1051,0,0
343,-27,0,0,0,0,0,0,0,0,0,-1,1567,1051,0,0
350,-27,0,0,0,0,0,0,0,0,0,-1,1574,1051,0,0
357,-27,0,0,0,0,0,0,0,0,0,-1,1581,1051,0,0
364,-27,0,0,0,0,0,0,0,0,0,-1,1588,1051,0,0
371,-27,0,0,0,0,0,0,0,0,0,-1,1595,1051,0,0
378,-27,0,0,0,0,0,0,0,0,0,-1,1602,1051,0,0
385,-27,0,0,0,0,0,0,0,0,0,-1,1609,1051,0,0
392,-27,0,0,0,0,0,0,0,0,0,-1,1616,1051,0,0
399,-27,0,0,0,0,0,0,0,0,0,-1,1623,1051,0,0
406,-27,0,0,0,0,0,0,0,0,0,-1,1630,1051,0,0
413,-27,0,0,0,0,0,0,0,0,0,-1,1637,1051,0,0
420,-27,0,0,0,0,0,0,0,0,0,-1,1644,1051,0,0
427,-27,0,0,0,0,0,0,0,0,0,-1,1651,1051,0,0
434,-27,0,0,0,0,0,0,0,0,0,-1,1658,1051,0,0
441,-27,0,0,0,0,0,0,0,0,0,-1,1665,1051,0,0
448,-27,0,0,0,0,0,0,0,0,0,-1,1672,1051,0,0
455,-27,0,0,0,0,0,0,0,0,0,-1,1679,1051,0,0
462,-27,0,0,0,0,0,0,0,0,0,-1,1686,1051,0,0
469,-27,0,0,0,0,0,0,0,0,0,-1,1693,1051,0,0
476,-27,0,0,0,0,0,0,0,0,0,-1,1700,1051,0,0
483,-27,0,0,0,0,0,0,0,0,0,-1,1707,1051,0,0
490,-27,0,0,0,0,0,0,0,0,0,-1,1714,1051,0,0
497,-27,0,0,0,0,0,0,0,0,0,-1,1721,1051,0,0
504,-27,0,0,0,0,0,0,0,0,0,-1,1728,1051,0,0
511,-27,0,0,0,0,0,0,0,0,0,-1,1735,1051,0,0
518,-27,0,0,0,0,0,0,0,0,0,-1,1742,1051,0,0
525,-27,0,0,0,0,0,0,0,0,0,-1,1749,1051,0,0
532,-27,0,0,0,0,0,0,0,0,0,-1,1756,1051,0,0
539,-27,0,0,0,0,0,0,0,0,0,-1,1763,1051,0,0
546,-27,0,0,0,0,0,0,0,0,0,-1,1770,1051,0,0
553,-27,0,0,0,0,0,0,0,0,0,-1,1777,1051,0,0
560,-27,0,0,0,0,0,0,0,0,0,-1,1784,1051,0,0
567,-27,0,0,0,0,0,0,0,0,0,-1,1791,1051,0,0
574,-27,0,0,0,0,0,0,0,0,0,-1,1798,1051,0,0
581,-27,0,0,0,0,0,0,0,0,0,-1,1805,1051,0,0
588,-27,0,0,0,0,0,0,0,0,0,-1,1812,1051,0,0
595,-27,0,0,0,0,0,0,0,0,0,-1,1819,1051,0,0
602,-27,0,0,0,0,0,0,0,0,0,-1,1826,1051,0,0
609,-27,0,0,0,0,0,0,0,0,0,-1,1833,1051,0,0
616,-27,0,0,0,0,0,0,0,0,0,-1,1840,1051,0,0
623,-27,0,0,0,0,0,0,0,0,0,-1,1847,1051,0,0
630,-27,0,0,0,0,0,0,0,0,0,-1,1854,1051,0,0
637,-27,0,0,0,0,0,0,0,0,0,-1,1861,1051,0,0
644,-27,0,0,0,0,0,0,0,0,0,-1,1868,1051,0,0
651,-27,75.3291,2.1814,-0.00527366,0.00132958,0.000792082,0.00142326,-0.00536735,1.45307,0.00413512,0.039792,1875,1051,75.3291,-2.18135
658,-27,75.2002,2.1571,-0.00372087,0.000658015,0.000491002,0.000712395,-0.00377525,1.46049,0.00278484,0.0409751,1882,1051,75.2002,-2.1571
665,-27,75.2146,2.14063,-0.00243661,0.00016177,0.000408014,0.000224333,-0.00249917,1.41865,0.0017457,0.0400412,1889,1051,75.2146,-2.14057
672,-27,75.1895,2.14709,-0.00136352,-6.51037e-05,0.000501465,0.000106016,-0.00153464,1.24195,0.0010602,0.0330594,1896,1051,75.1894,-2.14712
679,-27,75.3174,2.06506,-0.000399342,-0.000196898,0.00069344,0.000402669,-0.000998909,0.857871,0.000833251,0.0315359,1903,1051,75.3174,-2.06508
686,-27,75.3051,2.09424,-0.000238696,-0.000590225,0.000930721,0.000532712,-0.00136163,0.692073,0.00112806,0.0422651,1910,1051,75.3051,-2.09427
693,-27,75.2251,2.04041,-0.000432491,-0.000979149,0.00123186,0.000555998,-0.00196764,0.676225,0.00153112,0.0451335,1917,1051,75.2251,-2.04038
700,-27,75.2181,1.97241,-0.000694254,-0.00115471,0.00159045,0.000682545,-0.00253151,0.71352,0.00195531,0.0405654,1924,1051,75.2181,-1.97237
707,-27,75.2262,2.06079,-0.00142626,-0.000897701,0.00179047,0.000647889,-0.00297185,0.858671,0.00222881,0.0310866,1931,1051,75.2262,-2.06084
714,-27,75.2841,2.10828,-0.00247023,-0.000127982,0.00195738,0.000981871,-0.00358008,1.05499,0.00277258,0.0325167,1938,1051,75.2841,-2.10829
721,-27,75.1251,2.16101,0,0,0,0,0,0,0,-1,1945,1051,75.1251,-2.16102
728,-27,75.5613,7.54773,0,0,0,0,0,0,0,-1,1952,1051,75.5613,-7.54778
735,-27,75.1001,7.4375,-0.00647178,0.00377779,0.00195987,0.00413976,-0.00683376,1.38816,0.00639889,0.0296785,1959,1051,75.1002,-7.43753
742,-27,74.871,7.25317,-0.00725891,0.00482369,0.0015923,0.00503001,-0.00746523,1.44194,0.00725966,0.0217612,1966,1051,74.871,-7.25319
749,-27,74.9294,6.95691,-0.00748133,0.00589436,0.000681969,0.00592904,-0.00751601,1.51999,0.00778051,0.0168059,1973,1051,74.9294,-6.95693
756,-27,74.9063,6.71594,-0.00625419,0.00736414,-0.000981458,0.00743451,-0.00632456,-1.49922,0.00795241,0.0169833,1980,1051,74.9063,-6.71599
763,-27,74.8013,6.47119,-0.00299466,0.00803712,-0.00341345,0.00900788,-0.00396543,-1.29372,0.00767642,0.0175863,1987,1051,74.8012,-6.47113
770,-27,74.7168,6.20227,0.00286979,0.00805628,-0.00697882,0.0129081,-0.00198202,-0.963286,0.00933646,0.0178929,1994,1051,74.7169,-6.20221
777,-27,74.5588,6.07898,0.0127562,0.00663822,-0.0120023,0.0220832,-0.00268879,-0.660621,0.0156954,0.0225221,2001,1051,74.5587,-6.07901
784,-27,74.4893,6.0498,0.0250853,0.00377602,-0.0178649,0.0352316,-0.00637025,-0.516514,0.0258738,0.0318109,2008,1051,74.4893,-6.04976
791,-27,74.74,5.81665,0.0404383,-0.000946356,-0.0247744,0.0520251,-0.0125332,-0.43747,0.0395291,0.0415958,2015,1051,74.7401,-5.81662
798,-27,75.3171,5.37195,0.0596425,-0.00789155,-0.032822,0.0729658,-0.0212148,-0.385604,0.0570459,0.0443215,2022,1051,75.3171,-5.37191
805,-27,75.6843,5.04675,0.0830666,-0.0169913,-0.0417208,0.09818,-0.0321046,-0.347546,0.0783781,0.0454415,2029,1051,75.6843,-5.04672
812,-27,76.1697,4.61438,0.110846,-0.0288552,-0.0510707,0.127525,-0.0455339,-0.315661,0.103586,0.0433323,2036,1051,76.1696,-4.61442
-700,-34,-58.0298,-6.30835,0,0,0,0,0,0,0,-1,524,1058,-58.0298,6.30837
-693,-34,-58.0621,-4.5011,0,0,0,0,0,0,0,-1,531,1058,-58.0621,4.50108
-686,-34,-58.3533,-3.25537,0,0,0,0,0,0,0,-1,538,1058,-58.3533,3.25532
-679,-34,-59.8882,-0.995117,0,0,0,0,0,0,0,-1,545,1058,-59.8882,0.995158
-672,-34,-59.5058,0.126343,0,0,0,0,0,0,0,-1,552,1058,-59.5058,-0.126303
-665,-34,-58.4503,3.18994,0,0,0,0,0,0,0,-1,559,1058,-58.4502,-3.18995
-658,-34,-58.5239,3.27222,0.0147218,0.0240522,0.0456554,0.0652802,-0.0265062,0.836313,0.0545462,0.04282,566,1058,-58.5239,-3.27224
-651,-34,-58.8107,4.02991,0.0119185,0.0227768,0.0349824,0.0527489,-0.0180536,0.862382,0.0424823,0.0316739,573,1058,-58.8107,-4.02995
-644,-34,-58.9398,4.36389,0.00869105,0.0209553,0.0249399,0.0405058,-0.0108595,0.905945,0.031259,0.0146258,580,1058,-58.9397,-4.36389
-637,-34,-58.9686,4.6925,0.00616166,0.0171087,0.0169715,0.0294675,-0.00619718,0.941388,0.0220036,0.016132,587,1058,-58.9686,-4.69253
-630,-34,-59.0295,5.13745,0.0039524,0.0141144,0.00981961,0.0200897,-0.00202288,1.02415,0.0141158,0.0193521,594,1058,-59.0295,-5.1374
-623,-34,-59.0464,5.45801,0.00185686,0.0102414,0.00467121,0.0123257,-0.000227443,1.15111,0.00829398,0.0155604,601,1058,-59.0464,-5.45801
-616,-34,-58.981,5.83008,0.000538993,0.00651271,0.0017013,0.00696325,8.84493e-05,1.31192,0.00461297,0.0213563,608,1058,-58.981,-5.83009
-609,-34,-58.9354,6.14172,-2.71634e-05,0.00357805,-0.000306775,0.00360397,-5.30812e-05,-1.48651,0.00242053,0.0210789,615,1058,-58.9354,-6.14178
-602,-34,-58.9807,6.35474,0.000417995,0.000772829,-0.00196996,0.00257335,-0.00138253,-0.830307,0.00231816,0.0176334,622,1058,-58.9807,-6.35479
-595,-34,-59.1042,6.64478,0.000558715,-0.000946767,-0.00262998,0.00254156,-0.00292961,-0.646017,0.00316143,0.0213411,629,1058,-59.1042,-6.64477
-588,-34,-59.4371,6.91016,0,0,0,0,0,0,0,-1,636,1058,-59.4372,-6.91015
-581,-34,-59.0255,0.21875,0.00127717,-0.00225019,-0.00262065,0.00267235,-0.00364536,-0.489213,0.00366192,0.0237267,643,1058,-59.0254,-0.218702
-574,-34,-58.9785,0.241455,0.00145631,-0.00242989,-0.00251885,0.00269444,-0.00366802,-0.456862,0.00368768,0.0353189,650,1058,-58.9785,-0.241455
-567,-34,-59.0067,0.322632,0.00130136,-0.00215586,-0.00230216,0.00245164,-0.00330614,-0.463371,0.00333644,0.0434369,657,1058,-59.0067,-0.32261
-560,-34,-59.0737,0.343628,0.000817882,-0.00148285,-0.00198424,0.00196111,-0.00262607,-0.5227,0.00265767,0.0441399,664,1058,-59.0737,-0.343573
-553,-34,-59.0677,0.0819092,7.30234e-05,-0.000614403,-0.00160244,0.0013682,-0.00190958,-0.679752,0.00190101,0.043287,671,1058,-59.0677,-0.081961
-546,-34,-59.0863,-0.060791,-0.000912186,0.00011941,-0.00122708,0.000934694,-0.00172747,-0.984359,0.00155955,0.0452399,678,1058,-59.0863,0.0608381
-539,-34,-59.0732,0.23584,-0.00234419,0.00034476,-0.000933774,0.000637217,-0.00263664,-1.26727,0.00200422,0.0438527,685,1058,-59.0732,-0.235819
-532,-34,-59.1036,0.161133,-0.00373922,0.000778053,-0.000492586,0.000831143,-0.00379231,-1.46343,0.002846,0.040246,692,1058,-59.1037,-0.16118
-525,-34,0,0,0,0,0,0,0,0,0,-1,699,1058,0,0
-518,-34,0,0,0,0,0,0,0,0,0,-1,706,1058,0,0
-511,-34,0,0,0,0,0,0,0,0,0,-1,713,1058,0,0
-504,-34,0,0,0,0,0,0,0,0,0,-1,720,1058,0,0
-497,-34,0,0,0,0,0,0,0,0,0,-1,727,1058,0,0
-490,-34,0,0,0,0,0,0,0,0,0,-1,734,1058,0,0
-483,-34,0,0,0,0,0,0,0,0,0,-1,741,1058,0,0
-476,-34,0,0,0,0,0,0,0,0,0,-1,748,1058,0,0
-469,-34,0,0,0,0,0,0,0,0,0,-1,755,1058,0,0
-462,-34,0,0,0,0,0,0,0,0,0,-1,762,1058,0,0
-455,-34,0,0,0,0,0,0,0,0,0,-1,769,1058,0,0
-448,-34,0,0,0,0,0,0,0,0,0,-1,776,1058,0,0
-441,-34,0,0,0,0,0,0,0,0,0,-1,783,1058,0,0
-434,-34,0,0,0,0,0,0,0,0,0,-1,790,1058,0,0
-427,-34,0,0,0,0,0,0,0,0,0,-1,797,1058,0,0
-420,-34,0,0,0,0,0,0,0,0,0,-1,804,1058,0,0
-413,-34,0,0,0,0,0,0,0,0,0,-1,811,1058,0,0
-406,-34,0,0,0,0,0,0,0,0,0,-1,818,1058,0,0
-399,-34,0,0,0,0,0,0,0,0,0,-1,825,1058,0,0
-392,-34,0,0,0,0,0,0,0,0,0,-1,832,1058,0,0
-385,-34,0,0,0,0,0,0,0,0,0,-1,839,1058,0,0
-378,-34,0,0,0,0,0,0,0,0,0,-1,846,1058,0,0
-371,-34,0,0,0,0,0,0,0,0,0,-1,853,1058,0,0
-364,-34,0,0,0,0,0,0,0,0,0,-1,860,1058,0,0
-357,-34,0,0,0,0,0,0,0,0,0,-1,867,1058,0,0
-350,-34,0,0,0,0,0,0,0,0,0,-1,874,1058,0,0
-343,-34,0,0,0,0,0,0,0,0,0,-1,881,1058,0,0
-336,-34,0,0,0,0,0,0,0,0,0,-1,888,1058,0,0
-329,-34,0,0,0,0,0,0,0,0,0,-1,895,1058,0,0
-322,-34,0,0,0,0,0,0,0,0,0,-1,902,1058,0,0
-315,-34,0,0,0,0,0,0,0,0,0,-1,909,1058,0,0
-308,-34,0,0,0,0,0,0,0,0,0,-1,916,1058,0,0
-301,-34,0,0,0,0,0,0,0,0,0,-1,923,1058,0,0
-294,-34,0,0,0,0,0,0,0,0,0,-1,930,1058,0,0
-287,-34,0,0,0,0,0,0,0,0,0,-1,937,1058,0,0
-280,-34,0,0,0,0,0,0,0,0,0,-1,944,1058,0,0
-273,-34,0,0,0,0,0,0,0,0,0,-1,951,1058,0,0
-266,-34,0,0,0,0,0,0,0,0,0,-1,958,1058,0,0
-259,-34,0,0,0,0,0,0,0,0,0,-1,965,1058,0,0
-252,-34,0,0,0,0,0,0,0,0,0,-1,972,1058,0,0
-245,-34,0,0,0,0,0,0,0,0,0,-1,979,1058,0,0
-238,-34,0,0,0,0,0,0,0,0,0,-1,986,1058,0,0
-231,-34,0,0,0,0,0,0,0,0,0,-1,993,1058,0,0
-224,-34,0,0,0,0,0,0,0,0,0,-1,1000,1058,0,0
-217,-34,0,0,0,0,0,0,0,0,0,-1,1007,1058,0,0
-210,-34,0,0,0,0,0,0,0,0,0,-1,1014,1058,0,0
-203,-34,0,0,0,0,0,0,0,0,0,-1,1021,1058,0,0
-196,-34,0,0,0,0,0,0,0,0,0,-1,1028,1058,0,0
-189,-34,0,0,0,0,0,0,0,0,0,-1,1035,1058,0,0
-182,-34,0,0,0,0,0,0,0,0,0,-1,1042,1058,0,0
-175,-34,0,0,0,0,0,0,0,0,0,-1,1049,1058,0,0
-168,-34,0,0,0,0,0,0,0,0,0,-1,1056,1058,0,0
-161,-34,0,0,0,0,0,0,0,0,0,-1,1063,1058,0,0
-154,-34,0,0,0,0,0,0,0,0,0,-1,1070,1058,0,0
-147,-34,0,0,0,0,0,0,0,0,0,-1,1077,1058,0,0
-140,-34,0,0,0,0,0,0,0,0,0,-1,1084,1058,0,0
-133,-34,0,0,0,0,0,0,0,0,0,-1,1091,1058,0,0
-126,-34,0,0,0,0,0,0,0,0,0,-1,1098,1058,0,0
-119,-34,0,0,0,0,0,0,0,0,0,-1,1105,1058,0,0
-112,-34,0,0,0,0,0,0,0,0,0,-1,1112,1058,0,0
-105,-34,0,0,0,0,0,0,0,0,0,-1,1119,1058,0,0
-98,-34,0,0,0,0,0,0,0,0,0,-1,1126,1058,0,0
-91,-34,0,0,0,0,0,0,0,0,0,-1,1133,1058,0,0
-84,-34,0,0,0,0,0,0,0,0,0,-1,1140,1058,0,0
-77,-34,0,0,0,0,0,0,0,0,0,-1,1147,1058,0,0
-70,-34,0,0,0,0,0,0,0,0,0,-1,1154,1058,0,0
-63,-34,0,0,0,0,0,0,0,0,0,-1,1161,1058,0,0
-56,-34,0,0,0,0,0,0,0,0,0,-1,1168,1058,0,0
-49,-34,0,0,0,0,0,0,0,0,0,-1,1175,1058,0,0
-42,-34,0,0,0,0,0,0,0,0,0,-1,1182,1058,0,0
-35,-34,0,0,0,0,0,0,0,0,0,-1,1189,1058,0,0
-28,-34,0,0,0,0,0,0,0,0,0,-1,1196,1058,0,0
-21,-34,0,0,0,0,0,0,0,0,0,-1,1203,1058,0,0
-14,-34,0,0,0,0,0,0,0,0,0,-1,1210,1058,0,0
-7,-34,0,0,0,0,0,0,0,0,0,-1,1217,1058,0,0
0,-34,0,0,0,0,0,0,0,0,0,-1,1224,1058,0,0
7,-34,0,0,0,0,0,0,0,0,0,-1,1231,1058,0,0
14,-34,0,0,0,0,0,0,0,0,0,-1,1238,1058,0,0
21,-34,0,0,0,0,0,0,0,0,0,-1,1245,1058,0,0
28,-34,0,0,0,0,0,0,0,0,0,-1,1252,1058,0,0
35,-34,0,0,0,0,0,0,0,0,0,-1,1259,1058,0,0
42,-34,0,0,0,0,0,0,0,0,0,-1,1266,1058,0,0
49,-34,0,0,0,0,0,0,0,0,0,-1,1273,1058,0,0
56,-34,0,0,0,0,0,0,0,0,0,-1,1280,1058,0,0
63,-34,0,0,0,0,0,0,0,0,0,-1,1287,1058,0,0
70,-34,0,0,0,0,0,0,0,0,0,-1,1294,1058,0,0
77,-34,0,0,0,0,0,0,0,0,0,-1,1301,1058,0,0
84,-34,0,0,0,0,0,0,0,0,0,-1,1308,1058,0,0
91,-34,0,0,0,0,0,0,0,0,0,-1,1315,1058,0,0
98,-34,0,0,0,0,0,0,0,0,0,-1,1322,1058,0,0
105,-34,0,0,0,0,0,0,0,0,0,-1,1329,1058,0,0
112,-34,0,0,0,0,0,0,0,0,0,-1,1336,1058,0,0
119,-34,0,0,0,0,0,0,0,0,0,-1,1343,1058,0,0
126,-34,0,0,0,0,0,0,0,0,0,-1,1350,1058,0,0
133,-34,0,0,0,0,0,0,0,0,0,-1,1357,1058,0,0
140,-34,0,0,0,0,0,0,0,0,0,-1,1364,1058,0,0
147,-34,0,0,0,0,0,0,0,0,0,-1,1371,1058,0,0
154,-34,0,0,0,0,0,0,0,0,0,-1,1378,1058,0,0
161,-34,0,0,0,0,0,0,0,0,0,-1,1385,1058,0,0
168,-34,0,0,0,0,0,0,0,0,0,-1,1392,1058,0,0
175,-34,0,0,0,0,0,0,0,0,0,-1,1399,1058,0,0
182,-34,0,0,0,0,0,0,0,0,0,-1,1406,1058,0,0
189,-34,0,0,0,0,0,0,0,0,0,-1,1413,1058,0,0
196,-34,0,0,0,0,0,0,0,0,0,-1,1420,1058,0,0
203,-34,0,0,0,0,0,0,0,0,0,-1,1427,1058,0,0
210,-34,0,0,0,0,0,0,0,0,0,-1,1434,1058,0,0
217,-34,0,0,0,0,0,0,0,0,0,-1,1441,1058,0,0
224,-34,0,0,0,0,0,0,0,0,0,-1,1448,1058,0,0
231,-34,0,0,0,0,0,0,0,0,0,-1,1455,1058,0,0
238,-34,0,0,0,0,0,0,0,0,0,-1,1462,1058,0,0
245,-34,0,0,0,0,0,0,0,0,0,-1,1469,1058,0,0
252,-34,0,0,0,0,0,0,0,0,0,-1,1476,1058,0,0
259,-34,0,0,0,0,0,0,0,0,0,-1,1483,1058,0,0
266,-34,0,0,0,0,0,0,0,0,0,-1,1490,1058,0,0
273,-34,0,0,0,0,0,0,0,0,0,-1,1497,1058,0,0
280,-34,0,0,0,0,0,0,0,0,0,-1,1504,1058,0,0
287,-34,0,0,0,0,0,0,0,0,0,-1,1511,1058,0,0
294,-34,0,0,0,0,0,0,0,0,0,-1,1518,1058,0,0
301,-34,0,0,0,0,0,0,0,0,0,-1,1525,1058,0,0
308,-34,0,0,0,0,0,0,0,0,0,-1,1532,1058,0,0
315,-34,0,0,0,0,0,0,0,0,0,-1,1539,1058,0,0
322,-34,0,0,0,0,0,0,0,0,0,-1,1546,1058,0,0
329,-34,0,0,0,0,0,0,0,0,0,-1,1553,1058,0,0
336,-34,0,0,0,0,0,0,0,0,0,-1,1560,1058,0,0
343,-34,0,0,0,0,0,0,0,0,0,-1,1567,1058,0,0
350,-34,0,0,0,0,0,0,0,0,0,-1,1574,1058,0,0
357,-34,0,0,0,0,0,0,0,0,0,-1,1581,1058,0,0
364,-34,0,0,0,0,0,0,0,0,0,-1,1588,1058,0,0
371,-34,0,0,0,0,0,0,0,0,0,-1,1595,1058,0,0
378,-34,0,0,0,0,0,0,0,0,0,-1,1602,1058,0,0
385,-34,0,0,0,0,0,0,0,0,0,-1,1609,1058,0,0
392,-34,0,0,0,0,0,0,0,0,0,-1,1616,1058,0,0
399,-34,0,0,0,0,0,0,0,0,0,-1,1623,1058,0,0
406,-34,0,0,0,0,0,0,0,0,0,-1,1630,1058,0,0
413,-34,0,0,0,0,0,0,0,0,0,-1,1637,1058,0,0
420,-34,0,0,0,0,0,0,0,0,0,-1,1644,1058,0,0
427,-34,0,0,0,0,0,0,0,0,0,-1,1651,1058,0,0
434,-34,0,0,0,0,0,0,0,0,0,-1,1658,1058,0,0
441,-34,0,0,0,0,0,0,0,0,0,-1,1665,1058,0,0
448,-34,0,0,0,0,0,0,0,0,0,-1,1672,1058,0,0
455,-34,0,0,0,0,0,0,0,0,0,-1,1679,1058,0,0
462,-34,0,0,0,0,0,0,0,0,0,-1,1686,1058,0,0
469,-34,0,0,0,0,0,0,0,0,0,-1,1693,1058,0,0
476,-34,0,0,0,0,0,0,0,0,0,-1,1700,1058,0,0
483,-34,0,0,0,0,0,0,0,0,0,-1,1707,1058,0,0
490,-34,0,0,0,0,0,0,0,0,0,-1,1714,1058,0,0
497,-34,0,0,0,0,0,0,0,0,0,-1,1721,1058,0,0
504,-34,0,0,0,0,0,0,0,0,0,-1,1728,1058,0,0
511,-34,0,0,0,0,0,0,0,0,0,-1,1735,1058,0,0
518,-34,0,0,0,0,0,0,0,0,0,-1,1742,1058,0,0
525,-34,0,0,0,0,0,0,0,0,0,-1,1749,1058,0,0
532,-34,0,0,0,0,0,0,0,0,0,-1,1756,1058,0,0
539,-34,0,0,0,0,0,0,0,0,0,-1,1763,1058,0,0
546,-34,0,0,0,0,0,0,0,0,0,-1,1770,1058,0,0
553,-34,0,0,0,0,0,0,0,0,0,-1,1777,1058,0,0
560,-34,0,0,0,0,0,0,0,0,0,-1,1784,1058,0,0
567,-34,0,0,0,0,0,0,0,0,0,-1,1791,1058,0,0
574,-34,0,0,0,0,0,0,0,0,0,-1,1798,1058,0,0
581,-34,0,0,0,0,0,0,0,0,0,-1,1805,1058,0,0
588,-34,0,0,0,0,0,0,0,0,0,-1,1812,1058,0,0
595,-34,0,0,0,0,0,0,0,0,0,-1,1819,1058,0,0
602,-34,0,0,0,0,0,0,0,0,0,-1,1826,1058,0,0
609,-34,0,0,0,0,0,0,0,0,0,-1,1833,1058,0,0
616,-34,0,0,0,0,0,0,0,0,0,-1,1840,1058,0,0
623,-34,0,0,0,0,0,0,0,0,0,-1,1847,1058,0,0
630,-34,0,0,0,0,0,0,0,0,0,-1,1854,1058,0,0
637,-34,0,0,0,0,0,0,0,0,0,-1,1861,1058,0,0
644,-34,0,0,0,0,0,0,0,0,0,-1,1868,1058,0,0
651,-34,75.2733,2.05347,-0.00528053,0.00159716,0.000739185,0.0016757,-0.00535908,1.46493,0.00424306,0.0398934,1875,1058,75.2733,-2.05345
658,-34,75.3198,2.04358,-0.00365525,0.000736453,0.000453614,0.000782817,-0.00370162,1.46894,0.00276586,0.0424132,1882,1058,75.3199,-2.04361
665,-34,75.208,2.21802,-0.00232007,0.000113502,0.000338464,0.000159699,-0.00236626,1.43514,0.00163335,0.0405814,1889,1058,75.208,-2.21803
672,-34,75.0034,2.14417,-0.00121799,-0.000218776,0.000373201,-9.47752e-05,-0.00134199,1.25001,0.000864802,0.0365232,1896,1058,75.0034,-2.14418
679,-34,75.1888,2.07117,-0.000236993,-0.000445729,0.000491964,0.000161552,-0.000844274,0.680875,0.000623713,0.0376627,1903,1058,75.1888,-2.07112
686,-34,75.3512,2.10205,-9.43491e-05,-0.000906656,0.000696995,0.000306196,-0.0013072,0.52159,0.000989453,0.0447541,1910,1058,75.3512,-2.10209
693,-34,75.3617,2.19873,-0.000322755,-0.00131697,0.00100473,0.000301118,-0.00194085,0.555671,0.00140507,0.0440715,1917,1058,75.3617,-2.19867
700,-34,75.2443,2.17993,-0.000610576,-0.00148064,0.00139029,0.00041115,-0.00250237,0.633769,0.00182084,0.0392257,1924,1058,75.2443,-2.17989
707,-34,75.2048,2.10864,-0.00130119,-0.00124666,0.00164796,0.000374262,-0.00292211,0.79367,0.00208406,0.0286893,1931,1058,75.2048,-2.10864
714,-34,75.1979,2.17334,-0.00229617,-0.000541323,0.0018901,0.000665081,-0.00350258,1.00271,0.00258542,0.0279036,1938,1058,75.1978,-2.17328
721,-34,75.0859,2.10474,0,0,0,0,0,0,0,-1,1945,1058,75.0859,-2.10477
728,-34,74.8528,7.7489,0,0,0,0,0,0,0,-1,1952,1058,74.8528,-7.74895
735,-34,74.6948,7.52942,-0.00598722,0.00314318,0.00223806,0.00366226,-0.00650631,1.34289,0.00594688,0.022868,1959,1058,74.6948,-7.52936
742,-34,74.5942,7.24329,-0.00666256,0.00422114,0.00200573,0.004579,-0.00702043,1.39423,0.0067462,0.0195813,1966,1058,74.5943,-7.24328
749,-34,74.5835,6.97815,-0.00683262,0.00530722,0.00129889,0.00544464,-0.00697004,1.46539,0.00718563,0.0176899,1973,1058,74.5835,-6.97816
756,-34,74.5713,6.65015,-0.00571054,0.00675054,-2.70271e-05,0.0067506,-0.0057106,-1.56863,0.00720282,0.0137482,1980,1058,74.5712,-6.65014
763,-34,74.4783,6.36096,-0.00267855,0.00743797,-0.00199228,0.00781618,-0.00305676,-1.38319,0.00647486,0.0143269,1987,1058,74.4782,-6.36095
770,-34,74.3428,6.07776,0.00277304,0.00755459,-0.00496612,0.0106755,-0.000347826,-1.00973,0.0072357,0.0200165,1994,1058,74.3427,-6.0778
777,-34,74.1396,5.89746,0.0117335,0.0063726,-0.00905125,0.0184928,-0.000386772,-0.641443,0.0124595,0.0245267,2001,1058,74.1396,-5.89743
784,-34,74.093,5.84314,0.0228489,0.00382814,-0.0137363,0.0300458,-0.00336873,-0.482609,0.0212427,0.0443756,2008,1058,74.0931,-5.84317
791,-34,74.2122,5.75317,0,0,0,0,0,0,0,-1,2015,1058,74.2122,-5.75315
798,-34,75.2332,5.77551,0.0539902,-0.00699358,-0.0253613,0.0631587,-0.0161621,-0.346898,0.0484012,0.0495808,2022,1058,75.2333,-5.77547
805,-34,75.6492,5.39063,0.0753308,-0.0156045,-0.0320963,0.0855181,-0.0257919,-0.307342,0.067278,0.049763,2029,1058,75.6491,-5.39057
812,-34,75.9336,5.07324,0,0,0,0,0,0,0,-1,2036,1058,75.9336,-5.07321
-700,-41,-58.1523,-6.33606,0.00340282,0.00858776,0.120234,0.126257,-0.114266,0.796177,0.138924,0.0483469,524,1065,-58.1524,6.33606
-693,-41,-58.0748,-4.53638,0.0140186,0.0123745,0.107576,0.120776,-0.0943828,0.781578,0.124533,0.0432878,531,1065,-58.0748,4.53643
-686,-41,-58.1749,-3.22925,0.0184089,0.0163274,0.0933175,0.110692,-0.0759552,0.779822,0.108381,0.0439352,538,1065,-58.1749,3.22926
-679,-41,-59.0339,-1.37244,0,0,0,0,0,0,0,-1,545,1065,-59.0339,1.37244
-672,-41,-58.8704,-0.199097,0.0193167,0.0213272,0.0660817,0.0864113,-0.0457674,0.793004,0.0775067,0.0462387,552,1065,-58.8704,0.199125
-665,-41,-58.66,1.12488,0.0177074,0.0222132,0.0540173,0.0740246,-0.034104,0.80624,0.0638305,0.044531,559,1065,-58.66,-1.12486
-658,-41,-58.3453,2.51929,0.0153752,0.0220316,0.0430534,0.0618852,-0.0244784,0.823973,0.0513975,0.0407514,566,1065,-58.3453,-2.5193
-651,-41,-58.2968,3.79382,0.0125806,0.0208125,0.0331899,0.0501407,-0.0167476,0.847089,0.0401902,0.0339305,573,1065,-58.2968,-3.79386
-644,-41,-58.5293,4.25354,0.00943692,0.0191052,0.0237993,0.0385563,-0.0100142,0.885595,0.0296122,0.01641,580,1065,-58.5293,-4.2535
-637,-41,-58.5927,4.60583,0.00717734,0.0154618,0.016383,0.0282181,-0.00557894,0.909222,0.0209211,0.0177695,587,1065,-58.5926,-4.60581
-630,-41,-58.6233,5.00842,0.00494732,0.0128375,0.00938197,0.0190701,-0.00128527,0.984423,0.0131627,0.0173271,594,1065,-58.6233,-5.00838
-623,-41,-58.6411,5.3855,0.00268729,0.00933989,0.00421016,0.0113792,0.000647988,1.11972,0.00737962,0.0137707,601,1065,-58.6411,-5.38549
-616,-41,-58.6349,5.81006,0.00118522,0.00580685,0.00127815,0.00613678,0.000855294,1.31818,0.00383799,0.0168989,608,1065,-58.635,-5.81006
-609,-41,-58.5519,6.19543,0.000532855,0.00296512,-0.000575308,0.00309433,0.000403641,-1.34986,0.00194237,0.0243308,615,1065,-58.5519,-6.19546
-602,-41,-58.6376,6.4635,0.00102108,0.000336385,-0.00214774,0.00285358,-0.00149612,-0.706363,0.00255174,0.0153948,622,1065,-58.6376,-6.46346
-595,-41,-58.7715,6.72974,0.00113765,-0.00135495,-0.00282512,0.00297916,-0.00319646,-0.577664,0.00356623,0.0258733,629,1065,-58.7715,-6.72968
-588,-41,-59.1758,6.87158,0,0,0,0,0,0,0,-1,636,1065,-59.1758,-6.87156
-581,-41,-58.9869,0.22583,0.00183725,-0.0024568,-0.00280877,0.00322561,-0.00384515,-0.459071,0.00408752,0.0368722,643,1065,-58.9869,-0.225847
-574,-41,-59.006,0.274048,0.00200594,-0.00260209,-0.00271326,0.00326146,-0.0038576,-0.433393,0.00411499,0.0383398,650,1065,-59.006,-0.274088
-567,-41,-59.0736,0.33252,0.00185541,-0.00232692,-0.002512,0.00303275,-0.00350426,-0.438284,0.00377741,0.0430754,657,1065,-59.0736,-0.332466
-560,-41,-58.8008,0.189209,0.0013598,-0.00166154,-0.00220697,0.00252361,-0.00282535,-0.485275,0.00308986,0.0446143,664,1065,-58.8008,-0.189235
-553,-41,-58.9282,0.0422363,0.000624813,-0.00077326,-0.00182154,0.00187684,-0.00202529,-0.602183,0.00225344,0.0441415,671,1065,-58.9282,-0.0422755
-546,-41,-59.0068,0.0145264,-0.000311782,4.2254e-05,-0.00140795,0.00128427,-0.00155379,-0.847934,0.00164102,0.0440015,678,1065,-59.0068,-0.0144876
-539,-41,-59.0361,0.297729,-0.00163177,0.000377958,-0.00101953,0.000804598,-0.00205841,-1.17447,0.00170497,0.0411532,685,1065,-59.0361,-0.297753
-532,-41,-59.0988,0.28125,-0.00291606,0.000971271,-0.000465675,0.00102628,-0.00297107,-1.45322,0.00239719,0.0371366,692,1065,-59.0988,-0.28127
-525,-41,0,0,0,0,0,0,0,0,0,-1,699,1065,0,0
-518,-41,0,0,0,0,0,0,0,0,0,-1,706,1065,0,0
-511,-41,0,0,0,0,0,0,0,0,0,-1,713,1065,0,0
-504,-41,0,0,0,0,0,0,0,0,0,-1,720,1065,0,0
-497,-41,0,0,0,0,0,0,0,0,0,-1,727,1065,0,0
-490,-41,0,0,0,0,0,0,0,0,0,-1,734,1065,0,0
-483,-41,0,0,0,0,0,0,0,0,0,-1,741,1065,0,0
-476,-41,0,0,0,0,0,0,0,0,0,-1,748,1065,0,0
-469,-41,0,0,0,0,0,0,0,0,0,-1,755,1065,0,0
-462,-41,0,0,0,0,0,0,0,0,0,-1,762,1065,0,0
-455,-41,0,0,0,0,0,0,0,0,0,-1,769,1065,0,0
-448,-41,0,0,0,0,0,0,0,0,0,-1,776,1065,0,0
-441,-41,0,0,0,0,0,0,0,0,0,-1,783,1065,0,0
-434,-41,0,0,0,0,0,0,0,0,0,-1,790,1065,0,0
-427,-41,0,0,0,0,0,0,0,0,0,-1,797,1065,0,0
-420,-41,0,0,0,0,0,0,0,0,0,-1,804,1065,0,0
-413,-41,0,0,0,0,0,0,0,0,0,-1,811,1065,0,0
-406,-41,0,0,0,0,0,0,0,0,0,-1,818,1065,0,0
-399,-41,0,0,0,0,0,0,0,0,0,-1,825,1065,0,0
-392,-41,0,0,0,0,0,0,0,0,0,-1,832,1065,0,0
-385,-41,0,0,0,0,0,0,0,0,0,-1,839,1065,0,0
-378,-41,0,0,0,0,0,0,0,0,0,-1,846,1065,0,0
-371,-41,0,0,0,0,0,0,0,0,0,-1,853,1065,0,0
-364,-41,0,0,0,0,0,0,0,0,0,-1,860,1065,0,0
-357,-41,0,0,0,0,0,0,0,0,0,-1,867,1065,0,0
-350,-41,0,0,0,0,0,0,0,0,0,-1,874,1065,0,0
-343,-41,0,0,0,0,0,0,0,0,0,-1,881,1065,0,0
-336,-41,0,0,0,0,0,0,0,0,0,-1,888,1065,0,0
-329,-41,0,0,0,0,0,0,0,0,0,-1,895,1065,0,0
-322,-41,0,0,0,0,0,0,0,0,0,-1,902,1065,0,0
-315,-41,0,0,0,0,0,0,0,0,0,-1,909,1065,0,0
-308,-41,0,0,0,0,0,0,0,0,0,-1,916,1065,0,0
-301,-41,0,0,0,0,0,0,0,0,0,-1,923,1065,0,0
-294,-41,0,0,0,0,0,0,0,0,0,-1,930,1065,0,0
-287,-41,0,0,0,0,0,0,0,0,0,-1,937,1065,0,0
-280,-41,0,0,0,0,0,0,0,0,0,-1,944,1065,0,0
-273,-41,0,0,0,0,0,0,0,0,0,-1,951,1065,0,0
-266,-41,0,0,0,0,0,0,0,0,0,-1,958,1065,0,0
-259,-41,0,0,0,0,0,0,0,0,0,-1,965,1065,0,0
-252,-41,0,0,0,0,0,0,0,0,0,-1,972,1065,0,0
-245,-41,0,0,0,0,0,0,0,0,0,-1,979,1065,0,0
-238,-41,0,0,0,0,0,0,0,0,0,-1,986,1065,0,0
-231,-41,0,0,0,0,0,0,0,0,0,-1,993,1065,0,0
-224,-41,0,0,0,0,0,0,0,0,0,-1,1000,1065,0,0
-217,-41,0,0,0,0,0,0,0,0,0,-1,1007,1065,0,0
-210,-41,0,0,0,0,0,0,0,0,0,-1,1014,1065,0,0
-203,-41,0,0,0,0,0,0,0,0,0,-1,1021,1065,0,0
-196,-41,0,0,0,0,0,0,0,0,0,-1,1028,1065,0,0
-189,-41,0,0,0,0,0,0,0,0,0,-1,1035,1065,0,0
-182,-41,0,0,0,0,0,0,0,0,0,-1,1042,1065,0,0
-175,-41,0,0,0,0,0,0,0,0,0,-1,1049,1065,0,0
-168,-41,0,0,0,0,0,0,0,0,0,-1,1056,1065,0,0
-161,-41,0,0,0,0,0,0,0,0,0,-1,1063,1065,0,0
-154,-41,0,0,0,0,0,0,0,0,0,-1,1070,1065,0,0
-147,-41,0,0,0,0,0,0,0,0,0,-1,1077,1065,0,0
-140,-41,0,0,0,0,0,0,0,0,0,-1,1084,1065,0,0
-133,-41,0,0,0,0,0,0,0,0,0,-1,1091,1065,0,0
-126,-41,0,0,0,0,0,0,0,0,0,-1,1098,1065,0,0
-119,-41,0,0,0,0,0,0,0,0,0,-1,1105,1065,0,0
-112,-41,0,0,0,0,0,0,0,0,0,-1,1112,1065,0,0
-105,-41,0,0,0,0,0,0,0,0,0,-1,1119,1065,0,0
-98,-41,0,0,0,0,0,0,0,0,0,-1,1126,1065,0,0
-91,-41,0,0,0,0,0,0,0,0,0,-1,1133,1065,0,0
-84,-41,0,0,0,0,0,0,0,0,0,-1,1140,1065,0,0
-77,-41,0,0,0,0,0,0,0,0,0,-1,1147,1065,0,0
-70,-41,0,0,0,0,0,0,0,0,0,-1,1154,1065,0,0
-63,-41,0,0,0,0,0,0,0,0,0,-1,1161,1065,0,0
-56,-41,0,0,0,0,0,0,0,0,0,-1,1168,1065,0,0
-49,-41,0,0,0,0,0,0,0,0,0,-1,1175,1065,0,0
-42,-41,0,0,0,0,0,0,0,0,0,-1,1182,1065,0,0
-35,-41,0,0,0,0,0,0,0,0,0,-1,1189,1065,0,0
-28,-41,0,0,0,0,0,0,0,0,0,-1,1196,1065,0,0
-21,-41,0,0,0,0,0,0,0,0,0,-1,1203,1065,0,0
-14,-41,0,0,0,0,0,0,0,0,0,-1,1210,1065,0,0
-7,-41,0,0,0,0,0,0,0,0,0,-1,1217,1065,0,0
0,-41,0,0,0,0,0,0,0,0,0,-1,1224,1065,0,0
7,-41,0,0,0,0,0,0,0,0,0,-1,1231,1065,0,0
14,-41,0,0,0,0,0,0,0,0,0,-1,1238,1065,0,0
21,-41,0,0,0,0,0,0,0,0,0,-1,1245,1065,0,0
28,-41,0,0,0,0,0,0,0,0,0,-1,1252,1065,0,0
35,-41,0,0,0,0,0,0,0,0,0,-1,1259,1065,0,0
42,-41,0,0,0,0,0,0,0,0,0,-1,1266,1065,0,0
49,-41,0,0,0,0,0,0,0,0,0,-1,1273,1065,0,0
56,-41,0,0,0,0,0,0,0,0,0,-1,1280,1065,0,0
63,-41,0,0,0,0,0,0,0,0,0,-1,1287,1065,0,0
70,-41,0,0,0,0,0,0,0,0,0,-1,1294,1065,0,0
77,-41,0,0,0,0,0,0,0,0,0,-1,1301,1065,0,0
84,-41,0,0,0,0,0,0,0,0,0,-1,1308,1065,0,0
91,-41,0,0,0,0,0,0,0,0,0,-1,1315,1065,0,0
98,-41,0,0,0,0,0,0,0,0,0,-1,1322,1065,0,0
105,-41,0,0,0,0,0,0,0,0,0,-1,1329,1065,0,0
112,-41,0,0,0,0,0,0,0,0,0,-1,1336,1065,0,0
119,-41,0,0,0,0,0,0,0,0,0,-1,1343,1065,0,0
126,-41,0,0,0,0,0,0,0,0,0,-1,1350,1065,0,0
133,-41,0,0,0,0,0,0,0,0,0,-1,1357,1065,0,0
140,-41,0,0,0,0,0,0,0,0,0,-1,1364,1065,0,0
147,-41,0,0,0,0,0,0,0,0,0,-1,1371,1065,0,0
154,-41,0,0,0,0,0,0,0,0,0,-1,1378,1065,0,0
161,-41,0,0,0,0,0,0,0,0,0,-1,1385,1065,0,0
168,-41,0,0,0,0,0,0,0,0,0,-1,1392,1065,0,0
175,-41,0,0,0,0,0,0,0,0,0,-1,1399,1065,0,0
182,-41,0,0,0,0,0,0,0,0,0,-1,1406,1065,0,0
189,-41,0,0,0,0,0,0,0,0,0,-1,1413,1065,0,0
196,-41,0,0,0,0,0,0,0,0,0,-1,1420,1065,0,0
203,-41,0,0,0,0,0,0,0,0,0,-1,1427,1065,0,0
210,-41,0,0,0,0,0,0,0,0,0,-1,1434,1065,0,0
217,-41,0,0,0,0,0,0,0,0,0,-1,1441,1065,0,0
224,-41,0,0,0,0,0,0,0,0,0,-1,1448,1065,0,0
231,-41,0,0,0,0,0,0,0,0,0,-1,1455,1065,0,0
238,-41,0,0,0,0,0,0,0,0,0,-1,1462,1065,0,0
245,-41,0,0,0,0,0,0,0,0,0,-1,1469,1065,0,0
252,-41,0,0,0,0,0,0,0,0,0,-1,1476,1065,0,0
259,-41,0,0,0,0,0,0,0,0,0,-1,1483,1065,0,0
266,-41,0,0,0,0,0,0,0,0,0,-1,1490,1065,0,0
273,-41,0,0,0,0,0,0,0,0,0,-1,1497,1065,0,0
280,-41,0,0,0,0,0,0,0,0,0,-1,1504,1065,0,0
287,-41,0,0,0,0,0,0,0,0,0,-1,1511,1065,0,0
294,-41,0,0,0,0,0,0,0,0,0,-1,1518,1065,0,0
301,-41,0,0,0,0,0,0,0,0,0,-1,1525,1065,0,0
308,-41,0,0,0,0,0,0,0,0,0,-1,1532,1065,0,0
315,-41,0,0,0,0,0,0,0,0,0,-1,1539,1065,0,0
322,-41,0,0,0,0,0,0,0,0,0,-1,1546,1065,0,0
329,-41,0,0,0,0,0,0,0,0,0,-1,1553,1065,0,0
336,-41,0,0,0,0,0,0,0,0,0,-1,1560,1065,0,0
343,-41,0,0,0,0,0,0,0,0,0,-1,1567,1065,0,0
350,-41,0,0,0,0,0,0,0,0,0,-1,1574,1065,0,0
357,-41,0,0,0,0,0,0,0,0,0,-1,1581,1065,0,0
364,-41,0,0,0,0,0,0,0,0,0,-1,1588,1065,0,0
371,-41,0,0,0,0,0,0,0,0,0,-1,1595,1065,0,0
378,-41,0,0,0,0,0,0,0,0,0,-1,1602,1065,0,0
385,-41,0,0,0,0,0,0,0,0,0,-1,1609,1065,0,0
392,-41,0,0,0,0,0,0,0,0,0,-1,1616,1065,0,0
399,-41,0,0,0,0,0,0,0,0,0,-1,1623,1065,0,0
406,-41,0,0,0,0,0,0,0,0,0,-1,1630,1065,0,0
413,-41,0,0,0,0,0,0,0,0,0,-1,1637,1065,0,0
420,-41,0,0,0,0,0,0,0,0,0,-1,1644,1065,0,0
427,-41,0,0,0,0,0,0,0,0,0,-1,1651,1065,0,0
434,-41,0,0,0,0,0,0,0,0,0,-1,1658,1065,0,0
441,-41,0,0,0,0,0,0,0,0,0,-1,1665,1065,0,0
448,-41,0,0,0,0,0,0,0,0,0,-1,1672,1065,0,0
455,-41,0,0,0,0,0,0,0,0,0,-1,1679,1065,0,0
462,-41,0,0,0,0,0,0,0,0,0,-1,1686,1065,0,0
469,-41,0,0,0,0,0,0,0,0,0,-1,1693,1065,0,0
476,-41,0,0,0,0,0,0,0,0,0,-1,1700,1065,0,0
483,-41,0,0,0,0,0,0,0,0,0,-1,1707,1065,0,0
490,-41,0,0,0,0,0,0,0,0,0,-1,1714,1065,0,0
497,-41,0,0,0,0,0,0,0,0,0,-1,1721,1065,0,0
504,-41,0,0,0,0,0,0,0,0,0,-1,1728,1065,0,0
511,-41,0,0,0,0,0,0,0,0,0,-1,1735,1065,0,0
518,-41,0,0,0,0,0,0,0,0,0,-1,1742,1065,0,0
525,-41,0,0,0,0,0,0,0,0,0,-1,1749,1065,0,0
532,-41,0,0,0,0,0,0,0,0,0,-1,1756,1065,0,0
539,-41,0,0,0,0,0,0,0,0,0,-1,1763,1065,0,0
546,-41,0,0,0,0,0,0,0,0,0,-1,1770,1065,0,0
553,-41,0,0,0,0,0,0,0,0,0,-1,1777,1065,0,0
560,-41,0,0,0,0,0,0,0,0,0,-1,1784,1065,0,0
567,-41,0,0,0,0,0,0,0,0,0,-1,1791,1065,0,0
574,-41,0,0,0,0,0,0,0,0,0,-1,1798,1065,0,0
581,-41,0,0,0,0,0,0,0,0,0,-1,1805,1065,0,0
588,-41,0,0,0,0,0,0,0,0,0,-1,1812,1065,0,0
595,-41,0,0,0,0,0,0,0,0,0,-1,1819,1065,0,0
602,-41,0,0,0,0,0,0,0,0,0,-1,1826,1065,0,0
609,-41,0,0,0,0,0,0,0,0,0,-1,1833,1065,0,0
616,-41,0,0,0,0,0,0,0,0,0,-1,1840,1065,0,0
623,-41,0,0,0,0,0,0,0,0,0,-1,1847,1065,0,0
630,-41,0,0,0,0,0,0,0,0,0,-1,1854,1065,0,0
637,-41,0,0,0,0,0,0,0,0,0,-1,1861,1065,0,0
644,-41,0,0,0,0,0,0,0,0,0,-1,1868,1065,0,0
651,-41,75.2643,2.09998,-0.00472468,0.00126463,0.000747864,0.0013566,-0.00481665,1.44843,0.00374609,0.0378532,1875,1065,75.2643,-2.09997
658,-41,75.1083,2.224,-0.00320712,0.000413426,0.000427074,0.000463121,-0.00325682,1.45496,0.00234091,0.0426997,1882,1065,75.1083,-2.22401
665,-41,75.1793,2.24561,-0.00195669,-0.000192553,0.000246273,-0.000158819,-0.00199043,1.43466,0.00127731,0.0413607,1889,1065,75.1793,-2.24556
672,-41,75.0659,2.09998,-0.000922435,-0.000539769,0.000189353,-0.000461913,-0.00100029,1.1807,0.000578081,0.0384816,1896,1065,75.0659,-2.10003
679,-41,75.1829,2.1438,-2.86609e-06,-0.000789606,0.000206024,4.782e-05,-0.000840292,0.24123,0.000576796,0.0402017,1903,1065,75.1828,-2.14375
686,-41,75.2782,1.97559,9.12296e-05,-0.00126505,0.000358052,0.00017995,-0.00135377,0.242894,0.000968089,0.0448587,1910,1065,75.2782,-1.97562
693,-41,75.3081,2.01526,-0.000122645,-0.00166133,0.000642969,0.000110657,-0.00189463,0.348077,0.00130154,0.0454778,1917,1065,75.3081,-2.0152
700,-41,75.2156,2.21106,0,0,0,0,0,0,0,-1,1924,1065,75.2156,-2.21102
707,-41,75.23,2.14063,-0.00102408,-0.00154825,0.00136323,0.000102031,-0.00267436,0.690432,0.00181787,0.0329217,1931,1065,75.2299,-2.14066
714,-41,75.2166,2.10974,-0.00195655,-0.000893571,0.00167508,0.000332319,-0.00318244,0.93902,0.00224063,0.0311301,1938,1065,75.2165,-2.10977
721,-41,75.179,2.05103,0,0,0,0,0,0,0,-1,1945,1065,75.1789,-2.05103
728,-41,74.5084,7.80566,0,0,0,0,0,0,0,-1,1952,1065,74.5084,-7.80566
735,-41,74.3547,7.49463,-0.00531967,0.00255713,0.00236627,0.00321331,-0.00597585,1.30029,0.00538469,0.0241655,1959,1065,74.3548,-7.49466
742,-41,74.238,7.17798,-0.00590827,0.00367442,0.00227977,0.00418914,-0.00642299,1.34874,0.006172,0.0207621,1966,1065,74.2381,-7.17798
749,-41,74.1938,6.94568,-0.00607827,0.00481485,0.0018242,0.00511222,-0.00637564,1.4092,0.00664588,0.0178668,1973,1065,74.1939,-6.94571
756,-41,74.2043,6.65405,-0.00516213,0.00632311,0.000874189,0.00638927,-0.00522829,1.49526,0.00671855,0.0162821,1980,1065,74.2043,-6.6541
763,-41,74.095,6.28748,-0.0024878,0.00722322,-0.000620896,0.00726276,-0.00252734,-1.5072,0.00586858,0.0138339,1987,1065,74.095,-6.28748
770,-41,73.9497,5.98401,0.00247725,0.00769834,-0.00305919,0.00910943,0.00106616,-1.13861,0.00575061,0.0155863,1994,1065,73.9498,-5.984
777,-41,73.7341,5.66479,0.0104224,0.00712443,-0.00634918,0.0153332,0.00221358,-0.658348,0.00957,0.0198599,2001,1065,73.7341,-5.66475
784,-41,73.6108,5.63684,0,0,0,0,0,0,0,-1,2008,1065,73.6108,-5.63689
791,-41,73.4993,4.65784,0,0,0,0,0,0,0,-1,2015,1065,73.4992,-4.65786
798,-41,75.0637,6.17883,0,0,0,0,0,0,0,-1,2022,1065,75.0638,-6.17888
805,-41,75.459,5.79004,0,0,0,0,0,0,0,-1,2029,1065,75.459,-5.7901
812,-41,72.4744,1.70874,0,0,0,0,0,0,0,-1,2036,1065,72.4743,-1.70871
-700,-48,-58.3206,-6.36108,-0.00133447,0.0131303,0.105549,0.111694,-0.0998983,0.819606,0.122226,0.0474067,524,1072,-58.3207,6.36104
-693,-48,-58.2588,-4.69019,0.0112321,0.0145677,0.0958612,0.108776,-0.0829758,0.794096,0.111041,0.0410906,531,1072,-58.2588,4.69024
-686,-48,-58.2608,-3.03125,0.0167582,0.0168838,0.0841511,0.100972,-0.0673301,0.785771,0.0978143,0.0438809,538,1072,-58.2608,3.03126
-679,-48,-58.3409,-1.41516,0.0185865,0.0188889,0.0721107,0.0908486,-0.0533732,0.786447,0.0841983,0.0443365,545,1072,-58.3409,1.41512
-672,-48,-58.4281,-0.224854,0.0184308,0.0202195,0.0605975,0.0799292,-0.041279,0.792777,0.0711556,0.0427372,552,1072,-58.4281,0.224819
-665,-48,-58.5634,0.849365,0.0170487,0.0207298,0.0498465,0.0687697,-0.0309913,0.803852,0.0589576,0.0466192,559,1072,-58.5634,-0.849342
-658,-48,-58.2829,1.82654,0.0149298,0.0203626,0.0399473,0.0576858,-0.0223933,0.819346,0.0477069,0.047891,566,1072,-58.2829,-1.82651
-651,-48,-57.9038,3.14636,0.0123486,0.0191134,0.0309491,0.0468644,-0.0154024,0.839827,0.0374482,0.0429859,573,1072,-57.9038,-3.14632
-644,-48,-58.0071,4.20276,0.00946551,0.0174222,0.0222879,0.036084,-0.00919633,0.873717,0.0276363,0.0243548,580,1072,-58.0071,-4.20274
-637,-48,-58.0577,4.48486,0.00757809,0.0138497,0.015525,0.0265524,-0.00512462,0.88505,0.019634,0.0251143,587,1072,-58.0578,-4.48485
-630,-48,-58.1163,4.91736,0.00543451,0.0115215,0.00880419,0.0177934,-0.000837414,0.951811,0.012151,0.0306829,594,1072,-58.1163,-4.91734
-623,-48,-58.2296,5.34863,0.00310633,0.00838978,0.00368346,0.0102809,0.00121522,1.09648,0.00648691,0.0148664,601,1072,-58.2296,-5.34859
-616,-48,-58.243,5.74377,0.00151145,0.00508435,0.000848286,0.00527552,0.00132028,1.34914,0.00316994,0.0123172,608,1072,-58.243,-5.74379
-609,-48,-58.1868,6.17029,0.00087168,0.00237344,-0.000827428,0.0027399,0.000505215,-1.15387,0.00168365,0.0140679,615,1072,-58.1869,-6.17026
-602,-48,-58.2004,6.54163,0.0014458,2.52468e-05,-0.00225237,0.00309723,-0.00162619,-0.63266,0.0027708,0.0145939,622,1072,-58.2005,-6.54165
-595,-48,-58.2457,6.84521,0.00156491,-0.00154037,-0.00291448,0.00331452,-0.00328998,-0.540653,0.00381312,0.0358068,629,1072,-58.2457,-6.84518
-588,-48,-58.519,7.06995,0,0,0,0,0,0,0,-1,636,1072,-58.519,-7.06997
-581,-48,-58.9891,0.203003,0,0,0,0,0,0,0,-1,643,1072,-58.9891,-0.202978
-574,-48,-59.0392,0.28418,0.00243745,-0.00247788,-0.00289508,0.00377736,-0.00381779,-0.433467,0.00438508,0.0419776,650,1072,-59.0392,-0.284129
-567,-48,-59.148,0.360962,0.00232231,-0.00217984,-0.00276456,0.00363636,-0.00349389,-0.44371,0.00411693,0.0414996,657,1072,-59.148,-0.360949
-560,-48,-58.9595,0.367065,0.00183771,-0.00149802,-0.00255181,0.00321837,-0.00287868,-0.495947,0.00352195,0.0429292,664,1072,-58.9595,-0.367047
-553,-48,-58.756,0.0192871,0.00109931,-0.000591864,-0.0022521,0.00265933,-0.00215189,-0.605808,0.0027829,0.0447711,671,1072,-58.756,-0.0192596
-546,-48,-59.1279,-0.250732,0,0,0,0,0,0,0,-1,678,1072,-59.1278,0.250694
-539,-48,-59.1282,0.199829,-0.00120902,0.000638333,-0.00156797,0.00153447,-0.00210516,-1.05158,0.00210993,0.0394935,685,1072,-59.1282,-0.199856
-532,-48,-59.1241,0.383179,-0.00252875,0.00129908,-0.00107267,0.00157918,-0.00280885,-1.31538,0.00256638,0.0374456,692,1072,-59.1242,-0.383162
-525,-48,0,0,0,0,0,0,0,0,0,-1,699,1072,0,0
-518,-48,0,0,0,0,0,0,0,0,0,-1,706,1072,0,0
-511,-48,0,0,0,0,0,0,0,0,0,-1,713,1072,0,0
-504,-48,0,0,0,0,0,0,0,0,0,-1,720,1072,0,0
-497,-48,0,0,0,0,0,0,0,0,0,-1,727,1072,0,0
-490,-48,0,0,0,0,0,0,0,0,0,-1,734,1072,0,0
-483,-48,0,0,0,0,0,0,0,0,0,-1,741,1072,0,0
-476,-48,0,0,0,0,0,0,0,0,0,-1,748,1072,0,0
-469,-48,0,0,0,0,0,0,0,0,0,-1,755,1072,0,0
-462,-48,0,0,0,0,0,0,0,0,0,-1,762,1072,0,0
-455,-48,0,0,0,0,0,0,0,0,0,-1,769,1072,0,0
-448,-48,0,0,0,0,0,0,0,0,0,-1,776,1072,0,0
-441,-48,0,0,0,0,0,0,0,0,0,-1,783,1072,0,0
-434,-48,0,0,0,0,0,0,0,0,0,-1,790,1072,0,0
-427,-48,0,0,0,0,0,0,0,0,0,-1,797,1072,0,0
-420,-48,0,0,0,0,0,0,0,0,0,-1,804,1072,0,0
-413,-48,0,0,0,0,0,0,0,0,0,-1,811,1072,0,0
-406,-48,0,0,0,0,0,0,0,0,0,-1,818,1072,0,0
-399,-48,0,0,0,0,0,0,0,0,0,-1,825,1072,0,0
-392,-48,0,0,0,0,0,0,0,0,0,-1,832,1072,0,0
-385,-48,0,0,0,0,0,0,0,0,0,-1,839,1072,0,0
-378,-48,0,0,0,0,0,0,0,0,0,-1,846,1072,0,0
-371,-48,0,0,0,0,0,0,0,0,0,-1,853,1072,0,0
-364,-48,0,0,0,0,0,0,0,0,0,-1,860,1072,0,0
-357,-48,0,0,0,0,0,0,0,0,0,-1,867,1072,0,0
-350,-48,0,0,0,0,0,0,0,0,0,-1,874,1072,0,0
-343,-48,0,0,0,0,0,0,0,0,0,-1,881,1072,0,0
-336,-48,0,0,0,0,0,0,0,0,0,-1,888,1072,0,0
-329,-48,0,0,0,0,0,0,0,0,0,-1,895,1072,0,0
-322,-48,0,0,0,0,0,0,0,0,0,-1,902,1072,0,0
-315,-48,0,0,0,0,0,0,0,0,0,-1,909,1072,0,0
-308,-48,0,0,0,0,0,0,0,0,0,-1,916,1072,0,0
-301,-48,0,0,0,0,0,0,0,0,0,-1,923,1072,0,0
-294,-48,0,0,0,0,0,0,0,0,0,-1,930,1072,0,0
-287,-48,0,0,0,0,0,0,0,0,0,-1,937,1072,0,0
-280,-48,0,0,0,0,0,0,0,0,0,-1,944,1072,0,0
-273,-48,0,0,0,0,0,0,0,0,0,-1,951,1072,0,0
-266,-48,0,0,0,0,0,0,0,0,0,-1,958,1072,0,0
-259,-48,0,0,0,0,0,0,0,0,0,-1,965,1072,0,0
-252,-48,0,0,0,0,0,0,0,0,0,-1,972,1072,0,0
-245,-48,0,0,0,0,0,0,0,0,0,-1,979,1072,0,0
-238,-48,0,0,0,0,0,0,0,0,0,-1,986,1072,0,0
-231,-48,0,0,0,0,0,0,0,0,0,-1,993,1072,0,0
-224,-48,0,0,0,0,0,0,0,0,0,-1,1000,1072,0,0
-217,-48,0,0,0,0,0,0,0,0,0,-1,1007,1072,0,0
-210,-48,0,0,0,0,0,0,0,0,0,-1,1014,1072,0,0
-203,-48,0,0,0,0,0,0,0,0,0,-1,1021,1072,0,0
-196,-48,0,0,0,0,0,0,0,0,0,-1,1028,1072,0,0
-189,-48,0,0,0,0,0,0,0,0,0,-1,1035,1072,0,0
-182,-48,0,0,0,0,0,0,0,0,0,-1,1042,1072,0,0
-175,-48,0,0,0,0,0,0,0,0,0,-1,1049,1072,0,0
-168,-48,0,0,0,0,0,0,0,0,0,-1,1056,1072,0,0
-161,-48,0,0,0,0,0,0,0,0,0,-1,1063,1072,0,0
-154,-48,0,0,0,0,0,0,0,0,0,-1,1070,1072,0,0
-147,-48,0,0,0,0,0,0,0,0,0,-1,1077,1072,0,0
-140,-48,0,0,0,0,0,0,0,0,0,-1,1084,1072,0,0
-133,-48,0,0,0,0,0,0,0,0,0,-1,1091,1072,0,0
-126,-48,0,0,0,0,0,0,0,0,0,-1,1098,1072,0,0
-119,-48,0,0,0,0,0,0,0,0,0,-1,1105,1072,0,0
-112,-48,0,0,0,0,0,0,0,0,0,-1,1112,1072,0,0
-105,-48,0,0,0,0,0,0,0,0,0,-1,1119,1072,0,0
-98,-48,0,0,0,0,0,0,0,0,0,-1,1126,1072,0,0
-91,-48,0,0,0,0,0,0,0,0,0,-1,1133,1072,0,0
-84,-48,0,0,0,0,0,0,0,0,0,-1,1140,1072,0,0
-77,-48,0,0,0,0,0,0,0,0,0,-1,1147,1072,0,0
-70,-48,0,0,0,0,0,0,0,0,0,-1,1154,1072,0,0
-63,-48,0,0,0,0,0,0,0,0,0,-1,1161,1072,0,0
-56,-48,0,0,0,0,0,0,0,0,0,-1,1168,1072,0,0
-49,-48,0,0,0,0,0,0,0,0,0,-1,1175,1072,0,0
-42,-48,0,0,0,0,0,0,0,0,0,-1,1182,1072,0,0
-35,-48,0,0,0,0,0,0,0,0,0,-1,1189,1072,0,0
-28,-48,0,0,0,0,0,0,0,0,0,-1,1196,1072,0,0
-21,-48,0,0,0,0,0,0,0,0,0,-1,1203,1072,0,0
-14,-48,0,0,0,0,0,0,0,0,0,-1,1210,1072,0,0
-7,-48,0,0,0,0,0,0,0,0,0,-1,1217,1072,0,0
0,-48,0,0,0,0,0,0,0,0,0,-1,1224,1072,0,0
7,-48,0,0,0,0,0,0,0,0,0,-1,1231,1072,0,0
14,-48,0,0,0,0,0,0,0,0,0,-1,1238,1072,0,0
21,-48,0,0,0,0,0,0,0,0,0,-1,1245,1072,0,0
28,-48,0,0,0,0,0,0,0,0,0,-1,1252,1072,0,0
35,-48,0,0,0,0,0,0,0,0,0,-1,1259,1072,0,0
42,-48,0,0,0,0,0,0,0,0,0,-1,1266,1072,0,0
49,-48,0,0,0,0,0,0,0,0,0,-1,1273,1072,0,0
56,-48,0,0,0,0,0,0,0,0,0,-1,1280,1072,0,0
63,-48,0,0,0,0,0,0,0,0,0,-1,1287,1072,0,0
70,-48,0,0,0,0,0,0,0,0,0,-1,1294,1072,0,0
77,-48,0,0,0,0,0,0,0,0,0,-1,1301,1072,0,0
84,-48,0,0,0,0,0,0,0,0,0,-1,1308,1072,0,0
91,-48,0,0,0,0,0,0,0,0,0,-1,1315,1072,0,0
98,-48,0,0,0,0,0,0,0,0,0,-1,1322,1072,0,0
105,-48,0,0,0,0,0,0,0,0,0,-1,1329,1072,0,0
112,-48,0,0,0,0,0,0,0,0,0,-1,1336,1072,0,0
119,-48,0,0,0,0,0,0,0,0,0,-1,1343,1072,0,0
126,-48,0,0,0,0,0,0,0,0,0,-1,1350,1072,0,0
133,-48,0,0,0,0,0,0,0,0,0,-1,1357,1072,0,0
140,-48,0,0,0,0,0,0,0,0,0,-1,1364,1072,0,0
147,-48,0,0,0,0,0,0,0,0,0,-1,1371,1072,0,0
154,-48,0,0,0,0,0,0,0,0,0,-1,1378,1072,0,0
161,-48,0,0,0,0,0,0,0,0,0,-1,1385,1072,0,0
168,-48,0,0,0,0,0,0,0,0,0,-1,1392,1072,0,0
175,-48,0,0,0,0,0,0,0,0,0,-1,1399,1072,0,0
182,-48,0,0,0,0,0,0,0,0,0,-1,1406,1072,0,0
189,-48,0,0,0,0,0,0,0,0,0,-1,1413,1072,0,0
196,-48,0,0,0,0,0,0,0,0,0,-1,1420,1072,0,0
203,-48,0,0,0,0,0,0,0,0,0,-1,1427,1072,0,0
210,-48,0,0,0,0,0,0,0,0,0,-1,1434,1072,0,0
217,-48,0,0,0,0,0,0,0,0,0,-1,1441,1072,0,0
224,-48,0,0,0,0,0,0,0,0,0,-1,1448,1072,0,0
231,-48,0,0,0,0,0,0,0,0,0,-1,1455,1072,0,0
238,-48,0,0,0,0,0,0,0,0,0,-1,1462,1072,0,0
245,-48,0,0,0,0,0,0,0,0,0,-1,1469,1072,0,0
252,-48,0,0,0,0,0,0,0,0,0,-1,1476,1072,0,0
259,-48,0,0,0,0,0,0,0,0,0,-1,1483,1072,0,0
266,-48,0,0,0,0,0,0,0,0,0,-1,1490,1072,0,0
273,-48,0,0,0,0,0,0,0,0,0,-1,1497,1072,0,0
280,-48,0,0,0,0,0,0,0,0,0,-1,1504,1072,0,0
287,-48,0,0,0,0,0,0,0,0,0,-1,1511,1072,0,0
294,-48,0,0,0,0,0,0,0,0,0,-1,1518,1072,0,0
301,-48,0,0,0,0,0,0,0,0,0,-1,1525,1072,0,0
308,-48,0,0,0,0,0,0,0,0,0,-1,1532,1072,0,0
315,-48,0,0,0,0,0,0,0,0,0,-1,1539,1072,0,0
322,-48,0,0,0,0,0,0,0,0,0,-1,1546,1072,0,0
329,-48,0,0,0,0,0,0,0,0,0,-1,1553,1072,0,0
336,-48,0,0,0,0,0,0,0,0,0,-1,1560,1072,0,0
343,-48,0,0,0,0,0,0,0,0,0,-1,1567,1072,0,0
350,-48,0,0,0,0,0,0,0,0,0,-1,1574,1072,0,0
357,-48,0,0,0,0,0,0,0,0,0,-1,1581,1072,0,0
364,-48,0,0,0,0,0,0,0,0,0,-1,1588,1072,0,0
371,-48,0,0,0,0,0,0,0,0,0,-1,1595,1072,0,0
378,-48,0,0,0,0,0,0,0,0,0,-1,1602,1072,0,0
385,-48,0,0,0,0,0,0,0,0,0,-1,1609,1072,0,0
392,-48,0,0,0,0,0,0,0,0,0,-1,1616,1072,0,0
399,-48,0,0,0,0,0,0,0,0,0,-1,1623,1072,0,0
406,-48,0,0,0,0,0,0,0,0,0,-1,1630,1072,0,0
413,-48,0,0,0,0,0,0,0,0,0,-1,1637,1072,0,0
420,-48,0,0,0,0,0,0,0,0,0,-1,1644,1072,0,0
427,-48,0,0,0,0,0,0,0,0,0,-1,1651,1072,0,0
434,-48,0,0,0,0,0,0,0,0,0,-1,1658,1072,0,0
441,-48,0,0,0,0,0,0,0,0,0,-1,1665,1072,0,0
448,-48,0,0,0,0,0,0,0,0,0,-1,1672,1072,0,0
455,-48,0,0,0,0,0,0,0,0,0,-1,1679,1072,0,0
462,-48,0,0,0,0,0,0,0,0,0,-1,1686,1072,0,0
469,-48,0,0,0,0,0,0,0,0,0,-1,1693,1072,0,0
476,-48,0,0,0,0,0,0,0,0,0,-1,1700,1072,0,0
483,-48,0,0,0,0,0,0,0,0,0,-1,1707,1072,0,0
490,-48,0,0,0,0,0,0,0,0,0,-1,1714,1072,0,0
497,-48,0,0,0,0,0,0,0,0,0,-1,1721,1072,0,0
504,-48,0,0,0,0,0,0,0,0,0,-1,1728,1072,0,0
511,-48,0,0,0,0,0,0,0,0,0,-1,1735,1072,0,0
518,-48,0,0,0,0,0,0,0,0,0,-1,1742,1072,0,0
525,-48,0,0,0,0,0,0,0,0,0,-1,1749,1072,0,0
532,-48,0,0,0,0,0,0,0,0,0,-1,1756,1072,0,0
539,-48,0,0,0,0,0,0,0,0,0,-1,1763,1072,0,0
546,-48,0,0,0,0,0,0,0,0,0,-1,1770,1072,0,0
553,-48,0,0,0,0,0,0,0,0,0,-1,1777,1072,0,0
560,-48,0,0,0,0,0,0,0,0,0,-1,1784,1072,0,0
567,-48,0,0,0,0,0,0,0,0,0,-1,1791,1072,0,0
574,-48,0,0,0,0,0,0,0,0,0,-1,1798,1072,0,0
581,-48,0,0,0,0,0,0,0,0,0,-1,1805,1072,0,0
588,-48,0,0,0,0,0,0,0,0,0,-1,1812,1072,0,0
595,-48,0,0,0,0,0,0,0,0,0,-1,1819,1072,0,0
602,-48,0,0,0,0,0,0,0,0,0,-1,1826,1072,0,0
609,-48,0,0,0,0,0,0,0,0,0,-1,1833,1072,0,0
616,-48,0,0,0,0,0,0,0,0,0,-1,1840,1072,0,0
623,-48,0,0,0,0,0,0,0,0,0,-1,1847,1072,0,0
630,-48,0,0,0,0,0,0,0,0,0,-1,1854,1072,0,0
637,-48,0,0,0,0,0,0,0,0,0,-1,1861,1072,0,0
644,-48,0,0,0,0,0,0,0,0,0,-1,1868,1072,0,0
651,-48,75.2367,1.93262,-0.00401001,0.00108767,0.000894929,0.00124022,-0.00416256,1.40196,0.00326786,0.0350808,1875,1072,75.2366,-1.93256
658,-48,75.0986,2.14221,-0.00263408,0.000356316,0.000506312,0.000439715,-0.00271747,1.40754,0.00197461,0.0396897,1882,1072,75.0986,-2.14227
665,-48,74.9723,2.29077,-0.00151622,-0.000178337,0.000257246,-0.000130579,-0.00156398,1.38723,0.00100196,0.042057,1889,1072,74.9722,-2.29075
672,-48,75.0585,2.14331,-0.000598051,-0.000498488,0.000105602,-0.000431522,-0.000665017,1.00565,0.000389581,0.0398969,1896,1072,75.0585,-2.14327
679,-48,75.1935,2.11926,0.000199953,-0.00073367,1.48182e-05,0.000200188,-0.000733906,0.0158664,0.000567886,0.0409331,1903,1072,75.1935,-2.11927
686,-48,75.0414,1.80457,0.000225556,-0.00120305,8.6308e-05,0.000230752,-0.00120825,0.0601226,0.000892415,0.0429294,1910,1072,75.0414,-1.80455
693,-48,75.0962,1.7876,1.06678e-05,-0.00160072,0.000318757,7.14315e-05,-0.00166149,0.188367,0.00113222,0.0442288,1917,1072,75.0962,-1.78762
700,-48,75.1843,1.97607,-0.000228336,-0.0017287,0.000693141,4.28614e-05,-0.0019999,0.372949,0.00134778,0.03858,1924,1072,75.1843,-1.97611
707,-48,75.2738,2.22217,0,0,0,0,0,0,0,-1,1931,1072,75.2737,-2.22217
714,-48,75.2389,2.00073,0,0,0,0,0,0,0,-1,1938,1072,75.2389,-2.00067
721,-48,75.2325,1.90808,0,0,0,0,0,0,0,-1,1945,1072,75.2325,-1.90812
728,-48,74.0775,8.02271,0,0,0,0,0,0,0,-1,1952,1072,74.0775,-8.02266
735,-48,73.965,7.67908,-0.00466309,0.00210841,0.00228782,0.0028089,-0.00536359,1.27367,0.00479462,0.0244263,1959,1072,73.965,-7.67905
742,-48,73.8254,7.29944,-0.00517462,0.00322769,0.00232407,0.00382768,-0.00577461,1.31815,0.00558174,0.0184811,1966,1072,73.8255,-7.29938
749,-48,73.7825,6.94751,-0.00535329,0.00440432,0.00209473,0.004835,-0.00578397,1.36802,0.00613902,0.0158979,1973,1072,73.7824,-6.94752
756,-48,73.7561,6.59924,-0.00463199,0.00601808,0.001486,0.00622153,-0.00483544,1.43473,0.00640044,0.0146718,1980,1072,73.7561,-6.59919
763,-48,73.6665,6.22949,-0.00230388,0.00727075,0.00042984,0.00729001,-0.00232314,1.52602,0.00579183,0.0143153,1987,1072,73.6664,-6.22952
770,-48,73.5984,5.86743,0.00215263,0.00830363,-0.00148872,0.00864499,0.00181126,-1.34539,0.00526448,0.0163594,1994,1072,73.5983,-5.86738
777,-48,73.4082,5.47217,0.00909123,0.00862196,-0.0040465,0.0129099,0.0048033,-0.756438,0.00753442,0.0152243,2001,1072,73.4082,-5.47218
784,-48,73.2395,5.05713,0.0177429,0.00799106,-0.0069114,0.0213252,0.00440872,-0.478198,0.0129989,0.0270896,2008,1072,73.2395,-5.05712
791,-48,73.1616,4.58008,0.0285199,0.00611268,-0.0101182,0.0324126,0.00221997,-0.367268,0.0209077,0.0440113,2015,1072,73.1617,-4.58002
798,-48,73.0657,4.08887,0,0,0,0,0,0,0,-1,2022,1072,73.0657,-4.08881
805,-48,71.8792,3.24707,0,0,0,0,0,0,0,-1,2029,1072,71.8791,-3.2471
812,-48,71.6252,2.66809,0,0,0,0,0,0,0,-1,2036,1072,71.6252,-2.66815
-700,-55,-58.3967,-6.42908,-0.0106974,0.0184032,0.0908212,0.0958322,-0.0881265,0.864827,0.10624,0.0470615,524,1079,-58.3967,6.42912
-693,-55,-58.3287,-4.70374,0.00438721,0.0178434,0.0843541,0.0957372,-0.0735066,0.825194,0.0979936,0.0473426,531,1079,-58.3287,4.70372
-686,-55,-58.4556,-2.89514,0.0113823,0.0187029,0.0751055,0.0902373,-0.0601521,0.809747,0.0874046,0.0416342,538,1079,-58.4556,2.89517
-679,-55,-58.4693,-1.1958,0.0142455,0.0196689,0.0650395,0.0820532,-0.0481388,0.806233,0.0760118,0.0463568,545,1079,-58.4693,1.19582
-672,-55,-58.5247,-0.567017,0,0,0,0,0,0,0,-1,552,1079,-58.5247,0.567062
-665,-55,-58.0163,0.643555,0,0,0,0,0,0,0,-1,559,1079,-58.0163,-0.64361
-658,-55,-57.8398,1.13464,0,0,0,0,0,0,0,-1,566,1079,-57.8398,-1.13459
-651,-55,-57.6666,2.63306,0.0105501,0.0181202,0.0285909,0.0431755,-0.0145051,0.851209,0.0346461,0.0490155,573,1079,-57.6666,-2.63301
-644,-55,-57.5967,4.0387,0.00822933,0.016293,0.020654,0.0333051,-0.00878269,0.88179,0.0256374,0.0310544,580,1079,-57.5967,-4.03875
-637,-55,-57.6424,4.38818,0.00697528,0.0126684,0.0145344,0.0246324,-0.00498872,0.882099,0.0183124,0.0234315,587,1079,-57.6424,-4.38815
-630,-55,-57.6896,4.87585,0.00516094,0.0104578,0.00815257,0.0163813,-0.000762609,0.942449,0.0111838,0.0258272,594,1079,-57.6896,-4.87584
-623,-55,-57.8537,5.39453,0.00305593,0.0075392,0.00314971,0.00916352,0.00143161,1.09466,0.00569214,0.020068,601,1079,-57.8537,-5.39454
-616,-55,-57.8682,5.78162,0.00161642,0.00440275,0.000464139,0.00447803,0.00154114,1.41,0.00262692,0.0186703,608,1079,-57.8682,-5.78164
-609,-55,-57.8016,6.23767,0.00116485,0.00179572,-0.00101815,0.00254618,0.000414387,-0.935615,0.00157757,0.019998,615,1079,-57.8015,-6.23764
-602,-55,-57.7351,6.63708,0.00185557,-0.000283322,-0.0022246,0.00325444,-0.00168219,-0.561339,0.00289795,0.016167,622,1079,-57.7351,-6.63713
-595,-55,-57.5677,7.06519,0.00199635,-0.00170353,-0.00280557,0.00350699,-0.00321417,-0.493927,0.00388169,0.0351427,629,1079,-57.5677,-7.06514
-588,-55,-57.5331,7.55713,0,0,0,0,0,0,0,-1,636,1079,-57.5331,-7.55716
-581,-55,-58.9733,0.092041,0,0,0,0,0,0,0,-1,643,1079,-58.9732,-0.0919986
-574,-55,-58.9361,0.258179,0,0,0,0,0,0,0,-1,650,1079,-58.9361,-0.258229
-567,-55,-59.0733,0.368164,0,0,0,0,0,0,0,-1,657,1079,-59.0733,-0.368117
-560,-55,-59.1132,0.449097,0.00228493,-0.00172062,-0.00254475,0.00352049,-0.00295619,-0.452009,0.00374404,0.041108,664,1079,-59.1132,-0.44905
-553,-55,-58.7822,0.277954,0.00148802,-0.000934183,-0.00229265,0.0028698,-0.00231596,-0.542401,0.00299968,0.0417616,671,1079,-58.7822,-0.277958
-546,-55,-58.8835,-0.0234375,0.000454525,-0.000189834,-0.0019753,0.00213375,-0.00186906,-0.704558,0.0023127,0.0384812,678,1079,-58.8835,0.0234004
-539,-55,-59.1575,0.118408,-0.00088419,-4.74163e-05,-0.00165913,0.00124527,-0.00217687,-0.908909,0.00200003,0.0380919,685,1079,-59.1575,-0.118458
-532,-55,-59.2037,0.341797,-0.00222913,0.000376983,-0.00120525,0.000848913,-0.00270106,-1.19758,0.00214054,0.0352644,692,1079,-59.2038,-0.341767
-525,-55,0,0,0,0,0,0,0,0,0,-1,699,1079,0,0
-518,-55,0,0,0,0,0,0,0,0,0,-1,706,1079,0,0
-511,-55,0,0,0,0,0,0,0,0,0,-1,713,1079,0,0
-504,-55,0,0,0,0,0,0,0,0,0,-1,720,1079,0,0
-497,-55,0,0,0,0,0,0,0,0,0,-1,727,1079,0,0
-490,-55,0,0,0,0,0,0,0,0,0,-1,734,1079,0,0
-483,-55,0,0,0,0,0,0,0,0,0,-1,741,1079,0,0
-476,-55,0,0,0,0,0,0,0,0,0,-1,748,1079,0,0
-469,-55,0,0,0,0,0,0,0,0,0,-1,755,1079,0,0
-462,-55,0,0,0,0,0,0,0,0,0,-1,762,1079,0,0
-455,-55,0,0,0,0,0,0,0,0,0,-1,769,1079,0,0
-448,-55,0,0,0,0,0,0,0,0,0,-1,776,1079,0,0
-441,-55,0,0,0,0,0,0,0,0,0,-1,783,1079,0,0
-434,-55,0,0,0,0,0,0,0,0,0,-1,790,1079,0,0
-427,-55,0,0,0,0,0,0,0,0,0,-1,797,1079,0,0
-420,-55,0,0,0,0,0,0,0,0,0,-1,804,1079,0,0
-413,-55,0,0,0,0,0,0,0,0,0,-1,811,1079,0,0
-406,-55,0,0,0,0,0,0,0,0,0,-1,818,1079,0,0
-399,-55,0,0,0,0,0,0,0,0,0,-1,825,1079,0,0
-392,-55,0,0,0,0,0,0,0,0,0,-1,832,1079,0,0
-385,-55,0,0,0,0,0,0,0,0,0,-1,839,1079,0,0
-378,-55,0,0,0,0,0,0,0,0,0,-1,846,1079,0,0
-371,-55,0,0,0,0,0,0,0,0,0,-1,853,1079,0,0
-364,-55,0,0,0,0,0,0,0,0,0,-1,860,1079,0,0
-357,-55,0,0,0,0,0,0,0,0,0,-1,867,1079,0,0
-350,-55,0,0,0,0,0,0,0,0,0,-1,874,1079,0,0
-343,-55,0,0,0,0,0,0,0,0,0,-1,881,1079,0,0
-336,-55,0,0,0,0,0,0,0,0,0,-1,888,1079,0,0
-329,-55,0,0,0,0,0,0,0,0,0,-1,895,1079,0,0
-322,-55,0,0,0,0,0,0,0,0,0,-1,902,1079,0,0
-315,-55,0,0,0,0,0,0,0,0,0,-1,909,1079,0,0
-308,-55,0,0,0,0,0,0,0,0,0,-1,916,1079,0,0
-301,-55,0,0,0,0,0,0,0,0,0,-1,923,1079,0,0
-294,-55,0,0,0,0,0,0,0,0,0,-1,930,1079,0,0
-287,-55,0,0,0,0,0,0,0,0,0,-1,937,1079,0,0
-280,-55,0,0,0,0,0,0,0,0,0,-1,944,1079,0,0
-273,-55,0,0,0,0,0,0,0,0,0,-1,951,1079,0,0
-266,-55,0,0,0,0,0,0,0,0,0,-1,958,1079,0,0
-259,-55,0,0,0,0,0,0,0,0,0,-1,965,1079,0,0
-252,-55,0,0,0,0,0,0,0,0,0,-1,972,1079,0,0
-245,-55,0,0,0,0,0,0,0,0,0,-1,979,1079,0,0
-238,-55,0,0,0,0,0,0,0,0,0,-1,986,1079,0,0
-231,-55,0,0,0,0,0,0,0,0,0,-1,993,1079,0,0
-224,-55,0,0,0,0,0,0,0,0,0,-1,1000,1079,0,0
-217,-55,0,0,0,0,0,0,0,0,0,-1,1007,1079,0,0
-210,-55,0,0,0,0,0,0,0,0,0,-1,1014,1079,0,0
-203,-55,0,0,0,0,0,0,0,0,0,-1,1021,1079,0,0
-196,-55,0,0,0,0,0,0,0,0,0,-1,1028,1079,0,0
-189,-55,0,0,0,0,0,0,0,0,0,-1,1035,1079,0,0
-182,-55,0,0,0,0,0,0,0,0,0,-1,1042,1079,0,0
-175,-55,0,0,0,0,0,0,0,0,0,-1,1049,1079,0,0
-168,-55,0,0,0,0,0,0,0,0,0,-1,1056,1079,0,0
-161,-55,0,0,0,0,0,0,0,0,0,-1,1063,1079,0,0
-154,-55,0,0,0,0,0,0,0,0,0,-1,1070,1079,0,0
-147,-55,0,0,0,0,0,0,0,0,0,-1,1077,1079,0,0
-140,-55,0,0,0,0,0,0,0,0,0,-1,1084,1079,0,0
-133,-55,0,0,0,0,0,0,0,0,0,-1,1091,1079,0,0
-126,-55,0,0,0,0,0,0,0,0,0,-1,1098,1079,0,0
-119,-55,0,0,0,0,0,0,0,0,0,-1,1105,1079,0,0
-112,-55,0,0,0,0,0,0,0,0,0,-1,1112,1079,0,0
-105,-55,0,0,0,0,0,0,0,0,0,-1,1119,1079,0,0
-98,-55,0,0,0,0,0,0,0,0,0,-1,1126,1079,0,0
-91,-55,0,0,0,0,0,0,0,0,0,-1,1133,1079,0,0
-84,-55,0,0,0,0,0,0,0,0,0,-1,1140,1079,0,0
-77,-55,0,0,0,0,0,0,0,0,0,-1,1147,1079,0,0
-70,-55,0,0,0,0,0,0,0,0,0,-1,1154,1079,0,0
-63,-55,0,0,0,0,0,0,0,0,0,-1,1161,1079,0,0
-56,-55,0,0,0,0,0,0,0,0,0,-1,1168,1079,0,0
-49,-55,0,0,0,0,0,0,0,0,0,-1,1175,1079,0,0
-42,-55,0,0,0,0,0,0,0,0,0,-1,1182,1079,0,0
-35,-55,0,0,0,0,0,0,0,0,0,-1,1189,1079,0,0
-28,-55,0,0,0,0,0,0,0,0,0,-1,1196,1079,0,0
-21,-55,0,0,0,0,0,0,0,0,0,-1,1203,1079,0,0
-14,-55,0,0,0,0,0,0,0,0,0,-1,1210,1079,0,0
-7,-55,0,0,0,0,0,0,0,0,0,-1,1217,1079,0,0
0,-55,0,0,0,0,0,0,0,0,0,-1,1224,1079,0,0
7,-55,0,0,0,0,0,0,0,0,0,-1,1231,1079,0,0
14,-55,0,0,0,0,0,0,0,0,0,-1,1238,1079,0,0
21,-55,0,0,0,0,0,0,0,0,0,-1,1245,1079,0,0
28,-55,0,0,0,0,0,0,0,0,0,-1,1252,1079,0,0
35,-55,0,0,0,0,0,0,0,0,0,-1,1259,1079,0,0
42,-55,0,0,0,0,0,0,0,0,0,-1,1266,1079,0,0
49,-55,0,0,0,0,0,0,0,0,0,-1,1273,1079,0,0
56,-55,0,0,0,0,0,0,0,0,0,-1,1280,1079,0,0
63,-55,0,0,0,0,0,0,0,0,0,-1,1287,1079,0,0
70,-55,0,0,0,0,0,0,0,0,0,-1,1294,1079,0,0
77,-55,0,0,0,0,0,0,0,0,0,-1,1301,1079,0,0
84,-55,0,0,0,0,0,0,0,0,0,-1,1308,1079,0,0
91,-55,0,0,0,0,0,0,0,0,0,-1,1315,1079,0,0
98,-55,0,0,0,0,0,0,0,0,0,-1,1322,1079,0,0
105,-55,0,0,0,0,0,0,0,0,0,-1,1329,1079,0,0
112,-55,0,0,0,0,0,0,0,0,0,-1,1336,1079,0,0
119,-55,0,0,0,0,0,0,0,0,0,-1,1343,1079,0,0
126,-55,0,0,0,0,0,0,0,0,0,-1,1350,1079,0,0
133,-55,0,0,0,0,0,0,0,0,0,-1,1357,1079,0,0
140,-55,0,0,0,0,0,0,0,0,0,-1,1364,1079,0,0
147,-55,0,0,0,0,0,0,0,0,0,-1,1371,1079,0,0
154,-55,0,0,0,0,0,0,0,0,0,-1,1378,1079,0,0
161,-55,0,0,0,0,0,0,0,0,0,-1,1385,1079,0,0
168,-55,0,0,0,0,0,0,0,0,0,-1,1392,1079,0,0
175,-55,0,0,0,0,0,0,0,0,0,-1,1399,1079,0,0
182,-55,0,0,0,0,0,0,0,0,0,-1,1406,1079,0,0
189,-55,0,0,0,0,0,0,0,0,0,-1,1413,1079,0,0
196,-55,0,0,0,0,0,0,0,0,0,-1,1420,1079,0,0
203,-55,0,0,0,0,0,0,0,0,0,-1,1427,1079,0,0
210,-55,0,0,0,0,0,0,0,0,0,-1,1434,1079,0,0
217,-55,0,0,0,0,0,0,0,0,0,-1,1441,1079,0,0
224,-55,0,0,0,0,0,0,0,0,0,-1,1448,1079,0,0
231,-55,0,0,0,0,0,0,0,0,0,-1,1455,1079,0,0
238,-55,0,0,0,0,0,0,0,0,0,-1,1462,1079,0,0
245,-55,0,0,0,0,0,0,0,0,0,-1,1469,1079,0,0
252,-55,0,0,0,0,0,0,0,0,0,-1,1476,1079,0,0
259,-55,0,0,0,0,0,0,0,0,0,-1,1483,1079,0,0
266,-55,0,0,0,0,0,0,0,0,0,-1,1490,1079,0,0
273,-55,0,0,0,0,0,0,0,0,0,-1,1497,1079,0,0
280,-55,0,0,0,0,0,0,0,0,0,-1,1504,1079,0,0
287,-55,0,0,0,0,0,0,0,0,0,-1,1511,1079,0,0
294,-55,0,0,0,0,0,0,0,0,0,-1,1518,1079,0,0
301,-55,0,0,0,0,0,0,0,0,0,-1,1525,1079,0,0
308,-55,0,0,0,0,0,0,0,0,0,-1,1532,1079,0,0
315,-55,0,0,0,0,0,0,0,0,0,-1,1539,1079,0,0
322,-55,0,0,0,0,0,0,0,0,0,-1,1546,1079,0,0
329,-55,0,0,0,0,0,0,0,0,0,-1,1553,1079,0,0
336,-55,0,0,0,0,0,0,0,0,0,-1,1560,1079,0,0
343,-55,0,0,0,0,0,0,0,0,0,-1,1567,1079,0,0
350,-55,0,0,0,0,0,0,0,0,0,-1,1574,1079,0,0
357,-55,0,0,0,0,0,0,0,0,0,-1,1581,1079,0,0
364,-55,0,0,0,0,0,0,0,0,0,-1,1588,1079,0,0
371,-55,0,0,0,0,0,0,0,0,0,-1,1595,1079,0,0
378,-55,0,0,0,0,0,0,0,0,0,-1,1602,1079,0,0
385,-55,0,0,0,0,0,0,0,0,0,-1,1609,1079,0,0
392,-55,0,0,0,0,0,0,0,0,0,-1,1616,1079,0,0
399,-55,0,0,0,0,0,0,0,0,0,-1,1623,1079,0,0
406,-55,0,0,0,0,0,0,0,0,0,-1,1630,1079,0,0
413,-55,0,0,0,0,0,0,0,0,0,-1,1637,1079,0,0
420,-55,0,0,0,0,0,0,0,0,0,-1,1644,1079,0,0
427,-55,0,0,0,0,0,0,0,0,0,-1,1651,1079,0,0
434,-55,0,0,0,0,0,0,0,0,0,-1,1658,1079,0,0
441,-55,0,0,0,0,0,0,0,0,0,-1,1665,1079,0,0
448,-55,0,0,0,0,0,0,0,0,0,-1,1672,1079,0,0
455,-55,0,0,0,0,0,0,0,0,0,-1,1679,1079,0,0
462,-55,0,0,0,0,0,0,0,0,0,-1,1686,1079,0,0
469,-55,0,0,0,0,0,0,0,0,0,-1,1693,1079,0,0
476,-55,0,0,0,0,0,0,0,0,0,-1,1700,1079,0,0
483,-55,0,0,0,0,0,0,0,0,0,-1,1707,1079,0,0
490,-55,0,0,0,0,0,0,0,0,0,-1,1714,1079,0,0
497,-55,0,0,0,0,0,0,0,0,0,-1,1721,1079,0,0
504,-55,0,0,0,0,0,0,0,0,0,-1,1728,1079,0,0
511,-55,0,0,0,0,0,0,0,0,0,-1,1735,1079,0,0
518,-55,0,0,0,0,0,0,0,0,0,-1,1742,1079,0,0
525,-55,0,0,0,0,0,0,0,0,0,-1,1749,1079,0,0
532,-55,0,0,0,0,0,0,0,0,0,-1,1756,1079,0,0
539,-55,0,0,0,0,0,0,0,0,0,-1,1763,1079,0,0
546,-55,0,0,0,0,0,0,0,0,0,-1,1770,1079,0,0
553,-55,0,0,0,0,0,0,0,0,0,-1,1777,1079,0,0
560,-55,0,0,0,0,0,0,0,0,0,-1,1784,1079,0,0
567,-55,0,0,0,0,0,0,0,0,0,-1,1791,1079,0,0
574,-55,0,0,0,0,0,0,0,0,0,-1,1798,1079,0,0
581,-55,0,0,0,0,0,0,0,0,0,-1,1805,1079,0,0
588,-55,0,0,0,0,0,0,0,0,0,-1,1812,1079,0,0
595,-55,0,0,0,0,0,0,0,0,0,-1,1819,1079,0,0
602,-55,0,0,0,0,0,0,0,0,0,-1,1826,1079,0,0
609,-55,0,0,0,0,0,0,0,0,0,-1,1833,1079,0,0
616,-55,0,0,0,0,0,0,0,0,0,-1,1840,1079,0,0
623,-55,0,0,0,0,0,0,0,0,0,-1,1847,1079,0,0
630,-55,0,0,0,0,0,0,0,0,0,-1,1854,1079,0,0
637,-55,0,0,0,0,0,0,0,0,0,-1,1861,1079,0,0
644,-55,0,0,0,0,0,0,0,0,0,-1,1868,1079,0,0
651,-55,75.2262,2.13782,-0.00252253,0.00104708,0.000737196,0.00119333,-0.00266879,1.37495,0.00228339,0.0364777,1875,1079,75.2262,-2.13783
658,-55,75.2841,2.17419,-0.00156938,0.000458209,0.000401759,0.000534914,-0.00164608,1.38214,0.00131254,0.0345133,1882,1079,75.284,-2.17417
665,-55,75.0814,2.28699,-0.000760146,1.98018e-05,0.000162896,5.24563e-05,-0.0007928,1.37296,0.000546858,0.0383433,1889,1079,75.0814,-2.28701
672,-55,75.1002,2.17566,-7.975e-05,-0.000252349,-3.40992e-05,-7.32574e-05,-0.000258841,-0.188149,0.000154061,0.0391324,1896,1079,75.1002,-2.17568
679,-55,75.1575,2.09802,0.00052469,-0.00046084,-0.000197511,0.0005628,-0.000498949,-0.190608,0.000613371,0.0381342,1903,1079,75.1574,-2.09808
686,-55,75.1353,2.08838,0.000458295,-0.000929756,-0.000185716,0.000482713,-0.000954175,-0.130733,0.000844342,0.0389049,1910,1079,75.1353,-2.08832
693,-55,75.0968,2.11975,0.000229814,-0.0013395,7.83796e-06,0.000229853,-0.00133954,0.00499433,0.000978686,0.0410997,1917,1079,75.0967,-2.11975
700,-55,75.1825,2.28857,8.69295e-06,-0.00148038,0.000353396,8.83068e-05,-0.00155999,0.221583,0.00107064,0.0357894,1924,1079,75.1825,-2.28854
707,-55,75.2928,2.14099,-0.000483608,-0.00130821,0.000715777,-6.98769e-05,-0.00172194,0.524099,0.00112539,0.0277214,1931,1079,75.2928,-2.141
714,-55,75.252,1.87244,0,0,0,0,0,0,0,-1,1938,1079,75.252,-1.87238
721,-55,74.9351,2.28027,0,0,0,0,0,0,0,-1,1945,1079,74.9351,-2.28025
728,-55,73.5178,8.22034,0,0,0,0,0,0,0,-1,1952,1079,73.5178,-8.22028
735,-55,73.4277,7.79285,-0.00397795,0.00181247,0.00215316,0.00252536,-0.00469083,1.25107,0.00422833,0.0230792,1959,1079,73.4277,-7.79287
742,-55,73.4358,7.38831,-0.00443888,0.00292709,0.00230708,0.00359002,-0.00510181,1.29099,0.00504347,0.0222226,1966,1079,73.4358,-7.38834
749,-55,73.4478,6.97083,-0.00466209,0.00413107,0.00229264,0.00469293,-0.00522395,1.33046,0.00572825,0.0153342,1973,1079,73.4478,-6.97085
756,-55,73.3064,6.56714,-0.00420834,0.00579392,0.00203782,0.00619316,-0.00460759,1.37733,0.00625817,0.013411,1980,1079,73.3063,-6.56714
763,-55,73.2285,6.1748,-0.002339,0.00731761,0.00148614,0.00754115,-0.00256254,1.4215,0.00606484,0.015774,1987,1079,73.2285,-6.17482
770,-55,73.1394,5.75305,0.00143234,0.00877344,0.000251129,0.00878203,0.00142376,1.53664,0.00544253,0.0181826,1994,1079,73.1394,-5.75307
777,-55,72.9983,5.36865,0.00721512,0.0097035,-0.00134405,0.0102908,0.00662779,-1.15882,0.00602304,0.0149445,2001,1079,72.9984,-5.36864
784,-55,72.9011,4.86621,0.0145018,0.0097795,-0.00302999,0.015982,0.00829932,-0.454414,0.00922951,0.0302911,2008,1079,72.9011,-4.86624
791,-55,72.8477,4.39661,0.0236619,0.00870676,-0.00476105,0.025049,0.0073197,-0.283487,0.0148725,0.0457489,2015,1079,72.8477,-4.39662
798,-55,72.824,3.85254,0,0,0,0,0,0,0,-1,2022,1079,72.824,-3.85258
805,-55,71.1299,3.44373,0,0,0,0,0,0,0,-1,2029,1079,71.1298,-3.44375
812,-55,74.3225,3.17041,0,0,0,0,0,0,0,-1,2036,1079,74.3224,-3.17037
-700,-62,-58.4833,-6.41736,0,0,0,0,0,0,0,-1,524,1086,-58.4833,6.41737
-693,-62,-58.5746,-4.15515,0,0,0,0,0,0,0,-1,531,1086,-58.5746,4.15514
-686,-62,-58.5395,-2.56067,0.00362794,0.0235699,0.0654734,0.0798272,-0.0526294,0.860963,0.0770094,0.0467616,538,1086,-58.5395,2.56069
-679,-62,-58.6198,-0.918335,0.00779758,0.0231673,0.0571041,0.0731013,-0.0421365,0.852284,0.0673285,0.0453493,545,1086,-58.6198,0.918352
-672,-62,-58.4396,0.469238,0.00942682,0.0226118,0.0486052,0.0650695,-0.0330309,0.852804,0.0576364,0.0474448,552,1086,-58.4396,-0.469223
-665,-62,-57.0623,0.520386,0.00956678,0.0216482,0.0403945,0.0564512,-0.0252362,0.85962,0.0482964,0.0458734,559,1086,-57.0624,-0.520427
-658,-62,-56.6419,1.87793,0,0,0,0,0,0,0,-1,566,1086,-56.6419,-1.87797
-651,-62,-56.9852,3.09058,0,0,0,0,0,0,0,-1,573,1086,-56.9852,-3.09053
-644,-62,-57.1518,3.86121,0.00604863,0.0159307,0.0183671,0.0300098,-0.00803045,0.916795,0.0231523,0.0403269,580,1086,-57.1518,-3.86118
-637,-62,-57.2225,4.39893,0.00560697,0.0119894,0.0130514,0.0222341,-0.00463772,0.905302,0.0165862,0.0171196,587,1086,-57.2225,-4.39887
-630,-62,-57.3062,4.86707,0.0043201,0.00966443,0.00722891,0.0146993,-0.000714718,0.962434,0.0100462,0.0157001,594,1086,-57.3062,-4.86704
-623,-62,-57.3726,5.40125,0.00259786,0.00681268,0.00247977,0.00795956,0.00145098,1.1376,0.00489493,0.0179824,601,1086,-57.3726,-5.40129
-616,-62,-57.3759,5.91138,0.00147739,0.0037917,3.89859e-05,0.00379236,0.00147673,1.55396,0.0022073,0.0199667,608,1086,-57.3759,-5.91136
-609,-62,-57.3257,6.32666,0.00130929,0.00128418,-0.00115254,0.00244934,0.000144133,-0.779951,0.00158703,0.0209465,615,1086,-57.3258,-6.32666
-602,-62,-57.1967,6.7157,0.00216362,-0.000544776,-0.00207219,0.00328487,-0.00166602,-0.495978,0.00290888,0.0174606,622,1086,-57.1967,-6.7157
-595,-62,-57.1067,7.19458,0.00236613,-0.00184307,-0.00254825,0.00356651,-0.00304345,-0.44023,0.00382025,0.0394496,629,1086,-57.1067,-7.1946
-588,-62,-57.0442,7.69055,0,0,0,0,0,0,0,-1,636,1086,-57.0442,-7.69059
-581,-62,-58.9436,0.171387,0,0,0,0,0,0,0,-1,643,1086,-58.9436,-0.171328
-574,-62,-59.0489,0.208496,0.00331735,-0.0027689,-0.00256796,0.00425606,-0.0037076,-0.350458,0.00460146,0.0356653,650,1086,-59.0489,-0.208546
-567,-62,-59.1623,0.19397,0.0032704,-0.00262093,-0.00250974,0.00419459,-0.00354512,-0.35283,0.00447376,0.0390755,657,1086,-59.1623,-0.193971
-560,-62,-59.0502,0.165527,0.00280836,-0.00215902,-0.00242084,0.00379298,-0.00314364,-0.386293,0.00401071,0.0394733,664,1086,-59.0502,-0.165522
-553,-62,-58.8185,0.151489,0.00197935,-0.00147618,-0.002253,0.00309081,-0.00258764,-0.458292,0.00328274,0.0360219,671,1086,-58.8185,-0.151496
-546,-62,-58.9147,0.131836,0.000932097,-0.000753017,-0.00202533,0.00228313,-0.00210405,-0.588282,0.00253364,0.0327193,678,1086,-58.9147,-0.131888
-539,-62,-59.1626,0.153687,-0.000183661,-0.000561257,-0.00178641,0.0014239,-0.00216882,-0.732751,0.00208906,0.0378145,685,1086,-59.1626,-0.153715
-532,-62,-59.1537,0.134399,-0.00134927,-0.000111267,-0.00142402,0.000822476,-0.00228301,-0.99042,0.00185787,0.0394127,692,1086,-59.1537,-0.134383
-525,-62,0,0,0,0,0,0,0,0,0,-1,699,1086,0,0
-518,-62,0,0,0,0,0,0,0,0,0,-1,706,1086,0,0
-511,-62,0,0,0,0,0,0,0,0,0,-1,713,1086,0,0
-504,-62,0,0,0,0,0,0,0,0,0,-1,720,1086,0,0
-497,-62,0,0,0,0,0,0,0,0,0,-1,727,1086,0,0
-490,-62,0,0,0,0,0,0,0,0,0,-1,734,1086,0,0
-483,-62,0,0,0,0,0,0,0,0,0,-1,741,1086,0,0
-476,-62,0,0,0,0,0,0,0,0,0,-1,748,1086,0,0
-469,-62,0,0,0,0,0,0,0,0,0,-1,755,1086,0,0
-462,-62,0,0,0,0,0,0,0,0,0,-1,762,1086,0,0
-455,-62,0,0,0,0,0,0,0,0,0,-1,769,1086,0,0
-448,-62,0,0,0,0,0,0,0,0,0,-1,776,1086,0,0
-441,-62,0,0,0,0,0,0,0,0,0,-1,783,1086,0,0
-434,-62,0,0,0,0,0,0,0,0,0,-1,790,1086,0,0
-427,-62,0,0,0,0,0,0,0,0,0,-1,797,1086,0,0
-420,-62,0,0,0,0,0,0,0,0,0,-1,804,1086,0,0
-413,-62,0,0,0,0,0,0,0,0,0,-1,811,1086,0,0
-406,-62,0,0,0,0,0,0,0,0,0,-1,818,1086,0,0
-399,-62,0,0,0,0,0,0,0,0,0,-1,825,1086,0,0
-392,-62,0,0,0,0,0,0,0,0,0,-1,832,1086,0,0
-385,-62,0,0,0,0,0,0,0,0,0,-1,839,1086,0,0
-378,-62,0,0,0,0,0,0,0,0,0,-1,846,1086,0,0
-371,-62,0,0,0,0,0,0,0,0,0,-1,853,1086,0,0
-364,-62,0,0,0,0,0,0,0,0,0,-1,860,1086,0,0
-357,-62,0,0,0,0,0,0,0,0,0,-1,867,1086,0,0
-350,-62,0,0,0,0,0,0,0,0,0,-1,874,1086,0,0
-343,-62,0,0,0,0,0,0,0,0,0,-1,881,1086,0,0
-336,-62,0,0,0,0,0,0,0,0,0,-1,888,1086,0,0
-329,-62,0,0,0,0,0,0,0,0,0,-1,895,1086,0,0
-322,-62,0,0,0,0,0,0,0,0,0,-1,902,1086,0,0
-315,-62,0,0,0,0,0,0,0,0,0,-1,909,1086,0,0
-308,-62,0,0,0,0,0,0,0,0,0,-1,916,1086,0,0
-301,-62,0,0,0,0,0,0,0,0,0,-1,923,1086,0,0
-294,-62,0,0,0,0,0,0,0,0,0,-1,930,1086,0,0
-287,-62,0,0,0,0,0,0,0,0,0,-1,937,1086,0,0
-280,-62,0,0,0,0,0,0,0,0,0,-1,944,1086,0,0
-273,-62,0,0,0,0,0,0,0,0,0,-1,951,1086,0,0
-266,-62,0,0,0,0,0,0,0,0,0,-1,958,1086,0,0
-259,-62,0,0,0,0,0,0,0,0,0,-1,965,1086,0,0
-252,-62,0,0,0,0,0,0,0,0,0,-1,972,1086,0,0
-245,-62,0,0,0,0,0,0,0,0,0,-1,979,1086,0,0
-238,-62,0,0,0,0,0,0,0,0,0,-1,986,1086,0,0
-231,-62,0,0,0,0,0,0,0,0,0,-1,993,1086,0,0
-224,-62,0,0,0,0,0,0,0,0,0,-1,1000,1086,0,0
-217,-62,0,0,0,0,0,0,0,0,0,-1,1007,1086,0,0
-210,-62,0,0,0,0,0,0,0,0,0,-1,1014,1086,0,0
-203,-62,0,0,0,0,0,0,0,0,0,-1,1021,1086,0,0
-196,-62,0,0,0,0,0,0,0,0,0,-1,1028,1086,0,0
-189,-62,0,0,0,0,0,0,0,0,0,-1,1035,1086,0,0
-182,-62,0,0,0,0,0,0,0,0,0,-1,1042,1086,0,0
-175,-62,0,0,0,0,0,0,0,0,0,-1,1049,1086,0,0
-168,-62,0,0,0,0,0,0,0,0,0,-1,1056,1086,0,0
-161,-62,0,0,0,0,0,0,0,0,0,-1,1063,1086,0,0
-154,-62,0,0,0,0,0,0,0,0,0,-1,1070,1086,0,0
-147,-62,0,0,0,0,0,0,0,0,0,-1,1077,1086,0,0
-140,-62,0,0,0,0,0,0,0,0,0,-1,1084,1086,0,0
-133,-62,0,0,0,0,0,0,0,0,0,-1,1091,1086,0,0
-126,-62,0,0,0,0,0,0,0,0,0,-1,1098,1086,0,0
-119,-62,0,0,0,0,0,0,0,0,0,-1,1105,1086,0,0
-112,-62,0,0,0,0,0,0,0,0,0,-1,1112,1086,0,0
-105,-62,0,0,0,0,0,0,0,0,0,-1,1119,1086,0,0
-98,-62,0,0,0,0,0,0,0,0,0,-1,1126,1086,0,0
-91,-62,0,0,0,0,0,0,0,0,0,-1,1133,1086,0,0
-84,-62,0,0,0,0,0,0,0,0,0,-1,1140,1086,0,0
-77,-62,0,0,0,0,0,0,0,0,0,-1,1147,1086,0,0
-70,-62,0,0,0,0,0,0,0,0,0,-1,1154,1086,0,0
-63,-62,0,0,0,0,0,0,0,0,0,-1,1161,1086,0,0
-56,-62,0,0,0,0,0,0,0,0,0,-1,1168,1086,0,0
-49,-62,0,0,0,0,0,0,0,0,0,-1,1175,1086,0,0
-42,-62,0,0,0,0,0,0,0,0,0,-1,1182,1086,0,0
-35,-62,0,0,0,0,0,0,0,0,0,-1,1189,1086,0,0
-28,-62,0,0,0,0,0,0,0,0,0,-1,1196,1086,0,0
-21,-62,0,0,0,0,0,0,0,0,0,-1,1203,1086,0,0
-14,-62,0,0,0,0,0,0,0,0,0,-1,1210,1086,0,0
-7,-62,0,0,0,0,0,0,0,0,0,-1,1217,1086,0,0
0,-62,0,0,0,0,0,0,0,0,0,-1,1224,1086,0,0
7,-62,0,0,0,0,0,0,0,0,0,-1,1231,1086,0,0
14,-62,0,0,0,0,0,0,0,0,0,-1,1238,1086,0,0
21,-62,0,0,0,0,0,0,0,0,0,-1,1245,1086,0,0
28,-62,0,0,0,0,0,0,0,0,0,-1,1252,1086,0,0
35,-62,0,0,0,0,0,0,0,0,0,-1,1259,1086,0,0
42,-62,0,0,0,0,0,0,0,0,0,-1,1266,1086,0,0
49,-62,0,0,0,0,0,0,0,0,0,-1,1273,1086,0,0
56,-62,0,0,0,0,0,0,0,0,0,-1,1280,1086,0,0
63,-62,0,0,0,0,0,0,0,0,0,-1,1287,1086,0,0
70,-62,0,0,0,0,0,0,0,0,0,-1,1294,1086,0,0
77,-62,0,0,0,0,0,0,0,0,0,-1,1301,1086,0,0
84,-62,0,0,0,0,0,0,0,0,0,-1,1308,1086,0,0
91,-62,0,0,0,0,0,0,0,0,0,-1,1315,1086,0,0
98,-62,0,0,0,0,0,0,0,0,0,-1,1322,1086,0,0
105,-62,0,0,0,0,0,0,0,0,0,-1,1329,1086,0,0
112,-62,0,0,0,0,0,0,0,0,0,-1,1336,1086,0,0
119,-62,0,0,0,0,0,0,0,0,0,-1,1343,1086,0,0
126,-62,0,0,0,0,0,0,0,0,0,-1,1350,1086,0,0
133,-62,0,0,0,0,0,0,0,0,0,-1,1357,1086,0,0
140,-62,0,0,0,0,0,0,0,0,0,-1,1364,1086,0,0
147,-62,0,0,0,0,0,0,0,0,0,-1,1371,1086,0,0
154,-62,0,0,0,0,0,0,0,0,0,-1,1378,1086,0,0
161,-62,0,0,0,0,0,0,0,0,0,-1,1385,1086,0,0
168,-62,0,0,0,0,0,0,0,0,0,-1,1392,1086,0,0
175,-62,0,0,0,0,0,0,0,0,0,-1,1399,1086,0,0
182,-62,0,0,0,0,0,0,0,0,0,-1,1406,1086,0,0
189,-62,0,0,0,0,0,0,0,0,0,-1,1413,1086,0,0
196,-62,0,0,0,0,0,0,0,0,0,-1,1420,1086,0,0
203,-62,0,0,0,0,0,0,0,0,0,-1,1427,1086,0,0
210,-62,0,0,0,0,0,0,0,0,0,-1,1434,1086,0,0
217,-62,0,0,0,0,0,0,0,0,0,-1,1441,1086,0,0
224,-62,0,0,0,0,0,0,0,0,0,-1,1448,1086,0,0
231,-62,0,0,0,0,0,0,0,0,0,-1,1455,1086,0,0
238,-62,0,0,0,0,0,0,0,0,0,-1,1462,1086,0,0
245,-62,0,0,0,0,0,0,0,0,0,-1,1469,1086,0,0
252,-62,0,0,0,0,0,0,0,0,0,-1,1476,1086,0,0
259,-62,0,0,0,0,0,0,0,0,0,-1,1483,1086,0,0
266,-62,0,0,0,0,0,0,0,0,0,-1,1490,1086,0,0
273,-62,0,0,0,0,0,0,0,0,0,-1,1497,1086,0,0
280,-62,0,0,0,0,0,0,0,0,0,-1,1504,1086,0,0
287,-62,0,0,0,0,0,0,0,0,0,-1,1511,1086,0,0
294,-62,0,0,0,0,0,0,0,0,0,-1,1518,1086,0,0
301,-62,0,0,0,0,0,0,0,0,0,-1,1525,1086,0,0
308,-62,0,0,0,0,0,0,0,0,0,-1,1532,1086,0,0
315,-62,0,0,0,0,0,0,0,0,0,-1,1539,1086,0,0
322,-62,0,0,0,0,0,0,0,0,0,-1,1546,1086,0,0
329,-62,0,0,0,0,0,0,0,0,0,-1,1553,1086,0,0
336,-62,0,0,0,0,0,0,0,0,0,-1,1560,1086,0,0
343,-62,0,0,0,0,0,0,0,0,0,-1,1567,1086,0,0
350,-62,0,0,0,0,0,0,0,0,0,-1,1574,1086,0,0
357,-62,0,0,0,0,0,0,0,0,0,-1,1581,1086,0,0
364,-62,0,0,0,0,0,0,0,0,0,-1,1588,1086,0,0
371,-62,0,0,0,0,0,0,0,0,0,-1,1595,1086,0,0
378,-62,0,0,0,0,0,0,0,0,0,-1,1602,1086,0,0
385,-62,0,0,0,0,0,0,0,0,0,-1,1609,1086,0,0
392,-62,0,0,0,0,0,0,0,0,0,-1,1616,1086,0,0
399,-62,0,0,0,0,0,0,0,0,0,-1,1623,1086,0,0
406,-62,0,0,0,0,0,0,0,0,0,-1,1630,1086,0,0
413,-62,0,0,0,0,0,0,0,0,0,-1,1637,1086,0,0
420,-62,0,0,0,0,0,0,0,0,0,-1,1644,1086,0,0
427,-62,0,0,0,0,0,0,0,0,0,-1,1651,1086,0,0
434,-62,0,0,0,0,0,0,0,0,0,-1,1658,1086,0,0
441,-62,0,0,0,0,0,0,0,0,0,-1,1665,1086,0,0
448,-62,0,0,0,0,0,0,0,0,0,-1,1672,1086,0,0
455,-62,0,0,0,0,0,0,0,0,0,-1,1679,1086,0,0
462,-62,0,0,0,0,0,0,0,0,0,-1,1686,1086,0,0
469,-62,0,0,0,0,0,0,0,0,0,-1,1693,1086,0,0
476,-62,0,0,0,0,0,0,0,0,0,-1,1700,1086,0,0
483,-62,0,0,0,0,0,0,0,0,0,-1,1707,1086,0,0
490,-62,0,0,0,0,0,0,0,0,0,-1,1714,1086,0,0
497,-62,0,0,0,0,0,0,0,0,0,-1,1721,1086,0,0
504,-62,0,0,0,0,0,0,0,0,0,-1,1728,1086,0,0
511,-62,0,0,0,0,0,0,0,0,0,-1,1735,1086,0,0
518,-62,0,0,0,0,0,0,0,0,0,-1,1742,1086,0,0
525,-62,0,0,0,0,0,0,0,0,0,-1,1749,1086,0,0
532,-62,0,0,0,0,0,0,0,0,0,-1,1756,1086,0,0
539,-62,0,0,0,0,0,0,0,0,0,-1,1763,1086,0,0
546,-62,0,0,0,0,0,0,0,0,0,-1,1770,1086,0,0
553,-62,0,0,0,0,0,0,0,0,0,-1,1777,1086,0,0
560,-62,0,0,0,0,0,0,0,0,0,-1,1784,1086,0,0
567,-62,0,0,0,0,0,0,0,0,0,-1,1791,1086,0,0
574,-62,0,0,0,0,0,0,0,0,0,-1,1798,1086,0,0
581,-62,0,0,0,0,0,0,0,0,0,-1,1805,1086,0,0
588,-62,0,0,0,0,0,0,0,0,0,-1,1812,1086,0,0
595,-62,0,0,0,0,0,0,0,0,0,-1,1819,1086,0,0
602,-62,0,0,0,0,0,0,0,0,0,-1,1826,1086,0,0
609,-62,0,0,0,0,0,0,0,0,0,-1,1833,1086,0,0
616,-62,0,0,0,0,0,0,0,0,0,-1,1840,1086,0,0
623,-62,0,0,0,0,0,0,0,0,0,-1,1847,1086,0,0
630,-62,0,0,0,0,0,0,0,0,0,-1,1854,1086,0,0
637,-62,0,0,0,0,0,0,0,0,0,-1,1861,1086,0,0
644,-62,0,0,0,0,0,0,0,0,0,-1,1868,1086,0,0
651,-62,75.1034,2.32849,-0.000744409,0.00160948,-1.80404e-05,0.00160961,-0.000744547,-1.56313,0.00138943,0.0403316,1875,1086,75.1033,-2.32851
658,-62,75.1868,2.30347,-0.00031711,0.00100712,-0.00018214,0.00103172,-0.000341705,-1.43657,0.000825629,0.0402595,1882,1086,75.1868,-2.3035
665,-62,75.2734,2.27039,0.000113902,0.000552475,-0.000309451,0.000712459,-4.60829e-05,-1.09365,0.000491055,0.0387455,1889,1086,75.2735,-2.27044
672,-62,75.1926,2.21191,0.000501805,0.000235877,-0.00045112,0.000839148,-0.000101466,-0.642085,0.000596139,0.0386909,1896,1086,75.1927,-2.21196
679,-62,75.1414,2.13599,0.00087756,-3.28335e-05,-0.000586791,0.00116501,-0.000320286,-0.455512,0.000902583,0.0398304,1903,1086,75.1414,-2.13594
686,-62,75.1625,2.2749,0.000715886,-0.000572744,-0.000551804,0.000919881,-0.000776739,-0.354105,0.000980705,0.0400004,1910,1086,75.1625,-2.27485
693,-62,75.1168,2.40173,0.000487755,-0.00104644,-0.000344466,0.000561548,-0.00112023,-0.211033,0.000988671,0.0386318,1917,1086,75.1168,-2.40169
700,-62,75.2338,2.24353,0.000288132,-0.00125053,8.1012e-06,0.000288174,-0.00125057,0.00526491,0.000944541,0.0315683,1924,1086,75.2338,-2.24355
707,-62,75.2484,2.08386,-0.000147448,-0.00115777,0.000413514,2.16765e-07,-0.00130544,0.342983,0.000870363,0.0223713,1931,1086,75.2484,-2.08381
714,-62,75.2111,1.91064,-0.000903596,-0.000821834,0.000873986,1.22262e-05,-0.00173766,0.808769,0.00116253,0.0393727,1938,1086,75.2111,-1.91058
721,-62,75.1465,1.69727,0,0,0,0,0,0,0,-1,1945,1086,75.1465,-1.6973
728,-62,73.0883,8.39221,0,0,0,0,0,0,0,-1,1952,1086,73.0883,-8.39223
735,-62,72.9875,7.82336,-0.00330916,0.00144708,0.00196546,0.00215417,-0.00401624,1.22546,0.00361616,0.0318656,1959,1086,72.9875,-7.8234
742,-62,72.8993,7.46484,-0.00375396,0.00253211,0.00221739,0.00323556,-0.00445742,1.2636,0.00446018,0.0337175,1966,1086,72.8992,-7.4648
749,-62,72.8962,6.97693,-0.00411949,0.00385448,0.00239139,0.00451667,-0.00478168,1.30066,0.00536913,0.0255928,1973,1086,72.8962,-6.97696
756,-62,72.7971,6.59338,-0.00402017,0.0057217,0.00238856,0.00627582,-0.00457429,1.34284,0.00628994,0.0162227,1980,1086,72.797,-6.59342
763,-62,72.7378,6.12085,-0.00281807,0.00776063,0.00220568,0.00820209,-0.00325953,1.37326,0.00681938,0.019146,1987,1086,72.7377,-6.12083
770,-62,72.6528,5.6615,-0.00012053,0.010044,0.00153354,0.0102703,-0.000346859,1.42427,0.0069654,0.017645,1994,1086,72.6529,-5.66154
777,-62,72.4766,5.19104,0.00401947,0.0121433,0.000693054,0.012202,0.00396077,1.4863,0.00718788,0.0177402,2001,1086,72.4765,-5.191
784,-62,72.48,4.61475,0.00932183,0.0136159,-8.59564e-05,0.0136176,0.00932011,-1.55079,0.00803841,0.0282882,2008,1086,72.4799,-4.6147
791,-62,72.5603,3.9303,0.0160104,0.0142333,-0.000709892,0.0162591,0.0139846,-0.337056,0.0101664,0.0443292,2015,1086,72.5602,-3.93026
798,-62,73.2419,3.50854,0,0,0,0,0,0,0,-1,2022,1086,73.2419,-3.50855
805,-62,72.9272,3.25745,0,0,0,0,0,0,0,-1,2029,1086,72.9272,-3.25746
812,-62,74.2649,3.59167,0,0,0,0,0,0,0,-1,2036,1086,74.2649,-3.59163
-700,-69,-59.7918,-5.1864,0,0,0,0,0,0,0,-1,524,1093,-59.7918,5.18634
-693,-69,-59.0265,-3.51233,-0.0153485,0.0345563,0.0606643,0.0751995,-0.0559918,0.980511,0.0760134,0.0476649,531,1093,-59.0265,3.51228
-686,-69,-58.4359,-2.17468,-0.00471206,0.0320714,0.0560564,0.072676,-0.0453167,0.943912,0.0687308,0.0471958,538,1093,-58.4359,2.17464
-679,-69,-58.6721,-0.594238,0.000701875,0.030026,0.0495909,0.0670769,-0.036349,0.929134,0.0605851,0.0459684,545,1093,-58.6721,0.594193
-672,-69,-58.8005,0.983398,0.00336043,0.0279503,0.0426154,0.0600089,-0.0286982,0.925839,0.0522677,0.0478971,552,1093,-58.8005,-0.983359
-665,-69,-56.2058,0.667358,0.00439335,0.0256334,0.03565,0.0522115,-0.0221848,0.930161,0.0441035,0.0458312,559,1093,-56.2058,-0.667414
-658,-69,-55.6333,2.0238,0,0,0,0,0,0,0,-1,566,1093,-55.6333,-2.02378
-651,-69,-55.7174,3.29224,0,0,0,0,0,0,0,-1,573,1093,-55.7174,-3.29227
-644,-69,-56.509,3.84534,0.00336345,0.0168674,0.0163129,0.0277704,-0.00753956,0.981616,0.0214727,0.0476617,580,1093,-56.5089,-3.8453
-637,-69,-56.6625,4.37231,0.00372124,0.0122498,0.0116854,0.0204247,-0.00445365,0.960352,0.0153184,0.0207909,587,1093,-56.6625,-4.37234
-630,-69,-56.7073,4.84021,0.00305066,0.00935662,0.00644068,0.0133747,-0.000967391,1.01302,0.00925578,0.0158034,594,1093,-56.7073,-4.84026
-623,-69,-56.7102,5.33887,0.00186113,0.00617834,0.00193839,0.00692093,0.00111854,1.20495,0.00428999,0.0200611,601,1093,-56.7102,-5.3389
-616,-69,-56.7457,5.83606,0.00122079,0.0030142,-0.000290924,0.00306021,0.00117478,-1.41393,0.00178262,0.0257818,608,1093,-56.7456,-5.836
-609,-69,-56.7522,6.28894,0.00139099,0.00069318,-0.00123089,0.00232147,-0.000237299,-0.647292,0.0016325,0.0226526,615,1093,-56.7522,-6.289
-602,-69,-56.6773,6.77295,0.00236075,-0.000809555,-0.0018815,0.00323583,-0.00168463,-0.435338,0.0028875,0.0215625,622,1093,-56.6773,-6.77291
-595,-69,-56.5881,7.13428,0.00262163,-0.00193023,-0.00224881,0.00354523,-0.00285383,-0.389702,0.00370168,0.0457488,629,1093,-56.5882,-7.13427
-588,-69,-56.6666,7.43884,0,0,0,0,0,0,0,-1,636,1093,-56.6666,-7.43881
-581,-69,-58.9317,0.177734,0,0,0,0,0,0,0,-1,643,1093,-58.9317,-0.177782
-574,-69,-59.0239,0.217041,0.00359957,-0.00283246,-0.00237089,0.00437903,-0.00361192,-0.317634,0.00462066,0.0311515,650,1093,-59.0239,-0.216985
-567,-69,-59.137,0.205444,0.00358288,-0.00274129,-0.0023764,0.00437631,-0.00353472,-0.322239,0.00457604,0.0386195,657,1093,-59.1369,-0.205461
-560,-69,-59.0838,0.119751,0.0031447,-0.00232903,-0.0023905,0.00404169,-0.00322603,-0.358974,0.00420482,0.0397569,664,1093,-59.0838,-0.119695
-553,-69,-58.9969,0.104614,0.00227965,-0.00166651,-0.00235045,0.00337539,-0.00276224,-0.43623,0.00354945,0.0368397,671,1093,-58.9969,-0.104619
-546,-69,-58.9518,0.126343,0.0012059,-0.000889594,-0.00227037,0.00265862,-0.00234231,-0.569215,0.00288922,0.0356225,678,1093,-58.9518,-0.126378
-539,-69,-59.02,0.120728,0.000224642,-0.000551128,-0.00218686,0.00205775,-0.00238424,-0.697626,0.00256689,0.0398556,685,1093,-59.02,-0.12078
-532,-69,-58.9091,0.170898,-0.000862953,3.43244e-05,-0.00197812,0.00161404,-0.00244267,-0.896912,0.00235838,0.0441603,692,1093,-58.9091,-0.17091
-525,-69,0,0,0,0,0,0,0,0,0,-1,699,1093,0,0
-518,-69,0,0,0,0,0,0,0,0,0,-1,706,1093,0,0
-511,-69,0,0,0,0,0,0,0,0,0,-1,713,1093,0,0
-504,-69,0,0,0,0,0,0,0,0,0,-1,720,1093,0,0
-497,-69,0,0,0,0,0,0,0,0,0,-1,727,1093,0,0
-490,-69,0,0,0,0,0,0,0,0,0,-1,734,1093,0,0
-483,-69,0,0,0,0,0,0,0,0,0,-1,741,1093,0,0
-476,-69,0,0,0,0,0,0,0,0,0,-1,748,1093,0,0
-469,-69,0,0,0,0,0,0,0,0,0,-1,755,1093,0,0
-462,-69,0,0,0,0,0,0,0,0,0,-1,762,1093,0,0
-455,-69,0,0,0,0,0,0,0,0,0,-1,769,1093,0,0
-448,-69,0,0,0,0,0,0,0,0,0,-1,776,1093,0,0
-441,-69,0,0,0,0,0,0,0,0,0,-1,783,1093,0,0
-434,-69,0,0,0,0,0,0,0,0,0,-1,790,1093,0,0
-427,-69,0,0,0,0,0,0,0,0,0,-1,797,1093,0,0
-420,-69,0,0,0,0,0,0,0,0,0,-1,804,1093,0,0
-413,-69,0,0,0,0,0,0,0,0,0,-1,811,1093,0,0
-406,-69,0,0,0,0,0,0,0,0,0,-1,818,1093,0,0
-399,-69,0,0,0,0,0,0,0,0,0,-1,825,1093,0,0
-392,-69,0,0,0,0,0,0,0,0,0,-1,832,1093,0,0
-385,-69,0,0,0,0,0,0,0,0,0,-1,839,1093,0,0
-378,-69,0,0,0,0,0,0,0,0,0,-1,846,1093,0,0
-371,-69,0,0,0,0,0,0,0,0,0,-1,853,1093,0,0
-364,-69,0,0,0,0,0,0,0,0,0,-1,860,1093,0,0
-357,-69,0,0,0,0,0,0,0,0,0,-1,867,1093,0,0
-350,-69,0,0,0,0,0,0,0,0,0,-1,874,1093,0,0
-343,-69,0,0,0,0,0,0,0,0,0,-1,881,1093,0,0
-336,-69,0,0,0,0,0,0,0,0,0,-1,888,1093,0,0
-329,-69,0,0,0,0,0,0,0,0,0,-1,895,1093,0,0
-322,-69,0,0,0,0,0,0,0,0,0,-1,902,1093,0,0
-315,-69,0,0,0,0,0,0,0,0,0,-1,909,1093,0,0
-308,-69,0,0,0,0,0,0,0,0,0,-1,916,1093,0,0
-301,-69,0,0,0,0,0,0,0,0,0,-1,923,1093,0,0
-294,-69,0,0,0,0,0,0,0,0,0,-1,930,1093,0,0
-287,-69,0,0,0,0,0,0,0,0,0,-1,937,1093,0,0
-280,-69,0,0,0,0,0,0,0,0,0,-1,944,1093,0,0
-273,-69,0,0,0,0,0,0,0,0,0,-1,951,1093,0,0
-266,-69,0,0,0,0,0,0,0,0,0,-1,958,1093,0,0
-259,-69,0,0,0,0,0,0,0,0,0,-1,965,1093,0,0
-252,-69,0,0,0,0,0,0,0,0,0,-1,972,1093,0,0
-245,-69,0,0,0,0,0,0,0,0,0,-1,979,1093,0,0
-238,-69,0,0,0,0,0,0,0,0,0,-1,986,1093,0,0
-231,-69,0,0,0,0,0,0,0,0,0,-1,993,1093,0,0
-224,-69,0,0,0,0,0,0,0,0,0,-1,1000,1093,0,0
-217,-69,0,0,0,0,0,0,0,0,0,-1,1007,1093,0,0
-210,-69,0,0,0,0,0,0,0,0,0,-1,1014,1093,0,0
-203,-69,0,0,0,0,0,0,0,0,0,-1,1021,1093,0,0
-196,-69,0,0,0,0,0,0,0,0,0,-1,1028,1093,0,0
-189,-69,0,0,0,0,0,0,0,0,0,-1,1035,1093,0,0
-182,-69,0,0,0,0,0,0,0,0,0,-1,1042,1093,0,0
-175,-69,0,0,0,0,0,0,0,0,0,-1,1049,1093,0,0
-168,-69,0,0,0,0,0,0,0,0,0,-1,1056,1093,0,0
-161,-69,0,0,0,0,0,0,0,0,0,-1,1063,1093,0,0
-154,-69,0,0,0,0,0,0,0,0,0,-1,1070,1093,0,0
-147,-69,0,0,0,0,0,0,0,0,0,-1,1077,1093,0,0
-140,-69,0,0,0,0,0,0,0,0,0,-1,1084,1093,0,0
-133,-69,0,0,0,0,0,0,0,0,0,-1,1091,1093,0,0
-126,-69,0,0,0,0,0,0,0,0,0,-1,1098,1093,0,0
-119,-69,0,0,0,0,0,0,0,0,0,-1,1105,1093,0,0
-112,-69,0,0,0,0,0,0,0,0,0,-1,1112,1093,0,0
-105,-69,0,0,0,0,0,0,0,0,0,-1,1119,1093,0,0
-98,-69,0,0,0,0,0,0,0,0,0,-1,1126,1093,0,0
-91,-69,0,0,0,0,0,0,0,0,0,-1,1133,1093,0,0
-84,-69,0,0,0,0,0,0,0,0,0,-1,1140,1093,0,0
-77,-69,0,0,0,0,0,0,0,0,0,-1,1147,1093,0,0
-70,-69,0,0,0,0,0,0,0,0,0,-1,1154,1093,0,0
-63,-69,0,0,0,0,0,0,0,0,0,-1,1161,1093,0,0
-56,-69,0,0,0,0,0,0,0,0,0,-1,1168,1093,0,0
-49,-69,0,0,0,0,0,0,0,0,0,-1,1175,1093,0,0
-42,-69,0,0,0,0,0,0,0,0,0,-1,1182,1093,0,0
-35,-69,0,0,0,0,0,0,0,0,0,-1,1189,1093,0,0
-28,-69,0,0,0,0,0,0,0,0,0,-1,1196,1093,0,0
-21,-69,0,0,0,0,0,0,0,0,0,-1,1203,1093,0,0
-14,-69,0,0,0,0,0,0,0,0,0,-1,1210,1093,0,0
-7,-69,0,0,0,0,0,0,0,0,0,-1,1217,1093,0,0
0,-69,0,0,0,0,0,0,0,0,0,-1,1224,1093,0,0
7,-69,0,0,0,0,0,0,0,0,0,-1,1231,1093,0,0
14,-69,0,0,0,0,0,0,0,0,0,-1,1238,1093,0,0
21,-69,0,0,0,0,0,0,0,0,0,-1,1245,1093,0,0
28,-69,0,0,0,0,0,0,0,0,0,-1,1252,1093,0,0
35,-69,0,0,0,0,0,0,0,0,0,-1,1259,1093,0,0
42,-69,0,0,0,0,0,0,0,0,0,-1,1266,1093,0,0
49,-69,0,0,0,0,0,0,0,0,0,-1,1273,1093,0,0
56,-69,0,0,0,0,0,0,0,0,0,-1,1280,1093,0,0
63,-69,0,0,0,0,0,0,0,0,0,-1,1287,1093,0,0
70,-69,0,0,0,0,0,0,0,0,0,-1,1294,1093,0,0
77,-69,0,0,0,0,0,0,0,0,0,-1,1301,1093,0,0
84,-69,0,0,0,0,0,0,0,0,0,-1,1308,1093,0,0
91,-69,0,0,0,0,0,0,0,0,0,-1,1315,1093,0,0
98,-69,0,0,0,0,0,0,0,0,0,-1,1322,1093,0,0
105,-69,0,0,0,0,0,0,0,0,0,-1,1329,1093,0,0
112,-69,0,0,0,0,0,0,0,0,0,-1,1336,1093,0,0
119,-69,0,0,0,0,0,0,0,0,0,-1,1343,1093,0,0
126,-69,0,0,0,0,0,0,0,0,0,-1,1350,1093,0,0
133,-69,0,0,0,0,0,0,0,0,0,-1,1357,1093,0,0
140,-69,0,0,0,0,0,0,0,0,0,-1,1364,1093,0,0
147,-69,0,0,0,0,0,0,0,0,0,-1,1371,1093,0,0
154,-69,0,0,0,0,0,0,0,0,0,-1,1378,1093,0,0
161,-69,0,0,0,0,0,0,0,0,0,-1,1385,1093,0,0
168,-69,0,0,0,0,0,0,0,0,0,-1,1392,1093,0,0
175,-69,0,0,0,0,0,0,0,0,0,-1,1399,1093,0,0
182,-69,0,0,0,0,0,0,0,0,0,-1,1406,1093,0,0
189,-69,0,0,0,0,0,0,0,0,0,-1,1413,1093,0,0
196,-69,0,0,0,0,0,0,0,0,0,-1,1420,1093,0,0
203,-69,0,0,0,0,0,0,0,0,0,-1,1427,1093,0,0
210,-69,0,0,0,0,0,0,0,0,0,-1,1434,1093,0,0
217,-69,0,0,0,0,0,0,0,0,0,-1,1441,1093,0,0
224,-69,0,0,0,0,0,0,0,0,0,-1,1448,1093,0,0
231,-69,0,0,0,0,0,0,0,0,0,-1,1455,1093,0,0
238,-69,0,0,0,0,0,0,0,0,0,-1,1462,1093,0,0
245,-69,0,0,0,0,0,0,0,0,0,-1,1469,1093,0,0
252,-69,0,0,0,0,0,0,0,0,0,-1,1476,1093,0,0
259,-69,0,0,0,0,0,0,0,0,0,-1,1483,1093,0,0
266,-69,0,0,0,0,0,0,0,0,0,-1,1490,1093,0,0
273,-69,0,0,0,0,0,0,0,0,0,-1,1497,1093,0,0
280,-69,0,0,0,0,0,0,0,0,0,-1,1504,1093,0,0
287,-69,0,0,0,0,0,0,0,0,0,-1,1511,1093,0,0
294,-69,0,0,0,0,0,0,0,0,0,-1,1518,1093,0,0
301,-69,0,0,0,0,0,0,0,0,0,-1,1525,1093,0,0
308,-69,0,0,0,0,0,0,0,0,0,-1,1532,1093,0,0
315,-69,0,0,0,0,0,0,0,0,0,-1,1539,1093,0,0
322,-69,0,0,0,0,0,0,0,0,0,-1,1546,1093,0,0
329,-69,0,0,0,0,0,0,0,0,0,-1,1553,1093,0,0
336,-69,0,0,0,0,0,0,0,0,0,-1,1560,1093,0,0
343,-69,0,0,0,0,0,0,0,0,0,-1,1567,1093,0,0
350,-69,0,0,0,0,0,0,0,0,0,-1,1574,1093,0,0
357,-69,0,0,0,0,0,0,0,0,0,-1,1581,1093,0,0
364,-69,0,0,0,0,0,0,0,0,0,-1,1588,1093,0,0
371,-69,0,0,0,0,0,0,0,0,0,-1,1595,1093,0,0
378,-69,0,0,0,0,0,0,0,0,0,-1,1602,1093,0,0
385,-69,0,0,0,0,0,0,0,0,0,-1,1609,1093,0,0
392,-69,0,0,0,0,0,0,0,0,0,-1,1616,1093,0,0
399,-69,0,0,0,0,0,0,0,0,0,-1,1623,1093,0,0
406,-69,0,0,0,0,0,0,0,0,0,-1,1630,1093,0,0
413,-69,0,0,0,0,0,0,0,0,0,-1,1637,1093,0,0
420,-69,0,0,0,0,0,0,0,0,0,-1,1644,1093,0,0
427,-69,0,0,0,0,0,0,0,0,0,-1,1651,1093,0,0
434,-69,0,0,0,0,0,0,0,0,0,-1,1658,1093,0,0
441,-69,0,0,0,0,0,0,0,0,0,-1,1665,1093,0,0
448,-69,0,0,0,0,0,0,0,0,0,-1,1672,1093,0,0
455,-69,0,0,0,0,0,0,0,0,0,-1,1679,1093,0,0
462,-69,0,0,0,0,0,0,0,0,0,-1,1686,1093,0,0
469,-69,0,0,0,0,0,0,0,0,0,-1,1693,1093,0,0
476,-69,0,0,0,0,0,0,0,0,0,-1,1700,1093,0,0
483,-69,0,0,0,0,0,0,0,0,0,-1,1707,1093,0,0
490,-69,0,0,0,0,0,0,0,0,0,-1,1714,1093,0,0
497,-69,0,0,0,0,0,0,0,0,0,-1,1721,1093,0,0
504,-69,0,0,0,0,0,0,0,0,0,-1,1728,1093,0,0
511,-69,0,0,0,0,0,0,0,0,0,-1,1735,1093,0,0
518,-69,0,0,0,0,0,0,0,0,0,-1,1742,1093,0,0
525,-69,0,0,0,0,0,0,0,0,0,-1,1749,1093,0,0
532,-69,0,0,0,0,0,0,0,0,0,-1,1756,1093,0,0
539,-69,0,0,0,0,0,0,0,0,0,-1,1763,1093,0,0
546,-69,0,0,0,0,0,0,0,0,0,-1,1770,1093,0,0
553,-69,0,0,0,0,0,0,0,0,0,-1,1777,1093,0,0
560,-69,0,0,0,0,0,0,0,0,0,-1,1784,1093,0,0
567,-69,0,0,0,0,0,0,0,0,0,-1,1791,1093,0,0
574,-69,0,0,0,0,0,0,0,0,0,-1,1798,1093,0,0
581,-69,0,0,0,0,0,0,0,0,0,-1,1805,1093,0,0
588,-69,0,0,0,0,0,0,0,0,0,-1,1812,1093,0,0
595,-69,0,0,0,0,0,0,0,0,0,-1,1819,1093,0,0
602,-69,0,0,0,0,0,0,0,0,0,-1,1826,1093,0,0
609,-69,0,0,0,0,0,0,0,0,0,-1,1833,1093,0,0
616,-69,0,0,0,0,0,0,0,0,0,-1,1840,1093,0,0
623,-69,0,0,0,0,0,0,0,0,0,-1,1847,1093,0,0
630,-69,0,0,0,0,0,0,0,0,0,-1,1854,1093,0,0
637,-69,0,0,0,0,0,0,0,0,0,-1,1861,1093,0,0
644,-69,0,0,0,0,0,0,0,0,0,-1,1868,1093,0,0
651,-69,75.0508,2.34363,0.000906278,0.00244908,-0.000362156,0.00252987,0.000825496,-1.35133,0.00148971,0.0410033,1875,1093,75.0508,-2.34358
658,-69,75.0981,2.20435,0.00079691,0.00177142,-0.000459069,0.00195362,0.000614717,-1.19299,0.00115346,0.0428034,1882,1093,75.0982,-2.20432
665,-69,75.329,1.83032,0.000822839,0.00124243,-0.000551349,0.00162255,0.000442719,-0.967196,0.000968467,0.0401427,1889,1093,75.3289,-1.83032
672,-69,75.1946,2.12183,0.000885575,0.000833189,-0.000687422,0.0015473,0.000171462,-0.766356,0.000979397,0.0377313,1896,1093,75.1946,-2.12178
679,-69,75.124,2.18445,0.00101434,0.000462574,-0.000829769,0.00161289,-0.000135974,-0.624907,0.00112333,0.038211,1903,1093,75.1241,-2.18441
686,-69,75.0795,2.17175,0.000758584,-0.000170583,-0.00078423,0.00120551,-0.000617512,-0.517989,0.00107062,0.0386281,1910,1093,75.0794,-2.1717
693,-69,75.1923,2.20032,0.000534709,-0.000737916,-0.000578213,0.000758178,-0.000961385,-0.368799,0.000995098,0.0354764,1917,1093,75.1923,-2.20035
700,-69,75.2407,2.05835,0.00036375,-0.00103664,-0.000235393,0.000402258,-0.00107515,-0.162156,0.000881979,0.0290371,1924,1093,75.2407,-2.05837
707,-69,75.2145,2.03601,-3.10598e-05,-0.00102068,0.000190537,4.35801e-06,-0.00105609,0.183786,0.00070552,0.0230945,1931,1093,75.2145,-2.03602
714,-69,75.1886,1.87244,-0.000747409,-0.000772636,0.000686992,-7.29141e-05,-0.00144713,0.776219,0.000941391,0.0368203,1938,1093,75.1887,-1.87242
721,-69,75.1062,1.58655,0,0,0,0,0,0,0,-1,1945,1093,75.1062,-1.58652
728,-69,72.131,8.58044,0,0,0,0,0,0,0,-1,1952,1093,72.131,-8.58045
735,-69,72.3997,8.02612,-0.0028651,0.00117823,0.001792,0.00185812,-0.00354498,1.20817,0.00316975,0.0459823,1959,1093,72.3997,-8.02611
742,-69,72.3561,7.59265,-0.00330072,0.00221049,0.00210487,0.00292242,-0.00401266,1.24464,0.00402043,0.0358749,1966,1093,72.3561,-7.59269
749,-69,72.1273,7.05286,-0.00380917,0.00364919,0.00241886,0.00436497,-0.00452495,1.28309,0.00513287,0.0365158,1973,1093,72.1274,-7.05281
756,-69,72.2402,6.57617,-0.00402744,0.00574069,0.00259129,0.00638554,-0.00467228,1.3269,0.00640973,0.0176574,1980,1093,72.2402,-6.57614
763,-69,72.208,6.07227,-0.00346052,0.00840868,0.00266718,0.00898048,-0.00403233,1.35961,0.00769187,0.0198098,1987,1093,72.208,-6.07226
770,-69,72.0757,5.65344,-0.00181885,0.0117621,0.0024156,0.012179,-0.00223571,1.39991,0.00895805,0.0221278,1994,1093,72.0757,-5.65344
777,-69,71.9133,5.23352,0.000760546,0.0153551,0.00212823,0.0156591,0.000456533,1.42891,0.0102906,0.0278211,2001,1093,71.9134,-5.23347
784,-69,72.0022,4.65027,0.00418279,0.0186809,0.00201983,0.018957,0.00390665,1.43493,0.011558,0.033324,2008,1093,72.0022,-4.65024
791,-69,72.2781,3.98962,0.00859674,0.0215836,0.0022077,0.0219487,0.0082317,1.40693,0.0128033,0.0437729,2015,1093,72.2782,-3.98964
798,-69,72.5242,3.37842,0.0145255,0.0239026,0.00286968,0.0247111,0.013717,1.29617,0.0142958,0.0499847,2022,1093,72.5243,-3.37844
805,-69,72.7502,2.77393,0,0,0,0,0,0,0,-1,2029,1093,72.7504,-2.7739
812,-69,73.4641,2.95056,0,0,0,0,0,0,0,-1,2036,1093,73.4641,-2.95052
-700,-76,0,0,0,0,0,0,0,0,0,-1,524,1100,0,0
-693,-76,-52.4576,-3.34009,-0.0232547,0.0479872,0.0472524,0.0715409,-0.0468084,1.10838,0.0688246,0.0435047,531,1100,-52.4576,3.34008
-686,-76,-58.4082,-1.75012,-0.0120489,0.0439609,0.0450882,0.0690335,-0.0371215,1.0633,0.0622049,0.0457978,538,1100,-58.4082,1.75015
-679,-76,-58.6841,-0.268433,-0.00592618,0.0400222,0.0406133,0.063709,-0.029613,1.0428,0.0550652,0.0452748,545,1100,-58.6841,0.268455
-672,-76,-58.7924,1.30518,0,0,0,0,0,0,0,-1,552,1100,-58.7924,-1.30519
-665,-76,-55.8329,0.884644,0,0,0,0,0,0,0,-1,559,1100,-55.8329,-0.884611
-658,-76,-55.1025,2.12158,0,0,0,0,0,0,0,-1,566,1100,-55.1025,-2.12162
-651,-76,-54.8919,3.53479,0,0,0,0,0,0,0,-1,573,1100,-54.8919,-3.53476
-644,-76,-55.7508,3.84766,0.000548569,0.019082,0.0137062,0.0263602,-0.0067296,1.08265,0.0201939,0.0467667,580,1100,-55.7508,-3.84762
-637,-76,-56.0447,4.27795,0.00155011,0.0135615,0.0098721,0.0191112,-0.00399958,1.05867,0.0142621,0.0252963,587,1100,-56.0447,-4.27801
-630,-76,-56.0841,4.79138,0.001491,0.00972793,0.00544221,0.0124344,-0.00121544,1.10931,0.008723,0.0170205,594,1100,-56.0841,-4.7914
-623,-76,-56.1305,5.30029,0.000931021,0.00585795,0.00144301,0.00624946,0.000539503,1.30585,0.00399863,0.0225605,601,1100,-56.1305,-5.30035
-616,-76,-56.2134,5.85364,0.000908513,0.00230054,-0.000450597,0.00243367,0.000775388,-1.28352,0.00143557,0.0232033,608,1100,-56.2134,-5.85363
-609,-76,-56.2137,6.35107,0.00153306,0.000242767,-0.00120265,0.00225268,-0.000476854,-0.539214,0.0016834,0.0219191,615,1100,-56.2137,-6.35113
-602,-76,-56.1204,6.88062,0.0025725,-0.000920013,-0.00159191,0.0031892,-0.00153672,-0.369596,0.00278355,0.0213936,622,1100,-56.1204,-6.88059
-595,-76,-56.1285,7.33679,0.00285805,-0.00180943,-0.00184933,0.00350195,-0.00245334,-0.335055,0.00345601,0.0419415,629,1100,-56.1285,-7.33679
-588,-76,-56.2764,7.76282,0,0,0,0,0,0,0,-1,636,1100,-56.2764,-7.76281
-581,-76,-58.9321,0.197021,0,0,0,0,0,0,0,-1,643,1100,-58.9321,-0.196978
-574,-76,-59.0034,0.071167,0.00391115,-0.00275127,-0.00213679,0.00453757,-0.00337769,-0.28517,0.0045862,0.0352097,650,1100,-59.0034,-0.0711082
-567,-76,-58.9824,-0.0161133,0.00395665,-0.00271369,-0.00223087,0.00463398,-0.00339101,-0.294771,0.00465172,0.0422883,657,1100,-58.9824,0.0160786
-560,-76,-58.8414,0.0953369,0.0035619,-0.00235585,-0.00238491,0.00440338,-0.00319733,-0.3392,0.00440665,0.0415031,664,1100,-58.8414,-0.0953616
-553,-76,-58.9285,0.0413818,0.00266922,-0.00176191,-0.00251862,0.00380808,-0.00290077,-0.424662,0.00388515,0.0428139,671,1100,-58.9286,-0.0413871
-546,-76,-58.9413,0.034668,0.00156543,-0.0010608,-0.0026557,0.00321492,-0.00271029,-0.555798,0.00342505,0.0410357,678,1100,-58.9413,-0.0346602
-539,-76,-58.9575,-0.0250244,0.000725144,-0.000837869,-0.00283121,0.00288073,-0.00299346,-0.650735,0.00339167,0.0406606,685,1100,-58.9575,0.0249766
-532,-76,-58.8691,0.166138,-0.000213408,-0.000431338,-0.00291623,0.00259589,-0.00324064,-0.766724,0.00337657,0.0453645,692,1100,-58.8692,-0.166083
-525,-76,0,0,0,0,0,0,0,0,0,-1,699,1100,0,0
-518,-76,0,0,0,0,0,0,0,0,0,-1,706,1100,0,0
-511,-76,0,0,0,0,0,0,0,0,0,-1,713,1100,0,0
-504,-76,0,0,0,0,0,0,0,0,0,-1,720,1100,0,0
-497,-76,0,0,0,0,0,0,0,0,0,-1,727,1100,0,0
-490,-76,0,0,0,0,0,0,0,0,0,-1,734,1100,0,0
-483,-76,0,0,0,0,0,0,0,0,0,-1,741,1100,0,0
-476,-76,0,0,0,0,0,0,0,0,0,-1,748,1100,0,0
-469,-76,0,0,0,0,0,0,0,0,0,-1,755,1100,0,0
-462,-76,0,0,0,0,0,0,0,0,0,-1,762,1100,0,0
-455,-76,0,0,0,0,0,0,0,0,0,-1,769,1100,0,0
-448,-76,0,0,0,0,0,0,0,0,0,-1,776,1100,0,0
-441,-76,0,0,0,0,0,0,0,0,0,-1,783,1100,0,0
-434,-76,0,0,0,0,0,0,0,0,0,-1,790,1100,0,0
-427,-76,0,0,0,0,0,0,0,0,0,-1,797,1100,0,0
-420,-76,0,0,0,0,0,0,0,0,0,-1,804,1100,0,0
-413,-76,0,0,0,0,0,0,0,0,0,-1,811,1100,0,0
-406,-76,0,0,0,0,0,0,0,0,0,-1,818,1100,0,0
-399,-76,0,0,0,0,0,0,0,0,0,-1,825,1100,0,0
-392,-76,0,0,0,0,0,0,0,0,0,-1,832,1100,0,0
-385,-76,0,0,0,0,0,0,0,0,0,-1,839,1100,0,0
-378,-76,0,0,0,0,0,0,0,0,0,-1,846,1100,0,0
-371,-76,0,0,0,0,0,0,0,0,0,-1,853,1100,0,0
-364,-76,0,0,0,0,0,0,0,0,0,-1,860,1100,0,0
-357,-76,0,0,0,0,0,0,0,0,0,-1,867,1100,0,0
-350,-76,0,0,0,0,0,0,0,0,0,-1,874,1100,0,0
-343,-76,0,0,0,0,0,0,0,0,0,-1,881,1100,0,0
-336,-76,0,0,0,0,0,0,0,0,0,-1,888,1100,0,0
-329,-76,0,0,0,0,0,0,0,0,0,-1,895,1100,0,0
-322,-76,0,0,0,0,0,0,0,0,0,-1,902,1100,0,0
-315,-76,0,0,0,0,0,0,0,0,0,-1,909,1100,0,0
-308,-76,0,0,0,0,0,0,0,0,0,-1,916,1100,0,0
-301,-76,0,0,0,0,0,0,0,0,0,-1,923,1100,0,0
-294,-76,0,0,0,0,0,0,0,0,0,-1,930,1100,0,0
-287,-76,0,0,0,0,0,0,0,0,0,-1,937,1100,0,0
-280,-76,0,0,0,0,0,0,0,0,0,-1,944,1100,0,0
-273,-76,0,0,0,0,0,0,0,0,0,-1,951,1100,0,0
-266,-76,0,0,0,0,0,0,0,0,0,-1,958,1100,0,0
-259,-76,0,0,0,0,0,0,0,0,0,-1,965,1100,0,0
-252,-76,0,0,0,0,0,0,0,0,0,-1,972,1100,0,0
-245,-76,0,0,0,0,0,0,0,0,0,-1,979,1100,0,0
-238,-76,0,0,0,0,0,0,0,0,0,-1,986,1100,0,0
-231,-76,0,0,0,0,0,0,0,0,0,-1,993,1100,0,0
-224,-76,0,0,0,0,0,0,0,0,0,-1,1000,1100,0,0
-217,-76,0,0,0,0,0,0,0,0,0,-1,1007,1100,0,0
-210,-76,0,0,0,0,0,0,0,0,0,-1,1014,1100,0,0
-203,-76,0,0,0,0,0,0,0,0,0,-1,1021,1100,0,0
-196,-76,0,0,0,0,0,0,0,0,0,-1,1028,1100,0,0
-189,-76,0,0,0,0,0,0,0,0,0,-1,1035,1100,0,0
-182,-76,0,0,0,0,0,0,0,0,0,-1,1042,1100,0,0
-175,-76,0,0,0,0,0,0,0,0,0,-1,1049,1100,0,0
-168,-76,0,0,0,0,0,0,0,0,0,-1,1056,1100,0,0
-161,-76,0,0,0,0,0,0,0,0,0,-1,1063,1100,0,0
-154,-76,0,0,0,0,0,0,0,0,0,-1,1070,1100,0,0
-147,-76,0,0,0,0,0,0,0,0,0,-1,1077,1100,0,0
-140,-76,0,0,0,0,0,0,0,0,0,-1,1084,1100,0,0
-133,-76,0,0,0,0,0,0,0,0,0,-1,1091,1100,0,0
-126,-76,0,0,0,0,0,0,0,0,0,-1,1098,1100,0,0
-119,-76,0,0,0,0,0,0,0,0,0,-1,1105,1100,0,0
-112,-76,0,0,0,0,0,0,0,0,0,-1,1112,1100,0,0
-105,-76,0,0,0,0,0,0,0,0,0,-1,1119,1100,0,0
-98,-76,0,0,0,0,0,0,0,0,0,-1,1126,1100,0,0
-91,-76,0,0,0,0,0,0,0,0,0,-1,1133,1100,0,0
-84,-76,0,0,0,0,0,0,0,0,0,-1,1140,1100,0,0
-77,-76,0,0,0,0,0,0,0,0,0,-1,1147,1100,0,0
-70,-76,0,0,0,0,0,0,0,0,0,-1,1154,1100,0,0
-63,-76,0,0,0,0,0,0,0,0,0,-1,1161,1100,0,0
-56,-76,0,0,0,0,0,0,0,0,0,-1,1168,1100,0,0
-49,-76,0,0,0,0,0,0,0,0,0,-1,1175,1100,0,0
-42,-76,0,0,0,0,0,0,0,0,0,-1,1182,1100,0,0
-35,-76,0,0,0,0,0,0,0,0,0,-1,1189,1100,0,0
-28,-76,0,0,0,0,0,0,0,0,0,-1,1196,1100,0,0
-21,-76,0,0,0,0,0,0,0,0,0,-1,1203,1100,0,0
-14,-76,0,0,0,0,0,0,0,0,0,-1,1210,1100,0,0
-7,-76,0,0,0,0,0,0,0,0,0,-1,1217,1100,0,0
0,-76,0,0,0,0,0,0,0,0,0,-1,1224,1100,0,0
7,-76,0,0,0,0,0,0,0,0,0,-1,1231,1100,0,0
14,-76,0,0,0,0,0,0,0,0,0,-1,1238,1100,0,0
21,-76,0,0,0,0,0,0,0,0,0,-1,1245,1100,0,0
28,-76,0,0,0,0,0,0,0,0,0,-1,1252,1100,0,0
35,-76,0,0,0,0,0,0,0,0,0,-1,1259,1100,0,0
42,-76,0,0,0,0,0,0,0,0,0,-1,1266,1100,0,0
49,-76,0,0,0,0,0,0,0,0,0,-1,1273,1100,0,0
56,-76,0,0,0,0,0,0,0,0,0,-1,1280,1100,0,0
63,-76,0,0,0,0,0,0,0,0,0,-1,1287,1100,0,0
70,-76,0,0,0,0,0,0,0,0,0,-1,1294,1100,0,0
77,-76,0,0,0,0,0,0,0,0,0,-1,1301,1100,0,0
84,-76,0,0,0,0,0,0,0,0,0,-1,1308,1100,0,0
91,-76,0,0,0,0,0,0,0,0,0,-1,1315,1100,0,0
98,-76,0,0,0,0,0,0,0,0,0,-1,1322,1100,0,0
105,-76,0,0,0,0,0,0,0,0,0,-1,1329,1100,0,0
112,-76,0,0,0,0,0,0,0,0,0,-1,1336,1100,0,0
119,-76,0,0,0,0,0,0,0,0,0,-1,1343,1100,0,0
126,-76,0,0,0,0,0,0,0,0,0,-1,1350,1100,0,0
133,-76,0,0,0,0,0,0,0,0,0,-1,1357,1100,0,0
140,-76,0,0,0,0,0,0,0,0,0,-1,1364,1100,0,0
147,-76,0,0,0,0,0,0,0,0,0,-1,1371,1100,0,0
154,-76,0,0,0,0,0,0,0,0,0,-1,1378,1100,0,0
161,-76,0,0,0,0,0,0,0,0,0,-1,1385,1100,0,0
168,-76,0,0,0,0,0,0,0,0,0,-1,1392,1100,0,0
175,-76,0,0,0,0,0,0,0,0,0,-1,1399,1100,0,0
182,-76,0,0,0,0,0,0,0,0,0,-1,1406,1100,0,0
189,-76,0,0,0,0,0,0,0,0,0,-1,1413,1100,0,0
196,-76,0,0,0,0,0,0,0,0,0,-1,1420,1100,0,0
203,-76,0,0,0,0,0,0,0,0,0,-1,1427,1100,0,0
210,-76,0,0,0,0,0,0,0,0,0,-1,1434,1100,0,0
217,-76,0,0,0,0,0,0,0,0,0,-1,1441,1100,0,0
224,-76,0,0,0,0,0,0,0,0,0,-1,1448,1100,0,0
231,-76,0,0,0,0,0,0,0,0,0,-1,1455,1100,0,0
238,-76,0,0,0,0,0,0,0,0,0,-1,1462,1100,0,0
245,-76,0,0,0,0,0,0,0,0,0,-1,1469,1100,0,0
252,-76,0,0,0,0,0,0,0,0,0,-1,1476,1100,0,0
259,-76,0,0,0,0,0,0,0,0,0,-1,1483,1100,0,0
266,-76,0,0,0,0,0,0,0,0,0,-1,1490,1100,0,0
273,-76,0,0,0,0,0,0,0,0,0,-1,1497,1100,0,0
280,-76,0,0,0,0,0,0,0,0,0,-1,1504,1100,0,0
287,-76,0,0,0,0,0,0,0,0,0,-1,1511,1100,0,0
294,-76,0,0,0,0,0,0,0,0,0,-1,1518,1100,0,0
301,-76,0,0,0,0,0,0,0,0,0,-1,1525,1100,0,0
308,-76,0,0,0,0,0,0,0,0,0,-1,1532,1100,0,0
315,-76,0,0,0,0,0,0,0,0,0,-1,1539,1100,0,0
322,-76,0,0,0,0,0,0,0,0,0,-1,1546,1100,0,0
329,-76,0,0,0,0,0,0,0,0,0,-1,1553,1100,0,0
336,-76,0,0,0,0,0,0,0,0,0,-1,1560,1100,0,0
343,-76,0,0,0,0,0,0,0,0,0,-1,1567,1100,0,0
350,-76,0,0,0,0,0,0,0,0,0,-1,1574,1100,0,0
357,-76,0,0,0,0,0,0,0,0,0,-1,1581,1100,0,0
364,-76,0,0,0,0,0,0,0,0,0,-1,1588,1100,0,0
371,-76,0,0,0,0,0,0,0,0,0,-1,1595,1100,0,0
378,-76,0,0,0,0,0,0,0,0,0,-1,1602,1100,0,0
385,-76,0,0,0,0,0,0,0,0,0,-1,1609,1100,0,0
392,-76,0,0,0,0,0,0,0,0,0,-1,1616,1100,0,0
399,-76,0,0,0,0,0,0,0,0,0,-1,1623,1100,0,0
406,-76,0,0,0,0,0,0,0,0,0,-1,1630,1100,0,0
413,-76,0,0,0,0,0,0,0,0,0,-1,1637,1100,0,0
420,-76,0,0,0,0,0,0,0,0,0,-1,1644,1100,0,0
427,-76,0,0,0,0,0,0,0,0,0,-1,1651,1100,0,0
434,-76,0,0,0,0,0,0,0,0,0,-1,1658,1100,0,0
441,-76,0,0,0,0,0,0,0,0,0,-1,1665,1100,0,0
448,-76,0,0,0,0,0,0,0,0,0,-1,1672,1100,0,0
455,-76,0,0,0,0,0,0,0,0,0,-1,1679,1100,0,0
462,-76,0,0,0,0,0,0,0,0,0,-1,1686,1100,0,0
469,-76,0,0,0,0,0,0,0,0,0,-1,1693,1100,0,0
476,-76,0,0,0,0,0,0,0,0,0,-1,1700,1100,0,0
483,-76,0,0,0,0,0,0,0,0,0,-1,1707,1100,0,0
490,-76,0,0,0,0,0,0,0,0,0,-1,1714,1100,0,0
497,-76,0,0,0,0,0,0,0,0,0,-1,1721,1100,0,0
504,-76,0,0,0,0,0,0,0,0,0,-1,1728,1100,0,0
511,-76,0,0,0,0,0,0,0,0,0,-1,1735,1100,0,0
518,-76,0,0,0,0,0,0,0,0,0,-1,1742,1100,0,0
525,-76,0,0,0,0,0,0,0,0,0,-1,1749,1100,0,0
532,-76,0,0,0,0,0,0,0,0,0,-1,1756,1100,0,0
539,-76,0,0,0,0,0,0,0,0,0,-1,1763,1100,0,0
546,-76,0,0,0,0,0,0,0,0,0,-1,1770,1100,0,0
553,-76,0,0,0,0,0,0,0,0,0,-1,1777,1100,0,0
560,-76,0,0,0,0,0,0,0,0,0,-1,1784,1100,0,0
567,-76,0,0,0,0,0,0,0,0,0,-1,1791,1100,0,0
574,-76,0,0,0,0,0,0,0,0,0,-1,1798,1100,0,0
581,-76,0,0,0,0,0,0,0,0,0,-1,1805,1100,0,0
588,-76,0,0,0,0,0,0,0,0,0,-1,1812,1100,0,0
595,-76,0,0,0,0,0,0,0,0,0,-1,1819,1100,0,0
602,-76,0,0,0,0,0,0,0,0,0,-1,1826,1100,0,0
609,-76,0,0,0,0,0,0,0,0,0,-1,1833,1100,0,0
616,-76,0,0,0,0,0,0,0,0,0,-1,1840,1100,0,0
623,-76,0,0,0,0,0,0,0,0,0,-1,1847,1100,0,0
630,-76,0,0,0,0,0,0,0,0,0,-1,1854,1100,0,0
637,-76,0,0,0,0,0,0,0,0,0,-1,1861,1100,0,0
644,-76,0,0,0,0,0,0,0,0,0,-1,1868,1100,0,0
651,-76,75.0768,2.0647,0.00201029,0.00233846,-0.000512041,0.00271206,0.00163669,-0.940455,0.00157695,0.0398553,1875,1100,75.0768,-2.06475
658,-76,75.1357,1.9613,0.0015157,0.00183532,-0.000493934,0.00219465,0.00115637,-0.941854,0.0012677,0.0406778,1882,1100,75.1357,-1.96134
665,-76,75.2766,1.76758,0.00123409,0.00142125,-0.000537147,0.00187291,0.000782434,-0.871644,0.00108619,0.0381782,1889,1100,75.2766,-1.76757
672,-76,75.1901,2.08191,0.00104122,0.00107278,-0.000668147,0.00172533,0.000388665,-0.797206,0.00104504,0.0357196,1896,1100,75.1901,-2.08191
679,-76,75.1451,2.23425,0.000995643,0.000716946,-0.000827237,0.00169519,1.74033e-05,-0.701956,0.00112437,0.0366061,1903,1100,75.1452,-2.23423
686,-76,75.2397,2.20129,0.000736808,7.89698e-05,-0.000799059,0.001272,-0.00045622,-0.590151,0.00103418,0.0363874,1910,1100,75.2398,-2.20132
693,-76,75.2639,2.01233,0.000583608,-0.000487987,-0.000616243,0.00086441,-0.000768789,-0.427557,0.000943466,0.0377504,1917,1100,75.2639,-2.01228
700,-76,75.2164,1.89941,0.000484866,-0.000810989,-0.000315486,0.000557592,-0.000883715,-0.226563,0.00083921,0.0326594,1924,1100,75.2164,-1.89937
707,-76,75.1823,1.99365,0.000166739,-0.000838955,9.52928e-05,0.000175688,-0.000847904,0.0936429,0.000632025,0.0249437,1931,1100,75.1823,-1.99371
714,-76,75.2444,2.01331,0,0,0,0,0,0,0,-1,1938,1100,75.2444,-2.01326
721,-76,45.1713,3.04919,0,0,0,0,0,0,0,-1,1945,1100,45.1713,-3.04915
728,-76,60.937,8.08447,0,0,0,0,0,0,0,-1,1952,1100,60.937,-8.08446
735,-76,71.8461,8.33594,0,0,0,0,0,0,0,-1,1959,1100,71.846,-8.33599
742,-76,71.7238,7.70825,-0.00267781,0.0020165,0.00194085,0.00271501,-0.00337632,1.22533,0.00352373,0.0364562,1966,1100,71.7237,-7.70821
749,-76,71.5798,7.09778,-0.00330528,0.00360619,0.00237108,0.00434141,-0.0040405,1.27012,0.00484034,0.033365,1973,1100,71.5798,-7.09779
756,-76,71.6536,6.57727,-0.0037953,0.00590413,0.00267056,0.0065908,-0.00448197,1.31912,0.0064314,0.0173754,1980,1100,71.6535,-6.57727
763,-76,71.5991,6.05835,-0.00382651,0.00920521,0.00291684,0.00982829,-0.00444959,1.36035,0.00843606,0.0178064,1987,1100,71.5991,-6.05834
770,-76,71.479,5.5929,-0.00320907,0.0136265,0.0029667,0.0141339,-0.00371656,1.40138,0.0108753,0.019912,1994,1100,71.4791,-5.59289
777,-76,71.3303,5.26318,-0.00207651,0.0186432,0.00307298,0.0190894,-0.00252266,1.42662,0.0136451,0.0240392,2001,1100,71.3304,-5.2632
784,-76,71.3501,4.67676,-0.000368069,0.0237697,0.00342425,0.0242461,-0.000844439,1.43257,0.0164528,0.0337879,2008,1100,71.35,-4.67675
791,-76,71.5698,3.99463,0.0020619,0.028906,0.00412849,0.0295266,0.00144131,1.42159,0.019222,0.0426499,2015,1100,71.5698,-3.99468
798,-76,71.783,3.32153,0.00559018,0.0340281,0.0053694,0.0350081,0.00461015,1.39026,0.0219639,0.0482549,2022,1100,71.783,-3.32148
805,-76,71.9944,2.70532,0.0105971,0.0389241,0.00740228,0.0407418,0.00877944,1.33,0.0247592,0.0483559,2029,1100,71.9945,-2.70535
812,-76,72.5869,2.33459,0.0170646,0.0433433,0.0107025,0.0471505,0.0132574,1.22902,0.028078,0.0459396,2036,1100,72.5869,-2.33464
-700,-83,0,0,0,0,0,0,0,0,0,-1,524,1107,0,0
-693,-83,-52.6258,-2.85242,-0.0310911,0.0622833,0.0350935,0.074002,-0.0428098,1.24851,0.0682381,0.0400417,531,1107,-52.6258,2.85245
-686,-83,-53.0503,-1.75952,-0.0195119,0.0562509,0.0355323,0.0703074,-0.0335684,1.19409,0.0612103,0.044649,538,1107,-53.0503,1.75953
-679,-83,-58.7447,0.0737305,0,0,0,0,0,0,0,-1,545,1107,-58.7446,-0.0737793
-672,-83,-53.3892,0.988281,0,0,0,0,0,0,0,-1,552,1107,-53.3892,-0.988275
-665,-83,-54.0684,1.9386,0,0,0,0,0,0,0,-1,559,1107,-54.0684,-1.93864
-658,-83,-55.0251,1.92957,0,0,0,0,0,0,0,-1,566,1107,-55.0251,-1.92957
-651,-83,-55.0862,2.62341,0,0,0,0,0,0,0,-1,573,1107,-55.0862,-2.62337
-644,-83,-55.0929,3.76611,0,0,0,0,0,0,0,-1,580,1107,-55.0929,-3.76615
-637,-83,-55.4056,4.21973,-0.00074566,0.0148757,0.00829426,0.0184581,-0.00432802,1.16309,0.0139733,0.0168803,587,1107,-55.4056,-4.21968
-630,-83,-55.4794,4.78235,-0.000221989,0.0101392,0.00455256,0.0118553,-0.00193809,1.21031,0.00862246,0.0188933,594,1107,-55.4793,-4.78237
-623,-83,-55.5421,5.28247,-0.000109505,0.00560418,0.00105488,0.00579272,-0.00029804,1.39394,0.00396489,0.0226725,601,1107,-55.542,-5.2825
-616,-83,-55.6517,5.83813,0.000551954,0.00166483,-0.00046168,0.00183142,0.000385363,-1.2245,0.00111492,0.0189315,608,1107,-55.6517,-5.83808
-609,-83,-55.6105,6.36609,0.00167447,-0.00012442,-0.00101414,0.00213055,-0.000580509,-0.422631,0.00164831,0.0232952,615,1107,-55.6106,-6.36603
-602,-83,-55.602,6.98755,0.00271968,-0.000992469,-0.0011404,0.00304203,-0.00131482,-0.275475,0.00258047,0.0207112,622,1107,-55.602,-6.98755
-595,-83,-55.5125,7.56409,0.00298984,-0.00165143,-0.0012796,0.00331925,-0.00198084,-0.251958,0.00309236,0.0311322,629,1107,-55.5125,-7.56408
-588,-83,-55.6027,7.9491,0,0,0,0,0,0,0,-1,636,1107,-55.6026,-7.94906
-581,-83,-58.907,0.254517,0,0,0,0,0,0,0,-1,643,1107,-58.9071,-0.254466
-574,-83,-58.9521,0.0408936,0,0,0,0,0,0,0,-1,650,1107,-58.9522,-0.0409234
-567,-83,-58.8683,-0.450806,0,0,0,0,0,0,0,-1,657,1107,-58.8683,0.450834
-560,-83,-58.4761,-0.214478,0,0,0,0,0,0,0,-1,664,1107,-58.476,0.21452
-553,-83,-58.8508,-0.00793457,0.00295,-0.00205276,-0.00242509,0.00393258,-0.00303534,-0.384957,0.00403404,0.0440024,671,1107,-58.8508,0.00799408
-546,-83,-58.9302,0.187622,0.00173087,-0.00151679,-0.00273816,0.00329049,-0.00307641,-0.517756,0.00367662,0.0394707,678,1107,-58.9302,-0.187637
-539,-83,-59.0041,0.181763,0.000892783,-0.00150598,-0.00308424,0.00300264,-0.00361584,-0.599959,0.00382664,0.0400109,685,1107,-59.0041,-0.181703
-532,-83,-58.7422,-0.12207,-9.73374e-06,-0.00141711,-0.0033413,0.00270117,-0.00412801,-0.681614,0.00397141,0.0452744,692,1107,-58.7423,0.122101
-525,-83,0,0,0,0,0,0,0,0,0,-1,699,1107,0,0
-518,-83,0,0,0,0,0,0,0,0,0,-1,706,1107,0,0
-511,-83,0,0,0,0,0,0,0,0,0,-1,713,1107,0,0
-504,-83,0,0,0,0,0,0,0,0,0,-1,720,1107,0,0
-497,-83,0,0,0,0,0,0,0,0,0,-1,727,1107,0,0
-490,-83,0,0,0,0,0,0,0,0,0,-1,734,1107,0,0
-483,-83,0,0,0,0,0,0,0,0,0,-1,741,1107,0,0
-476,-83,0,0,0,0,0,0,0,0,0,-1,748,1107,0,0
-469,-83,0,0,0,0,0,0,0,0,0,-1,755,1107,0,0
-462,-83,0,0,0,0,0,0,0,0,0,-1,762,1107,0,0
-455,-83,0,0,0,0,0,0,0,0,0,-1,769,1107,0,0
-448,-83,0,0,0,0,0,0,0,0,0,-1,776,1107,0,0
-441,-83,0,0,0,0,0,0,0,0,0,-1,783,1107,0,0
-434,-83,0,0,0,0,0,0,0,0,0,-1,790,1107,0,0
-427,-83,0,0,0,0,0,0,0,0,0,-1,797,1107,0,0
-420,-83,0,0,0,0,0,0,0,0,0,-1,804,1107,0,0
-413,-83,0,0,0,0,0,0,0,0,0,-1,811,1107,0,0
-406,-83,0,0,0,0,0,0,0,0,0,-1,818,1107,0,0
-399,-83,0,0,0,0,0,0,0,0,0,-1,825,1107,0,0
-392,-83,0,0,0,0,0,0,0,0,0,-1,832,1107,0,0
-385,-83,0,0,0,0,0,0,0,0,0,-1,839,1107,0,0
-378,-83,0,0,0,0,0,0,0,0,0,-1,846,1107,0,0
-371,-83,0,0,0,0,0,0,0,0,0,-1,853,1107,0,0
-364,-83,0,0,0,0,0,0,0,0,0,-1,860,1107,0,0
-357,-83,0,0,0,0,0,0,0,0,0,-1,867,1107,0,0
-350,-83,0,0,0,0,0,0,0,0,0,-1,874,1107,0,0
-343,-83,0,0,0,0,0,0,0,0,0,-1,881,1107,0,0
-336,-83,0,0,0,0,0,0,0,0,0,-1,888,1107,0,0
-329,-83,0,0,0,0,0,0,0,0,0,-1,895,1107,0,0
-322,-83,0,0,0,0,0,0,0,0,0,-1,902,1107,0,0
-315,-83,0,0,0,0,0,0,0,0,0,-1,909,1107,0,0
-308,-83,0,0,0,0,0,0,0,0,0,-1,916,1107,0,0
-301,-83,0,0,0,0,0,0,0,0,0,-1,923,1107,0,0
-294,-83,0,0,0,0,0,0,0,0,0,-1,930,1107,0,0
-287,-83,0,0,0,0,0,0,0,0,0,-1,937,1107,0,0
-280,-83,0,0,0,0,0,0,0,0,0,-1,944,1107,0,0
-273,-83,0,0,0,0,0,0,0,0,0,-1,951,1107,0,0
-266,-83,0,0,0,0,0,0,0,0,0,-1,958,1107,0,0
-259,-83,0,0,0,0,0,0,0,0,0,-1,965,1107,0,0
-252,-83,0,0,0,0,0,0,0,0,0,-1,972,1107,0,0
-245,-83,0,0,0,0,0,0,0,0,0,-1,979,1107,0,0
-238,-83,0,0,0,0,0,0,0,0,0,-1,986,1107,0,0
-231,-83,0,0,0,0,0,0,0,0,0,-1,993,1107,0,0
-224,-83,0,0,0,0,0,0,0,0,0,-1,1000,1107,0,0
-217,-83,0,0,0,0,0,0,0,0,0,-1,1007,1107,0,0
-210,-83,0,0,0,0,0,0,0,0,0,-1,1014,1107,0,0
-203,-83,0,0,0,0,0,0,0,0,0,-1,1021,1107,0,0
-196,-83,0,0,0,0,0,0,0,0,0,-1,1028,1107,0,0
-189,-83,0,0,0,0,0,0,0,0,0,-1,1035,1107,0,0
-182,-83,0,0,0,0,0,0,0,0,0,-1,1042,1107,0,0
-175,-83,0,0,0,0,0,0,0,0,0,-1,1049,1107,0,0
-168,-83,0,0,0,0,0,0,0,0,0,-1,1056,1107,0,0
-161,-83,0,0,0,0,0,0,0,0,0,-1,1063,1107,0,0
-154,-83,0,0,0,0,0,0,0,0,0,-1,1070,1107,0,0
-147,-83,0,0,0,0,0,0,0,0,0,-1,1077,1107,0,0
-140,-83,0,0,0,0,0,0,0,0,0,-1,1084,1107,0,0
-133,-83,0,0,0,0,0,0,0,0,0,-1,1091,1107,0,0
-126,-83,0,0,0,0,0,0,0,0,0,-1,1098,1107,0,0
-119,-83,0,0,0,0,0,0,0,0,0,-1,1105,1107,0,0
-112,-83,0,0,0,0,0,0,0,0,0,-1,1112,1107,0,0
-105,-83,0,0,0,0,0,0,0,0,0,-1,1119,1107,0,0
-98,-83,0,0,0,0,0,0,0,0,0,-1,1126,1107,0,0
-91,-83,0,0,0,0,0,0,0,0,0,-1,1133,1107,0,0
-84,-83,0,0,0,0,0,0,0,0,0,-1,1140,1107,0,0
-77,-83,0,0,0,0,0,0,0,0,0,-1,1147,1107,0,0
-70,-83,0,0,0,0,0,0,0,0,0,-1,1154,1107,0,0
-63,-83,0,0,0,0,0,0,0,0,0,-1,1161,1107,0,0
-56,-83,0,0,0,0,0,0,0,0,0,-1,1168,1107,0,0
-49,-83,0,0,0,0,0,0,0,0,0,-1,1175,1107,0,0
-42,-83,0,0,0,0,0,0,0,0,0,-1,1182,1107,0,0
-35,-83,0,0,0,0,0,0,0,0,0,-1,1189,1107,0,0
-28,-83,0,0,0,0,0,0,0,0,0,-1,1196,1107,0,0
-21,-83,0,0,0,0,0,0,0,0,0,-1,1203,1107,0,0
-14,-83,0,0,0,0,0,0,0,0,0,-1,1210,1107,0,0
-7,-83,0,0,0,0,0,0,0,0,0,-1,1217,1107,0,0
0,-83,0,0,0,0,0,0,0,0,0,-1,1224,1107,0,0
7,-83,0,0,0,0,0,0,0,0,0,-1,1231,1107,0,0
14,-83,0,0,0,0,0,0,0,0,0,-1,1238,1107,0,0
21,-83,0,0,0,0,0,0,0,0,0,-1,1245,1107,0,0
28,-83,0,0,0,0,0,0,0,0,0,-1,1252,1107,0,0
35,-83,0,0,0,0,0,0,0,0,0,-1,1259,1107,0,0
42,-83,0,0,0,0,0,0,0,0,0,-1,1266,1107,0,0
49,-83,0,0,0,0,0,0,0,0,0,-1,1273,1107,0,0
56,-83,0,0,0,0,0,0,0,0,0,-1,1280,1107,0,0
63,-83,0,0,0,0,0,0,0,0,0,-1,1287,1107,0,0
70,-83,0,0,0,0,0,0,0,0,0,-1,1294,1107,0,0
77,-83,0,0,0,0,0,0,0,0,0,-1,1301,1107,0,0
84,-83,0,0,0,0,0,0,0,0,0,-1,1308,1107,0,0
91,-83,0,0,0,0,0,0,0,0,0,-1,1315,1107,0,0
98,-83,0,0,0,0,0,0,0,0,0,-1,1322,1107,0,0
105,-83,0,0,0,0,0,0,0,0,0,-1,1329,1107,0,0
112,-83,0,0,0,0,0,0,0,0,0,-1,1336,1107,0,0
119,-83,0,0,0,0,0,0,0,0,0,-1,1343,1107,0,0
126,-83,0,0,0,0,0,0,0,0,0,-1,1350,1107,0,0
133,-83,0,0,0,0,0,0,0,0,0,-1,1357,1107,0,0
140,-83,0,0,0,0,0,0,0,0,0,-1,1364,1107,0,0
147,-83,0,0,0,0,0,0,0,0,0,-1,1371,1107,0,0
154,-83,0,0,0,0,0,0,0,0,0,-1,1378,1107,0,0
161,-83,0,0,0,0,0,0,0,0,0,-1,1385,1107,0,0
168,-83,0,0,0,0,0,0,0,0,0,-1,1392,1107,0,0
175,-83,0,0,0,0,0,0,0,0,0,-1,1399,1107,0,0
182,-83,0,0,0,0,0,0,0,0,0,-1,1406,1107,0,0
189,-83,0,0,0,0,0,0,0,0,0,-1,1413,1107,0,0
196,-83,0,0,0,0,0,0,0,0,0,-1,1420,1107,0,0
203,-83,0,0,0,0,0,0,0,0,0,-1,1427,1107,0,0
210,-83,0,0,0,0,0,0,0,0,0,-1,1434,1107,0,0
217,-83,0,0,0,0,0,0,0,0,0,-1,1441,1107,0,0
224,-83,0,0,0,0,0,0,0,0,0,-1,1448,1107,0,0
231,-83,0,0,0,0,0,0,0,0,0,-1,1455,1107,0,0
238,-83,0,0,0,0,0,0,0,0,0,-1,1462,1107,0,0
245,-83,0,0,0,0,0,0,0,0,0,-1,1469,1107,0,0
252,-83,0,0,0,0,0,0,0,0,0,-1,1476,1107,0,0
259,-83,0,0,0,0,0,0,0,0,0,-1,1483,1107,0,0
266,-83,0,0,0,0,0,0,0,0,0,-1,1490,1107,0,0
273,-83,0,0,0,0,0,0,0,0,0,-1,1497,1107,0,0
280,-83,0,0,0,0,0,0,0,0,0,-1,1504,1107,0,0
287,-83,0,0,0,0,0,0,0,0,0,-1,1511,1107,0,0
294,-83,0,0,0,0,0,0,0,0,0,-1,1518,1107,0,0
301,-83,0,0,0,0,0,0,0,0,0,-1,1525,1107,0,0
308,-83,0,0,0,0,0,0,0,0,0,-1,1532,1107,0,0
315,-83,0,0,0,0,0,0,0,0,0,-1,1539,1107,0,0
322,-83,0,0,0,0,0,0,0,0,0,-1,1546,1107,0,0
329,-83,0,0,0,0,0,0,0,0,0,-1,1553,1107,0,0
336,-83,0,0,0,0,0,0,0,0,0,-1,1560,1107,0,0
343,-83,0,0,0,0,0,0,0,0,0,-1,1567,1107,0,0
350,-83,0,0,0,0,0,0,0,0,0,-1,1574,1107,0,0
357,-83,0,0,0,0,0,0,0,0,0,-1,1581,1107,0,0
364,-83,0,0,0,0,0,0,0,0,0,-1,1588,1107,0,0
371,-83,0,0,0,0,0,0,0,0,0,-1,1595,1107,0,0
378,-83,0,0,0,0,0,0,0,0,0,-1,1602,1107,0,0
385,-83,0,0,0,0,0,0,0,0,0,-1,1609,1107,0,0
392,-83,0,0,0,0,0,0,0,0,0,-1,1616,1107,0,0
399,-83,0,0,0,0,0,0,0,0,0,-1,1623,1107,0,0
406,-83,0,0,0,0,0,0,0,0,0,-1,1630,1107,0,0
413,-83,0,0,0,0,0,0,0,0,0,-1,1637,1107,0,0
420,-83,0,0,0,0,0,0,0,0,0,-1,1644,1107,0,0
427,-83,0,0,0,0,0,0,0,0,0,-1,1651,1107,0,0
434,-83,0,0,0,0,0,0,0,0,0,-1,1658,1107,0,0
441,-83,0,0,0,0,0,0,0,0,0,-1,1665,1107,0,0
448,-83,0,0,0,0,0,0,0,0,0,-1,1672,1107,0,0
455,-83,0,0,0,0,0,0,0,0,0,-1,1679,1107,0,0
462,-83,0,0,0,0,0,0,0,0,0,-1,1686,1107,0,0
469,-83,0,0,0,0,0,0,0,0,0,-1,1693,1107,0,0
476,-83,0,0,0,0,0,0,0,0,0,-1,1700,1107,0,0
483,-83,0,0,0,0,0,0,0,0,0,-1,1707,1107,0,0
490,-83,0,0,0,0,0,0,0,0,0,-1,1714,1107,0,0
497,-83,0,0,0,0,0,0,0,0,0,-1,1721,1107,0,0
504,-83,0,0,0,0,0,0,0,0,0,-1,1728,1107,0,0
511,-83,0,0,0,0,0,0,0,0,0,-1,1735,1107,0,0
518,-83,0,0,0,0,0,0,0,0,0,-1,1742,1107,0,0
525,-83,0,0,0,0,0,0,0,0,0,-1,1749,1107,0,0
532,-83,0,0,0,0,0,0,0,0,0,-1,1756,1107,0,0
539,-83,0,0,0,0,0,0,0,0,0,-1,1763,1107,0,0
546,-83,0,0,0,0,0,0,0,0,0,-1,1770,1107,0,0
553,-83,0,0,0,0,0,0,0,0,0,-1,1777,1107,0,0
560,-83,0,0,0,0,0,0,0,0,0,-1,1784,1107,0,0
567,-83,0,0,0,0,0,0,0,0,0,-1,1791,1107,0,0
574,-83,0,0,0,0,0,0,0,0,0,-1,1798,1107,0,0
581,-83,0,0,0,0,0,0,0,0,0,-1,1805,1107,0,0
588,-83,0,0,0,0,0,0,0,0,0,-1,1812,1107,0,0
595,-83,0,0,0,0,0,0,0,0,0,-1,1819,1107,0,0
602,-83,0,0,0,0,0,0,0,0,0,-1,1826,1107,0,0
609,-83,0,0,0,0,0,0,0,0,0,-1,1833,1107,0,0
616,-83,0,0,0,0,0,0,0,0,0,-1,1840,1107,0,0
623,-83,0,0,0,0,0,0,0,0,0,-1,1847,1107,0,0
630,-83,0,0,0,0,0,0,0,0,0,-1,1854,1107,0,0
637,-83,0,0,0,0,0,0,0,0,0,-1,1861,1107,0,0
644,-83,75.1868,2.09351,0.00372885,0.00222798,-0.00122182,0.0044123,0.00154454,-0.510002,0.00258534,0.0373216,1868,1107,75.1867,-2.09352
651,-83,75.0708,1.98901,0.00260533,0.00202928,-0.00089659,0.00325903,0.00137559,-0.629982,0.0018892,0.0411867,1875,1107,75.0708,-1.989
658,-83,75.1062,1.90637,0.00186315,0.00167344,-0.00071891,0.00249344,0.00104316,-0.719807,0.00144597,0.0423057,1882,1107,75.1062,-1.90642
665,-83,75.2007,1.92334,0.00137521,0.00137675,-0.000645115,0.00202109,0.000730863,-0.785993,0.00118168,0.0390336,1889,1107,75.2006,-1.92334
672,-83,75.0769,2.08093,0.00101064,0.00111831,-0.000683568,0.00175016,0.000378793,-0.824694,0.00106325,0.0372387,1896,1107,75.0769,-2.08092
679,-83,75.1483,2.16235,0.00087188,0.000808514,-0.000763805,0.00160466,7.57353e-05,-0.76467,0.00104544,0.0372536,1903,1107,75.1483,-2.16233
686,-83,75.2739,2.14587,0.000644765,0.000200177,-0.000706847,0.00116345,-0.000318507,-0.633051,0.000900771,0.0355093,1910,1107,75.2739,-2.14585
693,-83,75.2495,2.00745,0.000579782,-0.000324059,-0.000530213,0.000824538,-0.000568815,-0.432473,0.000808956,0.0373045,1917,1107,75.2496,-2.00746
700,-83,75.1682,1.98669,0.00056753,-0.000637462,-0.000261339,0.000621768,-0.0006917,-0.204634,0.000758689,0.0337232,1924,1107,75.1683,-1.98667
707,-83,75.1863,2.00537,0.000332314,-0.000686944,0.000127063,0.000347915,-0.000702545,0.122172,0.000617896,0.0255282,1931,1107,75.1863,-2.0054
714,-83,75.251,2.03296,0,0,0,0,0,0,0,-1,1938,1107,75.2509,-2.03298
721,-83,49.1162,7.36719,0,0,0,0,0,0,0,-1,1945,1107,49.1162,-7.36721
728,-83,66.6315,8.32141,0,0,0,0,0,0,0,-1,1952,1107,66.6314,-8.32147
735,-83,70.8934,8.27246,0,0,0,0,0,0,0,-1,1959,1107,70.8934,-8.2725
742,-83,71.0247,7.68506,-0.00206084,0.00181053,0.00179266,0.00251312,-0.00276343,1.19727,0.00304756,0.0314648,1966,1107,71.0247,-7.68503
749,-83,71.1311,7.12793,-0.00277009,0.00347076,0.0022431,0.00419332,-0.00349265,1.25917,0.00444364,0.0211562,1973,1107,71.1311,-7.12797
756,-83,71.1138,6.58057,-0.00351903,0.00590263,0.00258178,0.00656372,-0.00418012,1.32012,0.00625364,0.0184245,1980,1107,71.1138,-6.58062
763,-83,71.0642,6.01782,-0.0041575,0.0096776,0.00290952,0.0102646,-0.00474447,1.37173,0.00885868,0.0133264,1987,1107,71.0642,-6.01778
770,-83,70.9619,5.54541,-0.00458016,0.0148492,0.00313994,0.015344,-0.00507499,1.41449,0.0122758,0.0167557,1994,1107,70.9619,-5.54545
777,-83,70.792,5.0426,-0.0048908,0.0208257,0.00349826,0.0212931,-0.00535818,1.43798,0.0162781,0.0182107,2001,1107,70.7921,-5.04257
784,-83,70.6404,4.52673,-0.00495738,0.0272144,0.00415397,0.0277421,-0.00548508,1.44444,0.0205683,0.0266402,2008,1107,70.6404,-4.52676
791,-83,70.667,3.91577,-0.00463881,0.0339828,0.00521879,0.0346756,-0.00533158,1.43882,0.0250838,0.0445107,2015,1107,70.667,-3.91576
798,-83,70.6663,3.3219,0,0,0,0,0,0,0,-1,2022,1107,70.6663,-3.32187
805,-83,70.9934,2.86108,-0.00175591,0.0486306,0.00937525,0.0503184,-0.00344379,1.39267,0.0347505,0.0468641,2029,1107,70.9935,-2.86112
812,-83,71.0801,2.30957,0.001451,0.0559637,0.0131912,0.058988,-0.00157327,1.34543,0.0398601,0.0482672,2036,1107,71.0802,-2.30963
-700,-90,0,0,0,0,0,0,0,0,0,-1,524,1114,0,0
-693,-90,-52.8228,-2.44409,-0.0372612,0.0785849,0.0225954,0.0828361,-0.0415124,1.38483,0.0731021,0.0434192,531,1114,-52.8228,2.44415
-686,-90,-53.0698,-1.33179,-0.0263558,0.0706198,0.0254236,0.0768808,-0.0326168,1.32934,0.0649174,0.0450827,538,1114,-53.0698,1.33175
-679,-90,-53.0252,-0.648193,-0.0194285,0.0620216,0.0248558,0.0690076,-0.0264145,1.2968,0.056892,0.0460155,545,1114,-53.0252,0.648157
-672,-90,-53.2955,0.377319,-0.0146085,0.0534729,0.0227586,0.06038,-0.0215156,1.27614,0.0490251,0.0456586,552,1114,-53.2955,-0.377315
-665,-90,-53.976,1.35779,-0.011296,0.0453414,0.0198238,0.0515904,-0.0175451,1.26542,0.0414973,0.0470699,559,1114,-53.976,-1.35782
-658,-90,-54.4784,1.98059,0,0,0,0,0,0,0,-1,566,1114,-54.4784,-1.98065
-651,-90,-54.5851,2.69836,-0.00692565,0.0303552,0.0129698,0.0344234,-0.0109938,1.26685,0.02736,0.0395213,573,1114,-54.5851,-2.69839
-644,-90,-54.7186,3.47278,-0.00534044,0.0236384,0.0093019,0.0263672,-0.00806929,1.28544,0.0207964,0.0217337,580,1114,-54.7186,-3.4728
-637,-90,-54.803,4.16882,-0.00317992,0.0164422,0.00663914,0.0184775,-0.00521517,1.27334,0.0143756,0.0170794,587,1114,-54.803,-4.16877
-630,-90,-54.8674,4.75525,-0.00201097,0.0107067,0.00362623,0.011668,-0.00297227,1.31166,0.00893574,0.0137654,594,1114,-54.8674,-4.75521
-623,-90,-54.9042,5.33948,-0.0011556,0.00542129,0.000694572,0.00549384,-0.00122816,1.46672,0.00413322,0.0141875,601,1114,-54.9042,-5.33951
-616,-90,-54.9686,5.92712,0.000166956,0.0011994,-0.000399698,0.00133605,3.03045e-05,-1.24137,0.000880775,0.0159632,608,1114,-54.9685,-5.92709
-609,-90,-54.9322,6.50244,0.00172784,-0.000321614,-0.000718107,0.00195441,-0.000548183,-0.305624,0.00151901,0.0243478,615,1114,-54.9322,-6.50243
-602,-90,-55.0498,7.05676,0.00275397,-0.000977138,-0.000629476,0.00285731,-0.00108047,-0.162712,0.00234936,0.0244258,622,1114,-55.0498,-7.05671
-595,-90,-54.9114,7.74194,0.00302006,-0.00142285,-0.000692653,0.00312554,-0.00152833,-0.151124,0.00273915,0.0256287,629,1114,-54.9115,-7.7419
-588,-90,-55.0128,8.2467,0,0,0,0,0,0,0,-1,636,1114,-55.0128,-8.24673
-581,-90,-58.9319,0.315674,0,0,0,0,0,0,0,-1,643,1114,-58.9319,-0.315715
-574,-90,-58.9315,0.190796,0,0,0,0,0,0,0,-1,650,1114,-58.9315,-0.190742
-567,-90,-59.0308,0.223633,0.00448372,-0.00272613,-0.00136356,0.00473299,-0.00297539,-0.180808,0.00448883,0.0375962,657,1114,-59.0308,-0.22368
-560,-90,-58.9883,0.25708,0.00422792,-0.0025731,-0.00174368,0.00464892,-0.00299409,-0.236906,0.00444704,0.0405291,664,1114,-58.9883,-0.257094
-553,-90,-58.9023,0.453003,0.0032008,-0.00221979,-0.00216648,0.00396028,-0.00297927,-0.337173,0.00401987,0.0414841,671,1114,-58.9023,-0.453009
-546,-90,-58.912,0.589722,0.00182349,-0.00178421,-0.00266148,0.00323482,-0.00319553,-0.487576,0.00371259,0.0406371,678,1114,-58.912,-0.589693
-539,-90,-58.9636,0.421509,0.000889161,-0.00186525,-0.00319652,0.00299254,-0.00396862,-0.581993,0.00403218,0.0399335,685,1114,-58.9636,-0.421522
-532,-90,-58.9385,0.0532227,-7.4004e-05,-0.00198825,-0.00364701,0.00273939,-0.00480164,-0.657072,0.00440775,0.0424315,692,1114,-58.9385,-0.0532034
-525,-90,0,0,0,0,0,0,0,0,0,-1,699,1114,0,0
-518,-90,0,0,0,0,0,0,0,0,0,-1,706,1114,0,0
-511,-90,0,0,0,0,0,0,0,0,0,-1,713,1114,0,0
-504,-90,0,0,0,0,0,0,0,0,0,-1,720,1114,0,0
-497,-90,0,0,0,0,0,0,0,0,0,-1,727,1114,0,0
-490,-90,0,0,0,0,0,0,0,0,0,-1,734,1114,0,0
-483,-90,0,0,0,0,0,0,0,0,0,-1,741,1114,0,0
-476,-90,0,0,0,0,0,0,0,0,0,-1,748,1114,0,0
-469,-90,0,0,0,0,0,0,0,0,0,-1,755,1114,0,0
-462,-90,0,0,0,0,0,0,0,0,0,-1,762,1114,0,0
-455,-90,0,0,0,0,0,0,0,0,0,-1,769,1114,0,0
-448,-90,0,0,0,0,0,0,0,0,0,-1,776,1114,0,0
-441,-90,0,0,0,0,0,0,0,0,0,-1,783,1114,0,0
-434,-90,0,0,0,0,0,0,0,0,0,-1,790,1114,0,0
-427,-90,0,0,0,0,0,0,0,0,0,-1,797,1114,0,0
-420,-90,0,0,0,0,0,0,0,0,0,-1,804,1114,0,0
-413,-90,0,0,0,0,0,0,0,0,0,-1,811,1114,0,0
-406,-90,0,0,0,0,0,0,0,0,0,-1,818,1114,0,0
-399,-90,0,0,0,0,0,0,0,0,0,-1,825,1114,0,0
-392,-90,0,0,0,0,0,0,0,0,0,-1,832,1114,0,0
-385,-90,0,0,0,0,0,0,0,0,0,-1,839,1114,0,0
-378,-90,0,0,0,0,0,0,0,0,0,-1,846,1114,0,0
-371,-90,0,0,0,0,0,0,0,0,0,-1,853,1114,0,0
-364,-90,0,0,0,0,0,0,0,0,0,-1,860,1114,0,0
-357,-90,0,0,0,0,0,0,0,0,0,-1,867,1114,0,0
-350,-90,0,0,0,0,0,0,0,0,0,-1,874,1114,0,0
-343,-90,0,0,0,0,0,0,0,0,0,-1,881,1114,0,0
-336,-90,0,0,0,0,0,0,0,0,0,-1,888,1114,0,0
-329,-90,0,0,0,0,0,0,0,0,0,-1,895,1114,0,0
-322,-90,0,0,0,0,0,0,0,0,0,-1,902,1114,0,0
-315,-90,0,0,0,0,0,0,0,0,0,-1,909,1114,0,0
-308,-90,0,0,0,0,0,0,0,0,0,-1,916,1114,0,0
-301,-90,0,0,0,0,0,0,0,0,0,-1,923,1114,0,0
-294,-90,0,0,0,0,0,0,0,0,0,-1,930,1114,0,0
-287,-90,0,0,0,0,0,0,0,0,0,-1,937,1114,0,0
-280,-90,0,0,0,0,0,0,0,0,0,-1,944,1114,0,0
-273,-90,0,0,0,0,0,0,0,0,0,-1,951,1114,0,0
-266,-90,0,0,0,0,0,0,0,0,0,-1,958,1114,0,0
-259,-90,0,0,0,0,0,0,0,0,0,-1,965,1114,0,0
-252,-90,0,0,0,0,0,0,0,0,0,-1,972,1114,0,0
-245,-90,0,0,0,0,0,0,0,0,0,-1,979,1114,0,0
-238,-90,0,0,0,0,0,0,0,0,0,-1,986,1114,0,0
-231,-90,0,0,0,0,0,0,0,0,0,-1,993,1114,0,0
-224,-90,0,0,0,0,0,0,0,0,0,-1,1000,1114,0,0
-217,-90,0,0,0,0,0,0,0,0,0,-1,1007,1114,0,0
-210,-90,0,0,0,0,0,0,0,0,0,-1,1014,1114,0,0
-203,-90,0,0,0,0,0,0,0,0,0,-1,1021,1114,0,0
-196,-90,0,0,0,0,0,0,0,0,0,-1,1028,1114,0,0
-189,-90,0,0,0,0,0,0,0,0,0,-1,1035,1114,0,0
-182,-90,0,0,0,0,0,0,0,0,0,-1,1042,1114,0,0
-175,-90,0,0,0,0,0,0,0,0,0,-1,1049,1114,0,0
-168,-90,0,0,0,0,0,0,0,0,0,-1,1056,1114,0,0
-161,-90,0,0,0,0,0,0,0,0,0,-1,1063,1114,0,0
-154,-90,0,0,0,0,0,0,0,0,0,-1,1070,1114,0,0
-147,-90,0,0,0,0,0,0,0,0,0,-1,1077,1114,0,0
-140,-90,0,0,0,0,0,0,0,0,0,-1,1084,1114,0,0
-133,-90,0,0,0,0,0,0,0,0,0,-1,1091,1114,0,0
-126,-90,0,0,0,0,0,0,0,0,0,-1,1098,1114,0,0
-119,-90,0,0,0,0,0,0,0,0,0,-1,1105,1114,0,0
-112,-90,0,0,0,0,0,0,0,0,0,-1,1112,1114,0,0
-105,-90,0,0,0,0,0,0,0,0,0,-1,1119,1114,0,0
-98,-90,0,0,0,0,0,0,0,0,0,-1,1126,1114,0,0
-91,-90,0,0,0,0,0,0,0,0,0,-1,1133,1114,0,0
-84,-90,0,0,0,0,0,0,0,0,0,-1,1140,1114,0,0
-77,-90,0,0,0,0,0,0,0,0,0,-1,1147,1114,0,0
-70,-90,0,0,0,0,0,0,0,0,0,-1,1154,1114,0,0
-63,-90,0,0,0,0,0,0,0,0,0,-1,1161,1114,0,0
-56,-90,0,0,0,0,0,0,0,0,0,-1,1168,1114,0,0
-49,-90,0,0,0,0,0,0,0,0,0,-1,1175,1114,0,0
-42,-90,0,0,0,0,0,0,0,0,0,-1,1182,1114,0,0
-35,-90,0,0,0,0,0,0,0,0,0,-1,1189,1114,0,0
-28,-90,0,0,0,0,0,0,0,0,0,-1,1196,1114,0,0
-21,-90,0,0,0,0,0,0,0,0,0,-1,1203,1114,0,0
-14,-90,0,0,0,0,0,0,0,0,0,-1,1210,1114,0,0
-7,-90,0,0,0,0,0,0,0,0,0,-1,1217,1114,0,0
0,-90,0,0,0,0,0,0,0,0,0,-1,1224,1114,0,0
7,-90,0,0,0,0,0,0,0,0,0,-1,1231,1114,0,0
14,-90,0,0,0,0,0,0,0,0,0,-1,1238,1114,0,0
21,-90,0,0,0,0,0,0,0,0,0,-1,1245,1114,0,0
28,-90,0,0,0,0,0,0,0,0,0,-1,1252,1114,0,0
35,-90,0,0,0,0,0,0,0,0,0,-1,1259,1114,0,0
42,-90,0,0,0,0,0,0,0,0,0,-1,1266,1114,0,0
49,-90,0,0,0,0,0,0,0,0,0,-1,1273,1114,0,0
56,-90,0,0,0,0,0,0,0,0,0,-1,1280,1114,0,0
63,-90,0,0,0,0,0,0,0,0,0,-1,1287,1114,0,0
70,-90,0,0,0,0,0,0,0,0,0,-1,1294,1114,0,0
77,-90,0,0,0,0,0,0,0,0,0,-1,1301,1114,0,0
84,-90,0,0,0,0,0,0,0,0,0,-1,1308,1114,0,0
91,-90,0,0,0,0,0,0,0,0,0,-1,1315,1114,0,0
98,-90,0,0,0,0,0,0,0,0,0,-1,1322,1114,0,0
105,-90,0,0,0,0,0,0,0,0,0,-1,1329,1114,0,0
112,-90,0,0,0,0,0,0,0,0,0,-1,1336,1114,0,0
119,-90,0,0,0,0,0,0,0,0,0,-1,1343,1114,0,0
126,-90,0,0,0,0,0,0,0,0,0,-1,1350,1114,0,0
133,-90,0,0,0,0,0,0,0,0,0,-1,1357,1114,0,0
140,-90,0,0,0,0,0,0,0,0,0,-1,1364,1114,0,0
147,-90,0,0,0,0,0,0,0,0,0,-1,1371,1114,0,0
154,-90,0,0,0,0,0,0,0,0,0,-1,1378,1114,0,0
161,-90,0,0,0,0,0,0,0,0,0,-1,1385,1114,0,0
168,-90,0,0,0,0,0,0,0,0,0,-1,1392,1114,0,0
175,-90,0,0,0,0,0,0,0,0,0,-1,1399,1114,0,0
182,-90,0,0,0,0,0,0,0,0,0,-1,1406,1114,0,0
189,-90,0,0,0,0,0,0,0,0,0,-1,1413,1114,0,0
196,-90,0,0,0,0,0,0,0,0,0,-1,1420,1114,0,0
203,-90,0,0,0,0,0,0,0,0,0,-1,1427,1114,0,0
210,-90,0,0,0,0,0,0,0,0,0,-1,1434,1114,0,0
217,-90,0,0,0,0,0,0,0,0,0,-1,1441,1114,0,0
224,-90,0,0,0,0,0,0,0,0,0,-1,1448,1114,0,0
231,-90,0,0,0,0,0,0,0,0,0,-1,1455,1114,0,0
238,-90,0,0,0,0,0,0,0,0,0,-1,1462,1114,0,0
245,-90,0,0,0,0,0,0,0,0,0,-1,1469,1114,0,0
252,-90,0,0,0,0,0,0,0,0,0,-1,1476,1114,0,0
259,-90,0,0,0,0,0,0,0,0,0,-1,1483,1114,0,0
266,-90,0,0,0,0,0,0,0,0,0,-1,1490,1114,0,0
273,-90,0,0,0,0,0,0,0,0,0,-1,1497,1114,0,0
280,-90,0,0,0,0,0,0,0,0,0,-1,1504,1114,0,0
287,-90,0,0,0,0,0,0,0,0,0,-1,1511,1114,0,0
294,-90,0,0,0,0,0,0,0,0,0,-1,1518,1114,0,0
301,-90,0,0,0,0,0,0,0,0,0,-1,1525,1114,0,0
308,-90,0,0,0,0,0,0,0,0,0,-1,1532,1114,0,0
315,-90,0,0,0,0,0,0,0,0,0,-1,1539,1114,0,0
322,-90,0,0,0,0,0,0,0,0,0,-1,1546,1114,0,0
329,-90,0,0,0,0,0,0,0,0,0,-1,1553,1114,0,0
336,-90,0,0,0,0,0,0,0,0,0,-1,1560,1114,0,0
343,-90,0,0,0,0,0,0,0,0,0,-1,1567,1114,0,0
350,-90,0,0,0,0,0,0,0,0,0,-1,1574,1114,0,0
357,-90,0,0,0,0,0,0,0,0,0,-1,1581,1114,0,0
364,-90,0,0,0,0,0,0,0,0,0,-1,1588,1114,0,0
371,-90,0,0,0,0,0,0,0,0,0,-1,1595,1114,0,0
378,-90,0,0,0,0,0,0,0,0,0,-1,1602,1114,0,0
385,-90,0,0,0,0,0,0,0,0,0,-1,1609,1114,0,0
392,-90,0,0,0,0,0,0,0,0,0,-1,1616,1114,0,0
399,-90,0,0,0,0,0,0,0,0,0,-1,1623,1114,0,0
406,-90,0,0,0,0,0,0,0,0,0,-1,1630,1114,0,0
413,-90,0,0,0,0,0,0,0,0,0,-1,1637,1114,0,0
420,-90,0,0,0,0,0,0,0,0,0,-1,1644,1114,0,0
427,-90,0,0,0,0,0,0,0,0,0,-1,1651,1114,0,0
434,-90,0,0,0,0,0,0,0,0,0,-1,1658,1114,0,0
441,-90,0,0,0,0,0,0,0,0,0,-1,1665,1114,0,0
448,-90,0,0,0,0,0,0,0,0,0,-1,1672,1114,0,0
455,-90,0,0,0,0,0,0,0,0,0,-1,1679,1114,0,0
462,-90,0,0,0,0,0,0,0,0,0,-1,1686,1114,0,0
469,-90,0,0,0,0,0,0,0,0,0,-1,1693,1114,0,0
476,-90,0,0,0,0,0,0,0,0,0,-1,1700,1114,0,0
483,-90,0,0,0,0,0,0,0,0,0,-1,1707,1114,0,0
490,-90,0,0,0,0,0,0,0,0,0,-1,1714,1114,0,0
497,-90,0,0,0,0,0,0,0,0,0,-1,1721,1114,0,0
504,-90,0,0,0,0,0,0,0,0,0,-1,1728,1114,0,0
511,-90,0,0,0,0,0,0,0,0,0,-1,1735,1114,0,0
518,-90,0,0,0,0,0,0,0,0,0,-1,1742,1114,0,0
525,-90,0,0,0,0,0,0,0,0,0,-1,1749,1114,0,0
532,-90,0,0,0,0,0,0,0,0,0,-1,1756,1114,0,0
539,-90,0,0,0,0,0,0,0,0,0,-1,1763,1114,0,0
546,-90,0,0,0,0,0,0,0,0,0,-1,1770,1114,0,0
553,-90,0,0,0,0,0,0,0,0,0,-1,1777,1114,0,0
560,-90,0,0,0,0,0,0,0,0,0,-1,1784,1114,0,0
567,-90,0,0,0,0,0,0,0,0,0,-1,1791,1114,0,0
574,-90,0,0,0,0,0,0,0,0,0,-1,1798,1114,0,0
581,-90,0,0,0,0,0,0,0,0,0,-1,1805,1114,0,0
588,-90,0,0,0,0,0,0,0,0,0,-1,1812,1114,0,0
595,-90,0,0,0,0,0,0,0,0,0,-1,1819,1114,0,0
602,-90,0,0,0,0,0,0,0,0,0,-1,1826,1114,0,0
609,-90,0,0,0,0,0,0,0,0,0,-1,1833,1114,0,0
616,-90,0,0,0,0,0,0,0,0,0,-1,1840,1114,0,0
623,-90,0,0,0,0,0,0,0,0,0,-1,1847,1114,0,0
630,-90,0,0,0,0,0,0,0,0,0,-1,1854,1114,0,0
637,-90,0,0,0,0,0,0,0,0,0,-1,1861,1114,0,0
644,-90,75.1188,2.08972,0.00432255,0.00242585,-0.00157361,0.00521148,0.00153692,-0.514212,0.00309207,0.0360232,1868,1114,75.1188,-2.0897
651,-90,75.1305,2.02893,0.002914,0.00207908,-0.00112932,0.00370055,0.00129253,-0.60836,0.00216863,0.0405011,1875,1114,75.1305,-2.02898
658,-90,75.1534,1.95605,0.00196909,0.00170915,-0.000866781,0.00271559,0.000962646,-0.710978,0.00158982,0.0430115,1882,1114,75.1535,-1.95601
665,-90,75.1975,2.04272,0.00131347,0.00140733,-0.000715582,0.00207752,0.000643279,-0.818144,0.00122809,0.042627,1889,1114,75.1975,-2.04276
672,-90,75.198,2.11438,0.000821913,0.00115038,-0.000682611,0.00168824,0.000284056,-0.903453,0.00104377,0.0422659,1896,1114,75.198,-2.1144
679,-90,75.2095,2.12195,0.000647582,0.000825408,-0.000693431,0.0014356,3.73864e-05,-0.849161,0.000944853,0.0392884,1903,1114,75.2095,-2.12195
686,-90,75.2527,2.11035,0.000505727,0.000236276,-0.000621794,0.00100722,-0.000265221,-0.678711,0.000775164,0.0347139,1910,1114,75.2527,-2.1104
693,-90,75.2029,2.03503,0.000549896,-0.000256759,-0.000469405,0.00076545,-0.000472313,-0.430484,0.000721272,0.034628,1917,1114,75.2029,-2.03503
700,-90,75.136,2.0155,0.000621436,-0.00056489,-0.000237509,0.00066722,-0.000610673,-0.19043,0.000738033,0.0343809,1924,1114,75.1359,-2.01556
707,-90,75.1853,1.95215,0.000473159,-0.000626175,0.00011851,0.000485789,-0.000638805,0.106177,0.000651285,0.0278168,1931,1114,75.1852,-1.95219
714,-90,75.2407,1.86914,0,0,0,0,0,0,0,-1,1938,1114,75.2407,-1.86913
721,-90,63.521,8.76965,0,0,0,0,0,0,0,-1,1945,1114,63.521,-8.7697
728,-90,70.5254,8.80188,0,0,0,0,0,0,0,-1,1952,1114,70.5254,-8.80192
735,-90,70.2234,8.42578,0,0,0,0,0,0,0,-1,1959,1114,70.2234,-8.42583
742,-90,70.3452,7.6803,-0.00132977,0.00153832,0.00161156,0.0022615,-0.00205294,1.14899,0.00249191,0.0378784,1966,1114,70.3452,-7.68032
749,-90,70.702,6.95801,-0.00217831,0.00323382,0.00209732,0.00395143,-0.00289592,1.24113,0.00396895,0.023968,1973,1114,70.702,-6.95798
756,-90,70.6101,6.48169,-0.0032552,0.00575301,0.00247608,0.00638874,-0.00389094,1.31947,0.00599309,0.0195227,1980,1114,70.6101,-6.48172
763,-90,70.5242,5.9751,-0.00454723,0.00987116,0.0028656,0.0104198,-0.00509588,1.38162,0.00913208,0.014053,1987,1114,70.5241,-5.97511
770,-90,70.4404,5.43457,-0.0060988,0.0155279,0.00326091,0.0160089,-0.00657979,1.42435,0.013415,0.0182618,1994,1114,70.4405,-5.43451
777,-90,70.3088,4.92505,-0.00792211,0.0221053,0.00382118,0.022584,-0.00840075,1.44619,0.0185032,0.0176711,2001,1114,70.3087,-4.92501
784,-90,70.1851,4.41125,-0.00987672,0.0293086,0.0046819,0.0298602,-0.0104284,1.45351,0.0241456,0.030176,2008,1114,70.185,-4.41126
791,-90,70.1462,3.8894,-0.0118568,0.0372152,0.00594399,0.037925,-0.0125666,1.45196,0.0303521,0.0438734,2015,1114,70.1461,-3.88938
798,-90,70.2791,3.31323,-0.013811,0.0459264,0.00776189,0.0469185,-0.014803,1.44367,0.0372082,0.0470743,2022,1114,70.2791,-3.31318
805,-90,70.4099,2.66724,-0.0153891,0.0553018,0.0103366,0.0567822,-0.0168695,1.42854,0.0445556,0.0451835,2029,1114,70.41,-2.66727
812,-90,70.5149,2.0625,-0.0163067,0.0650908,0.014072,0.0674549,-0.0186708,1.40435,0.0523162,0.0489439,2036,1114,70.515,-2.0625
-700,-97,0,0,0,0,0,0,0,0,0,-1,524,1121,0,0
-693,-97,-52.8828,-2.00745,0,0,0,0,0,0,0,-1,531,1121,-52.8828,2.0075
-686,-97,-52.8419,-1.3125,-0.0314723,0.086872,0.0145791,0.0886415,-0.0332419,1.45001,0.0727521,0.0489256,538,1121,-52.8419,1.31248
-679,-97,-52.8293,-0.756958,-0.0250648,0.0756184,0.0159613,0.0780882,-0.0275345,1.41728,0.0632668,0.047849,545,1121,-52.8293,0.756919
-672,-97,-53.0425,-0.0928955,-0.0201096,0.0643821,0.015525,0.0671445,-0.0228719,1.39471,0.0540256,0.0444801,552,1121,-53.0425,0.0928653
-665,-97,-53.8463,0.727905,-0.0163335,0.0537605,0.0140256,0.0564628,-0.0190358,1.38046,0.0453394,0.0473703,559,1121,-53.8462,-0.727855
-658,-97,-53.9316,2.03174,0,0,0,0,0,0,0,-1,566,1121,-53.9317,-2.03172
-651,-97,-54.0143,2.84534,-0.0106442,0.0347426,0.00939742,0.0366114,-0.012513,1.37449,0.0294776,0.0378985,573,1121,-54.0143,-2.84532
-644,-97,-54.1383,3.49023,-0.00828804,0.0264633,0.00670413,0.0277118,-0.00953652,1.38668,0.0223424,0.0158472,580,1121,-54.1383,-3.49022
-637,-97,-54.1856,4.1333,-0.00560848,0.0181776,0.0047482,0.0190904,-0.00652129,1.38087,0.015369,0.0160764,587,1121,-54.1856,-4.13329
-630,-97,-54.237,4.72559,-0.00375212,0.0112872,0.0025442,0.011706,-0.00417086,1.40767,0.00950439,0.0121087,594,1121,-54.237,-4.72564
-623,-97,-54.2909,5.26843,-0.00202672,0.0051893,0.000296689,0.00520148,-0.0020389,1.52977,0.00431111,0.0154893,601,1121,-54.2909,-5.26838
-616,-97,-54.379,5.93396,-0.000124568,0.000839168,-0.000272017,0.000910644,-0.000196045,-1.31384,0.000681904,0.0221439,608,1121,-54.379,-5.934
-609,-97,-54.4521,6.578,0.00170274,-0.00034831,-0.000363239,0.00176517,-0.000410739,-0.170205,0.00133492,0.0307123,615,1121,-54.4521,-6.57795
-602,-97,-54.5043,7.08813,0.00262687,-0.000815875,-0.000174738,0.00263571,-0.000824721,-0.0505823,0.00208709,0.0315661,622,1121,-54.5043,-7.08816
-595,-97,-54.5177,7.75317,0.00284379,-0.00109027,-0.000190892,0.00285303,-0.00109951,-0.0483715,0.00235567,0.028757,629,1121,-54.5177,-7.75319
-588,-97,-54.9045,8.36523,0,0,0,0,0,0,0,-1,636,1121,-54.9046,-8.36528
-581,-97,-51.2355,3.23926,0,0,0,0,0,0,0,-1,643,1121,-51.2355,-3.23926
-574,-97,-58.9521,0.246826,0,0,0,0,0,0,0,-1,650,1121,-58.9521,-0.246887
-567,-97,-58.9872,0.250854,0.00453812,-0.00268935,-0.00071827,0.00460882,-0.00276004,-0.098102,0.00429881,0.035341,657,1121,-58.9872,-0.250841
-560,-97,-58.9394,0.403687,0.004438,-0.00265427,-0.00114907,0.00461952,-0.00283579,-0.156679,0.0043452,0.0403432,664,1121,-58.9394,-0.403677
-553,-97,-58.6727,0.277344,0.00335939,-0.00241357,-0.00167754,0.00381146,-0.00286564,-0.26323,0.00386789,0.0444834,671,1121,-58.6727,-0.277368
-546,-97,-58.7512,0.547485,0.00183658,-0.00210281,-0.00230551,0.00289922,-0.00316546,-0.431893,0.00350257,0.0436309,678,1121,-58.7512,-0.547543
-539,-97,-58.8448,0.31897,0.000801294,-0.00232894,-0.00290275,0.00253399,-0.00406164,-0.538148,0.00384188,0.041182,685,1121,-58.8448,-0.31898
-532,-97,-58.8849,-0.00683594,-0.000201809,-0.00272373,-0.00338919,0.00215339,-0.00507893,-0.607305,0.00428794,0.0394042,692,1121,-58.885,0.00681729
-525,-97,0,0,0,0,0,0,0,0,0,-1,699,1121,0,0
-518,-97,0,0,0,0,0,0,0,0,0,-1,706,1121,0,0
-511,-97,0,0,0,0,0,0,0,0,0,-1,713,1121,0,0
-504,-97,0,0,0,0,0,0,0,0,0,-1,720,1121,0,0
-497,-97,0,0,0,0,0,0,0,0,0,-1,727,1121,0,0
-490,-97,0,0,0,0,0,0,0,0,0,-1,734,1121,0,0
-483,-97,0,0,0,0,0,0,0,0,0,-1,741,1121,0,0
-476,-97,0,0,0,0,0,0,0,0,0,-1,748,1121,0,0
-469,-97,0,0,0,0,0,0,0,0,0,-1,755,1121,0,0
-462,-97,0,0,0,0,0,0,0,0,0,-1,762,1121,0,0
-455,-97,0,0,0,0,0,0,0,0,0,-1,769,1121,0,0
-448,-97,0,0,0,0,0,0,0,0,0,-1,776,1121,0,0
-441,-97,0,0,0,0,0,0,0,0,0,-1,783,1121,0,0
-434,-97,0,0,0,0,0,0,0,0,0,-1,790,1121,0,0
-427,-97,0,0,0,0,0,0,0,0,0,-1,797,1121,0,0
-420,-97,0,0,0,0,0,0,0,0,0,-1,804,1121,0,0
-413,-97,0,0,0,0,0,0,0,0,0,-1,811,1121,0,0
-406,-97,0,0,0,0,0,0,0,0,0,-1,818,1121,0,0
-399,-97,0,0,0,0,0,0,0,0,0,-1,825,1121,0,0
-392,-97,0,0,0,0,0,0,0,0,0,-1,832,1121,0,0
-385,-97,0,0,0,0,0,0,0,0,0,-1,839,1121,0,0
-378,-97,0,0,0,0,0,0,0,0,0,-1,846,1121,0,0
-371,-97,0,0,0,0,0,0,0,0,0,-1,853,1121,0,0
-364,-97,0,0,0,0,0,0,0,0,0,-1,860,1121,0,0
-357,-97,0,0,0,0,0,0,0,0,0,-1,867,1121,0,0
-350,-97,0,0,0,0,0,0,0,0,0,-1,874,1121,0,0
-343,-97,0,0,0,0,0,0,0,0,0,-1,881,1121,0,0
-336,-97,0,0,0,0,0,0,0,0,0,-1,888,1121,0,0
-329,-97,0,0,0,0,0,0,0,0,0,-1,895,1121,0,0
-322,-97,0,0,0,0,0,0,0,0,0,-1,902,1121,0,0
-315,-97,0,0,0,0,0,0,0,0,0,-1,909,1121,0,0
-308,-97,0,0,0,0,0,0,0,0,0,-1,916,1121,0,0
-301,-97,0,0,0,0,0,0,0,0,0,-1,923,1121,0,0
-294,-97,0,0,0,0,0,0,0,0,0,-1,930,1121,0,0
-287,-97,0,0,0,0,0,0,0,0,0,-1,937,1121,0,0
-280,-97,0,0,0,0,0,0,0,0,0,-1,944,1121,0,0
-273,-97,0,0,0,0,0,0,0,0,0,-1,951,1121,0,0
-266,-97,0,0,0,0,0,0,0,0,0,-1,958,1121,0,0
-259,-97,0,0,0,0,0,0,0,0,0,-1,965,1121,0,0
-252,-97,0,0,0,0,0,0,0,0,0,-1,972,1121,0,0
-245,-97,0,0,0,0,0,0,0,0,0,-1,979,1121,0,0
-238,-97,0,0,0,0,0,0,0,0,0,-1,986,1121,0,0
-231,-97,0,0,0,0,0,0,0,0,0,-1,993,1121,0,0
-224,-97,0,0,0,0,0,0,0,0,0,-1,1000,1121,0,0
-217,-97,0,0,0,0,0,0,0,0,0,-1,1007,1121,0,0
-210,-97,0,0,0,0,0,0,0,0,0,-1,1014,1121,0,0
-203,-97,0,0,0,0,0,0,0,0,0,-1,1021,1121,0,0
-196,-97,0,0,0,0,0,0,0,0,0,-1,1028,1121,0,0
-189,-97,0,0,0,0,0,0,0,0,0,-1,1035,1121,0,0
-182,-97,0,0,0,0,0,0,0,0,0,-1,1042,1121,0,0
-175,-97,0,0,0,0,0,0,0,0,0,-1,1049,1121,0,0
-168,-97,0,0,0,0,0,0,0,0,0,-1,1056,1121,0,0
-161,-97,0,0,0,0,0,0,0,0,0,-1,1063,1121,0,0
-154,-97,0,0,0,0,0,0,0,0,0,-1,1070,1121,0,0
-147,-97,0,0,0,0,0,0,0,0,0,-1,1077,1121,0,0
-140,-97,0,0,0,0,0,0,0,0,0,-1,1084,1121,0,0
-133,-97,0,0,0,0,0,0,0,0,0,-1,1091,1121,0,0
-126,-97,0,0,0,0,0,0,0,0,0,-1,1098,1121,0,0
-119,-97,0,0,0,0,0,0,0,0,0,-1,1105,1121,0,0
-112,-97,0,0,0,0,0,0,0,0,0,-1,1112,1121,0,0
-105,-97,0,0,0,0,0,0,0,0,0,-1,1119,1121,0,0
-98,-97,0,0,0,0,0,0,0,0,0,-1,1126,1121,0,0
-91,-97,0,0,0,0,0,0,0,0,0,-1,1133,1121,0,0
-84,-97,0,0,0,0,0,0,0,0,0,-1,1140,1121,0,0
-77,-97,0,0,0,0,0,0,0,0,0,-1,1147,1121,0,0
-70,-97,0,0,0,0,0,0,0,0,0,-1,1154,1121,0,0
-63,-97,0,0,0,0,0,0,0,0,0,-1,1161,1121,0,0
-56,-97,0,0,0,0,0,0,0,0,0,-1,1168,1121,0,0
-49,-97,0,0,0,0,0,0,0,0,0,-1,1175,1121,0,0
-42,-97,0,0,0,0,0,0,0,0,0,-1,1182,1121,0,0
-35,-97,0,0,0,0,0,0,0,0,0,-1,1189,1121,0,0
-28,-97,0,0,0,0,0,0,0,0,0,-1,1196,1121,0,0
-21,-97,0,0,0,0,0,0,0,0,0,-1,1203,1121,0,0
-14,-97,0,0,0,0,0,0,0,0,0,-1,1210,1121,0,0
-7,-97,0,0,0,0,0,0,0,0,0,-1,1217,1121,0,0
0,-97,0,0,0,0,0,0,0,0,0,-1,1224,1121,0,0
7,-97,0,0,0,0,0,0,0,0,0,-1,1231,1121,0,0
14,-97,0,0,0,0,0,0,0,0,0,-1,1238,1121,0,0
21,-97,0,0,0,0,0,0,0,0,0,-1,1245,1121,0,0
28,-97,0,0,0,0,0,0,0,0,0,-1,1252,1121,0,0
35,-97,0,0,0,0,0,0,0,0,0,-1,1259,1121,0,0
42,-97,0,0,0,0,0,0,0,0,0,-1,1266,1121,0,0
49,-97,0,0,0,0,0,0,0,0,0,-1,1273,1121,0,0
56,-97,0,0,0,0,0,0,0,0,0,-1,1280,1121,0,0
63,-97,0,0,0,0,0,0,0,0,0,-1,1287,1121,0,0
70,-97,0,0,0,0,0,0,0,0,0,-1,1294,1121,0,0
77,-97,0,0,0,0,0,0,0,0,0,-1,1301,1121,0,0
84,-97,0,0,0,0,0,0,0,0,0,-1,1308,1121,0,0
91,-97,0,0,0,0,0,0,0,0,0,-1,1315,1121,0,0
98,-97,0,0,0,0,0,0,0,0,0,-1,1322,1121,0,0
105,-97,0,0,0,0,0,0,0,0,0,-1,1329,1121,0,0
112,-97,0,0,0,0,0,0,0,0,0,-1,1336,1121,0,0
119,-97,0,0,0,0,0,0,0,0,0,-1,1343,1121,0,0
126,-97,0,0,0,0,0,0,0,0,0,-1,1350,1121,0,0
133,-97,0,0,0,0,0,0,0,0,0,-1,1357,1121,0,0
140,-97,0,0,0,0,0,0,0,0,0,-1,1364,1121,0,0
147,-97,0,0,0,0,0,0,0,0,0,-1,1371,1121,0,0
154,-97,0,0,0,0,0,0,0,0,0,-1,1378,1121,0,0
161,-97,0,0,0,0,0,0,0,0,0,-1,1385,1121,0,0
168,-97,0,0,0,0,0,0,0,0,0,-1,1392,1121,0,0
175,-97,0,0,0,0,0,0,0,0,0,-1,1399,1121,0,0
182,-97,0,0,0,0,0,0,0,0,0,-1,1406,1121,0,0
189,-97,0,0,0,0,0,0,0,0,0,-1,1413,1121,0,0
196,-97,0,0,0,0,0,0,0,0,0,-1,1420,1121,0,0
203,-97,0,0,0,0,0,0,0,0,0,-1,1427,1121,0,0
210,-97,0,0,0,0,0,0,0,0,0,-1,1434,1121,0,0
217,-97,0,0,0,0,0,0,0,0,0,-1,1441,1121,0,0
224,-97,0,0,0,0,0,0,0,0,0,-1,1448,1121,0,0
231,-97,0,0,0,0,0,0,0,0,0,-1,1455,1121,0,0
238,-97,0,0,0,0,0,0,0,0,0,-1,1462,1121,0,0
245,-97,0,0,0,0,0,0,0,0,0,-1,1469,1121,0,0
252,-97,0,0,0,0,0,0,0,0,0,-1,1476,1121,0,0
259,-97,0,0,0,0,0,0,0,0,0,-1,1483,1121,0,0
266,-97,0,0,0,0,0,0,0,0,0,-1,1490,1121,0,0
273,-97,0,0,0,0,0,0,0,0,0,-1,1497,1121,0,0
280,-97,0,0,0,0,0,0,0,0,0,-1,1504,1121,0,0
287,-97,0,0,0,0,0,0,0,0,0,-1,1511,1121,0,0
294,-97,0,0,0,0,0,0,0,0,0,-1,1518,1121,0,0
301,-97,0,0,0,0,0,0,0,0,0,-1,1525,1121,0,0
308,-97,0,0,0,0,0,0,0,0,0,-1,1532,1121,0,0
315,-97,0,0,0,0,0,0,0,0,0,-1,1539,1121,0,0
322,-97,0,0,0,0,0,0,0,0,0,-1,1546,1121,0,0
329,-97,0,0,0,0,0,0,0,0,0,-1,1553,1121,0,0
336,-97,0,0,0,0,0,0,0,0,0,-1,1560,1121,0,0
343,-97,0,0,0,0,0,0,0,0,0,-1,1567,1121,0,0
350,-97,0,0,0,0,0,0,0,0,0,-1,1574,1121,0,0
357,-97,0,0,0,0,0,0,0,0,0,-1,1581,1121,0,0
364,-97,0,0,0,0,0,0,0,0,0,-1,1588,1121,0,0
371,-97,0,0,0,0,0,0,0,0,0,-1,1595,1121,0,0
378,-97,0,0,0,0,0,0,0,0,0,-1,1602,1121,0,0
385,-97,0,0,0,0,0,0,0,0,0,-1,1609,1121,0,0
392,-97,0,0,0,0,0,0,0,0,0,-1,1616,1121,0,0
399,-97,0,0,0,0,0,0,0,0,0,-1,1623,1121,0,0
406,-97,0,0,0,0,0,0,0,0,0,-1,1630,1121,0,0
413,-97,0,0,0,0,0,0,0,0,0,-1,1637,1121,0,0
420,-97,0,0,0,0,0,0,0,0,0,-1,1644,1121,0,0
427,-97,0,0,0,0,0,0,0,0,0,-1,1651,1121,0,0
434,-97,0,0,0,0,0,0,0,0,0,-1,1658,1121,0,0
441,-97,0,0,0,0,0,0,0,0,0,-1,1665,1121,0,0
448,-97,0,0,0,0,0,0,0,0,0,-1,1672,1121,0,0
455,-97,0,0,0,0,0,0,0,0,0,-1,1679,1121,0,0
462,-97,0,0,0,0,0,0,0,0,0,-1,1686,1121,0,0
469,-97,0,0,0,0,0,0,0,0,0,-1,1693,1121,0,0
476,-97,0,0,0,0,0,0,0,0,0,-1,1700,1121,0,0
483,-97,0,0,0,0,0,0,0,0,0,-1,1707,1121,0,0
490,-97,0,0,0,0,0,0,0,0,0,-1,1714,1121,0,0
497,-97,0,0,0,0,0,0,0,0,0,-1,1721,1121,0,0
504,-97,0,0,0,0,0,0,0,0,0,-1,1728,1121,0,0
511,-97,0,0,0,0,0,0,0,0,0,-1,1735,1121,0,0
518,-97,0,0,0,0,0,0,0,0,0,-1,1742,1121,0,0
525,-97,0,0,0,0,0,0,0,0,0,-1,1749,1121,0,0
532,-97,0,0,0,0,0,0,0,0,0,-1,1756,1121,0,0
539,-97,0,0,0,0,0,0,0,0,0,-1,1763,1121,0,0
546,-97,0,0,0,0,0,0,0,0,0,-1,1770,1121,0,0
553,-97,0,0,0,0,0,0,0,0,0,-1,1777,1121,0,0
560,-97,0,0,0,0,0,0,0,0,0,-1,1784,1121,0,0
567,-97,0,0,0,0,0,0,0,0,0,-1,1791,1121,0,0
574,-97,0,0,0,0,0,0,0,0,0,-1,1798,1121,0,0
581,-97,0,0,0,0,0,0,0,0,0,-1,1805,1121,0,0
588,-97,0,0,0,0,0,0,0,0,0,-1,1812,1121,0,0
595,-97,0,0,0,0,0,0,0,0,0,-1,1819,1121,0,0
602,-97,0,0,0,0,0,0,0,0,0,-1,1826,1121,0,0
609,-97,0,0,0,0,0,0,0,0,0,-1,1833,1121,0,0
616,-97,0,0,0,0,0,0,0,0,0,-1,1840,1121,0,0
623,-97,0,0,0,0,0,0,0,0,0,-1,1847,1121,0,0
630,-97,0,0,0,0,0,0,0,0,0,-1,1854,1121,0,0
637,-97,0,0,0,0,0,0,0,0,0,-1,1861,1121,0,0
644,-97,75.0952,2.13,0.00470107,0.00223428,-0.00161212,0.0054975,0.00143784,-0.458858,0.0032921,0.0374549,1868,1121,75.0952,-2.13
651,-97,75.1769,2.10913,0.00310156,0.00186131,-0.00109975,0.00374398,0.00121889,-0.528682,0.002205,0.0388332,1875,1121,75.1769,-2.10911
658,-97,75.1914,2.03113,0.00199248,0.00150913,-0.000797843,0.00258445,0.000917161,-0.638335,0.00151294,0.0427978,1882,1121,75.1914,-2.03118
665,-97,75.2625,2.06372,0.00118195,0.00121845,-0.000608842,0.00180931,0.000591084,-0.800378,0.00106532,0.0449514,1889,1121,75.2624,-2.06372
672,-97,75.2739,2.17957,0.000567591,0.000968132,-0.000539778,0.00134359,0.000192128,-0.963038,0.000839051,0.0426892,1896,1121,75.2739,-2.17961
679,-97,75.1917,2.19031,0.000363901,0.00061662,-0.000506958,0.00101273,-3.22078e-05,-0.907535,0.000686141,0.0422166,1903,1121,75.1916,-2.19031
686,-97,75.2084,2.06885,0.000312283,9.81536e-05,-0.000431645,0.000649944,-0.000239507,-0.663832,0.000531437,0.0374891,1910,1121,75.2084,-2.06883
693,-97,75.1975,2.0094,0.00043682,-0.000328698,-0.000292184,0.000535596,-0.000427474,-0.326,0.000557196,0.0337446,1917,1121,75.1975,-2.00937
700,-97,75.1414,2.00012,0.000561123,-0.00060154,-9.41995e-05,0.000568705,-0.000609123,-0.0803223,0.000680153,0.0311812,1924,1121,75.1413,-2.00015
707,-97,75.1783,1.99548,0.000476884,-0.000651274,0.000218936,0.000517882,-0.000692272,0.185116,0.000701097,0.029989,1931,1121,75.1784,-1.99547
714,-97,75.2036,1.88855,0,0,0,0,0,0,0,-1,1938,1121,75.2036,-1.8885
721,-97,70.0646,9.12354,0,0,0,0,0,0,0,-1,1945,1121,70.0645,-9.12359
728,-97,70.0253,8.79102,-0.000368983,0.000125607,0.00113968,0.00104451,-0.00128789,0.892235,0.00134905,0.0413781,1952,1121,70.0253,-8.79102
735,-97,69.9497,8.19055,-0.000423522,0.000544729,0.00127087,0.00142056,-0.00129936,0.967382,0.00157087,0.0311475,1959,1121,69.9497,-8.19057
742,-97,69.9034,7.63379,-0.000734306,0.00129659,0.00160735,0.00218239,-0.0016201,1.06712,0.00220335,0.026764,1966,1121,69.9035,-7.63381
749,-97,69.9921,7.03186,-0.00172417,0.00300735,0.00213629,0.00382915,-0.00254597,1.20356,0.00370545,0.0257361,1973,1121,69.9921,-7.03184
756,-97,70.0088,6.45056,-0.00314609,0.00559414,0.00254879,0.0062831,-0.00383505,1.3068,0.00589844,0.0179949,1980,1121,70.0088,-6.45052
763,-97,69.8799,5.95947,-0.00520526,0.00995661,0.00298544,0.0105233,-0.00577193,1.38322,0.00954042,0.0148124,1987,1121,69.8798,-5.95948
770,-97,69.7974,5.45703,-0.00801639,0.0158628,0.00349751,0.0163645,-0.00851812,1.42832,0.0146022,0.0141181,1994,1121,69.7974,-5.45706
777,-97,69.7253,4.89331,-0.0114935,0.022722,0.00418378,0.0232261,-0.0119977,1.45087,0.020678,0.0187056,2001,1121,69.7253,-4.89326
784,-97,69.6689,4.30237,-0.0155254,0.0303291,0.00513455,0.030897,-0.0160933,1.46064,0.027575,0.0375579,2008,1121,69.6689,-4.30236
791,-97,69.6677,3.703,-0.0201265,0.0388592,0.00644372,0.0395549,-0.0208222,1.46324,0.0354136,0.0456886,2015,1121,69.6676,-3.70301
798,-97,69.6755,2.90503,-0.0253876,0.048422,0.00822018,0.0493264,-0.0262921,1.46122,0.0443284,0.0477811,2022,1121,69.6754,-2.90497
805,-97,69.7632,2.07568,-0.0310999,0.0589207,0.0105968,0.0601513,-0.0323305,1.45519,0.0541937,0.0450724,2029,1121,69.7632,-2.07565
812,-97,69.9768,1.56677,-0.0370026,0.0701657,0.0138734,0.0719325,-0.0387695,1.44412,0.0648628,0.0493888,2036,1121,69.9769,-1.5668
-700,-104,0,0,0,0,0,0,0,0,0,-1,524,1128,0,0
-693,-104,-52.0305,-0.689209,0,0,0,0,0,0,0,-1,531,1128,-52.0306,0.689227
-686,-104,-52.4796,-1.50977,0,0,0,0,0,0,0,-1,538,1128,-52.4796,1.50977
-679,-104,-52.5093,-0.963745,-0.0287607,0.091119,0.00704245,0.0915313,-0.029173,1.51232,0.0727226,0.0493647,545,1128,-52.5093,0.963762
-672,-104,-52.8906,-0.393555,-0.0240541,0.076751,0.00830612,0.0774308,-0.0247339,1.48913,0.0615448,0.0492746,552,1128,-52.8906,0.393611
-665,-104,-53.9697,0.14502,-0.0201062,0.063229,0.00827919,0.0640435,-0.0209208,1.47273,0.0511168,0.0472742,559,1128,-53.9697,-0.14496
-658,-104,-53.3937,2.24292,0,0,0,0,0,0,0,-1,566,1128,-53.3937,-2.24292
-651,-104,-53.4125,2.82935,-0.0135127,0.0394395,0.00596075,0.0401022,-0.0141754,1.46007,0.032507,0.0488226,573,1128,-53.4125,-2.82936
-644,-104,-53.4617,3.495,-0.010546,0.0293374,0.00423853,0.0297829,-0.0109914,1.46608,0.0243602,0.0178084,580,1128,-53.4617,-3.49495
-637,-104,-53.5128,4.12292,-0.00749714,0.0197849,0.00298308,0.0201073,-0.00781951,1.46315,0.0166357,0.0140361,587,1128,-53.5128,-4.12293
-630,-104,-53.5573,4.66309,-0.00506576,0.0116885,0.0015434,0.0118294,-0.00520675,1.4797,0.0100805,0.0199831,594,1128,-53.5573,-4.66312
-623,-104,-53.6649,5.28345,-0.00257557,0.0047871,-6.0463e-05,0.0047876,-0.00257606,-1.56258,0.00431485,0.0217673,601,1128,-53.6649,-5.28349
-616,-104,-54.0153,6.03784,-0.000349213,0.000580334,-0.000167395,0.00060956,-0.000378439,-1.39795,0.0005756,0.0319681,608,1128,-54.0152,-6.03789
-609,-104,-54.179,6.56519,0.00142254,-0.000235725,-7.79972e-05,0.0014262,-0.000239385,-0.0468973,0.00103982,0.043182,615,1128,-54.179,-6.56515
-602,-104,-53.9642,7.21106,0.00209247,-0.000546859,0.0001137,0.00209736,-0.000551748,0.042973,0.0016139,0.0373508,622,1128,-53.9642,-7.21108
-595,-104,-53.7844,7.89929,0.00219525,-0.000701061,0.00010697,0.0021992,-0.000705006,0.0368661,0.00174915,0.0299865,629,1128,-53.7844,-7.89925
-588,-104,-54.0344,8.71082,0,0,0,0,0,0,0,-1,636,1128,-54.0344,-8.71078
-581,-104,-23.9373,2.85864,0,0,0,0,0,0,0,-1,643,1128,-23.9373,-2.85861
-574,-104,-58.8723,0.186401,0,0,0,0,0,0,0,-1,650,1128,-58.8723,-0.186443
-567,-104,-58.9076,0.267456,0.00407827,-0.00252277,-4.39059e-06,0.00407827,-0.00252277,-0.000665136,0.00384623,0.0360264,657,1128,-58.9076,-0.267439
-560,-104,-58.9099,0.481079,0.00417607,-0.00260241,-0.000407095,0.00420043,-0.00262677,-0.0597707,0.00397644,0.0434307,664,1128,-58.9099,-0.481087
-553,-104,-58.8408,0.230103,0.00309764,-0.00247732,-0.00100244,0.00327241,-0.00265209,-0.172611,0.00342676,0.0495012,671,1128,-58.8408,-0.230108
-546,-104,-58.8677,0.310303,0.00143141,-0.00234048,-0.00178217,0.00214026,-0.00304932,-0.378558,0.00301149,0.0469362,678,1128,-58.8678,-0.31029
-539,-104,-58.8643,0.222168,0.000317919,-0.00279445,-0.00247036,0.00168139,-0.00415792,-0.504325,0.00347092,0.0424404,685,1128,-58.8643,-0.222212
-532,-104,-58.8907,0.0115967,-0.000669,-0.00351468,-0.00302672,0.00125263,-0.00543631,-0.565679,0.00410594,0.04097,692,1128,-58.8907,-0.0115982
-525,-104,-58.957,0.246582,-0.00181811,-0.00428019,-0.00338801,0.000555582,-0.00665388,-0.611139,0.00463223,0.0390865,699,1128,-58.957,-0.246571
-518,-104,0,0,0,0,0,0,0,0,0,-1,706,1128,0,0
-511,-104,0,0,0,0,0,0,0,0,0,-1,713,1128,0,0
-504,-104,0,0,0,0,0,0,0,0,0,-1,720,1128,0,0
-497,-104,0,0,0,0,0,0,0,0,0,-1,727,1128,0,0
-490,-104,0,0,0,0,0,0,0,0,0,-1,734,1128,0,0
-483,-104,0,0,0,0,0,0,0,0,0,-1,741,1128,0,0
-476,-104,0,0,0,0,0,0,0,0,0,-1,748,1128,0,0
-469,-104,0,0,0,0,0,0,0,0,0,-1,755,1128,0,0
-462,-104,0,0,0,0,0,0,0,0,0,-1,762,1128,0,0
-455,-104,0,0,0,0,0,0,0,0,0,-1,769,1128,0,0
-448,-104,0,0,0,0,0,0,0,0,0,-1,776,1128,0,0
-441,-104,0,0,0,0,0,0,0,0,0,-1,783,1128,0,0
-434,-104,0,0,0,0,0,0,0,0,0,-1,790,1128,0,0
-427,-104,0,0,0,0,0,0,0,0,0,-1,797,1128,0,0
-420,-104,0,0,0,0,0,0,0,0,0,-1,804,1128,0,0
-413,-104,0,0,0,0,0,0,0,0,0,-1,811,1128,0,0
-406,-104,0,0,0,0,0,0,0,0,0,-1,818,1128,0,0
-399,-104,0,0,0,0,0,0,0,0,0,-1,825,1128,0,0
-392,-104,0,0,0,0,0,0,0,0,0,-1,832,1128,0,0
-385,-104,0,0,0,0,0,0,0,0,0,-1,839,1128,0,0
-378,-104,0,0,0,0,0,0,0,0,0,-1,846,1128,0,0
-371,-104,0,0,0,0,0,0,0,0,0,-1,853,1128,0,0
-364,-104,0,0,0,0,0,0,0,0,0,-1,860,1128,0,0
-357,-104,0,0,0,0,0,0,0,0,0,-1,867,1128,0,0
-350,-104,0,0,0,0,0,0,0,0,0,-1,874,1128,0,0
-343,-104,0,0,0,0,0,0,0,0,0,-1,881,1128,0,0
-336,-104,0,0,0,0,0,0,0,0,0,-1,888,1128,0,0
-329,-104,0,0,0,0,0,0,0,0,0,-1,895,1128,0,0
-322,-104,0,0,0,0,0,0,0,0,0,-1,902,1128,0,0
-315,-104,0,0,0,0,0,0,0,0,0,-1,909,1128,0,0
-308,-104,0,0,0,0,0,0,0,0,0,-1,916,1128,0,0
-301,-104,0,0,0,0,0,0,0,0,0,-1,923,1128,0,0
-294,-104,0,0,0,0,0,0,0,0,0,-1,930,1128,0,0
-287,-104,0,0,0,0,0,0,0,0,0,-1,937,1128,0,0
-280,-104,0,0,0,0,0,0,0,0,0,-1,944,1128,0,0
-273,-104,0,0,0,0,0,0,0,0,0,-1,951,1128,0,0
-266,-104,0,0,0,0,0,0,0,0,0,-1,958,1128,0,0
-259,-104,0,0,0,0,0,0,0,0,0,-1,965,1128,0,0
-252,-104,0,0,0,0,0,0,0,0,0,-1,972,1128,0,0
-245,-104,0,0,0,0,0,0,0,0,0,-1,979,1128,0,0
-238,-104,0,0,0,0,0,0,0,0,0,-1,986,1128,0,0
-231,-104,0,0,0,0,0,0,0,0,0,-1,993,1128,0,0
-224,-104,0,0,0,0,0,0,0,0,0,-1,1000,1128,0,0
-217,-104,0,0,0,0,0,0,0,0,0,-1,1007,1128,0,0
-210,-104,0,0,0,0,0,0,0,0,0,-1,1014,1128,0,0
-203,-104,0,0,0,0,0,0,0,0,0,-1,1021,1128,0,0
-196,-104,0,0,0,0,0,0,0,0,0,-1,1028,1128,0,0
-189,-104,0,0,0,0,0,0,0,0,0,-1,1035,1128,0,0
-182,-104,0,0,0,0,0,0,0,0,0,-1,1042,1128,0,0
-175,-104,0,0,0,0,0,0,0,0,0,-1,1049,1128,0,0
-168,-104,0,0,0,0,0,0,0,0,0,-1,1056,1128,0,0
-161,-104,0,0,0,0,0,0,0,0,0,-1,1063,1128,0,0
-154,-104,0,0,0,0,0,0,0,0,0,-1,1070,1128,0,0
-147,-104,0,0,0,0,0,0,0,0,0,-1,1077,1128,0,0
-140,-104,0,0,0,0,0,0,0,0,0,-1,1084,1128,0,0
-133,-104,0,0,0,0,0,0,0,0,0,-1,1091,1128,0,0
-126,-104,0,0,0,0,0,0,0,0,0,-1,1098,1128,0,0
-119,-104,0,0,0,0,0,0,0,0,0,-1,1105,1128,0,0
-112,-104,0,0,0,0,0,0,0,0,0,-1,1112,1128,0,0
-105,-104,0,0,0,0,0,0,0,0,0,-1,1119,1128,0,0
-98,-104,0,0,0,0,0,0,0,0,0,-1,1126,1128,0,0
-91,-104,0,0,0,0,0,0,0,0,0,-1,1133,1128,0,0
-84,-104,0,0,0,0,0,0,0,0,0,-1,1140,1128,0,0
-77,-104,0,0,0,0,0,0,0,0,0,-1,1147,1128,0,0
-70,-104,0,0,0,0,0,0,0,0,0,-1,1154,1128,0,0
-63,-104,0,0,0,0,0,0,0,0,0,-1,1161,1128,0,0
-56,-104,0,0,0,0,0,0,0,0,0,-1,1168,1128,0,0
-49,-104,0,0,0,0,0,0,0,0,0,-1,1175,1128,0,0
-42,-104,0,0,0,0,0,0,0,0,0,-1,1182,1128,0,0
-35,-104,0,0,0,0,0,0,0,0,0,-1,1189,1128,0,0
-28,-104,0,0,0,0,0,0,0,0,0,-1,1196,1128,0,0
-21,-104,0,0,0,0,0,0,0,0,0,-1,1203,1128,0,0
-14,-104,0,0,0,0,0,0,0,0,0,-1,1210,1128,0,0
-7,-104,0,0,0,0,0,0,0,0,0,-1,1217,1128,0,0
0,-104,0,0,0,0,0,0,0,0,0,-1,1224,1128,0,0
7,-104,0,0,0,0,0,0,0,0,0,-1,1231,1128,0,0
14,-104,0,0,0,0,0,0,0,0,0,-1,1238,1128,0,0
21,-104,0,0,0,0,0,0,0,0,0,-1,1245,1128,0,0
28,-104,0,0,0,0,0,0,0,0,0,-1,1252,1128,0,0
35,-104,0,0,0,0,0,0,0,0,0,-1,1259,1128,0,0
42,-104,0,0,0,0,0,0,0,0,0,-1,1266,1128,0,0
49,-104,0,0,0,0,0,0,0,0,0,-1,1273,1128,0,0
56,-104,0,0,0,0,0,0,0,0,0,-1,1280,1128,0,0
63,-104,0,0,0,0,0,0,0,0,0,-1,1287,1128,0,0
70,-104,0,0,0,0,0,0,0,0,0,-1,1294,1128,0,0
77,-104,0,0,0,0,0,0,0,0,0,-1,1301,1128,0,0
84,-104,0,0,0,0,0,0,0,0,0,-1,1308,1128,0,0
91,-104,0,0,0,0,0,0,0,0,0,-1,1315,1128,0,0
98,-104,0,0,0,0,0,0,0,0,0,-1,1322,1128,0,0
105,-104,0,0,0,0,0,0,0,0,0,-1,1329,1128,0,0
112,-104,0,0,0,0,0,0,0,0,0,-1,1336,1128,0,0
119,-104,0,0,0,0,0,0,0,0,0,-1,1343,1128,0,0
126,-104,0,0,0,0,0,0,0,0,0,-1,1350,1128,0,0
133,-104,0,0,0,0,0,0,0,0,0,-1,1357,1128,0,0
140,-104,0,0,0,0,0,0,0,0,0,-1,1364,1128,0,0
147,-104,0,0,0,0,0,0,0,0,0,-1,1371,1128,0,0
154,-104,0,0,0,0,0,0,0,0,0,-1,1378,1128,0,0
161,-104,0,0,0,0,0,0,0,0,0,-1,1385,1128,0,0
168,-104,0,0,0,0,0,0,0,0,0,-1,1392,1128,0,0
175,-104,0,0,0,0,0,0,0,0,0,-1,1399,1128,0,0
182,-104,0,0,0,0,0,0,0,0,0,-1,1406,1128,0,0
189,-104,0,0,0,0,0,0,0,0,0,-1,1413,1128,0,0
196,-104,0,0,0,0,0,0,0,0,0,-1,1420,1128,0,0
203,-104,0,0,0,0,0,0,0,0,0,-1,1427,1128,0,0
210,-104,0,0,0,0,0,0,0,0,0,-1,1434,1128,0,0
217,-104,0,0,0,0,0,0,0,0,0,-1,1441,1128,0,0
224,-104,0,0,0,0,0,0,0,0,0,-1,1448,1128,0,0
231,-104,0,0,0,0,0,0,0,0,0,-1,1455,1128,0,0
238,-104,0,0,0,0,0,0,0,0,0,-1,1462,1128,0,0
245,-104,0,0,0,0,0,0,0,0,0,-1,1469,1128,0,0
252,-104,0,0,0,0,0,0,0,0,0,-1,1476,1128,0,0
259,-104,0,0,0,0,0,0,0,0,0,-1,1483,1128,0,0
266,-104,0,0,0,0,0,0,0,0,0,-1,1490,1128,0,0
273,-104,0,0,0,0,0,0,0,0,0,-1,1497,1128,0,0
280,-104,0,0,0,0,0,0,0,0,0,-1,1504,1128,0,0
287,-104,0,0,0,0,0,0,0,0,0,-1,1511,1128,0,0
294,-104,0,0,0,0,0,0,0,0,0,-1,1518,1128,0,0
301,-104,0,0,0,0,0,0,0,0,0,-1,1525,1128,0,0
308,-104,0,0,0,0,0,0,0,0,0,-1,1532,1128,0,0
315,-104,0,0,0,0,0,0,0,0,0,-1,1539,1128,0,0
322,-104,0,0,0,0,0,0,0,0,0,-1,1546,1128,0,0
329,-104,0,0,0,0,0,0,0,0,0,-1,1553,1128,0,0
336,-104,0,0,0,0,0,0,0,0,0,-1,1560,1128,0,0
343,-104,0,0,0,0,0,0,0,0,0,-1,1567,1128,0,0
350,-104,0,0,0,0,0,0,0,0,0,-1,1574,1128,0,0
357,-104,0,0,0,0,0,0,0,0,0,-1,1581,1128,0,0
364,-104,0,0,0,0,0,0,0,0,0,-1,1588,1128,0,0
371,-104,0,0,0,0,0,0,0,0,0,-1,1595,1128,0,0
378,-104,0,0,0,0,0,0,0,0,0,-1,1602,1128,0,0
385,-104,0,0,0,0,0,0,0,0,0,-1,1609,1128,0,0
392,-104,0,0,0,0,0,0,0,0,0,-1,1616,1128,0,0
399,-104,0,0,0,0,0,0,0,0,0,-1,1623,1128,0,0
406,-104,0,0,0,0,0,0,0,0,0,-1,1630,1128,0,0
413,-104,0,0,0,0,0,0,0,0,0,-1,1637,1128,0,0
420,-104,0,0,0,0,0,0,0,0,0,-1,1644,1128,0,0
427,-104,0,0,0,0,0,0,0,0,0,-1,1651,1128,0,0
434,-104,0,0,0,0,0,0,0,0,0,-1,1658,1128,0,0
441,-104,0,0,0,0,0,0,0,0,0,-1,1665,1128,0,0
448,-104,0,0,0,0,0,0,0,0,0,-1,1672,1128,0,0
455,-104,0,0,0,0,0,0,0,0,0,-1,1679,1128,0,0
462,-104,0,0,0,0,0,0,0,0,0,-1,1686,1128,0,0
469,-104,0,0,0,0,0,0,0,0,0,-1,1693,1128,0,0
476,-104,0,0,0,0,0,0,0,0,0,-1,1700,1128,0,0
483,-104,0,0,0,0,0,0,0,0,0,-1,1707,1128,0,0
490,-104,0,0,0,0,0,0,0,0,0,-1,1714,1128,0,0
497,-104,0,0,0,0,0,0,0,0,0,-1,1721,1128,0,0
504,-104,0,0,0,0,0,0,0,0,0,-1,1728,1128,0,0
511,-104,0,0,0,0,0,0,0,0,0,-1,1735,1128,0,0
518,-104,0,0,0,0,0,0,0,0,0,-1,1742,1128,0,0
525,-104,0,0,0,0,0,0,0,0,0,-1,1749,1128,0,0
532,-104,0,0,0,0,0,0,0,0,0,-1,1756,1128,0,0
539,-104,0,0,0,0,0,0,0,0,0,-1,1763,1128,0,0
546,-104,0,0,0,0,0,0,0,0,0,-1,1770,1128,0,0
553,-104,0,0,0,0,0,0,0,0,0,-1,1777,1128,0,0
560,-104,0,0,0,0,0,0,0,0,0,-1,1784,1128,0,0
567,-104,0,0,0,0,0,0,0,0,0,-1,1791,1128,0,0
574,-104,0,0,0,0,0,0,0,0,0,-1,1798,1128,0,0
581,-104,0,0,0,0,0,0,0,0,0,-1,1805,1128,0,0
588,-104,0,0,0,0,0,0,0,0,0,-1,1812,1128,0,0
595,-104,0,0,0,0,0,0,0,0,0,-1,1819,1128,0,0
602,-104,0,0,0,0,0,0,0,0,0,-1,1826,1128,0,0
609,-104,0,0,0,0,0,0,0,0,0,-1,1833,1128,0,0
616,-104,0,0,0,0,0,0,0,0,0,-1,1840,1128,0,0
623,-104,0,0,0,0,0,0,0,0,0,-1,1847,1128,0,0
630,-104,0,0,0,0,0,0,0,0,0,-1,1854,1128,0,0
637,-104,0,0,0,0,0,0,0,0,0,-1,1861,1128,0,0
644,-104,75.1326,2.1543,0.00462462,0.00196504,-0.00137513,0.00520777,0.0013819,-0.401079,0.00311512,0.0400997,1868,1128,75.1325,-2.1543
651,-104,75.2247,2.18958,0.00299201,0.00157154,-0.00083186,0.00337559,0.00118796,-0.432053,0.00197718,0.0400441,1875,1128,75.2247,-2.18952
658,-104,75.2821,2.07666,0.00181909,0.00127622,-0.000522378,0.00213634,0.000958964,-0.545791,0.00123557,0.044644,1882,1128,75.2821,-2.07666
665,-104,75.3273,1.98779,0.000926717,0.00103787,-0.000327867,0.00131484,0.000649748,-0.869352,0.000759138,0.0491762,1889,1128,75.3273,-1.98778
672,-104,75.2502,2.10522,0.000242924,0.000848881,-0.00025709,0.000943258,0.000148547,-1.21897,0.000585637,0.0462865,1896,1128,75.2503,-2.10523
679,-104,75.1293,2.1167,4.66253e-05,0.000518692,-0.000204854,0.000595191,-2.98743e-05,-1.2134,0.000407118,0.0438426,1903,1128,75.1293,-2.11675
686,-104,75.0823,2.09509,9.49293e-05,8.87426e-05,-0.000139347,0.000231217,-4.75451e-05,-0.774301,0.000172195,0.0414768,1910,1128,75.0823,-2.09511
693,-104,75.1941,1.99219,0.000287889,-0.000256723,-1.0143e-05,0.000288078,-0.000256912,-0.0186157,0.000314821,0.0367468,1917,1128,75.1941,-1.99216
700,-104,75.1881,2.01453,0.000451957,-0.000485507,0.000165982,0.000480478,-0.000514027,0.170165,0.000574287,0.0293628,1924,1128,75.1881,-2.01457
707,-104,75.2156,2.05212,0,0,0,0,0,0,0,-1,1931,1128,75.2156,-2.05209
714,-104,45.5221,2.32166,0,0,0,0,0,0,0,-1,1938,1128,45.5221,-2.3216
721,-104,69.2734,9.53186,0,0,0,0,0,0,0,-1,1945,1128,69.2735,-9.5318
728,-104,69.546,8.76929,-2.2154e-05,0.00021771,0.00123703,0.00134061,-0.00114506,0.833723,0.00143658,0.045565,1952,1128,69.5461,-8.7693
735,-104,69.635,8.17285,4.86346e-05,0.00051836,0.001366,0.00166954,-0.00110254,0.870533,0.00161158,0.0408009,1959,1128,69.635,-8.17279
742,-104,69.4113,7.64502,-0.000231024,0.00112645,0.00171298,0.00229026,-0.00139484,0.974025,0.00214843,0.0267067,1966,1128,69.4113,-7.64497
749,-104,69.321,7.0874,-0.00132171,0.00279791,0.00229705,0.00382343,-0.00234723,1.1509,0.00359645,0.0232467,1973,1128,69.3211,-7.08745
756,-104,69.3225,6.49158,-0.00307058,0.00544733,0.00278315,0.00627606,-0.00389932,1.28139,0.00592794,0.0180511,1980,1128,69.3225,-6.49163
763,-104,69.2261,5.95215,-0.00584011,0.0100034,0.00330687,0.0106659,-0.00650262,1.37307,0.0100089,0.0193923,1987,1128,69.2262,-5.95209
770,-104,69.1357,5.45081,-0.00969168,0.0160405,0.0039693,0.0166388,-0.01029,1.42117,0.0156908,0.0176438,1994,1128,69.1357,-5.45076
777,-104,69.0164,4.82703,-0.0145508,0.0230803,0.00481557,0.0236868,-0.0151573,1.44552,0.0226061,0.0265663,2001,1128,69.0163,-4.827
784,-104,68.9573,4.15784,-0.0203608,0.0309682,0.00590044,0.0316378,-0.0210304,1.45781,0.0306128,0.0426393,2008,1128,68.9572,-4.15783
791,-104,68.9824,3.41321,-0.0273404,0.0399351,0.00731512,0.0407213,-0.0281266,1.46373,0.0399704,0.0462274,2015,1128,68.9823,-3.41326
798,-104,68.6521,2.59387,0,0,0,0,0,0,0,-1,2022,1128,68.652,-2.59391
805,-104,69.0415,1.36218,0,0,0,0,0,0,0,-1,2029,1128,69.0415,-1.36222
812,-104,69.7913,0.933105,0,0,0,0,0,0,0,-1,2036,1128,69.7913,-0.933085
-700,-111,0,0,0,0,0,0,0,0,0,-1,524,1135,0,0
-693,-111,-51.8448,-1.43689,-0.0376104,0.139647,-0.016207,0.141117,-0.0390801,-1.48036,0.109456,0.0486951,531,1135,-51.8449,1.43692
-686,-111,-52.0363,-1.66309,-0.0338197,0.12527,-0.00686283,0.125566,-0.0341152,-1.52776,0.0971008,0.0495707,538,1135,-52.0363,1.66306
-679,-111,-52.2934,-1.88159,-0.029943,0.107601,-0.00157769,0.107619,-0.0299611,-1.55933,0.0835436,0.0469993,545,1135,-52.2934,1.88155
-672,-111,-52.6997,-1.04944,-0.0258946,0.0898943,0.0014104,0.0899115,-0.0259118,1.55862,0.0701911,0.0497105,552,1135,-52.6997,1.04945
-665,-111,-54.1876,-0.150513,0,0,0,0,0,0,0,-1,559,1135,-54.1876,0.150564
-658,-111,-53.1594,2.9082,0,0,0,0,0,0,0,-1,566,1135,-53.1593,-2.90815
-651,-111,-52.5961,2.73071,0,0,0,0,0,0,0,-1,573,1135,-52.5961,-2.73066
-644,-111,-52.7137,3.4408,-0.0118727,0.0320036,0.00209561,0.0321035,-0.0119726,1.52318,0.0263172,0.0300438,580,1135,-52.7137,-3.44079
-637,-111,-52.8379,4.12512,-0.00869181,0.0211135,0.00147473,0.0211863,-0.0087646,1.52148,0.017781,0.0140056,587,1135,-52.8379,-4.12509
-630,-111,-52.8958,4.64478,-0.00590031,0.0118261,0.000661703,0.0118508,-0.00592498,1.53354,0.0104512,0.0295414,594,1135,-52.8958,-4.64477
-623,-111,-52.9449,5.36145,-0.00295655,0.00426219,-0.0004502,0.00429016,-0.00298452,-1.50875,0.00422253,0.0259184,601,1135,-52.9449,-5.3614
-616,-111,-53.3064,5.97754,-0.000726329,0.000460008,-0.000181758,0.00048723,-0.000753552,-1.42213,0.000721845,0.0321927,608,1135,-53.3064,-5.97756
-609,-111,-53.5209,6.55408,0.000741296,-2.94395e-05,0.000110295,0.000756769,-4.49124e-05,0.139377,0.00052013,0.0394977,615,1135,-53.5209,-6.55404
-602,-111,-53.5026,7.22693,0.00125563,-0.000222309,0.000238256,0.00129309,-0.000259768,0.155946,0.000960434,0.0481727,622,1135,-53.5026,-7.22694
-595,-111,-53.077,7.94739,0.00123874,-0.00026149,0.000194712,0.0012636,-0.00028635,0.126986,0.000952307,0.0272093,629,1135,-53.077,-7.9474
-588,-111,-52.6553,8.84717,0,0,0,0,0,0,0,-1,636,1135,-52.6553,-8.84723
-581,-111,-21.0555,3.14551,0,0,0,0,0,0,0,-1,643,1135,-21.0555,-3.14548
-574,-111,-58.9141,0.351074,0,0,0,0,0,0,0,-1,650,1135,-58.9141,-0.351036
-567,-111,-58.9231,0.435059,0.00310585,-0.00225533,0.000709368,0.00319812,-0.0023476,0.129351,0.00321435,0.03874,657,1135,-58.9231,-0.435039
-560,-111,-58.9604,0.557617,0.0034995,-0.00248093,0.000445035,0.00353244,-0.00251387,0.0738729,0.00350731,0.0419586,664,1135,-58.9604,-0.557637
-553,-111,-58.9692,0.349976,0.0025901,-0.00248582,-0.000125651,0.0025932,-0.00248893,-0.0247342,0.00293438,0.0467105,671,1135,-58.9692,-0.349927
-546,-111,-58.9092,0.159058,0.000932574,-0.00256173,-0.00100464,0.00120082,-0.00282998,-0.260922,0.0023897,0.0426274,678,1135,-58.9093,-0.15905
-539,-111,-58.8631,0.103394,-0.000119831,-0.00327952,-0.00171016,0.00062853,-0.00402788,-0.412492,0.00291742,0.0425922,685,1135,-58.8631,-0.10341
-532,-111,-58.8098,0.24231,-0.000981066,-0.00434493,-0.00224414,0.000141472,-0.00546746,-0.463815,0.00369304,0.0420252,692,1135,-58.8098,-0.242254
-525,-111,-58.9196,0.4198,-0.00203022,-0.00551475,-0.00256498,-0.000671742,-0.00687323,-0.487066,0.00437546,0.0397053,699,1135,-58.9195,-0.419853
-518,-111,0,0,0,0,0,0,0,0,0,-1,706,1135,0,0
-511,-111,0,0,0,0,0,0,0,0,0,-1,713,1135,0,0
-504,-111,0,0,0,0,0,0,0,0,0,-1,720,1135,0,0
-497,-111,0,0,0,0,0,0,0,0,0,-1,727,1135,0,0
-490,-111,0,0,0,0,0,0,0,0,0,-1,734,1135,0,0
-483,-111,0,0,0,0,0,0,0,0,0,-1,741,1135,0,0
-476,-111,0,0,0,0,0,0,0,0,0,-1,748,1135,0,0
-469,-111,0,0,0,0,0,0,0,0,0,-1,755,1135,0,0
-462,-111,0,0,0,0,0,0,0,0,0,-1,762,1135,0,0
-455,-111,0,0,0,0,0,0,0,0,0,-1,769,1135,0,0
-448,-111,0,0,0,0,0,0,0,0,0,-1,776,1135,0,0
-441,-111,0,0,0,0,0,0,0,0,0,-1,783,1135,0,0
-434,-111,0,0,0,0,0,0,0,0,0,-1,790,1135,0,0
-427,-111,0,0,0,0,0,0,0,0,0,-1,797,1135,0,0
-420,-111,0,0,0,0,0,0,0,0,0,-1,804,1135,0,0
-413,-111,0,0,0,0,0,0,0,0,0,-1,811,1135,0,0
-406,-111,0,0,0,0,0,0,0,0,0,-1,818,1135,0,0
-399,-111,0,0,0,0,0,0,0,0,0,-1,825,1135,0,0
-392,-111,0,0,0,0,0,0,0,0,0,-1,832,1135,0,0
-385,-111,0,0,0,0,0,0,0,0,0,-1,839,1135,0,0
-378,-111,0,0,0,0,0,0,0,0,0,-1,846,1135,0,0
-371,-111,0,0,0,0,0,0,0,0,0,-1,853,1135,0,0
-364,-111,0,0,0,0,0,0,0,0,0,-1,860,1135,0,0
-357,-111,0,0,0,0,0,0,0,0,0,-1,867,1135,0,0
-350,-111,0,0,0,0,0,0,0,0,0,-1,874,1135,0,0
-343,-111,0,0,0,0,0,0,0,0,0,-1,881,1135,0,0
-336,-111,0,0,0,0,0,0,0,0,0,-1,888,1135,0,0
-329,-111,0,0,0,0,0,0,0,0,0,-1,895,1135,0,0
-322,-111,0,0,0,0,0,0,0,0,0,-1,902,1135,0,0
-315,-111,0,0,0,0,0,0,0,0,0,-1,909,1135,0,0
-308,-111,0,0,0,0,0,0,0,0,0,-1,916,1135,0,0
-301,-111,0,0,0,0,0,0,0,0,0,-1,923,1135,0,0
-294,-111,0,0,0,0,0,0,0,0,0,-1,930,1135,0,0
-287,-111,0,0,0,0,0,0,0,0,0,-1,937,1135,0,0
-280,-111,0,0,0,0,0,0,0,0,0,-1,944,1135,0,0
-273,-111,0,0,0,0,0,0,0,0,0,-1,951,1135,0,0
-266,-111,0,0,0,0,0,0,0,0,0,-1,958,1135,0,0
-259,-111,0,0,0,0,0,0,0,0,0,-1,965,1135,0,0
-252,-111,0,0,0,0,0,0,0,0,0,-1,972,1135,0,0
-245,-111,0,0,0,0,0,0,0,0,0,-1,979,1135,0,0
-238,-111,0,0,0,0,0,0,0,0,0,-1,986,1135,0,0
-231,-111,0,0,0,0,0,0,0,0,0,-1,993,1135,0,0
-224,-111,0,0,0,0,0,0,0,0,0,-1,1000,1135,0,0
-217,-111,0,0,0,0,0,0,0,0,0,-1,1007,1135,0,0
-210,-111,0,0,0,0,0,0,0,0,0,-1,1014,1135,0,0
-203,-111,0,0,0,0,0,0,0,0,0,-1,1021,1135,0,0
-196,-111,0,0,0,0,0,0,0,0,0,-1,1028,1135,0,0
-189,-111,0,0,0,0,0,0,0,0,0,-1,1035,1135,0,0
-182,-111,0,0,0,0,0,0,0,0,0,-1,1042,1135,0,0
-175,-111,0,0,0,0,0,0,0,0,0,-1,1049,1135,0,0
-168,-111,0,0,0,0,0,0,0,0,0,-1,1056,1135,0,0
-161,-111,0,0,0,0,0,0,0,0,0,-1,1063,1135,0,0
-154,-111,0,0,0,0,0,0,0,0,0,-1,1070,1135,0,0
-147,-111,0,0,0,0,0,0,0,0,0,-1,1077,1135,0,0
-140,-111,0,0,0,0,0,0,0,0,0,-1,1084,1135,0,0
-133,-111,0,0,0,0,0,0,0,0,0,-1,1091,1135,0,0
-126,-111,0,0,0,0,0,0,0,0,0,-1,1098,1135,0,0
-119,-111,0,0,0,0,0,0,0,0,0,-1,1105,1135,0,0
-112,-111,0,0,0,0,0,0,0,0,0,-1,1112,1135,0,0
-105,-111,0,0,0,0,0,0,0,0,0,-1,1119,1135,0,0
-98,-111,0,0,0,0,0,0,0,0,0,-1,1126,1135,0,0
-91,-111,0,0,0,0,0,0,0,0,0,-1,1133,1135,0,0
-84,-111,0,0,0,0,0,0,0,0,0,-1,1140,1135,0,0
-77,-111,0,0,0,0,0,0,0,0,0,-1,1147,1135,0,0
-70,-111,0,0,0,0,0,0,0,0,0,-1,1154,1135,0,0
-63,-111,0,0,0,0,0,0,0,0,0,-1,1161,1135,0,0
-56,-111,0,0,0,0,0,0,0,0,0,-1,1168,1135,0,0
-49,-111,0,0,0,0,0,0,0,0,0,-1,1175,1135,0,0
-42,-111,0,0,0,0,0,0,0,0,0,-1,1182,1135,0,0
-35,-111,0,0,0,0,0,0,0,0,0,-1,1189,1135,0,0
-28,-111,0,0,0,0,0,0,0,0,0,-1,1196,1135,0,0
-21,-111,0,0,0,0,0,0,0,0,0,-1,1203,1135,0,0
-14,-111,0,0,0,0,0,0,0,0,0,-1,1210,1135,0,0
-7,-111,0,0,0,0,0,0,0,0,0,-1,1217,1135,0,0
0,-111,0,0,0,0,0,0,0,0,0,-1,1224,1135,0,0
7,-111,0,0,0,0,0,0,0,0,0,-1,1231,1135,0,0
14,-111,0,0,0,0,0,0,0,0,0,-1,1238,1135,0,0
21,-111,0,0,0,0,0,0,0,0,0,-1,1245,1135,0,0
28,-111,0,0,0,0,0,0,0,0,0,-1,1252,1135,0,0
35,-111,0,0,0,0,0,0,0,0,0,-1,1259,1135,0,0
42,-111,0,0,0,0,0,0,0,0,0,-1,1266,1135,0,0
49,-111,0,0,0,0,0,0,0,0,0,-1,1273,1135,0,0
56,-111,0,0,0,0,0,0,0,0,0,-1,1280,1135,0,0
63,-111,0,0,0,0,0,0,0,0,0,-1,1287,1135,0,0
70,-111,0,0,0,0,0,0,0,0,0,-1,1294,1135,0,0
77,-111,0,0,0,0,0,0,0,0,0,-1,1301,1135,0,0
84,-111,0,0,0,0,0,0,0,0,0,-1,1308,1135,0,0
91,-111,0,0,0,0,0,0,0,0,0,-1,1315,1135,0,0
98,-111,0,0,0,0,0,0,0,0,0,-1,1322,1135,0,0
105,-111,0,0,0,0,0,0,0,0,0,-1,1329,1135,0,0
112,-111,0,0,0,0,0,0,0,0,0,-1,1336,1135,0,0
119,-111,0,0,0,0,0,0,0,0,0,-1,1343,1135,0,0
126,-111,0,0,0,0,0,0,0,0,0,-1,1350,1135,0,0
133,-111,0,0,0,0,0,0,0,0,0,-1,1357,1135,0,0
140,-111,0,0,0,0,0,0,0,0,0,-1,1364,1135,0,0
147,-111,0,0,0,0,0,0,0,0,0,-1,1371,1135,0,0
154,-111,0,0,0,0,0,0,0,0,0,-1,1378,1135,0,0
161,-111,0,0,0,0,0,0,0,0,0,-1,1385,1135,0,0
168,-111,0,0,0,0,0,0,0,0,0,-1,1392,1135,0,0
175,-111,0,0,0,0,0,0,0,0,0,-1,1399,1135,0,0
182,-111,0,0,0,0,0,0,0,0,0,-1,1406,1135,0,0
189,-111,0,0,0,0,0,0,0,0,0,-1,1413,1135,0,0
196,-111,0,0,0,0,0,0,0,0,0,-1,1420,1135,0,0
203,-111,0,0,0,0,0,0,0,0,0,-1,1427,1135,0,0
210,-111,0,0,0,0,0,0,0,0,0,-1,1434,1135,0,0
217,-111,0,0,0,0,0,0,0,0,0,-1,1441,1135,0,0
224,-111,0,0,0,0,0,0,0,0,0,-1,1448,1135,0,0
231,-111,0,0,0,0,0,0,0,0,0,-1,1455,1135,0,0
238,-111,0,0,0,0,0,0,0,0,0,-1,1462,1135,0,0
245,-111,0,0,0,0,0,0,0,0,0,-1,1469,1135,0,0
252,-111,0,0,0,0,0,0,0,0,0,-1,1476,1135,0,0
259,-111,0,0,0,0,0,0,0,0,0,-1,1483,1135,0,0
266,-111,0,0,0,0,0,0,0,0,0,-1,1490,1135,0,0
273,-111,0,0,0,0,0,0,0,0,0,-1,1497,1135,0,0
280,-111,0,0,0,0,0,0,0,0,0,-1,1504,1135,0,0
287,-111,0,0,0,0,0,0,0,0,0,-1,1511,1135,0,0
294,-111,0,0,0,0,0,0,0,0,0,-1,1518,1135,0,0
301,-111,0,0,0,0,0,0,0,0,0,-1,1525,1135,0,0
308,-111,0,0,0,0,0,0,0,0,0,-1,1532,1135,0,0
315,-111,0,0,0,0,0,0,0,0,0,-1,1539,1135,0,0
322,-111,0,0,0,0,0,0,0,0,0,-1,1546,1135,0,0
329,-111,0,0,0,0,0,0,0,0,0,-1,1553,1135,0,0
336,-111,0,0,0,0,0,0,0,0,0,-1,1560,1135,0,0
343,-111,0,0,0,0,0,0,0,0,0,-1,1567,1135,0,0
350,-111,0,0,0,0,0,0,0,0,0,-1,1574,1135,0,0
357,-111,0,0,0,0,0,0,0,0,0,-1,1581,1135,0,0
364,-111,0,0,0,0,0,0,0,0,0,-1,1588,1135,0,0
371,-111,0,0,0,0,0,0,0,0,0,-1,1595,1135,0,0
378,-111,0,0,0,0,0,0,0,0,0,-1,1602,1135,0,0
385,-111,0,0,0,0,0,0,0,0,0,-1,1609,1135,0,0
392,-111,0,0,0,0,0,0,0,0,0,-1,1616,1135,0,0
399,-111,0,0,0,0,0,0,0,0,0,-1,1623,1135,0,0
406,-111,0,0,0,0,0,0,0,0,0,-1,1630,1135,0,0
413,-111,0,0,0,0,0,0,0,0,0,-1,1637,1135,0,0
420,-111,0,0,0,0,0,0,0,0,0,-1,1644,1135,0,0
427,-111,0,0,0,0,0,0,0,0,0,-1,1651,1135,0,0
434,-111,0,0,0,0,0,0,0,0,0,-1,1658,1135,0,0
441,-111,0,0,0,0,0,0,0,0,0,-1,1665,1135,0,0
448,-111,0,0,0,0,0,0,0,0,0,-1,1672,1135,0,0
455,-111,0,0,0,0,0,0,0,0,0,-1,1679,1135,0,0
462,-111,0,0,0,0,0,0,0,0,0,-1,1686,1135,0,0
469,-111,0,0,0,0,0,0,0,0,0,-1,1693,1135,0,0
476,-111,0,0,0,0,0,0,0,0,0,-1,1700,1135,0,0
483,-111,0,0,0,0,0,0,0,0,0,-1,1707,1135,0,0
490,-111,0,0,0,0,0,0,0,0,0,-1,1714,1135,0,0
497,-111,0,0,0,0,0,0,0,0,0,-1,1721,1135,0,0
504,-111,0,0,0,0,0,0,0,0,0,-1,1728,1135,0,0
511,-111,0,0,0,0,0,0,0,0,0,-1,1735,1135,0,0
518,-111,0,0,0,0,0,0,0,0,0,-1,1742,1135,0,0
525,-111,0,0,0,0,0,0,0,0,0,-1,1749,1135,0,0
532,-111,0,0,0,0,0,0,0,0,0,-1,1756,1135,0,0
539,-111,0,0,0,0,0,0,0,0,0,-1,1763,1135,0,0
546,-111,0,0,0,0,0,0,0,0,0,-1,1770,1135,0,0
553,-111,0,0,0,0,0,0,0,0,0,-1,1777,1135,0,0
560,-111,0,0,0,0,0,0,0,0,0,-1,1784,1135,0,0
567,-111,0,0,0,0,0,0,0,0,0,-1,1791,1135,0,0
574,-111,0,0,0,0,0,0,0,0,0,-1,1798,1135,0,0
581,-111,0,0,0,0,0,0,0,0,0,-1,1805,1135,0,0
588,-111,0,0,0,0,0,0,0,0,0,-1,1812,1135,0,0
595,-111,0,0,0,0,0,0,0,0,0,-1,1819,1135,0,0
602,-111,0,0,0,0,0,0,0,0,0,-1,1826,1135,0,0
609,-111,0,0,0,0,0,0,0,0,0,-1,1833,1135,0,0
616,-111,0,0,0,0,0,0,0,0,0,-1,1840,1135,0,0
623,-111,0,0,0,0,0,0,0,0,0,-1,1847,1135,0,0
630,-111,0,0,0,0,0,0,0,0,0,-1,1854,1135,0,0
637,-111,0,0,0,0,0,0,0,0,0,-1,1861,1135,0,0
644,-111,75.0785,2.18005,0.00441599,0.00199823,-0.000759455,0.00463476,0.00177947,-0.280459,0.0026998,0.0407497,1868,1135,75.0785,-2.18005
651,-111,75.2422,2.26392,0.00277063,0.00157613,-0.000277708,0.00283204,0.00151472,-0.21762,0.0016364,0.0398585,1875,1135,75.2422,-2.26386
658,-111,75.3793,2.27075,0.00157302,0.00127909,-2.36207e-05,0.00157491,0.0012772,-0.0796793,0.000966114,0.0436938,1882,1135,75.3792,-2.2707
665,-111,75.3837,2.03223,0.000640932,0.00104326,0.000113836,0.00107324,0.000610957,1.31332,0.000621614,0.0492521,1889,1135,75.3837,-2.03219
672,-111,75.2123,1.98315,-7.15591e-05,0.000870775,0.000126142,0.000887369,-8.81525e-05,1.44,0.000623046,0.0489706,1896,1135,75.2123,-1.98317
679,-111,75.048,2.06824,-0.000234669,0.000513112,0.000160607,0.000546148,-0.000267705,1.36793,0.000478957,0.0441422,1903,1135,75.0479,-2.06822
686,-111,75.0598,2.11194,-9.31422e-05,0.000129768,0.000203282,0.000250144,-0.000213519,1.03616,0.000267974,0.0418223,1910,1135,75.0599,-2.11197
693,-111,75.1653,2.07153,0.000120094,-0.000169895,0.000323104,0.000329246,-0.000379047,0.574489,0.00040927,0.0389089,1917,1135,75.1653,-2.07153
700,-111,75.2178,2.04639,0.000298692,-0.000360626,0.000481922,0.00055292,-0.000614853,0.485427,0.00067453,0.0286251,1924,1135,75.2178,-2.04643
707,-111,75.239,2.04871,0,0,0,0,0,0,0,-1,1931,1135,75.239,-2.04874
714,-111,45.1654,7.39746,0,0,0,0,0,0,0,-1,1938,1135,45.1654,-7.39745
721,-111,68.7515,9.68457,0,0,0,0,0,0,0,-1,1945,1135,68.7514,-9.68454
728,-111,68.8545,8.93225,0.000151347,0.000357191,0.00139419,0.00165225,-0.00114371,0.822243,0.00162312,0.0315339,1952,1135,68.8545,-8.93229
735,-111,68.9136,8.34155,0.00032368,0.000522746,0.00153557,0.00196201,-0.00111558,0.817762,0.00179911,0.0328537,1959,1135,68.9136,-8.34161
742,-111,68.7717,7.76685,7.20354e-05,0.000942977,0.00187539,0.00243279,-0.00141778,0.899478,0.00224872,0.0216154,1966,1135,68.7718,-7.76679
749,-111,68.6785,7.16626,-0.00107045,0.00243982,0.00245988,0.00370652,-0.00233715,1.09526,0.00351905,0.0210095,1973,1135,68.6785,-7.16631
756,-111,68.6487,6.53601,-0.00313867,0.00513883,0.0029717,0.0060952,-0.00409504,1.25944,0.005921,0.0182445,1980,1135,68.6486,-6.53602
763,-111,68.5879,5.96094,-0.0066231,0.00981735,0.00354714,0.01055,-0.00735577,1.36711,0.0103926,0.0166174,1987,1135,68.5878,-5.96094
770,-111,68.5334,5.40234,-0.0114041,0.015816,0.00429946,0.016479,-0.0120671,1.41781,0.0165466,0.0143039,1994,1135,68.5334,-5.40236
777,-111,68.3306,4.77979,-0.0174731,0.0228124,0.00523938,0.0234827,-0.0181433,1.44356,0.0240986,0.0299742,2001,1135,68.3305,-4.77981
784,-111,68.3079,3.79553,-0.0248396,0.0307057,0.00639996,0.0314336,-0.0255675,1.45755,0.0329676,0.0440192,2008,1135,68.3078,-3.7955
791,-111,68.4004,2.74585,0,0,0,0,0,0,0,-1,2015,1135,68.4003,-2.74589
798,-111,72.0637,1.18713,-0.0450729,0.0501078,0.0096996,0.0510862,-0.0460513,1.47027,0.0561075,0.0461257,2022,1135,72.0638,-1.1871
805,-111,70.8394,0.86792,-0.0584965,0.06174,0.0119206,0.0629104,-0.059667,1.47292,0.0707783,0.0428349,2029,1135,70.8395,-0.867882
812,-111,69.5869,0.491089,-0.0743079,0.0745089,0.0146648,0.0759402,-0.0757393,1.4735,0.0875722,0.0451629,2036,1135,69.587,-0.491042
-700,-118,0,0,0,0,0,0,0,0,0,-1,524,1142,0,0
-693,-118,-51.813,-2.20532,-0.0264767,0.16067,-0.0281494,0.164812,-0.030619,-1.42469,0.121375,0.045402,531,1142,-51.8131,2.20528
-686,-118,-51.7892,-2.48987,-0.0279848,0.143193,-0.0167853,0.144823,-0.0296152,-1.47397,0.107786,0.0486797,538,1142,-51.7891,2.48986
-679,-118,-51.8085,-3.04895,-0.0273577,0.122208,-0.00939372,0.122796,-0.0279454,-1.50832,0.0925956,0.0434327,545,1142,-51.8085,3.04899
-672,-118,-52.4218,-1.83081,-0.0252548,0.10152,-0.00458941,0.101686,-0.0254207,-1.53466,0.0776635,0.0465899,552,1142,-52.4217,1.83086
-665,-118,-53.1361,-0.695679,0,0,0,0,0,0,0,-1,559,1142,-53.1362,0.695645
-658,-118,-55.0958,-1.94812,0,0,0,0,0,0,0,-1,566,1142,-55.0958,1.94813
-651,-118,-51.6229,2.51636,0,0,0,0,0,0,0,-1,573,1142,-51.6229,-2.51635
-644,-118,-51.9213,3.34387,-0.012988,0.0343913,0.000490744,0.0343964,-0.0129931,1.56044,0.0282752,0.0385927,580,1142,-51.9213,-3.34385
-637,-118,-52.1334,4.14465,-0.00972909,0.0222055,0.00038724,0.0222102,-0.00973378,1.55867,0.0189059,0.019987,587,1142,-52.1334,-4.14466
-630,-118,-52.2114,4.74011,-0.00651286,0.0116893,4.80257e-05,0.0116894,-0.00651299,1.56816,0.0106499,0.0291291,594,1142,-52.2114,-4.74014
-623,-118,-52.2034,5.401,-0.00300754,0.00340172,-0.000800459,0.00350018,-0.003106,-1.44841,0.00381634,0.0241667,601,1142,-52.2034,-5.40096
-616,-118,-52.0869,6.099,0,0,0,0,0,0,0,-1,608,1142,-52.0869,-6.09898
-609,-118,-52.6741,6.44214,0,0,0,0,0,0,0,-1,615,1142,-52.6741,-6.44217
-602,-118,-52.9304,7.21191,0,0,0,0,0,0,0,-1,622,1142,-52.9303,-7.21186
-595,-118,-52.5505,7.87683,0,0,0,0,0,0,0,-1,629,1142,-52.5505,-7.87688
-588,-118,-51.84,8.93213,0,0,0,0,0,0,0,-1,636,1142,-51.84,-8.93217
-581,-118,-24.6116,3.89648,0,0,0,0,0,0,0,-1,643,1142,-24.6116,-3.89645
-574,-118,-58.8491,0.326416,0,0,0,0,0,0,0,-1,650,1142,-58.8491,-0.326392
-567,-118,-58.9409,0.536743,0.00196608,-0.00185188,0.00129148,0.0023619,-0.00224771,0.2974,0.00266163,0.042646,657,1142,-58.9409,-0.536765
-560,-118,-59.0244,0.636475,0.0026714,-0.00216797,0.00123773,0.00296959,-0.00246616,0.236412,0.00314281,0.0394024,664,1142,-59.0243,-0.636414
-553,-118,-59.02,0.458374,0.00201999,-0.00226604,0.000781958,0.0021582,-0.00240425,0.174937,0.00263541,0.0438702,671,1142,-59.02,-0.458382
-546,-118,-58.8955,0.38269,0.000405163,-0.00256305,-0.000145406,0.000412269,-0.00257015,-0.048832,0.0018661,0.0439878,678,1142,-58.8955,-0.382713
-539,-118,-58.8032,0.265259,-0.000574205,-0.0035335,-0.000814206,-0.000364981,-0.00374273,-0.251525,0.00238283,0.0430027,685,1142,-58.8032,-0.265313
-532,-118,-58.8404,0.304077,-0.00123505,-0.00493369,-0.00130768,-0.000819417,-0.00534932,-0.307741,0.00332688,0.0402542,692,1142,-58.8404,-0.304134
-525,-118,-58.9954,0.370728,-0.00204859,-0.00648229,-0.00162225,-0.00151842,-0.00701246,-0.315869,0.00426001,0.0422273,699,1142,-58.9953,-0.370776
-518,-118,0,0,0,0,0,0,0,0,0,-1,706,1142,0,0
-511,-118,0,0,0,0,0,0,0,0,0,-1,713,1142,0,0
-504,-118,0,0,0,0,0,0,0,0,0,-1,720,1142,0,0
-497,-118,0,0,0,0,0,0,0,0,0,-1,727,1142,0,0
-490,-118,0,0,0,0,0,0,0,0,0,-1,734,1142,0,0
-483,-118,0,0,0,0,0,0,0,0,0,-1,741,1142,0,0
-476,-118,0,0,0,0,0,0,0,0,0,-1,748,1142,0,0
-469,-118,0,0,0,0,0,0,0,0,0,-1,755,1142,0,0
-462,-118,0,0,0,0,0,0,0,0,0,-1,762,1142,0,0
-455,-118,0,0,0,0,0,0,0,0,0,-1,769,1142,0,0
-448,-118,0,0,0,0,0,0,0,0,0,-1,776,1142,0,0
-441,-118,0,0,0,0,0,0,0,0,0,-1,783,1142,0,0
-434,-118,0,0,0,0,0,0,0,0,0,-1,790,1142,0,0
-427,-118,0,0,0,0,0,0,0,0,0,-1,797,1142,0,0
-420,-118,0,0,0,0,0,0,0,0,0,-1,804,1142,0,0
-413,-118,0,0,0,0,0,0,0,0,0,-1,811,1142,0,0
-406,-118,0,0,0,0,0,0,0,0,0,-1,818,1142,0,0
-399,-118,0,0,0,0,0,0,0,0,0,-1,825,1142,0,0
-392,-118,0,0,0,0,0,0,0,0,0,-1,832,1142,0,0
-385,-118,0,0,0,0,0,0,0,0,0,-1,839,1142,0,0
-378,-118,0,0,0,0,0,0,0,0,0,-1,846,1142,0,0
-371,-118,0,0,0,0,0,0,0,0,0,-1,853,1142,0,0
-364,-118,0,0,0,0,0,0,0,0,0,-1,860,1142,0,0
-357,-118,0,0,0,0,0,0,0,0,0,-1,867,1142,0,0
-350,-118,0,0,0,0,0,0,0,0,0,-1,874,1142,0,0
-343,-118,0,0,0,0,0,0,0,0,0,-1,881,1142,0,0
-336,-118,0,0,0,0,0,0,0,0,0,-1,888,1142,0,0
-329,-118,0,0,0,0,0,0,0,0,0,-1,895,1142,0,0
-322,-118,0,0,0,0,0,0,0,0,0,-1,902,1142,0,0
-315,-118,0,0,0,0,0,0,0,0,0,-1,909,1142,0,0
-308,-118,0,0,0,0,0,0,0,0,0,-1,916,1142,0,0
-301,-118,0,0,0,0,0,0,0,0,0,-1,923,1142,0,0
-294,-118,0,0,0,0,0,0,0,0,0,-1,930,1142,0,0
-287,-118,0,0,0,0,0,0,0,0,0,-1,937,1142,0,0
-280,-118,0,0,0,0,0,0,0,0,0,-1,944,1142,0,0
-273,-118,0,0,0,0,0,0,0,0,0,-1,951,1142,0,0
-266,-118,0,0,0,0,0,0,0,0,0,-1,958,1142,0,0
-259,-118,0,0,0,0,0,0,0,0,0,-1,965,1142,0,0
-252,-118,0,0,0,0,0,0,0,0,0,-1,972,1142,0,0
-245,-118,0,0,0,0,0,0,0,0,0,-1,979,1142,0,0
-238,-118,0,0,0,0,0,0,0,0,0,-1,986,1142,0,0
-231,-118,0,0,0,0,0,0,0,0,0,-1,993,1142,0,0
-224,-118,0,0,0,0,0,0,0,0,0,-1,1000,1142,0,0
-217,-118,0,0,0,0,0,0,0,0,0,-1,1007,1142,0,0
-210,-118,0,0,0,0,0,0,0,0,0,-1,1014,1142,0,0
-203,-118,0,0,0,0,0,0,0,0,0,-1,1021,1142,0,0
-196,-118,0,0,0,0,0,0,0,0,0,-1,1028,1142,0,0
-189,-118,0,0,0,0,0,0,0,0,0,-1,1035,1142,0,0
-182,-118,0,0,0,0,0,0,0,0,0,-1,1042,1142,0,0
-175,-118,0,0,0,0,0,0,0,0,0,-1,1049,1142,0,0
-168,-118,0,0,0,0,0,0,0,0,0,-1,1056,1142,0,0
-161,-118,0,0,0,0,0,0,0,0,0,-1,1063,1142,0,0
-154,-118,0,0,0,0,0,0,0,0,0,-1,1070,1142,0,0
-147,-118,0,0,0,0,0,0,0,0,0,-1,1077,1142,0,0
-140,-118,0,0,0,0,0,0,0,0,0,-1,1084,1142,0,0
-133,-118,0,0,0,0,0,0,0,0,0,-1,1091,1142,0,0
-126,-118,0,0,0,0,0,0,0,0,0,-1,1098,1142,0,0
-119,-118,0,0,0,0,0,0,0,0,0,-1,1105,1142,0,0
-112,-118,0,0,0,0,0,0,0,0,0,-1,1112,1142,0,0
-105,-118,0,0,0,0,0,0,0,0,0,-1,1119,1142,0,0
-98,-118,0,0,0,0,0,0,0,0,0,-1,1126,1142,0,0
-91,-118,0,0,0,0,0,0,0,0,0,-1,1133,1142,0,0
-84,-118,0,0,0,0,0,0,0,0,0,-1,1140,1142,0,0
-77,-118,0,0,0,0,0,0,0,0,0,-1,1147,1142,0,0
-70,-118,0,0,0,0,0,0,0,0,0,-1,1154,1142,0,0
-63,-118,0,0,0,0,0,0,0,0,0,-1,1161,1142,0,0
-56,-118,0,0,0,0,0,0,0,0,0,-1,1168,1142,0,0
-49,-118,0,0,0,0,0,0,0,0,0,-1,1175,1142,0,0
-42,-118,0,0,0,0,0,0,0,0,0,-1,1182,1142,0,0
-35,-118,0,0,0,0,0,0,0,0,0,-1,1189,1142,0,0
-28,-118,0,0,0,0,0,0,0,0,0,-1,1196,1142,0,0
-21,-118,0,0,0,0,0,0,0,0,0,-1,1203,1142,0,0
-14,-118,0,0,0,0,0,0,0,0,0,-1,1210,1142,0,0
-7,-118,0,0,0,0,0,0,0,0,0,-1,1217,1142,0,0
0,-118,0,0,0,0,0,0,0,0,0,-1,1224,1142,0,0
7,-118,0,0,0,0,0,0,0,0,0,-1,1231,1142,0,0
14,-118,0,0,0,0,0,0,0,0,0,-1,1238,1142,0,0
21,-118,0,0,0,0,0,0,0,0,0,-1,1245,1142,0,0
28,-118,0,0,0,0,0,0,0,0,0,-1,1252,1142,0,0
35,-118,0,0,0,0,0,0,0,0,0,-1,1259,1142,0,0
42,-118,0,0,0,0,0,0,0,0,0,-1,1266,1142,0,0
49,-118,0,0,0,0,0,0,0,0,0,-1,1273,1142,0,0
56,-118,0,0,0,0,0,0,0,0,0,-1,1280,1142,0,0
63,-118,0,0,0,0,0,0,0,0,0,-1,1287,1142,0,0
70,-118,0,0,0,0,0,0,0,0,0,-1,1294,1142,0,0
77,-118,0,0,0,0,0,0,0,0,0,-1,1301,1142,0,0
84,-118,0,0,0,0,0,0,0,0,0,-1,1308,1142,0,0
91,-118,0,0,0,0,0,0,0,0,0,-1,1315,1142,0,0
98,-118,0,0,0,0,0,0,0,0,0,-1,1322,1142,0,0
105,-118,0,0,0,0,0,0,0,0,0,-1,1329,1142,0,0
112,-118,0,0,0,0,0,0,0,0,0,-1,1336,1142,0,0
119,-118,0,0,0,0,0,0,0,0,0,-1,1343,1142,0,0
126,-118,0,0,0,0,0,0,0,0,0,-1,1350,1142,0,0
133,-118,0,0,0,0,0,0,0,0,0,-1,1357,1142,0,0
140,-118,0,0,0,0,0,0,0,0,0,-1,1364,1142,0,0
147,-118,0,0,0,0,0,0,0,0,0,-1,1371,1142,0,0
154,-118,0,0,0,0,0,0,0,0,0,-1,1378,1142,0,0
161,-118,0,0,0,0,0,0,0,0,0,-1,1385,1142,0,0
168,-118,0,0,0,0,0,0,0,0,0,-1,1392,1142,0,0
175,-118,0,0,0,0,0,0,0,0,0,-1,1399,1142,0,0
182,-118,0,0,0,0,0,0,0,0,0,-1,1406,1142,0,0
189,-118,0,0,0,0,0,0,0,0,0,-1,1413,1142,0,0
196,-118,0,0,0,0,0,0,0,0,0,-1,1420,1142,0,0
203,-118,0,0,0,0,0,0,0,0,0,-1,1427,1142,0,0
210,-118,0,0,0,0,0,0,0,0,0,-1,1434,1142,0,0
217,-118,0,0,0,0,0,0,0,0,0,-1,1441,1142,0,0
224,-118,0,0,0,0,0,0,0,0,0,-1,1448,1142,0,0
231,-118,0,0,0,0,0,0,0,0,0,-1,1455,1142,0,0
238,-118,0,0,0,0,0,0,0,0,0,-1,1462,1142,0,0
245,-118,0,0,0,0,0,0,0,0,0,-1,1469,1142,0,0
252,-118,0,0,0,0,0,0,0,0,0,-1,1476,1142,0,0
259,-118,0,0,0,0,0,0,0,0,0,-1,1483,1142,0,0
266,-118,0,0,0,0,0,0,0,0,0,-1,1490,1142,0,0
273,-118,0,0,0,0,0,0,0,0,0,-1,1497,1142,0,0
280,-118,0,0,0,0,0,0,0,0,0,-1,1504,1142,0,0
287,-118,0,0,0,0,0,0,0,0,0,-1,1511,1142,0,0
294,-118,0,0,0,0,0,0,0,0,0,-1,1518,1142,0,0
301,-118,0,0,0,0,0,0,0,0,0,-1,1525,1142,0,0
308,-118,0,0,0,0,0,0,0,0,0,-1,1532,1142,0,0
315,-118,0,0,0,0,0,0,0,0,0,-1,1539,1142,0,0
322,-118,0,0,0,0,0,0,0,0,0,-1,1546,1142,0,0
329,-118,0,0,0,0,0,0,0,0,0,-1,1553,1142,0,0
336,-118,0,0,0,0,0,0,0,0,0,-1,1560,1142,0,0
343,-118,0,0,0,0,0,0,0,0,0,-1,1567,1142,0,0
350,-118,0,0,0,0,0,0,0,0,0,-1,1574,1142,0,0
357,-118,0,0,0,0,0,0,0,0,0,-1,1581,1142,0,0
364,-118,0,0,0,0,0,0,0,0,0,-1,1588,1142,0,0
371,-118,0,0,0,0,0,0,0,0,0,-1,1595,1142,0,0
378,-118,0,0,0,0,0,0,0,0,0,-1,1602,1142,0,0
385,-118,0,0,0,0,0,0,0,0,0,-1,1609,1142,0,0
392,-118,0,0,0,0,0,0,0,0,0,-1,1616,1142,0,0
399,-118,0,0,0,0,0,0,0,0,0,-1,1623,1142,0,0
406,-118,0,0,0,0,0,0,0,0,0,-1,1630,1142,0,0
413,-118,0,0,0,0,0,0,0,0,0,-1,1637,1142,0,0
420,-118,0,0,0,0,0,0,0,0,0,-1,1644,1142,0,0
427,-118,0,0,0,0,0,0,0,0,0,-1,1651,1142,0,0
434,-118,0,0,0,0,0,0,0,0,0,-1,1658,1142,0,0
441,-118,0,0,0,0,0,0,0,0,0,-1,1665,1142,0,0
448,-118,0,0,0,0,0,0,0,0,0,-1,1672,1142,0,0
455,-118,0,0,0,0,0,0,0,0,0,-1,1679,1142,0,0
462,-118,0,0,0,0,0,0,0,0,0,-1,1686,1142,0,0
469,-118,0,0,0,0,0,0,0,0,0,-1,1693,1142,0,0
476,-118,0,0,0,0,0,0,0,0,0,-1,1700,1142,0,0
483,-118,0,0,0,0,0,0,0,0,0,-1,1707,1142,0,0
490,-118,0,0,0,0,0,0,0,0,0,-1,1714,1142,0,0
497,-118,0,0,0,0,0,0,0,0,0,-1,1721,1142,0,0
504,-118,0,0,0,0,0,0,0,0,0,-1,1728,1142,0,0
511,-118,0,0,0,0,0,0,0,0,0,-1,1735,1142,0,0
518,-118,0,0,0,0,0,0,0,0,0,-1,1742,1142,0,0
525,-118,0,0,0,0,0,0,0,0,0,-1,1749,1142,0,0
532,-118,0,0,0,0,0,0,0,0,0,-1,1756,1142,0,0
539,-118,0,0,0,0,0,0,0,0,0,-1,1763,1142,0,0
546,-118,0,0,0,0,0,0,0,0,0,-1,1770,1142,0,0
553,-118,0,0,0,0,0,0,0,0,0,-1,1777,1142,0,0
560,-118,0,0,0,0,0,0,0,0,0,-1,1784,1142,0,0
567,-118,0,0,0,0,0,0,0,0,0,-1,1791,1142,0,0
574,-118,0,0,0,0,0,0,0,0,0,-1,1798,1142,0,0
581,-118,0,0,0,0,0,0,0,0,0,-1,1805,1142,0,0
588,-118,0,0,0,0,0,0,0,0,0,-1,1812,1142,0,0
595,-118,0,0,0,0,0,0,0,0,0,-1,1819,1142,0,0
602,-118,0,0,0,0,0,0,0,0,0,-1,1826,1142,0,0
609,-118,0,0,0,0,0,0,0,0,0,-1,1833,1142,0,0
616,-118,0,0,0,0,0,0,0,0,0,-1,1840,1142,0,0
623,-118,0,0,0,0,0,0,0,0,0,-1,1847,1142,0,0
630,-118,0,0,0,0,0,0,0,0,0,-1,1854,1142,0,0
637,-118,0,0,0,0,0,0,0,0,0,-1,1861,1142,0,0
644,-118,75.3987,1.75183,0.00374683,0.00180664,-0.000164676,0.00376071,0.00179276,-0.0840744,0.00217203,0.0410862,1868,1142,75.3986,-1.75182
651,-118,75.3679,2.10876,0.00224856,0.00135718,0.000215397,0.00229788,0.00130786,0.225095,0.00133091,0.0397066,1875,1142,75.3679,-2.10872
658,-118,75.4814,2.19812,0.00114736,0.00103868,0.000394545,0.00149129,0.000694751,0.716971,0.000861665,0.0406842,1882,1142,75.4815,-2.1981
665,-118,75.4945,2.06189,0.000289415,0.000806625,0.000459716,0.00107548,2.05586e-05,1.0416,0.000710234,0.0443206,1889,1142,75.4945,-2.06187
672,-118,75.292,1.99854,-0.000352584,0.000659386,0.000405876,0.000802058,-0.000495256,1.23277,0.000755954,0.0494556,1896,1142,75.2919,-1.99857
679,-118,75.1147,2.11768,-0.00042103,0.000292385,0.000426986,0.000492057,-0.000620701,1.13338,0.000643881,0.0459732,1903,1142,75.1148,-2.11767
686,-118,75.1241,2.13879,-0.000133434,-3.63375e-06,0.00045663,0.000392685,-0.000529753,0.85599,0.000534526,0.0400172,1910,1142,75.1242,-2.13881
693,-118,75.1042,2.08264,0.000113239,-0.000228057,0.000579724,0.00054691,-0.000661727,0.642261,0.000698856,0.0362373,1917,1142,75.1042,-2.08266
700,-118,75.1593,2.06055,0.000299872,-0.00035147,0.000717028,0.000761723,-0.000813321,0.572229,0.000909515,0.0233353,1924,1142,75.1593,-2.0606
707,-118,75.1908,1.99451,0,0,0,0,0,0,0,-1,1931,1142,75.1908,-1.99455
714,-118,50.4819,8.53809,0,0,0,0,0,0,0,-1,1938,1142,50.4819,-8.53809
721,-118,68.1533,9.72583,0,0,0,0,0,0,0,-1,1945,1142,68.1533,-9.72585
728,-118,68.1833,9.06201,0.000403324,0.00044513,0.00153043,0.0019548,-0.00110635,0.792227,0.00178984,0.0242464,1952,1142,68.1834,-9.06204
735,-118,68.1804,8.4657,0.000678115,0.000496013,0.00170665,0.00229614,-0.00112201,0.758748,0.00201191,0.0252916,1959,1142,68.1804,-8.46573
742,-118,68.1392,7.91272,0.00047295,0.00076751,0.00203766,0.00266321,-0.00142275,0.821475,0.00239499,0.0376081,1966,1142,68.1392,-7.91275
749,-118,67.9476,7.2417,-0.000653459,0.00204518,0.00258474,0.0036116,-0.00221988,1.02596,0.00339862,0.0277548,1973,1142,67.9477,-7.24165
756,-118,67.9519,6.56116,-0.00306652,0.00478819,0.0031117,0.0058715,-0.00414984,1.23578,0.00581422,0.0208984,1980,1142,67.952,-6.56112
763,-118,67.9883,5.93884,-0.00729215,0.00947927,0.00375408,0.0102812,-0.00809411,1.36034,0.010634,0.0114591,1987,1142,67.9883,-5.93879
770,-118,67.8799,5.38843,-0.0129439,0.0153134,0.00459552,0.016042,-0.0136725,1.41356,0.0171739,0.0141597,1994,1142,67.88,-5.38844
777,-118,67.6887,4.81909,-0.0200704,0.0220761,0.00562147,0.022813,-0.0208073,1.44045,0.025193,0.0318094,2001,1142,67.6887,-4.81904
784,-118,67.77,4.17578,-0.0287767,0.0297323,0.00684478,0.0305223,-0.0295668,1.45588,0.0346939,0.0441958,2008,1142,67.7701,-4.17574
791,-118,67.9314,3.57849,0,0,0,0,0,0,0,-1,2015,1142,67.9313,-3.57853
798,-118,71.5476,0.0308838,-0.0530172,0.0485935,0.0101551,0.0495985,-0.0540221,1.47215,0.0598436,0.0481134,2022,1142,71.5476,-0.0308335
805,-118,70.4102,-0.0474854,-0.069378,0.0599652,0.0122689,0.0611187,-0.0705315,1.47706,0.076073,0.0490648,2029,1142,70.4102,0.0474482
812,-118,69.3684,-0.159668,-0.0889698,0.0725255,0.0147942,0.0738696,-0.0903139,1.48019,0.0949497,0.0486156,2036,1142,69.3684,0.159654
-700,-125,0,0,0,0,0,0,0,0,0,-1,524,1149,0,0
-693,-125,-51.6658,-3.00537,-0.00425449,0.178881,-0.0423788,0.188212,-0.0135858,-1.35407,0.13024,0.0455544,531,1149,-51.6658,3.00535
-686,-125,-51.4396,-3.35571,-0.0149104,0.157043,-0.0271988,0.161243,-0.01911,-1.4176,0.114398,0.0497409,538,1149,-51.4396,3.35574
-679,-125,-51.5054,-4.34106,-0.0204188,0.132811,-0.0166168,0.134593,-0.0222001,-1.46401,0.0979704,0.0453727,545,1149,-51.5054,4.34104
-672,-125,-51.7364,-4.88843,-0.0221847,0.109749,-0.00955486,0.110437,-0.0228731,-1.49887,0.0823152,0.0468481,552,1149,-51.7364,4.88837
-665,-125,-52.0304,-5.15369,0,0,0,0,0,0,0,-1,559,1149,-52.0304,5.15363
-658,-125,-51.8012,2.08228,0,0,0,0,0,0,0,-1,566,1149,-51.8012,-2.08229
-651,-125,-51.4544,2.8335,-0.0175704,0.0514205,-0.00111299,0.0514385,-0.0175884,-1.55467,0.0414192,0.0474585,573,1149,-51.4544,-2.83348
-644,-125,-51.2755,3.44934,-0.0141767,0.0358991,-0.000632491,0.0359071,-0.0141847,-1.55817,0.0298132,0.0369174,580,1149,-51.2755,-3.44934
-637,-125,-51.4567,4.12073,-0.0107531,0.022828,-0.00054336,0.0228368,-0.0107619,-1.55462,0.0198114,0.0163048,587,1149,-51.4567,-4.12068
-630,-125,-51.4842,4.75525,-0.00707099,0.0112634,-0.000420633,0.011273,-0.00708064,-1.54787,0.0106883,0.0159493,594,1149,-51.4842,-4.75526
-623,-125,-51.4904,5.43311,-0.00298454,0.00243341,-0.00102566,0.00262108,-0.00317221,-1.38983,0.0033498,0.0150355,601,1149,-51.4904,-5.43313
-616,-125,-51.5883,6.02991,0,0,0,0,0,0,0,-1,608,1149,-51.5882,-6.02987
-609,-125,-51.8379,6.9032,0,0,0,0,0,0,0,-1,615,1149,-51.8379,-6.90319
-602,-125,-53.0098,7.28638,0,0,0,0,0,0,0,-1,622,1149,-53.0098,-7.28634
-595,-125,-51.9565,8.05212,0,0,0,0,0,0,0,-1,629,1149,-51.9565,-8.05215
-588,-125,-50.9033,8.81799,0,0,0,0,0,0,0,-1,636,1149,-50.9033,-8.81795
-581,-125,-26.4055,4.83203,0,0,0,0,0,0,0,-1,643,1149,-26.4055,-4.83204
-574,-125,-37.674,0.655151,0,0,0,0,0,0,0,-1,650,1149,-37.674,-0.655195
-567,-125,-58.8691,0.382813,0,0,0,0,0,0,0,-1,657,1149,-58.8692,-0.382796
-560,-125,-58.9891,0.400879,0.00154667,-0.00163072,0.00192172,0.00245136,-0.00253541,0.439991,0.00287925,0.038218,664,1149,-58.9891,-0.400881
-553,-125,-58.9808,0.450195,0.00117594,-0.00171834,0.0017031,0.0019637,-0.00250609,0.433236,0.00258696,0.0417948,671,1149,-58.9809,-0.450218
-546,-125,-58.9239,0.52124,-0.000424375,-0.00224319,0.000723574,-0.000171638,-0.00249593,0.336042,0.00160979,0.0439488,678,1149,-58.9239,-0.521285
-539,-125,-58.8903,0.491699,-0.00135371,-0.00342606,4.85352e-05,-0.00135257,-0.0034272,0.0234032,0.00199328,0.0424347,685,1149,-58.8903,-0.491737
-532,-125,-58.876,0.324585,-0.00182437,-0.00506512,-0.00046793,-0.00175816,-0.00513133,-0.140565,0.00301109,0.0387667,692,1149,-58.876,-0.324613
-525,-125,-58.786,0.0333252,-0.00238015,-0.00686637,-0.000857238,-0.00222192,-0.0070246,-0.182518,0.00414588,0.0418425,699,1149,-58.786,-0.0333646
-518,-125,0,0,0,0,0,0,0,0,0,-1,706,1149,0,0
-511,-125,0,0,0,0,0,0,0,0,0,-1,713,1149,0,0
-504,-125,0,0,0,0,0,0,0,0,0,-1,720,1149,0,0
-497,-125,0,0,0,0,0,0,0,0,0,-1,727,1149,0,0
-490,-125,0,0,0,0,0,0,0,0,0,-1,734,1149,0,0
-483,-125,0,0,0,0,0,0,0,0,0,-1,741,1149,0,0
-476,-125,0,0,0,0,0,0,0,0,0,-1,748,1149,0,0
-469,-125,0,0,0,0,0,0,0,0,0,-1,755,1149,0,0
-462,-125,0,0,0,0,0,0,0,0,0,-1,762,1149,0,0
-455,-125,0,0,0,0,0,0,0,0,0,-1,769,1149,0,0
-448,-125,0,0,0,0,0,0,0,0,0,-1,776,1149,0,0
-441,-125,0,0,0,0,0,0,0,0,0,-1,783,1149,0,0
-434,-125,0,0,0,0,0,0,0,0,0,-1,790,1149,0,0
-427,-125,0,0,0,0,0,0,0,0,0,-1,797,1149,0,0
-420,-125,0,0,0,0,0,0,0,0,0,-1,804,1149,0,0
-413,-125,0,0,0,0,0,0,0,0,0,-1,811,1149,0,0
-406,-125,0,0,0,0,0,0,0,0,0,-1,818,1149,0,0
-399,-125,0,0,0,0,0,0,0,0,0,-1,825,1149,0,0
-392,-125,0,0,0,0,0,0,0,0,0,-1,832,1149,0,0
-385,-125,0,0,0,0,0,0,0,0,0,-1,839,1149,0,0
-378,-125,0,0,0,0,0,0,0,0,0,-1,846,1149,0,0
-371,-125,0,0,0,0,0,0,0,0,0,-1,853,1149,0,0
-364,-125,0,0,0,0,0,0,0,0,0,-1,860,1149,0,0
-357,-125,0,0,0,0,0,0,0,0,0,-1,867,1149,0,0
-350,-125,0,0,0,0,0,0,0,0,0,-1,874,1149,0,0
-343,-125,0,0,0,0,0,0,0,0,0,-1,881,1149,0,0
-336,-125,0,0,0,0,0,0,0,0,0,-1,888,1149,0,0
-329,-125,0,0,0,0,0,0,0,0,0,-1,895,1149,0,0
-322,-125,0,0,0,0,0,0,0,0,0,-1,902,1149,0,0
-315,-125,0,0,0,0,0,0,0,0,0,-1,909,1149,0,0
-308,-125,0,0,0,0,0,0,0,0,0,-1,916,1149,0,0
-301,-125,0,0,0,0,0,0,0,0,0,-1,923,1149,0,0
-294,-125,0,0,0,0,0,0,0,0,0,-1,930,1149,0,0
-287,-125,0,0,0,0,0,0,0,0,0,-1,937,1149,0,0
-280,-125,0,0,0,0,0,0,0,0,0,-1,944,1149,0,0
-273,-125,0,0,0,0,0,0,0,0,0,-1,951,1149,0,0
-266,-125,0,0,0,0,0,0,0,0,0,-1,958,1149,0,0
-259,-125,0,0,0,0,0,0,0,0,0,-1,965,1149,0,0
-252,-125,0,0,0,0,0,0,0,0,0,-1,972,1149,0,0
-245,-125,0,0,0,0,0,0,0,0,0,-1,979,1149,0,0
-238,-125,0,0,0,0,0,0,0,0,0,-1,986,1149,0,0
-231,-125,0,0,0,0,0,0,0,0,0,-1,993,1149,0,0
-224,-125,0,0,0,0,0,0,0,0,0,-1,1000,1149,0,0
-217,-125,0,0,0,0,0,0,0,0,0,-1,1007,1149,0,0
-210,-125,0,0,0,0,0,0,0,0,0,-1,1014,1149,0,0
-203,-125,0,0,0,0,0,0,0,0,0,-1,1021,1149,0,0
-196,-125,0,0,0,0,0,0,0,0,0,-1,1028,1149,0,0
-189,-125,0,0,0,0,0,0,0,0,0,-1,1035,1149,0,0
-182,-125,0,0,0,0,0,0,0,0,0,-1,1042,1149,0,0
-175,-125,0,0,0,0,0,0,0,0,0,-1,1049,1149,0,0
-168,-125,0,0,0,0,0,0,0,0,0,-1,1056,1149,0,0
-161,-125,0,0,0,0,0,0,0,0,0,-1,1063,1149,0,0
-154,-125,0,0,0,0,0,0,0,0,0,-1,1070,1149,0,0
-147,-125,0,0,0,0,0,0,0,0,0,-1,1077,1149,0,0
-140,-125,0,0,0,0,0,0,0,0,0,-1,1084,1149,0,0
-133,-125,0,0,0,0,0,0,0,0,0,-1,1091,1149,0,0
-126,-125,0,0,0,0,0,0,0,0,0,-1,1098,1149,0,0
-119,-125,0,0,0,0,0,0,0,0,0,-1,1105,1149,0,0
-112,-125,0,0,0,0,0,0,0,0,0,-1,1112,1149,0,0
-105,-125,0,0,0,0,0,0,0,0,0,-1,1119,1149,0,0
-98,-125,0,0,0,0,0,0,0,0,0,-1,1126,1149,0,0
-91,-125,0,0,0,0,0,0,0,0,0,-1,1133,1149,0,0
-84,-125,0,0,0,0,0,0,0,0,0,-1,1140,1149,0,0
-77,-125,0,0,0,0,0,0,0,0,0,-1,1147,1149,0,0
-70,-125,0,0,0,0,0,0,0,0,0,-1,1154,1149,0,0
-63,-125,0,0,0,0,0,0,0,0,0,-1,1161,1149,0,0
-56,-125,0,0,0,0,0,0,0,0,0,-1,1168,1149,0,0
-49,-125,0,0,0,0,0,0,0,0,0,-1,1175,1149,0,0
-42,-125,0,0,0,0,0,0,0,0,0,-1,1182,1149,0,0
-35,-125,0,0,0,0,0,0,0,0,0,-1,1189,1149,0,0
-28,-125,0,0,0,0,0,0,0,0,0,-1,1196,1149,0,0
-21,-125,0,0,0,0,0,0,0,0,0,-1,1203,1149,0,0
-14,-125,0,0,0,0,0,0,0,0,0,-1,1210,1149,0,0
-7,-125,0,0,0,0,0,0,0,0,0,-1,1217,1149,0,0
0,-125,0,0,0,0,0,0,0,0,0,-1,1224,1149,0,0
7,-125,0,0,0,0,0,0,0,0,0,-1,1231,1149,0,0
14,-125,0,0,0,0,0,0,0,0,0,-1,1238,1149,0,0
21,-125,0,0,0,0,0,0,0,0,0,-1,1245,1149,0,0
28,-125,0,0,0,0,0,0,0,0,0,-1,1252,1149,0,0
35,-125,0,0,0,0,0,0,0,0,0,-1,1259,1149,0,0
42,-125,0,0,0,0,0,0,0,0,0,-1,1266,1149,0,0
49,-125,0,0,0,0,0,0,0,0,0,-1,1273,1149,0,0
56,-125,0,0,0,0,0,0,0,0,0,-1,1280,1149,0,0
63,-125,0,0,0,0,0,0,0,0,0,-1,1287,1149,0,0
70,-125,0,0,0,0,0,0,0,0,0,-1,1294,1149,0,0
77,-125,0,0,0,0,0,0,0,0,0,-1,1301,1149,0,0
84,-125,0,0,0,0,0,0,0,0,0,-1,1308,1149,0,0
91,-125,0,0,0,0,0,0,0,0,0,-1,1315,1149,0,0
98,-125,0,0,0,0,0,0,0,0,0,-1,1322,1149,0,0
105,-125,0,0,0,0,0,0,0,0,0,-1,1329,1149,0,0
112,-125,0,0,0,0,0,0,0,0,0,-1,1336,1149,0,0
119,-125,0,0,0,0,0,0,0,0,0,-1,1343,1149,0,0
126,-125,0,0,0,0,0,0,0,0,0,-1,1350,1149,0,0
133,-125,0,0,0,0,0,0,0,0,0,-1,1357,1149,0,0
140,-125,0,0,0,0,0,0,0,0,0,-1,1364,1149,0,0
147,-125,0,0,0,0,0,0,0,0,0,-1,1371,1149,0,0
154,-125,0,0,0,0,0,0,0,0,0,-1,1378,1149,0,0
161,-125,0,0,0,0,0,0,0,0,0,-1,1385,1149,0,0
168,-125,0,0,0,0,0,0,0,0,0,-1,1392,1149,0,0
175,-125,0,0,0,0,0,0,0,0,0,-1,1399,1149,0,0
182,-125,0,0,0,0,0,0,0,0,0,-1,1406,1149,0,0
189,-125,0,0,0,0,0,0,0,0,0,-1,1413,1149,0,0
196,-125,0,0,0,0,0,0,0,0,0,-1,1420,1149,0,0
203,-125,0,0,0,0,0,0,0,0,0,-1,1427,1149,0,0
210,-125,0,0,0,0,0,0,0,0,0,-1,1434,1149,0,0
217,-125,0,0,0,0,0,0,0,0,0,-1,1441,1149,0,0
224,-125,0,0,0,0,0,0,0,0,0,-1,1448,1149,0,0
231,-125,0,0,0,0,0,0,0,0,0,-1,1455,1149,0,0
238,-125,0,0,0,0,0,0,0,0,0,-1,1462,1149,0,0
245,-125,0,0,0,0,0,0,0,0,0,-1,1469,1149,0,0
252,-125,0,0,0,0,0,0,0,0,0,-1,1476,1149,0,0
259,-125,0,0,0,0,0,0,0,0,0,-1,1483,1149,0,0
266,-125,0,0,0,0,0,0,0,0,0,-1,1490,1149,0,0
273,-125,0,0,0,0,0,0,0,0,0,-1,1497,1149,0,0
280,-125,0,0,0,0,0,0,0,0,0,-1,1504,1149,0,0
287,-125,0,0,0,0,0,0,0,0,0,-1,1511,1149,0,0
294,-125,0,0,0,0,0,0,0,0,0,-1,1518,1149,0,0
301,-125,0,0,0,0,0,0,0,0,0,-1,1525,1149,0,0
308,-125,0,0,0,0,0,0,0,0,0,-1,1532,1149,0,0
315,-125,0,0,0,0,0,0,0,0,0,-1,1539,1149,0,0
322,-125,0,0,0,0,0,0,0,0,0,-1,1546,1149,0,0
329,-125,0,0,0,0,0,0,0,0,0,-1,1553,1149,0,0
336,-125,0,0,0,0,0,0,0,0,0,-1,1560,1149,0,0
343,-125,0,0,0,0,0,0,0,0,0,-1,1567,1149,0,0
350,-125,0,0,0,0,0,0,0,0,0,-1,1574,1149,0,0
357,-125,0,0,0,0,0,0,0,0,0,-1,1581,1149,0,0
364,-125,0,0,0,0,0,0,0,0,0,-1,1588,1149,0,0
371,-125,0,0,0,0,0,0,0,0,0,-1,1595,1149,0,0
378,-125,0,0,0,0,0,0,0,0,0,-1,1602,1149,0,0
385,-125,0,0,0,0,0,0,0,0,0,-1,1609,1149,0,0
392,-125,0,0,0,0,0,0,0,0,0,-1,1616,1149,0,0
399,-125,0,0,0,0,0,0,0,0,0,-1,1623,1149,0,0
406,-125,0,0,0,0,0,0,0,0,0,-1,1630,1149,0,0
413,-125,0,0,0,0,0,0,0,0,0,-1,1637,1149,0,0
420,-125,0,0,0,0,0,0,0,0,0,-1,1644,1149,0,0
427,-125,0,0,0,0,0,0,0,0,0,-1,1651,1149,0,0
434,-125,0,0,0,0,0,0,0,0,0,-1,1658,1149,0,0
441,-125,0,0,0,0,0,0,0,0,0,-1,1665,1149,0,0
448,-125,0,0,0,0,0,0,0,0,0,-1,1672,1149,0,0
455,-125,0,0,0,0,0,0,0,0,0,-1,1679,1149,0,0
462,-125,0,0,0,0,0,0,0,0,0,-1,1686,1149,0,0
469,-125,0,0,0,0,0,0,0,0,0,-1,1693,1149,0,0
476,-125,0,0,0,0,0,0,0,0,0,-1,1700,1149,0,0
483,-125,0,0,0,0,0,0,0,0,0,-1,1707,1149,0,0
490,-125,0,0,0,0,0,0,0,0,0,-1,1714,1149,0,0
497,-125,0,0,0,0,0,0,0,0,0,-1,1721,1149,0,0
504,-125,0,0,0,0,0,0,0,0,0,-1,1728,1149,0,0
511,-125,0,0,0,0,0,0,0,0,0,-1,1735,1149,0,0
518,-125,0,0,0,0,0,0,0,0,0,-1,1742,1149,0,0
525,-125,0,0,0,0,0,0,0,0,0,-1,1749,1149,0,0
532,-125,0,0,0,0,0,0,0,0,0,-1,1756,1149,0,0
539,-125,0,0,0,0,0,0,0,0,0,-1,1763,1149,0,0
546,-125,0,0,0,0,0,0,0,0,0,-1,1770,1149,0,0
553,-125,0,0,0,0,0,0,0,0,0,-1,1777,1149,0,0
560,-125,0,0,0,0,0,0,0,0,0,-1,1784,1149,0,0
567,-125,0,0,0,0,0,0,0,0,0,-1,1791,1149,0,0
574,-125,0,0,0,0,0,0,0,0,0,-1,1798,1149,0,0
581,-125,0,0,0,0,0,0,0,0,0,-1,1805,1149,0,0
588,-125,0,0,0,0,0,0,0,0,0,-1,1812,1149,0,0
595,-125,0,0,0,0,0,0,0,0,0,-1,1819,1149,0,0
602,-125,0,0,0,0,0,0,0,0,0,-1,1826,1149,0,0
609,-125,0,0,0,0,0,0,0,0,0,-1,1833,1149,0,0
616,-125,0,0,0,0,0,0,0,0,0,-1,1840,1149,0,0
623,-125,0,0,0,0,0,0,0,0,0,-1,1847,1149,0,0
630,-125,0,0,0,0,0,0,0,0,0,-1,1854,1149,0,0
637,-125,0,0,0,0,0,0,0,0,0,-1,1861,1149,0,0
644,-125,75.2081,1.96472,0.00322153,0.00103038,0.000366037,0.00328106,0.00097085,0.161222,0.00194622,0.0428521,1868,1149,75.2081,-1.96477
651,-125,75.097,1.88586,0.00180824,0.00066411,0.000652866,0.00210421,0.000368136,0.425633,0.00129762,0.0407864,1875,1149,75.097,-1.88586
658,-125,75.2366,1.97607,0.000770814,0.000429169,0.000742643,0.00136203,-0.000162044,0.672355,0.000966572,0.0420409,1882,1149,75.2365,-1.97607
665,-125,75.3413,2.02576,-3.32059e-05,0.000300598,0.000712063,0.000865058,-0.000597666,0.900516,0.000849194,0.0454326,1889,1149,75.3413,-2.02577
672,-125,75.198,1.94226,-0.000619924,0.000275027,0.000563693,0.000547263,-0.000892159,1.12088,0.000838965,0.0475273,1896,1149,75.198,-1.94224
679,-125,75.1478,2.06885,-0.00060732,-7.37043e-06,0.000545797,0.000315454,-0.000930145,1.03667,0.000747767,0.0416298,1903,1149,75.1478,-2.06889
686,-125,75.1887,2.16956,-0.000136424,-9.8081e-05,0.000514394,0.000397498,-0.000632003,0.804025,0.000599501,0.0383358,1910,1149,75.1887,-2.16952
693,-125,75.1139,2.1604,0.000180242,-0.000195662,0.00064493,0.00066405,-0.000679469,0.64361,0.000775698,0.0329701,1917,1149,75.1138,-2.16038
700,-125,75.1256,2.03027,0.000379321,-0.000221671,0.000774466,0.000909545,-0.000751895,0.600337,0.000960671,0.0198989,1924,1149,75.1256,-2.03028
707,-125,75.0936,1.71631,0,0,0,0,0,0,0,-1,1931,1149,75.0936,-1.71629
714,-125,54.8745,9.21375,0,0,0,0,0,0,0,-1,1938,1149,54.8746,-9.21371
721,-125,67.4059,9.78027,0,0,0,0,0,0,0,-1,1945,1149,67.4058,-9.78022
728,-125,67.4395,9.15649,0.000813985,0.000695985,0.00152201,0.00227814,-0.000768168,0.766026,0.00182939,0.0213729,1952,1149,67.4395,-9.15647
735,-125,67.4917,8.5658,0.00120511,0.000646428,0.00174722,0.00269518,-0.00084364,0.70613,0.00213432,0.0251898,1959,1149,67.4916,-8.56579
742,-125,67.4235,7.94934,0.00106728,0.000787903,0.00206328,0.00299559,-0.00114041,0.751598,0.00246669,0.0383745,1966,1149,67.4234,-7.94938
749,-125,67.2909,7.34277,3.59698e-05,0.00181815,0.00257523,0.00365211,-0.00179799,0.951962,0.00320673,0.0293481,1973,1149,67.2909,-7.34283
756,-125,67.2725,6.55469,-0.00276597,0.00456474,0.00314541,0.00572933,-0.00393057,1.21619,0.00560929,0.0247246,1980,1149,67.2724,-6.55474
763,-125,67.3186,5.94543,-0.00774147,0.00913951,0.00387443,0.00998627,-0.00858823,1.35563,0.0107341,0.0140071,1987,1149,67.3186,-5.94549
770,-125,67.2236,5.31079,-0.0142421,0.0146783,0.00480423,0.0154555,-0.0150193,1.41041,0.0175952,0.0174143,1994,1149,67.2236,-5.31073
777,-125,67.0879,4.79272,-0.022404,0.0210669,0.00591149,0.0218565,-0.0231936,1.43802,0.0260135,0.0350195,2001,1149,67.0879,-4.79272
784,-125,67.1416,4.12463,-0.0324346,0.0283104,0.00720329,0.0291529,-0.0332771,1.45437,0.0360702,0.0459908,2008,1149,67.1417,-4.12462
791,-125,67.3501,3.46497,0,0,0,0,0,0,0,-1,2015,1149,67.35,-3.46492
798,-125,70.5437,-1.2262,-0.0604035,0.0460258,0.010536,0.0470588,-0.0614365,1.47306,0.0628229,0.0480543,2022,1149,70.5436,1.22616
805,-125,69.7205,-0.646606,-0.0793889,0.0566602,0.0125714,0.0578121,-0.0805408,1.47942,0.0802366,0.0492328,2029,1149,69.7205,0.646609
812,-125,68.9426,-0.752563,-0.102303,0.0683748,0.0149298,0.0696709,-0.103599,1.4842,0.100675,0.0482047,2036,1149,68.9427,0.752533
-700,-132,0,0,0,0,0,0,0,0,0,-1,524,1156,0,0
-693,-132,-51.523,-3.88257,0,0,0,0,0,0,0,-1,531,1156,-51.523,3.88263
-686,-132,-51.0884,-4.20679,0,0,0,0,0,0,0,-1,538,1156,-51.0884,4.20679
-679,-132,-51.2162,-5.6449,0,0,0,0,0,0,0,-1,545,1156,-51.2162,5.64486
-672,-132,-51.4579,-6.25256,-0.011752,0.112299,-0.0170483,0.114599,-0.0140523,-1.43668,0.0814887,0.0431393,552,1156,-51.4578,6.25256
-665,-132,-51.6306,-6.29761,0,0,0,0,0,0,0,-1,559,1156,-51.6306,6.29758
-658,-132,-50.9077,2.23438,0,0,0,0,0,0,0,-1,566,1156,-50.9076,-2.23436
-651,-132,-50.749,2.86133,-0.0129198,0.0529831,-0.00443912,0.0532808,-0.0132175,-1.50384,0.0406491,0.0444379,573,1156,-50.749,-2.86136
-644,-132,-50.6721,3.44397,-0.0111987,0.0365433,-0.00280092,0.0367071,-0.0113625,-1.5124,0.0290103,0.0283655,580,1156,-50.6721,-3.44395
-637,-132,-50.7758,4.10132,-0.00931017,0.0228956,-0.00175955,0.0229914,-0.00940602,-1.51638,0.0192451,0.0144285,587,1156,-50.7758,-4.10132
-630,-132,-50.7704,4.7561,-0.00662534,0.0110692,-0.000995514,0.011125,-0.00668117,-1.51477,0.0103866,0.0110052,594,1156,-50.7704,-4.75613
-623,-132,-50.8329,5.47437,-0.00336279,0.00222069,-0.00109768,0.00242873,-0.00357083,-1.38349,0.00348471,0.0167956,601,1156,-50.833,-5.47435
-616,-132,-50.907,6.19812,0,0,0,0,0,0,0,-1,608,1156,-50.907,-6.19814
-609,-132,-50.2693,7.05847,0,0,0,0,0,0,0,-1,615,1156,-50.2694,-7.0585
-602,-132,-47.9897,6.96521,0,0,0,0,0,0,0,-1,622,1156,-47.9897,-6.96522
-595,-132,-51.3082,8.34143,0,0,0,0,0,0,0,-1,629,1156,-51.3082,-8.34143
-588,-132,-42.6534,6.92969,0,0,0,0,0,0,0,-1,636,1156,-42.6535,-6.92967
-581,-132,-35.9343,6.42957,0,0,0,0,0,0,0,-1,643,1156,-35.9342,-6.42957
-574,-132,-33.2071,2.86963,0,0,0,0,0,0,0,-1,650,1156,-33.2071,-2.86963
-567,-132,-58.783,0.220825,0,0,0,0,0,0,0,-1,657,1156,-58.783,-0.220884
-560,-132,-58.9213,0.209595,5.48191e-05,-0.00116508,0.00186626,0.00140828,-0.00251854,0.627456,0.00229716,0.0334372,664,1156,-58.9214,-0.209536
-553,-132,-58.9631,0.361084,-0.000116892,-0.00105893,0.00201143,0.00147794,-0.00265376,0.670385,0.00241742,0.0347333,671,1156,-58.9631,-0.361072
-546,-132,-58.8785,0.432861,-0.00144193,-0.00168229,0.00125246,-0.000303897,-0.00282032,0.737565,0.00178755,0.0390922,678,1156,-58.8785,-0.43282
-539,-132,-58.877,0.385864,-0.00196052,-0.0029988,0.000641736,-0.00165423,-0.00330509,0.445308,0.00190819,0.0432135,685,1156,-58.877,-0.385837
-532,-132,-58.8275,0.22876,-0.00191802,-0.0048308,4.46401e-05,-0.00191734,-0.00483148,0.0153208,0.00280918,0.0419625,692,1156,-58.8275,-0.228712
-525,-132,-58.8347,0.218384,-0.00194571,-0.00692885,-0.000623849,-0.0018688,-0.00700576,-0.12267,0.00418891,0.0404431,699,1156,-58.8347,-0.218424
-518,-132,0,0,0,0,0,0,0,0,0,-1,706,1156,0,0
-511,-132,0,0,0,0,0,0,0,0,0,-1,713,1156,0,0
-504,-132,0,0,0,0,0,0,0,0,0,-1,720,1156,0,0
-497,-132,0,0,0,0,0,0,0,0,0,-1,727,1156,0,0
-490,-132,0,0,0,0,0,0,0,0,0,-1,734,1156,0,0
-483,-132,0,0,0,0,0,0,0,0,0,-1,741,1156,0,0
-476,-132,0,0,0,0,0,0,0,0,0,-1,748,1156,0,0
-469,-132,0,0,0,0,0,0,0,0,0,-1,755,1156,0,0
-462,-132,0,0,0,0,0,0,0,0,0,-1,762,1156,0,0
-455,-132,0,0,0,0,0,0,0,0,0,-1,769,1156,0,0
-448,-132,0,0,0,0,0,0,0,0,0,-1,776,1156,0,0
-441,-132,0,0,0,0,0,0,0,0,0,-1,783,1156,0,0
-434,-132,0,0,0,0,0,0,0,0,0,-1,790,1156,0,0
-427,-132,0,0,0,0,0,0,0,0,0,-1,797,1156,0,0
-420,-132,0,0,0,0,0,0,0,0,0,-1,804,1156,0,0
-413,-132,0,0,0,0,0,0,0,0,0,-1,811,1156,0,0
-406,-132,0,0,0,0,0,0,0,0,0,-1,818,1156,0,0
-399,-132,0,0,0,0,0,0,0,0,0,-1,825,1156,0,0
-392,-132,0,0,0,0,0,0,0,0,0,-1,832,1156,0,0
-385,-132,0,0,0,0,0,0,0,0,0,-1,839,1156,0,0
-378,-132,0,0,0,0,0,0,0,0,0,-1,846,1156,0,0
-371,-132,0,0,0,0,0,0,0,0,0,-1,853,1156,0,0
-364,-132,0,0,0,0,0,0,0,0,0,-1,860,1156,0,0
-357,-132,0,0,0,0,0,0,0,0,0,-1,867,1156,0,0
-350,-132,0,0,0,0,0,0,0,0,0,-1,874,1156,0,0
-343,-132,0,0,0,0,0,0,0,0,0,-1,881,1156,0,0
-336,-132,0,0,0,0,0,0,0,0,0,-1,888,1156,0,0
-329,-132,0,0,0,0,0,0,0,0,0,-1,895,1156,0,0
-322,-132,0,0,0,0,0,0,0,0,0,-1,902,1156,0,0
-315,-132,0,0,0,0,0,0,0,0,0,-1,909,1156,0,0
-308,-132,0,0,0,0,0,0,0,0,0,-1,916,1156,0,0
-301,-132,0,0,0,0,0,0,0,0,0,-1,923,1156,0,0
-294,-132,0,0,0,0,0,0,0,0,0,-1,930,1156,0,0
-287,-132,0,0,0,0,0,0,0,0,0,-1,937,1156,0,0
-280,-132,0,0,0,0,0,0,0,0,0,-1,944,1156,0,0
-273,-132,0,0,0,0,0,0,0,0,0,-1,951,1156,0,0
-266,-132,0,0,0,0,0,0,0,0,0,-1,958,1156,0,0
-259,-132,0,0,0,0,0,0,0,0,0,-1,965,1156,0,0
-252,-132,0,0,0,0,0,0,0,0,0,-1,972,1156,0,0
-245,-132,0,0,0,0,0,0,0,0,0,-1,979,1156,0,0
-238,-132,0,0,0,0,0,0,0,0,0,-1,986,1156,0,0
-231,-132,0,0,0,0,0,0,0,0,0,-1,993,1156,0,0
-224,-132,0,0,0,0,0,0,0,0,0,-1,1000,1156,0,0
-217,-132,0,0,0,0,0,0,0,0,0,-1,1007,1156,0,0
-210,-132,0,0,0,0,0,0,0,0,0,-1,1014,1156,0,0
-203,-132,0,0,0,0,0,0,0,0,0,-1,1021,1156,0,0
-196,-132,0,0,0,0,0,0,0,0,0,-1,1028,1156,0,0
-189,-132,0,0,0,0,0,0,0,0,0,-1,1035,1156,0,0
-182,-132,0,0,0,0,0,0,0,0,0,-1,1042,1156,0,0
-175,-132,0,0,0,0,0,0,0,0,0,-1,1049,1156,0,0
-168,-132,0,0,0,0,0,0,0,0,0,-1,1056,1156,0,0
-161,-132,0,0,0,0,0,0,0,0,0,-1,1063,1156,0,0
-154,-132,0,0,0,0,0,0,0,0,0,-1,1070,1156,0,0
-147,-132,0,0,0,0,0,0,0,0,0,-1,1077,1156,0,0
-140,-132,0,0,0,0,0,0,0,0,0,-1,1084,1156,0,0
-133,-132,0,0,0,0,0,0,0,0,0,-1,1091,1156,0,0
-126,-132,0,0,0,0,0,0,0,0,0,-1,1098,1156,0,0
-119,-132,0,0,0,0,0,0,0,0,0,-1,1105,1156,0,0
-112,-132,0,0,0,0,0,0,0,0,0,-1,1112,1156,0,0
-105,-132,0,0,0,0,0,0,0,0,0,-1,1119,1156,0,0
-98,-132,0,0,0,0,0,0,0,0,0,-1,1126,1156,0,0
-91,-132,0,0,0,0,0,0,0,0,0,-1,1133,1156,0,0
-84,-132,0,0,0,0,0,0,0,0,0,-1,1140,1156,0,0
-77,-132,0,0,0,0,0,0,0,0,0,-1,1147,1156,0,0
-70,-132,0,0,0,0,0,0,0,0,0,-1,1154,1156,0,0
-63,-132,0,0,0,0,0,0,0,0,0,-1,1161,1156,0,0
-56,-132,0,0,0,0,0,0,0,0,0,-1,1168,1156,0,0
-49,-132,0,0,0,0,0,0,0,0,0,-1,1175,1156,0,0
-42,-132,0,0,0,0,0,0,0,0,0,-1,1182,1156,0,0
-35,-132,0,0,0,0,0,0,0,0,0,-1,1189,1156,0,0
-28,-132,0,0,0,0,0,0,0,0,0,-1,1196,1156,0,0
-21,-132,0,0,0,0,0,0,0,0,0,-1,1203,1156,0,0
-14,-132,0,0,0,0,0,0,0,0,0,-1,1210,1156,0,0
-7,-132,0,0,0,0,0,0,0,0,0,-1,1217,1156,0,0
0,-132,0,0,0,0,0,0,0,0,0,-1,1224,1156,0,0
7,-132,0,0,0,0,0,0,0,0,0,-1,1231,1156,0,0
14,-132,0,0,0,0,0,0,0,0,0,-1,1238,1156,0,0
21,-132,0,0,0,0,0,0,0,0,0,-1,1245,1156,0,0
28,-132,0,0,0,0,0,0,0,0,0,-1,1252,1156,0,0
35,-132,0,0,0,0,0,0,0,0,0,-1,1259,1156,0,0
42,-132,0,0,0,0,0,0,0,0,0,-1,1266,1156,0,0
49,-132,0,0,0,0,0,0,0,0,0,-1,1273,1156,0,0
56,-132,0,0,0,0,0,0,0,0,0,-1,1280,1156,0,0
63,-132,0,0,0,0,0,0,0,0,0,-1,1287,1156,0,0
70,-132,0,0,0,0,0,0,0,0,0,-1,1294,1156,0,0
77,-132,0,0,0,0,0,0,0,0,0,-1,1301,1156,0,0
84,-132,0,0,0,0,0,0,0,0,0,-1,1308,1156,0,0
91,-132,0,0,0,0,0,0,0,0,0,-1,1315,1156,0,0
98,-132,0,0,0,0,0,0,0,0,0,-1,1322,1156,0,0
105,-132,0,0,0,0,0,0,0,0,0,-1,1329,1156,0,0
112,-132,0,0,0,0,0,0,0,0,0,-1,1336,1156,0,0
119,-132,0,0,0,0,0,0,0,0,0,-1,1343,1156,0,0
126,-132,0,0,0,0,0,0,0,0,0,-1,1350,1156,0,0
133,-132,0,0,0,0,0,0,0,0,0,-1,1357,1156,0,0
140,-132,0,0,0,0,0,0,0,0,0,-1,1364,1156,0,0
147,-132,0,0,0,0,0,0,0,0,0,-1,1371,1156,0,0
154,-132,0,0,0,0,0,0,0,0,0,-1,1378,1156,0,0
161,-132,0,0,0,0,0,0,0,0,0,-1,1385,1156,0,0
168,-132,0,0,0,0,0,0,0,0,0,-1,1392,1156,0,0
175,-132,0,0,0,0,0,0,0,0,0,-1,1399,1156,0,0
182,-132,0,0,0,0,0,0,0,0,0,-1,1406,1156,0,0
189,-132,0,0,0,0,0,0,0,0,0,-1,1413,1156,0,0
196,-132,0,0,0,0,0,0,0,0,0,-1,1420,1156,0,0
203,-132,0,0,0,0,0,0,0,0,0,-1,1427,1156,0,0
210,-132,0,0,0,0,0,0,0,0,0,-1,1434,1156,0,0
217,-132,0,0,0,0,0,0,0,0,0,-1,1441,1156,0,0
224,-132,0,0,0,0,0,0,0,0,0,-1,1448,1156,0,0
231,-132,0,0,0,0,0,0,0,0,0,-1,1455,1156,0,0
238,-132,0,0,0,0,0,0,0,0,0,-1,1462,1156,0,0
245,-132,0,0,0,0,0,0,0,0,0,-1,1469,1156,0,0
252,-132,0,0,0,0,0,0,0,0,0,-1,1476,1156,0,0
259,-132,0,0,0,0,0,0,0,0,0,-1,1483,1156,0,0
266,-132,0,0,0,0,0,0,0,0,0,-1,1490,1156,0,0
273,-132,0,0,0,0,0,0,0,0,0,-1,1497,1156,0,0
280,-132,0,0,0,0,0,0,0,0,0,-1,1504,1156,0,0
287,-132,0,0,0,0,0,0,0,0,0,-1,1511,1156,0,0
294,-132,0,0,0,0,0,0,0,0,0,-1,1518,1156,0,0
301,-132,0,0,0,0,0,0,0,0,0,-1,1525,1156,0,0
308,-132,0,0,0,0,0,0,0,0,0,-1,1532,1156,0,0
315,-132,0,0,0,0,0,0,0,0,0,-1,1539,1156,0,0
322,-132,0,0,0,0,0,0,0,0,0,-1,1546,1156,0,0
329,-132,0,0,0,0,0,0,0,0,0,-1,1553,1156,0,0
336,-132,0,0,0,0,0,0,0,0,0,-1,1560,1156,0,0
343,-132,0,0,0,0,0,0,0,0,0,-1,1567,1156,0,0
350,-132,0,0,0,0,0,0,0,0,0,-1,1574,1156,0,0
357,-132,0,0,0,0,0,0,0,0,0,-1,1581,1156,0,0
364,-132,0,0,0,0,0,0,0,0,0,-1,1588,1156,0,0
371,-132,0,0,0,0,0,0,0,0,0,-1,1595,1156,0,0
378,-132,0,0,0,0,0,0,0,0,0,-1,1602,1156,0,0
385,-132,0,0,0,0,0,0,0,0,0,-1,1609,1156,0,0
392,-132,0,0,0,0,0,0,0,0,0,-1,1616,1156,0,0
399,-132,0,0,0,0,0,0,0,0,0,-1,1623,1156,0,0
406,-132,0,0,0,0,0,0,0,0,0,-1,1630,1156,0,0
413,-132,0,0,0,0,0,0,0,0,0,-1,1637,1156,0,0
420,-132,0,0,0,0,0,0,0,0,0,-1,1644,1156,0,0
427,-132,0,0,0,0,0,0,0,0,0,-1,1651,1156,0,0
434,-132,0,0,0,0,0,0,0,0,0,-1,1658,1156,0,0
441,-132,0,0,0,0,0,0,0,0,0,-1,1665,1156,0,0
448,-132,0,0,0,0,0,0,0,0,0,-1,1672,1156,0,0
455,-132,0,0,0,0,0,0,0,0,0,-1,1679,1156,0,0
462,-132,0,0,0,0,0,0,0,0,0,-1,1686,1156,0,0
469,-132,0,0,0,0,0,0,0,0,0,-1,1693,1156,0,0
476,-132,0,0,0,0,0,0,0,0,0,-1,1700,1156,0,0
483,-132,0,0,0,0,0,0,0,0,0,-1,1707,1156,0,0
490,-132,0,0,0,0,0,0,0,0,0,-1,1714,1156,0,0
497,-132,0,0,0,0,0,0,0,0,0,-1,1721,1156,0,0
504,-132,0,0,0,0,0,0,0,0,0,-1,1728,1156,0,0
511,-132,0,0,0,0,0,0,0,0,0,-1,1735,1156,0,0
518,-132,0,0,0,0,0,0,0,0,0,-1,1742,1156,0,0
525,-132,0,0,0,0,0,0,0,0,0,-1,1749,1156,0,0
532,-132,0,0,0,0,0,0,0,0,0,-1,1756,1156,0,0
539,-132,0,0,0,0,0,0,0,0,0,-1,1763,1156,0,0
546,-132,0,0,0,0,0,0,0,0,0,-1,1770,1156,0,0
553,-132,0,0,0,0,0,0,0,0,0,-1,1777,1156,0,0
560,-132,0,0,0,0,0,0,0,0,0,-1,1784,1156,0,0
567,-132,0,0,0,0,0,0,0,0,0,-1,1791,1156,0,0
574,-132,0,0,0,0,0,0,0,0,0,-1,1798,1156,0,0
581,-132,0,0,0,0,0,0,0,0,0,-1,1805,1156,0,0
588,-132,0,0,0,0,0,0,0,0,0,-1,1812,1156,0,0
595,-132,0,0,0,0,0,0,0,0,0,-1,1819,1156,0,0
602,-132,0,0,0,0,0,0,0,0,0,-1,1826,1156,0,0
609,-132,0,0,0,0,0,0,0,0,0,-1,1833,1156,0,0
616,-132,0,0,0,0,0,0,0,0,0,-1,1840,1156,0,0
623,-132,0,0,0,0,0,0,0,0,0,-1,1847,1156,0,0
630,-132,0,0,0,0,0,0,0,0,0,-1,1854,1156,0,0
637,-132,0,0,0,0,0,0,0,0,0,-1,1861,1156,0,0
644,-132,75.2585,2.11035,0.00266979,-8.34283e-05,0.000878992,0.00292648,-0.000340123,0.284131,0.00207368,0.0414699,1868,1156,75.2585,-2.11037
651,-132,75.1516,1.88342,0.00139591,-0.000144719,0.00104401,0.00192303,-0.000671837,0.46756,0.00155512,0.0407228,1875,1156,75.1517,-1.88343
658,-132,75.0754,1.9314,0.000456388,-0.000126836,0.00101567,0.00122148,-0.000891926,0.645602,0.00122511,0.0421047,1882,1156,75.0754,-1.93143
665,-132,75.1217,2.05615,-0.000268941,-1.97891e-05,0.00085264,0.000717327,-0.00100606,0.857938,0.000999641,0.043359,1889,1156,75.1217,-2.05609
672,-132,75.0836,1.95544,-0.000782818,0.000183914,0.000564759,0.000443916,-0.00104282,1.13935,0.000881277,0.0416625,1896,1156,75.0836,-1.95548
679,-132,75.1487,2.00293,-0.000694579,5.45112e-05,0.000461078,0.000274,-0.000914068,1.1265,0.000718347,0.0406813,1903,1156,75.1487,-2.00296
686,-132,75.1925,2.21082,-8.04184e-05,0.000161899,0.000370235,0.000430296,-0.000348815,0.94353,0.000450639,0.0384472,1910,1156,75.1926,-2.21078
693,-132,75.1217,2.22937,0.000267752,0.000134891,0.000535527,0.000740953,-0.00033831,0.72369,0.000637403,0.029854,1917,1156,75.1217,-2.22942
700,-132,75.1511,2.02966,0,0,0,0,0,0,0,-1,1924,1156,75.1511,-2.02963
707,-132,57.9275,3.01367,0,0,0,0,0,0,0,-1,1931,1156,57.9275,-3.01369
714,-132,57.8083,9.22156,0,0,0,0,0,0,0,-1,1938,1156,57.8084,-9.22151
721,-132,66.8484,9.75452,0,0,0,0,0,0,0,-1,1945,1156,66.8484,-9.75449
728,-132,66.7152,9.27124,0.00110814,0.00110802,0.00141363,0.00252171,-0.000305546,0.785376,0.00179169,0.0324656,1952,1156,66.7152,-9.27121
735,-132,66.6965,8.60852,0.00159753,0.000958668,0.00172887,0.00303623,-0.000480034,0.694047,0.00220168,0.0331605,1959,1156,66.6966,-8.60852
742,-132,66.7184,7.94531,0.00153658,0.000928977,0.00205013,0.0033053,-0.000839743,0.711841,0.00253033,0.0288163,1966,1156,66.7184,-7.94531
749,-132,66.6659,7.28076,0.000691885,0.00161088,0.00254761,0.0037401,-0.00143734,0.874621,0.00308618,0.0260015,1973,1156,66.6659,-7.28075
756,-132,66.6469,6.6095,-0.00239898,0.00422617,0.00317163,0.00549971,-0.00367251,1.18896,0.0053305,0.0251594,1980,1156,66.6469,-6.60945
763,-132,66.614,5.9751,-0.00795155,0.00851872,0.00392339,0.00940556,-0.00883839,1.34849,0.0105348,0.0159547,1987,1156,66.6141,-5.97512
770,-132,66.593,5.36328,-0.0150971,0.0136186,0.00483098,0.0144095,-0.0158881,1.40851,0.0174993,0.0158831,1994,1156,66.593,-5.36325
777,-132,66.512,4.72986,-0.0241019,0.0194956,0.00588148,0.0202751,-0.0248814,1.43903,0.0261163,0.0278423,2001,1156,66.512,-4.72991
784,-132,66.5818,4.21875,-0.0352682,0.0261618,0.00709085,0.0269696,-0.0360761,1.45735,0.0365258,0.0462367,2008,1156,66.5819,-4.21881
791,-132,66.7825,3.69739,0,0,0,0,0,0,0,-1,2015,1156,66.7824,-3.69743
798,-132,69.6697,-2.42651,0,0,0,0,0,0,0,-1,2022,1156,69.6698,2.42646
805,-132,69.2461,-0.735962,-0.0877584,0.0519721,0.0118201,0.052965,-0.0887512,1.487,0.0826849,0.0478372,2029,1156,69.2461,0.735961
812,-132,68.5593,-0.845947,-0.113691,0.0626395,0.0137556,0.0637061,-0.114757,1.49341,0.104432,0.0486194,2036,1156,68.5594,0.845898
-700,-139,0,0,0,0,0,0,0,0,0,-1,524,1163,0,0
-693,-139,-51.4747,-4.83777,0,0,0,0,0,0,0,-1,531,1163,-51.4747,4.83779
-686,-139,-51.5807,-4.75842,0,0,0,0,0,0,0,-1,538,1163,-51.5807,4.75841
-679,-139,-50.9241,-7.30774,0,0,0,0,0,0,0,-1,545,1163,-50.9241,7.30768
-672,-139,-51.2633,-7.33789,0,0,0,0,0,0,0,-1,552,1163,-51.2633,7.3379
-665,-139,-51.6025,-7.36816,0,0,0,0,0,0,0,-1,559,1163,-51.6025,7.36811
-658,-139,-48.239,1.87109,0,0,0,0,0,0,0,-1,566,1163,-48.239,-1.87108
-651,-139,-49.9734,2.65198,0,0,0,0,0,0,0,-1,573,1163,-49.9734,-2.65199
-644,-139,-49.9729,3.43555,-0.00752984,0.0362562,-0.0046668,0.0367481,-0.00802171,-1.46579,0.0275645,0.0297023,580,1163,-49.9729,-3.4355
-637,-139,-50.0551,4.078,-0.00693055,0.0222511,-0.00276186,0.0225102,-0.00718964,-1.47726,0.0178915,0.0166052,587,1163,-50.055,-4.07796
-630,-139,-50.0681,4.77271,-0.00547388,0.0106958,-0.00148047,0.0108302,-0.00560831,-1.48024,0.0096491,0.0109584,594,1163,-50.0681,-4.77265
-623,-139,-50.1022,5.48401,-0.00337272,0.00232643,-0.00110837,0.0025344,-0.00358068,-1.38532,0.00354773,0.0178672,601,1163,-50.1021,-5.48402
-616,-139,-50.198,6.15796,-0.00186664,0.000270657,-0.000718977,0.000490007,-0.00208598,-1.27468,0.00157953,0.0231695,608,1163,-50.198,-6.15798
-609,-139,-50.3753,6.91492,0,0,0,0,0,0,0,-1,615,1163,-50.3753,-6.91492
-602,-139,-47.2356,7.01514,0,0,0,0,0,0,0,-1,622,1163,-47.2356,-7.01517
-595,-139,-47.4487,7.65039,0,0,0,0,0,0,0,-1,629,1163,-47.4487,-7.6504
-588,-139,-47.801,8.16858,0,0,0,0,0,0,0,-1,636,1163,-47.801,-8.16855
-581,-139,-34.4892,6.72473,0,0,0,0,0,0,0,-1,643,1163,-34.4892,-6.72476
-574,-139,-23.0725,2.4043,0,0,0,0,0,0,0,-1,650,1163,-23.0725,-2.40433
-567,-139,-58.7595,0.271973,0,0,0,0,0,0,0,-1,657,1163,-58.7595,-0.272028
-560,-139,-58.8859,0.242188,-0.00105414,-0.000556561,0.00136196,0.000579149,-0.00218985,0.875737,0.00168643,0.0347412,664,1163,-58.886,-0.242128
-553,-139,-58.9003,0.326416,-0.00125439,-0.000168806,0.00175644,0.0011268,-0.00254999,0.935258,0.00217516,0.0345209,671,1163,-58.9003,-0.326474
-546,-139,-58.775,0.126953,-0.00244993,-0.000715642,0.0014101,7.26029e-05,-0.00323818,1.06107,0.00218339,0.0387661,678,1163,-58.775,-0.126895
-539,-139,-58.8079,0.126221,-0.0026666,-0.00212181,0.00110092,-0.00126008,-0.00352833,0.906676,0.00206461,0.0416373,685,1163,-58.8079,-0.126176
-532,-139,-58.8244,0.174927,-0.00223507,-0.00419073,0.000652245,-0.0020375,-0.0043883,0.294129,0.00253574,0.0406858,692,1163,-58.8244,-0.174985
-525,-139,-58.8898,0.293213,-0.0017678,-0.00676624,-0.00014626,-0.00176352,-0.00677051,-0.0292278,0.00405572,0.0375703,699,1163,-58.8898,-0.293239
-518,-139,0,0,0,0,0,0,0,0,0,-1,706,1163,0,0
-511,-139,0,0,0,0,0,0,0,0,0,-1,713,1163,0,0
-504,-139,0,0,0,0,0,0,0,0,0,-1,720,1163,0,0
-497,-139,0,0,0,0,0,0,0,0,0,-1,727,1163,0,0
-490,-139,0,0,0,0,0,0,0,0,0,-1,734,1163,0,0
-483,-139,0,0,0,0,0,0,0,0,0,-1,741,1163,0,0
-476,-139,0,0,0,0,0,0,0,0,0,-1,748,1163,0,0
-469,-139,0,0,0,0,0,0,0,0,0,-1,755,1163,0,0
-462,-139,0,0,0,0,0,0,0,0,0,-1,762,1163,0,0
-455,-139,0,0,0,0,0,0,0,0,0,-1,769,1163,0,0
-448,-139,0,0,0,0,0,0,0,0,0,-1,776,1163,0,0
-441,-139,0,0,0,0,0,0,0,0,0,-1,783,1163,0,0
-434,-139,0,0,0,0,0,0,0,0,0,-1,790,1163,0,0
-427,-139,0,0,0,0,0,0,0,0,0,-1,797,1163,0,0
-420,-139,0,0,0,0,0,0,0,0,0,-1,804,1163,0,0
-413,-139,0,0,0,0,0,0,0,0,0,-1,811,1163,0,0
-406,-139,0,0,0,0,0,0,0,0,0,-1,818,1163,0,0
-399,-139,0,0,0,0,0,0,0,0,0,-1,825,1163,0,0
-392,-139,0,0,0,0,0,0,0,0,0,-1,832,1163,0,0
-385,-139,0,0,0,0,0,0,0,0,0,-1,839,1163,0,0
-378,-139,0,0,0,0,0,0,0,0,0,-1,846,1163,0,0
-371,-139,0,0,0,0,0,0,0,0,0,-1,853,1163,0,0
-364,-139,0,0,0,0,0,0,0,0,0,-1,860,1163,0,0
-357,-139,0,0,0,0,0,0,0,0,0,-1,867,1163,0,0
-350,-139,0,0,0,0,0,0,0,0,0,-1,874,1163,0,0
-343,-139,0,0,0,0,0,0,0,0,0,-1,881,1163,0,0
-336,-139,0,0,0,0,0,0,0,0,0,-1,888,1163,0,0
-329,-139,0,0,0,0,0,0,0,0,0,-1,895,1163,0,0
-322,-139,0,0,0,0,0,0,0,0,0,-1,902,1163,0,0
-315,-139,0,0,0,0,0,0,0,0,0,-1,909,1163,0,0
-308,-139,0,0,0,0,0,0,0,0,0,-1,916,1163,0,0
-301,-139,0,0,0,0,0,0,0,0,0,-1,923,1163,0,0
-294,-139,0,0,0,0,0,0,0,0,0,-1,930,1163,0,0
-287,-139,0,0,0,0,0,0,0,0,0,-1,937,1163,0,0
-280,-139,0,0,0,0,0,0,0,0,0,-1,944,1163,0,0
-273,-139,0,0,0,0,0,0,0,0,0,-1,951,1163,0,0
-266,-139,0,0,0,0,0,0,0,0,0,-1,958,1163,0,0
-259,-139,0,0,0,0,0,0,0,0,0,-1,965,1163,0,0
-252,-139,0,0,0,0,0,0,0,0,0,-1,972,1163,0,0
-245,-139,0,0,0,0,0,0,0,0,0,-1,979,1163,0,0
-238,-139,0,0,0,0,0,0,0,0,0,-1,986,1163,0,0
-231,-139,0,0,0,0,0,0,0,0,0,-1,993,1163,0,0
-224,-139,0,0,0,0,0,0,0,0,0,-1,1000,1163,0,0
-217,-139,0,0,0,0,0,0,0,0,0,-1,1007,1163,0,0
-210,-139,0,0,0,0,0,0,0,0,0,-1,1014,1163,0,0
-203,-139,0,0,0,0,0,0,0,0,0,-1,1021,1163,0,0
-196,-139,0,0,0,0,0,0,0,0,0,-1,1028,1163,0,0
-189,-139,0,0,0,0,0,0,0,0,0,-1,1035,1163,0,0
-182,-139,0,0,0,0,0,0,0,0,0,-1,1042,1163,0,0
-175,-139,0,0,0,0,0,0,0,0,0,-1,1049,1163,0,0
-168,-139,0,0,0,0,0,0,0,0,0,-1,1056,1163,0,0
-161,-139,0,0,0,0,0,0,0,0,0,-1,1063,1163,0,0
-154,-139,0,0,0,0,0,0,0,0,0,-1,1070,1163,0,0
-147,-139,0,0,0,0,0,0,0,0,0,-1,1077,1163,0,0
-140,-139,0,0,0,0,0,0,0,0,0,-1,1084,1163,0,0
-133,-139,0,0,0,0,0,0,0,0,0,-1,1091,1163,0,0
-126,-139,0,0,0,0,0,0,0,0,0,-1,1098,1163,0,0
-119,-139,0,0,0,0,0,0,0,0,0,-1,1105,1163,0,0
-112,-139,0,0,0,0,0,0,0,0,0,-1,1112,1163,0,0
-105,-139,0,0,0,0,0,0,0,0,0,-1,1119,1163,0,0
-98,-139,0,0,0,0,0,0,0,0,0,-1,1126,1163,0,0
-91,-139,0,0,0,0,0,0,0,0,0,-1,1133,1163,0,0
-84,-139,0,0,0,0,0,0,0,0,0,-1,1140,1163,0,0
-77,-139,0,0,0,0,0,0,0,0,0,-1,1147,1163,0,0
-70,-139,0,0,0,0,0,0,0,0,0,-1,1154,1163,0,0
-63,-139,0,0,0,0,0,0,0,0,0,-1,1161,1163,0,0
-56,-139,0,0,0,0,0,0,0,0,0,-1,1168,1163,0,0
-49,-139,0,0,0,0,0,0,0,0,0,-1,1175,1163,0,0
-42,-139,0,0,0,0,0,0,0,0,0,-1,1182,1163,0,0
-35,-139,0,0,0,0,0,0,0,0,0,-1,1189,1163,0,0
-28,-139,0,0,0,0,0,0,0,0,0,-1,1196,1163,0,0
-21,-139,0,0,0,0,0,0,0,0,0,-1,1203,1163,0,0
-14,-139,0,0,0,0,0,0,0,0,0,-1,1210,1163,0,0
-7,-139,0,0,0,0,0,0,0,0,0,-1,1217,1163,0,0
0,-139,0,0,0,0,0,0,0,0,0,-1,1224,1163,0,0
7,-139,0,0,0,0,0,0,0,0,0,-1,1231,1163,0,0
14,-139,0,0,0,0,0,0,0,0,0,-1,1238,1163,0,0
21,-139,0,0,0,0,0,0,0,0,0,-1,1245,1163,0,0
28,-139,0,0,0,0,0,0,0,0,0,-1,1252,1163,0,0
35,-139,0,0,0,0,0,0,0,0,0,-1,1259,1163,0,0
42,-139,0,0,0,0,0,0,0,0,0,-1,1266,1163,0,0
49,-139,0,0,0,0,0,0,0,0,0,-1,1273,1163,0,0
56,-139,0,0,0,0,0,0,0,0,0,-1,1280,1163,0,0
63,-139,0,0,0,0,0,0,0,0,0,-1,1287,1163,0,0
70,-139,0,0,0,0,0,0,0,0,0,-1,1294,1163,0,0
77,-139,0,0,0,0,0,0,0,0,0,-1,1301,1163,0,0
84,-139,0,0,0,0,0,0,0,0,0,-1,1308,1163,0,0
91,-139,0,0,0,0,0,0,0,0,0,-1,1315,1163,0,0
98,-139,0,0,0,0,0,0,0,0,0,-1,1322,1163,0,0
105,-139,0,0,0,0,0,0,0,0,0,-1,1329,1163,0,0
112,-139,0,0,0,0,0,0,0,0,0,-1,1336,1163,0,0
119,-139,0,0,0,0,0,0,0,0,0,-1,1343,1163,0,0
126,-139,0,0,0,0,0,0,0,0,0,-1,1350,1163,0,0
133,-139,0,0,0,0,0,0,0,0,0,-1,1357,1163,0,0
140,-139,0,0,0,0,0,0,0,0,0,-1,1364,1163,0,0
147,-139,0,0,0,0,0,0,0,0,0,-1,1371,1163,0,0
154,-139,0,0,0,0,0,0,0,0,0,-1,1378,1163,0,0
161,-139,0,0,0,0,0,0,0,0,0,-1,1385,1163,0,0
168,-139,0,0,0,0,0,0,0,0,0,-1,1392,1163,0,0
175,-139,0,0,0,0,0,0,0,0,0,-1,1399,1163,0,0
182,-139,0,0,0,0,0,0,0,0,0,-1,1406,1163,0,0
189,-139,0,0,0,0,0,0,0,0,0,-1,1413,1163,0,0
196,-139,0,0,0,0,0,0,0,0,0,-1,1420,1163,0,0
203,-139,0,0,0,0,0,0,0,0,0,-1,1427,1163,0,0
210,-139,0,0,0,0,0,0,0,0,0,-1,1434,1163,0,0
217,-139,0,0,0,0,0,0,0,0,0,-1,1441,1163,0,0
224,-139,0,0,0,0,0,0,0,0,0,-1,1448,1163,0,0
231,-139,0,0,0,0,0,0,0,0,0,-1,1455,1163,0,0
238,-139,0,0,0,0,0,0,0,0,0,-1,1462,1163,0,0
245,-139,0,0,0,0,0,0,0,0,0,-1,1469,1163,0,0
252,-139,0,0,0,0,0,0,0,0,0,-1,1476,1163,0,0
259,-139,0,0,0,0,0,0,0,0,0,-1,1483,1163,0,0
266,-139,0,0,0,0,0,0,0,0,0,-1,1490,1163,0,0
273,-139,0,0,0,0,0,0,0,0,0,-1,1497,1163,0,0
280,-139,0,0,0,0,0,0,0,0,0,-1,1504,1163,0,0
287,-139,0,0,0,0,0,0,0,0,0,-1,1511,1163,0,0
294,-139,0,0,0,0,0,0,0,0,0,-1,1518,1163,0,0
301,-139,0,0,0,0,0,0,0,0,0,-1,1525,1163,0,0
308,-139,0,0,0,0,0,0,0,0,0,-1,1532,1163,0,0
315,-139,0,0,0,0,0,0,0,0,0,-1,1539,1163,0,0
322,-139,0,0,0,0,0,0,0,0,0,-1,1546,1163,0,0
329,-139,0,0,0,0,0,0,0,0,0,-1,1553,1163,0,0
336,-139,0,0,0,0,0,0,0,0,0,-1,1560,1163,0,0
343,-139,0,0,0,0,0,0,0,0,0,-1,1567,1163,0,0
350,-139,0,0,0,0,0,0,0,0,0,-1,1574,1163,0,0
357,-139,0,0,0,0,0,0,0,0,0,-1,1581,1163,0,0
364,-139,0,0,0,0,0,0,0,0,0,-1,1588,1163,0,0
371,-139,0,0,0,0,0,0,0,0,0,-1,1595,1163,0,0
378,-139,0,0,0,0,0,0,0,0,0,-1,1602,1163,0,0
385,-139,0,0,0,0,0,0,0,0,0,-1,1609,1163,0,0
392,-139,0,0,0,0,0,0,0,0,0,-1,1616,1163,0,0
399,-139,0,0,0,0,0,0,0,0,0,-1,1623,1163,0,0
406,-139,0,0,0,0,0,0,0,0,0,-1,1630,1163,0,0
413,-139,0,0,0,0,0,0,0,0,0,-1,1637,1163,0,0
420,-139,0,0,0,0,0,0,0,0,0,-1,1644,1163,0,0
427,-139,0,0,0,0,0,0,0,0,0,-1,1651,1163,0,0
434,-139,0,0,0,0,0,0,0,0,0,-1,1658,1163,0,0
441,-139,0,0,0,0,0,0,0,0,0,-1,1665,1163,0,0
448,-139,0,0,0,0,0,0,0,0,0,-1,1672,1163,0,0
455,-139,0,0,0,0,0,0,0,0,0,-1,1679,1163,0,0
462,-139,0,0,0,0,0,0,0,0,0,-1,1686,1163,0,0
469,-139,0,0,0,0,0,0,0,0,0,-1,1693,1163,0,0
476,-139,0,0,0,0,0,0,0,0,0,-1,1700,1163,0,0
483,-139,0,0,0,0,0,0,0,0,0,-1,1707,1163,0,0
490,-139,0,0,0,0,0,0,0,0,0,-1,1714,1163,0,0
497,-139,0,0,0,0,0,0,0,0,0,-1,1721,1163,0,0
504,-139,0,0,0,0,0,0,0,0,0,-1,1728,1163,0,0
511,-139,0,0,0,0,0,0,0,0,0,-1,1735,1163,0,0
518,-139,0,0,0,0,0,0,0,0,0,-1,1742,1163,0,0
525,-139,0,0,0,0,0,0,0,0,0,-1,1749,1163,0,0
532,-139,0,0,0,0,0,0,0,0,0,-1,1756,1163,0,0
539,-139,0,0,0,0,0,0,0,0,0,-1,1763,1163,0,0
546,-139,0,0,0,0,0,0,0,0,0,-1,1770,1163,0,0
553,-139,0,0,0,0,0,0,0,0,0,-1,1777,1163,0,0
560,-139,0,0,0,0,0,0,0,0,0,-1,1784,1163,0,0
567,-139,0,0,0,0,0,0,0,0,0,-1,1791,1163,0,0
574,-139,0,0,0,0,0,0,0,0,0,-1,1798,1163,0,0
581,-139,0,0,0,0,0,0,0,0,0,-1,1805,1163,0,0
588,-139,0,0,0,0,0,0,0,0,0,-1,1812,1163,0,0
595,-139,0,0,0,0,0,0,0,0,0,-1,1819,1163,0,0
602,-139,0,0,0,0,0,0,0,0,0,-1,1826,1163,0,0
609,-139,0,0,0,0,0,0,0,0,0,-1,1833,1163,0,0
616,-139,0,0,0,0,0,0,0,0,0,-1,1840,1163,0,0
623,-139,0,0,0,0,0,0,0,0,0,-1,1847,1163,0,0
630,-139,0,0,0,0,0,0,0,0,0,-1,1854,1163,0,0
637,-139,0,0,0,0,0,0,0,0,0,-1,1861,1163,0,0
644,-139,75.2535,1.99243,0.00243579,-0.000729699,0.00116242,0.00281679,-0.0011107,0.316731,0.00233776,0.0404171,1868,1163,75.2535,-1.99243
651,-139,75.3036,1.79919,0.00125794,-0.000558739,0.00124713,0.00189246,-0.00119326,0.470651,0.00179672,0.0410311,1875,1163,75.3035,-1.79917
658,-139,75.2482,1.95642,0.000367025,-0.000327728,0.00112413,0.00119623,-0.00115693,0.635544,0.00135866,0.0422782,1882,1163,75.2481,-1.9564
665,-139,75.1686,2.15015,-0.000331057,-1.1049e-05,0.000846157,0.000690099,-0.00103221,0.878842,0.00100089,0.0391189,1889,1163,75.1686,-2.15017
672,-139,75.1758,2.06653,-0.000826109,0.000405347,0.000426692,0.000538743,-0.000959505,1.26779,0.00087631,0.0378899,1896,1163,75.1758,-2.06658
679,-139,75.2134,2.05615,-0.00071311,0.000423087,0.000223462,0.000465456,-0.00075548,1.38342,0.000711506,0.0379882,1903,1163,75.2133,-2.05614
686,-139,75.0782,2.24268,2.45766e-05,0.000697734,7.45406e-05,0.000705889,1.64214e-05,1.46182,0.000465216,0.0370363,1910,1163,75.0782,-2.24263
693,-139,75.1088,2.16528,0.000363423,0.000683832,0.000296167,0.000860347,0.000186907,1.03332,0.000522527,0.0256111,1917,1163,75.1088,-2.1653
700,-139,75.1414,1.88367,0,0,0,0,0,0,0,-1,1924,1163,75.1414,-1.88368
707,-139,32.116,6.54346,0,0,0,0,0,0,0,-1,1931,1163,32.116,-6.54343
714,-139,62.1425,10.1428,0,0,0,0,0,0,0,-1,1938,1163,62.1424,-10.1428
721,-139,65.8013,9.82837,0,0,0,0,0,0,0,-1,1945,1163,65.8013,-9.82837
728,-139,66.0002,9.51306,0,0,0,0,0,0,0,-1,1952,1163,66.0002,-9.5131
735,-139,65.9492,8.75293,0.00183923,0.00135102,0.00156162,0.0031757,1.45432e-05,0.707868,0.0021123,0.0381596,1959,1163,65.9492,-8.75289
742,-139,66.0618,7.92847,0.00180563,0.00115598,0.00191525,0.0034234,-0.000461795,0.701398,0.00245074,0.0259462,1966,1163,66.0618,-7.9285
749,-139,66.0073,7.26355,0.0012352,0.00146198,0.00244309,0.00379431,-0.00109714,0.808588,0.00296374,0.0200916,1973,1163,66.0073,-7.26355
756,-139,65.9408,6.61609,-0.00187726,0.0038156,0.00313967,0.00520706,-0.00326872,1.15362,0.00493596,0.0119222,1980,1163,65.9408,-6.61604
763,-139,65.8955,5.95313,-0.00755989,0.00765047,0.00394434,0.00861247,-0.00852189,1.33157,0.00989257,0.0126426,1987,1163,65.8956,-5.95314
770,-139,65.8965,5.34546,-0.0148616,0.0121424,0.00485957,0.0129903,-0.0157095,1.39806,0.0165946,0.0136511,1994,1163,65.8966,-5.34548
777,-139,65.9221,4.79834,-0.0241199,0.0172938,0.00587716,0.0181117,-0.0249378,1.43252,0.0249586,0.0261453,2001,1163,65.9222,-4.79831
784,-139,66.054,4.27734,-0.0357384,0.0230927,0.00702459,0.0239198,-0.0365655,1.45359,0.0351747,0.0430417,2008,1163,66.0539,-4.27731
791,-139,66.2705,3.78235,0,0,0,0,0,0,0,-1,2015,1163,66.2706,-3.78236
798,-139,70.0654,-0.484009,-0.0684107,0.0368495,0.00966609,0.0377298,-0.069291,1.47998,0.0626777,0.0472671,2022,1163,70.0655,0.484029
805,-139,68.8499,-0.472412,-0.0910204,0.0449376,0.0111497,0.0458459,-0.0919287,1.48951,0.0810139,0.0472408,2029,1163,68.8498,0.472367
812,-139,0,0,0,0,0,0,0,0,0,-1,2036,1163,0,0
-700,-146,0,0,0,0,0,0,0,0,0,-1,524,1170,0,0
-693,-146,-51.506,-5.797,0,0,0,0,0,0,0,-1,531,1170,-51.506,5.79697
-686,-146,-51.814,-6.34314,0,0,0,0,0,0,0,-1,538,1170,-51.814,6.34313
-679,-146,-50.6996,-8.56714,0,0,0,0,0,0,0,-1,545,1170,-50.6996,8.56708
-672,-146,-51.073,-8.43994,0,0,0,0,0,0,0,-1,552,1170,-51.073,8.43999
-665,-146,-51.4464,-8.31287,0,0,0,0,0,0,0,-1,559,1170,-51.4464,8.3129
-658,-146,-49.3508,1.92358,0,0,0,0,0,0,0,-1,566,1170,-49.3508,-1.92355
-651,-146,-49.3035,2.64172,0,0,0,0,0,0,0,-1,573,1170,-49.3035,-2.64175
-644,-146,-49.2332,3.37231,-0.00385029,0.036343,-0.00709025,0.0375571,-0.00506436,-1.40121,0.0268857,0.0279701,580,1170,-49.2332,-3.37235
-637,-146,-49.3178,4.07947,-0.0045162,0.021918,-0.00417029,0.0225603,-0.00515851,-1.41798,0.0170223,0.0132522,587,1170,-49.3178,-4.07943
-630,-146,-49.3427,4.77747,-0.0043429,0.010479,-0.00211735,0.0107756,-0.00463944,-1.43165,0.00913187,0.0108965,594,1170,-49.3427,-4.77752
-623,-146,-49.3879,5.46729,-0.00350795,0.00256266,-0.00123074,0.00280268,-0.00374798,-1.37819,0.00379513,0.0138446,601,1170,-49.3879,-5.46726
-616,-146,-49.5126,6.14758,-0.00247142,0.000488843,-0.000876546,0.000728921,-0.0027115,-1.30346,0.00209338,0.0224623,608,1170,-49.5126,-6.14752
-609,-146,-49.6436,6.83533,0,0,0,0,0,0,0,-1,615,1170,-49.6436,-6.83529
-602,-146,-47.1765,6.91858,0,0,0,0,0,0,0,-1,622,1170,-47.1765,-6.91855
-595,-146,-46.73,7.76172,0,0,0,0,0,0,0,-1,629,1170,-46.73,-7.76171
-588,-146,-45.0034,7.81934,0,0,0,0,0,0,0,-1,636,1170,-45.0034,-7.81931
-581,-146,-31.7815,6.30347,0,0,0,0,0,0,0,-1,643,1170,-31.7815,-6.3035
-574,-146,-17.9915,3.79114,0,0,0,0,0,0,0,-1,650,1170,-17.9915,-3.79118
-567,-146,-44.4572,0.6604,0,0,0,0,0,0,0,-1,657,1170,-44.4572,-0.660404
-560,-146,-58.8579,0.302612,0,0,0,0,0,0,0,-1,664,1170,-58.8579,-0.302609
-553,-146,-58.8442,0.25293,-0.00264232,0.00060589,0.00166541,0.00130801,-0.00334444,1.17182,0.00277054,0.0373159,671,1170,-58.8443,-0.252904
-546,-146,-58.8473,0.128174,-0.0036133,0.000285289,0.00160263,0.00085952,-0.00418753,1.22674,0.00311794,0.0409734,678,1170,-58.8473,-0.128218
-539,-146,-58.9065,0.121826,-0.00330609,-0.000980978,0.00153392,-0.000218841,-0.00406823,1.10967,0.00264223,0.0408457,685,1170,-58.9065,-0.12184
-532,-146,-58.8795,0.328125,-0.00218638,-0.00307061,0.00125357,-0.00129925,-0.00395774,0.615866,0.00232949,0.039889,692,1170,-58.8795,-0.328083
-525,-146,-58.9735,0.603882,-0.000842491,-0.00588463,0.000447224,-0.000803131,-0.00592399,0.0877842,0.0037107,0.041257,699,1170,-58.9735,-0.60392
-518,-146,0,0,0,0,0,0,0,0,0,-1,706,1170,0,0
-511,-146,0,0,0,0,0,0,0,0,0,-1,713,1170,0,0
-504,-146,0,0,0,0,0,0,0,0,0,-1,720,1170,0,0
-497,-146,0,0,0,0,0,0,0,0,0,-1,727,1170,0,0
-490,-146,0,0,0,0,0,0,0,0,0,-1,734,1170,0,0
-483,-146,0,0,0,0,0,0,0,0,0,-1,741,1170,0,0
-476,-146,0,0,0,0,0,0,0,0,0,-1,748,1170,0,0
-469,-146,0,0,0,0,0,0,0,0,0,-1,755,1170,0,0
-462,-146,0,0,0,0,0,0,0,0,0,-1,762,1170,0,0
-455,-146,0,0,0,0,0,0,0,0,0,-1,769,1170,0,0
-448,-146,0,0,0,0,0,0,0,0,0,-1,776,1170,0,0
-441,-146,0,0,0,0,0,0,0,0,0,-1,783,1170,0,0
-434,-146,0,0,0,0,0,0,0,0,0,-1,790,1170,0,0
-427,-146,0,0,0,0,0,0,0,0,0,-1,797,1170,0,0
-420,-146,0,0,0,0,0,0,0,0,0,-1,804,1170,0,0
-413,-146,0,0,0,0,0,0,0,0,0,-1,811,1170,0,0
-406,-146,0,0,0,0,0,0,0,0,0,-1,818,1170,0,0
-399,-146,0,0,0,0,0,0,0,0,0,-1,825,1170,0,0
-392,-146,0,0,0,0,0,0,0,0,0,-1,832,1170,0,0
-385,-146,0,0,0,0,0,0,0,0,0,-1,839,1170,0,0
-378,-146,0,0,0,0,0,0,0,0,0,-1,846,1170,0,0
-371,-146,0,0,0,0,0,0,0,0,0,-1,853,1170,0,0
-364,-146,0,0,0,0,0,0,0,0,0,-1,860,1170,0,0
-357,-146,0,0,0,0,0,0,0,0,0,-1,867,1170,0,0
-350,-146,0,0,0,0,0,0,0,0,0,-1,874,1170,0,0
-343,-146,0,0,0,0,0,0,0,0,0,-1,881,1170,0,0
-336,-146,0,0,0,0,0,0,0,0,0,-1,888,1170,0,0
-329,-146,0,0,0,0,0,0,0,0,0,-1,895,1170,0,0
-322,-146,0,0,0,0,0,0,0,0,0,-1,902,1170,0,0
-315,-146,0,0,0,0,0,0,0,0,0,-1,909,1170,0,0
-308,-146,0,0,0,0,0,0,0,0,0,-1,916,1170,0,0
-301,-146,0,0,0,0,0,0,0,0,0,-1,923,1170,0,0
-294,-146,0,0,0,0,0,0,0,0,0,-1,930,1170,0,0
-287,-146,0,0,0,0,0,0,0,0,0,-1,937,1170,0,0
-280,-146,0,0,0,0,0,0,0,0,0,-1,944,1170,0,0
-273,-146,0,0,0,0,0,0,0,0,0,-1,951,1170,0,0
-266,-146,0,0,0,0,0,0,0,0,0,-1,958,1170,0,0
-259,-146,0,0,0,0,0,0,0,0,0,-1,965,1170,0,0
-252,-146,0,0,0,0,0,0,0,0,0,-1,972,1170,0,0
-245,-146,0,0,0,0,0,0,0,0,0,-1,979,1170,0,0
-238,-146,0,0,0,0,0,0,0,0,0,-1,986,1170,0,0
-231,-146,0,0,0,0,0,0,0,0,0,-1,993,1170,0,0
-224,-146,0,0,0,0,0,0,0,0,0,-1,1000,1170,0,0
-217,-146,0,0,0,0,0,0,0,0,0,-1,1007,1170,0,0
-210,-146,0,0,0,0,0,0,0,0,0,-1,1014,1170,0,0
-203,-146,0,0,0,0,0,0,0,0,0,-1,1021,1170,0,0
-196,-146,0,0,0,0,0,0,0,0,0,-1,1028,1170,0,0
-189,-146,0,0,0,0,0,0,0,0,0,-1,1035,1170,0,0
-182,-146,0,0,0,0,0,0,0,0,0,-1,1042,1170,0,0
-175,-146,0,0,0,0,0,0,0,0,0,-1,1049,1170,0,0
-168,-146,0,0,0,0,0,0,0,0,0,-1,1056,1170,0,0
-161,-146,0,0,0,0,0,0,0,0,0,-1,1063,1170,0,0
-154,-146,0,0,0,0,0,0,0,0,0,-1,1070,1170,0,0
-147,-146,0,0,0,0,0,0,0,0,0,-1,1077,1170,0,0
-140,-146,0,0,0,0,0,0,0,0,0,-1,1084,1170,0,0
-133,-146,0,0,0,0,0,0,0,0,0,-1,1091,1170,0,0
-126,-146,0,0,0,0,0,0,0,0,0,-1,1098,1170,0,0
-119,-146,0,0,0,0,0,0,0,0,0,-1,1105,1170,0,0
-112,-146,0,0,0,0,0,0,0,0,0,-1,1112,1170,0,0
-105,-146,0,0,0,0,0,0,0,0,0,-1,1119,1170,0,0
-98,-146,0,0,0,0,0,0,0,0,0,-1,1126,1170,0,0
-91,-146,0,0,0,0,0,0,0,0,0,-1,1133,1170,0,0
-84,-146,0,0,0,0,0,0,0,0,0,-1,1140,1170,0,0
-77,-146,0,0,0,0,0,0,0,0,0,-1,1147,1170,0,0
-70,-146,0,0,0,0,0,0,0,0,0,-1,1154,1170,0,0
-63,-146,0,0,0,0,0,0,0,0,0,-1,1161,1170,0,0
-56,-146,0,0,0,0,0,0,0,0,0,-1,1168,1170,0,0
-49,-146,0,0,0,0,0,0,0,0,0,-1,1175,1170,0,0
-42,-146,0,0,0,0,0,0,0,0,0,-1,1182,1170,0,0
-35,-146,0,0,0,0,0,0,0,0,0,-1,1189,1170,0,0
-28,-146,0,0,0,0,0,0,0,0,0,-1,1196,1170,0,0
-21,-146,0,0,0,0,0,0,0,0,0,-1,1203,1170,0,0
-14,-146,0,0,0,0,0,0,0,0,0,-1,1210,1170,0,0
-7,-146,0,0,0,0,0,0,0,0,0,-1,1217,1170,0,0
0,-146,0,0,0,0,0,0,0,0,0,-1,1224,1170,0,0
7,-146,0,0,0,0,0,0,0,0,0,-1,1231,1170,0,0
14,-146,0,0,0,0,0,0,0,0,0,-1,1238,1170,0,0
21,-146,0,0,0,0,0,0,0,0,0,-1,1245,1170,0,0
28,-146,0,0,0,0,0,0,0,0,0,-1,1252,1170,0,0
35,-146,0,0,0,0,0,0,0,0,0,-1,1259,1170,0,0
42,-146,0,0,0,0,0,0,0,0,0,-1,1266,1170,0,0
49,-146,0,0,0,0,0,0,0,0,0,-1,1273,1170,0,0
56,-146,0,0,0,0,0,0,0,0,0,-1,1280,1170,0,0
63,-146,0,0,0,0,0,0,0,0,0,-1,1287,1170,0,0
70,-146,0,0,0,0,0,0,0,0,0,-1,1294,1170,0,0
77,-146,0,0,0,0,0,0,0,0,0,-1,1301,1170,0,0
84,-146,0,0,0,0,0,0,0,0,0,-1,1308,1170,0,0
91,-146,0,0,0,0,0,0,0,0,0,-1,1315,1170,0,0
98,-146,0,0,0,0,0,0,0,0,0,-1,1322,1170,0,0
105,-146,0,0,0,0,0,0,0,0,0,-1,1329,1170,0,0
112,-146,0,0,0,0,0,0,0,0,0,-1,1336,1170,0,0
119,-146,0,0,0,0,0,0,0,0,0,-1,1343,1170,0,0
126,-146,0,0,0,0,0,0,0,0,0,-1,1350,1170,0,0
133,-146,0,0,0,0,0,0,0,0,0,-1,1357,1170,0,0
140,-146,0,0,0,0,0,0,0,0,0,-1,1364,1170,0,0
147,-146,0,0,0,0,0,0,0,0,0,-1,1371,1170,0,0
154,-146,0,0,0,0,0,0,0,0,0,-1,1378,1170,0,0
161,-146,0,0,0,0,0,0,0,0,0,-1,1385,1170,0,0
168,-146,0,0,0,0,0,0,0,0,0,-1,1392,1170,0,0
175,-146,0,0,0,0,0,0,0,0,0,-1,1399,1170,0,0
182,-146,0,0,0,0,0,0,0,0,0,-1,1406,1170,0,0
189,-146,0,0,0,0,0,0,0,0,0,-1,1413,1170,0,0
196,-146,0,0,0,0,0,0,0,0,0,-1,1420,1170,0,0
203,-146,0,0,0,0,0,0,0,0,0,-1,1427,1170,0,0
210,-146,0,0,0,0,0,0,0,0,0,-1,1434,1170,0,0
217,-146,0,0,0,0,0,0,0,0,0,-1,1441,1170,0,0
224,-146,0,0,0,0,0,0,0,0,0,-1,1448,1170,0,0
231,-146,0,0,0,0,0,0,0,0,0,-1,1455,1170,0,0
238,-146,0,0,0,0,0,0,0,0,0,-1,1462,1170,0,0
245,-146,0,0,0,0,0,0,0,0,0,-1,1469,1170,0,0
252,-146,0,0,0,0,0,0,0,0,0,-1,1476,1170,0,0
259,-146,0,0,0,0,0,0,0,0,0,-1,1483,1170,0,0
266,-146,0,0,0,0,0,0,0,0,0,-1,1490,1170,0,0
273,-146,0,0,0,0,0,0,0,0,0,-1,1497,1170,0,0
280,-146,0,0,0,0,0,0,0,0,0,-1,1504,1170,0,0
287,-146,0,0,0,0,0,0,0,0,0,-1,1511,1170,0,0
294,-146,0,0,0,0,0,0,0,0,0,-1,1518,1170,0,0
301,-146,0,0,0,0,0,0,0,0,0,-1,1525,1170,0,0
308,-146,0,0,0,0,0,0,0,0,0,-1,1532,1170,0,0
315,-146,0,0,0,0,0,0,0,0,0,-1,1539,1170,0,0
322,-146,0,0,0,0,0,0,0,0,0,-1,1546,1170,0,0
329,-146,0,0,0,0,0,0,0,0,0,-1,1553,1170,0,0
336,-146,0,0,0,0,0,0,0,0,0,-1,1560,1170,0,0
343,-146,0,0,0,0,0,0,0,0,0,-1,1567,1170,0,0
350,-146,0,0,0,0,0,0,0,0,0,-1,1574,1170,0,0
357,-146,0,0,0,0,0,0,0,0,0,-1,1581,1170,0,0
364,-146,0,0,0,0,0,0,0,0,0,-1,1588,1170,0,0
371,-146,0,0,0,0,0,0,0,0,0,-1,1595,1170,0,0
378,-146,0,0,0,0,0,0,0,0,0,-1,1602,1170,0,0
385,-146,0,0,0,0,0,0,0,0,0,-1,1609,1170,0,0
392,-146,0,0,0,0,0,0,0,0,0,-1,1616,1170,0,0
399,-146,0,0,0,0,0,0,0,0,0,-1,1623,1170,0,0
406,-146,0,0,0,0,0,0,0,0,0,-1,1630,1170,0,0
413,-146,0,0,0,0,0,0,0,0,0,-1,1637,1170,0,0
420,-146,0,0,0,0,0,0,0,0,0,-1,1644,1170,0,0
427,-146,0,0,0,0,0,0,0,0,0,-1,1651,1170,0,0
434,-146,0,0,0,0,0,0,0,0,0,-1,1658,1170,0,0
441,-146,0,0,0,0,0,0,0,0,0,-1,1665,1170,0,0
448,-146,0,0,0,0,0,0,0,0,0,-1,1672,1170,0,0
455,-146,0,0,0,0,0,0,0,0,0,-1,1679,1170,0,0
462,-146,0,0,0,0,0,0,0,0,0,-1,1686,1170,0,0
469,-146,0,0,0,0,0,0,0,0,0,-1,1693,1170,0,0
476,-146,0,0,0,0,0,0,0,0,0,-1,1700,1170,0,0
483,-146,0,0,0,0,0,0,0,0,0,-1,1707,1170,0,0
490,-146,0,0,0,0,0,0,0,0,0,-1,1714,1170,0,0
497,-146,0,0,0,0,0,0,0,0,0,-1,1721,1170,0,0
504,-146,0,0,0,0,0,0,0,0,0,-1,1728,1170,0,0
511,-146,0,0,0,0,0,0,0,0,0,-1,1735,1170,0,0
518,-146,0,0,0,0,0,0,0,0,0,-1,1742,1170,0,0
525,-146,0,0,0,0,0,0,0,0,0,-1,1749,1170,0,0
532,-146,0,0,0,0,0,0,0,0,0,-1,1756,1170,0,0
539,-146,0,0,0,0,0,0,0,0,0,-1,1763,1170,0,0
546,-146,0,0,0,0,0,0,0,0,0,-1,1770,1170,0,0
553,-146,0,0,0,0,0,0,0,0,0,-1,1777,1170,0,0
560,-146,0,0,0,0,0,0,0,0,0,-1,1784,1170,0,0
567,-146,0,0,0,0,0,0,0,0,0,-1,1791,1170,0,0
574,-146,0,0,0,0,0,0,0,0,0,-1,1798,1170,0,0
581,-146,0,0,0,0,0,0,0,0,0,-1,1805,1170,0,0
588,-146,0,0,0,0,0,0,0,0,0,-1,1812,1170,0,0
595,-146,0,0,0,0,0,0,0,0,0,-1,1819,1170,0,0
602,-146,0,0,0,0,0,0,0,0,0,-1,1826,1170,0,0
609,-146,0,0,0,0,0,0,0,0,0,-1,1833,1170,0,0
616,-146,0,0,0,0,0,0,0,0,0,-1,1840,1170,0,0
623,-146,0,0,0,0,0,0,0,0,0,-1,1847,1170,0,0
630,-146,0,0,0,0,0,0,0,0,0,-1,1854,1170,0,0
637,-146,75.1577,2.05164,0.00345991,-0.00115553,0.000824559,0.00360279,-0.00129842,0.171584,0.00293212,0.0413699,1861,1170,75.1577,-2.05166
644,-146,75.1495,2.00195,0.00206756,-0.00104478,0.00120521,0.00247969,-0.0014569,0.32949,0.00229822,0.0394543,1868,1170,75.1495,-2.00193
651,-146,75.1996,1.91223,0.00103653,-0.000715222,0.00120365,0.00164925,-0.00132794,0.470866,0.00172222,0.0376263,1875,1170,75.1996,-1.91228
658,-146,75.2136,2.04492,0.000241751,-0.000314473,0.000978141,0.000980549,-0.00105327,0.64689,0.00117448,0.0405965,1882,1170,75.2136,-2.04495
665,-146,75.1772,2.11438,-0.000384975,0.000187867,0.000577428,0.000546007,-0.000743116,1.01563,0.00074717,0.0395421,1889,1170,75.1772,-2.11437
672,-146,75.2251,2.13281,-0.000827921,0.000805041,1.63471e-05,0.000805205,-0.000828085,1.56079,0.000943011,0.0376235,1896,1170,75.225,-2.13281
679,-146,75.2042,2.0968,-0.000665467,0.000986529,-0.000326532,0.00104873,-0.000727667,-1.38256,0.00103117,0.031816,1903,1170,75.2042,-2.09684
686,-146,75.0581,2.0813,0.000180868,0.00136628,-0.000519939,0.00156201,-1.48656e-05,-1.21075,0.00104633,0.026838,1910,1170,75.0581,-2.08128
693,-146,75.1187,2.01025,0.000457481,0.00128853,-0.000167203,0.00132091,0.000425102,-1.37951,0.000778603,0.0224275,1917,1170,75.1186,-2.01028
700,-146,75.1431,1.76929,0,0,0,0,0,0,0,-1,1924,1170,75.1431,-1.76931
707,-146,29.9441,6.94653,0,0,0,0,0,0,0,-1,1931,1170,29.9441,-6.94652
714,-146,31.325,6.13245,0,0,0,0,0,0,0,-1,1938,1170,31.325,-6.1325
721,-146,61.3608,9.47766,0,0,0,0,0,0,0,-1,1945,1170,61.3608,-9.47767
728,-146,65.4308,8.81714,0,0,0,0,0,0,0,-1,1952,1170,65.4308,-8.81713
735,-146,65.3743,8.53015,0.00187731,0.00165959,0.00127867,0.00305175,0.000485152,0.742933,0.00189361,0.0419283,1959,1170,65.3742,-8.53014
742,-146,65.4269,7.91028,0.001789,0.00136559,0.00168187,0.00327244,-0.000117848,0.722791,0.00222195,0.0205127,1966,1170,65.4268,-7.91023
749,-146,65.3042,7.32446,0.00142528,0.00148427,0.00228313,0.0037381,-0.000828543,0.791858,0.00280927,0.0171138,1973,1170,65.3042,-7.32452
756,-146,65.2583,6.62744,-0.00165128,0.00354164,0.0030531,0.00495306,-0.00306269,1.13777,0.0046706,0.0130033,1980,1170,65.2583,-6.62748
763,-146,65.1938,5.94067,-0.00728632,0.00679762,0.003916,0.00781321,-0.00830191,1.31704,0.0093055,0.0129633,1987,1170,65.1938,-5.94062
770,-146,65.1699,5.30725,-0.0145248,0.0105553,0.00484653,0.0114593,-0.0154288,1.3864,0.0155802,0.0138077,1994,1170,65.1699,-5.30724
777,-146,65.2329,4.80688,-0.0237303,0.0148298,0.00582705,0.0156911,-0.0245916,1.42404,0.0234457,0.0248143,2001,1170,65.2329,-4.80693
784,-146,65.3208,4.42566,-0.0353278,0.0195305,0.00688606,0.0203817,-0.036179,1.44781,0.0330772,0.043926,2008,1170,65.3209,-4.42563
791,-146,64.7988,4.1145,0,0,0,0,0,0,0,-1,2015,1170,64.7988,-4.11444
798,-146,70.0037,-0.377808,-0.0680824,0.0303438,0.00903512,0.0311663,-0.0689049,1.48001,0.0591297,0.0444506,2022,1170,70.0036,0.37786
805,-146,68.4302,-0.727295,-0.0908679,0.036361,0.0100672,0.0371527,-0.0916595,1.49232,0.076557,0.04593,2029,1170,68.4301,0.727262
812,-146,0,0,0,0,0,0,0,0,0,-1,2036,1170,0,0
-700,-153,0,0,0,0,0,0,0,0,0,-1,524,1177,0,0
-693,-153,0,0,0,0,0,0,0,0,0,-1,531,1177,0,0
-686,-153,-51.7202,-7.58618,0,0,0,0,0,0,0,-1,538,1177,-51.7202,7.58622
-679,-153,-55.2467,1.08948,0,0,0,0,0,0,0,-1,545,1177,-55.2467,-1.08953
-672,-153,-50.6904,-9.79541,0,0,0,0,0,0,0,-1,552,1177,-50.6904,9.7954
-665,-153,-51.1077,-9.62549,0,0,0,0,0,0,0,-1,559,1177,-51.1077,9.62547
-658,-153,-51.497,-9.48071,0,0,0,0,0,0,0,-1,566,1177,-51.497,9.48077
-651,-153,-48.207,2.47546,0,0,0,0,0,0,0,-1,573,1177,-48.2069,-2.47548
-644,-153,-48.4434,3.34509,-0.0032355,0.0349387,-0.00818413,0.0366193,-0.0049161,-1.36826,0.0262057,0.0322423,580,1177,-48.4434,-3.34508
-637,-153,-48.5726,4.11511,-0.00382433,0.0210775,-0.00498177,0.0220371,-0.00478398,-1.38049,0.0165186,0.0132938,587,1177,-48.5726,-4.11506
-630,-153,-48.6136,4.81079,-0.00382977,0.0103053,-0.00268356,0.0107976,-0.0043221,-1.38935,0.0089923,0.0106601,594,1177,-48.6136,-4.81079
-623,-153,-48.6649,5.51013,-0.00340755,0.00301556,-0.00168291,0.00342978,-0.00382178,-1.32946,0.00418873,0.0119221,601,1177,-48.6649,-5.51018
-616,-153,-48.7471,6.1969,-0.00262715,0.000596454,-0.00163472,0.00128035,-0.00331105,-1.17457,0.0027359,0.0157645,608,1177,-48.7471,-6.19688
-609,-153,-48.9017,6.78943,-0.00240596,0.000350016,-0.00125489,0.000835785,-0.00289173,-1.20146,0.00225856,0.0475824,615,1177,-48.9018,-6.7894
-602,-153,-48.9849,7.10999,0,0,0,0,0,0,0,-1,622,1177,-48.9849,-7.10998
-595,-153,-43.9551,7.35718,0,0,0,0,0,0,0,-1,629,1177,-43.9551,-7.35722
-588,-153,-32.348,5.51038,0,0,0,0,0,0,0,-1,636,1177,-32.348,-5.51034
-581,-153,-33.4568,6.41492,0,0,0,0,0,0,0,-1,643,1177,-33.4568,-6.41497
-574,-153,-25.4814,5.16956,0,0,0,0,0,0,0,-1,650,1177,-25.4814,-5.16961
-567,-153,-35.3121,1.09485,0,0,0,0,0,0,0,-1,657,1177,-35.3121,-1.09482
-560,-153,-58.7393,0.153931,0,0,0,0,0,0,0,-1,664,1177,-58.7393,-0.15395
-553,-153,-58.8057,0.187988,-0.00348641,0.000456288,0.00104563,0.000716429,-0.00374655,1.32696,0.0027676,0.0403402,671,1177,-58.8057,-0.187992
-546,-153,-58.9394,0.278931,-0.00440386,0.000492488,0.00125401,0.000794967,-0.00470634,1.33411,0.00343336,0.0408422,678,1177,-58.9394,-0.278879
-539,-153,-59.0178,0.252197,-0.00395646,-0.000288119,0.00157669,0.000296413,-0.004541,1.21577,0.00313082,0.0426036,685,1177,-59.0178,-0.252174
-532,-153,-59.0023,0.499878,-0.00254134,-0.00201555,0.0016785,-0.000579478,-0.00397741,0.863079,0.00248111,0.043345,692,1177,-59.0023,-0.499912
-525,-153,-58.8645,0.842285,0,0,0,0,0,0,0,-1,699,1177,-58.8645,-0.842244
-518,-153,0,0,0,0,0,0,0,0,0,-1,706,1177,0,0
-511,-153,0,0,0,0,0,0,0,0,0,-1,713,1177,0,0
-504,-153,0,0,0,0,0,0,0,0,0,-1,720,1177,0,0
-497,-153,0,0,0,0,0,0,0,0,0,-1,727,1177,0,0
-490,-153,0,0,0,0,0,0,0,0,0,-1,734,1177,0,0
-483,-153,0,0,0,0,0,0,0,0,0,-1,741,1177,0,0
-476,-153,0,0,0,0,0,0,0,0,0,-1,748,1177,0,0
-469,-153,0,0,0,0,0,0,0,0,0,-1,755,1177,0,0
-462,-153,0,0,0,0,0,0,0,0,0,-1,762,1177,0,0
-455,-153,0,0,0,0,0,0,0,0,0,-1,769,1177,0,0
-448,-153,0,0,0,0,0,0,0,0,0,-1,776,1177,0,0
-441,-153,0,0,0,0,0,0,0,0,0,-1,783,1177,0,0
-434,-153,0,0,0,0,0,0,0,0,0,-1,790,1177,0,0
-427,-153,0,0,0,0,0,0,0,0,0,-1,797,1177,0,0
-420,-153,0,0,0,0,0,0,0,0,0,-1,804,1177,0,0
-413,-153,0,0,0,0,0,0,0,0,0,-1,811,1177,0,0
-406,-153,0,0,0,0,0,0,0,0,0,-1,818,1177,0,0
-399,-153,0,0,0,0,0,0,0,0,0,-1,825,1177,0,0
-392,-153,0,0,0,0,0,0,0,0,0,-1,832,1177,0,0
-385,-153,0,0,0,0,0,0,0,0,0,-1,839,1177,0,0
-378,-153,0,0,0,0,0,0,0,0,0,-1,846,1177,0,0
-371,-153,0,0,0,0,0,0,0,0,0,-1,853,1177,0,0
-364,-153,0,0,0,0,0,0,0,0,0,-1,860,1177,0,0
-357,-153,0,0,0,0,0,0,0,0,0,-1,867,1177,0,0
-350,-153,0,0,0,0,0,0,0,0,0,-1,874,1177,0,0
-343,-153,0,0,0,0,0,0,0,0,0,-1,881,1177,0,0
-336,-153,0,0,0,0,0,0,0,0,0,-1,888,1177,0,0
-329,-153,0,0,0,0,0,0,0,0,0,-1,895,1177,0,0
-322,-153,0,0,0,0,0,0,0,0,0,-1,902,1177,0,0
-315,-153,0,0,0,0,0,0,0,0,0,-1,909,1177,0,0
-308,-153,0,0,0,0,0,0,0,0,0,-1,916,1177,0,0
-301,-153,0,0,0,0,0,0,0,0,0,-1,923,1177,0,0
-294,-153,0,0,0,0,0,0,0,0,0,-1,930,1177,0,0
-287,-153,0,0,0,0,0,0,0,0,0,-1,937,1177,0,0
-280,-153,0,0,0,0,0,0,0,0,0,-1,944,1177,0,0
-273,-153,0,0,0,0,0,0,0,0,0,-1,951,1177,0,0
-266,-153,0,0,0,0,0,0,0,0,0,-1,958,1177,0,0
-259,-153,0,0,0,0,0,0,0,0,0,-1,965,1177,0,0
-252,-153,0,0,0,0,0,0,0,0,0,-1,972,1177,0,0
-245,-153,0,0,0,0,0,0,0,0,0,-1,979,1177,0,0
-238,-153,0,0,0,0,0,0,0,0,0,-1,986,1177,0,0
-231,-153,0,0,0,0,0,0,0,0,0,-1,993,1177,0,0
-224,-153,0,0,0,0,0,0,0,0,0,-1,1000,1177,0,0
-217,-153,0,0,0,0,0,0,0,0,0,-1,1007,1177,0,0
-210,-153,0,0,0,0,0,0,0,0,0,-1,1014,1177,0,0
-203,-153,0,0,0,0,0,0,0,0,0,-1,1021,1177,0,0
-196,-153,0,0,0,0,0,0,0,0,0,-1,1028,1177,0,0
-189,-153,0,0,0,0,0,0,0,0,0,-1,1035,1177,0,0
-182,-153,0,0,0,0,0,0,0,0,0,-1,1042,1177,0,0
-175,-153,0,0,0,0,0,0,0,0,0,-1,1049,1177,0,0
-168,-153,0,0,0,0,0,0,0,0,0,-1,1056,1177,0,0
-161,-153,0,0,0,0,0,0,0,0,0,-1,1063,1177,0,0
-154,-153,0,0,0,0,0,0,0,0,0,-1,1070,1177,0,0
-147,-153,0,0,0,0,0,0,0,0,0,-1,1077,1177,0,0
-140,-153,0,0,0,0,0,0,0,0,0,-1,1084,1177,0,0
-133,-153,0,0,0,0,0,0,0,0,0,-1,1091,1177,0,0
-126,-153,0,0,0,0,0,0,0,0,0,-1,1098,1177,0,0
-119,-153,0,0,0,0,0,0,0,0,0,-1,1105,1177,0,0
-112,-153,0,0,0,0,0,0,0,0,0,-1,1112,1177,0,0
-105,-153,0,0,0,0,0,0,0,0,0,-1,1119,1177,0,0
-98,-153,0,0,0,0,0,0,0,0,0,-1,1126,1177,0,0
-91,-153,0,0,0,0,0,0,0,0,0,-1,1133,1177,0,0
-84,-153,0,0,0,0,0,0,0,0,0,-1,1140,1177,0,0
-77,-153,0,0,0,0,0,0,0,0,0,-1,1147,1177,0,0
-70,-153,0,0,0,0,0,0,0,0,0,-1,1154,1177,0,0
-63,-153,0,0,0,0,0,0,0,0,0,-1,1161,1177,0,0
-56,-153,0,0,0,0,0,0,0,0,0,-1,1168,1177,0,0
-49,-153,0,0,0,0,0,0,0,0,0,-1,1175,1177,0,0
-42,-153,0,0,0,0,0,0,0,0,0,-1,1182,1177,0,0
-35,-153,0,0,0,0,0,0,0,0,0,-1,1189,1177,0,0
-28,-153,0,0,0,0,0,0,0,0,0,-1,1196,1177,0,0
-21,-153,0,0,0,0,0,0,0,0,0,-1,1203,1177,0,0
-14,-153,0,0,0,0,0,0,0,0,0,-1,1210,1177,0,0
-7,-153,0,0,0,0,0,0,0,0,0,-1,1217,1177,0,0
0,-153,0,0,0,0,0,0,0,0,0,-1,1224,1177,0,0
7,-153,0,0,0,0,0,0,0,0,0,-1,1231,1177,0,0
14,-153,0,0,0,0,0,0,0,0,0,-1,1238,1177,0,0
21,-153,0,0,0,0,0,0,0,0,0,-1,1245,1177,0,0
28,-153,0,0,0,0,0,0,0,0,0,-1,1252,1177,0,0
35,-153,0,0,0,0,0,0,0,0,0,-1,1259,1177,0,0
42,-153,0,0,0,0,0,0,0,0,0,-1,1266,1177,0,0
49,-153,0,0,0,0,0,0,0,0,0,-1,1273,1177,0,0
56,-153,0,0,0,0,0,0,0,0,0,-1,1280,1177,0,0
63,-153,0,0,0,0,0,0,0,0,0,-1,1287,1177,0,0
70,-153,0,0,0,0,0,0,0,0,0,-1,1294,1177,0,0
77,-153,0,0,0,0,0,0,0,0,0,-1,1301,1177,0,0
84,-153,0,0,0,0,0,0,0,0,0,-1,1308,1177,0,0
91,-153,0,0,0,0,0,0,0,0,0,-1,1315,1177,0,0
98,-153,0,0,0,0,0,0,0,0,0,-1,1322,1177,0,0
105,-153,0,0,0,0,0,0,0,0,0,-1,1329,1177,0,0
112,-153,0,0,0,0,0,0,0,0,0,-1,1336,1177,0,0
119,-153,0,0,0,0,0,0,0,0,0,-1,1343,1177,0,0
126,-153,0,0,0,0,0,0,0,0,0,-1,1350,1177,0,0
133,-153,0,0,0,0,0,0,0,0,0,-1,1357,1177,0,0
140,-153,0,0,0,0,0,0,0,0,0,-1,1364,1177,0,0
147,-153,0,0,0,0,0,0,0,0,0,-1,1371,1177,0,0
154,-153,0,0,0,0,0,0,0,0,0,-1,1378,1177,0,0
161,-153,0,0,0,0,0,0,0,0,0,-1,1385,1177,0,0
168,-153,0,0,0,0,0,0,0,0,0,-1,1392,1177,0,0
175,-153,0,0,0,0,0,0,0,0,0,-1,1399,1177,0,0
182,-153,0,0,0,0,0,0,0,0,0,-1,1406,1177,0,0
189,-153,0,0,0,0,0,0,0,0,0,-1,1413,1177,0,0
196,-153,0,0,0,0,0,0,0,0,0,-1,1420,1177,0,0
203,-153,0,0,0,0,0,0,0,0,0,-1,1427,1177,0,0
210,-153,0,0,0,0,0,0,0,0,0,-1,1434,1177,0,0
217,-153,0,0,0,0,0,0,0,0,0,-1,1441,1177,0,0
224,-153,0,0,0,0,0,0,0,0,0,-1,1448,1177,0,0
231,-153,0,0,0,0,0,0,0,0,0,-1,1455,1177,0,0
238,-153,0,0,0,0,0,0,0,0,0,-1,1462,1177,0,0
245,-153,0,0,0,0,0,0,0,0,0,-1,1469,1177,0,0
252,-153,0,0,0,0,0,0,0,0,0,-1,1476,1177,0,0
259,-153,0,0,0,0,0,0,0,0,0,-1,1483,1177,0,0
266,-153,0,0,0,0,0,0,0,0,0,-1,1490,1177,0,0
273,-153,0,0,0,0,0,0,0,0,0,-1,1497,1177,0,0
280,-153,0,0,0,0,0,0,0,0,0,-1,1504,1177,0,0
287,-153,0,0,0,0,0,0,0,0,0,-1,1511,1177,0,0
294,-153,0,0,0,0,0,0,0,0,0,-1,1518,1177,0,0
301,-153,0,0,0,0,0,0,0,0,0,-1,1525,1177,0,0
308,-153,0,0,0,0,0,0,0,0,0,-1,1532,1177,0,0
315,-153,0,0,0,0,0,0,0,0,0,-1,1539,1177,0,0
322,-153,0,0,0,0,0,0,0,0,0,-1,1546,1177,0,0
329,-153,0,0,0,0,0,0,0,0,0,-1,1553,1177,0,0
336,-153,0,0,0,0,0,0,0,0,0,-1,1560,1177,0,0
343,-153,0,0,0,0,0,0,0,0,0,-1,1567,1177,0,0
350,-153,0,0,0,0,0,0,0,0,0,-1,1574,1177,0,0
357,-153,0,0,0,0,0,0,0,0,0,-1,1581,1177,0,0
364,-153,0,0,0,0,0,0,0,0,0,-1,1588,1177,0,0
371,-153,0,0,0,0,0,0,0,0,0,-1,1595,1177,0,0
378,-153,0,0,0,0,0,0,0,0,0,-1,1602,1177,0,0
385,-153,0,0,0,0,0,0,0,0,0,-1,1609,1177,0,0
392,-153,0,0,0,0,0,0,0,0,0,-1,1616,1177,0,0
399,-153,0,0,0,0,0,0,0,0,0,-1,1623,1177,0,0
406,-153,0,0,0,0,0,0,0,0,0,-1,1630,1177,0,0
413,-153,0,0,0,0,0,0,0,0,0,-1,1637,1177,0,0
420,-153,0,0,0,0,0,0,0,0,0,-1,1644,1177,0,0
427,-153,0,0,0,0,0,0,0,0,0,-1,1651,1177,0,0
434,-153,0,0,0,0,0,0,0,0,0,-1,1658,1177,0,0
441,-153,0,0,0,0,0,0,0,0,0,-1,1665,1177,0,0
448,-153,0,0,0,0,0,0,0,0,0,-1,1672,1177,0,0
455,-153,0,0,0,0,0,0,0,0,0,-1,1679,1177,0,0
462,-153,0,0,0,0,0,0,0,0,0,-1,1686,1177,0,0
469,-153,0,0,0,0,0,0,0,0,0,-1,1693,1177,0,0
476,-153,0,0,0,0,0,0,0,0,0,-1,1700,1177,0,0
483,-153,0,0,0,0,0,0,0,0,0,-1,1707,1177,0,0
490,-153,0,0,0,0,0,0,0,0,0,-1,1714,1177,0,0
497,-153,0,0,0,0,0,0,0,0,0,-1,1721,1177,0,0
504,-153,0,0,0,0,0,0,0,0,0,-1,1728,1177,0,0
511,-153,0,0,0,0,0,0,0,0,0,-1,1735,1177,0,0
518,-153,0,0,0,0,0,0,0,0,0,-1,1742,1177,0,0
525,-153,0,0,0,0,0,0,0,0,0,-1,1749,1177,0,0
532,-153,0,0,0,0,0,0,0,0,0,-1,1756,1177,0,0
539,-153,0,0,0,0,0,0,0,0,0,-1,1763,1177,0,0
546,-153,0,0,0,0,0,0,0,0,0,-1,1770,1177,0,0
553,-153,0,0,0,0,0,0,0,0,0,-1,1777,1177,0,0
560,-153,0,0,0,0,0,0,0,0,0,-1,1784,1177,0,0
567,-153,0,0,0,0,0,0,0,0,0,-1,1791,1177,0,0
574,-153,0,0,0,0,0,0,0,0,0,-1,1798,1177,0,0
581,-153,0,0,0,0,0,0,0,0,0,-1,1805,1177,0,0
588,-153,0,0,0,0,0,0,0,0,0,-1,1812,1177,0,0
595,-153,0,0,0,0,0,0,0,0,0,-1,1819,1177,0,0
602,-153,0,0,0,0,0,0,0,0,0,-1,1826,1177,0,0
609,-153,0,0,0,0,0,0,0,0,0,-1,1833,1177,0,0
616,-153,0,0,0,0,0,0,0,0,0,-1,1840,1177,0,0
623,-153,0,0,0,0,0,0,0,0,0,-1,1847,1177,0,0
630,-153,0,0,0,0,0,0,0,0,0,-1,1854,1177,0,0
637,-153,75.16,2.04382,0.00288919,-0.00140693,0.00113017,0.00316836,-0.00168611,0.242169,0.00284594,0.0415749,1861,1177,75.1601,-2.0438
644,-153,75.158,2.08752,0.00170949,-0.00119285,0.001312,0.00221465,-0.00169801,0.367538,0.00226553,0.0389765,1868,1177,75.158,-2.08751
651,-153,75.1755,2.04944,0.000837504,-0.000745684,0.00114622,0.00143891,-0.00134709,0.483199,0.00160879,0.0323893,1875,1177,75.1755,-2.04945
658,-153,75.1339,2.08142,0.000154502,-0.00019808,0.000762215,0.000760547,-0.000804125,0.671753,0.000903481,0.037512,1882,1177,75.1339,-2.08136
665,-153,75.1298,2.1488,-0.0004074,0.000443285,0.00025204,0.000512352,-0.000476467,1.30333,0.00057102,0.0403648,1889,1177,75.1298,-2.14886
672,-153,75.1602,2.17163,-0.000806793,0.00125034,-0.000367033,0.00131386,-0.000870317,-1.39942,0.00126967,0.0379203,1896,1177,75.1601,-2.17168
679,-153,75.0989,2.1012,-0.000654657,0.00158557,-0.000719639,0.00179682,-0.000865909,-1.28526,0.00156833,0.0285776,1903,1177,75.0989,-2.10119
686,-153,75.1105,2.0647,0.000175595,0.00195337,-0.000816944,0.00227176,-0.000142794,-1.19917,0.00156428,0.0211311,1910,1177,75.1104,-2.06472
693,-153,75.1592,1.91333,0,0,0,0,0,0,0,-1,1917,1177,75.1592,-1.91327
700,-153,74.8911,2.25464,0,0,0,0,0,0,0,-1,1924,1177,74.8911,-2.25461
707,-153,29.6483,6.6842,0,0,0,0,0,0,0,-1,1931,1177,29.6483,-6.68415
714,-153,36.0046,6.78418,0,0,0,0,0,0,0,-1,1938,1177,36.0046,-6.78418
721,-153,36.4866,6.47595,0,0,0,0,0,0,0,-1,1945,1177,36.4866,-6.47593
728,-153,47.7305,7.37024,0,0,0,0,0,0,0,-1,1952,1177,47.7304,-7.37022
735,-153,64.5262,8.56335,0,0,0,0,0,0,0,-1,1959,1177,64.5263,-8.56335
742,-153,64.6155,8.00427,0.00184971,0.00164903,0.00157141,0.00332398,0.000174756,0.753514,0.0021601,0.0192057,1966,1177,64.6154,-8.00425
749,-153,64.6178,7.37561,0.00155013,0.00181346,0.00218988,0.00387563,-0.000512035,0.815424,0.00277025,0.0175783,1973,1177,64.6178,-7.37566
756,-153,64.5726,6.67871,-0.00147203,0.00351078,0.00294169,0.00487432,-0.00283557,1.13675,0.00450289,0.0123893,1980,1177,64.5727,-6.67872
763,-153,64.5171,5.98218,-0.00685292,0.00607104,0.00376232,0.00708651,-0.00786839,1.30717,0.00863815,0.0125611,1987,1177,64.5171,-5.98221
770,-153,64.5073,5.3241,-0.0138075,0.00898593,0.00463441,0.00989217,-0.0147138,1.37769,0.0142969,0.013291,1994,1177,64.5072,-5.3241
777,-153,64.4778,4.66504,-0.0226865,0.0122623,0.00551218,0.0131111,-0.0235353,1.41801,0.0214412,0.0257766,2001,1177,64.4778,-4.6651
784,-153,64.5354,4.3949,-0.0338201,0.0157572,0.00639525,0.0165689,-0.0346318,1.44455,0.0301677,0.0445319,2008,1177,64.5354,-4.39492
791,-153,64.5786,4.06921,-0.0475556,0.0195375,0.00713692,0.0202883,-0.0483064,1.46599,0.0406895,0.0475752,2015,1177,64.5785,-4.06925
798,-153,64.7039,3.64856,0,0,0,0,0,0,0,-1,2022,1177,64.7039,-3.64852
805,-153,67.98,-1.20923,0,0,0,0,0,0,0,-1,2029,1177,67.98,1.20924
812,-153,0,0,0,0,0,0,0,0,0,-1,2036,1177,0,0
-700,-160,0,0,0,0,0,0,0,0,0,-1,524,1184,0,0
-693,-160,0,0,0,0,0,0,0,0,0,-1,531,1184,0,0
-686,-160,-54.5205,0.0592041,0,0,0,0,0,0,0,-1,538,1184,-54.5205,-0.0591629
-679,-160,-53.741,0.659424,0,0,0,0,0,0,0,-1,545,1184,-53.741,-0.659401
-672,-160,-52.9218,1.15894,0,0,0,0,0,0,0,-1,552,1184,-52.9218,-1.15889
-665,-160,-50.6805,-10.8661,0,0,0,0,0,0,0,-1,559,1184,-50.6805,10.8661
-658,-160,-51.0252,-10.7241,0,0,0,0,0,0,0,-1,566,1184,-51.0252,10.7241
-651,-160,-47.6528,2.7262,0,0,0,0,0,0,0,-1,573,1184,-47.6528,-2.72615
-644,-160,-47.7027,3.43079,-0.00374664,0.0318054,-0.00830289,0.0336489,-0.00559012,-1.35231,0.0245094,0.0418615,580,1184,-47.7027,-3.43083
-637,-160,-47.8209,4.13171,-0.00372196,0.0192011,-0.00516768,0.0203122,-0.00483309,-1.35901,0.0154073,0.0175174,587,1184,-47.8209,-4.13166
-630,-160,-47.9092,4.80029,-0.00343076,0.00969767,-0.00298472,0.0103444,-0.00407748,-1.35742,0.00858451,0.00984936,594,1184,-47.9093,-4.80035
-623,-160,-47.9666,5.51196,-0.00311595,0.00324188,-0.00202086,0.00382984,-0.00370392,-1.28766,0.00434982,0.0161611,601,1184,-47.9666,-5.5119
-616,-160,-48.0115,6.23254,-0.0026166,0.000617306,-0.00232405,0.00183156,-0.00383086,-1.08933,0.00333644,0.0147693,608,1184,-48.0115,-6.23259
-609,-160,-48.1976,6.91223,-0.00306151,0.000410875,-0.00207674,0.00138156,-0.0040322,-1.13356,0.00324812,0.0267682,615,1184,-48.1976,-6.91223
-602,-160,-48.444,7.5979,0,0,0,0,0,0,0,-1,622,1184,-48.4439,-7.5979
-595,-160,-33.0669,5.93445,0,0,0,0,0,0,0,-1,629,1184,-33.0669,-5.93446
-588,-160,-33.4845,5.66699,0,0,0,0,0,0,0,-1,636,1184,-33.4845,-5.66697
-581,-160,-33.1338,6.41174,0,0,0,0,0,0,0,-1,643,1184,-33.1338,-6.41176
-574,-160,-32.7831,7.15649,0,0,0,0,0,0,0,-1,650,1184,-32.7831,-7.15655
-567,-160,-29.5828,0.643921,0,0,0,0,0,0,0,-1,657,1184,-29.5828,-0.643968
-560,-160,-57.0784,0.200806,0,0,0,0,0,0,0,-1,664,1184,-57.0784,-0.200768
-553,-160,-58.7407,0.182007,0,0,0,0,0,0,0,-1,671,1184,-58.7407,-0.182
-546,-160,-58.8588,0.352417,-0.00501506,0.000594285,0.000701636,0.000680716,-0.00510149,1.44823,0.00364912,0.0406002,678,1184,-58.8588,-0.35241
-539,-160,-59.0669,0.46875,-0.00466121,0.00029872,0.0011514,0.000552974,-0.00491546,1.35346,0.00347599,0.0430149,685,1184,-59.0669,-0.468749
-532,-160,-59.1463,0.694214,-0.00329873,-0.00089473,0.00145962,-0.000205884,-0.00398757,1.12985,0.00259248,0.0455432,692,1184,-59.1463,-0.694231
-525,-160,-58.8956,0.867432,0,0,0,0,0,0,0,-1,699,1184,-58.8956,-0.867452
-518,-160,-58.7995,0.39978,0,0,0,0,0,0,0,-1,706,1184,-58.7995,-0.399745
-511,-160,0,0,0,0,0,0,0,0,0,-1,713,1184,0,0
-504,-160,0,0,0,0,0,0,0,0,0,-1,720,1184,0,0
-497,-160,0,0,0,0,0,0,0,0,0,-1,727,1184,0,0
-490,-160,0,0,0,0,0,0,0,0,0,-1,734,1184,0,0
-483,-160,0,0,0,0,0,0,0,0,0,-1,741,1184,0,0
-476,-160,0,0,0,0,0,0,0,0,0,-1,748,1184,0,0
-469,-160,0,0,0,0,0,0,0,0,0,-1,755,1184,0,0
-462,-160,0,0,0,0,0,0,0,0,0,-1,762,1184,0,0
-455,-160,0,0,0,0,0,0,0,0,0,-1,769,1184,0,0
-448,-160,0,0,0,0,0,0,0,0,0,-1,776,1184,0,0
-441,-160,0,0,0,0,0,0,0,0,0,-1,783,1184,0,0
-434,-160,0,0,0,0,0,0,0,0,0,-1,790,1184,0,0
-427,-160,0,0,0,0,0,0,0,0,0,-1,797,1184,0,0
-420,-160,0,0,0,0,0,0,0,0,0,-1,804,1184,0,0
-413,-160,0,0,0,0,0,0,0,0,0,-1,811,1184,0,0
-406,-160,0,0,0,0,0,0,0,0,0,-1,818,1184,0,0
-399,-160,0,0,0,0,0,0,0,0,0,-1,825,1184,0,0
-392,-160,0,0,0,0,0,0,0,0,0,-1,832,1184,0,0
-385,-160,0,0,0,0,0,0,0,0,0,-1,839,1184,0,0
-378,-160,0,0,0,0,0,0,0,0,0,-1,846,1184,0,0
-371,-160,0,0,0,0,0,0,0,0,0,-1,853,1184,0,0
-364,-160,0,0,0,0,0,0,0,0,0,-1,860,1184,0,0
-357,-160,0,0,0,0,0,0,0,0,0,-1,867,1184,0,0
-350,-160,0,0,0,0,0,0,0,0,0,-1,874,1184,0,0
-343,-160,0,0,0,0,0,0,0,0,0,-1,881,1184,0,0
-336,-160,0,0,0,0,0,0,0,0,0,-1,888,1184,0,0
-329,-160,0,0,0,0,0,0,0,0,0,-1,895,1184,0,0
-322,-160,0,0,0,0,0,0,0,0,0,-1,902,1184,0,0
-315,-160,0,0,0,0,0,0,0,0,0,-1,909,1184,0,0
-308,-160,0,0,0,0,0,0,0,0,0,-1,916,1184,0,0
-301,-160,0,0,0,0,0,0,0,0,0,-1,923,1184,0,0
-294,-160,0,0,0,0,0,0,0,0,0,-1,930,1184,0,0
-287,-160,0,0,0,0,0,0,0,0,0,-1,937,1184,0,0
-280,-160,0,0,0,0,0,0,0,0,0,-1,944,1184,0,0
-273,-160,0,0,0,0,0,0,0,0,0,-1,951,1184,0,0
-266,-160,0,0,0,0,0,0,0,0,0,-1,958,1184,0,0
-259,-160,0,0,0,0,0,0,0,0,0,-1,965,1184,0,0
-252,-160,0,0,0,0,0,0,0,0,0,-1,972,1184,0,0
-245,-160,0,0,0,0,0,0,0,0,0,-1,979,1184,0,0
-238,-160,0,0,0,0,0,0,0,0,0,-1,986,1184,0,0
-231,-160,0,0,0,0,0,0,0,0,0,-1,993,1184,0,0
-224,-160,0,0,0,0,0,0,0,0,0,-1,1000,1184,0,0
-217,-160,0,0,0,0,0,0,0,0,0,-1,1007,1184,0,0
-210,-160,0,0,0,0,0,0,0,0,0,-1,1014,1184,0,0
-203,-160,0,0,0,0,0,0,0,0,0,-1,1021,1184,0,0
-196,-160,0,0,0,0,0,0,0,0,0,-1,1028,1184,0,0
-189,-160,0,0,0,0,0,0,0,0,0,-1,1035,1184,0,0
-182,-160,0,0,0,0,0,0,0,0,0,-1,1042,1184,0,0
-175,-160,0,0,0,0,0,0,0,0,0,-1,1049,1184,0,0
-168,-160,0,0,0,0,0,0,0,0,0,-1,1056,1184,0,0
-161,-160,0,0,0,0,0,0,0,0,0,-1,1063,1184,0,0
-154,-160,0,0,0,0,0,0,0,0,0,-1,1070,1184,0,0
-147,-160,0,0,0,0,0,0,0,0,0,-1,1077,1184,0,0
-140,-160,0,0,0,0,0,0,0,0,0,-1,1084,1184,0,0
-133,-160,0,0,0,0,0,0,0,0,0,-1,1091,1184,0,0
-126,-160,0,0,0,0,0,0,0,0,0,-1,1098,1184,0,0
-119,-160,0,0,0,0,0,0,0,0,0,-1,1105,1184,0,0
-112,-160,0,0,0,0,0,0,0,0,0,-1,1112,1184,0,0
-105,-160,0,0,0,0,0,0,0,0,0,-1,1119,1184,0,0
-98,-160,0,0,0,0,0,0,0,0,0,-1,1126,1184,0,0
-91,-160,0,0,0,0,0,0,0,0,0,-1,1133,1184,0,0
-84,-160,0,0,0,0,0,0,0,0,0,-1,1140,1184,0,0
-77,-160,0,0,0,0,0,0,0,0,0,-1,1147,1184,0,0
-70,-160,0,0,0,0,0,0,0,0,0,-1,1154,1184,0,0
-63,-160,0,0,0,0,0,0,0,0,0,-1,1161,1184,0,0
-56,-160,0,0,0,0,0,0,0,0,0,-1,1168,1184,0,0
-49,-160,0,0,0,0,0,0,0,0,0,-1,1175,1184,0,0
-42,-160,0,0,0,0,0,0,0,0,0,-1,1182,1184,0,0
-35,-160,0,0,0,0,0,0,0,0,0,-1,1189,1184,0,0
-28,-160,0,0,0,0,0,0,0,0,0,-1,1196,1184,0,0
-21,-160,0,0,0,0,0,0,0,0,0,-1,1203,1184,0,0
-14,-160,0,0,0,0,0,0,0,0,0,-1,1210,1184,0,0
-7,-160,0,0,0,0,0,0,0,0,0,-1,1217,1184,0,0
0,-160,0,0,0,0,0,0,0,0,0,-1,1224,1184,0,0
7,-160,0,0,0,0,0,0,0,0,0,-1,1231,1184,0,0
14,-160,0,0,0,0,0,0,0,0,0,-1,1238,1184,0,0
21,-160,0,0,0,0,0,0,0,0,0,-1,1245,1184,0,0
28,-160,0,0,0,0,0,0,0,0,0,-1,1252,1184,0,0
35,-160,0,0,0,0,0,0,0,0,0,-1,1259,1184,0,0
42,-160,0,0,0,0,0,0,0,0,0,-1,1266,1184,0,0
49,-160,0,0,0,0,0,0,0,0,0,-1,1273,1184,0,0
56,-160,0,0,0,0,0,0,0,0,0,-1,1280,1184,0,0
63,-160,0,0,0,0,0,0,0,0,0,-1,1287,1184,0,0
70,-160,0,0,0,0,0,0,0,0,0,-1,1294,1184,0,0
77,-160,0,0,0,0,0,0,0,0,0,-1,1301,1184,0,0
84,-160,0,0,0,0,0,0,0,0,0,-1,1308,1184,0,0
91,-160,0,0,0,0,0,0,0,0,0,-1,1315,1184,0,0
98,-160,0,0,0,0,0,0,0,0,0,-1,1322,1184,0,0
105,-160,0,0,0,0,0,0,0,0,0,-1,1329,1184,0,0
112,-160,0,0,0,0,0,0,0,0,0,-1,1336,1184,0,0
119,-160,0,0,0,0,0,0,0,0,0,-1,1343,1184,0,0
126,-160,0,0,0,0,0,0,0,0,0,-1,1350,1184,0,0
133,-160,0,0,0,0,0,0,0,0,0,-1,1357,1184,0,0
140,-160,0,0,0,0,0,0,0,0,0,-1,1364,1184,0,0
147,-160,0,0,0,0,0,0,0,0,0,-1,1371,1184,0,0
154,-160,0,0,0,0,0,0,0,0,0,-1,1378,1184,0,0
161,-160,0,0,0,0,0,0,0,0,0,-1,1385,1184,0,0
168,-160,0,0,0,0,0,0,0,0,0,-1,1392,1184,0,0
175,-160,0,0,0,0,0,0,0,0,0,-1,1399,1184,0,0
182,-160,0,0,0,0,0,0,0,0,0,-1,1406,1184,0,0
189,-160,0,0,0,0,0,0,0,0,0,-1,1413,1184,0,0
196,-160,0,0,0,0,0,0,0,0,0,-1,1420,1184,0,0
203,-160,0,0,0,0,0,0,0,0,0,-1,1427,1184,0,0
210,-160,0,0,0,0,0,0,0,0,0,-1,1434,1184,0,0
217,-160,0,0,0,0,0,0,0,0,0,-1,1441,1184,0,0
224,-160,0,0,0,0,0,0,0,0,0,-1,1448,1184,0,0
231,-160,0,0,0,0,0,0,0,0,0,-1,1455,1184,0,0
238,-160,0,0,0,0,0,0,0,0,0,-1,1462,1184,0,0
245,-160,0,0,0,0,0,0,0,0,0,-1,1469,1184,0,0
252,-160,0,0,0,0,0,0,0,0,0,-1,1476,1184,0,0
259,-160,0,0,0,0,0,0,0,0,0,-1,1483,1184,0,0
266,-160,0,0,0,0,0,0,0,0,0,-1,1490,1184,0,0
273,-160,0,0,0,0,0,0,0,0,0,-1,1497,1184,0,0
280,-160,0,0,0,0,0,0,0,0,0,-1,1504,1184,0,0
287,-160,0,0,0,0,0,0,0,0,0,-1,1511,1184,0,0
294,-160,0,0,0,0,0,0,0,0,0,-1,1518,1184,0,0
301,-160,0,0,0,0,0,0,0,0,0,-1,1525,1184,0,0
308,-160,0,0,0,0,0,0,0,0,0,-1,1532,1184,0,0
315,-160,0,0,0,0,0,0,0,0,0,-1,1539,1184,0,0
322,-160,0,0,0,0,0,0,0,0,0,-1,1546,1184,0,0
329,-160,0,0,0,0,0,0,0,0,0,-1,1553,1184,0,0
336,-160,0,0,0,0,0,0,0,0,0,-1,1560,1184,0,0
343,-160,0,0,0,0,0,0,0,0,0,-1,1567,1184,0,0
350,-160,0,0,0,0,0,0,0,0,0,-1,1574,1184,0,0
357,-160,0,0,0,0,0,0,0,0,0,-1,1581,1184,0,0
364,-160,0,0,0,0,0,0,0,0,0,-1,1588,1184,0,0
371,-160,0,0,0,0,0,0,0,0,0,-1,1595,1184,0,0
378,-160,0,0,0,0,0,0,0,0,0,-1,1602,1184,0,0
385,-160,0,0,0,0,0,0,0,0,0,-1,1609,1184,0,0
392,-160,0,0,0,0,0,0,0,0,0,-1,1616,1184,0,0
399,-160,0,0,0,0,0,0,0,0,0,-1,1623,1184,0,0
406,-160,0,0,0,0,0,0,0,0,0,-1,1630,1184,0,0
413,-160,0,0,0,0,0,0,0,0,0,-1,1637,1184,0,0
420,-160,0,0,0,0,0,0,0,0,0,-1,1644,1184,0,0
427,-160,0,0,0,0,0,0,0,0,0,-1,1651,1184,0,0
434,-160,0,0,0,0,0,0,0,0,0,-1,1658,1184,0,0
441,-160,0,0,0,0,0,0,0,0,0,-1,1665,1184,0,0
448,-160,0,0,0,0,0,0,0,0,0,-1,1672,1184,0,0
455,-160,0,0,0,0,0,0,0,0,0,-1,1679,1184,0,0
462,-160,0,0,0,0,0,0,0,0,0,-1,1686,1184,0,0
469,-160,0,0,0,0,0,0,0,0,0,-1,1693,1184,0,0
476,-160,0,0,0,0,0,0,0,0,0,-1,1700,1184,0,0
483,-160,0,0,0,0,0,0,0,0,0,-1,1707,1184,0,0
490,-160,0,0,0,0,0,0,0,0,0,-1,1714,1184,0,0
497,-160,0,0,0,0,0,0,0,0,0,-1,1721,1184,0,0
504,-160,0,0,0,0,0,0,0,0,0,-1,1728,1184,0,0
511,-160,0,0,0,0,0,0,0,0,0,-1,1735,1184,0,0
518,-160,0,0,0,0,0,0,0,0,0,-1,1742,1184,0,0
525,-160,0,0,0,0,0,0,0,0,0,-1,1749,1184,0,0
532,-160,0,0,0,0,0,0,0,0,0,-1,1756,1184,0,0
539,-160,0,0,0,0,0,0,0,0,0,-1,1763,1184,0,0
546,-160,0,0,0,0,0,0,0,0,0,-1,1770,1184,0,0
553,-160,0,0,0,0,0,0,0,0,0,-1,1777,1184,0,0
560,-160,0,0,0,0,0,0,0,0,0,-1,1784,1184,0,0
567,-160,0,0,0,0,0,0,0,0,0,-1,1791,1184,0,0
574,-160,0,0,0,0,0,0,0,0,0,-1,1798,1184,0,0
581,-160,0,0,0,0,0,0,0,0,0,-1,1805,1184,0,0
588,-160,0,0,0,0,0,0,0,0,0,-1,1812,1184,0,0
595,-160,0,0,0,0,0,0,0,0,0,-1,1819,1184,0,0
602,-160,0,0,0,0,0,0,0,0,0,-1,1826,1184,0,0
609,-160,0,0,0,0,0,0,0,0,0,-1,1833,1184,0,0
616,-160,0,0,0,0,0,0,0,0,0,-1,1840,1184,0,0
623,-160,0,0,0,0,0,0,0,0,0,-1,1847,1184,0,0
630,-160,0,0,0,0,0,0,0,0,0,-1,1854,1184,0,0
637,-160,75.0383,2.06665,0.00234057,-0.00179253,0.00135968,0.00274775,-0.00219971,0.29097,0.00286226,0.0444442,1861,1184,75.0384,-2.06662
644,-160,75.288,1.96179,0.00144163,-0.00138136,0.00132929,0.00196904,-0.00190877,0.377707,0.00223894,0.0442376,1868,1184,75.288,-1.96181
651,-160,75.0402,2.20532,0.000766852,-0.000747847,0.000979727,0.00124782,-0.00122882,0.456362,0.00142991,0.0389886,1875,1184,75.0402,-2.20536
658,-160,75.0536,2.15576,0.000223557,-1.47641e-05,0.000431019,0.000551584,-0.000342791,0.650536,0.000521037,0.0407926,1882,1184,75.0536,-2.15574
665,-160,75.1344,2.23169,-0.000226583,0.000762505,-0.000173617,0.000792095,-0.000256174,-1.40198,0.000631032,0.0414301,1889,1184,75.1344,-2.23169
672,-160,75.1284,2.23779,-0.000509553,0.00169781,-0.000802569,0.00195876,-0.000770507,-1.25643,0.00162476,0.0362785,1896,1184,75.1284,-2.23777
679,-160,75.0876,2.08179,-0.000379288,0.0021076,-0.00110474,0.00252747,-0.000799157,-1.2076,0.00200517,0.0257039,1903,1184,75.0877,-2.08181
686,-160,75.1133,2.00195,0.000358419,0.0023978,-0.00112445,0.00289606,-0.000139836,-1.15369,0.00197897,0.0169928,1910,1184,75.1132,-2.00199
693,-160,75.1836,1.96326,0,0,0,0,0,0,0,-1,1917,1184,75.1835,-1.96321
700,-160,42.8784,2.44617,0,0,0,0,0,0,0,-1,1924,1184,42.8785,-2.4462
707,-160,24.5115,6.27405,0,0,0,0,0,0,0,-1,1931,1184,24.5115,-6.27401
714,-160,35.6892,6.8905,0,0,0,0,0,0,0,-1,1938,1184,35.6892,-6.89048
721,-160,36.2388,6.37878,0,0,0,0,0,0,0,-1,1945,1184,36.2388,-6.37876
728,-160,52.2174,8.57385,0,0,0,0,0,0,0,-1,1952,1184,52.2174,-8.57381
735,-160,63.8781,8.6615,0,0,0,0,0,0,0,-1,1959,1184,63.878,-8.66156
742,-160,63.9248,7.97302,0.00196648,0.00198804,0.00136012,0.00333742,0.000617094,0.78936,0.00205044,0.0201319,1966,1184,63.9249,-7.97308
749,-160,63.9183,7.32654,0.00156424,0.00216775,0.00202665,0.00391498,-0.000182992,0.859302,0.00267307,0.0190243,1973,1184,63.9183,-7.32649
756,-160,63.8872,6.68726,-0.00142242,0.003468,0.00278548,0.00472926,-0.00268368,1.14562,0.00433384,0.0128549,1980,1184,63.8872,-6.68723
763,-160,63.8289,6.05029,-0.00635382,0.00541729,0.00354413,0.00640201,-0.00733853,1.29979,0.00793925,0.0135974,1987,1184,63.8288,-6.05025
770,-160,63.709,5.27173,-0.012724,0.00761271,0.00430674,0.00848715,-0.0135984,1.37048,0.0128644,0.0297087,1994,1184,63.7089,-5.27174
777,-160,63.6089,4.62097,-0.0208356,0.0100712,0.00497752,0.010853,-0.0216175,1.41499,0.0190871,0.0392042,2001,1184,63.6089,-4.62095
784,-160,63.7075,3.83154,0,0,0,0,0,0,0,-1,2008,1184,63.7074,-3.83157
791,-160,64.3835,4.10901,-0.0431887,0.0152842,0.00571659,0.0158379,-0.0437423,1.47425,0.035634,0.0458345,2015,1184,64.3835,-4.10904
798,-160,64.5327,3.80286,-0.0587831,0.0176841,0.0055117,0.0180793,-0.0591783,1.49921,0.0466611,0.0482462,2022,1184,64.5327,-3.80289
805,-160,64.6667,3.47375,0,0,0,0,0,0,0,-1,2029,1184,64.6668,-3.47381
812,-160,0,0,0,0,0,0,0,0,0,-1,2036,1184,0,0
-700,-167,0,0,0,0,0,0,0,0,0,-1,524,1191,0,0
-693,-167,0,0,0,0,0,0,0,0,0,-1,531,1191,0,0
-686,-167,-53.4345,-0.115845,0,0,0,0,0,0,0,-1,538,1191,-53.4345,0.115898
-679,-167,-52.2245,0.188599,0,0,0,0,0,0,0,-1,545,1191,-52.2245,-0.188559
-672,-167,-51.3704,0.653564,0,0,0,0,0,0,0,-1,552,1191,-51.3704,-0.653556
-665,-167,-50.5522,1.13354,0,0,0,0,0,0,0,-1,559,1191,-50.5522,-1.1335
-658,-167,-49.3792,0.349854,0,0,0,0,0,0,0,-1,566,1191,-49.3792,-0.349863
-651,-167,-46.8154,2.84717,0,0,0,0,0,0,0,-1,573,1191,-46.8154,-2.84713
-644,-167,-46.8966,3.51025,-0.00724518,0.0274168,-0.00693308,0.0287521,-0.00858049,-1.38053,0.0225784,0.0434199,580,1191,-46.8966,-3.51026
-637,-167,-47.0577,4.15869,-0.00564973,0.0165944,-0.00427269,0.0173868,-0.0064422,-1.38741,0.0142332,0.0211202,587,1191,-47.0577,-4.15872
-630,-167,-47.1887,4.80249,-0.00408384,0.00865974,-0.00263328,0.00918243,-0.00460653,-1.37485,0.00810586,0.0102016,594,1191,-47.1887,-4.80246
-623,-167,-47.221,5.4845,-0.00310736,0.00307567,-0.0019336,0.00363056,-0.00366225,-1.29133,0.00421052,0.0155345,601,1191,-47.221,-5.48445
-616,-167,-47.2522,6.23621,-0.00238056,0.000317282,-0.0026156,0.00191131,-0.00397459,-1.02347,0.00346713,0.020191,608,1191,-47.2522,-6.2362
-609,-167,-47.3262,7.02197,-0.0037614,0.000102239,-0.00266358,0.0014608,-0.00511995,-1.09914,0.00399038,0.0197324,615,1191,-47.3263,-7.02194
-602,-167,-47.486,7.73767,0,0,0,0,0,0,0,-1,622,1191,-47.486,-7.73771
-595,-167,-46.7463,8.13538,0,0,0,0,0,0,0,-1,629,1191,-46.7464,-8.1354
-588,-167,-42.7112,7.92004,0,0,0,0,0,0,0,-1,636,1191,-42.7112,-7.92007
-581,-167,-32.8646,6.30542,0,0,0,0,0,0,0,-1,643,1191,-32.8646,-6.30537
-574,-167,-32.4808,7.37524,0,0,0,0,0,0,0,-1,650,1191,-32.4808,-7.37525
-567,-167,-27.3643,2.55859,0,0,0,0,0,0,0,-1,657,1191,-27.3643,-2.55864
-560,-167,-48.2598,0.834839,0,0,0,0,0,0,0,-1,664,1191,-48.2598,-0.834822
-553,-167,-58.6805,0.117676,0,0,0,0,0,0,0,-1,671,1191,-58.6805,-0.117625
-546,-167,-58.7916,0.290405,-0.00556961,0.000995631,7.29453e-05,0.000996442,-0.00557042,1.55969,0.00408646,0.0364727,678,1191,-58.7916,-0.290351
-539,-167,-58.9976,0.569214,-0.00524154,0.00113293,0.000491369,0.00117059,-0.0052792,1.49431,0.00396764,0.0395553,685,1191,-58.9976,-0.569186
-532,-167,-59.1583,0.761108,-0.00406375,0.000525969,0.00090796,0.000699058,-0.00423684,1.38242,0.0030841,0.0452733,692,1191,-59.1582,-0.761131
-525,-167,-59.0589,0.68811,-0.000792626,-0.00205131,0.000206248,-0.000759693,-0.00208425,0.158345,0.00121798,0.0466244,699,1191,-59.0589,-0.688099
-518,-167,-58.9969,0.409912,0.00273915,-0.00487417,-0.000822137,0.00282692,-0.00496194,-0.106353,0.00455286,0.0447105,706,1191,-58.9969,-0.409956
-511,-167,0,0,0,0,0,0,0,0,0,-1,713,1191,0,0
-504,-167,0,0,0,0,0,0,0,0,0,-1,720,1191,0,0
-497,-167,0,0,0,0,0,0,0,0,0,-1,727,1191,0,0
-490,-167,0,0,0,0,0,0,0,0,0,-1,734,1191,0,0
-483,-167,0,0,0,0,0,0,0,0,0,-1,741,1191,0,0
-476,-167,0,0,0,0,0,0,0,0,0,-1,748,1191,0,0
-469,-167,0,0,0,0,0,0,0,0,0,-1,755,1191,0,0
-462,-167,0,0,0,0,0,0,0,0,0,-1,762,1191,0,0
-455,-167,0,0,0,0,0,0,0,0,0,-1,769,1191,0,0
-448,-167,0,0,0,0,0,0,0,0,0,-1,776,1191,0,0
-441,-167,0,0,0,0,0,0,0,0,0,-1,783,1191,0,0
-434,-167,0,0,0,0,0,0,0,0,0,-1,790,1191,0,0
-427,-167,0,0,0,0,0,0,0,0,0,-1,797,1191,0,0
-420,-167,0,0,0,0,0,0,0,0,0,-1,804,1191,0,0
-413,-167,0,0,0,0,0,0,0,0,0,-1,811,1191,0,0
-406,-167,0,0,0,0,0,0,0,0,0,-1,818,1191,0,0
-399,-167,0,0,0,0,0,0,0,0,0,-1,825,1191,0,0
-392,-167,0,0,0,0,0,0,0,0,0,-1,832,1191,0,0
-385,-167,0,0,0,0,0,0,0,0,0,-1,839,1191,0,0
-378,-167,0,0,0,0,0,0,0,0,0,-1,846,1191,0,0
-371,-167,0,0,0,0,0,0,0,0,0,-1,853,1191,0,0
-364,-167,0,0,0,0,0,0,0,0,0,-1,860,1191,0,0
-357,-167,0,0,0,0,0,0,0,0,0,-1,867,1191,0,0
-350,-167,0,0,0,0,0,0,0,0,0,-1,874,1191,0,0
-343,-167,0,0,0,0,0,0,0,0,0,-1,881,1191,0,0
-336,-167,0,0,0,0,0,0,0,0,0,-1,888,1191,0,0
-329,-167,0,0,0,0,0,0,0,0,0,-1,895,1191,0,0
-322,-167,0,0,0,0,0,0,0,0,0,-1,902,1191,0,0
-315,-167,0,0,0,0,0,0,0,0,0,-1,909,1191,0,0
-308,-167,0,0,0,0,0,0,0,0,0,-1,916,1191,0,0
-301,-167,0,0,0,0,0,0,0,0,0,-1,923,1191,0,0
-294,-167,0,0,0,0,0,0,0,0,0,-1,930,1191,0,0
-287,-167,0,0,0,0,0,0,0,0,0,-1,937,1191,0,0
-280,-167,0,0,0,0,0,0,0,0,0,-1,944,1191,0,0
-273,-167,0,0,0,0,0,0,0,0,0,-1,951,1191,0,0
-266,-167,0,0,0,0,0,0,0,0,0,-1,958,1191,0,0
-259,-167,0,0,0,0,0,0,0,0,0,-1,965,1191,0,0
-252,-167,0,0,0,0,0,0,0,0,0,-1,972,1191,0,0
-245,-167,0,0,0,0,0,0,0,0,0,-1,979,1191,0,0
-238,-167,0,0,0,0,0,0,0,0,0,-1,986,1191,0,0
-231,-167,0,0,0,0,0,0,0,0,0,-1,993,1191,0,0
-224,-167,0,0,0,0,0,0,0,0,0,-1,1000,1191,0,0
-217,-167,0,0,0,0,0,0,0,0,0,-1,1007,1191,0,0
-210,-167,0,0,0,0,0,0,0,0,0,-1,1014,1191,0,0
-203,-167,0,0,0,0,0,0,0,0,0,-1,1021,1191,0,0
-196,-167,0,0,0,0,0,0,0,0,0,-1,1028,1191,0,0
-189,-167,0,0,0,0,0,0,0,0,0,-1,1035,1191,0,0
-182,-167,0,0,0,0,0,0,0,0,0,-1,1042,1191,0,0
-175,-167,0,0,0,0,0,0,0,0,0,-1,1049,1191,0,0
-168,-167,0,0,0,0,0,0,0,0,0,-1,1056,1191,0,0
-161,-167,0,0,0,0,0,0,0,0,0,-1,1063,1191,0,0
-154,-167,0,0,0,0,0,0,0,0,0,-1,1070,1191,0,0
-147,-167,0,0,0,0,0,0,0,0,0,-1,1077,1191,0,0
-140,-167,0,0,0,0,0,0,0,0,0,-1,1084,1191,0,0
-133,-167,0,0,0,0,0,0,0,0,0,-1,1091,1191,0,0
-126,-167,0,0,0,0,0,0,0,0,0,-1,1098,1191,0,0
-119,-167,0,0,0,0,0,0,0,0,0,-1,1105,1191,0,0
-112,-167,0,0,0,0,0,0,0,0,0,-1,1112,1191,0,0
-105,-167,0,0,0,0,0,0,0,0,0,-1,1119,1191,0,0
-98,-167,0,0,0,0,0,0,0,0,0,-1,1126,1191,0,0
-91,-167,0,0,0,0,0,0,0,0,0,-1,1133,1191,0,0
-84,-167,0,0,0,0,0,0,0,0,0,-1,1140,1191,0,0
-77,-167,0,0,0,0,0,0,0,0,0,-1,1147,1191,0,0
-70,-167,0,0,0,0,0,0,0,0,0,-1,1154,1191,0,0
-63,-167,0,0,0,0,0,0,0,0,0,-1,1161,1191,0,0
-56,-167,0,0,0,0,0,0,0,0,0,-1,1168,1191,0,0
-49,-167,0,0,0,0,0,0,0,0,0,-1,1175,1191,0,0
-42,-167,0,0,0,0,0,0,0,0,0,-1,1182,1191,0,0
-35,-167,0,0,0,0,0,0,0,0,0,-1,1189,1191,0,0
-28,-167,0,0,0,0,0,0,0,0,0,-1,1196,1191,0,0
-21,-167,0,0,0,0,0,0,0,0,0,-1,1203,1191,0,0
-14,-167,0,0,0,0,0,0,0,0,0,-1,1210,1191,0,0
-7,-167,0,0,0,0,0,0,0,0,0,-1,1217,1191,0,0
0,-167,0,0,0,0,0,0,0,0,0,-1,1224,1191,0,0
7,-167,0,0,0,0,0,0,0,0,0,-1,1231,1191,0,0
14,-167,0,0,0,0,0,0,0,0,0,-1,1238,1191,0,0
21,-167,0,0,0,0,0,0,0,0,0,-1,1245,1191,0,0
28,-167,0,0,0,0,0,0,0,0,0,-1,1252,1191,0,0
35,-167,0,0,0,0,0,0,0,0,0,-1,1259,1191,0,0
42,-167,0,0,0,0,0,0,0,0,0,-1,1266,1191,0,0
49,-167,0,0,0,0,0,0,0,0,0,-1,1273,1191,0,0
56,-167,0,0,0,0,0,0,0,0,0,-1,1280,1191,0,0
63,-167,0,0,0,0,0,0,0,0,0,-1,1287,1191,0,0
70,-167,0,0,0,0,0,0,0,0,0,-1,1294,1191,0,0
77,-167,0,0,0,0,0,0,0,0,0,-1,1301,1191,0,0
84,-167,0,0,0,0,0,0,0,0,0,-1,1308,1191,0,0
91,-167,0,0,0,0,0,0,0,0,0,-1,1315,1191,0,0
98,-167,0,0,0,0,0,0,0,0,0,-1,1322,1191,0,0
105,-167,0,0,0,0,0,0,0,0,0,-1,1329,1191,0,0
112,-167,0,0,0,0,0,0,0,0,0,-1,1336,1191,0,0
119,-167,0,0,0,0,0,0,0,0,0,-1,1343,1191,0,0
126,-167,0,0,0,0,0,0,0,0,0,-1,1350,1191,0,0
133,-167,0,0,0,0,0,0,0,0,0,-1,1357,1191,0,0
140,-167,0,0,0,0,0,0,0,0,0,-1,1364,1191,0,0
147,-167,0,0,0,0,0,0,0,0,0,-1,1371,1191,0,0
154,-167,0,0,0,0,0,0,0,0,0,-1,1378,1191,0,0
161,-167,0,0,0,0,0,0,0,0,0,-1,1385,1191,0,0
168,-167,0,0,0,0,0,0,0,0,0,-1,1392,1191,0,0
175,-167,0,0,0,0,0,0,0,0,0,-1,1399,1191,0,0
182,-167,0,0,0,0,0,0,0,0,0,-1,1406,1191,0,0
189,-167,0,0,0,0,0,0,0,0,0,-1,1413,1191,0,0
196,-167,0,0,0,0,0,0,0,0,0,-1,1420,1191,0,0
203,-167,0,0,0,0,0,0,0,0,0,-1,1427,1191,0,0
210,-167,0,0,0,0,0,0,0,0,0,-1,1434,1191,0,0
217,-167,0,0,0,0,0,0,0,0,0,-1,1441,1191,0,0
224,-167,0,0,0,0,0,0,0,0,0,-1,1448,1191,0,0
231,-167,0,0,0,0,0,0,0,0,0,-1,1455,1191,0,0
238,-167,0,0,0,0,0,0,0,0,0,-1,1462,1191,0,0
245,-167,0,0,0,0,0,0,0,0,0,-1,1469,1191,0,0
252,-167,0,0,0,0,0,0,0,0,0,-1,1476,1191,0,0
259,-167,0,0,0,0,0,0,0,0,0,-1,1483,1191,0,0
266,-167,0,0,0,0,0,0,0,0,0,-1,1490,1191,0,0
273,-167,0,0,0,0,0,0,0,0,0,-1,1497,1191,0,0
280,-167,0,0,0,0,0,0,0,0,0,-1,1504,1191,0,0
287,-167,0,0,0,0,0,0,0,0,0,-1,1511,1191,0,0
294,-167,0,0,0,0,0,0,0,0,0,-1,1518,1191,0,0
301,-167,0,0,0,0,0,0,0,0,0,-1,1525,1191,0,0
308,-167,0,0,0,0,0,0,0,0,0,-1,1532,1191,0,0
315,-167,0,0,0,0,0,0,0,0,0,-1,1539,1191,0,0
322,-167,0,0,0,0,0,0,0,0,0,-1,1546,1191,0,0
329,-167,0,0,0,0,0,0,0,0,0,-1,1553,1191,0,0
336,-167,0,0,0,0,0,0,0,0,0,-1,1560,1191,0,0
343,-167,0,0,0,0,0,0,0,0,0,-1,1567,1191,0,0
350,-167,0,0,0,0,0,0,0,0,0,-1,1574,1191,0,0
357,-167,0,0,0,0,0,0,0,0,0,-1,1581,1191,0,0
364,-167,0,0,0,0,0,0,0,0,0,-1,1588,1191,0,0
371,-167,0,0,0,0,0,0,0,0,0,-1,1595,1191,0,0
378,-167,0,0,0,0,0,0,0,0,0,-1,1602,1191,0,0
385,-167,0,0,0,0,0,0,0,0,0,-1,1609,1191,0,0
392,-167,0,0,0,0,0,0,0,0,0,-1,1616,1191,0,0
399,-167,0,0,0,0,0,0,0,0,0,-1,1623,1191,0,0
406,-167,0,0,0,0,0,0,0,0,0,-1,1630,1191,0,0
413,-167,0,0,0,0,0,0,0,0,0,-1,1637,1191,0,0
420,-167,0,0,0,0,0,0,0,0,0,-1,1644,1191,0,0
427,-167,0,0,0,0,0,0,0,0,0,-1,1651,1191,0,0
434,-167,0,0,0,0,0,0,0,0,0,-1,1658,1191,0,0
441,-167,0,0,0,0,0,0,0,0,0,-1,1665,1191,0,0
448,-167,0,0,0,0,0,0,0,0,0,-1,1672,1191,0,0
455,-167,0,0,0,0,0,0,0,0,0,-1,1679,1191,0,0
462,-167,0,0,0,0,0,0,0,0,0,-1,1686,1191,0,0
469,-167,0,0,0,0,0,0,0,0,0,-1,1693,1191,0,0
476,-167,0,0,0,0,0,0,0,0,0,-1,1700,1191,0,0
483,-167,0,0,0,0,0,0,0,0,0,-1,1707,1191,0,0
490,-167,0,0,0,0,0,0,0,0,0,-1,1714,1191,0,0
497,-167,0,0,0,0,0,0,0,0,0,-1,1721,1191,0,0
504,-167,0,0,0,0,0,0,0,0,0,-1,1728,1191,0,0
511,-167,0,0,0,0,0,0,0,0,0,-1,1735,1191,0,0
518,-167,0,0,0,0,0,0,0,0,0,-1,1742,1191,0,0
525,-167,0,0,0,0,0,0,0,0,0,-1,1749,1191,0,0
532,-167,0,0,0,0,0,0,0,0,0,-1,1756,1191,0,0
539,-167,0,0,0,0,0,0,0,0,0,-1,1763,1191,0,0
546,-167,0,0,0,0,0,0,0,0,0,-1,1770,1191,0,0
553,-167,0,0,0,0,0,0,0,0,0,-1,1777,1191,0,0
560,-167,0,0,0,0,0,0,0,0,0,-1,1784,1191,0,0
567,-167,0,0,0,0,0,0,0,0,0,-1,1791,1191,0,0
574,-167,0,0,0,0,0,0,0,0,0,-1,1798,1191,0,0
581,-167,0,0,0,0,0,0,0,0,0,-1,1805,1191,0,0
588,-167,0,0,0,0,0,0,0,0,0,-1,1812,1191,0,0
595,-167,0,0,0,0,0,0,0,0,0,-1,1819,1191,0,0
602,-167,0,0,0,0,0,0,0,0,0,-1,1826,1191,0,0
609,-167,0,0,0,0,0,0,0,0,0,-1,1833,1191,0,0
616,-167,0,0,0,0,0,0,0,0,0,-1,1840,1191,0,0
623,-167,0,0,0,0,0,0,0,0,0,-1,1847,1191,0,0
630,-167,0,0,0,0,0,0,0,0,0,-1,1854,1191,0,0
637,-167,75.0399,1.97546,0.00181024,-0.00263029,0.00150943,0.00227474,-0.00309479,0.298535,0.00311212,0.0447854,1861,1191,75.0399,-1.97544
644,-167,75.1259,1.94385,0.00118147,-0.0018351,0.00127917,0.00165086,-0.00230449,0.351693,0.00229399,0.0459662,1868,1191,75.1258,-1.94383
651,-167,74.8284,2.15942,0.000710226,-0.000850678,0.000743835,0.00100792,-0.00114837,0.38069,0.00124581,0.0431787,1875,1191,74.8284,-2.15944
658,-167,74.9692,2.19666,0.000307483,0.0001899,4.30449e-05,0.000321556,0.000175826,0.315993,0.000185921,0.0462244,1882,1191,74.9693,-2.1966
665,-167,75.1752,2.23279,-5.36623e-05,0.00117128,-0.000621144,0.00143113,-0.00031351,-1.17458,0.00107395,0.0434941,1889,1191,75.1751,-2.23278
672,-167,75.103,2.1792,-0.000264406,0.00221495,-0.00118796,0.00269226,-0.000741717,-1.18875,0.0020865,0.0309318,1896,1191,75.103,-2.17921
679,-167,75.0548,2.04504,-0.000175321,0.00262959,-0.00139138,0.00320269,-0.000748419,-1.18008,0.00242343,0.0220337,1903,1191,75.0548,-2.04509
686,-167,75.0704,1.95752,0.000401837,0.0027883,-0.00134704,0.0033946,-0.000204464,-1.14786,0.00233421,0.0321326,1910,1191,75.0704,-1.95755
693,-167,75.0818,1.89319,0,0,0,0,0,0,0,-1,1917,1191,75.0818,-1.8932
700,-167,28.0459,2.70508,0,0,0,0,0,0,0,-1,1924,1191,28.0459,-2.70513
707,-167,29.4708,7.10168,0,0,0,0,0,0,0,-1,1931,1191,29.4708,-7.10172
714,-167,35.9202,6.84668,0,0,0,0,0,0,0,-1,1938,1191,35.9202,-6.84664
721,-167,36.2072,6.38892,0,0,0,0,0,0,0,-1,1945,1191,36.2072,-6.38891
728,-167,61.5837,9.43115,0,0,0,0,0,0,0,-1,1952,1191,61.5837,-9.43119
735,-167,63.2943,8.79834,0,0,0,0,0,0,0,-1,1959,1191,63.2943,-8.79834
742,-167,63.2286,8.08081,0.00198951,0.00235024,0.00114083,0.00332487,0.00101488,0.8638,0.00196756,0.0180776,1966,1191,63.2286,-8.08082
749,-167,63.2023,7.36389,0.00153592,0.00242574,0.00190273,0.00393488,2.67779e-05,0.900249,0.00261437,0.0154124,1973,1191,63.2022,-7.36387
756,-167,63.2079,6.71008,-0.00116034,0.00315858,0.00273489,0.00448378,-0.00248555,1.11958,0.0040785,0.0115358,1980,1191,63.2079,-6.71011
763,-167,63.1257,6.04028,-0.00532245,0.00430544,0.00352674,0.00545907,-0.00647608,1.25466,0.00689909,0.0145585,1987,1191,63.1258,-6.04033
770,-167,62.9656,6.08716,0,0,0,0,0,0,0,-1,1994,1191,62.9656,-6.08716
777,-167,62.8879,4.59924,0,0,0,0,0,0,0,-1,2001,1191,62.888,-4.59926
784,-167,64.5059,4.1864,0,0,0,0,0,0,0,-1,2008,1191,64.5058,-4.18635
791,-167,64.3882,4.00781,-0.0374195,0.0103494,0.00452534,0.0107744,-0.0378444,1.47717,0.0294848,0.0475286,2015,1191,64.3882,-4.00787
798,-167,64.5051,3.82581,-0.0514356,0.0116862,0.00343928,0.0118731,-0.0516225,1.51652,0.0389801,0.0494395,2022,1191,64.505,-3.82586
805,-167,64.6768,3.50122,0,0,0,0,0,0,0,-1,2029,1191,64.6768,-3.50116
812,-167,0,0,0,0,0,0,0,0,0,-1,2036,1191,0,0
-700,-174,0,0,0,0,0,0,0,0,0,-1,524,1198,0,0
-693,-174,0,0,0,0,0,0,0,0,0,-1,531,1198,0,0
-686,-174,-52.3655,-0.638062,0,0,0,0,0,0,0,-1,538,1198,-52.3655,0.638116
-679,-174,-50.3958,-0.438721,0,0,0,0,0,0,0,-1,545,1198,-50.3958,0.43869
-672,-174,-49.6091,0.0513916,0,0,0,0,0,0,0,-1,552,1198,-49.6091,-0.051443
-665,-174,-48.3375,-0.485229,0,0,0,0,0,0,0,-1,559,1198,-48.3375,0.48524
-658,-174,-48.1225,0.471436,0,0,0,0,0,0,0,-1,566,1198,-48.1225,-0.471418
-651,-174,-46.1232,2.86865,0,0,0,0,0,0,0,-1,573,1198,-46.1232,-2.86865
-644,-174,-46.1594,3.48987,-0.0101432,0.0223369,-0.00586123,0.0233622,-0.0111686,-1.39762,0.0203465,0.0475502,580,1198,-46.1594,-3.48992
-637,-174,-46.2447,4.11694,-0.00726453,0.0137949,-0.00355445,0.0143786,-0.00784828,-1.40802,0.013016,0.0295683,587,1198,-46.2447,-4.11689
-630,-174,-46.4302,4.82556,-0.00464033,0.00756204,-0.00229027,0.00797774,-0.00505603,-1.39124,0.00758781,0.0145023,594,1198,-46.4302,-4.82562
-623,-174,-46.4852,5.53723,-0.00320382,0.00292459,-0.00156568,0.00330142,-0.00358065,-1.33461,0.00397445,0.0153172,601,1198,-46.4852,-5.5372
-616,-174,-46.4884,6.29236,-0.00168517,0.000290674,-0.00225173,0.00176167,-0.00315616,-0.992124,0.00287711,0.0216996,608,1198,-46.4884,-6.29238
-609,-174,-46.5521,7.04504,-0.00280881,-0.000187509,-0.00272094,0.00152199,-0.00451831,-1.00985,0.00362758,0.0244904,615,1198,-46.5521,-7.04507
-602,-174,-46.6246,7.7406,0,0,0,0,0,0,0,-1,622,1198,-46.6246,-7.74058
-595,-174,-44.3806,7.69019,0,0,0,0,0,0,0,-1,629,1198,-44.3805,-7.69025
-588,-174,-46.8904,9.29211,0,0,0,0,0,0,0,-1,636,1198,-46.8904,-9.29215
-581,-174,-47.1216,10.0616,0,0,0,0,0,0,0,-1,643,1198,-47.1216,-10.0616
-574,-174,-31.7448,7.09595,0,0,0,0,0,0,0,-1,650,1198,-31.7448,-7.09599
-567,-174,-26.6597,3.04041,0,0,0,0,0,0,0,-1,657,1198,-26.6597,-3.04039
-560,-174,-42.6953,1.07178,0,0,0,0,0,0,0,-1,664,1198,-42.6953,-1.07181
-553,-174,-58.7393,0.22998,0,0,0,0,0,0,0,-1,671,1198,-58.7393,-0.230014
-546,-174,-58.8033,0.3396,-0.00552668,0.0012935,-0.000527246,0.00133402,-0.0055672,-1.4941,0.0042269,0.0310956,678,1198,-58.8033,-0.339586
-539,-174,-58.9119,0.51062,-0.00555572,0.00183684,-0.000245635,0.00184499,-0.00556388,-1.53762,0.00445352,0.0335148,685,1198,-58.9119,-0.510601
-532,-174,-59.0571,0.575928,-0.00492339,0.00189568,0.000309447,0.00190969,-0.00493741,1.52554,0.00407997,0.0450371,692,1198,-59.0571,-0.575896
-525,-174,-59.092,0.614014,-0.00171129,-0.000204585,-3.42497e-05,-0.000203807,-0.00171207,-1.54808,0.00107988,0.0457665,699,1198,-59.0921,-0.613975
-518,-174,-59.0176,0.556763,0.00230299,-0.00304344,-0.000970597,0.00247374,-0.00321419,-0.174141,0.00329319,0.0426942,706,1198,-59.0176,-0.556756
-511,-174,0,0,0,0,0,0,0,0,0,-1,713,1198,0,0
-504,-174,0,0,0,0,0,0,0,0,0,-1,720,1198,0,0
-497,-174,0,0,0,0,0,0,0,0,0,-1,727,1198,0,0
-490,-174,0,0,0,0,0,0,0,0,0,-1,734,1198,0,0
-483,-174,0,0,0,0,0,0,0,0,0,-1,741,1198,0,0
-476,-174,0,0,0,0,0,0,0,0,0,-1,748,1198,0,0
-469,-174,0,0,0,0,0,0,0,0,0,-1,755,1198,0,0
-462,-174,0,0,0,0,0,0,0,0,0,-1,762,1198,0,0
-455,-174,0,0,0,0,0,0,0,0,0,-1,769,1198,0,0
-448,-174,0,0,0,0,0,0,0,0,0,-1,776,1198,0,0
-441,-174,0,0,0,0,0,0,0,0,0,-1,783,1198,0,0
-434,-174,0,0,0,0,0,0,0,0,0,-1,790,1198,0,0
-427,-174,0,0,0,0,0,0,0,0,0,-1,797,1198,0,0
-420,-174,0,0,0,0,0,0,0,0,0,-1,804,1198,0,0
-413,-174,0,0,0,0,0,0,0,0,0,-1,811,1198,0,0
-406,-174,0,0,0,0,0,0,0,0,0,-1,818,1198,0,0
-399,-174,0,0,0,0,0,0,0,0,0,-1,825,1198,0,0
-392,-174,0,0,0,0,0,0,0,0,0,-1,832,1198,0,0
-385,-174,0,0,0,0,0,0,0,0,0,-1,839,1198,0,0
-378,-174,0,0,0,0,0,0,0,0,0,-1,846,1198,0,0
-371,-174,0,0,0,0,0,0,0,0,0,-1,853,1198,0,0
-364,-174,0,0,0,0,0,0,0,0,0,-1,860,1198,0,0
-357,-174,0,0,0,0,0,0,0,0,0,-1,867,1198,0,0
-350,-174,0,0,0,0,0,0,0,0,0,-1,874,1198,0,0
-343,-174,0,0,0,0,0,0,0,0,0,-1,881,1198,0,0
-336,-174,0,0,0,0,0,0,0,0,0,-1,888,1198,0,0
-329,-174,0,0,0,0,0,0,0,0,0,-1,895,1198,0,0
-322,-174,0,0,0,0,0,0,0,0,0,-1,902,1198,0,0
-315,-174,0,0,0,0,0,0,0,0,0,-1,909,1198,0,0
-308,-174,0,0,0,0,0,0,0,0,0,-1,916,1198,0,0
-301,-174,0,0,0,0,0,0,0,0,0,-1,923,1198,0,0
-294,-174,0,0,0,0,0,0,0,0,0,-1,930,1198,0,0
-287,-174,0,0,0,0,0,0,0,0,0,-1,937,1198,0,0
-280,-174,0,0,0,0,0,0,0,0,0,-1,944,1198,0,0
-273,-174,0,0,0,0,0,0,0,0,0,-1,951,1198,0,0
-266,-174,0,0,0,0,0,0,0,0,0,-1,958,1198,0,0
-259,-174,0,0,0,0,0,0,0,0,0,-1,965,1198,0,0
-252,-174,0,0,0,0,0,0,0,0,0,-1,972,1198,0,0
-245,-174,0,0,0,0,0,0,0,0,0,-1,979,1198,0,0
-238,-174,0,0,0,0,0,0,0,0,0,-1,986,1198,0,0
-231,-174,0,0,0,0,0,0,0,0,0,-1,993,1198,0,0
-224,-174,0,0,0,0,0,0,0,0,0,-1,1000,1198,0,0
-217,-174,0,0,0,0,0,0,0,0,0,-1,1007,1198,0,0
-210,-174,0,0,0,0,0,0,0,0,0,-1,1014,1198,0,0
-203,-174,0,0,0,0,0,0,0,0,0,-1,1021,1198,0,0
-196,-174,0,0,0,0,0,0,0,0,0,-1,1028,1198,0,0
-189,-174,0,0,0,0,0,0,0,0,0,-1,1035,1198,0,0
-182,-174,0,0,0,0,0,0,0,0,0,-1,1042,1198,0,0
-175,-174,0,0,0,0,0,0,0,0,0,-1,1049,1198,0,0
-168,-174,0,0,0,0,0,0,0,0,0,-1,1056,1198,0,0
-161,-174,0,0,0,0,0,0,0,0,0,-1,1063,1198,0,0
-154,-174,0,0,0,0,0,0,0,0,0,-1,1070,1198,0,0
-147,-174,0,0,0,0,0,0,0,0,0,-1,1077,1198,0,0
-140,-174,0,0,0,0,0,0,0,0,0,-1,1084,1198,0,0
-133,-174,0,0,0,0,0,0,0,0,0,-1,1091,1198,0,0
-126,-174,0,0,0,0,0,0,0,0,0,-1,1098,1198,0,0
-119,-174,0,0,0,0,0,0,0,0,0,-1,1105,1198,0,0
-112,-174,0,0,0,0,0,0,0,0,0,-1,1112,1198,0,0
-105,-174,0,0,0,0,0,0,0,0,0,-1,1119,1198,0,0
-98,-174,0,0,0,0,0,0,0,0,0,-1,1126,1198,0,0
-91,-174,0,0,0,0,0,0,0,0,0,-1,1133,1198,0,0
-84,-174,0,0,0,0,0,0,0,0,0,-1,1140,1198,0,0
-77,-174,0,0,0,0,0,0,0,0,0,-1,1147,1198,0,0
-70,-174,0,0,0,0,0,0,0,0,0,-1,1154,1198,0,0
-63,-174,0,0,0,0,0,0,0,0,0,-1,1161,1198,0,0
-56,-174,0,0,0,0,0,0,0,0,0,-1,1168,1198,0,0
-49,-174,0,0,0,0,0,0,0,0,0,-1,1175,1198,0,0
-42,-174,0,0,0,0,0,0,0,0,0,-1,1182,1198,0,0
-35,-174,0,0,0,0,0,0,0,0,0,-1,1189,1198,0,0
-28,-174,0,0,0,0,0,0,0,0,0,-1,1196,1198,0,0
-21,-174,0,0,0,0,0,0,0,0,0,-1,1203,1198,0,0
-14,-174,0,0,0,0,0,0,0,0,0,-1,1210,1198,0,0
-7,-174,0,0,0,0,0,0,0,0,0,-1,1217,1198,0,0
0,-174,0,0,0,0,0,0,0,0,0,-1,1224,1198,0,0
7,-174,0,0,0,0,0,0,0,0,0,-1,1231,1198,0,0
14,-174,0,0,0,0,0,0,0,0,0,-1,1238,1198,0,0
21,-174,0,0,0,0,0,0,0,0,0,-1,1245,1198,0,0
28,-174,0,0,0,0,0,0,0,0,0,-1,1252,1198,0,0
35,-174,0,0,0,0,0,0,0,0,0,-1,1259,1198,0,0
42,-174,0,0,0,0,0,0,0,0,0,-1,1266,1198,0,0
49,-174,0,0,0,0,0,0,0,0,0,-1,1273,1198,0,0
56,-174,0,0,0,0,0,0,0,0,0,-1,1280,1198,0,0
63,-174,0,0,0,0,0,0,0,0,0,-1,1287,1198,0,0
70,-174,0,0,0,0,0,0,0,0,0,-1,1294,1198,0,0
77,-174,0,0,0,0,0,0,0,0,0,-1,1301,1198,0,0
84,-174,0,0,0,0,0,0,0,0,0,-1,1308,1198,0,0
91,-174,0,0,0,0,0,0,0,0,0,-1,1315,1198,0,0
98,-174,0,0,0,0,0,0,0,0,0,-1,1322,1198,0,0
105,-174,0,0,0,0,0,0,0,0,0,-1,1329,1198,0,0
112,-174,0,0,0,0,0,0,0,0,0,-1,1336,1198,0,0
119,-174,0,0,0,0,0,0,0,0,0,-1,1343,1198,0,0
126,-174,0,0,0,0,0,0,0,0,0,-1,1350,1198,0,0
133,-174,0,0,0,0,0,0,0,0,0,-1,1357,1198,0,0
140,-174,0,0,0,0,0,0,0,0,0,-1,1364,1198,0,0
147,-174,0,0,0,0,0,0,0,0,0,-1,1371,1198,0,0
154,-174,0,0,0,0,0,0,0,0,0,-1,1378,1198,0,0
161,-174,0,0,0,0,0,0,0,0,0,-1,1385,1198,0,0
168,-174,0,0,0,0,0,0,0,0,0,-1,1392,1198,0,0
175,-174,0,0,0,0,0,0,0,0,0,-1,1399,1198,0,0
182,-174,0,0,0,0,0,0,0,0,0,-1,1406,1198,0,0
189,-174,0,0,0,0,0,0,0,0,0,-1,1413,1198,0,0
196,-174,0,0,0,0,0,0,0,0,0,-1,1420,1198,0,0
203,-174,0,0,0,0,0,0,0,0,0,-1,1427,1198,0,0
210,-174,0,0,0,0,0,0,0,0,0,-1,1434,1198,0,0
217,-174,0,0,0,0,0,0,0,0,0,-1,1441,1198,0,0
224,-174,0,0,0,0,0,0,0,0,0,-1,1448,1198,0,0
231,-174,0,0,0,0,0,0,0,0,0,-1,1455,1198,0,0
238,-174,0,0,0,0,0,0,0,0,0,-1,1462,1198,0,0
245,-174,0,0,0,0,0,0,0,0,0,-1,1469,1198,0,0
252,-174,0,0,0,0,0,0,0,0,0,-1,1476,1198,0,0
259,-174,0,0,0,0,0,0,0,0,0,-1,1483,1198,0,0
266,-174,0,0,0,0,0,0,0,0,0,-1,1490,1198,0,0
273,-174,0,0,0,0,0,0,0,0,0,-1,1497,1198,0,0
280,-174,0,0,0,0,0,0,0,0,0,-1,1504,1198,0,0
287,-174,0,0,0,0,0,0,0,0,0,-1,1511,1198,0,0
294,-174,0,0,0,0,0,0,0,0,0,-1,1518,1198,0,0
301,-174,0,0,0,0,0,0,0,0,0,-1,1525,1198,0,0
308,-174,0,0,0,0,0,0,0,0,0,-1,1532,1198,0,0
315,-174,0,0,0,0,0,0,0,0,0,-1,1539,1198,0,0
322,-174,0,0,0,0,0,0,0,0,0,-1,1546,1198,0,0
329,-174,0,0,0,0,0,0,0,0,0,-1,1553,1198,0,0
336,-174,0,0,0,0,0,0,0,0,0,-1,1560,1198,0,0
343,-174,0,0,0,0,0,0,0,0,0,-1,1567,1198,0,0
350,-174,0,0,0,0,0,0,0,0,0,-1,1574,1198,0,0
357,-174,0,0,0,0,0,0,0,0,0,-1,1581,1198,0,0
364,-174,0,0,0,0,0,0,0,0,0,-1,1588,1198,0,0
371,-174,0,0,0,0,0,0,0,0,0,-1,1595,1198,0,0
378,-174,0,0,0,0,0,0,0,0,0,-1,1602,1198,0,0
385,-174,0,0,0,0,0,0,0,0,0,-1,1609,1198,0,0
392,-174,0,0,0,0,0,0,0,0,0,-1,1616,1198,0,0
399,-174,0,0,0,0,0,0,0,0,0,-1,1623,1198,0,0
406,-174,0,0,0,0,0,0,0,0,0,-1,1630,1198,0,0
413,-174,0,0,0,0,0,0,0,0,0,-1,1637,1198,0,0
420,-174,0,0,0,0,0,0,0,0,0,-1,1644,1198,0,0
427,-174,0,0,0,0,0,0,0,0,0,-1,1651,1198,0,0
434,-174,0,0,0,0,0,0,0,0,0,-1,1658,1198,0,0
441,-174,0,0,0,0,0,0,0,0,0,-1,1665,1198,0,0
448,-174,0,0,0,0,0,0,0,0,0,-1,1672,1198,0,0
455,-174,0,0,0,0,0,0,0,0,0,-1,1679,1198,0,0
462,-174,0,0,0,0,0,0,0,0,0,-1,1686,1198,0,0
469,-174,0,0,0,0,0,0,0,0,0,-1,1693,1198,0,0
476,-174,0,0,0,0,0,0,0,0,0,-1,1700,1198,0,0
483,-174,0,0,0,0,0,0,0,0,0,-1,1707,1198,0,0
490,-174,0,0,0,0,0,0,0,0,0,-1,1714,1198,0,0
497,-174,0,0,0,0,0,0,0,0,0,-1,1721,1198,0,0
504,-174,0,0,0,0,0,0,0,0,0,-1,1728,1198,0,0
511,-174,0,0,0,0,0,0,0,0,0,-1,1735,1198,0,0
518,-174,0,0,0,0,0,0,0,0,0,-1,1742,1198,0,0
525,-174,0,0,0,0,0,0,0,0,0,-1,1749,1198,0,0
532,-174,0,0,0,0,0,0,0,0,0,-1,1756,1198,0,0
539,-174,0,0,0,0,0,0,0,0,0,-1,1763,1198,0,0
546,-174,0,0,0,0,0,0,0,0,0,-1,1770,1198,0,0
553,-174,0,0,0,0,0,0,0,0,0,-1,1777,1198,0,0
560,-174,0,0,0,0,0,0,0,0,0,-1,1784,1198,0,0
567,-174,0,0,0,0,0,0,0,0,0,-1,1791,1198,0,0
574,-174,0,0,0,0,0,0,0,0,0,-1,1798,1198,0,0
581,-174,0,0,0,0,0,0,0,0,0,-1,1805,1198,0,0
588,-174,0,0,0,0,0,0,0,0,0,-1,1812,1198,0,0
595,-174,0,0,0,0,0,0,0,0,0,-1,1819,1198,0,0
602,-174,0,0,0,0,0,0,0,0,0,-1,1826,1198,0,0
609,-174,0,0,0,0,0,0,0,0,0,-1,1833,1198,0,0
616,-174,0,0,0,0,0,0,0,0,0,-1,1840,1198,0,0
623,-174,0,0,0,0,0,0,0,0,0,-1,1847,1198,0,0
630,-174,0,0,0,0,0,0,0,0,0,-1,1854,1198,0,0
637,-174,75.1035,1.96753,0.00173985,-0.0031378,0.00089704,0.00189959,-0.00329754,0.176229,0.00303653,0.0417088,1861,1198,75.1036,-1.9675
644,-174,75.1813,1.91565,0.00124571,-0.00197608,0.000596264,0.00135252,-0.0020829,0.177253,0.00199833,0.0430545,1868,1198,75.1813,-1.91568
651,-174,75.136,1.9856,0.00086851,-0.000640001,8.88976e-06,0.000868562,-0.000640054,0.0058928,0.000874324,0.0413075,1875,1198,75.136,-1.98555
658,-174,75.0446,2.21741,0.000510531,0.000671005,-0.000675631,0.00127115,-8.96109e-05,-0.844501,0.000878826,0.0428505,1882,1198,75.0445,-2.21742
665,-174,75.1926,2.24377,0.00016156,0.00171921,-0.00118952,0.00236219,-0.000481415,-1.07525,0.00175738,0.0392747,1889,1198,75.1927,-2.24373
672,-174,75.1154,2.08337,-1.81379e-05,0.00269772,-0.00150494,0.00336682,-0.000687231,-1.15244,0.00250524,0.0292086,1896,1198,75.1154,-2.08339
679,-174,75.0795,2.03528,3.80131e-05,0.0029341,-0.0014973,0.00356902,-0.000596906,-1.16974,0.00260124,0.0249595,1903,1198,75.0794,-2.03531
686,-174,75.0598,1.94043,0,0,0,0,0,0,0,-1,1910,1198,75.0598,-1.94037
693,-174,51.1324,2.57349,0,0,0,0,0,0,0,-1,1917,1198,51.1325,-2.57343
700,-174,25.4004,6.11792,0,0,0,0,0,0,0,-1,1924,1198,25.4004,-6.11797
707,-174,34.7908,7.34473,0,0,0,0,0,0,0,-1,1931,1198,34.7908,-7.34475
714,-174,40.1135,7.79871,0,0,0,0,0,0,0,-1,1938,1198,40.1135,-7.79875
721,-174,40.8693,7.59863,0,0,0,0,0,0,0,-1,1945,1198,40.8693,-7.59859
728,-174,62.281,9.49719,0,0,0,0,0,0,0,-1,1952,1198,62.2811,-9.4972
735,-174,62.4127,8.85828,0.00186514,0.00281839,0.000591021,0.00310102,0.00158251,1.12473,0.0017905,0.0262337,1959,1198,62.4127,-8.85824
742,-174,62.4886,8.0979,0.00195015,0.00251702,0.0010695,0.00334001,0.00112716,0.914929,0.00196202,0.0222881,1966,1198,62.4887,-8.09787
749,-174,62.4911,7.3999,0.00144331,0.00238935,0.00184691,0.00382285,9.80706e-06,0.91076,0.0025453,0.0185908,1973,1198,62.491,-7.39995
756,-174,62.4783,6.71289,-0.000912581,0.00260147,0.00266268,0.00403458,-0.0023457,1.07704,0.00372643,0.0112128,1980,1198,62.4782,-6.71294
763,-174,62.4426,6.03516,-0.00428729,0.00300974,0.00339253,0.00434329,-0.00562084,1.19627,0.00576853,0.0187133,1987,1198,62.4426,-6.03521
770,-174,62.7034,5.31299,0,0,0,0,0,0,0,-1,1994,1198,62.7034,-5.31296
777,-174,63.2866,4.44592,0,0,0,0,0,0,0,-1,2001,1198,63.2866,-4.44593
784,-174,66.1072,0.143433,0,0,0,0,0,0,0,-1,2008,1198,66.1071,-0.143476
791,-174,64.0872,3.81799,0,0,0,0,0,0,0,-1,2015,1198,64.0871,-3.81796
798,-174,64.3245,3.74475,0,0,0,0,0,0,0,-1,2022,1198,64.3244,-3.74481
805,-174,62.6055,-0.852173,0,0,0,0,0,0,0,-1,2029,1198,62.6055,0.852176
812,-174,0,0,0,0,0,0,0,0,0,-1,2036,1198,0,0
-700,-181,0,0,0,0,0,0,0,0,0,-1,524,1205,0,0
-693,-181,0,0,0,0,0,0,0,0,0,-1,531,1205,0,0
-686,-181,-49.2365,-1.62427,0,0,0,0,0,0,0,-1,538,1205,-49.2365,1.6243
-679,-181,-48.5222,-1.17444,-0.00262157,0.083005,-0.0379533,0.0974056,-0.0170222,-1.20815,0.0712918,0.0456679,545,1205,-48.5222,1.1745
-672,-181,-47.9487,-0.479126,-0.0195347,0.0631469,-0.0226698,0.0689547,-0.0253424,-1.32,0.0563499,0.0456107,552,1205,-47.9487,0.479112
-665,-181,-47.2073,-0.102661,0,0,0,0,0,0,0,-1,559,1205,-47.2073,0.102661
-658,-181,-46.8491,0.589722,0,0,0,0,0,0,0,-1,566,1205,-46.849,-0.589666
-651,-181,-46.5917,1.64001,0,0,0,0,0,0,0,-1,573,1205,-46.5917,-1.64002
-644,-181,-45.4337,3.21411,0,0,0,0,0,0,0,-1,580,1205,-45.4337,-3.21412
-637,-181,-45.5215,4.0885,-0.0103545,0.0117722,-0.00154055,0.011879,-0.0104612,-1.50162,0.0129068,0.029676,587,1205,-45.5215,-4.08851
-630,-181,-45.6951,4.85889,-0.00616215,0.00689471,-0.00115619,0.0069963,-0.00626374,-1.48315,0.00765958,0.0148236,594,1205,-45.6951,-4.85884
-623,-181,-45.7691,5.5719,-0.003938,0.00299678,-0.000798363,0.00308751,-0.00402872,-1.45764,0.00412052,0.0156516,601,1205,-45.7691,-5.57192
-616,-181,-45.7606,6.32263,-0.0013627,0.000558857,-0.00166504,0.00152044,-0.00232428,-1.04708,0.00223586,0.0161065,608,1205,-45.7606,-6.3226
-609,-181,-45.7731,7.09534,-0.00178361,-0.000128817,-0.00253616,0.0017115,-0.00362393,-0.943075,0.00314568,0.0159614,615,1205,-45.7731,-7.0954
-602,-181,-45.7233,7.86902,-0.00201749,-0.000321636,-0.00317742,0.00211905,-0.00445817,-0.915789,0.00387658,0.0302088,622,1205,-45.7233,-7.86908
-595,-181,-45.4281,8.64124,0,0,0,0,0,0,0,-1,629,1205,-45.4281,-8.64128
-588,-181,-46.1391,9.29919,-0.00339355,7.0046e-05,-0.00193185,0.0009327,-0.0042562,-1.15082,0.00319409,0.0379017,636,1205,-46.1391,-9.29917
-581,-181,-46.3057,10.002,-0.00354022,0.00044463,-0.00149235,0.000941557,-0.00403714,-1.24936,0.00305405,0.046992,643,1205,-46.3057,-10.002
-574,-181,-45.639,10.6921,0,0,0,0,0,0,0,-1,650,1205,-45.639,-10.6921
-567,-181,-25.8839,3.34485,0,0,0,0,0,0,0,-1,657,1205,-25.8839,-3.3449
-560,-181,-31.7396,1.63306,0,0,0,0,0,0,0,-1,664,1205,-31.7396,-1.63303
-553,-181,-57.8761,0.527832,0,0,0,0,0,0,0,-1,671,1205,-57.8761,-0.527787
-546,-181,-58.7687,0.319702,0,0,0,0,0,0,0,-1,678,1205,-58.7687,-0.319749
-539,-181,-58.8093,0.419312,-0.0057037,0.00251882,-0.00112121,0.00266897,-0.00585385,-1.43767,0.00503387,0.0363788,685,1205,-58.8093,-0.419365
-532,-181,-58.9459,0.448608,-0.00580693,0.00293113,-0.000538388,0.00296418,-0.00583997,-1.50949,0.00517268,0.0428669,692,1205,-58.9459,-0.448609
-525,-181,-58.8802,0.48877,-0.00370422,0.00142187,-9.59316e-05,0.00142366,-0.00370601,-1.55209,0.00305777,0.0402664,699,1205,-58.8802,-0.488828
-518,-181,-58.7484,0.490112,0.000290575,-0.00118492,-0.000564263,0.000481624,-0.00137597,-0.326467,0.00111315,0.0372304,706,1205,-58.7484,-0.490064
-511,-181,0,0,0,0,0,0,0,0,0,-1,713,1205,0,0
-504,-181,0,0,0,0,0,0,0,0,0,-1,720,1205,0,0
-497,-181,0,0,0,0,0,0,0,0,0,-1,727,1205,0,0
-490,-181,0,0,0,0,0,0,0,0,0,-1,734,1205,0,0
-483,-181,0,0,0,0,0,0,0,0,0,-1,741,1205,0,0
-476,-181,0,0,0,0,0,0,0,0,0,-1,748,1205,0,0
-469,-181,0,0,0,0,0,0,0,0,0,-1,755,1205,0,0
-462,-181,0,0,0,0,0,0,0,0,0,-1,762,1205,0,0
-455,-181,0,0,0,0,0,0,0,0,0,-1,769,1205,0,0
-448,-181,0,0,0,0,0,0,0,0,0,-1,776,1205,0,0
-441,-181,0,0,0,0,0,0,0,0,0,-1,783,1205,0,0
-434,-181,0,0,0,0,0,0,0,0,0,-1,790,1205,0,0
-427,-181,0,0,0,0,0,0,0,0,0,-1,797,1205,0,0
-420,-181,0,0,0,0,0,0,0,0,0,-1,804,1205,0,0
-413,-181,0,0,0,0,0,0,0,0,0,-1,811,1205,0,0
-406,-181,0,0,0,0,0,0,0,0,0,-1,818,1205,0,0
-399,-181,0,0,0,0,0,0,0,0,0,-1,825,1205,0,0
-392,-181,0,0,0,0,0,0,0,0,0,-1,832,1205,0,0
-385,-181,0,0,0,0,0,0,0,0,0,-1,839,1205,0,0
-378,-181,0,0,0,0,0,0,0,0,0,-1,846,1205,0,0
-371,-181,0,0,0,0,0,0,0,0,0,-1,853,1205,0,0
-364,-181,0,0,0,0,0,0,0,0,0,-1,860,1205,0,0
-357,-181,0,0,0,0,0,0,0,0,0,-1,867,1205,0,0
-350,-181,0,0,0,0,0,0,0,0,0,-1,874,1205,0,0
-343,-181,0,0,0,0,0,0,0,0,0,-1,881,1205,0,0
-336,-181,0,0,0,0,0,0,0,0,0,-1,888,1205,0,0
-329,-181,0,0,0,0,0,0,0,0,0,-1,895,1205,0,0
-322,-181,0,0,0,0,0,0,0,0,0,-1,902,1205,0,0
-315,-181,0,0,0,0,0,0,0,0,0,-1,909,1205,0,0
-308,-181,0,0,0,0,0,0,0,0,0,-1,916,1205,0,0
-301,-181,0,0,0,0,0,0,0,0,0,-1,923,1205,0,0
-294,-181,0,0,0,0,0,0,0,0,0,-1,930,1205,0,0
-287,-181,0,0,0,0,0,0,0,0,0,-1,937,1205,0,0
-280,-181,0,0,0,0,0,0,0,0,0,-1,944,1205,0,0
-273,-181,0,0,0,0,0,0,0,0,0,-1,951,1205,0,0
-266,-181,0,0,0,0,0,0,0,0,0,-1,958,1205,0,0
-259,-181,0,0,0,0,0,0,0,0,0,-1,965,1205,0,0
-252,-181,0,0,0,0,0,0,0,0,0,-1,972,1205,0,0
-245,-181,0,0,0,0,0,0,0,0,0,-1,979,1205,0,0
-238,-181,0,0,0,0,0,0,0,0,0,-1,986,1205,0,0
-231,-181,0,0,0,0,0,0,0,0,0,-1,993,1205,0,0
-224,-181,0,0,0,0,0,0,0,0,0,-1,1000,1205,0,0
-217,-181,0,0,0,0,0,0,0,0,0,-1,1007,1205,0,0
-210,-181,0,0,0,0,0,0,0,0,0,-1,1014,1205,0,0
-203,-181,0,0,0,0,0,0,0,0,0,-1,1021,1205,0,0
-196,-181,0,0,0,0,0,0,0,0,0,-1,1028,1205,0,0
-189,-181,0,0,0,0,0,0,0,0,0,-1,1035,1205,0,0
-182,-181,0,0,0,0,0,0,0,0,0,-1,1042,1205,0,0
-175,-181,0,0,0,0,0,0,0,0,0,-1,1049,1205,0,0
-168,-181,0,0,0,0,0,0,0,0,0,-1,1056,1205,0,0
-161,-181,0,0,0,0,0,0,0,0,0,-1,1063,1205,0,0
-154,-181,0,0,0,0,0,0,0,0,0,-1,1070,1205,0,0
-147,-181,0,0,0,0,0,0,0,0,0,-1,1077,1205,0,0
-140,-181,0,0,0,0,0,0,0,0,0,-1,1084,1205,0,0
-133,-181,0,0,0,0,0,0,0,0,0,-1,1091,1205,0,0
-126,-181,0,0,0,0,0,0,0,0,0,-1,1098,1205,0,0
-119,-181,0,0,0,0,0,0,0,0,0,-1,1105,1205,0,0
-112,-181,0,0,0,0,0,0,0,0,0,-1,1112,1205,0,0
-105,-181,0,0,0,0,0,0,0,0,0,-1,1119,1205,0,0
-98,-181,0,0,0,0,0,0,0,0,0,-1,1126,1205,0,0
-91,-181,0,0,0,0,0,0,0,0,0,-1,1133,1205,0,0
-84,-181,0,0,0,0,0,0,0,0,0,-1,1140,1205,0,0
-77,-181,0,0,0,0,0,0,0,0,0,-1,1147,1205,0,0
-70,-181,0,0,0,0,0,0,0,0,0,-1,1154,1205,0,0
-63,-181,0,0,0,0,0,0,0,0,0,-1,1161,1205,0,0
-56,-181,0,0,0,0,0,0,0,0,0,-1,1168,1205,0,0
-49,-181,0,0,0,0,0,0,0,0,0,-1,1175,1205,0,0
-42,-181,0,0,0,0,0,0,0,0,0,-1,1182,1205,0,0
-35,-181,0,0,0,0,0,0,0,0,0,-1,1189,1205,0,0
-28,-181,0,0,0,0,0,0,0,0,0,-1,1196,1205,0,0
-21,-181,0,0,0,0,0,0,0,0,0,-1,1203,1205,0,0
-14,-181,0,0,0,0,0,0,0,0,0,-1,1210,1205,0,0
-7,-181,0,0,0,0,0,0,0,0,0,-1,1217,1205,0,0
0,-181,0,0,0,0,0,0,0,0,0,-1,1224,1205,0,0
7,-181,0,0,0,0,0,0,0,0,0,-1,1231,1205,0,0
14,-181,0,0,0,0,0,0,0,0,0,-1,1238,1205,0,0
21,-181,0,0,0,0,0,0,0,0,0,-1,1245,1205,0,0
28,-181,0,0,0,0,0,0,0,0,0,-1,1252,1205,0,0
35,-181,0,0,0,0,0,0,0,0,0,-1,1259,1205,0,0
42,-181,0,0,0,0,0,0,0,0,0,-1,1266,1205,0,0
49,-181,0,0,0,0,0,0,0,0,0,-1,1273,1205,0,0
56,-181,0,0,0,0,0,0,0,0,0,-1,1280,1205,0,0
63,-181,0,0,0,0,0,0,0,0,0,-1,1287,1205,0,0
70,-181,0,0,0,0,0,0,0,0,0,-1,1294,1205,0,0
77,-181,0,0,0,0,0,0,0,0,0,-1,1301,1205,0,0
84,-181,0,0,0,0,0,0,0,0,0,-1,1308,1205,0,0
91,-181,0,0,0,0,0,0,0,0,0,-1,1315,1205,0,0
98,-181,0,0,0,0,0,0,0,0,0,-1,1322,1205,0,0
105,-181,0,0,0,0,0,0,0,0,0,-1,1329,1205,0,0
112,-181,0,0,0,0,0,0,0,0,0,-1,1336,1205,0,0
119,-181,0,0,0,0,0,0,0,0,0,-1,1343,1205,0,0
126,-181,0,0,0,0,0,0,0,0,0,-1,1350,1205,0,0
133,-181,0,0,0,0,0,0,0,0,0,-1,1357,1205,0,0
140,-181,0,0,0,0,0,0,0,0,0,-1,1364,1205,0,0
147,-181,0,0,0,0,0,0,0,0,0,-1,1371,1205,0,0
154,-181,0,0,0,0,0,0,0,0,0,-1,1378,1205,0,0
161,-181,0,0,0,0,0,0,0,0,0,-1,1385,1205,0,0
168,-181,0,0,0,0,0,0,0,0,0,-1,1392,1205,0,0
175,-181,0,0,0,0,0,0,0,0,0,-1,1399,1205,0,0
182,-181,0,0,0,0,0,0,0,0,0,-1,1406,1205,0,0
189,-181,0,0,0,0,0,0,0,0,0,-1,1413,1205,0,0
196,-181,0,0,0,0,0,0,0,0,0,-1,1420,1205,0,0
203,-181,0,0,0,0,0,0,0,0,0,-1,1427,1205,0,0
210,-181,0,0,0,0,0,0,0,0,0,-1,1434,1205,0,0
217,-181,0,0,0,0,0,0,0,0,0,-1,1441,1205,0,0
224,-181,0,0,0,0,0,0,0,0,0,-1,1448,1205,0,0
231,-181,0,0,0,0,0,0,0,0,0,-1,1455,1205,0,0
238,-181,0,0,0,0,0,0,0,0,0,-1,1462,1205,0,0
245,-181,0,0,0,0,0,0,0,0,0,-1,1469,1205,0,0
252,-181,0,0,0,0,0,0,0,0,0,-1,1476,1205,0,0
259,-181,0,0,0,0,0,0,0,0,0,-1,1483,1205,0,0
266,-181,0,0,0,0,0,0,0,0,0,-1,1490,1205,0,0
273,-181,0,0,0,0,0,0,0,0,0,-1,1497,1205,0,0
280,-181,0,0,0,0,0,0,0,0,0,-1,1504,1205,0,0
287,-181,0,0,0,0,0,0,0,0,0,-1,1511,1205,0,0
294,-181,0,0,0,0,0,0,0,0,0,-1,1518,1205,0,0
301,-181,0,0,0,0,0,0,0,0,0,-1,1525,1205,0,0
308,-181,0,0,0,0,0,0,0,0,0,-1,1532,1205,0,0
315,-181,0,0,0,0,0,0,0,0,0,-1,1539,1205,0,0
322,-181,0,0,0,0,0,0,0,0,0,-1,1546,1205,0,0
329,-181,0,0,0,0,0,0,0,0,0,-1,1553,1205,0,0
336,-181,0,0,0,0,0,0,0,0,0,-1,1560,1205,0,0
343,-181,0,0,0,0,0,0,0,0,0,-1,1567,1205,0,0
350,-181,0,0,0,0,0,0,0,0,0,-1,1574,1205,0,0
357,-181,0,0,0,0,0,0,0,0,0,-1,1581,1205,0,0
364,-181,0,0,0,0,0,0,0,0,0,-1,1588,1205,0,0
371,-181,0,0,0,0,0,0,0,0,0,-1,1595,1205,0,0
378,-181,0,0,0,0,0,0,0,0,0,-1,1602,1205,0,0
385,-181,0,0,0,0,0,0,0,0,0,-1,1609,1205,0,0
392,-181,0,0,0,0,0,0,0,0,0,-1,1616,1205,0,0
399,-181,0,0,0,0,0,0,0,0,0,-1,1623,1205,0,0
406,-181,0,0,0,0,0,0,0,0,0,-1,1630,1205,0,0
413,-181,0,0,0,0,0,0,0,0,0,-1,1637,1205,0,0
420,-181,0,0,0,0,0,0,0,0,0,-1,1644,1205,0,0
427,-181,0,0,0,0,0,0,0,0,0,-1,1651,1205,0,0
434,-181,0,0,0,0,0,0,0,0,0,-1,1658,1205,0,0
441,-181,0,0,0,0,0,0,0,0,0,-1,1665,1205,0,0
448,-181,0,0,0,0,0,0,0,0,0,-1,1672,1205,0,0
455,-181,0,0,0,0,0,0,0,0,0,-1,1679,1205,0,0
462,-181,0,0,0,0,0,0,0,0,0,-1,1686,1205,0,0
469,-181,0,0,0,0,0,0,0,0,0,-1,1693,1205,0,0
476,-181,0,0,0,0,0,0,0,0,0,-1,1700,1205,0,0
483,-181,0,0,0,0,0,0,0,0,0,-1,1707,1205,0,0
490,-181,0,0,0,0,0,0,0,0,0,-1,1714,1205,0,0
497,-181,0,0,0,0,0,0,0,0,0,-1,1721,1205,0,0
504,-181,0,0,0,0,0,0,0,0,0,-1,1728,1205,0,0
511,-181,0,0,0,0,0,0,0,0,0,-1,1735,1205,0,0
518,-181,0,0,0,0,0,0,0,0,0,-1,1742,1205,0,0
525,-181,0,0,0,0,0,0,0,0,0,-1,1749,1205,0,0
532,-181,0,0,0,0,0,0,0,0,0,-1,1756,1205,0,0
539,-181,0,0,0,0,0,0,0,0,0,-1,1763,1205,0,0
546,-181,0,0,0,0,0,0,0,0,0,-1,1770,1205,0,0
553,-181,0,0,0,0,0,0,0,0,0,-1,1777,1205,0,0
560,-181,0,0,0,0,0,0,0,0,0,-1,1784,1205,0,0
567,-181,0,0,0,0,0,0,0,0,0,-1,1791,1205,0,0
574,-181,0,0,0,0,0,0,0,0,0,-1,1798,1205,0,0
581,-181,0,0,0,0,0,0,0,0,0,-1,1805,1205,0,0
588,-181,0,0,0,0,0,0,0,0,0,-1,1812,1205,0,0
595,-181,0,0,0,0,0,0,0,0,0,-1,1819,1205,0,0
602,-181,0,0,0,0,0,0,0,0,0,-1,1826,1205,0,0
609,-181,0,0,0,0,0,0,0,0,0,-1,1833,1205,0,0
616,-181,0,0,0,0,0,0,0,0,0,-1,1840,1205,0,0
623,-181,0,0,0,0,0,0,0,0,0,-1,1847,1205,0,0
630,-181,75.1606,2.12207,0.00210885,-0.00380084,0.000814916,0.00221916,-0.00391115,0.13455,0.00358399,0.0382637,1854,1205,75.1607,-2.12203
637,-181,75.1521,2.08362,0.00156909,-0.00263936,0.000548054,0.00163929,-0.00270957,0.127396,0.00253603,0.0365376,1861,1205,75.1521,-2.08365
644,-181,75.1465,1.97827,0.00115744,-0.00131571,4.38325e-05,0.00115821,-0.00131648,0.017716,0.00142974,0.0405463,1868,1205,75.1465,-1.97826
651,-181,75.1497,2.0946,0.000851065,0.000179944,-0.00070384,0.00129524,-0.000264234,-0.562958,0.000963724,0.042954,1875,1205,75.1496,-2.0946
658,-181,75.1917,2.19763,0.000500391,0.0014588,-0.00135983,0.0024214,-0.000462204,-0.954803,0.00178835,0.0377381,1882,1205,75.1916,-2.19769
665,-181,75.1857,2.24866,0.000138995,0.00222759,-0.0016401,0.00312764,-0.000761058,-1.06889,0.0023797,0.0352363,1889,1205,75.1857,-2.24872
672,-181,75.1077,2.12439,-9.2944e-06,0.00286877,-0.00164498,0.00361532,-0.000755847,-1.14476,0.00269769,0.026421,1896,1205,75.1077,-2.12445
679,-181,75.1246,1.979,1.46637e-05,0.00282552,-0.00143749,0.00343046,-0.000590281,-1.17246,0.00250701,0.0397264,1903,1205,75.1246,-1.97895
686,-181,75.1449,1.82947,0,0,0,0,0,0,0,-1,1910,1205,75.1449,-1.82949
693,-181,36.1301,2.91016,0,0,0,0,0,0,0,-1,1917,1205,36.1302,-2.9102
700,-181,29.5845,6.58398,0,0,0,0,0,0,0,-1,1924,1205,29.5844,-6.58395
707,-181,55.4949,10.6722,0,0,0,0,0,0,0,-1,1931,1205,55.4949,-10.6722
714,-181,55.6268,10.3521,0,0,0,0,0,0,0,-1,1938,1205,55.6268,-10.3521
721,-181,51.2217,9.59631,0,0,0,0,0,0,0,-1,1945,1205,51.2217,-9.59637
728,-181,61.8701,9.51074,0,0,0,0,0,0,0,-1,1952,1205,61.8701,-9.51077
735,-181,61.8398,8.83521,0.0016562,0.00272018,0.000684072,0.00305478,0.00132161,1.11589,0.001769,0.0176405,1959,1205,61.8399,-8.83524
742,-181,61.7892,8.17773,0.00175778,0.00236836,0.00117221,0.00327439,0.000851755,0.912787,0.00196164,0.0183213,1966,1205,61.7892,-8.17768
749,-181,61.7767,7.43701,0.00127052,0.00199208,0.00184314,0.00350942,-0.000246814,0.882046,0.00242607,0.0166825,1973,1205,61.7767,-7.43703
756,-181,61.7754,6.724,-0.000666142,0.00180287,0.00252092,0.00337533,-0.0022386,1.01309,0.00326328,0.0124613,1980,1205,61.7754,-6.72399
763,-181,61.7693,6.03467,-0.00324322,0.00160579,0.00307277,0.00309538,-0.00473281,1.11941,0.00455244,0.0183345,1987,1205,61.7693,-6.03468
770,-181,62.4412,4.5387,0,0,0,0,0,0,0,-1,1994,1205,62.4412,-4.53876
777,-181,69.6453,-1.67188,0,0,0,0,0,0,0,-1,2001,1205,69.6452,1.6719
784,-181,68.8472,-0.41748,0,0,0,0,0,0,0,-1,2008,1205,68.8471,0.417431
791,-181,67.9812,0.871338,0,0,0,0,0,0,0,-1,2015,1205,67.9812,-0.871396
798,-181,65.1865,-0.943481,0,0,0,0,0,0,0,-1,2022,1205,65.1865,0.943458
805,-181,0,0,0,0,0,0,0,0,0,-1,2029,1205,0,0
812,-181,0,0,0,0,0,0,0,0,0,-1,2036,1205,0,0
-700,-188,0,0,0,0,0,0,0,0,0,-1,524,1212,0,0
-693,-188,0,0,0,0,0,0,0,0,0,-1,531,1212,0,0
-686,-188,0,0,0,0,0,0,0,0,0,-1,538,1212,0,0
-679,-188,-46.9528,-1.55603,-0.0142087,0.0736532,-0.0335729,0.085013,-0.0255685,-1.24453,0.0668485,0.0449706,545,1212,-46.9528,1.55597
-672,-188,-46.3356,-0.943481,-0.0347804,0.0563984,-0.0165496,0.0593093,-0.0376914,-1.39669,0.0564651,0.0479342,552,1212,-46.3356,0.943515
-665,-188,-45.5416,-0.463135,0,0,0,0,0,0,0,-1,559,1212,-45.5416,0.46319
-658,-188,-45.9207,0.780396,0,0,0,0,0,0,0,-1,566,1212,-45.9206,-0.780444
-651,-188,-45.5984,1.84888,0,0,0,0,0,0,0,-1,573,1212,-45.5984,-1.84886
-644,-188,-45.2894,2.97375,-0.0213694,0.0176544,-0.000339171,0.0176573,-0.0213723,-1.56211,0.0225678,0.047429,580,1212,-45.2894,-2.97372
-637,-188,-44.9631,4.15393,-0.0143678,0.0117324,8.23912e-05,0.0117326,-0.014368,1.56764,0.0150948,0.0256536,587,1212,-44.9631,-4.15396
-630,-188,-44.941,4.89856,-0.00846173,0.00714659,-7.03261e-05,0.00714691,-0.00846205,-1.56629,0.00902249,0.011433,594,1212,-44.9411,-4.89859
-623,-188,-44.9783,5.63477,-0.00521308,0.00332248,5.06731e-05,0.00332278,-0.00521338,1.56486,0.00496849,0.0113609,601,1212,-44.9783,-5.63477
-616,-188,-44.9891,6.37231,-0.00126503,0.000846885,-0.0010446,0.00127627,-0.00169441,-1.1808,0.00172078,0.0115697,608,1212,-44.9891,-6.37227
-609,-188,-44.9839,7.13464,-0.000563869,0.000108203,-0.00235012,0.00214619,-0.00260185,-0.85641,0.00274549,0.0150552,615,1212,-44.984,-7.13464
-602,-188,-44.928,7.94055,-0.00100508,-0.000211168,-0.00330059,0.00271624,-0.0039325,-0.845245,0.00386,0.0296096,622,1212,-44.9281,-7.94049
-595,-188,-44.8594,8.90344,0,0,0,0,0,0,0,-1,629,1212,-44.8594,-8.90344
-588,-188,-45.4013,9.38708,-0.00260313,3.84536e-05,-0.00250229,0.00154714,-0.00411182,-1.02823,0.00337719,0.0290568,636,1212,-45.4013,-9.38711
-581,-188,-45.4292,10.0723,-0.00285109,0.000595491,-0.00213658,0.00161714,-0.00387275,-1.12476,0.00325755,0.0323486,643,1212,-45.4292,-10.0723
-574,-188,-45.4658,10.705,0,0,0,0,0,0,0,-1,650,1212,-45.4658,-10.7049
-567,-188,-19.5786,4.10388,0,0,0,0,0,0,0,-1,657,1212,-19.5785,-4.10383
-560,-188,-23.9507,0.416626,0,0,0,0,0,0,0,-1,664,1212,-23.9508,-0.416602
-553,-188,-49.2368,1.03101,0,0,0,0,0,0,0,-1,671,1212,-49.2367,-1.03099
-546,-188,-58.6463,0.170166,0,0,0,0,0,0,0,-1,678,1212,-58.6463,-0.170182
-539,-188,-58.7212,0.314697,-0.0053462,0.00297895,-0.00213179,0.00349308,-0.00586033,-1.33414,0.00545754,0.0369955,685,1212,-58.7212,-0.314713
-532,-188,-58.7319,0.281616,-0.00604691,0.00363232,-0.00167281,0.00391326,-0.00632786,-1.4044,0.00596725,0.0398076,692,1212,-58.7319,-0.281619
-525,-188,-58.7063,0.359009,-0.00530517,0.00284432,-0.000784757,0.0029192,-0.00538005,-1.47567,0.00486128,0.0385612,699,1212,-58.7063,-0.359004
-518,-188,-58.7213,0.56189,-0.0014756,0.000675395,-0.000902397,0.00100383,-0.00180403,-1.22174,0.00164291,0.0395741,706,1212,-58.7213,-0.561937
-511,-188,-58.7386,0.406128,0.00248573,-0.00147478,-0.00126077,0.00285301,-0.00184206,-0.283474,0.00273157,0.0372707,713,1212,-58.7386,-0.406097
-504,-188,0,0,0,0,0,0,0,0,0,-1,720,1212,0,0
-497,-188,0,0,0,0,0,0,0,0,0,-1,727,1212,0,0
-490,-188,0,0,0,0,0,0,0,0,0,-1,734,1212,0,0
-483,-188,0,0,0,0,0,0,0,0,0,-1,741,1212,0,0
-476,-188,0,0,0,0,0,0,0,0,0,-1,748,1212,0,0
-469,-188,0,0,0,0,0,0,0,0,0,-1,755,1212,0,0
-462,-188,0,0,0,0,0,0,0,0,0,-1,762,1212,0,0
-455,-188,0,0,0,0,0,0,0,0,0,-1,769,1212,0,0
-448,-188,0,0,0,0,0,0,0,0,0,-1,776,1212,0,0
-441,-188,0,0,0,0,0,0,0,0,0,-1,783,1212,0,0
-434,-188,0,0,0,0,0,0,0,0,0,-1,790,1212,0,0
-427,-188,0,0,0,0,0,0,0,0,0,-1,797,1212,0,0
-420,-188,0,0,0,0,0,0,0,0,0,-1,804,1212,0,0
-413,-188,0,0,0,0,0,0,0,0,0,-1,811,1212,0,0
-406,-188,0,0,0,0,0,0,0,0,0,-1,818,1212,0,0
-399,-188,0,0,0,0,0,0,0,0,0,-1,825,1212,0,0
-392,-188,0,0,0,0,0,0,0,0,0,-1,832,1212,0,0
-385,-188,0,0,0,0,0,0,0,0,0,-1,839,1212,0,0
-378,-188,0,0,0,0,0,0,0,0,0,-1,846,1212,0,0
-371,-188,0,0,0,0,0,0,0,0,0,-1,853,1212,0,0
-364,-188,0,0,0,0,0,0,0,0,0,-1,860,1212,0,0
-357,-188,0,0,0,0,0,0,0,0,0,-1,867,1212,0,0
-350,-188,0,0,0,0,0,0,0,0,0,-1,874,1212,0,0
-343,-188,0,0,0,0,0,0,0,0,0,-1,881,1212,0,0
-336,-188,0,0,0,0,0,0,0,0,0,-1,888,1212,0,0
-329,-188,0,0,0,0,0,0,0,0,0,-1,895,1212,0,0
-322,-188,0,0,0,0,0,0,0,0,0,-1,902,1212,0,0
-315,-188,0,0,0,0,0,0,0,0,0,-1,909,1212,0,0
-308,-188,0,0,0,0,0,0,0,0,0,-1,916,1212,0,0
-301,-188,0,0,0,0,0,0,0,0,0,-1,923,1212,0,0
-294,-188,0,0,0,0,0,0,0,0,0,-1,930,1212,0,0
-287,-188,0,0,0,0,0,0,0,0,0,-1,937,1212,0,0
-280,-188,0,0,0,0,0,0,0,0,0,-1,944,1212,0,0
-273,-188,0,0,0,0,0,0,0,0,0,-1,951,1212,0,0
-266,-188,0,0,0,0,0,0,0,0,0,-1,958,1212,0,0
-259,-188,0,0,0,0,0,0,0,0,0,-1,965,1212,0,0
-252,-188,0,0,0,0,0,0,0,0,0,-1,972,1212,0,0
-245,-188,0,0,0,0,0,0,0,0,0,-1,979,1212,0,0
-238,-188,0,0,0,0,0,0,0,0,0,-1,986,1212,0,0
-231,-188,0,0,0,0,0,0,0,0,0,-1,993,1212,0,0
-224,-188,0,0,0,0,0,0,0,0,0,-1,1000,1212,0,0
-217,-188,0,0,0,0,0,0,0,0,0,-1,1007,1212,0,0
-210,-188,0,0,0,0,0,0,0,0,0,-1,1014,1212,0,0
-203,-188,0,0,0,0,0,0,0,0,0,-1,1021,1212,0,0
-196,-188,0,0,0,0,0,0,0,0,0,-1,1028,1212,0,0
-189,-188,0,0,0,0,0,0,0,0,0,-1,1035,1212,0,0
-182,-188,0,0,0,0,0,0,0,0,0,-1,1042,1212,0,0
-175,-188,0,0,0,0,0,0,0,0,0,-1,1049,1212,0,0
-168,-188,0,0,0,0,0,0,0,0,0,-1,1056,1212,0,0
-161,-188,0,0,0,0,0,0,0,0,0,-1,1063,1212,0,0
-154,-188,0,0,0,0,0,0,0,0,0,-1,1070,1212,0,0
-147,-188,0,0,0,0,0,0,0,0,0,-1,1077,1212,0,0
-140,-188,0,0,0,0,0,0,0,0,0,-1,1084,1212,0,0
-133,-188,0,0,0,0,0,0,0,0,0,-1,1091,1212,0,0
-126,-188,0,0,0,0,0,0,0,0,0,-1,1098,1212,0,0
-119,-188,0,0,0,0,0,0,0,0,0,-1,1105,1212,0,0
-112,-188,0,0,0,0,0,0,0,0,0,-1,1112,1212,0,0
-105,-188,0,0,0,0,0,0,0,0,0,-1,1119,1212,0,0
-98,-188,0,0,0,0,0,0,0,0,0,-1,1126,1212,0,0
-91,-188,0,0,0,0,0,0,0,0,0,-1,1133,1212,0,0
-84,-188,0,0,0,0,0,0,0,0,0,-1,1140,1212,0,0
-77,-188,0,0,0,0,0,0,0,0,0,-1,1147,1212,0,0
-70,-188,0,0,0,0,0,0,0,0,0,-1,1154,1212,0,0
-63,-188,0,0,0,0,0,0,0,0,0,-1,1161,1212,0,0
-56,-188,0,0,0,0,0,0,0,0,0,-1,1168,1212,0,0
-49,-188,0,0,0,0,0,0,0,0,0,-1,1175,1212,0,0
-42,-188,0,0,0,0,0,0,0,0,0,-1,1182,1212,0,0
-35,-188,0,0,0,0,0,0,0,0,0,-1,1189,1212,0,0
-28,-188,0,0,0,0,0,0,0,0,0,-1,1196,1212,0,0
-21,-188,0,0,0,0,0,0,0,0,0,-1,1203,1212,0,0
-14,-188,0,0,0,0,0,0,0,0,0,-1,1210,1212,0,0
-7,-188,0,0,0,0,0,0,0,0,0,-1,1217,1212,0,0
0,-188,0,0,0,0,0,0,0,0,0,-1,1224,1212,0,0
7,-188,0,0,0,0,0,0,0,0,0,-1,1231,1212,0,0
14,-188,0,0,0,0,0,0,0,0,0,-1,1238,1212,0,0
21,-188,0,0,0,0,0,0,0,0,0,-1,1245,1212,0,0
28,-188,0,0,0,0,0,0,0,0,0,-1,1252,1212,0,0
35,-188,0,0,0,0,0,0,0,0,0,-1,1259,1212,0,0
42,-188,0,0,0,0,0,0,0,0,0,-1,1266,1212,0,0
49,-188,0,0,0,0,0,0,0,0,0,-1,1273,1212,0,0
56,-188,0,0,0,0,0,0,0,0,0,-1,1280,1212,0,0
63,-188,0,0,0,0,0,0,0,0,0,-1,1287,1212,0,0
70,-188,0,0,0,0,0,0,0,0,0,-1,1294,1212,0,0
77,-188,0,0,0,0,0,0,0,0,0,-1,1301,1212,0,0
84,-188,0,0,0,0,0,0,0,0,0,-1,1308,1212,0,0
91,-188,0,0,0,0,0,0,0,0,0,-1,1315,1212,0,0
98,-188,0,0,0,0,0,0,0,0,0,-1,1322,1212,0,0
105,-188,0,0,0,0,0,0,0,0,0,-1,1329,1212,0,0
112,-188,0,0,0,0,0,0,0,0,0,-1,1336,1212,0,0
119,-188,0,0,0,0,0,0,0,0,0,-1,1343,1212,0,0
126,-188,0,0,0,0,0,0,0,0,0,-1,1350,1212,0,0
133,-188,0,0,0,0,0,0,0,0,0,-1,1357,1212,0,0
140,-188,0,0,0,0,0,0,0,0,0,-1,1364,1212,0,0
147,-188,0,0,0,0,0,0,0,0,0,-1,1371,1212,0,0
154,-188,0,0,0,0,0,0,0,0,0,-1,1378,1212,0,0
161,-188,0,0,0,0,0,0,0,0,0,-1,1385,1212,0,0
168,-188,0,0,0,0,0,0,0,0,0,-1,1392,1212,0,0
175,-188,0,0,0,0,0,0,0,0,0,-1,1399,1212,0,0
182,-188,0,0,0,0,0,0,0,0,0,-1,1406,1212,0,0
189,-188,0,0,0,0,0,0,0,0,0,-1,1413,1212,0,0
196,-188,0,0,0,0,0,0,0,0,0,-1,1420,1212,0,0
203,-188,0,0,0,0,0,0,0,0,0,-1,1427,1212,0,0
210,-188,0,0,0,0,0,0,0,0,0,-1,1434,1212,0,0
217,-188,0,0,0,0,0,0,0,0,0,-1,1441,1212,0,0
224,-188,0,0,0,0,0,0,0,0,0,-1,1448,1212,0,0
231,-188,0,0,0,0,0,0,0,0,0,-1,1455,1212,0,0
238,-188,0,0,0,0,0,0,0,0,0,-1,1462,1212,0,0
245,-188,0,0,0,0,0,0,0,0,0,-1,1469,1212,0,0
252,-188,0,0,0,0,0,0,0,0,0,-1,1476,1212,0,0
259,-188,0,0,0,0,0,0,0,0,0,-1,1483,1212,0,0
266,-188,0,0,0,0,0,0,0,0,0,-1,1490,1212,0,0
273,-188,0,0,0,0,0,0,0,0,0,-1,1497,1212,0,0
280,-188,0,0,0,0,0,0,0,0,0,-1,1504,1212,0,0
287,-188,0,0,0,0,0,0,0,0,0,-1,1511,1212,0,0
294,-188,0,0,0,0,0,0,0,0,0,-1,1518,1212,0,0
301,-188,0,0,0,0,0,0,0,0,0,-1,1525,1212,0,0
308,-188,0,0,0,0,0,0,0,0,0,-1,1532,1212,0,0
315,-188,0,0,0,0,0,0,0,0,0,-1,1539,1212,0,0
322,-188,0,0,0,0,0,0,0,0,0,-1,1546,1212,0,0
329,-188,0,0,0,0,0,0,0,0,0,-1,1553,1212,0,0
336,-188,0,0,0,0,0,0,0,0,0,-1,1560,1212,0,0
343,-188,0,0,0,0,0,0,0,0,0,-1,1567,1212,0,0
350,-188,0,0,0,0,0,0,0,0,0,-1,1574,1212,0,0
357,-188,0,0,0,0,0,0,0,0,0,-1,1581,1212,0,0
364,-188,0,0,0,0,0,0,0,0,0,-1,1588,1212,0,0
371,-188,0,0,0,0,0,0,0,0,0,-1,1595,1212,0,0
378,-188,0,0,0,0,0,0,0,0,0,-1,1602,1212,0,0
385,-188,0,0,0,0,0,0,0,0,0,-1,1609,1212,0,0
392,-188,0,0,0,0,0,0,0,0,0,-1,1616,1212,0,0
399,-188,0,0,0,0,0,0,0,0,0,-1,1623,1212,0,0
406,-188,0,0,0,0,0,0,0,0,0,-1,1630,1212,0,0
413,-188,0,0,0,0,0,0,0,0,0,-1,1637,1212,0,0
420,-188,0,0,0,0,0,0,0,0,0,-1,1644,1212,0,0
427,-188,0,0,0,0,0,0,0,0,0,-1,1651,1212,0,0
434,-188,0,0,0,0,0,0,0,0,0,-1,1658,1212,0,0
441,-188,0,0,0,0,0,0,0,0,0,-1,1665,1212,0,0
448,-188,0,0,0,0,0,0,0,0,0,-1,1672,1212,0,0
455,-188,0,0,0,0,0,0,0,0,0,-1,1679,1212,0,0
462,-188,0,0,0,0,0,0,0,0,0,-1,1686,1212,0,0
469,-188,0,0,0,0,0,0,0,0,0,-1,1693,1212,0,0
476,-188,0,0,0,0,0,0,0,0,0,-1,1700,1212,0,0
483,-188,0,0,0,0,0,0,0,0,0,-1,1707,1212,0,0
490,-188,0,0,0,0,0,0,0,0,0,-1,1714,1212,0,0
497,-188,0,0,0,0,0,0,0,0,0,-1,1721,1212,0,0
504,-188,0,0,0,0,0,0,0,0,0,-1,1728,1212,0,0
511,-188,0,0,0,0,0,0,0,0,0,-1,1735,1212,0,0
518,-188,0,0,0,0,0,0,0,0,0,-1,1742,1212,0,0
525,-188,0,0,0,0,0,0,0,0,0,-1,1749,1212,0,0
532,-188,0,0,0,0,0,0,0,0,0,-1,1756,1212,0,0
539,-188,0,0,0,0,0,0,0,0,0,-1,1763,1212,0,0
546,-188,0,0,0,0,0,0,0,0,0,-1,1770,1212,0,0
553,-188,0,0,0,0,0,0,0,0,0,-1,1777,1212,0,0
560,-188,0,0,0,0,0,0,0,0,0,-1,1784,1212,0,0
567,-188,0,0,0,0,0,0,0,0,0,-1,1791,1212,0,0
574,-188,0,0,0,0,0,0,0,0,0,-1,1798,1212,0,0
581,-188,0,0,0,0,0,0,0,0,0,-1,1805,1212,0,0
588,-188,0,0,0,0,0,0,0,0,0,-1,1812,1212,0,0
595,-188,0,0,0,0,0,0,0,0,0,-1,1819,1212,0,0
602,-188,0,0,0,0,0,0,0,0,0,-1,1826,1212,0,0
609,-188,0,0,0,0,0,0,0,0,0,-1,1833,1212,0,0
616,-188,0,0,0,0,0,0,0,0,0,-1,1840,1212,0,0
623,-188,0,0,0,0,0,0,0,0,0,-1,1847,1212,0,0
630,-188,75.0852,2.27722,0.00184098,-0.00330173,0.00104013,0.00204339,-0.00350414,0.192193,0.00323966,0.0415158,1854,1212,75.0852,-2.27716
637,-188,75.0851,2.22974,0.00138678,-0.00196618,0.00050712,0.0014618,-0.00204121,0.14687,0.00203166,0.0403226,1861,1212,75.0851,-2.22968
644,-188,74.9932,2.16028,0.00104356,-0.000476412,-0.000259215,0.00108655,-0.000519403,-0.164352,0.000946276,0.0383486,1868,1212,74.9932,-2.1603
651,-188,74.9976,2.05981,0.000783998,0.00113428,-0.00123338,0.0022049,-0.000286616,-0.855928,0.00157419,0.0362387,1875,1212,74.9976,-2.05978
658,-188,75.1216,2.11633,0.000378497,0.0021838,-0.0018155,0.00330867,-0.000746365,-1.0161,0.0024921,0.034662,1882,1212,75.1216,-2.11637
665,-188,75.0555,2.15906,-1.78628e-05,0.00253481,-0.00185573,0.00351075,-0.000993803,-1.08664,0.00273269,0.0332165,1889,1212,75.0556,-2.15912
672,-188,75.0775,2.05261,-0.000130101,0.00281535,-0.00162773,0.00353772,-0.000852466,-1.15312,0.00268808,0.0273852,1896,1212,75.0775,-2.05258
679,-188,75.1049,1.88818,0,0,0,0,0,0,0,-1,1903,1212,75.1049,-1.88823
686,-188,60.1007,2.41321,0,0,0,0,0,0,0,-1,1910,1212,60.1007,-2.41325
693,-188,35.9054,2.18042,0,0,0,0,0,0,0,-1,1917,1212,35.9054,-2.18038
700,-188,54.452,11.2678,0,0,0,0,0,0,0,-1,1924,1212,54.452,-11.2678
707,-188,61.4609,11.9281,0,0,0,0,0,0,0,-1,1931,1212,61.461,-11.9281
714,-188,54.7506,10.1539,0,0,0,0,0,0,0,-1,1938,1212,54.7507,-10.1539
721,-188,60.4974,10.7688,0,0,0,0,0,0,0,-1,1945,1212,60.4974,-10.7688
728,-188,61.2303,9.55481,0,0,0,0,0,0,0,-1,1952,1212,61.2304,-9.55481
735,-188,61.1339,8.89063,0.0013505,0.00241507,0.000794685,0.00283926,0.000926307,1.08048,0.00167192,0.0149322,1959,1212,61.1339,-8.89059
742,-188,61.0736,8.18188,0.00145328,0.00202677,0.00134592,0.00311615,0.000363892,0.890352,0.00196739,0.0157388,1966,1212,61.0737,-8.18192
749,-188,61.0546,7.4729,0.000974846,0.00157134,0.00202048,0.00331547,-0.000769285,0.858675,0.00250641,0.0154058,1973,1212,61.0545,-7.47294
756,-188,61.0558,6.74561,-0.000536924,0.00129256,0.0027511,0.00327701,-0.00252137,0.945898,0.00335716,0.0139581,1980,1212,61.0558,-6.74558
763,-188,61.0479,6.04102,-0.00241965,0.000922625,0.00341329,0.00305192,-0.00454894,1.01304,0.00441663,0.0191119,1987,1212,61.0479,-6.04097
770,-188,61.0017,5.26758,-0.00527211,0.000582049,0.00376787,0.0024262,-0.00711626,1.11563,0.00572686,0.0474817,1994,1212,61.0016,-5.26757
777,-188,61.1204,4.53284,0,0,0,0,0,0,0,-1,2001,1212,61.1204,-4.53279
784,-188,69.1482,-1.87268,0,0,0,0,0,0,0,-1,2008,1212,69.1481,1.87266
791,-188,68.3596,-0.192261,0,0,0,0,0,0,0,-1,2015,1212,68.3596,0.192286
798,-188,67.5286,1.23303,0,0,0,0,0,0,0,-1,2022,1212,67.5285,-1.23298
805,-188,0,0,0,0,0,0,0,0,0,-1,2029,1212,0,0
812,-188,0,0,0,0,0,0,0,0,0,-1,2036,1212,0,0
-700,-195,0,0,0,0,0,0,0,0,0,-1,524,1219,0,0
-693,-195,0,0,0,0,0,0,0,0,0,-1,531,1219,0,0
-686,-195,0,0,0,0,0,0,0,0,0,-1,538,1219,0,0
-679,-195,-45.4652,-1.85071,0,0,0,0,0,0,0,-1,545,1219,-45.4652,1.85067
-672,-195,-44.7151,-1.49402,0,0,0,0,0,0,0,-1,552,1219,-44.7151,1.49403
-665,-195,-46.6998,4.67078,0,0,0,0,0,0,0,-1,559,1219,-46.6998,-4.67073
-658,-195,-42.6432,2.47583,0,0,0,0,0,0,0,-1,566,1219,-42.6432,-2.47578
-651,-195,-44.7427,1.99609,0,0,0,0,0,0,0,-1,573,1219,-44.7427,-1.99614
-644,-195,-44.4144,3.11926,-0.0284885,0.0181022,0.00236673,0.0182221,-0.0286084,1.52017,0.0272583,0.047607,580,1219,-44.4144,-3.11931
-637,-195,-44.0899,4.2666,-0.0190463,0.0122811,0.00190991,0.0123971,-0.0191623,1.51013,0.0183598,0.0272356,587,1219,-44.0899,-4.26655
-630,-195,-44.1778,4.92786,-0.0112134,0.00769267,0.00114877,0.00776221,-0.011283,1.51033,0.0110582,0.00956443,594,1219,-44.1778,-4.92783
-623,-195,-44.2139,5.66077,-0.00675318,0.00378141,0.000945427,0.00386558,-0.00683736,1.482,0.00625824,0.0082997,601,1219,-44.2138,-5.66078
-616,-195,-44.2338,6.40857,-0.00135937,0.0010497,-0.000409583,0.00111743,-0.0014271,-1.40691,0.00147271,0.00994739,608,1219,-44.2338,-6.40861
-609,-195,-44.2364,7.1947,0.000502173,0.000233099,-0.00204344,0.0024155,-0.00168023,-0.752526,0.00237734,0.0195082,615,1219,-44.2364,-7.19468
-602,-195,-44.2649,7.94849,-0.000132759,-0.000172986,-0.00312723,0.00297443,-0.00328017,-0.782182,0.00361253,0.0260609,622,1219,-44.2649,-7.94847
-595,-195,-44.3275,8.70862,-0.00104505,-0.000622387,-0.00330531,0.00247834,-0.00414578,-0.817323,0.00386462,0.0418005,629,1219,-44.3275,-8.70864
-588,-195,-44.5369,9.5575,0,0,0,0,0,0,0,-1,636,1219,-44.537,-9.55755
-581,-195,-44.4988,10.1003,0,0,0,0,0,0,0,-1,643,1219,-44.4988,-10.1003
-574,-195,-44.73,10.6097,0,0,0,0,0,0,0,-1,650,1219,-44.7301,-10.6098
-567,-195,-20.6388,3.78369,0,0,0,0,0,0,0,-1,657,1219,-20.6388,-3.78369
-560,-195,-20.878,2.10388,0,0,0,0,0,0,0,-1,664,1219,-20.878,-2.10385
-553,-195,-41.595,0.613281,0,0,0,0,0,0,0,-1,671,1219,-41.595,-0.61334
-546,-195,-58.4766,0.034668,0,0,0,0,0,0,0,-1,678,1219,-58.4767,-0.0346112
-539,-195,-58.6511,0.201172,-0.00508566,0.00282396,-0.00283818,0.00373698,-0.00599868,-1.25956,0.00567122,0.0422678,685,1219,-58.651,-0.201218
-532,-195,-58.7019,0.180664,-0.00605777,0.00353059,-0.00257785,0.0041797,-0.00670689,-1.32412,0.00634157,0.0345347,692,1219,-58.7019,-0.180693
-525,-195,-58.6205,0.160034,-0.0063943,0.00359026,-0.00173938,0.0038846,-0.00668864,-1.40317,0.0061756,0.0386744,699,1219,-58.6205,-0.160041
-518,-195,-58.8674,0.721069,-0.00382622,0.00301226,-0.00177333,0.00344476,-0.00425872,-1.33158,0.00445587,0.0416955,706,1219,-58.8673,-0.721041
-511,-195,-58.738,0.552612,-5.60383e-05,0.00210071,-0.00200824,0.00330179,-0.00125712,-1.03179,0.0027189,0.0407456,713,1219,-58.738,-0.55266
-504,-195,0,0,0,0,0,0,0,0,0,-1,720,1219,0,0
-497,-195,0,0,0,0,0,0,0,0,0,-1,727,1219,0,0
-490,-195,0,0,0,0,0,0,0,0,0,-1,734,1219,0,0
-483,-195,0,0,0,0,0,0,0,0,0,-1,741,1219,0,0
-476,-195,0,0,0,0,0,0,0,0,0,-1,748,1219,0,0
-469,-195,0,0,0,0,0,0,0,0,0,-1,755,1219,0,0
-462,-195,0,0,0,0,0,0,0,0,0,-1,762,1219,0,0
-455,-195,0,0,0,0,0,0,0,0,0,-1,769,1219,0,0
-448,-195,0,0,0,0,0,0,0,0,0,-1,776,1219,0,0
-441,-195,0,0,0,0,0,0,0,0,0,-1,783,1219,0,0
-434,-195,0,0,0,0,0,0,0,0,0,-1,790,1219,0,0
-427,-195,0,0,0,0,0,0,0,0,0,-1,797,1219,0,0
-420,-195,0,0,0,0,0,0,0,0,0,-1,804,1219,0,0
-413,-195,0,0,0,0,0,0,0,0,0,-1,811,1219,0,0
-406,-195,0,0,0,0,0,0,0,0,0,-1,818,1219,0,0
-399,-195,0,0,0,0,0,0,0,0,0,-1,825,1219,0,0
-392,-195,0,0,0,0,0,0,0,0,0,-1,832,1219,0,0
-385,-195,0,0,0,0,0,0,0,0,0,-1,839,1219,0,0
-378,-195,0,0,0,0,0,0,0,0,0,-1,846,1219,0,0
-371,-195,0,0,0,0,0,0,0,0,0,-1,853,1219,0,0
-364,-195,0,0,0,0,0,0,0,0,0,-1,860,1219,0,0
-357,-195,0,0,0,0,0,0,0,0,0,-1,867,1219,0,0
-350,-195,0,0,0,0,0,0,0,0,0,-1,874,1219,0,0
-343,-195,0,0,0,0,0,0,0,0,0,-1,881,1219,0,0
-336,-195,0,0,0,0,0,0,0,0,0,-1,888,1219,0,0
-329,-195,0,0,0,0,0,0,0,0,0,-1,895,1219,0,0
-322,-195,0,0,0,0,0,0,0,0,0,-1,902,1219,0,0
-315,-195,0,0,0,0,0,0,0,0,0,-1,909,1219,0,0
-308,-195,0,0,0,0,0,0,0,0,0,-1,916,1219,0,0
-301,-195,0,0,0,0,0,0,0,0,0,-1,923,1219,0,0
-294,-195,0,0,0,0,0,0,0,0,0,-1,930,1219,0,0
-287,-195,0,0,0,0,0,0,0,0,0,-1,937,1219,0,0
-280,-195,0,0,0,0,0,0,0,0,0,-1,944,1219,0,0
-273,-195,0,0,0,0,0,0,0,0,0,-1,951,1219,0,0
-266,-195,0,0,0,0,0,0,0,0,0,-1,958,1219,0,0
-259,-195,0,0,0,0,0,0,0,0,0,-1,965,1219,0,0
-252,-195,0,0,0,0,0,0,0,0,0,-1,972,1219,0,0
-245,-195,0,0,0,0,0,0,0,0,0,-1,979,1219,0,0
-238,-195,0,0,0,0,0,0,0,0,0,-1,986,1219,0,0
-231,-195,0,0,0,0,0,0,0,0,0,-1,993,1219,0,0
-224,-195,0,0,0,0,0,0,0,0,0,-1,1000,1219,0,0
-217,-195,0,0,0,0,0,0,0,0,0,-1,1007,1219,0,0
-210,-195,0,0,0,0,0,0,0,0,0,-1,1014,1219,0,0
-203,-195,0,0,0,0,0,0,0,0,0,-1,1021,1219,0,0
-196,-195,0,0,0,0,0,0,0,0,0,-1,1028,1219,0,0
-189,-195,0,0,0,0,0,0,0,0,0,-1,1035,1219,0,0
-182,-195,0,0,0,0,0,0,0,0,0,-1,1042,1219,0,0
-175,-195,0,0,0,0,0,0,0,0,0,-1,1049,1219,0,0
-168,-195,0,0,0,0,0,0,0,0,0,-1,1056,1219,0,0
-161,-195,0,0,0,0,0,0,0,0,0,-1,1063,1219,0,0
-154,-195,0,0,0,0,0,0,0,0,0,-1,1070,1219,0,0
-147,-195,0,0,0,0,0,0,0,0,0,-1,1077,1219,0,0
-140,-195,0,0,0,0,0,0,0,0,0,-1,1084,1219,0,0
-133,-195,0,0,0,0,0,0,0,0,0,-1,1091,1219,0,0
-126,-195,0,0,0,0,0,0,0,0,0,-1,1098,1219,0,0
-119,-195,0,0,0,0,0,0,0,0,0,-1,1105,1219,0,0
-112,-195,0,0,0,0,0,0,0,0,0,-1,1112,1219,0,0
-105,-195,0,0,0,0,0,0,0,0,0,-1,1119,1219,0,0
-98,-195,0,0,0,0,0,0,0,0,0,-1,1126,1219,0,0
-91,-195,0,0,0,0,0,0,0,0,0,-1,1133,1219,0,0
-84,-195,0,0,0,0,0,0,0,0,0,-1,1140,1219,0,0
-77,-195,0,0,0,0,0,0,0,0,0,-1,1147,1219,0,0
-70,-195,0,0,0,0,0,0,0,0,0,-1,1154,1219,0,0
-63,-195,0,0,0,0,0,0,0,0,0,-1,1161,1219,0,0
-56,-195,0,0,0,0,0,0,0,0,0,-1,1168,1219,0,0
-49,-195,0,0,0,0,0,0,0,0,0,-1,1175,1219,0,0
-42,-195,0,0,0,0,0,0,0,0,0,-1,1182,1219,0,0
-35,-195,0,0,0,0,0,0,0,0,0,-1,1189,1219,0,0
-28,-195,0,0,0,0,0,0,0,0,0,-1,1196,1219,0,0
-21,-195,0,0,0,0,0,0,0,0,0,-1,1203,1219,0,0
-14,-195,0,0,0,0,0,0,0,0,0,-1,1210,1219,0,0
-7,-195,0,0,0,0,0,0,0,0,0,-1,1217,1219,0,0
0,-195,0,0,0,0,0,0,0,0,0,-1,1224,1219,0,0
7,-195,0,0,0,0,0,0,0,0,0,-1,1231,1219,0,0
14,-195,0,0,0,0,0,0,0,0,0,-1,1238,1219,0,0
21,-195,0,0,0,0,0,0,0,0,0,-1,1245,1219,0,0
28,-195,0,0,0,0,0,0,0,0,0,-1,1252,1219,0,0
35,-195,0,0,0,0,0,0,0,0,0,-1,1259,1219,0,0
42,-195,0,0,0,0,0,0,0,0,0,-1,1266,1219,0,0
49,-195,0,0,0,0,0,0,0,0,0,-1,1273,1219,0,0
56,-195,0,0,0,0,0,0,0,0,0,-1,1280,1219,0,0
63,-195,0,0,0,0,0,0,0,0,0,-1,1287,1219,0,0
70,-195,0,0,0,0,0,0,0,0,0,-1,1294,1219,0,0
77,-195,0,0,0,0,0,0,0,0,0,-1,1301,1219,0,0
84,-195,0,0,0,0,0,0,0,0,0,-1,1308,1219,0,0
91,-195,0,0,0,0,0,0,0,0,0,-1,1315,1219,0,0
98,-195,0,0,0,0,0,0,0,0,0,-1,1322,1219,0,0
105,-195,0,0,0,0,0,0,0,0,0,-1,1329,1219,0,0
112,-195,0,0,0,0,0,0,0,0,0,-1,1336,1219,0,0
119,-195,0,0,0,0,0,0,0,0,0,-1,1343,1219,0,0
126,-195,0,0,0,0,0,0,0,0,0,-1,1350,1219,0,0
133,-195,0,0,0,0,0,0,0,0,0,-1,1357,1219,0,0
140,-195,0,0,0,0,0,0,0,0,0,-1,1364,1219,0,0
147,-195,0,0,0,0,0,0,0,0,0,-1,1371,1219,0,0
154,-195,0,0,0,0,0,0,0,0,0,-1,1378,1219,0,0
161,-195,0,0,0,0,0,0,0,0,0,-1,1385,1219,0,0
168,-195,0,0,0,0,0,0,0,0,0,-1,1392,1219,0,0
175,-195,0,0,0,0,0,0,0,0,0,-1,1399,1219,0,0
182,-195,0,0,0,0,0,0,0,0,0,-1,1406,1219,0,0
189,-195,0,0,0,0,0,0,0,0,0,-1,1413,1219,0,0
196,-195,0,0,0,0,0,0,0,0,0,-1,1420,1219,0,0
203,-195,0,0,0,0,0,0,0,0,0,-1,1427,1219,0,0
210,-195,0,0,0,0,0,0,0,0,0,-1,1434,1219,0,0
217,-195,0,0,0,0,0,0,0,0,0,-1,1441,1219,0,0
224,-195,0,0,0,0,0,0,0,0,0,-1,1448,1219,0,0
231,-195,0,0,0,0,0,0,0,0,0,-1,1455,1219,0,0
238,-195,0,0,0,0,0,0,0,0,0,-1,1462,1219,0,0
245,-195,0,0,0,0,0,0,0,0,0,-1,1469,1219,0,0
252,-195,0,0,0,0,0,0,0,0,0,-1,1476,1219,0,0
259,-195,0,0,0,0,0,0,0,0,0,-1,1483,1219,0,0
266,-195,0,0,0,0,0,0,0,0,0,-1,1490,1219,0,0
273,-195,0,0,0,0,0,0,0,0,0,-1,1497,1219,0,0
280,-195,0,0,0,0,0,0,0,0,0,-1,1504,1219,0,0
287,-195,0,0,0,0,0,0,0,0,0,-1,1511,1219,0,0
294,-195,0,0,0,0,0,0,0,0,0,-1,1518,1219,0,0
301,-195,0,0,0,0,0,0,0,0,0,-1,1525,1219,0,0
308,-195,0,0,0,0,0,0,0,0,0,-1,1532,1219,0,0
315,-195,0,0,0,0,0,0,0,0,0,-1,1539,1219,0,0
322,-195,0,0,0,0,0,0,0,0,0,-1,1546,1219,0,0
329,-195,0,0,0,0,0,0,0,0,0,-1,1553,1219,0,0
336,-195,0,0,0,0,0,0,0,0,0,-1,1560,1219,0,0
343,-195,0,0,0,0,0,0,0,0,0,-1,1567,1219,0,0
350,-195,0,0,0,0,0,0,0,0,0,-1,1574,1219,0,0
357,-195,0,0,0,0,0,0,0,0,0,-1,1581,1219,0,0
364,-195,0,0,0,0,0,0,0,0,0,-1,1588,1219,0,0
371,-195,0,0,0,0,0,0,0,0,0,-1,1595,1219,0,0
378,-195,0,0,0,0,0,0,0,0,0,-1,1602,1219,0,0
385,-195,0,0,0,0,0,0,0,0,0,-1,1609,1219,0,0
392,-195,0,0,0,0,0,0,0,0,0,-1,1616,1219,0,0
399,-195,0,0,0,0,0,0,0,0,0,-1,1623,1219,0,0
406,-195,0,0,0,0,0,0,0,0,0,-1,1630,1219,0,0
413,-195,0,0,0,0,0,0,0,0,0,-1,1637,1219,0,0
420,-195,0,0,0,0,0,0,0,0,0,-1,1644,1219,0,0
427,-195,0,0,0,0,0,0,0,0,0,-1,1651,1219,0,0
434,-195,0,0,0,0,0,0,0,0,0,-1,1658,1219,0,0
441,-195,0,0,0,0,0,0,0,0,0,-1,1665,1219,0,0
448,-195,0,0,0,0,0,0,0,0,0,-1,1672,1219,0,0
455,-195,0,0,0,0,0,0,0,0,0,-1,1679,1219,0,0
462,-195,0,0,0,0,0,0,0,0,0,-1,1686,1219,0,0
469,-195,0,0,0,0,0,0,0,0,0,-1,1693,1219,0,0
476,-195,0,0,0,0,0,0,0,0,0,-1,1700,1219,0,0
483,-195,0,0,0,0,0,0,0,0,0,-1,1707,1219,0,0
490,-195,0,0,0,0,0,0,0,0,0,-1,1714,1219,0,0
497,-195,0,0,0,0,0,0,0,0,0,-1,1721,1219,0,0
504,-195,0,0,0,0,0,0,0,0,0,-1,1728,1219,0,0
511,-195,0,0,0,0,0,0,0,0,0,-1,1735,1219,0,0
518,-195,0,0,0,0,0,0,0,0,0,-1,1742,1219,0,0
525,-195,0,0,0,0,0,0,0,0,0,-1,1749,1219,0,0
532,-195,0,0,0,0,0,0,0,0,0,-1,1756,1219,0,0
539,-195,0,0,0,0,0,0,0,0,0,-1,1763,1219,0,0
546,-195,0,0,0,0,0,0,0,0,0,-1,1770,1219,0,0
553,-195,0,0,0,0,0,0,0,0,0,-1,1777,1219,0,0
560,-195,0,0,0,0,0,0,0,0,0,-1,1784,1219,0,0
567,-195,0,0,0,0,0,0,0,0,0,-1,1791,1219,0,0
574,-195,0,0,0,0,0,0,0,0,0,-1,1798,1219,0,0
581,-195,0,0,0,0,0,0,0,0,0,-1,1805,1219,0,0
588,-195,0,0,0,0,0,0,0,0,0,-1,1812,1219,0,0
595,-195,0,0,0,0,0,0,0,0,0,-1,1819,1219,0,0
602,-195,0,0,0,0,0,0,0,0,0,-1,1826,1219,0,0
609,-195,0,0,0,0,0,0,0,0,0,-1,1833,1219,0,0
616,-195,0,0,0,0,0,0,0,0,0,-1,1840,1219,0,0
623,-195,0,0,0,0,0,0,0,0,0,-1,1847,1219,0,0
630,-195,75.1052,2.26648,0.00115592,-0.00252155,0.000944155,0.00138416,-0.00274979,0.237187,0.00242976,0.0421124,1854,1219,75.1052,-2.26644
637,-195,75.152,2.1499,0.000790522,-0.00112568,0.000306106,0.000838233,-0.00117339,0.154621,0.00116678,0.0407303,1861,1219,75.152,-2.1499
644,-195,75.1179,2.22546,0.000557095,0.000418889,-0.000575245,0.00106737,-9.13886e-05,-0.725621,0.000743919,0.0369899,1868,1219,75.118,-2.22541
651,-195,75.0839,2.16296,0.000464146,0.00192354,-0.00157021,0.00292533,-0.00053764,-1.00291,0.00215194,0.0300625,1875,1219,75.0838,-2.16298
658,-195,75.1174,2.08154,0.000184295,0.00252586,-0.00189784,0.003585,-0.000874837,-1.06178,0.00272876,0.0258402,1882,1219,75.1174,-2.0816
665,-195,75.1172,2.07385,-7.45213e-05,0.00246924,-0.00171167,0.00332984,-0.000935127,-1.10492,0.00258853,0.0242221,1889,1219,75.1171,-2.0739
672,-195,75.1042,1.94153,-6.6396e-05,0.00251848,-0.00138277,0.00311878,-0.000666695,-1.16122,0.00233338,0.0384603,1896,1219,75.1042,-1.94154
679,-195,75.0776,1.77844,0,0,0,0,0,0,0,-1,1903,1219,75.0776,-1.77839
686,-195,51.2117,1.94312,0,0,0,0,0,0,0,-1,1910,1219,51.2117,-1.9431
693,-195,24.4368,5.68298,0,0,0,0,0,0,0,-1,1917,1219,24.4368,-5.68293
700,-195,60.6156,12.5725,0,0,0,0,0,0,0,-1,1924,1219,60.6155,-12.5726
707,-195,60.6296,11.8409,0,0,0,0,0,0,0,-1,1931,1219,60.6296,-11.8409
714,-195,60.6328,11.3086,0,0,0,0,0,0,0,-1,1938,1219,60.6328,-11.3086
721,-195,60.4482,10.7471,0,0,0,0,0,0,0,-1,1945,1219,60.4482,-10.7471
728,-195,60.4233,9.67883,0.000571214,0.00186512,0.000577263,0.00208522,0.000351115,1.20653,0.00128915,0.0142493,1952,1219,60.4233,-9.67887
735,-195,60.4189,8.89612,0.000872974,0.00169208,0.00114061,0.00249444,7.06192e-05,0.957763,0.00163993,0.0145882,1959,1219,60.419,-8.89616
742,-195,60.3759,8.1814,0.000885253,0.00132542,0.00174352,0.00286269,-0.000652018,0.84818,0.00215887,0.0167148,1966,1219,60.3759,-8.18136
749,-195,60.3281,7.4978,0.000588169,0.000852406,0.00245012,0.00317397,-0.0017334,0.812334,0.00287367,0.0158194,1973,1219,60.3281,-7.49781
756,-195,60.3062,6.79895,-0.000226968,0.000480423,0.00325748,0.00340335,-0.00314989,0.839476,0.00378446,0.0149134,1980,1219,60.3062,-6.79897
763,-195,60.3032,6.04053,-0.00125683,-4.29004e-05,0.00412223,0.00351681,-0.00481654,0.858494,0.00483072,0.0237706,1987,1219,60.3033,-6.04056
770,-195,60.1243,5.42798,-0.00280026,-0.000482665,0.00467061,0.00317076,-0.00645368,0.906995,0.0056634,0.0490406,1994,1219,60.1243,-5.428
777,-195,60.0437,5.02527,0,0,0,0,0,0,0,-1,2001,1219,60.0437,-5.02528
784,-195,69.7437,-3.15942,0,0,0,0,0,0,0,-1,2008,1219,69.7437,3.15944
791,-195,68.9104,-1.24268,0,0,0,0,0,0,0,-1,2015,1219,68.9103,1.24264
798,-195,66.05,2.49902,0,0,0,0,0,0,0,-1,2022,1219,66.0501,-2.499
805,-195,0,0,0,0,0,0,0,0,0,-1,2029,1219,0,0
812,-195,0,0,0,0,0,0,0,0,0,-1,2036,1219,0,0
-700,-202,0,0,0,0,0,0,0,0,0,-1,524,1226,0,0
-693,-202,0,0,0,0,0,0,0,0,0,-1,531,1226,0,0
-686,-202,0,0,0,0,0,0,0,0,0,-1,538,1226,0,0
-679,-202,-44.1955,-2.06812,0,0,0,0,0,0,0,-1,545,1226,-44.1955,2.0681
-672,-202,-45.4005,3.95618,-0.0910695,0.0505612,0.00674558,0.0508818,-0.0913901,1.52331,0.0832431,0.0462638,552,1226,-45.4004,-3.95617
-665,-202,-47.0174,4.41162,-0.0780445,0.0409503,0.00775003,0.0414529,-0.0785471,1.50603,0.0703768,0.0489802,559,1226,-47.0174,-4.41162
-658,-202,-48.6339,4.83545,0,0,0,0,0,0,0,-1,566,1226,-48.6338,-4.83547
-651,-202,-41.6132,2.77661,0,0,0,0,0,0,0,-1,573,1226,-41.6132,-2.77661
-644,-202,-43.535,3.27612,0,0,0,0,0,0,0,-1,580,1226,-43.535,-3.27611
-637,-202,-43.4412,4.15906,0,0,0,0,0,0,0,-1,587,1226,-43.4412,-4.15905
-630,-202,-43.4337,4.92126,-0.0143187,0.00827814,0.00248352,0.00854788,-0.0145884,1.46261,0.0135087,0.0229099,594,1226,-43.4337,-4.92129
-623,-202,-43.4438,5.6781,-0.00851719,0.00433039,0.00188961,0.00460255,-0.00878935,1.42775,0.00785676,0.00904542,601,1226,-43.4439,-5.67813
-616,-202,-43.4709,6.43152,-0.00163191,0.00140914,0.000220299,0.00142502,-0.00164778,1.49885,0.00177563,0.00861794,608,1226,-43.4709,-6.43151
-609,-202,-43.4977,7.19446,0.00141538,0.000489164,-0.00165474,0.0026706,-0.000766054,-0.648955,0.00208324,0.0223698,615,1226,-43.4977,-7.19449
-602,-202,-43.5549,7.9303,0.000721745,3.12733e-05,-0.00274341,0.00314156,-0.00238854,-0.722806,0.00320265,0.0229885,622,1226,-43.5549,-7.93024
-595,-202,-43.7733,8.80884,-0.000140521,-0.000457015,-0.00326275,0.00296782,-0.00356536,-0.761167,0.00377719,0.0310761,629,1226,-43.7732,-8.8088
-588,-202,-43.8094,9.43591,-0.00107667,-6.84703e-05,-0.00322494,0.00269153,-0.00383667,-0.862927,0.00378834,0.0253482,636,1226,-43.8094,-9.43592
-581,-202,-43.6902,10.0763,-0.00153479,0.000657299,-0.00320289,0.00294649,-0.00382398,-0.950255,0.00391986,0.0427113,643,1226,-43.6902,-10.0763
-574,-202,-43.7878,10.7716,0,0,0,0,0,0,0,-1,650,1226,-43.7878,-10.7717
-567,-202,-22.1768,4.56995,0,0,0,0,0,0,0,-1,657,1226,-22.1768,-4.56991
-560,-202,-10.929,2.73096,0,0,0,0,0,0,0,-1,664,1226,-10.929,-2.73092
-553,-202,-30.2701,1.474,0,0,0,0,0,0,0,-1,671,1226,-30.2701,-1.47395
-546,-202,-53.2803,0.580933,0,0,0,0,0,0,0,-1,678,1226,-53.2803,-0.580945
-539,-202,-58.6245,0.189209,0,0,0,0,0,0,0,-1,685,1226,-58.6244,-0.189192
-532,-202,-58.6816,0.238281,-0.00601279,0.00309747,-0.00317995,0.00409763,-0.00701295,-1.26607,0.00648789,0.0293035,692,1226,-58.6816,-0.2383
-525,-202,-58.6144,0.0919189,-0.00701393,0.00323306,-0.00250812,0.00381403,-0.00759489,-1.34318,0.00670643,0.0341205,699,1226,-58.6144,-0.0919769
-518,-202,-58.6758,0.266113,-0.00596402,0.00360014,-0.00260175,0.00426208,-0.00662596,-1.32166,0.00633541,0.0410436,706,1226,-58.6758,-0.266053
-511,-202,-58.8411,0.44519,-0.00309401,0.0043359,-0.0029362,0.00535615,-0.00411426,-1.23637,0.00548339,0.0419411,713,1226,-58.8411,-0.445194
-504,-202,0,0,0,0,0,0,0,0,0,-1,720,1226,0,0
-497,-202,0,0,0,0,0,0,0,0,0,-1,727,1226,0,0
-490,-202,0,0,0,0,0,0,0,0,0,-1,734,1226,0,0
-483,-202,0,0,0,0,0,0,0,0,0,-1,741,1226,0,0
-476,-202,0,0,0,0,0,0,0,0,0,-1,748,1226,0,0
-469,-202,0,0,0,0,0,0,0,0,0,-1,755,1226,0,0
-462,-202,0,0,0,0,0,0,0,0,0,-1,762,1226,0,0
-455,-202,0,0,0,0,0,0,0,0,0,-1,769,1226,0,0
-448,-202,0,0,0,0,0,0,0,0,0,-1,776,1226,0,0
-441,-202,0,0,0,0,0,0,0,0,0,-1,783,1226,0,0
-434,-202,0,0,0,0,0,0,0,0,0,-1,790,1226,0,0
-427,-202,0,0,0,0,0,0,0,0,0,-1,797,1226,0,0
-420,-202,0,0,0,0,0,0,0,0,0,-1,804,1226,0,0
-413,-202,0,0,0,0,0,0,0,0,0,-1,811,1226,0,0
-406,-202,0,0,0,0,0,0,0,0,0,-1,818,1226,0,0
-399,-202,0,0,0,0,0,0,0,0,0,-1,825,1226,0,0
-392,-202,0,0,0,0,0,0,0,0,0,-1,832,1226,0,0
-385,-202,0,0,0,0,0,0,0,0,0,-1,839,1226,0,0
-378,-202,0,0,0,0,0,0,0,0,0,-1,846,1226,0,0
-371,-202,0,0,0,0,0,0,0,0,0,-1,853,1226,0,0
-364,-202,0,0,0,0,0,0,0,0,0,-1,860,1226,0,0
-357,-202,0,0,0,0,0,0,0,0,0,-1,867,1226,0,0
-350,-202,0,0,0,0,0,0,0,0,0,-1,874,1226,0,0
-343,-202,0,0,0,0,0,0,0,0,0,-1,881,1226,0,0
-336,-202,0,0,0,0,0,0,0,0,0,-1,888,1226,0,0
-329,-202,0,0,0,0,0,0,0,0,0,-1,895,1226,0,0
-322,-202,0,0,0,0,0,0,0,0,0,-1,902,1226,0,0
-315,-202,0,0,0,0,0,0,0,0,0,-1,909,1226,0,0
-308,-202,0,0,0,0,0,0,0,0,0,-1,916,1226,0,0
-301,-202,0,0,0,0,0,0,0,0,0,-1,923,1226,0,0
-294,-202,0,0,0,0,0,0,0,0,0,-1,930,1226,0,0
-287,-202,0,0,0,0,0,0,0,0,0,-1,937,1226,0,0
-280,-202,0,0,0,0,0,0,0,0,0,-1,944,1226,0,0
-273,-202,0,0,0,0,0,0,0,0,0,-1,951,1226,0,0
-266,-202,0,0,0,0,0,0,0,0,0,-1,958,1226,0,0
-259,-202,0,0,0,0,0,0,0,0,0,-1,965,1226,0,0
-252,-202,0,0,0,0,0,0,0,0,0,-1,972,1226,0,0
-245,-202,0,0,0,0,0,0,0,0,0,-1,979,1226,0,0
-238,-202,0,0,0,0,0,0,0,0,0,-1,986,1226,0,0
-231,-202,0,0,0,0,0,0,0,0,0,-1,993,1226,0,0
-224,-202,0,0,0,0,0,0,0,0,0,-1,1000,1226,0,0
-217,-202,0,0,0,0,0,0,0,0,0,-1,1007,1226,0,0
-210,-202,0,0,0,0,0,0,0,0,0,-1,1014,1226,0,0
-203,-202,0,0,0,0,0,0,0,0,0,-1,1021,1226,0,0
-196,-202,0,0,0,0,0,0,0,0,0,-1,1028,1226,0,0
-189,-202,0,0,0,0,0,0,0,0,0,-1,1035,1226,0,0
-182,-202,0,0,0,0,0,0,0,0,0,-1,1042,1226,0,0
-175,-202,0,0,0,0,0,0,0,0,0,-1,1049,1226,0,0
-168,-202,0,0,0,0,0,0,0,0,0,-1,1056,1226,0,0
-161,-202,0,0,0,0,0,0,0,0,0,-1,1063,1226,0,0
-154,-202,0,0,0,0,0,0,0,0,0,-1,1070,1226,0,0
-147,-202,0,0,0,0,0,0,0,0,0,-1,1077,1226,0,0
-140,-202,0,0,0,0,0,0,0,0,0,-1,1084,1226,0,0
-133,-202,0,0,0,0,0,0,0,0,0,-1,1091,1226,0,0
-126,-202,0,0,0,0,0,0,0,0,0,-1,1098,1226,0,0
-119,-202,0,0,0,0,0,0,0,0,0,-1,1105,1226,0,0
-112,-202,0,0,0,0,0,0,0,0,0,-1,1112,1226,0,0
-105,-202,0,0,0,0,0,0,0,0,0,-1,1119,1226,0,0
-98,-202,0,0,0,0,0,0,0,0,0,-1,1126,1226,0,0
-91,-202,0,0,0,0,0,0,0,0,0,-1,1133,1226,0,0
-84,-202,0,0,0,0,0,0,0,0,0,-1,1140,1226,0,0
-77,-202,0,0,0,0,0,0,0,0,0,-1,1147,1226,0,0
-70,-202,0,0,0,0,0,0,0,0,0,-1,1154,1226,0,0
-63,-202,0,0,0,0,0,0,0,0,0,-1,1161,1226,0,0
-56,-202,0,0,0,0,0,0,0,0,0,-1,1168,1226,0,0
-49,-202,0,0,0,0,0,0,0,0,0,-1,1175,1226,0,0
-42,-202,0,0,0,0,0,0,0,0,0,-1,1182,1226,0,0
-35,-202,0,0,0,0,0,0,0,0,0,-1,1189,1226,0,0
-28,-202,0,0,0,0,0,0,0,0,0,-1,1196,1226,0,0
-21,-202,0,0,0,0,0,0,0,0,0,-1,1203,1226,0,0
-14,-202,0,0,0,0,0,0,0,0,0,-1,1210,1226,0,0
-7,-202,0,0,0,0,0,0,0,0,0,-1,1217,1226,0,0
0,-202,0,0,0,0,0,0,0,0,0,-1,1224,1226,0,0
7,-202,0,0,0,0,0,0,0,0,0,-1,1231,1226,0,0
14,-202,0,0,0,0,0,0,0,0,0,-1,1238,1226,0,0
21,-202,0,0,0,0,0,0,0,0,0,-1,1245,1226,0,0
28,-202,0,0,0,0,0,0,0,0,0,-1,1252,1226,0,0
35,-202,0,0,0,0,0,0,0,0,0,-1,1259,1226,0,0
42,-202,0,0,0,0,0,0,0,0,0,-1,1266,1226,0,0
49,-202,0,0,0,0,0,0,0,0,0,-1,1273,1226,0,0
56,-202,0,0,0,0,0,0,0,0,0,-1,1280,1226,0,0
63,-202,0,0,0,0,0,0,0,0,0,-1,1287,1226,0,0
70,-202,0,0,0,0,0,0,0,0,0,-1,1294,1226,0,0
77,-202,0,0,0,0,0,0,0,0,0,-1,1301,1226,0,0
84,-202,0,0,0,0,0,0,0,0,0,-1,1308,1226,0,0
91,-202,0,0,0,0,0,0,0,0,0,-1,1315,1226,0,0
98,-202,0,0,0,0,0,0,0,0,0,-1,1322,1226,0,0
105,-202,0,0,0,0,0,0,0,0,0,-1,1329,1226,0,0
112,-202,0,0,0,0,0,0,0,0,0,-1,1336,1226,0,0
119,-202,0,0,0,0,0,0,0,0,0,-1,1343,1226,0,0
126,-202,0,0,0,0,0,0,0,0,0,-1,1350,1226,0,0
133,-202,0,0,0,0,0,0,0,0,0,-1,1357,1226,0,0
140,-202,0,0,0,0,0,0,0,0,0,-1,1364,1226,0,0
147,-202,0,0,0,0,0,0,0,0,0,-1,1371,1226,0,0
154,-202,0,0,0,0,0,0,0,0,0,-1,1378,1226,0,0
161,-202,0,0,0,0,0,0,0,0,0,-1,1385,1226,0,0
168,-202,0,0,0,0,0,0,0,0,0,-1,1392,1226,0,0
175,-202,0,0,0,0,0,0,0,0,0,-1,1399,1226,0,0
182,-202,0,0,0,0,0,0,0,0,0,-1,1406,1226,0,0
189,-202,0,0,0,0,0,0,0,0,0,-1,1413,1226,0,0
196,-202,0,0,0,0,0,0,0,0,0,-1,1420,1226,0,0
203,-202,0,0,0,0,0,0,0,0,0,-1,1427,1226,0,0
210,-202,0,0,0,0,0,0,0,0,0,-1,1434,1226,0,0
217,-202,0,0,0,0,0,0,0,0,0,-1,1441,1226,0,0
224,-202,0,0,0,0,0,0,0,0,0,-1,1448,1226,0,0
231,-202,0,0,0,0,0,0,0,0,0,-1,1455,1226,0,0
238,-202,0,0,0,0,0,0,0,0,0,-1,1462,1226,0,0
245,-202,0,0,0,0,0,0,0,0,0,-1,1469,1226,0,0
252,-202,0,0,0,0,0,0,0,0,0,-1,1476,1226,0,0
259,-202,0,0,0,0,0,0,0,0,0,-1,1483,1226,0,0
266,-202,0,0,0,0,0,0,0,0,0,-1,1490,1226,0,0
273,-202,0,0,0,0,0,0,0,0,0,-1,1497,1226,0,0
280,-202,0,0,0,0,0,0,0,0,0,-1,1504,1226,0,0
287,-202,0,0,0,0,0,0,0,0,0,-1,1511,1226,0,0
294,-202,0,0,0,0,0,0,0,0,0,-1,1518,1226,0,0
301,-202,0,0,0,0,0,0,0,0,0,-1,1525,1226,0,0
308,-202,0,0,0,0,0,0,0,0,0,-1,1532,1226,0,0
315,-202,0,0,0,0,0,0,0,0,0,-1,1539,1226,0,0
322,-202,0,0,0,0,0,0,0,0,0,-1,1546,1226,0,0
329,-202,0,0,0,0,0,0,0,0,0,-1,1553,1226,0,0
336,-202,0,0,0,0,0,0,0,0,0,-1,1560,1226,0,0
343,-202,0,0,0,0,0,0,0,0,0,-1,1567,1226,0,0
350,-202,0,0,0,0,0,0,0,0,0,-1,1574,1226,0,0
357,-202,0,0,0,0,0,0,0,0,0,-1,1581,1226,0,0
364,-202,0,0,0,0,0,0,0,0,0,-1,1588,1226,0,0
371,-202,0,0,0,0,0,0,0,0,0,-1,1595,1226,0,0
378,-202,0,0,0,0,0,0,0,0,0,-1,1602,1226,0,0
385,-202,0,0,0,0,0,0,0,0,0,-1,1609,1226,0,0
392,-202,0,0,0,0,0,0,0,0,0,-1,1616,1226,0,0
399,-202,0,0,0,0,0,0,0,0,0,-1,1623,1226,0,0
406,-202,0,0,0,0,0,0,0,0,0,-1,1630,1226,0,0
413,-202,0,0,0,0,0,0,0,0,0,-1,1637,1226,0,0
420,-202,0,0,0,0,0,0,0,0,0,-1,1644,1226,0,0
427,-202,0,0,0,0,0,0,0,0,0,-1,1651,1226,0,0
434,-202,0,0,0,0,0,0,0,0,0,-1,1658,1226,0,0
441,-202,0,0,0,0,0,0,0,0,0,-1,1665,1226,0,0
448,-202,0,0,0,0,0,0,0,0,0,-1,1672,1226,0,0
455,-202,0,0,0,0,0,0,0,0,0,-1,1679,1226,0,0
462,-202,0,0,0,0,0,0,0,0,0,-1,1686,1226,0,0
469,-202,0,0,0,0,0,0,0,0,0,-1,1693,1226,0,0
476,-202,0,0,0,0,0,0,0,0,0,-1,1700,1226,0,0
483,-202,0,0,0,0,0,0,0,0,0,-1,1707,1226,0,0
490,-202,0,0,0,0,0,0,0,0,0,-1,1714,1226,0,0
497,-202,0,0,0,0,0,0,0,0,0,-1,1721,1226,0,0
504,-202,0,0,0,0,0,0,0,0,0,-1,1728,1226,0,0
511,-202,0,0,0,0,0,0,0,0,0,-1,1735,1226,0,0
518,-202,0,0,0,0,0,0,0,0,0,-1,1742,1226,0,0
525,-202,0,0,0,0,0,0,0,0,0,-1,1749,1226,0,0
532,-202,0,0,0,0,0,0,0,0,0,-1,1756,1226,0,0
539,-202,0,0,0,0,0,0,0,0,0,-1,1763,1226,0,0
546,-202,0,0,0,0,0,0,0,0,0,-1,1770,1226,0,0
553,-202,0,0,0,0,0,0,0,0,0,-1,1777,1226,0,0
560,-202,0,0,0,0,0,0,0,0,0,-1,1784,1226,0,0
567,-202,0,0,0,0,0,0,0,0,0,-1,1791,1226,0,0
574,-202,0,0,0,0,0,0,0,0,0,-1,1798,1226,0,0
581,-202,0,0,0,0,0,0,0,0,0,-1,1805,1226,0,0
588,-202,0,0,0,0,0,0,0,0,0,-1,1812,1226,0,0
595,-202,0,0,0,0,0,0,0,0,0,-1,1819,1226,0,0
602,-202,0,0,0,0,0,0,0,0,0,-1,1826,1226,0,0
609,-202,0,0,0,0,0,0,0,0,0,-1,1833,1226,0,0
616,-202,0,0,0,0,0,0,0,0,0,-1,1840,1226,0,0
623,-202,0,0,0,0,0,0,0,0,0,-1,1847,1226,0,0
630,-202,75.157,2.11243,0.000727305,-0.00146629,0.000659193,0.000910156,-0.00164914,0.270583,0.001498,0.0391999,1854,1226,75.1569,-2.11243
637,-202,75.225,2.16577,0.000333398,6.20463e-05,-0.000111733,0.000373484,2.19603e-05,-0.344462,0.000242001,0.0363819,1861,1226,75.225,-2.16574
644,-202,75.1768,2.20374,0.000156814,0.00164142,-0.00109324,0.00222055,-0.000422316,-1.08364,0.00163937,0.0321853,1868,1226,75.1768,-2.20379
651,-202,75.1368,2.17029,0.000186498,0.00288207,-0.00200353,0.00394896,-0.000880394,-1.08148,0.00296993,0.0282591,1875,1226,75.1369,-2.1703
658,-202,75.1364,2.1062,-1.17474e-05,0.00290826,-0.00200245,0.00392645,-0.00102994,-1.1004,0.00302006,0.0235316,1882,1226,75.1363,-2.10616
665,-202,75.1567,2.02441,-0.000203702,0.00247536,-0.00161156,0.00323141,-0.000959758,-1.13214,0.00253548,0.0212094,1889,1226,75.1567,-2.0244
672,-202,75.1703,1.93335,0,0,0,0,0,0,0,-1,1896,1226,75.1703,-1.9334
679,-202,72.3511,2.32935,0,0,0,0,0,0,0,-1,1903,1226,72.3511,-2.32932
686,-202,49.1708,2.15198,0,0,0,0,0,0,0,-1,1910,1226,49.1708,-2.15195
693,-202,52.1176,12.0886,0,0,0,0,0,0,0,-1,1917,1226,52.1176,-12.0886
700,-202,59.9528,12.6201,0,0,0,0,0,0,0,-1,1924,1226,59.9528,-12.6201
707,-202,59.8497,11.7793,0.000143937,0.00158884,-0.00025008,0.0016309,0.000101879,-1.40417,0.00105495,0.0339434,1931,1226,59.8497,-11.7793
714,-202,59.7152,11.1324,-0.000132183,0.00161644,-0.000130863,0.00162618,-0.000141922,-1.49651,0.00113439,0.0416161,1938,1226,59.7152,-11.1324
721,-202,59.7042,10.5807,-0.000122904,0.00139219,0.000314797,0.00145499,-0.000185707,1.37388,0.00103745,0.0302095,1945,1226,59.7042,-10.5807
728,-202,59.7274,9.67969,0.00033566,0.00108183,0.000857106,0.00164353,-0.000226041,0.990672,0.00117828,0.0128963,1952,1226,59.7274,-9.67973
735,-202,59.6981,8.9574,0.000454502,0.000901277,0.00142178,0.00211711,-0.00076133,0.86332,0.00172222,0.0127614,1959,1226,59.6981,-8.95745
742,-202,59.6625,8.23315,0.000321625,0.000609505,0.00206462,0.0025352,-0.00160407,0.820201,0.00240988,0.0142889,1966,1226,59.6624,-8.23315
749,-202,59.5948,7.51819,0.000211555,0.0001898,0.00287947,0.00308017,-0.00267882,0.783509,0.00332764,0.014978,1973,1226,59.5949,-7.51822
756,-202,59.5823,6.82886,0.000154426,-0.000301891,0.00386809,0.00380108,-0.00394854,0.75594,0.00447452,0.0136464,1980,1226,59.5822,-6.82889
763,-202,59.634,6.12012,0.000129025,-0.00104938,0.005086,0.00465984,-0.00558019,0.727731,0.00592004,0.0278863,1987,1226,59.634,-6.12015
770,-202,59.5881,5.6936,0,0,0,0,0,0,0,-1,1994,1226,59.5882,-5.69362
777,-202,67.5615,-0.236572,0,0,0,0,0,0,0,-1,2001,1226,67.5615,0.236573
784,-202,66.7117,0.754517,0,0,0,0,0,0,0,-1,2008,1226,66.7118,-0.754543
791,-202,66.512,1.74207,0,0,0,0,0,0,0,-1,2015,1226,66.512,-1.74201
798,-202,51.8999,3.58789,0,0,0,0,0,0,0,-1,2022,1226,51.9,-3.58791
805,-202,0,0,0,0,0,0,0,0,0,-1,2029,1226,0,0
812,-202,0,0,0,0,0,0,0,0,0,-1,2036,1226,0,0
-700,-209,0,0,0,0,0,0,0,0,0,-1,524,1233,0,0
-693,-209,0,0,0,0,0,0,0,0,0,-1,531,1233,0,0
-686,-209,0,0,0,0,0,0,0,0,0,-1,538,1233,0,0
-679,-209,-44.1319,3.24683,0,0,0,0,0,0,0,-1,545,1233,-44.1319,-3.24684
-672,-209,-45.7134,3.70813,-0.125198,0.0473497,0.0202288,0.0496895,-0.127538,1.45564,0.105561,0.0477357,552,1233,-45.7134,-3.70808
-665,-209,-47.3203,4.17615,-0.101117,0.0396896,0.0165295,0.041604,-0.103031,1.45549,0.0859788,0.0468794,559,1233,-47.3203,-4.17618
-658,-209,-48.9473,4.63306,0,0,0,0,0,0,0,-1,566,1233,-48.9473,-4.63302
-651,-209,-40.8797,2.51941,0,0,0,0,0,0,0,-1,573,1233,-40.8797,-2.51942
-644,-209,-43.4648,-7.04663,0,0,0,0,0,0,0,-1,580,1233,-43.4648,7.04659
-637,-209,-42.5577,4.20728,0,0,0,0,0,0,0,-1,587,1233,-42.5577,-4.20723
-630,-209,-42.5438,4.94336,-0.0175502,0.00899188,0.00381146,0.00952836,-0.0180867,1.43096,0.0161967,0.0398303,594,1233,-42.5438,-4.94338
-623,-209,-42.6451,5.72034,-0.0102924,0.00503106,0.00279383,0.00552455,-0.0107859,1.39596,0.00957876,0.0175524,601,1233,-42.6451,-5.72031
-616,-209,-42.6815,6.48279,-0.00193065,0.00197194,0.00078629,0.00212441,-0.00208312,1.37927,0.00242925,0.0120937,608,1233,-42.6815,-6.48284
-609,-209,-42.7311,7.23157,0.00215966,0.000950326,-0.00128823,0.00297808,0.000131912,-0.565972,0.00194291,0.0135327,615,1233,-42.7311,-7.23158
-602,-209,-42.7976,7.97266,0.00141661,0.000469,-0.00237186,0.00336152,-0.00147591,-0.686815,0.00286275,0.0158985,622,1233,-42.7976,-7.9727
-595,-209,-42.8469,8.77527,0.000649134,-3.74874e-05,-0.00317343,0.00349777,-0.00288613,-0.731516,0.00369138,0.0209355,629,1233,-42.8468,-8.77531
-588,-209,-42.9867,9.53955,-0.000255441,0.000270426,-0.00351631,0.00353362,-0.00351863,-0.822716,0.00407162,0.0421247,636,1233,-42.9867,-9.53955
-581,-209,-42.7166,10.283,-0.000832073,0.000974842,-0.00375667,0.00393516,-0.00379239,-0.903404,0.00446176,0.0491494,643,1233,-42.7166,-10.2829
-574,-209,-42.8071,11.0811,0,0,0,0,0,0,0,-1,650,1233,-42.8071,-11.0811
-567,-209,-42.7287,11.8352,0,0,0,0,0,0,0,-1,657,1233,-42.7287,-11.8353
-560,-209,-13.9294,4.16626,0,0,0,0,0,0,0,-1,664,1233,-13.9294,-4.16621
-553,-209,-22.7542,0.748779,0,0,0,0,0,0,0,-1,671,1233,-22.7541,-0.748796
-546,-209,-44.691,0.142822,0,0,0,0,0,0,0,-1,678,1233,-44.6911,-0.142844
-539,-209,-58.4252,0.195068,0,0,0,0,0,0,0,-1,685,1233,-58.4253,-0.195057
-532,-209,-58.5267,0.253296,-0.00632514,0.0023765,-0.00365196,0.00370604,-0.00765468,-1.22165,0.00668987,0.0369946,692,1233,-58.5268,-0.253277
-525,-209,-58.6461,0.284668,-0.00771891,0.00211539,-0.00312172,0.00302263,-0.00862614,-1.28797,0.00697998,0.0338581,699,1233,-58.6461,-0.284609
-518,-209,-58.7849,0.276733,-0.00779335,0.00224891,-0.0030188,0.00308652,-0.00863097,-1.30014,0.007013,0.0427565,706,1233,-58.7849,-0.276755
-511,-209,-58.921,0.333496,-0.00605807,0.00367049,-0.0032142,0.0046365,-0.00702409,-1.27884,0.00677912,0.0425127,713,1233,-58.921,-0.333531
-504,-209,0,0,0,0,0,0,0,0,0,-1,720,1233,0,0
-497,-209,0,0,0,0,0,0,0,0,0,-1,727,1233,0,0
-490,-209,0,0,0,0,0,0,0,0,0,-1,734,1233,0,0
-483,-209,0,0,0,0,0,0,0,0,0,-1,741,1233,0,0
-476,-209,0,0,0,0,0,0,0,0,0,-1,748,1233,0,0
-469,-209,0,0,0,0,0,0,0,0,0,-1,755,1233,0,0
-462,-209,0,0,0,0,0,0,0,0,0,-1,762,1233,0,0
-455,-209,0,0,0,0,0,0,0,0,0,-1,769,1233,0,0
-448,-209,0,0,0,0,0,0,0,0,0,-1,776,1233,0,0
-441,-209,0,0,0,0,0,0,0,0,0,-1,783,1233,0,0
-434,-209,0,0,0,0,0,0,0,0,0,-1,790,1233,0,0
-427,-209,0,0,0,0,0,0,0,0,0,-1,797,1233,0,0
-420,-209,0,0,0,0,0,0,0,0,0,-1,804,1233,0,0
-413,-209,0,0,0,0,0,0,0,0,0,-1,811,1233,0,0
-406,-209,0,0,0,0,0,0,0,0,0,-1,818,1233,0,0
-399,-209,0,0,0,0,0,0,0,0,0,-1,825,1233,0,0
-392,-209,0,0,0,0,0,0,0,0,0,-1,832,1233,0,0
-385,-209,0,0,0,0,0,0,0,0,0,-1,839,1233,0,0
-378,-209,0,0,0,0,0,0,0,0,0,-1,846,1233,0,0
-371,-209,0,0,0,0,0,0,0,0,0,-1,853,1233,0,0
-364,-209,0,0,0,0,0,0,0,0,0,-1,860,1233,0,0
-357,-209,0,0,0,0,0,0,0,0,0,-1,867,1233,0,0
-350,-209,0,0,0,0,0,0,0,0,0,-1,874,1233,0,0
-343,-209,0,0,0,0,0,0,0,0,0,-1,881,1233,0,0
-336,-209,0,0,0,0,0,0,0,0,0,-1,888,1233,0,0
-329,-209,0,0,0,0,0,0,0,0,0,-1,895,1233,0,0
-322,-209,0,0,0,0,0,0,0,0,0,-1,902,1233,0,0
-315,-209,0,0,0,0,0,0,0,0,0,-1,909,1233,0,0
-308,-209,0,0,0,0,0,0,0,0,0,-1,916,1233,0,0
-301,-209,0,0,0,0,0,0,0,0,0,-1,923,1233,0,0
-294,-209,0,0,0,0,0,0,0,0,0,-1,930,1233,0,0
-287,-209,0,0,0,0,0,0,0,0,0,-1,937,1233,0,0
-280,-209,0,0,0,0,0,0,0,0,0,-1,944,1233,0,0
-273,-209,0,0,0,0,0,0,0,0,0,-1,951,1233,0,0
-266,-209,0,0,0,0,0,0,0,0,0,-1,958,1233,0,0
-259,-209,0,0,0,0,0,0,0,0,0,-1,965,1233,0,0
-252,-209,0,0,0,0,0,0,0,0,0,-1,972,1233,0,0
-245,-209,0,0,0,0,0,0,0,0,0,-1,979,1233,0,0
-238,-209,0,0,0,0,0,0,0,0,0,-1,986,1233,0,0
-231,-209,0,0,0,0,0,0,0,0,0,-1,993,1233,0,0
-224,-209,0,0,0,0,0,0,0,0,0,-1,1000,1233,0,0
-217,-209,0,0,0,0,0,0,0,0,0,-1,1007,1233,0,0
-210,-209,0,0,0,0,0,0,0,0,0,-1,1014,1233,0,0
-203,-209,0,0,0,0,0,0,0,0,0,-1,1021,1233,0,0
-196,-209,0,0,0,0,0,0,0,0,0,-1,1028,1233,0,0
-189,-209,0,0,0,0,0,0,0,0,0,-1,1035,1233,0,0
-182,-209,0,0,0,0,0,0,0,0,0,-1,1042,1233,0,0
-175,-209,0,0,0,0,0,0,0,0,0,-1,1049,1233,0,0
-168,-209,0,0,0,0,0,0,0,0,0,-1,1056,1233,0,0
-161,-209,0,0,0,0,0,0,0,0,0,-1,1063,1233,0,0
-154,-209,0,0,0,0,0,0,0,0,0,-1,1070,1233,0,0
-147,-209,0,0,0,0,0,0,0,0,0,-1,1077,1233,0,0
-140,-209,0,0,0,0,0,0,0,0,0,-1,1084,1233,0,0
-133,-209,0,0,0,0,0,0,0,0,0,-1,1091,1233,0,0
-126,-209,0,0,0,0,0,0,0,0,0,-1,1098,1233,0,0
-119,-209,0,0,0,0,0,0,0,0,0,-1,1105,1233,0,0
-112,-209,0,0,0,0,0,0,0,0,0,-1,1112,1233,0,0
-105,-209,0,0,0,0,0,0,0,0,0,-1,1119,1233,0,0
-98,-209,0,0,0,0,0,0,0,0,0,-1,1126,1233,0,0
-91,-209,0,0,0,0,0,0,0,0,0,-1,1133,1233,0,0
-84,-209,0,0,0,0,0,0,0,0,0,-1,1140,1233,0,0
-77,-209,0,0,0,0,0,0,0,0,0,-1,1147,1233,0,0
-70,-209,0,0,0,0,0,0,0,0,0,-1,1154,1233,0,0
-63,-209,0,0,0,0,0,0,0,0,0,-1,1161,1233,0,0
-56,-209,0,0,0,0,0,0,0,0,0,-1,1168,1233,0,0
-49,-209,0,0,0,0,0,0,0,0,0,-1,1175,1233,0,0
-42,-209,0,0,0,0,0,0,0,0,0,-1,1182,1233,0,0
-35,-209,0,0,0,0,0,0,0,0,0,-1,1189,1233,0,0
-28,-209,0,0,0,0,0,0,0,0,0,-1,1196,1233,0,0
-21,-209,0,0,0,0,0,0,0,0,0,-1,1203,1233,0,0
-14,-209,0,0,0,0,0,0,0,0,0,-1,1210,1233,0,0
-7,-209,0,0,0,0,0,0,0,0,0,-1,1217,1233,0,0
0,-209,0,0,0,0,0,0,0,0,0,-1,1224,1233,0,0
7,-209,0,0,0,0,0,0,0,0,0,-1,1231,1233,0,0
14,-209,0,0,0,0,0,0,0,0,0,-1,1238,1233,0,0
21,-209,0,0,0,0,0,0,0,0,0,-1,1245,1233,0,0
28,-209,0,0,0,0,0,0,0,0,0,-1,1252,1233,0,0
35,-209,0,0,0,0,0,0,0,0,0,-1,1259,1233,0,0
42,-209,0,0,0,0,0,0,0,0,0,-1,1266,1233,0,0
49,-209,0,0,0,0,0,0,0,0,0,-1,1273,1233,0,0
56,-209,0,0,0,0,0,0,0,0,0,-1,1280,1233,0,0
63,-209,0,0,0,0,0,0,0,0,0,-1,1287,1233,0,0
70,-209,0,0,0,0,0,0,0,0,0,-1,1294,1233,0,0
77,-209,0,0,0,0,0,0,0,0,0,-1,1301,1233,0,0
84,-209,0,0,0,0,0,0,0,0,0,-1,1308,1233,0,0
91,-209,0,0,0,0,0,0,0,0,0,-1,1315,1233,0,0
98,-209,0,0,0,0,0,0,0,0,0,-1,1322,1233,0,0
105,-209,0,0,0,0,0,0,0,0,0,-1,1329,1233,0,0
112,-209,0,0,0,0,0,0,0,0,0,-1,1336,1233,0,0
119,-209,0,0,0,0,0,0,0,0,0,-1,1343,1233,0,0
126,-209,0,0,0,0,0,0,0,0,0,-1,1350,1233,0,0
133,-209,0,0,0,0,0,0,0,0,0,-1,1357,1233,0,0
140,-209,0,0,0,0,0,0,0,0,0,-1,1364,1233,0,0
147,-209,0,0,0,0,0,0,0,0,0,-1,1371,1233,0,0
154,-209,0,0,0,0,0,0,0,0,0,-1,1378,1233,0,0
161,-209,0,0,0,0,0,0,0,0,0,-1,1385,1233,0,0
168,-209,0,0,0,0,0,0,0,0,0,-1,1392,1233,0,0
175,-209,0,0,0,0,0,0,0,0,0,-1,1399,1233,0,0
182,-209,0,0,0,0,0,0,0,0,0,-1,1406,1233,0,0
189,-209,0,0,0,0,0,0,0,0,0,-1,1413,1233,0,0
196,-209,0,0,0,0,0,0,0,0,0,-1,1420,1233,0,0
203,-209,0,0,0,0,0,0,0,0,0,-1,1427,1233,0,0
210,-209,0,0,0,0,0,0,0,0,0,-1,1434,1233,0,0
217,-209,0,0,0,0,0,0,0,0,0,-1,1441,1233,0,0
224,-209,0,0,0,0,0,0,0,0,0,-1,1448,1233,0,0
231,-209,0,0,0,0,0,0,0,0,0,-1,1455,1233,0,0
238,-209,0,0,0,0,0,0,0,0,0,-1,1462,1233,0,0
245,-209,0,0,0,0,0,0,0,0,0,-1,1469,1233,0,0
252,-209,0,0,0,0,0,0,0,0,0,-1,1476,1233,0,0
259,-209,0,0,0,0,0,0,0,0,0,-1,1483,1233,0,0
266,-209,0,0,0,0,0,0,0,0,0,-1,1490,1233,0,0
273,-209,0,0,0,0,0,0,0,0,0,-1,1497,1233,0,0
280,-209,0,0,0,0,0,0,0,0,0,-1,1504,1233,0,0
287,-209,0,0,0,0,0,0,0,0,0,-1,1511,1233,0,0
294,-209,0,0,0,0,0,0,0,0,0,-1,1518,1233,0,0
301,-209,0,0,0,0,0,0,0,0,0,-1,1525,1233,0,0
308,-209,0,0,0,0,0,0,0,0,0,-1,1532,1233,0,0
315,-209,0,0,0,0,0,0,0,0,0,-1,1539,1233,0,0
322,-209,0,0,0,0,0,0,0,0,0,-1,1546,1233,0,0
329,-209,0,0,0,0,0,0,0,0,0,-1,1553,1233,0,0
336,-209,0,0,0,0,0,0,0,0,0,-1,1560,1233,0,0
343,-209,0,0,0,0,0,0,0,0,0,-1,1567,1233,0,0
350,-209,0,0,0,0,0,0,0,0,0,-1,1574,1233,0,0
357,-209,0,0,0,0,0,0,0,0,0,-1,1581,1233,0,0
364,-209,0,0,0,0,0,0,0,0,0,-1,1588,1233,0,0
371,-209,0,0,0,0,0,0,0,0,0,-1,1595,1233,0,0
378,-209,0,0,0,0,0,0,0,0,0,-1,1602,1233,0,0
385,-209,0,0,0,0,0,0,0,0,0,-1,1609,1233,0,0
392,-209,0,0,0,0,0,0,0,0,0,-1,1616,1233,0,0
399,-209,0,0,0,0,0,0,0,0,0,-1,1623,1233,0,0
406,-209,0,0,0,0,0,0,0,0,0,-1,1630,1233,0,0
413,-209,0,0,0,0,0,0,0,0,0,-1,1637,1233,0,0
420,-209,0,0,0,0,0,0,0,0,0,-1,1644,1233,0,0
427,-209,0,0,0,0,0,0,0,0,0,-1,1651,1233,0,0
434,-209,0,0,0,0,0,0,0,0,0,-1,1658,1233,0,0
441,-209,0,0,0,0,0,0,0,0,0,-1,1665,1233,0,0
448,-209,0,0,0,0,0,0,0,0,0,-1,1672,1233,0,0
455,-209,0,0,0,0,0,0,0,0,0,-1,1679,1233,0,0
462,-209,0,0,0,0,0,0,0,0,0,-1,1686,1233,0,0
469,-209,0,0,0,0,0,0,0,0,0,-1,1693,1233,0,0
476,-209,0,0,0,0,0,0,0,0,0,-1,1700,1233,0,0
483,-209,0,0,0,0,0,0,0,0,0,-1,1707,1233,0,0
490,-209,0,0,0,0,0,0,0,0,0,-1,1714,1233,0,0
497,-209,0,0,0,0,0,0,0,0,0,-1,1721,1233,0,0
504,-209,0,0,0,0,0,0,0,0,0,-1,1728,1233,0,0
511,-209,0,0,0,0,0,0,0,0,0,-1,1735,1233,0,0
518,-209,0,0,0,0,0,0,0,0,0,-1,1742,1233,0,0
525,-209,0,0,0,0,0,0,0,0,0,-1,1749,1233,0,0
532,-209,0,0,0,0,0,0,0,0,0,-1,1756,1233,0,0
539,-209,0,0,0,0,0,0,0,0,0,-1,1763,1233,0,0
546,-209,0,0,0,0,0,0,0,0,0,-1,1770,1233,0,0
553,-209,0,0,0,0,0,0,0,0,0,-1,1777,1233,0,0
560,-209,0,0,0,0,0,0,0,0,0,-1,1784,1233,0,0
567,-209,0,0,0,0,0,0,0,0,0,-1,1791,1233,0,0
574,-209,0,0,0,0,0,0,0,0,0,-1,1798,1233,0,0
581,-209,0,0,0,0,0,0,0,0,0,-1,1805,1233,0,0
588,-209,0,0,0,0,0,0,0,0,0,-1,1812,1233,0,0
595,-209,0,0,0,0,0,0,0,0,0,-1,1819,1233,0,0
602,-209,0,0,0,0,0,0,0,0,0,-1,1826,1233,0,0
609,-209,0,0,0,0,0,0,0,0,0,-1,1833,1233,0,0
616,-209,0,0,0,0,0,0,0,0,0,-1,1840,1233,0,0
623,-209,75.1143,2.04333,0.000823911,-0.0020314,0.000969068,0.00112174,-0.00232923,0.298172,0.00203267,0.0347867,1847,1233,75.1142,-2.04332
630,-209,75.1281,1.95166,0.000368059,-0.000265772,0.000205226,0.000428706,-0.000326418,0.287334,0.000437302,0.037316,1854,1233,75.128,-1.95167
637,-209,75.1462,2.08435,0.00010125,0.00150764,-0.000798689,0.00186858,-0.000259692,-1.14635,0.0013407,0.0369027,1861,1233,75.1463,-2.08429
644,-209,75.1332,2.13428,8.30193e-05,0.00312026,-0.00190035,0.00403424,-0.000830961,-1.1225,0.00300502,0.0306293,1868,1233,75.1332,-2.13426
651,-209,75.1198,2.09448,0.00021734,0.00397007,-0.00261518,0.00531239,-0.00112498,-1.09658,0.00397007,0.0254583,1875,1233,75.1197,-2.09446
658,-209,75.1165,2.08716,1.87808e-05,0.00342682,-0.00225598,0.00455001,-0.00110441,-1.10885,0.00346073,0.0220836,1882,1233,75.1165,-2.0872
665,-209,75.2357,1.99646,-0.000199259,0.0027113,-0.00168853,0.00348514,-0.000973098,-1.14107,0.00270674,0.0351452,1889,1233,75.2357,-1.99644
672,-209,75.4089,1.85718,0,0,0,0,0,0,0,-1,1896,1233,75.4089,-1.85723
679,-209,55.2465,2.78674,0,0,0,0,0,0,0,-1,1903,1233,55.2464,-2.78678
686,-209,33.3711,3.89856,0,0,0,0,0,0,0,-1,1910,1233,33.3711,-3.89855
693,-209,59.153,13.4,0,0,0,0,0,0,0,-1,1917,1233,59.1529,-13.4001
700,-209,59.1165,12.5673,0,0,0,0,0,0,0,-1,1924,1233,59.1164,-12.5672
707,-209,58.9977,11.8879,-6.43726e-05,0.00132773,-2.41514e-05,0.00132815,-6.47914e-05,-1.55345,0.000907804,0.0362102,1931,1233,58.9977,-11.8879
714,-209,58.9657,11.1982,-0.00037402,0.0012754,0.000177986,0.00129439,-0.000393008,1.46452,0.0010195,0.0257413,1938,1233,58.9657,-11.1983
721,-209,59.0291,10.418,-0.000373234,0.000958772,0.000685806,0.00124874,-0.000663207,1.17077,0.00112099,0.0142603,1945,1233,59.0291,-10.418
728,-209,59.0311,9.71069,-6.7549e-05,0.000618271,0.00122616,0.00154857,-0.000997845,0.921746,0.00148159,0.0140363,1952,1233,59.0311,-9.71074
735,-209,58.9973,9.00879,-0.000116052,0.000445066,0.00178902,0.00197539,-0.00164638,0.863176,0.00209391,0.0166439,1959,1233,58.9974,-9.0088
742,-209,58.9467,8.26074,-0.00034752,0.000190046,0.00247496,0.00241077,-0.00256825,0.839487,0.00287512,0.0165914,1966,1233,58.9467,-8.26076
749,-209,58.8828,7.53613,-0.000553794,-0.000225889,0.00332784,0.00294204,-0.00372172,0.810012,0.00385609,0.015692,1973,1233,58.8829,-7.53619
756,-209,58.8512,6.84705,-0.000740515,-0.0007734,0.0043915,0.00363457,-0.00514848,0.783526,0.00509595,0.0141574,1980,1233,58.8512,-6.84707
763,-209,58.8112,6.22986,-0.000995281,-0.00172098,0.00581994,0.0044731,-0.00718937,0.754265,0.00679393,0.0283708,1987,1233,58.8112,-6.22985
770,-209,58.9507,5.62537,0,0,0,0,0,0,0,-1,1994,1233,58.9506,-5.62542
777,-209,68.0347,-0.36377,0,0,0,0,0,0,0,-1,2001,1233,68.0346,0.363742
784,-209,67.6289,0.771729,0,0,0,0,0,0,0,-1,2008,1233,67.6289,-0.771742
791,-209,67.1841,1.90906,0,0,0,0,0,0,0,-1,2015,1233,67.1841,-1.90909
798,-209,53.6404,3.71179,0,0,0,0,0,0,0,-1,2022,1233,53.6404,-3.71185
805,-209,0,0,0,0,0,0,0,0,0,-1,2029,1233,0,0
812,-209,0,0,0,0,0,0,0,0,0,-1,2036,1233,0,0
-700,-216,0,0,0,0,0,0,0,0,0,-1,524,1240,0,0
-693,-216,0,0,0,0,0,0,0,0,0,-1,531,1240,0,0
-686,-216,0,0,0,0,0,0,0,0,0,-1,538,1240,0,0
-679,-216,-44.4113,2.96509,0,0,0,0,0,0,0,-1,545,1240,-44.4113,-2.96514
-672,-216,-46.0019,3.48901,-0.161741,0.0441207,0.0341016,0.0496227,-0.167243,1.41083,0.131202,0.0495338,552,1240,-46.0019,-3.48904
-665,-216,-47.6393,4.02075,-0.124356,0.0389573,0.0251153,0.0427324,-0.128131,1.4216,0.102673,0.0487254,559,1240,-47.6392,-4.02069
-658,-216,-49.2646,4.4613,0,0,0,0,0,0,0,-1,566,1240,-49.2646,-4.4613
-651,-216,-42.788,-8.0509,0,0,0,0,0,0,0,-1,573,1240,-42.788,8.05092
-644,-216,-45.6099,1.72839,0,0,0,0,0,0,0,-1,580,1240,-45.6099,-1.72843
-637,-216,-41.619,3.953,0,0,0,0,0,0,0,-1,587,1240,-41.619,-3.953
-630,-216,-41.6548,4.95459,-0.0205101,0.00972679,0.00523247,0.0106067,-0.0213899,1.4042,0.0188197,0.0483928,594,1240,-41.6548,-4.95456
-623,-216,-41.8324,5.86755,-0.0118495,0.00573776,0.00377369,0.00651328,-0.012625,1.36811,0.0112357,0.0243755,601,1240,-41.8324,-5.86759
-616,-216,-41.9203,6.53027,-0.0022116,0.00258812,0.0014145,0.00297396,-0.00259744,1.3045,0.0032191,0.0139719,608,1240,-41.9203,-6.53022
-609,-216,-41.9698,7.26648,0.00265847,0.00144182,-0.000838296,0.0030859,0.00101438,-0.471525,0.00181616,0.0129122,615,1240,-41.9698,-7.26651
-602,-216,-42.0064,8.0022,0.00181016,0.000913884,-0.00189583,0.00331009,-0.000586048,-0.669338,0.00242579,0.012686,622,1240,-42.0064,-8.00214
-595,-216,-42.0488,8.76318,0.00107349,0.000337314,-0.0028661,0.00359504,-0.00218423,-0.721533,0.00336964,0.0189069,629,1240,-42.0488,-8.76321
-588,-216,-42.0886,9.45618,0.000242341,0.000449804,-0.00353332,0.00388091,-0.00318877,-0.800073,0.0040882,0.0368495,636,1240,-42.0887,-9.45623
-581,-216,-41.6293,10.443,0,0,0,0,0,0,0,-1,643,1240,-41.6293,-10.4429
-574,-216,-41.8458,11.2098,0,0,0,0,0,0,0,-1,650,1240,-41.8458,-11.2098
-567,-216,-33.4159,9.56567,0,0,0,0,0,0,0,-1,657,1240,-33.4159,-9.56565
-560,-216,-16.5087,5.4574,0,0,0,0,0,0,0,-1,664,1240,-16.5087,-5.45746
-553,-216,-16.2355,1.22351,0,0,0,0,0,0,0,-1,671,1240,-16.2356,-1.22356
-546,-216,-37.1617,-0.25415,0,0,0,0,0,0,0,-1,678,1240,-37.1618,0.254161
-539,-216,-47.7817,1.47327,0,0,0,0,0,0,0,-1,685,1240,-47.7818,-1.4733
-532,-216,-58.4434,0.258667,0,0,0,0,0,0,0,-1,692,1240,-58.4433,-0.258614
-525,-216,-58.5693,0.384155,-0.00855992,0.000461821,-0.00350933,0.00166613,-0.00976424,-1.24021,0.00713006,0.0490154,699,1240,-58.5693,-0.384159
-518,-216,-58.7336,0.382324,-0.00933691,0.000143485,-0.00337847,0.00122424,-0.0104177,-1.26119,0.00738708,0.0416759,706,1240,-58.7336,-0.382366
-511,-216,-58.7864,0.32959,-0.00873515,0.00146844,-0.00349664,0.00255169,-0.0098184,-1.27038,0.00754146,0.0398907,713,1240,-58.7864,-0.329603
-504,-216,-58.7058,0.238037,-0.00518957,0.00287691,-0.00328541,0.00404568,-0.00635835,-1.22901,0.00605603,0.0386974,720,1240,-58.7058,-0.238039
-497,-216,0,0,0,0,0,0,0,0,0,-1,727,1240,0,0
-490,-216,0,0,0,0,0,0,0,0,0,-1,734,1240,0,0
-483,-216,0,0,0,0,0,0,0,0,0,-1,741,1240,0,0
-476,-216,0,0,0,0,0,0,0,0,0,-1,748,1240,0,0
-469,-216,0,0,0,0,0,0,0,0,0,-1,755,1240,0,0
-462,-216,0,0,0,0,0,0,0,0,0,-1,762,1240,0,0
-455,-216,0,0,0,0,0,0,0,0,0,-1,769,1240,0,0
-448,-216,0,0,0,0,0,0,0,0,0,-1,776,1240,0,0
-441,-216,0,0,0,0,0,0,0,0,0,-1,783,1240,0,0
-434,-216,0,0,0,0,0,0,0,0,0,-1,790,1240,0,0
-427,-216,0,0,0,0,0,0,0,0,0,-1,797,1240,0,0
-420,-216,0,0,0,0,0,0,0,0,0,-1,804,1240,0,0
-413,-216,0,0,0,0,0,0,0,0,0,-1,811,1240,0,0
-406,-216,0,0,0,0,0,0,0,0,0,-1,818,1240,0,0
-399,-216,0,0,0,0,0,0,0,0,0,-1,825,1240,0,0
-392,-216,0,0,0,0,0,0,0,0,0,-1,832,1240,0,0
-385,-216,0,0,0,0,0,0,0,0,0,-1,839,1240,0,0
-378,-216,0,0,0,0,0,0,0,0,0,-1,846,1240,0,0
-371,-216,0,0,0,0,0,0,0,0,0,-1,853,1240,0,0
-364,-216,0,0,0,0,0,0,0,0,0,-1,860,1240,0,0
-357,-216,0,0,0,0,0,0,0,0,0,-1,867,1240,0,0
-350,-216,0,0,0,0,0,0,0,0,0,-1,874,1240,0,0
-343,-216,0,0,0,0,0,0,0,0,0,-1,881,1240,0,0
-336,-216,0,0,0,0,0,0,0,0,0,-1,888,1240,0,0
-329,-216,0,0,0,0,0,0,0,0,0,-1,895,1240,0,0
-322,-216,0,0,0,0,0,0,0,0,0,-1,902,1240,0,0
-315,-216,0,0,0,0,0,0,0,0,0,-1,909,1240,0,0
-308,-216,0,0,0,0,0,0,0,0,0,-1,916,1240,0,0
-301,-216,0,0,0,0,0,0,0,0,0,-1,923,1240,0,0
-294,-216,0,0,0,0,0,0,0,0,0,-1,930,1240,0,0
-287,-216,0,0,0,0,0,0,0,0,0,-1,937,1240,0,0
-280,-216,0,0,0,0,0,0,0,0,0,-1,944,1240,0,0
-273,-216,0,0,0,0,0,0,0,0,0,-1,951,1240,0,0
-266,-216,0,0,0,0,0,0,0,0,0,-1,958,1240,0,0
-259,-216,0,0,0,0,0,0,0,0,0,-1,965,1240,0,0
-252,-216,0,0,0,0,0,0,0,0,0,-1,972,1240,0,0
-245,-216,0,0,0,0,0,0,0,0,0,-1,979,1240,0,0
-238,-216,0,0,0,0,0,0,0,0,0,-1,986,1240,0,0
-231,-216,0,0,0,0,0,0,0,0,0,-1,993,1240,0,0
-224,-216,0,0,0,0,0,0,0,0,0,-1,1000,1240,0,0
-217,-216,0,0,0,0,0,0,0,0,0,-1,1007,1240,0,0
-210,-216,0,0,0,0,0,0,0,0,0,-1,1014,1240,0,0
-203,-216,0,0,0,0,0,0,0,0,0,-1,1021,1240,0,0
-196,-216,0,0,0,0,0,0,0,0,0,-1,1028,1240,0,0
-189,-216,0,0,0,0,0,0,0,0,0,-1,1035,1240,0,0
-182,-216,0,0,0,0,0,0,0,0,0,-1,1042,1240,0,0
-175,-216,0,0,0,0,0,0,0,0,0,-1,1049,1240,0,0
-168,-216,0,0,0,0,0,0,0,0,0,-1,1056,1240,0,0
-161,-216,0,0,0,0,0,0,0,0,0,-1,1063,1240,0,0
-154,-216,0,0,0,0,0,0,0,0,0,-1,1070,1240,0,0
-147,-216,0,0,0,0,0,0,0,0,0,-1,1077,1240,0,0
-140,-216,0,0,0,0,0,0,0,0,0,-1,1084,1240,0,0
-133,-216,0,0,0,0,0,0,0,0,0,-1,1091,1240,0,0
-126,-216,0,0,0,0,0,0,0,0,0,-1,1098,1240,0,0
-119,-216,0,0,0,0,0,0,0,0,0,-1,1105,1240,0,0
-112,-216,0,0,0,0,0,0,0,0,0,-1,1112,1240,0,0
-105,-216,0,0,0,0,0,0,0,0,0,-1,1119,1240,0,0
-98,-216,0,0,0,0,0,0,0,0,0,-1,1126,1240,0,0
-91,-216,0,0,0,0,0,0,0,0,0,-1,1133,1240,0,0
-84,-216,0,0,0,0,0,0,0,0,0,-1,1140,1240,0,0
-77,-216,0,0,0,0,0,0,0,0,0,-1,1147,1240,0,0
-70,-216,0,0,0,0,0,0,0,0,0,-1,1154,1240,0,0
-63,-216,0,0,0,0,0,0,0,0,0,-1,1161,1240,0,0
-56,-216,0,0,0,0,0,0,0,0,0,-1,1168,1240,0,0
-49,-216,0,0,0,0,0,0,0,0,0,-1,1175,1240,0,0
-42,-216,0,0,0,0,0,0,0,0,0,-1,1182,1240,0,0
-35,-216,0,0,0,0,0,0,0,0,0,-1,1189,1240,0,0
-28,-216,0,0,0,0,0,0,0,0,0,-1,1196,1240,0,0
-21,-216,0,0,0,0,0,0,0,0,0,-1,1203,1240,0,0
-14,-216,0,0,0,0,0,0,0,0,0,-1,1210,1240,0,0
-7,-216,0,0,0,0,0,0,0,0,0,-1,1217,1240,0,0
0,-216,0,0,0,0,0,0,0,0,0,-1,1224,1240,0,0
7,-216,0,0,0,0,0,0,0,0,0,-1,1231,1240,0,0
14,-216,0,0,0,0,0,0,0,0,0,-1,1238,1240,0,0
21,-216,0,0,0,0,0,0,0,0,0,-1,1245,1240,0,0
28,-216,0,0,0,0,0,0,0,0,0,-1,1252,1240,0,0
35,-216,0,0,0,0,0,0,0,0,0,-1,1259,1240,0,0
42,-216,0,0,0,0,0,0,0,0,0,-1,1266,1240,0,0
49,-216,0,0,0,0,0,0,0,0,0,-1,1273,1240,0,0
56,-216,0,0,0,0,0,0,0,0,0,-1,1280,1240,0,0
63,-216,0,0,0,0,0,0,0,0,0,-1,1287,1240,0,0
70,-216,0,0,0,0,0,0,0,0,0,-1,1294,1240,0,0
77,-216,0,0,0,0,0,0,0,0,0,-1,1301,1240,0,0
84,-216,0,0,0,0,0,0,0,0,0,-1,1308,1240,0,0
91,-216,0,0,0,0,0,0,0,0,0,-1,1315,1240,0,0
98,-216,0,0,0,0,0,0,0,0,0,-1,1322,1240,0,0
105,-216,0,0,0,0,0,0,0,0,0,-1,1329,1240,0,0
112,-216,0,0,0,0,0,0,0,0,0,-1,1336,1240,0,0
119,-216,0,0,0,0,0,0,0,0,0,-1,1343,1240,0,0
126,-216,0,0,0,0,0,0,0,0,0,-1,1350,1240,0,0
133,-216,0,0,0,0,0,0,0,0,0,-1,1357,1240,0,0
140,-216,0,0,0,0,0,0,0,0,0,-1,1364,1240,0,0
147,-216,0,0,0,0,0,0,0,0,0,-1,1371,1240,0,0
154,-216,0,0,0,0,0,0,0,0,0,-1,1378,1240,0,0
161,-216,0,0,0,0,0,0,0,0,0,-1,1385,1240,0,0
168,-216,0,0,0,0,0,0,0,0,0,-1,1392,1240,0,0
175,-216,0,0,0,0,0,0,0,0,0,-1,1399,1240,0,0
182,-216,0,0,0,0,0,0,0,0,0,-1,1406,1240,0,0
189,-216,0,0,0,0,0,0,0,0,0,-1,1413,1240,0,0
196,-216,0,0,0,0,0,0,0,0,0,-1,1420,1240,0,0
203,-216,0,0,0,0,0,0,0,0,0,-1,1427,1240,0,0
210,-216,0,0,0,0,0,0,0,0,0,-1,1434,1240,0,0
217,-216,0,0,0,0,0,0,0,0,0,-1,1441,1240,0,0
224,-216,0,0,0,0,0,0,0,0,0,-1,1448,1240,0,0
231,-216,0,0,0,0,0,0,0,0,0,-1,1455,1240,0,0
238,-216,0,0,0,0,0,0,0,0,0,-1,1462,1240,0,0
245,-216,0,0,0,0,0,0,0,0,0,-1,1469,1240,0,0
252,-216,0,0,0,0,0,0,0,0,0,-1,1476,1240,0,0
259,-216,0,0,0,0,0,0,0,0,0,-1,1483,1240,0,0
266,-216,0,0,0,0,0,0,0,0,0,-1,1490,1240,0,0
273,-216,0,0,0,0,0,0,0,0,0,-1,1497,1240,0,0
280,-216,0,0,0,0,0,0,0,0,0,-1,1504,1240,0,0
287,-216,0,0,0,0,0,0,0,0,0,-1,1511,1240,0,0
294,-216,0,0,0,0,0,0,0,0,0,-1,1518,1240,0,0
301,-216,0,0,0,0,0,0,0,0,0,-1,1525,1240,0,0
308,-216,0,0,0,0,0,0,0,0,0,-1,1532,1240,0,0
315,-216,0,0,0,0,0,0,0,0,0,-1,1539,1240,0,0
322,-216,0,0,0,0,0,0,0,0,0,-1,1546,1240,0,0
329,-216,0,0,0,0,0,0,0,0,0,-1,1553,1240,0,0
336,-216,0,0,0,0,0,0,0,0,0,-1,1560,1240,0,0
343,-216,0,0,0,0,0,0,0,0,0,-1,1567,1240,0,0
350,-216,0,0,0,0,0,0,0,0,0,-1,1574,1240,0,0
357,-216,0,0,0,0,0,0,0,0,0,-1,1581,1240,0,0
364,-216,0,0,0,0,0,0,0,0,0,-1,1588,1240,0,0
371,-216,0,0,0,0,0,0,0,0,0,-1,1595,1240,0,0
378,-216,0,0,0,0,0,0,0,0,0,-1,1602,1240,0,0
385,-216,0,0,0,0,0,0,0,0,0,-1,1609,1240,0,0
392,-216,0,0,0,0,0,0,0,0,0,-1,1616,1240,0,0
399,-216,0,0,0,0,0,0,0,0,0,-1,1623,1240,0,0
406,-216,0,0,0,0,0,0,0,0,0,-1,1630,1240,0,0
413,-216,0,0,0,0,0,0,0,0,0,-1,1637,1240,0,0
420,-216,0,0,0,0,0,0,0,0,0,-1,1644,1240,0,0
427,-216,0,0,0,0,0,0,0,0,0,-1,1651,1240,0,0
434,-216,0,0,0,0,0,0,0,0,0,-1,1658,1240,0,0
441,-216,0,0,0,0,0,0,0,0,0,-1,1665,1240,0,0
448,-216,0,0,0,0,0,0,0,0,0,-1,1672,1240,0,0
455,-216,0,0,0,0,0,0,0,0,0,-1,1679,1240,0,0
462,-216,0,0,0,0,0,0,0,0,0,-1,1686,1240,0,0
469,-216,0,0,0,0,0,0,0,0,0,-1,1693,1240,0,0
476,-216,0,0,0,0,0,0,0,0,0,-1,1700,1240,0,0
483,-216,0,0,0,0,0,0,0,0,0,-1,1707,1240,0,0
490,-216,0,0,0,0,0,0,0,0,0,-1,1714,1240,0,0
497,-216,0,0,0,0,0,0,0,0,0,-1,1721,1240,0,0
504,-216,0,0,0,0,0,0,0,0,0,-1,1728,1240,0,0
511,-216,0,0,0,0,0,0,0,0,0,-1,1735,1240,0,0
518,-216,0,0,0,0,0,0,0,0,0,-1,1742,1240,0,0
525,-216,0,0,0,0,0,0,0,0,0,-1,1749,1240,0,0
532,-216,0,0,0,0,0,0,0,0,0,-1,1756,1240,0,0
539,-216,0,0,0,0,0,0,0,0,0,-1,1763,1240,0,0
546,-216,0,0,0,0,0,0,0,0,0,-1,1770,1240,0,0
553,-216,0,0,0,0,0,0,0,0,0,-1,1777,1240,0,0
560,-216,0,0,0,0,0,0,0,0,0,-1,1784,1240,0,0
567,-216,0,0,0,0,0,0,0,0,0,-1,1791,1240,0,0
574,-216,0,0,0,0,0,0,0,0,0,-1,1798,1240,0,0
581,-216,0,0,0,0,0,0,0,0,0,-1,1805,1240,0,0
588,-216,0,0,0,0,0,0,0,0,0,-1,1812,1240,0,0
595,-216,0,0,0,0,0,0,0,0,0,-1,1819,1240,0,0
602,-216,0,0,0,0,0,0,0,0,0,-1,1826,1240,0,0
609,-216,0,0,0,0,0,0,0,0,0,-1,1833,1240,0,0
616,-216,0,0,0,0,0,0,0,0,0,-1,1840,1240,0,0
623,-216,75.0751,2.07324,-9.04463e-05,-0.00092282,0.000526599,0.000164573,-0.00117784,0.45099,0.00084544,0.0382158,1847,1240,75.0751,-2.0733
630,-216,75.0889,2.03906,-0.000326178,0.00103878,-0.000419352,0.00115732,-0.00044472,-1.29531,0.000954954,0.0373278,1854,1240,75.0889,-2.03909
637,-216,75.1073,2.14282,-0.000377562,0.00297552,-0.00153441,0.00357169,-0.000973731,-1.20021,0.00276349,0.0339941,1861,1240,75.1073,-2.14287
644,-216,75.0782,2.17847,-0.000155047,0.00438502,-0.00256883,0.00554309,-0.00131312,-1.14726,0.00420206,0.0275126,1868,1240,75.0783,-2.17844
651,-216,75.0641,2.08435,8.90328e-05,0.00464648,-0.00292059,0.00607213,-0.00133663,-1.11668,0.00455941,0.0227021,1875,1240,75.0641,-2.08432
658,-216,75.1486,2.09265,-9.57395e-05,0.00363736,-0.00227744,0.00471542,-0.0011738,-1.12868,0.00359926,0.0311408,1882,1240,75.1486,-2.09268
665,-216,75.328,2.04688,0,0,0,0,0,0,0,-1,1889,1240,75.3281,-2.04687
672,-216,68.6339,1.33826,0,0,0,0,0,0,0,-1,1896,1240,68.6339,-1.33828
679,-216,47.3159,3.82703,0,0,0,0,0,0,0,-1,1903,1240,47.316,-3.82708
686,-216,21.5172,6.19458,0,0,0,0,0,0,0,-1,1910,1240,21.5172,-6.19453
693,-216,56.1224,12.7039,0,0,0,0,0,0,0,-1,1917,1240,56.1224,-12.7038
700,-216,58.3037,12.4978,0,0,0,0,0,0,0,-1,1924,1240,58.3037,-12.4978
707,-216,58.4337,11.7294,0,0,0,0,0,0,0,-1,1931,1240,58.4337,-11.7294
714,-216,58.3584,11.1331,-0.000603053,0.000789837,0.000573981,0.000995883,-0.0008091,1.22615,0.00104397,0.026358,1938,1240,58.3584,-11.1331
721,-216,58.3185,10.4924,-0.000650773,0.000442956,0.00113016,0.00115161,-0.00135943,1.01073,0.00145141,0.0148086,1945,1240,58.3185,-10.4924
728,-216,58.3319,9.77002,-0.00052232,0.000170323,0.00165988,0.00151963,-0.00187162,0.888244,0.00196145,0.0143936,1952,1240,58.3319,-9.77008
735,-216,58.3243,9.0448,-0.000686714,4.6287e-05,0.00224065,0.00195022,-0.00259064,0.866465,0.00263034,0.0157858,1959,1240,58.3243,-9.04486
742,-216,58.2172,8.3136,-0.000983962,-0.000185579,0.00300423,0.00244586,-0.0036154,0.85145,0.00352112,0.0172037,1966,1240,58.2171,-8.31365
749,-216,58.1637,7.56592,-0.00128007,-0.000604911,0.00399375,0.0030655,-0.00495049,0.827561,0.00467049,0.0133732,1973,1240,58.1637,-7.56589
756,-216,58.1215,6.85303,-0.00158595,-0.00122132,0.0052756,0.00387512,-0.00668238,0.802671,0.00616679,0.0125461,1980,1240,58.1215,-6.85309
763,-216,58.0889,6.22437,-0.00210375,-0.00239523,0.00717407,0.00492606,-0.00942504,0.775242,0.00842024,0.0235248,1987,1240,58.0888,-6.22441
770,-216,58.2324,5.7467,0,0,0,0,0,0,0,-1,1994,1240,58.2325,-5.74674
777,-216,58.48,5.27368,0,0,0,0,0,0,0,-1,2001,1240,58.4799,-5.27363
784,-216,68.2205,0.660034,0,0,0,0,0,0,0,-1,2008,1240,68.2204,-0.660033
791,-216,67.71,1.8468,0,0,0,0,0,0,0,-1,2015,1240,67.7099,-1.84686
798,-216,0,0,0,0,0,0,0,0,0,-1,2022,1240,0,0
805,-216,0,0,0,0,0,0,0,0,0,-1,2029,1240,0,0
812,-216,0,0,0,0,0,0,0,0,0,-1,2036,1240,0,0
-700,-223,0,0,0,0,0,0,0,0,0,-1,524,1247,0,0
-693,-223,0,0,0,0,0,0,0,0,0,-1,531,1247,0,0
-686,-223,0,0,0,0,0,0,0,0,0,-1,538,1247,0,0
-679,-223,0,0,0,0,0,0,0,0,0,-1,545,1247,0,0
-672,-223,-46.3007,3.27185,0,0,0,0,0,0,0,-1,552,1247,-46.3007,-3.27184
-665,-223,-47.9709,3.83252,0,0,0,0,0,0,0,-1,559,1247,-47.9709,-3.83247
-658,-223,-39.6435,-8.36633,0,0,0,0,0,0,0,-1,566,1247,-39.6435,8.36633
-651,-223,-40.2339,-7.32275,0,0,0,0,0,0,0,-1,573,1247,-40.234,7.32277
-644,-223,-45.9081,3.8446,0,0,0,0,0,0,0,-1,580,1247,-45.9081,-3.84463
-637,-223,-49.2922,0.294189,0,0,0,0,0,0,0,-1,587,1247,-49.2922,-0.294245
-630,-223,-40.9402,5.02002,0,0,0,0,0,0,0,-1,594,1247,-40.9402,-5.02003
-623,-223,-41.241,5.9762,-0.0130903,0.00604914,0.00453182,0.00706794,-0.0141091,1.34966,0.0124498,0.0429691,601,1247,-41.241,-5.97622
-616,-223,-41.1852,6.54431,-0.00243949,0.00291748,0.00185587,0.0034976,-0.00301962,1.26783,0.00376609,0.0167181,608,1247,-41.1853,-6.54437
-609,-223,-41.2117,7.31213,0.00290838,0.00175707,-0.000487503,0.00308707,0.00157838,-0.351338,0.00178247,0.0119198,615,1247,-41.2117,-7.31213
-602,-223,-41.2531,8.0437,0.00196141,0.00124371,-0.00147395,0.00311957,8.55566e-05,-0.66599,0.00205179,0.0144756,622,1247,-41.2531,-8.04373
-595,-223,-41.2618,8.8092,0.00121775,0.000663118,-0.00250795,0.00346367,-0.0015828,-0.730334,0.00298027,0.0207957,629,1247,-41.2618,-8.80923
-588,-223,-41.2454,9.60364,0.000480801,0.000520345,-0.00342024,0.00392087,-0.00291972,-0.788289,0.00396349,0.0345844,636,1247,-41.2454,-9.60361
-581,-223,-41.2493,10.3242,0,0,0,0,0,0,0,-1,643,1247,-41.2493,-10.3242
-574,-223,-41.6372,11.1094,0,0,0,0,0,0,0,-1,650,1247,-41.6372,-11.1093
-567,-223,-42.4053,11.7667,0,0,0,0,0,0,0,-1,657,1247,-42.4054,-11.7667
-560,-223,-31.8748,9.50732,0,0,0,0,0,0,0,-1,664,1247,-31.8748,-9.50735
-553,-223,-11.4025,4.14722,0,0,0,0,0,0,0,-1,671,1247,-11.4025,-4.14719
-546,-223,-26.9034,-0.148682,0,0,0,0,0,0,0,-1,678,1247,-26.9034,0.14867
-539,-223,-36.7405,0.35376,0,0,0,0,0,0,0,-1,685,1247,-36.7405,-0.353807
-532,-223,-47.6184,1.39844,0,0,0,0,0,0,0,-1,692,1247,-47.6184,-1.3984
-525,-223,-58.4894,0.408447,0,0,0,0,0,0,0,-1,699,1247,-58.4894,-0.408439
-518,-223,-58.6414,0.282959,0,0,0,0,0,0,0,-1,706,1247,-58.6414,-0.282927
-511,-223,-58.6152,0.127075,-0.0105043,-0.0013411,-0.00396435,0.000135936,-0.0119814,-1.21415,0.00803326,0.0379608,713,1247,-58.6152,-0.127072
-504,-223,-58.7078,0.0635986,-0.00916607,0.000466908,-0.00354475,0.0016307,-0.0103299,-1.25357,0.00748955,0.0389687,720,1247,-58.7077,-0.0635483
-497,-223,0,0,0,0,0,0,0,0,0,-1,727,1247,0,0
-490,-223,0,0,0,0,0,0,0,0,0,-1,734,1247,0,0
-483,-223,0,0,0,0,0,0,0,0,0,-1,741,1247,0,0
-476,-223,0,0,0,0,0,0,0,0,0,-1,748,1247,0,0
-469,-223,0,0,0,0,0,0,0,0,0,-1,755,1247,0,0
-462,-223,0,0,0,0,0,0,0,0,0,-1,762,1247,0,0
-455,-223,0,0,0,0,0,0,0,0,0,-1,769,1247,0,0
-448,-223,0,0,0,0,0,0,0,0,0,-1,776,1247,0,0
-441,-223,0,0,0,0,0,0,0,0,0,-1,783,1247,0,0
-434,-223,0,0,0,0,0,0,0,0,0,-1,790,1247,0,0
-427,-223,0,0,0,0,0,0,0,0,0,-1,797,1247,0,0
-420,-223,0,0,0,0,0,0,0,0,0,-1,804,1247,0,0
-413,-223,0,0,0,0,0,0,0,0,0,-1,811,1247,0,0
-406,-223,0,0,0,0,0,0,0,0,0,-1,818,1247,0,0
-399,-223,0,0,0,0,0,0,0,0,0,-1,825,1247,0,0
-392,-223,0,0,0,0,0,0,0,0,0,-1,832,1247,0,0
-385,-223,0,0,0,0,0,0,0,0,0,-1,839,1247,0,0
-378,-223,0,0,0,0,0,0,0,0,0,-1,846,1247,0,0
-371,-223,0,0,0,0,0,0,0,0,0,-1,853,1247,0,0
-364,-223,0,0,0,0,0,0,0,0,0,-1,860,1247,0,0
-357,-223,0,0,0,0,0,0,0,0,0,-1,867,1247,0,0
-350,-223,0,0,0,0,0,0,0,0,0,-1,874,1247,0,0
-343,-223,0,0,0,0,0,0,0,0,0,-1,881,1247,0,0
-336,-223,0,0,0,0,0,0,0,0,0,-1,888,1247,0,0
-329,-223,0,0,0,0,0,0,0,0,0,-1,895,1247,0,0
-322,-223,0,0,0,0,0,0,0,0,0,-1,902,1247,0,0
-315,-223,0,0,0,0,0,0,0,0,0,-1,909,1247,0,0
-308,-223,0,0,0,0,0,0,0,0,0,-1,916,1247,0,0
-301,-223,0,0,0,0,0,0,0,0,0,-1,923,1247,0,0
-294,-223,0,0,0,0,0,0,0,0,0,-1,930,1247,0,0
-287,-223,0,0,0,0,0,0,0,0,0,-1,937,1247,0,0
-280,-223,0,0,0,0,0,0,0,0,0,-1,944,1247,0,0
-273,-223,0,0,0,0,0,0,0,0,0,-1,951,1247,0,0
-266,-223,0,0,0,0,0,0,0,0,0,-1,958,1247,0,0
-259,-223,0,0,0,0,0,0,0,0,0,-1,965,1247,0,0
-252,-223,0,0,0,0,0,0,0,0,0,-1,972,1247,0,0
-245,-223,0,0,0,0,0,0,0,0,0,-1,979,1247,0,0
-238,-223,0,0,0,0,0,0,0,0,0,-1,986,1247,0,0
-231,-223,0,0,0,0,0,0,0,0,0,-1,993,1247,0,0
-224,-223,0,0,0,0,0,0,0,0,0,-1,1000,1247,0,0
-217,-223,0,0,0,0,0,0,0,0,0,-1,1007,1247,0,0
-210,-223,0,0,0,0,0,0,0,0,0,-1,1014,1247,0,0
-203,-223,0,0,0,0,0,0,0,0,0,-1,1021,1247,0,0
-196,-223,0,0,0,0,0,0,0,0,0,-1,1028,1247,0,0
-189,-223,0,0,0,0,0,0,0,0,0,-1,1035,1247,0,0
-182,-223,0,0,0,0,0,0,0,0,0,-1,1042,1247,0,0
-175,-223,0,0,0,0,0,0,0,0,0,-1,1049,1247,0,0
-168,-223,0,0,0,0,0,0,0,0,0,-1,1056,1247,0,0
-161,-223,0,0,0,0,0,0,0,0,0,-1,1063,1247,0,0
-154,-223,0,0,0,0,0,0,0,0,0,-1,1070,1247,0,0
-147,-223,0,0,0,0,0,0,0,0,0,-1,1077,1247,0,0
-140,-223,0,0,0,0,0,0,0,0,0,-1,1084,1247,0,0
-133,-223,0,0,0,0,0,0,0,0,0,-1,1091,1247,0,0
-126,-223,0,0,0,0,0,0,0,0,0,-1,1098,1247,0,0
-119,-223,0,0,0,0,0,0,0,0,0,-1,1105,1247,0,0
-112,-223,0,0,0,0,0,0,0,0,0,-1,1112,1247,0,0
-105,-223,0,0,0,0,0,0,0,0,0,-1,1119,1247,0,0
-98,-223,0,0,0,0,0,0,0,0,0,-1,1126,1247,0,0
-91,-223,0,0,0,0,0,0,0,0,0,-1,1133,1247,0,0
-84,-223,0,0,0,0,0,0,0,0,0,-1,1140,1247,0,0
-77,-223,0,0,0,0,0,0,0,0,0,-1,1147,1247,0,0
-70,-223,0,0,0,0,0,0,0,0,0,-1,1154,1247,0,0
-63,-223,0,0,0,0,0,0,0,0,0,-1,1161,1247,0,0
-56,-223,0,0,0,0,0,0,0,0,0,-1,1168,1247,0,0
-49,-223,0,0,0,0,0,0,0,0,0,-1,1175,1247,0,0
-42,-223,0,0,0,0,0,0,0,0,0,-1,1182,1247,0,0
-35,-223,0,0,0,0,0,0,0,0,0,-1,1189,1247,0,0
-28,-223,0,0,0,0,0,0,0,0,0,-1,1196,1247,0,0
-21,-223,0,0,0,0,0,0,0,0,0,-1,1203,1247,0,0
-14,-223,0,0,0,0,0,0,0,0,0,-1,1210,1247,0,0
-7,-223,0,0,0,0,0,0,0,0,0,-1,1217,1247,0,0
0,-223,0,0,0,0,0,0,0,0,0,-1,1224,1247,0,0
7,-223,0,0,0,0,0,0,0,0,0,-1,1231,1247,0,0
14,-223,0,0,0,0,0,0,0,0,0,-1,1238,1247,0,0
21,-223,0,0,0,0,0,0,0,0,0,-1,1245,1247,0,0
28,-223,0,0,0,0,0,0,0,0,0,-1,1252,1247,0,0
35,-223,0,0,0,0,0,0,0,0,0,-1,1259,1247,0,0
42,-223,0,0,0,0,0,0,0,0,0,-1,1266,1247,0,0
49,-223,0,0,0,0,0,0,0,0,0,-1,1273,1247,0,0
56,-223,0,0,0,0,0,0,0,0,0,-1,1280,1247,0,0
63,-223,0,0,0,0,0,0,0,0,0,-1,1287,1247,0,0
70,-223,0,0,0,0,0,0,0,0,0,-1,1294,1247,0,0
77,-223,0,0,0,0,0,0,0,0,0,-1,1301,1247,0,0
84,-223,0,0,0,0,0,0,0,0,0,-1,1308,1247,0,0
91,-223,0,0,0,0,0,0,0,0,0,-1,1315,1247,0,0
98,-223,0,0,0,0,0,0,0,0,0,-1,1322,1247,0,0
105,-223,0,0,0,0,0,0,0,0,0,-1,1329,1247,0,0
112,-223,0,0,0,0,0,0,0,0,0,-1,1336,1247,0,0
119,-223,0,0,0,0,0,0,0,0,0,-1,1343,1247,0,0
126,-223,0,0,0,0,0,0,0,0,0,-1,1350,1247,0,0
133,-223,0,0,0,0,0,0,0,0,0,-1,1357,1247,0,0
140,-223,0,0,0,0,0,0,0,0,0,-1,1364,1247,0,0
147,-223,0,0,0,0,0,0,0,0,0,-1,1371,1247,0,0
154,-223,0,0,0,0,0,0,0,0,0,-1,1378,1247,0,0
161,-223,0,0,0,0,0,0,0,0,0,-1,1385,1247,0,0
168,-223,0,0,0,0,0,0,0,0,0,-1,1392,1247,0,0
175,-223,0,0,0,0,0,0,0,0,0,-1,1399,1247,0,0
182,-223,0,0,0,0,0,0,0,0,0,-1,1406,1247,0,0
189,-223,0,0,0,0,0,0,0,0,0,-1,1413,1247,0,0
196,-223,0,0,0,0,0,0,0,0,0,-1,1420,1247,0,0
203,-223,0,0,0,0,0,0,0,0,0,-1,1427,1247,0,0
210,-223,0,0,0,0,0,0,0,0,0,-1,1434,1247,0,0
217,-223,0,0,0,0,0,0,0,0,0,-1,1441,1247,0,0
224,-223,0,0,0,0,0,0,0,0,0,-1,1448,1247,0,0
231,-223,0,0,0,0,0,0,0,0,0,-1,1455,1247,0,0
238,-223,0,0,0,0,0,0,0,0,0,-1,1462,1247,0,0
245,-223,0,0,0,0,0,0,0,0,0,-1,1469,1247,0,0
252,-223,0,0,0,0,0,0,0,0,0,-1,1476,1247,0,0
259,-223,0,0,0,0,0,0,0,0,0,-1,1483,1247,0,0
266,-223,0,0,0,0,0,0,0,0,0,-1,1490,1247,0,0
273,-223,0,0,0,0,0,0,0,0,0,-1,1497,1247,0,0
280,-223,0,0,0,0,0,0,0,0,0,-1,1504,1247,0,0
287,-223,0,0,0,0,0,0,0,0,0,-1,1511,1247,0,0
294,-223,0,0,0,0,0,0,0,0,0,-1,1518,1247,0,0
301,-223,0,0,0,0,0,0,0,0,0,-1,1525,1247,0,0
308,-223,0,0,0,0,0,0,0,0,0,-1,1532,1247,0,0
315,-223,0,0,0,0,0,0,0,0,0,-1,1539,1247,0,0
322,-223,0,0,0,0,0,0,0,0,0,-1,1546,1247,0,0
329,-223,0,0,0,0,0,0,0,0,0,-1,1553,1247,0,0
336,-223,0,0,0,0,0,0,0,0,0,-1,1560,1247,0,0
343,-223,0,0,0,0,0,0,0,0,0,-1,1567,1247,0,0
350,-223,0,0,0,0,0,0,0,0,0,-1,1574,1247,0,0
357,-223,0,0,0,0,0,0,0,0,0,-1,1581,1247,0,0
364,-223,0,0,0,0,0,0,0,0,0,-1,1588,1247,0,0
371,-223,0,0,0,0,0,0,0,0,0,-1,1595,1247,0,0
378,-223,0,0,0,0,0,0,0,0,0,-1,1602,1247,0,0
385,-223,0,0,0,0,0,0,0,0,0,-1,1609,1247,0,0
392,-223,0,0,0,0,0,0,0,0,0,-1,1616,1247,0,0
399,-223,0,0,0,0,0,0,0,0,0,-1,1623,1247,0,0
406,-223,0,0,0,0,0,0,0,0,0,-1,1630,1247,0,0
413,-223,0,0,0,0,0,0,0,0,0,-1,1637,1247,0,0
420,-223,0,0,0,0,0,0,0,0,0,-1,1644,1247,0,0
427,-223,0,0,0,0,0,0,0,0,0,-1,1651,1247,0,0
434,-223,0,0,0,0,0,0,0,0,0,-1,1658,1247,0,0
441,-223,0,0,0,0,0,0,0,0,0,-1,1665,1247,0,0
448,-223,0,0,0,0,0,0,0,0,0,-1,1672,1247,0,0
455,-223,0,0,0,0,0,0,0,0,0,-1,1679,1247,0,0
462,-223,0,0,0,0,0,0,0,0,0,-1,1686,1247,0,0
469,-223,0,0,0,0,0,0,0,0,0,-1,1693,1247,0,0
476,-223,0,0,0,0,0,0,0,0,0,-1,1700,1247,0,0
483,-223,0,0,0,0,0,0,0,0,0,-1,1707,1247,0,0
490,-223,0,0,0,0,0,0,0,0,0,-1,1714,1247,0,0
497,-223,0,0,0,0,0,0,0,0,0,-1,1721,1247,0,0
504,-223,0,0,0,0,0,0,0,0,0,-1,1728,1247,0,0
511,-223,0,0,0,0,0,0,0,0,0,-1,1735,1247,0,0
518,-223,0,0,0,0,0,0,0,0,0,-1,1742,1247,0,0
525,-223,0,0,0,0,0,0,0,0,0,-1,1749,1247,0,0
532,-223,0,0,0,0,0,0,0,0,0,-1,1756,1247,0,0
539,-223,0,0,0,0,0,0,0,0,0,-1,1763,1247,0,0
546,-223,0,0,0,0,0,0,0,0,0,-1,1770,1247,0,0
553,-223,0,0,0,0,0,0,0,0,0,-1,1777,1247,0,0
560,-223,0,0,0,0,0,0,0,0,0,-1,1784,1247,0,0
567,-223,0,0,0,0,0,0,0,0,0,-1,1791,1247,0,0
574,-223,0,0,0,0,0,0,0,0,0,-1,1798,1247,0,0
581,-223,0,0,0,0,0,0,0,0,0,-1,1805,1247,0,0
588,-223,0,0,0,0,0,0,0,0,0,-1,1812,1247,0,0
595,-223,0,0,0,0,0,0,0,0,0,-1,1819,1247,0,0
602,-223,0,0,0,0,0,0,0,0,0,-1,1826,1247,0,0
609,-223,0,0,0,0,0,0,0,0,0,-1,1833,1247,0,0
616,-223,0,0,0,0,0,0,0,0,0,-1,1840,1247,0,0
623,-223,75.0787,2.14014,-0.000490899,0.000408645,-0.000136712,0.000428963,-0.000511217,-1.42325,0.000543505,0.0380853,1847,1247,75.0788,-2.14009
630,-223,75.0696,2.09045,-0.000684359,0.00253508,-0.00126354,0.00297176,-0.00112103,-1.23805,0.00244217,0.0364525,1854,1247,75.0695,-2.09048
637,-223,75.0803,2.09241,-0.000699741,0.00461954,-0.00250339,0.00561238,-0.00169258,-1.19322,0.00441528,0.0310682,1861,1247,75.0803,-2.09241
644,-223,75.0773,2.10107,-0.000365117,0.00554463,-0.00331579,0.00703112,-0.00185161,-1.14935,0.00541126,0.0236263,1868,1247,75.0772,-2.10107
651,-223,75.0792,1.98535,-0.00010257,0.00510782,-0.00319953,0.00662864,-0.00162339,-1.12708,0.005048,0.0298282,1875,1247,75.0792,-1.98534
658,-223,75.0922,1.92212,0,0,0,0,0,0,0,-1,1882,1247,75.0922,-1.92207
665,-223,68.7177,1.6427,0,0,0,0,0,0,0,-1,1889,1247,68.7176,-1.64275
672,-223,56.4625,2.72424,0,0,0,0,0,0,0,-1,1896,1247,56.4626,-2.72418
679,-223,43.2783,2.46973,0,0,0,0,0,0,0,-1,1903,1247,43.2784,-2.46978
686,-223,40.7926,10.0316,0,0,0,0,0,0,0,-1,1910,1247,40.7926,-10.0316
693,-223,55.5261,12.8093,0,0,0,0,0,0,0,-1,1917,1247,55.5261,-12.8093
700,-223,55.0945,12.2452,0,0,0,0,0,0,0,-1,1924,1247,55.0944,-12.2452
707,-223,57.5873,11.8665,0,0,0,0,0,0,0,-1,1931,1247,57.5873,-11.8665
714,-223,57.682,11.1802,-0.00074352,0.000247073,0.000956491,0.000828899,-0.00132535,1.0243,0.00125471,0.0228619,1938,1247,57.682,-11.1802
721,-223,57.6088,10.5212,-0.000908113,-2.70977e-05,0.00153607,0.00113038,-0.00206559,0.925039,0.00187134,0.0167021,1945,1247,57.6087,-10.5212
728,-223,57.5869,9.79993,-0.0010368,-0.000176327,0.00207703,0.00151455,-0.00272769,0.887525,0.00248241,0.0202555,1952,1247,57.587,-9.79988
735,-223,57.5277,9.09595,-0.00138203,-0.000277108,0.0027156,0.00194166,-0.0036008,0.885748,0.00324738,0.0189177,1959,1247,57.5277,-9.09595
742,-223,57.4277,8.40222,-0.00182955,-0.000536335,0.00358474,0.00245965,-0.00482553,0.874628,0.00427939,0.0172295,1966,1247,57.4278,-8.40226
749,-223,57.4066,7.60132,-0.00229242,-0.000998858,0.00472163,0.00312008,-0.00641136,0.853466,0.00561127,0.0136853,1973,1247,57.4066,-7.60134
756,-223,57.3568,6.85901,-0.00279683,-0.00172017,0.0062385,0.00400319,-0.00852018,0.828437,0.00738548,0.0157504,1980,1247,57.3568,-6.85903
763,-223,57.3379,6.25452,-0.00364471,-0.0031563,0.00860527,0.00520823,-0.0120092,0.799584,0.0101957,0.0217909,1987,1247,57.3379,-6.2545
770,-223,57.5144,5.86804,0,0,0,0,0,0,0,-1,1994,1247,57.5145,-5.86805
777,-223,53.7227,4.88562,0,0,0,0,0,0,0,-1,2001,1247,53.7227,-4.8856
784,-223,68.8677,0.507813,0,0,0,0,0,0,0,-1,2008,1247,68.8676,-0.507816
791,-223,34.7136,2.92554,0,0,0,0,0,0,0,-1,2015,1247,34.7137,-2.92555
798,-223,0,0,0,0,0,0,0,0,0,-1,2022,1247,0,0
805,-223,0,0,0,0,0,0,0,0,0,-1,2029,1247,0,0
812,-223,0,0,0,0,0,0,0,0,0,-1,2036,1247,0,0
-700,-230,0,0,0,0,0,0,0,0,0,-1,524,1254,0,0
-693,-230,0,0,0,0,0,0,0,0,0,-1,531,1254,0,0
-686,-230,0,0,0,0,0,0,0,0,0,-1,538,1254,0,0
-679,-230,0,0,0,0,0,0,0,0,0,-1,545,1254,0,0
-672,-230,-38.5905,2.07617,0,0,0,0,0,0,0,-1,552,1254,-38.5905,-2.07614
-665,-230,-38.168,-9.9397,0,0,0,0,0,0,0,-1,559,1254,-38.168,9.93971
-658,-230,-38.8468,-8.48303,0,0,0,0,0,0,0,-1,566,1254,-38.8468,8.48304
-651,-230,-39.3627,-7.38525,0,0,0,0,0,0,0,-1,573,1254,-39.3627,7.38529
-644,-230,-48.2715,0.872925,0,0,0,0,0,0,0,-1,580,1254,-48.2715,-0.87288
-637,-230,-49.1636,-0.158325,0,0,0,0,0,0,0,-1,587,1254,-49.1636,0.158288
-630,-230,-40.9934,4.76147,0,0,0,0,0,0,0,-1,594,1254,-40.9934,-4.76149
-623,-230,-40.5956,5.79688,-0.0137795,0.00640099,0.00521355,0.00766831,-0.0150468,1.33234,0.0133432,0.047031,601,1254,-40.5956,-5.79691
-616,-230,-40.3768,6.55286,-0.0024443,0.00334858,0.00226807,0.00413093,-0.00322665,1.23864,0.00425858,0.0182594,608,1254,-40.3768,-6.55288
-609,-230,-40.4068,7.349,0.00304655,0.0021927,-9.70402e-05,0.00305744,0.00218181,-0.111752,0.00181812,0.0124721,615,1254,-40.4068,-7.34898
-602,-230,-40.4617,8.11145,0.00201204,0.00162775,-0.00101601,0.00285392,0.000785875,-0.691941,0.00170224,0.0131474,622,1254,-40.4616,-8.1114
-595,-230,-40.5192,8.88635,0.00120267,0.0010004,-0.00202557,0.00312962,-0.000926555,-0.760454,0.00245428,0.0213247,629,1254,-40.5191,-8.88631
-588,-230,-40.5822,9.75024,0.000467834,0.000589212,-0.00303147,0.0035606,-0.00250356,-0.795407,0.00351883,0.029577,636,1254,-40.5822,-9.75027
-581,-230,-40.7035,10.7809,-8.92204e-05,0.000375335,-0.00391212,0.00406206,-0.00377595,-0.81505,0.00452628,0.0419713,643,1254,-40.7035,-10.7808
-574,-230,-40.6185,11.3877,-0.00108691,7.05094e-05,-0.0040118,0.00354513,-0.00456153,-0.85703,0.00469263,0.0424393,650,1254,-40.6185,-11.3877
-567,-230,-40.7749,11.8311,0,0,0,0,0,0,0,-1,657,1254,-40.7749,-11.8311
-560,-230,-41.2172,12.1694,0,0,0,0,0,0,0,-1,664,1254,-41.2172,-12.1695
-553,-230,-13.1939,4.9718,0,0,0,0,0,0,0,-1,671,1254,-13.1939,-4.97175
-546,-230,-15.23,0.453979,0,0,0,0,0,0,0,-1,678,1254,-15.23,-0.453996
-539,-230,-25.8232,0.512817,0,0,0,0,0,0,0,-1,685,1254,-25.8232,-0.512878
-532,-230,-21.1644,1.52966,0,0,0,0,0,0,0,-1,692,1254,-21.1644,-1.52969
-525,-230,-29.4775,0.731445,0,0,0,0,0,0,0,-1,699,1254,-29.4775,-0.731432
-518,-230,-58.4527,0.306763,0,0,0,0,0,0,0,-1,706,1254,-58.4527,-0.306713
-511,-230,-58.5638,0.119385,-0.0112865,-0.00378998,-0.00454332,-0.00164833,-0.0134282,-1.1303,0.00845641,0.0420773,713,1254,-58.5638,-0.119355
-504,-230,-58.7014,-0.0012207,-0.011585,-0.0031153,-0.00455322,-0.00113197,-0.0135683,-1.15999,0.00869283,0.0395491,720,1254,-58.7014,0.00119704
-497,-230,0,0,0,0,0,0,0,0,0,-1,727,1254,0,0
-490,-230,0,0,0,0,0,0,0,0,0,-1,734,1254,0,0
-483,-230,0,0,0,0,0,0,0,0,0,-1,741,1254,0,0
-476,-230,0,0,0,0,0,0,0,0,0,-1,748,1254,0,0
-469,-230,0,0,0,0,0,0,0,0,0,-1,755,1254,0,0
-462,-230,0,0,0,0,0,0,0,0,0,-1,762,1254,0,0
-455,-230,0,0,0,0,0,0,0,0,0,-1,769,1254,0,0
-448,-230,0,0,0,0,0,0,0,0,0,-1,776,1254,0,0
-441,-230,0,0,0,0,0,0,0,0,0,-1,783,1254,0,0
-434,-230,0,0,0,0,0,0,0,0,0,-1,790,1254,0,0
-427,-230,0,0,0,0,0,0,0,0,0,-1,797,1254,0,0
-420,-230,0,0,0,0,0,0,0,0,0,-1,804,1254,0,0
-413,-230,0,0,0,0,0,0,0,0,0,-1,811,1254,0,0
-406,-230,0,0,0,0,0,0,0,0,0,-1,818,1254,0,0
-399,-230,0,0,0,0,0,0,0,0,0,-1,825,1254,0,0
-392,-230,0,0,0,0,0,0,0,0,0,-1,832,1254,0,0
-385,-230,0,0,0,0,0,0,0,0,0,-1,839,1254,0,0
-378,-230,0,0,0,0,0,0,0,0,0,-1,846,1254,0,0
-371,-230,0,0,0,0,0,0,0,0,0,-1,853,1254,0,0
-364,-230,0,0,0,0,0,0,0,0,0,-1,860,1254,0,0
-357,-230,0,0,0,0,0,0,0,0,0,-1,867,1254,0,0
-350,-230,0,0,0,0,0,0,0,0,0,-1,874,1254,0,0
-343,-230,0,0,0,0,0,0,0,0,0,-1,881,1254,0,0
-336,-230,0,0,0,0,0,0,0,0,0,-1,888,1254,0,0
-329,-230,0,0,0,0,0,0,0,0,0,-1,895,1254,0,0
-322,-230,0,0,0,0,0,0,0,0,0,-1,902,1254,0,0
-315,-230,0,0,0,0,0,0,0,0,0,-1,909,1254,0,0
-308,-230,0,0,0,0,0,0,0,0,0,-1,916,1254,0,0
-301,-230,0,0,0,0,0,0,0,0,0,-1,923,1254,0,0
-294,-230,0,0,0,0,0,0,0,0,0,-1,930,1254,0,0
-287,-230,0,0,0,0,0,0,0,0,0,-1,937,1254,0,0
-280,-230,0,0,0,0,0,0,0,0,0,-1,944,1254,0,0
-273,-230,0,0,0,0,0,0,0,0,0,-1,951,1254,0,0
-266,-230,0,0,0,0,0,0,0,0,0,-1,958,1254,0,0
-259,-230,0,0,0,0,0,0,0,0,0,-1,965,1254,0,0
-252,-230,0,0,0,0,0,0,0,0,0,-1,972,1254,0,0
-245,-230,0,0,0,0,0,0,0,0,0,-1,979,1254,0,0
-238,-230,0,0,0,0,0,0,0,0,0,-1,986,1254,0,0
-231,-230,0,0,0,0,0,0,0,0,0,-1,993,1254,0,0
-224,-230,0,0,0,0,0,0,0,0,0,-1,1000,1254,0,0
-217,-230,0,0,0,0,0,0,0,0,0,-1,1007,1254,0,0
-210,-230,0,0,0,0,0,0,0,0,0,-1,1014,1254,0,0
-203,-230,0,0,0,0,0,0,0,0,0,-1,1021,1254,0,0
-196,-230,0,0,0,0,0,0,0,0,0,-1,1028,1254,0,0
-189,-230,0,0,0,0,0,0,0,0,0,-1,1035,1254,0,0
-182,-230,0,0,0,0,0,0,0,0,0,-1,1042,1254,0,0
-175,-230,0,0,0,0,0,0,0,0,0,-1,1049,1254,0,0
-168,-230,0,0,0,0,0,0,0,0,0,-1,1056,1254,0,0
-161,-230,0,0,0,0,0,0,0,0,0,-1,1063,1254,0,0
-154,-230,0,0,0,0,0,0,0,0,0,-1,1070,1254,0,0
-147,-230,0,0,0,0,0,0,0,0,0,-1,1077,1254,0,0
-140,-230,0,0,0,0,0,0,0,0,0,-1,1084,1254,0,0
-133,-230,0,0,0,0,0,0,0,0,0,-1,1091,1254,0,0
-126,-230,0,0,0,0,0,0,0,0,0,-1,1098,1254,0,0
-119,-230,0,0,0,0,0,0,0,0,0,-1,1105,1254,0,0
-112,-230,0,0,0,0,0,0,0,0,0,-1,1112,1254,0,0
-105,-230,0,0,0,0,0,0,0,0,0,-1,1119,1254,0,0
-98,-230,0,0,0,0,0,0,0,0,0,-1,1126,1254,0,0
-91,-230,0,0,0,0,0,0,0,0,0,-1,1133,1254,0,0
-84,-230,0,0,0,0,0,0,0,0,0,-1,1140,1254,0,0
-77,-230,0,0,0,0,0,0,0,0,0,-1,1147,1254,0,0
-70,-230,0,0,0,0,0,0,0,0,0,-1,1154,1254,0,0
-63,-230,0,0,0,0,0,0,0,0,0,-1,1161,1254,0,0
-56,-230,0,0,0,0,0,0,0,0,0,-1,1168,1254,0,0
-49,-230,0,0,0,0,0,0,0,0,0,-1,1175,1254,0,0
-42,-230,0,0,0,0,0,0,0,0,0,-1,1182,1254,0,0
-35,-230,0,0,0,0,0,0,0,0,0,-1,1189,1254,0,0
-28,-230,0,0,0,0,0,0,0,0,0,-1,1196,1254,0,0
-21,-230,0,0,0,0,0,0,0,0,0,-1,1203,1254,0,0
-14,-230,0,0,0,0,0,0,0,0,0,-1,1210,1254,0,0
-7,-230,0,0,0,0,0,0,0,0,0,-1,1217,1254,0,0
0,-230,0,0,0,0,0,0,0,0,0,-1,1224,1254,0,0
7,-230,0,0,0,0,0,0,0,0,0,-1,1231,1254,0,0
14,-230,0,0,0,0,0,0,0,0,0,-1,1238,1254,0,0
21,-230,0,0,0,0,0,0,0,0,0,-1,1245,1254,0,0
28,-230,0,0,0,0,0,0,0,0,0,-1,1252,1254,0,0
35,-230,0,0,0,0,0,0,0,0,0,-1,1259,1254,0,0
42,-230,0,0,0,0,0,0,0,0,0,-1,1266,1254,0,0
49,-230,0,0,0,0,0,0,0,0,0,-1,1273,1254,0,0
56,-230,0,0,0,0,0,0,0,0,0,-1,1280,1254,0,0
63,-230,0,0,0,0,0,0,0,0,0,-1,1287,1254,0,0
70,-230,0,0,0,0,0,0,0,0,0,-1,1294,1254,0,0
77,-230,0,0,0,0,0,0,0,0,0,-1,1301,1254,0,0
84,-230,0,0,0,0,0,0,0,0,0,-1,1308,1254,0,0
91,-230,0,0,0,0,0,0,0,0,0,-1,1315,1254,0,0
98,-230,0,0,0,0,0,0,0,0,0,-1,1322,1254,0,0
105,-230,0,0,0,0,0,0,0,0,0,-1,1329,1254,0,0
112,-230,0,0,0,0,0,0,0,0,0,-1,1336,1254,0,0
119,-230,0,0,0,0,0,0,0,0,0,-1,1343,1254,0,0
126,-230,0,0,0,0,0,0,0,0,0,-1,1350,1254,0,0
133,-230,0,0,0,0,0,0,0,0,0,-1,1357,1254,0,0
140,-230,0,0,0,0,0,0,0,0,0,-1,1364,1254,0,0
147,-230,0,0,0,0,0,0,0,0,0,-1,1371,1254,0,0
154,-230,0,0,0,0,0,0,0,0,0,-1,1378,1254,0,0
161,-230,0,0,0,0,0,0,0,0,0,-1,1385,1254,0,0
168,-230,0,0,0,0,0,0,0,0,0,-1,1392,1254,0,0
175,-230,0,0,0,0,0,0,0,0,0,-1,1399,1254,0,0
182,-230,0,0,0,0,0,0,0,0,0,-1,1406,1254,0,0
189,-230,0,0,0,0,0,0,0,0,0,-1,1413,1254,0,0
196,-230,0,0,0,0,0,0,0,0,0,-1,1420,1254,0,0
203,-230,0,0,0,0,0,0,0,0,0,-1,1427,1254,0,0
210,-230,0,0,0,0,0,0,0,0,0,-1,1434,1254,0,0
217,-230,0,0,0,0,0,0,0,0,0,-1,1441,1254,0,0
224,-230,0,0,0,0,0,0,0,0,0,-1,1448,1254,0,0
231,-230,0,0,0,0,0,0,0,0,0,-1,1455,1254,0,0
238,-230,0,0,0,0,0,0,0,0,0,-1,1462,1254,0,0
245,-230,0,0,0,0,0,0,0,0,0,-1,1469,1254,0,0
252,-230,0,0,0,0,0,0,0,0,0,-1,1476,1254,0,0
259,-230,0,0,0,0,0,0,0,0,0,-1,1483,1254,0,0
266,-230,0,0,0,0,0,0,0,0,0,-1,1490,1254,0,0
273,-230,0,0,0,0,0,0,0,0,0,-1,1497,1254,0,0
280,-230,0,0,0,0,0,0,0,0,0,-1,1504,1254,0,0
287,-230,0,0,0,0,0,0,0,0,0,-1,1511,1254,0,0
294,-230,0,0,0,0,0,0,0,0,0,-1,1518,1254,0,0
301,-230,0,0,0,0,0,0,0,0,0,-1,1525,1254,0,0
308,-230,0,0,0,0,0,0,0,0,0,-1,1532,1254,0,0
315,-230,0,0,0,0,0,0,0,0,0,-1,1539,1254,0,0
322,-230,0,0,0,0,0,0,0,0,0,-1,1546,1254,0,0
329,-230,0,0,0,0,0,0,0,0,0,-1,1553,1254,0,0
336,-230,0,0,0,0,0,0,0,0,0,-1,1560,1254,0,0
343,-230,0,0,0,0,0,0,0,0,0,-1,1567,1254,0,0
350,-230,0,0,0,0,0,0,0,0,0,-1,1574,1254,0,0
357,-230,0,0,0,0,0,0,0,0,0,-1,1581,1254,0,0
364,-230,0,0,0,0,0,0,0,0,0,-1,1588,1254,0,0
371,-230,0,0,0,0,0,0,0,0,0,-1,1595,1254,0,0
378,-230,0,0,0,0,0,0,0,0,0,-1,1602,1254,0,0
385,-230,0,0,0,0,0,0,0,0,0,-1,1609,1254,0,0
392,-230,0,0,0,0,0,0,0,0,0,-1,1616,1254,0,0
399,-230,0,0,0,0,0,0,0,0,0,-1,1623,1254,0,0
406,-230,0,0,0,0,0,0,0,0,0,-1,1630,1254,0,0
413,-230,0,0,0,0,0,0,0,0,0,-1,1637,1254,0,0
420,-230,0,0,0,0,0,0,0,0,0,-1,1644,1254,0,0
427,-230,0,0,0,0,0,0,0,0,0,-1,1651,1254,0,0
434,-230,0,0,0,0,0,0,0,0,0,-1,1658,1254,0,0
441,-230,0,0,0,0,0,0,0,0,0,-1,1665,1254,0,0
448,-230,0,0,0,0,0,0,0,0,0,-1,1672,1254,0,0
455,-230,0,0,0,0,0,0,0,0,0,-1,1679,1254,0,0
462,-230,0,0,0,0,0,0,0,0,0,-1,1686,1254,0,0
469,-230,0,0,0,0,0,0,0,0,0,-1,1693,1254,0,0
476,-230,0,0,0,0,0,0,0,0,0,-1,1700,1254,0,0
483,-230,0,0,0,0,0,0,0,0,0,-1,1707,1254,0,0
490,-230,0,0,0,0,0,0,0,0,0,-1,1714,1254,0,0
497,-230,0,0,0,0,0,0,0,0,0,-1,1721,1254,0,0
504,-230,0,0,0,0,0,0,0,0,0,-1,1728,1254,0,0
511,-230,0,0,0,0,0,0,0,0,0,-1,1735,1254,0,0
518,-230,0,0,0,0,0,0,0,0,0,-1,1742,1254,0,0
525,-230,0,0,0,0,0,0,0,0,0,-1,1749,1254,0,0
532,-230,0,0,0,0,0,0,0,0,0,-1,1756,1254,0,0
539,-230,0,0,0,0,0,0,0,0,0,-1,1763,1254,0,0
546,-230,0,0,0,0,0,0,0,0,0,-1,1770,1254,0,0
553,-230,0,0,0,0,0,0,0,0,0,-1,1777,1254,0,0
560,-230,0,0,0,0,0,0,0,0,0,-1,1784,1254,0,0
567,-230,0,0,0,0,0,0,0,0,0,-1,1791,1254,0,0
574,-230,0,0,0,0,0,0,0,0,0,-1,1798,1254,0,0
581,-230,0,0,0,0,0,0,0,0,0,-1,1805,1254,0,0
588,-230,0,0,0,0,0,0,0,0,0,-1,1812,1254,0,0
595,-230,0,0,0,0,0,0,0,0,0,-1,1819,1254,0,0
602,-230,0,0,0,0,0,0,0,0,0,-1,1826,1254,0,0
609,-230,0,0,0,0,0,0,0,0,0,-1,1833,1254,0,0
616,-230,75.17,2.10254,-0.000591908,-0.000174361,0.000361719,3.451e-05,-0.000800779,1.04713,0.00054572,0.0376359,1840,1254,75.17,-2.10252
623,-230,75.1918,2.14844,-0.000705299,0.00211842,-0.00101617,0.00244609,-0.00103296,-1.25887,0.00206312,0.0353326,1847,1254,75.1917,-2.14842
630,-230,75.1111,2.15027,-0.000722421,0.00438977,-0.00246206,0.00538267,-0.00171532,-1.18747,0.00427647,0.0317032,1854,1254,75.1111,-2.15031
637,-230,75.0688,2.08435,-0.000579351,0.00645603,-0.00388209,0.00817711,-0.00230043,-1.15349,0.00635848,0.0278514,1861,1254,75.0688,-2.08432
644,-230,75.075,2.00024,-0.000147378,0.00650815,-0.00421795,0.00855301,-0.00219224,-1.11938,0.00655609,0.0214669,1868,1254,75.075,-2.00022
651,-230,75.0309,1.82922,3.12319e-05,0.0054533,-0.00357899,0.00723213,-0.0017476,-1.10954,0.00549734,0.0438929,1875,1254,75.0309,-1.82928
658,-230,74.9572,1.64063,0,0,0,0,0,0,0,-1,1882,1254,74.9572,-1.64057
665,-230,56.2585,2.51587,0,0,0,0,0,0,0,-1,1889,1254,56.2586,-2.51586
672,-230,43.0962,2.78699,0,0,0,0,0,0,0,-1,1896,1254,43.0962,-2.78698
679,-230,27.9967,2.37708,0,0,0,0,0,0,0,-1,1903,1254,27.9967,-2.3771
686,-230,40.8854,10.1788,0,0,0,0,0,0,0,-1,1910,1254,40.8853,-10.1788
693,-230,50.7637,12.0411,0,0,0,0,0,0,0,-1,1917,1254,50.7636,-12.0412
700,-230,56.7892,12.8228,0,0,0,0,0,0,0,-1,1924,1254,56.7892,-12.8228
707,-230,57.0204,11.9532,-0.00035239,-8.41672e-05,0.000836386,0.000628791,-0.00106535,0.864895,0.000988877,0.0332933,1931,1254,57.0204,-11.9533
714,-230,56.8727,11.2592,-0.000860577,-0.000216882,0.00128618,0.000787106,-0.00186456,0.907998,0.00157251,0.0194353,1938,1254,56.8727,-11.2591
721,-230,56.8357,10.5453,-0.00124687,-0.000393894,0.00188247,0.00110979,-0.00275056,0.896797,0.0022949,0.0144801,1945,1254,56.8357,-10.5452
728,-230,56.7767,9.86365,-0.0016549,-0.000442118,0.00244507,0.00147063,-0.00356765,0.906948,0.00299166,0.0153122,1952,1254,56.7767,-9.86364
735,-230,56.7382,9.15601,-0.00219919,-0.000504424,0.00313241,0.0018932,-0.0045968,0.917497,0.00385386,0.0157622,1959,1254,56.7382,-9.15606
742,-230,56.674,8.40173,-0.00280799,-0.000736297,0.00404496,0.00240334,-0.00594762,0.910746,0.00496407,0.0122828,1966,1254,56.674,-8.40175
749,-230,56.6542,7.63196,-0.00341269,-0.00118242,0.00521152,0.00303194,-0.00762705,0.890796,0.00634172,0.0117549,1973,1254,56.6542,-7.63192
756,-230,56.6184,6.90552,-0.00407424,-0.00191145,0.00679519,0.00388786,-0.00987354,0.864307,0.00819185,0.0170249,1980,1254,56.6184,-6.90557
763,-230,56.5765,6.18726,0,0,0,0,0,0,0,-1,1987,1254,56.5765,-6.18725
770,-230,56.7327,5.58411,0,0,0,0,0,0,0,-1,1994,1254,56.7326,-5.58416
777,-230,41.8693,3.74707,0,0,0,0,0,0,0,-1,2001,1254,41.8692,-3.74713
784,-230,35.8896,1.80334,0,0,0,0,0,0,0,-1,2008,1254,35.8897,-1.80338
791,-230,35.6028,2.20642,0,0,0,0,0,0,0,-1,2015,1254,35.6027,-2.2064
798,-230,0,0,0,0,0,0,0,0,0,-1,2022,1254,0,0
805,-230,0,0,0,0,0,0,0,0,0,-1,2029,1254,0,0
812,-230,0,0,0,0,0,0,0,0,0,-1,2036,1254,0,0
-700,-237,0,0,0,0,0,0,0,0,0,-1,524,1261,0,0
-693,-237,0,0,0,0,0,0,0,0,0,-1,531,1261,0,0
-686,-237,0,0,0,0,0,0,0,0,0,-1,538,1261,0,0
-679,-237,0,0,0,0,0,0,0,0,0,-1,545,1261,0,0
-672,-237,-36.6405,-12.5112,0,0,0,0,0,0,0,-1,552,1261,-36.6405,12.5113
-665,-237,-37.1436,-10.5648,0,0,0,0,0,0,0,-1,559,1261,-37.1436,10.5649
-658,-237,-37.8344,-8.67175,0,0,0,0,0,0,0,-1,566,1261,-37.8344,8.67179
-651,-237,-46.9487,1.65137,0,0,0,0,0,0,0,-1,573,1261,-46.9487,-1.65142
-644,-237,-47.6604,0.785034,0,0,0,0,0,0,0,-1,580,1261,-47.6604,-0.785034
-637,-237,-33.4961,2.71313,0,0,0,0,0,0,0,-1,587,1261,-33.4961,-2.71312
-630,-237,-39.7109,4.80786,0,0,0,0,0,0,0,-1,594,1261,-39.7109,-4.80783
-623,-237,-39.5358,5.63708,-0.0142243,0.00648382,0.00600386,0.00809859,-0.015839,1.30806,0.0140592,0.0422471,601,1261,-39.5358,-5.63703
-616,-237,-39.5236,6.55188,-0.00219758,0.00381795,0.002576,0.00477029,-0.00314992,1.21668,0.00460452,0.0162656,608,1261,-39.5236,-6.55191
-609,-237,-39.601,7.35437,0.00306452,0.00268965,0.00029218,0.00322421,0.00252995,0.500208,0.00195949,0.0174402,615,1261,-39.601,-7.35436
-602,-237,-39.6689,8.14893,0.0020169,0.00202741,-0.000554198,0.00257638,0.00146793,-0.79014,0.00149229,0.013844,622,1261,-39.6689,-8.14895
-595,-237,-39.7536,8.94482,0.00121677,0.00132318,-0.00146682,0.00273776,-0.000197805,-0.803526,0.00189456,0.018031,629,1261,-39.7536,-8.94478
-588,-237,-39.7734,9.76172,0.000532391,0.000693765,-0.00242611,0.00304053,-0.00181437,-0.802021,0.00283262,0.0282393,636,1261,-39.7734,-9.76172
-581,-237,-39.8152,10.5344,1.10614e-05,0.000127096,-0.00331806,0.00338764,-0.00324949,-0.79414,0.00383223,0.0259419,643,1261,-39.8152,-10.5344
-574,-237,-39.7262,11.1133,-0.00095099,-0.000547607,-0.00357057,0.00282697,-0.00432556,-0.813612,0.00415962,0.0369339,650,1261,-39.7262,-11.1133
-567,-237,-39.84,11.6385,0,0,0,0,0,0,0,-1,657,1261,-39.84,-11.6386
-560,-237,-39.9557,12.389,0,0,0,0,0,0,0,-1,664,1261,-39.9558,-12.389
-553,-237,-20.6102,6.92139,0,0,0,0,0,0,0,-1,671,1261,-20.6102,-6.92138
-546,-237,-11.192,1.14014,0,0,0,0,0,0,0,-1,678,1261,-11.192,-1.14011
-539,-237,-16.512,1.53455,0,0,0,0,0,0,0,-1,685,1261,-16.512,-1.53457
-532,-237,-29.7025,1.23621,0,0,0,0,0,0,0,-1,692,1261,-29.7025,-1.23618
-525,-237,-47.2925,0.590942,0,0,0,0,0,0,0,-1,699,1261,-47.2925,-0.590989
-518,-237,-48.2897,0.765869,0,0,0,0,0,0,0,-1,706,1261,-48.2897,-0.765854
-511,-237,-58.5406,0.300781,0,0,0,0,0,0,0,-1,713,1261,-58.5406,-0.300817
-504,-237,-58.7148,0.260864,-0.0109354,-0.00527026,-0.0054644,-0.0019479,-0.0142577,-1.02451,0.00892698,0.044653,720,1261,-58.7149,-0.260881
-497,-237,-58.7267,0.338013,0,0,0,0,0,0,0,-1,727,1261,-58.7267,-0.338018
-490,-237,0,0,0,0,0,0,0,0,0,-1,734,1261,0,0
-483,-237,0,0,0,0,0,0,0,0,0,-1,741,1261,0,0
-476,-237,0,0,0,0,0,0,0,0,0,-1,748,1261,0,0
-469,-237,0,0,0,0,0,0,0,0,0,-1,755,1261,0,0
-462,-237,0,0,0,0,0,0,0,0,0,-1,762,1261,0,0
-455,-237,0,0,0,0,0,0,0,0,0,-1,769,1261,0,0
-448,-237,0,0,0,0,0,0,0,0,0,-1,776,1261,0,0
-441,-237,0,0,0,0,0,0,0,0,0,-1,783,1261,0,0
-434,-237,0,0,0,0,0,0,0,0,0,-1,790,1261,0,0
-427,-237,0,0,0,0,0,0,0,0,0,-1,797,1261,0,0
-420,-237,0,0,0,0,0,0,0,0,0,-1,804,1261,0,0
-413,-237,0,0,0,0,0,0,0,0,0,-1,811,1261,0,0
-406,-237,0,0,0,0,0,0,0,0,0,-1,818,1261,0,0
-399,-237,0,0,0,0,0,0,0,0,0,-1,825,1261,0,0
-392,-237,0,0,0,0,0,0,0,0,0,-1,832,1261,0,0
-385,-237,0,0,0,0,0,0,0,0,0,-1,839,1261,0,0
-378,-237,0,0,0,0,0,0,0,0,0,-1,846,1261,0,0
-371,-237,0,0,0,0,0,0,0,0,0,-1,853,1261,0,0
-364,-237,0,0,0,0,0,0,0,0,0,-1,860,1261,0,0
-357,-237,0,0,0,0,0,0,0,0,0,-1,867,1261,0,0
-350,-237,0,0,0,0,0,0,0,0,0,-1,874,1261,0,0
-343,-237,0,0,0,0,0,0,0,0,0,-1,881,1261,0,0
-336,-237,0,0,0,0,0,0,0,0,0,-1,888,1261,0,0
-329,-237,0,0,0,0,0,0,0,0,0,-1,895,1261,0,0
-322,-237,0,0,0,0,0,0,0,0,0,-1,902,1261,0,0
-315,-237,0,0,0,0,0,0,0,0,0,-1,909,1261,0,0
-308,-237,0,0,0,0,0,0,0,0,0,-1,916,1261,0,0
-301,-237,0,0,0,0,0,0,0,0,0,-1,923,1261,0,0
-294,-237,0,0,0,0,0,0,0,0,0,-1,930,1261,0,0
-287,-237,0,0,0,0,0,0,0,0,0,-1,937,1261,0,0
-280,-237,0,0,0,0,0,0,0,0,0,-1,944,1261,0,0
-273,-237,0,0,0,0,0,0,0,0,0,-1,951,1261,0,0
-266,-237,0,0,0,0,0,0,0,0,0,-1,958,1261,0,0
-259,-237,0,0,0,0,0,0,0,0,0,-1,965,1261,0,0
-252,-237,0,0,0,0,0,0,0,0,0,-1,972,1261,0,0
-245,-237,0,0,0,0,0,0,0,0,0,-1,979,1261,0,0
-238,-237,0,0,0,0,0,0,0,0,0,-1,986,1261,0,0
-231,-237,0,0,0,0,0,0,0,0,0,-1,993,1261,0,0
-224,-237,0,0,0,0,0,0,0,0,0,-1,1000,1261,0,0
-217,-237,0,0,0,0,0,0,0,0,0,-1,1007,1261,0,0
-210,-237,0,0,0,0,0,0,0,0,0,-1,1014,1261,0,0
-203,-237,0,0,0,0,0,0,0,0,0,-1,1021,1261,0,0
-196,-237,0,0,0,0,0,0,0,0,0,-1,1028,1261,0,0
-189,-237,0,0,0,0,0,0,0,0,0,-1,1035,1261,0,0
-182,-237,0,0,0,0,0,0,0,0,0,-1,1042,1261,0,0
-175,-237,0,0,0,0,0,0,0,0,0,-1,1049,1261,0,0
-168,-237,0,0,0,0,0,0,0,0,0,-1,1056,1261,0,0
-161,-237,0,0,0,0,0,0,0,0,0,-1,1063,1261,0,0
-154,-237,0,0,0,0,0,0,0,0,0,-1,1070,1261,0,0
-147,-237,0,0,0,0,0,0,0,0,0,-1,1077,1261,0,0
-140,-237,0,0,0,0,0,0,0,0,0,-1,1084,1261,0,0
-133,-237,0,0,0,0,0,0,0,0,0,-1,1091,1261,0,0
-126,-237,0,0,0,0,0,0,0,0,0,-1,1098,1261,0,0
-119,-237,0,0,0,0,0,0,0,0,0,-1,1105,1261,0,0
-112,-237,0,0,0,0,0,0,0,0,0,-1,1112,1261,0,0
-105,-237,0,0,0,0,0,0,0,0,0,-1,1119,1261,0,0
-98,-237,0,0,0,0,0,0,0,0,0,-1,1126,1261,0,0
-91,-237,0,0,0,0,0,0,0,0,0,-1,1133,1261,0,0
-84,-237,0,0,0,0,0,0,0,0,0,-1,1140,1261,0,0
-77,-237,0,0,0,0,0,0,0,0,0,-1,1147,1261,0,0
-70,-237,0,0,0,0,0,0,0,0,0,-1,1154,1261,0,0
-63,-237,0,0,0,0,0,0,0,0,0,-1,1161,1261,0,0
-56,-237,0,0,0,0,0,0,0,0,0,-1,1168,1261,0,0
-49,-237,0,0,0,0,0,0,0,0,0,-1,1175,1261,0,0
-42,-237,0,0,0,0,0,0,0,0,0,-1,1182,1261,0,0
-35,-237,0,0,0,0,0,0,0,0,0,-1,1189,1261,0,0
-28,-237,0,0,0,0,0,0,0,0,0,-1,1196,1261,0,0
-21,-237,0,0,0,0,0,0,0,0,0,-1,1203,1261,0,0
-14,-237,0,0,0,0,0,0,0,0,0,-1,1210,1261,0,0
-7,-237,0,0,0,0,0,0,0,0,0,-1,1217,1261,0,0
0,-237,0,0,0,0,0,0,0,0,0,-1,1224,1261,0,0
7,-237,0,0,0,0,0,0,0,0,0,-1,1231,1261,0,0
14,-237,0,0,0,0,0,0,0,0,0,-1,1238,1261,0,0
21,-237,0,0,0,0,0,0,0,0,0,-1,1245,1261,0,0
28,-237,0,0,0,0,0,0,0,0,0,-1,1252,1261,0,0
35,-237,0,0,0,0,0,0,0,0,0,-1,1259,1261,0,0
42,-237,0,0,0,0,0,0,0,0,0,-1,1266,1261,0,0
49,-237,0,0,0,0,0,0,0,0,0,-1,1273,1261,0,0
56,-237,0,0,0,0,0,0,0,0,0,-1,1280,1261,0,0
63,-237,0,0,0,0,0,0,0,0,0,-1,1287,1261,0,0
70,-237,0,0,0,0,0,0,0,0,0,-1,1294,1261,0,0
77,-237,0,0,0,0,0,0,0,0,0,-1,1301,1261,0,0
84,-237,0,0,0,0,0,0,0,0,0,-1,1308,1261,0,0
91,-237,0,0,0,0,0,0,0,0,0,-1,1315,1261,0,0
98,-237,0,0,0,0,0,0,0,0,0,-1,1322,1261,0,0
105,-237,0,0,0,0,0,0,0,0,0,-1,1329,1261,0,0
112,-237,0,0,0,0,0,0,0,0,0,-1,1336,1261,0,0
119,-237,0,0,0,0,0,0,0,0,0,-1,1343,1261,0,0
126,-237,0,0,0,0,0,0,0,0,0,-1,1350,1261,0,0
133,-237,0,0,0,0,0,0,0,0,0,-1,1357,1261,0,0
140,-237,0,0,0,0,0,0,0,0,0,-1,1364,1261,0,0
147,-237,0,0,0,0,0,0,0,0,0,-1,1371,1261,0,0
154,-237,0,0,0,0,0,0,0,0,0,-1,1378,1261,0,0
161,-237,0,0,0,0,0,0,0,0,0,-1,1385,1261,0,0
168,-237,0,0,0,0,0,0,0,0,0,-1,1392,1261,0,0
175,-237,0,0,0,0,0,0,0,0,0,-1,1399,1261,0,0
182,-237,0,0,0,0,0,0,0,0,0,-1,1406,1261,0,0
189,-237,0,0,0,0,0,0,0,0,0,-1,1413,1261,0,0
196,-237,0,0,0,0,0,0,0,0,0,-1,1420,1261,0,0
203,-237,0,0,0,0,0,0,0,0,0,-1,1427,1261,0,0
210,-237,0,0,0,0,0,0,0,0,0,-1,1434,1261,0,0
217,-237,0,0,0,0,0,0,0,0,0,-1,1441,1261,0,0
224,-237,0,0,0,0,0,0,0,0,0,-1,1448,1261,0,0
231,-237,0,0,0,0,0,0,0,0,0,-1,1455,1261,0,0
238,-237,0,0,0,0,0,0,0,0,0,-1,1462,1261,0,0
245,-237,0,0,0,0,0,0,0,0,0,-1,1469,1261,0,0
252,-237,0,0,0,0,0,0,0,0,0,-1,1476,1261,0,0
259,-237,0,0,0,0,0,0,0,0,0,-1,1483,1261,0,0
266,-237,0,0,0,0,0,0,0,0,0,-1,1490,1261,0,0
273,-237,0,0,0,0,0,0,0,0,0,-1,1497,1261,0,0
280,-237,0,0,0,0,0,0,0,0,0,-1,1504,1261,0,0
287,-237,0,0,0,0,0,0,0,0,0,-1,1511,1261,0,0
294,-237,0,0,0,0,0,0,0,0,0,-1,1518,1261,0,0
301,-237,0,0,0,0,0,0,0,0,0,-1,1525,1261,0,0
308,-237,0,0,0,0,0,0,0,0,0,-1,1532,1261,0,0
315,-237,0,0,0,0,0,0,0,0,0,-1,1539,1261,0,0
322,-237,0,0,0,0,0,0,0,0,0,-1,1546,1261,0,0
329,-237,0,0,0,0,0,0,0,0,0,-1,1553,1261,0,0
336,-237,0,0,0,0,0,0,0,0,0,-1,1560,1261,0,0
343,-237,0,0,0,0,0,0,0,0,0,-1,1567,1261,0,0
350,-237,0,0,0,0,0,0,0,0,0,-1,1574,1261,0,0
357,-237,0,0,0,0,0,0,0,0,0,-1,1581,1261,0,0
364,-237,0,0,0,0,0,0,0,0,0,-1,1588,1261,0,0
371,-237,0,0,0,0,0,0,0,0,0,-1,1595,1261,0,0
378,-237,0,0,0,0,0,0,0,0,0,-1,1602,1261,0,0
385,-237,0,0,0,0,0,0,0,0,0,-1,1609,1261,0,0
392,-237,0,0,0,0,0,0,0,0,0,-1,1616,1261,0,0
399,-237,0,0,0,0,0,0,0,0,0,-1,1623,1261,0,0
406,-237,0,0,0,0,0,0,0,0,0,-1,1630,1261,0,0
413,-237,0,0,0,0,0,0,0,0,0,-1,1637,1261,0,0
420,-237,0,0,0,0,0,0,0,0,0,-1,1644,1261,0,0
427,-237,0,0,0,0,0,0,0,0,0,-1,1651,1261,0,0
434,-237,0,0,0,0,0,0,0,0,0,-1,1658,1261,0,0
441,-237,0,0,0,0,0,0,0,0,0,-1,1665,1261,0,0
448,-237,0,0,0,0,0,0,0,0,0,-1,1672,1261,0,0
455,-237,0,0,0,0,0,0,0,0,0,-1,1679,1261,0,0
462,-237,0,0,0,0,0,0,0,0,0,-1,1686,1261,0,0
469,-237,0,0,0,0,0,0,0,0,0,-1,1693,1261,0,0
476,-237,0,0,0,0,0,0,0,0,0,-1,1700,1261,0,0
483,-237,0,0,0,0,0,0,0,0,0,-1,1707,1261,0,0
490,-237,0,0,0,0,0,0,0,0,0,-1,1714,1261,0,0
497,-237,0,0,0,0,0,0,0,0,0,-1,1721,1261,0,0
504,-237,0,0,0,0,0,0,0,0,0,-1,1728,1261,0,0
511,-237,0,0,0,0,0,0,0,0,0,-1,1735,1261,0,0
518,-237,0,0,0,0,0,0,0,0,0,-1,1742,1261,0,0
525,-237,0,0,0,0,0,0,0,0,0,-1,1749,1261,0,0
532,-237,0,0,0,0,0,0,0,0,0,-1,1756,1261,0,0
539,-237,0,0,0,0,0,0,0,0,0,-1,1763,1261,0,0
546,-237,0,0,0,0,0,0,0,0,0,-1,1770,1261,0,0
553,-237,0,0,0,0,0,0,0,0,0,-1,1777,1261,0,0
560,-237,0,0,0,0,0,0,0,0,0,-1,1784,1261,0,0
567,-237,0,0,0,0,0,0,0,0,0,-1,1791,1261,0,0
574,-237,0,0,0,0,0,0,0,0,0,-1,1798,1261,0,0
581,-237,0,0,0,0,0,0,0,0,0,-1,1805,1261,0,0
588,-237,0,0,0,0,0,0,0,0,0,-1,1812,1261,0,0
595,-237,0,0,0,0,0,0,0,0,0,-1,1819,1261,0,0
602,-237,0,0,0,0,0,0,0,0,0,-1,1826,1261,0,0
609,-237,0,0,0,0,0,0,0,0,0,-1,1833,1261,0,0
616,-237,75.1644,2.06091,-0.000843607,0.00182173,-0.00054971,0.00193065,-0.00095253,-1.37518,0.00169623,0.0390076,1840,1261,75.1645,-2.06085
623,-237,75.1831,2.07007,-0.000783854,0.0042597,-0.00228106,0.00513831,-0.00166246,-1.20314,0.0040938,0.034164,1847,1261,75.1832,-2.07004
630,-237,75.1161,2.11938,-0.000674802,0.00660568,-0.00400783,0.00837968,-0.00244881,-1.15408,0.00655696,0.0267022,1854,1261,75.1161,-2.11937
637,-237,75.0449,2.05408,-0.000466715,0.00830107,-0.00538244,0.010859,-0.00302466,-1.12715,0.00843041,0.0209445,1861,1261,75.0449,-2.05411
644,-237,74.9706,1.92749,-8.80879e-05,0.00730566,-0.00500107,0.00982792,-0.00261034,-1.10368,0.00757352,0.0414351,1868,1261,74.9706,-1.92755
651,-237,74.9948,1.73926,-2.37493e-05,0.00584566,-0.00395301,0.00783425,-0.00201234,-1.10471,0.00600704,0.0478276,1875,1261,74.9948,-1.73929
658,-237,74.9572,1.44421,0,0,0,0,0,0,0,-1,1882,1261,74.9572,-1.44419
665,-237,57.9302,3.30676,0,0,0,0,0,0,0,-1,1889,1261,57.9302,-3.30671
672,-237,45.3922,1.95618,0,0,0,0,0,0,0,-1,1896,1261,45.3922,-1.95623
679,-237,23.1501,7.37488,0,0,0,0,0,0,0,-1,1903,1261,23.1502,-7.37493
686,-237,36.8348,9.99426,0,0,0,0,0,0,0,-1,1910,1261,36.8349,-9.99424
693,-237,56.5167,13.4795,0,0,0,0,0,0,0,-1,1917,1261,56.5167,-13.4795
700,-237,56.318,12.8203,-3.49605e-05,0.000329957,0.000195712,0.00041507,-0.000120073,1.16058,0.000324235,0.0372175,1924,1261,56.3179,-12.8203
707,-237,56.1837,12.1196,-0.000306169,-0.00051717,0.000971961,0.000566001,-0.00138934,0.731338,0.0011618,0.0237077,1931,1261,56.1837,-12.1196
714,-237,56.0906,11.3439,-0.000929197,-0.000546702,0.00146695,0.000741416,-0.00221732,0.850218,0.00177766,0.0179401,1938,1261,56.0906,-11.3439
721,-237,56.0216,10.6311,-0.00147438,-0.000564957,0.0020551,0.00108514,-0.00312447,0.894274,0.0025237,0.019663,1945,1261,56.0215,-10.6311
728,-237,56.02,9.90015,-0.00203545,-0.000502147,0.00262272,0.00146368,-0.00400127,0.927592,0.0032666,0.0161764,1952,1261,56.02,-9.90015
735,-237,55.9894,9.14551,-0.00269723,-0.000506617,0.00334094,0.00191397,-0.00511782,0.943799,0.00419793,0.0200238,1959,1261,55.9894,-9.14552
742,-237,55.9432,8.40955,-0.00342852,-0.000689646,0.00428256,0.0024371,-0.00655527,0.940145,0.00537016,0.0163314,1966,1261,55.9432,-8.40954
749,-237,55.8678,7.70496,-0.00416528,-0.00110101,0.00546985,0.00304724,-0.00831352,0.921951,0.00678998,0.0106032,1973,1261,55.8677,-7.70494
756,-237,55.8174,6.96582,-0.00500492,-0.00182379,0.00711966,0.00388081,-0.0107095,0.895296,0.00872586,0.0187103,1980,1261,55.8174,-6.96588
763,-237,55.8114,6.19873,0,0,0,0,0,0,0,-1,1987,1261,55.8114,-6.19878
770,-237,54.7881,5.09961,0,0,0,0,0,0,0,-1,1994,1261,54.7882,-5.09962
777,-237,54.4185,3.49426,0,0,0,0,0,0,0,-1,2001,1261,54.4184,-3.4943
784,-237,36.3441,1.68591,0,0,0,0,0,0,0,-1,2008,1261,36.3441,-1.68592
791,-237,32.3025,6.03235,0,0,0,0,0,0,0,-1,2015,1261,32.3025,-6.03229
798,-237,0,0,0,0,0,0,0,0,0,-1,2022,1261,0,0
805,-237,0,0,0,0,0,0,0,0,0,-1,2029,1261,0,0
812,-237,0,0,0,0,0,0,0,0,0,-1,2036,1261,0,0
-700,-244,0,0,0,0,0,0,0,0,0,-1,524,1268,0,0
-693,-244,0,0,0,0,0,0,0,0,0,-1,531,1268,0,0
-686,-244,0,0,0,0,0,0,0,0,0,-1,538,1268,0,0
-679,-244,0,0,0,0,0,0,0,0,0,-1,545,1268,0,0
-672,-244,-44.7993,4.39575,0,0,0,0,0,0,0,-1,552,1268,-44.7992,-4.39576
-665,-244,-46.0868,3.64392,0,0,0,0,0,0,0,-1,559,1268,-46.0868,-3.64391
-658,-244,-45.9758,2.05481,0,0,0,0,0,0,0,-1,566,1268,-45.9758,-2.05486
-651,-244,-46.4749,1.28564,0,0,0,0,0,0,0,-1,573,1268,-46.4749,-1.28561
-644,-244,-32.7362,1.51355,0,0,0,0,0,0,0,-1,580,1268,-32.7362,-1.51355
-637,-244,-34.8414,3.00073,0,0,0,0,0,0,0,-1,587,1268,-34.8414,-3.00078
-630,-244,-38.8633,5.04968,0,0,0,0,0,0,0,-1,594,1268,-38.8633,-5.04964
-623,-244,-38.8132,5.83398,-0.0145902,0.00657233,0.00653005,0.00842508,-0.0164429,1.29433,0.0146042,0.041575,601,1268,-38.8132,-5.83401
-616,-244,-38.774,6.61829,-0.00213328,0.00428645,0.00273772,0.00529539,-0.00314222,1.21771,0.00492405,0.0183397,608,1268,-38.774,-6.61833
-609,-244,-38.8488,7.41016,0.00276042,0.00317143,0.000614467,0.00361384,0.00231801,0.94677,0.00211409,0.0160739,615,1268,-38.8488,-7.41013
-602,-244,-38.9104,8.18652,0.00176276,0.00236559,-0.000137993,0.00239568,0.00173268,-1.35613,0.00142836,0.0169204,622,1268,-38.9104,-8.18654
-595,-244,-38.9616,8.98083,0.000968773,0.00155772,-0.00094085,0.00224911,0.000277391,-0.937063,0.00141603,0.0180219,629,1268,-38.9616,-8.98082
-588,-244,-38.9797,9.76917,0.000268874,0.000749405,-0.00179639,0.00232153,-0.00130325,-0.851878,0.00212012,0.0209603,636,1268,-38.9797,-9.76921
-581,-244,-39.0275,10.5261,-0.000306087,-8.79373e-05,-0.00264546,0.0024507,-0.00284472,-0.806002,0.00306013,0.0176508,643,1268,-39.0275,-10.5261
-574,-244,-39.0716,11.2599,-0.00118435,-0.00110525,-0.00307969,0.00193514,-0.00422474,-0.791819,0.00363738,0.0285651,650,1268,-39.0716,-11.2599
-567,-244,-39.1944,12.0153,-0.00224258,-0.00174195,-0.00305428,0.00107226,-0.00505678,-0.826285,0.00377965,0.0368417,657,1268,-39.1944,-12.0152
-560,-244,-39.2353,12.7291,-0.0034356,-0.0013385,-0.00304393,0.00083242,-0.00560651,-0.951269,0.00404381,0.0431586,664,1268,-39.2353,-12.7291
-553,-244,-39.1797,13.4586,0,0,0,0,0,0,0,-1,671,1268,-39.1797,-13.4586
-546,-244,-11.2686,4.41772,0,0,0,0,0,0,0,-1,678,1268,-11.2686,-4.41767
-539,-244,-12.8706,0.3302,0,0,0,0,0,0,0,-1,685,1268,-12.8706,-0.330156
-532,-244,-18.1502,0.816528,0,0,0,0,0,0,0,-1,692,1268,-18.1502,-0.816514
-525,-244,-33.0835,0.693604,0,0,0,0,0,0,0,-1,699,1268,-33.0835,-0.69365
-518,-244,-47.5015,0.609131,0,0,0,0,0,0,0,-1,706,1268,-47.5015,-0.60919
-511,-244,-48.6138,1.11877,0,0,0,0,0,0,0,-1,713,1268,-48.6138,-1.11872
-504,-244,-58.7918,0.535522,0,0,0,0,0,0,0,-1,720,1268,-58.7918,-0.535556
-497,-244,-58.8702,0.640625,0,0,0,0,0,0,0,-1,727,1268,-58.8702,-0.640581
-490,-244,0,0,0,0,0,0,0,0,0,-1,734,1268,0,0
-483,-244,0,0,0,0,0,0,0,0,0,-1,741,1268,0,0
-476,-244,0,0,0,0,0,0,0,0,0,-1,748,1268,0,0
-469,-244,0,0,0,0,0,0,0,0,0,-1,755,1268,0,0
-462,-244,0,0,0,0,0,0,0,0,0,-1,762,1268,0,0
-455,-244,0,0,0,0,0,0,0,0,0,-1,769,1268,0,0
-448,-244,0,0,0,0,0,0,0,0,0,-1,776,1268,0,0
-441,-244,0,0,0,0,0,0,0,0,0,-1,783,1268,0,0
-434,-244,0,0,0,0,0,0,0,0,0,-1,790,1268,0,0
-427,-244,0,0,0,0,0,0,0,0,0,-1,797,1268,0,0
-420,-244,0,0,0,0,0,0,0,0,0,-1,804,1268,0,0
-413,-244,0,0,0,0,0,0,0,0,0,-1,811,1268,0,0
-406,-244,0,0,0,0,0,0,0,0,0,-1,818,1268,0,0
-399,-244,0,0,0,0,0,0,0,0,0,-1,825,1268,0,0
-392,-244,0,0,0,0,0,0,0,0,0,-1,832,1268,0,0
-385,-244,0,0,0,0,0,0,0,0,0,-1,839,1268,0,0
-378,-244,0,0,0,0,0,0,0,0,0,-1,846,1268,0,0
-371,-244,0,0,0,0,0,0,0,0,0,-1,853,1268,0,0
-364,-244,0,0,0,0,0,0,0,0,0,-1,860,1268,0,0
-357,-244,0,0,0,0,0,0,0,0,0,-1,867,1268,0,0
-350,-244,0,0,0,0,0,0,0,0,0,-1,874,1268,0,0
-343,-244,0,0,0,0,0,0,0,0,0,-1,881,1268,0,0
-336,-244,0,0,0,0,0,0,0,0,0,-1,888,1268,0,0
-329,-244,0,0,0,0,0,0,0,0,0,-1,895,1268,0,0
-322,-244,0,0,0,0,0,0,0,0,0,-1,902,1268,0,0
-315,-244,0,0,0,0,0,0,0,0,0,-1,909,1268,0,0
-308,-244,0,0,0,0,0,0,0,0,0,-1,916,1268,0,0
-301,-244,0,0,0,0,0,0,0,0,0,-1,923,1268,0,0
-294,-244,0,0,0,0,0,0,0,0,0,-1,930,1268,0,0
-287,-244,0,0,0,0,0,0,0,0,0,-1,937,1268,0,0
-280,-244,0,0,0,0,0,0,0,0,0,-1,944,1268,0,0
-273,-244,0,0,0,0,0,0,0,0,0,-1,951,1268,0,0
-266,-244,0,0,0,0,0,0,0,0,0,-1,958,1268,0,0
-259,-244,0,0,0,0,0,0,0,0,0,-1,965,1268,0,0
-252,-244,0,0,0,0,0,0,0,0,0,-1,972,1268,0,0
-245,-244,0,0,0,0,0,0,0,0,0,-1,979,1268,0,0
-238,-244,0,0,0,0,0,0,0,0,0,-1,986,1268,0,0
-231,-244,0,0,0,0,0,0,0,0,0,-1,993,1268,0,0
-224,-244,0,0,0,0,0,0,0,0,0,-1,1000,1268,0,0
-217,-244,0,0,0,0,0,0,0,0,0,-1,1007,1268,0,0
-210,-244,0,0,0,0,0,0,0,0,0,-1,1014,1268,0,0
-203,-244,0,0,0,0,0,0,0,0,0,-1,1021,1268,0,0
-196,-244,0,0,0,0,0,0,0,0,0,-1,1028,1268,0,0
-189,-244,0,0,0,0,0,0,0,0,0,-1,1035,1268,0,0
-182,-244,0,0,0,0,0,0,0,0,0,-1,1042,1268,0,0
-175,-244,0,0,0,0,0,0,0,0,0,-1,1049,1268,0,0
-168,-244,0,0,0,0,0,0,0,0,0,-1,1056,1268,0,0
-161,-244,0,0,0,0,0,0,0,0,0,-1,1063,1268,0,0
-154,-244,0,0,0,0,0,0,0,0,0,-1,1070,1268,0,0
-147,-244,0,0,0,0,0,0,0,0,0,-1,1077,1268,0,0
-140,-244,0,0,0,0,0,0,0,0,0,-1,1084,1268,0,0
-133,-244,0,0,0,0,0,0,0,0,0,-1,1091,1268,0,0
-126,-244,0,0,0,0,0,0,0,0,0,-1,1098,1268,0,0
-119,-244,0,0,0,0,0,0,0,0,0,-1,1105,1268,0,0
-112,-244,0,0,0,0,0,0,0,0,0,-1,1112,1268,0,0
-105,-244,0,0,0,0,0,0,0,0,0,-1,1119,1268,0,0
-98,-244,0,0,0,0,0,0,0,0,0,-1,1126,1268,0,0
-91,-244,0,0,0,0,0,0,0,0,0,-1,1133,1268,0,0
-84,-244,0,0,0,0,0,0,0,0,0,-1,1140,1268,0,0
-77,-244,0,0,0,0,0,0,0,0,0,-1,1147,1268,0,0
-70,-244,0,0,0,0,0,0,0,0,0,-1,1154,1268,0,0
-63,-244,0,0,0,0,0,0,0,0,0,-1,1161,1268,0,0
-56,-244,0,0,0,0,0,0,0,0,0,-1,1168,1268,0,0
-49,-244,0,0,0,0,0,0,0,0,0,-1,1175,1268,0,0
-42,-244,0,0,0,0,0,0,0,0,0,-1,1182,1268,0,0
-35,-244,0,0,0,0,0,0,0,0,0,-1,1189,1268,0,0
-28,-244,0,0,0,0,0,0,0,0,0,-1,1196,1268,0,0
-21,-244,0,0,0,0,0,0,0,0,0,-1,1203,1268,0,0
-14,-244,0,0,0,0,0,0,0,0,0,-1,1210,1268,0,0
-7,-244,0,0,0,0,0,0,0,0,0,-1,1217,1268,0,0
0,-244,0,0,0,0,0,0,0,0,0,-1,1224,1268,0,0
7,-244,0,0,0,0,0,0,0,0,0,-1,1231,1268,0,0
14,-244,0,0,0,0,0,0,0,0,0,-1,1238,1268,0,0
21,-244,0,0,0,0,0,0,0,0,0,-1,1245,1268,0,0
28,-244,0,0,0,0,0,0,0,0,0,-1,1252,1268,0,0
35,-244,0,0,0,0,0,0,0,0,0,-1,1259,1268,0,0
42,-244,0,0,0,0,0,0,0,0,0,-1,1266,1268,0,0
49,-244,0,0,0,0,0,0,0,0,0,-1,1273,1268,0,0
56,-244,0,0,0,0,0,0,0,0,0,-1,1280,1268,0,0
63,-244,0,0,0,0,0,0,0,0,0,-1,1287,1268,0,0
70,-244,0,0,0,0,0,0,0,0,0,-1,1294,1268,0,0
77,-244,0,0,0,0,0,0,0,0,0,-1,1301,1268,0,0
84,-244,0,0,0,0,0,0,0,0,0,-1,1308,1268,0,0
91,-244,0,0,0,0,0,0,0,0,0,-1,1315,1268,0,0
98,-244,0,0,0,0,0,0,0,0,0,-1,1322,1268,0,0
105,-244,0,0,0,0,0,0,0,0,0,-1,1329,1268,0,0
112,-244,0,0,0,0,0,0,0,0,0,-1,1336,1268,0,0
119,-244,0,0,0,0,0,0,0,0,0,-1,1343,1268,0,0
126,-244,0,0,0,0,0,0,0,0,0,-1,1350,1268,0,0
133,-244,0,0,0,0,0,0,0,0,0,-1,1357,1268,0,0
140,-244,0,0,0,0,0,0,0,0,0,-1,1364,1268,0,0
147,-244,0,0,0,0,0,0,0,0,0,-1,1371,1268,0,0
154,-244,0,0,0,0,0,0,0,0,0,-1,1378,1268,0,0
161,-244,0,0,0,0,0,0,0,0,0,-1,1385,1268,0,0
168,-244,0,0,0,0,0,0,0,0,0,-1,1392,1268,0,0
175,-244,0,0,0,0,0,0,0,0,0,-1,1399,1268,0,0
182,-244,0,0,0,0,0,0,0,0,0,-1,1406,1268,0,0
189,-244,0,0,0,0,0,0,0,0,0,-1,1413,1268,0,0
196,-244,0,0,0,0,0,0,0,0,0,-1,1420,1268,0,0
203,-244,0,0,0,0,0,0,0,0,0,-1,1427,1268,0,0
210,-244,0,0,0,0,0,0,0,0,0,-1,1434,1268,0,0
217,-244,0,0,0,0,0,0,0,0,0,-1,1441,1268,0,0
224,-244,0,0,0,0,0,0,0,0,0,-1,1448,1268,0,0
231,-244,0,0,0,0,0,0,0,0,0,-1,1455,1268,0,0
238,-244,0,0,0,0,0,0,0,0,0,-1,1462,1268,0,0
245,-244,0,0,0,0,0,0,0,0,0,-1,1469,1268,0,0
252,-244,0,0,0,0,0,0,0,0,0,-1,1476,1268,0,0
259,-244,0,0,0,0,0,0,0,0,0,-1,1483,1268,0,0
266,-244,0,0,0,0,0,0,0,0,0,-1,1490,1268,0,0
273,-244,0,0,0,0,0,0,0,0,0,-1,1497,1268,0,0
280,-244,0,0,0,0,0,0,0,0,0,-1,1504,1268,0,0
287,-244,0,0,0,0,0,0,0,0,0,-1,1511,1268,0,0
294,-244,0,0,0,0,0,0,0,0,0,-1,1518,1268,0,0
301,-244,0,0,0,0,0,0,0,0,0,-1,1525,1268,0,0
308,-244,0,0,0,0,0,0,0,0,0,-1,1532,1268,0,0
315,-244,0,0,0,0,0,0,0,0,0,-1,1539,1268,0,0
322,-244,0,0,0,0,0,0,0,0,0,-1,1546,1268,0,0
329,-244,0,0,0,0,0,0,0,0,0,-1,1553,1268,0,0
336,-244,0,0,0,0,0,0,0,0,0,-1,1560,1268,0,0
343,-244,0,0,0,0,0,0,0,0,0,-1,1567,1268,0,0
350,-244,0,0,0,0,0,0,0,0,0,-1,1574,1268,0,0
357,-244,0,0,0,0,0,0,0,0,0,-1,1581,1268,0,0
364,-244,0,0,0,0,0,0,0,0,0,-1,1588,1268,0,0
371,-244,0,0,0,0,0,0,0,0,0,-1,1595,1268,0,0
378,-244,0,0,0,0,0,0,0,0,0,-1,1602,1268,0,0
385,-244,0,0,0,0,0,0,0,0,0,-1,1609,1268,0,0
392,-244,0,0,0,0,0,0,0,0,0,-1,1616,1268,0,0
399,-244,0,0,0,0,0,0,0,0,0,-1,1623,1268,0,0
406,-244,0,0,0,0,0,0,0,0,0,-1,1630,1268,0,0
413,-244,0,0,0,0,0,0,0,0,0,-1,1637,1268,0,0
420,-244,0,0,0,0,0,0,0,0,0,-1,1644,1268,0,0
427,-244,0,0,0,0,0,0,0,0,0,-1,1651,1268,0,0
434,-244,0,0,0,0,0,0,0,0,0,-1,1658,1268,0,0
441,-244,0,0,0,0,0,0,0,0,0,-1,1665,1268,0,0
448,-244,0,0,0,0,0,0,0,0,0,-1,1672,1268,0,0
455,-244,0,0,0,0,0,0,0,0,0,-1,1679,1268,0,0
462,-244,0,0,0,0,0,0,0,0,0,-1,1686,1268,0,0
469,-244,0,0,0,0,0,0,0,0,0,-1,1693,1268,0,0
476,-244,0,0,0,0,0,0,0,0,0,-1,1700,1268,0,0
483,-244,0,0,0,0,0,0,0,0,0,-1,1707,1268,0,0
490,-244,0,0,0,0,0,0,0,0,0,-1,1714,1268,0,0
497,-244,0,0,0,0,0,0,0,0,0,-1,1721,1268,0,0
504,-244,0,0,0,0,0,0,0,0,0,-1,1728,1268,0,0
511,-244,0,0,0,0,0,0,0,0,0,-1,1735,1268,0,0
518,-244,0,0,0,0,0,0,0,0,0,-1,1742,1268,0,0
525,-244,0,0,0,0,0,0,0,0,0,-1,1749,1268,0,0
532,-244,0,0,0,0,0,0,0,0,0,-1,1756,1268,0,0
539,-244,0,0,0,0,0,0,0,0,0,-1,1763,1268,0,0
546,-244,0,0,0,0,0,0,0,0,0,-1,1770,1268,0,0
553,-244,0,0,0,0,0,0,0,0,0,-1,1777,1268,0,0
560,-244,0,0,0,0,0,0,0,0,0,-1,1784,1268,0,0
567,-244,0,0,0,0,0,0,0,0,0,-1,1791,1268,0,0
574,-244,0,0,0,0,0,0,0,0,0,-1,1798,1268,0,0
581,-244,0,0,0,0,0,0,0,0,0,-1,1805,1268,0,0
588,-244,0,0,0,0,0,0,0,0,0,-1,1812,1268,0,0
595,-244,0,0,0,0,0,0,0,0,0,-1,1819,1268,0,0
602,-244,0,0,0,0,0,0,0,0,0,-1,1826,1268,0,0
609,-244,0,0,0,0,0,0,0,0,0,-1,1833,1268,0,0
616,-244,75.1563,2.06079,-0.000874546,0.0036588,-0.00197718,0.00439996,-0.0016157,-1.21215,0.00359501,0.0359313,1840,1268,75.1563,-2.06082
623,-244,75.1361,2.06958,-0.000592108,0.00635016,-0.00407198,0.00822971,-0.00247166,-1.13835,0.0064697,0.0283367,1847,1268,75.1361,-2.06962
630,-244,75.0789,2.06665,-0.000341059,0.00874101,-0.00598881,0.0117157,-0.0033158,-1.10978,0.00911898,0.0241075,1854,1268,75.0789,-2.06662
637,-244,74.9783,1.99402,-0.000129855,0.00960073,-0.00679381,0.0130917,-0.00362081,-1.09614,0.0101523,0.0363481,1861,1268,74.9783,-1.99398
644,-244,74.8215,2.14526,7.59374e-05,0.00779356,-0.00564949,0.0107763,-0.00290683,-1.08502,0.00832409,0.0469814,1868,1268,74.8215,-2.14531
651,-244,74.9471,1.72986,0,0,0,0,0,0,0,-1,1875,1268,74.9471,-1.72984
658,-244,71.6105,1.55334,0,0,0,0,0,0,0,-1,1882,1268,71.6104,-1.55332
665,-244,50.7988,1.09888,0,0,0,0,0,0,0,-1,1889,1268,50.7989,-1.09893
672,-244,32.224,3.6123,0,0,0,0,0,0,0,-1,1896,1268,32.224,-3.6123
679,-244,27.2593,7.90649,0,0,0,0,0,0,0,-1,1903,1268,27.2592,-7.9065
686,-244,55.4191,14.3141,0,0,0,0,0,0,0,-1,1910,1268,55.4191,-14.3141
693,-244,55.4044,13.6566,-0.000272094,0.000131994,-7.88798e-05,0.000146846,-0.000286946,-1.38469,0.000254767,0.0395242,1917,1268,55.4044,-13.6566
700,-244,55.4613,12.9083,4.25014e-05,-4.01699e-05,0.000171363,0.000177443,-0.000175112,0.66705,0.000203549,0.0148019,1924,1268,55.4613,-12.9083
707,-244,55.4011,12.1643,-0.000291509,-0.00081182,0.00095735,0.000440404,-0.00154373,0.652729,0.00120313,0.0130461,1931,1268,55.4011,-12.1644
714,-244,55.4382,11.4005,-0.000982173,-0.000701598,0.00148715,0.000651866,-0.00233564,0.832426,0.00181385,0.0167732,1938,1268,55.4382,-11.4006
721,-244,55.3105,10.7332,-0.00163853,-0.000584216,0.00206972,0.00102442,-0.00324717,0.910097,0.0025751,0.0240381,1945,1268,55.3106,-10.7332
728,-244,55.2723,9.9386,-0.00232411,-0.00046629,0.00267052,0.00143227,-0.00422266,0.952772,0.00339478,0.0307162,1952,1268,55.2723,-9.93863
735,-244,55.2111,9.07007,-0.00311281,-0.000459336,0.00343431,0.0018956,-0.00546774,0.969726,0.00441483,0.0294819,1959,1268,55.2111,-9.0701
742,-244,55.1313,8.45349,-0.00398808,-0.000616447,0.00441156,0.00242043,-0.00702495,0.967904,0.00566517,0.0187417,1966,1268,55.1313,-8.45348
749,-244,54.9916,7.86438,-0.00489729,-0.00100176,0.00563865,0.00301606,-0.00891511,0.951697,0.00716362,0.0249575,1973,1268,54.9916,-7.86443
756,-244,54.8276,7.25232,-0.00597728,-0.00170552,0.007386,0.00384722,-0.01153,0.926148,0.00924004,0.0368733,1980,1268,54.8277,-7.25235
763,-244,54.8116,6.41248,0,0,0,0,0,0,0,-1,1987,1268,54.8117,-6.41242
770,-244,53.8104,4.70557,0,0,0,0,0,0,0,-1,1994,1268,53.8104,-4.70556
777,-244,48.7119,2.7002,0,0,0,0,0,0,0,-1,2001,1268,48.712,-2.70019
784,-244,31.7908,5.20081,0,0,0,0,0,0,0,-1,2008,1268,31.7907,-5.20083
791,-244,0,0,0,0,0,0,0,0,0,-1,2015,1268,0,0
798,-244,0,0,0,0,0,0,0,0,0,-1,2022,1268,0,0
805,-244,0,0,0,0,0,0,0,0,0,-1,2029,1268,0,0
812,-244,0,0,0,0,0,0,0,0,0,-1,2036,1268,0,0
-700,-251,0,0,0,0,0,0,0,0,0,-1,524,1275,0,0
-693,-251,0,0,0,0,0,0,0,0,0,-1,531,1275,0,0
-686,-251,0,0,0,0,0,0,0,0,0,-1,538,1275,0,0
-679,-251,0,0,0,0,0,0,0,0,0,-1,545,1275,0,0
-672,-251,0,0,0,0,0,0,0,0,0,-1,552,1275,0,0
-665,-251,-45.2521,2.44568,0,0,0,0,0,0,0,-1,559,1275,-45.2521,-2.44573
-658,-251,-45.5222,1.44397,0,0,0,0,0,0,0,-1,566,1275,-45.5221,-1.44401
-651,-251,-45.8498,0.382935,0,0,0,0,0,0,0,-1,573,1275,-45.8498,-0.382965
-644,-251,-46.2018,-0.658325,0,0,0,0,0,0,0,-1,580,1275,-46.2019,0.658365
-637,-251,-35.2292,3.33899,0,0,0,0,0,0,0,-1,587,1275,-35.2292,-3.33904
-630,-251,-38.0033,5.00269,0,0,0,0,0,0,0,-1,594,1275,-38.0033,-5.00265
-623,-251,-38.04,5.83801,-0.0132971,0.00697379,0.00674519,0.00901311,-0.0153364,1.2772,0.0142153,0.0407963,601,1275,-38.04,-5.83802
-616,-251,-38.0461,6.677,-0.00151253,0.0046972,0.00308619,0.00597009,-0.00278542,1.17961,0.00516526,0.0211681,608,1275,-38.0462,-6.67706
-609,-251,-38.0903,7.44946,0.0027671,0.00361142,0.00109211,0.00436012,0.0020184,0.969829,0.00251962,0.0210705,615,1275,-38.0903,-7.44945
-602,-251,-38.1207,8.24133,0.00180065,0.00267377,0.000336136,0.00278819,0.00168624,1.24272,0.0016215,0.0153181,622,1275,-38.1208,-8.24128
-595,-251,-38.153,9.02454,0.000996697,0.00177393,-0.000446069,0.00197692,0.000793706,-1.14374,0.00114874,0.013685,629,1275,-38.153,-9.02458
-588,-251,-38.1797,9.79834,0.00031041,0.000857099,-0.00123912,0.00185267,-0.000685158,-0.893957,0.00151602,0.0154248,636,1275,-38.1797,-9.79828
-581,-251,-38.2344,10.6035,-0.000308971,-0.000110747,-0.00204868,0.00184122,-0.00226094,-0.809569,0.00237251,0.0143171,643,1275,-38.2344,-10.6035
-574,-251,-38.2728,11.4156,-0.00106075,-0.00131225,-0.00265442,0.0014709,-0.0038439,-0.761729,0.00316881,0.0185703,650,1275,-38.2728,-11.4157
-567,-251,-38.4223,12.1202,-0.00190805,-0.00237511,-0.00292316,0.000790891,-0.00507405,-0.745538,0.00367481,0.0330507,657,1275,-38.4223,-12.1202
-560,-251,-38.4693,13.0273,-0.0030082,-0.00218774,-0.00301392,0.000443744,-0.00563968,-0.853039,0.00391609,0.0474443,664,1275,-38.4693,-13.0274
-553,-251,-38.3224,13.8525,0,0,0,0,0,0,0,-1,671,1275,-38.3225,-13.8526
-546,-251,-12.995,4.5675,0,0,0,0,0,0,0,-1,678,1275,-12.995,-4.56745
-539,-251,-10.7916,0.366333,0,0,0,0,0,0,0,-1,685,1275,-10.7916,-0.366282
-532,-251,-10.7391,-0.00769043,0,0,0,0,0,0,0,-1,692,1275,-10.7391,0.00773227
-525,-251,-29.4286,-0.250244,0,0,0,0,0,0,0,-1,699,1275,-29.4286,0.250266
-518,-251,-32.6981,0.678833,0,0,0,0,0,0,0,-1,706,1275,-32.6981,-0.678787
-511,-251,-29.4731,0.637085,0,0,0,0,0,0,0,-1,713,1275,-29.4731,-0.637025
-504,-251,-30.6428,0.792358,0,0,0,0,0,0,0,-1,720,1275,-30.6427,-0.792335
-497,-251,-54.1249,0.753784,0,0,0,0,0,0,0,-1,727,1275,-54.1249,-0.753774
-490,-251,0,0,0,0,0,0,0,0,0,-1,734,1275,0,0
-483,-251,0,0,0,0,0,0,0,0,0,-1,741,1275,0,0
-476,-251,0,0,0,0,0,0,0,0,0,-1,748,1275,0,0
-469,-251,0,0,0,0,0,0,0,0,0,-1,755,1275,0,0
-462,-251,0,0,0,0,0,0,0,0,0,-1,762,1275,0,0
-455,-251,0,0,0,0,0,0,0,0,0,-1,769,1275,0,0
-448,-251,0,0,0,0,0,0,0,0,0,-1,776,1275,0,0
-441,-251,0,0,0,0,0,0,0,0,0,-1,783,1275,0,0
-434,-251,0,0,0,0,0,0,0,0,0,-1,790,1275,0,0
-427,-251,0,0,0,0,0,0,0,0,0,-1,797,1275,0,0
-420,-251,0,0,0,0,0,0,0,0,0,-1,804,1275,0,0
-413,-251,0,0,0,0,0,0,0,0,0,-1,811,1275,0,0
-406,-251,0,0,0,0,0,0,0,0,0,-1,818,1275,0,0
-399,-251,0,0,0,0,0,0,0,0,0,-1,825,1275,0,0
-392,-251,0,0,0,0,0,0,0,0,0,-1,832,1275,0,0
-385,-251,0,0,0,0,0,0,0,0,0,-1,839,1275,0,0
-378,-251,0,0,0,0,0,0,0,0,0,-1,846,1275,0,0
-371,-251,0,0,0,0,0,0,0,0,0,-1,853,1275,0,0
-364,-251,0,0,0,0,0,0,0,0,0,-1,860,1275,0,0
-357,-251,0,0,0,0,0,0,0,0,0,-1,867,1275,0,0
-350,-251,0,0,0,0,0,0,0,0,0,-1,874,1275,0,0
-343,-251,0,0,0,0,0,0,0,0,0,-1,881,1275,0,0
-336,-251,0,0,0,0,0,0,0,0,0,-1,888,1275,0,0
-329,-251,0,0,0,0,0,0,0,0,0,-1,895,1275,0,0
-322,-251,0,0,0,0,0,0,0,0,0,-1,902,1275,0,0
-315,-251,0,0,0,0,0,0,0,0,0,-1,909,1275,0,0
-308,-251,0,0,0,0,0,0,0,0,0,-1,916,1275,0,0
-301,-251,0,0,0,0,0,0,0,0,0,-1,923,1275,0,0
-294,-251,0,0,0,0,0,0,0,0,0,-1,930,1275,0,0
-287,-251,0,0,0,0,0,0,0,0,0,-1,937,1275,0,0
-280,-251,0,0,0,0,0,0,0,0,0,-1,944,1275,0,0
-273,-251,0,0,0,0,0,0,0,0,0,-1,951,1275,0,0
-266,-251,0,0,0,0,0,0,0,0,0,-1,958,1275,0,0
-259,-251,0,0,0,0,0,0,0,0,0,-1,965,1275,0,0
-252,-251,0,0,0,0,0,0,0,0,0,-1,972,1275,0,0
-245,-251,0,0,0,0,0,0,0,0,0,-1,979,1275,0,0
-238,-251,0,0,0,0,0,0,0,0,0,-1,986,1275,0,0
-231,-251,0,0,0,0,0,0,0,0,0,-1,993,1275,0,0
-224,-251,0,0,0,0,0,0,0,0,0,-1,1000,1275,0,0
-217,-251,0,0,0,0,0,0,0,0,0,-1,1007,1275,0,0
-210,-251,0,0,0,0,0,0,0,0,0,-1,1014,1275,0,0
-203,-251,0,0,0,0,0,0,0,0,0,-1,1021,1275,0,0
-196,-251,0,0,0,0,0,0,0,0,0,-1,1028,1275,0,0
-189,-251,0,0,0,0,0,0,0,0,0,-1,1035,1275,0,0
-182,-251,0,0,0,0,0,0,0,0,0,-1,1042,1275,0,0
-175,-251,0,0,0,0,0,0,0,0,0,-1,1049,1275,0,0
-168,-251,0,0,0,0,0,0,0,0,0,-1,1056,1275,0,0
-161,-251,0,0,0,0,0,0,0,0,0,-1,1063,1275,0,0
-154,-251,0,0,0,0,0,0,0,0,0,-1,1070,1275,0,0
-147,-251,0,0,0,0,0,0,0,0,0,-1,1077,1275,0,0
-140,-251,0,0,0,0,0,0,0,0,0,-1,1084,1275,0,0
-133,-251,0,0,0,0,0,0,0,0,0,-1,1091,1275,0,0
-126,-251,0,0,0,0,0,0,0,0,0,-1,1098,1275,0,0
-119,-251,0,0,0,0,0,0,0,0,0,-1,1105,1275,0,0
-112,-251,0,0,0,0,0,0,0,0,0,-1,1112,1275,0,0
-105,-251,0,0,0,0,0,0,0,0,0,-1,1119,1275,0,0
-98,-251,0,0,0,0,0,0,0,0,0,-1,1126,1275,0,0
-91,-251,0,0,0,0,0,0,0,0,0,-1,1133,1275,0,0
-84,-251,0,0,0,0,0,0,0,0,0,-1,1140,1275,0,0
-77,-251,0,0,0,0,0,0,0,0,0,-1,1147,1275,0,0
-70,-251,0,0,0,0,0,0,0,0,0,-1,1154,1275,0,0
-63,-251,0,0,0,0,0,0,0,0,0,-1,1161,1275,0,0
-56,-251,0,0,0,0,0,0,0,0,0,-1,1168,1275,0,0
-49,-251,0,0,0,0,0,0,0,0,0,-1,1175,1275,0,0
-42,-251,0,0,0,0,0,0,0,0,0,-1,1182,1275,0,0
-35,-251,0,0,0,0,0,0,0,0,0,-1,1189,1275,0,0
-28,-251,0,0,0,0,0,0,0,0,0,-1,1196,1275,0,0
-21,-251,0,0,0,0,0,0,0,0,0,-1,1203,1275,0,0
-14,-251,0,0,0,0,0,0,0,0,0,-1,1210,1275,0,0
-7,-251,0,0,0,0,0,0,0,0,0,-1,1217,1275,0,0
0,-251,0,0,0,0,0,0,0,0,0,-1,1224,1275,0,0
7,-251,0,0,0,0,0,0,0,0,0,-1,1231,1275,0,0
14,-251,0,0,0,0,0,0,0,0,0,-1,1238,1275,0,0
21,-251,0,0,0,0,0,0,0,0,0,-1,1245,1275,0,0
28,-251,0,0,0,0,0,0,0,0,0,-1,1252,1275,0,0
35,-251,0,0,0,0,0,0,0,0,0,-1,1259,1275,0,0
42,-251,0,0,0,0,0,0,0,0,0,-1,1266,1275,0,0
49,-251,0,0,0,0,0,0,0,0,0,-1,1273,1275,0,0
56,-251,0,0,0,0,0,0,0,0,0,-1,1280,1275,0,0
63,-251,0,0,0,0,0,0,0,0,0,-1,1287,1275,0,0
70,-251,0,0,0,0,0,0,0,0,0,-1,1294,1275,0,0
77,-251,0,0,0,0,0,0,0,0,0,-1,1301,1275,0,0
84,-251,0,0,0,0,0,0,0,0,0,-1,1308,1275,0,0
91,-251,0,0,0,0,0,0,0,0,0,-1,1315,1275,0,0
98,-251,0,0,0,0,0,0,0,0,0,-1,1322,1275,0,0
105,-251,0,0,0,0,0,0,0,0,0,-1,1329,1275,0,0
112,-251,0,0,0,0,0,0,0,0,0,-1,1336,1275,0,0
119,-251,0,0,0,0,0,0,0,0,0,-1,1343,1275,0,0
126,-251,0,0,0,0,0,0,0,0,0,-1,1350,1275,0,0
133,-251,0,0,0,0,0,0,0,0,0,-1,1357,1275,0,0
140,-251,0,0,0,0,0,0,0,0,0,-1,1364,1275,0,0
147,-251,0,0,0,0,0,0,0,0,0,-1,1371,1275,0,0
154,-251,0,0,0,0,0,0,0,0,0,-1,1378,1275,0,0
161,-251,0,0,0,0,0,0,0,0,0,-1,1385,1275,0,0
168,-251,0,0,0,0,0,0,0,0,0,-1,1392,1275,0,0
175,-251,0,0,0,0,0,0,0,0,0,-1,1399,1275,0,0
182,-251,0,0,0,0,0,0,0,0,0,-1,1406,1275,0,0
189,-251,0,0,0,0,0,0,0,0,0,-1,1413,1275,0,0
196,-251,0,0,0,0,0,0,0,0,0,-1,1420,1275,0,0
203,-251,0,0,0,0,0,0,0,0,0,-1,1427,1275,0,0
210,-251,0,0,0,0,0,0,0,0,0,-1,1434,1275,0,0
217,-251,0,0,0,0,0,0,0,0,0,-1,1441,1275,0,0
224,-251,0,0,0,0,0,0,0,0,0,-1,1448,1275,0,0
231,-251,0,0,0,0,0,0,0,0,0,-1,1455,1275,0,0
238,-251,0,0,0,0,0,0,0,0,0,-1,1462,1275,0,0
245,-251,0,0,0,0,0,0,0,0,0,-1,1469,1275,0,0
252,-251,0,0,0,0,0,0,0,0,0,-1,1476,1275,0,0
259,-251,0,0,0,0,0,0,0,0,0,-1,1483,1275,0,0
266,-251,0,0,0,0,0,0,0,0,0,-1,1490,1275,0,0
273,-251,0,0,0,0,0,0,0,0,0,-1,1497,1275,0,0
280,-251,0,0,0,0,0,0,0,0,0,-1,1504,1275,0,0
287,-251,0,0,0,0,0,0,0,0,0,-1,1511,1275,0,0
294,-251,0,0,0,0,0,0,0,0,0,-1,1518,1275,0,0
301,-251,0,0,0,0,0,0,0,0,0,-1,1525,1275,0,0
308,-251,0,0,0,0,0,0,0,0,0,-1,1532,1275,0,0
315,-251,0,0,0,0,0,0,0,0,0,-1,1539,1275,0,0
322,-251,0,0,0,0,0,0,0,0,0,-1,1546,1275,0,0
329,-251,0,0,0,0,0,0,0,0,0,-1,1553,1275,0,0
336,-251,0,0,0,0,0,0,0,0,0,-1,1560,1275,0,0
343,-251,0,0,0,0,0,0,0,0,0,-1,1567,1275,0,0
350,-251,0,0,0,0,0,0,0,0,0,-1,1574,1275,0,0
357,-251,0,0,0,0,0,0,0,0,0,-1,1581,1275,0,0
364,-251,0,0,0,0,0,0,0,0,0,-1,1588,1275,0,0
371,-251,0,0,0,0,0,0,0,0,0,-1,1595,1275,0,0
378,-251,0,0,0,0,0,0,0,0,0,-1,1602,1275,0,0
385,-251,0,0,0,0,0,0,0,0,0,-1,1609,1275,0,0
392,-251,0,0,0,0,0,0,0,0,0,-1,1616,1275,0,0
399,-251,0,0,0,0,0,0,0,0,0,-1,1623,1275,0,0
406,-251,0,0,0,0,0,0,0,0,0,-1,1630,1275,0,0
413,-251,0,0,0,0,0,0,0,0,0,-1,1637,1275,0,0
420,-251,0,0,0,0,0,0,0,0,0,-1,1644,1275,0,0
427,-251,0,0,0,0,0,0,0,0,0,-1,1651,1275,0,0
434,-251,0,0,0,0,0,0,0,0,0,-1,1658,1275,0,0
441,-251,0,0,0,0,0,0,0,0,0,-1,1665,1275,0,0
448,-251,0,0,0,0,0,0,0,0,0,-1,1672,1275,0,0
455,-251,0,0,0,0,0,0,0,0,0,-1,1679,1275,0,0
462,-251,0,0,0,0,0,0,0,0,0,-1,1686,1275,0,0
469,-251,0,0,0,0,0,0,0,0,0,-1,1693,1275,0,0
476,-251,0,0,0,0,0,0,0,0,0,-1,1700,1275,0,0
483,-251,0,0,0,0,0,0,0,0,0,-1,1707,1275,0,0
490,-251,0,0,0,0,0,0,0,0,0,-1,1714,1275,0,0
497,-251,0,0,0,0,0,0,0,0,0,-1,1721,1275,0,0
504,-251,0,0,0,0,0,0,0,0,0,-1,1728,1275,0,0
511,-251,0,0,0,0,0,0,0,0,0,-1,1735,1275,0,0
518,-251,0,0,0,0,0,0,0,0,0,-1,1742,1275,0,0
525,-251,0,0,0,0,0,0,0,0,0,-1,1749,1275,0,0
532,-251,0,0,0,0,0,0,0,0,0,-1,1756,1275,0,0
539,-251,0,0,0,0,0,0,0,0,0,-1,1763,1275,0,0
546,-251,0,0,0,0,0,0,0,0,0,-1,1770,1275,0,0
553,-251,0,0,0,0,0,0,0,0,0,-1,1777,1275,0,0
560,-251,0,0,0,0,0,0,0,0,0,-1,1784,1275,0,0
567,-251,0,0,0,0,0,0,0,0,0,-1,1791,1275,0,0
574,-251,0,0,0,0,0,0,0,0,0,-1,1798,1275,0,0
581,-251,0,0,0,0,0,0,0,0,0,-1,1805,1275,0,0
588,-251,0,0,0,0,0,0,0,0,0,-1,1812,1275,0,0
595,-251,0,0,0,0,0,0,0,0,0,-1,1819,1275,0,0
602,-251,0,0,0,0,0,0,0,0,0,-1,1826,1275,0,0
609,-251,75.0164,2.0708,-0.00127101,0.00233611,-0.00176381,0.00305522,-0.00199012,-1.18367,0.00293448,0.0312867,1833,1275,75.0163,-2.07077
616,-251,75.0869,2.0011,-0.000629808,0.00556204,-0.00420676,0.00768929,-0.00275706,-1.10262,0.00625127,0.0279148,1840,1275,75.087,-2.00108
623,-251,75.077,2.03076,-3.83568e-05,0.00857346,-0.00660988,0.0121562,-0.00362113,-1.07409,0.00954303,0.0238634,1847,1275,75.077,-2.03072
630,-251,75.0134,2.00757,0.000352654,0.0105096,-0.0080784,0.0149732,-0.00411097,-1.06601,0.0115979,0.033405,1854,1275,75.0134,-2.0076
637,-251,74.9443,1.92151,0.000407972,0.0102114,-0.00772647,0.0144598,-0.00384045,-1.06807,0.0111429,0.0394974,1861,1275,74.9443,-1.92153
644,-251,74.8942,1.83484,0,0,0,0,0,0,0,-1,1868,1275,74.8942,-1.8348
651,-251,75.0613,2.64282,0,0,0,0,0,0,0,-1,1875,1275,75.0613,-2.6428
658,-251,64.3931,2.57288,0,0,0,0,0,0,0,-1,1882,1275,64.393,-2.57287
665,-251,32.9579,2.60229,0,0,0,0,0,0,0,-1,1889,1275,32.9579,-2.60231
672,-251,26.0721,4.53064,0,0,0,0,0,0,0,-1,1896,1275,26.0721,-4.53063
679,-251,29.1344,8.63782,0,0,0,0,0,0,0,-1,1903,1275,29.1344,-8.63778
686,-251,54.8394,14.3412,0,0,0,0,0,0,0,-1,1910,1275,54.8394,-14.3412
693,-251,54.7236,13.6932,-0.000117428,-0.000122667,7.78152e-05,-4.2188e-05,-0.000197907,0.768574,0.000120365,0.0350897,1917,1275,54.7236,-13.6933
700,-251,54.6946,12.9454,0.000177832,-0.000266962,0.000274406,0.000308648,-0.000397778,0.444853,0.000408936,0.0119554,1924,1275,54.6945,-12.9454
707,-251,54.6687,12.1899,-0.000264705,-0.000894502,0.000982705,0.000452322,-0.00161153,0.630347,0.00125265,0.0124253,1931,1275,54.6687,-12.19
714,-251,54.6691,11.446,-0.00103173,-0.000719637,0.00150703,0.000639404,-0.00239077,0.836988,0.00184431,0.0169426,1938,1275,54.6691,-11.446
721,-251,54.5317,10.7528,-0.00180009,-0.000565523,0.00209705,0.0010032,-0.00336882,0.928535,0.00264449,0.0266382,1945,1275,54.5317,-10.7528
728,-251,54.4983,10.0652,-0.00262111,-0.000470998,0.00275742,0.00141353,-0.00450564,0.971273,0.00356948,0.0319086,1952,1275,54.4982,-10.0652
735,-251,54.4957,9.18701,-0.00354005,-0.000493556,0.0035778,0.00187176,-0.00590537,0.986651,0.00468711,0.0246251,1959,1275,54.4958,-9.187
742,-251,54.3794,8.52625,-0.004553,-0.000659891,0.00459267,0.00238171,-0.00759461,0.985842,0.00601623,0.0190637,1966,1275,54.3794,-8.52626
749,-251,54.1411,8.09448,-0.00561813,-0.00104352,0.00584949,0.00294996,-0.00961162,0.971771,0.00758476,0.0382404,1973,1275,54.1411,-8.09448
756,-251,53.9536,7.5741,0,0,0,0,0,0,0,-1,1980,1275,53.9536,-7.57412
763,-251,43.3652,5.7583,0,0,0,0,0,0,0,-1,1987,1275,43.3653,-5.75827
770,-251,49.4386,3.45508,0,0,0,0,0,0,0,-1,1994,1275,49.4386,-3.4551
777,-251,31.5731,4.33252,0,0,0,0,0,0,0,-1,2001,1275,31.5731,-4.33251
784,-251,32.0776,5.78247,0,0,0,0,0,0,0,-1,2008,1275,32.0776,-5.78247
791,-251,0,0,0,0,0,0,0,0,0,-1,2015,1275,0,0
798,-251,0,0,0,0,0,0,0,0,0,-1,2022,1275,0,0
805,-251,0,0,0,0,0,0,0,0,0,-1,2029,1275,0,0
812,-251,0,0,0,0,0,0,0,0,0,-1,2036,1275,0,0
-700,-258,0,0,0,0,0,0,0,0,0,-1,524,1282,0,0
-693,-258,0,0,0,0,0,0,0,0,0,-1,531,1282,0,0
-686,-258,0,0,0,0,0,0,0,0,0,-1,538,1282,0,0
-679,-258,0,0,0,0,0,0,0,0,0,-1,545,1282,0,0
-672,-258,0,0,0,0,0,0,0,0,0,-1,552,1282,0,0
-665,-258,-44.8717,2.03601,0,0,0,0,0,0,0,-1,559,1282,-44.8717,-2.03603
-658,-258,-45.2628,1.20544,0,0,0,0,0,0,0,-1,566,1282,-45.2627,-1.20545
-651,-258,-45.5418,0.0863037,0,0,0,0,0,0,0,-1,573,1282,-45.5418,-0.0863288
-644,-258,-45.1855,0.336792,0,0,0,0,0,0,0,-1,580,1282,-45.1855,-0.336733
-637,-258,-45.329,0.234253,0,0,0,0,0,0,0,-1,587,1282,-45.329,-0.234296
-630,-258,-34.6896,4.45715,0,0,0,0,0,0,0,-1,594,1282,-34.6896,-4.45712
-623,-258,-37.2621,5.83936,0,0,0,0,0,0,0,-1,601,1282,-37.2621,-5.83935
-616,-258,-37.311,6.66626,0.00063915,0.00473319,0.00312667,0.00642333,-0.00105099,1.07523,0.00467212,0.0357413,608,1282,-37.311,-6.66628
-609,-258,-37.2831,7.4845,0.00306784,0.00389291,0.00154156,0.00507617,0.00188457,0.91614,0.00296294,0.0183997,615,1282,-37.2831,-7.48454
-602,-258,-37.3177,8.28137,0.00200698,0.00291508,0.0008202,0.00339852,0.00152354,1.03819,0.00196563,0.0144565,622,1282,-37.3177,-8.28136
-595,-258,-37.3655,9.06567,0.00112375,0.00199153,0.000100465,0.00200301,0.00111227,1.45703,0.00115879,0.0115356,629,1282,-37.3655,-9.06571
-588,-258,-37.3879,9.85718,0.000381136,0.00108479,-0.00058255,0.00141351,5.2414e-05,-1.05705,0.000925364,0.0129614,636,1282,-37.3879,-9.85713
-581,-258,-37.4238,10.6434,-0.000307398,0.000133689,-0.00125102,0.00118346,-0.00135717,-0.872647,0.00146798,0.0144603,643,1282,-37.4238,-10.6435
-574,-258,-37.4232,11.449,-0.00103715,-0.000986812,-0.00182205,0.000810247,-0.00283421,-0.792304,0.00220964,0.0145367,650,1282,-37.4232,-11.449
-567,-258,-37.6379,12.1666,-0.00175526,-0.00223627,-0.0022196,0.000236829,-0.00422836,-0.731432,0.00290107,0.0197662,657,1282,-37.6379,-12.1667
-560,-258,-37.9387,12.7432,0,0,0,0,0,0,0,-1,664,1282,-37.9387,-12.7432
-553,-258,-32.5081,11.6642,0,0,0,0,0,0,0,-1,671,1282,-32.5081,-11.6641
-546,-258,-14.2231,5.92029,0,0,0,0,0,0,0,-1,678,1282,-14.2231,-5.92028
-539,-258,-10.2228,4.05823,0,0,0,0,0,0,0,-1,685,1282,-10.2228,-4.05823
-532,-258,-10.2173,-0.353882,0,0,0,0,0,0,0,-1,692,1282,-10.2173,0.353836
-525,-258,-21.8661,-1.5929,0,0,0,0,0,0,0,-1,699,1282,-21.8661,1.59285
-518,-258,-29.2484,0.123169,0,0,0,0,0,0,0,-1,706,1282,-29.2484,-0.123186
-511,-258,-23.5061,1.16833,0,0,0,0,0,0,0,-1,713,1282,-23.5061,-1.16833
-504,-258,-22.9178,0.484131,0,0,0,0,0,0,0,-1,720,1282,-22.9178,-0.484106
-497,-258,-17.8047,0.730469,0,0,0,0,0,0,0,-1,727,1282,-17.8048,-0.730489
-490,-258,-15.4346,0.632935,0,0,0,0,0,0,0,-1,734,1282,-15.4346,-0.632917
-483,-258,0,0,0,0,0,0,0,0,0,-1,741,1282,0,0
-476,-258,0,0,0,0,0,0,0,0,0,-1,748,1282,0,0
-469,-258,0,0,0,0,0,0,0,0,0,-1,755,1282,0,0
-462,-258,0,0,0,0,0,0,0,0,0,-1,762,1282,0,0
-455,-258,0,0,0,0,0,0,0,0,0,-1,769,1282,0,0
-448,-258,0,0,0,0,0,0,0,0,0,-1,776,1282,0,0
-441,-258,0,0,0,0,0,0,0,0,0,-1,783,1282,0,0
-434,-258,0,0,0,0,0,0,0,0,0,-1,790,1282,0,0
-427,-258,0,0,0,0,0,0,0,0,0,-1,797,1282,0,0
-420,-258,0,0,0,0,0,0,0,0,0,-1,804,1282,0,0
-413,-258,0,0,0,0,0,0,0,0,0,-1,811,1282,0,0
-406,-258,0,0,0,0,0,0,0,0,0,-1,818,1282,0,0
-399,-258,0,0,0,0,0,0,0,0,0,-1,825,1282,0,0
-392,-258,0,0,0,0,0,0,0,0,0,-1,832,1282,0,0
-385,-258,0,0,0,0,0,0,0,0,0,-1,839,1282,0,0
-378,-258,0,0,0,0,0,0,0,0,0,-1,846,1282,0,0
-371,-258,0,0,0,0,0,0,0,0,0,-1,853,1282,0,0
-364,-258,0,0,0,0,0,0,0,0,0,-1,860,1282,0,0
-357,-258,0,0,0,0,0,0,0,0,0,-1,867,1282,0,0
-350,-258,0,0,0,0,0,0,0,0,0,-1,874,1282,0,0
-343,-258,0,0,0,0,0,0,0,0,0,-1,881,1282,0,0
-336,-258,0,0,0,0,0,0,0,0,0,-1,888,1282,0,0
-329,-258,0,0,0,0,0,0,0,0,0,-1,895,1282,0,0
-322,-258,0,0,0,0,0,0,0,0,0,-1,902,1282,0,0
-315,-258,0,0,0,0,0,0,0,0,0,-1,909,1282,0,0
-308,-258,0,0,0,0,0,0,0,0,0,-1,916,1282,0,0
-301,-258,0,0,0,0,0,0,0,0,0,-1,923,1282,0,0
-294,-258,0,0,0,0,0,0,0,0,0,-1,930,1282,0,0
-287,-258,0,0,0,0,0,0,0,0,0,-1,937,1282,0,0
-280,-258,0,0,0,0,0,0,0,0,0,-1,944,1282,0,0
-273,-258,0,0,0,0,0,0,0,0,0,-1,951,1282,0,0
-266,-258,0,0,0,0,0,0,0,0,0,-1,958,1282,0,0
-259,-258,0,0,0,0,0,0,0,0,0,-1,965,1282,0,0
-252,-258,0,0,0,0,0,0,0,0,0,-1,972,1282,0,0
-245,-258,0,0,0,0,0,0,0,0,0,-1,979,1282,0,0
-238,-258,0,0,0,0,0,0,0,0,0,-1,986,1282,0,0
-231,-258,0,0,0,0,0,0,0,0,0,-1,993,1282,0,0
-224,-258,0,0,0,0,0,0,0,0,0,-1,1000,1282,0,0
-217,-258,0,0,0,0,0,0,0,0,0,-1,1007,1282,0,0
-210,-258,0,0,0,0,0,0,0,0,0,-1,1014,1282,0,0
-203,-258,0,0,0,0,0,0,0,0,0,-1,1021,1282,0,0
-196,-258,0,0,0,0,0,0,0,0,0,-1,1028,1282,0,0
-189,-258,0,0,0,0,0,0,0,0,0,-1,1035,1282,0,0
-182,-258,0,0,0,0,0,0,0,0,0,-1,1042,1282,0,0
-175,-258,0,0,0,0,0,0,0,0,0,-1,1049,1282,0,0
-168,-258,0,0,0,0,0,0,0,0,0,-1,1056,1282,0,0
-161,-258,0,0,0,0,0,0,0,0,0,-1,1063,1282,0,0
-154,-258,0,0,0,0,0,0,0,0,0,-1,1070,1282,0,0
-147,-258,0,0,0,0,0,0,0,0,0,-1,1077,1282,0,0
-140,-258,0,0,0,0,0,0,0,0,0,-1,1084,1282,0,0
-133,-258,0,0,0,0,0,0,0,0,0,-1,1091,1282,0,0
-126,-258,0,0,0,0,0,0,0,0,0,-1,1098,1282,0,0
-119,-258,0,0,0,0,0,0,0,0,0,-1,1105,1282,0,0
-112,-258,0,0,0,0,0,0,0,0,0,-1,1112,1282,0,0
-105,-258,0,0,0,0,0,0,0,0,0,-1,1119,1282,0,0
-98,-258,0,0,0,0,0,0,0,0,0,-1,1126,1282,0,0
-91,-258,0,0,0,0,0,0,0,0,0,-1,1133,1282,0,0
-84,-258,0,0,0,0,0,0,0,0,0,-1,1140,1282,0,0
-77,-258,0,0,0,0,0,0,0,0,0,-1,1147,1282,0,0
-70,-258,0,0,0,0,0,0,0,0,0,-1,1154,1282,0,0
-63,-258,0,0,0,0,0,0,0,0,0,-1,1161,1282,0,0
-56,-258,0,0,0,0,0,0,0,0,0,-1,1168,1282,0,0
-49,-258,0,0,0,0,0,0,0,0,0,-1,1175,1282,0,0
-42,-258,0,0,0,0,0,0,0,0,0,-1,1182,1282,0,0
-35,-258,0,0,0,0,0,0,0,0,0,-1,1189,1282,0,0
-28,-258,0,0,0,0,0,0,0,0,0,-1,1196,1282,0,0
-21,-258,0,0,0,0,0,0,0,0,0,-1,1203,1282,0,0
-14,-258,0,0,0,0,0,0,0,0,0,-1,1210,1282,0,0
-7,-258,0,0,0,0,0,0,0,0,0,-1,1217,1282,0,0
0,-258,0,0,0,0,0,0,0,0,0,-1,1224,1282,0,0
7,-258,0,0,0,0,0,0,0,0,0,-1,1231,1282,0,0
14,-258,0,0,0,0,0,0,0,0,0,-1,1238,1282,0,0
21,-258,0,0,0,0,0,0,0,0,0,-1,1245,1282,0,0
28,-258,0,0,0,0,0,0,0,0,0,-1,1252,1282,0,0
35,-258,0,0,0,0,0,0,0,0,0,-1,1259,1282,0,0
42,-258,0,0,0,0,0,0,0,0,0,-1,1266,1282,0,0
49,-258,0,0,0,0,0,0,0,0,0,-1,1273,1282,0,0
56,-258,0,0,0,0,0,0,0,0,0,-1,1280,1282,0,0
63,-258,0,0,0,0,0,0,0,0,0,-1,1287,1282,0,0
70,-258,0,0,0,0,0,0,0,0,0,-1,1294,1282,0,0
77,-258,0,0,0,0,0,0,0,0,0,-1,1301,1282,0,0
84,-258,0,0,0,0,0,0,0,0,0,-1,1308,1282,0,0
91,-258,0,0,0,0,0,0,0,0,0,-1,1315,1282,0,0
98,-258,0,0,0,0,0,0,0,0,0,-1,1322,1282,0,0
105,-258,0,0,0,0,0,0,0,0,0,-1,1329,1282,0,0
112,-258,0,0,0,0,0,0,0,0,0,-1,1336,1282,0,0
119,-258,0,0,0,0,0,0,0,0,0,-1,1343,1282,0,0
126,-258,0,0,0,0,0,0,0,0,0,-1,1350,1282,0,0
133,-258,0,0,0,0,0,0,0,0,0,-1,1357,1282,0,0
140,-258,0,0,0,0,0,0,0,0,0,-1,1364,1282,0,0
147,-258,0,0,0,0,0,0,0,0,0,-1,1371,1282,0,0
154,-258,0,0,0,0,0,0,0,0,0,-1,1378,1282,0,0
161,-258,0,0,0,0,0,0,0,0,0,-1,1385,1282,0,0
168,-258,0,0,0,0,0,0,0,0,0,-1,1392,1282,0,0
175,-258,0,0,0,0,0,0,0,0,0,-1,1399,1282,0,0
182,-258,0,0,0,0,0,0,0,0,0,-1,1406,1282,0,0
189,-258,0,0,0,0,0,0,0,0,0,-1,1413,1282,0,0
196,-258,0,0,0,0,0,0,0,0,0,-1,1420,1282,0,0
203,-258,0,0,0,0,0,0,0,0,0,-1,1427,1282,0,0
210,-258,0,0,0,0,0,0,0,0,0,-1,1434,1282,0,0
217,-258,0,0,0,0,0,0,0,0,0,-1,1441,1282,0,0
224,-258,0,0,0,0,0,0,0,0,0,-1,1448,1282,0,0
231,-258,0,0,0,0,0,0,0,0,0,-1,1455,1282,0,0
238,-258,0,0,0,0,0,0,0,0,0,-1,1462,1282,0,0
245,-258,0,0,0,0,0,0,0,0,0,-1,1469,1282,0,0
252,-258,0,0,0,0,0,0,0,0,0,-1,1476,1282,0,0
259,-258,0,0,0,0,0,0,0,0,0,-1,1483,1282,0,0
266,-258,0,0,0,0,0,0,0,0,0,-1,1490,1282,0,0
273,-258,0,0,0,0,0,0,0,0,0,-1,1497,1282,0,0
280,-258,0,0,0,0,0,0,0,0,0,-1,1504,1282,0,0
287,-258,0,0,0,0,0,0,0,0,0,-1,1511,1282,0,0
294,-258,0,0,0,0,0,0,0,0,0,-1,1518,1282,0,0
301,-258,0,0,0,0,0,0,0,0,0,-1,1525,1282,0,0
308,-258,0,0,0,0,0,0,0,0,0,-1,1532,1282,0,0
315,-258,0,0,0,0,0,0,0,0,0,-1,1539,1282,0,0
322,-258,0,0,0,0,0,0,0,0,0,-1,1546,1282,0,0
329,-258,0,0,0,0,0,0,0,0,0,-1,1553,1282,0,0
336,-258,0,0,0,0,0,0,0,0,0,-1,1560,1282,0,0
343,-258,0,0,0,0,0,0,0,0,0,-1,1567,1282,0,0
350,-258,0,0,0,0,0,0,0,0,0,-1,1574,1282,0,0
357,-258,0,0,0,0,0,0,0,0,0,-1,1581,1282,0,0
364,-258,0,0,0,0,0,0,0,0,0,-1,1588,1282,0,0
371,-258,0,0,0,0,0,0,0,0,0,-1,1595,1282,0,0
378,-258,0,0,0,0,0,0,0,0,0,-1,1602,1282,0,0
385,-258,0,0,0,0,0,0,0,0,0,-1,1609,1282,0,0
392,-258,0,0,0,0,0,0,0,0,0,-1,1616,1282,0,0
399,-258,0,0,0,0,0,0,0,0,0,-1,1623,1282,0,0
406,-258,0,0,0,0,0,0,0,0,0,-1,1630,1282,0,0
413,-258,0,0,0,0,0,0,0,0,0,-1,1637,1282,0,0
420,-258,0,0,0,0,0,0,0,0,0,-1,1644,1282,0,0
427,-258,0,0,0,0,0,0,0,0,0,-1,1651,1282,0,0
434,-258,0,0,0,0,0,0,0,0,0,-1,1658,1282,0,0
441,-258,0,0,0,0,0,0,0,0,0,-1,1665,1282,0,0
448,-258,0,0,0,0,0,0,0,0,0,-1,1672,1282,0,0
455,-258,0,0,0,0,0,0,0,0,0,-1,1679,1282,0,0
462,-258,0,0,0,0,0,0,0,0,0,-1,1686,1282,0,0
469,-258,0,0,0,0,0,0,0,0,0,-1,1693,1282,0,0
476,-258,0,0,0,0,0,0,0,0,0,-1,1700,1282,0,0
483,-258,0,0,0,0,0,0,0,0,0,-1,1707,1282,0,0
490,-258,0,0,0,0,0,0,0,0,0,-1,1714,1282,0,0
497,-258,0,0,0,0,0,0,0,0,0,-1,1721,1282,0,0
504,-258,0,0,0,0,0,0,0,0,0,-1,1728,1282,0,0
511,-258,0,0,0,0,0,0,0,0,0,-1,1735,1282,0,0
518,-258,0,0,0,0,0,0,0,0,0,-1,1742,1282,0,0
525,-258,0,0,0,0,0,0,0,0,0,-1,1749,1282,0,0
532,-258,0,0,0,0,0,0,0,0,0,-1,1756,1282,0,0
539,-258,0,0,0,0,0,0,0,0,0,-1,1763,1282,0,0
546,-258,0,0,0,0,0,0,0,0,0,-1,1770,1282,0,0
553,-258,0,0,0,0,0,0,0,0,0,-1,1777,1282,0,0
560,-258,0,0,0,0,0,0,0,0,0,-1,1784,1282,0,0
567,-258,0,0,0,0,0,0,0,0,0,-1,1791,1282,0,0
574,-258,0,0,0,0,0,0,0,0,0,-1,1798,1282,0,0
581,-258,0,0,0,0,0,0,0,0,0,-1,1805,1282,0,0
588,-258,0,0,0,0,0,0,0,0,0,-1,1812,1282,0,0
595,-258,0,0,0,0,0,0,0,0,0,-1,1819,1282,0,0
602,-258,0,0,0,0,0,0,0,0,0,-1,1826,1282,0,0
609,-258,75.0313,2.06396,-0.000885652,0.00440482,-0.00474668,0.00719358,-0.0036744,-1.03961,0.00638334,0.0261466,1833,1282,75.0313,-2.06396
616,-258,75.0427,2.05469,0.00020972,0.00792209,-0.00750677,0.0125052,-0.00437339,-1.02267,0.0101148,0.0237593,1840,1282,75.0427,-2.05473
623,-258,75.0029,1.9845,0.00101308,0.0108164,-0.0096834,0.016768,-0.00493859,-1.01969,0.013138,0.0344208,1847,1282,75.0029,-1.98452
630,-258,75.0181,1.86377,0.00122775,0.0116408,-0.00993472,0.0176507,-0.00478208,-1.02676,0.0136434,0.0448647,1854,1282,75.0181,-1.86378
637,-258,75.2582,1.47791,0.000917121,0.0103052,-0.00843225,0.0152619,-0.00403958,-1.03938,0.0117548,0.0455266,1861,1282,75.2581,-1.47789
644,-258,75.4084,1.18762,0,0,0,0,0,0,0,-1,1868,1282,75.4085,-1.18757
651,-258,73.8274,1.62305,0,0,0,0,0,0,0,-1,1875,1282,73.8274,-1.62306
658,-258,45.4424,3.1405,0,0,0,0,0,0,0,-1,1882,1282,45.4423,-3.14046
665,-258,35.4747,1.1864,0,0,0,0,0,0,0,-1,1889,1282,35.4747,-1.18637
672,-258,22.703,2.80957,0,0,0,0,0,0,0,-1,1896,1282,22.703,-2.80962
679,-258,26.8693,8.19543,0,0,0,0,0,0,0,-1,1903,1282,26.8692,-8.19548
686,-258,54.1345,14.5691,0,0,0,0,0,0,0,-1,1910,1282,54.1345,-14.5691
693,-258,54.0037,13.7698,5.44147e-05,-0.00034457,7.32903e-05,6.74516e-05,-0.000357606,0.176039,0.000263779,0.0273166,1917,1282,54.0037,-13.7698
700,-258,53.9321,12.986,0.000286792,-0.000399205,0.000230833,0.000357232,-0.000469646,0.296183,0.000478866,0.0099947,1924,1282,53.9321,-12.9859
707,-258,53.9158,12.2302,-0.000228114,-0.000847625,0.000882422,0.00039734,-0.00147308,0.616603,0.00113786,0.010974,1931,1282,53.9158,-12.2302
714,-258,53.8936,11.5018,-0.00100903,-0.000661255,0.00141796,0.000593437,-0.00226373,0.84641,0.00174101,0.0130569,1938,1282,53.8936,-11.5019
721,-258,53.829,10.7396,-0.00184182,-0.000506938,0.00203122,0.000963685,-0.00331244,0.944137,0.00258999,0.0239088,1945,1282,53.8289,-10.7396
728,-258,53.7412,10.0415,-0.00277176,-0.00042322,0.00273896,0.00138258,-0.00457756,0.98791,0.00360212,0.0233672,1952,1282,53.7413,-10.0416
735,-258,53.7588,9.26709,-0.00384126,-0.000435972,0.00359584,0.00183996,-0.0061172,1.00651,0.00481022,0.0196328,1959,1282,53.7588,-9.26709
742,-258,53.6995,8.54028,-0.00505696,-0.000577303,0.00463764,0.00233307,-0.00796733,1.01036,0.00623645,0.019667,1966,1282,53.6994,-8.54025
749,-258,53.5835,7.93945,-0.00642318,-0.000927981,0.00592842,0.0028586,-0.0102098,1.00239,0.00793295,0.0418109,1973,1282,53.5835,-7.93945
756,-258,53.5336,7.21265,0,0,0,0,0,0,0,-1,1980,1282,53.5336,-7.21264
763,-258,39.3638,5.09753,0,0,0,0,0,0,0,-1,1987,1282,39.3638,-5.09751
770,-258,40.3713,4.08325,0,0,0,0,0,0,0,-1,1994,1282,40.3713,-4.08323
777,-258,31.912,4.83093,0,0,0,0,0,0,0,-1,2001,1282,31.912,-4.8309
784,-258,32.6525,6.43091,0,0,0,0,0,0,0,-1,2008,1282,32.6525,-6.43091
791,-258,0,0,0,0,0,0,0,0,0,-1,2015,1282,0,0
798,-258,0,0,0,0,0,0,0,0,0,-1,2022,1282,0,0
805,-258,0,0,0,0,0,0,0,0,0,-1,2029,1282,0,0
812,-258,0,0,0,0,0,0,0,0,0,-1,2036,1282,0,0
-700,-265,0,0,0,0,0,0,0,0,0,-1,524,1289,0,0
-693,-265,0,0,0,0,0,0,0,0,0,-1,531,1289,0,0
-686,-265,0,0,0,0,0,0,0,0,0,-1,538,1289,0,0
-679,-265,0,0,0,0,0,0,0,0,0,-1,545,1289,0,0
-672,-265,0,0,0,0,0,0,0,0,0,-1,552,1289,0,0
-665,-265,-44.553,1.771,0,0,0,0,0,0,0,-1,559,1289,-44.553,-1.77096
-658,-265,-44.9351,1.32117,0,0,0,0,0,0,0,-1,566,1289,-44.9351,-1.32118
-651,-265,-44.821,1.0614,0,0,0,0,0,0,0,-1,573,1289,-44.821,-1.06141
-644,-265,-44.4684,0.304932,0,0,0,0,0,0,0,-1,580,1289,-44.4684,-0.304991
-637,-265,-44.6157,0.250122,0,0,0,0,0,0,0,-1,587,1289,-44.6157,-0.250067
-630,-265,-44.5689,0.900269,0,0,0,0,0,0,0,-1,594,1289,-44.5689,-0.900302
-623,-265,-36.3999,5.4989,0,0,0,0,0,0,0,-1,601,1289,-36.3999,-5.49889
-616,-265,-36.4235,6.45081,0.00318246,0.00505991,0.00321176,0.00746732,0.000775043,0.927576,0.00474103,0.0477242,608,1289,-36.4234,-6.45081
-609,-265,-36.4597,7.46191,0.00370421,0.00433774,0.00202972,0.00607527,0.00196668,0.862805,0.00357949,0.0199314,615,1289,-36.4597,-7.46196
-602,-265,-36.5286,8.32239,0.00250209,0.00325497,0.00131389,0.00424528,0.00151178,0.924914,0.00248462,0.0154044,622,1289,-36.5285,-8.32234
-595,-265,-36.5795,9.12598,0.00149791,0.00224357,0.000609397,0.00258514,0.00115634,1.05992,0.00149529,0.0125525,629,1289,-36.5795,-9.12603
-588,-265,-36.6183,9.89502,0.000670642,0.00129426,-2.02669e-05,0.00129492,0.000669984,-1.53834,0.000747771,0.0117016,636,1289,-36.6183,-9.895
-581,-265,-36.6406,10.6807,-5.65327e-05,0.000324742,-0.000614506,0.000777502,-0.000509293,-0.935805,0.000748291,0.0136032,643,1289,-36.6405,-10.6806
-574,-265,-36.6896,11.5125,-0.000701735,-0.000715418,-0.00114528,0.000436723,-0.00185388,-0.782411,0.00140431,0.0149708,650,1289,-36.6896,-11.5124
-567,-265,-36.8248,12.2988,-0.00120751,-0.00186296,-0.00157973,7.81323e-05,-0.0031486,-0.683121,0.00212559,0.0217782,657,1289,-36.8248,-12.2989
-560,-265,-37.0023,13.0603,-0.00160543,-0.00224445,-0.00201628,0.000116504,-0.00396638,-0.706819,0.00268393,0.0315627,664,1289,-37.0023,-13.0602
-553,-265,-37.1274,13.8649,0,0,0,0,0,0,0,-1,671,1289,-37.1274,-13.8649
-546,-265,-24.2283,10.2581,0,0,0,0,0,0,0,-1,678,1289,-24.2283,-10.258
-539,-265,-13.7668,6.39917,0,0,0,0,0,0,0,-1,685,1289,-13.7668,-6.39915
-532,-265,-8.53998,3.41467,0,0,0,0,0,0,0,-1,692,1289,-8.53996,-3.41473
-525,-265,-12.1317,0.514648,0,0,0,0,0,0,0,-1,699,1289,-12.1317,-0.514634
-518,-265,-24.1604,0.712402,0,0,0,0,0,0,0,-1,706,1289,-24.1604,-0.712425
-511,-265,-23.233,0.791626,0,0,0,0,0,0,0,-1,713,1289,-23.233,-0.791617
-504,-265,-22.3056,0.87085,0,0,0,0,0,0,0,-1,720,1289,-22.3056,-0.87081
-497,-265,-18.689,-0.278442,0,0,0,0,0,0,0,-1,727,1289,-18.689,0.278423
-490,-265,-15.1696,0.492676,0,0,0,0,0,0,0,-1,734,1289,-15.1696,-0.492688
-483,-265,0,0,0,0,0,0,0,0,0,-1,741,1289,0,0
-476,-265,0,0,0,0,0,0,0,0,0,-1,748,1289,0,0
-469,-265,0,0,0,0,0,0,0,0,0,-1,755,1289,0,0
-462,-265,0,0,0,0,0,0,0,0,0,-1,762,1289,0,0
-455,-265,0,0,0,0,0,0,0,0,0,-1,769,1289,0,0
-448,-265,0,0,0,0,0,0,0,0,0,-1,776,1289,0,0
-441,-265,0,0,0,0,0,0,0,0,0,-1,783,1289,0,0
-434,-265,0,0,0,0,0,0,0,0,0,-1,790,1289,0,0
-427,-265,0,0,0,0,0,0,0,0,0,-1,797,1289,0,0
-420,-265,0,0,0,0,0,0,0,0,0,-1,804,1289,0,0
-413,-265,0,0,0,0,0,0,0,0,0,-1,811,1289,0,0
-406,-265,0,0,0,0,0,0,0,0,0,-1,818,1289,0,0
-399,-265,0,0,0,0,0,0,0,0,0,-1,825,1289,0,0
-392,-265,0,0,0,0,0,0,0,0,0,-1,832,1289,0,0
-385,-265,0,0,0,0,0,0,0,0,0,-1,839,1289,0,0
-378,-265,0,0,0,0,0,0,0,0,0,-1,846,1289,0,0
-371,-265,0,0,0,0,0,0,0,0,0,-1,853,1289,0,0
-364,-265,0,0,0,0,0,0,0,0,0,-1,860,1289,0,0
-357,-265,0,0,0,0,0,0,0,0,0,-1,867,1289,0,0
-350,-265,0,0,0,0,0,0,0,0,0,-1,874,1289,0,0
-343,-265,0,0,0,0,0,0,0,0,0,-1,881,1289,0,0
-336,-265,0,0,0,0,0,0,0,0,0,-1,888,1289,0,0
-329,-265,0,0,0,0,0,0,0,0,0,-1,895,1289,0,0
-322,-265,0,0,0,0,0,0,0,0,0,-1,902,1289,0,0
-315,-265,0,0,0,0,0,0,0,0,0,-1,909,1289,0,0
-308,-265,0,0,0,0,0,0,0,0,0,-1,916,1289,0,0
-301,-265,0,0,0,0,0,0,0,0,0,-1,923,1289,0,0
-294,-265,0,0,0,0,0,0,0,0,0,-1,930,1289,0,0
-287,-265,0,0,0,0,0,0,0,0,0,-1,937,1289,0,0
-280,-265,0,0,0,0,0,0,0,0,0,-1,944,1289,0,0
-273,-265,0,0,0,0,0,0,0,0,0,-1,951,1289,0,0
-266,-265,0,0,0,0,0,0,0,0,0,-1,958,1289,0,0
-259,-265,0,0,0,0,0,0,0,0,0,-1,965,1289,0,0
-252,-265,0,0,0,0,0,0,0,0,0,-1,972,1289,0,0
-245,-265,0,0,0,0,0,0,0,0,0,-1,979,1289,0,0
-238,-265,0,0,0,0,0,0,0,0,0,-1,986,1289,0,0
-231,-265,0,0,0,0,0,0,0,0,0,-1,993,1289,0,0
-224,-265,0,0,0,0,0,0,0,0,0,-1,1000,1289,0,0
-217,-265,0,0,0,0,0,0,0,0,0,-1,1007,1289,0,0
-210,-265,0,0,0,0,0,0,0,0,0,-1,1014,1289,0,0
-203,-265,0,0,0,0,0,0,0,0,0,-1,1021,1289,0,0
-196,-265,0,0,0,0,0,0,0,0,0,-1,1028,1289,0,0
-189,-265,0,0,0,0,0,0,0,0,0,-1,1035,1289,0,0
-182,-265,0,0,0,0,0,0,0,0,0,-1,1042,1289,0,0
-175,-265,0,0,0,0,0,0,0,0,0,-1,1049,1289,0,0
-168,-265,0,0,0,0,0,0,0,0,0,-1,1056,1289,0,0
-161,-265,0,0,0,0,0,0,0,0,0,-1,1063,1289,0,0
-154,-265,0,0,0,0,0,0,0,0,0,-1,1070,1289,0,0
-147,-265,0,0,0,0,0,0,0,0,0,-1,1077,1289,0,0
-140,-265,0,0,0,0,0,0,0,0,0,-1,1084,1289,0,0
-133,-265,0,0,0,0,0,0,0,0,0,-1,1091,1289,0,0
-126,-265,0,0,0,0,0,0,0,0,0,-1,1098,1289,0,0
-119,-265,0,0,0,0,0,0,0,0,0,-1,1105,1289,0,0
-112,-265,0,0,0,0,0,0,0,0,0,-1,1112,1289,0,0
-105,-265,0,0,0,0,0,0,0,0,0,-1,1119,1289,0,0
-98,-265,0,0,0,0,0,0,0,0,0,-1,1126,1289,0,0
-91,-265,0,0,0,0,0,0,0,0,0,-1,1133,1289,0,0
-84,-265,0,0,0,0,0,0,0,0,0,-1,1140,1289,0,0
-77,-265,0,0,0,0,0,0,0,0,0,-1,1147,1289,0,0
-70,-265,0,0,0,0,0,0,0,0,0,-1,1154,1289,0,0
-63,-265,0,0,0,0,0,0,0,0,0,-1,1161,1289,0,0
-56,-265,0,0,0,0,0,0,0,0,0,-1,1168,1289,0,0
-49,-265,0,0,0,0,0,0,0,0,0,-1,1175,1289,0,0
-42,-265,0,0,0,0,0,0,0,0,0,-1,1182,1289,0,0
-35,-265,0,0,0,0,0,0,0,0,0,-1,1189,1289,0,0
-28,-265,0,0,0,0,0,0,0,0,0,-1,1196,1289,0,0
-21,-265,0,0,0,0,0,0,0,0,0,-1,1203,1289,0,0
-14,-265,0,0,0,0,0,0,0,0,0,-1,1210,1289,0,0
-7,-265,0,0,0,0,0,0,0,0,0,-1,1217,1289,0,0
0,-265,0,0,0,0,0,0,0,0,0,-1,1224,1289,0,0
7,-265,0,0,0,0,0,0,0,0,0,-1,1231,1289,0,0
14,-265,0,0,0,0,0,0,0,0,0,-1,1238,1289,0,0
21,-265,0,0,0,0,0,0,0,0,0,-1,1245,1289,0,0
28,-265,0,0,0,0,0,0,0,0,0,-1,1252,1289,0,0
35,-265,0,0,0,0,0,0,0,0,0,-1,1259,1289,0,0
42,-265,0,0,0,0,0,0,0,0,0,-1,1266,1289,0,0
49,-265,0,0,0,0,0,0,0,0,0,-1,1273,1289,0,0
56,-265,0,0,0,0,0,0,0,0,0,-1,1280,1289,0,0
63,-265,0,0,0,0,0,0,0,0,0,-1,1287,1289,0,0
70,-265,0,0,0,0,0,0,0,0,0,-1,1294,1289,0,0
77,-265,0,0,0,0,0,0,0,0,0,-1,1301,1289,0,0
84,-265,0,0,0,0,0,0,0,0,0,-1,1308,1289,0,0
91,-265,0,0,0,0,0,0,0,0,0,-1,1315,1289,0,0
98,-265,0,0,0,0,0,0,0,0,0,-1,1322,1289,0,0
105,-265,0,0,0,0,0,0,0,0,0,-1,1329,1289,0,0
112,-265,0,0,0,0,0,0,0,0,0,-1,1336,1289,0,0
119,-265,0,0,0,0,0,0,0,0,0,-1,1343,1289,0,0
126,-265,0,0,0,0,0,0,0,0,0,-1,1350,1289,0,0
133,-265,0,0,0,0,0,0,0,0,0,-1,1357,1289,0,0
140,-265,0,0,0,0,0,0,0,0,0,-1,1364,1289,0,0
147,-265,0,0,0,0,0,0,0,0,0,-1,1371,1289,0,0
154,-265,0,0,0,0,0,0,0,0,0,-1,1378,1289,0,0
161,-265,0,0,0,0,0,0,0,0,0,-1,1385,1289,0,0
168,-265,0,0,0,0,0,0,0,0,0,-1,1392,1289,0,0
175,-265,0,0,0,0,0,0,0,0,0,-1,1399,1289,0,0
182,-265,0,0,0,0,0,0,0,0,0,-1,1406,1289,0,0
189,-265,0,0,0,0,0,0,0,0,0,-1,1413,1289,0,0
196,-265,0,0,0,0,0,0,0,0,0,-1,1420,1289,0,0
203,-265,0,0,0,0,0,0,0,0,0,-1,1427,1289,0,0
210,-265,0,0,0,0,0,0,0,0,0,-1,1434,1289,0,0
217,-265,0,0,0,0,0,0,0,0,0,-1,1441,1289,0,0
224,-265,0,0,0,0,0,0,0,0,0,-1,1448,1289,0,0
231,-265,0,0,0,0,0,0,0,0,0,-1,1455,1289,0,0
238,-265,0,0,0,0,0,0,0,0,0,-1,1462,1289,0,0
245,-265,0,0,0,0,0,0,0,0,0,-1,1469,1289,0,0
252,-265,0,0,0,0,0,0,0,0,0,-1,1476,1289,0,0
259,-265,0,0,0,0,0,0,0,0,0,-1,1483,1289,0,0
266,-265,0,0,0,0,0,0,0,0,0,-1,1490,1289,0,0
273,-265,0,0,0,0,0,0,0,0,0,-1,1497,1289,0,0
280,-265,0,0,0,0,0,0,0,0,0,-1,1504,1289,0,0
287,-265,0,0,0,0,0,0,0,0,0,-1,1511,1289,0,0
294,-265,0,0,0,0,0,0,0,0,0,-1,1518,1289,0,0
301,-265,0,0,0,0,0,0,0,0,0,-1,1525,1289,0,0
308,-265,0,0,0,0,0,0,0,0,0,-1,1532,1289,0,0
315,-265,0,0,0,0,0,0,0,0,0,-1,1539,1289,0,0
322,-265,0,0,0,0,0,0,0,0,0,-1,1546,1289,0,0
329,-265,0,0,0,0,0,0,0,0,0,-1,1553,1289,0,0
336,-265,0,0,0,0,0,0,0,0,0,-1,1560,1289,0,0
343,-265,0,0,0,0,0,0,0,0,0,-1,1567,1289,0,0
350,-265,0,0,0,0,0,0,0,0,0,-1,1574,1289,0,0
357,-265,0,0,0,0,0,0,0,0,0,-1,1581,1289,0,0
364,-265,0,0,0,0,0,0,0,0,0,-1,1588,1289,0,0
371,-265,0,0,0,0,0,0,0,0,0,-1,1595,1289,0,0
378,-265,0,0,0,0,0,0,0,0,0,-1,1602,1289,0,0
385,-265,0,0,0,0,0,0,0,0,0,-1,1609,1289,0,0
392,-265,0,0,0,0,0,0,0,0,0,-1,1616,1289,0,0
399,-265,0,0,0,0,0,0,0,0,0,-1,1623,1289,0,0
406,-265,0,0,0,0,0,0,0,0,0,-1,1630,1289,0,0
413,-265,0,0,0,0,0,0,0,0,0,-1,1637,1289,0,0
420,-265,0,0,0,0,0,0,0,0,0,-1,1644,1289,0,0
427,-265,0,0,0,0,0,0,0,0,0,-1,1651,1289,0,0
434,-265,0,0,0,0,0,0,0,0,0,-1,1658,1289,0,0
441,-265,0,0,0,0,0,0,0,0,0,-1,1665,1289,0,0
448,-265,0,0,0,0,0,0,0,0,0,-1,1672,1289,0,0
455,-265,0,0,0,0,0,0,0,0,0,-1,1679,1289,0,0
462,-265,0,0,0,0,0,0,0,0,0,-1,1686,1289,0,0
469,-265,0,0,0,0,0,0,0,0,0,-1,1693,1289,0,0
476,-265,0,0,0,0,0,0,0,0,0,-1,1700,1289,0,0
483,-265,0,0,0,0,0,0,0,0,0,-1,1707,1289,0,0
490,-265,0,0,0,0,0,0,0,0,0,-1,1714,1289,0,0
497,-265,0,0,0,0,0,0,0,0,0,-1,1721,1289,0,0
504,-265,0,0,0,0,0,0,0,0,0,-1,1728,1289,0,0
511,-265,0,0,0,0,0,0,0,0,0,-1,1735,1289,0,0
518,-265,0,0,0,0,0,0,0,0,0,-1,1742,1289,0,0
525,-265,0,0,0,0,0,0,0,0,0,-1,1749,1289,0,0
532,-265,0,0,0,0,0,0,0,0,0,-1,1756,1289,0,0
539,-265,0,0,0,0,0,0,0,0,0,-1,1763,1289,0,0
546,-265,0,0,0,0,0,0,0,0,0,-1,1770,1289,0,0
553,-265,0,0,0,0,0,0,0,0,0,-1,1777,1289,0,0
560,-265,0,0,0,0,0,0,0,0,0,-1,1784,1289,0,0
567,-265,0,0,0,0,0,0,0,0,0,-1,1791,1289,0,0
574,-265,0,0,0,0,0,0,0,0,0,-1,1798,1289,0,0
581,-265,0,0,0,0,0,0,0,0,0,-1,1805,1289,0,0
588,-265,0,0,0,0,0,0,0,0,0,-1,1812,1289,0,0
595,-265,0,0,0,0,0,0,0,0,0,-1,1819,1289,0,0
602,-265,75.0757,2.12708,-0.00163634,0.00309328,-0.0052511,0.0064875,-0.00503055,-0.996969,0.00666766,0.0285543,1826,1289,75.0757,-2.12704
609,-265,74.9867,2.02893,0.000241964,0.00687623,-0.00850615,0.0126892,-0.00557097,-0.971312,0.0108062,0.0286528,1833,1289,74.9867,-2.02894
616,-265,74.9915,1.9895,0.00181233,0.0104153,-0.0114671,0.0183612,-0.00613351,-0.964835,0.0147177,0.0326549,1840,1289,74.9915,-1.98946
623,-265,74.9771,1.84949,0.00246697,0.0120263,-0.0123103,0.0204523,-0.005959,-0.970573,0.0159956,0.0458197,1847,1289,74.9771,-1.84944
630,-265,75.0427,1.72839,0.00223921,0.0114745,-0.0110301,0.0188145,-0.00510077,-0.983635,0.0145445,0.0469559,1854,1289,75.0427,-1.72843
637,-265,75.0773,1.63892,0,0,0,0,0,0,0,-1,1861,1289,75.0773,-1.63892
644,-265,72.2863,0.399658,0,0,0,0,0,0,0,-1,1868,1289,72.2863,-0.39967
651,-265,53.6781,1.57166,0,0,0,0,0,0,0,-1,1875,1289,53.6781,-1.57167
658,-265,41.7163,3.71619,0,0,0,0,0,0,0,-1,1882,1289,41.7163,-3.71624
665,-265,34.7902,1.43164,0,0,0,0,0,0,0,-1,1889,1289,34.7901,-1.43162
672,-265,20.0045,6.62671,0,0,0,0,0,0,0,-1,1896,1289,20.0045,-6.62668
679,-265,48.9694,14.0298,0,0,0,0,0,0,0,-1,1903,1289,48.9694,-14.0297
686,-265,53.3051,14.624,0,0,0,0,0,0,0,-1,1910,1289,53.3051,-14.6241
693,-265,53.2323,13.8202,1.07017e-05,-0.000535156,5.32095e-05,1.58401e-05,-0.000540294,0.0962711,0.00036559,0.0155976,1917,1289,53.2323,-13.8201
700,-265,53.1892,13.0437,0.00015779,-0.000467381,0.000228508,0.000232406,-0.000541997,0.315623,0.000458857,0.0110819,1924,1289,53.1892,-13.0437
707,-265,53.1586,12.2709,-0.000360129,-0.000714077,0.000844303,0.000325548,-0.00139975,0.682089,0.00105851,0.0108967,1931,1289,53.1585,-12.2709
714,-265,53.1117,11.5193,-0.00106547,-0.000525404,0.00137882,0.000609581,-0.00220045,0.882095,0.00170684,0.0136347,1938,1289,53.1116,-11.5193
721,-265,53.0206,10.7466,-0.00187577,-0.000389675,0.00199025,0.000991709,-0.00325716,0.964057,0.00256669,0.0161226,1945,1289,53.0206,-10.7466
728,-265,52.9659,10.0337,-0.00282437,-0.000334649,0.00270395,0.00139724,-0.00455626,1.00113,0.00359493,0.0163312,1952,1289,52.966,-10.0337
735,-265,53.0142,9.29846,-0.00394171,-0.000367937,0.00355384,0.00182296,-0.00613261,1.01834,0.00481255,0.0168763,1959,1289,53.0141,-9.29849
742,-265,52.9415,8.52686,-0.00525442,-0.000523254,0.00457162,0.00225856,-0.00803624,1.02415,0.00624793,0.0210311,1966,1289,52.9415,-8.5269
749,-265,52.8813,7.74219,-0.00680308,-0.000892858,0.00582819,0.00268659,-0.0103825,1.02003,0.00796962,0.0476762,1973,1289,52.8813,-7.74216
756,-265,52.9246,6.95398,0,0,0,0,0,0,0,-1,1980,1289,52.9246,-6.95395
763,-265,39.1299,4.9679,0,0,0,0,0,0,0,-1,1987,1289,39.1299,-4.96791
770,-265,35.1674,5.07715,0,0,0,0,0,0,0,-1,1994,1289,35.1673,-5.07718
777,-265,32.1664,5.3457,0,0,0,0,0,0,0,-1,2001,1289,32.1664,-5.34568
784,-265,0,0,0,0,0,0,0,0,0,-1,2008,1289,0,0
791,-265,0,0,0,0,0,0,0,0,0,-1,2015,1289,0,0
798,-265,0,0,0,0,0,0,0,0,0,-1,2022,1289,0,0
805,-265,0,0,0,0,0,0,0,0,0,-1,2029,1289,0,0
812,-265,0,0,0,0,0,0,0,0,0,-1,2036,1289,0,0
-700,-272,0,0,0,0,0,0,0,0,0,-1,524,1296,0,0
-693,-272,0,0,0,0,0,0,0,0,0,-1,531,1296,0,0
-686,-272,0,0,0,0,0,0,0,0,0,-1,538,1296,0,0
-679,-272,0,0,0,0,0,0,0,0,0,-1,545,1296,0,0
-672,-272,0,0,0,0,0,0,0,0,0,-1,552,1296,0,0
-665,-272,0,0,0,0,0,0,0,0,0,-1,559,1296,0,0
-658,-272,-44.6526,1.54443,0,0,0,0,0,0,0,-1,566,1296,-44.6526,-1.5444
-651,-272,-44.3723,1.53772,0,0,0,0,0,0,0,-1,573,1296,-44.3723,-1.53774
-644,-272,-44.1104,1.46021,0,0,0,0,0,0,0,-1,580,1296,-44.1104,-1.46022
-637,-272,-43.9348,1.25171,0,0,0,0,0,0,0,-1,587,1296,-43.9348,-1.25175
-630,-272,-43.5906,0.784912,0,0,0,0,0,0,0,-1,594,1296,-43.5906,-0.784935
-623,-272,-34.1035,5.31335,0,0,0,0,0,0,0,-1,601,1296,-34.1035,-5.31331
-616,-272,-35.4598,6.49304,0,0,0,0,0,0,0,-1,608,1296,-35.4598,-6.49307
-609,-272,-35.6325,7.67371,0.00432111,0.00486816,0.00242397,0.00703399,0.00215528,0.841582,0.0041613,0.0284832,615,1296,-35.6325,-7.67376
-602,-272,-35.7116,8.36365,0.00301987,0.00365943,0.00172788,0.00509687,0.00158242,0.876897,0.00301233,0.0158086,622,1296,-35.7116,-8.36363
-595,-272,-35.774,9.17383,0.00194981,0.00253989,0.00102752,0.00331389,0.00117581,0.925207,0.00193998,0.0124661,629,1296,-35.774,-9.17381
-588,-272,-35.8344,9.95239,0.00111642,0.00153698,0.000431024,0.00180628,0.000847114,1.01234,0.00104353,0.0118524,636,1296,-35.8344,-9.95236
-581,-272,-35.8733,10.7076,0.000450643,0.000560544,-9.71876e-05,0.00061724,0.000393947,-1.0427,0.000360875,0.011116,643,1296,-35.8733,-10.7077
-574,-272,-35.9162,11.5336,-5.43982e-05,-0.000420753,-0.000557052,0.000348821,-0.000823972,-0.62655,0.000695389,0.0164285,650,1296,-35.9162,-11.5336
-567,-272,-35.9677,12.3516,-0.000337662,-0.00142967,-0.000920287,0.000186405,-0.00195373,-0.517661,0.00136886,0.0230862,657,1296,-35.9676,-12.3516
-560,-272,-36.0795,13.1283,-0.000432909,-0.0019891,-0.00120355,0.00022216,-0.00264417,-0.498442,0.00184131,0.0232706,664,1296,-36.0795,-13.1283
-553,-272,-36.1016,13.8837,-0.000491288,-0.00307151,-0.00121114,-1.18646e-05,-0.00355093,-0.376919,0.00236334,0.0351924,671,1296,-36.1016,-13.8837
-546,-272,-36.3265,14.7439,0,0,0,0,0,0,0,-1,678,1296,-36.3265,-14.7439
-539,-272,-24.1416,11.0325,0,0,0,0,0,0,0,-1,685,1296,-24.1416,-11.0324
-532,-272,-10.5572,4.53943,0,0,0,0,0,0,0,-1,692,1296,-10.5572,-4.53943
-525,-272,-11.9599,0.0393066,0,0,0,0,0,0,0,-1,699,1296,-11.9599,-0.0393577
-518,-272,-21.1357,-1.41382,0,0,0,0,0,0,0,-1,706,1296,-21.1357,1.41379
-511,-272,-23.2565,0.226318,0,0,0,0,0,0,0,-1,713,1296,-23.2565,-0.22626
-504,-272,-19.7397,0.114746,0,0,0,0,0,0,0,-1,720,1296,-19.7397,-0.114701
-497,-272,-19.2225,1.71301,0,0,0,0,0,0,0,-1,727,1296,-19.2225,-1.71302
-490,-272,-20.1948,2.4032,0,0,0,0,0,0,0,-1,734,1296,-20.1948,-2.40322
-483,-272,-15.3736,0.792603,0,0,0,0,0,0,0,-1,741,1296,-15.3736,-0.79263
-476,-272,0,0,0,0,0,0,0,0,0,-1,748,1296,0,0
-469,-272,0,0,0,0,0,0,0,0,0,-1,755,1296,0,0
-462,-272,0,0,0,0,0,0,0,0,0,-1,762,1296,0,0
-455,-272,0,0,0,0,0,0,0,0,0,-1,769,1296,0,0
-448,-272,0,0,0,0,0,0,0,0,0,-1,776,1296,0,0
-441,-272,0,0,0,0,0,0,0,0,0,-1,783,1296,0,0
-434,-272,0,0,0,0,0,0,0,0,0,-1,790,1296,0,0
-427,-272,0,0,0,0,0,0,0,0,0,-1,797,1296,0,0
-420,-272,0,0,0,0,0,0,0,0,0,-1,804,1296,0,0
-413,-272,0,0,0,0,0,0,0,0,0,-1,811,1296,0,0
-406,-272,0,0,0,0,0,0,0,0,0,-1,818,1296,0,0
-399,-272,0,0,0,0,0,0,0,0,0,-1,825,1296,0,0
-392,-272,0,0,0,0,0,0,0,0,0,-1,832,1296,0,0
-385,-272,0,0,0,0,0,0,0,0,0,-1,839,1296,0,0
-378,-272,0,0,0,0,0,0,0,0,0,-1,846,1296,0,0
-371,-272,0,0,0,0,0,0,0,0,0,-1,853,1296,0,0
-364,-272,0,0,0,0,0,0,0,0,0,-1,860,1296,0,0
-357,-272,0,0,0,0,0,0,0,0,0,-1,867,1296,0,0
-350,-272,0,0,0,0,0,0,0,0,0,-1,874,1296,0,0
-343,-272,0,0,0,0,0,0,0,0,0,-1,881,1296,0,0
-336,-272,0,0,0,0,0,0,0,0,0,-1,888,1296,0,0
-329,-272,0,0,0,0,0,0,0,0,0,-1,895,1296,0,0
-322,-272,0,0,0,0,0,0,0,0,0,-1,902,1296,0,0
-315,-272,0,0,0,0,0,0,0,0,0,-1,909,1296,0,0
-308,-272,0,0,0,0,0,0,0,0,0,-1,916,1296,0,0
-301,-272,0,0,0,0,0,0,0,0,0,-1,923,1296,0,0
-294,-272,0,0,0,0,0,0,0,0,0,-1,930,1296,0,0
-287,-272,0,0,0,0,0,0,0,0,0,-1,937,1296,0,0
-280,-272,0,0,0,0,0,0,0,0,0,-1,944,1296,0,0
-273,-272,0,0,0,0,0,0,0,0,0,-1,951,1296,0,0
-266,-272,0,0,0,0,0,0,0,0,0,-1,958,1296,0,0
-259,-272,0,0,0,0,0,0,0,0,0,-1,965,1296,0,0
-252,-272,0,0,0,0,0,0,0,0,0,-1,972,1296,0,0
-245,-272,0,0,0,0,0,0,0,0,0,-1,979,1296,0,0
-238,-272,0,0,0,0,0,0,0,0,0,-1,986,1296,0,0
-231,-272,0,0,0,0,0,0,0,0,0,-1,993,1296,0,0
-224,-272,0,0,0,0,0,0,0,0,0,-1,1000,1296,0,0
-217,-272,0,0,0,0,0,0,0,0,0,-1,1007,1296,0,0
-210,-272,0,0,0,0,0,0,0,0,0,-1,1014,1296,0,0
-203,-272,0,0,0,0,0,0,0,0,0,-1,1021,1296,0,0
-196,-272,0,0,0,0,0,0,0,0,0,-1,1028,1296,0,0
-189,-272,0,0,0,0,0,0,0,0,0,-1,1035,1296,0,0
-182,-272,0,0,0,0,0,0,0,0,0,-1,1042,1296,0,0
-175,-272,0,0,0,0,0,0,0,0,0,-1,1049,1296,0,0
-168,-272,0,0,0,0,0,0,0,0,0,-1,1056,1296,0,0
-161,-272,0,0,0,0,0,0,0,0,0,-1,1063,1296,0,0
-154,-272,0,0,0,0,0,0,0,0,0,-1,1070,1296,0,0
-147,-272,0,0,0,0,0,0,0,0,0,-1,1077,1296,0,0
-140,-272,0,0,0,0,0,0,0,0,0,-1,1084,1296,0,0
-133,-272,0,0,0,0,0,0,0,0,0,-1,1091,1296,0,0
-126,-272,0,0,0,0,0,0,0,0,0,-1,1098,1296,0,0
-119,-272,0,0,0,0,0,0,0,0,0,-1,1105,1296,0,0
-112,-272,0,0,0,0,0,0,0,0,0,-1,1112,1296,0,0
-105,-272,0,0,0,0,0,0,0,0,0,-1,1119,1296,0,0
-98,-272,0,0,0,0,0,0,0,0,0,-1,1126,1296,0,0
-91,-272,0,0,0,0,0,0,0,0,0,-1,1133,1296,0,0
-84,-272,0,0,0,0,0,0,0,0,0,-1,1140,1296,0,0
-77,-272,0,0,0,0,0,0,0,0,0,-1,1147,1296,0,0
-70,-272,0,0,0,0,0,0,0,0,0,-1,1154,1296,0,0
-63,-272,0,0,0,0,0,0,0,0,0,-1,1161,1296,0,0
-56,-272,0,0,0,0,0,0,0,0,0,-1,1168,1296,0,0
-49,-272,0,0,0,0,0,0,0,0,0,-1,1175,1296,0,0
-42,-272,0,0,0,0,0,0,0,0,0,-1,1182,1296,0,0
-35,-272,0,0,0,0,0,0,0,0,0,-1,1189,1296,0,0
-28,-272,0,0,0,0,0,0,0,0,0,-1,1196,1296,0,0
-21,-272,0,0,0,0,0,0,0,0,0,-1,1203,1296,0,0
-14,-272,0,0,0,0,0,0,0,0,0,-1,1210,1296,0,0
-7,-272,0,0,0,0,0,0,0,0,0,-1,1217,1296,0,0
0,-272,0,0,0,0,0,0,0,0,0,-1,1224,1296,0,0
7,-272,0,0,0,0,0,0,0,0,0,-1,1231,1296,0,0
14,-272,0,0,0,0,0,0,0,0,0,-1,1238,1296,0,0
21,-272,0,0,0,0,0,0,0,0,0,-1,1245,1296,0,0
28,-272,0,0,0,0,0,0,0,0,0,-1,1252,1296,0,0
35,-272,0,0,0,0,0,0,0,0,0,-1,1259,1296,0,0
42,-272,0,0,0,0,0,0,0,0,0,-1,1266,1296,0,0
49,-272,0,0,0,0,0,0,0,0,0,-1,1273,1296,0,0
56,-272,0,0,0,0,0,0,0,0,0,-1,1280,1296,0,0
63,-272,0,0,0,0,0,0,0,0,0,-1,1287,1296,0,0
70,-272,0,0,0,0,0,0,0,0,0,-1,1294,1296,0,0
77,-272,0,0,0,0,0,0,0,0,0,-1,1301,1296,0,0
84,-272,0,0,0,0,0,0,0,0,0,-1,1308,1296,0,0
91,-272,0,0,0,0,0,0,0,0,0,-1,1315,1296,0,0
98,-272,0,0,0,0,0,0,0,0,0,-1,1322,1296,0,0
105,-272,0,0,0,0,0,0,0,0,0,-1,1329,1296,0,0
112,-272,0,0,0,0,0,0,0,0,0,-1,1336,1296,0,0
119,-272,0,0,0,0,0,0,0,0,0,-1,1343,1296,0,0
126,-272,0,0,0,0,0,0,0,0,0,-1,1350,1296,0,0
133,-272,0,0,0,0,0,0,0,0,0,-1,1357,1296,0,0
140,-272,0,0,0,0,0,0,0,0,0,-1,1364,1296,0,0
147,-272,0,0,0,0,0,0,0,0,0,-1,1371,1296,0,0
154,-272,0,0,0,0,0,0,0,0,0,-1,1378,1296,0,0
161,-272,0,0,0,0,0,0,0,0,0,-1,1385,1296,0,0
168,-272,0,0,0,0,0,0,0,0,0,-1,1392,1296,0,0
175,-272,0,0,0,0,0,0,0,0,0,-1,1399,1296,0,0
182,-272,0,0,0,0,0,0,0,0,0,-1,1406,1296,0,0
189,-272,0,0,0,0,0,0,0,0,0,-1,1413,1296,0,0
196,-272,0,0,0,0,0,0,0,0,0,-1,1420,1296,0,0
203,-272,0,0,0,0,0,0,0,0,0,-1,1427,1296,0,0
210,-272,0,0,0,0,0,0,0,0,0,-1,1434,1296,0,0
217,-272,0,0,0,0,0,0,0,0,0,-1,1441,1296,0,0
224,-272,0,0,0,0,0,0,0,0,0,-1,1448,1296,0,0
231,-272,0,0,0,0,0,0,0,0,0,-1,1455,1296,0,0
238,-272,0,0,0,0,0,0,0,0,0,-1,1462,1296,0,0
245,-272,0,0,0,0,0,0,0,0,0,-1,1469,1296,0,0
252,-272,0,0,0,0,0,0,0,0,0,-1,1476,1296,0,0
259,-272,0,0,0,0,0,0,0,0,0,-1,1483,1296,0,0
266,-272,0,0,0,0,0,0,0,0,0,-1,1490,1296,0,0
273,-272,0,0,0,0,0,0,0,0,0,-1,1497,1296,0,0
280,-272,0,0,0,0,0,0,0,0,0,-1,1504,1296,0,0
287,-272,0,0,0,0,0,0,0,0,0,-1,1511,1296,0,0
294,-272,0,0,0,0,0,0,0,0,0,-1,1518,1296,0,0
301,-272,0,0,0,0,0,0,0,0,0,-1,1525,1296,0,0
308,-272,0,0,0,0,0,0,0,0,0,-1,1532,1296,0,0
315,-272,0,0,0,0,0,0,0,0,0,-1,1539,1296,0,0
322,-272,0,0,0,0,0,0,0,0,0,-1,1546,1296,0,0
329,-272,0,0,0,0,0,0,0,0,0,-1,1553,1296,0,0
336,-272,0,0,0,0,0,0,0,0,0,-1,1560,1296,0,0
343,-272,0,0,0,0,0,0,0,0,0,-1,1567,1296,0,0
350,-272,0,0,0,0,0,0,0,0,0,-1,1574,1296,0,0
357,-272,0,0,0,0,0,0,0,0,0,-1,1581,1296,0,0
364,-272,0,0,0,0,0,0,0,0,0,-1,1588,1296,0,0
371,-272,0,0,0,0,0,0,0,0,0,-1,1595,1296,0,0
378,-272,0,0,0,0,0,0,0,0,0,-1,1602,1296,0,0
385,-272,0,0,0,0,0,0,0,0,0,-1,1609,1296,0,0
392,-272,0,0,0,0,0,0,0,0,0,-1,1616,1296,0,0
399,-272,0,0,0,0,0,0,0,0,0,-1,1623,1296,0,0
406,-272,0,0,0,0,0,0,0,0,0,-1,1630,1296,0,0
413,-272,0,0,0,0,0,0,0,0,0,-1,1637,1296,0,0
420,-272,0,0,0,0,0,0,0,0,0,-1,1644,1296,0,0
427,-272,0,0,0,0,0,0,0,0,0,-1,1651,1296,0,0
434,-272,0,0,0,0,0,0,0,0,0,-1,1658,1296,0,0
441,-272,0,0,0,0,0,0,0,0,0,-1,1665,1296,0,0
448,-272,0,0,0,0,0,0,0,0,0,-1,1672,1296,0,0
455,-272,0,0,0,0,0,0,0,0,0,-1,1679,1296,0,0
462,-272,0,0,0,0,0,0,0,0,0,-1,1686,1296,0,0
469,-272,0,0,0,0,0,0,0,0,0,-1,1693,1296,0,0
476,-272,0,0,0,0,0,0,0,0,0,-1,1700,1296,0,0
483,-272,0,0,0,0,0,0,0,0,0,-1,1707,1296,0,0
490,-272,0,0,0,0,0,0,0,0,0,-1,1714,1296,0,0
497,-272,0,0,0,0,0,0,0,0,0,-1,1721,1296,0,0
504,-272,0,0,0,0,0,0,0,0,0,-1,1728,1296,0,0
511,-272,0,0,0,0,0,0,0,0,0,-1,1735,1296,0,0
518,-272,0,0,0,0,0,0,0,0,0,-1,1742,1296,0,0
525,-272,0,0,0,0,0,0,0,0,0,-1,1749,1296,0,0
532,-272,0,0,0,0,0,0,0,0,0,-1,1756,1296,0,0
539,-272,0,0,0,0,0,0,0,0,0,-1,1763,1296,0,0
546,-272,0,0,0,0,0,0,0,0,0,-1,1770,1296,0,0
553,-272,0,0,0,0,0,0,0,0,0,-1,1777,1296,0,0
560,-272,0,0,0,0,0,0,0,0,0,-1,1784,1296,0,0
567,-272,0,0,0,0,0,0,0,0,0,-1,1791,1296,0,0
574,-272,0,0,0,0,0,0,0,0,0,-1,1798,1296,0,0
581,-272,0,0,0,0,0,0,0,0,0,-1,1805,1296,0,0
588,-272,0,0,0,0,0,0,0,0,0,-1,1812,1296,0,0
595,-272,0,0,0,0,0,0,0,0,0,-1,1819,1296,0,0
602,-272,75.0718,2.10999,-0.000130289,0.00538677,-0.00993788,0.0129419,-0.00768539,-0.920778,0.0120374,0.0319188,1826,1296,75.0718,-2.10996
609,-272,74.9708,1.95313,0.00236324,0.00921132,-0.0134909,0.0197059,-0.00813132,-0.909676,0.0165284,0.0377028,1833,1296,74.9708,-1.95308
616,-272,74.9908,1.85791,0.00393019,0.0118032,-0.01545,0.0238103,-0.00807694,-0.910138,0.0191425,0.0460432,1840,1296,74.9908,-1.85792
623,-272,75.1183,1.75879,0.00390102,0.0118085,-0.0142153,0.0226096,-0.00690013,-0.921036,0.017824,0.0457738,1847,1296,75.1182,-1.75877
630,-272,75.0144,1.63367,0.00316489,0.0106442,-0.0118648,0.0193448,-0.0055357,-0.938064,0.0150842,0.0476673,1854,1296,75.0144,-1.63363
637,-272,75.0581,1.5769,0,0,0,0,0,0,0,-1,1861,1296,75.0581,-1.57696
644,-272,53.563,1.44336,0,0,0,0,0,0,0,-1,1868,1296,53.5629,-1.4433
651,-272,41.9225,4.27161,0,0,0,0,0,0,0,-1,1875,1296,41.9225,-4.27157
658,-272,35.1527,2.10571,0,0,0,0,0,0,0,-1,1882,1296,35.1527,-2.10573
665,-272,22.0238,4.14417,0,0,0,0,0,0,0,-1,1889,1296,22.0238,-4.14421
672,-272,22.661,7.21765,0,0,0,0,0,0,0,-1,1896,1296,22.661,-7.21761
679,-272,51.5885,15.1158,0,0,0,0,0,0,0,-1,1903,1296,51.5885,-15.1159
686,-272,52.3289,14.6405,0,0,0,0,0,0,0,-1,1910,1296,52.3289,-14.6405
693,-272,52.4445,13.8667,0.000127814,-0.000590815,-4.82614e-05,0.00013104,-0.000594042,-0.066758,0.000446169,0.0130795,1917,1296,52.4444,-13.8667
700,-272,52.4264,13.1036,0.000178032,-0.000412566,0.000175048,0.000226016,-0.00046055,0.267548,0.000404025,0.012261,1924,1296,52.4264,-13.1036
707,-272,52.3857,12.3181,-0.000322544,-0.000496789,0.000759332,0.000354647,-0.00117398,0.72828,0.000923845,0.011866,1931,1296,52.3858,-12.3181
714,-272,52.3286,11.5496,-0.000999984,-0.000337998,0.00129809,0.000670632,-0.00200861,0.910231,0.00160987,0.014653,1938,1296,52.3286,-11.5495
721,-272,52.2777,10.8258,-0.00182431,-0.000238945,0.00190667,0.00103325,-0.0030965,0.982399,0.00248152,0.0192773,1945,1296,52.2777,-10.8258
728,-272,52.2583,10.0413,-0.00281151,-0.0002229,0.00260902,0.00139522,-0.00442964,1.01565,0.0035118,0.0194363,1952,1296,52.2583,-10.0413
735,-272,52.2373,9.3147,-0.00400537,-0.000297673,0.00344145,0.00175748,-0.00606052,1.03245,0.00473615,0.0159407,1959,1296,52.2373,-9.3147
742,-272,52.0962,8.61584,-0.00545936,-0.000498444,0.00442844,0.0020969,-0.0080547,1.04069,0.00618834,0.0249518,1966,1296,52.0962,-8.61589
749,-272,51.9943,7.87842,-0.00726694,-0.000936702,0.00564505,0.00237001,-0.0105737,1.0409,0.00795763,0.0459133,1973,1296,51.9942,-7.87842
756,-272,51.9664,7.17688,0,0,0,0,0,0,0,-1,1980,1296,51.9664,-7.17685
763,-272,34.3995,5.88416,0,0,0,0,0,0,0,-1,1987,1296,34.3996,-5.88419
770,-272,25.9485,3.67749,0,0,0,0,0,0,0,-1,1994,1296,25.9485,-3.67744
777,-272,32.3619,6.13257,0,0,0,0,0,0,0,-1,2001,1296,32.362,-6.1326
784,-272,0,0,0,0,0,0,0,0,0,-1,2008,1296,0,0
791,-272,0,0,0,0,0,0,0,0,0,-1,2015,1296,0,0
798,-272,0,0,0,0,0,0,0,0,0,-1,2022,1296,0,0
805,-272,0,0,0,0,0,0,0,0,0,-1,2029,1296,0,0
812,-272,0,0,0,0,0,0,0,0,0,-1,2036,1296,0,0
-700,-279,0,0,0,0,0,0,0,0,0,-1,524,1303,0,0
-693,-279,0,0,0,0,0,0,0,0,0,-1,531,1303,0,0
-686,-279,0,0,0,0,0,0,0,0,0,-1,538,1303,0,0
-679,-279,0,0,0,0,0,0,0,0,0,-1,545,1303,0,0
-672,-279,0,0,0,0,0,0,0,0,0,-1,552,1303,0,0
-665,-279,0,0,0,0,0,0,0,0,0,-1,559,1303,0,0
-658,-279,-44.3733,1.65881,0,0,0,0,0,0,0,-1,566,1303,-44.3733,-1.65883
-651,-279,-44.1603,1.61462,0,0,0,0,0,0,0,-1,573,1303,-44.1604,-1.61462
-644,-279,-43.8069,1.50903,0,0,0,0,0,0,0,-1,580,1303,-43.8069,-1.50909
-637,-279,-43.2951,1.33704,0,0,0,0,0,0,0,-1,587,1303,-43.2951,-1.33703
-630,-279,-42.6152,1.22852,0,0,0,0,0,0,0,-1,594,1303,-42.6152,-1.22856
-623,-279,-41.8359,0.907715,0,0,0,0,0,0,0,-1,601,1303,-41.8358,-0.907688
-616,-279,-33.9639,7.0083,0,0,0,0,0,0,0,-1,608,1303,-33.964,-7.00832
-609,-279,-35.0735,7.97473,0,0,0,0,0,0,0,-1,615,1303,-35.0736,-7.97472
-602,-279,-34.8947,8.38867,0.00350595,0.00405541,0.0022875,0.00608462,0.00147674,0.845162,0.00366473,0.0161006,622,1303,-34.8947,-8.38863
-595,-279,-34.9739,9.18481,0.00237853,0.00290605,0.00150872,0.0041739,0.00111068,0.871935,0.00249614,0.011235,629,1303,-34.9739,-9.18485
-588,-279,-35.0423,9.96741,0.00153089,0.00190871,0.000875186,0.00261514,0.000824454,0.891693,0.00154382,0.0119877,636,1303,-35.0423,-9.96737
-581,-279,-35.0938,10.7245,0.000909684,0.000967777,0.000359579,0.00129948,0.000577981,0.825701,0.000751779,0.01304,643,1303,-35.0938,-10.7245
-574,-279,-35.1488,11.5444,0.000483325,5.45215e-05,-5.90275e-05,0.000491302,4.65443e-05,-0.134328,0.000313175,0.0139716,650,1303,-35.1488,-11.5445
-567,-279,-35.1712,12.3582,0.000285763,-0.000850049,-0.000360487,0.000390514,-0.0009548,-0.282795,0.000799168,0.0197127,657,1303,-35.1712,-12.3582
-560,-279,-35.2005,13.1995,0.000382516,-0.00156518,-0.000517547,0.000511498,-0.00169416,-0.244243,0.00133306,0.0185119,664,1303,-35.2005,-13.1995
-553,-279,-35.2507,14.0007,0.000672934,-0.00275974,-0.000442373,0.000729027,-0.00281583,-0.126126,0.0021616,0.0214263,671,1303,-35.2507,-14.0007
-546,-279,-35.3242,14.8199,0,0,0,0,0,0,0,-1,678,1303,-35.3242,-14.82
-539,-279,-33.4584,14.6454,0,0,0,0,0,0,0,-1,685,1303,-33.4584,-14.6454
-532,-279,-14.9813,7.89917,0,0,0,0,0,0,0,-1,692,1303,-14.9813,-7.89918
-525,-279,-11.7063,-0.539185,0,0,0,0,0,0,0,-1,699,1303,-11.7063,0.539166
-518,-279,-16.8138,1.11963,0,0,0,0,0,0,0,-1,706,1303,-16.8138,-1.11968
-511,-279,-20.1063,-1.37915,0,0,0,0,0,0,0,-1,713,1303,-20.1062,1.37918
-504,-279,-18.3766,1.04578,0,0,0,0,0,0,0,-1,720,1303,-18.3767,-1.04577
-497,-279,-19.0046,2.08911,0,0,0,0,0,0,0,-1,727,1303,-19.0046,-2.08905
-490,-279,-20.0176,2.55188,0,0,0,0,0,0,0,-1,734,1303,-20.0176,-2.55183
-483,-279,-20.8064,2.99792,0,0,0,0,0,0,0,-1,741,1303,-20.8064,-2.99797
-476,-279,0,0,0,0,0,0,0,0,0,-1,748,1303,0,0
-469,-279,0,0,0,0,0,0,0,0,0,-1,755,1303,0,0
-462,-279,0,0,0,0,0,0,0,0,0,-1,762,1303,0,0
-455,-279,0,0,0,0,0,0,0,0,0,-1,769,1303,0,0
-448,-279,0,0,0,0,0,0,0,0,0,-1,776,1303,0,0
-441,-279,0,0,0,0,0,0,0,0,0,-1,783,1303,0,0
-434,-279,0,0,0,0,0,0,0,0,0,-1,790,1303,0,0
-427,-279,0,0,0,0,0,0,0,0,0,-1,797,1303,0,0
-420,-279,0,0,0,0,0,0,0,0,0,-1,804,1303,0,0
-413,-279,0,0,0,0,0,0,0,0,0,-1,811,1303,0,0
-406,-279,0,0,0,0,0,0,0,0,0,-1,818,1303,0,0
-399,-279,0,0,0,0,0,0,0,0,0,-1,825,1303,0,0
-392,-279,0,0,0,0,0,0,0,0,0,-1,832,1303,0,0
-385,-279,0,0,0,0,0,0,0,0,0,-1,839,1303,0,0
-378,-279,0,0,0,0,0,0,0,0,0,-1,846,1303,0,0
-371,-279,0,0,0,0,0,0,0,0,0,-1,853,1303,0,0
-364,-279,0,0,0,0,0,0,0,0,0,-1,860,1303,0,0
-357,-279,0,0,0,0,0,0,0,0,0,-1,867,1303,0,0
-350,-279,0,0,0,0,0,0,0,0,0,-1,874,1303,0,0
-343,-279,0,0,0,0,0,0,0,0,0,-1,881,1303,0,0
-336,-279,0,0,0,0,0,0,0,0,0,-1,888,1303,0,0
-329,-279,0,0,0,0,0,0,0,0,0,-1,895,1303,0,0
-322,-279,0,0,0,0,0,0,0,0,0,-1,902,1303,0,0
-315,-279,0,0,0,0,0,0,0,0,0,-1,909,1303,0,0
-308,-279,0,0,0,0,0,0,0,0,0,-1,916,1303,0,0
-301,-279,0,0,0,0,0,0,0,0,0,-1,923,1303,0,0
-294,-279,0,0,0,0,0,0,0,0,0,-1,930,1303,0,0
-287,-279,0,0,0,0,0,0,0,0,0,-1,937,1303,0,0
-280,-279,0,0,0,0,0,0,0,0,0,-1,944,1303,0,0
-273,-279,0,0,0,0,0,0,0,0,0,-1,951,1303,0,0
-266,-279,0,0,0,0,0,0,0,0,0,-1,958,1303,0,0
-259,-279,0,0,0,0,0,0,0,0,0,-1,965,1303,0,0
-252,-279,0,0,0,0,0,0,0,0,0,-1,972,1303,0,0
-245,-279,0,0,0,0,0,0,0,0,0,-1,979,1303,0,0
-238,-279,0,0,0,0,0,0,0,0,0,-1,986,1303,0,0
-231,-279,0,0,0,0,0,0,0,0,0,-1,993,1303,0,0
-224,-279,0,0,0,0,0,0,0,0,0,-1,1000,1303,0,0
-217,-279,0,0,0,0,0,0,0,0,0,-1,1007,1303,0,0
-210,-279,0,0,0,0,0,0,0,0,0,-1,1014,1303,0,0
-203,-279,0,0,0,0,0,0,0,0,0,-1,1021,1303,0,0
-196,-279,0,0,0,0,0,0,0,0,0,-1,1028,1303,0,0
-189,-279,0,0,0,0,0,0,0,0,0,-1,1035,1303,0,0
-182,-279,0,0,0,0,0,0,0,0,0,-1,1042,1303,0,0
-175,-279,0,0,0,0,0,0,0,0,0,-1,1049,1303,0,0
-168,-279,0,0,0,0,0,0,0,0,0,-1,1056,1303,0,0
-161,-279,0,0,0,0,0,0,0,0,0,-1,1063,1303,0,0
-154,-279,0,0,0,0,0,0,0,0,0,-1,1070,1303,0,0
-147,-279,0,0,0,0,0,0,0,0,0,-1,1077,1303,0,0
-140,-279,0,0,0,0,0,0,0,0,0,-1,1084,1303,0,0
-133,-279,0,0,0,0,0,0,0,0,0,-1,1091,1303,0,0
-126,-279,0,0,0,0,0,0,0,0,0,-1,1098,1303,0,0
-119,-279,0,0,0,0,0,0,0,0,0,-1,1105,1303,0,0
-112,-279,0,0,0,0,0,0,0,0,0,-1,1112,1303,0,0
-105,-279,0,0,0,0,0,0,0,0,0,-1,1119,1303,0,0
-98,-279,0,0,0,0,0,0,0,0,0,-1,1126,1303,0,0
-91,-279,0,0,0,0,0,0,0,0,0,-1,1133,1303,0,0
-84,-279,0,0,0,0,0,0,0,0,0,-1,1140,1303,0,0
-77,-279,0,0,0,0,0,0,0,0,0,-1,1147,1303,0,0
-70,-279,0,0,0,0,0,0,0,0,0,-1,1154,1303,0,0
-63,-279,0,0,0,0,0,0,0,0,0,-1,1161,1303,0,0
-56,-279,0,0,0,0,0,0,0,0,0,-1,1168,1303,0,0
-49,-279,0,0,0,0,0,0,0,0,0,-1,1175,1303,0,0
-42,-279,0,0,0,0,0,0,0,0,0,-1,1182,1303,0,0
-35,-279,0,0,0,0,0,0,0,0,0,-1,1189,1303,0,0
-28,-279,0,0,0,0,0,0,0,0,0,-1,1196,1303,0,0
-21,-279,0,0,0,0,0,0,0,0,0,-1,1203,1303,0,0
-14,-279,0,0,0,0,0,0,0,0,0,-1,1210,1303,0,0
-7,-279,0,0,0,0,0,0,0,0,0,-1,1217,1303,0,0
0,-279,0,0,0,0,0,0,0,0,0,-1,1224,1303,0,0
7,-279,0,0,0,0,0,0,0,0,0,-1,1231,1303,0,0
14,-279,0,0,0,0,0,0,0,0,0,-1,1238,1303,0,0
21,-279,0,0,0,0,0,0,0,0,0,-1,1245,1303,0,0
28,-279,0,0,0,0,0,0,0,0,0,-1,1252,1303,0,0
35,-279,0,0,0,0,0,0,0,0,0,-1,1259,1303,0,0
42,-279,0,0,0,0,0,0,0,0,0,-1,1266,1303,0,0
49,-279,0,0,0,0,0,0,0,0,0,-1,1273,1303,0,0
56,-279,0,0,0,0,0,0,0,0,0,-1,1280,1303,0,0
63,-279,0,0,0,0,0,0,0,0,0,-1,1287,1303,0,0
70,-279,0,0,0,0,0,0,0,0,0,-1,1294,1303,0,0
77,-279,0,0,0,0,0,0,0,0,0,-1,1301,1303,0,0
84,-279,0,0,0,0,0,0,0,0,0,-1,1308,1303,0,0
91,-279,0,0,0,0,0,0,0,0,0,-1,1315,1303,0,0
98,-279,0,0,0,0,0,0,0,0,0,-1,1322,1303,0,0
105,-279,0,0,0,0,0,0,0,0,0,-1,1329,1303,0,0
112,-279,0,0,0,0,0,0,0,0,0,-1,1336,1303,0,0
119,-279,0,0,0,0,0,0,0,0,0,-1,1343,1303,0,0
126,-279,0,0,0,0,0,0,0,0,0,-1,1350,1303,0,0
133,-279,0,0,0,0,0,0,0,0,0,-1,1357,1303,0,0
140,-279,0,0,0,0,0,0,0,0,0,-1,1364,1303,0,0
147,-279,0,0,0,0,0,0,0,0,0,-1,1371,1303,0,0
154,-279,0,0,0,0,0,0,0,0,0,-1,1378,1303,0,0
161,-279,0,0,0,0,0,0,0,0,0,-1,1385,1303,0,0
168,-279,0,0,0,0,0,0,0,0,0,-1,1392,1303,0,0
175,-279,0,0,0,0,0,0,0,0,0,-1,1399,1303,0,0
182,-279,0,0,0,0,0,0,0,0,0,-1,1406,1303,0,0
189,-279,0,0,0,0,0,0,0,0,0,-1,1413,1303,0,0
196,-279,0,0,0,0,0,0,0,0,0,-1,1420,1303,0,0
203,-279,0,0,0,0,0,0,0,0,0,-1,1427,1303,0,0
210,-279,0,0,0,0,0,0,0,0,0,-1,1434,1303,0,0
217,-279,0,0,0,0,0,0,0,0,0,-1,1441,1303,0,0
224,-279,0,0,0,0,0,0,0,0,0,-1,1448,1303,0,0
231,-279,0,0,0,0,0,0,0,0,0,-1,1455,1303,0,0
238,-279,0,0,0,0,0,0,0,0,0,-1,1462,1303,0,0
245,-279,0,0,0,0,0,0,0,0,0,-1,1469,1303,0,0
252,-279,0,0,0,0,0,0,0,0,0,-1,1476,1303,0,0
259,-279,0,0,0,0,0,0,0,0,0,-1,1483,1303,0,0
266,-279,0,0,0,0,0,0,0,0,0,-1,1490,1303,0,0
273,-279,0,0,0,0,0,0,0,0,0,-1,1497,1303,0,0
280,-279,0,0,0,0,0,0,0,0,0,-1,1504,1303,0,0
287,-279,0,0,0,0,0,0,0,0,0,-1,1511,1303,0,0
294,-279,0,0,0,0,0,0,0,0,0,-1,1518,1303,0,0
301,-279,0,0,0,0,0,0,0,0,0,-1,1525,1303,0,0
308,-279,0,0,0,0,0,0,0,0,0,-1,1532,1303,0,0
315,-279,0,0,0,0,0,0,0,0,0,-1,1539,1303,0,0
322,-279,0,0,0,0,0,0,0,0,0,-1,1546,1303,0,0
329,-279,0,0,0,0,0,0,0,0,0,-1,1553,1303,0,0
336,-279,0,0,0,0,0,0,0,0,0,-1,1560,1303,0,0
343,-279,0,0,0,0,0,0,0,0,0,-1,1567,1303,0,0
350,-279,0,0,0,0,0,0,0,0,0,-1,1574,1303,0,0
357,-279,0,0,0,0,0,0,0,0,0,-1,1581,1303,0,0
364,-279,0,0,0,0,0,0,0,0,0,-1,1588,1303,0,0
371,-279,0,0,0,0,0,0,0,0,0,-1,1595,1303,0,0
378,-279,0,0,0,0,0,0,0,0,0,-1,1602,1303,0,0
385,-279,0,0,0,0,0,0,0,0,0,-1,1609,1303,0,0
392,-279,0,0,0,0,0,0,0,0,0,-1,1616,1303,0,0
399,-279,0,0,0,0,0,0,0,0,0,-1,1623,1303,0,0
406,-279,0,0,0,0,0,0,0,0,0,-1,1630,1303,0,0
413,-279,0,0,0,0,0,0,0,0,0,-1,1637,1303,0,0
420,-279,0,0,0,0,0,0,0,0,0,-1,1644,1303,0,0
427,-279,0,0,0,0,0,0,0,0,0,-1,1651,1303,0,0
434,-279,0,0,0,0,0,0,0,0,0,-1,1658,1303,0,0
441,-279,0,0,0,0,0,0,0,0,0,-1,1665,1303,0,0
448,-279,0,0,0,0,0,0,0,0,0,-1,1672,1303,0,0
455,-279,0,0,0,0,0,0,0,0,0,-1,1679,1303,0,0
462,-279,0,0,0,0,0,0,0,0,0,-1,1686,1303,0,0
469,-279,0,0,0,0,0,0,0,0,0,-1,1693,1303,0,0
476,-279,0,0,0,0,0,0,0,0,0,-1,1700,1303,0,0
483,-279,0,0,0,0,0,0,0,0,0,-1,1707,1303,0,0
490,-279,0,0,0,0,0,0,0,0,0,-1,1714,1303,0,0
497,-279,0,0,0,0,0,0,0,0,0,-1,1721,1303,0,0
504,-279,0,0,0,0,0,0,0,0,0,-1,1728,1303,0,0
511,-279,0,0,0,0,0,0,0,0,0,-1,1735,1303,0,0
518,-279,0,0,0,0,0,0,0,0,0,-1,1742,1303,0,0
525,-279,0,0,0,0,0,0,0,0,0,-1,1749,1303,0,0
532,-279,0,0,0,0,0,0,0,0,0,-1,1756,1303,0,0
539,-279,0,0,0,0,0,0,0,0,0,-1,1763,1303,0,0
546,-279,0,0,0,0,0,0,0,0,0,-1,1770,1303,0,0
553,-279,0,0,0,0,0,0,0,0,0,-1,1777,1303,0,0
560,-279,0,0,0,0,0,0,0,0,0,-1,1784,1303,0,0
567,-279,0,0,0,0,0,0,0,0,0,-1,1791,1303,0,0
574,-279,0,0,0,0,0,0,0,0,0,-1,1798,1303,0,0
581,-279,0,0,0,0,0,0,0,0,0,-1,1805,1303,0,0
588,-279,0,0,0,0,0,0,0,0,0,-1,1812,1303,0,0
595,-279,0,0,0,0,0,0,0,0,0,-1,1819,1303,0,0
602,-279,75.0439,1.99451,0,0,0,0,0,0,0,-1,1826,1303,75.044,-1.99448
609,-279,74.928,1.86292,0,0,0,0,0,0,0,-1,1833,1303,74.928,-1.8629
616,-279,75.3192,1.85413,0.0058563,0.0116551,-0.0188237,0.0278014,-0.01029,-0.861812,0.0227535,0.049251,1840,1303,75.3192,-1.85416
623,-279,75.4893,1.64124,0.00500305,0.0105952,-0.0155774,0.0236255,-0.00802727,-0.8742,0.019,0.0496802,1847,1303,75.4892,-1.64124
630,-279,75.0175,1.5426,0,0,0,0,0,0,0,-1,1854,1303,75.0175,-1.54264
637,-279,73.1141,1.62744,0,0,0,0,0,0,0,-1,1861,1303,73.1142,-1.62742
644,-279,33.5021,3.40234,0,0,0,0,0,0,0,-1,1868,1303,33.5021,-3.40237
651,-279,29.8456,2.3562,0,0,0,0,0,0,0,-1,1875,1303,29.8455,-2.35615
658,-279,21.5076,7.65649,0,0,0,0,0,0,0,-1,1882,1303,21.5076,-7.65648
665,-279,18.9794,6.09607,0,0,0,0,0,0,0,-1,1889,1303,18.9793,-6.09601
672,-279,23.5206,8.32507,0,0,0,0,0,0,0,-1,1896,1303,23.5206,-8.32512
679,-279,51.5183,15.4624,0,0,0,0,0,0,0,-1,1903,1303,51.5183,-15.4624
686,-279,51.6771,14.6851,0.000435013,0.00100911,-0.00130948,0.00206263,-0.000618508,-0.893295,0.00162107,0.0347072,1910,1303,51.6772,-14.685
693,-279,51.678,13.9249,0.000351158,-0.000620613,-0.000128067,0.000367753,-0.000637207,-0.128857,0.000587125,0.0179559,1917,1303,51.678,-13.9249
700,-279,51.6378,13.1704,0.000292379,-0.000325452,0.000132343,0.000319534,-0.000352607,0.202379,0.000388218,0.0122983,1924,1303,51.6379,-13.1704
707,-279,51.5963,12.3601,-0.000194923,-0.000295696,0.000680718,0.000437271,-0.00092789,0.748456,0.000804964,0.0100797,1931,1303,51.5963,-12.3601
714,-279,51.5366,11.606,-0.000844447,-0.000187098,0.00122988,0.000757266,-0.00178881,0.915968,0.00150966,0.0117623,1938,1303,51.5366,-11.606
721,-279,51.5515,10.8577,-0.00165727,-0.000141042,0.00184841,0.00109868,-0.002897,0.980008,0.00238352,0.0162648,1945,1303,51.5515,-10.8576
728,-279,51.5544,10.1082,-0.00266528,-0.000180651,0.00255996,0.00142251,-0.00426844,1.0113,0.00341988,0.0177279,1952,1303,51.5544,-10.1082
735,-279,51.4664,9.39319,-0.00392366,-0.00031834,0.00340271,0.00172971,-0.00597172,1.02899,0.00466584,0.0170449,1959,1303,51.4664,-9.39314
742,-279,51.3408,8.69336,-0.00551691,-0.000586541,0.00439254,0.00198529,-0.00808874,1.04111,0.0061618,0.0282824,1966,1303,51.3409,-8.69341
749,-279,51.1917,8.00537,0,0,0,0,0,0,0,-1,1973,1303,51.1917,-8.00533
756,-279,23.2091,4.43433,0,0,0,0,0,0,0,-1,1980,1303,23.2092,-4.43432
763,-279,27.1613,3.46265,0,0,0,0,0,0,0,-1,1987,1303,27.1613,-3.4627
770,-279,21.5828,3.54199,0,0,0,0,0,0,0,-1,1994,1303,21.5827,-3.54198
777,-279,32.5369,6.99609,0,0,0,0,0,0,0,-1,2001,1303,32.5369,-6.99608
784,-279,0,0,0,0,0,0,0,0,0,-1,2008,1303,0,0
791,-279,0,0,0,0,0,0,0,0,0,-1,2015,1303,0,0
798,-279,0,0,0,0,0,0,0,0,0,-1,2022,1303,0,0
805,-279,0,0,0,0,0,0,0,0,0,-1,2029,1303,0,0
812,-279,0,0,0,0,0,0,0,0,0,-1,2036,1303,0,0
-700,-286,0,0,0,0,0,0,0,0,0,-1,524,1310,0,0
-693,-286,0,0,0,0,0,0,0,0,0,-1,531,1310,0,0
-686,-286,0,0,0,0,0,0,0,0,0,-1,538,1310,0,0
-679,-286,0,0,0,0,0,0,0,0,0,-1,545,1310,0,0
-672,-286,0,0,0,0,0,0,0,0,0,-1,552,1310,0,0
-665,-286,0,0,0,0,0,0,0,0,0,-1,559,1310,0,0
-658,-286,-44.103,1.76782,0,0,0,0,0,0,0,-1,566,1310,-44.103,-1.76778
-651,-286,-43.6417,1.98254,0,0,0,0,0,0,0,-1,573,1310,-43.6416,-1.98254
-644,-286,-43.3175,1.59558,0,0,0,0,0,0,0,-1,580,1310,-43.3175,-1.59556
-637,-286,-42.8448,1.15039,0,0,0,0,0,0,0,-1,587,1310,-42.8448,-1.15043
-630,-286,-42.1176,0.443848,0,0,0,0,0,0,0,-1,594,1310,-42.1176,-0.443802
-623,-286,-41.3121,-0.468384,0,0,0,0,0,0,0,-1,601,1310,-41.3121,0.468376
-616,-286,-22.0634,2.37744,0,0,0,0,0,0,0,-1,608,1310,-22.0633,-2.37746
-609,-286,-34.2853,7.32739,0,0,0,0,0,0,0,-1,615,1310,-34.2853,-7.32734
-602,-286,-34.1415,8.32483,0.00393309,0.00474001,0.00281325,0.00717859,0.00149451,0.85662,0.00437352,0.0235925,622,1310,-34.1415,-8.3248
-595,-286,-34.1958,9.20837,0.0027804,0.00338467,0.00193041,0.00503644,0.00112862,0.863025,0.0030518,0.0129571,629,1310,-34.1958,-9.20837
-588,-286,-34.2503,9.97266,0.00192847,0.0022488,0.00125064,0.00334949,0.000827785,0.849086,0.00201457,0.0139397,636,1310,-34.2503,-9.97262
-581,-286,-34.2628,10.7666,0.0013593,0.00122562,0.000751912,0.00204733,0.00053758,0.741068,0.00122565,0.0158183,643,1310,-34.2627,-10.7666
-574,-286,-34.3281,11.5918,0.00101277,0.000277501,0.000381638,0.00117504,0.000115227,0.402043,0.000747916,0.0160829,650,1310,-34.3281,-11.5918
-567,-286,-34.3854,12.4097,0.00090764,-0.00060611,0.00014566,0.000921529,-0.000619998,0.0950623,0.000895658,0.0158303,657,1310,-34.3854,-12.4096
-560,-286,-34.3825,13.2281,0.00116106,-0.00138049,9.26608e-05,0.00116443,-0.00138387,0.0363939,0.00147308,0.0143977,664,1310,-34.3825,-13.2281
-553,-286,-34.4132,14.0393,0.00178859,-0.00235201,0.000283693,0.00180794,-0.00237135,0.0680911,0.00242021,0.0113145,671,1310,-34.4132,-14.0393
-546,-286,-34.3846,14.8882,0.0028162,-0.00311103,0.000781746,0.00291757,-0.0032124,0.128953,0.00354051,0.0283332,678,1310,-34.3846,-14.8882
-539,-286,-34.4985,15.8282,0,0,0,0,0,0,0,-1,685,1310,-34.4984,-15.8282
-532,-286,-21.6771,10.4924,0,0,0,0,0,0,0,-1,692,1310,-21.6771,-10.4924
-525,-286,-11.4528,-1.11768,0,0,0,0,0,0,0,-1,699,1310,-11.4528,1.11769
-518,-286,-11.0701,1.37329,0,0,0,0,0,0,0,-1,706,1310,-11.0701,-1.37332
-511,-286,-17.7545,-0.0791016,0,0,0,0,0,0,0,-1,713,1310,-17.7544,0.0791606
-504,-286,-18.0455,1.29602,0,0,0,0,0,0,0,-1,720,1310,-18.0455,-1.29601
-497,-286,-18.3367,2.67114,0,0,0,0,0,0,0,-1,727,1310,-18.3366,-2.67118
-490,-286,-19.5795,2.47266,0,0,0,0,0,0,0,-1,734,1310,-19.5795,-2.4727
-483,-286,-19.7277,2.74744,0,0,0,0,0,0,0,-1,741,1310,-19.7277,-2.74747
-476,-286,-20.0391,3.06177,0,0,0,0,0,0,0,-1,748,1310,-20.0391,-3.06178
-469,-286,0,0,0,0,0,0,0,0,0,-1,755,1310,0,0
-462,-286,0,0,0,0,0,0,0,0,0,-1,762,1310,0,0
-455,-286,0,0,0,0,0,0,0,0,0,-1,769,1310,0,0
-448,-286,0,0,0,0,0,0,0,0,0,-1,776,1310,0,0
-441,-286,0,0,0,0,0,0,0,0,0,-1,783,1310,0,0
-434,-286,0,0,0,0,0,0,0,0,0,-1,790,1310,0,0
-427,-286,0,0,0,0,0,0,0,0,0,-1,797,1310,0,0
-420,-286,0,0,0,0,0,0,0,0,0,-1,804,1310,0,0
-413,-286,0,0,0,0,0,0,0,0,0,-1,811,1310,0,0
-406,-286,0,0,0,0,0,0,0,0,0,-1,818,1310,0,0
-399,-286,0,0,0,0,0,0,0,0,0,-1,825,1310,0,0
-392,-286,0,0,0,0,0,0,0,0,0,-1,832,1310,0,0
-385,-286,0,0,0,0,0,0,0,0,0,-1,839,1310,0,0
-378,-286,0,0,0,0,0,0,0,0,0,-1,846,1310,0,0
-371,-286,0,0,0,0,0,0,0,0,0,-1,853,1310,0,0
-364,-286,0,0,0,0,0,0,0,0,0,-1,860,1310,0,0
-357,-286,0,0,0,0,0,0,0,0,0,-1,867,1310,0,0
-350,-286,0,0,0,0,0,0,0,0,0,-1,874,1310,0,0
-343,-286,0,0,0,0,0,0,0,0,0,-1,881,1310,0,0
-336,-286,0,0,0,0,0,0,0,0,0,-1,888,1310,0,0
-329,-286,0,0,0,0,0,0,0,0,0,-1,895,1310,0,0
-322,-286,0,0,0,0,0,0,0,0,0,-1,902,1310,0,0
-315,-286,0,0,0,0,0,0,0,0,0,-1,909,1310,0,0
-308,-286,0,0,0,0,0,0,0,0,0,-1,916,1310,0,0
-301,-286,0,0,0,0,0,0,0,0,0,-1,923,1310,0,0
-294,-286,0,0,0,0,0,0,0,0,0,-1,930,1310,0,0
-287,-286,0,0,0,0,0,0,0,0,0,-1,937,1310,0,0
-280,-286,0,0,0,0,0,0,0,0,0,-1,944,1310,0,0
-273,-286,0,0,0,0,0,0,0,0,0,-1,951,1310,0,0
-266,-286,0,0,0,0,0,0,0,0,0,-1,958,1310,0,0
-259,-286,0,0,0,0,0,0,0,0,0,-1,965,1310,0,0
-252,-286,0,0,0,0,0,0,0,0,0,-1,972,1310,0,0
-245,-286,0,0,0,0,0,0,0,0,0,-1,979,1310,0,0
-238,-286,0,0,0,0,0,0,0,0,0,-1,986,1310,0,0
-231,-286,0,0,0,0,0,0,0,0,0,-1,993,1310,0,0
-224,-286,0,0,0,0,0,0,0,0,0,-1,1000,1310,0,0
-217,-286,0,0,0,0,0,0,0,0,0,-1,1007,1310,0,0
-210,-286,0,0,0,0,0,0,0,0,0,-1,1014,1310,0,0
-203,-286,0,0,0,0,0,0,0,0,0,-1,1021,1310,0,0
-196,-286,0,0,0,0,0,0,0,0,0,-1,1028,1310,0,0
-189,-286,0,0,0,0,0,0,0,0,0,-1,1035,1310,0,0
-182,-286,0,0,0,0,0,0,0,0,0,-1,1042,1310,0,0
-175,-286,0,0,0,0,0,0,0,0,0,-1,1049,1310,0,0
-168,-286,0,0,0,0,0,0,0,0,0,-1,1056,1310,0,0
-161,-286,0,0,0,0,0,0,0,0,0,-1,1063,1310,0,0
-154,-286,0,0,0,0,0,0,0,0,0,-1,1070,1310,0,0
-147,-286,0,0,0,0,0,0,0,0,0,-1,1077,1310,0,0
-140,-286,0,0,0,0,0,0,0,0,0,-1,1084,1310,0,0
-133,-286,0,0,0,0,0,0,0,0,0,-1,1091,1310,0,0
-126,-286,0,0,0,0,0,0,0,0,0,-1,1098,1310,0,0
-119,-286,0,0,0,0,0,0,0,0,0,-1,1105,1310,0,0
-112,-286,0,0,0,0,0,0,0,0,0,-1,1112,1310,0,0
-105,-286,0,0,0,0,0,0,0,0,0,-1,1119,1310,0,0
-98,-286,0,0,0,0,0,0,0,0,0,-1,1126,1310,0,0
-91,-286,0,0,0,0,0,0,0,0,0,-1,1133,1310,0,0
-84,-286,0,0,0,0,0,0,0,0,0,-1,1140,1310,0,0
-77,-286,0,0,0,0,0,0,0,0,0,-1,1147,1310,0,0
-70,-286,0,0,0,0,0,0,0,0,0,-1,1154,1310,0,0
-63,-286,0,0,0,0,0,0,0,0,0,-1,1161,1310,0,0
-56,-286,0,0,0,0,0,0,0,0,0,-1,1168,1310,0,0
-49,-286,0,0,0,0,0,0,0,0,0,-1,1175,1310,0,0
-42,-286,0,0,0,0,0,0,0,0,0,-1,1182,1310,0,0
-35,-286,0,0,0,0,0,0,0,0,0,-1,1189,1310,0,0
-28,-286,0,0,0,0,0,0,0,0,0,-1,1196,1310,0,0
-21,-286,0,0,0,0,0,0,0,0,0,-1,1203,1310,0,0
-14,-286,0,0,0,0,0,0,0,0,0,-1,1210,1310,0,0
-7,-286,0,0,0,0,0,0,0,0,0,-1,1217,1310,0,0
0,-286,0,0,0,0,0,0,0,0,0,-1,1224,1310,0,0
7,-286,0,0,0,0,0,0,0,0,0,-1,1231,1310,0,0
14,-286,0,0,0,0,0,0,0,0,0,-1,1238,1310,0,0
21,-286,0,0,0,0,0,0,0,0,0,-1,1245,1310,0,0
28,-286,0,0,0,0,0,0,0,0,0,-1,1252,1310,0,0
35,-286,0,0,0,0,0,0,0,0,0,-1,1259,1310,0,0
42,-286,0,0,0,0,0,0,0,0,0,-1,1266,1310,0,0
49,-286,0,0,0,0,0,0,0,0,0,-1,1273,1310,0,0
56,-286,0,0,0,0,0,0,0,0,0,-1,1280,1310,0,0
63,-286,0,0,0,0,0,0,0,0,0,-1,1287,1310,0,0
70,-286,0,0,0,0,0,0,0,0,0,-1,1294,1310,0,0
77,-286,0,0,0,0,0,0,0,0,0,-1,1301,1310,0,0
84,-286,0,0,0,0,0,0,0,0,0,-1,1308,1310,0,0
91,-286,0,0,0,0,0,0,0,0,0,-1,1315,1310,0,0
98,-286,0,0,0,0,0,0,0,0,0,-1,1322,1310,0,0
105,-286,0,0,0,0,0,0,0,0,0,-1,1329,1310,0,0
112,-286,0,0,0,0,0,0,0,0,0,-1,1336,1310,0,0
119,-286,0,0,0,0,0,0,0,0,0,-1,1343,1310,0,0
126,-286,0,0,0,0,0,0,0,0,0,-1,1350,1310,0,0
133,-286,0,0,0,0,0,0,0,0,0,-1,1357,1310,0,0
140,-286,0,0,0,0,0,0,0,0,0,-1,1364,1310,0,0
147,-286,0,0,0,0,0,0,0,0,0,-1,1371,1310,0,0
154,-286,0,0,0,0,0,0,0,0,0,-1,1378,1310,0,0
161,-286,0,0,0,0,0,0,0,0,0,-1,1385,1310,0,0
168,-286,0,0,0,0,0,0,0,0,0,-1,1392,1310,0,0
175,-286,0,0,0,0,0,0,0,0,0,-1,1399,1310,0,0
182,-286,0,0,0,0,0,0,0,0,0,-1,1406,1310,0,0
189,-286,0,0,0,0,0,0,0,0,0,-1,1413,1310,0,0
196,-286,0,0,0,0,0,0,0,0,0,-1,1420,1310,0,0
203,-286,0,0,0,0,0,0,0,0,0,-1,1427,1310,0,0
210,-286,0,0,0,0,0,0,0,0,0,-1,1434,1310,0,0
217,-286,0,0,0,0,0,0,0,0,0,-1,1441,1310,0,0
224,-286,0,0,0,0,0,0,0,0,0,-1,1448,1310,0,0
231,-286,0,0,0,0,0,0,0,0,0,-1,1455,1310,0,0
238,-286,0,0,0,0,0,0,0,0,0,-1,1462,1310,0,0
245,-286,0,0,0,0,0,0,0,0,0,-1,1469,1310,0,0
252,-286,0,0,0,0,0,0,0,0,0,-1,1476,1310,0,0
259,-286,0,0,0,0,0,0,0,0,0,-1,1483,1310,0,0
266,-286,0,0,0,0,0,0,0,0,0,-1,1490,1310,0,0
273,-286,0,0,0,0,0,0,0,0,0,-1,1497,1310,0,0
280,-286,0,0,0,0,0,0,0,0,0,-1,1504,1310,0,0
287,-286,0,0,0,0,0,0,0,0,0,-1,1511,1310,0,0
294,-286,0,0,0,0,0,0,0,0,0,-1,1518,1310,0,0
301,-286,0,0,0,0,0,0,0,0,0,-1,1525,1310,0,0
308,-286,0,0,0,0,0,0,0,0,0,-1,1532,1310,0,0
315,-286,0,0,0,0,0,0,0,0,0,-1,1539,1310,0,0
322,-286,0,0,0,0,0,0,0,0,0,-1,1546,1310,0,0
329,-286,0,0,0,0,0,0,0,0,0,-1,1553,1310,0,0
336,-286,0,0,0,0,0,0,0,0,0,-1,1560,1310,0,0
343,-286,0,0,0,0,0,0,0,0,0,-1,1567,1310,0,0
350,-286,0,0,0,0,0,0,0,0,0,-1,1574,1310,0,0
357,-286,0,0,0,0,0,0,0,0,0,-1,1581,1310,0,0
364,-286,0,0,0,0,0,0,0,0,0,-1,1588,1310,0,0
371,-286,0,0,0,0,0,0,0,0,0,-1,1595,1310,0,0
378,-286,0,0,0,0,0,0,0,0,0,-1,1602,1310,0,0
385,-286,0,0,0,0,0,0,0,0,0,-1,1609,1310,0,0
392,-286,0,0,0,0,0,0,0,0,0,-1,1616,1310,0,0
399,-286,0,0,0,0,0,0,0,0,0,-1,1623,1310,0,0
406,-286,0,0,0,0,0,0,0,0,0,-1,1630,1310,0,0
413,-286,0,0,0,0,0,0,0,0,0,-1,1637,1310,0,0
420,-286,0,0,0,0,0,0,0,0,0,-1,1644,1310,0,0
427,-286,0,0,0,0,0,0,0,0,0,-1,1651,1310,0,0
434,-286,0,0,0,0,0,0,0,0,0,-1,1658,1310,0,0
441,-286,0,0,0,0,0,0,0,0,0,-1,1665,1310,0,0
448,-286,0,0,0,0,0,0,0,0,0,-1,1672,1310,0,0
455,-286,0,0,0,0,0,0,0,0,0,-1,1679,1310,0,0
462,-286,0,0,0,0,0,0,0,0,0,-1,1686,1310,0,0
469,-286,0,0,0,0,0,0,0,0,0,-1,1693,1310,0,0
476,-286,0,0,0,0,0,0,0,0,0,-1,1700,1310,0,0
483,-286,0,0,0,0,0,0,0,0,0,-1,1707,1310,0,0
490,-286,0,0,0,0,0,0,0,0,0,-1,1714,1310,0,0
497,-286,0,0,0,0,0,0,0,0,0,-1,1721,1310,0,0
504,-286,0,0,0,0,0,0,0,0,0,-1,1728,1310,0,0
511,-286,0,0,0,0,0,0,0,0,0,-1,1735,1310,0,0
518,-286,0,0,0,0,0,0,0,0,0,-1,1742,1310,0,0
525,-286,0,0,0,0,0,0,0,0,0,-1,1749,1310,0,0
532,-286,0,0,0,0,0,0,0,0,0,-1,1756,1310,0,0
539,-286,0,0,0,0,0,0,0,0,0,-1,1763,1310,0,0
546,-286,0,0,0,0,0,0,0,0,0,-1,1770,1310,0,0
553,-286,0,0,0,0,0,0,0,0,0,-1,1777,1310,0,0
560,-286,0,0,0,0,0,0,0,0,0,-1,1784,1310,0,0
567,-286,0,0,0,0,0,0,0,0,0,-1,1791,1310,0,0
574,-286,0,0,0,0,0,0,0,0,0,-1,1798,1310,0,0
581,-286,0,0,0,0,0,0,0,0,0,-1,1805,1310,0,0
588,-286,0,0,0,0,0,0,0,0,0,-1,1812,1310,0,0
595,-286,69.8951,2.40527,0,0,0,0,0,0,0,-1,1819,1310,69.8951,-2.40522
602,-286,75.0535,1.83252,0,0,0,0,0,0,0,-1,1826,1310,75.0534,-1.83257
609,-286,75.049,2.28674,0,0,0,0,0,0,0,-1,1833,1310,75.049,-2.28671
616,-286,75.3541,1.72412,0,0,0,0,0,0,0,-1,1840,1310,75.3541,-1.72408
623,-286,75.6965,1.32544,0,0,0,0,0,0,0,-1,1847,1310,75.6965,-1.32546
630,-286,73.3732,1.46594,0,0,0,0,0,0,0,-1,1854,1310,73.3731,-1.46595
637,-286,47.8409,3.69824,0,0,0,0,0,0,0,-1,1861,1310,47.841,-3.69823
644,-286,25.6433,1.33862,0,0,0,0,0,0,0,-1,1868,1310,25.6433,-1.33858
651,-286,25.2507,1.88245,0,0,0,0,0,0,0,-1,1875,1310,25.2508,-1.88245
658,-286,25.9475,9.43689,0,0,0,0,0,0,0,-1,1882,1310,25.9475,-9.43693
665,-286,24.9838,8.03101,0,0,0,0,0,0,0,-1,1889,1310,24.9837,-8.03104
672,-286,40.2175,12.9626,0,0,0,0,0,0,0,-1,1896,1310,40.2175,-12.9627
679,-286,51.0082,15.5081,0,0,0,0,0,0,0,-1,1903,1310,51.0082,-15.508
686,-286,50.9836,14.7408,0.000847155,0.000683717,-0.00124696,0.00201507,-0.000484197,-0.752678,0.00153052,0.0231233,1910,1310,50.9837,-14.7408
693,-286,50.915,13.9747,0.000665145,-0.000476492,-0.000235909,0.000711973,-0.00052332,-0.195952,0.000715964,0.017116,1917,1310,50.9151,-13.9748
700,-286,50.8595,13.1807,0.000478341,-0.000150715,7.22504e-05,0.000486532,-0.000158906,0.112897,0.000388317,0.0121578,1924,1310,50.8595,-13.1807
707,-286,50.8135,12.4104,-1.14406e-05,-8.49308e-05,0.000604473,0.000557403,-0.000653774,0.755041,0.000700011,0.00962915,1931,1310,50.8135,-12.4105
714,-286,50.7771,11.6641,-0.000641572,-3.55477e-05,0.00117441,0.000874311,-0.00155143,0.911651,0.00141857,0.0100378,1938,1310,50.7771,-11.6641
721,-286,50.7751,10.9091,-0.00144428,-5.38234e-05,0.00181587,0.00119536,-0.00269346,0.96822,0.00230008,0.0134661,1945,1310,50.7751,-10.9091
728,-286,50.7406,10.1576,-0.00246856,-0.000162651,0.00255824,0.00149044,-0.00412166,0.997109,0.00335676,0.0173105,1952,1310,50.7406,-10.1576
735,-286,50.7148,9.39026,-0.00378445,-0.000390619,0.00344585,0.00175348,-0.00592855,1.01419,0.00464844,0.0219666,1959,1310,50.7148,-9.39021
742,-286,50.7191,8.65759,-0.00550895,-0.000766374,0.0044858,0.00193633,-0.00821166,1.02854,0.00622115,0.0400278,1966,1310,50.7191,-8.6576
749,-286,50.8463,7.91223,0,0,0,0,0,0,0,-1,1973,1310,50.8463,-7.91223
756,-286,24.8226,4.43481,0,0,0,0,0,0,0,-1,1980,1310,24.8227,-4.43479
763,-286,20.6671,3.99683,0,0,0,0,0,0,0,-1,1987,1310,20.6671,-3.99683
770,-286,23.9147,4.45679,0,0,0,0,0,0,0,-1,1994,1310,23.9146,-4.45675
777,-286,0,0,0,0,0,0,0,0,0,-1,2001,1310,0,0
784,-286,0,0,0,0,0,0,0,0,0,-1,2008,1310,0,0
791,-286,0,0,0,0,0,0,0,0,0,-1,2015,1310,0,0
798,-286,0,0,0,0,0,0,0,0,0,-1,2022,1310,0,0
805,-286,0,0,0,0,0,0,0,0,0,-1,2029,1310,0,0
812,-286,0,0,0,0,0,0,0,0,0,-1,2036,1310,0,0
-700,-293,0,0,0,0,0,0,0,0,0,-1,524,1317,0,0
-693,-293,0,0,0,0,0,0,0,0,0,-1,531,1317,0,0
-686,-293,0,0,0,0,0,0,0,0,0,-1,538,1317,0,0
-679,-293,0,0,0,0,0,0,0,0,0,-1,545,1317,0,0
-672,-293,0,0,0,0,0,0,0,0,0,-1,552,1317,0,0
-665,-293,0,0,0,0,0,0,0,0,0,-1,559,1317,0,0
-658,-293,0,0,0,0,0,0,0,0,0,-1,566,1317,0,0
-651,-293,-42.6636,2.1897,0,0,0,0,0,0,0,-1,573,1317,-42.6636,-2.18965
-644,-293,-42.6672,1.56262,0,0,0,0,0,0,0,-1,580,1317,-42.6672,-1.5626
-637,-293,-42.7898,0.963745,0,0,0,0,0,0,0,-1,587,1317,-42.7898,-0.963689
-630,-293,-42.7558,0.296021,0,0,0,0,0,0,0,-1,594,1317,-42.7558,-0.295997
-623,-293,-15.6058,0.229614,0,0,0,0,0,0,0,-1,601,1317,-15.6058,-0.229666
-616,-293,-15.5056,2.17737,0,0,0,0,0,0,0,-1,608,1317,-15.5055,-2.17742
-609,-293,-25.3796,5.07373,0,0,0,0,0,0,0,-1,615,1317,-25.3796,-5.07369
-602,-293,-33.4459,8.42639,0,0,0,0,0,0,0,-1,622,1317,-33.4459,-8.42637
-595,-293,-33.429,9.24829,0.00363203,0.00391856,0.00222533,0.00600523,0.00154536,0.817544,0.00360066,0.0220746,629,1317,-33.4289,-9.24824
-588,-293,-33.4283,10.047,0.00258081,0.00267644,0.00151277,0.00414215,0.0011151,0.801198,0.00247493,0.0174207,636,1317,-33.4284,-10.047
-581,-293,-33.4338,10.8358,0.0019163,0.00163105,0.00103733,0.00282076,0.00072658,0.71708,0.00169117,0.0193838,643,1317,-33.4338,-10.8358
-574,-293,-33.4956,11.6791,0.00153435,0.000707295,0.000711352,0.00194364,0.000298007,0.52211,0.00120873,0.01764,650,1317,-33.4956,-11.6791
-567,-293,-33.5756,12.4788,0.00144318,-0.000113413,0.000536463,0.00161015,-0.000280388,0.301747,0.00117807,0.0164452,657,1317,-33.5756,-12.4788
-560,-293,-33.5916,13.298,0.0017126,-0.000833672,0.000534412,0.00182021,-0.000941286,0.198713,0.00162105,0.016195,664,1317,-33.5915,-13.298
-553,-293,-33.6174,14.08,0.00240256,-0.00146805,0.000729111,0.00253535,-0.00160084,0.180148,0.00240826,0.0111373,671,1317,-33.6174,-14.0799
-546,-293,-33.6187,14.8997,0.00354938,-0.00191852,0.00120599,0.00380356,-0.0021727,0.207721,0.00349296,0.0207151,678,1317,-33.6187,-14.8996
-539,-293,-33.5903,15.7367,0,0,0,0,0,0,0,-1,685,1317,-33.5903,-15.7366
-532,-293,-27.4858,13.6715,0,0,0,0,0,0,0,-1,692,1317,-27.4858,-13.6715
-525,-293,-8.20642,3.62256,0,0,0,0,0,0,0,-1,699,1317,-8.20639,-3.6226
-518,-293,-10.1053,0.314209,0,0,0,0,0,0,0,-1,706,1317,-10.1053,-0.314234
-511,-293,-11.6276,0.235352,0,0,0,0,0,0,0,-1,713,1317,-11.6276,-0.235372
-504,-293,-17.9086,1.25427,0,0,0,0,0,0,0,-1,720,1317,-17.9086,-1.25423
-497,-293,-18.8006,1.62122,0,0,0,0,0,0,0,-1,727,1317,-18.8006,-1.62119
-490,-293,-18.8961,1.99255,0,0,0,0,0,0,0,-1,734,1317,-18.8961,-1.99251
-483,-293,-19.0831,2.35498,0,0,0,0,0,0,0,-1,741,1317,-19.0831,-2.35497
-476,-293,-19.5228,2.61243,0,0,0,0,0,0,0,-1,748,1317,-19.5228,-2.61237
-469,-293,0,0,0,0,0,0,0,0,0,-1,755,1317,0,0
-462,-293,0,0,0,0,0,0,0,0,0,-1,762,1317,0,0
-455,-293,0,0,0,0,0,0,0,0,0,-1,769,1317,0,0
-448,-293,0,0,0,0,0,0,0,0,0,-1,776,1317,0,0
-441,-293,0,0,0,0,0,0,0,0,0,-1,783,1317,0,0
-434,-293,0,0,0,0,0,0,0,0,0,-1,790,1317,0,0
-427,-293,0,0,0,0,0,0,0,0,0,-1,797,1317,0,0
-420,-293,0,0,0,0,0,0,0,0,0,-1,804,1317,0,0
-413,-293,0,0,0,0,0,0,0,0,0,-1,811,1317,0,0
-406,-293,0,0,0,0,0,0,0,0,0,-1,818,1317,0,0
-399,-293,0,0,0,0,0,0,0,0,0,-1,825,1317,0,0
-392,-293,0,0,0,0,0,0,0,0,0,-1,832,1317,0,0
-385,-293,0,0,0,0,0,0,0,0,0,-1,839,1317,0,0
-378,-293,0,0,0,0,0,0,0,0,0,-1,846,1317,0,0
-371,-293,0,0,0,0,0,0,0,0,0,-1,853,1317,0,0
-364,-293,0,0,0,0,0,0,0,0,0,-1,860,1317,0,0
-357,-293,0,0,0,0,0,0,0,0,0,-1,867,1317,0,0
-350,-293,0,0,0,0,0,0,0,0,0,-1,874,1317,0,0
-343,-293,0,0,0,0,0,0,0,0,0,-1,881,1317,0,0
-336,-293,0,0,0,0,0,0,0,0,0,-1,888,1317,0,0
-329,-293,0,0,0,0,0,0,0,0,0,-1,895,1317,0,0
-322,-293,0,0,0,0,0,0,0,0,0,-1,902,1317,0,0
-315,-293,0,0,0,0,0,0,0,0,0,-1,909,1317,0,0
-308,-293,0,0,0,0,0,0,0,0,0,-1,916,1317,0,0
-301,-293,0,0,0,0,0,0,0,0,0,-1,923,1317,0,0
-294,-293,0,0,0,0,0,0,0,0,0,-1,930,1317,0,0
-287,-293,0,0,0,0,0,0,0,0,0,-1,937,1317,0,0
-280,-293,0,0,0,0,0,0,0,0,0,-1,944,1317,0,0
-273,-293,0,0,0,0,0,0,0,0,0,-1,951,1317,0,0
-266,-293,0,0,0,0,0,0,0,0,0,-1,958,1317,0,0
-259,-293,0,0,0,0,0,0,0,0,0,-1,965,1317,0,0
-252,-293,0,0,0,0,0,0,0,0,0,-1,972,1317,0,0
-245,-293,0,0,0,0,0,0,0,0,0,-1,979,1317,0,0
-238,-293,0,0,0,0,0,0,0,0,0,-1,986,1317,0,0
-231,-293,0,0,0,0,0,0,0,0,0,-1,993,1317,0,0
-224,-293,0,0,0,0,0,0,0,0,0,-1,1000,1317,0,0
-217,-293,0,0,0,0,0,0,0,0,0,-1,1007,1317,0,0
-210,-293,0,0,0,0,0,0,0,0,0,-1,1014,1317,0,0
-203,-293,0,0,0,0,0,0,0,0,0,-1,1021,1317,0,0
-196,-293,0,0,0,0,0,0,0,0,0,-1,1028,1317,0,0
-189,-293,0,0,0,0,0,0,0,0,0,-1,1035,1317,0,0
-182,-293,0,0,0,0,0,0,0,0,0,-1,1042,1317,0,0
-175,-293,0,0,0,0,0,0,0,0,0,-1,1049,1317,0,0
-168,-293,0,0,0,0,0,0,0,0,0,-1,1056,1317,0,0
-161,-293,0,0,0,0,0,0,0,0,0,-1,1063,1317,0,0
-154,-293,0,0,0,0,0,0,0,0,0,-1,1070,1317,0,0
-147,-293,0,0,0,0,0,0,0,0,0,-1,1077,1317,0,0
-140,-293,0,0,0,0,0,0,0,0,0,-1,1084,1317,0,0
-133,-293,0,0,0,0,0,0,0,0,0,-1,1091,1317,0,0
-126,-293,0,0,0,0,0,0,0,0,0,-1,1098,1317,0,0
-119,-293,0,0,0,0,0,0,0,0,0,-1,1105,1317,0,0
-112,-293,0,0,0,0,0,0,0,0,0,-1,1112,1317,0,0
-105,-293,0,0,0,0,0,0,0,0,0,-1,1119,1317,0,0
-98,-293,0,0,0,0,0,0,0,0,0,-1,1126,1317,0,0
-91,-293,0,0,0,0,0,0,0,0,0,-1,1133,1317,0,0
-84,-293,0,0,0,0,0,0,0,0,0,-1,1140,1317,0,0
-77,-293,0,0,0,0,0,0,0,0,0,-1,1147,1317,0,0
-70,-293,0,0,0,0,0,0,0,0,0,-1,1154,1317,0,0
-63,-293,0,0,0,0,0,0,0,0,0,-1,1161,1317,0,0
-56,-293,0,0,0,0,0,0,0,0,0,-1,1168,1317,0,0
-49,-293,0,0,0,0,0,0,0,0,0,-1,1175,1317,0,0
-42,-293,0,0,0,0,0,0,0,0,0,-1,1182,1317,0,0
-35,-293,0,0,0,0,0,0,0,0,0,-1,1189,1317,0,0
-28,-293,0,0,0,0,0,0,0,0,0,-1,1196,1317,0,0
-21,-293,0,0,0,0,0,0,0,0,0,-1,1203,1317,0,0
-14,-293,0,0,0,0,0,0,0,0,0,-1,1210,1317,0,0
-7,-293,0,0,0,0,0,0,0,0,0,-1,1217,1317,0,0
0,-293,0,0,0,0,0,0,0,0,0,-1,1224,1317,0,0
7,-293,0,0,0,0,0,0,0,0,0,-1,1231,1317,0,0
14,-293,0,0,0,0,0,0,0,0,0,-1,1238,1317,0,0
21,-293,0,0,0,0,0,0,0,0,0,-1,1245,1317,0,0
28,-293,0,0,0,0,0,0,0,0,0,-1,1252,1317,0,0
35,-293,0,0,0,0,0,0,0,0,0,-1,1259,1317,0,0
42,-293,0,0,0,0,0,0,0,0,0,-1,1266,1317,0,0
49,-293,0,0,0,0,0,0,0,0,0,-1,1273,1317,0,0
56,-293,0,0,0,0,0,0,0,0,0,-1,1280,1317,0,0
63,-293,0,0,0,0,0,0,0,0,0,-1,1287,1317,0,0
70,-293,0,0,0,0,0,0,0,0,0,-1,1294,1317,0,0
77,-293,0,0,0,0,0,0,0,0,0,-1,1301,1317,0,0
84,-293,0,0,0,0,0,0,0,0,0,-1,1308,1317,0,0
91,-293,0,0,0,0,0,0,0,0,0,-1,1315,1317,0,0
98,-293,0,0,0,0,0,0,0,0,0,-1,1322,1317,0,0
105,-293,0,0,0,0,0,0,0,0,0,-1,1329,1317,0,0
112,-293,0,0,0,0,0,0,0,0,0,-1,1336,1317,0,0
119,-293,0,0,0,0,0,0,0,0,0,-1,1343,1317,0,0
126,-293,0,0,0,0,0,0,0,0,0,-1,1350,1317,0,0
133,-293,0,0,0,0,0,0,0,0,0,-1,1357,1317,0,0
140,-293,0,0,0,0,0,0,0,0,0,-1,1364,1317,0,0
147,-293,0,0,0,0,0,0,0,0,0,-1,1371,1317,0,0
154,-293,0,0,0,0,0,0,0,0,0,-1,1378,1317,0,0
161,-293,0,0,0,0,0,0,0,0,0,-1,1385,1317,0,0
168,-293,0,0,0,0,0,0,0,0,0,-1,1392,1317,0,0
175,-293,0,0,0,0,0,0,0,0,0,-1,1399,1317,0,0
182,-293,0,0,0,0,0,0,0,0,0,-1,1406,1317,0,0
189,-293,0,0,0,0,0,0,0,0,0,-1,1413,1317,0,0
196,-293,0,0,0,0,0,0,0,0,0,-1,1420,1317,0,0
203,-293,0,0,0,0,0,0,0,0,0,-1,1427,1317,0,0
210,-293,0,0,0,0,0,0,0,0,0,-1,1434,1317,0,0
217,-293,0,0,0,0,0,0,0,0,0,-1,1441,1317,0,0
224,-293,0,0,0,0,0,0,0,0,0,-1,1448,1317,0,0
231,-293,0,0,0,0,0,0,0,0,0,-1,1455,1317,0,0
238,-293,0,0,0,0,0,0,0,0,0,-1,1462,1317,0,0
245,-293,0,0,0,0,0,0,0,0,0,-1,1469,1317,0,0
252,-293,0,0,0,0,0,0,0,0,0,-1,1476,1317,0,0
259,-293,0,0,0,0,0,0,0,0,0,-1,1483,1317,0,0
266,-293,0,0,0,0,0,0,0,0,0,-1,1490,1317,0,0
273,-293,0,0,0,0,0,0,0,0,0,-1,1497,1317,0,0
280,-293,0,0,0,0,0,0,0,0,0,-1,1504,1317,0,0
287,-293,0,0,0,0,0,0,0,0,0,-1,1511,1317,0,0
294,-293,0,0,0,0,0,0,0,0,0,-1,1518,1317,0,0
301,-293,0,0,0,0,0,0,0,0,0,-1,1525,1317,0,0
308,-293,0,0,0,0,0,0,0,0,0,-1,1532,1317,0,0
315,-293,0,0,0,0,0,0,0,0,0,-1,1539,1317,0,0
322,-293,0,0,0,0,0,0,0,0,0,-1,1546,1317,0,0
329,-293,0,0,0,0,0,0,0,0,0,-1,1553,1317,0,0
336,-293,0,0,0,0,0,0,0,0,0,-1,1560,1317,0,0
343,-293,0,0,0,0,0,0,0,0,0,-1,1567,1317,0,0
350,-293,0,0,0,0,0,0,0,0,0,-1,1574,1317,0,0
357,-293,0,0,0,0,0,0,0,0,0,-1,1581,1317,0,0
364,-293,0,0,0,0,0,0,0,0,0,-1,1588,1317,0,0
371,-293,0,0,0,0,0,0,0,0,0,-1,1595,1317,0,0
378,-293,0,0,0,0,0,0,0,0,0,-1,1602,1317,0,0
385,-293,0,0,0,0,0,0,0,0,0,-1,1609,1317,0,0
392,-293,0,0,0,0,0,0,0,0,0,-1,1616,1317,0,0
399,-293,0,0,0,0,0,0,0,0,0,-1,1623,1317,0,0
406,-293,0,0,0,0,0,0,0,0,0,-1,1630,1317,0,0
413,-293,0,0,0,0,0,0,0,0,0,-1,1637,1317,0,0
420,-293,0,0,0,0,0,0,0,0,0,-1,1644,1317,0,0
427,-293,0,0,0,0,0,0,0,0,0,-1,1651,1317,0,0
434,-293,0,0,0,0,0,0,0,0,0,-1,1658,1317,0,0
441,-293,0,0,0,0,0,0,0,0,0,-1,1665,1317,0,0
448,-293,0,0,0,0,0,0,0,0,0,-1,1672,1317,0,0
455,-293,0,0,0,0,0,0,0,0,0,-1,1679,1317,0,0
462,-293,0,0,0,0,0,0,0,0,0,-1,1686,1317,0,0
469,-293,0,0,0,0,0,0,0,0,0,-1,1693,1317,0,0
476,-293,0,0,0,0,0,0,0,0,0,-1,1700,1317,0,0
483,-293,0,0,0,0,0,0,0,0,0,-1,1707,1317,0,0
490,-293,0,0,0,0,0,0,0,0,0,-1,1714,1317,0,0
497,-293,0,0,0,0,0,0,0,0,0,-1,1721,1317,0,0
504,-293,0,0,0,0,0,0,0,0,0,-1,1728,1317,0,0
511,-293,0,0,0,0,0,0,0,0,0,-1,1735,1317,0,0
518,-293,0,0,0,0,0,0,0,0,0,-1,1742,1317,0,0
525,-293,0,0,0,0,0,0,0,0,0,-1,1749,1317,0,0
532,-293,0,0,0,0,0,0,0,0,0,-1,1756,1317,0,0
539,-293,0,0,0,0,0,0,0,0,0,-1,1763,1317,0,0
546,-293,0,0,0,0,0,0,0,0,0,-1,1770,1317,0,0
553,-293,0,0,0,0,0,0,0,0,0,-1,1777,1317,0,0
560,-293,0,0,0,0,0,0,0,0,0,-1,1784,1317,0,0
567,-293,0,0,0,0,0,0,0,0,0,-1,1791,1317,0,0
574,-293,0,0,0,0,0,0,0,0,0,-1,1798,1317,0,0
581,-293,0,0,0,0,0,0,0,0,0,-1,1805,1317,0,0
588,-293,0,0,0,0,0,0,0,0,0,-1,1812,1317,0,0
595,-293,70.0999,2.25085,0,0,0,0,0,0,0,-1,1819,1317,70.0998,-2.25088
602,-293,70.2273,2.05859,0,0,0,0,0,0,0,-1,1826,1317,70.2273,-2.05859
609,-293,75.2405,2.27881,0,0,0,0,0,0,0,-1,1833,1317,75.2404,-2.27875
616,-293,75.0701,2.39868,0,0,0,0,0,0,0,-1,1840,1317,75.0701,-2.39871
623,-293,64.6224,0.448364,0,0,0,0,0,0,0,-1,1847,1317,64.6224,-0.448318
630,-293,46.6716,3.21558,0,0,0,0,0,0,0,-1,1854,1317,46.6716,-3.2156
637,-293,42.7729,4.95544,0,0,0,0,0,0,0,-1,1861,1317,42.773,-4.95546
644,-293,24.4565,0.520752,0,0,0,0,0,0,0,-1,1868,1317,24.4566,-0.520709
651,-293,25.8926,9.51245,0,0,0,0,0,0,0,-1,1875,1317,25.8926,-9.51246
658,-293,25.4904,9.10205,0,0,0,0,0,0,0,-1,1882,1317,25.4904,-9.10209
665,-293,39.7999,13.4221,0,0,0,0,0,0,0,-1,1889,1317,39.8,-13.4221
672,-293,50.2643,16.4513,0,0,0,0,0,0,0,-1,1896,1317,50.2642,-16.4513
679,-293,50.2377,15.5171,0.00106994,0.0017277,-0.00187627,0.00330369,-0.000506054,-0.872159,0.00238908,0.0211914,1903,1317,50.2377,-15.5171
686,-293,50.2214,14.7671,0.00113592,0.000563682,-0.0011376,0.00202283,-0.000323225,-0.662197,0.0014682,0.0159588,1910,1317,50.2214,-14.7671
693,-293,50.1703,13.9951,0.000857989,-0.00022888,-0.000285305,0.000928329,-0.000299221,-0.241725,0.0007391,0.0129649,1917,1317,50.1702,-13.9951
700,-293,50.0968,13.2058,0.000591513,3.34886e-06,7.37851e-05,0.000600628,-5.7662e-06,0.122913,0.000402354,0.0117155,1924,1317,50.0969,-13.2058
707,-293,50.0492,12.4594,0.000121195,6.43073e-05,0.000587162,0.000680602,-0.000495099,0.761196,0.000681602,0.0124288,1931,1317,50.0493,-12.4593
714,-293,50.0211,11.7012,-0.000490708,6.73703e-05,0.00116012,0.000981534,-0.00140487,0.90342,0.001385,0.00876381,1938,1317,50.0211,-11.7012
721,-293,50.0079,10.9353,-0.00127882,-7.60841e-07,0.00180167,0.00127185,-0.00255144,0.955821,0.00224821,0.0104816,1945,1317,50.008,-10.9354
728,-293,49.9896,10.1549,-0.00231438,-0.000157644,0.00254986,0.0015325,-0.00400452,0.985448,0.00330129,0.0147334,1952,1317,49.9896,-10.155
735,-293,49.9561,9.35779,-0.00368483,-0.000458311,0.00345552,0.00174198,-0.00588513,1.00379,0.004615,0.0271191,1959,1317,49.9561,-9.35779
742,-293,50.012,8.53589,0,0,0,0,0,0,0,-1,1966,1317,50.012,-8.53586
749,-293,29.439,5.35339,0,0,0,0,0,0,0,-1,1973,1317,29.4389,-5.35334
756,-293,24.978,3.9718,0,0,0,0,0,0,0,-1,1980,1317,24.978,-3.97186
763,-293,26.6713,4.74097,0,0,0,0,0,0,0,-1,1987,1317,26.6713,-4.74098
770,-293,24.1349,4.69153,0,0,0,0,0,0,0,-1,1994,1317,24.1348,-4.69159
777,-293,0,0,0,0,0,0,0,0,0,-1,2001,1317,0,0
784,-293,0,0,0,0,0,0,0,0,0,-1,2008,1317,0,0
791,-293,0,0,0,0,0,0,0,0,0,-1,2015,1317,0,0
798,-293,0,0,0,0,0,0,0,0,0,-1,2022,1317,0,0
805,-293,0,0,0,0,0,0,0,0,0,-1,2029,1317,0,0
812,-293,0,0,0,0,0,0,0,0,0,-1,2036,1317,0,0
-700,-300,0,0,0,0,0,0,0,0,0,-1,524,1324,0,0
-693,-300,0,0,0,0,0,0,0,0,0,-1,531,1324,0,0
-686,-300,0,0,0,0,0,0,0,0,0,-1,538,1324,0,0
-679,-300,0,0,0,0,0,0,0,0,0,-1,545,1324,0,0
-672,-300,0,0,0,0,0,0,0,0,0,-1,552,1324,0,0
-665,-300,0,0,0,0,0,0,0,0,0,-1,559,1324,0,0
-658,-300,0,0,0,0,0,0,0,0,0,-1,566,1324,0,0
-651,-300,-41.7632,2.33789,0,0,0,0,0,0,0,-1,573,1324,-41.7632,-2.33789
-644,-300,-42.3084,1.3728,0,0,0,0,0,0,0,-1,580,1324,-42.3084,-1.37282
-637,-300,-42.6259,0.807251,0,0,0,0,0,0,0,-1,587,1324,-42.6259,-0.807209
-630,-300,-21.1108,2.26306,0,0,0,0,0,0,0,-1,594,1324,-21.1109,-2.2631
-623,-300,-12.7067,1.48462,0,0,0,0,0,0,0,-1,601,1324,-12.7067,-1.48462
-616,-300,-14.9988,1.68628,0,0,0,0,0,0,0,-1,608,1324,-14.9988,-1.68627
-609,-300,-15.5027,3.29907,0,0,0,0,0,0,0,-1,615,1324,-15.5027,-3.29902
-602,-300,-32.6929,8.24023,0,0,0,0,0,0,0,-1,622,1324,-32.6929,-8.24025
-595,-300,-32.6895,9.24597,0.00432069,0.00429824,0.00266498,0.00697447,0.00164446,0.783292,0.00420995,0.0400765,629,1324,-32.6894,-9.24601
-588,-300,-32.6005,10.1185,0.00308987,0.00305027,0.00182955,0.00489972,0.00124042,0.779987,0.00294152,0.0215774,636,1324,-32.6005,-10.1186
-581,-300,-32.6474,10.9368,0.0023697,0.00208963,0.00130757,0.00354471,0.00091462,0.732053,0.00212492,0.02078,643,1324,-32.6474,-10.9367
-574,-300,-32.6931,11.7329,0.00199242,0.00127543,0.000972591,0.00267048,0.000597364,0.608824,0.00161838,0.0168655,650,1324,-32.693,-11.7329
-567,-300,-32.7554,12.5227,0.00193931,0.000581747,0.000814719,0.00232096,0.0002001,0.438083,0.00148511,0.0171995,657,1324,-32.7554,-12.5227
-560,-300,-32.8066,13.3411,0.00223461,-2.1454e-05,0.000833609,0.0025092,-0.000296048,0.31821,0.00177971,0.0152261,664,1324,-32.8067,-13.3411
-553,-300,-32.8226,14.1318,0.0029435,-0.000490517,0.00106666,0.00324785,-0.000794868,0.277944,0.00247314,0.0109442,671,1324,-32.8226,-14.1318
-546,-300,-32.8633,14.9268,0.0040843,-0.00084813,0.0015557,0.00453398,-0.00129781,0.281382,0.00353557,0.0114307,678,1324,-32.8633,-14.9267
-539,-300,-32.7659,15.8104,0.00596317,-0.0011276,0.00241136,0.00670549,-0.00186992,0.298636,0.00520679,0.0307396,685,1324,-32.7659,-15.8104
-532,-300,-32.6062,16.6853,0,0,0,0,0,0,0,-1,692,1324,-32.6062,-16.6853
-525,-300,-13.5115,6.27783,0,0,0,0,0,0,0,-1,699,1324,-13.5115,-6.2778
-518,-300,-9.8349,-0.537109,0,0,0,0,0,0,0,-1,706,1324,-9.83487,0.537068
-511,-300,-12.8644,0.081665,0,0,0,0,0,0,0,-1,713,1324,-12.8644,-0.0817016
-504,-300,-13.4829,-0.165527,0,0,0,0,0,0,0,-1,720,1324,-13.4829,0.165544
-497,-300,-18.1063,0.956543,0,0,0,0,0,0,0,-1,727,1324,-18.1063,-0.9565
-490,-300,-18.2293,1.53625,0,0,0,0,0,0,0,-1,734,1324,-18.2293,-1.53626
-483,-300,-18.3522,1.61084,0,0,0,0,0,0,0,-1,741,1324,-18.3522,-1.6108
-476,-300,-18.7489,1.96387,0,0,0,0,0,0,0,-1,748,1324,-18.7489,-1.96387
-469,-300,0,0,0,0,0,0,0,0,0,-1,755,1324,0,0
-462,-300,0,0,0,0,0,0,0,0,0,-1,762,1324,0,0
-455,-300,0,0,0,0,0,0,0,0,0,-1,769,1324,0,0
-448,-300,0,0,0,0,0,0,0,0,0,-1,776,1324,0,0
-441,-300,0,0,0,0,0,0,0,0,0,-1,783,1324,0,0
-434,-300,0,0,0,0,0,0,0,0,0,-1,790,1324,0,0
-427,-300,0,0,0,0,0,0,0,0,0,-1,797,1324,0,0
-420,-300,0,0,0,0,0,0,0,0,0,-1,804,1324,0,0
-413,-300,0,0,0,0,0,0,0,0,0,-1,811,1324,0,0
-406,-300,0,0,0,0,0,0,0,0,0,-1,818,1324,0,0
-399,-300,0,0,0,0,0,0,0,0,0,-1,825,1324,0,0
-392,-300,0,0,0,0,0,0,0,0,0,-1,832,1324,0,0
-385,-300,0,0,0,0,0,0,0,0,0,-1,839,1324,0,0
-378,-300,0,0,0,0,0,0,0,0,0,-1,846,1324,0,0
-371,-300,0,0,0,0,0,0,0,0,0,-1,853,1324,0,0
-364,-300,0,0,0,0,0,0,0,0,0,-1,860,1324,0,0
-357,-300,0,0,0,0,0,0,0,0,0,-1,867,1324,0,0
-350,-300,0,0,0,0,0,0,0,0,0,-1,874,1324,0,0
-343,-300,0,0,0,0,0,0,0,0,0,-1,881,1324,0,0
-336,-300,0,0,0,0,0,0,0,0,0,-1,888,1324,0,0
-329,-300,0,0,0,0,0,0,0,0,0,-1,895,1324,0,0
-322,-300,0,0,0,0,0,0,0,0,0,-1,902,1324,0,0
-315,-300,0,0,0,0,0,0,0,0,0,-1,909,1324,0,0
-308,-300,0,0,0,0,0,0,0,0,0,-1,916,1324,0,0
-301,-300,0,0,0,0,0,0,0,0,0,-1,923,1324,0,0
-294,-300,0,0,0,0,0,0,0,0,0,-1,930,1324,0,0
-287,-300,0,0,0,0,0,0,0,0,0,-1,937,1324,0,0
-280,-300,0,0,0,0,0,0,0,0,0,-1,944,1324,0,0
-273,-300,0,0,0,0,0,0,0,0,0,-1,951,1324,0,0
-266,-300,0,0,0,0,0,0,0,0,0,-1,958,1324,0,0
-259,-300,0,0,0,0,0,0,0,0,0,-1,965,1324,0,0
-252,-300,0,0,0,0,0,0,0,0,0,-1,972,1324,0,0
-245,-300,0,0,0,0,0,0,0,0,0,-1,979,1324,0,0
-238,-300,0,0,0,0,0,0,0,0,0,-1,986,1324,0,0
-231,-300,0,0,0,0,0,0,0,0,0,-1,993,1324,0,0
-224,-300,0,0,0,0,0,0,0,0,0,-1,1000,1324,0,0
-217,-300,0,0,0,0,0,0,0,0,0,-1,1007,1324,0,0
-210,-300,0,0,0,0,0,0,0,0,0,-1,1014,1324,0,0
-203,-300,0,0,0,0,0,0,0,0,0,-1,1021,1324,0,0
-196,-300,0,0,0,0,0,0,0,0,0,-1,1028,1324,0,0
-189,-300,0,0,0,0,0,0,0,0,0,-1,1035,1324,0,0
-182,-300,0,0,0,0,0,0,0,0,0,-1,1042,1324,0,0
-175,-300,0,0,0,0,0,0,0,0,0,-1,1049,1324,0,0
-168,-300,0,0,0,0,0,0,0,0,0,-1,1056,1324,0,0
-161,-300,0,0,0,0,0,0,0,0,0,-1,1063,1324,0,0
-154,-300,0,0,0,0,0,0,0,0,0,-1,1070,1324,0,0
-147,-300,0,0,0,0,0,0,0,0,0,-1,1077,1324,0,0
-140,-300,0,0,0,0,0,0,0,0,0,-1,1084,1324,0,0
-133,-300,0,0,0,0,0,0,0,0,0,-1,1091,1324,0,0
-126,-300,0,0,0,0,0,0,0,0,0,-1,1098,1324,0,0
-119,-300,0,0,0,0,0,0,0,0,0,-1,1105,1324,0,0
-112,-300,0,0,0,0,0,0,0,0,0,-1,1112,1324,0,0
-105,-300,0,0,0,0,0,0,0,0,0,-1,1119,1324,0,0
-98,-300,0,0,0,0,0,0,0,0,0,-1,1126,1324,0,0
-91,-300,0,0,0,0,0,0,0,0,0,-1,1133,1324,0,0
-84,-300,0,0,0,0,0,0,0,0,0,-1,1140,1324,0,0
-77,-300,0,0,0,0,0,0,0,0,0,-1,1147,1324,0,0
-70,-300,0,0,0,0,0,0,0,0,0,-1,1154,1324,0,0
-63,-300,0,0,0,0,0,0,0,0,0,-1,1161,1324,0,0
-56,-300,0,0,0,0,0,0,0,0,0,-1,1168,1324,0,0
-49,-300,0,0,0,0,0,0,0,0,0,-1,1175,1324,0,0
-42,-300,0,0,0,0,0,0,0,0,0,-1,1182,1324,0,0
-35,-300,0,0,0,0,0,0,0,0,0,-1,1189,1324,0,0
-28,-300,0,0,0,0,0,0,0,0,0,-1,1196,1324,0,0
-21,-300,0,0,0,0,0,0,0,0,0,-1,1203,1324,0,0
-14,-300,0,0,0,0,0,0,0,0,0,-1,1210,1324,0,0
-7,-300,0,0,0,0,0,0,0,0,0,-1,1217,1324,0,0
0,-300,0,0,0,0,0,0,0,0,0,-1,1224,1324,0,0
7,-300,0,0,0,0,0,0,0,0,0,-1,1231,1324,0,0
14,-300,0,0,0,0,0,0,0,0,0,-1,1238,1324,0,0
21,-300,0,0,0,0,0,0,0,0,0,-1,1245,1324,0,0
28,-300,0,0,0,0,0,0,0,0,0,-1,1252,1324,0,0
35,-300,0,0,0,0,0,0,0,0,0,-1,1259,1324,0,0
42,-300,0,0,0,0,0,0,0,0,0,-1,1266,1324,0,0
49,-300,0,0,0,0,0,0,0,0,0,-1,1273,1324,0,0
56,-300,0,0,0,0,0,0,0,0,0,-1,1280,1324,0,0
63,-300,0,0,0,0,0,0,0,0,0,-1,1287,1324,0,0
70,-300,0,0,0,0,0,0,0,0,0,-1,1294,1324,0,0
77,-300,0,0,0,0,0,0,0,0,0,-1,1301,1324,0,0
84,-300,0,0,0,0,0,0,0,0,0,-1,1308,1324,0,0
91,-300,0,0,0,0,0,0,0,0,0,-1,1315,1324,0,0
98,-300,0,0,0,0,0,0,0,0,0,-1,1322,1324,0,0
105,-300,0,0,0,0,0,0,0,0,0,-1,1329,1324,0,0
112,-300,0,0,0,0,0,0,0,0,0,-1,1336,1324,0,0
119,-300,0,0,0,0,0,0,0,0,0,-1,1343,1324,0,0
126,-300,0,0,0,0,0,0,0,0,0,-1,1350,1324,0,0
133,-300,0,0,0,0,0,0,0,0,0,-1,1357,1324,0,0
140,-300,0,0,0,0,0,0,0,0,0,-1,1364,1324,0,0
147,-300,0,0,0,0,0,0,0,0,0,-1,1371,1324,0,0
154,-300,0,0,0,0,0,0,0,0,0,-1,1378,1324,0,0
161,-300,0,0,0,0,0,0,0,0,0,-1,1385,1324,0,0
168,-300,0,0,0,0,0,0,0,0,0,-1,1392,1324,0,0
175,-300,0,0,0,0,0,0,0,0,0,-1,1399,1324,0,0
182,-300,0,0,0,0,0,0,0,0,0,-1,1406,1324,0,0
189,-300,0,0,0,0,0,0,0,0,0,-1,1413,1324,0,0
196,-300,0,0,0,0,0,0,0,0,0,-1,1420,1324,0,0
203,-300,0,0,0,0,0,0,0,0,0,-1,1427,1324,0,0
210,-300,0,0,0,0,0,0,0,0,0,-1,1434,1324,0,0
217,-300,0,0,0,0,0,0,0,0,0,-1,1441,1324,0,0
224,-300,0,0,0,0,0,0,0,0,0,-1,1448,1324,0,0
231,-300,0,0,0,0,0,0,0,0,0,-1,1455,1324,0,0
238,-300,0,0,0,0,0,0,0,0,0,-1,1462,1324,0,0
245,-300,0,0,0,0,0,0,0,0,0,-1,1469,1324,0,0
252,-300,0,0,0,0,0,0,0,0,0,-1,1476,1324,0,0
259,-300,0,0,0,0,0,0,0,0,0,-1,1483,1324,0,0
266,-300,0,0,0,0,0,0,0,0,0,-1,1490,1324,0,0
273,-300,0,0,0,0,0,0,0,0,0,-1,1497,1324,0,0
280,-300,0,0,0,0,0,0,0,0,0,-1,1504,1324,0,0
287,-300,0,0,0,0,0,0,0,0,0,-1,1511,1324,0,0
294,-300,0,0,0,0,0,0,0,0,0,-1,1518,1324,0,0
301,-300,0,0,0,0,0,0,0,0,0,-1,1525,1324,0,0
308,-300,0,0,0,0,0,0,0,0,0,-1,1532,1324,0,0
315,-300,0,0,0,0,0,0,0,0,0,-1,1539,1324,0,0
322,-300,0,0,0,0,0,0,0,0,0,-1,1546,1324,0,0
329,-300,0,0,0,0,0,0,0,0,0,-1,1553,1324,0,0
336,-300,0,0,0,0,0,0,0,0,0,-1,1560,1324,0,0
343,-300,0,0,0,0,0,0,0,0,0,-1,1567,1324,0,0
350,-300,0,0,0,0,0,0,0,0,0,-1,1574,1324,0,0
357,-300,0,0,0,0,0,0,0,0,0,-1,1581,1324,0,0
364,-300,0,0,0,0,0,0,0,0,0,-1,1588,1324,0,0
371,-300,0,0,0,0,0,0,0,0,0,-1,1595,1324,0,0
378,-300,0,0,0,0,0,0,0,0,0,-1,1602,1324,0,0
385,-300,0,0,0,0,0,0,0,0,0,-1,1609,1324,0,0
392,-300,0,0,0,0,0,0,0,0,0,-1,1616,1324,0,0
399,-300,0,0,0,0,0,0,0,0,0,-1,1623,1324,0,0
406,-300,0,0,0,0,0,0,0,0,0,-1,1630,1324,0,0
413,-300,0,0,0,0,0,0,0,0,0,-1,1637,1324,0,0
420,-300,0,0,0,0,0,0,0,0,0,-1,1644,1324,0,0
427,-300,0,0,0,0,0,0,0,0,0,-1,1651,1324,0,0
434,-300,0,0,0,0,0,0,0,0,0,-1,1658,1324,0,0
441,-300,0,0,0,0,0,0,0,0,0,-1,1665,1324,0,0
448,-300,0,0,0,0,0,0,0,0,0,-1,1672,1324,0,0
455,-300,0,0,0,0,0,0,0,0,0,-1,1679,1324,0,0
462,-300,0,0,0,0,0,0,0,0,0,-1,1686,1324,0,0
469,-300,0,0,0,0,0,0,0,0,0,-1,1693,1324,0,0
476,-300,0,0,0,0,0,0,0,0,0,-1,1700,1324,0,0
483,-300,0,0,0,0,0,0,0,0,0,-1,1707,1324,0,0
490,-300,0,0,0,0,0,0,0,0,0,-1,1714,1324,0,0
497,-300,0,0,0,0,0,0,0,0,0,-1,1721,1324,0,0
504,-300,0,0,0,0,0,0,0,0,0,-1,1728,1324,0,0
511,-300,0,0,0,0,0,0,0,0,0,-1,1735,1324,0,0
518,-300,0,0,0,0,0,0,0,0,0,-1,1742,1324,0,0
525,-300,0,0,0,0,0,0,0,0,0,-1,1749,1324,0,0
532,-300,0,0,0,0,0,0,0,0,0,-1,1756,1324,0,0
539,-300,0,0,0,0,0,0,0,0,0,-1,1763,1324,0,0
546,-300,0,0,0,0,0,0,0,0,0,-1,1770,1324,0,0
553,-300,0,0,0,0,0,0,0,0,0,-1,1777,1324,0,0
560,-300,0,0,0,0,0,0,0,0,0,-1,1784,1324,0,0
567,-300,0,0,0,0,0,0,0,0,0,-1,1791,1324,0,0
574,-300,0,0,0,0,0,0,0,0,0,-1,1798,1324,0,0
581,-300,0,0,0,0,0,0,0,0,0,-1,1805,1324,0,0
588,-300,66.4561,1.99207,0,0,0,0,0,0,0,-1,1812,1324,66.456,-1.99202
595,-300,66.4685,1.95496,0,0,0,0,0,0,0,-1,1819,1324,66.4685,-1.95499
602,-300,66.5259,1.72363,0,0,0,0,0,0,0,-1,1826,1324,66.5259,-1.72367
609,-300,64.2576,2.90149,0,0,0,0,0,0,0,-1,1833,1324,64.2575,-2.90154
616,-300,65.1267,2.84033,0,0,0,0,0,0,0,-1,1840,1324,65.1267,-2.84037
623,-300,47.4474,2.43188,0,0,0,0,0,0,0,-1,1847,1324,47.4474,-2.43194
630,-300,42.4099,3.9165,0,0,0,0,0,0,0,-1,1854,1324,42.4099,-3.91649
637,-300,31.1719,4.6366,0,0,0,0,0,0,0,-1,1861,1324,31.1718,-4.63665
644,-300,22.9836,3.44934,0,0,0,0,0,0,0,-1,1868,1324,22.9836,-3.4493
651,-300,25.5004,9.11853,0,0,0,0,0,0,0,-1,1875,1324,25.5004,-9.11851
658,-300,25.4012,9.20032,0,0,0,0,0,0,0,-1,1882,1324,25.4012,-9.20036
665,-300,49.6802,17.0968,0,0,0,0,0,0,0,-1,1889,1324,49.6802,-17.0968
672,-300,49.4996,16.3785,0.00194438,0.00315317,-0.00368264,0.00628068,-0.00118313,-0.866733,0.00463214,0.0365361,1896,1324,49.4996,-16.3785
679,-300,49.4803,15.5599,0.00129709,0.00144956,-0.0018516,0.00322649,-0.000479839,-0.805973,0.00232749,0.0134199,1903,1324,49.4803,-15.5599
686,-300,49.4395,14.7976,0.00116209,0.000517222,-0.00106318,0.00195065,-0.000271342,-0.63817,0.00139968,0.0139312,1910,1324,49.4395,-14.7976
693,-300,49.3752,14.0334,0.000838061,-9.40192e-06,-0.000290979,0.00092835,-9.96912e-05,-0.300874,0.000654666,0.0125454,1917,1324,49.3752,-14.0334
700,-300,49.3198,13.2498,0.000606549,0.000116585,0.000118689,0.000633786,8.93476e-05,0.225578,0.000396115,0.0140757,1924,1324,49.3199,-13.2498
707,-300,49.3077,12.4685,0.000291084,0.00019897,0.000569041,0.000815928,-0.000325875,0.745017,0.000679158,0.0102066,1931,1324,49.3078,-12.4685
714,-300,49.2806,11.7233,-0.000165475,0.000219712,0.0010814,0.00112554,-0.0010713,0.873522,0.00126847,0.0120363,1938,1324,49.2807,-11.7232
721,-300,49.2576,10.9684,-0.000800025,0.000169514,0.0016576,0.00141177,-0.00204228,0.927658,0.00200525,0.0136317,1945,1324,49.2576,-10.9684
728,-300,49.2682,10.1606,-0.00170959,3.91503e-05,0.00234169,0.00166439,-0.00333483,0.964079,0.00293952,0.018819,1952,1324,49.2681,-10.1607
735,-300,49.0519,9.67627,-0.00300626,-0.000267197,0.00318689,0.00183197,-0.00510543,0.988337,0.00415128,0.0342996,1959,1324,49.0519,-9.67626
742,-300,48.948,9.04187,0,0,0,0,0,0,0,-1,1966,1324,48.948,-9.04187
749,-300,27.4065,5.9718,0,0,0,0,0,0,0,-1,1973,1324,27.4065,-5.97181
756,-300,22.1423,3.45642,0,0,0,0,0,0,0,-1,1980,1324,22.1423,-3.45638
763,-300,22.6136,5.1571,0,0,0,0,0,0,0,-1,1987,1324,22.6136,-5.15706
770,-300,24.859,4.77979,0,0,0,0,0,0,0,-1,1994,1324,24.859,-4.77972
777,-300,0,0,0,0,0,0,0,0,0,-1,2001,1324,0,0
784,-300,0,0,0,0,0,0,0,0,0,-1,2008,1324,0,0
791,-300,0,0,0,0,0,0,0,0,0,-1,2015,1324,0,0
798,-300,0,0,0,0,0,0,0,0,0,-1,2022,1324,0,0
805,-300,0,0,0,0,0,0,0,0,0,-1,2029,1324,0,0
812,-300,0,0,0,0,0,0,0,0,0,-1,2036,1324,0,0
-700,-307,0,0,0,0,0,0,0,0,0,-1,524,1331,0,0
-693,-307,0,0,0,0,0,0,0,0,0,-1,531,1331,0,0
-686,-307,0,0,0,0,0,0,0,0,0,-1,538,1331,0,0
-679,-307,0,0,0,0,0,0,0,0,0,-1,545,1331,0,0
-672,-307,0,0,0,0,0,0,0,0,0,-1,552,1331,0,0
-665,-307,0,0,0,0,0,0,0,0,0,-1,559,1331,0,0
-658,-307,0,0,0,0,0,0,0,0,0,-1,566,1331,0,0
-651,-307,-40.7436,1.98755,0,0,0,0,0,0,0,-1,573,1331,-40.7436,-1.98753
-644,-307,-41.7838,1.24817,0,0,0,0,0,0,0,-1,580,1331,-41.7838,-1.2482
-637,-307,-41.9006,0.477783,0,0,0,0,0,0,0,-1,587,1331,-41.9006,-0.477844
-630,-307,-12.0005,0.767212,0,0,0,0,0,0,0,-1,594,1331,-12.0005,-0.767266
-623,-307,-12.2128,2.93811,0,0,0,0,0,0,0,-1,601,1331,-12.2128,-2.93813
-616,-307,-12.6612,2.08289,0,0,0,0,0,0,0,-1,608,1331,-12.6612,-2.08293
-609,-307,-12.2767,1.83228,0,0,0,0,0,0,0,-1,615,1331,-12.2768,-1.83224
-602,-307,-27.5659,6.93335,0,0,0,0,0,0,0,-1,622,1331,-27.5658,-6.9333
-595,-307,-32.0463,9.22083,0,0,0,0,0,0,0,-1,629,1331,-32.0464,-9.22088
-588,-307,-31.8219,10.192,0.00371194,0.00333009,0.0022631,0.00579216,0.00124988,0.743316,0.00351958,0.0236354,636,1331,-31.8219,-10.192
-581,-307,-31.8405,10.9835,0.00286209,0.00244649,0.00163781,0.00430523,0.00100335,0.722297,0.00260103,0.0161397,643,1331,-31.8405,-10.9835
-574,-307,-31.8894,11.7412,0.00242499,0.00170322,0.0012423,0.00335776,0.000770453,0.644039,0.002031,0.0136554,650,1331,-31.8894,-11.7412
-567,-307,-31.9346,12.554,0.00234213,0.00108875,0.00104126,0.00293074,0.000500138,0.514507,0.00181029,0.0139801,657,1331,-31.9346,-12.5539
-560,-307,-31.9804,13.3783,0.00260068,0.000545787,0.0010191,0.00302038,0.000126094,0.39066,0.0019729,0.0143481,664,1331,-31.9804,-13.3783
-553,-307,-32.0206,14.1742,0.00325661,0.00015091,0.00121224,0.00367375,-0.000266234,0.331417,0.00254256,0.0119279,671,1331,-32.0206,-14.1742
-546,-307,-32.0805,14.9727,0.00431564,-0.00018051,0.00163335,0.00484635,-0.000711224,0.314163,0.0034922,0.0108062,678,1331,-32.0805,-14.9727
-539,-307,-32.0701,15.8307,0.00597152,-0.000435312,0.00236578,0.00675041,-0.0012142,0.318056,0.00495485,0.022276,685,1331,-32.0701,-15.8307
-532,-307,-32.01,16.7065,0,0,0,0,0,0,0,-1,692,1331,-32.01,-16.7065
-525,-307,-13.2009,6.91309,0,0,0,0,0,0,0,-1,699,1331,-13.2009,-6.9131
-518,-307,-9.77777,-1.56653,0,0,0,0,0,0,0,-1,706,1331,-9.77777,1.56651
-511,-307,-12.5226,0.26709,0,0,0,0,0,0,0,-1,713,1331,-12.5226,-0.267038
-504,-307,-12.5913,-0.308105,0,0,0,0,0,0,0,-1,720,1331,-12.5913,0.308124
-497,-307,-13.8586,-0.115845,0,0,0,0,0,0,0,-1,727,1331,-13.8587,0.115861
-490,-307,-17.9429,0.982178,0,0,0,0,0,0,0,-1,734,1331,-17.9429,-0.982198
-483,-307,-18.1066,0.927612,0,0,0,0,0,0,0,-1,741,1331,-18.1066,-0.927609
-476,-307,-18.1288,1.1228,0,0,0,0,0,0,0,-1,748,1331,-18.1289,-1.12286
-469,-307,-18.2028,0.798584,0,0,0,0,0,0,0,-1,755,1331,-18.2027,-0.798546
-462,-307,0,0,0,0,0,0,0,0,0,-1,762,1331,0,0
-455,-307,0,0,0,0,0,0,0,0,0,-1,769,1331,0,0
-448,-307,0,0,0,0,0,0,0,0,0,-1,776,1331,0,0
-441,-307,0,0,0,0,0,0,0,0,0,-1,783,1331,0,0
-434,-307,0,0,0,0,0,0,0,0,0,-1,790,1331,0,0
-427,-307,0,0,0,0,0,0,0,0,0,-1,797,1331,0,0
-420,-307,0,0,0,0,0,0,0,0,0,-1,804,1331,0,0
-413,-307,0,0,0,0,0,0,0,0,0,-1,811,1331,0,0
-406,-307,0,0,0,0,0,0,0,0,0,-1,818,1331,0,0
-399,-307,0,0,0,0,0,0,0,0,0,-1,825,1331,0,0
-392,-307,0,0,0,0,0,0,0,0,0,-1,832,1331,0,0
-385,-307,0,0,0,0,0,0,0,0,0,-1,839,1331,0,0
-378,-307,0,0,0,0,0,0,0,0,0,-1,846,1331,0,0
-371,-307,0,0,0,0,0,0,0,0,0,-1,853,1331,0,0
-364,-307,0,0,0,0,0,0,0,0,0,-1,860,1331,0,0
-357,-307,0,0,0,0,0,0,0,0,0,-1,867,1331,0,0
-350,-307,0,0,0,0,0,0,0,0,0,-1,874,1331,0,0
-343,-307,0,0,0,0,0,0,0,0,0,-1,881,1331,0,0
-336,-307,0,0,0,0,0,0,0,0,0,-1,888,1331,0,0
-329,-307,0,0,0,0,0,0,0,0,0,-1,895,1331,0,0
-322,-307,0,0,0,0,0,0,0,0,0,-1,902,1331,0,0
-315,-307,0,0,0,0,0,0,0,0,0,-1,909,1331,0,0
-308,-307,0,0,0,0,0,0,0,0,0,-1,916,1331,0,0
-301,-307,0,0,0,0,0,0,0,0,0,-1,923,1331,0,0
-294,-307,0,0,0,0,0,0,0,0,0,-1,930,1331,0,0
-287,-307,0,0,0,0,0,0,0,0,0,-1,937,1331,0,0
-280,-307,0,0,0,0,0,0,0,0,0,-1,944,1331,0,0
-273,-307,0,0,0,0,0,0,0,0,0,-1,951,1331,0,0
-266,-307,0,0,0,0,0,0,0,0,0,-1,958,1331,0,0
-259,-307,0,0,0,0,0,0,0,0,0,-1,965,1331,0,0
-252,-307,0,0,0,0,0,0,0,0,0,-1,972,1331,0,0
-245,-307,0,0,0,0,0,0,0,0,0,-1,979,1331,0,0
-238,-307,0,0,0,0,0,0,0,0,0,-1,986,1331,0,0
-231,-307,0,0,0,0,0,0,0,0,0,-1,993,1331,0,0
-224,-307,0,0,0,0,0,0,0,0,0,-1,1000,1331,0,0
-217,-307,0,0,0,0,0,0,0,0,0,-1,1007,1331,0,0
-210,-307,0,0,0,0,0,0,0,0,0,-1,1014,1331,0,0
-203,-307,0,0,0,0,0,0,0,0,0,-1,1021,1331,0,0
-196,-307,0,0,0,0,0,0,0,0,0,-1,1028,1331,0,0
-189,-307,0,0,0,0,0,0,0,0,0,-1,1035,1331,0,0
-182,-307,0,0,0,0,0,0,0,0,0,-1,1042,1331,0,0
-175,-307,0,0,0,0,0,0,0,0,0,-1,1049,1331,0,0
-168,-307,0,0,0,0,0,0,0,0,0,-1,1056,1331,0,0
-161,-307,0,0,0,0,0,0,0,0,0,-1,1063,1331,0,0
-154,-307,0,0,0,0,0,0,0,0,0,-1,1070,1331,0,0
-147,-307,0,0,0,0,0,0,0,0,0,-1,1077,1331,0,0
-140,-307,0,0,0,0,0,0,0,0,0,-1,1084,1331,0,0
-133,-307,0,0,0,0,0,0,0,0,0,-1,1091,1331,0,0
-126,-307,0,0,0,0,0,0,0,0,0,-1,1098,1331,0,0
-119,-307,0,0,0,0,0,0,0,0,0,-1,1105,1331,0,0
-112,-307,0,0,0,0,0,0,0,0,0,-1,1112,1331,0,0
-105,-307,0,0,0,0,0,0,0,0,0,-1,1119,1331,0,0
-98,-307,0,0,0,0,0,0,0,0,0,-1,1126,1331,0,0
-91,-307,0,0,0,0,0,0,0,0,0,-1,1133,1331,0,0
-84,-307,0,0,0,0,0,0,0,0,0,-1,1140,1331,0,0
-77,-307,0,0,0,0,0,0,0,0,0,-1,1147,1331,0,0
-70,-307,0,0,0,0,0,0,0,0,0,-1,1154,1331,0,0
-63,-307,0,0,0,0,0,0,0,0,0,-1,1161,1331,0,0
-56,-307,0,0,0,0,0,0,0,0,0,-1,1168,1331,0,0
-49,-307,0,0,0,0,0,0,0,0,0,-1,1175,1331,0,0
-42,-307,0,0,0,0,0,0,0,0,0,-1,1182,1331,0,0
-35,-307,0,0,0,0,0,0,0,0,0,-1,1189,1331,0,0
-28,-307,0,0,0,0,0,0,0,0,0,-1,1196,1331,0,0
-21,-307,0,0,0,0,0,0,0,0,0,-1,1203,1331,0,0
-14,-307,0,0,0,0,0,0,0,0,0,-1,1210,1331,0,0
-7,-307,0,0,0,0,0,0,0,0,0,-1,1217,1331,0,0
0,-307,0,0,0,0,0,0,0,0,0,-1,1224,1331,0,0
7,-307,0,0,0,0,0,0,0,0,0,-1,1231,1331,0,0
14,-307,0,0,0,0,0,0,0,0,0,-1,1238,1331,0,0
21,-307,0,0,0,0,0,0,0,0,0,-1,1245,1331,0,0
28,-307,0,0,0,0,0,0,0,0,0,-1,1252,1331,0,0
35,-307,0,0,0,0,0,0,0,0,0,-1,1259,1331,0,0
42,-307,0,0,0,0,0,0,0,0,0,-1,1266,1331,0,0
49,-307,0,0,0,0,0,0,0,0,0,-1,1273,1331,0,0
56,-307,0,0,0,0,0,0,0,0,0,-1,1280,1331,0,0
63,-307,0,0,0,0,0,0,0,0,0,-1,1287,1331,0,0
70,-307,0,0,0,0,0,0,0,0,0,-1,1294,1331,0,0
77,-307,0,0,0,0,0,0,0,0,0,-1,1301,1331,0,0
84,-307,0,0,0,0,0,0,0,0,0,-1,1308,1331,0,0
91,-307,0,0,0,0,0,0,0,0,0,-1,1315,1331,0,0
98,-307,0,0,0,0,0,0,0,0,0,-1,1322,1331,0,0
105,-307,0,0,0,0,0,0,0,0,0,-1,1329,1331,0,0
112,-307,0,0,0,0,0,0,0,0,0,-1,1336,1331,0,0
119,-307,0,0,0,0,0,0,0,0,0,-1,1343,1331,0,0
126,-307,0,0,0,0,0,0,0,0,0,-1,1350,1331,0,0
133,-307,0,0,0,0,0,0,0,0,0,-1,1357,1331,0,0
140,-307,0,0,0,0,0,0,0,0,0,-1,1364,1331,0,0
147,-307,0,0,0,0,0,0,0,0,0,-1,1371,1331,0,0
154,-307,0,0,0,0,0,0,0,0,0,-1,1378,1331,0,0
161,-307,0,0,0,0,0,0,0,0,0,-1,1385,1331,0,0
168,-307,0,0,0,0,0,0,0,0,0,-1,1392,1331,0,0
175,-307,0,0,0,0,0,0,0,0,0,-1,1399,1331,0,0
182,-307,0,0,0,0,0,0,0,0,0,-1,1406,1331,0,0
189,-307,0,0,0,0,0,0,0,0,0,-1,1413,1331,0,0
196,-307,0,0,0,0,0,0,0,0,0,-1,1420,1331,0,0
203,-307,0,0,0,0,0,0,0,0,0,-1,1427,1331,0,0
210,-307,0,0,0,0,0,0,0,0,0,-1,1434,1331,0,0
217,-307,0,0,0,0,0,0,0,0,0,-1,1441,1331,0,0
224,-307,0,0,0,0,0,0,0,0,0,-1,1448,1331,0,0
231,-307,0,0,0,0,0,0,0,0,0,-1,1455,1331,0,0
238,-307,0,0,0,0,0,0,0,0,0,-1,1462,1331,0,0
245,-307,0,0,0,0,0,0,0,0,0,-1,1469,1331,0,0
252,-307,0,0,0,0,0,0,0,0,0,-1,1476,1331,0,0
259,-307,0,0,0,0,0,0,0,0,0,-1,1483,1331,0,0
266,-307,0,0,0,0,0,0,0,0,0,-1,1490,1331,0,0
273,-307,0,0,0,0,0,0,0,0,0,-1,1497,1331,0,0
280,-307,0,0,0,0,0,0,0,0,0,-1,1504,1331,0,0
287,-307,0,0,0,0,0,0,0,0,0,-1,1511,1331,0,0
294,-307,0,0,0,0,0,0,0,0,0,-1,1518,1331,0,0
301,-307,0,0,0,0,0,0,0,0,0,-1,1525,1331,0,0
308,-307,0,0,0,0,0,0,0,0,0,-1,1532,1331,0,0
315,-307,0,0,0,0,0,0,0,0,0,-1,1539,1331,0,0
322,-307,0,0,0,0,0,0,0,0,0,-1,1546,1331,0,0
329,-307,0,0,0,0,0,0,0,0,0,-1,1553,1331,0,0
336,-307,0,0,0,0,0,0,0,0,0,-1,1560,1331,0,0
343,-307,0,0,0,0,0,0,0,0,0,-1,1567,1331,0,0
350,-307,0,0,0,0,0,0,0,0,0,-1,1574,1331,0,0
357,-307,0,0,0,0,0,0,0,0,0,-1,1581,1331,0,0
364,-307,0,0,0,0,0,0,0,0,0,-1,1588,1331,0,0
371,-307,0,0,0,0,0,0,0,0,0,-1,1595,1331,0,0
378,-307,0,0,0,0,0,0,0,0,0,-1,1602,1331,0,0
385,-307,0,0,0,0,0,0,0,0,0,-1,1609,1331,0,0
392,-307,0,0,0,0,0,0,0,0,0,-1,1616,1331,0,0
399,-307,0,0,0,0,0,0,0,0,0,-1,1623,1331,0,0
406,-307,0,0,0,0,0,0,0,0,0,-1,1630,1331,0,0
413,-307,0,0,0,0,0,0,0,0,0,-1,1637,1331,0,0
420,-307,0,0,0,0,0,0,0,0,0,-1,1644,1331,0,0
427,-307,0,0,0,0,0,0,0,0,0,-1,1651,1331,0,0
434,-307,0,0,0,0,0,0,0,0,0,-1,1658,1331,0,0
441,-307,0,0,0,0,0,0,0,0,0,-1,1665,1331,0,0
448,-307,0,0,0,0,0,0,0,0,0,-1,1672,1331,0,0
455,-307,0,0,0,0,0,0,0,0,0,-1,1679,1331,0,0
462,-307,0,0,0,0,0,0,0,0,0,-1,1686,1331,0,0
469,-307,0,0,0,0,0,0,0,0,0,-1,1693,1331,0,0
476,-307,0,0,0,0,0,0,0,0,0,-1,1700,1331,0,0
483,-307,0,0,0,0,0,0,0,0,0,-1,1707,1331,0,0
490,-307,0,0,0,0,0,0,0,0,0,-1,1714,1331,0,0
497,-307,0,0,0,0,0,0,0,0,0,-1,1721,1331,0,0
504,-307,0,0,0,0,0,0,0,0,0,-1,1728,1331,0,0
511,-307,0,0,0,0,0,0,0,0,0,-1,1735,1331,0,0
518,-307,0,0,0,0,0,0,0,0,0,-1,1742,1331,0,0
525,-307,0,0,0,0,0,0,0,0,0,-1,1749,1331,0,0
532,-307,0,0,0,0,0,0,0,0,0,-1,1756,1331,0,0
539,-307,0,0,0,0,0,0,0,0,0,-1,1763,1331,0,0
546,-307,0,0,0,0,0,0,0,0,0,-1,1770,1331,0,0
553,-307,0,0,0,0,0,0,0,0,0,-1,1777,1331,0,0
560,-307,0,0,0,0,0,0,0,0,0,-1,1784,1331,0,0
567,-307,0,0,0,0,0,0,0,0,0,-1,1791,1331,0,0
574,-307,0,0,0,0,0,0,0,0,0,-1,1798,1331,0,0
581,-307,0,0,0,0,0,0,0,0,0,-1,1805,1331,0,0
588,-307,66.5917,1.60864,0,0,0,0,0,0,0,-1,1812,1331,66.5917,-1.60867
595,-307,66.708,1.85352,0,0,0,0,0,0,0,-1,1819,1331,66.708,-1.85351
602,-307,66.111,1.49976,0,0,0,0,0,0,0,-1,1826,1331,66.1109,-1.49974
609,-307,63.8848,2.78992,0,0,0,0,0,0,0,-1,1833,1331,63.8848,-2.78989
616,-307,53.2878,0.135498,0,0,0,0,0,0,0,-1,1840,1331,53.2878,-0.135477
623,-307,44.3966,2.84888,0,0,0,0,0,0,0,-1,1847,1331,44.3966,-2.84884
630,-307,29.8116,1.51184,0,0,0,0,0,0,0,-1,1854,1331,29.8116,-1.51188
637,-307,24.6407,4.09106,0,0,0,0,0,0,0,-1,1861,1331,24.6407,-4.09103
644,-307,22.6885,5.80408,0,0,0,0,0,0,0,-1,1868,1331,22.6884,-5.80408
651,-307,17.5013,5.80078,0,0,0,0,0,0,0,-1,1875,1331,17.5014,-5.80072
658,-307,37.4427,13.9775,0,0,0,0,0,0,0,-1,1882,1331,37.4427,-13.9776
665,-307,48.6956,16.9994,0,0,0,0,0,0,0,-1,1889,1331,48.6955,-16.9994
672,-307,48.7438,16.3812,0.00190012,0.00190381,-0.00299767,0.00489964,-0.00109571,-0.785705,0.00368635,0.0219668,1896,1331,48.7438,-16.3813
679,-307,48.6902,15.6183,0.0012596,0.000621867,-0.00135099,0.00232885,-0.000447381,-0.669508,0.00172118,0.0112191,1903,1331,48.6902,-15.6183
686,-307,48.6411,14.8479,0.00110555,0.000169348,-0.000740754,0.00151371,-0.000238814,-0.503617,0.00109744,0.010865,1910,1331,48.6411,-14.8479
693,-307,48.5927,14.0667,0.000875603,3.4086e-05,-0.000217548,0.000928516,-1.8827e-05,-0.238592,0.000625381,0.0129225,1917,1331,48.5927,-14.0666
700,-307,48.5664,13.2767,0.000731252,0.000178275,0.000137975,0.000763767,0.000145761,0.231434,0.000468216,0.0147529,1924,1331,48.5664,-13.2767
707,-307,48.5382,12.5054,0.000514994,0.000282614,0.000536524,0.000947765,-0.000150157,0.678765,0.000687384,0.0157083,1931,1331,48.5382,-12.5053
714,-307,48.5243,11.7859,0.000164169,0.000324698,0.00100132,0.00124896,-0.000760096,0.825392,0.00117132,0.014254,1938,1331,48.5243,-11.7859
721,-307,48.5231,11.0248,-0.000353984,0.00026874,0.00154502,0.00153346,-0.0016187,0.88483,0.00182012,0.0190754,1945,1331,48.523,-11.0248
728,-307,48.5454,10.2394,0,0,0,0,0,0,0,-1,1952,1331,48.5455,-10.2393
735,-307,48.4182,9.42004,0,0,0,0,0,0,0,-1,1959,1331,48.4182,-9.4201
742,-307,26.677,6.09192,0,0,0,0,0,0,0,-1,1966,1331,26.677,-6.0919
749,-307,26.7727,5.9032,0,0,0,0,0,0,0,-1,1973,1331,26.7727,-5.90323
756,-307,27.1556,5.74756,0,0,0,0,0,0,0,-1,1980,1331,27.1557,-5.7475
763,-307,18.7522,3.55298,0,0,0,0,0,0,0,-1,1987,1331,18.7522,-3.55301
770,-307,0,0,0,0,0,0,0,0,0,-1,1994,1331,0,0
777,-307,0,0,0,0,0,0,0,0,0,-1,2001,1331,0,0
784,-307,0,0,0,0,0,0,0,0,0,-1,2008,1331,0,0
791,-307,0,0,0,0,0,0,0,0,0,-1,2015,1331,0,0
798,-307,0,0,0,0,0,0,0,0,0,-1,2022,1331,0,0
805,-307,0,0,0,0,0,0,0,0,0,-1,2029,1331,0,0
812,-307,0,0,0,0,0,0,0,0,0,-1,2036,1331,0,0
-700,-314,0,0,0,0,0,0,0,0,0,-1,524,1338,0,0
-693,-314,0,0,0,0,0,0,0,0,0,-1,531,1338,0,0
-686,-314,0,0,0,0,0,0,0,0,0,-1,538,1338,0,0
-679,-314,0,0,0,0,0,0,0,0,0,-1,545,1338,0,0
-672,-314,0,0,0,0,0,0,0,0,0,-1,552,1338,0,0
-665,-314,0,0,0,0,0,0,0,0,0,-1,559,1338,0,0
-658,-314,0,0,0,0,0,0,0,0,0,-1,566,1338,0,0
-651,-314,0,0,0,0,0,0,0,0,0,-1,573,1338,0,0
-644,-314,-41.2806,1.17566,0,0,0,0,0,0,0,-1,580,1338,-41.2806,-1.17565
-637,-314,-58.369,7.97375,0,0,0,0,0,0,0,-1,587,1338,-58.369,-7.97376
-630,-314,-59.7463,6.72742,0,0,0,0,0,0,0,-1,594,1338,-59.7463,-6.72739
-623,-314,-13.3542,3.00903,0,0,0,0,0,0,0,-1,601,1338,-13.3542,-3.00907
-616,-314,-9.93311,1.15088,0,0,0,0,0,0,0,-1,608,1338,-9.93308,-1.15093
-609,-314,-9.4361,2.86292,0,0,0,0,0,0,0,-1,615,1338,-9.43612,-2.86286
-602,-314,-11.8027,2.42798,0,0,0,0,0,0,0,-1,622,1338,-11.8027,-2.42802
-595,-314,-31.2171,9.28088,0,0,0,0,0,0,0,-1,629,1338,-31.2171,-9.28088
-588,-314,-31.0977,10.1587,0.00415095,0.00363123,0.00270529,0.00660883,0.00117335,0.737517,0.00407152,0.0356205,636,1338,-31.0977,-10.1587
-581,-314,-31.0201,10.9934,0.00319151,0.00278163,0.00195998,0.00495724,0.00101591,0.733306,0.00302362,0.0134205,643,1338,-31.0201,-10.9934
-574,-314,-31.0944,11.7795,0.00270919,0.00203514,0.00150378,0.00391325,0.00083108,0.67516,0.00238066,0.0133798,650,1338,-31.0945,-11.7796
-567,-314,-31.1049,12.5975,0.00260638,0.00141169,0.00125847,0.00340208,0.000615988,0.563813,0.00209316,0.014769,657,1338,-31.1049,-12.5975
-560,-314,-31.1208,13.4283,0.00286229,0.000863155,0.00120988,0.0034321,0.000293349,0.440149,0.00219682,0.0156395,664,1338,-31.1208,-13.4283
-553,-314,-31.2054,14.2141,0.00348898,0.000446081,0.00137392,0.00401752,-8.24649e-05,0.367246,0.00270625,0.0178841,671,1338,-31.2054,-14.2142
-546,-314,-31.3088,15.0278,0.00449891,7.55858e-05,0.00174828,0.00510645,-0.000531959,0.334455,0.00359476,0.0181546,678,1338,-31.3088,-15.0278
-539,-314,-31.2959,15.8695,0.00601184,-0.000207468,0.00239441,0.00682687,-0.0010225,0.328087,0.00492757,0.0208889,685,1338,-31.2959,-15.8695
-532,-314,-31.2091,16.665,0,0,0,0,0,0,0,-1,692,1338,-31.2091,-16.665
-525,-314,-13.3017,7.50671,0,0,0,0,0,0,0,-1,699,1338,-13.3017,-7.50669
-518,-314,-8.52753,4.70032,0,0,0,0,0,0,0,-1,706,1338,-8.52755,-4.70034
-511,-314,-11.8597,0.384888,0,0,0,0,0,0,0,-1,713,1338,-11.8597,-0.384927
-504,-314,-11.4322,-0.187378,0,0,0,0,0,0,0,-1,720,1338,-11.4322,0.187381
-497,-314,-11.0047,-0.759644,0,0,0,0,0,0,0,-1,727,1338,-11.0047,0.759689
-490,-314,-18.5143,0.471069,0,0,0,0,0,0,0,-1,734,1338,-18.5143,-0.47103
-483,-314,-17.8528,0.577271,0,0,0,0,0,0,0,-1,741,1338,-17.8528,-0.577327
-476,-314,-17.714,0.665405,0,0,0,0,0,0,0,-1,748,1338,-17.714,-0.665388
-469,-314,-17.7246,0.794678,0,0,0,0,0,0,0,-1,755,1338,-17.7246,-0.794645
-462,-314,0,0,0,0,0,0,0,0,0,-1,762,1338,0,0
-455,-314,0,0,0,0,0,0,0,0,0,-1,769,1338,0,0
-448,-314,0,0,0,0,0,0,0,0,0,-1,776,1338,0,0
-441,-314,0,0,0,0,0,0,0,0,0,-1,783,1338,0,0
-434,-314,0,0,0,0,0,0,0,0,0,-1,790,1338,0,0
-427,-314,0,0,0,0,0,0,0,0,0,-1,797,1338,0,0
-420,-314,0,0,0,0,0,0,0,0,0,-1,804,1338,0,0
-413,-314,0,0,0,0,0,0,0,0,0,-1,811,1338,0,0
-406,-314,0,0,0,0,0,0,0,0,0,-1,818,1338,0,0
-399,-314,0,0,0,0,0,0,0,0,0,-1,825,1338,0,0
-392,-314,0,0,0,0,0,0,0,0,0,-1,832,1338,0,0
-385,-314,0,0,0,0,0,0,0,0,0,-1,839,1338,0,0
-378,-314,0,0,0,0,0,0,0,0,0,-1,846,1338,0,0
-371,-314,0,0,0,0,0,0,0,0,0,-1,853,1338,0,0
-364,-314,0,0,0,0,0,0,0,0,0,-1,860,1338,0,0
-357,-314,0,0,0,0,0,0,0,0,0,-1,867,1338,0,0
-350,-314,0,0,0,0,0,0,0,0,0,-1,874,1338,0,0
-343,-314,0,0,0,0,0,0,0,0,0,-1,881,1338,0,0
-336,-314,0,0,0,0,0,0,0,0,0,-1,888,1338,0,0
-329,-314,0,0,0,0,0,0,0,0,0,-1,895,1338,0,0
-322,-314,0,0,0,0,0,0,0,0,0,-1,902,1338,0,0
-315,-314,0,0,0,0,0,0,0,0,0,-1,909,1338,0,0
-308,-314,0,0,0,0,0,0,0,0,0,-1,916,1338,0,0
-301,-314,0,0,0,0,0,0,0,0,0,-1,923,1338,0,0
-294,-314,0,0,0,0,0,0,0,0,0,-1,930,1338,0,0
-287,-314,0,0,0,0,0,0,0,0,0,-1,937,1338,0,0
-280,-314,0,0,0,0,0,0,0,0,0,-1,944,1338,0,0
-273,-314,0,0,0,0,0,0,0,0,0,-1,951,1338,0,0
-266,-314,0,0,0,0,0,0,0,0,0,-1,958,1338,0,0
-259,-314,0,0,0,0,0,0,0,0,0,-1,965,1338,0,0
-252,-314,0,0,0,0,0,0,0,0,0,-1,972,1338,0,0
-245,-314,0,0,0,0,0,0,0,0,0,-1,979,1338,0,0
-238,-314,0,0,0,0,0,0,0,0,0,-1,986,1338,0,0
-231,-314,0,0,0,0,0,0,0,0,0,-1,993,1338,0,0
-224,-314,0,0,0,0,0,0,0,0,0,-1,1000,1338,0,0
-217,-314,0,0,0,0,0,0,0,0,0,-1,1007,1338,0,0
-210,-314,0,0,0,0,0,0,0,0,0,-1,1014,1338,0,0
-203,-314,0,0,0,0,0,0,0,0,0,-1,1021,1338,0,0
-196,-314,0,0,0,0,0,0,0,0,0,-1,1028,1338,0,0
-189,-314,0,0,0,0,0,0,0,0,0,-1,1035,1338,0,0
-182,-314,0,0,0,0,0,0,0,0,0,-1,1042,1338,0,0
-175,-314,0,0,0,0,0,0,0,0,0,-1,1049,1338,0,0
-168,-314,0,0,0,0,0,0,0,0,0,-1,1056,1338,0,0
-161,-314,0,0,0,0,0,0,0,0,0,-1,1063,1338,0,0
-154,-314,0,0,0,0,0,0,0,0,0,-1,1070,1338,0,0
-147,-314,0,0,0,0,0,0,0,0,0,-1,1077,1338,0,0
-140,-314,0,0,0,0,0,0,0,0,0,-1,1084,1338,0,0
-133,-314,0,0,0,0,0,0,0,0,0,-1,1091,1338,0,0
-126,-314,0,0,0,0,0,0,0,0,0,-1,1098,1338,0,0
-119,-314,0,0,0,0,0,0,0,0,0,-1,1105,1338,0,0
-112,-314,0,0,0,0,0,0,0,0,0,-1,1112,1338,0,0
-105,-314,0,0,0,0,0,0,0,0,0,-1,1119,1338,0,0
-98,-314,0,0,0,0,0,0,0,0,0,-1,1126,1338,0,0
-91,-314,0,0,0,0,0,0,0,0,0,-1,1133,1338,0,0
-84,-314,0,0,0,0,0,0,0,0,0,-1,1140,1338,0,0
-77,-314,0,0,0,0,0,0,0,0,0,-1,1147,1338,0,0
-70,-314,0,0,0,0,0,0,0,0,0,-1,1154,1338,0,0
-63,-314,0,0,0,0,0,0,0,0,0,-1,1161,1338,0,0
-56,-314,0,0,0,0,0,0,0,0,0,-1,1168,1338,0,0
-49,-314,0,0,0,0,0,0,0,0,0,-1,1175,1338,0,0
-42,-314,0,0,0,0,0,0,0,0,0,-1,1182,1338,0,0
-35,-314,0,0,0,0,0,0,0,0,0,-1,1189,1338,0,0
-28,-314,0,0,0,0,0,0,0,0,0,-1,1196,1338,0,0
-21,-314,0,0,0,0,0,0,0,0,0,-1,1203,1338,0,0
-14,-314,0,0,0,0,0,0,0,0,0,-1,1210,1338,0,0
-7,-314,0,0,0,0,0,0,0,0,0,-1,1217,1338,0,0
0,-314,0,0,0,0,0,0,0,0,0,-1,1224,1338,0,0
7,-314,0,0,0,0,0,0,0,0,0,-1,1231,1338,0,0
14,-314,0,0,0,0,0,0,0,0,0,-1,1238,1338,0,0
21,-314,0,0,0,0,0,0,0,0,0,-1,1245,1338,0,0
28,-314,0,0,0,0,0,0,0,0,0,-1,1252,1338,0,0
35,-314,0,0,0,0,0,0,0,0,0,-1,1259,1338,0,0
42,-314,0,0,0,0,0,0,0,0,0,-1,1266,1338,0,0
49,-314,0,0,0,0,0,0,0,0,0,-1,1273,1338,0,0
56,-314,0,0,0,0,0,0,0,0,0,-1,1280,1338,0,0
63,-314,0,0,0,0,0,0,0,0,0,-1,1287,1338,0,0
70,-314,0,0,0,0,0,0,0,0,0,-1,1294,1338,0,0
77,-314,0,0,0,0,0,0,0,0,0,-1,1301,1338,0,0
84,-314,0,0,0,0,0,0,0,0,0,-1,1308,1338,0,0
91,-314,0,0,0,0,0,0,0,0,0,-1,1315,1338,0,0
98,-314,0,0,0,0,0,0,0,0,0,-1,1322,1338,0,0
105,-314,0,0,0,0,0,0,0,0,0,-1,1329,1338,0,0
112,-314,0,0,0,0,0,0,0,0,0,-1,1336,1338,0,0
119,-314,0,0,0,0,0,0,0,0,0,-1,1343,1338,0,0
126,-314,0,0,0,0,0,0,0,0,0,-1,1350,1338,0,0
133,-314,0,0,0,0,0,0,0,0,0,-1,1357,1338,0,0
140,-314,0,0,0,0,0,0,0,0,0,-1,1364,1338,0,0
147,-314,0,0,0,0,0,0,0,0,0,-1,1371,1338,0,0
154,-314,0,0,0,0,0,0,0,0,0,-1,1378,1338,0,0
161,-314,0,0,0,0,0,0,0,0,0,-1,1385,1338,0,0
168,-314,0,0,0,0,0,0,0,0,0,-1,1392,1338,0,0
175,-314,0,0,0,0,0,0,0,0,0,-1,1399,1338,0,0
182,-314,0,0,0,0,0,0,0,0,0,-1,1406,1338,0,0
189,-314,0,0,0,0,0,0,0,0,0,-1,1413,1338,0,0
196,-314,0,0,0,0,0,0,0,0,0,-1,1420,1338,0,0
203,-314,0,0,0,0,0,0,0,0,0,-1,1427,1338,0,0
210,-314,0,0,0,0,0,0,0,0,0,-1,1434,1338,0,0
217,-314,0,0,0,0,0,0,0,0,0,-1,1441,1338,0,0
224,-314,0,0,0,0,0,0,0,0,0,-1,1448,1338,0,0
231,-314,0,0,0,0,0,0,0,0,0,-1,1455,1338,0,0
238,-314,0,0,0,0,0,0,0,0,0,-1,1462,1338,0,0
245,-314,0,0,0,0,0,0,0,0,0,-1,1469,1338,0,0
252,-314,0,0,0,0,0,0,0,0,0,-1,1476,1338,0,0
259,-314,0,0,0,0,0,0,0,0,0,-1,1483,1338,0,0
266,-314,0,0,0,0,0,0,0,0,0,-1,1490,1338,0,0
273,-314,0,0,0,0,0,0,0,0,0,-1,1497,1338,0,0
280,-314,0,0,0,0,0,0,0,0,0,-1,1504,1338,0,0
287,-314,0,0,0,0,0,0,0,0,0,-1,1511,1338,0,0
294,-314,0,0,0,0,0,0,0,0,0,-1,1518,1338,0,0
301,-314,0,0,0,0,0,0,0,0,0,-1,1525,1338,0,0
308,-314,0,0,0,0,0,0,0,0,0,-1,1532,1338,0,0
315,-314,0,0,0,0,0,0,0,0,0,-1,1539,1338,0,0
322,-314,0,0,0,0,0,0,0,0,0,-1,1546,1338,0,0
329,-314,0,0,0,0,0,0,0,0,0,-1,1553,1338,0,0
336,-314,0,0,0,0,0,0,0,0,0,-1,1560,1338,0,0
343,-314,0,0,0,0,0,0,0,0,0,-1,1567,1338,0,0
350,-314,0,0,0,0,0,0,0,0,0,-1,1574,1338,0,0
357,-314,0,0,0,0,0,0,0,0,0,-1,1581,1338,0,0
364,-314,0,0,0,0,0,0,0,0,0,-1,1588,1338,0,0
371,-314,0,0,0,0,0,0,0,0,0,-1,1595,1338,0,0
378,-314,0,0,0,0,0,0,0,0,0,-1,1602,1338,0,0
385,-314,0,0,0,0,0,0,0,0,0,-1,1609,1338,0,0
392,-314,0,0,0,0,0,0,0,0,0,-1,1616,1338,0,0
399,-314,0,0,0,0,0,0,0,0,0,-1,1623,1338,0,0
406,-314,0,0,0,0,0,0,0,0,0,-1,1630,1338,0,0
413,-314,0,0,0,0,0,0,0,0,0,-1,1637,1338,0,0
420,-314,0,0,0,0,0,0,0,0,0,-1,1644,1338,0,0
427,-314,0,0,0,0,0,0,0,0,0,-1,1651,1338,0,0
434,-314,0,0,0,0,0,0,0,0,0,-1,1658,1338,0,0
441,-314,0,0,0,0,0,0,0,0,0,-1,1665,1338,0,0
448,-314,0,0,0,0,0,0,0,0,0,-1,1672,1338,0,0
455,-314,0,0,0,0,0,0,0,0,0,-1,1679,1338,0,0
462,-314,0,0,0,0,0,0,0,0,0,-1,1686,1338,0,0
469,-314,0,0,0,0,0,0,0,0,0,-1,1693,1338,0,0
476,-314,0,0,0,0,0,0,0,0,0,-1,1700,1338,0,0
483,-314,0,0,0,0,0,0,0,0,0,-1,1707,1338,0,0
490,-314,0,0,0,0,0,0,0,0,0,-1,1714,1338,0,0
497,-314,0,0,0,0,0,0,0,0,0,-1,1721,1338,0,0
504,-314,0,0,0,0,0,0,0,0,0,-1,1728,1338,0,0
511,-314,0,0,0,0,0,0,0,0,0,-1,1735,1338,0,0
518,-314,0,0,0,0,0,0,0,0,0,-1,1742,1338,0,0
525,-314,0,0,0,0,0,0,0,0,0,-1,1749,1338,0,0
532,-314,0,0,0,0,0,0,0,0,0,-1,1756,1338,0,0
539,-314,0,0,0,0,0,0,0,0,0,-1,1763,1338,0,0
546,-314,0,0,0,0,0,0,0,0,0,-1,1770,1338,0,0
553,-314,0,0,0,0,0,0,0,0,0,-1,1777,1338,0,0
560,-314,0,0,0,0,0,0,0,0,0,-1,1784,1338,0,0
567,-314,0,0,0,0,0,0,0,0,0,-1,1791,1338,0,0
574,-314,0,0,0,0,0,0,0,0,0,-1,1798,1338,0,0
581,-314,66.1637,1.86658,0,0,0,0,0,0,0,-1,1805,1338,66.1637,-1.86663
588,-314,66.4303,1.43481,0,0,0,0,0,0,0,-1,1812,1338,66.4303,-1.43487
595,-314,66.7465,0.982788,0,0,0,0,0,0,0,-1,1819,1338,66.7464,-0.982795
602,-314,66.322,1.38416,0,0,0,0,0,0,0,-1,1826,1338,66.322,-1.3842
609,-314,60.2225,1.27014,0,0,0,0,0,0,0,-1,1833,1338,60.2225,-1.27017
616,-314,48.1149,3.005,0,0,0,0,0,0,0,-1,1840,1338,48.1149,-3.00505
623,-314,38.7728,2.71741,0,0,0,0,0,0,0,-1,1847,1338,38.7728,-2.71737
630,-314,29.4308,6.23206,0,0,0,0,0,0,0,-1,1854,1338,29.4308,-6.23202
637,-314,22.1349,5.16418,0,0,0,0,0,0,0,-1,1861,1338,22.1349,-5.16414
644,-314,18.7517,6.2605,0,0,0,0,0,0,0,-1,1868,1338,18.7517,-6.26053
651,-314,23.1317,8.005,0,0,0,0,0,0,0,-1,1875,1338,23.1317,-8.00506
658,-314,47.9838,17.8989,0,0,0,0,0,0,0,-1,1882,1338,47.9837,-17.899
665,-314,47.9286,17.2103,0.00203909,0.00148016,-0.003502,0.00527276,-0.00175351,-0.745581,0.00422283,0.0470386,1889,1338,47.9286,-17.2104
672,-314,47.9645,16.4741,0.00127145,0.000585418,-0.0018465,0.00280652,-0.000949659,-0.693563,0.00225523,0.014268,1896,1338,47.9645,-16.4741
679,-314,47.9216,15.687,0.000954713,-3.0708e-05,-0.000742657,0.00135324,-0.000429234,-0.492514,0.00107421,0.0107933,1903,1338,47.9216,-15.687
686,-314,47.8582,14.9053,0.00105823,-2.96271e-05,-0.000479163,0.00123919,-0.000210582,-0.361089,0.000904527,0.0130011,1910,1338,47.8581,-14.9052
693,-314,47.8063,14.0995,0.00106541,0.000132928,-0.00024452,0.00112564,7.26997e-05,-0.241507,0.000727407,0.0132711,1917,1338,47.8063,-14.0995
700,-314,47.786,13.3083,0.00103458,0.000284066,2.93636e-05,0.00103573,0.000282919,0.0390449,0.000618152,0.0147135,1924,1338,47.786,-13.3084
707,-314,47.7754,12.5605,0.000932472,0.000410755,0.000347902,0.00110645,0.000236776,0.46371,0.000672744,0.0141182,1931,1338,47.7754,-12.5605
714,-314,47.7363,11.8379,0.00069703,0.000477184,0.000738923,0.00133416,-0.000159948,0.711559,0.000947269,0.0121627,1938,1338,47.7363,-11.8379
721,-314,47.6832,11.0977,0.00028916,0.000393503,0.00124583,0.00158826,-0.000905593,0.806324,0.0014577,0.0271516,1945,1338,47.6833,-11.0976
728,-314,47.7023,10.3489,0,0,0,0,0,0,0,-1,1952,1338,47.7023,-10.3488
735,-314,26.3665,6.21582,0,0,0,0,0,0,0,-1,1959,1338,26.3664,-6.21581
742,-314,26.2235,6.0166,0,0,0,0,0,0,0,-1,1966,1338,26.2235,-6.01662
749,-314,26.2223,5.47046,0,0,0,0,0,0,0,-1,1973,1338,26.2223,-5.47041
756,-314,24.2521,5.93408,0,0,0,0,0,0,0,-1,1980,1338,24.252,-5.93413
763,-314,19.2207,4.07239,0,0,0,0,0,0,0,-1,1987,1338,19.2206,-4.07239
770,-314,0,0,0,0,0,0,0,0,0,-1,1994,1338,0,0
777,-314,0,0,0,0,0,0,0,0,0,-1,2001,1338,0,0
784,-314,0,0,0,0,0,0,0,0,0,-1,2008,1338,0,0
791,-314,0,0,0,0,0,0,0,0,0,-1,2015,1338,0,0
798,-314,0,0,0,0,0,0,0,0,0,-1,2022,1338,0,0
805,-314,0,0,0,0,0,0,0,0,0,-1,2029,1338,0,0
812,-314,0,0,0,0,0,0,0,0,0,-1,2036,1338,0,0
-700,-321,0,0,0,0,0,0,0,0,0,-1,524,1345,0,0
-693,-321,0,0,0,0,0,0,0,0,0,-1,531,1345,0,0
-686,-321,0,0,0,0,0,0,0,0,0,-1,538,1345,0,0
-679,-321,0,0,0,0,0,0,0,0,0,-1,545,1345,0,0
-672,-321,0,0,0,0,0,0,0,0,0,-1,552,1345,0,0
-665,-321,0,0,0,0,0,0,0,0,0,-1,559,1345,0,0
-658,-321,0,0,0,0,0,0,0,0,0,-1,566,1345,0,0
-651,-321,0,0,0,0,0,0,0,0,0,-1,573,1345,0,0
-644,-321,-58.7329,10.2313,0,0,0,0,0,0,0,-1,580,1345,-58.7329,-10.2313
-637,-321,-59.9981,9.06421,0,0,0,0,0,0,0,-1,587,1345,-59.9981,-9.06417
-630,-321,-61.377,8.07166,0,0,0,0,0,0,0,-1,594,1345,-61.3769,-8.07168
-623,-321,-13.2242,3.14148,0,0,0,0,0,0,0,-1,601,1345,-13.2243,-3.14146
-616,-321,-11.6754,3.13794,0,0,0,0,0,0,0,-1,608,1345,-11.6754,-3.13789
-609,-321,-7.95209,1.14758,0,0,0,0,0,0,0,-1,615,1345,-7.95208,-1.14757
-602,-321,-8.85791,2.50049,0,0,0,0,0,0,0,-1,622,1345,-8.85791,-2.50048
-595,-321,-19.8463,5.36584,0,0,0,0,0,0,0,-1,629,1345,-19.8462,-5.36589
-588,-321,-30.3801,10.151,0,0,0,0,0,0,0,-1,636,1345,-30.3801,-10.151
-581,-321,-30.239,11.0321,0.00373184,0.00317794,0.00228058,0.00575223,0.00115756,0.724975,0.00351312,0.0147266,643,1345,-30.239,-11.0321
-574,-321,-30.2924,11.8528,0.0031233,0.00241335,0.00177653,0.00457997,0.000956682,0.68679,0.00278965,0.0158041,650,1345,-30.2924,-11.8528
-567,-321,-30.3017,12.6736,0.0029256,0.00176323,0.0014788,0.00393332,0.000755505,0.598164,0.00241018,0.0230637,657,1345,-30.3017,-12.6736
-560,-321,-30.3438,13.479,0.00309437,0.00120488,0.00139026,0.0038305,0.000468744,0.486965,0.00241265,0.027445,664,1345,-30.3438,-13.4789
-553,-321,-30.4101,14.2764,0.00360628,0.000736437,0.00149393,0.00424278,9.99295e-05,0.402771,0.00279581,0.027904,671,1345,-30.4101,-14.2763
-546,-321,-30.4869,15.0991,0.00447,0.000321383,0.00178543,0.00513257,-0.000341189,0.355347,0.00354093,0.026557,678,1345,-30.4869,-15.0991
-539,-321,-30.5086,15.8921,0.00574738,-1.41957e-07,0.00231096,0.00656131,-0.000814071,0.338636,0.00466928,0.0239401,685,1345,-30.5086,-15.8921
-532,-321,-30.3688,16.6842,0.00758369,-0.000243313,0.00310019,0.00866285,-0.00132247,0.334976,0.00626278,0.0374379,692,1345,-30.3688,-16.6842
-525,-321,-30.3909,17.4993,0,0,0,0,0,0,0,-1,699,1345,-30.3909,-17.4992
-518,-321,-10.3564,6.75696,0,0,0,0,0,0,0,-1,706,1345,-10.3564,-6.75694
-511,-321,-9.3302,5.29297,0,0,0,0,0,0,0,-1,713,1345,-9.33023,-5.29294
-504,-321,-10.4713,0.0145264,0,0,0,0,0,0,0,-1,720,1345,-10.4713,-0.0145296
-497,-321,-9.96771,0.313599,0,0,0,0,0,0,0,-1,727,1345,-9.96769,-0.313618
-490,-321,-10.7631,0.973511,0,0,0,0,0,0,0,-1,734,1345,-10.7631,-0.97353
-483,-321,-17.5908,0.2323,0,0,0,0,0,0,0,-1,741,1345,-17.5908,-0.232355
-476,-321,-17.2915,0.297363,0,0,0,0,0,0,0,-1,748,1345,-17.2915,-0.297342
-469,-321,-17.2441,0.478027,0,0,0,0,0,0,0,-1,755,1345,-17.2441,-0.477994
-462,-321,-17.1672,0.526489,0,0,0,0,0,0,0,-1,762,1345,-17.1672,-0.526533
-455,-321,0,0,0,0,0,0,0,0,0,-1,769,1345,0,0
-448,-321,0,0,0,0,0,0,0,0,0,-1,776,1345,0,0
-441,-321,0,0,0,0,0,0,0,0,0,-1,783,1345,0,0
-434,-321,0,0,0,0,0,0,0,0,0,-1,790,1345,0,0
-427,-321,0,0,0,0,0,0,0,0,0,-1,797,1345,0,0
-420,-321,0,0,0,0,0,0,0,0,0,-1,804,1345,0,0
-413,-321,0,0,0,0,0,0,0,0,0,-1,811,1345,0,0
-406,-321,0,0,0,0,0,0,0,0,0,-1,818,1345,0,0
-399,-321,0,0,0,0,0,0,0,0,0,-1,825,1345,0,0
-392,-321,0,0,0,0,0,0,0,0,0,-1,832,1345,0,0
-385,-321,0,0,0,0,0,0,0,0,0,-1,839,1345,0,0
-378,-321,0,0,0,0,0,0,0,0,0,-1,846,1345,0,0
-371,-321,0,0,0,0,0,0,0,0,0,-1,853,1345,0,0
-364,-321,0,0,0,0,0,0,0,0,0,-1,860,1345,0,0
-357,-321,0,0,0,0,0,0,0,0,0,-1,867,1345,0,0
-350,-321,0,0,0,0,0,0,0,0,0,-1,874,1345,0,0
-343,-321,0,0,0,0,0,0,0,0,0,-1,881,1345,0,0
-336,-321,0,0,0,0,0,0,0,0,0,-1,888,1345,0,0
-329,-321,0,0,0,0,0,0,0,0,0,-1,895,1345,0,0
-322,-321,0,0,0,0,0,0,0,0,0,-1,902,1345,0,0
-315,-321,0,0,0,0,0,0,0,0,0,-1,909,1345,0,0
-308,-321,0,0,0,0,0,0,0,0,0,-1,916,1345,0,0
-301,-321,0,0,0,0,0,0,0,0,0,-1,923,1345,0,0
-294,-321,0,0,0,0,0,0,0,0,0,-1,930,1345,0,0
-287,-321,0,0,0,0,0,0,0,0,0,-1,937,1345,0,0
-280,-321,0,0,0,0,0,0,0,0,0,-1,944,1345,0,0
-273,-321,0,0,0,0,0,0,0,0,0,-1,951,1345,0,0
-266,-321,0,0,0,0,0,0,0,0,0,-1,958,1345,0,0
-259,-321,0,0,0,0,0,0,0,0,0,-1,965,1345,0,0
-252,-321,0,0,0,0,0,0,0,0,0,-1,972,1345,0,0
-245,-321,0,0,0,0,0,0,0,0,0,-1,979,1345,0,0
-238,-321,0,0,0,0,0,0,0,0,0,-1,986,1345,0,0
-231,-321,0,0,0,0,0,0,0,0,0,-1,993,1345,0,0
-224,-321,0,0,0,0,0,0,0,0,0,-1,1000,1345,0,0
-217,-321,0,0,0,0,0,0,0,0,0,-1,1007,1345,0,0
-210,-321,0,0,0,0,0,0,0,0,0,-1,1014,1345,0,0
-203,-321,0,0,0,0,0,0,0,0,0,-1,1021,1345,0,0
-196,-321,0,0,0,0,0,0,0,0,0,-1,1028,1345,0,0
-189,-321,0,0,0,0,0,0,0,0,0,-1,1035,1345,0,0
-182,-321,0,0,0,0,0,0,0,0,0,-1,1042,1345,0,0
-175,-321,0,0,0,0,0,0,0,0,0,-1,1049,1345,0,0
-168,-321,0,0,0,0,0,0,0,0,0,-1,1056,1345,0,0
-161,-321,0,0,0,0,0,0,0,0,0,-1,1063,1345,0,0
-154,-321,0,0,0,0,0,0,0,0,0,-1,1070,1345,0,0
-147,-321,0,0,0,0,0,0,0,0,0,-1,1077,1345,0,0
-140,-321,0,0,0,0,0,0,0,0,0,-1,1084,1345,0,0
-133,-321,0,0,0,0,0,0,0,0,0,-1,1091,1345,0,0
-126,-321,0,0,0,0,0,0,0,0,0,-1,1098,1345,0,0
-119,-321,0,0,0,0,0,0,0,0,0,-1,1105,1345,0,0
-112,-321,0,0,0,0,0,0,0,0,0,-1,1112,1345,0,0
-105,-321,0,0,0,0,0,0,0,0,0,-1,1119,1345,0,0
-98,-321,0,0,0,0,0,0,0,0,0,-1,1126,1345,0,0
-91,-321,0,0,0,0,0,0,0,0,0,-1,1133,1345,0,0
-84,-321,0,0,0,0,0,0,0,0,0,-1,1140,1345,0,0
-77,-321,0,0,0,0,0,0,0,0,0,-1,1147,1345,0,0
-70,-321,0,0,0,0,0,0,0,0,0,-1,1154,1345,0,0
-63,-321,0,0,0,0,0,0,0,0,0,-1,1161,1345,0,0
-56,-321,0,0,0,0,0,0,0,0,0,-1,1168,1345,0,0
-49,-321,0,0,0,0,0,0,0,0,0,-1,1175,1345,0,0
-42,-321,0,0,0,0,0,0,0,0,0,-1,1182,1345,0,0
-35,-321,0,0,0,0,0,0,0,0,0,-1,1189,1345,0,0
-28,-321,0,0,0,0,0,0,0,0,0,-1,1196,1345,0,0
-21,-321,0,0,0,0,0,0,0,0,0,-1,1203,1345,0,0
-14,-321,0,0,0,0,0,0,0,0,0,-1,1210,1345,0,0
-7,-321,0,0,0,0,0,0,0,0,0,-1,1217,1345,0,0
0,-321,0,0,0,0,0,0,0,0,0,-1,1224,1345,0,0
7,-321,0,0,0,0,0,0,0,0,0,-1,1231,1345,0,0
14,-321,0,0,0,0,0,0,0,0,0,-1,1238,1345,0,0
21,-321,0,0,0,0,0,0,0,0,0,-1,1245,1345,0,0
28,-321,0,0,0,0,0,0,0,0,0,-1,1252,1345,0,0
35,-321,0,0,0,0,0,0,0,0,0,-1,1259,1345,0,0
42,-321,0,0,0,0,0,0,0,0,0,-1,1266,1345,0,0
49,-321,0,0,0,0,0,0,0,0,0,-1,1273,1345,0,0
56,-321,0,0,0,0,0,0,0,0,0,-1,1280,1345,0,0
63,-321,0,0,0,0,0,0,0,0,0,-1,1287,1345,0,0
70,-321,0,0,0,0,0,0,0,0,0,-1,1294,1345,0,0
77,-321,0,0,0,0,0,0,0,0,0,-1,1301,1345,0,0
84,-321,0,0,0,0,0,0,0,0,0,-1,1308,1345,0,0
91,-321,0,0,0,0,0,0,0,0,0,-1,1315,1345,0,0
98,-321,0,0,0,0,0,0,0,0,0,-1,1322,1345,0,0
105,-321,0,0,0,0,0,0,0,0,0,-1,1329,1345,0,0
112,-321,0,0,0,0,0,0,0,0,0,-1,1336,1345,0,0
119,-321,0,0,0,0,0,0,0,0,0,-1,1343,1345,0,0
126,-321,0,0,0,0,0,0,0,0,0,-1,1350,1345,0,0
133,-321,0,0,0,0,0,0,0,0,0,-1,1357,1345,0,0
140,-321,0,0,0,0,0,0,0,0,0,-1,1364,1345,0,0
147,-321,0,0,0,0,0,0,0,0,0,-1,1371,1345,0,0
154,-321,0,0,0,0,0,0,0,0,0,-1,1378,1345,0,0
161,-321,0,0,0,0,0,0,0,0,0,-1,1385,1345,0,0
168,-321,0,0,0,0,0,0,0,0,0,-1,1392,1345,0,0
175,-321,0,0,0,0,0,0,0,0,0,-1,1399,1345,0,0
182,-321,0,0,0,0,0,0,0,0,0,-1,1406,1345,0,0
189,-321,0,0,0,0,0,0,0,0,0,-1,1413,1345,0,0
196,-321,0,0,0,0,0,0,0,0,0,-1,1420,1345,0,0
203,-321,0,0,0,0,0,0,0,0,0,-1,1427,1345,0,0
210,-321,0,0,0,0,0,0,0,0,0,-1,1434,1345,0,0
217,-321,0,0,0,0,0,0,0,0,0,-1,1441,1345,0,0
224,-321,0,0,0,0,0,0,0,0,0,-1,1448,1345,0,0
231,-321,0,0,0,0,0,0,0,0,0,-1,1455,1345,0,0
238,-321,0,0,0,0,0,0,0,0,0,-1,1462,1345,0,0
245,-321,0,0,0,0,0,0,0,0,0,-1,1469,1345,0,0
252,-321,0,0,0,0,0,0,0,0,0,-1,1476,1345,0,0
259,-321,0,0,0,0,0,0,0,0,0,-1,1483,1345,0,0
266,-321,0,0,0,0,0,0,0,0,0,-1,1490,1345,0,0
273,-321,0,0,0,0,0,0,0,0,0,-1,1497,1345,0,0
280,-321,0,0,0,0,0,0,0,0,0,-1,1504,1345,0,0
287,-321,0,0,0,0,0,0,0,0,0,-1,1511,1345,0,0
294,-321,0,0,0,0,0,0,0,0,0,-1,1518,1345,0,0
301,-321,0,0,0,0,0,0,0,0,0,-1,1525,1345,0,0
308,-321,0,0,0,0,0,0,0,0,0,-1,1532,1345,0,0
315,-321,0,0,0,0,0,0,0,0,0,-1,1539,1345,0,0
322,-321,0,0,0,0,0,0,0,0,0,-1,1546,1345,0,0
329,-321,0,0,0,0,0,0,0,0,0,-1,1553,1345,0,0
336,-321,0,0,0,0,0,0,0,0,0,-1,1560,1345,0,0
343,-321,0,0,0,0,0,0,0,0,0,-1,1567,1345,0,0
350,-321,0,0,0,0,0,0,0,0,0,-1,1574,1345,0,0
357,-321,0,0,0,0,0,0,0,0,0,-1,1581,1345,0,0
364,-321,0,0,0,0,0,0,0,0,0,-1,1588,1345,0,0
371,-321,0,0,0,0,0,0,0,0,0,-1,1595,1345,0,0
378,-321,0,0,0,0,0,0,0,0,0,-1,1602,1345,0,0
385,-321,0,0,0,0,0,0,0,0,0,-1,1609,1345,0,0
392,-321,0,0,0,0,0,0,0,0,0,-1,1616,1345,0,0
399,-321,0,0,0,0,0,0,0,0,0,-1,1623,1345,0,0
406,-321,0,0,0,0,0,0,0,0,0,-1,1630,1345,0,0
413,-321,0,0,0,0,0,0,0,0,0,-1,1637,1345,0,0
420,-321,0,0,0,0,0,0,0,0,0,-1,1644,1345,0,0
427,-321,0,0,0,0,0,0,0,0,0,-1,1651,1345,0,0
434,-321,0,0,0,0,0,0,0,0,0,-1,1658,1345,0,0
441,-321,0,0,0,0,0,0,0,0,0,-1,1665,1345,0,0
448,-321,0,0,0,0,0,0,0,0,0,-1,1672,1345,0,0
455,-321,0,0,0,0,0,0,0,0,0,-1,1679,1345,0,0
462,-321,0,0,0,0,0,0,0,0,0,-1,1686,1345,0,0
469,-321,0,0,0,0,0,0,0,0,0,-1,1693,1345,0,0
476,-321,0,0,0,0,0,0,0,0,0,-1,1700,1345,0,0
483,-321,0,0,0,0,0,0,0,0,0,-1,1707,1345,0,0
490,-321,0,0,0,0,0,0,0,0,0,-1,1714,1345,0,0
497,-321,0,0,0,0,0,0,0,0,0,-1,1721,1345,0,0
504,-321,0,0,0,0,0,0,0,0,0,-1,1728,1345,0,0
511,-321,0,0,0,0,0,0,0,0,0,-1,1735,1345,0,0
518,-321,0,0,0,0,0,0,0,0,0,-1,1742,1345,0,0
525,-321,0,0,0,0,0,0,0,0,0,-1,1749,1345,0,0
532,-321,0,0,0,0,0,0,0,0,0,-1,1756,1345,0,0
539,-321,0,0,0,0,0,0,0,0,0,-1,1763,1345,0,0
546,-321,0,0,0,0,0,0,0,0,0,-1,1770,1345,0,0
553,-321,0,0,0,0,0,0,0,0,0,-1,1777,1345,0,0
560,-321,0,0,0,0,0,0,0,0,0,-1,1784,1345,0,0
567,-321,0,0,0,0,0,0,0,0,0,-1,1791,1345,0,0
574,-321,0,0,0,0,0,0,0,0,0,-1,1798,1345,0,0
581,-321,66.1073,1.6543,0,0,0,0,0,0,0,-1,1805,1345,66.1073,-1.65427
588,-321,66.6576,0.7948,0,0,0,0,0,0,0,-1,1812,1345,66.6575,-0.794774
595,-321,67.2585,-0.216431,0,0,0,0,0,0,0,-1,1819,1345,67.2586,0.216484
602,-321,60.3523,1.24133,0,0,0,0,0,0,0,-1,1826,1345,60.3523,-1.2413
609,-321,48.311,3.39575,0,0,0,0,0,0,0,-1,1833,1345,48.311,-3.39571
616,-321,37.8107,2.58704,0,0,0,0,0,0,0,-1,1840,1345,37.8106,-2.58705
623,-321,37.6854,3.68933,0,0,0,0,0,0,0,-1,1847,1345,37.6854,-3.68931
630,-321,23.6674,4.34106,0,0,0,0,0,0,0,-1,1854,1345,23.6674,-4.34112
637,-321,21.7925,6.79224,0,0,0,0,0,0,0,-1,1861,1345,21.7925,-6.7922
644,-321,16.8844,6.71973,0,0,0,0,0,0,0,-1,1868,1345,16.8844,-6.71971
651,-321,27.4924,10.0319,0,0,0,0,0,0,0,-1,1875,1345,27.4924,-10.0319
658,-321,47.1831,18.0463,0,0,0,0,0,0,0,-1,1882,1345,47.1831,-18.0463
665,-321,47.2268,17.2786,0.00168534,0.000756888,-0.00264303,0.0039046,-0.00146238,-0.698464,0.00320378,0.0304351,1889,1345,47.2269,-17.2786
672,-321,47.2024,16.5068,0.00113307,0.00023758,-0.00135664,0.00211394,-0.00074329,-0.626006,0.00171172,0.0138893,1896,1345,47.2023,-16.5068
679,-321,47.1511,15.7245,0.00100328,-5.40156e-06,-0.000661766,0.00133098,-0.000333103,-0.459794,0.00101671,0.0119625,1903,1345,47.1511,-15.7244
686,-321,47.08,14.9448,0.00114065,0.000104923,-0.000491043,0.00133645,-9.08698e-05,-0.37941,0.000922746,0.0132453,1910,1345,47.08,-14.9448
693,-321,47.0299,14.1724,0.00121621,0.000298629,-0.000341598,0.00132941,0.000185425,-0.320006,0.000831388,0.0132381,1917,1345,47.0299,-14.1723
700,-321,47.0264,13.3683,0.00126764,0.000482646,-0.000151516,0.00129587,0.000454416,-0.184205,0.00075921,0.0135997,1924,1345,47.0264,-13.3683
707,-321,47.0195,12.6013,0.00125333,0.000658624,8.44624e-05,0.0012651,0.000646862,0.138379,0.000730465,0.0152367,1931,1345,47.0196,-12.6013
714,-321,46.9729,11.8555,0.00111526,0.000802095,0.000384603,0.00137393,0.00054342,0.592083,0.000798991,0.0139737,1938,1345,46.9729,-11.8554
721,-321,46.8882,11.0753,0.000803932,0.000755242,0.000839942,0.00161988,-6.07077e-05,0.77091,0.00110072,0.0420625,1945,1345,46.8881,-11.0753
728,-321,46.8811,10.3306,0,0,0,0,0,0,0,-1,1952,1345,46.8811,-10.3306
735,-321,22.0081,5.65479,0,0,0,0,0,0,0,-1,1959,1345,22.008,-5.65481
742,-321,24.5398,5.05725,0,0,0,0,0,0,0,-1,1966,1345,24.5398,-5.05729
749,-321,24.0675,5.4458,0,0,0,0,0,0,0,-1,1973,1345,24.0675,-5.44581
756,-321,19.6251,4.98315,0,0,0,0,0,0,0,-1,1980,1345,19.6251,-4.98311
763,-321,19.6747,4.61438,0,0,0,0,0,0,0,-1,1987,1345,19.6747,-4.61436
770,-321,0,0,0,0,0,0,0,0,0,-1,1994,1345,0,0
777,-321,0,0,0,0,0,0,0,0,0,-1,2001,1345,0,0
784,-321,0,0,0,0,0,0,0,0,0,-1,2008,1345,0,0
791,-321,0,0,0,0,0,0,0,0,0,-1,2015,1345,0,0
798,-321,0,0,0,0,0,0,0,0,0,-1,2022,1345,0,0
805,-321,0,0,0,0,0,0,0,0,0,-1,2029,1345,0,0
812,-321,0,0,0,0,0,0,0,0,0,-1,2036,1345,0,0
-700,-328,0,0,0,0,0,0,0,0,0,-1,524,1352,0,0
-693,-328,0,0,0,0,0,0,0,0,0,-1,531,1352,0,0
-686,-328,0,0,0,0,0,0,0,0,0,-1,538,1352,0,0
-679,-328,0,0,0,0,0,0,0,0,0,-1,545,1352,0,0
-672,-328,0,0,0,0,0,0,0,0,0,-1,552,1352,0,0
-665,-328,0,0,0,0,0,0,0,0,0,-1,559,1352,0,0
-658,-328,0,0,0,0,0,0,0,0,0,-1,566,1352,0,0
-651,-328,0,0,0,0,0,0,0,0,0,-1,573,1352,0,0
-644,-328,0,0,0,0,0,0,0,0,0,-1,580,1352,0,0
-637,-328,-61.3883,10.1125,0,0,0,0,0,0,0,-1,587,1352,-61.3883,-10.1126
-630,-328,-62.8012,9.14563,0,0,0,0,0,0,0,-1,594,1352,-62.8012,-9.14564
-623,-328,-10.7739,4.55042,0,0,0,0,0,0,0,-1,601,1352,-10.7739,-4.55041
-616,-328,-8.22198,-0.25708,0,0,0,0,0,0,0,-1,608,1352,-8.22201,0.257067
-609,-328,-7.87439,0.192871,0,0,0,0,0,0,0,-1,615,1352,-7.87441,-0.192822
-602,-328,-7.63062,1.31665,0,0,0,0,0,0,0,-1,622,1352,-7.63064,-1.3166
-595,-328,-9.42639,2.93494,0,0,0,0,0,0,0,-1,629,1352,-9.42638,-2.93499
-588,-328,-29.595,10.0021,0,0,0,0,0,0,0,-1,636,1352,-29.5951,-10.0021
-581,-328,-29.4763,11.0059,0.00445507,0.00390156,0.00286293,0.00705459,0.00130204,0.737214,0.00433473,0.0280902,643,1352,-29.4763,-11.0059
-574,-328,-29.473,11.8783,0.00355947,0.00294548,0.00219807,0.00547188,0.00103307,0.716013,0.00335698,0.0153855,650,1352,-29.473,-11.8783
-567,-328,-29.533,12.7103,0.00315896,0.00217724,0.00177537,0.00451007,0.000826125,0.650525,0.00277267,0.021391,657,1352,-29.533,-12.7103
-560,-328,-29.5671,13.5248,0.00316606,0.00154062,0.00159527,0.0041437,0.00056298,0.549806,0.00259524,0.0295539,664,1352,-29.5671,-13.5247
-553,-328,-29.6075,14.3344,0.0035141,0.00100916,0.00161191,0.00430294,0.000220326,0.455115,0.00279808,0.0304781,671,1352,-29.6075,-14.3343
-546,-328,-29.6748,15.1697,0.00420739,0.000563137,0.0018186,0.00495965,-0.000189123,0.392215,0.00337125,0.0281473,678,1352,-29.6748,-15.1697
-539,-328,-29.7548,15.928,0.00525825,0.000212274,0.00223575,0.00610632,-0.000635798,0.362556,0.00429852,0.0237295,685,1352,-29.7548,-15.928
-532,-328,-29.7288,16.7288,0.0067617,-5.91864e-05,0.0028843,0.00781783,-0.00111532,0.351003,0.00562067,0.0195802,692,1352,-29.7288,-16.7287
-525,-328,-29.728,17.604,0.00869222,-0.000215761,0.00380373,0.0100954,-0.00161894,0.353407,0.00732975,0.0349284,699,1352,-29.728,-17.6039
-518,-328,-29.8677,18.5067,0,0,0,0,0,0,0,-1,706,1352,-29.8677,-18.5067
-511,-328,-9.39868,7.16113,0,0,0,0,0,0,0,-1,713,1352,-9.39869,-7.16113
-504,-328,-8.60626,-0.905762,0,0,0,0,0,0,0,-1,720,1352,-8.60623,0.905787
-497,-328,-9.29102,-0.0517578,0,0,0,0,0,0,0,-1,727,1352,-9.29104,0.0518175
-490,-328,-10.0663,0.882813,0,0,0,0,0,0,0,-1,734,1352,-10.0663,-0.882795
-483,-328,-10.8181,1.72375,0,0,0,0,0,0,0,-1,741,1352,-10.8181,-1.72374
-476,-328,-16.8951,-0.150757,0,0,0,0,0,0,0,-1,748,1352,-16.8951,0.150795
-469,-328,-16.8412,0.00158691,0,0,0,0,0,0,0,-1,755,1352,-16.8412,-0.00161515
-462,-328,-16.3546,-0.203491,0,0,0,0,0,0,0,-1,762,1352,-16.3545,0.203532
-455,-328,0,0,0,0,0,0,0,0,0,-1,769,1352,0,0
-448,-328,0,0,0,0,0,0,0,0,0,-1,776,1352,0,0
-441,-328,0,0,0,0,0,0,0,0,0,-1,783,1352,0,0
-434,-328,0,0,0,0,0,0,0,0,0,-1,790,1352,0,0
-427,-328,0,0,0,0,0,0,0,0,0,-1,797,1352,0,0
-420,-328,0,0,0,0,0,0,0,0,0,-1,804,1352,0,0
-413,-328,0,0,0,0,0,0,0,0,0,-1,811,1352,0,0
-406,-328,0,0,0,0,0,0,0,0,0,-1,818,1352,0,0
-399,-328,0,0,0,0,0,0,0,0,0,-1,825,1352,0,0
-392,-328,0,0,0,0,0,0,0,0,0,-1,832,1352,0,0
-385,-328,0,0,0,0,0,0,0,0,0,-1,839,1352,0,0
-378,-328,0,0,0,0,0,0,0,0,0,-1,846,1352,0,0
-371,-328,0,0,0,0,0,0,0,0,0,-1,853,1352,0,0
-364,-328,0,0,0,0,0,0,0,0,0,-1,860,1352,0,0
-357,-328,0,0,0,0,0,0,0,0,0,-1,867,1352,0,0
-350,-328,0,0,0,0,0,0,0,0,0,-1,874,1352,0,0
-343,-328,0,0,0,0,0,0,0,0,0,-1,881,1352,0,0
-336,-328,0,0,0,0,0,0,0,0,0,-1,888,1352,0,0
-329,-328,0,0,0,0,0,0,0,0,0,-1,895,1352,0,0
-322,-328,0,0,0,0,0,0,0,0,0,-1,902,1352,0,0
-315,-328,0,0,0,0,0,0,0,0,0,-1,909,1352,0,0
-308,-328,0,0,0,0,0,0,0,0,0,-1,916,1352,0,0
-301,-328,0,0,0,0,0,0,0,0,0,-1,923,1352,0,0
-294,-328,0,0,0,0,0,0,0,0,0,-1,930,1352,0,0
-287,-328,0,0,0,0,0,0,0,0,0,-1,937,1352,0,0
-280,-328,0,0,0,0,0,0,0,0,0,-1,944,1352,0,0
-273,-328,0,0,0,0,0,0,0,0,0,-1,951,1352,0,0
-266,-328,0,0,0,0,0,0,0,0,0,-1,958,1352,0,0
-259,-328,0,0,0,0,0,0,0,0,0,-1,965,1352,0,0
-252,-328,0,0,0,0,0,0,0,0,0,-1,972,1352,0,0
-245,-328,0,0,0,0,0,0,0,0,0,-1,979,1352,0,0
-238,-328,0,0,0,0,0,0,0,0,0,-1,986,1352,0,0
-231,-328,0,0,0,0,0,0,0,0,0,-1,993,1352,0,0
-224,-328,0,0,0,0,0,0,0,0,0,-1,1000,1352,0,0
-217,-328,0,0,0,0,0,0,0,0,0,-1,1007,1352,0,0
-210,-328,0,0,0,0,0,0,0,0,0,-1,1014,1352,0,0
-203,-328,0,0,0,0,0,0,0,0,0,-1,1021,1352,0,0
-196,-328,0,0,0,0,0,0,0,0,0,-1,1028,1352,0,0
-189,-328,0,0,0,0,0,0,0,0,0,-1,1035,1352,0,0
-182,-328,0,0,0,0,0,0,0,0,0,-1,1042,1352,0,0
-175,-328,0,0,0,0,0,0,0,0,0,-1,1049,1352,0,0
-168,-328,0,0,0,0,0,0,0,0,0,-1,1056,1352,0,0
-161,-328,0,0,0,0,0,0,0,0,0,-1,1063,1352,0,0
-154,-328,0,0,0,0,0,0,0,0,0,-1,1070,1352,0,0
-147,-328,0,0,0,0,0,0,0,0,0,-1,1077,1352,0,0
-140,-328,0,0,0,0,0,0,0,0,0,-1,1084,1352,0,0
-133,-328,0,0,0,0,0,0,0,0,0,-1,1091,1352,0,0
-126,-328,0,0,0,0,0,0,0,0,0,-1,1098,1352,0,0
-119,-328,0,0,0,0,0,0,0,0,0,-1,1105,1352,0,0
-112,-328,0,0,0,0,0,0,0,0,0,-1,1112,1352,0,0
-105,-328,0,0,0,0,0,0,0,0,0,-1,1119,1352,0,0
-98,-328,0,0,0,0,0,0,0,0,0,-1,1126,1352,0,0
-91,-328,0,0,0,0,0,0,0,0,0,-1,1133,1352,0,0
-84,-328,0,0,0,0,0,0,0,0,0,-1,1140,1352,0,0
-77,-328,0,0,0,0,0,0,0,0,0,-1,1147,1352,0,0
-70,-328,0,0,0,0,0,0,0,0,0,-1,1154,1352,0,0
-63,-328,0,0,0,0,0,0,0,0,0,-1,1161,1352,0,0
-56,-328,0,0,0,0,0,0,0,0,0,-1,1168,1352,0,0
-49,-328,0,0,0,0,0,0,0,0,0,-1,1175,1352,0,0
-42,-328,0,0,0,0,0,0,0,0,0,-1,1182,1352,0,0
-35,-328,0,0,0,0,0,0,0,0,0,-1,1189,1352,0,0
-28,-328,0,0,0,0,0,0,0,0,0,-1,1196,1352,0,0
-21,-328,0,0,0,0,0,0,0,0,0,-1,1203,1352,0,0
-14,-328,0,0,0,0,0,0,0,0,0,-1,1210,1352,0,0
-7,-328,0,0,0,0,0,0,0,0,0,-1,1217,1352,0,0
0,-328,0,0,0,0,0,0,0,0,0,-1,1224,1352,0,0
7,-328,0,0,0,0,0,0,0,0,0,-1,1231,1352,0,0
14,-328,0,0,0,0,0,0,0,0,0,-1,1238,1352,0,0
21,-328,0,0,0,0,0,0,0,0,0,-1,1245,1352,0,0
28,-328,0,0,0,0,0,0,0,0,0,-1,1252,1352,0,0
35,-328,0,0,0,0,0,0,0,0,0,-1,1259,1352,0,0
42,-328,0,0,0,0,0,0,0,0,0,-1,1266,1352,0,0
49,-328,0,0,0,0,0,0,0,0,0,-1,1273,1352,0,0
56,-328,0,0,0,0,0,0,0,0,0,-1,1280,1352,0,0
63,-328,0,0,0,0,0,0,0,0,0,-1,1287,1352,0,0
70,-328,0,0,0,0,0,0,0,0,0,-1,1294,1352,0,0
77,-328,0,0,0,0,0,0,0,0,0,-1,1301,1352,0,0
84,-328,0,0,0,0,0,0,0,0,0,-1,1308,1352,0,0
91,-328,0,0,0,0,0,0,0,0,0,-1,1315,1352,0,0
98,-328,0,0,0,0,0,0,0,0,0,-1,1322,1352,0,0
105,-328,0,0,0,0,0,0,0,0,0,-1,1329,1352,0,0
112,-328,0,0,0,0,0,0,0,0,0,-1,1336,1352,0,0
119,-328,0,0,0,0,0,0,0,0,0,-1,1343,1352,0,0
126,-328,0,0,0,0,0,0,0,0,0,-1,1350,1352,0,0
133,-328,0,0,0,0,0,0,0,0,0,-1,1357,1352,0,0
140,-328,0,0,0,0,0,0,0,0,0,-1,1364,1352,0,0
147,-328,0,0,0,0,0,0,0,0,0,-1,1371,1352,0,0
154,-328,0,0,0,0,0,0,0,0,0,-1,1378,1352,0,0
161,-328,0,0,0,0,0,0,0,0,0,-1,1385,1352,0,0
168,-328,0,0,0,0,0,0,0,0,0,-1,1392,1352,0,0
175,-328,0,0,0,0,0,0,0,0,0,-1,1399,1352,0,0
182,-328,0,0,0,0,0,0,0,0,0,-1,1406,1352,0,0
189,-328,0,0,0,0,0,0,0,0,0,-1,1413,1352,0,0
196,-328,0,0,0,0,0,0,0,0,0,-1,1420,1352,0,0
203,-328,0,0,0,0,0,0,0,0,0,-1,1427,1352,0,0
210,-328,0,0,0,0,0,0,0,0,0,-1,1434,1352,0,0
217,-328,0,0,0,0,0,0,0,0,0,-1,1441,1352,0,0
224,-328,0,0,0,0,0,0,0,0,0,-1,1448,1352,0,0
231,-328,0,0,0,0,0,0,0,0,0,-1,1455,1352,0,0
238,-328,0,0,0,0,0,0,0,0,0,-1,1462,1352,0,0
245,-328,0,0,0,0,0,0,0,0,0,-1,1469,1352,0,0
252,-328,0,0,0,0,0,0,0,0,0,-1,1476,1352,0,0
259,-328,0,0,0,0,0,0,0,0,0,-1,1483,1352,0,0
266,-328,0,0,0,0,0,0,0,0,0,-1,1490,1352,0,0
273,-328,0,0,0,0,0,0,0,0,0,-1,1497,1352,0,0
280,-328,0,0,0,0,0,0,0,0,0,-1,1504,1352,0,0
287,-328,0,0,0,0,0,0,0,0,0,-1,1511,1352,0,0
294,-328,0,0,0,0,0,0,0,0,0,-1,1518,1352,0,0
301,-328,0,0,0,0,0,0,0,0,0,-1,1525,1352,0,0
308,-328,0,0,0,0,0,0,0,0,0,-1,1532,1352,0,0
315,-328,0,0,0,0,0,0,0,0,0,-1,1539,1352,0,0
322,-328,0,0,0,0,0,0,0,0,0,-1,1546,1352,0,0
329,-328,0,0,0,0,0,0,0,0,0,-1,1553,1352,0,0
336,-328,0,0,0,0,0,0,0,0,0,-1,1560,1352,0,0
343,-328,0,0,0,0,0,0,0,0,0,-1,1567,1352,0,0
350,-328,0,0,0,0,0,0,0,0,0,-1,1574,1352,0,0
357,-328,0,0,0,0,0,0,0,0,0,-1,1581,1352,0,0
364,-328,0,0,0,0,0,0,0,0,0,-1,1588,1352,0,0
371,-328,0,0,0,0,0,0,0,0,0,-1,1595,1352,0,0
378,-328,0,0,0,0,0,0,0,0,0,-1,1602,1352,0,0
385,-328,0,0,0,0,0,0,0,0,0,-1,1609,1352,0,0
392,-328,0,0,0,0,0,0,0,0,0,-1,1616,1352,0,0
399,-328,0,0,0,0,0,0,0,0,0,-1,1623,1352,0,0
406,-328,0,0,0,0,0,0,0,0,0,-1,1630,1352,0,0
413,-328,0,0,0,0,0,0,0,0,0,-1,1637,1352,0,0
420,-328,0,0,0,0,0,0,0,0,0,-1,1644,1352,0,0
427,-328,0,0,0,0,0,0,0,0,0,-1,1651,1352,0,0
434,-328,0,0,0,0,0,0,0,0,0,-1,1658,1352,0,0
441,-328,0,0,0,0,0,0,0,0,0,-1,1665,1352,0,0
448,-328,0,0,0,0,0,0,0,0,0,-1,1672,1352,0,0
455,-328,0,0,0,0,0,0,0,0,0,-1,1679,1352,0,0
462,-328,0,0,0,0,0,0,0,0,0,-1,1686,1352,0,0
469,-328,0,0,0,0,0,0,0,0,0,-1,1693,1352,0,0
476,-328,0,0,0,0,0,0,0,0,0,-1,1700,1352,0,0
483,-328,0,0,0,0,0,0,0,0,0,-1,1707,1352,0,0
490,-328,0,0,0,0,0,0,0,0,0,-1,1714,1352,0,0
497,-328,0,0,0,0,0,0,0,0,0,-1,1721,1352,0,0
504,-328,0,0,0,0,0,0,0,0,0,-1,1728,1352,0,0
511,-328,0,0,0,0,0,0,0,0,0,-1,1735,1352,0,0
518,-328,0,0,0,0,0,0,0,0,0,-1,1742,1352,0,0
525,-328,0,0,0,0,0,0,0,0,0,-1,1749,1352,0,0
532,-328,0,0,0,0,0,0,0,0,0,-1,1756,1352,0,0
539,-328,0,0,0,0,0,0,0,0,0,-1,1763,1352,0,0
546,-328,0,0,0,0,0,0,0,0,0,-1,1770,1352,0,0
553,-328,0,0,0,0,0,0,0,0,0,-1,1777,1352,0,0
560,-328,0,0,0,0,0,0,0,0,0,-1,1784,1352,0,0
567,-328,0,0,0,0,0,0,0,0,0,-1,1791,1352,0,0
574,-328,65.0565,3.09021,0,0,0,0,0,0,0,-1,1798,1352,65.0565,-3.09019
581,-328,66.3988,1.74048,0,0,0,0,0,0,0,-1,1805,1352,66.3989,-1.74051
588,-328,67.0304,0.506714,0,0,0,0,0,0,0,-1,1812,1352,67.0304,-0.506669
595,-328,60.5831,1.52856,0,0,0,0,0,0,0,-1,1819,1352,60.5832,-1.52861
602,-328,48.7734,3.66785,0,0,0,0,0,0,0,-1,1826,1352,48.7734,-3.66782
609,-328,37.0468,1.17407,0,0,0,0,0,0,0,-1,1833,1352,37.0468,-1.17407
616,-328,36.999,2.42859,0,0,0,0,0,0,0,-1,1840,1352,36.999,-2.42862
623,-328,34.345,5.14722,0,0,0,0,0,0,0,-1,1847,1352,34.3449,-5.14718
630,-328,22.0211,5.026,0,0,0,0,0,0,0,-1,1854,1352,22.0212,-5.02603
637,-328,21.15,5.53699,0,0,0,0,0,0,0,-1,1861,1352,21.15,-5.53704
644,-328,16.9579,6.3396,0,0,0,0,0,0,0,-1,1868,1352,16.9579,-6.33959
651,-328,36.2629,14.6906,0,0,0,0,0,0,0,-1,1875,1352,36.263,-14.6905
658,-328,46.2882,18.2542,0,0,0,0,0,0,0,-1,1882,1352,46.2882,-18.2542
665,-328,46.4679,17.3416,0.00141207,0.000269427,-0.00161281,0.00255176,-0.000870264,-0.615175,0.00205367,0.0154136,1889,1352,46.4678,-17.3415
672,-328,46.4164,16.5624,0.00109907,8.27201e-05,-0.000922047,0.00164371,-0.000461917,-0.53354,0.00127791,0.0121047,1896,1352,46.4164,-16.5624
679,-328,46.3707,15.7629,0.0011105,8.96178e-05,-0.000627693,0.0014091,-0.000208982,-0.444028,0.00101625,0.0145409,1903,1352,46.3708,-15.7629
686,-328,46.3146,14.9751,0.00130188,0.000253115,-0.000565747,0.00154889,6.10517e-06,-0.411662,0.00103056,0.0158611,1910,1352,46.3146,-14.9751
693,-328,46.2667,14.2135,0.00152692,0.000486553,-0.000530523,0.00174973,0.000263739,-0.397619,0.00108927,0.0109831,1917,1352,46.2667,-14.2135
700,-328,46.2511,13.4054,0.00175193,0.000749542,-0.000473622,0.00194031,0.000561161,-0.378562,0.00115294,0.0148674,1924,1352,46.2511,-13.4055
707,-328,46.2441,12.6407,0.00192038,0.00102188,-0.000369284,0.00205268,0.00088958,-0.344004,0.00118862,0.0170817,1931,1352,46.2442,-12.6408
714,-328,46.2229,11.8844,0.00199683,0.00133459,-0.00023526,0.00207189,0.00125952,-0.308869,0.00120546,0.017459,1938,1352,46.2229,-11.8844
721,-328,46.2146,11.0182,0,0,0,0,0,0,0,-1,1945,1352,46.2146,-11.0182
728,-328,29.2787,6.74695,0,0,0,0,0,0,0,-1,1952,1352,29.2787,-6.74693
735,-328,20.8927,5.23523,0,0,0,0,0,0,0,-1,1959,1352,20.8927,-5.23528
742,-328,20.3547,4.11316,0,0,0,0,0,0,0,-1,1966,1352,20.3547,-4.11321
749,-328,20.0669,5.66321,0,0,0,0,0,0,0,-1,1973,1352,20.0669,-5.66319
756,-328,19.9543,5.50464,0,0,0,0,0,0,0,-1,1980,1352,19.9543,-5.50463
763,-328,0,0,0,0,0,0,0,0,0,-1,1987,1352,0,0
770,-328,0,0,0,0,0,0,0,0,0,-1,1994,1352,0,0
777,-328,0,0,0,0,0,0,0,0,0,-1,2001,1352,0,0
784,-328,0,0,0,0,0,0,0,0,0,-1,2008,1352,0,0
791,-328,0,0,0,0,0,0,0,0,0,-1,2015,1352,0,0
798,-328,0,0,0,0,0,0,0,0,0,-1,2022,1352,0,0
805,-328,0,0,0,0,0,0,0,0,0,-1,2029,1352,0,0
812,-328,0,0,0,0,0,0,0,0,0,-1,2036,1352,0,0
-700,-335,0,0,0,0,0,0,0,0,0,-1,524,1359,0,0
-693,-335,0,0,0,0,0,0,0,0,0,-1,531,1359,0,0
-686,-335,0,0,0,0,0,0,0,0,0,-1,538,1359,0,0
-679,-335,0,0,0,0,0,0,0,0,0,-1,545,1359,0,0
-672,-335,0,0,0,0,0,0,0,0,0,-1,552,1359,0,0
-665,-335,0,0,0,0,0,0,0,0,0,-1,559,1359,0,0
-658,-335,0,0,0,0,0,0,0,0,0,-1,566,1359,0,0
-651,-335,0,0,0,0,0,0,0,0,0,-1,573,1359,0,0
-644,-335,0,0,0,0,0,0,0,0,0,-1,580,1359,0,0
-637,-335,-62.7114,11.0491,0,0,0,0,0,0,0,-1,587,1359,-62.7114,-11.0491
-630,-335,-64.2532,9.91284,0,0,0,0,0,0,0,-1,594,1359,-64.2532,-9.91285
-623,-335,-8.43304,1.09509,0,0,0,0,0,0,0,-1,601,1359,-8.43301,-1.09507
-616,-335,-7.80927,-0.485352,0,0,0,0,0,0,0,-1,608,1359,-7.80926,0.485291
-609,-335,-7.12256,-2.03601,0,0,0,0,0,0,0,-1,615,1359,-7.12253,2.03601
-602,-335,-9.39935,2.25146,0,0,0,0,0,0,0,-1,622,1359,-9.39935,-2.25145
-595,-335,-9.54767,3.01917,0,0,0,0,0,0,0,-1,629,1359,-9.54768,-3.01911
-588,-335,-27.9316,9.81763,0,0,0,0,0,0,0,-1,636,1359,-27.9316,-9.81759
-581,-335,-28.6366,11.0133,0,0,0,0,0,0,0,-1,643,1359,-28.6366,-11.0133
-574,-335,-28.673,11.8716,0.00403597,0.00333455,0.00256636,0.00627547,0.00109505,0.71749,0.00387061,0.0142776,650,1359,-28.673,-11.8716
-567,-335,-28.7117,12.7429,0.00340064,0.00248399,0.0019994,0.00499357,0.000891063,0.672729,0.00307536,0.0173272,657,1359,-28.7117,-12.7429
-560,-335,-28.7229,13.5262,0.0032246,0.00178327,0.00170989,0.0043595,0.000648379,0.585961,0.00271612,0.0246422,664,1359,-28.7229,-13.5262
-553,-335,-28.8085,14.3101,0.00340186,0.00120351,0.00163245,0.0042707,0.000334675,0.489099,0.00274239,0.0278487,671,1359,-28.8085,-14.3101
-546,-335,-28.889,15.1497,0.0039146,0.000720341,0.00174939,0.00468626,-5.13236e-05,0.415432,0.00314142,0.0260944,678,1359,-28.889,-15.1497
-539,-335,-28.9304,15.9674,0.00475654,0.000338017,0.00207053,0.00557514,-0.000480582,0.376497,0.00388687,0.0211298,685,1359,-28.9304,-15.9674
-532,-335,-28.9506,16.802,0.00598559,4.67039e-05,0.00261123,0.0069704,-0.000938106,0.360649,0.00498912,0.01583,692,1359,-28.9506,-16.802
-525,-335,-28.92,17.6512,0.00758852,-0.000126115,0.0033993,0.00887262,-0.00141021,0.361182,0.00643685,0.0136406,699,1359,-28.9201,-17.6512
-518,-335,-28.7916,18.3812,0,0,0,0,0,0,0,-1,706,1359,-28.7916,-18.3813
-511,-335,-17.3098,11.6718,0,0,0,0,0,0,0,-1,713,1359,-17.3097,-11.6717
-504,-335,-9.35767,5.99695,0,0,0,0,0,0,0,-1,720,1359,-9.35767,-5.99694
-497,-335,-8.75024,-0.650513,0,0,0,0,0,0,0,-1,727,1359,-8.75024,0.650521
-490,-335,-9.51971,0.417603,0,0,0,0,0,0,0,-1,734,1359,-9.51974,-0.41765
-483,-335,-10.2883,1.29224,0,0,0,0,0,0,0,-1,741,1359,-10.2883,-1.2922
-476,-335,-11.9938,-0.173462,0,0,0,0,0,0,0,-1,748,1359,-11.9938,0.173429
-469,-335,-12.8704,-0.204102,0,0,0,0,0,0,0,-1,755,1359,-12.8704,0.204117
-462,-335,-13.486,0.0218506,0,0,0,0,0,0,0,-1,762,1359,-13.4859,-0.0217908
-455,-335,-14.1504,0.549561,0,0,0,0,0,0,0,-1,769,1359,-14.1504,-0.549583
-448,-335,0,0,0,0,0,0,0,0,0,-1,776,1359,0,0
-441,-335,0,0,0,0,0,0,0,0,0,-1,783,1359,0,0
-434,-335,0,0,0,0,0,0,0,0,0,-1,790,1359,0,0
-427,-335,0,0,0,0,0,0,0,0,0,-1,797,1359,0,0
-420,-335,0,0,0,0,0,0,0,0,0,-1,804,1359,0,0
-413,-335,0,0,0,0,0,0,0,0,0,-1,811,1359,0,0
-406,-335,0,0,0,0,0,0,0,0,0,-1,818,1359,0,0
-399,-335,0,0,0,0,0,0,0,0,0,-1,825,1359,0,0
-392,-335,0,0,0,0,0,0,0,0,0,-1,832,1359,0,0
-385,-335,0,0,0,0,0,0,0,0,0,-1,839,1359,0,0
-378,-335,0,0,0,0,0,0,0,0,0,-1,846,1359,0,0
-371,-335,0,0,0,0,0,0,0,0,0,-1,853,1359,0,0
-364,-335,0,0,0,0,0,0,0,0,0,-1,860,1359,0,0
-357,-335,0,0,0,0,0,0,0,0,0,-1,867,1359,0,0
-350,-335,0,0,0,0,0,0,0,0,0,-1,874,1359,0,0
-343,-335,0,0,0,0,0,0,0,0,0,-1,881,1359,0,0
-336,-335,0,0,0,0,0,0,0,0,0,-1,888,1359,0,0
-329,-335,0,0,0,0,0,0,0,0,0,-1,895,1359,0,0
-322,-335,0,0,0,0,0,0,0,0,0,-1,902,1359,0,0
-315,-335,0,0,0,0,0,0,0,0,0,-1,909,1359,0,0
-308,-335,0,0,0,0,0,0,0,0,0,-1,916,1359,0,0
-301,-335,0,0,0,0,0,0,0,0,0,-1,923,1359,0,0
-294,-335,0,0,0,0,0,0,0,0,0,-1,930,1359,0,0
-287,-335,0,0,0,0,0,0,0,0,0,-1,937,1359,0,0
-280,-335,0,0,0,0,0,0,0,0,0,-1,944,1359,0,0
-273,-335,0,0,0,0,0,0,0,0,0,-1,951,1359,0,0
-266,-335,0,0,0,0,0,0,0,0,0,-1,958,1359,0,0
-259,-335,0,0,0,0,0,0,0,0,0,-1,965,1359,0,0
-252,-335,0,0,0,0,0,0,0,0,0,-1,972,1359,0,0
-245,-335,0,0,0,0,0,0,0,0,0,-1,979,1359,0,0
-238,-335,0,0,0,0,0,0,0,0,0,-1,986,1359,0,0
-231,-335,0,0,0,0,0,0,0,0,0,-1,993,1359,0,0
-224,-335,0,0,0,0,0,0,0,0,0,-1,1000,1359,0,0
-217,-335,0,0,0,0,0,0,0,0,0,-1,1007,1359,0,0
-210,-335,0,0,0,0,0,0,0,0,0,-1,1014,1359,0,0
-203,-335,0,0,0,0,0,0,0,0,0,-1,1021,1359,0,0
-196,-335,0,0,0,0,0,0,0,0,0,-1,1028,1359,0,0
-189,-335,0,0,0,0,0,0,0,0,0,-1,1035,1359,0,0
-182,-335,0,0,0,0,0,0,0,0,0,-1,1042,1359,0,0
-175,-335,0,0,0,0,0,0,0,0,0,-1,1049,1359,0,0
-168,-335,0,0,0,0,0,0,0,0,0,-1,1056,1359,0,0
-161,-335,0,0,0,0,0,0,0,0,0,-1,1063,1359,0,0
-154,-335,0,0,0,0,0,0,0,0,0,-1,1070,1359,0,0
-147,-335,0,0,0,0,0,0,0,0,0,-1,1077,1359,0,0
-140,-335,0,0,0,0,0,0,0,0,0,-1,1084,1359,0,0
-133,-335,0,0,0,0,0,0,0,0,0,-1,1091,1359,0,0
-126,-335,0,0,0,0,0,0,0,0,0,-1,1098,1359,0,0
-119,-335,0,0,0,0,0,0,0,0,0,-1,1105,1359,0,0
-112,-335,0,0,0,0,0,0,0,0,0,-1,1112,1359,0,0
-105,-335,0,0,0,0,0,0,0,0,0,-1,1119,1359,0,0
-98,-335,0,0,0,0,0,0,0,0,0,-1,1126,1359,0,0
-91,-335,0,0,0,0,0,0,0,0,0,-1,1133,1359,0,0
-84,-335,0,0,0,0,0,0,0,0,0,-1,1140,1359,0,0
-77,-335,0,0,0,0,0,0,0,0,0,-1,1147,1359,0,0
-70,-335,0,0,0,0,0,0,0,0,0,-1,1154,1359,0,0
-63,-335,0,0,0,0,0,0,0,0,0,-1,1161,1359,0,0
-56,-335,0,0,0,0,0,0,0,0,0,-1,1168,1359,0,0
-49,-335,0,0,0,0,0,0,0,0,0,-1,1175,1359,0,0
-42,-335,0,0,0,0,0,0,0,0,0,-1,1182,1359,0,0
-35,-335,0,0,0,0,0,0,0,0,0,-1,1189,1359,0,0
-28,-335,0,0,0,0,0,0,0,0,0,-1,1196,1359,0,0
-21,-335,0,0,0,0,0,0,0,0,0,-1,1203,1359,0,0
-14,-335,0,0,0,0,0,0,0,0,0,-1,1210,1359,0,0
-7,-335,0,0,0,0,0,0,0,0,0,-1,1217,1359,0,0
0,-335,0,0,0,0,0,0,0,0,0,-1,1224,1359,0,0
7,-335,0,0,0,0,0,0,0,0,0,-1,1231,1359,0,0
14,-335,0,0,0,0,0,0,0,0,0,-1,1238,1359,0,0
21,-335,0,0,0,0,0,0,0,0,0,-1,1245,1359,0,0
28,-335,0,0,0,0,0,0,0,0,0,-1,1252,1359,0,0
35,-335,0,0,0,0,0,0,0,0,0,-1,1259,1359,0,0
42,-335,0,0,0,0,0,0,0,0,0,-1,1266,1359,0,0
49,-335,0,0,0,0,0,0,0,0,0,-1,1273,1359,0,0
56,-335,0,0,0,0,0,0,0,0,0,-1,1280,1359,0,0
63,-335,0,0,0,0,0,0,0,0,0,-1,1287,1359,0,0
70,-335,0,0,0,0,0,0,0,0,0,-1,1294,1359,0,0
77,-335,0,0,0,0,0,0,0,0,0,-1,1301,1359,0,0
84,-335,0,0,0,0,0,0,0,0,0,-1,1308,1359,0,0
91,-335,0,0,0,0,0,0,0,0,0,-1,1315,1359,0,0
98,-335,0,0,0,0,0,0,0,0,0,-1,1322,1359,0,0
105,-335,0,0,0,0,0,0,0,0,0,-1,1329,1359,0,0
112,-335,0,0,0,0,0,0,0,0,0,-1,1336,1359,0,0
119,-335,0,0,0,0,0,0,0,0,0,-1,1343,1359,0,0
126,-335,0,0,0,0,0,0,0,0,0,-1,1350,1359,0,0
133,-335,0,0,0,0,0,0,0,0,0,-1,1357,1359,0,0
140,-335,0,0,0,0,0,0,0,0,0,-1,1364,1359,0,0
147,-335,0,0,0,0,0,0,0,0,0,-1,1371,1359,0,0
154,-335,0,0,0,0,0,0,0,0,0,-1,1378,1359,0,0
161,-335,0,0,0,0,0,0,0,0,0,-1,1385,1359,0,0
168,-335,0,0,0,0,0,0,0,0,0,-1,1392,1359,0,0
175,-335,0,0,0,0,0,0,0,0,0,-1,1399,1359,0,0
182,-335,0,0,0,0,0,0,0,0,0,-1,1406,1359,0,0
189,-335,0,0,0,0,0,0,0,0,0,-1,1413,1359,0,0
196,-335,0,0,0,0,0,0,0,0,0,-1,1420,1359,0,0
203,-335,0,0,0,0,0,0,0,0,0,-1,1427,1359,0,0
210,-335,0,0,0,0,0,0,0,0,0,-1,1434,1359,0,0
217,-335,0,0,0,0,0,0,0,0,0,-1,1441,1359,0,0
224,-335,0,0,0,0,0,0,0,0,0,-1,1448,1359,0,0
231,-335,0,0,0,0,0,0,0,0,0,-1,1455,1359,0,0
238,-335,0,0,0,0,0,0,0,0,0,-1,1462,1359,0,0
245,-335,0,0,0,0,0,0,0,0,0,-1,1469,1359,0,0
252,-335,0,0,0,0,0,0,0,0,0,-1,1476,1359,0,0
259,-335,0,0,0,0,0,0,0,0,0,-1,1483,1359,0,0
266,-335,0,0,0,0,0,0,0,0,0,-1,1490,1359,0,0
273,-335,0,0,0,0,0,0,0,0,0,-1,1497,1359,0,0
280,-335,0,0,0,0,0,0,0,0,0,-1,1504,1359,0,0
287,-335,0,0,0,0,0,0,0,0,0,-1,1511,1359,0,0
294,-335,0,0,0,0,0,0,0,0,0,-1,1518,1359,0,0
301,-335,0,0,0,0,0,0,0,0,0,-1,1525,1359,0,0
308,-335,0,0,0,0,0,0,0,0,0,-1,1532,1359,0,0
315,-335,0,0,0,0,0,0,0,0,0,-1,1539,1359,0,0
322,-335,0,0,0,0,0,0,0,0,0,-1,1546,1359,0,0
329,-335,0,0,0,0,0,0,0,0,0,-1,1553,1359,0,0
336,-335,0,0,0,0,0,0,0,0,0,-1,1560,1359,0,0
343,-335,0,0,0,0,0,0,0,0,0,-1,1567,1359,0,0
350,-335,0,0,0,0,0,0,0,0,0,-1,1574,1359,0,0
357,-335,0,0,0,0,0,0,0,0,0,-1,1581,1359,0,0
364,-335,0,0,0,0,0,0,0,0,0,-1,1588,1359,0,0
371,-335,0,0,0,0,0,0,0,0,0,-1,1595,1359,0,0
378,-335,0,0,0,0,0,0,0,0,0,-1,1602,1359,0,0
385,-335,0,0,0,0,0,0,0,0,0,-1,1609,1359,0,0
392,-335,0,0,0,0,0,0,0,0,0,-1,1616,1359,0,0
399,-335,0,0,0,0,0,0,0,0,0,-1,1623,1359,0,0
406,-335,0,0,0,0,0,0,0,0,0,-1,1630,1359,0,0
413,-335,0,0,0,0,0,0,0,0,0,-1,1637,1359,0,0
420,-335,0,0,0,0,0,0,0,0,0,-1,1644,1359,0,0
427,-335,0,0,0,0,0,0,0,0,0,-1,1651,1359,0,0
434,-335,0,0,0,0,0,0,0,0,0,-1,1658,1359,0,0
441,-335,0,0,0,0,0,0,0,0,0,-1,1665,1359,0,0
448,-335,0,0,0,0,0,0,0,0,0,-1,1672,1359,0,0
455,-335,0,0,0,0,0,0,0,0,0,-1,1679,1359,0,0
462,-335,0,0,0,0,0,0,0,0,0,-1,1686,1359,0,0
469,-335,0,0,0,0,0,0,0,0,0,-1,1693,1359,0,0
476,-335,0,0,0,0,0,0,0,0,0,-1,1700,1359,0,0
483,-335,0,0,0,0,0,0,0,0,0,-1,1707,1359,0,0
490,-335,0,0,0,0,0,0,0,0,0,-1,1714,1359,0,0
497,-335,0,0,0,0,0,0,0,0,0,-1,1721,1359,0,0
504,-335,0,0,0,0,0,0,0,0,0,-1,1728,1359,0,0
511,-335,0,0,0,0,0,0,0,0,0,-1,1735,1359,0,0
518,-335,0,0,0,0,0,0,0,0,0,-1,1742,1359,0,0
525,-335,0,0,0,0,0,0,0,0,0,-1,1749,1359,0,0
532,-335,0,0,0,0,0,0,0,0,0,-1,1756,1359,0,0
539,-335,0,0,0,0,0,0,0,0,0,-1,1763,1359,0,0
546,-335,0,0,0,0,0,0,0,0,0,-1,1770,1359,0,0
553,-335,0,0,0,0,0,0,0,0,0,-1,1777,1359,0,0
560,-335,0,0,0,0,0,0,0,0,0,-1,1784,1359,0,0
567,-335,0,0,0,0,0,0,0,0,0,-1,1791,1359,0,0
574,-335,65.0712,2.80188,0,0,0,0,0,0,0,-1,1798,1359,65.0712,-2.80193
581,-335,66.5206,1.60327,0,0,0,0,0,0,0,-1,1805,1359,66.5206,-1.60333
588,-335,67.826,0.334961,0,0,0,0,0,0,0,-1,1812,1359,67.8261,-0.335018
595,-335,49.984,3.76465,0,0,0,0,0,0,0,-1,1819,1359,49.984,-3.76467
602,-335,36.5643,0.0861816,0,0,0,0,0,0,0,-1,1826,1359,36.5643,-0.0862283
609,-335,36.2933,0.993896,0,0,0,0,0,0,0,-1,1833,1359,36.2934,-0.993911
616,-335,34.6969,4.82666,0,0,0,0,0,0,0,-1,1840,1359,34.6969,-4.82667
623,-335,26.6051,6.54333,0,0,0,0,0,0,0,-1,1847,1359,26.6051,-6.54339
630,-335,19.1707,1.00952,0,0,0,0,0,0,0,-1,1854,1359,19.1707,-1.00953
637,-335,18.2009,6.65454,0,0,0,0,0,0,0,-1,1861,1359,18.2009,-6.6546
644,-335,28.1042,12.067,0,0,0,0,0,0,0,-1,1868,1359,28.1042,-12.067
651,-335,45.5723,19.1699,0,0,0,0,0,0,0,-1,1875,1359,45.5723,-19.1699
658,-335,45.6599,18.2483,0.000661377,0.000618317,-0.000819917,0.00146005,-0.000180353,-0.772272,0.00103871,0.0424488,1882,1359,45.66,-18.2483
665,-335,45.6711,17.3945,0.000698974,0.00023304,-0.000630636,0.0011383,-0.000206284,-0.608465,0.000836152,0.0155567,1889,1359,45.6711,-17.3945
672,-335,45.6361,16.5983,0.000921597,0.000130347,-0.000579239,0.00122743,-0.000175481,-0.485782,0.000882611,0.0174832,1896,1359,45.6361,-16.5983
679,-335,45.5977,15.8202,0.00123801,0.000190849,-0.000599603,0.00151045,-8.15993e-05,-0.426491,0.00103524,0.0152739,1903,1359,45.5977,-15.8201
686,-335,45.5557,15.0199,0.0016014,0.000295697,-0.000632118,0.00185728,3.98201e-05,-0.384632,0.00122513,0.0139037,1910,1359,45.5557,-15.0199
693,-335,45.5,14.2443,0.00203793,0.00050543,-0.000715479,0.00232004,0.000223325,-0.375573,0.00147789,0.0122266,1917,1359,45.5,-14.2442
700,-335,45.4568,13.4823,0.00248878,0.000777367,-0.000791073,0.00279842,0.000467728,-0.373084,0.0017309,0.0126205,1924,1359,45.4568,-13.4823
707,-335,45.4282,12.7089,0.0029052,0.00108,-0.000821655,0.00322059,0.000764615,-0.366503,0.001943,0.0157938,1931,1359,45.4282,-12.7088
714,-335,45.4331,11.84,0.00328481,0.00151158,-0.000871838,0.00364165,0.00115474,-0.388498,0.00214889,0.0369122,1938,1359,45.4331,-11.8399
721,-335,45.3467,10.8796,0,0,0,0,0,0,0,-1,1945,1359,45.3467,-10.8797
728,-335,20.8126,5.21167,0,0,0,0,0,0,0,-1,1952,1359,20.8127,-5.21172
735,-335,20.2725,5.34729,0,0,0,0,0,0,0,-1,1959,1359,20.2724,-5.34734
742,-335,19.8624,4.72229,0,0,0,0,0,0,0,-1,1966,1359,19.8624,-4.72225
749,-335,20.5887,6.05322,0,0,0,0,0,0,0,-1,1973,1359,20.5887,-6.05322
756,-335,20.7832,6.00452,0,0,0,0,0,0,0,-1,1980,1359,20.7832,-6.00447
763,-335,0,0,0,0,0,0,0,0,0,-1,1987,1359,0,0
770,-335,0,0,0,0,0,0,0,0,0,-1,1994,1359,0,0
777,-335,0,0,0,0,0,0,0,0,0,-1,2001,1359,0,0
784,-335,0,0,0,0,0,0,0,0,0,-1,2008,1359,0,0
791,-335,0,0,0,0,0,0,0,0,0,-1,2015,1359,0,0
798,-335,0,0,0,0,0,0,0,0,0,-1,2022,1359,0,0
805,-335,0,0,0,0,0,0,0,0,0,-1,2029,1359,0,0
812,-335,0,0,0,0,0,0,0,0,0,-1,2036,1359,0,0
-700,-342,0,0,0,0,0,0,0,0,0,-1,524,1366,0,0
-693,-342,0,0,0,0,0,0,0,0,0,-1,531,1366,0,0
-686,-342,0,0,0,0,0,0,0,0,0,-1,538,1366,0,0
-679,-342,0,0,0,0,0,0,0,0,0,-1,545,1366,0,0
-672,-342,0,0,0,0,0,0,0,0,0,-1,552,1366,0,0
-665,-342,0,0,0,0,0,0,0,0,0,-1,559,1366,0,0
-658,-342,0,0,0,0,0,0,0,0,0,-1,566,1366,0,0
-651,-342,0,0,0,0,0,0,0,0,0,-1,573,1366,0,0
-644,-342,0,0,0,0,0,0,0,0,0,-1,580,1366,0,0
-637,-342,-63.7546,12.2344,0,0,0,0,0,0,0,-1,587,1366,-63.7546,-12.2343
-630,-342,-8.60132,2.71777,0,0,0,0,0,0,0,-1,594,1366,-8.60135,-2.71779
-623,-342,-8.41168,0.662476,0,0,0,0,0,0,0,-1,601,1366,-8.41168,-0.662442
-616,-342,-6.625,-1.28015,0,0,0,0,0,0,0,-1,608,1366,-6.62499,1.28011
-609,-342,-7.83154,0.674561,0,0,0,0,0,0,0,-1,615,1366,-7.83155,-0.674598
-602,-342,-9.65765,2.25195,0,0,0,0,0,0,0,-1,622,1366,-9.65767,-2.25192
-595,-342,-9.47687,3.00671,0,0,0,0,0,0,0,-1,629,1366,-9.47686,-3.00668
-588,-342,-9.78467,3.57727,0,0,0,0,0,0,0,-1,636,1366,-9.78468,-3.57723
-581,-342,-27.9973,11.1063,0,0,0,0,0,0,0,-1,643,1366,-27.9973,-11.1063
-574,-342,-27.9072,11.9192,0.00473086,0.00381644,0.00302769,0.00733566,0.00121163,0.71046,0.00454077,0.0183689,650,1366,-27.9072,-11.9192
-567,-342,-27.8491,12.7842,0.00379524,0.00284266,0.00228361,0.0056517,0.000986199,0.682587,0.00348588,0.0174938,657,1366,-27.8491,-12.7842
-560,-342,-27.9178,13.5823,0.00338626,0.00204764,0.00185425,0.0046883,0.000745599,0.612196,0.00290903,0.0249201,664,1366,-27.9178,-13.5823
-553,-342,-28.0308,14.3441,0.0033502,0.001397,0.00165682,0.00429682,0.000450373,0.519088,0.00272685,0.0277768,671,1366,-28.0308,-14.3441
-546,-342,-28.0444,15.1302,0.0036349,0.000864775,0.00165725,0.00440967,9.00049e-05,0.437314,0.00291024,0.0289046,678,1366,-28.0444,-15.1302
-539,-342,-28.0469,15.9792,0.00422679,0.000441421,0.00185173,0.00498197,-0.000313757,0.387231,0.00343068,0.0242225,685,1366,-28.0468,-15.9792
-532,-342,-28.1029,16.8673,0.00515392,0.000130049,0.00225135,0.00601518,-0.000731206,0.365373,0.00427475,0.0182679,692,1366,-28.1029,-16.8673
-525,-342,-28.102,17.7075,0.00640581,-4.99101e-05,0.00287066,0.00749764,-0.00114175,0.363447,0.00541925,0.0135693,699,1366,-28.102,-17.7076
-518,-342,-28.0336,18.541,0.00813612,-4.24463e-06,0.00379911,0.00963367,-0.00150179,0.375482,0.00697713,0.0458245,706,1366,-28.0336,-18.541
-511,-342,-27.9976,19.3356,0,0,0,0,0,0,0,-1,713,1366,-27.9976,-19.3356
-504,-342,-8.95709,6.5719,0,0,0,0,0,0,0,-1,720,1366,-8.95707,-6.57192
-497,-342,-8.26587,-0.943604,0,0,0,0,0,0,0,-1,727,1366,-8.26586,0.943543
-490,-342,-9.07153,-0.0227051,0,0,0,0,0,0,0,-1,734,1366,-9.07155,0.0227087
-483,-342,-9.87726,0.898071,0,0,0,0,0,0,0,-1,741,1366,-9.87724,-0.898125
-476,-342,-11.6371,-0.736328,0,0,0,0,0,0,0,-1,748,1366,-11.6371,0.736281
-469,-342,-12.6245,-0.987549,0,0,0,0,0,0,0,-1,755,1366,-12.6245,0.987553
-462,-342,-13.0912,-0.533203,0,0,0,0,0,0,0,-1,762,1366,-13.0912,0.533224
-455,-342,-13.7612,0.122925,0,0,0,0,0,0,0,-1,769,1366,-13.7612,-0.122896
-448,-342,-14.5278,0.826904,0,0,0,0,0,0,0,-1,776,1366,-14.5277,-0.826861
-441,-342,0,0,0,0,0,0,0,0,0,-1,783,1366,0,0
-434,-342,0,0,0,0,0,0,0,0,0,-1,790,1366,0,0
-427,-342,0,0,0,0,0,0,0,0,0,-1,797,1366,0,0
-420,-342,0,0,0,0,0,0,0,0,0,-1,804,1366,0,0
-413,-342,0,0,0,0,0,0,0,0,0,-1,811,1366,0,0
-406,-342,0,0,0,0,0,0,0,0,0,-1,818,1366,0,0
-399,-342,0,0,0,0,0,0,0,0,0,-1,825,1366,0,0
-392,-342,0,0,0,0,0,0,0,0,0,-1,832,1366,0,0
-385,-342,0,0,0,0,0,0,0,0,0,-1,839,1366,0,0
-378,-342,0,0,0,0,0,0,0,0,0,-1,846,1366,0,0
-371,-342,0,0,0,0,0,0,0,0,0,-1,853,1366,0,0
-364,-342,0,0,0,0,0,0,0,0,0,-1,860,1366,0,0
-357,-342,0,0,0,0,0,0,0,0,0,-1,867,1366,0,0
-350,-342,0,0,0,0,0,0,0,0,0,-1,874,1366,0,0
-343,-342,0,0,0,0,0,0,0,0,0,-1,881,1366,0,0
-336,-342,0,0,0,0,0,0,0,0,0,-1,888,1366,0,0
-329,-342,0,0,0,0,0,0,0,0,0,-1,895,1366,0,0
-322,-342,0,0,0,0,0,0,0,0,0,-1,902,1366,0,0
-315,-342,0,0,0,0,0,0,0,0,0,-1,909,1366,0,0
-308,-342,0,0,0,0,0,0,0,0,0,-1,916,1366,0,0
-301,-342,0,0,0,0,0,0,0,0,0,-1,923,1366,0,0
-294,-342,0,0,0,0,0,0,0,0,0,-1,930,1366,0,0
-287,-342,0,0,0,0,0,0,0,0,0,-1,937,1366,0,0
-280,-342,0,0,0,0,0,0,0,0,0,-1,944,1366,0,0
-273,-342,0,0,0,0,0,0,0,0,0,-1,951,1366,0,0
-266,-342,0,0,0,0,0,0,0,0,0,-1,958,1366,0,0
-259,-342,0,0,0,0,0,0,0,0,0,-1,965,1366,0,0
-252,-342,0,0,0,0,0,0,0,0,0,-1,972,1366,0,0
-245,-342,0,0,0,0,0,0,0,0,0,-1,979,1366,0,0
-238,-342,0,0,0,0,0,0,0,0,0,-1,986,1366,0,0
-231,-342,0,0,0,0,0,0,0,0,0,-1,993,1366,0,0
-224,-342,0,0,0,0,0,0,0,0,0,-1,1000,1366,0,0
-217,-342,0,0,0,0,0,0,0,0,0,-1,1007,1366,0,0
-210,-342,0,0,0,0,0,0,0,0,0,-1,1014,1366,0,0
-203,-342,0,0,0,0,0,0,0,0,0,-1,1021,1366,0,0
-196,-342,0,0,0,0,0,0,0,0,0,-1,1028,1366,0,0
-189,-342,0,0,0,0,0,0,0,0,0,-1,1035,1366,0,0
-182,-342,0,0,0,0,0,0,0,0,0,-1,1042,1366,0,0
-175,-342,0,0,0,0,0,0,0,0,0,-1,1049,1366,0,0
-168,-342,0,0,0,0,0,0,0,0,0,-1,1056,1366,0,0
-161,-342,0,0,0,0,0,0,0,0,0,-1,1063,1366,0,0
-154,-342,0,0,0,0,0,0,0,0,0,-1,1070,1366,0,0
-147,-342,0,0,0,0,0,0,0,0,0,-1,1077,1366,0,0
-140,-342,0,0,0,0,0,0,0,0,0,-1,1084,1366,0,0
-133,-342,0,0,0,0,0,0,0,0,0,-1,1091,1366,0,0
-126,-342,0,0,0,0,0,0,0,0,0,-1,1098,1366,0,0
-119,-342,0,0,0,0,0,0,0,0,0,-1,1105,1366,0,0
-112,-342,0,0,0,0,0,0,0,0,0,-1,1112,1366,0,0
-105,-342,0,0,0,0,0,0,0,0,0,-1,1119,1366,0,0
-98,-342,0,0,0,0,0,0,0,0,0,-1,1126,1366,0,0
-91,-342,0,0,0,0,0,0,0,0,0,-1,1133,1366,0,0
-84,-342,0,0,0,0,0,0,0,0,0,-1,1140,1366,0,0
-77,-342,0,0,0,0,0,0,0,0,0,-1,1147,1366,0,0
-70,-342,0,0,0,0,0,0,0,0,0,-1,1154,1366,0,0
-63,-342,0,0,0,0,0,0,0,0,0,-1,1161,1366,0,0
-56,-342,0,0,0,0,0,0,0,0,0,-1,1168,1366,0,0
-49,-342,0,0,0,0,0,0,0,0,0,-1,1175,1366,0,0
-42,-342,0,0,0,0,0,0,0,0,0,-1,1182,1366,0,0
-35,-342,0,0,0,0,0,0,0,0,0,-1,1189,1366,0,0
-28,-342,0,0,0,0,0,0,0,0,0,-1,1196,1366,0,0
-21,-342,0,0,0,0,0,0,0,0,0,-1,1203,1366,0,0
-14,-342,0,0,0,0,0,0,0,0,0,-1,1210,1366,0,0
-7,-342,0,0,0,0,0,0,0,0,0,-1,1217,1366,0,0
0,-342,0,0,0,0,0,0,0,0,0,-1,1224,1366,0,0
7,-342,0,0,0,0,0,0,0,0,0,-1,1231,1366,0,0
14,-342,0,0,0,0,0,0,0,0,0,-1,1238,1366,0,0
21,-342,0,0,0,0,0,0,0,0,0,-1,1245,1366,0,0
28,-342,0,0,0,0,0,0,0,0,0,-1,1252,1366,0,0
35,-342,0,0,0,0,0,0,0,0,0,-1,1259,1366,0,0
42,-342,0,0,0,0,0,0,0,0,0,-1,1266,1366,0,0
49,-342,0,0,0,0,0,0,0,0,0,-1,1273,1366,0,0
56,-342,0,0,0,0,0,0,0,0,0,-1,1280,1366,0,0
63,-342,0,0,0,0,0,0,0,0,0,-1,1287,1366,0,0
70,-342,0,0,0,0,0,0,0,0,0,-1,1294,1366,0,0
77,-342,0,0,0,0,0,0,0,0,0,-1,1301,1366,0,0
84,-342,0,0,0,0,0,0,0,0,0,-1,1308,1366,0,0
91,-342,0,0,0,0,0,0,0,0,0,-1,1315,1366,0,0
98,-342,0,0,0,0,0,0,0,0,0,-1,1322,1366,0,0
105,-342,0,0,0,0,0,0,0,0,0,-1,1329,1366,0,0
112,-342,0,0,0,0,0,0,0,0,0,-1,1336,1366,0,0
119,-342,0,0,0,0,0,0,0,0,0,-1,1343,1366,0,0
126,-342,0,0,0,0,0,0,0,0,0,-1,1350,1366,0,0
133,-342,0,0,0,0,0,0,0,0,0,-1,1357,1366,0,0
140,-342,0,0,0,0,0,0,0,0,0,-1,1364,1366,0,0
147,-342,0,0,0,0,0,0,0,0,0,-1,1371,1366,0,0
154,-342,0,0,0,0,0,0,0,0,0,-1,1378,1366,0,0
161,-342,0,0,0,0,0,0,0,0,0,-1,1385,1366,0,0
168,-342,0,0,0,0,0,0,0,0,0,-1,1392,1366,0,0
175,-342,0,0,0,0,0,0,0,0,0,-1,1399,1366,0,0
182,-342,0,0,0,0,0,0,0,0,0,-1,1406,1366,0,0
189,-342,0,0,0,0,0,0,0,0,0,-1,1413,1366,0,0
196,-342,0,0,0,0,0,0,0,0,0,-1,1420,1366,0,0
203,-342,0,0,0,0,0,0,0,0,0,-1,1427,1366,0,0
210,-342,0,0,0,0,0,0,0,0,0,-1,1434,1366,0,0
217,-342,0,0,0,0,0,0,0,0,0,-1,1441,1366,0,0
224,-342,0,0,0,0,0,0,0,0,0,-1,1448,1366,0,0
231,-342,0,0,0,0,0,0,0,0,0,-1,1455,1366,0,0
238,-342,0,0,0,0,0,0,0,0,0,-1,1462,1366,0,0
245,-342,0,0,0,0,0,0,0,0,0,-1,1469,1366,0,0
252,-342,0,0,0,0,0,0,0,0,0,-1,1476,1366,0,0
259,-342,0,0,0,0,0,0,0,0,0,-1,1483,1366,0,0
266,-342,0,0,0,0,0,0,0,0,0,-1,1490,1366,0,0
273,-342,0,0,0,0,0,0,0,0,0,-1,1497,1366,0,0
280,-342,0,0,0,0,0,0,0,0,0,-1,1504,1366,0,0
287,-342,0,0,0,0,0,0,0,0,0,-1,1511,1366,0,0
294,-342,0,0,0,0,0,0,0,0,0,-1,1518,1366,0,0
301,-342,0,0,0,0,0,0,0,0,0,-1,1525,1366,0,0
308,-342,0,0,0,0,0,0,0,0,0,-1,1532,1366,0,0
315,-342,0,0,0,0,0,0,0,0,0,-1,1539,1366,0,0
322,-342,0,0,0,0,0,0,0,0,0,-1,1546,1366,0,0
329,-342,0,0,0,0,0,0,0,0,0,-1,1553,1366,0,0
336,-342,0,0,0,0,0,0,0,0,0,-1,1560,1366,0,0
343,-342,0,0,0,0,0,0,0,0,0,-1,1567,1366,0,0
350,-342,0,0,0,0,0,0,0,0,0,-1,1574,1366,0,0
357,-342,0,0,0,0,0,0,0,0,0,-1,1581,1366,0,0
364,-342,0,0,0,0,0,0,0,0,0,-1,1588,1366,0,0
371,-342,0,0,0,0,0,0,0,0,0,-1,1595,1366,0,0
378,-342,0,0,0,0,0,0,0,0,0,-1,1602,1366,0,0
385,-342,0,0,0,0,0,0,0,0,0,-1,1609,1366,0,0
392,-342,0,0,0,0,0,0,0,0,0,-1,1616,1366,0,0
399,-342,0,0,0,0,0,0,0,0,0,-1,1623,1366,0,0
406,-342,0,0,0,0,0,0,0,0,0,-1,1630,1366,0,0
413,-342,0,0,0,0,0,0,0,0,0,-1,1637,1366,0,0
420,-342,0,0,0,0,0,0,0,0,0,-1,1644,1366,0,0
427,-342,0,0,0,0,0,0,0,0,0,-1,1651,1366,0,0
434,-342,0,0,0,0,0,0,0,0,0,-1,1658,1366,0,0
441,-342,0,0,0,0,0,0,0,0,0,-1,1665,1366,0,0
448,-342,0,0,0,0,0,0,0,0,0,-1,1672,1366,0,0
455,-342,0,0,0,0,0,0,0,0,0,-1,1679,1366,0,0
462,-342,0,0,0,0,0,0,0,0,0,-1,1686,1366,0,0
469,-342,0,0,0,0,0,0,0,0,0,-1,1693,1366,0,0
476,-342,0,0,0,0,0,0,0,0,0,-1,1700,1366,0,0
483,-342,0,0,0,0,0,0,0,0,0,-1,1707,1366,0,0
490,-342,0,0,0,0,0,0,0,0,0,-1,1714,1366,0,0
497,-342,0,0,0,0,0,0,0,0,0,-1,1721,1366,0,0
504,-342,0,0,0,0,0,0,0,0,0,-1,1728,1366,0,0
511,-342,0,0,0,0,0,0,0,0,0,-1,1735,1366,0,0
518,-342,0,0,0,0,0,0,0,0,0,-1,1742,1366,0,0
525,-342,0,0,0,0,0,0,0,0,0,-1,1749,1366,0,0
532,-342,0,0,0,0,0,0,0,0,0,-1,1756,1366,0,0
539,-342,0,0,0,0,0,0,0,0,0,-1,1763,1366,0,0
546,-342,0,0,0,0,0,0,0,0,0,-1,1770,1366,0,0
553,-342,0,0,0,0,0,0,0,0,0,-1,1777,1366,0,0
560,-342,0,0,0,0,0,0,0,0,0,-1,1784,1366,0,0
567,-342,64.6937,3.24878,0,0,0,0,0,0,0,-1,1791,1366,64.6938,-3.24881
574,-342,65.4669,2.18384,0,0,0,0,0,0,0,-1,1798,1366,65.4669,-2.18381
581,-342,66.542,1.36292,0,0,0,0,0,0,0,-1,1805,1366,66.542,-1.36295
588,-342,43.9108,7.22559,0,0,0,0,0,0,0,-1,1812,1366,43.9107,-7.22554
595,-342,35.7993,0.709961,0,0,0,0,0,0,0,-1,1819,1366,35.7993,-0.709913
602,-342,36.3618,3.28723,0,0,0,0,0,0,0,-1,1826,1366,36.3619,-3.28719
609,-342,35.3777,4.14978,0,0,0,0,0,0,0,-1,1833,1366,35.3777,-4.14976
616,-342,34.199,5.8158,0,0,0,0,0,0,0,-1,1840,1366,34.199,-5.81579
623,-342,26.0299,6.86865,0,0,0,0,0,0,0,-1,1847,1366,26.0299,-6.86863
630,-342,17.3431,0.773071,0,0,0,0,0,0,0,-1,1854,1366,17.3432,-0.773095
637,-342,16.196,6.76172,0,0,0,0,0,0,0,-1,1861,1366,16.1961,-6.76174
644,-342,31.8916,14.0614,0,0,0,0,0,0,0,-1,1868,1366,31.8916,-14.0613
651,-342,44.9349,19.0638,0,0,0,0,0,0,0,-1,1875,1366,44.9349,-19.0638
658,-342,44.9135,18.2445,0.000454432,0.000790595,-0.00075461,0.00139562,-0.000150589,-0.894979,0.000984454,0.0228068,1882,1366,44.9135,-18.2445
665,-342,44.8868,17.376,0.000679652,0.000351411,-0.00055911,0.00109823,-6.7168e-05,-0.642639,0.000755539,0.0186877,1889,1366,44.8869,-17.376
672,-342,44.8379,16.6442,0.00105469,0.000146895,-0.000488458,0.00126759,-6.60021e-05,-0.411029,0.000867895,0.0153159,1896,1366,44.8379,-16.6442
679,-342,44.8105,15.8912,0.00152674,8.65335e-05,-0.00050104,0.0016839,-7.06264e-05,-0.303948,0.00114687,0.0144139,1903,1366,44.8106,-15.8912
686,-342,44.792,15.0924,0.00205108,6.63058e-05,-0.000537892,0.00218748,-7.00942e-05,-0.248348,0.00148223,0.0126837,1910,1366,44.792,-15.0924
693,-342,44.7218,14.3081,0.00265702,0.000158692,-0.000635922,0.00280957,6.13998e-06,-0.235442,0.00187101,0.0136695,1917,1366,44.7218,-14.3081
700,-342,44.6687,13.5477,0.00329122,0.000344412,-0.000753334,0.00347264,0.000162995,-0.236318,0.00226272,0.0156782,1924,1366,44.6687,-13.5477
707,-342,44.6403,12.7119,0.00389306,0.000565792,-0.000829212,0.00408826,0.00037059,-0.231197,0.00261076,0.0152629,1931,1366,44.6402,-12.7119
714,-342,44.6493,11.8839,0,0,0,0,0,0,0,-1,1938,1366,44.6493,-11.884
721,-342,22.4666,6.08679,0,0,0,0,0,0,0,-1,1945,1366,22.4666,-6.08678
728,-342,19.8912,5.26636,0,0,0,0,0,0,0,-1,1952,1366,19.8913,-5.26636
735,-342,19.481,4.41968,0,0,0,0,0,0,0,-1,1959,1366,19.4809,-4.41962
742,-342,19.309,2.66943,0,0,0,0,0,0,0,-1,1966,1366,19.3089,-2.66948
749,-342,21.0934,6.47729,0,0,0,0,0,0,0,-1,1973,1366,21.0934,-6.4773
756,-342,0,0,0,0,0,0,0,0,0,-1,1980,1366,0,0
763,-342,0,0,0,0,0,0,0,0,0,-1,1987,1366,0,0
770,-342,0,0,0,0,0,0,0,0,0,-1,1994,1366,0,0
777,-342,0,0,0,0,0,0,0,0,0,-1,2001,1366,0,0
784,-342,0,0,0,0,0,0,0,0,0,-1,2008,1366,0,0
791,-342,0,0,0,0,0,0,0,0,0,-1,2015,1366,0,0
798,-342,0,0,0,0,0,0,0,0,0,-1,2022,1366,0,0
805,-342,0,0,0,0,0,0,0,0,0,-1,2029,1366,0,0
812,-342,0,0,0,0,0,0,0,0,0,-1,2036,1366,0,0
-700,-349,0,0,0,0,0,0,0,0,0,-1,524,1373,0,0
-693,-349,0,0,0,0,0,0,0,0,0,-1,531,1373,0,0
-686,-349,0,0,0,0,0,0,0,0,0,-1,538,1373,0,0
-679,-349,0,0,0,0,0,0,0,0,0,-1,545,1373,0,0
-672,-349,0,0,0,0,0,0,0,0,0,-1,552,1373,0,0
-665,-349,0,0,0,0,0,0,0,0,0,-1,559,1373,0,0
-658,-349,0,0,0,0,0,0,0,0,0,-1,566,1373,0,0
-651,-349,0,0,0,0,0,0,0,0,0,-1,573,1373,0,0
-644,-349,0,0,0,0,0,0,0,0,0,-1,580,1373,0,0
-637,-349,0,0,0,0,0,0,0,0,0,-1,587,1373,0,0
-630,-349,-7.64117,-5.06177,0,0,0,0,0,0,0,-1,594,1373,-7.64118,5.0618
-623,-349,-8.63507,0.51123,0,0,0,0,0,0,0,-1,601,1373,-8.63505,-0.511275
-616,-349,-5.2066,-0.188232,0,0,0,0,0,0,0,-1,608,1373,-5.20659,0.188211
-609,-349,-7.12073,1.37048,0,0,0,0,0,0,0,-1,615,1373,-7.12072,-1.37044
-602,-349,-9.00623,3.39587,0,0,0,0,0,0,0,-1,622,1373,-9.0062,-3.39591
-595,-349,-9.50568,2.96912,0,0,0,0,0,0,0,-1,629,1373,-9.50569,-2.96906
-588,-349,-8.60046,3.56042,0,0,0,0,0,0,0,-1,636,1373,-8.60046,-3.56047
-581,-349,-26.9445,11.1082,0,0,0,0,0,0,0,-1,643,1373,-26.9445,-11.1082
-574,-349,-27.0303,11.8965,0.00559611,0.00448788,0.00373665,0.00881951,0.00126448,0.711789,0.00550679,0.0459839,650,1373,-27.0303,-11.8965
-567,-349,-27.075,12.8258,0.0043846,0.00333471,0.00275567,0.00666488,0.00105443,0.691278,0.00413681,0.0191677,657,1373,-27.075,-12.8258
-560,-349,-27.1132,13.6755,0.00375273,0.00241757,0.00214554,0.00533216,0.000838149,0.634572,0.00331094,0.0223212,664,1373,-27.1132,-13.6756
-553,-349,-27.1434,14.4592,0.00350762,0.0016825,0.00180388,0.00461664,0.000573487,0.551225,0.00290552,0.0270782,671,1373,-27.1434,-14.4593
-546,-349,-27.1269,15.1946,0.00355454,0.00108456,0.00166157,0.00438982,0.000249278,0.465809,0.0028471,0.0294262,678,1373,-27.1269,-15.1946
-539,-349,-27.2003,16.0138,0.0038778,0.000606235,0.00170804,0.00460701,-0.000122974,0.403502,0.00311314,0.0243478,685,1373,-27.2002,-16.0138
-532,-349,-27.3002,16.9138,0.00448414,0.000247166,0.0019438,0.00524078,-0.000509474,0.371212,0.00367546,0.0186369,692,1373,-27.3002,-16.9138
-525,-349,-27.3069,17.7438,0.00536315,1.33816e-05,0.00237036,0.00626228,-0.000885753,0.362556,0.00449926,0.0154398,699,1373,-27.3069,-17.7437
-518,-349,-27.3194,18.6173,0.0065821,-2.97104e-05,0.0030284,0.00775952,-0.00120714,0.370809,0.00561879,0.0278596,706,1373,-27.3194,-18.6173
-511,-349,-27.269,19.5054,0,0,0,0,0,0,0,-1,713,1373,-27.2691,-19.5054
-504,-349,-9.60516,7.88831,0,0,0,0,0,0,0,-1,720,1373,-9.60519,-7.88825
-497,-349,-7.9339,5.58789,0,0,0,0,0,0,0,-1,727,1373,-7.93388,-5.58785
-490,-349,-8.73969,-0.503784,0,0,0,0,0,0,0,-1,734,1373,-8.73966,0.503752
-483,-349,-5.66974,3.7395,0,0,0,0,0,0,0,-1,741,1373,-5.66975,-3.73949
-476,-349,-10.8496,1.15759,0,0,0,0,0,0,0,-1,748,1373,-10.8496,-1.15756
-469,-349,-12.3314,-1.74878,0,0,0,0,0,0,0,-1,755,1373,-12.3314,1.74882
-462,-349,-12.6559,-0.995361,0,0,0,0,0,0,0,-1,762,1373,-12.656,0.995351
-455,-349,-13.2897,-0.234253,0,0,0,0,0,0,0,-1,769,1373,-13.2897,0.234261
-448,-349,-14.045,0.712891,0,0,0,0,0,0,0,-1,776,1373,-14.045,-0.712838
-441,-349,0,0,0,0,0,0,0,0,0,-1,783,1373,0,0
-434,-349,0,0,0,0,0,0,0,0,0,-1,790,1373,0,0
-427,-349,0,0,0,0,0,0,0,0,0,-1,797,1373,0,0
-420,-349,0,0,0,0,0,0,0,0,0,-1,804,1373,0,0
-413,-349,0,0,0,0,0,0,0,0,0,-1,811,1373,0,0
-406,-349,0,0,0,0,0,0,0,0,0,-1,818,1373,0,0
-399,-349,0,0,0,0,0,0,0,0,0,-1,825,1373,0,0
-392,-349,0,0,0,0,0,0,0,0,0,-1,832,1373,0,0
-385,-349,0,0,0,0,0,0,0,0,0,-1,839,1373,0,0
-378,-349,0,0,0,0,0,0,0,0,0,-1,846,1373,0,0
-371,-349,0,0,0,0,0,0,0,0,0,-1,853,1373,0,0
-364,-349,0,0,0,0,0,0,0,0,0,-1,860,1373,0,0
-357,-349,0,0,0,0,0,0,0,0,0,-1,867,1373,0,0
-350,-349,0,0,0,0,0,0,0,0,0,-1,874,1373,0,0
-343,-349,0,0,0,0,0,0,0,0,0,-1,881,1373,0,0
-336,-349,0,0,0,0,0,0,0,0,0,-1,888,1373,0,0
-329,-349,0,0,0,0,0,0,0,0,0,-1,895,1373,0,0
-322,-349,0,0,0,0,0,0,0,0,0,-1,902,1373,0,0
-315,-349,0,0,0,0,0,0,0,0,0,-1,909,1373,0,0
-308,-349,0,0,0,0,0,0,0,0,0,-1,916,1373,0,0
-301,-349,0,0,0,0,0,0,0,0,0,-1,923,1373,0,0
-294,-349,0,0,0,0,0,0,0,0,0,-1,930,1373,0,0
-287,-349,0,0,0,0,0,0,0,0,0,-1,937,1373,0,0
-280,-349,0,0,0,0,0,0,0,0,0,-1,944,1373,0,0
-273,-349,0,0,0,0,0,0,0,0,0,-1,951,1373,0,0
-266,-349,0,0,0,0,0,0,0,0,0,-1,958,1373,0,0
-259,-349,0,0,0,0,0,0,0,0,0,-1,965,1373,0,0
-252,-349,0,0,0,0,0,0,0,0,0,-1,972,1373,0,0
-245,-349,0,0,0,0,0,0,0,0,0,-1,979,1373,0,0
-238,-349,0,0,0,0,0,0,0,0,0,-1,986,1373,0,0
-231,-349,0,0,0,0,0,0,0,0,0,-1,993,1373,0,0
-224,-349,0,0,0,0,0,0,0,0,0,-1,1000,1373,0,0
-217,-349,0,0,0,0,0,0,0,0,0,-1,1007,1373,0,0
-210,-349,0,0,0,0,0,0,0,0,0,-1,1014,1373,0,0
-203,-349,0,0,0,0,0,0,0,0,0,-1,1021,1373,0,0
-196,-349,0,0,0,0,0,0,0,0,0,-1,1028,1373,0,0
-189,-349,0,0,0,0,0,0,0,0,0,-1,1035,1373,0,0
-182,-349,0,0,0,0,0,0,0,0,0,-1,1042,1373,0,0
-175,-349,0,0,0,0,0,0,0,0,0,-1,1049,1373,0,0
-168,-349,0,0,0,0,0,0,0,0,0,-1,1056,1373,0,0
-161,-349,0,0,0,0,0,0,0,0,0,-1,1063,1373,0,0
-154,-349,0,0,0,0,0,0,0,0,0,-1,1070,1373,0,0
-147,-349,0,0,0,0,0,0,0,0,0,-1,1077,1373,0,0
-140,-349,0,0,0,0,0,0,0,0,0,-1,1084,1373,0,0
-133,-349,0,0,0,0,0,0,0,0,0,-1,1091,1373,0,0
-126,-349,0,0,0,0,0,0,0,0,0,-1,1098,1373,0,0
-119,-349,0,0,0,0,0,0,0,0,0,-1,1105,1373,0,0
-112,-349,0,0,0,0,0,0,0,0,0,-1,1112,1373,0,0
-105,-349,0,0,0,0,0,0,0,0,0,-1,1119,1373,0,0
-98,-349,0,0,0,0,0,0,0,0,0,-1,1126,1373,0,0
-91,-349,0,0,0,0,0,0,0,0,0,-1,1133,1373,0,0
-84,-349,0,0,0,0,0,0,0,0,0,-1,1140,1373,0,0
-77,-349,0,0,0,0,0,0,0,0,0,-1,1147,1373,0,0
-70,-349,0,0,0,0,0,0,0,0,0,-1,1154,1373,0,0
-63,-349,0,0,0,0,0,0,0,0,0,-1,1161,1373,0,0
-56,-349,0,0,0,0,0,0,0,0,0,-1,1168,1373,0,0
-49,-349,0,0,0,0,0,0,0,0,0,-1,1175,1373,0,0
-42,-349,0,0,0,0,0,0,0,0,0,-1,1182,1373,0,0
-35,-349,0,0,0,0,0,0,0,0,0,-1,1189,1373,0,0
-28,-349,0,0,0,0,0,0,0,0,0,-1,1196,1373,0,0
-21,-349,0,0,0,0,0,0,0,0,0,-1,1203,1373,0,0
-14,-349,0,0,0,0,0,0,0,0,0,-1,1210,1373,0,0
-7,-349,0,0,0,0,0,0,0,0,0,-1,1217,1373,0,0
0,-349,0,0,0,0,0,0,0,0,0,-1,1224,1373,0,0
7,-349,0,0,0,0,0,0,0,0,0,-1,1231,1373,0,0
14,-349,0,0,0,0,0,0,0,0,0,-1,1238,1373,0,0
21,-349,0,0,0,0,0,0,0,0,0,-1,1245,1373,0,0
28,-349,0,0,0,0,0,0,0,0,0,-1,1252,1373,0,0
35,-349,0,0,0,0,0,0,0,0,0,-1,1259,1373,0,0
42,-349,0,0,0,0,0,0,0,0,0,-1,1266,1373,0,0
49,-349,0,0,0,0,0,0,0,0,0,-1,1273,1373,0,0
56,-349,0,0,0,0,0,0,0,0,0,-1,1280,1373,0,0
63,-349,0,0,0,0,0,0,0,0,0,-1,1287,1373,0,0
70,-349,0,0,0,0,0,0,0,0,0,-1,1294,1373,0,0
77,-349,0,0,0,0,0,0,0,0,0,-1,1301,1373,0,0
84,-349,0,0,0,0,0,0,0,0,0,-1,1308,1373,0,0
91,-349,0,0,0,0,0,0,0,0,0,-1,1315,1373,0,0
98,-349,0,0,0,0,0,0,0,0,0,-1,1322,1373,0,0
105,-349,0,0,0,0,0,0,0,0,0,-1,1329,1373,0,0
112,-349,0,0,0,0,0,0,0,0,0,-1,1336,1373,0,0
119,-349,0,0,0,0,0,0,0,0,0,-1,1343,1373,0,0
126,-349,0,0,0,0,0,0,0,0,0,-1,1350,1373,0,0
133,-349,0,0,0,0,0,0,0,0,0,-1,1357,1373,0,0
140,-349,0,0,0,0,0,0,0,0,0,-1,1364,1373,0,0
147,-349,0,0,0,0,0,0,0,0,0,-1,1371,1373,0,0
154,-349,0,0,0,0,0,0,0,0,0,-1,1378,1373,0,0
161,-349,0,0,0,0,0,0,0,0,0,-1,1385,1373,0,0
168,-349,0,0,0,0,0,0,0,0,0,-1,1392,1373,0,0
175,-349,0,0,0,0,0,0,0,0,0,-1,1399,1373,0,0
182,-349,0,0,0,0,0,0,0,0,0,-1,1406,1373,0,0
189,-349,0,0,0,0,0,0,0,0,0,-1,1413,1373,0,0
196,-349,0,0,0,0,0,0,0,0,0,-1,1420,1373,0,0
203,-349,0,0,0,0,0,0,0,0,0,-1,1427,1373,0,0
210,-349,0,0,0,0,0,0,0,0,0,-1,1434,1373,0,0
217,-349,0,0,0,0,0,0,0,0,0,-1,1441,1373,0,0
224,-349,0,0,0,0,0,0,0,0,0,-1,1448,1373,0,0
231,-349,0,0,0,0,0,0,0,0,0,-1,1455,1373,0,0
238,-349,0,0,0,0,0,0,0,0,0,-1,1462,1373,0,0
245,-349,0,0,0,0,0,0,0,0,0,-1,1469,1373,0,0
252,-349,0,0,0,0,0,0,0,0,0,-1,1476,1373,0,0
259,-349,0,0,0,0,0,0,0,0,0,-1,1483,1373,0,0
266,-349,0,0,0,0,0,0,0,0,0,-1,1490,1373,0,0
273,-349,0,0,0,0,0,0,0,0,0,-1,1497,1373,0,0
280,-349,0,0,0,0,0,0,0,0,0,-1,1504,1373,0,0
287,-349,0,0,0,0,0,0,0,0,0,-1,1511,1373,0,0
294,-349,0,0,0,0,0,0,0,0,0,-1,1518,1373,0,0
301,-349,0,0,0,0,0,0,0,0,0,-1,1525,1373,0,0
308,-349,0,0,0,0,0,0,0,0,0,-1,1532,1373,0,0
315,-349,0,0,0,0,0,0,0,0,0,-1,1539,1373,0,0
322,-349,0,0,0,0,0,0,0,0,0,-1,1546,1373,0,0
329,-349,0,0,0,0,0,0,0,0,0,-1,1553,1373,0,0
336,-349,0,0,0,0,0,0,0,0,0,-1,1560,1373,0,0
343,-349,0,0,0,0,0,0,0,0,0,-1,1567,1373,0,0
350,-349,0,0,0,0,0,0,0,0,0,-1,1574,1373,0,0
357,-349,0,0,0,0,0,0,0,0,0,-1,1581,1373,0,0
364,-349,0,0,0,0,0,0,0,0,0,-1,1588,1373,0,0
371,-349,0,0,0,0,0,0,0,0,0,-1,1595,1373,0,0
378,-349,0,0,0,0,0,0,0,0,0,-1,1602,1373,0,0
385,-349,0,0,0,0,0,0,0,0,0,-1,1609,1373,0,0
392,-349,0,0,0,0,0,0,0,0,0,-1,1616,1373,0,0
399,-349,0,0,0,0,0,0,0,0,0,-1,1623,1373,0,0
406,-349,0,0,0,0,0,0,0,0,0,-1,1630,1373,0,0
413,-349,0,0,0,0,0,0,0,0,0,-1,1637,1373,0,0
420,-349,0,0,0,0,0,0,0,0,0,-1,1644,1373,0,0
427,-349,0,0,0,0,0,0,0,0,0,-1,1651,1373,0,0
434,-349,0,0,0,0,0,0,0,0,0,-1,1658,1373,0,0
441,-349,0,0,0,0,0,0,0,0,0,-1,1665,1373,0,0
448,-349,0,0,0,0,0,0,0,0,0,-1,1672,1373,0,0
455,-349,0,0,0,0,0,0,0,0,0,-1,1679,1373,0,0
462,-349,0,0,0,0,0,0,0,0,0,-1,1686,1373,0,0
469,-349,0,0,0,0,0,0,0,0,0,-1,1693,1373,0,0
476,-349,0,0,0,0,0,0,0,0,0,-1,1700,1373,0,0
483,-349,0,0,0,0,0,0,0,0,0,-1,1707,1373,0,0
490,-349,0,0,0,0,0,0,0,0,0,-1,1714,1373,0,0
497,-349,0,0,0,0,0,0,0,0,0,-1,1721,1373,0,0
504,-349,0,0,0,0,0,0,0,0,0,-1,1728,1373,0,0
511,-349,0,0,0,0,0,0,0,0,0,-1,1735,1373,0,0
518,-349,0,0,0,0,0,0,0,0,0,-1,1742,1373,0,0
525,-349,0,0,0,0,0,0,0,0,0,-1,1749,1373,0,0
532,-349,0,0,0,0,0,0,0,0,0,-1,1756,1373,0,0
539,-349,0,0,0,0,0,0,0,0,0,-1,1763,1373,0,0
546,-349,0,0,0,0,0,0,0,0,0,-1,1770,1373,0,0
553,-349,0,0,0,0,0,0,0,0,0,-1,1777,1373,0,0
560,-349,63.5519,3.94397,0,0,0,0,0,0,0,-1,1784,1373,63.5519,-3.94394
567,-349,64.7863,2.54688,0,0,0,0,0,0,0,-1,1791,1373,64.7863,-2.5469
574,-349,65.8214,1.63818,0,0,0,0,0,0,0,-1,1798,1373,65.8214,-1.63813
581,-349,42.8947,6.78381,0,0,0,0,0,0,0,-1,1805,1373,42.8946,-6.78376
588,-349,44.8121,5.06213,0,0,0,0,0,0,0,-1,1812,1373,44.8121,-5.06215
595,-349,44.4338,6.14099,0,0,0,0,0,0,0,-1,1819,1373,44.4338,-6.14095
602,-349,35.6641,3.26465,0,0,0,0,0,0,0,-1,1826,1373,35.6641,-3.26468
609,-349,34.7175,4.401,0,0,0,0,0,0,0,-1,1833,1373,34.7175,-4.40096
616,-349,27.1451,6.68274,0,0,0,0,0,0,0,-1,1840,1373,27.1451,-6.6828
623,-349,18.8478,2.75769,0,0,0,0,0,0,0,-1,1847,1373,18.8478,-2.75774
630,-349,15.4948,6.47644,0,0,0,0,0,0,0,-1,1854,1373,15.4947,-6.4765
637,-349,16.5161,6.92639,0,0,0,0,0,0,0,-1,1861,1373,16.5161,-6.92636
644,-349,44.2694,19.8312,0,0,0,0,0,0,0,-1,1868,1373,44.2695,-19.8311
651,-349,44.213,19.0079,0,0,0,0,0,0,0,-1,1875,1373,44.213,-19.0079
658,-349,44.1555,18.2261,0.0003705,0.000679966,-0.000496427,0.00104522,5.24992e-06,-0.936473,0.000695067,0.0275065,1882,1373,44.1555,-18.2261
665,-349,44.0911,17.4005,0.000727415,0.000265369,-0.000391627,0.000951083,4.17018e-05,-0.518916,0.000620622,0.0223276,1889,1373,44.091,-17.4005
672,-349,44.0522,16.656,0.00121821,2.54511e-05,-0.000388462,0.00133357,-8.99074e-05,-0.288668,0.000920479,0.016728,1896,1373,44.0523,-16.6561
679,-349,44.0114,15.9335,0.00182183,-9.92795e-05,-0.000466822,0.00192926,-0.000206708,-0.226189,0.00136032,0.0171248,1903,1373,44.0113,-15.9335
686,-349,44.0348,15.1143,0.00250158,-0.000168833,-0.000580532,0.00262233,-0.000289577,-0.205066,0.00185231,0.0188371,1910,1373,44.0348,-15.1143
693,-349,43.9536,14.3345,0.00328385,-0.000119726,-0.000762023,0.00344667,-0.000282546,-0.210502,0.00239752,0.0205226,1917,1373,43.9536,-14.3344
700,-349,43.8772,13.5813,0.00413475,6.57761e-05,-0.000990725,0.00436315,-0.000162628,-0.226583,0.00296446,0.018741,1924,1373,43.8772,-13.5812
707,-349,43.9337,12.746,0.0049921,0.000308747,-0.00118324,0.00527407,2.67786e-05,-0.233938,0.00350715,0.0380184,1931,1373,43.9337,-12.746
714,-349,44.0696,11.8268,0,0,0,0,0,0,0,-1,1938,1373,44.0695,-11.8268
721,-349,19.6688,5.93604,0,0,0,0,0,0,0,-1,1945,1373,19.6688,-5.93606
728,-349,18.6333,3.73218,0,0,0,0,0,0,0,-1,1952,1373,18.6333,-3.73214
735,-349,18.1918,3.39954,0,0,0,0,0,0,0,-1,1959,1373,18.1918,-3.3995
742,-349,20.7345,2.07483,0,0,0,0,0,0,0,-1,1966,1373,20.7345,-2.07485
749,-349,21.9037,1.45789,0,0,0,0,0,0,0,-1,1973,1373,21.9037,-1.45788
756,-349,0,0,0,0,0,0,0,0,0,-1,1980,1373,0,0
763,-349,0,0,0,0,0,0,0,0,0,-1,1987,1373,0,0
770,-349,0,0,0,0,0,0,0,0,0,-1,1994,1373,0,0
777,-349,0,0,0,0,0,0,0,0,0,-1,2001,1373,0,0
784,-349,0,0,0,0,0,0,0,0,0,-1,2008,1373,0,0
791,-349,0,0,0,0,0,0,0,0,0,-1,2015,1373,0,0
798,-349,0,0,0,0,0,0,0,0,0,-1,2022,1373,0,0
805,-349,0,0,0,0,0,0,0,0,0,-1,2029,1373,0,0
812,-349,0,0,0,0,0,0,0,0,0,-1,2036,1373,0,0
-700,-356,0,0,0,0,0,0,0,0,0,-1,524,1380,0,0
-693,-356,0,0,0,0,0,0,0,0,0,-1,531,1380,0,0
-686,-356,0,0,0,0,0,0,0,0,0,-1,538,1380,0,0
-679,-356,0,0,0,0,0,0,0,0,0,-1,545,1380,0,0
-672,-356,0,0,0,0,0,0,0,0,0,-1,552,1380,0,0
-665,-356,0,0,0,0,0,0,0,0,0,-1,559,1380,0,0
-658,-356,0,0,0,0,0,0,0,0,0,-1,566,1380,0,0
-651,-356,0,0,0,0,0,0,0,0,0,-1,573,1380,0,0
-644,-356,0,0,0,0,0,0,0,0,0,-1,580,1380,0,0
-637,-356,0,0,0,0,0,0,0,0,0,-1,587,1380,0,0
-630,-356,-8.23126,-5.01917,0,0,0,0,0,0,0,-1,594,1380,-8.23124,5.0192
-623,-356,-0.263855,-0.675781,0,0,0,0,0,0,0,-1,601,1380,-0.263835,0.675841
-616,-356,-8.26532,-3.43945,0,0,0,0,0,0,0,-1,608,1380,-8.2653,3.43948
-609,-356,-4.88483,0.734497,0,0,0,0,0,0,0,-1,615,1380,-4.88485,-0.734532
-602,-356,-9.06635,2.4021,0,0,0,0,0,0,0,-1,622,1380,-9.06634,-2.40206
-595,-356,-8.45703,3.61853,0,0,0,0,0,0,0,-1,629,1380,-8.45706,-3.61848
-588,-356,-9.31738,4.14258,0,0,0,0,0,0,0,-1,636,1380,-9.31736,-4.14255
-581,-356,-16.5185,7.32312,0,0,0,0,0,0,0,-1,643,1380,-16.5185,-7.32306
-574,-356,-26.1651,12.1187,0,0,0,0,0,0,0,-1,650,1380,-26.1651,-12.1187
-567,-356,-26.3328,12.8098,0.00504446,0.00387401,0.00328422,0.00779519,0.00112327,0.697227,0.00486578,0.0254687,657,1380,-26.3328,-12.8098
-560,-356,-26.2831,13.7111,0.00415681,0.00281158,0.00246627,0.00604055,0.00092785,0.652273,0.00375614,0.0189715,664,1380,-26.2831,-13.7111
-553,-356,-26.312,14.5167,0.00369351,0.00198266,0.00197536,0.00499071,0.000685467,0.581064,0.00312382,0.0208186,671,1380,-26.312,-14.5167
-546,-356,-26.363,15.2778,0.00350265,0.00131442,0.00169338,0.00442463,0.00039244,0.498579,0.00282803,0.0223442,678,1380,-26.363,-15.2779
-539,-356,-26.4177,16.0939,0.00358322,0.000779658,0.00160702,0.00431393,4.89524e-05,0.426753,0.00285977,0.016428,685,1380,-26.4177,-16.0939
-532,-356,-26.4924,16.968,0.00393195,0.000397964,0.00172461,0.00463407,-0.000304161,0.38663,0.0031956,0.0159699,692,1380,-26.4924,-16.968
-525,-356,-26.506,17.7858,0.00453334,0.000137744,0.00202171,0.00532178,-0.0006507,0.371846,0.00378345,0.0143761,699,1380,-26.5061,-17.7857
-518,-356,-26.5237,18.5977,0.00542558,6.06715e-05,0.00253038,0.00643073,-0.000944473,0.378117,0.00463417,0.0148901,706,1380,-26.5238,-18.5977
-511,-356,-26.4006,19.5143,0,0,0,0,0,0,0,-1,713,1380,-26.4006,-19.5143
-504,-356,-14.3925,12.3971,0,0,0,0,0,0,0,-1,720,1380,-14.3925,-12.3971
-497,-356,-5.68604,4.96387,0,0,0,0,0,0,0,-1,727,1380,-5.68605,-4.96385
-490,-356,-7.95288,5.5625,0,0,0,0,0,0,0,-1,734,1380,-7.95285,-5.56246
-483,-356,-7.2627,4.07446,0,0,0,0,0,0,0,-1,741,1380,-7.2627,-4.07441
-476,-356,-5.1936,4.16016,0,0,0,0,0,0,0,-1,748,1380,-5.1936,-4.16012
-469,-356,-10.0883,0.536011,0,0,0,0,0,0,0,-1,755,1380,-10.0883,-0.535989
-462,-356,-12.3481,-0.215698,0,0,0,0,0,0,0,-1,762,1380,-12.3481,0.215641
-455,-356,-13.1367,-0.264648,0,0,0,0,0,0,0,-1,769,1380,-13.1367,0.264647
-448,-356,-13.9116,-0.310181,0,0,0,0,0,0,0,-1,776,1380,-13.9115,0.310207
-441,-356,-13.1602,3.05603,0,0,0,0,0,0,0,-1,783,1380,-13.1602,-3.05609
-434,-356,0,0,0,0,0,0,0,0,0,-1,790,1380,0,0
-427,-356,0,0,0,0,0,0,0,0,0,-1,797,1380,0,0
-420,-356,0,0,0,0,0,0,0,0,0,-1,804,1380,0,0
-413,-356,0,0,0,0,0,0,0,0,0,-1,811,1380,0,0
-406,-356,0,0,0,0,0,0,0,0,0,-1,818,1380,0,0
-399,-356,0,0,0,0,0,0,0,0,0,-1,825,1380,0,0
-392,-356,0,0,0,0,0,0,0,0,0,-1,832,1380,0,0
-385,-356,0,0,0,0,0,0,0,0,0,-1,839,1380,0,0
-378,-356,0,0,0,0,0,0,0,0,0,-1,846,1380,0,0
-371,-356,0,0,0,0,0,0,0,0,0,-1,853,1380,0,0
-364,-356,0,0,0,0,0,0,0,0,0,-1,860,1380,0,0
-357,-356,0,0,0,0,0,0,0,0,0,-1,867,1380,0,0
-350,-356,0,0,0,0,0,0,0,0,0,-1,874,1380,0,0
-343,-356,0,0,0,0,0,0,0,0,0,-1,881,1380,0,0
-336,-356,0,0,0,0,0,0,0,0,0,-1,888,1380,0,0
-329,-356,0,0,0,0,0,0,0,0,0,-1,895,1380,0,0
-322,-356,0,0,0,0,0,0,0,0,0,-1,902,1380,0,0
-315,-356,0,0,0,0,0,0,0,0,0,-1,909,1380,0,0
-308,-356,0,0,0,0,0,0,0,0,0,-1,916,1380,0,0
-301,-356,0,0,0,0,0,0,0,0,0,-1,923,1380,0,0
-294,-356,0,0,0,0,0,0,0,0,0,-1,930,1380,0,0
-287,-356,0,0,0,0,0,0,0,0,0,-1,937,1380,0,0
-280,-356,0,0,0,0,0,0,0,0,0,-1,944,1380,0,0
-273,-356,0,0,0,0,0,0,0,0,0,-1,951,1380,0,0
-266,-356,0,0,0,0,0,0,0,0,0,-1,958,1380,0,0
-259,-356,0,0,0,0,0,0,0,0,0,-1,965,1380,0,0
-252,-356,0,0,0,0,0,0,0,0,0,-1,972,1380,0,0
-245,-356,0,0,0,0,0,0,0,0,0,-1,979,1380,0,0
-238,-356,0,0,0,0,0,0,0,0,0,-1,986,1380,0,0
-231,-356,0,0,0,0,0,0,0,0,0,-1,993,1380,0,0
-224,-356,0,0,0,0,0,0,0,0,0,-1,1000,1380,0,0
-217,-356,0,0,0,0,0,0,0,0,0,-1,1007,1380,0,0
-210,-356,0,0,0,0,0,0,0,0,0,-1,1014,1380,0,0
-203,-356,0,0,0,0,0,0,0,0,0,-1,1021,1380,0,0
-196,-356,0,0,0,0,0,0,0,0,0,-1,1028,1380,0,0
-189,-356,0,0,0,0,0,0,0,0,0,-1,1035,1380,0,0
-182,-356,0,0,0,0,0,0,0,0,0,-1,1042,1380,0,0
-175,-356,0,0,0,0,0,0,0,0,0,-1,1049,1380,0,0
-168,-356,0,0,0,0,0,0,0,0,0,-1,1056,1380,0,0
-161,-356,0,0,0,0,0,0,0,0,0,-1,1063,1380,0,0
-154,-356,0,0,0,0,0,0,0,0,0,-1,1070,1380,0,0
-147,-356,0,0,0,0,0,0,0,0,0,-1,1077,1380,0,0
-140,-356,0,0,0,0,0,0,0,0,0,-1,1084,1380,0,0
-133,-356,0,0,0,0,0,0,0,0,0,-1,1091,1380,0,0
-126,-356,0,0,0,0,0,0,0,0,0,-1,1098,1380,0,0
-119,-356,0,0,0,0,0,0,0,0,0,-1,1105,1380,0,0
-112,-356,0,0,0,0,0,0,0,0,0,-1,1112,1380,0,0
-105,-356,0,0,0,0,0,0,0,0,0,-1,1119,1380,0,0
-98,-356,0,0,0,0,0,0,0,0,0,-1,1126,1380,0,0
-91,-356,0,0,0,0,0,0,0,0,0,-1,1133,1380,0,0
-84,-356,0,0,0,0,0,0,0,0,0,-1,1140,1380,0,0
-77,-356,0,0,0,0,0,0,0,0,0,-1,1147,1380,0,0
-70,-356,0,0,0,0,0,0,0,0,0,-1,1154,1380,0,0
-63,-356,0,0,0,0,0,0,0,0,0,-1,1161,1380,0,0
-56,-356,0,0,0,0,0,0,0,0,0,-1,1168,1380,0,0
-49,-356,0,0,0,0,0,0,0,0,0,-1,1175,1380,0,0
-42,-356,0,0,0,0,0,0,0,0,0,-1,1182,1380,0,0
-35,-356,0,0,0,0,0,0,0,0,0,-1,1189,1380,0,0
-28,-356,0,0,0,0,0,0,0,0,0,-1,1196,1380,0,0
-21,-356,0,0,0,0,0,0,0,0,0,-1,1203,1380,0,0
-14,-356,0,0,0,0,0,0,0,0,0,-1,1210,1380,0,0
-7,-356,0,0,0,0,0,0,0,0,0,-1,1217,1380,0,0
0,-356,0,0,0,0,0,0,0,0,0,-1,1224,1380,0,0
7,-356,0,0,0,0,0,0,0,0,0,-1,1231,1380,0,0
14,-356,0,0,0,0,0,0,0,0,0,-1,1238,1380,0,0
21,-356,0,0,0,0,0,0,0,0,0,-1,1245,1380,0,0
28,-356,0,0,0,0,0,0,0,0,0,-1,1252,1380,0,0
35,-356,0,0,0,0,0,0,0,0,0,-1,1259,1380,0,0
42,-356,0,0,0,0,0,0,0,0,0,-1,1266,1380,0,0
49,-356,0,0,0,0,0,0,0,0,0,-1,1273,1380,0,0
56,-356,0,0,0,0,0,0,0,0,0,-1,1280,1380,0,0
63,-356,0,0,0,0,0,0,0,0,0,-1,1287,1380,0,0
70,-356,0,0,0,0,0,0,0,0,0,-1,1294,1380,0,0
77,-356,0,0,0,0,0,0,0,0,0,-1,1301,1380,0,0
84,-356,0,0,0,0,0,0,0,0,0,-1,1308,1380,0,0
91,-356,0,0,0,0,0,0,0,0,0,-1,1315,1380,0,0
98,-356,0,0,0,0,0,0,0,0,0,-1,1322,1380,0,0
105,-356,0,0,0,0,0,0,0,0,0,-1,1329,1380,0,0
112,-356,0,0,0,0,0,0,0,0,0,-1,1336,1380,0,0
119,-356,0,0,0,0,0,0,0,0,0,-1,1343,1380,0,0
126,-356,0,0,0,0,0,0,0,0,0,-1,1350,1380,0,0
133,-356,0,0,0,0,0,0,0,0,0,-1,1357,1380,0,0
140,-356,0,0,0,0,0,0,0,0,0,-1,1364,1380,0,0
147,-356,0,0,0,0,0,0,0,0,0,-1,1371,1380,0,0
154,-356,0,0,0,0,0,0,0,0,0,-1,1378,1380,0,0
161,-356,0,0,0,0,0,0,0,0,0,-1,1385,1380,0,0
168,-356,0,0,0,0,0,0,0,0,0,-1,1392,1380,0,0
175,-356,0,0,0,0,0,0,0,0,0,-1,1399,1380,0,0
182,-356,0,0,0,0,0,0,0,0,0,-1,1406,1380,0,0
189,-356,0,0,0,0,0,0,0,0,0,-1,1413,1380,0,0
196,-356,0,0,0,0,0,0,0,0,0,-1,1420,1380,0,0
203,-356,0,0,0,0,0,0,0,0,0,-1,1427,1380,0,0
210,-356,0,0,0,0,0,0,0,0,0,-1,1434,1380,0,0
217,-356,0,0,0,0,0,0,0,0,0,-1,1441,1380,0,0
224,-356,0,0,0,0,0,0,0,0,0,-1,1448,1380,0,0
231,-356,0,0,0,0,0,0,0,0,0,-1,1455,1380,0,0
238,-356,0,0,0,0,0,0,0,0,0,-1,1462,1380,0,0
245,-356,0,0,0,0,0,0,0,0,0,-1,1469,1380,0,0
252,-356,0,0,0,0,0,0,0,0,0,-1,1476,1380,0,0
259,-356,0,0,0,0,0,0,0,0,0,-1,1483,1380,0,0
266,-356,0,0,0,0,0,0,0,0,0,-1,1490,1380,0,0
273,-356,0,0,0,0,0,0,0,0,0,-1,1497,1380,0,0
280,-356,0,0,0,0,0,0,0,0,0,-1,1504,1380,0,0
287,-356,0,0,0,0,0,0,0,0,0,-1,1511,1380,0,0
294,-356,0,0,0,0,0,0,0,0,0,-1,1518,1380,0,0
301,-356,0,0,0,0,0,0,0,0,0,-1,1525,1380,0,0
308,-356,0,0,0,0,0,0,0,0,0,-1,1532,1380,0,0
315,-356,0,0,0,0,0,0,0,0,0,-1,1539,1380,0,0
322,-356,0,0,0,0,0,0,0,0,0,-1,1546,1380,0,0
329,-356,0,0,0,0,0,0,0,0,0,-1,1553,1380,0,0
336,-356,0,0,0,0,0,0,0,0,0,-1,1560,1380,0,0
343,-356,0,0,0,0,0,0,0,0,0,-1,1567,1380,0,0
350,-356,0,0,0,0,0,0,0,0,0,-1,1574,1380,0,0
357,-356,0,0,0,0,0,0,0,0,0,-1,1581,1380,0,0
364,-356,0,0,0,0,0,0,0,0,0,-1,1588,1380,0,0
371,-356,0,0,0,0,0,0,0,0,0,-1,1595,1380,0,0
378,-356,0,0,0,0,0,0,0,0,0,-1,1602,1380,0,0
385,-356,0,0,0,0,0,0,0,0,0,-1,1609,1380,0,0
392,-356,0,0,0,0,0,0,0,0,0,-1,1616,1380,0,0
399,-356,0,0,0,0,0,0,0,0,0,-1,1623,1380,0,0
406,-356,0,0,0,0,0,0,0,0,0,-1,1630,1380,0,0
413,-356,0,0,0,0,0,0,0,0,0,-1,1637,1380,0,0
420,-356,0,0,0,0,0,0,0,0,0,-1,1644,1380,0,0
427,-356,0,0,0,0,0,0,0,0,0,-1,1651,1380,0,0
434,-356,0,0,0,0,0,0,0,0,0,-1,1658,1380,0,0
441,-356,0,0,0,0,0,0,0,0,0,-1,1665,1380,0,0
448,-356,0,0,0,0,0,0,0,0,0,-1,1672,1380,0,0
455,-356,0,0,0,0,0,0,0,0,0,-1,1679,1380,0,0
462,-356,0,0,0,0,0,0,0,0,0,-1,1686,1380,0,0
469,-356,0,0,0,0,0,0,0,0,0,-1,1693,1380,0,0
476,-356,0,0,0,0,0,0,0,0,0,-1,1700,1380,0,0
483,-356,0,0,0,0,0,0,0,0,0,-1,1707,1380,0,0
490,-356,0,0,0,0,0,0,0,0,0,-1,1714,1380,0,0
497,-356,0,0,0,0,0,0,0,0,0,-1,1721,1380,0,0
504,-356,0,0,0,0,0,0,0,0,0,-1,1728,1380,0,0
511,-356,0,0,0,0,0,0,0,0,0,-1,1735,1380,0,0
518,-356,0,0,0,0,0,0,0,0,0,-1,1742,1380,0,0
525,-356,0,0,0,0,0,0,0,0,0,-1,1749,1380,0,0
532,-356,0,0,0,0,0,0,0,0,0,-1,1756,1380,0,0
539,-356,0,0,0,0,0,0,0,0,0,-1,1763,1380,0,0
546,-356,0,0,0,0,0,0,0,0,0,-1,1770,1380,0,0
553,-356,0,0,0,0,0,0,0,0,0,-1,1777,1380,0,0
560,-356,63.6171,3.12183,0,0,0,0,0,0,0,-1,1784,1380,63.617,-3.12183
567,-356,65.0425,1.89966,0,0,0,0,0,0,0,-1,1791,1380,65.0424,-1.8996
574,-356,45.5742,3.39575,0,0,0,0,0,0,0,-1,1798,1380,45.5742,-3.39574
581,-356,45.6708,3.64172,0,0,0,0,0,0,0,-1,1805,1380,45.6707,-3.64175
588,-356,44.4739,4.87085,0,0,0,0,0,0,0,-1,1812,1380,44.4739,-4.87086
595,-356,32.0834,5.86084,0,0,0,0,0,0,0,-1,1819,1380,32.0834,-5.86079
602,-356,30.1604,6.07104,0,0,0,0,0,0,0,-1,1826,1380,30.1604,-6.07104
609,-356,28.3435,6.48901,0,0,0,0,0,0,0,-1,1833,1380,28.3435,-6.48899
616,-356,26.9358,6.80872,0,0,0,0,0,0,0,-1,1840,1380,26.9358,-6.80877
623,-356,16.1803,1.07532,0,0,0,0,0,0,0,-1,1847,1380,16.1803,-1.07529
630,-356,16.4138,6.91553,0,0,0,0,0,0,0,-1,1854,1380,16.4138,-6.9155
637,-356,24.8021,12.0151,0,0,0,0,0,0,0,-1,1861,1380,24.8022,-12.0151
644,-356,43.4802,19.9075,0,0,0,0,0,0,0,-1,1868,1380,43.4802,-19.9075
651,-356,43.4532,19.0287,-5.97834e-05,0.00108505,-0.000530665,0.00129319,-0.000267922,-1.19701,0.000963925,0.0213733,1875,1380,43.4533,-19.0287
658,-356,43.3767,18.2014,0.000313508,0.000585664,-0.000315009,0.00079273,0.000106442,-0.989282,0.000496822,0.014947,1882,1380,43.3767,-18.2015
665,-356,43.3333,17.4709,0.000883724,0.000170581,-0.000260401,0.000968687,8.56189e-05,-0.315384,0.000619228,0.0154673,1889,1380,43.3332,-17.471
672,-356,43.2537,16.771,0.0015785,-0.000130363,-0.000300277,0.00162973,-0.000181591,-0.168976,0.0011518,0.0166141,1896,1380,43.2537,-16.771
679,-356,43.2357,16.0038,0.00240475,-0.000355254,-0.000429065,0.00246992,-0.000420417,-0.15072,0.00180316,0.0190712,1903,1380,43.2358,-16.0038
686,-356,43.2084,15.1563,0.00336973,-0.000484749,-0.000650847,0.00347667,-0.000591681,-0.162842,0.0025381,0.020221,1910,1380,43.2084,-15.1562
693,-356,43.1582,14.3838,0.00445693,-0.000501319,-0.000953247,0.00463388,-0.00067827,-0.183541,0.00333839,0.0171168,1917,1380,43.1582,-14.3838
700,-356,43.1198,13.6034,0.00570335,-0.000316046,-0.00137906,0.00600425,-0.00061695,-0.214828,0.00422353,0.02538,1924,1380,43.1198,-13.6034
707,-356,43.1637,12.8196,0,0,0,0,0,0,0,-1,1931,1380,43.1637,-12.8196
714,-356,19.6907,5.82129,0,0,0,0,0,0,0,-1,1938,1380,19.6907,-5.82132
721,-356,17.2948,4.1958,0,0,0,0,0,0,0,-1,1945,1380,17.2948,-4.19584
728,-356,19.1846,2.31519,0,0,0,0,0,0,0,-1,1952,1380,19.1846,-2.31514
735,-356,20.0731,2.50842,0,0,0,0,0,0,0,-1,1959,1380,20.0731,-2.50844
742,-356,21.0111,2.43762,0,0,0,0,0,0,0,-1,1966,1380,21.0112,-2.43762
749,-356,22.1411,1.83276,0,0,0,0,0,0,0,-1,1973,1380,22.1411,-1.83275
756,-356,0,0,0,0,0,0,0,0,0,-1,1980,1380,0,0
763,-356,0,0,0,0,0,0,0,0,0,-1,1987,1380,0,0
770,-356,0,0,0,0,0,0,0,0,0,-1,1994,1380,0,0
777,-356,0,0,0,0,0,0,0,0,0,-1,2001,1380,0,0
784,-356,0,0,0,0,0,0,0,0,0,-1,2008,1380,0,0
791,-356,0,0,0,0,0,0,0,0,0,-1,2015,1380,0,0
798,-356,0,0,0,0,0,0,0,0,0,-1,2022,1380,0,0
805,-356,0,0,0,0,0,0,0,0,0,-1,2029,1380,0,0
812,-356,0,0,0,0,0,0,0,0,0,-1,2036,1380,0,0
-700,-363,0,0,0,0,0,0,0,0,0,-1,524,1387,0,0
-693,-363,0,0,0,0,0,0,0,0,0,-1,531,1387,0,0
-686,-363,0,0,0,0,0,0,0,0,0,-1,538,1387,0,0
-679,-363,0,0,0,0,0,0,0,0,0,-1,545,1387,0,0
-672,-363,0,0,0,0,0,0,0,0,0,-1,552,1387,0,0
-665,-363,0,0,0,0,0,0,0,0,0,-1,559,1387,0,0
-658,-363,0,0,0,0,0,0,0,0,0,-1,566,1387,0,0
-651,-363,0,0,0,0,0,0,0,0,0,-1,573,1387,0,0
-644,-363,0,0,0,0,0,0,0,0,0,-1,580,1387,0,0
-637,-363,0,0,0,0,0,0,0,0,0,-1,587,1387,0,0
-630,-363,0,0,0,0,0,0,0,0,0,-1,594,1387,0,0
-623,-363,-9.67566,-5.91846,0,0,0,0,0,0,0,-1,601,1387,-9.67563,5.91847
-616,-363,-9.02985,-2.98083,0,0,0,0,0,0,0,-1,608,1387,-9.02987,2.98079
-609,-363,-4.90265,0.195679,0,0,0,0,0,0,0,-1,615,1387,-4.90263,-0.195721
-602,-363,-9.65009,3.5321,0,0,0,0,0,0,0,-1,622,1387,-9.65007,-3.53211
-595,-363,-8.00256,3.48853,0,0,0,0,0,0,0,-1,629,1387,-8.00256,-3.48855
-588,-363,-10.8846,4.49768,0,0,0,0,0,0,0,-1,636,1387,-10.8846,-4.49773
-581,-363,-11.7469,5.15161,0,0,0,0,0,0,0,-1,643,1387,-11.747,-5.15167
-574,-363,-17.8334,8.33801,0,0,0,0,0,0,0,-1,650,1387,-17.8334,-8.33804
-567,-363,-25.582,12.8485,0,0,0,0,0,0,0,-1,657,1387,-25.582,-12.8485
-560,-363,-25.5084,13.708,0.00464801,0.00321237,0.00292117,0.00693827,0.000922121,0.66492,0.00435083,0.0148344,664,1387,-25.5084,-13.708
-553,-363,-25.5251,14.5511,0.00397533,0.00228925,0.00226873,0.00555259,0.000711985,0.607509,0.0034887,0.0135645,671,1387,-25.5251,-14.5512
-546,-363,-25.5637,15.3448,0.00357906,0.00155567,0.00184509,0.00467162,0.000463115,0.534623,0.00297209,0.0138864,678,1387,-25.5637,-15.3448
-539,-363,-25.5936,16.1647,0.00344686,0.000971196,0.00161894,0.00424697,0.000171085,0.459011,0.00277604,0.0165878,685,1387,-25.5936,-16.1646
-532,-363,-25.681,16.9948,0.00357321,0.000564277,0.00160137,0.00426597,-0.000128486,0.408295,0.00288776,0.0141955,692,1387,-25.681,-16.9948
-525,-363,-25.7166,17.8049,0.00393589,0.000282038,0.00175248,0.00464054,-0.000422603,0.382301,0.00324375,0.0134508,699,1387,-25.7165,-17.8049
-518,-363,-25.7272,18.6284,0.00453989,0.000175754,0.00208865,0.0053784,-0.000662755,0.381764,0.0038257,0.0120216,706,1387,-25.7272,-18.6284
-511,-363,-25.6358,19.4954,0.00542546,0.000233644,0.00266869,0.00655254,-0.000893435,0.399611,0.0046946,0.0344142,713,1387,-25.6358,-19.4954
-504,-363,-25.4684,20.4303,0,0,0,0,0,0,0,-1,720,1387,-25.4685,-20.4302
-497,-363,-7.18842,7.29944,0,0,0,0,0,0,0,-1,727,1387,-7.18839,-7.29945
-490,-363,-5.42413,4.6958,0,0,0,0,0,0,0,-1,734,1387,-5.42412,-4.69583
-483,-363,-6.28375,4.1394,0,0,0,0,0,0,0,-1,741,1387,-6.28374,-4.13944
-476,-363,-5.83807,4.31018,0,0,0,0,0,0,0,-1,748,1387,-5.8381,-4.31013
-469,-363,-10.7125,0.697754,0,0,0,0,0,0,0,-1,755,1387,-10.7125,-0.697811
-462,-363,-9.55951,-0.0830078,0,0,0,0,0,0,0,-1,762,1387,-9.55949,0.0830163
-455,-363,-13.1008,-0.290894,0,0,0,0,0,0,0,-1,769,1387,-13.1008,0.290921
-448,-363,-11.7324,2.46606,0,0,0,0,0,0,0,-1,776,1387,-11.7324,-2.46605
-441,-363,-12.4464,2.5354,0,0,0,0,0,0,0,-1,783,1387,-12.4463,-2.53537
-434,-363,-13.6918,2.14661,0,0,0,0,0,0,0,-1,790,1387,-13.6918,-2.14662
-427,-363,0,0,0,0,0,0,0,0,0,-1,797,1387,0,0
-420,-363,0,0,0,0,0,0,0,0,0,-1,804,1387,0,0
-413,-363,0,0,0,0,0,0,0,0,0,-1,811,1387,0,0
-406,-363,0,0,0,0,0,0,0,0,0,-1,818,1387,0,0
-399,-363,0,0,0,0,0,0,0,0,0,-1,825,1387,0,0
-392,-363,0,0,0,0,0,0,0,0,0,-1,832,1387,0,0
-385,-363,0,0,0,0,0,0,0,0,0,-1,839,1387,0,0
-378,-363,0,0,0,0,0,0,0,0,0,-1,846,1387,0,0
-371,-363,0,0,0,0,0,0,0,0,0,-1,853,1387,0,0
-364,-363,0,0,0,0,0,0,0,0,0,-1,860,1387,0,0
-357,-363,0,0,0,0,0,0,0,0,0,-1,867,1387,0,0
-350,-363,0,0,0,0,0,0,0,0,0,-1,874,1387,0,0
-343,-363,0,0,0,0,0,0,0,0,0,-1,881,1387,0,0
-336,-363,0,0,0,0,0,0,0,0,0,-1,888,1387,0,0
-329,-363,0,0,0,0,0,0,0,0,0,-1,895,1387,0,0
-322,-363,0,0,0,0,0,0,0,0,0,-1,902,1387,0,0
-315,-363,0,0,0,0,0,0,0,0,0,-1,909,1387,0,0
-308,-363,0,0,0,0,0,0,0,0,0,-1,916,1387,0,0
-301,-363,0,0,0,0,0,0,0,0,0,-1,923,1387,0,0
-294,-363,0,0,0,0,0,0,0,0,0,-1,930,1387,0,0
-287,-363,0,0,0,0,0,0,0,0,0,-1,937,1387,0,0
-280,-363,0,0,0,0,0,0,0,0,0,-1,944,1387,0,0
-273,-363,0,0,0,0,0,0,0,0,0,-1,951,1387,0,0
-266,-363,0,0,0,0,0,0,0,0,0,-1,958,1387,0,0
-259,-363,0,0,0,0,0,0,0,0,0,-1,965,1387,0,0
-252,-363,0,0,0,0,0,0,0,0,0,-1,972,1387,0,0
-245,-363,0,0,0,0,0,0,0,0,0,-1,979,1387,0,0
-238,-363,0,0,0,0,0,0,0,0,0,-1,986,1387,0,0
-231,-363,0,0,0,0,0,0,0,0,0,-1,993,1387,0,0
-224,-363,0,0,0,0,0,0,0,0,0,-1,1000,1387,0,0
-217,-363,0,0,0,0,0,0,0,0,0,-1,1007,1387,0,0
-210,-363,0,0,0,0,0,0,0,0,0,-1,1014,1387,0,0
-203,-363,0,0,0,0,0,0,0,0,0,-1,1021,1387,0,0
-196,-363,0,0,0,0,0,0,0,0,0,-1,1028,1387,0,0
-189,-363,0,0,0,0,0,0,0,0,0,-1,1035,1387,0,0
-182,-363,0,0,0,0,0,0,0,0,0,-1,1042,1387,0,0
-175,-363,0,0,0,0,0,0,0,0,0,-1,1049,1387,0,0
-168,-363,0,0,0,0,0,0,0,0,0,-1,1056,1387,0,0
-161,-363,0,0,0,0,0,0,0,0,0,-1,1063,1387,0,0
-154,-363,0,0,0,0,0,0,0,0,0,-1,1070,1387,0,0
-147,-363,0,0,0,0,0,0,0,0,0,-1,1077,1387,0,0
-140,-363,0,0,0,0,0,0,0,0,0,-1,1084,1387,0,0
-133,-363,0,0,0,0,0,0,0,0,0,-1,1091,1387,0,0
-126,-363,0,0,0,0,0,0,0,0,0,-1,1098,1387,0,0
-119,-363,0,0,0,0,0,0,0,0,0,-1,1105,1387,0,0
-112,-363,0,0,0,0,0,0,0,0,0,-1,1112,1387,0,0
-105,-363,0,0,0,0,0,0,0,0,0,-1,1119,1387,0,0
-98,-363,0,0,0,0,0,0,0,0,0,-1,1126,1387,0,0
-91,-363,0,0,0,0,0,0,0,0,0,-1,1133,1387,0,0
-84,-363,0,0,0,0,0,0,0,0,0,-1,1140,1387,0,0
-77,-363,0,0,0,0,0,0,0,0,0,-1,1147,1387,0,0
-70,-363,0,0,0,0,0,0,0,0,0,-1,1154,1387,0,0
-63,-363,0,0,0,0,0,0,0,0,0,-1,1161,1387,0,0
-56,-363,0,0,0,0,0,0,0,0,0,-1,1168,1387,0,0
-49,-363,0,0,0,0,0,0,0,0,0,-1,1175,1387,0,0
-42,-363,0,0,0,0,0,0,0,0,0,-1,1182,1387,0,0
-35,-363,0,0,0,0,0,0,0,0,0,-1,1189,1387,0,0
-28,-363,0,0,0,0,0,0,0,0,0,-1,1196,1387,0,0
-21,-363,0,0,0,0,0,0,0,0,0,-1,1203,1387,0,0
-14,-363,0,0,0,0,0,0,0,0,0,-1,1210,1387,0,0
-7,-363,0,0,0,0,0,0,0,0,0,-1,1217,1387,0,0
0,-363,0,0,0,0,0,0,0,0,0,-1,1224,1387,0,0
7,-363,0,0,0,0,0,0,0,0,0,-1,1231,1387,0,0
14,-363,0,0,0,0,0,0,0,0,0,-1,1238,1387,0,0
21,-363,0,0,0,0,0,0,0,0,0,-1,1245,1387,0,0
28,-363,0,0,0,0,0,0,0,0,0,-1,1252,1387,0,0
35,-363,0,0,0,0,0,0,0,0,0,-1,1259,1387,0,0
42,-363,0,0,0,0,0,0,0,0,0,-1,1266,1387,0,0
49,-363,0,0,0,0,0,0,0,0,0,-1,1273,1387,0,0
56,-363,0,0,0,0,0,0,0,0,0,-1,1280,1387,0,0
63,-363,0,0,0,0,0,0,0,0,0,-1,1287,1387,0,0
70,-363,0,0,0,0,0,0,0,0,0,-1,1294,1387,0,0
77,-363,0,0,0,0,0,0,0,0,0,-1,1301,1387,0,0
84,-363,0,0,0,0,0,0,0,0,0,-1,1308,1387,0,0
91,-363,0,0,0,0,0,0,0,0,0,-1,1315,1387,0,0
98,-363,0,0,0,0,0,0,0,0,0,-1,1322,1387,0,0
105,-363,0,0,0,0,0,0,0,0,0,-1,1329,1387,0,0
112,-363,0,0,0,0,0,0,0,0,0,-1,1336,1387,0,0
119,-363,0,0,0,0,0,0,0,0,0,-1,1343,1387,0,0
126,-363,0,0,0,0,0,0,0,0,0,-1,1350,1387,0,0
133,-363,0,0,0,0,0,0,0,0,0,-1,1357,1387,0,0
140,-363,0,0,0,0,0,0,0,0,0,-1,1364,1387,0,0
147,-363,0,0,0,0,0,0,0,0,0,-1,1371,1387,0,0
154,-363,0,0,0,0,0,0,0,0,0,-1,1378,1387,0,0
161,-363,0,0,0,0,0,0,0,0,0,-1,1385,1387,0,0
168,-363,0,0,0,0,0,0,0,0,0,-1,1392,1387,0,0
175,-363,0,0,0,0,0,0,0,0,0,-1,1399,1387,0,0
182,-363,0,0,0,0,0,0,0,0,0,-1,1406,1387,0,0
189,-363,0,0,0,0,0,0,0,0,0,-1,1413,1387,0,0
196,-363,0,0,0,0,0,0,0,0,0,-1,1420,1387,0,0
203,-363,0,0,0,0,0,0,0,0,0,-1,1427,1387,0,0
210,-363,0,0,0,0,0,0,0,0,0,-1,1434,1387,0,0
217,-363,0,0,0,0,0,0,0,0,0,-1,1441,1387,0,0
224,-363,0,0,0,0,0,0,0,0,0,-1,1448,1387,0,0
231,-363,0,0,0,0,0,0,0,0,0,-1,1455,1387,0,0
238,-363,0,0,0,0,0,0,0,0,0,-1,1462,1387,0,0
245,-363,0,0,0,0,0,0,0,0,0,-1,1469,1387,0,0
252,-363,0,0,0,0,0,0,0,0,0,-1,1476,1387,0,0
259,-363,0,0,0,0,0,0,0,0,0,-1,1483,1387,0,0
266,-363,0,0,0,0,0,0,0,0,0,-1,1490,1387,0,0
273,-363,0,0,0,0,0,0,0,0,0,-1,1497,1387,0,0
280,-363,0,0,0,0,0,0,0,0,0,-1,1504,1387,0,0
287,-363,0,0,0,0,0,0,0,0,0,-1,1511,1387,0,0
294,-363,0,0,0,0,0,0,0,0,0,-1,1518,1387,0,0
301,-363,0,0,0,0,0,0,0,0,0,-1,1525,1387,0,0
308,-363,0,0,0,0,0,0,0,0,0,-1,1532,1387,0,0
315,-363,0,0,0,0,0,0,0,0,0,-1,1539,1387,0,0
322,-363,0,0,0,0,0,0,0,0,0,-1,1546,1387,0,0
329,-363,0,0,0,0,0,0,0,0,0,-1,1553,1387,0,0
336,-363,0,0,0,0,0,0,0,0,0,-1,1560,1387,0,0
343,-363,0,0,0,0,0,0,0,0,0,-1,1567,1387,0,0
350,-363,0,0,0,0,0,0,0,0,0,-1,1574,1387,0,0
357,-363,0,0,0,0,0,0,0,0,0,-1,1581,1387,0,0
364,-363,0,0,0,0,0,0,0,0,0,-1,1588,1387,0,0
371,-363,0,0,0,0,0,0,0,0,0,-1,1595,1387,0,0
378,-363,0,0,0,0,0,0,0,0,0,-1,1602,1387,0,0
385,-363,0,0,0,0,0,0,0,0,0,-1,1609,1387,0,0
392,-363,0,0,0,0,0,0,0,0,0,-1,1616,1387,0,0
399,-363,0,0,0,0,0,0,0,0,0,-1,1623,1387,0,0
406,-363,0,0,0,0,0,0,0,0,0,-1,1630,1387,0,0
413,-363,0,0,0,0,0,0,0,0,0,-1,1637,1387,0,0
420,-363,0,0,0,0,0,0,0,0,0,-1,1644,1387,0,0
427,-363,0,0,0,0,0,0,0,0,0,-1,1651,1387,0,0
434,-363,0,0,0,0,0,0,0,0,0,-1,1658,1387,0,0
441,-363,0,0,0,0,0,0,0,0,0,-1,1665,1387,0,0
448,-363,0,0,0,0,0,0,0,0,0,-1,1672,1387,0,0
455,-363,0,0,0,0,0,0,0,0,0,-1,1679,1387,0,0
462,-363,0,0,0,0,0,0,0,0,0,-1,1686,1387,0,0
469,-363,0,0,0,0,0,0,0,0,0,-1,1693,1387,0,0
476,-363,0,0,0,0,0,0,0,0,0,-1,1700,1387,0,0
483,-363,0,0,0,0,0,0,0,0,0,-1,1707,1387,0,0
490,-363,0,0,0,0,0,0,0,0,0,-1,1714,1387,0,0
497,-363,0,0,0,0,0,0,0,0,0,-1,1721,1387,0,0
504,-363,0,0,0,0,0,0,0,0,0,-1,1728,1387,0,0
511,-363,0,0,0,0,0,0,0,0,0,-1,1735,1387,0,0
518,-363,0,0,0,0,0,0,0,0,0,-1,1742,1387,0,0
525,-363,0,0,0,0,0,0,0,0,0,-1,1749,1387,0,0
532,-363,0,0,0,0,0,0,0,0,0,-1,1756,1387,0,0
539,-363,0,0,0,0,0,0,0,0,0,-1,1763,1387,0,0
546,-363,0,0,0,0,0,0,0,0,0,-1,1770,1387,0,0
553,-363,62.1395,3.42249,0,0,0,0,0,0,0,-1,1777,1387,62.1395,-3.42245
560,-363,63.2896,2.40808,0,0,0,0,0,0,0,-1,1784,1387,63.2896,-2.40811
567,-363,64.4463,1.38135,0,0,0,0,0,0,0,-1,1791,1387,64.4463,-1.38131
574,-363,45.7261,2.8075,0,0,0,0,0,0,0,-1,1798,1387,45.7261,-2.80754
581,-363,39.2413,1.97632,0,0,0,0,0,0,0,-1,1805,1387,39.2413,-1.97636
588,-363,32.5608,6.72131,0,0,0,0,0,0,0,-1,1812,1387,32.5608,-6.72131
595,-363,31.4688,6.95435,0,0,0,0,0,0,0,-1,1819,1387,31.4688,-6.95431
602,-363,25.7437,5.33667,0,0,0,0,0,0,0,-1,1826,1387,25.7437,-5.33667
609,-363,27.7048,7.06885,0,0,0,0,0,0,0,-1,1833,1387,27.7048,-7.06882
616,-363,16.229,1.08704,0,0,0,0,0,0,0,-1,1840,1387,16.229,-1.08706
623,-363,15.7283,7.16663,0,0,0,0,0,0,0,-1,1847,1387,15.7282,-7.16665
630,-363,18.3192,9.27844,0,0,0,0,0,0,0,-1,1854,1387,18.3192,-9.27843
637,-363,42.624,20.8104,0,0,0,0,0,0,0,-1,1861,1387,42.6241,-20.8104
644,-363,42.6217,19.9355,-0.000367051,0.00148415,-0.000725227,0.00173443,-0.00061733,-1.23849,0.00140792,0.0190774,1868,1387,42.6217,-19.9356
651,-363,42.6113,19.1027,-6.8322e-05,0.000840698,-0.00033862,0.000952971,-0.000180595,-1.25064,0.000703284,0.0112853,1875,1387,42.6113,-19.1026
658,-363,42.61,18.3104,0.000482592,0.000401771,-0.000204325,0.000650464,0.000233899,-0.68777,0.00038045,0.0118959,1882,1387,42.61,-18.3104
665,-363,42.5601,17.5588,0.00120057,4.6328e-06,-0.00019264,0.00123083,-2.56316e-05,-0.155829,0.000829233,0.0126464,1889,1387,42.56,-17.5588
672,-363,42.4984,16.8152,0.00204987,-0.000343583,-0.000261184,0.00207804,-0.000371753,-0.10744,0.00152447,0.0146723,1896,1387,42.4984,-16.8152
679,-363,42.4521,16.0601,0.00304489,-0.000665978,-0.000411044,0.00308987,-0.000710963,-0.109007,0.00233329,0.0161015,1903,1387,42.4521,-16.0601
686,-363,42.4054,15.2565,0.00419858,-0.000932816,-0.000653746,0.00428056,-0.00101479,-0.124747,0.0032453,0.0156536,1910,1387,42.4054,-15.2565
693,-363,42.3562,14.4318,0.00549473,-0.00111984,-0.000978636,0.00563648,-0.0012616,-0.143847,0.0042412,0.0142428,1917,1387,42.3562,-14.4317
700,-363,42.4775,13.5392,0.00701646,-0.00112194,-0.00145966,0.00727034,-0.00137581,-0.172206,0.00536463,0.0342433,1924,1387,42.4776,-13.5392
707,-363,42.7555,12.6967,0,0,0,0,0,0,0,-1,1931,1387,42.7555,-12.6966
714,-363,16.5782,5.3147,0,0,0,0,0,0,0,-1,1938,1387,16.5783,-5.31472
721,-363,14.4045,4.51685,0,0,0,0,0,0,0,-1,1945,1387,14.4045,-4.51685
728,-363,19.9756,0.853027,0,0,0,0,0,0,0,-1,1952,1387,19.9756,-0.853059
735,-363,21.4297,1.2981,0,0,0,0,0,0,0,-1,1959,1387,21.4297,-1.29811
742,-363,21.3621,2.79663,0,0,0,0,0,0,0,-1,1966,1387,21.362,-2.7966
749,-363,0,0,0,0,0,0,0,0,0,-1,1973,1387,0,0
756,-363,0,0,0,0,0,0,0,0,0,-1,1980,1387,0,0
763,-363,0,0,0,0,0,0,0,0,0,-1,1987,1387,0,0
770,-363,0,0,0,0,0,0,0,0,0,-1,1994,1387,0,0
777,-363,0,0,0,0,0,0,0,0,0,-1,2001,1387,0,0
784,-363,0,0,0,0,0,0,0,0,0,-1,2008,1387,0,0
791,-363,0,0,0,0,0,0,0,0,0,-1,2015,1387,0,0
798,-363,0,0,0,0,0,0,0,0,0,-1,2022,1387,0,0
805,-363,0,0,0,0,0,0,0,0,0,-1,2029,1387,0,0
812,-363,0,0,0,0,0,0,0,0,0,-1,2036,1387,0,0
-700,-370,0,0,0,0,0,0,0,0,0,-1,524,1394,0,0
-693,-370,0,0,0,0,0,0,0,0,0,-1,531,1394,0,0
-686,-370,0,0,0,0,0,0,0,0,0,-1,538,1394,0,0
-679,-370,0,0,0,0,0,0,0,0,0,-1,545,1394,0,0
-672,-370,0,0,0,0,0,0,0,0,0,-1,552,1394,0,0
-665,-370,0,0,0,0,0,0,0,0,0,-1,559,1394,0,0
-658,-370,0,0,0,0,0,0,0,0,0,-1,566,1394,0,0
-651,-370,0,0,0,0,0,0,0,0,0,-1,573,1394,0,0
-644,-370,0,0,0,0,0,0,0,0,0,-1,580,1394,0,0
-637,-370,0,0,0,0,0,0,0,0,0,-1,587,1394,0,0
-630,-370,0,0,0,0,0,0,0,0,0,-1,594,1394,0,0
-623,-370,-10.1758,-7.10486,0,0,0,0,0,0,0,-1,601,1394,-10.1758,7.10483
-616,-370,-8.85925,-1.61475,0,0,0,0,0,0,0,-1,608,1394,-8.85925,1.61476
-609,-370,-5.39325,0.0421143,0,0,0,0,0,0,0,-1,615,1394,-5.39328,-0.0421372
-602,-370,-12.3151,3.44592,0,0,0,0,0,0,0,-1,622,1394,-12.3151,-3.44595
-595,-370,-7.53284,5.44214,0,0,0,0,0,0,0,-1,629,1394,-7.53284,-5.44216
-588,-370,-11.2422,4.50598,0,0,0,0,0,0,0,-1,636,1394,-11.2422,-4.50596
-581,-370,-13.1575,5.84888,0,0,0,0,0,0,0,-1,643,1394,-13.1575,-5.84887
-574,-370,-13.0107,6.69861,0,0,0,0,0,0,0,-1,650,1394,-13.0108,-6.69866
-567,-370,-24.7836,12.7474,0,0,0,0,0,0,0,-1,657,1394,-24.7836,-12.7474
-560,-370,-24.8016,13.6812,0.00516346,0.00362777,0.00336475,0.00784687,0.000944368,0.673218,0.0049466,0.037536,664,1394,-24.8015,-13.6811
-553,-370,-24.7245,14.5859,0.00432205,0.00261152,0.00256759,0.00617307,0.000760495,0.624628,0.00388676,0.0106097,671,1394,-24.7246,-14.5859
-546,-370,-24.7252,15.4166,0.0037474,0.00181537,0.00202254,0.00502278,0.000539993,0.562604,0.00318382,0.0131674,678,1394,-24.7252,-15.4166
-539,-370,-24.7419,16.2628,0.00341829,0.00118105,0.00167467,0.00431358,0.000285761,0.490947,0.00278536,0.0178986,685,1394,-24.7419,-16.2628
-532,-370,-24.8357,17.0592,0.00334352,0.000734234,0.00153515,0.00405352,2.42388e-05,0.433195,0.0026943,0.0224851,692,1394,-24.8357,-17.0592
-525,-370,-24.9218,17.8547,0.0034852,0.000419939,0.00155452,0.00413557,-0.000230427,0.396243,0.00283698,0.0221322,699,1394,-24.9218,-17.8548
-518,-370,-24.9159,18.6469,0.00384079,0.000267577,0.00173897,0.00454737,-0.000439005,0.385944,0.00318801,0.0157068,706,1394,-24.9159,-18.6468
-511,-370,-24.9175,19.5032,0.00444059,0.00028536,0.00211882,0.00533044,-0.000604494,0.397608,0.00377131,0.0161997,713,1394,-24.9175,-19.5032
-504,-370,-24.9192,20.3719,0,0,0,0,0,0,0,-1,720,1394,-24.9192,-20.3719
-497,-370,-12.3546,11.7982,0,0,0,0,0,0,0,-1,727,1394,-12.3546,-11.7983
-490,-370,-5.30695,4.5271,0,0,0,0,0,0,0,-1,734,1394,-5.30698,-4.52704
-483,-370,-6.02997,4.59253,0,0,0,0,0,0,0,-1,741,1394,-6.02994,-4.5925
-476,-370,-6.75293,4.65796,0,0,0,0,0,0,0,-1,748,1394,-6.7529,-4.65795
-469,-370,-10.584,1.14294,0,0,0,0,0,0,0,-1,755,1394,-10.584,-1.14293
-462,-370,-9.54462,0.387207,0,0,0,0,0,0,0,-1,762,1394,-9.5446,-0.387176
-455,-370,-8.50525,-0.36853,0,0,0,0,0,0,0,-1,769,1394,-8.50523,0.368582
-448,-370,-10.9543,2.28833,0,0,0,0,0,0,0,-1,776,1394,-10.9543,-2.28835
-441,-370,-11.8699,1.8313,0,0,0,0,0,0,0,-1,783,1394,-11.8699,-1.83127
-434,-370,-12.7855,1.37415,0,0,0,0,0,0,0,-1,790,1394,-12.7855,-1.37419
-427,-370,0,0,0,0,0,0,0,0,0,-1,797,1394,0,0
-420,-370,0,0,0,0,0,0,0,0,0,-1,804,1394,0,0
-413,-370,0,0,0,0,0,0,0,0,0,-1,811,1394,0,0
-406,-370,0,0,0,0,0,0,0,0,0,-1,818,1394,0,0
-399,-370,0,0,0,0,0,0,0,0,0,-1,825,1394,0,0
-392,-370,0,0,0,0,0,0,0,0,0,-1,832,1394,0,0
-385,-370,0,0,0,0,0,0,0,0,0,-1,839,1394,0,0
-378,-370,0,0,0,0,0,0,0,0,0,-1,846,1394,0,0
-371,-370,0,0,0,0,0,0,0,0,0,-1,853,1394,0,0
-364,-370,0,0,0,0,0,0,0,0,0,-1,860,1394,0,0
-357,-370,0,0,0,0,0,0,0,0,0,-1,867,1394,0,0
-350,-370,0,0,0,0,0,0,0,0,0,-1,874,1394,0,0
-343,-370,0,0,0,0,0,0,0,0,0,-1,881,1394,0,0
-336,-370,0,0,0,0,0,0,0,0,0,-1,888,1394,0,0
-329,-370,0,0,0,0,0,0,0,0,0,-1,895,1394,0,0
-322,-370,0,0,0,0,0,0,0,0,0,-1,902,1394,0,0
-315,-370,0,0,0,0,0,0,0,0,0,-1,909,1394,0,0
-308,-370,0,0,0,0,0,0,0,0,0,-1,916,1394,0,0
-301,-370,0,0,0,0,0,0,0,0,0,-1,923,1394,0,0
-294,-370,0,0,0,0,0,0,0,0,0,-1,930,1394,0,0
-287,-370,0,0,0,0,0,0,0,0,0,-1,937,1394,0,0
-280,-370,0,0,0,0,0,0,0,0,0,-1,944,1394,0,0
-273,-370,0,0,0,0,0,0,0,0,0,-1,951,1394,0,0
-266,-370,0,0,0,0,0,0,0,0,0,-1,958,1394,0,0
-259,-370,0,0,0,0,0,0,0,0,0,-1,965,1394,0,0
-252,-370,0,0,0,0,0,0,0,0,0,-1,972,1394,0,0
-245,-370,0,0,0,0,0,0,0,0,0,-1,979,1394,0,0
-238,-370,0,0,0,0,0,0,0,0,0,-1,986,1394,0,0
-231,-370,0,0,0,0,0,0,0,0,0,-1,993,1394,0,0
-224,-370,0,0,0,0,0,0,0,0,0,-1,1000,1394,0,0
-217,-370,0,0,0,0,0,0,0,0,0,-1,1007,1394,0,0
-210,-370,0,0,0,0,0,0,0,0,0,-1,1014,1394,0,0
-203,-370,0,0,0,0,0,0,0,0,0,-1,1021,1394,0,0
-196,-370,0,0,0,0,0,0,0,0,0,-1,1028,1394,0,0
-189,-370,0,0,0,0,0,0,0,0,0,-1,1035,1394,0,0
-182,-370,0,0,0,0,0,0,0,0,0,-1,1042,1394,0,0
-175,-370,0,0,0,0,0,0,0,0,0,-1,1049,1394,0,0
-168,-370,0,0,0,0,0,0,0,0,0,-1,1056,1394,0,0
-161,-370,0,0,0,0,0,0,0,0,0,-1,1063,1394,0,0
-154,-370,0,0,0,0,0,0,0,0,0,-1,1070,1394,0,0
-147,-370,0,0,0,0,0,0,0,0,0,-1,1077,1394,0,0
-140,-370,0,0,0,0,0,0,0,0,0,-1,1084,1394,0,0
-133,-370,0,0,0,0,0,0,0,0,0,-1,1091,1394,0,0
-126,-370,0,0,0,0,0,0,0,0,0,-1,1098,1394,0,0
-119,-370,0,0,0,0,0,0,0,0,0,-1,1105,1394,0,0
-112,-370,0,0,0,0,0,0,0,0,0,-1,1112,1394,0,0
-105,-370,0,0,0,0,0,0,0,0,0,-1,1119,1394,0,0
-98,-370,0,0,0,0,0,0,0,0,0,-1,1126,1394,0,0
-91,-370,0,0,0,0,0,0,0,0,0,-1,1133,1394,0,0
-84,-370,0,0,0,0,0,0,0,0,0,-1,1140,1394,0,0
-77,-370,0,0,0,0,0,0,0,0,0,-1,1147,1394,0,0
-70,-370,0,0,0,0,0,0,0,0,0,-1,1154,1394,0,0
-63,-370,0,0,0,0,0,0,0,0,0,-1,1161,1394,0,0
-56,-370,0,0,0,0,0,0,0,0,0,-1,1168,1394,0,0
-49,-370,0,0,0,0,0,0,0,0,0,-1,1175,1394,0,0
-42,-370,0,0,0,0,0,0,0,0,0,-1,1182,1394,0,0
-35,-370,0,0,0,0,0,0,0,0,0,-1,1189,1394,0,0
-28,-370,0,0,0,0,0,0,0,0,0,-1,1196,1394,0,0
-21,-370,0,0,0,0,0,0,0,0,0,-1,1203,1394,0,0
-14,-370,0,0,0,0,0,0,0,0,0,-1,1210,1394,0,0
-7,-370,0,0,0,0,0,0,0,0,0,-1,1217,1394,0,0
0,-370,0,0,0,0,0,0,0,0,0,-1,1224,1394,0,0
7,-370,0,0,0,0,0,0,0,0,0,-1,1231,1394,0,0
14,-370,0,0,0,0,0,0,0,0,0,-1,1238,1394,0,0
21,-370,0,0,0,0,0,0,0,0,0,-1,1245,1394,0,0
28,-370,0,0,0,0,0,0,0,0,0,-1,1252,1394,0,0
35,-370,0,0,0,0,0,0,0,0,0,-1,1259,1394,0,0
42,-370,0,0,0,0,0,0,0,0,0,-1,1266,1394,0,0
49,-370,0,0,0,0,0,0,0,0,0,-1,1273,1394,0,0
56,-370,0,0,0,0,0,0,0,0,0,-1,1280,1394,0,0
63,-370,0,0,0,0,0,0,0,0,0,-1,1287,1394,0,0
70,-370,0,0,0,0,0,0,0,0,0,-1,1294,1394,0,0
77,-370,0,0,0,0,0,0,0,0,0,-1,1301,1394,0,0
84,-370,0,0,0,0,0,0,0,0,0,-1,1308,1394,0,0
91,-370,0,0,0,0,0,0,0,0,0,-1,1315,1394,0,0
98,-370,0,0,0,0,0,0,0,0,0,-1,1322,1394,0,0
105,-370,0,0,0,0,0,0,0,0,0,-1,1329,1394,0,0
112,-370,0,0,0,0,0,0,0,0,0,-1,1336,1394,0,0
119,-370,0,0,0,0,0,0,0,0,0,-1,1343,1394,0,0
126,-370,0,0,0,0,0,0,0,0,0,-1,1350,1394,0,0
133,-370,0,0,0,0,0,0,0,0,0,-1,1357,1394,0,0
140,-370,0,0,0,0,0,0,0,0,0,-1,1364,1394,0,0
147,-370,0,0,0,0,0,0,0,0,0,-1,1371,1394,0,0
154,-370,0,0,0,0,0,0,0,0,0,-1,1378,1394,0,0
161,-370,0,0,0,0,0,0,0,0,0,-1,1385,1394,0,0
168,-370,0,0,0,0,0,0,0,0,0,-1,1392,1394,0,0
175,-370,0,0,0,0,0,0,0,0,0,-1,1399,1394,0,0
182,-370,0,0,0,0,0,0,0,0,0,-1,1406,1394,0,0
189,-370,0,0,0,0,0,0,0,0,0,-1,1413,1394,0,0
196,-370,0,0,0,0,0,0,0,0,0,-1,1420,1394,0,0
203,-370,0,0,0,0,0,0,0,0,0,-1,1427,1394,0,0
210,-370,0,0,0,0,0,0,0,0,0,-1,1434,1394,0,0
217,-370,0,0,0,0,0,0,0,0,0,-1,1441,1394,0,0
224,-370,0,0,0,0,0,0,0,0,0,-1,1448,1394,0,0
231,-370,0,0,0,0,0,0,0,0,0,-1,1455,1394,0,0
238,-370,0,0,0,0,0,0,0,0,0,-1,1462,1394,0,0
245,-370,0,0,0,0,0,0,0,0,0,-1,1469,1394,0,0
252,-370,0,0,0,0,0,0,0,0,0,-1,1476,1394,0,0
259,-370,0,0,0,0,0,0,0,0,0,-1,1483,1394,0,0
266,-370,0,0,0,0,0,0,0,0,0,-1,1490,1394,0,0
273,-370,0,0,0,0,0,0,0,0,0,-1,1497,1394,0,0
280,-370,0,0,0,0,0,0,0,0,0,-1,1504,1394,0,0
287,-370,0,0,0,0,0,0,0,0,0,-1,1511,1394,0,0
294,-370,0,0,0,0,0,0,0,0,0,-1,1518,1394,0,0
301,-370,0,0,0,0,0,0,0,0,0,-1,1525,1394,0,0
308,-370,0,0,0,0,0,0,0,0,0,-1,1532,1394,0,0
315,-370,0,0,0,0,0,0,0,0,0,-1,1539,1394,0,0
322,-370,0,0,0,0,0,0,0,0,0,-1,1546,1394,0,0
329,-370,0,0,0,0,0,0,0,0,0,-1,1553,1394,0,0
336,-370,0,0,0,0,0,0,0,0,0,-1,1560,1394,0,0
343,-370,0,0,0,0,0,0,0,0,0,-1,1567,1394,0,0
350,-370,0,0,0,0,0,0,0,0,0,-1,1574,1394,0,0
357,-370,0,0,0,0,0,0,0,0,0,-1,1581,1394,0,0
364,-370,0,0,0,0,0,0,0,0,0,-1,1588,1394,0,0
371,-370,0,0,0,0,0,0,0,0,0,-1,1595,1394,0,0
378,-370,0,0,0,0,0,0,0,0,0,-1,1602,1394,0,0
385,-370,0,0,0,0,0,0,0,0,0,-1,1609,1394,0,0
392,-370,0,0,0,0,0,0,0,0,0,-1,1616,1394,0,0
399,-370,0,0,0,0,0,0,0,0,0,-1,1623,1394,0,0
406,-370,0,0,0,0,0,0,0,0,0,-1,1630,1394,0,0
413,-370,0,0,0,0,0,0,0,0,0,-1,1637,1394,0,0
420,-370,0,0,0,0,0,0,0,0,0,-1,1644,1394,0,0
427,-370,0,0,0,0,0,0,0,0,0,-1,1651,1394,0,0
434,-370,0,0,0,0,0,0,0,0,0,-1,1658,1394,0,0
441,-370,0,0,0,0,0,0,0,0,0,-1,1665,1394,0,0
448,-370,0,0,0,0,0,0,0,0,0,-1,1672,1394,0,0
455,-370,0,0,0,0,0,0,0,0,0,-1,1679,1394,0,0
462,-370,0,0,0,0,0,0,0,0,0,-1,1686,1394,0,0
469,-370,0,0,0,0,0,0,0,0,0,-1,1693,1394,0,0
476,-370,0,0,0,0,0,0,0,0,0,-1,1700,1394,0,0
483,-370,0,0,0,0,0,0,0,0,0,-1,1707,1394,0,0
490,-370,0,0,0,0,0,0,0,0,0,-1,1714,1394,0,0
497,-370,0,0,0,0,0,0,0,0,0,-1,1721,1394,0,0
504,-370,0,0,0,0,0,0,0,0,0,-1,1728,1394,0,0
511,-370,0,0,0,0,0,0,0,0,0,-1,1735,1394,0,0
518,-370,0,0,0,0,0,0,0,0,0,-1,1742,1394,0,0
525,-370,0,0,0,0,0,0,0,0,0,-1,1749,1394,0,0
532,-370,0,0,0,0,0,0,0,0,0,-1,1756,1394,0,0
539,-370,0,0,0,0,0,0,0,0,0,-1,1763,1394,0,0
546,-370,60.9257,3.80493,0,0,0,0,0,0,0,-1,1770,1394,60.9256,-3.80494
553,-370,61.9966,2.87524,0,0,0,0,0,0,0,-1,1777,1394,61.9966,-2.8753
560,-370,63.1577,1.82617,0,0,0,0,0,0,0,-1,1784,1394,63.1578,-1.82617
567,-370,46.1089,3.11719,0,0,0,0,0,0,0,-1,1791,1394,46.1089,-3.1172
574,-370,38.8953,1.49353,0,0,0,0,0,0,0,-1,1798,1394,38.8952,-1.49348
581,-370,39.178,2.86145,0,0,0,0,0,0,0,-1,1805,1394,39.1779,-2.86145
588,-370,39.2102,4.27661,0,0,0,0,0,0,0,-1,1812,1394,39.2102,-4.27657
595,-370,25.793,4.5271,0,0,0,0,0,0,0,-1,1819,1394,25.793,-4.52711
602,-370,25.1077,5.34937,0,0,0,0,0,0,0,-1,1826,1394,25.1077,-5.34932
609,-370,16.712,0.993286,0,0,0,0,0,0,0,-1,1833,1394,16.7121,-0.99323
616,-370,16.7764,7.23315,0,0,0,0,0,0,0,-1,1840,1394,16.7764,-7.23313
623,-370,17.6625,8.94263,0,0,0,0,0,0,0,-1,1847,1394,17.6624,-8.94258
630,-370,20.9681,11.1785,0,0,0,0,0,0,0,-1,1854,1394,20.9681,-11.1784
637,-370,41.8806,20.7078,0,0,0,0,0,0,0,-1,1861,1394,41.8807,-20.7077
644,-370,41.8772,19.9257,-0.000470296,0.00106458,-0.00036718,0.0011479,-0.000553612,-1.34767,0.00100214,0.016368,1868,1394,41.8772,-19.9257
651,-370,41.8489,19.1462,-1.29811e-05,0.000583423,-0.000131138,0.000610984,-4.0542e-05,-1.36364,0.000421487,0.0138028,1875,1394,41.8488,-19.1463
658,-370,41.8354,18.3732,0.000676127,0.00019645,-7.08296e-05,0.000686367,0.00018621,-0.14358,0.000409859,0.0123183,1882,1394,41.8355,-18.3732
665,-370,41.7822,17.6118,0.00153546,-0.00019654,-9.82426e-05,0.00154102,-0.000202094,-0.0564805,0.00110091,0.0138459,1889,1394,41.7823,-17.6118
672,-370,41.6952,16.8306,0.00255821,-0.000617758,-0.000188133,0.00256932,-0.000628863,-0.0589616,0.00195648,0.0156586,1896,1394,41.6952,-16.8306
679,-370,41.6898,16.0468,0.00375982,-0.00107164,-0.00034667,0.00378456,-0.00109639,-0.0712661,0.00295705,0.0154828,1903,1394,41.6898,-16.0468
686,-370,41.6337,15.2826,0.00516342,-0.0015361,-0.000594203,0.00521571,-0.0015884,-0.0877802,0.00411022,0.0154031,1910,1394,41.6337,-15.2826
693,-370,41.5764,14.4482,0.00675295,-0.00198624,-0.000921605,0.00684908,-0.00208237,-0.103933,0.00539582,0.0159137,1917,1394,41.5764,-14.4482
700,-370,41.6079,13.5593,0,0,0,0,0,0,0,-1,1924,1394,41.608,-13.5593
707,-370,39.2391,11.5549,0,0,0,0,0,0,0,-1,1931,1394,39.2392,-11.555
714,-370,16.9116,5.93018,0,0,0,0,0,0,0,-1,1938,1394,16.9116,-5.93014
721,-370,17.2007,4.69153,0,0,0,0,0,0,0,-1,1945,1394,17.2007,-4.69158
728,-370,20.5315,-0.313354,0,0,0,0,0,0,0,-1,1952,1394,20.5315,0.313332
735,-370,22.3652,0.233398,0,0,0,0,0,0,0,-1,1959,1394,22.3652,-0.233355
742,-370,24.1989,0.780029,0,0,0,0,0,0,0,-1,1966,1394,24.1989,-0.780041
749,-370,0,0,0,0,0,0,0,0,0,-1,1973,1394,0,0
756,-370,0,0,0,0,0,0,0,0,0,-1,1980,1394,0,0
763,-370,0,0,0,0,0,0,0,0,0,-1,1987,1394,0,0
770,-370,0,0,0,0,0,0,0,0,0,-1,1994,1394,0,0
777,-370,0,0,0,0,0,0,0,0,0,-1,2001,1394,0,0
784,-370,0,0,0,0,0,0,0,0,0,-1,2008,1394,0,0
791,-370,0,0,0,0,0,0,0,0,0,-1,2015,1394,0,0
798,-370,0,0,0,0,0,0,0,0,0,-1,2022,1394,0,0
805,-370,0,0,0,0,0,0,0,0,0,-1,2029,1394,0,0
812,-370,0,0,0,0,0,0,0,0,0,-1,2036,1394,0,0
-700,-377,0,0,0,0,0,0,0,0,0,-1,524,1401,0,0
-693,-377,0,0,0,0,0,0,0,0,0,-1,531,1401,0,0
-686,-377,0,0,0,0,0,0,0,0,0,-1,538,1401,0,0
-679,-377,0,0,0,0,0,0,0,0,0,-1,545,1401,0,0
-672,-377,0,0,0,0,0,0,0,0,0,-1,552,1401,0,0
-665,-377,0,0,0,0,0,0,0,0,0,-1,559,1401,0,0
-658,-377,0,0,0,0,0,0,0,0,0,-1,566,1401,0,0
-651,-377,0,0,0,0,0,0,0,0,0,-1,573,1401,0,0
-644,-377,0,0,0,0,0,0,0,0,0,-1,580,1401,0,0
-637,-377,0,0,0,0,0,0,0,0,0,-1,587,1401,0,0
-630,-377,0,0,0,0,0,0,0,0,0,-1,594,1401,0,0
-623,-377,0,0,0,0,0,0,0,0,0,-1,601,1401,0,0
-616,-377,-9.43915,-2.4906,0,0,0,0,0,0,0,-1,608,1401,-9.43915,2.49062
-609,-377,-7.2821,-1.35278,0,0,0,0,0,0,0,-1,615,1401,-7.28208,1.35279
-602,-377,-14.9736,3.98279,0,0,0,0,0,0,0,-1,622,1401,-14.9737,-3.98276
-595,-377,-6.9082,1.18201,0,0,0,0,0,0,0,-1,629,1401,-6.90822,-1.18204
-588,-377,-12.8003,3.44751,0,0,0,0,0,0,0,-1,636,1401,-12.8003,-3.44754
-581,-377,-11.8243,6.21521,0,0,0,0,0,0,0,-1,643,1401,-11.8244,-6.21519
-574,-377,-12.2761,6.60547,0,0,0,0,0,0,0,-1,650,1401,-12.2761,-6.60552
-567,-377,-13.4844,7.41931,0,0,0,0,0,0,0,-1,657,1401,-13.4845,-7.41926
-560,-377,-23.9565,13.5536,0,0,0,0,0,0,0,-1,664,1401,-23.9565,-13.5536
-553,-377,-23.9292,14.5841,0.00499573,0.0030752,0.0029906,0.00717645,0.000894474,0.63005,0.00451577,0.0180792,671,1401,-23.9292,-14.5841
-546,-377,-23.955,15.5034,0.0041276,0.00218796,0.00230735,0.00566066,0.000654903,0.586449,0.00357552,0.0154935,678,1401,-23.955,-15.5034
-539,-377,-23.9479,16.2638,0.00352201,0.00147722,0.00182381,0.00459045,0.000408779,0.529933,0.00293355,0.0199636,685,1401,-23.948,-16.2638
-532,-377,-24.0435,17.0232,0.00318927,0.000950323,0.00154364,0.00397663,0.000162957,0.471673,0.00259847,0.0210786,692,1401,-24.0435,-17.0232
-525,-377,-24.025,17.9032,0.00308617,0.000573621,0.00142562,0.00373006,-7.02689e-05,0.42423,0.00251046,0.0270188,699,1401,-24.0249,-17.9031
-518,-377,-24.094,18.7103,0.00318907,0.000337792,0.00145596,0.00380114,-0.000274279,0.39796,0.00263029,0.0180326,706,1401,-24.094,-18.7104
-511,-377,-24.1359,19.5424,0.00351314,0.000266418,0.00164596,0.0042016,-0.000422038,0.396156,0.00295182,0.0126537,713,1401,-24.1359,-19.5424
-504,-377,-24.1848,20.3937,0.00411073,0.000394748,0.00204511,0.00501582,-0.000510338,0.416651,0.00352632,0.0167313,720,1401,-24.1847,-20.3937
-497,-377,-24.2083,21.2035,0,0,0,0,0,0,0,-1,727,1401,-24.2083,-21.2035
-490,-377,-8.88409,10.1245,0,0,0,0,0,0,0,-1,734,1401,-8.8841,-10.1245
-483,-377,-5.6524,5.07324,0,0,0,0,0,0,0,-1,741,1401,-5.6524,-5.07325
-476,-377,-6.11682,5.10535,0,0,0,0,0,0,0,-1,748,1401,-6.11681,-5.10537
-469,-377,-10.3211,1.9281,0,0,0,0,0,0,0,-1,755,1401,-10.3211,-1.92808
-462,-377,-9.2204,1.0022,0,0,0,0,0,0,0,-1,762,1401,-9.22039,-1.00218
-455,-377,-8.11969,0.0762939,0,0,0,0,0,0,0,-1,769,1401,-8.11968,-0.0762759
-448,-377,-9.05334,0.877319,0,0,0,0,0,0,0,-1,776,1401,-9.05332,-0.877324
-441,-377,-11.212,0.763428,0,0,0,0,0,0,0,-1,783,1401,-11.212,-0.763415
-434,-377,-11.0984,0.996216,0,0,0,0,0,0,0,-1,790,1401,-11.0984,-0.996265
-427,-377,-11.1733,1.25732,0,0,0,0,0,0,0,-1,797,1401,-11.1733,-1.25732
-420,-377,0,0,0,0,0,0,0,0,0,-1,804,1401,0,0
-413,-377,0,0,0,0,0,0,0,0,0,-1,811,1401,0,0
-406,-377,0,0,0,0,0,0,0,0,0,-1,818,1401,0,0
-399,-377,0,0,0,0,0,0,0,0,0,-1,825,1401,0,0
-392,-377,0,0,0,0,0,0,0,0,0,-1,832,1401,0,0
-385,-377,0,0,0,0,0,0,0,0,0,-1,839,1401,0,0
-378,-377,0,0,0,0,0,0,0,0,0,-1,846,1401,0,0
-371,-377,0,0,0,0,0,0,0,0,0,-1,853,1401,0,0
-364,-377,0,0,0,0,0,0,0,0,0,-1,860,1401,0,0
-357,-377,0,0,0,0,0,0,0,0,0,-1,867,1401,0,0
-350,-377,0,0,0,0,0,0,0,0,0,-1,874,1401,0,0
-343,-377,0,0,0,0,0,0,0,0,0,-1,881,1401,0,0
-336,-377,0,0,0,0,0,0,0,0,0,-1,888,1401,0,0
-329,-377,0,0,0,0,0,0,0,0,0,-1,895,1401,0,0
-322,-377,0,0,0,0,0,0,0,0,0,-1,902,1401,0,0
-315,-377,0,0,0,0,0,0,0,0,0,-1,909,1401,0,0
-308,-377,0,0,0,0,0,0,0,0,0,-1,916,1401,0,0
-301,-377,0,0,0,0,0,0,0,0,0,-1,923,1401,0,0
-294,-377,0,0,0,0,0,0,0,0,0,-1,930,1401,0,0
-287,-377,0,0,0,0,0,0,0,0,0,-1,937,1401,0,0
-280,-377,0,0,0,0,0,0,0,0,0,-1,944,1401,0,0
-273,-377,0,0,0,0,0,0,0,0,0,-1,951,1401,0,0
-266,-377,0,0,0,0,0,0,0,0,0,-1,958,1401,0,0
-259,-377,0,0,0,0,0,0,0,0,0,-1,965,1401,0,0
-252,-377,0,0,0,0,0,0,0,0,0,-1,972,1401,0,0
-245,-377,0,0,0,0,0,0,0,0,0,-1,979,1401,0,0
-238,-377,0,0,0,0,0,0,0,0,0,-1,986,1401,0,0
-231,-377,0,0,0,0,0,0,0,0,0,-1,993,1401,0,0
-224,-377,0,0,0,0,0,0,0,0,0,-1,1000,1401,0,0
-217,-377,0,0,0,0,0,0,0,0,0,-1,1007,1401,0,0
-210,-377,0,0,0,0,0,0,0,0,0,-1,1014,1401,0,0
-203,-377,0,0,0,0,0,0,0,0,0,-1,1021,1401,0,0
-196,-377,0,0,0,0,0,0,0,0,0,-1,1028,1401,0,0
-189,-377,0,0,0,0,0,0,0,0,0,-1,1035,1401,0,0
-182,-377,0,0,0,0,0,0,0,0,0,-1,1042,1401,0,0
-175,-377,0,0,0,0,0,0,0,0,0,-1,1049,1401,0,0
-168,-377,0,0,0,0,0,0,0,0,0,-1,1056,1401,0,0
-161,-377,0,0,0,0,0,0,0,0,0,-1,1063,1401,0,0
-154,-377,0,0,0,0,0,0,0,0,0,-1,1070,1401,0,0
-147,-377,0,0,0,0,0,0,0,0,0,-1,1077,1401,0,0
-140,-377,0,0,0,0,0,0,0,0,0,-1,1084,1401,0,0
-133,-377,0,0,0,0,0,0,0,0,0,-1,1091,1401,0,0
-126,-377,0,0,0,0,0,0,0,0,0,-1,1098,1401,0,0
-119,-377,0,0,0,0,0,0,0,0,0,-1,1105,1401,0,0
-112,-377,0,0,0,0,0,0,0,0,0,-1,1112,1401,0,0
-105,-377,0,0,0,0,0,0,0,0,0,-1,1119,1401,0,0
-98,-377,0,0,0,0,0,0,0,0,0,-1,1126,1401,0,0
-91,-377,0,0,0,0,0,0,0,0,0,-1,1133,1401,0,0
-84,-377,0,0,0,0,0,0,0,0,0,-1,1140,1401,0,0
-77,-377,0,0,0,0,0,0,0,0,0,-1,1147,1401,0,0
-70,-377,0,0,0,0,0,0,0,0,0,-1,1154,1401,0,0
-63,-377,0,0,0,0,0,0,0,0,0,-1,1161,1401,0,0
-56,-377,0,0,0,0,0,0,0,0,0,-1,1168,1401,0,0
-49,-377,0,0,0,0,0,0,0,0,0,-1,1175,1401,0,0
-42,-377,0,0,0,0,0,0,0,0,0,-1,1182,1401,0,0
-35,-377,0,0,0,0,0,0,0,0,0,-1,1189,1401,0,0
-28,-377,0,0,0,0,0,0,0,0,0,-1,1196,1401,0,0
-21,-377,0,0,0,0,0,0,0,0,0,-1,1203,1401,0,0
-14,-377,0,0,0,0,0,0,0,0,0,-1,1210,1401,0,0
-7,-377,0,0,0,0,0,0,0,0,0,-1,1217,1401,0,0
0,-377,0,0,0,0,0,0,0,0,0,-1,1224,1401,0,0
7,-377,0,0,0,0,0,0,0,0,0,-1,1231,1401,0,0
14,-377,0,0,0,0,0,0,0,0,0,-1,1238,1401,0,0
21,-377,0,0,0,0,0,0,0,0,0,-1,1245,1401,0,0
28,-377,0,0,0,0,0,0,0,0,0,-1,1252,1401,0,0
35,-377,0,0,0,0,0,0,0,0,0,-1,1259,1401,0,0
42,-377,0,0,0,0,0,0,0,0,0,-1,1266,1401,0,0
49,-377,0,0,0,0,0,0,0,0,0,-1,1273,1401,0,0
56,-377,0,0,0,0,0,0,0,0,0,-1,1280,1401,0,0
63,-377,0,0,0,0,0,0,0,0,0,-1,1287,1401,0,0
70,-377,0,0,0,0,0,0,0,0,0,-1,1294,1401,0,0
77,-377,0,0,0,0,0,0,0,0,0,-1,1301,1401,0,0
84,-377,0,0,0,0,0,0,0,0,0,-1,1308,1401,0,0
91,-377,0,0,0,0,0,0,0,0,0,-1,1315,1401,0,0
98,-377,0,0,0,0,0,0,0,0,0,-1,1322,1401,0,0
105,-377,0,0,0,0,0,0,0,0,0,-1,1329,1401,0,0
112,-377,0,0,0,0,0,0,0,0,0,-1,1336,1401,0,0
119,-377,0,0,0,0,0,0,0,0,0,-1,1343,1401,0,0
126,-377,0,0,0,0,0,0,0,0,0,-1,1350,1401,0,0
133,-377,0,0,0,0,0,0,0,0,0,-1,1357,1401,0,0
140,-377,0,0,0,0,0,0,0,0,0,-1,1364,1401,0,0
147,-377,0,0,0,0,0,0,0,0,0,-1,1371,1401,0,0
154,-377,0,0,0,0,0,0,0,0,0,-1,1378,1401,0,0
161,-377,0,0,0,0,0,0,0,0,0,-1,1385,1401,0,0
168,-377,0,0,0,0,0,0,0,0,0,-1,1392,1401,0,0
175,-377,0,0,0,0,0,0,0,0,0,-1,1399,1401,0,0
182,-377,0,0,0,0,0,0,0,0,0,-1,1406,1401,0,0
189,-377,0,0,0,0,0,0,0,0,0,-1,1413,1401,0,0
196,-377,0,0,0,0,0,0,0,0,0,-1,1420,1401,0,0
203,-377,0,0,0,0,0,0,0,0,0,-1,1427,1401,0,0
210,-377,0,0,0,0,0,0,0,0,0,-1,1434,1401,0,0
217,-377,0,0,0,0,0,0,0,0,0,-1,1441,1401,0,0
224,-377,0,0,0,0,0,0,0,0,0,-1,1448,1401,0,0
231,-377,0,0,0,0,0,0,0,0,0,-1,1455,1401,0,0
238,-377,0,0,0,0,0,0,0,0,0,-1,1462,1401,0,0
245,-377,0,0,0,0,0,0,0,0,0,-1,1469,1401,0,0
252,-377,0,0,0,0,0,0,0,0,0,-1,1476,1401,0,0
259,-377,0,0,0,0,0,0,0,0,0,-1,1483,1401,0,0
266,-377,0,0,0,0,0,0,0,0,0,-1,1490,1401,0,0
273,-377,0,0,0,0,0,0,0,0,0,-1,1497,1401,0,0
280,-377,0,0,0,0,0,0,0,0,0,-1,1504,1401,0,0
287,-377,0,0,0,0,0,0,0,0,0,-1,1511,1401,0,0
294,-377,0,0,0,0,0,0,0,0,0,-1,1518,1401,0,0
301,-377,0,0,0,0,0,0,0,0,0,-1,1525,1401,0,0
308,-377,0,0,0,0,0,0,0,0,0,-1,1532,1401,0,0
315,-377,0,0,0,0,0,0,0,0,0,-1,1539,1401,0,0
322,-377,0,0,0,0,0,0,0,0,0,-1,1546,1401,0,0
329,-377,0,0,0,0,0,0,0,0,0,-1,1553,1401,0,0
336,-377,0,0,0,0,0,0,0,0,0,-1,1560,1401,0,0
343,-377,0,0,0,0,0,0,0,0,0,-1,1567,1401,0,0
350,-377,0,0,0,0,0,0,0,0,0,-1,1574,1401,0,0
357,-377,0,0,0,0,0,0,0,0,0,-1,1581,1401,0,0
364,-377,0,0,0,0,0,0,0,0,0,-1,1588,1401,0,0
371,-377,0,0,0,0,0,0,0,0,0,-1,1595,1401,0,0
378,-377,0,0,0,0,0,0,0,0,0,-1,1602,1401,0,0
385,-377,0,0,0,0,0,0,0,0,0,-1,1609,1401,0,0
392,-377,0,0,0,0,0,0,0,0,0,-1,1616,1401,0,0
399,-377,0,0,0,0,0,0,0,0,0,-1,1623,1401,0,0
406,-377,0,0,0,0,0,0,0,0,0,-1,1630,1401,0,0
413,-377,0,0,0,0,0,0,0,0,0,-1,1637,1401,0,0
420,-377,0,0,0,0,0,0,0,0,0,-1,1644,1401,0,0
427,-377,0,0,0,0,0,0,0,0,0,-1,1651,1401,0,0
434,-377,0,0,0,0,0,0,0,0,0,-1,1658,1401,0,0
441,-377,0,0,0,0,0,0,0,0,0,-1,1665,1401,0,0
448,-377,0,0,0,0,0,0,0,0,0,-1,1672,1401,0,0
455,-377,0,0,0,0,0,0,0,0,0,-1,1679,1401,0,0
462,-377,0,0,0,0,0,0,0,0,0,-1,1686,1401,0,0
469,-377,0,0,0,0,0,0,0,0,0,-1,1693,1401,0,0
476,-377,0,0,0,0,0,0,0,0,0,-1,1700,1401,0,0
483,-377,0,0,0,0,0,0,0,0,0,-1,1707,1401,0,0
490,-377,0,0,0,0,0,0,0,0,0,-1,1714,1401,0,0
497,-377,0,0,0,0,0,0,0,0,0,-1,1721,1401,0,0
504,-377,0,0,0,0,0,0,0,0,0,-1,1728,1401,0,0
511,-377,0,0,0,0,0,0,0,0,0,-1,1735,1401,0,0
518,-377,0,0,0,0,0,0,0,0,0,-1,1742,1401,0,0
525,-377,0,0,0,0,0,0,0,0,0,-1,1749,1401,0,0
532,-377,0,0,0,0,0,0,0,0,0,-1,1756,1401,0,0
539,-377,0,0,0,0,0,0,0,0,0,-1,1763,1401,0,0
546,-377,27.8485,2.34094,0,0,0,0,0,0,0,-1,1770,1401,27.8486,-2.34091
553,-377,61.8907,2.39148,0,0,0,0,0,0,0,-1,1777,1401,61.8908,-2.39149
560,-377,38.3577,-2.15015,0,0,0,0,0,0,0,-1,1784,1401,38.3576,2.1501
567,-377,38.4889,-0.285645,0,0,0,0,0,0,0,-1,1791,1401,38.4889,0.2857
574,-377,38.6221,1.61694,0,0,0,0,0,0,0,-1,1798,1401,38.6221,-1.61689
581,-377,39.1818,3.76367,0,0,0,0,0,0,0,-1,1805,1401,39.1818,-3.76366
588,-377,25.882,4.35217,0,0,0,0,0,0,0,-1,1812,1401,25.8819,-4.3522
595,-377,25.5392,5.11804,0,0,0,0,0,0,0,-1,1819,1401,25.5392,-5.11808
602,-377,24.816,5.79126,0,0,0,0,0,0,0,-1,1826,1401,24.816,-5.79124
609,-377,15.0223,4.76135,0,0,0,0,0,0,0,-1,1833,1401,15.0224,-4.76129
616,-377,14.1842,5.78992,0,0,0,0,0,0,0,-1,1840,1401,14.1842,-5.78987
623,-377,15.8248,8.76721,0,0,0,0,0,0,0,-1,1847,1401,15.8248,-8.76725
630,-377,37.4343,20.0704,0,0,0,0,0,0,0,-1,1854,1401,37.4344,-20.0704
637,-377,41.0012,20.8385,0,0,0,0,0,0,0,-1,1861,1401,41.0012,-20.8385
644,-377,41.1167,19.967,-0.000321204,0.000570319,-1.59295e-06,0.000570321,-0.000321206,-1.56901,0.000521379,0.0148242,1868,1401,41.1167,-19.9671
651,-377,41.0692,19.1709,0.000279619,0.000283454,4.64217e-05,0.000327998,0.000235075,0.806035,0.000195208,0.0143614,1875,1401,41.0692,-19.1709
658,-377,41.0353,18.4213,0.00109582,-3.49575e-06,-8.87265e-06,0.00109589,-3.56731e-06,-0.0080704,0.000731783,0.0151221,1882,1401,41.0352,-18.4213
665,-377,41.0164,17.6356,0.0020864,-0.000354774,-0.000106658,0.00209105,-0.000359425,-0.0435804,0.001528,0.019237,1889,1401,41.0163,-17.6356
672,-377,40.9426,16.8474,0.00327421,-0.000818059,-0.000232775,0.00328741,-0.000831258,-0.0566381,0.00251491,0.0200165,1896,1401,40.9426,-16.8474
679,-377,40.8739,16.0819,0.00467066,-0.00139025,-0.000395908,0.00469642,-0.001416,-0.0649536,0.00369453,0.0198202,1903,1401,40.874,-16.0819
686,-377,40.847,15.3385,0.00631448,-0.00207643,-0.000614649,0.00635926,-0.00212122,-0.0727344,0.00509593,0.0167774,1910,1401,40.8471,-15.3385
693,-377,40.9178,14.4647,0.00819431,-0.00286413,-0.000875517,0.0082632,-0.00293302,-0.0785199,0.00670387,0.0273761,1917,1401,40.9179,-14.4647
700,-377,41.2238,13.4254,0,0,0,0,0,0,0,-1,1924,1401,41.2237,-13.4254
707,-377,28.6234,9.18152,0,0,0,0,0,0,0,-1,1931,1401,28.6234,-9.18151
714,-377,16.5369,5.45959,0,0,0,0,0,0,0,-1,1938,1401,16.5369,-5.4596
721,-377,17.0913,5.42529,0,0,0,0,0,0,0,-1,1945,1401,17.0914,-5.42529
728,-377,14.5396,2.79724,0,0,0,0,0,0,0,-1,1952,1401,14.5396,-2.7972
735,-377,23.2977,-0.991089,0,0,0,0,0,0,0,-1,1959,1401,23.2978,0.991076
742,-377,0,0,0,0,0,0,0,0,0,-1,1966,1401,0,0
749,-377,0,0,0,0,0,0,0,0,0,-1,1973,1401,0,0
756,-377,0,0,0,0,0,0,0,0,0,-1,1980,1401,0,0
763,-377,0,0,0,0,0,0,0,0,0,-1,1987,1401,0,0
770,-377,0,0,0,0,0,0,0,0,0,-1,1994,1401,0,0
777,-377,0,0,0,0,0,0,0,0,0,-1,2001,1401,0,0
784,-377,0,0,0,0,0,0,0,0,0,-1,2008,1401,0,0
791,-377,0,0,0,0,0,0,0,0,0,-1,2015,1401,0,0
798,-377,0,0,0,0,0,0,0,0,0,-1,2022,1401,0,0
805,-377,0,0,0,0,0,0,0,0,0,-1,2029,1401,0,0
812,-377,0,0,0,0,0,0,0,0,0,-1,2036,1401,0,0
-700,-384,0,0,0,0,0,0,0,0,0,-1,524,1408,0,0
-693,-384,0,0,0,0,0,0,0,0,0,-1,531,1408,0,0
-686,-384,0,0,0,0,0,0,0,0,0,-1,538,1408,0,0
-679,-384,0,0,0,0,0,0,0,0,0,-1,545,1408,0,0
-672,-384,0,0,0,0,0,0,0,0,0,-1,552,1408,0,0
-665,-384,0,0,0,0,0,0,0,0,0,-1,559,1408,0,0
-658,-384,0,0,0,0,0,0,0,0,0,-1,566,1408,0,0
-651,-384,0,0,0,0,0,0,0,0,0,-1,573,1408,0,0
-644,-384,0,0,0,0,0,0,0,0,0,-1,580,1408,0,0
-637,-384,0,0,0,0,0,0,0,0,0,-1,587,1408,0,0
-630,-384,0,0,0,0,0,0,0,0,0,-1,594,1408,0,0
-623,-384,0,0,0,0,0,0,0,0,0,-1,601,1408,0,0
-616,-384,-10.019,-3.36646,0,0,0,0,0,0,0,-1,608,1408,-10.019,3.36648
-609,-384,-7.72357,-2.3418,0,0,0,0,0,0,0,-1,615,1408,-7.72358,2.34182
-602,-384,-11.7632,-2.85156,0,0,0,0,0,0,0,-1,622,1408,-11.7632,2.85157
-595,-384,-10.2217,2.8855,0,0,0,0,0,0,0,-1,629,1408,-10.2218,-2.88548
-588,-384,-12.1653,2.29041,0,0,0,0,0,0,0,-1,636,1408,-12.1654,-2.29038
-581,-384,-11.9297,3.60376,0,0,0,0,0,0,0,-1,643,1408,-11.9298,-3.6038
-574,-384,-11.8677,6.02722,0,0,0,0,0,0,0,-1,650,1408,-11.8677,-6.02722
-567,-384,-12.0743,7.04639,0,0,0,0,0,0,0,-1,657,1408,-12.0743,-7.04641
-560,-384,-19.9478,11.6345,0,0,0,0,0,0,0,-1,664,1408,-19.9478,-11.6345
-553,-384,-23.1455,14.6198,0,0,0,0,0,0,0,-1,671,1408,-23.1455,-14.6198
-546,-384,-23.158,15.5449,0.00453845,0.00256482,0.0026176,0.00634907,0.000754196,0.60514,0.00400505,0.0154494,678,1408,-23.158,-15.5449
-539,-384,-23.2042,16.324,0.0037287,0.00177846,0.00200396,0.00498219,0.000524967,0.558965,0.00316103,0.0165706,685,1408,-23.2042,-16.324
-532,-384,-23.2033,17.0631,0.00320549,0.00116539,0.00159061,0.00407503,0.000295856,0.500283,0.00262363,0.0233253,692,1408,-23.2033,-17.063
-525,-384,-23.2164,17.9271,0.00292952,0.000739448,0.00136172,0.00358188,8.70883e-05,0.446764,0.00235943,0.024599,699,1408,-23.2164,-17.9271
-518,-384,-23.2842,18.7804,0.00284913,0.000446104,0.00127597,0.00340025,-0.000105017,0.407721,0.00230264,0.0150455,706,1408,-23.2842,-18.7804
-511,-384,-23.3618,19.6158,0.00296693,0.000315182,0.00133538,0.00352286,-0.00024075,0.394486,0.0024328,0.0111028,713,1408,-23.3618,-19.6159
-504,-384,-23.3773,20.4495,0.00330799,0.000361518,0.0015765,0.00399249,-0.000322973,0.409623,0.00277559,0.0126366,720,1408,-23.3773,-20.4494
-497,-384,-23.3851,21.2775,0,0,0,0,0,0,0,-1,727,1408,-23.3852,-21.2774
-490,-384,-22.6996,22.2268,0,0,0,0,0,0,0,-1,734,1408,-22.6996,-22.2268
-483,-384,-6.26471,7.61194,0,0,0,0,0,0,0,-1,741,1408,-6.26469,-7.61191
-476,-384,-6.02734,5.67761,0,0,0,0,0,0,0,-1,748,1408,-6.02736,-5.6776
-469,-384,-10.206,2.63721,0,0,0,0,0,0,0,-1,755,1408,-10.206,-2.6372
-462,-384,-9.04291,1.43542,0,0,0,0,0,0,0,-1,762,1408,-9.04293,-1.43545
-455,-384,-7.87988,0.233765,0,0,0,0,0,0,0,-1,769,1408,-7.87986,-0.233709
-448,-384,-9.35529,7.19226,0,0,0,0,0,0,0,-1,776,1408,-9.35531,-7.19226
-441,-384,-10.4697,1.79004,0,0,0,0,0,0,0,-1,783,1408,-10.4697,-1.79003
-434,-384,-10.6449,0.552246,0,0,0,0,0,0,0,-1,790,1408,-10.6449,-0.552216
-427,-384,-10.968,1.10583,0,0,0,0,0,0,0,-1,797,1408,-10.968,-1.10588
-420,-384,-12.5607,4.54858,0,0,0,0,0,0,0,-1,804,1408,-12.5607,-4.54859
-413,-384,0,0,0,0,0,0,0,0,0,-1,811,1408,0,0
-406,-384,0,0,0,0,0,0,0,0,0,-1,818,1408,0,0
-399,-384,0,0,0,0,0,0,0,0,0,-1,825,1408,0,0
-392,-384,0,0,0,0,0,0,0,0,0,-1,832,1408,0,0
-385,-384,0,0,0,0,0,0,0,0,0,-1,839,1408,0,0
-378,-384,0,0,0,0,0,0,0,0,0,-1,846,1408,0,0
-371,-384,0,0,0,0,0,0,0,0,0,-1,853,1408,0,0
-364,-384,0,0,0,0,0,0,0,0,0,-1,860,1408,0,0
-357,-384,0,0,0,0,0,0,0,0,0,-1,867,1408,0,0
-350,-384,0,0,0,0,0,0,0,0,0,-1,874,1408,0,0
-343,-384,0,0,0,0,0,0,0,0,0,-1,881,1408,0,0
-336,-384,0,0,0,0,0,0,0,0,0,-1,888,1408,0,0
-329,-384,0,0,0,0,0,0,0,0,0,-1,895,1408,0,0
-322,-384,0,0,0,0,0,0,0,0,0,-1,902,1408,0,0
-315,-384,0,0,0,0,0,0,0,0,0,-1,909,1408,0,0
-308,-384,0,0,0,0,0,0,0,0,0,-1,916,1408,0,0
-301,-384,0,0,0,0,0,0,0,0,0,-1,923,1408,0,0
-294,-384,0,0,0,0,0,0,0,0,0,-1,930,1408,0,0
-287,-384,0,0,0,0,0,0,0,0,0,-1,937,1408,0,0
-280,-384,0,0,0,0,0,0,0,0,0,-1,944,1408,0,0
-273,-384,0,0,0,0,0,0,0,0,0,-1,951,1408,0,0
-266,-384,0,0,0,0,0,0,0,0,0,-1,958,1408,0,0
-259,-384,0,0,0,0,0,0,0,0,0,-1,965,1408,0,0
-252,-384,0,0,0,0,0,0,0,0,0,-1,972,1408,0,0
-245,-384,0,0,0,0,0,0,0,0,0,-1,979,1408,0,0
-238,-384,0,0,0,0,0,0,0,0,0,-1,986,1408,0,0
-231,-384,0,0,0,0,0,0,0,0,0,-1,993,1408,0,0
-224,-384,0,0,0,0,0,0,0,0,0,-1,1000,1408,0,0
-217,-384,0,0,0,0,0,0,0,0,0,-1,1007,1408,0,0
-210,-384,0,0,0,0,0,0,0,0,0,-1,1014,1408,0,0
-203,-384,0,0,0,0,0,0,0,0,0,-1,1021,1408,0,0
-196,-384,0,0,0,0,0,0,0,0,0,-1,1028,1408,0,0
-189,-384,0,0,0,0,0,0,0,0,0,-1,1035,1408,0,0
-182,-384,0,0,0,0,0,0,0,0,0,-1,1042,1408,0,0
-175,-384,0,0,0,0,0,0,0,0,0,-1,1049,1408,0,0
-168,-384,0,0,0,0,0,0,0,0,0,-1,1056,1408,0,0
-161,-384,0,0,0,0,0,0,0,0,0,-1,1063,1408,0,0
-154,-384,0,0,0,0,0,0,0,0,0,-1,1070,1408,0,0
-147,-384,0,0,0,0,0,0,0,0,0,-1,1077,1408,0,0
-140,-384,0,0,0,0,0,0,0,0,0,-1,1084,1408,0,0
-133,-384,0,0,0,0,0,0,0,0,0,-1,1091,1408,0,0
-126,-384,0,0,0,0,0,0,0,0,0,-1,1098,1408,0,0
-119,-384,0,0,0,0,0,0,0,0,0,-1,1105,1408,0,0
-112,-384,0,0,0,0,0,0,0,0,0,-1,1112,1408,0,0
-105,-384,0,0,0,0,0,0,0,0,0,-1,1119,1408,0,0
-98,-384,0,0,0,0,0,0,0,0,0,-1,1126,1408,0,0
-91,-384,0,0,0,0,0,0,0,0,0,-1,1133,1408,0,0
-84,-384,0,0,0,0,0,0,0,0,0,-1,1140,1408,0,0
-77,-384,0,0,0,0,0,0,0,0,0,-1,1147,1408,0,0
-70,-384,0,0,0,0,0,0,0,0,0,-1,1154,1408,0,0
-63,-384,0,0,0,0,0,0,0,0,0,-1,1161,1408,0,0
-56,-384,0,0,0,0,0,0,0,0,0,-1,1168,1408,0,0
-49,-384,0,0,0,0,0,0,0,0,0,-1,1175,1408,0,0
-42,-384,0,0,0,0,0,0,0,0,0,-1,1182,1408,0,0
-35,-384,0,0,0,0,0,0,0,0,0,-1,1189,1408,0,0
-28,-384,0,0,0,0,0,0,0,0,0,-1,1196,1408,0,0
-21,-384,0,0,0,0,0,0,0,0,0,-1,1203,1408,0,0
-14,-384,0,0,0,0,0,0,0,0,0,-1,1210,1408,0,0
-7,-384,0,0,0,0,0,0,0,0,0,-1,1217,1408,0,0
0,-384,0,0,0,0,0,0,0,0,0,-1,1224,1408,0,0
7,-384,0,0,0,0,0,0,0,0,0,-1,1231,1408,0,0
14,-384,0,0,0,0,0,0,0,0,0,-1,1238,1408,0,0
21,-384,0,0,0,0,0,0,0,0,0,-1,1245,1408,0,0
28,-384,0,0,0,0,0,0,0,0,0,-1,1252,1408,0,0
35,-384,0,0,0,0,0,0,0,0,0,-1,1259,1408,0,0
42,-384,0,0,0,0,0,0,0,0,0,-1,1266,1408,0,0
49,-384,0,0,0,0,0,0,0,0,0,-1,1273,1408,0,0
56,-384,0,0,0,0,0,0,0,0,0,-1,1280,1408,0,0
63,-384,0,0,0,0,0,0,0,0,0,-1,1287,1408,0,0
70,-384,0,0,0,0,0,0,0,0,0,-1,1294,1408,0,0
77,-384,0,0,0,0,0,0,0,0,0,-1,1301,1408,0,0
84,-384,0,0,0,0,0,0,0,0,0,-1,1308,1408,0,0
91,-384,0,0,0,0,0,0,0,0,0,-1,1315,1408,0,0
98,-384,0,0,0,0,0,0,0,0,0,-1,1322,1408,0,0
105,-384,0,0,0,0,0,0,0,0,0,-1,1329,1408,0,0
112,-384,0,0,0,0,0,0,0,0,0,-1,1336,1408,0,0
119,-384,0,0,0,0,0,0,0,0,0,-1,1343,1408,0,0
126,-384,0,0,0,0,0,0,0,0,0,-1,1350,1408,0,0
133,-384,0,0,0,0,0,0,0,0,0,-1,1357,1408,0,0
140,-384,0,0,0,0,0,0,0,0,0,-1,1364,1408,0,0
147,-384,0,0,0,0,0,0,0,0,0,-1,1371,1408,0,0
154,-384,0,0,0,0,0,0,0,0,0,-1,1378,1408,0,0
161,-384,0,0,0,0,0,0,0,0,0,-1,1385,1408,0,0
168,-384,0,0,0,0,0,0,0,0,0,-1,1392,1408,0,0
175,-384,0,0,0,0,0,0,0,0,0,-1,1399,1408,0,0
182,-384,0,0,0,0,0,0,0,0,0,-1,1406,1408,0,0
189,-384,0,0,0,0,0,0,0,0,0,-1,1413,1408,0,0
196,-384,0,0,0,0,0,0,0,0,0,-1,1420,1408,0,0
203,-384,0,0,0,0,0,0,0,0,0,-1,1427,1408,0,0
210,-384,0,0,0,0,0,0,0,0,0,-1,1434,1408,0,0
217,-384,0,0,0,0,0,0,0,0,0,-1,1441,1408,0,0
224,-384,0,0,0,0,0,0,0,0,0,-1,1448,1408,0,0
231,-384,0,0,0,0,0,0,0,0,0,-1,1455,1408,0,0
238,-384,0,0,0,0,0,0,0,0,0,-1,1462,1408,0,0
245,-384,0,0,0,0,0,0,0,0,0,-1,1469,1408,0,0
252,-384,0,0,0,0,0,0,0,0,0,-1,1476,1408,0,0
259,-384,0,0,0,0,0,0,0,0,0,-1,1483,1408,0,0
266,-384,0,0,0,0,0,0,0,0,0,-1,1490,1408,0,0
273,-384,0,0,0,0,0,0,0,0,0,-1,1497,1408,0,0
280,-384,0,0,0,0,0,0,0,0,0,-1,1504,1408,0,0
287,-384,0,0,0,0,0,0,0,0,0,-1,1511,1408,0,0
294,-384,0,0,0,0,0,0,0,0,0,-1,1518,1408,0,0
301,-384,0,0,0,0,0,0,0,0,0,-1,1525,1408,0,0
308,-384,0,0,0,0,0,0,0,0,0,-1,1532,1408,0,0
315,-384,0,0,0,0,0,0,0,0,0,-1,1539,1408,0,0
322,-384,0,0,0,0,0,0,0,0,0,-1,1546,1408,0,0
329,-384,0,0,0,0,0,0,0,0,0,-1,1553,1408,0,0
336,-384,0,0,0,0,0,0,0,0,0,-1,1560,1408,0,0
343,-384,0,0,0,0,0,0,0,0,0,-1,1567,1408,0,0
350,-384,0,0,0,0,0,0,0,0,0,-1,1574,1408,0,0
357,-384,0,0,0,0,0,0,0,0,0,-1,1581,1408,0,0
364,-384,0,0,0,0,0,0,0,0,0,-1,1588,1408,0,0
371,-384,0,0,0,0,0,0,0,0,0,-1,1595,1408,0,0
378,-384,0,0,0,0,0,0,0,0,0,-1,1602,1408,0,0
385,-384,0,0,0,0,0,0,0,0,0,-1,1609,1408,0,0
392,-384,0,0,0,0,0,0,0,0,0,-1,1616,1408,0,0
399,-384,0,0,0,0,0,0,0,0,0,-1,1623,1408,0,0
406,-384,0,0,0,0,0,0,0,0,0,-1,1630,1408,0,0
413,-384,0,0,0,0,0,0,0,0,0,-1,1637,1408,0,0
420,-384,0,0,0,0,0,0,0,0,0,-1,1644,1408,0,0
427,-384,0,0,0,0,0,0,0,0,0,-1,1651,1408,0,0
434,-384,0,0,0,0,0,0,0,0,0,-1,1658,1408,0,0
441,-384,0,0,0,0,0,0,0,0,0,-1,1665,1408,0,0
448,-384,0,0,0,0,0,0,0,0,0,-1,1672,1408,0,0
455,-384,0,0,0,0,0,0,0,0,0,-1,1679,1408,0,0
462,-384,0,0,0,0,0,0,0,0,0,-1,1686,1408,0,0
469,-384,0,0,0,0,0,0,0,0,0,-1,1693,1408,0,0
476,-384,0,0,0,0,0,0,0,0,0,-1,1700,1408,0,0
483,-384,0,0,0,0,0,0,0,0,0,-1,1707,1408,0,0
490,-384,0,0,0,0,0,0,0,0,0,-1,1714,1408,0,0
497,-384,0,0,0,0,0,0,0,0,0,-1,1721,1408,0,0
504,-384,0,0,0,0,0,0,0,0,0,-1,1728,1408,0,0
511,-384,0,0,0,0,0,0,0,0,0,-1,1735,1408,0,0
518,-384,0,0,0,0,0,0,0,0,0,-1,1742,1408,0,0
525,-384,0,0,0,0,0,0,0,0,0,-1,1749,1408,0,0
532,-384,0,0,0,0,0,0,0,0,0,-1,1756,1408,0,0
539,-384,27.6886,2.85803,0,0,0,0,0,0,0,-1,1763,1408,27.6886,-2.85807
546,-384,27.5044,2.9425,0,0,0,0,0,0,0,-1,1770,1408,27.5044,-2.94255
553,-384,27.3052,2.78394,0,0,0,0,0,0,0,-1,1777,1408,27.3051,-2.78394
560,-384,26.833,3.19812,0,0,0,0,0,0,0,-1,1784,1408,26.833,-3.19816
567,-384,38.2566,0.109985,0,0,0,0,0,0,0,-1,1791,1408,38.2566,-0.110044
574,-384,38.4003,2.05945,0,0,0,0,0,0,0,-1,1798,1408,38.4003,-2.05949
581,-384,25.819,3.91846,0,0,0,0,0,0,0,-1,1805,1408,25.8189,-3.91848
588,-384,23.3721,4.25439,0,0,0,0,0,0,0,-1,1812,1408,23.3721,-4.25442
595,-384,24.981,5.59595,0,0,0,0,0,0,0,-1,1819,1408,24.981,-5.59598
602,-384,20.6605,4.17261,0,0,0,0,0,0,0,-1,1826,1408,20.6606,-4.17265
609,-384,14.158,5.49475,0,0,0,0,0,0,0,-1,1833,1408,14.158,-5.49474
616,-384,14.7997,7.6908,0,0,0,0,0,0,0,-1,1840,1408,14.7996,-7.69079
623,-384,16.4293,9.58899,0,0,0,0,0,0,0,-1,1847,1408,16.4294,-9.58901
630,-384,40.2789,21.6595,0,0,0,0,0,0,0,-1,1854,1408,40.2789,-21.6595
637,-384,40.3459,20.8031,-0.000126922,-9.02908e-05,0.000297199,0.000189156,-0.000406369,0.816173,0.000351367,0.0262665,1861,1408,40.3459,-20.8031
644,-384,40.2808,20.0502,6.76131e-05,0.000275041,0.000129075,0.000336907,5.7468e-06,1.12384,0.000222714,0.0167251,1868,1408,40.2807,-20.0501
651,-384,40.2405,19.2301,0.000701368,8.77746e-05,7.48121e-05,0.000710357,7.87848e-05,0.119591,0.000449617,0.0156803,1875,1408,40.2404,-19.2301
658,-384,40.208,18.4417,0.00155465,-0.000164054,-3.09068e-05,0.0015552,-0.00016461,-0.0179749,0.0010958,0.0159857,1882,1408,40.208,-18.4416
665,-384,40.2231,17.6912,0.0026204,-0.0005135,-0.000164635,0.00262902,-0.000522125,-0.0523416,0.00195016,0.0185668,1889,1408,40.2231,-17.6911
672,-384,40.1658,16.9003,0.003923,-0.00103322,-0.000297225,0.00394076,-0.00105098,-0.0596851,0.0030387,0.0181418,1896,1408,40.1657,-16.9002
679,-384,40.0842,16.12,0.00548023,-0.00173914,-0.000435619,0.00550642,-0.00176533,-0.0600499,0.00437964,0.0178746,1903,1408,40.0843,-16.12
686,-384,40.0552,15.3618,0.00733278,-0.00267251,-0.000588291,0.00736725,-0.00270699,-0.0585291,0.00602023,0.0152105,1910,1408,40.0552,-15.3618
693,-384,40.1885,14.5762,0.00946615,-0.00384397,-0.000726689,0.00950571,-0.00388353,-0.0543812,0.0079542,0.0457589,1917,1408,40.1885,-14.5762
700,-384,40.3927,13.8397,0,0,0,0,0,0,0,-1,1924,1408,40.3927,-13.8397
707,-384,17.0566,6.62842,0,0,0,0,0,0,0,-1,1931,1408,17.0567,-6.62848
714,-384,16.038,5.0282,0,0,0,0,0,0,0,-1,1938,1408,16.038,-5.02819
721,-384,13.8843,2.8717,0,0,0,0,0,0,0,-1,1945,1408,13.8843,-2.87171
728,-384,15.4409,6.25745,0,0,0,0,0,0,0,-1,1952,1408,15.4409,-6.2574
735,-384,16.7598,6.71289,0,0,0,0,0,0,0,-1,1959,1408,16.7598,-6.71287
742,-384,0,0,0,0,0,0,0,0,0,-1,1966,1408,0,0
749,-384,0,0,0,0,0,0,0,0,0,-1,1973,1408,0,0
756,-384,0,0,0,0,0,0,0,0,0,-1,1980,1408,0,0
763,-384,0,0,0,0,0,0,0,0,0,-1,1987,1408,0,0
770,-384,0,0,0,0,0,0,0,0,0,-1,1994,1408,0,0
777,-384,0,0,0,0,0,0,0,0,0,-1,2001,1408,0,0
784,-384,0,0,0,0,0,0,0,0,0,-1,2008,1408,0,0
791,-384,0,0,0,0,0,0,0,0,0,-1,2015,1408,0,0
798,-384,0,0,0,0,0,0,0,0,0,-1,2022,1408,0,0
805,-384,0,0,0,0,0,0,0,0,0,-1,2029,1408,0,0
812,-384,0,0,0,0,0,0,0,0,0,-1,2036,1408,0,0
-700,-391,0,0,0,0,0,0,0,0,0,-1,524,1415,0,0
-693,-391,0,0,0,0,0,0,0,0,0,-1,531,1415,0,0
-686,-391,0,0,0,0,0,0,0,0,0,-1,538,1415,0,0
-679,-391,0,0,0,0,0,0,0,0,0,-1,545,1415,0,0
-672,-391,0,0,0,0,0,0,0,0,0,-1,552,1415,0,0
-665,-391,0,0,0,0,0,0,0,0,0,-1,559,1415,0,0
-658,-391,0,0,0,0,0,0,0,0,0,-1,566,1415,0,0
-651,-391,0,0,0,0,0,0,0,0,0,-1,573,1415,0,0
-644,-391,0,0,0,0,0,0,0,0,0,-1,580,1415,0,0
-637,-391,0,0,0,0,0,0,0,0,0,-1,587,1415,0,0
-630,-391,0,0,0,0,0,0,0,0,0,-1,594,1415,0,0
-623,-391,0,0,0,0,0,0,0,0,0,-1,601,1415,0,0
-616,-391,0,0,0,0,0,0,0,0,0,-1,608,1415,0,0
-609,-391,-7.71753,-3.69763,0,0,0,0,0,0,0,-1,615,1415,-7.71751,3.69759
-602,-391,-13.9493,-4.12805,0,0,0,0,0,0,0,-1,622,1415,-13.9493,4.12803
-595,-391,-10.8315,1.76172,0,0,0,0,0,0,0,-1,629,1415,-10.8315,-1.76171
-588,-391,-10.265,2.16431,0,0,0,0,0,0,0,-1,636,1415,-10.265,-2.16431
-581,-391,-11.3325,2.44836,0,0,0,0,0,0,0,-1,643,1415,-11.3325,-2.44842
-574,-391,-11.1471,6.19983,0,0,0,0,0,0,0,-1,650,1415,-11.1471,-6.19981
-567,-391,-11.5172,6.82458,0,0,0,0,0,0,0,-1,657,1415,-11.5171,-6.82454
-560,-391,-11.2459,7.37195,0,0,0,0,0,0,0,-1,664,1415,-11.2459,-7.37191
-553,-391,-22.4261,14.6667,0,0,0,0,0,0,0,-1,671,1415,-22.4261,-14.6667
-546,-391,-22.3566,15.5479,0.0050959,0.0031814,0.00307403,0.00735827,0.000919022,0.634458,0.00462968,0.0210655,678,1415,-22.3566,-15.5479
-539,-391,-22.3267,16.391,0.0040652,0.00226887,0.0023391,0.00567265,0.000661424,0.602088,0.00358171,0.0144134,685,1415,-22.3267,-16.391
-532,-391,-22.3571,17.1896,0.00334104,0.00151487,0.00179182,0.004439,0.000416899,0.549755,0.00283062,0.0262455,692,1415,-22.357,-17.1896
-525,-391,-22.4196,18.0447,0.00289192,0.00100176,0.0014525,0.00367974,0.000213938,0.496979,0.00238505,0.025832,699,1415,-22.4196,-18.0447
-518,-391,-22.4965,18.8605,0.00263177,0.000630657,0.00125341,0.00323501,2.74187e-05,0.448557,0.00214759,0.0160877,706,1415,-22.4965,-18.8605
-511,-391,-22.5302,19.667,0.00254362,0.000416115,0.00117259,0.00306308,-0.00010334,0.417014,0.00207736,0.014065,713,1415,-22.5302,-19.667
-504,-391,-22.5611,20.4752,0.00263602,0.000363014,0.00124259,0.00318346,-0.000184429,0.41498,0.00218638,0.0125636,720,1415,-22.5611,-20.4752
-497,-391,-22.5988,21.2729,0.00286136,0.000466402,0.00144554,0.00354099,-0.000213225,0.439489,0.00243485,0.0146828,727,1415,-22.5988,-21.273
-490,-391,-22.6005,22.0673,0,0,0,0,0,0,0,-1,734,1415,-22.6005,-22.0672
-483,-391,-11.1018,12.9382,0,0,0,0,0,0,0,-1,741,1415,-11.1018,-12.9382
-476,-391,-6.05731,6.85303,0,0,0,0,0,0,0,-1,748,1415,-6.05728,-6.85304
-469,-391,-3.88953,5.0979,0,0,0,0,0,0,0,-1,755,1415,-3.88955,-5.09794
-462,-391,-8.67688,2.03125,0,0,0,0,0,0,0,-1,762,1415,-8.67685,-2.03121
-455,-391,-8.65576,6.46997,0,0,0,0,0,0,0,-1,769,1415,-8.65579,-6.46999
-448,-391,-8.39618,4.38403,0,0,0,0,0,0,0,-1,776,1415,-8.39617,-4.38405
-441,-391,-9.77704,2.5946,0,0,0,0,0,0,0,-1,783,1415,-9.77702,-2.5946
-434,-391,-11.5403,2.12878,0,0,0,0,0,0,0,-1,790,1415,-11.5403,-2.12881
-427,-391,-10.5311,2.50403,0,0,0,0,0,0,0,-1,797,1415,-10.5311,-2.504
-420,-391,-14.7087,1.24365,0,0,0,0,0,0,0,-1,804,1415,-14.7088,-1.24365
-413,-391,0,0,0,0,0,0,0,0,0,-1,811,1415,0,0
-406,-391,0,0,0,0,0,0,0,0,0,-1,818,1415,0,0
-399,-391,0,0,0,0,0,0,0,0,0,-1,825,1415,0,0
-392,-391,0,0,0,0,0,0,0,0,0,-1,832,1415,0,0
-385,-391,0,0,0,0,0,0,0,0,0,-1,839,1415,0,0
-378,-391,0,0,0,0,0,0,0,0,0,-1,846,1415,0,0
-371,-391,0,0,0,0,0,0,0,0,0,-1,853,1415,0,0
-364,-391,0,0,0,0,0,0,0,0,0,-1,860,1415,0,0
-357,-391,0,0,0,0,0,0,0,0,0,-1,867,1415,0,0
-350,-391,0,0,0,0,0,0,0,0,0,-1,874,1415,0,0
-343,-391,0,0,0,0,0,0,0,0,0,-1,881,1415,0,0
-336,-391,0,0,0,0,0,0,0,0,0,-1,888,1415,0,0
-329,-391,0,0,0,0,0,0,0,0,0,-1,895,1415,0,0
-322,-391,0,0,0,0,0,0,0,0,0,-1,902,1415,0,0
-315,-391,0,0,0,0,0,0,0,0,0,-1,909,1415,0,0
-308,-391,0,0,0,0,0,0,0,0,0,-1,916,1415,0,0
-301,-391,0,0,0,0,0,0,0,0,0,-1,923,1415,0,0
-294,-391,0,0,0,0,0,0,0,0,0,-1,930,1415,0,0
-287,-391,0,0,0,0,0,0,0,0,0,-1,937,1415,0,0
-280,-391,0,0,0,0,0,0,0,0,0,-1,944,1415,0,0
-273,-391,0,0,0,0,0,0,0,0,0,-1,951,1415,0,0
-266,-391,0,0,0,0,0,0,0,0,0,-1,958,1415,0,0
-259,-391,0,0,0,0,0,0,0,0,0,-1,965,1415,0,0
-252,-391,0,0,0,0,0,0,0,0,0,-1,972,1415,0,0
-245,-391,0,0,0,0,0,0,0,0,0,-1,979,1415,0,0
-238,-391,0,0,0,0,0,0,0,0,0,-1,986,1415,0,0
-231,-391,0,0,0,0,0,0,0,0,0,-1,993,1415,0,0
-224,-391,0,0,0,0,0,0,0,0,0,-1,1000,1415,0,0
-217,-391,0,0,0,0,0,0,0,0,0,-1,1007,1415,0,0
-210,-391,0,0,0,0,0,0,0,0,0,-1,1014,1415,0,0
-203,-391,0,0,0,0,0,0,0,0,0,-1,1021,1415,0,0
-196,-391,0,0,0,0,0,0,0,0,0,-1,1028,1415,0,0
-189,-391,0,0,0,0,0,0,0,0,0,-1,1035,1415,0,0
-182,-391,0,0,0,0,0,0,0,0,0,-1,1042,1415,0,0
-175,-391,0,0,0,0,0,0,0,0,0,-1,1049,1415,0,0
-168,-391,0,0,0,0,0,0,0,0,0,-1,1056,1415,0,0
-161,-391,0,0,0,0,0,0,0,0,0,-1,1063,1415,0,0
-154,-391,0,0,0,0,0,0,0,0,0,-1,1070,1415,0,0
-147,-391,0,0,0,0,0,0,0,0,0,-1,1077,1415,0,0
-140,-391,0,0,0,0,0,0,0,0,0,-1,1084,1415,0,0
-133,-391,0,0,0,0,0,0,0,0,0,-1,1091,1415,0,0
-126,-391,0,0,0,0,0,0,0,0,0,-1,1098,1415,0,0
-119,-391,0,0,0,0,0,0,0,0,0,-1,1105,1415,0,0
-112,-391,0,0,0,0,0,0,0,0,0,-1,1112,1415,0,0
-105,-391,0,0,0,0,0,0,0,0,0,-1,1119,1415,0,0
-98,-391,0,0,0,0,0,0,0,0,0,-1,1126,1415,0,0
-91,-391,0,0,0,0,0,0,0,0,0,-1,1133,1415,0,0
-84,-391,0,0,0,0,0,0,0,0,0,-1,1140,1415,0,0
-77,-391,0,0,0,0,0,0,0,0,0,-1,1147,1415,0,0
-70,-391,0,0,0,0,0,0,0,0,0,-1,1154,1415,0,0
-63,-391,0,0,0,0,0,0,0,0,0,-1,1161,1415,0,0
-56,-391,0,0,0,0,0,0,0,0,0,-1,1168,1415,0,0
-49,-391,0,0,0,0,0,0,0,0,0,-1,1175,1415,0,0
-42,-391,0,0,0,0,0,0,0,0,0,-1,1182,1415,0,0
-35,-391,0,0,0,0,0,0,0,0,0,-1,1189,1415,0,0
-28,-391,0,0,0,0,0,0,0,0,0,-1,1196,1415,0,0
-21,-391,0,0,0,0,0,0,0,0,0,-1,1203,1415,0,0
-14,-391,0,0,0,0,0,0,0,0,0,-1,1210,1415,0,0
-7,-391,0,0,0,0,0,0,0,0,0,-1,1217,1415,0,0
0,-391,0,0,0,0,0,0,0,0,0,-1,1224,1415,0,0
7,-391,0,0,0,0,0,0,0,0,0,-1,1231,1415,0,0
14,-391,0,0,0,0,0,0,0,0,0,-1,1238,1415,0,0
21,-391,0,0,0,0,0,0,0,0,0,-1,1245,1415,0,0
28,-391,0,0,0,0,0,0,0,0,0,-1,1252,1415,0,0
35,-391,0,0,0,0,0,0,0,0,0,-1,1259,1415,0,0
42,-391,0,0,0,0,0,0,0,0,0,-1,1266,1415,0,0
49,-391,0,0,0,0,0,0,0,0,0,-1,1273,1415,0,0
56,-391,0,0,0,0,0,0,0,0,0,-1,1280,1415,0,0
63,-391,0,0,0,0,0,0,0,0,0,-1,1287,1415,0,0
70,-391,0,0,0,0,0,0,0,0,0,-1,1294,1415,0,0
77,-391,0,0,0,0,0,0,0,0,0,-1,1301,1415,0,0
84,-391,0,0,0,0,0,0,0,0,0,-1,1308,1415,0,0
91,-391,0,0,0,0,0,0,0,0,0,-1,1315,1415,0,0
98,-391,0,0,0,0,0,0,0,0,0,-1,1322,1415,0,0
105,-391,0,0,0,0,0,0,0,0,0,-1,1329,1415,0,0
112,-391,0,0,0,0,0,0,0,0,0,-1,1336,1415,0,0
119,-391,0,0,0,0,0,0,0,0,0,-1,1343,1415,0,0
126,-391,0,0,0,0,0,0,0,0,0,-1,1350,1415,0,0
133,-391,0,0,0,0,0,0,0,0,0,-1,1357,1415,0,0
140,-391,0,0,0,0,0,0,0,0,0,-1,1364,1415,0,0
147,-391,0,0,0,0,0,0,0,0,0,-1,1371,1415,0,0
154,-391,0,0,0,0,0,0,0,0,0,-1,1378,1415,0,0
161,-391,0,0,0,0,0,0,0,0,0,-1,1385,1415,0,0
168,-391,0,0,0,0,0,0,0,0,0,-1,1392,1415,0,0
175,-391,0,0,0,0,0,0,0,0,0,-1,1399,1415,0,0
182,-391,0,0,0,0,0,0,0,0,0,-1,1406,1415,0,0
189,-391,0,0,0,0,0,0,0,0,0,-1,1413,1415,0,0
196,-391,0,0,0,0,0,0,0,0,0,-1,1420,1415,0,0
203,-391,0,0,0,0,0,0,0,0,0,-1,1427,1415,0,0
210,-391,0,0,0,0,0,0,0,0,0,-1,1434,1415,0,0
217,-391,0,0,0,0,0,0,0,0,0,-1,1441,1415,0,0
224,-391,0,0,0,0,0,0,0,0,0,-1,1448,1415,0,0
231,-391,0,0,0,0,0,0,0,0,0,-1,1455,1415,0,0
238,-391,0,0,0,0,0,0,0,0,0,-1,1462,1415,0,0
245,-391,0,0,0,0,0,0,0,0,0,-1,1469,1415,0,0
252,-391,0,0,0,0,0,0,0,0,0,-1,1476,1415,0,0
259,-391,0,0,0,0,0,0,0,0,0,-1,1483,1415,0,0
266,-391,0,0,0,0,0,0,0,0,0,-1,1490,1415,0,0
273,-391,0,0,0,0,0,0,0,0,0,-1,1497,1415,0,0
280,-391,0,0,0,0,0,0,0,0,0,-1,1504,1415,0,0
287,-391,0,0,0,0,0,0,0,0,0,-1,1511,1415,0,0
294,-391,0,0,0,0,0,0,0,0,0,-1,1518,1415,0,0
301,-391,0,0,0,0,0,0,0,0,0,-1,1525,1415,0,0
308,-391,0,0,0,0,0,0,0,0,0,-1,1532,1415,0,0
315,-391,0,0,0,0,0,0,0,0,0,-1,1539,1415,0,0
322,-391,0,0,0,0,0,0,0,0,0,-1,1546,1415,0,0
329,-391,0,0,0,0,0,0,0,0,0,-1,1553,1415,0,0
336,-391,0,0,0,0,0,0,0,0,0,-1,1560,1415,0,0
343,-391,0,0,0,0,0,0,0,0,0,-1,1567,1415,0,0
350,-391,0,0,0,0,0,0,0,0,0,-1,1574,1415,0,0
357,-391,0,0,0,0,0,0,0,0,0,-1,1581,1415,0,0
364,-391,0,0,0,0,0,0,0,0,0,-1,1588,1415,0,0
371,-391,0,0,0,0,0,0,0,0,0,-1,1595,1415,0,0
378,-391,0,0,0,0,0,0,0,0,0,-1,1602,1415,0,0
385,-391,0,0,0,0,0,0,0,0,0,-1,1609,1415,0,0
392,-391,0,0,0,0,0,0,0,0,0,-1,1616,1415,0,0
399,-391,0,0,0,0,0,0,0,0,0,-1,1623,1415,0,0
406,-391,0,0,0,0,0,0,0,0,0,-1,1630,1415,0,0
413,-391,0,0,0,0,0,0,0,0,0,-1,1637,1415,0,0
420,-391,0,0,0,0,0,0,0,0,0,-1,1644,1415,0,0
427,-391,0,0,0,0,0,0,0,0,0,-1,1651,1415,0,0
434,-391,0,0,0,0,0,0,0,0,0,-1,1658,1415,0,0
441,-391,0,0,0,0,0,0,0,0,0,-1,1665,1415,0,0
448,-391,0,0,0,0,0,0,0,0,0,-1,1672,1415,0,0
455,-391,0,0,0,0,0,0,0,0,0,-1,1679,1415,0,0
462,-391,0,0,0,0,0,0,0,0,0,-1,1686,1415,0,0
469,-391,0,0,0,0,0,0,0,0,0,-1,1693,1415,0,0
476,-391,0,0,0,0,0,0,0,0,0,-1,1700,1415,0,0
483,-391,0,0,0,0,0,0,0,0,0,-1,1707,1415,0,0
490,-391,0,0,0,0,0,0,0,0,0,-1,1714,1415,0,0
497,-391,0,0,0,0,0,0,0,0,0,-1,1721,1415,0,0
504,-391,0,0,0,0,0,0,0,0,0,-1,1728,1415,0,0
511,-391,0,0,0,0,0,0,0,0,0,-1,1735,1415,0,0
518,-391,0,0,0,0,0,0,0,0,0,-1,1742,1415,0,0
525,-391,0,0,0,0,0,0,0,0,0,-1,1749,1415,0,0
532,-391,28.5959,3.02356,0,0,0,0,0,0,0,-1,1756,1415,28.596,-3.02358
539,-391,27.5881,3.25012,0,0,0,0,0,0,0,-1,1763,1415,27.5882,-3.25016
546,-391,27.2837,3.28064,0,0,0,0,0,0,0,-1,1770,1415,27.2837,-3.28064
553,-391,32.5952,5.04553,0,0,0,0,0,0,0,-1,1777,1415,32.5952,-5.04551
560,-391,31.2947,5.67017,0,0,0,0,0,0,0,-1,1784,1415,31.2947,-5.67011
567,-391,30.1473,6.17603,0,0,0,0,0,0,0,-1,1791,1415,30.1473,-6.17602
574,-391,27.5656,5.6842,0,0,0,0,0,0,0,-1,1798,1415,27.5655,-5.68422
581,-391,25.8883,5.76123,0,0,0,0,0,0,0,-1,1805,1415,25.8883,-5.76124
588,-391,24.2717,5.47986,0,0,0,0,0,0,0,-1,1812,1415,24.2717,-5.47982
595,-391,22.8827,6.1991,0,0,0,0,0,0,0,-1,1819,1415,22.8827,-6.19909
602,-391,15.1635,5.69849,0,0,0,0,0,0,0,-1,1826,1415,15.1635,-5.69847
609,-391,14.8285,7.50476,0,0,0,0,0,0,0,-1,1833,1415,14.8285,-7.50479
616,-391,20.7952,12.0503,0,0,0,0,0,0,0,-1,1840,1415,20.7952,-12.0503
623,-391,36.6426,20.3677,0,0,0,0,0,0,0,-1,1847,1415,36.6426,-20.3676
630,-391,39.6422,21.5577,0,0,0,0,0,0,0,-1,1854,1415,39.6422,-21.5577
637,-391,39.5403,20.8314,0.000151499,-0.000214343,0.00037793,0.000388449,-0.000451293,0.560012,0.000485278,0.0180927,1861,1415,39.5402,-20.8314
644,-391,39.4851,20.0599,0.000445746,3.97879e-05,0.000171495,0.000508494,-2.29603e-05,0.35076,0.000346903,0.0170027,1868,1415,39.4851,-20.06
651,-391,39.4371,19.2949,0.00110839,-5.62667e-05,3.29205e-05,0.00110932,-5.71966e-05,0.0282362,0.000759331,0.0179559,1875,1415,39.4372,-19.2949
658,-391,39.4049,18.5118,0.00204247,-0.000237973,-0.00015433,0.00205287,-0.00024837,-0.0672667,0.00145843,0.018314,1882,1415,39.4049,-18.5118
665,-391,39.413,17.7451,0.00322938,-0.000557211,-0.000345926,0.00326072,-0.000588554,-0.090359,0.00239423,0.0150879,1889,1415,39.4129,-17.7451
672,-391,39.3693,16.959,0.00468439,-0.00110435,-0.00050028,0.00472731,-0.00114727,-0.0855774,0.0035955,0.0136033,1896,1415,39.3692,-16.959
679,-391,39.3047,16.1589,0.00644614,-0.00192529,-0.000619611,0.00649175,-0.0019709,-0.0734814,0.00511303,0.0129059,1903,1415,39.3047,-16.1589
686,-391,39.2776,15.3768,0.00855741,-0.00312516,-0.000686617,0.00859763,-0.00316538,-0.0585043,0.00702863,0.0200855,1910,1415,39.2776,-15.3768
693,-391,39.3794,14.9757,0.0110009,-0.00476615,-0.000637892,0.0110267,-0.00479192,-0.0403692,0.00936637,0.0487915,1917,1415,39.3793,-14.9757
700,-391,39.8163,14.4929,0,0,0,0,0,0,0,-1,1924,1415,39.8163,-14.4929
707,-391,12.9524,5.96851,0,0,0,0,0,0,0,-1,1931,1415,12.9524,-5.96849
714,-391,15.6875,7.67896,0,0,0,0,0,0,0,-1,1938,1415,15.6875,-7.67893
721,-391,14.1808,8.08435,0,0,0,0,0,0,0,-1,1945,1415,14.1808,-8.08439
728,-391,13.8102,7.28174,0,0,0,0,0,0,0,-1,1952,1415,13.8102,-7.28174
735,-391,0,0,0,0,0,0,0,0,0,-1,1959,1415,0,0
742,-391,0,0,0,0,0,0,0,0,0,-1,1966,1415,0,0
749,-391,0,0,0,0,0,0,0,0,0,-1,1973,1415,0,0
756,-391,0,0,0,0,0,0,0,0,0,-1,1980,1415,0,0
763,-391,0,0,0,0,0,0,0,0,0,-1,1987,1415,0,0
770,-391,0,0,0,0,0,0,0,0,0,-1,1994,1415,0,0
777,-391,0,0,0,0,0,0,0,0,0,-1,2001,1415,0,0
784,-391,0,0,0,0,0,0,0,0,0,-1,2008,1415,0,0
791,-391,0,0,0,0,0,0,0,0,0,-1,2015,1415,0,0
798,-391,0,0,0,0,0,0,0,0,0,-1,2022,1415,0,0
805,-391,0,0,0,0,0,0,0,0,0,-1,2029,1415,0,0
812,-391,0,0,0,0,0,0,0,0,0,-1,2036,1415,0,0
-700,-398,0,0,0,0,0,0,0,0,0,-1,524,1422,0,0
-693,-398,0,0,0,0,0,0,0,0,0,-1,531,1422,0,0
-686,-398,0,0,0,0,0,0,0,0,0,-1,538,1422,0,0
-679,-398,0,0,0,0,0,0,0,0,0,-1,545,1422,0,0
-672,-398,0,0,0,0,0,0,0,0,0,-1,552,1422,0,0
-665,-398,0,0,0,0,0,0,0,0,0,-1,559,1422,0,0
-658,-398,0,0,0,0,0,0,0,0,0,-1,566,1422,0,0
-651,-398,0,0,0,0,0,0,0,0,0,-1,573,1422,0,0
-644,-398,0,0,0,0,0,0,0,0,0,-1,580,1422,0,0
-637,-398,0,0,0,0,0,0,0,0,0,-1,587,1422,0,0
-630,-398,0,0,0,0,0,0,0,0,0,-1,594,1422,0,0
-623,-398,0,0,0,0,0,0,0,0,0,-1,601,1422,0,0
-616,-398,0,0,0,0,0,0,0,0,0,-1,608,1422,0,0
-609,-398,-7.47125,-4.05322,0,0,0,0,0,0,0,-1,615,1422,-7.47128,4.05317
-602,-398,-4.58868,-2.77026,0,0,0,0,0,0,0,-1,622,1422,-4.58869,2.77023
-595,-398,-12.2224,-1.82007,0,0,0,0,0,0,0,-1,629,1422,-12.2224,1.82006
-588,-398,-10.6939,1.32336,0,0,0,0,0,0,0,-1,636,1422,-10.6939,-1.32337
-581,-398,-10.433,3.1123,0,0,0,0,0,0,0,-1,643,1422,-10.433,-3.11233
-574,-398,-10.4475,5.89807,0,0,0,0,0,0,0,-1,650,1422,-10.4475,-5.89802
-567,-398,-10.4904,6.80115,0,0,0,0,0,0,0,-1,657,1422,-10.4904,-6.80115
-560,-398,-10.5333,7.70435,0,0,0,0,0,0,0,-1,664,1422,-10.5333,-7.70429
-553,-398,-21.6343,14.4827,0,0,0,0,0,0,0,-1,671,1422,-21.6344,-14.4827
-546,-398,-21.5762,15.5455,0.00572157,0.0040033,0.00377791,0.00873681,0.000988067,0.673594,0.00552471,0.0397317,678,1422,-21.5762,-15.5456
-539,-398,-21.4898,16.4613,0.0044568,0.00293649,0.00287934,0.00667464,0.000718652,0.656341,0.0042306,0.0135216,685,1422,-21.4898,-16.4613
-532,-398,-21.5453,17.2703,0.00352679,0.00200101,0.00215398,0.00504898,0.000478814,0.615202,0.00321828,0.0223097,692,1422,-21.5453,-17.2703
-525,-398,-21.6044,18.1001,0.00291718,0.00137889,0.00167654,0.00399258,0.000303485,0.570336,0.00256655,0.0211578,699,1422,-21.6044,-18.1001
-518,-398,-21.6393,18.9005,0.0025051,0.000917268,0.00134019,0.00326888,0.000153493,0.517994,0.00212993,0.0186288,706,1422,-21.6393,-18.9005
-511,-398,-21.6785,19.6956,0.00225022,0.000608635,0.00111262,0.00281205,4.68097e-05,0.467604,0.00185929,0.0143894,713,1422,-21.6785,-19.6956
-504,-398,-21.7228,20.5205,0.00216034,0.000452208,0.00102063,0.00263711,-2.45613e-05,0.437008,0.00176632,0.0144725,720,1422,-21.7229,-20.5205
-497,-398,-21.7863,21.3179,0.00220564,0.000450557,0.00105642,0.00270145,-4.52597e-05,0.438816,0.00181624,0.0106302,727,1422,-21.7863,-21.3179
-490,-398,-21.8113,22.1375,0.00250964,0.000630058,0.00123431,0.00312121,1.84849e-05,0.460023,0.00207467,0.0218832,734,1422,-21.8114,-22.1375
-483,-398,-21.6332,23.2258,0,0,0,0,0,0,0,-1,741,1422,-21.6332,-23.2258
-476,-398,-8.64392,11.9448,0,0,0,0,0,0,0,-1,748,1422,-8.6439,-11.9448
-469,-398,-8.91699,10.6276,0,0,0,0,0,0,0,-1,755,1422,-8.91697,-10.6275
-462,-398,-9.59753,9.32532,0,0,0,0,0,0,0,-1,762,1422,-9.59753,-9.32531
-455,-398,-8.08331,6.75024,0,0,0,0,0,0,0,-1,769,1422,-8.08333,-6.75022
-448,-398,-7.4505,5.25293,0,0,0,0,0,0,0,-1,776,1422,-7.4505,-5.25291
-441,-398,-7.61639,3.32141,0,0,0,0,0,0,0,-1,783,1422,-7.61637,-3.32145
-434,-398,-10.7618,3.297,0,0,0,0,0,0,0,-1,790,1422,-10.7618,-3.29704
-427,-398,-11.9061,2.24939,0,0,0,0,0,0,0,-1,797,1422,-11.9061,-2.24941
-420,-398,-13.467,2.32788,0,0,0,0,0,0,0,-1,804,1422,-13.467,-2.32787
-413,-398,-14.7983,2.15515,0,0,0,0,0,0,0,-1,811,1422,-14.7983,-2.15516
-406,-398,0,0,0,0,0,0,0,0,0,-1,818,1422,0,0
-399,-398,0,0,0,0,0,0,0,0,0,-1,825,1422,0,0
-392,-398,0,0,0,0,0,0,0,0,0,-1,832,1422,0,0
-385,-398,0,0,0,0,0,0,0,0,0,-1,839,1422,0,0
-378,-398,0,0,0,0,0,0,0,0,0,-1,846,1422,0,0
-371,-398,0,0,0,0,0,0,0,0,0,-1,853,1422,0,0
-364,-398,0,0,0,0,0,0,0,0,0,-1,860,1422,0,0
-357,-398,0,0,0,0,0,0,0,0,0,-1,867,1422,0,0
-350,-398,0,0,0,0,0,0,0,0,0,-1,874,1422,0,0
-343,-398,0,0,0,0,0,0,0,0,0,-1,881,1422,0,0
-336,-398,0,0,0,0,0,0,0,0,0,-1,888,1422,0,0
-329,-398,0,0,0,0,0,0,0,0,0,-1,895,1422,0,0
-322,-398,0,0,0,0,0,0,0,0,0,-1,902,1422,0,0
-315,-398,0,0,0,0,0,0,0,0,0,-1,909,1422,0,0
-308,-398,0,0,0,0,0,0,0,0,0,-1,916,1422,0,0
-301,-398,0,0,0,0,0,0,0,0,0,-1,923,1422,0,0
-294,-398,0,0,0,0,0,0,0,0,0,-1,930,1422,0,0
-287,-398,0,0,0,0,0,0,0,0,0,-1,937,1422,0,0
-280,-398,0,0,0,0,0,0,0,0,0,-1,944,1422,0,0
-273,-398,0,0,0,0,0,0,0,0,0,-1,951,1422,0,0
-266,-398,0,0,0,0,0,0,0,0,0,-1,958,1422,0,0
-259,-398,0,0,0,0,0,0,0,0,0,-1,965,1422,0,0
-252,-398,0,0,0,0,0,0,0,0,0,-1,972,1422,0,0
-245,-398,0,0,0,0,0,0,0,0,0,-1,979,1422,0,0
-238,-398,0,0,0,0,0,0,0,0,0,-1,986,1422,0,0
-231,-398,0,0,0,0,0,0,0,0,0,-1,993,1422,0,0
-224,-398,0,0,0,0,0,0,0,0,0,-1,1000,1422,0,0
-217,-398,0,0,0,0,0,0,0,0,0,-1,1007,1422,0,0
-210,-398,0,0,0,0,0,0,0,0,0,-1,1014,1422,0,0
-203,-398,0,0,0,0,0,0,0,0,0,-1,1021,1422,0,0
-196,-398,0,0,0,0,0,0,0,0,0,-1,1028,1422,0,0
-189,-398,0,0,0,0,0,0,0,0,0,-1,1035,1422,0,0
-182,-398,0,0,0,0,0,0,0,0,0,-1,1042,1422,0,0
-175,-398,0,0,0,0,0,0,0,0,0,-1,1049,1422,0,0
-168,-398,0,0,0,0,0,0,0,0,0,-1,1056,1422,0,0
-161,-398,0,0,0,0,0,0,0,0,0,-1,1063,1422,0,0
-154,-398,0,0,0,0,0,0,0,0,0,-1,1070,1422,0,0
-147,-398,0,0,0,0,0,0,0,0,0,-1,1077,1422,0,0
-140,-398,0,0,0,0,0,0,0,0,0,-1,1084,1422,0,0
-133,-398,0,0,0,0,0,0,0,0,0,-1,1091,1422,0,0
-126,-398,0,0,0,0,0,0,0,0,0,-1,1098,1422,0,0
-119,-398,0,0,0,0,0,0,0,0,0,-1,1105,1422,0,0
-112,-398,0,0,0,0,0,0,0,0,0,-1,1112,1422,0,0
-105,-398,0,0,0,0,0,0,0,0,0,-1,1119,1422,0,0
-98,-398,0,0,0,0,0,0,0,0,0,-1,1126,1422,0,0
-91,-398,0,0,0,0,0,0,0,0,0,-1,1133,1422,0,0
-84,-398,0,0,0,0,0,0,0,0,0,-1,1140,1422,0,0
-77,-398,0,0,0,0,0,0,0,0,0,-1,1147,1422,0,0
-70,-398,0,0,0,0,0,0,0,0,0,-1,1154,1422,0,0
-63,-398,0,0,0,0,0,0,0,0,0,-1,1161,1422,0,0
-56,-398,0,0,0,0,0,0,0,0,0,-1,1168,1422,0,0
-49,-398,0,0,0,0,0,0,0,0,0,-1,1175,1422,0,0
-42,-398,0,0,0,0,0,0,0,0,0,-1,1182,1422,0,0
-35,-398,0,0,0,0,0,0,0,0,0,-1,1189,1422,0,0
-28,-398,0,0,0,0,0,0,0,0,0,-1,1196,1422,0,0
-21,-398,0,0,0,0,0,0,0,0,0,-1,1203,1422,0,0
-14,-398,0,0,0,0,0,0,0,0,0,-1,1210,1422,0,0
-7,-398,0,0,0,0,0,0,0,0,0,-1,1217,1422,0,0
0,-398,0,0,0,0,0,0,0,0,0,-1,1224,1422,0,0
7,-398,0,0,0,0,0,0,0,0,0,-1,1231,1422,0,0
14,-398,0,0,0,0,0,0,0,0,0,-1,1238,1422,0,0
21,-398,0,0,0,0,0,0,0,0,0,-1,1245,1422,0,0
28,-398,0,0,0,0,0,0,0,0,0,-1,1252,1422,0,0
35,-398,0,0,0,0,0,0,0,0,0,-1,1259,1422,0,0
42,-398,0,0,0,0,0,0,0,0,0,-1,1266,1422,0,0
49,-398,0,0,0,0,0,0,0,0,0,-1,1273,1422,0,0
56,-398,0,0,0,0,0,0,0,0,0,-1,1280,1422,0,0
63,-398,0,0,0,0,0,0,0,0,0,-1,1287,1422,0,0
70,-398,0,0,0,0,0,0,0,0,0,-1,1294,1422,0,0
77,-398,0,0,0,0,0,0,0,0,0,-1,1301,1422,0,0
84,-398,0,0,0,0,0,0,0,0,0,-1,1308,1422,0,0
91,-398,0,0,0,0,0,0,0,0,0,-1,1315,1422,0,0
98,-398,0,0,0,0,0,0,0,0,0,-1,1322,1422,0,0
105,-398,0,0,0,0,0,0,0,0,0,-1,1329,1422,0,0
112,-398,0,0,0,0,0,0,0,0,0,-1,1336,1422,0,0
119,-398,0,0,0,0,0,0,0,0,0,-1,1343,1422,0,0
126,-398,0,0,0,0,0,0,0,0,0,-1,1350,1422,0,0
133,-398,0,0,0,0,0,0,0,0,0,-1,1357,1422,0,0
140,-398,0,0,0,0,0,0,0,0,0,-1,1364,1422,0,0
147,-398,0,0,0,0,0,0,0,0,0,-1,1371,1422,0,0
154,-398,0,0,0,0,0,0,0,0,0,-1,1378,1422,0,0
161,-398,0,0,0,0,0,0,0,0,0,-1,1385,1422,0,0
168,-398,0,0,0,0,0,0,0,0,0,-1,1392,1422,0,0
175,-398,0,0,0,0,0,0,0,0,0,-1,1399,1422,0,0
182,-398,0,0,0,0,0,0,0,0,0,-1,1406,1422,0,0
189,-398,0,0,0,0,0,0,0,0,0,-1,1413,1422,0,0
196,-398,0,0,0,0,0,0,0,0,0,-1,1420,1422,0,0
203,-398,0,0,0,0,0,0,0,0,0,-1,1427,1422,0,0
210,-398,0,0,0,0,0,0,0,0,0,-1,1434,1422,0,0
217,-398,0,0,0,0,0,0,0,0,0,-1,1441,1422,0,0
224,-398,0,0,0,0,0,0,0,0,0,-1,1448,1422,0,0
231,-398,0,0,0,0,0,0,0,0,0,-1,1455,1422,0,0
238,-398,0,0,0,0,0,0,0,0,0,-1,1462,1422,0,0
245,-398,0,0,0,0,0,0,0,0,0,-1,1469,1422,0,0
252,-398,0,0,0,0,0,0,0,0,0,-1,1476,1422,0,0
259,-398,0,0,0,0,0,0,0,0,0,-1,1483,1422,0,0
266,-398,0,0,0,0,0,0,0,0,0,-1,1490,1422,0,0
273,-398,0,0,0,0,0,0,0,0,0,-1,1497,1422,0,0
280,-398,0,0,0,0,0,0,0,0,0,-1,1504,1422,0,0
287,-398,0,0,0,0,0,0,0,0,0,-1,1511,1422,0,0
294,-398,0,0,0,0,0,0,0,0,0,-1,1518,1422,0,0
301,-398,0,0,0,0,0,0,0,0,0,-1,1525,1422,0,0
308,-398,0,0,0,0,0,0,0,0,0,-1,1532,1422,0,0
315,-398,0,0,0,0,0,0,0,0,0,-1,1539,1422,0,0
322,-398,0,0,0,0,0,0,0,0,0,-1,1546,1422,0,0
329,-398,0,0,0,0,0,0,0,0,0,-1,1553,1422,0,0
336,-398,0,0,0,0,0,0,0,0,0,-1,1560,1422,0,0
343,-398,0,0,0,0,0,0,0,0,0,-1,1567,1422,0,0
350,-398,0,0,0,0,0,0,0,0,0,-1,1574,1422,0,0
357,-398,0,0,0,0,0,0,0,0,0,-1,1581,1422,0,0
364,-398,0,0,0,0,0,0,0,0,0,-1,1588,1422,0,0
371,-398,0,0,0,0,0,0,0,0,0,-1,1595,1422,0,0
378,-398,0,0,0,0,0,0,0,0,0,-1,1602,1422,0,0
385,-398,0,0,0,0,0,0,0,0,0,-1,1609,1422,0,0
392,-398,0,0,0,0,0,0,0,0,0,-1,1616,1422,0,0
399,-398,0,0,0,0,0,0,0,0,0,-1,1623,1422,0,0
406,-398,0,0,0,0,0,0,0,0,0,-1,1630,1422,0,0
413,-398,0,0,0,0,0,0,0,0,0,-1,1637,1422,0,0
420,-398,0,0,0,0,0,0,0,0,0,-1,1644,1422,0,0
427,-398,0,0,0,0,0,0,0,0,0,-1,1651,1422,0,0
434,-398,0,0,0,0,0,0,0,0,0,-1,1658,1422,0,0
441,-398,0,0,0,0,0,0,0,0,0,-1,1665,1422,0,0
448,-398,0,0,0,0,0,0,0,0,0,-1,1672,1422,0,0
455,-398,0,0,0,0,0,0,0,0,0,-1,1679,1422,0,0
462,-398,0,0,0,0,0,0,0,0,0,-1,1686,1422,0,0
469,-398,0,0,0,0,0,0,0,0,0,-1,1693,1422,0,0
476,-398,0,0,0,0,0,0,0,0,0,-1,1700,1422,0,0
483,-398,0,0,0,0,0,0,0,0,0,-1,1707,1422,0,0
490,-398,0,0,0,0,0,0,0,0,0,-1,1714,1422,0,0
497,-398,0,0,0,0,0,0,0,0,0,-1,1721,1422,0,0
504,-398,0,0,0,0,0,0,0,0,0,-1,1728,1422,0,0
511,-398,0,0,0,0,0,0,0,0,0,-1,1735,1422,0,0
518,-398,0,0,0,0,0,0,0,0,0,-1,1742,1422,0,0
525,-398,0,0,0,0,0,0,0,0,0,-1,1749,1422,0,0
532,-398,28.4558,3.84094,0,0,0,0,0,0,0,-1,1756,1422,28.4558,-3.8409
539,-398,27.0594,3.33887,0,0,0,0,0,0,0,-1,1763,1422,27.0595,-3.3389
546,-398,31.6873,5.58582,0,0,0,0,0,0,0,-1,1770,1422,31.6872,-5.58585
553,-398,30.4392,5.92383,0,0,0,0,0,0,0,-1,1777,1422,30.4392,-5.92386
560,-398,29.1621,6.30469,0,0,0,0,0,0,0,-1,1784,1422,29.1621,-6.30469
567,-398,27.8411,6.55029,0,0,0,0,0,0,0,-1,1791,1422,27.8411,-6.55033
574,-398,26.411,6.8916,0,0,0,0,0,0,0,-1,1798,1422,26.411,-6.8916
581,-398,24.75,7.11145,0,0,0,0,0,0,0,-1,1805,1422,24.7499,-7.11142
588,-398,23.1649,7.67969,0,0,0,0,0,0,0,-1,1812,1422,23.1649,-7.67975
595,-398,21.4253,7.86023,0,0,0,0,0,0,0,-1,1819,1422,21.4253,-7.86029
602,-398,19.6857,8.04077,0,0,0,0,0,0,0,-1,1826,1422,19.6856,-8.04083
609,-398,21.1835,13.2628,0,0,0,0,0,0,0,-1,1833,1422,21.1835,-13.2628
616,-398,35.7712,21.4,0,0,0,0,0,0,0,-1,1840,1422,35.7713,-21.4
623,-398,38.7729,22.5813,0,0,0,0,0,0,0,-1,1847,1422,38.7729,-22.5814
630,-398,38.8157,21.667,0.000384619,-0.000202464,0.000372953,0.000565693,-0.000383539,0.451994,0.000551393,0.0155631,1854,1422,38.8157,-21.667
637,-398,38.7618,20.8676,0.000521407,-0.000199518,0.000233213,0.000590272,-0.000268382,0.287126,0.000507223,0.0154526,1861,1422,38.7618,-20.8676
644,-398,38.663,20.121,0.000900668,-6.44095e-05,3.51744e-05,0.000901949,-6.56898e-05,0.0363828,0.000624349,0.0215733,1868,1422,38.663,-20.121
651,-398,38.6681,19.4178,0.00159967,-7.47078e-05,-0.000174321,0.00161763,-9.26638e-05,-0.102644,0.0011106,0.0307507,1875,1422,38.6681,-19.4179
658,-398,38.661,18.6124,0.00259467,-0.000170824,-0.000429616,0.00265988,-0.000236027,-0.150621,0.00185693,0.0257225,1882,1422,38.661,-18.6124
665,-398,38.6376,17.8051,0.00387415,-0.000419317,-0.000676452,0.0039782,-0.000523373,-0.152629,0.0028427,0.0168071,1889,1422,38.6376,-17.805
672,-398,38.5856,17.0044,0.00545496,-0.000939189,-0.000854342,0.00556714,-0.00105137,-0.130562,0.00410699,0.013536,1896,1422,38.5856,-17.0044
679,-398,38.5464,16.2128,0.00740981,-0.00180102,-0.000963574,0.00750954,-0.00190074,-0.103125,0.00574571,0.0146808,1903,1422,38.5464,-16.2128
686,-398,38.4939,15.4269,0.009781,-0.00319043,-0.000941822,0.00984903,-0.00325846,-0.0721034,0.00788003,0.0309305,1910,1422,38.4939,-15.4269
693,-398,38.3765,14.5007,0,0,0,0,0,0,0,-1,1917,1422,38.3764,-14.5007
700,-398,38.7251,14.4174,0,0,0,0,0,0,0,-1,1924,1422,38.725,-14.4174
707,-398,10.9731,5.479,0,0,0,0,0,0,0,-1,1931,1422,10.9732,-5.47896
714,-398,11.7313,6.17346,0,0,0,0,0,0,0,-1,1938,1422,11.7313,-6.17348
721,-398,13.9371,8.05103,0,0,0,0,0,0,0,-1,1945,1422,13.9372,-8.05102
728,-398,14.786,7.0282,0,0,0,0,0,0,0,-1,1952,1422,14.786,-7.0282
735,-398,0,0,0,0,0,0,0,0,0,-1,1959,1422,0,0
742,-398,0,0,0,0,0,0,0,0,0,-1,1966,1422,0,0
749,-398,0,0,0,0,0,0,0,0,0,-1,1973,1422,0,0
756,-398,0,0,0,0,0,0,0,0,0,-1,1980,1422,0,0
763,-398,0,0,0,0,0,0,0,0,0,-1,1987,1422,0,0
770,-398,0,0,0,0,0,0,0,0,0,-1,1994,1422,0,0
777,-398,0,0,0,0,0,0,0,0,0,-1,2001,1422,0,0
784,-398,0,0,0,0,0,0,0,0,0,-1,2008,1422,0,0
791,-398,0,0,0,0,0,0,0,0,0,-1,2015,1422,0,0
798,-398,0,0,0,0,0,0,0,0,0,-1,2022,1422,0,0
805,-398,0,0,0,0,0,0,0,0,0,-1,2029,1422,0,0
812,-398,0,0,0,0,0,0,0,0,0,-1,2036,1422,0,0
-700,-405,0,0,0,0,0,0,0,0,0,-1,524,1429,0,0
-693,-405,0,0,0,0,0,0,0,0,0,-1,531,1429,0,0
-686,-405,0,0,0,0,0,0,0,0,0,-1,538,1429,0,0
-679,-405,0,0,0,0,0,0,0,0,0,-1,545,1429,0,0
-672,-405,0,0,0,0,0,0,0,0,0,-1,552,1429,0,0
-665,-405,0,0,0,0,0,0,0,0,0,-1,559,1429,0,0
-658,-405,0,0,0,0,0,0,0,0,0,-1,566,1429,0,0
-651,-405,0,0,0,0,0,0,0,0,0,-1,573,1429,0,0
-644,-405,0,0,0,0,0,0,0,0,0,-1,580,1429,0,0
-637,-405,0,0,0,0,0,0,0,0,0,-1,587,1429,0,0
-630,-405,0,0,0,0,0,0,0,0,0,-1,594,1429,0,0
-623,-405,0,0,0,0,0,0,0,0,0,-1,601,1429,0,0
-616,-405,0,0,0,0,0,0,0,0,0,-1,608,1429,0,0
-609,-405,0,0,0,0,0,0,0,0,0,-1,615,1429,0,0
-602,-405,-5.80988,-3.46594,0,0,0,0,0,0,0,-1,622,1429,-5.80987,3.46592
-595,-405,-9.35413,2.01477,0,0,0,0,0,0,0,-1,629,1429,-9.35411,-2.01476
-588,-405,-7.35693,0.507202,0,0,0,0,0,0,0,-1,636,1429,-7.35696,-0.507187
-581,-405,-10.1284,1.62927,0,0,0,0,0,0,0,-1,643,1429,-10.1284,-1.62922
-574,-405,-9.32074,3.05896,0,0,0,0,0,0,0,-1,650,1429,-9.32077,-3.0589
-567,-405,-9.68781,6.92163,0,0,0,0,0,0,0,-1,657,1429,-9.68782,-6.92166
-560,-405,-9.28674,7.20886,0,0,0,0,0,0,0,-1,664,1429,-9.28675,-7.20885
-553,-405,-17.8088,12.9275,0,0,0,0,0,0,0,-1,671,1429,-17.8088,-12.9275
-546,-405,-20.8152,15.3584,0,0,0,0,0,0,0,-1,678,1429,-20.8153,-15.3584
-539,-405,-20.7277,16.438,0.00482849,0.0037681,0.00350937,0.00784749,0.000749097,0.710425,0.0050007,0.0148598,685,1429,-20.7277,-16.438
-532,-405,-20.7637,17.2689,0.00373565,0.00262041,0.0025906,0.00582797,0.000528094,0.679392,0.00372179,0.0176063,692,1429,-20.7637,-17.269
-525,-405,-20.7874,18.1168,0.00302619,0.00186673,0.0019766,0.00450632,0.000386597,0.64275,0.00288399,0.0155629,699,1429,-20.7874,-18.1168
-518,-405,-20.826,18.9368,0.00252061,0.00129454,0.00151219,0.00353931,0.000275846,0.592824,0.00227318,0.0153366,706,1429,-20.826,-18.9367
-511,-405,-20.8746,19.7373,0.00216876,0.000866957,0.00116149,0.0028493,0.000186416,0.530002,0.00184054,0.0162542,713,1429,-20.8746,-19.7373
-504,-405,-20.9084,20.5544,0.00197102,0.000586067,0.000937113,0.00244375,0.000113338,0.467203,0.00159273,0.0181842,720,1429,-20.9084,-20.5545
-497,-405,-20.9415,21.408,0.00191336,0.000465247,0.000846354,0.00230312,7.54941e-05,0.431558,0.00151088,0.0154462,727,1429,-20.9415,-21.408
-490,-405,-20.9941,22.2192,0.002038,0.00050778,0.000887597,0.00244474,0.000101045,0.429687,0.00159721,0.0138385,734,1429,-20.9941,-22.2192
-483,-405,-20.9425,23.1293,0.00220273,0.000819273,0.00103869,0.00275895,0.000263055,0.491641,0.00175819,0.0402403,741,1429,-20.9425,-23.1292
-476,-405,-20.7388,24.2416,0,0,0,0,0,0,0,-1,748,1429,-20.7388,-24.2416
-469,-405,-9.65692,12.8171,0,0,0,0,0,0,0,-1,755,1429,-9.65691,-12.8172
-462,-405,-9.14862,11.3597,0,0,0,0,0,0,0,-1,762,1429,-9.14865,-11.3597
-455,-405,-9.021,9.51111,0,0,0,0,0,0,0,-1,769,1429,-9.021,-9.51109
-448,-405,-8.4649,6.82813,0,0,0,0,0,0,0,-1,776,1429,-8.46492,-6.82817
-441,-405,-6.6712,4.23767,0,0,0,0,0,0,0,-1,783,1429,-6.67121,-4.23764
-434,-405,-9.62549,3.94189,0,0,0,0,0,0,0,-1,790,1429,-9.62546,-3.94191
-427,-405,-10.9764,3.73926,0,0,0,0,0,0,0,-1,797,1429,-10.9764,-3.73923
-420,-405,-12.1187,3.68506,0,0,0,0,0,0,0,-1,804,1429,-12.1187,-3.68512
-413,-405,-13.5353,3.75659,0,0,0,0,0,0,0,-1,811,1429,-13.5353,-3.75655
-406,-405,-14.7374,3.99817,0,0,0,0,0,0,0,-1,818,1429,-14.7374,-3.99814
-399,-405,0,0,0,0,0,0,0,0,0,-1,825,1429,0,0
-392,-405,0,0,0,0,0,0,0,0,0,-1,832,1429,0,0
-385,-405,0,0,0,0,0,0,0,0,0,-1,839,1429,0,0
-378,-405,0,0,0,0,0,0,0,0,0,-1,846,1429,0,0
-371,-405,0,0,0,0,0,0,0,0,0,-1,853,1429,0,0
-364,-405,0,0,0,0,0,0,0,0,0,-1,860,1429,0,0
-357,-405,0,0,0,0,0,0,0,0,0,-1,867,1429,0,0
-350,-405,0,0,0,0,0,0,0,0,0,-1,874,1429,0,0
-343,-405,0,0,0,0,0,0,0,0,0,-1,881,1429,0,0
-336,-405,0,0,0,0,0,0,0,0,0,-1,888,1429,0,0
-329,-405,0,0,0,0,0,0,0,0,0,-1,895,1429,0,0
-322,-405,0,0,0,0,0,0,0,0,0,-1,902,1429,0,0
-315,-405,0,0,0,0,0,0,0,0,0,-1,909,1429,0,0
-308,-405,0,0,0,0,0,0,0,0,0,-1,916,1429,0,0
-301,-405,0,0,0,0,0,0,0,0,0,-1,923,1429,0,0
-294,-405,0,0,0,0,0,0,0,0,0,-1,930,1429,0,0
-287,-405,0,0,0,0,0,0,0,0,0,-1,937,1429,0,0
-280,-405,0,0,0,0,0,0,0,0,0,-1,944,1429,0,0
-273,-405,0,0,0,0,0,0,0,0,0,-1,951,1429,0,0
-266,-405,0,0,0,0,0,0,0,0,0,-1,958,1429,0,0
-259,-405,0,0,0,0,0,0,0,0,0,-1,965,1429,0,0
-252,-405,0,0,0,0,0,0,0,0,0,-1,972,1429,0,0
-245,-405,0,0,0,0,0,0,0,0,0,-1,979,1429,0,0
-238,-405,0,0,0,0,0,0,0,0,0,-1,986,1429,0,0
-231,-405,0,0,0,0,0,0,0,0,0,-1,993,1429,0,0
-224,-405,0,0,0,0,0,0,0,0,0,-1,1000,1429,0,0
-217,-405,0,0,0,0,0,0,0,0,0,-1,1007,1429,0,0
-210,-405,0,0,0,0,0,0,0,0,0,-1,1014,1429,0,0
-203,-405,0,0,0,0,0,0,0,0,0,-1,1021,1429,0,0
-196,-405,0,0,0,0,0,0,0,0,0,-1,1028,1429,0,0
-189,-405,0,0,0,0,0,0,0,0,0,-1,1035,1429,0,0
-182,-405,0,0,0,0,0,0,0,0,0,-1,1042,1429,0,0
-175,-405,0,0,0,0,0,0,0,0,0,-1,1049,1429,0,0
-168,-405,0,0,0,0,0,0,0,0,0,-1,1056,1429,0,0
-161,-405,0,0,0,0,0,0,0,0,0,-1,1063,1429,0,0
-154,-405,0,0,0,0,0,0,0,0,0,-1,1070,1429,0,0
-147,-405,0,0,0,0,0,0,0,0,0,-1,1077,1429,0,0
-140,-405,0,0,0,0,0,0,0,0,0,-1,1084,1429,0,0
-133,-405,0,0,0,0,0,0,0,0,0,-1,1091,1429,0,0
-126,-405,0,0,0,0,0,0,0,0,0,-1,1098,1429,0,0
-119,-405,0,0,0,0,0,0,0,0,0,-1,1105,1429,0,0
-112,-405,0,0,0,0,0,0,0,0,0,-1,1112,1429,0,0
-105,-405,0,0,0,0,0,0,0,0,0,-1,1119,1429,0,0
-98,-405,0,0,0,0,0,0,0,0,0,-1,1126,1429,0,0
-91,-405,0,0,0,0,0,0,0,0,0,-1,1133,1429,0,0
-84,-405,0,0,0,0,0,0,0,0,0,-1,1140,1429,0,0
-77,-405,0,0,0,0,0,0,0,0,0,-1,1147,1429,0,0
-70,-405,0,0,0,0,0,0,0,0,0,-1,1154,1429,0,0
-63,-405,0,0,0,0,0,0,0,0,0,-1,1161,1429,0,0
-56,-405,0,0,0,0,0,0,0,0,0,-1,1168,1429,0,0
-49,-405,0,0,0,0,0,0,0,0,0,-1,1175,1429,0,0
-42,-405,0,0,0,0,0,0,0,0,0,-1,1182,1429,0,0
-35,-405,0,0,0,0,0,0,0,0,0,-1,1189,1429,0,0
-28,-405,0,0,0,0,0,0,0,0,0,-1,1196,1429,0,0
-21,-405,0,0,0,0,0,0,0,0,0,-1,1203,1429,0,0
-14,-405,0,0,0,0,0,0,0,0,0,-1,1210,1429,0,0
-7,-405,0,0,0,0,0,0,0,0,0,-1,1217,1429,0,0
0,-405,0,0,0,0,0,0,0,0,0,-1,1224,1429,0,0
7,-405,0,0,0,0,0,0,0,0,0,-1,1231,1429,0,0
14,-405,0,0,0,0,0,0,0,0,0,-1,1238,1429,0,0
21,-405,0,0,0,0,0,0,0,0,0,-1,1245,1429,0,0
28,-405,0,0,0,0,0,0,0,0,0,-1,1252,1429,0,0
35,-405,0,0,0,0,0,0,0,0,0,-1,1259,1429,0,0
42,-405,0,0,0,0,0,0,0,0,0,-1,1266,1429,0,0
49,-405,0,0,0,0,0,0,0,0,0,-1,1273,1429,0,0
56,-405,0,0,0,0,0,0,0,0,0,-1,1280,1429,0,0
63,-405,0,0,0,0,0,0,0,0,0,-1,1287,1429,0,0
70,-405,0,0,0,0,0,0,0,0,0,-1,1294,1429,0,0
77,-405,0,0,0,0,0,0,0,0,0,-1,1301,1429,0,0
84,-405,0,0,0,0,0,0,0,0,0,-1,1308,1429,0,0
91,-405,0,0,0,0,0,0,0,0,0,-1,1315,1429,0,0
98,-405,0,0,0,0,0,0,0,0,0,-1,1322,1429,0,0
105,-405,0,0,0,0,0,0,0,0,0,-1,1329,1429,0,0
112,-405,0,0,0,0,0,0,0,0,0,-1,1336,1429,0,0
119,-405,0,0,0,0,0,0,0,0,0,-1,1343,1429,0,0
126,-405,0,0,0,0,0,0,0,0,0,-1,1350,1429,0,0
133,-405,0,0,0,0,0,0,0,0,0,-1,1357,1429,0,0
140,-405,0,0,0,0,0,0,0,0,0,-1,1364,1429,0,0
147,-405,0,0,0,0,0,0,0,0,0,-1,1371,1429,0,0
154,-405,0,0,0,0,0,0,0,0,0,-1,1378,1429,0,0
161,-405,0,0,0,0,0,0,0,0,0,-1,1385,1429,0,0
168,-405,0,0,0,0,0,0,0,0,0,-1,1392,1429,0,0
175,-405,0,0,0,0,0,0,0,0,0,-1,1399,1429,0,0
182,-405,0,0,0,0,0,0,0,0,0,-1,1406,1429,0,0
189,-405,0,0,0,0,0,0,0,0,0,-1,1413,1429,0,0
196,-405,0,0,0,0,0,0,0,0,0,-1,1420,1429,0,0
203,-405,0,0,0,0,0,0,0,0,0,-1,1427,1429,0,0
210,-405,0,0,0,0,0,0,0,0,0,-1,1434,1429,0,0
217,-405,0,0,0,0,0,0,0,0,0,-1,1441,1429,0,0
224,-405,0,0,0,0,0,0,0,0,0,-1,1448,1429,0,0
231,-405,0,0,0,0,0,0,0,0,0,-1,1455,1429,0,0
238,-405,0,0,0,0,0,0,0,0,0,-1,1462,1429,0,0
245,-405,0,0,0,0,0,0,0,0,0,-1,1469,1429,0,0
252,-405,0,0,0,0,0,0,0,0,0,-1,1476,1429,0,0
259,-405,0,0,0,0,0,0,0,0,0,-1,1483,1429,0,0
266,-405,0,0,0,0,0,0,0,0,0,-1,1490,1429,0,0
273,-405,0,0,0,0,0,0,0,0,0,-1,1497,1429,0,0
280,-405,0,0,0,0,0,0,0,0,0,-1,1504,1429,0,0
287,-405,0,0,0,0,0,0,0,0,0,-1,1511,1429,0,0
294,-405,0,0,0,0,0,0,0,0,0,-1,1518,1429,0,0
301,-405,0,0,0,0,0,0,0,0,0,-1,1525,1429,0,0
308,-405,0,0,0,0,0,0,0,0,0,-1,1532,1429,0,0
315,-405,0,0,0,0,0,0,0,0,0,-1,1539,1429,0,0
322,-405,0,0,0,0,0,0,0,0,0,-1,1546,1429,0,0
329,-405,0,0,0,0,0,0,0,0,0,-1,1553,1429,0,0
336,-405,0,0,0,0,0,0,0,0,0,-1,1560,1429,0,0
343,-405,0,0,0,0,0,0,0,0,0,-1,1567,1429,0,0
350,-405,0,0,0,0,0,0,0,0,0,-1,1574,1429,0,0
357,-405,0,0,0,0,0,0,0,0,0,-1,1581,1429,0,0
364,-405,0,0,0,0,0,0,0,0,0,-1,1588,1429,0,0
371,-405,0,0,0,0,0,0,0,0,0,-1,1595,1429,0,0
378,-405,0,0,0,0,0,0,0,0,0,-1,1602,1429,0,0
385,-405,0,0,0,0,0,0,0,0,0,-1,1609,1429,0,0
392,-405,0,0,0,0,0,0,0,0,0,-1,1616,1429,0,0
399,-405,0,0,0,0,0,0,0,0,0,-1,1623,1429,0,0
406,-405,0,0,0,0,0,0,0,0,0,-1,1630,1429,0,0
413,-405,0,0,0,0,0,0,0,0,0,-1,1637,1429,0,0
420,-405,0,0,0,0,0,0,0,0,0,-1,1644,1429,0,0
427,-405,0,0,0,0,0,0,0,0,0,-1,1651,1429,0,0
434,-405,0,0,0,0,0,0,0,0,0,-1,1658,1429,0,0
441,-405,0,0,0,0,0,0,0,0,0,-1,1665,1429,0,0
448,-405,0,0,0,0,0,0,0,0,0,-1,1672,1429,0,0
455,-405,0,0,0,0,0,0,0,0,0,-1,1679,1429,0,0
462,-405,0,0,0,0,0,0,0,0,0,-1,1686,1429,0,0
469,-405,0,0,0,0,0,0,0,0,0,-1,1693,1429,0,0
476,-405,0,0,0,0,0,0,0,0,0,-1,1700,1429,0,0
483,-405,0,0,0,0,0,0,0,0,0,-1,1707,1429,0,0
490,-405,0,0,0,0,0,0,0,0,0,-1,1714,1429,0,0
497,-405,0,0,0,0,0,0,0,0,0,-1,1721,1429,0,0
504,-405,0,0,0,0,0,0,0,0,0,-1,1728,1429,0,0
511,-405,0,0,0,0,0,0,0,0,0,-1,1735,1429,0,0
518,-405,0,0,0,0,0,0,0,0,0,-1,1742,1429,0,0
525,-405,31.1563,-1.40942,0,0,0,0,0,0,0,-1,1749,1429,31.1563,1.40937
532,-405,28.156,4.8783,0,0,0,0,0,0,0,-1,1756,1429,28.1561,-4.87833
539,-405,26.5133,3.02454,0,0,0,0,0,0,0,-1,1763,1429,26.5133,-3.0246
546,-405,29.5735,6.53052,0,0,0,0,0,0,0,-1,1770,1429,29.5735,-6.53049
553,-405,28.2911,6.70654,0,0,0,0,0,0,0,-1,1777,1429,28.2912,-6.70656
560,-405,26.9299,7.08472,0,0,0,0,0,0,0,-1,1784,1429,26.9299,-7.08469
567,-405,25.804,7.14661,0,0,0,0,0,0,0,-1,1791,1429,25.8039,-7.14665
574,-405,25.1151,8.07971,0,0,0,0,0,0,0,-1,1798,1429,25.1151,-8.07965
581,-405,23.5055,8.505,0,0,0,0,0,0,0,-1,1805,1429,23.5054,-8.50501
588,-405,21.7491,8.98254,0,0,0,0,0,0,0,-1,1812,1429,21.7491,-8.98254
595,-405,21.6327,10.7795,0,0,0,0,0,0,0,-1,1819,1429,21.6327,-10.7796
602,-405,21.6461,13.9199,0,0,0,0,0,0,0,-1,1826,1429,21.6461,-13.92
609,-405,37.801,24.062,0,0,0,0,0,0,0,-1,1833,1429,37.8011,-24.062
616,-405,38.0844,23.2792,0,0,0,0,0,0,0,-1,1840,1429,38.0844,-23.2792
623,-405,38.0216,22.5735,0.00098571,8.41199e-05,-0.000111308,0.000999248,7.05814e-05,-0.121036,0.000643929,0.0169371,1847,1429,38.0216,-22.5735
630,-405,38.0071,21.7324,0.000786129,-2.38529e-05,5.73231e-05,0.000790166,-2.78896e-05,0.0703038,0.000536316,0.0121934,1854,1429,38.0071,-21.7324
637,-405,37.9825,20.9363,0.000928882,-3.30102e-05,-5.06643e-05,0.000931543,-3.56714e-05,-0.0524779,0.000633254,0.0118742,1861,1429,37.9826,-20.9363
644,-405,37.9265,20.1443,0.00138787,1.30791e-05,-0.000254392,0.00143344,-3.24834e-05,-0.177225,0.000966635,0.0313337,1868,1429,37.9265,-20.1443
651,-405,37.8145,19.4663,0.00212059,7.56297e-05,-0.000534639,0.00225193,-5.57122e-05,-0.240894,0.0015202,0.0362083,1875,1429,37.8145,-19.4663
658,-405,37.8126,18.6522,0.00315056,7.18381e-05,-0.000861188,0.00337508,-0.000152682,-0.255033,0.00230264,0.0275758,1882,1429,37.8126,-18.6522
665,-405,37.8054,17.843,0.00449383,-8.81524e-05,-0.00117317,0.00477674,-0.000371062,-0.236632,0.00331511,0.0201181,1889,1429,37.8054,-17.843
672,-405,37.7981,17.0448,0.0061616,-0.000546895,-0.00138965,0.00643807,-0.000823362,-0.196384,0.00459118,0.023421,1896,1429,37.798,-17.0448
679,-405,37.9788,16.3257,0.00827285,-0.00140115,-0.0015141,0.00850428,-0.00163259,-0.151681,0.0062848,0.0364531,1903,1429,37.9788,-16.3257
686,-405,38.1262,15.4038,0,0,0,0,0,0,0,-1,1910,1429,38.1262,-15.4038
693,-405,37.6653,14.9521,0,0,0,0,0,0,0,-1,1917,1429,37.6653,-14.9521
700,-405,9.1958,4.02026,0,0,0,0,0,0,0,-1,1924,1429,9.19579,-4.02025
707,-405,7.40308,3.83191,0,0,0,0,0,0,0,-1,1931,1429,7.40311,-3.83194
714,-405,7.33252,3.47388,0,0,0,0,0,0,0,-1,1938,1429,7.33255,-3.47383
721,-405,9.23523,0.993896,0,0,0,0,0,0,0,-1,1945,1429,9.23523,-0.993884
728,-405,0,0,0,0,0,0,0,0,0,-1,1952,1429,0,0
735,-405,0,0,0,0,0,0,0,0,0,-1,1959,1429,0,0
742,-405,0,0,0,0,0,0,0,0,0,-1,1966,1429,0,0
749,-405,0,0,0,0,0,0,0,0,0,-1,1973,1429,0,0
756,-405,0,0,0,0,0,0,0,0,0,-1,1980,1429,0,0
763,-405,0,0,0,0,0,0,0,0,0,-1,1987,1429,0,0
770,-405,0,0,0,0,0,0,0,0,0,-1,1994,1429,0,0
777,-405,0,0,0,0,0,0,0,0,0,-1,2001,1429,0,0
784,-405,0,0,0,0,0,0,0,0,0,-1,2008,1429,0,0
791,-405,0,0,0,0,0,0,0,0,0,-1,2015,1429,0,0
798,-405,0,0,0,0,0,0,0,0,0,-1,2022,1429,0,0
805,-405,0,0,0,0,0,0,0,0,0,-1,2029,1429,0,0
812,-405,0,0,0,0,0,0,0,0,0,-1,2036,1429,0,0
-700,-412,0,0,0,0,0,0,0,0,0,-1,524,1436,0,0
-693,-412,0,0,0,0,0,0,0,0,0,-1,531,1436,0,0
-686,-412,0,0,0,0,0,0,0,0,0,-1,538,1436,0,0
-679,-412,0,0,0,0,0,0,0,0,0,-1,545,1436,0,0
-672,-412,0,0,0,0,0,0,0,0,0,-1,552,1436,0,0
-665,-412,0,0,0,0,0,0,0,0,0,-1,559,1436,0,0
-658,-412,0,0,0,0,0,0,0,0,0,-1,566,1436,0,0
-651,-412,0,0,0,0,0,0,0,0,0,-1,573,1436,0,0
-644,-412,0,0,0,0,0,0,0,0,0,-1,580,1436,0,0
-637,-412,0,0,0,0,0,0,0,0,0,-1,587,1436,0,0
-630,-412,0,0,0,0,0,0,0,0,0,-1,594,1436,0,0
-623,-412,0,0,0,0,0,0,0,0,0,-1,601,1436,0,0
-616,-412,0,0,0,0,0,0,0,0,0,-1,608,1436,0,0
-609,-412,0,0,0,0,0,0,0,0,0,-1,615,1436,0,0
-602,-412,-3.72766,-3.50012,0,0,0,0,0,0,0,-1,622,1436,-3.72764,3.50017
-595,-412,-10.3706,0.65564,0,0,0,0,0,0,0,-1,629,1436,-10.3706,-0.655672
-588,-412,-8.17957,1.94934,0,0,0,0,0,0,0,-1,636,1436,-8.17956,-1.94939
-581,-412,-6.60065,-0.0554199,0,0,0,0,0,0,0,-1,643,1436,-6.60063,0.0554733
-574,-412,-8.34131,5.25012,0,0,0,0,0,0,0,-1,650,1436,-8.34129,-5.25012
-567,-412,-7.50354,3.65454,0,0,0,0,0,0,0,-1,657,1436,-7.50356,-3.65452
-560,-412,-8.52448,7.39014,0,0,0,0,0,0,0,-1,664,1436,-8.52447,-7.39019
-553,-412,-7.36761,6.54651,0,0,0,0,0,0,0,-1,671,1436,-7.36763,-6.54654
-546,-412,-19.9675,15.4734,0,0,0,0,0,0,0,-1,678,1436,-19.9675,-15.4734
-539,-412,-19.8716,16.3977,0.00523347,0.00485679,0.00426301,0.0093123,0.000777961,0.763322,0.00596581,0.0324394,685,1436,-19.8716,-16.3977
-532,-412,-19.9477,17.3264,0.00404768,0.00345269,0.00318081,0.00694488,0.000555492,0.73877,0.00445631,0.0162935,692,1436,-19.9477,-17.3265
-525,-412,-19.9886,18.1749,0.00327603,0.00254206,0.00245582,0.00539213,0.000425956,0.71123,0.00346152,0.0161833,699,1436,-19.9887,-18.1749
-518,-412,-20.0128,18.9905,0.00269215,0.00183036,0.00187684,0.00418692,0.000335587,0.672561,0.00268641,0.0163376,706,1436,-20.0128,-18.9905
-511,-412,-20.0659,19.772,0.00224224,0.0012646,0.00141126,0.00324694,0.000259903,0.618679,0.0020834,0.0198196,713,1436,-20.0659,-19.772
-504,-412,-20.1377,20.576,0.00191359,0.000837555,0.0010523,0.00255744,0.000193707,0.549084,0.0016442,0.0205379,720,1436,-20.1377,-20.576
-497,-412,-20.1495,21.4467,0.00170629,0.000565767,0.000816655,0.00213208,0.000139973,0.480611,0.0013771,0.0166782,727,1436,-20.1495,-21.4466
-490,-412,-20.1865,22.2646,0.00161735,0.000433113,0.000694368,0.00193778,0.000112679,0.432355,0.00125598,0.0135677,734,1436,-20.1865,-22.2647
-483,-412,-20.2343,23.0549,0.00158839,0.00050788,0.000680924,0.00191735,0.000178921,0.450042,0.00122296,0.0118619,741,1436,-20.2343,-23.0549
-476,-412,-20.2386,23.9387,0,0,0,0,0,0,0,-1,748,1436,-20.2386,-23.9387
-469,-412,-12.7646,18.4785,0,0,0,0,0,0,0,-1,755,1436,-12.7647,-18.4785
-462,-412,-8.94659,13.3385,0,0,0,0,0,0,0,-1,762,1436,-8.94657,-13.3385
-455,-412,-8.25006,11.2572,0,0,0,0,0,0,0,-1,769,1436,-8.25007,-11.2572
-448,-412,-7.38086,8.78186,0,0,0,0,0,0,0,-1,776,1436,-7.38088,-8.78183
-441,-412,-8.79523,9.05286,0,0,0,0,0,0,0,-1,783,1436,-8.79521,-9.0529
-434,-412,-10.6305,8.03577,0,0,0,0,0,0,0,-1,790,1436,-10.6305,-8.0358
-427,-412,-10.0004,5.15271,0,0,0,0,0,0,0,-1,797,1436,-10.0004,-5.15266
-420,-412,-10.4468,4.9043,0,0,0,0,0,0,0,-1,804,1436,-10.4468,-4.90429
-413,-412,-11.5704,4.97766,0,0,0,0,0,0,0,-1,811,1436,-11.5704,-4.97771
-406,-412,-13.1968,5.70093,0,0,0,0,0,0,0,-1,818,1436,-13.1968,-5.70096
-399,-412,-10.5506,0.771973,0,0,0,0,0,0,0,-1,825,1436,-10.5506,-0.771954
-392,-412,0,0,0,0,0,0,0,0,0,-1,832,1436,0,0
-385,-412,0,0,0,0,0,0,0,0,0,-1,839,1436,0,0
-378,-412,0,0,0,0,0,0,0,0,0,-1,846,1436,0,0
-371,-412,0,0,0,0,0,0,0,0,0,-1,853,1436,0,0
-364,-412,0,0,0,0,0,0,0,0,0,-1,860,1436,0,0
-357,-412,0,0,0,0,0,0,0,0,0,-1,867,1436,0,0
-350,-412,0,0,0,0,0,0,0,0,0,-1,874,1436,0,0
-343,-412,0,0,0,0,0,0,0,0,0,-1,881,1436,0,0
-336,-412,0,0,0,0,0,0,0,0,0,-1,888,1436,0,0
-329,-412,0,0,0,0,0,0,0,0,0,-1,895,1436,0,0
-322,-412,0,0,0,0,0,0,0,0,0,-1,902,1436,0,0
-315,-412,0,0,0,0,0,0,0,0,0,-1,909,1436,0,0
-308,-412,0,0,0,0,0,0,0,0,0,-1,916,1436,0,0
-301,-412,0,0,0,0,0,0,0,0,0,-1,923,1436,0,0
-294,-412,0,0,0,0,0,0,0,0,0,-1,930,1436,0,0
-287,-412,0,0,0,0,0,0,0,0,0,-1,937,1436,0,0
-280,-412,0,0,0,0,0,0,0,0,0,-1,944,1436,0,0
-273,-412,0,0,0,0,0,0,0,0,0,-1,951,1436,0,0
-266,-412,0,0,0,0,0,0,0,0,0,-1,958,1436,0,0
-259,-412,0,0,0,0,0,0,0,0,0,-1,965,1436,0,0
-252,-412,0,0,0,0,0,0,0,0,0,-1,972,1436,0,0
-245,-412,0,0,0,0,0,0,0,0,0,-1,979,1436,0,0
-238,-412,0,0,0,0,0,0,0,0,0,-1,986,1436,0,0
-231,-412,0,0,0,0,0,0,0,0,0,-1,993,1436,0,0
-224,-412,0,0,0,0,0,0,0,0,0,-1,1000,1436,0,0
-217,-412,0,0,0,0,0,0,0,0,0,-1,1007,1436,0,0
-210,-412,0,0,0,0,0,0,0,0,0,-1,1014,1436,0,0
-203,-412,0,0,0,0,0,0,0,0,0,-1,1021,1436,0,0
-196,-412,0,0,0,0,0,0,0,0,0,-1,1028,1436,0,0
-189,-412,0,0,0,0,0,0,0,0,0,-1,1035,1436,0,0
-182,-412,0,0,0,0,0,0,0,0,0,-1,1042,1436,0,0
-175,-412,0,0,0,0,0,0,0,0,0,-1,1049,1436,0,0
-168,-412,0,0,0,0,0,0,0,0,0,-1,1056,1436,0,0
-161,-412,0,0,0,0,0,0,0,0,0,-1,1063,1436,0,0
-154,-412,0,0,0,0,0,0,0,0,0,-1,1070,1436,0,0
-147,-412,0,0,0,0,0,0,0,0,0,-1,1077,1436,0,0
-140,-412,0,0,0,0,0,0,0,0,0,-1,1084,1436,0,0
-133,-412,0,0,0,0,0,0,0,0,0,-1,1091,1436,0,0
-126,-412,0,0,0,0,0,0,0,0,0,-1,1098,1436,0,0
-119,-412,0,0,0,0,0,0,0,0,0,-1,1105,1436,0,0
-112,-412,0,0,0,0,0,0,0,0,0,-1,1112,1436,0,0
-105,-412,0,0,0,0,0,0,0,0,0,-1,1119,1436,0,0
-98,-412,0,0,0,0,0,0,0,0,0,-1,1126,1436,0,0
-91,-412,0,0,0,0,0,0,0,0,0,-1,1133,1436,0,0
-84,-412,0,0,0,0,0,0,0,0,0,-1,1140,1436,0,0
-77,-412,0,0,0,0,0,0,0,0,0,-1,1147,1436,0,0
-70,-412,0,0,0,0,0,0,0,0,0,-1,1154,1436,0,0
-63,-412,0,0,0,0,0,0,0,0,0,-1,1161,1436,0,0
-56,-412,0,0,0,0,0,0,0,0,0,-1,1168,1436,0,0
-49,-412,0,0,0,0,0,0,0,0,0,-1,1175,1436,0,0
-42,-412,0,0,0,0,0,0,0,0,0,-1,1182,1436,0,0
-35,-412,0,0,0,0,0,0,0,0,0,-1,1189,1436,0,0
-28,-412,0,0,0,0,0,0,0,0,0,-1,1196,1436,0,0
-21,-412,0,0,0,0,0,0,0,0,0,-1,1203,1436,0,0
-14,-412,0,0,0,0,0,0,0,0,0,-1,1210,1436,0,0
-7,-412,0,0,0,0,0,0,0,0,0,-1,1217,1436,0,0
0,-412,0,0,0,0,0,0,0,0,0,-1,1224,1436,0,0
7,-412,0,0,0,0,0,0,0,0,0,-1,1231,1436,0,0
14,-412,0,0,0,0,0,0,0,0,0,-1,1238,1436,0,0
21,-412,0,0,0,0,0,0,0,0,0,-1,1245,1436,0,0
28,-412,0,0,0,0,0,0,0,0,0,-1,1252,1436,0,0
35,-412,0,0,0,0,0,0,0,0,0,-1,1259,1436,0,0
42,-412,0,0,0,0,0,0,0,0,0,-1,1266,1436,0,0
49,-412,0,0,0,0,0,0,0,0,0,-1,1273,1436,0,0
56,-412,0,0,0,0,0,0,0,0,0,-1,1280,1436,0,0
63,-412,0,0,0,0,0,0,0,0,0,-1,1287,1436,0,0
70,-412,0,0,0,0,0,0,0,0,0,-1,1294,1436,0,0
77,-412,0,0,0,0,0,0,0,0,0,-1,1301,1436,0,0
84,-412,0,0,0,0,0,0,0,0,0,-1,1308,1436,0,0
91,-412,0,0,0,0,0,0,0,0,0,-1,1315,1436,0,0
98,-412,0,0,0,0,0,0,0,0,0,-1,1322,1436,0,0
105,-412,0,0,0,0,0,0,0,0,0,-1,1329,1436,0,0
112,-412,0,0,0,0,0,0,0,0,0,-1,1336,1436,0,0
119,-412,0,0,0,0,0,0,0,0,0,-1,1343,1436,0,0
126,-412,0,0,0,0,0,0,0,0,0,-1,1350,1436,0,0
133,-412,0,0,0,0,0,0,0,0,0,-1,1357,1436,0,0
140,-412,0,0,0,0,0,0,0,0,0,-1,1364,1436,0,0
147,-412,0,0,0,0,0,0,0,0,0,-1,1371,1436,0,0
154,-412,0,0,0,0,0,0,0,0,0,-1,1378,1436,0,0
161,-412,0,0,0,0,0,0,0,0,0,-1,1385,1436,0,0
168,-412,0,0,0,0,0,0,0,0,0,-1,1392,1436,0,0
175,-412,0,0,0,0,0,0,0,0,0,-1,1399,1436,0,0
182,-412,0,0,0,0,0,0,0,0,0,-1,1406,1436,0,0
189,-412,0,0,0,0,0,0,0,0,0,-1,1413,1436,0,0
196,-412,0,0,0,0,0,0,0,0,0,-1,1420,1436,0,0
203,-412,0,0,0,0,0,0,0,0,0,-1,1427,1436,0,0
210,-412,0,0,0,0,0,0,0,0,0,-1,1434,1436,0,0
217,-412,0,0,0,0,0,0,0,0,0,-1,1441,1436,0,0
224,-412,0,0,0,0,0,0,0,0,0,-1,1448,1436,0,0
231,-412,0,0,0,0,0,0,0,0,0,-1,1455,1436,0,0
238,-412,0,0,0,0,0,0,0,0,0,-1,1462,1436,0,0
245,-412,0,0,0,0,0,0,0,0,0,-1,1469,1436,0,0
252,-412,0,0,0,0,0,0,0,0,0,-1,1476,1436,0,0
259,-412,0,0,0,0,0,0,0,0,0,-1,1483,1436,0,0
266,-412,0,0,0,0,0,0,0,0,0,-1,1490,1436,0,0
273,-412,0,0,0,0,0,0,0,0,0,-1,1497,1436,0,0
280,-412,0,0,0,0,0,0,0,0,0,-1,1504,1436,0,0
287,-412,0,0,0,0,0,0,0,0,0,-1,1511,1436,0,0
294,-412,0,0,0,0,0,0,0,0,0,-1,1518,1436,0,0
301,-412,0,0,0,0,0,0,0,0,0,-1,1525,1436,0,0
308,-412,0,0,0,0,0,0,0,0,0,-1,1532,1436,0,0
315,-412,0,0,0,0,0,0,0,0,0,-1,1539,1436,0,0
322,-412,0,0,0,0,0,0,0,0,0,-1,1546,1436,0,0
329,-412,0,0,0,0,0,0,0,0,0,-1,1553,1436,0,0
336,-412,0,0,0,0,0,0,0,0,0,-1,1560,1436,0,0
343,-412,0,0,0,0,0,0,0,0,0,-1,1567,1436,0,0
350,-412,0,0,0,0,0,0,0,0,0,-1,1574,1436,0,0
357,-412,0,0,0,0,0,0,0,0,0,-1,1581,1436,0,0
364,-412,0,0,0,0,0,0,0,0,0,-1,1588,1436,0,0
371,-412,0,0,0,0,0,0,0,0,0,-1,1595,1436,0,0
378,-412,0,0,0,0,0,0,0,0,0,-1,1602,1436,0,0
385,-412,0,0,0,0,0,0,0,0,0,-1,1609,1436,0,0
392,-412,0,0,0,0,0,0,0,0,0,-1,1616,1436,0,0
399,-412,0,0,0,0,0,0,0,0,0,-1,1623,1436,0,0
406,-412,0,0,0,0,0,0,0,0,0,-1,1630,1436,0,0
413,-412,0,0,0,0,0,0,0,0,0,-1,1637,1436,0,0
420,-412,0,0,0,0,0,0,0,0,0,-1,1644,1436,0,0
427,-412,0,0,0,0,0,0,0,0,0,-1,1651,1436,0,0
434,-412,0,0,0,0,0,0,0,0,0,-1,1658,1436,0,0
441,-412,0,0,0,0,0,0,0,0,0,-1,1665,1436,0,0
448,-412,0,0,0,0,0,0,0,0,0,-1,1672,1436,0,0
455,-412,0,0,0,0,0,0,0,0,0,-1,1679,1436,0,0
462,-412,0,0,0,0,0,0,0,0,0,-1,1686,1436,0,0
469,-412,0,0,0,0,0,0,0,0,0,-1,1693,1436,0,0
476,-412,0,0,0,0,0,0,0,0,0,-1,1700,1436,0,0
483,-412,0,0,0,0,0,0,0,0,0,-1,1707,1436,0,0
490,-412,0,0,0,0,0,0,0,0,0,-1,1714,1436,0,0
497,-412,0,0,0,0,0,0,0,0,0,-1,1721,1436,0,0
504,-412,0,0,0,0,0,0,0,0,0,-1,1728,1436,0,0
511,-412,0,0,0,0,0,0,0,0,0,-1,1735,1436,0,0
518,-412,30.1038,-2.43384,0,0,0,0,0,0,0,-1,1742,1436,30.1038,2.43383
525,-412,29.5283,-1.42493,0,0,0,0,0,0,0,-1,1749,1436,29.5283,1.42495
532,-412,28.8533,-0.386597,0,0,0,0,0,0,0,-1,1756,1436,28.8533,0.386632
539,-412,25.8654,2.74683,0,0,0,0,0,0,0,-1,1763,1436,25.8654,-2.74685
546,-412,25.4265,2.4342,0,0,0,0,0,0,0,-1,1770,1436,25.4265,-2.4342
553,-412,26.3595,7.49255,0,0,0,0,0,0,0,-1,1777,1436,26.3595,-7.4925
560,-412,24.9116,7.94324,0,0,0,0,0,0,0,-1,1784,1436,24.9116,-7.94327
567,-412,23.668,7.94531,0,0,0,0,0,0,0,-1,1791,1436,23.6679,-7.94534
574,-412,23.0142,9.17236,0,0,0,0,0,0,0,-1,1798,1436,23.0141,-9.17235
581,-412,22.2615,10.0349,0,0,0,0,0,0,0,-1,1805,1436,22.2615,-10.0349
588,-412,21.6893,10.8069,0,0,0,0,0,0,0,-1,1812,1436,21.6893,-10.8069
595,-412,21.5137,14.3157,0,0,0,0,0,0,0,-1,1819,1436,21.5137,-14.3157
602,-412,37.0725,24.8387,0,0,0,0,0,0,0,-1,1826,1436,37.0725,-24.8388
609,-412,37.3696,24.1495,0,0,0,0,0,0,0,-1,1833,1436,37.3696,-24.1496
616,-412,37.3209,23.3654,0.00169293,0.000817404,-0.00079951,0.00216668,0.000343656,-0.534922,0.00134462,0.0147366,1840,1436,37.3209,-23.3654
623,-412,37.252,22.59,0.00126548,0.000401744,-0.000456253,0.00146185,0.000205379,-0.406424,0.00091383,0.0102805,1847,1436,37.2519,-22.59
630,-412,37.2311,21.7751,0.00115365,0.000254131,-0.00031414,0.00125249,0.000155285,-0.304847,0.000788349,0.0119969,1854,1436,37.231,-21.7751
637,-412,37.2114,20.9788,0.00133506,0.000268637,-0.000384554,0.00145927,0.000144433,-0.312406,0.000928454,0.0137088,1861,1436,37.2114,-20.9788
644,-412,37.1904,20.2064,0.00185215,0.000280147,-0.000578098,0.00204185,9.04464e-05,-0.317076,0.00133211,0.0162133,1868,1436,37.1904,-20.2065
651,-412,37.144,19.4169,0.00261227,0.000408097,-0.000902161,0.00293443,8.59323e-05,-0.342989,0.00192828,0.0277761,1875,1436,37.1441,-19.4169
658,-412,37.0609,18.6456,0.00368004,0.000501314,-0.00130184,0.00414515,3.62035e-05,-0.343138,0.00275145,0.0195282,1882,1436,37.061,-18.6456
665,-412,37.0099,17.8569,0.00508588,0.000435686,-0.00169243,0.00563661,-0.000115046,-0.314602,0.00379667,0.02371,1889,1436,37.0099,-17.8569
672,-412,37.0574,17.0283,0.00684133,5.26173e-05,-0.00198181,0.00737753,-0.000483576,-0.264231,0.00508721,0.0397694,1896,1436,37.0574,-17.0283
679,-412,37.1466,16.1675,0,0,0,0,0,0,0,-1,1903,1436,37.1466,-16.1674
686,-412,35.3159,15.2073,0,0,0,0,0,0,0,-1,1910,1436,35.3159,-15.2072
693,-412,11.9346,6.02344,0,0,0,0,0,0,0,-1,1917,1436,11.9346,-6.02343
700,-412,8.82764,5.8844,0,0,0,0,0,0,0,-1,1924,1436,8.82761,-5.88444
707,-412,6.59998,1.68994,0,0,0,0,0,0,0,-1,1931,1436,6.60002,-1.68995
714,-412,4.77283,-2.39832,0,0,0,0,0,0,0,-1,1938,1436,4.77288,2.39835
721,-412,0,0,0,0,0,0,0,0,0,-1,1945,1436,0,0
728,-412,0,0,0,0,0,0,0,0,0,-1,1952,1436,0,0
735,-412,0,0,0,0,0,0,0,0,0,-1,1959,1436,0,0
742,-412,0,0,0,0,0,0,0,0,0,-1,1966,1436,0,0
749,-412,0,0,0,0,0,0,0,0,0,-1,1973,1436,0,0
756,-412,0,0,0,0,0,0,0,0,0,-1,1980,1436,0,0
763,-412,0,0,0,0,0,0,0,0,0,-1,1987,1436,0,0
770,-412,0,0,0,0,0,0,0,0,0,-1,1994,1436,0,0
777,-412,0,0,0,0,0,0,0,0,0,-1,2001,1436,0,0
784,-412,0,0,0,0,0,0,0,0,0,-1,2008,1436,0,0
791,-412,0,0,0,0,0,0,0,0,0,-1,2015,1436,0,0
798,-412,0,0,0,0,0,0,0,0,0,-1,2022,1436,0,0
805,-412,0,0,0,0,0,0,0,0,0,-1,2029,1436,0,0
812,-412,0,0,0,0,0,0,0,0,0,-1,2036,1436,0,0
-700,-419,0,0,0,0,0,0,0,0,0,-1,524,1443,0,0
-693,-419,0,0,0,0,0,0,0,0,0,-1,531,1443,0,0
-686,-419,0,0,0,0,0,0,0,0,0,-1,538,1443,0,0
-679,-419,0,0,0,0,0,0,0,0,0,-1,545,1443,0,0
-672,-419,0,0,0,0,0,0,0,0,0,-1,552,1443,0,0
-665,-419,0,0,0,0,0,0,0,0,0,-1,559,1443,0,0
-658,-419,0,0,0,0,0,0,0,0,0,-1,566,1443,0,0
-651,-419,0,0,0,0,0,0,0,0,0,-1,573,1443,0,0
-644,-419,0,0,0,0,0,0,0,0,0,-1,580,1443,0,0
-637,-419,0,0,0,0,0,0,0,0,0,-1,587,1443,0,0
-630,-419,0,0,0,0,0,0,0,0,0,-1,594,1443,0,0
-623,-419,0,0,0,0,0,0,0,0,0,-1,601,1443,0,0
-616,-419,0,0,0,0,0,0,0,0,0,-1,608,1443,0,0
-609,-419,0,0,0,0,0,0,0,0,0,-1,615,1443,0,0
-602,-419,0,0,0,0,0,0,0,0,0,-1,622,1443,0,0
-595,-419,-11.4904,-0.622681,0,0,0,0,0,0,0,-1,629,1443,-11.4903,0.622714
-588,-419,-9.09369,0.742432,0,0,0,0,0,0,0,-1,636,1443,-9.09366,-0.742482
-581,-419,-6.39172,2.14673,0,0,0,0,0,0,0,-1,643,1443,-6.39175,-2.14668
-574,-419,-4.09772,3.54773,0,0,0,0,0,0,0,-1,650,1443,-4.09772,-3.54767
-567,-419,-6.14038,3.22498,0,0,0,0,0,0,0,-1,657,1443,-6.14037,-3.22497
-560,-419,-4.52814,5.22253,0,0,0,0,0,0,0,-1,664,1443,-4.52816,-5.22251
-553,-419,-5.08331,6.11829,0,0,0,0,0,0,0,-1,671,1443,-5.08331,-6.1183
-546,-419,-10.3732,9.23279,0,0,0,0,0,0,0,-1,678,1443,-10.3732,-9.23275
-539,-419,-19.0882,16.4069,0,0,0,0,0,0,0,-1,685,1443,-19.0882,-16.4068
-532,-419,-19.1443,17.3652,0.00464433,0.00449233,0.00403277,0.00860181,0.00053484,0.775977,0.00556484,0.0326741,692,1443,-19.1443,-17.3653
-525,-419,-19.1585,18.2482,0.00371137,0.0033834,0.00314353,0.00669519,0.000399578,0.759338,0.00433641,0.0137116,699,1443,-19.1585,-18.2481
-518,-419,-19.1792,19.0522,0.00298366,0.00250724,0.00241083,0.00516802,0.000322874,0.736154,0.00334292,0.0174671,706,1443,-19.1792,-19.0522
-511,-419,-19.2496,19.8311,0.00238705,0.00178745,0.00179955,0.0039116,0.000262902,0.702859,0.00252466,0.0203666,713,1443,-19.2497,-19.8311
-504,-419,-19.3292,20.6293,0.00190782,0.00121158,0.00129394,0.00289965,0.000219746,0.653992,0.00186418,0.0215219,720,1443,-19.3292,-20.6292
-497,-419,-19.3441,21.4399,0.00155477,0.000789385,0.000906892,0.00215641,0.000187748,0.585741,0.00137929,0.0157571,727,1443,-19.3441,-21.4399
-490,-419,-19.3657,22.2709,0.0013116,0.000497687,0.000632494,0.00165675,0.00015254,0.499531,0.00105733,0.0124058,734,1443,-19.3657,-22.2709
-483,-419,-19.4061,23.0959,0.0012108,0.000420889,0.000514905,0.00146478,0.000166909,0.458236,0.000925914,0.0101115,741,1443,-19.4061,-23.096
-476,-419,-19.4316,23.9185,0.00118527,0.000385231,0.000514965,0.00143733,0.000133173,0.455185,0.000917055,0.0233176,748,1443,-19.4316,-23.9185
-469,-419,-19.4629,24.7467,0,0,0,0,0,0,0,-1,755,1443,-19.4629,-24.7467
-462,-419,-11.5347,18.1563,0,0,0,0,0,0,0,-1,762,1443,-11.5347,-18.1562
-455,-419,-7.35645,11.9451,0,0,0,0,0,0,0,-1,769,1443,-7.35646,-11.9451
-448,-419,-7.49109,9.92444,0,0,0,0,0,0,0,-1,776,1443,-7.49109,-9.92442
-441,-419,-7.65527,8.75574,0,0,0,0,0,0,0,-1,783,1443,-7.65525,-8.75568
-434,-419,-11.3724,12.3643,0,0,0,0,0,0,0,-1,790,1443,-11.3724,-12.3643
-427,-419,-8.23193,7.89404,0,0,0,0,0,0,0,-1,797,1443,-8.23193,-7.89404
-420,-419,-8.74091,6.36597,0,0,0,0,0,0,0,-1,804,1443,-8.74089,-6.366
-413,-419,-9.88391,6.53955,0,0,0,0,0,0,0,-1,811,1443,-9.8839,-6.53955
-406,-419,-10.3372,2.75195,0,0,0,0,0,0,0,-1,818,1443,-10.3372,-2.75201
-399,-419,-11.5999,1.40002,0,0,0,0,0,0,0,-1,825,1443,-11.5999,-1.39998
-392,-419,0,0,0,0,0,0,0,0,0,-1,832,1443,0,0
-385,-419,0,0,0,0,0,0,0,0,0,-1,839,1443,0,0
-378,-419,0,0,0,0,0,0,0,0,0,-1,846,1443,0,0
-371,-419,0,0,0,0,0,0,0,0,0,-1,853,1443,0,0
-364,-419,0,0,0,0,0,0,0,0,0,-1,860,1443,0,0
-357,-419,0,0,0,0,0,0,0,0,0,-1,867,1443,0,0
-350,-419,0,0,0,0,0,0,0,0,0,-1,874,1443,0,0
-343,-419,0,0,0,0,0,0,0,0,0,-1,881,1443,0,0
-336,-419,0,0,0,0,0,0,0,0,0,-1,888,1443,0,0
-329,-419,0,0,0,0,0,0,0,0,0,-1,895,1443,0,0
-322,-419,0,0,0,0,0,0,0,0,0,-1,902,1443,0,0
-315,-419,0,0,0,0,0,0,0,0,0,-1,909,1443,0,0
-308,-419,0,0,0,0,0,0,0,0,0,-1,916,1443,0,0
-301,-419,0,0,0,0,0,0,0,0,0,-1,923,1443,0,0
-294,-419,0,0,0,0,0,0,0,0,0,-1,930,1443,0,0
-287,-419,0,0,0,0,0,0,0,0,0,-1,937,1443,0,0
-280,-419,0,0,0,0,0,0,0,0,0,-1,944,1443,0,0
-273,-419,0,0,0,0,0,0,0,0,0,-1,951,1443,0,0
-266,-419,0,0,0,0,0,0,0,0,0,-1,958,1443,0,0
-259,-419,0,0,0,0,0,0,0,0,0,-1,965,1443,0,0
-252,-419,0,0,0,0,0,0,0,0,0,-1,972,1443,0,0
-245,-419,0,0,0,0,0,0,0,0,0,-1,979,1443,0,0
-238,-419,0,0,0,0,0,0,0,0,0,-1,986,1443,0,0
-231,-419,0,0,0,0,0,0,0,0,0,-1,993,1443,0,0
-224,-419,0,0,0,0,0,0,0,0,0,-1,1000,1443,0,0
-217,-419,0,0,0,0,0,0,0,0,0,-1,1007,1443,0,0
-210,-419,0,0,0,0,0,0,0,0,0,-1,1014,1443,0,0
-203,-419,0,0,0,0,0,0,0,0,0,-1,1021,1443,0,0
-196,-419,0,0,0,0,0,0,0,0,0,-1,1028,1443,0,0
-189,-419,0,0,0,0,0,0,0,0,0,-1,1035,1443,0,0
-182,-419,0,0,0,0,0,0,0,0,0,-1,1042,1443,0,0
-175,-419,0,0,0,0,0,0,0,0,0,-1,1049,1443,0,0
-168,-419,0,0,0,0,0,0,0,0,0,-1,1056,1443,0,0
-161,-419,0,0,0,0,0,0,0,0,0,-1,1063,1443,0,0
-154,-419,0,0,0,0,0,0,0,0,0,-1,1070,1443,0,0
-147,-419,0,0,0,0,0,0,0,0,0,-1,1077,1443,0,0
-140,-419,0,0,0,0,0,0,0,0,0,-1,1084,1443,0,0
-133,-419,0,0,0,0,0,0,0,0,0,-1,1091,1443,0,0
-126,-419,0,0,0,0,0,0,0,0,0,-1,1098,1443,0,0
-119,-419,0,0,0,0,0,0,0,0,0,-1,1105,1443,0,0
-112,-419,0,0,0,0,0,0,0,0,0,-1,1112,1443,0,0
-105,-419,0,0,0,0,0,0,0,0,0,-1,1119,1443,0,0
-98,-419,0,0,0,0,0,0,0,0,0,-1,1126,1443,0,0
-91,-419,0,0,0,0,0,0,0,0,0,-1,1133,1443,0,0
-84,-419,0,0,0,0,0,0,0,0,0,-1,1140,1443,0,0
-77,-419,0,0,0,0,0,0,0,0,0,-1,1147,1443,0,0
-70,-419,0,0,0,0,0,0,0,0,0,-1,1154,1443,0,0
-63,-419,0,0,0,0,0,0,0,0,0,-1,1161,1443,0,0
-56,-419,0,0,0,0,0,0,0,0,0,-1,1168,1443,0,0
-49,-419,0,0,0,0,0,0,0,0,0,-1,1175,1443,0,0
-42,-419,0,0,0,0,0,0,0,0,0,-1,1182,1443,0,0
-35,-419,0,0,0,0,0,0,0,0,0,-1,1189,1443,0,0
-28,-419,0,0,0,0,0,0,0,0,0,-1,1196,1443,0,0
-21,-419,0,0,0,0,0,0,0,0,0,-1,1203,1443,0,0
-14,-419,0,0,0,0,0,0,0,0,0,-1,1210,1443,0,0
-7,-419,0,0,0,0,0,0,0,0,0,-1,1217,1443,0,0
0,-419,0,0,0,0,0,0,0,0,0,-1,1224,1443,0,0
7,-419,0,0,0,0,0,0,0,0,0,-1,1231,1443,0,0
14,-419,0,0,0,0,0,0,0,0,0,-1,1238,1443,0,0
21,-419,0,0,0,0,0,0,0,0,0,-1,1245,1443,0,0
28,-419,0,0,0,0,0,0,0,0,0,-1,1252,1443,0,0
35,-419,0,0,0,0,0,0,0,0,0,-1,1259,1443,0,0
42,-419,0,0,0,0,0,0,0,0,0,-1,1266,1443,0,0
49,-419,0,0,0,0,0,0,0,0,0,-1,1273,1443,0,0
56,-419,0,0,0,0,0,0,0,0,0,-1,1280,1443,0,0
63,-419,0,0,0,0,0,0,0,0,0,-1,1287,1443,0,0
70,-419,0,0,0,0,0,0,0,0,0,-1,1294,1443,0,0
77,-419,0,0,0,0,0,0,0,0,0,-1,1301,1443,0,0
84,-419,0,0,0,0,0,0,0,0,0,-1,1308,1443,0,0
91,-419,0,0,0,0,0,0,0,0,0,-1,1315,1443,0,0
98,-419,0,0,0,0,0,0,0,0,0,-1,1322,1443,0,0
105,-419,0,0,0,0,0,0,0,0,0,-1,1329,1443,0,0
112,-419,0,0,0,0,0,0,0,0,0,-1,1336,1443,0,0
119,-419,0,0,0,0,0,0,0,0,0,-1,1343,1443,0,0
126,-419,0,0,0,0,0,0,0,0,0,-1,1350,1443,0,0
133,-419,0,0,0,0,0,0,0,0,0,-1,1357,1443,0,0
140,-419,0,0,0,0,0,0,0,0,0,-1,1364,1443,0,0
147,-419,0,0,0,0,0,0,0,0,0,-1,1371,1443,0,0
154,-419,0,0,0,0,0,0,0,0,0,-1,1378,1443,0,0
161,-419,0,0,0,0,0,0,0,0,0,-1,1385,1443,0,0
168,-419,0,0,0,0,0,0,0,0,0,-1,1392,1443,0,0
175,-419,0,0,0,0,0,0,0,0,0,-1,1399,1443,0,0
182,-419,0,0,0,0,0,0,0,0,0,-1,1406,1443,0,0
189,-419,0,0,0,0,0,0,0,0,0,-1,1413,1443,0,0
196,-419,0,0,0,0,0,0,0,0,0,-1,1420,1443,0,0
203,-419,0,0,0,0,0,0,0,0,0,-1,1427,1443,0,0
210,-419,0,0,0,0,0,0,0,0,0,-1,1434,1443,0,0
217,-419,0,0,0,0,0,0,0,0,0,-1,1441,1443,0,0
224,-419,0,0,0,0,0,0,0,0,0,-1,1448,1443,0,0
231,-419,0,0,0,0,0,0,0,0,0,-1,1455,1443,0,0
238,-419,0,0,0,0,0,0,0,0,0,-1,1462,1443,0,0
245,-419,0,0,0,0,0,0,0,0,0,-1,1469,1443,0,0
252,-419,0,0,0,0,0,0,0,0,0,-1,1476,1443,0,0
259,-419,0,0,0,0,0,0,0,0,0,-1,1483,1443,0,0
266,-419,0,0,0,0,0,0,0,0,0,-1,1490,1443,0,0
273,-419,0,0,0,0,0,0,0,0,0,-1,1497,1443,0,0
280,-419,0,0,0,0,0,0,0,0,0,-1,1504,1443,0,0
287,-419,0,0,0,0,0,0,0,0,0,-1,1511,1443,0,0
294,-419,0,0,0,0,0,0,0,0,0,-1,1518,1443,0,0
301,-419,0,0,0,0,0,0,0,0,0,-1,1525,1443,0,0
308,-419,0,0,0,0,0,0,0,0,0,-1,1532,1443,0,0
315,-419,0,0,0,0,0,0,0,0,0,-1,1539,1443,0,0
322,-419,0,0,0,0,0,0,0,0,0,-1,1546,1443,0,0
329,-419,0,0,0,0,0,0,0,0,0,-1,1553,1443,0,0
336,-419,0,0,0,0,0,0,0,0,0,-1,1560,1443,0,0
343,-419,0,0,0,0,0,0,0,0,0,-1,1567,1443,0,0
350,-419,0,0,0,0,0,0,0,0,0,-1,1574,1443,0,0
357,-419,0,0,0,0,0,0,0,0,0,-1,1581,1443,0,0
364,-419,0,0,0,0,0,0,0,0,0,-1,1588,1443,0,0
371,-419,0,0,0,0,0,0,0,0,0,-1,1595,1443,0,0
378,-419,0,0,0,0,0,0,0,0,0,-1,1602,1443,0,0
385,-419,0,0,0,0,0,0,0,0,0,-1,1609,1443,0,0
392,-419,0,0,0,0,0,0,0,0,0,-1,1616,1443,0,0
399,-419,0,0,0,0,0,0,0,0,0,-1,1623,1443,0,0
406,-419,0,0,0,0,0,0,0,0,0,-1,1630,1443,0,0
413,-419,0,0,0,0,0,0,0,0,0,-1,1637,1443,0,0
420,-419,0,0,0,0,0,0,0,0,0,-1,1644,1443,0,0
427,-419,0,0,0,0,0,0,0,0,0,-1,1651,1443,0,0
434,-419,0,0,0,0,0,0,0,0,0,-1,1658,1443,0,0
441,-419,0,0,0,0,0,0,0,0,0,-1,1665,1443,0,0
448,-419,0,0,0,0,0,0,0,0,0,-1,1672,1443,0,0
455,-419,0,0,0,0,0,0,0,0,0,-1,1679,1443,0,0
462,-419,0,0,0,0,0,0,0,0,0,-1,1686,1443,0,0
469,-419,0,0,0,0,0,0,0,0,0,-1,1693,1443,0,0
476,-419,0,0,0,0,0,0,0,0,0,-1,1700,1443,0,0
483,-419,0,0,0,0,0,0,0,0,0,-1,1707,1443,0,0
490,-419,0,0,0,0,0,0,0,0,0,-1,1714,1443,0,0
497,-419,0,0,0,0,0,0,0,0,0,-1,1721,1443,0,0
504,-419,0,0,0,0,0,0,0,0,0,-1,1728,1443,0,0
511,-419,20.3005,3.7959,0,0,0,0,0,0,0,-1,1735,1443,20.3005,-3.79584
518,-419,21.3154,2.03027,0,0,0,0,0,0,0,-1,1742,1443,21.3155,-2.03029
525,-419,28.3439,-1.24475,0,0,0,0,0,0,0,-1,1749,1443,28.3438,1.24471
532,-419,27.5902,-0.272583,0,0,0,0,0,0,0,-1,1756,1443,27.5902,0.272526
539,-419,26.5278,1.60583,0,0,0,0,0,0,0,-1,1763,1443,26.5279,-1.60579
546,-419,24.9509,2.77539,0,0,0,0,0,0,0,-1,1770,1443,24.9509,-2.77537
553,-419,24.118,3.75525,0,0,0,0,0,0,0,-1,1777,1443,24.1181,-3.75526
560,-419,11.8199,8.26343,0,0,0,0,0,0,0,-1,1784,1443,11.82,-8.26341
567,-419,21.5143,8.74719,0,0,0,0,0,0,0,-1,1791,1443,21.5143,-8.74722
574,-419,19.5886,6.46155,0,0,0,0,0,0,0,-1,1798,1443,19.5886,-6.46157
581,-419,20.7926,11.4265,0,0,0,0,0,0,0,-1,1805,1443,20.7926,-11.4265
588,-419,19.4242,12.5363,0,0,0,0,0,0,0,-1,1812,1443,19.4242,-12.5362
595,-419,22.9375,16.0151,0,0,0,0,0,0,0,-1,1819,1443,22.9375,-16.0152
602,-419,36.5975,25.0144,0,0,0,0,0,0,0,-1,1826,1443,36.5975,-25.0144
609,-419,36.5751,24.1741,0.00253539,0.00166336,-0.00172868,0.0038822,0.000316557,-0.661863,0.00248933,0.0287293,1833,1443,36.5751,-24.1741
616,-419,36.5272,23.422,0.00189656,0.000918315,-0.00106691,0.00258113,0.000233748,-0.570471,0.00164837,0.0125994,1840,1443,36.5272,-23.422
623,-419,36.4847,22.6394,0.00150504,0.000611893,-0.000725235,0.00191017,0.000206766,-0.509433,0.00121042,0.0104968,1847,1443,36.4847,-22.6394
630,-419,36.474,21.8303,0.00141339,0.00045323,-0.000574222,0.00168178,0.00018484,-0.437228,0.00106493,0.0124324,1854,1443,36.474,-21.8303
637,-419,36.4355,21.0647,0.00158405,0.000505037,-0.000597322,0.00184944,0.000239646,-0.418105,0.00116135,0.0133193,1861,1443,36.4355,-21.0647
644,-419,36.3962,20.2905,0.0020938,0.000535263,-0.00076094,0.0024037,0.000225364,-0.386749,0.00153288,0.0127015,1868,1443,36.3963,-20.2906
651,-419,36.3595,19.5243,0.00283033,0.000748416,-0.00110078,0.0033044,0.000274347,-0.406661,0.00211741,0.0126247,1875,1443,36.3595,-19.5243
658,-419,36.2891,18.7119,0.00390633,0.000978205,-0.00156194,0.00458309,0.00030144,-0.408867,0.00296004,0.014427,1882,1443,36.2891,-18.7119
665,-419,36.2482,17.906,0.00534734,0.00106019,-0.0020255,0.00615292,0.000254601,-0.378542,0.00401977,0.0242456,1889,1443,36.2481,-17.9061
672,-419,36.2668,17.0917,0,0,0,0,0,0,0,-1,1896,1443,36.2669,-17.0917
679,-419,35.5436,15.4066,0,0,0,0,0,0,0,-1,1903,1443,35.5436,-15.4067
686,-419,17.4127,8.03076,0,0,0,0,0,0,0,-1,1910,1443,17.4127,-8.03071
693,-419,8.76086,5.60535,0,0,0,0,0,0,0,-1,1917,1443,8.76091,-5.6054
700,-419,11.0498,4.85156,0,0,0,0,0,0,0,-1,1924,1443,11.0498,-4.85153
707,-419,9.5752,1.80042,0,0,0,0,0,0,0,-1,1931,1443,9.57523,-1.80037
714,-419,5.77576,-1.25061,0,0,0,0,0,0,0,-1,1938,1443,5.7757,1.25056
721,-419,0,0,0,0,0,0,0,0,0,-1,1945,1443,0,0
728,-419,0,0,0,0,0,0,0,0,0,-1,1952,1443,0,0
735,-419,0,0,0,0,0,0,0,0,0,-1,1959,1443,0,0
742,-419,0,0,0,0,0,0,0,0,0,-1,1966,1443,0,0
749,-419,0,0,0,0,0,0,0,0,0,-1,1973,1443,0,0
756,-419,0,0,0,0,0,0,0,0,0,-1,1980,1443,0,0
763,-419,0,0,0,0,0,0,0,0,0,-1,1987,1443,0,0
770,-419,0,0,0,0,0,0,0,0,0,-1,1994,1443,0,0
777,-419,0,0,0,0,0,0,0,0,0,-1,2001,1443,0,0
784,-419,0,0,0,0,0,0,0,0,0,-1,2008,1443,0,0
791,-419,0,0,0,0,0,0,0,0,0,-1,2015,1443,0,0
798,-419,0,0,0,0,0,0,0,0,0,-1,2022,1443,0,0
805,-419,0,0,0,0,0,0,0,0,0,-1,2029,1443,0,0
812,-419,0,0,0,0,0,0,0,0,0,-1,2036,1443,0,0
-700,-426,0,0,0,0,0,0,0,0,0,-1,524,1450,0,0
-693,-426,0,0,0,0,0,0,0,0,0,-1,531,1450,0,0
-686,-426,0,0,0,0,0,0,0,0,0,-1,538,1450,0,0
-679,-426,0,0,0,0,0,0,0,0,0,-1,545,1450,0,0
-672,-426,0,0,0,0,0,0,0,0,0,-1,552,1450,0,0
-665,-426,0,0,0,0,0,0,0,0,0,-1,559,1450,0,0
-658,-426,0,0,0,0,0,0,0,0,0,-1,566,1450,0,0
-651,-426,0,0,0,0,0,0,0,0,0,-1,573,1450,0,0
-644,-426,0,0,0,0,0,0,0,0,0,-1,580,1450,0,0
-637,-426,0,0,0,0,0,0,0,0,0,-1,587,1450,0,0
-630,-426,0,0,0,0,0,0,0,0,0,-1,594,1450,0,0
-623,-426,0,0,0,0,0,0,0,0,0,-1,601,1450,0,0
-616,-426,0,0,0,0,0,0,0,0,0,-1,608,1450,0,0
-609,-426,0,0,0,0,0,0,0,0,0,-1,615,1450,0,0
-602,-426,0,0,0,0,0,0,0,0,0,-1,622,1450,0,0
-595,-426,0,0,0,0,0,0,0,0,0,-1,629,1450,0,0
-588,-426,-10.184,-0.554321,0,0,0,0,0,0,0,-1,636,1450,-10.184,0.554321
-581,-426,-7.3349,1.48157,0,0,0,0,0,0,0,-1,643,1450,-7.33491,-1.48152
-574,-426,-5.02856,2.89319,0,0,0,0,0,0,0,-1,650,1450,-5.02858,-2.89319
-567,-426,-3.04797,1.72644,0,0,0,0,0,0,0,-1,657,1450,-3.04797,-1.72639
-560,-426,-5.55682,3.44397,0,0,0,0,0,0,0,-1,664,1450,-5.55684,-3.44399
-553,-426,-4.67017,6.66614,0,0,0,0,0,0,0,-1,671,1450,-4.67015,-6.66619
-546,-426,-7.58752,8.28882,0,0,0,0,0,0,0,-1,678,1450,-7.58752,-8.28878
-539,-426,-10.436,10.7441,0,0,0,0,0,0,0,-1,685,1450,-10.436,-10.7441
-532,-426,-18.3994,17.3153,0,0,0,0,0,0,0,-1,692,1450,-18.3994,-17.3153
-525,-426,-18.4027,18.2015,0.00410051,0.00433124,0.00392851,0.00814608,0.000285672,0.800077,0.00533804,0.0247846,699,1450,-18.4027,-18.2015
-518,-426,-18.4077,19.0872,0.00333146,0.0032765,0.00305913,0.00636323,0.00024473,0.780907,0.00416298,0.0170684,706,1450,-18.4077,-19.0871
-511,-426,-18.4302,19.9159,0.00266542,0.00240283,0.00232499,0.00486282,0.000205434,0.757193,0.00317562,0.0171065,713,1450,-18.4302,-19.9159
-504,-426,-18.4879,20.7058,0.00210098,0.00168513,0.00169589,0.00360164,0.00018447,0.724399,0.00234202,0.0169583,720,1450,-18.4879,-20.7058
-497,-426,-18.5088,21.5092,0.00164614,0.00112724,0.00117711,0.00259205,0.000181326,0.676925,0.00167088,0.014322,727,1450,-18.5088,-21.5092
-490,-426,-18.5317,22.3395,0.00128589,0.000701133,0.000771034,0.00181812,0.000168904,0.604173,0.00115989,0.0135204,734,1450,-18.5317,-22.3395
-483,-426,-18.5746,23.1563,0.00111495,0.000498319,0.000555049,0.00144156,0.000171701,0.531882,0.000909228,0.0123394,741,1450,-18.5746,-23.1562
-476,-426,-18.6212,23.952,0.00107894,0.000440134,0.000510712,0.0013619,0.00015717,0.505953,0.000860344,0.0101676,748,1450,-18.6211,-23.952
-469,-426,-18.683,24.7458,0.0012199,0.000596346,0.000645375,0.00162486,0.000191385,0.560381,0.00102542,0.0148413,755,1450,-18.6831,-24.7459
-462,-426,-18.6199,25.589,0,0,0,0,0,0,0,-1,762,1450,-18.62,-25.589
-455,-426,-10.215,17.7007,0,0,0,0,0,0,0,-1,769,1450,-10.215,-17.7007
-448,-426,-6.46545,10.1322,0,0,0,0,0,0,0,-1,776,1450,-6.46543,-10.1322
-441,-426,-10.9547,11.4747,0,0,0,0,0,0,0,-1,783,1450,-10.9546,-11.4748
-434,-426,-10.4998,13.6189,0,0,0,0,0,0,0,-1,790,1450,-10.4997,-13.6189
-427,-426,-9.36627,13.7396,0,0,0,0,0,0,0,-1,797,1450,-9.36628,-13.7396
-420,-426,-5.33765,7.95044,0,0,0,0,0,0,0,-1,804,1450,-5.33766,-7.95041
-413,-426,-10.1148,5.0415,0,0,0,0,0,0,0,-1,811,1450,-10.1148,-5.04152
-406,-426,-11.4199,3.6438,0,0,0,0,0,0,0,-1,818,1450,-11.4198,-3.64382
-399,-426,-12.7595,2.29004,0,0,0,0,0,0,0,-1,825,1450,-12.7595,-2.29003
-392,-426,-12.4147,0.537354,0,0,0,0,0,0,0,-1,832,1450,-12.4147,-0.53731
-385,-426,0,0,0,0,0,0,0,0,0,-1,839,1450,0,0
-378,-426,0,0,0,0,0,0,0,0,0,-1,846,1450,0,0
-371,-426,0,0,0,0,0,0,0,0,0,-1,853,1450,0,0
-364,-426,0,0,0,0,0,0,0,0,0,-1,860,1450,0,0
-357,-426,0,0,0,0,0,0,0,0,0,-1,867,1450,0,0
-350,-426,0,0,0,0,0,0,0,0,0,-1,874,1450,0,0
-343,-426,0,0,0,0,0,0,0,0,0,-1,881,1450,0,0
-336,-426,0,0,0,0,0,0,0,0,0,-1,888,1450,0,0
-329,-426,0,0,0,0,0,0,0,0,0,-1,895,1450,0,0
-322,-426,0,0,0,0,0,0,0,0,0,-1,902,1450,0,0
-315,-426,0,0,0,0,0,0,0,0,0,-1,909,1450,0,0
-308,-426,0,0,0,0,0,0,0,0,0,-1,916,1450,0,0
-301,-426,0,0,0,0,0,0,0,0,0,-1,923,1450,0,0
-294,-426,0,0,0,0,0,0,0,0,0,-1,930,1450,0,0
-287,-426,0,0,0,0,0,0,0,0,0,-1,937,1450,0,0
-280,-426,0,0,0,0,0,0,0,0,0,-1,944,1450,0,0
-273,-426,0,0,0,0,0,0,0,0,0,-1,951,1450,0,0
-266,-426,0,0,0,0,0,0,0,0,0,-1,958,1450,0,0
-259,-426,0,0,0,0,0,0,0,0,0,-1,965,1450,0,0
-252,-426,0,0,0,0,0,0,0,0,0,-1,972,1450,0,0
-245,-426,0,0,0,0,0,0,0,0,0,-1,979,1450,0,0
-238,-426,0,0,0,0,0,0,0,0,0,-1,986,1450,0,0
-231,-426,0,0,0,0,0,0,0,0,0,-1,993,1450,0,0
-224,-426,0,0,0,0,0,0,0,0,0,-1,1000,1450,0,0
-217,-426,0,0,0,0,0,0,0,0,0,-1,1007,1450,0,0
-210,-426,0,0,0,0,0,0,0,0,0,-1,1014,1450,0,0
-203,-426,0,0,0,0,0,0,0,0,0,-1,1021,1450,0,0
-196,-426,0,0,0,0,0,0,0,0,0,-1,1028,1450,0,0
-189,-426,0,0,0,0,0,0,0,0,0,-1,1035,1450,0,0
-182,-426,0,0,0,0,0,0,0,0,0,-1,1042,1450,0,0
-175,-426,0,0,0,0,0,0,0,0,0,-1,1049,1450,0,0
-168,-426,0,0,0,0,0,0,0,0,0,-1,1056,1450,0,0
-161,-426,0,0,0,0,0,0,0,0,0,-1,1063,1450,0,0
-154,-426,0,0,0,0,0,0,0,0,0,-1,1070,1450,0,0
-147,-426,0,0,0,0,0,0,0,0,0,-1,1077,1450,0,0
-140,-426,0,0,0,0,0,0,0,0,0,-1,1084,1450,0,0
-133,-426,0,0,0,0,0,0,0,0,0,-1,1091,1450,0,0
-126,-426,0,0,0,0,0,0,0,0,0,-1,1098,1450,0,0
-119,-426,0,0,0,0,0,0,0,0,0,-1,1105,1450,0,0
-112,-426,0,0,0,0,0,0,0,0,0,-1,1112,1450,0,0
-105,-426,0,0,0,0,0,0,0,0,0,-1,1119,1450,0,0
-98,-426,0,0,0,0,0,0,0,0,0,-1,1126,1450,0,0
-91,-426,0,0,0,0,0,0,0,0,0,-1,1133,1450,0,0
-84,-426,0,0,0,0,0,0,0,0,0,-1,1140,1450,0,0
-77,-426,0,0,0,0,0,0,0,0,0,-1,1147,1450,0,0
-70,-426,0,0,0,0,0,0,0,0,0,-1,1154,1450,0,0
-63,-426,0,0,0,0,0,0,0,0,0,-1,1161,1450,0,0
-56,-426,0,0,0,0,0,0,0,0,0,-1,1168,1450,0,0
-49,-426,0,0,0,0,0,0,0,0,0,-1,1175,1450,0,0
-42,-426,0,0,0,0,0,0,0,0,0,-1,1182,1450,0,0
-35,-426,0,0,0,0,0,0,0,0,0,-1,1189,1450,0,0
-28,-426,0,0,0,0,0,0,0,0,0,-1,1196,1450,0,0
-21,-426,0,0,0,0,0,0,0,0,0,-1,1203,1450,0,0
-14,-426,0,0,0,0,0,0,0,0,0,-1,1210,1450,0,0
-7,-426,0,0,0,0,0,0,0,0,0,-1,1217,1450,0,0
0,-426,0,0,0,0,0,0,0,0,0,-1,1224,1450,0,0
7,-426,0,0,0,0,0,0,0,0,0,-1,1231,1450,0,0
14,-426,0,0,0,0,0,0,0,0,0,-1,1238,1450,0,0
21,-426,0,0,0,0,0,0,0,0,0,-1,1245,1450,0,0
28,-426,0,0,0,0,0,0,0,0,0,-1,1252,1450,0,0
35,-426,0,0,0,0,0,0,0,0,0,-1,1259,1450,0,0
42,-426,0,0,0,0,0,0,0,0,0,-1,1266,1450,0,0
49,-426,0,0,0,0,0,0,0,0,0,-1,1273,1450,0,0
56,-426,0,0,0,0,0,0,0,0,0,-1,1280,1450,0,0
63,-426,0,0,0,0,0,0,0,0,0,-1,1287,1450,0,0
70,-426,0,0,0,0,0,0,0,0,0,-1,1294,1450,0,0
77,-426,0,0,0,0,0,0,0,0,0,-1,1301,1450,0,0
84,-426,0,0,0,0,0,0,0,0,0,-1,1308,1450,0,0
91,-426,0,0,0,0,0,0,0,0,0,-1,1315,1450,0,0
98,-426,0,0,0,0,0,0,0,0,0,-1,1322,1450,0,0
105,-426,0,0,0,0,0,0,0,0,0,-1,1329,1450,0,0
112,-426,0,0,0,0,0,0,0,0,0,-1,1336,1450,0,0
119,-426,0,0,0,0,0,0,0,0,0,-1,1343,1450,0,0
126,-426,0,0,0,0,0,0,0,0,0,-1,1350,1450,0,0
133,-426,0,0,0,0,0,0,0,0,0,-1,1357,1450,0,0
140,-426,0,0,0,0,0,0,0,0,0,-1,1364,1450,0,0
147,-426,0,0,0,0,0,0,0,0,0,-1,1371,1450,0,0
154,-426,0,0,0,0,0,0,0,0,0,-1,1378,1450,0,0
161,-426,0,0,0,0,0,0,0,0,0,-1,1385,1450,0,0
168,-426,0,0,0,0,0,0,0,0,0,-1,1392,1450,0,0
175,-426,0,0,0,0,0,0,0,0,0,-1,1399,1450,0,0
182,-426,0,0,0,0,0,0,0,0,0,-1,1406,1450,0,0
189,-426,0,0,0,0,0,0,0,0,0,-1,1413,1450,0,0
196,-426,0,0,0,0,0,0,0,0,0,-1,1420,1450,0,0
203,-426,0,0,0,0,0,0,0,0,0,-1,1427,1450,0,0
210,-426,0,0,0,0,0,0,0,0,0,-1,1434,1450,0,0
217,-426,0,0,0,0,0,0,0,0,0,-1,1441,1450,0,0
224,-426,0,0,0,0,0,0,0,0,0,-1,1448,1450,0,0
231,-426,0,0,0,0,0,0,0,0,0,-1,1455,1450,0,0
238,-426,0,0,0,0,0,0,0,0,0,-1,1462,1450,0,0
245,-426,0,0,0,0,0,0,0,0,0,-1,1469,1450,0,0
252,-426,0,0,0,0,0,0,0,0,0,-1,1476,1450,0,0
259,-426,0,0,0,0,0,0,0,0,0,-1,1483,1450,0,0
266,-426,0,0,0,0,0,0,0,0,0,-1,1490,1450,0,0
273,-426,0,0,0,0,0,0,0,0,0,-1,1497,1450,0,0
280,-426,0,0,0,0,0,0,0,0,0,-1,1504,1450,0,0
287,-426,0,0,0,0,0,0,0,0,0,-1,1511,1450,0,0
294,-426,0,0,0,0,0,0,0,0,0,-1,1518,1450,0,0
301,-426,0,0,0,0,0,0,0,0,0,-1,1525,1450,0,0
308,-426,0,0,0,0,0,0,0,0,0,-1,1532,1450,0,0
315,-426,0,0,0,0,0,0,0,0,0,-1,1539,1450,0,0
322,-426,0,0,0,0,0,0,0,0,0,-1,1546,1450,0,0
329,-426,0,0,0,0,0,0,0,0,0,-1,1553,1450,0,0
336,-426,0,0,0,0,0,0,0,0,0,-1,1560,1450,0,0
343,-426,0,0,0,0,0,0,0,0,0,-1,1567,1450,0,0
350,-426,0,0,0,0,0,0,0,0,0,-1,1574,1450,0,0
357,-426,0,0,0,0,0,0,0,0,0,-1,1581,1450,0,0
364,-426,0,0,0,0,0,0,0,0,0,-1,1588,1450,0,0
371,-426,0,0,0,0,0,0,0,0,0,-1,1595,1450,0,0
378,-426,0,0,0,0,0,0,0,0,0,-1,1602,1450,0,0
385,-426,0,0,0,0,0,0,0,0,0,-1,1609,1450,0,0
392,-426,0,0,0,0,0,0,0,0,0,-1,1616,1450,0,0
399,-426,0,0,0,0,0,0,0,0,0,-1,1623,1450,0,0
406,-426,0,0,0,0,0,0,0,0,0,-1,1630,1450,0,0
413,-426,0,0,0,0,0,0,0,0,0,-1,1637,1450,0,0
420,-426,0,0,0,0,0,0,0,0,0,-1,1644,1450,0,0
427,-426,0,0,0,0,0,0,0,0,0,-1,1651,1450,0,0
434,-426,0,0,0,0,0,0,0,0,0,-1,1658,1450,0,0
441,-426,0,0,0,0,0,0,0,0,0,-1,1665,1450,0,0
448,-426,0,0,0,0,0,0,0,0,0,-1,1672,1450,0,0
455,-426,0,0,0,0,0,0,0,0,0,-1,1679,1450,0,0
462,-426,0,0,0,0,0,0,0,0,0,-1,1686,1450,0,0
469,-426,0,0,0,0,0,0,0,0,0,-1,1693,1450,0,0
476,-426,0,0,0,0,0,0,0,0,0,-1,1700,1450,0,0
483,-426,0,0,0,0,0,0,0,0,0,-1,1707,1450,0,0
490,-426,0,0,0,0,0,0,0,0,0,-1,1714,1450,0,0
497,-426,0,0,0,0,0,0,0,0,0,-1,1721,1450,0,0
504,-426,20.6873,3.38367,0,0,0,0,0,0,0,-1,1728,1450,20.6873,-3.38361
511,-426,19.6676,3.53748,0,0,0,0,0,0,0,-1,1735,1450,19.6676,-3.53749
518,-426,18.6853,3.32288,0,0,0,0,0,0,0,-1,1742,1450,18.6853,-3.3229
525,-426,18.9552,2.71033,0,0,0,0,0,0,0,-1,1749,1450,18.9552,-2.71034
532,-426,19.4333,2.70764,0,0,0,0,0,0,0,-1,1756,1450,19.4334,-2.70764
539,-426,25.1482,2.56287,0,0,0,0,0,0,0,-1,1763,1450,25.1482,-2.56286
546,-426,24.1136,3.75659,0,0,0,0,0,0,0,-1,1770,1450,24.1136,-3.7566
553,-426,23.0791,4.95032,0,0,0,0,0,0,0,-1,1777,1450,23.0791,-4.95034
560,-426,12.9688,11.8289,0,0,0,0,0,0,0,-1,1784,1450,12.9688,-11.8288
567,-426,13.6388,11.5623,0,0,0,0,0,0,0,-1,1791,1450,13.6388,-11.5623
574,-426,14.3943,11.0286,0,0,0,0,0,0,0,-1,1798,1450,14.3942,-11.0285
581,-426,16.3879,11.4653,0,0,0,0,0,0,0,-1,1805,1450,16.3879,-11.4653
588,-426,18.1212,12.5547,0,0,0,0,0,0,0,-1,1812,1450,18.1212,-12.5547
595,-426,30.0474,21.0964,0,0,0,0,0,0,0,-1,1819,1450,30.0474,-21.0965
602,-426,35.7679,25.1356,0,0,0,0,0,0,0,-1,1826,1450,35.7679,-25.1356
609,-426,35.7832,24.2338,0.00276872,0.0015806,-0.00178614,0.004057,0.000292319,-0.624856,0.00261268,0.015759,1833,1450,35.7832,-24.2337
616,-426,35.7542,23.4303,0.00208474,0.0010549,-0.00121714,0.0028914,0.00024824,-0.585287,0.00185041,0.0160397,1840,1450,35.7541,-23.4303
623,-426,35.7147,22.6605,0.001701,0.000759322,-0.000862861,0.00221312,0.000247196,-0.535641,0.00140031,0.0122095,1847,1450,35.7148,-22.6606
630,-426,35.7112,21.8907,0.00162268,0.000558417,-0.000704187,0.00197318,0.000207914,-0.46184,0.00125192,0.0132141,1854,1450,35.7112,-21.8907
637,-426,35.6597,21.1239,0.00177064,0.000601224,-0.000695996,0.00209494,0.000276925,-0.436038,0.00131408,0.0137899,1861,1450,35.6597,-21.1239
644,-426,35.589,20.3364,0.00225753,0.000650184,-0.000838695,0.00261545,0.000292263,-0.40336,0.00165484,0.0138566,1868,1450,35.589,-20.3364
651,-426,35.537,19.5563,0.00299379,0.000957725,-0.00121972,0.0035645,0.000387015,-0.437642,0.00225841,0.0133342,1875,1450,35.537,-19.5563
658,-426,35.5074,18.7274,0.00409286,0.00135623,-0.00176136,0.00495494,0.00049415,-0.455165,0.00315152,0.0145294,1882,1450,35.5075,-18.7274
665,-426,35.5214,17.7133,0.00559223,0.00165965,-0.00232305,0.00666943,0.000582439,-0.434191,0.00426542,0.0475584,1889,1450,35.5214,-17.7132
672,-426,35.7031,16.6586,0,0,0,0,0,0,0,-1,1896,1450,35.7031,-16.6585
679,-426,17.1522,8.15784,0,0,0,0,0,0,0,-1,1903,1450,17.1522,-8.15784
686,-426,13.5326,8.03711,0,0,0,0,0,0,0,-1,1910,1450,13.5326,-8.03717
693,-426,11.8607,6.45215,0,0,0,0,0,0,0,-1,1917,1450,11.8607,-6.45215
700,-426,9.24304,2.95447,0,0,0,0,0,0,0,-1,1924,1450,9.24305,-2.95442
707,-426,8.44519,-1.21448,0,0,0,0,0,0,0,-1,1931,1450,8.44514,1.21454
714,-426,0,0,0,0,0,0,0,0,0,-1,1938,1450,0,0
721,-426,0,0,0,0,0,0,0,0,0,-1,1945,1450,0,0
728,-426,0,0,0,0,0,0,0,0,0,-1,1952,1450,0,0
735,-426,0,0,0,0,0,0,0,0,0,-1,1959,1450,0,0
742,-426,0,0,0,0,0,0,0,0,0,-1,1966,1450,0,0
749,-426,0,0,0,0,0,0,0,0,0,-1,1973,1450,0,0
756,-426,0,0,0,0,0,0,0,0,0,-1,1980,1450,0,0
763,-426,0,0,0,0,0,0,0,0,0,-1,1987,1450,0,0
770,-426,0,0,0,0,0,0,0,0,0,-1,1994,1450,0,0
777,-426,0,0,0,0,0,0,0,0,0,-1,2001,1450,0,0
784,-426,0,0,0,0,0,0,0,0,0,-1,2008,1450,0,0
791,-426,0,0,0,0,0,0,0,0,0,-1,2015,1450,0,0
798,-426,0,0,0,0,0,0,0,0,0,-1,2022,1450,0,0
805,-426,0,0,0,0,0,0,0,0,0,-1,2029,1450,0,0
812,-426,0,0,0,0,0,0,0,0,0,-1,2036,1450,0,0
-700,-433,0,0,0,0,0,0,0,0,0,-1,524,1457,0,0
-693,-433,0,0,0,0,0,0,0,0,0,-1,531,1457,0,0
-686,-433,0,0,0,0,0,0,0,0,0,-1,538,1457,0,0
-679,-433,0,0,0,0,0,0,0,0,0,-1,545,1457,0,0
-672,-433,0,0,0,0,0,0,0,0,0,-1,552,1457,0,0
-665,-433,0,0,0,0,0,0,0,0,0,-1,559,1457,0,0
-658,-433,0,0,0,0,0,0,0,0,0,-1,566,1457,0,0
-651,-433,0,0,0,0,0,0,0,0,0,-1,573,1457,0,0
-644,-433,0,0,0,0,0,0,0,0,0,-1,580,1457,0,0
-637,-433,0,0,0,0,0,0,0,0,0,-1,587,1457,0,0
-630,-433,0,0,0,0,0,0,0,0,0,-1,594,1457,0,0
-623,-433,0,0,0,0,0,0,0,0,0,-1,601,1457,0,0
-616,-433,0,0,0,0,0,0,0,0,0,-1,608,1457,0,0
-609,-433,0,0,0,0,0,0,0,0,0,-1,615,1457,0,0
-602,-433,0,0,0,0,0,0,0,0,0,-1,622,1457,0,0
-595,-433,0,0,0,0,0,0,0,0,0,-1,629,1457,0,0
-588,-433,-10.3756,-0.467041,0,0,0,0,0,0,0,-1,636,1457,-10.3756,0.467081
-581,-433,-8.12201,0.884033,0,0,0,0,0,0,0,-1,643,1457,-8.12204,-0.884056
-574,-433,-5.86847,2.23523,0,0,0,0,0,0,0,-1,650,1457,-5.86844,-2.23519
-567,-433,-5.42255,1.16833,0,0,0,0,0,0,0,-1,657,1457,-5.42254,-1.1683
-560,-433,-6.84027,1.86414,0,0,0,0,0,0,0,-1,664,1457,-6.84026,-1.86412
-553,-433,-5.74017,1.79163,0,0,0,0,0,0,0,-1,671,1457,-5.74015,-1.79166
-546,-433,-8.12451,7.35095,0,0,0,0,0,0,0,-1,678,1457,-8.12451,-7.35097
-539,-433,-7.3136,8.75659,0,0,0,0,0,0,0,-1,685,1457,-7.31362,-8.75659
-532,-433,-14.5645,14.8475,0,0,0,0,0,0,0,-1,692,1457,-14.5645,-14.8475
-525,-433,-17.6531,18.2084,0,0,0,0,0,0,0,-1,699,1457,-17.6532,-18.2084
-518,-433,-17.6124,19.1364,0.00380325,0.00425452,0.00389149,0.00792691,0.000130852,0.814356,0.00524154,0.0185564,706,1457,-17.6124,-19.1364
-511,-433,-17.6253,19.9633,0.00304523,0.00321129,0.00299689,0.00612629,0.000130217,0.799247,0.00404149,0.0163445,713,1457,-17.6253,-19.9632
-504,-433,-17.65,20.7739,0.00237759,0.00233146,0.00220903,0.00456368,0.00014537,0.780177,0.00299517,0.0128367,720,1457,-17.65,-20.7739
-497,-433,-17.6674,21.5793,0.00182917,0.00162475,0.00155356,0.00328388,0.000170042,0.75255,0.00213483,0.0138987,727,1457,-17.6674,-21.5794
-490,-433,-17.7321,22.3926,0.00138064,0.0010529,0.00101889,0.00224875,0.000184789,0.705663,0.00144153,0.0161099,734,1457,-17.7321,-22.3926
-483,-433,-17.7723,23.207,0.00114731,0.00070113,0.000696987,0.00165604,0.000192398,0.630513,0.00104581,0.0163309,741,1457,-17.7723,-23.207
-476,-433,-17.8414,24.0219,0.00107111,0.00055819,0.000580889,0.00144963,0.000179666,0.57752,0.000912447,0.011412,748,1457,-17.8414,-24.0219
-469,-433,-17.8931,24.8157,0.00116435,0.000589222,0.000638947,0.00157746,0.000176112,0.573945,0.000998132,0.0120733,755,1457,-17.8932,-24.8157
-462,-433,-17.9396,25.6095,0,0,0,0,0,0,0,-1,762,1457,-17.9396,-25.6095
-455,-433,-13.8576,22.7446,0,0,0,0,0,0,0,-1,769,1457,-13.8576,-22.7446
-448,-433,-6.94812,14.5563,0,0,0,0,0,0,0,-1,776,1457,-6.94809,-14.5562
-441,-433,-9.97485,14.0258,0,0,0,0,0,0,0,-1,783,1457,-9.97488,-14.0257
-434,-433,-9.41205,14.2297,0,0,0,0,0,0,0,-1,790,1457,-9.41205,-14.2297
-427,-433,-8.67419,13.6827,0,0,0,0,0,0,0,-1,797,1457,-8.67422,-13.6827
-420,-433,-5.74658,9.49121,0,0,0,0,0,0,0,-1,804,1457,-5.7466,-9.49119
-413,-433,-3.63074,5.5813,0,0,0,0,0,0,0,-1,811,1457,-3.63072,-5.58129
-406,-433,-12.3472,4.69373,0,0,0,0,0,0,0,-1,818,1457,-12.3472,-4.69374
-399,-433,-12.055,2.83594,0,0,0,0,0,0,0,-1,825,1457,-12.055,-2.83594
-392,-433,-12.9772,1.6228,0,0,0,0,0,0,0,-1,832,1457,-12.9772,-1.62282
-385,-433,-13.7999,0.514771,0,0,0,0,0,0,0,-1,839,1457,-13.7999,-0.514788
-378,-433,0,0,0,0,0,0,0,0,0,-1,846,1457,0,0
-371,-433,0,0,0,0,0,0,0,0,0,-1,853,1457,0,0
-364,-433,0,0,0,0,0,0,0,0,0,-1,860,1457,0,0
-357,-433,0,0,0,0,0,0,0,0,0,-1,867,1457,0,0
-350,-433,0,0,0,0,0,0,0,0,0,-1,874,1457,0,0
-343,-433,0,0,0,0,0,0,0,0,0,-1,881,1457,0,0
-336,-433,0,0,0,0,0,0,0,0,0,-1,888,1457,0,0
-329,-433,0,0,0,0,0,0,0,0,0,-1,895,1457,0,0
-322,-433,0,0,0,0,0,0,0,0,0,-1,902,1457,0,0
-315,-433,0,0,0,0,0,0,0,0,0,-1,909,1457,0,0
-308,-433,0,0,0,0,0,0,0,0,0,-1,916,1457,0,0
-301,-433,0,0,0,0,0,0,0,0,0,-1,923,1457,0,0
-294,-433,0,0,0,0,0,0,0,0,0,-1,930,1457,0,0
-287,-433,0,0,0,0,0,0,0,0,0,-1,937,1457,0,0
-280,-433,0,0,0,0,0,0,0,0,0,-1,944,1457,0,0
-273,-433,0,0,0,0,0,0,0,0,0,-1,951,1457,0,0
-266,-433,0,0,0,0,0,0,0,0,0,-1,958,1457,0,0
-259,-433,0,0,0,0,0,0,0,0,0,-1,965,1457,0,0
-252,-433,0,0,0,0,0,0,0,0,0,-1,972,1457,0,0
-245,-433,0,0,0,0,0,0,0,0,0,-1,979,1457,0,0
-238,-433,0,0,0,0,0,0,0,0,0,-1,986,1457,0,0
-231,-433,0,0,0,0,0,0,0,0,0,-1,993,1457,0,0
-224,-433,0,0,0,0,0,0,0,0,0,-1,1000,1457,0,0
-217,-433,0,0,0,0,0,0,0,0,0,-1,1007,1457,0,0
-210,-433,0,0,0,0,0,0,0,0,0,-1,1014,1457,0,0
-203,-433,0,0,0,0,0,0,0,0,0,-1,1021,1457,0,0
-196,-433,0,0,0,0,0,0,0,0,0,-1,1028,1457,0,0
-189,-433,0,0,0,0,0,0,0,0,0,-1,1035,1457,0,0
-182,-433,0,0,0,0,0,0,0,0,0,-1,1042,1457,0,0
-175,-433,0,0,0,0,0,0,0,0,0,-1,1049,1457,0,0
-168,-433,0,0,0,0,0,0,0,0,0,-1,1056,1457,0,0
-161,-433,0,0,0,0,0,0,0,0,0,-1,1063,1457,0,0
-154,-433,0,0,0,0,0,0,0,0,0,-1,1070,1457,0,0
-147,-433,0,0,0,0,0,0,0,0,0,-1,1077,1457,0,0
-140,-433,0,0,0,0,0,0,0,0,0,-1,1084,1457,0,0
-133,-433,0,0,0,0,0,0,0,0,0,-1,1091,1457,0,0
-126,-433,0,0,0,0,0,0,0,0,0,-1,1098,1457,0,0
-119,-433,0,0,0,0,0,0,0,0,0,-1,1105,1457,0,0
-112,-433,0,0,0,0,0,0,0,0,0,-1,1112,1457,0,0
-105,-433,0,0,0,0,0,0,0,0,0,-1,1119,1457,0,0
-98,-433,0,0,0,0,0,0,0,0,0,-1,1126,1457,0,0
-91,-433,0,0,0,0,0,0,0,0,0,-1,1133,1457,0,0
-84,-433,0,0,0,0,0,0,0,0,0,-1,1140,1457,0,0
-77,-433,0,0,0,0,0,0,0,0,0,-1,1147,1457,0,0
-70,-433,0,0,0,0,0,0,0,0,0,-1,1154,1457,0,0
-63,-433,0,0,0,0,0,0,0,0,0,-1,1161,1457,0,0
-56,-433,0,0,0,0,0,0,0,0,0,-1,1168,1457,0,0
-49,-433,0,0,0,0,0,0,0,0,0,-1,1175,1457,0,0
-42,-433,0,0,0,0,0,0,0,0,0,-1,1182,1457,0,0
-35,-433,0,0,0,0,0,0,0,0,0,-1,1189,1457,0,0
-28,-433,0,0,0,0,0,0,0,0,0,-1,1196,1457,0,0
-21,-433,0,0,0,0,0,0,0,0,0,-1,1203,1457,0,0
-14,-433,0,0,0,0,0,0,0,0,0,-1,1210,1457,0,0
-7,-433,0,0,0,0,0,0,0,0,0,-1,1217,1457,0,0
0,-433,0,0,0,0,0,0,0,0,0,-1,1224,1457,0,0
7,-433,0,0,0,0,0,0,0,0,0,-1,1231,1457,0,0
14,-433,0,0,0,0,0,0,0,0,0,-1,1238,1457,0,0
21,-433,0,0,0,0,0,0,0,0,0,-1,1245,1457,0,0
28,-433,0,0,0,0,0,0,0,0,0,-1,1252,1457,0,0
35,-433,0,0,0,0,0,0,0,0,0,-1,1259,1457,0,0
42,-433,0,0,0,0,0,0,0,0,0,-1,1266,1457,0,0
49,-433,0,0,0,0,0,0,0,0,0,-1,1273,1457,0,0
56,-433,0,0,0,0,0,0,0,0,0,-1,1280,1457,0,0
63,-433,0,0,0,0,0,0,0,0,0,-1,1287,1457,0,0
70,-433,0,0,0,0,0,0,0,0,0,-1,1294,1457,0,0
77,-433,0,0,0,0,0,0,0,0,0,-1,1301,1457,0,0
84,-433,0,0,0,0,0,0,0,0,0,-1,1308,1457,0,0
91,-433,0,0,0,0,0,0,0,0,0,-1,1315,1457,0,0
98,-433,0,0,0,0,0,0,0,0,0,-1,1322,1457,0,0
105,-433,0,0,0,0,0,0,0,0,0,-1,1329,1457,0,0
112,-433,0,0,0,0,0,0,0,0,0,-1,1336,1457,0,0
119,-433,0,0,0,0,0,0,0,0,0,-1,1343,1457,0,0
126,-433,0,0,0,0,0,0,0,0,0,-1,1350,1457,0,0
133,-433,0,0,0,0,0,0,0,0,0,-1,1357,1457,0,0
140,-433,0,0,0,0,0,0,0,0,0,-1,1364,1457,0,0
147,-433,0,0,0,0,0,0,0,0,0,-1,1371,1457,0,0
154,-433,0,0,0,0,0,0,0,0,0,-1,1378,1457,0,0
161,-433,0,0,0,0,0,0,0,0,0,-1,1385,1457,0,0
168,-433,0,0,0,0,0,0,0,0,0,-1,1392,1457,0,0
175,-433,0,0,0,0,0,0,0,0,0,-1,1399,1457,0,0
182,-433,0,0,0,0,0,0,0,0,0,-1,1406,1457,0,0
189,-433,0,0,0,0,0,0,0,0,0,-1,1413,1457,0,0
196,-433,0,0,0,0,0,0,0,0,0,-1,1420,1457,0,0
203,-433,0,0,0,0,0,0,0,0,0,-1,1427,1457,0,0
210,-433,0,0,0,0,0,0,0,0,0,-1,1434,1457,0,0
217,-433,0,0,0,0,0,0,0,0,0,-1,1441,1457,0,0
224,-433,0,0,0,0,0,0,0,0,0,-1,1448,1457,0,0
231,-433,0,0,0,0,0,0,0,0,0,-1,1455,1457,0,0
238,-433,0,0,0,0,0,0,0,0,0,-1,1462,1457,0,0
245,-433,0,0,0,0,0,0,0,0,0,-1,1469,1457,0,0
252,-433,0,0,0,0,0,0,0,0,0,-1,1476,1457,0,0
259,-433,0,0,0,0,0,0,0,0,0,-1,1483,1457,0,0
266,-433,0,0,0,0,0,0,0,0,0,-1,1490,1457,0,0
273,-433,0,0,0,0,0,0,0,0,0,-1,1497,1457,0,0
280,-433,0,0,0,0,0,0,0,0,0,-1,1504,1457,0,0
287,-433,0,0,0,0,0,0,0,0,0,-1,1511,1457,0,0
294,-433,0,0,0,0,0,0,0,0,0,-1,1518,1457,0,0
301,-433,0,0,0,0,0,0,0,0,0,-1,1525,1457,0,0
308,-433,0,0,0,0,0,0,0,0,0,-1,1532,1457,0,0
315,-433,0,0,0,0,0,0,0,0,0,-1,1539,1457,0,0
322,-433,0,0,0,0,0,0,0,0,0,-1,1546,1457,0,0
329,-433,0,0,0,0,0,0,0,0,0,-1,1553,1457,0,0
336,-433,0,0,0,0,0,0,0,0,0,-1,1560,1457,0,0
343,-433,0,0,0,0,0,0,0,0,0,-1,1567,1457,0,0
350,-433,0,0,0,0,0,0,0,0,0,-1,1574,1457,0,0
357,-433,0,0,0,0,0,0,0,0,0,-1,1581,1457,0,0
364,-433,0,0,0,0,0,0,0,0,0,-1,1588,1457,0,0
371,-433,0,0,0,0,0,0,0,0,0,-1,1595,1457,0,0
378,-433,0,0,0,0,0,0,0,0,0,-1,1602,1457,0,0
385,-433,0,0,0,0,0,0,0,0,0,-1,1609,1457,0,0
392,-433,0,0,0,0,0,0,0,0,0,-1,1616,1457,0,0
399,-433,0,0,0,0,0,0,0,0,0,-1,1623,1457,0,0
406,-433,0,0,0,0,0,0,0,0,0,-1,1630,1457,0,0
413,-433,0,0,0,0,0,0,0,0,0,-1,1637,1457,0,0
420,-433,0,0,0,0,0,0,0,0,0,-1,1644,1457,0,0
427,-433,0,0,0,0,0,0,0,0,0,-1,1651,1457,0,0
434,-433,0,0,0,0,0,0,0,0,0,-1,1658,1457,0,0
441,-433,0,0,0,0,0,0,0,0,0,-1,1665,1457,0,0
448,-433,0,0,0,0,0,0,0,0,0,-1,1672,1457,0,0
455,-433,0,0,0,0,0,0,0,0,0,-1,1679,1457,0,0
462,-433,0,0,0,0,0,0,0,0,0,-1,1686,1457,0,0
469,-433,0,0,0,0,0,0,0,0,0,-1,1693,1457,0,0
476,-433,0,0,0,0,0,0,0,0,0,-1,1700,1457,0,0
483,-433,0,0,0,0,0,0,0,0,0,-1,1707,1457,0,0
490,-433,0,0,0,0,0,0,0,0,0,-1,1714,1457,0,0
497,-433,0,0,0,0,0,0,0,0,0,-1,1721,1457,0,0
504,-433,19.9058,3.03662,0,0,0,0,0,0,0,-1,1728,1457,19.9058,-3.03656
511,-433,19.0145,3.07837,0,0,0,0,0,0,0,-1,1735,1457,19.0146,-3.07834
518,-433,18.071,3.06433,0,0,0,0,0,0,0,-1,1742,1457,18.071,-3.06432
525,-433,17.2048,3.37085,0,0,0,0,0,0,0,-1,1749,1457,17.2049,-3.37083
532,-433,16.5637,3.36646,0,0,0,0,0,0,0,-1,1756,1457,16.5637,-3.36643
539,-433,15.9193,3.30396,0,0,0,0,0,0,0,-1,1763,1457,15.9193,-3.30394
546,-433,23.1903,4.81775,0,0,0,0,0,0,0,-1,1770,1457,23.1903,-4.81775
553,-433,13.9674,11.5781,0,0,0,0,0,0,0,-1,1777,1457,13.9674,-11.5781
560,-433,13.9855,11.7341,0,0,0,0,0,0,0,-1,1784,1457,13.9855,-11.7341
567,-433,13.9264,11.3364,0,0,0,0,0,0,0,-1,1791,1457,13.9263,-11.3364
574,-433,15.5305,12.3673,0,0,0,0,0,0,0,-1,1798,1457,15.5305,-12.3673
581,-433,16.6405,12.1898,0,0,0,0,0,0,0,-1,1805,1457,16.6405,-12.1898
588,-433,26.4386,19.7478,0,0,0,0,0,0,0,-1,1812,1457,26.4386,-19.7478
595,-433,35.0784,25.9775,0,0,0,0,0,0,0,-1,1819,1457,35.0784,-25.9775
602,-433,35.0118,25.0928,0.00360769,0.00195209,-0.00229577,0.00522034,0.000339435,-0.612366,0.00337278,0.0312619,1826,1457,35.0118,-25.0928
609,-433,34.999,24.2295,0.00280858,0.00140477,-0.00168146,0.00392875,0.000284596,-0.587675,0.00252965,0.0187139,1833,1457,34.999,-24.2294
616,-433,34.979,23.4666,0.00213664,0.00101262,-0.00119625,0.00289633,0.000252942,-0.565796,0.00185234,0.0154743,1840,1457,34.979,-23.4665
623,-433,34.9353,22.6981,0.00177813,0.000740118,-0.000847673,0.00225306,0.000265184,-0.510702,0.00142191,0.0109972,1847,1457,34.9353,-22.6981
630,-433,34.9073,21.9248,0.00171631,0.000532189,-0.000679414,0.00202544,0.000223062,-0.426996,0.00128242,0.0146983,1854,1457,34.9073,-21.9248
637,-433,34.8734,21.1622,0.00184341,0.000578102,-0.000649349,0.00211734,0.000304165,-0.399211,0.00132189,0.0162828,1861,1457,34.8734,-21.1623
644,-433,34.8169,20.4075,0.00227649,0.000682424,-0.000776525,0.00259223,0.00036669,-0.386182,0.00161982,0.0173067,1868,1457,34.8169,-20.4075
651,-433,34.7714,19.5879,0.00299202,0.00110002,-0.00119693,0.00357166,0.00052038,-0.450982,0.002228,0.013918,1875,1457,34.7714,-19.5879
658,-433,34.6591,18.7429,0.00407065,0.00168633,-0.0018053,0.0050419,0.000715073,-0.493584,0.00315008,0.0454051,1882,1457,34.659,-18.7429
665,-433,34.7504,17.6372,0,0,0,0,0,0,0,-1,1889,1457,34.7503,-17.6372
672,-433,18.115,8.7207,0,0,0,0,0,0,0,-1,1896,1457,18.115,-8.72074
679,-433,17.2969,9.6355,0,0,0,0,0,0,0,-1,1903,1457,17.2968,-9.63548
686,-433,13.6356,8.61694,0,0,0,0,0,0,0,-1,1910,1457,13.6356,-8.61694
693,-433,13.4081,8.39624,0,0,0,0,0,0,0,-1,1917,1457,13.4081,-8.39624
700,-433,7.16809,-1.5166,0,0,0,0,0,0,0,-1,1924,1457,7.16806,1.51656
707,-433,8.68359,-2.82202,0,0,0,0,0,0,0,-1,1931,1457,8.68359,2.82197
714,-433,0,0,0,0,0,0,0,0,0,-1,1938,1457,0,0
721,-433,0,0,0,0,0,0,0,0,0,-1,1945,1457,0,0
728,-433,0,0,0,0,0,0,0,0,0,-1,1952,1457,0,0
735,-433,0,0,0,0,0,0,0,0,0,-1,1959,1457,0,0
742,-433,0,0,0,0,0,0,0,0,0,-1,1966,1457,0,0
749,-433,0,0,0,0,0,0,0,0,0,-1,1973,1457,0,0
756,-433,0,0,0,0,0,0,0,0,0,-1,1980,1457,0,0
763,-433,0,0,0,0,0,0,0,0,0,-1,1987,1457,0,0
770,-433,0,0,0,0,0,0,0,0,0,-1,1994,1457,0,0
777,-433,0,0,0,0,0,0,0,0,0,-1,2001,1457,0,0
784,-433,0,0,0,0,0,0,0,0,0,-1,2008,1457,0,0
791,-433,0,0,0,0,0,0,0,0,0,-1,2015,1457,0,0
798,-433,0,0,0,0,0,0,0,0,0,-1,2022,1457,0,0
805,-433,0,0,0,0,0,0,0,0,0,-1,2029,1457,0,0
812,-433,0,0,0,0,0,0,0,0,0,-1,2036,1457,0,0
-700,-440,0,0,0,0,0,0,0,0,0,-1,524,1464,0,0
-693,-440,0,0,0,0,0,0,0,0,0,-1,531,1464,0,0
-686,-440,0,0,0,0,0,0,0,0,0,-1,538,1464,0,0
-679,-440,0,0,0,0,0,0,0,0,0,-1,545,1464,0,0
-672,-440,0,0,0,0,0,0,0,0,0,-1,552,1464,0,0
-665,-440,0,0,0,0,0,0,0,0,0,-1,559,1464,0,0
-658,-440,0,0,0,0,0,0,0,0,0,-1,566,1464,0,0
-651,-440,0,0,0,0,0,0,0,0,0,-1,573,1464,0,0
-644,-440,0,0,0,0,0,0,0,0,0,-1,580,1464,0,0
-637,-440,0,0,0,0,0,0,0,0,0,-1,587,1464,0,0
-630,-440,0,0,0,0,0,0,0,0,0,-1,594,1464,0,0
-623,-440,0,0,0,0,0,0,0,0,0,-1,601,1464,0,0
-616,-440,0,0,0,0,0,0,0,0,0,-1,608,1464,0,0
-609,-440,0,0,0,0,0,0,0,0,0,-1,615,1464,0,0
-602,-440,0,0,0,0,0,0,0,0,0,-1,622,1464,0,0
-595,-440,0,0,0,0,0,0,0,0,0,-1,629,1464,0,0
-588,-440,0,0,0,0,0,0,0,0,0,-1,636,1464,0,0
-581,-440,-8.97278,0.254517,0,0,0,0,0,0,0,-1,643,1464,-8.97276,-0.254526
-574,-440,-7.00818,-0.918579,0,0,0,0,0,0,0,-1,650,1464,-7.00817,0.918538
-567,-440,-6.12152,-0.0766602,0,0,0,0,0,0,0,-1,657,1464,-6.12151,0.0767097
-560,-440,-5.46747,0.82251,0,0,0,0,0,0,0,-1,664,1464,-5.46748,-0.822551
-553,-440,-6.84729,0.0831299,0,0,0,0,0,0,0,-1,671,1464,-6.84732,-0.083136
-546,-440,-5.63446,-0.153198,0,0,0,0,0,0,0,-1,678,1464,-5.63447,0.153147
-539,-440,-6.80017,8.58252,0,0,0,0,0,0,0,-1,685,1464,-6.80015,-8.58257
-532,-440,-9.69647,11.3262,0,0,0,0,0,0,0,-1,692,1464,-9.69649,-11.3262
-525,-440,-16.8699,18.1558,0,0,0,0,0,0,0,-1,699,1464,-16.8699,-18.1558
-518,-440,-16.8013,19.0825,0.00450878,0.0055768,0.00507116,0.010142,-5.64093e-05,0.837857,0.0067802,0.0323431,706,1464,-16.8013,-19.0825
-511,-440,-16.7862,20.0042,0.00362765,0.00433342,0.00397165,0.00796784,-6.76606e-06,0.829707,0.00531415,0.0153227,713,1464,-16.7862,-20.0042
-504,-440,-16.8241,20.8419,0.00282613,0.00324745,0.00298779,0.00603199,4.15826e-05,0.820593,0.00400754,0.0176514,720,1464,-16.8241,-20.8419
-497,-440,-16.872,21.6372,0.00215592,0.00233952,0.00215832,0.004408,8.74461e-05,0.806651,0.00290995,0.0206741,727,1464,-16.872,-21.6373
-490,-440,-16.9298,22.4106,0.00159507,0.00158249,0.00146276,0.00305155,0.000126012,0.783247,0.00199369,0.0232531,734,1464,-16.9298,-22.4107
-483,-440,-16.9794,23.23,0.00126373,0.00103754,0.000989893,0.00214696,0.0001543,0.728519,0.00138275,0.0216859,741,1464,-16.9794,-23.23
-476,-440,-17.0333,24.0288,0.00110142,0.000737158,0.000748091,0.00168923,0.000149345,0.665991,0.00107982,0.0146176,748,1464,-17.0333,-24.0288
-469,-440,-17.0896,24.8489,0.00109294,0.000655594,0.000696584,0.00160437,0.000144168,0.633307,0.00102491,0.0138009,755,1464,-17.0896,-24.8489
-462,-440,-17.1678,25.6423,0.00137196,0.000853218,0.000922479,0.00207084,0.000154339,0.648353,0.0013321,0.0190718,762,1464,-17.1678,-25.6423
-455,-440,-17.0867,26.5249,0,0,0,0,0,0,0,-1,769,1464,-17.0867,-26.5249
-448,-440,-12.8837,23.5623,0,0,0,0,0,0,0,-1,776,1464,-12.8837,-23.5623
-441,-440,-7.28583,14.7465,0,0,0,0,0,0,0,-1,783,1464,-7.28584,-14.7464
-434,-440,-8.33636,14.5024,0,0,0,0,0,0,0,-1,790,1464,-8.33638,-14.5025
-427,-440,-8.28094,14.2512,0,0,0,0,0,0,0,-1,797,1464,-8.28094,-14.2512
-420,-440,-6.86603,8.09216,0,0,0,0,0,0,0,-1,804,1464,-6.86602,-8.09222
-413,-440,-3.46796,5.72278,0,0,0,0,0,0,0,-1,811,1464,-3.46797,-5.72276
-406,-440,-5.2887,5.20264,0,0,0,0,0,0,0,-1,818,1464,-5.2887,-5.20261
-399,-440,-12.7318,3.94421,0,0,0,0,0,0,0,-1,825,1464,-12.7318,-3.94419
-392,-440,-13.5565,2.51855,0,0,0,0,0,0,0,-1,832,1464,-13.5565,-2.51861
-385,-440,-14.6741,1.39795,0,0,0,0,0,0,0,-1,839,1464,-14.6741,-1.39801
-378,-440,-15.8063,0.293457,0,0,0,0,0,0,0,-1,846,1464,-15.8063,-0.293412
-371,-440,0,0,0,0,0,0,0,0,0,-1,853,1464,0,0
-364,-440,0,0,0,0,0,0,0,0,0,-1,860,1464,0,0
-357,-440,0,0,0,0,0,0,0,0,0,-1,867,1464,0,0
-350,-440,0,0,0,0,0,0,0,0,0,-1,874,1464,0,0
-343,-440,0,0,0,0,0,0,0,0,0,-1,881,1464,0,0
-336,-440,0,0,0,0,0,0,0,0,0,-1,888,1464,0,0
-329,-440,0,0,0,0,0,0,0,0,0,-1,895,1464,0,0
-322,-440,0,0,0,0,0,0,0,0,0,-1,902,1464,0,0
-315,-440,0,0,0,0,0,0,0,0,0,-1,909,1464,0,0
-308,-440,0,0,0,0,0,0,0,0,0,-1,916,1464,0,0
-301,-440,0,0,0,0,0,0,0,0,0,-1,923,1464,0,0
-294,-440,0,0,0,0,0,0,0,0,0,-1,930,1464,0,0
-287,-440,0,0,0,0,0,0,0,0,0,-1,937,1464,0,0
-280,-440,0,0,0,0,0,0,0,0,0,-1,944,1464,0,0
-273,-440,0,0,0,0,0,0,0,0,0,-1,951,1464,0,0
-266,-440,0,0,0,0,0,0,0,0,0,-1,958,1464,0,0
-259,-440,0,0,0,0,0,0,0,0,0,-1,965,1464,0,0
-252,-440,0,0,0,0,0,0,0,0,0,-1,972,1464,0,0
-245,-440,0,0,0,0,0,0,0,0,0,-1,979,1464,0,0
-238,-440,0,0,0,0,0,0,0,0,0,-1,986,1464,0,0
-231,-440,0,0,0,0,0,0,0,0,0,-1,993,1464,0,0
-224,-440,0,0,0,0,0,0,0,0,0,-1,1000,1464,0,0
-217,-440,0,0,0,0,0,0,0,0,0,-1,1007,1464,0,0
-210,-440,0,0,0,0,0,0,0,0,0,-1,1014,1464,0,0
-203,-440,0,0,0,0,0,0,0,0,0,-1,1021,1464,0,0
-196,-440,0,0,0,0,0,0,0,0,0,-1,1028,1464,0,0
-189,-440,0,0,0,0,0,0,0,0,0,-1,1035,1464,0,0
-182,-440,0,0,0,0,0,0,0,0,0,-1,1042,1464,0,0
-175,-440,0,0,0,0,0,0,0,0,0,-1,1049,1464,0,0
-168,-440,0,0,0,0,0,0,0,0,0,-1,1056,1464,0,0
-161,-440,0,0,0,0,0,0,0,0,0,-1,1063,1464,0,0
-154,-440,0,0,0,0,0,0,0,0,0,-1,1070,1464,0,0
-147,-440,0,0,0,0,0,0,0,0,0,-1,1077,1464,0,0
-140,-440,0,0,0,0,0,0,0,0,0,-1,1084,1464,0,0
-133,-440,0,0,0,0,0,0,0,0,0,-1,1091,1464,0,0
-126,-440,0,0,0,0,0,0,0,0,0,-1,1098,1464,0,0
-119,-440,0,0,0,0,0,0,0,0,0,-1,1105,1464,0,0
-112,-440,0,0,0,0,0,0,0,0,0,-1,1112,1464,0,0
-105,-440,0,0,0,0,0,0,0,0,0,-1,1119,1464,0,0
-98,-440,0,0,0,0,0,0,0,0,0,-1,1126,1464,0,0
-91,-440,0,0,0,0,0,0,0,0,0,-1,1133,1464,0,0
-84,-440,0,0,0,0,0,0,0,0,0,-1,1140,1464,0,0
-77,-440,0,0,0,0,0,0,0,0,0,-1,1147,1464,0,0
-70,-440,0,0,0,0,0,0,0,0,0,-1,1154,1464,0,0
-63,-440,0,0,0,0,0,0,0,0,0,-1,1161,1464,0,0
-56,-440,0,0,0,0,0,0,0,0,0,-1,1168,1464,0,0
-49,-440,0,0,0,0,0,0,0,0,0,-1,1175,1464,0,0
-42,-440,0,0,0,0,0,0,0,0,0,-1,1182,1464,0,0
-35,-440,0,0,0,0,0,0,0,0,0,-1,1189,1464,0,0
-28,-440,0,0,0,0,0,0,0,0,0,-1,1196,1464,0,0
-21,-440,0,0,0,0,0,0,0,0,0,-1,1203,1464,0,0
-14,-440,0,0,0,0,0,0,0,0,0,-1,1210,1464,0,0
-7,-440,0,0,0,0,0,0,0,0,0,-1,1217,1464,0,0
0,-440,0,0,0,0,0,0,0,0,0,-1,1224,1464,0,0
7,-440,0,0,0,0,0,0,0,0,0,-1,1231,1464,0,0
14,-440,0,0,0,0,0,0,0,0,0,-1,1238,1464,0,0
21,-440,0,0,0,0,0,0,0,0,0,-1,1245,1464,0,0
28,-440,0,0,0,0,0,0,0,0,0,-1,1252,1464,0,0
35,-440,0,0,0,0,0,0,0,0,0,-1,1259,1464,0,0
42,-440,0,0,0,0,0,0,0,0,0,-1,1266,1464,0,0
49,-440,0,0,0,0,0,0,0,0,0,-1,1273,1464,0,0
56,-440,0,0,0,0,0,0,0,0,0,-1,1280,1464,0,0
63,-440,0,0,0,0,0,0,0,0,0,-1,1287,1464,0,0
70,-440,0,0,0,0,0,0,0,0,0,-1,1294,1464,0,0
77,-440,0,0,0,0,0,0,0,0,0,-1,1301,1464,0,0
84,-440,0,0,0,0,0,0,0,0,0,-1,1308,1464,0,0
91,-440,0,0,0,0,0,0,0,0,0,-1,1315,1464,0,0
98,-440,0,0,0,0,0,0,0,0,0,-1,1322,1464,0,0
105,-440,0,0,0,0,0,0,0,0,0,-1,1329,1464,0,0
112,-440,0,0,0,0,0,0,0,0,0,-1,1336,1464,0,0
119,-440,0,0,0,0,0,0,0,0,0,-1,1343,1464,0,0
126,-440,0,0,0,0,0,0,0,0,0,-1,1350,1464,0,0
133,-440,0,0,0,0,0,0,0,0,0,-1,1357,1464,0,0
140,-440,0,0,0,0,0,0,0,0,0,-1,1364,1464,0,0
147,-440,0,0,0,0,0,0,0,0,0,-1,1371,1464,0,0
154,-440,0,0,0,0,0,0,0,0,0,-1,1378,1464,0,0
161,-440,0,0,0,0,0,0,0,0,0,-1,1385,1464,0,0
168,-440,0,0,0,0,0,0,0,0,0,-1,1392,1464,0,0
175,-440,0,0,0,0,0,0,0,0,0,-1,1399,1464,0,0
182,-440,0,0,0,0,0,0,0,0,0,-1,1406,1464,0,0
189,-440,0,0,0,0,0,0,0,0,0,-1,1413,1464,0,0
196,-440,0,0,0,0,0,0,0,0,0,-1,1420,1464,0,0
203,-440,0,0,0,0,0,0,0,0,0,-1,1427,1464,0,0
210,-440,0,0,0,0,0,0,0,0,0,-1,1434,1464,0,0
217,-440,0,0,0,0,0,0,0,0,0,-1,1441,1464,0,0
224,-440,0,0,0,0,0,0,0,0,0,-1,1448,1464,0,0
231,-440,0,0,0,0,0,0,0,0,0,-1,1455,1464,0,0
238,-440,0,0,0,0,0,0,0,0,0,-1,1462,1464,0,0
245,-440,0,0,0,0,0,0,0,0,0,-1,1469,1464,0,0
252,-440,0,0,0,0,0,0,0,0,0,-1,1476,1464,0,0
259,-440,0,0,0,0,0,0,0,0,0,-1,1483,1464,0,0
266,-440,0,0,0,0,0,0,0,0,0,-1,1490,1464,0,0
273,-440,0,0,0,0,0,0,0,0,0,-1,1497,1464,0,0
280,-440,0,0,0,0,0,0,0,0,0,-1,1504,1464,0,0
287,-440,0,0,0,0,0,0,0,0,0,-1,1511,1464,0,0
294,-440,0,0,0,0,0,0,0,0,0,-1,1518,1464,0,0
301,-440,0,0,0,0,0,0,0,0,0,-1,1525,1464,0,0
308,-440,0,0,0,0,0,0,0,0,0,-1,1532,1464,0,0
315,-440,0,0,0,0,0,0,0,0,0,-1,1539,1464,0,0
322,-440,0,0,0,0,0,0,0,0,0,-1,1546,1464,0,0
329,-440,0,0,0,0,0,0,0,0,0,-1,1553,1464,0,0
336,-440,0,0,0,0,0,0,0,0,0,-1,1560,1464,0,0
343,-440,0,0,0,0,0,0,0,0,0,-1,1567,1464,0,0
350,-440,0,0,0,0,0,0,0,0,0,-1,1574,1464,0,0
357,-440,0,0,0,0,0,0,0,0,0,-1,1581,1464,0,0
364,-440,0,0,0,0,0,0,0,0,0,-1,1588,1464,0,0
371,-440,0,0,0,0,0,0,0,0,0,-1,1595,1464,0,0
378,-440,0,0,0,0,0,0,0,0,0,-1,1602,1464,0,0
385,-440,0,0,0,0,0,0,0,0,0,-1,1609,1464,0,0
392,-440,0,0,0,0,0,0,0,0,0,-1,1616,1464,0,0
399,-440,0,0,0,0,0,0,0,0,0,-1,1623,1464,0,0
406,-440,0,0,0,0,0,0,0,0,0,-1,1630,1464,0,0
413,-440,0,0,0,0,0,0,0,0,0,-1,1637,1464,0,0
420,-440,0,0,0,0,0,0,0,0,0,-1,1644,1464,0,0
427,-440,0,0,0,0,0,0,0,0,0,-1,1651,1464,0,0
434,-440,0,0,0,0,0,0,0,0,0,-1,1658,1464,0,0
441,-440,0,0,0,0,0,0,0,0,0,-1,1665,1464,0,0
448,-440,0,0,0,0,0,0,0,0,0,-1,1672,1464,0,0
455,-440,0,0,0,0,0,0,0,0,0,-1,1679,1464,0,0
462,-440,0,0,0,0,0,0,0,0,0,-1,1686,1464,0,0
469,-440,0,0,0,0,0,0,0,0,0,-1,1693,1464,0,0
476,-440,0,0,0,0,0,0,0,0,0,-1,1700,1464,0,0
483,-440,0,0,0,0,0,0,0,0,0,-1,1707,1464,0,0
490,-440,0,0,0,0,0,0,0,0,0,-1,1714,1464,0,0
497,-440,16.965,-0.528442,0,0,0,0,0,0,0,-1,1721,1464,16.965,0.528492
504,-440,15.8052,0.670166,0,0,0,0,0,0,0,-1,1728,1464,15.8052,-0.670145
511,-440,17.5754,2.77832,0,0,0,0,0,0,0,-1,1735,1464,17.5754,-2.77826
518,-440,16.9017,3.07861,0,0,0,0,0,0,0,-1,1742,1464,16.9018,-3.07859
525,-440,18.4495,12.0867,0,0,0,0,0,0,0,-1,1749,1464,18.4495,-12.0867
532,-440,15.4319,3.64392,0,0,0,0,0,0,0,-1,1756,1464,15.4318,-3.64391
539,-440,14.8214,3.41321,0,0,0,0,0,0,0,-1,1763,1464,14.8214,-3.4132
546,-440,14.8651,10.7683,0,0,0,0,0,0,0,-1,1770,1464,14.8651,-10.7683
553,-440,15.1213,11.4121,0,0,0,0,0,0,0,-1,1777,1464,15.1213,-11.4121
560,-440,17.4325,12.5394,0,0,0,0,0,0,0,-1,1784,1464,17.4325,-12.5394
567,-440,16.9025,12.4249,0,0,0,0,0,0,0,-1,1791,1464,16.9025,-12.425
574,-440,19.2841,14.8679,0,0,0,0,0,0,0,-1,1798,1464,19.2841,-14.868
581,-440,26.4432,21.3477,0,0,0,0,0,0,0,-1,1805,1464,26.4432,-21.3476
588,-440,34.1313,26.8799,0,0,0,0,0,0,0,-1,1812,1464,34.1313,-26.8798
595,-440,34.1774,25.9446,0.0045243,0.00207592,-0.00252128,0.00610287,0.000497344,-0.55939,0.00391335,0.036173,1819,1464,34.1773,-25.9446
602,-440,34.2728,25.056,0.00348734,0.00156566,-0.00194688,0.00469757,0.000355422,-0.55617,0.00302022,0.02193,1826,1464,34.2728,-25.056
609,-440,34.2183,24.2815,0.00271454,0.00109613,-0.00143249,0.00355058,0.000260083,-0.528297,0.0022853,0.0183158,1833,1464,34.2182,-24.2815
616,-440,34.1683,23.527,0.0020814,0.000830828,-0.00104783,0.00267633,0.000235896,-0.516388,0.00171102,0.0188104,1840,1464,34.1683,-23.527
623,-440,34.1515,22.749,0.00176032,0.000601248,-0.000732553,0.00211486,0.00024671,-0.450747,0.00133529,0.0142147,1847,1464,34.1515,-22.749
630,-440,34.1053,21.9426,0.00171327,0.000419519,-0.000560961,0.00192262,0.000210167,-0.357194,0.00121775,0.0116351,1854,1464,34.1054,-21.9426
637,-440,34.089,21.2034,0.00181777,0.000490641,-0.000518602,0.00199639,0.000312027,-0.331691,0.00124007,0.015996,1861,1464,34.0889,-21.2034
644,-440,34.0659,20.447,0.00216855,0.000720433,-0.000651636,0.0024186,0.000470382,-0.366401,0.00148072,0.0156501,1868,1464,34.066,-20.447
651,-440,34.0577,19.5902,0.00283532,0.00130127,-0.00112338,0.00342856,0.000708034,-0.485861,0.00209006,0.0242444,1875,1464,34.0577,-19.5903
658,-440,34.1658,18.6428,0,0,0,0,0,0,0,-1,1882,1464,34.1657,-18.6428
665,-440,24.2067,12.5813,0,0,0,0,0,0,0,-1,1889,1464,24.2067,-12.5813
672,-440,18.9385,9.6394,0,0,0,0,0,0,0,-1,1896,1464,18.9384,-9.63939
679,-440,16.9508,10.2336,0,0,0,0,0,0,0,-1,1903,1464,16.9508,-10.2337
686,-440,15.2556,8.44177,0,0,0,0,0,0,0,-1,1910,1464,15.2556,-8.44177
693,-440,9.88635,2.89795,0,0,0,0,0,0,0,-1,1917,1464,9.88638,-2.89798
700,-440,7.07825,-2.62061,0,0,0,0,0,0,0,-1,1924,1464,7.07829,2.62057
707,-440,0,0,0,0,0,0,0,0,0,-1,1931,1464,0,0
714,-440,0,0,0,0,0,0,0,0,0,-1,1938,1464,0,0
721,-440,0,0,0,0,0,0,0,0,0,-1,1945,1464,0,0
728,-440,0,0,0,0,0,0,0,0,0,-1,1952,1464,0,0
735,-440,0,0,0,0,0,0,0,0,0,-1,1959,1464,0,0
742,-440,0,0,0,0,0,0,0,0,0,-1,1966,1464,0,0
749,-440,0,0,0,0,0,0,0,0,0,-1,1973,1464,0,0
756,-440,0,0,0,0,0,0,0,0,0,-1,1980,1464,0,0
763,-440,0,0,0,0,0,0,0,0,0,-1,1987,1464,0,0
770,-440,0,0,0,0,0,0,0,0,0,-1,1994,1464,0,0
777,-440,0,0,0,0,0,0,0,0,0,-1,2001,1464,0,0
784,-440,0,0,0,0,0,0,0,0,0,-1,2008,1464,0,0
791,-440,0,0,0,0,0,0,0,0,0,-1,2015,1464,0,0
798,-440,0,0,0,0,0,0,0,0,0,-1,2022,1464,0,0
805,-440,0,0,0,0,0,0,0,0,0,-1,2029,1464,0,0
812,-440,0,0,0,0,0,0,0,0,0,-1,2036,1464,0,0
-700,-447,0,0,0,0,0,0,0,0,0,-1,524,1471,0,0
-693,-447,0,0,0,0,0,0,0,0,0,-1,531,1471,0,0
-686,-447,0,0,0,0,0,0,0,0,0,-1,538,1471,0,0
-679,-447,0,0,0,0,0,0,0,0,0,-1,545,1471,0,0
-672,-447,0,0,0,0,0,0,0,0,0,-1,552,1471,0,0
-665,-447,0,0,0,0,0,0,0,0,0,-1,559,1471,0,0
-658,-447,0,0,0,0,0,0,0,0,0,-1,566,1471,0,0
-651,-447,0,0,0,0,0,0,0,0,0,-1,573,1471,0,0
-644,-447,0,0,0,0,0,0,0,0,0,-1,580,1471,0,0
-637,-447,0,0,0,0,0,0,0,0,0,-1,587,1471,0,0
-630,-447,0,0,0,0,0,0,0,0,0,-1,594,1471,0,0
-623,-447,0,0,0,0,0,0,0,0,0,-1,601,1471,0,0
-616,-447,0,0,0,0,0,0,0,0,0,-1,608,1471,0,0
-609,-447,0,0,0,0,0,0,0,0,0,-1,615,1471,0,0
-602,-447,0,0,0,0,0,0,0,0,0,-1,622,1471,0,0
-595,-447,0,0,0,0,0,0,0,0,0,-1,629,1471,0,0
-588,-447,0,0,0,0,0,0,0,0,0,-1,636,1471,0,0
-581,-447,-7.06482,-1.50476,0,0,0,0,0,0,0,-1,643,1471,-7.0648,1.50474
-574,-447,-6.88092,-0.00585938,0,0,0,0,0,0,0,-1,650,1471,-6.88095,0.00589852
-567,-447,-6.8205,-1.32178,0,0,0,0,0,0,0,-1,657,1471,-6.82047,1.32172
-560,-447,-8.85748,2.80774,0,0,0,0,0,0,0,-1,664,1471,-8.85748,-2.80775
-553,-447,-7.60486,3.26794,0,0,0,0,0,0,0,-1,671,1471,-7.60487,-3.26799
-546,-447,-3.94501,1.8656,0,0,0,0,0,0,0,-1,678,1471,-3.945,-1.86554
-539,-447,-5.35492,4.50024,0,0,0,0,0,0,0,-1,685,1471,-5.35492,-4.50018
-532,-447,-6.12781,8.81091,0,0,0,0,0,0,0,-1,692,1471,-6.12781,-8.81094
-525,-447,-9.44501,12.098,0,0,0,0,0,0,0,-1,699,1471,-9.44502,-12.098
-518,-447,-16.0282,18.8854,0,0,0,0,0,0,0,-1,706,1471,-16.0282,-18.8854
-511,-447,-16.0082,19.9558,0.00431616,0.00558375,0.00505965,0.0100491,-0.000149232,0.847706,0.00674972,0.0281679,713,1471,-16.0082,-19.9558
-504,-447,-16.0048,20.9203,0.00338249,0.00422785,0.0038782,0.00770633,-9.59958e-05,0.839678,0.00516985,0.0188114,720,1471,-16.0048,-20.9202
-497,-447,-16.1139,21.7375,0.00259491,0.00308381,0.0028771,0.00572682,-4.81042e-05,0.827779,0.00383402,0.0234154,727,1471,-16.1139,-21.7376
-490,-447,-16.1484,22.4479,0.00193609,0.00214366,0.0020319,0.00407443,5.32251e-06,0.810914,0.00271451,0.0243875,734,1471,-16.1484,-22.4479
-483,-447,-16.1952,23.2346,0.00150155,0.00142829,0.0014116,0.002877,5.28469e-05,0.772427,0.00190063,0.0236306,741,1471,-16.1952,-23.2347
-476,-447,-16.215,24.041,0.00125049,0.00101348,0.00104843,0.00218709,7.6879e-05,0.729119,0.00143312,0.0159127,748,1471,-16.2151,-24.041
-469,-447,-16.262,24.8722,0.00116667,0.000871279,0.00088229,0.00191354,0.000124409,0.702466,0.00123631,0.014728,755,1471,-16.2619,-24.8722
-462,-447,-16.3215,25.7098,0.00137674,0.00103668,0.00100706,0.00222803,0.000185395,0.701766,0.00142757,0.0143833,762,1471,-16.3215,-25.7098
-455,-447,-16.3342,26.5302,0.0018912,0.00157535,0.00147826,0.00321994,0.000246606,0.732184,0.00206933,0.0266636,769,1471,-16.3341,-26.5302
-448,-447,-16.3132,27.4171,0,0,0,0,0,0,0,-1,776,1471,-16.3131,-27.4171
-441,-447,-8.68506,19.0931,0,0,0,0,0,0,0,-1,783,1471,-8.68504,-19.0932
-434,-447,-7.43402,15.6273,0,0,0,0,0,0,0,-1,790,1471,-7.43404,-15.6274
-427,-447,-7.21832,14.691,0,0,0,0,0,0,0,-1,797,1471,-7.21834,-14.6911
-420,-447,-8.0545,12.8055,0,0,0,0,0,0,0,-1,804,1471,-8.05452,-12.8055
-413,-447,-4.27393,6.59705,0,0,0,0,0,0,0,-1,811,1471,-4.27392,-6.59707
-406,-447,-1.04279,6.18591,0,0,0,0,0,0,0,-1,818,1471,-1.04276,-6.18586
-399,-447,0.0134888,0.687622,0,0,0,0,0,0,0,-1,825,1471,0.0134841,-0.68767
-392,-447,-14.0646,3.76147,0,0,0,0,0,0,0,-1,832,1471,-14.0646,-3.7615
-385,-447,-15.1695,2.61865,0,0,0,0,0,0,0,-1,839,1471,-15.1695,-2.61871
-378,-447,-15.9424,1.49316,0,0,0,0,0,0,0,-1,846,1471,-15.9424,-1.49313
-371,-447,-17.3655,0.73291,0,0,0,0,0,0,0,-1,853,1471,-17.3655,-0.732946
-364,-447,0,0,0,0,0,0,0,0,0,-1,860,1471,0,0
-357,-447,0,0,0,0,0,0,0,0,0,-1,867,1471,0,0
-350,-447,0,0,0,0,0,0,0,0,0,-1,874,1471,0,0
-343,-447,0,0,0,0,0,0,0,0,0,-1,881,1471,0,0
-336,-447,0,0,0,0,0,0,0,0,0,-1,888,1471,0,0
-329,-447,0,0,0,0,0,0,0,0,0,-1,895,1471,0,0
-322,-447,0,0,0,0,0,0,0,0,0,-1,902,1471,0,0
-315,-447,0,0,0,0,0,0,0,0,0,-1,909,1471,0,0
-308,-447,0,0,0,0,0,0,0,0,0,-1,916,1471,0,0
-301,-447,0,0,0,0,0,0,0,0,0,-1,923,1471,0,0
-294,-447,0,0,0,0,0,0,0,0,0,-1,930,1471,0,0
-287,-447,0,0,0,0,0,0,0,0,0,-1,937,1471,0,0
-280,-447,0,0,0,0,0,0,0,0,0,-1,944,1471,0,0
-273,-447,0,0,0,0,0,0,0,0,0,-1,951,1471,0,0
-266,-447,0,0,0,0,0,0,0,0,0,-1,958,1471,0,0
-259,-447,0,0,0,0,0,0,0,0,0,-1,965,1471,0,0
-252,-447,0,0,0,0,0,0,0,0,0,-1,972,1471,0,0
-245,-447,0,0,0,0,0,0,0,0,0,-1,979,1471,0,0
-238,-447,0,0,0,0,0,0,0,0,0,-1,986,1471,0,0
-231,-447,0,0,0,0,0,0,0,0,0,-1,993,1471,0,0
-224,-447,0,0,0,0,0,0,0,0,0,-1,1000,1471,0,0
-217,-447,0,0,0,0,0,0,0,0,0,-1,1007,1471,0,0
-210,-447,0,0,0,0,0,0,0,0,0,-1,1014,1471,0,0
-203,-447,0,0,0,0,0,0,0,0,0,-1,1021,1471,0,0
-196,-447,0,0,0,0,0,0,0,0,0,-1,1028,1471,0,0
-189,-447,0,0,0,0,0,0,0,0,0,-1,1035,1471,0,0
-182,-447,0,0,0,0,0,0,0,0,0,-1,1042,1471,0,0
-175,-447,0,0,0,0,0,0,0,0,0,-1,1049,1471,0,0
-168,-447,0,0,0,0,0,0,0,0,0,-1,1056,1471,0,0
-161,-447,0,0,0,0,0,0,0,0,0,-1,1063,1471,0,0
-154,-447,0,0,0,0,0,0,0,0,0,-1,1070,1471,0,0
-147,-447,0,0,0,0,0,0,0,0,0,-1,1077,1471,0,0
-140,-447,0,0,0,0,0,0,0,0,0,-1,1084,1471,0,0
-133,-447,0,0,0,0,0,0,0,0,0,-1,1091,1471,0,0
-126,-447,0,0,0,0,0,0,0,0,0,-1,1098,1471,0,0
-119,-447,0,0,0,0,0,0,0,0,0,-1,1105,1471,0,0
-112,-447,0,0,0,0,0,0,0,0,0,-1,1112,1471,0,0
-105,-447,0,0,0,0,0,0,0,0,0,-1,1119,1471,0,0
-98,-447,0,0,0,0,0,0,0,0,0,-1,1126,1471,0,0
-91,-447,0,0,0,0,0,0,0,0,0,-1,1133,1471,0,0
-84,-447,0,0,0,0,0,0,0,0,0,-1,1140,1471,0,0
-77,-447,0,0,0,0,0,0,0,0,0,-1,1147,1471,0,0
-70,-447,0,0,0,0,0,0,0,0,0,-1,1154,1471,0,0
-63,-447,0,0,0,0,0,0,0,0,0,-1,1161,1471,0,0
-56,-447,0,0,0,0,0,0,0,0,0,-1,1168,1471,0,0
-49,-447,0,0,0,0,0,0,0,0,0,-1,1175,1471,0,0
-42,-447,0,0,0,0,0,0,0,0,0,-1,1182,1471,0,0
-35,-447,0,0,0,0,0,0,0,0,0,-1,1189,1471,0,0
-28,-447,0,0,0,0,0,0,0,0,0,-1,1196,1471,0,0
-21,-447,0,0,0,0,0,0,0,0,0,-1,1203,1471,0,0
-14,-447,0,0,0,0,0,0,0,0,0,-1,1210,1471,0,0
-7,-447,0,0,0,0,0,0,0,0,0,-1,1217,1471,0,0
0,-447,0,0,0,0,0,0,0,0,0,-1,1224,1471,0,0
7,-447,0,0,0,0,0,0,0,0,0,-1,1231,1471,0,0
14,-447,0,0,0,0,0,0,0,0,0,-1,1238,1471,0,0
21,-447,0,0,0,0,0,0,0,0,0,-1,1245,1471,0,0
28,-447,0,0,0,0,0,0,0,0,0,-1,1252,1471,0,0
35,-447,0,0,0,0,0,0,0,0,0,-1,1259,1471,0,0
42,-447,0,0,0,0,0,0,0,0,0,-1,1266,1471,0,0
49,-447,0,0,0,0,0,0,0,0,0,-1,1273,1471,0,0
56,-447,0,0,0,0,0,0,0,0,0,-1,1280,1471,0,0
63,-447,0,0,0,0,0,0,0,0,0,-1,1287,1471,0,0
70,-447,0,0,0,0,0,0,0,0,0,-1,1294,1471,0,0
77,-447,0,0,0,0,0,0,0,0,0,-1,1301,1471,0,0
84,-447,0,0,0,0,0,0,0,0,0,-1,1308,1471,0,0
91,-447,0,0,0,0,0,0,0,0,0,-1,1315,1471,0,0
98,-447,0,0,0,0,0,0,0,0,0,-1,1322,1471,0,0
105,-447,0,0,0,0,0,0,0,0,0,-1,1329,1471,0,0
112,-447,0,0,0,0,0,0,0,0,0,-1,1336,1471,0,0
119,-447,0,0,0,0,0,0,0,0,0,-1,1343,1471,0,0
126,-447,0,0,0,0,0,0,0,0,0,-1,1350,1471,0,0
133,-447,0,0,0,0,0,0,0,0,0,-1,1357,1471,0,0
140,-447,0,0,0,0,0,0,0,0,0,-1,1364,1471,0,0
147,-447,0,0,0,0,0,0,0,0,0,-1,1371,1471,0,0
154,-447,0,0,0,0,0,0,0,0,0,-1,1378,1471,0,0
161,-447,0,0,0,0,0,0,0,0,0,-1,1385,1471,0,0
168,-447,0,0,0,0,0,0,0,0,0,-1,1392,1471,0,0
175,-447,0,0,0,0,0,0,0,0,0,-1,1399,1471,0,0
182,-447,0,0,0,0,0,0,0,0,0,-1,1406,1471,0,0
189,-447,0,0,0,0,0,0,0,0,0,-1,1413,1471,0,0
196,-447,0,0,0,0,0,0,0,0,0,-1,1420,1471,0,0
203,-447,0,0,0,0,0,0,0,0,0,-1,1427,1471,0,0
210,-447,0,0,0,0,0,0,0,0,0,-1,1434,1471,0,0
217,-447,0,0,0,0,0,0,0,0,0,-1,1441,1471,0,0
224,-447,0,0,0,0,0,0,0,0,0,-1,1448,1471,0,0
231,-447,0,0,0,0,0,0,0,0,0,-1,1455,1471,0,0
238,-447,0,0,0,0,0,0,0,0,0,-1,1462,1471,0,0
245,-447,0,0,0,0,0,0,0,0,0,-1,1469,1471,0,0
252,-447,0,0,0,0,0,0,0,0,0,-1,1476,1471,0,0
259,-447,0,0,0,0,0,0,0,0,0,-1,1483,1471,0,0
266,-447,0,0,0,0,0,0,0,0,0,-1,1490,1471,0,0
273,-447,0,0,0,0,0,0,0,0,0,-1,1497,1471,0,0
280,-447,0,0,0,0,0,0,0,0,0,-1,1504,1471,0,0
287,-447,0,0,0,0,0,0,0,0,0,-1,1511,1471,0,0
294,-447,0,0,0,0,0,0,0,0,0,-1,1518,1471,0,0
301,-447,0,0,0,0,0,0,0,0,0,-1,1525,1471,0,0
308,-447,0,0,0,0,0,0,0,0,0,-1,1532,1471,0,0
315,-447,0,0,0,0,0,0,0,0,0,-1,1539,1471,0,0
322,-447,0,0,0,0,0,0,0,0,0,-1,1546,1471,0,0
329,-447,0,0,0,0,0,0,0,0,0,-1,1553,1471,0,0
336,-447,0,0,0,0,0,0,0,0,0,-1,1560,1471,0,0
343,-447,0,0,0,0,0,0,0,0,0,-1,1567,1471,0,0
350,-447,0,0,0,0,0,0,0,0,0,-1,1574,1471,0,0
357,-447,0,0,0,0,0,0,0,0,0,-1,1581,1471,0,0
364,-447,0,0,0,0,0,0,0,0,0,-1,1588,1471,0,0
371,-447,0,0,0,0,0,0,0,0,0,-1,1595,1471,0,0
378,-447,0,0,0,0,0,0,0,0,0,-1,1602,1471,0,0
385,-447,0,0,0,0,0,0,0,0,0,-1,1609,1471,0,0
392,-447,0,0,0,0,0,0,0,0,0,-1,1616,1471,0,0
399,-447,0,0,0,0,0,0,0,0,0,-1,1623,1471,0,0
406,-447,0,0,0,0,0,0,0,0,0,-1,1630,1471,0,0
413,-447,0,0,0,0,0,0,0,0,0,-1,1637,1471,0,0
420,-447,0,0,0,0,0,0,0,0,0,-1,1644,1471,0,0
427,-447,0,0,0,0,0,0,0,0,0,-1,1651,1471,0,0
434,-447,0,0,0,0,0,0,0,0,0,-1,1658,1471,0,0
441,-447,0,0,0,0,0,0,0,0,0,-1,1665,1471,0,0
448,-447,0,0,0,0,0,0,0,0,0,-1,1672,1471,0,0
455,-447,0,0,0,0,0,0,0,0,0,-1,1679,1471,0,0
462,-447,0,0,0,0,0,0,0,0,0,-1,1686,1471,0,0
469,-447,0,0,0,0,0,0,0,0,0,-1,1693,1471,0,0
476,-447,0,0,0,0,0,0,0,0,0,-1,1700,1471,0,0
483,-447,0,0,0,0,0,0,0,0,0,-1,1707,1471,0,0
490,-447,18.2214,-0.810303,0,0,0,0,0,0,0,-1,1714,1471,18.2215,0.810307
497,-447,17.0237,0.352417,0,0,0,0,0,0,0,-1,1721,1471,17.0237,-0.352442
504,-447,15.8998,1.53479,0,0,0,0,0,0,0,-1,1728,1471,15.8997,-1.53478
511,-447,14.7201,2.76111,0,0,0,0,0,0,0,-1,1735,1471,14.7201,-2.76107
518,-447,17.7618,13.2864,0,0,0,0,0,0,0,-1,1742,1471,17.7619,-13.2863
525,-447,17.1191,11.9014,0,0,0,0,0,0,0,-1,1749,1471,17.1191,-11.9013
532,-447,16.3959,10.0455,0,0,0,0,0,0,0,-1,1756,1471,16.3959,-10.0456
539,-447,14.1699,10.0204,0,0,0,0,0,0,0,-1,1763,1471,14.1699,-10.0204
546,-447,16.3715,11.8046,0,0,0,0,0,0,0,-1,1770,1471,16.3714,-11.8046
553,-447,17.5106,13.4012,0,0,0,0,0,0,0,-1,1777,1471,17.5107,-13.4012
560,-447,17.0187,13.168,0,0,0,0,0,0,0,-1,1784,1471,17.0187,-13.168
567,-447,18.9286,15.1703,0,0,0,0,0,0,0,-1,1791,1471,18.9286,-15.1703
574,-447,32.1848,27.6504,0,0,0,0,0,0,0,-1,1798,1471,32.1848,-27.6503
581,-447,33.4648,27.7294,0,0,0,0,0,0,0,-1,1805,1471,33.4649,-27.7294
588,-447,33.5192,26.7302,0.00561421,0.00190943,-0.00238193,0.00677926,0.000744381,-0.454906,0.00429294,0.0393375,1812,1471,33.5191,-26.7303
595,-447,33.5205,25.8992,0.00422924,0.00161064,-0.00203351,0.0053385,0.000501384,-0.499374,0.0034042,0.0139625,1819,1471,33.5206,-25.8991
602,-447,33.4774,25.0933,0.00323973,0.00116982,-0.00156298,0.00407935,0.000330194,-0.492958,0.00261646,0.0128893,1826,1471,33.4774,-25.0933
609,-447,33.4241,24.3151,0.00250632,0.000791715,-0.00112101,0.00306027,0.000237764,-0.458959,0.00196572,0.0144763,1833,1471,33.4241,-24.3151
616,-447,33.3923,23.5497,0.00192902,0.00061312,-0.000796449,0.00230414,0.000238002,-0.44017,0.00146322,0.0156003,1840,1471,33.3924,-23.5497
623,-447,33.3799,22.7949,0.00165457,0.000406601,-0.000488784,0.00182322,0.000237953,-0.332246,0.00114444,0.0168002,1847,1471,33.3798,-22.795
630,-447,33.3326,22.0277,0.00162299,0.000243214,-0.00028487,0.00167949,0.000186713,-0.195798,0.0010629,0.00974062,1854,1471,33.3327,-22.0277
637,-447,33.319,21.2451,0.00171442,0.00032666,-0.000225693,0.0017502,0.000290877,-0.157235,0.00108294,0.0106177,1861,1471,33.319,-21.2451
644,-447,33.3011,20.4636,0.00199069,0.000715736,-0.000419589,0.00211638,0.000590041,-0.291061,0.00126112,0.0129522,1868,1471,33.3011,-20.4636
651,-447,33.3105,19.583,0,0,0,0,0,0,0,-1,1875,1471,33.3105,-19.583
658,-447,30.2566,16.5862,0,0,0,0,0,0,0,-1,1882,1471,30.2566,-16.5862
665,-447,18.4946,9.79919,0,0,0,0,0,0,0,-1,1889,1471,18.4946,-9.79922
672,-447,18.9784,9.66077,0,0,0,0,0,0,0,-1,1896,1471,18.9784,-9.66081
679,-447,14.844,7.4248,0,0,0,0,0,0,0,-1,1903,1471,14.844,-7.42477
686,-447,9.81079,4.30859,0,0,0,0,0,0,0,-1,1910,1471,9.8108,-4.30864
693,-447,10.48,2.08643,0,0,0,0,0,0,0,-1,1917,1471,10.48,-2.08642
700,-447,0,0,0,0,0,0,0,0,0,-1,1924,1471,0,0
707,-447,0,0,0,0,0,0,0,0,0,-1,1931,1471,0,0
714,-447,0,0,0,0,0,0,0,0,0,-1,1938,1471,0,0
721,-447,0,0,0,0,0,0,0,0,0,-1,1945,1471,0,0
728,-447,0,0,0,0,0,0,0,0,0,-1,1952,1471,0,0
735,-447,0,0,0,0,0,0,0,0,0,-1,1959,1471,0,0
742,-447,0,0,0,0,0,0,0,0,0,-1,1966,1471,0,0
749,-447,0,0,0,0,0,0,0,0,0,-1,1973,1471,0,0
756,-447,0,0,0,0,0,0,0,0,0,-1,1980,1471,0,0
763,-447,0,0,0,0,0,0,0,0,0,-1,1987,1471,0,0
770,-447,0,0,0,0,0,0,0,0,0,-1,1994,1471,0,0
777,-447,0,0,0,0,0,0,0,0,0,-1,2001,1471,0,0
784,-447,0,0,0,0,0,0,0,0,0,-1,2008,1471,0,0
791,-447,0,0,0,0,0,0,0,0,0,-1,2015,1471,0,0
798,-447,0,0,0,0,0,0,0,0,0,-1,2022,1471,0,0
805,-447,0,0,0,0,0,0,0,0,0,-1,2029,1471,0,0
812,-447,0,0,0,0,0,0,0,0,0,-1,2036,1471,0,0
-700,-454,0,0,0,0,0,0,0,0,0,-1,524,1478,0,0
-693,-454,0,0,0,0,0,0,0,0,0,-1,531,1478,0,0
-686,-454,0,0,0,0,0,0,0,0,0,-1,538,1478,0,0
-679,-454,0,0,0,0,0,0,0,0,0,-1,545,1478,0,0
-672,-454,0,0,0,0,0,0,0,0,0,-1,552,1478,0,0
-665,-454,0,0,0,0,0,0,0,0,0,-1,559,1478,0,0
-658,-454,0,0,0,0,0,0,0,0,0,-1,566,1478,0,0
-651,-454,0,0,0,0,0,0,0,0,0,-1,573,1478,0,0
-644,-454,0,0,0,0,0,0,0,0,0,-1,580,1478,0,0
-637,-454,0,0,0,0,0,0,0,0,0,-1,587,1478,0,0
-630,-454,0,0,0,0,0,0,0,0,0,-1,594,1478,0,0
-623,-454,0,0,0,0,0,0,0,0,0,-1,601,1478,0,0
-616,-454,0,0,0,0,0,0,0,0,0,-1,608,1478,0,0
-609,-454,0,0,0,0,0,0,0,0,0,-1,615,1478,0,0
-602,-454,0,0,0,0,0,0,0,0,0,-1,622,1478,0,0
-595,-454,0,0,0,0,0,0,0,0,0,-1,629,1478,0,0
-588,-454,0,0,0,0,0,0,0,0,0,-1,636,1478,0,0
-581,-454,0,0,0,0,0,0,0,0,0,-1,643,1478,0,0
-574,-454,-8.4881,-0.465942,0,0,0,0,0,0,0,-1,650,1478,-8.4881,0.465885
-567,-454,-8.10046,0.922974,0,0,0,0,0,0,0,-1,657,1478,-8.10047,-0.923034
-560,-454,-10.656,3.51172,0,0,0,0,0,0,0,-1,664,1478,-10.656,-3.51176
-553,-454,-9.01129,3.95251,0,0,0,0,0,0,0,-1,671,1478,-9.0113,-3.95256
-546,-454,-9.61896,6.05237,0,0,0,0,0,0,0,-1,678,1478,-9.61897,-6.05239
-539,-454,-7.72589,4.96533,0,0,0,0,0,0,0,-1,685,1478,-7.72592,-4.96532
-532,-454,-7.03931,7.59985,0,0,0,0,0,0,0,-1,692,1478,-7.03929,-7.59981
-525,-454,-5.78723,9.677,0,0,0,0,0,0,0,-1,699,1478,-5.78722,-9.67703
-518,-454,-9.82098,13.8295,0,0,0,0,0,0,0,-1,706,1478,-9.82098,-13.8295
-511,-454,-15.3084,19.9525,0,0,0,0,0,0,0,-1,713,1478,-15.3084,-19.9525
-504,-454,-15.2344,20.9087,0.00402296,0.00528812,0.00485735,0.00955391,-0.000242827,0.85015,0.00645174,0.0209228,720,1478,-15.2344,-20.9087
-497,-454,-15.3047,21.79,0.00311997,0.00389573,0.00366106,0.0071894,-0.000173705,0.838175,0.00485187,0.0186573,727,1478,-15.3048,-21.79
-490,-454,-15.3458,22.5234,0.00237016,0.00277967,0.00265871,0.00524149,-9.16638e-05,0.823829,0.00352528,0.0175797,734,1478,-15.3457,-22.5234
-483,-454,-15.385,23.314,0.00181711,0.0019001,0.00187592,0.00373498,-1.77725e-05,0.796457,0.00249593,0.0160208,741,1478,-15.385,-23.314
-476,-454,-15.4346,24.1102,0.00146976,0.00137554,0.00138569,0.00280914,3.61624e-05,0.768406,0.00186082,0.0143574,748,1478,-15.4346,-24.1102
-469,-454,-15.4719,24.9291,0.00130586,0.00116493,0.00111901,0.00235662,0.00011417,0.753955,0.00153444,0.0111717,755,1478,-15.4719,-24.9291
-462,-454,-15.5103,25.7599,0.0014187,0.00127259,0.00115208,0.00250004,0.000191245,0.753735,0.00160674,0.0114916,762,1478,-15.5103,-25.7598
-455,-454,-15.5605,26.5695,0.00184556,0.00175212,0.00153759,0.00333714,0.000260541,0.77021,0.0021432,0.0122494,769,1478,-15.5606,-26.5694
-448,-454,-15.5783,27.3934,0.00271833,0.00290347,0.00254634,0.00535892,0.00026288,0.803567,0.00348829,0.0276337,776,1478,-15.5783,-27.3934
-441,-454,-15.4298,28.3577,0,0,0,0,0,0,0,-1,783,1478,-15.4298,-28.3577
-434,-454,-7.55743,19.4857,0,0,0,0,0,0,0,-1,790,1478,-7.55746,-19.4858
-427,-454,-6.00183,15.8636,0,0,0,0,0,0,0,-1,797,1478,-6.00184,-15.8637
-420,-454,-6.28088,15.2135,0,0,0,0,0,0,0,-1,804,1478,-6.28087,-15.2135
-413,-454,-5.4408,13.674,0,0,0,0,0,0,0,-1,811,1478,-5.44079,-13.6739
-406,-454,-2.38208,10.0308,0,0,0,0,0,0,0,-1,818,1478,-2.38209,-10.0308
-399,-454,-1.21033,6.95447,0,0,0,0,0,0,0,-1,825,1478,-1.21035,-6.95452
-392,-454,0.0967407,0.985474,0,0,0,0,0,0,0,-1,832,1478,0.0967364,-0.985529
-385,-454,2.38629,3.297,0,0,0,0,0,0,0,-1,839,1478,2.38629,-3.29702
-378,-454,-15.9756,2.83997,0,0,0,0,0,0,0,-1,846,1478,-15.9756,-2.83994
-371,-454,-17.2753,2.01453,0,0,0,0,0,0,0,-1,853,1478,-17.2753,-2.01455
-364,-454,1.08124,0.819458,0,0,0,0,0,0,0,-1,860,1478,1.08124,-0.819513
-357,-454,0,0,0,0,0,0,0,0,0,-1,867,1478,0,0
-350,-454,0,0,0,0,0,0,0,0,0,-1,874,1478,0,0
-343,-454,0,0,0,0,0,0,0,0,0,-1,881,1478,0,0
-336,-454,0,0,0,0,0,0,0,0,0,-1,888,1478,0,0
-329,-454,0,0,0,0,0,0,0,0,0,-1,895,1478,0,0
-322,-454,0,0,0,0,0,0,0,0,0,-1,902,1478,0,0
-315,-454,0,0,0,0,0,0,0,0,0,-1,909,1478,0,0
-308,-454,0,0,0,0,0,0,0,0,0,-1,916,1478,0,0
-301,-454,0,0,0,0,0,0,0,0,0,-1,923,1478,0,0
-294,-454,0,0,0,0,0,0,0,0,0,-1,930,1478,0,0
-287,-454,0,0,0,0,0,0,0,0,0,-1,937,1478,0,0
-280,-454,0,0,0,0,0,0,0,0,0,-1,944,1478,0,0
-273,-454,0,0,0,0,0,0,0,0,0,-1,951,1478,0,0
-266,-454,0,0,0,0,0,0,0,0,0,-1,958,1478,0,0
-259,-454,0,0,0,0,0,0,0,0,0,-1,965,1478,0,0
-252,-454,0,0,0,0,0,0,0,0,0,-1,972,1478,0,0
-245,-454,0,0,0,0,0,0,0,0,0,-1,979,1478,0,0
-238,-454,0,0,0,0,0,0,0,0,0,-1,986,1478,0,0
-231,-454,0,0,0,0,0,0,0,0,0,-1,993,1478,0,0
-224,-454,0,0,0,0,0,0,0,0,0,-1,1000,1478,0,0
-217,-454,0,0,0,0,0,0,0,0,0,-1,1007,1478,0,0
-210,-454,0,0,0,0,0,0,0,0,0,-1,1014,1478,0,0
-203,-454,0,0,0,0,0,0,0,0,0,-1,1021,1478,0,0
-196,-454,0,0,0,0,0,0,0,0,0,-1,1028,1478,0,0
-189,-454,0,0,0,0,0,0,0,0,0,-1,1035,1478,0,0
-182,-454,0,0,0,0,0,0,0,0,0,-1,1042,1478,0,0
-175,-454,0,0,0,0,0,0,0,0,0,-1,1049,1478,0,0
-168,-454,0,0,0,0,0,0,0,0,0,-1,1056,1478,0,0
-161,-454,0,0,0,0,0,0,0,0,0,-1,1063,1478,0,0
-154,-454,0,0,0,0,0,0,0,0,0,-1,1070,1478,0,0
-147,-454,0,0,0,0,0,0,0,0,0,-1,1077,1478,0,0
-140,-454,0,0,0,0,0,0,0,0,0,-1,1084,1478,0,0
-133,-454,0,0,0,0,0,0,0,0,0,-1,1091,1478,0,0
-126,-454,0,0,0,0,0,0,0,0,0,-1,1098,1478,0,0
-119,-454,0,0,0,0,0,0,0,0,0,-1,1105,1478,0,0
-112,-454,0,0,0,0,0,0,0,0,0,-1,1112,1478,0,0
-105,-454,0,0,0,0,0,0,0,0,0,-1,1119,1478,0,0
-98,-454,0,0,0,0,0,0,0,0,0,-1,1126,1478,0,0
-91,-454,0,0,0,0,0,0,0,0,0,-1,1133,1478,0,0
-84,-454,0,0,0,0,0,0,0,0,0,-1,1140,1478,0,0
-77,-454,0,0,0,0,0,0,0,0,0,-1,1147,1478,0,0
-70,-454,0,0,0,0,0,0,0,0,0,-1,1154,1478,0,0
-63,-454,0,0,0,0,0,0,0,0,0,-1,1161,1478,0,0
-56,-454,0,0,0,0,0,0,0,0,0,-1,1168,1478,0,0
-49,-454,0,0,0,0,0,0,0,0,0,-1,1175,1478,0,0
-42,-454,0,0,0,0,0,0,0,0,0,-1,1182,1478,0,0
-35,-454,0,0,0,0,0,0,0,0,0,-1,1189,1478,0,0
-28,-454,0,0,0,0,0,0,0,0,0,-1,1196,1478,0,0
-21,-454,0,0,0,0,0,0,0,0,0,-1,1203,1478,0,0
-14,-454,0,0,0,0,0,0,0,0,0,-1,1210,1478,0,0
-7,-454,0,0,0,0,0,0,0,0,0,-1,1217,1478,0,0
0,-454,0,0,0,0,0,0,0,0,0,-1,1224,1478,0,0
7,-454,0,0,0,0,0,0,0,0,0,-1,1231,1478,0,0
14,-454,0,0,0,0,0,0,0,0,0,-1,1238,1478,0,0
21,-454,0,0,0,0,0,0,0,0,0,-1,1245,1478,0,0
28,-454,0,0,0,0,0,0,0,0,0,-1,1252,1478,0,0
35,-454,0,0,0,0,0,0,0,0,0,-1,1259,1478,0,0
42,-454,0,0,0,0,0,0,0,0,0,-1,1266,1478,0,0
49,-454,0,0,0,0,0,0,0,0,0,-1,1273,1478,0,0
56,-454,0,0,0,0,0,0,0,0,0,-1,1280,1478,0,0
63,-454,0,0,0,0,0,0,0,0,0,-1,1287,1478,0,0
70,-454,0,0,0,0,0,0,0,0,0,-1,1294,1478,0,0
77,-454,0,0,0,0,0,0,0,0,0,-1,1301,1478,0,0
84,-454,0,0,0,0,0,0,0,0,0,-1,1308,1478,0,0
91,-454,0,0,0,0,0,0,0,0,0,-1,1315,1478,0,0
98,-454,0,0,0,0,0,0,0,0,0,-1,1322,1478,0,0
105,-454,0,0,0,0,0,0,0,0,0,-1,1329,1478,0,0
112,-454,0,0,0,0,0,0,0,0,0,-1,1336,1478,0,0
119,-454,0,0,0,0,0,0,0,0,0,-1,1343,1478,0,0
126,-454,0,0,0,0,0,0,0,0,0,-1,1350,1478,0,0
133,-454,0,0,0,0,0,0,0,0,0,-1,1357,1478,0,0
140,-454,0,0,0,0,0,0,0,0,0,-1,1364,1478,0,0
147,-454,0,0,0,0,0,0,0,0,0,-1,1371,1478,0,0
154,-454,0,0,0,0,0,0,0,0,0,-1,1378,1478,0,0
161,-454,0,0,0,0,0,0,0,0,0,-1,1385,1478,0,0
168,-454,0,0,0,0,0,0,0,0,0,-1,1392,1478,0,0
175,-454,0,0,0,0,0,0,0,0,0,-1,1399,1478,0,0
182,-454,0,0,0,0,0,0,0,0,0,-1,1406,1478,0,0
189,-454,0,0,0,0,0,0,0,0,0,-1,1413,1478,0,0
196,-454,0,0,0,0,0,0,0,0,0,-1,1420,1478,0,0
203,-454,0,0,0,0,0,0,0,0,0,-1,1427,1478,0,0
210,-454,0,0,0,0,0,0,0,0,0,-1,1434,1478,0,0
217,-454,0,0,0,0,0,0,0,0,0,-1,1441,1478,0,0
224,-454,0,0,0,0,0,0,0,0,0,-1,1448,1478,0,0
231,-454,0,0,0,0,0,0,0,0,0,-1,1455,1478,0,0
238,-454,0,0,0,0,0,0,0,0,0,-1,1462,1478,0,0
245,-454,0,0,0,0,0,0,0,0,0,-1,1469,1478,0,0
252,-454,0,0,0,0,0,0,0,0,0,-1,1476,1478,0,0
259,-454,0,0,0,0,0,0,0,0,0,-1,1483,1478,0,0
266,-454,0,0,0,0,0,0,0,0,0,-1,1490,1478,0,0
273,-454,0,0,0,0,0,0,0,0,0,-1,1497,1478,0,0
280,-454,0,0,0,0,0,0,0,0,0,-1,1504,1478,0,0
287,-454,0,0,0,0,0,0,0,0,0,-1,1511,1478,0,0
294,-454,0,0,0,0,0,0,0,0,0,-1,1518,1478,0,0
301,-454,0,0,0,0,0,0,0,0,0,-1,1525,1478,0,0
308,-454,0,0,0,0,0,0,0,0,0,-1,1532,1478,0,0
315,-454,0,0,0,0,0,0,0,0,0,-1,1539,1478,0,0
322,-454,0,0,0,0,0,0,0,0,0,-1,1546,1478,0,0
329,-454,0,0,0,0,0,0,0,0,0,-1,1553,1478,0,0
336,-454,0,0,0,0,0,0,0,0,0,-1,1560,1478,0,0
343,-454,0,0,0,0,0,0,0,0,0,-1,1567,1478,0,0
350,-454,0,0,0,0,0,0,0,0,0,-1,1574,1478,0,0
357,-454,0,0,0,0,0,0,0,0,0,-1,1581,1478,0,0
364,-454,0,0,0,0,0,0,0,0,0,-1,1588,1478,0,0
371,-454,0,0,0,0,0,0,0,0,0,-1,1595,1478,0,0
378,-454,0,0,0,0,0,0,0,0,0,-1,1602,1478,0,0
385,-454,0,0,0,0,0,0,0,0,0,-1,1609,1478,0,0
392,-454,0,0,0,0,0,0,0,0,0,-1,1616,1478,0,0
399,-454,0,0,0,0,0,0,0,0,0,-1,1623,1478,0,0
406,-454,0,0,0,0,0,0,0,0,0,-1,1630,1478,0,0
413,-454,0,0,0,0,0,0,0,0,0,-1,1637,1478,0,0
420,-454,0,0,0,0,0,0,0,0,0,-1,1644,1478,0,0
427,-454,0,0,0,0,0,0,0,0,0,-1,1651,1478,0,0
434,-454,0,0,0,0,0,0,0,0,0,-1,1658,1478,0,0
441,-454,0,0,0,0,0,0,0,0,0,-1,1665,1478,0,0
448,-454,0,0,0,0,0,0,0,0,0,-1,1672,1478,0,0
455,-454,0,0,0,0,0,0,0,0,0,-1,1679,1478,0,0
462,-454,0,0,0,0,0,0,0,0,0,-1,1686,1478,0,0
469,-454,0,0,0,0,0,0,0,0,0,-1,1693,1478,0,0
476,-454,0,0,0,0,0,0,0,0,0,-1,1700,1478,0,0
483,-454,14.2399,3.97498,0,0,0,0,0,0,0,-1,1707,1478,14.2399,-3.97502
490,-454,18.1821,-0.175781,0,0,0,0,0,0,0,-1,1714,1478,18.1821,0.175822
497,-454,16.8854,1.01208,0,0,0,0,0,0,0,-1,1721,1478,16.8854,-1.01209
504,-454,15.587,2.05994,0,0,0,0,0,0,0,-1,1728,1478,15.5871,-2.05998
511,-454,17.0273,14.5258,0,0,0,0,0,0,0,-1,1735,1478,17.0273,-14.5258
518,-454,16.4158,13.1039,0,0,0,0,0,0,0,-1,1742,1478,16.4157,-13.1038
525,-454,15.7842,11.6628,0,0,0,0,0,0,0,-1,1749,1478,15.7841,-11.6629
532,-454,15.1094,10.2476,0,0,0,0,0,0,0,-1,1756,1478,15.1094,-10.2475
539,-454,13.7905,10.9373,0,0,0,0,0,0,0,-1,1763,1478,13.7906,-10.9372
546,-454,16.2002,13.2458,0,0,0,0,0,0,0,-1,1770,1478,16.2002,-13.2459
553,-454,15.6747,12.1868,0,0,0,0,0,0,0,-1,1777,1478,15.6747,-12.1868
560,-454,16.3895,14.0527,0,0,0,0,0,0,0,-1,1784,1478,16.3895,-14.0528
567,-454,32.9011,29.0449,0,0,0,0,0,0,0,-1,1791,1478,32.9011,-29.0449
574,-454,32.6732,28.4031,0,0,0,0,0,0,0,-1,1798,1478,32.6732,-28.403
581,-454,32.7732,27.5341,0.00652626,0.00162017,-0.00216826,0.00734717,0.000799256,-0.361926,0.00465462,0.0335557,1805,1478,32.7731,-27.534
588,-454,32.8301,26.7008,0.0050257,0.00145799,-0.00190294,0.00585016,0.000633532,-0.408844,0.00370702,0.0147893,1812,1478,32.8301,-26.7009
595,-454,32.7408,25.9407,0.00382048,0.00117505,-0.00157984,0.00455822,0.00043731,-0.436876,0.00290404,0.0122252,1819,1478,32.7408,-25.9406
602,-454,32.6913,25.1416,0.00291744,0.000807762,-0.00119659,0.00345775,0.000267451,-0.424137,0.00222139,0.00940817,1826,1478,32.6913,-25.1416
609,-454,32.6731,24.3663,0.00225178,0.000510542,-0.00081892,0.0025764,0.000185917,-0.377404,0.0016591,0.011364,1833,1478,32.6731,-24.3663
616,-454,32.6428,23.6168,0.00174122,0.000376745,-0.000524572,0.00191957,0.000198387,-0.327745,0.00121898,0.0147007,1840,1478,32.6428,-23.6168
623,-454,32.6368,22.8599,0.00151222,0.000170459,-0.000201688,0.00154188,0.000140797,-0.146018,0.000984352,0.015285,1847,1478,32.6369,-22.8598
630,-454,32.6104,22.0923,0.00148415,1.48769e-05,7.40482e-05,0.00148787,1.11545e-05,0.0502283,0.000988215,0.0149981,1854,1478,32.6103,-22.0922
637,-454,32.5154,21.3123,0.00156532,9.07347e-05,0.000222115,0.00159805,5.80043e-05,0.146305,0.00104657,0.0131843,1861,1478,32.5154,-21.3122
644,-454,32.5642,20.5082,0.00178732,0.000476373,0.000150012,0.00180427,0.000459426,0.112493,0.0010827,0.0294005,1868,1478,32.5642,-20.5082
651,-454,32.6475,19.6613,0,0,0,0,0,0,0,-1,1875,1478,32.6475,-19.6613
658,-454,17.2583,10.0765,0,0,0,0,0,0,0,-1,1882,1478,17.2583,-10.0765
665,-454,17.683,9.67566,0,0,0,0,0,0,0,-1,1889,1478,17.683,-9.67572
672,-454,16.5476,6.41931,0,0,0,0,0,0,0,-1,1896,1478,16.5476,-6.41929
679,-454,14.2161,5.45007,0,0,0,0,0,0,0,-1,1903,1478,14.2161,-5.45013
686,-454,10.3767,2.12842,0,0,0,0,0,0,0,-1,1910,1478,10.3767,-2.12839
693,-454,11.1857,1.48486,0,0,0,0,0,0,0,-1,1917,1478,11.1857,-1.48487
700,-454,0,0,0,0,0,0,0,0,0,-1,1924,1478,0,0
707,-454,0,0,0,0,0,0,0,0,0,-1,1931,1478,0,0
714,-454,0,0,0,0,0,0,0,0,0,-1,1938,1478,0,0
721,-454,0,0,0,0,0,0,0,0,0,-1,1945,1478,0,0
728,-454,0,0,0,0,0,0,0,0,0,-1,1952,1478,0,0
735,-454,0,0,0,0,0,0,0,0,0,-1,1959,1478,0,0
742,-454,0,0,0,0,0,0,0,0,0,-1,1966,1478,0,0
749,-454,0,0,0,0,0,0,0,0,0,-1,1973,1478,0,0
756,-454,0,0,0,0,0,0,0,0,0,-1,1980,1478,0,0
763,-454,0,0,0,0,0,0,0,0,0,-1,1987,1478,0,0
770,-454,0,0,0,0,0,0,0,0,0,-1,1994,1478,0,0
777,-454,0,0,0,0,0,0,0,0,0,-1,2001,1478,0,0
784,-454,0,0,0,0,0,0,0,0,0,-1,2008,1478,0,0
791,-454,0,0,0,0,0,0,0,0,0,-1,2015,1478,0,0
798,-454,0,0,0,0,0,0,0,0,0,-1,2022,1478,0,0
805,-454,0,0,0,0,0,0,0,0,0,-1,2029,1478,0,0
812,-454,0,0,0,0,0,0,0,0,0,-1,2036,1478,0,0
-700,-461,0,0,0,0,0,0,0,0,0,-1,524,1485,0,0
-693,-461,0,0,0,0,0,0,0,0,0,-1,531,1485,0,0
-686,-461,0,0,0,0,0,0,0,0,0,-1,538,1485,0,0
-679,-461,0,0,0,0,0,0,0,0,0,-1,545,1485,0,0
-672,-461,0,0,0,0,0,0,0,0,0,-1,552,1485,0,0
-665,-461,0,0,0,0,0,0,0,0,0,-1,559,1485,0,0
-658,-461,0,0,0,0,0,0,0,0,0,-1,566,1485,0,0
-651,-461,0,0,0,0,0,0,0,0,0,-1,573,1485,0,0
-644,-461,0,0,0,0,0,0,0,0,0,-1,580,1485,0,0
-637,-461,0,0,0,0,0,0,0,0,0,-1,587,1485,0,0
-630,-461,0,0,0,0,0,0,0,0,0,-1,594,1485,0,0
-623,-461,0,0,0,0,0,0,0,0,0,-1,601,1485,0,0
-616,-461,0,0,0,0,0,0,0,0,0,-1,608,1485,0,0
-609,-461,0,0,0,0,0,0,0,0,0,-1,615,1485,0,0
-602,-461,0,0,0,0,0,0,0,0,0,-1,622,1485,0,0
-595,-461,0,0,0,0,0,0,0,0,0,-1,629,1485,0,0
-588,-461,0,0,0,0,0,0,0,0,0,-1,636,1485,0,0
-581,-461,0,0,0,0,0,0,0,0,0,-1,643,1485,0,0
-574,-461,0,0,0,0,0,0,0,0,0,-1,650,1485,0,0
-567,-461,-9.69031,0.513306,0,0,0,0,0,0,0,-1,657,1485,-9.69032,-0.513305
-560,-461,-7.28815,1.54004,0,0,0,0,0,0,0,-1,664,1485,-7.28817,-1.54005
-553,-461,-11.9607,5.27783,0,0,0,0,0,0,0,-1,671,1485,-11.9607,-5.27778
-546,-461,-11.4215,4.44666,0,0,0,0,0,0,0,-1,678,1485,-11.4215,-4.4467
-539,-461,-9.36493,5.23438,0,0,0,0,0,0,0,-1,685,1485,-9.3649,-5.23432
-532,-461,-7.82898,6.78357,0,0,0,0,0,0,0,-1,692,1485,-7.829,-6.78363
-525,-461,-6.37878,8.75659,0,0,0,0,0,0,0,-1,699,1485,-6.3788,-8.75659
-518,-461,-6.49695,10.886,0,0,0,0,0,0,0,-1,706,1485,-6.49696,-10.8859
-511,-461,-14.6927,19.8422,0,0,0,0,0,0,0,-1,713,1485,-14.6927,-19.8421
-504,-461,-14.5171,20.8337,0.00498584,0.00663239,0.00607089,0.0119356,-0.000317339,0.852792,0.00806491,0.0467107,720,1485,-14.5171,-20.8338
-497,-461,-14.4698,21.7838,0.00383269,0.00488911,0.00455647,0.00894788,-0.000226085,0.843103,0.00604203,0.0108365,727,1485,-14.4698,-21.7838
-490,-461,-14.5328,22.5739,0.0028813,0.00352704,0.00331956,0.00653939,-0.000131054,0.833877,0.00440393,0.0122671,734,1485,-14.5328,-22.5738
-483,-461,-14.5792,23.3694,0.00213927,0.00241943,0.00231335,0.00459694,-3.8238e-05,0.815638,0.00307745,0.0121322,741,1485,-14.5792,-23.3694
-476,-461,-14.6279,24.1766,0.00166283,0.00171717,0.00166195,0.00335217,2.78323e-05,0.793572,0.00222556,0.0112205,748,1485,-14.628,-24.1766
-469,-461,-14.6838,24.9645,0.001408,0.00138107,0.00129129,0.00268589,0.000103178,0.780184,0.00175721,0.0136592,755,1485,-14.6838,-24.9645
-462,-461,-14.7099,25.7909,0.00142363,0.0013807,0.00123557,0.00263793,0.000166408,0.776713,0.00170586,0.0194797,762,1485,-14.7099,-25.7909
-455,-461,-14.7604,26.6046,0.00173668,0.00174527,0.00151791,0.00325889,0.000223062,0.786814,0.00210218,0.0230732,769,1485,-14.7604,-26.6046
-448,-461,-14.8021,27.4081,0.00246429,0.00278144,0.00237188,0.00500003,0.000245692,0.818776,0.00325455,0.0219988,776,1485,-14.8021,-27.4081
-441,-461,-14.7999,28.1321,0,0,0,0,0,0,0,-1,783,1485,-14.7999,-28.1321
-434,-461,-14.5491,29.2328,0,0,0,0,0,0,0,-1,790,1485,-14.5491,-29.2327
-427,-461,-8.26154,21.546,0,0,0,0,0,0,0,-1,797,1485,-8.26153,-21.5461
-420,-461,-5.70355,16.6116,0,0,0,0,0,0,0,-1,804,1485,-5.70353,-16.6115
-413,-461,-5.98798,16.0605,0,0,0,0,0,0,0,-1,811,1485,-5.98796,-16.0605
-406,-461,-5.52667,14.839,0,0,0,0,0,0,0,-1,818,1485,-5.52666,-14.839
-399,-461,-1.93439,9.82849,0,0,0,0,0,0,0,-1,825,1485,-1.9344,-9.82846
-392,-461,-0.357544,5.55225,0,0,0,0,0,0,0,-1,832,1485,-0.357536,-5.55228
-385,-461,1.71509,3.35254,0,0,0,0,0,0,0,-1,839,1485,1.71511,-3.35255
-378,-461,1.95996,3.01111,0,0,0,0,0,0,0,-1,846,1485,1.95993,-3.01111
-371,-461,0.702881,2.33459,0,0,0,0,0,0,0,-1,853,1485,0.702859,-2.33459
-364,-461,-1.93097,2.56458,0,0,0,0,0,0,0,-1,860,1485,-1.93095,-2.56456
-357,-461,-2.41516,3.49487,0,0,0,0,0,0,0,-1,867,1485,-2.41517,-3.49487
-350,-461,0,0,0,0,0,0,0,0,0,-1,874,1485,0,0
-343,-461,0,0,0,0,0,0,0,0,0,-1,881,1485,0,0
-336,-461,0,0,0,0,0,0,0,0,0,-1,888,1485,0,0
-329,-461,0,0,0,0,0,0,0,0,0,-1,895,1485,0,0
-322,-461,0,0,0,0,0,0,0,0,0,-1,902,1485,0,0
-315,-461,0,0,0,0,0,0,0,0,0,-1,909,1485,0,0
-308,-461,0,0,0,0,0,0,0,0,0,-1,916,1485,0,0
-301,-461,0,0,0,0,0,0,0,0,0,-1,923,1485,0,0
-294,-461,0,0,0,0,0,0,0,0,0,-1,930,1485,0,0
-287,-461,0,0,0,0,0,0,0,0,0,-1,937,1485,0,0
-280,-461,0,0,0,0,0,0,0,0,0,-1,944,1485,0,0
-273,-461,0,0,0,0,0,0,0,0,0,-1,951,1485,0,0
-266,-461,0,0,0,0,0,0,0,0,0,-1,958,1485,0,0
-259,-461,0,0,0,0,0,0,0,0,0,-1,965,1485,0,0
-252,-461,0,0,0,0,0,0,0,0,0,-1,972,1485,0,0
-245,-461,0,0,0,0,0,0,0,0,0,-1,979,1485,0,0
-238,-461,0,0,0,0,0,0,0,0,0,-1,986,1485,0,0
-231,-461,0,0,0,0,0,0,0,0,0,-1,993,1485,0,0
-224,-461,0,0,0,0,0,0,0,0,0,-1,1000,1485,0,0
-217,-461,0,0,0,0,0,0,0,0,0,-1,1007,1485,0,0
-210,-461,0,0,0,0,0,0,0,0,0,-1,1014,1485,0,0
-203,-461,0,0,0,0,0,0,0,0,0,-1,1021,1485,0,0
-196,-461,0,0,0,0,0,0,0,0,0,-1,1028,1485,0,0
-189,-461,0,0,0,0,0,0,0,0,0,-1,1035,1485,0,0
-182,-461,0,0,0,0,0,0,0,0,0,-1,1042,1485,0,0
-175,-461,0,0,0,0,0,0,0,0,0,-1,1049,1485,0,0
-168,-461,0,0,0,0,0,0,0,0,0,-1,1056,1485,0,0
-161,-461,0,0,0,0,0,0,0,0,0,-1,1063,1485,0,0
-154,-461,0,0,0,0,0,0,0,0,0,-1,1070,1485,0,0
-147,-461,0,0,0,0,0,0,0,0,0,-1,1077,1485,0,0
-140,-461,0,0,0,0,0,0,0,0,0,-1,1084,1485,0,0
-133,-461,0,0,0,0,0,0,0,0,0,-1,1091,1485,0,0
-126,-461,0,0,0,0,0,0,0,0,0,-1,1098,1485,0,0
-119,-461,0,0,0,0,0,0,0,0,0,-1,1105,1485,0,0
-112,-461,0,0,0,0,0,0,0,0,0,-1,1112,1485,0,0
-105,-461,0,0,0,0,0,0,0,0,0,-1,1119,1485,0,0
-98,-461,0,0,0,0,0,0,0,0,0,-1,1126,1485,0,0
-91,-461,0,0,0,0,0,0,0,0,0,-1,1133,1485,0,0
-84,-461,0,0,0,0,0,0,0,0,0,-1,1140,1485,0,0
-77,-461,0,0,0,0,0,0,0,0,0,-1,1147,1485,0,0
-70,-461,0,0,0,0,0,0,0,0,0,-1,1154,1485,0,0
-63,-461,0,0,0,0,0,0,0,0,0,-1,1161,1485,0,0
-56,-461,0,0,0,0,0,0,0,0,0,-1,1168,1485,0,0
-49,-461,0,0,0,0,0,0,0,0,0,-1,1175,1485,0,0
-42,-461,0,0,0,0,0,0,0,0,0,-1,1182,1485,0,0
-35,-461,0,0,0,0,0,0,0,0,0,-1,1189,1485,0,0
-28,-461,0,0,0,0,0,0,0,0,0,-1,1196,1485,0,0
-21,-461,0,0,0,0,0,0,0,0,0,-1,1203,1485,0,0
-14,-461,0,0,0,0,0,0,0,0,0,-1,1210,1485,0,0
-7,-461,0,0,0,0,0,0,0,0,0,-1,1217,1485,0,0
0,-461,0,0,0,0,0,0,0,0,0,-1,1224,1485,0,0
7,-461,0,0,0,0,0,0,0,0,0,-1,1231,1485,0,0
14,-461,0,0,0,0,0,0,0,0,0,-1,1238,1485,0,0
21,-461,0,0,0,0,0,0,0,0,0,-1,1245,1485,0,0
28,-461,0,0,0,0,0,0,0,0,0,-1,1252,1485,0,0
35,-461,0,0,0,0,0,0,0,0,0,-1,1259,1485,0,0
42,-461,0,0,0,0,0,0,0,0,0,-1,1266,1485,0,0
49,-461,0,0,0,0,0,0,0,0,0,-1,1273,1485,0,0
56,-461,0,0,0,0,0,0,0,0,0,-1,1280,1485,0,0
63,-461,0,0,0,0,0,0,0,0,0,-1,1287,1485,0,0
70,-461,0,0,0,0,0,0,0,0,0,-1,1294,1485,0,0
77,-461,0,0,0,0,0,0,0,0,0,-1,1301,1485,0,0
84,-461,0,0,0,0,0,0,0,0,0,-1,1308,1485,0,0
91,-461,0,0,0,0,0,0,0,0,0,-1,1315,1485,0,0
98,-461,0,0,0,0,0,0,0,0,0,-1,1322,1485,0,0
105,-461,0,0,0,0,0,0,0,0,0,-1,1329,1485,0,0
112,-461,0,0,0,0,0,0,0,0,0,-1,1336,1485,0,0
119,-461,0,0,0,0,0,0,0,0,0,-1,1343,1485,0,0
126,-461,0,0,0,0,0,0,0,0,0,-1,1350,1485,0,0
133,-461,0,0,0,0,0,0,0,0,0,-1,1357,1485,0,0
140,-461,0,0,0,0,0,0,0,0,0,-1,1364,1485,0,0
147,-461,0,0,0,0,0,0,0,0,0,-1,1371,1485,0,0
154,-461,0,0,0,0,0,0,0,0,0,-1,1378,1485,0,0
161,-461,0,0,0,0,0,0,0,0,0,-1,1385,1485,0,0
168,-461,0,0,0,0,0,0,0,0,0,-1,1392,1485,0,0
175,-461,0,0,0,0,0,0,0,0,0,-1,1399,1485,0,0
182,-461,0,0,0,0,0,0,0,0,0,-1,1406,1485,0,0
189,-461,0,0,0,0,0,0,0,0,0,-1,1413,1485,0,0
196,-461,0,0,0,0,0,0,0,0,0,-1,1420,1485,0,0
203,-461,0,0,0,0,0,0,0,0,0,-1,1427,1485,0,0
210,-461,0,0,0,0,0,0,0,0,0,-1,1434,1485,0,0
217,-461,0,0,0,0,0,0,0,0,0,-1,1441,1485,0,0
224,-461,0,0,0,0,0,0,0,0,0,-1,1448,1485,0,0
231,-461,0,0,0,0,0,0,0,0,0,-1,1455,1485,0,0
238,-461,0,0,0,0,0,0,0,0,0,-1,1462,1485,0,0
245,-461,0,0,0,0,0,0,0,0,0,-1,1469,1485,0,0
252,-461,0,0,0,0,0,0,0,0,0,-1,1476,1485,0,0
259,-461,0,0,0,0,0,0,0,0,0,-1,1483,1485,0,0
266,-461,0,0,0,0,0,0,0,0,0,-1,1490,1485,0,0
273,-461,0,0,0,0,0,0,0,0,0,-1,1497,1485,0,0
280,-461,0,0,0,0,0,0,0,0,0,-1,1504,1485,0,0
287,-461,0,0,0,0,0,0,0,0,0,-1,1511,1485,0,0
294,-461,0,0,0,0,0,0,0,0,0,-1,1518,1485,0,0
301,-461,0,0,0,0,0,0,0,0,0,-1,1525,1485,0,0
308,-461,0,0,0,0,0,0,0,0,0,-1,1532,1485,0,0
315,-461,0,0,0,0,0,0,0,0,0,-1,1539,1485,0,0
322,-461,0,0,0,0,0,0,0,0,0,-1,1546,1485,0,0
329,-461,0,0,0,0,0,0,0,0,0,-1,1553,1485,0,0
336,-461,0,0,0,0,0,0,0,0,0,-1,1560,1485,0,0
343,-461,0,0,0,0,0,0,0,0,0,-1,1567,1485,0,0
350,-461,0,0,0,0,0,0,0,0,0,-1,1574,1485,0,0
357,-461,0,0,0,0,0,0,0,0,0,-1,1581,1485,0,0
364,-461,0,0,0,0,0,0,0,0,0,-1,1588,1485,0,0
371,-461,0,0,0,0,0,0,0,0,0,-1,1595,1485,0,0
378,-461,0,0,0,0,0,0,0,0,0,-1,1602,1485,0,0
385,-461,0,0,0,0,0,0,0,0,0,-1,1609,1485,0,0
392,-461,0,0,0,0,0,0,0,0,0,-1,1616,1485,0,0
399,-461,0,0,0,0,0,0,0,0,0,-1,1623,1485,0,0
406,-461,0,0,0,0,0,0,0,0,0,-1,1630,1485,0,0
413,-461,0,0,0,0,0,0,0,0,0,-1,1637,1485,0,0
420,-461,0,0,0,0,0,0,0,0,0,-1,1644,1485,0,0
427,-461,0,0,0,0,0,0,0,0,0,-1,1651,1485,0,0
434,-461,0,0,0,0,0,0,0,0,0,-1,1658,1485,0,0
441,-461,0,0,0,0,0,0,0,0,0,-1,1665,1485,0,0
448,-461,0,0,0,0,0,0,0,0,0,-1,1672,1485,0,0
455,-461,0,0,0,0,0,0,0,0,0,-1,1679,1485,0,0
462,-461,0,0,0,0,0,0,0,0,0,-1,1686,1485,0,0
469,-461,0,0,0,0,0,0,0,0,0,-1,1693,1485,0,0
476,-461,14.1906,0.690552,0,0,0,0,0,0,0,-1,1700,1485,14.1906,-0.690525
483,-461,10.6361,3.09106,0,0,0,0,0,0,0,-1,1707,1485,10.6361,-3.091
490,-461,17.9972,0.665894,0,0,0,0,0,0,0,-1,1714,1485,17.9972,-0.665876
497,-461,16.6829,1.87732,0,0,0,0,0,0,0,-1,1721,1485,16.6828,-1.87736
504,-461,15.3884,3.09216,0,0,0,0,0,0,0,-1,1728,1485,15.3885,-3.09212
511,-461,15.4292,14.3512,0,0,0,0,0,0,0,-1,1735,1485,15.4292,-14.3512
518,-461,14.8081,10.0085,0,0,0,0,0,0,0,-1,1742,1485,14.8081,-10.0086
525,-461,14.0022,10.8033,0,0,0,0,0,0,0,-1,1749,1485,14.0022,-10.8033
532,-461,17.1704,14.077,0,0,0,0,0,0,0,-1,1756,1485,17.1704,-14.077
539,-461,17.0229,14.7386,0,0,0,0,0,0,0,-1,1763,1485,17.0229,-14.7387
546,-461,16.2106,14.1372,0,0,0,0,0,0,0,-1,1770,1485,16.2106,-14.1372
553,-461,25.9354,24.2889,0,0,0,0,0,0,0,-1,1777,1485,25.9354,-24.2889
560,-461,32.0525,29.845,0,0,0,0,0,0,0,-1,1784,1485,32.0525,-29.845
567,-461,32.0962,28.9767,0.0095019,0.00181107,-0.0023658,0.0101714,0.0011416,-0.27577,0.00643423,0.0367424,1791,1485,32.0962,-28.9767
574,-461,32.1282,28.2914,0.00729549,0.00153926,-0.0020149,0.00793069,0.000904056,-0.305389,0.00501302,0.0328734,1798,1485,32.1281,-28.2913
581,-461,32.1018,27.5035,0.00564708,0.00135327,-0.00176981,0.00628251,0.000717834,-0.344708,0.00397075,0.0189563,1805,1485,32.1018,-27.5035
588,-461,32.0546,26.7449,0.00435706,0.0011149,-0.00149728,0.00494273,0.000529229,-0.372859,0.00313367,0.0115,1812,1485,32.0546,-26.7448
595,-461,31.9806,25.9924,0.00336062,0.000817587,-0.00119097,0.00383128,0.00034693,-0.37635,0.00244676,0.00961851,1819,1485,31.9806,-25.9925
602,-461,31.9492,25.1843,0.00258662,0.000477101,-0.000870936,0.00289972,0.000163998,-0.345114,0.00188087,0.0100215,1826,1485,31.9492,-25.1844
609,-461,31.9088,24.3915,0.00200919,0.000214787,-0.000537489,0.00215787,6.61089e-05,-0.269869,0.00141706,0.0115397,1833,1485,31.9088,-24.3915
616,-461,31.8719,23.6376,0.0015776,7.12843e-05,-0.000246622,0.00161695,3.19339e-05,-0.158223,0.00106748,0.0139747,1840,1485,31.8719,-23.6376
623,-461,31.8724,22.9038,0.00137842,-0.000168201,0.000108667,0.00138602,-0.000175799,0.0698037,0.00098784,0.017377,1847,1485,31.8724,-22.9038
630,-461,31.8318,22.1624,0.00128302,-0.000334779,0.000478524,0.00141396,-0.000465723,0.267101,0.00113033,0.0173239,1854,1485,31.8318,-22.1624
637,-461,31.7579,21.3477,0.00126121,-0.000296845,0.000745723,0.0015606,-0.000596237,0.38178,0.00128607,0.0164812,1861,1485,31.7579,-21.3477
644,-461,31.8043,20.6222,0.00125864,4.90555e-05,0.00084715,0.00169473,-0.000387036,0.475398,0.00127851,0.0395067,1868,1485,31.8043,-20.6221
651,-461,31.9114,19.8101,0,0,0,0,0,0,0,-1,1875,1485,31.9114,-19.81
658,-461,16.8987,10.1084,0,0,0,0,0,0,0,-1,1882,1485,16.8986,-10.1084
665,-461,17.2638,9.81384,0,0,0,0,0,0,0,-1,1889,1485,17.2638,-9.81385
672,-461,14.4877,6.89429,0,0,0,0,0,0,0,-1,1896,1485,14.4876,-6.89431
679,-461,10.0535,2.16321,0,0,0,0,0,0,0,-1,1903,1485,10.0535,-2.16317
686,-461,10.8195,1.84192,0,0,0,0,0,0,0,-1,1910,1485,10.8194,-1.84195
693,-461,0,0,0,0,0,0,0,0,0,-1,1917,1485,0,0
700,-461,0,0,0,0,0,0,0,0,0,-1,1924,1485,0,0
707,-461,0,0,0,0,0,0,0,0,0,-1,1931,1485,0,0
714,-461,0,0,0,0,0,0,0,0,0,-1,1938,1485,0,0
721,-461,0,0,0,0,0,0,0,0,0,-1,1945,1485,0,0
728,-461,0,0,0,0,0,0,0,0,0,-1,1952,1485,0,0
735,-461,0,0,0,0,0,0,0,0,0,-1,1959,1485,0,0
742,-461,0,0,0,0,0,0,0,0,0,-1,1966,1485,0,0
749,-461,0,0,0,0,0,0,0,0,0,-1,1973,1485,0,0
756,-461,0,0,0,0,0,0,0,0,0,-1,1980,1485,0,0
763,-461,0,0,0,0,0,0,0,0,0,-1,1987,1485,0,0
770,-461,0,0,0,0,0,0,0,0,0,-1,1994,1485,0,0
777,-461,0,0,0,0,0,0,0,0,0,-1,2001,1485,0,0
784,-461,0,0,0,0,0,0,0,0,0,-1,2008,1485,0,0
791,-461,0,0,0,0,0,0,0,0,0,-1,2015,1485,0,0
798,-461,0,0,0,0,0,0,0,0,0,-1,2022,1485,0,0
805,-461,0,0,0,0,0,0,0,0,0,-1,2029,1485,0,0
812,-461,0,0,0,0,0,0,0,0,0,-1,2036,1485,0,0
-700,-468,0,0,0,0,0,0,0,0,0,-1,524,1492,0,0
-693,-468,0,0,0,0,0,0,0,0,0,-1,531,1492,0,0
-686,-468,0,0,0,0,0,0,0,0,0,-1,538,1492,0,0
-679,-468,0,0,0,0,0,0,0,0,0,-1,545,1492,0,0
-672,-468,0,0,0,0,0,0,0,0,0,-1,552,1492,0,0
-665,-468,0,0,0,0,0,0,0,0,0,-1,559,1492,0,0
-658,-468,0,0,0,0,0,0,0,0,0,-1,566,1492,0,0
-651,-468,0,0,0,0,0,0,0,0,0,-1,573,1492,0,0
-644,-468,0,0,0,0,0,0,0,0,0,-1,580,1492,0,0
-637,-468,0,0,0,0,0,0,0,0,0,-1,587,1492,0,0
-630,-468,0,0,0,0,0,0,0,0,0,-1,594,1492,0,0
-623,-468,0,0,0,0,0,0,0,0,0,-1,601,1492,0,0
-616,-468,0,0,0,0,0,0,0,0,0,-1,608,1492,0,0
-609,-468,0,0,0,0,0,0,0,0,0,-1,615,1492,0,0
-602,-468,0,0,0,0,0,0,0,0,0,-1,622,1492,0,0
-595,-468,0,0,0,0,0,0,0,0,0,-1,629,1492,0,0
-588,-468,0,0,0,0,0,0,0,0,0,-1,636,1492,0,0
-581,-468,0,0,0,0,0,0,0,0,0,-1,643,1492,0,0
-574,-468,0,0,0,0,0,0,0,0,0,-1,650,1492,0,0
-567,-468,-11.2603,1.8042,0,0,0,0,0,0,0,-1,657,1492,-11.2603,-1.80424
-560,-468,-8.77441,2.23694,0,0,0,0,0,0,0,-1,664,1492,-8.77443,-2.23692
-553,-468,-5.94061,9.26318,0,0,0,0,0,0,0,-1,671,1492,-5.94062,-9.26322
-546,-468,-10.47,5.43237,0,0,0,0,0,0,0,-1,678,1492,-10.47,-5.4324
-539,-468,-10.2468,5.45203,0,0,0,0,0,0,0,-1,685,1492,-10.2468,-5.45197
-532,-468,-8.39795,6.02783,0,0,0,0,0,0,0,-1,692,1492,-8.39793,-6.02789
-525,-468,-6.59332,7.15405,0,0,0,0,0,0,0,-1,699,1492,-6.59331,-7.15411
-518,-468,-6.33588,8.65393,0,0,0,0,0,0,0,-1,706,1492,-6.33588,-8.65397
-511,-468,-8.05835,13.8282,0,0,0,0,0,0,0,-1,713,1492,-8.05835,-13.8283
-504,-468,-13.7457,20.6982,0,0,0,0,0,0,0,-1,720,1492,-13.7458,-20.6983
-497,-468,-13.7198,21.7054,0.004254,0.00562662,0.00556431,0.0105468,-0.000666169,0.846759,0.00726344,0.0329382,727,1492,-13.7199,-21.7055
-490,-468,-13.7149,22.631,0.00315093,0.0040031,0.00412263,0.00772161,-0.000567574,0.836892,0.00534698,0.0082289,734,1492,-13.7149,-22.631
-483,-468,-13.7673,23.4272,0.00228091,0.00267529,0.00289731,0.00538212,-0.000425911,0.819376,0.00373814,0.00900756,741,1492,-13.7673,-23.4273
-476,-468,-13.8218,24.2203,0.00175406,0.00182752,0.00207276,0.00386388,-0.000282289,0.794257,0.00267498,0.00992513,748,1492,-13.8218,-24.2203
-469,-468,-13.8819,25.0198,0.00149183,0.00142724,0.00157939,0.00303926,-0.00012019,0.775175,0.0020674,0.0147372,755,1492,-13.8819,-25.0198
-462,-468,-13.879,25.8654,0.00149438,0.00141199,0.00140111,0.0028549,5.14727e-05,0.770702,0.00188634,0.0259551,762,1492,-13.8791,-25.8654
-455,-468,-13.9417,26.6304,0.00178035,0.00176677,0.00153507,0.00330865,0.000238468,0.783187,0.00213073,0.0262728,769,1492,-13.9416,-26.6304
-448,-468,-13.9877,27.4388,0.00244855,0.00275561,0.00217005,0.00477755,0.000426611,0.820714,0.00305278,0.0147969,776,1492,-13.9877,-27.4388
-441,-468,-14.0171,28.2146,0.00339165,0.00413637,0.00312807,0.00691417,0.000613859,0.844639,0.00441906,0.0164853,783,1492,-14.0171,-28.2146
-434,-468,-13.9576,29.1348,0.00470254,0.00594182,0.00449254,0.00985725,0.000787108,0.853929,0.00632548,0.0450505,790,1492,-13.9577,-29.1347
-427,-468,-13.9368,30.1094,0,0,0,0,0,0,0,-1,797,1492,-13.9368,-30.1094
-420,-468,-7.57581,22.0538,0,0,0,0,0,0,0,-1,804,1492,-7.57582,-22.0538
-413,-468,-5.30328,17.3519,0,0,0,0,0,0,0,-1,811,1492,-5.30329,-17.352
-406,-468,-2.2356,9.396,0,0,0,0,0,0,0,-1,818,1492,-2.2356,-9.396
-399,-468,-0.940369,8.1936,0,0,0,0,0,0,0,-1,825,1492,-0.940365,-8.19357
-392,-468,-0.35144,8.14673,0,0,0,0,0,0,0,-1,832,1492,-0.351449,-8.14674
-385,-468,0.465759,5.35864,0,0,0,0,0,0,0,-1,839,1492,0.465732,-5.35864
-378,-468,1.99835,3.25391,0,0,0,0,0,0,0,-1,846,1492,1.99837,-3.2539
-371,-468,-0.31842,3.1532,0,0,0,0,0,0,0,-1,853,1492,-0.318441,-3.15324
-364,-468,-0.966736,2.14563,0,0,0,0,0,0,0,-1,860,1492,-0.966735,-2.14557
-357,-468,-3.06787,3.22742,0,0,0,0,0,0,0,-1,867,1492,-3.06784,-3.2274
-350,-468,-3.18658,4.12659,0,0,0,0,0,0,0,-1,874,1492,-3.18659,-4.12658
-343,-468,0,0,0,0,0,0,0,0,0,-1,881,1492,0,0
-336,-468,0,0,0,0,0,0,0,0,0,-1,888,1492,0,0
-329,-468,0,0,0,0,0,0,0,0,0,-1,895,1492,0,0
-322,-468,0,0,0,0,0,0,0,0,0,-1,902,1492,0,0
-315,-468,0,0,0,0,0,0,0,0,0,-1,909,1492,0,0
-308,-468,0,0,0,0,0,0,0,0,0,-1,916,1492,0,0
-301,-468,0,0,0,0,0,0,0,0,0,-1,923,1492,0,0
-294,-468,0,0,0,0,0,0,0,0,0,-1,930,1492,0,0
-287,-468,0,0,0,0,0,0,0,0,0,-1,937,1492,0,0
-280,-468,0,0,0,0,0,0,0,0,0,-1,944,1492,0,0
-273,-468,0,0,0,0,0,0,0,0,0,-1,951,1492,0,0
-266,-468,0,0,0,0,0,0,0,0,0,-1,958,1492,0,0
-259,-468,0,0,0,0,0,0,0,0,0,-1,965,1492,0,0
-252,-468,0,0,0,0,0,0,0,0,0,-1,972,1492,0,0
-245,-468,0,0,0,0,0,0,0,0,0,-1,979,1492,0,0
-238,-468,0,0,0,0,0,0,0,0,0,-1,986,1492,0,0
-231,-468,0,0,0,0,0,0,0,0,0,-1,993,1492,0,0
-224,-468,0,0,0,0,0,0,0,0,0,-1,1000,1492,0,0
-217,-468,0,0,0,0,0,0,0,0,0,-1,1007,1492,0,0
-210,-468,0,0,0,0,0,0,0,0,0,-1,1014,1492,0,0
-203,-468,0,0,0,0,0,0,0,0,0,-1,1021,1492,0,0
-196,-468,0,0,0,0,0,0,0,0,0,-1,1028,1492,0,0
-189,-468,0,0,0,0,0,0,0,0,0,-1,1035,1492,0,0
-182,-468,0,0,0,0,0,0,0,0,0,-1,1042,1492,0,0
-175,-468,0,0,0,0,0,0,0,0,0,-1,1049,1492,0,0
-168,-468,0,0,0,0,0,0,0,0,0,-1,1056,1492,0,0
-161,-468,0,0,0,0,0,0,0,0,0,-1,1063,1492,0,0
-154,-468,0,0,0,0,0,0,0,0,0,-1,1070,1492,0,0
-147,-468,0,0,0,0,0,0,0,0,0,-1,1077,1492,0,0
-140,-468,0,0,0,0,0,0,0,0,0,-1,1084,1492,0,0
-133,-468,0,0,0,0,0,0,0,0,0,-1,1091,1492,0,0
-126,-468,0,0,0,0,0,0,0,0,0,-1,1098,1492,0,0
-119,-468,0,0,0,0,0,0,0,0,0,-1,1105,1492,0,0
-112,-468,0,0,0,0,0,0,0,0,0,-1,1112,1492,0,0
-105,-468,0,0,0,0,0,0,0,0,0,-1,1119,1492,0,0
-98,-468,0,0,0,0,0,0,0,0,0,-1,1126,1492,0,0
-91,-468,0,0,0,0,0,0,0,0,0,-1,1133,1492,0,0
-84,-468,0,0,0,0,0,0,0,0,0,-1,1140,1492,0,0
-77,-468,0,0,0,0,0,0,0,0,0,-1,1147,1492,0,0
-70,-468,0,0,0,0,0,0,0,0,0,-1,1154,1492,0,0
-63,-468,0,0,0,0,0,0,0,0,0,-1,1161,1492,0,0
-56,-468,0,0,0,0,0,0,0,0,0,-1,1168,1492,0,0
-49,-468,0,0,0,0,0,0,0,0,0,-1,1175,1492,0,0
-42,-468,0,0,0,0,0,0,0,0,0,-1,1182,1492,0,0
-35,-468,0,0,0,0,0,0,0,0,0,-1,1189,1492,0,0
-28,-468,0,0,0,0,0,0,0,0,0,-1,1196,1492,0,0
-21,-468,0,0,0,0,0,0,0,0,0,-1,1203,1492,0,0
-14,-468,0,0,0,0,0,0,0,0,0,-1,1210,1492,0,0
-7,-468,0,0,0,0,0,0,0,0,0,-1,1217,1492,0,0
0,-468,0,0,0,0,0,0,0,0,0,-1,1224,1492,0,0
7,-468,0,0,0,0,0,0,0,0,0,-1,1231,1492,0,0
14,-468,0,0,0,0,0,0,0,0,0,-1,1238,1492,0,0
21,-468,0,0,0,0,0,0,0,0,0,-1,1245,1492,0,0
28,-468,0,0,0,0,0,0,0,0,0,-1,1252,1492,0,0
35,-468,0,0,0,0,0,0,0,0,0,-1,1259,1492,0,0
42,-468,0,0,0,0,0,0,0,0,0,-1,1266,1492,0,0
49,-468,0,0,0,0,0,0,0,0,0,-1,1273,1492,0,0
56,-468,0,0,0,0,0,0,0,0,0,-1,1280,1492,0,0
63,-468,0,0,0,0,0,0,0,0,0,-1,1287,1492,0,0
70,-468,0,0,0,0,0,0,0,0,0,-1,1294,1492,0,0
77,-468,0,0,0,0,0,0,0,0,0,-1,1301,1492,0,0
84,-468,0,0,0,0,0,0,0,0,0,-1,1308,1492,0,0
91,-468,0,0,0,0,0,0,0,0,0,-1,1315,1492,0,0
98,-468,0,0,0,0,0,0,0,0,0,-1,1322,1492,0,0
105,-468,0,0,0,0,0,0,0,0,0,-1,1329,1492,0,0
112,-468,0,0,0,0,0,0,0,0,0,-1,1336,1492,0,0
119,-468,0,0,0,0,0,0,0,0,0,-1,1343,1492,0,0
126,-468,0,0,0,0,0,0,0,0,0,-1,1350,1492,0,0
133,-468,0,0,0,0,0,0,0,0,0,-1,1357,1492,0,0
140,-468,0,0,0,0,0,0,0,0,0,-1,1364,1492,0,0
147,-468,0,0,0,0,0,0,0,0,0,-1,1371,1492,0,0
154,-468,0,0,0,0,0,0,0,0,0,-1,1378,1492,0,0
161,-468,0,0,0,0,0,0,0,0,0,-1,1385,1492,0,0
168,-468,0,0,0,0,0,0,0,0,0,-1,1392,1492,0,0
175,-468,0,0,0,0,0,0,0,0,0,-1,1399,1492,0,0
182,-468,0,0,0,0,0,0,0,0,0,-1,1406,1492,0,0
189,-468,0,0,0,0,0,0,0,0,0,-1,1413,1492,0,0
196,-468,0,0,0,0,0,0,0,0,0,-1,1420,1492,0,0
203,-468,0,0,0,0,0,0,0,0,0,-1,1427,1492,0,0
210,-468,0,0,0,0,0,0,0,0,0,-1,1434,1492,0,0
217,-468,0,0,0,0,0,0,0,0,0,-1,1441,1492,0,0
224,-468,0,0,0,0,0,0,0,0,0,-1,1448,1492,0,0
231,-468,0,0,0,0,0,0,0,0,0,-1,1455,1492,0,0
238,-468,0,0,0,0,0,0,0,0,0,-1,1462,1492,0,0
245,-468,0,0,0,0,0,0,0,0,0,-1,1469,1492,0,0
252,-468,0,0,0,0,0,0,0,0,0,-1,1476,1492,0,0
259,-468,0,0,0,0,0,0,0,0,0,-1,1483,1492,0,0
266,-468,0,0,0,0,0,0,0,0,0,-1,1490,1492,0,0
273,-468,0,0,0,0,0,0,0,0,0,-1,1497,1492,0,0
280,-468,0,0,0,0,0,0,0,0,0,-1,1504,1492,0,0
287,-468,0,0,0,0,0,0,0,0,0,-1,1511,1492,0,0
294,-468,0,0,0,0,0,0,0,0,0,-1,1518,1492,0,0
301,-468,0,0,0,0,0,0,0,0,0,-1,1525,1492,0,0
308,-468,0,0,0,0,0,0,0,0,0,-1,1532,1492,0,0
315,-468,0,0,0,0,0,0,0,0,0,-1,1539,1492,0,0
322,-468,0,0,0,0,0,0,0,0,0,-1,1546,1492,0,0
329,-468,0,0,0,0,0,0,0,0,0,-1,1553,1492,0,0
336,-468,0,0,0,0,0,0,0,0,0,-1,1560,1492,0,0
343,-468,0,0,0,0,0,0,0,0,0,-1,1567,1492,0,0
350,-468,0,0,0,0,0,0,0,0,0,-1,1574,1492,0,0
357,-468,0,0,0,0,0,0,0,0,0,-1,1581,1492,0,0
364,-468,0,0,0,0,0,0,0,0,0,-1,1588,1492,0,0
371,-468,0,0,0,0,0,0,0,0,0,-1,1595,1492,0,0
378,-468,0,0,0,0,0,0,0,0,0,-1,1602,1492,0,0
385,-468,0,0,0,0,0,0,0,0,0,-1,1609,1492,0,0
392,-468,0,0,0,0,0,0,0,0,0,-1,1616,1492,0,0
399,-468,0,0,0,0,0,0,0,0,0,-1,1623,1492,0,0
406,-468,0,0,0,0,0,0,0,0,0,-1,1630,1492,0,0
413,-468,0,0,0,0,0,0,0,0,0,-1,1637,1492,0,0
420,-468,0,0,0,0,0,0,0,0,0,-1,1644,1492,0,0
427,-468,0,0,0,0,0,0,0,0,0,-1,1651,1492,0,0
434,-468,0,0,0,0,0,0,0,0,0,-1,1658,1492,0,0
441,-468,0,0,0,0,0,0,0,0,0,-1,1665,1492,0,0
448,-468,0,0,0,0,0,0,0,0,0,-1,1672,1492,0,0
455,-468,0,0,0,0,0,0,0,0,0,-1,1679,1492,0,0
462,-468,0,0,0,0,0,0,0,0,0,-1,1686,1492,0,0
469,-468,15.6879,1.2677,0,0,0,0,0,0,0,-1,1693,1492,15.6879,-1.26772
476,-468,14.9318,1.61865,0,0,0,0,0,0,0,-1,1700,1492,14.9318,-1.61869
483,-468,11.265,4.64795,0,0,0,0,0,0,0,-1,1707,1492,11.265,-4.64798
490,-468,12.1316,3.51624,0,0,0,0,0,0,0,-1,1714,1492,12.1316,-3.51628
497,-468,16.5355,3.14587,0,0,0,0,0,0,0,-1,1721,1492,16.5356,-3.14583
504,-468,15.0642,4.10437,0,0,0,0,0,0,0,-1,1728,1492,15.0643,-4.10431
511,-468,15.6877,9.4801,0,0,0,0,0,0,0,-1,1735,1492,15.6878,-9.48007
518,-468,13.759,11.0887,0,0,0,0,0,0,0,-1,1742,1492,13.759,-11.0887
525,-468,16.6531,14.2238,0,0,0,0,0,0,0,-1,1749,1492,16.653,-14.2237
532,-468,16.9696,15.9641,0,0,0,0,0,0,0,-1,1756,1492,16.9696,-15.9641
539,-468,21.5308,20.7551,0,0,0,0,0,0,0,-1,1763,1492,21.5308,-20.7551
546,-468,25.5796,25.0283,0,0,0,0,0,0,0,-1,1770,1492,25.5796,-25.0284
553,-468,31.125,30.4905,0,0,0,0,0,0,0,-1,1777,1492,31.125,-30.4905
560,-468,31.3071,29.7917,0.0107321,0.00266835,-0.00305421,0.0117583,0.00164214,-0.324148,0.00735287,0.0457969,1784,1492,31.3072,-29.7917
567,-468,31.3149,29.1204,0.00838092,0.00200738,-0.00235235,0.00915509,0.0012332,-0.317941,0.00573668,0.0244108,1791,1492,31.3149,-29.1203
574,-468,31.3604,28.3007,0.00645632,0.00151266,-0.00187862,0.00708919,0.000879792,-0.324938,0.00446187,0.0160696,1798,1492,31.3604,-28.3007
581,-468,31.3403,27.5575,0.00495985,0.00117568,-0.0015395,0.00550704,0.000628491,-0.341506,0.00348082,0.0164691,1805,1492,31.3404,-27.5575
588,-468,31.2574,26.8032,0.00381343,0.000859148,-0.00124362,0.00426723,0.000405349,-0.349889,0.00271979,0.0133727,1812,1492,31.2575,-26.8033
595,-468,31.2169,26.0239,0.00296479,0.000536825,-0.000927099,0.00327831,0.000223304,-0.326101,0.00211504,0.0119771,1819,1492,31.2169,-26.0239
602,-468,31.1837,25.2198,0.0022901,0.000208489,-0.000630355,0.0024661,3.24851e-05,-0.272279,0.00163335,0.010517,1826,1492,31.1837,-25.2198
609,-468,31.1158,24.4329,0.00178703,-3.27844e-05,-0.000311793,0.00183896,-8.47226e-05,-0.165063,0.00125517,0.0105382,1833,1492,31.1158,-24.4329
616,-468,31.0717,23.6604,0.00142785,-0.000211154,1.0474e-05,0.00142792,-0.000211221,0.00639011,0.0010296,0.0097472,1840,1492,31.0716,-23.6604
623,-468,31.0721,22.918,0.00125474,-0.000505422,0.000435934,0.00135679,-0.000607472,0.229954,0.00116125,0.0113103,1847,1492,31.0721,-22.918
630,-468,31.0557,22.1503,0.00112726,-0.000725852,0.000929189,0.00151292,-0.00111151,0.393408,0.00152111,0.0126462,1854,1492,31.0557,-22.1502
637,-468,31.0187,21.332,0.0010299,-0.000785427,0.00136682,0.00176298,-0.00151851,0.492297,0.00189632,0.019762,1861,1492,31.0187,-21.332
644,-468,30.9222,20.6877,0.000856668,-0.000591477,0.00173199,0.00200984,-0.00174465,0.58741,0.00216946,0.0384088,1868,1492,30.9223,-20.6878
651,-468,30.9753,19.9246,0,0,0,0,0,0,0,-1,1875,1492,30.9753,-19.9246
658,-468,16.4969,10.0774,0,0,0,0,0,0,0,-1,1882,1492,16.497,-10.0774
665,-468,15.4673,8.59546,0,0,0,0,0,0,0,-1,1889,1492,15.4672,-8.59548
672,-468,9.96814,3.61133,0,0,0,0,0,0,0,-1,1896,1492,9.96817,-3.61139
679,-468,11.2191,1.91968,0,0,0,0,0,0,0,-1,1903,1492,11.2191,-1.91965
686,-468,11.9252,1.42285,0,0,0,0,0,0,0,-1,1910,1492,11.9252,-1.42291
693,-468,0,0,0,0,0,0,0,0,0,-1,1917,1492,0,0
700,-468,0,0,0,0,0,0,0,0,0,-1,1924,1492,0,0
707,-468,0,0,0,0,0,0,0,0,0,-1,1931,1492,0,0
714,-468,0,0,0,0,0,0,0,0,0,-1,1938,1492,0,0
721,-468,0,0,0,0,0,0,0,0,0,-1,1945,1492,0,0
728,-468,0,0,0,0,0,0,0,0,0,-1,1952,1492,0,0
735,-468,0,0,0,0,0,0,0,0,0,-1,1959,1492,0,0
742,-468,0,0,0,0,0,0,0,0,0,-1,1966,1492,0,0
749,-468,0,0,0,0,0,0,0,0,0,-1,1973,1492,0,0
756,-468,0,0,0,0,0,0,0,0,0,-1,1980,1492,0,0
763,-468,0,0,0,0,0,0,0,0,0,-1,1987,1492,0,0
770,-468,0,0,0,0,0,0,0,0,0,-1,1994,1492,0,0
777,-468,0,0,0,0,0,0,0,0,0,-1,2001,1492,0,0
784,-468,0,0,0,0,0,0,0,0,0,-1,2008,1492,0,0
791,-468,0,0,0,0,0,0,0,0,0,-1,2015,1492,0,0
798,-468,0,0,0,0,0,0,0,0,0,-1,2022,1492,0,0
805,-468,0,0,0,0,0,0,0,0,0,-1,2029,1492,0,0
812,-468,0,0,0,0,0,0,0,0,0,-1,2036,1492,0,0
-700,-475,0,0,0,0,0,0,0,0,0,-1,524,1499,0,0
-693,-475,0,0,0,0,0,0,0,0,0,-1,531,1499,0,0
-686,-475,0,0,0,0,0,0,0,0,0,-1,538,1499,0,0
-679,-475,0,0,0,0,0,0,0,0,0,-1,545,1499,0,0
-672,-475,0,0,0,0,0,0,0,0,0,-1,552,1499,0,0
-665,-475,0,0,0,0,0,0,0,0,0,-1,559,1499,0,0
-658,-475,0,0,0,0,0,0,0,0,0,-1,566,1499,0,0
-651,-475,0,0,0,0,0,0,0,0,0,-1,573,1499,0,0
-644,-475,0,0,0,0,0,0,0,0,0,-1,580,1499,0,0
-637,-475,0,0,0,0,0,0,0,0,0,-1,587,1499,0,0
-630,-475,0,0,0,0,0,0,0,0,0,-1,594,1499,0,0
-623,-475,0,0,0,0,0,0,0,0,0,-1,601,1499,0,0
-616,-475,0,0,0,0,0,0,0,0,0,-1,608,1499,0,0
-609,-475,0,0,0,0,0,0,0,0,0,-1,615,1499,0,0
-602,-475,0,0,0,0,0,0,0,0,0,-1,622,1499,0,0
-595,-475,0,0,0,0,0,0,0,0,0,-1,629,1499,0,0
-588,-475,0,0,0,0,0,0,0,0,0,-1,636,1499,0,0
-581,-475,0,0,0,0,0,0,0,0,0,-1,643,1499,0,0
-574,-475,0,0,0,0,0,0,0,0,0,-1,650,1499,0,0
-567,-475,0,0,0,0,0,0,0,0,0,-1,657,1499,0,0
-560,-475,-9.42731,9.29517,0,0,0,0,0,0,0,-1,664,1499,-9.42731,-9.29519
-553,-475,-8.15131,8.78369,0,0,0,0,0,0,0,-1,671,1499,-8.15131,-8.78367
-546,-475,-8.41254,8.20654,0,0,0,0,0,0,0,-1,678,1499,-8.41251,-8.20655
-539,-475,-4.7345,4.17419,0,0,0,0,0,0,0,-1,685,1499,-4.73449,-4.17418
-532,-475,-7.07379,4.25024,0,0,0,0,0,0,0,-1,692,1499,-7.07378,-4.2503
-525,-475,-6.13147,5.82166,0,0,0,0,0,0,0,-1,699,1499,-6.1315,-5.8216
-518,-475,-7.28784,9.31506,0,0,0,0,0,0,0,-1,706,1499,-7.28782,-9.315
-511,-475,-6.84851,12.4244,0,0,0,0,0,0,0,-1,713,1499,-6.84851,-12.4244
-504,-475,-8.80957,16.0863,0,0,0,0,0,0,0,-1,720,1499,-8.80954,-16.0862
-497,-475,-12.992,21.6464,0,0,0,0,0,0,0,-1,727,1499,-12.992,-21.6464
-490,-475,-12.946,22.6271,0.00424095,0.00370922,0.00512152,0.0091035,-0.00115333,0.759466,0.0064877,0.0200607,734,1499,-12.946,-22.627
-483,-475,-12.9552,23.501,0.00311604,0.00224279,0.00361281,0.00631851,-0.000959682,0.725262,0.00456598,0.00945184,741,1499,-12.9552,-23.5009
-476,-475,-13.0122,24.2767,0.00237328,0.00136225,0.00256019,0.00447738,-0.000741852,0.687926,0.00326046,0.0119525,748,1499,-13.0122,-24.2767
-469,-475,-13.069,25.0798,0.00190784,0.001023,0.00191295,0.00342886,-0.000498026,0.671758,0.00246872,0.0157687,755,1499,-13.069,-25.0798
-462,-475,-13.0692,25.8785,0.00168566,0.00111762,0.0015855,0.00301237,-0.000209098,0.696771,0.00208145,0.021218,762,1499,-13.0692,-25.8786
-455,-475,-13.131,26.7075,0.00173,0.00157974,0.00156156,0.00321823,9.15041e-05,0.76136,0.00211565,0.017577,769,1499,-13.131,-26.7075
-448,-475,-13.1988,27.4873,0.00212097,0.00261752,0.00199077,0.00437544,0.000363056,0.847435,0.00280379,0.014287,776,1499,-13.1988,-27.4873
-441,-475,-13.233,28.2485,0.00274913,0.00396599,0.0027107,0.00613571,0.000579416,0.895796,0.00391167,0.0157387,783,1499,-13.233,-28.2486
-434,-475,-13.2446,29.0583,0.00368651,0.00566676,0.0037892,0.00859306,0.000760209,0.913191,0.00549287,0.0125233,790,1499,-13.2446,-29.0583
-427,-475,-13.1901,30.0105,0.00504875,0.00801398,0.00537456,0.0121067,0.000956056,0.91998,0.00777205,0.0460536,797,1499,-13.1901,-30.0105
-420,-475,-13.0695,30.9207,0,0,0,0,0,0,0,-1,804,1499,-13.0695,-30.9207
-413,-475,-6.46777,20.8481,0,0,0,0,0,0,0,-1,811,1499,-6.46776,-20.8481
-406,-475,-2.56116,12.4956,0,0,0,0,0,0,0,-1,818,1499,-2.56116,-12.4956
-399,-475,-1.39667,6.1615,0,0,0,0,0,0,0,-1,825,1499,-1.39664,-6.16155
-392,-475,0.217163,8.61389,0,0,0,0,0,0,0,-1,832,1499,0.217167,-8.6139
-385,-475,1.18372,2.73999,0,0,0,0,0,0,0,-1,839,1499,1.18372,-2.73995
-378,-475,1.31409,2.90149,0,0,0,0,0,0,0,-1,846,1499,1.31411,-2.90151
-371,-475,2.3476,3.31116,0,0,0,0,0,0,0,-1,853,1499,2.34761,-3.31121
-364,-475,1.04462,9.05823,0,0,0,0,0,0,0,-1,860,1499,1.04461,-9.05825
-357,-475,-0.262756,7.97205,0,0,0,0,0,0,0,-1,867,1499,-0.262784,-7.97205
-350,-475,-5.16473,-1.27881,0,0,0,0,0,0,0,-1,874,1499,-5.16474,1.27884
-343,-475,-5.76923,-0.530518,0,0,0,0,0,0,0,-1,881,1499,-5.76923,0.530526
-336,-475,0,0,0,0,0,0,0,0,0,-1,888,1499,0,0
-329,-475,0,0,0,0,0,0,0,0,0,-1,895,1499,0,0
-322,-475,0,0,0,0,0,0,0,0,0,-1,902,1499,0,0
-315,-475,0,0,0,0,0,0,0,0,0,-1,909,1499,0,0
-308,-475,0,0,0,0,0,0,0,0,0,-1,916,1499,0,0
-301,-475,0,0,0,0,0,0,0,0,0,-1,923,1499,0,0
-294,-475,0,0,0,0,0,0,0,0,0,-1,930,1499,0,0
-287,-475,0,0,0,0,0,0,0,0,0,-1,937,1499,0,0
-280,-475,0,0,0,0,0,0,0,0,0,-1,944,1499,0,0
-273,-475,0,0,0,0,0,0,0,0,0,-1,951,1499,0,0
-266,-475,0,0,0,0,0,0,0,0,0,-1,958,1499,0,0
-259,-475,0,0,0,0,0,0,0,0,0,-1,965,1499,0,0
-252,-475,0,0,0,0,0,0,0,0,0,-1,972,1499,0,0
-245,-475,0,0,0,0,0,0,0,0,0,-1,979,1499,0,0
-238,-475,0,0,0,0,0,0,0,0,0,-1,986,1499,0,0
-231,-475,0,0,0,0,0,0,0,0,0,-1,993,1499,0,0
-224,-475,0,0,0,0,0,0,0,0,0,-1,1000,1499,0,0
-217,-475,0,0,0,0,0,0,0,0,0,-1,1007,1499,0,0
-210,-475,0,0,0,0,0,0,0,0,0,-1,1014,1499,0,0
-203,-475,0,0,0,0,0,0,0,0,0,-1,1021,1499,0,0
-196,-475,0,0,0,0,0,0,0,0,0,-1,1028,1499,0,0
-189,-475,0,0,0,0,0,0,0,0,0,-1,1035,1499,0,0
-182,-475,0,0,0,0,0,0,0,0,0,-1,1042,1499,0,0
-175,-475,0,0,0,0,0,0,0,0,0,-1,1049,1499,0,0
-168,-475,0,0,0,0,0,0,0,0,0,-1,1056,1499,0,0
-161,-475,0,0,0,0,0,0,0,0,0,-1,1063,1499,0,0
-154,-475,0,0,0,0,0,0,0,0,0,-1,1070,1499,0,0
-147,-475,0,0,0,0,0,0,0,0,0,-1,1077,1499,0,0
-140,-475,0,0,0,0,0,0,0,0,0,-1,1084,1499,0,0
-133,-475,0,0,0,0,0,0,0,0,0,-1,1091,1499,0,0
-126,-475,0,0,0,0,0,0,0,0,0,-1,1098,1499,0,0
-119,-475,0,0,0,0,0,0,0,0,0,-1,1105,1499,0,0
-112,-475,0,0,0,0,0,0,0,0,0,-1,1112,1499,0,0
-105,-475,0,0,0,0,0,0,0,0,0,-1,1119,1499,0,0
-98,-475,0,0,0,0,0,0,0,0,0,-1,1126,1499,0,0
-91,-475,0,0,0,0,0,0,0,0,0,-1,1133,1499,0,0
-84,-475,0,0,0,0,0,0,0,0,0,-1,1140,1499,0,0
-77,-475,0,0,0,0,0,0,0,0,0,-1,1147,1499,0,0
-70,-475,0,0,0,0,0,0,0,0,0,-1,1154,1499,0,0
-63,-475,0,0,0,0,0,0,0,0,0,-1,1161,1499,0,0
-56,-475,0,0,0,0,0,0,0,0,0,-1,1168,1499,0,0
-49,-475,0,0,0,0,0,0,0,0,0,-1,1175,1499,0,0
-42,-475,0,0,0,0,0,0,0,0,0,-1,1182,1499,0,0
-35,-475,0,0,0,0,0,0,0,0,0,-1,1189,1499,0,0
-28,-475,0,0,0,0,0,0,0,0,0,-1,1196,1499,0,0
-21,-475,0,0,0,0,0,0,0,0,0,-1,1203,1499,0,0
-14,-475,0,0,0,0,0,0,0,0,0,-1,1210,1499,0,0
-7,-475,0,0,0,0,0,0,0,0,0,-1,1217,1499,0,0
0,-475,0,0,0,0,0,0,0,0,0,-1,1224,1499,0,0
7,-475,0,0,0,0,0,0,0,0,0,-1,1231,1499,0,0
14,-475,0,0,0,0,0,0,0,0,0,-1,1238,1499,0,0
21,-475,0,0,0,0,0,0,0,0,0,-1,1245,1499,0,0
28,-475,0,0,0,0,0,0,0,0,0,-1,1252,1499,0,0
35,-475,0,0,0,0,0,0,0,0,0,-1,1259,1499,0,0
42,-475,0,0,0,0,0,0,0,0,0,-1,1266,1499,0,0
49,-475,0,0,0,0,0,0,0,0,0,-1,1273,1499,0,0
56,-475,0,0,0,0,0,0,0,0,0,-1,1280,1499,0,0
63,-475,0,0,0,0,0,0,0,0,0,-1,1287,1499,0,0
70,-475,0,0,0,0,0,0,0,0,0,-1,1294,1499,0,0
77,-475,0,0,0,0,0,0,0,0,0,-1,1301,1499,0,0
84,-475,0,0,0,0,0,0,0,0,0,-1,1308,1499,0,0
91,-475,0,0,0,0,0,0,0,0,0,-1,1315,1499,0,0
98,-475,0,0,0,0,0,0,0,0,0,-1,1322,1499,0,0
105,-475,0,0,0,0,0,0,0,0,0,-1,1329,1499,0,0
112,-475,0,0,0,0,0,0,0,0,0,-1,1336,1499,0,0
119,-475,0,0,0,0,0,0,0,0,0,-1,1343,1499,0,0
126,-475,0,0,0,0,0,0,0,0,0,-1,1350,1499,0,0
133,-475,0,0,0,0,0,0,0,0,0,-1,1357,1499,0,0
140,-475,0,0,0,0,0,0,0,0,0,-1,1364,1499,0,0
147,-475,0,0,0,0,0,0,0,0,0,-1,1371,1499,0,0
154,-475,0,0,0,0,0,0,0,0,0,-1,1378,1499,0,0
161,-475,0,0,0,0,0,0,0,0,0,-1,1385,1499,0,0
168,-475,0,0,0,0,0,0,0,0,0,-1,1392,1499,0,0
175,-475,0,0,0,0,0,0,0,0,0,-1,1399,1499,0,0
182,-475,0,0,0,0,0,0,0,0,0,-1,1406,1499,0,0
189,-475,0,0,0,0,0,0,0,0,0,-1,1413,1499,0,0
196,-475,0,0,0,0,0,0,0,0,0,-1,1420,1499,0,0
203,-475,0,0,0,0,0,0,0,0,0,-1,1427,1499,0,0
210,-475,0,0,0,0,0,0,0,0,0,-1,1434,1499,0,0
217,-475,0,0,0,0,0,0,0,0,0,-1,1441,1499,0,0
224,-475,0,0,0,0,0,0,0,0,0,-1,1448,1499,0,0
231,-475,0,0,0,0,0,0,0,0,0,-1,1455,1499,0,0
238,-475,0,0,0,0,0,0,0,0,0,-1,1462,1499,0,0
245,-475,0,0,0,0,0,0,0,0,0,-1,1469,1499,0,0
252,-475,0,0,0,0,0,0,0,0,0,-1,1476,1499,0,0
259,-475,0,0,0,0,0,0,0,0,0,-1,1483,1499,0,0
266,-475,0,0,0,0,0,0,0,0,0,-1,1490,1499,0,0
273,-475,0,0,0,0,0,0,0,0,0,-1,1497,1499,0,0
280,-475,0,0,0,0,0,0,0,0,0,-1,1504,1499,0,0
287,-475,0,0,0,0,0,0,0,0,0,-1,1511,1499,0,0
294,-475,0,0,0,0,0,0,0,0,0,-1,1518,1499,0,0
301,-475,0,0,0,0,0,0,0,0,0,-1,1525,1499,0,0
308,-475,0,0,0,0,0,0,0,0,0,-1,1532,1499,0,0
315,-475,0,0,0,0,0,0,0,0,0,-1,1539,1499,0,0
322,-475,0,0,0,0,0,0,0,0,0,-1,1546,1499,0,0
329,-475,0,0,0,0,0,0,0,0,0,-1,1553,1499,0,0
336,-475,0,0,0,0,0,0,0,0,0,-1,1560,1499,0,0
343,-475,0,0,0,0,0,0,0,0,0,-1,1567,1499,0,0
350,-475,0,0,0,0,0,0,0,0,0,-1,1574,1499,0,0
357,-475,0,0,0,0,0,0,0,0,0,-1,1581,1499,0,0
364,-475,0,0,0,0,0,0,0,0,0,-1,1588,1499,0,0
371,-475,0,0,0,0,0,0,0,0,0,-1,1595,1499,0,0
378,-475,0,0,0,0,0,0,0,0,0,-1,1602,1499,0,0
385,-475,0,0,0,0,0,0,0,0,0,-1,1609,1499,0,0
392,-475,0,0,0,0,0,0,0,0,0,-1,1616,1499,0,0
399,-475,0,0,0,0,0,0,0,0,0,-1,1623,1499,0,0
406,-475,0,0,0,0,0,0,0,0,0,-1,1630,1499,0,0
413,-475,0,0,0,0,0,0,0,0,0,-1,1637,1499,0,0
420,-475,0,0,0,0,0,0,0,0,0,-1,1644,1499,0,0
427,-475,0,0,0,0,0,0,0,0,0,-1,1651,1499,0,0
434,-475,0,0,0,0,0,0,0,0,0,-1,1658,1499,0,0
441,-475,0,0,0,0,0,0,0,0,0,-1,1665,1499,0,0
448,-475,0,0,0,0,0,0,0,0,0,-1,1672,1499,0,0
455,-475,0,0,0,0,0,0,0,0,0,-1,1679,1499,0,0
462,-475,12.6372,0.275391,0,0,0,0,0,0,0,-1,1686,1499,12.6372,-0.27536
469,-475,15.6437,2.28296,0,0,0,0,0,0,0,-1,1693,1499,15.6437,-2.28293
476,-475,15.3302,2.71436,0,0,0,0,0,0,0,-1,1700,1499,15.3303,-2.7143
483,-475,10.7461,5.91479,0,0,0,0,0,0,0,-1,1707,1499,10.7461,-5.91476
490,-475,11.9305,4.4364,0,0,0,0,0,0,0,-1,1714,1499,11.9305,-4.43644
497,-475,15.3451,4.3479,0,0,0,0,0,0,0,-1,1721,1499,15.3451,-4.34789
504,-475,16.9646,7.71265,0,0,0,0,0,0,0,-1,1728,1499,16.9646,-7.71265
511,-475,18.941,12.7572,0,0,0,0,0,0,0,-1,1735,1499,18.941,-12.7572
518,-475,17.0021,13.8564,0,0,0,0,0,0,0,-1,1742,1499,17.0021,-13.8564
525,-475,17.5637,15.2103,0,0,0,0,0,0,0,-1,1749,1499,17.5637,-15.2103
532,-475,20.8623,20.8413,0,0,0,0,0,0,0,-1,1756,1499,20.8623,-20.8413
539,-475,20.5494,20.8519,0,0,0,0,0,0,0,-1,1763,1499,20.5494,-20.852
546,-475,20.4524,19.8799,0,0,0,0,0,0,0,-1,1770,1499,20.4524,-19.8798
553,-475,30.2745,30.8667,0,0,0,0,0,0,0,-1,1777,1499,30.2745,-30.8667
560,-475,30.415,30.0255,0.00915855,0.00283115,-0.00302042,0.0103689,0.00162085,-0.381117,0.00644063,0.0336707,1784,1499,30.4151,-30.0255
567,-475,30.6071,29.1122,0.00720866,0.00202028,-0.00226058,0.00805541,0.00117353,-0.358395,0.00502498,0.0161626,1791,1499,30.607,-29.1122
574,-475,30.5548,28.3325,0.00562281,0.00144241,-0.00175125,0.00625948,0.000805742,-0.348697,0.00393202,0.0151959,1798,1499,30.5548,-28.3326
581,-475,30.5255,27.6041,0.00433782,0.00103103,-0.00137524,0.004835,0.000533848,-0.346907,0.00306094,0.0119705,1805,1499,30.5256,-27.6041
588,-475,30.474,26.8337,0.00335075,0.000681565,-0.00108104,0.00373366,0.000298663,-0.340409,0.00239576,0.0103472,1812,1499,30.474,-26.8337
595,-475,30.4288,26.0447,0.00264338,0.000356147,-0.000774708,0.00288108,0.000118449,-0.297705,0.00188248,0.0120126,1819,1499,30.4289,-26.0447
602,-475,30.4021,25.2676,0.00207332,6.03128e-05,-0.00051835,0.00219896,-6.53212e-05,-0.237788,0.00148822,0.0135408,1826,1499,30.4021,-25.2676
609,-475,30.353,24.5026,0.00164491,-0.00015501,-0.00022494,0.0016726,-0.000182695,-0.122463,0.00118068,0.012651,1833,1499,30.353,-24.5026
616,-475,30.3055,23.7439,0.00138012,-0.00039321,0.00013397,0.00139019,-0.000403274,0.0749801,0.00108646,0.0116015,1840,1499,30.3055,-23.7439
623,-475,30.2991,22.9386,0.00125473,-0.00075632,0.000630506,0.00143606,-0.000937647,0.280032,0.00138049,0.0116397,1847,1499,30.2991,-22.9386
630,-475,30.2792,22.1611,0.00108544,-0.00105307,0.0012681,0.00167492,-0.00164255,0.435133,0.00191537,0.0167343,1854,1499,30.2792,-22.1612
637,-475,30.1891,21.4456,0.000896684,-0.00125447,0.00192088,0.00202262,-0.00238041,0.530177,0.00254488,0.0306993,1861,1499,30.1891,-21.4456
644,-475,30.0465,20.6447,0,0,0,0,0,0,0,-1,1868,1499,30.0465,-20.6447
651,-475,29.886,19.2421,0,0,0,0,0,0,0,-1,1875,1499,29.886,-19.242
658,-475,14.6708,8.80322,0,0,0,0,0,0,0,-1,1882,1499,14.6708,-8.8032
665,-475,9.33435,5.43335,0,0,0,0,0,0,0,-1,1889,1499,9.33439,-5.43332
672,-475,9.38635,1.10474,0,0,0,0,0,0,0,-1,1896,1499,9.38629,-1.10475
679,-475,12.2594,1.31079,0,0,0,0,0,0,0,-1,1903,1499,12.2594,-1.31077
686,-475,0,0,0,0,0,0,0,0,0,-1,1910,1499,0,0
693,-475,0,0,0,0,0,0,0,0,0,-1,1917,1499,0,0
700,-475,0,0,0,0,0,0,0,0,0,-1,1924,1499,0,0
707,-475,0,0,0,0,0,0,0,0,0,-1,1931,1499,0,0
714,-475,0,0,0,0,0,0,0,0,0,-1,1938,1499,0,0
721,-475,0,0,0,0,0,0,0,0,0,-1,1945,1499,0,0
728,-475,0,0,0,0,0,0,0,0,0,-1,1952,1499,0,0
735,-475,0,0,0,0,0,0,0,0,0,-1,1959,1499,0,0
742,-475,0,0,0,0,0,0,0,0,0,-1,1966,1499,0,0
749,-475,0,0,0,0,0,0,0,0,0,-1,1973,1499,0,0
756,-475,0,0,0,0,0,0,0,0,0,-1,1980,1499,0,0
763,-475,0,0,0,0,0,0,0,0,0,-1,1987,1499,0,0
770,-475,0,0,0,0,0,0,0,0,0,-1,1994,1499,0,0
777,-475,0,0,0,0,0,0,0,0,0,-1,2001,1499,0,0
784,-475,0,0,0,0,0,0,0,0,0,-1,2008,1499,0,0
791,-475,0,0,0,0,0,0,0,0,0,-1,2015,1499,0,0
798,-475,0,0,0,0,0,0,0,0,0,-1,2022,1499,0,0
805,-475,0,0,0,0,0,0,0,0,0,-1,2029,1499,0,0
812,-475,0,0,0,0,0,0,0,0,0,-1,2036,1499,0,0
-700,-482,0,0,0,0,0,0,0,0,0,-1,524,1506,0,0
-693,-482,0,0,0,0,0,0,0,0,0,-1,531,1506,0,0
-686,-482,0,0,0,0,0,0,0,0,0,-1,538,1506,0,0
-679,-482,0,0,0,0,0,0,0,0,0,-1,545,1506,0,0
-672,-482,0,0,0,0,0,0,0,0,0,-1,552,1506,0,0
-665,-482,0,0,0,0,0,0,0,0,0,-1,559,1506,0,0
-658,-482,0,0,0,0,0,0,0,0,0,-1,566,1506,0,0
-651,-482,0,0,0,0,0,0,0,0,0,-1,573,1506,0,0
-644,-482,0,0,0,0,0,0,0,0,0,-1,580,1506,0,0
-637,-482,0,0,0,0,0,0,0,0,0,-1,587,1506,0,0
-630,-482,0,0,0,0,0,0,0,0,0,-1,594,1506,0,0
-623,-482,0,0,0,0,0,0,0,0,0,-1,601,1506,0,0
-616,-482,0,0,0,0,0,0,0,0,0,-1,608,1506,0,0
-609,-482,0,0,0,0,0,0,0,0,0,-1,615,1506,0,0
-602,-482,0,0,0,0,0,0,0,0,0,-1,622,1506,0,0
-595,-482,0,0,0,0,0,0,0,0,0,-1,629,1506,0,0
-588,-482,0,0,0,0,0,0,0,0,0,-1,636,1506,0,0
-581,-482,0,0,0,0,0,0,0,0,0,-1,643,1506,0,0
-574,-482,0,0,0,0,0,0,0,0,0,-1,650,1506,0,0
-567,-482,0,0,0,0,0,0,0,0,0,-1,657,1506,0,0
-560,-482,0,0,0,0,0,0,0,0,0,-1,664,1506,0,0
-553,-482,-9.06055,9.34314,0,0,0,0,0,0,0,-1,671,1506,-9.06056,-9.34312
-546,-482,-4.08624,8.34241,0,0,0,0,0,0,0,-1,678,1506,-4.08624,-8.3424
-539,-482,-4.29877,2.73499,0,0,0,0,0,0,0,-1,685,1506,-4.29879,-2.73494
-532,-482,-3.63611,4.23987,0,0,0,0,0,0,0,-1,692,1506,-3.63609,-4.23983
-525,-482,-6.19116,5.24927,0,0,0,0,0,0,0,-1,699,1506,-6.19117,-5.24927
-518,-482,-5.92957,6.39807,0,0,0,0,0,0,0,-1,706,1506,-5.92958,-6.39806
-511,-482,-7.74634,11.9137,0,0,0,0,0,0,0,-1,713,1506,-7.74633,-11.9137
-504,-482,-6.42358,13.4211,0,0,0,0,0,0,0,-1,720,1506,-6.42356,-13.4212
-497,-482,-8.86163,17.7108,0,0,0,0,0,0,0,-1,727,1506,-8.86163,-17.7109
-490,-482,-12.1872,22.5913,0,0,0,0,0,0,0,-1,734,1506,-12.1872,-22.5914
-483,-482,-12.1643,23.5212,0.00358441,0.00187223,0.00425791,0.00707144,-0.0016148,0.686192,0.00533466,0.0127422,741,1506,-12.1643,-23.5213
-476,-482,-12.1987,24.3375,0.00268899,0.000917789,0.00297251,0.00490502,-0.00129824,0.64062,0.00377786,0.0107372,748,1506,-12.1987,-24.3375
-469,-482,-12.2648,25.1591,0.00210944,0.000561034,0.00218916,0.00365727,-0.000986792,0.615435,0.00282515,0.0138054,755,1506,-12.2648,-25.1591
-462,-482,-12.3055,25.9401,0.00177238,0.000673437,0.00173356,0.00304147,-0.000595654,0.631927,0.0022526,0.0145572,762,1506,-12.3055,-25.94
-455,-482,-12.3328,26.6991,0.00170652,0.00114257,0.00158242,0.00303189,-0.000182798,0.697228,0.00208487,0.0135262,769,1506,-12.3328,-26.6991
-448,-482,-12.3816,27.5112,0.00197554,0.00212123,0.00185145,0.00390127,0.00019551,0.805061,0.00253819,0.0137744,776,1506,-12.3816,-27.5113
-441,-482,-12.432,28.3059,0.00247619,0.00335158,0.00239431,0.00534787,0.000479894,0.875803,0.00341653,0.0126622,783,1506,-12.432,-28.3059
-434,-482,-12.4735,29.116,0.00325875,0.00488357,0.00325584,0.00742682,0.000715492,0.907664,0.00473079,0.0154858,790,1506,-12.4735,-29.116
-427,-482,-12.5105,29.9508,0.00438066,0.00683037,0.00447765,0.0102477,0.000963358,0.918906,0.00653438,0.0218389,797,1506,-12.5105,-29.9508
-420,-482,-12.6098,30.8069,0,0,0,0,0,0,0,-1,804,1506,-12.6098,-30.8069
-413,-482,-6.56415,22.3163,0,0,0,0,0,0,0,-1,811,1506,-6.56417,-22.3163
-406,-482,-2.51373,12.7556,0,0,0,0,0,0,0,-1,818,1506,-2.51376,-12.7556
-399,-482,-1.3822,9.22595,0,0,0,0,0,0,0,-1,825,1506,-1.38221,-9.22598
-392,-482,-1.06836,9.22729,0,0,0,0,0,0,0,-1,832,1506,-1.06835,-9.2273
-385,-482,0.0647583,8.90649,0,0,0,0,0,0,0,-1,839,1506,0.0647778,-8.90644
-378,-482,0.215698,5.96948,0,0,0,0,0,0,0,-1,846,1506,0.215681,-5.9695
-371,-482,-0.10907,8.10437,0,0,0,0,0,0,0,-1,853,1506,-0.109063,-8.10433
-364,-482,-0.154968,10.5032,0,0,0,0,0,0,0,-1,860,1506,-0.154976,-10.5032
-357,-482,2.14807,4.60144,0,0,0,0,0,0,0,-1,867,1506,2.14807,-4.60144
-350,-482,-7.5813,-1.45935,0,0,0,0,0,0,0,-1,874,1506,-7.58133,1.45937
-343,-482,-5.80902,1.81226,0,0,0,0,0,0,0,-1,881,1506,-5.80903,-1.81221
-336,-482,2.52826,-0.390503,0,0,0,0,0,0,0,-1,888,1506,2.52826,0.390456
-329,-482,0,0,0,0,0,0,0,0,0,-1,895,1506,0,0
-322,-482,0,0,0,0,0,0,0,0,0,-1,902,1506,0,0
-315,-482,0,0,0,0,0,0,0,0,0,-1,909,1506,0,0
-308,-482,0,0,0,0,0,0,0,0,0,-1,916,1506,0,0
-301,-482,0,0,0,0,0,0,0,0,0,-1,923,1506,0,0
-294,-482,0,0,0,0,0,0,0,0,0,-1,930,1506,0,0
-287,-482,0,0,0,0,0,0,0,0,0,-1,937,1506,0,0
-280,-482,0,0,0,0,0,0,0,0,0,-1,944,1506,0,0
-273,-482,0,0,0,0,0,0,0,0,0,-1,951,1506,0,0
-266,-482,0,0,0,0,0,0,0,0,0,-1,958,1506,0,0
-259,-482,0,0,0,0,0,0,0,0,0,-1,965,1506,0,0
-252,-482,0,0,0,0,0,0,0,0,0,-1,972,1506,0,0
-245,-482,0,0,0,0,0,0,0,0,0,-1,979,1506,0,0
-238,-482,0,0,0,0,0,0,0,0,0,-1,986,1506,0,0
-231,-482,0,0,0,0,0,0,0,0,0,-1,993,1506,0,0
-224,-482,0,0,0,0,0,0,0,0,0,-1,1000,1506,0,0
-217,-482,0,0,0,0,0,0,0,0,0,-1,1007,1506,0,0
-210,-482,0,0,0,0,0,0,0,0,0,-1,1014,1506,0,0
-203,-482,0,0,0,0,0,0,0,0,0,-1,1021,1506,0,0
-196,-482,0,0,0,0,0,0,0,0,0,-1,1028,1506,0,0
-189,-482,0,0,0,0,0,0,0,0,0,-1,1035,1506,0,0
-182,-482,0,0,0,0,0,0,0,0,0,-1,1042,1506,0,0
-175,-482,0,0,0,0,0,0,0,0,0,-1,1049,1506,0,0
-168,-482,0,0,0,0,0,0,0,0,0,-1,1056,1506,0,0
-161,-482,0,0,0,0,0,0,0,0,0,-1,1063,1506,0,0
-154,-482,0,0,0,0,0,0,0,0,0,-1,1070,1506,0,0
-147,-482,0,0,0,0,0,0,0,0,0,-1,1077,1506,0,0
-140,-482,0,0,0,0,0,0,0,0,0,-1,1084,1506,0,0
-133,-482,0,0,0,0,0,0,0,0,0,-1,1091,1506,0,0
-126,-482,0,0,0,0,0,0,0,0,0,-1,1098,1506,0,0
-119,-482,0,0,0,0,0,0,0,0,0,-1,1105,1506,0,0
-112,-482,0,0,0,0,0,0,0,0,0,-1,1112,1506,0,0
-105,-482,0,0,0,0,0,0,0,0,0,-1,1119,1506,0,0
-98,-482,0,0,0,0,0,0,0,0,0,-1,1126,1506,0,0
-91,-482,0,0,0,0,0,0,0,0,0,-1,1133,1506,0,0
-84,-482,0,0,0,0,0,0,0,0,0,-1,1140,1506,0,0
-77,-482,0,0,0,0,0,0,0,0,0,-1,1147,1506,0,0
-70,-482,0,0,0,0,0,0,0,0,0,-1,1154,1506,0,0
-63,-482,0,0,0,0,0,0,0,0,0,-1,1161,1506,0,0
-56,-482,0,0,0,0,0,0,0,0,0,-1,1168,1506,0,0
-49,-482,0,0,0,0,0,0,0,0,0,-1,1175,1506,0,0
-42,-482,0,0,0,0,0,0,0,0,0,-1,1182,1506,0,0
-35,-482,0,0,0,0,0,0,0,0,0,-1,1189,1506,0,0
-28,-482,0,0,0,0,0,0,0,0,0,-1,1196,1506,0,0
-21,-482,0,0,0,0,0,0,0,0,0,-1,1203,1506,0,0
-14,-482,0,0,0,0,0,0,0,0,0,-1,1210,1506,0,0
-7,-482,0,0,0,0,0,0,0,0,0,-1,1217,1506,0,0
0,-482,0,0,0,0,0,0,0,0,0,-1,1224,1506,0,0
7,-482,0,0,0,0,0,0,0,0,0,-1,1231,1506,0,0
14,-482,0,0,0,0,0,0,0,0,0,-1,1238,1506,0,0
21,-482,0,0,0,0,0,0,0,0,0,-1,1245,1506,0,0
28,-482,0,0,0,0,0,0,0,0,0,-1,1252,1506,0,0
35,-482,0,0,0,0,0,0,0,0,0,-1,1259,1506,0,0
42,-482,0,0,0,0,0,0,0,0,0,-1,1266,1506,0,0
49,-482,0,0,0,0,0,0,0,0,0,-1,1273,1506,0,0
56,-482,0,0,0,0,0,0,0,0,0,-1,1280,1506,0,0
63,-482,0,0,0,0,0,0,0,0,0,-1,1287,1506,0,0
70,-482,0,0,0,0,0,0,0,0,0,-1,1294,1506,0,0
77,-482,0,0,0,0,0,0,0,0,0,-1,1301,1506,0,0
84,-482,0,0,0,0,0,0,0,0,0,-1,1308,1506,0,0
91,-482,0,0,0,0,0,0,0,0,0,-1,1315,1506,0,0
98,-482,0,0,0,0,0,0,0,0,0,-1,1322,1506,0,0
105,-482,0,0,0,0,0,0,0,0,0,-1,1329,1506,0,0
112,-482,0,0,0,0,0,0,0,0,0,-1,1336,1506,0,0
119,-482,0,0,0,0,0,0,0,0,0,-1,1343,1506,0,0
126,-482,0,0,0,0,0,0,0,0,0,-1,1350,1506,0,0
133,-482,0,0,0,0,0,0,0,0,0,-1,1357,1506,0,0
140,-482,0,0,0,0,0,0,0,0,0,-1,1364,1506,0,0
147,-482,0,0,0,0,0,0,0,0,0,-1,1371,1506,0,0
154,-482,0,0,0,0,0,0,0,0,0,-1,1378,1506,0,0
161,-482,0,0,0,0,0,0,0,0,0,-1,1385,1506,0,0
168,-482,0,0,0,0,0,0,0,0,0,-1,1392,1506,0,0
175,-482,0,0,0,0,0,0,0,0,0,-1,1399,1506,0,0
182,-482,0,0,0,0,0,0,0,0,0,-1,1406,1506,0,0
189,-482,0,0,0,0,0,0,0,0,0,-1,1413,1506,0,0
196,-482,0,0,0,0,0,0,0,0,0,-1,1420,1506,0,0
203,-482,0,0,0,0,0,0,0,0,0,-1,1427,1506,0,0
210,-482,0,0,0,0,0,0,0,0,0,-1,1434,1506,0,0
217,-482,0,0,0,0,0,0,0,0,0,-1,1441,1506,0,0
224,-482,0,0,0,0,0,0,0,0,0,-1,1448,1506,0,0
231,-482,0,0,0,0,0,0,0,0,0,-1,1455,1506,0,0
238,-482,0,0,0,0,0,0,0,0,0,-1,1462,1506,0,0
245,-482,0,0,0,0,0,0,0,0,0,-1,1469,1506,0,0
252,-482,0,0,0,0,0,0,0,0,0,-1,1476,1506,0,0
259,-482,0,0,0,0,0,0,0,0,0,-1,1483,1506,0,0
266,-482,0,0,0,0,0,0,0,0,0,-1,1490,1506,0,0
273,-482,0,0,0,0,0,0,0,0,0,-1,1497,1506,0,0
280,-482,0,0,0,0,0,0,0,0,0,-1,1504,1506,0,0
287,-482,0,0,0,0,0,0,0,0,0,-1,1511,1506,0,0
294,-482,0,0,0,0,0,0,0,0,0,-1,1518,1506,0,0
301,-482,0,0,0,0,0,0,0,0,0,-1,1525,1506,0,0
308,-482,0,0,0,0,0,0,0,0,0,-1,1532,1506,0,0
315,-482,0,0,0,0,0,0,0,0,0,-1,1539,1506,0,0
322,-482,0,0,0,0,0,0,0,0,0,-1,1546,1506,0,0
329,-482,0,0,0,0,0,0,0,0,0,-1,1553,1506,0,0
336,-482,0,0,0,0,0,0,0,0,0,-1,1560,1506,0,0
343,-482,0,0,0,0,0,0,0,0,0,-1,1567,1506,0,0
350,-482,0,0,0,0,0,0,0,0,0,-1,1574,1506,0,0
357,-482,0,0,0,0,0,0,0,0,0,-1,1581,1506,0,0
364,-482,0,0,0,0,0,0,0,0,0,-1,1588,1506,0,0
371,-482,0,0,0,0,0,0,0,0,0,-1,1595,1506,0,0
378,-482,0,0,0,0,0,0,0,0,0,-1,1602,1506,0,0
385,-482,0,0,0,0,0,0,0,0,0,-1,1609,1506,0,0
392,-482,0,0,0,0,0,0,0,0,0,-1,1616,1506,0,0
399,-482,0,0,0,0,0,0,0,0,0,-1,1623,1506,0,0
406,-482,0,0,0,0,0,0,0,0,0,-1,1630,1506,0,0
413,-482,0,0,0,0,0,0,0,0,0,-1,1637,1506,0,0
420,-482,0,0,0,0,0,0,0,0,0,-1,1644,1506,0,0
427,-482,0,0,0,0,0,0,0,0,0,-1,1651,1506,0,0
434,-482,0,0,0,0,0,0,0,0,0,-1,1658,1506,0,0
441,-482,0,0,0,0,0,0,0,0,0,-1,1665,1506,0,0
448,-482,4.24146,1.55383,0,0,0,0,0,0,0,-1,1672,1506,4.24149,-1.55381
455,-482,12.4122,1.09729,0,0,0,0,0,0,0,-1,1679,1506,12.4122,-1.09734
462,-482,15.0673,3.13135,0,0,0,0,0,0,0,-1,1686,1506,15.0672,-3.13134
469,-482,15.3793,3.46301,0,0,0,0,0,0,0,-1,1693,1506,15.3793,-3.46307
476,-482,8.69751,9.18738,0,0,0,0,0,0,0,-1,1700,1506,8.69753,-9.18739
483,-482,10.0902,7.17432,0,0,0,0,0,0,0,-1,1707,1506,10.0902,-7.1743
490,-482,11.6289,5.4928,0,0,0,0,0,0,0,-1,1714,1506,11.6289,-5.49283
497,-482,15.9539,7.40222,0,0,0,0,0,0,0,-1,1721,1506,15.9538,-7.40219
504,-482,20.4233,12.006,0,0,0,0,0,0,0,-1,1728,1506,20.4233,-12.006
511,-482,18.4937,12.9175,0,0,0,0,0,0,0,-1,1735,1506,18.4936,-12.9174
518,-482,16.6002,13.9679,0,0,0,0,0,0,0,-1,1742,1506,16.6003,-13.9679
525,-482,18.495,15.9618,0,0,0,0,0,0,0,-1,1749,1506,18.495,-15.9618
532,-482,19.9375,21.0775,0,0,0,0,0,0,0,-1,1756,1506,19.9375,-21.0775
539,-482,20.2291,20.5577,0,0,0,0,0,0,0,-1,1763,1506,20.2291,-20.5578
546,-482,29.7682,31.8523,0,0,0,0,0,0,0,-1,1770,1506,29.7681,-31.8523
553,-482,29.6626,30.7858,0,0,0,0,0,0,0,-1,1777,1506,29.6626,-30.7857
560,-482,29.7875,29.9482,0.00777374,0.00286836,-0.00293101,0.00914289,0.0014992,-0.437006,0.00566208,0.0173735,1784,1506,29.7874,-29.9482
567,-482,29.863,29.1527,0.00614984,0.00200572,-0.0021552,0.00706748,0.00108808,-0.402531,0.0043941,0.0159445,1791,1506,29.863,-29.1527
574,-482,29.7983,28.4064,0.00486236,0.00140391,-0.00163867,0.00551546,0.00075081,-0.379258,0.00345401,0.0146889,1798,1506,29.7983,-28.4064
581,-482,29.7479,27.6429,0.00379595,0.000957855,-0.00125053,0.00426834,0.000485467,-0.361179,0.00269834,0.0101515,1805,1506,29.7479,-27.643
588,-482,29.7057,26.8445,0.00298824,0.00059636,-0.000972196,0.00333355,0.000251055,-0.341283,0.00214359,0.0107721,1812,1506,29.7057,-26.8444
595,-482,29.6575,26.0844,0.00244308,0.000291426,-0.000696589,0.00264891,8.55974e-05,-0.287305,0.00173811,0.0164414,1819,1506,29.6574,-26.0843
602,-482,29.6428,25.3364,0.0020059,4.86531e-05,-0.000498693,0.00212564,-7.10851e-05,-0.235643,0.00144137,0.0202678,1826,1506,29.6428,-25.3364
609,-482,29.6051,24.5693,0.00166749,-0.00013826,-0.000249322,0.00170128,-0.000172052,-0.134714,0.00119567,0.0169012,1833,1506,29.6051,-24.5693
616,-482,29.5239,23.804,0.00152556,-0.000455665,0.00014432,0.00153602,-0.000466123,0.0723348,0.0012097,0.0128923,1840,1506,29.5239,-23.8039
623,-482,29.4698,23.0354,0.00145641,-0.000892616,0.000715742,0.00165732,-0.00109352,0.273649,0.00159928,0.0197591,1847,1506,29.4699,-23.0354
630,-482,29.4325,22.2678,0.00118343,-0.00128269,0.00152239,0.00190948,-0.00200874,0.445009,0.00226243,0.0435503,1854,1506,29.4325,-22.2678
637,-482,29.4943,21.504,0,0,0,0,0,0,0,-1,1861,1506,29.4943,-21.504
644,-482,29.0146,20.1443,0,0,0,0,0,0,0,-1,1868,1506,29.0147,-20.1442
651,-482,4.03845,7.05273,0,0,0,0,0,0,0,-1,1875,1506,4.03843,-7.05279
658,-482,10.0278,5.87903,0,0,0,0,0,0,0,-1,1882,1506,10.0279,-5.87902
665,-482,8.15198,3.22229,0,0,0,0,0,0,0,-1,1889,1506,8.15199,-3.22232
672,-482,9.87415,1.3147,0,0,0,0,0,0,0,-1,1896,1506,9.87416,-1.31473
679,-482,0,0,0,0,0,0,0,0,0,-1,1903,1506,0,0
686,-482,0,0,0,0,0,0,0,0,0,-1,1910,1506,0,0
693,-482,0,0,0,0,0,0,0,0,0,-1,1917,1506,0,0
700,-482,0,0,0,0,0,0,0,0,0,-1,1924,1506,0,0
707,-482,0,0,0,0,0,0,0,0,0,-1,1931,1506,0,0
714,-482,0,0,0,0,0,0,0,0,0,-1,1938,1506,0,0
721,-482,0,0,0,0,0,0,0,0,0,-1,1945,1506,0,0
728,-482,0,0,0,0,0,0,0,0,0,-1,1952,1506,0,0
735,-482,0,0,0,0,0,0,0,0,0,-1,1959,1506,0,0
742,-482,0,0,0,0,0,0,0,0,0,-1,1966,1506,0,0
749,-482,0,0,0,0,0,0,0,0,0,-1,1973,1506,0,0
756,-482,0,0,0,0,0,0,0,0,0,-1,1980,1506,0,0
763,-482,0,0,0,0,0,0,0,0,0,-1,1987,1506,0,0
770,-482,0,0,0,0,0,0,0,0,0,-1,1994,1506,0,0
777,-482,0,0,0,0,0,0,0,0,0,-1,2001,1506,0,0
784,-482,0,0,0,0,0,0,0,0,0,-1,2008,1506,0,0
791,-482,0,0,0,0,0,0,0,0,0,-1,2015,1506,0,0
798,-482,0,0,0,0,0,0,0,0,0,-1,2022,1506,0,0
805,-482,0,0,0,0,0,0,0,0,0,-1,2029,1506,0,0
812,-482,0,0,0,0,0,0,0,0,0,-1,2036,1506,0,0
-700,-489,0,0,0,0,0,0,0,0,0,-1,524,1513,0,0
-693,-489,0,0,0,0,0,0,0,0,0,-1,531,1513,0,0
-686,-489,0,0,0,0,0,0,0,0,0,-1,538,1513,0,0
-679,-489,0,0,0,0,0,0,0,0,0,-1,545,1513,0,0
-672,-489,0,0,0,0,0,0,0,0,0,-1,552,1513,0,0
-665,-489,0,0,0,0,0,0,0,0,0,-1,559,1513,0,0
-658,-489,0,0,0,0,0,0,0,0,0,-1,566,1513,0,0
-651,-489,0,0,0,0,0,0,0,0,0,-1,573,1513,0,0
-644,-489,0,0,0,0,0,0,0,0,0,-1,580,1513,0,0
-637,-489,0,0,0,0,0,0,0,0,0,-1,587,1513,0,0
-630,-489,0,0,0,0,0,0,0,0,0,-1,594,1513,0,0
-623,-489,0,0,0,0,0,0,0,0,0,-1,601,1513,0,0
-616,-489,0,0,0,0,0,0,0,0,0,-1,608,1513,0,0
-609,-489,0,0,0,0,0,0,0,0,0,-1,615,1513,0,0
-602,-489,0,0,0,0,0,0,0,0,0,-1,622,1513,0,0
-595,-489,0,0,0,0,0,0,0,0,0,-1,629,1513,0,0
-588,-489,0,0,0,0,0,0,0,0,0,-1,636,1513,0,0
-581,-489,0,0,0,0,0,0,0,0,0,-1,643,1513,0,0
-574,-489,0,0,0,0,0,0,0,0,0,-1,650,1513,0,0
-567,-489,0,0,0,0,0,0,0,0,0,-1,657,1513,0,0
-560,-489,0,0,0,0,0,0,0,0,0,-1,664,1513,0,0
-553,-489,-9.42206,8.5116,0,0,0,0,0,0,0,-1,671,1513,-9.42205,-8.51158
-546,-489,-7.80951,8.18506,0,0,0,0,0,0,0,-1,678,1513,-7.8095,-8.18503
-539,-489,-3.06879,2.82349,0,0,0,0,0,0,0,-1,685,1513,-3.06881,-2.82354
-532,-489,-3.14215,2.5835,0,0,0,0,0,0,0,-1,692,1513,-3.14213,-2.58353
-525,-489,-2.604,4.06274,0,0,0,0,0,0,0,-1,699,1513,-2.60399,-4.06274
-518,-489,-5.43774,7.48059,0,0,0,0,0,0,0,-1,706,1513,-5.43777,-7.48058
-511,-489,-7.52856,10.951,0,0,0,0,0,0,0,-1,713,1513,-7.52857,-10.951
-504,-489,-7.17352,12.8508,0,0,0,0,0,0,0,-1,720,1513,-7.17352,-12.8508
-497,-489,-5.51678,14.9254,0,0,0,0,0,0,0,-1,727,1513,-5.51681,-14.9254
-490,-489,-11.5223,22.4717,0,0,0,0,0,0,0,-1,734,1513,-11.5223,-22.4717
-483,-489,-11.43,23.3928,0.00417681,0.000997346,0.0049654,0.00780076,-0.0026266,0.630473,0.00626242,0.0347867,741,1513,-11.43,-23.3928
-476,-489,-11.4185,24.3507,0.00309565,2.55028e-06,0.00338911,0.0052744,-0.0021762,0.571346,0.00442384,0.0108037,748,1513,-11.4184,-24.3507
-469,-489,-11.4508,25.1705,0.00235886,-0.000354503,0.00242221,0.00377845,-0.00177409,0.530116,0.00327465,0.0108479,755,1513,-11.4508,-25.1705
-462,-489,-11.4792,25.948,0.00186552,-0.000174048,0.00181016,0.00292339,-0.00123192,0.528875,0.00246443,0.0162648,762,1513,-11.4792,-25.9481
-455,-489,-11.525,26.7687,0.00165621,0.000355941,0.00152425,0.00266319,-0.000651038,0.583817,0.00202761,0.0197853,769,1513,-11.525,-26.7686
-448,-489,-11.6011,27.5685,0.00177428,0.00132441,0.0016371,0.00320183,-0.000103136,0.717127,0.00216975,0.0173441,776,1513,-11.6011,-27.5684
-441,-489,-11.635,28.3534,0.00212946,0.00251762,0.00202829,0.00436109,0.000285981,0.833096,0.00281691,0.0144037,783,1513,-11.635,-28.3533
-434,-489,-11.6804,29.1531,0.00275011,0.00396681,0.002715,0.00614078,0.000576142,0.895613,0.00391596,0.0165957,790,1513,-11.6804,-29.153
-427,-489,-11.7424,29.9572,0.0036544,0.0056645,0.00367527,0.00846967,0.000849227,0.918866,0.00538573,0.0196578,797,1513,-11.7423,-29.9572
-420,-489,-11.8087,30.886,0.00489729,0.00756591,0.00495494,0.0113631,0.00110015,0.916923,0.00723658,0.0290044,804,1513,-11.8087,-30.886
-413,-489,-11.7452,31.9169,0,0,0,0,0,0,0,-1,811,1513,-11.7452,-31.9168
-406,-489,-3.10559,15.8143,0,0,0,0,0,0,0,-1,818,1513,-3.10556,-15.8143
-399,-489,-1.41241,9.10718,0,0,0,0,0,0,0,-1,825,1513,-1.41244,-9.10722
-392,-489,-1.0368,9.30469,0,0,0,0,0,0,0,-1,832,1513,-1.03682,-9.30466
-385,-489,-1.75165,10.6559,0,0,0,0,0,0,0,-1,839,1513,-1.75165,-10.6559
-378,-489,-0.401428,9.87048,0,0,0,0,0,0,0,-1,846,1513,-0.401415,-9.87047
-371,-489,-1.11633,10.6606,0,0,0,0,0,0,0,-1,853,1513,-1.11633,-10.6606
-364,-489,-0.503113,8.98486,0,0,0,0,0,0,0,-1,860,1513,-0.503097,-8.98482
-357,-489,-0.609924,10.9606,0,0,0,0,0,0,0,-1,867,1513,-0.609947,-10.9605
-350,-489,-7.94659,-0.358887,0,0,0,0,0,0,0,-1,874,1513,-7.94657,0.358912
-343,-489,-7.49323,-0.437866,0,0,0,0,0,0,0,-1,881,1513,-7.49322,0.437823
-336,-489,-7.02332,-0.53125,0,0,0,0,0,0,0,-1,888,1513,-7.0233,0.531295
-329,-489,-13.2786,4.96082,0,0,0,0,0,0,0,-1,895,1513,-13.2785,-4.96077
-322,-489,0,0,0,0,0,0,0,0,0,-1,902,1513,0,0
-315,-489,0,0,0,0,0,0,0,0,0,-1,909,1513,0,0
-308,-489,0,0,0,0,0,0,0,0,0,-1,916,1513,0,0
-301,-489,0,0,0,0,0,0,0,0,0,-1,923,1513,0,0
-294,-489,0,0,0,0,0,0,0,0,0,-1,930,1513,0,0
-287,-489,0,0,0,0,0,0,0,0,0,-1,937,1513,0,0
-280,-489,0,0,0,0,0,0,0,0,0,-1,944,1513,0,0
-273,-489,0,0,0,0,0,0,0,0,0,-1,951,1513,0,0
-266,-489,0,0,0,0,0,0,0,0,0,-1,958,1513,0,0
-259,-489,0,0,0,0,0,0,0,0,0,-1,965,1513,0,0
-252,-489,0,0,0,0,0,0,0,0,0,-1,972,1513,0,0
-245,-489,0,0,0,0,0,0,0,0,0,-1,979,1513,0,0
-238,-489,0,0,0,0,0,0,0,0,0,-1,986,1513,0,0
-231,-489,0,0,0,0,0,0,0,0,0,-1,993,1513,0,0
-224,-489,0,0,0,0,0,0,0,0,0,-1,1000,1513,0,0
-217,-489,0,0,0,0,0,0,0,0,0,-1,1007,1513,0,0
-210,-489,0,0,0,0,0,0,0,0,0,-1,1014,1513,0,0
-203,-489,0,0,0,0,0,0,0,0,0,-1,1021,1513,0,0
-196,-489,0,0,0,0,0,0,0,0,0,-1,1028,1513,0,0
-189,-489,0,0,0,0,0,0,0,0,0,-1,1035,1513,0,0
-182,-489,0,0,0,0,0,0,0,0,0,-1,1042,1513,0,0
-175,-489,0,0,0,0,0,0,0,0,0,-1,1049,1513,0,0
-168,-489,0,0,0,0,0,0,0,0,0,-1,1056,1513,0,0
-161,-489,0,0,0,0,0,0,0,0,0,-1,1063,1513,0,0
-154,-489,0,0,0,0,0,0,0,0,0,-1,1070,1513,0,0
-147,-489,0,0,0,0,0,0,0,0,0,-1,1077,1513,0,0
-140,-489,0,0,0,0,0,0,0,0,0,-1,1084,1513,0,0
-133,-489,0,0,0,0,0,0,0,0,0,-1,1091,1513,0,0
-126,-489,0,0,0,0,0,0,0,0,0,-1,1098,1513,0,0
-119,-489,0,0,0,0,0,0,0,0,0,-1,1105,1513,0,0
-112,-489,0,0,0,0,0,0,0,0,0,-1,1112,1513,0,0
-105,-489,0,0,0,0,0,0,0,0,0,-1,1119,1513,0,0
-98,-489,0,0,0,0,0,0,0,0,0,-1,1126,1513,0,0
-91,-489,0,0,0,0,0,0,0,0,0,-1,1133,1513,0,0
-84,-489,0,0,0,0,0,0,0,0,0,-1,1140,1513,0,0
-77,-489,0,0,0,0,0,0,0,0,0,-1,1147,1513,0,0
-70,-489,0,0,0,0,0,0,0,0,0,-1,1154,1513,0,0
-63,-489,0,0,0,0,0,0,0,0,0,-1,1161,1513,0,0
-56,-489,0,0,0,0,0,0,0,0,0,-1,1168,1513,0,0
-49,-489,0,0,0,0,0,0,0,0,0,-1,1175,1513,0,0
-42,-489,0,0,0,0,0,0,0,0,0,-1,1182,1513,0,0
-35,-489,0,0,0,0,0,0,0,0,0,-1,1189,1513,0,0
-28,-489,0,0,0,0,0,0,0,0,0,-1,1196,1513,0,0
-21,-489,0,0,0,0,0,0,0,0,0,-1,1203,1513,0,0
-14,-489,0,0,0,0,0,0,0,0,0,-1,1210,1513,0,0
-7,-489,0,0,0,0,0,0,0,0,0,-1,1217,1513,0,0
0,-489,0,0,0,0,0,0,0,0,0,-1,1224,1513,0,0
7,-489,0,0,0,0,0,0,0,0,0,-1,1231,1513,0,0
14,-489,0,0,0,0,0,0,0,0,0,-1,1238,1513,0,0
21,-489,0,0,0,0,0,0,0,0,0,-1,1245,1513,0,0
28,-489,0,0,0,0,0,0,0,0,0,-1,1252,1513,0,0
35,-489,0,0,0,0,0,0,0,0,0,-1,1259,1513,0,0
42,-489,0,0,0,0,0,0,0,0,0,-1,1266,1513,0,0
49,-489,0,0,0,0,0,0,0,0,0,-1,1273,1513,0,0
56,-489,0,0,0,0,0,0,0,0,0,-1,1280,1513,0,0
63,-489,0,0,0,0,0,0,0,0,0,-1,1287,1513,0,0
70,-489,0,0,0,0,0,0,0,0,0,-1,1294,1513,0,0
77,-489,0,0,0,0,0,0,0,0,0,-1,1301,1513,0,0
84,-489,0,0,0,0,0,0,0,0,0,-1,1308,1513,0,0
91,-489,0,0,0,0,0,0,0,0,0,-1,1315,1513,0,0
98,-489,0,0,0,0,0,0,0,0,0,-1,1322,1513,0,0
105,-489,0,0,0,0,0,0,0,0,0,-1,1329,1513,0,0
112,-489,0,0,0,0,0,0,0,0,0,-1,1336,1513,0,0
119,-489,0,0,0,0,0,0,0,0,0,-1,1343,1513,0,0
126,-489,0,0,0,0,0,0,0,0,0,-1,1350,1513,0,0
133,-489,0,0,0,0,0,0,0,0,0,-1,1357,1513,0,0
140,-489,0,0,0,0,0,0,0,0,0,-1,1364,1513,0,0
147,-489,0,0,0,0,0,0,0,0,0,-1,1371,1513,0,0
154,-489,0,0,0,0,0,0,0,0,0,-1,1378,1513,0,0
161,-489,0,0,0,0,0,0,0,0,0,-1,1385,1513,0,0
168,-489,0,0,0,0,0,0,0,0,0,-1,1392,1513,0,0
175,-489,0,0,0,0,0,0,0,0,0,-1,1399,1513,0,0
182,-489,0,0,0,0,0,0,0,0,0,-1,1406,1513,0,0
189,-489,0,0,0,0,0,0,0,0,0,-1,1413,1513,0,0
196,-489,0,0,0,0,0,0,0,0,0,-1,1420,1513,0,0
203,-489,0,0,0,0,0,0,0,0,0,-1,1427,1513,0,0
210,-489,0,0,0,0,0,0,0,0,0,-1,1434,1513,0,0
217,-489,0,0,0,0,0,0,0,0,0,-1,1441,1513,0,0
224,-489,0,0,0,0,0,0,0,0,0,-1,1448,1513,0,0
231,-489,0,0,0,0,0,0,0,0,0,-1,1455,1513,0,0
238,-489,0,0,0,0,0,0,0,0,0,-1,1462,1513,0,0
245,-489,0,0,0,0,0,0,0,0,0,-1,1469,1513,0,0
252,-489,0,0,0,0,0,0,0,0,0,-1,1476,1513,0,0
259,-489,0,0,0,0,0,0,0,0,0,-1,1483,1513,0,0
266,-489,0,0,0,0,0,0,0,0,0,-1,1490,1513,0,0
273,-489,0,0,0,0,0,0,0,0,0,-1,1497,1513,0,0
280,-489,0,0,0,0,0,0,0,0,0,-1,1504,1513,0,0
287,-489,0,0,0,0,0,0,0,0,0,-1,1511,1513,0,0
294,-489,0,0,0,0,0,0,0,0,0,-1,1518,1513,0,0
301,-489,0,0,0,0,0,0,0,0,0,-1,1525,1513,0,0
308,-489,0,0,0,0,0,0,0,0,0,-1,1532,1513,0,0
315,-489,0,0,0,0,0,0,0,0,0,-1,1539,1513,0,0
322,-489,0,0,0,0,0,0,0,0,0,-1,1546,1513,0,0
329,-489,0,0,0,0,0,0,0,0,0,-1,1553,1513,0,0
336,-489,0,0,0,0,0,0,0,0,0,-1,1560,1513,0,0
343,-489,0,0,0,0,0,0,0,0,0,-1,1567,1513,0,0
350,-489,0,0,0,0,0,0,0,0,0,-1,1574,1513,0,0
357,-489,0,0,0,0,0,0,0,0,0,-1,1581,1513,0,0
364,-489,0,0,0,0,0,0,0,0,0,-1,1588,1513,0,0
371,-489,0,0,0,0,0,0,0,0,0,-1,1595,1513,0,0
378,-489,0,0,0,0,0,0,0,0,0,-1,1602,1513,0,0
385,-489,0,0,0,0,0,0,0,0,0,-1,1609,1513,0,0
392,-489,0,0,0,0,0,0,0,0,0,-1,1616,1513,0,0
399,-489,0,0,0,0,0,0,0,0,0,-1,1623,1513,0,0
406,-489,0,0,0,0,0,0,0,0,0,-1,1630,1513,0,0
413,-489,0,0,0,0,0,0,0,0,0,-1,1637,1513,0,0
420,-489,0,0,0,0,0,0,0,0,0,-1,1644,1513,0,0
427,-489,0,0,0,0,0,0,0,0,0,-1,1651,1513,0,0
434,-489,0,0,0,0,0,0,0,0,0,-1,1658,1513,0,0
441,-489,11.4602,2.56787,0,0,0,0,0,0,0,-1,1665,1513,11.4602,-2.56786
448,-489,12.4425,1.72351,0,0,0,0,0,0,0,-1,1672,1513,12.4425,-1.72349
455,-489,12.5575,1.37463,0,0,0,0,0,0,0,-1,1679,1513,12.5575,-1.37469
462,-489,14.9784,3.84888,0,0,0,0,0,0,0,-1,1686,1513,14.9784,-3.84892
469,-489,15.1367,4.53101,0,0,0,0,0,0,0,-1,1693,1513,15.1368,-4.531
476,-489,15.5536,5.09338,0,0,0,0,0,0,0,-1,1700,1513,15.5536,-5.09339
483,-489,8.96912,8.37805,0,0,0,0,0,0,0,-1,1707,1513,8.96909,-8.37809
490,-489,10.5366,7.49561,0,0,0,0,0,0,0,-1,1714,1513,10.5367,-7.49558
497,-489,14.6051,11.8397,0,0,0,0,0,0,0,-1,1721,1513,14.6051,-11.8397
504,-489,16.7527,14.1735,0,0,0,0,0,0,0,-1,1728,1513,16.7527,-14.1735
511,-489,17.83,17.7993,0,0,0,0,0,0,0,-1,1735,1513,17.83,-17.7993
518,-489,16.4751,14.3682,0,0,0,0,0,0,0,-1,1742,1513,16.4751,-14.3682
525,-489,17.2606,17.4949,0,0,0,0,0,0,0,-1,1749,1513,17.2606,-17.4949
532,-489,19.397,21.0182,0,0,0,0,0,0,0,-1,1756,1513,19.397,-21.0182
539,-489,28.8953,32.7173,0,0,0,0,0,0,0,-1,1763,1513,28.8953,-32.7173
546,-489,29.092,31.7277,0.0103072,0.00570545,-0.00534227,0.013823,0.00218963,-0.582058,0.00857911,0.0414929,1770,1513,29.0921,-31.7277
553,-489,29.0631,30.7891,0.00827695,0.00409838,-0.00389537,0.010608,0.00176737,-0.539246,0.00656266,0.0239644,1777,1513,29.0632,-30.789
560,-489,29.0857,29.9539,0.00659273,0.00285897,-0.00276986,0.00806611,0.00138558,-0.488868,0.00498022,0.0147975,1784,1513,29.0857,-29.9539
567,-489,29.101,29.2042,0.00523908,0.00197148,-0.00200714,0.00619331,0.00101725,-0.443791,0.00383503,0.0164652,1791,1513,29.101,-29.2042
574,-489,29.0205,28.4941,0.00419629,0.00135133,-0.00149419,0.00483683,0.000710786,-0.40499,0.00301568,0.0158161,1798,1513,29.0204,-28.4941
581,-489,29.0017,27.6984,0.0033303,0.000873784,-0.00110458,0.00375392,0.000450161,-0.366216,0.00236687,0.0105655,1805,1513,29.0017,-27.6983
588,-489,28.9668,26.9091,0.00269946,0.000508067,-0.000853656,0.00299275,0.000214778,-0.330933,0.00192756,0.0127745,1812,1513,28.9667,-26.9091
595,-489,28.9059,26.2052,0.00232173,0.000239542,-0.000627043,0.00249598,6.52925e-05,-0.271052,0.00164266,0.0187823,1819,1513,28.9059,-26.2051
602,-489,28.8691,25.4734,0.00204925,7.50538e-05,-0.000499463,0.00216842,-4.41148e-05,-0.234214,0.00146054,0.0248945,1826,1513,28.8691,-25.4733
609,-489,28.8282,24.6396,0.00185546,-6.23591e-05,-0.000326843,0.00190963,-0.000116531,-0.16425,0.00131366,0.0185804,1833,1513,28.8282,-24.6396
616,-489,28.7946,23.825,0.00193612,-0.000381244,1.83607e-05,0.00193626,-0.00038139,0.00792243,0.00143497,0.0230198,1840,1513,28.7946,-23.825
623,-489,28.7567,23.0366,0.002029,-0.000794977,0.00058596,0.00214576,-0.000911733,0.196681,0.00181253,0.0493126,1847,1513,28.7568,-23.0366
630,-489,28.7472,22.0553,0,0,0,0,0,0,0,-1,1854,1513,28.7472,-22.0553
637,-489,17.2048,11.8091,0,0,0,0,0,0,0,-1,1861,1513,17.2048,-11.8091
644,-489,9.67578,8.45874,0,0,0,0,0,0,0,-1,1868,1513,9.67576,-8.45879
651,-489,6.13818,6.85095,0,0,0,0,0,0,0,-1,1875,1513,6.13823,-6.85097
658,-489,5.43848,7.75513,0,0,0,0,0,0,0,-1,1882,1513,5.43844,-7.75509
665,-489,5.48438,8.59912,0,0,0,0,0,0,0,-1,1889,1513,5.48434,-8.59907
672,-489,0,0,0,0,0,0,0,0,0,-1,1896,1513,0,0
679,-489,0,0,0,0,0,0,0,0,0,-1,1903,1513,0,0
686,-489,0,0,0,0,0,0,0,0,0,-1,1910,1513,0,0
693,-489,0,0,0,0,0,0,0,0,0,-1,1917,1513,0,0
700,-489,0,0,0,0,0,0,0,0,0,-1,1924,1513,0,0
707,-489,0,0,0,0,0,0,0,0,0,-1,1931,1513,0,0
714,-489,0,0,0,0,0,0,0,0,0,-1,1938,1513,0,0
721,-489,0,0,0,0,0,0,0,0,0,-1,1945,1513,0,0
728,-489,0,0,0,0,0,0,0,0,0,-1,1952,1513,0,0
735,-489,0,0,0,0,0,0,0,0,0,-1,1959,1513,0,0
742,-489,0,0,0,0,0,0,0,0,0,-1,1966,1513,0,0
749,-489,0,0,0,0,0,0,0,0,0,-1,1973,1513,0,0
756,-489,0,0,0,0,0,0,0,0,0,-1,1980,1513,0,0
763,-489,0,0,0,0,0,0,0,0,0,-1,1987,1513,0,0
770,-489,0,0,0,0,0,0,0,0,0,-1,1994,1513,0,0
777,-489,0,0,0,0,0,0,0,0,0,-1,2001,1513,0,0
784,-489,0,0,0,0,0,0,0,0,0,-1,2008,1513,0,0
791,-489,0,0,0,0,0,0,0,0,0,-1,2015,1513,0,0
798,-489,0,0,0,0,0,0,0,0,0,-1,2022,1513,0,0
805,-489,0,0,0,0,0,0,0,0,0,-1,2029,1513,0,0
812,-489,0,0,0,0,0,0,0,0,0,-1,2036,1513,0,0
-700,-496,0,0,0,0,0,0,0,0,0,-1,524,1520,0,0
-693,-496,0,0,0,0,0,0,0,0,0,-1,531,1520,0,0
-686,-496,0,0,0,0,0,0,0,0,0,-1,538,1520,0,0
-679,-496,0,0,0,0,0,0,0,0,0,-1,545,1520,0,0
-672,-496,0,0,0,0,0,0,0,0,0,-1,552,1520,0,0
-665,-496,0,0,0,0,0,0,0,0,0,-1,559,1520,0,0
-658,-496,0,0,0,0,0,0,0,0,0,-1,566,1520,0,0
-651,-496,0,0,0,0,0,0,0,0,0,-1,573,1520,0,0
-644,-496,0,0,0,0,0,0,0,0,0,-1,580,1520,0,0
-637,-496,0,0,0,0,0,0,0,0,0,-1,587,1520,0,0
-630,-496,0,0,0,0,0,0,0,0,0,-1,594,1520,0,0
-623,-496,0,0,0,0,0,0,0,0,0,-1,601,1520,0,0
-616,-496,0,0,0,0,0,0,0,0,0,-1,608,1520,0,0
-609,-496,0,0,0,0,0,0,0,0,0,-1,615,1520,0,0
-602,-496,0,0,0,0,0,0,0,0,0,-1,622,1520,0,0
-595,-496,0,0,0,0,0,0,0,0,0,-1,629,1520,0,0
-588,-496,0,0,0,0,0,0,0,0,0,-1,636,1520,0,0
-581,-496,0,0,0,0,0,0,0,0,0,-1,643,1520,0,0
-574,-496,0,0,0,0,0,0,0,0,0,-1,650,1520,0,0
-567,-496,0,0,0,0,0,0,0,0,0,-1,657,1520,0,0
-560,-496,0,0,0,0,0,0,0,0,0,-1,664,1520,0,0
-553,-496,0,0,0,0,0,0,0,0,0,-1,671,1520,0,0
-546,-496,-8.09711,7.94836,0,0,0,0,0,0,0,-1,678,1520,-8.09712,-7.94842
-539,-496,-3.20129,1.16052,0,0,0,0,0,0,0,-1,685,1520,-3.20131,-1.16054
-532,-496,-2.98279,2.62146,0,0,0,0,0,0,0,-1,692,1520,-2.98278,-2.62151
-525,-496,-2.75201,4.08032,0,0,0,0,0,0,0,-1,699,1520,-2.75201,-4.08031
-518,-496,-2.6333,5.36072,0,0,0,0,0,0,0,-1,706,1520,-2.63328,-5.36077
-511,-496,-7.92126,9.68604,0,0,0,0,0,0,0,-1,713,1520,-7.92127,-9.68598
-504,-496,-7.51044,11.6274,0,0,0,0,0,0,0,-1,720,1520,-7.51042,-11.6275
-497,-496,-5.30933,14.4291,0,0,0,0,0,0,0,-1,727,1520,-5.30932,-14.4291
-490,-496,-8.21246,19.5051,0,0,0,0,0,0,0,-1,734,1520,-8.21243,-19.5051
-483,-496,-10.77,23.4274,0,0,0,0,0,0,0,-1,741,1520,-10.7699,-23.4274
-476,-496,-10.6884,24.3636,0.00334036,-0.0014302,0.00368322,0.00534321,-0.00343305,0.498053,0.00510683,0.027629,748,1520,-10.6883,-24.3636
-469,-496,-10.6793,25.2195,0.00240598,-0.00170872,0.00252027,0.00360201,-0.00290475,0.443092,0.00376386,0.0109732,755,1520,-10.6793,-25.2195
-462,-496,-10.6956,26.0052,0.00173775,-0.00138332,0.00175254,0.00252384,-0.00216942,0.421643,0.00271222,0.0155173,762,1520,-10.6955,-26.0053
-455,-496,-10.7424,26.8405,0.00139229,-0.000727416,0.00134338,0.00204357,-0.00137869,0.451416,0.00198823,0.0205215,769,1520,-10.7425,-26.8404
-448,-496,-10.8036,27.6625,0.00139197,0.000270625,0.00131651,0.00226222,-0.000599627,0.584091,0.00174275,0.0185466,776,1520,-10.8036,-27.6625
-441,-496,-10.8259,28.4276,0.00166931,0.00147416,0.00159564,0.00317036,-2.68869e-05,0.75486,0.00212259,0.0137483,783,1520,-10.8258,-28.4276
-434,-496,-10.8837,29.2122,0.00221714,0.00287653,0.00215828,0.00473015,0.000363524,0.861191,0.00303952,0.0140637,790,1520,-10.8837,-29.2122
-427,-496,-10.9448,30.0027,0.00301876,0.00439538,0.0029417,0.00672822,0.000685919,0.900322,0.00427522,0.0190227,797,1520,-10.9448,-30.0027
-420,-496,-10.9848,30.7576,0.00411349,0.00605213,0.00398635,0.00918531,0.000980309,0.904663,0.00582434,0.0195451,804,1520,-10.9848,-30.7575
-413,-496,-10.9187,31.605,0.00574475,0.00771805,0.00554991,0.0123683,0.00109447,0.873368,0.00790602,0.0327887,811,1520,-10.9187,-31.605
-406,-496,-10.7908,32.6688,0,0,0,0,0,0,0,-1,818,1520,-10.7908,-32.6689
-399,-496,-10.4349,33.8369,0,0,0,0,0,0,0,-1,825,1520,-10.4349,-33.837
-392,-496,-1.49786,12.387,0,0,0,0,0,0,0,-1,832,1520,-1.49788,-12.387
-385,-496,-1.72437,11.4985,0,0,0,0,0,0,0,-1,839,1520,-1.72436,-11.4985
-378,-496,-1.45532,14.0719,0,0,0,0,0,0,0,-1,846,1520,-1.45533,-14.0719
-371,-496,0.0877075,12.5299,0,0,0,0,0,0,0,-1,853,1520,0.0876896,-12.5299
-364,-496,0.0881348,10.6422,0,0,0,0,0,0,0,-1,860,1520,0.0881368,-10.6423
-357,-496,0.323792,7.56812,0,0,0,0,0,0,0,-1,867,1520,0.323782,-7.56806
-350,-496,2.1535,7.18945,0,0,0,0,0,0,0,-1,874,1520,2.15348,-7.1894
-343,-496,-7.56244,0.335327,0,0,0,0,0,0,0,-1,881,1520,-7.56242,-0.335322
-336,-496,-3.99249,6.02222,0,0,0,0,0,0,0,-1,888,1520,-3.99246,-6.0222
-329,-496,-6.93689,-0.100342,0,0,0,0,0,0,0,-1,895,1520,-6.93686,0.1003
-322,-496,-6.17505,0.494385,0,0,0,0,0,0,0,-1,902,1520,-6.17507,-0.49437
-315,-496,-7.539,5.78638,0,0,0,0,0,0,0,-1,909,1520,-7.53898,-5.78633
-308,-496,0,0,0,0,0,0,0,0,0,-1,916,1520,0,0
-301,-496,0,0,0,0,0,0,0,0,0,-1,923,1520,0,0
-294,-496,0,0,0,0,0,0,0,0,0,-1,930,1520,0,0
-287,-496,0,0,0,0,0,0,0,0,0,-1,937,1520,0,0
-280,-496,0,0,0,0,0,0,0,0,0,-1,944,1520,0,0
-273,-496,0,0,0,0,0,0,0,0,0,-1,951,1520,0,0
-266,-496,0,0,0,0,0,0,0,0,0,-1,958,1520,0,0
-259,-496,0,0,0,0,0,0,0,0,0,-1,965,1520,0,0
-252,-496,0,0,0,0,0,0,0,0,0,-1,972,1520,0,0
-245,-496,0,0,0,0,0,0,0,0,0,-1,979,1520,0,0
-238,-496,0,0,0,0,0,0,0,0,0,-1,986,1520,0,0
-231,-496,0,0,0,0,0,0,0,0,0,-1,993,1520,0,0
-224,-496,0,0,0,0,0,0,0,0,0,-1,1000,1520,0,0
-217,-496,0,0,0,0,0,0,0,0,0,-1,1007,1520,0,0
-210,-496,0,0,0,0,0,0,0,0,0,-1,1014,1520,0,0
-203,-496,0,0,0,0,0,0,0,0,0,-1,1021,1520,0,0
-196,-496,0,0,0,0,0,0,0,0,0,-1,1028,1520,0,0
-189,-496,0,0,0,0,0,0,0,0,0,-1,1035,1520,0,0
-182,-496,0,0,0,0,0,0,0,0,0,-1,1042,1520,0,0
-175,-496,0,0,0,0,0,0,0,0,0,-1,1049,1520,0,0
-168,-496,0,0,0,0,0,0,0,0,0,-1,1056,1520,0,0
-161,-496,0,0,0,0,0,0,0,0,0,-1,1063,1520,0,0
-154,-496,0,0,0,0,0,0,0,0,0,-1,1070,1520,0,0
-147,-496,0,0,0,0,0,0,0,0,0,-1,1077,1520,0,0
-140,-496,0,0,0,0,0,0,0,0,0,-1,1084,1520,0,0
-133,-496,0,0,0,0,0,0,0,0,0,-1,1091,1520,0,0
-126,-496,0,0,0,0,0,0,0,0,0,-1,1098,1520,0,0
-119,-496,0,0,0,0,0,0,0,0,0,-1,1105,1520,0,0
-112,-496,0,0,0,0,0,0,0,0,0,-1,1112,1520,0,0
-105,-496,0,0,0,0,0,0,0,0,0,-1,1119,1520,0,0
-98,-496,0,0,0,0,0,0,0,0,0,-1,1126,1520,0,0
-91,-496,0,0,0,0,0,0,0,0,0,-1,1133,1520,0,0
-84,-496,0,0,0,0,0,0,0,0,0,-1,1140,1520,0,0
-77,-496,0,0,0,0,0,0,0,0,0,-1,1147,1520,0,0
-70,-496,0,0,0,0,0,0,0,0,0,-1,1154,1520,0,0
-63,-496,0,0,0,0,0,0,0,0,0,-1,1161,1520,0,0
-56,-496,0,0,0,0,0,0,0,0,0,-1,1168,1520,0,0
-49,-496,0,0,0,0,0,0,0,0,0,-1,1175,1520,0,0
-42,-496,0,0,0,0,0,0,0,0,0,-1,1182,1520,0,0
-35,-496,0,0,0,0,0,0,0,0,0,-1,1189,1520,0,0
-28,-496,0,0,0,0,0,0,0,0,0,-1,1196,1520,0,0
-21,-496,0,0,0,0,0,0,0,0,0,-1,1203,1520,0,0
-14,-496,0,0,0,0,0,0,0,0,0,-1,1210,1520,0,0
-7,-496,0,0,0,0,0,0,0,0,0,-1,1217,1520,0,0
0,-496,0,0,0,0,0,0,0,0,0,-1,1224,1520,0,0
7,-496,0,0,0,0,0,0,0,0,0,-1,1231,1520,0,0
14,-496,0,0,0,0,0,0,0,0,0,-1,1238,1520,0,0
21,-496,0,0,0,0,0,0,0,0,0,-1,1245,1520,0,0
28,-496,0,0,0,0,0,0,0,0,0,-1,1252,1520,0,0
35,-496,0,0,0,0,0,0,0,0,0,-1,1259,1520,0,0
42,-496,0,0,0,0,0,0,0,0,0,-1,1266,1520,0,0
49,-496,0,0,0,0,0,0,0,0,0,-1,1273,1520,0,0
56,-496,0,0,0,0,0,0,0,0,0,-1,1280,1520,0,0
63,-496,0,0,0,0,0,0,0,0,0,-1,1287,1520,0,0
70,-496,0,0,0,0,0,0,0,0,0,-1,1294,1520,0,0
77,-496,0,0,0,0,0,0,0,0,0,-1,1301,1520,0,0
84,-496,0,0,0,0,0,0,0,0,0,-1,1308,1520,0,0
91,-496,0,0,0,0,0,0,0,0,0,-1,1315,1520,0,0
98,-496,0,0,0,0,0,0,0,0,0,-1,1322,1520,0,0
105,-496,0,0,0,0,0,0,0,0,0,-1,1329,1520,0,0
112,-496,0,0,0,0,0,0,0,0,0,-1,1336,1520,0,0
119,-496,0,0,0,0,0,0,0,0,0,-1,1343,1520,0,0
126,-496,0,0,0,0,0,0,0,0,0,-1,1350,1520,0,0
133,-496,0,0,0,0,0,0,0,0,0,-1,1357,1520,0,0
140,-496,0,0,0,0,0,0,0,0,0,-1,1364,1520,0,0
147,-496,0,0,0,0,0,0,0,0,0,-1,1371,1520,0,0
154,-496,0,0,0,0,0,0,0,0,0,-1,1378,1520,0,0
161,-496,0,0,0,0,0,0,0,0,0,-1,1385,1520,0,0
168,-496,0,0,0,0,0,0,0,0,0,-1,1392,1520,0,0
175,-496,0,0,0,0,0,0,0,0,0,-1,1399,1520,0,0
182,-496,0,0,0,0,0,0,0,0,0,-1,1406,1520,0,0
189,-496,0,0,0,0,0,0,0,0,0,-1,1413,1520,0,0
196,-496,0,0,0,0,0,0,0,0,0,-1,1420,1520,0,0
203,-496,0,0,0,0,0,0,0,0,0,-1,1427,1520,0,0
210,-496,0,0,0,0,0,0,0,0,0,-1,1434,1520,0,0
217,-496,0,0,0,0,0,0,0,0,0,-1,1441,1520,0,0
224,-496,0,0,0,0,0,0,0,0,0,-1,1448,1520,0,0
231,-496,0,0,0,0,0,0,0,0,0,-1,1455,1520,0,0
238,-496,0,0,0,0,0,0,0,0,0,-1,1462,1520,0,0
245,-496,0,0,0,0,0,0,0,0,0,-1,1469,1520,0,0
252,-496,0,0,0,0,0,0,0,0,0,-1,1476,1520,0,0
259,-496,0,0,0,0,0,0,0,0,0,-1,1483,1520,0,0
266,-496,0,0,0,0,0,0,0,0,0,-1,1490,1520,0,0
273,-496,0,0,0,0,0,0,0,0,0,-1,1497,1520,0,0
280,-496,0,0,0,0,0,0,0,0,0,-1,1504,1520,0,0
287,-496,0,0,0,0,0,0,0,0,0,-1,1511,1520,0,0
294,-496,0,0,0,0,0,0,0,0,0,-1,1518,1520,0,0
301,-496,0,0,0,0,0,0,0,0,0,-1,1525,1520,0,0
308,-496,0,0,0,0,0,0,0,0,0,-1,1532,1520,0,0
315,-496,0,0,0,0,0,0,0,0,0,-1,1539,1520,0,0
322,-496,0,0,0,0,0,0,0,0,0,-1,1546,1520,0,0
329,-496,0,0,0,0,0,0,0,0,0,-1,1553,1520,0,0
336,-496,0,0,0,0,0,0,0,0,0,-1,1560,1520,0,0
343,-496,0,0,0,0,0,0,0,0,0,-1,1567,1520,0,0
350,-496,0,0,0,0,0,0,0,0,0,-1,1574,1520,0,0
357,-496,0,0,0,0,0,0,0,0,0,-1,1581,1520,0,0
364,-496,0,0,0,0,0,0,0,0,0,-1,1588,1520,0,0
371,-496,0,0,0,0,0,0,0,0,0,-1,1595,1520,0,0
378,-496,0,0,0,0,0,0,0,0,0,-1,1602,1520,0,0
385,-496,0,0,0,0,0,0,0,0,0,-1,1609,1520,0,0
392,-496,0,0,0,0,0,0,0,0,0,-1,1616,1520,0,0
399,-496,0,0,0,0,0,0,0,0,0,-1,1623,1520,0,0
406,-496,0,0,0,0,0,0,0,0,0,-1,1630,1520,0,0
413,-496,0,0,0,0,0,0,0,0,0,-1,1637,1520,0,0
420,-496,0,0,0,0,0,0,0,0,0,-1,1644,1520,0,0
427,-496,0,0,0,0,0,0,0,0,0,-1,1651,1520,0,0
434,-496,11.0457,3.37732,0,0,0,0,0,0,0,-1,1658,1520,11.0456,-3.37736
441,-496,11.788,2.75488,0,0,0,0,0,0,0,-1,1665,1520,11.7879,-2.75485
448,-496,12.2146,2.18494,0,0,0,0,0,0,0,-1,1672,1520,12.2146,-2.18489
455,-496,12.3489,1.65173,0,0,0,0,0,0,0,-1,1679,1520,12.3489,-1.65178
462,-496,12.1912,1.32361,0,0,0,0,0,0,0,-1,1686,1520,12.1911,-1.32357
469,-496,14.8138,5.77954,0,0,0,0,0,0,0,-1,1693,1520,14.8138,-5.77958
476,-496,15.2449,6.27942,0,0,0,0,0,0,0,-1,1700,1520,15.2449,-6.27936
483,-496,9.19812,6.88367,0,0,0,0,0,0,0,-1,1707,1520,9.19812,-6.88361
490,-496,10.2123,7.97144,0,0,0,0,0,0,0,-1,1714,1520,10.2122,-7.97145
497,-496,13.9297,12.2981,0,0,0,0,0,0,0,-1,1721,1520,13.9297,-12.2982
504,-496,16.3271,16.6501,0,0,0,0,0,0,0,-1,1728,1520,16.3272,-16.6502
511,-496,17.6753,18.0685,0,0,0,0,0,0,0,-1,1735,1520,17.6753,-18.0685
518,-496,17.0537,17.3118,0,0,0,0,0,0,0,-1,1742,1520,17.0538,-17.3118
525,-496,18.2721,19.3259,0,0,0,0,0,0,0,-1,1749,1520,18.2721,-19.3259
532,-496,28.4761,32.5615,0,0,0,0,0,0,0,-1,1756,1520,28.4761,-32.5615
539,-496,28.0035,32.58,0,0,0,0,0,0,0,-1,1763,1520,28.0036,-32.58
546,-496,28.2493,31.6219,0.0086044,0.00529036,-0.00479717,0.0120227,0.00187209,-0.619105,0.00746969,0.0235161,1770,1520,28.2492,-31.622
553,-496,28.3541,30.7318,0.00689728,0.00384009,-0.00349955,0.00918752,0.00154985,-0.579488,0.00567933,0.0161062,1777,1520,28.3542,-30.7318
560,-496,28.3654,29.9857,0.00550016,0.00268914,-0.00248295,0.00694781,0.00124149,-0.527852,0.00427851,0.0150877,1784,1520,28.3654,-29.9858
567,-496,28.3264,29.231,0.00440947,0.00185021,-0.00178821,0.00532874,0.000930941,-0.474841,0.00328643,0.0127718,1791,1520,28.3264,-29.2309
574,-496,28.2632,28.4697,0.0036109,0.00126996,-0.00132809,0.00421069,0.000670167,-0.424201,0.00261255,0.0125179,1798,1520,28.2632,-28.4697
581,-496,28.2112,27.7313,0.00297227,0.000817499,-0.00098545,0.00335498,0.000434792,-0.37043,0.00210673,0.0136274,1805,1520,28.2112,-27.7314
588,-496,28.2061,26.9637,0.00255441,0.000496984,-0.000804742,0.00283178,0.000219611,-0.331922,0.00181907,0.0166331,1812,1520,28.206,-26.9638
595,-496,28.1509,26.2349,0.00238145,0.000306318,-0.000671134,0.00257958,0.000108179,-0.287074,0.00168482,0.0179543,1819,1520,28.1509,-26.2348
602,-496,28.1062,25.5142,0.002323,0.000265368,-0.000649751,0.002511,7.73693e-05,-0.281648,0.00164881,0.0189254,1826,1520,28.1062,-25.5142
609,-496,28.0909,24.6549,0.00232191,0.000217107,-0.000593504,0.00247772,6.1288e-05,-0.256746,0.00163177,0.018758,1833,1520,28.0909,-24.6549
616,-496,28.1085,23.7616,0,0,0,0,0,0,0,-1,1840,1520,28.1085,-23.7616
623,-496,28.0233,22.5444,0,0,0,0,0,0,0,-1,1847,1520,28.0233,-22.5444
630,-496,18.5656,13.8966,0,0,0,0,0,0,0,-1,1854,1520,18.5655,-13.8967
637,-496,14.6411,10.1016,0,0,0,0,0,0,0,-1,1861,1520,14.6411,-10.1016
644,-496,12.4537,10.087,0,0,0,0,0,0,0,-1,1868,1520,12.4537,-10.0871
651,-496,8.18506,5.47803,0,0,0,0,0,0,0,-1,1875,1520,8.18505,-5.47806
658,-496,7.79993,4.02563,0,0,0,0,0,0,0,-1,1882,1520,7.79997,-4.02568
665,-496,5.47583,7.90625,0,0,0,0,0,0,0,-1,1889,1520,5.47581,-7.90628
672,-496,0,0,0,0,0,0,0,0,0,-1,1896,1520,0,0
679,-496,0,0,0,0,0,0,0,0,0,-1,1903,1520,0,0
686,-496,0,0,0,0,0,0,0,0,0,-1,1910,1520,0,0
693,-496,0,0,0,0,0,0,0,0,0,-1,1917,1520,0,0
700,-496,0,0,0,0,0,0,0,0,0,-1,1924,1520,0,0
707,-496,0,0,0,0,0,0,0,0,0,-1,1931,1520,0,0
714,-496,0,0,0,0,0,0,0,0,0,-1,1938,1520,0,0
721,-496,0,0,0,0,0,0,0,0,0,-1,1945,1520,0,0
728,-496,0,0,0,0,0,0,0,0,0,-1,1952,1520,0,0
735,-496,0,0,0,0,0,0,0,0,0,-1,1959,1520,0,0
742,-496,0,0,0,0,0,0,0,0,0,-1,1966,1520,0,0
749,-496,0,0,0,0,0,0,0,0,0,-1,1973,1520,0,0
756,-496,0,0,0,0,0,0,0,0,0,-1,1980,1520,0,0
763,-496,0,0,0,0,0,0,0,0,0,-1,1987,1520,0,0
770,-496,0,0,0,0,0,0,0,0,0,-1,1994,1520,0,0
777,-496,0,0,0,0,0,0,0,0,0,-1,2001,1520,0,0
784,-496,0,0,0,0,0,0,0,0,0,-1,2008,1520,0,0
791,-496,0,0,0,0,0,0,0,0,0,-1,2015,1520,0,0
798,-496,0,0,0,0,0,0,0,0,0,-1,2022,1520,0,0
805,-496,0,0,0,0,0,0,0,0,0,-1,2029,1520,0,0
812,-496,0,0,0,0,0,0,0,0,0,-1,2036,1520,0,0
-700,-503,0,0,0,0,0,0,0,0,0,-1,524,1527,0,0
-693,-503,0,0,0,0,0,0,0,0,0,-1,531,1527,0,0
-686,-503,0,0,0,0,0,0,0,0,0,-1,538,1527,0,0
-679,-503,0,0,0,0,0,0,0,0,0,-1,545,1527,0,0
-672,-503,0,0,0,0,0,0,0,0,0,-1,552,1527,0,0
-665,-503,0,0,0,0,0,0,0,0,0,-1,559,1527,0,0
-658,-503,0,0,0,0,0,0,0,0,0,-1,566,1527,0,0
-651,-503,0,0,0,0,0,0,0,0,0,-1,573,1527,0,0
-644,-503,0,0,0,0,0,0,0,0,0,-1,580,1527,0,0
-637,-503,0,0,0,0,0,0,0,0,0,-1,587,1527,0,0
-630,-503,0,0,0,0,0,0,0,0,0,-1,594,1527,0,0
-623,-503,0,0,0,0,0,0,0,0,0,-1,601,1527,0,0
-616,-503,0,0,0,0,0,0,0,0,0,-1,608,1527,0,0
-609,-503,0,0,0,0,0,0,0,0,0,-1,615,1527,0,0
-602,-503,0,0,0,0,0,0,0,0,0,-1,622,1527,0,0
-595,-503,0,0,0,0,0,0,0,0,0,-1,629,1527,0,0
-588,-503,0,0,0,0,0,0,0,0,0,-1,636,1527,0,0
-581,-503,0,0,0,0,0,0,0,0,0,-1,643,1527,0,0
-574,-503,0,0,0,0,0,0,0,0,0,-1,650,1527,0,0
-567,-503,0,0,0,0,0,0,0,0,0,-1,657,1527,0,0
-560,-503,0,0,0,0,0,0,0,0,0,-1,664,1527,0,0
-553,-503,0,0,0,0,0,0,0,0,0,-1,671,1527,0,0
-546,-503,0,0,0,0,0,0,0,0,0,-1,678,1527,0,0
-539,-503,3.50177,4.26428,0,0,0,0,0,0,0,-1,685,1527,3.50177,-4.26424
-532,-503,-3.13196,1.05298,0,0,0,0,0,0,0,-1,692,1527,-3.13194,-1.05299
-525,-503,-2.94293,2.59314,0,0,0,0,0,0,0,-1,699,1527,-2.94296,-2.59314
-518,-503,-2.7395,4.05872,0,0,0,0,0,0,0,-1,706,1527,-2.73948,-4.05871
-511,-503,-1.60022,7.23877,0,0,0,0,0,0,0,-1,713,1527,-1.60023,-7.23872
-504,-503,-8.1402,10.1541,0,0,0,0,0,0,0,-1,720,1527,-8.14017,-10.1541
-497,-503,-4.51758,14.0781,0,0,0,0,0,0,0,-1,727,1527,-4.5176,-14.0782
-490,-503,-4.24194,16.1982,0,0,0,0,0,0,0,-1,734,1527,-4.24196,-16.1982
-483,-503,-9.55774,23.7681,0,0,0,0,0,0,0,-1,741,1527,-9.55776,-23.7681
-476,-503,-9.90601,24.3589,0,0,0,0,0,0,0,-1,748,1527,-9.90604,-24.3589
-469,-503,-9.91205,25.2704,0.00245136,-0.00346308,0.00251045,0.00337325,-0.00438497,0.351934,0.00449189,0.01848,755,1527,-9.91208,-25.2704
-462,-503,-9.92993,26.1019,0.00150025,-0.00290501,0.00154323,0.00198707,-0.00339183,0.305575,0.00314061,0.0119879,762,1527,-9.92995,-26.102
-455,-503,-9.94226,26.9084,0.000955148,-0.00203495,0.00099745,0.00125734,-0.00233714,0.294175,0.00210626,0.0176605,769,1527,-9.94225,-26.9085
-448,-503,-9.96722,27.7051,0.000794852,-0.00096154,0.000825657,0.00112203,-0.00128872,0.377286,0.00139296,0.0164154,776,1527,-9.96721,-27.705
-441,-503,-9.98425,28.4633,0.000982419,0.000288634,0.00101,0.00170344,-0.000432389,0.619981,0.00130388,0.0128537,783,1527,-9.98426,-28.4632
-434,-503,-10.0707,29.2367,0.00146411,0.00166355,0.00147977,0.00304696,8.07018e-05,0.819041,0.00200495,0.0118971,790,1527,-10.0707,-29.2367
-427,-503,-10.1517,29.9755,0.00219049,0.0030434,0.00214165,0.00480064,0.000433251,0.883675,0.00306623,0.019252,797,1527,-10.1517,-29.9755
-420,-503,-10.1749,30.774,0.00318776,0.00449737,0.0030297,0.00694222,0.000742909,0.891825,0.00440146,0.0185429,804,1527,-10.1749,-30.774
-413,-503,-10.2138,31.5563,0.00460217,0.0059165,0.00430301,0.00961224,0.000906433,0.861174,0.0061284,0.0171917,811,1527,-10.2138,-31.5563
-406,-503,-10.2137,32.3558,0.0061672,0.00726649,0.00556877,0.0123127,0.00112102,0.834589,0.00786147,0.0270322,818,1527,-10.2137,-32.3559
-399,-503,-10.0865,33.3903,0.00782218,0.00897821,0.00705944,0.0154833,0.00131713,0.826246,0.00991234,0.0472566,825,1527,-10.0866,-33.3902
-392,-503,-9.72565,34.7023,0,0,0,0,0,0,0,-1,832,1527,-9.72562,-34.7023
-385,-503,-2.00403,14.1218,0,0,0,0,0,0,0,-1,839,1527,-2.00403,-14.1218
-378,-503,-2.07043,13.8632,0,0,0,0,0,0,0,-1,846,1527,-2.07043,-13.8631
-371,-503,-1.67285,13.8081,0,0,0,0,0,0,0,-1,853,1527,-1.67285,-13.8081
-364,-503,0.181396,12.3768,0,0,0,0,0,0,0,-1,860,1527,0.18138,-12.3768
-357,-503,0.558533,9.25452,0,0,0,0,0,0,0,-1,867,1527,0.558542,-9.25446
-350,-503,0.219971,6.84827,0,0,0,0,0,0,0,-1,874,1527,0.21996,-6.84831
-343,-503,-3.5802,4.43274,0,0,0,0,0,0,0,-1,881,1527,-3.58018,-4.43276
-336,-503,-3.2384,6.40637,0,0,0,0,0,0,0,-1,888,1527,-3.2384,-6.40643
-329,-503,-1.70691,11.886,0,0,0,0,0,0,0,-1,895,1527,-1.70689,-11.886
-322,-503,-3.31317,8.81519,0,0,0,0,0,0,0,-1,902,1527,-3.31315,-8.81524
-315,-503,-3.90265,7.73853,0,0,0,0,0,0,0,-1,909,1527,-3.90264,-7.73854
-308,-503,-1.70264,7.35413,0,0,0,0,0,0,0,-1,916,1527,-1.70262,-7.35416
-301,-503,0,0,0,0,0,0,0,0,0,-1,923,1527,0,0
-294,-503,0,0,0,0,0,0,0,0,0,-1,930,1527,0,0
-287,-503,0,0,0,0,0,0,0,0,0,-1,937,1527,0,0
-280,-503,0,0,0,0,0,0,0,0,0,-1,944,1527,0,0
-273,-503,0,0,0,0,0,0,0,0,0,-1,951,1527,0,0
-266,-503,0,0,0,0,0,0,0,0,0,-1,958,1527,0,0
-259,-503,0,0,0,0,0,0,0,0,0,-1,965,1527,0,0
-252,-503,0,0,0,0,0,0,0,0,0,-1,972,1527,0,0
-245,-503,0,0,0,0,0,0,0,0,0,-1,979,1527,0,0
-238,-503,0,0,0,0,0,0,0,0,0,-1,986,1527,0,0
-231,-503,0,0,0,0,0,0,0,0,0,-1,993,1527,0,0
-224,-503,0,0,0,0,0,0,0,0,0,-1,1000,1527,0,0
-217,-503,0,0,0,0,0,0,0,0,0,-1,1007,1527,0,0
-210,-503,0,0,0,0,0,0,0,0,0,-1,1014,1527,0,0
-203,-503,0,0,0,0,0,0,0,0,0,-1,1021,1527,0,0
-196,-503,0,0,0,0,0,0,0,0,0,-1,1028,1527,0,0
-189,-503,0,0,0,0,0,0,0,0,0,-1,1035,1527,0,0
-182,-503,0,0,0,0,0,0,0,0,0,-1,1042,1527,0,0
-175,-503,0,0,0,0,0,0,0,0,0,-1,1049,1527,0,0
-168,-503,0,0,0,0,0,0,0,0,0,-1,1056,1527,0,0
-161,-503,0,0,0,0,0,0,0,0,0,-1,1063,1527,0,0
-154,-503,0,0,0,0,0,0,0,0,0,-1,1070,1527,0,0
-147,-503,0,0,0,0,0,0,0,0,0,-1,1077,1527,0,0
-140,-503,0,0,0,0,0,0,0,0,0,-1,1084,1527,0,0
-133,-503,0,0,0,0,0,0,0,0,0,-1,1091,1527,0,0
-126,-503,0,0,0,0,0,0,0,0,0,-1,1098,1527,0,0
-119,-503,0,0,0,0,0,0,0,0,0,-1,1105,1527,0,0
-112,-503,0,0,0,0,0,0,0,0,0,-1,1112,1527,0,0
-105,-503,0,0,0,0,0,0,0,0,0,-1,1119,1527,0,0
-98,-503,0,0,0,0,0,0,0,0,0,-1,1126,1527,0,0
-91,-503,0,0,0,0,0,0,0,0,0,-1,1133,1527,0,0
-84,-503,0,0,0,0,0,0,0,0,0,-1,1140,1527,0,0
-77,-503,0,0,0,0,0,0,0,0,0,-1,1147,1527,0,0
-70,-503,0,0,0,0,0,0,0,0,0,-1,1154,1527,0,0
-63,-503,0,0,0,0,0,0,0,0,0,-1,1161,1527,0,0
-56,-503,0,0,0,0,0,0,0,0,0,-1,1168,1527,0,0
-49,-503,0,0,0,0,0,0,0,0,0,-1,1175,1527,0,0
-42,-503,0,0,0,0,0,0,0,0,0,-1,1182,1527,0,0
-35,-503,0,0,0,0,0,0,0,0,0,-1,1189,1527,0,0
-28,-503,0,0,0,0,0,0,0,0,0,-1,1196,1527,0,0
-21,-503,0,0,0,0,0,0,0,0,0,-1,1203,1527,0,0
-14,-503,0,0,0,0,0,0,0,0,0,-1,1210,1527,0,0
-7,-503,0,0,0,0,0,0,0,0,0,-1,1217,1527,0,0
0,-503,0,0,0,0,0,0,0,0,0,-1,1224,1527,0,0
7,-503,0,0,0,0,0,0,0,0,0,-1,1231,1527,0,0
14,-503,0,0,0,0,0,0,0,0,0,-1,1238,1527,0,0
21,-503,0,0,0,0,0,0,0,0,0,-1,1245,1527,0,0
28,-503,0,0,0,0,0,0,0,0,0,-1,1252,1527,0,0
35,-503,0,0,0,0,0,0,0,0,0,-1,1259,1527,0,0
42,-503,0,0,0,0,0,0,0,0,0,-1,1266,1527,0,0
49,-503,0,0,0,0,0,0,0,0,0,-1,1273,1527,0,0
56,-503,0,0,0,0,0,0,0,0,0,-1,1280,1527,0,0
63,-503,0,0,0,0,0,0,0,0,0,-1,1287,1527,0,0
70,-503,0,0,0,0,0,0,0,0,0,-1,1294,1527,0,0
77,-503,0,0,0,0,0,0,0,0,0,-1,1301,1527,0,0
84,-503,0,0,0,0,0,0,0,0,0,-1,1308,1527,0,0
91,-503,0,0,0,0,0,0,0,0,0,-1,1315,1527,0,0
98,-503,0,0,0,0,0,0,0,0,0,-1,1322,1527,0,0
105,-503,0,0,0,0,0,0,0,0,0,-1,1329,1527,0,0
112,-503,0,0,0,0,0,0,0,0,0,-1,1336,1527,0,0
119,-503,0,0,0,0,0,0,0,0,0,-1,1343,1527,0,0
126,-503,0,0,0,0,0,0,0,0,0,-1,1350,1527,0,0
133,-503,0,0,0,0,0,0,0,0,0,-1,1357,1527,0,0
140,-503,0,0,0,0,0,0,0,0,0,-1,1364,1527,0,0
147,-503,0,0,0,0,0,0,0,0,0,-1,1371,1527,0,0
154,-503,0,0,0,0,0,0,0,0,0,-1,1378,1527,0,0
161,-503,0,0,0,0,0,0,0,0,0,-1,1385,1527,0,0
168,-503,0,0,0,0,0,0,0,0,0,-1,1392,1527,0,0
175,-503,0,0,0,0,0,0,0,0,0,-1,1399,1527,0,0
182,-503,0,0,0,0,0,0,0,0,0,-1,1406,1527,0,0
189,-503,0,0,0,0,0,0,0,0,0,-1,1413,1527,0,0
196,-503,0,0,0,0,0,0,0,0,0,-1,1420,1527,0,0
203,-503,0,0,0,0,0,0,0,0,0,-1,1427,1527,0,0
210,-503,0,0,0,0,0,0,0,0,0,-1,1434,1527,0,0
217,-503,0,0,0,0,0,0,0,0,0,-1,1441,1527,0,0
224,-503,0,0,0,0,0,0,0,0,0,-1,1448,1527,0,0
231,-503,0,0,0,0,0,0,0,0,0,-1,1455,1527,0,0
238,-503,0,0,0,0,0,0,0,0,0,-1,1462,1527,0,0
245,-503,0,0,0,0,0,0,0,0,0,-1,1469,1527,0,0
252,-503,0,0,0,0,0,0,0,0,0,-1,1476,1527,0,0
259,-503,0,0,0,0,0,0,0,0,0,-1,1483,1527,0,0
266,-503,0,0,0,0,0,0,0,0,0,-1,1490,1527,0,0
273,-503,0,0,0,0,0,0,0,0,0,-1,1497,1527,0,0
280,-503,0,0,0,0,0,0,0,0,0,-1,1504,1527,0,0
287,-503,0,0,0,0,0,0,0,0,0,-1,1511,1527,0,0
294,-503,0,0,0,0,0,0,0,0,0,-1,1518,1527,0,0
301,-503,0,0,0,0,0,0,0,0,0,-1,1525,1527,0,0
308,-503,0,0,0,0,0,0,0,0,0,-1,1532,1527,0,0
315,-503,0,0,0,0,0,0,0,0,0,-1,1539,1527,0,0
322,-503,0,0,0,0,0,0,0,0,0,-1,1546,1527,0,0
329,-503,0,0,0,0,0,0,0,0,0,-1,1553,1527,0,0
336,-503,0,0,0,0,0,0,0,0,0,-1,1560,1527,0,0
343,-503,0,0,0,0,0,0,0,0,0,-1,1567,1527,0,0
350,-503,0,0,0,0,0,0,0,0,0,-1,1574,1527,0,0
357,-503,0,0,0,0,0,0,0,0,0,-1,1581,1527,0,0
364,-503,0,0,0,0,0,0,0,0,0,-1,1588,1527,0,0
371,-503,0,0,0,0,0,0,0,0,0,-1,1595,1527,0,0
378,-503,0,0,0,0,0,0,0,0,0,-1,1602,1527,0,0
385,-503,0,0,0,0,0,0,0,0,0,-1,1609,1527,0,0
392,-503,0,0,0,0,0,0,0,0,0,-1,1616,1527,0,0
399,-503,0,0,0,0,0,0,0,0,0,-1,1623,1527,0,0
406,-503,0,0,0,0,0,0,0,0,0,-1,1630,1527,0,0
413,-503,0,0,0,0,0,0,0,0,0,-1,1637,1527,0,0
420,-503,0,0,0,0,0,0,0,0,0,-1,1644,1527,0,0
427,-503,10.5968,4.9856,0,0,0,0,0,0,0,-1,1651,1527,10.5969,-4.98563
434,-503,11.4329,3.97217,0,0,0,0,0,0,0,-1,1658,1527,11.4328,-3.97222
441,-503,12.0957,2.96509,0,0,0,0,0,0,0,-1,1665,1527,12.0957,-2.96512
448,-503,12.3259,2.53894,0,0,0,0,0,0,0,-1,1672,1527,12.326,-2.53895
455,-503,12.1669,2.18762,0,0,0,0,0,0,0,-1,1679,1527,12.1668,-2.18767
462,-503,11.59,2.60791,0,0,0,0,0,0,0,-1,1686,1527,11.5899,-2.60794
469,-503,11.1625,1.61853,0,0,0,0,0,0,0,-1,1693,1527,11.1625,-1.61856
476,-503,9.07703,5.81042,0,0,0,0,0,0,0,-1,1700,1527,9.07699,-5.81047
483,-503,9.74414,6.92432,0,0,0,0,0,0,0,-1,1707,1527,9.74417,-6.9243
490,-503,10.5033,10.1071,0,0,0,0,0,0,0,-1,1714,1527,10.5032,-10.107
497,-503,15.0057,17.9476,0,0,0,0,0,0,0,-1,1721,1527,15.0058,-17.9476
504,-503,16.4764,18.4486,0,0,0,0,0,0,0,-1,1728,1527,16.4764,-18.4486
511,-503,16.8276,18.3271,0,0,0,0,0,0,0,-1,1735,1527,16.8276,-18.3272
518,-503,17.2533,18.2738,0,0,0,0,0,0,0,-1,1742,1527,17.2533,-18.2738
525,-503,21.2887,26.5785,0,0,0,0,0,0,0,-1,1749,1527,21.2887,-26.5785
532,-503,27.5077,33.3131,0,0,0,0,0,0,0,-1,1756,1527,27.5077,-33.3131
539,-503,27.5415,32.4342,0.00894624,0.00621341,-0.00549318,0.0132404,0.00191926,-0.663498,0.00826183,0.0332963,1763,1527,27.5415,-32.4342
546,-503,27.5955,31.5354,0.00709396,0.00472416,-0.00414898,0.0102239,0.0015942,-0.646306,0.00635159,0.0148974,1770,1527,27.5954,-31.5354
553,-503,27.6157,30.7957,0.00569863,0.00345324,-0.00303666,0.00781348,0.00133839,-0.608334,0.00482514,0.014935,1777,1527,27.6157,-30.7957
560,-503,27.5818,30.0574,0.00457765,0.00241724,-0.00215101,0.00590445,0.00109044,-0.552702,0.00362787,0.0141914,1784,1527,27.5818,-30.0574
567,-503,27.5581,29.2554,0.00373998,0.00166321,-0.00154297,0.00456143,0.00084175,-0.489219,0.00280283,0.0126561,1791,1527,27.5581,-29.2554
574,-503,27.4911,28.5039,0.00318158,0.00115143,-0.00115144,0.00370149,0.000631521,-0.424129,0.00228641,0.0128939,1798,1527,27.4911,-28.5039
581,-503,27.4275,27.7772,0.00278623,0.000758819,-0.000876912,0.00311289,0.000432161,-0.356585,0.00194726,0.015219,1805,1527,27.4275,-27.7772
588,-503,27.4117,27.0376,0.00259881,0.000519998,-0.000783343,0.00286093,0.00025787,-0.322915,0.00182741,0.0195103,1812,1527,27.4117,-27.0376
595,-503,27.387,26.2722,0.00263946,0.000442408,-0.000767779,0.00288117,0.000200694,-0.305,0.0018575,0.0145591,1819,1527,27.387,-26.2723
602,-503,27.4014,25.4492,0.00282002,0.000580777,-0.00088789,0.00312935,0.000271447,-0.335238,0.00200189,0.0240372,1826,1527,27.4013,-25.4493
609,-503,27.4219,24.4808,0,0,0,0,0,0,0,-1,1833,1527,27.4219,-24.4808
616,-503,27.6136,23.7504,0,0,0,0,0,0,0,-1,1840,1527,27.6136,-23.7504
623,-503,18.7351,15.5999,0,0,0,0,0,0,0,-1,1847,1527,18.7351,-15.5999
630,-503,20.6721,13.9077,0,0,0,0,0,0,0,-1,1854,1527,20.6721,-13.9077
637,-503,14.5564,9.20496,0,0,0,0,0,0,0,-1,1861,1527,14.5564,-9.2049
644,-503,11.4802,7.57214,0,0,0,0,0,0,0,-1,1868,1527,11.4802,-7.57215
651,-503,11.5718,6.5448,0,0,0,0,0,0,0,-1,1875,1527,11.5718,-6.54476
658,-503,8.25635,3.10498,0,0,0,0,0,0,0,-1,1882,1527,8.2563,-3.10493
665,-503,0,0,0,0,0,0,0,0,0,-1,1889,1527,0,0
672,-503,0,0,0,0,0,0,0,0,0,-1,1896,1527,0,0
679,-503,0,0,0,0,0,0,0,0,0,-1,1903,1527,0,0
686,-503,0,0,0,0,0,0,0,0,0,-1,1910,1527,0,0
693,-503,0,0,0,0,0,0,0,0,0,-1,1917,1527,0,0
700,-503,0,0,0,0,0,0,0,0,0,-1,1924,1527,0,0
707,-503,0,0,0,0,0,0,0,0,0,-1,1931,1527,0,0
714,-503,0,0,0,0,0,0,0,0,0,-1,1938,1527,0,0
721,-503,0,0,0,0,0,0,0,0,0,-1,1945,1527,0,0
728,-503,0,0,0,0,0,0,0,0,0,-1,1952,1527,0,0
735,-503,0,0,0,0,0,0,0,0,0,-1,1959,1527,0,0
742,-503,0,0,0,0,0,0,0,0,0,-1,1966,1527,0,0
749,-503,0,0,0,0,0,0,0,0,0,-1,1973,1527,0,0
756,-503,0,0,0,0,0,0,0,0,0,-1,1980,1527,0,0
763,-503,0,0,0,0,0,0,0,0,0,-1,1987,1527,0,0
770,-503,0,0,0,0,0,0,0,0,0,-1,1994,1527,0,0
777,-503,0,0,0,0,0,0,0,0,0,-1,2001,1527,0,0
784,-503,0,0,0,0,0,0,0,0,0,-1,2008,1527,0,0
791,-503,0,0,0,0,0,0,0,0,0,-1,2015,1527,0,0
798,-503,0,0,0,0,0,0,0,0,0,-1,2022,1527,0,0
805,-503,0,0,0,0,0,0,0,0,0,-1,2029,1527,0,0
812,-503,0,0,0,0,0,0,0,0,0,-1,2036,1527,0,0
-700,-510,0,0,0,0,0,0,0,0,0,-1,524,1534,0,0
-693,-510,0,0,0,0,0,0,0,0,0,-1,531,1534,0,0
-686,-510,0,0,0,0,0,0,0,0,0,-1,538,1534,0,0
-679,-510,0,0,0,0,0,0,0,0,0,-1,545,1534,0,0
-672,-510,0,0,0,0,0,0,0,0,0,-1,552,1534,0,0
-665,-510,0,0,0,0,0,0,0,0,0,-1,559,1534,0,0
-658,-510,0,0,0,0,0,0,0,0,0,-1,566,1534,0,0
-651,-510,0,0,0,0,0,0,0,0,0,-1,573,1534,0,0
-644,-510,0,0,0,0,0,0,0,0,0,-1,580,1534,0,0
-637,-510,0,0,0,0,0,0,0,0,0,-1,587,1534,0,0
-630,-510,0,0,0,0,0,0,0,0,0,-1,594,1534,0,0
-623,-510,0,0,0,0,0,0,0,0,0,-1,601,1534,0,0
-616,-510,0,0,0,0,0,0,0,0,0,-1,608,1534,0,0
-609,-510,0,0,0,0,0,0,0,0,0,-1,615,1534,0,0
-602,-510,0,0,0,0,0,0,0,0,0,-1,622,1534,0,0
-595,-510,0,0,0,0,0,0,0,0,0,-1,629,1534,0,0
-588,-510,0,0,0,0,0,0,0,0,0,-1,636,1534,0,0
-581,-510,0,0,0,0,0,0,0,0,0,-1,643,1534,0,0
-574,-510,0,0,0,0,0,0,0,0,0,-1,650,1534,0,0
-567,-510,0,0,0,0,0,0,0,0,0,-1,657,1534,0,0
-560,-510,0,0,0,0,0,0,0,0,0,-1,664,1534,0,0
-553,-510,0,0,0,0,0,0,0,0,0,-1,671,1534,0,0
-546,-510,0,0,0,0,0,0,0,0,0,-1,678,1534,0,0
-539,-510,0,0,0,0,0,0,0,0,0,-1,685,1534,0,0
-532,-510,-3.95129,4.52014,0,0,0,0,0,0,0,-1,692,1534,-3.95131,-4.5202
-525,-510,-2.77411,0.316772,0,0,0,0,0,0,0,-1,699,1534,-2.77409,-0.3168
-518,-510,-2.86847,2.71423,0,0,0,0,0,0,0,-1,706,1534,-2.86849,-2.71424
-511,-510,-2.28571,4.48083,0,0,0,0,0,0,0,-1,713,1534,-2.28571,-4.48086
-504,-510,-4.86731,10.8224,0,0,0,0,0,0,0,-1,720,1534,-4.8673,-10.8224
-497,-510,-3.42352,15.5178,0,0,0,0,0,0,0,-1,727,1534,-3.42352,-15.5178
-490,-510,-5.9472,18.5184,0,0,0,0,0,0,0,-1,734,1534,-5.94718,-18.5185
-483,-510,-6.79639,20.8453,0,0,0,0,0,0,0,-1,741,1534,-6.79638,-20.8454
-476,-510,-9.1311,24.5027,0,0,0,0,0,0,0,-1,748,1534,-9.13112,-24.5026
-469,-510,-9.08051,25.3372,0.00257527,-0.00573844,0.00254623,0.00329312,-0.00645628,0.274794,0.00572672,0.0257473,755,1534,-9.0805,-25.3371
-462,-510,-9.11816,26.1147,0.00127716,-0.00481059,0.0013455,0.00156128,-0.00509471,0.208105,0.00401928,0.0125503,762,1534,-9.11816,-26.1148
-455,-510,-9.1543,26.9381,0.000493551,-0.0036356,0.000638504,0.000590031,-0.00373208,0.149968,0.00270626,0.0148633,769,1534,-9.15431,-26.9381
-448,-510,-9.16864,27.7302,0.000151386,-0.00241077,0.000311867,0.000188801,-0.00244818,0.119398,0.00169856,0.0138627,776,1534,-9.16864,-27.7302
-441,-510,-9.20477,28.4874,0.000239325,-0.0010513,0.000397825,0.000352097,-0.00116407,0.276226,0.000916249,0.0137327,783,1534,-9.20477,-28.4875
-434,-510,-9.29077,29.2531,0.000641242,0.000346335,0.000767949,0.00127577,-0.000288189,0.690548,0.000961086,0.0149674,790,1534,-9.29078,-29.253
-427,-510,-9.37726,29.9753,0.00127839,0.00165658,0.00130765,0.00278874,0.000146228,0.857204,0.00181238,0.0240404,797,1534,-9.37724,-29.9753
-420,-510,-9.40393,30.7905,0.00216249,0.00297994,0.00204122,0.00465296,0.00048948,0.884209,0.00295237,0.0229291,804,1534,-9.40391,-30.7905
-413,-510,-9.41974,31.6121,0.00335574,0.0042566,0.00304208,0.00688142,0.000730925,0.858898,0.00436442,0.0117279,811,1534,-9.41972,-31.612
-406,-510,-9.48083,32.37,0.0046801,0.00544666,0.00407226,0.00915364,0.000973123,0.83232,0.0058053,0.0108488,818,1534,-9.48084,-32.37
-399,-510,-9.51935,33.1311,0.00603438,0.0068589,0.00522096,0.0116839,0.00120943,0.824798,0.00741903,0.0162415,825,1534,-9.51937,-33.1311
-392,-510,-9.40332,33.9301,0,0,0,0,0,0,0,-1,832,1534,-9.40333,-33.9301
-385,-510,-7.23199,31.704,0,0,0,0,0,0,0,-1,839,1534,-7.23198,-31.704
-378,-510,-1.78308,13.8044,0,0,0,0,0,0,0,-1,846,1534,-1.78309,-13.8044
-371,-510,-1.74982,13.8027,0,0,0,0,0,0,0,-1,853,1534,-1.74981,-13.8028
-364,-510,-1.3479,13.7771,0,0,0,0,0,0,0,-1,860,1534,-1.34791,-13.7771
-357,-510,-0.254395,8.89575,0,0,0,0,0,0,0,-1,867,1534,-0.254397,-8.89569
-350,-510,0.471191,6.06458,0,0,0,0,0,0,0,-1,874,1534,0.47118,-6.06453
-343,-510,-6.96869,26.3074,0,0,0,0,0,0,0,-1,881,1534,-6.9687,-26.3074
-336,-510,-5.60437,29.5996,0,0,0,0,0,0,0,-1,888,1534,-5.60435,-29.5996
-329,-510,-4.87781,20.6893,0,0,0,0,0,0,0,-1,895,1534,-4.87782,-20.6894
-322,-510,-0.251526,11.973,0,0,0,0,0,0,0,-1,902,1534,-0.251497,-11.9731
-315,-510,-1.73047,10.9796,0,0,0,0,0,0,0,-1,909,1534,-1.73049,-10.9796
-308,-510,-2.05328,9.72034,0,0,0,0,0,0,0,-1,916,1534,-2.05327,-9.72036
-301,-510,-1.85437,11.5869,0,0,0,0,0,0,0,-1,923,1534,-1.85437,-11.5869
-294,-510,0,0,0,0,0,0,0,0,0,-1,930,1534,0,0
-287,-510,0,0,0,0,0,0,0,0,0,-1,937,1534,0,0
-280,-510,0,0,0,0,0,0,0,0,0,-1,944,1534,0,0
-273,-510,0,0,0,0,0,0,0,0,0,-1,951,1534,0,0
-266,-510,0,0,0,0,0,0,0,0,0,-1,958,1534,0,0
-259,-510,0,0,0,0,0,0,0,0,0,-1,965,1534,0,0
-252,-510,0,0,0,0,0,0,0,0,0,-1,972,1534,0,0
-245,-510,0,0,0,0,0,0,0,0,0,-1,979,1534,0,0
-238,-510,0,0,0,0,0,0,0,0,0,-1,986,1534,0,0
-231,-510,0,0,0,0,0,0,0,0,0,-1,993,1534,0,0
-224,-510,0,0,0,0,0,0,0,0,0,-1,1000,1534,0,0
-217,-510,0,0,0,0,0,0,0,0,0,-1,1007,1534,0,0
-210,-510,0,0,0,0,0,0,0,0,0,-1,1014,1534,0,0
-203,-510,0,0,0,0,0,0,0,0,0,-1,1021,1534,0,0
-196,-510,0,0,0,0,0,0,0,0,0,-1,1028,1534,0,0
-189,-510,0,0,0,0,0,0,0,0,0,-1,1035,1534,0,0
-182,-510,0,0,0,0,0,0,0,0,0,-1,1042,1534,0,0
-175,-510,0,0,0,0,0,0,0,0,0,-1,1049,1534,0,0
-168,-510,0,0,0,0,0,0,0,0,0,-1,1056,1534,0,0
-161,-510,0,0,0,0,0,0,0,0,0,-1,1063,1534,0,0
-154,-510,0,0,0,0,0,0,0,0,0,-1,1070,1534,0,0
-147,-510,0,0,0,0,0,0,0,0,0,-1,1077,1534,0,0
-140,-510,0,0,0,0,0,0,0,0,0,-1,1084,1534,0,0
-133,-510,0,0,0,0,0,0,0,0,0,-1,1091,1534,0,0
-126,-510,0,0,0,0,0,0,0,0,0,-1,1098,1534,0,0
-119,-510,0,0,0,0,0,0,0,0,0,-1,1105,1534,0,0
-112,-510,0,0,0,0,0,0,0,0,0,-1,1112,1534,0,0
-105,-510,0,0,0,0,0,0,0,0,0,-1,1119,1534,0,0
-98,-510,0,0,0,0,0,0,0,0,0,-1,1126,1534,0,0
-91,-510,0,0,0,0,0,0,0,0,0,-1,1133,1534,0,0
-84,-510,0,0,0,0,0,0,0,0,0,-1,1140,1534,0,0
-77,-510,0,0,0,0,0,0,0,0,0,-1,1147,1534,0,0
-70,-510,0,0,0,0,0,0,0,0,0,-1,1154,1534,0,0
-63,-510,0,0,0,0,0,0,0,0,0,-1,1161,1534,0,0
-56,-510,0,0,0,0,0,0,0,0,0,-1,1168,1534,0,0
-49,-510,0,0,0,0,0,0,0,0,0,-1,1175,1534,0,0
-42,-510,0,0,0,0,0,0,0,0,0,-1,1182,1534,0,0
-35,-510,0,0,0,0,0,0,0,0,0,-1,1189,1534,0,0
-28,-510,0,0,0,0,0,0,0,0,0,-1,1196,1534,0,0
-21,-510,0,0,0,0,0,0,0,0,0,-1,1203,1534,0,0
-14,-510,0,0,0,0,0,0,0,0,0,-1,1210,1534,0,0
-7,-510,0,0,0,0,0,0,0,0,0,-1,1217,1534,0,0
0,-510,0,0,0,0,0,0,0,0,0,-1,1224,1534,0,0
7,-510,0,0,0,0,0,0,0,0,0,-1,1231,1534,0,0
14,-510,0,0,0,0,0,0,0,0,0,-1,1238,1534,0,0
21,-510,0,0,0,0,0,0,0,0,0,-1,1245,1534,0,0
28,-510,0,0,0,0,0,0,0,0,0,-1,1252,1534,0,0
35,-510,0,0,0,0,0,0,0,0,0,-1,1259,1534,0,0
42,-510,0,0,0,0,0,0,0,0,0,-1,1266,1534,0,0
49,-510,0,0,0,0,0,0,0,0,0,-1,1273,1534,0,0
56,-510,0,0,0,0,0,0,0,0,0,-1,1280,1534,0,0
63,-510,0,0,0,0,0,0,0,0,0,-1,1287,1534,0,0
70,-510,0,0,0,0,0,0,0,0,0,-1,1294,1534,0,0
77,-510,0,0,0,0,0,0,0,0,0,-1,1301,1534,0,0
84,-510,0,0,0,0,0,0,0,0,0,-1,1308,1534,0,0
91,-510,0,0,0,0,0,0,0,0,0,-1,1315,1534,0,0
98,-510,0,0,0,0,0,0,0,0,0,-1,1322,1534,0,0
105,-510,0,0,0,0,0,0,0,0,0,-1,1329,1534,0,0
112,-510,0,0,0,0,0,0,0,0,0,-1,1336,1534,0,0
119,-510,0,0,0,0,0,0,0,0,0,-1,1343,1534,0,0
126,-510,0,0,0,0,0,0,0,0,0,-1,1350,1534,0,0
133,-510,0,0,0,0,0,0,0,0,0,-1,1357,1534,0,0
140,-510,0,0,0,0,0,0,0,0,0,-1,1364,1534,0,0
147,-510,0,0,0,0,0,0,0,0,0,-1,1371,1534,0,0
154,-510,0,0,0,0,0,0,0,0,0,-1,1378,1534,0,0
161,-510,0,0,0,0,0,0,0,0,0,-1,1385,1534,0,0
168,-510,0,0,0,0,0,0,0,0,0,-1,1392,1534,0,0
175,-510,0,0,0,0,0,0,0,0,0,-1,1399,1534,0,0
182,-510,0,0,0,0,0,0,0,0,0,-1,1406,1534,0,0
189,-510,0,0,0,0,0,0,0,0,0,-1,1413,1534,0,0
196,-510,0,0,0,0,0,0,0,0,0,-1,1420,1534,0,0
203,-510,0,0,0,0,0,0,0,0,0,-1,1427,1534,0,0
210,-510,0,0,0,0,0,0,0,0,0,-1,1434,1534,0,0
217,-510,0,0,0,0,0,0,0,0,0,-1,1441,1534,0,0
224,-510,0,0,0,0,0,0,0,0,0,-1,1448,1534,0,0
231,-510,0,0,0,0,0,0,0,0,0,-1,1455,1534,0,0
238,-510,0,0,0,0,0,0,0,0,0,-1,1462,1534,0,0
245,-510,0,0,0,0,0,0,0,0,0,-1,1469,1534,0,0
252,-510,0,0,0,0,0,0,0,0,0,-1,1476,1534,0,0
259,-510,0,0,0,0,0,0,0,0,0,-1,1483,1534,0,0
266,-510,0,0,0,0,0,0,0,0,0,-1,1490,1534,0,0
273,-510,0,0,0,0,0,0,0,0,0,-1,1497,1534,0,0
280,-510,0,0,0,0,0,0,0,0,0,-1,1504,1534,0,0
287,-510,0,0,0,0,0,0,0,0,0,-1,1511,1534,0,0
294,-510,0,0,0,0,0,0,0,0,0,-1,1518,1534,0,0
301,-510,0,0,0,0,0,0,0,0,0,-1,1525,1534,0,0
308,-510,0,0,0,0,0,0,0,0,0,-1,1532,1534,0,0
315,-510,0,0,0,0,0,0,0,0,0,-1,1539,1534,0,0
322,-510,0,0,0,0,0,0,0,0,0,-1,1546,1534,0,0
329,-510,0,0,0,0,0,0,0,0,0,-1,1553,1534,0,0
336,-510,0,0,0,0,0,0,0,0,0,-1,1560,1534,0,0
343,-510,0,0,0,0,0,0,0,0,0,-1,1567,1534,0,0
350,-510,0,0,0,0,0,0,0,0,0,-1,1574,1534,0,0
357,-510,0,0,0,0,0,0,0,0,0,-1,1581,1534,0,0
364,-510,0,0,0,0,0,0,0,0,0,-1,1588,1534,0,0
371,-510,0,0,0,0,0,0,0,0,0,-1,1595,1534,0,0
378,-510,0,0,0,0,0,0,0,0,0,-1,1602,1534,0,0
385,-510,0,0,0,0,0,0,0,0,0,-1,1609,1534,0,0
392,-510,0,0,0,0,0,0,0,0,0,-1,1616,1534,0,0
399,-510,0,0,0,0,0,0,0,0,0,-1,1623,1534,0,0
406,-510,0,0,0,0,0,0,0,0,0,-1,1630,1534,0,0
413,-510,0,0,0,0,0,0,0,0,0,-1,1637,1534,0,0
420,-510,14.1888,6.71936,0,0,0,0,0,0,0,-1,1644,1534,14.1889,-6.71939
427,-510,10.2134,5.59485,0,0,0,0,0,0,0,-1,1651,1534,10.2134,-5.59485
434,-510,11.8219,4.07898,0,0,0,0,0,0,0,-1,1658,1534,11.8219,-4.07895
441,-510,12.6812,3.02991,0,0,0,0,0,0,0,-1,1665,1534,12.6811,-3.0299
448,-510,13.2379,2.2804,0,0,0,0,0,0,0,-1,1672,1534,13.2379,-2.28037
455,-510,9.76892,2.20642,0,0,0,0,0,0,0,-1,1679,1534,9.76894,-2.20647
462,-510,9.84692,2.49182,0,0,0,0,0,0,0,-1,1686,1534,9.84695,-2.49185
469,-510,16.6072,7.26941,0,0,0,0,0,0,0,-1,1693,1534,16.6072,-7.26945
476,-510,15.9199,7.8645,0,0,0,0,0,0,0,-1,1700,1534,15.9199,-7.86455
483,-510,13.0833,8.10938,0,0,0,0,0,0,0,-1,1707,1534,13.0833,-8.10932
490,-510,13.0841,15.3286,0,0,0,0,0,0,0,-1,1714,1534,13.0841,-15.3286
497,-510,15.5652,18.823,0,0,0,0,0,0,0,-1,1721,1534,15.5652,-18.823
504,-510,15.998,18.7478,0,0,0,0,0,0,0,-1,1728,1534,15.998,-18.7478
511,-510,15.9443,18.0476,0,0,0,0,0,0,0,-1,1735,1534,15.9443,-18.0476
518,-510,21.5343,27.1368,0,0,0,0,0,0,0,-1,1742,1534,21.5342,-27.1368
525,-510,26.5684,34.2162,0,0,0,0,0,0,0,-1,1749,1534,26.5684,-34.2162
532,-510,26.8665,33.1881,0.00907566,0.00703697,-0.00589339,0.0140372,0.00207542,-0.699763,0.00874878,0.0311868,1756,1534,26.8664,-33.1881
539,-510,26.9183,32.3068,0.00716376,0.00534589,-0.00453114,0.0108762,0.00163342,-0.686413,0.00677233,0.0151087,1763,1534,26.9183,-32.3068
546,-510,26.8661,31.5789,0.00571628,0.00404713,-0.00344764,0.00842892,0.00133449,-0.666647,0.0052315,0.0142394,1770,1534,26.8661,-31.5789
553,-510,26.8383,30.8383,0.00462196,0.00296055,-0.00253253,0.00645654,0.00112596,-0.62692,0.00398246,0.0143375,1777,1534,26.8382,-30.8383
560,-510,26.7897,30.071,0.00376861,0.00205451,-0.00179158,0.00489758,0.000925531,-0.562299,0.00300445,0.0140231,1784,1534,26.7897,-30.071
567,-510,26.7498,29.2847,0.00317888,0.00140268,-0.00128469,0.00385255,0.000729003,-0.482968,0.00236315,0.0131173,1791,1534,26.7497,-29.2847
574,-510,26.7131,28.5476,0.00285931,0.000971751,-0.000970839,0.0032695,0.000561555,-0.399766,0.00201869,0.01422,1798,1534,26.7131,-28.5476
581,-510,26.6761,27.8453,0.00274008,0.000657507,-0.00078528,0.00300299,0.000394591,-0.323074,0.00188429,0.0134059,1805,1534,26.6761,-27.8454
588,-510,26.656,27.1036,0.00282993,0.000523855,-0.000794123,0.00307693,0.000276846,-0.301559,0.00196552,0.0146446,1812,1534,26.656,-27.1036
595,-510,26.7543,26.2142,0.00312128,0.000593652,-0.000915792,0.0034182,0.000296729,-0.313531,0.00218661,0.021853,1819,1534,26.7542,-26.2142
602,-510,26.7753,25.3646,0,0,0,0,0,0,0,-1,1826,1534,26.7753,-25.3646
609,-510,21.259,19.222,0,0,0,0,0,0,0,-1,1833,1534,21.259,-19.222
616,-510,18.7024,16.2474,0,0,0,0,0,0,0,-1,1840,1534,18.7024,-16.2474
623,-510,19.6013,14.6211,0,0,0,0,0,0,0,-1,1847,1534,19.6013,-14.6211
630,-510,13.7461,9.30334,0,0,0,0,0,0,0,-1,1854,1534,13.7461,-9.30335
637,-510,11.0155,7.38464,0,0,0,0,0,0,0,-1,1861,1534,11.0155,-7.38463
644,-510,11.5809,7.17126,0,0,0,0,0,0,0,-1,1868,1534,11.5809,-7.17123
651,-510,8.70471,3.5061,0,0,0,0,0,0,0,-1,1875,1534,8.70475,-3.50611
658,-510,0,0,0,0,0,0,0,0,0,-1,1882,1534,0,0
665,-510,0,0,0,0,0,0,0,0,0,-1,1889,1534,0,0
672,-510,0,0,0,0,0,0,0,0,0,-1,1896,1534,0,0
679,-510,0,0,0,0,0,0,0,0,0,-1,1903,1534,0,0
686,-510,0,0,0,0,0,0,0,0,0,-1,1910,1534,0,0
693,-510,0,0,0,0,0,0,0,0,0,-1,1917,1534,0,0
700,-510,0,0,0,0,0,0,0,0,0,-1,1924,1534,0,0
707,-510,0,0,0,0,0,0,0,0,0,-1,1931,1534,0,0
714,-510,0,0,0,0,0,0,0,0,0,-1,1938,1534,0,0
721,-510,0,0,0,0,0,0,0,0,0,-1,1945,1534,0,0
728,-510,0,0,0,0,0,0,0,0,0,-1,1952,1534,0,0
735,-510,0,0,0,0,0,0,0,0,0,-1,1959,1534,0,0
742,-510,0,0,0,0,0,0,0,0,0,-1,1966,1534,0,0
749,-510,0,0,0,0,0,0,0,0,0,-1,1973,1534,0,0
756,-510,0,0,0,0,0,0,0,0,0,-1,1980,1534,0,0
763,-510,0,0,0,0,0,0,0,0,0,-1,1987,1534,0,0
770,-510,0,0,0,0,0,0,0,0,0,-1,1994,1534,0,0
777,-510,0,0,0,0,0,0,0,0,0,-1,2001,1534,0,0
784,-510,0,0,0,0,0,0,0,0,0,-1,2008,1534,0,0
791,-510,0,0,0,0,0,0,0,0,0,-1,2015,1534,0,0
798,-510,0,0,0,0,0,0,0,0,0,-1,2022,1534,0,0
805,-510,0,0,0,0,0,0,0,0,0,-1,2029,1534,0,0
812,-510,0,0,0,0,0,0,0,0,0,-1,2036,1534,0,0
-700,-517,0,0,0,0,0,0,0,0,0,-1,524,1541,0,0
-693,-517,0,0,0,0,0,0,0,0,0,-1,531,1541,0,0
-686,-517,0,0,0,0,0,0,0,0,0,-1,538,1541,0,0
-679,-517,0,0,0,0,0,0,0,0,0,-1,545,1541,0,0
-672,-517,0,0,0,0,0,0,0,0,0,-1,552,1541,0,0
-665,-517,0,0,0,0,0,0,0,0,0,-1,559,1541,0,0
-658,-517,0,0,0,0,0,0,0,0,0,-1,566,1541,0,0
-651,-517,0,0,0,0,0,0,0,0,0,-1,573,1541,0,0
-644,-517,0,0,0,0,0,0,0,0,0,-1,580,1541,0,0
-637,-517,0,0,0,0,0,0,0,0,0,-1,587,1541,0,0
-630,-517,0,0,0,0,0,0,0,0,0,-1,594,1541,0,0
-623,-517,0,0,0,0,0,0,0,0,0,-1,601,1541,0,0
-616,-517,0,0,0,0,0,0,0,0,0,-1,608,1541,0,0
-609,-517,0,0,0,0,0,0,0,0,0,-1,615,1541,0,0
-602,-517,0,0,0,0,0,0,0,0,0,-1,622,1541,0,0
-595,-517,0,0,0,0,0,0,0,0,0,-1,629,1541,0,0
-588,-517,0,0,0,0,0,0,0,0,0,-1,636,1541,0,0
-581,-517,0,0,0,0,0,0,0,0,0,-1,643,1541,0,0
-574,-517,0,0,0,0,0,0,0,0,0,-1,650,1541,0,0
-567,-517,0,0,0,0,0,0,0,0,0,-1,657,1541,0,0
-560,-517,0,0,0,0,0,0,0,0,0,-1,664,1541,0,0
-553,-517,0,0,0,0,0,0,0,0,0,-1,671,1541,0,0
-546,-517,0,0,0,0,0,0,0,0,0,-1,678,1541,0,0
-539,-517,0,0,0,0,0,0,0,0,0,-1,685,1541,0,0
-532,-517,0,0,0,0,0,0,0,0,0,-1,692,1541,0,0
-525,-517,-3.62903,4.3606,0,0,0,0,0,0,0,-1,699,1541,-3.62904,-4.36056
-518,-517,-1.664,2.27209,0,0,0,0,0,0,0,-1,706,1541,-1.66399,-2.27207
-511,-517,-0.999146,5.52063,0,0,0,0,0,0,0,-1,713,1541,-0.999126,-5.52059
-504,-517,-1.06946,8.67432,0,0,0,0,0,0,0,-1,720,1541,-1.06947,-8.6743
-497,-517,-5.43036,17.4033,0,0,0,0,0,0,0,-1,727,1541,-5.43033,-17.4034
-490,-517,-6.20526,19.4496,0,0,0,0,0,0,0,-1,734,1541,-6.20526,-19.4495
-483,-517,-6.2254,20.368,0,0,0,0,0,0,0,-1,741,1541,-6.22542,-20.368
-476,-517,-8.0011,24.4698,0,0,0,0,0,0,0,-1,748,1541,-8.00111,-24.4699
-469,-517,-8.17932,25.3704,0.00241962,-0.00859199,0.00234189,0.00289699,-0.00906936,0.201083,0.00720863,0.0296345,755,1541,-8.17933,-25.3703
-462,-517,-8.37903,26.1188,0.000793498,-0.00710322,0.000937228,0.00090321,-0.00721293,0.116529,0.00513623,0.0305468,762,1541,-8.37901,-26.1187
-455,-517,-8.38812,26.959,-0.000198728,-0.00547362,0.000107284,-0.000196547,-0.0054758,0.0203273,0.00358681,0.0181828,769,1541,-8.3881,-26.959
-448,-517,-8.39618,27.7781,-0.000672288,-0.0039985,-0.00032925,-0.00064001,-0.00403078,-0.0977229,0.00250129,0.0138871,776,1541,-8.39621,-27.7781
-441,-517,-8.47076,28.5461,-0.000638799,-0.00245131,-0.000291539,-0.00059306,-0.00249704,-0.155621,0.00150644,0.0121993,783,1541,-8.47078,-28.5461
-434,-517,-8.52911,29.3069,-0.000271201,-0.000970698,2.72905e-05,-0.000270138,-0.000971761,0.0389356,0.000579189,0.014393,790,1541,-8.52912,-29.3069
-427,-517,-8.56317,30.0822,0.000323594,0.000338026,0.000500713,0.000831575,-0.000169955,0.792603,0.000618864,0.0154544,797,1541,-8.5632,-30.0822
-420,-517,-8.5921,30.8835,0.00113631,0.00158398,0.00113072,0.00251281,0.000207482,0.883115,0.00161051,0.0304721,804,1541,-8.59209,-30.8836
-413,-517,-8.664,31.6239,0.00214977,0.00276693,0.00191193,0.00439503,0.00052168,0.865406,0.00277253,0.0160431,811,1541,-8.66401,-31.6239
-406,-517,-8.68182,32.4247,0.00328853,0.00383758,0.00276666,0.0063433,0.000782807,0.834849,0.00399359,0.0114062,818,1541,-8.68184,-32.4247
-399,-517,-8.70868,33.1989,0.00441847,0.00498232,0.00364605,0.00835733,0.00104346,0.823983,0.00525836,0.0109273,825,1541,-8.70866,-33.1989
-392,-517,-8.72491,33.9757,0.00541299,0.0061826,0.0044088,0.0102234,0.00137223,0.828928,0.00640733,0.0195715,832,1541,-8.72492,-33.9758
-385,-517,-8.65735,34.8311,0,0,0,0,0,0,0,-1,839,1541,-8.65733,-34.8311
-378,-517,-6.61444,32.6315,0,0,0,0,0,0,0,-1,846,1541,-6.61445,-32.6315
-371,-517,-1.37585,13.2646,0,0,0,0,0,0,0,-1,853,1541,-1.37586,-13.2647
-364,-517,-1.26245,12.6289,0,0,0,0,0,0,0,-1,860,1541,-1.26243,-12.6289
-357,-517,-1.23889,12.979,0,0,0,0,0,0,0,-1,867,1541,-1.23891,-12.979
-350,-517,-5.40198,23.8954,0,0,0,0,0,0,0,-1,874,1541,-5.40196,-23.8954
-343,-517,-5.45844,29.2598,0,0,0,0,0,0,0,-1,881,1541,-5.45842,-29.2598
-336,-517,-4.53223,29.6708,0,0,0,0,0,0,0,-1,888,1541,-4.53221,-29.6708
-329,-517,-3.60602,30.0817,0,0,0,0,0,0,0,-1,895,1541,-3.60601,-30.0817
-322,-517,-4.21246,19.5819,0,0,0,0,0,0,0,-1,902,1541,-4.21244,-19.5819
-315,-517,-0.987976,7.29749,0,0,0,0,0,0,0,-1,909,1541,-0.987993,-7.29743
-308,-517,3.27911,17.621,0,0,0,0,0,0,0,-1,916,1541,3.27913,-17.621
-301,-517,-1.69141,8.87488,0,0,0,0,0,0,0,-1,923,1541,-1.69141,-8.87485
-294,-517,-1.72583,9.92566,0,0,0,0,0,0,0,-1,930,1541,-1.72584,-9.92571
-287,-517,-3.09045,12.1472,0,0,0,0,0,0,0,-1,937,1541,-3.09043,-12.1472
-280,-517,0,0,0,0,0,0,0,0,0,-1,944,1541,0,0
-273,-517,0,0,0,0,0,0,0,0,0,-1,951,1541,0,0
-266,-517,0,0,0,0,0,0,0,0,0,-1,958,1541,0,0
-259,-517,0,0,0,0,0,0,0,0,0,-1,965,1541,0,0
-252,-517,0,0,0,0,0,0,0,0,0,-1,972,1541,0,0
-245,-517,0,0,0,0,0,0,0,0,0,-1,979,1541,0,0
-238,-517,0,0,0,0,0,0,0,0,0,-1,986,1541,0,0
-231,-517,0,0,0,0,0,0,0,0,0,-1,993,1541,0,0
-224,-517,0,0,0,0,0,0,0,0,0,-1,1000,1541,0,0
-217,-517,0,0,0,0,0,0,0,0,0,-1,1007,1541,0,0
-210,-517,0,0,0,0,0,0,0,0,0,-1,1014,1541,0,0
-203,-517,0,0,0,0,0,0,0,0,0,-1,1021,1541,0,0
-196,-517,0,0,0,0,0,0,0,0,0,-1,1028,1541,0,0
-189,-517,0,0,0,0,0,0,0,0,0,-1,1035,1541,0,0
-182,-517,0,0,0,0,0,0,0,0,0,-1,1042,1541,0,0
-175,-517,0,0,0,0,0,0,0,0,0,-1,1049,1541,0,0
-168,-517,0,0,0,0,0,0,0,0,0,-1,1056,1541,0,0
-161,-517,0,0,0,0,0,0,0,0,0,-1,1063,1541,0,0
-154,-517,0,0,0,0,0,0,0,0,0,-1,1070,1541,0,0
-147,-517,0,0,0,0,0,0,0,0,0,-1,1077,1541,0,0
-140,-517,0,0,0,0,0,0,0,0,0,-1,1084,1541,0,0
-133,-517,0,0,0,0,0,0,0,0,0,-1,1091,1541,0,0
-126,-517,0,0,0,0,0,0,0,0,0,-1,1098,1541,0,0
-119,-517,0,0,0,0,0,0,0,0,0,-1,1105,1541,0,0
-112,-517,0,0,0,0,0,0,0,0,0,-1,1112,1541,0,0
-105,-517,0,0,0,0,0,0,0,0,0,-1,1119,1541,0,0
-98,-517,0,0,0,0,0,0,0,0,0,-1,1126,1541,0,0
-91,-517,0,0,0,0,0,0,0,0,0,-1,1133,1541,0,0
-84,-517,0,0,0,0,0,0,0,0,0,-1,1140,1541,0,0
-77,-517,0,0,0,0,0,0,0,0,0,-1,1147,1541,0,0
-70,-517,0,0,0,0,0,0,0,0,0,-1,1154,1541,0,0
-63,-517,0,0,0,0,0,0,0,0,0,-1,1161,1541,0,0
-56,-517,0,0,0,0,0,0,0,0,0,-1,1168,1541,0,0
-49,-517,0,0,0,0,0,0,0,0,0,-1,1175,1541,0,0
-42,-517,0,0,0,0,0,0,0,0,0,-1,1182,1541,0,0
-35,-517,0,0,0,0,0,0,0,0,0,-1,1189,1541,0,0
-28,-517,0,0,0,0,0,0,0,0,0,-1,1196,1541,0,0
-21,-517,0,0,0,0,0,0,0,0,0,-1,1203,1541,0,0
-14,-517,0,0,0,0,0,0,0,0,0,-1,1210,1541,0,0
-7,-517,0,0,0,0,0,0,0,0,0,-1,1217,1541,0,0
0,-517,0,0,0,0,0,0,0,0,0,-1,1224,1541,0,0
7,-517,0,0,0,0,0,0,0,0,0,-1,1231,1541,0,0
14,-517,0,0,0,0,0,0,0,0,0,-1,1238,1541,0,0
21,-517,0,0,0,0,0,0,0,0,0,-1,1245,1541,0,0
28,-517,0,0,0,0,0,0,0,0,0,-1,1252,1541,0,0
35,-517,0,0,0,0,0,0,0,0,0,-1,1259,1541,0,0
42,-517,0,0,0,0,0,0,0,0,0,-1,1266,1541,0,0
49,-517,0,0,0,0,0,0,0,0,0,-1,1273,1541,0,0
56,-517,0,0,0,0,0,0,0,0,0,-1,1280,1541,0,0
63,-517,0,0,0,0,0,0,0,0,0,-1,1287,1541,0,0
70,-517,0,0,0,0,0,0,0,0,0,-1,1294,1541,0,0
77,-517,0,0,0,0,0,0,0,0,0,-1,1301,1541,0,0
84,-517,0,0,0,0,0,0,0,0,0,-1,1308,1541,0,0
91,-517,0,0,0,0,0,0,0,0,0,-1,1315,1541,0,0
98,-517,0,0,0,0,0,0,0,0,0,-1,1322,1541,0,0
105,-517,0,0,0,0,0,0,0,0,0,-1,1329,1541,0,0
112,-517,0,0,0,0,0,0,0,0,0,-1,1336,1541,0,0
119,-517,0,0,0,0,0,0,0,0,0,-1,1343,1541,0,0
126,-517,0,0,0,0,0,0,0,0,0,-1,1350,1541,0,0
133,-517,0,0,0,0,0,0,0,0,0,-1,1357,1541,0,0
140,-517,0,0,0,0,0,0,0,0,0,-1,1364,1541,0,0
147,-517,0,0,0,0,0,0,0,0,0,-1,1371,1541,0,0
154,-517,0,0,0,0,0,0,0,0,0,-1,1378,1541,0,0
161,-517,0,0,0,0,0,0,0,0,0,-1,1385,1541,0,0
168,-517,0,0,0,0,0,0,0,0,0,-1,1392,1541,0,0
175,-517,0,0,0,0,0,0,0,0,0,-1,1399,1541,0,0
182,-517,0,0,0,0,0,0,0,0,0,-1,1406,1541,0,0
189,-517,0,0,0,0,0,0,0,0,0,-1,1413,1541,0,0
196,-517,0,0,0,0,0,0,0,0,0,-1,1420,1541,0,0
203,-517,0,0,0,0,0,0,0,0,0,-1,1427,1541,0,0
210,-517,0,0,0,0,0,0,0,0,0,-1,1434,1541,0,0
217,-517,0,0,0,0,0,0,0,0,0,-1,1441,1541,0,0
224,-517,0,0,0,0,0,0,0,0,0,-1,1448,1541,0,0
231,-517,0,0,0,0,0,0,0,0,0,-1,1455,1541,0,0
238,-517,0,0,0,0,0,0,0,0,0,-1,1462,1541,0,0
245,-517,0,0,0,0,0,0,0,0,0,-1,1469,1541,0,0
252,-517,0,0,0,0,0,0,0,0,0,-1,1476,1541,0,0
259,-517,0,0,0,0,0,0,0,0,0,-1,1483,1541,0,0
266,-517,0,0,0,0,0,0,0,0,0,-1,1490,1541,0,0
273,-517,0,0,0,0,0,0,0,0,0,-1,1497,1541,0,0
280,-517,0,0,0,0,0,0,0,0,0,-1,1504,1541,0,0
287,-517,0,0,0,0,0,0,0,0,0,-1,1511,1541,0,0
294,-517,0,0,0,0,0,0,0,0,0,-1,1518,1541,0,0
301,-517,0,0,0,0,0,0,0,0,0,-1,1525,1541,0,0
308,-517,0,0,0,0,0,0,0,0,0,-1,1532,1541,0,0
315,-517,0,0,0,0,0,0,0,0,0,-1,1539,1541,0,0
322,-517,0,0,0,0,0,0,0,0,0,-1,1546,1541,0,0
329,-517,0,0,0,0,0,0,0,0,0,-1,1553,1541,0,0
336,-517,0,0,0,0,0,0,0,0,0,-1,1560,1541,0,0
343,-517,0,0,0,0,0,0,0,0,0,-1,1567,1541,0,0
350,-517,0,0,0,0,0,0,0,0,0,-1,1574,1541,0,0
357,-517,0,0,0,0,0,0,0,0,0,-1,1581,1541,0,0
364,-517,0,0,0,0,0,0,0,0,0,-1,1588,1541,0,0
371,-517,0,0,0,0,0,0,0,0,0,-1,1595,1541,0,0
378,-517,0,0,0,0,0,0,0,0,0,-1,1602,1541,0,0
385,-517,0,0,0,0,0,0,0,0,0,-1,1609,1541,0,0
392,-517,0,0,0,0,0,0,0,0,0,-1,1616,1541,0,0
399,-517,0,0,0,0,0,0,0,0,0,-1,1623,1541,0,0
406,-517,13.1395,7.01978,0,0,0,0,0,0,0,-1,1630,1541,13.1396,-7.01981
413,-517,12.8859,6.31592,0,0,0,0,0,0,0,-1,1637,1541,12.8858,-6.31588
420,-517,12.4789,6.20337,0,0,0,0,0,0,0,-1,1644,1541,12.4789,-6.20333
427,-517,11.647,4.66516,0,0,0,0,0,0,0,-1,1651,1541,11.647,-4.66519
434,-517,12.3719,3.92773,0,0,0,0,0,0,0,-1,1658,1541,12.3719,-3.92776
441,-517,13.146,3.14124,0,0,0,0,0,0,0,-1,1665,1541,13.146,-3.14121
448,-517,13.8861,2.36682,0,0,0,0,0,0,0,-1,1672,1541,13.8861,-2.36684
455,-517,13.6012,4.06335,0,0,0,0,0,0,0,-1,1679,1541,13.6012,-4.06335
462,-517,14.8956,7.0752,0,0,0,0,0,0,0,-1,1686,1541,14.8956,-7.07525
469,-517,13.6292,6.87744,0,0,0,0,0,0,0,-1,1693,1541,13.6292,-6.87739
476,-517,17.1632,14.1487,0,0,0,0,0,0,0,-1,1700,1541,17.1632,-14.1487
483,-517,16.5157,15.0776,0,0,0,0,0,0,0,-1,1707,1541,16.5157,-15.0777
490,-517,15.5439,18.0258,0,0,0,0,0,0,0,-1,1714,1541,15.5439,-18.0258
497,-517,16.0292,18.7786,0,0,0,0,0,0,0,-1,1721,1541,16.0291,-18.7786
504,-517,17.3815,22.3873,0,0,0,0,0,0,0,-1,1728,1541,17.3814,-22.3873
511,-517,16.9674,21.8491,0,0,0,0,0,0,0,-1,1735,1541,16.9674,-21.8491
518,-517,26.2465,34.6191,0,0,0,0,0,0,0,-1,1742,1541,26.2464,-34.6191
525,-517,26.0297,33.9266,0.00907173,0.00744836,-0.00599994,0.0143146,0.00220545,-0.718165,0.00889951,0.0279533,1749,1541,26.0296,-33.9266
532,-517,26.1964,33.0587,0.00720612,0.00590591,-0.00480633,0.0114061,0.00170592,-0.718176,0.00710404,0.0131157,1756,1541,26.1964,-33.0588
539,-517,26.181,32.3185,0.00570858,0.00456582,-0.00375599,0.00893641,0.001338,-0.709914,0.00556548,0.0140807,1763,1541,26.181,-32.3185
546,-517,26.1425,31.5966,0.00454882,0.0034336,-0.00286994,0.00691482,0.0010676,-0.689447,0.00429844,0.0150565,1770,1541,26.1424,-31.5965
553,-517,26.0903,30.8822,0.00367479,0.00249303,-0.00209678,0.00526235,0.000905468,-0.648057,0.00324875,0.0190254,1777,1541,26.0903,-30.8822
560,-517,26.0675,30.1178,0.0030332,0.0016884,-0.00145478,0.00396346,0.000758147,-0.568921,0.00242935,0.018406,1784,1541,26.0675,-30.1178
567,-517,26.0424,29.3503,0.00264704,0.00110052,-0.00100463,0.00314154,0.000606025,-0.457405,0.00192442,0.0147484,1791,1541,26.0424,-29.3503
574,-517,25.985,28.577,0.00253303,0.000704867,-0.00072431,0.00278521,0.000452686,-0.335042,0.00172582,0.0162148,1798,1541,25.985,-28.577
581,-517,25.926,27.8224,0.00269263,0.000432469,-0.000597348,0.00284079,0.000284306,-0.243128,0.00180657,0.0175548,1805,1541,25.926,-27.8224
588,-517,25.9163,27.0729,0.00308645,0.000367862,-0.00067305,0.00324395,0.000210358,-0.229879,0.00209604,0.0177003,1812,1541,25.9162,-27.0729
595,-517,25.9365,26.3612,0.00365193,0.000552363,-0.000925549,0.00390727,0.000297023,-0.269183,0.0025117,0.0457339,1819,1541,25.9365,-26.3612
602,-517,26.1743,25.3529,0,0,0,0,0,0,0,-1,1826,1541,26.1743,-25.3529
609,-517,12.6417,10.8751,0,0,0,0,0,0,0,-1,1833,1541,12.6417,-10.8751
616,-517,14.205,10.3193,0,0,0,0,0,0,0,-1,1840,1541,14.205,-10.3194
623,-517,12.578,10.0779,0,0,0,0,0,0,0,-1,1847,1541,12.578,-10.0779
630,-517,11.7035,7.47815,0,0,0,0,0,0,0,-1,1854,1541,11.7035,-7.47812
637,-517,11.5172,5.79822,0,0,0,0,0,0,0,-1,1861,1541,11.5173,-5.79825
644,-517,11.4232,3.30579,0,0,0,0,0,0,0,-1,1868,1541,11.4232,-3.30574
651,-517,0,0,0,0,0,0,0,0,0,-1,1875,1541,0,0
658,-517,0,0,0,0,0,0,0,0,0,-1,1882,1541,0,0
665,-517,0,0,0,0,0,0,0,0,0,-1,1889,1541,0,0
672,-517,0,0,0,0,0,0,0,0,0,-1,1896,1541,0,0
679,-517,0,0,0,0,0,0,0,0,0,-1,1903,1541,0,0
686,-517,0,0,0,0,0,0,0,0,0,-1,1910,1541,0,0
693,-517,0,0,0,0,0,0,0,0,0,-1,1917,1541,0,0
700,-517,0,0,0,0,0,0,0,0,0,-1,1924,1541,0,0
707,-517,0,0,0,0,0,0,0,0,0,-1,1931,1541,0,0
714,-517,0,0,0,0,0,0,0,0,0,-1,1938,1541,0,0
721,-517,0,0,0,0,0,0,0,0,0,-1,1945,1541,0,0
728,-517,0,0,0,0,0,0,0,0,0,-1,1952,1541,0,0
735,-517,0,0,0,0,0,0,0,0,0,-1,1959,1541,0,0
742,-517,0,0,0,0,0,0,0,0,0,-1,1966,1541,0,0
749,-517,0,0,0,0,0,0,0,0,0,-1,1973,1541,0,0
756,-517,0,0,0,0,0,0,0,0,0,-1,1980,1541,0,0
763,-517,0,0,0,0,0,0,0,0,0,-1,1987,1541,0,0
770,-517,0,0,0,0,0,0,0,0,0,-1,1994,1541,0,0
777,-517,0,0,0,0,0,0,0,0,0,-1,2001,1541,0,0
784,-517,0,0,0,0,0,0,0,0,0,-1,2008,1541,0,0
791,-517,0,0,0,0,0,0,0,0,0,-1,2015,1541,0,0
798,-517,0,0,0,0,0,0,0,0,0,-1,2022,1541,0,0
805,-517,0,0,0,0,0,0,0,0,0,-1,2029,1541,0,0
812,-517,0,0,0,0,0,0,0,0,0,-1,2036,1541,0,0
-700,-524,0,0,0,0,0,0,0,0,0,-1,524,1548,0,0
-693,-524,0,0,0,0,0,0,0,0,0,-1,531,1548,0,0
-686,-524,0,0,0,0,0,0,0,0,0,-1,538,1548,0,0
-679,-524,0,0,0,0,0,0,0,0,0,-1,545,1548,0,0
-672,-524,0,0,0,0,0,0,0,0,0,-1,552,1548,0,0
-665,-524,0,0,0,0,0,0,0,0,0,-1,559,1548,0,0
-658,-524,0,0,0,0,0,0,0,0,0,-1,566,1548,0,0
-651,-524,0,0,0,0,0,0,0,0,0,-1,573,1548,0,0
-644,-524,0,0,0,0,0,0,0,0,0,-1,580,1548,0,0
-637,-524,0,0,0,0,0,0,0,0,0,-1,587,1548,0,0
-630,-524,0,0,0,0,0,0,0,0,0,-1,594,1548,0,0
-623,-524,0,0,0,0,0,0,0,0,0,-1,601,1548,0,0
-616,-524,0,0,0,0,0,0,0,0,0,-1,608,1548,0,0
-609,-524,0,0,0,0,0,0,0,0,0,-1,615,1548,0,0
-602,-524,0,0,0,0,0,0,0,0,0,-1,622,1548,0,0
-595,-524,0,0,0,0,0,0,0,0,0,-1,629,1548,0,0
-588,-524,0,0,0,0,0,0,0,0,0,-1,636,1548,0,0
-581,-524,0,0,0,0,0,0,0,0,0,-1,643,1548,0,0
-574,-524,0,0,0,0,0,0,0,0,0,-1,650,1548,0,0
-567,-524,0,0,0,0,0,0,0,0,0,-1,657,1548,0,0
-560,-524,0,0,0,0,0,0,0,0,0,-1,664,1548,0,0
-553,-524,0,0,0,0,0,0,0,0,0,-1,671,1548,0,0
-546,-524,0,0,0,0,0,0,0,0,0,-1,678,1548,0,0
-539,-524,0,0,0,0,0,0,0,0,0,-1,685,1548,0,0
-532,-524,0,0,0,0,0,0,0,0,0,-1,692,1548,0,0
-525,-524,-0.215515,3.97131,0,0,0,0,0,0,0,-1,699,1548,-0.215501,-3.97136
-518,-524,-0.806274,4.35632,0,0,0,0,0,0,0,-1,706,1548,-0.806259,-4.35633
-511,-524,-1.08301,4.29004,0,0,0,0,0,0,0,-1,713,1548,-1.08301,-4.29006
-504,-524,-1.28821,3.98145,0,0,0,0,0,0,0,-1,720,1548,-1.28822,-3.98151
-497,-524,-0.328491,8.63416,0,0,0,0,0,0,0,-1,727,1548,-0.328487,-8.63411
-490,-524,-6.65582,19.3033,0,0,0,0,0,0,0,-1,734,1548,-6.65583,-19.3034
-483,-524,-7.57153,22.1989,0,0,0,0,0,0,0,-1,741,1548,-7.57151,-22.1988
-476,-524,-7.8938,24.8494,0,0,0,0,0,0,0,-1,748,1548,-7.89379,-24.8493
-469,-524,-7.85791,25.6339,0.00222147,-0.0119627,0.00198378,0.0024937,-0.0122349,0.136373,0.00910242,0.0456503,755,1548,-7.85789,-25.6339
-462,-524,-7.5506,26.472,0.00012006,-0.00972312,0.00032356,0.000130684,-0.00973374,0.0328242,0.00653316,0.0458727,762,1548,-7.55057,-26.472
-455,-524,-7.70508,27.0305,-0.00113795,-0.00745523,-0.000599397,-0.00108158,-0.0075116,-0.0937671,0.00468897,0.0387001,769,1548,-7.7051,-27.0305
-448,-524,-7.66034,27.8065,-0.00175376,-0.0056501,-0.0011162,-0.00145665,-0.00594721,-0.260146,0.00357945,0.0169634,776,1548,-7.66035,-27.8066
-441,-524,-7.70331,28.5942,-0.00173578,-0.0038306,-0.00106356,-0.00129047,-0.00427591,-0.396525,0.00253253,0.011541,783,1548,-7.70329,-28.5943
-434,-524,-7.73517,29.3459,-0.00135105,-0.00220403,-0.00073623,-0.0009267,-0.00262838,-0.522871,0.00153933,0.0131863,790,1548,-7.73519,-29.3459
-427,-524,-7.76843,30.127,-0.000740166,-0.000837301,-0.000267923,-0.000516444,-0.00106102,-0.695735,0.000612654,0.0168518,797,1548,-7.76845,-30.1269
-420,-524,-7.82312,30.9341,6.3103e-05,0.000381669,0.000315646,0.000575944,-0.000131172,1.01907,0.00043434,0.0403654,804,1548,-7.82312,-30.9341
-413,-524,-7.90863,31.6852,0.000968904,0.00151814,0.000939148,0.002222,0.000265045,0.927638,0.00140136,0.037197,811,1548,-7.90861,-31.6852
-406,-524,-7.8866,32.4725,0.00201418,0.00251403,0.00167925,0.00396185,0.000566358,0.859272,0.00247415,0.0139649,818,1548,-7.88659,-32.4725
-399,-524,-7.92926,33.2385,0.00302941,0.00346029,0.00237037,0.00562499,0.000864709,0.830718,0.00349757,0.00975714,825,1548,-7.92926,-33.2385
-392,-524,-7.97852,33.9755,0.00388839,0.00438838,0.0029269,0.00707594,0.00120083,0.828001,0.00437233,0.0100516,832,1548,-7.9785,-33.9755
-385,-524,-8.01434,34.7704,0.00450715,0.00520396,0.0032905,0.00816444,0.00154666,0.838143,0.00500767,0.0177194,839,1548,-8.01436,-34.7704
-378,-524,-8.01318,35.6261,0,0,0,0,0,0,0,-1,846,1548,-8.0132,-35.6261
-371,-524,-4.20789,29.1592,0,0,0,0,0,0,0,-1,853,1548,-4.2079,-29.1592
-364,-524,-0.712097,14.9871,0,0,0,0,0,0,0,-1,860,1548,-0.712116,-14.9871
-357,-524,-1.34052,14.7448,0,0,0,0,0,0,0,-1,867,1548,-1.34054,-14.7447
-350,-524,-4.31909,25.032,0,0,0,0,0,0,0,-1,874,1548,-4.31906,-25.0319
-343,-524,-3.69696,28.6923,0,0,0,0,0,0,0,-1,881,1548,-3.69694,-28.6922
-336,-524,-3.4873,29.655,0,0,0,0,0,0,0,-1,888,1548,-3.48728,-29.6551
-329,-524,-3.21936,30.5509,0,0,0,0,0,0,0,-1,895,1548,-3.21933,-30.5509
-322,-524,-4.31378,25.6389,0,0,0,0,0,0,0,-1,902,1548,-4.31379,-25.639
-315,-524,-1.90839,19.4824,0,0,0,0,0,0,0,-1,909,1548,-1.90838,-19.4824
-308,-524,-2.36938,19.3059,0,0,0,0,0,0,0,-1,916,1548,-2.3694,-19.3058
-301,-524,2.72394,17.7618,0,0,0,0,0,0,0,-1,923,1548,2.72396,-17.7619
-294,-524,-1.52515,9.05408,0,0,0,0,0,0,0,-1,930,1548,-1.52512,-9.05411
-287,-524,-0.962219,10.3199,0,0,0,0,0,0,0,-1,937,1548,-0.962241,-10.32
-280,-524,-1.36255,10.3859,0,0,0,0,0,0,0,-1,944,1548,-1.36253,-10.3859
-273,-524,0,0,0,0,0,0,0,0,0,-1,951,1548,0,0
-266,-524,0,0,0,0,0,0,0,0,0,-1,958,1548,0,0
-259,-524,0,0,0,0,0,0,0,0,0,-1,965,1548,0,0
-252,-524,0,0,0,0,0,0,0,0,0,-1,972,1548,0,0
-245,-524,0,0,0,0,0,0,0,0,0,-1,979,1548,0,0
-238,-524,0,0,0,0,0,0,0,0,0,-1,986,1548,0,0
-231,-524,0,0,0,0,0,0,0,0,0,-1,993,1548,0,0
-224,-524,0,0,0,0,0,0,0,0,0,-1,1000,1548,0,0
-217,-524,0,0,0,0,0,0,0,0,0,-1,1007,1548,0,0
-210,-524,0,0,0,0,0,0,0,0,0,-1,1014,1548,0,0
-203,-524,0,0,0,0,0,0,0,0,0,-1,1021,1548,0,0
-196,-524,0,0,0,0,0,0,0,0,0,-1,1028,1548,0,0
-189,-524,0,0,0,0,0,0,0,0,0,-1,1035,1548,0,0
-182,-524,0,0,0,0,0,0,0,0,0,-1,1042,1548,0,0
-175,-524,0,0,0,0,0,0,0,0,0,-1,1049,1548,0,0
-168,-524,0,0,0,0,0,0,0,0,0,-1,1056,1548,0,0
-161,-524,0,0,0,0,0,0,0,0,0,-1,1063,1548,0,0
-154,-524,0,0,0,0,0,0,0,0,0,-1,1070,1548,0,0
-147,-524,0,0,0,0,0,0,0,0,0,-1,1077,1548,0,0
-140,-524,0,0,0,0,0,0,0,0,0,-1,1084,1548,0,0
-133,-524,0,0,0,0,0,0,0,0,0,-1,1091,1548,0,0
-126,-524,0,0,0,0,0,0,0,0,0,-1,1098,1548,0,0
-119,-524,0,0,0,0,0,0,0,0,0,-1,1105,1548,0,0
-112,-524,0,0,0,0,0,0,0,0,0,-1,1112,1548,0,0
-105,-524,0,0,0,0,0,0,0,0,0,-1,1119,1548,0,0
-98,-524,0,0,0,0,0,0,0,0,0,-1,1126,1548,0,0
-91,-524,0,0,0,0,0,0,0,0,0,-1,1133,1548,0,0
-84,-524,0,0,0,0,0,0,0,0,0,-1,1140,1548,0,0
-77,-524,0,0,0,0,0,0,0,0,0,-1,1147,1548,0,0
-70,-524,0,0,0,0,0,0,0,0,0,-1,1154,1548,0,0
-63,-524,0,0,0,0,0,0,0,0,0,-1,1161,1548,0,0
-56,-524,0,0,0,0,0,0,0,0,0,-1,1168,1548,0,0
-49,-524,0,0,0,0,0,0,0,0,0,-1,1175,1548,0,0
-42,-524,0,0,0,0,0,0,0,0,0,-1,1182,1548,0,0
-35,-524,0,0,0,0,0,0,0,0,0,-1,1189,1548,0,0
-28,-524,0,0,0,0,0,0,0,0,0,-1,1196,1548,0,0
-21,-524,0,0,0,0,0,0,0,0,0,-1,1203,1548,0,0
-14,-524,0,0,0,0,0,0,0,0,0,-1,1210,1548,0,0
-7,-524,0,0,0,0,0,0,0,0,0,-1,1217,1548,0,0
0,-524,0,0,0,0,0,0,0,0,0,-1,1224,1548,0,0
7,-524,0,0,0,0,0,0,0,0,0,-1,1231,1548,0,0
14,-524,0,0,0,0,0,0,0,0,0,-1,1238,1548,0,0
21,-524,0,0,0,0,0,0,0,0,0,-1,1245,1548,0,0
28,-524,0,0,0,0,0,0,0,0,0,-1,1252,1548,0,0
35,-524,0,0,0,0,0,0,0,0,0,-1,1259,1548,0,0
42,-524,0,0,0,0,0,0,0,0,0,-1,1266,1548,0,0
49,-524,0,0,0,0,0,0,0,0,0,-1,1273,1548,0,0
56,-524,0,0,0,0,0,0,0,0,0,-1,1280,1548,0,0
63,-524,0,0,0,0,0,0,0,0,0,-1,1287,1548,0,0
70,-524,0,0,0,0,0,0,0,0,0,-1,1294,1548,0,0
77,-524,0,0,0,0,0,0,0,0,0,-1,1301,1548,0,0
84,-524,0,0,0,0,0,0,0,0,0,-1,1308,1548,0,0
91,-524,0,0,0,0,0,0,0,0,0,-1,1315,1548,0,0
98,-524,0,0,0,0,0,0,0,0,0,-1,1322,1548,0,0
105,-524,0,0,0,0,0,0,0,0,0,-1,1329,1548,0,0
112,-524,0,0,0,0,0,0,0,0,0,-1,1336,1548,0,0
119,-524,0,0,0,0,0,0,0,0,0,-1,1343,1548,0,0
126,-524,0,0,0,0,0,0,0,0,0,-1,1350,1548,0,0
133,-524,0,0,0,0,0,0,0,0,0,-1,1357,1548,0,0
140,-524,0,0,0,0,0,0,0,0,0,-1,1364,1548,0,0
147,-524,0,0,0,0,0,0,0,0,0,-1,1371,1548,0,0
154,-524,0,0,0,0,0,0,0,0,0,-1,1378,1548,0,0
161,-524,0,0,0,0,0,0,0,0,0,-1,1385,1548,0,0
168,-524,0,0,0,0,0,0,0,0,0,-1,1392,1548,0,0
175,-524,0,0,0,0,0,0,0,0,0,-1,1399,1548,0,0
182,-524,0,0,0,0,0,0,0,0,0,-1,1406,1548,0,0
189,-524,0,0,0,0,0,0,0,0,0,-1,1413,1548,0,0
196,-524,0,0,0,0,0,0,0,0,0,-1,1420,1548,0,0
203,-524,0,0,0,0,0,0,0,0,0,-1,1427,1548,0,0
210,-524,0,0,0,0,0,0,0,0,0,-1,1434,1548,0,0
217,-524,0,0,0,0,0,0,0,0,0,-1,1441,1548,0,0
224,-524,0,0,0,0,0,0,0,0,0,-1,1448,1548,0,0
231,-524,0,0,0,0,0,0,0,0,0,-1,1455,1548,0,0
238,-524,0,0,0,0,0,0,0,0,0,-1,1462,1548,0,0
245,-524,0,0,0,0,0,0,0,0,0,-1,1469,1548,0,0
252,-524,0,0,0,0,0,0,0,0,0,-1,1476,1548,0,0
259,-524,0,0,0,0,0,0,0,0,0,-1,1483,1548,0,0
266,-524,0,0,0,0,0,0,0,0,0,-1,1490,1548,0,0
273,-524,0,0,0,0,0,0,0,0,0,-1,1497,1548,0,0
280,-524,0,0,0,0,0,0,0,0,0,-1,1504,1548,0,0
287,-524,0,0,0,0,0,0,0,0,0,-1,1511,1548,0,0
294,-524,0,0,0,0,0,0,0,0,0,-1,1518,1548,0,0
301,-524,0,0,0,0,0,0,0,0,0,-1,1525,1548,0,0
308,-524,0,0,0,0,0,0,0,0,0,-1,1532,1548,0,0
315,-524,0,0,0,0,0,0,0,0,0,-1,1539,1548,0,0
322,-524,0,0,0,0,0,0,0,0,0,-1,1546,1548,0,0
329,-524,0,0,0,0,0,0,0,0,0,-1,1553,1548,0,0
336,-524,0,0,0,0,0,0,0,0,0,-1,1560,1548,0,0
343,-524,0,0,0,0,0,0,0,0,0,-1,1567,1548,0,0
350,-524,0,0,0,0,0,0,0,0,0,-1,1574,1548,0,0
357,-524,0,0,0,0,0,0,0,0,0,-1,1581,1548,0,0
364,-524,0,0,0,0,0,0,0,0,0,-1,1588,1548,0,0
371,-524,0,0,0,0,0,0,0,0,0,-1,1595,1548,0,0
378,-524,0,0,0,0,0,0,0,0,0,-1,1602,1548,0,0
385,-524,0,0,0,0,0,0,0,0,0,-1,1609,1548,0,0
392,-524,0,0,0,0,0,0,0,0,0,-1,1616,1548,0,0
399,-524,8.81848,5.05774,0,0,0,0,0,0,0,-1,1623,1548,8.81843,-5.05769
406,-524,8.64294,6.06799,0,0,0,0,0,0,0,-1,1630,1548,8.6429,-6.06805
413,-524,11.677,6.41858,0,0,0,0,0,0,0,-1,1637,1548,11.677,-6.41864
420,-524,11.4913,6.36401,0,0,0,0,0,0,0,-1,1644,1548,11.4913,-6.36402
427,-524,7.68335,6.17249,0,0,0,0,0,0,0,-1,1651,1548,7.68341,-6.17245
434,-524,10.432,11.6801,0,0,0,0,0,0,0,-1,1658,1548,10.432,-11.68
441,-524,8.78552,4.12305,0,0,0,0,0,0,0,-1,1665,1548,8.78553,-4.12301
448,-524,14.1854,4.78674,0,0,0,0,0,0,0,-1,1672,1548,14.1854,-4.78674
455,-524,12.4784,3.65576,0,0,0,0,0,0,0,-1,1679,1548,12.4784,-3.65572
462,-524,14.7551,9.29395,0,0,0,0,0,0,0,-1,1686,1548,14.7552,-9.29397
469,-524,16.3314,14.3779,0,0,0,0,0,0,0,-1,1693,1548,16.3314,-14.3779
476,-524,15.9106,15.1875,0,0,0,0,0,0,0,-1,1700,1548,15.9107,-15.1876
483,-524,15.2776,16.2268,0,0,0,0,0,0,0,-1,1707,1548,15.2776,-16.2269
490,-524,15.2563,18.5848,0,0,0,0,0,0,0,-1,1714,1548,15.2564,-18.5848
497,-524,17.5173,22.6123,0,0,0,0,0,0,0,-1,1721,1548,17.5174,-22.6123
504,-524,25.1467,36.4943,0,0,0,0,0,0,0,-1,1728,1548,25.1467,-36.4943
511,-524,25.5135,35.5105,0,0,0,0,0,0,0,-1,1735,1548,25.5136,-35.5105
518,-524,25.5223,34.6071,0.00868357,0.00757015,-0.00582626,0.0139797,0.00227406,-0.737767,0.00866183,0.0281021,1742,1548,25.5223,-34.607
525,-524,25.4778,33.8746,0.00706438,0.0061773,-0.004809,0.0114503,0.00179143,-0.739413,0.00711197,0.0150597,1749,1548,25.4777,-33.8746
532,-524,25.4602,33.109,0.00555252,0.00490619,-0.00385258,0.00909546,0.00136324,-0.743555,0.00566418,0.010526,1756,1548,25.4602,-33.109
539,-524,25.4246,32.3428,0.00438017,0.00382658,-0.0030261,0.00714211,0.00106464,-0.739791,0.00444919,0.011787,1763,1548,25.4245,-32.3427
546,-524,25.3853,31.6317,0.00346268,0.00282114,-0.0022883,0.00545259,0.000831236,-0.715763,0.0033921,0.0161787,1770,1548,25.3853,-31.6317
553,-524,25.3654,30.9567,0.00279281,0.00198716,-0.00163116,0.00407015,0.000709819,-0.664343,0.0025105,0.0276569,1777,1548,25.3654,-30.9566
560,-524,25.3928,30.2135,0.00236773,0.00126143,-0.00107186,0.00302076,0.000608397,-0.54719,0.00184479,0.0363988,1784,1548,25.3929,-30.2135
567,-524,25.2928,29.4014,0.00220045,0.000713868,-0.000656534,0.00244888,0.000465434,-0.36175,0.00150168,0.0210724,1791,1548,25.2929,-29.4014
574,-524,25.2513,28.6284,0.00230937,0.000316954,-0.000380848,0.00237968,0.000246637,-0.182577,0.00151097,0.0153638,1798,1548,25.2513,-28.6284
581,-524,25.2002,27.8419,0.00278748,5.60862e-05,-0.00029126,0.00281819,2.53732e-05,-0.10506,0.0018704,0.0168312,1805,1548,25.2002,-27.8419
588,-524,25.2511,27.0846,0.00356859,4.97893e-05,-0.000413662,0.00361656,1.81398e-06,-0.115461,0.00241044,0.0314203,1812,1548,25.2511,-27.0846
595,-524,25.319,26.1045,0,0,0,0,0,0,0,-1,1819,1548,25.319,-26.1045
602,-524,13.837,12.0682,0,0,0,0,0,0,0,-1,1826,1548,13.837,-12.0683
609,-524,13.0056,10.5138,0,0,0,0,0,0,0,-1,1833,1548,13.0056,-10.5138
616,-524,11.6941,8.65515,0,0,0,0,0,0,0,-1,1840,1548,11.6941,-8.65514
623,-524,9.38452,5.15356,0,0,0,0,0,0,0,-1,1847,1548,9.38456,-5.15359
630,-524,11.0541,3.57434,0,0,0,0,0,0,0,-1,1854,1548,11.0541,-3.57438
637,-524,11.6067,3.20728,0,0,0,0,0,0,0,-1,1861,1548,11.6067,-3.20724
644,-524,12.2134,0.727173,0,0,0,0,0,0,0,-1,1868,1548,12.2134,-0.727222
651,-524,0,0,0,0,0,0,0,0,0,-1,1875,1548,0,0
658,-524,0,0,0,0,0,0,0,0,0,-1,1882,1548,0,0
665,-524,0,0,0,0,0,0,0,0,0,-1,1889,1548,0,0
672,-524,0,0,0,0,0,0,0,0,0,-1,1896,1548,0,0
679,-524,0,0,0,0,0,0,0,0,0,-1,1903,1548,0,0
686,-524,0,0,0,0,0,0,0,0,0,-1,1910,1548,0,0
693,-524,0,0,0,0,0,0,0,0,0,-1,1917,1548,0,0
700,-524,0,0,0,0,0,0,0,0,0,-1,1924,1548,0,0
707,-524,0,0,0,0,0,0,0,0,0,-1,1931,1548,0,0
714,-524,0,0,0,0,0,0,0,0,0,-1,1938,1548,0,0
721,-524,0,0,0,0,0,0,0,0,0,-1,1945,1548,0,0
728,-524,0,0,0,0,0,0,0,0,0,-1,1952,1548,0,0
735,-524,0,0,0,0,0,0,0,0,0,-1,1959,1548,0,0
742,-524,0,0,0,0,0,0,0,0,0,-1,1966,1548,0,0
749,-524,0,0,0,0,0,0,0,0,0,-1,1973,1548,0,0
756,-524,0,0,0,0,0,0,0,0,0,-1,1980,1548,0,0
763,-524,0,0,0,0,0,0,0,0,0,-1,1987,1548,0,0
770,-524,0,0,0,0,0,0,0,0,0,-1,1994,1548,0,0
777,-524,0,0,0,0,0,0,0,0,0,-1,2001,1548,0,0
784,-524,0,0,0,0,0,0,0,0,0,-1,2008,1548,0,0
791,-524,0,0,0,0,0,0,0,0,0,-1,2015,1548,0,0
798,-524,0,0,0,0,0,0,0,0,0,-1,2022,1548,0,0
805,-524,0,0,0,0,0,0,0,0,0,-1,2029,1548,0,0
812,-524,0,0,0,0,0,0,0,0,0,-1,2036,1548,0,0
-700,-531,0,0,0,0,0,0,0,0,0,-1,524,1555,0,0
-693,-531,0,0,0,0,0,0,0,0,0,-1,531,1555,0,0
-686,-531,0,0,0,0,0,0,0,0,0,-1,538,1555,0,0
-679,-531,0,0,0,0,0,0,0,0,0,-1,545,1555,0,0
-672,-531,0,0,0,0,0,0,0,0,0,-1,552,1555,0,0
-665,-531,0,0,0,0,0,0,0,0,0,-1,559,1555,0,0
-658,-531,0,0,0,0,0,0,0,0,0,-1,566,1555,0,0
-651,-531,0,0,0,0,0,0,0,0,0,-1,573,1555,0,0
-644,-531,0,0,0,0,0,0,0,0,0,-1,580,1555,0,0
-637,-531,0,0,0,0,0,0,0,0,0,-1,587,1555,0,0
-630,-531,0,0,0,0,0,0,0,0,0,-1,594,1555,0,0
-623,-531,0,0,0,0,0,0,0,0,0,-1,601,1555,0,0
-616,-531,0,0,0,0,0,0,0,0,0,-1,608,1555,0,0
-609,-531,0,0,0,0,0,0,0,0,0,-1,615,1555,0,0
-602,-531,0,0,0,0,0,0,0,0,0,-1,622,1555,0,0
-595,-531,0,0,0,0,0,0,0,0,0,-1,629,1555,0,0
-588,-531,0,0,0,0,0,0,0,0,0,-1,636,1555,0,0
-581,-531,0,0,0,0,0,0,0,0,0,-1,643,1555,0,0
-574,-531,0,0,0,0,0,0,0,0,0,-1,650,1555,0,0
-567,-531,0,0,0,0,0,0,0,0,0,-1,657,1555,0,0
-560,-531,0,0,0,0,0,0,0,0,0,-1,664,1555,0,0
-553,-531,0,0,0,0,0,0,0,0,0,-1,671,1555,0,0
-546,-531,0,0,0,0,0,0,0,0,0,-1,678,1555,0,0
-539,-531,0,0,0,0,0,0,0,0,0,-1,685,1555,0,0
-532,-531,0,0,0,0,0,0,0,0,0,-1,692,1555,0,0
-525,-531,0,0,0,0,0,0,0,0,0,-1,699,1555,0,0
-518,-531,-1.63983,4.03821,0,0,0,0,0,0,0,-1,706,1555,-1.63982,-4.03821
-511,-531,-2.9682,8.07483,0,0,0,0,0,0,0,-1,713,1555,-2.9682,-8.07479
-504,-531,-2.95978,0.557861,0,0,0,0,0,0,0,-1,720,1555,-2.95978,-0.557917
-497,-531,-2.46039,8.07422,0,0,0,0,0,0,0,-1,727,1555,-2.46039,-8.07423
-490,-531,-0.423462,7.92065,0,0,0,0,0,0,0,-1,734,1555,-0.42344,-7.92066
-483,-531,-7.50745,20.1915,0,0,0,0,0,0,0,-1,741,1555,-7.50744,-20.1915
-476,-531,-7.69647,23.6229,0,0,0,0,0,0,0,-1,748,1555,-7.6965,-23.6229
-469,-531,-7.70355,25.7512,0,0,0,0,0,0,0,-1,755,1555,-7.70354,-25.7513
-462,-531,-6.60529,26.7109,0,0,0,0,0,0,0,-1,762,1555,-6.60528,-26.7109
-455,-531,-6.93835,26.9001,0,0,0,0,0,0,0,-1,769,1555,-6.93834,-26.9001
-448,-531,-6.7901,27.8313,-0.00313129,-0.00733189,-0.00207884,-0.00227646,-0.00818673,-0.390131,0.00487935,0.0295335,776,1555,-6.7901,-27.8313
-441,-531,-6.9389,28.5907,-0.0030387,-0.00519689,-0.00195356,-0.00188602,-0.00634958,-0.533067,0.00376527,0.0135137,783,1555,-6.93888,-28.5907
-434,-531,-6.97913,29.3964,-0.00254334,-0.00335736,-0.00154507,-0.00135257,-0.00454813,-0.656611,0.00269677,0.0122161,790,1555,-6.9791,-29.3964
-427,-531,-7.00891,30.1937,-0.0018358,-0.00187405,-0.00100914,-0.000845603,-0.00286424,-0.775922,0.00169927,0.0159444,797,1555,-7.00892,-30.1937
-420,-531,-7.11633,30.9525,-0.000979307,-0.000629533,-0.000405846,-0.000362496,-0.00124634,-0.988835,0.000740265,0.0354386,804,1555,-7.11631,-30.9525
-413,-531,-7.14398,31.7574,-0.000123042,0.000505146,0.000131671,0.000531629,-0.000149525,1.37232,0.000413375,0.0329417,811,1555,-7.14396,-31.7574
-406,-531,-7.14911,32.5284,0.000885457,0.00147264,0.000828958,0.00205846,0.000299637,0.955591,0.00128414,0.0141271,818,1555,-7.14908,-32.5284
-399,-531,-7.18665,33.2952,0.00184773,0.00230209,0.00142444,0.00351735,0.000632471,0.864475,0.00216509,0.0139228,825,1555,-7.18665,-33.2951
-392,-531,-7.22125,34.0566,0.0026436,0.00308326,0.00187591,0.00475217,0.000974682,0.843725,0.00289837,0.0167641,832,1555,-7.22123,-34.0567
-385,-531,-7.26288,34.8132,0.00328259,0.00380876,0.00215251,0.0057142,0.00137715,0.846208,0.00344347,0.0148179,839,1555,-7.2629,-34.8133
-378,-531,-7.31317,35.5135,0.00385409,0.00443786,0.00223994,0.00640485,0.0018871,0.850189,0.00380039,0.0203617,846,1555,-7.31317,-35.5136
-371,-531,-7.34106,36.3459,0,0,0,0,0,0,0,-1,853,1555,-7.34107,-36.346
-364,-531,-7.10229,37.3691,0,0,0,0,0,0,0,-1,860,1555,-7.10229,-37.3691
-357,-531,-4.29193,31.5354,0,0,0,0,0,0,0,-1,867,1555,-4.29191,-31.5354
-350,-531,-3.16101,27.5791,0,0,0,0,0,0,0,-1,874,1555,-3.16099,-27.5791
-343,-531,-2.90552,28.561,0,0,0,0,0,0,0,-1,881,1555,-2.90549,-28.5611
-336,-531,-2.6698,29.5398,0,0,0,0,0,0,0,-1,888,1555,-2.66983,-29.5398
-329,-531,-2.45148,30.4781,0,0,0,0,0,0,0,-1,895,1555,-2.45148,-30.4781
-322,-531,-3.25092,28.4921,0,0,0,0,0,0,0,-1,902,1555,-3.25092,-28.4921
-315,-531,-5.51929,31.7814,0,0,0,0,0,0,0,-1,909,1555,-5.51928,-31.7813
-308,-531,-1.66455,19.0624,0,0,0,0,0,0,0,-1,916,1555,-1.66455,-19.0623
-301,-531,-2.02405,18.8912,0,0,0,0,0,0,0,-1,923,1555,-2.02407,-18.8913
-294,-531,-1.3244,8.1825,0,0,0,0,0,0,0,-1,930,1555,-1.3244,-8.18251
-287,-531,-1.78192,10.1661,0,0,0,0,0,0,0,-1,937,1555,-1.78192,-10.1661
-280,-531,-2.14508,10.3945,0,0,0,0,0,0,0,-1,944,1555,-2.14506,-10.3945
-273,-531,-2.50818,10.6229,0,0,0,0,0,0,0,-1,951,1555,-2.5082,-10.6229
-266,-531,-4.97742,17.9215,0,0,0,0,0,0,0,-1,958,1555,-4.97744,-17.9215
-259,-531,0,0,0,0,0,0,0,0,0,-1,965,1555,0,0
-252,-531,0,0,0,0,0,0,0,0,0,-1,972,1555,0,0
-245,-531,0,0,0,0,0,0,0,0,0,-1,979,1555,0,0
-238,-531,0,0,0,0,0,0,0,0,0,-1,986,1555,0,0
-231,-531,0,0,0,0,0,0,0,0,0,-1,993,1555,0,0
-224,-531,0,0,0,0,0,0,0,0,0,-1,1000,1555,0,0
-217,-531,0,0,0,0,0,0,0,0,0,-1,1007,1555,0,0
-210,-531,0,0,0,0,0,0,0,0,0,-1,1014,1555,0,0
-203,-531,0,0,0,0,0,0,0,0,0,-1,1021,1555,0,0
-196,-531,0,0,0,0,0,0,0,0,0,-1,1028,1555,0,0
-189,-531,0,0,0,0,0,0,0,0,0,-1,1035,1555,0,0
-182,-531,0,0,0,0,0,0,0,0,0,-1,1042,1555,0,0
-175,-531,0,0,0,0,0,0,0,0,0,-1,1049,1555,0,0
-168,-531,0,0,0,0,0,0,0,0,0,-1,1056,1555,0,0
-161,-531,0,0,0,0,0,0,0,0,0,-1,1063,1555,0,0
-154,-531,0,0,0,0,0,0,0,0,0,-1,1070,1555,0,0
-147,-531,0,0,0,0,0,0,0,0,0,-1,1077,1555,0,0
-140,-531,0,0,0,0,0,0,0,0,0,-1,1084,1555,0,0
-133,-531,0,0,0,0,0,0,0,0,0,-1,1091,1555,0,0
-126,-531,0,0,0,0,0,0,0,0,0,-1,1098,1555,0,0
-119,-531,0,0,0,0,0,0,0,0,0,-1,1105,1555,0,0
-112,-531,0,0,0,0,0,0,0,0,0,-1,1112,1555,0,0
-105,-531,0,0,0,0,0,0,0,0,0,-1,1119,1555,0,0
-98,-531,0,0,0,0,0,0,0,0,0,-1,1126,1555,0,0
-91,-531,0,0,0,0,0,0,0,0,0,-1,1133,1555,0,0
-84,-531,0,0,0,0,0,0,0,0,0,-1,1140,1555,0,0
-77,-531,0,0,0,0,0,0,0,0,0,-1,1147,1555,0,0
-70,-531,0,0,0,0,0,0,0,0,0,-1,1154,1555,0,0
-63,-531,0,0,0,0,0,0,0,0,0,-1,1161,1555,0,0
-56,-531,0,0,0,0,0,0,0,0,0,-1,1168,1555,0,0
-49,-531,0,0,0,0,0,0,0,0,0,-1,1175,1555,0,0
-42,-531,0,0,0,0,0,0,0,0,0,-1,1182,1555,0,0
-35,-531,0,0,0,0,0,0,0,0,0,-1,1189,1555,0,0
-28,-531,0,0,0,0,0,0,0,0,0,-1,1196,1555,0,0
-21,-531,0,0,0,0,0,0,0,0,0,-1,1203,1555,0,0
-14,-531,0,0,0,0,0,0,0,0,0,-1,1210,1555,0,0
-7,-531,0,0,0,0,0,0,0,0,0,-1,1217,1555,0,0
0,-531,0,0,0,0,0,0,0,0,0,-1,1224,1555,0,0
7,-531,0,0,0,0,0,0,0,0,0,-1,1231,1555,0,0
14,-531,0,0,0,0,0,0,0,0,0,-1,1238,1555,0,0
21,-531,0,0,0,0,0,0,0,0,0,-1,1245,1555,0,0
28,-531,0,0,0,0,0,0,0,0,0,-1,1252,1555,0,0
35,-531,0,0,0,0,0,0,0,0,0,-1,1259,1555,0,0
42,-531,0,0,0,0,0,0,0,0,0,-1,1266,1555,0,0
49,-531,0,0,0,0,0,0,0,0,0,-1,1273,1555,0,0
56,-531,0,0,0,0,0,0,0,0,0,-1,1280,1555,0,0
63,-531,0,0,0,0,0,0,0,0,0,-1,1287,1555,0,0
70,-531,0,0,0,0,0,0,0,0,0,-1,1294,1555,0,0
77,-531,0,0,0,0,0,0,0,0,0,-1,1301,1555,0,0
84,-531,0,0,0,0,0,0,0,0,0,-1,1308,1555,0,0
91,-531,0,0,0,0,0,0,0,0,0,-1,1315,1555,0,0
98,-531,0,0,0,0,0,0,0,0,0,-1,1322,1555,0,0
105,-531,0,0,0,0,0,0,0,0,0,-1,1329,1555,0,0
112,-531,0,0,0,0,0,0,0,0,0,-1,1336,1555,0,0
119,-531,0,0,0,0,0,0,0,0,0,-1,1343,1555,0,0
126,-531,0,0,0,0,0,0,0,0,0,-1,1350,1555,0,0
133,-531,0,0,0,0,0,0,0,0,0,-1,1357,1555,0,0
140,-531,0,0,0,0,0,0,0,0,0,-1,1364,1555,0,0
147,-531,0,0,0,0,0,0,0,0,0,-1,1371,1555,0,0
154,-531,0,0,0,0,0,0,0,0,0,-1,1378,1555,0,0
161,-531,0,0,0,0,0,0,0,0,0,-1,1385,1555,0,0
168,-531,0,0,0,0,0,0,0,0,0,-1,1392,1555,0,0
175,-531,0,0,0,0,0,0,0,0,0,-1,1399,1555,0,0
182,-531,0,0,0,0,0,0,0,0,0,-1,1406,1555,0,0
189,-531,0,0,0,0,0,0,0,0,0,-1,1413,1555,0,0
196,-531,0,0,0,0,0,0,0,0,0,-1,1420,1555,0,0
203,-531,0,0,0,0,0,0,0,0,0,-1,1427,1555,0,0
210,-531,0,0,0,0,0,0,0,0,0,-1,1434,1555,0,0
217,-531,0,0,0,0,0,0,0,0,0,-1,1441,1555,0,0
224,-531,0,0,0,0,0,0,0,0,0,-1,1448,1555,0,0
231,-531,0,0,0,0,0,0,0,0,0,-1,1455,1555,0,0
238,-531,0,0,0,0,0,0,0,0,0,-1,1462,1555,0,0
245,-531,0,0,0,0,0,0,0,0,0,-1,1469,1555,0,0
252,-531,0,0,0,0,0,0,0,0,0,-1,1476,1555,0,0
259,-531,0,0,0,0,0,0,0,0,0,-1,1483,1555,0,0
266,-531,0,0,0,0,0,0,0,0,0,-1,1490,1555,0,0
273,-531,0,0,0,0,0,0,0,0,0,-1,1497,1555,0,0
280,-531,0,0,0,0,0,0,0,0,0,-1,1504,1555,0,0
287,-531,0,0,0,0,0,0,0,0,0,-1,1511,1555,0,0
294,-531,0,0,0,0,0,0,0,0,0,-1,1518,1555,0,0
301,-531,0,0,0,0,0,0,0,0,0,-1,1525,1555,0,0
308,-531,0,0,0,0,0,0,0,0,0,-1,1532,1555,0,0
315,-531,0,0,0,0,0,0,0,0,0,-1,1539,1555,0,0
322,-531,0,0,0,0,0,0,0,0,0,-1,1546,1555,0,0
329,-531,0,0,0,0,0,0,0,0,0,-1,1553,1555,0,0
336,-531,0,0,0,0,0,0,0,0,0,-1,1560,1555,0,0
343,-531,0,0,0,0,0,0,0,0,0,-1,1567,1555,0,0
350,-531,0,0,0,0,0,0,0,0,0,-1,1574,1555,0,0
357,-531,0,0,0,0,0,0,0,0,0,-1,1581,1555,0,0
364,-531,0,0,0,0,0,0,0,0,0,-1,1588,1555,0,0
371,-531,0,0,0,0,0,0,0,0,0,-1,1595,1555,0,0
378,-531,0,0,0,0,0,0,0,0,0,-1,1602,1555,0,0
385,-531,3.48169,1.78625,0,0,0,0,0,0,0,-1,1609,1555,3.48165,-1.78624
392,-531,10.8781,9.09204,0,0,0,0,0,0,0,-1,1616,1555,10.8781,-9.09205
399,-531,8.26306,5.29602,0,0,0,0,0,0,0,-1,1623,1555,8.26302,-5.29607
406,-531,8.26147,5.42712,0,0,0,0,0,0,0,-1,1630,1555,8.26145,-5.42716
413,-531,8.20618,5.75012,0,0,0,0,0,0,0,-1,1637,1555,8.20619,-5.75017
420,-531,7.64868,7.09558,0,0,0,0,0,0,0,-1,1644,1555,7.64867,-7.09564
427,-531,9.93054,11.8412,0,0,0,0,0,0,0,-1,1651,1555,9.93059,-11.8412
434,-531,10.244,11.7072,0,0,0,0,0,0,0,-1,1658,1555,10.244,-11.7071
441,-531,11.4528,12.9397,0,0,0,0,0,0,0,-1,1665,1555,11.4528,-12.9397
448,-531,11.928,18.8029,0,0,0,0,0,0,0,-1,1672,1555,11.928,-18.8028
455,-531,14.4877,9.67065,0,0,0,0,0,0,0,-1,1679,1555,14.4876,-9.67066
462,-531,13.5253,12.2002,0,0,0,0,0,0,0,-1,1686,1555,13.5252,-12.2002
469,-531,15.5087,15.7894,0,0,0,0,0,0,0,-1,1693,1555,15.5086,-15.7895
476,-531,14.6582,16.2264,0,0,0,0,0,0,0,-1,1700,1555,14.6582,-16.2264
483,-531,14.755,18.5994,0,0,0,0,0,0,0,-1,1707,1555,14.7551,-18.5994
490,-531,16.9362,25.4943,0,0,0,0,0,0,0,-1,1714,1555,16.9362,-25.4942
497,-531,24.5431,37.2638,0,0,0,0,0,0,0,-1,1721,1555,24.5431,-37.2637
504,-531,24.6766,36.2467,0.00962187,0.0089469,-0.00650309,0.0157962,0.00277255,-0.759474,0.00973908,0.0397742,1728,1555,24.6767,-36.2467
511,-531,24.7794,35.4213,0.00799986,0.007286,-0.00531334,0.0129682,0.00231761,-0.75186,0.00798586,0.0164673,1735,1555,24.7794,-35.4213
518,-531,24.7938,34.6569,0.00660553,0.00603816,-0.0043992,0.0107302,0.0019135,-0.7532,0.00660862,0.0155997,1742,1555,24.7938,-34.6568
525,-531,24.7804,33.9148,0.00522247,0.00485799,-0.00357344,0.00861832,0.00146215,-0.759921,0.0053255,0.0147784,1749,1555,24.7804,-33.9148
532,-531,24.7694,33.1619,0.00397939,0.00377858,-0.00281564,0.00669642,0.00106155,-0.767576,0.00415587,0.0117432,1756,1555,24.7694,-33.1619
539,-531,24.708,32.4043,0.00306571,0.00290747,-0.00218854,0.00517656,0.000796624,-0.76733,0.00321853,0.0137916,1763,1555,24.708,-32.4043
546,-531,24.6075,31.6877,0.00236507,0.00203006,-0.00159899,0.00380531,0.000589824,-0.73321,0.00236491,0.0174532,1770,1555,24.6075,-31.6878
553,-531,24.6428,30.9805,0.00190169,0.00131632,-0.00107606,0.00272416,0.000493854,-0.652611,0.00167592,0.0354918,1777,1555,24.6428,-30.9805
560,-531,24.6583,30.2289,0.00171781,0.000707152,-0.000640434,0.00202827,0.00039669,-0.451387,0.00124126,0.0393815,1784,1555,24.6583,-30.2289
567,-531,24.4868,29.4089,0.00181662,0.000242343,-0.000304279,0.00187339,0.000185578,-0.184435,0.00119189,0.0212891,1791,1555,24.4868,-29.409
574,-531,24.4275,28.6715,0.00221703,-0.000113427,-7.50051e-05,0.00221944,-0.000115838,-0.0321404,0.00151971,0.0156727,1798,1555,24.4275,-28.6715
581,-531,24.4603,27.8787,0.00314164,-0.000291432,-9.81556e-05,0.00314444,-0.000294236,-0.0285601,0.00220094,0.0277347,1805,1555,24.4603,-27.8786
588,-531,24.4941,27.0383,0.00450763,-0.00013143,-0.000355224,0.00453468,-0.000158472,-0.0759821,0.0030773,0.0474399,1812,1555,24.4941,-27.0383
595,-531,24.4453,26.1614,0,0,0,0,0,0,0,-1,1819,1555,24.4453,-26.1614
602,-531,13.701,11.8346,0,0,0,0,0,0,0,-1,1826,1555,13.701,-11.8347
609,-531,10.9072,8.50903,0,0,0,0,0,0,0,-1,1833,1555,10.9073,-8.50902
616,-531,10.5723,7.17859,0,0,0,0,0,0,0,-1,1840,1555,10.5723,-7.17855
623,-531,10.0674,5.08984,0,0,0,0,0,0,0,-1,1847,1555,10.0674,-5.08981
630,-531,11.672,3.18909,0,0,0,0,0,0,0,-1,1854,1555,11.672,-3.18904
637,-531,13.2546,1.38965,0,0,0,0,0,0,0,-1,1861,1555,13.2547,-1.3896
644,-531,0,0,0,0,0,0,0,0,0,-1,1868,1555,0,0
651,-531,0,0,0,0,0,0,0,0,0,-1,1875,1555,0,0
658,-531,0,0,0,0,0,0,0,0,0,-1,1882,1555,0,0
665,-531,0,0,0,0,0,0,0,0,0,-1,1889,1555,0,0
672,-531,0,0,0,0,0,0,0,0,0,-1,1896,1555,0,0
679,-531,0,0,0,0,0,0,0,0,0,-1,1903,1555,0,0
686,-531,0,0,0,0,0,0,0,0,0,-1,1910,1555,0,0
693,-531,0,0,0,0,0,0,0,0,0,-1,1917,1555,0,0
700,-531,0,0,0,0,0,0,0,0,0,-1,1924,1555,0,0
707,-531,0,0,0,0,0,0,0,0,0,-1,1931,1555,0,0
714,-531,0,0,0,0,0,0,0,0,0,-1,1938,1555,0,0
721,-531,0,0,0,0,0,0,0,0,0,-1,1945,1555,0,0
728,-531,0,0,0,0,0,0,0,0,0,-1,1952,1555,0,0
735,-531,0,0,0,0,0,0,0,0,0,-1,1959,1555,0,0
742,-531,0,0,0,0,0,0,0,0,0,-1,1966,1555,0,0
749,-531,0,0,0,0,0,0,0,0,0,-1,1973,1555,0,0
756,-531,0,0,0,0,0,0,0,0,0,-1,1980,1555,0,0
763,-531,0,0,0,0,0,0,0,0,0,-1,1987,1555,0,0
770,-531,0,0,0,0,0,0,0,0,0,-1,1994,1555,0,0
777,-531,0,0,0,0,0,0,0,0,0,-1,2001,1555,0,0
784,-531,0,0,0,0,0,0,0,0,0,-1,2008,1555,0,0
791,-531,0,0,0,0,0,0,0,0,0,-1,2015,1555,0,0
798,-531,0,0,0,0,0,0,0,0,0,-1,2022,1555,0,0
805,-531,0,0,0,0,0,0,0,0,0,-1,2029,1555,0,0
812,-531,0,0,0,0,0,0,0,0,0,-1,2036,1555,0,0
-700,-538,0,0,0,0,0,0,0,0,0,-1,524,1562,0,0
-693,-538,0,0,0,0,0,0,0,0,0,-1,531,1562,0,0
-686,-538,0,0,0,0,0,0,0,0,0,-1,538,1562,0,0
-679,-538,0,0,0,0,0,0,0,0,0,-1,545,1562,0,0
-672,-538,0,0,0,0,0,0,0,0,0,-1,552,1562,0,0
-665,-538,0,0,0,0,0,0,0,0,0,-1,559,1562,0,0
-658,-538,0,0,0,0,0,0,0,0,0,-1,566,1562,0,0
-651,-538,0,0,0,0,0,0,0,0,0,-1,573,1562,0,0
-644,-538,0,0,0,0,0,0,0,0,0,-1,580,1562,0,0
-637,-538,0,0,0,0,0,0,0,0,0,-1,587,1562,0,0
-630,-538,0,0,0,0,0,0,0,0,0,-1,594,1562,0,0
-623,-538,0,0,0,0,0,0,0,0,0,-1,601,1562,0,0
-616,-538,0,0,0,0,0,0,0,0,0,-1,608,1562,0,0
-609,-538,0,0,0,0,0,0,0,0,0,-1,615,1562,0,0
-602,-538,0,0,0,0,0,0,0,0,0,-1,622,1562,0,0
-595,-538,0,0,0,0,0,0,0,0,0,-1,629,1562,0,0
-588,-538,0,0,0,0,0,0,0,0,0,-1,636,1562,0,0
-581,-538,0,0,0,0,0,0,0,0,0,-1,643,1562,0,0
-574,-538,0,0,0,0,0,0,0,0,0,-1,650,1562,0,0
-567,-538,0,0,0,0,0,0,0,0,0,-1,657,1562,0,0
-560,-538,0,0,0,0,0,0,0,0,0,-1,664,1562,0,0
-553,-538,0,0,0,0,0,0,0,0,0,-1,671,1562,0,0
-546,-538,0,0,0,0,0,0,0,0,0,-1,678,1562,0,0
-539,-538,0,0,0,0,0,0,0,0,0,-1,685,1562,0,0
-532,-538,0,0,0,0,0,0,0,0,0,-1,692,1562,0,0
-525,-538,0,0,0,0,0,0,0,0,0,-1,699,1562,0,0
-518,-538,0,0,0,0,0,0,0,0,0,-1,706,1562,0,0
-511,-538,-2.6582,-1.54321,0,0,0,0,0,0,0,-1,713,1562,-2.65821,1.54327
-504,-538,-2.66455,-0.71167,0,0,0,0,0,0,0,-1,720,1562,-2.66456,0.711667
-497,-538,-0.763855,6.77747,0,0,0,0,0,0,0,-1,727,1562,-0.76385,-6.77743
-490,-538,-2.70453,8.01465,0,0,0,0,0,0,0,-1,734,1562,-2.70451,-8.0147
-483,-538,-0.933533,7.84644,0,0,0,0,0,0,0,-1,741,1562,-0.933548,-7.84638
-476,-538,-3.29962,15.8307,0,0,0,0,0,0,0,-1,748,1562,-3.29962,-15.8306
-469,-538,-6.44983,24.5707,0,0,0,0,0,0,0,-1,755,1562,-6.4498,-24.5707
-462,-538,-5.75458,25.4069,0,0,0,0,0,0,0,-1,762,1562,-5.7546,-25.4068
-455,-538,-5.56396,26.2977,0,0,0,0,0,0,0,-1,769,1562,-5.56393,-26.2978
-448,-538,-6.12793,27.8997,0,0,0,0,0,0,0,-1,776,1562,-6.12794,-27.8997
-441,-538,-6.11877,28.7775,-0.00470722,-0.00648096,-0.003026,-0.0024408,-0.00874738,-0.642848,0.0052121,0.030706,783,1562,-6.11876,-28.7775
-434,-538,-6.23334,29.4291,-0.00393112,-0.00440769,-0.00241218,-0.00174548,-0.00659332,-0.736166,0.00394462,0.014345,790,1562,-6.23336,-29.429
-427,-538,-6.2558,30.2742,-0.00298644,-0.00274131,-0.00168617,-0.00117326,-0.00455449,-0.821679,0.0027306,0.0137094,797,1562,-6.2558,-30.2742
-420,-538,-6.2948,31.0219,-0.00196943,-0.00142441,-0.000970655,-0.000688735,-0.0027051,-0.922249,0.00162328,0.0185172,804,1562,-6.29478,-31.0218
-413,-538,-6.33655,31.7518,-0.00107544,-0.000265091,-0.00044076,-7.15702e-05,-0.00126896,-1.15708,0.000823154,0.0189525,811,1562,-6.33658,-31.7519
-406,-538,-6.37891,32.5563,-3.55887e-05,0.000681147,0.000264993,0.000768479,-0.000122921,1.25244,0.000557826,0.015688,818,1562,-6.37891,-32.5562
-399,-538,-6.42694,33.3419,0.000930721,0.0014216,0.000819513,0.00203164,0.000320682,0.930894,0.00126119,0.0139278,825,1562,-6.42697,-33.3419
-392,-538,-6.4483,34.1029,0.00170657,0.00210527,0.00122031,0.0031424,0.000669434,0.866364,0.00191128,0.0155916,832,1562,-6.44829,-34.1029
-385,-538,-6.49207,34.8627,0.00237279,0.00278341,0.00146306,0.0040555,0.0011007,0.855108,0.00242164,0.0134956,839,1562,-6.49205,-34.8626
-378,-538,-6.53033,35.6056,0.00292687,0.00336802,0.00152462,0.00468794,0.00160696,0.857237,0.00275082,0.0109728,846,1562,-6.53032,-35.6056
-371,-538,-6.57629,36.314,0.00360383,0.00427071,0.00172443,0.00569364,0.0021809,0.8809,0.00331707,0.0155346,853,1562,-6.57628,-36.3139
-364,-538,-6.52521,37.1774,0.0045927,0.00544338,0.00217674,0.00723595,0.00280014,0.881884,0.0042131,0.0246307,860,1562,-6.52518,-37.1774
-357,-538,-6.36865,38.1249,0,0,0,0,0,0,0,-1,867,1562,-6.36864,-38.1249
-350,-538,-6.3045,39.2037,0,0,0,0,0,0,0,-1,874,1562,-6.30448,-39.2038
-343,-538,-2.47339,28.3082,0,0,0,0,0,0,0,-1,881,1562,-2.47341,-28.3083
-336,-538,-2.40161,28.5409,0,0,0,0,0,0,0,-1,888,1562,-2.40163,-28.541
-329,-538,-2.57159,28.4905,0,0,0,0,0,0,0,-1,895,1562,-2.57161,-28.4905
-322,-538,-2.83783,28.2308,0,0,0,0,0,0,0,-1,902,1562,-2.83783,-28.2308
-315,-538,-2.91827,27.7609,0,0,0,0,0,0,0,-1,909,1562,-2.91829,-27.7608
-308,-538,-4.37433,31.7996,0,0,0,0,0,0,0,-1,916,1562,-4.3743,-31.7995
-301,-538,-0.452393,18.5101,0,0,0,0,0,0,0,-1,923,1562,-0.452367,-18.5102
-294,-538,1.23138,14.0757,0,0,0,0,0,0,0,-1,930,1562,1.23137,-14.0757
-287,-538,-2.60419,10.2361,0,0,0,0,0,0,0,-1,937,1562,-2.6042,-10.2361
-280,-538,-2.93475,10.5106,0,0,0,0,0,0,0,-1,944,1562,-2.93475,-10.5106
-273,-538,-3.26532,10.785,0,0,0,0,0,0,0,-1,951,1562,-3.26531,-10.785
-266,-538,-5.03412,15.9951,0,0,0,0,0,0,0,-1,958,1562,-5.03409,-15.9951
-259,-538,-5.89642,16.5184,0,0,0,0,0,0,0,-1,965,1562,-5.89644,-16.5184
-252,-538,0,0,0,0,0,0,0,0,0,-1,972,1562,0,0
-245,-538,0,0,0,0,0,0,0,0,0,-1,979,1562,0,0
-238,-538,0,0,0,0,0,0,0,0,0,-1,986,1562,0,0
-231,-538,0,0,0,0,0,0,0,0,0,-1,993,1562,0,0
-224,-538,0,0,0,0,0,0,0,0,0,-1,1000,1562,0,0
-217,-538,0,0,0,0,0,0,0,0,0,-1,1007,1562,0,0
-210,-538,0,0,0,0,0,0,0,0,0,-1,1014,1562,0,0
-203,-538,0,0,0,0,0,0,0,0,0,-1,1021,1562,0,0
-196,-538,0,0,0,0,0,0,0,0,0,-1,1028,1562,0,0
-189,-538,0,0,0,0,0,0,0,0,0,-1,1035,1562,0,0
-182,-538,0,0,0,0,0,0,0,0,0,-1,1042,1562,0,0
-175,-538,0,0,0,0,0,0,0,0,0,-1,1049,1562,0,0
-168,-538,0,0,0,0,0,0,0,0,0,-1,1056,1562,0,0
-161,-538,0,0,0,0,0,0,0,0,0,-1,1063,1562,0,0
-154,-538,0,0,0,0,0,0,0,0,0,-1,1070,1562,0,0
-147,-538,0,0,0,0,0,0,0,0,0,-1,1077,1562,0,0
-140,-538,0,0,0,0,0,0,0,0,0,-1,1084,1562,0,0
-133,-538,0,0,0,0,0,0,0,0,0,-1,1091,1562,0,0
-126,-538,0,0,0,0,0,0,0,0,0,-1,1098,1562,0,0
-119,-538,0,0,0,0,0,0,0,0,0,-1,1105,1562,0,0
-112,-538,0,0,0,0,0,0,0,0,0,-1,1112,1562,0,0
-105,-538,0,0,0,0,0,0,0,0,0,-1,1119,1562,0,0
-98,-538,0,0,0,0,0,0,0,0,0,-1,1126,1562,0,0
-91,-538,0,0,0,0,0,0,0,0,0,-1,1133,1562,0,0
-84,-538,0,0,0,0,0,0,0,0,0,-1,1140,1562,0,0
-77,-538,0,0,0,0,0,0,0,0,0,-1,1147,1562,0,0
-70,-538,0,0,0,0,0,0,0,0,0,-1,1154,1562,0,0
-63,-538,0,0,0,0,0,0,0,0,0,-1,1161,1562,0,0
-56,-538,0,0,0,0,0,0,0,0,0,-1,1168,1562,0,0
-49,-538,0,0,0,0,0,0,0,0,0,-1,1175,1562,0,0
-42,-538,0,0,0,0,0,0,0,0,0,-1,1182,1562,0,0
-35,-538,0,0,0,0,0,0,0,0,0,-1,1189,1562,0,0
-28,-538,0,0,0,0,0,0,0,0,0,-1,1196,1562,0,0
-21,-538,0,0,0,0,0,0,0,0,0,-1,1203,1562,0,0
-14,-538,0,0,0,0,0,0,0,0,0,-1,1210,1562,0,0
-7,-538,0,0,0,0,0,0,0,0,0,-1,1217,1562,0,0
0,-538,0,0,0,0,0,0,0,0,0,-1,1224,1562,0,0
7,-538,0,0,0,0,0,0,0,0,0,-1,1231,1562,0,0
14,-538,0,0,0,0,0,0,0,0,0,-1,1238,1562,0,0
21,-538,0,0,0,0,0,0,0,0,0,-1,1245,1562,0,0
28,-538,0,0,0,0,0,0,0,0,0,-1,1252,1562,0,0
35,-538,0,0,0,0,0,0,0,0,0,-1,1259,1562,0,0
42,-538,0,0,0,0,0,0,0,0,0,-1,1266,1562,0,0
49,-538,0,0,0,0,0,0,0,0,0,-1,1273,1562,0,0
56,-538,0,0,0,0,0,0,0,0,0,-1,1280,1562,0,0
63,-538,0,0,0,0,0,0,0,0,0,-1,1287,1562,0,0
70,-538,0,0,0,0,0,0,0,0,0,-1,1294,1562,0,0
77,-538,0,0,0,0,0,0,0,0,0,-1,1301,1562,0,0
84,-538,0,0,0,0,0,0,0,0,0,-1,1308,1562,0,0
91,-538,0,0,0,0,0,0,0,0,0,-1,1315,1562,0,0
98,-538,0,0,0,0,0,0,0,0,0,-1,1322,1562,0,0
105,-538,0,0,0,0,0,0,0,0,0,-1,1329,1562,0,0
112,-538,0,0,0,0,0,0,0,0,0,-1,1336,1562,0,0
119,-538,0,0,0,0,0,0,0,0,0,-1,1343,1562,0,0
126,-538,0,0,0,0,0,0,0,0,0,-1,1350,1562,0,0
133,-538,0,0,0,0,0,0,0,0,0,-1,1357,1562,0,0
140,-538,0,0,0,0,0,0,0,0,0,-1,1364,1562,0,0
147,-538,0,0,0,0,0,0,0,0,0,-1,1371,1562,0,0
154,-538,0,0,0,0,0,0,0,0,0,-1,1378,1562,0,0
161,-538,0,0,0,0,0,0,0,0,0,-1,1385,1562,0,0
168,-538,0,0,0,0,0,0,0,0,0,-1,1392,1562,0,0
175,-538,0,0,0,0,0,0,0,0,0,-1,1399,1562,0,0
182,-538,0,0,0,0,0,0,0,0,0,-1,1406,1562,0,0
189,-538,0,0,0,0,0,0,0,0,0,-1,1413,1562,0,0
196,-538,0,0,0,0,0,0,0,0,0,-1,1420,1562,0,0
203,-538,0,0,0,0,0,0,0,0,0,-1,1427,1562,0,0
210,-538,0,0,0,0,0,0,0,0,0,-1,1434,1562,0,0
217,-538,0,0,0,0,0,0,0,0,0,-1,1441,1562,0,0
224,-538,0,0,0,0,0,0,0,0,0,-1,1448,1562,0,0
231,-538,0,0,0,0,0,0,0,0,0,-1,1455,1562,0,0
238,-538,0,0,0,0,0,0,0,0,0,-1,1462,1562,0,0
245,-538,0,0,0,0,0,0,0,0,0,-1,1469,1562,0,0
252,-538,0,0,0,0,0,0,0,0,0,-1,1476,1562,0,0
259,-538,0,0,0,0,0,0,0,0,0,-1,1483,1562,0,0
266,-538,0,0,0,0,0,0,0,0,0,-1,1490,1562,0,0
273,-538,0,0,0,0,0,0,0,0,0,-1,1497,1562,0,0
280,-538,0,0,0,0,0,0,0,0,0,-1,1504,1562,0,0
287,-538,0,0,0,0,0,0,0,0,0,-1,1511,1562,0,0
294,-538,0,0,0,0,0,0,0,0,0,-1,1518,1562,0,0
301,-538,0,0,0,0,0,0,0,0,0,-1,1525,1562,0,0
308,-538,0,0,0,0,0,0,0,0,0,-1,1532,1562,0,0
315,-538,0,0,0,0,0,0,0,0,0,-1,1539,1562,0,0
322,-538,0,0,0,0,0,0,0,0,0,-1,1546,1562,0,0
329,-538,0,0,0,0,0,0,0,0,0,-1,1553,1562,0,0
336,-538,0,0,0,0,0,0,0,0,0,-1,1560,1562,0,0
343,-538,0,0,0,0,0,0,0,0,0,-1,1567,1562,0,0
350,-538,0,0,0,0,0,0,0,0,0,-1,1574,1562,0,0
357,-538,0,0,0,0,0,0,0,0,0,-1,1581,1562,0,0
364,-538,0,0,0,0,0,0,0,0,0,-1,1588,1562,0,0
371,-538,0,0,0,0,0,0,0,0,0,-1,1595,1562,0,0
378,-538,9.65479,5.82434,0,0,0,0,0,0,0,-1,1602,1562,9.6548,-5.82439
385,-538,10.5449,7.9502,0,0,0,0,0,0,0,-1,1609,1562,10.5449,-7.95014
392,-538,8.20361,7.07214,0,0,0,0,0,0,0,-1,1616,1562,8.20362,-7.07211
399,-538,7.85425,4.70508,0,0,0,0,0,0,0,-1,1623,1562,7.85425,-4.70512
406,-538,7.77734,4.96094,0,0,0,0,0,0,0,-1,1630,1562,7.77729,-4.96097
413,-538,13.0446,13.1765,0,0,0,0,0,0,0,-1,1637,1562,13.0446,-13.1765
420,-538,9.96216,12.7653,0,0,0,0,0,0,0,-1,1644,1562,9.96221,-12.7653
427,-538,10.1732,14.5863,0,0,0,0,0,0,0,-1,1651,1562,10.1732,-14.5863
434,-538,9.64331,14.7745,0,0,0,0,0,0,0,-1,1658,1562,9.64326,-14.7746
441,-538,11.5039,20.5195,0,0,0,0,0,0,0,-1,1665,1562,11.5039,-20.5195
448,-538,12.8766,22.4932,0,0,0,0,0,0,0,-1,1672,1562,12.8766,-22.4932
455,-538,12.5693,17.4128,0,0,0,0,0,0,0,-1,1679,1562,12.5694,-17.4128
462,-538,12.1389,17.017,0,0,0,0,0,0,0,-1,1686,1562,12.1389,-17.017
469,-538,14.3802,16.6945,0,0,0,0,0,0,0,-1,1693,1562,14.3803,-16.6945
476,-538,13.724,19.0608,0,0,0,0,0,0,0,-1,1700,1562,13.724,-19.0608
483,-538,17.088,25.2936,0,0,0,0,0,0,0,-1,1707,1562,17.088,-25.2936
490,-538,23.8766,37.8429,0,0,0,0,0,0,0,-1,1714,1562,23.8766,-37.8429
497,-538,24.1134,36.9092,0,0,0,0,0,0,0,-1,1721,1562,24.1135,-36.9092
504,-538,24.0898,36.0989,0.00745779,0.00705482,-0.004825,0.0120855,0.00242709,-0.764531,0.00738219,0.0171512,1728,1562,24.0899,-36.0989
511,-538,24.0533,35.3945,0.00608586,0.00568379,-0.00390556,0.00979556,0.0019741,-0.759683,0.00598192,0.0105806,1735,1562,24.0534,-35.3945
518,-538,24.0444,34.6711,0.00489237,0.00466167,-0.00322376,0.00800284,0.00155119,-0.767515,0.00490069,0.011466,1742,1562,24.0444,-34.6711
525,-538,24.0284,33.9379,0.00375035,0.00367874,-0.00258206,0.00629685,0.00113224,-0.778465,0.00387601,0.0129154,1749,1562,24.0285,-33.9379
532,-538,24.0182,33.2114,0.00276057,0.00277254,-0.0020019,0.00476847,0.000764642,-0.786894,0.00295724,0.0151658,1756,1562,24.0182,-33.2115
539,-538,23.9634,32.4819,0.00206577,0.00207751,-0.00154405,0.0036157,0.000527578,-0.787299,0.00225527,0.0177357,1763,1562,23.9634,-32.482
546,-538,23.8649,31.7347,0.00154398,0.00132545,-0.00108323,0.00252344,0.000345986,-0.735133,0.00157965,0.0179991,1770,1562,23.8649,-31.7347
553,-538,23.8645,30.9437,0.00123938,0.000721759,-0.000672909,0.00170153,0.000259605,-0.601812,0.00105849,0.0294662,1777,1562,23.8645,-30.9437
560,-538,23.819,30.2278,0.00123527,0.00022582,-0.000344711,0.00134175,0.000119339,-0.299602,0.000857492,0.0346415,1784,1562,23.8189,-30.2278
567,-538,23.7168,29.4861,0.00152814,-0.000177688,-5.95605e-05,0.00153022,-0.000179765,-0.0348592,0.00108504,0.0263957,1791,1562,23.7168,-29.4861
574,-538,23.5898,28.7469,0.00214607,-0.000530657,0.00015376,0.00215487,-0.000539461,0.0571924,0.00164614,0.033135,1798,1562,23.5899,-28.7469
581,-538,23.6255,27.9677,0.00346061,-0.000653074,2.88799e-05,0.00346082,-0.000653277,0.00701999,0.00255298,0.0494023,1805,1562,23.6255,-27.9677
588,-538,23.9337,27.1476,0,0,0,0,0,0,0,-1,1812,1562,23.9337,-27.1476
595,-538,15.9808,16.0894,0,0,0,0,0,0,0,-1,1819,1562,15.9808,-16.0893
602,-538,10.314,8.94238,0,0,0,0,0,0,0,-1,1826,1562,10.314,-8.94238
609,-538,10.1046,7.05713,0,0,0,0,0,0,0,-1,1833,1562,10.1046,-7.05719
616,-538,9.92249,5.43506,0,0,0,0,0,0,0,-1,1840,1562,9.92254,-5.43507
623,-538,11.1711,4.31604,0,0,0,0,0,0,0,-1,1847,1562,11.1711,-4.316
630,-538,12.6112,2.61633,0,0,0,0,0,0,0,-1,1854,1562,12.6112,-2.61637
637,-538,0,0,0,0,0,0,0,0,0,-1,1861,1562,0,0
644,-538,0,0,0,0,0,0,0,0,0,-1,1868,1562,0,0
651,-538,0,0,0,0,0,0,0,0,0,-1,1875,1562,0,0
658,-538,0,0,0,0,0,0,0,0,0,-1,1882,1562,0,0
665,-538,0,0,0,0,0,0,0,0,0,-1,1889,1562,0,0
672,-538,0,0,0,0,0,0,0,0,0,-1,1896,1562,0,0
679,-538,0,0,0,0,0,0,0,0,0,-1,1903,1562,0,0
686,-538,0,0,0,0,0,0,0,0,0,-1,1910,1562,0,0
693,-538,0,0,0,0,0,0,0,0,0,-1,1917,1562,0,0
700,-538,0,0,0,0,0,0,0,0,0,-1,1924,1562,0,0
707,-538,0,0,0,0,0,0,0,0,0,-1,1931,1562,0,0
714,-538,0,0,0,0,0,0,0,0,0,-1,1938,1562,0,0
721,-538,0,0,0,0,0,0,0,0,0,-1,1945,1562,0,0
728,-538,0,0,0,0,0,0,0,0,0,-1,1952,1562,0,0
735,-538,0,0,0,0,0,0,0,0,0,-1,1959,1562,0,0
742,-538,0,0,0,0,0,0,0,0,0,-1,1966,1562,0,0
749,-538,0,0,0,0,0,0,0,0,0,-1,1973,1562,0,0
756,-538,0,0,0,0,0,0,0,0,0,-1,1980,1562,0,0
763,-538,0,0,0,0,0,0,0,0,0,-1,1987,1562,0,0
770,-538,0,0,0,0,0,0,0,0,0,-1,1994,1562,0,0
777,-538,0,0,0,0,0,0,0,0,0,-1,2001,1562,0,0
784,-538,0,0,0,0,0,0,0,0,0,-1,2008,1562,0,0
791,-538,0,0,0,0,0,0,0,0,0,-1,2015,1562,0,0
798,-538,0,0,0,0,0,0,0,0,0,-1,2022,1562,0,0
805,-538,0,0,0,0,0,0,0,0,0,-1,2029,1562,0,0
812,-538,0,0,0,0,0,0,0,0,0,-1,2036,1562,0,0
-700,-545,0,0,0,0,0,0,0,0,0,-1,524,1569,0,0
-693,-545,0,0,0,0,0,0,0,0,0,-1,531,1569,0,0
-686,-545,0,0,0,0,0,0,0,0,0,-1,538,1569,0,0
-679,-545,0,0,0,0,0,0,0,0,0,-1,545,1569,0,0
-672,-545,0,0,0,0,0,0,0,0,0,-1,552,1569,0,0
-665,-545,0,0,0,0,0,0,0,0,0,-1,559,1569,0,0
-658,-545,0,0,0,0,0,0,0,0,0,-1,566,1569,0,0
-651,-545,0,0,0,0,0,0,0,0,0,-1,573,1569,0,0
-644,-545,0,0,0,0,0,0,0,0,0,-1,580,1569,0,0
-637,-545,0,0,0,0,0,0,0,0,0,-1,587,1569,0,0
-630,-545,0,0,0,0,0,0,0,0,0,-1,594,1569,0,0
-623,-545,0,0,0,0,0,0,0,0,0,-1,601,1569,0,0
-616,-545,0,0,0,0,0,0,0,0,0,-1,608,1569,0,0
-609,-545,0,0,0,0,0,0,0,0,0,-1,615,1569,0,0
-602,-545,0,0,0,0,0,0,0,0,0,-1,622,1569,0,0
-595,-545,0,0,0,0,0,0,0,0,0,-1,629,1569,0,0
-588,-545,0,0,0,0,0,0,0,0,0,-1,636,1569,0,0
-581,-545,0,0,0,0,0,0,0,0,0,-1,643,1569,0,0
-574,-545,0,0,0,0,0,0,0,0,0,-1,650,1569,0,0
-567,-545,0,0,0,0,0,0,0,0,0,-1,657,1569,0,0
-560,-545,0,0,0,0,0,0,0,0,0,-1,664,1569,0,0
-553,-545,0,0,0,0,0,0,0,0,0,-1,671,1569,0,0
-546,-545,0,0,0,0,0,0,0,0,0,-1,678,1569,0,0
-539,-545,0,0,0,0,0,0,0,0,0,-1,685,1569,0,0
-532,-545,0,0,0,0,0,0,0,0,0,-1,692,1569,0,0
-525,-545,0,0,0,0,0,0,0,0,0,-1,699,1569,0,0
-518,-545,0,0,0,0,0,0,0,0,0,-1,706,1569,0,0
-511,-545,0,0,0,0,0,0,0,0,0,-1,713,1569,0,0
-504,-545,-3.55237,-2.5354,0,0,0,0,0,0,0,-1,720,1569,-3.55236,2.53545
-497,-545,2.26575,5.69214,0,0,0,0,0,0,0,-1,727,1569,2.26573,-5.6922
-490,-545,-2.17334,7.81396,0,0,0,0,0,0,0,-1,734,1569,-2.17334,-7.81399
-483,-545,-1.88336,5.8446,0,0,0,0,0,0,0,-1,741,1569,-1.88334,-5.84466
-476,-545,-1.13147,6.5741,0,0,0,0,0,0,0,-1,748,1569,-1.13149,-6.57405
-469,-545,-1.03412,15.8353,0,0,0,0,0,0,0,-1,755,1569,-1.03414,-15.8353
-462,-545,-4.09772,21.0458,0,0,0,0,0,0,0,-1,762,1569,-4.0977,-21.0458
-455,-545,-5.18781,26.8602,0,0,0,0,0,0,0,-1,769,1569,-5.18782,-26.8602
-448,-545,-5.14099,27.9067,0,0,0,0,0,0,0,-1,776,1569,-5.141,-27.9067
-441,-545,-5.17822,28.934,-0.00681804,-0.00750267,-0.00424667,-0.00289991,-0.0114208,-0.745181,0.00685484,0.037662,783,1569,-5.17821,-28.9339
-434,-545,-5.53864,29.5479,-0.00561978,-0.00527773,-0.0033722,-0.00207222,-0.00882529,-0.810735,0.00532883,0.0323133,790,1569,-5.53863,-29.5478
-427,-545,-5.50702,30.3094,-0.00430645,-0.00341491,-0.00236998,-0.00144914,-0.00627222,-0.878357,0.00379189,0.0222765,797,1569,-5.50702,-30.3094
-420,-545,-5.50214,31.0525,-0.00303325,-0.002027,-0.0014898,-0.000957664,-0.00410259,-0.948242,0.0024783,0.0239763,804,1569,-5.50215,-31.0525
-413,-545,-5.54291,31.7847,-0.00203136,-0.000869431,-0.000922517,-0.000360186,-0.00254061,-1.06641,0.00158736,0.0228949,811,1569,-5.54294,-31.7847
-406,-545,-5.60162,32.5973,-0.000908776,1.84739e-05,-0.000182039,5.29316e-05,-0.000943234,-1.38372,0.000647189,0.0172971,818,1569,-5.60165,-32.5973
-399,-545,-5.63611,33.3638,0.000109348,0.000660487,0.000368449,0.000845019,-7.51838e-05,1.10648,0.000590006,0.0115703,825,1569,-5.63608,-33.3638
-392,-545,-5.67999,34.0909,0.000922034,0.00126114,0.000768529,0.0018786,0.000304577,0.893969,0.00116423,0.012846,832,1569,-5.67996,-34.091
-385,-545,-5.71887,34.8673,0.00166289,0.00190543,0.00103849,0.0028297,0.000738618,0.843521,0.00169479,0.011596,839,1569,-5.71886,-34.8673
-378,-545,-5.77759,35.6299,0.00226834,0.00246602,0.00115206,0.00352347,0.00121089,0.828192,0.00206715,0.0128166,846,1569,-5.7776,-35.6298
-371,-545,-5.80542,36.4026,0.00288273,0.00319727,0.00128446,0.00433405,0.00174594,0.846315,0.00251796,0.01698,853,1569,-5.80545,-36.4026
-364,-545,-5.84113,37.1204,0.00376976,0.00429649,0.00166666,0.00572046,0.00234579,0.86376,0.00332047,0.0125399,860,1569,-5.8411,-37.1204
-357,-545,-5.76801,38.0116,0.00470974,0.0056401,0.00208805,0.00731416,0.00303568,0.894999,0.0042431,0.0255157,867,1569,-5.76801,-38.0116
-350,-545,-5.73865,38.8064,0.00573429,0.00733026,0.00268256,0.00933101,0.00373354,0.929967,0.00542297,0.0483276,874,1569,-5.73863,-38.8064
-343,-545,-5.65936,39.6782,0,0,0,0,0,0,0,-1,881,1569,-5.65935,-39.6782
-336,-545,-4.2146,36.9165,0,0,0,0,0,0,0,-1,888,1569,-4.21457,-36.9165
-329,-545,-2.03595,27.8694,0,0,0,0,0,0,0,-1,895,1569,-2.03592,-27.8694
-322,-545,-2.42474,27.9695,0,0,0,0,0,0,0,-1,902,1569,-2.42474,-27.9695
-315,-545,-2.52954,30.1711,0,0,0,0,0,0,0,-1,909,1569,-2.52951,-30.1712
-308,-545,-1.54358,21.4457,0,0,0,0,0,0,0,-1,916,1569,-1.54357,-21.4457
-301,-545,1.52191,17.5009,0,0,0,0,0,0,0,-1,923,1569,1.52192,-17.5008
-294,-545,-2.69287,8.42102,0,0,0,0,0,0,0,-1,930,1569,-2.69287,-8.42097
-287,-545,-3.47784,9.96021,0,0,0,0,0,0,0,-1,937,1569,-3.47785,-9.96021
-280,-545,-3.7879,10.5448,0,0,0,0,0,0,0,-1,944,1569,-3.78793,-10.5448
-273,-545,-5.10333,12.864,0,0,0,0,0,0,0,-1,951,1569,-5.10331,-12.864
-266,-545,-5.78955,13.3704,0,0,0,0,0,0,0,-1,958,1569,-5.78952,-13.3703
-259,-545,-6.32184,13.8101,0,0,0,0,0,0,0,-1,965,1569,-6.32182,-13.81
-252,-545,0.369263,7.54053,0,0,0,0,0,0,0,-1,972,1569,0.369276,-7.54056
-245,-545,-0.236633,6.65564,0,0,0,0,0,0,0,-1,979,1569,-0.236605,-6.65566
-238,-545,0,0,0,0,0,0,0,0,0,-1,986,1569,0,0
-231,-545,0,0,0,0,0,0,0,0,0,-1,993,1569,0,0
-224,-545,0,0,0,0,0,0,0,0,0,-1,1000,1569,0,0
-217,-545,0,0,0,0,0,0,0,0,0,-1,1007,1569,0,0
-210,-545,0,0,0,0,0,0,0,0,0,-1,1014,1569,0,0
-203,-545,0,0,0,0,0,0,0,0,0,-1,1021,1569,0,0
-196,-545,0,0,0,0,0,0,0,0,0,-1,1028,1569,0,0
-189,-545,0,0,0,0,0,0,0,0,0,-1,1035,1569,0,0
-182,-545,0,0,0,0,0,0,0,0,0,-1,1042,1569,0,0
-175,-545,0,0,0,0,0,0,0,0,0,-1,1049,1569,0,0
-168,-545,0,0,0,0,0,0,0,0,0,-1,1056,1569,0,0
-161,-545,0,0,0,0,0,0,0,0,0,-1,1063,1569,0,0
-154,-545,0,0,0,0,0,0,0,0,0,-1,1070,1569,0,0
-147,-545,0,0,0,0,0,0,0,0,0,-1,1077,1569,0,0
-140,-545,0,0,0,0,0,0,0,0,0,-1,1084,1569,0,0
-133,-545,0,0,0,0,0,0,0,0,0,-1,1091,1569,0,0
-126,-545,0,0,0,0,0,0,0,0,0,-1,1098,1569,0,0
-119,-545,0,0,0,0,0,0,0,0,0,-1,1105,1569,0,0
-112,-545,0,0,0,0,0,0,0,0,0,-1,1112,1569,0,0
-105,-545,0,0,0,0,0,0,0,0,0,-1,1119,1569,0,0
-98,-545,0,0,0,0,0,0,0,0,0,-1,1126,1569,0,0
-91,-545,0,0,0,0,0,0,0,0,0,-1,1133,1569,0,0
-84,-545,0,0,0,0,0,0,0,0,0,-1,1140,1569,0,0
-77,-545,0,0,0,0,0,0,0,0,0,-1,1147,1569,0,0
-70,-545,0,0,0,0,0,0,0,0,0,-1,1154,1569,0,0
-63,-545,0,0,0,0,0,0,0,0,0,-1,1161,1569,0,0
-56,-545,0,0,0,0,0,0,0,0,0,-1,1168,1569,0,0
-49,-545,0,0,0,0,0,0,0,0,0,-1,1175,1569,0,0
-42,-545,0,0,0,0,0,0,0,0,0,-1,1182,1569,0,0
-35,-545,0,0,0,0,0,0,0,0,0,-1,1189,1569,0,0
-28,-545,0,0,0,0,0,0,0,0,0,-1,1196,1569,0,0
-21,-545,0,0,0,0,0,0,0,0,0,-1,1203,1569,0,0
-14,-545,0,0,0,0,0,0,0,0,0,-1,1210,1569,0,0
-7,-545,0,0,0,0,0,0,0,0,0,-1,1217,1569,0,0
0,-545,0,0,0,0,0,0,0,0,0,-1,1224,1569,0,0
7,-545,0,0,0,0,0,0,0,0,0,-1,1231,1569,0,0
14,-545,0,0,0,0,0,0,0,0,0,-1,1238,1569,0,0
21,-545,0,0,0,0,0,0,0,0,0,-1,1245,1569,0,0
28,-545,0,0,0,0,0,0,0,0,0,-1,1252,1569,0,0
35,-545,0,0,0,0,0,0,0,0,0,-1,1259,1569,0,0
42,-545,0,0,0,0,0,0,0,0,0,-1,1266,1569,0,0
49,-545,0,0,0,0,0,0,0,0,0,-1,1273,1569,0,0
56,-545,0,0,0,0,0,0,0,0,0,-1,1280,1569,0,0
63,-545,0,0,0,0,0,0,0,0,0,-1,1287,1569,0,0
70,-545,0,0,0,0,0,0,0,0,0,-1,1294,1569,0,0
77,-545,0,0,0,0,0,0,0,0,0,-1,1301,1569,0,0
84,-545,0,0,0,0,0,0,0,0,0,-1,1308,1569,0,0
91,-545,0,0,0,0,0,0,0,0,0,-1,1315,1569,0,0
98,-545,0,0,0,0,0,0,0,0,0,-1,1322,1569,0,0
105,-545,0,0,0,0,0,0,0,0,0,-1,1329,1569,0,0
112,-545,0,0,0,0,0,0,0,0,0,-1,1336,1569,0,0
119,-545,0,0,0,0,0,0,0,0,0,-1,1343,1569,0,0
126,-545,0,0,0,0,0,0,0,0,0,-1,1350,1569,0,0
133,-545,0,0,0,0,0,0,0,0,0,-1,1357,1569,0,0
140,-545,0,0,0,0,0,0,0,0,0,-1,1364,1569,0,0
147,-545,0,0,0,0,0,0,0,0,0,-1,1371,1569,0,0
154,-545,0,0,0,0,0,0,0,0,0,-1,1378,1569,0,0
161,-545,0,0,0,0,0,0,0,0,0,-1,1385,1569,0,0
168,-545,0,0,0,0,0,0,0,0,0,-1,1392,1569,0,0
175,-545,0,0,0,0,0,0,0,0,0,-1,1399,1569,0,0
182,-545,0,0,0,0,0,0,0,0,0,-1,1406,1569,0,0
189,-545,0,0,0,0,0,0,0,0,0,-1,1413,1569,0,0
196,-545,0,0,0,0,0,0,0,0,0,-1,1420,1569,0,0
203,-545,0,0,0,0,0,0,0,0,0,-1,1427,1569,0,0
210,-545,0,0,0,0,0,0,0,0,0,-1,1434,1569,0,0
217,-545,0,0,0,0,0,0,0,0,0,-1,1441,1569,0,0
224,-545,0,0,0,0,0,0,0,0,0,-1,1448,1569,0,0
231,-545,0,0,0,0,0,0,0,0,0,-1,1455,1569,0,0
238,-545,0,0,0,0,0,0,0,0,0,-1,1462,1569,0,0
245,-545,0,0,0,0,0,0,0,0,0,-1,1469,1569,0,0
252,-545,0,0,0,0,0,0,0,0,0,-1,1476,1569,0,0
259,-545,0,0,0,0,0,0,0,0,0,-1,1483,1569,0,0
266,-545,0,0,0,0,0,0,0,0,0,-1,1490,1569,0,0
273,-545,0,0,0,0,0,0,0,0,0,-1,1497,1569,0,0
280,-545,0,0,0,0,0,0,0,0,0,-1,1504,1569,0,0
287,-545,0,0,0,0,0,0,0,0,0,-1,1511,1569,0,0
294,-545,0,0,0,0,0,0,0,0,0,-1,1518,1569,0,0
301,-545,0,0,0,0,0,0,0,0,0,-1,1525,1569,0,0
308,-545,0,0,0,0,0,0,0,0,0,-1,1532,1569,0,0
315,-545,0,0,0,0,0,0,0,0,0,-1,1539,1569,0,0
322,-545,0,0,0,0,0,0,0,0,0,-1,1546,1569,0,0
329,-545,0,0,0,0,0,0,0,0,0,-1,1553,1569,0,0
336,-545,0,0,0,0,0,0,0,0,0,-1,1560,1569,0,0
343,-545,0,0,0,0,0,0,0,0,0,-1,1567,1569,0,0
350,-545,0,0,0,0,0,0,0,0,0,-1,1574,1569,0,0
357,-545,0,0,0,0,0,0,0,0,0,-1,1581,1569,0,0
364,-545,7.19495,4.88098,0,0,0,0,0,0,0,-1,1588,1569,7.19497,-4.88095
371,-545,7.82324,3.84302,0,0,0,0,0,0,0,-1,1595,1569,7.82324,-3.84307
378,-545,7.65674,5.52673,0,0,0,0,0,0,0,-1,1602,1569,7.6567,-5.52667
385,-545,8.58447,1.16125,0,0,0,0,0,0,0,-1,1609,1569,8.5845,-1.1612
392,-545,12.5654,3.89526,0,0,0,0,0,0,0,-1,1616,1569,12.5655,-3.89532
399,-545,11.5869,5.6333,0,0,0,0,0,0,0,-1,1623,1569,11.5869,-5.63326
406,-545,11.234,6.36414,0,0,0,0,0,0,0,-1,1630,1569,11.234,-6.3641
413,-545,12.1521,13.4817,0,0,0,0,0,0,0,-1,1637,1569,12.1521,-13.4817
420,-545,11.1954,13.6047,0,0,0,0,0,0,0,-1,1644,1569,11.1954,-13.6047
427,-545,9.61072,14.9135,0,0,0,0,0,0,0,-1,1651,1569,9.61076,-14.9134
434,-545,13.1598,23.9921,0,0,0,0,0,0,0,-1,1658,1569,13.1598,-23.992
441,-545,12.2833,22.2238,0,0,0,0,0,0,0,-1,1665,1569,12.2833,-22.2237
448,-545,13.0082,21.941,0,0,0,0,0,0,0,-1,1672,1569,13.0082,-21.941
455,-545,13.733,21.6583,0,0,0,0,0,0,0,-1,1679,1569,13.733,-21.6583
462,-545,12.449,20.7413,0,0,0,0,0,0,0,-1,1686,1569,12.4489,-20.7413
469,-545,12.7837,17.7919,0,0,0,0,0,0,0,-1,1693,1569,12.7837,-17.7919
476,-545,15.7562,24.8708,0,0,0,0,0,0,0,-1,1700,1569,15.7563,-24.8709
483,-545,23.2633,38.5031,0,0,0,0,0,0,0,-1,1707,1569,23.2633,-38.503
490,-545,23.3354,37.6906,0.00876912,0.00891721,-0.00569342,0.0145371,0.00314926,-0.7919,0.00883083,0.0289424,1714,1569,23.3354,-37.6906
497,-545,23.3734,36.9496,0.00718071,0.00701897,-0.0044984,0.011599,0.00260072,-0.77641,0.00702801,0.0240633,1721,1569,23.3734,-36.9496
504,-545,23.4297,36.1602,0.005809,0.00537104,-0.00353582,0.00913262,0.00204743,-0.754472,0.00553367,0.0172487,1728,1569,23.4297,-36.1601
511,-545,23.3635,35.4164,0.00459978,0.00429734,-0.00283729,0.00728988,0.00160724,-0.758774,0.00442262,0.0125698,1735,1569,23.3635,-35.4164
518,-545,23.3385,34.697,0.00352743,0.00350668,-0.00234016,0.00585723,0.00117688,-0.783181,0.00357765,0.0137967,1742,1569,23.3385,-34.697
525,-545,23.2854,33.9587,0.00252929,0.00272606,-0.00184572,0.00447602,0.000779336,-0.812025,0.00276114,0.0154486,1749,1569,23.2854,-33.9587
532,-545,23.2424,33.2479,0.00170198,0.00200194,-0.00140556,0.0032655,0.000438425,-0.83855,0.00204657,0.0154272,1756,1569,23.2424,-33.2479
539,-545,23.1953,32.5345,0.00114761,0.00147923,-0.00107763,0.00240373,0.000223108,-0.861731,0.00153354,0.0176529,1763,1569,23.1954,-32.5346
546,-545,23.1353,31.7399,0.000755444,0.000876032,-0.000723963,0.00154221,8.92683e-05,-0.826944,0.000999712,0.019519,1770,1569,23.1353,-31.7399
553,-545,23.131,30.9999,0.000571279,0.000397706,-0.000410063,0.000903639,6.5346e-05,-0.681116,0.000581868,0.0277863,1777,1569,23.131,-30.9999
560,-545,23.1132,30.2374,0.000709911,3.07168e-05,-0.000179378,0.000754374,-1.37468e-05,-0.242979,0.000507561,0.0323912,1784,1569,23.1132,-30.2374
567,-545,23.0773,29.3217,0,0,0,0,0,0,0,-1,1791,1569,23.0773,-29.3217
574,-545,22.9955,28.5925,0,0,0,0,0,0,0,-1,1798,1569,22.9955,-28.5926
581,-545,22.9191,27.8682,0,0,0,0,0,0,0,-1,1805,1569,22.919,-27.8682
588,-545,15.4786,16.7035,0,0,0,0,0,0,0,-1,1812,1569,15.4786,-16.7035
595,-545,10.2859,9.11218,0,0,0,0,0,0,0,-1,1819,1569,10.2858,-9.11215
602,-545,8.82117,6.32214,0,0,0,0,0,0,0,-1,1826,1569,8.82121,-6.32217
609,-545,10.2406,5.22351,0,0,0,0,0,0,0,-1,1833,1569,10.2406,-5.22353
616,-545,11.701,3.93188,0,0,0,0,0,0,0,-1,1840,1569,11.701,-3.93191
623,-545,13.2139,2.32043,0,0,0,0,0,0,0,-1,1847,1569,13.2139,-2.32042
630,-545,0,0,0,0,0,0,0,0,0,-1,1854,1569,0,0
637,-545,0,0,0,0,0,0,0,0,0,-1,1861,1569,0,0
644,-545,0,0,0,0,0,0,0,0,0,-1,1868,1569,0,0
651,-545,0,0,0,0,0,0,0,0,0,-1,1875,1569,0,0
658,-545,0,0,0,0,0,0,0,0,0,-1,1882,1569,0,0
665,-545,0,0,0,0,0,0,0,0,0,-1,1889,1569,0,0
672,-545,0,0,0,0,0,0,0,0,0,-1,1896,1569,0,0
679,-545,0,0,0,0,0,0,0,0,0,-1,1903,1569,0,0
686,-545,0,0,0,0,0,0,0,0,0,-1,1910,1569,0,0
693,-545,0,0,0,0,0,0,0,0,0,-1,1917,1569,0,0
700,-545,0,0,0,0,0,0,0,0,0,-1,1924,1569,0,0
707,-545,0,0,0,0,0,0,0,0,0,-1,1931,1569,0,0
714,-545,0,0,0,0,0,0,0,0,0,-1,1938,1569,0,0
721,-545,0,0,0,0,0,0,0,0,0,-1,1945,1569,0,0
728,-545,0,0,0,0,0,0,0,0,0,-1,1952,1569,0,0
735,-545,0,0,0,0,0,0,0,0,0,-1,1959,1569,0,0
742,-545,0,0,0,0,0,0,0,0,0,-1,1966,1569,0,0
749,-545,0,0,0,0,0,0,0,0,0,-1,1973,1569,0,0
756,-545,0,0,0,0,0,0,0,0,0,-1,1980,1569,0,0
763,-545,0,0,0,0,0,0,0,0,0,-1,1987,1569,0,0
770,-545,0,0,0,0,0,0,0,0,0,-1,1994,1569,0,0
777,-545,0,0,0,0,0,0,0,0,0,-1,2001,1569,0,0
784,-545,0,0,0,0,0,0,0,0,0,-1,2008,1569,0,0
791,-545,0,0,0,0,0,0,0,0,0,-1,2015,1569,0,0
798,-545,0,0,0,0,0,0,0,0,0,-1,2022,1569,0,0
805,-545,0,0,0,0,0,0,0,0,0,-1,2029,1569,0,0
812,-545,0,0,0,0,0,0,0,0,0,-1,2036,1569,0,0
-700,-552,0,0,0,0,0,0,0,0,0,-1,524,1576,0,0
-693,-552,0,0,0,0,0,0,0,0,0,-1,531,1576,0,0
-686,-552,0,0,0,0,0,0,0,0,0,-1,538,1576,0,0
-679,-552,0,0,0,0,0,0,0,0,0,-1,545,1576,0,0
-672,-552,0,0,0,0,0,0,0,0,0,-1,552,1576,0,0
-665,-552,0,0,0,0,0,0,0,0,0,-1,559,1576,0,0
-658,-552,0,0,0,0,0,0,0,0,0,-1,566,1576,0,0
-651,-552,0,0,0,0,0,0,0,0,0,-1,573,1576,0,0
-644,-552,0,0,0,0,0,0,0,0,0,-1,580,1576,0,0
-637,-552,0,0,0,0,0,0,0,0,0,-1,587,1576,0,0
-630,-552,0,0,0,0,0,0,0,0,0,-1,594,1576,0,0
-623,-552,0,0,0,0,0,0,0,0,0,-1,601,1576,0,0
-616,-552,0,0,0,0,0,0,0,0,0,-1,608,1576,0,0
-609,-552,0,0,0,0,0,0,0,0,0,-1,615,1576,0,0
-602,-552,0,0,0,0,0,0,0,0,0,-1,622,1576,0,0
-595,-552,0,0,0,0,0,0,0,0,0,-1,629,1576,0,0
-588,-552,0,0,0,0,0,0,0,0,0,-1,636,1576,0,0
-581,-552,0,0,0,0,0,0,0,0,0,-1,643,1576,0,0
-574,-552,0,0,0,0,0,0,0,0,0,-1,650,1576,0,0
-567,-552,0,0,0,0,0,0,0,0,0,-1,657,1576,0,0
-560,-552,0,0,0,0,0,0,0,0,0,-1,664,1576,0,0
-553,-552,0,0,0,0,0,0,0,0,0,-1,671,1576,0,0
-546,-552,0,0,0,0,0,0,0,0,0,-1,678,1576,0,0
-539,-552,0,0,0,0,0,0,0,0,0,-1,685,1576,0,0
-532,-552,0,0,0,0,0,0,0,0,0,-1,692,1576,0,0
-525,-552,0,0,0,0,0,0,0,0,0,-1,699,1576,0,0
-518,-552,0,0,0,0,0,0,0,0,0,-1,706,1576,0,0
-511,-552,0,0,0,0,0,0,0,0,0,-1,713,1576,0,0
-504,-552,0,0,0,0,0,0,0,0,0,-1,720,1576,0,0
-497,-552,1.51282,3.96924,0,0,0,0,0,0,0,-1,727,1576,1.5128,-3.96924
-490,-552,-3.82312,6.32104,0,0,0,0,0,0,0,-1,734,1576,-3.82314,-6.3211
-483,-552,-3.50586,6.47986,0,0,0,0,0,0,0,-1,741,1576,-3.50587,-6.47983
-476,-552,-1.95129,4.43054,0,0,0,0,0,0,0,-1,748,1576,-1.95128,-4.43054
-469,-552,-1.40491,7.9895,0,0,0,0,0,0,0,-1,755,1576,-1.40491,-7.98947
-462,-552,0.0459595,16.3469,0,0,0,0,0,0,0,-1,762,1576,0.0459611,-16.3469
-455,-552,-3.21484,22.3766,0,0,0,0,0,0,0,-1,769,1576,-3.21487,-22.3766
-448,-552,-4.37695,27.647,0,0,0,0,0,0,0,-1,776,1576,-4.37697,-27.647
-441,-552,-4.32806,28.9266,0,0,0,0,0,0,0,-1,783,1576,-4.32805,-28.9267
-434,-552,-4.48645,29.775,-0.00728884,-0.0057382,-0.00433529,-0.00210944,-0.0109176,-0.873883,0.00668709,0.0451482,790,1576,-4.48642,-29.775
-427,-552,-4.7912,30.2258,-0.00555703,-0.00374273,-0.00295669,-0.00155715,-0.00774261,-0.934246,0.00472893,0.0381028,797,1576,-4.79117,-30.2258
-420,-552,-4.75427,31.1171,-0.00398332,-0.00227501,-0.00181771,-0.00112077,-0.00513756,-1.00504,0.0031193,0.0235832,804,1576,-4.7543,-31.117
-413,-552,-4.7782,31.8708,-0.00285382,-0.00114011,-0.00115176,-0.00056143,-0.0034325,-1.10521,0.00212604,0.0163823,811,1576,-4.77817,-31.8708
-406,-552,-4.82581,32.6403,-0.00164854,-0.000349782,-0.000360686,-0.000256337,-0.00174199,-1.31729,0.00108601,0.012826,818,1576,-4.82583,-32.6403
-399,-552,-4.88306,33.365,-0.000587534,0.000170531,0.000184263,0.000212947,-0.00062995,1.34455,0.000506109,0.0141344,825,1576,-4.88304,-33.365
-392,-552,-4.9295,34.1239,0.00024818,0.000667664,0.000567621,0.00106305,-0.000147211,0.962373,0.000762524,0.0162151,832,1576,-4.92951,-34.1239
-385,-552,-4.96594,34.9114,0.00102722,0.00123417,0.000830389,0.00196751,0.000293884,0.847384,0.00122551,0.0153722,839,1576,-4.96594,-34.9113
-378,-552,-5.03107,35.6477,0.00165118,0.00171434,0.000949599,0.00263288,0.000732633,0.802019,0.00156913,0.0162938,846,1576,-5.03105,-35.6477
-371,-552,-5.05914,36.4196,0.00219475,0.00222804,0.000975186,0.00318672,0.00123607,0.79393,0.00185521,0.0219278,853,1576,-5.05915,-36.4196
-364,-552,-5.0705,37.1586,0.00298253,0.00312183,0.00123298,0.00428713,0.00181723,0.813612,0.00248472,0.0172053,860,1576,-5.07048,-37.1586
-357,-552,-5.08417,37.887,0.00382864,0.00418532,0.00152593,0.0055433,0.00247066,0.84357,0.00320671,0.0115066,867,1576,-5.08418,-37.887
-350,-552,-5.1004,38.6989,0.00473871,0.00541688,0.00193204,0.00703937,0.00311622,0.872267,0.00407307,0.0172217,874,1576,-5.10042,-38.6989
-343,-552,-5.14886,39.3977,0.00562613,0.00630693,0.0022837,0.00827546,0.0036576,0.859381,0.00478855,0.0304543,881,1576,-5.14886,-39.3978
-336,-552,-5.21503,40.0082,0,0,0,0,0,0,0,-1,888,1576,-5.21502,-40.0081
-329,-552,-3.68982,37.6417,0,0,0,0,0,0,0,-1,895,1576,-3.68984,-37.6417
-322,-552,-1.23962,28.5371,0,0,0,0,0,0,0,-1,902,1576,-1.23964,-28.5371
-315,-552,-0.605347,28.994,0,0,0,0,0,0,0,-1,909,1576,-0.605331,-28.9941
-308,-552,-1.01624,30.3169,0,0,0,0,0,0,0,-1,916,1576,-1.01624,-30.3169
-301,-552,1.39453,18.4995,0,0,0,0,0,0,0,-1,923,1576,1.3945,-18.4995
-294,-552,0.842163,13.7863,0,0,0,0,0,0,0,-1,930,1576,0.842149,-13.7863
-287,-552,-0.663757,13.3474,0,0,0,0,0,0,0,-1,937,1576,-0.663744,-13.3474
-280,-552,-5.47241,8.96765,0,0,0,0,0,0,0,-1,944,1576,-5.47239,-8.96766
-273,-552,1.64587,10.6685,0,0,0,0,0,0,0,-1,951,1576,1.6459,-10.6685
-266,-552,-1.32678,8.05688,0,0,0,0,0,0,0,-1,958,1576,-1.32677,-8.05683
-259,-552,-5.54321,8.31213,0,0,0,0,0,0,0,-1,965,1576,-5.54324,-8.31214
-252,-552,-1.93445,7.81543,0,0,0,0,0,0,0,-1,972,1576,-1.93445,-7.81546
-245,-552,-2.53613,6.92212,0,0,0,0,0,0,0,-1,979,1576,-2.53614,-6.92216
-238,-552,-6.5365,2.81885,0,0,0,0,0,0,0,-1,986,1576,-6.53649,-2.8188
-231,-552,-4.32239,4.34583,0,0,0,0,0,0,0,-1,993,1576,-4.32239,-4.34587
-224,-552,0,0,0,0,0,0,0,0,0,-1,1000,1576,0,0
-217,-552,0,0,0,0,0,0,0,0,0,-1,1007,1576,0,0
-210,-552,0,0,0,0,0,0,0,0,0,-1,1014,1576,0,0
-203,-552,0,0,0,0,0,0,0,0,0,-1,1021,1576,0,0
-196,-552,0,0,0,0,0,0,0,0,0,-1,1028,1576,0,0
-189,-552,0,0,0,0,0,0,0,0,0,-1,1035,1576,0,0
-182,-552,0,0,0,0,0,0,0,0,0,-1,1042,1576,0,0
-175,-552,0,0,0,0,0,0,0,0,0,-1,1049,1576,0,0
-168,-552,0,0,0,0,0,0,0,0,0,-1,1056,1576,0,0
-161,-552,0,0,0,0,0,0,0,0,0,-1,1063,1576,0,0
-154,-552,0,0,0,0,0,0,0,0,0,-1,1070,1576,0,0
-147,-552,0,0,0,0,0,0,0,0,0,-1,1077,1576,0,0
-140,-552,0,0,0,0,0,0,0,0,0,-1,1084,1576,0,0
-133,-552,0,0,0,0,0,0,0,0,0,-1,1091,1576,0,0
-126,-552,0,0,0,0,0,0,0,0,0,-1,1098,1576,0,0
-119,-552,0,0,0,0,0,0,0,0,0,-1,1105,1576,0,0
-112,-552,0,0,0,0,0,0,0,0,0,-1,1112,1576,0,0
-105,-552,0,0,0,0,0,0,0,0,0,-1,1119,1576,0,0
-98,-552,0,0,0,0,0,0,0,0,0,-1,1126,1576,0,0
-91,-552,0,0,0,0,0,0,0,0,0,-1,1133,1576,0,0
-84,-552,0,0,0,0,0,0,0,0,0,-1,1140,1576,0,0
-77,-552,0,0,0,0,0,0,0,0,0,-1,1147,1576,0,0
-70,-552,0,0,0,0,0,0,0,0,0,-1,1154,1576,0,0
-63,-552,0,0,0,0,0,0,0,0,0,-1,1161,1576,0,0
-56,-552,0,0,0,0,0,0,0,0,0,-1,1168,1576,0,0
-49,-552,0,0,0,0,0,0,0,0,0,-1,1175,1576,0,0
-42,-552,0,0,0,0,0,0,0,0,0,-1,1182,1576,0,0
-35,-552,0,0,0,0,0,0,0,0,0,-1,1189,1576,0,0
-28,-552,0,0,0,0,0,0,0,0,0,-1,1196,1576,0,0
-21,-552,0,0,0,0,0,0,0,0,0,-1,1203,1576,0,0
-14,-552,0,0,0,0,0,0,0,0,0,-1,1210,1576,0,0
-7,-552,0,0,0,0,0,0,0,0,0,-1,1217,1576,0,0
0,-552,0,0,0,0,0,0,0,0,0,-1,1224,1576,0,0
7,-552,0,0,0,0,0,0,0,0,0,-1,1231,1576,0,0
14,-552,0,0,0,0,0,0,0,0,0,-1,1238,1576,0,0
21,-552,0,0,0,0,0,0,0,0,0,-1,1245,1576,0,0
28,-552,0,0,0,0,0,0,0,0,0,-1,1252,1576,0,0
35,-552,0,0,0,0,0,0,0,0,0,-1,1259,1576,0,0
42,-552,0,0,0,0,0,0,0,0,0,-1,1266,1576,0,0
49,-552,0,0,0,0,0,0,0,0,0,-1,1273,1576,0,0
56,-552,0,0,0,0,0,0,0,0,0,-1,1280,1576,0,0
63,-552,0,0,0,0,0,0,0,0,0,-1,1287,1576,0,0
70,-552,0,0,0,0,0,0,0,0,0,-1,1294,1576,0,0
77,-552,0,0,0,0,0,0,0,0,0,-1,1301,1576,0,0
84,-552,0,0,0,0,0,0,0,0,0,-1,1308,1576,0,0
91,-552,0,0,0,0,0,0,0,0,0,-1,1315,1576,0,0
98,-552,0,0,0,0,0,0,0,0,0,-1,1322,1576,0,0
105,-552,0,0,0,0,0,0,0,0,0,-1,1329,1576,0,0
112,-552,0,0,0,0,0,0,0,0,0,-1,1336,1576,0,0
119,-552,0,0,0,0,0,0,0,0,0,-1,1343,1576,0,0
126,-552,0,0,0,0,0,0,0,0,0,-1,1350,1576,0,0
133,-552,0,0,0,0,0,0,0,0,0,-1,1357,1576,0,0
140,-552,0,0,0,0,0,0,0,0,0,-1,1364,1576,0,0
147,-552,0,0,0,0,0,0,0,0,0,-1,1371,1576,0,0
154,-552,0,0,0,0,0,0,0,0,0,-1,1378,1576,0,0
161,-552,0,0,0,0,0,0,0,0,0,-1,1385,1576,0,0
168,-552,0,0,0,0,0,0,0,0,0,-1,1392,1576,0,0
175,-552,0,0,0,0,0,0,0,0,0,-1,1399,1576,0,0
182,-552,0,0,0,0,0,0,0,0,0,-1,1406,1576,0,0
189,-552,0,0,0,0,0,0,0,0,0,-1,1413,1576,0,0
196,-552,0,0,0,0,0,0,0,0,0,-1,1420,1576,0,0
203,-552,0,0,0,0,0,0,0,0,0,-1,1427,1576,0,0
210,-552,0,0,0,0,0,0,0,0,0,-1,1434,1576,0,0
217,-552,0,0,0,0,0,0,0,0,0,-1,1441,1576,0,0
224,-552,0,0,0,0,0,0,0,0,0,-1,1448,1576,0,0
231,-552,0,0,0,0,0,0,0,0,0,-1,1455,1576,0,0
238,-552,0,0,0,0,0,0,0,0,0,-1,1462,1576,0,0
245,-552,0,0,0,0,0,0,0,0,0,-1,1469,1576,0,0
252,-552,0,0,0,0,0,0,0,0,0,-1,1476,1576,0,0
259,-552,0,0,0,0,0,0,0,0,0,-1,1483,1576,0,0
266,-552,0,0,0,0,0,0,0,0,0,-1,1490,1576,0,0
273,-552,0,0,0,0,0,0,0,0,0,-1,1497,1576,0,0
280,-552,0,0,0,0,0,0,0,0,0,-1,1504,1576,0,0
287,-552,0,0,0,0,0,0,0,0,0,-1,1511,1576,0,0
294,-552,0,0,0,0,0,0,0,0,0,-1,1518,1576,0,0
301,-552,0,0,0,0,0,0,0,0,0,-1,1525,1576,0,0
308,-552,0,0,0,0,0,0,0,0,0,-1,1532,1576,0,0
315,-552,0,0,0,0,0,0,0,0,0,-1,1539,1576,0,0
322,-552,0,0,0,0,0,0,0,0,0,-1,1546,1576,0,0
329,-552,0,0,0,0,0,0,0,0,0,-1,1553,1576,0,0
336,-552,0,0,0,0,0,0,0,0,0,-1,1560,1576,0,0
343,-552,0,0,0,0,0,0,0,0,0,-1,1567,1576,0,0
350,-552,4.97876,4.09888,0,0,0,0,0,0,0,-1,1574,1576,4.97875,-4.09883
357,-552,5.18469,4.10706,0,0,0,0,0,0,0,-1,1581,1576,5.1847,-4.10702
364,-552,5.80872,5.07031,0,0,0,0,0,0,0,-1,1588,1576,5.80874,-5.07037
371,-552,7.10657,5.64783,0,0,0,0,0,0,0,-1,1595,1576,7.10651,-5.64786
378,-552,6.44446,4.91492,0,0,0,0,0,0,0,-1,1602,1576,6.44448,-4.91496
385,-552,12.8276,3.16504,0,0,0,0,0,0,0,-1,1609,1576,12.8276,-3.16503
392,-552,12.1301,4.3363,0,0,0,0,0,0,0,-1,1616,1576,12.1302,-4.33631
399,-552,11.3486,5.6012,0,0,0,0,0,0,0,-1,1623,1576,11.3486,-5.60115
406,-552,10.7863,6.42542,0,0,0,0,0,0,0,-1,1630,1576,10.7863,-6.42536
413,-552,8.39307,10.365,0,0,0,0,0,0,0,-1,1637,1576,8.3931,-10.365
420,-552,10.2306,12.7225,0,0,0,0,0,0,0,-1,1644,1576,10.2305,-12.7226
427,-552,9.73267,14.783,0,0,0,0,0,0,0,-1,1651,1576,9.73269,-14.783
434,-552,12.0377,20.1364,0,0,0,0,0,0,0,-1,1658,1576,12.0377,-20.1364
441,-552,12.4963,21.5277,0,0,0,0,0,0,0,-1,1665,1576,12.4964,-21.5277
448,-552,12.9141,21.5482,0,0,0,0,0,0,0,-1,1672,1576,12.9141,-21.5482
455,-552,13.3318,21.5687,0,0,0,0,0,0,0,-1,1679,1576,13.3317,-21.5687
462,-552,12.745,20.5947,0,0,0,0,0,0,0,-1,1686,1576,12.745,-20.5947
469,-552,17.7067,29.6902,0,0,0,0,0,0,0,-1,1693,1576,17.7067,-29.6902
476,-552,22.5087,39.3132,0,0,0,0,0,0,0,-1,1700,1576,22.5086,-39.3132
483,-552,22.7501,38.3143,0,0,0,0,0,0,0,-1,1707,1576,22.7502,-38.3143
490,-552,22.6913,37.6093,0.00692154,0.00721076,-0.00428601,0.0113546,0.00277771,-0.802262,0.00683464,0.0153284,1714,1576,22.6912,-37.6092
497,-552,22.7543,36.9042,0.00553513,0.00562828,-0.0033704,0.00895243,0.00221098,-0.792307,0.00538478,0.0224144,1721,1576,22.7543,-36.9042
504,-552,22.6917,36.1971,0.00432647,0.00418853,-0.00261488,0.00687329,0.00164171,-0.772213,0.00414479,0.0243054,1728,1576,22.6917,-36.1971
511,-552,22.6422,35.4365,0.00323587,0.00329961,-0.0020733,0.00534129,0.00119419,-0.793084,0.00323707,0.0178229,1735,1576,22.6422,-35.4365
518,-552,22.6334,34.709,0.00225619,0.00264353,-0.00170573,0.00416655,0.000733174,-0.841926,0.00256843,0.0158177,1742,1576,22.6334,-34.709
525,-552,22.5637,33.9845,0.00137186,0.00198565,-0.00132928,0.003043,0.000314504,-0.898845,0.00193238,0.0163563,1749,1576,22.5638,-33.9845
532,-552,22.5094,33.2706,0.000686793,0.00137816,-0.0010076,0.00209773,-3.27731e-05,-0.950645,0.00140954,0.0157766,1756,1576,22.5093,-33.2706
539,-552,22.4585,32.5525,0.000258714,0.000954505,-0.00078114,0.00146172,-0.0002485,-0.994896,0.001067,0.0188434,1763,1576,22.4585,-32.5525
546,-552,22.4048,31.7839,1.15723e-05,0.000455884,-0.000513244,0.000792988,-0.000325533,-0.989647,0.000664311,0.0240986,1770,1576,22.4048,-31.784
553,-552,22.4041,31.0098,-3.20865e-05,4.67078e-05,-0.000264481,0.000274709,-0.000260088,-0.859335,0.000308804,0.0279485,1777,1576,22.404,-31.0098
560,-552,22.4512,30.1045,0,0,0,0,0,0,0,-1,1784,1576,22.4512,-30.1045
567,-552,20.6783,26.0908,0,0,0,0,0,0,0,-1,1791,1576,20.6784,-26.0908
574,-552,12.8835,14.8463,0,0,0,0,0,0,0,-1,1798,1576,12.8836,-14.8463
581,-552,9.74841,9.98645,0,0,0,0,0,0,0,-1,1805,1576,9.74847,-9.9864
588,-552,10.5619,9.34924,0,0,0,0,0,0,0,-1,1812,1576,10.5619,-9.34921
595,-552,5.36194,6.62744,0,0,0,0,0,0,0,-1,1819,1576,5.36193,-6.62742
602,-552,10.6863,4.31616,0,0,0,0,0,0,0,-1,1826,1576,10.6862,-4.31619
609,-552,12.146,3.18286,0,0,0,0,0,0,0,-1,1833,1576,12.1459,-3.18281
616,-552,13.8762,2.08167,0,0,0,0,0,0,0,-1,1840,1576,13.8763,-2.08167
623,-552,0,0,0,0,0,0,0,0,0,-1,1847,1576,0,0
630,-552,0,0,0,0,0,0,0,0,0,-1,1854,1576,0,0
637,-552,0,0,0,0,0,0,0,0,0,-1,1861,1576,0,0
644,-552,0,0,0,0,0,0,0,0,0,-1,1868,1576,0,0
651,-552,0,0,0,0,0,0,0,0,0,-1,1875,1576,0,0
658,-552,0,0,0,0,0,0,0,0,0,-1,1882,1576,0,0
665,-552,0,0,0,0,0,0,0,0,0,-1,1889,1576,0,0
672,-552,0,0,0,0,0,0,0,0,0,-1,1896,1576,0,0
679,-552,0,0,0,0,0,0,0,0,0,-1,1903,1576,0,0
686,-552,0,0,0,0,0,0,0,0,0,-1,1910,1576,0,0
693,-552,0,0,0,0,0,0,0,0,0,-1,1917,1576,0,0
700,-552,0,0,0,0,0,0,0,0,0,-1,1924,1576,0,0
707,-552,0,0,0,0,0,0,0,0,0,-1,1931,1576,0,0
714,-552,0,0,0,0,0,0,0,0,0,-1,1938,1576,0,0
721,-552,0,0,0,0,0,0,0,0,0,-1,1945,1576,0,0
728,-552,0,0,0,0,0,0,0,0,0,-1,1952,1576,0,0
735,-552,0,0,0,0,0,0,0,0,0,-1,1959,1576,0,0
742,-552,0,0,0,0,0,0,0,0,0,-1,1966,1576,0,0
749,-552,0,0,0,0,0,0,0,0,0,-1,1973,1576,0,0
756,-552,0,0,0,0,0,0,0,0,0,-1,1980,1576,0,0
763,-552,0,0,0,0,0,0,0,0,0,-1,1987,1576,0,0
770,-552,0,0,0,0,0,0,0,0,0,-1,1994,1576,0,0
777,-552,0,0,0,0,0,0,0,0,0,-1,2001,1576,0,0
784,-552,0,0,0,0,0,0,0,0,0,-1,2008,1576,0,0
791,-552,0,0,0,0,0,0,0,0,0,-1,2015,1576,0,0
798,-552,0,0,0,0,0,0,0,0,0,-1,2022,1576,0,0
805,-552,0,0,0,0,0,0,0,0,0,-1,2029,1576,0,0
812,-552,0,0,0,0,0,0,0,0,0,-1,2036,1576,0,0
-700,-559,0,0,0,0,0,0,0,0,0,-1,524,1583,0,0
-693,-559,0,0,0,0,0,0,0,0,0,-1,531,1583,0,0
-686,-559,0,0,0,0,0,0,0,0,0,-1,538,1583,0,0
-679,-559,0,0,0,0,0,0,0,0,0,-1,545,1583,0,0
-672,-559,0,0,0,0,0,0,0,0,0,-1,552,1583,0,0
-665,-559,0,0,0,0,0,0,0,0,0,-1,559,1583,0,0
-658,-559,0,0,0,0,0,0,0,0,0,-1,566,1583,0,0
-651,-559,0,0,0,0,0,0,0,0,0,-1,573,1583,0,0
-644,-559,0,0,0,0,0,0,0,0,0,-1,580,1583,0,0
-637,-559,0,0,0,0,0,0,0,0,0,-1,587,1583,0,0
-630,-559,0,0,0,0,0,0,0,0,0,-1,594,1583,0,0
-623,-559,0,0,0,0,0,0,0,0,0,-1,601,1583,0,0
-616,-559,0,0,0,0,0,0,0,0,0,-1,608,1583,0,0
-609,-559,0,0,0,0,0,0,0,0,0,-1,615,1583,0,0
-602,-559,0,0,0,0,0,0,0,0,0,-1,622,1583,0,0
-595,-559,0,0,0,0,0,0,0,0,0,-1,629,1583,0,0
-588,-559,0,0,0,0,0,0,0,0,0,-1,636,1583,0,0
-581,-559,0,0,0,0,0,0,0,0,0,-1,643,1583,0,0
-574,-559,0,0,0,0,0,0,0,0,0,-1,650,1583,0,0
-567,-559,0,0,0,0,0,0,0,0,0,-1,657,1583,0,0
-560,-559,0,0,0,0,0,0,0,0,0,-1,664,1583,0,0
-553,-559,0,0,0,0,0,0,0,0,0,-1,671,1583,0,0
-546,-559,0,0,0,0,0,0,0,0,0,-1,678,1583,0,0
-539,-559,0,0,0,0,0,0,0,0,0,-1,685,1583,0,0
-532,-559,0,0,0,0,0,0,0,0,0,-1,692,1583,0,0
-525,-559,0,0,0,0,0,0,0,0,0,-1,699,1583,0,0
-518,-559,0,0,0,0,0,0,0,0,0,-1,706,1583,0,0
-511,-559,0,0,0,0,0,0,0,0,0,-1,713,1583,0,0
-504,-559,0,0,0,0,0,0,0,0,0,-1,720,1583,0,0
-497,-559,0,0,0,0,0,0,0,0,0,-1,727,1583,0,0
-490,-559,-5.49835,4.47424,0,0,0,0,0,0,0,-1,734,1583,-5.49833,-4.4743
-483,-559,-5.24078,4.74561,0,0,0,0,0,0,0,-1,741,1583,-5.24079,-4.74563
-476,-559,-4.98022,4.99316,0,0,0,0,0,0,0,-1,748,1583,-4.98024,-4.99321
-469,-559,-4.6424,5.38062,0,0,0,0,0,0,0,-1,755,1583,-4.64237,-5.38058
-462,-559,-0.161865,6.49438,0,0,0,0,0,0,0,-1,762,1583,-0.161835,-6.49444
-455,-559,1.08826,7.02527,0,0,0,0,0,0,0,-1,769,1583,1.08823,-7.02529
-448,-559,-2.86023,20.0852,0,0,0,0,0,0,0,-1,776,1583,-2.86025,-20.0852
-441,-559,-2.26141,29.6688,0,0,0,0,0,0,0,-1,783,1583,-2.26144,-29.6688
-434,-559,-3.29578,29.7705,0,0,0,0,0,0,0,-1,790,1583,-3.29581,-29.7705
-427,-559,-3.96429,30.0836,0,0,0,0,0,0,0,-1,797,1583,-3.96427,-30.0836
-420,-559,-3.98108,30.9998,0,0,0,0,0,0,0,-1,804,1583,-3.98105,-30.9997
-413,-559,-4.04382,31.8986,-0.00345907,-0.00110124,-0.00100136,-0.000733367,-0.00382695,-1.21873,0.00234538,0.0182994,811,1583,-4.04384,-31.8985
-406,-559,-4.08392,32.6935,-0.00221291,-0.00053613,-0.000242056,-0.000501887,-0.00224715,-1.43026,0.00136199,0.00928407,818,1583,-4.08394,-32.6935
-399,-559,-4.10181,33.4484,-0.00115494,-0.000220406,0.000223123,-0.000169868,-0.00120548,1.34805,0.000753441,0.0134607,825,1583,-4.10182,-33.4484
-392,-559,-4.16608,34.1975,-0.000333095,0.000138632,0.000538262,0.000490439,-0.000684903,0.991895,0.000681673,0.0166277,832,1583,-4.1661,-34.1975
-385,-559,-4.21368,34.9592,0.000437782,0.000611008,0.000755503,0.00128485,-0.000236057,0.84247,0.000945128,0.0167058,839,1583,-4.21371,-34.9593
-378,-559,-4.25342,35.7065,0.0010527,0.00102746,0.000853594,0.00189377,0.000186392,0.778008,0.00120519,0.0149767,846,1583,-4.25342,-35.7065
-371,-559,-4.30585,36.4601,0.00154282,0.00138729,0.000779606,0.00224853,0.000681583,0.735689,0.00133131,0.0232832,853,1583,-4.30584,-36.4601
-364,-559,-4.31317,37.1849,0.00225326,0.00211976,0.000920257,0.00310919,0.00126384,0.749194,0.00180552,0.0214476,860,1583,-4.3132,-37.185
-357,-559,-4.34943,37.9218,0.00303164,0.00299301,0.00109276,0.00410526,0.00191939,0.776562,0.00237184,0.0127371,867,1583,-4.34942,-37.9217
-350,-559,-4.39655,38.6339,0.00391068,0.00393157,0.00136388,0.00528505,0.0025572,0.789229,0.00305185,0.0107688,874,1583,-4.39651,-38.6339
-343,-559,-4.43134,39.3582,0.00479205,0.0047047,0.00166584,0.00641479,0.00308196,0.772291,0.00370452,0.0121476,881,1583,-4.43134,-39.3581
-336,-559,-4.48676,40.0796,0,0,0,0,0,0,0,-1,888,1583,-4.48675,-40.0796
-329,-559,-4.40088,40.9877,0,0,0,0,0,0,0,-1,895,1583,-4.40085,-40.9877
-322,-559,-3.64227,41.668,0,0,0,0,0,0,0,-1,902,1583,-3.64227,-41.6679
-315,-559,-0.659607,29.1698,0,0,0,0,0,0,0,-1,909,1583,-0.659577,-29.1698
-308,-559,-0.755493,30.4624,0,0,0,0,0,0,0,-1,916,1583,-0.755509,-30.4625
-301,-559,-1.22174,31.0372,0,0,0,0,0,0,0,-1,923,1583,-1.22176,-31.0372
-294,-559,0.945129,18.5165,0,0,0,0,0,0,0,-1,930,1583,0.945117,-18.5165
-287,-559,-0.11792,15.4912,0,0,0,0,0,0,0,-1,937,1583,-0.117939,-15.4912
-280,-559,0.191467,13.5093,0,0,0,0,0,0,0,-1,944,1583,0.191441,-13.5093
-273,-559,2.12836,10.3059,0,0,0,0,0,0,0,-1,951,1583,2.12839,-10.3059
-266,-559,-0.597046,6.68933,0,0,0,0,0,0,0,-1,958,1583,-0.597031,-6.68937
-259,-559,-7.00311,8.62756,0,0,0,0,0,0,0,-1,965,1583,-7.00312,-8.6275
-252,-559,-9.4483,2.87805,0,0,0,0,0,0,0,-1,972,1583,-9.44829,-2.87805
-245,-559,-4.80804,7.1803,0,0,0,0,0,0,0,-1,979,1583,-4.80804,-7.18027
-238,-559,-8.45764,2.54858,0,0,0,0,0,0,0,-1,986,1583,-8.45763,-2.54862
-231,-559,-5.86914,4.34021,0,0,0,0,0,0,0,-1,993,1583,-5.86914,-4.34019
-224,-559,-3.30505,6.22864,0,0,0,0,0,0,0,-1,1000,1583,-3.30505,-6.22859
-217,-559,0,0,0,0,0,0,0,0,0,-1,1007,1583,0,0
-210,-559,0,0,0,0,0,0,0,0,0,-1,1014,1583,0,0
-203,-559,0,0,0,0,0,0,0,0,0,-1,1021,1583,0,0
-196,-559,0,0,0,0,0,0,0,0,0,-1,1028,1583,0,0
-189,-559,0,0,0,0,0,0,0,0,0,-1,1035,1583,0,0
-182,-559,0,0,0,0,0,0,0,0,0,-1,1042,1583,0,0
-175,-559,0,0,0,0,0,0,0,0,0,-1,1049,1583,0,0
-168,-559,0,0,0,0,0,0,0,0,0,-1,1056,1583,0,0
-161,-559,0,0,0,0,0,0,0,0,0,-1,1063,1583,0,0
-154,-559,0,0,0,0,0,0,0,0,0,-1,1070,1583,0,0
-147,-559,0,0,0,0,0,0,0,0,0,-1,1077,1583,0,0
-140,-559,0,0,0,0,0,0,0,0,0,-1,1084,1583,0,0
-133,-559,0,0,0,0,0,0,0,0,0,-1,1091,1583,0,0
-126,-559,0,0,0,0,0,0,0,0,0,-1,1098,1583,0,0
-119,-559,0,0,0,0,0,0,0,0,0,-1,1105,1583,0,0
-112,-559,0,0,0,0,0,0,0,0,0,-1,1112,1583,0,0
-105,-559,0,0,0,0,0,0,0,0,0,-1,1119,1583,0,0
-98,-559,0,0,0,0,0,0,0,0,0,-1,1126,1583,0,0
-91,-559,0,0,0,0,0,0,0,0,0,-1,1133,1583,0,0
-84,-559,0,0,0,0,0,0,0,0,0,-1,1140,1583,0,0
-77,-559,0,0,0,0,0,0,0,0,0,-1,1147,1583,0,0
-70,-559,0,0,0,0,0,0,0,0,0,-1,1154,1583,0,0
-63,-559,0,0,0,0,0,0,0,0,0,-1,1161,1583,0,0
-56,-559,0,0,0,0,0,0,0,0,0,-1,1168,1583,0,0
-49,-559,0,0,0,0,0,0,0,0,0,-1,1175,1583,0,0
-42,-559,0,0,0,0,0,0,0,0,0,-1,1182,1583,0,0
-35,-559,0,0,0,0,0,0,0,0,0,-1,1189,1583,0,0
-28,-559,0,0,0,0,0,0,0,0,0,-1,1196,1583,0,0
-21,-559,0,0,0,0,0,0,0,0,0,-1,1203,1583,0,0
-14,-559,0,0,0,0,0,0,0,0,0,-1,1210,1583,0,0
-7,-559,0,0,0,0,0,0,0,0,0,-1,1217,1583,0,0
0,-559,0,0,0,0,0,0,0,0,0,-1,1224,1583,0,0
7,-559,0,0,0,0,0,0,0,0,0,-1,1231,1583,0,0
14,-559,0,0,0,0,0,0,0,0,0,-1,1238,1583,0,0
21,-559,0,0,0,0,0,0,0,0,0,-1,1245,1583,0,0
28,-559,0,0,0,0,0,0,0,0,0,-1,1252,1583,0,0
35,-559,0,0,0,0,0,0,0,0,0,-1,1259,1583,0,0
42,-559,0,0,0,0,0,0,0,0,0,-1,1266,1583,0,0
49,-559,0,0,0,0,0,0,0,0,0,-1,1273,1583,0,0
56,-559,0,0,0,0,0,0,0,0,0,-1,1280,1583,0,0
63,-559,0,0,0,0,0,0,0,0,0,-1,1287,1583,0,0
70,-559,0,0,0,0,0,0,0,0,0,-1,1294,1583,0,0
77,-559,0,0,0,0,0,0,0,0,0,-1,1301,1583,0,0
84,-559,0,0,0,0,0,0,0,0,0,-1,1308,1583,0,0
91,-559,0,0,0,0,0,0,0,0,0,-1,1315,1583,0,0
98,-559,0,0,0,0,0,0,0,0,0,-1,1322,1583,0,0
105,-559,0,0,0,0,0,0,0,0,0,-1,1329,1583,0,0
112,-559,0,0,0,0,0,0,0,0,0,-1,1336,1583,0,0
119,-559,0,0,0,0,0,0,0,0,0,-1,1343,1583,0,0
126,-559,0,0,0,0,0,0,0,0,0,-1,1350,1583,0,0
133,-559,0,0,0,0,0,0,0,0,0,-1,1357,1583,0,0
140,-559,0,0,0,0,0,0,0,0,0,-1,1364,1583,0,0
147,-559,0,0,0,0,0,0,0,0,0,-1,1371,1583,0,0
154,-559,0,0,0,0,0,0,0,0,0,-1,1378,1583,0,0
161,-559,0,0,0,0,0,0,0,0,0,-1,1385,1583,0,0
168,-559,0,0,0,0,0,0,0,0,0,-1,1392,1583,0,0
175,-559,0,0,0,0,0,0,0,0,0,-1,1399,1583,0,0
182,-559,0,0,0,0,0,0,0,0,0,-1,1406,1583,0,0
189,-559,0,0,0,0,0,0,0,0,0,-1,1413,1583,0,0
196,-559,0,0,0,0,0,0,0,0,0,-1,1420,1583,0,0
203,-559,0,0,0,0,0,0,0,0,0,-1,1427,1583,0,0
210,-559,0,0,0,0,0,0,0,0,0,-1,1434,1583,0,0
217,-559,0,0,0,0,0,0,0,0,0,-1,1441,1583,0,0
224,-559,0,0,0,0,0,0,0,0,0,-1,1448,1583,0,0
231,-559,0,0,0,0,0,0,0,0,0,-1,1455,1583,0,0
238,-559,0,0,0,0,0,0,0,0,0,-1,1462,1583,0,0
245,-559,0,0,0,0,0,0,0,0,0,-1,1469,1583,0,0
252,-559,0,0,0,0,0,0,0,0,0,-1,1476,1583,0,0
259,-559,0,0,0,0,0,0,0,0,0,-1,1483,1583,0,0
266,-559,0,0,0,0,0,0,0,0,0,-1,1490,1583,0,0
273,-559,0,0,0,0,0,0,0,0,0,-1,1497,1583,0,0
280,-559,0,0,0,0,0,0,0,0,0,-1,1504,1583,0,0
287,-559,0,0,0,0,0,0,0,0,0,-1,1511,1583,0,0
294,-559,0,0,0,0,0,0,0,0,0,-1,1518,1583,0,0
301,-559,0,0,0,0,0,0,0,0,0,-1,1525,1583,0,0
308,-559,0,0,0,0,0,0,0,0,0,-1,1532,1583,0,0
315,-559,0,0,0,0,0,0,0,0,0,-1,1539,1583,0,0
322,-559,0,0,0,0,0,0,0,0,0,-1,1546,1583,0,0
329,-559,0,0,0,0,0,0,0,0,0,-1,1553,1583,0,0
336,-559,5.97668,3.09827,0,0,0,0,0,0,0,-1,1560,1583,5.97667,-3.09824
343,-559,5.44824,2.88696,0,0,0,0,0,0,0,-1,1567,1583,5.44819,-2.88693
350,-559,4.69775,3.27051,0,0,0,0,0,0,0,-1,1574,1583,4.69771,-3.27048
357,-559,3.88025,3.60999,0,0,0,0,0,0,0,-1,1581,1583,3.88027,-3.60998
364,-559,5.00928,5.32605,0,0,0,0,0,0,0,-1,1588,1583,5.00928,-5.32607
371,-559,1.84436,2.52441,0,0,0,0,0,0,0,-1,1595,1583,1.84441,-2.52447
378,-559,6.34753,1.53137,0,0,0,0,0,0,0,-1,1602,1583,6.34752,-1.53139
385,-559,6.95911,1.48181,0,0,0,0,0,0,0,-1,1609,1583,6.95916,-1.48175
392,-559,11.6949,4.77734,0,0,0,0,0,0,0,-1,1616,1583,11.6949,-4.77731
399,-559,11.1104,5.56909,0,0,0,0,0,0,0,-1,1623,1583,11.1103,-5.56905
406,-559,10.3385,6.48657,0,0,0,0,0,0,0,-1,1630,1583,10.3385,-6.48661
413,-559,9.76147,6.97571,0,0,0,0,0,0,0,-1,1637,1583,9.76143,-6.97574
420,-559,7.77124,10.5851,0,0,0,0,0,0,0,-1,1644,1583,7.77128,-10.585
427,-559,10.1022,12.5565,0,0,0,0,0,0,0,-1,1651,1583,10.1021,-12.5565
434,-559,9.62769,14.6309,0,0,0,0,0,0,0,-1,1658,1583,9.62771,-14.6309
441,-559,12.6149,21.3678,0,0,0,0,0,0,0,-1,1665,1583,12.6149,-21.3678
448,-559,13.7046,22.6677,0,0,0,0,0,0,0,-1,1672,1583,13.7046,-22.6677
455,-559,13.9427,23.0509,0,0,0,0,0,0,0,-1,1679,1583,13.9427,-23.0509
462,-559,21.7312,41.1299,0,0,0,0,0,0,0,-1,1686,1583,21.7312,-41.1299
469,-559,21.7063,40.0176,0,0,0,0,0,0,0,-1,1693,1583,21.7063,-40.0176
476,-559,21.9349,39.1566,0.00766571,0.00888054,-0.00510598,0.0134151,0.00313114,-0.844601,0.0081039,0.029773,1700,1583,21.935,-39.1567
483,-559,22.0164,38.3088,0.00643776,0.00707872,-0.00404578,0.0108167,0.00269979,-0.824922,0.00650083,0.0146172,1707,1583,22.0163,-38.3088
490,-559,21.9973,37.6082,0.00522045,0.00565621,-0.00319565,0.0086414,0.00223526,-0.819436,0.00517921,0.0151303,1714,1583,21.9973,-37.6082
497,-559,21.9747,36.9324,0.00406789,0.00438978,-0.0025086,0.0067426,0.00171507,-0.817433,0.0040464,0.0181022,1721,1583,21.9747,-36.9324
504,-559,21.9017,36.2422,0.0030376,0.00317395,-0.00193225,0.00503923,0.00117232,-0.803033,0.00304489,0.023016,1728,1583,21.9018,-36.2422
511,-559,21.8762,35.5012,0.00208643,0.00247069,-0.00152674,0.00381733,0.000739779,-0.847991,0.00233765,0.0210661,1735,1583,21.8762,-35.5013
518,-559,21.9125,34.7571,0.00121558,0.0019562,-0.00127088,0.00290963,0.000262154,-0.927164,0.00185854,0.0143147,1742,1583,21.9125,-34.7571
525,-559,21.8429,34.0219,0.000440632,0.00143547,-0.00101081,0.00206462,-0.000188515,-1.01405,0.00144336,0.013712,1749,1583,21.8429,-34.0218
532,-559,21.7902,33.2961,-0.000123983,0.0009569,-0.000808268,0.00138876,-0.000555845,-1.08008,0.00115654,0.0151083,1756,1583,21.7902,-33.2962
539,-559,21.7461,32.5759,-0.000468645,0.000615405,-0.000676123,0.000939944,-0.000793184,-1.12328,0.00100182,0.0193555,1763,1583,21.7461,-32.5759
546,-559,21.6746,31.8414,-0.000620672,0.000220899,-0.000489671,0.000445744,-0.000845517,-1.14034,0.000757326,0.0183252,1770,1583,21.6746,-31.8414
553,-559,21.7153,31.0364,-0.000594887,-0.000142891,-0.000289381,-1.71526e-06,-0.000736062,-1.11691,0.000490137,0.0242043,1777,1583,21.7154,-31.0364
560,-559,21.6481,30.2069,0,0,0,0,0,0,0,-1,1784,1583,21.648,-30.2069
567,-559,21.7423,29.5544,0,0,0,0,0,0,0,-1,1791,1583,21.7423,-29.5544
574,-559,10.5109,10.7317,0,0,0,0,0,0,0,-1,1798,1583,10.5108,-10.7317
581,-559,5.97095,5.96179,0,0,0,0,0,0,0,-1,1805,1583,5.97093,-5.96181
588,-559,5.79102,5.89954,0,0,0,0,0,0,0,-1,1812,1583,5.79098,-5.89949
595,-559,5.79089,6.24231,0,0,0,0,0,0,0,-1,1819,1583,5.7909,-6.24227
602,-559,12.478,2.35669,0,0,0,0,0,0,0,-1,1826,1583,12.4781,-2.35675
609,-559,14.0479,1.22681,0,0,0,0,0,0,0,-1,1833,1583,14.0479,-1.22681
616,-559,0,0,0,0,0,0,0,0,0,-1,1840,1583,0,0
623,-559,0,0,0,0,0,0,0,0,0,-1,1847,1583,0,0
630,-559,0,0,0,0,0,0,0,0,0,-1,1854,1583,0,0
637,-559,0,0,0,0,0,0,0,0,0,-1,1861,1583,0,0
644,-559,0,0,0,0,0,0,0,0,0,-1,1868,1583,0,0
651,-559,0,0,0,0,0,0,0,0,0,-1,1875,1583,0,0
658,-559,0,0,0,0,0,0,0,0,0,-1,1882,1583,0,0
665,-559,0,0,0,0,0,0,0,0,0,-1,1889,1583,0,0
672,-559,0,0,0,0,0,0,0,0,0,-1,1896,1583,0,0
679,-559,0,0,0,0,0,0,0,0,0,-1,1903,1583,0,0
686,-559,0,0,0,0,0,0,0,0,0,-1,1910,1583,0,0
693,-559,0,0,0,0,0,0,0,0,0,-1,1917,1583,0,0
700,-559,0,0,0,0,0,0,0,0,0,-1,1924,1583,0,0
707,-559,0,0,0,0,0,0,0,0,0,-1,1931,1583,0,0
714,-559,0,0,0,0,0,0,0,0,0,-1,1938,1583,0,0
721,-559,0,0,0,0,0,0,0,0,0,-1,1945,1583,0,0
728,-559,0,0,0,0,0,0,0,0,0,-1,1952,1583,0,0
735,-559,0,0,0,0,0,0,0,0,0,-1,1959,1583,0,0
742,-559,0,0,0,0,0,0,0,0,0,-1,1966,1583,0,0
749,-559,0,0,0,0,0,0,0,0,0,-1,1973,1583,0,0
756,-559,0,0,0,0,0,0,0,0,0,-1,1980,1583,0,0
763,-559,0,0,0,0,0,0,0,0,0,-1,1987,1583,0,0
770,-559,0,0,0,0,0,0,0,0,0,-1,1994,1583,0,0
777,-559,0,0,0,0,0,0,0,0,0,-1,2001,1583,0,0
784,-559,0,0,0,0,0,0,0,0,0,-1,2008,1583,0,0
791,-559,0,0,0,0,0,0,0,0,0,-1,2015,1583,0,0
798,-559,0,0,0,0,0,0,0,0,0,-1,2022,1583,0,0
805,-559,0,0,0,0,0,0,0,0,0,-1,2029,1583,0,0
812,-559,0,0,0,0,0,0,0,0,0,-1,2036,1583,0,0
-700,-566,0,0,0,0,0,0,0,0,0,-1,524,1590,0,0
-693,-566,0,0,0,0,0,0,0,0,0,-1,531,1590,0,0
-686,-566,0,0,0,0,0,0,0,0,0,-1,538,1590,0,0
-679,-566,0,0,0,0,0,0,0,0,0,-1,545,1590,0,0
-672,-566,0,0,0,0,0,0,0,0,0,-1,552,1590,0,0
-665,-566,0,0,0,0,0,0,0,0,0,-1,559,1590,0,0
-658,-566,0,0,0,0,0,0,0,0,0,-1,566,1590,0,0
-651,-566,0,0,0,0,0,0,0,0,0,-1,573,1590,0,0
-644,-566,0,0,0,0,0,0,0,0,0,-1,580,1590,0,0
-637,-566,0,0,0,0,0,0,0,0,0,-1,587,1590,0,0
-630,-566,0,0,0,0,0,0,0,0,0,-1,594,1590,0,0
-623,-566,0,0,0,0,0,0,0,0,0,-1,601,1590,0,0
-616,-566,0,0,0,0,0,0,0,0,0,-1,608,1590,0,0
-609,-566,0,0,0,0,0,0,0,0,0,-1,615,1590,0,0
-602,-566,0,0,0,0,0,0,0,0,0,-1,622,1590,0,0
-595,-566,0,0,0,0,0,0,0,0,0,-1,629,1590,0,0
-588,-566,0,0,0,0,0,0,0,0,0,-1,636,1590,0,0
-581,-566,0,0,0,0,0,0,0,0,0,-1,643,1590,0,0
-574,-566,0,0,0,0,0,0,0,0,0,-1,650,1590,0,0
-567,-566,0,0,0,0,0,0,0,0,0,-1,657,1590,0,0
-560,-566,0,0,0,0,0,0,0,0,0,-1,664,1590,0,0
-553,-566,0,0,0,0,0,0,0,0,0,-1,671,1590,0,0
-546,-566,0,0,0,0,0,0,0,0,0,-1,678,1590,0,0
-539,-566,0,0,0,0,0,0,0,0,0,-1,685,1590,0,0
-532,-566,0,0,0,0,0,0,0,0,0,-1,692,1590,0,0
-525,-566,0,0,0,0,0,0,0,0,0,-1,699,1590,0,0
-518,-566,0,0,0,0,0,0,0,0,0,-1,706,1590,0,0
-511,-566,0,0,0,0,0,0,0,0,0,-1,713,1590,0,0
-504,-566,0,0,0,0,0,0,0,0,0,-1,720,1590,0,0
-497,-566,0,0,0,0,0,0,0,0,0,-1,727,1590,0,0
-490,-566,0,0,0,0,0,0,0,0,0,-1,734,1590,0,0
-483,-566,-7.17084,2.78613,0,0,0,0,0,0,0,-1,741,1590,-7.17083,-2.78618
-476,-566,-7.13971,2.87183,0,0,0,0,0,0,0,-1,748,1590,-7.13971,-2.87184
-469,-566,-6.43829,3.2998,0,0,0,0,0,0,0,-1,755,1590,-6.43829,-3.2998
-462,-566,-0.459106,3.89343,0,0,0,0,0,0,0,-1,762,1590,-0.459095,-3.89341
-455,-566,0.280212,4.74023,0,0,0,0,0,0,0,-1,769,1590,0.280207,-4.74023
-448,-566,0.436951,5.51306,0,0,0,0,0,0,0,-1,776,1590,0.436971,-5.51301
-441,-566,-0.440735,12.4063,0,0,0,0,0,0,0,-1,783,1590,-0.440753,-12.4062
-434,-566,-2.31287,30.3992,0,0,0,0,0,0,0,-1,790,1590,-2.31285,-30.3992
-427,-566,-2.99585,30.8905,0,0,0,0,0,0,0,-1,797,1590,-2.99587,-30.8905
-420,-566,-3.45538,31.0425,0,0,0,0,0,0,0,-1,804,1590,-3.45539,-31.0424
-413,-566,-3.32526,31.9207,-0.00406831,-0.00108644,-0.00074185,-0.000912075,-0.00424268,-1.33994,0.00257876,0.036128,811,1590,-3.32527,-31.9207
-406,-566,-3.33606,32.7004,-0.00265415,-0.000783967,6.36775e-05,-0.000781801,-0.00265632,1.5368,0.00157629,0.0152615,818,1590,-3.33608,-32.7005
-399,-566,-3.36694,33.4872,-0.00152327,-0.000667321,0.000501284,-0.000436169,-0.00175442,1.13873,0.00105473,0.0112856,825,1590,-3.36697,-33.4872
-392,-566,-3.42859,34.244,-0.000656571,-0.000431182,0.000799243,0.000263272,-0.00135103,0.855437,0.00100006,0.0143966,832,1590,-3.42858,-34.244
-385,-566,-3.45282,35.0051,0.000120989,-2.5354e-05,0.00100284,0.00105332,-0.000957684,0.74898,0.00116149,0.0161432,839,1590,-3.45284,-35.0052
-378,-566,-3.47821,35.7671,0.000711216,0.000364356,0.00108371,0.00163529,-0.000559718,0.706054,0.00131703,0.0154516,846,1590,-3.4782,-35.767
-371,-566,-3.57104,36.4971,0.00112537,0.000634358,0.000919813,0.00183188,-7.21494e-05,0.654985,0.001246,0.0215762,853,1590,-3.57103,-36.497
-364,-566,-3.58099,37.2401,0.0017108,0.00126225,0.000934817,0.00244787,0.000525181,0.667668,0.00148807,0.022653,860,1590,-3.58098,-37.2401
-357,-566,-3.63544,37.9421,0.00236236,0.00203434,0.00098134,0.0031933,0.0012034,0.702597,0.0018622,0.0186513,867,1590,-3.63544,-37.9422
-350,-566,-3.67657,38.6593,0.0031127,0.00282408,0.00110388,0.00408167,0.00185512,0.720403,0.0023598,0.0211004,874,1590,-3.67656,-38.6593
-343,-566,-3.66364,39.3733,0.00385334,0.00352986,0.00127907,0.00498085,0.00240235,0.722506,0.0028763,0.0267548,881,1590,-3.66364,-39.3732
-336,-566,-3.79913,40.0912,0.00486281,0.00461018,0.00176902,0.00651002,0.00296297,0.749756,0.0037636,0.0315809,888,1590,-3.79915,-40.0912
-329,-566,-3.71381,40.7637,0.0062792,0.00630608,0.00274175,0.00903443,0.00355086,0.787849,0.00525566,0.030623,895,1590,-3.71381,-40.7637
-322,-566,-3.57086,41.6547,0,0,0,0,0,0,0,-1,902,1590,-3.57088,-41.6547
-315,-566,-3.27448,42.5477,0,0,0,0,0,0,0,-1,909,1590,-3.27449,-42.5477
-308,-566,-0.127258,29.7607,0,0,0,0,0,0,0,-1,916,1590,-0.12725,-29.7608
-301,-566,0.424011,30.6545,0,0,0,0,0,0,0,-1,923,1590,0.424036,-30.6546
-294,-566,-2.54523,43.1459,0,0,0,0,0,0,0,-1,930,1590,-2.54522,-43.1458
-287,-566,1.25391,23.4589,0,0,0,0,0,0,0,-1,937,1590,1.2539,-23.4589
-280,-566,1.59406,17.8762,0,0,0,0,0,0,0,-1,944,1590,1.59405,-17.8762
-273,-566,0.49762,11.2427,0,0,0,0,0,0,0,-1,951,1590,0.497591,-11.2426
-266,-566,0.392151,6.90295,0,0,0,0,0,0,0,-1,958,1590,0.392151,-6.90294
-259,-566,0.343628,6.47437,0,0,0,0,0,0,0,-1,965,1590,0.34363,-6.47438
-252,-566,-7.68311,1.01343,0,0,0,0,0,0,0,-1,972,1590,-7.68308,-1.01348
-245,-566,-11.1835,1.97522,0,0,0,0,0,0,0,-1,979,1590,-11.1835,-1.97527
-238,-566,-10.4883,2.40491,0,0,0,0,0,0,0,-1,986,1590,-10.4883,-2.40487
-231,-566,-7.41827,4.22803,0,0,0,0,0,0,0,-1,993,1590,-7.41827,-4.22803
-224,-566,-4.67188,6.30859,0,0,0,0,0,0,0,-1,1000,1590,-4.67185,-6.30853
-217,-566,-2.82867,7.52527,0,0,0,0,0,0,0,-1,1007,1590,-2.82869,-7.52531
-210,-566,-1.03436,8.67737,0,0,0,0,0,0,0,-1,1014,1590,-1.03439,-8.67733
-203,-566,0,0,0,0,0,0,0,0,0,-1,1021,1590,0,0
-196,-566,0,0,0,0,0,0,0,0,0,-1,1028,1590,0,0
-189,-566,0,0,0,0,0,0,0,0,0,-1,1035,1590,0,0
-182,-566,0,0,0,0,0,0,0,0,0,-1,1042,1590,0,0
-175,-566,0,0,0,0,0,0,0,0,0,-1,1049,1590,0,0
-168,-566,0,0,0,0,0,0,0,0,0,-1,1056,1590,0,0
-161,-566,0,0,0,0,0,0,0,0,0,-1,1063,1590,0,0
-154,-566,0,0,0,0,0,0,0,0,0,-1,1070,1590,0,0
-147,-566,0,0,0,0,0,0,0,0,0,-1,1077,1590,0,0
-140,-566,0,0,0,0,0,0,0,0,0,-1,1084,1590,0,0
-133,-566,0,0,0,0,0,0,0,0,0,-1,1091,1590,0,0
-126,-566,0,0,0,0,0,0,0,0,0,-1,1098,1590,0,0
-119,-566,0,0,0,0,0,0,0,0,0,-1,1105,1590,0,0
-112,-566,0,0,0,0,0,0,0,0,0,-1,1112,1590,0,0
-105,-566,0,0,0,0,0,0,0,0,0,-1,1119,1590,0,0
-98,-566,0,0,0,0,0,0,0,0,0,-1,1126,1590,0,0
-91,-566,0,0,0,0,0,0,0,0,0,-1,1133,1590,0,0
-84,-566,0,0,0,0,0,0,0,0,0,-1,1140,1590,0,0
-77,-566,0,0,0,0,0,0,0,0,0,-1,1147,1590,0,0
-70,-566,0,0,0,0,0,0,0,0,0,-1,1154,1590,0,0
-63,-566,0,0,0,0,0,0,0,0,0,-1,1161,1590,0,0
-56,-566,0,0,0,0,0,0,0,0,0,-1,1168,1590,0,0
-49,-566,0,0,0,0,0,0,0,0,0,-1,1175,1590,0,0
-42,-566,0,0,0,0,0,0,0,0,0,-1,1182,1590,0,0
-35,-566,0,0,0,0,0,0,0,0,0,-1,1189,1590,0,0
-28,-566,0,0,0,0,0,0,0,0,0,-1,1196,1590,0,0
-21,-566,0,0,0,0,0,0,0,0,0,-1,1203,1590,0,0
-14,-566,0,0,0,0,0,0,0,0,0,-1,1210,1590,0,0
-7,-566,0,0,0,0,0,0,0,0,0,-1,1217,1590,0,0
0,-566,0,0,0,0,0,0,0,0,0,-1,1224,1590,0,0
7,-566,0,0,0,0,0,0,0,0,0,-1,1231,1590,0,0
14,-566,0,0,0,0,0,0,0,0,0,-1,1238,1590,0,0
21,-566,0,0,0,0,0,0,0,0,0,-1,1245,1590,0,0
28,-566,0,0,0,0,0,0,0,0,0,-1,1252,1590,0,0
35,-566,0,0,0,0,0,0,0,0,0,-1,1259,1590,0,0
42,-566,0,0,0,0,0,0,0,0,0,-1,1266,1590,0,0
49,-566,0,0,0,0,0,0,0,0,0,-1,1273,1590,0,0
56,-566,0,0,0,0,0,0,0,0,0,-1,1280,1590,0,0
63,-566,0,0,0,0,0,0,0,0,0,-1,1287,1590,0,0
70,-566,0,0,0,0,0,0,0,0,0,-1,1294,1590,0,0
77,-566,0,0,0,0,0,0,0,0,0,-1,1301,1590,0,0
84,-566,0,0,0,0,0,0,0,0,0,-1,1308,1590,0,0
91,-566,0,0,0,0,0,0,0,0,0,-1,1315,1590,0,0
98,-566,0,0,0,0,0,0,0,0,0,-1,1322,1590,0,0
105,-566,0,0,0,0,0,0,0,0,0,-1,1329,1590,0,0
112,-566,0,0,0,0,0,0,0,0,0,-1,1336,1590,0,0
119,-566,0,0,0,0,0,0,0,0,0,-1,1343,1590,0,0
126,-566,0,0,0,0,0,0,0,0,0,-1,1350,1590,0,0
133,-566,0,0,0,0,0,0,0,0,0,-1,1357,1590,0,0
140,-566,0,0,0,0,0,0,0,0,0,-1,1364,1590,0,0
147,-566,0,0,0,0,0,0,0,0,0,-1,1371,1590,0,0
154,-566,0,0,0,0,0,0,0,0,0,-1,1378,1590,0,0
161,-566,0,0,0,0,0,0,0,0,0,-1,1385,1590,0,0
168,-566,0,0,0,0,0,0,0,0,0,-1,1392,1590,0,0
175,-566,0,0,0,0,0,0,0,0,0,-1,1399,1590,0,0
182,-566,0,0,0,0,0,0,0,0,0,-1,1406,1590,0,0
189,-566,0,0,0,0,0,0,0,0,0,-1,1413,1590,0,0
196,-566,0,0,0,0,0,0,0,0,0,-1,1420,1590,0,0
203,-566,0,0,0,0,0,0,0,0,0,-1,1427,1590,0,0
210,-566,0,0,0,0,0,0,0,0,0,-1,1434,1590,0,0
217,-566,0,0,0,0,0,0,0,0,0,-1,1441,1590,0,0
224,-566,0,0,0,0,0,0,0,0,0,-1,1448,1590,0,0
231,-566,0,0,0,0,0,0,0,0,0,-1,1455,1590,0,0
238,-566,0,0,0,0,0,0,0,0,0,-1,1462,1590,0,0
245,-566,0,0,0,0,0,0,0,0,0,-1,1469,1590,0,0
252,-566,0,0,0,0,0,0,0,0,0,-1,1476,1590,0,0
259,-566,0,0,0,0,0,0,0,0,0,-1,1483,1590,0,0
266,-566,0,0,0,0,0,0,0,0,0,-1,1490,1590,0,0
273,-566,0,0,0,0,0,0,0,0,0,-1,1497,1590,0,0
280,-566,0,0,0,0,0,0,0,0,0,-1,1504,1590,0,0
287,-566,0,0,0,0,0,0,0,0,0,-1,1511,1590,0,0
294,-566,0,0,0,0,0,0,0,0,0,-1,1518,1590,0,0
301,-566,0,0,0,0,0,0,0,0,0,-1,1525,1590,0,0
308,-566,0,0,0,0,0,0,0,0,0,-1,1532,1590,0,0
315,-566,0,0,0,0,0,0,0,0,0,-1,1539,1590,0,0
322,-566,6.07983,4.44873,0,0,0,0,0,0,0,-1,1546,1590,6.07983,-4.44873
329,-566,5.77026,3.47534,0,0,0,0,0,0,0,-1,1553,1590,5.77026,-3.47535
336,-566,5.41138,2.62915,0,0,0,0,0,0,0,-1,1560,1590,5.41138,-2.62909
343,-566,4.81873,1.79089,0,0,0,0,0,0,0,-1,1567,1590,4.81878,-1.79095
350,-566,4.41663,2.44214,0,0,0,0,0,0,0,-1,1574,1590,4.41666,-2.44214
357,-566,6.34058,5.18579,0,0,0,0,0,0,0,-1,1581,1590,6.34059,-5.1858
364,-566,6.06262,4.20251,0,0,0,0,0,0,0,-1,1588,1590,6.06259,-4.20246
371,-566,5.78455,3.21912,0,0,0,0,0,0,0,-1,1595,1590,5.7846,-3.21912
378,-566,5.7439,0.695557,0,0,0,0,0,0,0,-1,1602,1590,5.74392,-0.695531
385,-566,5.67615,-0.573975,0,0,0,0,0,0,0,-1,1609,1590,5.67612,0.573956
392,-566,5.78638,1.82434,0,0,0,0,0,0,0,-1,1616,1590,5.78637,-1.82439
399,-566,18.6853,38.6455,0,0,0,0,0,0,0,-1,1623,1590,18.6853,-38.6456
406,-566,4.30359,5.26868,0,0,0,0,0,0,0,-1,1630,1590,4.30364,-5.26867
413,-566,4.27124,5.79492,0,0,0,0,0,0,0,-1,1637,1590,4.27123,-5.7949
420,-566,18.0121,32.5314,0,0,0,0,0,0,0,-1,1644,1590,18.0121,-32.5313
427,-566,19.4491,36.9315,0,0,0,0,0,0,0,-1,1651,1590,19.4491,-36.9315
434,-566,19.338,36.7385,0,0,0,0,0,0,0,-1,1658,1590,19.338,-36.7386
441,-566,15.5841,27.5869,0,0,0,0,0,0,0,-1,1665,1590,15.5842,-27.587
448,-566,21.4236,42.7284,0,0,0,0,0,0,0,-1,1672,1590,21.4236,-42.7284
455,-566,21.0813,41.6754,0,0,0,0,0,0,0,-1,1679,1590,21.0812,-41.6755
462,-566,21.3014,40.5313,0,0,0,0,0,0,0,-1,1686,1590,21.3013,-40.5313
469,-566,21.2189,39.8477,0.00694824,0.00874351,-0.00468678,0.0126178,0.00307391,-0.880015,0.00759745,0.0227022,1693,1590,21.2189,-39.8477
476,-566,21.2836,39.0604,0.00586652,0.00690442,-0.00387678,0.0102968,0.00247411,-0.851933,0.00620646,0.0115983,1700,1590,21.2835,-39.0605
483,-566,21.2736,38.3353,0.00484084,0.0054504,-0.00308349,0.00824413,0.00204711,-0.83466,0.00495669,0.0112725,1707,1590,21.2736,-38.3354
490,-566,21.2545,37.6273,0.00381798,0.00432096,-0.00243729,0.0065197,0.00161924,-0.836809,0.00391983,0.0124544,1714,1590,21.2545,-37.6273
497,-566,21.2771,36.9441,0.0028462,0.00333361,-0.00194279,0.00504792,0.00113189,-0.847792,0.00305861,0.0157503,1721,1590,21.2771,-36.9441
504,-566,21.2058,36.2661,0.00194183,0.00233888,-0.00151296,0.00366628,0.000614428,-0.850634,0.0022673,0.0196531,1728,1590,21.2058,-36.2661
511,-566,21.1593,35.5533,0.00109993,0.00181071,-0.00122055,0.00272655,0.000184087,-0.927067,0.00175955,0.0198158,1735,1590,21.1593,-35.5534
518,-566,21.1661,34.8402,0.000313144,0.00143341,-0.00105031,0.00206361,-0.000317058,-1.03037,0.0014927,0.01227,1742,1590,21.1661,-34.8403
525,-566,21.1005,34.0725,-0.000388198,0.00105709,-0.000889948,0.00148084,-0.000811949,-1.12641,0.00134239,0.0121697,1749,1590,21.1005,-34.0725
532,-566,21.0538,33.3094,-0.000878804,0.000716157,-0.00078597,0.00103838,-0.00120102,-1.18173,0.00129405,0.0150973,1756,1590,21.0538,-33.3094
539,-566,21.0182,32.5667,-0.00121324,0.000428416,-0.000709278,0.000692408,-0.00147723,-1.21448,0.00127967,0.0209227,1763,1590,21.0182,-32.5666
546,-566,21.0583,31.7697,-0.00134514,0.000156453,-0.000589988,0.000360528,-0.00154921,-1.23778,0.00117162,0.0272829,1770,1590,21.0583,-31.7697
553,-566,21.0139,31.201,-0.00131518,-0.000112732,-0.000439439,3.07435e-05,-0.00145865,-1.25521,0.000982842,0.0407554,1777,1590,21.0139,-31.201
560,-566,20.7135,30.6324,0,0,0,0,0,0,0,-1,1784,1590,20.7136,-30.6325
567,-566,20.5707,29.9063,0,0,0,0,0,0,0,-1,1791,1590,20.5706,-29.9063
574,-566,7.99548,3.14514,0,0,0,0,0,0,0,-1,1798,1590,7.99543,-3.14511
581,-566,2.54102,5.1311,0,0,0,0,0,0,0,-1,1805,1590,2.54099,-5.13111
588,-566,-1.91321,8.39197,0,0,0,0,0,0,0,-1,1812,1590,-1.91316,-8.39199
595,-566,9.0271,4.66467,0,0,0,0,0,0,0,-1,1819,1590,9.02705,-4.66468
602,-566,9.953,3.54895,0,0,0,0,0,0,0,-1,1826,1590,9.953,-3.54898
609,-566,0,0,0,0,0,0,0,0,0,-1,1833,1590,0,0
616,-566,0,0,0,0,0,0,0,0,0,-1,1840,1590,0,0
623,-566,0,0,0,0,0,0,0,0,0,-1,1847,1590,0,0
630,-566,0,0,0,0,0,0,0,0,0,-1,1854,1590,0,0
637,-566,0,0,0,0,0,0,0,0,0,-1,1861,1590,0,0
644,-566,0,0,0,0,0,0,0,0,0,-1,1868,1590,0,0
651,-566,0,0,0,0,0,0,0,0,0,-1,1875,1590,0,0
658,-566,0,0,0,0,0,0,0,0,0,-1,1882,1590,0,0
665,-566,0,0,0,0,0,0,0,0,0,-1,1889,1590,0,0
672,-566,0,0,0,0,0,0,0,0,0,-1,1896,1590,0,0
679,-566,0,0,0,0,0,0,0,0,0,-1,1903,1590,0,0
686,-566,0,0,0,0,0,0,0,0,0,-1,1910,1590,0,0
693,-566,0,0,0,0,0,0,0,0,0,-1,1917,1590,0,0
700,-566,0,0,0,0,0,0,0,0,0,-1,1924,1590,0,0
707,-566,0,0,0,0,0,0,0,0,0,-1,1931,1590,0,0
714,-566,0,0,0,0,0,0,0,0,0,-1,1938,1590,0,0
721,-566,0,0,0,0,0,0,0,0,0,-1,1945,1590,0,0
728,-566,0,0,0,0,0,0,0,0,0,-1,1952,1590,0,0
735,-566,0,0,0,0,0,0,0,0,0,-1,1959,1590,0,0
742,-566,0,0,0,0,0,0,0,0,0,-1,1966,1590,0,0
749,-566,0,0,0,0,0,0,0,0,0,-1,1973,1590,0,0
756,-566,0,0,0,0,0,0,0,0,0,-1,1980,1590,0,0
763,-566,0,0,0,0,0,0,0,0,0,-1,1987,1590,0,0
770,-566,0,0,0,0,0,0,0,0,0,-1,1994,1590,0,0
777,-566,0,0,0,0,0,0,0,0,0,-1,2001,1590,0,0
784,-566,0,0,0,0,0,0,0,0,0,-1,2008,1590,0,0
791,-566,0,0,0,0,0,0,0,0,0,-1,2015,1590,0,0
798,-566,0,0,0,0,0,0,0,0,0,-1,2022,1590,0,0
805,-566,0,0,0,0,0,0,0,0,0,-1,2029,1590,0,0
812,-566,0,0,0,0,0,0,0,0,0,-1,2036,1590,0,0
-700,-573,0,0,0,0,0,0,0,0,0,-1,524,1597,0,0
-693,-573,0,0,0,0,0,0,0,0,0,-1,531,1597,0,0
-686,-573,0,0,0,0,0,0,0,0,0,-1,538,1597,0,0
-679,-573,0,0,0,0,0,0,0,0,0,-1,545,1597,0,0
-672,-573,0,0,0,0,0,0,0,0,0,-1,552,1597,0,0
-665,-573,0,0,0,0,0,0,0,0,0,-1,559,1597,0,0
-658,-573,0,0,0,0,0,0,0,0,0,-1,566,1597,0,0
-651,-573,0,0,0,0,0,0,0,0,0,-1,573,1597,0,0
-644,-573,0,0,0,0,0,0,0,0,0,-1,580,1597,0,0
-637,-573,0,0,0,0,0,0,0,0,0,-1,587,1597,0,0
-630,-573,0,0,0,0,0,0,0,0,0,-1,594,1597,0,0
-623,-573,0,0,0,0,0,0,0,0,0,-1,601,1597,0,0
-616,-573,0,0,0,0,0,0,0,0,0,-1,608,1597,0,0
-609,-573,0,0,0,0,0,0,0,0,0,-1,615,1597,0,0
-602,-573,0,0,0,0,0,0,0,0,0,-1,622,1597,0,0
-595,-573,0,0,0,0,0,0,0,0,0,-1,629,1597,0,0
-588,-573,0,0,0,0,0,0,0,0,0,-1,636,1597,0,0
-581,-573,0,0,0,0,0,0,0,0,0,-1,643,1597,0,0
-574,-573,0,0,0,0,0,0,0,0,0,-1,650,1597,0,0
-567,-573,0,0,0,0,0,0,0,0,0,-1,657,1597,0,0
-560,-573,0,0,0,0,0,0,0,0,0,-1,664,1597,0,0
-553,-573,0,0,0,0,0,0,0,0,0,-1,671,1597,0,0
-546,-573,0,0,0,0,0,0,0,0,0,-1,678,1597,0,0
-539,-573,0,0,0,0,0,0,0,0,0,-1,685,1597,0,0
-532,-573,0,0,0,0,0,0,0,0,0,-1,692,1597,0,0
-525,-573,0,0,0,0,0,0,0,0,0,-1,699,1597,0,0
-518,-573,0,0,0,0,0,0,0,0,0,-1,706,1597,0,0
-511,-573,0,0,0,0,0,0,0,0,0,-1,713,1597,0,0
-504,-573,0,0,0,0,0,0,0,0,0,-1,720,1597,0,0
-497,-573,0,0,0,0,0,0,0,0,0,-1,727,1597,0,0
-490,-573,0,0,0,0,0,0,0,0,0,-1,734,1597,0,0
-483,-573,0,0,0,0,0,0,0,0,0,-1,741,1597,0,0
-476,-573,-9.3327,0.972778,0,0,0,0,0,0,0,-1,748,1597,-9.33268,-0.972776
-469,-573,-1.41681,1.13379,0,0,0,0,0,0,0,-1,755,1597,-1.41681,-1.13382
-462,-573,-0.748535,2.02588,0,0,0,0,0,0,0,-1,762,1597,-0.748533,-2.02584
-455,-573,-0.112976,2.70703,0,0,0,0,0,0,0,-1,769,1597,-0.112988,-2.70697
-448,-573,-1.26172,3.33252,0,0,0,0,0,0,0,-1,776,1597,-1.26173,-3.33248
-441,-573,0.108582,5.06726,0,0,0,0,0,0,0,-1,783,1597,0.108584,-5.06721
-434,-573,1.61768,7.05444,0,0,0,0,0,0,0,-1,790,1597,1.61767,-7.05446
-427,-573,-1.37927,24.4124,0,0,0,0,0,0,0,-1,797,1597,-1.37928,-24.4124
-420,-573,-1.15186,28.0936,0,0,0,0,0,0,0,-1,804,1597,-1.15185,-28.0936
-413,-573,-2.62384,31.6521,0,0,0,0,0,0,0,-1,811,1597,-2.62384,-31.652
-406,-573,-2.6004,32.6166,-0.00303798,-0.00108274,0.00043491,-0.000990362,-0.00313036,1.36151,0.00184749,0.045286,818,1597,-2.60042,-32.6165
-399,-573,-2.68237,33.4884,-0.00191511,-0.00113678,0.000839316,-0.000600798,-0.00245109,1.00248,0.00147516,0.0176359,825,1597,-2.68236,-33.4885
-392,-573,-2.69196,34.2839,-0.00103451,-0.00100353,0.00112686,0.000107945,-0.00214598,0.792271,0.00146796,0.0142954,832,1597,-2.69193,-34.284
-385,-573,-2.7204,35.0428,-0.00026449,-0.000643923,0.00131799,0.000877367,-0.00178578,0.713917,0.0015671,0.0166671,839,1597,-2.72039,-35.0428
-378,-573,-2.74225,35.7874,0.000292535,-0.00026953,0.00138261,0.00142239,-0.00139938,0.685133,0.00162917,0.0165518,846,1597,-2.74223,-35.7874
-371,-573,-2.78284,36.5345,0.000649829,-7.20051e-05,0.00115433,0.00149835,-0.000920526,0.633881,0.00140976,0.0164787,853,1597,-2.78284,-36.5345
-364,-573,-2.82703,37.255,0.00113707,0.000437278,0.00106243,0.00190574,-0.000331389,0.626324,0.00139415,0.0198542,860,1597,-2.82702,-37.255
-357,-573,-2.87268,37.9542,0.00171192,0.00109793,0.00101916,0.00246932,0.000340529,0.639109,0.00154526,0.0239159,867,1597,-2.87269,-37.9542
-350,-573,-2.89655,38.7224,0.0023953,0.00175401,0.00104185,0.00316473,0.000984578,0.636117,0.00187012,0.0192713,874,1597,-2.89652,-38.7224
-343,-573,-2.89661,39.472,0.0030662,0.00238106,0.0011278,0.00390231,0.00154495,0.63795,0.00226921,0.0242594,881,1597,-2.89662,-39.472
-336,-573,-2.94556,40.2294,0.00395758,0.00334362,0.00149998,0.00518167,0.00211954,0.684464,0.00300809,0.0182575,888,1597,-2.94556,-40.2293
-329,-573,-2.97827,40.9086,0.00519469,0.00487964,0.00230936,0.00735189,0.00272244,0.751345,0.00429195,0.0188651,895,1597,-2.97829,-40.9085
-322,-573,-3.0047,41.6282,0.00659838,0.00654402,0.00341585,0.00998715,0.00315524,0.78142,0.00589489,0.0184007,902,1597,-3.00473,-41.6282
-315,-573,-2.84412,42.578,0.00826205,0.00889783,0.00510409,0.0136939,0.00346596,0.816498,0.00822121,0.0432687,909,1597,-2.84409,-42.578
-308,-573,-2.43768,43.6527,0,0,0,0,0,0,0,-1,916,1597,-2.43768,-43.6527
-301,-573,-2.75562,44.0448,0,0,0,0,0,0,0,-1,923,1597,-2.75564,-44.0448
-294,-573,-2.62817,44.6088,0,0,0,0,0,0,0,-1,930,1597,-2.62818,-44.6087
-287,-573,-2.00739,43.4723,0,0,0,0,0,0,0,-1,937,1597,-2.00739,-43.4723
-280,-573,1.19684,26.4906,0,0,0,0,0,0,0,-1,944,1597,1.19685,-26.4906
-273,-573,2.24805,25.4375,0,0,0,0,0,0,0,-1,951,1597,2.24803,-25.4374
-266,-573,1.31116,7.1814,0,0,0,0,0,0,0,-1,958,1597,1.31118,-7.18142
-259,-573,1.2514,6.70959,0,0,0,0,0,0,0,-1,965,1597,1.25137,-6.70965
-252,-573,2.07874,5.27161,0,0,0,0,0,0,0,-1,972,1597,2.07875,-5.27157
-245,-573,-10.2592,1.09827,0,0,0,0,0,0,0,-1,979,1597,-10.2592,-1.09823
-238,-573,-11.5463,4.44141,0,0,0,0,0,0,0,-1,986,1597,-11.5463,-4.44146
-231,-573,-9.23431,4.14539,0,0,0,0,0,0,0,-1,993,1597,-9.23431,-4.14534
-224,-573,-6.70044,7.40857,0,0,0,0,0,0,0,-1,1000,1597,-6.70045,-7.40851
-217,-573,-4.25824,8.59119,0,0,0,0,0,0,0,-1,1007,1597,-4.25824,-8.59122
-210,-573,-2.39661,9.73914,0,0,0,0,0,0,0,-1,1014,1597,-2.39658,-9.73915
-203,-573,-0.557373,10.9005,0,0,0,0,0,0,0,-1,1021,1597,-0.557387,-10.9006
-196,-573,-1.65344,9.02246,0,0,0,0,0,0,0,-1,1028,1597,-1.65349,-9.02241
-189,-573,-6.12915,6.66882,0,0,0,0,0,0,0,-1,1035,1597,-6.12913,-6.66884
-182,-573,0,0,0,0,0,0,0,0,0,-1,1042,1597,0,0
-175,-573,0,0,0,0,0,0,0,0,0,-1,1049,1597,0,0
-168,-573,0,0,0,0,0,0,0,0,0,-1,1056,1597,0,0
-161,-573,0,0,0,0,0,0,0,0,0,-1,1063,1597,0,0
-154,-573,0,0,0,0,0,0,0,0,0,-1,1070,1597,0,0
-147,-573,0,0,0,0,0,0,0,0,0,-1,1077,1597,0,0
-140,-573,0,0,0,0,0,0,0,0,0,-1,1084,1597,0,0
-133,-573,0,0,0,0,0,0,0,0,0,-1,1091,1597,0,0
-126,-573,0,0,0,0,0,0,0,0,0,-1,1098,1597,0,0
-119,-573,0,0,0,0,0,0,0,0,0,-1,1105,1597,0,0
-112,-573,0,0,0,0,0,0,0,0,0,-1,1112,1597,0,0
-105,-573,0,0,0,0,0,0,0,0,0,-1,1119,1597,0,0
-98,-573,0,0,0,0,0,0,0,0,0,-1,1126,1597,0,0
-91,-573,0,0,0,0,0,0,0,0,0,-1,1133,1597,0,0
-84,-573,0,0,0,0,0,0,0,0,0,-1,1140,1597,0,0
-77,-573,0,0,0,0,0,0,0,0,0,-1,1147,1597,0,0
-70,-573,0,0,0,0,0,0,0,0,0,-1,1154,1597,0,0
-63,-573,0,0,0,0,0,0,0,0,0,-1,1161,1597,0,0
-56,-573,0,0,0,0,0,0,0,0,0,-1,1168,1597,0,0
-49,-573,0,0,0,0,0,0,0,0,0,-1,1175,1597,0,0
-42,-573,0,0,0,0,0,0,0,0,0,-1,1182,1597,0,0
-35,-573,0,0,0,0,0,0,0,0,0,-1,1189,1597,0,0
-28,-573,0,0,0,0,0,0,0,0,0,-1,1196,1597,0,0
-21,-573,0,0,0,0,0,0,0,0,0,-1,1203,1597,0,0
-14,-573,0,0,0,0,0,0,0,0,0,-1,1210,1597,0,0
-7,-573,0,0,0,0,0,0,0,0,0,-1,1217,1597,0,0
0,-573,0,0,0,0,0,0,0,0,0,-1,1224,1597,0,0
7,-573,0,0,0,0,0,0,0,0,0,-1,1231,1597,0,0
14,-573,0,0,0,0,0,0,0,0,0,-1,1238,1597,0,0
21,-573,0,0,0,0,0,0,0,0,0,-1,1245,1597,0,0
28,-573,0,0,0,0,0,0,0,0,0,-1,1252,1597,0,0
35,-573,0,0,0,0,0,0,0,0,0,-1,1259,1597,0,0
42,-573,0,0,0,0,0,0,0,0,0,-1,1266,1597,0,0
49,-573,0,0,0,0,0,0,0,0,0,-1,1273,1597,0,0
56,-573,0,0,0,0,0,0,0,0,0,-1,1280,1597,0,0
63,-573,0,0,0,0,0,0,0,0,0,-1,1287,1597,0,0
70,-573,0,0,0,0,0,0,0,0,0,-1,1294,1597,0,0
77,-573,0,0,0,0,0,0,0,0,0,-1,1301,1597,0,0
84,-573,0,0,0,0,0,0,0,0,0,-1,1308,1597,0,0
91,-573,0,0,0,0,0,0,0,0,0,-1,1315,1597,0,0
98,-573,0,0,0,0,0,0,0,0,0,-1,1322,1597,0,0
105,-573,0,0,0,0,0,0,0,0,0,-1,1329,1597,0,0
112,-573,0,0,0,0,0,0,0,0,0,-1,1336,1597,0,0
119,-573,0,0,0,0,0,0,0,0,0,-1,1343,1597,0,0
126,-573,0,0,0,0,0,0,0,0,0,-1,1350,1597,0,0
133,-573,0,0,0,0,0,0,0,0,0,-1,1357,1597,0,0
140,-573,0,0,0,0,0,0,0,0,0,-1,1364,1597,0,0
147,-573,0,0,0,0,0,0,0,0,0,-1,1371,1597,0,0
154,-573,0,0,0,0,0,0,0,0,0,-1,1378,1597,0,0
161,-573,0,0,0,0,0,0,0,0,0,-1,1385,1597,0,0
168,-573,0,0,0,0,0,0,0,0,0,-1,1392,1597,0,0
175,-573,0,0,0,0,0,0,0,0,0,-1,1399,1597,0,0
182,-573,0,0,0,0,0,0,0,0,0,-1,1406,1597,0,0
189,-573,0,0,0,0,0,0,0,0,0,-1,1413,1597,0,0
196,-573,0,0,0,0,0,0,0,0,0,-1,1420,1597,0,0
203,-573,0,0,0,0,0,0,0,0,0,-1,1427,1597,0,0
210,-573,0,0,0,0,0,0,0,0,0,-1,1434,1597,0,0
217,-573,0,0,0,0,0,0,0,0,0,-1,1441,1597,0,0
224,-573,0,0,0,0,0,0,0,0,0,-1,1448,1597,0,0
231,-573,0,0,0,0,0,0,0,0,0,-1,1455,1597,0,0
238,-573,0,0,0,0,0,0,0,0,0,-1,1462,1597,0,0
245,-573,0,0,0,0,0,0,0,0,0,-1,1469,1597,0,0
252,-573,0,0,0,0,0,0,0,0,0,-1,1476,1597,0,0
259,-573,0,0,0,0,0,0,0,0,0,-1,1483,1597,0,0
266,-573,0,0,0,0,0,0,0,0,0,-1,1490,1597,0,0
273,-573,0,0,0,0,0,0,0,0,0,-1,1497,1597,0,0
280,-573,0,0,0,0,0,0,0,0,0,-1,1504,1597,0,0
287,-573,0,0,0,0,0,0,0,0,0,-1,1511,1597,0,0
294,-573,0,0,0,0,0,0,0,0,0,-1,1518,1597,0,0
301,-573,0,0,0,0,0,0,0,0,0,-1,1525,1597,0,0
308,-573,5.93042,9.71143,0,0,0,0,0,0,0,-1,1532,1597,5.93046,-9.71144
315,-573,4.34204,11.719,0,0,0,0,0,0,0,-1,1539,1597,4.34205,-11.719
322,-573,10.3269,7.77563,0,0,0,0,0,0,0,-1,1546,1597,10.327,-7.77565
329,-573,4.99573,3.80273,0,0,0,0,0,0,0,-1,1553,1597,4.9957,-3.80273
336,-573,4.85693,2.53455,0,0,0,0,0,0,0,-1,1560,1597,4.8569,-2.53459
343,-573,5.5946,2.15894,0,0,0,0,0,0,0,-1,1567,1597,5.59456,-2.1589
350,-573,2.53748,1.56433,0,0,0,0,0,0,0,-1,1574,1597,2.53753,-1.5643
357,-573,7.40247,4.03613,0,0,0,0,0,0,0,-1,1581,1597,7.40244,-4.03614
364,-573,7.14551,3.02087,0,0,0,0,0,0,0,-1,1588,1597,7.14556,-3.02084
371,-573,6.88867,2.00549,0,0,0,0,0,0,0,-1,1595,1597,6.88868,-2.00553
378,-573,8.62012,6.09106,0,0,0,0,0,0,0,-1,1602,1597,8.62012,-6.09103
385,-573,6.54346,-0.951904,0,0,0,0,0,0,0,-1,1609,1597,6.54349,0.951901
392,-573,17.5164,38.3645,0,0,0,0,0,0,0,-1,1616,1597,17.5164,-38.3645
399,-573,20.5255,42.9893,0,0,0,0,0,0,0,-1,1623,1597,20.5255,-42.9893
406,-573,20.2545,44.7974,0,0,0,0,0,0,0,-1,1630,1597,20.2545,-44.7974
413,-573,19.0908,43.9061,0,0,0,0,0,0,0,-1,1637,1597,19.0908,-43.9062
420,-573,18.8063,37.0011,0,0,0,0,0,0,0,-1,1644,1597,18.8063,-37.0011
427,-573,20.4286,42.2079,0,0,0,0,0,0,0,-1,1651,1597,20.4285,-42.2079
434,-573,21.075,44.2013,0,0,0,0,0,0,0,-1,1658,1597,21.0749,-44.2012
441,-573,20.6501,43.0593,0,0,0,0,0,0,0,-1,1665,1597,20.6501,-43.0594
448,-573,20.5825,42.2523,0.0075182,0.0121308,-0.00633866,0.0165697,0.00307931,-0.959876,0.0101765,0.0466344,1672,1597,20.5825,-42.2523
455,-573,20.6086,41.3561,0.00648117,0.0101125,-0.00516955,0.0137759,0.00281769,-0.954279,0.00840369,0.0343798,1679,1597,20.6086,-41.3561
462,-573,20.7042,40.4688,0.00600556,0.0084209,-0.00436631,0.0117435,0.00268298,-0.920319,0.00710556,0.0245746,1686,1597,20.7043,-40.4688
469,-573,20.6427,39.7677,0.00521922,0.00664861,-0.00359195,0.00959628,0.00227155,-0.883601,0.0057908,0.0168333,1693,1597,20.6427,-39.7677
476,-573,20.618,39.0629,0.00432345,0.00523755,-0.00298512,0.0078004,0.0017606,-0.861363,0.00472406,0.0150287,1700,1597,20.6181,-39.0629
483,-573,20.5992,38.3773,0.00347977,0.00407767,-0.00241259,0.00620976,0.00134768,-0.84704,0.00377174,0.0133802,1707,1597,20.5992,-38.3773
490,-573,20.5302,37.6631,0.00262985,0.00319676,-0.00194222,0.0048761,0.000950512,-0.857859,0.00298478,0.0144337,1714,1597,20.5301,-37.6631
497,-573,20.5612,36.9269,0.001805,0.00244724,-0.00160616,0.00376406,0.00048817,-0.884063,0.00236352,0.0220671,1721,1597,20.5612,-36.9268
504,-573,20.5302,36.2363,0.00100008,0.0016793,-0.00130526,0.00268841,-9.03115e-06,-0.91267,0.00179529,0.0185963,1728,1597,20.5301,-36.2364
511,-573,20.4926,35.5127,0.000247278,0.00132123,-0.00111717,0.00202378,-0.00045527,-1.00942,0.00152378,0.018431,1735,1597,20.4926,-35.5126
518,-573,20.4305,34.8292,-0.000470235,0.00107307,-0.00102013,0.00158053,-0.000977692,-1.1092,0.0014906,0.0146097,1742,1597,20.4306,-34.8293
525,-573,20.3994,34.1118,-0.0011144,0.000841177,-0.000949925,0.00122663,-0.00149985,-1.18532,0.00157677,0.0177573,1749,1597,20.3994,-34.1118
532,-573,20.3719,33.3352,-0.00154789,0.000632377,-0.000927893,0.000973808,-0.00188932,-1.21821,0.00168096,0.0181934,1756,1597,20.372,-33.3352
539,-573,20.2924,32.5618,0,0,0,0,0,0,0,-1,1763,1597,20.2923,-32.5618
546,-573,20.4283,31.7292,0,0,0,0,0,0,0,-1,1770,1597,20.4284,-31.7293
553,-573,20.1222,31.3506,0,0,0,0,0,0,0,-1,1777,1597,20.1222,-31.3506
560,-573,19.7515,30.7983,0,0,0,0,0,0,0,-1,1784,1597,19.7515,-30.7984
567,-573,19.8645,28.3368,0,0,0,0,0,0,0,-1,1791,1597,19.8645,-28.3368
574,-573,0.83374,5.7041,0,0,0,0,0,0,0,-1,1798,1597,0.833718,-5.70405
581,-573,-0.224854,7.41602,0,0,0,0,0,0,0,-1,1805,1597,-0.224904,-7.41596
588,-573,-0.134033,7.67065,0,0,0,0,0,0,0,-1,1812,1597,-0.134037,-7.67063
595,-573,-0.0825195,8.35083,0,0,0,0,0,0,0,-1,1819,1597,-0.0824684,-8.35088
602,-573,0,0,0,0,0,0,0,0,0,-1,1826,1597,0,0
609,-573,0,0,0,0,0,0,0,0,0,-1,1833,1597,0,0
616,-573,0,0,0,0,0,0,0,0,0,-1,1840,1597,0,0
623,-573,0,0,0,0,0,0,0,0,0,-1,1847,1597,0,0
630,-573,0,0,0,0,0,0,0,0,0,-1,1854,1597,0,0
637,-573,0,0,0,0,0,0,0,0,0,-1,1861,1597,0,0
644,-573,0,0,0,0,0,0,0,0,0,-1,1868,1597,0,0
651,-573,0,0,0,0,0,0,0,0,0,-1,1875,1597,0,0
658,-573,0,0,0,0,0,0,0,0,0,-1,1882,1597,0,0
665,-573,0,0,0,0,0,0,0,0,0,-1,1889,1597,0,0
672,-573,0,0,0,0,0,0,0,0,0,-1,1896,1597,0,0
679,-573,0,0,0,0,0,0,0,0,0,-1,1903,1597,0,0
686,-573,0,0,0,0,0,0,0,0,0,-1,1910,1597,0,0
693,-573,0,0,0,0,0,0,0,0,0,-1,1917,1597,0,0
700,-573,0,0,0,0,0,0,0,0,0,-1,1924,1597,0,0
707,-573,0,0,0,0,0,0,0,0,0,-1,1931,1597,0,0
714,-573,0,0,0,0,0,0,0,0,0,-1,1938,1597,0,0
721,-573,0,0,0,0,0,0,0,0,0,-1,1945,1597,0,0
728,-573,0,0,0,0,0,0,0,0,0,-1,1952,1597,0,0
735,-573,0,0,0,0,0,0,0,0,0,-1,1959,1597,0,0
742,-573,0,0,0,0,0,0,0,0,0,-1,1966,1597,0,0
749,-573,0,0,0,0,0,0,0,0,0,-1,1973,1597,0,0
756,-573,0,0,0,0,0,0,0,0,0,-1,1980,1597,0,0
763,-573,0,0,0,0,0,0,0,0,0,-1,1987,1597,0,0
770,-573,0,0,0,0,0,0,0,0,0,-1,1994,1597,0,0
777,-573,0,0,0,0,0,0,0,0,0,-1,2001,1597,0,0
784,-573,0,0,0,0,0,0,0,0,0,-1,2008,1597,0,0
791,-573,0,0,0,0,0,0,0,0,0,-1,2015,1597,0,0
798,-573,0,0,0,0,0,0,0,0,0,-1,2022,1597,0,0
805,-573,0,0,0,0,0,0,0,0,0,-1,2029,1597,0,0
812,-573,0,0,0,0,0,0,0,0,0,-1,2036,1597,0,0
-700,-580,0,0,0,0,0,0,0,0,0,-1,524,1604,0,0
-693,-580,0,0,0,0,0,0,0,0,0,-1,531,1604,0,0
-686,-580,0,0,0,0,0,0,0,0,0,-1,538,1604,0,0
-679,-580,0,0,0,0,0,0,0,0,0,-1,545,1604,0,0
-672,-580,0,0,0,0,0,0,0,0,0,-1,552,1604,0,0
-665,-580,0,0,0,0,0,0,0,0,0,-1,559,1604,0,0
-658,-580,0,0,0,0,0,0,0,0,0,-1,566,1604,0,0
-651,-580,0,0,0,0,0,0,0,0,0,-1,573,1604,0,0
-644,-580,0,0,0,0,0,0,0,0,0,-1,580,1604,0,0
-637,-580,0,0,0,0,0,0,0,0,0,-1,587,1604,0,0
-630,-580,0,0,0,0,0,0,0,0,0,-1,594,1604,0,0
-623,-580,0,0,0,0,0,0,0,0,0,-1,601,1604,0,0
-616,-580,0,0,0,0,0,0,0,0,0,-1,608,1604,0,0
-609,-580,0,0,0,0,0,0,0,0,0,-1,615,1604,0,0
-602,-580,0,0,0,0,0,0,0,0,0,-1,622,1604,0,0
-595,-580,0,0,0,0,0,0,0,0,0,-1,629,1604,0,0
-588,-580,0,0,0,0,0,0,0,0,0,-1,636,1604,0,0
-581,-580,0,0,0,0,0,0,0,0,0,-1,643,1604,0,0
-574,-580,0,0,0,0,0,0,0,0,0,-1,650,1604,0,0
-567,-580,0,0,0,0,0,0,0,0,0,-1,657,1604,0,0
-560,-580,0,0,0,0,0,0,0,0,0,-1,664,1604,0,0
-553,-580,0,0,0,0,0,0,0,0,0,-1,671,1604,0,0
-546,-580,0,0,0,0,0,0,0,0,0,-1,678,1604,0,0
-539,-580,0,0,0,0,0,0,0,0,0,-1,685,1604,0,0
-532,-580,0,0,0,0,0,0,0,0,0,-1,692,1604,0,0
-525,-580,0,0,0,0,0,0,0,0,0,-1,699,1604,0,0
-518,-580,0,0,0,0,0,0,0,0,0,-1,706,1604,0,0
-511,-580,0,0,0,0,0,0,0,0,0,-1,713,1604,0,0
-504,-580,0,0,0,0,0,0,0,0,0,-1,720,1604,0,0
-497,-580,0,0,0,0,0,0,0,0,0,-1,727,1604,0,0
-490,-580,0,0,0,0,0,0,0,0,0,-1,734,1604,0,0
-483,-580,0,0,0,0,0,0,0,0,0,-1,741,1604,0,0
-476,-580,0,0,0,0,0,0,0,0,0,-1,748,1604,0,0
-469,-580,-1.69189,-0.38916,0,0,0,0,0,0,0,-1,755,1604,-1.69192,0.389188
-462,-580,-0.859863,0.675293,0,0,0,0,0,0,0,-1,762,1604,-0.859834,-0.675245
-455,-580,-0.730164,0.651978,0,0,0,0,0,0,0,-1,769,1604,-0.730153,-0.651957
-448,-580,-3.31891,2.07544,0,0,0,0,0,0,0,-1,776,1604,-3.3189,-2.07539
-441,-580,-1.63843,3.9469,0,0,0,0,0,0,0,-1,783,1604,-1.63842,-3.94695
-434,-580,0.23291,5.97876,0,0,0,0,0,0,0,-1,790,1604,0.232901,-5.97878
-427,-580,1.62756,8.05493,0,0,0,0,0,0,0,-1,797,1604,1.62758,-8.05488
-420,-580,0.986572,11.2383,0,0,0,0,0,0,0,-1,804,1604,0.986544,-11.2382
-413,-580,0.922913,21.5701,0,0,0,0,0,0,0,-1,811,1604,0.922905,-21.5701
-406,-580,-1.91187,32.5682,0,0,0,0,0,0,0,-1,818,1604,-1.91186,-32.5683
-399,-580,-1.92297,33.5376,-0.00229148,-0.0018168,0.0013136,-0.00071927,-0.00338901,0.874774,0.00206183,0.0462843,825,1604,-1.923,-33.5376
-392,-580,-1.97467,34.319,-0.00129989,-0.00174009,0.00155516,5.06673e-05,-0.00309064,0.715101,0.00207752,0.0217464,832,1604,-1.97467,-34.3189
-385,-580,-1.99591,35.0819,-0.000493742,-0.00140468,0.00173999,0.000849405,-0.00274783,0.657388,0.00217113,0.0142061,839,1604,-1.9959,-35.082
-378,-580,-2.02411,35.8547,4.11004e-05,-0.00100967,0.00177482,0.00136667,-0.00233523,0.641497,0.00216154,0.016052,846,1604,-2.02411,-35.8548
-371,-580,-2.06451,36.615,0.000347353,-0.000837421,0.00148992,0.00135834,-0.0018484,0.596182,0.00185861,0.0142822,853,1604,-2.06452,-36.6149
-364,-580,-2.09302,37.3312,0.000728303,-0.000425036,0.00129131,0.00156585,-0.00126259,0.575396,0.00163613,0.0203895,860,1604,-2.09303,-37.3311
-357,-580,-2.13745,37.9984,0.00121166,0.000144213,0.00116319,0.00195773,-0.000601856,0.570305,0.00154535,0.0152487,867,1604,-2.13742,-37.9984
-350,-580,-2.1709,38.7539,0.00179627,0.00071543,0.00109499,0.00247694,3.47593e-05,0.556166,0.00163983,0.0125857,874,1604,-2.17092,-38.7539
-343,-580,-2.17657,39.4922,0.00235513,0.0013171,0.00109758,0.00305023,0.000622001,0.564542,0.00186113,0.0131099,881,1604,-2.17659,-39.4922
-336,-580,-2.17419,40.1953,0.00307434,0.00220414,0.00134373,0.00405166,0.00122682,0.628824,0.00239911,0.0214839,888,1604,-2.17417,-40.1953
-329,-580,-2.23676,40.953,0.00408086,0.00361954,0.00198064,0.00584422,0.00185617,0.727431,0.00344818,0.0184099,895,1604,-2.23675,-40.953
-322,-580,-2.28632,41.6694,0.00521704,0.00507886,0.00283596,0.00798475,0.00231115,0.77322,0.00474429,0.0210675,902,1604,-2.28629,-41.6695
-315,-580,-2.25702,42.3739,0.00657011,0.00710737,0.00419548,0.0110428,0.00263467,0.817369,0.00665969,0.0244395,909,1604,-2.25704,-42.3739
-308,-580,-2.1875,43.2477,0.0079712,0.00911326,0.00567439,0.0142453,0.00283918,0.835546,0.00870617,0.0371438,916,1604,-2.18753,-43.2477
-301,-580,-2.13928,43.7745,0.00979084,0.0112886,0.00758468,0.0181613,0.00291818,0.834607,0.0112615,0.0352658,923,1604,-2.13929,-43.7746
-294,-580,-2.24219,44.3531,0.0120356,0.0139708,0.0100651,0.0231147,0.00289169,0.83332,0.0145421,0.034638,930,1604,-2.24219,-44.3531
-287,-580,-2.10522,45.1499,0,0,0,0,0,0,0,-1,937,1604,-2.10524,-45.15
-280,-580,-1.8501,46.7366,0,0,0,0,0,0,0,-1,944,1604,-1.85007,-46.7366
-273,-580,-1.13391,47.2013,0,0,0,0,0,0,0,-1,951,1604,-1.13394,-47.2012
-266,-580,-1.22644,48.4485,0,0,0,0,0,0,0,-1,958,1604,-1.22644,-48.4485
-259,-580,1.31091,9.11536,0,0,0,0,0,0,0,-1,965,1604,1.31092,-9.11539
-252,-580,1.07629,7.74097,0,0,0,0,0,0,0,-1,972,1604,1.07627,-7.74101
-245,-580,3.80304,9.16028,0,0,0,0,0,0,0,-1,979,1604,3.80306,-9.16034
-238,-580,-10.3588,1.57556,0,0,0,0,0,0,0,-1,986,1604,-10.3588,-1.5755
-231,-580,-10.576,6.43787,0,0,0,0,0,0,0,-1,993,1604,-10.576,-6.43783
-224,-580,-8.27435,7.58972,0,0,0,0,0,0,0,-1,1000,1604,-8.27435,-7.5897
-217,-580,-5.85632,9.51221,0,0,0,0,0,0,0,-1,1007,1604,-5.85632,-9.5122
-210,-580,-3.6684,11.1569,0,0,0,0,0,0,0,-1,1014,1604,-3.66839,-11.1569
-203,-580,-1.92474,12.7845,0,0,0,0,0,0,0,-1,1021,1604,-1.92477,-12.7845
-196,-580,-2.28552,10.3289,0,0,0,0,0,0,0,-1,1028,1604,-2.28552,-10.3288
-189,-580,-4.58252,7.59058,0,0,0,0,0,0,0,-1,1035,1604,-4.58256,-7.59057
-182,-580,-5.45874,7.65942,0,0,0,0,0,0,0,-1,1042,1604,-5.45876,-7.65939
-175,-580,-6.38977,7.55005,0,0,0,0,0,0,0,-1,1049,1604,-6.38981,-7.5501
-168,-580,0,0,0,0,0,0,0,0,0,-1,1056,1604,0,0
-161,-580,0,0,0,0,0,0,0,0,0,-1,1063,1604,0,0
-154,-580,0,0,0,0,0,0,0,0,0,-1,1070,1604,0,0
-147,-580,0,0,0,0,0,0,0,0,0,-1,1077,1604,0,0
-140,-580,0,0,0,0,0,0,0,0,0,-1,1084,1604,0,0
-133,-580,0,0,0,0,0,0,0,0,0,-1,1091,1604,0,0
-126,-580,0,0,0,0,0,0,0,0,0,-1,1098,1604,0,0
-119,-580,0,0,0,0,0,0,0,0,0,-1,1105,1604,0,0
-112,-580,0,0,0,0,0,0,0,0,0,-1,1112,1604,0,0
-105,-580,0,0,0,0,0,0,0,0,0,-1,1119,1604,0,0
-98,-580,0,0,0,0,0,0,0,0,0,-1,1126,1604,0,0
-91,-580,0,0,0,0,0,0,0,0,0,-1,1133,1604,0,0
-84,-580,0,0,0,0,0,0,0,0,0,-1,1140,1604,0,0
-77,-580,0,0,0,0,0,0,0,0,0,-1,1147,1604,0,0
-70,-580,0,0,0,0,0,0,0,0,0,-1,1154,1604,0,0
-63,-580,0,0,0,0,0,0,0,0,0,-1,1161,1604,0,0
-56,-580,0,0,0,0,0,0,0,0,0,-1,1168,1604,0,0
-49,-580,0,0,0,0,0,0,0,0,0,-1,1175,1604,0,0
-42,-580,0,0,0,0,0,0,0,0,0,-1,1182,1604,0,0
-35,-580,0,0,0,0,0,0,0,0,0,-1,1189,1604,0,0
-28,-580,0,0,0,0,0,0,0,0,0,-1,1196,1604,0,0
-21,-580,0,0,0,0,0,0,0,0,0,-1,1203,1604,0,0
-14,-580,0,0,0,0,0,0,0,0,0,-1,1210,1604,0,0
-7,-580,0,0,0,0,0,0,0,0,0,-1,1217,1604,0,0
0,-580,0,0,0,0,0,0,0,0,0,-1,1224,1604,0,0
7,-580,0,0,0,0,0,0,0,0,0,-1,1231,1604,0,0
14,-580,0,0,0,0,0,0,0,0,0,-1,1238,1604,0,0
21,-580,0,0,0,0,0,0,0,0,0,-1,1245,1604,0,0
28,-580,0,0,0,0,0,0,0,0,0,-1,1252,1604,0,0
35,-580,0,0,0,0,0,0,0,0,0,-1,1259,1604,0,0
42,-580,0,0,0,0,0,0,0,0,0,-1,1266,1604,0,0
49,-580,0,0,0,0,0,0,0,0,0,-1,1273,1604,0,0
56,-580,0,0,0,0,0,0,0,0,0,-1,1280,1604,0,0
63,-580,0,0,0,0,0,0,0,0,0,-1,1287,1604,0,0
70,-580,0,0,0,0,0,0,0,0,0,-1,1294,1604,0,0
77,-580,0,0,0,0,0,0,0,0,0,-1,1301,1604,0,0
84,-580,0,0,0,0,0,0,0,0,0,-1,1308,1604,0,0
91,-580,0,0,0,0,0,0,0,0,0,-1,1315,1604,0,0
98,-580,0,0,0,0,0,0,0,0,0,-1,1322,1604,0,0
105,-580,0,0,0,0,0,0,0,0,0,-1,1329,1604,0,0
112,-580,0,0,0,0,0,0,0,0,0,-1,1336,1604,0,0
119,-580,0,0,0,0,0,0,0,0,0,-1,1343,1604,0,0
126,-580,0,0,0,0,0,0,0,0,0,-1,1350,1604,0,0
133,-580,0,0,0,0,0,0,0,0,0,-1,1357,1604,0,0
140,-580,0,0,0,0,0,0,0,0,0,-1,1364,1604,0,0
147,-580,0,0,0,0,0,0,0,0,0,-1,1371,1604,0,0
154,-580,0,0,0,0,0,0,0,0,0,-1,1378,1604,0,0
161,-580,0,0,0,0,0,0,0,0,0,-1,1385,1604,0,0
168,-580,0,0,0,0,0,0,0,0,0,-1,1392,1604,0,0
175,-580,0,0,0,0,0,0,0,0,0,-1,1399,1604,0,0
182,-580,0,0,0,0,0,0,0,0,0,-1,1406,1604,0,0
189,-580,0,0,0,0,0,0,0,0,0,-1,1413,1604,0,0
196,-580,0,0,0,0,0,0,0,0,0,-1,1420,1604,0,0
203,-580,0,0,0,0,0,0,0,0,0,-1,1427,1604,0,0
210,-580,0,0,0,0,0,0,0,0,0,-1,1434,1604,0,0
217,-580,0,0,0,0,0,0,0,0,0,-1,1441,1604,0,0
224,-580,0,0,0,0,0,0,0,0,0,-1,1448,1604,0,0
231,-580,0,0,0,0,0,0,0,0,0,-1,1455,1604,0,0
238,-580,0,0,0,0,0,0,0,0,0,-1,1462,1604,0,0
245,-580,0,0,0,0,0,0,0,0,0,-1,1469,1604,0,0
252,-580,0,0,0,0,0,0,0,0,0,-1,1476,1604,0,0
259,-580,0,0,0,0,0,0,0,0,0,-1,1483,1604,0,0
266,-580,0,0,0,0,0,0,0,0,0,-1,1490,1604,0,0
273,-580,0,0,0,0,0,0,0,0,0,-1,1497,1604,0,0
280,-580,0,0,0,0,0,0,0,0,0,-1,1504,1604,0,0
287,-580,0,0,0,0,0,0,0,0,0,-1,1511,1604,0,0
294,-580,4.0437,0.177368,0,0,0,0,0,0,0,-1,1518,1604,4.04369,-0.177371
301,-580,7.55164,8.05798,0,0,0,0,0,0,0,-1,1525,1604,7.55158,-8.05802
308,-580,5.9126,9.99341,0,0,0,0,0,0,0,-1,1532,1604,5.91255,-9.99337
315,-580,4.27356,11.9287,0,0,0,0,0,0,0,-1,1539,1604,4.27352,-11.9287
322,-580,10.2366,7.50281,0,0,0,0,0,0,0,-1,1546,1604,10.2366,-7.50282
329,-580,10.5962,8.69641,0,0,0,0,0,0,0,-1,1553,1604,10.5962,-8.69642
336,-580,3.66431,1.58862,0,0,0,0,0,0,0,-1,1560,1604,3.6643,-1.58864
343,-580,3.32227,1.39636,0,0,0,0,0,0,0,-1,1567,1604,3.32222,-1.39633
350,-580,8.71277,4.0564,0,0,0,0,0,0,0,-1,1574,1604,8.71271,-4.05638
357,-580,8.52332,3.08154,0,0,0,0,0,0,0,-1,1581,1604,8.52332,-3.08157
364,-580,8.25818,2.07605,0,0,0,0,0,0,0,-1,1588,1604,8.25812,-2.07608
371,-580,7.42114,7.14282,0,0,0,0,0,0,0,-1,1595,1604,7.42119,-7.14281
378,-580,7.9718,6.6731,0,0,0,0,0,0,0,-1,1602,1604,7.9718,-6.67307
385,-580,18.6182,47.5352,0,0,0,0,0,0,0,-1,1609,1604,18.6181,-47.5352
392,-580,19.1388,46.7451,0,0,0,0,0,0,0,-1,1616,1604,19.1388,-46.7452
399,-580,19.433,45.329,0,0,0,0,0,0,0,-1,1623,1604,19.433,-45.329
406,-580,19.88,46.1188,0,0,0,0,0,0,0,-1,1630,1604,19.88,-46.1188
413,-580,19.7867,45.6058,0,0,0,0,0,0,0,-1,1637,1604,19.7867,-45.6059
420,-580,19.8351,44.9006,0,0,0,0,0,0,0,-1,1644,1604,19.8351,-44.9007
427,-580,19.8698,44.2554,0,0,0,0,0,0,0,-1,1651,1604,19.8697,-44.2554
434,-580,19.8098,43.6823,0,0,0,0,0,0,0,-1,1658,1604,19.8098,-43.6822
441,-580,19.8556,42.6688,0,0,0,0,0,0,0,-1,1665,1604,19.8556,-42.6688
448,-580,19.9617,41.8865,0.00576737,0.00916887,-0.00475445,0.0125176,0.00241863,-0.957165,0.0076671,0.017823,1672,1604,19.9616,-41.8865
455,-580,20.047,41.2058,0.00494227,0.0075837,-0.00391632,0.010396,0.00212997,-0.948026,0.00634106,0.0218717,1679,1604,20.0471,-41.2058
462,-580,20.0298,40.4999,0.00454971,0.00623495,-0.00335834,0.00885476,0.0019299,-0.908313,0.0053766,0.0253584,1686,1604,20.0298,-40.4999
469,-580,19.9484,39.7983,0.00393959,0.00487628,-0.00283397,0.00728034,0.00153553,-0.867288,0.0044313,0.0216568,1693,1604,19.9484,-39.7983
476,-580,19.9208,39.0808,0.0032025,0.00381794,-0.00242054,0.00595025,0.0010702,-0.848623,0.00366259,0.0155543,1700,1604,19.9207,-39.0808
483,-580,19.8685,38.4155,0.00249277,0.00291755,-0.00203989,0.00475607,0.000654245,-0.83727,0.0029767,0.0139413,1707,1604,19.8686,-38.4155
490,-580,19.7985,37.7445,0.00176322,0.00225298,-0.00172186,0.00374728,0.000268914,-0.856035,0.00241355,0.0188139,1714,1604,19.7985,-37.7445
497,-580,19.767,36.9879,0.00103393,0.0017174,-0.00151946,0.00293308,-0.000181751,-0.896009,0.0020187,0.0149122,1721,1604,19.767,-36.9879
504,-580,19.755,36.2518,0.000280877,0.00118359,-0.00133076,0.00213745,-0.000672989,-0.948896,0.00169445,0.0175022,1728,1604,19.755,-36.2518
511,-580,19.7428,35.564,-0.000437391,0.000978679,-0.00123065,0.00169043,-0.00114915,-1.04644,0.00164933,0.0170582,1735,1604,19.7427,-35.5639
518,-580,19.6907,34.8495,-0.00116596,0.00082311,-0.00118172,0.0013731,-0.00171595,-1.1352,0.00178712,0.016056,1742,1604,19.6907,-34.8495
525,-580,19.6349,34.1062,-0.0018677,0.000709531,-0.00115825,0.00115357,-0.00231173,-1.20471,0.0020376,0.0219478,1749,1604,19.6349,-34.1061
532,-580,19.5398,33.3958,-0.00238455,0.00059599,-0.00117249,0.00100193,-0.00279049,-1.23749,0.00226928,0.0389056,1756,1604,19.5398,-33.3957
539,-580,19.535,32.6066,0,0,0,0,0,0,0,-1,1763,1604,19.535,-32.6066
546,-580,19.3851,29.3604,0,0,0,0,0,0,0,-1,1770,1604,19.3851,-29.3604
553,-580,17.1749,26.6359,0,0,0,0,0,0,0,-1,1777,1604,17.1749,-26.6358
560,-580,18.9662,29.0388,0,0,0,0,0,0,0,-1,1784,1604,18.9661,-29.0389
567,-580,3.87708,4.0647,0,0,0,0,0,0,0,-1,1791,1604,3.87711,-4.06471
574,-580,2.31653,5.62952,0,0,0,0,0,0,0,-1,1798,1604,2.31654,-5.62947
581,-580,1.60876,6.67664,0,0,0,0,0,0,0,-1,1805,1604,1.60873,-6.67667
588,-580,1.38684,7.14441,0,0,0,0,0,0,0,-1,1812,1604,1.38689,-7.14443
595,-580,0,0,0,0,0,0,0,0,0,-1,1819,1604,0,0
602,-580,0,0,0,0,0,0,0,0,0,-1,1826,1604,0,0
609,-580,0,0,0,0,0,0,0,0,0,-1,1833,1604,0,0
616,-580,0,0,0,0,0,0,0,0,0,-1,1840,1604,0,0
623,-580,0,0,0,0,0,0,0,0,0,-1,1847,1604,0,0
630,-580,0,0,0,0,0,0,0,0,0,-1,1854,1604,0,0
637,-580,0,0,0,0,0,0,0,0,0,-1,1861,1604,0,0
644,-580,0,0,0,0,0,0,0,0,0,-1,1868,1604,0,0
651,-580,0,0,0,0,0,0,0,0,0,-1,1875,1604,0,0
658,-580,0,0,0,0,0,0,0,0,0,-1,1882,1604,0,0
665,-580,0,0,0,0,0,0,0,0,0,-1,1889,1604,0,0
672,-580,0,0,0,0,0,0,0,0,0,-1,1896,1604,0,0
679,-580,0,0,0,0,0,0,0,0,0,-1,1903,1604,0,0
686,-580,0,0,0,0,0,0,0,0,0,-1,1910,1604,0,0
693,-580,0,0,0,0,0,0,0,0,0,-1,1917,1604,0,0
700,-580,0,0,0,0,0,0,0,0,0,-1,1924,1604,0,0
707,-580,0,0,0,0,0,0,0,0,0,-1,1931,1604,0,0
714,-580,0,0,0,0,0,0,0,0,0,-1,1938,1604,0,0
721,-580,0,0,0,0,0,0,0,0,0,-1,1945,1604,0,0
728,-580,0,0,0,0,0,0,0,0,0,-1,1952,1604,0,0
735,-580,0,0,0,0,0,0,0,0,0,-1,1959,1604,0,0
742,-580,0,0,0,0,0,0,0,0,0,-1,1966,1604,0,0
749,-580,0,0,0,0,0,0,0,0,0,-1,1973,1604,0,0
756,-580,0,0,0,0,0,0,0,0,0,-1,1980,1604,0,0
763,-580,0,0,0,0,0,0,0,0,0,-1,1987,1604,0,0
770,-580,0,0,0,0,0,0,0,0,0,-1,1994,1604,0,0
777,-580,0,0,0,0,0,0,0,0,0,-1,2001,1604,0,0
784,-580,0,0,0,0,0,0,0,0,0,-1,2008,1604,0,0
791,-580,0,0,0,0,0,0,0,0,0,-1,2015,1604,0,0
798,-580,0,0,0,0,0,0,0,0,0,-1,2022,1604,0,0
805,-580,0,0,0,0,0,0,0,0,0,-1,2029,1604,0,0
812,-580,0,0,0,0,0,0,0,0,0,-1,2036,1604,0,0
-700,-587,0,0,0,0,0,0,0,0,0,-1,524,1611,0,0
-693,-587,0,0,0,0,0,0,0,0,0,-1,531,1611,0,0
-686,-587,0,0,0,0,0,0,0,0,0,-1,538,1611,0,0
-679,-587,0,0,0,0,0,0,0,0,0,-1,545,1611,0,0
-672,-587,0,0,0,0,0,0,0,0,0,-1,552,1611,0,0
-665,-587,0,0,0,0,0,0,0,0,0,-1,559,1611,0,0
-658,-587,0,0,0,0,0,0,0,0,0,-1,566,1611,0,0
-651,-587,0,0,0,0,0,0,0,0,0,-1,573,1611,0,0
-644,-587,0,0,0,0,0,0,0,0,0,-1,580,1611,0,0
-637,-587,0,0,0,0,0,0,0,0,0,-1,587,1611,0,0
-630,-587,0,0,0,0,0,0,0,0,0,-1,594,1611,0,0
-623,-587,0,0,0,0,0,0,0,0,0,-1,601,1611,0,0
-616,-587,0,0,0,0,0,0,0,0,0,-1,608,1611,0,0
-609,-587,0,0,0,0,0,0,0,0,0,-1,615,1611,0,0
-602,-587,0,0,0,0,0,0,0,0,0,-1,622,1611,0,0
-595,-587,0,0,0,0,0,0,0,0,0,-1,629,1611,0,0
-588,-587,0,0,0,0,0,0,0,0,0,-1,636,1611,0,0
-581,-587,0,0,0,0,0,0,0,0,0,-1,643,1611,0,0
-574,-587,0,0,0,0,0,0,0,0,0,-1,650,1611,0,0
-567,-587,0,0,0,0,0,0,0,0,0,-1,657,1611,0,0
-560,-587,0,0,0,0,0,0,0,0,0,-1,664,1611,0,0
-553,-587,0,0,0,0,0,0,0,0,0,-1,671,1611,0,0
-546,-587,0,0,0,0,0,0,0,0,0,-1,678,1611,0,0
-539,-587,0,0,0,0,0,0,0,0,0,-1,685,1611,0,0
-532,-587,0,0,0,0,0,0,0,0,0,-1,692,1611,0,0
-525,-587,0,0,0,0,0,0,0,0,0,-1,699,1611,0,0
-518,-587,0,0,0,0,0,0,0,0,0,-1,706,1611,0,0
-511,-587,0,0,0,0,0,0,0,0,0,-1,713,1611,0,0
-504,-587,0,0,0,0,0,0,0,0,0,-1,720,1611,0,0
-497,-587,0,0,0,0,0,0,0,0,0,-1,727,1611,0,0
-490,-587,0,0,0,0,0,0,0,0,0,-1,734,1611,0,0
-483,-587,0,0,0,0,0,0,0,0,0,-1,741,1611,0,0
-476,-587,0,0,0,0,0,0,0,0,0,-1,748,1611,0,0
-469,-587,0,0,0,0,0,0,0,0,0,-1,755,1611,0,0
-462,-587,-0.714355,-0.418457,0,0,0,0,0,0,0,-1,762,1611,-0.714359,0.418483
-455,-587,-0.619812,-0.522461,0,0,0,0,0,0,0,-1,769,1611,-0.619802,0.522515
-448,-587,-0.461731,-0.686523,0,0,0,0,0,0,0,-1,776,1611,-0.461739,0.686559
-441,-587,-3.56555,2.72253,0,0,0,0,0,0,0,-1,783,1611,-3.56555,-2.72259
-434,-587,-1.77319,4.76318,0,0,0,0,0,0,0,-1,790,1611,-1.77318,-4.76323
-427,-587,0.0346069,6.92944,0,0,0,0,0,0,0,-1,797,1611,0.034587,-6.92941
-420,-587,-0.647156,10.1157,0,0,0,0,0,0,0,-1,804,1611,-0.647128,-10.1158
-413,-587,2.13971,10.3901,0,0,0,0,0,0,0,-1,811,1611,2.13971,-10.3902
-406,-587,2.2525,19.7814,0,0,0,0,0,0,0,-1,818,1611,2.25253,-19.7814
-399,-587,-1.27789,33.4568,0,0,0,0,0,0,0,-1,825,1611,-1.27791,-33.4568
-392,-587,-1.33264,34.2068,0,0,0,0,0,0,0,-1,832,1611,-1.33266,-34.2068
-385,-587,-1.33478,35.0602,-0.00060231,-0.00240158,0.0022473,0.000918736,-0.00392262,0.595008,0.00296909,0.0291634,839,1611,-1.33475,-35.0601
-378,-587,-1.33447,35.8951,-1.69963e-05,-0.00191381,0.00225074,0.00147699,-0.0034078,0.586,0.00289274,0.0143444,846,1611,-1.33449,-35.8951
-371,-587,-1.37433,36.6738,0.000270441,-0.00170939,0.00192141,0.00144195,-0.0028809,0.547531,0.00254147,0.0145644,853,1611,-1.37431,-36.6738
-364,-587,-1.38208,37.402,0.000578203,-0.00136238,0.00161884,0.00149526,-0.00227945,0.515418,0.00219495,0.0184471,860,1611,-1.3821,-37.402
-357,-587,-1.42371,38.0251,0.000999499,-0.000852293,0.00141032,0.0017607,-0.00161349,0.494928,0.00194871,0.0174912,867,1611,-1.42372,-38.0251
-350,-587,-1.47363,38.7964,0.00149797,-0.000318376,0.00125693,0.00214049,-0.000960901,0.472555,0.00183325,0.0109521,874,1611,-1.47363,-38.7964
-343,-587,-1.50885,39.5042,0.00195169,0.000294543,0.00118143,0.00256614,-0.000319904,0.479589,0.00182675,0.0138495,881,1611,-1.50883,-39.5042
-336,-587,-1.5481,40.2102,0.00249138,0.00112931,0.00130114,0.00327894,0.000341751,0.544296,0.00208142,0.0139845,888,1611,-1.54809,-40.2101
-329,-587,-1.57965,40.9374,0.00325418,0.00243109,0.00176333,0.00465335,0.00103192,0.670756,0.00282187,0.0151459,895,1611,-1.57962,-40.9374
-322,-587,-1.58105,41.684,0.00410149,0.00370601,0.00238722,0.00629915,0.00150835,0.744076,0.00379784,0.01818,902,1611,-1.58107,-41.684
-315,-587,-1.59155,42.3691,0.00513465,0.00544594,0.00344925,0.00874305,0.00183754,0.807944,0.00532298,0.0157829,909,1611,-1.59156,-42.3691
-308,-587,-1.62115,43.0688,0.00622623,0.00714159,0.00457038,0.0112772,0.00209067,0.835302,0.00692719,0.0152135,916,1611,-1.62118,-43.0689
-301,-587,-1.58905,43.7764,0.00768994,0.00901516,0.00605581,0.0144445,0.0022606,0.83989,0.00897158,0.0159359,923,1611,-1.58905,-43.7764
-294,-587,-1.53503,44.4967,0.00951233,0.0112337,0.00798522,0.0184045,0.00234157,0.839085,0.0115684,0.0237347,930,1611,-1.53505,-44.4967
-287,-587,-1.53625,45.2681,0.0117924,0.0140391,0.0103428,0.0233194,0.00251213,0.839492,0.0147802,0.0355542,937,1611,-1.53623,-45.268
-280,-587,-1.37329,46.2433,0.0146439,0.017003,0.0131577,0.0290339,0.00261302,0.830101,0.0185464,0.0438918,944,1611,-1.37327,-46.2433
-273,-587,-1.18311,47.061,0,0,0,0,0,0,0,-1,951,1611,-1.18311,-47.061
-266,-587,-0.78772,47.8818,0,0,0,0,0,0,0,-1,958,1611,-0.787748,-47.8818
-259,-587,-0.540283,48.3451,0,0,0,0,0,0,0,-1,965,1611,-0.540264,-48.345
-252,-587,1.30188,10.3103,0,0,0,0,0,0,0,-1,972,1611,1.30188,-10.3104
-245,-587,1.52075,27.4791,0,0,0,0,0,0,0,-1,979,1611,1.52076,-27.4791
-238,-587,2.87799,9.53821,0,0,0,0,0,0,0,-1,986,1611,2.87797,-9.53823
-231,-587,2.49548,9.14465,0,0,0,0,0,0,0,-1,993,1611,2.49551,-9.14468
-224,-587,-9.72528,9.21069,0,0,0,0,0,0,0,-1,1000,1611,-9.72529,-9.21072
-217,-587,-7.07495,10.7847,0,0,0,0,0,0,0,-1,1007,1611,-7.07495,-10.7847
-210,-587,-4.72308,12.5889,0,0,0,0,0,0,0,-1,1014,1611,-4.72307,-12.5888
-203,-587,-3.2583,13.7289,0,0,0,0,0,0,0,-1,1021,1611,-3.25828,-13.7289
-196,-587,-1.953,14.8145,0,0,0,0,0,0,0,-1,1028,1611,-1.95302,-14.8144
-189,-587,-3.04138,8.66638,0,0,0,0,0,0,0,-1,1035,1611,-3.04136,-8.66635
-182,-587,-3.97095,9.7146,0,0,0,0,0,0,0,-1,1042,1611,-3.97093,-9.71461
-175,-587,-4.80969,8.37878,0,0,0,0,0,0,0,-1,1049,1611,-4.80964,-8.37883
-168,-587,-5.91394,8.72546,0,0,0,0,0,0,0,-1,1056,1611,-5.91398,-8.72542
-161,-587,-7.06946,8.88501,0,0,0,0,0,0,0,-1,1063,1611,-7.06947,-8.885
-154,-587,-2.24731,6.56519,0,0,0,0,0,0,0,-1,1070,1611,-2.24728,-6.56517
-147,-587,0,0,0,0,0,0,0,0,0,-1,1077,1611,0,0
-140,-587,0,0,0,0,0,0,0,0,0,-1,1084,1611,0,0
-133,-587,0,0,0,0,0,0,0,0,0,-1,1091,1611,0,0
-126,-587,0,0,0,0,0,0,0,0,0,-1,1098,1611,0,0
-119,-587,0,0,0,0,0,0,0,0,0,-1,1105,1611,0,0
-112,-587,0,0,0,0,0,0,0,0,0,-1,1112,1611,0,0
-105,-587,0,0,0,0,0,0,0,0,0,-1,1119,1611,0,0
-98,-587,0,0,0,0,0,0,0,0,0,-1,1126,1611,0,0
-91,-587,0,0,0,0,0,0,0,0,0,-1,1133,1611,0,0
-84,-587,0,0,0,0,0,0,0,0,0,-1,1140,1611,0,0
-77,-587,0,0,0,0,0,0,0,0,0,-1,1147,1611,0,0
-70,-587,0,0,0,0,0,0,0,0,0,-1,1154,1611,0,0
-63,-587,0,0,0,0,0,0,0,0,0,-1,1161,1611,0,0
-56,-587,0,0,0,0,0,0,0,0,0,-1,1168,1611,0,0
-49,-587,0,0,0,0,0,0,0,0,0,-1,1175,1611,0,0
-42,-587,0,0,0,0,0,0,0,0,0,-1,1182,1611,0,0
-35,-587,0,0,0,0,0,0,0,0,0,-1,1189,1611,0,0
-28,-587,0,0,0,0,0,0,0,0,0,-1,1196,1611,0,0
-21,-587,0,0,0,0,0,0,0,0,0,-1,1203,1611,0,0
-14,-587,0,0,0,0,0,0,0,0,0,-1,1210,1611,0,0
-7,-587,0,0,0,0,0,0,0,0,0,-1,1217,1611,0,0
0,-587,0,0,0,0,0,0,0,0,0,-1,1224,1611,0,0
7,-587,0,0,0,0,0,0,0,0,0,-1,1231,1611,0,0
14,-587,0,0,0,0,0,0,0,0,0,-1,1238,1611,0,0
21,-587,0,0,0,0,0,0,0,0,0,-1,1245,1611,0,0
28,-587,0,0,0,0,0,0,0,0,0,-1,1252,1611,0,0
35,-587,0,0,0,0,0,0,0,0,0,-1,1259,1611,0,0
42,-587,0,0,0,0,0,0,0,0,0,-1,1266,1611,0,0
49,-587,0,0,0,0,0,0,0,0,0,-1,1273,1611,0,0
56,-587,0,0,0,0,0,0,0,0,0,-1,1280,1611,0,0
63,-587,0,0,0,0,0,0,0,0,0,-1,1287,1611,0,0
70,-587,0,0,0,0,0,0,0,0,0,-1,1294,1611,0,0
77,-587,0,0,0,0,0,0,0,0,0,-1,1301,1611,0,0
84,-587,0,0,0,0,0,0,0,0,0,-1,1308,1611,0,0
91,-587,0,0,0,0,0,0,0,0,0,-1,1315,1611,0,0
98,-587,0,0,0,0,0,0,0,0,0,-1,1322,1611,0,0
105,-587,0,0,0,0,0,0,0,0,0,-1,1329,1611,0,0
112,-587,0,0,0,0,0,0,0,0,0,-1,1336,1611,0,0
119,-587,0,0,0,0,0,0,0,0,0,-1,1343,1611,0,0
126,-587,0,0,0,0,0,0,0,0,0,-1,1350,1611,0,0
133,-587,0,0,0,0,0,0,0,0,0,-1,1357,1611,0,0
140,-587,0,0,0,0,0,0,0,0,0,-1,1364,1611,0,0
147,-587,0,0,0,0,0,0,0,0,0,-1,1371,1611,0,0
154,-587,0,0,0,0,0,0,0,0,0,-1,1378,1611,0,0
161,-587,0,0,0,0,0,0,0,0,0,-1,1385,1611,0,0
168,-587,0,0,0,0,0,0,0,0,0,-1,1392,1611,0,0
175,-587,0,0,0,0,0,0,0,0,0,-1,1399,1611,0,0
182,-587,0,0,0,0,0,0,0,0,0,-1,1406,1611,0,0
189,-587,0,0,0,0,0,0,0,0,0,-1,1413,1611,0,0
196,-587,0,0,0,0,0,0,0,0,0,-1,1420,1611,0,0
203,-587,0,0,0,0,0,0,0,0,0,-1,1427,1611,0,0
210,-587,0,0,0,0,0,0,0,0,0,-1,1434,1611,0,0
217,-587,0,0,0,0,0,0,0,0,0,-1,1441,1611,0,0
224,-587,0,0,0,0,0,0,0,0,0,-1,1448,1611,0,0
231,-587,0,0,0,0,0,0,0,0,0,-1,1455,1611,0,0
238,-587,0,0,0,0,0,0,0,0,0,-1,1462,1611,0,0
245,-587,0,0,0,0,0,0,0,0,0,-1,1469,1611,0,0
252,-587,0,0,0,0,0,0,0,0,0,-1,1476,1611,0,0
259,-587,0,0,0,0,0,0,0,0,0,-1,1483,1611,0,0
266,-587,0,0,0,0,0,0,0,0,0,-1,1490,1611,0,0
273,-587,10.2936,6.35083,0,0,0,0,0,0,0,-1,1497,1611,10.2936,-6.35087
280,-587,2.09204,1.1217,0,0,0,0,0,0,0,-1,1504,1611,2.092,-1.12176
287,-587,3.2865,0.671509,0,0,0,0,0,0,0,-1,1511,1611,3.28656,-0.671538
294,-587,4.24646,1.58765,0,0,0,0,0,0,0,-1,1518,1611,4.24648,-1.58761
301,-587,7.60474,8.37085,0,0,0,0,0,0,0,-1,1525,1611,7.60478,-8.37084
308,-587,5.99316,10.2291,0,0,0,0,0,0,0,-1,1532,1611,5.99315,-10.2291
315,-587,4.34558,12.3289,0,0,0,0,0,0,0,-1,1539,1611,4.34556,-12.3288
322,-587,10.4526,6.38245,0,0,0,0,0,0,0,-1,1546,1611,10.4526,-6.38245
329,-587,10.7738,8.42444,0,0,0,0,0,0,0,-1,1553,1611,10.7738,-8.42438
336,-587,7.5531,5.96619,0,0,0,0,0,0,0,-1,1560,1611,7.55311,-5.96617
343,-587,9.57495,4.38391,0,0,0,0,0,0,0,-1,1567,1611,9.57494,-4.38397
350,-587,9.50378,3.45093,0,0,0,0,0,0,0,-1,1574,1611,9.50376,-3.4509
357,-587,9.40027,2.50806,0,0,0,0,0,0,0,-1,1581,1611,9.40022,-2.50803
364,-587,9.26477,1.34131,0,0,0,0,0,0,0,-1,1588,1611,9.26479,-1.34126
371,-587,6.98926,7.87561,0,0,0,0,0,0,0,-1,1595,1611,6.98928,-7.87564
378,-587,16.6918,48.3695,0,0,0,0,0,0,0,-1,1602,1611,16.6918,-48.3695
385,-587,17.5338,47.4751,0,0,0,0,0,0,0,-1,1609,1611,17.5339,-47.475
392,-587,19.0697,48.2729,0,0,0,0,0,0,0,-1,1616,1611,19.0697,-48.2729
399,-587,19.6918,46.9857,0,0,0,0,0,0,0,-1,1623,1611,19.6918,-46.9858
406,-587,19.2784,46.0865,0.0110473,0.034646,-0.0170251,0.0435609,0.00213239,-1.08842,0.0283566,0.0422248,1630,1611,19.2785,-46.0865
413,-587,19.2302,45.4712,0.00959923,0.0269555,-0.0135541,0.0343716,0.00218312,-1.07015,0.0222225,0.0333913,1637,1611,19.2302,-45.4712
420,-587,19.3009,44.7133,0.00814922,0.0211465,-0.0107655,0.0272227,0.00207298,-1.05695,0.0174985,0.0308598,1644,1611,19.301,-44.7133
427,-587,19.3132,44.0352,0.00698434,0.0166811,-0.0085281,0.0216427,0.00202276,-1.04387,0.0138037,0.0260509,1651,1611,19.3133,-44.0351
434,-587,19.3141,43.2231,0.00600222,0.0119541,-0.00653758,0.0161612,0.00179511,-0.998984,0.0102284,0.0208632,1658,1611,19.314,-43.2232
441,-587,19.2744,42.6058,0,0,0,0,0,0,0,-1,1665,1611,19.2744,-42.6059
448,-587,19.3162,41.8899,0.00438363,0.0067649,-0.00361037,0.0093759,0.00177264,-0.944673,0.00575151,0.0161323,1672,1611,19.3161,-41.8899
455,-587,19.3121,41.2491,0.00373334,0.00549506,-0.00301934,0.00775941,0.00146899,-0.927329,0.00475945,0.0155118,1679,1611,19.3121,-41.2492
462,-587,19.3048,40.5491,0.00340974,0.0044075,-0.0026409,0.00659623,0.00122102,-0.878751,0.00405227,0.0199796,1686,1611,19.3048,-40.549
469,-587,19.2527,39.8694,0.00295521,0.00336341,-0.00230055,0.0054689,0.000849725,-0.829642,0.00339829,0.017449,1693,1611,19.2527,-39.8694
476,-587,19.1931,39.1901,0.0023783,0.00259146,-0.00204424,0.0045319,0.000437862,-0.811443,0.00288641,0.0105514,1700,1611,19.1931,-39.19
483,-587,19.1305,38.4879,0.00180487,0.00190339,-0.0018292,0.00368399,2.42683e-05,-0.798859,0.00244794,0.0131909,1707,1611,19.1305,-38.488
490,-587,19.0902,37.785,0.00119636,0.00142385,-0.00165711,0.00297111,-0.000350904,-0.819665,0.00210747,0.0164539,1714,1611,19.0902,-37.785
497,-587,19.0527,37.0524,0.000558349,0.00109028,-0.00158713,0.00243357,-0.000784945,-0.868415,0.00193777,0.0135846,1721,1611,19.0528,-37.0524
504,-587,19.0107,36.3582,-0.000135294,0.000825031,-0.00152979,0.00194825,-0.00125851,-0.937466,0.00186564,0.0129256,1728,1611,19.0107,-36.3581
511,-587,18.9885,35.6622,-0.000802016,0.000812547,-0.00155454,0.00175692,-0.00174639,-1.02488,0.00202264,0.0147923,1735,1611,18.9885,-35.6622
518,-587,18.9902,34.9152,-0.00156484,0.000759686,-0.00159966,0.00157473,-0.00237988,-1.09957,0.00229892,0.015306,1742,1611,18.9902,-34.9151
525,-587,18.9454,34.2068,-0.00242371,0.000840134,-0.00165039,0.0015292,-0.00311278,-1.17528,0.00273153,0.0253308,1749,1611,18.9455,-34.2068
532,-587,18.9089,33.467,-0.00303541,0.000903819,-0.00171459,0.00154557,-0.00367715,-1.21265,0.00309792,0.0471566,1756,1611,18.909,-33.4671
539,-587,18.9862,32.4019,0,0,0,0,0,0,0,-1,1763,1611,18.9862,-32.4018
546,-587,17.6716,25.2673,0,0,0,0,0,0,0,-1,1770,1611,17.6716,-25.2674
553,-587,7.5813,8.45068,0,0,0,0,0,0,0,-1,1777,1611,7.58125,-8.45068
560,-587,4.21179,5.23547,0,0,0,0,0,0,0,-1,1784,1611,4.21185,-5.23553
567,-587,4.03711,5.46387,0,0,0,0,0,0,0,-1,1791,1611,4.03715,-5.46382
574,-587,3.83142,5.68884,0,0,0,0,0,0,0,-1,1798,1611,3.83141,-5.68881
581,-587,3.47168,6.00977,0,0,0,0,0,0,0,-1,1805,1611,3.47167,-6.00983
588,-587,0,0,0,0,0,0,0,0,0,-1,1812,1611,0,0
595,-587,0,0,0,0,0,0,0,0,0,-1,1819,1611,0,0
602,-587,0,0,0,0,0,0,0,0,0,-1,1826,1611,0,0
609,-587,0,0,0,0,0,0,0,0,0,-1,1833,1611,0,0
616,-587,0,0,0,0,0,0,0,0,0,-1,1840,1611,0,0
623,-587,0,0,0,0,0,0,0,0,0,-1,1847,1611,0,0
630,-587,0,0,0,0,0,0,0,0,0,-1,1854,1611,0,0
637,-587,0,0,0,0,0,0,0,0,0,-1,1861,1611,0,0
644,-587,0,0,0,0,0,0,0,0,0,-1,1868,1611,0,0
651,-587,0,0,0,0,0,0,0,0,0,-1,1875,1611,0,0
658,-587,0,0,0,0,0,0,0,0,0,-1,1882,1611,0,0
665,-587,0,0,0,0,0,0,0,0,0,-1,1889,1611,0,0
672,-587,0,0,0,0,0,0,0,0,0,-1,1896,1611,0,0
679,-587,0,0,0,0,0,0,0,0,0,-1,1903,1611,0,0
686,-587,0,0,0,0,0,0,0,0,0,-1,1910,1611,0,0
693,-587,0,0,0,0,0,0,0,0,0,-1,1917,1611,0,0
700,-587,0,0,0,0,0,0,0,0,0,-1,1924,1611,0,0
707,-587,0,0,0,0,0,0,0,0,0,-1,1931,1611,0,0
714,-587,0,0,0,0,0,0,0,0,0,-1,1938,1611,0,0
721,-587,0,0,0,0,0,0,0,0,0,-1,1945,1611,0,0
728,-587,0,0,0,0,0,0,0,0,0,-1,1952,1611,0,0
735,-587,0,0,0,0,0,0,0,0,0,-1,1959,1611,0,0
742,-587,0,0,0,0,0,0,0,0,0,-1,1966,1611,0,0
749,-587,0,0,0,0,0,0,0,0,0,-1,1973,1611,0,0
756,-587,0,0,0,0,0,0,0,0,0,-1,1980,1611,0,0
763,-587,0,0,0,0,0,0,0,0,0,-1,1987,1611,0,0
770,-587,0,0,0,0,0,0,0,0,0,-1,1994,1611,0,0
777,-587,0,0,0,0,0,0,0,0,0,-1,2001,1611,0,0
784,-587,0,0,0,0,0,0,0,0,0,-1,2008,1611,0,0
791,-587,0,0,0,0,0,0,0,0,0,-1,2015,1611,0,0
798,-587,0,0,0,0,0,0,0,0,0,-1,2022,1611,0,0
805,-587,0,0,0,0,0,0,0,0,0,-1,2029,1611,0,0
812,-587,0,0,0,0,0,0,0,0,0,-1,2036,1611,0,0
-700,-594,0,0,0,0,0,0,0,0,0,-1,524,1618,0,0
-693,-594,0,0,0,0,0,0,0,0,0,-1,531,1618,0,0
-686,-594,0,0,0,0,0,0,0,0,0,-1,538,1618,0,0
-679,-594,0,0,0,0,0,0,0,0,0,-1,545,1618,0,0
-672,-594,0,0,0,0,0,0,0,0,0,-1,552,1618,0,0
-665,-594,0,0,0,0,0,0,0,0,0,-1,559,1618,0,0
-658,-594,0,0,0,0,0,0,0,0,0,-1,566,1618,0,0
-651,-594,0,0,0,0,0,0,0,0,0,-1,573,1618,0,0
-644,-594,0,0,0,0,0,0,0,0,0,-1,580,1618,0,0
-637,-594,0,0,0,0,0,0,0,0,0,-1,587,1618,0,0
-630,-594,0,0,0,0,0,0,0,0,0,-1,594,1618,0,0
-623,-594,0,0,0,0,0,0,0,0,0,-1,601,1618,0,0
-616,-594,0,0,0,0,0,0,0,0,0,-1,608,1618,0,0
-609,-594,0,0,0,0,0,0,0,0,0,-1,615,1618,0,0
-602,-594,0,0,0,0,0,0,0,0,0,-1,622,1618,0,0
-595,-594,0,0,0,0,0,0,0,0,0,-1,629,1618,0,0
-588,-594,0,0,0,0,0,0,0,0,0,-1,636,1618,0,0
-581,-594,0,0,0,0,0,0,0,0,0,-1,643,1618,0,0
-574,-594,0,0,0,0,0,0,0,0,0,-1,650,1618,0,0
-567,-594,0,0,0,0,0,0,0,0,0,-1,657,1618,0,0
-560,-594,0,0,0,0,0,0,0,0,0,-1,664,1618,0,0
-553,-594,0,0,0,0,0,0,0,0,0,-1,671,1618,0,0
-546,-594,0,0,0,0,0,0,0,0,0,-1,678,1618,0,0
-539,-594,0,0,0,0,0,0,0,0,0,-1,685,1618,0,0
-532,-594,0,0,0,0,0,0,0,0,0,-1,692,1618,0,0
-525,-594,0,0,0,0,0,0,0,0,0,-1,699,1618,0,0
-518,-594,0,0,0,0,0,0,0,0,0,-1,706,1618,0,0
-511,-594,0,0,0,0,0,0,0,0,0,-1,713,1618,0,0
-504,-594,0,0,0,0,0,0,0,0,0,-1,720,1618,0,0
-497,-594,0,0,0,0,0,0,0,0,0,-1,727,1618,0,0
-490,-594,0,0,0,0,0,0,0,0,0,-1,734,1618,0,0
-483,-594,0,0,0,0,0,0,0,0,0,-1,741,1618,0,0
-476,-594,0,0,0,0,0,0,0,0,0,-1,748,1618,0,0
-469,-594,0,0,0,0,0,0,0,0,0,-1,755,1618,0,0
-462,-594,0,0,0,0,0,0,0,0,0,-1,762,1618,0,0
-455,-594,-0.509216,-1.58411,0,0,0,0,0,0,0,-1,769,1618,-0.509245,1.58415
-448,-594,-7.71887,-0.0559082,0,0,0,0,0,0,0,-1,776,1618,-7.71885,0.055939
-441,-594,-5.78473,1.18298,0,0,0,0,0,0,0,-1,783,1618,-5.78474,-1.18295
-434,-594,-3.93628,3.06213,0,0,0,0,0,0,0,-1,790,1618,-3.93631,-3.06208
-427,-594,-3.97693,6.77759,0,0,0,0,0,0,0,-1,797,1618,-3.97695,-6.77764
-420,-594,-2.53046,7.71606,0,0,0,0,0,0,0,-1,804,1618,-2.53047,-7.71609
-413,-594,-0.860413,8.00391,0,0,0,0,0,0,0,-1,811,1618,-0.860423,-8.00389
-406,-594,2.45746,13.6218,0,0,0,0,0,0,0,-1,818,1618,2.45747,-13.6218
-399,-594,1.30414,24.9963,0,0,0,0,0,0,0,-1,825,1618,1.30415,-24.9963
-392,-594,-0.393494,34.7778,0,0,0,0,0,0,0,-1,832,1618,-0.393523,-34.7779
-385,-594,-0.51947,35.3575,-0.000553121,-0.00354392,0.00297682,0.0012828,-0.00537984,0.552636,0.00408191,0.046932,839,1618,-0.519474,-35.3575
-378,-594,-0.671814,35.8854,1.04513e-05,-0.00289457,0.00288681,0.00178957,-0.00467369,0.552314,0.00385342,0.0209596,846,1618,-0.671784,-35.8854
-371,-594,-0.640076,36.6788,0.000223076,-0.00260424,0.00246568,0.0016516,-0.00403277,0.525108,0.00337649,0.014089,853,1618,-0.640073,-36.6789
-364,-594,-0.652222,37.4036,0.000422684,-0.00229228,0.00201982,0.00149881,-0.00336841,0.489527,0.00287836,0.0118291,860,1618,-0.652201,-37.4036
-357,-594,-0.700867,38.1327,0.000778529,-0.00180762,0.0017116,0.00163059,-0.00265968,0.461899,0.00250063,0.0116015,867,1618,-0.700876,-38.1327
-350,-594,-0.758728,38.8728,0.00120868,-0.00127139,0.00146619,0.0018889,-0.00195161,0.434386,0.00221742,0.0167244,874,1618,-0.758715,-38.8728
-343,-594,-0.80603,39.563,0.0016061,-0.000623253,0.0013088,0.00221057,-0.00122772,0.432665,0.00201195,0.0190424,881,1618,-0.806026,-39.563
-336,-594,-0.8573,40.2689,0.00204038,0.000167692,0.00130301,0.00270859,-0.000500512,0.473847,0.00199362,0.0163909,888,1618,-0.857321,-40.2689
-329,-594,-0.868225,41,0.00265055,0.00134316,0.00159589,0.00372144,0.000272267,0.591016,0.00239537,0.015414,895,1618,-0.868208,-41.0001
-322,-594,-0.840759,41.7323,0.00331731,0.00244771,0.00201475,0.00494364,0.000821377,0.679124,0.00305895,0.0166205,902,1618,-0.840766,-41.7323
-315,-594,-0.853577,42.4094,0.00413497,0.00390618,0.0028036,0.0068265,0.00121464,0.765008,0.00420501,0.0174054,909,1618,-0.85356,-42.4094
-308,-594,-0.899719,43.0835,0.00501911,0.00532687,0.00361898,0.00879524,0.00155073,0.806645,0.00542103,0.0153955,916,1618,-0.899709,-43.0835
-301,-594,-0.953369,43.7386,0.00621031,0.00690969,0.00474178,0.0113147,0.00180534,0.822205,0.00701915,0.0119273,923,1618,-0.953389,-43.7386
-294,-594,-0.933716,44.4132,0.00770988,0.00871494,0.00621945,0.0144521,0.00197269,0.82571,0.00904915,0.0135838,930,1618,-0.933699,-44.4132
-287,-594,-0.987305,45.0919,0.00948671,0.0109182,0.00793134,0.018166,0.0022389,0.830399,0.0114377,0.0202983,937,1618,-0.987325,-45.0919
-280,-594,-0.928711,45.8262,0.0117194,0.0131538,0.009954,0.0224164,0.00245682,0.82136,0.0141964,0.0227899,944,1618,-0.928691,-45.8262
-273,-594,-0.743652,46.6763,0.0141446,0.0156956,0.0120766,0.0270215,0.00281864,0.817462,0.0171522,0.028006,951,1618,-0.743643,-46.6763
-266,-594,-0.555298,47.5289,0.0166355,0.0180931,0.0142095,0.0315925,0.00313607,0.81102,0.020098,0.0347168,958,1618,-0.555318,-47.5289
-259,-594,-0.470276,48.3116,0,0,0,0,0,0,0,-1,965,1618,-0.47026,-48.3116
-252,-594,0.00891113,48.3547,0,0,0,0,0,0,0,-1,972,1618,0.00889895,-48.3547
-245,-594,2.27759,35.1766,0,0,0,0,0,0,0,-1,979,1618,2.27756,-35.1766
-238,-594,2.09015,28.0121,0,0,0,0,0,0,0,-1,986,1618,2.09012,-28.0121
-231,-594,1.93774,9.35388,0,0,0,0,0,0,0,-1,993,1618,1.93776,-9.35393
-224,-594,1.81824,8.62744,0,0,0,0,0,0,0,-1,1000,1618,1.81822,-8.62745
-217,-594,-8.24066,12.0752,0,0,0,0,0,0,0,-1,1007,1618,-8.24068,-12.0751
-210,-594,-5.61438,14.2119,0,0,0,0,0,0,0,-1,1014,1618,-5.6144,-14.212
-203,-594,-3.94507,15.5768,0,0,0,0,0,0,0,-1,1021,1618,-3.94506,-15.5768
-196,-594,2.78613,10.5815,0,0,0,0,0,0,0,-1,1028,1618,2.78612,-10.5815
-189,-594,2.60913,9.48865,0,0,0,0,0,0,0,-1,1035,1618,2.6091,-9.48871
-182,-594,1.2395,9.38806,0,0,0,0,0,0,0,-1,1042,1618,1.23951,-9.38804
-175,-594,0.234863,8.73792,0,0,0,0,0,0,0,-1,1049,1618,0.234812,-8.73786
-168,-594,-0.495483,8.46289,0,0,0,0,0,0,0,-1,1056,1618,-0.495513,-8.46285
-161,-594,-1.39734,8.28699,0,0,0,0,0,0,0,-1,1063,1618,-1.39729,-8.28699
-154,-594,-0.000854492,7.68445,0,0,0,0,0,0,0,-1,1070,1618,-0.000805755,-7.6845
-147,-594,0.348267,9.3385,0,0,0,0,0,0,0,-1,1077,1618,0.348237,-9.33849
-140,-594,0.675171,11.5884,0,0,0,0,0,0,0,-1,1084,1618,0.675204,-11.5884
-133,-594,0,0,0,0,0,0,0,0,0,-1,1091,1618,0,0
-126,-594,0,0,0,0,0,0,0,0,0,-1,1098,1618,0,0
-119,-594,0,0,0,0,0,0,0,0,0,-1,1105,1618,0,0
-112,-594,0,0,0,0,0,0,0,0,0,-1,1112,1618,0,0
-105,-594,0,0,0,0,0,0,0,0,0,-1,1119,1618,0,0
-98,-594,0,0,0,0,0,0,0,0,0,-1,1126,1618,0,0
-91,-594,0,0,0,0,0,0,0,0,0,-1,1133,1618,0,0
-84,-594,0,0,0,0,0,0,0,0,0,-1,1140,1618,0,0
-77,-594,0,0,0,0,0,0,0,0,0,-1,1147,1618,0,0
-70,-594,0,0,0,0,0,0,0,0,0,-1,1154,1618,0,0
-63,-594,0,0,0,0,0,0,0,0,0,-1,1161,1618,0,0
-56,-594,0,0,0,0,0,0,0,0,0,-1,1168,1618,0,0
-49,-594,0,0,0,0,0,0,0,0,0,-1,1175,1618,0,0
-42,-594,0,0,0,0,0,0,0,0,0,-1,1182,1618,0,0
-35,-594,0,0,0,0,0,0,0,0,0,-1,1189,1618,0,0
-28,-594,0,0,0,0,0,0,0,0,0,-1,1196,1618,0,0
-21,-594,0,0,0,0,0,0,0,0,0,-1,1203,1618,0,0
-14,-594,0,0,0,0,0,0,0,0,0,-1,1210,1618,0,0
-7,-594,0,0,0,0,0,0,0,0,0,-1,1217,1618,0,0
0,-594,0,0,0,0,0,0,0,0,0,-1,1224,1618,0,0
7,-594,0,0,0,0,0,0,0,0,0,-1,1231,1618,0,0
14,-594,0,0,0,0,0,0,0,0,0,-1,1238,1618,0,0
21,-594,0,0,0,0,0,0,0,0,0,-1,1245,1618,0,0
28,-594,0,0,0,0,0,0,0,0,0,-1,1252,1618,0,0
35,-594,0,0,0,0,0,0,0,0,0,-1,1259,1618,0,0
42,-594,0,0,0,0,0,0,0,0,0,-1,1266,1618,0,0
49,-594,0,0,0,0,0,0,0,0,0,-1,1273,1618,0,0
56,-594,0,0,0,0,0,0,0,0,0,-1,1280,1618,0,0
63,-594,0,0,0,0,0,0,0,0,0,-1,1287,1618,0,0
70,-594,0,0,0,0,0,0,0,0,0,-1,1294,1618,0,0
77,-594,0,0,0,0,0,0,0,0,0,-1,1301,1618,0,0
84,-594,0,0,0,0,0,0,0,0,0,-1,1308,1618,0,0
91,-594,0,0,0,0,0,0,0,0,0,-1,1315,1618,0,0
98,-594,0,0,0,0,0,0,0,0,0,-1,1322,1618,0,0
105,-594,0,0,0,0,0,0,0,0,0,-1,1329,1618,0,0
112,-594,0,0,0,0,0,0,0,0,0,-1,1336,1618,0,0
119,-594,0,0,0,0,0,0,0,0,0,-1,1343,1618,0,0
126,-594,0,0,0,0,0,0,0,0,0,-1,1350,1618,0,0
133,-594,0,0,0,0,0,0,0,0,0,-1,1357,1618,0,0
140,-594,0,0,0,0,0,0,0,0,0,-1,1364,1618,0,0
147,-594,0,0,0,0,0,0,0,0,0,-1,1371,1618,0,0
154,-594,0,0,0,0,0,0,0,0,0,-1,1378,1618,0,0
161,-594,0,0,0,0,0,0,0,0,0,-1,1385,1618,0,0
168,-594,0,0,0,0,0,0,0,0,0,-1,1392,1618,0,0
175,-594,0,0,0,0,0,0,0,0,0,-1,1399,1618,0,0
182,-594,0,0,0,0,0,0,0,0,0,-1,1406,1618,0,0
189,-594,0,0,0,0,0,0,0,0,0,-1,1413,1618,0,0
196,-594,0,0,0,0,0,0,0,0,0,-1,1420,1618,0,0
203,-594,0,0,0,0,0,0,0,0,0,-1,1427,1618,0,0
210,-594,0,0,0,0,0,0,0,0,0,-1,1434,1618,0,0
217,-594,0,0,0,0,0,0,0,0,0,-1,1441,1618,0,0
224,-594,0,0,0,0,0,0,0,0,0,-1,1448,1618,0,0
231,-594,0,0,0,0,0,0,0,0,0,-1,1455,1618,0,0
238,-594,0,0,0,0,0,0,0,0,0,-1,1462,1618,0,0
245,-594,0,0,0,0,0,0,0,0,0,-1,1469,1618,0,0
252,-594,3.03674,1.20996,0,0,0,0,0,0,0,-1,1476,1618,3.0368,-1.20999
259,-594,4.79834,1.53113,0,0,0,0,0,0,0,-1,1483,1618,4.79837,-1.53118
266,-594,3.71606,2.68152,0,0,0,0,0,0,0,-1,1490,1618,3.71609,-2.68149
273,-594,9.7655,6.33557,0,0,0,0,0,0,0,-1,1497,1618,9.76555,-6.33554
280,-594,3.13281,0.911255,0,0,0,0,0,0,0,-1,1504,1618,3.13277,-0.911207
287,-594,4.42749,1.51563,0,0,0,0,0,0,0,-1,1511,1618,4.42747,-1.51564
294,-594,5.36475,3.34937,0,0,0,0,0,0,0,-1,1518,1618,5.36475,-3.3494
301,-594,7.97144,9.04333,0,0,0,0,0,0,0,-1,1525,1618,7.9714,-9.04328
308,-594,6.30347,10.4633,0,0,0,0,0,0,0,-1,1532,1618,6.30351,-10.4633
315,-594,4.62012,11.934,0,0,0,0,0,0,0,-1,1539,1618,4.62006,-11.934
322,-594,2.91528,13.3134,0,0,0,0,0,0,0,-1,1546,1618,2.91523,-13.3133
329,-594,4.19861,9.77258,0,0,0,0,0,0,0,-1,1553,1618,4.19865,-9.77264
336,-594,10.1353,4.66528,0,0,0,0,0,0,0,-1,1560,1618,10.1353,-4.66533
343,-594,10.5729,3.71228,0,0,0,0,0,0,0,-1,1567,1618,10.5729,-3.71232
350,-594,10.219,2.98792,0,0,0,0,0,0,0,-1,1574,1618,10.219,-2.98797
357,-594,9.83154,1.96326,0,0,0,0,0,0,0,-1,1581,1618,9.8315,-1.96321
364,-594,9.74939,0.700562,0,0,0,0,0,0,0,-1,1588,1618,9.74939,-0.700615
371,-594,8.54297,14.3988,0,0,0,0,0,0,0,-1,1595,1618,8.54296,-14.3989
378,-594,18.6526,50.6545,0,0,0,0,0,0,0,-1,1602,1618,18.6526,-50.6545
385,-594,18.2972,49.0165,0,0,0,0,0,0,0,-1,1609,1618,18.2972,-49.0165
392,-594,18.4662,48.1144,0.0115554,0.0446502,-0.0202612,0.0542625,0.00194306,-1.12782,0.035545,0.0467838,1616,1618,18.4662,-48.1144
399,-594,18.7789,46.7869,0.0101413,0.0358295,-0.0163753,0.0437969,0.00217388,-1.11796,0.028501,0.0433145,1623,1618,18.779,-46.7869
406,-594,18.7015,46.0156,0.00901103,0.028336,-0.01316,0.0349998,0.00234718,-1.10206,0.0225915,0.0260863,1630,1618,18.7015,-46.0156
413,-594,18.6721,45.3379,0.00788839,0.0218981,-0.0104212,0.0274499,0.0023366,-1.0813,0.0175729,0.0179095,1637,1618,18.6721,-45.3379
420,-594,18.6869,44.686,0.0067334,0.0170014,-0.00822329,0.0215618,0.00217305,-1.06446,0.0137077,0.0169679,1644,1618,18.6869,-44.6861
427,-594,18.7112,44.0127,0.00572764,0.0131504,-0.00643823,0.0168704,0.00200767,-1.04686,0.010641,0.0148443,1651,1618,18.7112,-44.0127
434,-594,18.6638,43.3384,0.00488673,0.00916875,-0.00490772,0.0123821,0.00167334,-0.99108,0.00775738,0.0194375,1658,1618,18.6639,-43.3384
441,-594,18.6111,42.6385,0.00431278,0.00677894,-0.0037777,0.00951971,0.00157201,-0.943152,0.00589278,0.0165981,1665,1618,18.6111,-42.6385
448,-594,18.6333,41.9343,0.00356067,0.00487706,-0.00277009,0.00706607,0.00137166,-0.902039,0.00432659,0.017675,1672,1618,18.6333,-41.9343
455,-594,18.6062,41.2521,0.00301742,0.00387354,-0.00240962,0.00589283,0.000998125,-0.873304,0.00364173,0.0137495,1679,1618,18.6062,-41.252
462,-594,18.5798,40.5767,0.00268099,0.00299512,-0.00219645,0.00504011,0.000636003,-0.821092,0.00316942,0.0146402,1686,1618,18.5798,-40.5767
469,-594,18.5459,39.9158,0.00227812,0.0022099,-0.00203235,0.00427664,0.000211379,-0.777007,0.00278331,0.0129924,1693,1618,18.5459,-39.9158
476,-594,18.5033,39.2473,0.00177644,0.00167613,-0.00192762,0.00365456,-0.000201994,-0.772392,0.00250642,0.0128126,1700,1618,18.5033,-39.2474
483,-594,18.4679,38.5378,0.00126674,0.00116718,-0.0018731,0.00309072,-0.000656795,-0.772113,0.00231074,0.0152173,1707,1618,18.4678,-38.5379
490,-594,18.4152,37.8201,0.000717314,0.000833761,-0.0018439,0.00262036,-0.00106928,-0.801181,0.00219206,0.0142241,1714,1618,18.4152,-37.82
497,-594,18.3895,37.0853,0.000123873,0.000660453,-0.00188232,0.00229351,-0.00150918,-0.856187,0.00221099,0.0115042,1721,1618,18.3895,-37.0854
504,-594,18.3536,36.3779,-0.000522739,0.0006695,-0.00194845,0.00211099,-0.00196422,-0.933849,0.00235333,0.0113755,1728,1618,18.3537,-36.3779
511,-594,18.323,35.6409,-0.0011462,0.000856623,-0.00207868,0.00216254,-0.00245212,-1.00987,0.00266602,0.0174447,1735,1618,18.3229,-35.6409
518,-594,18.2328,34.8777,-0.00197834,0.000831442,-0.00216472,0.0020072,-0.0031541,-1.07323,0.0030043,0.0243329,1742,1618,18.2327,-34.8777
525,-594,18.1273,34.1112,-0.00314605,0.00111728,-0.00222322,0.00206566,-0.00409443,-1.16759,0.00362025,0.0391495,1749,1618,18.1273,-34.1112
532,-594,18.0896,33.3552,0,0,0,0,0,0,0,-1,1756,1618,18.0896,-33.3552
539,-594,21.0237,24.9617,0,0,0,0,0,0,0,-1,1763,1618,21.0237,-24.9616
546,-594,7.48645,8.54785,0,0,0,0,0,0,0,-1,1770,1618,7.48639,-8.54789
553,-594,3.69714,5.68762,0,0,0,0,0,0,0,-1,1777,1618,3.69715,-5.68764
560,-594,6.06616,4.44482,0,0,0,0,0,0,0,-1,1784,1618,6.06621,-4.44477
567,-594,5.97266,4.73303,0,0,0,0,0,0,0,-1,1791,1618,5.97271,-4.73309
574,-594,5.9906,4.96326,0,0,0,0,0,0,0,-1,1798,1618,5.99065,-4.96326
581,-594,0,0,0,0,0,0,0,0,0,-1,1805,1618,0,0
588,-594,0,0,0,0,0,0,0,0,0,-1,1812,1618,0,0
595,-594,0,0,0,0,0,0,0,0,0,-1,1819,1618,0,0
602,-594,0,0,0,0,0,0,0,0,0,-1,1826,1618,0,0
609,-594,0,0,0,0,0,0,0,0,0,-1,1833,1618,0,0
616,-594,0,0,0,0,0,0,0,0,0,-1,1840,1618,0,0
623,-594,0,0,0,0,0,0,0,0,0,-1,1847,1618,0,0
630,-594,0,0,0,0,0,0,0,0,0,-1,1854,1618,0,0
637,-594,0,0,0,0,0,0,0,0,0,-1,1861,1618,0,0
644,-594,0,0,0,0,0,0,0,0,0,-1,1868,1618,0,0
651,-594,0,0,0,0,0,0,0,0,0,-1,1875,1618,0,0
658,-594,0,0,0,0,0,0,0,0,0,-1,1882,1618,0,0
665,-594,0,0,0,0,0,0,0,0,0,-1,1889,1618,0,0
672,-594,0,0,0,0,0,0,0,0,0,-1,1896,1618,0,0
679,-594,0,0,0,0,0,0,0,0,0,-1,1903,1618,0,0
686,-594,0,0,0,0,0,0,0,0,0,-1,1910,1618,0,0
693,-594,0,0,0,0,0,0,0,0,0,-1,1917,1618,0,0
700,-594,0,0,0,0,0,0,0,0,0,-1,1924,1618,0,0
707,-594,0,0,0,0,0,0,0,0,0,-1,1931,1618,0,0
714,-594,0,0,0,0,0,0,0,0,0,-1,1938,1618,0,0
721,-594,0,0,0,0,0,0,0,0,0,-1,1945,1618,0,0
728,-594,0,0,0,0,0,0,0,0,0,-1,1952,1618,0,0
735,-594,0,0,0,0,0,0,0,0,0,-1,1959,1618,0,0
742,-594,0,0,0,0,0,0,0,0,0,-1,1966,1618,0,0
749,-594,0,0,0,0,0,0,0,0,0,-1,1973,1618,0,0
756,-594,0,0,0,0,0,0,0,0,0,-1,1980,1618,0,0
763,-594,0,0,0,0,0,0,0,0,0,-1,1987,1618,0,0
770,-594,0,0,0,0,0,0,0,0,0,-1,1994,1618,0,0
777,-594,0,0,0,0,0,0,0,0,0,-1,2001,1618,0,0
784,-594,0,0,0,0,0,0,0,0,0,-1,2008,1618,0,0
791,-594,0,0,0,0,0,0,0,0,0,-1,2015,1618,0,0
798,-594,0,0,0,0,0,0,0,0,0,-1,2022,1618,0,0
805,-594,0,0,0,0,0,0,0,0,0,-1,2029,1618,0,0
812,-594,0,0,0,0,0,0,0,0,0,-1,2036,1618,0,0
-700,-601,0,0,0,0,0,0,0,0,0,-1,524,1625,0,0
-693,-601,0,0,0,0,0,0,0,0,0,-1,531,1625,0,0
-686,-601,0,0,0,0,0,0,0,0,0,-1,538,1625,0,0
-679,-601,0,0,0,0,0,0,0,0,0,-1,545,1625,0,0
-672,-601,0,0,0,0,0,0,0,0,0,-1,552,1625,0,0
-665,-601,0,0,0,0,0,0,0,0,0,-1,559,1625,0,0
-658,-601,0,0,0,0,0,0,0,0,0,-1,566,1625,0,0
-651,-601,0,0,0,0,0,0,0,0,0,-1,573,1625,0,0
-644,-601,0,0,0,0,0,0,0,0,0,-1,580,1625,0,0
-637,-601,0,0,0,0,0,0,0,0,0,-1,587,1625,0,0
-630,-601,0,0,0,0,0,0,0,0,0,-1,594,1625,0,0
-623,-601,0,0,0,0,0,0,0,0,0,-1,601,1625,0,0
-616,-601,0,0,0,0,0,0,0,0,0,-1,608,1625,0,0
-609,-601,0,0,0,0,0,0,0,0,0,-1,615,1625,0,0
-602,-601,0,0,0,0,0,0,0,0,0,-1,622,1625,0,0
-595,-601,0,0,0,0,0,0,0,0,0,-1,629,1625,0,0
-588,-601,0,0,0,0,0,0,0,0,0,-1,636,1625,0,0
-581,-601,0,0,0,0,0,0,0,0,0,-1,643,1625,0,0
-574,-601,0,0,0,0,0,0,0,0,0,-1,650,1625,0,0
-567,-601,0,0,0,0,0,0,0,0,0,-1,657,1625,0,0
-560,-601,0,0,0,0,0,0,0,0,0,-1,664,1625,0,0
-553,-601,0,0,0,0,0,0,0,0,0,-1,671,1625,0,0
-546,-601,0,0,0,0,0,0,0,0,0,-1,678,1625,0,0
-539,-601,0,0,0,0,0,0,0,0,0,-1,685,1625,0,0
-532,-601,0,0,0,0,0,0,0,0,0,-1,692,1625,0,0
-525,-601,0,0,0,0,0,0,0,0,0,-1,699,1625,0,0
-518,-601,0,0,0,0,0,0,0,0,0,-1,706,1625,0,0
-511,-601,0,0,0,0,0,0,0,0,0,-1,713,1625,0,0
-504,-601,0,0,0,0,0,0,0,0,0,-1,720,1625,0,0
-497,-601,0,0,0,0,0,0,0,0,0,-1,727,1625,0,0
-490,-601,0,0,0,0,0,0,0,0,0,-1,734,1625,0,0
-483,-601,0,0,0,0,0,0,0,0,0,-1,741,1625,0,0
-476,-601,0,0,0,0,0,0,0,0,0,-1,748,1625,0,0
-469,-601,0,0,0,0,0,0,0,0,0,-1,755,1625,0,0
-462,-601,0,0,0,0,0,0,0,0,0,-1,762,1625,0,0
-455,-601,0,0,0,0,0,0,0,0,0,-1,769,1625,0,0
-448,-601,-7.07623,2.7616,0,0,0,0,0,0,0,-1,776,1625,-7.07626,-2.76161
-441,-601,-6.06689,3.33447,0,0,0,0,0,0,0,-1,783,1625,-6.06691,-3.33448
-434,-601,-5.02655,3.8468,0,0,0,0,0,0,0,-1,790,1625,-5.02657,-3.84674
-427,-601,-5.78601,4.2406,0,0,0,0,0,0,0,-1,797,1625,-5.786,-4.24058
-420,-601,-5.5191,5.60364,0,0,0,0,0,0,0,-1,804,1625,-5.51907,-5.60368
-413,-601,-4.30756,5.86047,0,0,0,0,0,0,0,-1,811,1625,-4.30757,-5.86046
-406,-601,-1.67493,7.20422,0,0,0,0,0,0,0,-1,818,1625,-1.67493,-7.20428
-399,-601,1.40094,15.3108,0,0,0,0,0,0,0,-1,825,1625,1.40096,-15.3107
-392,-601,0.678833,30.98,0,0,0,0,0,0,0,-1,832,1625,0.678827,-30.98
-385,-601,0.262024,35.799,0,0,0,0,0,0,0,-1,839,1625,0.262008,-35.799
-378,-601,-0.0556641,35.9863,0,0,0,0,0,0,0,-1,846,1625,-0.0556361,-35.9863
-371,-601,0.0703735,36.6396,0.000484527,-0.00350147,0.00324581,0.00230037,-0.00531732,0.510065,0.00451159,0.0253151,853,1625,0.0703725,-36.6397
-364,-601,0.0547485,37.4183,0.000555181,-0.00328104,0.0025946,0.00186369,-0.00458955,0.467099,0.00383498,0.0138629,860,1625,0.0547522,-37.4184
-357,-601,-0.00274658,38.1808,0.000834191,-0.00284156,0.0021486,0.00182373,-0.0038311,0.431593,0.00333268,0.0114906,867,1625,-0.00274707,-38.1808
-350,-601,-0.0238647,38.948,0.00117831,-0.00228781,0.00178227,0.00193121,-0.00304071,0.399699,0.00289427,0.0227534,874,1625,-0.0238545,-38.9479
-343,-601,-0.103027,39.6594,0.00149881,-0.00158316,0.00151905,0.00212166,-0.00220601,0.389115,0.00249874,0.0263041,881,1625,-0.103036,-39.6595
-336,-601,-0.186035,40.3638,0.00180777,-0.000806782,0.00137498,0.00239774,-0.00139675,0.405318,0.00221602,0.0235816,888,1625,-0.186031,-40.3638
-329,-601,-0.176453,41.075,0.00224518,0.000274154,0.00149454,0.00304988,-0.000530553,0.493918,0.00223123,0.0192956,895,1625,-0.17646,-41.0749
-322,-601,-0.158936,41.7648,0.0027199,0.00127161,0.00172291,0.00386467,0.000126847,0.586455,0.00253522,0.014012,902,1625,-0.158963,-41.7648
-315,-601,-0.175293,42.4255,0.00331444,0.0025305,0.0022624,0.00521857,0.000626366,0.699623,0.00329019,0.0142308,909,1625,-0.175281,-42.4255
-308,-601,-0.215637,43.0952,0.00398535,0.00375861,0.00281239,0.00668666,0.00105731,0.765254,0.00415047,0.0131125,916,1625,-0.215624,-43.0952
-301,-601,-0.245483,43.7742,0.00492693,0.00514505,0.00364823,0.00868585,0.00138612,0.800341,0.00538829,0.0106731,923,1625,-0.245474,-43.7741
-294,-601,-0.274658,44.4617,0.00614568,0.00665281,0.00477654,0.0111825,0.00161598,0.811916,0.00697899,0.0113059,930,1625,-0.274662,-44.4617
-287,-601,-0.322144,45.1632,0.00752255,0.00841952,0.00601814,0.0140059,0.00193621,0.822591,0.00876343,0.0115538,937,1625,-0.322138,-45.1632
-280,-601,-0.321899,45.838,0.00926573,0.0101487,0.00747147,0.0171917,0.0022227,0.814908,0.0107968,0.0125465,944,1625,-0.321917,-45.838
-273,-601,-0.307129,46.5172,0.0111761,0.0120033,0.00897561,0.0205748,0.00260455,0.808422,0.0129361,0.0126343,951,1625,-0.307135,-46.5172
-266,-601,-0.263794,47.2285,0.0131019,0.0137645,0.0104704,0.0239089,0.00295755,0.801212,0.0150506,0.0154703,958,1625,-0.263802,-47.2285
-259,-601,-0.252136,47.8618,0.0151387,0.0153209,0.0119041,0.0271343,0.00332535,0.789225,0.0170893,0.0292437,965,1625,-0.25213,-47.8619
-252,-601,-0.257385,48.5194,0,0,0,0,0,0,0,-1,972,1625,-0.257396,-48.5194
-245,-601,0.227295,49.3578,0,0,0,0,0,0,0,-1,979,1625,0.227269,-49.3578
-238,-601,2.75482,35.777,0,0,0,0,0,0,0,-1,986,1625,2.75481,-35.777
-231,-601,2.66772,13.7051,0,0,0,0,0,0,0,-1,993,1625,2.6677,-13.7051
-224,-601,-0.0305176,9.13684,0,0,0,0,0,0,0,-1,1000,1625,-0.030498,-9.13681
-217,-601,3.39429,10.3898,0,0,0,0,0,0,0,-1,1007,1625,3.39431,-10.3898
-210,-601,-6.53699,15.7931,0,0,0,0,0,0,0,-1,1014,1625,-6.53697,-15.7931
-203,-601,2.69348,15.9099,0,0,0,0,0,0,0,-1,1021,1625,2.69351,-15.91
-196,-601,2.66992,16.1815,0,0,0,0,0,0,0,-1,1028,1625,2.66995,-16.1815
-189,-601,2.849,16.6105,0,0,0,0,0,0,0,-1,1035,1625,2.84902,-16.6104
-182,-601,1.82153,13.9752,0,0,0,0,0,0,0,-1,1042,1625,1.82155,-13.9752
-175,-601,0.544922,9.28687,0,0,0,0,0,0,0,-1,1049,1625,0.544879,-9.28685
-168,-601,-0.247559,8.97461,0,0,0,0,0,0,0,-1,1056,1625,-0.247598,-8.97466
-161,-601,-1.16833,8.80078,0,0,0,0,0,0,0,-1,1063,1625,-1.16837,-8.80081
-154,-601,1.12756,7.94861,0,0,0,0,0,0,0,-1,1070,1625,1.12762,-7.94855
-147,-601,1.35352,9.55432,0,0,0,0,0,0,0,-1,1077,1625,1.35351,-9.55429
-140,-601,1.72437,11.1498,0,0,0,0,0,0,0,-1,1084,1625,1.72432,-11.1498
-133,-601,2.13281,12.8347,0,0,0,0,0,0,0,-1,1091,1625,2.13287,-12.8348
-126,-601,3.09534,15.427,0,0,0,0,0,0,0,-1,1098,1625,3.0953,-15.4271
-119,-601,1.22485,9.43457,0,0,0,0,0,0,0,-1,1105,1625,1.22489,-9.43456
-112,-601,0,0,0,0,0,0,0,0,0,-1,1112,1625,0,0
-105,-601,0,0,0,0,0,0,0,0,0,-1,1119,1625,0,0
-98,-601,0,0,0,0,0,0,0,0,0,-1,1126,1625,0,0
-91,-601,0,0,0,0,0,0,0,0,0,-1,1133,1625,0,0
-84,-601,0,0,0,0,0,0,0,0,0,-1,1140,1625,0,0
-77,-601,0,0,0,0,0,0,0,0,0,-1,1147,1625,0,0
-70,-601,0,0,0,0,0,0,0,0,0,-1,1154,1625,0,0
-63,-601,0,0,0,0,0,0,0,0,0,-1,1161,1625,0,0
-56,-601,0,0,0,0,0,0,0,0,0,-1,1168,1625,0,0
-49,-601,0,0,0,0,0,0,0,0,0,-1,1175,1625,0,0
-42,-601,0,0,0,0,0,0,0,0,0,-1,1182,1625,0,0
-35,-601,0,0,0,0,0,0,0,0,0,-1,1189,1625,0,0
-28,-601,0,0,0,0,0,0,0,0,0,-1,1196,1625,0,0
-21,-601,0,0,0,0,0,0,0,0,0,-1,1203,1625,0,0
-14,-601,0,0,0,0,0,0,0,0,0,-1,1210,1625,0,0
-7,-601,0,0,0,0,0,0,0,0,0,-1,1217,1625,0,0
0,-601,0,0,0,0,0,0,0,0,0,-1,1224,1625,0,0
7,-601,0,0,0,0,0,0,0,0,0,-1,1231,1625,0,0
14,-601,0,0,0,0,0,0,0,0,0,-1,1238,1625,0,0
21,-601,0,0,0,0,0,0,0,0,0,-1,1245,1625,0,0
28,-601,0,0,0,0,0,0,0,0,0,-1,1252,1625,0,0
35,-601,0,0,0,0,0,0,0,0,0,-1,1259,1625,0,0
42,-601,0,0,0,0,0,0,0,0,0,-1,1266,1625,0,0
49,-601,0,0,0,0,0,0,0,0,0,-1,1273,1625,0,0
56,-601,0,0,0,0,0,0,0,0,0,-1,1280,1625,0,0
63,-601,0,0,0,0,0,0,0,0,0,-1,1287,1625,0,0
70,-601,0,0,0,0,0,0,0,0,0,-1,1294,1625,0,0
77,-601,0,0,0,0,0,0,0,0,0,-1,1301,1625,0,0
84,-601,0,0,0,0,0,0,0,0,0,-1,1308,1625,0,0
91,-601,0,0,0,0,0,0,0,0,0,-1,1315,1625,0,0
98,-601,0,0,0,0,0,0,0,0,0,-1,1322,1625,0,0
105,-601,0,0,0,0,0,0,0,0,0,-1,1329,1625,0,0
112,-601,0,0,0,0,0,0,0,0,0,-1,1336,1625,0,0
119,-601,0,0,0,0,0,0,0,0,0,-1,1343,1625,0,0
126,-601,0,0,0,0,0,0,0,0,0,-1,1350,1625,0,0
133,-601,0,0,0,0,0,0,0,0,0,-1,1357,1625,0,0
140,-601,0,0,0,0,0,0,0,0,0,-1,1364,1625,0,0
147,-601,0,0,0,0,0,0,0,0,0,-1,1371,1625,0,0
154,-601,0,0,0,0,0,0,0,0,0,-1,1378,1625,0,0
161,-601,0,0,0,0,0,0,0,0,0,-1,1385,1625,0,0
168,-601,0,0,0,0,0,0,0,0,0,-1,1392,1625,0,0
175,-601,0,0,0,0,0,0,0,0,0,-1,1399,1625,0,0
182,-601,0,0,0,0,0,0,0,0,0,-1,1406,1625,0,0
189,-601,0,0,0,0,0,0,0,0,0,-1,1413,1625,0,0
196,-601,0,0,0,0,0,0,0,0,0,-1,1420,1625,0,0
203,-601,0,0,0,0,0,0,0,0,0,-1,1427,1625,0,0
210,-601,0,0,0,0,0,0,0,0,0,-1,1434,1625,0,0
217,-601,0,0,0,0,0,0,0,0,0,-1,1441,1625,0,0
224,-601,0,0,0,0,0,0,0,0,0,-1,1448,1625,0,0
231,-601,-0.0371094,0.525879,0,0,0,0,0,0,0,-1,1455,1625,-0.0371518,-0.525824
238,-601,2.03369,-1.32861,0,0,0,0,0,0,0,-1,1462,1625,2.03364,1.32858
245,-601,2.71375,2.44983,0,0,0,0,0,0,0,-1,1469,1625,2.71371,-2.44979
252,-601,4.66943,2.28381,0,0,0,0,0,0,0,-1,1476,1625,4.66947,-2.28376
259,-601,6.42712,2.61987,0,0,0,0,0,0,0,-1,1483,1625,6.42711,-2.61985
266,-601,6.75317,1.68701,0,0,0,0,0,0,0,-1,1490,1625,6.75323,-1.687
273,-601,5.4314,2.92053,0,0,0,0,0,0,0,-1,1497,1625,5.43144,-2.92051
280,-601,4.64722,1.17786,0,0,0,0,0,0,0,-1,1504,1625,4.64722,-1.1779
287,-601,5.32532,2.6217,0,0,0,0,0,0,0,-1,1511,1625,5.32535,-2.62171
294,-601,5.97693,4.22693,0,0,0,0,0,0,0,-1,1518,1625,5.97697,-4.22694
301,-601,7.28162,9.50024,0,0,0,0,0,0,0,-1,1525,1625,7.28162,-9.50025
308,-601,6.53528,10.3927,0,0,0,0,0,0,0,-1,1532,1625,6.53529,-10.3927
315,-601,4.88013,11.7184,0,0,0,0,0,0,0,-1,1539,1625,4.88015,-11.7184
322,-601,3.38098,12.7864,0,0,0,0,0,0,0,-1,1546,1625,3.38104,-12.7864
329,-601,1.8772,13.8768,0,0,0,0,0,0,0,-1,1553,1625,1.87716,-13.8768
336,-601,4.67847,9.53308,0,0,0,0,0,0,0,-1,1560,1625,4.67848,-9.53309
343,-601,11.1404,3.14575,0,0,0,0,0,0,0,-1,1567,1625,11.1404,-3.1458
350,-601,10.9462,2.37769,0,0,0,0,0,0,0,-1,1574,1625,10.9461,-2.37764
357,-601,10.7518,1.6095,0,0,0,0,0,0,0,-1,1581,1625,10.7518,-1.60948
364,-601,5.33643,9.74426,0,0,0,0,0,0,0,-1,1588,1625,5.33637,-9.74429
371,-601,18.5751,50.6825,0,0,0,0,0,0,0,-1,1595,1625,18.5751,-50.6825
378,-601,18.1885,49.8616,0.012058,0.0519217,-0.0218844,0.0615906,0.00238905,-1.15477,0.0402877,0.0479159,1602,1625,18.1885,-49.8615
385,-601,18.0361,48.6168,0.0107013,0.0433202,-0.0185158,0.0516853,0.00233621,-1.14646,0.0337051,0.0453804,1609,1625,18.0361,-48.6168
392,-601,18.0023,47.6116,0.00932337,0.0352851,-0.0152819,0.0423552,0.00225329,-1.13748,0.0275165,0.0385452,1616,1625,18.0023,-47.6116
399,-601,17.9989,46.6692,0.00820687,0.0284331,-0.0124445,0.0343556,0.00228438,-1.1266,0.0221815,0.0200438,1623,1625,17.9989,-46.6693
406,-601,18.0439,45.9614,0.00726293,0.0225493,-0.0100482,0.0275309,0.00228137,-1.11054,0.0176427,0.0131769,1630,1625,18.0439,-45.9615
413,-601,18.0093,45.3074,0.00634931,0.0174127,-0.00796444,0.021578,0.002184,-1.08893,0.0137154,0.0125844,1637,1625,18.0093,-45.3074
420,-601,18.0146,44.6292,0.00542524,0.013394,-0.00625763,0.0168281,0.00199118,-1.06889,0.0106174,0.0116184,1644,1625,18.0147,-44.6291
427,-601,18.0281,43.9904,0.00456366,0.0101633,-0.00485189,0.0129653,0.00176171,-1.04709,0.00812023,0.0161073,1651,1625,18.0281,-43.9903
434,-601,17.9741,43.3037,0.00384842,0.00689319,-0.00369616,0.00936821,0.0013734,-0.980752,0.00584174,0.0161708,1658,1625,17.9741,-43.3037
441,-601,17.9581,42.6439,0.00336648,0.00493468,-0.0028772,0.00713271,0.00116845,-0.918429,0.00441747,0.0174935,1665,1625,17.9581,-42.6439
448,-601,17.962,41.979,0.00280103,0.00344084,-0.00219815,0.00534224,0.000899635,-0.857658,0.00330271,0.015664,1672,1625,17.9621,-41.979
455,-601,17.9346,41.2731,0.00237937,0.00266459,-0.00202204,0.00454904,0.000494916,-0.820603,0.00288192,0.0143678,1679,1625,17.9346,-41.273
462,-601,17.9025,40.5874,0.002074,0.00195455,-0.00194002,0.00395521,7.33357e-05,-0.770011,0.0026127,0.0127847,1686,1625,17.9024,-40.5874
469,-601,17.8768,39.9343,0.0017639,0.00137525,-0.00192574,0.00350509,-0.00036594,-0.735113,0.00246777,0.0124325,1693,1625,17.8768,-39.9344
476,-601,17.826,39.256,0.00138412,0.00102565,-0.00195431,0.0031674,-0.000757626,-0.73967,0.00240426,0.0144501,1700,1625,17.8261,-39.256
483,-601,17.7726,38.5527,0.000982731,0.000658702,-0.00205743,0.00288452,-0.00124308,-0.746106,0.00244508,0.0171964,1707,1625,17.7726,-38.5528
490,-601,17.731,37.8547,0.000519622,0.000429868,-0.00218511,0.00266032,-0.00171083,-0.775131,0.00254345,0.0143013,1714,1625,17.731,-37.8547
497,-601,17.7233,37.1277,9.25789e-06,0.000375811,-0.00234732,0.002547,-0.00216193,-0.824359,0.00272173,0.0127679,1721,1625,17.7233,-37.1276
504,-601,17.7755,36.3914,-0.000502091,0.000733764,-0.00264517,0.00283222,-0.00260055,-0.900144,0.00313756,0.0253696,1728,1625,17.7755,-36.3914
511,-601,17.5956,35.7637,-0.00107093,0.00118231,-0.00295565,0.00321878,-0.0031074,-0.967485,0.00365261,0.041422,1735,1625,17.5955,-35.7637
518,-601,17.4745,34.8571,0,0,0,0,0,0,0,-1,1742,1625,17.4745,-34.857
525,-601,17.2362,33.9075,0,0,0,0,0,0,0,-1,1749,1625,17.2362,-33.9074
532,-601,16.3666,22.9199,0,0,0,0,0,0,0,-1,1756,1625,16.3666,-22.92
539,-601,7.77112,11.4299,0,0,0,0,0,0,0,-1,1763,1625,7.77116,-11.4299
546,-601,6.56873,3.62354,0,0,0,0,0,0,0,-1,1770,1625,6.56867,-3.62352
553,-601,7.03015,4.25049,0,0,0,0,0,0,0,-1,1777,1625,7.03011,-4.25048
560,-601,7.50745,4.83374,0,0,0,0,0,0,0,-1,1784,1625,7.50744,-4.83376
567,-601,7.82043,3.83301,0,0,0,0,0,0,0,-1,1791,1625,7.82041,-3.83303
574,-601,0,0,0,0,0,0,0,0,0,-1,1798,1625,0,0
581,-601,0,0,0,0,0,0,0,0,0,-1,1805,1625,0,0
588,-601,0,0,0,0,0,0,0,0,0,-1,1812,1625,0,0
595,-601,0,0,0,0,0,0,0,0,0,-1,1819,1625,0,0
602,-601,0,0,0,0,0,0,0,0,0,-1,1826,1625,0,0
609,-601,0,0,0,0,0,0,0,0,0,-1,1833,1625,0,0
616,-601,0,0,0,0,0,0,0,0,0,-1,1840,1625,0,0
623,-601,0,0,0,0,0,0,0,0,0,-1,1847,1625,0,0
630,-601,0,0,0,0,0,0,0,0,0,-1,1854,1625,0,0
637,-601,0,0,0,0,0,0,0,0,0,-1,1861,1625,0,0
644,-601,0,0,0,0,0,0,0,0,0,-1,1868,1625,0,0
651,-601,0,0,0,0,0,0,0,0,0,-1,1875,1625,0,0
658,-601,0,0,0,0,0,0,0,0,0,-1,1882,1625,0,0
665,-601,0,0,0,0,0,0,0,0,0,-1,1889,1625,0,0
672,-601,0,0,0,0,0,0,0,0,0,-1,1896,1625,0,0
679,-601,0,0,0,0,0,0,0,0,0,-1,1903,1625,0,0
686,-601,0,0,0,0,0,0,0,0,0,-1,1910,1625,0,0
693,-601,0,0,0,0,0,0,0,0,0,-1,1917,1625,0,0
700,-601,0,0,0,0,0,0,0,0,0,-1,1924,1625,0,0
707,-601,0,0,0,0,0,0,0,0,0,-1,1931,1625,0,0
714,-601,0,0,0,0,0,0,0,0,0,-1,1938,1625,0,0
721,-601,0,0,0,0,0,0,0,0,0,-1,1945,1625,0,0
728,-601,0,0,0,0,0,0,0,0,0,-1,1952,1625,0,0
735,-601,0,0,0,0,0,0,0,0,0,-1,1959,1625,0,0
742,-601,0,0,0,0,0,0,0,0,0,-1,1966,1625,0,0
749,-601,0,0,0,0,0,0,0,0,0,-1,1973,1625,0,0
756,-601,0,0,0,0,0,0,0,0,0,-1,1980,1625,0,0
763,-601,0,0,0,0,0,0,0,0,0,-1,1987,1625,0,0
770,-601,0,0,0,0,0,0,0,0,0,-1,1994,1625,0,0
777,-601,0,0,0,0,0,0,0,0,0,-1,2001,1625,0,0
784,-601,0,0,0,0,0,0,0,0,0,-1,2008,1625,0,0
791,-601,0,0,0,0,0,0,0,0,0,-1,2015,1625,0,0
798,-601,0,0,0,0,0,0,0,0,0,-1,2022,1625,0,0
805,-601,0,0,0,0,0,0,0,0,0,-1,2029,1625,0,0
812,-601,0,0,0,0,0,0,0,0,0,-1,2036,1625,0,0
-700,-608,0,0,0,0,0,0,0,0,0,-1,524,1632,0,0
-693,-608,0,0,0,0,0,0,0,0,0,-1,531,1632,0,0
-686,-608,0,0,0,0,0,0,0,0,0,-1,538,1632,0,0
-679,-608,0,0,0,0,0,0,0,0,0,-1,545,1632,0,0
-672,-608,0,0,0,0,0,0,0,0,0,-1,552,1632,0,0
-665,-608,0,0,0,0,0,0,0,0,0,-1,559,1632,0,0
-658,-608,0,0,0,0,0,0,0,0,0,-1,566,1632,0,0
-651,-608,0,0,0,0,0,0,0,0,0,-1,573,1632,0,0
-644,-608,0,0,0,0,0,0,0,0,0,-1,580,1632,0,0
-637,-608,0,0,0,0,0,0,0,0,0,-1,587,1632,0,0
-630,-608,0,0,0,0,0,0,0,0,0,-1,594,1632,0,0
-623,-608,0,0,0,0,0,0,0,0,0,-1,601,1632,0,0
-616,-608,0,0,0,0,0,0,0,0,0,-1,608,1632,0,0
-609,-608,0,0,0,0,0,0,0,0,0,-1,615,1632,0,0
-602,-608,0,0,0,0,0,0,0,0,0,-1,622,1632,0,0
-595,-608,0,0,0,0,0,0,0,0,0,-1,629,1632,0,0
-588,-608,0,0,0,0,0,0,0,0,0,-1,636,1632,0,0
-581,-608,0,0,0,0,0,0,0,0,0,-1,643,1632,0,0
-574,-608,0,0,0,0,0,0,0,0,0,-1,650,1632,0,0
-567,-608,0,0,0,0,0,0,0,0,0,-1,657,1632,0,0
-560,-608,0,0,0,0,0,0,0,0,0,-1,664,1632,0,0
-553,-608,0,0,0,0,0,0,0,0,0,-1,671,1632,0,0
-546,-608,0,0,0,0,0,0,0,0,0,-1,678,1632,0,0
-539,-608,0,0,0,0,0,0,0,0,0,-1,685,1632,0,0
-532,-608,0,0,0,0,0,0,0,0,0,-1,692,1632,0,0
-525,-608,0,0,0,0,0,0,0,0,0,-1,699,1632,0,0
-518,-608,0,0,0,0,0,0,0,0,0,-1,706,1632,0,0
-511,-608,0,0,0,0,0,0,0,0,0,-1,713,1632,0,0
-504,-608,0,0,0,0,0,0,0,0,0,-1,720,1632,0,0
-497,-608,0,0,0,0,0,0,0,0,0,-1,727,1632,0,0
-490,-608,0,0,0,0,0,0,0,0,0,-1,734,1632,0,0
-483,-608,0,0,0,0,0,0,0,0,0,-1,741,1632,0,0
-476,-608,0,0,0,0,0,0,0,0,0,-1,748,1632,0,0
-469,-608,0,0,0,0,0,0,0,0,0,-1,755,1632,0,0
-462,-608,0,0,0,0,0,0,0,0,0,-1,762,1632,0,0
-455,-608,0,0,0,0,0,0,0,0,0,-1,769,1632,0,0
-448,-608,0,0,0,0,0,0,0,0,0,-1,776,1632,0,0
-441,-608,-7.34601,2.78052,0,0,0,0,0,0,0,-1,783,1632,-7.346,-2.78056
-434,-608,-6.34558,3.27405,0,0,0,0,0,0,0,-1,790,1632,-6.34555,-3.27406
-427,-608,-7.74335,4.17688,0,0,0,0,0,0,0,-1,797,1632,-7.74334,-4.17693
-420,-608,-6.82794,4.34839,0,0,0,0,0,0,0,-1,804,1632,-6.82794,-4.34838
-413,-608,-5.41919,5.66138,0,0,0,0,0,0,0,-1,811,1632,-5.41917,-5.66133
-406,-608,-4.79681,4.98999,0,0,0,0,0,0,0,-1,818,1632,-4.79684,-4.98997
-399,-608,-2.60645,6.34167,0,0,0,0,0,0,0,-1,825,1632,-2.60643,-6.34169
-392,-608,2.08356,15.437,0,0,0,0,0,0,0,-1,832,1632,2.08354,-15.437
-385,-608,1.51526,31.5153,0,0,0,0,0,0,0,-1,839,1632,1.51527,-31.5153
-378,-608,1.29742,35.1031,0,0,0,0,0,0,0,-1,846,1632,1.29744,-35.1032
-371,-608,0.785889,36.4497,0,0,0,0,0,0,0,-1,853,1632,0.785914,-36.4497
-364,-608,0.835815,37.3157,0.000925393,-0.00434465,0.00325582,0.00247889,-0.00589814,0.445197,0.00496896,0.0275747,860,1632,0.835801,-37.3156
-357,-608,0.709961,38.1383,0.00115932,-0.00388025,0.00268807,0.00232397,-0.0050449,0.40885,0.00435002,0.0189848,867,1632,0.709947,-38.1383
-350,-608,0.675659,38.9092,0.00142639,-0.00323081,0.00222553,0.00231887,-0.00412329,0.381385,0.0037677,0.0197674,874,1632,0.675681,-38.9092
-343,-608,0.630981,39.6498,0.00166693,-0.00243589,0.00187394,0.002394,-0.00316296,0.370108,0.00321853,0.0267727,881,1632,0.630962,-39.6498
-336,-608,0.566772,40.408,0.00183822,-0.00165144,0.00160311,0.00246286,-0.00227609,0.371547,0.00273674,0.0202419,888,1632,0.566764,-40.408
-329,-608,0.496399,41.1348,0.00208404,-0.000652175,0.00155815,0.00278947,-0.0013576,0.425125,0.00244142,0.018616,895,1632,0.496409,-41.1348
-322,-608,0.472168,41.8059,0.00235072,0.000261649,0.00161094,0.00322613,-0.00061376,0.497773,0.00238184,0.0185025,902,1632,0.472195,-41.8059
-315,-608,0.490784,42.4564,0.00271487,0.00134937,0.00192338,0.00407308,-8.84756e-06,0.614849,0.00271834,0.017107,909,1632,0.49081,-42.4564
-308,-608,0.458496,43.1442,0.0031669,0.00241721,0.00223992,0.00506313,0.000520981,0.702492,0.00321586,0.0169944,916,1632,0.458479,-43.1442
-301,-608,0.436523,43.8269,0.00385519,0.00361879,0.00281835,0.00655782,0.00091616,0.764441,0.00410075,0.0113691,923,1632,0.436516,-43.8269
-294,-608,0.411682,44.489,0.00481037,0.00487078,0.00364371,0.00848441,0.00119673,0.789543,0.00530257,0.0113445,930,1632,0.411676,-44.489
-287,-608,0.372864,45.1808,0.00584389,0.00629136,0.00450735,0.0105805,0.00155472,0.810197,0.0065968,0.0107165,937,1632,0.372853,-45.1808
-280,-608,0.376404,45.837,0.0071729,0.00764858,0.00551472,0.0129306,0.0018909,0.806949,0.00806433,0.00958401,944,1632,0.376379,-45.8371
-273,-608,0.337341,46.5117,0.00867117,0.00900799,0.00655799,0.0153997,0.00227943,0.798236,0.00959734,0.0108464,951,1632,0.337338,-46.5117
-266,-608,0.35553,47.2069,0.0101736,0.0103168,0.00758202,0.0178276,0.00266286,0.790119,0.0111044,0.0110181,958,1632,0.355543,-47.2069
-259,-608,0.391846,47.8593,0.0117764,0.0115197,0.00855341,0.0202024,0.00309371,0.777895,0.0125647,0.016153,965,1632,0.391848,-47.8592
-252,-608,0.485657,48.5225,0.0136541,0.012781,0.00961789,0.0228454,0.00358978,0.762719,0.0141859,0.0308627,972,1632,0.485654,-48.5224
-245,-608,0.689148,49.3473,0.0154208,0.0139706,0.0106071,0.0253275,0.00406386,0.751271,0.0157066,0.0447391,979,1632,0.689172,-49.3473
-238,-608,0.913147,50.1569,0,0,0,0,0,0,0,-1,986,1632,0.913121,-50.1568
-231,-608,0.976563,50.6722,0,0,0,0,0,0,0,-1,993,1632,0.976542,-50.6723
-224,-608,1.37457,49.2592,0,0,0,0,0,0,0,-1,1000,1632,1.3746,-49.2591
-217,-608,1.04419,12.8451,0,0,0,0,0,0,0,-1,1007,1632,1.04418,-12.8451
-210,-608,2.75903,15.9414,0,0,0,0,0,0,0,-1,1014,1632,2.75903,-15.9414
-203,-608,2.76776,16.217,0,0,0,0,0,0,0,-1,1021,1632,2.76773,-16.217
-196,-608,1.53955,18.6058,0,0,0,0,0,0,0,-1,1028,1632,1.53959,-18.6058
-189,-608,1.37634,19.119,0,0,0,0,0,0,0,-1,1035,1632,1.37634,-19.1191
-182,-608,2.89221,16.7092,0,0,0,0,0,0,0,-1,1042,1632,2.89224,-16.7093
-175,-608,0.219116,15.1643,0,0,0,0,0,0,0,-1,1049,1632,0.219173,-15.1644
-168,-608,0.000366211,9.48645,0,0,0,0,0,0,0,-1,1056,1632,0.000317105,-9.48648
-161,-608,2.27832,15.4423,0,0,0,0,0,0,0,-1,1063,1632,2.27826,-15.4423
-154,-608,1.3999,16.4037,0,0,0,0,0,0,0,-1,1070,1632,1.39987,-16.4037
-147,-608,2.4386,9.50317,0,0,0,0,0,0,0,-1,1077,1632,2.43858,-9.50313
-140,-608,2.60132,10.8401,0,0,0,0,0,0,0,-1,1084,1632,2.60134,-10.8401
-133,-608,3.2312,12.4738,0,0,0,0,0,0,0,-1,1091,1632,3.23116,-12.4738
-126,-608,3.76465,13.9644,0,0,0,0,0,0,0,-1,1098,1632,3.76466,-13.9644
-119,-608,4.28906,15.4196,0,0,0,0,0,0,0,-1,1105,1632,4.28911,-15.4195
-112,-608,0.745117,10.5587,0,0,0,0,0,0,0,-1,1112,1632,0.745145,-10.5587
-105,-608,-0.252319,1.42419,0,0,0,0,0,0,0,-1,1119,1632,-0.252331,-1.42418
-98,-608,-2.8595,3.0863,0,0,0,0,0,0,0,-1,1126,1632,-2.85948,-3.08625
-91,-608,-3.71948,1.73608,0,0,0,0,0,0,0,-1,1133,1632,-3.7195,-1.73607
-84,-608,0,0,0,0,0,0,0,0,0,-1,1140,1632,0,0
-77,-608,0,0,0,0,0,0,0,0,0,-1,1147,1632,0,0
-70,-608,0,0,0,0,0,0,0,0,0,-1,1154,1632,0,0
-63,-608,0,0,0,0,0,0,0,0,0,-1,1161,1632,0,0
-56,-608,0,0,0,0,0,0,0,0,0,-1,1168,1632,0,0
-49,-608,0,0,0,0,0,0,0,0,0,-1,1175,1632,0,0
-42,-608,0,0,0,0,0,0,0,0,0,-1,1182,1632,0,0
-35,-608,0,0,0,0,0,0,0,0,0,-1,1189,1632,0,0
-28,-608,0,0,0,0,0,0,0,0,0,-1,1196,1632,0,0
-21,-608,0,0,0,0,0,0,0,0,0,-1,1203,1632,0,0
-14,-608,0,0,0,0,0,0,0,0,0,-1,1210,1632,0,0
-7,-608,0,0,0,0,0,0,0,0,0,-1,1217,1632,0,0
0,-608,0,0,0,0,0,0,0,0,0,-1,1224,1632,0,0
7,-608,0,0,0,0,0,0,0,0,0,-1,1231,1632,0,0
14,-608,0,0,0,0,0,0,0,0,0,-1,1238,1632,0,0
21,-608,0,0,0,0,0,0,0,0,0,-1,1245,1632,0,0
28,-608,0,0,0,0,0,0,0,0,0,-1,1252,1632,0,0
35,-608,0,0,0,0,0,0,0,0,0,-1,1259,1632,0,0
42,-608,0,0,0,0,0,0,0,0,0,-1,1266,1632,0,0
49,-608,0,0,0,0,0,0,0,0,0,-1,1273,1632,0,0
56,-608,0,0,0,0,0,0,0,0,0,-1,1280,1632,0,0
63,-608,0,0,0,0,0,0,0,0,0,-1,1287,1632,0,0
70,-608,0,0,0,0,0,0,0,0,0,-1,1294,1632,0,0
77,-608,0,0,0,0,0,0,0,0,0,-1,1301,1632,0,0
84,-608,0,0,0,0,0,0,0,0,0,-1,1308,1632,0,0
91,-608,0,0,0,0,0,0,0,0,0,-1,1315,1632,0,0
98,-608,0,0,0,0,0,0,0,0,0,-1,1322,1632,0,0
105,-608,0,0,0,0,0,0,0,0,0,-1,1329,1632,0,0
112,-608,0,0,0,0,0,0,0,0,0,-1,1336,1632,0,0
119,-608,0,0,0,0,0,0,0,0,0,-1,1343,1632,0,0
126,-608,0,0,0,0,0,0,0,0,0,-1,1350,1632,0,0
133,-608,0,0,0,0,0,0,0,0,0,-1,1357,1632,0,0
140,-608,0,0,0,0,0,0,0,0,0,-1,1364,1632,0,0
147,-608,0,0,0,0,0,0,0,0,0,-1,1371,1632,0,0
154,-608,0,0,0,0,0,0,0,0,0,-1,1378,1632,0,0
161,-608,0,0,0,0,0,0,0,0,0,-1,1385,1632,0,0
168,-608,0,0,0,0,0,0,0,0,0,-1,1392,1632,0,0
175,-608,0,0,0,0,0,0,0,0,0,-1,1399,1632,0,0
182,-608,0,0,0,0,0,0,0,0,0,-1,1406,1632,0,0
189,-608,0,0,0,0,0,0,0,0,0,-1,1413,1632,0,0
196,-608,0,0,0,0,0,0,0,0,0,-1,1420,1632,0,0
203,-608,0,0,0,0,0,0,0,0,0,-1,1427,1632,0,0
210,-608,5.7157,-0.333008,0,0,0,0,0,0,0,-1,1434,1632,5.71566,0.333004
217,-608,4.49402,-0.831787,0,0,0,0,0,0,0,-1,1441,1632,4.49396,0.831738
224,-608,4.18018,-1.11792,0,0,0,0,0,0,0,-1,1448,1632,4.1802,1.11796
231,-608,0.361816,0.825195,0,0,0,0,0,0,0,-1,1455,1632,0.36185,-0.825226
238,-608,2.85388,-0.28833,0,0,0,0,0,0,0,-1,1462,1632,2.85391,0.288282
245,-608,3.87537,4.02173,0,0,0,0,0,0,0,-1,1469,1632,3.87538,-4.02168
252,-608,5.66956,3.5282,0,0,0,0,0,0,0,-1,1476,1632,5.6696,-3.52815
259,-608,7.47437,3.07178,0,0,0,0,0,0,0,-1,1483,1632,7.4744,-3.07172
266,-608,9.46936,2.34766,0,0,0,0,0,0,0,-1,1490,1632,9.46932,-2.34764
273,-608,6.03003,3.34241,0,0,0,0,0,0,0,-1,1497,1632,6.02997,-3.34245
280,-608,5.72461,2.0769,0,0,0,0,0,0,0,-1,1504,1632,5.72457,-2.07688
287,-608,6.20581,3.59338,0,0,0,0,0,0,0,-1,1511,1632,6.20585,-3.59341
294,-608,6.94922,5.17151,0,0,0,0,0,0,0,-1,1518,1632,6.94925,-5.17151
301,-608,7.60083,6.68018,0,0,0,0,0,0,0,-1,1525,1632,7.60086,-6.68013
308,-608,7.64746,9.93848,0,0,0,0,0,0,0,-1,1532,1632,7.64745,-9.93842
315,-608,5.30688,11.2054,0,0,0,0,0,0,0,-1,1539,1632,5.30694,-11.2054
322,-608,5.32617,13.7581,0,0,0,0,0,0,0,-1,1546,1632,5.32613,-13.758
329,-608,7.12231,13.9607,0,0,0,0,0,0,0,-1,1553,1632,7.12231,-13.9607
336,-608,5.48633,7.82446,0,0,0,0,0,0,0,-1,1560,1632,5.48634,-7.82446
343,-608,5.47192,5.61047,0,0,0,0,0,0,0,-1,1567,1632,5.47192,-5.61045
350,-608,11.6957,1.71387,0,0,0,0,0,0,0,-1,1574,1632,11.6957,-1.71388
357,-608,3.77002,5.10046,0,0,0,0,0,0,0,-1,1581,1632,3.77002,-5.10043
364,-608,16.8198,52.1573,0,0,0,0,0,0,0,-1,1588,1632,16.8199,-52.1573
371,-608,17.4011,49.7462,0,0,0,0,0,0,0,-1,1595,1632,17.4011,-49.7462
378,-608,17.4646,48.8895,0.00959595,0.0393339,-0.015895,0.0462304,0.00269938,-1.16143,0.0299611,0.0400355,1602,1632,17.4646,-48.8895
385,-608,17.5781,48.0645,0.00844593,0.0330804,-0.0135227,0.0390546,0.00247171,-1.15479,0.0252529,0.0335889,1609,1632,17.5781,-48.0644
392,-608,17.3809,47.3043,0.00727579,0.027157,-0.0111926,0.032186,0.00224677,-1.14851,0.020749,0.0223188,1616,1632,17.3808,-47.3043
399,-608,17.3763,46.5988,0.00639197,0.0220463,-0.00921278,0.026308,0.00213031,-1.13753,0.0168735,0.0109662,1623,1632,17.3764,-46.5988
406,-608,17.3997,45.9347,0.00563299,0.0175423,-0.00749872,0.0211631,0.00201222,-1.12096,0.0134881,0.0099181,1630,1632,17.3996,-45.9347
413,-608,17.3732,45.2893,0.00492874,0.0135614,-0.00597801,0.0166185,0.00187164,-1.09808,0.0105108,0.011051,1637,1632,17.3732,-45.2893
420,-608,17.3218,44.6482,0.00425339,0.0103696,-0.00472333,0.0129384,0.0016846,-1.07269,0.00812248,0.0188803,1644,1632,17.3217,-44.6482
427,-608,17.3306,44.0079,0.00359319,0.00775884,-0.00368639,0.00991012,0.00144192,-1.04254,0.00618241,0.0204551,1651,1632,17.3306,-44.0079
434,-608,17.2949,43.3508,0.00306092,0.00518705,-0.00288591,0.00719947,0.0010485,-0.961868,0.00449113,0.0157525,1658,1632,17.2949,-43.3508
441,-608,17.295,42.6815,0.00273323,0.00366789,-0.00236949,0.0056157,0.000785425,-0.882763,0.00351139,0.0139134,1665,1632,17.2951,-42.6816
448,-608,17.2877,42.0223,0.00240583,0.00257285,-0.00201565,0.00450672,0.000471957,-0.806101,0.00286017,0.0152176,1672,1632,17.2877,-42.0223
455,-608,17.2837,41.3108,0.00216611,0.00200265,-0.00202853,0.00411455,5.42023e-05,-0.765264,0.00272515,0.0121454,1679,1632,17.2837,-41.3108
462,-608,17.2419,40.6257,0.00194564,0.0014437,-0.00208211,0.00379185,-0.000402516,-0.725419,0.0026722,0.0124001,1686,1632,17.242,-40.6257
469,-608,17.1864,39.9672,0.00175582,0.00103352,-0.00220785,0.00363186,-0.000842523,-0.704328,0.00274552,0.00941433,1693,1632,17.1864,-39.9672
476,-608,17.1342,39.2891,0.00151133,0.000815711,-0.00234062,0.00352985,-0.0012028,-0.711639,0.00284036,0.00928282,1700,1632,17.1342,-39.289
483,-608,17.1011,38.5836,0.00120963,0.000535051,-0.00255982,0.00345428,-0.00170961,-0.719894,0.00303757,0.00903141,1707,1632,17.1011,-38.5836
490,-608,17.0911,37.8792,0.000758251,0.000323601,-0.00277594,0.00332536,-0.00224351,-0.746333,0.00323535,0.0121904,1714,1632,17.091,-37.8792
497,-608,17.1243,37.1278,0.000185924,0.00026488,-0.00291873,0.0031444,-0.00269359,-0.792161,0.00337391,0.0307179,1721,1632,17.1242,-37.1278
504,-608,17.3309,36.2445,0,0,0,0,0,0,0,-1,1728,1632,17.3309,-36.2445
511,-608,16.8816,35.9323,0,0,0,0,0,0,0,-1,1735,1632,16.8815,-35.9323
518,-608,17.0789,34.6708,0,0,0,0,0,0,0,-1,1742,1632,17.0789,-34.6708
525,-608,11.2109,16.2579,0,0,0,0,0,0,0,-1,1749,1632,11.2109,-16.2579
532,-608,8.27917,11.6693,0,0,0,0,0,0,0,-1,1756,1632,8.27919,-11.6694
539,-608,9.40796,1.43457,0,0,0,0,0,0,0,-1,1763,1632,9.40801,-1.43463
546,-608,9.94031,2.1134,0,0,0,0,0,0,0,-1,1770,1632,9.94031,-2.11346
553,-608,10.363,2.81335,0,0,0,0,0,0,0,-1,1777,1632,10.3631,-2.81333
560,-608,9.23999,4.5636,0,0,0,0,0,0,0,-1,1784,1632,9.24,-4.56354
567,-608,0,0,0,0,0,0,0,0,0,-1,1791,1632,0,0
574,-608,0,0,0,0,0,0,0,0,0,-1,1798,1632,0,0
581,-608,0,0,0,0,0,0,0,0,0,-1,1805,1632,0,0
588,-608,0,0,0,0,0,0,0,0,0,-1,1812,1632,0,0
595,-608,0,0,0,0,0,0,0,0,0,-1,1819,1632,0,0
602,-608,0,0,0,0,0,0,0,0,0,-1,1826,1632,0,0
609,-608,0,0,0,0,0,0,0,0,0,-1,1833,1632,0,0
616,-608,0,0,0,0,0,0,0,0,0,-1,1840,1632,0,0
623,-608,0,0,0,0,0,0,0,0,0,-1,1847,1632,0,0
630,-608,0,0,0,0,0,0,0,0,0,-1,1854,1632,0,0
637,-608,0,0,0,0,0,0,0,0,0,-1,1861,1632,0,0
644,-608,0,0,0,0,0,0,0,0,0,-1,1868,1632,0,0
651,-608,0,0,0,0,0,0,0,0,0,-1,1875,1632,0,0
658,-608,0,0,0,0,0,0,0,0,0,-1,1882,1632,0,0
665,-608,0,0,0,0,0,0,0,0,0,-1,1889,1632,0,0
672,-608,0,0,0,0,0,0,0,0,0,-1,1896,1632,0,0
679,-608,0,0,0,0,0,0,0,0,0,-1,1903,1632,0,0
686,-608,0,0,0,0,0,0,0,0,0,-1,1910,1632,0,0
693,-608,0,0,0,0,0,0,0,0,0,-1,1917,1632,0,0
700,-608,0,0,0,0,0,0,0,0,0,-1,1924,1632,0,0
707,-608,0,0,0,0,0,0,0,0,0,-1,1931,1632,0,0
714,-608,0,0,0,0,0,0,0,0,0,-1,1938,1632,0,0
721,-608,0,0,0,0,0,0,0,0,0,-1,1945,1632,0,0
728,-608,0,0,0,0,0,0,0,0,0,-1,1952,1632,0,0
735,-608,0,0,0,0,0,0,0,0,0,-1,1959,1632,0,0
742,-608,0,0,0,0,0,0,0,0,0,-1,1966,1632,0,0
749,-608,0,0,0,0,0,0,0,0,0,-1,1973,1632,0,0
756,-608,0,0,0,0,0,0,0,0,0,-1,1980,1632,0,0
763,-608,0,0,0,0,0,0,0,0,0,-1,1987,1632,0,0
770,-608,0,0,0,0,0,0,0,0,0,-1,1994,1632,0,0
777,-608,0,0,0,0,0,0,0,0,0,-1,2001,1632,0,0
784,-608,0,0,0,0,0,0,0,0,0,-1,2008,1632,0,0
791,-608,0,0,0,0,0,0,0,0,0,-1,2015,1632,0,0
798,-608,0,0,0,0,0,0,0,0,0,-1,2022,1632,0,0
805,-608,0,0,0,0,0,0,0,0,0,-1,2029,1632,0,0
812,-608,0,0,0,0,0,0,0,0,0,-1,2036,1632,0,0
-700,-615,0,0,0,0,0,0,0,0,0,-1,524,1639,0,0
-693,-615,0,0,0,0,0,0,0,0,0,-1,531,1639,0,0
-686,-615,0,0,0,0,0,0,0,0,0,-1,538,1639,0,0
-679,-615,0,0,0,0,0,0,0,0,0,-1,545,1639,0,0
-672,-615,0,0,0,0,0,0,0,0,0,-1,552,1639,0,0
-665,-615,0,0,0,0,0,0,0,0,0,-1,559,1639,0,0
-658,-615,0,0,0,0,0,0,0,0,0,-1,566,1639,0,0
-651,-615,0,0,0,0,0,0,0,0,0,-1,573,1639,0,0
-644,-615,0,0,0,0,0,0,0,0,0,-1,580,1639,0,0
-637,-615,0,0,0,0,0,0,0,0,0,-1,587,1639,0,0
-630,-615,0,0,0,0,0,0,0,0,0,-1,594,1639,0,0
-623,-615,0,0,0,0,0,0,0,0,0,-1,601,1639,0,0
-616,-615,0,0,0,0,0,0,0,0,0,-1,608,1639,0,0
-609,-615,0,0,0,0,0,0,0,0,0,-1,615,1639,0,0
-602,-615,0,0,0,0,0,0,0,0,0,-1,622,1639,0,0
-595,-615,0,0,0,0,0,0,0,0,0,-1,629,1639,0,0
-588,-615,0,0,0,0,0,0,0,0,0,-1,636,1639,0,0
-581,-615,0,0,0,0,0,0,0,0,0,-1,643,1639,0,0
-574,-615,0,0,0,0,0,0,0,0,0,-1,650,1639,0,0
-567,-615,0,0,0,0,0,0,0,0,0,-1,657,1639,0,0
-560,-615,0,0,0,0,0,0,0,0,0,-1,664,1639,0,0
-553,-615,0,0,0,0,0,0,0,0,0,-1,671,1639,0,0
-546,-615,0,0,0,0,0,0,0,0,0,-1,678,1639,0,0
-539,-615,0,0,0,0,0,0,0,0,0,-1,685,1639,0,0
-532,-615,0,0,0,0,0,0,0,0,0,-1,692,1639,0,0
-525,-615,0,0,0,0,0,0,0,0,0,-1,699,1639,0,0
-518,-615,0,0,0,0,0,0,0,0,0,-1,706,1639,0,0
-511,-615,0,0,0,0,0,0,0,0,0,-1,713,1639,0,0
-504,-615,0,0,0,0,0,0,0,0,0,-1,720,1639,0,0
-497,-615,0,0,0,0,0,0,0,0,0,-1,727,1639,0,0
-490,-615,0,0,0,0,0,0,0,0,0,-1,734,1639,0,0
-483,-615,0,0,0,0,0,0,0,0,0,-1,741,1639,0,0
-476,-615,0,0,0,0,0,0,0,0,0,-1,748,1639,0,0
-469,-615,0,0,0,0,0,0,0,0,0,-1,755,1639,0,0
-462,-615,0,0,0,0,0,0,0,0,0,-1,762,1639,0,0
-455,-615,0,0,0,0,0,0,0,0,0,-1,769,1639,0,0
-448,-615,0,0,0,0,0,0,0,0,0,-1,776,1639,0,0
-441,-615,0,0,0,0,0,0,0,0,0,-1,783,1639,0,0
-434,-615,-7.64508,2.98596,0,0,0,0,0,0,0,-1,790,1639,-7.64505,-2.98594
-427,-615,-9.0011,2.89404,0,0,0,0,0,0,0,-1,797,1639,-9.00107,-2.89399
-420,-615,-8.07568,3.0752,0,0,0,0,0,0,0,-1,804,1639,-8.07569,-3.07514
-413,-615,-7.09149,3.396,0,0,0,0,0,0,0,-1,811,1639,-7.09147,-3.39599
-406,-615,-6.21368,3.7312,0,0,0,0,0,0,0,-1,818,1639,-6.21366,-3.73114
-399,-615,-4.84875,3.91907,0,0,0,0,0,0,0,-1,825,1639,-4.84877,-3.91901
-392,-615,1.7395,13.3127,0,0,0,0,0,0,0,-1,832,1639,1.73953,-13.3128
-385,-615,3.42297,14.9401,0,0,0,0,0,0,0,-1,839,1639,3.42296,-14.94
-378,-615,1.97778,35.4214,0,0,0,0,0,0,0,-1,846,1639,1.97775,-35.4214
-371,-615,1.69427,36.3953,0,0,0,0,0,0,0,-1,853,1639,1.69427,-36.3952
-364,-615,1.43036,37.4467,0.00165089,-0.00571121,0.00393065,0.00335502,-0.00741534,0.409089,0.00636386,0.0369963,860,1639,1.43035,-37.4466
-357,-615,1.46423,38.3712,0.00183419,-0.00508779,0.00326585,0.00313179,-0.0063854,0.378198,0.00560076,0.0375995,867,1639,1.46422,-38.3712
-350,-615,1.37866,39.0448,0.00198429,-0.00418904,0.00283943,0.00309166,-0.0052964,0.371852,0.00489829,0.0362107,874,1639,1.37866,-39.0448
-343,-615,1.33826,39.642,0.00211591,-0.00323879,0.00246134,0.00307537,-0.00419825,0.371693,0.00421608,0.0212318,881,1639,1.33826,-39.642
-336,-615,1.30212,40.3954,0.0021195,-0.00240985,0.00208615,0.00293392,-0.00322427,0.372194,0.00355675,0.0116685,888,1639,1.30213,-40.3954
-329,-615,1.22186,41.1184,0.00213841,-0.00145641,0.00189705,0.00295432,-0.00227232,0.406181,0.00302616,0.0123195,895,1639,1.22188,-41.1184
-322,-615,1.19012,41.8337,0.00217397,-0.000595759,0.00179968,0.00305994,-0.00148173,0.457464,0.00267439,0.0138416,902,1639,1.19012,-41.8337
-315,-615,1.18951,42.5475,0.00229742,0.000347178,0.00190558,0.00346288,-0.000818286,0.548909,0.00262423,0.0168863,909,1639,1.18949,-42.5475
-308,-615,1.13806,43.2236,0.0025334,0.00128914,0.00202115,0.004026,-0.000203469,0.636095,0.00275433,0.0238815,916,1639,1.13807,-43.2236
-301,-615,1.13354,43.8645,0.00297751,0.00232726,0.00236439,0.00503903,0.000265748,0.717072,0.00327437,0.0131632,923,1639,1.13354,-43.8645
-294,-615,1.11316,44.5336,0.00368998,0.0033614,0.00291279,0.00644311,0.00060827,0.757226,0.00410769,0.0104626,930,1639,1.11318,-44.5336
-287,-615,1.05548,45.213,0.00443901,0.0045076,0.00346301,0.00793649,0.00101012,0.79035,0.00498849,0.0077599,937,1639,1.05549,-45.213
-280,-615,1.04987,45.8809,0.00541396,0.00559314,0.00410535,0.00960987,0.00139723,0.796308,0.00599536,0.0106468,944,1639,1.04984,-45.8808
-273,-615,1.01715,46.5425,0.00657528,0.00659681,0.004792,0.0113781,0.00179404,0.786521,0.00706371,0.0128525,951,1639,1.01717,-46.5425
-266,-615,0.987122,47.1796,0.0077503,0.00758203,0.00545836,0.0131252,0.00220716,0.777692,0.00811508,0.0124199,958,1639,0.987144,-47.1795
-259,-615,0.981445,47.8127,0.0090108,0.00852338,0.00608303,0.014855,0.00267918,0.765377,0.00914208,0.0137564,965,1639,0.981467,-47.8127
-252,-615,0.994202,48.5062,0.0104233,0.00949,0.00673984,0.0167126,0.00320069,0.750834,0.0102429,0.0176603,972,1639,0.994187,-48.5062
-245,-615,1.1203,49.3256,0.0117241,0.0103988,0.00743255,0.0185235,0.00359942,0.740937,0.0113412,0.0284417,979,1639,1.12028,-49.3255
-238,-615,1.18164,49.9891,0.0139552,0.0100847,0.00828752,0.0205304,0.00350946,0.670696,0.0126801,0.037239,986,1639,1.18166,-49.9891
-231,-615,1.32672,50.5002,0.016792,0.0100789,0.00961169,0.0236164,0.00325455,0.617409,0.0147793,0.0459941,993,1639,1.32675,-50.5003
-224,-615,1.42621,51.3218,0,0,0,0,0,0,0,-1,1000,1639,1.42621,-51.3218
-217,-615,2.35602,49.8901,0,0,0,0,0,0,0,-1,1007,1639,2.35602,-49.8901
-210,-615,2.48901,18.9324,0,0,0,0,0,0,0,-1,1014,1639,2.48902,-18.9323
-203,-615,2.13684,18.6173,0,0,0,0,0,0,0,-1,1021,1639,2.13683,-18.6173
-196,-615,4.27161,21.3264,0,0,0,0,0,0,0,-1,1028,1639,4.27165,-21.3264
-189,-615,2.48047,51.85,0,0,0,0,0,0,0,-1,1035,1639,2.48045,-51.85
-182,-615,2.98364,52.7119,0,0,0,0,0,0,0,-1,1042,1639,2.9836,-52.7119
-175,-615,2.25159,49.2682,0,0,0,0,0,0,0,-1,1049,1639,2.25158,-49.2682
-168,-615,3.85754,15.472,0,0,0,0,0,0,0,-1,1056,1639,3.85757,-15.472
-161,-615,2.14307,46.5156,0,0,0,0,0,0,0,-1,1063,1639,2.14303,-46.5156
-154,-615,1.37329,47.9545,0,0,0,0,0,0,0,-1,1070,1639,1.37327,-47.9545
-147,-615,0.0180664,48.1396,0,0,0,0,0,0,0,-1,1077,1639,0.0180157,-48.1397
-140,-615,3.73401,10.2349,0,0,0,0,0,0,0,-1,1084,1639,3.73402,-10.2348
-133,-615,2.6178,17.45,0,0,0,0,0,0,0,-1,1091,1639,2.61776,-17.4499
-126,-615,4.43408,12.5017,0,0,0,0,0,0,0,-1,1098,1639,4.43403,-12.5018
-119,-615,4.82983,13.9279,0,0,0,0,0,0,0,-1,1105,1639,4.82986,-13.9278
-112,-615,3.65698,14.4874,0,0,0,0,0,0,0,-1,1112,1639,3.65695,-14.4875
-105,-615,0.958496,2.45398,0,0,0,0,0,0,0,-1,1119,1639,0.958452,-2.45398
-98,-615,-0.647705,2.12109,0,0,0,0,0,0,0,-1,1126,1639,-0.647756,-2.12105
-91,-615,-3.07983,2.97375,0,0,0,0,0,0,0,-1,1133,1639,-3.07989,-2.97376
-84,-615,-2.46509,0.703247,0,0,0,0,0,0,0,-1,1140,1639,-2.46505,-0.703273
-77,-615,-3.17859,1.23755,0,0,0,0,0,0,0,-1,1147,1639,-3.17865,-1.23752
-70,-615,-4.03943,1.43335,0,0,0,0,0,0,0,-1,1154,1639,-4.03942,-1.43339
-63,-615,-4.8877,1.45544,0,0,0,0,0,0,0,-1,1161,1639,-4.88766,-1.45549
-56,-615,0,0,0,0,0,0,0,0,0,-1,1168,1639,0,0
-49,-615,0,0,0,0,0,0,0,0,0,-1,1175,1639,0,0
-42,-615,0,0,0,0,0,0,0,0,0,-1,1182,1639,0,0
-35,-615,0,0,0,0,0,0,0,0,0,-1,1189,1639,0,0
-28,-615,0,0,0,0,0,0,0,0,0,-1,1196,1639,0,0
-21,-615,0,0,0,0,0,0,0,0,0,-1,1203,1639,0,0
-14,-615,0,0,0,0,0,0,0,0,0,-1,1210,1639,0,0
-7,-615,0,0,0,0,0,0,0,0,0,-1,1217,1639,0,0
0,-615,0,0,0,0,0,0,0,0,0,-1,1224,1639,0,0
7,-615,0,0,0,0,0,0,0,0,0,-1,1231,1639,0,0
14,-615,0,0,0,0,0,0,0,0,0,-1,1238,1639,0,0
21,-615,0,0,0,0,0,0,0,0,0,-1,1245,1639,0,0
28,-615,0,0,0,0,0,0,0,0,0,-1,1252,1639,0,0
35,-615,0,0,0,0,0,0,0,0,0,-1,1259,1639,0,0
42,-615,0,0,0,0,0,0,0,0,0,-1,1266,1639,0,0
49,-615,0,0,0,0,0,0,0,0,0,-1,1273,1639,0,0
56,-615,0,0,0,0,0,0,0,0,0,-1,1280,1639,0,0
63,-615,0,0,0,0,0,0,0,0,0,-1,1287,1639,0,0
70,-615,0,0,0,0,0,0,0,0,0,-1,1294,1639,0,0
77,-615,0,0,0,0,0,0,0,0,0,-1,1301,1639,0,0
84,-615,0,0,0,0,0,0,0,0,0,-1,1308,1639,0,0
91,-615,0,0,0,0,0,0,0,0,0,-1,1315,1639,0,0
98,-615,0,0,0,0,0,0,0,0,0,-1,1322,1639,0,0
105,-615,0,0,0,0,0,0,0,0,0,-1,1329,1639,0,0
112,-615,0,0,0,0,0,0,0,0,0,-1,1336,1639,0,0
119,-615,0,0,0,0,0,0,0,0,0,-1,1343,1639,0,0
126,-615,0,0,0,0,0,0,0,0,0,-1,1350,1639,0,0
133,-615,0,0,0,0,0,0,0,0,0,-1,1357,1639,0,0
140,-615,0,0,0,0,0,0,0,0,0,-1,1364,1639,0,0
147,-615,0,0,0,0,0,0,0,0,0,-1,1371,1639,0,0
154,-615,0,0,0,0,0,0,0,0,0,-1,1378,1639,0,0
161,-615,0,0,0,0,0,0,0,0,0,-1,1385,1639,0,0
168,-615,0,0,0,0,0,0,0,0,0,-1,1392,1639,0,0
175,-615,5.39648,-2.00879,0,0,0,0,0,0,0,-1,1399,1639,5.3965,2.00881
182,-615,5.65393,-1.51025,0,0,0,0,0,0,0,-1,1406,1639,5.65388,1.51028
189,-615,5.58972,-1.35608,0,0,0,0,0,0,0,-1,1413,1639,5.58967,1.35607
196,-615,5.49915,-0.693604,0,0,0,0,0,0,0,-1,1420,1639,5.4991,0.693602
203,-615,5.33411,-0.226685,0,0,0,0,0,0,0,-1,1427,1639,5.33414,0.226689
210,-615,5.60278,0.108276,0,0,0,0,0,0,0,-1,1434,1639,5.60284,-0.10831
217,-615,6.26331,-0.307373,0,0,0,0,0,0,0,-1,1441,1639,6.26331,0.307372
224,-615,5.45422,-0.333984,0,0,0,0,0,0,0,-1,1448,1639,5.45422,0.333992
231,-615,4.92542,1.80298,0,0,0,0,0,0,0,-1,1455,1639,4.92537,-1.80297
238,-615,4.76355,1.96729,0,0,0,0,0,0,0,-1,1462,1639,4.76357,-1.96734
245,-615,4.08643,3.15906,0,0,0,0,0,0,0,-1,1469,1639,4.08638,-3.159
252,-615,6.37805,3.73889,0,0,0,0,0,0,0,-1,1476,1639,6.37806,-3.73891
259,-615,8.35974,3.16443,0,0,0,0,0,0,0,-1,1483,1639,8.35975,-3.16444
266,-615,10.3414,2.58997,0,0,0,0,0,0,0,-1,1490,1639,10.3414,-2.58996
273,-615,6.57043,1.84766,0,0,0,0,0,0,0,-1,1497,1639,6.5704,-1.84771
280,-615,7.10449,3.23438,0,0,0,0,0,0,0,-1,1504,1639,7.10447,-3.23435
287,-615,7.35779,4.68542,0,0,0,0,0,0,0,-1,1511,1639,7.35776,-4.68546
294,-615,7.63733,6.29114,0,0,0,0,0,0,0,-1,1518,1639,7.63735,-6.29109
301,-615,8.47925,11.452,0,0,0,0,0,0,0,-1,1525,1639,8.47922,-11.452
308,-615,6.8114,10.9059,0,0,0,0,0,0,0,-1,1532,1639,6.81137,-10.9058
315,-615,5.1427,14.7251,0,0,0,0,0,0,0,-1,1539,1639,5.14269,-14.7251
322,-615,7.17981,17.6864,0,0,0,0,0,0,0,-1,1546,1639,7.17985,-17.6864
329,-615,7.62134,20.4354,0,0,0,0,0,0,0,-1,1553,1639,7.62139,-20.4354
336,-615,6.45007,14.1138,0,0,0,0,0,0,0,-1,1560,1639,6.45011,-14.1138
343,-615,2.40491,6.50134,0,0,0,0,0,0,0,-1,1567,1639,2.40489,-6.50137
350,-615,15.046,46.4662,0,0,0,0,0,0,0,-1,1574,1639,15.046,-46.4662
357,-615,16.7203,50.8383,0,0,0,0,0,0,0,-1,1581,1639,16.7203,-50.8382
364,-615,16.5211,50.1686,0,0,0,0,0,0,0,-1,1588,1639,16.5211,-50.1685
371,-615,16.5177,49.4843,0.00830372,0.0334579,-0.0128219,0.0388414,0.00292021,-1.17328,0.0249778,0.0409611,1595,1639,16.5177,-49.4842
378,-615,16.7306,48.5271,0.00753702,0.0293086,-0.011363,0.0341587,0.00268693,-1.16737,0.0219318,0.0198392,1602,1639,16.7306,-48.5271
385,-615,16.7538,47.8473,0.00666857,0.0249339,-0.00978885,0.0291888,0.00241367,-1.16077,0.0187066,0.0125451,1609,1639,16.7538,-47.8473
392,-615,16.7605,47.2205,0.0057828,0.0207066,-0.00822297,0.0243487,0.00214078,-1.15386,0.015568,0.0114277,1616,1639,16.7605,-47.2205
399,-615,16.7458,46.6011,0.005077,0.0169194,-0.00687034,0.020068,0.00192835,-1.14106,0.0127845,0.0124271,1623,1639,16.7458,-46.6011
406,-615,16.7274,45.9673,0.004462,0.0134901,-0.00567225,0.0162253,0.00172684,-1.12149,0.0102897,0.0121285,1630,1639,16.7274,-45.9673
413,-615,16.7147,45.3391,0.0039114,0.0104396,-0.00458278,0.0128019,0.00154912,-1.09485,0.00806796,0.0132655,1637,1639,16.7147,-45.3392
420,-615,16.6879,44.7021,0.0034274,0.00793469,-0.00368698,0.0100022,0.00135985,-1.05972,0.00626427,0.0145695,1644,1639,16.6878,-44.7022
427,-615,16.6702,44.0458,0.00291725,0.00585037,-0.00294142,0.00767057,0.00109705,-1.01666,0.00479009,0.0158715,1651,1639,16.6701,-44.0457
434,-615,16.6594,43.3835,0.00251349,0.00389601,-0.00241888,0.00572046,0.000689036,-0.924577,0.00360597,0.0148523,1658,1639,16.6595,-43.3836
441,-615,16.6515,42.7048,0.00229036,0.00275097,-0.00213008,0.00466316,0.000378169,-0.83925,0.0029907,0.0148881,1665,1639,16.6515,-42.7049
448,-615,16.6392,42.0421,0.00213766,0.00198957,-0.00202632,0.00409129,3.59383e-05,-0.767136,0.00271563,0.0148538,1672,1639,16.6391,-42.0421
455,-615,16.6273,41.3602,0.00203827,0.00157726,-0.00217297,0.00399292,-0.000377398,-0.732557,0.00279625,0.0140666,1679,1639,16.6273,-41.3602
462,-615,16.5747,40.6997,0.00190074,0.00114445,-0.00233173,0.00388479,-0.000839598,-0.705012,0.00291038,0.0149879,1686,1639,16.5748,-40.6997
469,-615,16.5126,40.0065,0.00184088,0.000893488,-0.00258091,0.00399121,-0.00125684,-0.694639,0.00316408,0.0125646,1693,1639,16.5125,-40.0064
476,-615,16.4877,39.2998,0.00176643,0.000798089,-0.00281383,0.00413744,-0.00157292,-0.700199,0.0034059,0.0122444,1700,1639,16.4876,-39.2998
483,-615,16.5085,38.5133,0.00163867,0.00062742,-0.00317048,0.00434359,-0.0020775,-0.706325,0.00378339,0.0311899,1707,1639,16.5086,-38.5133
490,-615,16.5038,37.7343,0,0,0,0,0,0,0,-1,1714,1639,16.5037,-37.7343
497,-615,16.5454,36.9725,0,0,0,0,0,0,0,-1,1721,1639,16.5454,-36.9725
504,-615,16.4989,34.738,0,0,0,0,0,0,0,-1,1728,1639,16.4989,-34.738
511,-615,15.2349,30.2052,0,0,0,0,0,0,0,-1,1735,1639,15.2348,-30.2052
518,-615,13.2416,9.81812,0,0,0,0,0,0,0,-1,1742,1639,13.2416,-9.81813
525,-615,4.37524,3.90491,0,0,0,0,0,0,0,-1,1749,1639,4.37518,-3.90495
532,-615,7.3645,0.848145,0,0,0,0,0,0,0,-1,1756,1639,7.36451,-0.848093
539,-615,12.8112,-0.0476074,0,0,0,0,0,0,0,-1,1763,1639,12.8111,0.0475553
546,-615,8.33813,2.94556,0,0,0,0,0,0,0,-1,1770,1639,8.33813,-2.9455
553,-615,5.82532,-2.04199,0,0,0,0,0,0,0,-1,1777,1639,5.82534,2.04195
560,-615,0,0,0,0,0,0,0,0,0,-1,1784,1639,0,0
567,-615,0,0,0,0,0,0,0,0,0,-1,1791,1639,0,0
574,-615,0,0,0,0,0,0,0,0,0,-1,1798,1639,0,0
581,-615,0,0,0,0,0,0,0,0,0,-1,1805,1639,0,0
588,-615,0,0,0,0,0,0,0,0,0,-1,1812,1639,0,0
595,-615,0,0,0,0,0,0,0,0,0,-1,1819,1639,0,0
602,-615,0,0,0,0,0,0,0,0,0,-1,1826,1639,0,0
609,-615,0,0,0,0,0,0,0,0,0,-1,1833,1639,0,0
616,-615,0,0,0,0,0,0,0,0,0,-1,1840,1639,0,0
623,-615,0,0,0,0,0,0,0,0,0,-1,1847,1639,0,0
630,-615,0,0,0,0,0,0,0,0,0,-1,1854,1639,0,0
637,-615,0,0,0,0,0,0,0,0,0,-1,1861,1639,0,0
644,-615,0,0,0,0,0,0,0,0,0,-1,1868,1639,0,0
651,-615,0,0,0,0,0,0,0,0,0,-1,1875,1639,0,0
658,-615,0,0,0,0,0,0,0,0,0,-1,1882,1639,0,0
665,-615,0,0,0,0,0,0,0,0,0,-1,1889,1639,0,0
672,-615,0,0,0,0,0,0,0,0,0,-1,1896,1639,0,0
679,-615,0,0,0,0,0,0,0,0,0,-1,1903,1639,0,0
686,-615,0,0,0,0,0,0,0,0,0,-1,1910,1639,0,0
693,-615,0,0,0,0,0,0,0,0,0,-1,1917,1639,0,0
700,-615,0,0,0,0,0,0,0,0,0,-1,1924,1639,0,0
707,-615,0,0,0,0,0,0,0,0,0,-1,1931,1639,0,0
714,-615,0,0,0,0,0,0,0,0,0,-1,1938,1639,0,0
721,-615,0,0,0,0,0,0,0,0,0,-1,1945,1639,0,0
728,-615,0,0,0,0,0,0,0,0,0,-1,1952,1639,0,0
735,-615,0,0,0,0,0,0,0,0,0,-1,1959,1639,0,0
742,-615,0,0,0,0,0,0,0,0,0,-1,1966,1639,0,0
749,-615,0,0,0,0,0,0,0,0,0,-1,1973,1639,0,0
756,-615,0,0,0,0,0,0,0,0,0,-1,1980,1639,0,0
763,-615,0,0,0,0,0,0,0,0,0,-1,1987,1639,0,0
770,-615,0,0,0,0,0,0,0,0,0,-1,1994,1639,0,0
777,-615,0,0,0,0,0,0,0,0,0,-1,2001,1639,0,0
784,-615,0,0,0,0,0,0,0,0,0,-1,2008,1639,0,0
791,-615,0,0,0,0,0,0,0,0,0,-1,2015,1639,0,0
798,-615,0,0,0,0,0,0,0,0,0,-1,2022,1639,0,0
805,-615,0,0,0,0,0,0,0,0,0,-1,2029,1639,0,0
812,-615,0,0,0,0,0,0,0,0,0,-1,2036,1639,0,0
-700,-622,0,0,0,0,0,0,0,0,0,-1,524,1646,0,0
-693,-622,0,0,0,0,0,0,0,0,0,-1,531,1646,0,0
-686,-622,0,0,0,0,0,0,0,0,0,-1,538,1646,0,0
-679,-622,0,0,0,0,0,0,0,0,0,-1,545,1646,0,0
-672,-622,0,0,0,0,0,0,0,0,0,-1,552,1646,0,0
-665,-622,0,0,0,0,0,0,0,0,0,-1,559,1646,0,0
-658,-622,0,0,0,0,0,0,0,0,0,-1,566,1646,0,0
-651,-622,0,0,0,0,0,0,0,0,0,-1,573,1646,0,0
-644,-622,0,0,0,0,0,0,0,0,0,-1,580,1646,0,0
-637,-622,0,0,0,0,0,0,0,0,0,-1,587,1646,0,0
-630,-622,0,0,0,0,0,0,0,0,0,-1,594,1646,0,0
-623,-622,0,0,0,0,0,0,0,0,0,-1,601,1646,0,0
-616,-622,0,0,0,0,0,0,0,0,0,-1,608,1646,0,0
-609,-622,0,0,0,0,0,0,0,0,0,-1,615,1646,0,0
-602,-622,0,0,0,0,0,0,0,0,0,-1,622,1646,0,0
-595,-622,0,0,0,0,0,0,0,0,0,-1,629,1646,0,0
-588,-622,0,0,0,0,0,0,0,0,0,-1,636,1646,0,0
-581,-622,0,0,0,0,0,0,0,0,0,-1,643,1646,0,0
-574,-622,0,0,0,0,0,0,0,0,0,-1,650,1646,0,0
-567,-622,0,0,0,0,0,0,0,0,0,-1,657,1646,0,0
-560,-622,0,0,0,0,0,0,0,0,0,-1,664,1646,0,0
-553,-622,0,0,0,0,0,0,0,0,0,-1,671,1646,0,0
-546,-622,0,0,0,0,0,0,0,0,0,-1,678,1646,0,0
-539,-622,0,0,0,0,0,0,0,0,0,-1,685,1646,0,0
-532,-622,0,0,0,0,0,0,0,0,0,-1,692,1646,0,0
-525,-622,0,0,0,0,0,0,0,0,0,-1,699,1646,0,0
-518,-622,0,0,0,0,0,0,0,0,0,-1,706,1646,0,0
-511,-622,0,0,0,0,0,0,0,0,0,-1,713,1646,0,0
-504,-622,0,0,0,0,0,0,0,0,0,-1,720,1646,0,0
-497,-622,0,0,0,0,0,0,0,0,0,-1,727,1646,0,0
-490,-622,0,0,0,0,0,0,0,0,0,-1,734,1646,0,0
-483,-622,0,0,0,0,0,0,0,0,0,-1,741,1646,0,0
-476,-622,0,0,0,0,0,0,0,0,0,-1,748,1646,0,0
-469,-622,0,0,0,0,0,0,0,0,0,-1,755,1646,0,0
-462,-622,0,0,0,0,0,0,0,0,0,-1,762,1646,0,0
-455,-622,0,0,0,0,0,0,0,0,0,-1,769,1646,0,0
-448,-622,0,0,0,0,0,0,0,0,0,-1,776,1646,0,0
-441,-622,0,0,0,0,0,0,0,0,0,-1,783,1646,0,0
-434,-622,0,0,0,0,0,0,0,0,0,-1,790,1646,0,0
-427,-622,-7.62891,3.48096,0,0,0,0,0,0,0,-1,797,1646,-7.62892,-3.48092
-420,-622,-9.35791,1.77185,0,0,0,0,0,0,0,-1,804,1646,-9.35789,-1.77183
-413,-622,-8.46075,1.96777,0,0,0,0,0,0,0,-1,811,1646,-8.46074,-1.96774
-406,-622,-4.44318,2.16858,0,0,0,0,0,0,0,-1,818,1646,-4.44315,-2.16859
-399,-622,-7.06976,1.51001,0,0,0,0,0,0,0,-1,825,1646,-7.06976,-1.51005
-392,-622,3.89551,5.85376,0,0,0,0,0,0,0,-1,832,1646,3.8955,-5.85379
-385,-622,2.00543,14.0448,0,0,0,0,0,0,0,-1,839,1646,2.00544,-14.0448
-378,-622,1.49036,15.3436,0,0,0,0,0,0,0,-1,846,1646,1.49033,-15.3436
-371,-622,2.01312,36.1357,0,0,0,0,0,0,0,-1,853,1646,2.01314,-36.1358
-364,-622,1.81598,37.3185,0,0,0,0,0,0,0,-1,860,1646,1.81597,-37.3185
-357,-622,1.9657,38.2668,0,0,0,0,0,0,0,-1,867,1646,1.9657,-38.2668
-350,-622,2.06561,39.1277,0.00328741,-0.00531652,0.00366628,0.00463775,-0.00666686,0.352895,0.00656167,0.0477432,874,1646,2.06562,-39.1276
-343,-622,1.8974,39.7885,0.00342959,-0.00402585,0.0034244,0.00476374,-0.00535999,0.371507,0.00584831,0.028374,881,1646,1.89738,-39.7885
-336,-622,1.98608,40.4087,0.00330089,-0.00303432,0.00298885,0.00448839,-0.00422182,0.378185,0.00502963,0.0101986,888,1646,1.98609,-40.4087
-329,-622,1.92706,41.1219,0.00306654,-0.00202504,0.00268934,0.00422394,-0.00318244,0.406406,0.00429014,0.00911624,895,1646,1.92704,-41.1219
-322,-622,1.88953,41.8365,0.00285669,-0.0011417,0.00248473,0.00404665,-0.00233166,0.446631,0.00372662,0.0111428,902,1646,1.88955,-41.8365
-315,-622,1.86908,42.545,0.00271864,-0.000295903,0.00240263,0.00404765,-0.00162491,0.505257,0.00337316,0.0154163,909,1646,1.86909,-42.545
-308,-622,1.83966,43.219,0.00269738,0.000551005,0.00233359,0.00419272,-0.000944342,0.569875,0.00315736,0.0155177,916,1646,1.83965,-43.2189
-301,-622,1.81964,43.8857,0.00283469,0.00143964,0.00244398,0.00467874,-0.000404412,0.646392,0.00326233,0.0145078,923,1646,1.81967,-43.8857
-294,-622,1.76514,44.5729,0.00322566,0.00226488,0.00271391,0.00550137,-1.08329e-05,0.6978,0.0036712,0.0106966,930,1646,1.76511,-44.5729
-287,-622,1.73096,45.23,0.00361705,0.00315365,0.00297121,0.00636559,0.000405118,0.746486,0.00411534,0.00770773,937,1646,1.73096,-45.2299
-280,-622,1.70062,45.8826,0.00417281,0.00399157,0.00327921,0.00736265,0.000801728,0.771584,0.00466422,0.00971685,944,1646,1.70065,-45.8825
-273,-622,1.6825,46.5001,0.00495312,0.00469005,0.00365728,0.00848123,0.00116194,0.767423,0.00530939,0.0158079,951,1646,1.68247,-46.5001
-266,-622,1.63812,47.1458,0.0057792,0.00541204,0.0040302,0.00963,0.00156124,0.762638,0.00596805,0.015228,958,1646,1.63814,-47.1458
-259,-622,1.63538,47.8345,0.00669933,0.00613028,0.00437517,0.0107992,0.00203039,0.752928,0.00662718,0.0130241,965,1646,1.63536,-47.8344
-252,-622,1.62634,48.4512,0.00771593,0.00685766,0.00472425,0.0120305,0.0025431,0.740104,0.00732137,0.0125449,972,1646,1.62634,-48.4512
-245,-622,1.67169,49.0991,0.00874059,0.00755031,0.00517443,0.013354,0.0029369,0.728142,0.00810309,0.0113701,979,1646,1.6717,-49.0991
-238,-622,1.65759,49.7401,0.0105899,0.00720748,0.00574152,0.0148841,0.00291327,0.64217,0.0091083,0.0138975,986,1646,1.65757,-49.7401
-231,-622,1.69458,50.4323,0.0128972,0.00719543,0.00664481,0.0172769,0.00281575,0.582755,0.0107035,0.0221632,993,1646,1.6946,-50.4322
-224,-622,1.80597,51.0059,0.0144058,0.00654866,0.00714466,0.0186307,0.00232371,0.534031,0.0117229,0.0332548,1000,1646,1.80599,-51.0058
-217,-622,1.92743,51.5964,0,0,0,0,0,0,0,-1,1007,1646,1.92743,-51.5964
-210,-622,2.57385,50.8997,0,0,0,0,0,0,0,-1,1014,1646,2.57384,-50.8997
-203,-622,4.21375,20.9574,0,0,0,0,0,0,0,-1,1021,1646,4.21375,-20.9574
-196,-622,2.72803,52.0175,0,0,0,0,0,0,0,-1,1028,1646,2.72803,-52.0175
-189,-622,1.92603,53.1321,0,0,0,0,0,0,0,-1,1035,1646,1.92609,-53.1321
-182,-622,2.41418,54.7189,0,0,0,0,0,0,0,-1,1042,1646,2.41414,-54.7189
-175,-622,3.61438,53.5428,0,0,0,0,0,0,0,-1,1049,1646,3.61438,-53.5428
-168,-622,3.44849,53.4453,0,0,0,0,0,0,0,-1,1056,1646,3.44848,-53.4453
-161,-622,2.79761,52.5291,0,0,0,0,0,0,0,-1,1063,1646,2.79756,-52.529
-154,-622,2.00879,52.2384,0,0,0,0,0,0,0,-1,1070,1646,2.00874,-52.2384
-147,-622,0.939453,52.2694,0,0,0,0,0,0,0,-1,1077,1646,0.939511,-52.2694
-140,-622,0.546997,48.6783,0,0,0,0,0,0,0,-1,1084,1646,0.547022,-48.6784
-133,-622,3.09644,17.677,0,0,0,0,0,0,0,-1,1091,1646,3.09638,-17.677
-126,-622,3.5061,19.5251,0,0,0,0,0,0,0,-1,1098,1646,3.50616,-19.5252
-119,-622,4.06384,13.1715,0,0,0,0,0,0,0,-1,1105,1646,4.06379,-13.1716
-112,-622,4.33276,14.6605,0,0,0,0,0,0,0,-1,1112,1646,4.33281,-14.6605
-105,-622,0.306519,4.38159,0,0,0,0,0,0,0,-1,1119,1646,0.306536,-4.38159
-98,-622,-0.510376,3.5033,0,0,0,0,0,0,0,-1,1126,1646,-0.510393,-3.50324
-91,-622,-1.146,0.975952,0,0,0,0,0,0,0,-1,1133,1646,-1.14599,-0.97597
-84,-622,-2.04895,1.31787,0,0,0,0,0,0,0,-1,1140,1646,-2.0489,-1.31781
-77,-622,-1.80627,0.332275,0,0,0,0,0,0,0,-1,1147,1646,-1.80622,-0.33223
-70,-622,-3.65588,2.28149,0,0,0,0,0,0,0,-1,1154,1646,-3.65589,-2.28155
-63,-622,-2.49683,1.27087,0,0,0,0,0,0,0,-1,1161,1646,-2.49679,-1.27093
-56,-622,-2.44238,-0.575562,0,0,0,0,0,0,0,-1,1168,1646,-2.44242,0.575508
-49,-622,-2.41089,1.38818,0,0,0,0,0,0,0,-1,1175,1646,-2.41088,-1.38815
-42,-622,-2.71497,2.85242,0,0,0,0,0,0,0,-1,1182,1646,-2.71491,-2.85247
-35,-622,-3.0177,4.25842,0,0,0,0,0,0,0,-1,1189,1646,-3.01773,-4.25838
-28,-622,-0.896606,0.678833,0,0,0,0,0,0,0,-1,1196,1646,-0.89661,-0.678835
-21,-622,16.4141,36.2849,0,0,0,0,0,0,0,-1,1203,1646,16.4141,-36.285
-14,-622,7.23254,64.425,0,0,0,0,0,0,0,-1,1210,1646,7.23256,-64.425
-7,-622,8.7146,65.0078,0,0,0,0,0,0,0,-1,1217,1646,8.71455,-65.0078
0,-622,0,0,0,0,0,0,0,0,0,-1,1224,1646,0,0
7,-622,0,0,0,0,0,0,0,0,0,-1,1231,1646,0,0
14,-622,0,0,0,0,0,0,0,0,0,-1,1238,1646,0,0
21,-622,0,0,0,0,0,0,0,0,0,-1,1245,1646,0,0
28,-622,0,0,0,0,0,0,0,0,0,-1,1252,1646,0,0
35,-622,0,0,0,0,0,0,0,0,0,-1,1259,1646,0,0
42,-622,0,0,0,0,0,0,0,0,0,-1,1266,1646,0,0
49,-622,0,0,0,0,0,0,0,0,0,-1,1273,1646,0,0
56,-622,0,0,0,0,0,0,0,0,0,-1,1280,1646,0,0
63,-622,0,0,0,0,0,0,0,0,0,-1,1287,1646,0,0
70,-622,0,0,0,0,0,0,0,0,0,-1,1294,1646,0,0
77,-622,0,0,0,0,0,0,0,0,0,-1,1301,1646,0,0
84,-622,0,0,0,0,0,0,0,0,0,-1,1308,1646,0,0
91,-622,0,0,0,0,0,0,0,0,0,-1,1315,1646,0,0
98,-622,0,0,0,0,0,0,0,0,0,-1,1322,1646,0,0
105,-622,0,0,0,0,0,0,0,0,0,-1,1329,1646,0,0
112,-622,0,0,0,0,0,0,0,0,0,-1,1336,1646,0,0
119,-622,0,0,0,0,0,0,0,0,0,-1,1343,1646,0,0
126,-622,7.90308,62.1908,0,0,0,0,0,0,0,-1,1350,1646,7.9031,-62.1908
133,-622,8.50854,62.1122,0,0,0,0,0,0,0,-1,1357,1646,8.50856,-62.1122
140,-622,1.57654,69.812,0,0,0,0,0,0,0,-1,1364,1646,1.57654,-69.812
147,-622,21.0071,78.3402,0,0,0,0,0,0,0,-1,1371,1646,21.0071,-78.3402
154,-622,2.5271,52.655,0,0,0,0,0,0,0,-1,1378,1646,2.52706,-52.655
161,-622,10.6884,6.46448,0,0,0,0,0,0,0,-1,1385,1646,10.6883,-6.46442
168,-622,12.2402,5.18091,0,0,0,0,0,0,0,-1,1392,1646,12.2403,-5.1809
175,-622,5.64355,-1.77075,0,0,0,0,0,0,0,-1,1399,1646,5.64351,1.77077
182,-622,5.88586,-1.32251,0,0,0,0,0,0,0,-1,1406,1646,5.88587,1.32256
189,-622,5.97986,-1.18005,0,0,0,0,0,0,0,-1,1413,1646,5.97986,1.18003
196,-622,5.85022,-0.244507,0,0,0,0,0,0,0,-1,1420,1646,5.85026,0.244478
203,-622,5.25159,0.138794,0,0,0,0,0,0,0,-1,1427,1646,5.25162,-0.138822
210,-622,6.66833,0.0397949,0,0,0,0,0,0,0,-1,1434,1646,6.6684,-0.0398278
217,-622,6.12061,0.0506592,0,0,0,0,0,0,0,-1,1441,1646,6.12058,-0.0507181
224,-622,5.57275,0.0616455,0,0,0,0,0,0,0,-1,1448,1646,5.57276,-0.0616084
231,-622,5.31348,1.3949,0,0,0,0,0,0,0,-1,1455,1646,5.31342,-1.39495
238,-622,3.76477,2.90686,0,0,0,0,0,0,0,-1,1462,1646,3.7648,-2.90686
245,-622,5.13794,2.67993,0,0,0,0,0,0,0,-1,1469,1646,5.13796,-2.67992
252,-622,6.66528,2.53992,0,0,0,0,0,0,0,-1,1476,1646,6.66522,-2.53991
259,-622,8.93787,3.31458,0,0,0,0,0,0,0,-1,1483,1646,8.93791,-3.31454
266,-622,5.72644,3.11926,0,0,0,0,0,0,0,-1,1490,1646,5.72647,-3.1192
273,-622,7.28076,3.61218,0,0,0,0,0,0,0,-1,1497,1646,7.28071,-3.61212
280,-622,8.43127,4.4447,0,0,0,0,0,0,0,-1,1504,1646,8.43123,-4.44467
287,-622,8.60315,5.94617,0,0,0,0,0,0,0,-1,1511,1646,8.60319,-5.94622
294,-622,7.62756,11.5143,0,0,0,0,0,0,0,-1,1518,1646,7.62762,-11.5143
301,-622,7.36548,11.6569,0,0,0,0,0,0,0,-1,1525,1646,7.36549,-11.6569
308,-622,7.10339,11.7994,0,0,0,0,0,0,0,-1,1532,1646,7.10335,-11.7995
315,-622,8.28687,16.5842,0,0,0,0,0,0,0,-1,1539,1646,8.28689,-16.5843
322,-622,7.43689,20.5786,0,0,0,0,0,0,0,-1,1546,1646,7.43685,-20.5786
329,-622,9.76477,26.4202,0,0,0,0,0,0,0,-1,1553,1646,9.7648,-26.4202
336,-622,10.4526,28.8552,0,0,0,0,0,0,0,-1,1560,1646,10.4526,-28.8552
343,-622,15.1061,49.1334,0,0,0,0,0,0,0,-1,1567,1646,15.1061,-49.1335
350,-622,16.2445,51.0806,0,0,0,0,0,0,0,-1,1574,1646,16.2445,-51.0805
357,-622,16.1631,50.5782,0.00774359,0.0290508,-0.0104554,0.0333242,0.00347026,-1.18279,0.0211545,0.0421219,1581,1646,16.1631,-50.5782
364,-622,16.0546,49.9161,0.00704681,0.0268939,-0.00977487,0.0308996,0.00304107,-1.18187,0.0196646,0.0332473,1588,1646,16.0546,-49.9161
371,-622,16.0681,49.1823,0.00652186,0.0242623,-0.00895939,0.0279997,0.00278448,-1.1756,0.017811,0.0210999,1595,1646,16.0681,-49.1823
378,-622,16.1241,48.5046,0.00590326,0.0214474,-0.00804342,0.0248602,0.00249045,-1.16952,0.0158089,0.0126232,1602,1646,16.1241,-48.5047
385,-622,16.1327,47.847,0.00524553,0.0183826,-0.00702338,0.0214304,0.00219774,-1.16137,0.0136136,0.0102398,1609,1646,16.1327,-47.8471
392,-622,16.1122,47.2424,0.00458174,0.0153876,-0.00601705,0.0180715,0.00189785,-1.15123,0.0114675,0.0114281,1616,1646,16.1122,-47.2424
399,-622,16.079,46.6285,0.00401273,0.0126076,-0.00512719,0.0150001,0.00162017,-1.13419,0.00950617,0.0121098,1623,1646,16.079,-46.6285
406,-622,16.052,45.9785,0.00351631,0.0100302,-0.00432717,0.0121891,0.00135733,-1.108,0.00771356,0.0148345,1630,1646,16.052,-45.9785
413,-622,16.0541,45.326,0.00308982,0.007761,-0.00358133,0.00970102,0.00114979,-1.07434,0.00612019,0.0163943,1637,1646,16.0541,-45.3261
420,-622,16.038,44.7268,0.00276785,0.00585947,-0.00298256,0.00767301,0.000954314,-1.02448,0.00482877,0.0170236,1644,1646,16.038,-44.7268
427,-622,16.0135,44.0599,0.00241411,0.00428097,-0.00250458,0.00602041,0.000674668,-0.96377,0.00380869,0.0138637,1651,1646,16.0136,-44.0599
434,-622,16.0082,43.3734,0.00214614,0.00292195,-0.00222686,0.00479444,0.000273654,-0.87163,0.00310909,0.0145268,1658,1646,16.0082,-43.3735
441,-622,15.9823,42.7122,0.00202351,0.00215014,-0.00213763,0.00422539,-5.17422e-05,-0.800204,0.00283433,0.0160642,1665,1646,15.9823,-42.7122
448,-622,15.9471,42.0719,0.00202836,0.00171607,-0.00224843,0.00412606,-0.000381631,-0.750731,0.00288634,0.0148219,1672,1646,15.9471,-42.0719
455,-622,15.9133,41.3905,0.00207396,0.00146524,-0.00250833,0.00429633,-0.000757126,-0.725024,0.0031471,0.0160832,1679,1646,15.9133,-41.3904
462,-622,15.8878,40.7206,0.00205172,0.00116279,-0.00276651,0.00440925,-0.00119473,-0.705749,0.00340827,0.0175263,1686,1646,15.8878,-40.7206
469,-622,15.84,40.0493,0.00215439,0.00108241,-0.00314623,0.00480996,-0.00157316,-0.701029,0.00383999,0.019749,1693,1646,15.8399,-40.0493
476,-622,15.9482,39.3293,0.00229257,0.00111467,-0.00348986,0.00524283,-0.00183559,-0.701806,0.00424161,0.0386945,1700,1646,15.9483,-39.3294
483,-622,16.0759,38.4839,0,0,0,0,0,0,0,-1,1707,1646,16.076,-38.4839
490,-622,15.8815,36.627,0,0,0,0,0,0,0,-1,1714,1646,15.8814,-36.6269
497,-622,14.9666,32.1024,0,0,0,0,0,0,0,-1,1721,1646,14.9665,-32.1024
504,-622,10.8306,19.8021,0,0,0,0,0,0,0,-1,1728,1646,10.8306,-19.8022
511,-622,5.29004,4.14587,0,0,0,0,0,0,0,-1,1735,1646,5.29008,-4.14589
518,-622,5.6001,1.55359,0,0,0,0,0,0,0,-1,1742,1646,5.60015,-1.5536
525,-622,5.83093,2.01807,0,0,0,0,0,0,0,-1,1749,1646,5.83097,-2.01802
532,-622,5.44202,0.57373,0,0,0,0,0,0,0,-1,1756,1646,5.44196,-0.573705
539,-622,9.32129,1.06116,0,0,0,0,0,0,0,-1,1763,1646,9.32131,-1.0612
546,-622,6.50977,-3.45618,0,0,0,0,0,0,0,-1,1770,1646,6.50981,3.4562
553,-622,0,0,0,0,0,0,0,0,0,-1,1777,1646,0,0
560,-622,0,0,0,0,0,0,0,0,0,-1,1784,1646,0,0
567,-622,0,0,0,0,0,0,0,0,0,-1,1791,1646,0,0
574,-622,0,0,0,0,0,0,0,0,0,-1,1798,1646,0,0
581,-622,0,0,0,0,0,0,0,0,0,-1,1805,1646,0,0
588,-622,0,0,0,0,0,0,0,0,0,-1,1812,1646,0,0
595,-622,0,0,0,0,0,0,0,0,0,-1,1819,1646,0,0
602,-622,0,0,0,0,0,0,0,0,0,-1,1826,1646,0,0
609,-622,0,0,0,0,0,0,0,0,0,-1,1833,1646,0,0
616,-622,0,0,0,0,0,0,0,0,0,-1,1840,1646,0,0
623,-622,0,0,0,0,0,0,0,0,0,-1,1847,1646,0,0
630,-622,0,0,0,0,0,0,0,0,0,-1,1854,1646,0,0
637,-622,0,0,0,0,0,0,0,0,0,-1,1861,1646,0,0
644,-622,0,0,0,0,0,0,0,0,0,-1,1868,1646,0,0
651,-622,0,0,0,0,0,0,0,0,0,-1,1875,1646,0,0
658,-622,0,0,0,0,0,0,0,0,0,-1,1882,1646,0,0
665,-622,0,0,0,0,0,0,0,0,0,-1,1889,1646,0,0
672,-622,0,0,0,0,0,0,0,0,0,-1,1896,1646,0,0
679,-622,0,0,0,0,0,0,0,0,0,-1,1903,1646,0,0
686,-622,0,0,0,0,0,0,0,0,0,-1,1910,1646,0,0
693,-622,0,0,0,0,0,0,0,0,0,-1,1917,1646,0,0
700,-622,0,0,0,0,0,0,0,0,0,-1,1924,1646,0,0
707,-622,0,0,0,0,0,0,0,0,0,-1,1931,1646,0,0
714,-622,0,0,0,0,0,0,0,0,0,-1,1938,1646,0,0
721,-622,0,0,0,0,0,0,0,0,0,-1,1945,1646,0,0
728,-622,0,0,0,0,0,0,0,0,0,-1,1952,1646,0,0
735,-622,0,0,0,0,0,0,0,0,0,-1,1959,1646,0,0
742,-622,0,0,0,0,0,0,0,0,0,-1,1966,1646,0,0
749,-622,0,0,0,0,0,0,0,0,0,-1,1973,1646,0,0
756,-622,0,0,0,0,0,0,0,0,0,-1,1980,1646,0,0
763,-622,0,0,0,0,0,0,0,0,0,-1,1987,1646,0,0
770,-622,0,0,0,0,0,0,0,0,0,-1,1994,1646,0,0
777,-622,0,0,0,0,0,0,0,0,0,-1,2001,1646,0,0
784,-622,0,0,0,0,0,0,0,0,0,-1,2008,1646,0,0
791,-622,0,0,0,0,0,0,0,0,0,-1,2015,1646,0,0
798,-622,0,0,0,0,0,0,0,0,0,-1,2022,1646,0,0
805,-622,0,0,0,0,0,0,0,0,0,-1,2029,1646,0,0
812,-622,0,0,0,0,0,0,0,0,0,-1,2036,1646,0,0
-700,-629,0,0,0,0,0,0,0,0,0,-1,524,1653,0,0
-693,-629,0,0,0,0,0,0,0,0,0,-1,531,1653,0,0
-686,-629,0,0,0,0,0,0,0,0,0,-1,538,1653,0,0
-679,-629,0,0,0,0,0,0,0,0,0,-1,545,1653,0,0
-672,-629,0,0,0,0,0,0,0,0,0,-1,552,1653,0,0
-665,-629,0,0,0,0,0,0,0,0,0,-1,559,1653,0,0
-658,-629,0,0,0,0,0,0,0,0,0,-1,566,1653,0,0
-651,-629,0,0,0,0,0,0,0,0,0,-1,573,1653,0,0
-644,-629,0,0,0,0,0,0,0,0,0,-1,580,1653,0,0
-637,-629,0,0,0,0,0,0,0,0,0,-1,587,1653,0,0
-630,-629,0,0,0,0,0,0,0,0,0,-1,594,1653,0,0
-623,-629,0,0,0,0,0,0,0,0,0,-1,601,1653,0,0
-616,-629,0,0,0,0,0,0,0,0,0,-1,608,1653,0,0
-609,-629,0,0,0,0,0,0,0,0,0,-1,615,1653,0,0
-602,-629,0,0,0,0,0,0,0,0,0,-1,622,1653,0,0
-595,-629,0,0,0,0,0,0,0,0,0,-1,629,1653,0,0
-588,-629,0,0,0,0,0,0,0,0,0,-1,636,1653,0,0
-581,-629,0,0,0,0,0,0,0,0,0,-1,643,1653,0,0
-574,-629,0,0,0,0,0,0,0,0,0,-1,650,1653,0,0
-567,-629,0,0,0,0,0,0,0,0,0,-1,657,1653,0,0
-560,-629,0,0,0,0,0,0,0,0,0,-1,664,1653,0,0
-553,-629,0,0,0,0,0,0,0,0,0,-1,671,1653,0,0
-546,-629,0,0,0,0,0,0,0,0,0,-1,678,1653,0,0
-539,-629,0,0,0,0,0,0,0,0,0,-1,685,1653,0,0
-532,-629,0,0,0,0,0,0,0,0,0,-1,692,1653,0,0
-525,-629,0,0,0,0,0,0,0,0,0,-1,699,1653,0,0
-518,-629,0,0,0,0,0,0,0,0,0,-1,706,1653,0,0
-511,-629,0,0,0,0,0,0,0,0,0,-1,713,1653,0,0
-504,-629,0,0,0,0,0,0,0,0,0,-1,720,1653,0,0
-497,-629,0,0,0,0,0,0,0,0,0,-1,727,1653,0,0
-490,-629,0,0,0,0,0,0,0,0,0,-1,734,1653,0,0
-483,-629,0,0,0,0,0,0,0,0,0,-1,741,1653,0,0
-476,-629,0,0,0,0,0,0,0,0,0,-1,748,1653,0,0
-469,-629,0,0,0,0,0,0,0,0,0,-1,755,1653,0,0
-462,-629,0,0,0,0,0,0,0,0,0,-1,762,1653,0,0
-455,-629,0,0,0,0,0,0,0,0,0,-1,769,1653,0,0
-448,-629,0,0,0,0,0,0,0,0,0,-1,776,1653,0,0
-441,-629,0,0,0,0,0,0,0,0,0,-1,783,1653,0,0
-434,-629,0,0,0,0,0,0,0,0,0,-1,790,1653,0,0
-427,-629,0,0,0,0,0,0,0,0,0,-1,797,1653,0,0
-420,-629,-3.87103,3.37634,0,0,0,0,0,0,0,-1,804,1653,-3.87101,-3.37633
-413,-629,-5.69751,1.33582,0,0,0,0,0,0,0,-1,811,1653,-5.69754,-1.3358
-406,-629,2.85406,6.01501,0,0,0,0,0,0,0,-1,818,1653,2.85405,-6.01507
-399,-629,-0.455627,10.8687,0,0,0,0,0,0,0,-1,825,1653,-0.455625,-10.8687
-392,-629,1.15369,11.1295,0,0,0,0,0,0,0,-1,832,1653,1.1537,-11.1295
-385,-629,1.81976,11.6935,0,0,0,0,0,0,0,-1,839,1653,1.81975,-11.6935
-378,-629,2.19452,14.7941,0,0,0,0,0,0,0,-1,846,1653,2.19451,-14.7941
-371,-629,3.60114,14.7299,0,0,0,0,0,0,0,-1,853,1653,3.60113,-14.7299
-364,-629,3.26898,21.0801,0,0,0,0,0,0,0,-1,860,1653,3.26895,-21.08
-357,-629,4.38782,16.3444,0,0,0,0,0,0,0,-1,867,1653,4.38783,-16.3443
-350,-629,2.76154,39.1554,0,0,0,0,0,0,0,-1,874,1653,2.76154,-39.1554
-343,-629,2.47113,39.8801,0.00668781,-0.00429236,0.00553949,0.00899689,-0.00660144,0.394939,0.00904103,0.0400304,881,1653,2.47115,-39.8802
-336,-629,2.6095,40.4838,0.00645726,-0.00315873,0.00490886,0.00852048,-0.00522196,0.397889,0.00801002,0.0193489,888,1653,2.60948,-40.4837
-329,-629,2.6181,41.1858,0.00580118,-0.00211679,0.00438295,0.00774845,-0.00406405,0.418089,0.00692965,0.0121389,895,1653,2.6181,-41.1858
-322,-629,2.59326,41.8768,0.00516499,-0.00126848,0.00401142,0.00709013,-0.00319362,0.447451,0.00607773,0.012701,902,1653,2.59328,-41.8769
-315,-629,2.54626,42.5548,0.00464308,-0.000544385,0.00368277,0.00655382,-0.00245513,0.478599,0.00537776,0.0163855,909,1653,2.54625,-42.5548
-308,-629,2.49243,43.2316,0.00422046,0.000180115,0.00337188,0.00613102,-0.00173044,0.51551,0.00476996,0.0136549,916,1653,2.49241,-43.2316
-301,-629,2.47217,43.9524,0.0038963,0.000900837,0.00319535,0.00592752,-0.00113038,0.566241,0.0043774,0.0127737,923,1653,2.4722,-43.9524
-294,-629,2.45056,44.6191,0.00380266,0.00151151,0.00314016,0.00599968,-0.000685508,0.610493,0.00424677,0.0128661,930,1653,2.45055,-44.6191
-287,-629,2.41516,45.2661,0.00369843,0.00215323,0.00307566,0.00609705,-0.000245387,0.662345,0.00414891,0.00938076,937,1653,2.41517,-45.2662
-280,-629,2.37836,45.9122,0.00372428,0.00277644,0.00304345,0.00633049,0.000170227,0.70816,0.00416474,0.00992456,944,1653,2.37838,-45.9123
-273,-629,2.32843,46.5343,0.00402998,0.00323321,0.003117,0.00677394,0.000489242,0.721838,0.00436204,0.014504,951,1653,2.32843,-46.5343
-266,-629,2.30396,47.1951,0.00445976,0.00373799,0.00320612,0.00732524,0.000872502,0.729353,0.0046202,0.0157887,958,1653,2.30396,-47.1951
-259,-629,2.30597,47.8842,0.0050314,0.00428936,0.00330045,0.00798162,0.00133914,0.729425,0.00493563,0.016461,965,1653,2.30599,-47.8842
-252,-629,2.28387,48.488,0.00569436,0.0048385,0.00339145,0.00868477,0.00184809,0.722641,0.00528269,0.0118337,972,1653,2.28386,-48.4881
-245,-629,2.27838,49.1288,0.00647192,0.00536628,0.00359764,0.00955896,0.00227924,0.709163,0.00576509,0.00797984,979,1653,2.27841,-49.1288
-238,-629,2.26904,49.755,0.00802133,0.00509247,0.0039555,0.0107748,0.00233901,0.608109,0.00654437,0.0107483,986,1653,2.26907,-49.755
-231,-629,2.23438,50.3652,0.00991362,0.00513859,0.00457056,0.0126827,0.00236953,0.544708,0.0077864,0.0150915,993,1653,2.23438,-50.3652
-224,-629,2.32587,51.0605,0.0110204,0.00475433,0.00485303,0.0136638,0.00211087,0.498768,0.00849348,0.0178589,1000,1653,2.3259,-51.0606
-217,-629,2.29224,51.6147,0.0120549,0.00413313,0.00516541,0.0146033,0.0015848,0.458311,0.0092526,0.0293299,1007,1653,2.29223,-51.6148
-210,-629,2.10583,52.5421,0,0,0,0,0,0,0,-1,1014,1653,2.10584,-52.5421
-203,-629,3.02686,52.4495,0,0,0,0,0,0,0,-1,1021,1653,3.02688,-52.4495
-196,-629,2.71802,53.4484,0,0,0,0,0,0,0,-1,1028,1653,2.71806,-53.4484
-189,-629,2.41699,53.4469,0.018251,0.00210887,0.00718108,0.0209832,-0.000623308,0.363556,0.0142011,0.04768,1035,1653,2.41697,-53.4469
-182,-629,2.82532,54.6,0.0192145,0.002858,0.00792746,0.022426,-0.000353591,0.384915,0.0150699,0.0472706,1042,1653,2.8253,-54.5999
-175,-629,3.15552,55.3416,0,0,0,0,0,0,0,-1,1049,1653,3.15546,-55.3416
-168,-629,3.44006,55.4473,0,0,0,0,0,0,0,-1,1056,1653,3.44004,-55.4472
-161,-629,3.2146,53.0543,0,0,0,0,0,0,0,-1,1063,1653,3.21462,-53.0543
-154,-629,2.30042,52.7101,0,0,0,0,0,0,0,-1,1070,1653,2.30043,-52.7101
-147,-629,1.22363,52.6086,0,0,0,0,0,0,0,-1,1077,1653,1.22368,-52.6087
-140,-629,3.68201,55.7941,0,0,0,0,0,0,0,-1,1084,1653,3.68206,-55.7941
-133,-629,1.99792,57.769,0,0,0,0,0,0,0,-1,1091,1653,1.99792,-57.769
-126,-629,4.01025,19.5328,0,0,0,0,0,0,0,-1,1098,1653,4.01022,-19.5328
-119,-629,4.94177,13.5525,0,0,0,0,0,0,0,-1,1105,1653,4.94172,-13.5525
-112,-629,5.63123,15.9187,0,0,0,0,0,0,0,-1,1112,1653,5.63118,-15.9187
-105,-629,2.15881,4.38342,0,0,0,0,0,0,0,-1,1119,1653,2.15878,-4.38347
-98,-629,0.825806,4.19385,0,0,0,0,0,0,0,-1,1126,1653,0.825779,-4.1939
-91,-629,-0.452271,3.64465,0,0,0,0,0,0,0,-1,1133,1653,-0.452278,-3.6446
-84,-629,-2.6084,0.466797,0,0,0,0,0,0,0,-1,1140,1653,-2.6084,-0.466786
-77,-629,-3.50903,2.10706,0,0,0,0,0,0,0,-1,1147,1653,-3.509,-2.10707
-70,-629,-1.20886,2.52502,0,0,0,0,0,0,0,-1,1154,1653,-1.20886,-2.525
-63,-629,-0.960693,4.30212,0,0,0,0,0,0,0,-1,1161,1653,-0.960691,-4.30215
-56,-629,-1.31934,5.64343,0,0,0,0,0,0,0,-1,1168,1653,-1.31928,-5.6434
-49,-629,-2.15662,2.57458,0,0,0,0,0,0,0,-1,1175,1653,-2.15656,-2.57459
-42,-629,-2.46326,3.91467,0,0,0,0,0,0,0,-1,1182,1653,-2.4633,-3.91466
-35,-629,-2.67261,5.24292,0,0,0,0,0,0,0,-1,1189,1653,-2.67257,-5.24298
-28,-629,-0.402954,-0.866577,0,0,0,0,0,0,0,-1,1196,1653,-0.402943,0.866612
-21,-629,3.45508,27.0596,0,0,0,0,0,0,0,-1,1203,1653,3.45508,-27.0596
-14,-629,8.51392,63.925,0,0,0,0,0,0,0,-1,1210,1653,8.51388,-63.925
-7,-629,8.65881,64.5419,0,0,0,0,0,0,0,-1,1217,1653,8.65886,-64.5418
0,-629,2.9176,69.3989,0,0,0,0,0,0,0,-1,1224,1653,2.91765,-69.3989
7,-629,3.23743,69.0109,0.0375667,0.178464,-0.0676001,0.205652,0.0103794,-1.18841,0.133776,0.0462796,1231,1653,3.23743,-69.0109
14,-629,3.60461,68.5602,0.0324964,0.167958,-0.069619,0.197357,0.00309706,-1.17122,0.130551,0.0433543,1238,1653,3.60455,-68.5602
21,-629,3.8324,67.8334,0.0280987,0.15655,-0.071565,0.188483,-0.00383421,-1.1511,0.126953,0.0450592,1245,1653,3.83242,-67.8333
28,-629,3.97449,67.8113,0.0233279,0.144654,-0.0734746,0.179272,-0.0112904,-1.13049,0.12345,0.0482698,1252,1653,3.97449,-67.8112
35,-629,3.83508,68.1813,0.0192029,0.131601,-0.0748816,0.169027,-0.0182227,-1.10731,0.119224,0.045307,1259,1653,3.83504,-68.1813
42,-629,3.30029,68.545,0,0,0,0,0,0,0,-1,1266,1653,3.30026,-68.5451
49,-629,6.56311,67.8799,0,0,0,0,0,0,0,-1,1273,1653,6.56312,-67.8799
56,-629,6.20459,67.1792,-0.00242423,0.102376,-0.0759117,0.142217,-0.0422648,-1.08748,0.1116,0.0497162,1280,1653,6.20465,-67.1792
63,-629,6.16968,66.644,-0.00972406,0.0959362,-0.077071,0.136546,-0.0503335,-1.08585,0.111656,0.0450978,1287,1653,6.16973,-66.6441
70,-629,6.76343,66.2489,-0.0182181,0.0933156,-0.0772666,0.132838,-0.0577407,-1.09798,0.112842,0.0440896,1294,1653,6.76339,-66.2489
77,-629,6.15881,66.2202,0,0,0,0,0,0,0,-1,1301,1653,6.15876,-66.2202
84,-629,5.80432,66.1154,0,0,0,0,0,0,0,-1,1308,1653,5.80435,-66.1153
91,-629,5.41968,66.5292,0,0,0,0,0,0,0,-1,1315,1653,5.41968,-66.5291
98,-629,5.1532,66.548,0,0,0,0,0,0,0,-1,1322,1653,5.15317,-66.548
105,-629,5.08118,66.4703,0,0,0,0,0,0,0,-1,1329,1653,5.08116,-66.4704
112,-629,7.09497,61.5375,0,0,0,0,0,0,0,-1,1336,1653,7.09495,-61.5375
119,-629,7.53125,61.6639,0,0,0,0,0,0,0,-1,1343,1653,7.53126,-61.664
126,-629,5.6073,63.6849,0,0,0,0,0,0,0,-1,1350,1653,5.60734,-63.6849
133,-629,10.0828,56.7382,0,0,0,0,0,0,0,-1,1357,1653,10.0827,-56.7382
140,-629,2.4519,68.2211,0,0,0,0,0,0,0,-1,1364,1653,2.45195,-68.221
147,-629,10.2756,56.3218,0,0,0,0,0,0,0,-1,1371,1653,10.2757,-56.3217
154,-629,6.41516,53.151,0,0,0,0,0,0,0,-1,1378,1653,6.41517,-53.151
161,-629,10.5461,6.83752,0,0,0,0,0,0,0,-1,1385,1653,10.5461,-6.83758
168,-629,12.0059,5.56348,0,0,0,0,0,0,0,-1,1392,1653,12.0059,-5.56352
175,-629,5.84485,-1.78845,0,0,0,0,0,0,0,-1,1399,1653,5.84479,1.7884
182,-629,5.99036,-1.27783,0,0,0,0,0,0,0,-1,1406,1653,5.99041,1.27778
189,-629,5.97668,-0.748535,0,0,0,0,0,0,0,-1,1413,1653,5.97671,0.748544
196,-629,4.52869,9.24695,0,0,0,0,0,0,0,-1,1420,1653,4.52869,-9.2469
203,-629,3.75085,6.88037,0,0,0,0,0,0,0,-1,1427,1653,3.75087,-6.88032
210,-629,3.5907,6.52637,0,0,0,0,0,0,0,-1,1434,1653,3.59067,-6.52642
217,-629,2.4585,4.84448,0,0,0,0,0,0,0,-1,1441,1653,2.45855,-4.84448
224,-629,1.31982,3.68481,0,0,0,0,0,0,0,-1,1448,1653,1.31986,-3.68487
231,-629,3.63025,1.73499,0,0,0,0,0,0,0,-1,1455,1653,3.6303,-1.735
238,-629,4.26428,2.11255,0,0,0,0,0,0,0,-1,1462,1653,4.26429,-2.11253
245,-629,5.61816,1.95361,0,0,0,0,0,0,0,-1,1469,1653,5.61815,-1.95359
252,-629,7.27136,2.18982,0,0,0,0,0,0,0,-1,1476,1653,7.27131,-2.18985
259,-629,8.67334,2.18628,0,0,0,0,0,0,0,-1,1483,1653,8.6733,-2.18633
266,-629,6.86475,3.72058,0,0,0,0,0,0,0,-1,1490,1653,6.86479,-3.72063
273,-629,7.9021,3.8717,0,0,0,0,0,0,0,-1,1497,1653,7.90205,-3.87171
280,-629,9.70837,4.39087,0,0,0,0,0,0,0,-1,1504,1653,9.7084,-4.39082
287,-629,9.82947,7.19348,0,0,0,0,0,0,0,-1,1511,1653,9.8295,-7.19347
294,-629,6.56555,11.6359,0,0,0,0,0,0,0,-1,1518,1653,6.5656,-11.6358
301,-629,13.903,44.4862,0,0,0,0,0,0,0,-1,1525,1653,13.903,-44.4862
308,-629,6.08264,12.1423,0,0,0,0,0,0,0,-1,1532,1653,6.08263,-12.1423
315,-629,6.82043,18.2764,0,0,0,0,0,0,0,-1,1539,1653,6.82049,-18.2764
322,-629,14.1931,43.8071,0,0,0,0,0,0,0,-1,1546,1653,14.1931,-43.8071
329,-629,15.1599,52.7277,0,0,0,0,0,0,0,-1,1553,1653,15.1599,-52.7277
336,-629,15.1506,52.1173,0,0,0,0,0,0,0,-1,1560,1653,15.1506,-52.1173
343,-629,15.4373,51.5526,0,0,0,0,0,0,0,-1,1567,1653,15.4373,-51.5527
350,-629,15.5662,50.9948,0.00692229,0.0212266,-0.00715577,0.0241917,0.00395721,-1.17797,0.0149839,0.033447,1574,1653,15.5661,-50.9948
357,-629,15.5659,50.3195,0.00611319,0.0203272,-0.00682112,0.023071,0.00336945,-1.18836,0.0143896,0.0169984,1581,1653,15.5659,-50.3194
364,-629,15.5265,49.7278,0.00550628,0.0190023,-0.00652643,0.021642,0.00286653,-1.18644,0.0135738,0.0145955,1588,1653,15.5265,-49.7278
371,-629,15.5044,49.1157,0.00504291,0.0172358,-0.00612248,0.0197794,0.00249924,-1.17703,0.0124372,0.012302,1595,1653,15.5044,-49.1157
378,-629,15.4924,48.491,0.00454968,0.0152876,-0.00563266,0.0177002,0.00213708,-1.16611,0.0111562,0.0113219,1602,1653,15.4924,-48.491
385,-629,15.4971,47.8824,0.00407619,0.0131191,-0.00506415,0.0153865,0.00180875,-1.14982,0.00971108,0.0134107,1609,1653,15.4971,-47.8824
392,-629,15.4792,47.2672,0.00361473,0.0110122,-0.00453246,0.0131635,0.00146334,-1.12762,0.00833087,0.0118512,1616,1653,15.4793,-47.2672
399,-629,15.4504,46.6409,0.00316807,0.00896618,-0.00402276,0.0110257,0.00110858,-1.09763,0.00701019,0.0124828,1623,1653,15.4504,-46.6409
406,-629,15.439,45.9841,0.00277635,0.00704688,-0.00354874,0.00905323,0.000770004,-1.05623,0.00579589,0.0153181,1630,1653,15.439,-45.9841
413,-629,15.4207,45.3279,0.00245416,0.00543304,-0.00308405,0.00736848,0.000518719,-1.01036,0.00474886,0.0235565,1637,1653,15.4207,-45.3278
420,-629,15.3693,44.7651,0.00228986,0.00406744,-0.00274085,0.00606,0.000297294,-0.942186,0.00394464,0.022022,1644,1653,15.3693,-44.7652
427,-629,15.3595,44.1196,0.00209722,0.0029769,-0.00249873,0.00507421,-8.77772e-08,-0.872518,0.00338283,0.0158873,1651,1653,15.3596,-44.1196
434,-629,15.3513,43.4313,0.00197325,0.00220497,-0.00242977,0.00452164,-0.000343422,-0.809221,0.00313518,0.0146339,1658,1653,15.3513,-43.4313
441,-629,15.3164,42.7584,0.00195762,0.00184816,-0.00251468,0.00441816,-0.00061238,-0.774518,0.00316935,0.0179536,1665,1653,15.3164,-42.7585
448,-629,15.2908,42.0919,0.00211366,0.00181099,-0.00280593,0.00477233,-0.000847686,-0.758457,0.00349852,0.0168817,1672,1653,15.2908,-42.0919
455,-629,15.2433,41.3983,0.00232191,0.00182514,-0.00315819,0.00524146,-0.00109441,-0.746155,0.0039105,0.0154638,1679,1653,15.2433,-41.3983
462,-629,15.2374,40.7712,0.00246627,0.00178259,-0.00356771,0.00570848,-0.00145962,-0.737637,0.00437414,0.0214711,1686,1653,15.2374,-40.7712
469,-629,15.2446,40.075,0.00278119,0.0020052,-0.0041681,0.00657932,-0.00179292,-0.738988,0.00509022,0.0347131,1693,1653,15.2447,-40.0749
476,-629,15.3409,39.3207,0,0,0,0,0,0,0,-1,1700,1653,15.3409,-39.3207
483,-629,14.0381,30.967,0,0,0,0,0,0,0,-1,1707,1653,14.0381,-30.9671
490,-629,13.9072,28.8588,0,0,0,0,0,0,0,-1,1714,1653,13.9072,-28.8587
497,-629,10.3662,19.8605,0,0,0,0,0,0,0,-1,1721,1653,10.3662,-19.8605
504,-629,7.89453,15.5316,0,0,0,0,0,0,0,-1,1728,1653,7.89447,-15.5316
511,-629,6.29138,3.40295,0,0,0,0,0,0,0,-1,1735,1653,6.29137,-3.403
518,-629,5.84387,1.41858,0,0,0,0,0,0,0,-1,1742,1653,5.84391,-1.4186
525,-629,6.4729,1.02319,0,0,0,0,0,0,0,-1,1749,1653,6.47284,-1.02316
532,-629,6.86511,0.903687,0,0,0,0,0,0,0,-1,1756,1653,6.86514,-0.903691
539,-629,6.60803,0.746704,0,0,0,0,0,0,0,-1,1763,1653,6.60809,-0.746691
546,-629,0,0,0,0,0,0,0,0,0,-1,1770,1653,0,0
553,-629,0,0,0,0,0,0,0,0,0,-1,1777,1653,0,0
560,-629,0,0,0,0,0,0,0,0,0,-1,1784,1653,0,0
567,-629,0,0,0,0,0,0,0,0,0,-1,1791,1653,0,0
574,-629,0,0,0,0,0,0,0,0,0,-1,1798,1653,0,0
581,-629,0,0,0,0,0,0,0,0,0,-1,1805,1653,0,0
588,-629,0,0,0,0,0,0,0,0,0,-1,1812,1653,0,0
595,-629,0,0,0,0,0,0,0,0,0,-1,1819,1653,0,0
602,-629,0,0,0,0,0,0,0,0,0,-1,1826,1653,0,0
609,-629,0,0,0,0,0,0,0,0,0,-1,1833,1653,0,0
616,-629,0,0,0,0,0,0,0,0,0,-1,1840,1653,0,0
623,-629,0,0,0,0,0,0,0,0,0,-1,1847,1653,0,0
630,-629,0,0,0,0,0,0,0,0,0,-1,1854,1653,0,0
637,-629,0,0,0,0,0,0,0,0,0,-1,1861,1653,0,0
644,-629,0,0,0,0,0,0,0,0,0,-1,1868,1653,0,0
651,-629,0,0,0,0,0,0,0,0,0,-1,1875,1653,0,0
658,-629,0,0,0,0,0,0,0,0,0,-1,1882,1653,0,0
665,-629,0,0,0,0,0,0,0,0,0,-1,1889,1653,0,0
672,-629,0,0,0,0,0,0,0,0,0,-1,1896,1653,0,0
679,-629,0,0,0,0,0,0,0,0,0,-1,1903,1653,0,0
686,-629,0,0,0,0,0,0,0,0,0,-1,1910,1653,0,0
693,-629,0,0,0,0,0,0,0,0,0,-1,1917,1653,0,0
700,-629,0,0,0,0,0,0,0,0,0,-1,1924,1653,0,0
707,-629,0,0,0,0,0,0,0,0,0,-1,1931,1653,0,0
714,-629,0,0,0,0,0,0,0,0,0,-1,1938,1653,0,0
721,-629,0,0,0,0,0,0,0,0,0,-1,1945,1653,0,0
728,-629,0,0,0,0,0,0,0,0,0,-1,1952,1653,0,0
735,-629,0,0,0,0,0,0,0,0,0,-1,1959,1653,0,0
742,-629,0,0,0,0,0,0,0,0,0,-1,1966,1653,0,0
749,-629,0,0,0,0,0,0,0,0,0,-1,1973,1653,0,0
756,-629,0,0,0,0,0,0,0,0,0,-1,1980,1653,0,0
763,-629,0,0,0,0,0,0,0,0,0,-1,1987,1653,0,0
770,-629,0,0,0,0,0,0,0,0,0,-1,1994,1653,0,0
777,-629,0,0,0,0,0,0,0,0,0,-1,2001,1653,0,0
784,-629,0,0,0,0,0,0,0,0,0,-1,2008,1653,0,0
791,-629,0,0,0,0,0,0,0,0,0,-1,2015,1653,0,0
798,-629,0,0,0,0,0,0,0,0,0,-1,2022,1653,0,0
805,-629,0,0,0,0,0,0,0,0,0,-1,2029,1653,0,0
812,-629,0,0,0,0,0,0,0,0,0,-1,2036,1653,0,0
-700,-636,0,0,0,0,0,0,0,0,0,-1,524,1660,0,0
-693,-636,0,0,0,0,0,0,0,0,0,-1,531,1660,0,0
-686,-636,0,0,0,0,0,0,0,0,0,-1,538,1660,0,0
-679,-636,0,0,0,0,0,0,0,0,0,-1,545,1660,0,0
-672,-636,0,0,0,0,0,0,0,0,0,-1,552,1660,0,0
-665,-636,0,0,0,0,0,0,0,0,0,-1,559,1660,0,0
-658,-636,0,0,0,0,0,0,0,0,0,-1,566,1660,0,0
-651,-636,0,0,0,0,0,0,0,0,0,-1,573,1660,0,0
-644,-636,0,0,0,0,0,0,0,0,0,-1,580,1660,0,0
-637,-636,0,0,0,0,0,0,0,0,0,-1,587,1660,0,0
-630,-636,0,0,0,0,0,0,0,0,0,-1,594,1660,0,0
-623,-636,0,0,0,0,0,0,0,0,0,-1,601,1660,0,0
-616,-636,0,0,0,0,0,0,0,0,0,-1,608,1660,0,0
-609,-636,0,0,0,0,0,0,0,0,0,-1,615,1660,0,0
-602,-636,0,0,0,0,0,0,0,0,0,-1,622,1660,0,0
-595,-636,0,0,0,0,0,0,0,0,0,-1,629,1660,0,0
-588,-636,0,0,0,0,0,0,0,0,0,-1,636,1660,0,0
-581,-636,0,0,0,0,0,0,0,0,0,-1,643,1660,0,0
-574,-636,0,0,0,0,0,0,0,0,0,-1,650,1660,0,0
-567,-636,0,0,0,0,0,0,0,0,0,-1,657,1660,0,0
-560,-636,0,0,0,0,0,0,0,0,0,-1,664,1660,0,0
-553,-636,0,0,0,0,0,0,0,0,0,-1,671,1660,0,0
-546,-636,0,0,0,0,0,0,0,0,0,-1,678,1660,0,0
-539,-636,0,0,0,0,0,0,0,0,0,-1,685,1660,0,0
-532,-636,0,0,0,0,0,0,0,0,0,-1,692,1660,0,0
-525,-636,0,0,0,0,0,0,0,0,0,-1,699,1660,0,0
-518,-636,0,0,0,0,0,0,0,0,0,-1,706,1660,0,0
-511,-636,0,0,0,0,0,0,0,0,0,-1,713,1660,0,0
-504,-636,0,0,0,0,0,0,0,0,0,-1,720,1660,0,0
-497,-636,0,0,0,0,0,0,0,0,0,-1,727,1660,0,0
-490,-636,0,0,0,0,0,0,0,0,0,-1,734,1660,0,0
-483,-636,0,0,0,0,0,0,0,0,0,-1,741,1660,0,0
-476,-636,0,0,0,0,0,0,0,0,0,-1,748,1660,0,0
-469,-636,0,0,0,0,0,0,0,0,0,-1,755,1660,0,0
-462,-636,0,0,0,0,0,0,0,0,0,-1,762,1660,0,0
-455,-636,0,0,0,0,0,0,0,0,0,-1,769,1660,0,0
-448,-636,0,0,0,0,0,0,0,0,0,-1,776,1660,0,0
-441,-636,0,0,0,0,0,0,0,0,0,-1,783,1660,0,0
-434,-636,0,0,0,0,0,0,0,0,0,-1,790,1660,0,0
-427,-636,0,0,0,0,0,0,0,0,0,-1,797,1660,0,0
-420,-636,0,0,0,0,0,0,0,0,0,-1,804,1660,0,0
-413,-636,0,0,0,0,0,0,0,0,0,-1,811,1660,0,0
-406,-636,-0.591125,10.6943,0,0,0,0,0,0,0,-1,818,1660,-0.59115,-10.6943
-399,-636,0.0766602,11.2408,0,0,0,0,0,0,0,-1,825,1660,0.076685,-11.2409
-392,-636,0.75946,11.9233,0,0,0,0,0,0,0,-1,832,1660,0.759481,-11.9233
-385,-636,1.68878,12.517,0,0,0,0,0,0,0,-1,839,1660,1.6888,-12.5169
-378,-636,2.22107,13.0013,0,0,0,0,0,0,0,-1,846,1660,2.22107,-13.0014
-371,-636,2.52185,11.9684,0,0,0,0,0,0,0,-1,853,1660,2.52184,-11.9684
-364,-636,4.51947,14.8503,0,0,0,0,0,0,0,-1,860,1660,4.51949,-14.8504
-357,-636,4.55682,15.8809,0,0,0,0,0,0,0,-1,867,1660,4.55681,-15.8808
-350,-636,2.57788,36.7095,0,0,0,0,0,0,0,-1,874,1660,2.57785,-36.7094
-343,-636,3.08038,39.9928,0,0,0,0,0,0,0,-1,881,1660,3.08037,-39.9928
-336,-636,2.93347,40.7056,0.0101726,-0.00300954,0.00734696,0.0134517,-0.00628863,0.419789,0.0116445,0.0361148,888,1660,2.93346,-40.7056
-329,-636,3.28406,41.2463,0.00891609,-0.0019912,0.00650242,0.0119491,-0.00502423,0.436447,0.0100678,0.0198061,895,1660,3.28406,-41.2464
-322,-636,3.26697,41.9037,0.00775373,-0.00121146,0.00590095,0.0106816,-0.00413932,0.460577,0.00883038,0.0126905,902,1660,3.26696,-41.9037
-315,-636,3.21655,42.5809,0.00677962,-0.000627678,0.00528975,0.0095334,-0.00338146,0.479983,0.00773325,0.0139768,909,1660,3.21658,-42.581
-308,-636,3.16162,43.2793,0.00591473,-3.88811e-05,0.00470121,0.00850234,-0.00262649,0.503161,0.00671713,0.012331,916,1660,3.1616,-43.2793
-301,-636,3.13678,44.0001,0.00513513,0.000528181,0.00422539,0.00764413,-0.00198082,0.535842,0.00586887,0.0125891,923,1660,3.13679,-44.0001
-294,-636,3.09442,44.6699,0.00459245,0.000953384,0.00385039,0.00703157,-0.00148574,0.564671,0.00525347,0.0157411,930,1660,3.09445,-44.67
-287,-636,3.05505,45.2949,0.00406487,0.00140345,0.0034837,0.00646337,-0.00099504,0.602959,0.00467602,0.0133935,937,1660,3.05507,-45.2949
-280,-636,3.03021,45.939,0.00364345,0.00186156,0.0031494,0.0060255,-0.000520483,0.647553,0.00420126,0.0124796,944,1660,3.03022,-45.939
-273,-636,2.99097,46.5845,0.00355865,0.00214369,0.0029646,0.00589902,-0.000196686,0.668268,0.00399985,0.0125417,951,1660,2.99095,-46.5845
-266,-636,2.96771,47.2532,0.00366237,0.00249372,0.00281971,0.00595767,0.000198427,0.68323,0.00390732,0.0144681,958,1660,2.96773,-47.2532
-259,-636,2.95398,47.9224,0.00393401,0.00291043,0.00270852,0.00617867,0.000665768,0.692021,0.0039161,0.0176024,965,1660,2.95399,-47.9224
-252,-636,2.91339,48.5117,0.00431137,0.00333388,0.00261591,0.0064838,0.00116145,0.693044,0.0039921,0.0133288,972,1660,2.91337,-48.5117
-245,-636,2.91534,49.1664,0.00474539,0.00367511,0.00254859,0.00681442,0.00160608,0.681914,0.00411346,0.0107659,979,1660,2.91532,-49.1664
-238,-636,2.92041,49.8036,0.00585234,0.00346868,0.00271166,0.00762253,0.00169849,0.578346,0.00462078,0.0113095,986,1660,2.92041,-49.8035
-231,-636,2.9151,50.4102,0.00732538,0.00356288,0.00316612,0.00912699,0.00176128,0.517333,0.00559082,0.0110596,993,1660,2.91511,-50.4102
-224,-636,2.91888,51.0062,0.00821029,0.00333876,0.00333873,0.00990733,0.00164172,0.470257,0.00613136,0.0102832,1000,1660,2.91888,-51.0063
-217,-636,2.89307,51.6665,0.00897471,0.00290973,0.00344704,0.0105333,0.00135113,0.424645,0.00661796,0.0177182,1007,1660,2.89306,-51.6665
-210,-636,2.87231,52.246,0.0100088,0.0024849,0.00349746,0.0113834,0.00111026,0.374491,0.00724726,0.0283276,1014,1660,2.8723,-52.246
-203,-636,2.85907,52.8387,0,0,0,0,0,0,0,-1,1021,1660,2.8591,-52.8388
-196,-636,3.0647,53.3146,0.0124846,0.00167481,0.0041105,0.0138701,0.000289341,0.325098,0.0091518,0.0331884,1028,1660,3.06466,-53.3146
-189,-636,3.03247,53.776,0.0131897,0.00179405,0.00420972,0.0145762,0.000407599,0.318156,0.00958446,0.0302561,1035,1660,3.03244,-53.776
-182,-636,3.19922,54.3721,0.0136434,0.0028057,0.00447947,0.0152552,0.00119393,0.345389,0.00979643,0.0454777,1042,1660,3.19923,-54.3721
-175,-636,3.4231,54.9005,0,0,0,0,0,0,0,-1,1049,1660,3.42305,-54.9005
-168,-636,2.71423,55.4374,0,0,0,0,0,0,0,-1,1056,1660,2.71421,-55.4374
-161,-636,2.70557,56.2769,0,0,0,0,0,0,0,-1,1063,1660,2.70552,-56.2769
-154,-636,3.53662,56.0177,0,0,0,0,0,0,0,-1,1070,1660,3.5366,-56.0178
-147,-636,4.22656,55.8413,0,0,0,0,0,0,0,-1,1077,1660,4.22662,-55.8413
-140,-636,3.20886,57.1307,0,0,0,0,0,0,0,-1,1084,1660,3.20882,-57.1307
-133,-636,2.82764,57.9807,0,0,0,0,0,0,0,-1,1091,1660,2.82766,-57.9807
-126,-636,2.44653,58.8307,0,0,0,0,0,0,0,-1,1098,1660,2.44649,-58.8307
-119,-636,1.8667,13.8916,0,0,0,0,0,0,0,-1,1105,1660,1.86668,-13.8916
-112,-636,-1.24963,9.7998,0,0,0,0,0,0,0,-1,1112,1660,-1.24968,-9.79978
-105,-636,3.51624,4.72791,0,0,0,0,0,0,0,-1,1119,1660,3.51618,-4.7279
-98,-636,1.54504,5.11914,0,0,0,0,0,0,0,-1,1126,1660,1.54503,-5.11912
-91,-636,-1.87964,-2.25012,0,0,0,0,0,0,0,-1,1133,1660,-1.87966,2.25016
-84,-636,-2.84143,0.133667,0,0,0,0,0,0,0,-1,1140,1660,-2.84144,-0.133701
-77,-636,-3.57349,2.45935,0,0,0,0,0,0,0,-1,1147,1660,-3.57345,-2.45939
-70,-636,-4.23682,4.82312,0,0,0,0,0,0,0,-1,1154,1660,-4.23681,-4.82307
-63,-636,-2.21033,6.97168,0,0,0,0,0,0,0,-1,1161,1660,-2.21034,-6.97165
-56,-636,-2.51917,8.80359,0,0,0,0,0,0,0,-1,1168,1660,-2.51916,-8.80361
-49,-636,-3.13,10.4113,0,0,0,0,0,0,0,-1,1175,1660,-3.12996,-10.4112
-42,-636,-2.27771,4.90173,0,0,0,0,0,0,0,-1,1182,1660,-2.27775,-4.90173
-35,-636,-2.27698,5.89685,0,0,0,0,0,0,0,-1,1189,1660,-2.27695,-5.89686
-28,-636,-1.70654,4.83936,0,0,0,0,0,0,0,-1,1196,1660,-1.70656,-4.8393
-21,-636,4.24683,27.7834,0,0,0,0,0,0,0,-1,1203,1660,4.24687,-27.7835
-14,-636,5.79797,64.2308,0,0,0,0,0,0,0,-1,1210,1660,5.79797,-64.2308
-7,-636,2.72534,66.8292,0,0,0,0,0,0,0,-1,1217,1660,2.72533,-66.8292
0,-636,3.10669,67.1061,0,0,0,0,0,0,0,-1,1224,1660,3.10664,-67.106
7,-636,3.61584,67.4294,0.0378119,0.151188,-0.054002,0.172793,0.0162073,-1.19023,0.110191,0.0456075,1231,1660,3.61582,-67.4295
14,-636,4.35303,67.4327,0.0347605,0.143592,-0.0564605,0.167591,0.0107616,-1.16888,0.108319,0.0440355,1238,1660,4.35306,-67.4328
21,-636,4.64465,67.1783,0.0318577,0.134872,-0.0589174,0.161622,0.00510721,-1.14459,0.106087,0.0437472,1245,1660,4.64464,-67.1783
28,-636,4.7074,67.0603,0.0281826,0.125145,-0.0612465,0.154776,-0.00144877,-1.12019,0.10367,0.0466314,1252,1660,4.70742,-67.0603
35,-636,4.68848,67.4305,0.0244961,0.114049,-0.0629215,0.1465,-0.00795468,-1.09464,0.100423,0.0448933,1259,1660,4.68844,-67.4306
42,-636,4.69141,67.7561,0,0,0,0,0,0,0,-1,1266,1660,4.69143,-67.7561
49,-636,6.70056,67.641,0,0,0,0,0,0,0,-1,1273,1660,6.70057,-67.641
56,-636,6.83765,67.0022,0.000782041,0.0882534,-0.0652002,0.123028,-0.0339926,-1.08082,0.0953903,0.049007,1280,1660,6.8376,-67.0022
63,-636,6.97119,66.3641,-0.00736154,0.0824978,-0.0667458,0.118027,-0.042891,-1.08164,0.0962229,0.0461088,1287,1660,6.97124,-66.3642
70,-636,6.88818,65.8755,-0.0168237,0.0794755,-0.0674513,0.1142,-0.0515479,-1.09538,0.0979467,0.0447193,1294,1660,6.88815,-65.8754
77,-636,6.63953,65.6741,-0.0262293,0.0798909,-0.0688364,0.113744,-0.0600819,-1.11374,0.10194,0.0444919,1301,1660,6.63953,-65.6741
84,-636,6.3634,65.4624,0,0,0,0,0,0,0,-1,1308,1660,6.36342,-65.4625
91,-636,6.07202,65.488,-0.0464304,0.0890358,-0.0760092,0.123112,-0.0805068,-1.14934,0.118414,0.0432544,1315,1660,6.07199,-65.488
98,-636,5.85779,65.545,0,0,0,0,0,0,0,-1,1322,1660,5.85783,-65.545
105,-636,5.71167,65.4932,0,0,0,0,0,0,0,-1,1329,1660,5.71171,-65.4931
112,-636,5.53564,65.4197,0,0,0,0,0,0,0,-1,1336,1660,5.53561,-65.4197
119,-636,5.66528,63.8717,0,0,0,0,0,0,0,-1,1343,1660,5.66534,-63.8717
126,-636,5.96362,63.5178,0,0,0,0,0,0,0,-1,1350,1660,5.96367,-63.5178
133,-636,6.06641,63.0933,0,0,0,0,0,0,0,-1,1357,1660,6.06647,-63.0933
140,-636,10.4531,56.3104,0,0,0,0,0,0,0,-1,1364,1660,10.4531,-56.3105
147,-636,10.7894,56.6646,0,0,0,0,0,0,0,-1,1371,1660,10.7894,-56.6645
154,-636,11.577,56.2271,0,0,0,0,0,0,0,-1,1378,1660,11.5771,-56.2271
161,-636,10.2961,7.13025,0,0,0,0,0,0,0,-1,1385,1660,10.2961,-7.13021
168,-636,11.7659,5.83899,0,0,0,0,0,0,0,-1,1392,1660,11.7658,-5.83899
175,-636,5.94592,-1.72888,0,0,0,0,0,0,0,-1,1399,1660,5.94598,1.72886
182,-636,5.93994,-1.11938,0,0,0,0,0,0,0,-1,1406,1660,5.93998,1.11936
189,-636,5.32544,11.9595,0,0,0,0,0,0,0,-1,1413,1660,5.32542,-11.9595
196,-636,5.3623,9.38025,0,0,0,0,0,0,0,-1,1420,1660,5.36225,-9.38027
203,-636,5.18542,9.02429,0,0,0,0,0,0,0,-1,1427,1660,5.18547,-9.0243
210,-636,4.09167,7.17041,0,0,0,0,0,0,0,-1,1434,1660,4.09173,-7.17041
217,-636,2.94897,5.28992,0,0,0,0,0,0,0,-1,1441,1660,2.94899,-5.28991
224,-636,1.49194,3.63916,0,0,0,0,0,0,0,-1,1448,1660,1.49197,-3.63918
231,-636,0.17749,2.24854,0,0,0,0,0,0,0,-1,1455,1660,0.177501,-2.24855
238,-636,-0.764648,1.00598,0,0,0,0,0,0,0,-1,1462,1660,-0.764704,-1.00595
245,-636,6.21204,1.18005,0,0,0,0,0,0,0,-1,1469,1660,6.21206,-1.18001
252,-636,7.70251,0.865723,0,0,0,0,0,0,0,-1,1476,1660,7.7025,-0.865692
259,-636,9.03601,0.787231,0,0,0,0,0,0,0,-1,1483,1660,9.03598,-0.787243
266,-636,10.1071,3.24109,0,0,0,0,0,0,0,-1,1490,1660,10.1071,-3.24103
273,-636,8.48535,5.02466,0,0,0,0,0,0,0,-1,1497,1660,8.48533,-5.02472
280,-636,11.908,32.0698,0,0,0,0,0,0,0,-1,1504,1660,11.9079,-32.0698
287,-636,12.1218,36.4158,0,0,0,0,0,0,0,-1,1511,1660,12.1218,-36.4158
294,-636,13.3706,44.9711,0,0,0,0,0,0,0,-1,1518,1660,13.3706,-44.9711
301,-636,14.257,55.0591,0,0,0,0,0,0,0,-1,1525,1660,14.257,-55.0591
308,-636,15.1561,53.6361,0,0,0,0,0,0,0,-1,1532,1660,15.1561,-53.6362
315,-636,14.8992,54.0432,0,0,0,0,0,0,0,-1,1539,1660,14.8991,-54.0432
322,-636,14.8604,53.5479,0,0,0,0,0,0,0,-1,1546,1660,14.8603,-53.5479
329,-636,14.7178,52.7886,0.00811696,0.0121403,-0.00454416,0.0150982,0.00515911,-0.99378,0.00886135,0.0410349,1553,1660,14.7178,-52.7886
336,-636,14.6908,52.1885,0.00695015,0.013487,-0.00466565,0.0159151,0.004522,-1.09094,0.00946975,0.0332061,1560,1660,14.6908,-52.1885
343,-636,14.8646,51.5282,0.00602637,0.0142801,-0.0047656,0.0164574,0.00384911,-1.14225,0.00994014,0.027127,1567,1660,14.8646,-51.5282
350,-636,14.8889,50.9219,0.00512423,0.0143259,-0.00449481,0.0161571,0.00329303,-1.18393,0.00985878,0.0128411,1574,1660,14.8889,-50.9219
357,-636,14.9174,50.3148,0.0045178,0.0139241,-0.00442758,0.0156803,0.00276161,-1.19318,0.00966543,0.0112732,1581,1660,14.9174,-50.3149
364,-636,14.9309,49.7122,0.00410722,0.0131024,-0.00440048,0.014897,0.00231255,-1.18355,0.0092573,0.0115574,1588,1660,14.9309,-49.7122
371,-636,14.9036,49.1149,0.00383963,0.0118982,-0.00431105,0.0137698,0.00196804,-1.16121,0.00859925,0.0099658,1595,1660,14.9036,-49.1149
378,-636,14.8801,48.5002,0.00360254,0.0105256,-0.00416468,0.0124795,0.00164865,-1.13213,0.00782821,0.0101641,1602,1660,14.8801,-48.5002
385,-636,14.8799,47.8937,0.00342691,0.00897357,-0.00397071,0.0110436,0.00135691,-1.09024,0.00695435,0.0161147,1609,1660,14.8799,-47.8936
392,-636,14.847,47.2826,0.0032622,0.00750394,-0.00384366,0.00977304,0.000993098,-1.0375,0.00621085,0.0173133,1616,1660,14.8471,-47.2826
399,-636,14.8215,46.6687,0.00300613,0.00601729,-0.00366562,0.00847448,0.000548945,-0.980259,0.00547585,0.0129992,1623,1660,14.8216,-46.6687
406,-636,14.8301,46.0331,0.00275986,0.00462584,-0.00349003,0.00730543,8.02686e-05,-0.916009,0.00484375,0.0154906,1630,1660,14.8301,-46.0331
413,-636,14.8129,45.3444,0.00254267,0.00356845,-0.00327785,0.0063733,-0.000262177,-0.863004,0.0043389,0.0239903,1637,1660,14.8129,-45.3444
420,-636,14.7526,44.7499,0.00250315,0.00268467,-0.00316139,0.0057566,-0.000568777,-0.799749,0.00404069,0.02317,1644,1660,14.7526,-44.7499
427,-636,14.7196,44.1436,0.00242748,0.00207014,-0.00312718,0.00538109,-0.000883478,-0.756862,0.00391525,0.0159076,1651,1660,14.7196,-44.1436
434,-636,14.7058,43.4727,0.00239857,0.00187843,-0.00323213,0.00538108,-0.00110408,-0.745253,0.00400644,0.0164025,1658,1660,14.7058,-43.4727
441,-636,14.6765,42.8131,0.00239435,0.001958,-0.00344597,0.00562904,-0.00127669,-0.753784,0.00424278,0.0141243,1665,1660,14.6765,-42.8131
448,-636,14.679,42.1318,0.00254918,0.00233914,-0.00379468,0.0062403,-0.00135197,-0.771564,0.00467646,0.0158712,1672,1660,14.6789,-42.1319
455,-636,14.6161,41.4294,0.00278415,0.00262901,-0.00404432,0.00675165,-0.00133848,-0.77581,0.00500725,0.0175942,1679,1660,14.6161,-41.4294
462,-636,14.4803,40.7496,0.00308926,0.00280716,-0.00452172,0.00747213,-0.00157571,-0.769807,0.0055813,0.0262925,1686,1660,14.4803,-40.7497
469,-636,14.7109,40.14,0.0035853,0.00326754,-0.00520867,0.00863751,-0.00178467,-0.770151,0.00643624,0.0480864,1693,1660,14.7109,-40.14
476,-636,15.1232,39.5557,0,0,0,0,0,0,0,-1,1700,1660,15.1232,-39.5557
483,-636,11.3833,24.3958,0,0,0,0,0,0,0,-1,1707,1660,11.3833,-24.3957
490,-636,10.8951,23.9569,0,0,0,0,0,0,0,-1,1714,1660,10.8951,-23.9569
497,-636,9.55579,18.0111,0,0,0,0,0,0,0,-1,1721,1660,9.55574,-18.0111
504,-636,6.26428,19.4268,0,0,0,0,0,0,0,-1,1728,1660,6.26433,-19.4268
511,-636,5.65466,9.23218,0,0,0,0,0,0,0,-1,1735,1660,5.65461,-9.23216
518,-636,6.72791,1.07605,0,0,0,0,0,0,0,-1,1742,1660,6.7279,-1.0761
525,-636,7.04309,0.93335,0,0,0,0,0,0,0,-1,1749,1660,7.04308,-0.933298
532,-636,0,0,0,0,0,0,0,0,0,-1,1756,1660,0,0
539,-636,0,0,0,0,0,0,0,0,0,-1,1763,1660,0,0
546,-636,0,0,0,0,0,0,0,0,0,-1,1770,1660,0,0
553,-636,0,0,0,0,0,0,0,0,0,-1,1777,1660,0,0
560,-636,0,0,0,0,0,0,0,0,0,-1,1784,1660,0,0
567,-636,0,0,0,0,0,0,0,0,0,-1,1791,1660,0,0
574,-636,0,0,0,0,0,0,0,0,0,-1,1798,1660,0,0
581,-636,0,0,0,0,0,0,0,0,0,-1,1805,1660,0,0
588,-636,0,0,0,0,0,0,0,0,0,-1,1812,1660,0,0
595,-636,0,0,0,0,0,0,0,0,0,-1,1819,1660,0,0
602,-636,0,0,0,0,0,0,0,0,0,-1,1826,1660,0,0
609,-636,0,0,0,0,0,0,0,0,0,-1,1833,1660,0,0
616,-636,0,0,0,0,0,0,0,0,0,-1,1840,1660,0,0
623,-636,0,0,0,0,0,0,0,0,0,-1,1847,1660,0,0
630,-636,0,0,0,0,0,0,0,0,0,-1,1854,1660,0,0
637,-636,0,0,0,0,0,0,0,0,0,-1,1861,1660,0,0
644,-636,0,0,0,0,0,0,0,0,0,-1,1868,1660,0,0
651,-636,0,0,0,0,0,0,0,0,0,-1,1875,1660,0,0
658,-636,0,0,0,0,0,0,0,0,0,-1,1882,1660,0,0
665,-636,0,0,0,0,0,0,0,0,0,-1,1889,1660,0,0
672,-636,0,0,0,0,0,0,0,0,0,-1,1896,1660,0,0
679,-636,0,0,0,0,0,0,0,0,0,-1,1903,1660,0,0
686,-636,0,0,0,0,0,0,0,0,0,-1,1910,1660,0,0
693,-636,0,0,0,0,0,0,0,0,0,-1,1917,1660,0,0
700,-636,0,0,0,0,0,0,0,0,0,-1,1924,1660,0,0
707,-636,0,0,0,0,0,0,0,0,0,-1,1931,1660,0,0
714,-636,0,0,0,0,0,0,0,0,0,-1,1938,1660,0,0
721,-636,0,0,0,0,0,0,0,0,0,-1,1945,1660,0,0
728,-636,0,0,0,0,0,0,0,0,0,-1,1952,1660,0,0
735,-636,0,0,0,0,0,0,0,0,0,-1,1959,1660,0,0
742,-636,0,0,0,0,0,0,0,0,0,-1,1966,1660,0,0
749,-636,0,0,0,0,0,0,0,0,0,-1,1973,1660,0,0
756,-636,0,0,0,0,0,0,0,0,0,-1,1980,1660,0,0
763,-636,0,0,0,0,0,0,0,0,0,-1,1987,1660,0,0
770,-636,0,0,0,0,0,0,0,0,0,-1,1994,1660,0,0
777,-636,0,0,0,0,0,0,0,0,0,-1,2001,1660,0,0
784,-636,0,0,0,0,0,0,0,0,0,-1,2008,1660,0,0
791,-636,0,0,0,0,0,0,0,0,0,-1,2015,1660,0,0
798,-636,0,0,0,0,0,0,0,0,0,-1,2022,1660,0,0
805,-636,0,0,0,0,0,0,0,0,0,-1,2029,1660,0,0
812,-636,0,0,0,0,0,0,0,0,0,-1,2036,1660,0,0
-700,-643,0,0,0,0,0,0,0,0,0,-1,524,1667,0,0
-693,-643,0,0,0,0,0,0,0,0,0,-1,531,1667,0,0
-686,-643,0,0,0,0,0,0,0,0,0,-1,538,1667,0,0
-679,-643,0,0,0,0,0,0,0,0,0,-1,545,1667,0,0
-672,-643,0,0,0,0,0,0,0,0,0,-1,552,1667,0,0
-665,-643,0,0,0,0,0,0,0,0,0,-1,559,1667,0,0
-658,-643,0,0,0,0,0,0,0,0,0,-1,566,1667,0,0
-651,-643,0,0,0,0,0,0,0,0,0,-1,573,1667,0,0
-644,-643,0,0,0,0,0,0,0,0,0,-1,580,1667,0,0
-637,-643,0,0,0,0,0,0,0,0,0,-1,587,1667,0,0
-630,-643,0,0,0,0,0,0,0,0,0,-1,594,1667,0,0
-623,-643,0,0,0,0,0,0,0,0,0,-1,601,1667,0,0
-616,-643,0,0,0,0,0,0,0,0,0,-1,608,1667,0,0
-609,-643,0,0,0,0,0,0,0,0,0,-1,615,1667,0,0
-602,-643,0,0,0,0,0,0,0,0,0,-1,622,1667,0,0
-595,-643,0,0,0,0,0,0,0,0,0,-1,629,1667,0,0
-588,-643,0,0,0,0,0,0,0,0,0,-1,636,1667,0,0
-581,-643,0,0,0,0,0,0,0,0,0,-1,643,1667,0,0
-574,-643,0,0,0,0,0,0,0,0,0,-1,650,1667,0,0
-567,-643,0,0,0,0,0,0,0,0,0,-1,657,1667,0,0
-560,-643,0,0,0,0,0,0,0,0,0,-1,664,1667,0,0
-553,-643,0,0,0,0,0,0,0,0,0,-1,671,1667,0,0
-546,-643,0,0,0,0,0,0,0,0,0,-1,678,1667,0,0
-539,-643,0,0,0,0,0,0,0,0,0,-1,685,1667,0,0
-532,-643,0,0,0,0,0,0,0,0,0,-1,692,1667,0,0
-525,-643,0,0,0,0,0,0,0,0,0,-1,699,1667,0,0
-518,-643,0,0,0,0,0,0,0,0,0,-1,706,1667,0,0
-511,-643,0,0,0,0,0,0,0,0,0,-1,713,1667,0,0
-504,-643,0,0,0,0,0,0,0,0,0,-1,720,1667,0,0
-497,-643,0,0,0,0,0,0,0,0,0,-1,727,1667,0,0
-490,-643,0,0,0,0,0,0,0,0,0,-1,734,1667,0,0
-483,-643,0,0,0,0,0,0,0,0,0,-1,741,1667,0,0
-476,-643,0,0,0,0,0,0,0,0,0,-1,748,1667,0,0
-469,-643,0,0,0,0,0,0,0,0,0,-1,755,1667,0,0
-462,-643,0,0,0,0,0,0,0,0,0,-1,762,1667,0,0
-455,-643,0,0,0,0,0,0,0,0,0,-1,769,1667,0,0
-448,-643,0,0,0,0,0,0,0,0,0,-1,776,1667,0,0
-441,-643,0,0,0,0,0,0,0,0,0,-1,783,1667,0,0
-434,-643,0,0,0,0,0,0,0,0,0,-1,790,1667,0,0
-427,-643,0,0,0,0,0,0,0,0,0,-1,797,1667,0,0
-420,-643,0,0,0,0,0,0,0,0,0,-1,804,1667,0,0
-413,-643,0,0,0,0,0,0,0,0,0,-1,811,1667,0,0
-406,-643,0,0,0,0,0,0,0,0,0,-1,818,1667,0,0
-399,-643,0.589417,11.6465,0,0,0,0,0,0,0,-1,825,1667,0.58939,-11.6465
-392,-643,0.865295,12.6523,0,0,0,0,0,0,0,-1,832,1667,0.865315,-12.6523
-385,-643,1.72968,13.2692,0,0,0,0,0,0,0,-1,839,1667,1.72967,-13.2692
-378,-643,2.66522,13.8193,0,0,0,0,0,0,0,-1,846,1667,2.66524,-13.8193
-371,-643,0.466125,3.35095,0,0,0,0,0,0,0,-1,853,1667,0.466148,-3.351
-364,-643,1.69513,9.922,0,0,0,0,0,0,0,-1,860,1667,1.69511,-9.92205
-357,-643,1.14227,10.8429,0,0,0,0,0,0,0,-1,867,1667,1.14228,-10.8429
-350,-643,4.48804,36.1799,0,0,0,0,0,0,0,-1,874,1667,4.48801,-36.1799
-343,-643,3.9126,39.6978,0,0,0,0,0,0,0,-1,881,1667,3.91263,-39.6978
-336,-643,3.98553,40.5992,0,0,0,0,0,0,0,-1,888,1667,3.98552,-40.5992
-329,-643,3.98383,41.2051,0.0142112,-0.00102529,0.0101601,0.019292,-0.00610608,0.463706,0.0153081,0.0442306,895,1667,3.98381,-41.2051
-322,-643,3.97754,41.9443,0.0121835,-0.000373482,0.0091259,0.0169821,-0.00517206,0.484089,0.0133828,0.0304117,902,1667,3.97756,-41.9443
-315,-643,3.85162,42.6205,0.0104571,-2.30735e-05,0.00801898,0.0147963,-0.00436226,0.495996,0.0115951,0.0197977,909,1667,3.85163,-42.6205
-308,-643,3.84058,43.2964,0.00886663,0.000309414,0.00695024,0.0127497,-0.00357362,0.509491,0.00990818,0.0135052,916,1667,3.84057,-43.2964
-301,-643,3.80237,43.9985,0.00737847,0.000585858,0.00598547,0.0108641,-0.00289975,0.527337,0.00837828,0.0149641,923,1667,3.80235,-43.9986
-294,-643,3.74603,44.6671,0.00615971,0.00070668,0.00512076,0.00923458,-0.00236819,0.540766,0.00707908,0.0143084,930,1667,3.74606,-44.6671
-287,-643,3.71021,45.3043,0.00500038,0.000894491,0.00432549,0.00773538,-0.00184051,0.563831,0.00586745,0.0118625,937,1667,3.7102,-45.3044
-280,-643,3.6759,45.9633,0.00397534,0.00114988,0.00361434,0.00644324,-0.00131802,0.599094,0.00479559,0.015265,944,1667,3.67589,-45.9632
-273,-643,3.64374,46.6228,0.0033845,0.00125044,0.00311516,0.0056103,-0.000975369,0.620397,0.00410414,0.0121851,951,1667,3.64374,-46.6228
-266,-643,3.60577,47.2959,0.00307963,0.00146812,0.0027141,0.00510505,-0.000557311,0.641103,0.00360353,0.0121633,958,1667,3.60579,-47.2959
-259,-643,3.58636,47.9459,0.00300097,0.00178076,0.0023945,0.00486187,-8.01424e-05,0.660655,0.00326829,0.0139187,965,1667,3.58638,-47.9459
-252,-643,3.55103,48.5664,0.00308851,0.00211928,0.00214079,0.00479885,0.000408931,0.674088,0.00307201,0.0158778,972,1667,3.55102,-48.5664
-245,-643,3.53699,49.1927,0.00319555,0.00232612,0.00181841,0.00463049,0.000891181,0.668069,0.00283698,0.012891,979,1667,3.53701,-49.1927
-238,-643,3.58038,49.8138,0.00394352,0.00225016,0.00184671,0.00512839,0.00106529,0.570457,0.00312495,0.0143041,986,1667,3.58038,-49.8139
-231,-643,3.54572,50.4203,0.00511971,0.00240087,0.00220838,0.00635354,0.00116704,0.509503,0.00390525,0.0110624,993,1667,3.5457,-50.4203
-224,-643,3.53693,51.0085,0.0059393,0.00229933,0.00233228,0.00707767,0.00116096,0.454077,0.00438302,0.0101063,1000,1667,3.5369,-51.0085
-217,-643,3.51843,51.582,0.0065935,0.0019802,0.00229389,0.00753994,0.00103376,0.391313,0.00471993,0.00965055,1007,1667,3.51844,-51.5821
-210,-643,3.5036,52.1982,0.00738973,0.00170556,0.0022231,0.00815591,0.000939371,0.331898,0.00515277,0.0129041,1014,1667,3.5036,-52.1982
-203,-643,3.49561,52.8373,0.00836408,0.00138764,0.00227545,0.00904064,0.000711085,0.289004,0.0058046,0.0170485,1021,1667,3.49555,-52.8373
-196,-643,3.51709,53.3857,0.00917311,0.00111812,0.00235321,0.0098102,0.000481036,0.264392,0.00638583,0.0177679,1028,1667,3.51705,-53.3857
-189,-643,3.60071,53.9072,0.0096148,0.00136021,0.00226364,0.0101948,0.000780205,0.250829,0.00655197,0.0186443,1035,1667,3.60067,-53.9072
-182,-643,3.68286,54.5244,0.00980026,0.00243963,0.00228793,0.0104535,0.00178643,0.2781,0.00645641,0.0302993,1042,1667,3.68287,-54.5245
-175,-643,3.75476,54.9994,0.0098446,0.00373667,0.00227379,0.0105981,0.00298316,0.319998,0.0063106,0.0472644,1049,1667,3.75481,-54.9994
-168,-643,3.37646,55.3896,0.00950375,0.00580891,0.00211765,0.0104666,0.0048461,0.426722,0.00604838,0.0485751,1056,1667,3.37647,-55.3897
-161,-643,3.3446,56.0504,0.00893679,0.00875464,0.00193764,0.0107855,0.00690593,0.761915,0.00630819,0.0493211,1063,1667,3.34463,-56.0504
-154,-643,3.23254,56.4694,0,0,0,0,0,0,0,-1,1070,1667,3.23258,-56.4694
-147,-643,3.95142,56.4366,0,0,0,0,0,0,0,-1,1077,1667,3.95136,-56.4366
-140,-643,3.422,57.9457,0,0,0,0,0,0,0,-1,1084,1667,3.42204,-57.9457
-133,-643,3.31226,58.6267,0,0,0,0,0,0,0,-1,1091,1667,3.31224,-58.6268
-126,-643,3.28662,58.6659,0,0,0,0,0,0,0,-1,1098,1667,3.28657,-58.6658
-119,-643,3.76282,14.1458,0,0,0,0,0,0,0,-1,1105,1667,3.76283,-14.1458
-112,-643,3.81458,16.2069,0,0,0,0,0,0,0,-1,1112,1667,3.81463,-16.2069
-105,-643,-2.23413,10.0996,0,0,0,0,0,0,0,-1,1119,1667,-2.23415,-10.0996
-98,-643,3.11035,4.68066,0,0,0,0,0,0,0,-1,1126,1667,3.11041,-4.68071
-91,-643,-1.74146,-2.5885,0,0,0,0,0,0,0,-1,1133,1667,-1.74146,2.58856
-84,-643,-3.07446,-0.199341,0,0,0,0,0,0,0,-1,1140,1667,-3.07449,0.199383
-77,-643,-3.63794,2.81165,0,0,0,0,0,0,0,-1,1147,1667,-3.63791,-2.8117
-70,-643,-3.36938,4.45203,0,0,0,0,0,0,0,-1,1154,1667,-3.36941,-4.452
-63,-643,-3.67822,6.26855,0,0,0,0,0,0,0,-1,1161,1667,-3.67823,-6.26856
-56,-643,-3.95142,8.1073,0,0,0,0,0,0,0,-1,1168,1667,-3.95139,-8.10732
-49,-643,-4.23535,9.90552,0,0,0,0,0,0,0,-1,1175,1667,-4.23537,-9.90557
-42,-643,-4.25195,10.7059,0,0,0,0,0,0,0,-1,1182,1667,-4.25192,-10.706
-35,-643,-4.10986,11.6588,0,0,0,0,0,0,0,-1,1189,1667,-4.10982,-11.6589
-28,-643,-1.38513,5.604,0,0,0,0,0,0,0,-1,1196,1667,-1.3851,-5.60403
-21,-643,1.61011,23.1276,0,0,0,0,0,0,0,-1,1203,1667,1.61011,-23.1275
-14,-643,13.2256,68.0854,0,0,0,0,0,0,0,-1,1210,1667,13.2256,-68.0855
-7,-643,8.48315,63.8124,0,0,0,0,0,0,0,-1,1217,1667,8.48315,-63.8124
0,-643,4.56641,65.8411,0,0,0,0,0,0,0,-1,1224,1667,4.56646,-65.8411
7,-643,5.05139,65.9783,0,0,0,0,0,0,0,-1,1231,1667,5.05143,-65.9783
14,-643,5.45313,65.9463,0,0,0,0,0,0,0,-1,1238,1667,5.45318,-65.9463
21,-643,5.3894,66.266,0.0358094,0.111866,-0.0456874,0.133281,0.0143946,-1.13248,0.0844657,0.0427333,1245,1667,5.3894,-66.266
28,-643,5.44849,66.3235,0.0331582,0.104266,-0.0482473,0.128645,0.00877987,-1.10293,0.0829914,0.0433983,1252,1667,5.44847,-66.3235
35,-643,5.49097,66.4602,0.0299885,0.0951412,-0.0500373,0.122272,0.00285768,-1.07395,0.080579,0.0418056,1259,1667,5.49094,-66.4602
42,-643,5.7699,66.9091,0,0,0,0,0,0,0,-1,1266,1667,5.76988,-66.909
49,-643,7.34106,66.9567,0,0,0,0,0,0,0,-1,1273,1667,7.34102,-66.9566
56,-643,7.53052,66.4698,0,0,0,0,0,0,0,-1,1280,1667,7.53053,-66.4698
63,-643,7.68567,66.1445,0,0,0,0,0,0,0,-1,1287,1667,7.68572,-66.1446
70,-643,7.32227,65.5095,-0.0134433,0.0636938,-0.0566645,0.0936701,-0.0434196,-1.08421,0.0809018,0.0429563,1294,1667,7.3223,-65.5096
77,-643,7.06775,65.3661,-0.0240425,0.0627412,-0.0583366,0.0920543,-0.0533556,-1.10516,0.0849377,0.0415245,1301,1667,7.06777,-65.3661
84,-643,6.92249,64.8096,0,0,0,0,0,0,0,-1,1308,1667,6.92249,-64.8096
91,-643,6.45654,64.657,0,0,0,0,0,0,0,-1,1315,1667,6.45653,-64.657
98,-643,6.49731,64.5509,0,0,0,0,0,0,0,-1,1322,1667,6.49728,-64.5509
105,-643,6.26465,64.6091,-0.0697076,0.0886206,-0.0769048,0.119825,-0.100912,-1.18534,0.127599,0.0468501,1329,1667,6.2646,-64.6091
112,-643,5.99243,64.1221,-0.0752768,0.0973826,-0.0817565,0.129952,-0.107846,-1.1917,0.13749,0.0476472,1336,1667,5.9924,-64.122
119,-643,6.07104,63.5112,0,0,0,0,0,0,0,-1,1343,1667,6.07111,-63.5113
126,-643,6.17188,62.9949,0,0,0,0,0,0,0,-1,1350,1667,6.17183,-62.9949
133,-643,6.28528,62.4706,0,0,0,0,0,0,0,-1,1357,1667,6.28526,-62.4706
140,-643,10.6727,57.2428,0,0,0,0,0,0,0,-1,1364,1667,10.6728,-57.2428
147,-643,11.309,56.9778,0,0,0,0,0,0,0,-1,1371,1667,11.3089,-56.9778
154,-643,12.1073,56.53,0,0,0,0,0,0,0,-1,1378,1667,12.1074,-56.5301
161,-643,5.57935,26.2754,0,0,0,0,0,0,0,-1,1385,1667,5.57931,-26.2754
168,-643,10.5563,10.9818,0,0,0,0,0,0,0,-1,1392,1667,10.5562,-10.9819
175,-643,5.88525,-1.1698,0,0,0,0,0,0,0,-1,1399,1667,5.88526,1.16977
182,-643,5.80945,-0.418701,0,0,0,0,0,0,0,-1,1406,1667,5.80949,0.418712
189,-643,5.42297,12.9208,0,0,0,0,0,0,0,-1,1413,1667,5.42298,-12.9208
196,-643,5.51953,11.2415,0,0,0,0,0,0,0,-1,1420,1667,5.51948,-11.2414
203,-643,5.60828,9.82153,0,0,0,0,0,0,0,-1,1427,1667,5.60833,-9.82148
210,-643,4.73218,7.58728,0,0,0,0,0,0,0,-1,1434,1667,4.73222,-7.58728
217,-643,3.8031,5.28955,0,0,0,0,0,0,0,-1,1441,1667,3.80305,-5.28955
224,-643,2.96436,2.97095,0,0,0,0,0,0,0,-1,1448,1667,2.96432,-2.97095
231,-643,2.13403,1.08472,0,0,0,0,0,0,0,-1,1455,1667,2.13403,-1.08467
238,-643,1.18152,-0.261963,0,0,0,0,0,0,0,-1,1462,1667,1.18152,0.26192
245,-643,-0.157471,-1.79016,0,0,0,0,0,0,0,-1,1469,1667,-0.157517,1.7901
252,-643,8.08789,0.0202637,0,0,0,0,0,0,0,-1,1476,1667,8.08791,-0.0203056
259,-643,9.02979,-0.46936,0,0,0,0,0,0,0,-1,1483,1667,9.02974,0.46933
266,-643,4.55066,5.17554,0,0,0,0,0,0,0,-1,1490,1667,4.55063,-5.17556
273,-643,10.74,31.432,0,0,0,0,0,0,0,-1,1497,1667,10.7399,-31.4319
280,-643,12.1675,42.5023,0,0,0,0,0,0,0,-1,1504,1667,12.1675,-42.5023
287,-643,12.9725,46.299,0,0,0,0,0,0,0,-1,1511,1667,12.9725,-46.299
294,-643,13.5532,55.0948,0,0,0,0,0,0,0,-1,1518,1667,13.5533,-55.0949
301,-643,13.8212,54.9003,0,0,0,0,0,0,0,-1,1525,1667,13.8212,-54.9003
308,-643,14.2202,54.33,0,0,0,0,0,0,0,-1,1532,1667,14.2202,-54.33
315,-643,14.301,53.8325,0.00877062,0.00458855,-0.00272127,0.0101115,0.00324771,-0.45781,0.00596099,0.0323014,1539,1667,14.301,-53.8326
322,-643,14.2632,53.2511,0.0076849,0.00566189,-0.00276659,0.0096191,0.00372769,-0.61014,0.00560023,0.0212577,1546,1667,14.2632,-53.2511
329,-643,14.2732,52.6372,0.0067755,0.00745042,-0.00291511,0.0100475,0.00417838,-0.843023,0.00582826,0.0138011,1553,1667,14.2732,-52.6372
336,-643,14.2479,52.0865,0.00578338,0.00849786,-0.0029882,0.0104226,0.00385863,-0.998568,0.0060847,0.0128644,1560,1667,14.2479,-52.0866
343,-643,14.2671,51.5361,0.00492659,0.00919663,-0.00307374,0.0108041,0.00331912,-1.08894,0.00639044,0.0140536,1567,1667,14.2671,-51.5361
350,-643,14.3131,50.954,0.00413696,0.00944552,-0.00301836,0.0108107,0.00277183,-1.14605,0.00648376,0.012813,1574,1667,14.3131,-50.9539
357,-643,14.3042,50.3604,0.00365344,0.00938764,-0.00313575,0.0107694,0.00227164,-1.15574,0.00655497,0.011417,1581,1667,14.3042,-50.3603
364,-643,14.3075,49.7562,0.00333134,0.0089203,-0.00326958,0.0104269,0.00182474,-1.139,0.00642991,0.0108073,1588,1667,14.3075,-49.7562
371,-643,14.2954,49.1604,0.00313398,0.00811965,-0.00337078,0.00981924,0.0014344,-1.10379,0.00612428,0.00886387,1595,1667,14.2954,-49.1604
378,-643,14.2754,48.5503,0.00300463,0.00714483,-0.00342556,0.00907719,0.00107226,-1.05719,0.0057276,0.0102518,1602,1667,14.2753,-48.5502
385,-643,14.2883,47.9358,0.0029823,0.00602551,-0.00346319,0.00828662,0.000721182,-0.992386,0.0053004,0.0164736,1609,1667,14.2884,-47.9358
392,-643,14.2537,47.333,0.00300738,0.00500333,-0.00361481,0.00775539,0.000255318,-0.920083,0.00508729,0.0180074,1616,1667,14.2536,-47.333
399,-643,14.2008,46.729,0.00288595,0.00391396,-0.00366499,0.00710082,-0.000300907,-0.855068,0.0048373,0.0148673,1623,1667,14.2008,-46.729
406,-643,14.2072,46.0695,0.00276511,0.00291062,-0.00372109,0.00655967,-0.000883942,-0.795173,0.00469557,0.0137199,1630,1667,14.2072,-46.0694
413,-643,14.2167,45.397,0.00265654,0.00227209,-0.00372544,0.00619471,-0.00126608,-0.759622,0.00461015,0.0204203,1637,1667,14.2166,-45.397
420,-643,14.1349,44.7828,0.00276705,0.00174604,-0.00383473,0.00612511,-0.00161202,-0.719224,0.00471355,0.0189813,1644,1667,14.1349,-44.7828
427,-643,14.0745,44.1616,0.00286326,0.00156446,-0.00404593,0.00631158,-0.00188386,-0.705824,0.00495648,0.0162822,1651,1667,14.0745,-44.1617
434,-643,14.0726,43.5051,0.00300597,0.00193503,-0.00438324,0.00688632,-0.00194533,-0.724618,0.00535835,0.0180704,1658,1667,14.0726,-43.5052
441,-643,14.0543,42.832,0.00307219,0.00247378,-0.00477653,0.00755888,-0.00201291,-0.754119,0.00582729,0.0175302,1665,1667,14.0543,-42.8321
448,-643,14.0581,42.1515,0.00326985,0.00330236,-0.00523007,0.0085162,-0.00194399,-0.786952,0.00642427,0.023294,1672,1667,14.0582,-42.1515
455,-643,13.8754,41.5548,0.00357223,0.00388505,-0.00539937,0.00913027,-0.00167299,-0.799878,0.00671435,0.0293249,1679,1667,13.8753,-41.5549
462,-643,13.667,40.6699,0.00406786,0.00419144,-0.00592783,0.0100578,-0.0017985,-0.79061,0.00737813,0.0458534,1686,1667,13.667,-40.6699
469,-643,13.7684,39.8926,0,0,0,0,0,0,0,-1,1693,1667,13.7684,-39.8925
476,-643,10.5598,24.5066,0,0,0,0,0,0,0,-1,1700,1667,10.5598,-24.5065
483,-643,10.4502,24.3062,0,0,0,0,0,0,0,-1,1707,1667,10.4502,-24.3062
490,-643,10.6885,24.1522,0,0,0,0,0,0,0,-1,1714,1667,10.6884,-24.1522
497,-643,10.9073,23.9465,0,0,0,0,0,0,0,-1,1721,1667,10.9074,-23.9465
504,-643,8.05591,19.0656,0,0,0,0,0,0,0,-1,1728,1667,8.0559,-19.0655
511,-643,7.74719,18.1564,0,0,0,0,0,0,0,-1,1735,1667,7.74724,-18.1563
518,-643,7.40564,0.922607,0,0,0,0,0,0,0,-1,1742,1667,7.4057,-0.922598
525,-643,0,0,0,0,0,0,0,0,0,-1,1749,1667,0,0
532,-643,0,0,0,0,0,0,0,0,0,-1,1756,1667,0,0
539,-643,0,0,0,0,0,0,0,0,0,-1,1763,1667,0,0
546,-643,0,0,0,0,0,0,0,0,0,-1,1770,1667,0,0
553,-643,0,0,0,0,0,0,0,0,0,-1,1777,1667,0,0
560,-643,0,0,0,0,0,0,0,0,0,-1,1784,1667,0,0
567,-643,0,0,0,0,0,0,0,0,0,-1,1791,1667,0,0
574,-643,0,0,0,0,0,0,0,0,0,-1,1798,1667,0,0
581,-643,0,0,0,0,0,0,0,0,0,-1,1805,1667,0,0
588,-643,0,0,0,0,0,0,0,0,0,-1,1812,1667,0,0
595,-643,0,0,0,0,0,0,0,0,0,-1,1819,1667,0,0
602,-643,0,0,0,0,0,0,0,0,0,-1,1826,1667,0,0
609,-643,0,0,0,0,0,0,0,0,0,-1,1833,1667,0,0
616,-643,0,0,0,0,0,0,0,0,0,-1,1840,1667,0,0
623,-643,0,0,0,0,0,0,0,0,0,-1,1847,1667,0,0
630,-643,0,0,0,0,0,0,0,0,0,-1,1854,1667,0,0
637,-643,0,0,0,0,0,0,0,0,0,-1,1861,1667,0,0
644,-643,0,0,0,0,0,0,0,0,0,-1,1868,1667,0,0
651,-643,0,0,0,0,0,0,0,0,0,-1,1875,1667,0,0
658,-643,0,0,0,0,0,0,0,0,0,-1,1882,1667,0,0
665,-643,0,0,0,0,0,0,0,0,0,-1,1889,1667,0,0
672,-643,0,0,0,0,0,0,0,0,0,-1,1896,1667,0,0
679,-643,0,0,0,0,0,0,0,0,0,-1,1903,1667,0,0
686,-643,0,0,0,0,0,0,0,0,0,-1,1910,1667,0,0
693,-643,0,0,0,0,0,0,0,0,0,-1,1917,1667,0,0
700,-643,0,0,0,0,0,0,0,0,0,-1,1924,1667,0,0
707,-643,0,0,0,0,0,0,0,0,0,-1,1931,1667,0,0
714,-643,0,0,0,0,0,0,0,0,0,-1,1938,1667,0,0
721,-643,0,0,0,0,0,0,0,0,0,-1,1945,1667,0,0
728,-643,0,0,0,0,0,0,0,0,0,-1,1952,1667,0,0
735,-643,0,0,0,0,0,0,0,0,0,-1,1959,1667,0,0
742,-643,0,0,0,0,0,0,0,0,0,-1,1966,1667,0,0
749,-643,0,0,0,0,0,0,0,0,0,-1,1973,1667,0,0
756,-643,0,0,0,0,0,0,0,0,0,-1,1980,1667,0,0
763,-643,0,0,0,0,0,0,0,0,0,-1,1987,1667,0,0
770,-643,0,0,0,0,0,0,0,0,0,-1,1994,1667,0,0
777,-643,0,0,0,0,0,0,0,0,0,-1,2001,1667,0,0
784,-643,0,0,0,0,0,0,0,0,0,-1,2008,1667,0,0
791,-643,0,0,0,0,0,0,0,0,0,-1,2015,1667,0,0
798,-643,0,0,0,0,0,0,0,0,0,-1,2022,1667,0,0
805,-643,0,0,0,0,0,0,0,0,0,-1,2029,1667,0,0
812,-643,0,0,0,0,0,0,0,0,0,-1,2036,1667,0,0
-700,-650,0,0,0,0,0,0,0,0,0,-1,524,1674,0,0
-693,-650,0,0,0,0,0,0,0,0,0,-1,531,1674,0,0
-686,-650,0,0,0,0,0,0,0,0,0,-1,538,1674,0,0
-679,-650,0,0,0,0,0,0,0,0,0,-1,545,1674,0,0
-672,-650,0,0,0,0,0,0,0,0,0,-1,552,1674,0,0
-665,-650,0,0,0,0,0,0,0,0,0,-1,559,1674,0,0
-658,-650,0,0,0,0,0,0,0,0,0,-1,566,1674,0,0
-651,-650,0,0,0,0,0,0,0,0,0,-1,573,1674,0,0
-644,-650,0,0,0,0,0,0,0,0,0,-1,580,1674,0,0
-637,-650,0,0,0,0,0,0,0,0,0,-1,587,1674,0,0
-630,-650,0,0,0,0,0,0,0,0,0,-1,594,1674,0,0
-623,-650,0,0,0,0,0,0,0,0,0,-1,601,1674,0,0
-616,-650,0,0,0,0,0,0,0,0,0,-1,608,1674,0,0
-609,-650,0,0,0,0,0,0,0,0,0,-1,615,1674,0,0
-602,-650,0,0,0,0,0,0,0,0,0,-1,622,1674,0,0
-595,-650,0,0,0,0,0,0,0,0,0,-1,629,1674,0,0
-588,-650,0,0,0,0,0,0,0,0,0,-1,636,1674,0,0
-581,-650,0,0,0,0,0,0,0,0,0,-1,643,1674,0,0
-574,-650,0,0,0,0,0,0,0,0,0,-1,650,1674,0,0
-567,-650,0,0,0,0,0,0,0,0,0,-1,657,1674,0,0
-560,-650,0,0,0,0,0,0,0,0,0,-1,664,1674,0,0
-553,-650,0,0,0,0,0,0,0,0,0,-1,671,1674,0,0
-546,-650,0,0,0,0,0,0,0,0,0,-1,678,1674,0,0
-539,-650,0,0,0,0,0,0,0,0,0,-1,685,1674,0,0
-532,-650,0,0,0,0,0,0,0,0,0,-1,692,1674,0,0
-525,-650,0,0,0,0,0,0,0,0,0,-1,699,1674,0,0
-518,-650,0,0,0,0,0,0,0,0,0,-1,706,1674,0,0
-511,-650,0,0,0,0,0,0,0,0,0,-1,713,1674,0,0
-504,-650,0,0,0,0,0,0,0,0,0,-1,720,1674,0,0
-497,-650,0,0,0,0,0,0,0,0,0,-1,727,1674,0,0
-490,-650,0,0,0,0,0,0,0,0,0,-1,734,1674,0,0
-483,-650,0,0,0,0,0,0,0,0,0,-1,741,1674,0,0
-476,-650,0,0,0,0,0,0,0,0,0,-1,748,1674,0,0
-469,-650,0,0,0,0,0,0,0,0,0,-1,755,1674,0,0
-462,-650,0,0,0,0,0,0,0,0,0,-1,762,1674,0,0
-455,-650,0,0,0,0,0,0,0,0,0,-1,769,1674,0,0
-448,-650,0,0,0,0,0,0,0,0,0,-1,776,1674,0,0
-441,-650,0,0,0,0,0,0,0,0,0,-1,783,1674,0,0
-434,-650,0,0,0,0,0,0,0,0,0,-1,790,1674,0,0
-427,-650,0,0,0,0,0,0,0,0,0,-1,797,1674,0,0
-420,-650,0,0,0,0,0,0,0,0,0,-1,804,1674,0,0
-413,-650,0,0,0,0,0,0,0,0,0,-1,811,1674,0,0
-406,-650,0,0,0,0,0,0,0,0,0,-1,818,1674,0,0
-399,-650,0,0,0,0,0,0,0,0,0,-1,825,1674,0,0
-392,-650,5.44415,6.85669,0,0,0,0,0,0,0,-1,832,1674,5.44414,-6.85674
-385,-650,1.74451,14.0183,0,0,0,0,0,0,0,-1,839,1674,1.74453,-14.0183
-378,-650,0.997986,4.11108,0,0,0,0,0,0,0,-1,846,1674,0.998006,-4.11113
-371,-650,-1.80096,3.78625,0,0,0,0,0,0,0,-1,853,1674,-1.80094,-3.78625
-364,-650,-2.95679,2.57507,0,0,0,0,0,0,0,-1,860,1674,-2.95681,-2.57506
-357,-650,5.76074,34.531,0,0,0,0,0,0,0,-1,867,1674,5.76077,-34.531
-350,-650,5.11011,35.4972,0,0,0,0,0,0,0,-1,874,1674,5.1101,-35.4971
-343,-650,5.20538,37.4165,0,0,0,0,0,0,0,-1,881,1674,5.20538,-37.4166
-336,-650,4.41937,40.5676,0,0,0,0,0,0,0,-1,888,1674,4.41937,-40.5676
-329,-650,5.05243,41.2141,0,0,0,0,0,0,0,-1,895,1674,5.05244,-41.2141
-322,-650,4.73474,41.9501,0,0,0,0,0,0,0,-1,902,1674,4.73475,-41.9501
-315,-650,4.41705,42.686,0,0,0,0,0,0,0,-1,909,1674,4.41705,-42.6861
-308,-650,4.45093,43.2683,0.0136192,0.00132695,0.0104158,0.0195671,-0.00462092,0.518853,0.014827,0.0242931,916,1674,4.45091,-43.2683
-301,-650,4.45459,44.0188,0.0111022,0.0012294,0.00876105,0.0162219,-0.00389025,0.528843,0.0123178,0.0136305,923,1674,4.45458,-44.0188
-294,-650,4.4162,44.6874,0.00890975,0.000969807,0.00721582,0.0131756,-0.00329604,0.533909,0.010064,0.0109348,930,1674,4.41617,-44.6874
-287,-650,4.36487,45.3467,0.00688107,0.000831365,0.0058317,0.0104257,-0.00271329,0.546154,0.0080096,0.0145622,937,1674,4.36485,-45.3467
-280,-650,4.31744,46,0.00508686,0.000884054,0.00465826,0.00809577,-0.00212485,0.573508,0.00622749,0.0155157,944,1674,4.31744,-46
-273,-650,4.26953,46.678,0.00385692,0.000793881,0.00376694,0.00639177,-0.00174097,0.59232,0.00494474,0.0139856,951,1674,4.26953,-46.6779
-266,-650,4.25024,47.3292,0.00303942,0.000868672,0.00305873,0.00519964,-0.00129155,0.614906,0.00396764,0.0116017,958,1674,4.25026,-47.3293
-259,-650,4.2124,47.9733,0.00254689,0.00107377,0.00251577,0.00443171,-0.00081105,0.64299,0.00325864,0.0153901,965,1674,4.21238,-47.9732
-252,-650,4.17731,48.5862,0.0023079,0.0013234,0.00210274,0.00397524,-0.000343936,0.670418,0.00277192,0.0154066,972,1674,4.17732,-48.5862
-245,-650,4.15509,49.1956,0.00202105,0.00140058,0.00150676,0.00324919,0.000172449,0.683869,0.00211099,0.014303,979,1674,4.1551,-49.1955
-238,-650,4.14484,49.8536,0.00236805,0.00146851,0.00141834,0.00340623,0.000430334,0.63186,0.00214183,0.0135726,986,1674,4.14483,-49.8536
-231,-650,4.10907,50.4858,0.00324443,0.00166461,0.00171812,0.00434552,0.00056352,0.56993,0.00272864,0.0172505,993,1674,4.10907,-50.4859
-224,-650,4.117,51.0593,0.004,0.00161905,0.00179302,0.00496177,0.000657283,0.492338,0.00311198,0.0148186,1000,1674,4.11702,-51.0593
-217,-650,4.11279,51.6206,0.00458547,0.0014083,0.00166126,0.00529544,0.000698322,0.403879,0.00332208,0.0103904,1007,1674,4.11278,-51.6206
-210,-650,4.10236,52.2056,0.00520252,0.00125461,0.00152476,0.00572283,0.000734293,0.328853,0.00359554,0.00995621,1014,1674,4.10235,-52.2056
-203,-650,4.13635,52.7764,0.00590837,0.00100375,0.00140592,0.0062828,0.000629327,0.26028,0.00399531,0.01586,1021,1674,4.13632,-52.7763
-196,-650,4.13525,53.324,0.00650469,0.000800463,0.00132168,0.00679605,0.000509108,0.216972,0.00437089,0.0154231,1028,1674,4.13522,-53.324
-189,-650,4.11377,53.8748,0.00682459,0.00107339,0.00111461,0.00703305,0.000864933,0.184889,0.00442864,0.0129506,1035,1674,4.11381,-53.8747
-182,-650,4.19275,54.4939,0.00695354,0.00204333,0.000987848,0.00714482,0.00185205,0.191272,0.00428154,0.0140287,1042,1674,4.1928,-54.4939
-175,-650,4.19263,54.9647,0.00708631,0.00320503,0.000922284,0.00729432,0.00299702,0.221825,0.00423362,0.0231952,1049,1674,4.19263,-54.9647
-168,-650,4.14575,55.4886,0.00694644,0.00484943,0.000730098,0.00717559,0.00462028,0.304127,0.00419962,0.0282225,1056,1674,4.14571,-55.4887
-161,-650,4.04675,55.9799,0.00666866,0.00711991,0.00054658,0.0074856,0.00630297,0.981142,0.00464663,0.0350419,1063,1674,4.04671,-55.9798
-154,-650,4.14441,56.4697,0.00615322,0.0100435,0.000381818,0.0100807,0.0061161,1.47388,0.00586409,0.0357748,1070,1674,4.14436,-56.4697
-147,-650,4.19861,57.0852,0,0,0,0,0,0,0,-1,1077,1674,4.19865,-57.0852
-140,-650,4.06018,57.886,0.00459559,0.0175526,0.000126321,0.0175538,0.00459436,1.56105,0.0105113,0.0489599,1084,1674,4.06023,-57.886
-133,-650,3.98157,58.5935,0.00293704,0.0225621,-8.55381e-05,0.0225625,0.00293666,-1.56644,0.0141646,0.0453204,1091,1674,3.98159,-58.5935
-126,-650,3.95776,59.3026,0,0,0,0,0,0,0,-1,1098,1674,3.95775,-59.3026
-119,-650,5.16663,20.6232,0,0,0,0,0,0,0,-1,1105,1674,5.16665,-20.6232
-112,-650,3.86292,14.4513,0,0,0,0,0,0,0,-1,1112,1674,3.8629,-14.4513
-105,-650,7.92102,38.1313,0,0,0,0,0,0,0,-1,1119,1674,7.92104,-38.1314
-98,-650,3.3761,6.78003,0,0,0,0,0,0,0,-1,1126,1674,3.37611,-6.78009
-91,-650,3.66809,7.04443,0,0,0,0,0,0,0,-1,1133,1674,3.66806,-7.04439
-84,-650,-3.82666,-1.59521,0,0,0,0,0,0,0,-1,1140,1674,-3.82661,1.59517
-77,-650,-4.70557,1.90198,0,0,0,0,0,0,0,-1,1147,1674,-4.7056,-1.90194
-70,-650,-4.88171,3.81653,0,0,0,0,0,0,0,-1,1154,1674,-4.88176,-3.81651
-63,-650,-5.14612,5.56543,0,0,0,0,0,0,0,-1,1161,1674,-5.14612,-5.56547
-56,-650,-5.38367,7.41101,0,0,0,0,0,0,0,-1,1168,1674,-5.38361,-7.41102
-49,-650,-5.11316,8.23706,0,0,0,0,0,0,0,-1,1175,1674,-5.11317,-8.23708
-42,-650,-4.99487,9.6792,0,0,0,0,0,0,0,-1,1182,1674,-4.99484,-9.67921
-35,-650,-4.77771,11.3369,0,0,0,0,0,0,0,-1,1189,1674,-4.77769,-11.3369
-28,-650,-4.1936,13.1501,0,0,0,0,0,0,0,-1,1196,1674,-4.19358,-13.1501
-21,-650,7.52466,48.5822,0,0,0,0,0,0,0,-1,1203,1674,7.52469,-48.5821
-14,-650,7.86133,61.0398,0,0,0,0,0,0,0,-1,1210,1674,7.86135,-61.0398
-7,-650,7.92834,65.0322,0,0,0,0,0,0,0,-1,1217,1674,7.9284,-65.0322
0,-650,5.18713,65.2719,0,0,0,0,0,0,0,-1,1224,1674,5.18717,-65.2719
7,-650,5.61877,65.4039,0.0380697,0.0979451,-0.029267,0.109874,0.0261406,-1.18376,0.0662772,0.0446238,1231,1674,5.61882,-65.4039
14,-650,5.98499,65.4937,0.0379402,0.0949487,-0.0319741,0.109279,0.0236094,-1.14944,0.0663974,0.0425381,1238,1674,5.985,-65.4937
21,-650,6.07739,65.6364,0.0372971,0.0904334,-0.0346197,0.107505,0.0202259,-1.11268,0.0659695,0.0446956,1245,1674,6.0774,-65.6364
28,-650,6.32935,65.8245,0.0354465,0.0844408,-0.0370912,0.104394,0.0154929,-1.07724,0.0650499,0.0441917,1252,1674,6.32929,-65.8245
35,-650,6.75208,65.9348,0.0327716,0.0770224,-0.0387803,0.099545,0.010249,-1.04463,0.0632245,0.044271,1259,1674,6.75213,-65.9348
42,-650,7.54163,66.4818,0,0,0,0,0,0,0,-1,1266,1674,7.54165,-66.4819
49,-650,7.88391,66.4368,0.0185618,0.0626266,-0.0408031,0.0869657,-0.00577734,-1.03295,0.0599957,0.0481259,1273,1674,7.88395,-66.4368
56,-650,8.30798,66.0706,0,0,0,0,0,0,0,-1,1280,1674,8.30799,-66.0705
63,-650,8.33972,65.6279,0,0,0,0,0,0,0,-1,1287,1674,8.33966,-65.628
70,-650,8.51855,65.4634,0,0,0,0,0,0,0,-1,1294,1674,8.51857,-65.4634
77,-650,10.6942,63.4823,0,0,0,0,0,0,0,-1,1301,1674,10.6942,-63.4823
84,-650,10.8595,64.1788,0,0,0,0,0,0,0,-1,1308,1674,10.8595,-64.1788
91,-650,9.41931,64.3461,-0.0435793,0.046352,-0.0539163,0.0715924,-0.0688196,-1.13296,0.0810722,0.0471971,1315,1674,9.41931,-64.3461
98,-650,8.45044,64.1829,-0.0555295,0.0516215,-0.0585528,0.0774108,-0.0813188,-1.15592,0.0916518,0.046479,1322,1674,8.45041,-64.1829
105,-650,6.81226,63.8671,-0.0652123,0.0588987,-0.0638709,0.0858959,-0.0922095,-1.17089,0.102851,0.0482659,1329,1674,6.81226,-63.867
112,-650,6.5343,63.5667,-0.0713039,0.0656622,-0.0685058,0.0940449,-0.0996866,-1.17801,0.111867,0.0440925,1336,1674,6.53424,-63.5667
119,-650,6.47693,63.1509,0,0,0,0,0,0,0,-1,1343,1674,6.47687,-63.1509
126,-650,6.57666,62.6285,0,0,0,0,0,0,0,-1,1350,1674,6.57662,-62.6286
133,-650,10.6356,58.2844,0,0,0,0,0,0,0,-1,1357,1674,10.6356,-58.2844
140,-650,11.0977,57.6757,0,0,0,0,0,0,0,-1,1364,1674,11.0977,-57.6757
147,-650,11.7817,57.2571,0,0,0,0,0,0,0,-1,1371,1674,11.7818,-57.2571
154,-650,12.5233,56.8142,0,0,0,0,0,0,0,-1,1378,1674,12.5233,-56.8142
161,-650,4.09106,30.3021,0,0,0,0,0,0,0,-1,1385,1674,4.09104,-30.3021
168,-650,11.2113,7.87231,0,0,0,0,0,0,0,-1,1392,1674,11.2113,-7.87236
175,-650,5.62537,-0.230713,0,0,0,0,0,0,0,-1,1399,1674,5.62538,0.230745
182,-650,5.56006,0.421631,0,0,0,0,0,0,0,-1,1406,1674,5.56,-0.421652
189,-650,4.81543,11.0654,0,0,0,0,0,0,0,-1,1413,1674,4.81542,-11.0654
196,-650,5.39575,11.9077,0,0,0,0,0,0,0,-1,1420,1674,5.39575,-11.9078
203,-650,3.93628,11.8215,0,0,0,0,0,0,0,-1,1427,1674,3.93624,-11.8216
210,-650,5.40955,8.08594,0,0,0,0,0,0,0,-1,1434,1674,5.40958,-8.086
217,-650,5.12451,4.69739,0,0,0,0,0,0,0,-1,1441,1674,5.12451,-4.69738
224,-650,4.79041,1.45813,0,0,0,0,0,0,0,-1,1448,1674,4.79046,-1.45816
231,-650,4.04102,-0.642212,0,0,0,0,0,0,0,-1,1455,1674,4.04101,0.642209
238,-650,3.23022,-1.43396,0,0,0,0,0,0,0,-1,1462,1674,3.23023,1.43394
245,-650,1.65894,-2.55042,0,0,0,0,0,0,0,-1,1469,1674,1.65889,2.55036
252,-650,8.75342,0.355103,0,0,0,0,0,0,0,-1,1476,1674,8.75337,-0.355147
259,-650,5.61255,3.17566,0,0,0,0,0,0,0,-1,1483,1674,5.61257,-3.17572
266,-650,4.00403,6.10229,0,0,0,0,0,0,0,-1,1490,1674,4.00401,-6.10225
273,-650,11.9524,42.7109,0,0,0,0,0,0,0,-1,1497,1674,11.9524,-42.7109
280,-650,12.3011,46.7283,0,0,0,0,0,0,0,-1,1504,1674,12.3011,-46.7283
287,-650,13.229,55.6118,0,0,0,0,0,0,0,-1,1511,1674,13.2291,-55.6118
294,-650,13.3562,55.2413,0.0114046,-1.84641e-05,-0.00294595,0.0121196,-0.000733458,-0.2381,0.00833498,0.0468446,1518,1674,13.3562,-55.2414
301,-650,13.5271,54.7109,0.0100569,0.00094505,-0.00242289,0.0106611,0.000340849,-0.244387,0.00699652,0.033957,1525,1674,13.5271,-54.711
308,-650,13.6758,54.2603,0.00861382,0.00180802,-0.00192459,0.00912037,0.00130147,-0.25736,0.0056962,0.0203359,1532,1674,13.6758,-54.2602
315,-650,13.7181,53.7416,0.00730083,0.00231027,-0.00159107,0.00776493,0.00184617,-0.283816,0.00468411,0.0138697,1539,1674,13.7182,-53.7415
322,-650,13.7007,53.2133,0.0063126,0.00323155,-0.00164406,0.0070251,0.00251905,-0.408949,0.00410967,0.0124019,1546,1674,13.7007,-53.2133
329,-650,13.7205,52.6265,0.00548779,0.00451359,-0.00180384,0.00686915,0.00313224,-0.653526,0.00397102,0.0156336,1553,1674,13.7205,-52.6264
336,-650,13.7031,52.0994,0.00467279,0.00542311,-0.00191638,0.00700071,0.0030952,-0.882058,0.00405087,0.0143367,1560,1674,13.7031,-52.0993
343,-650,13.728,51.5411,0.00389636,0.00602112,-0.0020218,0.00724266,0.00267481,-1.0273,0.0042289,0.0143025,1567,1674,13.728,-51.5412
350,-650,13.7509,50.9664,0.00323824,0.00637292,-0.00218675,0.00749601,0.00211515,-1.09634,0.00446263,0.016324,1574,1674,13.7509,-50.9665
357,-650,13.7057,50.3701,0.00287089,0.00648466,-0.00247275,0.00774034,0.00161521,-1.10092,0.00471496,0.0135984,1581,1674,13.7056,-50.3701
364,-650,13.7046,49.7731,0.00265302,0.0062033,-0.00276236,0.00771172,0.00114461,-1.07098,0.00480527,0.0093884,1588,1674,13.7046,-49.773
371,-650,13.6869,49.1687,0.00255525,0.00562167,-0.00304578,0.00749837,0.00067855,-1.01857,0.00478878,0.0119939,1595,1674,13.6869,-49.1687
378,-650,13.6482,48.5748,0.00256028,0.00485901,-0.00329565,0.00719997,0.000219323,-0.953179,0.00472857,0.0141952,1602,1674,13.6482,-48.5749
385,-650,13.6401,47.9717,0.00272722,0.00399022,-0.00356472,0.00697894,-0.000261502,-0.873065,0.0047422,0.0149358,1609,1674,13.6402,-47.9716
392,-650,13.6353,47.365,0.002992,0.00326796,-0.00400193,0.00713429,-0.000874332,-0.802631,0.00507282,0.0190362,1616,1674,13.6352,-47.365
399,-650,13.5967,46.7476,0.00307411,0.00243851,-0.0043015,0.00706953,-0.00155692,-0.748524,0.00530865,0.0168342,1623,1674,13.5967,-46.7476
406,-650,13.5679,46.1188,0.0031593,0.00173412,-0.0046058,0.00710731,-0.00221389,-0.708649,0.00562337,0.0147012,1630,1674,13.5678,-46.1187
413,-650,13.557,45.4785,0.00324307,0.00141918,-0.0048427,0.00725895,-0.0025967,-0.692331,0.00589857,0.0155902,1637,1674,13.557,-45.4786
420,-650,13.4963,44.8527,0.00358637,0.00115648,-0.00519821,0.00770973,-0.00296687,-0.670597,0.00636365,0.0158836,1644,1674,13.4964,-44.8526
427,-650,13.4423,44.2094,0.00391742,0.00147428,-0.00571795,0.00854284,-0.00315113,-0.680161,0.00698663,0.015528,1651,1674,13.4423,-44.2094
434,-650,13.3987,43.5597,0.00429673,0.00249483,-0.00634488,0.0098043,-0.00301274,-0.714871,0.00773847,0.0225097,1658,1674,13.3987,-43.5597
441,-650,13.4689,42.8108,0.0044495,0.00363115,-0.00696103,0.0110134,-0.00293272,-0.756041,0.00849037,0.0404478,1665,1674,13.4688,-42.8108
448,-650,13.3225,42.2634,0.00447016,0.00489403,-0.0073138,0.011999,-0.00263477,-0.799883,0.00900695,0.0493929,1672,1674,13.3225,-42.2634
455,-650,13.3562,41.786,0,0,0,0,0,0,0,-1,1679,1674,13.3562,-41.786
462,-650,12.9229,40.5436,0,0,0,0,0,0,0,-1,1686,1674,12.9229,-40.5436
469,-650,11.3628,29.8889,0,0,0,0,0,0,0,-1,1693,1674,11.3628,-29.8889
476,-650,10.9189,27.1289,0,0,0,0,0,0,0,-1,1700,1674,10.919,-27.1289
483,-650,10.2426,24.5127,0,0,0,0,0,0,0,-1,1707,1674,10.2425,-24.5127
490,-650,10.4818,24.3475,0,0,0,0,0,0,0,-1,1714,1674,10.4818,-24.3475
497,-650,10.4985,20.1362,0,0,0,0,0,0,0,-1,1721,1674,10.4986,-20.1362
504,-650,9.69458,18.7721,0,0,0,0,0,0,0,-1,1728,1674,9.6946,-18.772
511,-650,9.37158,17.7506,0,0,0,0,0,0,0,-1,1735,1674,9.37159,-17.7506
518,-650,0,0,0,0,0,0,0,0,0,-1,1742,1674,0,0
525,-650,0,0,0,0,0,0,0,0,0,-1,1749,1674,0,0
532,-650,0,0,0,0,0,0,0,0,0,-1,1756,1674,0,0
539,-650,0,0,0,0,0,0,0,0,0,-1,1763,1674,0,0
546,-650,0,0,0,0,0,0,0,0,0,-1,1770,1674,0,0
553,-650,0,0,0,0,0,0,0,0,0,-1,1777,1674,0,0
560,-650,0,0,0,0,0,0,0,0,0,-1,1784,1674,0,0
567,-650,0,0,0,0,0,0,0,0,0,-1,1791,1674,0,0
574,-650,0,0,0,0,0,0,0,0,0,-1,1798,1674,0,0
581,-650,0,0,0,0,0,0,0,0,0,-1,1805,1674,0,0
588,-650,0,0,0,0,0,0,0,0,0,-1,1812,1674,0,0
595,-650,0,0,0,0,0,0,0,0,0,-1,1819,1674,0,0
602,-650,0,0,0,0,0,0,0,0,0,-1,1826,1674,0,0
609,-650,0,0,0,0,0,0,0,0,0,-1,1833,1674,0,0
616,-650,0,0,0,0,0,0,0,0,0,-1,1840,1674,0,0
623,-650,0,0,0,0,0,0,0,0,0,-1,1847,1674,0,0
630,-650,0,0,0,0,0,0,0,0,0,-1,1854,1674,0,0
637,-650,0,0,0,0,0,0,0,0,0,-1,1861,1674,0,0
644,-650,0,0,0,0,0,0,0,0,0,-1,1868,1674,0,0
651,-650,0,0,0,0,0,0,0,0,0,-1,1875,1674,0,0
658,-650,0,0,0,0,0,0,0,0,0,-1,1882,1674,0,0
665,-650,0,0,0,0,0,0,0,0,0,-1,1889,1674,0,0
672,-650,0,0,0,0,0,0,0,0,0,-1,1896,1674,0,0
679,-650,0,0,0,0,0,0,0,0,0,-1,1903,1674,0,0
686,-650,0,0,0,0,0,0,0,0,0,-1,1910,1674,0,0
693,-650,0,0,0,0,0,0,0,0,0,-1,1917,1674,0,0
700,-650,0,0,0,0,0,0,0,0,0,-1,1924,1674,0,0
707,-650,0,0,0,0,0,0,0,0,0,-1,1931,1674,0,0
714,-650,0,0,0,0,0,0,0,0,0,-1,1938,1674,0,0
721,-650,0,0,0,0,0,0,0,0,0,-1,1945,1674,0,0
728,-650,0,0,0,0,0,0,0,0,0,-1,1952,1674,0,0
735,-650,0,0,0,0,0,0,0,0,0,-1,1959,1674,0,0
742,-650,0,0,0,0,0,0,0,0,0,-1,1966,1674,0,0
749,-650,0,0,0,0,0,0,0,0,0,-1,1973,1674,0,0
756,-650,0,0,0,0,0,0,0,0,0,-1,1980,1674,0,0
763,-650,0,0,0,0,0,0,0,0,0,-1,1987,1674,0,0
770,-650,0,0,0,0,0,0,0,0,0,-1,1994,1674,0,0
777,-650,0,0,0,0,0,0,0,0,0,-1,2001,1674,0,0
784,-650,0,0,0,0,0,0,0,0,0,-1,2008,1674,0,0
791,-650,0,0,0,0,0,0,0,0,0,-1,2015,1674,0,0
798,-650,0,0,0,0,0,0,0,0,0,-1,2022,1674,0,0
805,-650,0,0,0,0,0,0,0,0,0,-1,2029,1674,0,0
812,-650,0,0,0,0,0,0,0,0,0,-1,2036,1674,0,0
-700,-657,0,0,0,0,0,0,0,0,0,-1,524,1681,0,0
-693,-657,0,0,0,0,0,0,0,0,0,-1,531,1681,0,0
-686,-657,0,0,0,0,0,0,0,0,0,-1,538,1681,0,0
-679,-657,0,0,0,0,0,0,0,0,0,-1,545,1681,0,0
-672,-657,0,0,0,0,0,0,0,0,0,-1,552,1681,0,0
-665,-657,0,0,0,0,0,0,0,0,0,-1,559,1681,0,0
-658,-657,0,0,0,0,0,0,0,0,0,-1,566,1681,0,0
-651,-657,0,0,0,0,0,0,0,0,0,-1,573,1681,0,0
-644,-657,0,0,0,0,0,0,0,0,0,-1,580,1681,0,0
-637,-657,0,0,0,0,0,0,0,0,0,-1,587,1681,0,0
-630,-657,0,0,0,0,0,0,0,0,0,-1,594,1681,0,0
-623,-657,0,0,0,0,0,0,0,0,0,-1,601,1681,0,0
-616,-657,0,0,0,0,0,0,0,0,0,-1,608,1681,0,0
-609,-657,0,0,0,0,0,0,0,0,0,-1,615,1681,0,0
-602,-657,0,0,0,0,0,0,0,0,0,-1,622,1681,0,0
-595,-657,0,0,0,0,0,0,0,0,0,-1,629,1681,0,0
-588,-657,0,0,0,0,0,0,0,0,0,-1,636,1681,0,0
-581,-657,0,0,0,0,0,0,0,0,0,-1,643,1681,0,0
-574,-657,0,0,0,0,0,0,0,0,0,-1,650,1681,0,0
-567,-657,0,0,0,0,0,0,0,0,0,-1,657,1681,0,0
-560,-657,0,0,0,0,0,0,0,0,0,-1,664,1681,0,0
-553,-657,0,0,0,0,0,0,0,0,0,-1,671,1681,0,0
-546,-657,0,0,0,0,0,0,0,0,0,-1,678,1681,0,0
-539,-657,0,0,0,0,0,0,0,0,0,-1,685,1681,0,0
-532,-657,0,0,0,0,0,0,0,0,0,-1,692,1681,0,0
-525,-657,0,0,0,0,0,0,0,0,0,-1,699,1681,0,0
-518,-657,0,0,0,0,0,0,0,0,0,-1,706,1681,0,0
-511,-657,0,0,0,0,0,0,0,0,0,-1,713,1681,0,0
-504,-657,0,0,0,0,0,0,0,0,0,-1,720,1681,0,0
-497,-657,0,0,0,0,0,0,0,0,0,-1,727,1681,0,0
-490,-657,0,0,0,0,0,0,0,0,0,-1,734,1681,0,0
-483,-657,0,0,0,0,0,0,0,0,0,-1,741,1681,0,0
-476,-657,0,0,0,0,0,0,0,0,0,-1,748,1681,0,0
-469,-657,0,0,0,0,0,0,0,0,0,-1,755,1681,0,0
-462,-657,0,0,0,0,0,0,0,0,0,-1,762,1681,0,0
-455,-657,0,0,0,0,0,0,0,0,0,-1,769,1681,0,0
-448,-657,0,0,0,0,0,0,0,0,0,-1,776,1681,0,0
-441,-657,0,0,0,0,0,0,0,0,0,-1,783,1681,0,0
-434,-657,0,0,0,0,0,0,0,0,0,-1,790,1681,0,0
-427,-657,0,0,0,0,0,0,0,0,0,-1,797,1681,0,0
-420,-657,0,0,0,0,0,0,0,0,0,-1,804,1681,0,0
-413,-657,0,0,0,0,0,0,0,0,0,-1,811,1681,0,0
-406,-657,0,0,0,0,0,0,0,0,0,-1,818,1681,0,0
-399,-657,0,0,0,0,0,0,0,0,0,-1,825,1681,0,0
-392,-657,0,0,0,0,0,0,0,0,0,-1,832,1681,0,0
-385,-657,1.09814,6.18896,0,0,0,0,0,0,0,-1,839,1681,1.09814,-6.18894
-378,-657,0.31488,4.46753,0,0,0,0,0,0,0,-1,846,1681,0.31487,-4.46755
-371,-657,-0.519043,2.69421,0,0,0,0,0,0,0,-1,853,1681,-0.519064,-2.69422
-364,-657,-3.42017,4.18323,0,0,0,0,0,0,0,-1,860,1681,-3.42019,-4.18319
-357,-657,5.03418,34.7598,0,0,0,0,0,0,0,-1,867,1681,5.03417,-34.7597
-350,-657,4.23431,35.8203,0,0,0,0,0,0,0,-1,874,1681,4.23429,-35.8203
-343,-657,3.60156,36.754,0,0,0,0,0,0,0,-1,881,1681,3.60154,-36.754
-336,-657,5.27338,40.2932,0,0,0,0,0,0,0,-1,888,1681,5.27338,-40.2932
-329,-657,4.9704,40.848,0,0,0,0,0,0,0,-1,895,1681,4.97038,-40.848
-322,-657,5.2774,42.0093,0,0,0,0,0,0,0,-1,902,1681,5.27741,-42.0093
-315,-657,5.06836,42.4843,0,0,0,0,0,0,0,-1,909,1681,5.06838,-42.4842
-308,-657,5.12079,43.2698,0.0205162,0.0027768,0.0151245,0.02918,-0.00588699,0.520202,0.0216837,0.0401031,916,1681,5.12076,-43.2698
-301,-657,5.08685,44.0178,0.0165556,0.00227559,0.012529,0.0238363,-0.0050051,0.526411,0.0177954,0.0312485,923,1681,5.08684,-44.0178
-294,-657,5.04944,44.7351,0.0130333,0.0016174,0.0101042,0.0189303,-0.00427958,0.528288,0.0142624,0.0163836,930,1681,5.04947,-44.7351
-287,-657,4.99249,45.406,0.00983764,0.00116282,0.00798483,0.0145871,-0.00358661,0.536592,0.0111148,0.0123174,937,1681,4.99247,-45.4059
-280,-657,4.94135,46.0593,0.00703831,0.00100772,0.00624702,0.0109597,-0.00291364,0.560551,0.00844686,0.0135854,944,1681,4.94135,-46.0593
-273,-657,4.91235,46.7128,0.00498132,0.000737517,0.00488993,0.00818988,-0.00247105,0.580692,0.00644352,0.0103453,951,1681,4.91238,-46.7128
-266,-657,4.862,47.3489,0.00347066,0.000644253,0.00382427,0.00613449,-0.00201957,0.608412,0.0049035,0.0148773,958,1681,4.86202,-47.3489
-259,-657,4.84308,47.9916,0.00245368,0.000720102,0.00304452,0.0047524,-0.00157861,0.646715,0.00380523,0.0189442,965,1681,4.8431,-47.9916
-252,-657,4.80963,48.5925,0.00184179,0.000867029,0.00246923,0.00387128,-0.00116246,0.68796,0.00304327,0.0144248,972,1681,4.80962,-48.5926
-245,-657,4.76941,49.2251,0.00108808,0.000792679,0.00157616,0.00252344,-0.000642683,0.73868,0.00193248,0.0177809,979,1681,4.76938,-49.2251
-238,-657,4.76837,49.9308,0.00100802,0.000996852,0.00139255,0.00239499,-0.000390119,0.783393,0.00174133,0.0226824,986,1681,4.76835,-49.9308
-231,-657,4.74121,50.5323,0.00163267,0.0012398,0.00168127,0.00312894,-0.000256462,0.727243,0.00217649,0.0216059,993,1681,4.74119,-50.5324
-224,-657,4.70978,51.0994,0.0023904,0.00123495,0.00174235,0.0036483,-2.29563e-05,0.625314,0.00243989,0.0157549,1000,1681,4.70979,-51.0994
-217,-657,4.7088,51.6798,0.00297311,0.00112434,0.00154794,0.00385167,0.000245787,0.516229,0.0024899,0.00996933,1007,1681,4.70879,-51.6798
-210,-657,4.69617,52.2576,0.00347844,0.00104118,0.0013631,0.00408822,0.000431398,0.420649,0.00259367,0.0114584,1014,1681,4.69617,-52.2576
-203,-657,4.70569,52.8334,0.00402747,0.000857569,0.00115557,0.004404,0.000481038,0.314992,0.00278951,0.0144528,1021,1681,4.70566,-52.8333
-196,-657,4.68982,53.3774,0.00450886,0.000695928,0.000967811,0.00474045,0.000464341,0.234873,0.00301745,0.0149546,1028,1681,4.68976,-53.3775
-189,-657,4.69373,53.9133,0.00478287,0.000941968,0.00068025,0.00489979,0.000825051,0.170212,0.0030292,0.0104522,1035,1681,4.69368,-53.9134
-182,-657,4.70117,54.4614,0.00492358,0.00173538,0.000453644,0.00498688,0.00167209,0.138624,0.00293078,0.00879455,1042,1681,4.70119,-54.4614
-175,-657,4.71033,54.9973,0.00511439,0.0026547,0.000296123,0.00514953,0.00261955,0.118142,0.00297323,0.0121581,1049,1681,4.71034,-54.9973
-168,-657,4.66589,55.5349,0.00511607,0.00391101,6.73595e-05,0.00511983,0.00390726,0.0556661,0.00308939,0.0159943,1056,1681,4.66586,-55.535
-161,-657,4.67993,56.0748,0.00502466,0.00558808,-0.000129838,0.00561657,0.00499618,-1.35486,0.00355567,0.0160652,1063,1681,4.67989,-56.0749
-154,-657,4.76257,56.5381,0.00485752,0.00772128,-0.000260498,0.00774478,0.00483402,-1.48082,0.00451718,0.0159861,1070,1681,4.76263,-56.5381
-147,-657,4.80798,57.0165,0.00465391,0.0102894,-0.000343846,0.0103103,0.00463301,-1.51008,0.00596281,0.0240643,1077,1681,4.80804,-57.0165
-140,-657,4.78186,57.6818,0.00431928,0.0130253,-0.000427464,0.0130462,0.00429834,-1.52185,0.00767686,0.0352262,1084,1681,4.78183,-57.6818
-133,-657,4.62744,58.2473,0.00348736,0.0163713,-0.000518183,0.0163921,0.00346655,-1.53066,0.0099754,0.0412581,1091,1681,4.6274,-58.2473
-126,-657,4.78711,58.9045,0,0,0,0,0,0,0,-1,1098,1681,4.78715,-58.9046
-119,-657,5.64758,54.4952,0,0,0,0,0,0,0,-1,1105,1681,5.64753,-54.4952
-112,-657,6.24219,42.9092,0,0,0,0,0,0,0,-1,1112,1681,6.24217,-42.9092
-105,-657,7.37256,41.0361,0,0,0,0,0,0,0,-1,1119,1681,7.37254,-41.0362
-98,-657,8.14404,38.4435,0,0,0,0,0,0,0,-1,1126,1681,8.14405,-38.4435
-91,-657,3.6521,16.6017,0,0,0,0,0,0,0,-1,1133,1681,3.65215,-16.6017
-84,-657,4.08008,10.4579,0,0,0,0,0,0,0,-1,1140,1681,4.08006,-10.4579
-77,-657,-5.29846,0.396606,0,0,0,0,0,0,0,-1,1147,1681,-5.29842,-0.396573
-70,-657,-4.14893,2.14575,0,0,0,0,0,0,0,-1,1154,1681,-4.14893,-2.1458
-63,-657,-4.1239,3.177,0,0,0,0,0,0,0,-1,1161,1681,-4.12391,-3.17698
-56,-657,-6.40576,5.73987,0,0,0,0,0,0,0,-1,1168,1681,-6.40577,-5.7399
-49,-657,-5.98462,7.54053,0,0,0,0,0,0,0,-1,1175,1681,-5.98466,-7.5405
-42,-657,-5.71948,9.28955,0,0,0,0,0,0,0,-1,1182,1681,-5.71951,-9.2895
-35,-657,-5.44556,11.015,0,0,0,0,0,0,0,-1,1189,1681,-5.44555,-11.015
-28,-657,-1.3446,8.92847,0,0,0,0,0,0,0,-1,1196,1681,-1.34459,-8.92848
-21,-657,7.89453,61.1814,0,0,0,0,0,0,0,-1,1203,1681,7.89452,-61.1814
-14,-657,7.26526,64.1821,0,0,0,0,0,0,0,-1,1210,1681,7.26531,-64.1821
-7,-657,7.74841,64.483,0,0,0,0,0,0,0,-1,1217,1681,7.74845,-64.483
0,-657,8.06982,64.2688,0,0,0,0,0,0,0,-1,1224,1681,8.06981,-64.2688
7,-657,6.01489,64.8077,0.036377,0.0768044,-0.0207187,0.0855365,0.0276449,-1.17193,0.0504032,0.049507,1231,1681,6.01485,-64.8078
14,-657,6.3175,64.9928,0.0369125,0.0750852,-0.0232343,0.0860675,0.0259303,-1.12925,0.0509825,0.0466671,1238,1681,6.31754,-64.9928
21,-657,6.69531,65.198,0.0368684,0.0718108,-0.0256637,0.0853858,0.0232933,-1.08425,0.0509658,0.0457331,1245,1681,6.69527,-65.198
28,-657,7.23132,65.4976,0.0355979,0.0671199,-0.0279325,0.0834312,0.0192866,-1.04226,0.0504365,0.0449856,1252,1681,7.23134,-65.4976
35,-657,7.77856,65.7533,0,0,0,0,0,0,0,-1,1259,1681,7.7786,-65.7533
42,-657,8.05859,65.9036,0.0277131,0.0549256,-0.0304804,0.0746988,0.00793996,-0.995323,0.0473748,0.0465658,1266,1681,8.05862,-65.9036
49,-657,8.40784,65.8522,0.0202824,0.0489959,-0.0316836,0.0694237,-0.000145409,-0.998125,0.046331,0.047949,1273,1681,8.40786,-65.8522
56,-657,8.90601,65.7712,0,0,0,0,0,0,0,-1,1280,1681,8.90601,-65.7713
63,-657,9.00269,65.2659,0,0,0,0,0,0,0,-1,1287,1681,9.00267,-65.2658
70,-657,10.2218,63.8075,-0.00603685,0.0350468,-0.0372372,0.0570324,-0.0280224,-1.03745,0.0500494,0.0457725,1294,1681,10.2218,-63.8075
77,-657,10.3922,63.7759,-0.0159364,0.0320456,-0.038873,0.0537348,-0.0376256,-1.06187,0.0530196,0.0461534,1301,1681,10.3922,-63.7759
84,-657,10.2426,64.6229,0,0,0,0,0,0,0,-1,1308,1681,10.2425,-64.6229
91,-657,9.73828,64.2202,-0.0372559,0.0304373,-0.0439991,0.0521021,-0.0589207,-1.11325,0.0641393,0.0464936,1315,1681,9.73827,-64.2202
98,-657,8.85986,63.8672,-0.0475805,0.0334975,-0.0478535,0.055675,-0.069758,-1.13682,0.0725708,0.0455559,1322,1681,8.85981,-63.8672
105,-657,7.61096,63.6155,-0.0561593,0.038131,-0.0522212,0.06134,-0.0793684,-1.15258,0.08146,0.0449291,1329,1681,7.61093,-63.6155
112,-657,7.42468,63.1815,-0.0617046,0.0432186,-0.0560913,0.0675584,-0.0860444,-1.16139,0.0888964,0.0443814,1336,1681,7.42471,-63.1815
119,-657,7.12646,62.7634,0,0,0,0,0,0,0,-1,1343,1681,7.12643,-62.7634
126,-657,10.0295,61.2068,0,0,0,0,0,0,0,-1,1350,1681,10.0295,-61.2068
133,-657,10.9545,59.0774,0,0,0,0,0,0,0,-1,1357,1681,10.9544,-59.0773
140,-657,11.5293,58.3044,0,0,0,0,0,0,0,-1,1364,1681,11.5294,-58.3044
147,-657,12.0975,57.5371,0,0,0,0,0,0,0,-1,1371,1681,12.0976,-57.5371
154,-657,12.068,54.7341,0,0,0,0,0,0,0,-1,1378,1681,12.068,-54.7342
161,-657,4.2926,24.9226,0,0,0,0,0,0,0,-1,1385,1681,4.29264,-24.9226
168,-657,5.21643,0.70105,0,0,0,0,0,0,0,-1,1392,1681,5.21648,-0.7011
175,-657,5.52771,0.649048,0,0,0,0,0,0,0,-1,1399,1681,5.52774,-0.649019
182,-657,5.73999,1.02612,0,0,0,0,0,0,0,-1,1406,1681,5.73995,-1.02611
189,-657,5.92126,1.44116,0,0,0,0,0,0,0,-1,1413,1681,5.92126,-1.44115
196,-657,4.92834,9.59021,0,0,0,0,0,0,0,-1,1420,1681,4.9284,-9.59018
203,-657,6.26343,5.16492,0,0,0,0,0,0,0,-1,1427,1681,6.26345,-5.16488
210,-657,3.9856,5.28088,0,0,0,0,0,0,0,-1,1434,1681,3.98555,-5.28084
217,-657,3.95178,5.2843,0,0,0,0,0,0,0,-1,1441,1681,3.95174,-5.28431
224,-657,6.66736,-0.250244,0,0,0,0,0,0,0,-1,1448,1681,6.66737,0.250229
231,-657,6.85498,-1.70752,0,0,0,0,0,0,0,-1,1455,1681,6.855,1.70758
238,-657,5.34143,-2.89819,0,0,0,0,0,0,0,-1,1462,1681,5.34143,2.89813
245,-657,8.66003,-0.102783,0,0,0,0,0,0,0,-1,1469,1681,8.66,0.102824
252,-657,4.78955,0.623779,0,0,0,0,0,0,0,-1,1476,1681,4.7895,-0.623826
259,-657,2.61523,4.31909,0,0,0,0,0,0,0,-1,1483,1681,2.61523,-4.31908
266,-657,5.35437,11.4742,0,0,0,0,0,0,0,-1,1490,1681,5.35441,-11.4742
273,-657,11.9164,46.0638,0,0,0,0,0,0,0,-1,1497,1681,11.9164,-46.0638
280,-657,12.7004,56.2194,0,0,0,0,0,0,0,-1,1504,1681,12.7004,-56.2193
287,-657,12.6648,55.8044,0,0,0,0,0,0,0,-1,1511,1681,12.6647,-55.8044
294,-657,13.0328,55.288,0.00936968,-0.000709703,-0.0019294,0.00972639,-0.0010664,-0.182813,0.00686738,0.0353834,1518,1681,13.0329,-55.288
301,-657,13.1044,54.8756,0.00832651,6.99745e-05,-0.00164971,0.00864393,-0.000247444,-0.190086,0.00584685,0.0263126,1525,1681,13.1044,-54.8757
308,-657,13.1111,54.3317,0.00719597,0.000795172,-0.00138869,0.00748427,0.000506874,-0.204697,0.00482943,0.0168933,1532,1681,13.111,-54.3317
315,-657,13.1572,53.751,0.00610714,0.0013591,-0.00121919,0.0064019,0.00106434,-0.237216,0.00396111,0.0115379,1539,1681,13.1573,-53.751
322,-657,13.1776,53.2026,0.00518206,0.00222599,-0.00129986,0.00567233,0.00173572,-0.360673,0.00335609,0.0132701,1546,1681,13.1776,-53.2026
329,-657,13.1704,52.666,0.00439841,0.00307602,-0.00140777,0.00529253,0.0021819,-0.565849,0.00307128,0.0193332,1553,1681,13.1704,-52.666
336,-657,13.145,52.0999,0.00368407,0.00376398,-0.00146113,0.0051857,0.00226234,-0.799067,0.00300206,0.0174384,1560,1681,13.145,-52.0998
343,-657,13.1753,51.5477,0.0030569,0.00419618,-0.00159471,0.00531994,0.00193314,-0.956937,0.00310945,0.0146985,1567,1681,13.1753,-51.5477
350,-657,13.1771,50.9862,0.00257023,0.00445029,-0.00190859,0.00563778,0.00138274,-1.01422,0.00339287,0.0166182,1574,1681,13.1771,-50.9863
357,-657,13.1436,50.3757,0.00233225,0.00451409,-0.00229302,0.00596247,0.000883871,-1.00743,0.00371556,0.0150945,1581,1681,13.1435,-50.3757
364,-657,13.1273,49.7845,0.00226027,0.00424354,-0.00269406,0.00612267,0.00038114,-0.961744,0.00396085,0.0105454,1588,1681,13.1273,-49.7846
371,-657,13.0991,49.2106,0.00231957,0.00375502,-0.00315023,0.00626825,-0.000193663,-0.897402,0.00424486,0.015896,1595,1681,13.0991,-49.2105
378,-657,13.0438,48.6317,0.00251377,0.00312655,-0.00362621,0.00645929,-0.000818965,-0.827545,0.00460353,0.0169882,1602,1681,13.0438,-48.6318
385,-657,12.999,48.0293,0.00291678,0.00248852,-0.00419113,0.00689925,-0.00149395,-0.759874,0.00516994,0.014353,1609,1681,12.999,-48.0293
392,-657,12.9763,47.4121,0.00346902,0.00208427,-0.00499214,0.00781657,-0.00226328,-0.716491,0.00610691,0.0144257,1616,1681,12.9763,-47.4121
399,-657,12.9762,46.7686,0.00381187,0.00154141,-0.0056426,0.00843231,-0.00307903,-0.686129,0.00688146,0.0136066,1623,1681,12.9762,-46.7686
406,-657,12.9589,46.1422,0.00411613,0.00122179,-0.00628963,0.00912294,-0.00378502,-0.672322,0.00766188,0.0139468,1630,1681,12.9588,-46.1422
413,-657,12.9176,45.4948,0.0044005,0.00131731,-0.00684991,0.00988015,-0.00416233,-0.674716,0.00832845,0.0139575,1637,1681,12.9176,-45.4947
420,-657,12.8915,44.8101,0.00498179,0.00139158,-0.00752014,0.0109181,-0.00454474,-0.668237,0.00917677,0.018287,1644,1681,12.8915,-44.81
427,-657,12.8083,44.1241,0.00557138,0.00228303,-0.00840404,0.0124906,-0.00463616,-0.688798,0.0102289,0.0255594,1651,1681,12.8084,-44.1241
434,-657,12.8705,43.4011,0.00624701,0.00372779,-0.00926035,0.014333,-0.00435822,-0.717802,0.011292,0.0358351,1658,1681,12.8705,-43.4011
441,-657,13.1877,42.5552,0.00647924,0.00533646,-0.00995054,0.0158748,-0.00405907,-0.756718,0.0121641,0.0485638,1665,1681,13.1877,-42.5552
448,-657,13.472,41.8418,0,0,0,0,0,0,0,-1,1672,1681,13.472,-41.8418
455,-657,13.2375,41.3452,0,0,0,0,0,0,0,-1,1679,1681,13.2375,-41.3453
462,-657,10.2832,30.1719,0,0,0,0,0,0,0,-1,1686,1681,10.2831,-30.1718
469,-657,9.22205,26.4175,0,0,0,0,0,0,0,-1,1693,1681,9.2221,-26.4175
476,-657,8.9519,20.5712,0,0,0,0,0,0,0,-1,1700,1681,8.95194,-20.5712
483,-657,10.0663,21.8628,0,0,0,0,0,0,0,-1,1707,1681,10.0663,-21.8628
490,-657,11.6039,21.2185,0,0,0,0,0,0,0,-1,1714,1681,11.6038,-21.2185
497,-657,9.20862,17.8127,0,0,0,0,0,0,0,-1,1721,1681,9.2086,-17.8127
504,-657,0,0,0,0,0,0,0,0,0,-1,1728,1681,0,0
511,-657,0,0,0,0,0,0,0,0,0,-1,1735,1681,0,0
518,-657,0,0,0,0,0,0,0,0,0,-1,1742,1681,0,0
525,-657,0,0,0,0,0,0,0,0,0,-1,1749,1681,0,0
532,-657,0,0,0,0,0,0,0,0,0,-1,1756,1681,0,0
539,-657,0,0,0,0,0,0,0,0,0,-1,1763,1681,0,0
546,-657,0,0,0,0,0,0,0,0,0,-1,1770,1681,0,0
553,-657,0,0,0,0,0,0,0,0,0,-1,1777,1681,0,0
560,-657,0,0,0,0,0,0,0,0,0,-1,1784,1681,0,0
567,-657,0,0,0,0,0,0,0,0,0,-1,1791,1681,0,0
574,-657,0,0,0,0,0,0,0,0,0,-1,1798,1681,0,0
581,-657,0,0,0,0,0,0,0,0,0,-1,1805,1681,0,0
588,-657,0,0,0,0,0,0,0,0,0,-1,1812,1681,0,0
595,-657,0,0,0,0,0,0,0,0,0,-1,1819,1681,0,0
602,-657,0,0,0,0,0,0,0,0,0,-1,1826,1681,0,0
609,-657,0,0,0,0,0,0,0,0,0,-1,1833,1681,0,0
616,-657,0,0,0,0,0,0,0,0,0,-1,1840,1681,0,0
623,-657,0,0,0,0,0,0,0,0,0,-1,1847,1681,0,0
630,-657,0,0,0,0,0,0,0,0,0,-1,1854,1681,0,0
637,-657,0,0,0,0,0,0,0,0,0,-1,1861,1681,0,0
644,-657,0,0,0,0,0,0,0,0,0,-1,1868,1681,0,0
651,-657,0,0,0,0,0,0,0,0,0,-1,1875,1681,0,0
658,-657,0,0,0,0,0,0,0,0,0,-1,1882,1681,0,0
665,-657,0,0,0,0,0,0,0,0,0,-1,1889,1681,0,0
672,-657,0,0,0,0,0,0,0,0,0,-1,1896,1681,0,0
679,-657,0,0,0,0,0,0,0,0,0,-1,1903,1681,0,0
686,-657,0,0,0,0,0,0,0,0,0,-1,1910,1681,0,0
693,-657,0,0,0,0,0,0,0,0,0,-1,1917,1681,0,0
700,-657,0,0,0,0,0,0,0,0,0,-1,1924,1681,0,0
707,-657,0,0,0,0,0,0,0,0,0,-1,1931,1681,0,0
714,-657,0,0,0,0,0,0,0,0,0,-1,1938,1681,0,0
721,-657,0,0,0,0,0,0,0,0,0,-1,1945,1681,0,0
728,-657,0,0,0,0,0,0,0,0,0,-1,1952,1681,0,0
735,-657,0,0,0,0,0,0,0,0,0,-1,1959,1681,0,0
742,-657,0,0,0,0,0,0,0,0,0,-1,1966,1681,0,0
749,-657,0,0,0,0,0,0,0,0,0,-1,1973,1681,0,0
756,-657,0,0,0,0,0,0,0,0,0,-1,1980,1681,0,0
763,-657,0,0,0,0,0,0,0,0,0,-1,1987,1681,0,0
770,-657,0,0,0,0,0,0,0,0,0,-1,1994,1681,0,0
777,-657,0,0,0,0,0,0,0,0,0,-1,2001,1681,0,0
784,-657,0,0,0,0,0,0,0,0,0,-1,2008,1681,0,0
791,-657,0,0,0,0,0,0,0,0,0,-1,2015,1681,0,0
798,-657,0,0,0,0,0,0,0,0,0,-1,2022,1681,0,0
805,-657,0,0,0,0,0,0,0,0,0,-1,2029,1681,0,0
812,-657,0,0,0,0,0,0,0,0,0,-1,2036,1681,0,0
-700,-664,0,0,0,0,0,0,0,0,0,-1,524,1688,0,0
-693,-664,0,0,0,0,0,0,0,0,0,-1,531,1688,0,0
-686,-664,0,0,0,0,0,0,0,0,0,-1,538,1688,0,0
-679,-664,0,0,0,0,0,0,0,0,0,-1,545,1688,0,0
-672,-664,0,0,0,0,0,0,0,0,0,-1,552,1688,0,0
-665,-664,0,0,0,0,0,0,0,0,0,-1,559,1688,0,0
-658,-664,0,0,0,0,0,0,0,0,0,-1,566,1688,0,0
-651,-664,0,0,0,0,0,0,0,0,0,-1,573,1688,0,0
-644,-664,0,0,0,0,0,0,0,0,0,-1,580,1688,0,0
-637,-664,0,0,0,0,0,0,0,0,0,-1,587,1688,0,0
-630,-664,0,0,0,0,0,0,0,0,0,-1,594,1688,0,0
-623,-664,0,0,0,0,0,0,0,0,0,-1,601,1688,0,0
-616,-664,0,0,0,0,0,0,0,0,0,-1,608,1688,0,0
-609,-664,0,0,0,0,0,0,0,0,0,-1,615,1688,0,0
-602,-664,0,0,0,0,0,0,0,0,0,-1,622,1688,0,0
-595,-664,0,0,0,0,0,0,0,0,0,-1,629,1688,0,0
-588,-664,0,0,0,0,0,0,0,0,0,-1,636,1688,0,0
-581,-664,0,0,0,0,0,0,0,0,0,-1,643,1688,0,0
-574,-664,0,0,0,0,0,0,0,0,0,-1,650,1688,0,0
-567,-664,0,0,0,0,0,0,0,0,0,-1,657,1688,0,0
-560,-664,0,0,0,0,0,0,0,0,0,-1,664,1688,0,0
-553,-664,0,0,0,0,0,0,0,0,0,-1,671,1688,0,0
-546,-664,0,0,0,0,0,0,0,0,0,-1,678,1688,0,0
-539,-664,0,0,0,0,0,0,0,0,0,-1,685,1688,0,0
-532,-664,0,0,0,0,0,0,0,0,0,-1,692,1688,0,0
-525,-664,0,0,0,0,0,0,0,0,0,-1,699,1688,0,0
-518,-664,0,0,0,0,0,0,0,0,0,-1,706,1688,0,0
-511,-664,0,0,0,0,0,0,0,0,0,-1,713,1688,0,0
-504,-664,0,0,0,0,0,0,0,0,0,-1,720,1688,0,0
-497,-664,0,0,0,0,0,0,0,0,0,-1,727,1688,0,0
-490,-664,0,0,0,0,0,0,0,0,0,-1,734,1688,0,0
-483,-664,0,0,0,0,0,0,0,0,0,-1,741,1688,0,0
-476,-664,0,0,0,0,0,0,0,0,0,-1,748,1688,0,0
-469,-664,0,0,0,0,0,0,0,0,0,-1,755,1688,0,0
-462,-664,0,0,0,0,0,0,0,0,0,-1,762,1688,0,0
-455,-664,0,0,0,0,0,0,0,0,0,-1,769,1688,0,0
-448,-664,0,0,0,0,0,0,0,0,0,-1,776,1688,0,0
-441,-664,0,0,0,0,0,0,0,0,0,-1,783,1688,0,0
-434,-664,0,0,0,0,0,0,0,0,0,-1,790,1688,0,0
-427,-664,0,0,0,0,0,0,0,0,0,-1,797,1688,0,0
-420,-664,0,0,0,0,0,0,0,0,0,-1,804,1688,0,0
-413,-664,0,0,0,0,0,0,0,0,0,-1,811,1688,0,0
-406,-664,0,0,0,0,0,0,0,0,0,-1,818,1688,0,0
-399,-664,0,0,0,0,0,0,0,0,0,-1,825,1688,0,0
-392,-664,0,0,0,0,0,0,0,0,0,-1,832,1688,0,0
-385,-664,0,0,0,0,0,0,0,0,0,-1,839,1688,0,0
-378,-664,0,0,0,0,0,0,0,0,0,-1,846,1688,0,0
-371,-664,-1.61676,5.92737,0,0,0,0,0,0,0,-1,853,1688,-1.61675,-5.92735
-364,-664,-3.901,5.87024,0,0,0,0,0,0,0,-1,860,1688,-3.90097,-5.87027
-357,-664,-4.81012,4.53479,0,0,0,0,0,0,0,-1,867,1688,-4.81012,-4.5348
-350,-664,3.26105,36.0225,0,0,0,0,0,0,0,-1,874,1688,3.26104,-36.0224
-343,-664,5.2652,32.889,0,0,0,0,0,0,0,-1,881,1688,5.26517,-32.889
-336,-664,6.70184,40.4547,0,0,0,0,0,0,0,-1,888,1688,6.70183,-40.4547
-329,-664,5.24683,41.2126,0,0,0,0,0,0,0,-1,895,1688,5.24684,-41.2127
-322,-664,5.16492,41.969,0,0,0,0,0,0,0,-1,902,1688,5.16494,-41.969
-315,-664,6.55719,43.3103,0,0,0,0,0,0,0,-1,909,1688,6.55721,-43.3102
-308,-664,5.7868,43.265,0,0,0,0,0,0,0,-1,916,1688,5.78678,-43.265
-301,-664,5.60779,43.9218,0.024473,0.00378118,0.0175319,0.034484,-0.00622983,0.518836,0.0253227,0.0445538,923,1688,5.60779,-43.9218
-294,-664,5.53906,44.8419,0.0191377,0.00262665,0.0139804,0.027118,-0.00535373,0.518693,0.0201023,0.0392033,930,1688,5.53909,-44.842
-287,-664,5.60364,45.5035,0.0142335,0.00180299,0.0108537,0.0205255,-0.00448907,0.52537,0.0153997,0.0271109,937,1688,5.60363,-45.5035
-280,-664,5.54144,46.1072,0.0100098,0.00144111,0.00839373,0.0151494,-0.00369848,0.549423,0.0115318,0.0163773,944,1688,5.54142,-46.1072
-273,-664,5.48523,46.7506,0.00680219,0.000989154,0.00644417,0.010965,-0.00317364,0.573543,0.00856613,0.0137626,951,1688,5.48522,-46.7506
-266,-664,5.44843,47.3938,0.00436917,0.000732747,0.00493957,0.00781454,-0.00271262,0.609048,0.0063113,0.0213617,958,1688,5.44845,-47.3938
-259,-664,5.44647,48.0228,0.0026768,0.000689919,0.0038767,0.00568532,-0.0023186,0.659968,0.00475539,0.0186974,965,1688,5.44647,-48.0229
-252,-664,5.44806,48.6526,0.00159367,0.000743725,0.00311054,0.00430813,-0.00197074,0.717507,0.00370789,0.0172534,972,1688,5.44805,-48.6526
-245,-664,5.39258,49.2902,0.00026233,0.00051119,0.00188631,0.00227717,-0.00150365,0.818333,0.00219803,0.0217742,979,1688,5.3926,-49.2902
-238,-664,5.4079,49.9465,-0.000285673,0.000848711,0.00160842,0.00198701,-0.00142397,0.954911,0.00197826,0.0250631,986,1688,5.4079,-49.9466
-231,-664,5.37323,50.5221,0.00011939,0.00113234,0.00191418,0.00260592,-0.00135419,0.91473,0.00232413,0.0208215,993,1688,5.37326,-50.522
-224,-664,5.31702,51.0959,0.000927169,0.00114735,0.00198317,0.00302348,-0.000948965,0.813126,0.00239547,0.0139161,1000,1688,5.31704,-51.0959
-217,-664,5.28955,51.6982,0.00155411,0.00109904,0.00174654,0.00308788,-0.000434723,0.720624,0.00221774,0.0107625,1007,1688,5.28952,-51.6983
-210,-664,5.28375,52.2769,0.00199843,0.00103648,0.00154253,0.00313323,-9.8318e-05,0.63427,0.00212235,0.0122109,1014,1688,5.28373,-52.2768
-203,-664,5.25671,52.8456,0.00246352,0.000897153,0.00130469,0.00320205,0.000158628,0.515085,0.00208383,0.0143864,1021,1688,5.25672,-52.8455
-196,-664,5.23547,53.3839,0.00289782,0.000744817,0.00106353,0.00333458,0.000308059,0.389668,0.00212781,0.0145967,1028,1688,5.23546,-53.384
-189,-664,5.23914,53.9355,0.00318646,0.000923843,0.000738168,0.00340598,0.000704318,0.289062,0.0020761,0.0101011,1035,1688,5.23917,-53.9355
-182,-664,5.24695,54.4835,0.00337697,0.00151067,0.000442505,0.00347657,0.00141106,0.2214,0.00201902,0.00971527,1042,1688,5.247,-54.4836
-175,-664,5.25012,54.9844,0.00362427,0.00219192,0.00020209,0.00365223,0.00216396,0.137515,0.00212061,0.0133279,1049,1688,5.25018,-54.9843
-168,-664,5.24512,55.4846,0.00373155,0.00312668,-6.0664e-05,0.00373758,0.00312066,-0.0989797,0.00231366,0.0143274,1056,1688,5.24507,-55.4846
-161,-664,5.23682,56.0076,0.00379219,0.00434281,-0.000282953,0.00446229,0.00367272,-1.17125,0.00274972,0.0113463,1063,1688,5.23677,-56.0075
-154,-664,5.29358,56.501,0.00384456,0.00584864,-0.000448676,0.0059445,0.00374869,-1.3603,0.00347088,0.0114233,1070,1688,5.29357,-56.501
-147,-664,5.28625,56.9817,0.00391573,0.00761479,-0.000559341,0.00769752,0.003833,-1.42396,0.00444418,0.0153367,1077,1688,5.28626,-56.9817
-140,-664,5.33191,57.4918,0.00389036,0.00944607,-0.000662377,0.00952395,0.00381248,-1.45376,0.00553497,0.0183568,1084,1688,5.33194,-57.4918
-133,-664,5.30237,58.0016,0.00359973,0.0116537,-0.000731717,0.0117196,0.00353379,-1.48092,0.00694175,0.0215122,1091,1688,5.30231,-58.0016
-126,-664,5.38721,58.6371,0.0033291,0.0132211,-0.00103963,0.0133292,0.00322102,-1.46721,0.00803076,0.0426905,1098,1688,5.38727,-58.6371
-119,-664,5.53601,59.3633,0,0,0,0,0,0,0,-1,1105,1688,5.53604,-59.3632
-112,-664,6.3916,51.1235,0,0,0,0,0,0,0,-1,1112,1688,6.39161,-51.1236
-105,-664,6.87256,43.2527,0,0,0,0,0,0,0,-1,1119,1688,6.87258,-43.2527
-98,-664,7.69324,41.3359,0,0,0,0,0,0,0,-1,1126,1688,7.69321,-41.3359
-91,-664,5.41931,25.6302,0,0,0,0,0,0,0,-1,1133,1688,5.41932,-25.6302
-84,-664,3.48389,16.6913,0,0,0,0,0,0,0,-1,1140,1688,3.4839,-16.6913
-77,-664,4.52014,11.2122,0,0,0,0,0,0,0,-1,1147,1688,4.5202,-11.2122
-70,-664,4.20374,8.24524,0,0,0,0,0,0,0,-1,1154,1688,4.20379,-8.24519
-63,-664,-4.677,2.40503,0,0,0,0,0,0,0,-1,1161,1688,-4.67702,-2.40498
-56,-664,-4.66504,3.32727,0,0,0,0,0,0,0,-1,1168,1688,-4.6651,-3.32724
-49,-664,-2.54297,3.31848,0,0,0,0,0,0,0,-1,1175,1688,-2.54297,-3.31852
-42,-664,-0.359253,4.38684,0,0,0,0,0,0,0,-1,1182,1688,-0.359261,-4.38685
-35,-664,-0.705566,3.55017,0,0,0,0,0,0,0,-1,1189,1688,-0.705567,-3.55023
-28,-664,-1.54236,10.2538,0,0,0,0,0,0,0,-1,1196,1688,-1.54236,-10.2538
-21,-664,6.68274,63.8004,0,0,0,0,0,0,0,-1,1203,1688,6.68277,-63.8004
-14,-664,7.17749,63.822,0.0320544,0.0625741,-0.0124962,0.0670378,0.0275907,-1.22772,0.0389056,0.0456924,1210,1688,7.17749,-63.822
-7,-664,7.57593,63.8895,0.0323587,0.0605433,-0.0118183,0.064843,0.028059,-1.22187,0.0375499,0.0499831,1217,1688,7.57596,-63.8896
0,-664,7.88391,63.6642,0.0331541,0.0594642,-0.0124036,0.0643897,0.0282286,-1.19279,0.0372693,0.0481213,1224,1688,7.88394,-63.6641
7,-664,8.27966,63.4215,0,0,0,0,0,0,0,-1,1231,1688,8.27963,-63.4215
14,-664,6.87341,64.5262,0,0,0,0,0,0,0,-1,1238,1688,6.87338,-64.5262
21,-664,7.83496,64.9069,0,0,0,0,0,0,0,-1,1245,1688,7.835,-64.9068
28,-664,7.82422,65.1024,0.034258,0.0522757,-0.0204988,0.0656579,0.0208758,-0.992435,0.0387361,0.0437959,1252,1688,7.82416,-65.1024
35,-664,8.31177,65.3101,0.0324087,0.0476586,-0.0218668,0.0631917,0.0168756,-0.953156,0.0377805,0.0456778,1259,1688,8.31176,-65.3101
42,-664,8.59485,65.3431,0.0273699,0.042459,-0.0229325,0.0590561,0.0107728,-0.944316,0.0363164,0.0447758,1266,1688,8.59484,-65.3431
49,-664,8.94165,65.3069,0.020787,0.03752,-0.0241822,0.0547421,0.00356489,-0.951942,0.0353664,0.0445286,1273,1688,8.94159,-65.3069
56,-664,9.36707,65.3102,0.0131964,0.0333784,-0.0260304,0.0512054,-0.00463053,-0.970311,0.0357804,0.0465083,1280,1688,9.36704,-65.3102
63,-664,9.74451,65.349,0,0,0,0,0,0,0,-1,1287,1688,9.74448,-65.349
70,-664,10.3113,64.2202,-0.00287384,0.0248316,-0.0296469,0.0437026,-0.0217448,-1.00395,0.0384884,0.0471235,1294,1688,10.3112,-64.2202
77,-664,10.4183,64.1997,-0.0117218,0.0216315,-0.0311685,0.0403044,-0.0303947,-1.03104,0.0409515,0.0443495,1301,1688,10.4183,-64.1997
84,-664,10.298,64.6671,-0.0212467,0.0196236,-0.0330649,0.0380585,-0.0396816,-1.06218,0.0448865,0.0478399,1308,1688,10.2979,-64.6671
91,-664,9.78333,64.2592,-0.0304554,0.0188427,-0.0354669,0.0373848,-0.0489975,-1.08908,0.0500229,0.0435881,1315,1688,9.78331,-64.2591
98,-664,9.29431,63.8872,0,0,0,0,0,0,0,-1,1322,1688,9.29433,-63.8871
105,-664,8.35901,63.6526,-0.0463367,0.0233175,-0.042062,0.0430994,-0.0661186,-1.13119,0.0635222,0.0496601,1329,1688,8.35896,-63.6526
112,-664,7.9856,62.9806,-0.0511096,0.0269121,-0.0451389,0.0475617,-0.0717592,-1.14175,0.0693605,0.0461383,1336,1688,7.98555,-62.9806
119,-664,7.82214,62.4943,0,0,0,0,0,0,0,-1,1343,1688,7.82209,-62.4943
126,-664,7.84985,61.4564,0,0,0,0,0,0,0,-1,1350,1688,7.84981,-61.4564
133,-664,7.34888,60.8053,0,0,0,0,0,0,0,-1,1357,1688,7.34892,-60.8053
140,-664,6.46155,60.1333,0,0,0,0,0,0,0,-1,1364,1688,6.46158,-60.1332
147,-664,12.2793,58.1587,0,0,0,0,0,0,0,-1,1371,1688,12.2792,-58.1586
154,-664,12.1637,54.9048,0,0,0,0,0,0,0,-1,1378,1688,12.1637,-54.9047
161,-664,4.60132,1.56238,0,0,0,0,0,0,0,-1,1385,1688,4.60134,-1.56233
168,-664,5.172,1.25488,0,0,0,0,0,0,0,-1,1392,1688,5.17203,-1.25484
175,-664,5.58313,1.16467,0,0,0,0,0,0,0,-1,1399,1688,5.58317,-1.16466
182,-664,5.74268,1.41113,0,0,0,0,0,0,0,-1,1406,1688,5.74263,-1.41115
189,-664,5.87744,1.87061,0,0,0,0,0,0,0,-1,1413,1688,5.87745,-1.87065
196,-664,6.7594,5.97473,0,0,0,0,0,0,0,-1,1420,1688,6.75943,-5.97478
203,-664,5.38452,5.22034,0,0,0,0,0,0,0,-1,1427,1688,5.38453,-5.2203
210,-664,5.25549,6.45715,0,0,0,0,0,0,0,-1,1434,1688,5.25549,-6.45721
217,-664,5.72009,6.73975,0,0,0,0,0,0,0,-1,1441,1688,5.72014,-6.73972
224,-664,5.05725,7.42908,0,0,0,0,0,0,0,-1,1448,1688,5.05723,-7.42912
231,-664,5.13318,7.60864,0,0,0,0,0,0,0,-1,1455,1688,5.13313,-7.60862
238,-664,4.23193,6.45471,0,0,0,0,0,0,0,-1,1462,1688,4.23197,-6.45476
245,-664,4.42004,6.80896,0,0,0,0,0,0,0,-1,1469,1688,4.4201,-6.80901
252,-664,3.67346,6.85461,0,0,0,0,0,0,0,-1,1476,1688,3.6734,-6.85462
259,-664,4.55823,11.7435,0,0,0,0,0,0,0,-1,1483,1688,4.55826,-11.7435
266,-664,12.2062,56.9347,0,0,0,0,0,0,0,-1,1490,1688,12.2061,-56.9347
273,-664,12.3777,56.6885,0,0,0,0,0,0,0,-1,1497,1688,12.3777,-56.6885
280,-664,12.3677,56.283,0.00872848,-0.00161668,-0.0015538,0.00895682,-0.00184501,-0.145908,0.0066718,0.0384614,1504,1688,12.3677,-56.283
287,-664,12.3629,55.809,0.00808096,-0.00107948,-0.00150642,0.00832233,-0.00132085,-0.158877,0.00603686,0.0343704,1511,1688,12.3629,-55.8089
294,-664,12.5204,55.3514,0.00745171,-0.000703214,-0.0014377,0.00769775,-0.000949254,-0.169493,0.00547575,0.0244369,1518,1688,12.5204,-55.3515
301,-664,12.5814,54.8342,0.00656167,-5.64108e-05,-0.00129748,0.00680695,-0.000301691,-0.186839,0.0046418,0.0149381,1525,1688,12.5814,-54.8343
308,-664,12.6033,54.2782,0.00561607,0.000574073,-0.00118799,0.00588196,0.000308182,-0.220187,0.00382272,0.0122386,1532,1688,12.6032,-54.2782
315,-664,12.6304,53.7415,0.00469445,0.0011953,-0.00114131,0.0050338,0.000855946,-0.289008,0.00311006,0.0124097,1539,1688,12.6304,-53.7415
322,-664,12.6616,53.2383,0.00386741,0.00201715,-0.00125862,0.00450433,0.00138023,-0.468471,0.00266475,0.0157015,1546,1688,12.6617,-53.2383
329,-664,12.6199,52.7096,0.00314221,0.00272709,-0.00141129,0.00436113,0.00150818,-0.712386,0.00255749,0.0186661,1553,1688,12.6199,-52.7096
336,-664,12.5951,52.136,0.00256545,0.00334028,-0.00151516,0.00451677,0.00138895,-0.910563,0.0026714,0.0157791,1560,1688,12.5951,-52.136
343,-664,12.587,51.5809,0.00215644,0.00372188,-0.00176932,0.00487387,0.00100444,-0.99365,0.00297157,0.0130577,1567,1688,12.587,-51.5809
350,-664,12.5709,51.0204,0.00192188,0.00394262,-0.0023051,0.00544906,0.000415437,-0.991947,0.00350245,0.0148553,1574,1688,12.5709,-51.0203
357,-664,12.5593,50.4048,0.00188363,0.00399698,-0.00284871,0.00597868,-9.80666e-05,-0.962997,0.00401887,0.0134035,1581,1688,12.5594,-50.4048
364,-664,12.5425,49.8175,0.00201867,0.00375778,-0.00341086,0.00640818,-0.000631734,-0.910208,0.00449751,0.0110105,1588,1688,12.5424,-49.8174
371,-664,12.5137,49.2448,0.00230699,0.00334481,-0.00407465,0.00693346,-0.00128166,-0.848733,0.00510346,0.014621,1595,1688,12.5137,-49.2447
378,-664,12.4768,48.6549,0.00275816,0.00278199,-0.00479197,0.00756206,-0.00202191,-0.786641,0.00583334,0.0149092,1602,1688,12.4768,-48.6549
385,-664,12.4335,48.0509,0.00345735,0.00226378,-0.00564874,0.00854074,-0.00281961,-0.732769,0.00683052,0.0149502,1609,1688,12.4335,-48.0509
392,-664,12.3669,47.4542,0.00436326,0.00202695,-0.00679113,0.010086,-0.00369576,-0.700226,0.00823706,0.0186746,1616,1688,12.367,-47.4543
399,-664,12.3691,46.8115,0.00505344,0.00160699,-0.0077714,0.0112904,-0.00462994,-0.676294,0.00945593,0.0154228,1623,1688,12.3692,-46.8116
406,-664,12.3523,46.1625,0.00567243,0.00150381,-0.0087402,0.0125734,-0.00539717,-0.668348,0.0106475,0.013736,1630,1688,12.3523,-46.1625
413,-664,12.3276,45.4729,0.00625583,0.00182429,-0.00961547,0.0139075,-0.0058274,-0.672156,0.011708,0.0155114,1637,1688,12.3276,-45.4729
420,-664,12.3668,44.7694,0.00717485,0.00202705,-0.010609,0.0155177,-0.00631579,-0.66639,0.0129734,0.0371591,1644,1688,12.3668,-44.7695
427,-664,12.2861,43.9242,0,0,0,0,0,0,0,-1,1651,1688,12.2861,-43.9241
434,-664,12.2678,43.0591,0,0,0,0,0,0,0,-1,1658,1688,12.2678,-43.0591
441,-664,12.421,41.9419,0,0,0,0,0,0,0,-1,1665,1688,12.4211,-41.9419
448,-664,12.5538,38.7155,0,0,0,0,0,0,0,-1,1672,1688,12.5539,-38.7154
455,-664,12.1709,39.3733,0,0,0,0,0,0,0,-1,1679,1688,12.1708,-39.3733
462,-664,4.3147,4.25439,0,0,0,0,0,0,0,-1,1686,1688,4.31467,-4.25435
469,-664,6.05469,7.49341,0,0,0,0,0,0,0,-1,1693,1688,6.05474,-7.49339
476,-664,10.2377,22.7128,0,0,0,0,0,0,0,-1,1700,1688,10.2377,-22.7128
483,-664,8.41895,10.9768,0,0,0,0,0,0,0,-1,1707,1688,8.41897,-10.9769
490,-664,3.90771,13.2842,0,0,0,0,0,0,0,-1,1714,1688,3.90776,-13.2841
497,-664,0,0,0,0,0,0,0,0,0,-1,1721,1688,0,0
504,-664,0,0,0,0,0,0,0,0,0,-1,1728,1688,0,0
511,-664,0,0,0,0,0,0,0,0,0,-1,1735,1688,0,0
518,-664,0,0,0,0,0,0,0,0,0,-1,1742,1688,0,0
525,-664,0,0,0,0,0,0,0,0,0,-1,1749,1688,0,0
532,-664,0,0,0,0,0,0,0,0,0,-1,1756,1688,0,0
539,-664,0,0,0,0,0,0,0,0,0,-1,1763,1688,0,0
546,-664,0,0,0,0,0,0,0,0,0,-1,1770,1688,0,0
553,-664,0,0,0,0,0,0,0,0,0,-1,1777,1688,0,0
560,-664,0,0,0,0,0,0,0,0,0,-1,1784,1688,0,0
567,-664,0,0,0,0,0,0,0,0,0,-1,1791,1688,0,0
574,-664,0,0,0,0,0,0,0,0,0,-1,1798,1688,0,0
581,-664,0,0,0,0,0,0,0,0,0,-1,1805,1688,0,0
588,-664,0,0,0,0,0,0,0,0,0,-1,1812,1688,0,0
595,-664,0,0,0,0,0,0,0,0,0,-1,1819,1688,0,0
602,-664,0,0,0,0,0,0,0,0,0,-1,1826,1688,0,0
609,-664,0,0,0,0,0,0,0,0,0,-1,1833,1688,0,0
616,-664,0,0,0,0,0,0,0,0,0,-1,1840,1688,0,0
623,-664,0,0,0,0,0,0,0,0,0,-1,1847,1688,0,0
630,-664,0,0,0,0,0,0,0,0,0,-1,1854,1688,0,0
637,-664,0,0,0,0,0,0,0,0,0,-1,1861,1688,0,0
644,-664,0,0,0,0,0,0,0,0,0,-1,1868,1688,0,0
651,-664,0,0,0,0,0,0,0,0,0,-1,1875,1688,0,0
658,-664,0,0,0,0,0,0,0,0,0,-1,1882,1688,0,0
665,-664,0,0,0,0,0,0,0,0,0,-1,1889,1688,0,0
672,-664,0,0,0,0,0,0,0,0,0,-1,1896,1688,0,0
679,-664,0,0,0,0,0,0,0,0,0,-1,1903,1688,0,0
686,-664,0,0,0,0,0,0,0,0,0,-1,1910,1688,0,0
693,-664,0,0,0,0,0,0,0,0,0,-1,1917,1688,0,0
700,-664,0,0,0,0,0,0,0,0,0,-1,1924,1688,0,0
707,-664,0,0,0,0,0,0,0,0,0,-1,1931,1688,0,0
714,-664,0,0,0,0,0,0,0,0,0,-1,1938,1688,0,0
721,-664,0,0,0,0,0,0,0,0,0,-1,1945,1688,0,0
728,-664,0,0,0,0,0,0,0,0,0,-1,1952,1688,0,0
735,-664,0,0,0,0,0,0,0,0,0,-1,1959,1688,0,0
742,-664,0,0,0,0,0,0,0,0,0,-1,1966,1688,0,0
749,-664,0,0,0,0,0,0,0,0,0,-1,1973,1688,0,0
756,-664,0,0,0,0,0,0,0,0,0,-1,1980,1688,0,0
763,-664,0,0,0,0,0,0,0,0,0,-1,1987,1688,0,0
770,-664,0,0,0,0,0,0,0,0,0,-1,1994,1688,0,0
777,-664,0,0,0,0,0,0,0,0,0,-1,2001,1688,0,0
784,-664,0,0,0,0,0,0,0,0,0,-1,2008,1688,0,0
791,-664,0,0,0,0,0,0,0,0,0,-1,2015,1688,0,0
798,-664,0,0,0,0,0,0,0,0,0,-1,2022,1688,0,0
805,-664,0,0,0,0,0,0,0,0,0,-1,2029,1688,0,0
812,-664,0,0,0,0,0,0,0,0,0,-1,2036,1688,0,0
-700,-671,0,0,0,0,0,0,0,0,0,-1,524,1695,0,0
-693,-671,0,0,0,0,0,0,0,0,0,-1,531,1695,0,0
-686,-671,0,0,0,0,0,0,0,0,0,-1,538,1695,0,0
-679,-671,0,0,0,0,0,0,0,0,0,-1,545,1695,0,0
-672,-671,0,0,0,0,0,0,0,0,0,-1,552,1695,0,0
-665,-671,0,0,0,0,0,0,0,0,0,-1,559,1695,0,0
-658,-671,0,0,0,0,0,0,0,0,0,-1,566,1695,0,0
-651,-671,0,0,0,0,0,0,0,0,0,-1,573,1695,0,0
-644,-671,0,0,0,0,0,0,0,0,0,-1,580,1695,0,0
-637,-671,0,0,0,0,0,0,0,0,0,-1,587,1695,0,0
-630,-671,0,0,0,0,0,0,0,0,0,-1,594,1695,0,0
-623,-671,0,0,0,0,0,0,0,0,0,-1,601,1695,0,0
-616,-671,0,0,0,0,0,0,0,0,0,-1,608,1695,0,0
-609,-671,0,0,0,0,0,0,0,0,0,-1,615,1695,0,0
-602,-671,0,0,0,0,0,0,0,0,0,-1,622,1695,0,0
-595,-671,0,0,0,0,0,0,0,0,0,-1,629,1695,0,0
-588,-671,0,0,0,0,0,0,0,0,0,-1,636,1695,0,0
-581,-671,0,0,0,0,0,0,0,0,0,-1,643,1695,0,0
-574,-671,0,0,0,0,0,0,0,0,0,-1,650,1695,0,0
-567,-671,0,0,0,0,0,0,0,0,0,-1,657,1695,0,0
-560,-671,0,0,0,0,0,0,0,0,0,-1,664,1695,0,0
-553,-671,0,0,0,0,0,0,0,0,0,-1,671,1695,0,0
-546,-671,0,0,0,0,0,0,0,0,0,-1,678,1695,0,0
-539,-671,0,0,0,0,0,0,0,0,0,-1,685,1695,0,0
-532,-671,0,0,0,0,0,0,0,0,0,-1,692,1695,0,0
-525,-671,0,0,0,0,0,0,0,0,0,-1,699,1695,0,0
-518,-671,0,0,0,0,0,0,0,0,0,-1,706,1695,0,0
-511,-671,0,0,0,0,0,0,0,0,0,-1,713,1695,0,0
-504,-671,0,0,0,0,0,0,0,0,0,-1,720,1695,0,0
-497,-671,0,0,0,0,0,0,0,0,0,-1,727,1695,0,0
-490,-671,0,0,0,0,0,0,0,0,0,-1,734,1695,0,0
-483,-671,0,0,0,0,0,0,0,0,0,-1,741,1695,0,0
-476,-671,0,0,0,0,0,0,0,0,0,-1,748,1695,0,0
-469,-671,0,0,0,0,0,0,0,0,0,-1,755,1695,0,0
-462,-671,0,0,0,0,0,0,0,0,0,-1,762,1695,0,0
-455,-671,0,0,0,0,0,0,0,0,0,-1,769,1695,0,0
-448,-671,0,0,0,0,0,0,0,0,0,-1,776,1695,0,0
-441,-671,0,0,0,0,0,0,0,0,0,-1,783,1695,0,0
-434,-671,0,0,0,0,0,0,0,0,0,-1,790,1695,0,0
-427,-671,0,0,0,0,0,0,0,0,0,-1,797,1695,0,0
-420,-671,0,0,0,0,0,0,0,0,0,-1,804,1695,0,0
-413,-671,0,0,0,0,0,0,0,0,0,-1,811,1695,0,0
-406,-671,0,0,0,0,0,0,0,0,0,-1,818,1695,0,0
-399,-671,0,0,0,0,0,0,0,0,0,-1,825,1695,0,0
-392,-671,0,0,0,0,0,0,0,0,0,-1,832,1695,0,0
-385,-671,0,0,0,0,0,0,0,0,0,-1,839,1695,0,0
-378,-671,0,0,0,0,0,0,0,0,0,-1,846,1695,0,0
-371,-671,0,0,0,0,0,0,0,0,0,-1,853,1695,0,0
-364,-671,-4.18738,7.51416,0,0,0,0,0,0,0,-1,860,1695,-4.18739,-7.51419
-357,-671,-5.02393,6.07129,0,0,0,0,0,0,0,-1,867,1695,-5.0239,-6.07135
-350,-671,6.93323,33.8943,0,0,0,0,0,0,0,-1,874,1695,6.93325,-33.8943
-343,-671,6.16626,32.3158,0,0,0,0,0,0,0,-1,881,1695,6.16623,-32.3158
-336,-671,5.67371,33.653,0,0,0,0,0,0,0,-1,888,1695,5.67369,-33.653
-329,-671,7.40582,41.647,0,0,0,0,0,0,0,-1,895,1695,7.40582,-41.647
-322,-671,5.43414,41.9868,0,0,0,0,0,0,0,-1,902,1695,5.43416,-41.9868
-315,-671,5.61542,41.6686,0,0,0,0,0,0,0,-1,909,1695,5.61542,-41.6685
-308,-671,5.47827,42.7732,0,0,0,0,0,0,0,-1,916,1695,5.47828,-42.7731
-301,-671,5.50897,43.816,0.035299,0.00604823,0.0239996,0.0487785,-0.00743119,0.511746,0.0352581,0.0434308,923,1695,5.50899,-43.8161
-294,-671,5.95105,44.9127,0.0274578,0.00424174,0.0189142,0.0380419,-0.00634244,0.510175,0.0277184,0.046607,930,1695,5.95107,-44.9127
-287,-671,6.40179,45.7089,0.0203057,0.00302645,0.0145122,0.0285553,-0.00522317,0.516907,0.0209956,0.0399232,937,1695,6.40178,-45.7088
-280,-671,6.29218,46.0957,0.0142521,0.00245488,0.0112092,0.02102,-0.00431298,0.543192,0.0156504,0.033666,944,1695,6.29217,-46.0957
-273,-671,6.11713,46.7559,0.00951902,0.00176833,0.00852516,0.0150083,-0.00372098,0.572071,0.0114492,0.0326538,951,1695,6.11711,-46.7558
-266,-671,6.12195,47.4412,0.00587284,0.00127573,0.00648876,0.0104581,-0.00330956,0.615176,0.00829826,0.0248108,958,1695,6.12193,-47.4411
-259,-671,6.0636,48.0564,0.00333295,0.00106123,0.00510873,0.00743057,-0.00303639,0.676009,0.00621808,0.0226875,965,1695,6.06362,-48.0564
-252,-671,6.02344,48.6929,0.00168658,0.000976032,0.00413496,0.0054815,-0.00281889,0.742543,0.00487373,0.0184395,972,1695,6.02342,-48.6928
-245,-671,5.98383,49.2985,-0.000323499,0.000526371,0.00253483,0.00267164,-0.00246876,0.868445,0.00296858,0.0198735,979,1695,5.98384,-49.2985
-238,-671,5.9826,49.9352,-0.00138015,0.000933952,0.0021527,0.00222085,-0.00266704,1.03199,0.00282594,0.0191343,986,1695,5.98259,-49.9352
-231,-671,5.94537,50.5338,-0.00116836,0.00120266,0.0024734,0.00275999,-0.00272568,1.00888,0.00316718,0.0144064,993,1695,5.9454,-50.5338
-224,-671,5.89136,51.0924,-0.000281822,0.00119531,0.00253934,0.00310131,-0.00218782,0.926919,0.00306882,0.0113639,1000,1695,5.89134,-51.0924
-217,-671,5.85461,51.6802,0.000398844,0.00117799,0.00224962,0.00307152,-0.00149469,0.871134,0.00268818,0.0114745,1007,1695,5.85461,-51.6802
-210,-671,5.86078,52.2922,0.000789678,0.00111857,0.00202587,0.00298665,-0.00107841,0.825895,0.00243163,0.0114587,1014,1695,5.86079,-52.2923
-203,-671,5.81299,52.8385,0.00119298,0.00101586,0.00176714,0.00287377,-0.000664939,0.760362,0.0021717,0.0192197,1021,1695,5.81302,-52.8385
-196,-671,5.80176,53.39,0.00159399,0.000868756,0.00147821,0.00275341,-0.000290665,0.665119,0.00193977,0.0169316,1028,1695,5.80173,-53.39
-189,-671,5.78979,53.9961,0.00189735,0.000993872,0.00111735,0.00265082,0.000240402,0.593295,0.00169278,0.0123001,1035,1695,5.78977,-53.9961
-182,-671,5.76819,54.5193,0.00215774,0.00140375,0.000780275,0.00264732,0.00091417,0.560359,0.00155262,0.0102513,1042,1695,5.76823,-54.5193
-175,-671,5.76672,55.0211,0.00245415,0.0018736,0.000471136,0.00271725,0.0016105,0.509308,0.00157777,0.0134693,1049,1695,5.76671,-55.0211
-168,-671,5.76147,55.5142,0.00262931,0.00255086,0.000182531,0.00277678,0.00240339,0.679569,0.00174013,0.0139068,1056,1695,5.76149,-55.5141
-161,-671,5.75867,56.0217,0.00278841,0.00341627,-6.39969e-05,0.00342273,0.00278195,-1.47025,0.00210105,0.00974209,1063,1695,5.75863,-56.0217
-154,-671,5.77209,56.5248,0.00296669,0.00445057,-0.000276521,0.00450043,0.00291683,-1.39242,0.00263605,0.00903806,1070,1695,5.77207,-56.5247
-147,-671,5.76709,57.0323,0.00318864,0.00562462,-0.000437006,0.00570064,0.00311262,-1.39855,0.00329591,0.0103278,1077,1695,5.76704,-57.0324
-140,-671,5.82166,57.4926,0.00336218,0.00676038,-0.000608255,0.00686597,0.00325659,-1.39891,0.00396581,0.0138889,1084,1695,5.82171,-57.4925
-133,-671,5.85815,57.9248,0.0033958,0.0080869,-0.000737602,0.00820014,0.00328255,-1.41846,0.00476562,0.020998,1091,1695,5.85821,-57.9248
-126,-671,5.90686,58.515,0.00349527,0.00897941,-0.00101643,0.00916174,0.00331295,-1.39331,0.00535664,0.0382028,1098,1695,5.90685,-58.5151
-119,-671,5.99634,59.2728,0,0,0,0,0,0,0,-1,1105,1695,5.99629,-59.2729
-112,-671,6.58704,44.6255,0,0,0,0,0,0,0,-1,1112,1695,6.58701,-44.6255
-105,-671,7.33252,41.3418,0,0,0,0,0,0,0,-1,1119,1695,7.33247,-41.3418
-98,-671,6.34534,45.6299,0,0,0,0,0,0,0,-1,1126,1695,6.34533,-45.6299
-91,-671,6.40063,38.2443,0,0,0,0,0,0,0,-1,1133,1695,6.40059,-38.2442
-84,-671,5.4209,26.2415,0,0,0,0,0,0,0,-1,1140,1695,5.42096,-26.2414
-77,-671,4.31763,16.489,0,0,0,0,0,0,0,-1,1147,1695,4.31757,-16.489
-70,-671,3.06067,10.7737,0,0,0,0,0,0,0,-1,1154,1695,3.0607,-10.7737
-63,-671,2.94592,6.90198,0,0,0,0,0,0,0,-1,1161,1695,2.94594,-6.90198
-56,-671,-3.07678,2.87976,0,0,0,0,0,0,0,-1,1168,1695,-3.07675,-2.87979
-49,-671,-1.05957,4.76917,0,0,0,0,0,0,0,-1,1175,1695,-1.05958,-4.76921
-42,-671,0.539307,3.7865,0,0,0,0,0,0,0,-1,1182,1695,0.539266,-3.78648
-35,-671,-0.272461,0.347534,0,0,0,0,0,0,0,-1,1189,1695,-0.272434,-0.347569
-28,-671,-10.4878,17.2009,0,0,0,0,0,0,0,-1,1196,1695,-10.4878,-17.2009
-21,-671,6.92786,63.3142,0,0,0,0,0,0,0,-1,1203,1695,6.92784,-63.3142
-14,-671,7.20154,63.4479,0.0283447,0.0450002,-0.0067358,0.0473833,0.0259616,-1.23074,0.0273986,0.0440571,1210,1695,7.20155,-63.4479
-7,-671,7.32043,63.6217,0.0289371,0.0441616,-0.00672092,0.046704,0.0263947,-1.20915,0.0270408,0.0470566,1217,1695,7.32046,-63.6217
0,-671,7.37439,63.7249,0.029918,0.0439338,-0.00746331,0.0471637,0.0266882,-1.16237,0.0273086,0.0439521,1224,1695,7.37444,-63.7248
7,-671,7.61511,63.9634,0.0308862,0.0438853,-0.0088971,0.0484041,0.0263675,-1.10086,0.0279834,0.0422818,1231,1695,7.61509,-63.9634
14,-671,8.05042,64.3638,0.0318704,0.0439386,-0.0109199,0.0503807,0.0254284,-1.03781,0.0290877,0.0412315,1238,1695,8.05037,-64.3638
21,-671,7.81726,64.625,0.0323731,0.0424527,-0.012834,0.0512009,0.0236248,-0.972494,0.0295902,0.0456274,1245,1695,7.8172,-64.625
28,-671,8.35754,64.687,0.0318483,0.0397314,-0.0145544,0.0508685,0.0207112,-0.917634,0.0295372,0.0451759,1252,1695,8.35751,-64.687
35,-671,8.85303,64.896,0.03036,0.0362272,-0.0157458,0.0493103,0.0172768,-0.877497,0.0288912,0.0452476,1259,1695,8.85299,-64.896
42,-671,8.88269,64.9839,0.0260226,0.0320455,-0.0168316,0.0461329,0.0119351,-0.87392,0.0276493,0.0449154,1266,1695,8.88269,-64.9838
49,-671,9.00037,65.1289,0.0203682,0.0280099,-0.0180772,0.0426656,0.00571251,-0.889547,0.0267437,0.0427096,1273,1695,9.00031,-65.129
56,-671,9.35767,65.1121,0.0137824,0.0244411,-0.0198312,0.0396466,-0.00142312,-0.916665,0.026918,0.0443177,1280,1695,9.35763,-65.112
63,-671,9.66357,65.0106,0,0,0,0,0,0,0,-1,1287,1695,9.66361,-65.0106
70,-671,10.0618,64.7886,-0.00028844,0.0168406,-0.0232549,0.033058,-0.0165058,-0.961835,0.0291427,0.0455449,1294,1695,10.0618,-64.7886
77,-671,10.606,64.5619,-0.00796408,0.0137185,-0.0246304,0.0297879,-0.0240336,-0.992718,0.031133,0.0434128,1301,1695,10.6059,-64.5619
84,-671,10.2727,64.4222,-0.0162305,0.0115822,-0.0262249,0.0273597,-0.0320081,-1.02918,0.034311,0.0478942,1308,1695,10.2727,-64.4222
91,-671,9.79468,64.3157,-0.0239474,0.0104546,-0.0281679,0.0262582,-0.039751,-1.05951,0.0383749,0.0464678,1315,1695,9.79466,-64.3157
98,-671,9.32043,63.9094,-0.0309833,0.0112309,-0.0306223,0.0273156,-0.047068,-1.08714,0.0434472,0.0445075,1322,1695,9.32041,-63.9094
105,-671,8.8252,63.5134,-0.0369305,0.0127783,-0.0333079,0.029483,-0.0536352,-1.10593,0.0486589,0.0460174,1329,1695,8.82517,-63.5135
112,-671,8.33484,63.0253,-0.0408387,0.0151713,-0.0356598,0.0325084,-0.0581758,-1.11827,0.053051,0.0444045,1336,1695,8.33479,-63.0253
119,-671,7.76135,62.5382,0,0,0,0,0,0,0,-1,1343,1695,7.76135,-62.5383
126,-671,7.31311,61.6854,-0.0450035,0.0192196,-0.0383706,0.0371426,-0.0629264,-1.13381,0.0584107,0.0484262,1350,1695,7.31311,-61.6855
133,-671,6.80823,61.004,-0.0455004,0.0197609,-0.0379666,0.0371924,-0.062932,-1.14038,0.0584401,0.0483987,1357,1695,6.80824,-61.004
140,-671,6.2373,59.7839,0,0,0,0,0,0,0,-1,1364,1695,6.23729,-59.7839
147,-671,5.80701,58.7438,0,0,0,0,0,0,0,-1,1371,1695,5.80696,-58.7437
154,-671,5.01501,61.3026,0,0,0,0,0,0,0,-1,1378,1695,5.01499,-61.3026
161,-671,4.49292,4.91272,0,0,0,0,0,0,0,-1,1385,1695,4.49297,-4.91273
168,-671,5.17639,6.1416,0,0,0,0,0,0,0,-1,1392,1695,5.1764,-6.14164
175,-671,5.6731,1.64685,0,0,0,0,0,0,0,-1,1399,1695,5.67313,-1.64691
182,-671,5.56812,1.71692,0,0,0,0,0,0,0,-1,1406,1695,5.56809,-1.71686
189,-671,6.98315,6.36169,0,0,0,0,0,0,0,-1,1413,1695,6.98312,-6.36175
196,-671,5.38123,5.69775,0,0,0,0,0,0,0,-1,1420,1695,5.38125,-5.69769
203,-671,5.95117,8.11658,0,0,0,0,0,0,0,-1,1427,1695,5.9512,-8.11662
210,-671,4.73596,8.39624,0,0,0,0,0,0,0,-1,1434,1695,4.736,-8.39618
217,-671,5.37097,11.863,0,0,0,0,0,0,0,-1,1441,1695,5.37094,-11.863
224,-671,5.08167,13.6694,0,0,0,0,0,0,0,-1,1448,1695,5.08165,-13.6695
231,-671,5.66663,15.3348,0,0,0,0,0,0,0,-1,1455,1695,5.66667,-15.3349
238,-671,6.32959,16.2036,0,0,0,0,0,0,0,-1,1462,1695,6.32961,-16.2037
245,-671,11.9244,57.5367,0,0,0,0,0,0,0,-1,1469,1695,11.9245,-57.5367
252,-671,11.8932,58.2993,0,0,0,0,0,0,0,-1,1476,1695,11.8931,-58.2993
259,-671,11.9218,57.9053,0,0,0,0,0,0,0,-1,1483,1695,11.9218,-57.9052
266,-671,11.9486,57.2542,0.00762833,-0.00178607,-0.000907097,0.00771493,-0.00187267,-0.0951853,0.00586798,0.0343007,1490,1695,11.9486,-57.2542
273,-671,12.0115,56.8132,0.00724159,-0.00156818,-0.0010293,0.00736025,-0.00168684,-0.114777,0.00555515,0.0108565,1497,1695,12.0115,-56.8133
280,-671,12.02,56.3413,0.00667096,-0.00115679,-0.0011684,0.00684164,-0.00132746,-0.145053,0.00506194,0.0106645,1504,1695,12.02,-56.3413
287,-671,12.0247,55.7841,0.00610388,-0.000728134,-0.00119813,0.0063079,-0.000932157,-0.168667,0.00454794,0.0131462,1511,1695,12.0247,-55.784
294,-671,12.0298,55.2799,0.00554275,-0.000384656,-0.00118943,0.00577252,-0.000614429,-0.190828,0.00406865,0.012905,1518,1695,12.0298,-55.2799
301,-671,12.0565,54.8287,0.0047792,0.00015434,-0.00115143,0.00505001,-0.000116468,-0.230995,0.00340616,0.0112705,1525,1695,12.0565,-54.8288
308,-671,12.0663,54.3101,0.0039873,0.000748462,-0.0011778,0.00437032,0.00036545,-0.314406,0.00279969,0.0117888,1532,1695,12.0663,-54.3101
315,-671,12.0964,53.7986,0.00321731,0.00149008,-0.00126285,0.0038836,0.000823788,-0.485492,0.00236283,0.0142627,1539,1695,12.0964,-53.7985
322,-671,12.0963,53.2975,0.00248609,0.00230103,-0.00141792,0.0038145,0.000972628,-0.752815,0.00228875,0.0164256,1546,1695,12.0963,-53.2975
329,-671,12.0319,52.7533,0.00184695,0.00306097,-0.00162948,0.00419283,0.000715089,-0.963694,0.00258997,0.0154613,1553,1695,12.0318,-52.7533
336,-671,12.0289,52.1772,0.0014136,0.00374796,-0.00181852,0.00474164,0.000419915,-1.0707,0.00303083,0.0124409,1560,1695,12.0289,-52.1772
343,-671,12.054,51.5881,0.00122751,0.00420399,-0.00222842,0.00539544,3.60589e-05,-1.07981,0.003585,0.0131998,1567,1695,12.0539,-51.5881
350,-671,12.0209,51.0471,0.00127456,0.00449375,-0.00302594,0.00631156,-0.000543251,-1.02983,0.00439998,0.013661,1574,1695,12.0209,-51.0472
357,-671,11.9821,50.4296,0.00147309,0.00461615,-0.00377002,0.00712907,-0.00103983,-0.982872,0.00513454,0.0117835,1581,1695,11.9821,-50.4296
364,-671,11.949,49.8389,0.00187312,0.00444937,-0.00454177,0.00788215,-0.00155966,-0.923578,0.00584444,0.0128006,1588,1695,11.949,-49.8388
371,-671,11.9088,49.2677,0.00247742,0.00410888,-0.00546836,0.00882202,-0.00223571,-0.859438,0.00675113,0.0147503,1595,1695,11.9088,-49.2677
378,-671,11.8831,48.6531,0.0032951,0.00354872,-0.00649482,0.00991797,-0.00307415,-0.795159,0.00784023,0.0131949,1602,1695,11.8831,-48.653
385,-671,11.8363,48.0127,0.00441772,0.00303931,-0.00772541,0.0114846,-0.00402758,-0.74091,0.00929451,0.0150017,1609,1695,11.8363,-48.0126
392,-671,11.8008,47.4409,0.00583315,0.00280774,-0.00929296,0.0137357,-0.00509483,-0.704716,0.0112469,0.0192422,1616,1695,11.8008,-47.4409
399,-671,11.7598,46.8511,0.00707262,0.00231052,-0.0107157,0.0156687,-0.00628553,-0.676074,0.0130555,0.0150952,1623,1695,11.7597,-46.8511
406,-671,11.7506,46.1707,0.00820019,0.00223673,-0.0121086,0.0176888,-0.0072519,-0.664676,0.0148138,0.0228459,1630,1695,11.7507,-46.1706
413,-671,11.7329,45.5564,0.00929399,0.00256129,-0.0134031,0.0197471,-0.00789179,-0.662363,0.0164393,0.0363373,1637,1695,11.7329,-45.5564
420,-671,11.824,44.9478,0,0,0,0,0,0,0,-1,1644,1695,11.8239,-44.9478
427,-671,11.9879,42.9364,0,0,0,0,0,0,0,-1,1651,1695,11.988,-42.9364
434,-671,12.0647,42.6493,0,0,0,0,0,0,0,-1,1658,1695,12.0648,-42.6493
441,-671,11.8904,39.6104,0,0,0,0,0,0,0,-1,1665,1695,11.8904,-39.6103
448,-671,11.6979,39.1995,0,0,0,0,0,0,0,-1,1672,1695,11.6979,-39.1994
455,-671,11.5221,39.0929,0,0,0,0,0,0,0,-1,1679,1695,11.5221,-39.0929
462,-671,5.86255,4.47961,0,0,0,0,0,0,0,-1,1686,1695,5.8625,-4.4796
469,-671,3.71301,3.76978,0,0,0,0,0,0,0,-1,1693,1695,3.71297,-3.76974
476,-671,3.75574,3.18848,0,0,0,0,0,0,0,-1,1700,1695,3.7558,-3.18847
483,-671,7.81824,12.1041,0,0,0,0,0,0,0,-1,1707,1695,7.81826,-12.1041
490,-671,0,0,0,0,0,0,0,0,0,-1,1714,1695,0,0
497,-671,0,0,0,0,0,0,0,0,0,-1,1721,1695,0,0
504,-671,0,0,0,0,0,0,0,0,0,-1,1728,1695,0,0
511,-671,0,0,0,0,0,0,0,0,0,-1,1735,1695,0,0
518,-671,0,0,0,0,0,0,0,0,0,-1,1742,1695,0,0
525,-671,0,0,0,0,0,0,0,0,0,-1,1749,1695,0,0
532,-671,0,0,0,0,0,0,0,0,0,-1,1756,1695,0,0
539,-671,0,0,0,0,0,0,0,0,0,-1,1763,1695,0,0
546,-671,0,0,0,0,0,0,0,0,0,-1,1770,1695,0,0
553,-671,0,0,0,0,0,0,0,0,0,-1,1777,1695,0,0
560,-671,0,0,0,0,0,0,0,0,0,-1,1784,1695,0,0
567,-671,0,0,0,0,0,0,0,0,0,-1,1791,1695,0,0
574,-671,0,0,0,0,0,0,0,0,0,-1,1798,1695,0,0
581,-671,0,0,0,0,0,0,0,0,0,-1,1805,1695,0,0
588,-671,0,0,0,0,0,0,0,0,0,-1,1812,1695,0,0
595,-671,0,0,0,0,0,0,0,0,0,-1,1819,1695,0,0
602,-671,0,0,0,0,0,0,0,0,0,-1,1826,1695,0,0
609,-671,0,0,0,0,0,0,0,0,0,-1,1833,1695,0,0
616,-671,0,0,0,0,0,0,0,0,0,-1,1840,1695,0,0
623,-671,0,0,0,0,0,0,0,0,0,-1,1847,1695,0,0
630,-671,0,0,0,0,0,0,0,0,0,-1,1854,1695,0,0
637,-671,0,0,0,0,0,0,0,0,0,-1,1861,1695,0,0
644,-671,0,0,0,0,0,0,0,0,0,-1,1868,1695,0,0
651,-671,0,0,0,0,0,0,0,0,0,-1,1875,1695,0,0
658,-671,0,0,0,0,0,0,0,0,0,-1,1882,1695,0,0
665,-671,0,0,0,0,0,0,0,0,0,-1,1889,1695,0,0
672,-671,0,0,0,0,0,0,0,0,0,-1,1896,1695,0,0
679,-671,0,0,0,0,0,0,0,0,0,-1,1903,1695,0,0
686,-671,0,0,0,0,0,0,0,0,0,-1,1910,1695,0,0
693,-671,0,0,0,0,0,0,0,0,0,-1,1917,1695,0,0
700,-671,0,0,0,0,0,0,0,0,0,-1,1924,1695,0,0
707,-671,0,0,0,0,0,0,0,0,0,-1,1931,1695,0,0
714,-671,0,0,0,0,0,0,0,0,0,-1,1938,1695,0,0
721,-671,0,0,0,0,0,0,0,0,0,-1,1945,1695,0,0
728,-671,0,0,0,0,0,0,0,0,0,-1,1952,1695,0,0
735,-671,0,0,0,0,0,0,0,0,0,-1,1959,1695,0,0
742,-671,0,0,0,0,0,0,0,0,0,-1,1966,1695,0,0
749,-671,0,0,0,0,0,0,0,0,0,-1,1973,1695,0,0
756,-671,0,0,0,0,0,0,0,0,0,-1,1980,1695,0,0
763,-671,0,0,0,0,0,0,0,0,0,-1,1987,1695,0,0
770,-671,0,0,0,0,0,0,0,0,0,-1,1994,1695,0,0
777,-671,0,0,0,0,0,0,0,0,0,-1,2001,1695,0,0
784,-671,0,0,0,0,0,0,0,0,0,-1,2008,1695,0,0
791,-671,0,0,0,0,0,0,0,0,0,-1,2015,1695,0,0
798,-671,0,0,0,0,0,0,0,0,0,-1,2022,1695,0,0
805,-671,0,0,0,0,0,0,0,0,0,-1,2029,1695,0,0
812,-671,0,0,0,0,0,0,0,0,0,-1,2036,1695,0,0
-700,-678,0,0,0,0,0,0,0,0,0,-1,524,1702,0,0
-693,-678,0,0,0,0,0,0,0,0,0,-1,531,1702,0,0
-686,-678,0,0,0,0,0,0,0,0,0,-1,538,1702,0,0
-679,-678,0,0,0,0,0,0,0,0,0,-1,545,1702,0,0
-672,-678,0,0,0,0,0,0,0,0,0,-1,552,1702,0,0
-665,-678,0,0,0,0,0,0,0,0,0,-1,559,1702,0,0
-658,-678,0,0,0,0,0,0,0,0,0,-1,566,1702,0,0
-651,-678,0,0,0,0,0,0,0,0,0,-1,573,1702,0,0
-644,-678,0,0,0,0,0,0,0,0,0,-1,580,1702,0,0
-637,-678,0,0,0,0,0,0,0,0,0,-1,587,1702,0,0
-630,-678,0,0,0,0,0,0,0,0,0,-1,594,1702,0,0
-623,-678,0,0,0,0,0,0,0,0,0,-1,601,1702,0,0
-616,-678,0,0,0,0,0,0,0,0,0,-1,608,1702,0,0
-609,-678,0,0,0,0,0,0,0,0,0,-1,615,1702,0,0
-602,-678,0,0,0,0,0,0,0,0,0,-1,622,1702,0,0
-595,-678,0,0,0,0,0,0,0,0,0,-1,629,1702,0,0
-588,-678,0,0,0,0,0,0,0,0,0,-1,636,1702,0,0
-581,-678,0,0,0,0,0,0,0,0,0,-1,643,1702,0,0
-574,-678,0,0,0,0,0,0,0,0,0,-1,650,1702,0,0
-567,-678,0,0,0,0,0,0,0,0,0,-1,657,1702,0,0
-560,-678,0,0,0,0,0,0,0,0,0,-1,664,1702,0,0
-553,-678,0,0,0,0,0,0,0,0,0,-1,671,1702,0,0
-546,-678,0,0,0,0,0,0,0,0,0,-1,678,1702,0,0
-539,-678,0,0,0,0,0,0,0,0,0,-1,685,1702,0,0
-532,-678,0,0,0,0,0,0,0,0,0,-1,692,1702,0,0
-525,-678,0,0,0,0,0,0,0,0,0,-1,699,1702,0,0
-518,-678,0,0,0,0,0,0,0,0,0,-1,706,1702,0,0
-511,-678,0,0,0,0,0,0,0,0,0,-1,713,1702,0,0
-504,-678,0,0,0,0,0,0,0,0,0,-1,720,1702,0,0
-497,-678,0,0,0,0,0,0,0,0,0,-1,727,1702,0,0
-490,-678,0,0,0,0,0,0,0,0,0,-1,734,1702,0,0
-483,-678,0,0,0,0,0,0,0,0,0,-1,741,1702,0,0
-476,-678,0,0,0,0,0,0,0,0,0,-1,748,1702,0,0
-469,-678,0,0,0,0,0,0,0,0,0,-1,755,1702,0,0
-462,-678,0,0,0,0,0,0,0,0,0,-1,762,1702,0,0
-455,-678,0,0,0,0,0,0,0,0,0,-1,769,1702,0,0
-448,-678,0,0,0,0,0,0,0,0,0,-1,776,1702,0,0
-441,-678,0,0,0,0,0,0,0,0,0,-1,783,1702,0,0
-434,-678,0,0,0,0,0,0,0,0,0,-1,790,1702,0,0
-427,-678,0,0,0,0,0,0,0,0,0,-1,797,1702,0,0
-420,-678,0,0,0,0,0,0,0,0,0,-1,804,1702,0,0
-413,-678,0,0,0,0,0,0,0,0,0,-1,811,1702,0,0
-406,-678,0,0,0,0,0,0,0,0,0,-1,818,1702,0,0
-399,-678,0,0,0,0,0,0,0,0,0,-1,825,1702,0,0
-392,-678,0,0,0,0,0,0,0,0,0,-1,832,1702,0,0
-385,-678,0,0,0,0,0,0,0,0,0,-1,839,1702,0,0
-378,-678,0,0,0,0,0,0,0,0,0,-1,846,1702,0,0
-371,-678,0,0,0,0,0,0,0,0,0,-1,853,1702,0,0
-364,-678,0,0,0,0,0,0,0,0,0,-1,860,1702,0,0
-357,-678,0,0,0,0,0,0,0,0,0,-1,867,1702,0,0
-350,-678,-5.79944,6.11865,0,0,0,0,0,0,0,-1,874,1702,-5.79942,-6.11864
-343,-678,8.79578,34.4388,0,0,0,0,0,0,0,-1,881,1702,8.79579,-34.4388
-336,-678,9.06317,34.813,0,0,0,0,0,0,0,-1,888,1702,9.06318,-34.8129
-329,-678,8.68359,35.6151,0,0,0,0,0,0,0,-1,895,1702,8.68362,-35.6152
-322,-678,8.50494,35.5048,0,0,0,0,0,0,0,-1,902,1702,8.50495,-35.5047
-315,-678,7.95453,39.342,0,0,0,0,0,0,0,-1,909,1702,7.95455,-39.342
-308,-678,5.58972,42.3959,0,0,0,0,0,0,0,-1,916,1702,5.58974,-42.3958
-301,-678,5.57837,43.4141,0.0498147,0.00916548,0.0320846,0.0674705,-0.00849036,0.503065,0.0480611,0.0430504,923,1702,5.57835,-43.414
-294,-678,6.38824,44.9625,0.0385046,0.00650666,0.024916,0.052116,-0.00710478,0.499992,0.0373383,0.0462858,930,1702,6.38827,-44.9625
-287,-678,7.28589,45.7991,0.0282977,0.0048173,0.0188993,0.0388064,-0.00569147,0.507469,0.0279619,0.0465213,937,1702,7.28588,-45.799
-280,-678,7.0813,46.1207,0.0198619,0.00409941,0.0146663,0.0286305,-0.00466914,0.538851,0.0208186,0.0464866,944,1702,7.08129,-46.1208
-273,-678,6.61072,46.6896,0.0132342,0.00313561,0.011148,0.0204231,-0.00405329,0.572753,0.0151484,0.0454405,951,1702,6.6107,-46.6896
-266,-678,6.16034,47.4895,0,0,0,0,0,0,0,-1,958,1702,6.16034,-47.4896
-259,-678,6.62097,48.1022,0.00437847,0.00189116,0.0067478,0.00999627,-0.00372663,0.694268,0.00819391,0.0247686,965,1702,6.62096,-48.1021
-252,-678,6.58777,48.7137,0.00205643,0.00164497,0.0055586,0.0074131,-0.00371171,0.766901,0.00654034,0.0190542,972,1702,6.58779,-48.7138
-245,-678,6.55188,49.3158,-0.000754436,0.000948358,0.00355174,0.00374932,-0.0035554,0.903035,0.00421788,0.0183114,979,1702,6.55185,-49.3158
-238,-678,6.52716,49.9331,-0.00234626,0.00140742,0.00307634,0.00313424,-0.00407309,1.0593,0.00417291,0.0149342,986,1702,6.52713,-49.9331
-231,-678,6.48663,50.5248,-0.00228943,0.00162825,0.00341954,0.00361026,-0.00427144,1.0455,0.00455584,0.0128328,993,1702,6.48664,-50.5247
-224,-678,6.43707,51.1106,-0.00129708,0.00156473,0.00346754,0.003885,-0.00361735,0.981082,0.00433241,0.0124737,1000,1702,6.43709,-51.1106
-217,-678,6.41418,51.7222,-0.0005523,0.00153742,0.00310575,0.00376936,-0.00278424,0.947664,0.00379795,0.0133639,1007,1702,6.41418,-51.7222
-210,-678,6.40417,52.351,-0.000209829,0.00143983,0.00283832,0.00357075,-0.00234075,0.926805,0.00343754,0.0143392,1014,1702,6.40418,-52.3509
-203,-678,6.41016,52.9088,0.000137678,0.00133739,0.00253545,0.00334298,-0.00186791,0.901556,0.00304842,0.0192493,1021,1702,6.41012,-52.9089
-196,-678,6.37256,53.4534,0.000504918,0.0011627,0.00217121,0.00302979,-0.00136217,0.860566,0.00259592,0.0188394,1028,1702,6.3726,-53.4534
-189,-678,6.33508,54.0221,0.000832468,0.00122976,0.00176136,0.00280364,-0.000741414,0.84155,0.00215909,0.010409,1035,1702,6.33513,-54.022
-182,-678,6.31287,54.5579,0.00116276,0.00145648,0.0013777,0.00269513,-7.58822e-05,0.838496,0.00182257,0.00979606,1042,1702,6.31283,-54.5579
-175,-678,6.28748,55.0599,0.00148913,0.00172794,0.000989544,0.00260526,0.000611813,0.845439,0.00157307,0.0112787,1049,1702,6.28748,-55.0599
-168,-678,6.27722,55.558,0.00171914,0.00220045,0.000672714,0.00267426,0.00124533,0.957172,0.0015452,0.0107013,1056,1702,6.27718,-55.5579
-161,-678,6.27539,56.0554,0.00194183,0.00281275,0.000398245,0.0029674,0.00178718,1.2004,0.00172513,0.00920746,1063,1702,6.27544,-56.0554
-154,-678,6.26929,56.5657,0.00218072,0.00351009,0.000140276,0.00352473,0.00216608,1.4668,0.00205273,0.00915289,1070,1702,6.26928,-56.5657
-147,-678,6.22876,57.0619,0.00246604,0.00426398,-6.66902e-05,0.00426645,0.00246357,-1.53377,0.00247306,0.0112942,1077,1702,6.22874,-57.0619
-140,-678,6.29468,57.5183,0.00272697,0.00492132,-0.000297563,0.00496095,0.00268734,-1.43838,0.00286752,0.0120445,1084,1702,6.29462,-57.5183
-133,-678,6.34912,57.9485,0.00289916,0.00565283,-0.000488352,0.00573687,0.00281512,-1.40037,0.00331237,0.0135869,1091,1702,6.34911,-57.9485
-126,-678,6.35181,58.4432,0.003125,0.00603849,-0.000777899,0.00623318,0.00293031,-1.32556,0.00360087,0.018066,1098,1702,6.35178,-58.4432
-119,-678,6.3429,59.1385,0,0,0,0,0,0,0,-1,1105,1702,6.34284,-59.1386
-112,-678,6.46497,59.1956,0,0,0,0,0,0,0,-1,1112,1702,6.46496,-59.1956
-105,-678,6.36023,59.6967,0,0,0,0,0,0,0,-1,1119,1702,6.36023,-59.6967
-98,-678,6.47156,60.0992,0,0,0,0,0,0,0,-1,1126,1702,6.47153,-60.0993
-91,-678,6.57739,60.425,0,0,0,0,0,0,0,-1,1133,1702,6.57734,-60.425
-84,-678,6.58545,36.5073,0,0,0,0,0,0,0,-1,1140,1702,6.58544,-36.5073
-77,-678,5.95154,29.1879,0,0,0,0,0,0,0,-1,1147,1702,5.95156,-29.1878
-70,-678,4.75891,19.6552,0,0,0,0,0,0,0,-1,1154,1702,4.75895,-19.6551
-63,-678,3.41687,11.0365,0,0,0,0,0,0,0,-1,1161,1702,3.41682,-11.0365
-56,-678,1.72388,6.13159,0,0,0,0,0,0,0,-1,1168,1702,1.72388,-6.13157
-49,-678,-0.241699,5.29895,0,0,0,0,0,0,0,-1,1175,1702,-0.241682,-5.29897
-42,-678,0.297119,3.90649,0,0,0,0,0,0,0,-1,1182,1702,0.297139,-3.90655
-35,-678,0.498413,3.64038,0,0,0,0,0,0,0,-1,1189,1702,0.498471,-3.64038
-28,-678,0.132446,3.55994,0,0,0,0,0,0,0,-1,1196,1702,0.132432,-3.55993
-21,-678,7.28223,63.1816,0,0,0,0,0,0,0,-1,1203,1702,7.28225,-63.1817
-14,-678,7.53101,63.2762,0,0,0,0,0,0,0,-1,1210,1702,7.53095,-63.2762
-7,-678,7.90613,63.1836,0,0,0,0,0,0,0,-1,1217,1702,7.90609,-63.1836
0,-678,7.40002,63.8494,0.026305,0.0312097,-0.00389459,0.0333597,0.024155,-1.06637,0.0198945,0.0459997,1224,1702,7.39999,-63.8494
7,-678,7.37427,64.1174,0.0273395,0.0315762,-0.00512278,0.0350014,0.0239144,-0.981449,0.0206555,0.0427884,1231,1702,7.37427,-64.1174
14,-678,7.39905,64.1021,0.0283422,0.0321143,-0.00682294,0.037307,0.0231494,-0.920244,0.0217468,0.042989,1238,1702,7.39907,-64.1021
21,-678,7.60815,64.3259,0.02895,0.0312553,-0.00844652,0.0386275,0.0215779,-0.853211,0.0223526,0.043238,1245,1702,7.60819,-64.3259
28,-678,8.37317,64.4568,0.028675,0.0292776,-0.00987198,0.0388528,0.0190997,-0.800654,0.0224328,0.0425726,1252,1702,8.37322,-64.4568
35,-678,9.05859,64.7334,0.0275242,0.0266984,-0.0108836,0.0380027,0.0162199,-0.766437,0.0220191,0.0416211,1259,1702,9.0586,-64.7334
42,-678,9.54102,65.0453,0.023939,0.0234383,-0.0119385,0.0356297,0.0117475,-0.774915,0.0209648,0.0461336,1266,1702,9.54105,-65.0453
49,-678,8.47058,65.6461,0,0,0,0,0,0,0,-1,1273,1702,8.47053,-65.6461
56,-678,9.15808,65.7844,0,0,0,0,0,0,0,-1,1280,1702,9.15814,-65.7844
63,-678,9.75342,65.8939,0,0,0,0,0,0,0,-1,1287,1702,9.75339,-65.894
70,-678,9.96912,65.1589,0,0,0,0,0,0,0,-1,1294,1702,9.96912,-65.1589
77,-678,9.69763,65.276,-0.00476805,0.00769436,-0.0190727,0.021528,-0.0186017,-0.943286,0.0231894,0.0434111,1301,1702,9.69763,-65.2761
84,-678,9.7511,64.9299,-0.0117545,0.00561797,-0.0203922,0.0190968,-0.0252334,-0.98674,0.0256757,0.0451624,1308,1702,9.75115,-64.9299
91,-678,9.72327,64.4026,-0.0180467,0.00438163,-0.0219272,0.0177958,-0.0314609,-1.02177,0.0288009,0.0469411,1315,1702,9.72323,-64.4026
98,-678,9.46301,63.6465,-0.0236646,0.00460983,-0.0238061,0.01816,-0.0372148,-1.05334,0.0325955,0.0428054,1322,1702,9.46306,-63.6464
105,-678,9.07214,63.0476,0,0,0,0,0,0,0,-1,1329,1702,9.07208,-63.0476
112,-678,8.39136,62.9817,0,0,0,0,0,0,0,-1,1336,1702,8.39137,-62.9816
119,-678,10.0385,63.359,0,0,0,0,0,0,0,-1,1343,1702,10.0385,-63.359
126,-678,6.84558,61.8041,-0.0345933,0.00975986,-0.0292824,0.0243156,-0.049149,-1.10949,0.043215,0.0421667,1350,1702,6.84553,-61.8041
133,-678,6.36938,61.0137,-0.0350952,0.0103846,-0.0290504,0.0245368,-0.0492475,-1.11747,0.0433884,0.0466118,1357,1702,6.36936,-61.0136
140,-678,5.86938,60.3046,0,0,0,0,0,0,0,-1,1364,1702,5.86935,-60.3045
147,-678,12.6578,60.5249,0,0,0,0,0,0,0,-1,1371,1702,12.6578,-60.5249
154,-678,13.2457,60.1281,0,0,0,0,0,0,0,-1,1378,1702,13.2457,-60.128
161,-678,8.81226,34.8624,0,0,0,0,0,0,0,-1,1385,1702,8.81229,-34.8624
168,-678,4.21863,5.25781,0,0,0,0,0,0,0,-1,1392,1702,4.21865,-5.25781
175,-678,5.21899,5.9635,0,0,0,0,0,0,0,-1,1399,1702,5.21894,-5.96346
182,-678,7.31262,6.75122,0,0,0,0,0,0,0,-1,1406,1702,7.3126,-6.75123
189,-678,5.96021,6.36853,0,0,0,0,0,0,0,-1,1413,1702,5.96018,-6.36851
196,-678,5.01599,8.15771,0,0,0,0,0,0,0,-1,1420,1702,5.01596,-8.15767
203,-678,4.64771,13.0559,0,0,0,0,0,0,0,-1,1427,1702,4.64766,-13.0559
210,-678,5.6532,18.5957,0,0,0,0,0,0,0,-1,1434,1702,5.65318,-18.5958
217,-678,6.88049,23.4835,0,0,0,0,0,0,0,-1,1441,1702,6.88047,-23.4835
224,-678,8.521,32.0977,0,0,0,0,0,0,0,-1,1448,1702,8.52098,-32.0977
231,-678,9.96838,42.3734,0,0,0,0,0,0,0,-1,1455,1702,9.96844,-42.3734
238,-678,11.2751,59.2932,0,0,0,0,0,0,0,-1,1462,1702,11.2751,-59.2932
245,-678,11.4592,58.5942,0,0,0,0,0,0,0,-1,1469,1702,11.4593,-58.5942
252,-678,11.4939,58.2327,0.00649418,-0.00207336,-0.000112404,0.00649566,-0.00207484,-0.0131167,0.00516294,0.0190031,1476,1702,11.4939,-58.2326
259,-678,11.4875,57.8119,0.00602179,-0.00163305,-0.00038501,0.00604111,-0.00165236,-0.0501276,0.00467653,0.0173302,1483,1702,11.4875,-57.8119
266,-678,11.5463,57.3164,0.00555857,-0.00116683,-0.000693279,0.00562929,-0.00123755,-0.101659,0.00422621,0.0136654,1490,1702,11.5462,-57.3164
273,-678,11.5631,56.8564,0.00522144,-0.000865652,-0.000877172,0.00534532,-0.000989534,-0.140302,0.00393509,0.0115748,1497,1702,11.5632,-56.8564
280,-678,11.5481,56.3907,0.00472719,-0.000505235,-0.00104881,0.00492958,-0.000707633,-0.190636,0.00354588,0.0125001,1504,1702,11.548,-56.3908
287,-678,11.5535,55.8556,0.00422121,-0.000149671,-0.00112151,0.00449218,-0.000420639,-0.237066,0.00314439,0.0124854,1511,1702,11.5535,-55.8556
294,-678,11.5438,55.3352,0.00369583,0.000184163,-0.00113595,0.00403124,-0.000151255,-0.287117,0.00273931,0.013149,1518,1702,11.5439,-55.3352
301,-678,11.5353,54.8541,0.00303351,0.000630862,-0.00117344,0.00351152,0.000152857,-0.386829,0.00229176,0.012367,1525,1702,11.5353,-54.8541
308,-678,11.5278,54.3463,0.00238092,0.00121723,-0.00132742,0.00324841,0.000349734,-0.578845,0.00205895,0.01336,1532,1702,11.5278,-54.3463
315,-678,11.5265,53.824,0.00173838,0.00212868,-0.00155341,0.00349915,0.000367914,-0.847885,0.00222031,0.0153794,1539,1702,11.5265,-53.824
322,-678,11.5239,53.3225,0.0011237,0.00302473,-0.00180194,0.00411148,3.695e-05,-1.0281,0.00272876,0.0189742,1546,1702,11.5239,-53.3225
329,-678,11.4952,52.7778,0.00058677,0.00393643,-0.00210379,0.00495065,-0.000427449,-1.12158,0.00345175,0.0169844,1553,1702,11.4953,-52.7778
336,-678,11.4637,52.1865,0.000306128,0.00480255,-0.00241018,0.00585031,-0.000741628,-1.16072,0.00416946,0.0144287,1560,1702,11.4637,-52.1865
343,-678,11.4697,51.6141,0.000356985,0.00543983,-0.00301133,0.00683883,-0.00104201,-1.13589,0.0049433,0.0153834,1567,1702,11.4698,-51.6141
350,-678,11.4542,51.0421,0.000710969,0.00590472,-0.00410679,0.0081668,-0.00155111,-1.06733,0.00602846,0.0155916,1574,1702,11.4542,-51.0421
357,-678,11.4089,50.4606,0.0011771,0.00618903,-0.0050974,0.00936314,-0.00199702,-1.01386,0.00700333,0.0109487,1581,1702,11.4089,-50.4606
364,-678,11.3695,49.8813,0.00188189,0.00617527,-0.0061329,0.0105263,-0.00246917,-0.953748,0.00796916,0.0119258,1588,1702,11.3695,-49.8814
371,-678,11.3176,49.2941,0.00286084,0.00595721,-0.00738675,0.0119563,-0.00313822,-0.888698,0.00919716,0.0125866,1595,1702,11.3176,-49.2941
378,-678,11.292,48.6716,0.00412036,0.00539675,-0.00880533,0.013587,-0.00406987,-0.821574,0.0106764,0.0131046,1602,1702,11.292,-48.6716
385,-678,11.271,48.0751,0.0057608,0.00485046,-0.0105229,0.0158383,-0.00522706,-0.763784,0.012666,0.0134724,1609,1702,11.2709,-48.075
392,-678,11.3092,47.5399,0.00782236,0.00451855,-0.0126478,0.0189257,-0.00658479,-0.720462,0.0152922,0.0220441,1616,1702,11.3092,-47.54
399,-678,11.2765,46.9153,0.00981652,0.00377704,-0.0146973,0.0218011,-0.00820753,-0.684077,0.0179082,0.031858,1623,1702,11.2765,-46.9152
406,-678,11.2621,46.1843,0.01165,0.00357277,-0.016695,0.0247879,-0.00956513,-0.666725,0.0204725,0.0433719,1630,1702,11.2621,-46.1844
413,-678,11.3131,45.3844,0,0,0,0,0,0,0,-1,1637,1702,11.3131,-45.3844
420,-678,11.2355,43.032,0,0,0,0,0,0,0,-1,1644,1702,11.2355,-43.032
427,-678,10.0541,38.9548,0,0,0,0,0,0,0,-1,1651,1702,10.0541,-38.9548
434,-678,10.1094,38.722,0,0,0,0,0,0,0,-1,1658,1702,10.1094,-38.7221
441,-678,11.6007,39.4658,0,0,0,0,0,0,0,-1,1665,1702,11.6007,-39.4658
448,-678,11.344,38.9084,0,0,0,0,0,0,0,-1,1672,1702,11.344,-38.9084
455,-678,5.44678,5.54297,0,0,0,0,0,0,0,-1,1679,1702,5.44676,-5.54294
462,-678,3.86792,2.87402,0,0,0,0,0,0,0,-1,1686,1702,3.86796,-2.87406
469,-678,2.26587,1.98755,0,0,0,0,0,0,0,-1,1693,1702,2.26592,-1.98755
476,-678,0,0,0,0,0,0,0,0,0,-1,1700,1702,0,0
483,-678,0,0,0,0,0,0,0,0,0,-1,1707,1702,0,0
490,-678,0,0,0,0,0,0,0,0,0,-1,1714,1702,0,0
497,-678,0,0,0,0,0,0,0,0,0,-1,1721,1702,0,0
504,-678,0,0,0,0,0,0,0,0,0,-1,1728,1702,0,0
511,-678,0,0,0,0,0,0,0,0,0,-1,1735,1702,0,0
518,-678,0,0,0,0,0,0,0,0,0,-1,1742,1702,0,0
525,-678,0,0,0,0,0,0,0,0,0,-1,1749,1702,0,0
532,-678,0,0,0,0,0,0,0,0,0,-1,1756,1702,0,0
539,-678,0,0,0,0,0,0,0,0,0,-1,1763,1702,0,0
546,-678,0,0,0,0,0,0,0,0,0,-1,1770,1702,0,0
553,-678,0,0,0,0,0,0,0,0,0,-1,1777,1702,0,0
560,-678,0,0,0,0,0,0,0,0,0,-1,1784,1702,0,0
567,-678,0,0,0,0,0,0,0,0,0,-1,1791,1702,0,0
574,-678,0,0,0,0,0,0,0,0,0,-1,1798,1702,0,0
581,-678,0,0,0,0,0,0,0,0,0,-1,1805,1702,0,0
588,-678,0,0,0,0,0,0,0,0,0,-1,1812,1702,0,0
595,-678,0,0,0,0,0,0,0,0,0,-1,1819,1702,0,0
602,-678,0,0,0,0,0,0,0,0,0,-1,1826,1702,0,0
609,-678,0,0,0,0,0,0,0,0,0,-1,1833,1702,0,0
616,-678,0,0,0,0,0,0,0,0,0,-1,1840,1702,0,0
623,-678,0,0,0,0,0,0,0,0,0,-1,1847,1702,0,0
630,-678,0,0,0,0,0,0,0,0,0,-1,1854,1702,0,0
637,-678,0,0,0,0,0,0,0,0,0,-1,1861,1702,0,0
644,-678,0,0,0,0,0,0,0,0,0,-1,1868,1702,0,0
651,-678,0,0,0,0,0,0,0,0,0,-1,1875,1702,0,0
658,-678,0,0,0,0,0,0,0,0,0,-1,1882,1702,0,0
665,-678,0,0,0,0,0,0,0,0,0,-1,1889,1702,0,0
672,-678,0,0,0,0,0,0,0,0,0,-1,1896,1702,0,0
679,-678,0,0,0,0,0,0,0,0,0,-1,1903,1702,0,0
686,-678,0,0,0,0,0,0,0,0,0,-1,1910,1702,0,0
693,-678,0,0,0,0,0,0,0,0,0,-1,1917,1702,0,0
700,-678,0,0,0,0,0,0,0,0,0,-1,1924,1702,0,0
707,-678,0,0,0,0,0,0,0,0,0,-1,1931,1702,0,0
714,-678,0,0,0,0,0,0,0,0,0,-1,1938,1702,0,0
721,-678,0,0,0,0,0,0,0,0,0,-1,1945,1702,0,0
728,-678,0,0,0,0,0,0,0,0,0,-1,1952,1702,0,0
735,-678,0,0,0,0,0,0,0,0,0,-1,1959,1702,0,0
742,-678,0,0,0,0,0,0,0,0,0,-1,1966,1702,0,0
749,-678,0,0,0,0,0,0,0,0,0,-1,1973,1702,0,0
756,-678,0,0,0,0,0,0,0,0,0,-1,1980,1702,0,0
763,-678,0,0,0,0,0,0,0,0,0,-1,1987,1702,0,0
770,-678,0,0,0,0,0,0,0,0,0,-1,1994,1702,0,0
777,-678,0,0,0,0,0,0,0,0,0,-1,2001,1702,0,0
784,-678,0,0,0,0,0,0,0,0,0,-1,2008,1702,0,0
791,-678,0,0,0,0,0,0,0,0,0,-1,2015,1702,0,0
798,-678,0,0,0,0,0,0,0,0,0,-1,2022,1702,0,0
805,-678,0,0,0,0,0,0,0,0,0,-1,2029,1702,0,0
812,-678,0,0,0,0,0,0,0,0,0,-1,2036,1702,0,0
-700,-685,0,0,0,0,0,0,0,0,0,-1,524,1709,0,0
-693,-685,0,0,0,0,0,0,0,0,0,-1,531,1709,0,0
-686,-685,0,0,0,0,0,0,0,0,0,-1,538,1709,0,0
-679,-685,0,0,0,0,0,0,0,0,0,-1,545,1709,0,0
-672,-685,0,0,0,0,0,0,0,0,0,-1,552,1709,0,0
-665,-685,0,0,0,0,0,0,0,0,0,-1,559,1709,0,0
-658,-685,0,0,0,0,0,0,0,0,0,-1,566,1709,0,0
-651,-685,0,0,0,0,0,0,0,0,0,-1,573,1709,0,0
-644,-685,0,0,0,0,0,0,0,0,0,-1,580,1709,0,0
-637,-685,0,0,0,0,0,0,0,0,0,-1,587,1709,0,0
-630,-685,0,0,0,0,0,0,0,0,0,-1,594,1709,0,0
-623,-685,0,0,0,0,0,0,0,0,0,-1,601,1709,0,0
-616,-685,0,0,0,0,0,0,0,0,0,-1,608,1709,0,0
-609,-685,0,0,0,0,0,0,0,0,0,-1,615,1709,0,0
-602,-685,0,0,0,0,0,0,0,0,0,-1,622,1709,0,0
-595,-685,0,0,0,0,0,0,0,0,0,-1,629,1709,0,0
-588,-685,0,0,0,0,0,0,0,0,0,-1,636,1709,0,0
-581,-685,0,0,0,0,0,0,0,0,0,-1,643,1709,0,0
-574,-685,0,0,0,0,0,0,0,0,0,-1,650,1709,0,0
-567,-685,0,0,0,0,0,0,0,0,0,-1,657,1709,0,0
-560,-685,0,0,0,0,0,0,0,0,0,-1,664,1709,0,0
-553,-685,0,0,0,0,0,0,0,0,0,-1,671,1709,0,0
-546,-685,0,0,0,0,0,0,0,0,0,-1,678,1709,0,0
-539,-685,0,0,0,0,0,0,0,0,0,-1,685,1709,0,0
-532,-685,0,0,0,0,0,0,0,0,0,-1,692,1709,0,0
-525,-685,0,0,0,0,0,0,0,0,0,-1,699,1709,0,0
-518,-685,0,0,0,0,0,0,0,0,0,-1,706,1709,0,0
-511,-685,0,0,0,0,0,0,0,0,0,-1,713,1709,0,0
-504,-685,0,0,0,0,0,0,0,0,0,-1,720,1709,0,0
-497,-685,0,0,0,0,0,0,0,0,0,-1,727,1709,0,0
-490,-685,0,0,0,0,0,0,0,0,0,-1,734,1709,0,0
-483,-685,0,0,0,0,0,0,0,0,0,-1,741,1709,0,0
-476,-685,0,0,0,0,0,0,0,0,0,-1,748,1709,0,0
-469,-685,0,0,0,0,0,0,0,0,0,-1,755,1709,0,0
-462,-685,0,0,0,0,0,0,0,0,0,-1,762,1709,0,0
-455,-685,0,0,0,0,0,0,0,0,0,-1,769,1709,0,0
-448,-685,0,0,0,0,0,0,0,0,0,-1,776,1709,0,0
-441,-685,0,0,0,0,0,0,0,0,0,-1,783,1709,0,0
-434,-685,0,0,0,0,0,0,0,0,0,-1,790,1709,0,0
-427,-685,0,0,0,0,0,0,0,0,0,-1,797,1709,0,0
-420,-685,0,0,0,0,0,0,0,0,0,-1,804,1709,0,0
-413,-685,0,0,0,0,0,0,0,0,0,-1,811,1709,0,0
-406,-685,0,0,0,0,0,0,0,0,0,-1,818,1709,0,0
-399,-685,0,0,0,0,0,0,0,0,0,-1,825,1709,0,0
-392,-685,0,0,0,0,0,0,0,0,0,-1,832,1709,0,0
-385,-685,0,0,0,0,0,0,0,0,0,-1,839,1709,0,0
-378,-685,0,0,0,0,0,0,0,0,0,-1,846,1709,0,0
-371,-685,0,0,0,0,0,0,0,0,0,-1,853,1709,0,0
-364,-685,0,0,0,0,0,0,0,0,0,-1,860,1709,0,0
-357,-685,0,0,0,0,0,0,0,0,0,-1,867,1709,0,0
-350,-685,0,0,0,0,0,0,0,0,0,-1,874,1709,0,0
-343,-685,-5.98505,6.56335,0,0,0,0,0,0,0,-1,881,1709,-5.98505,-6.56329
-336,-685,-6.51312,5.10571,0,0,0,0,0,0,0,-1,888,1709,-6.51311,-5.10575
-329,-685,9.98907,36.2474,0,0,0,0,0,0,0,-1,895,1709,9.98909,-36.2475
-322,-685,3.83191,16.7219,0,0,0,0,0,0,0,-1,902,1709,3.8319,-16.7219
-315,-685,5.15784,21.4388,0,0,0,0,0,0,0,-1,909,1709,5.15783,-21.4389
-308,-685,9.5943,40.3096,0,0,0,0,0,0,0,-1,916,1709,9.5943,-40.3095
-301,-685,5.52539,43.1865,0,0,0,0,0,0,0,-1,923,1709,5.52542,-43.1866
-294,-685,6.76147,45.2307,0,0,0,0,0,0,0,-1,930,1709,6.76148,-45.2307
-287,-685,8.13043,45.9232,0,0,0,0,0,0,0,-1,937,1709,8.13046,-45.9232
-280,-685,7.7912,46.1522,0,0,0,0,0,0,0,-1,944,1709,7.79123,-46.1522
-273,-685,6.79773,47.0138,0,0,0,0,0,0,0,-1,951,1709,6.79773,-47.0139
-266,-685,5.98975,47.395,0,0,0,0,0,0,0,-1,958,1709,5.98974,-47.395
-259,-685,7.2243,48.1582,0.00576996,0.00295858,0.00877757,0.0132537,-0.00452514,0.705999,0.010669,0.0468882,965,1709,7.22428,-48.1582
-252,-685,7.19568,48.679,0.00260235,0.00254563,0.00733964,0.00991368,-0.0047657,0.783466,0.00864712,0.0406293,972,1709,7.19569,-48.679
-245,-685,7.13434,49.3342,-0.0011702,0.00160188,0.00487978,0.00528865,-0.00485696,0.923772,0.00585934,0.0378608,979,1709,7.13432,-49.3342
-238,-685,7.1308,49.9829,-0.0032242,0.00207244,0.00437964,0.00454221,-0.00569397,1.05733,0.00592232,0.0299294,986,1709,7.13077,-49.9829
-231,-685,7.06689,50.5974,-0.00318551,0.00228448,0.00482227,0.00509336,-0.00599439,1.04336,0.00640855,0.0181906,993,1709,7.0669,-50.5974
-224,-685,7.01056,51.1571,-0.00204279,0.00216374,0.00483516,0.00533329,-0.00521233,0.99055,0.00608865,0.0155412,1000,1709,7.01053,-51.1571
-217,-685,6.99084,51.7726,-0.0012409,0.00211291,0.00436353,0.00511066,-0.00423866,0.968848,0.00540565,0.0117925,1007,1709,6.99083,-51.7726
-210,-685,6.96014,52.3892,-0.000979047,0.00196158,0.00399688,0.00475,-0.00376747,0.961649,0.00492846,0.0163266,1014,1709,6.96017,-52.3892
-203,-685,6.96204,52.9569,-0.000721488,0.00184448,0.00359063,0.00437445,-0.00325146,0.956986,0.00441871,0.0171732,1021,1709,6.96202,-52.9569
-196,-685,6.93787,53.5089,-0.000436669,0.00162067,0.00309019,0.00384891,-0.0026649,0.946071,0.0037814,0.014443,1028,1709,6.93791,-53.5089
-189,-685,6.87537,54.0114,-0.000147766,0.00160465,0.00256829,0.00344209,-0.0019852,0.949789,0.00317085,0.00969982,1035,1709,6.87537,-54.0113
-182,-685,6.83899,54.55,0.000191946,0.00164344,0.00208246,0.00312299,-0.00128761,0.953069,0.00261892,0.0134413,1042,1709,6.83898,-54.5501
-175,-685,6.81006,55.0618,0.000489997,0.00171596,0.00156603,0.0027847,-0.000578742,0.971945,0.00207644,0.0140454,1049,1709,6.8101,-55.0617
-168,-685,6.80603,55.5695,0.000720883,0.00201639,0.00119524,0.00272812,9.15513e-06,1.03372,0.0018157,0.0108034,1056,1709,6.80602,-55.5694
-161,-685,6.81592,56.1007,0.000979913,0.00242449,0.000883357,0.00284326,0.00056114,1.12811,0.00173891,0.0120031,1063,1709,6.81595,-56.1007
-154,-685,6.79028,56.6027,0.00125424,0.00285397,0.000576556,0.0030401,0.0010681,1.25852,0.00178088,0.0116393,1070,1709,6.79025,-56.6027
-147,-685,6.74219,57.0736,0.00157993,0.00329126,0.000333808,0.00335407,0.00151713,1.38482,0.00193941,0.0108493,1077,1709,6.74222,-57.0736
-140,-685,6.76233,57.5137,0.00191894,0.00362688,7.37331e-05,0.00363006,0.00191576,1.52773,0.00209689,0.0124046,1084,1709,6.76238,-57.5137
-133,-685,6.80396,57.9691,0.00223175,0.00397738,-0.000118907,0.00398544,0.00222369,-1.5031,0.00230614,0.0120258,1091,1709,6.80394,-57.9691
-126,-685,6.82837,58.4291,0.00256494,0.00416465,-0.00033785,0.00423308,0.00249651,-1.37097,0.00245706,0.00989664,1098,1709,6.82835,-58.4291
-119,-685,6.83057,58.8573,0.00308596,0.00419776,-0.000535289,0.00441359,0.00287013,-1.18754,0.00258627,0.014219,1105,1709,6.83052,-58.8574
-112,-685,6.85315,59.271,0.00360897,0.0040574,-0.000716511,0.00458396,0.00308241,-0.937035,0.0026985,0.0152399,1112,1709,6.85319,-59.271
-105,-685,6.84021,59.6758,0.00395098,0.00353664,-0.000961553,0.00472743,0.00276019,-0.679294,0.00274215,0.0178591,1119,1709,6.84016,-59.6758
-98,-685,6.91968,60.0486,0.00427749,0.00287075,-0.00125911,0.00501637,0.00213187,-0.530676,0.00290705,0.0252403,1126,1709,6.91962,-60.0486
-91,-685,6.90491,60.3005,0.00482105,0.00214126,-0.00176853,0.00569995,0.00126236,-0.461215,0.00345688,0.0467152,1133,1709,6.90488,-60.3005
-84,-685,7.01086,60.7323,0,0,0,0,0,0,0,-1,1140,1709,7.01081,-60.7323
-77,-685,6.97778,61.1738,0,0,0,0,0,0,0,-1,1147,1709,6.97781,-61.1738
-70,-685,7.06555,61.6383,0,0,0,0,0,0,0,-1,1154,1709,7.0655,-61.6383
-63,-685,6.03015,29.7728,0,0,0,0,0,0,0,-1,1161,1709,6.0302,-29.7728
-56,-685,3.93909,15.8704,0,0,0,0,0,0,0,-1,1168,1709,3.93905,-15.8704
-49,-685,3.07471,9.86011,0,0,0,0,0,0,0,-1,1175,1709,3.07467,-9.86009
-42,-685,2.70618,7.54504,0,0,0,0,0,0,0,-1,1182,1709,2.7062,-7.54504
-35,-685,2.95264,7.91516,0,0,0,0,0,0,0,-1,1189,1709,2.95262,-7.91517
-28,-685,8.11353,52.4509,0,0,0,0,0,0,0,-1,1196,1709,8.1135,-52.451
-21,-685,7.71509,63.0326,0,0,0,0,0,0,0,-1,1203,1709,7.71513,-63.0325
-14,-685,7.82251,63.1616,0.0209411,0.0178985,0.00112957,0.0213146,0.017525,0.319345,0.0131301,0.0343667,1210,1709,7.82251,-63.1617
-7,-685,7.93811,63.3469,0.0219167,0.0184541,0.000513919,0.0219913,0.0183794,0.144277,0.0136175,0.0494589,1217,1709,7.9381,-63.347
0,-685,7.90222,63.5862,0,0,0,0,0,0,0,-1,1224,1709,7.90221,-63.5862
7,-685,7.203,63.9138,0,0,0,0,0,0,0,-1,1231,1709,7.20295,-63.9138
14,-685,7.27209,63.7355,0,0,0,0,0,0,0,-1,1238,1709,7.27209,-63.7355
21,-685,7.48999,63.9578,0,0,0,0,0,0,0,-1,1245,1709,7.48994,-63.9578
28,-685,8.26831,64.2083,0,0,0,0,0,0,0,-1,1252,1709,8.26836,-64.2083
35,-685,8.48413,64.1453,0,0,0,0,0,0,0,-1,1259,1709,8.48413,-64.1452
42,-685,8.69653,64.4425,0,0,0,0,0,0,0,-1,1266,1709,8.69652,-64.4425
49,-685,8.83875,64.4978,0,0,0,0,0,0,0,-1,1273,1709,8.83874,-64.4978
56,-685,9.00757,66.3116,0,0,0,0,0,0,0,-1,1280,1709,9.00756,-66.3117
63,-685,9.98926,64.0753,0,0,0,0,0,0,0,-1,1287,1709,9.98926,-64.0753
70,-685,8.95313,64.618,0,0,0,0,0,0,0,-1,1294,1709,8.95317,-64.618
77,-685,9.67651,65.2521,0,0,0,0,0,0,0,-1,1301,1709,9.67653,-65.252
84,-685,9.86023,65.1401,0,0,0,0,0,0,0,-1,1308,1709,9.86028,-65.1401
91,-685,9.71838,63.9784,0,0,0,0,0,0,0,-1,1315,1709,9.71837,-63.9784
98,-685,9.48804,63.495,0,0,0,0,0,0,0,-1,1322,1709,9.48799,-63.495
105,-685,9.25757,63.0116,0,0,0,0,0,0,0,-1,1329,1709,9.25761,-63.0116
112,-685,9.80518,63.6648,0,0,0,0,0,0,0,-1,1336,1709,9.80524,-63.6648
119,-685,9.87207,63.3589,0,0,0,0,0,0,0,-1,1343,1709,9.87201,-63.3589
126,-685,9.98315,63.2394,0,0,0,0,0,0,0,-1,1350,1709,9.98313,-63.2394
133,-685,10.1537,63.0222,0,0,0,0,0,0,0,-1,1357,1709,10.1537,-63.0223
140,-685,10.1287,62.9697,0,0,0,0,0,0,0,-1,1364,1709,10.1286,-62.9698
147,-685,13.1991,61.4797,0,0,0,0,0,0,0,-1,1371,1709,13.1991,-61.4797
154,-685,10.0796,56.0078,0,0,0,0,0,0,0,-1,1378,1709,10.0796,-56.0079
161,-685,10.4932,55.8827,0,0,0,0,0,0,0,-1,1385,1709,10.4932,-55.8827
168,-685,4.37524,10.8778,0,0,0,0,0,0,0,-1,1392,1709,4.37525,-10.8778
175,-685,3.97522,8.94324,0,0,0,0,0,0,0,-1,1399,1709,3.97519,-8.94328
182,-685,3.98218,9.19739,0,0,0,0,0,0,0,-1,1406,1709,3.98221,-9.1974
189,-685,4.53479,15.2343,0,0,0,0,0,0,0,-1,1413,1709,4.53474,-15.2343
196,-685,10.5172,61.6821,0,0,0,0,0,0,0,-1,1420,1709,10.5173,-61.6821
203,-685,10.5802,61.0443,0,0,0,0,0,0,0,-1,1427,1709,10.5802,-61.0443
210,-685,10.9696,60.5643,0,0,0,0,0,0,0,-1,1434,1709,10.9696,-60.5643
217,-685,10.9288,60.0924,0,0,0,0,0,0,0,-1,1441,1709,10.9288,-60.0924
224,-685,10.9006,59.787,0,0,0,0,0,0,0,-1,1448,1709,10.9007,-59.787
231,-685,10.9015,59.4641,0,0,0,0,0,0,0,-1,1455,1709,10.9014,-59.4641
238,-685,10.9952,59.0745,0.00529515,-0.0019141,0.000302174,0.00530779,-0.00192674,0.0418171,0.00432624,0.0400209,1462,1709,10.9953,-59.0745
245,-685,10.9894,58.619,0.0050277,-0.00143701,-2.36176e-05,0.00502779,-0.0014371,-0.00365324,0.00391971,0.0214452,1469,1709,10.9894,-58.619
252,-685,11.0468,58.2357,0.00470416,-0.001064,-0.000223632,0.00471281,-0.00107266,-0.0386926,0.0035538,0.0158383,1476,1709,11.0468,-58.2357
259,-685,11.0634,57.7902,0.00422842,-0.000663605,-0.000482993,0.00427565,-0.000710835,-0.0974767,0.00311454,0.0122998,1483,1709,11.0633,-57.7902
266,-685,11.0847,57.3279,0.00378541,-0.000298224,-0.000774426,0.00392734,-0.000440154,-0.18126,0.0027766,0.0135061,1490,1709,11.0847,-57.3279
273,-685,11.0802,56.8555,0.00342438,-4.52266e-06,-0.000961756,0.00367572,-0.000255858,-0.255613,0.00254006,0.0152484,1497,1709,11.0802,-56.8555
280,-685,11.0466,56.3723,0.00293684,0.000284103,-0.00112964,0.00335269,-0.000131753,-0.352735,0.00228031,0.0171422,1504,1709,11.0466,-56.3723
287,-685,11.0619,55.8905,0.00243541,0.000571838,-0.00122254,0.00304077,-3.35221e-05,-0.459774,0.00203845,0.0134703,1511,1709,11.0619,-55.8904
294,-685,11.0437,55.3806,0.00189775,0.000924998,-0.00123867,0.00274211,8.06362e-05,-0.598317,0.0018018,0.0115142,1518,1709,11.0437,-55.3806
301,-685,11.0344,54.8816,0.00130633,0.00130849,-0.00133988,0.00264729,-3.2472e-05,-0.785801,0.00177578,0.0140598,1525,1709,11.0344,-54.8816
308,-685,11.0088,54.3687,0.000739324,0.00198514,-0.00162945,0.00310669,-0.000382221,-0.967968,0.00220958,0.0148489,1532,1709,11.0088,-54.3687
315,-685,11.015,53.8331,0.00018511,0.00317614,-0.00202542,0.00419834,-0.00083709,-1.10341,0.00311563,0.0125385,1539,1709,11.0151,-53.8331
322,-685,10.9984,53.3125,-0.000334694,0.00425992,-0.0023992,0.00528433,-0.0013591,-1.16725,0.00405261,0.020238,1546,1709,10.9984,-53.3125
329,-685,10.964,52.7875,-0.000787103,0.00541735,-0.00281673,0.00650533,-0.00187508,-1.2022,0.00507864,0.0201224,1553,1709,10.964,-52.7874
336,-685,10.9243,52.2091,-0.000930745,0.006568,-0.00327777,0.00779874,-0.00216149,-1.2116,0.00604977,0.0140994,1560,1709,10.9244,-52.2091
343,-685,10.905,51.6282,-0.000651433,0.00750091,-0.0041025,0.00920796,-0.00235849,-1.17649,0.00705741,0.0131883,1567,1709,10.9051,-51.6281
350,-685,10.8665,51.0562,2.39047e-05,0.00826428,-0.00552647,0.0110374,-0.00274923,-1.10572,0.00842554,0.014304,1574,1709,10.8664,-51.0561
357,-685,10.8353,50.504,0.000799763,0.00881565,-0.0068127,0.0127119,-0.0030965,-1.05129,0.00967341,0.0110703,1581,1709,10.8353,-50.504
364,-685,10.7863,49.9412,0.00187958,0.00904358,-0.00816969,0.014382,-0.00345887,-0.992002,0.010925,0.0117569,1588,1709,10.7863,-49.9411
371,-685,10.7607,49.3137,0.00334186,0.00900269,-0.00981832,0.0163904,-0.00404588,-0.925733,0.0124958,0.020286,1595,1709,10.7607,-49.3138
378,-685,10.7725,48.6658,0.00519103,0.00843564,-0.0117221,0.0186472,-0.00502051,-0.85416,0.0143997,0.0233338,1602,1709,10.7725,-48.6658
385,-685,10.7352,48.1439,0.00754,0.00780225,-0.014064,0.0217357,-0.00639349,-0.79006,0.0170266,0.0341806,1609,1709,10.7352,-48.1439
392,-685,11.2865,47.6685,0.0105063,0.00724909,-0.0169212,0.0258772,-0.00812173,-0.737422,0.0205021,0.0378923,1616,1709,11.2865,-47.6684
399,-685,11.6918,46.994,0.0136164,0.00605122,-0.0198632,0.0300539,-0.0103863,-0.691309,0.0242511,0.0474513,1623,1709,11.6917,-46.994
406,-685,11.9607,46.3773,0,0,0,0,0,0,0,-1,1630,1709,11.9606,-46.3773
413,-685,10.9447,43.5477,0,0,0,0,0,0,0,-1,1637,1709,10.9447,-43.5477
420,-685,10.3047,40.3569,0,0,0,0,0,0,0,-1,1644,1709,10.3047,-40.3569
427,-685,10.7286,38.6702,0,0,0,0,0,0,0,-1,1651,1709,10.7286,-38.6702
434,-685,4.87769,8.91418,0,0,0,0,0,0,0,-1,1658,1709,4.87768,-8.91413
441,-685,5.62,8.75549,0,0,0,0,0,0,0,-1,1665,1709,5.61996,-8.75545
448,-685,6.4043,8.58972,0,0,0,0,0,0,0,-1,1672,1709,6.40435,-8.58971
455,-685,2.31958,4.09802,0,0,0,0,0,0,0,-1,1679,1709,2.31957,-4.09803
462,-685,0,0,0,0,0,0,0,0,0,-1,1686,1709,0,0
469,-685,0,0,0,0,0,0,0,0,0,-1,1693,1709,0,0
476,-685,0,0,0,0,0,0,0,0,0,-1,1700,1709,0,0
483,-685,0,0,0,0,0,0,0,0,0,-1,1707,1709,0,0
490,-685,0,0,0,0,0,0,0,0,0,-1,1714,1709,0,0
497,-685,0,0,0,0,0,0,0,0,0,-1,1721,1709,0,0
504,-685,0,0,0,0,0,0,0,0,0,-1,1728,1709,0,0
511,-685,0,0,0,0,0,0,0,0,0,-1,1735,1709,0,0
518,-685,0,0,0,0,0,0,0,0,0,-1,1742,1709,0,0
525,-685,0,0,0,0,0,0,0,0,0,-1,1749,1709,0,0
532,-685,0,0,0,0,0,0,0,0,0,-1,1756,1709,0,0
539,-685,0,0,0,0,0,0,0,0,0,-1,1763,1709,0,0
546,-685,0,0,0,0,0,0,0,0,0,-1,1770,1709,0,0
553,-685,0,0,0,0,0,0,0,0,0,-1,1777,1709,0,0
560,-685,0,0,0,0,0,0,0,0,0,-1,1784,1709,0,0
567,-685,0,0,0,0,0,0,0,0,0,-1,1791,1709,0,0
574,-685,0,0,0,0,0,0,0,0,0,-1,1798,1709,0,0
581,-685,0,0,0,0,0,0,0,0,0,-1,1805,1709,0,0
588,-685,0,0,0,0,0,0,0,0,0,-1,1812,1709,0,0
595,-685,0,0,0,0,0,0,0,0,0,-1,1819,1709,0,0
602,-685,0,0,0,0,0,0,0,0,0,-1,1826,1709,0,0
609,-685,0,0,0,0,0,0,0,0,0,-1,1833,1709,0,0
616,-685,0,0,0,0,0,0,0,0,0,-1,1840,1709,0,0
623,-685,0,0,0,0,0,0,0,0,0,-1,1847,1709,0,0
630,-685,0,0,0,0,0,0,0,0,0,-1,1854,1709,0,0
637,-685,0,0,0,0,0,0,0,0,0,-1,1861,1709,0,0
644,-685,0,0,0,0,0,0,0,0,0,-1,1868,1709,0,0
651,-685,0,0,0,0,0,0,0,0,0,-1,1875,1709,0,0
658,-685,0,0,0,0,0,0,0,0,0,-1,1882,1709,0,0
665,-685,0,0,0,0,0,0,0,0,0,-1,1889,1709,0,0
672,-685,0,0,0,0,0,0,0,0,0,-1,1896,1709,0,0
679,-685,0,0,0,0,0,0,0,0,0,-1,1903,1709,0,0
686,-685,0,0,0,0,0,0,0,0,0,-1,1910,1709,0,0
693,-685,0,0,0,0,0,0,0,0,0,-1,1917,1709,0,0
700,-685,0,0,0,0,0,0,0,0,0,-1,1924,1709,0,0
707,-685,0,0,0,0,0,0,0,0,0,-1,1931,1709,0,0
714,-685,0,0,0,0,0,0,0,0,0,-1,1938,1709,0,0
721,-685,0,0,0,0,0,0,0,0,0,-1,1945,1709,0,0
728,-685,0,0,0,0,0,0,0,0,0,-1,1952,1709,0,0
735,-685,0,0,0,0,0,0,0,0,0,-1,1959,1709,0,0
742,-685,0,0,0,0,0,0,0,0,0,-1,1966,1709,0,0
749,-685,0,0,0,0,0,0,0,0,0,-1,1973,1709,0,0
756,-685,0,0,0,0,0,0,0,0,0,-1,1980,1709,0,0
763,-685,0,0,0,0,0,0,0,0,0,-1,1987,1709,0,0
770,-685,0,0,0,0,0,0,0,0,0,-1,1994,1709,0,0
777,-685,0,0,0,0,0,0,0,0,0,-1,2001,1709,0,0
784,-685,0,0,0,0,0,0,0,0,0,-1,2008,1709,0,0
791,-685,0,0,0,0,0,0,0,0,0,-1,2015,1709,0,0
798,-685,0,0,0,0,0,0,0,0,0,-1,2022,1709,0,0
805,-685,0,0,0,0,0,0,0,0,0,-1,2029,1709,0,0
812,-685,0,0,0,0,0,0,0,0,0,-1,2036,1709,0,0
-700,-692,0,0,0,0,0,0,0,0,0,-1,524,1716,0,0
-693,-692,0,0,0,0,0,0,0,0,0,-1,531,1716,0,0
-686,-692,0,0,0,0,0,0,0,0,0,-1,538,1716,0,0
-679,-692,0,0,0,0,0,0,0,0,0,-1,545,1716,0,0
-672,-692,0,0,0,0,0,0,0,0,0,-1,552,1716,0,0
-665,-692,0,0,0,0,0,0,0,0,0,-1,559,1716,0,0
-658,-692,0,0,0,0,0,0,0,0,0,-1,566,1716,0,0
-651,-692,0,0,0,0,0,0,0,0,0,-1,573,1716,0,0
-644,-692,0,0,0,0,0,0,0,0,0,-1,580,1716,0,0
-637,-692,0,0,0,0,0,0,0,0,0,-1,587,1716,0,0
-630,-692,0,0,0,0,0,0,0,0,0,-1,594,1716,0,0
-623,-692,0,0,0,0,0,0,0,0,0,-1,601,1716,0,0
-616,-692,0,0,0,0,0,0,0,0,0,-1,608,1716,0,0
-609,-692,0,0,0,0,0,0,0,0,0,-1,615,1716,0,0
-602,-692,0,0,0,0,0,0,0,0,0,-1,622,1716,0,0
-595,-692,0,0,0,0,0,0,0,0,0,-1,629,1716,0,0
-588,-692,0,0,0,0,0,0,0,0,0,-1,636,1716,0,0
-581,-692,0,0,0,0,0,0,0,0,0,-1,643,1716,0,0
-574,-692,0,0,0,0,0,0,0,0,0,-1,650,1716,0,0
-567,-692,0,0,0,0,0,0,0,0,0,-1,657,1716,0,0
-560,-692,0,0,0,0,0,0,0,0,0,-1,664,1716,0,0
-553,-692,0,0,0,0,0,0,0,0,0,-1,671,1716,0,0
-546,-692,0,0,0,0,0,0,0,0,0,-1,678,1716,0,0
-539,-692,0,0,0,0,0,0,0,0,0,-1,685,1716,0,0
-532,-692,0,0,0,0,0,0,0,0,0,-1,692,1716,0,0
-525,-692,0,0,0,0,0,0,0,0,0,-1,699,1716,0,0
-518,-692,0,0,0,0,0,0,0,0,0,-1,706,1716,0,0
-511,-692,0,0,0,0,0,0,0,0,0,-1,713,1716,0,0
-504,-692,0,0,0,0,0,0,0,0,0,-1,720,1716,0,0
-497,-692,0,0,0,0,0,0,0,0,0,-1,727,1716,0,0
-490,-692,0,0,0,0,0,0,0,0,0,-1,734,1716,0,0
-483,-692,0,0,0,0,0,0,0,0,0,-1,741,1716,0,0
-476,-692,0,0,0,0,0,0,0,0,0,-1,748,1716,0,0
-469,-692,0,0,0,0,0,0,0,0,0,-1,755,1716,0,0
-462,-692,0,0,0,0,0,0,0,0,0,-1,762,1716,0,0
-455,-692,0,0,0,0,0,0,0,0,0,-1,769,1716,0,0
-448,-692,0,0,0,0,0,0,0,0,0,-1,776,1716,0,0
-441,-692,0,0,0,0,0,0,0,0,0,-1,783,1716,0,0
-434,-692,0,0,0,0,0,0,0,0,0,-1,790,1716,0,0
-427,-692,0,0,0,0,0,0,0,0,0,-1,797,1716,0,0
-420,-692,0,0,0,0,0,0,0,0,0,-1,804,1716,0,0
-413,-692,0,0,0,0,0,0,0,0,0,-1,811,1716,0,0
-406,-692,0,0,0,0,0,0,0,0,0,-1,818,1716,0,0
-399,-692,0,0,0,0,0,0,0,0,0,-1,825,1716,0,0
-392,-692,0,0,0,0,0,0,0,0,0,-1,832,1716,0,0
-385,-692,0,0,0,0,0,0,0,0,0,-1,839,1716,0,0
-378,-692,0,0,0,0,0,0,0,0,0,-1,846,1716,0,0
-371,-692,0,0,0,0,0,0,0,0,0,-1,853,1716,0,0
-364,-692,0,0,0,0,0,0,0,0,0,-1,860,1716,0,0
-357,-692,0,0,0,0,0,0,0,0,0,-1,867,1716,0,0
-350,-692,0,0,0,0,0,0,0,0,0,-1,874,1716,0,0
-343,-692,0,0,0,0,0,0,0,0,0,-1,881,1716,0,0
-336,-692,0,0,0,0,0,0,0,0,0,-1,888,1716,0,0
-329,-692,3.03107,4.10266,0,0,0,0,0,0,0,-1,895,1716,3.03105,-4.10267
-322,-692,4.43713,18.5242,0,0,0,0,0,0,0,-1,902,1716,4.43711,-18.5241
-315,-692,5.38965,17.975,0,0,0,0,0,0,0,-1,909,1716,5.38963,-17.975
-308,-692,5.86938,17.4392,0,0,0,0,0,0,0,-1,916,1716,5.86937,-17.4392
-301,-692,12.015,41.2892,0,0,0,0,0,0,0,-1,923,1716,12.015,-41.2892
-294,-692,8.41125,35.4742,0,0,0,0,0,0,0,-1,930,1716,8.41125,-35.4742
-287,-692,8.92493,45.6644,0,0,0,0,0,0,0,-1,937,1716,8.92492,-45.6644
-280,-692,7.8457,47.1942,0,0,0,0,0,0,0,-1,944,1716,7.84573,-47.1942
-273,-692,7.37701,47.6531,0,0,0,0,0,0,0,-1,951,1716,7.377,-47.653
-266,-692,6.90826,48.1118,0,0,0,0,0,0,0,-1,958,1716,6.90826,-48.1119
-259,-692,7.86395,48.2499,0,0,0,0,0,0,0,-1,965,1716,7.86398,-48.2499
-252,-692,7.79303,48.646,0,0,0,0,0,0,0,-1,972,1716,7.793,-48.646
-245,-692,7.81396,49.2421,0,0,0,0,0,0,0,-1,979,1716,7.81394,-49.2421
-238,-692,7.90082,49.8717,-0.00421746,0.00305728,0.00601715,0.00645102,-0.00761121,1.05726,0.00812804,0.048851,986,1716,7.90082,-49.8717
-231,-692,7.65466,50.7323,-0.00414092,0.00319013,0.00653879,0.00702072,-0.00797152,1.04086,0.00866157,0.0409743,993,1716,7.65465,-50.7323
-224,-692,7.53857,51.249,-0.00276572,0.00296299,0.00650542,0.00720674,-0.00700946,0.992778,0.00820799,0.0206536,1000,1716,7.53859,-51.249
-217,-692,7.53192,51.8022,-0.00184131,0.00284801,0.00592565,0.00687601,-0.00586931,0.973786,0.00736616,0.0139521,1007,1716,7.53191,-51.8022
-210,-692,7.50519,52.3713,-0.00158096,0.00261922,0.00547552,0.00638358,-0.00534531,0.968517,0.00678052,0.0149338,1014,1716,7.50517,-52.3713
-203,-692,7.5011,52.9301,-0.00132759,0.00247453,0.0049837,0.00590745,-0.00476051,0.967607,0.006171,0.017362,1021,1716,7.50115,-52.93
-196,-692,7.42761,53.5208,-0.00104821,0.00219387,0.00437039,0.00523417,-0.00408851,0.96299,0.00539598,0.0196167,1028,1716,7.42767,-53.5208
-189,-692,7.35913,54.0154,-0.00074202,0.00211459,0.00375959,0.00470805,-0.00333548,0.966932,0.00466641,0.0103781,1035,1716,7.35918,-54.0154
-182,-692,7.32898,54.5348,-0.00037057,0.00199698,0.00317792,0.00420445,-0.00257803,0.963687,0.00395322,0.01434,1042,1716,7.32897,-54.5347
-175,-692,7.29431,55.0671,-0.00010867,0.00188594,0.00252606,0.00360444,-0.00182717,0.973409,0.00319141,0.014903,1049,1716,7.29436,-55.0671
-168,-692,7.30872,55.6001,9.68329e-05,0.0020487,0.00208713,0.0033768,-0.00123126,1.00409,0.00275491,0.0116766,1056,1716,7.3087,-55.6002
-161,-692,7.30701,56.1477,0.000350958,0.00231478,0.00171824,0.00331189,-0.000646146,1.04498,0.00245185,0.0147505,1063,1716,7.30703,-56.1477
-154,-692,7.26831,56.6544,0.000590664,0.00254615,0.0013342,0.00322252,-8.57005e-05,1.10161,0.00217748,0.0163439,1070,1716,7.26829,-56.6544
-147,-692,7.2334,57.0912,0.000875522,0.00274006,0.00102346,0.0031922,0.000423377,1.1548,0.00200199,0.0157072,1077,1716,7.23336,-57.0911
-140,-692,7.20935,57.5383,0.00121359,0.00283638,0.00070624,0.00310069,0.000949286,1.21269,0.00183448,0.0119295,1084,1716,7.20937,-57.5383
-133,-692,7.23682,57.9976,0.00152103,0.00294185,0.000451518,0.00307319,0.00138968,1.28771,0.00177701,0.0106103,1091,1716,7.23681,-57.9976
-126,-692,7.25562,58.4521,0.00181798,0.00297701,0.000220107,0.0030174,0.00177759,1.3893,0.0017513,0.00832633,1098,1716,7.25559,-58.4522
-119,-692,7.224,58.8739,0.00223322,0.0029176,1.04221e-05,0.00291776,0.00223306,1.55557,0.00176186,0.0123301,1105,1716,7.22397,-58.8739
-112,-692,7.25684,59.2881,0.00267818,0.00276821,-0.000182388,0.00291106,0.00253534,-0.906385,0.00182838,0.012903,1112,1716,7.25681,-59.2881
-105,-692,7.2926,59.6937,0.00301997,0.00234248,-0.000439529,0.00323614,0.00212631,-0.457091,0.00189886,0.0178961,1119,1716,7.29264,-59.6937
-98,-692,7.35229,60.0613,0.00335995,0.00179754,-0.000715605,0.00363816,0.00151932,-0.3708,0.00210998,0.0195925,1126,1716,7.35226,-60.0613
-91,-692,7.328,60.4209,0.00383283,0.00126115,-0.00111285,0.00424752,0.000846458,-0.356703,0.00259594,0.0202166,1133,1716,7.32802,-60.4209
-84,-692,7.37842,60.7687,0.00455228,0.000617612,-0.00145826,0.00503381,0.000136086,-0.318934,0.00331144,0.0244491,1140,1716,7.37841,-60.7687
-77,-692,7.36975,61.1504,0.00533676,-0.000553207,-0.00190112,0.00589709,-0.00111353,-0.286619,0.00435034,0.0197593,1147,1716,7.36979,-61.1504
-70,-692,7.42688,61.535,0.005833,-0.00148035,-0.0023223,0.0065081,-0.00215546,-0.282909,0.00520809,0.0353967,1154,1716,7.42694,-61.5351
-63,-692,7.50452,61.895,0,0,0,0,0,0,0,-1,1161,1716,7.50453,-61.895
-56,-692,7.51672,62.0269,0,0,0,0,0,0,0,-1,1168,1716,7.51669,-62.0269
-49,-692,7.53357,62.3638,0,0,0,0,0,0,0,-1,1175,1716,7.53361,-62.3638
-42,-692,7.58044,62.8879,0,0,0,0,0,0,0,-1,1182,1716,7.58043,-62.888
-35,-692,7.7821,63.1802,0,0,0,0,0,0,0,-1,1189,1716,7.78211,-63.1802
-28,-692,7.91968,63.2042,0,0,0,0,0,0,0,-1,1196,1716,7.91969,-63.2042
-21,-692,7.88184,63.1471,0.0153526,0.00751002,0.00329016,0.0165501,0.00631255,0.349051,0.00964434,0.0368923,1203,1716,7.88189,-63.1471
-14,-692,7.99414,63.3254,0.0164991,0.00836337,0.00286059,0.0174042,0.00745826,0.306441,0.0100825,0.0189557,1210,1716,7.99416,-63.3255
-7,-692,8.02393,63.5383,0.0175553,0.00905636,0.00233225,0.0181532,0.00845842,0.250974,0.0104889,0.0172818,1217,1716,8.02388,-63.5383
0,-692,8.03784,63.7065,0.0186893,0.0101564,0.0016337,0.0189914,0.00985433,0.182847,0.0109673,0.0243889,1224,1716,8.03784,-63.7065
7,-692,8.1405,63.7695,0.0198764,0.0111357,0.000875133,0.0199632,0.0110489,0.0988145,0.0115477,0.0318642,1231,1716,8.14047,-63.7695
14,-692,8.29297,64.0735,0.0209892,0.0122315,-0.000113062,0.0209906,0.0122301,-0.0129072,0.012174,0.0338909,1238,1716,8.29293,-64.0735
21,-692,8.42346,64.2164,0.0218504,0.0123547,-0.00116614,0.0219915,0.0122135,-0.120424,0.0127227,0.0314261,1245,1716,8.42352,-64.2165
28,-692,8.4856,64.174,0.0221044,0.0116506,-0.00206359,0.022497,0.011258,-0.188008,0.0129887,0.0333863,1252,1716,8.48557,-64.1739
35,-692,8.53882,64.2253,0.0216195,0.0105638,-0.00272363,0.0222541,0.00992926,-0.2289,0.0128732,0.0324262,1259,1716,8.53878,-64.2253
42,-692,8.6781,64.3613,0.0194447,0.00882551,-0.00361839,0.0205604,0.00770979,-0.299095,0.0119936,0.0321599,1266,1716,8.67814,-64.3613
49,-692,8.78174,64.4146,0.0163322,0.00695858,-0.00465292,0.0182496,0.00504115,-0.390886,0.0108824,0.0426201,1273,1716,8.78174,-64.4145
56,-692,8.87061,64.3773,0,0,0,0,0,0,0,-1,1280,1716,8.87059,-64.3774
63,-692,8.9021,64.3656,0,0,0,0,0,0,0,-1,1287,1716,8.90208,-64.3656
70,-692,8.95508,64.4729,0,0,0,0,0,0,0,-1,1294,1716,8.95511,-64.4729
77,-692,9.07642,64.613,0,0,0,0,0,0,0,-1,1301,1716,9.07638,-64.613
84,-692,9.20105,64.2472,0,0,0,0,0,0,0,-1,1308,1716,9.20111,-64.2472
91,-692,9.33789,64.152,0,0,0,0,0,0,0,-1,1315,1716,9.33787,-64.152
98,-692,9.39063,63.8403,-0.0125626,-0.0039756,-0.0129018,0.00532834,-0.0218666,-0.946026,0.0166407,0.0387522,1322,1716,9.39065,-63.8403
105,-692,9.43591,63.6993,-0.015166,-0.00390602,-0.0140483,0.00559844,-0.0246704,-0.975978,0.0185962,0.0475475,1329,1716,9.43597,-63.6993
112,-692,9.66504,63.8302,0,0,0,0,0,0,0,-1,1336,1716,9.66509,-63.8302
119,-692,9.64551,63.6674,-0.016781,-0.00239216,-0.0152964,0.00731727,-0.0264905,-1.00522,0.0205386,0.0423683,1343,1716,9.64555,-63.6673
126,-692,9.77856,63.4612,-0.0170987,-0.00145728,-0.0153206,0.00792332,-0.0264793,-1.02139,0.0208032,0.0416204,1350,1716,9.77857,-63.4612
133,-692,9.91162,63.2832,-0.0168406,-0.000769862,-0.0149423,0.00816063,-0.0257711,-1.0321,0.0204511,0.0321285,1357,1716,9.91166,-63.2832
140,-692,9.89136,63.2119,-0.0154958,-0.000428621,-0.0141922,0.00810553,-0.02403,-1.0294,0.0192979,0.0364285,1364,1716,9.8913,-63.2119
147,-692,9.8501,63.1598,0,0,0,0,0,0,0,-1,1371,1716,9.85011,-63.1598
154,-692,9.92883,56.0276,0,0,0,0,0,0,0,-1,1378,1716,9.92887,-56.0276
161,-692,9.93054,62.6014,0,0,0,0,0,0,0,-1,1385,1716,9.93052,-62.6014
168,-692,10.2665,62.5311,0,0,0,0,0,0,0,-1,1392,1716,10.2664,-62.5311
175,-692,10.4078,62.2355,0,0,0,0,0,0,0,-1,1399,1716,10.4079,-62.2355
182,-692,10.3873,61.9565,0,0,0,0,0,0,0,-1,1406,1716,10.3873,-61.9566
189,-692,10.3577,61.6377,0,0,0,0,0,0,0,-1,1413,1716,10.3576,-61.6376
196,-692,10.246,61.2312,0.00780917,-0.00105852,0.00100138,0.00792084,-0.00117019,0.111061,0.00571073,0.0401858,1420,1716,10.246,-61.2312
203,-692,10.2943,60.9072,0.00712544,-0.00130032,0.000927024,0.00722623,-0.00140111,0.108297,0.00534608,0.0286501,1427,1716,10.2944,-60.9072
210,-692,10.5238,60.6029,0.00642072,-0.00141033,0.000755881,0.00649301,-0.00148262,0.0953507,0.00489825,0.020845,1434,1716,10.5238,-60.603
217,-692,10.5219,60.2086,0.00566795,-0.00152787,0.000701399,0.00573568,-0.0015956,0.0962657,0.00445201,0.0175603,1441,1716,10.5219,-60.2087
224,-692,10.5386,59.8579,0.00492821,-0.00137941,0.000579618,0.00498103,-0.00143223,0.0908775,0.00388707,0.0141811,1448,1716,10.5386,-59.8579
231,-692,10.5464,59.4945,0.0042768,-0.00113556,0.000248919,0.00428822,-0.00114698,0.0458618,0.0033081,0.0127631,1455,1716,10.5463,-59.4945
238,-692,10.5289,59.0369,0.00377708,-0.000775066,-0.000100988,0.00377932,-0.000777306,-0.0221701,0.00281466,0.0199975,1462,1716,10.5289,-59.0369
245,-692,10.5314,58.6218,0.00343053,-0.000349344,-0.000363619,0.00346519,-0.000384005,-0.0950373,0.00244819,0.0227688,1469,1716,10.5314,-58.6219
252,-692,10.5792,58.2549,0.00304708,4.70472e-05,-0.000531125,0.00313834,-4.42071e-05,-0.170152,0.00210712,0.0191489,1476,1716,10.5792,-58.2549
259,-692,10.6003,57.8024,0.00257016,0.000396619,-0.000763421,0.0028115,0.000155277,-0.30619,0.00182478,0.0102461,1483,1716,10.6003,-57.8024
266,-692,10.5856,57.351,0.00213412,0.000674719,-0.001028,0.00266507,0.000143765,-0.476754,0.00173078,0.0111973,1490,1716,10.5855,-57.3509
273,-692,10.5679,56.8665,0.00174431,0.000961755,-0.00121527,0.00262974,7.63305e-05,-0.629654,0.00172828,0.01595,1497,1716,10.5678,-56.8665
280,-692,10.5636,56.3706,0.00125304,0.00118241,-0.00136957,0.00258775,-0.000152303,-0.772507,0.00177811,0.0149184,1504,1716,10.5635,-56.3706
287,-692,10.5593,55.9093,0.000727732,0.0014169,-0.00147267,0.00258476,-0.000440137,-0.900322,0.00188708,0.0119982,1511,1716,10.5593,-55.9093
294,-692,10.535,55.4186,0.000139203,0.00182247,-0.00147841,0.00268203,-0.000720354,-1.04416,0.00207034,0.0117328,1518,1716,10.535,-55.4186
301,-692,10.5343,54.9331,-0.000414959,0.00219054,-0.00163654,0.00297955,-0.00120396,-1.12156,0.00248681,0.0148645,1525,1716,10.5343,-54.9331
308,-692,10.506,54.4214,-0.0009282,0.003034,-0.00206989,0.00391806,-0.00181227,-1.16714,0.00338205,0.017917,1532,1716,10.5059,-54.4214
315,-692,10.5034,53.861,-0.00142865,0.00459884,-0.00266324,0.00560697,-0.00243679,-1.20893,0.00476277,0.0162201,1539,1716,10.5035,-53.8609
322,-692,10.4274,53.2958,-0.00188261,0.0059656,-0.00319196,0.00709988,-0.00301689,-1.22936,0.00599739,0.0204912,1546,1716,10.4274,-53.2958
329,-692,10.3739,52.751,-0.00226925,0.00748504,-0.00375948,0.00876584,-0.00355005,-1.24244,0.00732005,0.0187991,1553,1716,10.374,-52.751
336,-692,10.3628,52.1965,-0.00228829,0.00905976,-0.00443507,0.0105874,-0.00381596,-1.23907,0.00861669,0.0130349,1560,1716,10.3628,-52.1966
343,-692,10.3534,51.6515,-0.00178333,0.0104495,-0.00554446,0.0125885,-0.00392231,-1.2026,0.00996059,0.0135959,1567,1716,10.3534,-51.6514
350,-692,10.3239,51.1223,-0.000751055,0.0116905,-0.00736043,0.0151068,-0.0041674,-1.13624,0.0117102,0.0170644,1574,1716,10.3239,-51.1223
357,-692,10.2841,50.4973,0.000414771,0.0126657,-0.0090412,0.0174611,-0.00438059,-1.08313,0.0133428,0.0256249,1581,1716,10.2841,-50.4974
364,-692,10.2609,49.7711,0.00199045,0.013268,-0.0108372,0.0198456,-0.00458718,-1.02528,0.0149952,0.0329704,1588,1716,10.2608,-49.7711
371,-692,10.2494,49.1982,0.00411534,0.0134957,-0.0130196,0.0226441,-0.00503313,-0.958281,0.0170236,0.0403913,1595,1716,10.2494,-49.1982
378,-692,10.1688,48.6521,0.00679033,0.0129243,-0.0155843,0.0257406,-0.00602591,-0.882557,0.0194822,0.0468185,1602,1716,10.1688,-48.6521
385,-692,10.1705,48.2747,0,0,0,0,0,0,0,-1,1609,1716,10.1705,-48.2746
392,-692,11.1332,47.7809,0,0,0,0,0,0,0,-1,1616,1716,11.1332,-47.7809
399,-692,11.9022,47.1193,0,0,0,0,0,0,0,-1,1623,1716,11.9023,-47.1193
406,-692,11.3221,42.7773,0,0,0,0,0,0,0,-1,1630,1716,11.3222,-42.7773
413,-692,11.4845,42.9004,0,0,0,0,0,0,0,-1,1637,1716,11.4845,-42.9004
420,-692,9.65894,40.2512,0,0,0,0,0,0,0,-1,1644,1716,9.65889,-40.2513
427,-692,3.79578,8.60339,0,0,0,0,0,0,0,-1,1651,1716,3.79577,-8.6034
434,-692,4.78516,8.64636,0,0,0,0,0,0,0,-1,1658,1716,4.78512,-8.64634
441,-692,5.8208,8.74036,0,0,0,0,0,0,0,-1,1665,1716,5.82084,-8.7404
448,-692,6.73792,8.51013,0,0,0,0,0,0,0,-1,1672,1716,6.73793,-8.5101
455,-692,0,0,0,0,0,0,0,0,0,-1,1679,1716,0,0
462,-692,0,0,0,0,0,0,0,0,0,-1,1686,1716,0,0
469,-692,0,0,0,0,0,0,0,0,0,-1,1693,1716,0,0
476,-692,0,0,0,0,0,0,0,0,0,-1,1700,1716,0,0
483,-692,0,0,0,0,0,0,0,0,0,-1,1707,1716,0,0
490,-692,0,0,0,0,0,0,0,0,0,-1,1714,1716,0,0
497,-692,0,0,0,0,0,0,0,0,0,-1,1721,1716,0,0
504,-692,0,0,0,0,0,0,0,0,0,-1,1728,1716,0,0
511,-692,0,0,0,0,0,0,0,0,0,-1,1735,1716,0,0
518,-692,0,0,0,0,0,0,0,0,0,-1,1742,1716,0,0
525,-692,0,0,0,0,0,0,0,0,0,-1,1749,1716,0,0
532,-692,0,0,0,0,0,0,0,0,0,-1,1756,1716,0,0
539,-692,0,0,0,0,0,0,0,0,0,-1,1763,1716,0,0
546,-692,0,0,0,0,0,0,0,0,0,-1,1770,1716,0,0
553,-692,0,0,0,0,0,0,0,0,0,-1,1777,1716,0,0
560,-692,0,0,0,0,0,0,0,0,0,-1,1784,1716,0,0
567,-692,0,0,0,0,0,0,0,0,0,-1,1791,1716,0,0
574,-692,0,0,0,0,0,0,0,0,0,-1,1798,1716,0,0
581,-692,0,0,0,0,0,0,0,0,0,-1,1805,1716,0,0
588,-692,0,0,0,0,0,0,0,0,0,-1,1812,1716,0,0
595,-692,0,0,0,0,0,0,0,0,0,-1,1819,1716,0,0
602,-692,0,0,0,0,0,0,0,0,0,-1,1826,1716,0,0
609,-692,0,0,0,0,0,0,0,0,0,-1,1833,1716,0,0
616,-692,0,0,0,0,0,0,0,0,0,-1,1840,1716,0,0
623,-692,0,0,0,0,0,0,0,0,0,-1,1847,1716,0,0
630,-692,0,0,0,0,0,0,0,0,0,-1,1854,1716,0,0
637,-692,0,0,0,0,0,0,0,0,0,-1,1861,1716,0,0
644,-692,0,0,0,0,0,0,0,0,0,-1,1868,1716,0,0
651,-692,0,0,0,0,0,0,0,0,0,-1,1875,1716,0,0
658,-692,0,0,0,0,0,0,0,0,0,-1,1882,1716,0,0
665,-692,0,0,0,0,0,0,0,0,0,-1,1889,1716,0,0
672,-692,0,0,0,0,0,0,0,0,0,-1,1896,1716,0,0
679,-692,0,0,0,0,0,0,0,0,0,-1,1903,1716,0,0
686,-692,0,0,0,0,0,0,0,0,0,-1,1910,1716,0,0
693,-692,0,0,0,0,0,0,0,0,0,-1,1917,1716,0,0
700,-692,0,0,0,0,0,0,0,0,0,-1,1924,1716,0,0
707,-692,0,0,0,0,0,0,0,0,0,-1,1931,1716,0,0
714,-692,0,0,0,0,0,0,0,0,0,-1,1938,1716,0,0
721,-692,0,0,0,0,0,0,0,0,0,-1,1945,1716,0,0
728,-692,0,0,0,0,0,0,0,0,0,-1,1952,1716,0,0
735,-692,0,0,0,0,0,0,0,0,0,-1,1959,1716,0,0
742,-692,0,0,0,0,0,0,0,0,0,-1,1966,1716,0,0
749,-692,0,0,0,0,0,0,0,0,0,-1,1973,1716,0,0
756,-692,0,0,0,0,0,0,0,0,0,-1,1980,1716,0,0
763,-692,0,0,0,0,0,0,0,0,0,-1,1987,1716,0,0
770,-692,0,0,0,0,0,0,0,0,0,-1,1994,1716,0,0
777,-692,0,0,0,0,0,0,0,0,0,-1,2001,1716,0,0
784,-692,0,0,0,0,0,0,0,0,0,-1,2008,1716,0,0
791,-692,0,0,0,0,0,0,0,0,0,-1,2015,1716,0,0
798,-692,0,0,0,0,0,0,0,0,0,-1,2022,1716,0,0
805,-692,0,0,0,0,0,0,0,0,0,-1,2029,1716,0,0
812,-692,0,0,0,0,0,0,0,0,0,-1,2036,1716,0,0
-700,-699,0,0,0,0,0,0,0,0,0,-1,524,1723,0,0
-693,-699,0,0,0,0,0,0,0,0,0,-1,531,1723,0,0
-686,-699,0,0,0,0,0,0,0,0,0,-1,538,1723,0,0
-679,-699,0,0,0,0,0,0,0,0,0,-1,545,1723,0,0
-672,-699,0,0,0,0,0,0,0,0,0,-1,552,1723,0,0
-665,-699,0,0,0,0,0,0,0,0,0,-1,559,1723,0,0
-658,-699,0,0,0,0,0,0,0,0,0,-1,566,1723,0,0
-651,-699,0,0,0,0,0,0,0,0,0,-1,573,1723,0,0
-644,-699,0,0,0,0,0,0,0,0,0,-1,580,1723,0,0
-637,-699,0,0,0,0,0,0,0,0,0,-1,587,1723,0,0
-630,-699,0,0,0,0,0,0,0,0,0,-1,594,1723,0,0
-623,-699,0,0,0,0,0,0,0,0,0,-1,601,1723,0,0
-616,-699,0,0,0,0,0,0,0,0,0,-1,608,1723,0,0
-609,-699,0,0,0,0,0,0,0,0,0,-1,615,1723,0,0
-602,-699,0,0,0,0,0,0,0,0,0,-1,622,1723,0,0
-595,-699,0,0,0,0,0,0,0,0,0,-1,629,1723,0,0
-588,-699,0,0,0,0,0,0,0,0,0,-1,636,1723,0,0
-581,-699,0,0,0,0,0,0,0,0,0,-1,643,1723,0,0
-574,-699,0,0,0,0,0,0,0,0,0,-1,650,1723,0,0
-567,-699,0,0,0,0,0,0,0,0,0,-1,657,1723,0,0
-560,-699,0,0,0,0,0,0,0,0,0,-1,664,1723,0,0
-553,-699,0,0,0,0,0,0,0,0,0,-1,671,1723,0,0
-546,-699,0,0,0,0,0,0,0,0,0,-1,678,1723,0,0
-539,-699,0,0,0,0,0,0,0,0,0,-1,685,1723,0,0
-532,-699,0,0,0,0,0,0,0,0,0,-1,692,1723,0,0
-525,-699,0,0,0,0,0,0,0,0,0,-1,699,1723,0,0
-518,-699,0,0,0,0,0,0,0,0,0,-1,706,1723,0,0
-511,-699,0,0,0,0,0,0,0,0,0,-1,713,1723,0,0
-504,-699,0,0,0,0,0,0,0,0,0,-1,720,1723,0,0
-497,-699,0,0,0,0,0,0,0,0,0,-1,727,1723,0,0
-490,-699,0,0,0,0,0,0,0,0,0,-1,734,1723,0,0
-483,-699,0,0,0,0,0,0,0,0,0,-1,741,1723,0,0
-476,-699,0,0,0,0,0,0,0,0,0,-1,748,1723,0,0
-469,-699,0,0,0,0,0,0,0,0,0,-1,755,1723,0,0
-462,-699,0,0,0,0,0,0,0,0,0,-1,762,1723,0,0
-455,-699,0,0,0,0,0,0,0,0,0,-1,769,1723,0,0
-448,-699,0,0,0,0,0,0,0,0,0,-1,776,1723,0,0
-441,-699,0,0,0,0,0,0,0,0,0,-1,783,1723,0,0
-434,-699,0,0,0,0,0,0,0,0,0,-1,790,1723,0,0
-427,-699,0,0,0,0,0,0,0,0,0,-1,797,1723,0,0
-420,-699,0,0,0,0,0,0,0,0,0,-1,804,1723,0,0
-413,-699,0,0,0,0,0,0,0,0,0,-1,811,1723,0,0
-406,-699,0,0,0,0,0,0,0,0,0,-1,818,1723,0,0
-399,-699,0,0,0,0,0,0,0,0,0,-1,825,1723,0,0
-392,-699,0,0,0,0,0,0,0,0,0,-1,832,1723,0,0
-385,-699,0,0,0,0,0,0,0,0,0,-1,839,1723,0,0
-378,-699,0,0,0,0,0,0,0,0,0,-1,846,1723,0,0
-371,-699,0,0,0,0,0,0,0,0,0,-1,853,1723,0,0
-364,-699,0,0,0,0,0,0,0,0,0,-1,860,1723,0,0
-357,-699,0,0,0,0,0,0,0,0,0,-1,867,1723,0,0
-350,-699,0,0,0,0,0,0,0,0,0,-1,874,1723,0,0
-343,-699,0,0,0,0,0,0,0,0,0,-1,881,1723,0,0
-336,-699,0,0,0,0,0,0,0,0,0,-1,888,1723,0,0
-329,-699,0,0,0,0,0,0,0,0,0,-1,895,1723,0,0
-322,-699,0,0,0,0,0,0,0,0,0,-1,902,1723,0,0
-315,-699,6.20001,19.5193,0,0,0,0,0,0,0,-1,909,1723,6.20001,-19.5193
-308,-699,6.98151,18.9218,0,0,0,0,0,0,0,-1,916,1723,6.98151,-18.9217
-301,-699,4.72729,12.8752,0,0,0,0,0,0,0,-1,923,1723,4.72732,-12.8752
-294,-699,6.90332,19.8601,0,0,0,0,0,0,0,-1,930,1723,6.90332,-19.8601
-287,-699,9.0968,36.3315,0,0,0,0,0,0,0,-1,937,1723,9.09678,-36.3315
-280,-699,9.53729,45.2391,0,0,0,0,0,0,0,-1,944,1723,9.53728,-45.2391
-273,-699,8.216,48.0923,0,0,0,0,0,0,0,-1,951,1723,8.21601,-48.0923
-266,-699,6.81915,20.8951,0,0,0,0,0,0,0,-1,958,1723,6.81914,-20.8952
-259,-699,5.39758,14.5466,0,0,0,0,0,0,0,-1,965,1723,5.39759,-14.5466
-252,-699,8.3866,31.6284,0,0,0,0,0,0,0,-1,972,1723,8.38657,-31.6284
-245,-699,9.48035,47.8151,0,0,0,0,0,0,0,-1,979,1723,9.48037,-47.815
-238,-699,8.43146,49.9154,0,0,0,0,0,0,0,-1,986,1723,8.43146,-49.9154
-231,-699,7.93628,50.3899,-0.00495285,0.00454178,0.00875324,0.00975218,-0.0101633,1.03387,0.011499,0.0450845,993,1723,7.93626,-50.3898
-224,-699,8.06134,51.269,-0.00338329,0.0041795,0.00861674,0.00980806,-0.00901185,0.992167,0.0108689,0.0393467,1000,1723,8.06134,-51.269
-217,-699,8.06464,51.7616,-0.00241512,0.00393266,0.00784338,0.00921998,-0.00770244,0.977656,0.00978325,0.0260246,1007,1723,8.06463,-51.7616
-210,-699,8.03601,52.3135,-0.00217199,0.00360146,0.00726117,0.00852868,-0.00709921,0.974597,0.00903534,0.0198505,1014,1723,8.03601,-52.3134
-203,-699,8.05981,52.9176,-0.00191271,0.00338314,0.00663065,0.00787503,-0.0064046,0.975369,0.00825891,0.0252003,1021,1723,8.05978,-52.9177
-196,-699,7.95105,53.5493,-0.00162963,0.00299902,0.00586067,0.00698577,-0.00561638,0.973445,0.00729016,0.020137,1028,1723,7.95101,-53.5493
-189,-699,7.86804,54.0566,-0.00129387,0.00284123,0.00513353,0.00630793,-0.00476057,0.976838,0.00641118,0.0106761,1035,1723,7.86799,-54.0566
-182,-699,7.80786,54.582,-0.000889434,0.00256634,0.00442852,0.00559212,-0.00391521,0.971401,0.00551745,0.0137762,1042,1723,7.80782,-54.582
-175,-699,7.79419,55.1146,-0.000666249,0.00226293,0.00362395,0.00470705,-0.00311037,0.977434,0.00454466,0.014628,1049,1723,7.79417,-55.1146
-168,-699,7.80847,55.6206,-0.000485526,0.00229547,0.00310245,0.00430478,-0.00249484,0.996073,0.00397185,0.0156786,1056,1723,7.80849,-55.6206
-161,-699,7.77966,56.1337,-0.000239784,0.00246176,0.00266843,0.00410182,-0.00187984,1.0197,0.00353205,0.0140642,1063,1723,7.77968,-56.1337
-154,-699,7.72644,56.6333,-4.79793e-05,0.0025526,0.00220962,0.00381613,-0.00131151,1.05135,0.00307591,0.0142216,1070,1723,7.72648,-56.6333
-147,-699,7.69775,57.0892,0.000175398,0.00257178,0.00183446,0.00356468,-0.000817512,1.07469,0.00269068,0.0169043,1077,1723,7.6977,-57.0892
-140,-699,7.67664,57.5432,0.000492421,0.00251348,0.00146305,0.00328106,-0.000275163,1.08763,0.00228462,0.0118325,1084,1723,7.67666,-57.5432
-133,-699,7.67627,58.0337,0.000758336,0.00247476,0.00115513,0.0030556,0.000177501,1.10489,0.00198055,0.0103105,1091,1723,7.67626,-58.0337
-126,-699,7.69067,58.4902,0.000966034,0.00242055,0.000906983,0.00285584,0.000530742,1.12333,0.00175395,0.0123452,1098,1723,7.69068,-58.4903
-119,-699,7.6908,58.9158,0.00125393,0.00231499,0.000692157,0.00265655,0.000912366,1.11238,0.00155862,0.0176548,1105,1723,7.69074,-58.9157
-112,-699,7.64258,59.3097,0.00161384,0.00220771,0.000499949,0.00249226,0.00132929,1.05337,0.00143997,0.0127917,1112,1723,7.6426,-59.3097
-105,-699,7.64868,59.722,0.0019426,0.00191515,0.000247226,0.00217648,0.00168127,0.757663,0.00131732,0.0141541,1119,1723,7.64869,-59.722
-98,-699,7.70764,60.0905,0.00226877,0.00151519,7.29918e-06,0.00226884,0.00151512,0.00968481,0.00133428,0.016272,1126,1723,7.70765,-60.0904
-91,-699,7.7323,60.4474,0.00267478,0.00116145,-0.000293462,0.0027297,0.00110654,-0.184988,0.00158537,0.0216494,1133,1723,7.7323,-60.4474
-84,-699,7.74866,60.8062,0.00320263,0.000765966,-0.000586878,0.00333662,0.000631982,-0.224453,0.00204654,0.0271645,1140,1723,7.74865,-60.8061
-77,-699,7.75513,61.1388,0.00375818,0.000148617,-0.000922308,0.00398019,-7.33933e-05,-0.236218,0.00267826,0.0190705,1147,1723,7.75512,-61.1388
-70,-699,7.77393,61.4883,0.00421939,-0.000442533,-0.00123063,0.00452431,-0.000747447,-0.242879,0.00329375,0.0185508,1154,1723,7.77394,-61.4883
-63,-699,7.80798,61.824,0.00537058,0.000238218,-0.000872914,0.00551499,9.38158e-05,-0.163941,0.00364579,0.0152362,1161,1723,7.80803,-61.824
-56,-699,7.80347,62.0862,0.00643666,0.00079948,-3.31355e-05,0.00643685,0.000799285,-0.00587775,0.00405118,0.012551,1168,1723,7.80347,-62.0862
-49,-699,7.82007,62.3663,0.00725922,0.000585659,0.000838736,0.00736301,0.00048186,0.12313,0.0047562,0.0280257,1175,1723,7.82006,-62.3663
-42,-699,7.85168,62.7311,0.00832338,0.000970892,0.00149167,0.00861448,0.000679789,0.192731,0.00553033,0.0304471,1182,1723,7.85167,-62.7311
-35,-699,7.94702,62.9913,0.00923916,0.00210957,0.00247017,0.0100114,0.00133737,0.302985,0.00627613,0.0277988,1189,1723,7.94707,-62.9913
-28,-699,8.03943,63.1359,0.0102389,0.00285602,0.00281399,0.0111891,0.00190577,0.325665,0.00691229,0.0222098,1196,1723,8.03946,-63.1359
-21,-699,8.06323,63.2395,0.011616,0.00343689,0.00278888,0.0124764,0.00257646,0.299255,0.00760567,0.0146047,1203,1723,8.06321,-63.2395
-14,-699,8.10681,63.4521,0.0126929,0.00388646,0.00269313,0.0134512,0.00312817,0.274462,0.00812795,0.0123276,1210,1723,8.10678,-63.4521
-7,-699,8.1604,63.6616,0.0136657,0.00438107,0.00239018,0.0142449,0.00380189,0.237736,0.00851701,0.00945544,1217,1723,8.16042,-63.6616
0,-699,8.26147,63.8234,0.0146852,0.00525128,0.00199741,0.0150907,0.0048458,0.200279,0.00889656,0.0139948,1224,1723,8.26143,-63.8234
7,-699,8.40869,63.8975,0.0157438,0.00602493,0.00155153,0.0159855,0.00578325,0.154526,0.00934601,0.0235931,1231,1723,8.4087,-63.8975
14,-699,8.4635,64.0511,0.0167103,0.00683945,0.000929985,0.0167972,0.00675259,0.0931229,0.00975975,0.0235652,1238,1723,8.46345,-64.0512
21,-699,8.45105,64.1477,0.0175644,0.00696075,0.000236701,0.0175697,0.00695547,0.0223077,0.0102169,0.0170415,1245,1723,8.45106,-64.1477
28,-699,8.53357,64.2085,0.0179748,0.0062825,-0.000253215,0.0179803,0.00627702,-0.0216429,0.0105373,0.0162812,1252,1723,8.53353,-64.2085
35,-699,8.59509,64.3291,0.0177541,0.00543916,-0.000674714,0.017791,0.0054023,-0.0545703,0.0105323,0.014903,1259,1723,8.59512,-64.3291
42,-699,8.67786,64.3658,0.0162669,0.0041137,-0.0013298,0.0164107,0.0039699,-0.107722,0.00988652,0.0148118,1266,1723,8.67783,-64.3658
49,-699,8.76245,64.4114,0.0140127,0.00261732,-0.00212619,0.0143964,0.00223354,-0.178582,0.00894654,0.0179145,1273,1723,8.76245,-64.4113
56,-699,8.87671,64.4745,0.0112071,0.000925661,-0.00309109,0.0120649,6.78981e-05,-0.270685,0.00802073,0.0183051,1280,1723,8.87673,-64.4745
63,-699,8.94641,64.4373,0.00793089,-0.000665944,-0.0041425,0.00960212,-0.00233717,-0.383464,0.00730616,0.0156246,1287,1723,8.94647,-64.4373
70,-699,9.00928,64.4553,0.00482993,-0.00270567,-0.00510959,0.00741069,-0.00528643,-0.467705,0.00736481,0.0127862,1294,1723,9.00924,-64.4553
77,-699,9.07788,64.4187,0.00131715,-0.00447422,-0.00593253,0.00502298,-0.00818004,-0.558356,0.00769506,0.0132804,1301,1723,9.07785,-64.4188
84,-699,9.15369,64.3436,-0.00242374,-0.00575738,-0.0066906,0.00280454,-0.0109857,-0.663319,0.00841586,0.0165115,1308,1723,9.15369,-64.3437
91,-699,9.24976,64.2766,-0.00539361,-0.0065008,-0.00743491,0.00150829,-0.0134027,-0.748237,0.00947799,0.0156319,1315,1723,9.24974,-64.2766
98,-699,9.30811,64.1761,-0.00789378,-0.00682,-0.00822195,0.000882573,-0.0155964,-0.818002,0.0107039,0.013178,1322,1723,9.30813,-64.1762
105,-699,9.35754,64.0848,-0.00978843,-0.00689776,-0.00901721,0.000789209,-0.0174754,-0.864865,0.011922,0.017086,1329,1723,9.35757,-64.0849
112,-699,9.45203,64.0254,-0.010711,-0.00633274,-0.00966091,0.00138397,-0.0184277,-0.896815,0.0127715,0.022896,1336,1723,9.452,-64.0254
119,-699,9.48364,63.899,-0.0107489,-0.00573765,-0.00979423,0.00186638,-0.0183529,-0.910625,0.0129025,0.0180985,1343,1723,9.48363,-63.899
126,-699,9.58496,63.7141,-0.0107602,-0.00489298,-0.00967251,0.002281,-0.0179342,-0.932637,0.0127845,0.0204079,1350,1723,9.58491,-63.7141
133,-699,9.71899,63.5442,-0.010275,-0.00389888,-0.00940224,0.00284109,-0.017015,-0.948853,0.0123993,0.018849,1357,1723,9.71904,-63.5442
140,-699,9.73804,63.3384,-0.00899711,-0.00344586,-0.00868899,0.00290006,-0.015343,-0.939996,0.0113199,0.0199534,1364,1723,9.73801,-63.3383
147,-699,9.72925,63.101,0,0,0,0,0,0,0,-1,1371,1723,9.72931,-63.1009
154,-699,9.89465,63.073,0,0,0,0,0,0,0,-1,1378,1723,9.89463,-63.073
161,-699,9.84668,62.7488,-0.00104658,-0.00327621,-0.00366542,0.00166981,-0.0059926,-0.637771,0.00465264,0.0309522,1385,1723,9.84673,-62.7488
168,-699,9.95813,62.5024,0.00127703,-0.00359665,-0.00144025,0.00167083,-0.00399045,-0.266899,0.00335875,0.0133612,1392,1723,9.95815,-62.5025
175,-699,10.0066,62.2463,0.00213359,-0.00243345,-0.000977037,0.00233383,-0.00263369,-0.202147,0.00286974,0.0202055,1399,1723,10.0066,-62.2464
182,-699,10.0468,61.9783,0.00411157,-0.00122652,-0.000246271,0.00412291,-0.00123786,-0.0460044,0.00324101,0.0212913,1406,1723,10.0467,-61.9783
189,-699,10.053,61.6377,0.00589751,-0.000503695,0.000644505,0.00596176,-0.000567942,0.0993561,0.00417671,0.0188289,1413,1723,10.053,-61.6377
196,-699,10.0504,61.2413,0.00565763,-0.000311791,0.00053266,0.00570478,-0.000358948,0.0883019,0.00392831,0.0203179,1420,1723,10.0504,-61.2413
203,-699,10.0446,60.9373,0.00512155,-0.00042524,0.000390747,0.00514895,-0.000452631,0.0699848,0.00359302,0.0160452,1427,1723,10.0446,-60.9372
210,-699,10.1194,60.6479,0.00455152,-0.000416253,0.000197278,0.00455935,-0.000424075,0.0396284,0.00319033,0.0138221,1434,1723,10.1194,-60.648
217,-699,10.1359,60.2842,0.0039251,-0.000364349,9.82788e-05,0.00392735,-0.000366599,0.0228957,0.0027486,0.0141125,1441,1723,10.1359,-60.2841
224,-699,10.1515,59.8972,0.00331588,-0.000143424,-7.67388e-05,0.00331758,-0.000145125,-0.0221688,0.00226165,0.015835,1448,1723,10.1514,-59.8973
231,-699,10.174,59.4991,0.00276439,0.000153209,-0.000363905,0.00281416,0.000103442,-0.135915,0.00184259,0.0130497,1455,1723,10.174,-59.4992
238,-699,10.149,59.0507,0.00230928,0.000514727,-0.000644223,0.0025166,0.00030741,-0.311344,0.00158523,0.0112231,1462,1723,10.1491,-59.0506
245,-699,10.1322,58.6469,0.00192467,0.000894883,-0.000866752,0.00241793,0.000401624,-0.517381,0.00149616,0.0133267,1469,1723,10.1322,-58.6468
252,-699,10.1317,58.2571,0.0014984,0.00129311,-0.00101097,0.00241193,0.000379587,-0.734807,0.00149754,0.011348,1476,1723,10.1318,-58.2571
259,-699,10.105,57.8214,0.00102373,0.00158409,-0.00121183,0.00254771,6.01161e-05,-0.899003,0.00167879,0.0111331,1483,1723,10.105,-57.8214
266,-699,10.0938,57.3656,0.000591863,0.00177019,-0.00144114,0.00273794,-0.000375892,-0.97944,0.00196263,0.0140174,1490,1723,10.0937,-57.3656
273,-699,10.0879,56.8855,0.000172803,0.00203973,-0.00162417,0.00297958,-0.000767041,-1.04622,0.00228538,0.0130874,1497,1723,10.0879,-56.8855
280,-699,10.0908,56.403,-0.000346514,0.00222996,-0.00177432,0.00313438,-0.00125094,-1.0994,0.00260854,0.0126612,1504,1723,10.0908,-56.4029
287,-699,10.0679,55.9069,-0.000921815,0.00245515,-0.0018998,0.00330836,-0.00177503,-1.14869,0.00297907,0.0112025,1511,1723,10.0679,-55.9069
294,-699,10.0372,55.405,-0.00160063,0.00296446,-0.00189428,0.00364811,-0.00228428,-1.22444,0.0034551,0.0123972,1518,1723,10.0373,-55.405
301,-699,10.0385,54.9484,-0.00215926,0.00337128,-0.0021051,0.00408138,-0.00286936,-1.24546,0.00403329,0.0136963,1525,1723,10.0385,-54.9484
308,-699,10.0391,54.457,-0.00266164,0.00445336,-0.0026881,0.00535474,-0.00356303,-1.24725,0.0051832,0.018855,1532,1723,10.0391,-54.4571
315,-699,9.99292,53.8748,-0.0031635,0.00648425,-0.00350383,0.00762247,-0.00430173,-1.2567,0.00697286,0.0213045,1539,1723,9.99296,-53.8747
322,-699,9.92615,53.3153,-0.00361173,0.00824286,-0.00421405,0.00958819,-0.00495706,-1.26178,0.00853841,0.0200102,1546,1723,9.92611,-53.3153
329,-699,9.85498,52.769,-0.00398441,0.010267,-0.00496437,0.0118258,-0.00554321,-1.26655,0.0102443,0.0160479,1553,1723,9.85502,-52.7691
336,-699,9.83435,52.2437,-0.00392403,0.0124385,-0.00592329,0.0143576,-0.00584319,-1.25747,0.0120033,0.0155058,1560,1723,9.83436,-52.2436
343,-699,9.84473,51.6992,-0.00323184,0.0144886,-0.00738858,0.017165,-0.00590828,-1.22326,0.0138398,0.023628,1567,1723,9.84472,-51.6993
350,-699,9.85229,51.0885,-0.00182785,0.0164467,-0.00967279,0.0206156,-0.00599668,-1.16387,0.0161188,0.0399466,1574,1723,9.85225,-51.0886
357,-699,9.88,50.0974,-0.000199528,0.0180717,-0.011871,0.0239154,-0.00604327,-1.11335,0.0182938,0.0464053,1581,1723,9.87996,-50.0974
364,-699,9.78064,49.1117,0.00199778,0.0192562,-0.014258,0.027293,-0.006039,-1.05752,0.0205069,0.0458046,1588,1723,9.78068,-49.1117
371,-699,9.62183,48.3527,0,0,0,0,0,0,0,-1,1595,1723,9.62181,-48.3527
378,-699,9.41699,48.8131,0,0,0,0,0,0,0,-1,1602,1723,9.41703,-48.8131
385,-699,8.04944,42.8464,0,0,0,0,0,0,0,-1,1609,1723,8.04943,-42.8464
392,-699,8.04492,42.0624,0,0,0,0,0,0,0,-1,1616,1723,8.04492,-42.0623
399,-699,8.49963,41.4828,0,0,0,0,0,0,0,-1,1623,1723,8.49961,-41.4828
406,-699,11.7264,44.1525,0,0,0,0,0,0,0,-1,1630,1723,11.7264,-44.1525
413,-699,12.3215,44.3011,0,0,0,0,0,0,0,-1,1637,1723,12.3215,-44.3011
420,-699,8.41907,38.2246,0,0,0,0,0,0,0,-1,1644,1723,8.41902,-38.2247
427,-699,2.98743,11.8593,0,0,0,0,0,0,0,-1,1651,1723,2.98746,-11.8592
434,-699,4.66455,8.90222,0,0,0,0,0,0,0,-1,1658,1723,4.66456,-8.90223
441,-699,0,0,0,0,0,0,0,0,0,-1,1665,1723,0,0
448,-699,0,0,0,0,0,0,0,0,0,-1,1672,1723,0,0
455,-699,0,0,0,0,0,0,0,0,0,-1,1679,1723,0,0
462,-699,0,0,0,0,0,0,0,0,0,-1,1686,1723,0,0
469,-699,0,0,0,0,0,0,0,0,0,-1,1693,1723,0,0
476,-699,0,0,0,0,0,0,0,0,0,-1,1700,1723,0,0
483,-699,0,0,0,0,0,0,0,0,0,-1,1707,1723,0,0
490,-699,0,0,0,0,0,0,0,0,0,-1,1714,1723,0,0
497,-699,0,0,0,0,0,0,0,0,0,-1,1721,1723,0,0
504,-699,0,0,0,0,0,0,0,0,0,-1,1728,1723,0,0
511,-699,0,0,0,0,0,0,0,0,0,-1,1735,1723,0,0
518,-699,0,0,0,0,0,0,0,0,0,-1,1742,1723,0,0
525,-699,0,0,0,0,0,0,0,0,0,-1,1749,1723,0,0
532,-699,0,0,0,0,0,0,0,0,0,-1,1756,1723,0,0
539,-699,0,0,0,0,0,0,0,0,0,-1,1763,1723,0,0
546,-699,0,0,0,0,0,0,0,0,0,-1,1770,1723,0,0
553,-699,0,0,0,0,0,0,0,0,0,-1,1777,1723,0,0
560,-699,0,0,0,0,0,0,0,0,0,-1,1784,1723,0,0
567,-699,0,0,0,0,0,0,0,0,0,-1,1791,1723,0,0
574,-699,0,0,0,0,0,0,0,0,0,-1,1798,1723,0,0
581,-699,0,0,0,0,0,0,0,0,0,-1,1805,1723,0,0
588,-699,0,0,0,0,0,0,0,0,0,-1,1812,1723,0,0
595,-699,0,0,0,0,0,0,0,0,0,-1,1819,1723,0,0
602,-699,0,0,0,0,0,0,0,0,0,-1,1826,1723,0,0
609,-699,0,0,0,0,0,0,0,0,0,-1,1833,1723,0,0
616,-699,0,0,0,0,0,0,0,0,0,-1,1840,1723,0,0
623,-699,0,0,0,0,0,0,0,0,0,-1,1847,1723,0,0
630,-699,0,0,0,0,0,0,0,0,0,-1,1854,1723,0,0
637,-699,0,0,0,0,0,0,0,0,0,-1,1861,1723,0,0
644,-699,0,0,0,0,0,0,0,0,0,-1,1868,1723,0,0
651,-699,0,0,0,0,0,0,0,0,0,-1,1875,1723,0,0
658,-699,0,0,0,0,0,0,0,0,0,-1,1882,1723,0,0
665,-699,0,0,0,0,0,0,0,0,0,-1,1889,1723,0,0
672,-699,0,0,0,0,0,0,0,0,0,-1,1896,1723,0,0
679,-699,0,0,0,0,0,0,0,0,0,-1,1903,1723,0,0
686,-699,0,0,0,0,0,0,0,0,0,-1,1910,1723,0,0
693,-699,0,0,0,0,0,0,0,0,0,-1,1917,1723,0,0
700,-699,0,0,0,0,0,0,0,0,0,-1,1924,1723,0,0
707,-699,0,0,0,0,0,0,0,0,0,-1,1931,1723,0,0
714,-699,0,0,0,0,0,0,0,0,0,-1,1938,1723,0,0
721,-699,0,0,0,0,0,0,0,0,0,-1,1945,1723,0,0
728,-699,0,0,0,0,0,0,0,0,0,-1,1952,1723,0,0
735,-699,0,0,0,0,0,0,0,0,0,-1,1959,1723,0,0
742,-699,0,0,0,0,0,0,0,0,0,-1,1966,1723,0,0
749,-699,0,0,0,0,0,0,0,0,0,-1,1973,1723,0,0
756,-699,0,0,0,0,0,0,0,0,0,-1,1980,1723,0,0
763,-699,0,0,0,0,0,0,0,0,0,-1,1987,1723,0,0
770,-699,0,0,0,0,0,0,0,0,0,-1,1994,1723,0,0
777,-699,0,0,0,0,0,0,0,0,0,-1,2001,1723,0,0
784,-699,0,0,0,0,0,0,0,0,0,-1,2008,1723,0,0
791,-699,0,0,0,0,0,0,0,0,0,-1,2015,1723,0,0
798,-699,0,0,0,0,0,0,0,0,0,-1,2022,1723,0,0
805,-699,0,0,0,0,0,0,0,0,0,-1,2029,1723,0,0
812,-699,0,0,0,0,0,0,0,0,0,-1,2036,1723,0,0
-700,-706,0,0,0,0,0,0,0,0,0,-1,524,1730,0,0
-693,-706,0,0,0,0,0,0,0,0,0,-1,531,1730,0,0
-686,-706,0,0,0,0,0,0,0,0,0,-1,538,1730,0,0
-679,-706,0,0,0,0,0,0,0,0,0,-1,545,1730,0,0
-672,-706,0,0,0,0,0,0,0,0,0,-1,552,1730,0,0
-665,-706,0,0,0,0,0,0,0,0,0,-1,559,1730,0,0
-658,-706,0,0,0,0,0,0,0,0,0,-1,566,1730,0,0
-651,-706,0,0,0,0,0,0,0,0,0,-1,573,1730,0,0
-644,-706,0,0,0,0,0,0,0,0,0,-1,580,1730,0,0
-637,-706,0,0,0,0,0,0,0,0,0,-1,587,1730,0,0
-630,-706,0,0,0,0,0,0,0,0,0,-1,594,1730,0,0
-623,-706,0,0,0,0,0,0,0,0,0,-1,601,1730,0,0
-616,-706,0,0,0,0,0,0,0,0,0,-1,608,1730,0,0
-609,-706,0,0,0,0,0,0,0,0,0,-1,615,1730,0,0
-602,-706,0,0,0,0,0,0,0,0,0,-1,622,1730,0,0
-595,-706,0,0,0,0,0,0,0,0,0,-1,629,1730,0,0
-588,-706,0,0,0,0,0,0,0,0,0,-1,636,1730,0,0
-581,-706,0,0,0,0,0,0,0,0,0,-1,643,1730,0,0
-574,-706,0,0,0,0,0,0,0,0,0,-1,650,1730,0,0
-567,-706,0,0,0,0,0,0,0,0,0,-1,657,1730,0,0
-560,-706,0,0,0,0,0,0,0,0,0,-1,664,1730,0,0
-553,-706,0,0,0,0,0,0,0,0,0,-1,671,1730,0,0
-546,-706,0,0,0,0,0,0,0,0,0,-1,678,1730,0,0
-539,-706,0,0,0,0,0,0,0,0,0,-1,685,1730,0,0
-532,-706,0,0,0,0,0,0,0,0,0,-1,692,1730,0,0
-525,-706,0,0,0,0,0,0,0,0,0,-1,699,1730,0,0
-518,-706,0,0,0,0,0,0,0,0,0,-1,706,1730,0,0
-511,-706,0,0,0,0,0,0,0,0,0,-1,713,1730,0,0
-504,-706,0,0,0,0,0,0,0,0,0,-1,720,1730,0,0
-497,-706,0,0,0,0,0,0,0,0,0,-1,727,1730,0,0
-490,-706,0,0,0,0,0,0,0,0,0,-1,734,1730,0,0
-483,-706,0,0,0,0,0,0,0,0,0,-1,741,1730,0,0
-476,-706,0,0,0,0,0,0,0,0,0,-1,748,1730,0,0
-469,-706,0,0,0,0,0,0,0,0,0,-1,755,1730,0,0
-462,-706,0,0,0,0,0,0,0,0,0,-1,762,1730,0,0
-455,-706,0,0,0,0,0,0,0,0,0,-1,769,1730,0,0
-448,-706,0,0,0,0,0,0,0,0,0,-1,776,1730,0,0
-441,-706,0,0,0,0,0,0,0,0,0,-1,783,1730,0,0
-434,-706,0,0,0,0,0,0,0,0,0,-1,790,1730,0,0
-427,-706,0,0,0,0,0,0,0,0,0,-1,797,1730,0,0
-420,-706,0,0,0,0,0,0,0,0,0,-1,804,1730,0,0
-413,-706,0,0,0,0,0,0,0,0,0,-1,811,1730,0,0
-406,-706,0,0,0,0,0,0,0,0,0,-1,818,1730,0,0
-399,-706,0,0,0,0,0,0,0,0,0,-1,825,1730,0,0
-392,-706,0,0,0,0,0,0,0,0,0,-1,832,1730,0,0
-385,-706,0,0,0,0,0,0,0,0,0,-1,839,1730,0,0
-378,-706,0,0,0,0,0,0,0,0,0,-1,846,1730,0,0
-371,-706,0,0,0,0,0,0,0,0,0,-1,853,1730,0,0
-364,-706,0,0,0,0,0,0,0,0,0,-1,860,1730,0,0
-357,-706,0,0,0,0,0,0,0,0,0,-1,867,1730,0,0
-350,-706,0,0,0,0,0,0,0,0,0,-1,874,1730,0,0
-343,-706,0,0,0,0,0,0,0,0,0,-1,881,1730,0,0
-336,-706,0,0,0,0,0,0,0,0,0,-1,888,1730,0,0
-329,-706,0,0,0,0,0,0,0,0,0,-1,895,1730,0,0
-322,-706,0,0,0,0,0,0,0,0,0,-1,902,1730,0,0
-315,-706,0,0,0,0,0,0,0,0,0,-1,909,1730,0,0
-308,-706,5.08191,14.6245,0,0,0,0,0,0,0,-1,916,1730,5.08188,-14.6245
-301,-706,7.45007,21.1975,0,0,0,0,0,0,0,-1,923,1730,7.45005,-21.1976
-294,-706,11.8603,21.026,0,0,0,0,0,0,0,-1,930,1730,11.8603,-21.026
-287,-706,10.3292,20.8425,0,0,0,0,0,0,0,-1,937,1730,10.3292,-20.8425
-280,-706,7.9162,21.8951,0,0,0,0,0,0,0,-1,944,1730,7.9162,-21.8952
-273,-706,7.38953,20.6355,0,0,0,0,0,0,0,-1,951,1730,7.38955,-20.6355
-266,-706,9.66724,22.8231,0,0,0,0,0,0,0,-1,958,1730,9.66722,-22.8231
-259,-706,3.47852,20.7363,0,0,0,0,0,0,0,-1,965,1730,3.47851,-20.7364
-252,-706,3.84259,20.1979,0,0,0,0,0,0,0,-1,972,1730,3.84256,-20.1979
-245,-706,4.698,19.2992,0,0,0,0,0,0,0,-1,979,1730,4.69799,-19.2991
-238,-706,9.35162,48.9419,0,0,0,0,0,0,0,-1,986,1730,9.35165,-48.9419
-231,-706,8.47711,49.9751,0,0,0,0,0,0,0,-1,993,1730,8.47712,-49.9751
-224,-706,8.65564,51.3785,0,0,0,0,0,0,0,-1,1000,1730,8.65561,-51.3786
-217,-706,8.52856,51.9526,-0.00282683,0.00527025,0.0101622,0.0121607,-0.00971727,0.974958,0.0126575,0.0401995,1007,1730,8.52855,-51.9526
-210,-706,8.29572,52.3905,-0.00261508,0.00485954,0.00936115,0.0112018,-0.00895738,0.975322,0.011663,0.0392726,1014,1730,8.29573,-52.3905
-203,-706,8.42163,52.9045,-0.00232263,0.00457568,0.00852545,0.0103233,-0.00807021,0.977619,0.010646,0.0328252,1021,1730,8.42161,-52.9045
-196,-706,8.47571,53.4149,-0.00205352,0.00408125,0.00754715,0.00916054,-0.00713281,0.978417,0.00943122,0.0255696,1028,1730,8.47577,-53.4149
-189,-706,8.33948,54.0302,-0.00172795,0.0039189,0.00668884,0.0083558,-0.00616485,0.985108,0.00841525,0.0211439,1035,1730,8.33948,-54.0302
-182,-706,8.30066,54.626,-0.0013458,0.00356282,0.00584241,0.0074455,-0.00522848,0.984248,0.00735455,0.0163208,1042,1730,8.30069,-54.6259
-175,-706,8.30493,55.1465,-0.00120805,0.00305986,0.00486217,0.00623575,-0.00438394,0.992186,0.00616228,0.01624,1049,1730,8.30493,-55.1465
-168,-706,8.27747,55.6317,-0.00109038,0.00296112,0.0042413,0.00563561,-0.00376487,1.00819,0.00546308,0.0175312,1056,1730,8.27748,-55.6317
-161,-706,8.24646,56.1418,-0.000887079,0.00304937,0.00372997,0.00529856,-0.00313627,1.02817,0.0049229,0.0144109,1063,1730,8.24649,-56.1418
-154,-706,8.19177,56.6625,-0.000775845,0.00302632,0.00319619,0.00484408,-0.0025936,1.05369,0.00435917,0.0133512,1070,1730,8.19175,-56.6625
-147,-706,8.1637,57.1211,-0.000637165,0.00288941,0.00275949,0.00440087,-0.00214862,1.0697,0.00385516,0.0130575,1077,1730,8.16368,-57.1211
-140,-706,8.15198,57.5763,-0.000360288,0.0027076,0.00233585,0.00396815,-0.00162083,1.07593,0.0033203,0.0125878,1084,1730,8.15193,-57.5763
-133,-706,8.12781,58.0215,-0.000153358,0.00255463,0.00197615,0.00359615,-0.00119487,1.08575,0.00287958,0.0104315,1091,1730,8.12781,-58.0215
-126,-706,8.13501,58.459,-4.61801e-05,0.00243824,0.00171439,0.00331316,-0.000921095,1.09891,0.00257139,0.0154041,1098,1730,8.13505,-58.4589
-119,-706,8.12231,58.8898,0.000141651,0.00229015,0.00149234,0.00305468,-0.000622872,1.09736,0.00227271,0.0189228,1105,1730,8.12237,-58.8897
-112,-706,8.07825,59.339,0.00046871,0.0022537,0.00132325,0.0029573,-0.000234894,1.08209,0.00205431,0.0139634,1112,1730,8.07827,-59.339
-105,-706,8.04114,59.73,0.000796086,0.00207344,0.00107764,0.00268745,0.000182076,1.0529,0.00173413,0.0107776,1119,1730,8.04117,-59.73
-98,-706,8.06311,60.0826,0.00109736,0.00180613,0.000875496,0.00239625,0.000507244,0.977708,0.00145813,0.0128568,1126,1730,8.06308,-60.0826
-91,-706,8.08191,60.4662,0.00144427,0.00160083,0.000650657,0.0021779,0.0008672,0.845264,0.00126607,0.0156059,1133,1730,8.0819,-60.4661
-84,-706,8.08081,60.8339,0.00181188,0.00134017,0.000384347,0.00202697,0.00112508,0.510203,0.00117263,0.0182237,1140,1730,8.08082,-60.8338
-77,-706,8.09277,61.1696,0.00220834,0.00105964,0.000131421,0.00222319,0.0010448,0.112472,0.00128433,0.0177548,1147,1730,8.09279,-61.1695
-70,-706,8.09204,61.5291,0.002607,0.000647583,-0.000148388,0.00261817,0.000636409,-0.0751596,0.00157672,0.0200375,1154,1730,8.0921,-61.5291
-63,-706,8.08167,61.8344,0.00336063,0.000769415,-7.81288e-05,0.00336299,0.000767062,-0.0301149,0.00203507,0.0148226,1161,1730,8.08166,-61.8344
-56,-706,8.09631,62.094,0.00412788,0.000815114,0.000268927,0.00414957,0.000793425,0.0804768,0.0025435,0.0149479,1168,1730,8.09634,-62.094
-49,-706,8.08386,62.3639,0.00474613,0.000498376,0.000648358,0.00484289,0.000401618,0.148143,0.00310339,0.0161803,1175,1730,8.08383,-62.3639
-42,-706,8.12793,62.64,0.00545946,0.0002795,0.00105165,0.00566482,7.41344e-05,0.192853,0.00375208,0.0207932,1182,1730,8.12795,-62.64
-35,-706,8.16125,62.8744,0.00615886,0.000608041,0.00172632,0.00665195,0.000114951,0.278222,0.00439681,0.0197868,1189,1730,8.16128,-62.8744
-28,-706,8.21106,63.0969,0.00693998,0.000773833,0.00208785,0.00758041,0.000133407,0.297629,0.00500973,0.0123702,1196,1730,8.21102,-63.0969
-21,-706,8.25635,63.2975,0.0079833,0.000912601,0.00225947,0.00864365,0.00025225,0.28434,0.00568022,0.0124763,1203,1730,8.25634,-63.2975
-14,-706,8.29834,63.49,0.00886356,0.00101365,0.002406,0.00954231,0.000334899,0.274962,0.0062529,0.01169,1210,1730,8.2983,-63.49
-7,-706,8.3468,63.6891,0.00968898,0.00125944,0.00229951,0.0102755,0.000672963,0.249723,0.00663737,0.00929715,1217,1730,8.34676,-63.6891
0,-706,8.43103,63.8685,0.0105375,0.00181311,0.00220728,0.0110642,0.00128646,0.234218,0.00698689,0.0139875,1224,1730,8.43099,-63.8686
7,-706,8.47168,64.0114,0.0114256,0.00235934,0.00203035,0.0118596,0.00192543,0.210548,0.00734913,0.0172844,1231,1730,8.4717,-64.0113
14,-706,8.52161,64.1083,0.0122195,0.00290371,0.00171747,0.0125261,0.00259716,0.176627,0.00763372,0.016795,1238,1730,8.52165,-64.1082
21,-706,8.58142,64.2152,0.0129207,0.00300155,0.00130405,0.0130893,0.00283297,0.128557,0.00795191,0.0122181,1245,1730,8.58147,-64.2152
28,-706,8.64563,64.3079,0.0132838,0.00256903,0.000993134,0.0133751,0.00247775,0.0916477,0.00821631,0.0120439,1252,1730,8.64565,-64.3079
35,-706,8.66956,64.3829,0.0131822,0.00205393,0.000687007,0.0132245,0.00201168,0.0614242,0.00822815,0.0145426,1259,1730,8.66958,-64.383
42,-706,8.71143,64.4253,0.0123338,0.00120368,0.00018494,0.0123368,0.00120061,0.0166101,0.007855,0.013447,1266,1730,8.71145,-64.4253
49,-706,8.77783,64.4581,0.0109908,0.00014442,-0.000445117,0.0110091,0.000126184,-0.0409464,0.00729769,0.0155948,1273,1730,8.77779,-64.4581
56,-706,8.87415,64.4956,0.00926948,-0.00113983,-0.00116332,0.0093979,-0.00126826,-0.10995,0.00672798,0.0151998,1280,1730,8.87417,-64.4956
63,-706,8.94873,64.4956,0.00714958,-0.0023041,-0.00194672,0.00753476,-0.00268928,-0.195337,0.00611984,0.012805,1287,1730,8.94878,-64.4956
70,-706,8.98376,64.4829,0.00518496,-0.00383862,-0.00269441,0.00592827,-0.00458193,-0.269176,0.00608464,0.0130199,1294,1730,8.98374,-64.483
77,-706,9.02441,64.4641,0.00287038,-0.00518745,-0.00334919,0.00408067,-0.00639773,-0.346765,0.00609881,0.011953,1301,1730,9.02445,-64.4641
84,-706,9.08899,64.4261,0.000376428,-0.0061937,-0.00394217,0.00222287,-0.00804015,-0.438035,0.00623457,0.0098925,1308,1730,9.089,-64.4262
91,-706,9.1571,64.376,-0.00151908,-0.00679284,-0.00448472,0.00104652,-0.00935844,-0.519635,0.00661545,0.0107472,1315,1730,9.15716,-64.376
98,-706,9.19812,64.3065,-0.00313887,-0.00720433,-0.00496223,0.000190838,-0.010534,-0.591003,0.00708716,0.0150951,1322,1730,9.19814,-64.3065
105,-706,9.24219,64.236,-0.00430219,-0.00734453,-0.00548308,-0.000133175,-0.0115135,-0.650086,0.00763169,0.0179235,1329,1730,9.24223,-64.236
112,-706,9.2677,64.1412,-0.00490926,-0.00703233,-0.00585742,-1.79638e-05,-0.0119236,-0.695756,0.0079431,0.0161489,1336,1730,9.26772,-64.1413
119,-706,9.3075,64.0107,-0.00492022,-0.00659553,-0.00586752,0.000169132,-0.0116849,-0.714497,0.00784691,0.0135379,1343,1730,9.30748,-64.0107
126,-706,9.39136,63.8219,-0.00487707,-0.00591182,-0.00567794,0.000307014,-0.0110959,-0.739963,0.0075017,0.0163998,1350,1730,9.39132,-63.8219
133,-706,9.49512,63.5894,-0.00448895,-0.00500601,-0.00541207,0.000670762,-0.0101657,-0.761532,0.00701144,0.0145533,1357,1730,9.49517,-63.5894
140,-706,9.53235,63.3524,-0.00362161,-0.00438842,-0.00485217,0.000862272,-0.00887231,-0.745971,0.00622224,0.0127926,1364,1730,9.53231,-63.3524
147,-706,9.57117,63.1763,-0.0022708,-0.00383606,-0.00398429,0.00100699,-0.00711386,-0.688418,0.00511141,0.0230193,1371,1730,9.57118,-63.1762
154,-706,9.63318,63.0157,-0.000815506,-0.0033636,-0.0030079,0.00117704,-0.00535615,-0.58507,0.00402095,0.0240128,1378,1730,9.63318,-63.0157
161,-706,9.61475,62.7543,0.000589196,-0.00255593,-0.00182829,0.00142818,-0.00339492,-0.430225,0.00286075,0.0124901,1385,1730,9.61471,-62.7543
168,-706,9.64954,62.4829,0.0017577,-0.00214627,-0.000815322,0.00192113,-0.0023097,-0.197831,0.0024461,0.011716,1392,1730,9.6495,-62.483
175,-706,9.70728,62.2239,0.00213166,-0.00125222,-0.000558255,0.00222138,-0.00134194,-0.159351,0.00207807,0.0115616,1399,1730,9.70728,-62.2239
182,-706,9.69214,61.9354,0.0030663,-0.000386609,-0.000193997,0.00307716,-0.000397474,-0.0559489,0.00219596,0.012105,1406,1730,9.69219,-61.9354
189,-706,9.70703,61.6021,0.00381484,0.000153911,0.000160018,0.00382182,0.00014693,0.0435989,0.00250034,0.0151905,1413,1730,9.70699,-61.602
196,-706,9.7356,61.2852,0.00358253,0.000372765,-1.29891e-05,0.00358258,0.000372713,-0.00404665,0.00227435,0.0127989,1420,1730,9.73553,-61.2852
203,-706,9.74939,60.9799,0.00318113,0.000442429,-0.000211589,0.00319738,0.000426178,-0.0766527,0.00200469,0.01349,1427,1730,9.74936,-60.9799
210,-706,9.75305,60.6409,0.00274297,0.000646009,-0.000428497,0.00282715,0.000561828,-0.193985,0.0017282,0.0131568,1434,1730,9.75302,-60.6409
217,-706,9.74634,60.2922,0.00225313,0.000897189,-0.000589763,0.00247375,0.000676569,-0.357965,0.00147626,0.0140439,1441,1730,9.74632,-60.2922
224,-706,9.74536,59.9189,0.00177261,0.00121623,-0.000817107,0.00235758,0.000631254,-0.621326,0.00140925,0.0198658,1448,1730,9.74531,-59.9189
231,-706,9.76758,59.5095,0.0013044,0.00158352,-0.00108232,0.00253523,0.000352681,-0.849518,0.00158572,0.0152348,1455,1730,9.76755,-59.5095
238,-706,9.75842,59.0833,0.00089457,0.00196793,-0.00131355,0.00285021,1.22986e-05,-0.979337,0.00189605,0.00922545,1462,1730,9.75838,-59.0832
245,-706,9.74719,58.6598,0.000493237,0.00231475,-0.00150762,0.00316535,-0.000357371,-1.05711,0.00223889,0.0118484,1469,1730,9.74714,-58.6598
252,-706,9.71411,58.2478,3.3067e-05,0.00270622,-0.00163863,0.00348425,-0.000744957,-1.12751,0.00260687,0.012019,1476,1730,9.71413,-58.2478
259,-706,9.69763,57.8237,-0.000435207,0.0029324,-0.00181021,0.00372085,-0.00122366,-1.16002,0.0029736,0.0132198,1483,1730,9.69759,-57.8237
266,-706,9.66272,57.3762,-0.000871716,0.00304797,-0.0020053,0.00389209,-0.00171584,-1.17237,0.00331801,0.0131035,1490,1730,9.66275,-57.3763
273,-706,9.62805,56.9034,-0.00131574,0.00329912,-0.00219197,0.00417429,-0.00219091,-1.19093,0.00373394,0.0119984,1497,1730,9.6281,-56.9034
280,-706,9.63599,56.4301,-0.00185344,0.00346245,-0.00234955,0.00435205,-0.00274304,-1.20885,0.00413131,0.0103084,1504,1730,9.63601,-56.4301
287,-706,9.59509,55.9288,-0.00247563,0.00368268,-0.00250957,0.00457582,-0.00336877,-1.22888,0.00460442,0.0113939,1511,1730,9.59506,-55.9288
294,-706,9.5752,55.4365,-0.00325115,0.00430782,-0.00249731,0.00505835,-0.00400169,-1.27885,0.00524266,0.0123488,1518,1730,9.57524,-55.4366
301,-706,9.56812,54.9314,-0.00381078,0.00475797,-0.00275833,0.00556911,-0.00462192,-1.28479,0.00589226,0.0121266,1525,1730,9.56812,-54.9314
308,-706,9.54382,54.4218,-0.00430123,0.00611561,-0.00349905,0.00718182,-0.00536744,-1.27502,0.00727052,0.0175312,1532,1730,9.54387,-54.4218
315,-706,9.49866,53.8536,-0.00483046,0.00869729,-0.0045717,0.0100974,-0.00623056,-1.27361,0.00951465,0.0380158,1539,1730,9.49864,-53.8536
322,-706,9.49451,53.1842,-0.00532042,0.010972,-0.00549833,0.0126539,-0.00700235,-1.27394,0.0115039,0.04535,1546,1730,9.4945,-53.1843
329,-706,9.40747,52.7531,-0.0057391,0.0136977,-0.00647181,0.0156554,-0.00769681,-1.27705,0.0137409,0.0330154,1553,1730,9.40747,-52.7531
336,-706,9.28955,52.2155,-0.00566011,0.0167163,-0.00780956,0.0191724,-0.00811614,-1.2661,0.0161803,0.0396676,1560,1730,9.28955,-52.2155
343,-706,9.01733,51.491,-0.00484697,0.0197377,-0.0097355,0.023126,-0.00823524,-1.23588,0.0187744,0.045033,1567,1730,9.01734,-51.491
350,-706,9.31006,51.0809,0,0,0,0,0,0,0,-1,1574,1730,9.31007,-51.0809
357,-706,9.55933,49.838,0,0,0,0,0,0,0,-1,1581,1730,9.55927,-49.838
364,-706,9.23779,48.6688,0,0,0,0,0,0,0,-1,1588,1730,9.23781,-48.6688
371,-706,8.6084,48.7302,0,0,0,0,0,0,0,-1,1595,1730,8.60844,-48.7303
378,-706,7.63867,44.0519,0,0,0,0,0,0,0,-1,1602,1730,7.63863,-44.0519
385,-706,7.3186,43.2451,0,0,0,0,0,0,0,-1,1609,1730,7.31862,-43.2451
392,-706,7.33728,42.4652,0,0,0,0,0,0,0,-1,1616,1730,7.3373,-42.4651
399,-706,7.51855,41.7692,0,0,0,0,0,0,0,-1,1623,1730,7.51855,-41.7691
406,-706,7.46301,40.9797,0,0,0,0,0,0,0,-1,1630,1730,7.46301,-40.9797
413,-706,8.43433,40.3345,0,0,0,0,0,0,0,-1,1637,1730,8.43428,-40.3344
420,-706,8.0636,39.6101,0,0,0,0,0,0,0,-1,1644,1730,8.06362,-39.6101
427,-706,0,0,0,0,0,0,0,0,0,-1,1651,1730,0,0
434,-706,0,0,0,0,0,0,0,0,0,-1,1658,1730,0,0
441,-706,0,0,0,0,0,0,0,0,0,-1,1665,1730,0,0
448,-706,0,0,0,0,0,0,0,0,0,-1,1672,1730,0,0
455,-706,0,0,0,0,0,0,0,0,0,-1,1679,1730,0,0
462,-706,0,0,0,0,0,0,0,0,0,-1,1686,1730,0,0
469,-706,0,0,0,0,0,0,0,0,0,-1,1693,1730,0,0
476,-706,0,0,0,0,0,0,0,0,0,-1,1700,1730,0,0
483,-706,0,0,0,0,0,0,0,0,0,-1,1707,1730,0,0
490,-706,0,0,0,0,0,0,0,0,0,-1,1714,1730,0,0
497,-706,0,0,0,0,0,0,0,0,0,-1,1721,1730,0,0
504,-706,0,0,0,0,0,0,0,0,0,-1,1728,1730,0,0
511,-706,0,0,0,0,0,0,0,0,0,-1,1735,1730,0,0
518,-706,0,0,0,0,0,0,0,0,0,-1,1742,1730,0,0
525,-706,0,0,0,0,0,0,0,0,0,-1,1749,1730,0,0
532,-706,0,0,0,0,0,0,0,0,0,-1,1756,1730,0,0
539,-706,0,0,0,0,0,0,0,0,0,-1,1763,1730,0,0
546,-706,0,0,0,0,0,0,0,0,0,-1,1770,1730,0,0
553,-706,0,0,0,0,0,0,0,0,0,-1,1777,1730,0,0
560,-706,0,0,0,0,0,0,0,0,0,-1,1784,1730,0,0
567,-706,0,0,0,0,0,0,0,0,0,-1,1791,1730,0,0
574,-706,0,0,0,0,0,0,0,0,0,-1,1798,1730,0,0
581,-706,0,0,0,0,0,0,0,0,0,-1,1805,1730,0,0
588,-706,0,0,0,0,0,0,0,0,0,-1,1812,1730,0,0
595,-706,0,0,0,0,0,0,0,0,0,-1,1819,1730,0,0
602,-706,0,0,0,0,0,0,0,0,0,-1,1826,1730,0,0
609,-706,0,0,0,0,0,0,0,0,0,-1,1833,1730,0,0
616,-706,0,0,0,0,0,0,0,0,0,-1,1840,1730,0,0
623,-706,0,0,0,0,0,0,0,0,0,-1,1847,1730,0,0
630,-706,0,0,0,0,0,0,0,0,0,-1,1854,1730,0,0
637,-706,0,0,0,0,0,0,0,0,0,-1,1861,1730,0,0
644,-706,0,0,0,0,0,0,0,0,0,-1,1868,1730,0,0
651,-706,0,0,0,0,0,0,0,0,0,-1,1875,1730,0,0
658,-706,0,0,0,0,0,0,0,0,0,-1,1882,1730,0,0
665,-706,0,0,0,0,0,0,0,0,0,-1,1889,1730,0,0
672,-706,0,0,0,0,0,0,0,0,0,-1,1896,1730,0,0
679,-706,0,0,0,0,0,0,0,0,0,-1,1903,1730,0,0
686,-706,0,0,0,0,0,0,0,0,0,-1,1910,1730,0,0
693,-706,0,0,0,0,0,0,0,0,0,-1,1917,1730,0,0
700,-706,0,0,0,0,0,0,0,0,0,-1,1924,1730,0,0
707,-706,0,0,0,0,0,0,0,0,0,-1,1931,1730,0,0
714,-706,0,0,0,0,0,0,0,0,0,-1,1938,1730,0,0
721,-706,0,0,0,0,0,0,0,0,0,-1,1945,1730,0,0
728,-706,0,0,0,0,0,0,0,0,0,-1,1952,1730,0,0
735,-706,0,0,0,0,0,0,0,0,0,-1,1959,1730,0,0
742,-706,0,0,0,0,0,0,0,0,0,-1,1966,1730,0,0
749,-706,0,0,0,0,0,0,0,0,0,-1,1973,1730,0,0
756,-706,0,0,0,0,0,0,0,0,0,-1,1980,1730,0,0
763,-706,0,0,0,0,0,0,0,0,0,-1,1987,1730,0,0
770,-706,0,0,0,0,0,0,0,0,0,-1,1994,1730,0,0
777,-706,0,0,0,0,0,0,0,0,0,-1,2001,1730,0,0
784,-706,0,0,0,0,0,0,0,0,0,-1,2008,1730,0,0
791,-706,0,0,0,0,0,0,0,0,0,-1,2015,1730,0,0
798,-706,0,0,0,0,0,0,0,0,0,-1,2022,1730,0,0
805,-706,0,0,0,0,0,0,0,0,0,-1,2029,1730,0,0
812,-706,0,0,0,0,0,0,0,0,0,-1,2036,1730,0,0
-700,-713,0,0,0,0,0,0,0,0,0,-1,524,1737,0,0
-693,-713,0,0,0,0,0,0,0,0,0,-1,531,1737,0,0
-686,-713,0,0,0,0,0,0,0,0,0,-1,538,1737,0,0
-679,-713,0,0,0,0,0,0,0,0,0,-1,545,1737,0,0
-672,-713,0,0,0,0,0,0,0,0,0,-1,552,1737,0,0
-665,-713,0,0,0,0,0,0,0,0,0,-1,559,1737,0,0
-658,-713,0,0,0,0,0,0,0,0,0,-1,566,1737,0,0
-651,-713,0,0,0,0,0,0,0,0,0,-1,573,1737,0,0
-644,-713,0,0,0,0,0,0,0,0,0,-1,580,1737,0,0
-637,-713,0,0,0,0,0,0,0,0,0,-1,587,1737,0,0
-630,-713,0,0,0,0,0,0,0,0,0,-1,594,1737,0,0
-623,-713,0,0,0,0,0,0,0,0,0,-1,601,1737,0,0
-616,-713,0,0,0,0,0,0,0,0,0,-1,608,1737,0,0
-609,-713,0,0,0,0,0,0,0,0,0,-1,615,1737,0,0
-602,-713,0,0,0,0,0,0,0,0,0,-1,622,1737,0,0
-595,-713,0,0,0,0,0,0,0,0,0,-1,629,1737,0,0
-588,-713,0,0,0,0,0,0,0,0,0,-1,636,1737,0,0
-581,-713,0,0,0,0,0,0,0,0,0,-1,643,1737,0,0
-574,-713,0,0,0,0,0,0,0,0,0,-1,650,1737,0,0
-567,-713,0,0,0,0,0,0,0,0,0,-1,657,1737,0,0
-560,-713,0,0,0,0,0,0,0,0,0,-1,664,1737,0,0
-553,-713,0,0,0,0,0,0,0,0,0,-1,671,1737,0,0
-546,-713,0,0,0,0,0,0,0,0,0,-1,678,1737,0,0
-539,-713,0,0,0,0,0,0,0,0,0,-1,685,1737,0,0
-532,-713,0,0,0,0,0,0,0,0,0,-1,692,1737,0,0
-525,-713,0,0,0,0,0,0,0,0,0,-1,699,1737,0,0
-518,-713,0,0,0,0,0,0,0,0,0,-1,706,1737,0,0
-511,-713,0,0,0,0,0,0,0,0,0,-1,713,1737,0,0
-504,-713,0,0,0,0,0,0,0,0,0,-1,720,1737,0,0
-497,-713,0,0,0,0,0,0,0,0,0,-1,727,1737,0,0
-490,-713,0,0,0,0,0,0,0,0,0,-1,734,1737,0,0
-483,-713,0,0,0,0,0,0,0,0,0,-1,741,1737,0,0
-476,-713,0,0,0,0,0,0,0,0,0,-1,748,1737,0,0
-469,-713,0,0,0,0,0,0,0,0,0,-1,755,1737,0,0
-462,-713,0,0,0,0,0,0,0,0,0,-1,762,1737,0,0
-455,-713,0,0,0,0,0,0,0,0,0,-1,769,1737,0,0
-448,-713,0,0,0,0,0,0,0,0,0,-1,776,1737,0,0
-441,-713,0,0,0,0,0,0,0,0,0,-1,783,1737,0,0
-434,-713,0,0,0,0,0,0,0,0,0,-1,790,1737,0,0
-427,-713,0,0,0,0,0,0,0,0,0,-1,797,1737,0,0
-420,-713,0,0,0,0,0,0,0,0,0,-1,804,1737,0,0
-413,-713,0,0,0,0,0,0,0,0,0,-1,811,1737,0,0
-406,-713,0,0,0,0,0,0,0,0,0,-1,818,1737,0,0
-399,-713,0,0,0,0,0,0,0,0,0,-1,825,1737,0,0
-392,-713,0,0,0,0,0,0,0,0,0,-1,832,1737,0,0
-385,-713,0,0,0,0,0,0,0,0,0,-1,839,1737,0,0
-378,-713,0,0,0,0,0,0,0,0,0,-1,846,1737,0,0
-371,-713,0,0,0,0,0,0,0,0,0,-1,853,1737,0,0
-364,-713,0,0,0,0,0,0,0,0,0,-1,860,1737,0,0
-357,-713,0,0,0,0,0,0,0,0,0,-1,867,1737,0,0
-350,-713,0,0,0,0,0,0,0,0,0,-1,874,1737,0,0
-343,-713,0,0,0,0,0,0,0,0,0,-1,881,1737,0,0
-336,-713,0,0,0,0,0,0,0,0,0,-1,888,1737,0,0
-329,-713,0,0,0,0,0,0,0,0,0,-1,895,1737,0,0
-322,-713,0,0,0,0,0,0,0,0,0,-1,902,1737,0,0
-315,-713,0,0,0,0,0,0,0,0,0,-1,909,1737,0,0
-308,-713,0,0,0,0,0,0,0,0,0,-1,916,1737,0,0
-301,-713,0,0,0,0,0,0,0,0,0,-1,923,1737,0,0
-294,-713,7.17883,22.0453,0,0,0,0,0,0,0,-1,930,1737,7.17881,-22.0453
-287,-713,11.8916,21.5834,0,0,0,0,0,0,0,-1,937,1737,11.8916,-21.5833
-280,-713,10.2786,21.3551,0,0,0,0,0,0,0,-1,944,1737,10.2787,-21.3551
-273,-713,11.1981,23.8683,0,0,0,0,0,0,0,-1,951,1737,11.198,-23.8683
-266,-713,3.17981,19.8851,0,0,0,0,0,0,0,-1,958,1737,3.17983,-19.8851
-259,-713,3.5921,19.6868,0,0,0,0,0,0,0,-1,965,1737,3.59207,-19.6868
-252,-713,4.55469,20.5758,0,0,0,0,0,0,0,-1,972,1737,4.55466,-20.5758
-245,-713,3.89014,25.9825,0,0,0,0,0,0,0,-1,979,1737,3.89013,-25.9826
-238,-713,6.62506,30.5463,0,0,0,0,0,0,0,-1,986,1737,6.62509,-30.5462
-231,-713,8.29321,51.6848,0,0,0,0,0,0,0,-1,993,1737,8.29318,-51.6848
-224,-713,8.72107,51.475,0,0,0,0,0,0,0,-1,1000,1737,8.72105,-51.475
-217,-713,8.90253,52.1899,0,0,0,0,0,0,0,-1,1007,1737,8.90255,-52.1899
-210,-713,8.54858,52.5223,0,0,0,0,0,0,0,-1,1014,1737,8.54856,-52.5224
-203,-713,8.67639,52.9766,0,0,0,0,0,0,0,-1,1021,1737,8.67636,-52.9766
-196,-713,8.8042,53.3799,-0.00224557,0.00548304,0.00953052,0.0119029,-0.00866541,0.978003,0.011924,0.0470394,1028,1737,8.80424,-53.3799
-189,-713,8.68799,53.9254,-0.00195543,0.00544074,0.00852728,0.0110373,-0.00755198,0.989997,0.0107952,0.0434332,1035,1737,8.68794,-53.9254
-182,-713,8.74146,54.5233,-0.00167042,0.00512535,0.00749841,0.00995983,-0.0065049,0.998132,0.00957543,0.028349,1042,1737,8.74139,-54.5233
-175,-713,8.8031,55.0737,-0.00166451,0.00443718,0.00631634,0.00840088,-0.0056282,1.01038,0.00815226,0.0239861,1049,1737,8.80315,-55.0737
-168,-713,8.80786,55.6035,-0.00164669,0.00423176,0.00557221,0.00759242,-0.00500735,1.02809,0.00732534,0.0266414,1056,1737,8.80786,-55.6035
-161,-713,8.72034,56.1559,-0.00152738,0.0042971,0.00496297,0.00713919,-0.00436946,1.05072,0.00670835,0.0131723,1063,1737,8.72028,-56.1559
-154,-713,8.6521,56.6639,-0.00154338,0.00421871,0.00435303,0.00655775,-0.00388242,1.07773,0.00609325,0.0112267,1070,1737,8.65216,-56.6639
-147,-713,8.61951,57.1566,-0.00152769,0.00397251,0.00385578,0.00595845,-0.00351363,1.09518,0.0055291,0.0186585,1077,1737,8.61952,-57.1567
-140,-713,8.61194,57.6187,-0.0013258,0.00371793,0.00338168,0.00541454,-0.00302241,1.10578,0.00493591,0.0198879,1084,1737,8.61196,-57.6187
-133,-713,8.55933,58.0341,-0.00121285,0.00349451,0.00297275,0.00493254,-0.00265088,1.12024,0.00444386,0.014456,1091,1737,8.5593,-58.0341
-126,-713,8.55151,58.4208,-0.00123227,0.003343,0.00270229,0.00459594,-0.0024852,1.13664,0.0041484,0.0218616,1098,1737,8.55151,-58.4208
-119,-713,8.54321,58.8297,-0.0011491,0.00315591,0.00246974,0.00427951,-0.0022727,1.14383,0.00384161,0.0291162,1105,1737,8.54323,-58.8297
-112,-713,8.46118,59.3226,-0.00083316,0.00320874,0.00233906,0.00427898,-0.0019034,1.14168,0.00365618,0.0153527,1112,1737,8.46121,-59.3226
-105,-713,8.44531,59.7233,-0.000498364,0.00311672,0.0021167,0.00409263,-0.00147428,1.13879,0.00333045,0.0122835,1119,1737,8.44537,-59.7233
-98,-713,8.43469,60.1072,-0.000228125,0.00294043,0.00195585,0.00387315,-0.00116084,1.12581,0.00304375,0.011213,1126,1737,8.4347,-60.1071
-91,-713,8.41162,60.47,8.33682e-05,0.00280111,0.00178125,0.00368264,-0.000798158,1.11124,0.00275989,0.0108359,1133,1737,8.41159,-60.47
-84,-713,8.40137,60.8386,0.00035935,0.00244295,0.00149247,0.00322126,-0.000418966,1.0901,0.00229992,0.0101937,1140,1737,8.40142,-60.8386
-77,-713,8.40747,61.1782,0.000690712,0.00215881,0.00125621,0.00287971,-3.01896e-05,1.04981,0.00192995,0.0136694,1147,1737,8.40745,-61.1782
-70,-713,8.41394,61.5026,0.00101988,0.0018207,0.000954986,0.00245582,0.000384758,0.983907,0.00152522,0.0159281,1154,1737,8.41398,-61.5025
-63,-713,8.4115,61.8226,0.00147542,0.00157743,0.000799644,0.0023277,0.000725159,0.817247,0.00137535,0.013934,1161,1737,8.41147,-61.8227
-56,-713,8.41504,62.1174,0.00199816,0.00129577,0.000762024,0.00248603,0.00080791,0.569469,0.00146433,0.0136108,1168,1737,8.41504,-62.1174
-49,-713,8.38086,62.4011,0.00242513,0.000916935,0.000744829,0.00273095,0.000611111,0.389608,0.00165498,0.0159304,1175,1737,8.38082,-62.4011
-42,-713,8.39722,62.6383,0.00289608,0.000530348,0.00085371,0.00317198,0.000254449,0.312581,0.00203514,0.0191701,1182,1737,8.39724,-62.6383
-35,-713,8.44214,62.8773,0.00340644,0.000409097,0.00118431,0.0038179,-2.36474e-06,0.334381,0.00254605,0.0169453,1189,1737,8.44208,-62.8773
-28,-713,8.47083,63.1243,0.00394547,0.000218449,0.00141786,0.00442354,-0.000259623,0.325206,0.00303927,0.0148785,1196,1737,8.47077,-63.1242
-21,-713,8.46875,63.3422,0.00464429,2.91248e-05,0.0016085,0.00514957,-0.000476156,0.304371,0.00360227,0.0106238,1203,1737,8.46881,-63.3422
-14,-713,8.4801,63.5103,0.00531209,-0.000102857,0.00176844,0.00583847,-0.000629236,0.2893,0.00411812,0.0116139,1210,1737,8.48015,-63.5103
-7,-713,8.53186,63.7032,0.00593482,-0.000166988,0.00177699,0.00641459,-0.000646764,0.263706,0.00450748,0.00977558,1217,1737,8.53185,-63.7032
0,-713,8.58044,63.8622,0.00658338,5.26209e-05,0.00183032,0.00706136,-0.000425363,0.255443,0.00485558,0.0140904,1224,1737,8.58047,-63.8622
7,-713,8.6001,64.0044,0.00727186,0.000335839,0.00180846,0.00771507,-0.00010737,0.240338,0.00517954,0.0184681,1231,1737,8.60011,-64.0044
14,-713,8.62622,64.1642,0.00788428,0.000634028,0.00168215,0.00825555,0.00026276,0.217228,0.00541824,0.0139587,1238,1737,8.62618,-64.1642
21,-713,8.67883,64.2659,0.00844512,0.000725007,0.00146341,0.00871321,0.000456916,0.181187,0.00566265,0.0119881,1245,1737,8.67886,-64.2659
28,-713,8.69141,64.3604,0.00878526,0.000522891,0.00128069,0.00897922,0.000328935,0.150305,0.00587957,0.0120404,1252,1737,8.69135,-64.3604
35,-713,8.72546,64.4261,0.00880641,0.000272543,0.00107671,0.00894016,0.000138793,0.123589,0.00591439,0.0115921,1259,1737,8.72541,-64.4261
42,-713,8.7804,64.4695,0.00842546,-0.000194296,0.000739433,0.00848844,-0.000257267,0.0849563,0.00574663,0.0120949,1266,1737,8.78041,-64.4695
49,-713,8.82129,64.4559,0.00773637,-0.000875135,0.000305591,0.0077472,-0.000885966,0.035427,0.00548403,0.0138967,1273,1737,8.82133,-64.4559
56,-713,8.86011,64.465,0.00680703,-0.00172855,-0.000147624,0.00680959,-0.00173111,-0.0172882,0.00521346,0.0163676,1280,1737,8.86016,-64.465
63,-713,8.90601,64.5065,0.00557795,-0.00244954,-0.000633892,0.0056277,-0.00249929,-0.0783182,0.0048066,0.0150411,1287,1737,8.90598,-64.5064
70,-713,8.94275,64.5033,0.00447146,-0.00347782,-0.00113092,0.00462922,-0.00363558,-0.138604,0.00478317,0.0124946,1294,1737,8.94276,-64.5033
77,-713,8.97534,64.4978,0.00310524,-0.00441523,-0.00156685,0.00341862,-0.00472861,-0.197405,0.00472404,0.0128002,1301,1737,8.9753,-64.4978
84,-713,9.02576,64.4828,0.00158229,-0.00512517,-0.00195366,0.00210984,-0.00565272,-0.263739,0.0046347,0.012763,1308,1737,9.0257,-64.4828
91,-713,9.06958,64.4144,0.000437519,-0.00560442,-0.00224296,0.00117915,-0.00634605,-0.31933,0.0046736,0.0128682,1315,1737,9.06961,-64.4144
98,-713,9.09167,64.3113,-0.000483296,-0.00591248,-0.00248935,0.000485302,-0.00688108,-0.371071,0.00475741,0.0129876,1322,1737,9.09171,-64.3113
105,-713,9.11682,64.2401,-0.00114109,-0.0060389,-0.0027752,0.000111204,-0.0072912,-0.423888,0.00489829,0.0154835,1329,1737,9.11682,-64.2401
112,-713,9.14355,64.1436,-0.00153046,-0.00588609,-0.00297008,-2.53106e-05,-0.00739124,-0.46905,0.00491908,0.0151231,1336,1737,9.14354,-64.1435
119,-713,9.15649,64.0038,-0.00159387,-0.00559295,-0.00294675,-3.23034e-05,-0.00715452,-0.487304,0.00475895,0.0146577,1343,1737,9.15654,-64.0037
126,-713,9.20251,63.8593,-0.00159306,-0.00509613,-0.00279039,-5.00346e-05,-0.00663915,-0.505128,0.00440952,0.0147768,1350,1737,9.20248,-63.8593
133,-713,9.25964,63.6376,-0.00139667,-0.0043818,-0.00261492,0.000121671,-0.00590015,-0.526067,0.00397461,0.0136104,1357,1737,9.25963,-63.6376
140,-713,9.31555,63.3876,-0.000983369,-0.00376062,-0.00228455,0.000301473,-0.00504547,-0.512318,0.0034685,0.0137142,1364,1737,9.31556,-63.3876
147,-713,9.32275,63.1808,-0.000386432,-0.00314025,-0.00181736,0.000516721,-0.00404341,-0.461211,0.00288332,0.0145803,1371,1737,9.32276,-63.1807
154,-713,9.323,63.03,0.00023806,-0.00246844,-0.00135003,0.000796318,-0.0030267,-0.392103,0.00232907,0.014086,1378,1737,9.32305,-63.03
161,-713,9.33142,62.7423,0.000824921,-0.00164673,-0.00087143,0.00110126,-0.00192308,-0.307083,0.00176746,0.0115441,1385,1737,9.33142,-62.7423
168,-713,9.35596,62.458,0.00129931,-0.0011275,-0.000536826,0.00141276,-0.00124095,-0.208263,0.00153319,0.011609,1392,1737,9.35591,-62.458
175,-713,9.3866,62.1991,0.00139948,-0.00048454,-0.000448276,0.0015007,-0.000585763,-0.22208,0.00124263,0.0146049,1399,1737,9.38665,-62.1991
182,-713,9.3783,61.9348,0.00170268,0.000110775,-0.000358877,0.00177984,3.36098e-05,-0.211792,0.00117552,0.0130687,1406,1737,9.37827,-61.9349
189,-713,9.36768,61.6157,0.00186265,0.000562786,-0.000367651,0.00195943,0.000466006,-0.257399,0.00118198,0.0119336,1413,1737,9.36771,-61.6157
196,-713,9.39575,61.3073,0.00162679,0.0009086,-0.000638813,0.00200052,0.00053487,-0.529346,0.00119594,0.0122946,1420,1737,9.3957,-61.3072
203,-713,9.41809,60.999,0.00130808,0.00126652,-0.00089255,0.00218009,0.000394507,-0.773761,0.00134137,0.0166956,1427,1737,9.41808,-60.9991
210,-713,9.39966,60.6261,0.000998392,0.00176977,-0.00112931,0.00257744,0.000190726,-0.949951,0.00165838,0.0153389,1434,1737,9.39972,-60.6261
217,-713,9.3855,60.2621,0.00065196,0.00224771,-0.00136173,0.0030281,-0.000128429,-1.0504,0.00206287,0.0126027,1441,1737,9.38547,-60.2621
224,-713,9.375,59.9174,0.000299311,0.00269417,-0.00163905,0.00352659,-0.000533115,-1.10087,0.00254743,0.013249,1448,1737,9.37499,-59.9174
231,-713,9.37354,59.5436,-9.89076e-05,0.00315911,-0.00189816,0.00403144,-0.000971236,-1.14002,0.00306313,0.0124303,1455,1737,9.37349,-59.5436
238,-713,9.35803,59.1096,-0.000463594,0.00359308,-0.00209726,0.00448238,-0.0013529,-1.16975,0.00352681,0.00864583,1462,1737,9.35807,-59.1096
245,-713,9.34351,58.678,-0.000837467,0.00392906,-0.00229607,0.00485517,-0.00176357,-1.18741,0.00395785,0.0110381,1469,1737,9.34356,-58.6779
252,-713,9.32275,58.2433,-0.00130373,0.00429936,-0.00243302,0.00520837,-0.00221274,-1.21324,0.0043994,0.0120246,1476,1737,9.32276,-58.2433
259,-713,9.3031,57.8079,-0.00175835,0.00446077,-0.00257527,0.00538871,-0.00268629,-1.22495,0.00474833,0.0124832,1483,1737,9.30305,-57.8079
266,-713,9.2417,57.3746,-0.00220329,0.00450996,-0.00272972,0.0054798,-0.00317313,-1.22942,0.00505459,0.0114048,1490,1737,9.24164,-57.3747
273,-713,9.20276,56.932,-0.00267959,0.00473271,-0.00291575,0.00574219,-0.00368907,-1.2375,0.00548798,0.00945172,1497,1737,9.20274,-56.932
280,-713,9.17212,56.4619,-0.00325592,0.00486463,-0.00307378,0.0058969,-0.00428819,-1.2468,0.00590476,0.0103027,1504,1737,9.17208,-56.4619
287,-713,9.1333,55.9528,-0.00396751,0.00509024,-0.00326308,0.00614334,-0.0050206,-1.25862,0.00645636,0.0115557,1511,1737,9.13325,-55.9527
294,-713,9.11829,55.442,-0.00490662,0.00585735,-0.00323872,0.00675669,-0.00580596,-1.29994,0.00725997,0.0211309,1518,1737,9.11824,-55.4421
301,-713,8.9751,54.8344,-0.00553627,0.00637761,-0.00353645,0.00734827,-0.00650693,-1.30292,0.00800421,0.03628,1525,1737,8.97509,-54.8343
308,-713,8.86462,54.231,0,0,0,0,0,0,0,-1,1532,1737,8.86466,-54.231
315,-713,8.93994,53.6304,0,0,0,0,0,0,0,-1,1539,1737,8.93999,-53.6304
322,-713,8.92834,52.9701,0,0,0,0,0,0,0,-1,1546,1737,8.92831,-52.9701
329,-713,8.98572,52.73,0,0,0,0,0,0,0,-1,1553,1737,8.98573,-52.73
336,-713,8.89844,52.2579,0,0,0,0,0,0,0,-1,1560,1737,8.8984,-52.2579
343,-713,7.87488,51.417,0,0,0,0,0,0,0,-1,1567,1737,7.87485,-51.417
350,-713,8.63867,47.4143,0,0,0,0,0,0,0,-1,1574,1737,8.6387,-47.4143
357,-713,8.53796,49.5679,0,0,0,0,0,0,0,-1,1581,1737,8.53795,-49.5679
364,-713,7.52661,46.5348,0,0,0,0,0,0,0,-1,1588,1737,7.52664,-46.5347
371,-713,7.3302,45.0861,0,0,0,0,0,0,0,-1,1595,1737,7.33021,-45.0861
378,-713,6.73975,44.3853,0,0,0,0,0,0,0,-1,1602,1737,6.7397,-44.3853
385,-713,6.58777,43.6438,0,0,0,0,0,0,0,-1,1609,1737,6.58781,-43.6438
392,-713,6.62964,42.8679,0,0,0,0,0,0,0,-1,1616,1737,6.62968,-42.868
399,-713,6.53748,42.0555,0,0,0,0,0,0,0,-1,1623,1737,6.53749,-42.0555
406,-713,2.49878,27.8931,0,0,0,0,0,0,0,-1,1630,1737,2.49884,-27.893
413,-713,1.36597,29.459,0,0,0,0,0,0,0,-1,1637,1737,1.36593,-29.459
420,-713,0,0,0,0,0,0,0,0,0,-1,1644,1737,0,0
427,-713,0,0,0,0,0,0,0,0,0,-1,1651,1737,0,0
434,-713,0,0,0,0,0,0,0,0,0,-1,1658,1737,0,0
441,-713,0,0,0,0,0,0,0,0,0,-1,1665,1737,0,0
448,-713,0,0,0,0,0,0,0,0,0,-1,1672,1737,0,0
455,-713,0,0,0,0,0,0,0,0,0,-1,1679,1737,0,0
462,-713,0,0,0,0,0,0,0,0,0,-1,1686,1737,0,0
469,-713,0,0,0,0,0,0,0,0,0,-1,1693,1737,0,0
476,-713,0,0,0,0,0,0,0,0,0,-1,1700,1737,0,0
483,-713,0,0,0,0,0,0,0,0,0,-1,1707,1737,0,0
490,-713,0,0,0,0,0,0,0,0,0,-1,1714,1737,0,0
497,-713,0,0,0,0,0,0,0,0,0,-1,1721,1737,0,0
504,-713,0,0,0,0,0,0,0,0,0,-1,1728,1737,0,0
511,-713,0,0,0,0,0,0,0,0,0,-1,1735,1737,0,0
518,-713,0,0,0,0,0,0,0,0,0,-1,1742,1737,0,0
525,-713,0,0,0,0,0,0,0,0,0,-1,1749,1737,0,0
532,-713,0,0,0,0,0,0,0,0,0,-1,1756,1737,0,0
539,-713,0,0,0,0,0,0,0,0,0,-1,1763,1737,0,0
546,-713,0,0,0,0,0,0,0,0,0,-1,1770,1737,0,0
553,-713,0,0,0,0,0,0,0,0,0,-1,1777,1737,0,0
560,-713,0,0,0,0,0,0,0,0,0,-1,1784,1737,0,0
567,-713,0,0,0,0,0,0,0,0,0,-1,1791,1737,0,0
574,-713,0,0,0,0,0,0,0,0,0,-1,1798,1737,0,0
581,-713,0,0,0,0,0,0,0,0,0,-1,1805,1737,0,0
588,-713,0,0,0,0,0,0,0,0,0,-1,1812,1737,0,0
595,-713,0,0,0,0,0,0,0,0,0,-1,1819,1737,0,0
602,-713,0,0,0,0,0,0,0,0,0,-1,1826,1737,0,0
609,-713,0,0,0,0,0,0,0,0,0,-1,1833,1737,0,0
616,-713,0,0,0,0,0,0,0,0,0,-1,1840,1737,0,0
623,-713,0,0,0,0,0,0,0,0,0,-1,1847,1737,0,0
630,-713,0,0,0,0,0,0,0,0,0,-1,1854,1737,0,0
637,-713,0,0,0,0,0,0,0,0,0,-1,1861,1737,0,0
644,-713,0,0,0,0,0,0,0,0,0,-1,1868,1737,0,0
651,-713,0,0,0,0,0,0,0,0,0,-1,1875,1737,0,0
658,-713,0,0,0,0,0,0,0,0,0,-1,1882,1737,0,0
665,-713,0,0,0,0,0,0,0,0,0,-1,1889,1737,0,0
672,-713,0,0,0,0,0,0,0,0,0,-1,1896,1737,0,0
679,-713,0,0,0,0,0,0,0,0,0,-1,1903,1737,0,0
686,-713,0,0,0,0,0,0,0,0,0,-1,1910,1737,0,0
693,-713,0,0,0,0,0,0,0,0,0,-1,1917,1737,0,0
700,-713,0,0,0,0,0,0,0,0,0,-1,1924,1737,0,0
707,-713,0,0,0,0,0,0,0,0,0,-1,1931,1737,0,0
714,-713,0,0,0,0,0,0,0,0,0,-1,1938,1737,0,0
721,-713,0,0,0,0,0,0,0,0,0,-1,1945,1737,0,0
728,-713,0,0,0,0,0,0,0,0,0,-1,1952,1737,0,0
735,-713,0,0,0,0,0,0,0,0,0,-1,1959,1737,0,0
742,-713,0,0,0,0,0,0,0,0,0,-1,1966,1737,0,0
749,-713,0,0,0,0,0,0,0,0,0,-1,1973,1737,0,0
756,-713,0,0,0,0,0,0,0,0,0,-1,1980,1737,0,0
763,-713,0,0,0,0,0,0,0,0,0,-1,1987,1737,0,0
770,-713,0,0,0,0,0,0,0,0,0,-1,1994,1737,0,0
777,-713,0,0,0,0,0,0,0,0,0,-1,2001,1737,0,0
784,-713,0,0,0,0,0,0,0,0,0,-1,2008,1737,0,0
791,-713,0,0,0,0,0,0,0,0,0,-1,2015,1737,0,0
798,-713,0,0,0,0,0,0,0,0,0,-1,2022,1737,0,0
805,-713,0,0,0,0,0,0,0,0,0,-1,2029,1737,0,0
812,-713,0,0,0,0,0,0,0,0,0,-1,2036,1737,0,0
-700,-720,0,0,0,0,0,0,0,0,0,-1,524,1744,0,0
-693,-720,0,0,0,0,0,0,0,0,0,-1,531,1744,0,0
-686,-720,0,0,0,0,0,0,0,0,0,-1,538,1744,0,0
-679,-720,0,0,0,0,0,0,0,0,0,-1,545,1744,0,0
-672,-720,0,0,0,0,0,0,0,0,0,-1,552,1744,0,0
-665,-720,0,0,0,0,0,0,0,0,0,-1,559,1744,0,0
-658,-720,0,0,0,0,0,0,0,0,0,-1,566,1744,0,0
-651,-720,0,0,0,0,0,0,0,0,0,-1,573,1744,0,0
-644,-720,0,0,0,0,0,0,0,0,0,-1,580,1744,0,0
-637,-720,0,0,0,0,0,0,0,0,0,-1,587,1744,0,0
-630,-720,0,0,0,0,0,0,0,0,0,-1,594,1744,0,0
-623,-720,0,0,0,0,0,0,0,0,0,-1,601,1744,0,0
-616,-720,0,0,0,0,0,0,0,0,0,-1,608,1744,0,0
-609,-720,0,0,0,0,0,0,0,0,0,-1,615,1744,0,0
-602,-720,0,0,0,0,0,0,0,0,0,-1,622,1744,0,0
-595,-720,0,0,0,0,0,0,0,0,0,-1,629,1744,0,0
-588,-720,0,0,0,0,0,0,0,0,0,-1,636,1744,0,0
-581,-720,0,0,0,0,0,0,0,0,0,-1,643,1744,0,0
-574,-720,0,0,0,0,0,0,0,0,0,-1,650,1744,0,0
-567,-720,0,0,0,0,0,0,0,0,0,-1,657,1744,0,0
-560,-720,0,0,0,0,0,0,0,0,0,-1,664,1744,0,0
-553,-720,0,0,0,0,0,0,0,0,0,-1,671,1744,0,0
-546,-720,0,0,0,0,0,0,0,0,0,-1,678,1744,0,0
-539,-720,0,0,0,0,0,0,0,0,0,-1,685,1744,0,0
-532,-720,0,0,0,0,0,0,0,0,0,-1,692,1744,0,0
-525,-720,0,0,0,0,0,0,0,0,0,-1,699,1744,0,0
-518,-720,0,0,0,0,0,0,0,0,0,-1,706,1744,0,0
-511,-720,0,0,0,0,0,0,0,0,0,-1,713,1744,0,0
-504,-720,0,0,0,0,0,0,0,0,0,-1,720,1744,0,0
-497,-720,0,0,0,0,0,0,0,0,0,-1,727,1744,0,0
-490,-720,0,0,0,0,0,0,0,0,0,-1,734,1744,0,0
-483,-720,0,0,0,0,0,0,0,0,0,-1,741,1744,0,0
-476,-720,0,0,0,0,0,0,0,0,0,-1,748,1744,0,0
-469,-720,0,0,0,0,0,0,0,0,0,-1,755,1744,0,0
-462,-720,0,0,0,0,0,0,0,0,0,-1,762,1744,0,0
-455,-720,0,0,0,0,0,0,0,0,0,-1,769,1744,0,0
-448,-720,0,0,0,0,0,0,0,0,0,-1,776,1744,0,0
-441,-720,0,0,0,0,0,0,0,0,0,-1,783,1744,0,0
-434,-720,0,0,0,0,0,0,0,0,0,-1,790,1744,0,0
-427,-720,0,0,0,0,0,0,0,0,0,-1,797,1744,0,0
-420,-720,0,0,0,0,0,0,0,0,0,-1,804,1744,0,0
-413,-720,0,0,0,0,0,0,0,0,0,-1,811,1744,0,0
-406,-720,0,0,0,0,0,0,0,0,0,-1,818,1744,0,0
-399,-720,0,0,0,0,0,0,0,0,0,-1,825,1744,0,0
-392,-720,0,0,0,0,0,0,0,0,0,-1,832,1744,0,0
-385,-720,0,0,0,0,0,0,0,0,0,-1,839,1744,0,0
-378,-720,0,0,0,0,0,0,0,0,0,-1,846,1744,0,0
-371,-720,0,0,0,0,0,0,0,0,0,-1,853,1744,0,0
-364,-720,0,0,0,0,0,0,0,0,0,-1,860,1744,0,0
-357,-720,0,0,0,0,0,0,0,0,0,-1,867,1744,0,0
-350,-720,0,0,0,0,0,0,0,0,0,-1,874,1744,0,0
-343,-720,0,0,0,0,0,0,0,0,0,-1,881,1744,0,0
-336,-720,0,0,0,0,0,0,0,0,0,-1,888,1744,0,0
-329,-720,0,0,0,0,0,0,0,0,0,-1,895,1744,0,0
-322,-720,0,0,0,0,0,0,0,0,0,-1,902,1744,0,0
-315,-720,0,0,0,0,0,0,0,0,0,-1,909,1744,0,0
-308,-720,0,0,0,0,0,0,0,0,0,-1,916,1744,0,0
-301,-720,0,0,0,0,0,0,0,0,0,-1,923,1744,0,0
-294,-720,0,0,0,0,0,0,0,0,0,-1,930,1744,0,0
-287,-720,0,0,0,0,0,0,0,0,0,-1,937,1744,0,0
-280,-720,6.46796,22.6417,0,0,0,0,0,0,0,-1,944,1744,6.46793,-22.6417
-273,-720,8.54633,13.262,0,0,0,0,0,0,0,-1,951,1744,8.54636,-13.2619
-266,-720,7.28027,13.3165,0,0,0,0,0,0,0,-1,958,1744,7.28026,-13.3166
-259,-720,3.70563,18.6372,0,0,0,0,0,0,0,-1,965,1744,3.70564,-18.6372
-252,-720,4.00989,18.5059,0,0,0,0,0,0,0,-1,972,1744,4.00988,-18.5058
-245,-720,7.05634,33.8489,0,0,0,0,0,0,0,-1,979,1744,7.05634,-33.8489
-238,-720,5.02216,24.1455,0,0,0,0,0,0,0,-1,986,1744,5.02217,-24.1455
-231,-720,9.45819,50.8396,0,0,0,0,0,0,0,-1,993,1744,9.45816,-50.8396
-224,-720,8.57257,52.1987,0,0,0,0,0,0,0,-1,1000,1744,8.57257,-52.1987
-217,-720,9.71533,51.6116,0,0,0,0,0,0,0,-1,1007,1744,9.7153,-51.6116
-210,-720,8.74036,38.6686,0,0,0,0,0,0,0,-1,1014,1744,8.74035,-38.6686
-203,-720,10.1962,49.0282,0,0,0,0,0,0,0,-1,1021,1744,10.1962,-49.0282
-196,-720,9.16296,53.4498,0,0,0,0,0,0,0,-1,1028,1744,9.1629,-53.4499
-189,-720,9.17749,53.9799,0,0,0,0,0,0,0,-1,1035,1744,9.17748,-53.9799
-182,-720,9.23291,54.4939,-0.00166848,0.00738449,0.00940535,0.0132959,-0.0075799,1.00967,0.0122023,0.0489661,1042,1744,9.23297,-54.4939
-175,-720,9.26367,55.0179,-0.00178567,0.00656289,0.00806404,0.011469,-0.00669177,1.02423,0.0106054,0.0441128,1049,1744,9.26362,-55.018
-168,-720,9.28479,55.5792,-0.00187957,0.00625149,0.00718653,0.0104428,-0.00607083,1.04281,0.00964486,0.0382215,1056,1744,9.28478,-55.5793
-161,-720,9.0968,56.1387,-0.00187465,0.00633523,0.00646702,0.00989012,-0.00542953,1.06819,0.00896891,0.0277562,1063,1744,9.09679,-56.1387
-154,-720,9.12427,56.6849,-0.00206419,0.00625113,0.00579287,0.00922393,-0.00503699,1.09666,0.008351,0.0223976,1070,1744,9.12432,-56.685
-147,-720,9.08179,57.2372,-0.00221458,0.00592562,0.00523996,0.00849049,-0.00477945,1.1156,0.00776063,0.0236819,1077,1744,9.08184,-57.2372
-140,-720,9.0426,57.6973,-0.00213818,0.00562726,0.00471374,0.00785149,-0.00436241,1.12991,0.00714696,0.020366,1084,1744,9.04258,-57.6973
-133,-720,8.96252,58.08,-0.00217465,0.00535094,0.00424931,0.00726399,-0.0040877,1.14777,0.00663887,0.0160722,1091,1744,8.96253,-58.08
-126,-720,8.94714,58.4908,-0.00236179,0.00515542,0.00396159,0.00685771,-0.00406407,1.16495,0.00637408,0.0158236,1098,1744,8.94717,-58.4908
-119,-720,8.89758,58.8806,-0.00240942,0.00488594,0.00369577,0.00643097,-0.00395446,1.17482,0.00605259,0.0162455,1105,1744,8.89761,-58.8806
-112,-720,8.84253,59.3107,-0.00211289,0.00500364,0.0035961,0.00650435,-0.0036136,1.17545,0.00592054,0.0148871,1112,1744,8.84256,-59.3106
-105,-720,8.81763,59.7153,-0.0017906,0.00493267,0.00338531,0.00634188,-0.00319981,1.17634,0.00560757,0.0135566,1119,1744,8.8176,-59.7153
-98,-720,8.7981,60.1094,-0.00156859,0.00476015,0.00324169,0.00612588,-0.00293431,1.17206,0.00533799,0.010369,1126,1744,8.79806,-60.1094
-91,-720,8.77295,60.4739,-0.00129175,0.00457831,0.00307324,0.00589289,-0.00260633,1.1666,0.00502783,0.0100323,1133,1744,8.77291,-60.4739
-84,-720,8.75452,60.8616,-0.00109294,0.00393927,0.00271356,0.00512373,-0.0022774,1.15923,0.00437711,0.0113499,1140,1744,8.75446,-60.8616
-77,-720,8.73108,61.2037,-0.000782614,0.00345343,0.0024635,0.00458423,-0.00191342,1.14046,0.00385561,0.0148363,1147,1744,8.73108,-61.2037
-70,-720,8.71753,61.5084,-0.000534499,0.00308833,0.00209202,0.00404418,-0.00149035,1.14222,0.00330681,0.0135447,1154,1744,8.71748,-61.5084
-63,-720,8.69592,61.819,-0.000280687,0.00264976,0.00176455,0.00347812,-0.00110904,1.13189,0.00276363,0.0123698,1161,1744,8.6959,-61.819
-56,-720,8.71533,62.1361,4.62586e-05,0.00217038,0.00142866,0.0028885,-0.00067186,1.10503,0.00218433,0.0135882,1168,1744,8.71529,-62.1361
-49,-720,8.68567,62.4155,0.000276171,0.00171255,0.00107795,0.00228964,-0.000300924,1.07926,0.00163599,0.0181658,1175,1744,8.6857,-62.4156
-42,-720,8.68591,62.6508,0.000568157,0.0013371,0.000864015,0.00189832,6.93317e-06,0.994735,0.00126324,0.0206152,1182,1744,8.68587,-62.6507
-35,-720,8.7002,62.8837,0.000935754,0.00104612,0.000803553,0.00179638,0.000185491,0.81968,0.00114079,0.0202712,1189,1744,8.70015,-62.8837
-28,-720,8.69934,63.1383,0.00130007,0.000741298,0.000779763,0.00184899,0.00019238,0.613375,0.0011738,0.0124424,1196,1744,8.69936,-63.1383
-21,-720,8.68677,63.3695,0.0017456,0.000440442,0.000822115,0.00214266,4.33872e-05,0.449929,0.0014142,0.0100585,1203,1744,8.6868,-63.3695
-14,-720,8.68103,63.5355,0.0022276,0.0002188,0.00087136,0.0025529,-0.000106495,0.357295,0.00173852,0.0118393,1210,1744,8.68098,-63.5355
-7,-720,8.69678,63.7225,0.00268161,5.05024e-05,0.000832193,0.00292273,-0.000190615,0.282016,0.00201503,0.0124655,1217,1744,8.69675,-63.7225
0,-720,8.7113,63.8983,0.00316025,0.000131116,0.000884133,0.00339942,-0.000108057,0.264194,0.00230315,0.0130453,1224,1744,8.71133,-63.8983
7,-720,8.72839,64.0347,0.00367587,0.000276333,0.000892581,0.00389598,5.62281e-05,0.24177,0.00257878,0.0163238,1231,1744,8.72839,-64.0347
14,-720,8.76538,64.1736,0.004152,0.000529117,0.000837777,0.00433635,0.000344765,0.216597,0.00278311,0.0154636,1238,1744,8.76535,-64.1735
21,-720,8.77112,64.2838,0.00458051,0.000659565,0.000742212,0.0047163,0.000523771,0.180957,0.00298497,0.0121802,1245,1744,8.77112,-64.2838
28,-720,8.76379,64.3763,0.0048712,0.000611091,0.000656165,0.00496998,0.000512315,0.149413,0.00315644,0.0117825,1252,1744,8.76381,-64.3764
35,-720,8.79456,64.4528,0.00500613,0.000476379,0.000562691,0.00507498,0.000407527,0.121756,0.00325599,0.0116514,1259,1744,8.79459,-64.4527
42,-720,8.82507,64.5129,0.00491053,0.00022602,0.000391041,0.00494295,0.000193602,0.0827124,0.0032327,0.0123494,1266,1744,8.82511,-64.5129
49,-720,8.8501,64.5018,0.00452486,-0.000145249,0.000114497,0.00452767,-0.000148055,0.0244973,0.00306899,0.0142399,1273,1744,8.85014,-64.5018
56,-720,8.86023,64.5182,0.00403836,-0.000663406,-0.000113248,0.00404108,-0.000666132,-0.0240677,0.00294135,0.0137068,1280,1744,8.86022,-64.5182
63,-720,8.90039,64.533,0.00336479,-0.00107812,-0.000348539,0.00339197,-0.0011053,-0.0778139,0.00270607,0.0142095,1287,1744,8.90038,-64.5329
70,-720,8.94299,64.5212,0.00270739,-0.00166449,-0.000628276,0.00279589,-0.00175299,-0.139936,0.0026492,0.0140777,1294,1744,8.94297,-64.5212
77,-720,8.95044,64.4847,0.00190516,-0.00222575,-0.000876292,0.00208336,-0.00240395,-0.200622,0.00259296,0.016237,1301,1744,8.95048,-64.4847
84,-720,8.97913,64.4167,0.000991715,-0.00259044,-0.0010984,0.00130169,-0.00290042,-0.275057,0.00248393,0.0151894,1308,1744,8.97907,-64.4168
91,-720,9.01221,64.3452,0.000311249,-0.00281408,-0.00121396,0.000727379,-0.00323021,-0.330234,0.00243246,0.0150891,1315,1744,9.01221,-64.3452
98,-720,8.97546,64.2915,-0.00022718,-0.00299312,-0.00129796,0.000286504,-0.0035068,-0.376849,0.00243898,0.0138935,1322,1744,8.97542,-64.2915
105,-720,8.99023,64.2247,-0.000616324,-0.00308344,-0.00142158,3.22864e-05,-0.00373205,-0.428048,0.00249886,0.013127,1329,1744,8.9902,-64.2247
112,-720,9.02332,64.1086,-0.000867229,-0.00302798,-0.00147192,-0.000121747,-0.00377346,-0.46881,0.00247606,0.0129439,1336,1744,9.02337,-64.1087
119,-720,9.03137,63.9722,-0.000971316,-0.00301428,-0.0014021,-0.00025806,-0.00372754,-0.470587,0.00240363,0.0129276,1343,1744,9.03143,-63.9722
126,-720,9.0625,63.8152,-0.000963449,-0.00282899,-0.00125837,-0.000329833,-0.0034626,-0.46646,0.00220669,0.0120606,1350,1744,9.06247,-63.8152
133,-720,9.08936,63.6239,-0.000838602,-0.00246478,-0.00112064,-0.000267157,-0.00303623,-0.47156,0.00194124,0.0130901,1357,1744,9.08937,-63.6239
140,-720,9.14575,63.4512,-0.000661588,-0.0020614,-0.000940109,-0.000189455,-0.00253353,-0.465414,0.00162955,0.0192484,1364,1744,9.14573,-63.4512
147,-720,9.13,63.2485,-0.000418989,-0.00165015,-0.000751068,-6.34658e-05,-0.00200567,-0.442107,0.00131647,0.019869,1371,1744,9.12995,-63.2486
154,-720,9.0708,63.0183,-0.000121238,-0.00119011,-0.000587451,0.000138504,-0.00144985,-0.416308,0.00101589,0.0136581,1378,1744,9.07078,-63.0183
161,-720,9.10791,62.7428,7.33917e-05,-0.000640196,-0.000502098,0.000332556,-0.00089936,-0.476494,0.000735913,0.0107114,1385,1744,9.10786,-62.7428
168,-720,9.10999,62.4773,0.00014225,-0.000271928,-0.000501065,0.000477334,-0.000607013,-0.589439,0.000627538,0.0110672,1392,1744,9.11003,-62.4773
175,-720,9.08862,62.1982,0.000177057,5.12078e-05,-0.000558014,0.000675683,-0.000447418,-0.729253,0.000652871,0.0172928,1399,1744,9.08858,-62.1983
182,-720,9.09558,61.9292,0.000127154,0.00043321,-0.000680065,0.000977251,-0.000416887,-0.896065,0.000826295,0.0160764,1406,1744,9.09559,-61.9292
189,-720,9.08301,61.6346,-3.72448e-06,0.000851488,-0.000940525,0.00145705,-0.000609286,-0.998754,0.00122601,0.0126886,1413,1744,9.08302,-61.6347
196,-720,9.08069,61.3173,-0.000231533,0.0013694,-0.00133478,0.00212534,-0.000987471,-1.0555,0.00183677,0.0135599,1420,1744,9.08075,-61.3172
203,-720,9.05286,60.9814,-0.000497703,0.00206625,-0.00164658,0.00287107,-0.00130252,-1.11617,0.00246569,0.0158232,1427,1744,9.05289,-60.9814
210,-720,9.04504,60.6472,-0.000681407,0.00294558,-0.00190392,0.00376147,-0.0014973,-1.16594,0.00312855,0.0147017,1434,1744,9.04508,-60.6472
217,-720,9.02832,60.2615,-0.000877934,0.00367796,-0.00221782,0.00457928,-0.00177926,-1.18478,0.00378789,0.0141513,1441,1744,9.02837,-60.2614
224,-720,8.99097,59.8767,-0.00110228,0.00428291,-0.00254162,0.005293,-0.00211238,-1.19251,0.00440499,0.0103928,1448,1744,8.99099,-59.8767
231,-720,8.98792,59.5137,-0.00144527,0.00487758,-0.00281583,0.00594977,-0.00251746,-1.20697,0.00502065,0.0105494,1455,1744,8.9879,-59.5137
238,-720,8.9707,59.101,-0.00176047,0.00540187,-0.00301216,0.00650022,-0.00285882,-1.22114,0.0055381,0.0093795,1462,1744,8.97071,-59.101
245,-720,8.93152,58.6989,-0.00208154,0.00576951,-0.00323476,0.00693058,-0.00324261,-1.22618,0.00600076,0.0122391,1469,1744,8.93153,-58.6989
252,-720,8.90918,58.2585,-0.0025401,0.00615188,-0.00340665,0.00732793,-0.00371615,-1.23839,0.00648897,0.0120678,1476,1744,8.9092,-58.2585
259,-720,8.88232,57.8175,-0.00297516,0.00628228,-0.00354453,0.00748354,-0.00417642,-1.24404,0.00682155,0.0104701,1483,1744,8.88233,-57.8175
266,-720,8.83362,57.371,-0.00341747,0.00628869,-0.00367711,0.00752442,-0.0046532,-1.2466,0.00709559,0.00861927,1490,1744,8.83356,-57.371
273,-720,8.7782,56.9253,-0.00391116,0.00648799,-0.0038852,0.0077792,-0.00520237,-1.24994,0.00754397,0.0137814,1497,1744,8.77818,-56.9253
280,-720,8.67798,56.4537,-0.00451178,0.00660745,-0.0040722,0.00793929,-0.00584362,-1.25471,0.00798817,0.0199223,1504,1744,8.67802,-56.4538
287,-720,8.61804,55.9072,-0.00531004,0.00687646,-0.00432523,0.00825551,-0.00668909,-1.26215,0.00864406,0.0330949,1511,1744,8.61802,-55.9073
294,-720,8.66907,55.3988,0,0,0,0,0,0,0,-1,1518,1744,8.6691,-55.3988
301,-720,8.38721,54.7046,0,0,0,0,0,0,0,-1,1525,1744,8.38725,-54.7046
308,-720,8.48608,51.5551,0,0,0,0,0,0,0,-1,1532,1744,8.48612,-51.555
315,-720,8.66516,48.6633,0,0,0,0,0,0,0,-1,1539,1744,8.6651,-48.6633
322,-720,8.98181,43.5223,0,0,0,0,0,0,0,-1,1546,1744,8.98176,-43.5223
329,-720,9.15906,34.7668,0,0,0,0,0,0,0,-1,1553,1744,9.1591,-34.7669
336,-720,6.14148,26.5682,0,0,0,0,0,0,0,-1,1560,1744,6.14151,-26.5683
343,-720,6.78552,21.3625,0,0,0,0,0,0,0,-1,1567,1744,6.78551,-21.3625
350,-720,4.0741,11.1836,0,0,0,0,0,0,0,-1,1574,1744,4.07412,-11.1836
357,-720,6.90833,21.4504,0,0,0,0,0,0,0,-1,1581,1744,6.90827,-21.4505
364,-720,6.59497,44.1384,0,0,0,0,0,0,0,-1,1588,1744,6.59492,-44.1385
371,-720,6.67773,45.2386,0,0,0,0,0,0,0,-1,1595,1744,6.67779,-45.2386
378,-720,3.88257,25.5404,0,0,0,0,0,0,0,-1,1602,1744,3.88262,-25.5404
385,-720,4.672,37.3854,0,0,0,0,0,0,0,-1,1609,1744,4.67202,-37.3854
392,-720,4.89319,36.2684,0,0,0,0,0,0,0,-1,1616,1744,4.89323,-36.2684
399,-720,2.37317,24.7166,0,0,0,0,0,0,0,-1,1623,1744,2.37317,-24.7166
406,-720,0,0,0,0,0,0,0,0,0,-1,1630,1744,0,0
413,-720,0,0,0,0,0,0,0,0,0,-1,1637,1744,0,0
420,-720,0,0,0,0,0,0,0,0,0,-1,1644,1744,0,0
427,-720,0,0,0,0,0,0,0,0,0,-1,1651,1744,0,0
434,-720,0,0,0,0,0,0,0,0,0,-1,1658,1744,0,0
441,-720,0,0,0,0,0,0,0,0,0,-1,1665,1744,0,0
448,-720,0,0,0,0,0,0,0,0,0,-1,1672,1744,0,0
455,-720,0,0,0,0,0,0,0,0,0,-1,1679,1744,0,0
462,-720,0,0,0,0,0,0,0,0,0,-1,1686,1744,0,0
469,-720,0,0,0,0,0,0,0,0,0,-1,1693,1744,0,0
476,-720,0,0,0,0,0,0,0,0,0,-1,1700,1744,0,0
483,-720,0,0,0,0,0,0,0,0,0,-1,1707,1744,0,0
490,-720,0,0,0,0,0,0,0,0,0,-1,1714,1744,0,0
497,-720,0,0,0,0,0,0,0,0,0,-1,1721,1744,0,0
504,-720,0,0,0,0,0,0,0,0,0,-1,1728,1744,0,0
511,-720,0,0,0,0,0,0,0,0,0,-1,1735,1744,0,0
518,-720,0,0,0,0,0,0,0,0,0,-1,1742,1744,0,0
525,-720,0,0,0,0,0,0,0,0,0,-1,1749,1744,0,0
532,-720,0,0,0,0,0,0,0,0,0,-1,1756,1744,0,0
539,-720,0,0,0,0,0,0,0,0,0,-1,1763,1744,0,0
546,-720,0,0,0,0,0,0,0,0,0,-1,1770,1744,0,0
553,-720,0,0,0,0,0,0,0,0,0,-1,1777,1744,0,0
560,-720,0,0,0,0,0,0,0,0,0,-1,1784,1744,0,0
567,-720,0,0,0,0,0,0,0,0,0,-1,1791,1744,0,0
574,-720,0,0,0,0,0,0,0,0,0,-1,1798,1744,0,0
581,-720,0,0,0,0,0,0,0,0,0,-1,1805,1744,0,0
588,-720,0,0,0,0,0,0,0,0,0,-1,1812,1744,0,0
595,-720,0,0,0,0,0,0,0,0,0,-1,1819,1744,0,0
602,-720,0,0,0,0,0,0,0,0,0,-1,1826,1744,0,0
609,-720,0,0,0,0,0,0,0,0,0,-1,1833,1744,0,0
616,-720,0,0,0,0,0,0,0,0,0,-1,1840,1744,0,0
623,-720,0,0,0,0,0,0,0,0,0,-1,1847,1744,0,0
630,-720,0,0,0,0,0,0,0,0,0,-1,1854,1744,0,0
637,-720,0,0,0,0,0,0,0,0,0,-1,1861,1744,0,0
644,-720,0,0,0,0,0,0,0,0,0,-1,1868,1744,0,0
651,-720,0,0,0,0,0,0,0,0,0,-1,1875,1744,0,0
658,-720,0,0,0,0,0,0,0,0,0,-1,1882,1744,0,0
665,-720,0,0,0,0,0,0,0,0,0,-1,1889,1744,0,0
672,-720,0,0,0,0,0,0,0,0,0,-1,1896,1744,0,0
679,-720,0,0,0,0,0,0,0,0,0,-1,1903,1744,0,0
686,-720,0,0,0,0,0,0,0,0,0,-1,1910,1744,0,0
693,-720,0,0,0,0,0,0,0,0,0,-1,1917,1744,0,0
700,-720,0,0,0,0,0,0,0,0,0,-1,1924,1744,0,0
707,-720,0,0,0,0,0,0,0,0,0,-1,1931,1744,0,0
714,-720,0,0,0,0,0,0,0,0,0,-1,1938,1744,0,0
721,-720,0,0,0,0,0,0,0,0,0,-1,1945,1744,0,0
728,-720,0,0,0,0,0,0,0,0,0,-1,1952,1744,0,0
735,-720,0,0,0,0,0,0,0,0,0,-1,1959,1744,0,0
742,-720,0,0,0,0,0,0,0,0,0,-1,1966,1744,0,0
749,-720,0,0,0,0,0,0,0,0,0,-1,1973,1744,0,0
756,-720,0,0,0,0,0,0,0,0,0,-1,1980,1744,0,0
763,-720,0,0,0,0,0,0,0,0,0,-1,1987,1744,0,0
770,-720,0,0,0,0,0,0,0,0,0,-1,1994,1744,0,0
777,-720,0,0,0,0,0,0,0,0,0,-1,2001,1744,0,0
784,-720,0,0,0,0,0,0,0,0,0,-1,2008,1744,0,0
791,-720,0,0,0,0,0,0,0,0,0,-1,2015,1744,0,0
798,-720,0,0,0,0,0,0,0,0,0,-1,2022,1744,0,0
805,-720,0,0,0,0,0,0,0,0,0,-1,2029,1744,0,0
812,-720,0,0,0,0,0,0,0,0,0,-1,2036,1744,0,0
-700,-727,0,0,0,0,0,0,0,0,0,-1,524,1751,0,0
-693,-727,0,0,0,0,0,0,0,0,0,-1,531,1751,0,0
-686,-727,0,0,0,0,0,0,0,0,0,-1,538,1751,0,0
-679,-727,0,0,0,0,0,0,0,0,0,-1,545,1751,0,0
-672,-727,0,0,0,0,0,0,0,0,0,-1,552,1751,0,0
-665,-727,0,0,0,0,0,0,0,0,0,-1,559,1751,0,0
-658,-727,0,0,0,0,0,0,0,0,0,-1,566,1751,0,0
-651,-727,0,0,0,0,0,0,0,0,0,-1,573,1751,0,0
-644,-727,0,0,0,0,0,0,0,0,0,-1,580,1751,0,0
-637,-727,0,0,0,0,0,0,0,0,0,-1,587,1751,0,0
-630,-727,0,0,0,0,0,0,0,0,0,-1,594,1751,0,0
-623,-727,0,0,0,0,0,0,0,0,0,-1,601,1751,0,0
-616,-727,0,0,0,0,0,0,0,0,0,-1,608,1751,0,0
-609,-727,0,0,0,0,0,0,0,0,0,-1,615,1751,0,0
-602,-727,0,0,0,0,0,0,0,0,0,-1,622,1751,0,0
-595,-727,0,0,0,0,0,0,0,0,0,-1,629,1751,0,0
-588,-727,0,0,0,0,0,0,0,0,0,-1,636,1751,0,0
-581,-727,0,0,0,0,0,0,0,0,0,-1,643,1751,0,0
-574,-727,0,0,0,0,0,0,0,0,0,-1,650,1751,0,0
-567,-727,0,0,0,0,0,0,0,0,0,-1,657,1751,0,0
-560,-727,0,0,0,0,0,0,0,0,0,-1,664,1751,0,0
-553,-727,0,0,0,0,0,0,0,0,0,-1,671,1751,0,0
-546,-727,0,0,0,0,0,0,0,0,0,-1,678,1751,0,0
-539,-727,0,0,0,0,0,0,0,0,0,-1,685,1751,0,0
-532,-727,0,0,0,0,0,0,0,0,0,-1,692,1751,0,0
-525,-727,0,0,0,0,0,0,0,0,0,-1,699,1751,0,0
-518,-727,0,0,0,0,0,0,0,0,0,-1,706,1751,0,0
-511,-727,0,0,0,0,0,0,0,0,0,-1,713,1751,0,0
-504,-727,0,0,0,0,0,0,0,0,0,-1,720,1751,0,0
-497,-727,0,0,0,0,0,0,0,0,0,-1,727,1751,0,0
-490,-727,0,0,0,0,0,0,0,0,0,-1,734,1751,0,0
-483,-727,0,0,0,0,0,0,0,0,0,-1,741,1751,0,0
-476,-727,0,0,0,0,0,0,0,0,0,-1,748,1751,0,0
-469,-727,0,0,0,0,0,0,0,0,0,-1,755,1751,0,0
-462,-727,0,0,0,0,0,0,0,0,0,-1,762,1751,0,0
-455,-727,0,0,0,0,0,0,0,0,0,-1,769,1751,0,0
-448,-727,0,0,0,0,0,0,0,0,0,-1,776,1751,0,0
-441,-727,0,0,0,0,0,0,0,0,0,-1,783,1751,0,0
-434,-727,0,0,0,0,0,0,0,0,0,-1,790,1751,0,0
-427,-727,0,0,0,0,0,0,0,0,0,-1,797,1751,0,0
-420,-727,0,0,0,0,0,0,0,0,0,-1,804,1751,0,0
-413,-727,0,0,0,0,0,0,0,0,0,-1,811,1751,0,0
-406,-727,0,0,0,0,0,0,0,0,0,-1,818,1751,0,0
-399,-727,0,0,0,0,0,0,0,0,0,-1,825,1751,0,0
-392,-727,0,0,0,0,0,0,0,0,0,-1,832,1751,0,0
-385,-727,0,0,0,0,0,0,0,0,0,-1,839,1751,0,0
-378,-727,0,0,0,0,0,0,0,0,0,-1,846,1751,0,0
-371,-727,0,0,0,0,0,0,0,0,0,-1,853,1751,0,0
-364,-727,0,0,0,0,0,0,0,0,0,-1,860,1751,0,0
-357,-727,0,0,0,0,0,0,0,0,0,-1,867,1751,0,0
-350,-727,0,0,0,0,0,0,0,0,0,-1,874,1751,0,0
-343,-727,0,0,0,0,0,0,0,0,0,-1,881,1751,0,0
-336,-727,0,0,0,0,0,0,0,0,0,-1,888,1751,0,0
-329,-727,0,0,0,0,0,0,0,0,0,-1,895,1751,0,0
-322,-727,0,0,0,0,0,0,0,0,0,-1,902,1751,0,0
-315,-727,0,0,0,0,0,0,0,0,0,-1,909,1751,0,0
-308,-727,0,0,0,0,0,0,0,0,0,-1,916,1751,0,0
-301,-727,0,0,0,0,0,0,0,0,0,-1,923,1751,0,0
-294,-727,0,0,0,0,0,0,0,0,0,-1,930,1751,0,0
-287,-727,0,0,0,0,0,0,0,0,0,-1,937,1751,0,0
-280,-727,0,0,0,0,0,0,0,0,0,-1,944,1751,0,0
-273,-727,0,0,0,0,0,0,0,0,0,-1,951,1751,0,0
-266,-727,4.24805,7.61145,0,0,0,0,0,0,0,-1,958,1751,4.24802,-7.6115
-259,-727,3.65228,5.4082,0,0,0,0,0,0,0,-1,965,1751,3.65229,-5.40818
-252,-727,5.8797,32.9292,0,0,0,0,0,0,0,-1,972,1751,5.87972,-32.9292
-245,-727,6.59198,32.2588,0,0,0,0,0,0,0,-1,979,1751,6.59195,-32.2587
-238,-727,6.6189,30.4597,0,0,0,0,0,0,0,-1,986,1751,6.61889,-30.4598
-231,-727,9.95819,51.5021,0,0,0,0,0,0,0,-1,993,1751,9.95818,-51.5021
-224,-727,10.0845,52.0088,0,0,0,0,0,0,0,-1,1000,1751,10.0845,-52.0088
-217,-727,10.2109,52.5154,0,0,0,0,0,0,0,-1,1007,1751,10.2109,-52.5154
-210,-727,5.0921,32.4524,0,0,0,0,0,0,0,-1,1014,1751,5.09209,-32.4523
-203,-727,14.1763,48.6819,0,0,0,0,0,0,0,-1,1021,1751,14.1763,-48.6819
-196,-727,13.0454,48.5956,0,0,0,0,0,0,0,-1,1028,1751,13.0455,-48.5955
-189,-727,10.3168,48.1697,0,0,0,0,0,0,0,-1,1035,1751,10.3168,-48.1697
-182,-727,9.7688,54.5945,0,0,0,0,0,0,0,-1,1042,1751,9.76886,-54.5945
-175,-727,9.73682,55.007,0,0,0,0,0,0,0,-1,1049,1751,9.73681,-55.0069
-168,-727,9.70056,55.6058,0,0,0,0,0,0,0,-1,1056,1751,9.70057,-55.6058
-161,-727,9.43506,56.2295,0,0,0,0,0,0,0,-1,1063,1751,9.43505,-56.2295
-154,-727,9.60535,56.6176,0,0,0,0,0,0,0,-1,1070,1751,9.60537,-56.6176
-147,-727,9.62415,57.2798,0,0,0,0,0,0,0,-1,1077,1751,9.62411,-57.2797
-140,-727,9.2937,57.4341,-0.0027182,0.00806294,0.00638015,0.0110249,-0.00568015,1.13616,0.00980783,0.0343306,1084,1751,9.2937,-57.4341
-133,-727,9.38647,57.9453,-0.00295204,0.00776317,0.00584618,0.0103354,-0.00552424,1.15631,0.00929593,0.0264936,1091,1751,9.3865,-57.9453
-126,-727,9.29968,58.4906,-0.00333601,0.00752128,0.00552303,0.00983693,-0.00565166,1.17379,0.00905051,0.0192804,1098,1751,9.29966,-58.4906
-119,-727,9.28857,58.9037,-0.0035352,0.0071368,0.00518826,0.00924331,-0.00564171,1.18512,0.00867732,0.0215174,1105,1751,9.28852,-58.9037
-112,-727,9.21484,59.194,-0.00326396,0.00733303,0.00510798,0.00939426,-0.00532519,1.18725,0.00860584,0.0375285,1112,1751,9.21488,-59.194
-105,-727,9.06946,59.5671,-0.00297092,0.00724733,0.00489094,0.009211,-0.00493459,1.189,0.00829043,0.0342095,1119,1751,9.06952,-59.5672
-98,-727,9.11597,60.089,-0.00281222,0.00702537,0.00473075,0.00893113,-0.00471798,1.18784,0.00800448,0.0152976,1126,1751,9.11595,-60.089
-91,-727,9.11328,60.4695,-0.00258426,0.00673627,0.00453433,0.00857818,-0.00442617,1.18495,0.00763456,0.013113,1133,1751,9.11333,-60.4695
-84,-727,9.08069,60.8428,-0.00248671,0.00572196,0.00406259,0.00739259,-0.00415734,1.18065,0.00675499,0.0128435,1140,1751,9.08063,-60.8428
-77,-727,9.03308,61.1797,-0.00220397,0.00495171,0.00376697,0.00656916,-0.00382142,1.16523,0.00606852,0.0130557,1147,1751,9.03308,-61.1797
-70,-727,9.02173,61.5116,-0.00204987,0.00445978,0.00327292,0.00582078,-0.00341087,1.17671,0.00539009,0.0156085,1154,1751,9.02168,-61.5116
-63,-727,8.99463,61.8304,-0.00195682,0.00400434,0.0028296,0.00513356,-0.00308605,1.19109,0.00479442,0.0120791,1161,1751,8.99466,-61.8305
-56,-727,8.96802,62.1178,-0.00177646,0.00354721,0.00232733,0.00442117,-0.00265042,1.21157,0.00412523,0.0111842,1168,1751,8.96804,-62.1178
-49,-727,8.95239,62.4,-0.00167836,0.0030705,0.00174829,0.0036447,-0.00225256,1.25346,0.00343626,0.0125229,1175,1751,8.9524,-62.4001
-42,-727,8.94446,62.6689,-0.00145173,0.00273528,0.00126837,0.00308954,-0.00180598,1.29844,0.00285863,0.0160823,1182,1751,8.94443,-62.6689
-35,-727,8.88696,62.8948,-0.00110118,0.00244587,0.000811393,0.00262266,-0.00127797,1.35626,0.00229621,0.0161707,1189,1751,8.88701,-62.8947
-28,-727,8.88892,63.1172,-0.000825923,0.00215734,0.000415642,0.00221417,-0.00088275,1.43492,0.00184226,0.00993788,1196,1751,8.88897,-63.1172
-21,-727,8.87744,63.3591,-0.000541786,0.00186559,0.000149765,0.00187487,-0.000551067,1.5089,0.00146848,0.0116166,1203,1751,8.8775,-63.3591
-14,-727,8.87427,63.5453,-0.000215416,0.00164626,-9.79245e-05,0.0016514,-0.000220552,-1.51839,0.00118133,0.0125809,1210,1751,8.87431,-63.5453
-7,-727,8.86743,63.7435,5.09154e-05,0.0013691,-0.000302703,0.00143529,-1.52728e-05,-1.35553,0.000961993,0.0151305,1217,1751,8.86741,-63.7436
0,-727,8.85364,63.9396,0.000317555,0.00131351,-0.000337849,0.0014173,0.000213765,-1.27274,0.000882287,0.0153154,1224,1751,8.85359,-63.9395
7,-727,8.8667,64.0302,0.000645849,0.00133909,-0.000389968,0.00151421,0.000470721,-1.14871,0.000894837,0.0152502,1231,1751,8.86672,-64.0302
14,-727,8.89502,64.1458,0.000993144,0.00165021,-0.000378934,0.0018232,0.000820154,-1.14254,0.00105439,0.0158066,1238,1751,8.89507,-64.1457
21,-727,8.86194,64.2809,0.00127134,0.00186527,-0.000350923,0.00202802,0.00110859,-1.13655,0.00117257,0.0133378,1245,1751,8.86198,-64.2809
28,-727,8.87476,64.3539,0.00148553,0.00203494,-0.000338047,0.00219582,0.00132465,-1.12659,0.00127674,0.0114777,1252,1751,8.87476,-64.3538
35,-727,8.91248,64.4215,0.00168378,0.00222295,-0.00031849,0.00237063,0.0015361,-1.13661,0.00138852,0.0128137,1259,1751,8.91251,-64.4215
42,-727,8.88245,64.4878,0.0017544,0.00237907,-0.000350582,0.00253627,0.0015972,-1.14928,0.00148066,0.0125515,1266,1751,8.88244,-64.4878
49,-727,8.8551,64.5173,0.00162927,0.00244737,-0.000441424,0.00264013,0.00143651,-1.15907,0.00152626,0.0113019,1273,1751,8.85511,-64.5174
56,-727,8.84521,64.5594,0.00147689,0.0024109,-0.000510697,0.00263592,0.00125186,-1.15577,0.00152249,0.0106032,1280,1751,8.84523,-64.5595
63,-727,8.88525,64.5568,0.00125487,0.00241827,-0.000581551,0.00265911,0.00101403,-1.17816,0.00154958,0.0123453,1287,1751,8.88528,-64.5568
70,-727,8.93481,64.517,0.000925358,0.00233537,-0.000701503,0.00262492,0.000635809,-1.17934,0.00158121,0.0145112,1294,1751,8.93487,-64.5169
77,-727,8.93762,64.4878,0.00058877,0.00216929,-0.000834845,0.00252858,0.000229475,-1.16438,0.00161468,0.0169307,1301,1751,8.93756,-64.4878
84,-727,8.95325,64.3756,0.000165924,0.00205163,-0.000973158,0.00246377,-0.000246216,-1.17019,0.00173044,0.0175931,1308,1751,8.95327,-64.3757
91,-727,8.94421,64.2858,-0.000201609,0.00196508,-0.00101747,0.00236797,-0.000604498,-1.19377,0.00181404,0.0187616,1315,1751,8.94422,-64.2857
98,-727,8.90283,64.266,-0.000509457,0.00178775,-0.00108441,0.00221878,-0.000940482,-1.19247,0.00187311,0.0160735,1322,1751,8.90289,-64.266
105,-727,8.90002,64.1899,-0.000769768,0.00156736,-0.00116676,0.00205012,-0.00125253,-1.17848,0.00192523,0.0143361,1329,1751,8.89998,-64.19
112,-727,8.91516,64.0879,-0.00105287,0.0013408,-0.00113229,0.00179154,-0.00150361,-1.19195,0.00190487,0.0119255,1336,1751,8.91519,-64.0878
119,-727,8.93188,63.96,-0.00132644,0.00084738,-0.00105065,0.00127217,-0.00175123,-1.18658,0.00175285,0.0102555,1343,1751,8.93184,-63.96
126,-727,8.93787,63.7871,-0.00145235,0.000565075,-0.000888281,0.00090044,-0.00178771,-1.2098,0.00157994,0.0111382,1350,1751,8.93789,-63.7871
133,-727,8.92249,63.6078,-0.00150677,0.000394162,-0.000692892,0.000619913,-0.00173252,-1.25583,0.0014079,0.014566,1357,1751,8.92245,-63.6078
140,-727,8.94556,63.4554,-0.0015732,0.000264959,-0.000539614,0.000411661,-0.0017199,-1.30535,0.00130564,0.021349,1364,1751,8.94554,-63.4555
147,-727,8.94067,63.2755,-0.00158156,0.000224023,-0.000462026,0.000335382,-0.00169292,-1.33428,0.00125543,0.0184522,1371,1751,8.94072,-63.2755
154,-727,8.89197,62.9913,-0.00150116,0.000195975,-0.00045334,0.00030948,-0.00161466,-1.32546,0.00119306,0.0125715,1378,1751,8.89191,-62.9913
161,-727,8.88135,62.7424,-0.00146554,0.00022064,-0.000495809,0.000355624,-0.00160052,-1.30499,0.0012032,0.0102547,1385,1751,8.88136,-62.7425
168,-727,8.83704,62.5017,-0.00157952,0.000363663,-0.000650453,0.000561293,-0.00177715,-1.27583,0.00140962,0.0130173,1392,1751,8.83704,-62.5017
175,-727,8.82068,62.2294,-0.00148426,0.000318287,-0.000859506,0.000662423,-0.0018284,-1.18996,0.00148967,0.0194834,1399,1751,8.82063,-62.2293
182,-727,8.84143,61.9456,-0.0016438,0.000556431,-0.00114499,0.00104416,-0.00213153,-1.1681,0.00186897,0.0202964,1406,1751,8.8414,-61.9456
189,-727,8.79651,61.624,-0.00177829,0.000996753,-0.00154466,0.00168557,-0.00246711,-1.15133,0.00241166,0.012049,1413,1751,8.79651,-61.6241
196,-727,8.76392,61.3024,-0.00199169,0.00172833,-0.00209134,0.00266713,-0.00293049,-1.14886,0.00323298,0.0137706,1420,1751,8.76389,-61.3023
203,-727,8.72742,60.974,-0.00223849,0.00282224,-0.00246918,0.00382735,-0.0032436,-1.18422,0.00408705,0.0171112,1427,1751,8.72746,-60.974
210,-727,8.71472,60.6423,-0.00229556,0.00416632,-0.00275056,0.00517855,-0.0033078,-1.21817,0.00493912,0.0179615,1434,1751,8.71472,-60.6423
217,-727,8.68188,60.2742,-0.0023295,0.00517069,-0.0031661,0.00632849,-0.0034873,-1.22022,0.00574574,0.0134096,1441,1751,8.68192,-60.2742
224,-727,8.62378,59.8564,-0.00241563,0.0059612,-0.0035408,0.00725732,-0.00371174,-1.21989,0.00644232,0.0132003,1448,1751,8.62383,-59.8565
231,-727,8.59705,59.4821,-0.00270298,0.00672328,-0.00385837,0.00810118,-0.00408088,-1.22779,0.00715984,0.0117183,1455,1751,8.59705,-59.4821
238,-727,8.59851,58.9978,-0.00296114,0.00737947,-0.00409071,0.00880203,-0.00438371,-1.23612,0.00775395,0.0231013,1462,1751,8.59848,-58.9977
245,-727,8.66687,58.5192,-0.00321099,0.0078331,-0.00436555,0.0093503,-0.0047282,-1.23631,0.00827296,0.0436456,1469,1751,8.66685,-58.5192
252,-727,8.55347,58.1544,-0.00364838,0.00825913,-0.00460805,0.00983407,-0.00522332,-1.24146,0.0088282,0.0468557,1476,1751,8.55349,-58.1545
259,-727,8.45789,57.7083,-0.00406218,0.0083749,-0.00476406,0.00999004,-0.00567731,-1.24393,0.00915907,0.0390734,1483,1751,8.45786,-57.7082
266,-727,8.51318,57.3176,-0.00450525,0.00833159,-0.00488087,0.0099766,-0.00615027,-1.24572,0.00939781,0.0283043,1490,1751,8.51313,-57.3176
273,-727,8.49341,56.9335,-0.00503059,0.00846239,-0.00511607,0.0101829,-0.00675106,-1.24639,0.00984349,0.0371804,1497,1751,8.4934,-56.9334
280,-727,8.28809,56.6187,0,0,0,0,0,0,0,-1,1504,1751,8.28806,-56.6186
287,-727,8.04663,55.9044,0,0,0,0,0,0,0,-1,1511,1751,8.04663,-55.9044
294,-727,8.48657,53.1189,0,0,0,0,0,0,0,-1,1518,1751,8.48656,-53.1189
301,-727,8.44385,46.1619,0,0,0,0,0,0,0,-1,1525,1751,8.4439,-46.1619
308,-727,8.77002,44.8007,0,0,0,0,0,0,0,-1,1532,1751,8.76996,-44.8006
315,-727,8.10571,41.24,0,0,0,0,0,0,0,-1,1539,1751,8.10567,-41.2399
322,-727,8.24133,40.2081,0,0,0,0,0,0,0,-1,1546,1751,8.24136,-40.2082
329,-727,5.54419,31.0325,0,0,0,0,0,0,0,-1,1553,1751,5.54425,-31.0325
336,-727,5.55823,20.2439,0,0,0,0,0,0,0,-1,1560,1751,5.55829,-20.2438
343,-727,2.41699,8.72095,0,0,0,0,0,0,0,-1,1567,1751,2.41702,-8.72098
350,-727,3.89783,7.50195,0,0,0,0,0,0,0,-1,1574,1751,3.89782,-7.50193
357,-727,4.48462,10.2948,0,0,0,0,0,0,0,-1,1581,1751,4.48464,-10.2948
364,-727,6.96729,17.2365,0,0,0,0,0,0,0,-1,1588,1751,6.96732,-17.2365
371,-727,5.04565,23.2227,0,0,0,0,0,0,0,-1,1595,1751,5.04564,-23.2227
378,-727,4.56726,23.0574,0,0,0,0,0,0,0,-1,1602,1751,4.56727,-23.0574
385,-727,3.52307,22.6431,0,0,0,0,0,0,0,-1,1609,1751,3.52303,-22.643
392,-727,0,0,0,0,0,0,0,0,0,-1,1616,1751,0,0
399,-727,0,0,0,0,0,0,0,0,0,-1,1623,1751,0,0
406,-727,0,0,0,0,0,0,0,0,0,-1,1630,1751,0,0
413,-727,0,0,0,0,0,0,0,0,0,-1,1637,1751,0,0
420,-727,0,0,0,0,0,0,0,0,0,-1,1644,1751,0,0
427,-727,0,0,0,0,0,0,0,0,0,-1,1651,1751,0,0
434,-727,0,0,0,0,0,0,0,0,0,-1,1658,1751,0,0
441,-727,0,0,0,0,0,0,0,0,0,-1,1665,1751,0,0
448,-727,0,0,0,0,0,0,0,0,0,-1,1672,1751,0,0
455,-727,0,0,0,0,0,0,0,0,0,-1,1679,1751,0,0
462,-727,0,0,0,0,0,0,0,0,0,-1,1686,1751,0,0
469,-727,0,0,0,0,0,0,0,0,0,-1,1693,1751,0,0
476,-727,0,0,0,0,0,0,0,0,0,-1,1700,1751,0,0
483,-727,0,0,0,0,0,0,0,0,0,-1,1707,1751,0,0
490,-727,0,0,0,0,0,0,0,0,0,-1,1714,1751,0,0
497,-727,0,0,0,0,0,0,0,0,0,-1,1721,1751,0,0
504,-727,0,0,0,0,0,0,0,0,0,-1,1728,1751,0,0
511,-727,0,0,0,0,0,0,0,0,0,-1,1735,1751,0,0
518,-727,0,0,0,0,0,0,0,0,0,-1,1742,1751,0,0
525,-727,0,0,0,0,0,0,0,0,0,-1,1749,1751,0,0
532,-727,0,0,0,0,0,0,0,0,0,-1,1756,1751,0,0
539,-727,0,0,0,0,0,0,0,0,0,-1,1763,1751,0,0
546,-727,0,0,0,0,0,0,0,0,0,-1,1770,1751,0,0
553,-727,0,0,0,0,0,0,0,0,0,-1,1777,1751,0,0
560,-727,0,0,0,0,0,0,0,0,0,-1,1784,1751,0,0
567,-727,0,0,0,0,0,0,0,0,0,-1,1791,1751,0,0
574,-727,0,0,0,0,0,0,0,0,0,-1,1798,1751,0,0
581,-727,0,0,0,0,0,0,0,0,0,-1,1805,1751,0,0
588,-727,0,0,0,0,0,0,0,0,0,-1,1812,1751,0,0
595,-727,0,0,0,0,0,0,0,0,0,-1,1819,1751,0,0
602,-727,0,0,0,0,0,0,0,0,0,-1,1826,1751,0,0
609,-727,0,0,0,0,0,0,0,0,0,-1,1833,1751,0,0
616,-727,0,0,0,0,0,0,0,0,0,-1,1840,1751,0,0
623,-727,0,0,0,0,0,0,0,0,0,-1,1847,1751,0,0
630,-727,0,0,0,0,0,0,0,0,0,-1,1854,1751,0,0
637,-727,0,0,0,0,0,0,0,0,0,-1,1861,1751,0,0
644,-727,0,0,0,0,0,0,0,0,0,-1,1868,1751,0,0
651,-727,0,0,0,0,0,0,0,0,0,-1,1875,1751,0,0
658,-727,0,0,0,0,0,0,0,0,0,-1,1882,1751,0,0
665,-727,0,0,0,0,0,0,0,0,0,-1,1889,1751,0,0
672,-727,0,0,0,0,0,0,0,0,0,-1,1896,1751,0,0
679,-727,0,0,0,0,0,0,0,0,0,-1,1903,1751,0,0
686,-727,0,0,0,0,0,0,0,0,0,-1,1910,1751,0,0
693,-727,0,0,0,0,0,0,0,0,0,-1,1917,1751,0,0
700,-727,0,0,0,0,0,0,0,0,0,-1,1924,1751,0,0
707,-727,0,0,0,0,0,0,0,0,0,-1,1931,1751,0,0
714,-727,0,0,0,0,0,0,0,0,0,-1,1938,1751,0,0
721,-727,0,0,0,0,0,0,0,0,0,-1,1945,1751,0,0
728,-727,0,0,0,0,0,0,0,0,0,-1,1952,1751,0,0
735,-727,0,0,0,0,0,0,0,0,0,-1,1959,1751,0,0
742,-727,0,0,0,0,0,0,0,0,0,-1,1966,1751,0,0
749,-727,0,0,0,0,0,0,0,0,0,-1,1973,1751,0,0
756,-727,0,0,0,0,0,0,0,0,0,-1,1980,1751,0,0
763,-727,0,0,0,0,0,0,0,0,0,-1,1987,1751,0,0
770,-727,0,0,0,0,0,0,0,0,0,-1,1994,1751,0,0
777,-727,0,0,0,0,0,0,0,0,0,-1,2001,1751,0,0
784,-727,0,0,0,0,0,0,0,0,0,-1,2008,1751,0,0
791,-727,0,0,0,0,0,0,0,0,0,-1,2015,1751,0,0
798,-727,0,0,0,0,0,0,0,0,0,-1,2022,1751,0,0
805,-727,0,0,0,0,0,0,0,0,0,-1,2029,1751,0,0
812,-727,0,0,0,0,0,0,0,0,0,-1,2036,1751,0,0
-700,-734,0,0,0,0,0,0,0,0,0,-1,524,1758,0,0
-693,-734,0,0,0,0,0,0,0,0,0,-1,531,1758,0,0
-686,-734,0,0,0,0,0,0,0,0,0,-1,538,1758,0,0
-679,-734,0,0,0,0,0,0,0,0,0,-1,545,1758,0,0
-672,-734,0,0,0,0,0,0,0,0,0,-1,552,1758,0,0
-665,-734,0,0,0,0,0,0,0,0,0,-1,559,1758,0,0
-658,-734,0,0,0,0,0,0,0,0,0,-1,566,1758,0,0
-651,-734,0,0,0,0,0,0,0,0,0,-1,573,1758,0,0
-644,-734,0,0,0,0,0,0,0,0,0,-1,580,1758,0,0
-637,-734,0,0,0,0,0,0,0,0,0,-1,587,1758,0,0
-630,-734,0,0,0,0,0,0,0,0,0,-1,594,1758,0,0
-623,-734,0,0,0,0,0,0,0,0,0,-1,601,1758,0,0
-616,-734,0,0,0,0,0,0,0,0,0,-1,608,1758,0,0
-609,-734,0,0,0,0,0,0,0,0,0,-1,615,1758,0,0
-602,-734,0,0,0,0,0,0,0,0,0,-1,622,1758,0,0
-595,-734,0,0,0,0,0,0,0,0,0,-1,629,1758,0,0
-588,-734,0,0,0,0,0,0,0,0,0,-1,636,1758,0,0
-581,-734,0,0,0,0,0,0,0,0,0,-1,643,1758,0,0
-574,-734,0,0,0,0,0,0,0,0,0,-1,650,1758,0,0
-567,-734,0,0,0,0,0,0,0,0,0,-1,657,1758,0,0
-560,-734,0,0,0,0,0,0,0,0,0,-1,664,1758,0,0
-553,-734,0,0,0,0,0,0,0,0,0,-1,671,1758,0,0
-546,-734,0,0,0,0,0,0,0,0,0,-1,678,1758,0,0
-539,-734,0,0,0,0,0,0,0,0,0,-1,685,1758,0,0
-532,-734,0,0,0,0,0,0,0,0,0,-1,692,1758,0,0
-525,-734,0,0,0,0,0,0,0,0,0,-1,699,1758,0,0
-518,-734,0,0,0,0,0,0,0,0,0,-1,706,1758,0,0
-511,-734,0,0,0,0,0,0,0,0,0,-1,713,1758,0,0
-504,-734,0,0,0,0,0,0,0,0,0,-1,720,1758,0,0
-497,-734,0,0,0,0,0,0,0,0,0,-1,727,1758,0,0
-490,-734,0,0,0,0,0,0,0,0,0,-1,734,1758,0,0
-483,-734,0,0,0,0,0,0,0,0,0,-1,741,1758,0,0
-476,-734,0,0,0,0,0,0,0,0,0,-1,748,1758,0,0
-469,-734,0,0,0,0,0,0,0,0,0,-1,755,1758,0,0
-462,-734,0,0,0,0,0,0,0,0,0,-1,762,1758,0,0
-455,-734,0,0,0,0,0,0,0,0,0,-1,769,1758,0,0
-448,-734,0,0,0,0,0,0,0,0,0,-1,776,1758,0,0
-441,-734,0,0,0,0,0,0,0,0,0,-1,783,1758,0,0
-434,-734,0,0,0,0,0,0,0,0,0,-1,790,1758,0,0
-427,-734,0,0,0,0,0,0,0,0,0,-1,797,1758,0,0
-420,-734,0,0,0,0,0,0,0,0,0,-1,804,1758,0,0
-413,-734,0,0,0,0,0,0,0,0,0,-1,811,1758,0,0
-406,-734,0,0,0,0,0,0,0,0,0,-1,818,1758,0,0
-399,-734,0,0,0,0,0,0,0,0,0,-1,825,1758,0,0
-392,-734,0,0,0,0,0,0,0,0,0,-1,832,1758,0,0
-385,-734,0,0,0,0,0,0,0,0,0,-1,839,1758,0,0
-378,-734,0,0,0,0,0,0,0,0,0,-1,846,1758,0,0
-371,-734,0,0,0,0,0,0,0,0,0,-1,853,1758,0,0
-364,-734,0,0,0,0,0,0,0,0,0,-1,860,1758,0,0
-357,-734,0,0,0,0,0,0,0,0,0,-1,867,1758,0,0
-350,-734,0,0,0,0,0,0,0,0,0,-1,874,1758,0,0
-343,-734,0,0,0,0,0,0,0,0,0,-1,881,1758,0,0
-336,-734,0,0,0,0,0,0,0,0,0,-1,888,1758,0,0
-329,-734,0,0,0,0,0,0,0,0,0,-1,895,1758,0,0
-322,-734,0,0,0,0,0,0,0,0,0,-1,902,1758,0,0
-315,-734,0,0,0,0,0,0,0,0,0,-1,909,1758,0,0
-308,-734,0,0,0,0,0,0,0,0,0,-1,916,1758,0,0
-301,-734,0,0,0,0,0,0,0,0,0,-1,923,1758,0,0
-294,-734,0,0,0,0,0,0,0,0,0,-1,930,1758,0,0
-287,-734,0,0,0,0,0,0,0,0,0,-1,937,1758,0,0
-280,-734,0,0,0,0,0,0,0,0,0,-1,944,1758,0,0
-273,-734,0,0,0,0,0,0,0,0,0,-1,951,1758,0,0
-266,-734,0,0,0,0,0,0,0,0,0,-1,958,1758,0,0
-259,-734,0,0,0,0,0,0,0,0,0,-1,965,1758,0,0
-252,-734,5.73883,31.5245,0,0,0,0,0,0,0,-1,972,1758,5.73884,-31.5246
-245,-734,6.32513,30.9761,0,0,0,0,0,0,0,-1,979,1758,6.32511,-30.9761
-238,-734,6.82385,30.0449,0,0,0,0,0,0,0,-1,986,1758,6.82387,-30.0449
-231,-734,7.1958,29.1666,0,0,0,0,0,0,0,-1,993,1758,7.19578,-29.1666
-224,-734,10.8631,52.8424,0,0,0,0,0,0,0,-1,1000,1758,10.8631,-52.8424
-217,-734,7.45984,28.4386,0,0,0,0,0,0,0,-1,1007,1758,7.45986,-28.4386
-210,-734,7.45483,28.4388,0,0,0,0,0,0,0,-1,1014,1758,7.45482,-28.4388
-203,-734,14.3309,49.7766,0,0,0,0,0,0,0,-1,1021,1758,14.3309,-49.7766
-196,-734,13.0366,49.6821,0,0,0,0,0,0,0,-1,1028,1758,13.0366,-49.6822
-189,-734,11.8075,49.2727,0,0,0,0,0,0,0,-1,1035,1758,11.8075,-49.2728
-182,-734,10.8073,48.8035,0,0,0,0,0,0,0,-1,1042,1758,10.8072,-48.8035
-175,-734,9.90186,48.634,0,0,0,0,0,0,0,-1,1049,1758,9.90187,-48.6341
-168,-734,8.91504,48.7642,0,0,0,0,0,0,0,-1,1056,1758,8.91505,-48.7641
-161,-734,10.4485,52.0808,0,0,0,0,0,0,0,-1,1063,1758,10.4485,-52.0808
-154,-734,10.3014,52.4893,0,0,0,0,0,0,0,-1,1070,1758,10.3014,-52.4893
-147,-734,10.325,56.6101,0,0,0,0,0,0,0,-1,1077,1758,10.3249,-56.6101
-140,-734,9.70374,57.4441,0,0,0,0,0,0,0,-1,1084,1758,9.70377,-57.4441
-133,-734,9.69727,58.0154,0,0,0,0,0,0,0,-1,1091,1758,9.69722,-58.0154
-126,-734,9.65125,58.4662,0,0,0,0,0,0,0,-1,1098,1758,9.65126,-58.4662
-119,-734,9.68994,58.7571,0,0,0,0,0,0,0,-1,1105,1758,9.68999,-58.757
-112,-734,9.54492,59.1045,0,0,0,0,0,0,0,-1,1112,1758,9.54491,-59.1045
-105,-734,9.27161,59.3101,0,0,0,0,0,0,0,-1,1119,1758,9.27165,-59.31
-98,-734,9.40002,60.049,0,0,0,0,0,0,0,-1,1126,1758,9.40006,-60.049
-91,-734,9.44604,60.4502,0,0,0,0,0,0,0,-1,1133,1758,9.44601,-60.4503
-84,-734,9.38733,60.8081,0,0,0,0,0,0,0,-1,1140,1758,9.38736,-60.8082
-77,-734,9.33398,61.1947,0,0,0,0,0,0,0,-1,1147,1758,9.33396,-61.1947
-70,-734,9.34534,61.5276,0,0,0,0,0,0,0,-1,1154,1758,9.34536,-61.5276
-63,-734,9.19653,61.6095,-0.00361556,0.00537497,0.00396274,0.00687226,-0.00511285,1.20954,0.00694442,0.0368981,1161,1758,9.19655,-61.6095
-56,-734,9.22412,62.0529,-0.00358685,0.00490534,0.00329694,0.00603504,-0.00471654,1.24068,0.00622297,0.017755,1168,1758,9.22417,-62.0529
-49,-734,9.19409,62.3958,-0.00410065,0.00468708,0.00240643,0.0053029,-0.00471647,1.32027,0.00578799,0.013078,1175,1758,9.19409,-62.3958
-42,-734,9.16296,62.6833,-0.00473111,0.00468542,0.001538,0.00493025,-0.00497594,1.41293,0.00571936,0.0142923,1182,1758,9.16297,-62.6834
-35,-734,9.13586,62.8993,-0.0046928,0.00466595,0.000655275,0.00471161,-0.00473845,1.50123,0.005456,0.0152504,1189,1758,9.13584,-62.8993
-28,-734,9.10852,63.1138,-0.00439407,0.00477811,-0.000188245,0.00478197,-0.00439793,-1.55028,0.00530157,0.0105052,1196,1758,9.10854,-63.1138
-21,-734,9.11511,63.3439,-0.00419619,0.00472135,-0.000799109,0.0047924,-0.00426723,-1.48213,0.00523351,0.0175485,1203,1758,9.1151,-63.3439
-14,-734,9.06677,63.5631,-0.00406345,0.00470602,-0.00135778,0.00491144,-0.00426886,-1.42065,0.00530457,0.0172154,1210,1758,9.06676,-63.5631
-7,-734,9.04932,63.73,-0.00403928,0.00462886,-0.00173615,0.00496366,-0.00437408,-1.38029,0.00539473,0.0173325,1217,1758,9.04932,-63.73
0,-734,9.01233,63.91,-0.00391711,0.00454621,-0.00187388,0.00494255,-0.00431345,-1.36236,0.00534806,0.0168795,1224,1758,9.01236,-63.9101
7,-734,8.98877,64.0457,-0.00370283,0.00452589,-0.0020012,0.00498676,-0.0041637,-1.34444,0.00529014,0.0134514,1231,1758,8.98872,-64.0457
14,-734,8.95776,64.1543,-0.00339995,0.00490109,-0.00196049,0.00534082,-0.00383968,-1.35015,0.00532393,0.0151633,1238,1758,8.9578,-64.1543
21,-734,8.90662,64.2524,-0.00312283,0.00512071,-0.00184071,0.00551306,-0.00351517,-1.36079,0.00525482,0.0129977,1245,1758,8.90658,-64.2525
28,-734,8.93262,64.3362,-0.0028232,0.00556208,-0.00175134,0.00591317,-0.00317428,-1.37295,0.00532548,0.0119832,1252,1758,8.93266,-64.3362
35,-734,8.95813,64.4237,-0.00247089,0.00620117,-0.00162515,0.00649572,-0.00276544,-1.3915,0.00548961,0.0151932,1259,1758,8.95807,-64.4237
42,-734,8.95532,64.4785,-0.00216837,0.00679732,-0.00152363,0.00704917,-0.00242022,-1.40698,0.00568072,0.0124209,1266,1758,8.95528,-64.4785
49,-734,8.89856,64.5227,-0.00198848,0.00734727,-0.00144937,0.00756711,-0.00220832,-1.42027,0.00591977,0.0102775,1273,1758,8.89857,-64.5226
56,-734,8.86646,64.5568,-0.00182447,0.00792101,-0.00142717,0.00812571,-0.00202918,-1.42834,0.00620513,0.0104199,1280,1758,8.86647,-64.5568
63,-734,8.87561,64.5352,-0.00167001,0.00852779,-0.00141136,0.00871952,-0.00186173,-1.43578,0.00652276,0.0130994,1287,1758,8.87564,-64.5352
70,-734,8.87903,64.5184,-0.00177991,0.00911725,-0.00143461,0.00930296,-0.00196561,-1.44207,0.00695045,0.012769,1294,1758,8.87908,-64.5184
77,-734,8.89075,64.5306,-0.00187953,0.00944841,-0.00149754,0.00964304,-0.00207416,-1.44155,0.00722008,0.0167384,1301,1758,8.89072,-64.5306
84,-734,8.87109,64.4501,-0.00206986,0.0096472,-0.00161852,0.00986665,-0.00228932,-1.43602,0.00745892,0.017156,1308,1758,8.87106,-64.4501
91,-734,8.84229,64.3862,-0.00228566,0.00968148,-0.00165277,0.00990555,-0.00250973,-1.43605,0.00758005,0.0198711,1315,1758,8.84225,-64.3862
98,-734,8.83301,64.3236,-0.0025101,0.00932451,-0.00178411,0.00958763,-0.00277321,-1.42438,0.0074893,0.0156581,1322,1758,8.83306,-64.3237
105,-734,8.81775,64.2173,-0.002843,0.00887217,-0.00188501,0.00916801,-0.00313884,-1.41513,0.00738411,0.0161323,1329,1758,8.81772,-64.2173
112,-734,8.81567,64.0806,-0.00326233,0.00815804,-0.00177997,0.00842903,-0.00353333,-1.41971,0.00709665,0.0130882,1336,1758,8.8157,-64.0805
119,-734,8.80103,63.9215,-0.0037147,0.00684864,-0.00167249,0.00710712,-0.00397318,-1.41746,0.00648194,0.0142752,1343,1758,8.80109,-63.9216
126,-734,8.78369,63.7606,-0.00397062,0.00578339,-0.00146168,0.00599772,-0.00418494,-1.4252,0.00590994,0.0168096,1350,1758,8.7837,-63.7606
133,-734,8.73987,63.5703,-0.00412701,0.00448686,-0.0011375,0.00463454,-0.00427469,-1.44169,0.00514515,0.0139018,1357,1758,8.73982,-63.5703
140,-734,8.73816,63.4037,-0.00423708,0.00318349,-0.000904673,0.00329219,-0.00434578,-1.45122,0.00442374,0.018731,1364,1758,8.7382,-63.4036
147,-734,8.70496,63.2025,-0.00422583,0.00230016,-0.000764566,0.00238854,-0.00431421,-1.45572,0.00392271,0.014024,1371,1758,8.70495,-63.2025
154,-734,8.66663,62.9939,-0.00407054,0.00151239,-0.000735948,0.00160777,-0.00416592,-1.44191,0.00344078,0.00987298,1378,1758,8.66663,-62.9939
161,-734,8.63953,62.7675,-0.00392719,0.00085992,-0.000776414,0.000982696,-0.00404997,-1.41396,0.00308025,0.00943356,1385,1758,8.63949,-62.7675
168,-734,8.56848,62.5006,-0.00399758,0.00075681,-0.00102094,0.000966773,-0.00420754,-1.36797,0.00317671,0.0153827,1392,1758,8.56851,-62.5006
175,-734,8.54199,62.2394,-0.0036111,0.000268348,-0.00135606,0.000695357,-0.00403811,-1.26574,0.00295129,0.0192184,1399,1758,8.542,-62.2394
182,-734,8.57336,61.939,-0.0035828,0.000446642,-0.0017157,0.00107819,-0.00421434,-1.21809,0.00322952,0.0167828,1406,1758,8.57335,-61.939
189,-734,8.51599,61.6239,-0.00345304,0.000967821,-0.00216619,0.00185229,-0.00433751,-1.18315,0.00366844,0.0121572,1413,1758,8.51605,-61.6239
196,-734,8.45984,61.3046,-0.00365071,0.00195224,-0.00289855,0.00318187,-0.00488034,-1.16958,0.00468903,0.014936,1420,1758,8.45987,-61.3046
203,-734,8.46338,60.9514,-0.00393036,0.00351181,-0.00335358,0.00480002,-0.00521856,-1.20405,0.00578591,0.0222281,1427,1758,8.46337,-60.9514
210,-734,8.45508,60.5906,-0.00386751,0.00544519,-0.00367328,0.00671965,-0.00514197,-1.23684,0.00686848,0.0380409,1434,1758,8.45504,-60.5906
217,-734,8.34338,60.2909,0,0,0,0,0,0,0,-1,1441,1758,8.34339,-60.2909
224,-734,8.2915,59.9169,0,0,0,0,0,0,0,-1,1448,1758,8.29156,-59.9169
231,-734,8.19897,59.4802,0,0,0,0,0,0,0,-1,1455,1758,8.19896,-59.4803
238,-734,8.22522,58.8219,0,0,0,0,0,0,0,-1,1462,1758,8.22518,-58.8218
245,-734,8.53137,57.8573,0,0,0,0,0,0,0,-1,1469,1758,8.53138,-57.8573
252,-734,8.16589,57.7249,0,0,0,0,0,0,0,-1,1476,1758,8.16591,-57.7249
259,-734,8.13123,57.5636,0,0,0,0,0,0,0,-1,1483,1758,8.13126,-57.5636
266,-734,8.19885,57.2274,0,0,0,0,0,0,0,-1,1490,1758,8.19889,-57.2274
273,-734,8.25281,56.9844,0,0,0,0,0,0,0,-1,1497,1758,8.25286,-56.9844
280,-734,7.90149,52.7294,0,0,0,0,0,0,0,-1,1504,1758,7.90153,-52.7294
287,-734,7.56177,50.5933,0,0,0,0,0,0,0,-1,1511,1758,7.56172,-50.5933
294,-734,7.42676,47.7545,0,0,0,0,0,0,0,-1,1518,1758,7.4268,-47.7545
301,-734,7.21814,42.6078,0,0,0,0,0,0,0,-1,1525,1758,7.21809,-42.6078
308,-734,8.0509,41.5156,0,0,0,0,0,0,0,-1,1532,1758,8.05087,-41.5157
315,-734,7.93787,40.8274,0,0,0,0,0,0,0,-1,1539,1758,7.93784,-40.8273
322,-734,7.82483,40.139,0,0,0,0,0,0,0,-1,1546,1758,7.82481,-40.139
329,-734,5.73267,19.656,0,0,0,0,0,0,0,-1,1553,1758,5.73262,-19.656
336,-734,6.71375,23.7469,0,0,0,0,0,0,0,-1,1560,1758,6.71372,-23.7469
343,-734,5.54968,5.14221,0,0,0,0,0,0,0,-1,1567,1758,5.54973,-5.14225
350,-734,5.07397,6.73242,0,0,0,0,0,0,0,-1,1574,1758,5.07402,-6.73243
357,-734,5.05542,7.19189,0,0,0,0,0,0,0,-1,1581,1758,5.05541,-7.19184
364,-734,4.43896,10.4904,0,0,0,0,0,0,0,-1,1588,1758,4.43893,-10.4904
371,-734,7.36975,17.4751,0,0,0,0,0,0,0,-1,1595,1758,7.36972,-17.4752
378,-734,0,0,0,0,0,0,0,0,0,-1,1602,1758,0,0
385,-734,0,0,0,0,0,0,0,0,0,-1,1609,1758,0,0
392,-734,0,0,0,0,0,0,0,0,0,-1,1616,1758,0,0
399,-734,0,0,0,0,0,0,0,0,0,-1,1623,1758,0,0
406,-734,0,0,0,0,0,0,0,0,0,-1,1630,1758,0,0
413,-734,0,0,0,0,0,0,0,0,0,-1,1637,1758,0,0
420,-734,0,0,0,0,0,0,0,0,0,-1,1644,1758,0,0
427,-734,0,0,0,0,0,0,0,0,0,-1,1651,1758,0,0
434,-734,0,0,0,0,0,0,0,0,0,-1,1658,1758,0,0
441,-734,0,0,0,0,0,0,0,0,0,-1,1665,1758,0,0
448,-734,0,0,0,0,0,0,0,0,0,-1,1672,1758,0,0
455,-734,0,0,0,0,0,0,0,0,0,-1,1679,1758,0,0
462,-734,0,0,0,0,0,0,0,0,0,-1,1686,1758,0,0
469,-734,0,0,0,0,0,0,0,0,0,-1,1693,1758,0,0
476,-734,0,0,0,0,0,0,0,0,0,-1,1700,1758,0,0
483,-734,0,0,0,0,0,0,0,0,0,-1,1707,1758,0,0
490,-734,0,0,0,0,0,0,0,0,0,-1,1714,1758,0,0
497,-734,0,0,0,0,0,0,0,0,0,-1,1721,1758,0,0
504,-734,0,0,0,0,0,0,0,0,0,-1,1728,1758,0,0
511,-734,0,0,0,0,0,0,0,0,0,-1,1735,1758,0,0
518,-734,0,0,0,0,0,0,0,0,0,-1,1742,1758,0,0
525,-734,0,0,0,0,0,0,0,0,0,-1,1749,1758,0,0
532,-734,0,0,0,0,0,0,0,0,0,-1,1756,1758,0,0
539,-734,0,0,0,0,0,0,0,0,0,-1,1763,1758,0,0
546,-734,0,0,0,0,0,0,0,0,0,-1,1770,1758,0,0
553,-734,0,0,0,0,0,0,0,0,0,-1,1777,1758,0,0
560,-734,0,0,0,0,0,0,0,0,0,-1,1784,1758,0,0
567,-734,0,0,0,0,0,0,0,0,0,-1,1791,1758,0,0
574,-734,0,0,0,0,0,0,0,0,0,-1,1798,1758,0,0
581,-734,0,0,0,0,0,0,0,0,0,-1,1805,1758,0,0
588,-734,0,0,0,0,0,0,0,0,0,-1,1812,1758,0,0
595,-734,0,0,0,0,0,0,0,0,0,-1,1819,1758,0,0
602,-734,0,0,0,0,0,0,0,0,0,-1,1826,1758,0,0
609,-734,0,0,0,0,0,0,0,0,0,-1,1833,1758,0,0
616,-734,0,0,0,0,0,0,0,0,0,-1,1840,1758,0,0
623,-734,0,0,0,0,0,0,0,0,0,-1,1847,1758,0,0
630,-734,0,0,0,0,0,0,0,0,0,-1,1854,1758,0,0
637,-734,0,0,0,0,0,0,0,0,0,-1,1861,1758,0,0
644,-734,0,0,0,0,0,0,0,0,0,-1,1868,1758,0,0
651,-734,0,0,0,0,0,0,0,0,0,-1,1875,1758,0,0
658,-734,0,0,0,0,0,0,0,0,0,-1,1882,1758,0,0
665,-734,0,0,0,0,0,0,0,0,0,-1,1889,1758,0,0
672,-734,0,0,0,0,0,0,0,0,0,-1,1896,1758,0,0
679,-734,0,0,0,0,0,0,0,0,0,-1,1903,1758,0,0
686,-734,0,0,0,0,0,0,0,0,0,-1,1910,1758,0,0
693,-734,0,0,0,0,0,0,0,0,0,-1,1917,1758,0,0
700,-734,0,0,0,0,0,0,0,0,0,-1,1924,1758,0,0
707,-734,0,0,0,0,0,0,0,0,0,-1,1931,1758,0,0
714,-734,0,0,0,0,0,0,0,0,0,-1,1938,1758,0,0
721,-734,0,0,0,0,0,0,0,0,0,-1,1945,1758,0,0
728,-734,0,0,0,0,0,0,0,0,0,-1,1952,1758,0,0
735,-734,0,0,0,0,0,0,0,0,0,-1,1959,1758,0,0
742,-734,0,0,0,0,0,0,0,0,0,-1,1966,1758,0,0
749,-734,0,0,0,0,0,0,0,0,0,-1,1973,1758,0,0
756,-734,0,0,0,0,0,0,0,0,0,-1,1980,1758,0,0
763,-734,0,0,0,0,0,0,0,0,0,-1,1987,1758,0,0
770,-734,0,0,0,0,0,0,0,0,0,-1,1994,1758,0,0
777,-734,0,0,0,0,0,0,0,0,0,-1,2001,1758,0,0
784,-734,0,0,0,0,0,0,0,0,0,-1,2008,1758,0,0
791,-734,0,0,0,0,0,0,0,0,0,-1,2015,1758,0,0
798,-734,0,0,0,0,0,0,0,0,0,-1,2022,1758,0,0
805,-734,0,0,0,0,0,0,0,0,0,-1,2029,1758,0,0
812,-734,0,0,0,0,0,0,0,0,0,-1,2036,1758,0,0
-700,-741,0,0,0,0,0,0,0,0,0,-1,524,1765,0,0
-693,-741,0,0,0,0,0,0,0,0,0,-1,531,1765,0,0
-686,-741,0,0,0,0,0,0,0,0,0,-1,538,1765,0,0
-679,-741,0,0,0,0,0,0,0,0,0,-1,545,1765,0,0
-672,-741,0,0,0,0,0,0,0,0,0,-1,552,1765,0,0
-665,-741,0,0,0,0,0,0,0,0,0,-1,559,1765,0,0
-658,-741,0,0,0,0,0,0,0,0,0,-1,566,1765,0,0
-651,-741,0,0,0,0,0,0,0,0,0,-1,573,1765,0,0
-644,-741,0,0,0,0,0,0,0,0,0,-1,580,1765,0,0
-637,-741,0,0,0,0,0,0,0,0,0,-1,587,1765,0,0
-630,-741,0,0,0,0,0,0,0,0,0,-1,594,1765,0,0
-623,-741,0,0,0,0,0,0,0,0,0,-1,601,1765,0,0
-616,-741,0,0,0,0,0,0,0,0,0,-1,608,1765,0,0
-609,-741,0,0,0,0,0,0,0,0,0,-1,615,1765,0,0
-602,-741,0,0,0,0,0,0,0,0,0,-1,622,1765,0,0
-595,-741,0,0,0,0,0,0,0,0,0,-1,629,1765,0,0
-588,-741,0,0,0,0,0,0,0,0,0,-1,636,1765,0,0
-581,-741,0,0,0,0,0,0,0,0,0,-1,643,1765,0,0
-574,-741,0,0,0,0,0,0,0,0,0,-1,650,1765,0,0
-567,-741,0,0,0,0,0,0,0,0,0,-1,657,1765,0,0
-560,-741,0,0,0,0,0,0,0,0,0,-1,664,1765,0,0
-553,-741,0,0,0,0,0,0,0,0,0,-1,671,1765,0,0
-546,-741,0,0,0,0,0,0,0,0,0,-1,678,1765,0,0
-539,-741,0,0,0,0,0,0,0,0,0,-1,685,1765,0,0
-532,-741,0,0,0,0,0,0,0,0,0,-1,692,1765,0,0
-525,-741,0,0,0,0,0,0,0,0,0,-1,699,1765,0,0
-518,-741,0,0,0,0,0,0,0,0,0,-1,706,1765,0,0
-511,-741,0,0,0,0,0,0,0,0,0,-1,713,1765,0,0
-504,-741,0,0,0,0,0,0,0,0,0,-1,720,1765,0,0
-497,-741,0,0,0,0,0,0,0,0,0,-1,727,1765,0,0
-490,-741,0,0,0,0,0,0,0,0,0,-1,734,1765,0,0
-483,-741,0,0,0,0,0,0,0,0,0,-1,741,1765,0,0
-476,-741,0,0,0,0,0,0,0,0,0,-1,748,1765,0,0
-469,-741,0,0,0,0,0,0,0,0,0,-1,755,1765,0,0
-462,-741,0,0,0,0,0,0,0,0,0,-1,762,1765,0,0
-455,-741,0,0,0,0,0,0,0,0,0,-1,769,1765,0,0
-448,-741,0,0,0,0,0,0,0,0,0,-1,776,1765,0,0
-441,-741,0,0,0,0,0,0,0,0,0,-1,783,1765,0,0
-434,-741,0,0,0,0,0,0,0,0,0,-1,790,1765,0,0
-427,-741,0,0,0,0,0,0,0,0,0,-1,797,1765,0,0
-420,-741,0,0,0,0,0,0,0,0,0,-1,804,1765,0,0
-413,-741,0,0,0,0,0,0,0,0,0,-1,811,1765,0,0
-406,-741,0,0,0,0,0,0,0,0,0,-1,818,1765,0,0
-399,-741,0,0,0,0,0,0,0,0,0,-1,825,1765,0,0
-392,-741,0,0,0,0,0,0,0,0,0,-1,832,1765,0,0
-385,-741,0,0,0,0,0,0,0,0,0,-1,839,1765,0,0
-378,-741,0,0,0,0,0,0,0,0,0,-1,846,1765,0,0
-371,-741,0,0,0,0,0,0,0,0,0,-1,853,1765,0,0
-364,-741,0,0,0,0,0,0,0,0,0,-1,860,1765,0,0
-357,-741,0,0,0,0,0,0,0,0,0,-1,867,1765,0,0
-350,-741,0,0,0,0,0,0,0,0,0,-1,874,1765,0,0
-343,-741,0,0,0,0,0,0,0,0,0,-1,881,1765,0,0
-336,-741,0,0,0,0,0,0,0,0,0,-1,888,1765,0,0
-329,-741,0,0,0,0,0,0,0,0,0,-1,895,1765,0,0
-322,-741,0,0,0,0,0,0,0,0,0,-1,902,1765,0,0
-315,-741,0,0,0,0,0,0,0,0,0,-1,909,1765,0,0
-308,-741,0,0,0,0,0,0,0,0,0,-1,916,1765,0,0
-301,-741,0,0,0,0,0,0,0,0,0,-1,923,1765,0,0
-294,-741,0,0,0,0,0,0,0,0,0,-1,930,1765,0,0
-287,-741,0,0,0,0,0,0,0,0,0,-1,937,1765,0,0
-280,-741,0,0,0,0,0,0,0,0,0,-1,944,1765,0,0
-273,-741,0,0,0,0,0,0,0,0,0,-1,951,1765,0,0
-266,-741,0,0,0,0,0,0,0,0,0,-1,958,1765,0,0
-259,-741,0,0,0,0,0,0,0,0,0,-1,965,1765,0,0
-252,-741,0,0,0,0,0,0,0,0,0,-1,972,1765,0,0
-245,-741,0,0,0,0,0,0,0,0,0,-1,979,1765,0,0
-238,-741,7.13855,29.8348,0,0,0,0,0,0,0,-1,986,1765,7.13856,-29.8348
-231,-741,7.74182,29.3066,0,0,0,0,0,0,0,-1,993,1765,7.74183,-29.3066
-224,-741,7.80078,29.0964,0,0,0,0,0,0,0,-1,1000,1765,7.80079,-29.0964
-217,-741,8.15863,29.113,0,0,0,0,0,0,0,-1,1007,1765,8.15863,-29.1131
-210,-741,8.37024,29.3896,0,0,0,0,0,0,0,-1,1014,1765,8.37022,-29.3896
-203,-741,7.703,44.0701,0,0,0,0,0,0,0,-1,1021,1765,7.70306,-44.0701
-196,-741,13.1698,50.7012,0,0,0,0,0,0,0,-1,1028,1765,13.1698,-50.7012
-189,-741,12.3024,50.0712,0,0,0,0,0,0,0,-1,1035,1765,12.3023,-50.0712
-182,-741,11.3236,49.675,0,0,0,0,0,0,0,-1,1042,1765,11.3236,-49.675
-175,-741,10.1451,49.7836,0,0,0,0,0,0,0,-1,1049,1765,10.1451,-49.7836
-168,-741,9.26172,49.837,0,0,0,0,0,0,0,-1,1056,1765,9.26167,-49.837
-161,-741,8.42102,49.8832,0,0,0,0,0,0,0,-1,1063,1765,8.42099,-49.8832
-154,-741,10.5177,48.0798,0,0,0,0,0,0,0,-1,1070,1765,10.5177,-48.0798
-147,-741,10.9515,48.8568,0,0,0,0,0,0,0,-1,1077,1765,10.9515,-48.8569
-140,-741,10.5068,51.2876,0,0,0,0,0,0,0,-1,1084,1765,10.5068,-51.2876
-133,-741,10.6208,54.5072,0,0,0,0,0,0,0,-1,1091,1765,10.6208,-54.5072
-126,-741,9.89746,52.7167,0,0,0,0,0,0,0,-1,1098,1765,9.8975,-52.7167
-119,-741,9.33801,50.1482,0,0,0,0,0,0,0,-1,1105,1765,9.33802,-50.1482
-112,-741,9.6283,47.2815,0,0,0,0,0,0,0,-1,1112,1765,9.62827,-47.2815
-105,-741,9.61792,45.9158,0,0,0,0,0,0,0,-1,1119,1765,9.61797,-45.9158
-98,-741,9.19971,40.25,0,0,0,0,0,0,0,-1,1126,1765,9.19971,-40.25
-91,-741,8.40002,36.3687,0,0,0,0,0,0,0,-1,1133,1765,8.40002,-36.3687
-84,-741,7.8877,35.0892,0,0,0,0,0,0,0,-1,1140,1765,7.88776,-35.0892
-77,-741,7.73303,34.1174,0,0,0,0,0,0,0,-1,1147,1765,7.73304,-34.1174
-70,-741,7.5437,32.0275,0,0,0,0,0,0,0,-1,1154,1765,7.5437,-32.0275
-63,-741,9.22375,61.2166,0,0,0,0,0,0,0,-1,1161,1765,9.22381,-61.2165
-56,-741,9.50317,61.9237,0,0,0,0,0,0,0,-1,1168,1765,9.50315,-61.9237
-49,-741,9.43677,62.4425,0,0,0,0,0,0,0,-1,1175,1765,9.43671,-62.4425
-42,-741,9.37109,62.728,0,0,0,0,0,0,0,-1,1182,1765,9.37107,-62.7281
-35,-741,9.35925,62.9102,-0.00977515,0.00650914,-0.00173326,0.00669158,-0.00995759,-1.46592,0.00967386,0.0249985,1189,1765,9.35925,-62.9101
-28,-741,9.3429,63.1383,-0.00938016,0.00701344,-0.00273759,0.00745851,-0.00982523,-1.40963,0.0100099,0.0153426,1196,1765,9.34289,-63.1383
-21,-741,9.31152,63.3442,-0.00914417,0.00727499,-0.00338289,0.00794466,-0.00981385,-1.37536,0.0102718,0.0201056,1203,1765,9.31154,-63.3443
-14,-741,9.25891,63.5508,-0.00896663,0.00760581,-0.00392099,0.00848668,-0.0098475,-1.34981,0.010595,0.0195523,1210,1765,9.25887,-63.5507
-7,-741,9.20703,63.7034,-0.00887584,0.00785678,-0.00418461,0.00884494,-0.009864,-1.3389,0.0108069,0.0153677,1217,1765,9.20701,-63.7034
0,-741,9.15601,63.863,-0.00861038,0.00797591,-0.00415414,0.00895817,-0.00959263,-1.33861,0.0107124,0.0149535,1224,1765,9.15605,-63.863
7,-741,9.10425,64.0084,-0.00817829,0.00825224,-0.0042733,0.0092972,-0.00922324,-1.33097,0.0106928,0.0170893,1231,1765,9.10425,-64.0084
14,-741,9.0636,64.146,-0.00758855,0.00893191,-0.00411198,0.0098988,-0.00855544,-1.33985,0.010664,0.0169018,1238,1765,9.0636,-64.146
21,-741,9.00549,64.229,-0.00704382,0.00937838,-0.00385324,0.0102375,-0.00790298,-1.35141,0.0105023,0.0139426,1245,1765,9.00546,-64.229
28,-741,8.97632,64.3541,-0.00639381,0.0103701,-0.00365743,0.0111333,-0.00715702,-1.36508,0.0106428,0.0143338,1252,1765,8.9763,-64.3541
35,-741,8.99817,64.4161,-0.0056654,0.0117747,-0.00346981,0.0124397,-0.00633038,-1.38144,0.0110266,0.0157664,1259,1765,8.99821,-64.4162
42,-741,8.98401,64.4597,-0.00501602,0.0130674,-0.0032871,0.0136464,-0.00559499,-1.39645,0.0114286,0.0165517,1266,1765,8.98395,-64.4597
49,-741,8.94067,64.5161,-0.00451238,0.0143999,-0.0031647,0.0149154,-0.0050279,-1.40932,0.0119767,0.0109782,1273,1765,8.94073,-64.5161
56,-741,8.88513,64.5554,-0.00391992,0.0156843,-0.00327014,0.0162154,-0.00445102,-1.40979,0.0125597,0.010721,1280,1765,8.88519,-64.5555
63,-741,8.8562,64.5326,-0.00327841,0.0168705,-0.00343601,0.0174403,-0.00384825,-1.40645,0.0130994,0.0152452,1287,1765,8.85622,-64.5326
70,-741,8.84045,64.5208,-0.00309363,0.0178897,-0.0036861,0.0185184,-0.00372232,-1.40186,0.0137553,0.0166846,1294,1765,8.84051,-64.5208
77,-741,8.80884,64.5282,-0.0029752,0.0185496,-0.00396242,0.0192558,-0.00368146,-1.39441,0.0142241,0.0138013,1301,1765,8.80882,-64.5282
84,-741,8.76709,64.4941,-0.00295002,0.0188046,-0.00435688,0.0196447,-0.00379014,-1.38031,0.0145256,0.0161225,1308,1765,8.76715,-64.4942
91,-741,8.74194,64.4268,-0.00293964,0.018578,-0.00465335,0.0195412,-0.00390284,-1.36669,0.0145045,0.0130449,1315,1765,8.74197,-64.4267
98,-741,8.73572,64.3011,-0.00298193,0.017638,-0.00508503,0.0188238,-0.00416774,-1.34169,0.0141446,0.0107115,1322,1765,8.73572,-64.3011
105,-741,8.71912,64.1808,-0.0032313,0.0164673,-0.00542336,0.0178617,-0.00462573,-1.31913,0.0137123,0.0115083,1329,1765,8.71907,-64.1808
112,-741,8.72363,64.0369,-0.00369309,0.0146886,-0.00527181,0.0160932,-0.0050977,-1.31041,0.0127718,0.011795,1336,1765,8.72358,-64.0369
119,-741,8.66858,63.8982,-0.00423918,0.0121881,-0.00522766,0.0137106,-0.00576168,-1.2874,0.0115503,0.014699,1343,1765,8.66859,-63.8982
126,-741,8.6272,63.769,-0.00455833,0.00997363,-0.00497647,0.0115144,-0.00609915,-1.27054,0.0103282,0.0192151,1350,1765,8.62726,-63.769
133,-741,8.58386,63.5551,-0.00487304,0.00706684,-0.00445346,0.00854495,-0.00635115,-1.25033,0.0086313,0.0145791,1357,1765,8.58382,-63.555
140,-741,8.52991,63.3574,-0.00518149,0.0041559,-0.0038557,0.00554222,-0.0065678,-1.22564,0.00700008,0.0113019,1364,1765,8.52992,-63.3575
147,-741,8.48523,63.1628,-0.00521971,0.00251863,-0.00333919,0.00376029,-0.00646138,-1.21479,0.00596977,0.0107176,1371,1765,8.48523,-63.1628
154,-741,8.44299,62.981,-0.00506228,0.00108719,-0.00294818,0.00227224,-0.00624733,-1.1886,0.00509412,0.00886529,1378,1765,8.44294,-62.9809
161,-741,8.41455,62.7485,-0.00524434,-6.25964e-05,-0.00227807,0.00079649,-0.00610343,-1.21018,0.00435878,0.0110115,1385,1765,8.41452,-62.7486
168,-741,8.37256,62.4939,-0.00578092,0.000110313,-0.00193991,0.000691723,-0.00636233,-1.27961,0.00448992,0.0262046,1392,1765,8.37253,-62.4939
175,-741,8.31165,62.2637,0,0,0,0,0,0,0,-1,1399,1765,8.31159,-62.2637
182,-741,8.28943,61.9347,0,0,0,0,0,0,0,-1,1406,1765,8.28939,-61.9347
189,-741,8.20752,61.6736,0,0,0,0,0,0,0,-1,1413,1765,8.20748,-61.6736
196,-741,8.16211,61.3583,0,0,0,0,0,0,0,-1,1420,1765,8.16215,-61.3583
203,-741,8.16833,60.8816,0,0,0,0,0,0,0,-1,1427,1765,8.16837,-60.8816
210,-741,8.07727,60.2825,0,0,0,0,0,0,0,-1,1434,1765,8.07729,-60.2825
217,-741,8.4032,40.1213,0,0,0,0,0,0,0,-1,1441,1765,8.40325,-40.1214
224,-741,8.0719,38.4249,0,0,0,0,0,0,0,-1,1448,1765,8.07187,-38.4249
231,-741,7.95923,39.0671,0,0,0,0,0,0,0,-1,1455,1765,7.9592,-39.0671
238,-741,7.96619,42.4865,0,0,0,0,0,0,0,-1,1462,1765,7.96621,-42.4864
245,-741,8.53577,45.7744,0,0,0,0,0,0,0,-1,1469,1765,8.53581,-45.7744
252,-741,8.59167,47.473,0,0,0,0,0,0,0,-1,1476,1765,8.59162,-47.473
259,-741,8.47412,48.5269,0,0,0,0,0,0,0,-1,1483,1765,8.47412,-48.5269
266,-741,8.50134,48.3838,0,0,0,0,0,0,0,-1,1490,1765,8.50132,-48.3838
273,-741,8.81421,49.1227,0,0,0,0,0,0,0,-1,1497,1765,8.81426,-49.1227
280,-741,7.33093,51.4729,0,0,0,0,0,0,0,-1,1504,1765,7.33092,-51.4729
287,-741,7.52783,49.7068,0,0,0,0,0,0,0,-1,1511,1765,7.52783,-49.7068
294,-741,5.91187,43.7742,0,0,0,0,0,0,0,-1,1518,1765,5.91188,-43.7742
301,-741,6.20667,38.5165,0,0,0,0,0,0,0,-1,1525,1765,6.20667,-38.5165
308,-741,7.99036,42.5969,0,0,0,0,0,0,0,-1,1532,1765,7.99037,-42.5969
315,-741,7.83838,41.6693,0,0,0,0,0,0,0,-1,1539,1765,7.83835,-41.6694
322,-741,7.68628,40.7418,0,0,0,0,0,0,0,-1,1546,1765,7.68633,-40.7418
329,-741,4.74414,17.928,0,0,0,0,0,0,0,-1,1553,1765,4.74414,-17.928
336,-741,5.74304,22.0945,0,0,0,0,0,0,0,-1,1560,1765,5.74306,-22.0945
343,-741,7.09888,26.501,0,0,0,0,0,0,0,-1,1567,1765,7.09885,-26.501
350,-741,4.90369,5.44666,0,0,0,0,0,0,0,-1,1574,1765,4.90368,-5.44664
357,-741,4.02063,5.16626,0,0,0,0,0,0,0,-1,1581,1765,4.02058,-5.1662
364,-741,0,0,0,0,0,0,0,0,0,-1,1588,1765,0,0
371,-741,0,0,0,0,0,0,0,0,0,-1,1595,1765,0,0
378,-741,0,0,0,0,0,0,0,0,0,-1,1602,1765,0,0
385,-741,0,0,0,0,0,0,0,0,0,-1,1609,1765,0,0
392,-741,0,0,0,0,0,0,0,0,0,-1,1616,1765,0,0
399,-741,0,0,0,0,0,0,0,0,0,-1,1623,1765,0,0
406,-741,0,0,0,0,0,0,0,0,0,-1,1630,1765,0,0
413,-741,0,0,0,0,0,0,0,0,0,-1,1637,1765,0,0
420,-741,0,0,0,0,0,0,0,0,0,-1,1644,1765,0,0
427,-741,0,0,0,0,0,0,0,0,0,-1,1651,1765,0,0
434,-741,0,0,0,0,0,0,0,0,0,-1,1658,1765,0,0
441,-741,0,0,0,0,0,0,0,0,0,-1,1665,1765,0,0
448,-741,0,0,0,0,0,0,0,0,0,-1,1672,1765,0,0
455,-741,0,0,0,0,0,0,0,0,0,-1,1679,1765,0,0
462,-741,0,0,0,0,0,0,0,0,0,-1,1686,1765,0,0
469,-741,0,0,0,0,0,0,0,0,0,-1,1693,1765,0,0
476,-741,0,0,0,0,0,0,0,0,0,-1,1700,1765,0,0
483,-741,0,0,0,0,0,0,0,0,0,-1,1707,1765,0,0
490,-741,0,0,0,0,0,0,0,0,0,-1,1714,1765,0,0
497,-741,0,0,0,0,0,0,0,0,0,-1,1721,1765,0,0
504,-741,0,0,0,0,0,0,0,0,0,-1,1728,1765,0,0
511,-741,0,0,0,0,0,0,0,0,0,-1,1735,1765,0,0
518,-741,0,0,0,0,0,0,0,0,0,-1,1742,1765,0,0
525,-741,0,0,0,0,0,0,0,0,0,-1,1749,1765,0,0
532,-741,0,0,0,0,0,0,0,0,0,-1,1756,1765,0,0
539,-741,0,0,0,0,0,0,0,0,0,-1,1763,1765,0,0
546,-741,0,0,0,0,0,0,0,0,0,-1,1770,1765,0,0
553,-741,0,0,0,0,0,0,0,0,0,-1,1777,1765,0,0
560,-741,0,0,0,0,0,0,0,0,0,-1,1784,1765,0,0
567,-741,0,0,0,0,0,0,0,0,0,-1,1791,1765,0,0
574,-741,0,0,0,0,0,0,0,0,0,-1,1798,1765,0,0
581,-741,0,0,0,0,0,0,0,0,0,-1,1805,1765,0,0
588,-741,0,0,0,0,0,0,0,0,0,-1,1812,1765,0,0
595,-741,0,0,0,0,0,0,0,0,0,-1,1819,1765,0,0
602,-741,0,0,0,0,0,0,0,0,0,-1,1826,1765,0,0
609,-741,0,0,0,0,0,0,0,0,0,-1,1833,1765,0,0
616,-741,0,0,0,0,0,0,0,0,0,-1,1840,1765,0,0
623,-741,0,0,0,0,0,0,0,0,0,-1,1847,1765,0,0
630,-741,0,0,0,0,0,0,0,0,0,-1,1854,1765,0,0
637,-741,0,0,0,0,0,0,0,0,0,-1,1861,1765,0,0
644,-741,0,0,0,0,0,0,0,0,0,-1,1868,1765,0,0
651,-741,0,0,0,0,0,0,0,0,0,-1,1875,1765,0,0
658,-741,0,0,0,0,0,0,0,0,0,-1,1882,1765,0,0
665,-741,0,0,0,0,0,0,0,0,0,-1,1889,1765,0,0
672,-741,0,0,0,0,0,0,0,0,0,-1,1896,1765,0,0
679,-741,0,0,0,0,0,0,0,0,0,-1,1903,1765,0,0
686,-741,0,0,0,0,0,0,0,0,0,-1,1910,1765,0,0
693,-741,0,0,0,0,0,0,0,0,0,-1,1917,1765,0,0
700,-741,0,0,0,0,0,0,0,0,0,-1,1924,1765,0,0
707,-741,0,0,0,0,0,0,0,0,0,-1,1931,1765,0,0
714,-741,0,0,0,0,0,0,0,0,0,-1,1938,1765,0,0
721,-741,0,0,0,0,0,0,0,0,0,-1,1945,1765,0,0
728,-741,0,0,0,0,0,0,0,0,0,-1,1952,1765,0,0
735,-741,0,0,0,0,0,0,0,0,0,-1,1959,1765,0,0
742,-741,0,0,0,0,0,0,0,0,0,-1,1966,1765,0,0
749,-741,0,0,0,0,0,0,0,0,0,-1,1973,1765,0,0
756,-741,0,0,0,0,0,0,0,0,0,-1,1980,1765,0,0
763,-741,0,0,0,0,0,0,0,0,0,-1,1987,1765,0,0
770,-741,0,0,0,0,0,0,0,0,0,-1,1994,1765,0,0
777,-741,0,0,0,0,0,0,0,0,0,-1,2001,1765,0,0
784,-741,0,0,0,0,0,0,0,0,0,-1,2008,1765,0,0
791,-741,0,0,0,0,0,0,0,0,0,-1,2015,1765,0,0
798,-741,0,0,0,0,0,0,0,0,0,-1,2022,1765,0,0
805,-741,0,0,0,0,0,0,0,0,0,-1,2029,1765,0,0
812,-741,0,0,0,0,0,0,0,0,0,-1,2036,1765,0,0
-700,-748,0,0,0,0,0,0,0,0,0,-1,524,1772,0,0
-693,-748,0,0,0,0,0,0,0,0,0,-1,531,1772,0,0
-686,-748,0,0,0,0,0,0,0,0,0,-1,538,1772,0,0
-679,-748,0,0,0,0,0,0,0,0,0,-1,545,1772,0,0
-672,-748,0,0,0,0,0,0,0,0,0,-1,552,1772,0,0
-665,-748,0,0,0,0,0,0,0,0,0,-1,559,1772,0,0
-658,-748,0,0,0,0,0,0,0,0,0,-1,566,1772,0,0
-651,-748,0,0,0,0,0,0,0,0,0,-1,573,1772,0,0
-644,-748,0,0,0,0,0,0,0,0,0,-1,580,1772,0,0
-637,-748,0,0,0,0,0,0,0,0,0,-1,587,1772,0,0
-630,-748,0,0,0,0,0,0,0,0,0,-1,594,1772,0,0
-623,-748,0,0,0,0,0,0,0,0,0,-1,601,1772,0,0
-616,-748,0,0,0,0,0,0,0,0,0,-1,608,1772,0,0
-609,-748,0,0,0,0,0,0,0,0,0,-1,615,1772,0,0
-602,-748,0,0,0,0,0,0,0,0,0,-1,622,1772,0,0
-595,-748,0,0,0,0,0,0,0,0,0,-1,629,1772,0,0
-588,-748,0,0,0,0,0,0,0,0,0,-1,636,1772,0,0
-581,-748,0,0,0,0,0,0,0,0,0,-1,643,1772,0,0
-574,-748,0,0,0,0,0,0,0,0,0,-1,650,1772,0,0
-567,-748,0,0,0,0,0,0,0,0,0,-1,657,1772,0,0
-560,-748,0,0,0,0,0,0,0,0,0,-1,664,1772,0,0
-553,-748,0,0,0,0,0,0,0,0,0,-1,671,1772,0,0
-546,-748,0,0,0,0,0,0,0,0,0,-1,678,1772,0,0
-539,-748,0,0,0,0,0,0,0,0,0,-1,685,1772,0,0
-532,-748,0,0,0,0,0,0,0,0,0,-1,692,1772,0,0
-525,-748,0,0,0,0,0,0,0,0,0,-1,699,1772,0,0
-518,-748,0,0,0,0,0,0,0,0,0,-1,706,1772,0,0
-511,-748,0,0,0,0,0,0,0,0,0,-1,713,1772,0,0
-504,-748,0,0,0,0,0,0,0,0,0,-1,720,1772,0,0
-497,-748,0,0,0,0,0,0,0,0,0,-1,727,1772,0,0
-490,-748,0,0,0,0,0,0,0,0,0,-1,734,1772,0,0
-483,-748,0,0,0,0,0,0,0,0,0,-1,741,1772,0,0
-476,-748,0,0,0,0,0,0,0,0,0,-1,748,1772,0,0
-469,-748,0,0,0,0,0,0,0,0,0,-1,755,1772,0,0
-462,-748,0,0,0,0,0,0,0,0,0,-1,762,1772,0,0
-455,-748,0,0,0,0,0,0,0,0,0,-1,769,1772,0,0
-448,-748,0,0,0,0,0,0,0,0,0,-1,776,1772,0,0
-441,-748,0,0,0,0,0,0,0,0,0,-1,783,1772,0,0
-434,-748,0,0,0,0,0,0,0,0,0,-1,790,1772,0,0
-427,-748,0,0,0,0,0,0,0,0,0,-1,797,1772,0,0
-420,-748,0,0,0,0,0,0,0,0,0,-1,804,1772,0,0
-413,-748,0,0,0,0,0,0,0,0,0,-1,811,1772,0,0
-406,-748,0,0,0,0,0,0,0,0,0,-1,818,1772,0,0
-399,-748,0,0,0,0,0,0,0,0,0,-1,825,1772,0,0
-392,-748,0,0,0,0,0,0,0,0,0,-1,832,1772,0,0
-385,-748,0,0,0,0,0,0,0,0,0,-1,839,1772,0,0
-378,-748,0,0,0,0,0,0,0,0,0,-1,846,1772,0,0
-371,-748,0,0,0,0,0,0,0,0,0,-1,853,1772,0,0
-364,-748,0,0,0,0,0,0,0,0,0,-1,860,1772,0,0
-357,-748,0,0,0,0,0,0,0,0,0,-1,867,1772,0,0
-350,-748,0,0,0,0,0,0,0,0,0,-1,874,1772,0,0
-343,-748,0,0,0,0,0,0,0,0,0,-1,881,1772,0,0
-336,-748,0,0,0,0,0,0,0,0,0,-1,888,1772,0,0
-329,-748,0,0,0,0,0,0,0,0,0,-1,895,1772,0,0
-322,-748,0,0,0,0,0,0,0,0,0,-1,902,1772,0,0
-315,-748,0,0,0,0,0,0,0,0,0,-1,909,1772,0,0
-308,-748,0,0,0,0,0,0,0,0,0,-1,916,1772,0,0
-301,-748,0,0,0,0,0,0,0,0,0,-1,923,1772,0,0
-294,-748,0,0,0,0,0,0,0,0,0,-1,930,1772,0,0
-287,-748,0,0,0,0,0,0,0,0,0,-1,937,1772,0,0
-280,-748,0,0,0,0,0,0,0,0,0,-1,944,1772,0,0
-273,-748,0,0,0,0,0,0,0,0,0,-1,951,1772,0,0
-266,-748,0,0,0,0,0,0,0,0,0,-1,958,1772,0,0
-259,-748,0,0,0,0,0,0,0,0,0,-1,965,1772,0,0
-252,-748,0,0,0,0,0,0,0,0,0,-1,972,1772,0,0
-245,-748,0,0,0,0,0,0,0,0,0,-1,979,1772,0,0
-238,-748,0,0,0,0,0,0,0,0,0,-1,986,1772,0,0
-231,-748,0,0,0,0,0,0,0,0,0,-1,993,1772,0,0
-224,-748,0,0,0,0,0,0,0,0,0,-1,1000,1772,0,0
-217,-748,8.97742,29.9884,0,0,0,0,0,0,0,-1,1007,1772,8.97744,-29.9884
-210,-748,8.8941,30.14,0,0,0,0,0,0,0,-1,1014,1772,8.8941,-30.14
-203,-748,7.88,43.3942,0,0,0,0,0,0,0,-1,1021,1772,7.87999,-43.3941
-196,-748,7.95483,43.9952,0,0,0,0,0,0,0,-1,1028,1772,7.95478,-43.9953
-189,-748,8.18359,44.5873,0,0,0,0,0,0,0,-1,1035,1772,8.18358,-44.5873
-182,-748,8.49304,45.5183,0,0,0,0,0,0,0,-1,1042,1772,8.49308,-45.5183
-175,-748,10.4392,50.6167,0,0,0,0,0,0,0,-1,1049,1772,10.4392,-50.6167
-168,-748,9.54541,50.6587,0,0,0,0,0,0,0,-1,1056,1772,9.54547,-50.6586
-161,-748,10.7574,47.7889,0,0,0,0,0,0,0,-1,1063,1772,10.7574,-47.7889
-154,-748,11.4552,48.7113,0,0,0,0,0,0,0,-1,1070,1772,11.4552,-48.7113
-147,-748,11.7789,49.4792,0,0,0,0,0,0,0,-1,1077,1772,11.7789,-49.4793
-140,-748,10.4108,44.9001,0,0,0,0,0,0,0,-1,1084,1772,10.4107,-44.9001
-133,-748,7.44727,22.0308,0,0,0,0,0,0,0,-1,1091,1772,7.44728,-22.0308
-126,-748,5.98035,22.6067,0,0,0,0,0,0,0,-1,1098,1772,5.9803,-22.6067
-119,-748,6.63342,26.309,0,0,0,0,0,0,0,-1,1105,1772,6.6334,-26.3089
-112,-748,6.91333,24.923,0,0,0,0,0,0,0,-1,1112,1772,6.91339,-24.923
-105,-748,6.83313,25.0537,0,0,0,0,0,0,0,-1,1119,1772,6.83311,-25.0537
-98,-748,8.13623,30.8743,0,0,0,0,0,0,0,-1,1126,1772,8.13628,-30.8742
-91,-748,4.85352,15.3033,0,0,0,0,0,0,0,-1,1133,1772,4.85351,-15.3033
-84,-748,-0.192017,7.26196,0,0,0,0,0,0,0,-1,1140,1772,-0.192047,-7.26201
-77,-748,4.42615,13.5537,0,0,0,0,0,0,0,-1,1147,1772,4.4261,-13.5538
-70,-748,4.46191,13.7446,0,0,0,0,0,0,0,-1,1154,1772,4.4619,-13.7446
-63,-748,4.49768,13.9355,0,0,0,0,0,0,0,-1,1161,1772,4.49769,-13.9355
-56,-748,3.05762,7.87817,0,0,0,0,0,0,0,-1,1168,1772,3.05768,-7.87822
-49,-748,3.04102,7.82471,0,0,0,0,0,0,0,-1,1175,1772,3.04096,-7.82468
-42,-748,0.793457,14.9474,0,0,0,0,0,0,0,-1,1182,1772,0.793413,-14.9474
-35,-748,9.62146,62.8523,0,0,0,0,0,0,0,-1,1189,1772,9.62141,-62.8522
-28,-748,9.53394,63.2107,0,0,0,0,0,0,0,-1,1196,1772,9.53389,-63.2107
-21,-748,9.48938,63.3553,-0.0152063,0.00959016,-0.00778724,0.0118329,-0.017449,-1.29039,0.0170092,0.0233257,1203,1772,9.48941,-63.3554
-14,-748,9.40808,63.4968,-0.0148899,0.0106565,-0.0081595,0.0130402,-0.0172737,-1.28657,0.0175585,0.0169059,1210,1772,9.40808,-63.4968
-7,-748,9.36108,63.6788,-0.0145921,0.0114485,-0.00811474,0.0137702,-0.0169138,-1.29213,0.0177464,0.0164219,1217,1772,9.36108,-63.6789
0,-748,9.2804,63.8137,-0.0141222,0.0121627,-0.00780393,0.0143051,-0.0162645,-1.30287,0.0176614,0.016137,1224,1772,9.28035,-63.8137
7,-748,9.21167,63.9561,-0.0134966,0.0130444,-0.00775654,0.015145,-0.0155972,-1.30633,0.0177496,0.0152782,1231,1772,9.21173,-63.9561
14,-748,9.17078,64.1113,-0.0127099,0.014195,-0.00734718,0.0160706,-0.0145855,-1.32085,0.0177062,0.0168429,1238,1772,9.17078,-64.1114
21,-748,9.14551,64.2161,-0.0119587,0.0150582,-0.00686349,0.0167018,-0.0136024,-1.33575,0.0175266,0.0124858,1245,1772,9.14551,-64.2161
28,-748,9.08936,64.3483,-0.0108883,0.0166842,-0.00652185,0.018149,-0.0123531,-1.34986,0.0177161,0.0126221,1252,1772,9.08941,-64.3483
35,-748,9.05127,64.3949,-0.00968086,0.0188944,-0.00630298,0.0202229,-0.0110094,-1.36306,0.0182916,0.0132984,1259,1772,9.05123,-64.3949
42,-748,9.04626,64.4365,-0.00861509,0.0209765,-0.00603099,0.0221585,-0.00979704,-1.37727,0.0189041,0.0156947,1266,1772,9.04623,-64.4365
49,-748,8.98926,64.4615,-0.00765923,0.0231341,-0.00586304,0.0242126,-0.00873777,-1.38887,0.0197108,0.0119768,1273,1772,8.98925,-64.4615
56,-748,8.89734,64.5128,-0.00643081,0.0249805,-0.00615526,0.0261436,-0.00759391,-1.38404,0.0204362,0.0110038,1280,1772,8.89737,-64.5128
63,-748,8.84253,64.5145,-0.00497826,0.0264815,-0.00655907,0.0277942,-0.00629099,-1.37327,0.0209438,0.0131378,1287,1772,8.84254,-64.5145
70,-748,8.82568,64.4941,-0.00414836,0.0275188,-0.00712231,0.0290469,-0.00567651,-1.35944,0.021508,0.0148516,1294,1772,8.82574,-64.4942
77,-748,8.78491,64.4713,-0.00346715,0.0281551,-0.0077086,0.0299341,-0.0052462,-1.34398,0.0219151,0.0136177,1301,1772,8.7849,-64.4713
84,-748,8.6991,64.4568,-0.00287134,0.0280535,-0.00847241,0.0302225,-0.00504038,-1.32017,0.0220216,0.014791,1308,1772,8.69907,-64.4568
91,-748,8.67175,64.3884,-0.00226947,0.0270654,-0.00908774,0.0296525,-0.00485662,-1.29345,0.0215703,0.0118904,1315,1772,8.67177,-64.3885
98,-748,8.63269,64.2859,-0.00185774,0.0251206,-0.00991368,0.0283717,-0.00510891,-1.2539,0.0208274,0.0111151,1322,1772,8.63268,-64.2858
105,-748,8.62061,64.1423,-0.00171734,0.0227592,-0.0105431,0.0266743,-0.00563247,-1.21523,0.0199275,0.0122999,1329,1772,8.62062,-64.1424
112,-748,8.61267,64.0133,-0.00192236,0.0195495,-0.0104853,0.0238203,-0.00619318,-1.184,0.0182974,0.0160071,1336,1772,8.61265,-64.0133
119,-748,8.54761,63.8843,-0.00227516,0.0156703,-0.0106497,0.0206234,-0.00722819,-1.13547,0.0166885,0.0148185,1343,1772,8.54762,-63.8843
126,-748,8.46606,63.7677,-0.00259816,0.0120405,-0.0104356,0.0174677,-0.00802537,-1.09122,0.0150512,0.0158902,1350,1772,8.46607,-63.7677
133,-748,8.38965,63.5671,-0.00318744,0.00726828,-0.00977213,0.0131231,-0.00904222,-1.03102,0.0128692,0.00985436,1357,1772,8.38965,-63.5671
140,-748,8.35071,63.3562,-0.00387026,0.00240683,-0.00871873,0.00853471,-0.00999814,-0.958166,0.0107111,0.0130546,1364,1772,8.35066,-63.3562
147,-748,8.30896,63.1571,-0.00400583,-0.000164848,-0.00779978,0.00594739,-0.0101181,-0.906109,0.00937901,0.014794,1371,1772,8.30899,-63.1571
154,-748,8.21667,62.9559,-0.00395933,-0.00219727,-0.00693426,0.0039117,-0.0100683,-0.848587,0.00832817,0.0125767,1378,1772,8.21663,-62.9559
161,-748,8.17114,62.74,-0.00492326,-0.00377473,-0.00509344,0.000776719,-0.00947471,-0.841534,0.00659065,0.0193639,1385,1772,8.17117,-62.74
168,-748,8.18445,62.5085,0,0,0,0,0,0,0,-1,1392,1772,8.1845,-62.5085
175,-748,11.6235,16.8242,0,0,0,0,0,0,0,-1,1399,1772,11.6236,-16.8242
182,-748,7.62476,10.3058,0,0,0,0,0,0,0,-1,1406,1772,7.62476,-10.3058
189,-748,6.15857,6.95898,0,0,0,0,0,0,0,-1,1413,1772,6.15862,-6.95896
196,-748,3.9425,8.46021,0,0,0,0,0,0,0,-1,1420,1772,3.9425,-8.46026
203,-748,3.9668,12.9835,0,0,0,0,0,0,0,-1,1427,1772,3.96678,-12.9836
210,-748,4.71472,16.8318,0,0,0,0,0,0,0,-1,1434,1772,4.71471,-16.8317
217,-748,5.38452,21.5551,0,0,0,0,0,0,0,-1,1441,1772,5.38455,-21.555
224,-748,6.14258,25.2345,0,0,0,0,0,0,0,-1,1448,1772,6.14263,-25.2345
231,-748,6.46045,29.7867,0,0,0,0,0,0,0,-1,1455,1772,6.46049,-29.7867
238,-748,7.41565,32.8574,0,0,0,0,0,0,0,-1,1462,1772,7.41562,-32.8574
245,-748,7.84912,32.0914,0,0,0,0,0,0,0,-1,1469,1772,7.84914,-32.0914
252,-748,7.57336,29.4369,0,0,0,0,0,0,0,-1,1476,1772,7.57337,-29.4369
259,-748,9.47351,46.1896,0,0,0,0,0,0,0,-1,1483,1772,9.4735,-46.1895
266,-748,8.36536,48.6908,0,0,0,0,0,0,0,-1,1490,1772,8.36541,-48.6909
273,-748,7.31421,46.6743,0,0,0,0,0,0,0,-1,1497,1772,7.31415,-46.6743
280,-748,8.76538,40.4501,0,0,0,0,0,0,0,-1,1504,1772,8.76537,-40.45
287,-748,14.161,8.32813,0,0,0,0,0,0,0,-1,1511,1772,14.161,-8.32808
294,-748,6.38525,32.4724,0,0,0,0,0,0,0,-1,1518,1772,6.38521,-32.4725
301,-748,5.40393,38.9807,0,0,0,0,0,0,0,-1,1525,1772,5.40397,-38.9807
308,-748,5.95227,37.1827,0,0,0,0,0,0,0,-1,1532,1772,5.95229,-37.1827
315,-748,7.71741,42.637,0,0,0,0,0,0,0,-1,1539,1772,7.71738,-42.637
322,-748,4.26538,29.0557,0,0,0,0,0,0,0,-1,1546,1772,4.26537,-29.0556
329,-748,3.87256,16.1473,0,0,0,0,0,0,0,-1,1553,1772,3.87259,-16.1474
336,-748,4.81006,19.6141,0,0,0,0,0,0,0,-1,1560,1772,4.81011,-19.6141
343,-748,0,0,0,0,0,0,0,0,0,-1,1567,1772,0,0
350,-748,0,0,0,0,0,0,0,0,0,-1,1574,1772,0,0
357,-748,0,0,0,0,0,0,0,0,0,-1,1581,1772,0,0
364,-748,0,0,0,0,0,0,0,0,0,-1,1588,1772,0,0
371,-748,0,0,0,0,0,0,0,0,0,-1,1595,1772,0,0
378,-748,0,0,0,0,0,0,0,0,0,-1,1602,1772,0,0
385,-748,0,0,0,0,0,0,0,0,0,-1,1609,1772,0,0
392,-748,0,0,0,0,0,0,0,0,0,-1,1616,1772,0,0
399,-748,0,0,0,0,0,0,0,0,0,-1,1623,1772,0,0
406,-748,0,0,0,0,0,0,0,0,0,-1,1630,1772,0,0
413,-748,0,0,0,0,0,0,0,0,0,-1,1637,1772,0,0
420,-748,0,0,0,0,0,0,0,0,0,-1,1644,1772,0,0
427,-748,0,0,0,0,0,0,0,0,0,-1,1651,1772,0,0
434,-748,0,0,0,0,0,0,0,0,0,-1,1658,1772,0,0
441,-748,0,0,0,0,0,0,0,0,0,-1,1665,1772,0,0
448,-748,0,0,0,0,0,0,0,0,0,-1,1672,1772,0,0
455,-748,0,0,0,0,0,0,0,0,0,-1,1679,1772,0,0
462,-748,0,0,0,0,0,0,0,0,0,-1,1686,1772,0,0
469,-748,0,0,0,0,0,0,0,0,0,-1,1693,1772,0,0
476,-748,0,0,0,0,0,0,0,0,0,-1,1700,1772,0,0
483,-748,0,0,0,0,0,0,0,0,0,-1,1707,1772,0,0
490,-748,0,0,0,0,0,0,0,0,0,-1,1714,1772,0,0
497,-748,0,0,0,0,0,0,0,0,0,-1,1721,1772,0,0
504,-748,0,0,0,0,0,0,0,0,0,-1,1728,1772,0,0
511,-748,0,0,0,0,0,0,0,0,0,-1,1735,1772,0,0
518,-748,0,0,0,0,0,0,0,0,0,-1,1742,1772,0,0
525,-748,0,0,0,0,0,0,0,0,0,-1,1749,1772,0,0
532,-748,0,0,0,0,0,0,0,0,0,-1,1756,1772,0,0
539,-748,0,0,0,0,0,0,0,0,0,-1,1763,1772,0,0
546,-748,0,0,0,0,0,0,0,0,0,-1,1770,1772,0,0
553,-748,0,0,0,0,0,0,0,0,0,-1,1777,1772,0,0
560,-748,0,0,0,0,0,0,0,0,0,-1,1784,1772,0,0
567,-748,0,0,0,0,0,0,0,0,0,-1,1791,1772,0,0
574,-748,0,0,0,0,0,0,0,0,0,-1,1798,1772,0,0
581,-748,0,0,0,0,0,0,0,0,0,-1,1805,1772,0,0
588,-748,0,0,0,0,0,0,0,0,0,-1,1812,1772,0,0
595,-748,0,0,0,0,0,0,0,0,0,-1,1819,1772,0,0
602,-748,0,0,0,0,0,0,0,0,0,-1,1826,1772,0,0
609,-748,0,0,0,0,0,0,0,0,0,-1,1833,1772,0,0
616,-748,0,0,0,0,0,0,0,0,0,-1,1840,1772,0,0
623,-748,0,0,0,0,0,0,0,0,0,-1,1847,1772,0,0
630,-748,0,0,0,0,0,0,0,0,0,-1,1854,1772,0,0
637,-748,0,0,0,0,0,0,0,0,0,-1,1861,1772,0,0
644,-748,0,0,0,0,0,0,0,0,0,-1,1868,1772,0,0
651,-748,0,0,0,0,0,0,0,0,0,-1,1875,1772,0,0
658,-748,0,0,0,0,0,0,0,0,0,-1,1882,1772,0,0
665,-748,0,0,0,0,0,0,0,0,0,-1,1889,1772,0,0
672,-748,0,0,0,0,0,0,0,0,0,-1,1896,1772,0,0
679,-748,0,0,0,0,0,0,0,0,0,-1,1903,1772,0,0
686,-748,0,0,0,0,0,0,0,0,0,-1,1910,1772,0,0
693,-748,0,0,0,0,0,0,0,0,0,-1,1917,1772,0,0
700,-748,0,0,0,0,0,0,0,0,0,-1,1924,1772,0,0
707,-748,0,0,0,0,0,0,0,0,0,-1,1931,1772,0,0
714,-748,0,0,0,0,0,0,0,0,0,-1,1938,1772,0,0
721,-748,0,0,0,0,0,0,0,0,0,-1,1945,1772,0,0
728,-748,0,0,0,0,0,0,0,0,0,-1,1952,1772,0,0
735,-748,0,0,0,0,0,0,0,0,0,-1,1959,1772,0,0
742,-748,0,0,0,0,0,0,0,0,0,-1,1966,1772,0,0
749,-748,0,0,0,0,0,0,0,0,0,-1,1973,1772,0,0
756,-748,0,0,0,0,0,0,0,0,0,-1,1980,1772,0,0
763,-748,0,0,0,0,0,0,0,0,0,-1,1987,1772,0,0
770,-748,0,0,0,0,0,0,0,0,0,-1,1994,1772,0,0
777,-748,0,0,0,0,0,0,0,0,0,-1,2001,1772,0,0
784,-748,0,0,0,0,0,0,0,0,0,-1,2008,1772,0,0
791,-748,0,0,0,0,0,0,0,0,0,-1,2015,1772,0,0
798,-748,0,0,0,0,0,0,0,0,0,-1,2022,1772,0,0
805,-748,0,0,0,0,0,0,0,0,0,-1,2029,1772,0,0
812,-748,0,0,0,0,0,0,0,0,0,-1,2036,1772,0,0
-700,-755,0,0,0,0,0,0,0,0,0,-1,524,1779,0,0
-693,-755,0,0,0,0,0,0,0,0,0,-1,531,1779,0,0
-686,-755,0,0,0,0,0,0,0,0,0,-1,538,1779,0,0
-679,-755,0,0,0,0,0,0,0,0,0,-1,545,1779,0,0
-672,-755,0,0,0,0,0,0,0,0,0,-1,552,1779,0,0
-665,-755,0,0,0,0,0,0,0,0,0,-1,559,1779,0,0
-658,-755,0,0,0,0,0,0,0,0,0,-1,566,1779,0,0
-651,-755,0,0,0,0,0,0,0,0,0,-1,573,1779,0,0
-644,-755,0,0,0,0,0,0,0,0,0,-1,580,1779,0,0
-637,-755,0,0,0,0,0,0,0,0,0,-1,587,1779,0,0
-630,-755,0,0,0,0,0,0,0,0,0,-1,594,1779,0,0
-623,-755,0,0,0,0,0,0,0,0,0,-1,601,1779,0,0
-616,-755,0,0,0,0,0,0,0,0,0,-1,608,1779,0,0
-609,-755,0,0,0,0,0,0,0,0,0,-1,615,1779,0,0
-602,-755,0,0,0,0,0,0,0,0,0,-1,622,1779,0,0
-595,-755,0,0,0,0,0,0,0,0,0,-1,629,1779,0,0
-588,-755,0,0,0,0,0,0,0,0,0,-1,636,1779,0,0
-581,-755,0,0,0,0,0,0,0,0,0,-1,643,1779,0,0
-574,-755,0,0,0,0,0,0,0,0,0,-1,650,1779,0,0
-567,-755,0,0,0,0,0,0,0,0,0,-1,657,1779,0,0
-560,-755,0,0,0,0,0,0,0,0,0,-1,664,1779,0,0
-553,-755,0,0,0,0,0,0,0,0,0,-1,671,1779,0,0
-546,-755,0,0,0,0,0,0,0,0,0,-1,678,1779,0,0
-539,-755,0,0,0,0,0,0,0,0,0,-1,685,1779,0,0
-532,-755,0,0,0,0,0,0,0,0,0,-1,692,1779,0,0
-525,-755,0,0,0,0,0,0,0,0,0,-1,699,1779,0,0
-518,-755,0,0,0,0,0,0,0,0,0,-1,706,1779,0,0
-511,-755,0,0,0,0,0,0,0,0,0,-1,713,1779,0,0
-504,-755,0,0,0,0,0,0,0,0,0,-1,720,1779,0,0
-497,-755,0,0,0,0,0,0,0,0,0,-1,727,1779,0,0
-490,-755,0,0,0,0,0,0,0,0,0,-1,734,1779,0,0
-483,-755,0,0,0,0,0,0,0,0,0,-1,741,1779,0,0
-476,-755,0,0,0,0,0,0,0,0,0,-1,748,1779,0,0
-469,-755,0,0,0,0,0,0,0,0,0,-1,755,1779,0,0
-462,-755,0,0,0,0,0,0,0,0,0,-1,762,1779,0,0
-455,-755,0,0,0,0,0,0,0,0,0,-1,769,1779,0,0
-448,-755,0,0,0,0,0,0,0,0,0,-1,776,1779,0,0
-441,-755,0,0,0,0,0,0,0,0,0,-1,783,1779,0,0
-434,-755,0,0,0,0,0,0,0,0,0,-1,790,1779,0,0
-427,-755,0,0,0,0,0,0,0,0,0,-1,797,1779,0,0
-420,-755,0,0,0,0,0,0,0,0,0,-1,804,1779,0,0
-413,-755,0,0,0,0,0,0,0,0,0,-1,811,1779,0,0
-406,-755,0,0,0,0,0,0,0,0,0,-1,818,1779,0,0
-399,-755,0,0,0,0,0,0,0,0,0,-1,825,1779,0,0
-392,-755,0,0,0,0,0,0,0,0,0,-1,832,1779,0,0
-385,-755,0,0,0,0,0,0,0,0,0,-1,839,1779,0,0
-378,-755,0,0,0,0,0,0,0,0,0,-1,846,1779,0,0
-371,-755,0,0,0,0,0,0,0,0,0,-1,853,1779,0,0
-364,-755,0,0,0,0,0,0,0,0,0,-1,860,1779,0,0
-357,-755,0,0,0,0,0,0,0,0,0,-1,867,1779,0,0
-350,-755,0,0,0,0,0,0,0,0,0,-1,874,1779,0,0
-343,-755,0,0,0,0,0,0,0,0,0,-1,881,1779,0,0
-336,-755,0,0,0,0,0,0,0,0,0,-1,888,1779,0,0
-329,-755,0,0,0,0,0,0,0,0,0,-1,895,1779,0,0
-322,-755,0,0,0,0,0,0,0,0,0,-1,902,1779,0,0
-315,-755,0,0,0,0,0,0,0,0,0,-1,909,1779,0,0
-308,-755,0,0,0,0,0,0,0,0,0,-1,916,1779,0,0
-301,-755,0,0,0,0,0,0,0,0,0,-1,923,1779,0,0
-294,-755,0,0,0,0,0,0,0,0,0,-1,930,1779,0,0
-287,-755,0,0,0,0,0,0,0,0,0,-1,937,1779,0,0
-280,-755,0,0,0,0,0,0,0,0,0,-1,944,1779,0,0
-273,-755,0,0,0,0,0,0,0,0,0,-1,951,1779,0,0
-266,-755,0,0,0,0,0,0,0,0,0,-1,958,1779,0,0
-259,-755,0,0,0,0,0,0,0,0,0,-1,965,1779,0,0
-252,-755,0,0,0,0,0,0,0,0,0,-1,972,1779,0,0
-245,-755,0,0,0,0,0,0,0,0,0,-1,979,1779,0,0
-238,-755,0,0,0,0,0,0,0,0,0,-1,986,1779,0,0
-231,-755,0,0,0,0,0,0,0,0,0,-1,993,1779,0,0
-224,-755,0,0,0,0,0,0,0,0,0,-1,1000,1779,0,0
-217,-755,0,0,0,0,0,0,0,0,0,-1,1007,1779,0,0
-210,-755,0,0,0,0,0,0,0,0,0,-1,1014,1779,0,0
-203,-755,8.97363,30.5414,0,0,0,0,0,0,0,-1,1021,1779,8.97362,-30.5414
-196,-755,8.08667,43.2203,0,0,0,0,0,0,0,-1,1028,1779,8.08666,-43.2204
-189,-755,0.725098,39.8892,0,0,0,0,0,0,0,-1,1035,1779,0.725055,-39.8891
-182,-755,1.80835,40.9692,0,0,0,0,0,0,0,-1,1042,1779,1.80838,-40.9692
-175,-755,3.04749,41.9612,0,0,0,0,0,0,0,-1,1049,1779,3.0475,-41.9612
-168,-755,4.8302,42.7631,0,0,0,0,0,0,0,-1,1056,1779,4.8302,-42.7631
-161,-755,6.46777,44.0007,0,0,0,0,0,0,0,-1,1063,1779,6.46773,-44.0007
-154,-755,7.71094,44.9023,0,0,0,0,0,0,0,-1,1070,1779,7.71089,-44.9023
-147,-755,-6.45593,10.2422,0,0,0,0,0,0,0,-1,1077,1779,-6.45594,-10.2422
-140,-755,1.33521,21.3856,0,0,0,0,0,0,0,-1,1084,1779,1.33522,-21.3857
-133,-755,2.89417,21.0964,0,0,0,0,0,0,0,-1,1091,1779,2.89422,-21.0964
-126,-755,3.26404,20.9304,0,0,0,0,0,0,0,-1,1098,1779,3.26399,-20.9305
-119,-755,5.17761,21.9325,0,0,0,0,0,0,0,-1,1105,1779,5.17761,-21.9325
-112,-755,5.40247,24.5646,0,0,0,0,0,0,0,-1,1112,1779,5.40244,-24.5646
-105,-755,7.01294,20.1539,0,0,0,0,0,0,0,-1,1119,1779,7.01295,-20.154
-98,-755,5.50708,16.9628,0,0,0,0,0,0,0,-1,1126,1779,5.5071,-16.9628
-91,-755,5.51025,12.0438,0,0,0,0,0,0,0,-1,1133,1779,5.51022,-12.0439
-84,-755,0.169312,8.66443,0,0,0,0,0,0,0,-1,1140,1779,0.16932,-8.66446
-77,-755,-0.0491943,6.87439,0,0,0,0,0,0,0,-1,1147,1779,-0.0491385,-6.87443
-70,-755,4.5686,13.2169,0,0,0,0,0,0,0,-1,1154,1779,4.56865,-13.2169
-63,-755,-1.36316,7.3147,0,0,0,0,0,0,0,-1,1161,1779,-1.36312,-7.31473
-56,-755,0.0483398,5.06079,0,0,0,0,0,0,0,-1,1168,1779,0.0483138,-5.06084
-49,-755,-1.32263,5.33716,0,0,0,0,0,0,0,-1,1175,1779,-1.32264,-5.33718
-42,-755,-2.03613,4.01672,0,0,0,0,0,0,0,-1,1182,1779,-2.0361,-4.01671
-35,-755,-2.72498,2.37476,0,0,0,0,0,0,0,-1,1189,1779,-2.72502,-2.37473
-28,-755,9.91541,62.8558,0,0,0,0,0,0,0,-1,1196,1779,9.91537,-62.8559
-21,-755,9.60767,63.421,0,0,0,0,0,0,0,-1,1203,1779,9.6077,-63.421
-14,-755,9.54187,63.4208,-0.0216935,0.0137128,-0.0128251,0.0178702,-0.025851,-1.25732,0.0253822,0.0332975,1210,1779,9.54181,-63.4208
-7,-755,9.43835,63.5372,-0.0211153,0.0151273,-0.0124614,0.0189984,-0.0249864,-1.2696,0.025473,0.0250432,1217,1779,9.43831,-63.5373
0,-755,9.40015,63.7028,-0.0203974,0.0167012,-0.0119028,0.0201917,-0.0238879,-1.28554,0.0254792,0.0158214,1224,1779,9.40011,-63.7027
7,-755,9.32849,63.8654,-0.0195484,0.0184937,-0.0117224,0.0218157,-0.0228704,-1.29464,0.025802,0.0141349,1231,1779,9.32848,-63.8654
14,-755,9.30981,64.0348,-0.0184967,0.0203193,-0.0110807,0.0232598,-0.0214371,-1.31141,0.0258129,0.0130252,1238,1779,9.30987,-64.0348
21,-755,9.22327,64.1958,-0.0174792,0.0218198,-0.0103728,0.0243896,-0.020049,-1.32794,0.0256974,0.0171518,1245,1779,9.22331,-64.1958
28,-755,9.14526,64.2725,-0.0157536,0.0243355,-0.0098943,0.0266445,-0.0180626,-1.34153,0.0259697,0.0204797,1252,1779,9.1453,-64.2725
35,-755,9.14014,64.3708,-0.013771,0.0275604,-0.0096393,0.0296979,-0.0159086,-1.35258,0.0267291,0.0214501,1259,1779,9.14013,-64.3709
42,-755,9.10205,64.4049,-0.0120803,0.0305999,-0.00929277,0.0325354,-0.0140159,-1.36545,0.0275763,0.015327,1266,1779,9.10205,-64.4049
49,-755,9.01929,64.4006,-0.0104525,0.0336931,-0.00911082,0.0354995,-0.0122589,-1.37507,0.0286409,0.0106156,1273,1779,9.01923,-64.4006
56,-755,8.92578,64.4532,-0.00840665,0.0361417,-0.00957571,0.0381128,-0.0103777,-1.36779,0.029483,0.0106162,1280,1779,8.92583,-64.4533
63,-755,8.86768,64.4879,-0.00599645,0.0380351,-0.0102148,0.0402894,-0.00825073,-1.35359,0.0299906,0.0109052,1287,1779,8.86773,-64.4879
70,-755,8.84229,64.4432,-0.00442478,0.0391369,-0.011067,0.0417872,-0.00707513,-1.33574,0.0304914,0.0152142,1294,1779,8.84229,-64.4432
77,-755,8.75183,64.3746,-0.00307473,0.039793,-0.0119708,0.0429093,-0.00619103,-1.31612,0.0308774,0.0142683,1301,1779,8.75178,-64.3746
84,-755,8.68945,64.3527,-0.00183851,0.0393923,-0.0131264,0.0432166,-0.00566279,-1.2873,0.0308723,0.0146249,1308,1779,8.68946,-64.3527
91,-755,8.6272,64.2928,-0.000638602,0.037719,-0.0141325,0.0423636,-0.00528322,-1.25327,0.0301581,0.0148018,1315,1779,8.62725,-64.2929
98,-755,8.52051,64.2354,0.000227025,0.0347323,-0.0154042,0.0406085,-0.00564916,-1.20637,0.0291385,0.0157895,1322,1779,8.52055,-64.2354
105,-755,8.50452,64.127,0.000813549,0.0310317,-0.0163918,0.0382155,-0.00637031,-1.15775,0.0278444,0.018628,1329,1779,8.50454,-64.127
112,-755,8.43518,63.9891,0.000927169,0.0260757,-0.0165113,0.0342556,-0.00725277,-1.11082,0.0255994,0.0247633,1336,1779,8.43524,-63.9892
119,-755,8.36914,63.8298,0.000732156,0.020514,-0.0169921,0.0302842,-0.00903805,-1.04897,0.0237817,0.026634,1343,1779,8.36913,-63.8298
126,-755,8.34033,63.7477,0.000422069,0.0150287,-0.016912,0.0261469,-0.0106961,-0.989225,0.021886,0.0304842,1350,1779,8.34037,-63.7477
133,-755,8.19568,63.6005,-0.00054363,0.00771896,-0.0162652,0.0203693,-0.013194,-0.909766,0.0195249,0.0301442,1357,1779,8.19569,-63.6005
140,-755,8.02258,63.3882,-0.00173241,-2.63775e-05,-0.0149041,0.0140491,-0.0158079,-0.813984,0.0172479,0.037454,1364,1779,8.02258,-63.3882
147,-755,8.18311,63.3024,-0.00173612,-0.00393061,-0.0136701,0.0108807,-0.0165474,-0.745351,0.0159478,0.0378434,1371,1779,8.18314,-63.3023
154,-755,8.11792,63.1345,-0.00157642,-0.00680637,-0.0123991,0.00848045,-0.0168632,-0.681471,0.0148966,0.0360413,1378,1779,8.11791,-63.1345
161,-755,7.95203,62.756,0,0,0,0,0,0,0,-1,1385,1779,7.95199,-62.7559
168,-755,3.98181,7.35901,0,0,0,0,0,0,0,-1,1392,1779,3.98184,-7.35904
175,-755,8.17065,1.34363,0,0,0,0,0,0,0,-1,1399,1779,8.1706,-1.34368
182,-755,8.09216,2.96924,0,0,0,0,0,0,0,-1,1406,1779,8.09213,-2.9693
189,-755,8.04419,4.68042,0,0,0,0,0,0,0,-1,1413,1779,8.04419,-4.68046
196,-755,7.74841,7.4541,0,0,0,0,0,0,0,-1,1420,1779,7.74842,-7.45405
203,-755,4.80554,6.88696,0,0,0,0,0,0,0,-1,1427,1779,4.80554,-6.88697
210,-755,25.1694,7.35693,0,0,0,0,0,0,0,-1,1434,1779,25.1694,-7.35688
217,-755,5.01648,16.411,0,0,0,0,0,0,0,-1,1441,1779,5.01646,-16.411
224,-755,5.18103,22.6283,0,0,0,0,0,0,0,-1,1448,1779,5.18101,-22.6283
231,-755,5.7489,30.15,0,0,0,0,0,0,0,-1,1455,1779,5.74885,-30.15
238,-755,6.56323,29.2726,0,0,0,0,0,0,0,-1,1462,1779,6.56327,-29.2726
245,-755,8.29639,28.2113,0,0,0,0,0,0,0,-1,1469,1779,8.29639,-28.2113
252,-755,6.8877,28.8699,0,0,0,0,0,0,0,-1,1476,1779,6.88774,-28.8698
259,-755,6.42676,30.8574,0,0,0,0,0,0,0,-1,1483,1779,6.42677,-30.8575
266,-755,17.255,7.86096,0,0,0,0,0,0,0,-1,1490,1779,17.255,-7.86092
273,-755,15.7932,7.59778,0,0,0,0,0,0,0,-1,1497,1779,15.7932,-7.59777
280,-755,14.6255,7.34802,0,0,0,0,0,0,0,-1,1504,1779,14.6254,-7.34806
287,-755,13.8279,7.83105,0,0,0,0,0,0,0,-1,1511,1779,13.8279,-7.83104
294,-755,12.5695,7.96814,0,0,0,0,0,0,0,-1,1518,1779,12.5694,-7.9682
301,-755,11.2659,8.27087,0,0,0,0,0,0,0,-1,1525,1779,11.2658,-8.27087
308,-755,5.17737,37.2896,0,0,0,0,0,0,0,-1,1532,1779,5.17742,-37.2896
315,-755,0.828613,31.032,0,0,0,0,0,0,0,-1,1539,1779,0.828668,-31.032
322,-755,0,0,0,0,0,0,0,0,0,-1,1546,1779,0,0
329,-755,0,0,0,0,0,0,0,0,0,-1,1553,1779,0,0
336,-755,0,0,0,0,0,0,0,0,0,-1,1560,1779,0,0
343,-755,0,0,0,0,0,0,0,0,0,-1,1567,1779,0,0
350,-755,0,0,0,0,0,0,0,0,0,-1,1574,1779,0,0
357,-755,0,0,0,0,0,0,0,0,0,-1,1581,1779,0,0
364,-755,0,0,0,0,0,0,0,0,0,-1,1588,1779,0,0
371,-755,0,0,0,0,0,0,0,0,0,-1,1595,1779,0,0
378,-755,0,0,0,0,0,0,0,0,0,-1,1602,1779,0,0
385,-755,0,0,0,0,0,0,0,0,0,-1,1609,1779,0,0
392,-755,0,0,0,0,0,0,0,0,0,-1,1616,1779,0,0
399,-755,0,0,0,0,0,0,0,0,0,-1,1623,1779,0,0
406,-755,0,0,0,0,0,0,0,0,0,-1,1630,1779,0,0
413,-755,0,0,0,0,0,0,0,0,0,-1,1637,1779,0,0
420,-755,0,0,0,0,0,0,0,0,0,-1,1644,1779,0,0
427,-755,0,0,0,0,0,0,0,0,0,-1,1651,1779,0,0
434,-755,0,0,0,0,0,0,0,0,0,-1,1658,1779,0,0
441,-755,0,0,0,0,0,0,0,0,0,-1,1665,1779,0,0
448,-755,0,0,0,0,0,0,0,0,0,-1,1672,1779,0,0
455,-755,0,0,0,0,0,0,0,0,0,-1,1679,1779,0,0
462,-755,0,0,0,0,0,0,0,0,0,-1,1686,1779,0,0
469,-755,0,0,0,0,0,0,0,0,0,-1,1693,1779,0,0
476,-755,0,0,0,0,0,0,0,0,0,-1,1700,1779,0,0
483,-755,0,0,0,0,0,0,0,0,0,-1,1707,1779,0,0
490,-755,0,0,0,0,0,0,0,0,0,-1,1714,1779,0,0
497,-755,0,0,0,0,0,0,0,0,0,-1,1721,1779,0,0
504,-755,0,0,0,0,0,0,0,0,0,-1,1728,1779,0,0
511,-755,0,0,0,0,0,0,0,0,0,-1,1735,1779,0,0
518,-755,0,0,0,0,0,0,0,0,0,-1,1742,1779,0,0
525,-755,0,0,0,0,0,0,0,0,0,-1,1749,1779,0,0
532,-755,0,0,0,0,0,0,0,0,0,-1,1756,1779,0,0
539,-755,0,0,0,0,0,0,0,0,0,-1,1763,1779,0,0
546,-755,0,0,0,0,0,0,0,0,0,-1,1770,1779,0,0
553,-755,0,0,0,0,0,0,0,0,0,-1,1777,1779,0,0
560,-755,0,0,0,0,0,0,0,0,0,-1,1784,1779,0,0
567,-755,0,0,0,0,0,0,0,0,0,-1,1791,1779,0,0
574,-755,0,0,0,0,0,0,0,0,0,-1,1798,1779,0,0
581,-755,0,0,0,0,0,0,0,0,0,-1,1805,1779,0,0
588,-755,0,0,0,0,0,0,0,0,0,-1,1812,1779,0,0
595,-755,0,0,0,0,0,0,0,0,0,-1,1819,1779,0,0
602,-755,0,0,0,0,0,0,0,0,0,-1,1826,1779,0,0
609,-755,0,0,0,0,0,0,0,0,0,-1,1833,1779,0,0
616,-755,0,0,0,0,0,0,0,0,0,-1,1840,1779,0,0
623,-755,0,0,0,0,0,0,0,0,0,-1,1847,1779,0,0
630,-755,0,0,0,0,0,0,0,0,0,-1,1854,1779,0,0
637,-755,0,0,0,0,0,0,0,0,0,-1,1861,1779,0,0
644,-755,0,0,0,0,0,0,0,0,0,-1,1868,1779,0,0
651,-755,0,0,0,0,0,0,0,0,0,-1,1875,1779,0,0
658,-755,0,0,0,0,0,0,0,0,0,-1,1882,1779,0,0
665,-755,0,0,0,0,0,0,0,0,0,-1,1889,1779,0,0
672,-755,0,0,0,0,0,0,0,0,0,-1,1896,1779,0,0
679,-755,0,0,0,0,0,0,0,0,0,-1,1903,1779,0,0
686,-755,0,0,0,0,0,0,0,0,0,-1,1910,1779,0,0
693,-755,0,0,0,0,0,0,0,0,0,-1,1917,1779,0,0
700,-755,0,0,0,0,0,0,0,0,0,-1,1924,1779,0,0
707,-755,0,0,0,0,0,0,0,0,0,-1,1931,1779,0,0
714,-755,0,0,0,0,0,0,0,0,0,-1,1938,1779,0,0
721,-755,0,0,0,0,0,0,0,0,0,-1,1945,1779,0,0
728,-755,0,0,0,0,0,0,0,0,0,-1,1952,1779,0,0
735,-755,0,0,0,0,0,0,0,0,0,-1,1959,1779,0,0
742,-755,0,0,0,0,0,0,0,0,0,-1,1966,1779,0,0
749,-755,0,0,0,0,0,0,0,0,0,-1,1973,1779,0,0
756,-755,0,0,0,0,0,0,0,0,0,-1,1980,1779,0,0
763,-755,0,0,0,0,0,0,0,0,0,-1,1987,1779,0,0
770,-755,0,0,0,0,0,0,0,0,0,-1,1994,1779,0,0
777,-755,0,0,0,0,0,0,0,0,0,-1,2001,1779,0,0
784,-755,0,0,0,0,0,0,0,0,0,-1,2008,1779,0,0
791,-755,0,0,0,0,0,0,0,0,0,-1,2015,1779,0,0
798,-755,0,0,0,0,0,0,0,0,0,-1,2022,1779,0,0
805,-755,0,0,0,0,0,0,0,0,0,-1,2029,1779,0,0
812,-755,0,0,0,0,0,0,0,0,0,-1,2036,1779,0,0
-700,-762,0,0,0,0,0,0,0,0,0,-1,524,1786,0,0
-693,-762,0,0,0,0,0,0,0,0,0,-1,531,1786,0,0
-686,-762,0,0,0,0,0,0,0,0,0,-1,538,1786,0,0
-679,-762,0,0,0,0,0,0,0,0,0,-1,545,1786,0,0
-672,-762,0,0,0,0,0,0,0,0,0,-1,552,1786,0,0
-665,-762,0,0,0,0,0,0,0,0,0,-1,559,1786,0,0
-658,-762,0,0,0,0,0,0,0,0,0,-1,566,1786,0,0
-651,-762,0,0,0,0,0,0,0,0,0,-1,573,1786,0,0
-644,-762,0,0,0,0,0,0,0,0,0,-1,580,1786,0,0
-637,-762,0,0,0,0,0,0,0,0,0,-1,587,1786,0,0
-630,-762,0,0,0,0,0,0,0,0,0,-1,594,1786,0,0
-623,-762,0,0,0,0,0,0,0,0,0,-1,601,1786,0,0
-616,-762,0,0,0,0,0,0,0,0,0,-1,608,1786,0,0
-609,-762,0,0,0,0,0,0,0,0,0,-1,615,1786,0,0
-602,-762,0,0,0,0,0,0,0,0,0,-1,622,1786,0,0
-595,-762,0,0,0,0,0,0,0,0,0,-1,629,1786,0,0
-588,-762,0,0,0,0,0,0,0,0,0,-1,636,1786,0,0
-581,-762,0,0,0,0,0,0,0,0,0,-1,643,1786,0,0
-574,-762,0,0,0,0,0,0,0,0,0,-1,650,1786,0,0
-567,-762,0,0,0,0,0,0,0,0,0,-1,657,1786,0,0
-560,-762,0,0,0,0,0,0,0,0,0,-1,664,1786,0,0
-553,-762,0,0,0,0,0,0,0,0,0,-1,671,1786,0,0
-546,-762,0,0,0,0,0,0,0,0,0,-1,678,1786,0,0
-539,-762,0,0,0,0,0,0,0,0,0,-1,685,1786,0,0
-532,-762,0,0,0,0,0,0,0,0,0,-1,692,1786,0,0
-525,-762,0,0,0,0,0,0,0,0,0,-1,699,1786,0,0
-518,-762,0,0,0,0,0,0,0,0,0,-1,706,1786,0,0
-511,-762,0,0,0,0,0,0,0,0,0,-1,713,1786,0,0
-504,-762,0,0,0,0,0,0,0,0,0,-1,720,1786,0,0
-497,-762,0,0,0,0,0,0,0,0,0,-1,727,1786,0,0
-490,-762,0,0,0,0,0,0,0,0,0,-1,734,1786,0,0
-483,-762,0,0,0,0,0,0,0,0,0,-1,741,1786,0,0
-476,-762,0,0,0,0,0,0,0,0,0,-1,748,1786,0,0
-469,-762,0,0,0,0,0,0,0,0,0,-1,755,1786,0,0
-462,-762,0,0,0,0,0,0,0,0,0,-1,762,1786,0,0
-455,-762,0,0,0,0,0,0,0,0,0,-1,769,1786,0,0
-448,-762,0,0,0,0,0,0,0,0,0,-1,776,1786,0,0
-441,-762,0,0,0,0,0,0,0,0,0,-1,783,1786,0,0
-434,-762,0,0,0,0,0,0,0,0,0,-1,790,1786,0,0
-427,-762,0,0,0,0,0,0,0,0,0,-1,797,1786,0,0
-420,-762,0,0,0,0,0,0,0,0,0,-1,804,1786,0,0
-413,-762,0,0,0,0,0,0,0,0,0,-1,811,1786,0,0
-406,-762,0,0,0,0,0,0,0,0,0,-1,818,1786,0,0
-399,-762,0,0,0,0,0,0,0,0,0,-1,825,1786,0,0
-392,-762,0,0,0,0,0,0,0,0,0,-1,832,1786,0,0
-385,-762,0,0,0,0,0,0,0,0,0,-1,839,1786,0,0
-378,-762,0,0,0,0,0,0,0,0,0,-1,846,1786,0,0
-371,-762,0,0,0,0,0,0,0,0,0,-1,853,1786,0,0
-364,-762,0,0,0,0,0,0,0,0,0,-1,860,1786,0,0
-357,-762,0,0,0,0,0,0,0,0,0,-1,867,1786,0,0
-350,-762,0,0,0,0,0,0,0,0,0,-1,874,1786,0,0
-343,-762,0,0,0,0,0,0,0,0,0,-1,881,1786,0,0
-336,-762,0,0,0,0,0,0,0,0,0,-1,888,1786,0,0
-329,-762,0,0,0,0,0,0,0,0,0,-1,895,1786,0,0
-322,-762,0,0,0,0,0,0,0,0,0,-1,902,1786,0,0
-315,-762,0,0,0,0,0,0,0,0,0,-1,909,1786,0,0
-308,-762,0,0,0,0,0,0,0,0,0,-1,916,1786,0,0
-301,-762,0,0,0,0,0,0,0,0,0,-1,923,1786,0,0
-294,-762,0,0,0,0,0,0,0,0,0,-1,930,1786,0,0
-287,-762,0,0,0,0,0,0,0,0,0,-1,937,1786,0,0
-280,-762,0,0,0,0,0,0,0,0,0,-1,944,1786,0,0
-273,-762,0,0,0,0,0,0,0,0,0,-1,951,1786,0,0
-266,-762,0,0,0,0,0,0,0,0,0,-1,958,1786,0,0
-259,-762,0,0,0,0,0,0,0,0,0,-1,965,1786,0,0
-252,-762,0,0,0,0,0,0,0,0,0,-1,972,1786,0,0
-245,-762,0,0,0,0,0,0,0,0,0,-1,979,1786,0,0
-238,-762,0,0,0,0,0,0,0,0,0,-1,986,1786,0,0
-231,-762,0,0,0,0,0,0,0,0,0,-1,993,1786,0,0
-224,-762,0,0,0,0,0,0,0,0,0,-1,1000,1786,0,0
-217,-762,0,0,0,0,0,0,0,0,0,-1,1007,1786,0,0
-210,-762,0,0,0,0,0,0,0,0,0,-1,1014,1786,0,0
-203,-762,0,0,0,0,0,0,0,0,0,-1,1021,1786,0,0
-196,-762,0,0,0,0,0,0,0,0,0,-1,1028,1786,0,0
-189,-762,0,0,0,0,0,0,0,0,0,-1,1035,1786,0,0
-182,-762,4.44226,13.2462,0,0,0,0,0,0,0,-1,1042,1786,4.44227,-13.2462
-175,-762,1.14465,40.1932,0,0,0,0,0,0,0,-1,1049,1786,1.1447,-40.1932
-168,-762,3.26794,41.3881,0,0,0,0,0,0,0,-1,1056,1786,3.26794,-41.388
-161,-762,-3.29077,11.9508,0,0,0,0,0,0,0,-1,1063,1786,-3.29076,-11.9508
-154,-762,-4.55823,11.1176,0,0,0,0,0,0,0,-1,1070,1786,-4.55828,-11.1175
-147,-762,-6.52454,9.41418,0,0,0,0,0,0,0,-1,1077,1786,-6.52458,-9.41419
-140,-762,4.99792,5.28589,0,0,0,0,0,0,0,-1,1084,1786,4.99793,-5.28587
-133,-762,0.689819,19.2172,0,0,0,0,0,0,0,-1,1091,1786,0.689867,-19.2171
-126,-762,1.48743,19.9288,0,0,0,0,0,0,0,-1,1098,1786,1.48738,-19.9289
-119,-762,2.65637,20.208,0,0,0,0,0,0,0,-1,1105,1786,2.65632,-20.208
-112,-762,6.84705,25.5554,0,0,0,0,0,0,0,-1,1112,1786,6.84706,-25.5554
-105,-762,5.57947,21.618,0,0,0,0,0,0,0,-1,1119,1786,5.57948,-21.618
-98,-762,5.0636,17.9901,0,0,0,0,0,0,0,-1,1126,1786,5.06361,-17.9901
-91,-762,4.54773,14.3622,0,0,0,0,0,0,0,-1,1133,1786,4.54774,-14.3622
-84,-762,3.96375,10.4547,0,0,0,0,0,0,0,-1,1140,1786,3.96371,-10.4548
-77,-762,0.305054,8.49365,0,0,0,0,0,0,0,-1,1147,1786,0.305008,-8.49362
-70,-762,0.183716,6.74622,0,0,0,0,0,0,0,-1,1154,1786,0.183696,-6.74621
-63,-762,-0.883057,9.08813,0,0,0,0,0,0,0,-1,1161,1786,-0.88311,-9.08808
-56,-762,-0.578979,5.10254,0,0,0,0,0,0,0,-1,1168,1786,-0.578951,-5.10249
-49,-762,-2.04541,3.66321,0,0,0,0,0,0,0,-1,1175,1786,-2.0454,-3.66319
-42,-762,-2.23462,3.474,0,0,0,0,0,0,0,-1,1182,1786,-2.23459,-3.47399
-35,-762,-3.28992,1.68164,0,0,0,0,0,0,0,-1,1189,1786,-3.28998,-1.68164
-28,-762,-3.75378,1.37769,0,0,0,0,0,0,0,-1,1196,1786,-3.75373,-1.37767
-21,-762,9.55176,63.4175,0,0,0,0,0,0,0,-1,1203,1786,9.55181,-63.4174
-14,-762,9.35181,63.5507,0,0,0,0,0,0,0,-1,1210,1786,9.35179,-63.5506
-7,-762,9.15173,63.6838,0,0,0,0,0,0,0,-1,1217,1786,9.15178,-63.6838
0,-762,9.5647,63.6792,-0.0278839,0.0215091,-0.0171598,0.0268854,-0.0332602,-1.26717,0.0347901,0.0400267,1224,1786,9.56472,-63.6792
7,-762,9.54285,63.8264,-0.0267378,0.0244598,-0.0167586,0.0294576,-0.0317356,-1.28097,0.035338,0.0239916,1231,1786,9.54281,-63.8264
14,-762,9.48376,64.1581,-0.0253612,0.0271428,-0.0158168,0.0315394,-0.0297578,-1.29967,0.035395,0.0394937,1238,1786,9.48379,-64.1581
21,-762,9.38989,64.251,-0.0239916,0.0294826,-0.0148066,0.0333087,-0.0278177,-1.31793,0.0353388,0.0457325,1245,1786,9.38993,-64.251
28,-762,9,64.6268,0,0,0,0,0,0,0,-1,1252,1786,8.99996,-64.6269
35,-762,8.76953,64.6473,0,0,0,0,0,0,0,-1,1259,1786,8.76954,-64.6474
42,-762,9.03528,64.3944,0,0,0,0,0,0,0,-1,1266,1786,9.03524,-64.3944
49,-762,8.98816,64.4314,-0.013612,0.0461143,-0.0129801,0.0488132,-0.016311,-1.36579,0.0391292,0.041894,1273,1786,8.98816,-64.4314
56,-762,9.02515,64.4706,-0.0105266,0.0491982,-0.0136371,0.0521646,-0.0134931,-1.35661,0.0400393,0.033971,1280,1786,9.02521,-64.4705
63,-762,8.95642,64.498,-0.00689766,0.0514122,-0.0145497,0.054841,-0.0103265,-1.33935,0.0404447,0.0312566,1287,1786,8.95641,-64.498
70,-762,8.84863,64.4473,-0.00437172,0.0523623,-0.0157745,0.0564533,-0.00846269,-1.31705,0.0407504,0.032217,1294,1786,8.84862,-64.4472
77,-762,8.73401,64.2839,-0.00215909,0.0528512,-0.0171026,0.0577348,-0.0070427,-1.29265,0.0410394,0.0406212,1301,1786,8.73399,-64.284
84,-762,8.6803,64.2789,0,0,0,0,0,0,0,-1,1308,1786,8.68026,-64.279
91,-762,8.69092,64.1461,0,0,0,0,0,0,0,-1,1315,1786,8.69088,-64.1461
98,-762,8.37085,64.1359,0,0,0,0,0,0,0,-1,1322,1786,8.37085,-64.1359
105,-762,8.37036,64.0687,0,0,0,0,0,0,0,-1,1329,1786,8.37036,-64.0688
112,-762,8.39819,63.8862,0,0,0,0,0,0,0,-1,1336,1786,8.39825,-63.8862
119,-762,8.05286,63.6014,0,0,0,0,0,0,0,-1,1343,1786,8.05283,-63.6015
126,-762,8.1969,63.7521,0,0,0,0,0,0,0,-1,1350,1786,8.19692,-63.7521
133,-762,8.02295,63.6622,0,0,0,0,0,0,0,-1,1357,1786,8.023,-63.6622
140,-762,7.74121,63.3521,0,0,0,0,0,0,0,-1,1364,1786,7.74119,-63.352
147,-762,7.51648,63.0988,0,0,0,0,0,0,0,-1,1371,1786,7.51648,-63.0988
154,-762,7.95581,63.4119,0,0,0,0,0,0,0,-1,1378,1786,7.95576,-63.4118
161,-762,8.65051,34.8102,0,0,0,0,0,0,0,-1,1385,1786,8.65054,-34.8101
168,-762,8.19287,0.880615,0,0,0,0,0,0,0,-1,1392,1786,8.19291,-0.880603
175,-762,8.33997,1.95947,0,0,0,0,0,0,0,-1,1399,1786,8.33997,-1.95942
182,-762,8.28418,3.56482,0,0,0,0,0,0,0,-1,1406,1786,8.28415,-3.56485
189,-762,8.21179,5.23389,0,0,0,0,0,0,0,-1,1413,1786,8.21183,-5.23383
196,-762,8.05969,6.95483,0,0,0,0,0,0,0,-1,1420,1786,8.05972,-6.9548
203,-762,24.0077,7.10425,0,0,0,0,0,0,0,-1,1427,1786,24.0077,-7.10426
210,-762,23.8073,7.6499,0,0,0,0,0,0,0,-1,1434,1786,23.8073,-7.64987
217,-762,23.3193,8.24426,0,0,0,0,0,0,0,-1,1441,1786,23.3194,-8.2442
224,-762,2.65149,20.6106,0,0,0,0,0,0,0,-1,1448,1786,2.65153,-20.6106
231,-762,5.46655,23.521,0,0,0,0,0,0,0,-1,1455,1786,5.46653,-23.521
238,-762,5.35632,29.7203,0,0,0,0,0,0,0,-1,1462,1786,5.35629,-29.7203
245,-762,6.93054,27.8312,0,0,0,0,0,0,0,-1,1469,1786,6.93058,-27.8312
252,-762,6.20215,28.3027,0,0,0,0,0,0,0,-1,1476,1786,6.20211,-28.3027
259,-762,5.46472,28.8762,0,0,0,0,0,0,0,-1,1483,1786,5.46476,-28.8762
266,-762,16.451,7.67773,0,0,0,0,0,0,0,-1,1490,1786,16.4511,-7.67773
273,-762,15.287,7.5304,0,0,0,0,0,0,0,-1,1497,1786,15.2869,-7.53044
280,-762,14.1501,7.38379,0,0,0,0,0,0,0,-1,1504,1786,14.1502,-7.38376
287,-762,12.6891,7.99133,0,0,0,0,0,0,0,-1,1511,1786,12.6891,-7.99135
294,-762,12.6959,8.30371,0,0,0,0,0,0,0,-1,1518,1786,12.6959,-8.30368
301,-762,11.4222,8.84143,0,0,0,0,0,0,0,-1,1525,1786,11.4223,-8.84149
308,-762,0,0,0,0,0,0,0,0,0,-1,1532,1786,0,0
315,-762,0,0,0,0,0,0,0,0,0,-1,1539,1786,0,0
322,-762,0,0,0,0,0,0,0,0,0,-1,1546,1786,0,0
329,-762,0,0,0,0,0,0,0,0,0,-1,1553,1786,0,0
336,-762,0,0,0,0,0,0,0,0,0,-1,1560,1786,0,0
343,-762,0,0,0,0,0,0,0,0,0,-1,1567,1786,0,0
350,-762,0,0,0,0,0,0,0,0,0,-1,1574,1786,0,0
357,-762,0,0,0,0,0,0,0,0,0,-1,1581,1786,0,0
364,-762,0,0,0,0,0,0,0,0,0,-1,1588,1786,0,0
371,-762,0,0,0,0,0,0,0,0,0,-1,1595,1786,0,0
378,-762,0,0,0,0,0,0,0,0,0,-1,1602,1786,0,0
385,-762,0,0,0,0,0,0,0,0,0,-1,1609,1786,0,0
392,-762,0,0,0,0,0,0,0,0,0,-1,1616,1786,0,0
399,-762,0,0,0,0,0,0,0,0,0,-1,1623,1786,0,0
406,-762,0,0,0,0,0,0,0,0,0,-1,1630,1786,0,0
413,-762,0,0,0,0,0,0,0,0,0,-1,1637,1786,0,0
420,-762,0,0,0,0,0,0,0,0,0,-1,1644,1786,0,0
427,-762,0,0,0,0,0,0,0,0,0,-1,1651,1786,0,0
434,-762,0,0,0,0,0,0,0,0,0,-1,1658,1786,0,0
441,-762,0,0,0,0,0,0,0,0,0,-1,1665,1786,0,0
448,-762,0,0,0,0,0,0,0,0,0,-1,1672,1786,0,0
455,-762,0,0,0,0,0,0,0,0,0,-1,1679,1786,0,0
462,-762,0,0,0,0,0,0,0,0,0,-1,1686,1786,0,0
469,-762,0,0,0,0,0,0,0,0,0,-1,1693,1786,0,0
476,-762,0,0,0,0,0,0,0,0,0,-1,1700,1786,0,0
483,-762,0,0,0,0,0,0,0,0,0,-1,1707,1786,0,0
490,-762,0,0,0,0,0,0,0,0,0,-1,1714,1786,0,0
497,-762,0,0,0,0,0,0,0,0,0,-1,1721,1786,0,0
504,-762,0,0,0,0,0,0,0,0,0,-1,1728,1786,0,0
511,-762,0,0,0,0,0,0,0,0,0,-1,1735,1786,0,0
518,-762,0,0,0,0,0,0,0,0,0,-1,1742,1786,0,0
525,-762,0,0,0,0,0,0,0,0,0,-1,1749,1786,0,0
532,-762,0,0,0,0,0,0,0,0,0,-1,1756,1786,0,0
539,-762,0,0,0,0,0,0,0,0,0,-1,1763,1786,0,0
546,-762,0,0,0,0,0,0,0,0,0,-1,1770,1786,0,0
553,-762,0,0,0,0,0,0,0,0,0,-1,1777,1786,0,0
560,-762,0,0,0,0,0,0,0,0,0,-1,1784,1786,0,0
567,-762,0,0,0,0,0,0,0,0,0,-1,1791,1786,0,0
574,-762,0,0,0,0,0,0,0,0,0,-1,1798,1786,0,0
581,-762,0,0,0,0,0,0,0,0,0,-1,1805,1786,0,0
588,-762,0,0,0,0,0,0,0,0,0,-1,1812,1786,0,0
595,-762,0,0,0,0,0,0,0,0,0,-1,1819,1786,0,0
602,-762,0,0,0,0,0,0,0,0,0,-1,1826,1786,0,0
609,-762,0,0,0,0,0,0,0,0,0,-1,1833,1786,0,0
616,-762,0,0,0,0,0,0,0,0,0,-1,1840,1786,0,0
623,-762,0,0,0,0,0,0,0,0,0,-1,1847,1786,0,0
630,-762,0,0,0,0,0,0,0,0,0,-1,1854,1786,0,0
637,-762,0,0,0,0,0,0,0,0,0,-1,1861,1786,0,0
644,-762,0,0,0,0,0,0,0,0,0,-1,1868,1786,0,0
651,-762,0,0,0,0,0,0,0,0,0,-1,1875,1786,0,0
658,-762,0,0,0,0,0,0,0,0,0,-1,1882,1786,0,0
665,-762,0,0,0,0,0,0,0,0,0,-1,1889,1786,0,0
672,-762,0,0,0,0,0,0,0,0,0,-1,1896,1786,0,0
679,-762,0,0,0,0,0,0,0,0,0,-1,1903,1786,0,0
686,-762,0,0,0,0,0,0,0,0,0,-1,1910,1786,0,0
693,-762,0,0,0,0,0,0,0,0,0,-1,1917,1786,0,0
700,-762,0,0,0,0,0,0,0,0,0,-1,1924,1786,0,0
707,-762,0,0,0,0,0,0,0,0,0,-1,1931,1786,0,0
714,-762,0,0,0,0,0,0,0,0,0,-1,1938,1786,0,0
721,-762,0,0,0,0,0,0,0,0,0,-1,1945,1786,0,0
728,-762,0,0,0,0,0,0,0,0,0,-1,1952,1786,0,0
735,-762,0,0,0,0,0,0,0,0,0,-1,1959,1786,0,0
742,-762,0,0,0,0,0,0,0,0,0,-1,1966,1786,0,0
749,-762,0,0,0,0,0,0,0,0,0,-1,1973,1786,0,0
756,-762,0,0,0,0,0,0,0,0,0,-1,1980,1786,0,0
763,-762,0,0,0,0,0,0,0,0,0,-1,1987,1786,0,0
770,-762,0,0,0,0,0,0,0,0,0,-1,1994,1786,0,0
777,-762,0,0,0,0,0,0,0,0,0,-1,2001,1786,0,0
784,-762,0,0,0,0,0,0,0,0,0,-1,2008,1786,0,0
791,-762,0,0,0,0,0,0,0,0,0,-1,2015,1786,0,0
798,-762,0,0,0,0,0,0,0,0,0,-1,2022,1786,0,0
805,-762,0,0,0,0,0,0,0,0,0,-1,2029,1786,0,0
812,-762,0,0,0,0,0,0,0,0,0,-1,2036,1786,0,0
-700,-769,0,0,0,0,0,0,0,0,0,-1,524,1793,0,0
-693,-769,0,0,0,0,0,0,0,0,0,-1,531,1793,0,0
-686,-769,0,0,0,0,0,0,0,0,0,-1,538,1793,0,0
-679,-769,0,0,0,0,0,0,0,0,0,-1,545,1793,0,0
-672,-769,0,0,0,0,0,0,0,0,0,-1,552,1793,0,0
-665,-769,0,0,0,0,0,0,0,0,0,-1,559,1793,0,0
-658,-769,0,0,0,0,0,0,0,0,0,-1,566,1793,0,0
-651,-769,0,0,0,0,0,0,0,0,0,-1,573,1793,0,0
-644,-769,0,0,0,0,0,0,0,0,0,-1,580,1793,0,0
-637,-769,0,0,0,0,0,0,0,0,0,-1,587,1793,0,0
-630,-769,0,0,0,0,0,0,0,0,0,-1,594,1793,0,0
-623,-769,0,0,0,0,0,0,0,0,0,-1,601,1793,0,0
-616,-769,0,0,0,0,0,0,0,0,0,-1,608,1793,0,0
-609,-769,0,0,0,0,0,0,0,0,0,-1,615,1793,0,0
-602,-769,0,0,0,0,0,0,0,0,0,-1,622,1793,0,0
-595,-769,0,0,0,0,0,0,0,0,0,-1,629,1793,0,0
-588,-769,0,0,0,0,0,0,0,0,0,-1,636,1793,0,0
-581,-769,0,0,0,0,0,0,0,0,0,-1,643,1793,0,0
-574,-769,0,0,0,0,0,0,0,0,0,-1,650,1793,0,0
-567,-769,0,0,0,0,0,0,0,0,0,-1,657,1793,0,0
-560,-769,0,0,0,0,0,0,0,0,0,-1,664,1793,0,0
-553,-769,0,0,0,0,0,0,0,0,0,-1,671,1793,0,0
-546,-769,0,0,0,0,0,0,0,0,0,-1,678,1793,0,0
-539,-769,0,0,0,0,0,0,0,0,0,-1,685,1793,0,0
-532,-769,0,0,0,0,0,0,0,0,0,-1,692,1793,0,0
-525,-769,0,0,0,0,0,0,0,0,0,-1,699,1793,0,0
-518,-769,0,0,0,0,0,0,0,0,0,-1,706,1793,0,0
-511,-769,0,0,0,0,0,0,0,0,0,-1,713,1793,0,0
-504,-769,0,0,0,0,0,0,0,0,0,-1,720,1793,0,0
-497,-769,0,0,0,0,0,0,0,0,0,-1,727,1793,0,0
-490,-769,0,0,0,0,0,0,0,0,0,-1,734,1793,0,0
-483,-769,0,0,0,0,0,0,0,0,0,-1,741,1793,0,0
-476,-769,0,0,0,0,0,0,0,0,0,-1,748,1793,0,0
-469,-769,0,0,0,0,0,0,0,0,0,-1,755,1793,0,0
-462,-769,0,0,0,0,0,0,0,0,0,-1,762,1793,0,0
-455,-769,0,0,0,0,0,0,0,0,0,-1,769,1793,0,0
-448,-769,0,0,0,0,0,0,0,0,0,-1,776,1793,0,0
-441,-769,0,0,0,0,0,0,0,0,0,-1,783,1793,0,0
-434,-769,0,0,0,0,0,0,0,0,0,-1,790,1793,0,0
-427,-769,0,0,0,0,0,0,0,0,0,-1,797,1793,0,0
-420,-769,0,0,0,0,0,0,0,0,0,-1,804,1793,0,0
-413,-769,0,0,0,0,0,0,0,0,0,-1,811,1793,0,0
-406,-769,0,0,0,0,0,0,0,0,0,-1,818,1793,0,0
-399,-769,0,0,0,0,0,0,0,0,0,-1,825,1793,0,0
-392,-769,0,0,0,0,0,0,0,0,0,-1,832,1793,0,0
-385,-769,0,0,0,0,0,0,0,0,0,-1,839,1793,0,0
-378,-769,0,0,0,0,0,0,0,0,0,-1,846,1793,0,0
-371,-769,0,0,0,0,0,0,0,0,0,-1,853,1793,0,0
-364,-769,0,0,0,0,0,0,0,0,0,-1,860,1793,0,0
-357,-769,0,0,0,0,0,0,0,0,0,-1,867,1793,0,0
-350,-769,0,0,0,0,0,0,0,0,0,-1,874,1793,0,0
-343,-769,0,0,0,0,0,0,0,0,0,-1,881,1793,0,0
-336,-769,0,0,0,0,0,0,0,0,0,-1,888,1793,0,0
-329,-769,0,0,0,0,0,0,0,0,0,-1,895,1793,0,0
-322,-769,0,0,0,0,0,0,0,0,0,-1,902,1793,0,0
-315,-769,0,0,0,0,0,0,0,0,0,-1,909,1793,0,0
-308,-769,0,0,0,0,0,0,0,0,0,-1,916,1793,0,0
-301,-769,0,0,0,0,0,0,0,0,0,-1,923,1793,0,0
-294,-769,0,0,0,0,0,0,0,0,0,-1,930,1793,0,0
-287,-769,0,0,0,0,0,0,0,0,0,-1,937,1793,0,0
-280,-769,0,0,0,0,0,0,0,0,0,-1,944,1793,0,0
-273,-769,0,0,0,0,0,0,0,0,0,-1,951,1793,0,0
-266,-769,0,0,0,0,0,0,0,0,0,-1,958,1793,0,0
-259,-769,0,0,0,0,0,0,0,0,0,-1,965,1793,0,0
-252,-769,0,0,0,0,0,0,0,0,0,-1,972,1793,0,0
-245,-769,0,0,0,0,0,0,0,0,0,-1,979,1793,0,0
-238,-769,0,0,0,0,0,0,0,0,0,-1,986,1793,0,0
-231,-769,0,0,0,0,0,0,0,0,0,-1,993,1793,0,0
-224,-769,0,0,0,0,0,0,0,0,0,-1,1000,1793,0,0
-217,-769,0,0,0,0,0,0,0,0,0,-1,1007,1793,0,0
-210,-769,0,0,0,0,0,0,0,0,0,-1,1014,1793,0,0
-203,-769,0,0,0,0,0,0,0,0,0,-1,1021,1793,0,0
-196,-769,0,0,0,0,0,0,0,0,0,-1,1028,1793,0,0
-189,-769,0,0,0,0,0,0,0,0,0,-1,1035,1793,0,0
-182,-769,0,0,0,0,0,0,0,0,0,-1,1042,1793,0,0
-175,-769,0,0,0,0,0,0,0,0,0,-1,1049,1793,0,0
-168,-769,0,0,0,0,0,0,0,0,0,-1,1056,1793,0,0
-161,-769,-3.61145,12.4761,0,0,0,0,0,0,0,-1,1063,1793,-3.6114,-12.476
-154,-769,-0.813232,5.32874,0,0,0,0,0,0,0,-1,1070,1793,-0.813269,-5.32872
-147,-769,4.26587,4.7002,0,0,0,0,0,0,0,-1,1077,1793,4.26593,-4.70022
-140,-769,4.10376,5.28589,0,0,0,0,0,0,0,-1,1084,1793,4.10371,-5.28584
-133,-769,6.422,8.21777,0,0,0,0,0,0,0,-1,1091,1793,6.42198,-8.21773
-126,-769,-0.352295,19.326,0,0,0,0,0,0,0,-1,1098,1793,-0.352235,-19.326
-119,-769,6.01685,16.2577,0,0,0,0,0,0,0,-1,1105,1793,6.01689,-16.2576
-112,-769,5.76416,27.2615,0,0,0,0,0,0,0,-1,1112,1793,5.7642,-27.2615
-105,-769,4.97009,22.8479,0,0,0,0,0,0,0,-1,1119,1793,4.97006,-22.8479
-98,-769,4.69373,18.9142,0,0,0,0,0,0,0,-1,1126,1793,4.69376,-18.9142
-91,-769,4.41748,14.9805,0,0,0,0,0,0,0,-1,1133,1793,4.41746,-14.9805
-84,-769,3.2207,12.4565,0,0,0,0,0,0,0,-1,1140,1793,3.22066,-12.4565
-77,-769,2.48816,8.98486,0,0,0,0,0,0,0,-1,1147,1793,2.48815,-8.98489
-70,-769,1.04944,11.9852,0,0,0,0,0,0,0,-1,1154,1793,1.04947,-11.9852
-63,-769,-2.39709,9.60339,0,0,0,0,0,0,0,-1,1161,1793,-2.39706,-9.6034
-56,-769,-5.84363,7.22156,0,0,0,0,0,0,0,-1,1168,1793,-5.84359,-7.22157
-49,-769,-2.41443,3.95471,0,0,0,0,0,0,0,-1,1175,1793,-2.41446,-3.95471
-42,-769,-3.1991,2.64941,0,0,0,0,0,0,0,-1,1182,1793,-3.19914,-2.64944
-35,-769,-3.50183,1.73389,0,0,0,0,0,0,0,-1,1189,1793,-3.50189,-1.7339
-28,-769,-3.96985,1.14075,0,0,0,0,0,0,0,-1,1196,1793,-3.96985,-1.14078
-21,-769,9.75879,60.0453,0,0,0,0,0,0,0,-1,1203,1793,9.75881,-60.0453
-14,-769,9.08826,63.5985,0,0,0,0,0,0,0,-1,1210,1793,9.08827,-63.5985
-7,-769,14.7148,63.7583,0,0,0,0,0,0,0,-1,1217,1793,14.7148,-63.7583
0,-769,9.72571,63.658,0,0,0,0,0,0,0,-1,1224,1793,9.72573,-63.6579
7,-769,9.79272,63.8845,-0.0351938,0.031149,-0.0229351,0.0383057,-0.0423505,-1.26833,0.0465864,0.0433692,1231,1793,9.79269,-63.8845
14,-769,9.9436,63.8424,-0.033511,0.0350281,-0.0216977,0.0413195,-0.0398024,-1.28858,0.0468385,0.0405097,1238,1793,9.94365,-63.8424
21,-769,9.89966,63.8947,-0.0317685,0.0385743,-0.0203838,0.0440542,-0.0372484,-1.30817,0.0469949,0.0434465,1245,1793,9.89967,-63.8946
28,-769,9.72388,64.056,-0.0282089,0.0436555,-0.0194376,0.048576,-0.0331294,-1.32286,0.0474528,0.0459008,1252,1793,9.72382,-64.056
35,-769,9.46802,64.045,-0.0240399,0.0496358,-0.0189709,0.0542337,-0.0286378,-1.33302,0.0486006,0.0494152,1259,1793,9.468,-64.045
42,-769,9.34338,64.0522,-0.0205743,0.0553345,-0.0183063,0.0595187,-0.0247584,-1.34609,0.050018,0.0478992,1266,1793,9.34342,-64.0522
49,-769,9.01331,64.5763,-0.0169898,0.0609648,-0.0179795,0.0649117,-0.0209368,-1.3547,0.0516868,0.0435524,1273,1793,9.01333,-64.5763
56,-769,8.89209,64.5542,-0.0125092,0.0646014,-0.0188587,0.0689665,-0.0168743,-1.34334,0.0525141,0.047504,1280,1793,8.89207,-64.5541
63,-769,9.09058,63.6304,-0.00727483,0.0669185,-0.0200773,0.0720031,-0.0123595,-1.32276,0.0526081,0.04618,1287,1793,9.09062,-63.6303
70,-769,9.13281,64.1531,-0.00343421,0.0673567,-0.0217288,0.0734941,-0.00957163,-1.29551,0.0524784,0.0442331,1294,1793,9.13285,-64.1531
77,-769,8.98315,64.3827,-8.86743e-06,0.067338,-0.0235635,0.0747637,-0.00743458,-1.26551,0.0524964,0.045647,1301,1793,8.98319,-64.3827
84,-769,8.82324,64.2795,0,0,0,0,0,0,0,-1,1308,1793,8.82323,-64.2795
91,-769,9.75659,64.2278,0,0,0,0,0,0,0,-1,1315,1793,9.75657,-64.2277
98,-769,9.44775,64.0013,0.00894644,0.0540394,-0.0309868,0.0698142,-0.00682843,-1.09991,0.0489779,0.0481361,1322,1793,9.44771,-64.0013
105,-769,9.05481,63.7427,0.0111181,0.0456751,-0.0332371,0.0658566,-0.00906337,-1.0251,0.0472164,0.046459,1329,1793,9.05476,-63.7427
112,-769,8.66223,63.5823,0,0,0,0,0,0,0,-1,1336,1793,8.66222,-63.5823
119,-769,8.12085,63.6788,0.0139692,0.0245834,-0.0362198,0.0558828,-0.0173302,-0.858143,0.0441799,0.0468664,1343,1793,8.12087,-63.6789
126,-769,7.27844,64.0317,0,0,0,0,0,0,0,-1,1350,1793,7.27849,-64.0317
133,-769,6.45923,64.3978,0,0,0,0,0,0,0,-1,1357,1793,6.45928,-64.3978
140,-769,7.60803,63.2787,0,0,0,0,0,0,0,-1,1364,1793,7.60805,-63.2787
147,-769,7.50891,62.2946,0,0,0,0,0,0,0,-1,1371,1793,7.50894,-62.2946
154,-769,7.29382,55.4241,0,0,0,0,0,0,0,-1,1378,1793,7.29384,-55.4241
161,-769,6.57019,1.53223,0,0,0,0,0,0,0,-1,1385,1793,6.57019,-1.53226
168,-769,8.27637,0.756958,0,0,0,0,0,0,0,-1,1392,1793,8.27639,-0.756944
175,-769,8.47144,2.41174,0,0,0,0,0,0,0,-1,1399,1793,8.47147,-2.4118
182,-769,8.41479,4.05994,0,0,0,0,0,0,0,-1,1406,1793,8.41479,-4.05997
189,-769,8.25049,5.68433,0,0,0,0,0,0,0,-1,1413,1793,8.25054,-5.68428
196,-769,7.97729,7.42847,0,0,0,0,0,0,0,-1,1420,1793,7.9773,-7.42848
203,-769,22.0977,6.73889,0,0,0,0,0,0,0,-1,1427,1793,22.0977,-6.7389
210,-769,22.1115,7.77246,0,0,0,0,0,0,0,-1,1434,1793,22.1115,-7.77248
217,-769,22.4723,8.79102,0,0,0,0,0,0,0,-1,1441,1793,22.4723,-8.79099
224,-769,22.1348,9.35278,0,0,0,0,0,0,0,-1,1448,1793,22.1348,-9.35283
231,-769,3.13318,19.7184,0,0,0,0,0,0,0,-1,1455,1793,3.13323,-19.7184
238,-769,5.74512,18.6597,0,0,0,0,0,0,0,-1,1462,1793,5.74512,-18.6596
245,-769,5.80798,22.87,0,0,0,0,0,0,0,-1,1469,1793,5.80796,-22.87
252,-769,6.20837,28.394,0,0,0,0,0,0,0,-1,1476,1793,6.20833,-28.3941
259,-769,10.974,17.7698,0,0,0,0,0,0,0,-1,1483,1793,10.974,-17.7698
266,-769,15.8488,7.3905,0,0,0,0,0,0,0,-1,1490,1793,15.8488,-7.39046
273,-769,14.8075,7.56152,0,0,0,0,0,0,0,-1,1497,1793,14.8075,-7.56152
280,-769,13.6519,7.43054,0,0,0,0,0,0,0,-1,1504,1793,13.6518,-7.43058
287,-769,0,0,0,0,0,0,0,0,0,-1,1511,1793,0,0
294,-769,0,0,0,0,0,0,0,0,0,-1,1518,1793,0,0
301,-769,0,0,0,0,0,0,0,0,0,-1,1525,1793,0,0
308,-769,0,0,0,0,0,0,0,0,0,-1,1532,1793,0,0
315,-769,0,0,0,0,0,0,0,0,0,-1,1539,1793,0,0
322,-769,0,0,0,0,0,0,0,0,0,-1,1546,1793,0,0
329,-769,0,0,0,0,0,0,0,0,0,-1,1553,1793,0,0
336,-769,0,0,0,0,0,0,0,0,0,-1,1560,1793,0,0
343,-769,0,0,0,0,0,0,0,0,0,-1,1567,1793,0,0
350,-769,0,0,0,0,0,0,0,0,0,-1,1574,1793,0,0
357,-769,0,0,0,0,0,0,0,0,0,-1,1581,1793,0,0
364,-769,0,0,0,0,0,0,0,0,0,-1,1588,1793,0,0
371,-769,0,0,0,0,0,0,0,0,0,-1,1595,1793,0,0
378,-769,0,0,0,0,0,0,0,0,0,-1,1602,1793,0,0
385,-769,0,0,0,0,0,0,0,0,0,-1,1609,1793,0,0
392,-769,0,0,0,0,0,0,0,0,0,-1,1616,1793,0,0
399,-769,0,0,0,0,0,0,0,0,0,-1,1623,1793,0,0
406,-769,0,0,0,0,0,0,0,0,0,-1,1630,1793,0,0
413,-769,0,0,0,0,0,0,0,0,0,-1,1637,1793,0,0
420,-769,0,0,0,0,0,0,0,0,0,-1,1644,1793,0,0
427,-769,0,0,0,0,0,0,0,0,0,-1,1651,1793,0,0
434,-769,0,0,0,0,0,0,0,0,0,-1,1658,1793,0,0
441,-769,0,0,0,0,0,0,0,0,0,-1,1665,1793,0,0
448,-769,0,0,0,0,0,0,0,0,0,-1,1672,1793,0,0
455,-769,0,0,0,0,0,0,0,0,0,-1,1679,1793,0,0
462,-769,0,0,0,0,0,0,0,0,0,-1,1686,1793,0,0
469,-769,0,0,0,0,0,0,0,0,0,-1,1693,1793,0,0
476,-769,0,0,0,0,0,0,0,0,0,-1,1700,1793,0,0
483,-769,0,0,0,0,0,0,0,0,0,-1,1707,1793,0,0
490,-769,0,0,0,0,0,0,0,0,0,-1,1714,1793,0,0
497,-769,0,0,0,0,0,0,0,0,0,-1,1721,1793,0,0
504,-769,0,0,0,0,0,0,0,0,0,-1,1728,1793,0,0
511,-769,0,0,0,0,0,0,0,0,0,-1,1735,1793,0,0
518,-769,0,0,0,0,0,0,0,0,0,-1,1742,1793,0,0
525,-769,0,0,0,0,0,0,0,0,0,-1,1749,1793,0,0
532,-769,0,0,0,0,0,0,0,0,0,-1,1756,1793,0,0
539,-769,0,0,0,0,0,0,0,0,0,-1,1763,1793,0,0
546,-769,0,0,0,0,0,0,0,0,0,-1,1770,1793,0,0
553,-769,0,0,0,0,0,0,0,0,0,-1,1777,1793,0,0
560,-769,0,0,0,0,0,0,0,0,0,-1,1784,1793,0,0
567,-769,0,0,0,0,0,0,0,0,0,-1,1791,1793,0,0
574,-769,0,0,0,0,0,0,0,0,0,-1,1798,1793,0,0
581,-769,0,0,0,0,0,0,0,0,0,-1,1805,1793,0,0
588,-769,0,0,0,0,0,0,0,0,0,-1,1812,1793,0,0
595,-769,0,0,0,0,0,0,0,0,0,-1,1819,1793,0,0
602,-769,0,0,0,0,0,0,0,0,0,-1,1826,1793,0,0
609,-769,0,0,0,0,0,0,0,0,0,-1,1833,1793,0,0
616,-769,0,0,0,0,0,0,0,0,0,-1,1840,1793,0,0
623,-769,0,0,0,0,0,0,0,0,0,-1,1847,1793,0,0
630,-769,0,0,0,0,0,0,0,0,0,-1,1854,1793,0,0
637,-769,0,0,0,0,0,0,0,0,0,-1,1861,1793,0,0
644,-769,0,0,0,0,0,0,0,0,0,-1,1868,1793,0,0
651,-769,0,0,0,0,0,0,0,0,0,-1,1875,1793,0,0
658,-769,0,0,0,0,0,0,0,0,0,-1,1882,1793,0,0
665,-769,0,0,0,0,0,0,0,0,0,-1,1889,1793,0,0
672,-769,0,0,0,0,0,0,0,0,0,-1,1896,1793,0,0
679,-769,0,0,0,0,0,0,0,0,0,-1,1903,1793,0,0
686,-769,0,0,0,0,0,0,0,0,0,-1,1910,1793,0,0
693,-769,0,0,0,0,0,0,0,0,0,-1,1917,1793,0,0
700,-769,0,0,0,0,0,0,0,0,0,-1,1924,1793,0,0
707,-769,0,0,0,0,0,0,0,0,0,-1,1931,1793,0,0
714,-769,0,0,0,0,0,0,0,0,0,-1,1938,1793,0,0
721,-769,0,0,0,0,0,0,0,0,0,-1,1945,1793,0,0
728,-769,0,0,0,0,0,0,0,0,0,-1,1952,1793,0,0
735,-769,0,0,0,0,0,0,0,0,0,-1,1959,1793,0,0
742,-769,0,0,0,0,0,0,0,0,0,-1,1966,1793,0,0
749,-769,0,0,0,0,0,0,0,0,0,-1,1973,1793,0,0
756,-769,0,0,0,0,0,0,0,0,0,-1,1980,1793,0,0
763,-769,0,0,0,0,0,0,0,0,0,-1,1987,1793,0,0
770,-769,0,0,0,0,0,0,0,0,0,-1,1994,1793,0,0
777,-769,0,0,0,0,0,0,0,0,0,-1,2001,1793,0,0
784,-769,0,0,0,0,0,0,0,0,0,-1,2008,1793,0,0
791,-769,0,0,0,0,0,0,0,0,0,-1,2015,1793,0,0
798,-769,0,0,0,0,0,0,0,0,0,-1,2022,1793,0,0
805,-769,0,0,0,0,0,0,0,0,0,-1,2029,1793,0,0
812,-769,0,0,0,0,0,0,0,0,0,-1,2036,1793,0,0
-700,-776,0,0,0,0,0,0,0,0,0,-1,524,1800,0,0
-693,-776,0,0,0,0,0,0,0,0,0,-1,531,1800,0,0
-686,-776,0,0,0,0,0,0,0,0,0,-1,538,1800,0,0
-679,-776,0,0,0,0,0,0,0,0,0,-1,545,1800,0,0
-672,-776,0,0,0,0,0,0,0,0,0,-1,552,1800,0,0
-665,-776,0,0,0,0,0,0,0,0,0,-1,559,1800,0,0
-658,-776,0,0,0,0,0,0,0,0,0,-1,566,1800,0,0
-651,-776,0,0,0,0,0,0,0,0,0,-1,573,1800,0,0
-644,-776,0,0,0,0,0,0,0,0,0,-1,580,1800,0,0
-637,-776,0,0,0,0,0,0,0,0,0,-1,587,1800,0,0
-630,-776,0,0,0,0,0,0,0,0,0,-1,594,1800,0,0
-623,-776,0,0,0,0,0,0,0,0,0,-1,601,1800,0,0
-616,-776,0,0,0,0,0,0,0,0,0,-1,608,1800,0,0
-609,-776,0,0,0,0,0,0,0,0,0,-1,615,1800,0,0
-602,-776,0,0,0,0,0,0,0,0,0,-1,622,1800,0,0
-595,-776,0,0,0,0,0,0,0,0,0,-1,629,1800,0,0
-588,-776,0,0,0,0,0,0,0,0,0,-1,636,1800,0,0
-581,-776,0,0,0,0,0,0,0,0,0,-1,643,1800,0,0
-574,-776,0,0,0,0,0,0,0,0,0,-1,650,1800,0,0
-567,-776,0,0,0,0,0,0,0,0,0,-1,657,1800,0,0
-560,-776,0,0,0,0,0,0,0,0,0,-1,664,1800,0,0
-553,-776,0,0,0,0,0,0,0,0,0,-1,671,1800,0,0
-546,-776,0,0,0,0,0,0,0,0,0,-1,678,1800,0,0
-539,-776,0,0,0,0,0,0,0,0,0,-1,685,1800,0,0
-532,-776,0,0,0,0,0,0,0,0,0,-1,692,1800,0,0
-525,-776,0,0,0,0,0,0,0,0,0,-1,699,1800,0,0
-518,-776,0,0,0,0,0,0,0,0,0,-1,706,1800,0,0
-511,-776,0,0,0,0,0,0,0,0,0,-1,713,1800,0,0
-504,-776,0,0,0,0,0,0,0,0,0,-1,720,1800,0,0
-497,-776,0,0,0,0,0,0,0,0,0,-1,727,1800,0,0
-490,-776,0,0,0,0,0,0,0,0,0,-1,734,1800,0,0
-483,-776,0,0,0,0,0,0,0,0,0,-1,741,1800,0,0
-476,-776,0,0,0,0,0,0,0,0,0,-1,748,1800,0,0
-469,-776,0,0,0,0,0,0,0,0,0,-1,755,1800,0,0
-462,-776,0,0,0,0,0,0,0,0,0,-1,762,1800,0,0
-455,-776,0,0,0,0,0,0,0,0,0,-1,769,1800,0,0
-448,-776,0,0,0,0,0,0,0,0,0,-1,776,1800,0,0
-441,-776,0,0,0,0,0,0,0,0,0,-1,783,1800,0,0
-434,-776,0,0,0,0,0,0,0,0,0,-1,790,1800,0,0
-427,-776,0,0,0,0,0,0,0,0,0,-1,797,1800,0,0
-420,-776,0,0,0,0,0,0,0,0,0,-1,804,1800,0,0
-413,-776,0,0,0,0,0,0,0,0,0,-1,811,1800,0,0
-406,-776,0,0,0,0,0,0,0,0,0,-1,818,1800,0,0
-399,-776,0,0,0,0,0,0,0,0,0,-1,825,1800,0,0
-392,-776,0,0,0,0,0,0,0,0,0,-1,832,1800,0,0
-385,-776,0,0,0,0,0,0,0,0,0,-1,839,1800,0,0
-378,-776,0,0,0,0,0,0,0,0,0,-1,846,1800,0,0
-371,-776,0,0,0,0,0,0,0,0,0,-1,853,1800,0,0
-364,-776,0,0,0,0,0,0,0,0,0,-1,860,1800,0,0
-357,-776,0,0,0,0,0,0,0,0,0,-1,867,1800,0,0
-350,-776,0,0,0,0,0,0,0,0,0,-1,874,1800,0,0
-343,-776,0,0,0,0,0,0,0,0,0,-1,881,1800,0,0
-336,-776,0,0,0,0,0,0,0,0,0,-1,888,1800,0,0
-329,-776,0,0,0,0,0,0,0,0,0,-1,895,1800,0,0
-322,-776,0,0,0,0,0,0,0,0,0,-1,902,1800,0,0
-315,-776,0,0,0,0,0,0,0,0,0,-1,909,1800,0,0
-308,-776,0,0,0,0,0,0,0,0,0,-1,916,1800,0,0
-301,-776,0,0,0,0,0,0,0,0,0,-1,923,1800,0,0
-294,-776,0,0,0,0,0,0,0,0,0,-1,930,1800,0,0
-287,-776,0,0,0,0,0,0,0,0,0,-1,937,1800,0,0
-280,-776,0,0,0,0,0,0,0,0,0,-1,944,1800,0,0
-273,-776,0,0,0,0,0,0,0,0,0,-1,951,1800,0,0
-266,-776,0,0,0,0,0,0,0,0,0,-1,958,1800,0,0
-259,-776,0,0,0,0,0,0,0,0,0,-1,965,1800,0,0
-252,-776,0,0,0,0,0,0,0,0,0,-1,972,1800,0,0
-245,-776,0,0,0,0,0,0,0,0,0,-1,979,1800,0,0
-238,-776,0,0,0,0,0,0,0,0,0,-1,986,1800,0,0
-231,-776,0,0,0,0,0,0,0,0,0,-1,993,1800,0,0
-224,-776,0,0,0,0,0,0,0,0,0,-1,1000,1800,0,0
-217,-776,0,0,0,0,0,0,0,0,0,-1,1007,1800,0,0
-210,-776,0,0,0,0,0,0,0,0,0,-1,1014,1800,0,0
-203,-776,0,0,0,0,0,0,0,0,0,-1,1021,1800,0,0
-196,-776,0,0,0,0,0,0,0,0,0,-1,1028,1800,0,0
-189,-776,0,0,0,0,0,0,0,0,0,-1,1035,1800,0,0
-182,-776,0,0,0,0,0,0,0,0,0,-1,1042,1800,0,0
-175,-776,0,0,0,0,0,0,0,0,0,-1,1049,1800,0,0
-168,-776,0,0,0,0,0,0,0,0,0,-1,1056,1800,0,0
-161,-776,0,0,0,0,0,0,0,0,0,-1,1063,1800,0,0
-154,-776,0,0,0,0,0,0,0,0,0,-1,1070,1800,0,0
-147,-776,0,0,0,0,0,0,0,0,0,-1,1077,1800,0,0
-140,-776,2.98499,5.20911,0,0,0,0,0,0,0,-1,1084,1800,2.98493,-5.2091
-133,-776,6.72363,9.35828,0,0,0,0,0,0,0,-1,1091,1800,6.72358,-9.35824
-126,-776,6.55029,13.7832,0,0,0,0,0,0,0,-1,1098,1800,6.55029,-13.7832
-119,-776,5.72107,13.7787,0,0,0,0,0,0,0,-1,1105,1800,5.72106,-13.7787
-112,-776,6.84998,20.4421,0,0,0,0,0,0,0,-1,1112,1800,6.84993,-20.4421
-105,-776,4.46863,24.6742,0,0,0,0,0,0,0,-1,1119,1800,4.46868,-24.6742
-98,-776,4.31616,19.7659,0,0,0,0,0,0,0,-1,1126,1800,4.31619,-19.7659
-91,-776,3.30225,18.134,0,0,0,0,0,0,0,-1,1133,1800,3.30222,-18.134
-84,-776,2.67932,14.3162,0,0,0,0,0,0,0,-1,1140,1800,2.67926,-14.3161
-77,-776,0.580078,11.1272,0,0,0,0,0,0,0,-1,1147,1800,0.58002,-11.1272
-70,-776,-0.562866,12.3163,0,0,0,0,0,0,0,-1,1154,1800,-0.562897,-12.3163
-63,-776,-3.96106,9.97656,0,0,0,0,0,0,0,-1,1161,1800,-3.961,-9.97654
-56,-776,-7.35913,7.63672,0,0,0,0,0,0,0,-1,1168,1800,-7.3591,-7.63676
-49,-776,-7.62952,3.1908,0,0,0,0,0,0,0,-1,1175,1800,-7.62955,-3.19076
-42,-776,-3.41272,3.0249,0,0,0,0,0,0,0,-1,1182,1800,-3.41269,-3.02488
-35,-776,-3.71753,1.63635,0,0,0,0,0,0,0,-1,1189,1800,-3.71755,-1.63631
-28,-776,-4.03979,0.716064,0,0,0,0,0,0,0,-1,1196,1800,-4.03977,-0.716055
-21,-776,13.0662,62.6803,0,0,0,0,0,0,0,-1,1203,1800,13.0662,-62.6803
-14,-776,14.4801,63.9779,0,0,0,0,0,0,0,-1,1210,1800,14.4801,-63.9779
-7,-776,14.9349,63.475,0,0,0,0,0,0,0,-1,1217,1800,14.935,-63.475
0,-776,13.5687,63.9163,0,0,0,0,0,0,0,-1,1224,1800,13.5687,-63.9163
7,-776,10.0509,63.8701,0,0,0,0,0,0,0,-1,1231,1800,10.0508,-63.8701
14,-776,10.3932,63.5383,-0.0430199,0.0440493,-0.0287695,0.0526965,-0.0516671,-1.27882,0.0602553,0.0433307,1238,1800,10.3932,-63.5383
21,-776,10.5029,63.5503,-0.0409372,0.0492675,-0.0272047,0.0568369,-0.0485066,-1.29942,0.0608835,0.0427811,1245,1800,10.503,-63.5503
28,-776,10.3767,63.7047,-0.0360793,0.0561381,-0.0260641,0.062995,-0.0429361,-1.31355,0.0615238,0.0441355,1252,1800,10.3767,-63.7047
35,-776,10.0533,63.7284,-0.0303398,0.0637904,-0.0255468,0.0702768,-0.0368262,-1.32215,0.0628332,0.0443704,1259,1800,10.0534,-63.7284
42,-776,9.74304,63.7743,-0.0256587,0.0711314,-0.024722,0.0770803,-0.0316075,-1.33466,0.0645556,0.0451733,1266,1800,9.74302,-63.7743
49,-776,9.03796,64.6038,-0.0206307,0.0782428,-0.0243195,0.0839008,-0.0262886,-1.34221,0.0664532,0.0457135,1273,1800,9.03794,-64.6038
56,-776,8.87671,64.6993,0,0,0,0,0,0,0,-1,1280,1800,8.87674,-64.6993
63,-776,9.21545,62.5729,-0.00707921,0.0843365,-0.0269698,0.0917001,-0.0144428,-1.30426,0.0664728,0.0473769,1287,1800,9.21542,-62.5729
70,-776,9.43774,63.5874,-0.00149704,0.0838109,-0.0290753,0.092778,-0.0104641,-1.27164,0.0656187,0.0475488,1294,1800,9.43771,-63.5874
77,-776,9.66333,63.7715,0.00356293,0.0828376,-0.0314768,0.0938155,-0.007415,-1.23522,0.0651561,0.0480303,1301,1800,9.66327,-63.7715
84,-776,9.81531,63.7664,0.00849789,0.0791954,-0.0346176,0.093323,-0.00562973,-1.18332,0.0641743,0.0472871,1308,1800,9.8153,-63.7663
91,-776,9.92993,63.5172,0.0132065,0.0723618,-0.0378278,0.0908027,-0.0052344,-1.1172,0.0623532,0.0453535,1315,1800,9.92993,-63.5172
98,-776,9.59094,63.27,0.0168906,0.0623856,-0.0414977,0.0869616,-0.00768534,-1.03611,0.0606986,0.0468981,1322,1800,9.59093,-63.2701
105,-776,9.28174,63.1208,0.0203066,0.0501795,-0.0446064,0.0822838,-0.0117977,-0.946956,0.0591817,0.0469844,1329,1800,9.28176,-63.1208
112,-776,8.87988,63.3634,0,0,0,0,0,0,0,-1,1336,1800,8.87986,-63.3634
119,-776,8.61328,62.9768,0,0,0,0,0,0,0,-1,1343,1800,8.61324,-62.9768
126,-776,7.71021,63.2898,0,0,0,0,0,0,0,-1,1350,1800,7.71025,-63.2897
133,-776,7.43884,62.5475,0,0,0,0,0,0,0,-1,1357,1800,7.43881,-62.5475
140,-776,9.13232,61.809,0,0,0,0,0,0,0,-1,1364,1800,9.13236,-61.809
147,-776,9.61267,62.2073,0,0,0,0,0,0,0,-1,1371,1800,9.61271,-62.2073
154,-776,38.4338,21.854,0,0,0,0,0,0,0,-1,1378,1800,38.4339,-21.854
161,-776,6.50293,1.1731,0,0,0,0,0,0,0,-1,1385,1800,6.5029,-1.17313
168,-776,8.44971,1.22913,0,0,0,0,0,0,0,-1,1392,1800,8.44974,-1.22915
175,-776,8.61523,2.87061,0,0,0,0,0,0,0,-1,1399,1800,8.6152,-2.87063
182,-776,8.54065,4.60645,0,0,0,0,0,0,0,-1,1406,1800,8.5407,-4.60643
189,-776,8.35303,6.28223,0,0,0,0,0,0,0,-1,1413,1800,8.35297,-6.28225
196,-776,8.0387,8.21704,0,0,0,0,0,0,0,-1,1420,1800,8.03865,-8.217
203,-776,7.91736,9.79919,0,0,0,0,0,0,0,-1,1427,1800,7.91735,-9.79922
210,-776,20.2479,7.85718,0,0,0,0,0,0,0,-1,1434,1800,20.248,-7.85719
217,-776,21.5171,9.3418,0,0,0,0,0,0,0,-1,1441,1800,21.5171,-9.34182
224,-776,3.09253,14.9313,0,0,0,0,0,0,0,-1,1448,1800,3.09254,-14.9313
231,-776,20.8671,9.21057,0,0,0,0,0,0,0,-1,1455,1800,20.867,-9.21054
238,-776,20.7511,9.05847,0,0,0,0,0,0,0,-1,1462,1800,20.7511,-9.05848
245,-776,3.80823,15.4108,0,0,0,0,0,0,0,-1,1469,1800,3.80826,-15.4108
252,-776,8.57837,20.2009,0,0,0,0,0,0,0,-1,1476,1800,8.57841,-20.2009
259,-776,14.1882,7.69055,0,0,0,0,0,0,0,-1,1483,1800,14.1882,-7.69061
266,-776,0,0,0,0,0,0,0,0,0,-1,1490,1800,0,0
273,-776,0,0,0,0,0,0,0,0,0,-1,1497,1800,0,0
280,-776,0,0,0,0,0,0,0,0,0,-1,1504,1800,0,0
287,-776,0,0,0,0,0,0,0,0,0,-1,1511,1800,0,0
294,-776,0,0,0,0,0,0,0,0,0,-1,1518,1800,0,0
301,-776,0,0,0,0,0,0,0,0,0,-1,1525,1800,0,0
308,-776,0,0,0,0,0,0,0,0,0,-1,1532,1800,0,0
315,-776,0,0,0,0,0,0,0,0,0,-1,1539,1800,0,0
322,-776,0,0,0,0,0,0,0,0,0,-1,1546,1800,0,0
329,-776,0,0,0,0,0,0,0,0,0,-1,1553,1800,0,0
336,-776,0,0,0,0,0,0,0,0,0,-1,1560,1800,0,0
343,-776,0,0,0,0,0,0,0,0,0,-1,1567,1800,0,0
350,-776,0,0,0,0,0,0,0,0,0,-1,1574,1800,0,0
357,-776,0,0,0,0,0,0,0,0,0,-1,1581,1800,0,0
364,-776,0,0,0,0,0,0,0,0,0,-1,1588,1800,0,0
371,-776,0,0,0,0,0,0,0,0,0,-1,1595,1800,0,0
378,-776,0,0,0,0,0,0,0,0,0,-1,1602,1800,0,0
385,-776,0,0,0,0,0,0,0,0,0,-1,1609,1800,0,0
392,-776,0,0,0,0,0,0,0,0,0,-1,1616,1800,0,0
399,-776,0,0,0,0,0,0,0,0,0,-1,1623,1800,0,0
406,-776,0,0,0,0,0,0,0,0,0,-1,1630,1800,0,0
413,-776,0,0,0,0,0,0,0,0,0,-1,1637,1800,0,0
420,-776,0,0,0,0,0,0,0,0,0,-1,1644,1800,0,0
427,-776,0,0,0,0,0,0,0,0,0,-1,1651,1800,0,0
434,-776,0,0,0,0,0,0,0,0,0,-1,1658,1800,0,0
441,-776,0,0,0,0,0,0,0,0,0,-1,1665,1800,0,0
448,-776,0,0,0,0,0,0,0,0,0,-1,1672,1800,0,0
455,-776,0,0,0,0,0,0,0,0,0,-1,1679,1800,0,0
462,-776,0,0,0,0,0,0,0,0,0,-1,1686,1800,0,0
469,-776,0,0,0,0,0,0,0,0,0,-1,1693,1800,0,0
476,-776,0,0,0,0,0,0,0,0,0,-1,1700,1800,0,0
483,-776,0,0,0,0,0,0,0,0,0,-1,1707,1800,0,0
490,-776,0,0,0,0,0,0,0,0,0,-1,1714,1800,0,0
497,-776,0,0,0,0,0,0,0,0,0,-1,1721,1800,0,0
504,-776,0,0,0,0,0,0,0,0,0,-1,1728,1800,0,0
511,-776,0,0,0,0,0,0,0,0,0,-1,1735,1800,0,0
518,-776,0,0,0,0,0,0,0,0,0,-1,1742,1800,0,0
525,-776,0,0,0,0,0,0,0,0,0,-1,1749,1800,0,0
532,-776,0,0,0,0,0,0,0,0,0,-1,1756,1800,0,0
539,-776,0,0,0,0,0,0,0,0,0,-1,1763,1800,0,0
546,-776,0,0,0,0,0,0,0,0,0,-1,1770,1800,0,0
553,-776,0,0,0,0,0,0,0,0,0,-1,1777,1800,0,0
560,-776,0,0,0,0,0,0,0,0,0,-1,1784,1800,0,0
567,-776,0,0,0,0,0,0,0,0,0,-1,1791,1800,0,0
574,-776,0,0,0,0,0,0,0,0,0,-1,1798,1800,0,0
581,-776,0,0,0,0,0,0,0,0,0,-1,1805,1800,0,0
588,-776,0,0,0,0,0,0,0,0,0,-1,1812,1800,0,0
595,-776,0,0,0,0,0,0,0,0,0,-1,1819,1800,0,0
602,-776,0,0,0,0,0,0,0,0,0,-1,1826,1800,0,0
609,-776,0,0,0,0,0,0,0,0,0,-1,1833,1800,0,0
616,-776,0,0,0,0,0,0,0,0,0,-1,1840,1800,0,0
623,-776,0,0,0,0,0,0,0,0,0,-1,1847,1800,0,0
630,-776,0,0,0,0,0,0,0,0,0,-1,1854,1800,0,0
637,-776,0,0,0,0,0,0,0,0,0,-1,1861,1800,0,0
644,-776,0,0,0,0,0,0,0,0,0,-1,1868,1800,0,0
651,-776,0,0,0,0,0,0,0,0,0,-1,1875,1800,0,0
658,-776,0,0,0,0,0,0,0,0,0,-1,1882,1800,0,0
665,-776,0,0,0,0,0,0,0,0,0,-1,1889,1800,0,0
672,-776,0,0,0,0,0,0,0,0,0,-1,1896,1800,0,0
679,-776,0,0,0,0,0,0,0,0,0,-1,1903,1800,0,0
686,-776,0,0,0,0,0,0,0,0,0,-1,1910,1800,0,0
693,-776,0,0,0,0,0,0,0,0,0,-1,1917,1800,0,0
700,-776,0,0,0,0,0,0,0,0,0,-1,1924,1800,0,0
707,-776,0,0,0,0,0,0,0,0,0,-1,1931,1800,0,0
714,-776,0,0,0,0,0,0,0,0,0,-1,1938,1800,0,0
721,-776,0,0,0,0,0,0,0,0,0,-1,1945,1800,0,0
728,-776,0,0,0,0,0,0,0,0,0,-1,1952,1800,0,0
735,-776,0,0,0,0,0,0,0,0,0,-1,1959,1800,0,0
742,-776,0,0,0,0,0,0,0,0,0,-1,1966,1800,0,0
749,-776,0,0,0,0,0,0,0,0,0,-1,1973,1800,0,0
756,-776,0,0,0,0,0,0,0,0,0,-1,1980,1800,0,0
763,-776,0,0,0,0,0,0,0,0,0,-1,1987,1800,0,0
770,-776,0,0,0,0,0,0,0,0,0,-1,1994,1800,0,0
777,-776,0,0,0,0,0,0,0,0,0,-1,2001,1800,0,0
784,-776,0,0,0,0,0,0,0,0,0,-1,2008,1800,0,0
791,-776,0,0,0,0,0,0,0,0,0,-1,2015,1800,0,0
798,-776,0,0,0,0,0,0,0,0,0,-1,2022,1800,0,0
805,-776,0,0,0,0,0,0,0,0,0,-1,2029,1800,0,0
812,-776,0,0,0,0,0,0,0,0,0,-1,2036,1800,0,0
-700,-783,0,0,0,0,0,0,0,0,0,-1,524,1807,0,0
-693,-783,0,0,0,0,0,0,0,0,0,-1,531,1807,0,0
-686,-783,0,0,0,0,0,0,0,0,0,-1,538,1807,0,0
-679,-783,0,0,0,0,0,0,0,0,0,-1,545,1807,0,0
-672,-783,0,0,0,0,0,0,0,0,0,-1,552,1807,0,0
-665,-783,0,0,0,0,0,0,0,0,0,-1,559,1807,0,0
-658,-783,0,0,0,0,0,0,0,0,0,-1,566,1807,0,0
-651,-783,0,0,0,0,0,0,0,0,0,-1,573,1807,0,0
-644,-783,0,0,0,0,0,0,0,0,0,-1,580,1807,0,0
-637,-783,0,0,0,0,0,0,0,0,0,-1,587,1807,0,0
-630,-783,0,0,0,0,0,0,0,0,0,-1,594,1807,0,0
-623,-783,0,0,0,0,0,0,0,0,0,-1,601,1807,0,0
-616,-783,0,0,0,0,0,0,0,0,0,-1,608,1807,0,0
-609,-783,0,0,0,0,0,0,0,0,0,-1,615,1807,0,0
-602,-783,0,0,0,0,0,0,0,0,0,-1,622,1807,0,0
-595,-783,0,0,0,0,0,0,0,0,0,-1,629,1807,0,0
-588,-783,0,0,0,0,0,0,0,0,0,-1,636,1807,0,0
-581,-783,0,0,0,0,0,0,0,0,0,-1,643,1807,0,0
-574,-783,0,0,0,0,0,0,0,0,0,-1,650,1807,0,0
-567,-783,0,0,0,0,0,0,0,0,0,-1,657,1807,0,0
-560,-783,0,0,0,0,0,0,0,0,0,-1,664,1807,0,0
-553,-783,0,0,0,0,0,0,0,0,0,-1,671,1807,0,0
-546,-783,0,0,0,0,0,0,0,0,0,-1,678,1807,0,0
-539,-783,0,0,0,0,0,0,0,0,0,-1,685,1807,0,0
-532,-783,0,0,0,0,0,0,0,0,0,-1,692,1807,0,0
-525,-783,0,0,0,0,0,0,0,0,0,-1,699,1807,0,0
-518,-783,0,0,0,0,0,0,0,0,0,-1,706,1807,0,0
-511,-783,0,0,0,0,0,0,0,0,0,-1,713,1807,0,0
-504,-783,0,0,0,0,0,0,0,0,0,-1,720,1807,0,0
-497,-783,0,0,0,0,0,0,0,0,0,-1,727,1807,0,0
-490,-783,0,0,0,0,0,0,0,0,0,-1,734,1807,0,0
-483,-783,0,0,0,0,0,0,0,0,0,-1,741,1807,0,0
-476,-783,0,0,0,0,0,0,0,0,0,-1,748,1807,0,0
-469,-783,0,0,0,0,0,0,0,0,0,-1,755,1807,0,0
-462,-783,0,0,0,0,0,0,0,0,0,-1,762,1807,0,0
-455,-783,0,0,0,0,0,0,0,0,0,-1,769,1807,0,0
-448,-783,0,0,0,0,0,0,0,0,0,-1,776,1807,0,0
-441,-783,0,0,0,0,0,0,0,0,0,-1,783,1807,0,0
-434,-783,0,0,0,0,0,0,0,0,0,-1,790,1807,0,0
-427,-783,0,0,0,0,0,0,0,0,0,-1,797,1807,0,0
-420,-783,0,0,0,0,0,0,0,0,0,-1,804,1807,0,0
-413,-783,0,0,0,0,0,0,0,0,0,-1,811,1807,0,0
-406,-783,0,0,0,0,0,0,0,0,0,-1,818,1807,0,0
-399,-783,0,0,0,0,0,0,0,0,0,-1,825,1807,0,0
-392,-783,0,0,0,0,0,0,0,0,0,-1,832,1807,0,0
-385,-783,0,0,0,0,0,0,0,0,0,-1,839,1807,0,0
-378,-783,0,0,0,0,0,0,0,0,0,-1,846,1807,0,0
-371,-783,0,0,0,0,0,0,0,0,0,-1,853,1807,0,0
-364,-783,0,0,0,0,0,0,0,0,0,-1,860,1807,0,0
-357,-783,0,0,0,0,0,0,0,0,0,-1,867,1807,0,0
-350,-783,0,0,0,0,0,0,0,0,0,-1,874,1807,0,0
-343,-783,0,0,0,0,0,0,0,0,0,-1,881,1807,0,0
-336,-783,0,0,0,0,0,0,0,0,0,-1,888,1807,0,0
-329,-783,0,0,0,0,0,0,0,0,0,-1,895,1807,0,0
-322,-783,0,0,0,0,0,0,0,0,0,-1,902,1807,0,0
-315,-783,0,0,0,0,0,0,0,0,0,-1,909,1807,0,0
-308,-783,0,0,0,0,0,0,0,0,0,-1,916,1807,0,0
-301,-783,0,0,0,0,0,0,0,0,0,-1,923,1807,0,0
-294,-783,0,0,0,0,0,0,0,0,0,-1,930,1807,0,0
-287,-783,0,0,0,0,0,0,0,0,0,-1,937,1807,0,0
-280,-783,0,0,0,0,0,0,0,0,0,-1,944,1807,0,0
-273,-783,0,0,0,0,0,0,0,0,0,-1,951,1807,0,0
-266,-783,0,0,0,0,0,0,0,0,0,-1,958,1807,0,0
-259,-783,0,0,0,0,0,0,0,0,0,-1,965,1807,0,0
-252,-783,0,0,0,0,0,0,0,0,0,-1,972,1807,0,0
-245,-783,0,0,0,0,0,0,0,0,0,-1,979,1807,0,0
-238,-783,0,0,0,0,0,0,0,0,0,-1,986,1807,0,0
-231,-783,0,0,0,0,0,0,0,0,0,-1,993,1807,0,0
-224,-783,0,0,0,0,0,0,0,0,0,-1,1000,1807,0,0
-217,-783,0,0,0,0,0,0,0,0,0,-1,1007,1807,0,0
-210,-783,0,0,0,0,0,0,0,0,0,-1,1014,1807,0,0
-203,-783,0,0,0,0,0,0,0,0,0,-1,1021,1807,0,0
-196,-783,0,0,0,0,0,0,0,0,0,-1,1028,1807,0,0
-189,-783,0,0,0,0,0,0,0,0,0,-1,1035,1807,0,0
-182,-783,0,0,0,0,0,0,0,0,0,-1,1042,1807,0,0
-175,-783,0,0,0,0,0,0,0,0,0,-1,1049,1807,0,0
-168,-783,0,0,0,0,0,0,0,0,0,-1,1056,1807,0,0
-161,-783,0,0,0,0,0,0,0,0,0,-1,1063,1807,0,0
-154,-783,0,0,0,0,0,0,0,0,0,-1,1070,1807,0,0
-147,-783,0,0,0,0,0,0,0,0,0,-1,1077,1807,0,0
-140,-783,0,0,0,0,0,0,0,0,0,-1,1084,1807,0,0
-133,-783,0,0,0,0,0,0,0,0,0,-1,1091,1807,0,0
-126,-783,0,0,0,0,0,0,0,0,0,-1,1098,1807,0,0
-119,-783,0,0,0,0,0,0,0,0,0,-1,1105,1807,0,0
-112,-783,5.33936,14.7699,0,0,0,0,0,0,0,-1,1112,1807,5.33931,-14.7699
-105,-783,6.44263,21.2224,0,0,0,0,0,0,0,-1,1119,1807,6.44263,-21.2224
-98,-783,5.54773,20.5695,0,0,0,0,0,0,0,-1,1126,1807,5.54772,-20.5695
-91,-783,2.6106,20.2491,0,0,0,0,0,0,0,-1,1133,1807,2.61056,-20.2492
-84,-783,-0.0491943,14.5743,0,0,0,0,0,0,0,-1,1140,1807,-0.0491562,-14.5743
-77,-783,0.332764,12.7788,0,0,0,0,0,0,0,-1,1147,1807,0.332743,-12.7788
-70,-783,-1.93176,5.12817,0,0,0,0,0,0,0,-1,1154,1807,-1.93171,-5.12813
-63,-783,-5.31702,10.54,0,0,0,0,0,0,0,-1,1161,1807,-5.31703,-10.54
-56,-783,-6.26135,6.9679,0,0,0,0,0,0,0,-1,1168,1807,-6.26136,-6.96785
-49,-783,-3.17688,4.59705,0,0,0,0,0,0,0,-1,1175,1807,-3.17685,-4.5971
-42,-783,-3.72876,3.1405,0,0,0,0,0,0,0,-1,1182,1807,-3.72874,-3.14055
-35,-783,-3.97046,1.59399,0,0,0,0,0,0,0,-1,1189,1807,-3.97041,-1.59401
-28,-783,-4.12195,0.270386,0,0,0,0,0,0,0,-1,1196,1807,-4.12197,-0.270408
-21,-783,15.1224,64.5708,0,0,0,0,0,0,0,-1,1203,1807,15.1225,-64.5709
-14,-783,14.9528,64.1094,0,0,0,0,0,0,0,-1,1210,1807,14.9528,-64.1094
-7,-783,14.5737,63.6155,0,0,0,0,0,0,0,-1,1217,1807,14.5738,-63.6155
0,-783,14.0138,63.8965,-0.0573485,0.0368009,-0.0395448,0.0512065,-0.0717541,-1.22145,0.0713209,0.0470672,1224,1807,14.0138,-63.8965
7,-783,13.3369,64.05,-0.0559163,0.0467875,-0.0386529,0.059709,-0.0688378,-1.24818,0.0742789,0.046483,1231,1807,13.3369,-64.05
14,-783,10.6581,63.4142,-0.053941,0.0544278,-0.0370544,0.0658862,-0.0653994,-1.27089,0.0757979,0.048937,1238,1807,10.6581,-63.4142
21,-783,11.3319,63.1675,-0.0516001,0.0618356,-0.0353598,0.0719551,-0.0617196,-1.29206,0.0772525,0.0458332,1245,1807,11.3319,-63.1675
28,-783,10.9103,63.4431,-0.0451323,0.0707716,-0.0341209,0.0800704,-0.0544311,-1.30473,0.0781234,0.0460737,1252,1807,10.9103,-63.4431
35,-783,10.9741,63.3184,-0.037487,0.0801095,-0.0336478,0.0890565,-0.0464339,-1.31091,0.0795051,0.0456691,1259,1807,10.9741,-63.3184
42,-783,9.0929,64.6067,-0.031406,0.089172,-0.0326955,0.0974669,-0.039701,-1.32234,0.0815012,0.0450602,1266,1807,9.09294,-64.6067
49,-783,9.05493,64.6089,-0.0245934,0.0977561,-0.032227,0.105726,-0.0325629,-1.32837,0.0834825,0.0469941,1273,1807,9.05487,-64.6088
56,-783,8.93896,64.7406,0,0,0,0,0,0,0,-1,1280,1807,8.93892,-64.7406
63,-783,9.22302,61.5021,0,0,0,0,0,0,0,-1,1287,1807,9.22308,-61.5021
70,-783,9.77417,62.9843,0,0,0,0,0,0,0,-1,1294,1807,9.7742,-62.9843
77,-783,10.4626,62.9032,0.00873262,0.0987171,-0.0409675,0.114574,-0.00712444,-1.20149,0.0788649,0.0489547,1301,1807,10.4627,-62.9033
84,-783,10.4906,62.6714,0.0157808,0.0927693,-0.0449342,0.113443,-0.00489324,-1.13958,0.0773116,0.0471133,1308,1807,10.4906,-62.6714
91,-783,10.2585,62.5985,0.0224468,0.0826848,-0.0491333,0.110196,-0.00506436,-1.06036,0.075209,0.0445439,1315,1807,10.2585,-62.5985
98,-783,9.76086,62.515,0,0,0,0,0,0,0,-1,1322,1807,9.76089,-62.515
105,-783,9.55273,62.5001,0,0,0,0,0,0,0,-1,1329,1807,9.55269,-62.5001
112,-783,12.6703,54.5587,0,0,0,0,0,0,0,-1,1336,1807,12.6703,-54.5587
119,-783,13.137,53.0253,0,0,0,0,0,0,0,-1,1343,1807,13.1369,-53.0253
126,-783,8.35681,62.7233,0,0,0,0,0,0,0,-1,1350,1807,8.35679,-62.7233
133,-783,5.38831,60.913,0,0,0,0,0,0,0,-1,1357,1807,5.38834,-60.913
140,-783,6.47168,61.5424,0,0,0,0,0,0,0,-1,1364,1807,6.47169,-61.5423
147,-783,9.6698,63.2255,0,0,0,0,0,0,0,-1,1371,1807,9.66982,-63.2254
154,-783,38.2109,17.545,0,0,0,0,0,0,0,-1,1378,1807,38.2109,-17.545
161,-783,39.5087,17.5449,0,0,0,0,0,0,0,-1,1385,1807,39.5087,-17.545
168,-783,8.62561,1.79944,0,0,0,0,0,0,0,-1,1392,1807,8.62561,-1.79946
175,-783,8.78699,3.40857,0,0,0,0,0,0,0,-1,1399,1807,8.78697,-3.40854
182,-783,8.70984,5.14661,0,0,0,0,0,0,0,-1,1406,1807,8.70989,-5.14666
189,-783,8.55762,6.79871,0,0,0,0,0,0,0,-1,1413,1807,8.55766,-6.79872
196,-783,8.25488,8.66626,0,0,0,0,0,0,0,-1,1420,1807,8.25492,-8.66628
203,-783,7.86755,10.5735,0,0,0,0,0,0,0,-1,1427,1807,7.8676,-10.5734
210,-783,5.6969,8.99231,0,0,0,0,0,0,0,-1,1434,1807,5.69693,-8.99234
217,-783,5.28503,3.80872,0,0,0,0,0,0,0,-1,1441,1807,5.285,-3.80868
224,-783,3.22571,6.62903,0,0,0,0,0,0,0,-1,1448,1807,3.2257,-6.62907
231,-783,4.27942,4.56262,0,0,0,0,0,0,0,-1,1455,1807,4.27948,-4.56267
238,-783,0,0,0,0,0,0,0,0,0,-1,1462,1807,0,0
245,-783,0,0,0,0,0,0,0,0,0,-1,1469,1807,0,0
252,-783,0,0,0,0,0,0,0,0,0,-1,1476,1807,0,0
259,-783,0,0,0,0,0,0,0,0,0,-1,1483,1807,0,0
266,-783,0,0,0,0,0,0,0,0,0,-1,1490,1807,0,0
273,-783,0,0,0,0,0,0,0,0,0,-1,1497,1807,0,0
280,-783,0,0,0,0,0,0,0,0,0,-1,1504,1807,0,0
287,-783,0,0,0,0,0,0,0,0,0,-1,1511,1807,0,0
294,-783,0,0,0,0,0,0,0,0,0,-1,1518,1807,0,0
301,-783,0,0,0,0,0,0,0,0,0,-1,1525,1807,0,0
308,-783,0,0,0,0,0,0,0,0,0,-1,1532,1807,0,0
315,-783,0,0,0,0,0,0,0,0,0,-1,1539,1807,0,0
322,-783,0,0,0,0,0,0,0,0,0,-1,1546,1807,0,0
329,-783,0,0,0,0,0,0,0,0,0,-1,1553,1807,0,0
336,-783,0,0,0,0,0,0,0,0,0,-1,1560,1807,0,0
343,-783,0,0,0,0,0,0,0,0,0,-1,1567,1807,0,0
350,-783,0,0,0,0,0,0,0,0,0,-1,1574,1807,0,0
357,-783,0,0,0,0,0,0,0,0,0,-1,1581,1807,0,0
364,-783,0,0,0,0,0,0,0,0,0,-1,1588,1807,0,0
371,-783,0,0,0,0,0,0,0,0,0,-1,1595,1807,0,0
378,-783,0,0,0,0,0,0,0,0,0,-1,1602,1807,0,0
385,-783,0,0,0,0,0,0,0,0,0,-1,1609,1807,0,0
392,-783,0,0,0,0,0,0,0,0,0,-1,1616,1807,0,0
399,-783,0,0,0,0,0,0,0,0,0,-1,1623,1807,0,0
406,-783,0,0,0,0,0,0,0,0,0,-1,1630,1807,0,0
413,-783,0,0,0,0,0,0,0,0,0,-1,1637,1807,0,0
420,-783,0,0,0,0,0,0,0,0,0,-1,1644,1807,0,0
427,-783,0,0,0,0,0,0,0,0,0,-1,1651,1807,0,0
434,-783,0,0,0,0,0,0,0,0,0,-1,1658,1807,0,0
441,-783,0,0,0,0,0,0,0,0,0,-1,1665,1807,0,0
448,-783,0,0,0,0,0,0,0,0,0,-1,1672,1807,0,0
455,-783,0,0,0,0,0,0,0,0,0,-1,1679,1807,0,0
462,-783,0,0,0,0,0,0,0,0,0,-1,1686,1807,0,0
469,-783,0,0,0,0,0,0,0,0,0,-1,1693,1807,0,0
476,-783,0,0,0,0,0,0,0,0,0,-1,1700,1807,0,0
483,-783,0,0,0,0,0,0,0,0,0,-1,1707,1807,0,0
490,-783,0,0,0,0,0,0,0,0,0,-1,1714,1807,0,0
497,-783,0,0,0,0,0,0,0,0,0,-1,1721,1807,0,0
504,-783,0,0,0,0,0,0,0,0,0,-1,1728,1807,0,0
511,-783,0,0,0,0,0,0,0,0,0,-1,1735,1807,0,0
518,-783,0,0,0,0,0,0,0,0,0,-1,1742,1807,0,0
525,-783,0,0,0,0,0,0,0,0,0,-1,1749,1807,0,0
532,-783,0,0,0,0,0,0,0,0,0,-1,1756,1807,0,0
539,-783,0,0,0,0,0,0,0,0,0,-1,1763,1807,0,0
546,-783,0,0,0,0,0,0,0,0,0,-1,1770,1807,0,0
553,-783,0,0,0,0,0,0,0,0,0,-1,1777,1807,0,0
560,-783,0,0,0,0,0,0,0,0,0,-1,1784,1807,0,0
567,-783,0,0,0,0,0,0,0,0,0,-1,1791,1807,0,0
574,-783,0,0,0,0,0,0,0,0,0,-1,1798,1807,0,0
581,-783,0,0,0,0,0,0,0,0,0,-1,1805,1807,0,0
588,-783,0,0,0,0,0,0,0,0,0,-1,1812,1807,0,0
595,-783,0,0,0,0,0,0,0,0,0,-1,1819,1807,0,0
602,-783,0,0,0,0,0,0,0,0,0,-1,1826,1807,0,0
609,-783,0,0,0,0,0,0,0,0,0,-1,1833,1807,0,0
616,-783,0,0,0,0,0,0,0,0,0,-1,1840,1807,0,0
623,-783,0,0,0,0,0,0,0,0,0,-1,1847,1807,0,0
630,-783,0,0,0,0,0,0,0,0,0,-1,1854,1807,0,0
637,-783,0,0,0,0,0,0,0,0,0,-1,1861,1807,0,0
644,-783,0,0,0,0,0,0,0,0,0,-1,1868,1807,0,0
651,-783,0,0,0,0,0,0,0,0,0,-1,1875,1807,0,0
658,-783,0,0,0,0,0,0,0,0,0,-1,1882,1807,0,0
665,-783,0,0,0,0,0,0,0,0,0,-1,1889,1807,0,0
672,-783,0,0,0,0,0,0,0,0,0,-1,1896,1807,0,0
679,-783,0,0,0,0,0,0,0,0,0,-1,1903,1807,0,0
686,-783,0,0,0,0,0,0,0,0,0,-1,1910,1807,0,0
693,-783,0,0,0,0,0,0,0,0,0,-1,1917,1807,0,0
700,-783,0,0,0,0,0,0,0,0,0,-1,1924,1807,0,0
707,-783,0,0,0,0,0,0,0,0,0,-1,1931,1807,0,0
714,-783,0,0,0,0,0,0,0,0,0,-1,1938,1807,0,0
721,-783,0,0,0,0,0,0,0,0,0,-1,1945,1807,0,0
728,-783,0,0,0,0,0,0,0,0,0,-1,1952,1807,0,0
735,-783,0,0,0,0,0,0,0,0,0,-1,1959,1807,0,0
742,-783,0,0,0,0,0,0,0,0,0,-1,1966,1807,0,0
749,-783,0,0,0,0,0,0,0,0,0,-1,1973,1807,0,0
756,-783,0,0,0,0,0,0,0,0,0,-1,1980,1807,0,0
763,-783,0,0,0,0,0,0,0,0,0,-1,1987,1807,0,0
770,-783,0,0,0,0,0,0,0,0,0,-1,1994,1807,0,0
777,-783,0,0,0,0,0,0,0,0,0,-1,2001,1807,0,0
784,-783,0,0,0,0,0,0,0,0,0,-1,2008,1807,0,0
791,-783,0,0,0,0,0,0,0,0,0,-1,2015,1807,0,0
798,-783,0,0,0,0,0,0,0,0,0,-1,2022,1807,0,0
805,-783,0,0,0,0,0,0,0,0,0,-1,2029,1807,0,0
812,-783,0,0,0,0,0,0,0,0,0,-1,2036,1807,0,0
-700,-790,0,0,0,0,0,0,0,0,0,-1,524,1814,0,0
-693,-790,0,0,0,0,0,0,0,0,0,-1,531,1814,0,0
-686,-790,0,0,0,0,0,0,0,0,0,-1,538,1814,0,0
-679,-790,0,0,0,0,0,0,0,0,0,-1,545,1814,0,0
-672,-790,0,0,0,0,0,0,0,0,0,-1,552,1814,0,0
-665,-790,0,0,0,0,0,0,0,0,0,-1,559,1814,0,0
-658,-790,0,0,0,0,0,0,0,0,0,-1,566,1814,0,0
-651,-790,0,0,0,0,0,0,0,0,0,-1,573,1814,0,0
-644,-790,0,0,0,0,0,0,0,0,0,-1,580,1814,0,0
-637,-790,0,0,0,0,0,0,0,0,0,-1,587,1814,0,0
-630,-790,0,0,0,0,0,0,0,0,0,-1,594,1814,0,0
-623,-790,0,0,0,0,0,0,0,0,0,-1,601,1814,0,0
-616,-790,0,0,0,0,0,0,0,0,0,-1,608,1814,0,0
-609,-790,0,0,0,0,0,0,0,0,0,-1,615,1814,0,0
-602,-790,0,0,0,0,0,0,0,0,0,-1,622,1814,0,0
-595,-790,0,0,0,0,0,0,0,0,0,-1,629,1814,0,0
-588,-790,0,0,0,0,0,0,0,0,0,-1,636,1814,0,0
-581,-790,0,0,0,0,0,0,0,0,0,-1,643,1814,0,0
-574,-790,0,0,0,0,0,0,0,0,0,-1,650,1814,0,0
-567,-790,0,0,0,0,0,0,0,0,0,-1,657,1814,0,0
-560,-790,0,0,0,0,0,0,0,0,0,-1,664,1814,0,0
-553,-790,0,0,0,0,0,0,0,0,0,-1,671,1814,0,0
-546,-790,0,0,0,0,0,0,0,0,0,-1,678,1814,0,0
-539,-790,0,0,0,0,0,0,0,0,0,-1,685,1814,0,0
-532,-790,0,0,0,0,0,0,0,0,0,-1,692,1814,0,0
-525,-790,0,0,0,0,0,0,0,0,0,-1,699,1814,0,0
-518,-790,0,0,0,0,0,0,0,0,0,-1,706,1814,0,0
-511,-790,0,0,0,0,0,0,0,0,0,-1,713,1814,0,0
-504,-790,0,0,0,0,0,0,0,0,0,-1,720,1814,0,0
-497,-790,0,0,0,0,0,0,0,0,0,-1,727,1814,0,0
-490,-790,0,0,0,0,0,0,0,0,0,-1,734,1814,0,0
-483,-790,0,0,0,0,0,0,0,0,0,-1,741,1814,0,0
-476,-790,0,0,0,0,0,0,0,0,0,-1,748,1814,0,0
-469,-790,0,0,0,0,0,0,0,0,0,-1,755,1814,0,0
-462,-790,0,0,0,0,0,0,0,0,0,-1,762,1814,0,0
-455,-790,0,0,0,0,0,0,0,0,0,-1,769,1814,0,0
-448,-790,0,0,0,0,0,0,0,0,0,-1,776,1814,0,0
-441,-790,0,0,0,0,0,0,0,0,0,-1,783,1814,0,0
-434,-790,0,0,0,0,0,0,0,0,0,-1,790,1814,0,0
-427,-790,0,0,0,0,0,0,0,0,0,-1,797,1814,0,0
-420,-790,0,0,0,0,0,0,0,0,0,-1,804,1814,0,0
-413,-790,0,0,0,0,0,0,0,0,0,-1,811,1814,0,0
-406,-790,0,0,0,0,0,0,0,0,0,-1,818,1814,0,0
-399,-790,0,0,0,0,0,0,0,0,0,-1,825,1814,0,0
-392,-790,0,0,0,0,0,0,0,0,0,-1,832,1814,0,0
-385,-790,0,0,0,0,0,0,0,0,0,-1,839,1814,0,0
-378,-790,0,0,0,0,0,0,0,0,0,-1,846,1814,0,0
-371,-790,0,0,0,0,0,0,0,0,0,-1,853,1814,0,0
-364,-790,0,0,0,0,0,0,0,0,0,-1,860,1814,0,0
-357,-790,0,0,0,0,0,0,0,0,0,-1,867,1814,0,0
-350,-790,0,0,0,0,0,0,0,0,0,-1,874,1814,0,0
-343,-790,0,0,0,0,0,0,0,0,0,-1,881,1814,0,0
-336,-790,0,0,0,0,0,0,0,0,0,-1,888,1814,0,0
-329,-790,0,0,0,0,0,0,0,0,0,-1,895,1814,0,0
-322,-790,0,0,0,0,0,0,0,0,0,-1,902,1814,0,0
-315,-790,0,0,0,0,0,0,0,0,0,-1,909,1814,0,0
-308,-790,0,0,0,0,0,0,0,0,0,-1,916,1814,0,0
-301,-790,0,0,0,0,0,0,0,0,0,-1,923,1814,0,0
-294,-790,0,0,0,0,0,0,0,0,0,-1,930,1814,0,0
-287,-790,0,0,0,0,0,0,0,0,0,-1,937,1814,0,0
-280,-790,0,0,0,0,0,0,0,0,0,-1,944,1814,0,0
-273,-790,0,0,0,0,0,0,0,0,0,-1,951,1814,0,0
-266,-790,0,0,0,0,0,0,0,0,0,-1,958,1814,0,0
-259,-790,0,0,0,0,0,0,0,0,0,-1,965,1814,0,0
-252,-790,0,0,0,0,0,0,0,0,0,-1,972,1814,0,0
-245,-790,0,0,0,0,0,0,0,0,0,-1,979,1814,0,0
-238,-790,0,0,0,0,0,0,0,0,0,-1,986,1814,0,0
-231,-790,0,0,0,0,0,0,0,0,0,-1,993,1814,0,0
-224,-790,0,0,0,0,0,0,0,0,0,-1,1000,1814,0,0
-217,-790,0,0,0,0,0,0,0,0,0,-1,1007,1814,0,0
-210,-790,0,0,0,0,0,0,0,0,0,-1,1014,1814,0,0
-203,-790,0,0,0,0,0,0,0,0,0,-1,1021,1814,0,0
-196,-790,0,0,0,0,0,0,0,0,0,-1,1028,1814,0,0
-189,-790,0,0,0,0,0,0,0,0,0,-1,1035,1814,0,0
-182,-790,0,0,0,0,0,0,0,0,0,-1,1042,1814,0,0
-175,-790,0,0,0,0,0,0,0,0,0,-1,1049,1814,0,0
-168,-790,0,0,0,0,0,0,0,0,0,-1,1056,1814,0,0
-161,-790,0,0,0,0,0,0,0,0,0,-1,1063,1814,0,0
-154,-790,0,0,0,0,0,0,0,0,0,-1,1070,1814,0,0
-147,-790,0,0,0,0,0,0,0,0,0,-1,1077,1814,0,0
-140,-790,0,0,0,0,0,0,0,0,0,-1,1084,1814,0,0
-133,-790,0,0,0,0,0,0,0,0,0,-1,1091,1814,0,0
-126,-790,0,0,0,0,0,0,0,0,0,-1,1098,1814,0,0
-119,-790,0,0,0,0,0,0,0,0,0,-1,1105,1814,0,0
-112,-790,0,0,0,0,0,0,0,0,0,-1,1112,1814,0,0
-105,-790,0,0,0,0,0,0,0,0,0,-1,1119,1814,0,0
-98,-790,0,0,0,0,0,0,0,0,0,-1,1126,1814,0,0
-91,-790,0,0,0,0,0,0,0,0,0,-1,1133,1814,0,0
-84,-790,0,0,0,0,0,0,0,0,0,-1,1140,1814,0,0
-77,-790,-0.969238,5.30847,0,0,0,0,0,0,0,-1,1147,1814,-0.969277,-5.3085
-70,-790,-1.23169,4.98914,0,0,0,0,0,0,0,-1,1154,1814,-1.23163,-4.98916
-63,-790,-1.69128,4.32263,0,0,0,0,0,0,0,-1,1161,1814,-1.69128,-4.32258
-56,-790,-2.24756,3.75305,0,0,0,0,0,0,0,-1,1168,1814,-2.24758,-3.75302
-49,-790,-3.11011,3.35779,0,0,0,0,0,0,0,-1,1175,1814,-3.11006,-3.35781
-42,-790,0.593262,1.19165,0,0,0,0,0,0,0,-1,1182,1814,0.593225,-1.19165
-35,-790,0.307129,-0.20105,0,0,0,0,0,0,0,-1,1189,1814,0.307178,0.201006
-28,-790,-2.78467,0.785156,0,0,0,0,0,0,0,-1,1196,1814,-2.78471,-0.785183
-21,-790,15.6823,64.7405,0,0,0,0,0,0,0,-1,1203,1814,15.6822,-64.7404
-14,-790,15.4427,64.2578,-0.0711732,0.0139969,-0.0501506,0.0372037,-0.09438,-1.1374,0.0783241,0.0435511,1210,1814,15.4428,-64.2578
-7,-790,15.0536,63.6615,-0.0699466,0.0278013,-0.0499952,0.0488429,-0.0909882,-1.17243,0.0819447,0.0437704,1217,1814,15.0536,-63.6615
0,-790,14.5073,63.5033,-0.0693463,0.0425156,-0.0489155,0.060888,-0.0877188,-1.2115,0.0862631,0.0457106,1224,1814,14.5074,-63.5034
7,-790,13.7628,63.5521,-0.0682151,0.0564624,-0.0481914,0.0729178,-0.0846705,-1.24175,0.091068,0.0445049,1231,1814,13.7628,-63.5521
14,-790,12.719,62.4324,0,0,0,0,0,0,0,-1,1238,1814,12.719,-62.4324
21,-790,12.2654,62.4136,0,0,0,0,0,0,0,-1,1245,1814,12.2654,-62.4136
28,-790,11.4747,63.1342,0,0,0,0,0,0,0,-1,1252,1814,11.4747,-63.1342
35,-790,10.9963,61.792,0,0,0,0,0,0,0,-1,1259,1814,10.9963,-61.7919
42,-790,10.5822,61.6672,0,0,0,0,0,0,0,-1,1266,1814,10.5822,-61.6672
49,-790,9.02515,64.6099,0,0,0,0,0,0,0,-1,1273,1814,9.02509,-64.6099
56,-790,9.35583,61.463,-0.0176513,0.122675,-0.0434676,0.135048,-0.0300248,-1.29347,0.101531,0.0428616,1280,1814,9.3558,-61.463
63,-790,9.36267,60.2759,-0.00495817,0.122831,-0.0455283,0.137392,-0.0195196,-1.26125,0.0987467,0.0435877,1287,1814,9.36271,-60.2758
70,-790,9.448,60.2327,0,0,0,0,0,0,0,-1,1294,1814,9.44797,-60.2326
77,-790,9.71313,60.1316,0.0156913,0.114034,-0.0521245,0.13652,-0.0067948,-1.16352,0.0933607,0.0422564,1301,1814,9.71309,-60.1315
84,-790,9.9928,59.8851,0.0254286,0.105,-0.0569341,0.134672,-0.00424355,-1.09036,0.0912287,0.0444078,1308,1814,9.9928,-59.8851
91,-790,10.6416,61.8843,0,0,0,0,0,0,0,-1,1315,1814,10.6416,-61.8843
98,-790,11.7689,57.2949,0,0,0,0,0,0,0,-1,1322,1814,11.7689,-57.2949
105,-790,12.256,55.9158,0.0488346,0.0468709,-0.0732667,0.121126,-0.0254205,-0.778698,0.0904232,0.0495586,1329,1814,12.2559,-55.9158
112,-790,12.7972,54.2839,0.0552619,0.0187362,-0.078259,0.117361,-0.0433626,-0.670768,0.096016,0.0487593,1336,1814,12.7972,-54.284
119,-790,13.23,52.6688,0.0605885,-0.00938789,-0.0831515,0.115813,-0.0646125,-0.586254,0.105558,0.046086,1343,1814,13.23,-52.6689
126,-790,13.6616,51.1846,0,0,0,0,0,0,0,-1,1350,1814,13.6616,-51.1846
133,-790,5.35693,60.7429,0,0,0,0,0,0,0,-1,1357,1814,5.35692,-60.7429
140,-790,5.24768,61.0145,0,0,0,0,0,0,0,-1,1364,1814,5.24774,-61.0146
147,-790,5.00623,60.8976,0,0,0,0,0,0,0,-1,1371,1814,5.00624,-60.8976
154,-790,40.215,13.2396,0,0,0,0,0,0,0,-1,1378,1814,40.2149,-13.2396
161,-790,39.3429,13.0336,0,0,0,0,0,0,0,-1,1385,1814,39.3429,-13.0336
168,-790,7.04077,2.23279,0,0,0,0,0,0,0,-1,1392,1814,7.04082,-2.23275
175,-790,9.03918,3.98535,0,0,0,0,0,0,0,-1,1399,1814,9.0392,-3.98535
182,-790,8.96997,5.67896,0,0,0,0,0,0,0,-1,1406,1814,8.97001,-5.6789
189,-790,8.59729,6.86975,0,0,0,0,0,0,0,-1,1413,1814,8.59728,-6.86972
196,-790,8.21924,9.29053,0,0,0,0,0,0,0,-1,1420,1814,8.21924,-9.29048
203,-790,0,0,0,0,0,0,0,0,0,-1,1427,1814,0,0
210,-790,0,0,0,0,0,0,0,0,0,-1,1434,1814,0,0
217,-790,0,0,0,0,0,0,0,0,0,-1,1441,1814,0,0
224,-790,0,0,0,0,0,0,0,0,0,-1,1448,1814,0,0
231,-790,0,0,0,0,0,0,0,0,0,-1,1455,1814,0,0
238,-790,0,0,0,0,0,0,0,0,0,-1,1462,1814,0,0
245,-790,0,0,0,0,0,0,0,0,0,-1,1469,1814,0,0
252,-790,0,0,0,0,0,0,0,0,0,-1,1476,1814,0,0
259,-790,0,0,0,0,0,0,0,0,0,-1,1483,1814,0,0
266,-790,0,0,0,0,0,0,0,0,0,-1,1490,1814,0,0
273,-790,0,0,0,0,0,0,0,0,0,-1,1497,1814,0,0
280,-790,0,0,0,0,0,0,0,0,0,-1,1504,1814,0,0
287,-790,0,0,0,0,0,0,0,0,0,-1,1511,1814,0,0
294,-790,0,0,0,0,0,0,0,0,0,-1,1518,1814,0,0
301,-790,0,0,0,0,0,0,0,0,0,-1,1525,1814,0,0
308,-790,0,0,0,0,0,0,0,0,0,-1,1532,1814,0,0
315,-790,0,0,0,0,0,0,0,0,0,-1,1539,1814,0,0
322,-790,0,0,0,0,0,0,0,0,0,-1,1546,1814,0,0
329,-790,0,0,0,0,0,0,0,0,0,-1,1553,1814,0,0
336,-790,0,0,0,0,0,0,0,0,0,-1,1560,1814,0,0
343,-790,0,0,0,0,0,0,0,0,0,-1,1567,1814,0,0
350,-790,0,0,0,0,0,0,0,0,0,-1,1574,1814,0,0
357,-790,0,0,0,0,0,0,0,0,0,-1,1581,1814,0,0
364,-790,0,0,0,0,0,0,0,0,0,-1,1588,1814,0,0
371,-790,0,0,0,0,0,0,0,0,0,-1,1595,1814,0,0
378,-790,0,0,0,0,0,0,0,0,0,-1,1602,1814,0,0
385,-790,0,0,0,0,0,0,0,0,0,-1,1609,1814,0,0
392,-790,0,0,0,0,0,0,0,0,0,-1,1616,1814,0,0
399,-790,0,0,0,0,0,0,0,0,0,-1,1623,1814,0,0
406,-790,0,0,0,0,0,0,0,0,0,-1,1630,1814,0,0
413,-790,0,0,0,0,0,0,0,0,0,-1,1637,1814,0,0
420,-790,0,0,0,0,0,0,0,0,0,-1,1644,1814,0,0
427,-790,0,0,0,0,0,0,0,0,0,-1,1651,1814,0,0
434,-790,0,0,0,0,0,0,0,0,0,-1,1658,1814,0,0
441,-790,0,0,0,0,0,0,0,0,0,-1,1665,1814,0,0
448,-790,0,0,0,0,0,0,0,0,0,-1,1672,1814,0,0
455,-790,0,0,0,0,0,0,0,0,0,-1,1679,1814,0,0
462,-790,0,0,0,0,0,0,0,0,0,-1,1686,1814,0,0
469,-790,0,0,0,0,0,0,0,0,0,-1,1693,1814,0,0
476,-790,0,0,0,0,0,0,0,0,0,-1,1700,1814,0,0
483,-790,0,0,0,0,0,0,0,0,0,-1,1707,1814,0,0
490,-790,0,0,0,0,0,0,0,0,0,-1,1714,1814,0,0
497,-790,0,0,0,0,0,0,0,0,0,-1,1721,1814,0,0
504,-790,0,0,0,0,0,0,0,0,0,-1,1728,1814,0,0
511,-790,0,0,0,0,0,0,0,0,0,-1,1735,1814,0,0
518,-790,0,0,0,0,0,0,0,0,0,-1,1742,1814,0,0
525,-790,0,0,0,0,0,0,0,0,0,-1,1749,1814,0,0
532,-790,0,0,0,0,0,0,0,0,0,-1,1756,1814,0,0
539,-790,0,0,0,0,0,0,0,0,0,-1,1763,1814,0,0
546,-790,0,0,0,0,0,0,0,0,0,-1,1770,1814,0,0
553,-790,0,0,0,0,0,0,0,0,0,-1,1777,1814,0,0
560,-790,0,0,0,0,0,0,0,0,0,-1,1784,1814,0,0
567,-790,0,0,0,0,0,0,0,0,0,-1,1791,1814,0,0
574,-790,0,0,0,0,0,0,0,0,0,-1,1798,1814,0,0
581,-790,0,0,0,0,0,0,0,0,0,-1,1805,1814,0,0
588,-790,0,0,0,0,0,0,0,0,0,-1,1812,1814,0,0
595,-790,0,0,0,0,0,0,0,0,0,-1,1819,1814,0,0
602,-790,0,0,0,0,0,0,0,0,0,-1,1826,1814,0,0
609,-790,0,0,0,0,0,0,0,0,0,-1,1833,1814,0,0
616,-790,0,0,0,0,0,0,0,0,0,-1,1840,1814,0,0
623,-790,0,0,0,0,0,0,0,0,0,-1,1847,1814,0,0
630,-790,0,0,0,0,0,0,0,0,0,-1,1854,1814,0,0
637,-790,0,0,0,0,0,0,0,0,0,-1,1861,1814,0,0
644,-790,0,0,0,0,0,0,0,0,0,-1,1868,1814,0,0
651,-790,0,0,0,0,0,0,0,0,0,-1,1875,1814,0,0
658,-790,0,0,0,0,0,0,0,0,0,-1,1882,1814,0,0
665,-790,0,0,0,0,0,0,0,0,0,-1,1889,1814,0,0
672,-790,0,0,0,0,0,0,0,0,0,-1,1896,1814,0,0
679,-790,0,0,0,0,0,0,0,0,0,-1,1903,1814,0,0
686,-790,0,0,0,0,0,0,0,0,0,-1,1910,1814,0,0
693,-790,0,0,0,0,0,0,0,0,0,-1,1917,1814,0,0
700,-790,0,0,0,0,0,0,0,0,0,-1,1924,1814,0,0
707,-790,0,0,0,0,0,0,0,0,0,-1,1931,1814,0,0
714,-790,0,0,0,0,0,0,0,0,0,-1,1938,1814,0,0
721,-790,0,0,0,0,0,0,0,0,0,-1,1945,1814,0,0
728,-790,0,0,0,0,0,0,0,0,0,-1,1952,1814,0,0
735,-790,0,0,0,0,0,0,0,0,0,-1,1959,1814,0,0
742,-790,0,0,0,0,0,0,0,0,0,-1,1966,1814,0,0
749,-790,0,0,0,0,0,0,0,0,0,-1,1973,1814,0,0
756,-790,0,0,0,0,0,0,0,0,0,-1,1980,1814,0,0
763,-790,0,0,0,0,0,0,0,0,0,-1,1987,1814,0,0
770,-790,0,0,0,0,0,0,0,0,0,-1,1994,1814,0,0
777,-790,0,0,0,0,0,0,0,0,0,-1,2001,1814,0,0
784,-790,0,0,0,0,0,0,0,0,0,-1,2008,1814,0,0
791,-790,0,0,0,0,0,0,0,0,0,-1,2015,1814,0,0
798,-790,0,0,0,0,0,0,0,0,0,-1,2022,1814,0,0
805,-790,0,0,0,0,0,0,0,0,0,-1,2029,1814,0,0
812,-790,0,0,0,0,0,0,0,0,0,-1,2036,1814,0,0
-700,-797,0,0,0,0,0,0,0,0,0,-1,524,1821,0,0
-693,-797,0,0,0,0,0,0,0,0,0,-1,531,1821,0,0
-686,-797,0,0,0,0,0,0,0,0,0,-1,538,1821,0,0
-679,-797,0,0,0,0,0,0,0,0,0,-1,545,1821,0,0
-672,-797,0,0,0,0,0,0,0,0,0,-1,552,1821,0,0
-665,-797,0,0,0,0,0,0,0,0,0,-1,559,1821,0,0
-658,-797,0,0,0,0,0,0,0,0,0,-1,566,1821,0,0
-651,-797,0,0,0,0,0,0,0,0,0,-1,573,1821,0,0
-644,-797,0,0,0,0,0,0,0,0,0,-1,580,1821,0,0
-637,-797,0,0,0,0,0,0,0,0,0,-1,587,1821,0,0
-630,-797,0,0,0,0,0,0,0,0,0,-1,594,1821,0,0
-623,-797,0,0,0,0,0,0,0,0,0,-1,601,1821,0,0
-616,-797,0,0,0,0,0,0,0,0,0,-1,608,1821,0,0
-609,-797,0,0,0,0,0,0,0,0,0,-1,615,1821,0,0
-602,-797,0,0,0,0,0,0,0,0,0,-1,622,1821,0,0
-595,-797,0,0,0,0,0,0,0,0,0,-1,629,1821,0,0
-588,-797,0,0,0,0,0,0,0,0,0,-1,636,1821,0,0
-581,-797,0,0,0,0,0,0,0,0,0,-1,643,1821,0,0
-574,-797,0,0,0,0,0,0,0,0,0,-1,650,1821,0,0
-567,-797,0,0,0,0,0,0,0,0,0,-1,657,1821,0,0
-560,-797,0,0,0,0,0,0,0,0,0,-1,664,1821,0,0
-553,-797,0,0,0,0,0,0,0,0,0,-1,671,1821,0,0
-546,-797,0,0,0,0,0,0,0,0,0,-1,678,1821,0,0
-539,-797,0,0,0,0,0,0,0,0,0,-1,685,1821,0,0
-532,-797,0,0,0,0,0,0,0,0,0,-1,692,1821,0,0
-525,-797,0,0,0,0,0,0,0,0,0,-1,699,1821,0,0
-518,-797,0,0,0,0,0,0,0,0,0,-1,706,1821,0,0
-511,-797,0,0,0,0,0,0,0,0,0,-1,713,1821,0,0
-504,-797,0,0,0,0,0,0,0,0,0,-1,720,1821,0,0
-497,-797,0,0,0,0,0,0,0,0,0,-1,727,1821,0,0
-490,-797,0,0,0,0,0,0,0,0,0,-1,734,1821,0,0
-483,-797,0,0,0,0,0,0,0,0,0,-1,741,1821,0,0
-476,-797,0,0,0,0,0,0,0,0,0,-1,748,1821,0,0
-469,-797,0,0,0,0,0,0,0,0,0,-1,755,1821,0,0
-462,-797,0,0,0,0,0,0,0,0,0,-1,762,1821,0,0
-455,-797,0,0,0,0,0,0,0,0,0,-1,769,1821,0,0
-448,-797,0,0,0,0,0,0,0,0,0,-1,776,1821,0,0
-441,-797,0,0,0,0,0,0,0,0,0,-1,783,1821,0,0
-434,-797,0,0,0,0,0,0,0,0,0,-1,790,1821,0,0
-427,-797,0,0,0,0,0,0,0,0,0,-1,797,1821,0,0
-420,-797,0,0,0,0,0,0,0,0,0,-1,804,1821,0,0
-413,-797,0,0,0,0,0,0,0,0,0,-1,811,1821,0,0
-406,-797,0,0,0,0,0,0,0,0,0,-1,818,1821,0,0
-399,-797,0,0,0,0,0,0,0,0,0,-1,825,1821,0,0
-392,-797,0,0,0,0,0,0,0,0,0,-1,832,1821,0,0
-385,-797,0,0,0,0,0,0,0,0,0,-1,839,1821,0,0
-378,-797,0,0,0,0,0,0,0,0,0,-1,846,1821,0,0
-371,-797,0,0,0,0,0,0,0,0,0,-1,853,1821,0,0
-364,-797,0,0,0,0,0,0,0,0,0,-1,860,1821,0,0
-357,-797,0,0,0,0,0,0,0,0,0,-1,867,1821,0,0
-350,-797,0,0,0,0,0,0,0,0,0,-1,874,1821,0,0
-343,-797,0,0,0,0,0,0,0,0,0,-1,881,1821,0,0
-336,-797,0,0,0,0,0,0,0,0,0,-1,888,1821,0,0
-329,-797,0,0,0,0,0,0,0,0,0,-1,895,1821,0,0
-322,-797,0,0,0,0,0,0,0,0,0,-1,902,1821,0,0
-315,-797,0,0,0,0,0,0,0,0,0,-1,909,1821,0,0
-308,-797,0,0,0,0,0,0,0,0,0,-1,916,1821,0,0
-301,-797,0,0,0,0,0,0,0,0,0,-1,923,1821,0,0
-294,-797,0,0,0,0,0,0,0,0,0,-1,930,1821,0,0
-287,-797,0,0,0,0,0,0,0,0,0,-1,937,1821,0,0
-280,-797,0,0,0,0,0,0,0,0,0,-1,944,1821,0,0
-273,-797,0,0,0,0,0,0,0,0,0,-1,951,1821,0,0
-266,-797,0,0,0,0,0,0,0,0,0,-1,958,1821,0,0
-259,-797,0,0,0,0,0,0,0,0,0,-1,965,1821,0,0
-252,-797,0,0,0,0,0,0,0,0,0,-1,972,1821,0,0
-245,-797,0,0,0,0,0,0,0,0,0,-1,979,1821,0,0
-238,-797,0,0,0,0,0,0,0,0,0,-1,986,1821,0,0
-231,-797,0,0,0,0,0,0,0,0,0,-1,993,1821,0,0
-224,-797,0,0,0,0,0,0,0,0,0,-1,1000,1821,0,0
-217,-797,0,0,0,0,0,0,0,0,0,-1,1007,1821,0,0
-210,-797,0,0,0,0,0,0,0,0,0,-1,1014,1821,0,0
-203,-797,0,0,0,0,0,0,0,0,0,-1,1021,1821,0,0
-196,-797,0,0,0,0,0,0,0,0,0,-1,1028,1821,0,0
-189,-797,0,0,0,0,0,0,0,0,0,-1,1035,1821,0,0
-182,-797,0,0,0,0,0,0,0,0,0,-1,1042,1821,0,0
-175,-797,0,0,0,0,0,0,0,0,0,-1,1049,1821,0,0
-168,-797,0,0,0,0,0,0,0,0,0,-1,1056,1821,0,0
-161,-797,0,0,0,0,0,0,0,0,0,-1,1063,1821,0,0
-154,-797,0,0,0,0,0,0,0,0,0,-1,1070,1821,0,0
-147,-797,0,0,0,0,0,0,0,0,0,-1,1077,1821,0,0
-140,-797,0,0,0,0,0,0,0,0,0,-1,1084,1821,0,0
-133,-797,0,0,0,0,0,0,0,0,0,-1,1091,1821,0,0
-126,-797,0,0,0,0,0,0,0,0,0,-1,1098,1821,0,0
-119,-797,0,0,0,0,0,0,0,0,0,-1,1105,1821,0,0
-112,-797,0,0,0,0,0,0,0,0,0,-1,1112,1821,0,0
-105,-797,0,0,0,0,0,0,0,0,0,-1,1119,1821,0,0
-98,-797,0,0,0,0,0,0,0,0,0,-1,1126,1821,0,0
-91,-797,0,0,0,0,0,0,0,0,0,-1,1133,1821,0,0
-84,-797,0,0,0,0,0,0,0,0,0,-1,1140,1821,0,0
-77,-797,0,0,0,0,0,0,0,0,0,-1,1147,1821,0,0
-70,-797,0,0,0,0,0,0,0,0,0,-1,1154,1821,0,0
-63,-797,0,0,0,0,0,0,0,0,0,-1,1161,1821,0,0
-56,-797,0,0,0,0,0,0,0,0,0,-1,1168,1821,0,0
-49,-797,0,0,0,0,0,0,0,0,0,-1,1175,1821,0,0
-42,-797,0.579834,0.692871,0,0,0,0,0,0,0,-1,1182,1821,0.579856,-0.692816
-35,-797,-0.185425,5.55396,0,0,0,0,0,0,0,-1,1189,1821,-0.18542,-5.55396
-28,-797,-0.310181,4.71509,0,0,0,0,0,0,0,-1,1196,1821,-0.310228,-4.71503
-21,-797,16.0996,64.8081,0,0,0,0,0,0,0,-1,1203,1821,16.0996,-64.8081
-14,-797,15.8953,64.394,-0.082488,0.0121743,-0.059748,0.0410669,-0.111381,-1.12038,0.0910829,0.0461609,1210,1821,15.8953,-64.3941
-7,-797,15.4686,63.8888,-0.0825776,0.0310056,-0.0601823,0.0569618,-0.108534,-1.16361,0.097083,0.0459047,1217,1821,15.4687,-63.8888
0,-797,14.8323,62.9899,0,0,0,0,0,0,0,-1,1224,1821,14.8323,-62.9899
7,-797,14.2152,62.6797,-0.0819864,0.0689767,-0.0590706,0.089343,-0.102353,-1.23878,0.11076,0.0481286,1231,1821,14.2152,-62.6796
14,-797,13.5563,62.3209,0,0,0,0,0,0,0,-1,1238,1821,13.5563,-62.3209
21,-797,12.9088,61.9446,0,0,0,0,0,0,0,-1,1245,1821,12.9088,-61.9445
28,-797,12.2659,61.5886,0,0,0,0,0,0,0,-1,1252,1821,12.2658,-61.5886
35,-797,11.6989,61.0835,-0.054402,0.118797,-0.055201,0.134894,-0.0704993,-1.28705,0.120511,0.047953,1259,1821,11.6989,-61.0835
42,-797,11.2251,60.7809,0,0,0,0,0,0,0,-1,1266,1821,11.2251,-60.7809
49,-797,10.7406,60.6732,-0.0339204,0.141462,-0.0536269,0.15656,-0.0490183,-1.29636,0.123986,0.0466635,1273,1821,10.7406,-60.6732
56,-797,10.1256,60.3851,-0.0192709,0.144011,-0.0553302,0.160994,-0.0362539,-1.27299,0.121234,0.0458983,1280,1821,10.1257,-60.3852
63,-797,9.38647,60.1351,-0.00316058,0.142211,-0.0575391,0.162229,-0.0231785,-1.23599,0.116649,0.0446493,1287,1821,9.38646,-60.1351
70,-797,8.86084,59.762,0,0,0,0,0,0,0,-1,1294,1821,8.8608,-59.762
77,-797,10.1509,59.4456,0.0246781,0.127563,-0.0650995,0.159092,-0.00685097,-1.11977,0.108417,0.0391048,1301,1821,10.1509,-59.4455
84,-797,10.9409,59.0739,0.0378221,0.114559,-0.0707265,0.156654,-0.00427284,-1.03393,0.105889,0.0443859,1308,1821,10.9409,-59.0738
91,-797,11.4489,58.0817,0,0,0,0,0,0,0,-1,1315,1821,11.4488,-58.0817
98,-797,11.9834,56.8876,0,0,0,0,0,0,0,-1,1322,1821,11.9834,-56.8876
105,-797,12.5685,55.9791,0.0695814,0.0362614,-0.0905027,0.144945,-0.039102,-0.694376,0.111963,0.049043,1329,1821,12.5685,-55.9792
112,-797,13.0499,54.8588,0.0781845,-0.00124336,-0.0974219,0.143676,-0.066735,-0.591857,0.124159,0.0464173,1336,1821,13.0499,-54.8588
119,-797,13.5494,53.8159,0.0849152,-0.0406662,-0.103657,0.143317,-0.0990676,-0.513079,0.140716,0.0452823,1343,1821,13.5494,-53.8159
126,-797,14.1208,52.7489,0,0,0,0,0,0,0,-1,1350,1821,14.1208,-52.7489
133,-797,5.3877,60.46,0,0,0,0,0,0,0,-1,1357,1821,5.38768,-60.46
140,-797,3.97681,60.5278,0,0,0,0,0,0,0,-1,1364,1821,3.97678,-60.5279
147,-797,3.67468,60.5692,0,0,0,0,0,0,0,-1,1371,1821,3.67468,-60.5692
154,-797,40.2623,8.88733,0,0,0,0,0,0,0,-1,1378,1821,40.2623,-8.88731
161,-797,42.2798,8.17371,0,0,0,0,0,0,0,-1,1385,1821,42.2798,-8.17367
168,-797,0,0,0,0,0,0,0,0,0,-1,1392,1821,0,0
175,-797,0,0,0,0,0,0,0,0,0,-1,1399,1821,0,0
182,-797,0,0,0,0,0,0,0,0,0,-1,1406,1821,0,0
189,-797,0,0,0,0,0,0,0,0,0,-1,1413,1821,0,0
196,-797,0,0,0,0,0,0,0,0,0,-1,1420,1821,0,0
203,-797,0,0,0,0,0,0,0,0,0,-1,1427,1821,0,0
210,-797,0,0,0,0,0,0,0,0,0,-1,1434,1821,0,0
217,-797,0,0,0,0,0,0,0,0,0,-1,1441,1821,0,0
224,-797,0,0,0,0,0,0,0,0,0,-1,1448,1821,0,0
231,-797,0,0,0,0,0,0,0,0,0,-1,1455,1821,0,0
238,-797,0,0,0,0,0,0,0,0,0,-1,1462,1821,0,0
245,-797,0,0,0,0,0,0,0,0,0,-1,1469,1821,0,0
252,-797,0,0,0,0,0,0,0,0,0,-1,1476,1821,0,0
259,-797,0,0,0,0,0,0,0,0,0,-1,1483,1821,0,0
266,-797,0,0,0,0,0,0,0,0,0,-1,1490,1821,0,0
273,-797,0,0,0,0,0,0,0,0,0,-1,1497,1821,0,0
280,-797,0,0,0,0,0,0,0,0,0,-1,1504,1821,0,0
287,-797,0,0,0,0,0,0,0,0,0,-1,1511,1821,0,0
294,-797,0,0,0,0,0,0,0,0,0,-1,1518,1821,0,0
301,-797,0,0,0,0,0,0,0,0,0,-1,1525,1821,0,0
308,-797,0,0,0,0,0,0,0,0,0,-1,1532,1821,0,0
315,-797,0,0,0,0,0,0,0,0,0,-1,1539,1821,0,0
322,-797,0,0,0,0,0,0,0,0,0,-1,1546,1821,0,0
329,-797,0,0,0,0,0,0,0,0,0,-1,1553,1821,0,0
336,-797,0,0,0,0,0,0,0,0,0,-1,1560,1821,0,0
343,-797,0,0,0,0,0,0,0,0,0,-1,1567,1821,0,0
350,-797,0,0,0,0,0,0,0,0,0,-1,1574,1821,0,0
357,-797,0,0,0,0,0,0,0,0,0,-1,1581,1821,0,0
364,-797,0,0,0,0,0,0,0,0,0,-1,1588,1821,0,0
371,-797,0,0,0,0,0,0,0,0,0,-1,1595,1821,0,0
378,-797,0,0,0,0,0,0,0,0,0,-1,1602,1821,0,0
385,-797,0,0,0,0,0,0,0,0,0,-1,1609,1821,0,0
392,-797,0,0,0,0,0,0,0,0,0,-1,1616,1821,0,0
399,-797,0,0,0,0,0,0,0,0,0,-1,1623,1821,0,0
406,-797,0,0,0,0,0,0,0,0,0,-1,1630,1821,0,0
413,-797,0,0,0,0,0,0,0,0,0,-1,1637,1821,0,0
420,-797,0,0,0,0,0,0,0,0,0,-1,1644,1821,0,0
427,-797,0,0,0,0,0,0,0,0,0,-1,1651,1821,0,0
434,-797,0,0,0,0,0,0,0,0,0,-1,1658,1821,0,0
441,-797,0,0,0,0,0,0,0,0,0,-1,1665,1821,0,0
448,-797,0,0,0,0,0,0,0,0,0,-1,1672,1821,0,0
455,-797,0,0,0,0,0,0,0,0,0,-1,1679,1821,0,0
462,-797,0,0,0,0,0,0,0,0,0,-1,1686,1821,0,0
469,-797,0,0,0,0,0,0,0,0,0,-1,1693,1821,0,0
476,-797,0,0,0,0,0,0,0,0,0,-1,1700,1821,0,0
483,-797,0,0,0,0,0,0,0,0,0,-1,1707,1821,0,0
490,-797,0,0,0,0,0,0,0,0,0,-1,1714,1821,0,0
497,-797,0,0,0,0,0,0,0,0,0,-1,1721,1821,0,0
504,-797,0,0,0,0,0,0,0,0,0,-1,1728,1821,0,0
511,-797,0,0,0,0,0,0,0,0,0,-1,1735,1821,0,0
518,-797,0,0,0,0,0,0,0,0,0,-1,1742,1821,0,0
525,-797,0,0,0,0,0,0,0,0,0,-1,1749,1821,0,0
532,-797,0,0,0,0,0,0,0,0,0,-1,1756,1821,0,0
539,-797,0,0,0,0,0,0,0,0,0,-1,1763,1821,0,0
546,-797,0,0,0,0,0,0,0,0,0,-1,1770,1821,0,0
553,-797,0,0,0,0,0,0,0,0,0,-1,1777,1821,0,0
560,-797,0,0,0,0,0,0,0,0,0,-1,1784,1821,0,0
567,-797,0,0,0,0,0,0,0,0,0,-1,1791,1821,0,0
574,-797,0,0,0,0,0,0,0,0,0,-1,1798,1821,0,0
581,-797,0,0,0,0,0,0,0,0,0,-1,1805,1821,0,0
588,-797,0,0,0,0,0,0,0,0,0,-1,1812,1821,0,0
595,-797,0,0,0,0,0,0,0,0,0,-1,1819,1821,0,0
602,-797,0,0,0,0,0,0,0,0,0,-1,1826,1821,0,0
609,-797,0,0,0,0,0,0,0,0,0,-1,1833,1821,0,0
616,-797,0,0,0,0,0,0,0,0,0,-1,1840,1821,0,0
623,-797,0,0,0,0,0,0,0,0,0,-1,1847,1821,0,0
630,-797,0,0,0,0,0,0,0,0,0,-1,1854,1821,0,0
637,-797,0,0,0,0,0,0,0,0,0,-1,1861,1821,0,0
644,-797,0,0,0,0,0,0,0,0,0,-1,1868,1821,0,0
651,-797,0,0,0,0,0,0,0,0,0,-1,1875,1821,0,0
658,-797,0,0,0,0,0,0,0,0,0,-1,1882,1821,0,0
665,-797,0,0,0,0,0,0,0,0,0,-1,1889,1821,0,0
672,-797,0,0,0,0,0,0,0,0,0,-1,1896,1821,0,0
679,-797,0,0,0,0,0,0,0,0,0,-1,1903,1821,0,0
686,-797,0,0,0,0,0,0,0,0,0,-1,1910,1821,0,0
693,-797,0,0,0,0,0,0,0,0,0,-1,1917,1821,0,0
700,-797,0,0,0,0,0,0,0,0,0,-1,1924,1821,0,0
707,-797,0,0,0,0,0,0,0,0,0,-1,1931,1821,0,0
714,-797,0,0,0,0,0,0,0,0,0,-1,1938,1821,0,0
721,-797,0,0,0,0,0,0,0,0,0,-1,1945,1821,0,0
728,-797,0,0,0,0,0,0,0,0,0,-1,1952,1821,0,0
735,-797,0,0,0,0,0,0,0,0,0,-1,1959,1821,0,0
742,-797,0,0,0,0,0,0,0,0,0,-1,1966,1821,0,0
749,-797,0,0,0,0,0,0,0,0,0,-1,1973,1821,0,0
756,-797,0,0,0,0,0,0,0,0,0,-1,1980,1821,0,0
763,-797,0,0,0,0,0,0,0,0,0,-1,1987,1821,0,0
770,-797,0,0,0,0,0,0,0,0,0,-1,1994,1821,0,0
777,-797,0,0,0,0,0,0,0,0,0,-1,2001,1821,0,0
784,-797,0,0,0,0,0,0,0,0,0,-1,2008,1821,0,0
791,-797,0,0,0,0,0,0,0,0,0,-1,2015,1821,0,0
798,-797,0,0,0,0,0,0,0,0,0,-1,2022,1821,0,0
805,-797,0,0,0,0,0,0,0,0,0,-1,2029,1821,0,0
812,-797,0,0,0,0,0,0,0,0,0,-1,2036,1821,0,0
-700,-804,0,0,0,0,0,0,0,0,0,-1,524,1828,0,0
-693,-804,0,0,0,0,0,0,0,0,0,-1,531,1828,0,0
-686,-804,0,0,0,0,0,0,0,0,0,-1,538,1828,0,0
-679,-804,0,0,0,0,0,0,0,0,0,-1,545,1828,0,0
-672,-804,0,0,0,0,0,0,0,0,0,-1,552,1828,0,0
-665,-804,0,0,0,0,0,0,0,0,0,-1,559,1828,0,0
-658,-804,0,0,0,0,0,0,0,0,0,-1,566,1828,0,0
-651,-804,0,0,0,0,0,0,0,0,0,-1,573,1828,0,0
-644,-804,0,0,0,0,0,0,0,0,0,-1,580,1828,0,0
-637,-804,0,0,0,0,0,0,0,0,0,-1,587,1828,0,0
-630,-804,0,0,0,0,0,0,0,0,0,-1,594,1828,0,0
-623,-804,0,0,0,0,0,0,0,0,0,-1,601,1828,0,0
-616,-804,0,0,0,0,0,0,0,0,0,-1,608,1828,0,0
-609,-804,0,0,0,0,0,0,0,0,0,-1,615,1828,0,0
-602,-804,0,0,0,0,0,0,0,0,0,-1,622,1828,0,0
-595,-804,0,0,0,0,0,0,0,0,0,-1,629,1828,0,0
-588,-804,0,0,0,0,0,0,0,0,0,-1,636,1828,0,0
-581,-804,0,0,0,0,0,0,0,0,0,-1,643,1828,0,0
-574,-804,0,0,0,0,0,0,0,0,0,-1,650,1828,0,0
-567,-804,0,0,0,0,0,0,0,0,0,-1,657,1828,0,0
-560,-804,0,0,0,0,0,0,0,0,0,-1,664,1828,0,0
-553,-804,0,0,0,0,0,0,0,0,0,-1,671,1828,0,0
-546,-804,0,0,0,0,0,0,0,0,0,-1,678,1828,0,0
-539,-804,0,0,0,0,0,0,0,0,0,-1,685,1828,0,0
-532,-804,0,0,0,0,0,0,0,0,0,-1,692,1828,0,0
-525,-804,0,0,0,0,0,0,0,0,0,-1,699,1828,0,0
-518,-804,0,0,0,0,0,0,0,0,0,-1,706,1828,0,0
-511,-804,0,0,0,0,0,0,0,0,0,-1,713,1828,0,0
-504,-804,0,0,0,0,0,0,0,0,0,-1,720,1828,0,0
-497,-804,0,0,0,0,0,0,0,0,0,-1,727,1828,0,0
-490,-804,0,0,0,0,0,0,0,0,0,-1,734,1828,0,0
-483,-804,0,0,0,0,0,0,0,0,0,-1,741,1828,0,0
-476,-804,0,0,0,0,0,0,0,0,0,-1,748,1828,0,0
-469,-804,0,0,0,0,0,0,0,0,0,-1,755,1828,0,0
-462,-804,0,0,0,0,0,0,0,0,0,-1,762,1828,0,0
-455,-804,0,0,0,0,0,0,0,0,0,-1,769,1828,0,0
-448,-804,0,0,0,0,0,0,0,0,0,-1,776,1828,0,0
-441,-804,0,0,0,0,0,0,0,0,0,-1,783,1828,0,0
-434,-804,0,0,0,0,0,0,0,0,0,-1,790,1828,0,0
-427,-804,0,0,0,0,0,0,0,0,0,-1,797,1828,0,0
-420,-804,0,0,0,0,0,0,0,0,0,-1,804,1828,0,0
-413,-804,0,0,0,0,0,0,0,0,0,-1,811,1828,0,0
-406,-804,0,0,0,0,0,0,0,0,0,-1,818,1828,0,0
-399,-804,0,0,0,0,0,0,0,0,0,-1,825,1828,0,0
-392,-804,0,0,0,0,0,0,0,0,0,-1,832,1828,0,0
-385,-804,0,0,0,0,0,0,0,0,0,-1,839,1828,0,0
-378,-804,0,0,0,0,0,0,0,0,0,-1,846,1828,0,0
-371,-804,0,0,0,0,0,0,0,0,0,-1,853,1828,0,0
-364,-804,0,0,0,0,0,0,0,0,0,-1,860,1828,0,0
-357,-804,0,0,0,0,0,0,0,0,0,-1,867,1828,0,0
-350,-804,0,0,0,0,0,0,0,0,0,-1,874,1828,0,0
-343,-804,0,0,0,0,0,0,0,0,0,-1,881,1828,0,0
-336,-804,0,0,0,0,0,0,0,0,0,-1,888,1828,0,0
-329,-804,0,0,0,0,0,0,0,0,0,-1,895,1828,0,0
-322,-804,0,0,0,0,0,0,0,0,0,-1,902,1828,0,0
-315,-804,0,0,0,0,0,0,0,0,0,-1,909,1828,0,0
-308,-804,0,0,0,0,0,0,0,0,0,-1,916,1828,0,0
-301,-804,0,0,0,0,0,0,0,0,0,-1,923,1828,0,0
-294,-804,0,0,0,0,0,0,0,0,0,-1,930,1828,0,0
-287,-804,0,0,0,0,0,0,0,0,0,-1,937,1828,0,0
-280,-804,0,0,0,0,0,0,0,0,0,-1,944,1828,0,0
-273,-804,0,0,0,0,0,0,0,0,0,-1,951,1828,0,0
-266,-804,0,0,0,0,0,0,0,0,0,-1,958,1828,0,0
-259,-804,0,0,0,0,0,0,0,0,0,-1,965,1828,0,0
-252,-804,0,0,0,0,0,0,0,0,0,-1,972,1828,0,0
-245,-804,0,0,0,0,0,0,0,0,0,-1,979,1828,0,0
-238,-804,0,0,0,0,0,0,0,0,0,-1,986,1828,0,0
-231,-804,0,0,0,0,0,0,0,0,0,-1,993,1828,0,0
-224,-804,0,0,0,0,0,0,0,0,0,-1,1000,1828,0,0
-217,-804,0,0,0,0,0,0,0,0,0,-1,1007,1828,0,0
-210,-804,0,0,0,0,0,0,0,0,0,-1,1014,1828,0,0
-203,-804,0,0,0,0,0,0,0,0,0,-1,1021,1828,0,0
-196,-804,0,0,0,0,0,0,0,0,0,-1,1028,1828,0,0
-189,-804,0,0,0,0,0,0,0,0,0,-1,1035,1828,0,0
-182,-804,0,0,0,0,0,0,0,0,0,-1,1042,1828,0,0
-175,-804,0,0,0,0,0,0,0,0,0,-1,1049,1828,0,0
-168,-804,0,0,0,0,0,0,0,0,0,-1,1056,1828,0,0
-161,-804,0,0,0,0,0,0,0,0,0,-1,1063,1828,0,0
-154,-804,0,0,0,0,0,0,0,0,0,-1,1070,1828,0,0
-147,-804,0,0,0,0,0,0,0,0,0,-1,1077,1828,0,0
-140,-804,0,0,0,0,0,0,0,0,0,-1,1084,1828,0,0
-133,-804,0,0,0,0,0,0,0,0,0,-1,1091,1828,0,0
-126,-804,0,0,0,0,0,0,0,0,0,-1,1098,1828,0,0
-119,-804,0,0,0,0,0,0,0,0,0,-1,1105,1828,0,0
-112,-804,0,0,0,0,0,0,0,0,0,-1,1112,1828,0,0
-105,-804,0,0,0,0,0,0,0,0,0,-1,1119,1828,0,0
-98,-804,0,0,0,0,0,0,0,0,0,-1,1126,1828,0,0
-91,-804,0,0,0,0,0,0,0,0,0,-1,1133,1828,0,0
-84,-804,0,0,0,0,0,0,0,0,0,-1,1140,1828,0,0
-77,-804,0,0,0,0,0,0,0,0,0,-1,1147,1828,0,0
-70,-804,0,0,0,0,0,0,0,0,0,-1,1154,1828,0,0
-63,-804,0,0,0,0,0,0,0,0,0,-1,1161,1828,0,0
-56,-804,0,0,0,0,0,0,0,0,0,-1,1168,1828,0,0
-49,-804,0,0,0,0,0,0,0,0,0,-1,1175,1828,0,0
-42,-804,0,0,0,0,0,0,0,0,0,-1,1182,1828,0,0
-35,-804,0,0,0,0,0,0,0,0,0,-1,1189,1828,0,0
-28,-804,0,0,0,0,0,0,0,0,0,-1,1196,1828,0,0
-21,-804,0,0,0,0,0,0,0,0,0,-1,1203,1828,0,0
-14,-804,0,0,0,0,0,0,0,0,0,-1,1210,1828,0,0
-7,-804,0,0,0,0,0,0,0,0,0,-1,1217,1828,0,0
0,-804,0,0,0,0,0,0,0,0,0,-1,1224,1828,0,0
7,-804,0,0,0,0,0,0,0,0,0,-1,1231,1828,0,0
14,-804,0,0,0,0,0,0,0,0,0,-1,1238,1828,0,0
21,-804,0,0,0,0,0,0,0,0,0,-1,1245,1828,0,0
28,-804,0,0,0,0,0,0,0,0,0,-1,1252,1828,0,0
35,-804,12.6023,60.084,0,0,0,0,0,0,0,-1,1259,1828,12.6023,-60.084
42,-804,12.2988,59.6793,0,0,0,0,0,0,0,-1,1266,1828,12.2988,-59.6794
49,-804,11.3733,59.5051,-0.0397422,0.163699,-0.0678268,0.184238,-0.0602818,-1.27675,0.147096,0.048989,1273,1828,11.3733,-59.5051
56,-804,10.7631,59.2411,-0.0211276,0.16422,-0.0695069,0.18739,-0.0442969,-1.24904,0.142014,0.0495392,1280,1828,10.763,-59.2411
63,-804,10.1141,59.0181,0,0,0,0,0,0,0,-1,1287,1828,10.1141,-59.0181
70,-804,9.88977,59.0667,0,0,0,0,0,0,0,-1,1294,1828,9.88973,-59.0666
77,-804,10.6735,58.7208,0.0359837,0.136884,-0.0800965,0.181095,-0.00822681,-1.06645,0.123564,0.0464693,1301,1828,10.6734,-58.7209
84,-804,11.4906,58.4033,0.0535046,0.11874,-0.0864222,0.178495,-0.00625041,-0.965845,0.121134,0.0467766,1308,1828,11.4906,-58.4033
91,-804,0,0,0,0,0,0,0,0,0,-1,1315,1828,0,0
98,-804,0,0,0,0,0,0,0,0,0,-1,1322,1828,0,0
105,-804,0,0,0,0,0,0,0,0,0,-1,1329,1828,0,0
112,-804,0,0,0,0,0,0,0,0,0,-1,1336,1828,0,0
119,-804,0,0,0,0,0,0,0,0,0,-1,1343,1828,0,0
126,-804,0,0,0,0,0,0,0,0,0,-1,1350,1828,0,0
133,-804,0,0,0,0,0,0,0,0,0,-1,1357,1828,0,0
140,-804,0,0,0,0,0,0,0,0,0,-1,1364,1828,0,0
147,-804,0,0,0,0,0,0,0,0,0,-1,1371,1828,0,0
154,-804,0,0,0,0,0,0,0,0,0,-1,1378,1828,0,0
161,-804,0,0,0,0,0,0,0,0,0,-1,1385,1828,0,0
168,-804,0,0,0,0,0,0,0,0,0,-1,1392,1828,0,0
175,-804,0,0,0,0,0,0,0,0,0,-1,1399,1828,0,0
182,-804,0,0,0,0,0,0,0,0,0,-1,1406,1828,0,0
189,-804,0,0,0,0,0,0,0,0,0,-1,1413,1828,0,0
196,-804,0,0,0,0,0,0,0,0,0,-1,1420,1828,0,0
203,-804,0,0,0,0,0,0,0,0,0,-1,1427,1828,0,0
210,-804,0,0,0,0,0,0,0,0,0,-1,1434,1828,0,0
217,-804,0,0,0,0,0,0,0,0,0,-1,1441,1828,0,0
224,-804,0,0,0,0,0,0,0,0,0,-1,1448,1828,0,0
231,-804,0,0,0,0,0,0,0,0,0,-1,1455,1828,0,0
238,-804,0,0,0,0,0,0,0,0,0,-1,1462,1828,0,0
245,-804,0,0,0,0,0,0,0,0,0,-1,1469,1828,0,0
252,-804,0,0,0,0,0,0,0,0,0,-1,1476,1828,0,0
259,-804,0,0,0,0,0,0,0,0,0,-1,1483,1828,0,0
266,-804,0,0,0,0,0,0,0,0,0,-1,1490,1828,0,0
273,-804,0,0,0,0,0,0,0,0,0,-1,1497,1828,0,0
280,-804,0,0,0,0,0,0,0,0,0,-1,1504,1828,0,0
287,-804,0,0,0,0,0,0,0,0,0,-1,1511,1828,0,0
294,-804,0,0,0,0,0,0,0,0,0,-1,1518,1828,0,0
301,-804,0,0,0,0,0,0,0,0,0,-1,1525,1828,0,0
308,-804,0,0,0,0,0,0,0,0,0,-1,1532,1828,0,0
315,-804,0,0,0,0,0,0,0,0,0,-1,1539,1828,0,0
322,-804,0,0,0,0,0,0,0,0,0,-1,1546,1828,0,0
329,-804,0,0,0,0,0,0,0,0,0,-1,1553,1828,0,0
336,-804,0,0,0,0,0,0,0,0,0,-1,1560,1828,0,0
343,-804,0,0,0,0,0,0,0,0,0,-1,1567,1828,0,0
350,-804,0,0,0,0,0,0,0,0,0,-1,1574,1828,0,0
357,-804,0,0,0,0,0,0,0,0,0,-1,1581,1828,0,0
364,-804,0,0,0,0,0,0,0,0,0,-1,1588,1828,0,0
371,-804,0,0,0,0,0,0,0,0,0,-1,1595,1828,0,0
378,-804,0,0,0,0,0,0,0,0,0,-1,1602,1828,0,0
385,-804,0,0,0,0,0,0,0,0,0,-1,1609,1828,0,0
392,-804,0,0,0,0,0,0,0,0,0,-1,1616,1828,0,0
399,-804,0,0,0,0,0,0,0,0,0,-1,1623,1828,0,0
406,-804,0,0,0,0,0,0,0,0,0,-1,1630,1828,0,0
413,-804,0,0,0,0,0,0,0,0,0,-1,1637,1828,0,0
420,-804,0,0,0,0,0,0,0,0,0,-1,1644,1828,0,0
427,-804,0,0,0,0,0,0,0,0,0,-1,1651,1828,0,0
434,-804,0,0,0,0,0,0,0,0,0,-1,1658,1828,0,0
441,-804,0,0,0,0,0,0,0,0,0,-1,1665,1828,0,0
448,-804,0,0,0,0,0,0,0,0,0,-1,1672,1828,0,0
455,-804,0,0,0,0,0,0,0,0,0,-1,1679,1828,0,0
462,-804,0,0,0,0,0,0,0,0,0,-1,1686,1828,0,0
469,-804,0,0,0,0,0,0,0,0,0,-1,1693,1828,0,0
476,-804,0,0,0,0,0,0,0,0,0,-1,1700,1828,0,0
483,-804,0,0,0,0,0,0,0,0,0,-1,1707,1828,0,0
490,-804,0,0,0,0,0,0,0,0,0,-1,1714,1828,0,0
497,-804,0,0,0,0,0,0,0,0,0,-1,1721,1828,0,0
504,-804,0,0,0,0,0,0,0,0,0,-1,1728,1828,0,0
511,-804,0,0,0,0,0,0,0,0,0,-1,1735,1828,0,0
518,-804,0,0,0,0,0,0,0,0,0,-1,1742,1828,0,0
525,-804,0,0,0,0,0,0,0,0,0,-1,1749,1828,0,0
532,-804,0,0,0,0,0,0,0,0,0,-1,1756,1828,0,0
539,-804,0,0,0,0,0,0,0,0,0,-1,1763,1828,0,0
546,-804,0,0,0,0,0,0,0,0,0,-1,1770,1828,0,0
553,-804,0,0,0,0,0,0,0,0,0,-1,1777,1828,0,0
560,-804,0,0,0,0,0,0,0,0,0,-1,1784,1828,0,0
567,-804,0,0,0,0,0,0,0,0,0,-1,1791,1828,0,0
574,-804,0,0,0,0,0,0,0,0,0,-1,1798,1828,0,0
581,-804,0,0,0,0,0,0,0,0,0,-1,1805,1828,0,0
588,-804,0,0,0,0,0,0,0,0,0,-1,1812,1828,0,0
595,-804,0,0,0,0,0,0,0,0,0,-1,1819,1828,0,0
602,-804,0,0,0,0,0,0,0,0,0,-1,1826,1828,0,0
609,-804,0,0,0,0,0,0,0,0,0,-1,1833,1828,0,0
616,-804,0,0,0,0,0,0,0,0,0,-1,1840,1828,0,0
623,-804,0,0,0,0,0,0,0,0,0,-1,1847,1828,0,0
630,-804,0,0,0,0,0,0,0,0,0,-1,1854,1828,0,0
637,-804,0,0,0,0,0,0,0,0,0,-1,1861,1828,0,0
644,-804,0,0,0,0,0,0,0,0,0,-1,1868,1828,0,0
651,-804,0,0,0,0,0,0,0,0,0,-1,1875,1828,0,0
658,-804,0,0,0,0,0,0,0,0,0,-1,1882,1828,0,0
665,-804,0,0,0,0,0,0,0,0,0,-1,1889,1828,0,0
672,-804,0,0,0,0,0,0,0,0,0,-1,1896,1828,0,0
679,-804,0,0,0,0,0,0,0,0,0,-1,1903,1828,0,0
686,-804,0,0,0,0,0,0,0,0,0,-1,1910,1828,0,0
693,-804,0,0,0,0,0,0,0,0,0,-1,1917,1828,0,0
700,-804,0,0,0,0,0,0,0,0,0,-1,1924,1828,0,0
707,-804,0,0,0,0,0,0,0,0,0,-1,1931,1828,0,0
714,-804,0,0,0,0,0,0,0,0,0,-1,1938,1828,0,0
721,-804,0,0,0,0,0,0,0,0,0,-1,1945,1828,0,0
728,-804,0,0,0,0,0,0,0,0,0,-1,1952,1828,0,0
735,-804,0,0,0,0,0,0,0,0,0,-1,1959,1828,0,0
742,-804,0,0,0,0,0,0,0,0,0,-1,1966,1828,0,0
749,-804,0,0,0,0,0,0,0,0,0,-1,1973,1828,0,0
756,-804,0,0,0,0,0,0,0,0,0,-1,1980,1828,0,0
763,-804,0,0,0,0,0,0,0,0,0,-1,1987,1828,0,0
770,-804,0,0,0,0,0,0,0,0,0,-1,1994,1828,0,0
777,-804,0,0,0,0,0,0,0,0,0,-1,2001,1828,0,0
784,-804,0,0,0,0,0,0,0,0,0,-1,2008,1828,0,0
791,-804,0,0,0,0,0,0,0,0,0,-1,2015,1828,0,0
798,-804,0,0,0,0,0,0,0,0,0,-1,2022,1828,0,0
805,-804,0,0,0,0,0,0,0,0,0,-1,2029,1828,0,0
812,-804,0,0,0,0,0,0,0,0,0,-1,2036,1828,0,0

