 "x_c",  "y_c",  "u_c",  "v_c",  "exx",  "eyy",  "exy",  "e1",  "e2",  "gamma",  "e_vonmises",  "sigma",  "x",  "y",  "u",  "v"
-700,715,0,0,0,0,0,0,0,0,0,-1,524,309,0,0
-693,715,0,0,0,0,0,0,0,0,0,-1,531,309,0,0
-686,715,0,0,0,0,0,0,0,0,0,-1,538,309,0,0
-679,715,0,0,0,0,0,0,0,0,0,-1,545,309,0,0
-672,715,0,0,0,0,0,0,0,0,0,-1,552,309,0,0
-665,715,0,0,0,0,0,0,0,0,0,-1,559,309,0,0
-658,715,0,0,0,0,0,0,0,0,0,-1,566,309,0,0
-651,715,0,0,0,0,0,0,0,0,0,-1,573,309,0,0
-644,715,0,0,0,0,0,0,0,0,0,-1,580,309,0,0
-637,715,0,0,0,0,0,0,0,0,0,-1,587,309,0,0
-630,715,0,0,0,0,0,0,0,0,0,-1,594,309,0,0
-623,715,0,0,0,0,0,0,0,0,0,-1,601,309,0,0
-616,715,0,0,0,0,0,0,0,0,0,-1,608,309,0,0
-609,715,0,0,0,0,0,0,0,0,0,-1,615,309,0,0
-602,715,0,0,0,0,0,0,0,0,0,-1,622,309,0,0
-595,715,0,0,0,0,0,0,0,0,0,-1,629,309,0,0
-588,715,0,0,0,0,0,0,0,0,0,-1,636,309,0,0
-581,715,0,0,0,0,0,0,0,0,0,-1,643,309,0,0
-574,715,0,0,0,0,0,0,0,0,0,-1,650,309,0,0
-567,715,0,0,0,0,0,0,0,0,0,-1,657,309,0,0
-560,715,0,0,0,0,0,0,0,0,0,-1,664,309,0,0
-553,715,0,0,0,0,0,0,0,0,0,-1,671,309,0,0
-546,715,0,0,0,0,0,0,0,0,0,-1,678,309,0,0
-539,715,0,0,0,0,0,0,0,0,0,-1,685,309,0,0
-532,715,0,0,0,0,0,0,0,0,0,-1,692,309,0,0
-525,715,0,0,0,0,0,0,0,0,0,-1,699,309,0,0
-518,715,0,0,0,0,0,0,0,0,0,-1,706,309,0,0
-511,715,0,0,0,0,0,0,0,0,0,-1,713,309,0,0
-504,715,0,0,0,0,0,0,0,0,0,-1,720,309,0,0
-497,715,0,0,0,0,0,0,0,0,0,-1,727,309,0,0
-490,715,0,0,0,0,0,0,0,0,0,-1,734,309,0,0
-483,715,0,0,0,0,0,0,0,0,0,-1,741,309,0,0
-476,715,0,0,0,0,0,0,0,0,0,-1,748,309,0,0
-469,715,0,0,0,0,0,0,0,0,0,-1,755,309,0,0
-462,715,0,0,0,0,0,0,0,0,0,-1,762,309,0,0
-455,715,0,0,0,0,0,0,0,0,0,-1,769,309,0,0
-448,715,0,0,0,0,0,0,0,0,0,-1,776,309,0,0
-441,715,0,0,0,0,0,0,0,0,0,-1,783,309,0,0
-434,715,0,0,0,0,0,0,0,0,0,-1,790,309,0,0
-427,715,0,0,0,0,0,0,0,0,0,-1,797,309,0,0
-420,715,0,0,0,0,0,0,0,0,0,-1,804,309,0,0
-413,715,0,0,0,0,0,0,0,0,0,-1,811,309,0,0
-406,715,0,0,0,0,0,0,0,0,0,-1,818,309,0,0
-399,715,0,0,0,0,0,0,0,0,0,-1,825,309,0,0
-392,715,0,0,0,0,0,0,0,0,0,-1,832,309,0,0
-385,715,0,0,0,0,0,0,0,0,0,-1,839,309,0,0
-378,715,0,0,0,0,0,0,0,0,0,-1,846,309,0,0
-371,715,0,0,0,0,0,0,0,0,0,-1,853,309,0,0
-364,715,0,0,0,0,0,0,0,0,0,-1,860,309,0,0
-357,715,0,0,0,0,0,0,0,0,0,-1,867,309,0,0
-350,715,0,0,0,0,0,0,0,0,0,-1,874,309,0,0
-343,715,0,0,0,0,0,0,0,0,0,-1,881,309,0,0
-336,715,0,0,0,0,0,0,0,0,0,-1,888,309,0,0
-329,715,0,0,0,0,0,0,0,0,0,-1,895,309,0,0
-322,715,0,0,0,0,0,0,0,0,0,-1,902,309,0,0
-315,715,0,0,0,0,0,0,0,0,0,-1,909,309,0,0
-308,715,0,0,0,0,0,0,0,0,0,-1,916,309,0,0
-301,715,0,0,0,0,0,0,0,0,0,-1,923,309,0,0
-294,715,0,0,0,0,0,0,0,0,0,-1,930,309,0,0
-287,715,0,0,0,0,0,0,0,0,0,-1,937,309,0,0
-280,715,0,0,0,0,0,0,0,0,0,-1,944,309,0,0
-273,715,0,0,0,0,0,0,0,0,0,-1,951,309,0,0
-266,715,0,0,0,0,0,0,0,0,0,-1,958,309,0,0
-259,715,0,0,0,0,0,0,0,0,0,-1,965,309,0,0
-252,715,0,0,0,0,0,0,0,0,0,-1,972,309,0,0
-245,715,0,0,0,0,0,0,0,0,0,-1,979,309,0,0
-238,715,0,0,0,0,0,0,0,0,0,-1,986,309,0,0
-231,715,0,0,0,0,0,0,0,0,0,-1,993,309,0,0
-224,715,0,0,0,0,0,0,0,0,0,-1,1000,309,0,0
-217,715,0,0,0,0,0,0,0,0,0,-1,1007,309,0,0
-210,715,0,0,0,0,0,0,0,0,0,-1,1014,309,0,0
-203,715,0,0,0,0,0,0,0,0,0,-1,1021,309,0,0
-196,715,0,0,0,0,0,0,0,0,0,-1,1028,309,0,0
-189,715,0,0,0,0,0,0,0,0,0,-1,1035,309,0,0
-182,715,0,0,0,0,0,0,0,0,0,-1,1042,309,0,0
-175,715,0,0,0,0,0,0,0,0,0,-1,1049,309,0,0
-168,715,0,0,0,0,0,0,0,0,0,-1,1056,309,0,0
-161,715,0,0,0,0,0,0,0,0,0,-1,1063,309,0,0
-154,715,0,0,0,0,0,0,0,0,0,-1,1070,309,0,0
-147,715,0,0,0,0,0,0,0,0,0,-1,1077,309,0,0
-140,715,0,0,0,0,0,0,0,0,0,-1,1084,309,0,0
-133,715,0,0,0,0,0,0,0,0,0,-1,1091,309,0,0
-126,715,0,0,0,0,0,0,0,0,0,-1,1098,309,0,0
-119,715,0,0,0,0,0,0,0,0,0,-1,1105,309,0,0
-112,715,0,0,0,0,0,0,0,0,0,-1,1112,309,0,0
-105,715,0,0,0,0,0,0,0,0,0,-1,1119,309,0,0
-98,715,0,0,0,0,0,0,0,0,0,-1,1126,309,0,0
-91,715,0,0,0,0,0,0,0,0,0,-1,1133,309,0,0
-84,715,0,0,0,0,0,0,0,0,0,-1,1140,309,0,0
-77,715,0,0,0,0,0,0,0,0,0,-1,1147,309,0,0
-70,715,0,0,0,0,0,0,0,0,0,-1,1154,309,0,0
-63,715,0,0,0,0,0,0,0,0,0,-1,1161,309,0,0
-56,715,0,0,0,0,0,0,0,0,0,-1,1168,309,0,0
-49,715,0,0,0,0,0,0,0,0,0,-1,1175,309,0,0
-42,715,0,0,0,0,0,0,0,0,0,-1,1182,309,0,0
-35,715,0,0,0,0,0,0,0,0,0,-1,1189,309,0,0
-28,715,0,0,0,0,0,0,0,0,0,-1,1196,309,0,0
-21,715,0,0,0,0,0,0,0,0,0,-1,1203,309,0,0
-14,715,0,0,0,0,0,0,0,0,0,-1,1210,309,0,0
-7,715,0,0,0,0,0,0,0,0,0,-1,1217,309,0,0
0,715,0,0,0,0,0,0,0,0,0,-1,1224,309,0,0
7,715,0,0,0,0,0,0,0,0,0,-1,1231,309,0,0
14,715,0,0,0,0,0,0,0,0,0,-1,1238,309,0,0
21,715,0,0,0,0,0,0,0,0,0,-1,1245,309,0,0
28,715,0,0,0,0,0,0,0,0,0,-1,1252,309,0,0
35,715,0,0,0,0,0,0,0,0,0,-1,1259,309,0,0
42,715,0,0,0,0,0,0,0,0,0,-1,1266,309,0,0
49,715,0,0,0,0,0,0,0,0,0,-1,1273,309,0,0
56,715,0,0,0,0,0,0,0,0,0,-1,1280,309,0,0
63,715,2.70142,-1.79953,0.131618,0.0610956,-0.0785877,0.182493,0.010221,-0.574518,0.118402,0.0467242,1287,309,2.7014,1.79954
70,715,3.11865,-2.31931,0.126566,0.0435306,-0.069941,0.166384,0.00371276,-0.517545,0.109706,0.047238,1294,309,3.11862,2.31929
77,715,0,0,0,0,0,0,0,0,0,-1,1301,309,0,0
84,715,0,0,0,0,0,0,0,0,0,-1,1308,309,0,0
91,715,0,0,0,0,0,0,0,0,0,-1,1315,309,0,0
98,715,0,0,0,0,0,0,0,0,0,-1,1322,309,0,0
105,715,0,0,0,0,0,0,0,0,0,-1,1329,309,0,0
112,715,0,0,0,0,0,0,0,0,0,-1,1336,309,0,0
119,715,0,0,0,0,0,0,0,0,0,-1,1343,309,0,0
126,715,0,0,0,0,0,0,0,0,0,-1,1350,309,0,0
133,715,0,0,0,0,0,0,0,0,0,-1,1357,309,0,0
140,715,0,0,0,0,0,0,0,0,0,-1,1364,309,0,0
147,715,0,0,0,0,0,0,0,0,0,-1,1371,309,0,0
154,715,0,0,0,0,0,0,0,0,0,-1,1378,309,0,0
161,715,0,0,0,0,0,0,0,0,0,-1,1385,309,0,0
168,715,0,0,0,0,0,0,0,0,0,-1,1392,309,0,0
175,715,0,0,0,0,0,0,0,0,0,-1,1399,309,0,0
182,715,0,0,0,0,0,0,0,0,0,-1,1406,309,0,0
189,715,0,0,0,0,0,0,0,0,0,-1,1413,309,0,0
196,715,0,0,0,0,0,0,0,0,0,-1,1420,309,0,0
203,715,0,0,0,0,0,0,0,0,0,-1,1427,309,0,0
210,715,0,0,0,0,0,0,0,0,0,-1,1434,309,0,0
217,715,0,0,0,0,0,0,0,0,0,-1,1441,309,0,0
224,715,0,0,0,0,0,0,0,0,0,-1,1448,309,0,0
231,715,0,0,0,0,0,0,0,0,0,-1,1455,309,0,0
238,715,0,0,0,0,0,0,0,0,0,-1,1462,309,0,0
245,715,0,0,0,0,0,0,0,0,0,-1,1469,309,0,0
252,715,0,0,0,0,0,0,0,0,0,-1,1476,309,0,0
259,715,0,0,0,0,0,0,0,0,0,-1,1483,309,0,0
266,715,0,0,0,0,0,0,0,0,0,-1,1490,309,0,0
273,715,0,0,0,0,0,0,0,0,0,-1,1497,309,0,0
280,715,0,0,0,0,0,0,0,0,0,-1,1504,309,0,0
287,715,0,0,0,0,0,0,0,0,0,-1,1511,309,0,0
294,715,0,0,0,0,0,0,0,0,0,-1,1518,309,0,0
301,715,0,0,0,0,0,0,0,0,0,-1,1525,309,0,0
308,715,0,0,0,0,0,0,0,0,0,-1,1532,309,0,0
315,715,0,0,0,0,0,0,0,0,0,-1,1539,309,0,0
322,715,0,0,0,0,0,0,0,0,0,-1,1546,309,0,0
329,715,0,0,0,0,0,0,0,0,0,-1,1553,309,0,0
336,715,0,0,0,0,0,0,0,0,0,-1,1560,309,0,0
343,715,0,0,0,0,0,0,0,0,0,-1,1567,309,0,0
350,715,0,0,0,0,0,0,0,0,0,-1,1574,309,0,0
357,715,0,0,0,0,0,0,0,0,0,-1,1581,309,0,0
364,715,0,0,0,0,0,0,0,0,0,-1,1588,309,0,0
371,715,0,0,0,0,0,0,0,0,0,-1,1595,309,0,0
378,715,0,0,0,0,0,0,0,0,0,-1,1602,309,0,0
385,715,0,0,0,0,0,0,0,0,0,-1,1609,309,0,0
392,715,0,0,0,0,0,0,0,0,0,-1,1616,309,0,0
399,715,0,0,0,0,0,0,0,0,0,-1,1623,309,0,0
406,715,0,0,0,0,0,0,0,0,0,-1,1630,309,0,0
413,715,0,0,0,0,0,0,0,0,0,-1,1637,309,0,0
420,715,0,0,0,0,0,0,0,0,0,-1,1644,309,0,0
427,715,0,0,0,0,0,0,0,0,0,-1,1651,309,0,0
434,715,0,0,0,0,0,0,0,0,0,-1,1658,309,0,0
441,715,0,0,0,0,0,0,0,0,0,-1,1665,309,0,0
448,715,0,0,0,0,0,0,0,0,0,-1,1672,309,0,0
455,715,0,0,0,0,0,0,0,0,0,-1,1679,309,0,0
462,715,0,0,0,0,0,0,0,0,0,-1,1686,309,0,0
469,715,0,0,0,0,0,0,0,0,0,-1,1693,309,0,0
476,715,0,0,0,0,0,0,0,0,0,-1,1700,309,0,0
483,715,0,0,0,0,0,0,0,0,0,-1,1707,309,0,0
490,715,0,0,0,0,0,0,0,0,0,-1,1714,309,0,0
497,715,0,0,0,0,0,0,0,0,0,-1,1721,309,0,0
504,715,0,0,0,0,0,0,0,0,0,-1,1728,309,0,0
511,715,0,0,0,0,0,0,0,0,0,-1,1735,309,0,0
518,715,0,0,0,0,0,0,0,0,0,-1,1742,309,0,0
525,715,0,0,0,0,0,0,0,0,0,-1,1749,309,0,0
532,715,0,0,0,0,0,0,0,0,0,-1,1756,309,0,0
539,715,0,0,0,0,0,0,0,0,0,-1,1763,309,0,0
546,715,0,0,0,0,0,0,0,0,0,-1,1770,309,0,0
553,715,0,0,0,0,0,0,0,0,0,-1,1777,309,0,0
560,715,0,0,0,0,0,0,0,0,0,-1,1784,309,0,0
567,715,0,0,0,0,0,0,0,0,0,-1,1791,309,0,0
574,715,0,0,0,0,0,0,0,0,0,-1,1798,309,0,0
581,715,0,0,0,0,0,0,0,0,0,-1,1805,309,0,0
588,715,0,0,0,0,0,0,0,0,0,-1,1812,309,0,0
595,715,0,0,0,0,0,0,0,0,0,-1,1819,309,0,0
602,715,0,0,0,0,0,0,0,0,0,-1,1826,309,0,0
609,715,0,0,0,0,0,0,0,0,0,-1,1833,309,0,0
616,715,0,0,0,0,0,0,0,0,0,-1,1840,309,0,0
623,715,0,0,0,0,0,0,0,0,0,-1,1847,309,0,0
630,715,0,0,0,0,0,0,0,0,0,-1,1854,309,0,0
637,715,0,0,0,0,0,0,0,0,0,-1,1861,309,0,0
644,715,0,0,0,0,0,0,0,0,0,-1,1868,309,0,0
651,715,0,0,0,0,0,0,0,0,0,-1,1875,309,0,0
658,715,0,0,0,0,0,0,0,0,0,-1,1882,309,0,0
665,715,0,0,0,0,0,0,0,0,0,-1,1889,309,0,0
672,715,0,0,0,0,0,0,0,0,0,-1,1896,309,0,0
679,715,0,0,0,0,0,0,0,0,0,-1,1903,309,0,0
686,715,0,0,0,0,0,0,0,0,0,-1,1910,309,0,0
693,715,0,0,0,0,0,0,0,0,0,-1,1917,309,0,0
700,715,0,0,0,0,0,0,0,0,0,-1,1924,309,0,0
707,715,0,0,0,0,0,0,0,0,0,-1,1931,309,0,0
714,715,0,0,0,0,0,0,0,0,0,-1,1938,309,0,0
721,715,0,0,0,0,0,0,0,0,0,-1,1945,309,0,0
728,715,0,0,0,0,0,0,0,0,0,-1,1952,309,0,0
735,715,0,0,0,0,0,0,0,0,0,-1,1959,309,0,0
742,715,0,0,0,0,0,0,0,0,0,-1,1966,309,0,0
749,715,0,0,0,0,0,0,0,0,0,-1,1973,309,0,0
756,715,0,0,0,0,0,0,0,0,0,-1,1980,309,0,0
763,715,0,0,0,0,0,0,0,0,0,-1,1987,309,0,0
770,715,0,0,0,0,0,0,0,0,0,-1,1994,309,0,0
777,715,0,0,0,0,0,0,0,0,0,-1,2001,309,0,0
784,715,0,0,0,0,0,0,0,0,0,-1,2008,309,0,0
791,715,0,0,0,0,0,0,0,0,0,-1,2015,309,0,0
798,715,0,0,0,0,0,0,0,0,0,-1,2022,309,0,0
805,715,0,0,0,0,0,0,0,0,0,-1,2029,309,0,0
812,715,0,0,0,0,0,0,0,0,0,-1,2036,309,0,0
-700,708,0,0,0,0,0,0,0,0,0,-1,524,316,0,0
-693,708,0,0,0,0,0,0,0,0,0,-1,531,316,0,0
-686,708,0,0,0,0,0,0,0,0,0,-1,538,316,0,0
-679,708,0,0,0,0,0,0,0,0,0,-1,545,316,0,0
-672,708,0,0,0,0,0,0,0,0,0,-1,552,316,0,0
-665,708,0,0,0,0,0,0,0,0,0,-1,559,316,0,0
-658,708,0,0,0,0,0,0,0,0,0,-1,566,316,0,0
-651,708,0,0,0,0,0,0,0,0,0,-1,573,316,0,0
-644,708,0,0,0,0,0,0,0,0,0,-1,580,316,0,0
-637,708,0,0,0,0,0,0,0,0,0,-1,587,316,0,0
-630,708,0,0,0,0,0,0,0,0,0,-1,594,316,0,0
-623,708,0,0,0,0,0,0,0,0,0,-1,601,316,0,0
-616,708,0,0,0,0,0,0,0,0,0,-1,608,316,0,0
-609,708,0,0,0,0,0,0,0,0,0,-1,615,316,0,0
-602,708,0,0,0,0,0,0,0,0,0,-1,622,316,0,0
-595,708,0,0,0,0,0,0,0,0,0,-1,629,316,0,0
-588,708,0,0,0,0,0,0,0,0,0,-1,636,316,0,0
-581,708,0,0,0,0,0,0,0,0,0,-1,643,316,0,0
-574,708,0,0,0,0,0,0,0,0,0,-1,650,316,0,0
-567,708,0,0,0,0,0,0,0,0,0,-1,657,316,0,0
-560,708,0,0,0,0,0,0,0,0,0,-1,664,316,0,0
-553,708,0,0,0,0,0,0,0,0,0,-1,671,316,0,0
-546,708,0,0,0,0,0,0,0,0,0,-1,678,316,0,0
-539,708,0,0,0,0,0,0,0,0,0,-1,685,316,0,0
-532,708,0,0,0,0,0,0,0,0,0,-1,692,316,0,0
-525,708,0,0,0,0,0,0,0,0,0,-1,699,316,0,0
-518,708,0,0,0,0,0,0,0,0,0,-1,706,316,0,0
-511,708,0,0,0,0,0,0,0,0,0,-1,713,316,0,0
-504,708,0,0,0,0,0,0,0,0,0,-1,720,316,0,0
-497,708,0,0,0,0,0,0,0,0,0,-1,727,316,0,0
-490,708,0,0,0,0,0,0,0,0,0,-1,734,316,0,0
-483,708,0,0,0,0,0,0,0,0,0,-1,741,316,0,0
-476,708,0,0,0,0,0,0,0,0,0,-1,748,316,0,0
-469,708,0,0,0,0,0,0,0,0,0,-1,755,316,0,0
-462,708,0,0,0,0,0,0,0,0,0,-1,762,316,0,0
-455,708,0,0,0,0,0,0,0,0,0,-1,769,316,0,0
-448,708,0,0,0,0,0,0,0,0,0,-1,776,316,0,0
-441,708,0,0,0,0,0,0,0,0,0,-1,783,316,0,0
-434,708,0,0,0,0,0,0,0,0,0,-1,790,316,0,0
-427,708,0,0,0,0,0,0,0,0,0,-1,797,316,0,0
-420,708,0,0,0,0,0,0,0,0,0,-1,804,316,0,0
-413,708,0,0,0,0,0,0,0,0,0,-1,811,316,0,0
-406,708,0,0,0,0,0,0,0,0,0,-1,818,316,0,0
-399,708,0,0,0,0,0,0,0,0,0,-1,825,316,0,0
-392,708,0,0,0,0,0,0,0,0,0,-1,832,316,0,0
-385,708,0,0,0,0,0,0,0,0,0,-1,839,316,0,0
-378,708,0,0,0,0,0,0,0,0,0,-1,846,316,0,0
-371,708,0,0,0,0,0,0,0,0,0,-1,853,316,0,0
-364,708,0,0,0,0,0,0,0,0,0,-1,860,316,0,0
-357,708,0,0,0,0,0,0,0,0,0,-1,867,316,0,0
-350,708,0,0,0,0,0,0,0,0,0,-1,874,316,0,0
-343,708,0,0,0,0,0,0,0,0,0,-1,881,316,0,0
-336,708,0,0,0,0,0,0,0,0,0,-1,888,316,0,0
-329,708,0,0,0,0,0,0,0,0,0,-1,895,316,0,0
-322,708,0,0,0,0,0,0,0,0,0,-1,902,316,0,0
-315,708,0,0,0,0,0,0,0,0,0,-1,909,316,0,0
-308,708,0,0,0,0,0,0,0,0,0,-1,916,316,0,0
-301,708,0,0,0,0,0,0,0,0,0,-1,923,316,0,0
-294,708,0,0,0,0,0,0,0,0,0,-1,930,316,0,0
-287,708,0,0,0,0,0,0,0,0,0,-1,937,316,0,0
-280,708,0,0,0,0,0,0,0,0,0,-1,944,316,0,0
-273,708,0,0,0,0,0,0,0,0,0,-1,951,316,0,0
-266,708,0,0,0,0,0,0,0,0,0,-1,958,316,0,0
-259,708,0,0,0,0,0,0,0,0,0,-1,965,316,0,0
-252,708,0,0,0,0,0,0,0,0,0,-1,972,316,0,0
-245,708,0,0,0,0,0,0,0,0,0,-1,979,316,0,0
-238,708,0,0,0,0,0,0,0,0,0,-1,986,316,0,0
-231,708,0,0,0,0,0,0,0,0,0,-1,993,316,0,0
-224,708,0,0,0,0,0,0,0,0,0,-1,1000,316,0,0
-217,708,0,0,0,0,0,0,0,0,0,-1,1007,316,0,0
-210,708,0,0,0,0,0,0,0,0,0,-1,1014,316,0,0
-203,708,0,0,0,0,0,0,0,0,0,-1,1021,316,0,0
-196,708,0,0,0,0,0,0,0,0,0,-1,1028,316,0,0
-189,708,0,0,0,0,0,0,0,0,0,-1,1035,316,0,0
-182,708,0,0,0,0,0,0,0,0,0,-1,1042,316,0,0
-175,708,0,0,0,0,0,0,0,0,0,-1,1049,316,0,0
-168,708,0,0,0,0,0,0,0,0,0,-1,1056,316,0,0
-161,708,0,0,0,0,0,0,0,0,0,-1,1063,316,0,0
-154,708,0,0,0,0,0,0,0,0,0,-1,1070,316,0,0
-147,708,0,0,0,0,0,0,0,0,0,-1,1077,316,0,0
-140,708,0,0,0,0,0,0,0,0,0,-1,1084,316,0,0
-133,708,0,0,0,0,0,0,0,0,0,-1,1091,316,0,0
-126,708,0,0,0,0,0,0,0,0,0,-1,1098,316,0,0
-119,708,0,0,0,0,0,0,0,0,0,-1,1105,316,0,0
-112,708,0,0,0,0,0,0,0,0,0,-1,1112,316,0,0
-105,708,0,0,0,0,0,0,0,0,0,-1,1119,316,0,0
-98,708,0,0,0,0,0,0,0,0,0,-1,1126,316,0,0
-91,708,0,0,0,0,0,0,0,0,0,-1,1133,316,0,0
-84,708,0,0,0,0,0,0,0,0,0,-1,1140,316,0,0
-77,708,0,0,0,0,0,0,0,0,0,-1,1147,316,0,0
-70,708,0,0,0,0,0,0,0,0,0,-1,1154,316,0,0
-63,708,0,0,0,0,0,0,0,0,0,-1,1161,316,0,0
-56,708,0,0,0,0,0,0,0,0,0,-1,1168,316,0,0
-49,708,0,0,0,0,0,0,0,0,0,-1,1175,316,0,0
-42,708,0,0,0,0,0,0,0,0,0,-1,1182,316,0,0
-35,708,-0.291138,-0.358826,0,0,0,0,0,0,0,-1,1189,316,-0.29109,0.358837
-28,708,-0.441528,-3.26968,0,0,0,0,0,0,0,-1,1196,316,-0.441574,3.26968
-21,708,-1.76208,-0.891937,0,0,0,0,0,0,0,-1,1203,316,-1.76206,0.891945
-14,708,-1.58496,-0.729706,0,0,0,0,0,0,0,-1,1210,316,-1.58492,0.729695
-7,708,-1.0647,2.62225,0,0,0,0,0,0,0,-1,1217,316,-1.0647,-2.62224
0,708,-1.66345,2.70984,0,0,0,0,0,0,0,-1,1224,316,-1.66343,-2.70983
7,708,-2.50757,3.08878,0,0,0,0,0,0,0,-1,1231,316,-2.50753,-3.08876
14,708,-3.2749,3.1698,0,0,0,0,0,0,0,-1,1238,316,-3.27494,-3.16979
21,708,-3.85022,-0.607422,0,0,0,0,0,0,0,-1,1245,316,-3.85027,0.60742
28,708,-2.95471,-1.42035,0,0,0,0,0,0,0,-1,1252,316,-2.95476,1.42035
35,708,-2.18115,-0.675568,0,0,0,0,0,0,0,-1,1259,316,-2.18111,0.675569
42,708,-1.46484,-0.943756,0,0,0,0,0,0,0,-1,1266,316,-1.46489,0.943747
49,708,0.251709,-1.31039,0,0,0,0,0,0,0,-1,1273,316,0.251698,1.31039
56,708,2.25659,-1.40887,0,0,0,0,0,0,0,-1,1280,316,2.2566,1.40886
63,708,2.68042,-1.87692,0.108022,0.0465351,-0.0627904,0.147191,0.00736582,-0.557743,0.0957668,0.0426199,1287,316,2.68037,1.87693
70,708,3.23792,-2.41666,0.103965,0.0307015,-0.055762,0.134052,0.000615396,-0.494781,0.0891632,0.0431526,1294,316,3.23798,2.41665
77,708,3.74182,-2.84003,0.0985822,0.0225229,-0.0474734,0.12138,-0.000274848,-0.447701,0.0810118,0.0434118,1301,316,3.74183,2.84002
84,708,4.23413,-3.42935,0.0907261,0.0161067,-0.0362464,0.105434,0.00139895,-0.385472,0.0698276,0.0448636,1308,316,4.23417,3.42937
91,708,5.29688,-6.69254,0.078641,0.0173913,-0.030554,0.0912761,0.00475616,-0.39212,0.0593289,0.0462021,1315,316,5.29689,6.69254
98,708,6.35925,-7.25436,0,0,0,0,0,0,0,-1,1322,316,6.35928,7.25437
105,708,4.75293,-1.50848,0,0,0,0,0,0,0,-1,1329,316,4.75296,1.5085
112,708,4.76514,-1.17346,0.0331516,0.0220527,-0.012234,0.041036,0.0141683,-0.572473,0.0240674,0.0452525,1336,316,4.76511,1.17345
119,708,4.61621,-1.04321,0.0174385,0.0237412,-0.00629313,0.0276279,0.0135518,-1.01752,0.0159519,0.04387,1343,316,4.61615,1.04322
126,708,4.59534,-1.32349,0.000668288,0.0246374,-0.00103237,0.0246818,0.000623907,-1.52783,0.0162505,0.0448134,1350,316,4.59536,1.32348
133,708,4.98767,-1.65302,-0.0169464,0.0234696,0.002096,0.023578,-0.0170549,1.51912,0.0235599,0.0496568,1357,316,4.98768,1.65303
140,708,2.93945,-2.23746,0,0,0,0,0,0,0,-1,1364,316,2.93948,2.23747
147,708,2.59265,-2.86954,0,0,0,0,0,0,0,-1,1371,316,2.5926,2.86953
154,708,0,0,0,0,0,0,0,0,0,-1,1378,316,0,0
161,708,0,0,0,0,0,0,0,0,0,-1,1385,316,0,0
168,708,0,0,0,0,0,0,0,0,0,-1,1392,316,0,0
175,708,0,0,0,0,0,0,0,0,0,-1,1399,316,0,0
182,708,0,0,0,0,0,0,0,0,0,-1,1406,316,0,0
189,708,0,0,0,0,0,0,0,0,0,-1,1413,316,0,0
196,708,0,0,0,0,0,0,0,0,0,-1,1420,316,0,0
203,708,0,0,0,0,0,0,0,0,0,-1,1427,316,0,0
210,708,0,0,0,0,0,0,0,0,0,-1,1434,316,0,0
217,708,0,0,0,0,0,0,0,0,0,-1,1441,316,0,0
224,708,0,0,0,0,0,0,0,0,0,-1,1448,316,0,0
231,708,0,0,0,0,0,0,0,0,0,-1,1455,316,0,0
238,708,0,0,0,0,0,0,0,0,0,-1,1462,316,0,0
245,708,0,0,0,0,0,0,0,0,0,-1,1469,316,0,0
252,708,0,0,0,0,0,0,0,0,0,-1,1476,316,0,0
259,708,0,0,0,0,0,0,0,0,0,-1,1483,316,0,0
266,708,0,0,0,0,0,0,0,0,0,-1,1490,316,0,0
273,708,0,0,0,0,0,0,0,0,0,-1,1497,316,0,0
280,708,0,0,0,0,0,0,0,0,0,-1,1504,316,0,0
287,708,0,0,0,0,0,0,0,0,0,-1,1511,316,0,0
294,708,0,0,0,0,0,0,0,0,0,-1,1518,316,0,0
301,708,0,0,0,0,0,0,0,0,0,-1,1525,316,0,0
308,708,0,0,0,0,0,0,0,0,0,-1,1532,316,0,0
315,708,0,0,0,0,0,0,0,0,0,-1,1539,316,0,0
322,708,0,0,0,0,0,0,0,0,0,-1,1546,316,0,0
329,708,0,0,0,0,0,0,0,0,0,-1,1553,316,0,0
336,708,0,0,0,0,0,0,0,0,0,-1,1560,316,0,0
343,708,0,0,0,0,0,0,0,0,0,-1,1567,316,0,0
350,708,0,0,0,0,0,0,0,0,0,-1,1574,316,0,0
357,708,0,0,0,0,0,0,0,0,0,-1,1581,316,0,0
364,708,0,0,0,0,0,0,0,0,0,-1,1588,316,0,0
371,708,0,0,0,0,0,0,0,0,0,-1,1595,316,0,0
378,708,0,0,0,0,0,0,0,0,0,-1,1602,316,0,0
385,708,0,0,0,0,0,0,0,0,0,-1,1609,316,0,0
392,708,0,0,0,0,0,0,0,0,0,-1,1616,316,0,0
399,708,0,0,0,0,0,0,0,0,0,-1,1623,316,0,0
406,708,0,0,0,0,0,0,0,0,0,-1,1630,316,0,0
413,708,0,0,0,0,0,0,0,0,0,-1,1637,316,0,0
420,708,0,0,0,0,0,0,0,0,0,-1,1644,316,0,0
427,708,0,0,0,0,0,0,0,0,0,-1,1651,316,0,0
434,708,0,0,0,0,0,0,0,0,0,-1,1658,316,0,0
441,708,0,0,0,0,0,0,0,0,0,-1,1665,316,0,0
448,708,0,0,0,0,0,0,0,0,0,-1,1672,316,0,0
455,708,0,0,0,0,0,0,0,0,0,-1,1679,316,0,0
462,708,0,0,0,0,0,0,0,0,0,-1,1686,316,0,0
469,708,0,0,0,0,0,0,0,0,0,-1,1693,316,0,0
476,708,0,0,0,0,0,0,0,0,0,-1,1700,316,0,0
483,708,0,0,0,0,0,0,0,0,0,-1,1707,316,0,0
490,708,0,0,0,0,0,0,0,0,0,-1,1714,316,0,0
497,708,0,0,0,0,0,0,0,0,0,-1,1721,316,0,0
504,708,0,0,0,0,0,0,0,0,0,-1,1728,316,0,0
511,708,0,0,0,0,0,0,0,0,0,-1,1735,316,0,0
518,708,0,0,0,0,0,0,0,0,0,-1,1742,316,0,0
525,708,0,0,0,0,0,0,0,0,0,-1,1749,316,0,0
532,708,0,0,0,0,0,0,0,0,0,-1,1756,316,0,0
539,708,0,0,0,0,0,0,0,0,0,-1,1763,316,0,0
546,708,0,0,0,0,0,0,0,0,0,-1,1770,316,0,0
553,708,0,0,0,0,0,0,0,0,0,-1,1777,316,0,0
560,708,0,0,0,0,0,0,0,0,0,-1,1784,316,0,0
567,708,0,0,0,0,0,0,0,0,0,-1,1791,316,0,0
574,708,0,0,0,0,0,0,0,0,0,-1,1798,316,0,0
581,708,0,0,0,0,0,0,0,0,0,-1,1805,316,0,0
588,708,0,0,0,0,0,0,0,0,0,-1,1812,316,0,0
595,708,0,0,0,0,0,0,0,0,0,-1,1819,316,0,0
602,708,0,0,0,0,0,0,0,0,0,-1,1826,316,0,0
609,708,0,0,0,0,0,0,0,0,0,-1,1833,316,0,0
616,708,0,0,0,0,0,0,0,0,0,-1,1840,316,0,0
623,708,0,0,0,0,0,0,0,0,0,-1,1847,316,0,0
630,708,0,0,0,0,0,0,0,0,0,-1,1854,316,0,0
637,708,0,0,0,0,0,0,0,0,0,-1,1861,316,0,0
644,708,0,0,0,0,0,0,0,0,0,-1,1868,316,0,0
651,708,0,0,0,0,0,0,0,0,0,-1,1875,316,0,0
658,708,0,0,0,0,0,0,0,0,0,-1,1882,316,0,0
665,708,0,0,0,0,0,0,0,0,0,-1,1889,316,0,0
672,708,0,0,0,0,0,0,0,0,0,-1,1896,316,0,0
679,708,0,0,0,0,0,0,0,0,0,-1,1903,316,0,0
686,708,0,0,0,0,0,0,0,0,0,-1,1910,316,0,0
693,708,0,0,0,0,0,0,0,0,0,-1,1917,316,0,0
700,708,0,0,0,0,0,0,0,0,0,-1,1924,316,0,0
707,708,0,0,0,0,0,0,0,0,0,-1,1931,316,0,0
714,708,0,0,0,0,0,0,0,0,0,-1,1938,316,0,0
721,708,0,0,0,0,0,0,0,0,0,-1,1945,316,0,0
728,708,0,0,0,0,0,0,0,0,0,-1,1952,316,0,0
735,708,0,0,0,0,0,0,0,0,0,-1,1959,316,0,0
742,708,0,0,0,0,0,0,0,0,0,-1,1966,316,0,0
749,708,0,0,0,0,0,0,0,0,0,-1,1973,316,0,0
756,708,0,0,0,0,0,0,0,0,0,-1,1980,316,0,0
763,708,0,0,0,0,0,0,0,0,0,-1,1987,316,0,0
770,708,0,0,0,0,0,0,0,0,0,-1,1994,316,0,0
777,708,0,0,0,0,0,0,0,0,0,-1,2001,316,0,0
784,708,0,0,0,0,0,0,0,0,0,-1,2008,316,0,0
791,708,0,0,0,0,0,0,0,0,0,-1,2015,316,0,0
798,708,0,0,0,0,0,0,0,0,0,-1,2022,316,0,0
805,708,0,0,0,0,0,0,0,0,0,-1,2029,316,0,0
812,708,0,0,0,0,0,0,0,0,0,-1,2036,316,0,0
-700,701,0,0,0,0,0,0,0,0,0,-1,524,323,0,0
-693,701,0,0,0,0,0,0,0,0,0,-1,531,323,0,0
-686,701,0,0,0,0,0,0,0,0,0,-1,538,323,0,0
-679,701,0,0,0,0,0,0,0,0,0,-1,545,323,0,0
-672,701,0,0,0,0,0,0,0,0,0,-1,552,323,0,0
-665,701,0,0,0,0,0,0,0,0,0,-1,559,323,0,0
-658,701,0,0,0,0,0,0,0,0,0,-1,566,323,0,0
-651,701,0,0,0,0,0,0,0,0,0,-1,573,323,0,0
-644,701,0,0,0,0,0,0,0,0,0,-1,580,323,0,0
-637,701,0,0,0,0,0,0,0,0,0,-1,587,323,0,0
-630,701,0,0,0,0,0,0,0,0,0,-1,594,323,0,0
-623,701,0,0,0,0,0,0,0,0,0,-1,601,323,0,0
-616,701,0,0,0,0,0,0,0,0,0,-1,608,323,0,0
-609,701,0,0,0,0,0,0,0,0,0,-1,615,323,0,0
-602,701,0,0,0,0,0,0,0,0,0,-1,622,323,0,0
-595,701,0,0,0,0,0,0,0,0,0,-1,629,323,0,0
-588,701,0,0,0,0,0,0,0,0,0,-1,636,323,0,0
-581,701,0,0,0,0,0,0,0,0,0,-1,643,323,0,0
-574,701,0,0,0,0,0,0,0,0,0,-1,650,323,0,0
-567,701,0,0,0,0,0,0,0,0,0,-1,657,323,0,0
-560,701,0,0,0,0,0,0,0,0,0,-1,664,323,0,0
-553,701,0,0,0,0,0,0,0,0,0,-1,671,323,0,0
-546,701,0,0,0,0,0,0,0,0,0,-1,678,323,0,0
-539,701,0,0,0,0,0,0,0,0,0,-1,685,323,0,0
-532,701,0,0,0,0,0,0,0,0,0,-1,692,323,0,0
-525,701,0,0,0,0,0,0,0,0,0,-1,699,323,0,0
-518,701,0,0,0,0,0,0,0,0,0,-1,706,323,0,0
-511,701,0,0,0,0,0,0,0,0,0,-1,713,323,0,0
-504,701,0,0,0,0,0,0,0,0,0,-1,720,323,0,0
-497,701,0,0,0,0,0,0,0,0,0,-1,727,323,0,0
-490,701,0,0,0,0,0,0,0,0,0,-1,734,323,0,0
-483,701,0,0,0,0,0,0,0,0,0,-1,741,323,0,0
-476,701,0,0,0,0,0,0,0,0,0,-1,748,323,0,0
-469,701,0,0,0,0,0,0,0,0,0,-1,755,323,0,0
-462,701,0,0,0,0,0,0,0,0,0,-1,762,323,0,0
-455,701,0,0,0,0,0,0,0,0,0,-1,769,323,0,0
-448,701,0,0,0,0,0,0,0,0,0,-1,776,323,0,0
-441,701,0,0,0,0,0,0,0,0,0,-1,783,323,0,0
-434,701,0,0,0,0,0,0,0,0,0,-1,790,323,0,0
-427,701,0,0,0,0,0,0,0,0,0,-1,797,323,0,0
-420,701,0,0,0,0,0,0,0,0,0,-1,804,323,0,0
-413,701,0,0,0,0,0,0,0,0,0,-1,811,323,0,0
-406,701,0,0,0,0,0,0,0,0,0,-1,818,323,0,0
-399,701,0,0,0,0,0,0,0,0,0,-1,825,323,0,0
-392,701,0,0,0,0,0,0,0,0,0,-1,832,323,0,0
-385,701,0,0,0,0,0,0,0,0,0,-1,839,323,0,0
-378,701,0,0,0,0,0,0,0,0,0,-1,846,323,0,0
-371,701,0,0,0,0,0,0,0,0,0,-1,853,323,0,0
-364,701,0,0,0,0,0,0,0,0,0,-1,860,323,0,0
-357,701,0,0,0,0,0,0,0,0,0,-1,867,323,0,0
-350,701,0,0,0,0,0,0,0,0,0,-1,874,323,0,0
-343,701,0,0,0,0,0,0,0,0,0,-1,881,323,0,0
-336,701,0,0,0,0,0,0,0,0,0,-1,888,323,0,0
-329,701,0,0,0,0,0,0,0,0,0,-1,895,323,0,0
-322,701,0,0,0,0,0,0,0,0,0,-1,902,323,0,0
-315,701,0,0,0,0,0,0,0,0,0,-1,909,323,0,0
-308,701,0,0,0,0,0,0,0,0,0,-1,916,323,0,0
-301,701,0,0,0,0,0,0,0,0,0,-1,923,323,0,0
-294,701,0,0,0,0,0,0,0,0,0,-1,930,323,0,0
-287,701,0,0,0,0,0,0,0,0,0,-1,937,323,0,0
-280,701,0,0,0,0,0,0,0,0,0,-1,944,323,0,0
-273,701,0,0,0,0,0,0,0,0,0,-1,951,323,0,0
-266,701,0,0,0,0,0,0,0,0,0,-1,958,323,0,0
-259,701,0,0,0,0,0,0,0,0,0,-1,965,323,0,0
-252,701,0,0,0,0,0,0,0,0,0,-1,972,323,0,0
-245,701,0,0,0,0,0,0,0,0,0,-1,979,323,0,0
-238,701,0,0,0,0,0,0,0,0,0,-1,986,323,0,0
-231,701,0,0,0,0,0,0,0,0,0,-1,993,323,0,0
-224,701,0,0,0,0,0,0,0,0,0,-1,1000,323,0,0
-217,701,0,0,0,0,0,0,0,0,0,-1,1007,323,0,0
-210,701,0,0,0,0,0,0,0,0,0,-1,1014,323,0,0
-203,701,0,0,0,0,0,0,0,0,0,-1,1021,323,0,0
-196,701,0,0,0,0,0,0,0,0,0,-1,1028,323,0,0
-189,701,0,0,0,0,0,0,0,0,0,-1,1035,323,0,0
-182,701,0,0,0,0,0,0,0,0,0,-1,1042,323,0,0
-175,701,0,0,0,0,0,0,0,0,0,-1,1049,323,0,0
-168,701,0,0,0,0,0,0,0,0,0,-1,1056,323,0,0
-161,701,0,0,0,0,0,0,0,0,0,-1,1063,323,0,0
-154,701,0,0,0,0,0,0,0,0,0,-1,1070,323,0,0
-147,701,0,0,0,0,0,0,0,0,0,-1,1077,323,0,0
-140,701,0,0,0,0,0,0,0,0,0,-1,1084,323,0,0
-133,701,0,0,0,0,0,0,0,0,0,-1,1091,323,0,0
-126,701,0,0,0,0,0,0,0,0,0,-1,1098,323,0,0
-119,701,0,0,0,0,0,0,0,0,0,-1,1105,323,0,0
-112,701,0,0,0,0,0,0,0,0,0,-1,1112,323,0,0
-105,701,0,0,0,0,0,0,0,0,0,-1,1119,323,0,0
-98,701,0,0,0,0,0,0,0,0,0,-1,1126,323,0,0
-91,701,0,0,0,0,0,0,0,0,0,-1,1133,323,0,0
-84,701,0,0,0,0,0,0,0,0,0,-1,1140,323,0,0
-77,701,0,0,0,0,0,0,0,0,0,-1,1147,323,0,0
-70,701,0.00708008,-0.421265,0,0,0,0,0,0,0,-1,1154,323,0.00713929,0.421263
-63,701,-0.133789,-0.227417,0,0,0,0,0,0,0,-1,1161,323,-0.133757,0.227423
-56,701,-0.420166,-0.101776,0,0,0,0,0,0,0,-1,1168,323,-0.420119,0.101777
-49,701,-1.09021,-0.155762,0,0,0,0,0,0,0,-1,1175,323,-1.09024,0.155768
-42,701,-0.210327,-0.299133,0,0,0,0,0,0,0,-1,1182,323,-0.210379,0.29914
-35,701,-0.305664,-0.819641,0,0,0,0,0,0,0,-1,1189,323,-0.305719,0.819639
-28,701,-1.6355,-0.970215,0,0,0,0,0,0,0,-1,1196,323,-1.63554,0.970224
-21,701,-1.07397,-0.948181,0.126644,0.0740443,-0.0530288,0.159536,0.0411517,-0.555196,0.0956385,0.0434108,1203,323,-1.07402,0.948185
-14,701,-0.501343,-0.842438,0.12522,0.09158,-0.052308,0.163346,0.0534542,-0.629842,0.0961656,0.0434451,1210,323,-0.501334,0.842434
-7,701,0.690308,-0.875488,0,0,0,0,0,0,0,-1,1217,323,0.69031,0.875487
0,701,1.49512,-1.08414,0,0,0,0,0,0,0,-1,1224,323,1.49507,1.08413
7,701,-1.40527,1.76559,0,0,0,0,0,0,0,-1,1231,323,-1.40529,-1.7656
14,701,-2.08276,1.8912,0,0,0,0,0,0,0,-1,1238,323,-2.08282,-1.89122
21,701,-3.25952,-0.507477,0,0,0,0,0,0,0,-1,1245,323,-3.25952,0.507489
28,701,-2.4447,-1.25793,0,0,0,0,0,0,0,-1,1252,323,-2.44467,1.25792
35,701,-1.6405,-0.970978,0,0,0,0,0,0,0,-1,1259,323,-1.6405,0.970978
42,701,-0.900024,-1.21268,0.0899998,0.0938554,-0.0594204,0.151379,0.032476,-0.801614,0.0920246,0.0457376,1266,323,-0.900007,1.21267
49,701,0.446777,-1.37454,0.0882981,0.0755115,-0.0573045,0.139565,0.0242448,-0.729844,0.086107,0.0489498,1273,323,0.446731,1.37454
56,701,2.12402,-1.37759,0,0,0,0,0,0,0,-1,1280,323,2.12404,1.37759
63,701,2.70813,-1.95892,0.0865088,0.0357115,-0.0496076,0.116842,0.00537863,-0.548801,0.0761649,0.0413906,1287,323,2.70815,1.95892
70,701,3.30103,-2.67047,0.0835636,0.0217618,-0.0441112,0.10652,-0.00119513,-0.47986,0.0714154,0.0409717,1294,323,3.301,2.67047
77,701,3.5647,-3.19281,0.0795163,0.014188,-0.0369918,0.0962013,-0.00249698,-0.423723,0.0649825,0.0444972,1301,323,3.56466,3.19281
84,701,4.02576,-5.336,0.07349,0.00659632,-0.0272253,0.0831698,-0.00308351,-0.341606,0.0565025,0.0449576,1308,323,4.02577,5.33599
91,701,4.92468,-5.93713,0.0634988,0.00707571,-0.0222112,0.071193,-0.000618566,-0.333477,0.0476695,0.0450077,1315,323,4.92469,5.93712
98,701,5.87122,-6.48346,0,0,0,0,0,0,0,-1,1322,323,5.8712,6.48344
105,701,6.78076,-7.02802,0,0,0,0,0,0,0,-1,1329,323,6.78073,7.02802
112,701,4.22949,-1.45511,0.02561,0.0102635,-0.00740909,0.0286032,0.00727026,-0.383941,0.0171665,0.0466096,1336,323,4.22954,1.45512
119,701,4.28223,-1.53116,0.0128415,0.0117128,-0.00267943,0.0150153,0.00953891,-0.681603,0.00877424,0.0456163,1343,323,4.28224,1.53117
126,701,4.31396,-1.59579,-0.000533845,0.012716,0.00137321,0.0128569,-0.000674666,1.4686,0.00880475,0.0473522,1350,323,4.31402,1.5958
133,701,4.25366,-2.49179,-0.0138417,0.0125535,0.00386283,0.0131072,-0.0143954,1.42843,0.0158844,0.04949,1357,323,4.25362,2.49178
140,701,2.75647,-2.00708,-0.026263,0.00872285,0.00479979,0.00936939,-0.0269095,1.4369,0.0217464,0.0490482,1364,323,2.75651,2.00709
147,701,2.58667,-2.65237,-0.0360026,0.00583506,0.00210207,0.00594041,-0.0361079,1.52072,0.0262769,0.0458778,1371,323,2.58661,2.65237
154,701,2.24243,-3.33963,0,0,0,0,0,0,0,-1,1378,323,2.24242,3.33962
161,701,2.89819,-2.87854,0,0,0,0,0,0,0,-1,1385,323,2.89819,2.87854
168,701,3.59558,-2.53894,0,0,0,0,0,0,0,-1,1392,323,3.59553,2.53893
175,701,2.61096,-0.339355,0,0,0,0,0,0,0,-1,1399,323,2.6109,0.339347
182,701,-0.0332031,-0.36026,0,0,0,0,0,0,0,-1,1406,323,-0.0332159,0.360252
189,701,-0.171143,0.252136,0,0,0,0,0,0,0,-1,1413,323,-0.171167,-0.252148
196,701,0,0,0,0,0,0,0,0,0,-1,1420,323,0,0
203,701,0,0,0,0,0,0,0,0,0,-1,1427,323,0,0
210,701,0,0,0,0,0,0,0,0,0,-1,1434,323,0,0
217,701,0,0,0,0,0,0,0,0,0,-1,1441,323,0,0
224,701,0,0,0,0,0,0,0,0,0,-1,1448,323,0,0
231,701,0,0,0,0,0,0,0,0,0,-1,1455,323,0,0
238,701,0,0,0,0,0,0,0,0,0,-1,1462,323,0,0
245,701,0,0,0,0,0,0,0,0,0,-1,1469,323,0,0
252,701,0,0,0,0,0,0,0,0,0,-1,1476,323,0,0
259,701,0,0,0,0,0,0,0,0,0,-1,1483,323,0,0
266,701,0,0,0,0,0,0,0,0,0,-1,1490,323,0,0
273,701,0,0,0,0,0,0,0,0,0,-1,1497,323,0,0
280,701,0,0,0,0,0,0,0,0,0,-1,1504,323,0,0
287,701,0,0,0,0,0,0,0,0,0,-1,1511,323,0,0
294,701,0,0,0,0,0,0,0,0,0,-1,1518,323,0,0
301,701,0,0,0,0,0,0,0,0,0,-1,1525,323,0,0
308,701,0,0,0,0,0,0,0,0,0,-1,1532,323,0,0
315,701,0,0,0,0,0,0,0,0,0,-1,1539,323,0,0
322,701,0,0,0,0,0,0,0,0,0,-1,1546,323,0,0
329,701,0,0,0,0,0,0,0,0,0,-1,1553,323,0,0
336,701,0,0,0,0,0,0,0,0,0,-1,1560,323,0,0
343,701,0,0,0,0,0,0,0,0,0,-1,1567,323,0,0
350,701,0,0,0,0,0,0,0,0,0,-1,1574,323,0,0
357,701,0,0,0,0,0,0,0,0,0,-1,1581,323,0,0
364,701,0,0,0,0,0,0,0,0,0,-1,1588,323,0,0
371,701,0,0,0,0,0,0,0,0,0,-1,1595,323,0,0
378,701,0,0,0,0,0,0,0,0,0,-1,1602,323,0,0
385,701,0,0,0,0,0,0,0,0,0,-1,1609,323,0,0
392,701,0,0,0,0,0,0,0,0,0,-1,1616,323,0,0
399,701,0,0,0,0,0,0,0,0,0,-1,1623,323,0,0
406,701,0,0,0,0,0,0,0,0,0,-1,1630,323,0,0
413,701,0,0,0,0,0,0,0,0,0,-1,1637,323,0,0
420,701,0,0,0,0,0,0,0,0,0,-1,1644,323,0,0
427,701,0,0,0,0,0,0,0,0,0,-1,1651,323,0,0
434,701,0,0,0,0,0,0,0,0,0,-1,1658,323,0,0
441,701,0,0,0,0,0,0,0,0,0,-1,1665,323,0,0
448,701,0,0,0,0,0,0,0,0,0,-1,1672,323,0,0
455,701,0,0,0,0,0,0,0,0,0,-1,1679,323,0,0
462,701,0,0,0,0,0,0,0,0,0,-1,1686,323,0,0
469,701,0,0,0,0,0,0,0,0,0,-1,1693,323,0,0
476,701,0,0,0,0,0,0,0,0,0,-1,1700,323,0,0
483,701,0,0,0,0,0,0,0,0,0,-1,1707,323,0,0
490,701,0,0,0,0,0,0,0,0,0,-1,1714,323,0,0
497,701,0,0,0,0,0,0,0,0,0,-1,1721,323,0,0
504,701,0,0,0,0,0,0,0,0,0,-1,1728,323,0,0
511,701,0,0,0,0,0,0,0,0,0,-1,1735,323,0,0
518,701,0,0,0,0,0,0,0,0,0,-1,1742,323,0,0
525,701,0,0,0,0,0,0,0,0,0,-1,1749,323,0,0
532,701,0,0,0,0,0,0,0,0,0,-1,1756,323,0,0
539,701,0,0,0,0,0,0,0,0,0,-1,1763,323,0,0
546,701,0,0,0,0,0,0,0,0,0,-1,1770,323,0,0
553,701,0,0,0,0,0,0,0,0,0,-1,1777,323,0,0
560,701,0,0,0,0,0,0,0,0,0,-1,1784,323,0,0
567,701,0,0,0,0,0,0,0,0,0,-1,1791,323,0,0
574,701,0,0,0,0,0,0,0,0,0,-1,1798,323,0,0
581,701,0,0,0,0,0,0,0,0,0,-1,1805,323,0,0
588,701,0,0,0,0,0,0,0,0,0,-1,1812,323,0,0
595,701,0,0,0,0,0,0,0,0,0,-1,1819,323,0,0
602,701,0,0,0,0,0,0,0,0,0,-1,1826,323,0,0
609,701,0,0,0,0,0,0,0,0,0,-1,1833,323,0,0
616,701,0,0,0,0,0,0,0,0,0,-1,1840,323,0,0
623,701,0,0,0,0,0,0,0,0,0,-1,1847,323,0,0
630,701,0,0,0,0,0,0,0,0,0,-1,1854,323,0,0
637,701,0,0,0,0,0,0,0,0,0,-1,1861,323,0,0
644,701,0,0,0,0,0,0,0,0,0,-1,1868,323,0,0
651,701,0,0,0,0,0,0,0,0,0,-1,1875,323,0,0
658,701,0,0,0,0,0,0,0,0,0,-1,1882,323,0,0
665,701,0,0,0,0,0,0,0,0,0,-1,1889,323,0,0
672,701,0,0,0,0,0,0,0,0,0,-1,1896,323,0,0
679,701,0,0,0,0,0,0,0,0,0,-1,1903,323,0,0
686,701,0,0,0,0,0,0,0,0,0,-1,1910,323,0,0
693,701,0,0,0,0,0,0,0,0,0,-1,1917,323,0,0
700,701,0,0,0,0,0,0,0,0,0,-1,1924,323,0,0
707,701,0,0,0,0,0,0,0,0,0,-1,1931,323,0,0
714,701,0,0,0,0,0,0,0,0,0,-1,1938,323,0,0
721,701,0,0,0,0,0,0,0,0,0,-1,1945,323,0,0
728,701,0,0,0,0,0,0,0,0,0,-1,1952,323,0,0
735,701,0,0,0,0,0,0,0,0,0,-1,1959,323,0,0
742,701,0,0,0,0,0,0,0,0,0,-1,1966,323,0,0
749,701,0,0,0,0,0,0,0,0,0,-1,1973,323,0,0
756,701,0,0,0,0,0,0,0,0,0,-1,1980,323,0,0
763,701,0,0,0,0,0,0,0,0,0,-1,1987,323,0,0
770,701,0,0,0,0,0,0,0,0,0,-1,1994,323,0,0
777,701,0,0,0,0,0,0,0,0,0,-1,2001,323,0,0
784,701,0,0,0,0,0,0,0,0,0,-1,2008,323,0,0
791,701,0,0,0,0,0,0,0,0,0,-1,2015,323,0,0
798,701,0,0,0,0,0,0,0,0,0,-1,2022,323,0,0
805,701,0,0,0,0,0,0,0,0,0,-1,2029,323,0,0
812,701,0,0,0,0,0,0,0,0,0,-1,2036,323,0,0
-700,694,0,0,0,0,0,0,0,0,0,-1,524,330,0,0
-693,694,0,0,0,0,0,0,0,0,0,-1,531,330,0,0
-686,694,0,0,0,0,0,0,0,0,0,-1,538,330,0,0
-679,694,0,0,0,0,0,0,0,0,0,-1,545,330,0,0
-672,694,0,0,0,0,0,0,0,0,0,-1,552,330,0,0
-665,694,0,0,0,0,0,0,0,0,0,-1,559,330,0,0
-658,694,0,0,0,0,0,0,0,0,0,-1,566,330,0,0
-651,694,0,0,0,0,0,0,0,0,0,-1,573,330,0,0
-644,694,0,0,0,0,0,0,0,0,0,-1,580,330,0,0
-637,694,0,0,0,0,0,0,0,0,0,-1,587,330,0,0
-630,694,0,0,0,0,0,0,0,0,0,-1,594,330,0,0
-623,694,0,0,0,0,0,0,0,0,0,-1,601,330,0,0
-616,694,0,0,0,0,0,0,0,0,0,-1,608,330,0,0
-609,694,0,0,0,0,0,0,0,0,0,-1,615,330,0,0
-602,694,0,0,0,0,0,0,0,0,0,-1,622,330,0,0
-595,694,0,0,0,0,0,0,0,0,0,-1,629,330,0,0
-588,694,0,0,0,0,0,0,0,0,0,-1,636,330,0,0
-581,694,0,0,0,0,0,0,0,0,0,-1,643,330,0,0
-574,694,0,0,0,0,0,0,0,0,0,-1,650,330,0,0
-567,694,0,0,0,0,0,0,0,0,0,-1,657,330,0,0
-560,694,0,0,0,0,0,0,0,0,0,-1,664,330,0,0
-553,694,0,0,0,0,0,0,0,0,0,-1,671,330,0,0
-546,694,0,0,0,0,0,0,0,0,0,-1,678,330,0,0
-539,694,0,0,0,0,0,0,0,0,0,-1,685,330,0,0
-532,694,0,0,0,0,0,0,0,0,0,-1,692,330,0,0
-525,694,0,0,0,0,0,0,0,0,0,-1,699,330,0,0
-518,694,0,0,0,0,0,0,0,0,0,-1,706,330,0,0
-511,694,0,0,0,0,0,0,0,0,0,-1,713,330,0,0
-504,694,0,0,0,0,0,0,0,0,0,-1,720,330,0,0
-497,694,0,0,0,0,0,0,0,0,0,-1,727,330,0,0
-490,694,0,0,0,0,0,0,0,0,0,-1,734,330,0,0
-483,694,0,0,0,0,0,0,0,0,0,-1,741,330,0,0
-476,694,0,0,0,0,0,0,0,0,0,-1,748,330,0,0
-469,694,0,0,0,0,0,0,0,0,0,-1,755,330,0,0
-462,694,0,0,0,0,0,0,0,0,0,-1,762,330,0,0
-455,694,0,0,0,0,0,0,0,0,0,-1,769,330,0,0
-448,694,0,0,0,0,0,0,0,0,0,-1,776,330,0,0
-441,694,0,0,0,0,0,0,0,0,0,-1,783,330,0,0
-434,694,0,0,0,0,0,0,0,0,0,-1,790,330,0,0
-427,694,0,0,0,0,0,0,0,0,0,-1,797,330,0,0
-420,694,0,0,0,0,0,0,0,0,0,-1,804,330,0,0
-413,694,0,0,0,0,0,0,0,0,0,-1,811,330,0,0
-406,694,0,0,0,0,0,0,0,0,0,-1,818,330,0,0
-399,694,0,0,0,0,0,0,0,0,0,-1,825,330,0,0
-392,694,0,0,0,0,0,0,0,0,0,-1,832,330,0,0
-385,694,0,0,0,0,0,0,0,0,0,-1,839,330,0,0
-378,694,0,0,0,0,0,0,0,0,0,-1,846,330,0,0
-371,694,0,0,0,0,0,0,0,0,0,-1,853,330,0,0
-364,694,0,0,0,0,0,0,0,0,0,-1,860,330,0,0
-357,694,0,0,0,0,0,0,0,0,0,-1,867,330,0,0
-350,694,0,0,0,0,0,0,0,0,0,-1,874,330,0,0
-343,694,0,0,0,0,0,0,0,0,0,-1,881,330,0,0
-336,694,0,0,0,0,0,0,0,0,0,-1,888,330,0,0
-329,694,0,0,0,0,0,0,0,0,0,-1,895,330,0,0
-322,694,0,0,0,0,0,0,0,0,0,-1,902,330,0,0
-315,694,0,0,0,0,0,0,0,0,0,-1,909,330,0,0
-308,694,0,0,0,0,0,0,0,0,0,-1,916,330,0,0
-301,694,0,0,0,0,0,0,0,0,0,-1,923,330,0,0
-294,694,0,0,0,0,0,0,0,0,0,-1,930,330,0,0
-287,694,0,0,0,0,0,0,0,0,0,-1,937,330,0,0
-280,694,0,0,0,0,0,0,0,0,0,-1,944,330,0,0
-273,694,0,0,0,0,0,0,0,0,0,-1,951,330,0,0
-266,694,0,0,0,0,0,0,0,0,0,-1,958,330,0,0
-259,694,0,0,0,0,0,0,0,0,0,-1,965,330,0,0
-252,694,0,0,0,0,0,0,0,0,0,-1,972,330,0,0
-245,694,0,0,0,0,0,0,0,0,0,-1,979,330,0,0
-238,694,0,0,0,0,0,0,0,0,0,-1,986,330,0,0
-231,694,0,0,0,0,0,0,0,0,0,-1,993,330,0,0
-224,694,0,0,0,0,0,0,0,0,0,-1,1000,330,0,0
-217,694,0,0,0,0,0,0,0,0,0,-1,1007,330,0,0
-210,694,0,0,0,0,0,0,0,0,0,-1,1014,330,0,0
-203,694,0,0,0,0,0,0,0,0,0,-1,1021,330,0,0
-196,694,0,0,0,0,0,0,0,0,0,-1,1028,330,0,0
-189,694,0,0,0,0,0,0,0,0,0,-1,1035,330,0,0
-182,694,0,0,0,0,0,0,0,0,0,-1,1042,330,0,0
-175,694,0,0,0,0,0,0,0,0,0,-1,1049,330,0,0
-168,694,0,0,0,0,0,0,0,0,0,-1,1056,330,0,0
-161,694,0,0,0,0,0,0,0,0,0,-1,1063,330,0,0
-154,694,0,0,0,0,0,0,0,0,0,-1,1070,330,0,0
-147,694,0,0,0,0,0,0,0,0,0,-1,1077,330,0,0
-140,694,0,0,0,0,0,0,0,0,0,-1,1084,330,0,0
-133,694,0,0,0,0,0,0,0,0,0,-1,1091,330,0,0
-126,694,0,0,0,0,0,0,0,0,0,-1,1098,330,0,0
-119,694,0,0,0,0,0,0,0,0,0,-1,1105,330,0,0
-112,694,0,0,0,0,0,0,0,0,0,-1,1112,330,0,0
-105,694,-0.0438232,-2.54568,0,0,0,0,0,0,0,-1,1119,330,-0.0437745,2.54568
-98,694,0.153931,-2.24127,-0.0418771,0.0687793,-0.0349257,0.0788805,-0.0519783,-1.28926,0.0760817,0.045837,1126,330,0.153923,2.24128
-91,694,0.0742188,-1.8869,-0.0464066,0.0742613,-0.0368197,0.0846088,-0.0567541,-1.29683,0.0821424,0.042383,1133,330,0.0742642,1.88689
-84,694,-0.310059,-1.08969,-0.0515766,0.0809593,-0.0382143,0.0911882,-0.0618056,-1.30925,0.0888724,0.0433512,1140,330,-0.310102,1.08969
-77,694,-0.219238,-0.11026,-0.0538173,0.0879876,-0.038368,0.0977031,-0.0635329,-1.32279,0.0937839,0.0434768,1147,330,-0.219274,0.11026
-70,694,-0.400513,0.501099,0,0,0,0,0,0,0,-1,1154,330,-0.400567,-0.501109
-63,694,-0.300781,-0.562592,0,0,0,0,0,0,0,-1,1161,330,-0.300793,0.562598
-56,694,-0.661011,-0.22757,0,0,0,0,0,0,0,-1,1168,330,-0.660971,0.227584
-49,694,-1.11426,0.0341797,0,0,0,0,0,0,0,-1,1175,330,-1.11424,-0.0341846
-42,694,-0.346313,-0.709595,0,0,0,0,0,0,0,-1,1182,330,-0.346298,0.709581
-35,694,-0.459106,-1.24713,0,0,0,0,0,0,0,-1,1189,330,-0.459142,1.24714
-28,694,-1.27039,-1.422,0,0,0,0,0,0,0,-1,1196,330,-1.27041,1.42199
-21,694,-0.356812,-1.07141,0.0985298,0.0648159,-0.0385483,0.123746,0.0396,-0.579279,0.0729713,0.0422324,1203,330,-0.35686,1.07141
-14,694,0.37915,-1.06512,0.0980938,0.0763245,-0.037661,0.126412,0.0480068,-0.644723,0.0736838,0.0440896,1210,330,0.37919,1.06511
-7,694,1.25098,-1.28922,0.0940572,0.089374,-0.0374856,0.129274,0.0541569,-0.754206,0.0749629,0.0451643,1217,330,1.25099,1.28922
0,694,2.04065,-1.41479,0.0903968,0.100843,-0.0390709,0.135038,0.0562014,-0.851845,0.0783287,0.0478844,1224,330,2.04066,1.41479
7,694,2.84375,-1.48975,0,0,0,0,0,0,0,-1,1231,330,2.84373,1.48973
14,694,3.66577,-0.195648,0,0,0,0,0,0,0,-1,1238,330,3.66578,0.195658
21,694,5.01294,0.244171,0,0,0,0,0,0,0,-1,1245,330,5.01292,-0.244171
28,694,-1.84912,-1.0498,0.0711037,0.0953913,-0.0453762,0.130221,0.0362743,-0.916146,0.0776017,0.0471555,1252,330,-1.84907,1.04982
35,694,-1.11011,-1.20563,0.0685025,0.0885922,-0.0456707,0.12531,0.031785,-0.893645,0.0752177,0.0448408,1259,330,-1.11009,1.20563
42,694,-0.347168,-1.34189,0.0681367,0.0765196,-0.0451218,0.117644,0.0270121,-0.831711,0.0711556,0.0454799,1266,330,-0.347117,1.34189
49,694,0.714966,-1.38559,0.0677996,0.060807,-0.043991,0.108433,0.0201735,-0.745742,0.0665907,0.0485861,1273,330,0.714909,1.38559
56,694,2.15564,-1.15686,0,0,0,0,0,0,0,-1,1280,330,2.15565,1.15686
63,694,2.57764,-2.0784,0.0676415,0.0274494,-0.0386332,0.0910928,0.00399807,-0.54557,0.0594407,0.0424478,1287,330,2.57768,2.07841
70,694,3.11267,-2.76358,0.0656978,0.0153831,-0.0344901,0.0832307,-0.0021498,-0.470303,0.0562174,0.0440528,1294,330,3.11264,2.76358
77,694,3.18408,-3.40778,0.062837,0.00861243,-0.0285769,0.0751166,-0.00366713,-0.405846,0.0513438,0.0465759,1301,330,3.18413,3.40777
84,694,3.48035,-4.05765,0.058413,0.000764628,-0.0203616,0.0648794,-0.00570181,-0.307506,0.0452734,0.0453484,1308,330,3.48039,4.05765
91,694,3.9613,-4.76019,0,0,0,0,0,0,0,-1,1315,330,3.9613,4.7602
98,694,5.38318,-5.71252,0,0,0,0,0,0,0,-1,1322,330,5.38313,5.71252
105,694,3.43933,-1.84128,0.0289398,0.00134175,-0.00812647,0.0311549,-0.000873364,-0.266115,0.0210671,0.0440291,1329,330,3.43931,1.84127
112,694,3.75012,-1.5741,0.0196267,0.0029905,-0.00417741,0.0206167,0.00200046,-0.232706,0.0131286,0.0449848,1336,330,3.75007,1.57409
119,694,3.89844,-1.61264,0.00949255,0.00425639,-0.000432685,0.00952806,0.00422087,-0.0818939,0.00551293,0.0461832,1343,330,3.8984,1.61263
126,694,3.85876,-1.63693,0,0,0,0,0,0,0,-1,1350,330,3.8588,1.63694
133,694,3.73145,-2.04233,-0.0108333,0.00572842,0.00469329,0.00696595,-0.0120708,1.31299,0.0111218,0.0471092,1357,330,3.73147,2.04233
140,694,3.34924,-2.21793,-0.019989,0.00348837,0.00575848,0.00482473,-0.0213253,1.34276,0.0160684,0.0466234,1364,330,3.34921,2.21791
147,694,2.62952,-2.30157,-0.0280158,0.00157469,0.00420038,0.00215938,-0.0286005,1.43249,0.019826,0.0475727,1371,330,2.6295,2.30156
154,694,2.25439,-2.55148,0,0,0,0,0,0,0,-1,1378,330,2.25438,2.55149
161,694,2.81152,-2.19766,0,0,0,0,0,0,0,-1,1385,330,2.81149,2.19765
168,694,3.96838,0.654816,0,0,0,0,0,0,0,-1,1392,330,3.96839,-0.654813
175,694,3.03918,-0.744141,0,0,0,0,0,0,0,-1,1399,330,3.0392,0.744156
182,694,2.66626,-0.0768738,0,0,0,0,0,0,0,-1,1406,330,2.66628,0.0768603
189,694,3.25928,-2.30804,0,0,0,0,0,0,0,-1,1413,330,3.25932,2.30806
196,694,3.87231,-3.34259,0,0,0,0,0,0,0,-1,1420,330,3.87237,3.34259
203,694,2.88171,-1.47827,0,0,0,0,0,0,0,-1,1427,330,2.88169,1.47829
210,694,2.72607,-1.47754,0,0,0,0,0,0,0,-1,1434,330,2.72609,1.47753
217,694,0.681274,0.427826,0,0,0,0,0,0,0,-1,1441,330,0.68122,-0.427822
224,694,-0.178589,-0.767151,0,0,0,0,0,0,0,-1,1448,330,-0.178606,0.767162
231,694,0,0,0,0,0,0,0,0,0,-1,1455,330,0,0
238,694,0,0,0,0,0,0,0,0,0,-1,1462,330,0,0
245,694,0,0,0,0,0,0,0,0,0,-1,1469,330,0,0
252,694,0,0,0,0,0,0,0,0,0,-1,1476,330,0,0
259,694,0,0,0,0,0,0,0,0,0,-1,1483,330,0,0
266,694,0,0,0,0,0,0,0,0,0,-1,1490,330,0,0
273,694,0,0,0,0,0,0,0,0,0,-1,1497,330,0,0
280,694,0,0,0,0,0,0,0,0,0,-1,1504,330,0,0
287,694,0,0,0,0,0,0,0,0,0,-1,1511,330,0,0
294,694,0,0,0,0,0,0,0,0,0,-1,1518,330,0,0
301,694,0,0,0,0,0,0,0,0,0,-1,1525,330,0,0
308,694,0,0,0,0,0,0,0,0,0,-1,1532,330,0,0
315,694,0,0,0,0,0,0,0,0,0,-1,1539,330,0,0
322,694,0,0,0,0,0,0,0,0,0,-1,1546,330,0,0
329,694,0,0,0,0,0,0,0,0,0,-1,1553,330,0,0
336,694,0,0,0,0,0,0,0,0,0,-1,1560,330,0,0
343,694,0,0,0,0,0,0,0,0,0,-1,1567,330,0,0
350,694,0,0,0,0,0,0,0,0,0,-1,1574,330,0,0
357,694,0,0,0,0,0,0,0,0,0,-1,1581,330,0,0
364,694,0,0,0,0,0,0,0,0,0,-1,1588,330,0,0
371,694,0,0,0,0,0,0,0,0,0,-1,1595,330,0,0
378,694,0,0,0,0,0,0,0,0,0,-1,1602,330,0,0
385,694,0,0,0,0,0,0,0,0,0,-1,1609,330,0,0
392,694,0,0,0,0,0,0,0,0,0,-1,1616,330,0,0
399,694,0,0,0,0,0,0,0,0,0,-1,1623,330,0,0
406,694,0,0,0,0,0,0,0,0,0,-1,1630,330,0,0
413,694,0,0,0,0,0,0,0,0,0,-1,1637,330,0,0
420,694,0,0,0,0,0,0,0,0,0,-1,1644,330,0,0
427,694,0,0,0,0,0,0,0,0,0,-1,1651,330,0,0
434,694,0,0,0,0,0,0,0,0,0,-1,1658,330,0,0
441,694,0,0,0,0,0,0,0,0,0,-1,1665,330,0,0
448,694,0,0,0,0,0,0,0,0,0,-1,1672,330,0,0
455,694,0,0,0,0,0,0,0,0,0,-1,1679,330,0,0
462,694,0,0,0,0,0,0,0,0,0,-1,1686,330,0,0
469,694,0,0,0,0,0,0,0,0,0,-1,1693,330,0,0
476,694,0,0,0,0,0,0,0,0,0,-1,1700,330,0,0
483,694,0,0,0,0,0,0,0,0,0,-1,1707,330,0,0
490,694,0,0,0,0,0,0,0,0,0,-1,1714,330,0,0
497,694,0,0,0,0,0,0,0,0,0,-1,1721,330,0,0
504,694,0,0,0,0,0,0,0,0,0,-1,1728,330,0,0
511,694,0,0,0,0,0,0,0,0,0,-1,1735,330,0,0
518,694,0,0,0,0,0,0,0,0,0,-1,1742,330,0,0
525,694,0,0,0,0,0,0,0,0,0,-1,1749,330,0,0
532,694,0,0,0,0,0,0,0,0,0,-1,1756,330,0,0
539,694,0,0,0,0,0,0,0,0,0,-1,1763,330,0,0
546,694,0,0,0,0,0,0,0,0,0,-1,1770,330,0,0
553,694,0,0,0,0,0,0,0,0,0,-1,1777,330,0,0
560,694,0,0,0,0,0,0,0,0,0,-1,1784,330,0,0
567,694,0,0,0,0,0,0,0,0,0,-1,1791,330,0,0
574,694,0,0,0,0,0,0,0,0,0,-1,1798,330,0,0
581,694,0,0,0,0,0,0,0,0,0,-1,1805,330,0,0
588,694,0,0,0,0,0,0,0,0,0,-1,1812,330,0,0
595,694,0,0,0,0,0,0,0,0,0,-1,1819,330,0,0
602,694,0,0,0,0,0,0,0,0,0,-1,1826,330,0,0
609,694,0,0,0,0,0,0,0,0,0,-1,1833,330,0,0
616,694,0,0,0,0,0,0,0,0,0,-1,1840,330,0,0
623,694,0,0,0,0,0,0,0,0,0,-1,1847,330,0,0
630,694,0,0,0,0,0,0,0,0,0,-1,1854,330,0,0
637,694,0,0,0,0,0,0,0,0,0,-1,1861,330,0,0
644,694,0,0,0,0,0,0,0,0,0,-1,1868,330,0,0
651,694,0,0,0,0,0,0,0,0,0,-1,1875,330,0,0
658,694,0,0,0,0,0,0,0,0,0,-1,1882,330,0,0
665,694,0,0,0,0,0,0,0,0,0,-1,1889,330,0,0
672,694,0,0,0,0,0,0,0,0,0,-1,1896,330,0,0
679,694,0,0,0,0,0,0,0,0,0,-1,1903,330,0,0
686,694,0,0,0,0,0,0,0,0,0,-1,1910,330,0,0
693,694,0,0,0,0,0,0,0,0,0,-1,1917,330,0,0
700,694,0,0,0,0,0,0,0,0,0,-1,1924,330,0,0
707,694,0,0,0,0,0,0,0,0,0,-1,1931,330,0,0
714,694,0,0,0,0,0,0,0,0,0,-1,1938,330,0,0
721,694,0,0,0,0,0,0,0,0,0,-1,1945,330,0,0
728,694,0,0,0,0,0,0,0,0,0,-1,1952,330,0,0
735,694,0,0,0,0,0,0,0,0,0,-1,1959,330,0,0
742,694,0,0,0,0,0,0,0,0,0,-1,1966,330,0,0
749,694,0,0,0,0,0,0,0,0,0,-1,1973,330,0,0
756,694,0,0,0,0,0,0,0,0,0,-1,1980,330,0,0
763,694,0,0,0,0,0,0,0,0,0,-1,1987,330,0,0
770,694,0,0,0,0,0,0,0,0,0,-1,1994,330,0,0
777,694,0,0,0,0,0,0,0,0,0,-1,2001,330,0,0
784,694,0,0,0,0,0,0,0,0,0,-1,2008,330,0,0
791,694,0,0,0,0,0,0,0,0,0,-1,2015,330,0,0
798,694,0,0,0,0,0,0,0,0,0,-1,2022,330,0,0
805,694,0,0,0,0,0,0,0,0,0,-1,2029,330,0,0
812,694,0,0,0,0,0,0,0,0,0,-1,2036,330,0,0
-700,687,0,0,0,0,0,0,0,0,0,-1,524,337,0,0
-693,687,0,0,0,0,0,0,0,0,0,-1,531,337,0,0
-686,687,0,0,0,0,0,0,0,0,0,-1,538,337,0,0
-679,687,0,0,0,0,0,0,0,0,0,-1,545,337,0,0
-672,687,0,0,0,0,0,0,0,0,0,-1,552,337,0,0
-665,687,0,0,0,0,0,0,0,0,0,-1,559,337,0,0
-658,687,0,0,0,0,0,0,0,0,0,-1,566,337,0,0
-651,687,0,0,0,0,0,0,0,0,0,-1,573,337,0,0
-644,687,0,0,0,0,0,0,0,0,0,-1,580,337,0,0
-637,687,0,0,0,0,0,0,0,0,0,-1,587,337,0,0
-630,687,0,0,0,0,0,0,0,0,0,-1,594,337,0,0
-623,687,0,0,0,0,0,0,0,0,0,-1,601,337,0,0
-616,687,0,0,0,0,0,0,0,0,0,-1,608,337,0,0
-609,687,0,0,0,0,0,0,0,0,0,-1,615,337,0,0
-602,687,0,0,0,0,0,0,0,0,0,-1,622,337,0,0
-595,687,0,0,0,0,0,0,0,0,0,-1,629,337,0,0
-588,687,0,0,0,0,0,0,0,0,0,-1,636,337,0,0
-581,687,0,0,0,0,0,0,0,0,0,-1,643,337,0,0
-574,687,0,0,0,0,0,0,0,0,0,-1,650,337,0,0
-567,687,0,0,0,0,0,0,0,0,0,-1,657,337,0,0
-560,687,0,0,0,0,0,0,0,0,0,-1,664,337,0,0
-553,687,0,0,0,0,0,0,0,0,0,-1,671,337,0,0
-546,687,0,0,0,0,0,0,0,0,0,-1,678,337,0,0
-539,687,0,0,0,0,0,0,0,0,0,-1,685,337,0,0
-532,687,0,0,0,0,0,0,0,0,0,-1,692,337,0,0
-525,687,0,0,0,0,0,0,0,0,0,-1,699,337,0,0
-518,687,0,0,0,0,0,0,0,0,0,-1,706,337,0,0
-511,687,0,0,0,0,0,0,0,0,0,-1,713,337,0,0
-504,687,0,0,0,0,0,0,0,0,0,-1,720,337,0,0
-497,687,0,0,0,0,0,0,0,0,0,-1,727,337,0,0
-490,687,0,0,0,0,0,0,0,0,0,-1,734,337,0,0
-483,687,0,0,0,0,0,0,0,0,0,-1,741,337,0,0
-476,687,0,0,0,0,0,0,0,0,0,-1,748,337,0,0
-469,687,0,0,0,0,0,0,0,0,0,-1,755,337,0,0
-462,687,0,0,0,0,0,0,0,0,0,-1,762,337,0,0
-455,687,0,0,0,0,0,0,0,0,0,-1,769,337,0,0
-448,687,0,0,0,0,0,0,0,0,0,-1,776,337,0,0
-441,687,0,0,0,0,0,0,0,0,0,-1,783,337,0,0
-434,687,0,0,0,0,0,0,0,0,0,-1,790,337,0,0
-427,687,0,0,0,0,0,0,0,0,0,-1,797,337,0,0
-420,687,0,0,0,0,0,0,0,0,0,-1,804,337,0,0
-413,687,0,0,0,0,0,0,0,0,0,-1,811,337,0,0
-406,687,0,0,0,0,0,0,0,0,0,-1,818,337,0,0
-399,687,0,0,0,0,0,0,0,0,0,-1,825,337,0,0
-392,687,0,0,0,0,0,0,0,0,0,-1,832,337,0,0
-385,687,0,0,0,0,0,0,0,0,0,-1,839,337,0,0
-378,687,0,0,0,0,0,0,0,0,0,-1,846,337,0,0
-371,687,0,0,0,0,0,0,0,0,0,-1,853,337,0,0
-364,687,0,0,0,0,0,0,0,0,0,-1,860,337,0,0
-357,687,0,0,0,0,0,0,0,0,0,-1,867,337,0,0
-350,687,0,0,0,0,0,0,0,0,0,-1,874,337,0,0
-343,687,0,0,0,0,0,0,0,0,0,-1,881,337,0,0
-336,687,0,0,0,0,0,0,0,0,0,-1,888,337,0,0
-329,687,0,0,0,0,0,0,0,0,0,-1,895,337,0,0
-322,687,0,0,0,0,0,0,0,0,0,-1,902,337,0,0
-315,687,0,0,0,0,0,0,0,0,0,-1,909,337,0,0
-308,687,0,0,0,0,0,0,0,0,0,-1,916,337,0,0
-301,687,0,0,0,0,0,0,0,0,0,-1,923,337,0,0
-294,687,0,0,0,0,0,0,0,0,0,-1,930,337,0,0
-287,687,0,0,0,0,0,0,0,0,0,-1,937,337,0,0
-280,687,0,0,0,0,0,0,0,0,0,-1,944,337,0,0
-273,687,0,0,0,0,0,0,0,0,0,-1,951,337,0,0
-266,687,0,0,0,0,0,0,0,0,0,-1,958,337,0,0
-259,687,0,0,0,0,0,0,0,0,0,-1,965,337,0,0
-252,687,0,0,0,0,0,0,0,0,0,-1,972,337,0,0
-245,687,0,0,0,0,0,0,0,0,0,-1,979,337,0,0
-238,687,0,0,0,0,0,0,0,0,0,-1,986,337,0,0
-231,687,0,0,0,0,0,0,0,0,0,-1,993,337,0,0
-224,687,0,0,0,0,0,0,0,0,0,-1,1000,337,0,0
-217,687,0,0,0,0,0,0,0,0,0,-1,1007,337,0,0
-210,687,0,0,0,0,0,0,0,0,0,-1,1014,337,0,0
-203,687,0,0,0,0,0,0,0,0,0,-1,1021,337,0,0
-196,687,0,0,0,0,0,0,0,0,0,-1,1028,337,0,0
-189,687,0,0,0,0,0,0,0,0,0,-1,1035,337,0,0
-182,687,0,0,0,0,0,0,0,0,0,-1,1042,337,0,0
-175,687,0,0,0,0,0,0,0,0,0,-1,1049,337,0,0
-168,687,0,0,0,0,0,0,0,0,0,-1,1056,337,0,0
-161,687,0,0,0,0,0,0,0,0,0,-1,1063,337,0,0
-154,687,0,0,0,0,0,0,0,0,0,-1,1070,337,0,0
-147,687,0,0,0,0,0,0,0,0,0,-1,1077,337,0,0
-140,687,0,0,0,0,0,0,0,0,0,-1,1084,337,0,0
-133,687,3.68445,-0.89798,-0.0171844,0.0356605,0.000640591,0.0356683,-0.0171922,1.55868,0.0311342,0.0452979,1091,337,3.68446,0.897975
-126,687,3.20898,-0.897949,-0.0195501,0.0398862,-0.0040942,0.0401669,-0.0198308,-1.50234,0.0352967,0.0457433,1098,337,3.20898,0.897941
-119,687,4.57129,-1.75119,0,0,0,0,0,0,0,-1,1105,337,4.57126,1.75118
-112,687,5.44165,-2.24225,0,0,0,0,0,0,0,-1,1112,337,5.4416,2.24223
-105,687,1.17212,-2.82791,0,0,0,0,0,0,0,-1,1119,337,1.17211,2.8279
-98,687,2.10364,-2.55673,-0.0368209,0.0538588,-0.0237011,0.0596799,-0.042642,-1.32996,0.0593479,0.0466217,1126,337,2.10361,2.55672
-91,687,1.19568,-2.19208,-0.0407088,0.0574078,-0.0256538,0.0637105,-0.0470115,-1.32989,0.0641672,0.0439783,1133,337,1.19567,2.19208
-84,687,0.869629,-1.61057,-0.0450832,0.0622393,-0.0273966,0.0688283,-0.0516723,-1.33477,0.0698057,0.0415865,1140,337,0.869577,1.61056
-77,687,0.610107,-0.955353,-0.0475914,0.0669764,-0.0285435,0.0736939,-0.0543089,-1.33966,0.0741844,0.0425244,1147,337,0.610059,0.955339
-70,687,0.236084,-0.332947,0,0,0,0,0,0,0,-1,1154,337,0.236062,0.332942
-63,687,2.25684,1.03784,0,0,0,0,0,0,0,-1,1161,337,2.25682,-1.03785
-56,687,-0.759521,-0.605804,0,0,0,0,0,0,0,-1,1168,337,-0.759463,0.605803
-49,687,-1.03284,-0.0333862,0,0,0,0,0,0,0,-1,1175,337,-1.03285,0.0333943
-42,687,-1.02563,0.562653,0,0,0,0,0,0,0,-1,1182,337,-1.02564,-0.562649
-35,687,-0.2771,-0.134583,0,0,0,0,0,0,0,-1,1189,337,-0.277127,0.134571
-28,687,-1.14038,-1.39072,0,0,0,0,0,0,0,-1,1196,337,-1.14035,1.3907
-21,687,0.0356445,-1.33197,0.0743929,0.0547681,-0.0274121,0.0936959,0.035465,-0.613525,0.054625,0.0426755,1203,337,0.0356909,1.33198
-14,687,0.992798,-1.49966,0.0745013,0.0626207,-0.026765,0.0959773,0.0411447,-0.676197,0.0556,0.0435418,1210,337,0.992776,1.49966
-7,687,1.81555,-1.77783,0.0714416,0.0716724,-0.0259644,0.0975217,0.0455923,-0.78762,0.0563438,0.0453643,1217,337,1.81557,1.77784
0,687,2.6698,-1.77725,0.0677087,0.080359,-0.0265509,0.101328,0.0467399,-0.902332,0.0585601,0.0481898,1224,337,2.66977,1.77726
7,687,3.84216,-1.30356,0.062397,0.0895998,-0.0289516,0.107986,0.044011,-1.005,0.0626998,0.0468758,1231,337,3.84212,1.30355
14,687,4.93127,-0.849518,0.0582407,0.0896305,-0.0308118,0.108514,0.0393568,-1.02096,0.0634335,0.0470371,1238,337,4.93126,0.849504
21,687,6.0426,-0.506226,0,0,0,0,0,0,0,-1,1245,337,6.04256,0.506235
28,687,6.83704,-0.113586,0.0519216,0.0783567,-0.0329115,0.100606,0.0296726,-0.976344,0.0596907,0.0467757,1252,337,6.83704,0.113595
35,687,-0.245239,-1.63568,0.0501201,0.0715232,-0.033541,0.0960284,0.0256148,-0.939823,0.0574179,0.0456169,1259,337,-0.245183,1.63569
42,687,0.129639,-1.4642,0.0503438,0.0610343,-0.0335415,0.0896538,0.0217242,-0.864415,0.0540045,0.0442227,1266,337,0.129647,1.46421
49,687,1.02832,-1.38718,0.0507199,0.0481962,-0.0330707,0.0825527,0.0163633,-0.766329,0.0504728,0.0461479,1273,337,1.02832,1.38718
56,687,1.79407,-1.49274,0,0,0,0,0,0,0,-1,1280,337,1.79412,1.49274
63,687,2.22119,-1.92514,0.0515024,0.0210426,-0.0295658,0.0695303,0.00301465,-0.547564,0.0453821,0.0459109,1287,337,2.2212,1.92514
70,687,2.43652,-2.08014,0.0503659,0.0108228,-0.0265646,0.0637091,-0.00252042,-0.465483,0.0433373,0.0434018,1294,337,2.43647,2.08015
77,687,2.65381,-1.99478,0.0484753,0.0049472,-0.0217911,0.0575094,-0.00408686,-0.393009,0.0397719,0.0452774,1301,337,2.6538,1.99478
84,687,2.74329,-2.13959,0.0453911,-0.00260111,-0.0150757,0.0497338,-0.00694385,-0.280469,0.0356963,0.0437145,1308,337,2.74333,2.13959
91,687,2.73193,-2.22565,0,0,0,0,0,0,0,-1,1315,337,2.73197,2.22566
98,687,4.03442,-1.18073,0,0,0,0,0,0,0,-1,1322,337,4.03446,1.18074
105,687,3.42102,-1.58542,0,0,0,0,0,0,0,-1,1329,337,3.42104,1.58542
112,687,1.25317,-2.22528,0,0,0,0,0,0,0,-1,1336,337,1.25319,2.22527
119,687,3.49744,-1.5723,0.00695328,-0.000279623,0.000933819,0.0070719,-0.000398241,0.126347,0.00485279,0.0431076,1343,337,3.49741,1.57228
126,687,3.45557,-1.61649,-0.000984167,0.000736254,0.00331531,0.00330113,-0.00354904,0.912332,0.00395581,0.0452131,1350,337,3.45561,1.61649
133,687,3.37671,-1.70001,-0.0081755,0.00146223,0.00493656,0.003542,-0.0102553,1.17207,0.0082742,0.0494249,1357,337,3.37671,1.70001
140,687,3.00488,-1.80124,-0.0148053,0.000312763,0.00600179,0.0024057,-0.0168982,1.23526,0.0121471,0.0480441,1364,337,3.00489,1.80124
147,687,2.48779,-1.71796,-0.0211303,-0.000941483,0.00513316,0.000288698,-0.0223605,1.33558,0.0150042,0.0457141,1371,337,2.48779,1.71795
154,687,1.91016,-1.95187,0,0,0,0,0,0,0,-1,1378,337,1.91014,1.95188
161,687,3.47729,1.72116,0,0,0,0,0,0,0,-1,1385,337,3.47729,-1.72117
168,687,3.7821,0.644684,0,0,0,0,0,0,0,-1,1392,337,3.78211,-0.644686
175,687,3.76575,-0.943481,0,0,0,0,0,0,0,-1,1399,337,3.76572,0.943469
182,687,3.82715,-1.66461,0,0,0,0,0,0,0,-1,1406,337,3.82721,1.6646
189,687,3.69861,-1.97647,0,0,0,0,0,0,0,-1,1413,337,3.69858,1.97647
196,687,3.33496,-2.85345,0,0,0,0,0,0,0,-1,1420,337,3.33498,2.85346
203,687,3.00818,-3.82281,0,0,0,0,0,0,0,-1,1427,337,3.00813,3.82283
210,687,2.37683,-3.77518,0,0,0,0,0,0,0,-1,1434,337,2.37683,3.77518
217,687,1.72937,-4.21271,0,0,0,0,0,0,0,-1,1441,337,1.72943,4.21271
224,687,1.37317,-4.84454,0,0,0,0,0,0,0,-1,1448,337,1.37316,4.84455
231,687,-0.227905,-0.260315,0,0,0,0,0,0,0,-1,1455,337,-0.227912,0.260318
238,687,-0.265503,0.0633545,0,0,0,0,0,0,0,-1,1462,337,-0.265471,-0.0633528
245,687,2.63293,1.99423,0,0,0,0,0,0,0,-1,1469,337,2.63293,-1.99423
252,687,1.83765,1.95825,0,0,0,0,0,0,0,-1,1476,337,1.83761,-1.95827
259,687,0,0,0,0,0,0,0,0,0,-1,1483,337,0,0
266,687,0,0,0,0,0,0,0,0,0,-1,1490,337,0,0
273,687,0,0,0,0,0,0,0,0,0,-1,1497,337,0,0
280,687,0,0,0,0,0,0,0,0,0,-1,1504,337,0,0
287,687,0,0,0,0,0,0,0,0,0,-1,1511,337,0,0
294,687,0,0,0,0,0,0,0,0,0,-1,1518,337,0,0
301,687,0,0,0,0,0,0,0,0,0,-1,1525,337,0,0
308,687,0,0,0,0,0,0,0,0,0,-1,1532,337,0,0
315,687,0,0,0,0,0,0,0,0,0,-1,1539,337,0,0
322,687,0,0,0,0,0,0,0,0,0,-1,1546,337,0,0
329,687,0,0,0,0,0,0,0,0,0,-1,1553,337,0,0
336,687,0,0,0,0,0,0,0,0,0,-1,1560,337,0,0
343,687,0,0,0,0,0,0,0,0,0,-1,1567,337,0,0
350,687,0,0,0,0,0,0,0,0,0,-1,1574,337,0,0
357,687,0,0,0,0,0,0,0,0,0,-1,1581,337,0,0
364,687,0,0,0,0,0,0,0,0,0,-1,1588,337,0,0
371,687,0,0,0,0,0,0,0,0,0,-1,1595,337,0,0
378,687,0,0,0,0,0,0,0,0,0,-1,1602,337,0,0
385,687,0,0,0,0,0,0,0,0,0,-1,1609,337,0,0
392,687,0,0,0,0,0,0,0,0,0,-1,1616,337,0,0
399,687,0,0,0,0,0,0,0,0,0,-1,1623,337,0,0
406,687,0,0,0,0,0,0,0,0,0,-1,1630,337,0,0
413,687,0,0,0,0,0,0,0,0,0,-1,1637,337,0,0
420,687,0,0,0,0,0,0,0,0,0,-1,1644,337,0,0
427,687,0,0,0,0,0,0,0,0,0,-1,1651,337,0,0
434,687,0,0,0,0,0,0,0,0,0,-1,1658,337,0,0
441,687,0,0,0,0,0,0,0,0,0,-1,1665,337,0,0
448,687,0,0,0,0,0,0,0,0,0,-1,1672,337,0,0
455,687,0,0,0,0,0,0,0,0,0,-1,1679,337,0,0
462,687,0,0,0,0,0,0,0,0,0,-1,1686,337,0,0
469,687,0,0,0,0,0,0,0,0,0,-1,1693,337,0,0
476,687,0,0,0,0,0,0,0,0,0,-1,1700,337,0,0
483,687,0,0,0,0,0,0,0,0,0,-1,1707,337,0,0
490,687,0,0,0,0,0,0,0,0,0,-1,1714,337,0,0
497,687,0,0,0,0,0,0,0,0,0,-1,1721,337,0,0
504,687,0,0,0,0,0,0,0,0,0,-1,1728,337,0,0
511,687,0,0,0,0,0,0,0,0,0,-1,1735,337,0,0
518,687,0,0,0,0,0,0,0,0,0,-1,1742,337,0,0
525,687,0,0,0,0,0,0,0,0,0,-1,1749,337,0,0
532,687,0,0,0,0,0,0,0,0,0,-1,1756,337,0,0
539,687,0,0,0,0,0,0,0,0,0,-1,1763,337,0,0
546,687,0,0,0,0,0,0,0,0,0,-1,1770,337,0,0
553,687,0,0,0,0,0,0,0,0,0,-1,1777,337,0,0
560,687,0,0,0,0,0,0,0,0,0,-1,1784,337,0,0
567,687,0,0,0,0,0,0,0,0,0,-1,1791,337,0,0
574,687,0,0,0,0,0,0,0,0,0,-1,1798,337,0,0
581,687,0,0,0,0,0,0,0,0,0,-1,1805,337,0,0
588,687,0,0,0,0,0,0,0,0,0,-1,1812,337,0,0
595,687,0,0,0,0,0,0,0,0,0,-1,1819,337,0,0
602,687,0,0,0,0,0,0,0,0,0,-1,1826,337,0,0
609,687,0,0,0,0,0,0,0,0,0,-1,1833,337,0,0
616,687,0,0,0,0,0,0,0,0,0,-1,1840,337,0,0
623,687,0,0,0,0,0,0,0,0,0,-1,1847,337,0,0
630,687,0,0,0,0,0,0,0,0,0,-1,1854,337,0,0
637,687,0,0,0,0,0,0,0,0,0,-1,1861,337,0,0
644,687,0,0,0,0,0,0,0,0,0,-1,1868,337,0,0
651,687,0,0,0,0,0,0,0,0,0,-1,1875,337,0,0
658,687,0,0,0,0,0,0,0,0,0,-1,1882,337,0,0
665,687,0,0,0,0,0,0,0,0,0,-1,1889,337,0,0
672,687,0,0,0,0,0,0,0,0,0,-1,1896,337,0,0
679,687,0,0,0,0,0,0,0,0,0,-1,1903,337,0,0
686,687,0,0,0,0,0,0,0,0,0,-1,1910,337,0,0
693,687,0,0,0,0,0,0,0,0,0,-1,1917,337,0,0
700,687,0,0,0,0,0,0,0,0,0,-1,1924,337,0,0
707,687,0,0,0,0,0,0,0,0,0,-1,1931,337,0,0
714,687,0,0,0,0,0,0,0,0,0,-1,1938,337,0,0
721,687,0,0,0,0,0,0,0,0,0,-1,1945,337,0,0
728,687,0,0,0,0,0,0,0,0,0,-1,1952,337,0,0
735,687,0,0,0,0,0,0,0,0,0,-1,1959,337,0,0
742,687,0,0,0,0,0,0,0,0,0,-1,1966,337,0,0
749,687,0,0,0,0,0,0,0,0,0,-1,1973,337,0,0
756,687,0,0,0,0,0,0,0,0,0,-1,1980,337,0,0
763,687,0,0,0,0,0,0,0,0,0,-1,1987,337,0,0
770,687,0,0,0,0,0,0,0,0,0,-1,1994,337,0,0
777,687,0,0,0,0,0,0,0,0,0,-1,2001,337,0,0
784,687,0,0,0,0,0,0,0,0,0,-1,2008,337,0,0
791,687,0,0,0,0,0,0,0,0,0,-1,2015,337,0,0
798,687,0,0,0,0,0,0,0,0,0,-1,2022,337,0,0
805,687,0,0,0,0,0,0,0,0,0,-1,2029,337,0,0
812,687,0,0,0,0,0,0,0,0,0,-1,2036,337,0,0
-700,680,0,0,0,0,0,0,0,0,0,-1,524,344,0,0
-693,680,0,0,0,0,0,0,0,0,0,-1,531,344,0,0
-686,680,0,0,0,0,0,0,0,0,0,-1,538,344,0,0
-679,680,0,0,0,0,0,0,0,0,0,-1,545,344,0,0
-672,680,0,0,0,0,0,0,0,0,0,-1,552,344,0,0
-665,680,0,0,0,0,0,0,0,0,0,-1,559,344,0,0
-658,680,0,0,0,0,0,0,0,0,0,-1,566,344,0,0
-651,680,0,0,0,0,0,0,0,0,0,-1,573,344,0,0
-644,680,0,0,0,0,0,0,0,0,0,-1,580,344,0,0
-637,680,0,0,0,0,0,0,0,0,0,-1,587,344,0,0
-630,680,0,0,0,0,0,0,0,0,0,-1,594,344,0,0
-623,680,0,0,0,0,0,0,0,0,0,-1,601,344,0,0
-616,680,0,0,0,0,0,0,0,0,0,-1,608,344,0,0
-609,680,0,0,0,0,0,0,0,0,0,-1,615,344,0,0
-602,680,0,0,0,0,0,0,0,0,0,-1,622,344,0,0
-595,680,0,0,0,0,0,0,0,0,0,-1,629,344,0,0
-588,680,0,0,0,0,0,0,0,0,0,-1,636,344,0,0
-581,680,0,0,0,0,0,0,0,0,0,-1,643,344,0,0
-574,680,0,0,0,0,0,0,0,0,0,-1,650,344,0,0
-567,680,0,0,0,0,0,0,0,0,0,-1,657,344,0,0
-560,680,0,0,0,0,0,0,0,0,0,-1,664,344,0,0
-553,680,0,0,0,0,0,0,0,0,0,-1,671,344,0,0
-546,680,0,0,0,0,0,0,0,0,0,-1,678,344,0,0
-539,680,0,0,0,0,0,0,0,0,0,-1,685,344,0,0
-532,680,0,0,0,0,0,0,0,0,0,-1,692,344,0,0
-525,680,0,0,0,0,0,0,0,0,0,-1,699,344,0,0
-518,680,0,0,0,0,0,0,0,0,0,-1,706,344,0,0
-511,680,0,0,0,0,0,0,0,0,0,-1,713,344,0,0
-504,680,0,0,0,0,0,0,0,0,0,-1,720,344,0,0
-497,680,0,0,0,0,0,0,0,0,0,-1,727,344,0,0
-490,680,0,0,0,0,0,0,0,0,0,-1,734,344,0,0
-483,680,0,0,0,0,0,0,0,0,0,-1,741,344,0,0
-476,680,0,0,0,0,0,0,0,0,0,-1,748,344,0,0
-469,680,0,0,0,0,0,0,0,0,0,-1,755,344,0,0
-462,680,0,0,0,0,0,0,0,0,0,-1,762,344,0,0
-455,680,0,0,0,0,0,0,0,0,0,-1,769,344,0,0
-448,680,0,0,0,0,0,0,0,0,0,-1,776,344,0,0
-441,680,0,0,0,0,0,0,0,0,0,-1,783,344,0,0
-434,680,0,0,0,0,0,0,0,0,0,-1,790,344,0,0
-427,680,0,0,0,0,0,0,0,0,0,-1,797,344,0,0
-420,680,0,0,0,0,0,0,0,0,0,-1,804,344,0,0
-413,680,0,0,0,0,0,0,0,0,0,-1,811,344,0,0
-406,680,0,0,0,0,0,0,0,0,0,-1,818,344,0,0
-399,680,0,0,0,0,0,0,0,0,0,-1,825,344,0,0
-392,680,0,0,0,0,0,0,0,0,0,-1,832,344,0,0
-385,680,0,0,0,0,0,0,0,0,0,-1,839,344,0,0
-378,680,0,0,0,0,0,0,0,0,0,-1,846,344,0,0
-371,680,0,0,0,0,0,0,0,0,0,-1,853,344,0,0
-364,680,0,0,0,0,0,0,0,0,0,-1,860,344,0,0
-357,680,0,0,0,0,0,0,0,0,0,-1,867,344,0,0
-350,680,0,0,0,0,0,0,0,0,0,-1,874,344,0,0
-343,680,0,0,0,0,0,0,0,0,0,-1,881,344,0,0
-336,680,0,0,0,0,0,0,0,0,0,-1,888,344,0,0
-329,680,0,0,0,0,0,0,0,0,0,-1,895,344,0,0
-322,680,0,0,0,0,0,0,0,0,0,-1,902,344,0,0
-315,680,0,0,0,0,0,0,0,0,0,-1,909,344,0,0
-308,680,0,0,0,0,0,0,0,0,0,-1,916,344,0,0
-301,680,0,0,0,0,0,0,0,0,0,-1,923,344,0,0
-294,680,0,0,0,0,0,0,0,0,0,-1,930,344,0,0
-287,680,0,0,0,0,0,0,0,0,0,-1,937,344,0,0
-280,680,0,0,0,0,0,0,0,0,0,-1,944,344,0,0
-273,680,0,0,0,0,0,0,0,0,0,-1,951,344,0,0
-266,680,0,0,0,0,0,0,0,0,0,-1,958,344,0,0
-259,680,0,0,0,0,0,0,0,0,0,-1,965,344,0,0
-252,680,0,0,0,0,0,0,0,0,0,-1,972,344,0,0
-245,680,0,0,0,0,0,0,0,0,0,-1,979,344,0,0
-238,680,0,0,0,0,0,0,0,0,0,-1,986,344,0,0
-231,680,0,0,0,0,0,0,0,0,0,-1,993,344,0,0
-224,680,0,0,0,0,0,0,0,0,0,-1,1000,344,0,0
-217,680,0,0,0,0,0,0,0,0,0,-1,1007,344,0,0
-210,680,0,0,0,0,0,0,0,0,0,-1,1014,344,0,0
-203,680,0,0,0,0,0,0,0,0,0,-1,1021,344,0,0
-196,680,0,0,0,0,0,0,0,0,0,-1,1028,344,0,0
-189,680,0,0,0,0,0,0,0,0,0,-1,1035,344,0,0
-182,680,0,0,0,0,0,0,0,0,0,-1,1042,344,0,0
-175,680,0,0,0,0,0,0,0,0,0,-1,1049,344,0,0
-168,680,0,0,0,0,0,0,0,0,0,-1,1056,344,0,0
-161,680,0,0,0,0,0,0,0,0,0,-1,1063,344,0,0
-154,680,4.36096,-2.04324,0,0,0,0,0,0,0,-1,1070,344,4.36096,2.04326
-147,680,2.3501,-1.35474,0,0,0,0,0,0,0,-1,1077,344,2.35006,1.35475
-140,680,2.74219,-1.24466,0,0,0,0,0,0,0,-1,1084,344,2.74217,1.24465
-133,680,3.17078,-1.04889,-0.0109778,0.0279483,0.00537128,0.0286758,-0.0117053,1.43616,0.0239905,0.0406771,1091,344,3.17082,1.04888
-126,680,2.86133,-0.609497,-0.0140313,0.0310646,0.00143425,0.0311102,-0.0140769,1.53903,0.0266995,0.0404225,1098,344,2.86132,0.609486
-119,680,2.52673,-0.200775,0,0,0,0,0,0,0,-1,1105,344,2.52667,0.200783
-112,680,5.3573,-1.63071,0,0,0,0,0,0,0,-1,1112,344,5.35736,1.63069
-105,680,4.13672,-3.04187,0,0,0,0,0,0,0,-1,1119,344,4.13678,3.04188
-98,680,3.35986,-2.59174,-0.0309153,0.0414207,-0.015134,0.0444594,-0.033954,-1.37265,0.0454072,0.0447711,1126,344,3.35983,2.59174
-91,680,2.61023,-2.38684,-0.0341191,0.0435802,-0.0170202,0.047145,-0.0376839,-1.36434,0.0490774,0.0445844,1133,344,2.61017,2.38684
-84,680,1.89539,-2.13278,-0.037726,0.047059,-0.0188936,0.0510787,-0.0417457,-1.36117,0.0536824,0.0455747,1140,344,1.89535,2.13277
-77,680,1.44958,-1.59927,-0.040164,0.0501043,-0.0204334,0.0545143,-0.044574,-1.35824,0.0573045,0.0417878,1147,344,1.44961,1.59926
-70,680,1.79407,-1.19101,0,0,0,0,0,0,0,-1,1154,344,1.79411,1.19102
-63,680,2.38562,-0.131256,0,0,0,0,0,0,0,-1,1161,344,2.38559,0.131256
-56,680,-0.549072,-0.73291,0,0,0,0,0,0,0,-1,1168,344,-0.549091,0.732904
-49,680,-0.902832,-0.00689697,0,0,0,0,0,0,0,-1,1175,344,-0.902841,0.00689904
-42,680,-1.02368,0.618805,0,0,0,0,0,0,0,-1,1182,344,-1.0237,-0.618797
-35,680,-0.947876,-0.942719,0,0,0,0,0,0,0,-1,1189,344,-0.947842,0.942731
-28,680,0.246826,-1.02023,0,0,0,0,0,0,0,-1,1196,344,0.24688,1.02024
-21,680,0.979614,-1.65891,0,0,0,0,0,0,0,-1,1203,344,0.97962,1.65889
-14,680,1.62646,-1.81775,0.0547125,0.0500015,-0.0185765,0.0710823,0.0336317,-0.722336,0.0410591,0.0439625,1210,344,1.62643,1.81774
-7,680,1.91211,-1.91257,0.0526705,0.0561874,-0.0176728,0.072189,0.0366689,-0.834985,0.0416801,0.0451046,1217,344,1.91206,1.91258
0,680,2.06226,-2.05789,0.0494895,0.0624643,-0.0177412,0.0748671,0.0370867,-0.960681,0.0432252,0.0472682,1224,344,2.06229,2.05789
7,680,2.37781,-2.3118,0.0449863,0.069103,-0.0191613,0.0796844,0.0344049,-1.06624,0.0461484,0.0454459,1231,344,2.37776,2.31179
14,680,2.25012,-2.25586,0.0416051,0.0699721,-0.0207848,0.0809516,0.0306255,-1.0848,0.0471965,0.0440619,1238,344,2.25017,2.25585
21,680,7.07214,-1.25665,0,0,0,0,0,0,0,-1,1245,344,7.07219,1.25664
28,680,0.796875,-1.9068,0.0370115,0.0621163,-0.0232501,0.075986,0.0231417,-1.03292,0.0449739,0.0456231,1252,344,0.796925,1.90679
35,680,0.523438,-1.63406,0.0357693,0.0560936,-0.0240409,0.072032,0.019831,-0.985359,0.0429646,0.0438973,1259,344,0.523444,1.63406
42,680,0.934326,-1.96381,0.0362238,0.0475588,-0.0243598,0.0669016,0.0168809,-0.899693,0.0401743,0.0419253,1266,344,0.934384,1.9638
49,680,1.41919,-1.70425,0.0368709,0.0374908,-0.0242878,0.0614706,0.0128911,-0.791778,0.0374308,0.0395801,1273,344,1.41921,1.70426
56,680,1.84607,-1.75589,0.0377306,0.0265425,-0.0236329,0.0564224,0.00785061,-0.669184,0.0352904,0.04061,1280,344,1.84606,1.7559
63,680,1.89026,-1.93903,0.0380463,0.0160468,-0.0221665,0.0517923,0.00230088,-0.555084,0.0337873,0.0420367,1287,344,1.89026,1.93901
70,680,2.30566,-2.19815,0.0374961,0.00760688,-0.0200887,0.0475894,-0.00248639,-0.465595,0.0325867,0.0397248,1294,344,2.30564,2.19814
77,680,2.47974,-2.55307,0,0,0,0,0,0,0,-1,1301,344,2.47976,2.55306
84,680,1.09741,-2.27185,0,0,0,0,0,0,0,-1,1308,344,1.09739,2.27186
91,680,1.1554,-2.58585,0,0,0,0,0,0,0,-1,1315,344,1.15537,2.58584
98,680,1.80579,-2.00635,0,0,0,0,0,0,0,-1,1322,344,1.80581,2.00635
105,680,1.6842,-2.01523,0,0,0,0,0,0,0,-1,1329,344,1.68425,2.01523
112,680,1.51929,-2.2695,0,0,0,0,0,0,0,-1,1336,344,1.51925,2.2695
119,680,1.82678,-2.12024,0,0,0,0,0,0,0,-1,1343,344,1.82673,2.12023
126,680,3.08484,-1.70129,0,0,0,0,0,0,0,-1,1350,344,3.08489,1.70129
133,680,2.62549,-2.31082,0,0,0,0,0,0,0,-1,1357,344,2.62554,2.31081
140,680,2.91321,-1.67761,0,0,0,0,0,0,0,-1,1364,344,2.91317,1.67761
147,680,1.90039,-1.90485,0,0,0,0,0,0,0,-1,1371,344,1.90037,1.90485
154,680,1.87891,-1.96619,0,0,0,0,0,0,0,-1,1378,344,1.8789,1.96619
161,680,1.85742,-2.02753,0,0,0,0,0,0,0,-1,1385,344,1.85742,2.02754
168,680,3.83643,0.500031,0,0,0,0,0,0,0,-1,1392,344,3.83642,-0.500032
175,680,3.7793,-0.430511,0,0,0,0,0,0,0,-1,1399,344,3.77932,0.430523
182,680,3.69324,-1.03125,0,0,0,0,0,0,0,-1,1406,344,3.69327,1.03124
189,680,3.47351,-1.61865,0,0,0,0,0,0,0,-1,1413,344,3.47357,1.61866
196,680,2.97583,-2.49368,-0.0437387,-0.0108505,-0.0132429,-0.00618106,-0.0484081,-1.23181,0.0304218,0.0466192,1420,344,2.97588,2.49367
203,680,2.45422,-3.15213,-0.0465547,-0.00306652,-0.0142774,0.00120189,-0.0508231,-1.28029,0.0342897,0.0452736,1427,344,2.45419,3.15213
210,680,1.85303,-3.3927,-0.0488852,0.00359884,-0.0140286,0.00711324,-0.0523996,-1.32533,0.0375295,0.0453597,1434,344,1.85307,3.39269
217,680,1.18738,-3.67935,0,0,0,0,0,0,0,-1,1441,344,1.18737,3.67936
224,680,0.718872,-4.03494,0,0,0,0,0,0,0,-1,1448,344,0.718816,4.03495
231,680,0.379639,-4.54611,0,0,0,0,0,0,0,-1,1455,344,0.379654,4.54612
238,680,0.33252,0.0973816,0,0,0,0,0,0,0,-1,1462,344,0.332542,-0.0973776
245,680,0.0732422,0.227753,0,0,0,0,0,0,0,-1,1469,344,0.0733004,-0.227763
252,680,2.78271,0.35556,0,0,0,0,0,0,0,-1,1476,344,2.78269,-0.355575
259,680,3.45801,0.556854,0,0,0,0,0,0,0,-1,1483,344,3.45801,-0.556845
266,680,4.16858,0.790924,0,0,0,0,0,0,0,-1,1490,344,4.16855,-0.790912
273,680,4.63611,0.848419,0,0,0,0,0,0,0,-1,1497,344,4.63616,-0.848412
280,680,0,0,0,0,0,0,0,0,0,-1,1504,344,0,0
287,680,0,0,0,0,0,0,0,0,0,-1,1511,344,0,0
294,680,0,0,0,0,0,0,0,0,0,-1,1518,344,0,0
301,680,0,0,0,0,0,0,0,0,0,-1,1525,344,0,0
308,680,0,0,0,0,0,0,0,0,0,-1,1532,344,0,0
315,680,0,0,0,0,0,0,0,0,0,-1,1539,344,0,0
322,680,0,0,0,0,0,0,0,0,0,-1,1546,344,0,0
329,680,0,0,0,0,0,0,0,0,0,-1,1553,344,0,0
336,680,0,0,0,0,0,0,0,0,0,-1,1560,344,0,0
343,680,0,0,0,0,0,0,0,0,0,-1,1567,344,0,0
350,680,0,0,0,0,0,0,0,0,0,-1,1574,344,0,0
357,680,0,0,0,0,0,0,0,0,0,-1,1581,344,0,0
364,680,0,0,0,0,0,0,0,0,0,-1,1588,344,0,0
371,680,0,0,0,0,0,0,0,0,0,-1,1595,344,0,0
378,680,0,0,0,0,0,0,0,0,0,-1,1602,344,0,0
385,680,0,0,0,0,0,0,0,0,0,-1,1609,344,0,0
392,680,0,0,0,0,0,0,0,0,0,-1,1616,344,0,0
399,680,0,0,0,0,0,0,0,0,0,-1,1623,344,0,0
406,680,0,0,0,0,0,0,0,0,0,-1,1630,344,0,0
413,680,0,0,0,0,0,0,0,0,0,-1,1637,344,0,0
420,680,0,0,0,0,0,0,0,0,0,-1,1644,344,0,0
427,680,0,0,0,0,0,0,0,0,0,-1,1651,344,0,0
434,680,0,0,0,0,0,0,0,0,0,-1,1658,344,0,0
441,680,0,0,0,0,0,0,0,0,0,-1,1665,344,0,0
448,680,0,0,0,0,0,0,0,0,0,-1,1672,344,0,0
455,680,0,0,0,0,0,0,0,0,0,-1,1679,344,0,0
462,680,0,0,0,0,0,0,0,0,0,-1,1686,344,0,0
469,680,0,0,0,0,0,0,0,0,0,-1,1693,344,0,0
476,680,0,0,0,0,0,0,0,0,0,-1,1700,344,0,0
483,680,0,0,0,0,0,0,0,0,0,-1,1707,344,0,0
490,680,0,0,0,0,0,0,0,0,0,-1,1714,344,0,0
497,680,0,0,0,0,0,0,0,0,0,-1,1721,344,0,0
504,680,0,0,0,0,0,0,0,0,0,-1,1728,344,0,0
511,680,0,0,0,0,0,0,0,0,0,-1,1735,344,0,0
518,680,0,0,0,0,0,0,0,0,0,-1,1742,344,0,0
525,680,0,0,0,0,0,0,0,0,0,-1,1749,344,0,0
532,680,0,0,0,0,0,0,0,0,0,-1,1756,344,0,0
539,680,0,0,0,0,0,0,0,0,0,-1,1763,344,0,0
546,680,0,0,0,0,0,0,0,0,0,-1,1770,344,0,0
553,680,0,0,0,0,0,0,0,0,0,-1,1777,344,0,0
560,680,0,0,0,0,0,0,0,0,0,-1,1784,344,0,0
567,680,0,0,0,0,0,0,0,0,0,-1,1791,344,0,0
574,680,0,0,0,0,0,0,0,0,0,-1,1798,344,0,0
581,680,0,0,0,0,0,0,0,0,0,-1,1805,344,0,0
588,680,0,0,0,0,0,0,0,0,0,-1,1812,344,0,0
595,680,0,0,0,0,0,0,0,0,0,-1,1819,344,0,0
602,680,0,0,0,0,0,0,0,0,0,-1,1826,344,0,0
609,680,0,0,0,0,0,0,0,0,0,-1,1833,344,0,0
616,680,0,0,0,0,0,0,0,0,0,-1,1840,344,0,0
623,680,0,0,0,0,0,0,0,0,0,-1,1847,344,0,0
630,680,0,0,0,0,0,0,0,0,0,-1,1854,344,0,0
637,680,0,0,0,0,0,0,0,0,0,-1,1861,344,0,0
644,680,0,0,0,0,0,0,0,0,0,-1,1868,344,0,0
651,680,0,0,0,0,0,0,0,0,0,-1,1875,344,0,0
658,680,0,0,0,0,0,0,0,0,0,-1,1882,344,0,0
665,680,0,0,0,0,0,0,0,0,0,-1,1889,344,0,0
672,680,0,0,0,0,0,0,0,0,0,-1,1896,344,0,0
679,680,0,0,0,0,0,0,0,0,0,-1,1903,344,0,0
686,680,0,0,0,0,0,0,0,0,0,-1,1910,344,0,0
693,680,0,0,0,0,0,0,0,0,0,-1,1917,344,0,0
700,680,0,0,0,0,0,0,0,0,0,-1,1924,344,0,0
707,680,0,0,0,0,0,0,0,0,0,-1,1931,344,0,0
714,680,0,0,0,0,0,0,0,0,0,-1,1938,344,0,0
721,680,0,0,0,0,0,0,0,0,0,-1,1945,344,0,0
728,680,0,0,0,0,0,0,0,0,0,-1,1952,344,0,0
735,680,0,0,0,0,0,0,0,0,0,-1,1959,344,0,0
742,680,0,0,0,0,0,0,0,0,0,-1,1966,344,0,0
749,680,0,0,0,0,0,0,0,0,0,-1,1973,344,0,0
756,680,0,0,0,0,0,0,0,0,0,-1,1980,344,0,0
763,680,0,0,0,0,0,0,0,0,0,-1,1987,344,0,0
770,680,0,0,0,0,0,0,0,0,0,-1,1994,344,0,0
777,680,0,0,0,0,0,0,0,0,0,-1,2001,344,0,0
784,680,0,0,0,0,0,0,0,0,0,-1,2008,344,0,0
791,680,0,0,0,0,0,0,0,0,0,-1,2015,344,0,0
798,680,0,0,0,0,0,0,0,0,0,-1,2022,344,0,0
805,680,0,0,0,0,0,0,0,0,0,-1,2029,344,0,0
812,680,0,0,0,0,0,0,0,0,0,-1,2036,344,0,0
-700,673,0,0,0,0,0,0,0,0,0,-1,524,351,0,0
-693,673,0,0,0,0,0,0,0,0,0,-1,531,351,0,0
-686,673,0,0,0,0,0,0,0,0,0,-1,538,351,0,0
-679,673,0,0,0,0,0,0,0,0,0,-1,545,351,0,0
-672,673,0,0,0,0,0,0,0,0,0,-1,552,351,0,0
-665,673,0,0,0,0,0,0,0,0,0,-1,559,351,0,0
-658,673,0,0,0,0,0,0,0,0,0,-1,566,351,0,0
-651,673,0,0,0,0,0,0,0,0,0,-1,573,351,0,0
-644,673,0,0,0,0,0,0,0,0,0,-1,580,351,0,0
-637,673,0,0,0,0,0,0,0,0,0,-1,587,351,0,0
-630,673,0,0,0,0,0,0,0,0,0,-1,594,351,0,0
-623,673,0,0,0,0,0,0,0,0,0,-1,601,351,0,0
-616,673,0,0,0,0,0,0,0,0,0,-1,608,351,0,0
-609,673,0,0,0,0,0,0,0,0,0,-1,615,351,0,0
-602,673,0,0,0,0,0,0,0,0,0,-1,622,351,0,0
-595,673,0,0,0,0,0,0,0,0,0,-1,629,351,0,0
-588,673,0,0,0,0,0,0,0,0,0,-1,636,351,0,0
-581,673,0,0,0,0,0,0,0,0,0,-1,643,351,0,0
-574,673,0,0,0,0,0,0,0,0,0,-1,650,351,0,0
-567,673,0,0,0,0,0,0,0,0,0,-1,657,351,0,0
-560,673,0,0,0,0,0,0,0,0,0,-1,664,351,0,0
-553,673,0,0,0,0,0,0,0,0,0,-1,671,351,0,0
-546,673,0,0,0,0,0,0,0,0,0,-1,678,351,0,0
-539,673,0,0,0,0,0,0,0,0,0,-1,685,351,0,0
-532,673,0,0,0,0,0,0,0,0,0,-1,692,351,0,0
-525,673,0,0,0,0,0,0,0,0,0,-1,699,351,0,0
-518,673,0,0,0,0,0,0,0,0,0,-1,706,351,0,0
-511,673,0,0,0,0,0,0,0,0,0,-1,713,351,0,0
-504,673,0,0,0,0,0,0,0,0,0,-1,720,351,0,0
-497,673,0,0,0,0,0,0,0,0,0,-1,727,351,0,0
-490,673,0,0,0,0,0,0,0,0,0,-1,734,351,0,0
-483,673,0,0,0,0,0,0,0,0,0,-1,741,351,0,0
-476,673,0,0,0,0,0,0,0,0,0,-1,748,351,0,0
-469,673,0,0,0,0,0,0,0,0,0,-1,755,351,0,0
-462,673,0,0,0,0,0,0,0,0,0,-1,762,351,0,0
-455,673,0,0,0,0,0,0,0,0,0,-1,769,351,0,0
-448,673,0,0,0,0,0,0,0,0,0,-1,776,351,0,0
-441,673,0,0,0,0,0,0,0,0,0,-1,783,351,0,0
-434,673,0,0,0,0,0,0,0,0,0,-1,790,351,0,0
-427,673,0,0,0,0,0,0,0,0,0,-1,797,351,0,0
-420,673,0,0,0,0,0,0,0,0,0,-1,804,351,0,0
-413,673,0,0,0,0,0,0,0,0,0,-1,811,351,0,0
-406,673,0,0,0,0,0,0,0,0,0,-1,818,351,0,0
-399,673,0,0,0,0,0,0,0,0,0,-1,825,351,0,0
-392,673,0,0,0,0,0,0,0,0,0,-1,832,351,0,0
-385,673,0,0,0,0,0,0,0,0,0,-1,839,351,0,0
-378,673,0,0,0,0,0,0,0,0,0,-1,846,351,0,0
-371,673,0,0,0,0,0,0,0,0,0,-1,853,351,0,0
-364,673,0,0,0,0,0,0,0,0,0,-1,860,351,0,0
-357,673,0,0,0,0,0,0,0,0,0,-1,867,351,0,0
-350,673,0,0,0,0,0,0,0,0,0,-1,874,351,0,0
-343,673,0,0,0,0,0,0,0,0,0,-1,881,351,0,0
-336,673,0,0,0,0,0,0,0,0,0,-1,888,351,0,0
-329,673,0,0,0,0,0,0,0,0,0,-1,895,351,0,0
-322,673,0,0,0,0,0,0,0,0,0,-1,902,351,0,0
-315,673,0,0,0,0,0,0,0,0,0,-1,909,351,0,0
-308,673,0,0,0,0,0,0,0,0,0,-1,916,351,0,0
-301,673,0,0,0,0,0,0,0,0,0,-1,923,351,0,0
-294,673,0,0,0,0,0,0,0,0,0,-1,930,351,0,0
-287,673,0,0,0,0,0,0,0,0,0,-1,937,351,0,0
-280,673,0,0,0,0,0,0,0,0,0,-1,944,351,0,0
-273,673,0,0,0,0,0,0,0,0,0,-1,951,351,0,0
-266,673,0,0,0,0,0,0,0,0,0,-1,958,351,0,0
-259,673,0,0,0,0,0,0,0,0,0,-1,965,351,0,0
-252,673,0,0,0,0,0,0,0,0,0,-1,972,351,0,0
-245,673,0,0,0,0,0,0,0,0,0,-1,979,351,0,0
-238,673,0,0,0,0,0,0,0,0,0,-1,986,351,0,0
-231,673,0,0,0,0,0,0,0,0,0,-1,993,351,0,0
-224,673,0,0,0,0,0,0,0,0,0,-1,1000,351,0,0
-217,673,0,0,0,0,0,0,0,0,0,-1,1007,351,0,0
-210,673,0,0,0,0,0,0,0,0,0,-1,1014,351,0,0
-203,673,0,0,0,0,0,0,0,0,0,-1,1021,351,0,0
-196,673,0,0,0,0,0,0,0,0,0,-1,1028,351,0,0
-189,673,0,0,0,0,0,0,0,0,0,-1,1035,351,0,0
-182,673,0,0,0,0,0,0,0,0,0,-1,1042,351,0,0
-175,673,0.910645,-1.63336,0,0,0,0,0,0,0,-1,1049,351,0.910596,1.63337
-168,673,3.56946,-1.96991,0,0,0,0,0,0,0,-1,1056,351,3.56943,1.96991
-161,673,3.82019,-2.18332,0.00169123,0.0214366,0.0104888,0.0259682,-0.0028404,1.16297,0.0183324,0.0452493,1063,351,3.82023,2.18332
-154,673,4.03918,-2.16791,0.0011531,0.0207703,0.0148565,0.0287641,-0.00684066,1.07716,0.0218168,0.0477805,1070,351,4.03921,2.1679
-147,673,1.74146,-1.47974,-0.00088759,0.0204993,0.0130928,0.0267106,-0.00709893,1.12783,0.0205855,0.046715,1077,351,1.74146,1.47974
-140,673,2.20117,-1.37796,-0.00382974,0.0205006,0.0107827,0.0245914,-0.00792058,1.20818,0.0195761,0.0427691,1084,351,2.20111,1.37795
-133,673,2.62561,-1.23715,-0.00673781,0.0216097,0.00771861,0.0235751,-0.00870321,1.32146,0.019284,0.0396327,1091,351,2.62563,1.23716
-126,673,3.20532,-0.885834,-0.00976901,0.0238168,0.00461956,0.0244406,-0.0103928,1.43657,0.020649,0.0401836,1098,351,3.20532,0.885847
-119,673,4.46753,-1.43661,0,0,0,0,0,0,0,-1,1105,351,4.46759,1.43661
-112,673,5.06885,-1.35617,-0.0170822,0.0268532,-0.00169424,0.0269184,-0.0171475,-1.53231,0.0256491,0.0424386,1112,351,5.06885,1.35616
-105,673,4.36914,-0.444977,-0.0216478,0.0289807,-0.00546726,0.0295644,-0.0222314,-1.46444,0.0300041,0.0430824,1119,351,4.36919,0.44499
-98,673,4.82776,-2.21426,-0.0250566,0.0313094,-0.00883264,0.032661,-0.0264083,-1.41894,0.0341673,0.042599,1126,351,4.82781,2.21425
-91,673,4.13428,-1.68686,0,0,0,0,0,0,0,-1,1133,351,4.1343,1.68685
-84,673,2.91614,-2.3916,0,0,0,0,0,0,0,-1,1140,351,2.91611,2.39159
-77,673,2.50269,-2.05472,-0.0325791,0.0367188,-0.0139385,0.0394173,-0.0352776,-1.37956,0.0431472,0.0408577,1147,351,2.50263,2.05472
-70,673,1.94885,-1.5932,-0.0268877,0.0361563,-0.0148551,0.0394813,-0.0302126,-1.3506,0.0403563,0.0444886,1154,351,1.94883,1.5932
-63,673,1.3772,-1.29153,0,0,0,0,0,0,0,-1,1161,351,1.37725,1.29154
-56,673,-0.416016,-0.689301,0,0,0,0,0,0,0,-1,1168,351,-0.416043,0.689298
-49,673,-0.926758,-0.115448,0,0,0,0,0,0,0,-1,1175,351,-0.926732,0.115444
-42,673,-1.15015,0.289917,0,0,0,0,0,0,0,-1,1182,351,-1.15017,-0.289932
-35,673,-0.919556,-1.00711,0,0,0,0,0,0,0,-1,1189,351,-0.919514,1.00711
-28,673,0.394165,-1.08612,0,0,0,0,0,0,0,-1,1196,351,0.394209,1.08614
-21,673,1.94043,-2.00684,0,0,0,0,0,0,0,-1,1203,351,1.94049,2.00682
-14,673,1.95605,-2.0105,0.0387426,0.0385346,-0.0125067,0.0511458,0.0261314,-0.781241,0.0295314,0.0432608,1210,351,1.95602,2.0105
-7,673,1.98035,-1.99231,0.037561,0.0427466,-0.0117167,0.0521539,0.0281537,-0.894287,0.0301429,0.0388198,1217,351,1.98032,1.99231
0,673,1.97375,-1.98306,0.035148,0.0471647,-0.0115658,0.0541898,0.028123,-1.02496,0.031294,0.0404717,1224,351,1.97376,1.98305
7,673,1.91223,-1.99646,0.0316245,0.0517977,-0.0123783,0.0576786,0.0257436,-1.12727,0.0333647,0.0388445,1231,351,1.91226,1.99645
14,673,1.88977,-1.98309,0.0290101,0.052868,-0.0136504,0.0590673,0.0228108,-1.1445,0.0343958,0.03445,1238,351,1.88975,1.98308
21,673,1.90466,-1.94537,0.0270916,0.0514145,-0.0148515,0.0584485,0.0200576,-1.12847,0.0342942,0.0224565,1245,351,1.90468,1.94538
28,673,1.89587,-1.95676,0.0257209,0.0475873,-0.0159737,0.0560112,0.0172971,-1.0855,0.0331167,0.0149928,1252,351,1.89587,1.95675
35,673,1.88794,-2.0061,0.0248617,0.0427165,-0.0167909,0.0528058,0.0147725,-1.02973,0.0314579,0.0224827,1259,351,1.88791,2.00609
42,673,1.88013,-2.01398,0.0253291,0.0361271,-0.0172493,0.0488026,0.0126536,-0.937069,0.0292444,0.0275337,1266,351,1.88011,2.01397
49,673,1.87341,-2.0173,0.025981,0.0285259,-0.0173847,0.0446846,0.00982226,-0.82193,0.0271153,0.0165532,1273,351,1.8734,2.01731
56,673,1.87537,-2.01849,0.0267372,0.0202259,-0.0170821,0.0408712,0.00609195,-0.691233,0.0254609,0.0131539,1280,351,1.87535,2.01849
63,673,1.86182,-2.00964,0.0271703,0.0121194,-0.0162299,0.0375346,0.00175517,-0.568313,0.024459,0.0161082,1287,351,1.86179,2.00963
70,673,1.81775,-2.01761,0.0269947,0.00535289,-0.0148635,0.034559,-0.00221138,-0.470756,0.0238107,0.0255622,1294,351,1.81775,2.01761
77,673,1.80725,-2.07791,0.0263498,0.00132131,-0.0120041,0.0311764,-0.00350529,-0.382297,0.0220458,0.0352236,1301,351,1.8073,2.07791
84,673,1.52271,-2.15118,0.0251145,-0.00465734,-0.00789807,0.02708,-0.00662284,-0.243903,0.0206186,0.0388873,1308,351,1.52274,2.15118
91,673,1.50085,-2.31927,0.0216609,-0.00528113,-0.00546518,0.0227273,-0.00634753,-0.192705,0.017652,0.0424038,1315,351,1.50082,2.31927
98,673,1.83423,-1.99615,0.0163832,-0.00588079,-0.00331946,0.0168676,-0.00636517,-0.144898,0.0138628,0.0442916,1322,351,1.83428,1.99617
105,673,1.74756,-2.00052,0.0113995,-0.00549668,-0.00150512,0.0115326,-0.00562971,-0.0881552,0.0101021,0.0400928,1329,351,1.74752,2.0005
112,673,1.77209,-2.14441,0.00774575,-0.00462518,0.000250393,0.00775082,-0.00463024,0.0202294,0.00722349,0.038683,1336,351,1.77208,2.14441
119,673,1.86353,-2.0318,0.00350965,-0.00386909,0.00198129,0.004008,-0.00436743,0.246414,0.00483704,0.0392186,1343,351,1.86355,2.0318
126,673,2.46008,-1.8837,-0.000646456,-0.0030639,0.0033129,0.00167134,-0.0053817,0.610475,0.00425575,0.0393624,1350,351,2.46008,1.8837
133,673,2.26831,-2.12686,-0.0040746,-0.00223772,0.00433133,0.00127148,-0.0075838,0.889873,0.00552864,0.0412021,1357,351,2.2683,2.12688
140,673,1.83777,-2.01767,-0.00719342,-0.00221534,0.00515973,0.00102433,-0.0104331,1.01013,0.00732076,0.0420868,1364,351,1.83781,2.01767
147,673,1.85754,-1.92081,-0.0105854,-0.00269926,0.0049246,-0.000333654,-0.012951,1.12298,0.00852498,0.0409108,1371,351,1.8576,1.9208
154,673,1.86438,-1.94446,-0.012862,-0.00449684,0.00361393,-0.0031518,-0.014207,1.2145,0.00861511,0.0395279,1378,351,1.86435,1.94447
161,673,2.2616,-1.92093,-0.0161308,-0.00489374,0.00193291,-0.00457055,-0.0164539,1.40513,0.00980745,0.0488942,1385,351,2.26165,1.92093
168,673,2.50464,-1.91876,0,0,0,0,0,0,0,-1,1392,351,2.50467,1.91876
175,673,3.79285,0.082428,0,0,0,0,0,0,0,-1,1399,351,3.79291,-0.0824229
182,673,3.55933,-0.397888,0,0,0,0,0,0,0,-1,1406,351,3.55934,0.397874
189,673,3.08496,-1.47885,0,0,0,0,0,0,0,-1,1413,351,3.08498,1.47886
196,673,2.72913,-2.33771,-0.0300469,-0.00646954,-0.00906567,-0.00338679,-0.0331296,-1.24302,0.0210485,0.0481681,1420,351,2.72916,2.33771
203,673,2.2113,-2.85147,-0.0314686,-0.000407551,-0.00965094,0.00234683,-0.034223,-1.29279,0.0236364,0.0490794,1427,351,2.21125,2.85148
210,673,1.69519,-3.58826,-0.032854,0.00547891,-0.00922919,0.00758523,-0.0349603,-1.34642,0.0262038,0.0474905,1434,351,1.69519,3.58826
217,673,1.49695,-4.37033,0,0,0,0,0,0,0,-1,1441,351,1.4969,4.37032
224,673,0.0644531,-3.22534,0,0,0,0,0,0,0,-1,1448,351,0.0644762,3.22535
231,673,0.28418,0.15741,0,0,0,0,0,0,0,-1,1455,351,0.284156,-0.157411
238,673,1.04504,0.220551,0,0,0,0,0,0,0,-1,1462,351,1.04499,-0.220556
245,673,2.31653,-0.11618,0,0,0,0,0,0,0,-1,1469,351,2.31656,0.116177
252,673,2.9375,0.132202,0,0,0,0,0,0,0,-1,1476,351,2.93755,-0.132207
259,673,3.49915,0.338928,0,0,0,0,0,0,0,-1,1483,351,3.49918,-0.338943
266,673,4.1106,0.459839,0,0,0,0,0,0,0,-1,1490,351,4.11058,-0.459849
273,673,4.4989,0.285034,0,0,0,0,0,0,0,-1,1497,351,4.49889,-0.285041
280,673,4.88293,0.145844,0,0,0,0,0,0,0,-1,1504,351,4.88291,-0.145834
287,673,3.56726,-1.69293,0,0,0,0,0,0,0,-1,1511,351,3.56723,1.69294
294,673,3.46753,-2.30981,0,0,0,0,0,0,0,-1,1518,351,3.46757,2.30983
301,673,0,0,0,0,0,0,0,0,0,-1,1525,351,0,0
308,673,0,0,0,0,0,0,0,0,0,-1,1532,351,0,0
315,673,0,0,0,0,0,0,0,0,0,-1,1539,351,0,0
322,673,0,0,0,0,0,0,0,0,0,-1,1546,351,0,0
329,673,0,0,0,0,0,0,0,0,0,-1,1553,351,0,0
336,673,0,0,0,0,0,0,0,0,0,-1,1560,351,0,0
343,673,0,0,0,0,0,0,0,0,0,-1,1567,351,0,0
350,673,0,0,0,0,0,0,0,0,0,-1,1574,351,0,0
357,673,0,0,0,0,0,0,0,0,0,-1,1581,351,0,0
364,673,0,0,0,0,0,0,0,0,0,-1,1588,351,0,0
371,673,0,0,0,0,0,0,0,0,0,-1,1595,351,0,0
378,673,0,0,0,0,0,0,0,0,0,-1,1602,351,0,0
385,673,0,0,0,0,0,0,0,0,0,-1,1609,351,0,0
392,673,0,0,0,0,0,0,0,0,0,-1,1616,351,0,0
399,673,0,0,0,0,0,0,0,0,0,-1,1623,351,0,0
406,673,0,0,0,0,0,0,0,0,0,-1,1630,351,0,0
413,673,0,0,0,0,0,0,0,0,0,-1,1637,351,0,0
420,673,0,0,0,0,0,0,0,0,0,-1,1644,351,0,0
427,673,0,0,0,0,0,0,0,0,0,-1,1651,351,0,0
434,673,0,0,0,0,0,0,0,0,0,-1,1658,351,0,0
441,673,0,0,0,0,0,0,0,0,0,-1,1665,351,0,0
448,673,0,0,0,0,0,0,0,0,0,-1,1672,351,0,0
455,673,0,0,0,0,0,0,0,0,0,-1,1679,351,0,0
462,673,0,0,0,0,0,0,0,0,0,-1,1686,351,0,0
469,673,0,0,0,0,0,0,0,0,0,-1,1693,351,0,0
476,673,0,0,0,0,0,0,0,0,0,-1,1700,351,0,0
483,673,0,0,0,0,0,0,0,0,0,-1,1707,351,0,0
490,673,0,0,0,0,0,0,0,0,0,-1,1714,351,0,0
497,673,0,0,0,0,0,0,0,0,0,-1,1721,351,0,0
504,673,0,0,0,0,0,0,0,0,0,-1,1728,351,0,0
511,673,0,0,0,0,0,0,0,0,0,-1,1735,351,0,0
518,673,0,0,0,0,0,0,0,0,0,-1,1742,351,0,0
525,673,0,0,0,0,0,0,0,0,0,-1,1749,351,0,0
532,673,0,0,0,0,0,0,0,0,0,-1,1756,351,0,0
539,673,0,0,0,0,0,0,0,0,0,-1,1763,351,0,0
546,673,0,0,0,0,0,0,0,0,0,-1,1770,351,0,0
553,673,0,0,0,0,0,0,0,0,0,-1,1777,351,0,0
560,673,0,0,0,0,0,0,0,0,0,-1,1784,351,0,0
567,673,0,0,0,0,0,0,0,0,0,-1,1791,351,0,0
574,673,0,0,0,0,0,0,0,0,0,-1,1798,351,0,0
581,673,0,0,0,0,0,0,0,0,0,-1,1805,351,0,0
588,673,0,0,0,0,0,0,0,0,0,-1,1812,351,0,0
595,673,0,0,0,0,0,0,0,0,0,-1,1819,351,0,0
602,673,0,0,0,0,0,0,0,0,0,-1,1826,351,0,0
609,673,0,0,0,0,0,0,0,0,0,-1,1833,351,0,0
616,673,0,0,0,0,0,0,0,0,0,-1,1840,351,0,0
623,673,0,0,0,0,0,0,0,0,0,-1,1847,351,0,0
630,673,0,0,0,0,0,0,0,0,0,-1,1854,351,0,0
637,673,0,0,0,0,0,0,0,0,0,-1,1861,351,0,0
644,673,0,0,0,0,0,0,0,0,0,-1,1868,351,0,0
651,673,0,0,0,0,0,0,0,0,0,-1,1875,351,0,0
658,673,0,0,0,0,0,0,0,0,0,-1,1882,351,0,0
665,673,0,0,0,0,0,0,0,0,0,-1,1889,351,0,0
672,673,0,0,0,0,0,0,0,0,0,-1,1896,351,0,0
679,673,0,0,0,0,0,0,0,0,0,-1,1903,351,0,0
686,673,0,0,0,0,0,0,0,0,0,-1,1910,351,0,0
693,673,0,0,0,0,0,0,0,0,0,-1,1917,351,0,0
700,673,0,0,0,0,0,0,0,0,0,-1,1924,351,0,0
707,673,0,0,0,0,0,0,0,0,0,-1,1931,351,0,0
714,673,0,0,0,0,0,0,0,0,0,-1,1938,351,0,0
721,673,0,0,0,0,0,0,0,0,0,-1,1945,351,0,0
728,673,0,0,0,0,0,0,0,0,0,-1,1952,351,0,0
735,673,0,0,0,0,0,0,0,0,0,-1,1959,351,0,0
742,673,0,0,0,0,0,0,0,0,0,-1,1966,351,0,0
749,673,0,0,0,0,0,0,0,0,0,-1,1973,351,0,0
756,673,0,0,0,0,0,0,0,0,0,-1,1980,351,0,0
763,673,0,0,0,0,0,0,0,0,0,-1,1987,351,0,0
770,673,0,0,0,0,0,0,0,0,0,-1,1994,351,0,0
777,673,0,0,0,0,0,0,0,0,0,-1,2001,351,0,0
784,673,0,0,0,0,0,0,0,0,0,-1,2008,351,0,0
791,673,0,0,0,0,0,0,0,0,0,-1,2015,351,0,0
798,673,0,0,0,0,0,0,0,0,0,-1,2022,351,0,0
805,673,0,0,0,0,0,0,0,0,0,-1,2029,351,0,0
812,673,0,0,0,0,0,0,0,0,0,-1,2036,351,0,0
-700,666,0,0,0,0,0,0,0,0,0,-1,524,358,0,0
-693,666,0,0,0,0,0,0,0,0,0,-1,531,358,0,0
-686,666,0,0,0,0,0,0,0,0,0,-1,538,358,0,0
-679,666,0,0,0,0,0,0,0,0,0,-1,545,358,0,0
-672,666,0,0,0,0,0,0,0,0,0,-1,552,358,0,0
-665,666,0,0,0,0,0,0,0,0,0,-1,559,358,0,0
-658,666,0,0,0,0,0,0,0,0,0,-1,566,358,0,0
-651,666,0,0,0,0,0,0,0,0,0,-1,573,358,0,0
-644,666,0,0,0,0,0,0,0,0,0,-1,580,358,0,0
-637,666,0,0,0,0,0,0,0,0,0,-1,587,358,0,0
-630,666,0,0,0,0,0,0,0,0,0,-1,594,358,0,0
-623,666,0,0,0,0,0,0,0,0,0,-1,601,358,0,0
-616,666,0,0,0,0,0,0,0,0,0,-1,608,358,0,0
-609,666,0,0,0,0,0,0,0,0,0,-1,615,358,0,0
-602,666,0,0,0,0,0,0,0,0,0,-1,622,358,0,0
-595,666,0,0,0,0,0,0,0,0,0,-1,629,358,0,0
-588,666,0,0,0,0,0,0,0,0,0,-1,636,358,0,0
-581,666,0,0,0,0,0,0,0,0,0,-1,643,358,0,0
-574,666,0,0,0,0,0,0,0,0,0,-1,650,358,0,0
-567,666,0,0,0,0,0,0,0,0,0,-1,657,358,0,0
-560,666,0,0,0,0,0,0,0,0,0,-1,664,358,0,0
-553,666,0,0,0,0,0,0,0,0,0,-1,671,358,0,0
-546,666,0,0,0,0,0,0,0,0,0,-1,678,358,0,0
-539,666,0,0,0,0,0,0,0,0,0,-1,685,358,0,0
-532,666,0,0,0,0,0,0,0,0,0,-1,692,358,0,0
-525,666,0,0,0,0,0,0,0,0,0,-1,699,358,0,0
-518,666,0,0,0,0,0,0,0,0,0,-1,706,358,0,0
-511,666,0,0,0,0,0,0,0,0,0,-1,713,358,0,0
-504,666,0,0,0,0,0,0,0,0,0,-1,720,358,0,0
-497,666,0,0,0,0,0,0,0,0,0,-1,727,358,0,0
-490,666,0,0,0,0,0,0,0,0,0,-1,734,358,0,0
-483,666,0,0,0,0,0,0,0,0,0,-1,741,358,0,0
-476,666,0,0,0,0,0,0,0,0,0,-1,748,358,0,0
-469,666,0,0,0,0,0,0,0,0,0,-1,755,358,0,0
-462,666,0,0,0,0,0,0,0,0,0,-1,762,358,0,0
-455,666,0,0,0,0,0,0,0,0,0,-1,769,358,0,0
-448,666,0,0,0,0,0,0,0,0,0,-1,776,358,0,0
-441,666,0,0,0,0,0,0,0,0,0,-1,783,358,0,0
-434,666,0,0,0,0,0,0,0,0,0,-1,790,358,0,0
-427,666,0,0,0,0,0,0,0,0,0,-1,797,358,0,0
-420,666,0,0,0,0,0,0,0,0,0,-1,804,358,0,0
-413,666,0,0,0,0,0,0,0,0,0,-1,811,358,0,0
-406,666,0,0,0,0,0,0,0,0,0,-1,818,358,0,0
-399,666,0,0,0,0,0,0,0,0,0,-1,825,358,0,0
-392,666,0,0,0,0,0,0,0,0,0,-1,832,358,0,0
-385,666,0,0,0,0,0,0,0,0,0,-1,839,358,0,0
-378,666,0,0,0,0,0,0,0,0,0,-1,846,358,0,0
-371,666,0,0,0,0,0,0,0,0,0,-1,853,358,0,0
-364,666,0,0,0,0,0,0,0,0,0,-1,860,358,0,0
-357,666,0,0,0,0,0,0,0,0,0,-1,867,358,0,0
-350,666,0,0,0,0,0,0,0,0,0,-1,874,358,0,0
-343,666,0,0,0,0,0,0,0,0,0,-1,881,358,0,0
-336,666,0,0,0,0,0,0,0,0,0,-1,888,358,0,0
-329,666,0,0,0,0,0,0,0,0,0,-1,895,358,0,0
-322,666,0,0,0,0,0,0,0,0,0,-1,902,358,0,0
-315,666,0,0,0,0,0,0,0,0,0,-1,909,358,0,0
-308,666,0,0,0,0,0,0,0,0,0,-1,916,358,0,0
-301,666,0,0,0,0,0,0,0,0,0,-1,923,358,0,0
-294,666,0,0,0,0,0,0,0,0,0,-1,930,358,0,0
-287,666,0,0,0,0,0,0,0,0,0,-1,937,358,0,0
-280,666,0,0,0,0,0,0,0,0,0,-1,944,358,0,0
-273,666,0,0,0,0,0,0,0,0,0,-1,951,358,0,0
-266,666,0,0,0,0,0,0,0,0,0,-1,958,358,0,0
-259,666,0,0,0,0,0,0,0,0,0,-1,965,358,0,0
-252,666,0,0,0,0,0,0,0,0,0,-1,972,358,0,0
-245,666,0,0,0,0,0,0,0,0,0,-1,979,358,0,0
-238,666,0,0,0,0,0,0,0,0,0,-1,986,358,0,0
-231,666,0,0,0,0,0,0,0,0,0,-1,993,358,0,0
-224,666,0,0,0,0,0,0,0,0,0,-1,1000,358,0,0
-217,666,0,0,0,0,0,0,0,0,0,-1,1007,358,0,0
-210,666,0,0,0,0,0,0,0,0,0,-1,1014,358,0,0
-203,666,0,0,0,0,0,0,0,0,0,-1,1021,358,0,0
-196,666,-0.227051,-0.174988,0,0,0,0,0,0,0,-1,1028,358,-0.22699,0.174975
-189,666,2.23621,0.0508728,0,0,0,0,0,0,0,-1,1035,358,2.23618,-0.0508779
-182,666,1.37671,-2.00034,0,0,0,0,0,0,0,-1,1042,358,1.37676,2.00032
-175,666,1.57471,-1.26608,0,0,0,0,0,0,0,-1,1049,358,1.57466,1.26608
-168,666,1.58167,-1.17007,0,0,0,0,0,0,0,-1,1056,358,1.58164,1.17006
-161,666,3.36633,-2.30026,0.00248668,0.0164057,0.00946042,0.0211907,-0.00229836,1.10252,0.0149523,0.0471317,1063,358,3.36639,2.30025
-154,666,3.73535,-2.2829,0.00226675,0.0160643,0.012932,0.0238226,-0.00549155,1.03043,0.0179938,0.048515,1070,358,3.73536,2.28291
-147,666,4.25903,-2.31381,0.000929722,0.0158068,0.0119223,0.0224207,-0.00568424,1.06431,0.0171587,0.0471836,1077,358,4.25905,2.3138
-140,666,2.43152,-1.51044,-0.00137748,0.0157987,0.0107015,0.020932,-0.00651079,1.12353,0.0165573,0.0431725,1084,358,2.43154,1.51042
-133,666,2.31396,-1.3324,-0.00384318,0.016518,0.00858339,0.0196535,-0.00697871,1.22056,0.015946,0.0384506,1091,358,2.314,1.33241
-126,666,2.85181,-1.23453,-0.00653184,0.017996,0.00623362,0.0194893,-0.00802516,1.33567,0.0163387,0.0417397,1098,358,2.85185,1.23453
-119,666,3.61694,-1.10001,0,0,0,0,0,0,0,-1,1105,358,3.61693,1.10002
-112,666,4.25378,-1.10507,-0.0127549,0.020066,0.00154388,0.0201385,-0.0128274,1.5239,0.0191882,0.0442955,1112,358,4.25374,1.10508
-105,666,4.4425,-0.720032,-0.016689,0.0215728,-0.00151169,0.0216324,-0.0167486,-1.53137,0.022219,0.0410947,1119,358,4.44249,0.720041
-98,666,3.95593,-1.79898,0,0,0,0,0,0,0,-1,1126,358,3.95598,1.799
-91,666,3.46948,-1.87851,-0.0215748,0.0238045,-0.00590347,0.0245599,-0.0223303,-1.44353,0.0270822,0.0453649,1133,358,3.46948,1.87851
-84,666,2.89355,-1.88934,-0.0236448,0.0253707,-0.00748227,0.0264875,-0.0247616,-1.42264,0.0295942,0.0448439,1140,358,2.89351,1.88935
-77,666,2.47803,-1.81918,-0.0254309,0.0263402,-0.00894489,0.0278421,-0.0269328,-1.40444,0.0316258,0.040646,1147,358,2.47801,1.81918
-70,666,1.95276,-1.77307,-0.0224401,0.0260145,-0.00995598,0.0279804,-0.024406,-1.37585,0.0302688,0.0415886,1154,358,1.95277,1.77306
-63,666,1.21716,-1.51889,-0.0149806,0.0248455,-0.0110164,0.0276897,-0.0178247,-1.31814,0.0264827,0.0481418,1161,358,1.21711,1.5189
-56,666,0.377441,-1.35822,0,0,0,0,0,0,0,-1,1168,358,0.377395,1.35822
-49,666,1.01306,-1.616,0,0,0,0,0,0,0,-1,1175,358,1.01302,1.61599
-42,666,1.46362,-1.95837,0,0,0,0,0,0,0,-1,1182,358,1.46362,1.95839
-35,666,1.79907,-2.05295,0,0,0,0,0,0,0,-1,1189,358,1.79902,2.05294
-28,666,1.92334,-1.95129,0,0,0,0,0,0,0,-1,1196,358,1.92339,1.95131
-21,666,1.94299,-1.96786,0.0257261,0.0256878,-0.00822137,0.0339283,0.0174855,-0.784233,0.0195916,0.0299617,1203,358,1.94303,1.96787
-14,666,1.94702,-2.00317,0.0263856,0.0285285,-0.00814908,0.0356763,0.0192379,-0.850764,0.0206189,0.0233103,1210,358,1.94703,2.00318
-7,666,1.92004,-1.98935,0.0258401,0.0314088,-0.00752713,0.0366501,0.0205988,-0.962549,0.0212141,0.0165076,1217,358,1.92005,1.98936
0,666,1.94824,-1.97687,0.0241759,0.0344827,-0.0073155,0.0382777,0.0203809,-1.09225,0.0221151,0.0111408,1224,358,1.94823,1.97688
7,666,1.91492,-1.97711,0.0216035,0.0376511,-0.00776625,0.040794,0.0184606,-1.18625,0.0235878,0.0125621,1231,358,1.91497,1.97712
14,666,1.9043,-1.98056,0.0196952,0.0386526,-0.00870229,0.0420415,0.0163063,-1.19944,0.0244753,0.0132746,1238,358,1.90431,1.98057
21,666,1.91785,-1.99033,0.0183488,0.0378587,-0.00967682,0.0418442,0.0143633,-1.18011,0.0245513,0.0103533,1245,358,1.91786,1.99031
28,666,1.92639,-2.01791,0.0174086,0.0352383,-0.0106561,0.0402168,0.01243,-1.13373,0.0237768,0.00996525,1252,358,1.92636,2.01791
35,666,1.92163,-2.01346,0.0168114,0.031547,-0.0114071,0.0377589,0.0105995,-1.07214,0.0224881,0.00886947,1259,358,1.92166,2.01347
42,666,1.9209,-2.0126,0.0171869,0.026679,-0.0118836,0.0347293,0.0091367,-0.975383,0.0207877,0.0108953,1266,358,1.92092,2.01261
49,666,1.90625,-2.00964,0.0177153,0.021138,-0.0121001,0.0316472,0.00720608,-0.855649,0.0191534,0.00999888,1273,358,1.90629,2.00963
56,666,1.90625,-2.01758,0.0182903,0.0150518,-0.0120098,0.0287895,0.00455259,-0.718389,0.0178698,0.0110308,1280,358,1.90622,2.01759
63,666,1.91394,-2.02371,0.0187078,0.00898906,-0.0115709,0.0263983,0.00129856,-0.586599,0.0171824,0.0124303,1287,358,1.91392,2.02371
70,666,1.89209,-2.01733,0.0187328,0.00374716,-0.0107223,0.0243208,-0.00184089,-0.480435,0.016861,0.0128176,1294,358,1.89209,2.01735
77,666,1.87305,-2.03088,0.0184096,0.000582199,-0.00860823,0.0218877,-0.00289586,-0.383983,0.0156466,0.0153316,1301,358,1.87299,2.03088
84,666,1.88049,-2.04504,0.0177093,-0.00435487,-0.00555597,0.0190294,-0.00567494,-0.233269,0.0149416,0.0209195,1308,358,1.88044,2.04504
91,666,1.90405,-2.02466,0.0152749,-0.00498709,-0.00364345,0.0159101,-0.00562233,-0.172616,0.0128961,0.0203639,1315,358,1.90405,2.02467
98,666,1.87231,-1.99365,0.0114024,-0.00550033,-0.00198071,0.0116314,-0.00572934,-0.115105,0.0102145,0.0172987,1322,358,1.87232,1.99364
105,666,1.8208,-1.96634,0.0077956,-0.00525611,-0.00062976,0.00782592,-0.00528642,-0.0481022,0.00761759,0.0182786,1329,358,1.82076,1.96634
112,666,1.8147,-1.96671,0.00531678,-0.00459068,0.000669843,0.00536187,-0.00463576,0.0672024,0.00577721,0.0214955,1336,358,1.81471,1.9667
119,666,1.85999,-1.94849,0.00240078,-0.0039803,0.00195696,0.00295314,-0.00453266,0.275094,0.00435388,0.0232865,1343,358,1.85993,1.94848
126,666,1.89917,-1.95181,-0.000414744,-0.00330678,0.00292076,0.00139835,-0.00511988,0.555545,0.00396249,0.0250206,1350,358,1.89911,1.95183
133,666,1.90173,-1.95898,-0.00261587,-0.00256538,0.00370095,0.00111042,-0.00629166,0.788809,0.00460938,0.0221595,1357,358,1.90172,1.95899
140,666,1.87305,-1.96738,-0.00458885,-0.00230923,0.00436889,0.00106609,-0.00796417,0.913,0.00569815,0.0207975,1364,358,1.87309,1.96736
147,666,1.87976,-1.92191,-0.00688621,-0.00258196,0.00425898,3.77675e-05,-0.00950594,1.01934,0.00634992,0.0204273,1371,358,1.87979,1.92191
154,666,1.86365,-1.92377,-0.00844077,-0.0038325,0.00333998,-0.00207899,-0.0101943,1.08734,0.0062201,0.0181614,1378,358,1.86361,1.92378
161,666,1.86658,-1.94101,-0.0107343,-0.00407374,0.00214637,-0.00344199,-0.0113661,1.28455,0.00673012,0.0227651,1385,358,1.86657,1.941
168,666,2.104,-1.97232,-0.0129571,-0.00470678,0.000676575,-0.00465167,-0.0130122,1.48951,0.00761362,0.042295,1392,358,2.10406,1.97232
175,666,1.96838,-2.06683,0,0,0,0,0,0,0,-1,1399,358,1.9684,2.06682
182,666,2.07727,-2.0343,0,0,0,0,0,0,0,-1,1406,358,2.0773,2.0343
189,666,2.2417,-1.95459,0,0,0,0,0,0,0,-1,1413,358,2.24171,1.9546
196,666,2.48206,-2.03784,0,0,0,0,0,0,0,-1,1420,358,2.48201,2.03785
203,666,2.72229,-2.12109,0,0,0,0,0,0,0,-1,1427,358,2.72232,2.12111
210,666,1.97021,-1.86508,0,0,0,0,0,0,0,-1,1434,358,1.97021,1.86507
217,666,1.46033,-1.49469,0,0,0,0,0,0,0,-1,1441,358,1.46033,1.4947
224,666,1.25525,-1.52783,0,0,0,0,0,0,0,-1,1448,358,1.25527,1.52783
231,666,1.18933,-1.55984,0,0,0,0,0,0,0,-1,1455,358,1.18938,1.55984
238,666,1.13147,-1.57645,0,0,0,0,0,0,0,-1,1462,358,1.13147,1.57645
245,666,2.48071,-0.714935,0,0,0,0,0,0,0,-1,1469,358,2.48077,0.714942
252,666,2.47656,-0.125702,0,0,0,0,0,0,0,-1,1476,358,2.47657,0.1257
259,666,2.50562,0.484192,0,0,0,0,0,0,0,-1,1483,358,2.50562,-0.484195
266,666,4.08521,0.0653076,0,0,0,0,0,0,0,-1,1490,358,4.08523,-0.0653192
273,666,4.44214,-0.0153809,0,0,0,0,0,0,0,-1,1497,358,4.44214,0.0153819
280,666,2.9823,-1.03427,0,0,0,0,0,0,0,-1,1504,358,2.98233,1.03427
287,666,2.95227,-1.68588,0,0,0,0,0,0,0,-1,1511,358,2.95222,1.68589
294,666,3.22644,-2.73718,0,0,0,0,0,0,0,-1,1518,358,3.22648,2.73717
301,666,1.34534,-1.91937,0,0,0,0,0,0,0,-1,1525,358,1.34534,1.91936
308,666,1.08496,-1.87576,0,0,0,0,0,0,0,-1,1532,358,1.08491,1.87575
315,666,0.67981,-1.57803,0,0,0,0,0,0,0,-1,1539,358,0.679754,1.57803
322,666,0,0,0,0,0,0,0,0,0,-1,1546,358,0,0
329,666,0,0,0,0,0,0,0,0,0,-1,1553,358,0,0
336,666,0,0,0,0,0,0,0,0,0,-1,1560,358,0,0
343,666,0,0,0,0,0,0,0,0,0,-1,1567,358,0,0
350,666,0,0,0,0,0,0,0,0,0,-1,1574,358,0,0
357,666,0,0,0,0,0,0,0,0,0,-1,1581,358,0,0
364,666,0,0,0,0,0,0,0,0,0,-1,1588,358,0,0
371,666,0,0,0,0,0,0,0,0,0,-1,1595,358,0,0
378,666,0,0,0,0,0,0,0,0,0,-1,1602,358,0,0
385,666,0,0,0,0,0,0,0,0,0,-1,1609,358,0,0
392,666,0,0,0,0,0,0,0,0,0,-1,1616,358,0,0
399,666,0,0,0,0,0,0,0,0,0,-1,1623,358,0,0
406,666,0,0,0,0,0,0,0,0,0,-1,1630,358,0,0
413,666,0,0,0,0,0,0,0,0,0,-1,1637,358,0,0
420,666,0,0,0,0,0,0,0,0,0,-1,1644,358,0,0
427,666,0,0,0,0,0,0,0,0,0,-1,1651,358,0,0
434,666,0,0,0,0,0,0,0,0,0,-1,1658,358,0,0
441,666,0,0,0,0,0,0,0,0,0,-1,1665,358,0,0
448,666,0,0,0,0,0,0,0,0,0,-1,1672,358,0,0
455,666,0,0,0,0,0,0,0,0,0,-1,1679,358,0,0
462,666,0,0,0,0,0,0,0,0,0,-1,1686,358,0,0
469,666,0,0,0,0,0,0,0,0,0,-1,1693,358,0,0
476,666,0,0,0,0,0,0,0,0,0,-1,1700,358,0,0
483,666,0,0,0,0,0,0,0,0,0,-1,1707,358,0,0
490,666,0,0,0,0,0,0,0,0,0,-1,1714,358,0,0
497,666,0,0,0,0,0,0,0,0,0,-1,1721,358,0,0
504,666,0,0,0,0,0,0,0,0,0,-1,1728,358,0,0
511,666,0,0,0,0,0,0,0,0,0,-1,1735,358,0,0
518,666,0,0,0,0,0,0,0,0,0,-1,1742,358,0,0
525,666,0,0,0,0,0,0,0,0,0,-1,1749,358,0,0
532,666,0,0,0,0,0,0,0,0,0,-1,1756,358,0,0
539,666,0,0,0,0,0,0,0,0,0,-1,1763,358,0,0
546,666,0,0,0,0,0,0,0,0,0,-1,1770,358,0,0
553,666,0,0,0,0,0,0,0,0,0,-1,1777,358,0,0
560,666,0,0,0,0,0,0,0,0,0,-1,1784,358,0,0
567,666,0,0,0,0,0,0,0,0,0,-1,1791,358,0,0
574,666,0,0,0,0,0,0,0,0,0,-1,1798,358,0,0
581,666,0,0,0,0,0,0,0,0,0,-1,1805,358,0,0
588,666,0,0,0,0,0,0,0,0,0,-1,1812,358,0,0
595,666,0,0,0,0,0,0,0,0,0,-1,1819,358,0,0
602,666,0,0,0,0,0,0,0,0,0,-1,1826,358,0,0
609,666,0,0,0,0,0,0,0,0,0,-1,1833,358,0,0
616,666,0,0,0,0,0,0,0,0,0,-1,1840,358,0,0
623,666,0,0,0,0,0,0,0,0,0,-1,1847,358,0,0
630,666,0,0,0,0,0,0,0,0,0,-1,1854,358,0,0
637,666,0,0,0,0,0,0,0,0,0,-1,1861,358,0,0
644,666,0,0,0,0,0,0,0,0,0,-1,1868,358,0,0
651,666,0,0,0,0,0,0,0,0,0,-1,1875,358,0,0
658,666,0,0,0,0,0,0,0,0,0,-1,1882,358,0,0
665,666,0,0,0,0,0,0,0,0,0,-1,1889,358,0,0
672,666,0,0,0,0,0,0,0,0,0,-1,1896,358,0,0
679,666,0,0,0,0,0,0,0,0,0,-1,1903,358,0,0
686,666,0,0,0,0,0,0,0,0,0,-1,1910,358,0,0
693,666,0,0,0,0,0,0,0,0,0,-1,1917,358,0,0
700,666,0,0,0,0,0,0,0,0,0,-1,1924,358,0,0
707,666,0,0,0,0,0,0,0,0,0,-1,1931,358,0,0
714,666,0,0,0,0,0,0,0,0,0,-1,1938,358,0,0
721,666,0,0,0,0,0,0,0,0,0,-1,1945,358,0,0
728,666,0,0,0,0,0,0,0,0,0,-1,1952,358,0,0
735,666,0,0,0,0,0,0,0,0,0,-1,1959,358,0,0
742,666,0,0,0,0,0,0,0,0,0,-1,1966,358,0,0
749,666,0,0,0,0,0,0,0,0,0,-1,1973,358,0,0
756,666,0,0,0,0,0,0,0,0,0,-1,1980,358,0,0
763,666,0,0,0,0,0,0,0,0,0,-1,1987,358,0,0
770,666,0,0,0,0,0,0,0,0,0,-1,1994,358,0,0
777,666,0,0,0,0,0,0,0,0,0,-1,2001,358,0,0
784,666,0,0,0,0,0,0,0,0,0,-1,2008,358,0,0
791,666,0,0,0,0,0,0,0,0,0,-1,2015,358,0,0
798,666,0,0,0,0,0,0,0,0,0,-1,2022,358,0,0
805,666,0,0,0,0,0,0,0,0,0,-1,2029,358,0,0
812,666,0,0,0,0,0,0,0,0,0,-1,2036,358,0,0
-700,659,0,0,0,0,0,0,0,0,0,-1,524,365,0,0
-693,659,0,0,0,0,0,0,0,0,0,-1,531,365,0,0
-686,659,0,0,0,0,0,0,0,0,0,-1,538,365,0,0
-679,659,0,0,0,0,0,0,0,0,0,-1,545,365,0,0
-672,659,0,0,0,0,0,0,0,0,0,-1,552,365,0,0
-665,659,0,0,0,0,0,0,0,0,0,-1,559,365,0,0
-658,659,0,0,0,0,0,0,0,0,0,-1,566,365,0,0
-651,659,0,0,0,0,0,0,0,0,0,-1,573,365,0,0
-644,659,0,0,0,0,0,0,0,0,0,-1,580,365,0,0
-637,659,0,0,0,0,0,0,0,0,0,-1,587,365,0,0
-630,659,0,0,0,0,0,0,0,0,0,-1,594,365,0,0
-623,659,0,0,0,0,0,0,0,0,0,-1,601,365,0,0
-616,659,0,0,0,0,0,0,0,0,0,-1,608,365,0,0
-609,659,0,0,0,0,0,0,0,0,0,-1,615,365,0,0
-602,659,0,0,0,0,0,0,0,0,0,-1,622,365,0,0
-595,659,0,0,0,0,0,0,0,0,0,-1,629,365,0,0
-588,659,0,0,0,0,0,0,0,0,0,-1,636,365,0,0
-581,659,0,0,0,0,0,0,0,0,0,-1,643,365,0,0
-574,659,0,0,0,0,0,0,0,0,0,-1,650,365,0,0
-567,659,0,0,0,0,0,0,0,0,0,-1,657,365,0,0
-560,659,0,0,0,0,0,0,0,0,0,-1,664,365,0,0
-553,659,0,0,0,0,0,0,0,0,0,-1,671,365,0,0
-546,659,0,0,0,0,0,0,0,0,0,-1,678,365,0,0
-539,659,0,0,0,0,0,0,0,0,0,-1,685,365,0,0
-532,659,0,0,0,0,0,0,0,0,0,-1,692,365,0,0
-525,659,0,0,0,0,0,0,0,0,0,-1,699,365,0,0
-518,659,0,0,0,0,0,0,0,0,0,-1,706,365,0,0
-511,659,0,0,0,0,0,0,0,0,0,-1,713,365,0,0
-504,659,0,0,0,0,0,0,0,0,0,-1,720,365,0,0
-497,659,0,0,0,0,0,0,0,0,0,-1,727,365,0,0
-490,659,0,0,0,0,0,0,0,0,0,-1,734,365,0,0
-483,659,0,0,0,0,0,0,0,0,0,-1,741,365,0,0
-476,659,0,0,0,0,0,0,0,0,0,-1,748,365,0,0
-469,659,0,0,0,0,0,0,0,0,0,-1,755,365,0,0
-462,659,0,0,0,0,0,0,0,0,0,-1,762,365,0,0
-455,659,0,0,0,0,0,0,0,0,0,-1,769,365,0,0
-448,659,0,0,0,0,0,0,0,0,0,-1,776,365,0,0
-441,659,0,0,0,0,0,0,0,0,0,-1,783,365,0,0
-434,659,0,0,0,0,0,0,0,0,0,-1,790,365,0,0
-427,659,0,0,0,0,0,0,0,0,0,-1,797,365,0,0
-420,659,0,0,0,0,0,0,0,0,0,-1,804,365,0,0
-413,659,0,0,0,0,0,0,0,0,0,-1,811,365,0,0
-406,659,0,0,0,0,0,0,0,0,0,-1,818,365,0,0
-399,659,0,0,0,0,0,0,0,0,0,-1,825,365,0,0
-392,659,0,0,0,0,0,0,0,0,0,-1,832,365,0,0
-385,659,0,0,0,0,0,0,0,0,0,-1,839,365,0,0
-378,659,0,0,0,0,0,0,0,0,0,-1,846,365,0,0
-371,659,0,0,0,0,0,0,0,0,0,-1,853,365,0,0
-364,659,0,0,0,0,0,0,0,0,0,-1,860,365,0,0
-357,659,0,0,0,0,0,0,0,0,0,-1,867,365,0,0
-350,659,0,0,0,0,0,0,0,0,0,-1,874,365,0,0
-343,659,0,0,0,0,0,0,0,0,0,-1,881,365,0,0
-336,659,0,0,0,0,0,0,0,0,0,-1,888,365,0,0
-329,659,0,0,0,0,0,0,0,0,0,-1,895,365,0,0
-322,659,0,0,0,0,0,0,0,0,0,-1,902,365,0,0
-315,659,0,0,0,0,0,0,0,0,0,-1,909,365,0,0
-308,659,0,0,0,0,0,0,0,0,0,-1,916,365,0,0
-301,659,0,0,0,0,0,0,0,0,0,-1,923,365,0,0
-294,659,0,0,0,0,0,0,0,0,0,-1,930,365,0,0
-287,659,0,0,0,0,0,0,0,0,0,-1,937,365,0,0
-280,659,0,0,0,0,0,0,0,0,0,-1,944,365,0,0
-273,659,0,0,0,0,0,0,0,0,0,-1,951,365,0,0
-266,659,0,0,0,0,0,0,0,0,0,-1,958,365,0,0
-259,659,0,0,0,0,0,0,0,0,0,-1,965,365,0,0
-252,659,0,0,0,0,0,0,0,0,0,-1,972,365,0,0
-245,659,0,0,0,0,0,0,0,0,0,-1,979,365,0,0
-238,659,0,0,0,0,0,0,0,0,0,-1,986,365,0,0
-231,659,0,0,0,0,0,0,0,0,0,-1,993,365,0,0
-224,659,0,0,0,0,0,0,0,0,0,-1,1000,365,0,0
-217,659,5.98083,0.869995,0,0,0,0,0,0,0,-1,1007,365,5.98085,-0.870008
-210,659,6.79291,0.386017,0,0,0,0,0,0,0,-1,1014,365,6.79293,-0.38601
-203,659,1.5495,1.7124,0,0,0,0,0,0,0,-1,1021,365,1.54952,-1.7124
-196,659,2.15637,1.96878,0,0,0,0,0,0,0,-1,1028,365,2.15632,-1.96878
-189,659,2.06714,-2.26767,0,0,0,0,0,0,0,-1,1035,365,2.06718,2.26767
-182,659,2.22351,-1.58841,0,0,0,0,0,0,0,-1,1042,365,2.2235,1.5884
-175,659,1.849,-1.4147,0.00162151,0.0121596,0.000106523,0.0121607,0.00162044,1.56069,0.0076246,0.0457041,1049,365,1.849,1.41471
-168,659,1.7041,-1.47141,0.00237784,0.0125175,0.00409899,0.0139673,0.000928095,1.23084,0.00901807,0.0463673,1056,365,1.70411,1.47142
-161,659,2.87549,-2.13797,0.00245677,0.012614,0.00806808,0.0170688,-0.00199805,1.0663,0.0121003,0.0469172,1063,365,2.8755,2.13796
-154,659,3.3186,-2.09763,0.00249597,0.012401,0.0108458,0.0193715,-0.00447459,0.999574,0.0146357,0.0463516,1070,365,3.31859,2.09762
-147,659,3.83521,-2.15955,0.00171658,0.0121228,0.0103613,0.018514,-0.00467463,1.01809,0.0141604,0.0460698,1077,365,3.83524,2.15956
-140,659,2.41565,-1.26978,1.13083e-05,0.0120531,0.00987224,0.0175956,-0.00553119,1.05923,0.0139447,0.0429119,1084,365,2.41568,1.26977
-133,659,2.24902,-1.38803,-0.00194958,0.0124483,0.00846146,0.0163589,-0.00586014,1.13787,0.0132969,0.0419616,1091,365,2.24903,1.38802
-126,659,2.18494,-1.50851,-0.00415983,0.0133647,0.00673606,0.0156546,-0.00644981,1.2431,0.0131257,0.042622,1098,365,2.1849,1.50851
-119,659,2.76624,-0.763428,0,0,0,0,0,0,0,-1,1105,365,2.76628,0.763437
-112,659,3.42212,-0.80072,0,0,0,0,0,0,0,-1,1112,365,3.42213,0.800732
-105,659,4.28662,-0.804596,0,0,0,0,0,0,0,-1,1119,365,4.2866,0.804596
-98,659,1.9292,-1.80554,-0.0148773,0.0169209,-0.00141343,0.0169837,-0.01494,-1.52646,0.0184437,0.0421778,1126,365,1.92919,1.80555
-91,659,2.20386,-1.70654,-0.0162935,0.0171001,-0.00275377,0.0173256,-0.0165191,-1.48907,0.0195421,0.040227,1133,365,2.2038,1.70654
-84,659,2.30164,-1.68558,-0.017712,0.0180625,-0.00407983,0.0185219,-0.0181713,-1.45867,0.0211852,0.0379538,1140,365,2.30164,1.68558
-77,659,2.15234,-1.75754,-0.0190897,0.0184798,-0.00532839,0.0192209,-0.0198307,-1.4326,0.0225474,0.0329351,1147,365,2.15231,1.75753
-70,659,1.9137,-1.85416,-0.0176583,0.0181846,-0.006291,0.0192567,-0.0187304,-1.402,0.0219326,0.0283123,1154,365,1.91371,1.85416
-63,659,1.72876,-1.8468,-0.0127613,0.0174445,-0.00717196,0.0190609,-0.0143777,-1.34912,0.0193688,0.032087,1161,365,1.72878,1.84679
-56,659,1.54797,-1.77905,-0.00732111,0.0167868,-0.00838034,0.0194137,-0.00994803,-1.26704,0.0172431,0.035875,1168,365,1.54794,1.77904
-49,659,1.63672,-1.84055,-0.00179698,0.0154266,-0.00829138,0.0187693,-0.00513968,-1.18757,0.0145323,0.0379243,1175,365,1.63675,1.84055
-42,659,1.79236,-1.95166,0.00362151,0.0151756,-0.00562098,0.0174589,0.00133817,-1.18494,0.0112198,0.0335989,1182,365,1.79239,1.95165
-35,659,1.89893,-1.98547,0.00949809,0.0154548,-0.00452431,0.0178931,0.00705982,-1.07649,0.0104069,0.02181,1189,365,1.89894,1.98546
-28,659,1.91846,-1.96725,0.0142741,0.0146129,-0.00423581,0.0186827,0.0102043,-0.805381,0.0108018,0.0127063,1196,365,1.91851,1.96726
-21,659,1.92944,-1.94867,0.0166058,0.0182269,-0.00518793,0.0226672,0.0121655,-0.862894,0.0130987,0.0106813,1203,365,1.92945,1.94868
-14,659,1.93213,-1.97137,0.0172561,0.0202529,-0.00514534,0.0241136,0.0133954,-0.927088,0.0139506,0.00800713,1210,365,1.93207,1.97137
-7,659,1.93103,-1.98953,0.0171219,0.0222168,-0.00467923,0.0249971,0.0143417,-1.03467,0.0144843,0.00816126,1217,365,1.93108,1.98953
0,659,1.92725,-1.99359,0.0160724,0.0243314,-0.00447793,0.0262933,0.0141105,-1.15787,0.015194,0.00734093,1224,365,1.92725,1.9936
7,659,1.90942,-1.98999,0.0143103,0.0264578,-0.0047199,0.0280761,0.012692,-1.24049,0.0162346,0.00632361,1231,365,1.9094,1.99
14,659,1.91272,-1.98386,0.0129837,0.0273586,-0.00537589,0.0291466,0.0111957,-1.2497,0.0169778,0.00936651,1238,365,1.91268,1.98387
21,659,1.91943,-1.99643,0.0120666,0.0270316,-0.00610386,0.0292054,0.00989274,-1.22866,0.0171516,0.0106246,1245,365,1.91949,1.99644
28,659,1.92395,-2.01584,0.0114339,0.0253218,-0.00688161,0.0281541,0.00860164,-1.18035,0.0166596,0.00935754,1252,365,1.92391,2.01585
35,659,1.91553,-2.0209,0.0110144,0.0226717,-0.00750225,0.0263434,0.00734266,-1.11565,0.015698,0.00865774,1259,365,1.91551,2.02091
42,659,1.91272,-2.02975,0.0112723,0.019196,-0.00791411,0.0240846,0.00638377,-1.01746,0.0144078,0.00969447,1266,365,1.91269,2.02974
49,659,1.90588,-2.03421,0.0116403,0.0152687,-0.00811704,0.0217718,0.00513717,-0.895342,0.0131412,0.0110897,1273,365,1.90594,2.03422
56,659,1.89795,-2.02567,0.0120251,0.0109165,-0.0081179,0.0196076,0.003334,-0.751309,0.0121143,0.0146593,1280,365,1.89793,2.02566
63,659,1.90637,-2.03085,0.0123573,0.00649351,-0.00791429,0.0178653,0.00098549,-0.608009,0.0115957,0.0155808,1287,365,1.90633,2.03085
70,659,1.927,-2.03848,0.0124577,0.00254566,-0.00740766,0.0164144,-0.00141097,-0.490576,0.0114423,0.0158265,1294,365,1.92696,2.03847
77,659,1.90686,-2.01666,0.0123158,0.000142161,-0.00587845,0.014691,-0.00223302,-0.383992,0.0106169,0.0157253,1301,365,1.90687,2.01666
84,659,1.90198,-2.03116,0.0119525,-0.00378277,-0.0036721,0.0127673,-0.00459753,-0.218341,0.0103889,0.011848,1308,365,1.90201,2.03115
91,659,1.89087,-2.0257,0.010287,-0.00434698,-0.00222347,0.0106174,-0.00467735,-0.147505,0.00904971,0.0102323,1315,365,1.89092,2.02568
98,659,1.89087,-2.0242,0.00754529,-0.00474484,-0.000990995,0.00762468,-0.00482424,-0.0799451,0.00724775,0.00737207,1322,365,1.89086,2.02419
105,659,1.88782,-2.01025,0.00503304,-0.00457392,-3.79013e-05,0.00503319,-0.00457407,-0.00394511,0.00554886,0.00833523,1329,365,1.88776,2.01024
112,659,1.88477,-1.99231,0.00344014,-0.00405792,0.000873245,0.0035405,-0.00415827,0.114423,0.00444965,0.00959111,1336,365,1.88481,1.99231
119,659,1.89502,-1.99356,0.00157204,-0.0035453,0.00176288,0.00212054,-0.00409381,0.301647,0.00364765,0.0108892,1343,365,1.89502,1.99357
126,659,1.89502,-1.99429,-0.000196506,-0.0029829,0.00239655,0.00118238,-0.00436179,0.522107,0.00337181,0.0121139,1350,365,1.89507,1.9943
133,659,1.88611,-1.98309,-0.00152286,-0.00237259,0.0029723,0.00105479,-0.00495024,0.714408,0.00370219,0.0106651,1357,365,1.88612,1.98308
140,659,1.87317,-1.96176,-0.00268469,-0.00203343,0.00348732,0.00114343,-0.00586155,0.831951,0.00433936,0.00882372,1364,365,1.87312,1.96176
147,659,1.86951,-1.94119,-0.0041594,-0.00216108,0.00344929,0.000430852,-0.00675133,0.926375,0.00465116,0.00843231,1371,365,1.86954,1.9412
154,659,1.86023,-1.92999,-0.00518067,-0.00298214,0.00282835,-0.00104695,-0.00711586,0.970744,0.0044363,0.00933869,1378,365,1.86019,1.93
161,659,1.87891,-1.93698,-0.00672903,-0.00310031,0.00201491,-0.00220325,-0.00762608,1.15193,0.00453183,0.0102739,1385,365,1.87886,1.93699
168,659,1.8916,-1.95016,-0.00821806,-0.00338131,0.0010012,-0.00318226,-0.00841712,1.37454,0.00490755,0.0141267,1392,365,1.89164,1.95016
175,659,1.89819,-1.96552,-0.0100581,-0.00355025,-0.000289731,-0.00353738,-0.010071,-1.52639,0.00589963,0.0191288,1399,365,1.8982,1.96551
182,659,1.94556,-1.952,-0.0118885,-0.00359797,-0.00174186,-0.00324687,-0.0122396,-1.3719,0.0073215,0.0254712,1406,365,1.94558,1.95199
189,659,1.92798,-1.91388,-0.0126668,-0.00304946,-0.00342161,-0.00195638,-0.0137599,-1.26158,0.00859566,0.0220541,1413,365,1.92792,1.91389
196,659,1.87537,-1.85229,-0.0128352,-0.00156325,-0.00390533,-0.000342414,-0.014056,-1.26781,0.00925865,0.0191722,1420,365,1.87531,1.85229
203,659,1.87634,-1.83432,-0.013178,0.00183956,-0.00401016,0.00284331,-0.0141818,-1.32553,0.010531,0.0255516,1427,365,1.8764,1.83433
210,659,1.92249,-1.8783,-0.0135446,0.00586983,-0.00351337,0.00648607,-0.0141609,-1.39716,0.0121919,0.0320905,1434,365,1.92244,1.87831
217,659,1.70715,-1.68216,-0.0135381,0.00944621,-0.00328249,0.00990581,-0.0139977,-1.43169,0.0138679,0.0378324,1441,365,1.70712,1.68217
224,659,1.57007,-1.67947,-0.011804,0.0135601,-0.00222859,0.0137544,-0.0119983,-1.48382,0.0148798,0.0431427,1448,365,1.57011,1.67947
231,659,1.54358,-1.69122,-0.00881256,0.018234,-0.000403817,0.01824,-0.00881859,-1.55587,0.0159348,0.0428101,1455,365,1.54361,1.69123
238,659,1.51843,-1.70853,-0.00555912,0.0223011,0.00137333,0.0223687,-0.00562666,1.52166,0.0170994,0.0439038,1462,365,1.5184,1.70852
245,659,2.18896,-1.29376,-0.00222643,0.026544,0.00348531,0.0269602,-0.00264263,1.45194,0.018916,0.0453517,1469,365,2.18893,1.29375
252,659,2.19092,-0.897186,0.00274463,0.0304034,0.0062055,0.0317318,0.00141618,1.3599,0.0206987,0.0471468,1476,365,2.19091,0.897174
259,659,2.28113,-0.366882,0.00780729,0.0335713,0.00912456,0.0364754,0.00490311,1.26265,0.0228585,0.0484691,1483,365,2.28115,0.366876
266,659,1.86389,-1.604,0,0,0,0,0,0,0,-1,1490,365,1.86391,1.60401
273,659,1.51392,-1.85165,0,0,0,0,0,0,0,-1,1497,365,1.51387,1.85164
280,659,2.02319,-1.45248,0,0,0,0,0,0,0,-1,1504,365,2.02322,1.45248
287,659,2.10803,-1.29736,0,0,0,0,0,0,0,-1,1511,365,2.10799,1.29736
294,659,2.55798,-1.5723,0,0,0,0,0,0,0,-1,1518,365,2.55804,1.5723
301,659,2.38965,-1.30219,0,0,0,0,0,0,0,-1,1525,365,2.38964,1.30218
308,659,2.06519,-0.982605,0,0,0,0,0,0,0,-1,1532,365,2.06519,0.982596
315,659,1.6156,-0.709595,0,0,0,0,0,0,0,-1,1539,365,1.61558,0.709587
322,659,-0.512695,0.764679,0,0,0,0,0,0,0,-1,1546,365,-0.512728,-0.764692
329,659,0.524902,0.988983,0,0,0,0,0,0,0,-1,1553,365,0.524889,-0.988998
336,659,2.09851,-1.17941,0,0,0,0,0,0,0,-1,1560,365,2.09857,1.17942
343,659,0,0,0,0,0,0,0,0,0,-1,1567,365,0,0
350,659,0,0,0,0,0,0,0,0,0,-1,1574,365,0,0
357,659,0,0,0,0,0,0,0,0,0,-1,1581,365,0,0
364,659,0,0,0,0,0,0,0,0,0,-1,1588,365,0,0
371,659,0,0,0,0,0,0,0,0,0,-1,1595,365,0,0
378,659,0,0,0,0,0,0,0,0,0,-1,1602,365,0,0
385,659,0,0,0,0,0,0,0,0,0,-1,1609,365,0,0
392,659,0,0,0,0,0,0,0,0,0,-1,1616,365,0,0
399,659,0,0,0,0,0,0,0,0,0,-1,1623,365,0,0
406,659,0,0,0,0,0,0,0,0,0,-1,1630,365,0,0
413,659,0,0,0,0,0,0,0,0,0,-1,1637,365,0,0
420,659,0,0,0,0,0,0,0,0,0,-1,1644,365,0,0
427,659,0,0,0,0,0,0,0,0,0,-1,1651,365,0,0
434,659,0,0,0,0,0,0,0,0,0,-1,1658,365,0,0
441,659,0,0,0,0,0,0,0,0,0,-1,1665,365,0,0
448,659,0,0,0,0,0,0,0,0,0,-1,1672,365,0,0
455,659,0,0,0,0,0,0,0,0,0,-1,1679,365,0,0
462,659,0,0,0,0,0,0,0,0,0,-1,1686,365,0,0
469,659,0,0,0,0,0,0,0,0,0,-1,1693,365,0,0
476,659,0,0,0,0,0,0,0,0,0,-1,1700,365,0,0
483,659,0,0,0,0,0,0,0,0,0,-1,1707,365,0,0
490,659,0,0,0,0,0,0,0,0,0,-1,1714,365,0,0
497,659,0,0,0,0,0,0,0,0,0,-1,1721,365,0,0
504,659,0,0,0,0,0,0,0,0,0,-1,1728,365,0,0
511,659,0,0,0,0,0,0,0,0,0,-1,1735,365,0,0
518,659,0,0,0,0,0,0,0,0,0,-1,1742,365,0,0
525,659,0,0,0,0,0,0,0,0,0,-1,1749,365,0,0
532,659,0,0,0,0,0,0,0,0,0,-1,1756,365,0,0
539,659,0,0,0,0,0,0,0,0,0,-1,1763,365,0,0
546,659,0,0,0,0,0,0,0,0,0,-1,1770,365,0,0
553,659,0,0,0,0,0,0,0,0,0,-1,1777,365,0,0
560,659,0,0,0,0,0,0,0,0,0,-1,1784,365,0,0
567,659,0,0,0,0,0,0,0,0,0,-1,1791,365,0,0
574,659,0,0,0,0,0,0,0,0,0,-1,1798,365,0,0
581,659,0,0,0,0,0,0,0,0,0,-1,1805,365,0,0
588,659,0,0,0,0,0,0,0,0,0,-1,1812,365,0,0
595,659,0,0,0,0,0,0,0,0,0,-1,1819,365,0,0
602,659,0,0,0,0,0,0,0,0,0,-1,1826,365,0,0
609,659,0,0,0,0,0,0,0,0,0,-1,1833,365,0,0
616,659,0,0,0,0,0,0,0,0,0,-1,1840,365,0,0
623,659,0,0,0,0,0,0,0,0,0,-1,1847,365,0,0
630,659,0,0,0,0,0,0,0,0,0,-1,1854,365,0,0
637,659,0,0,0,0,0,0,0,0,0,-1,1861,365,0,0
644,659,0,0,0,0,0,0,0,0,0,-1,1868,365,0,0
651,659,0,0,0,0,0,0,0,0,0,-1,1875,365,0,0
658,659,0,0,0,0,0,0,0,0,0,-1,1882,365,0,0
665,659,0,0,0,0,0,0,0,0,0,-1,1889,365,0,0
672,659,0,0,0,0,0,0,0,0,0,-1,1896,365,0,0
679,659,0,0,0,0,0,0,0,0,0,-1,1903,365,0,0
686,659,0,0,0,0,0,0,0,0,0,-1,1910,365,0,0
693,659,0,0,0,0,0,0,0,0,0,-1,1917,365,0,0
700,659,0,0,0,0,0,0,0,0,0,-1,1924,365,0,0
707,659,0,0,0,0,0,0,0,0,0,-1,1931,365,0,0
714,659,0,0,0,0,0,0,0,0,0,-1,1938,365,0,0
721,659,0,0,0,0,0,0,0,0,0,-1,1945,365,0,0
728,659,0,0,0,0,0,0,0,0,0,-1,1952,365,0,0
735,659,0,0,0,0,0,0,0,0,0,-1,1959,365,0,0
742,659,0,0,0,0,0,0,0,0,0,-1,1966,365,0,0
749,659,0,0,0,0,0,0,0,0,0,-1,1973,365,0,0
756,659,0,0,0,0,0,0,0,0,0,-1,1980,365,0,0
763,659,0,0,0,0,0,0,0,0,0,-1,1987,365,0,0
770,659,0,0,0,0,0,0,0,0,0,-1,1994,365,0,0
777,659,0,0,0,0,0,0,0,0,0,-1,2001,365,0,0
784,659,0,0,0,0,0,0,0,0,0,-1,2008,365,0,0
791,659,0,0,0,0,0,0,0,0,0,-1,2015,365,0,0
798,659,0,0,0,0,0,0,0,0,0,-1,2022,365,0,0
805,659,0,0,0,0,0,0,0,0,0,-1,2029,365,0,0
812,659,0,0,0,0,0,0,0,0,0,-1,2036,365,0,0
-700,652,0,0,0,0,0,0,0,0,0,-1,524,372,0,0
-693,652,0,0,0,0,0,0,0,0,0,-1,531,372,0,0
-686,652,0,0,0,0,0,0,0,0,0,-1,538,372,0,0
-679,652,0,0,0,0,0,0,0,0,0,-1,545,372,0,0
-672,652,0,0,0,0,0,0,0,0,0,-1,552,372,0,0
-665,652,0,0,0,0,0,0,0,0,0,-1,559,372,0,0
-658,652,0,0,0,0,0,0,0,0,0,-1,566,372,0,0
-651,652,0,0,0,0,0,0,0,0,0,-1,573,372,0,0
-644,652,0,0,0,0,0,0,0,0,0,-1,580,372,0,0
-637,652,0,0,0,0,0,0,0,0,0,-1,587,372,0,0
-630,652,0,0,0,0,0,0,0,0,0,-1,594,372,0,0
-623,652,0,0,0,0,0,0,0,0,0,-1,601,372,0,0
-616,652,0,0,0,0,0,0,0,0,0,-1,608,372,0,0
-609,652,0,0,0,0,0,0,0,0,0,-1,615,372,0,0
-602,652,0,0,0,0,0,0,0,0,0,-1,622,372,0,0
-595,652,0,0,0,0,0,0,0,0,0,-1,629,372,0,0
-588,652,0,0,0,0,0,0,0,0,0,-1,636,372,0,0
-581,652,0,0,0,0,0,0,0,0,0,-1,643,372,0,0
-574,652,0,0,0,0,0,0,0,0,0,-1,650,372,0,0
-567,652,0,0,0,0,0,0,0,0,0,-1,657,372,0,0
-560,652,0,0,0,0,0,0,0,0,0,-1,664,372,0,0
-553,652,0,0,0,0,0,0,0,0,0,-1,671,372,0,0
-546,652,0,0,0,0,0,0,0,0,0,-1,678,372,0,0
-539,652,0,0,0,0,0,0,0,0,0,-1,685,372,0,0
-532,652,0,0,0,0,0,0,0,0,0,-1,692,372,0,0
-525,652,0,0,0,0,0,0,0,0,0,-1,699,372,0,0
-518,652,0,0,0,0,0,0,0,0,0,-1,706,372,0,0
-511,652,0,0,0,0,0,0,0,0,0,-1,713,372,0,0
-504,652,0,0,0,0,0,0,0,0,0,-1,720,372,0,0
-497,652,0,0,0,0,0,0,0,0,0,-1,727,372,0,0
-490,652,0,0,0,0,0,0,0,0,0,-1,734,372,0,0
-483,652,0,0,0,0,0,0,0,0,0,-1,741,372,0,0
-476,652,0,0,0,0,0,0,0,0,0,-1,748,372,0,0
-469,652,0,0,0,0,0,0,0,0,0,-1,755,372,0,0
-462,652,0,0,0,0,0,0,0,0,0,-1,762,372,0,0
-455,652,0,0,0,0,0,0,0,0,0,-1,769,372,0,0
-448,652,0,0,0,0,0,0,0,0,0,-1,776,372,0,0
-441,652,0,0,0,0,0,0,0,0,0,-1,783,372,0,0
-434,652,0,0,0,0,0,0,0,0,0,-1,790,372,0,0
-427,652,0,0,0,0,0,0,0,0,0,-1,797,372,0,0
-420,652,0,0,0,0,0,0,0,0,0,-1,804,372,0,0
-413,652,0,0,0,0,0,0,0,0,0,-1,811,372,0,0
-406,652,0,0,0,0,0,0,0,0,0,-1,818,372,0,0
-399,652,0,0,0,0,0,0,0,0,0,-1,825,372,0,0
-392,652,0,0,0,0,0,0,0,0,0,-1,832,372,0,0
-385,652,0,0,0,0,0,0,0,0,0,-1,839,372,0,0
-378,652,0,0,0,0,0,0,0,0,0,-1,846,372,0,0
-371,652,0,0,0,0,0,0,0,0,0,-1,853,372,0,0
-364,652,0,0,0,0,0,0,0,0,0,-1,860,372,0,0
-357,652,0,0,0,0,0,0,0,0,0,-1,867,372,0,0
-350,652,0,0,0,0,0,0,0,0,0,-1,874,372,0,0
-343,652,0,0,0,0,0,0,0,0,0,-1,881,372,0,0
-336,652,0,0,0,0,0,0,0,0,0,-1,888,372,0,0
-329,652,0,0,0,0,0,0,0,0,0,-1,895,372,0,0
-322,652,0,0,0,0,0,0,0,0,0,-1,902,372,0,0
-315,652,0,0,0,0,0,0,0,0,0,-1,909,372,0,0
-308,652,0,0,0,0,0,0,0,0,0,-1,916,372,0,0
-301,652,0,0,0,0,0,0,0,0,0,-1,923,372,0,0
-294,652,0,0,0,0,0,0,0,0,0,-1,930,372,0,0
-287,652,0,0,0,0,0,0,0,0,0,-1,937,372,0,0
-280,652,0,0,0,0,0,0,0,0,0,-1,944,372,0,0
-273,652,0,0,0,0,0,0,0,0,0,-1,951,372,0,0
-266,652,0,0,0,0,0,0,0,0,0,-1,958,372,0,0
-259,652,0,0,0,0,0,0,0,0,0,-1,965,372,0,0
-252,652,0,0,0,0,0,0,0,0,0,-1,972,372,0,0
-245,652,0,0,0,0,0,0,0,0,0,-1,979,372,0,0
-238,652,0,0,0,0,0,0,0,0,0,-1,986,372,0,0
-231,652,6.83252,0.363159,0,0,0,0,0,0,0,-1,993,372,6.83254,-0.363167
-224,652,4.79395,0.98288,0,0,0,0,0,0,0,-1,1000,372,4.79394,-0.982889
-217,652,5.46643,0.407684,0,0,0,0,0,0,0,-1,1007,372,5.46641,-0.407681
-210,652,6.07776,-0.248901,0,0,0,0,0,0,0,-1,1014,372,6.07773,0.248893
-203,652,6.74243,-0.625,0,0,0,0,0,0,0,-1,1021,372,6.74245,0.625012
-196,652,-0.208496,-0.17337,0,0,0,0,0,0,0,-1,1028,372,-0.208476,0.173381
-189,652,2.97302,-1.47559,0,0,0,0,0,0,0,-1,1035,372,2.97304,1.47557
-182,652,2.5249,-1.66412,0,0,0,0,0,0,0,-1,1042,372,2.52488,1.66413
-175,652,2.13037,-1.54956,0.000960606,0.00941948,-5.90766e-05,0.00941989,0.000960194,-1.56381,0.00598559,0.0439621,1049,372,2.13034,1.54957
-168,652,1.88806,-1.4024,0.00177849,0.00965371,0.00320405,0.0107926,0.000639615,1.22928,0.00699161,0.0433059,1056,372,1.88808,1.40241
-161,652,1.89844,-1.53299,0,0,0,0,0,0,0,-1,1063,372,1.89849,1.533
-154,652,2.8042,-1.88458,0.00223106,0.00951104,0.00879248,0.0153872,-0.00364511,0.981652,0.0116646,0.0434033,1070,372,2.80425,1.88458
-147,652,3.32483,-1.99023,0.00187029,0.00921187,0.00866653,0.014953,-0.0038708,0.985723,0.0114786,0.0436109,1077,372,3.32486,1.99024
-140,652,3.78137,-2.1272,0,0,0,0,0,0,0,-1,1084,372,3.78133,2.12718
-133,652,2.10718,-1.51578,-0.000793596,0.00922011,0.00771676,0.013412,-0.00498549,1.07317,0.0109869,0.0413987,1091,372,2.10715,1.51577
-126,652,2,-1.64801,-0.00249502,0.0097257,0.00647837,0.0125207,-0.00529003,1.16348,0.0105617,0.0384171,1098,372,1.99999,1.64801
-119,652,2.04053,-1.69403,-0.00417015,0.00987844,0.00545303,0.0117466,-0.00603834,1.24073,0.010443,0.0311426,1105,372,2.04051,1.69402
-112,652,1.96509,-1.73935,-0.0063557,0.0105436,0.00407909,0.0114767,-0.00728878,1.34592,0.0109238,0.0224277,1112,372,1.96514,1.73934
-105,652,1.89111,-1.76297,-0.00891774,0.0112325,0.00224028,0.0114786,-0.0091638,1.4614,0.0119428,0.0203004,1119,372,1.89111,1.76297
-98,652,1.91931,-1.79749,-0.0108775,0.0120508,0.000351031,0.0120562,-0.0108828,1.55549,0.0132497,0.0230288,1126,372,1.91927,1.79749
-91,652,1.95044,-1.8067,-0.0118671,0.0120306,-0.000794249,0.0120569,-0.0118934,-1.53761,0.0138279,0.0218577,1133,372,1.9504,1.80671
-84,652,1.95081,-1.82492,-0.0127571,0.0125815,-0.0018361,0.0127139,-0.0128895,-1.49883,0.0147822,0.018163,1140,372,1.95078,1.82493
-77,652,1.91333,-1.85403,-0.0137449,0.0126703,-0.00282962,0.01297,-0.0140447,-1.46527,0.015601,0.0137954,1147,372,1.91328,1.85403
-70,652,1.9115,-1.87018,-0.0131317,0.0123614,-0.00366421,0.0128776,-0.0136479,-1.43084,0.0153166,0.0104838,1154,372,1.91144,1.87019
-63,652,1.93018,-1.87143,-0.0100523,0.0118799,-0.00437482,0.0127203,-0.0108927,-1.381,0.0136466,0.0116429,1161,372,1.9302,1.87142
-56,652,1.92249,-1.90668,-0.00640574,0.0114496,-0.00539189,0.0129515,-0.00790763,-1.29914,0.0121598,0.0117992,1168,372,1.92252,1.90667
-49,652,1.93677,-1.92368,-0.00259648,0.0104621,-0.00540093,0.0124064,-0.00454078,-1.22525,0.0101296,0.0095716,1175,372,1.93673,1.92367
-42,652,1.92688,-1.9249,0.00116428,0.010219,-0.00362579,0.0114919,-0.000108649,-1.23316,0.00769775,0.00919129,1182,372,1.92688,1.9249
-35,652,1.91077,-1.94678,0.00527488,0.0103556,-0.00294786,0.0117067,0.0039238,-1.14104,0.00688019,0.00828877,1189,372,1.91074,1.94676
-28,652,1.91089,-1.95779,0.00857699,0.00978685,-0.0026873,0.0119365,0.00642738,-0.896106,0.00689832,0.00748844,1196,372,1.91088,1.9578
-21,652,1.90698,-1.95978,0.0102018,0.0123189,-0.00309529,0.0145316,0.00798903,-0.950162,0.00840369,0.00751412,1203,372,1.90693,1.95977
-14,652,1.9165,-1.97266,0.0108061,0.0136911,-0.00302267,0.0155979,0.00889939,-1.00803,0.00903527,0.00935052,1210,372,1.91653,1.97266
-7,652,1.92969,-2.00073,0.0109122,0.0149863,-0.00266003,0.0162997,0.00959883,-1.11217,0.00946008,0.0120359,1217,372,1.92975,2.00073
0,652,1.9187,-2.01453,0.0103166,0.0164043,-0.00249121,0.0172938,0.00942709,-1.22785,0.00999811,0.010961,1224,372,1.91873,2.01453
7,652,1.91199,-2.00626,0.00919014,0.0178231,-0.00262526,0.0185588,0.00845449,-1.29759,0.010729,0.0112215,1231,372,1.91199,2.00625
14,652,1.91089,-2.00507,0.00829148,0.0185327,-0.00307361,0.0193843,0.00743984,-1.3005,0.0112918,0.0104271,1238,372,1.91089,2.00506
21,652,1.91235,-2.0054,0.00765067,0.0183842,-0.00360473,0.0194824,0.00655243,-1.27506,0.0114473,0.00900536,1245,372,1.9124,2.0054
28,652,1.89685,-2.02197,0.00717642,0.017287,-0.00417962,0.018791,0.00567235,-1.22537,0.0111293,0.00796554,1252,372,1.89682,2.02196
35,652,1.89429,-2.01895,0.00676952,0.0153128,-0.00456346,0.0172919,0.0047904,-1.16159,0.0103091,0.00818562,1259,372,1.89434,2.01896
42,652,1.89551,-2.03159,0.00672424,0.0128926,-0.00475596,0.0154769,0.00413997,-1.07305,0.00925201,0.0100233,1266,372,1.89549,2.03159
49,652,1.90625,-2.04581,0.0068045,0.0101043,-0.00481744,0.0135466,0.00336227,-0.950381,0.00814498,0.013042,1273,372,1.90631,2.04581
56,652,1.89746,-2.03891,0.00688257,0.00697869,-0.00474531,0.0116762,0.00218508,-0.790462,0.00716766,0.0147609,1280,372,1.89744,2.03889
63,652,1.88538,-2.03732,0.00700983,0.00371497,-0.00460348,0.0102518,0.000473019,-0.613566,0.00668243,0.0182508,1287,372,1.8854,2.03732
70,652,1.91919,-2.02582,0.00704344,0.000699344,-0.0042544,0.00917817,-0.00143538,-0.465061,0.00664908,0.0162669,1294,372,1.91915,2.02583
77,652,1.92542,-2.02142,0.00693978,-0.00117455,-0.00313176,0.0080079,-0.00224266,-0.328688,0.00622236,0.0157044,1301,372,1.92546,2.02143
84,652,1.90259,-2.02725,0.0067167,-0.00434213,-0.00158035,0.0069381,-0.00456354,-0.139193,0.00668748,0.0133673,1308,372,1.90255,2.02724
91,652,1.88892,-2.0509,0.00559359,-0.00487427,-0.000550772,0.00562249,-0.00490317,-0.0524225,0.00608172,0.0156756,1315,372,1.88892,2.0509
98,652,1.90417,-2.02802,0.00372276,-0.00521183,0.000264768,0.0037306,-0.00521967,0.0295994,0.00519123,0.0119236,1322,372,1.90422,2.02801
105,652,1.9248,-2.00595,0.00206988,-0.00510158,0.000811925,0.00216066,-0.00519235,0.111339,0.00436389,0.00932474,1329,372,1.92477,2.00596
112,652,1.91675,-1.99429,0.00119967,-0.0046664,0.00129765,0.00147391,-0.00494064,0.208269,0.00387954,0.0081292,1336,372,1.91673,1.99429
119,652,1.90015,-1.98538,0.000175166,-0.00419372,0.00176021,0.000796097,-0.00481465,0.339132,0.0035054,0.00937085,1343,372,1.90017,1.98537
126,652,1.88037,-1.98883,-0.000776026,-0.00365864,0.00203087,0.000273007,-0.00470767,0.476795,0.0032333,0.0121323,1350,372,1.88035,1.98883
133,652,1.85693,-1.97742,-0.00140252,-0.00304802,0.00231798,0.000234396,-0.00468493,0.614862,0.00320428,0.0126322,1357,372,1.85688,1.97743
140,652,1.85425,-1.96893,-0.00189008,-0.00246049,0.00254589,0.000386528,-0.00473709,0.729618,0.00329447,0.00964328,1364,372,1.85431,1.96894
147,652,1.87061,-1.96564,-0.00260892,-0.00248272,0.00243697,-0.000108027,-0.00498361,0.798342,0.00328699,0.00939313,1371,372,1.87064,1.96564
154,652,1.86499,-1.94534,-0.00323799,-0.00290298,0.00205471,-0.00100895,-0.00513202,0.82607,0.00313954,0.00965782,1378,372,1.86503,1.94535
161,652,1.86731,-1.93466,-0.0042186,-0.00283403,0.00154757,-0.00183096,-0.00522167,0.995718,0.00305924,0.0104508,1385,372,1.86734,1.93465
168,652,1.87134,-1.93808,-0.00516293,-0.00276875,0.000924138,-0.00245354,-0.00547814,1.24208,0.00316853,0.0109953,1392,372,1.87136,1.93809
175,652,1.87512,-1.92569,-0.00635247,-0.002587,4.4739e-05,-0.00258647,-0.006353,1.55892,0.00368894,0.00974413,1399,372,1.87514,1.92568
182,652,1.86072,-1.91486,-0.00748126,-0.00236906,-0.00100728,-0.00217775,-0.00767257,-1.3831,0.00456567,0.0121045,1406,372,1.86075,1.91485
189,652,1.86243,-1.88934,-0.00784321,-0.00162484,-0.00211595,-0.000973138,-0.00849491,-1.27202,0.00536838,0.0118295,1413,372,1.86245,1.88934
196,652,1.86401,-1.86505,-0.00796929,-0.000441284,-0.00243665,0.00027857,-0.00868915,-1.28354,0.00588782,0.00901677,1420,372,1.86406,1.86507
203,652,1.85449,-1.86905,-0.00813567,0.00203256,-0.00242216,0.00258006,-0.00868317,-1.34849,0.00681362,0.0110352,1427,372,1.85445,1.86904
210,652,1.89319,-1.84805,-0.00828029,0.00519765,-0.00196206,0.00547747,-0.00856011,-1.42914,0.00816948,0.0143607,1434,372,1.89323,1.84805
217,652,1.9281,-1.8277,-0.00822365,0.00788853,-0.00175228,0.0080769,-0.00841202,-1.46371,0.00952054,0.0158879,1441,372,1.92804,1.82769
224,652,1.9397,-1.84079,-0.00702049,0.0108739,-0.00101601,0.0109314,-0.00707799,-1.51426,0.0104767,0.0198997,1448,372,1.93969,1.84079
231,652,1.91479,-1.80096,-0.00494362,0.0142318,0.00026395,0.0142354,-0.00494725,1.55703,0.0114998,0.0248402,1455,372,1.91478,1.80097
238,652,1.89429,-1.71274,-0.00270414,0.0170542,0.00147403,0.0171636,-0.0028135,1.49674,0.0124863,0.0265256,1462,372,1.89427,1.71275
245,652,1.89233,-1.72934,-0.000472338,0.0199308,0.00291346,0.0203387,-0.000880211,1.4317,0.0138618,0.0236902,1469,372,1.89227,1.72934
252,652,1.88757,-1.7496,0.00288631,0.0222378,0.00477274,0.0233509,0.00177321,1.34167,0.0150111,0.029839,1476,372,1.88752,1.7496
259,652,2.10803,-1.34174,0.00618176,0.023873,0.00680315,0.0261866,0.00386819,1.24299,0.0163219,0.0415832,1483,372,2.108,1.34174
266,652,1.88147,-1.61426,0.00872795,0.0237766,0.00832555,0.0274742,0.00503041,1.15284,0.0168909,0.0403768,1490,372,1.88149,1.61425
273,652,1.6958,-1.78922,0.0093352,0.022095,0.00875707,0.0265497,0.00488046,1.10021,0.0163181,0.0403292,1497,372,1.6958,1.78921
280,652,2.01111,-1.51648,0.0102543,0.019602,0.00948177,0.0254993,0.00435704,1.01439,0.0157494,0.0442125,1504,372,2.01113,1.51648
287,652,2.08948,-1.78845,0.0090838,0.0131351,0.0109046,0.0222006,1.83079e-05,0.877233,0.0147943,0.0467038,1511,372,2.08943,1.78845
294,652,2.06506,-2.33524,0,0,0,0,0,0,0,-1,1518,372,2.06511,2.33522
301,652,2.15186,-1.74814,0,0,0,0,0,0,0,-1,1525,372,2.15191,1.74813
308,652,2.59607,-1.56052,0,0,0,0,0,0,0,-1,1532,372,2.59604,1.56053
315,652,-0.553711,0.0222168,0,0,0,0,0,0,0,-1,1539,372,-0.553772,-0.0222265
322,652,0.118164,0.302063,0,0,0,0,0,0,0,-1,1546,372,0.118214,-0.302053
329,652,0.853516,0.584442,0,0,0,0,0,0,0,-1,1553,372,0.853456,-0.584446
336,652,4.90442,-3.90216,0,0,0,0,0,0,0,-1,1560,372,4.90438,3.90216
343,652,3.95874,-4.81439,0,0,0,0,0,0,0,-1,1567,372,3.95871,4.8144
350,652,3.27209,-5.25958,0,0,0,0,0,0,0,-1,1574,372,3.2721,5.25958
357,652,0,0,0,0,0,0,0,0,0,-1,1581,372,0,0
364,652,0,0,0,0,0,0,0,0,0,-1,1588,372,0,0
371,652,0,0,0,0,0,0,0,0,0,-1,1595,372,0,0
378,652,0,0,0,0,0,0,0,0,0,-1,1602,372,0,0
385,652,0,0,0,0,0,0,0,0,0,-1,1609,372,0,0
392,652,0,0,0,0,0,0,0,0,0,-1,1616,372,0,0
399,652,0,0,0,0,0,0,0,0,0,-1,1623,372,0,0
406,652,0,0,0,0,0,0,0,0,0,-1,1630,372,0,0
413,652,0,0,0,0,0,0,0,0,0,-1,1637,372,0,0
420,652,0,0,0,0,0,0,0,0,0,-1,1644,372,0,0
427,652,0,0,0,0,0,0,0,0,0,-1,1651,372,0,0
434,652,0,0,0,0,0,0,0,0,0,-1,1658,372,0,0
441,652,0,0,0,0,0,0,0,0,0,-1,1665,372,0,0
448,652,0,0,0,0,0,0,0,0,0,-1,1672,372,0,0
455,652,0,0,0,0,0,0,0,0,0,-1,1679,372,0,0
462,652,0,0,0,0,0,0,0,0,0,-1,1686,372,0,0
469,652,0,0,0,0,0,0,0,0,0,-1,1693,372,0,0
476,652,0,0,0,0,0,0,0,0,0,-1,1700,372,0,0
483,652,0,0,0,0,0,0,0,0,0,-1,1707,372,0,0
490,652,0,0,0,0,0,0,0,0,0,-1,1714,372,0,0
497,652,0,0,0,0,0,0,0,0,0,-1,1721,372,0,0
504,652,0,0,0,0,0,0,0,0,0,-1,1728,372,0,0
511,652,0,0,0,0,0,0,0,0,0,-1,1735,372,0,0
518,652,0,0,0,0,0,0,0,0,0,-1,1742,372,0,0
525,652,0,0,0,0,0,0,0,0,0,-1,1749,372,0,0
532,652,0,0,0,0,0,0,0,0,0,-1,1756,372,0,0
539,652,0,0,0,0,0,0,0,0,0,-1,1763,372,0,0
546,652,0,0,0,0,0,0,0,0,0,-1,1770,372,0,0
553,652,0,0,0,0,0,0,0,0,0,-1,1777,372,0,0
560,652,0,0,0,0,0,0,0,0,0,-1,1784,372,0,0
567,652,0,0,0,0,0,0,0,0,0,-1,1791,372,0,0
574,652,0,0,0,0,0,0,0,0,0,-1,1798,372,0,0
581,652,0,0,0,0,0,0,0,0,0,-1,1805,372,0,0
588,652,0,0,0,0,0,0,0,0,0,-1,1812,372,0,0
595,652,0,0,0,0,0,0,0,0,0,-1,1819,372,0,0
602,652,0,0,0,0,0,0,0,0,0,-1,1826,372,0,0
609,652,0,0,0,0,0,0,0,0,0,-1,1833,372,0,0
616,652,0,0,0,0,0,0,0,0,0,-1,1840,372,0,0
623,652,0,0,0,0,0,0,0,0,0,-1,1847,372,0,0
630,652,0,0,0,0,0,0,0,0,0,-1,1854,372,0,0
637,652,0,0,0,0,0,0,0,0,0,-1,1861,372,0,0
644,652,0,0,0,0,0,0,0,0,0,-1,1868,372,0,0
651,652,0,0,0,0,0,0,0,0,0,-1,1875,372,0,0
658,652,0,0,0,0,0,0,0,0,0,-1,1882,372,0,0
665,652,0,0,0,0,0,0,0,0,0,-1,1889,372,0,0
672,652,0,0,0,0,0,0,0,0,0,-1,1896,372,0,0
679,652,0,0,0,0,0,0,0,0,0,-1,1903,372,0,0
686,652,0,0,0,0,0,0,0,0,0,-1,1910,372,0,0
693,652,0,0,0,0,0,0,0,0,0,-1,1917,372,0,0
700,652,0,0,0,0,0,0,0,0,0,-1,1924,372,0,0
707,652,0,0,0,0,0,0,0,0,0,-1,1931,372,0,0
714,652,0,0,0,0,0,0,0,0,0,-1,1938,372,0,0
721,652,0,0,0,0,0,0,0,0,0,-1,1945,372,0,0
728,652,0,0,0,0,0,0,0,0,0,-1,1952,372,0,0
735,652,0,0,0,0,0,0,0,0,0,-1,1959,372,0,0
742,652,0,0,0,0,0,0,0,0,0,-1,1966,372,0,0
749,652,0,0,0,0,0,0,0,0,0,-1,1973,372,0,0
756,652,0,0,0,0,0,0,0,0,0,-1,1980,372,0,0
763,652,0,0,0,0,0,0,0,0,0,-1,1987,372,0,0
770,652,0,0,0,0,0,0,0,0,0,-1,1994,372,0,0
777,652,0,0,0,0,0,0,0,0,0,-1,2001,372,0,0
784,652,0,0,0,0,0,0,0,0,0,-1,2008,372,0,0
791,652,0,0,0,0,0,0,0,0,0,-1,2015,372,0,0
798,652,0,0,0,0,0,0,0,0,0,-1,2022,372,0,0
805,652,0,0,0,0,0,0,0,0,0,-1,2029,372,0,0
812,652,0,0,0,0,0,0,0,0,0,-1,2036,372,0,0
-700,645,0,0,0,0,0,0,0,0,0,-1,524,379,0,0
-693,645,0,0,0,0,0,0,0,0,0,-1,531,379,0,0
-686,645,0,0,0,0,0,0,0,0,0,-1,538,379,0,0
-679,645,0,0,0,0,0,0,0,0,0,-1,545,379,0,0
-672,645,0,0,0,0,0,0,0,0,0,-1,552,379,0,0
-665,645,0,0,0,0,0,0,0,0,0,-1,559,379,0,0
-658,645,0,0,0,0,0,0,0,0,0,-1,566,379,0,0
-651,645,0,0,0,0,0,0,0,0,0,-1,573,379,0,0
-644,645,0,0,0,0,0,0,0,0,0,-1,580,379,0,0
-637,645,0,0,0,0,0,0,0,0,0,-1,587,379,0,0
-630,645,0,0,0,0,0,0,0,0,0,-1,594,379,0,0
-623,645,0,0,0,0,0,0,0,0,0,-1,601,379,0,0
-616,645,0,0,0,0,0,0,0,0,0,-1,608,379,0,0
-609,645,0,0,0,0,0,0,0,0,0,-1,615,379,0,0
-602,645,0,0,0,0,0,0,0,0,0,-1,622,379,0,0
-595,645,0,0,0,0,0,0,0,0,0,-1,629,379,0,0
-588,645,0,0,0,0,0,0,0,0,0,-1,636,379,0,0
-581,645,0,0,0,0,0,0,0,0,0,-1,643,379,0,0
-574,645,0,0,0,0,0,0,0,0,0,-1,650,379,0,0
-567,645,0,0,0,0,0,0,0,0,0,-1,657,379,0,0
-560,645,0,0,0,0,0,0,0,0,0,-1,664,379,0,0
-553,645,0,0,0,0,0,0,0,0,0,-1,671,379,0,0
-546,645,0,0,0,0,0,0,0,0,0,-1,678,379,0,0
-539,645,0,0,0,0,0,0,0,0,0,-1,685,379,0,0
-532,645,0,0,0,0,0,0,0,0,0,-1,692,379,0,0
-525,645,0,0,0,0,0,0,0,0,0,-1,699,379,0,0
-518,645,0,0,0,0,0,0,0,0,0,-1,706,379,0,0
-511,645,0,0,0,0,0,0,0,0,0,-1,713,379,0,0
-504,645,0,0,0,0,0,0,0,0,0,-1,720,379,0,0
-497,645,0,0,0,0,0,0,0,0,0,-1,727,379,0,0
-490,645,0,0,0,0,0,0,0,0,0,-1,734,379,0,0
-483,645,0,0,0,0,0,0,0,0,0,-1,741,379,0,0
-476,645,0,0,0,0,0,0,0,0,0,-1,748,379,0,0
-469,645,0,0,0,0,0,0,0,0,0,-1,755,379,0,0
-462,645,0,0,0,0,0,0,0,0,0,-1,762,379,0,0
-455,645,0,0,0,0,0,0,0,0,0,-1,769,379,0,0
-448,645,0,0,0,0,0,0,0,0,0,-1,776,379,0,0
-441,645,0,0,0,0,0,0,0,0,0,-1,783,379,0,0
-434,645,0,0,0,0,0,0,0,0,0,-1,790,379,0,0
-427,645,0,0,0,0,0,0,0,0,0,-1,797,379,0,0
-420,645,0,0,0,0,0,0,0,0,0,-1,804,379,0,0
-413,645,0,0,0,0,0,0,0,0,0,-1,811,379,0,0
-406,645,0,0,0,0,0,0,0,0,0,-1,818,379,0,0
-399,645,0,0,0,0,0,0,0,0,0,-1,825,379,0,0
-392,645,0,0,0,0,0,0,0,0,0,-1,832,379,0,0
-385,645,0,0,0,0,0,0,0,0,0,-1,839,379,0,0
-378,645,0,0,0,0,0,0,0,0,0,-1,846,379,0,0
-371,645,0,0,0,0,0,0,0,0,0,-1,853,379,0,0
-364,645,0,0,0,0,0,0,0,0,0,-1,860,379,0,0
-357,645,0,0,0,0,0,0,0,0,0,-1,867,379,0,0
-350,645,0,0,0,0,0,0,0,0,0,-1,874,379,0,0
-343,645,0,0,0,0,0,0,0,0,0,-1,881,379,0,0
-336,645,0,0,0,0,0,0,0,0,0,-1,888,379,0,0
-329,645,0,0,0,0,0,0,0,0,0,-1,895,379,0,0
-322,645,0,0,0,0,0,0,0,0,0,-1,902,379,0,0
-315,645,0,0,0,0,0,0,0,0,0,-1,909,379,0,0
-308,645,0,0,0,0,0,0,0,0,0,-1,916,379,0,0
-301,645,0,0,0,0,0,0,0,0,0,-1,923,379,0,0
-294,645,0,0,0,0,0,0,0,0,0,-1,930,379,0,0
-287,645,0,0,0,0,0,0,0,0,0,-1,937,379,0,0
-280,645,0,0,0,0,0,0,0,0,0,-1,944,379,0,0
-273,645,0,0,0,0,0,0,0,0,0,-1,951,379,0,0
-266,645,0,0,0,0,0,0,0,0,0,-1,958,379,0,0
-259,645,0,0,0,0,0,0,0,0,0,-1,965,379,0,0
-252,645,5.1828,-1.61215,0.0567303,-0.0198803,0.0933879,0.119364,-0.0825136,0.590775,0.117199,0.0489279,972,379,5.1828,1.61216
-245,645,5.81421,-0.757751,0.0461366,-0.0148566,0.0836414,0.104668,-0.0733877,0.610582,0.103328,0.0454341,979,379,5.81422,0.757743
-238,645,6.26282,-0.179016,0,0,0,0,0,0,0,-1,986,379,6.26279,0.179021
-231,645,6.05841,0.208282,0,0,0,0,0,0,0,-1,993,379,6.05841,-0.208279
-224,645,5.83801,0.601776,0,0,0,0,0,0,0,-1,1000,379,5.83799,-0.601768
-217,645,4.8183,-0.167816,0,0,0,0,0,0,0,-1,1007,379,4.8183,0.167804
-210,645,1.4007,-1.64468,0,0,0,0,0,0,0,-1,1014,379,1.40073,1.64468
-203,645,1.59027,-1.32162,0,0,0,0,0,0,0,-1,1021,379,1.59025,1.32162
-196,645,1.76294,-1.01666,0,0,0,0,0,0,0,-1,1028,379,1.76291,1.01665
-189,645,1.32056,-1.3024,0,0,0,0,0,0,0,-1,1035,379,1.32054,1.30241
-182,645,2.86414,-2.026,0,0,0,0,0,0,0,-1,1042,379,2.86408,2.02599
-175,645,2.2594,-1.03052,0,0,0,0,0,0,0,-1,1049,379,2.25939,1.03052
-168,645,2.00842,-1.457,0.00105526,0.00744197,0.00231139,0.0081907,0.000306528,1.25753,0.00536121,0.0427555,1056,379,2.00848,1.45701
-161,645,1.91724,-1.55264,0.00139026,0.00742519,0.00508842,0.0103236,-0.00150811,1.05303,0.00743623,0.0398919,1063,379,1.91723,1.55265
-154,645,2.24097,-1.70895,0.00174283,0.00724891,0.00687124,0.0118981,-0.00290637,0.975936,0.00905765,0.0380783,1070,379,2.24101,1.70896
-147,645,2.4552,-1.73795,0.00167485,0.00694127,0.00698141,0.0117696,-0.00315343,0.965736,0.00908188,0.0386519,1077,379,2.45526,1.73794
-140,645,2.2323,-1.46304,0,0,0,0,0,0,0,-1,1084,379,2.23224,1.46304
-133,645,1.99561,-1.62616,-0.000153503,0.00671782,0.00661259,0.010734,-0.00416969,1.02499,0.00887851,0.0284701,1091,379,1.99557,1.62617
-126,645,1.92444,-1.73279,-0.00138391,0.0069366,0.00573731,0.00986327,-0.00431058,1.09909,0.00838998,0.021269,1098,379,1.92443,1.73278
-119,645,1.93042,-1.7565,-0.00258345,0.00693749,0.00505248,0.0091189,-0.00476485,1.16322,0.00814612,0.0144741,1105,379,1.93038,1.7565
-112,645,1.94543,-1.77652,-0.00422652,0.00739354,0.00409494,0.00869161,-0.00552459,1.26382,0.00827533,0.0110148,1112,379,1.94548,1.77651
-105,645,1.94373,-1.79153,-0.00620027,0.0078645,0.00275249,0.00838397,-0.00671975,1.38426,0.00873776,0.0114723,1119,379,1.94369,1.79154
-98,645,1.91199,-1.80225,-0.00772933,0.00843302,0.00129183,0.00853563,-0.00783193,1.49154,0.00945272,0.0126144,1126,379,1.91203,1.80225
-91,645,1.91223,-1.82886,-0.00841226,0.00834458,0.00035741,0.0083522,-0.00841988,1.54948,0.00968339,0.013222,1133,379,1.91219,1.82885
-84,645,1.91077,-1.85165,-0.00886405,0.00867219,-0.000334618,0.00867857,-0.00887043,-1.55172,0.0101321,0.0122838,1140,379,1.91071,1.85164
-77,645,1.88586,-1.87088,-0.00945347,0.00861179,-0.0010235,0.00866959,-0.00951128,-1.51438,0.0105005,0.0107272,1147,379,1.88582,1.87087
-70,645,1.90222,-1.89142,-0.00928552,0.00832067,-0.00161786,0.0084681,-0.00943296,-1.47992,0.0103402,0.00986329,1154,379,1.90228,1.89142
-63,645,1.90674,-1.89304,-0.0075099,0.00797935,-0.00207545,0.00825263,-0.00778317,-1.43988,0.0092596,0.0104249,1161,379,1.90668,1.89303
-56,645,1.91467,-1.89252,-0.00518667,0.00767021,-0.00281532,0.00825966,-0.00577612,-1.3644,0.00814574,0.0115007,1168,379,1.91462,1.89251
-49,645,1.927,-1.9003,-0.00271687,0.00695361,-0.00280079,0.00770621,-0.00346947,-1.30829,0.00660503,0.0101313,1175,379,1.92695,1.90028
-42,645,1.91248,-1.92853,-0.000264964,0.00671762,-0.00160567,0.00706915,-0.000616497,-1.35527,0.00493113,0.00936029,1182,379,1.91248,1.92854
-35,645,1.89966,-1.97623,0.00250639,0.0067432,-0.00115129,0.00703584,0.00221375,-1.32189,0.00415415,0.00959673,1189,379,1.89966,1.97622
-28,645,1.88794,-1.98959,0.00477029,0.00632565,-0.000898153,0.00673602,0.00435992,-1.14221,0.00394486,0.00826284,1196,379,1.88797,1.98959
-21,645,1.88184,-1.97455,0.00597959,0.00796986,-0.0010022,0.00838706,0.00556238,-1.17633,0.00492751,0.00986247,1203,379,1.8818,1.97455
-14,645,1.90295,-1.96838,0.00658977,0.00880289,-0.000927399,0.00914012,0.00625253,-1.22203,0.00539494,0.0103133,1210,379,1.90289,1.96839
-7,645,1.91577,-1.99771,0.00676901,0.00957017,-0.000675193,0.00972443,0.00661475,-1.34619,0.00573468,0.0135642,1217,379,1.91578,1.99771
0,645,1.93213,-2.02512,0.0063714,0.0104458,-0.000601389,0.0105327,0.00628449,-1.42727,0.0061188,0.0219306,1224,379,1.93207,2.02511
7,645,1.92236,-2.02347,0.00557648,0.011347,-0.000723014,0.0114362,0.00548727,-1.44803,0.0066045,0.0149562,1231,379,1.92231,2.02346
14,645,1.91003,-2.01019,0.00484432,0.0118159,-0.00105886,0.0119732,0.00468704,-1.42334,0.00696681,0.0142931,1238,379,1.91004,2.0102
21,645,1.8949,-2.01724,0.00419393,0.0116638,-0.0015152,0.0119595,0.00389828,-1.3781,0.00704286,0.00929959,1245,379,1.89485,2.01725
28,645,1.88367,-2.02295,0.00366825,0.0109159,-0.00190579,0.0113864,0.00319767,-1.32872,0.00678121,0.0081102,1252,379,1.88362,2.02296
35,645,1.88489,-2.02283,0.00325719,0.00958839,-0.00215789,0.0102539,0.00259166,-1.27164,0.00615665,0.00791399,1259,379,1.88492,2.02284
42,645,1.89221,-2.03955,0.00306914,0.0080109,-0.00228536,0.00890575,0.0021743,-1.19759,0.00536143,0.00841291,1266,379,1.89226,2.03954
49,645,1.9054,-2.03989,0.00296274,0.00615083,-0.00237384,0.00741618,0.00169739,-1.08107,0.00448665,0.0110864,1273,379,1.90535,2.03988
56,645,1.90491,-2.02789,0.00292689,0.00401389,-0.00236756,0.00589954,0.00104125,-0.898224,0.00363598,0.0111295,1280,379,1.90496,2.02789
63,645,1.89709,-2.03781,0.0030234,0.00173249,-0.00240097,0.00486416,-0.000108274,-0.654087,0.00327946,0.0114983,1287,379,1.89713,2.03782
70,645,1.90076,-2.02954,0.00313218,-0.000413739,-0.00231998,0.00427909,-0.00156066,-0.45913,0.00349123,0.0148518,1294,379,1.90081,2.02955
77,645,1.9054,-2.03271,0.00321578,-0.00174173,-0.00167253,0.00372728,-0.00225322,-0.296787,0.00348763,0.0179627,1301,379,1.9054,2.03273
84,645,1.91394,-2.02475,0.00330455,-0.00402356,-0.000759874,0.00338252,-0.00410153,-0.102244,0.00432756,0.0135771,1308,379,1.91389,2.02474
91,645,1.89441,-2.01611,0.00281029,-0.00440891,-0.000145674,0.00281323,-0.00441185,-0.0201677,0.0042053,0.014926,1315,379,1.8944,2.01612
98,645,1.90491,-2.00595,0.00185466,-0.00454016,0.000284768,0.00186732,-0.00455281,0.0444139,0.00381322,0.0124371,1322,379,1.90485,2.00597
105,645,1.91724,-2.00839,0.00104223,-0.00438739,0.000537961,0.00109501,-0.00444018,0.0978119,0.00338469,0.00895534,1329,379,1.91724,2.00838
112,645,1.9043,-2.00363,0.000706298,-0.0039907,0.00079154,0.000836102,-0.0041205,0.162542,0.00306397,0.0078344,1336,379,1.90433,2.00363
119,645,1.90076,-1.98215,0.000332032,-0.00351511,0.00104281,0.000596515,-0.0037796,0.248388,0.0027403,0.008128,1343,379,1.90076,1.98216
126,645,1.88831,-1.98758,-3.4479e-05,-0.00299477,0.00118394,0.000380777,-0.00341003,0.337334,0.00241032,0.0113377,1350,379,1.88827,1.98759
133,645,1.87061,-1.98834,-0.000224941,-0.0024263,0.00136723,0.000429603,-0.00308085,0.446493,0.00221105,0.0129972,1357,379,1.8706,1.98835
140,645,1.87256,-1.96994,-0.00037713,-0.00188325,0.00157017,0.000611224,-0.00287161,0.561799,0.00214734,0.012273,1364,379,1.87261,1.96993
147,645,1.87415,-1.96649,-0.000755427,-0.00184547,0.00156713,0.000358757,-0.00295965,0.61805,0.00210291,0.0118236,1371,379,1.87418,1.9665
154,645,1.88806,-1.96436,-0.00117053,-0.00205603,0.00138125,-0.0001628,-0.00306376,0.6303,0.00199046,0.0107192,1378,379,1.88809,1.96437
161,645,1.88342,-1.95776,-0.00185104,-0.00194661,0.00108306,-0.000814707,-0.00298294,0.763353,0.00178032,0.0131124,1385,379,1.88342,1.95778
168,645,1.86584,-1.94098,-0.00251887,-0.00178888,0.000720106,-0.00134655,-0.0029612,1.01996,0.00171199,0.0158471,1392,379,1.86587,1.94097
175,645,1.90112,-1.93433,-0.00337441,-0.0015692,0.000144932,-0.00155764,-0.00338597,1.49119,0.00195697,0.013849,1399,379,1.90114,1.93432
182,645,1.90759,-1.91867,-0.00420737,-0.00133468,-0.000607302,-0.00121157,-0.00433048,-1.37079,0.00257977,0.0098317,1406,379,1.90755,1.91867
189,645,1.901,-1.8913,-0.00458233,-0.000758739,-0.00133362,-0.000339545,-0.00500152,-1.26625,0.00322713,0.0103711,1413,379,1.90104,1.8913
196,645,1.88098,-1.884,-0.00477919,0.00016965,-0.00156362,0.000622286,-0.00523183,-1.28902,0.00371274,0.0100709,1420,379,1.88099,1.88401
203,645,1.86304,-1.85855,-0.00486479,0.00189758,-0.0015148,0.0022214,-0.00518861,-1.3602,0.00439101,0.00988522,1427,379,1.86304,1.85856
210,645,1.89124,-1.85431,-0.0048995,0.00431904,-0.0010911,0.00444642,-0.00502688,-1.45458,0.00547284,0.0122486,1434,379,1.89129,1.8543
217,645,1.88916,-1.85385,-0.00483349,0.00630442,-0.000878818,0.00637334,-0.00490241,-1.49254,0.00652849,0.0122313,1441,379,1.8891,1.85384
224,645,1.86768,-1.83444,-0.00401878,0.00842959,-0.000343061,0.00843904,-0.00402823,-1.54327,0.00734661,0.0111269,1448,379,1.86762,1.83445
231,645,1.87207,-1.79346,-0.00261023,0.0108052,0.000556803,0.0108283,-0.0026333,1.52939,0.00823813,0.0116845,1455,379,1.87211,1.79346
238,645,1.86084,-1.76566,-0.00110284,0.0127307,0.00137809,0.0128666,-0.00123879,1.47246,0.00901909,0.00964838,1462,379,1.86083,1.76567
245,645,1.87268,-1.74585,0.000352526,0.0146559,0.00235467,0.0150336,-2.5135e-05,1.41176,0.0100308,0.0102255,1469,379,1.87263,1.74585
252,645,1.89856,-1.71066,0.00258277,0.0160099,0.00360618,0.0169171,0.00167554,1.32434,0.0107631,0.0146066,1476,379,1.8985,1.71067
259,645,1.89856,-1.67108,0.00472665,0.0168253,0.00503016,0.0186434,0.00290852,1.22396,0.0115818,0.0241217,1483,379,1.89856,1.67109
266,645,1.86621,-1.65466,0.00621482,0.0165823,0.00603875,0.019357,0.00344006,1.14008,0.0119246,0.0230088,1490,379,1.86619,1.65465
273,645,1.88904,-1.67789,0.00657512,0.0153677,0.00635243,0.0186967,0.00324608,1.08809,0.0115357,0.0206935,1497,379,1.88904,1.67789
280,645,1.97009,-1.57782,0.00720444,0.0136119,0.00695508,0.0180656,0.00275068,1.00123,0.0112396,0.0318749,1504,379,1.97004,1.57781
287,645,2.05505,-1.69794,0.00627992,0.00876794,0.00819514,0.015813,-0.000765091,0.860722,0.010806,0.0422908,1511,379,2.0551,1.69795
294,645,2.07922,-1.79733,0,0,0,0,0,0,0,-1,1518,379,2.07919,1.79735
301,645,2.16431,-1.65671,-0.00184164,-0.010856,0.0109171,0.00546211,-0.0181597,0.589629,0.0142798,0.0485017,1525,379,2.16425,1.65672
308,645,2.59656,-1.4144,-0.00809386,-0.0250997,0.0121819,-0.00174084,-0.0314527,0.480709,0.0204129,0.0468822,1532,379,2.59652,1.41441
315,645,1.83643,-0.955444,0,0,0,0,0,0,0,-1,1539,379,1.83644,0.955445
322,645,1.10327,-1.37173,0,0,0,0,0,0,0,-1,1546,379,1.10322,1.37174
329,645,4.11353,-3.04059,0,0,0,0,0,0,0,-1,1553,379,4.11348,3.04059
336,645,4.0968,-3.32593,-0.0416331,-0.0853677,0.0254146,-0.0299731,-0.0970277,0.430141,0.0573664,0.0474351,1560,379,4.09685,3.32594
343,645,3.6051,-3.95337,-0.0507396,-0.100728,0.0293956,-0.0371486,-0.114319,0.433074,0.0673367,0.0470796,1567,379,3.60507,3.95337
350,645,2.97644,-4.14304,-0.0585403,-0.114666,0.0327995,-0.0434368,-0.129769,0.431534,0.0762746,0.045255,1574,379,2.97648,4.14304
357,645,2.40344,-4.00894,-0.0665006,-0.127207,0.0363946,-0.0494631,-0.144245,0.43783,0.0846388,0.0445373,1581,379,2.40346,4.00895
364,645,1.86377,-3.6087,-0.0729226,-0.13753,0.040409,-0.0534922,-0.15696,0.448205,0.0921395,0.0468173,1588,379,1.86374,3.60871
371,645,0,0,0,0,0,0,0,0,0,-1,1595,379,0,0
378,645,0,0,0,0,0,0,0,0,0,-1,1602,379,0,0
385,645,0,0,0,0,0,0,0,0,0,-1,1609,379,0,0
392,645,0,0,0,0,0,0,0,0,0,-1,1616,379,0,0
399,645,0,0,0,0,0,0,0,0,0,-1,1623,379,0,0
406,645,0,0,0,0,0,0,0,0,0,-1,1630,379,0,0
413,645,0,0,0,0,0,0,0,0,0,-1,1637,379,0,0
420,645,0,0,0,0,0,0,0,0,0,-1,1644,379,0,0
427,645,0,0,0,0,0,0,0,0,0,-1,1651,379,0,0
434,645,0,0,0,0,0,0,0,0,0,-1,1658,379,0,0
441,645,0,0,0,0,0,0,0,0,0,-1,1665,379,0,0
448,645,0,0,0,0,0,0,0,0,0,-1,1672,379,0,0
455,645,0,0,0,0,0,0,0,0,0,-1,1679,379,0,0
462,645,0,0,0,0,0,0,0,0,0,-1,1686,379,0,0
469,645,0,0,0,0,0,0,0,0,0,-1,1693,379,0,0
476,645,0,0,0,0,0,0,0,0,0,-1,1700,379,0,0
483,645,0,0,0,0,0,0,0,0,0,-1,1707,379,0,0
490,645,0,0,0,0,0,0,0,0,0,-1,1714,379,0,0
497,645,0,0,0,0,0,0,0,0,0,-1,1721,379,0,0
504,645,0,0,0,0,0,0,0,0,0,-1,1728,379,0,0
511,645,0,0,0,0,0,0,0,0,0,-1,1735,379,0,0
518,645,0,0,0,0,0,0,0,0,0,-1,1742,379,0,0
525,645,0,0,0,0,0,0,0,0,0,-1,1749,379,0,0
532,645,0,0,0,0,0,0,0,0,0,-1,1756,379,0,0
539,645,0,0,0,0,0,0,0,0,0,-1,1763,379,0,0
546,645,0,0,0,0,0,0,0,0,0,-1,1770,379,0,0
553,645,0,0,0,0,0,0,0,0,0,-1,1777,379,0,0
560,645,0,0,0,0,0,0,0,0,0,-1,1784,379,0,0
567,645,0,0,0,0,0,0,0,0,0,-1,1791,379,0,0
574,645,0,0,0,0,0,0,0,0,0,-1,1798,379,0,0
581,645,0,0,0,0,0,0,0,0,0,-1,1805,379,0,0
588,645,0,0,0,0,0,0,0,0,0,-1,1812,379,0,0
595,645,0,0,0,0,0,0,0,0,0,-1,1819,379,0,0
602,645,0,0,0,0,0,0,0,0,0,-1,1826,379,0,0
609,645,0,0,0,0,0,0,0,0,0,-1,1833,379,0,0
616,645,0,0,0,0,0,0,0,0,0,-1,1840,379,0,0
623,645,0,0,0,0,0,0,0,0,0,-1,1847,379,0,0
630,645,0,0,0,0,0,0,0,0,0,-1,1854,379,0,0
637,645,0,0,0,0,0,0,0,0,0,-1,1861,379,0,0
644,645,0,0,0,0,0,0,0,0,0,-1,1868,379,0,0
651,645,0,0,0,0,0,0,0,0,0,-1,1875,379,0,0
658,645,0,0,0,0,0,0,0,0,0,-1,1882,379,0,0
665,645,0,0,0,0,0,0,0,0,0,-1,1889,379,0,0
672,645,0,0,0,0,0,0,0,0,0,-1,1896,379,0,0
679,645,0,0,0,0,0,0,0,0,0,-1,1903,379,0,0
686,645,0,0,0,0,0,0,0,0,0,-1,1910,379,0,0
693,645,0,0,0,0,0,0,0,0,0,-1,1917,379,0,0
700,645,0,0,0,0,0,0,0,0,0,-1,1924,379,0,0
707,645,0,0,0,0,0,0,0,0,0,-1,1931,379,0,0
714,645,0,0,0,0,0,0,0,0,0,-1,1938,379,0,0
721,645,0,0,0,0,0,0,0,0,0,-1,1945,379,0,0
728,645,0,0,0,0,0,0,0,0,0,-1,1952,379,0,0
735,645,0,0,0,0,0,0,0,0,0,-1,1959,379,0,0
742,645,0,0,0,0,0,0,0,0,0,-1,1966,379,0,0
749,645,0,0,0,0,0,0,0,0,0,-1,1973,379,0,0
756,645,0,0,0,0,0,0,0,0,0,-1,1980,379,0,0
763,645,0,0,0,0,0,0,0,0,0,-1,1987,379,0,0
770,645,0,0,0,0,0,0,0,0,0,-1,1994,379,0,0
777,645,0,0,0,0,0,0,0,0,0,-1,2001,379,0,0
784,645,0,0,0,0,0,0,0,0,0,-1,2008,379,0,0
791,645,0,0,0,0,0,0,0,0,0,-1,2015,379,0,0
798,645,0,0,0,0,0,0,0,0,0,-1,2022,379,0,0
805,645,0,0,0,0,0,0,0,0,0,-1,2029,379,0,0
812,645,0,0,0,0,0,0,0,0,0,-1,2036,379,0,0
-700,638,0,0,0,0,0,0,0,0,0,-1,524,386,0,0
-693,638,0,0,0,0,0,0,0,0,0,-1,531,386,0,0
-686,638,0,0,0,0,0,0,0,0,0,-1,538,386,0,0
-679,638,0,0,0,0,0,0,0,0,0,-1,545,386,0,0
-672,638,0,0,0,0,0,0,0,0,0,-1,552,386,0,0
-665,638,0,0,0,0,0,0,0,0,0,-1,559,386,0,0
-658,638,0,0,0,0,0,0,0,0,0,-1,566,386,0,0
-651,638,0,0,0,0,0,0,0,0,0,-1,573,386,0,0
-644,638,0,0,0,0,0,0,0,0,0,-1,580,386,0,0
-637,638,0,0,0,0,0,0,0,0,0,-1,587,386,0,0
-630,638,0,0,0,0,0,0,0,0,0,-1,594,386,0,0
-623,638,0,0,0,0,0,0,0,0,0,-1,601,386,0,0
-616,638,0,0,0,0,0,0,0,0,0,-1,608,386,0,0
-609,638,0,0,0,0,0,0,0,0,0,-1,615,386,0,0
-602,638,0,0,0,0,0,0,0,0,0,-1,622,386,0,0
-595,638,0,0,0,0,0,0,0,0,0,-1,629,386,0,0
-588,638,0,0,0,0,0,0,0,0,0,-1,636,386,0,0
-581,638,0,0,0,0,0,0,0,0,0,-1,643,386,0,0
-574,638,0,0,0,0,0,0,0,0,0,-1,650,386,0,0
-567,638,0,0,0,0,0,0,0,0,0,-1,657,386,0,0
-560,638,0,0,0,0,0,0,0,0,0,-1,664,386,0,0
-553,638,0,0,0,0,0,0,0,0,0,-1,671,386,0,0
-546,638,0,0,0,0,0,0,0,0,0,-1,678,386,0,0
-539,638,0,0,0,0,0,0,0,0,0,-1,685,386,0,0
-532,638,0,0,0,0,0,0,0,0,0,-1,692,386,0,0
-525,638,0,0,0,0,0,0,0,0,0,-1,699,386,0,0
-518,638,0,0,0,0,0,0,0,0,0,-1,706,386,0,0
-511,638,0,0,0,0,0,0,0,0,0,-1,713,386,0,0
-504,638,0,0,0,0,0,0,0,0,0,-1,720,386,0,0
-497,638,0,0,0,0,0,0,0,0,0,-1,727,386,0,0
-490,638,0,0,0,0,0,0,0,0,0,-1,734,386,0,0
-483,638,0,0,0,0,0,0,0,0,0,-1,741,386,0,0
-476,638,0,0,0,0,0,0,0,0,0,-1,748,386,0,0
-469,638,0,0,0,0,0,0,0,0,0,-1,755,386,0,0
-462,638,0,0,0,0,0,0,0,0,0,-1,762,386,0,0
-455,638,0,0,0,0,0,0,0,0,0,-1,769,386,0,0
-448,638,0,0,0,0,0,0,0,0,0,-1,776,386,0,0
-441,638,0,0,0,0,0,0,0,0,0,-1,783,386,0,0
-434,638,0,0,0,0,0,0,0,0,0,-1,790,386,0,0
-427,638,0,0,0,0,0,0,0,0,0,-1,797,386,0,0
-420,638,0,0,0,0,0,0,0,0,0,-1,804,386,0,0
-413,638,0,0,0,0,0,0,0,0,0,-1,811,386,0,0
-406,638,0,0,0,0,0,0,0,0,0,-1,818,386,0,0
-399,638,0,0,0,0,0,0,0,0,0,-1,825,386,0,0
-392,638,0,0,0,0,0,0,0,0,0,-1,832,386,0,0
-385,638,0,0,0,0,0,0,0,0,0,-1,839,386,0,0
-378,638,0,0,0,0,0,0,0,0,0,-1,846,386,0,0
-371,638,0,0,0,0,0,0,0,0,0,-1,853,386,0,0
-364,638,0,0,0,0,0,0,0,0,0,-1,860,386,0,0
-357,638,0,0,0,0,0,0,0,0,0,-1,867,386,0,0
-350,638,0,0,0,0,0,0,0,0,0,-1,874,386,0,0
-343,638,0,0,0,0,0,0,0,0,0,-1,881,386,0,0
-336,638,0,0,0,0,0,0,0,0,0,-1,888,386,0,0
-329,638,0,0,0,0,0,0,0,0,0,-1,895,386,0,0
-322,638,0,0,0,0,0,0,0,0,0,-1,902,386,0,0
-315,638,0,0,0,0,0,0,0,0,0,-1,909,386,0,0
-308,638,0,0,0,0,0,0,0,0,0,-1,916,386,0,0
-301,638,0,0,0,0,0,0,0,0,0,-1,923,386,0,0
-294,638,0,0,0,0,0,0,0,0,0,-1,930,386,0,0
-287,638,0,0,0,0,0,0,0,0,0,-1,937,386,0,0
-280,638,0,0,0,0,0,0,0,0,0,-1,944,386,0,0
-273,638,0,0,0,0,0,0,0,0,0,-1,951,386,0,0
-266,638,-0.294006,-0.444,0,0,0,0,0,0,0,-1,958,386,-0.293992,0.444001
-259,638,3.64807,-1.84915,0,0,0,0,0,0,0,-1,965,386,3.64805,1.84914
-252,638,4.36072,-1.10019,0.0434709,-0.0116606,0.0748504,0.0956702,-0.0638599,0.608966,0.0927131,0.046443,972,386,4.36072,1.1002
-245,638,5.0755,-0.498474,0.0352686,-0.0080097,0.0666011,0.0836577,-0.0563988,0.628324,0.0813706,0.0466894,979,386,5.07552,0.498474
-238,638,5.42633,-0.374573,0.0276907,-0.00489991,0.0575108,0.0711702,-0.0483794,0.647345,0.0694388,0.0497674,986,386,5.42634,0.374585
-231,638,5.39459,-0.28299,0.0203617,-0.00190447,0.0480428,0.0585446,-0.0400873,0.671541,0.0572765,0.0452874,993,386,5.39461,0.282981
-224,638,1.46826,-1.61755,0,0,0,0,0,0,0,-1,1000,386,1.46823,1.61757
-217,638,1.6723,-1.45758,0,0,0,0,0,0,0,-1,1007,386,1.67231,1.45759
-210,638,1.47717,-1.56149,0,0,0,0,0,0,0,-1,1014,386,1.47716,1.56149
-203,638,1.28198,-1.66541,0,0,0,0,0,0,0,-1,1021,386,1.282,1.66539
-196,638,0.472534,-1.61658,0,0,0,0,0,0,0,-1,1028,386,0.472502,1.61657
-189,638,1.43542,-1.26593,0,0,0,0,0,0,0,-1,1035,386,1.43549,1.26594
-182,638,2.40674,-1.10724,0,0,0,0,0,0,0,-1,1042,386,2.40673,1.10723
-175,638,2.15967,-1.1792,-0.000385112,0.0057432,-0.000656131,0.00581266,-0.000454574,-1.46532,0.00403518,0.0410982,1049,386,2.15965,1.17919
-168,638,1.96448,-1.52454,0.000398804,0.00574563,0.0014683,0.00612231,2.2128e-05,1.31967,0.00407418,0.0323463,1056,386,1.96445,1.52453
-161,638,1.89893,-1.59879,0.000795011,0.00568963,0.00371278,0.00768913,-0.00120448,1.07679,0.00557115,0.0265406,1063,386,1.89889,1.59879
-154,638,1.93262,-1.6051,0.00120817,0.00549718,0.00513932,0.00892147,-0.00221612,0.983053,0.00680767,0.0204457,1070,386,1.93259,1.60509
-147,638,1.91992,-1.6376,0.00133567,0.00513668,0.00550479,0.0090598,-0.00258745,0.951615,0.00706216,0.0177848,1077,386,1.91987,1.63759
-140,638,1.91443,-1.63196,0,0,0,0,0,0,0,-1,1084,386,1.91438,1.63195
-133,638,1.89978,-1.7142,0.000186967,0.00461303,0.00564312,0.00846155,-0.00366155,0.972265,0.00717982,0.0109384,1091,386,1.89983,1.71419
-126,638,1.91248,-1.72681,-0.000688261,0.00451347,0.00509816,0.00763587,-0.00381065,1.02127,0.00673053,0.011979,1098,386,1.9125,1.72681
-119,638,1.92761,-1.72845,-0.00156529,0.00433831,0.0047192,0.00695283,-0.00417982,1.06487,0.00649356,0.0144047,1105,386,1.92766,1.72846
-112,638,1.93274,-1.767,-0.00285179,0.00457427,0.00414381,0.00642521,-0.00470273,1.15071,0.00645033,0.0142656,1112,386,1.93279,1.76699
-105,638,1.9198,-1.80493,-0.0044372,0.00485977,0.00325649,0.00588695,-0.00546438,1.26525,0.00655521,0.0159784,1119,386,1.91983,1.80492
-98,638,1.91089,-1.8071,-0.00570039,0.00521077,0.00217978,0.00563012,-0.00611974,1.38074,0.00678575,0.015516,1126,386,1.91083,1.8071
-91,638,1.88977,-1.84,-0.00626073,0.00509295,0.00144716,0.00527451,-0.00644229,1.44599,0.00677589,0.0125163,1133,386,1.88973,1.84
-84,638,1.88794,-1.85086,-0.00650547,0.0053205,0.00102927,0.00540941,-0.00659438,1.48463,0.00694164,0.0139737,1140,386,1.88795,1.85085
-77,638,1.87463,-1.86063,-0.0068462,0.00523684,0.000576588,0.00526429,-0.00687365,1.52322,0.00702835,0.010893,1147,386,1.87465,1.86062
-70,638,1.88904,-1.87335,-0.00678954,0.00501705,0.00018055,0.00501981,-0.0067923,1.55551,0.00684527,0.00942094,1154,386,1.88903,1.87336
-63,638,1.89783,-1.89197,-0.00568982,0.00482941,-9.8802e-05,0.00483034,-0.00569075,-1.5614,0.00608112,0.00979756,1161,386,1.89782,1.89196
-56,638,1.9021,-1.90085,-0.00423641,0.00463196,-0.00056707,0.00466807,-0.00427253,-1.5072,0.00516354,0.0131693,1168,386,1.90206,1.90086
-49,638,1.90845,-1.89935,-0.00271903,0.00413118,-0.000471421,0.00416347,-0.00275132,-1.50241,0.00401991,0.012351,1175,386,1.90848,1.89935
-42,638,1.90076,-1.9436,-0.00116847,0.00394632,0.000288385,0.00396252,-0.00118468,1.51465,0.00311265,0.0112188,1182,386,1.9007,1.9436
-35,638,1.90271,-1.97595,0.000613337,0.00388494,0.000599274,0.00399126,0.00050702,1.39521,0.00250897,0.0094603,1189,386,1.90272,1.97595
-28,638,1.89478,-1.98956,0.00213247,0.00355564,0.000821706,0.00393105,0.00175707,1.14225,0.00227384,0.00941162,1196,386,1.89475,1.98958
-21,638,1.87952,-1.96652,0.00304497,0.00414848,0.0012468,0.00496015,0.00223329,0.993713,0.00286847,0.0109475,1203,386,1.8795,1.96651
-14,638,1.88733,-1.95734,0.00362417,0.00437546,0.00144993,0.00549761,0.00250201,0.912151,0.00317831,0.0110262,1210,386,1.88737,1.95734
-7,638,1.87927,-2.03006,0.00391203,0.00458473,0.0017511,0.00603149,0.00246527,0.880283,0.00350157,0.0159427,1217,386,1.87929,2.03006
0,638,1.95081,-2.07623,0.00369882,0.00490085,0.00191428,0.00630624,0.00229342,0.937508,0.00368575,0.0262355,1224,386,1.95086,2.07624
7,638,1.94153,-2.05679,0.003121,0.0053444,0.00201377,0.00653295,0.00193246,1.03761,0.00387523,0.0208462,1231,386,1.94158,2.05679
14,638,1.896,-2.01056,0.00247642,0.00553906,0.00194404,0.00648246,0.00153302,1.119,0.00391207,0.01177,1238,386,1.89596,2.01056
21,638,1.89197,-2.00745,0.00181424,0.00536785,0.00164677,0.00601363,0.00116847,1.19708,0.00368192,0.0101815,1245,386,1.89197,2.00746
28,638,1.89197,-2.00293,0.00124556,0.00490268,0.00141057,0.00538352,0.000764719,1.24226,0.00336322,0.00794722,1252,386,1.89193,2.00293
35,638,1.88806,-2.02225,0.000834586,0.00424169,0.00121361,0.00462977,0.000446505,1.2613,0.00294897,0.00891367,1259,386,1.88805,2.02226
42,638,1.89966,-2.04523,0.000816974,0.00332459,0.00101332,0.00368287,0.000458688,1.23094,0.00231753,0.00887485,1266,386,1.89971,2.04523
49,638,1.90015,-2.02225,0.000857239,0.0022959,0.000667915,0.00255817,0.000594966,1.19662,0.00154578,0.00783173,1273,386,1.9001,2.02224
56,638,1.89575,-2.00058,0.000905306,0.00114949,0.00027004,0.00132376,0.000731041,0.997711,0.000765662,0.0103685,1280,386,1.89578,2.00058
63,638,1.90308,-2.03342,0.00116798,-0.000150642,-0.000241782,0.00121092,-0.000193577,-0.175745,0.000878939,0.0128091,1287,386,1.90312,2.03341
70,638,1.89465,-2.03705,0.00148397,-0.00132613,-0.000735026,0.00166462,-0.00150677,-0.240991,0.00183176,0.0162791,1294,386,1.89464,2.03705
77,638,1.90344,-2.0321,0.00181835,-0.00195386,-0.000831468,0.00199349,-0.002129,-0.207605,0.00238055,0.0168807,1301,386,1.9034,2.03212
84,638,1.90845,-2.02298,0.00218815,-0.00299743,-0.000974288,0.00236516,-0.00317444,-0.179722,0.00320964,0.0125951,1308,386,1.9085,2.02298
91,638,1.90405,-2.00482,0.00218372,-0.00305307,-0.000938642,0.00234688,-0.00321623,-0.172105,0.00322491,0.0135042,1315,386,1.90402,2.00482
98,638,1.90466,-2.00455,0.0018754,-0.00290492,-0.00103068,0.00208816,-0.00311767,-0.203563,0.00302512,0.0118931,1322,386,1.90469,2.00456
105,638,1.89575,-2.0141,0.00156207,-0.00265018,-0.00110794,0.00183571,-0.00292383,-0.242138,0.00277175,0.00854889,1329,386,1.89573,2.0141
112,638,1.88818,-2.01288,0.00144165,-0.00222101,-0.00109488,0.00174398,-0.00252335,-0.269422,0.0024774,0.00836286,1336,386,1.88816,2.01288
119,638,1.89575,-2.00198,0.00133644,-0.00169878,-0.0010169,0.00164564,-0.00200798,-0.295177,0.00211287,0.0106425,1343,386,1.89576,2.00197
126,638,1.89978,-2.00229,0.0011401,-0.00121421,-0.000944923,0.00147244,-0.00154655,-0.338198,0.00174319,0.0148791,1350,386,1.89982,2.0023
133,638,1.89258,-1.98743,0.00099335,-0.000767037,-0.000774211,0.0012854,-0.00105908,-0.360713,0.00135569,0.0154901,1357,386,1.89264,1.98743
140,638,1.90039,-1.96933,0.000821628,-0.000439293,-0.000525841,0.00101214,-0.000629801,-0.347583,0.000956501,0.0154286,1364,386,1.90043,1.96934
147,638,1.90588,-1.9675,0.000324433,-0.000329033,-0.00039984,0.000514059,-0.000518659,-0.44284,0.000596242,0.0156867,1371,386,1.90585,1.9675
154,638,1.92407,-1.97742,-6.98422e-05,-0.000507769,-0.000346843,0.000121371,-0.000698983,-0.503838,0.000511271,0.0141394,1378,386,1.92412,1.97742
161,638,1.87402,-1.98346,-0.000560882,-0.000536269,-0.000392409,-0.000155973,-0.000941178,-0.801074,0.000582464,0.0172469,1385,386,1.87407,1.98347
168,638,1.86487,-1.96408,-0.00113037,-0.000480487,-0.000473475,-0.000231175,-0.00137968,-1.08613,0.000853231,0.0222859,1392,386,1.86488,1.96408
175,638,1.92224,-1.92957,-0.00179626,-0.000451788,-0.000730475,-0.000131304,-0.00211675,-1.15735,0.0013695,0.0182083,1399,386,1.92223,1.92957
182,638,1.93506,-1.91251,-0.00245782,-0.000421528,-0.00113759,8.70005e-05,-0.00296635,-1.15042,0.0020072,0.0120863,1406,386,1.93503,1.91251
189,638,1.93286,-1.89639,-0.00280548,-0.000184239,-0.00151832,0.000510885,-0.00350061,-1.14145,0.00252135,0.0107751,1413,386,1.93283,1.89639
196,638,1.93152,-1.87769,-0.00300537,0.000391665,-0.00156714,0.00100418,-0.00361789,-1.1982,0.00280718,0.0134263,1420,386,1.93154,1.87769
203,638,1.92749,-1.86646,-0.00310859,0.00151848,-0.00137911,0.00189834,-0.00348845,-1.30202,0.00315491,0.0186337,1427,386,1.9275,1.86646
210,638,1.91345,-1.85461,-0.00306215,0.00333183,-0.000962808,0.00347366,-0.00320398,-1.42454,0.00385639,0.01559,1434,386,1.91343,1.85462
217,638,1.90588,-1.86624,-0.00296328,0.00478868,-0.000700377,0.00485145,-0.00302605,-1.48141,0.0045886,0.0112737,1441,386,1.90592,1.86624
224,638,1.89124,-1.83344,-0.002384,0.00628597,-0.000236884,0.00629244,-0.00239047,-1.5435,0.00517906,0.00997063,1448,386,1.8912,1.83344
231,638,1.89233,-1.79007,-0.00139668,0.00794403,0.000480371,0.00796867,-0.00142132,1.51955,0.00584412,0.0111214,1455,386,1.89239,1.79008
238,638,1.87769,-1.77243,-0.000345304,0.00924873,0.00110135,0.00937353,-0.000470111,1.45796,0.00641147,0.0127334,1462,386,1.87772,1.77243
245,638,1.89319,-1.74707,0.000642741,0.0105178,0.00180416,0.0108371,0.00032345,1.39563,0.00711938,0.0155007,1469,386,1.89316,1.74706
252,638,1.90076,-1.72769,0.00212705,0.0113027,0.00267998,0.0120281,0.00140164,1.30646,0.00759478,0.0174534,1476,386,1.90072,1.72769
259,638,1.91309,-1.6951,0.00351615,0.0116981,0.00369235,0.0131179,0.00209626,1.20368,0.00813705,0.0146373,1483,386,1.91306,1.6951
266,638,1.88953,-1.6644,0.00437605,0.0114592,0.00437689,0.0135479,0.00228735,1.12555,0.00837426,0.0104936,1490,386,1.88947,1.66439
273,638,1.88684,-1.67441,0.0045775,0.0106136,0.00460491,0.0131014,0.00208975,1.07548,0.00812771,0.00975306,1497,386,1.88684,1.6744
280,638,1.90979,-1.63843,0.00500084,0.00941873,0.00509067,0.0127591,0.00166052,0.990099,0.00801011,0.0153942,1504,386,1.90977,1.63844
287,638,1.97681,-1.58154,0.00428199,0.00584304,0.00613686,0.0112488,-0.00112378,0.848652,0.00790048,0.0272577,1511,386,1.97681,1.58153
294,638,1.99927,-1.56256,0.00195141,0.0001164,0.00747569,0.00856569,-0.00649788,0.724338,0.00872423,0.0355679,1518,386,1.99925,1.56257
301,638,2.02429,-1.51193,-0.00179637,-0.00865482,0.00862287,0.00405414,-0.0145053,0.596142,0.0112674,0.0434075,1525,386,2.02427,1.51194
308,638,2.2345,-1.3382,-0.00650589,-0.0191375,0.00982227,-0.00114408,-0.0244993,0.499676,0.0159652,0.0420543,1532,386,2.23445,1.33821
315,638,1.95129,-1.38541,-0.0121499,-0.0314929,0.011733,-0.00661608,-0.0370267,0.440707,0.0228014,0.0405004,1539,386,1.95126,1.38541
322,638,1.46802,-1.41098,-0.0182303,-0.0424622,0.0141343,-0.0117297,-0.0489628,0.431069,0.0295193,0.0418336,1546,386,1.46796,1.41097
329,638,1.35242,-0.853119,0,0,0,0,0,0,0,-1,1553,386,1.35239,0.853113
336,638,3.27771,-2.71466,-0.0326079,-0.0673583,0.0205137,-0.0230998,-0.0768664,0.434023,0.0455409,0.0452736,1560,386,3.27775,2.71465
343,638,3.22766,-3.03033,-0.0398812,-0.0799892,0.0236618,-0.0289184,-0.090952,0.43387,0.0536588,0.0431383,1567,386,3.22771,3.03033
350,638,2.7168,-2.83087,-0.0463331,-0.0915227,0.0264281,-0.0341577,-0.103698,0.431717,0.0610208,0.0442225,1574,386,2.71678,2.83086
357,638,2.12329,-2.88181,-0.0528422,-0.102031,0.0293086,-0.039176,-0.115698,0.436315,0.0679481,0.0453718,1581,386,2.12334,2.88181
364,638,1.3761,-2.81189,-0.0581388,-0.110764,0.0324362,-0.0426847,-0.126218,0.444627,0.0741334,0.0433369,1588,386,1.37613,2.81189
371,638,0.952148,-2.8241,-0.0607964,-0.11585,0.0356499,-0.0432828,-0.133364,0.456636,0.078562,0.0406762,1595,386,0.952166,2.8241
378,638,0.647705,-2.71756,-0.0630495,-0.118669,0.0392085,-0.0427897,-0.138929,0.476934,0.0821585,0.0410233,1602,386,0.647761,2.71756
385,638,0,0,0,0,0,0,0,0,0,-1,1609,386,0,0
392,638,0,0,0,0,0,0,0,0,0,-1,1616,386,0,0
399,638,0,0,0,0,0,0,0,0,0,-1,1623,386,0,0
406,638,0,0,0,0,0,0,0,0,0,-1,1630,386,0,0
413,638,0,0,0,0,0,0,0,0,0,-1,1637,386,0,0
420,638,0,0,0,0,0,0,0,0,0,-1,1644,386,0,0
427,638,0,0,0,0,0,0,0,0,0,-1,1651,386,0,0
434,638,0,0,0,0,0,0,0,0,0,-1,1658,386,0,0
441,638,0,0,0,0,0,0,0,0,0,-1,1665,386,0,0
448,638,0,0,0,0,0,0,0,0,0,-1,1672,386,0,0
455,638,0,0,0,0,0,0,0,0,0,-1,1679,386,0,0
462,638,0,0,0,0,0,0,0,0,0,-1,1686,386,0,0
469,638,0,0,0,0,0,0,0,0,0,-1,1693,386,0,0
476,638,0,0,0,0,0,0,0,0,0,-1,1700,386,0,0
483,638,0,0,0,0,0,0,0,0,0,-1,1707,386,0,0
490,638,0,0,0,0,0,0,0,0,0,-1,1714,386,0,0
497,638,0,0,0,0,0,0,0,0,0,-1,1721,386,0,0
504,638,0,0,0,0,0,0,0,0,0,-1,1728,386,0,0
511,638,0,0,0,0,0,0,0,0,0,-1,1735,386,0,0
518,638,0,0,0,0,0,0,0,0,0,-1,1742,386,0,0
525,638,0,0,0,0,0,0,0,0,0,-1,1749,386,0,0
532,638,0,0,0,0,0,0,0,0,0,-1,1756,386,0,0
539,638,0,0,0,0,0,0,0,0,0,-1,1763,386,0,0
546,638,0,0,0,0,0,0,0,0,0,-1,1770,386,0,0
553,638,0,0,0,0,0,0,0,0,0,-1,1777,386,0,0
560,638,0,0,0,0,0,0,0,0,0,-1,1784,386,0,0
567,638,0,0,0,0,0,0,0,0,0,-1,1791,386,0,0
574,638,0,0,0,0,0,0,0,0,0,-1,1798,386,0,0
581,638,0,0,0,0,0,0,0,0,0,-1,1805,386,0,0
588,638,0,0,0,0,0,0,0,0,0,-1,1812,386,0,0
595,638,0,0,0,0,0,0,0,0,0,-1,1819,386,0,0
602,638,0,0,0,0,0,0,0,0,0,-1,1826,386,0,0
609,638,0,0,0,0,0,0,0,0,0,-1,1833,386,0,0
616,638,0,0,0,0,0,0,0,0,0,-1,1840,386,0,0
623,638,0,0,0,0,0,0,0,0,0,-1,1847,386,0,0
630,638,0,0,0,0,0,0,0,0,0,-1,1854,386,0,0
637,638,0,0,0,0,0,0,0,0,0,-1,1861,386,0,0
644,638,0,0,0,0,0,0,0,0,0,-1,1868,386,0,0
651,638,0,0,0,0,0,0,0,0,0,-1,1875,386,0,0
658,638,0,0,0,0,0,0,0,0,0,-1,1882,386,0,0
665,638,0,0,0,0,0,0,0,0,0,-1,1889,386,0,0
672,638,0,0,0,0,0,0,0,0,0,-1,1896,386,0,0
679,638,0,0,0,0,0,0,0,0,0,-1,1903,386,0,0
686,638,0,0,0,0,0,0,0,0,0,-1,1910,386,0,0
693,638,0,0,0,0,0,0,0,0,0,-1,1917,386,0,0
700,638,0,0,0,0,0,0,0,0,0,-1,1924,386,0,0
707,638,0,0,0,0,0,0,0,0,0,-1,1931,386,0,0
714,638,0,0,0,0,0,0,0,0,0,-1,1938,386,0,0
721,638,0,0,0,0,0,0,0,0,0,-1,1945,386,0,0
728,638,0,0,0,0,0,0,0,0,0,-1,1952,386,0,0
735,638,0,0,0,0,0,0,0,0,0,-1,1959,386,0,0
742,638,0,0,0,0,0,0,0,0,0,-1,1966,386,0,0
749,638,0,0,0,0,0,0,0,0,0,-1,1973,386,0,0
756,638,0,0,0,0,0,0,0,0,0,-1,1980,386,0,0
763,638,0,0,0,0,0,0,0,0,0,-1,1987,386,0,0
770,638,0,0,0,0,0,0,0,0,0,-1,1994,386,0,0
777,638,0,0,0,0,0,0,0,0,0,-1,2001,386,0,0
784,638,0,0,0,0,0,0,0,0,0,-1,2008,386,0,0
791,638,0,0,0,0,0,0,0,0,0,-1,2015,386,0,0
798,638,0,0,0,0,0,0,0,0,0,-1,2022,386,0,0
805,638,0,0,0,0,0,0,0,0,0,-1,2029,386,0,0
812,638,0,0,0,0,0,0,0,0,0,-1,2036,386,0,0
-700,631,0,0,0,0,0,0,0,0,0,-1,524,393,0,0
-693,631,0,0,0,0,0,0,0,0,0,-1,531,393,0,0
-686,631,0,0,0,0,0,0,0,0,0,-1,538,393,0,0
-679,631,0,0,0,0,0,0,0,0,0,-1,545,393,0,0
-672,631,0,0,0,0,0,0,0,0,0,-1,552,393,0,0
-665,631,0,0,0,0,0,0,0,0,0,-1,559,393,0,0
-658,631,0,0,0,0,0,0,0,0,0,-1,566,393,0,0
-651,631,0,0,0,0,0,0,0,0,0,-1,573,393,0,0
-644,631,0,0,0,0,0,0,0,0,0,-1,580,393,0,0
-637,631,0,0,0,0,0,0,0,0,0,-1,587,393,0,0
-630,631,0,0,0,0,0,0,0,0,0,-1,594,393,0,0
-623,631,0,0,0,0,0,0,0,0,0,-1,601,393,0,0
-616,631,0,0,0,0,0,0,0,0,0,-1,608,393,0,0
-609,631,0,0,0,0,0,0,0,0,0,-1,615,393,0,0
-602,631,0,0,0,0,0,0,0,0,0,-1,622,393,0,0
-595,631,0,0,0,0,0,0,0,0,0,-1,629,393,0,0
-588,631,0,0,0,0,0,0,0,0,0,-1,636,393,0,0
-581,631,0,0,0,0,0,0,0,0,0,-1,643,393,0,0
-574,631,0,0,0,0,0,0,0,0,0,-1,650,393,0,0
-567,631,0,0,0,0,0,0,0,0,0,-1,657,393,0,0
-560,631,0,0,0,0,0,0,0,0,0,-1,664,393,0,0
-553,631,0,0,0,0,0,0,0,0,0,-1,671,393,0,0
-546,631,0,0,0,0,0,0,0,0,0,-1,678,393,0,0
-539,631,0,0,0,0,0,0,0,0,0,-1,685,393,0,0
-532,631,0,0,0,0,0,0,0,0,0,-1,692,393,0,0
-525,631,0,0,0,0,0,0,0,0,0,-1,699,393,0,0
-518,631,0,0,0,0,0,0,0,0,0,-1,706,393,0,0
-511,631,0,0,0,0,0,0,0,0,0,-1,713,393,0,0
-504,631,0,0,0,0,0,0,0,0,0,-1,720,393,0,0
-497,631,0,0,0,0,0,0,0,0,0,-1,727,393,0,0
-490,631,0,0,0,0,0,0,0,0,0,-1,734,393,0,0
-483,631,0,0,0,0,0,0,0,0,0,-1,741,393,0,0
-476,631,0,0,0,0,0,0,0,0,0,-1,748,393,0,0
-469,631,0,0,0,0,0,0,0,0,0,-1,755,393,0,0
-462,631,0,0,0,0,0,0,0,0,0,-1,762,393,0,0
-455,631,0,0,0,0,0,0,0,0,0,-1,769,393,0,0
-448,631,0,0,0,0,0,0,0,0,0,-1,776,393,0,0
-441,631,0,0,0,0,0,0,0,0,0,-1,783,393,0,0
-434,631,0,0,0,0,0,0,0,0,0,-1,790,393,0,0
-427,631,0,0,0,0,0,0,0,0,0,-1,797,393,0,0
-420,631,0,0,0,0,0,0,0,0,0,-1,804,393,0,0
-413,631,0,0,0,0,0,0,0,0,0,-1,811,393,0,0
-406,631,0,0,0,0,0,0,0,0,0,-1,818,393,0,0
-399,631,0,0,0,0,0,0,0,0,0,-1,825,393,0,0
-392,631,0,0,0,0,0,0,0,0,0,-1,832,393,0,0
-385,631,0,0,0,0,0,0,0,0,0,-1,839,393,0,0
-378,631,0,0,0,0,0,0,0,0,0,-1,846,393,0,0
-371,631,0,0,0,0,0,0,0,0,0,-1,853,393,0,0
-364,631,0,0,0,0,0,0,0,0,0,-1,860,393,0,0
-357,631,0,0,0,0,0,0,0,0,0,-1,867,393,0,0
-350,631,0,0,0,0,0,0,0,0,0,-1,874,393,0,0
-343,631,0,0,0,0,0,0,0,0,0,-1,881,393,0,0
-336,631,0,0,0,0,0,0,0,0,0,-1,888,393,0,0
-329,631,0,0,0,0,0,0,0,0,0,-1,895,393,0,0
-322,631,0,0,0,0,0,0,0,0,0,-1,902,393,0,0
-315,631,0,0,0,0,0,0,0,0,0,-1,909,393,0,0
-308,631,0,0,0,0,0,0,0,0,0,-1,916,393,0,0
-301,631,0,0,0,0,0,0,0,0,0,-1,923,393,0,0
-294,631,0,0,0,0,0,0,0,0,0,-1,930,393,0,0
-287,631,0,0,0,0,0,0,0,0,0,-1,937,393,0,0
-280,631,3.20813,-0.803955,0.0407247,-0.0158776,0.0602426,0.0789828,-0.0541357,0.565805,0.0773009,0.0443418,944,393,3.20811,0.803946
-273,631,4.04999,-0.954559,0.0419801,-0.0149632,0.0633453,0.0829581,-0.0559413,0.574193,0.0806976,0.0456829,951,393,4.04996,0.954559
-266,631,4.31982,-1.40427,0,0,0,0,0,0,0,-1,958,393,4.31984,1.40427
-259,631,4.3371,-1.37283,0.0380916,-0.00943639,0.0630153,0.0816748,-0.0530196,0.605086,0.0783503,0.0460827,965,393,4.3371,1.37283
-252,631,3.76593,-0.551208,0.0331735,-0.00630276,0.0590719,0.0757176,-0.0488469,0.624161,0.072473,0.0469819,972,393,3.76591,0.551195
-245,631,4.23645,-0.352051,0.0270223,-0.0035439,0.05236,0.066284,-0.0428057,0.643401,0.0634673,0.0466222,979,393,4.23643,0.352037
-238,631,4.63568,-0.488586,0.0209869,-0.0012055,0.0448815,0.0561236,-0.0363422,0.664212,0.0537908,0.047928,986,393,4.63566,0.488578
-231,631,4.61627,-0.839081,0.0150769,0.000912677,0.0370768,0.0457419,-0.0297523,0.691029,0.0439112,0.0441599,993,393,4.61627,0.839088
-224,631,1.13336,-1.66553,0,0,0,0,0,0,0,-1,1000,393,1.13337,1.66552
-217,631,1.47424,-1.51541,0.00355031,0.00488955,0.019733,0.0239642,-0.0155244,0.802359,0.0229717,0.0443022,1007,393,1.47425,1.51541
-210,631,1.49884,-1.45557,0.00260039,0.00543368,0.013055,0.0171487,-0.00911463,0.839443,0.0153978,0.0460985,1014,393,1.49884,1.45558
-203,631,1.11578,-1.58273,0.00274866,0.0058195,0.00771407,0.0121495,-0.00358131,0.883635,0.00952066,0.0470877,1021,393,1.1158,1.58273
-196,631,0.789185,-1.50946,-0.000729601,0.00743114,0.00210413,0.00794171,-0.00124018,1.33274,0.0057526,0.0474226,1028,393,0.789149,1.50945
-189,631,0.474243,-1.33771,0,0,0,0,0,0,0,-1,1035,393,0.474218,1.33771
-182,631,2.27954,-1.2634,-0.00338478,0.00571646,-0.00211436,0.00618367,-0.003852,-1.35332,0.00584599,0.0376795,1042,393,2.27955,1.26339
-175,631,2.06372,-1.3587,-0.000751883,0.00455354,-0.000955096,0.00472024,-0.000918584,-1.398,0.00349351,0.0314607,1049,393,2.06376,1.35871
-168,631,1.8905,-1.58557,-5.3979e-05,0.00448589,0.000726446,0.0045993,-0.000167388,1.41593,0.00312349,0.0173841,1056,393,1.89054,1.58556
-161,631,1.89111,-1.60812,0.000342633,0.00439844,0.00251633,0.00560231,-0.000861232,1.12456,0.00405257,0.00907987,1063,393,1.89117,1.60812
-154,631,1.88757,-1.62415,0.000744722,0.00418203,0.00366854,0.00651454,-0.00158779,1.00446,0.00495778,0.00817089,1070,393,1.88753,1.62414
-147,631,1.88672,-1.65112,0.00101943,0.0038194,0.00414775,0.00679706,-0.00195822,0.948159,0.00530596,0.00900006,1077,393,1.88671,1.65112
-140,631,1.89502,-1.70239,0.000854137,0.00347724,0.00468808,0.00703378,-0.0027024,0.921793,0.00580364,0.00858512,1084,393,1.89502,1.70239
-133,631,1.88184,-1.72043,0.000439517,0.00311929,0.00459117,0.0065621,-0.00300329,0.927375,0.00564855,0.00798788,1091,393,1.88181,1.72042
-126,631,1.89819,-1.71255,-9.70625e-05,0.00283967,0.00430047,0.00591555,-0.00317294,0.949914,0.00532628,0.0124723,1098,393,1.89821,1.71256
-119,631,1.91516,-1.71136,-0.000659144,0.00256693,0.00414359,0.00540038,-0.00349259,0.971016,0.00517359,0.0160064,1105,393,1.91513,1.71136
-112,631,1.90894,-1.75006,-0.00158215,0.00266213,0.00386197,0.00494661,-0.00386662,1.03663,0.00510104,0.0144536,1112,393,1.90896,1.75005
-105,631,1.89771,-1.79926,-0.00276778,0.00284934,0.00334561,0.00440898,-0.00432742,1.13457,0.00504403,0.0176586,1119,393,1.89773,1.79926
-98,631,1.89978,-1.81009,-0.00373418,0.00306994,0.00260919,0.00395529,-0.00461953,1.24367,0.00495562,0.0153519,1126,393,1.89981,1.81009
-91,631,1.87354,-1.85144,-0.00417782,0.0029929,0.00208543,0.00355529,-0.00474021,1.30739,0.00480567,0.0165716,1133,393,1.87351,1.85144
-84,631,1.87427,-1.86459,-0.00427794,0.0032281,0.00196044,0.00370928,-0.00475912,1.33011,0.00490174,0.0153044,1140,393,1.87423,1.86461
-77,631,1.86609,-1.84711,-0.00444912,0.00323938,0.00179354,0.00363719,-0.00484693,1.35253,0.00491488,0.00969605,1147,393,1.86608,1.8471
-70,631,1.87854,-1.85403,-0.00430472,0.00311918,0.00165585,0.00347176,-0.0046573,1.361,0.00470992,0.00992153,1154,393,1.87848,1.85405
-63,631,1.89465,-1.88589,-0.00355002,0.00304399,0.00157436,0.00340059,-0.00390662,1.34805,0.00422219,0.00920664,1161,393,1.89464,1.88589
-56,631,1.89807,-1.92181,-0.00258321,0.00295364,0.00137359,0.00327567,-0.00290524,1.34051,0.00357069,0.010699,1168,393,1.89804,1.92182
-49,631,1.89368,-1.93292,-0.00160221,0.0026161,0.00151352,0.00310296,-0.00208907,1.25958,0.00301661,0.0103903,1175,393,1.89369,1.93292
-42,631,1.89966,-1.93204,-0.000699997,0.00230325,0.00188308,0.00321013,-0.00160687,1.12198,0.00283198,0.00874819,1182,393,1.89968,1.93203
-35,631,1.91467,-1.94635,0.000351017,0.00194343,0.0018896,0.00319772,-0.000903268,0.984792,0.00248817,0.00920424,1189,393,1.91471,1.94636
-28,631,1.9043,-1.94873,0.00135547,0.00152523,0.00192507,0.00336729,-0.0004866,0.80743,0.0024234,0.0116279,1196,393,1.90424,1.94873
-21,631,1.8761,-1.95795,0.00228643,0.00133053,0.00208676,0.00394928,-0.000332316,0.67282,0.00275032,0.0104774,1203,393,1.87615,1.95795
-14,631,1.85364,-1.98569,0.00292383,0.00106628,0.00210112,0.0042923,-0.000302191,0.577292,0.0029674,0.0122797,1210,393,1.85362,1.98567
-7,631,1.83899,-2.05554,0.00323906,0.000814264,0.00220203,0.00454039,-0.000487068,0.533753,0.00320166,0.0184449,1217,393,1.83895,2.05554
0,631,1.89587,-2.05316,0.00311769,0.00067238,0.00226813,0.00447172,-0.000681647,0.538196,0.00323241,0.0186473,1224,393,1.89591,2.05315
7,631,1.90686,-2.02847,0.00264729,0.000730978,0.00242823,0.00429957,-0.000921304,0.597482,0.00321775,0.0160411,1231,393,1.90692,2.02847
14,631,1.89844,-2.01535,0.00207298,0.000614158,0.00254896,0.00399484,-0.0013077,0.646042,0.00318976,0.00994435,1238,393,1.89846,2.01535
21,631,1.90576,-2.01071,0.00143896,0.000280582,0.00238737,0.00331639,-0.00159685,0.666395,0.00289399,0.0118111,1245,393,1.90571,2.01072
28,631,1.90308,-2.01431,0.000939578,-0.000257655,0.00226507,0.0026838,-0.00200188,0.656211,0.00271481,0.0123611,1252,393,1.90303,2.01432
35,631,1.89294,-2.01526,0.00078319,-0.000667949,0.00222848,0.00240124,-0.002286,0.628016,0.00270646,0.0113283,1259,393,1.89298,2.01527
42,631,1.89905,-2.03098,0.00116465,-0.0013432,0.00208122,0.00234051,-0.00251905,0.514272,0.0028063,0.0107027,1266,393,1.89905,2.03099
49,631,1.89233,-2.01614,0.0015602,-0.00201748,0.00166345,0.00221411,-0.00267139,0.374547,0.00282476,0.0103064,1273,393,1.89234,2.01614
56,631,1.89795,-2.00861,0.00198407,-0.00266391,0.00103456,0.00220395,-0.00288378,0.209412,0.00294613,0.0120293,1280,393,1.8979,2.00859
63,631,1.90942,-2.04422,0.00262402,-0.00340312,0.000321109,0.00264108,-0.00342018,0.0530769,0.00350909,0.0138873,1287,393,1.90944,2.04423
70,631,1.90845,-2.03009,0.00326875,-0.00387375,-0.000491512,0.00330242,-0.00390742,-0.0683854,0.00416748,0.0136245,1294,393,1.90845,2.03008
77,631,1.90076,-2.02463,0.00383982,-0.00402084,-0.00117375,0.00401134,-0.00419236,-0.145104,0.00473679,0.0135734,1301,393,1.90074,2.02463
84,631,1.90381,-2.03171,0.00418134,-0.00410941,-0.00190655,0.00459876,-0.00452683,-0.215537,0.00526871,0.0119444,1308,393,1.90386,2.03172
91,631,1.8988,-2.03305,0.00435543,-0.00367862,-0.00245347,0.00504542,-0.00436861,-0.27415,0.00543987,0.0151809,1315,393,1.89881,2.03304
98,631,1.88647,-2.04318,0.00438867,-0.00300516,-0.00304484,0.00548114,-0.00409763,-0.344488,0.0055495,0.0132061,1322,393,1.88642,2.04319
105,631,1.88757,-2.03217,0.00422546,-0.00237052,-0.00344977,0.00570007,-0.00384512,-0.403944,0.0055455,0.0100975,1329,393,1.88755,2.03218
112,631,1.89343,-2.01151,0.00400064,-0.00160562,-0.00364987,0.00579958,-0.00340456,-0.457935,0.00537365,0.00982794,1336,393,1.89342,2.01152
119,631,1.89746,-2.01736,0.00374487,-0.000744382,-0.00368392,0.00581413,-0.00281364,-0.511782,0.00508066,0.011203,1343,393,1.89752,2.01736
126,631,1.90466,-2.01523,0.00329134,-1.21112e-05,-0.00358124,0.00558341,-0.00230418,-0.569327,0.00468325,0.0166056,1350,393,1.90464,2.01522
133,631,1.89905,-1.98889,0.00279938,0.000581625,-0.00330593,0.00517745,-0.00179645,-0.623584,0.00418113,0.0173848,1357,393,1.89899,1.98889
140,631,1.90686,-1.97348,0.0021903,0.000840486,-0.00303105,0.00462067,-0.00158989,-0.675853,0.00372527,0.0181636,1364,393,1.9068,1.97347
147,631,1.91003,-1.95108,0.00129906,0.00102282,-0.00278503,0.00394939,-0.00162752,-0.760622,0.00331154,0.0205456,1371,393,1.90997,1.95108
154,631,1.8988,-1.92484,0.000672336,0.000799006,-0.00253461,0.00327107,-0.00179973,-0.79789,0.00296842,0.0191339,1378,393,1.89876,1.92484
161,631,1.88037,-1.96588,3.55307e-05,0.000615006,-0.0023188,0.0026621,-0.00201157,-0.847552,0.00270705,0.0214669,1385,393,1.8804,1.96587
168,631,1.89478,-1.92026,-0.000635628,0.000535869,-0.00218423,0.00221152,-0.00231128,-0.916402,0.00261146,0.02551,1392,393,1.89477,1.92025
175,631,1.90845,-1.91269,-0.00132267,0.000363394,-0.00214998,0.00182972,-0.00278899,-0.972242,0.00268571,0.0190256,1399,393,1.9085,1.91268
182,631,1.92212,-1.89816,-0.00199381,0.000218905,-0.00223311,0.0016047,-0.0033796,-1.01539,0.00293788,0.0106604,1406,393,1.9221,1.89815
189,631,1.92761,-1.88968,-0.00242137,0.000161819,-0.00230605,0.00151335,-0.0037729,-1.04068,0.00314358,0.0102873,1413,393,1.92764,1.88969
196,631,1.92432,-1.89569,-0.00271099,0.000395046,-0.00216463,0.00150614,-0.00382208,-1.09657,0.00317164,0.0112007,1420,393,1.92429,1.89571
203,631,1.94287,-1.88727,-0.00288524,0.00103475,-0.00183589,0.00176028,-0.00361077,-1.19444,0.00316173,0.0129413,1427,393,1.94286,1.88727
210,631,1.94458,-1.86502,-0.00279183,0.00237183,-0.00141745,0.00273534,-0.00315534,-1.31975,0.00340387,0.0148646,1434,393,1.94454,1.86502
217,631,1.94287,-1.85318,-0.00263026,0.00345579,-0.00108318,0.00364283,-0.0028173,-1.39981,0.00373989,0.0151008,1441,393,1.94292,1.85319
224,631,1.90222,-1.83862,-0.00213029,0.00452321,-0.000612429,0.00457911,-0.00218619,-1.47977,0.00398656,0.0124585,1448,393,1.90223,1.83863
231,631,1.90613,-1.78842,-0.00131144,0.00567761,5.71368e-05,0.00567807,-0.00131191,1.56262,0.00429008,0.0113354,1455,393,1.90611,1.78841
238,631,1.9165,-1.76703,-0.000432899,0.00657042,0.000610191,0.00662319,-0.000485666,1.48453,0.00458593,0.0173053,1462,393,1.91656,1.76704
245,631,1.91956,-1.74719,0.000376513,0.00739871,0.00117376,0.00758971,0.000185514,1.40949,0.00499912,0.0202768,1469,393,1.91955,1.74719
252,631,1.922,-1.73965,0.00151821,0.00783826,0.00185917,0.0083446,0.00101186,1.3049,0.00525833,0.0200809,1476,393,1.92197,1.73966
259,631,1.91284,-1.70547,0.0025289,0.00803606,0.00262067,0.00908382,0.00148115,1.19046,0.00562751,0.0128245,1483,393,1.91288,1.70548
266,631,1.922,-1.67447,0.00305344,0.00783512,0.00310584,0.00936376,0.00152479,1.11342,0.00580143,0.0106461,1490,393,1.92202,1.67445
273,631,1.91479,-1.65649,0.00315796,0.00724759,0.00328764,0.00907445,0.0013311,1.06361,0.00565837,0.0125511,1497,393,1.9148,1.6565
280,631,1.90442,-1.6665,0.00343768,0.00643416,0.00369498,0.0089231,0.000948735,0.978009,0.00565906,0.011202,1504,393,1.90444,1.66651
287,631,1.92188,-1.63889,0.00288285,0.00384975,0.00456386,0.0079557,-0.00122309,0.838166,0.00575498,0.0114175,1511,393,1.92192,1.63888
294,631,1.92493,-1.5885,0.00114411,-0.000332528,0.00569123,0.00614471,-0.00533313,0.720894,0.00663225,0.014312,1518,393,1.92492,1.58849
301,631,1.90271,-1.57175,-0.00160459,-0.00668176,0.00670615,0.00302738,-0.0113137,0.60446,0.00872841,0.0234085,1525,393,1.9027,1.57173
308,631,1.93213,-1.56729,-0.00507516,-0.0142656,0.00774107,-0.000668147,-0.0186726,0.517543,0.0122318,0.0311039,1532,393,1.93216,1.56729
315,631,1.88501,-1.60083,-0.0093023,-0.023488,0.00928956,-0.00470735,-0.0280829,0.459347,0.0173668,0.0329071,1539,393,1.88506,1.60083
322,631,1.84497,-1.49557,-0.0139545,-0.0320857,0.011111,-0.00867997,-0.0373602,0.443213,0.0225767,0.0381624,1546,393,1.84494,1.49556
329,631,2.27283,-1.51331,0,0,0,0,0,0,0,-1,1553,393,2.27287,1.51331
336,631,2.67505,-2.0318,-0.0249186,-0.0519104,0.0160691,-0.0174299,-0.0593991,0.436108,0.0352561,0.0455369,1560,393,2.67503,2.03179
343,631,2.65967,-2.13745,-0.0306402,-0.0619898,0.0184948,-0.0220713,-0.0705586,0.43387,0.0416778,0.0449221,1567,393,2.65966,2.13745
350,631,2.31873,-1.76813,-0.0358722,-0.071254,0.0206492,-0.0263719,-0.0807542,0.431202,0.0475492,0.04756,1574,393,2.31876,1.76812
357,631,1.85571,-1.30048,0,0,0,0,0,0,0,-1,1581,393,1.85574,1.30047
364,631,0.856934,-1.88834,-0.0453034,-0.086966,0.0252663,-0.0333883,-0.0988811,0.440656,0.0580834,0.0426011,1588,393,0.856904,1.88834
371,631,0.687378,-2.12238,-0.0472372,-0.0911445,0.0275326,-0.0339771,-0.104405,0.448831,0.0614903,0.0420784,1595,393,0.687328,2.12238
378,631,-0.405029,-1.6741,-0.0490452,-0.0938265,0.0301991,-0.0338416,-0.10903,0.4664,0.0644396,0.0445013,1602,393,-0.405057,1.67409
385,631,-0.356323,-1.68454,0,0,0,0,0,0,0,-1,1609,393,-0.356296,1.68454
392,631,-0.12915,-1.9212,0,0,0,0,0,0,0,-1,1616,393,-0.129153,1.92121
399,631,0,0,0,0,0,0,0,0,0,-1,1623,393,0,0
406,631,0,0,0,0,0,0,0,0,0,-1,1630,393,0,0
413,631,0,0,0,0,0,0,0,0,0,-1,1637,393,0,0
420,631,0,0,0,0,0,0,0,0,0,-1,1644,393,0,0
427,631,0,0,0,0,0,0,0,0,0,-1,1651,393,0,0
434,631,0,0,0,0,0,0,0,0,0,-1,1658,393,0,0
441,631,0,0,0,0,0,0,0,0,0,-1,1665,393,0,0
448,631,0,0,0,0,0,0,0,0,0,-1,1672,393,0,0
455,631,0,0,0,0,0,0,0,0,0,-1,1679,393,0,0
462,631,0,0,0,0,0,0,0,0,0,-1,1686,393,0,0
469,631,0,0,0,0,0,0,0,0,0,-1,1693,393,0,0
476,631,0,0,0,0,0,0,0,0,0,-1,1700,393,0,0
483,631,0,0,0,0,0,0,0,0,0,-1,1707,393,0,0
490,631,0,0,0,0,0,0,0,0,0,-1,1714,393,0,0
497,631,0,0,0,0,0,0,0,0,0,-1,1721,393,0,0
504,631,0,0,0,0,0,0,0,0,0,-1,1728,393,0,0
511,631,0,0,0,0,0,0,0,0,0,-1,1735,393,0,0
518,631,0,0,0,0,0,0,0,0,0,-1,1742,393,0,0
525,631,0,0,0,0,0,0,0,0,0,-1,1749,393,0,0
532,631,0,0,0,0,0,0,0,0,0,-1,1756,393,0,0
539,631,0,0,0,0,0,0,0,0,0,-1,1763,393,0,0
546,631,0,0,0,0,0,0,0,0,0,-1,1770,393,0,0
553,631,0,0,0,0,0,0,0,0,0,-1,1777,393,0,0
560,631,0,0,0,0,0,0,0,0,0,-1,1784,393,0,0
567,631,0,0,0,0,0,0,0,0,0,-1,1791,393,0,0
574,631,0,0,0,0,0,0,0,0,0,-1,1798,393,0,0
581,631,0,0,0,0,0,0,0,0,0,-1,1805,393,0,0
588,631,0,0,0,0,0,0,0,0,0,-1,1812,393,0,0
595,631,0,0,0,0,0,0,0,0,0,-1,1819,393,0,0
602,631,0,0,0,0,0,0,0,0,0,-1,1826,393,0,0
609,631,0,0,0,0,0,0,0,0,0,-1,1833,393,0,0
616,631,0,0,0,0,0,0,0,0,0,-1,1840,393,0,0
623,631,0,0,0,0,0,0,0,0,0,-1,1847,393,0,0
630,631,0,0,0,0,0,0,0,0,0,-1,1854,393,0,0
637,631,0,0,0,0,0,0,0,0,0,-1,1861,393,0,0
644,631,0,0,0,0,0,0,0,0,0,-1,1868,393,0,0
651,631,0,0,0,0,0,0,0,0,0,-1,1875,393,0,0
658,631,0,0,0,0,0,0,0,0,0,-1,1882,393,0,0
665,631,0,0,0,0,0,0,0,0,0,-1,1889,393,0,0
672,631,0,0,0,0,0,0,0,0,0,-1,1896,393,0,0
679,631,0,0,0,0,0,0,0,0,0,-1,1903,393,0,0
686,631,0,0,0,0,0,0,0,0,0,-1,1910,393,0,0
693,631,0,0,0,0,0,0,0,0,0,-1,1917,393,0,0
700,631,0,0,0,0,0,0,0,0,0,-1,1924,393,0,0
707,631,0,0,0,0,0,0,0,0,0,-1,1931,393,0,0
714,631,0,0,0,0,0,0,0,0,0,-1,1938,393,0,0
721,631,0,0,0,0,0,0,0,0,0,-1,1945,393,0,0
728,631,0,0,0,0,0,0,0,0,0,-1,1952,393,0,0
735,631,0,0,0,0,0,0,0,0,0,-1,1959,393,0,0
742,631,0,0,0,0,0,0,0,0,0,-1,1966,393,0,0
749,631,0,0,0,0,0,0,0,0,0,-1,1973,393,0,0
756,631,0,0,0,0,0,0,0,0,0,-1,1980,393,0,0
763,631,0,0,0,0,0,0,0,0,0,-1,1987,393,0,0
770,631,0,0,0,0,0,0,0,0,0,-1,1994,393,0,0
777,631,0,0,0,0,0,0,0,0,0,-1,2001,393,0,0
784,631,0,0,0,0,0,0,0,0,0,-1,2008,393,0,0
791,631,0,0,0,0,0,0,0,0,0,-1,2015,393,0,0
798,631,0,0,0,0,0,0,0,0,0,-1,2022,393,0,0
805,631,0,0,0,0,0,0,0,0,0,-1,2029,393,0,0
812,631,0,0,0,0,0,0,0,0,0,-1,2036,393,0,0
-700,624,0,0,0,0,0,0,0,0,0,-1,524,400,0,0
-693,624,0,0,0,0,0,0,0,0,0,-1,531,400,0,0
-686,624,0,0,0,0,0,0,0,0,0,-1,538,400,0,0
-679,624,0,0,0,0,0,0,0,0,0,-1,545,400,0,0
-672,624,0,0,0,0,0,0,0,0,0,-1,552,400,0,0
-665,624,0,0,0,0,0,0,0,0,0,-1,559,400,0,0
-658,624,0,0,0,0,0,0,0,0,0,-1,566,400,0,0
-651,624,0,0,0,0,0,0,0,0,0,-1,573,400,0,0
-644,624,0,0,0,0,0,0,0,0,0,-1,580,400,0,0
-637,624,0,0,0,0,0,0,0,0,0,-1,587,400,0,0
-630,624,0,0,0,0,0,0,0,0,0,-1,594,400,0,0
-623,624,0,0,0,0,0,0,0,0,0,-1,601,400,0,0
-616,624,0,0,0,0,0,0,0,0,0,-1,608,400,0,0
-609,624,0,0,0,0,0,0,0,0,0,-1,615,400,0,0
-602,624,0,0,0,0,0,0,0,0,0,-1,622,400,0,0
-595,624,0,0,0,0,0,0,0,0,0,-1,629,400,0,0
-588,624,0,0,0,0,0,0,0,0,0,-1,636,400,0,0
-581,624,0,0,0,0,0,0,0,0,0,-1,643,400,0,0
-574,624,0,0,0,0,0,0,0,0,0,-1,650,400,0,0
-567,624,0,0,0,0,0,0,0,0,0,-1,657,400,0,0
-560,624,0,0,0,0,0,0,0,0,0,-1,664,400,0,0
-553,624,0,0,0,0,0,0,0,0,0,-1,671,400,0,0
-546,624,0,0,0,0,0,0,0,0,0,-1,678,400,0,0
-539,624,0,0,0,0,0,0,0,0,0,-1,685,400,0,0
-532,624,0,0,0,0,0,0,0,0,0,-1,692,400,0,0
-525,624,0,0,0,0,0,0,0,0,0,-1,699,400,0,0
-518,624,0,0,0,0,0,0,0,0,0,-1,706,400,0,0
-511,624,0,0,0,0,0,0,0,0,0,-1,713,400,0,0
-504,624,0,0,0,0,0,0,0,0,0,-1,720,400,0,0
-497,624,0,0,0,0,0,0,0,0,0,-1,727,400,0,0
-490,624,0,0,0,0,0,0,0,0,0,-1,734,400,0,0
-483,624,0,0,0,0,0,0,0,0,0,-1,741,400,0,0
-476,624,0,0,0,0,0,0,0,0,0,-1,748,400,0,0
-469,624,0,0,0,0,0,0,0,0,0,-1,755,400,0,0
-462,624,0,0,0,0,0,0,0,0,0,-1,762,400,0,0
-455,624,0,0,0,0,0,0,0,0,0,-1,769,400,0,0
-448,624,0,0,0,0,0,0,0,0,0,-1,776,400,0,0
-441,624,0,0,0,0,0,0,0,0,0,-1,783,400,0,0
-434,624,0,0,0,0,0,0,0,0,0,-1,790,400,0,0
-427,624,0,0,0,0,0,0,0,0,0,-1,797,400,0,0
-420,624,0,0,0,0,0,0,0,0,0,-1,804,400,0,0
-413,624,0,0,0,0,0,0,0,0,0,-1,811,400,0,0
-406,624,0,0,0,0,0,0,0,0,0,-1,818,400,0,0
-399,624,0,0,0,0,0,0,0,0,0,-1,825,400,0,0
-392,624,0,0,0,0,0,0,0,0,0,-1,832,400,0,0
-385,624,0,0,0,0,0,0,0,0,0,-1,839,400,0,0
-378,624,0,0,0,0,0,0,0,0,0,-1,846,400,0,0
-371,624,0,0,0,0,0,0,0,0,0,-1,853,400,0,0
-364,624,0,0,0,0,0,0,0,0,0,-1,860,400,0,0
-357,624,0,0,0,0,0,0,0,0,0,-1,867,400,0,0
-350,624,0,0,0,0,0,0,0,0,0,-1,874,400,0,0
-343,624,0,0,0,0,0,0,0,0,0,-1,881,400,0,0
-336,624,0,0,0,0,0,0,0,0,0,-1,888,400,0,0
-329,624,0,0,0,0,0,0,0,0,0,-1,895,400,0,0
-322,624,0,0,0,0,0,0,0,0,0,-1,902,400,0,0
-315,624,0,0,0,0,0,0,0,0,0,-1,909,400,0,0
-308,624,0,0,0,0,0,0,0,0,0,-1,916,400,0,0
-301,624,0,0,0,0,0,0,0,0,0,-1,923,400,0,0
-294,624,3.01068,0.336517,0,0,0,0,0,0,0,-1,930,400,3.01066,-0.336509
-287,624,2.91534,-1.22028,0,0,0,0,0,0,0,-1,937,400,2.91534,1.22027
-280,624,3.15802,-0.973175,0.0265353,-0.00973693,0.0467901,0.0585812,-0.0417828,0.60051,0.0582151,0.047829,944,400,3.158,0.973168
-273,624,3.40228,-0.673004,0.0292321,-0.00933997,0.049355,0.0629354,-0.0430433,0.59914,0.061545,0.0483069,951,400,3.40231,0.672989
-266,624,3.32794,-0.884918,0,0,0,0,0,0,0,-1,958,400,3.32793,0.884918
-259,624,3.31671,-0.858704,0.0283839,-0.00512298,0.0490378,0.0634512,-0.0401902,0.620793,0.0603376,0.0420126,965,400,3.31672,0.858689
-252,624,3.18402,-0.656616,0.0252079,-0.00276498,0.0458868,0.0591925,-0.0367495,0.637469,0.055895,0.0408942,972,400,3.18403,0.656601
-245,624,3.44751,-0.593353,0.0206775,-0.000669158,0.0405529,0.0519381,-0.0319298,0.656719,0.0488783,0.0434769,979,400,3.44753,0.59336
-238,624,3.86487,-0.505524,0.0159427,0.00109938,0.0345083,0.0438184,-0.0267764,0.679477,0.0411519,0.0467703,986,400,3.86489,0.505536
-231,624,1.9519,-1.31586,0,0,0,0,0,0,0,-1,993,400,1.9519,1.31587
-224,624,1.78998,-1.05798,0,0,0,0,0,0,0,-1,1000,400,1.79001,1.058
-217,624,1.71069,-1.1937,0.00221735,0.00492454,0.0145094,0.0181434,-0.0110015,0.831909,0.0169944,0.0458007,1007,400,1.7107,1.19368
-210,624,1.65131,-1.38937,0.00108216,0.00504543,0.00916393,0.0124395,-0.00631195,0.89188,0.0110172,0.0401701,1014,400,1.65129,1.38937
-203,624,1.58386,-1.54706,0.00106461,0.0052196,0.00482977,0.00839973,-0.00211552,0.988508,0.00642221,0.0367283,1021,400,1.58386,1.54704
-196,624,1.71753,-1.44235,-0.0012576,0.0059959,0.000788539,0.00608064,-0.00134234,1.46375,0.00456743,0.0347965,1028,400,1.71752,1.44235
-189,624,1.98621,-1.35837,-0.00343627,0.00507428,-0.00190228,0.00548013,-0.00384211,-1.3606,0.00540982,0.0324289,1035,400,1.9862,1.35838
-182,624,1.99304,-1.44296,-0.00295881,0.00444716,-0.00215354,0.00502785,-0.0035395,-1.30742,0.00497118,0.0261948,1042,400,1.99306,1.44297
-175,624,1.87769,-1.54242,-0.000868457,0.00352765,-0.00122032,0.00384368,-0.00118449,-1.31739,0.00303532,0.0166166,1049,400,1.87764,1.54243
-168,624,1.88879,-1.58142,-0.000269607,0.00337639,6.57848e-05,0.00337757,-0.000270794,1.55276,0.00234719,0.0115326,1056,400,1.88884,1.58143
-161,624,1.87207,-1.62561,0.000103259,0.00322323,0.00144346,0.00378859,-0.000462108,1.19749,0.00269301,0.0101484,1063,400,1.87207,1.62562
-154,624,1.86597,-1.6369,0.000475198,0.00294955,0.00235427,0.00437192,-0.00094717,1.02732,0.0032763,0.00902474,1070,400,1.86592,1.6369
-147,624,1.86414,-1.66119,0.000807561,0.00259614,0.00287384,0.00471161,-0.00130791,0.93624,0.00365588,0.00994468,1077,400,1.86409,1.6612
-140,624,1.87244,-1.70126,0.000828936,0.00220978,0.00344067,0.00502862,-0.0019899,0.884416,0.00417683,0.00909275,1084,400,1.87246,1.70127
-133,624,1.86292,-1.724,0.000637398,0.00177223,0.00345766,0.00470873,-0.00229909,0.866726,0.00412492,0.0101103,1091,400,1.86296,1.72399
-126,624,1.85303,-1.72095,0.000348161,0.00139541,0.00333897,0.00425156,-0.00250799,0.863176,0.00394567,0.0127756,1098,400,1.85306,1.72095
-119,624,1.86877,-1.73953,-7.69497e-06,0.00108888,0.00333659,0.00392192,-0.00284074,0.866833,0.00392103,0.0153365,1105,400,1.8688,1.73953
-112,624,1.87573,-1.77164,-0.000689437,0.00112103,0.00329152,0.00362952,-0.00319793,0.91959,0.00394445,0.0167994,1112,400,1.87571,1.77163
-105,624,1.85205,-1.79276,-0.00161147,0.00131757,0.00310484,0.00328596,-0.00357985,1.00577,0.00396519,0.0117294,1119,400,1.85206,1.79274
-98,624,1.85913,-1.81104,-0.00240253,0.00150739,0.00268945,0.00287734,-0.00377248,1.09967,0.00385085,0.0129175,1126,400,1.85913,1.81103
-91,624,1.85449,-1.83188,-0.00286992,0.0015541,0.00239424,0.00260175,-0.00391757,1.15833,0.0037894,0.0186421,1133,400,1.85453,1.83187
-84,624,1.86377,-1.85928,-0.00296392,0.00190769,0.00258744,0.00302548,-0.00408171,1.16301,0.00411841,0.0160391,1140,400,1.86377,1.85928
-77,624,1.8739,-1.87552,-0.00305415,0.00210927,0.00272746,0.00328313,-0.00422801,1.16437,0.00434798,0.0113502,1147,400,1.87388,1.87551
-70,624,1.85754,-1.87857,-0.0026408,0.00219762,0.00287618,0.00353674,-0.00397991,1.13506,0.00434225,0.0113981,1154,400,1.85757,1.87857
-63,624,1.86133,-1.90076,-0.00170131,0.00225632,0.00301242,0.00388172,-0.00332671,1.076,0.0041659,0.00999764,1161,400,1.86133,1.90076
-56,624,1.87842,-1.92947,-0.000514715,0.00236377,0.00310165,0.00434383,-0.00249478,1.00263,0.00399609,0.00918897,1168,400,1.87836,1.92949
-49,624,1.88989,-1.93005,0.00065994,0.00222174,0.00336655,0.00489677,-0.00201509,0.899362,0.00410455,0.00943159,1175,400,1.88993,1.93005
-42,624,1.89526,-1.91891,0.00179255,0.00192838,0.00363979,0.00550089,-0.00177996,0.794727,0.00438277,0.00883842,1182,400,1.8953,1.91891
-35,624,1.91052,-1.91818,0.00292207,0.00153319,0.0036643,0.00595716,-0.00150189,0.691752,0.00455536,0.014564,1189,400,1.91053,1.91818
-28,624,1.89612,-1.93704,0.00397766,0.00111905,0.00368613,0.0065019,-0.00140519,0.600447,0.00487103,0.019355,1196,400,1.89607,1.93705
-21,624,1.87817,-1.95615,0.00498317,0.00069062,0.00361804,0.00704363,-0.00136985,0.51769,0.00521272,0.0134823,1203,400,1.8782,1.95615
-14,624,1.8678,-1.9837,0.0055259,0.000197629,0.00348988,0.00725231,-0.00152878,0.459391,0.00541686,0.0137612,1210,400,1.86785,1.9837
-7,624,1.83496,-2.00946,0.00558085,-0.000368012,0.00346403,0.00717224,-0.00195941,0.430648,0.00555112,0.0170879,1217,400,1.83492,2.00945
0,624,1.86243,-2.0011,0.00506004,-0.000940085,0.00347014,0.00664716,-0.00252721,0.428962,0.00547196,0.0171117,1224,400,1.86243,2.00111
7,624,1.87598,-2.00311,0.00404212,-0.00124995,0.00364489,0.00590016,-0.00310799,0.471431,0.00528348,0.0136603,1231,400,1.87601,2.00312
14,624,1.88904,-2.02762,0.00287846,-0.00186533,0.00389558,0.00506743,-0.00405429,0.51194,0.00527724,0.011657,1238,400,1.88906,2.02763
21,624,1.89099,-2.01709,0.00181407,-0.00269731,0.00378945,0.00396838,-0.00485161,0.516937,0.00510073,0.0115382,1245,400,1.89103,2.01708
28,624,1.88074,-2.01712,0.00111794,-0.00390246,0.0037576,0.00312666,-0.00591118,0.490924,0.00529991,0.0102008,1252,400,1.88078,2.01711
35,624,1.87927,-2.01825,0.000866422,-0.00476103,0.00378803,0.0027714,-0.00666601,0.465961,0.00560121,0.0130543,1259,400,1.87931,2.01824
42,624,1.90479,-2.01974,0.00145604,-0.00579403,0.00365949,0.002982,-0.00731999,0.395064,0.0061211,0.0146848,1266,400,1.90481,2.01974
49,624,1.91406,-2.02966,0.00217036,-0.00677605,0.00313524,0.00315969,-0.00776538,0.305662,0.00649173,0.0162843,1273,400,1.91407,2.02965
56,624,1.91724,-2.01724,0.00310568,-0.00752779,0.00231443,0.00358759,-0.00800969,0.205286,0.00685603,0.016789,1280,400,1.91729,2.01726
63,624,1.92834,-2.02838,0.00430972,-0.00830893,0.00135275,0.0044531,-0.00845232,0.105604,0.00756926,0.0134617,1287,400,1.92834,2.02838
70,624,1.90222,-2.02957,0.00548012,-0.00856518,0.000157891,0.0054819,-0.00856695,0.0112396,0.00817604,0.0117847,1294,400,1.90221,2.02959
77,624,1.89294,-2.02652,0.00653125,-0.00842688,-0.00105382,0.00660513,-0.00850076,-0.0699906,0.00874425,0.0119148,1301,400,1.89289,2.02653
84,624,1.90283,-2.02841,0.00721726,-0.00792164,-0.00224013,0.00754177,-0.00824616,-0.143866,0.00911819,0.0114321,1308,400,1.90287,2.02842
91,624,1.89783,-2.04196,0.00764167,-0.00691035,-0.00342135,0.00840593,-0.00767461,-0.219772,0.0092873,0.013026,1315,400,1.89786,2.04195
98,624,1.8855,-2.06067,0.00781495,-0.00550112,-0.00462293,0.00926252,-0.00694869,-0.303458,0.00939127,0.0131376,1322,400,1.88552,2.06066
105,624,1.88611,-2.05142,0.00760637,-0.00414251,-0.00548118,0.00976638,-0.00630252,-0.37539,0.00934896,0.0133427,1329,400,1.88617,2.05141
112,624,1.90869,-2.034,0.00708081,-0.00268808,-0.00598794,0.0099238,-0.00553107,-0.443274,0.00904221,0.0131882,1336,400,1.90868,2.03399
119,624,1.91577,-2.02377,0.00647082,-0.00111167,-0.00626979,0.0100065,-0.00464735,-0.51347,0.00864695,0.0134555,1343,400,1.91577,2.02376
126,624,1.93152,-2.00449,0.00547301,0.000203534,-0.00625729,0.00962764,-0.00395109,-0.586131,0.0080648,0.0163224,1350,400,1.93148,2.00449
133,624,1.92529,-1.96832,0.00438363,0.0013443,-0.00598758,0.00904138,-0.00331345,-0.661121,0.00738418,0.0175758,1357,400,1.92531,1.96832
140,624,1.91626,-1.94849,0.00325649,0.00179947,-0.00570655,0.00828085,-0.00322488,-0.72191,0.00685329,0.017418,1364,400,1.91629,1.94847
147,624,1.92432,-1.92505,0.00185253,0.00207282,-0.00539095,0.00735475,-0.0034294,-0.795613,0.00636223,0.019931,1371,400,1.92433,1.92504
154,624,1.91528,-1.94913,0.000778327,0.00173852,-0.00503788,0.00631913,-0.00380229,-0.832903,0.00590352,0.021618,1378,400,1.91528,1.94912
161,624,1.91028,-1.93497,-0.000213636,0.00139606,-0.00468453,0.00534438,-0.00416195,-0.870472,0.00550262,0.020936,1385,400,1.91027,1.93497
168,624,1.9353,-1.9086,-0.00110901,0.00118068,-0.00438366,0.00456652,-0.00449486,-0.913126,0.00523164,0.0206498,1392,400,1.93533,1.9086
175,624,1.93982,-1.92273,-0.00192557,0.000821761,-0.00414199,0.00381193,-0.00491574,-0.945513,0.00505233,0.0163572,1399,400,1.93979,1.92274
182,624,1.93311,-1.91269,-0.00269558,0.000547393,-0.00398695,0.00322997,-0.00537816,-0.978532,0.00502123,0.0103469,1406,400,1.9331,1.91268
189,624,1.93347,-1.89752,-0.00322417,0.000301901,-0.00385166,0.00277486,-0.00569712,-1.00003,0.00498735,0.0100379,1413,400,1.93345,1.89751
196,624,1.92761,-1.9014,-0.00357484,0.000308955,-0.00357638,0.00243663,-0.00570252,-1.03412,0.00482359,0.0110641,1420,400,1.92765,1.90139
203,624,1.92627,-1.8959,-0.00376254,0.000649564,-0.0031249,0.00226865,-0.00538162,-1.09276,0.00453714,0.0131531,1427,400,1.92625,1.89592
210,624,1.92749,-1.85226,-0.00357421,0.00166873,-0.00267713,0.00279415,-0.00469963,-1.17285,0.00437291,0.0157515,1434,400,1.92745,1.85227
217,624,1.9248,-1.82257,-0.0032871,0.00251636,-0.00223884,0.00327966,-0.0040504,-1.24222,0.00423981,0.0179573,1441,400,1.92481,1.82257
224,624,1.91699,-1.80997,-0.00274561,0.00330408,-0.00168557,0.00374202,-0.00318354,-1.3166,0.0040028,0.0152705,1448,400,1.91703,1.80998
231,624,1.93457,-1.80362,-0.00193786,0.00410727,-0.000948328,0.00425255,-0.00208313,-1.41878,0.0037287,0.0118643,1455,400,1.93452,1.80363
238,624,1.93713,-1.78897,-0.00106763,0.00472162,-0.000347135,0.00474236,-0.00108837,-1.51112,0.00357994,0.0162207,1462,400,1.93711,1.78897
245,624,1.94763,-1.79214,-0.000271623,0.00523855,0.000207822,0.00524638,-0.00027945,1.53315,0.00359436,0.0179464,1469,400,1.94757,1.79214
252,624,1.94507,-1.75272,0.000709549,0.00544448,0.000834512,0.00558725,0.000566775,1.40135,0.00355102,0.0134455,1476,400,1.94511,1.7527
259,624,1.93018,-1.71701,0.00158994,0.00554998,0.00151161,0.00606104,0.00107889,1.24478,0.00373339,0.00922614,1483,400,1.93021,1.717
266,624,1.93762,-1.67044,0.00199246,0.00536857,0.0019302,0.00624473,0.0011163,1.14469,0.00384545,0.0131858,1490,400,1.93767,1.67044
273,624,1.94702,-1.64743,0.00206549,0.00494813,0.00212762,0.00607667,0.000936947,1.08311,0.00377773,0.0161274,1497,400,1.94698,1.64743
280,624,1.93848,-1.65375,0.00228089,0.00435879,0.00252122,0.00604673,0.000592944,0.980838,0.00384876,0.0142404,1504,400,1.93853,1.65374
287,624,1.93799,-1.64932,0.00189004,0.00248015,0.00326545,0.00546385,-0.00109366,0.830454,0.00405656,0.0105279,1511,400,1.93794,1.64932
294,624,1.92383,-1.60483,0.00063008,-0.00050839,0.00421026,0.00430942,-0.00418773,0.718205,0.00490599,0.00887015,1518,400,1.9238,1.60484
301,624,1.90063,-1.57269,-0.00134315,-0.00501494,0.00508163,0.00222405,-0.00858215,0.612054,0.00658911,0.0110633,1525,400,1.90062,1.57269
308,624,1.89063,-1.53952,-0.00383803,-0.0103955,0.00594535,-0.000327277,-0.0139063,0.533408,0.00916372,0.0141261,1532,400,1.89066,1.53951
315,624,1.88892,-1.52432,-0.00692281,-0.0171508,0.00715354,-0.00324329,-0.0208303,0.475073,0.012942,0.0143482,1539,400,1.88897,1.52432
322,624,1.9209,-1.51913,-0.0103897,-0.0237192,0.00849534,-0.00625677,-0.0278521,0.452784,0.0168737,0.0211006,1546,400,1.92095,1.51914
329,624,2.10217,-1.49991,-0.0143039,-0.0310698,0.0105492,-0.00921251,-0.0361612,0.449661,0.0216986,0.0331799,1553,400,2.10212,1.49992
336,624,2.1792,-1.46298,-0.0185426,-0.0390366,0.0122103,-0.0128493,-0.0447299,0.436301,0.0265926,0.0364099,1560,400,2.17923,1.46299
343,624,1.84277,-1.2001,-0.0229604,-0.0468415,0.0140245,-0.0164818,-0.05332,0.432743,0.0315233,0.0410205,1567,400,1.84282,1.20009
350,624,2.42126,-0.482941,0,0,0,0,0,0,0,-1,1574,400,2.42123,0.48294
357,624,1.90588,-1.51428,0,0,0,0,0,0,0,-1,1581,400,1.90585,1.51428
364,624,1.79443,-1.81042,0,0,0,0,0,0,0,-1,1588,400,1.79448,1.81041
371,624,1.75488,-1.99905,0,0,0,0,0,0,0,-1,1595,400,1.75486,1.99905
378,624,-1.53894,-1.29861,0,0,0,0,0,0,0,-1,1602,400,-1.53893,1.29861
385,624,1.79517,-2.3735,0,0,0,0,0,0,0,-1,1609,400,1.79517,2.37351
392,624,-1.81921,-1.7475,0,0,0,0,0,0,0,-1,1616,400,-1.81922,1.74748
399,624,-1.61401,-1.61334,0,0,0,0,0,0,0,-1,1623,400,-1.61405,1.61335
406,624,-1.52515,-1.58566,0,0,0,0,0,0,0,-1,1630,400,-1.52514,1.58567
413,624,0,0,0,0,0,0,0,0,0,-1,1637,400,0,0
420,624,0,0,0,0,0,0,0,0,0,-1,1644,400,0,0
427,624,0,0,0,0,0,0,0,0,0,-1,1651,400,0,0
434,624,0,0,0,0,0,0,0,0,0,-1,1658,400,0,0
441,624,0,0,0,0,0,0,0,0,0,-1,1665,400,0,0
448,624,0,0,0,0,0,0,0,0,0,-1,1672,400,0,0
455,624,0,0,0,0,0,0,0,0,0,-1,1679,400,0,0
462,624,0,0,0,0,0,0,0,0,0,-1,1686,400,0,0
469,624,0,0,0,0,0,0,0,0,0,-1,1693,400,0,0
476,624,0,0,0,0,0,0,0,0,0,-1,1700,400,0,0
483,624,0,0,0,0,0,0,0,0,0,-1,1707,400,0,0
490,624,0,0,0,0,0,0,0,0,0,-1,1714,400,0,0
497,624,0,0,0,0,0,0,0,0,0,-1,1721,400,0,0
504,624,0,0,0,0,0,0,0,0,0,-1,1728,400,0,0
511,624,0,0,0,0,0,0,0,0,0,-1,1735,400,0,0
518,624,0,0,0,0,0,0,0,0,0,-1,1742,400,0,0
525,624,0,0,0,0,0,0,0,0,0,-1,1749,400,0,0
532,624,0,0,0,0,0,0,0,0,0,-1,1756,400,0,0
539,624,0,0,0,0,0,0,0,0,0,-1,1763,400,0,0
546,624,0,0,0,0,0,0,0,0,0,-1,1770,400,0,0
553,624,0,0,0,0,0,0,0,0,0,-1,1777,400,0,0
560,624,0,0,0,0,0,0,0,0,0,-1,1784,400,0,0
567,624,0,0,0,0,0,0,0,0,0,-1,1791,400,0,0
574,624,0,0,0,0,0,0,0,0,0,-1,1798,400,0,0
581,624,0,0,0,0,0,0,0,0,0,-1,1805,400,0,0
588,624,0,0,0,0,0,0,0,0,0,-1,1812,400,0,0
595,624,0,0,0,0,0,0,0,0,0,-1,1819,400,0,0
602,624,0,0,0,0,0,0,0,0,0,-1,1826,400,0,0
609,624,0,0,0,0,0,0,0,0,0,-1,1833,400,0,0
616,624,0,0,0,0,0,0,0,0,0,-1,1840,400,0,0
623,624,0,0,0,0,0,0,0,0,0,-1,1847,400,0,0
630,624,0,0,0,0,0,0,0,0,0,-1,1854,400,0,0
637,624,0,0,0,0,0,0,0,0,0,-1,1861,400,0,0
644,624,0,0,0,0,0,0,0,0,0,-1,1868,400,0,0
651,624,0,0,0,0,0,0,0,0,0,-1,1875,400,0,0
658,624,0,0,0,0,0,0,0,0,0,-1,1882,400,0,0
665,624,0,0,0,0,0,0,0,0,0,-1,1889,400,0,0
672,624,0,0,0,0,0,0,0,0,0,-1,1896,400,0,0
679,624,0,0,0,0,0,0,0,0,0,-1,1903,400,0,0
686,624,0,0,0,0,0,0,0,0,0,-1,1910,400,0,0
693,624,0,0,0,0,0,0,0,0,0,-1,1917,400,0,0
700,624,0,0,0,0,0,0,0,0,0,-1,1924,400,0,0
707,624,0,0,0,0,0,0,0,0,0,-1,1931,400,0,0
714,624,0,0,0,0,0,0,0,0,0,-1,1938,400,0,0
721,624,0,0,0,0,0,0,0,0,0,-1,1945,400,0,0
728,624,0,0,0,0,0,0,0,0,0,-1,1952,400,0,0
735,624,0,0,0,0,0,0,0,0,0,-1,1959,400,0,0
742,624,0,0,0,0,0,0,0,0,0,-1,1966,400,0,0
749,624,0,0,0,0,0,0,0,0,0,-1,1973,400,0,0
756,624,0,0,0,0,0,0,0,0,0,-1,1980,400,0,0
763,624,0,0,0,0,0,0,0,0,0,-1,1987,400,0,0
770,624,0,0,0,0,0,0,0,0,0,-1,1994,400,0,0
777,624,0,0,0,0,0,0,0,0,0,-1,2001,400,0,0
784,624,0,0,0,0,0,0,0,0,0,-1,2008,400,0,0
791,624,0,0,0,0,0,0,0,0,0,-1,2015,400,0,0
798,624,0,0,0,0,0,0,0,0,0,-1,2022,400,0,0
805,624,0,0,0,0,0,0,0,0,0,-1,2029,400,0,0
812,624,0,0,0,0,0,0,0,0,0,-1,2036,400,0,0
-700,617,0,0,0,0,0,0,0,0,0,-1,524,407,0,0
-693,617,0,0,0,0,0,0,0,0,0,-1,531,407,0,0
-686,617,0,0,0,0,0,0,0,0,0,-1,538,407,0,0
-679,617,0,0,0,0,0,0,0,0,0,-1,545,407,0,0
-672,617,0,0,0,0,0,0,0,0,0,-1,552,407,0,0
-665,617,0,0,0,0,0,0,0,0,0,-1,559,407,0,0
-658,617,0,0,0,0,0,0,0,0,0,-1,566,407,0,0
-651,617,0,0,0,0,0,0,0,0,0,-1,573,407,0,0
-644,617,0,0,0,0,0,0,0,0,0,-1,580,407,0,0
-637,617,0,0,0,0,0,0,0,0,0,-1,587,407,0,0
-630,617,0,0,0,0,0,0,0,0,0,-1,594,407,0,0
-623,617,0,0,0,0,0,0,0,0,0,-1,601,407,0,0
-616,617,0,0,0,0,0,0,0,0,0,-1,608,407,0,0
-609,617,0,0,0,0,0,0,0,0,0,-1,615,407,0,0
-602,617,0,0,0,0,0,0,0,0,0,-1,622,407,0,0
-595,617,0,0,0,0,0,0,0,0,0,-1,629,407,0,0
-588,617,0,0,0,0,0,0,0,0,0,-1,636,407,0,0
-581,617,0,0,0,0,0,0,0,0,0,-1,643,407,0,0
-574,617,0,0,0,0,0,0,0,0,0,-1,650,407,0,0
-567,617,0,0,0,0,0,0,0,0,0,-1,657,407,0,0
-560,617,0,0,0,0,0,0,0,0,0,-1,664,407,0,0
-553,617,0,0,0,0,0,0,0,0,0,-1,671,407,0,0
-546,617,0,0,0,0,0,0,0,0,0,-1,678,407,0,0
-539,617,0,0,0,0,0,0,0,0,0,-1,685,407,0,0
-532,617,0,0,0,0,0,0,0,0,0,-1,692,407,0,0
-525,617,0,0,0,0,0,0,0,0,0,-1,699,407,0,0
-518,617,0,0,0,0,0,0,0,0,0,-1,706,407,0,0
-511,617,0,0,0,0,0,0,0,0,0,-1,713,407,0,0
-504,617,0,0,0,0,0,0,0,0,0,-1,720,407,0,0
-497,617,0,0,0,0,0,0,0,0,0,-1,727,407,0,0
-490,617,0,0,0,0,0,0,0,0,0,-1,734,407,0,0
-483,617,0,0,0,0,0,0,0,0,0,-1,741,407,0,0
-476,617,0,0,0,0,0,0,0,0,0,-1,748,407,0,0
-469,617,0,0,0,0,0,0,0,0,0,-1,755,407,0,0
-462,617,0,0,0,0,0,0,0,0,0,-1,762,407,0,0
-455,617,0,0,0,0,0,0,0,0,0,-1,769,407,0,0
-448,617,0,0,0,0,0,0,0,0,0,-1,776,407,0,0
-441,617,0,0,0,0,0,0,0,0,0,-1,783,407,0,0
-434,617,0,0,0,0,0,0,0,0,0,-1,790,407,0,0
-427,617,0,0,0,0,0,0,0,0,0,-1,797,407,0,0
-420,617,0,0,0,0,0,0,0,0,0,-1,804,407,0,0
-413,617,0,0,0,0,0,0,0,0,0,-1,811,407,0,0
-406,617,0,0,0,0,0,0,0,0,0,-1,818,407,0,0
-399,617,0,0,0,0,0,0,0,0,0,-1,825,407,0,0
-392,617,0,0,0,0,0,0,0,0,0,-1,832,407,0,0
-385,617,0,0,0,0,0,0,0,0,0,-1,839,407,0,0
-378,617,0,0,0,0,0,0,0,0,0,-1,846,407,0,0
-371,617,0,0,0,0,0,0,0,0,0,-1,853,407,0,0
-364,617,0,0,0,0,0,0,0,0,0,-1,860,407,0,0
-357,617,0,0,0,0,0,0,0,0,0,-1,867,407,0,0
-350,617,0,0,0,0,0,0,0,0,0,-1,874,407,0,0
-343,617,0,0,0,0,0,0,0,0,0,-1,881,407,0,0
-336,617,0,0,0,0,0,0,0,0,0,-1,888,407,0,0
-329,617,0,0,0,0,0,0,0,0,0,-1,895,407,0,0
-322,617,0,0,0,0,0,0,0,0,0,-1,902,407,0,0
-315,617,0,0,0,0,0,0,0,0,0,-1,909,407,0,0
-308,617,0,0,0,0,0,0,0,0,0,-1,916,407,0,0
-301,617,1.29468,0.253387,0,0,0,0,0,0,0,-1,923,407,1.29469,-0.253395
-294,617,1.78668,0.317505,0.00431631,-0.00389208,0.0286786,0.0291829,-0.0287587,0.714326,0.0334529,0.0404375,930,407,1.7867,-0.317517
-287,617,2.06494,0.0918274,0.0121465,-0.00581225,0.0329969,0.037364,-0.0310297,0.652551,0.0395435,0.03974,937,407,2.06494,-0.091827
-280,617,2.39893,-0.600922,0.0163096,-0.00570866,0.0357711,0.0427274,-0.0321264,0.636115,0.0433611,0.0430784,944,407,2.3989,0.600913
-273,617,2.68677,-0.683655,0.0197171,-0.00561526,0.0377818,0.0468994,-0.0327975,0.623663,0.0462525,0.0453081,951,407,2.68676,0.683648
-266,617,2.50079,-0.564789,0.0208752,-0.00410451,0.0382068,0.0485818,-0.0318111,0.627423,0.0467503,0.0445437,958,407,2.50079,0.564799
-259,617,2.39252,-0.436829,0.0208416,-0.00227168,0.0374807,0.0485068,-0.029937,0.635855,0.0457106,0.0426181,965,407,2.39254,0.436832
-252,617,2.34167,-0.605621,0.0189933,-0.000463874,0.0349924,0.0455843,-0.0270549,0.649812,0.0423907,0.0399071,972,407,2.34165,0.605611
-245,617,2.60138,-0.828125,0.0157398,0.00112606,0.0308574,0.0401437,-0.0232778,0.669142,0.0370455,0.0396763,979,407,2.60141,0.828132
-238,617,1.97583,-1.25482,0,0,0,0,0,0,0,-1,986,407,1.97584,1.25481
-231,617,1.896,-1.31021,0.008394,0.00335003,0.0210557,0.0270783,-0.0153342,0.725794,0.0247978,0.0467345,993,407,1.89598,1.3102
-224,617,1.91986,-1.29108,0.00441018,0.00426598,0.0158405,0.0201787,-0.0115026,0.783122,0.0185184,0.0434958,1000,407,1.91985,1.29107
-217,617,1.88318,-1.3313,0.00147066,0.00461351,0.0104321,0.0135919,-0.00750774,0.860153,0.0123496,0.0356171,1007,407,1.88318,1.33128
-210,617,1.83728,-1.4223,0.000314172,0.00442124,0.0062449,0.00894158,-0.00420617,0.944246,0.00775323,0.0233097,1014,407,1.83727,1.4223
-203,617,1.83136,-1.45905,0.000304221,0.00440826,0.00276704,0.00580113,-0.00108865,1.10445,0.00427674,0.0181357,1021,407,1.83135,1.45906
-196,617,1.83594,-1.47586,-0.00111143,0.00448779,-1.11161e-05,0.00448781,-0.00111146,-1.56881,0.00342304,0.0143283,1028,407,1.83588,1.47586
-189,617,1.83643,-1.50262,-0.00260652,0.00357662,-0.00185354,0.00408969,-0.00311958,-1.30075,0.00417482,0.0127558,1035,407,1.83642,1.50261
-182,617,1.82288,-1.53918,-0.00227134,0.00297957,-0.00198627,0.00364627,-0.00293804,-1.24696,0.00380878,0.0139086,1042,407,1.82284,1.53917
-175,617,1.85303,-1.56604,-0.000751396,0.00212328,-0.00122388,0.00257375,-0.00120187,-1.21812,0.0022273,0.0118551,1049,407,1.85305,1.56604
-168,617,1.86804,-1.5947,-0.000312563,0.00182306,-0.000218404,0.00184516,-0.000334669,-1.46992,0.00135551,0.00987784,1056,407,1.86809,1.5947
-161,617,1.84802,-1.64395,7.06446e-06,0.001574,0.000794722,0.00190651,-0.000325445,1.17453,0.00139222,0.0108159,1063,407,1.84802,1.64396
-154,617,1.84607,-1.66449,0.00029255,0.00122301,0.00154202,0.00236845,-0.000852888,0.931908,0.00192723,0.0106716,1070,407,1.84608,1.66449
-147,617,1.85608,-1.6799,0.000485347,0.000896345,0.00214737,0.00284802,-0.00146633,0.833102,0.00253311,0.0144094,1077,407,1.85607,1.67989
-140,617,1.85449,-1.71664,0.000491534,0.000551434,0.00268296,0.00320462,-0.00216165,0.790979,0.00311766,0.0110144,1084,407,1.85454,1.71665
-133,617,1.8468,-1.74203,0.000313857,0.000195489,0.00274142,0.00299674,-0.00248739,0.774605,0.00317081,0.0125865,1091,407,1.84674,1.74203
-126,617,1.83862,-1.72955,9.35204e-05,-8.13024e-05,0.00270479,0.00271231,-0.00270009,0.769245,0.00312485,0.0129096,1098,407,1.83864,1.72957
-119,617,1.84229,-1.74576,-0.000181588,-0.000268311,0.00276349,0.00253888,-0.00298878,0.777553,0.00319492,0.0135181,1105,407,1.84231,1.74574
-112,617,1.83398,-1.77216,-0.000769071,-0.000129817,0.00285244,0.00242085,-0.00331974,0.841192,0.00332785,0.0149457,1112,407,1.83396,1.77215
-105,617,1.8147,-1.80783,-0.00155945,0.000251546,0.00289192,0.00237642,-0.00368432,0.93712,0.00352623,0.0150217,1119,407,1.81466,1.80783
-98,617,1.82422,-1.82889,-0.00229092,0.000570081,0.00271279,0.00220643,-0.00392726,1.02803,0.00358744,0.012591,1126,407,1.82427,1.82889
-91,617,1.83618,-1.83923,-0.00282114,0.000878947,0.00257411,0.00219887,-0.00414106,1.09699,0.00371717,0.017671,1133,407,1.83622,1.83923
-84,617,1.85339,-1.85913,-0.00285983,0.00142815,0.00308442,0.00304053,-0.00447221,1.08911,0.00436366,0.0167716,1140,407,1.8534,1.85912
-77,617,1.85681,-1.88394,-0.00282483,0.00183795,0.00351975,0.00372841,-0.00471529,1.07791,0.00488606,0.0125746,1147,407,1.85684,1.88396
-70,617,1.84924,-1.90506,-0.00189648,0.00211903,0.00397031,0.00456037,-0.00433783,1.01949,0.00513791,0.0126232,1154,407,1.84921,1.90506
-63,617,1.85913,-1.92868,-0.000343074,0.00230173,0.00435323,0.00552898,-0.00357033,0.932856,0.0052939,0.0118614,1161,407,1.85917,1.92869
-56,617,1.87646,-1.93457,0.00158878,0.00262625,0.00478024,0.00691583,-0.00270079,0.839445,0.00572717,0.00942328,1168,407,1.87649,1.93456
-49,617,1.88403,-1.92383,0.00341817,0.00265575,0.0052237,0.00827455,-0.00220063,0.748974,0.00637775,0.00905852,1175,407,1.884,1.92383
-42,617,1.88928,-1.93381,0.00531472,0.00242054,0.00550402,0.0095587,-0.00182344,0.65685,0.00705923,0.010829,1182,407,1.8893,1.93382
-35,617,1.89722,-1.94107,0.00691425,0.00202411,0.00565866,0.0106335,-0.00169514,0.581466,0.00771636,0.0162925,1189,407,1.89716,1.94108
-28,617,1.8783,-1.94937,0.00829786,0.001566,0.00570222,0.0115535,-0.00168961,0.518776,0.00832288,0.0191582,1196,407,1.87829,1.94938
-21,617,1.87231,-1.95493,0.00956699,0.00110986,0.00558694,0.0123452,-0.00166833,0.461458,0.00883887,0.0137032,1203,407,1.87232,1.95492
-14,617,1.85229,-1.95682,0.0100481,0.000515821,0.00549387,0.0125551,-0.00199118,0.428103,0.00910667,0.0148358,1210,407,1.85236,1.95681
-7,617,1.83386,-1.98041,0.00978919,-0.000147555,0.0055548,0.0122734,-0.00263174,0.420534,0.00918603,0.0171066,1217,407,1.83382,1.98039
0,617,1.85266,-1.98242,0.00873718,-0.00111036,0.00565757,0.0113135,-0.00368669,0.427318,0.00902581,0.0146617,1224,407,1.85268,1.98242
7,617,1.87036,-2.0112,0.00697147,-0.00177788,0.00605166,0.0100641,-0.00487049,0.472437,0.00879455,0.0114574,1231,407,1.87039,2.0112
14,617,1.86792,-2.02811,0.00508372,-0.00292669,0.00658603,0.00878679,-0.00662976,0.512208,0.00892974,0.0132876,1238,407,1.86788,2.02811
21,617,1.86743,-2.01477,0.00345044,-0.00438804,0.00664701,0.00724762,-0.00818522,0.51902,0.00891564,0.011343,1245,407,1.8674,2.01477
28,617,1.86682,-2.01941,0.0026179,-0.00643923,0.00675757,0.00622399,-0.0100453,0.490194,0.00947907,0.00980306,1252,407,1.86677,2.0194
35,617,1.88074,-2.02243,0.0024527,-0.0080421,0.00694291,0.00590813,-0.0114975,0.461799,0.0102204,0.0118566,1259,407,1.88076,2.02244
42,617,1.89514,-2.01883,0.0032617,-0.00973611,0.00682446,0.00618665,-0.0126611,0.404914,0.0110937,0.017613,1266,407,1.89514,2.01883
49,617,1.8844,-2.03561,0.00434761,-0.0113118,0.00610577,0.00644688,-0.0134111,0.331157,0.0116977,0.0178095,1273,407,1.8844,2.03563
56,617,1.90833,-2.01935,0.0058863,-0.0123692,0.00493922,0.00713697,-0.0136199,0.248,0.0121773,0.0129353,1280,407,1.90828,2.01936
63,617,1.89282,-2.02744,0.00771674,-0.0133636,0.00357678,0.00830709,-0.013954,0.163577,0.0129895,0.00957758,1287,407,1.89278,2.02743
70,617,1.87549,-2.03839,0.00940475,-0.0135363,0.00181687,0.00954775,-0.0136793,0.0785447,0.0134807,0.0136663,1294,407,1.87545,2.03839
77,617,1.90283,-2.02759,0.0108719,-0.0131594,-1.32075e-05,0.0108719,-0.0131594,-0.000549596,0.0138954,0.0123114,1301,407,1.90279,2.02757
84,617,1.90466,-2.02231,0.0117804,-0.0121637,-0.00186785,0.0119252,-0.0123086,-0.0773846,0.013992,0.0101246,1308,407,1.90464,2.02231
91,617,1.9104,-2.03915,0.0122441,-0.0104526,-0.0037944,0.0128616,-0.0110701,-0.161336,0.0138299,0.0101283,1315,407,1.91046,2.03916
98,617,1.92456,-2.03839,0.0121997,-0.00821224,-0.00568892,0.0136781,-0.00969069,-0.254258,0.0135573,0.0114931,1322,407,1.92461,2.03838
105,617,1.91748,-2.03415,0.0115629,-0.00589142,-0.00702488,0.0140389,-0.00836749,-0.338875,0.0130738,0.0125565,1329,407,1.91754,2.03415
112,617,1.91541,-2.04016,0.0104582,-0.00355667,-0.0079562,0.0140529,-0.00715136,-0.424358,0.0124566,0.0150648,1336,407,1.91541,2.04016
119,617,1.91553,-2.00375,0.0092345,-0.00114556,-0.00857912,0.0140713,-0.00598238,-0.513368,0.0118878,0.017938,1343,407,1.91549,2.00376
126,617,1.91016,-1.98553,0.00749847,0.000863066,-0.00877437,0.0135614,-0.00519989,-0.60465,0.0111847,0.0191554,1350,407,1.91015,1.98553
133,617,1.91479,-1.95584,0.00552459,0.00263431,-0.00860961,0.0128095,-0.0046506,-0.702247,0.010441,0.0170216,1357,407,1.91474,1.95583
140,617,1.91479,-1.96341,0.00360774,0.00341826,-0.00843165,0.0119452,-0.00491918,-0.77978,0.0100143,0.0148632,1364,407,1.9148,1.9634
147,617,1.92505,-1.97882,0.00159757,0.00378645,-0.00812203,0.0108874,-0.00550342,-0.85237,0.00963194,0.0165512,1371,407,1.92504,1.97881
154,617,1.93494,-1.9996,-2.73588e-05,0.00327307,-0.00774281,0.00953957,-0.00629386,-0.890392,0.00920523,0.0192471,1378,407,1.93496,1.99961
161,617,1.92932,-1.97177,-0.00148568,0.00268529,-0.0072944,0.00818648,-0.00698686,-0.924635,0.00876946,0.0210532,1385,407,1.92932,1.97176
168,617,1.96497,-1.97186,-0.00272206,0.00225181,-0.00695554,0.00715165,-0.00762189,-0.95709,0.00853094,0.0194673,1392,407,1.96503,1.97186
175,617,1.98474,-1.9715,-0.0038021,0.001627,-0.00656698,0.00601836,-0.00819346,-0.981385,0.00823717,0.0162333,1399,407,1.98469,1.97149
182,617,1.96484,-1.94464,-0.00480343,0.00114374,-0.0062196,0.00506404,-0.00872373,-1.00838,0.00805331,0.0110788,1406,407,1.96481,1.94463
189,617,1.9364,-1.91217,-0.00552564,0.000619797,-0.00593475,0.00423011,-0.00913595,-1.02427,0.00788826,0.010866,1413,407,1.93641,1.91218
196,617,1.95337,-1.90186,-0.00601775,0.000336912,-0.00555911,0.00356264,-0.00924348,-1.04502,0.00763226,0.0150503,1420,407,1.95338,1.90185
203,617,1.96045,-1.88071,-0.00615668,0.00032514,-0.00497566,0.0030223,-0.00885384,-1.07406,0.0071269,0.0140671,1427,407,1.96043,1.88072
210,617,1.94287,-1.84064,-0.00573716,0.00106299,-0.00450366,0.00330591,-0.00798008,-1.10873,0.00669966,0.0132705,1434,407,1.94291,1.84064
217,617,1.92896,-1.78973,-0.00523494,0.00175669,-0.00392683,0.00351832,-0.00699657,-1.1491,0.0061805,0.018036,1441,407,1.92892,1.78975
224,617,1.9519,-1.7998,-0.00453666,0.00236417,-0.00325372,0.00365633,-0.00582883,-1.19276,0.00552393,0.0180661,1448,407,1.95195,1.79981
231,617,1.96533,-1.8212,-0.00357825,0.00290575,-0.00238817,0.0036904,-0.0043629,-1.25335,0.00465498,0.0137735,1455,407,1.96537,1.8212
238,617,1.95667,-1.80649,-0.00252808,0.0033252,-0.00169323,0.00377972,-0.0029826,-1.30854,0.00391326,0.014127,1462,407,1.95672,1.8065
245,617,1.95093,-1.78897,-0.0015679,0.00361834,-0.00110511,0.003844,-0.00179357,-1.36937,0.00332584,0.0124373,1469,407,1.95093,1.78896
252,617,1.95935,-1.74316,-0.000524384,0.00367912,-0.000466297,0.00373023,-0.000575489,-1.46163,0.00269918,0.0135488,1476,407,1.95936,1.74317
259,617,1.96313,-1.72165,0.000454563,0.00377564,0.000198633,0.00378748,0.000442725,1.51127,0.00239111,0.0115488,1483,407,1.96312,1.72166
266,617,1.94653,-1.68399,0.000946548,0.00359229,0.000613411,0.00372759,0.000811249,1.3537,0.00226363,0.0147284,1490,407,1.94653,1.68399
273,617,1.95667,-1.65408,0.00105694,0.00327086,0.000887386,0.00358264,0.000745166,1.23293,0.00218285,0.0157915,1497,407,1.95663,1.65409
280,617,1.95862,-1.64636,0.00127771,0.00281559,0.0013251,0.0035787,0.000514604,1.0483,0.00223411,0.0134301,1504,407,1.95866,1.64638
287,617,1.93689,-1.63422,0.00106191,0.0014589,0.00200265,0.00327286,-0.000752051,0.834794,0.00247104,0.011438,1511,407,1.93685,1.63422
294,617,1.93042,-1.60284,0.000196908,-0.000599567,0.00282707,0.00265366,-0.00305631,0.715426,0.00329938,0.00974043,1518,407,1.93041,1.60285
301,617,1.93591,-1.57346,-0.00116415,-0.00371213,0.00359899,0.00137969,-0.00625596,0.615288,0.00469855,0.00847533,1525,407,1.93591,1.57344
308,617,1.94922,-1.55441,-0.00288367,-0.00742456,0.00434257,-0.000253822,-0.0100544,0.544524,0.00661995,0.00852648,1532,407,1.94923,1.55442
315,617,1.94702,-1.51953,-0.0050463,-0.0122419,0.00529566,-0.0022419,-0.0150463,0.487019,0.00937338,0.00891402,1539,407,1.94702,1.51952
322,617,1.94861,-1.49265,-0.00753124,-0.0171067,0.00628566,-0.00441758,-0.0202203,0.459928,0.0122756,0.0110366,1546,407,1.94858,1.49264
329,617,1.948,-1.47604,-0.0103332,-0.022622,0.00777818,-0.00656527,-0.0263899,0.451106,0.0158643,0.0108981,1553,407,1.94799,1.47605
336,617,1.96777,-1.42886,-0.0133963,-0.0285515,0.0089755,-0.00922744,-0.0327204,0.434823,0.0194804,0.0203731,1560,407,1.96782,1.42887
343,617,1.91663,-1.35703,-0.0167356,-0.0344002,0.0102822,-0.0120131,-0.0391227,0.430551,0.0231413,0.0332056,1567,407,1.91662,1.35702
350,617,1.90906,-1.30045,-0.0199402,-0.039834,0.0114148,-0.0147465,-0.0450277,0.427002,0.0265075,0.0390989,1574,407,1.90907,1.30043
357,617,1.88257,-1.42276,-0.0229366,-0.044913,0.0125916,-0.0172129,-0.0506367,0.426646,0.0297303,0.0387087,1581,407,1.88257,1.42275
364,617,1.8689,-1.58725,-0.025286,-0.0491811,0.0138415,-0.0189488,-0.0555183,0.429352,0.0325872,0.0415795,1588,407,1.86889,1.58725
371,617,1.83936,-1.74796,-0.026009,-0.0515135,0.0147805,-0.0192399,-0.0582826,0.429465,0.0342908,0.0474366,1595,407,1.83931,1.74797
378,617,1.82336,-1.89389,0,0,0,0,0,0,0,-1,1602,407,1.82333,1.89391
385,617,1.90527,-1.94299,0,0,0,0,0,0,0,-1,1609,407,1.90533,1.94299
392,617,2.02515,-1.61304,0,0,0,0,0,0,0,-1,1616,407,2.02512,1.61304
399,617,2.04822,-1.70035,0,0,0,0,0,0,0,-1,1623,407,2.04819,1.70034
406,617,1.68005,-1.5809,0,0,0,0,0,0,0,-1,1630,407,1.68001,1.58091
413,617,-0.917236,1.59122,0,0,0,0,0,0,0,-1,1637,407,-0.917231,-1.59122
420,617,0.716675,-1.03799,0,0,0,0,0,0,0,-1,1644,407,0.716649,1.03799
427,617,0,0,0,0,0,0,0,0,0,-1,1651,407,0,0
434,617,0,0,0,0,0,0,0,0,0,-1,1658,407,0,0
441,617,0,0,0,0,0,0,0,0,0,-1,1665,407,0,0
448,617,0,0,0,0,0,0,0,0,0,-1,1672,407,0,0
455,617,0,0,0,0,0,0,0,0,0,-1,1679,407,0,0
462,617,0,0,0,0,0,0,0,0,0,-1,1686,407,0,0
469,617,0,0,0,0,0,0,0,0,0,-1,1693,407,0,0
476,617,0,0,0,0,0,0,0,0,0,-1,1700,407,0,0
483,617,0,0,0,0,0,0,0,0,0,-1,1707,407,0,0
490,617,0,0,0,0,0,0,0,0,0,-1,1714,407,0,0
497,617,0,0,0,0,0,0,0,0,0,-1,1721,407,0,0
504,617,0,0,0,0,0,0,0,0,0,-1,1728,407,0,0
511,617,0,0,0,0,0,0,0,0,0,-1,1735,407,0,0
518,617,0,0,0,0,0,0,0,0,0,-1,1742,407,0,0
525,617,0,0,0,0,0,0,0,0,0,-1,1749,407,0,0
532,617,0,0,0,0,0,0,0,0,0,-1,1756,407,0,0
539,617,0,0,0,0,0,0,0,0,0,-1,1763,407,0,0
546,617,0,0,0,0,0,0,0,0,0,-1,1770,407,0,0
553,617,0,0,0,0,0,0,0,0,0,-1,1777,407,0,0
560,617,0,0,0,0,0,0,0,0,0,-1,1784,407,0,0
567,617,0,0,0,0,0,0,0,0,0,-1,1791,407,0,0
574,617,0,0,0,0,0,0,0,0,0,-1,1798,407,0,0
581,617,0,0,0,0,0,0,0,0,0,-1,1805,407,0,0
588,617,0,0,0,0,0,0,0,0,0,-1,1812,407,0,0
595,617,0,0,0,0,0,0,0,0,0,-1,1819,407,0,0
602,617,0,0,0,0,0,0,0,0,0,-1,1826,407,0,0
609,617,0,0,0,0,0,0,0,0,0,-1,1833,407,0,0
616,617,0,0,0,0,0,0,0,0,0,-1,1840,407,0,0
623,617,0,0,0,0,0,0,0,0,0,-1,1847,407,0,0
630,617,0,0,0,0,0,0,0,0,0,-1,1854,407,0,0
637,617,0,0,0,0,0,0,0,0,0,-1,1861,407,0,0
644,617,0,0,0,0,0,0,0,0,0,-1,1868,407,0,0
651,617,0,0,0,0,0,0,0,0,0,-1,1875,407,0,0
658,617,0,0,0,0,0,0,0,0,0,-1,1882,407,0,0
665,617,0,0,0,0,0,0,0,0,0,-1,1889,407,0,0
672,617,0,0,0,0,0,0,0,0,0,-1,1896,407,0,0
679,617,0,0,0,0,0,0,0,0,0,-1,1903,407,0,0
686,617,0,0,0,0,0,0,0,0,0,-1,1910,407,0,0
693,617,0,0,0,0,0,0,0,0,0,-1,1917,407,0,0
700,617,0,0,0,0,0,0,0,0,0,-1,1924,407,0,0
707,617,0,0,0,0,0,0,0,0,0,-1,1931,407,0,0
714,617,0,0,0,0,0,0,0,0,0,-1,1938,407,0,0
721,617,0,0,0,0,0,0,0,0,0,-1,1945,407,0,0
728,617,0,0,0,0,0,0,0,0,0,-1,1952,407,0,0
735,617,0,0,0,0,0,0,0,0,0,-1,1959,407,0,0
742,617,0,0,0,0,0,0,0,0,0,-1,1966,407,0,0
749,617,0,0,0,0,0,0,0,0,0,-1,1973,407,0,0
756,617,0,0,0,0,0,0,0,0,0,-1,1980,407,0,0
763,617,0,0,0,0,0,0,0,0,0,-1,1987,407,0,0
770,617,0,0,0,0,0,0,0,0,0,-1,1994,407,0,0
777,617,0,0,0,0,0,0,0,0,0,-1,2001,407,0,0
784,617,0,0,0,0,0,0,0,0,0,-1,2008,407,0,0
791,617,0,0,0,0,0,0,0,0,0,-1,2015,407,0,0
798,617,0,0,0,0,0,0,0,0,0,-1,2022,407,0,0
805,617,0,0,0,0,0,0,0,0,0,-1,2029,407,0,0
812,617,0,0,0,0,0,0,0,0,0,-1,2036,407,0,0
-700,610,0,0,0,0,0,0,0,0,0,-1,524,414,0,0
-693,610,0,0,0,0,0,0,0,0,0,-1,531,414,0,0
-686,610,0,0,0,0,0,0,0,0,0,-1,538,414,0,0
-679,610,0,0,0,0,0,0,0,0,0,-1,545,414,0,0
-672,610,0,0,0,0,0,0,0,0,0,-1,552,414,0,0
-665,610,0,0,0,0,0,0,0,0,0,-1,559,414,0,0
-658,610,0,0,0,0,0,0,0,0,0,-1,566,414,0,0
-651,610,0,0,0,0,0,0,0,0,0,-1,573,414,0,0
-644,610,0,0,0,0,0,0,0,0,0,-1,580,414,0,0
-637,610,0,0,0,0,0,0,0,0,0,-1,587,414,0,0
-630,610,0,0,0,0,0,0,0,0,0,-1,594,414,0,0
-623,610,0,0,0,0,0,0,0,0,0,-1,601,414,0,0
-616,610,0,0,0,0,0,0,0,0,0,-1,608,414,0,0
-609,610,0,0,0,0,0,0,0,0,0,-1,615,414,0,0
-602,610,0,0,0,0,0,0,0,0,0,-1,622,414,0,0
-595,610,0,0,0,0,0,0,0,0,0,-1,629,414,0,0
-588,610,0,0,0,0,0,0,0,0,0,-1,636,414,0,0
-581,610,0,0,0,0,0,0,0,0,0,-1,643,414,0,0
-574,610,0,0,0,0,0,0,0,0,0,-1,650,414,0,0
-567,610,0,0,0,0,0,0,0,0,0,-1,657,414,0,0
-560,610,0,0,0,0,0,0,0,0,0,-1,664,414,0,0
-553,610,0,0,0,0,0,0,0,0,0,-1,671,414,0,0
-546,610,0,0,0,0,0,0,0,0,0,-1,678,414,0,0
-539,610,0,0,0,0,0,0,0,0,0,-1,685,414,0,0
-532,610,0,0,0,0,0,0,0,0,0,-1,692,414,0,0
-525,610,0,0,0,0,0,0,0,0,0,-1,699,414,0,0
-518,610,0,0,0,0,0,0,0,0,0,-1,706,414,0,0
-511,610,0,0,0,0,0,0,0,0,0,-1,713,414,0,0
-504,610,0,0,0,0,0,0,0,0,0,-1,720,414,0,0
-497,610,0,0,0,0,0,0,0,0,0,-1,727,414,0,0
-490,610,0,0,0,0,0,0,0,0,0,-1,734,414,0,0
-483,610,0,0,0,0,0,0,0,0,0,-1,741,414,0,0
-476,610,0,0,0,0,0,0,0,0,0,-1,748,414,0,0
-469,610,0,0,0,0,0,0,0,0,0,-1,755,414,0,0
-462,610,0,0,0,0,0,0,0,0,0,-1,762,414,0,0
-455,610,0,0,0,0,0,0,0,0,0,-1,769,414,0,0
-448,610,0,0,0,0,0,0,0,0,0,-1,776,414,0,0
-441,610,0,0,0,0,0,0,0,0,0,-1,783,414,0,0
-434,610,0,0,0,0,0,0,0,0,0,-1,790,414,0,0
-427,610,0,0,0,0,0,0,0,0,0,-1,797,414,0,0
-420,610,0,0,0,0,0,0,0,0,0,-1,804,414,0,0
-413,610,0,0,0,0,0,0,0,0,0,-1,811,414,0,0
-406,610,0,0,0,0,0,0,0,0,0,-1,818,414,0,0
-399,610,0,0,0,0,0,0,0,0,0,-1,825,414,0,0
-392,610,0,0,0,0,0,0,0,0,0,-1,832,414,0,0
-385,610,0,0,0,0,0,0,0,0,0,-1,839,414,0,0
-378,610,0,0,0,0,0,0,0,0,0,-1,846,414,0,0
-371,610,0,0,0,0,0,0,0,0,0,-1,853,414,0,0
-364,610,0,0,0,0,0,0,0,0,0,-1,860,414,0,0
-357,610,0,0,0,0,0,0,0,0,0,-1,867,414,0,0
-350,610,0,0,0,0,0,0,0,0,0,-1,874,414,0,0
-343,610,0,0,0,0,0,0,0,0,0,-1,881,414,0,0
-336,610,0,0,0,0,0,0,0,0,0,-1,888,414,0,0
-329,610,0,0,0,0,0,0,0,0,0,-1,895,414,0,0
-322,610,0,0,0,0,0,0,0,0,0,-1,902,414,0,0
-315,610,2.35193,-1.20139,-0.0377515,0.0213539,0.00464335,0.0217165,-0.038114,1.49287,0.0349729,0.0489647,909,414,2.35191,1.20137
-308,610,1.79877,-1.37259,-0.0255873,0.0107432,0.0104567,0.0135379,-0.028382,1.30964,0.024703,0.0472016,916,414,1.79876,1.37259
-301,610,1.2417,-1.5419,0,0,0,0,0,0,0,-1,923,414,1.24172,1.54189
-294,610,0.741821,0.548737,-0.00280238,-0.00160289,0.0212664,0.0190722,-0.0234775,0.799495,0.0246099,0.0426562,930,414,0.7418,-0.548747
-287,610,1.25421,0.310089,0.00457067,-0.00313376,0.0246447,0.0256624,-0.0242255,0.70787,0.0288068,0.0459882,937,414,1.25421,-0.310088
-280,610,1.52826,-0.365631,0.00902612,-0.00313869,0.0268014,0.0304266,-0.0245392,0.673816,0.0317951,0.0442788,944,414,1.52823,0.365617
-273,610,1.8797,-0.820007,0.0126678,-0.00321599,0.0283002,0.0341193,-0.0246675,0.648602,0.0340865,0.0423613,951,414,1.87973,0.819998
-266,610,2.03986,-0.546722,0.014284,-0.00195136,0.0285642,0.0358616,-0.0235289,0.646953,0.0345347,0.0433366,958,414,2.03983,0.546737
-259,610,1.81354,-0.477356,0.0149872,-0.000480667,0.0280241,0.0363249,-0.0218184,0.650762,0.0339155,0.041881,965,414,1.81354,0.477341
-252,610,1.74823,-0.729279,0.0141127,0.00092292,0.0260909,0.0344293,-0.0193936,0.661608,0.0314763,0.04137,972,414,1.74825,0.729268
-245,610,1.98798,-1.04681,0.0118585,0.00212299,0.0229786,0.0304793,-0.0164978,0.681022,0.0275197,0.039889,979,414,1.98799,1.04682
-238,610,1.92401,-1.24271,0.00910145,0.00309811,0.0192704,0.0256025,-0.013403,0.708136,0.022884,0.0376403,986,414,1.92403,1.2427
-231,610,1.8327,-1.31467,0.00626185,0.003599,0.015391,0.0203789,-0.010518,0.742252,0.0181386,0.0293642,993,414,1.83269,1.31465
-224,610,1.8255,-1.35645,0.00327448,0.00405503,0.0114005,0.015072,-0.00774246,0.802508,0.0133966,0.0218548,1000,414,1.82552,1.35646
-217,610,1.83588,-1.39496,0.00106103,0.00407483,0.0073202,0.0100416,-0.00490576,0.886908,0.00879804,0.0151515,1007,414,1.83588,1.39495
-210,610,1.82507,-1.42679,2.33232e-05,0.00369585,0.00416115,0.00640789,-0.00268872,0.99319,0.00539626,0.00970673,1014,414,1.82509,1.4268
-203,610,1.82489,-1.45053,-0.000208454,0.00355153,0.00150175,0.0040777,-0.000734624,1.23379,0.00299354,0.0116298,1021,414,1.8249,1.45053
-196,610,1.84302,-1.49188,-0.00115546,0.00338408,-0.00048277,0.00343485,-0.00120623,-1.46601,0.0027806,0.0123077,1028,414,1.84301,1.49189
-189,610,1.83813,-1.52139,-0.00210031,0.00258407,-0.00178949,0.00318944,-0.00270568,-1.24459,0.00340737,0.0101133,1035,414,1.83816,1.5214
-182,610,1.82349,-1.54532,-0.0018619,0.00205794,-0.00186956,0.00280662,-0.00261058,-1.18989,0.00312831,0.0107026,1042,414,1.82351,1.5453
-175,610,1.83325,-1.57181,-0.000798041,0.00126855,-0.00130959,0.0019034,-0.00143289,-1.1194,0.00193258,0.0110848,1049,414,1.83322,1.5718
-168,610,1.84033,-1.6188,-0.000449048,0.000850898,-0.000572051,0.00106678,-0.000664931,-1.20994,0.00100874,0.0108246,1056,414,1.84035,1.61879
-161,610,1.81897,-1.66718,-0.000196265,0.000507875,0.000120316,0.000527866,-0.000216256,1.40615,0.000441998,0.0106483,1063,414,1.81896,1.66717
-154,610,1.81921,-1.67493,5.81612e-05,8.63664e-05,0.000663064,0.000735477,-0.00059095,0.796031,0.000767327,0.0133944,1070,414,1.81916,1.67493
-147,610,1.82666,-1.66428,0.000247041,-0.000273129,0.00114692,0.001163,-0.00118909,0.6739,0.001358,0.0136545,1077,414,1.82665,1.66429
-140,610,1.8197,-1.70239,0.000365096,-0.000632921,0.00153584,0.00148096,-0.00174879,0.628324,0.00186683,0.0107323,1084,414,1.8197,1.70239
-133,610,1.82349,-1.73694,0.000325791,-0.000972254,0.00153529,0.0013436,-0.00199006,0.585422,0.00193672,0.0123535,1091,414,1.82343,1.73693
-126,610,1.83008,-1.74893,0.000217772,-0.00120148,0.00148067,0.00115008,-0.00213379,0.561938,0.00192409,0.0109041,1098,414,1.83007,1.74893
-119,610,1.82642,-1.73755,4.75816e-05,-0.00131938,0.00154018,0.00104912,-0.00232092,0.576568,0.00199134,0.00961795,1105,414,1.82643,1.73754
-112,610,1.81421,-1.75793,-0.000418094,-0.00114126,0.00173123,0.000988905,-0.00254826,0.682448,0.00210729,0.01658,1112,414,1.81415,1.75793
-105,610,1.80115,-1.79092,-0.00113134,-0.000619684,0.00199246,0.0011333,-0.00288433,0.849248,0.00239188,0.0153262,1119,414,1.8011,1.79094
-98,610,1.81726,-1.83301,-0.00182607,-0.000205362,0.00209605,0.00123153,-0.00326296,0.969853,0.00268179,0.0108471,1126,414,1.81729,1.83302
-91,610,1.82422,-1.83881,-0.00254156,0.000282359,0.00230882,0.00157674,-0.00383595,1.05983,0.00321447,0.0124092,1133,414,1.82422,1.8388
-84,610,1.85034,-1.86044,-0.00255196,0.00109075,0.00329253,0.00303212,-0.00449333,1.03804,0.00437203,0.0134183,1140,414,1.85029,1.86044
-77,610,1.83228,-1.88916,-0.0023272,0.00169494,0.00419817,0.00433888,-0.00497113,1.00877,0.00537926,0.0103133,1147,414,1.83231,1.88917
-70,610,1.84668,-1.9281,-0.000606869,0.00213049,0.00503792,0.00598234,-0.00445872,0.918035,0.00604951,0.012037,1154,414,1.84668,1.92811
-63,610,1.8739,-1.93997,0.00180051,0.00245192,0.00571752,0.00785301,-0.00360058,0.813851,0.00676295,0.0105769,1161,414,1.87388,1.93997
-56,610,1.87634,-1.93942,0.00475846,0.00301211,0.00650665,0.0104503,-0.00267969,0.718698,0.00801089,0.00836791,1168,414,1.87632,1.93942
-49,610,1.87769,-1.92932,0.00751077,0.0031053,0.00713849,0.0127787,-0.00216258,0.635747,0.00932394,0.00979877,1175,414,1.87763,1.92931
-42,610,1.87439,-1.94565,0.0103231,0.00283537,0.00746126,0.0149271,-0.00176864,0.552867,0.0105903,0.0143483,1182,414,1.87441,1.94566
-35,610,1.8667,-1.95956,0.0124492,0.00229968,0.00770015,0.0165964,-0.00184758,0.494044,0.0117288,0.0139988,1189,414,1.86675,1.95957
-28,610,1.85742,-1.97107,0.0141013,0.00168165,0.00778131,0.0178469,-0.00206396,0.448625,0.0126422,0.0118357,1196,414,1.85738,1.97106
-21,610,1.84326,-1.96945,0.0154701,0.00105638,0.00762082,0.0187521,-0.0022256,0.406655,0.0133054,0.0105136,1203,414,1.84332,1.96946
-14,610,1.83008,-1.97369,0.0155727,0.000230346,0.00744887,0.0185942,-0.00279112,0.385348,0.0134236,0.0124029,1210,414,1.83009,1.97369
-7,610,1.83899,-1.98331,0.0149005,-0.000698415,0.00750812,0.0179271,-0.00372501,0.383184,0.0133672,0.0138217,1217,414,1.83905,1.98332
0,610,1.86377,-1.98157,0.0132733,-0.00218763,0.00768303,0.0164419,-0.0053562,0.39116,0.0131164,0.0101174,1224,414,1.86372,1.98157
7,610,1.8772,-2.00845,0.0105927,-0.00331528,0.00823343,0.0144159,-0.00713845,0.434722,0.0126786,0.0108494,1231,414,1.87721,2.00846
14,610,1.87134,-2.02591,0.00793494,-0.00506626,0.00900188,0.012538,-0.00966934,0.472683,0.012857,0.0123759,1238,414,1.87132,2.02591
21,610,1.87354,-2.01068,0.00570377,-0.00724442,0.00923386,0.010507,-0.0120476,0.479658,0.0130321,0.0105594,1245,414,1.8735,2.01069
28,610,1.88684,-2.02524,0.00456929,-0.010138,0.00946762,0.00920363,-0.0147724,0.455207,0.0139665,0.0109277,1252,414,1.88682,2.02523
35,610,1.89636,-2.02203,0.00426061,-0.0126074,0.00989476,0.00882809,-0.0171749,0.432463,0.0152685,0.0139466,1259,414,1.89635,2.02204
42,610,1.88196,-2.00955,0.00522707,-0.0150311,0.00986918,0.00924008,-0.0190441,0.386202,0.0166537,0.0137379,1266,414,1.88193,2.00955
49,610,1.86682,-2.02499,0.00661963,-0.0171985,0.00906175,0.00967523,-0.0202541,0.325225,0.0176358,0.0142271,1273,414,1.86684,2.02498
56,610,1.89893,-2.0119,0.00857807,-0.0185618,0.00766296,0.0105922,-0.020576,0.25703,0.0183001,0.0124671,1280,414,1.89896,2.01192
63,610,1.87708,-2.00253,0.0108625,-0.0197221,0.00599331,0.011995,-0.0208546,0.186759,0.0191943,0.0153396,1287,414,1.87706,2.00254
70,610,1.87854,-1.99762,0.0129989,-0.019812,0.00375687,0.0134235,-0.0202367,0.11256,0.019566,0.0219988,1294,414,1.8786,1.99761
77,610,1.90088,-2.00998,0.0148711,-0.0191442,0.00136607,0.0149259,-0.0191989,0.0400744,0.0197534,0.0270823,1301,414,1.90092,2.00999
84,610,1.92273,-2.01825,0.016045,-0.0175636,-0.00113455,0.0160832,-0.0176018,-0.0337066,0.0194547,0.0289636,1308,414,1.92271,2.01824
91,610,1.95752,-2.02826,0.016463,-0.0148841,-0.00374623,0.0169045,-0.0153255,-0.117307,0.0186155,0.0247547,1315,414,1.95751,2.02826
98,610,1.95776,-2.03293,0.015993,-0.0115059,-0.00635744,0.0173917,-0.0129045,-0.216549,0.0175554,0.0238633,1322,414,1.95781,2.03292
105,610,1.94751,-2.01965,0.014723,-0.00789871,-0.00823962,0.0174059,-0.0105817,-0.31479,0.016318,0.0184228,1329,414,1.94753,2.01965
112,610,1.92847,-2.0209,0.0130065,-0.0043445,-0.00962677,0.0172901,-0.00862814,-0.418664,0.0152399,0.0114223,1336,414,1.92852,2.02089
119,610,1.87561,-1.99893,0.0109641,-0.00075134,-0.0106187,0.0172336,-0.00702082,-0.533346,0.0144111,0.0171357,1343,414,1.87557,1.99895
126,610,1.90332,-1.98041,0.0082604,0.00224794,-0.0110414,0.0166975,-0.00618918,-0.652486,0.01367,0.0239825,1350,414,1.90326,1.98041
133,610,1.94263,-1.9855,0.00524808,0.00485976,-0.0109809,0.0160365,-0.0059287,-0.776558,0.0131216,0.0179354,1357,414,1.94266,1.98549
140,610,1.92102,-1.99887,0.00237647,0.00622046,-0.0109624,0.0154281,-0.00683113,-0.872179,0.013167,0.013729,1364,414,1.92104,1.99888
147,610,1.93835,-1.98587,-0.000530532,0.00669579,-0.0106544,0.014333,-0.00816773,-0.948875,0.0131523,0.014778,1371,414,1.93835,1.98588
154,610,1.94946,-1.97568,-0.00299882,0.00586463,-0.0103847,0.0127237,-0.00985786,-0.987077,0.0130724,0.0203505,1378,414,1.94946,1.97566
161,610,1.95654,-1.96484,-0.00513122,0.00490961,-0.00998354,0.011064,-0.0112856,-1.01837,0.0129037,0.0252992,1385,414,1.95652,1.96483
168,610,1.97424,-1.96313,-0.00675324,0.00406015,-0.00980565,0.00985091,-0.012544,-1.03735,0.0129608,0.025165,1392,414,1.97419,1.96315
175,610,1.98608,-1.95364,-0.00808108,0.00308193,-0.00945548,0.00848037,-0.0134795,-1.05202,0.0127876,0.0195174,1399,414,1.98603,1.95365
182,610,1.98303,-1.93359,-0.00921661,0.00226358,-0.00909492,0.00727831,-0.0142313,-1.0669,0.012633,0.0139078,1406,414,1.98305,1.93359
189,610,1.95728,-1.90872,-0.0100095,0.00132885,-0.00884153,0.00616262,-0.0148433,-1.07048,0.0124682,0.0136197,1413,414,1.95723,1.90874
196,610,1.96509,-1.88895,-0.0104325,0.000521279,-0.00856427,0.00521018,-0.0151214,-1.06988,0.0121945,0.0136449,1420,414,1.96512,1.88896
203,610,1.97559,-1.86298,-0.0104041,0.000105771,-0.00793446,0.00436767,-0.014666,-1.07788,0.0115128,0.0143077,1427,414,1.9756,1.86296
210,610,1.96545,-1.85233,-0.00958374,0.000613723,-0.00747586,0.00456406,-0.0135341,-1.08468,0.0108683,0.0107712,1434,414,1.96542,1.85234
217,610,1.95679,-1.81607,-0.00877483,0.00125436,-0.00669693,0.00460607,-0.0121265,-1.10676,0.00998052,0.0162616,1441,414,1.95683,1.81608
224,610,1.9668,-1.79776,-0.0076994,0.00177263,-0.00577464,0.00450497,-0.0104317,-1.12885,0.00884711,0.0196053,1448,414,1.96678,1.79774
231,610,1.97644,-1.82782,-0.00632545,0.00209546,-0.00463298,0.00414539,-0.00837538,-1.15423,0.0073651,0.0149925,1455,414,1.97644,1.82781
238,610,1.96277,-1.81064,-0.00483211,0.00234695,-0.00369771,0.00391084,-0.006396,-1.17068,0.00600804,0.0106703,1462,414,1.96273,1.81065
245,610,1.9657,-1.79172,-0.00346711,0.00244618,-0.00291992,0.00364497,-0.00466591,-1.18122,0.00481034,0.0125892,1469,414,1.96572,1.79171
252,610,1.96704,-1.76489,-0.00210044,0.00239667,-0.00214491,0.00325563,-0.00295939,-1.18989,0.0035896,0.0143796,1476,414,1.96708,1.76489
259,610,1.98425,-1.73083,-0.000783681,0.00252073,-0.00136781,0.00301344,-0.00127639,-1.22504,0.00254352,0.0119865,1483,414,1.98422,1.73085
266,610,1.97034,-1.69159,-2.45588e-05,0.00227808,-0.000861939,0.00256498,-0.000311459,-1.24948,0.0018227,0.011963,1490,414,1.97036,1.69159
273,610,1.97351,-1.67465,0.000192617,0.00198622,-0.000467526,0.00210077,7.80665e-05,-1.33052,0.00137523,0.0106214,1497,414,1.97347,1.67466
280,610,1.96558,-1.64899,0.000472464,0.00158497,3.7822e-05,0.00158625,0.00047118,1.53685,0.000940637,0.0102879,1504,414,1.96562,1.64899
287,610,1.94934,-1.61951,0.000419192,0.000627943,0.000654493,0.00118633,-0.000139196,0.86447,0.000841134,0.0121421,1511,414,1.94938,1.61949
294,610,1.96643,-1.59268,-0.000133629,-0.000688143,0.00138651,0.00100307,-0.00182484,0.686716,0.00165551,0.0108486,1518,414,1.96641,1.59268
301,610,1.98596,-1.59555,-0.00102949,-0.00273689,0.00209424,0.000378371,-0.00414475,0.59186,0.00289754,0.0105182,1525,414,1.98598,1.59555
308,610,2.00195,-1.57162,-0.00216922,-0.00520316,0.00277385,-0.000524633,-0.00684774,0.535175,0.00440072,0.012314,1532,414,2.00193,1.57162
315,610,1.99353,-1.5285,-0.00362247,-0.00852609,0.00357312,-0.00174086,-0.0104077,0.484702,0.00643713,0.0132379,1539,414,1.99358,1.5285
322,610,1.97339,-1.49048,-0.00532839,-0.0120095,0.0043494,-0.00318474,-0.0141532,0.45792,0.00857337,0.012684,1546,414,1.97333,1.49048
329,610,1.95825,-1.46133,-0.00724587,-0.0160156,0.00544479,-0.00463983,-0.0186216,0.446406,0.0111931,0.0107037,1553,414,1.95827,1.46135
336,610,1.95886,-1.4335,-0.00937292,-0.0202419,0.00630517,-0.00648341,-0.0231314,0.429715,0.013778,0.00922055,1560,414,1.95892,1.4335
343,610,1.94873,-1.40039,-0.0118386,-0.0244698,0.00723655,-0.00854931,-0.0277591,0.426626,0.0164159,0.0132381,1567,414,1.9487,1.40038
350,610,1.90894,-1.38205,-0.014244,-0.0284152,0.00800937,-0.0106359,-0.0320233,0.42326,0.0188328,0.0179926,1574,414,1.90899,1.38204
357,610,1.93396,-1.34531,-0.0163754,-0.0320879,0.00880828,-0.0124288,-0.0360345,0.421233,0.0211355,0.0234718,1581,414,1.934,1.3453
364,610,1.93396,-1.32462,-0.0179598,-0.0351336,0.00965558,-0.0136252,-0.0394682,0.421957,0.023148,0.025001,1588,414,1.93399,1.32463
371,610,1.85632,-1.41547,-0.0182534,-0.0366685,0.0101707,-0.0137416,-0.0411803,0.417531,0.0242099,0.0386408,1595,414,1.85632,1.41546
378,610,1.78137,-1.51517,-0.0187336,-0.0377491,0.0109677,-0.0137263,-0.0427565,0.42829,0.0252071,0.0437028,1602,414,1.78136,1.51518
385,610,2,-1.49899,0,0,0,0,0,0,0,-1,1609,414,1.99994,1.49898
392,610,1.96448,-1.45862,-0.0172166,-0.0361113,0.0113757,-0.0118769,-0.041451,0.438871,0.0246481,0.0426332,1616,414,1.96447,1.45861
399,610,1.63354,-1.33398,-0.0143645,-0.0338161,0.010866,-0.00950742,-0.0386732,0.420356,0.0232697,0.0463337,1623,414,1.6336,1.33398
406,610,1.2644,-1.25546,0,0,0,0,0,0,0,-1,1630,414,1.26437,1.25546
413,610,0.88501,-1.25131,0,0,0,0,0,0,0,-1,1637,414,0.884986,1.25133
420,610,1.51904,-0.806915,0,0,0,0,0,0,0,-1,1644,414,1.5191,0.806914
427,610,1.92114,-0.508759,0,0,0,0,0,0,0,-1,1651,414,1.9212,0.508756
434,610,2.19873,-0.449371,0,0,0,0,0,0,0,-1,1658,414,2.19876,0.449373
441,610,0,0,0,0,0,0,0,0,0,-1,1665,414,0,0
448,610,0,0,0,0,0,0,0,0,0,-1,1672,414,0,0
455,610,0,0,0,0,0,0,0,0,0,-1,1679,414,0,0
462,610,0,0,0,0,0,0,0,0,0,-1,1686,414,0,0
469,610,0,0,0,0,0,0,0,0,0,-1,1693,414,0,0
476,610,0,0,0,0,0,0,0,0,0,-1,1700,414,0,0
483,610,0,0,0,0,0,0,0,0,0,-1,1707,414,0,0
490,610,0,0,0,0,0,0,0,0,0,-1,1714,414,0,0
497,610,0,0,0,0,0,0,0,0,0,-1,1721,414,0,0
504,610,0,0,0,0,0,0,0,0,0,-1,1728,414,0,0
511,610,0,0,0,0,0,0,0,0,0,-1,1735,414,0,0
518,610,0,0,0,0,0,0,0,0,0,-1,1742,414,0,0
525,610,0,0,0,0,0,0,0,0,0,-1,1749,414,0,0
532,610,0,0,0,0,0,0,0,0,0,-1,1756,414,0,0
539,610,0,0,0,0,0,0,0,0,0,-1,1763,414,0,0
546,610,0,0,0,0,0,0,0,0,0,-1,1770,414,0,0
553,610,0,0,0,0,0,0,0,0,0,-1,1777,414,0,0
560,610,0,0,0,0,0,0,0,0,0,-1,1784,414,0,0
567,610,0,0,0,0,0,0,0,0,0,-1,1791,414,0,0
574,610,0,0,0,0,0,0,0,0,0,-1,1798,414,0,0
581,610,0,0,0,0,0,0,0,0,0,-1,1805,414,0,0
588,610,0,0,0,0,0,0,0,0,0,-1,1812,414,0,0
595,610,0,0,0,0,0,0,0,0,0,-1,1819,414,0,0
602,610,0,0,0,0,0,0,0,0,0,-1,1826,414,0,0
609,610,0,0,0,0,0,0,0,0,0,-1,1833,414,0,0
616,610,0,0,0,0,0,0,0,0,0,-1,1840,414,0,0
623,610,0,0,0,0,0,0,0,0,0,-1,1847,414,0,0
630,610,0,0,0,0,0,0,0,0,0,-1,1854,414,0,0
637,610,0,0,0,0,0,0,0,0,0,-1,1861,414,0,0
644,610,0,0,0,0,0,0,0,0,0,-1,1868,414,0,0
651,610,0,0,0,0,0,0,0,0,0,-1,1875,414,0,0
658,610,0,0,0,0,0,0,0,0,0,-1,1882,414,0,0
665,610,0,0,0,0,0,0,0,0,0,-1,1889,414,0,0
672,610,0,0,0,0,0,0,0,0,0,-1,1896,414,0,0
679,610,0,0,0,0,0,0,0,0,0,-1,1903,414,0,0
686,610,0,0,0,0,0,0,0,0,0,-1,1910,414,0,0
693,610,0,0,0,0,0,0,0,0,0,-1,1917,414,0,0
700,610,0,0,0,0,0,0,0,0,0,-1,1924,414,0,0
707,610,0,0,0,0,0,0,0,0,0,-1,1931,414,0,0
714,610,0,0,0,0,0,0,0,0,0,-1,1938,414,0,0
721,610,0,0,0,0,0,0,0,0,0,-1,1945,414,0,0
728,610,0,0,0,0,0,0,0,0,0,-1,1952,414,0,0
735,610,0,0,0,0,0,0,0,0,0,-1,1959,414,0,0
742,610,0,0,0,0,0,0,0,0,0,-1,1966,414,0,0
749,610,0,0,0,0,0,0,0,0,0,-1,1973,414,0,0
756,610,0,0,0,0,0,0,0,0,0,-1,1980,414,0,0
763,610,0,0,0,0,0,0,0,0,0,-1,1987,414,0,0
770,610,0,0,0,0,0,0,0,0,0,-1,1994,414,0,0
777,610,0,0,0,0,0,0,0,0,0,-1,2001,414,0,0
784,610,0,0,0,0,0,0,0,0,0,-1,2008,414,0,0
791,610,0,0,0,0,0,0,0,0,0,-1,2015,414,0,0
798,610,0,0,0,0,0,0,0,0,0,-1,2022,414,0,0
805,610,0,0,0,0,0,0,0,0,0,-1,2029,414,0,0
812,610,0,0,0,0,0,0,0,0,0,-1,2036,414,0,0
-700,603,0,0,0,0,0,0,0,0,0,-1,524,421,0,0
-693,603,0,0,0,0,0,0,0,0,0,-1,531,421,0,0
-686,603,0,0,0,0,0,0,0,0,0,-1,538,421,0,0
-679,603,0,0,0,0,0,0,0,0,0,-1,545,421,0,0
-672,603,0,0,0,0,0,0,0,0,0,-1,552,421,0,0
-665,603,0,0,0,0,0,0,0,0,0,-1,559,421,0,0
-658,603,0,0,0,0,0,0,0,0,0,-1,566,421,0,0
-651,603,0,0,0,0,0,0,0,0,0,-1,573,421,0,0
-644,603,0,0,0,0,0,0,0,0,0,-1,580,421,0,0
-637,603,0,0,0,0,0,0,0,0,0,-1,587,421,0,0
-630,603,0,0,0,0,0,0,0,0,0,-1,594,421,0,0
-623,603,0,0,0,0,0,0,0,0,0,-1,601,421,0,0
-616,603,0,0,0,0,0,0,0,0,0,-1,608,421,0,0
-609,603,0,0,0,0,0,0,0,0,0,-1,615,421,0,0
-602,603,0,0,0,0,0,0,0,0,0,-1,622,421,0,0
-595,603,0,0,0,0,0,0,0,0,0,-1,629,421,0,0
-588,603,0,0,0,0,0,0,0,0,0,-1,636,421,0,0
-581,603,0,0,0,0,0,0,0,0,0,-1,643,421,0,0
-574,603,0,0,0,0,0,0,0,0,0,-1,650,421,0,0
-567,603,0,0,0,0,0,0,0,0,0,-1,657,421,0,0
-560,603,0,0,0,0,0,0,0,0,0,-1,664,421,0,0
-553,603,0,0,0,0,0,0,0,0,0,-1,671,421,0,0
-546,603,0,0,0,0,0,0,0,0,0,-1,678,421,0,0
-539,603,0,0,0,0,0,0,0,0,0,-1,685,421,0,0
-532,603,0,0,0,0,0,0,0,0,0,-1,692,421,0,0
-525,603,0,0,0,0,0,0,0,0,0,-1,699,421,0,0
-518,603,0,0,0,0,0,0,0,0,0,-1,706,421,0,0
-511,603,0,0,0,0,0,0,0,0,0,-1,713,421,0,0
-504,603,0,0,0,0,0,0,0,0,0,-1,720,421,0,0
-497,603,0,0,0,0,0,0,0,0,0,-1,727,421,0,0
-490,603,0,0,0,0,0,0,0,0,0,-1,734,421,0,0
-483,603,0,0,0,0,0,0,0,0,0,-1,741,421,0,0
-476,603,0,0,0,0,0,0,0,0,0,-1,748,421,0,0
-469,603,0,0,0,0,0,0,0,0,0,-1,755,421,0,0
-462,603,0,0,0,0,0,0,0,0,0,-1,762,421,0,0
-455,603,0,0,0,0,0,0,0,0,0,-1,769,421,0,0
-448,603,0,0,0,0,0,0,0,0,0,-1,776,421,0,0
-441,603,0,0,0,0,0,0,0,0,0,-1,783,421,0,0
-434,603,0,0,0,0,0,0,0,0,0,-1,790,421,0,0
-427,603,0,0,0,0,0,0,0,0,0,-1,797,421,0,0
-420,603,0,0,0,0,0,0,0,0,0,-1,804,421,0,0
-413,603,0,0,0,0,0,0,0,0,0,-1,811,421,0,0
-406,603,0,0,0,0,0,0,0,0,0,-1,818,421,0,0
-399,603,0,0,0,0,0,0,0,0,0,-1,825,421,0,0
-392,603,0,0,0,0,0,0,0,0,0,-1,832,421,0,0
-385,603,0,0,0,0,0,0,0,0,0,-1,839,421,0,0
-378,603,0,0,0,0,0,0,0,0,0,-1,846,421,0,0
-371,603,0,0,0,0,0,0,0,0,0,-1,853,421,0,0
-364,603,0,0,0,0,0,0,0,0,0,-1,860,421,0,0
-357,603,0,0,0,0,0,0,0,0,0,-1,867,421,0,0
-350,603,0,0,0,0,0,0,0,0,0,-1,874,421,0,0
-343,603,0,0,0,0,0,0,0,0,0,-1,881,421,0,0
-336,603,0,0,0,0,0,0,0,0,0,-1,888,421,0,0
-329,603,2.9483,-1.01093,0,0,0,0,0,0,0,-1,895,421,2.9483,1.01091
-322,603,2.64722,-1.16074,-0.0467151,0.0277223,0.000296737,0.0277235,-0.0467163,1.56681,0.0434416,0.0461233,902,421,2.64721,1.16074
-315,603,2.31586,-1.28928,-0.0363041,0.0177867,0.00368066,0.018036,-0.0365534,1.50317,0.0321159,0.0457772,909,421,2.31588,1.28928
-308,603,1.87152,-1.39697,-0.0263153,0.00959875,0.00761799,0.0111478,-0.0278644,1.37019,0.0232027,0.0458529,916,421,1.87154,1.39696
-301,603,1.42438,-1.52734,-0.0160815,0.00377579,0.0116639,0.00916464,-0.0214704,1.138,0.0181565,0.0486679,923,421,1.42439,1.52735
-294,603,0.899841,-1.73718,0,0,0,0,0,0,0,-1,930,421,0.899837,1.73719
-287,603,0.131531,0.826904,0,0,0,0,0,0,0,-1,937,421,0.131509,-0.826917
-280,603,0.497192,-0.0654907,0,0,0,0,0,0,0,-1,944,421,0.497193,0.0655046
-273,603,1.65875,-1.18912,0,0,0,0,0,0,0,-1,951,421,1.65878,1.18911
-266,603,1.43353,-0.693542,0.00933554,-0.000660012,0.0208162,0.0257455,-0.01707,0.667583,0.0248881,0.0423061,958,421,1.43355,0.69354
-259,603,1.80438,-0.763031,0.0104782,0.000541555,0.0204171,0.0265227,-0.015503,0.666048,0.0245401,0.0411164,965,421,1.80439,0.763042
-252,603,1.22253,-1.08997,0,0,0,0,0,0,0,-1,972,421,1.22254,1.08996
-245,603,1.79016,-1.27081,0.00879761,0.00252967,0.0166846,0.02264,-0.0113127,0.692562,0.0199629,0.026316,979,421,1.79018,1.27082
-238,603,1.86157,-1.29034,0.00677833,0.00322434,0.0139026,0.019017,-0.00901436,0.721834,0.0165238,0.0160038,986,421,1.86157,1.29035
-231,603,1.80798,-1.33167,0.00464843,0.00342608,0.0109909,0.0150452,-0.00697065,0.757623,0.0129927,0.0110451,993,421,1.80799,1.33165
-224,603,1.78925,-1.37802,0.00246965,0.00354496,0.00805235,0.0110776,-0.00506297,0.818734,0.00953198,0.0118384,1000,421,1.78923,1.37802
-217,603,1.81061,-1.40256,0.000780607,0.00335281,0.00511127,0.0073373,-0.00320388,0.90865,0.00623996,0.0113064,1007,421,1.8106,1.40257
-210,603,1.81781,-1.41757,-0.000138903,0.00286353,0.00285455,0.00458754,-0.00186292,1.02748,0.00383332,0.00921747,1014,421,1.81783,1.41757
-203,603,1.81519,-1.44073,-0.000457582,0.00260861,0.000928017,0.00286761,-0.000716579,1.29863,0.00219003,0.0147322,1021,421,1.81518,1.44074
-196,603,1.84119,-1.50476,-0.00113574,0.00237219,-0.000509437,0.00244467,-0.00120823,-1.42946,0.0021489,0.0166246,1028,421,1.84123,1.50477
-189,603,1.83203,-1.52777,-0.00179671,0.00169546,-0.00142985,0.00220621,-0.00230746,-1.22772,0.00260619,0.0130572,1035,421,1.83206,1.52778
-182,603,1.79614,-1.55704,-0.00161015,0.00125978,-0.00148091,0.00188691,-0.00223727,-1.17022,0.00238396,0.00937937,1042,421,1.79615,1.55705
-175,603,1.79431,-1.58878,-0.000778796,0.000559246,-0.00108631,0.00116602,-0.00138557,-1.0614,0.00147498,0.0102604,1049,421,1.79434,1.58879
-168,603,1.79553,-1.61649,-0.000358051,8.5563e-05,-0.00058096,0.000485618,-0.000758106,-0.967755,0.000723786,0.0131035,1056,421,1.79549,1.61648
-161,603,1.79749,-1.65781,6.75159e-05,-0.000329847,-0.000153177,0.000119708,-0.000382039,-0.328393,0.000302594,0.0126266,1063,421,1.7975,1.6578
-154,603,1.79443,-1.67453,0.000536143,-0.000776823,0.000209783,0.000568847,-0.000809527,0.15465,0.000799838,0.011565,1070,421,1.79449,1.67453
-147,603,1.79602,-1.6713,0.000973096,-0.00117528,0.000573264,0.00111649,-0.00131868,0.24511,0.00140756,0.0122542,1077,421,1.79601,1.67129
-140,603,1.79333,-1.67935,0.00139694,-0.00159079,0.000845764,0.00161974,-0.00181359,0.257582,0.00198329,0.0108442,1084,421,1.79334,1.67937
-133,603,1.79395,-1.71524,0.00164277,-0.00198893,0.000809773,0.00181514,-0.00216131,0.209739,0.0022987,0.0112936,1091,421,1.79393,1.71525
-126,603,1.78821,-1.73502,0.00171078,-0.00226645,0.000750747,0.00184777,-0.00240344,0.18049,0.00246142,0.00989798,1098,421,1.7882,1.73502
-119,603,1.80444,-1.73969,0.00161933,-0.0024007,0.000825106,0.0017821,-0.00256346,0.194761,0.00252239,0.00993585,1105,421,1.80441,1.73969
-112,603,1.79797,-1.75708,0.00113893,-0.00224637,0.00111904,0.0014754,-0.00258284,0.292076,0.00237193,0.0145463,1112,421,1.79794,1.75707
-105,603,1.80176,-1.80942,0.00027537,-0.00164067,0.00159323,0.00117643,-0.00254173,0.514708,0.00219439,0.0141185,1119,421,1.80176,1.80942
-98,603,1.80115,-1.81192,-0.000698544,-0.00115223,0.00196121,0.0010489,-0.00289967,0.727821,0.00236171,0.0102428,1126,421,1.80114,1.81193
-91,603,1.8092,-1.82092,-0.00186767,-0.000517733,0.00251689,0.00141312,-0.00379852,0.916404,0.00311223,0.00788858,1133,421,1.80925,1.82094
-84,603,1.83301,-1.8623,-0.00194934,0.000700637,0.00396111,0.00355248,-0.00480119,0.946798,0.00484092,0.00841131,1140,421,1.83306,1.86229
-77,603,1.83313,-1.88815,-0.00166057,0.0015554,0.00539682,0.00557869,-0.00568386,0.930186,0.00650253,0.00838564,1147,421,1.83318,1.88816
-70,603,1.83777,-1.91049,0.000797706,0.00224033,0.00658086,0.00813929,-0.00510125,0.839984,0.00771121,0.0103401,1154,421,1.83772,1.91051
-63,603,1.83875,-1.91721,0.00406149,0.00277793,0.00741859,0.010866,-0.00402659,0.742251,0.00889535,0.0118332,1161,421,1.83875,1.91721
-56,603,1.81458,-1.97098,0.00796875,0.0036843,0.00844391,0.0145379,-0.00288489,0.661169,0.010783,0.0143923,1168,421,1.81458,1.97097
-49,603,2.13123,-2.02649,0,0,0,0,0,0,0,-1,1175,421,2.13121,2.0265
-42,603,2.22754,-1.98062,0,0,0,0,0,0,0,-1,1182,421,2.22752,1.98062
-35,603,1.80237,-1.9447,0.0175577,0.00270332,0.00949279,0.0221835,-0.00192256,0.453439,0.0154698,0.0221243,1189,421,1.80242,1.94471
-28,603,1.7749,-1.9632,0.01929,0.00187278,0.00957053,0.023521,-0.00235828,0.416259,0.016523,0.0175475,1196,421,1.77493,1.96321
-21,603,1.81873,-1.9722,0.0206322,0.00100228,0.00933915,0.0243654,-0.00273094,0.380282,0.0172262,0.0183994,1203,421,1.81876,1.97221
-14,603,1.86584,-1.97891,0.0206639,-0.000172513,0.00922434,0.0241607,-0.00366931,0.362346,0.0174593,0.0210847,1210,421,1.86587,1.97893
-7,603,1.88562,-1.98315,0.0199675,-0.00184238,0.00912796,0.0232836,-0.00515846,0.348463,0.0174972,0.0228408,1217,421,1.88565,1.98314
0,603,1.90515,-1.99509,0.0180103,-0.00407745,0.00931766,0.0214159,-0.007483,0.350411,0.0173191,0.0247399,1224,421,1.90516,1.99509
7,603,1.89832,-1.98019,0.0147864,-0.0058343,0.0100348,0.0188636,-0.00991148,0.385928,0.0168792,0.029846,1231,421,1.89835,1.9802
14,603,1.85559,-1.96167,0.0116615,-0.00840621,0.0110805,0.016576,-0.0133208,0.417464,0.017295,0.0251687,1238,421,1.85556,1.96167
21,603,1.87952,-1.97031,0.00911692,-0.0115462,0.0115427,0.0142765,-0.0167058,0.420355,0.017906,0.0182842,1245,421,1.87949,1.97031
28,603,1.91223,-1.96057,0.00791074,-0.0154482,0.0119473,0.012939,-0.0204765,0.398366,0.0194553,0.0216999,1252,421,1.91219,1.96058
35,603,1.8645,-1.9458,0.00761176,-0.0188508,0.0125882,0.0126433,-0.0238823,0.380248,0.0214182,0.0292468,1259,421,1.86454,1.94581
42,603,1.88647,-1.97684,0.00877262,-0.0221373,0.0127063,0.0133253,-0.02669,0.344052,0.0235284,0.026731,1266,421,1.88648,1.97683
49,603,1.90308,-1.98724,0.0104529,-0.0250211,0.0118915,0.0140703,-0.0286385,0.295303,0.0251316,0.0155225,1273,421,1.90305,1.98725
56,603,1.89441,-1.95547,0.0128237,-0.0267411,0.0102856,0.0153378,-0.0292553,0.239735,0.0261605,0.0264194,1280,421,1.89442,1.95547
63,603,1.89404,-1.91428,0.0154213,-0.0279353,0.00829795,0.0169552,-0.0294692,0.182785,0.0271258,0.0365962,1287,421,1.89401,1.91428
70,603,1.65613,-1.85837,0.0177741,-0.027659,0.00557729,0.0184487,-0.0283336,0.120377,0.0272101,0.0433761,1294,421,1.65616,1.85836
77,603,1.59509,-2.08047,0.0197122,-0.0264037,0.00266982,0.0198663,-0.0265578,0.057637,0.0268956,0.0436231,1301,421,1.59503,2.08046
84,603,1.547,-2.12134,0.0206587,-0.0238255,-0.000379936,0.0206619,-0.0238288,-0.00854009,0.0257084,0.043223,1308,421,1.54696,2.12135
91,603,1.96155,-1.94888,0.0203197,-0.0197356,-0.00363096,0.0206462,-0.020062,-0.0896746,0.0235037,0.0444785,1315,421,1.9616,1.94889
98,603,1.89807,-2.01007,0.0189231,-0.0146566,-0.00673162,0.0202223,-0.0159558,-0.190656,0.0209358,0.044885,1322,421,1.89804,2.01008
105,603,1.9386,-1.97556,0.0166633,-0.00937354,-0.00902154,0.0194837,-0.0121939,-0.303,0.0184498,0.0396271,1329,421,1.9386,1.97556
112,603,2.03174,-2.03262,0.0138476,-0.00425731,-0.0106991,0.0188101,-0.00921976,-0.434287,0.0164957,0.030633,1336,421,2.03172,2.03262
119,603,1.99597,-2.03207,0.0106061,0.000852327,-0.0119147,0.0186034,-0.00714494,-0.591141,0.0153487,0.0333571,1343,421,1.99602,2.03209
126,603,1.9917,-1.97696,0.00663483,0.00508101,-0.0124338,0.018316,-0.00660016,-0.754197,0.014906,0.0394937,1350,421,1.99167,1.97696
133,603,2.03015,-1.96716,0.00238981,0.00857456,-0.0123286,0.0181927,-0.0072283,-0.908278,0.015125,0.032001,1357,421,2.03019,1.96717
140,603,1.95605,-1.96915,-0.0014469,0.0105636,-0.0123751,0.0183136,-0.00919685,-1.0113,0.0161712,0.0204094,1364,421,1.95607,1.96913
147,603,1.92505,-1.94595,-0.00508864,0.0110847,-0.0120945,0.017547,-0.0115509,-1.08008,0.0169181,0.0164406,1371,421,1.92503,1.94596
154,603,1.9342,-1.95074,-0.00832041,0.00973971,-0.0121211,0.0158246,-0.0144053,-1.10554,0.0174597,0.0255144,1378,421,1.93419,1.95074
161,603,1.96887,-1.96048,-0.0110884,0.00825433,-0.0119949,0.0139912,-0.0168252,-1.12468,0.0178169,0.02894,1385,421,1.9689,1.96049
168,603,1.98657,-1.96283,-0.0128191,0.00668267,-0.0122891,0.0126194,-0.0187558,-1.12077,0.0182296,0.0258527,1392,421,1.98654,1.96283
175,603,2.01501,-1.92825,-0.0141103,0.00513732,-0.0122381,0.0110823,-0.0200553,-1.11859,0.0182244,0.0213824,1399,421,2.01507,1.92826
182,603,2.03064,-1.92291,-0.0151138,0.0039091,-0.012133,0.00981444,-0.0210192,-1.11783,0.0181894,0.0185505,1406,421,2.03066,1.92291
189,603,2.00146,-1.90103,-0.0157124,0.00236418,-0.0121936,0.00850397,-0.0218522,-1.10433,0.0180821,0.0145355,1413,421,2.00145,1.90104
196,603,1.98755,-1.87302,-0.0158923,0.000825505,-0.0121925,0.0072493,-0.0223161,-1.08589,0.0177931,0.0125608,1420,421,1.98757,1.87303
203,603,1.98853,-1.85696,-0.0156739,1.39285e-05,-0.0114658,0.00606214,-0.0217221,-1.08539,0.0168692,0.00873358,1427,421,1.98856,1.85695
210,603,1.97375,-1.85608,-0.0143024,0.000360723,-0.0109561,0.00621202,-0.0201537,-1.08027,0.0159159,0.00932941,1434,421,1.97377,1.85607
217,603,1.974,-1.84027,-0.0130376,0.000954549,-0.00989273,0.00607503,-0.0181581,-1.09317,0.0145592,0.0125219,1441,421,1.974,1.84027
224,603,1.98071,-1.82581,-0.0114631,0.00137167,-0.00866128,0.00573393,-0.0158253,-1.10423,0.0128938,0.0165382,1448,421,1.98075,1.82579
231,603,1.98083,-1.82144,-0.00955593,0.00145978,-0.00718804,0.00500755,-0.0131037,-1.11231,0.0107992,0.0143766,1455,421,1.98087,1.82145
238,603,1.98083,-1.80441,-0.00752324,0.00150801,-0.00598462,0.00448949,-0.0105047,-1.1086,0.00888608,0.0103355,1462,421,1.98086,1.80442
245,603,1.99341,-1.79071,-0.00544679,0.00139973,-0.00495534,0.00399927,-0.00804633,-1.08767,0.00708416,0.011318,1469,421,1.99346,1.79072
252,603,1.99573,-1.76563,-0.0035302,0.00121373,-0.00408005,0.00356119,-0.00587767,-1.0487,0.00550396,0.0101748,1476,421,1.99578,1.76562
259,603,1.9928,-1.72839,-0.00172367,0.00137366,-0.0031904,0.0033714,-0.00372141,-1.01135,0.0040967,0.00979576,1483,421,1.99274,1.7284
266,603,1.97864,-1.6972,-0.000561968,0.00104928,-0.00259816,0.00296385,-0.00247654,-0.935735,0.0031452,0.0110074,1490,421,1.97863,1.69721
273,603,1.98877,-1.68204,-0.000158275,0.000783384,-0.00210539,0.00246995,-0.00184484,-0.895403,0.00249985,0.0107645,1497,421,1.98874,1.68205
280,603,1.98962,-1.65533,0.000249824,0.000430115,-0.0015488,0.00189139,-0.00121145,-0.814467,0.00180571,0.012029,1504,421,1.98962,1.65534
287,603,1.98596,-1.6127,0.000368901,-0.000175653,-0.000991466,0.0011248,-0.000931549,-0.651391,0.00118898,0.0108089,1511,421,1.98595,1.61271
294,603,1.98694,-1.59967,5.98465e-05,-0.000840585,-0.000323522,0.000164032,-0.00094477,-0.311548,0.000691044,0.00979449,1518,421,1.98698,1.59966
301,603,2.00159,-1.59439,-0.000521361,-0.00200156,0.000378549,-0.000430169,-0.00209275,0.236396,0.00127618,0.0118321,1525,421,2.00154,1.5944
308,603,2.01697,-1.56784,-0.00130884,-0.00346434,0.00106603,-0.000870684,-0.0039025,0.389966,0.00236547,0.0167884,1532,421,2.01693,1.56785
315,603,2.01929,-1.54599,-0.00230785,-0.005593,0.00181592,-0.00150183,-0.00639902,0.417739,0.00386395,0.0146024,1539,421,2.01931,1.54599
322,603,2.00403,-1.49661,-0.00350131,-0.00802053,0.00249314,-0.00239617,-0.00912567,0.417247,0.00546312,0.0144966,1546,421,2.00408,1.49662
329,603,1.98608,-1.45721,-0.00482082,-0.0108694,0.00334781,-0.00333356,-0.0123567,0.418061,0.00738193,0.0107758,1553,421,1.98608,1.45721
336,603,1.97986,-1.43414,-0.00630541,-0.0137888,0.004014,-0.00455962,-0.0155346,0.410247,0.00922031,0.0086363,1560,421,1.97984,1.43413
343,603,1.99023,-1.4162,-0.00812591,-0.0167645,0.00472066,-0.0060467,-0.0188437,0.414884,0.0111097,0.0107055,1567,421,1.9902,1.41621
350,603,1.99622,-1.38245,-0.00991997,-0.0195399,0.00526236,-0.00760055,-0.0218593,0.415141,0.0128142,0.0123974,1574,421,1.99626,1.38244
357,603,1.9917,-1.33054,-0.0113227,-0.0220818,0.0058448,-0.00875865,-0.0246459,0.413414,0.0144263,0.0116312,1581,421,1.99166,1.33055
364,603,1.9801,-1.29327,-0.0122714,-0.0241329,0.00642785,-0.00945625,-0.0269481,0.4128,0.0157874,0.0125229,1588,421,1.98006,1.29326
371,603,1.96326,-1.26852,-0.0122648,-0.025031,0.00667258,-0.00941385,-0.0278819,0.403784,0.0163781,0.0184708,1595,421,1.96328,1.26851
378,603,1.97424,-1.21603,-0.012457,-0.0256065,0.00712115,-0.00933957,-0.0287239,0.412637,0.0169184,0.0286208,1602,421,1.9742,1.21605
385,603,2.12427,-1.07419,0,0,0,0,0,0,0,-1,1609,421,2.12422,1.0742
392,603,1.61621,-1.10184,-0.0107918,-0.0237475,0.00696221,-0.00775991,-0.0267793,0.410711,0.0159101,0.0439895,1616,421,1.61625,1.10183
399,603,1.13196,-0.909424,-0.00822402,-0.0217898,0.00626979,-0.00577014,-0.0242436,0.373055,0.0146236,0.0464232,1623,421,1.13194,0.909434
406,603,2.12524,-0.975494,0,0,0,0,0,0,0,-1,1630,421,2.12524,0.975509
413,603,2.18677,-0.835724,0,0,0,0,0,0,0,-1,1637,421,2.18675,0.835738
420,603,2.27966,-0.712402,0.00577696,-0.00975385,0.00190664,0.00600761,-0.0099845,0.120384,0.00932772,0.0447708,1644,421,2.27963,0.712388
427,603,2.69702,-0.445068,0,0,0,0,0,0,0,-1,1651,421,2.69705,0.445068
434,603,2.97729,-0.343414,0,0,0,0,0,0,0,-1,1658,421,2.97731,0.343418
441,603,3.18213,-0.250946,0,0,0,0,0,0,0,-1,1665,421,3.18212,0.250944
448,603,2.95667,-0.066925,0,0,0,0,0,0,0,-1,1672,421,2.95662,0.0669226
455,603,0,0,0,0,0,0,0,0,0,-1,1679,421,0,0
462,603,0,0,0,0,0,0,0,0,0,-1,1686,421,0,0
469,603,0,0,0,0,0,0,0,0,0,-1,1693,421,0,0
476,603,0,0,0,0,0,0,0,0,0,-1,1700,421,0,0
483,603,0,0,0,0,0,0,0,0,0,-1,1707,421,0,0
490,603,0,0,0,0,0,0,0,0,0,-1,1714,421,0,0
497,603,0,0,0,0,0,0,0,0,0,-1,1721,421,0,0
504,603,0,0,0,0,0,0,0,0,0,-1,1728,421,0,0
511,603,0,0,0,0,0,0,0,0,0,-1,1735,421,0,0
518,603,0,0,0,0,0,0,0,0,0,-1,1742,421,0,0
525,603,0,0,0,0,0,0,0,0,0,-1,1749,421,0,0
532,603,0,0,0,0,0,0,0,0,0,-1,1756,421,0,0
539,603,0,0,0,0,0,0,0,0,0,-1,1763,421,0,0
546,603,0,0,0,0,0,0,0,0,0,-1,1770,421,0,0
553,603,0,0,0,0,0,0,0,0,0,-1,1777,421,0,0
560,603,0,0,0,0,0,0,0,0,0,-1,1784,421,0,0
567,603,0,0,0,0,0,0,0,0,0,-1,1791,421,0,0
574,603,0,0,0,0,0,0,0,0,0,-1,1798,421,0,0
581,603,0,0,0,0,0,0,0,0,0,-1,1805,421,0,0
588,603,0,0,0,0,0,0,0,0,0,-1,1812,421,0,0
595,603,0,0,0,0,0,0,0,0,0,-1,1819,421,0,0
602,603,0,0,0,0,0,0,0,0,0,-1,1826,421,0,0
609,603,0,0,0,0,0,0,0,0,0,-1,1833,421,0,0
616,603,0,0,0,0,0,0,0,0,0,-1,1840,421,0,0
623,603,0,0,0,0,0,0,0,0,0,-1,1847,421,0,0
630,603,0,0,0,0,0,0,0,0,0,-1,1854,421,0,0
637,603,0,0,0,0,0,0,0,0,0,-1,1861,421,0,0
644,603,0,0,0,0,0,0,0,0,0,-1,1868,421,0,0
651,603,0,0,0,0,0,0,0,0,0,-1,1875,421,0,0
658,603,0,0,0,0,0,0,0,0,0,-1,1882,421,0,0
665,603,0,0,0,0,0,0,0,0,0,-1,1889,421,0,0
672,603,0,0,0,0,0,0,0,0,0,-1,1896,421,0,0
679,603,0,0,0,0,0,0,0,0,0,-1,1903,421,0,0
686,603,0,0,0,0,0,0,0,0,0,-1,1910,421,0,0
693,603,0,0,0,0,0,0,0,0,0,-1,1917,421,0,0
700,603,0,0,0,0,0,0,0,0,0,-1,1924,421,0,0
707,603,0,0,0,0,0,0,0,0,0,-1,1931,421,0,0
714,603,0,0,0,0,0,0,0,0,0,-1,1938,421,0,0
721,603,0,0,0,0,0,0,0,0,0,-1,1945,421,0,0
728,603,0,0,0,0,0,0,0,0,0,-1,1952,421,0,0
735,603,0,0,0,0,0,0,0,0,0,-1,1959,421,0,0
742,603,0,0,0,0,0,0,0,0,0,-1,1966,421,0,0
749,603,0,0,0,0,0,0,0,0,0,-1,1973,421,0,0
756,603,0,0,0,0,0,0,0,0,0,-1,1980,421,0,0
763,603,0,0,0,0,0,0,0,0,0,-1,1987,421,0,0
770,603,0,0,0,0,0,0,0,0,0,-1,1994,421,0,0
777,603,0,0,0,0,0,0,0,0,0,-1,2001,421,0,0
784,603,0,0,0,0,0,0,0,0,0,-1,2008,421,0,0
791,603,0,0,0,0,0,0,0,0,0,-1,2015,421,0,0
798,603,0,0,0,0,0,0,0,0,0,-1,2022,421,0,0
805,603,0,0,0,0,0,0,0,0,0,-1,2029,421,0,0
812,603,0,0,0,0,0,0,0,0,0,-1,2036,421,0,0
-700,596,0,0,0,0,0,0,0,0,0,-1,524,428,0,0
-693,596,0,0,0,0,0,0,0,0,0,-1,531,428,0,0
-686,596,0,0,0,0,0,0,0,0,0,-1,538,428,0,0
-679,596,0,0,0,0,0,0,0,0,0,-1,545,428,0,0
-672,596,0,0,0,0,0,0,0,0,0,-1,552,428,0,0
-665,596,0,0,0,0,0,0,0,0,0,-1,559,428,0,0
-658,596,0,0,0,0,0,0,0,0,0,-1,566,428,0,0
-651,596,0,0,0,0,0,0,0,0,0,-1,573,428,0,0
-644,596,0,0,0,0,0,0,0,0,0,-1,580,428,0,0
-637,596,0,0,0,0,0,0,0,0,0,-1,587,428,0,0
-630,596,0,0,0,0,0,0,0,0,0,-1,594,428,0,0
-623,596,0,0,0,0,0,0,0,0,0,-1,601,428,0,0
-616,596,0,0,0,0,0,0,0,0,0,-1,608,428,0,0
-609,596,0,0,0,0,0,0,0,0,0,-1,615,428,0,0
-602,596,0,0,0,0,0,0,0,0,0,-1,622,428,0,0
-595,596,0,0,0,0,0,0,0,0,0,-1,629,428,0,0
-588,596,0,0,0,0,0,0,0,0,0,-1,636,428,0,0
-581,596,0,0,0,0,0,0,0,0,0,-1,643,428,0,0
-574,596,0,0,0,0,0,0,0,0,0,-1,650,428,0,0
-567,596,0,0,0,0,0,0,0,0,0,-1,657,428,0,0
-560,596,0,0,0,0,0,0,0,0,0,-1,664,428,0,0
-553,596,0,0,0,0,0,0,0,0,0,-1,671,428,0,0
-546,596,0,0,0,0,0,0,0,0,0,-1,678,428,0,0
-539,596,0,0,0,0,0,0,0,0,0,-1,685,428,0,0
-532,596,0,0,0,0,0,0,0,0,0,-1,692,428,0,0
-525,596,0,0,0,0,0,0,0,0,0,-1,699,428,0,0
-518,596,0,0,0,0,0,0,0,0,0,-1,706,428,0,0
-511,596,0,0,0,0,0,0,0,0,0,-1,713,428,0,0
-504,596,0,0,0,0,0,0,0,0,0,-1,720,428,0,0
-497,596,0,0,0,0,0,0,0,0,0,-1,727,428,0,0
-490,596,0,0,0,0,0,0,0,0,0,-1,734,428,0,0
-483,596,0,0,0,0,0,0,0,0,0,-1,741,428,0,0
-476,596,0,0,0,0,0,0,0,0,0,-1,748,428,0,0
-469,596,0,0,0,0,0,0,0,0,0,-1,755,428,0,0
-462,596,0,0,0,0,0,0,0,0,0,-1,762,428,0,0
-455,596,0,0,0,0,0,0,0,0,0,-1,769,428,0,0
-448,596,0,0,0,0,0,0,0,0,0,-1,776,428,0,0
-441,596,0,0,0,0,0,0,0,0,0,-1,783,428,0,0
-434,596,0,0,0,0,0,0,0,0,0,-1,790,428,0,0
-427,596,0,0,0,0,0,0,0,0,0,-1,797,428,0,0
-420,596,0,0,0,0,0,0,0,0,0,-1,804,428,0,0
-413,596,0,0,0,0,0,0,0,0,0,-1,811,428,0,0
-406,596,0,0,0,0,0,0,0,0,0,-1,818,428,0,0
-399,596,0,0,0,0,0,0,0,0,0,-1,825,428,0,0
-392,596,0,0,0,0,0,0,0,0,0,-1,832,428,0,0
-385,596,0,0,0,0,0,0,0,0,0,-1,839,428,0,0
-378,596,0,0,0,0,0,0,0,0,0,-1,846,428,0,0
-371,596,0,0,0,0,0,0,0,0,0,-1,853,428,0,0
-364,596,0,0,0,0,0,0,0,0,0,-1,860,428,0,0
-357,596,0,0,0,0,0,0,0,0,0,-1,867,428,0,0
-350,596,0,0,0,0,0,0,0,0,0,-1,874,428,0,0
-343,596,0,0,0,0,0,0,0,0,0,-1,881,428,0,0
-336,596,4.11804,-1.74847,0,0,0,0,0,0,0,-1,888,428,4.11807,1.74847
-329,596,3.5545,-1.59537,-0.0483083,0.0302936,-0.00162085,0.030327,-0.0483417,-1.55019,0.0458146,0.0453707,895,428,3.55452,1.59538
-322,596,2.97534,-1.50644,-0.0399198,0.0218177,0.000961645,0.0218327,-0.0399348,1.55523,0.0361683,0.0472205,902,428,2.97535,1.50645
-315,596,2.55853,-1.49872,-0.0322771,0.0145155,0.00309835,0.0147198,-0.0324814,1.50496,0.0278873,0.0452051,909,428,2.55855,1.49873
-308,596,2.08374,-1.4819,-0.0244492,0.00821079,0.00567071,0.00916737,-0.0254058,1.40368,0.0206817,0.0452286,916,428,2.08375,1.48189
-301,596,1.62561,-1.48978,-0.0163366,0.00367699,0.00838707,0.00672695,-0.0193866,1.22201,0.0156561,0.0453898,923,428,1.62564,1.48978
-294,596,1.33569,-1.50311,-0.00882254,0.000236799,0.0111755,0.00776576,-0.0163515,0.97794,0.0142152,0.0453753,930,428,1.33571,1.5031
-287,596,1.70142,-1.00418,0,0,0,0,0,0,0,-1,937,428,1.70143,1.00418
-280,596,1.77448,-1.15924,0,0,0,0,0,0,0,-1,944,428,1.7745,1.15923
-273,596,1.71094,-1.16971,0.00393552,-0.000908697,0.014689,0.0164008,-0.013374,0.703687,0.0172201,0.0446956,951,428,1.71091,1.1697
-266,596,1.75641,-1.13654,0.00570998,4.38475e-05,0.0147298,0.0178767,-0.0121229,0.690391,0.0174262,0.0393552,958,428,1.75641,1.13653
-259,596,1.84381,-1.08884,0.00706087,0.00104392,0.0144338,0.0187964,-0.0106916,0.682653,0.0172379,0.0319933,965,428,1.84381,1.08883
-252,596,1.80298,-1.24976,0.00731795,0.00190833,0.0133404,0.018225,-0.00899874,0.685378,0.0160157,0.0147269,972,428,1.803,1.24976
-245,596,1.79822,-1.28018,0.00638088,0.00255947,0.0117837,0.0164078,-0.00746745,0.705024,0.0141028,0.0104137,979,428,1.79823,1.28018
-238,596,1.78851,-1.30017,0.00495274,0.00302669,0.00978719,0.0138242,-0.00584474,0.736358,0.0116632,0.010173,986,428,1.78854,1.30017
-231,596,1.76807,-1.33807,0.00339287,0.00301435,0.00768005,0.010886,-0.00447877,0.773079,0.00912433,0.0127857,993,428,1.76807,1.33806
-224,596,1.77899,-1.38022,0.00185012,0.00290581,0.00558659,0.00798943,-0.00323351,0.832501,0.00667068,0.0132998,1000,428,1.77902,1.38022
-217,596,1.78571,-1.42395,0.000690581,0.0025604,0.00353003,0.00527723,-0.00202625,0.914849,0.00435369,0.0139381,1007,428,1.78573,1.42395
-210,596,1.79163,-1.43713,6.66588e-05,0.00197789,0.0020062,0.00324444,-0.00119989,1.00767,0.0026549,0.0112429,1014,428,1.79165,1.43715
-203,596,1.77045,-1.44464,-0.000147546,0.00157384,0.000707058,0.00182702,-0.000400731,1.22694,0.00137125,0.0139432,1021,428,1.77046,1.44464
-196,596,1.78333,-1.50555,-0.000595433,0.0012313,-0.000273647,0.00127141,-0.000635545,-1.42525,0.0011212,0.0145845,1028,428,1.78338,1.50557
-189,596,1.76343,-1.53687,-0.00104027,0.000552709,-0.000865257,0.000932257,-0.00141982,-1.15742,0.00136766,0.0111639,1035,428,1.76337,1.53685
-182,596,1.75391,-1.55521,-0.000836158,0.000134438,-0.000863155,0.000639367,-0.00134109,-1.04149,0.0011671,0.0104656,1042,428,1.75388,1.5552
-175,596,1.76453,-1.58179,-0.000166314,-0.000561657,-0.000541698,0.000212652,-0.000940623,-0.61045,0.000708682,0.0124378,1049,428,1.76453,1.58179
-168,596,1.76465,-1.61234,0.00027844,-0.00112792,-0.000169649,0.000298616,-0.0011481,-0.118368,0.000881951,0.0148396,1056,428,1.76467,1.61232
-161,596,1.77686,-1.64423,0.00079134,-0.00163458,7.83065e-05,0.000793865,-0.0016371,0.0322344,0.00143139,0.0136362,1063,428,1.77681,1.64423
-154,596,1.77869,-1.66772,0.00136556,-0.00211019,0.000332879,0.00139715,-0.00214178,0.0946257,0.00205823,0.0112992,1070,428,1.77871,1.66771
-147,596,1.78955,-1.66824,0.00195493,-0.00252773,0.000627386,0.00204108,-0.00261389,0.136466,0.00269432,0.0120745,1077,428,1.78952,1.66826
-140,596,1.80078,-1.68057,0.00260362,-0.00295553,0.000845307,0.00272931,-0.00308122,0.147613,0.00335676,0.0130307,1084,428,1.80075,1.68056
-133,596,1.77722,-1.71439,0.00306314,-0.00335442,0.00080479,0.00316252,-0.00345381,0.12287,0.00382117,0.0134154,1091,428,1.77727,1.71438
-126,596,1.77502,-1.73615,0.00325553,-0.00362683,0.000744957,0.00333524,-0.00370654,0.106597,0.00406746,0.0107478,1098,428,1.77499,1.73615
-119,596,1.80396,-1.75491,0.00324328,-0.00373831,0.00082027,0.00333836,-0.00383339,0.115397,0.0041439,0.0131446,1105,428,1.80393,1.75492
-112,596,1.78552,-1.7746,0.00272895,-0.00353736,0.0011649,0.0029385,-0.0037469,0.17798,0.00386921,0.0144595,1112,428,1.78554,1.77459
-105,596,1.78259,-1.80075,0.00170216,-0.00279232,0.0017512,0.00230391,-0.00339408,0.330985,0.00330975,0.0146642,1119,428,1.7826,1.80076
-98,596,1.79834,-1.80008,0.000431846,-0.00213458,0.00224178,0.0017317,-0.00343443,0.525456,0.00303619,0.00908452,1126,428,1.79833,1.80007
-91,596,1.79626,-1.81638,-0.0012294,-0.00129424,0.00303008,0.00176844,-0.00429208,0.780049,0.00359874,0.00880078,1133,428,1.79622,1.81638
-84,596,1.81409,-1.86124,-0.00121441,0.000621352,0.0050567,0.0048428,-0.00543586,0.875179,0.00593768,0.0138798,1140,428,1.81414,1.86124
-77,596,1.82544,-1.88327,-0.000664594,0.00178421,0.00725734,0.00791971,-0.00680009,0.868967,0.00850667,0.0144392,1147,428,1.82545,1.88328
-70,596,1.81055,-1.92422,0.00281141,0.00282038,0.00880553,0.0116214,-0.00598964,0.785653,0.0103396,0.0153177,1154,428,1.81052,1.92422
-63,596,1.698,-1.93893,0.00713232,0.00360915,0.00975523,0.0152837,-0.00454227,0.696072,0.0119935,0.0246086,1161,428,1.69804,1.93892
-56,596,1.32703,-2.05997,0.0119149,0.00488538,0.0109698,0.0199193,-0.00311898,0.630364,0.014432,0.0306042,1168,428,1.32706,2.05998
-49,596,0.991455,-2.1427,0,0,0,0,0,0,0,-1,1175,428,0.991479,2.14271
-42,596,0.841064,-2.10535,0,0,0,0,0,0,0,-1,1182,428,0.84101,2.10535
-35,596,0.562866,-2.15237,0.0228705,0.00375027,0.0117473,0.0284561,-0.00183539,0.443844,0.0196112,0.0473858,1189,428,0.562916,2.15239
-28,596,1.44299,-1.98141,0.0248373,0.00277358,0.0117679,0.0299357,-0.00232481,0.408835,0.0207755,0.0485912,1196,428,1.443,1.98142
-21,596,1.74817,-1.92215,0.026367,0.00166703,0.0113954,0.0308212,-0.0027871,0.37261,0.0215367,0.040557,1203,428,1.74817,1.92214
-14,596,1.79419,-1.93521,0.0263087,9.94745e-05,0.0111225,0.0303925,-0.0039843,0.351883,0.021712,0.0460332,1210,428,1.79423,1.93521
-7,596,1.92834,-1.96689,0,0,0,0,0,0,0,-1,1217,428,1.92836,1.96689
0,596,1.54211,-2.00485,0.0230594,-0.0050732,0.0110856,0.0269026,-0.00891645,0.333721,0.0215317,0.0478164,1224,428,1.54206,2.00486
7,596,1.46375,-1.86362,0.0191458,-0.00754697,0.0120192,0.0237601,-0.0121613,0.366562,0.0210965,0.0442692,1231,428,1.46373,1.86361
14,596,1.64783,-1.89615,0.0153999,-0.0110238,0.0134283,0.0210261,-0.01665,0.396762,0.0218012,0.0435203,1238,428,1.64787,1.89614
21,596,1.71838,-1.90375,0.0124462,-0.0152949,0.014175,0.018408,-0.0212567,0.398126,0.0229201,0.0422906,1245,428,1.71841,1.90376
28,596,1.95361,-1.85992,0.0111404,-0.0204468,0.0148048,0.0169944,-0.0263008,0.376546,0.0251883,0.0431273,1252,428,1.95357,1.85992
35,596,1.99121,-1.82407,0,0,0,0,0,0,0,-1,1259,428,1.99117,1.82406
42,596,1.9696,-1.97144,0,0,0,0,0,0,0,-1,1266,428,1.96961,1.97142
49,596,1.94885,-1.93262,0.0143434,-0.0333621,0.0153823,0.0188732,-0.0378919,0.286386,0.0333809,0.0426285,1273,428,1.94882,1.93263
56,596,1.90466,-1.8851,0.0173792,-0.0356665,0.0135646,0.0206466,-0.0389339,0.236376,0.0349348,0.0409676,1280,428,1.9047,1.8851
63,596,1.85693,-1.64157,0.0203857,-0.0368307,0.0111686,0.0224885,-0.0389335,0.186102,0.0358832,0.044473,1287,428,1.85698,1.64158
70,596,1.49744,-1.68387,0.0229386,-0.0360402,0.00789198,0.0239764,-0.037078,0.130746,0.0355193,0.0467678,1294,428,1.49747,1.68386
77,596,1.19714,-1.78104,0.0247816,-0.0340162,0.00443873,0.0251148,-0.0343494,0.0749254,0.0344694,0.0465067,1301,428,1.19719,1.78104
84,596,1.16125,-2.21548,0.0251874,-0.0301345,0.000823586,0.0251997,-0.0301468,0.0148828,0.0319968,0.0444587,1308,428,1.1613,2.21549
91,596,1.95532,-1.89185,0.0237066,-0.024287,-0.00299893,0.0238932,-0.0244737,-0.0621638,0.0279253,0.0418582,1315,428,1.95528,1.89185
98,596,1.88123,-1.9169,0.020976,-0.0172941,-0.00658133,0.0220762,-0.0183943,-0.165633,0.0233979,0.0478033,1322,428,1.88119,1.91691
105,596,1.92273,-1.64343,0.0171962,-0.00999163,-0.00919985,0.0200167,-0.0128121,-0.297479,0.0191052,0.047137,1329,428,1.92267,1.64343
112,596,2.28516,-1.50488,0.0127131,-0.00297224,-0.0110651,0.018433,-0.00869219,-0.477104,0.0159938,0.041202,1336,428,2.28521,1.50488
119,596,2.42346,-1.98929,0.00765901,0.00385709,-0.0123347,0.0182384,-0.0067223,-0.708942,0.0149136,0.0449866,1343,428,2.42345,1.98927
126,596,2.38281,-2.10733,0.00190878,0.0094079,-0.0127823,0.0189793,-0.00766259,-0.928066,0.0158375,0.0452778,1350,428,2.38279,2.10735
133,596,2.43445,-2.19095,-0.00391873,0.0137901,-0.0125311,0.0202794,-0.010408,-1.09297,0.0180204,0.0442647,1357,428,2.43448,2.19096
140,596,2.23242,-2.0361,-0.00897018,0.0163903,-0.0124805,0.021502,-0.0140818,-1.18207,0.0206927,0.0426096,1364,428,2.23243,2.03609
147,596,1.83105,-1.84976,-0.0133417,0.0169282,-0.012199,0.0212324,-0.0176459,-1.2316,0.0224782,0.0393653,1371,428,1.83105,1.84978
154,596,1.74561,-1.82938,-0.0173872,0.0149578,-0.0126773,0.0193344,-0.0217637,-1.23838,0.0237418,0.0414939,1378,428,1.74559,1.82936
161,596,1.76343,-1.82925,-0.0208628,0.0128858,-0.0130486,0.0173424,-0.0253194,-1.24168,0.0247739,0.0423656,1385,428,1.76343,1.82925
168,596,2.07166,-1.91663,-0.0225661,0.010418,-0.0141703,0.0156695,-0.0278176,-1.21589,0.0254318,0.0433034,1392,428,2.07171,1.91663
175,596,2.32617,-1.91486,-0.0234791,0.0082194,-0.0148133,0.0140642,-0.0293239,-1.19498,0.0255614,0.0338346,1399,428,2.3262,1.91486
182,596,2.41138,-1.91544,-0.0238957,0.00657856,-0.0153537,0.0129726,-0.0302897,-1.17619,0.0256358,0.0347117,1406,428,2.41142,1.91544
189,596,2.30286,-1.98148,-0.0238879,0.00420363,-0.0161617,0.0115701,-0.0312544,-1.14313,0.0255806,0.0304719,1413,428,2.3029,1.98148
196,596,2.10815,-1.88251,-0.0235079,0.00156334,-0.0168662,0.0100422,-0.0319868,-1.10498,0.025344,0.022216,1420,428,2.10816,1.88251
203,596,2.02917,-1.8519,-0.0228912,0.000266719,-0.0162306,0.00862531,-0.0312498,-1.09523,0.0242256,0.0134196,1427,428,2.02921,1.85191
210,596,1.98706,-1.84833,-0.0206674,0.000478391,-0.015819,0.00893249,-0.0291215,-1.07999,0.022978,0.0110966,1434,428,1.98709,1.84833
217,596,1.98755,-1.84366,-0.018741,0.00116664,-0.0144691,0.00877506,-0.0263494,-1.08669,0.0211083,0.0100122,1441,428,1.98755,1.84366
224,596,1.99048,-1.84723,-0.0164448,0.00158713,-0.0128854,0.00829761,-0.0231553,-1.09066,0.0188226,0.0109068,1448,428,1.99047,1.84724
231,596,2.00415,-1.82492,-0.0137981,0.00151962,-0.0110278,0.00728722,-0.0195657,-1.08891,0.0160347,0.0116368,1455,428,2.00412,1.82492
238,596,2.01257,-1.79462,-0.0110457,0.00142359,-0.00950247,0.00655414,-0.0161763,-1.07573,0.0135097,0.0137229,1462,428,2.01255,1.79463
245,596,2.01892,-1.77048,-0.00818488,0.00115067,-0.00814602,0.00587149,-0.0129057,-1.04557,0.0110917,0.0119221,1469,428,2.01894,1.77046
252,596,2.02454,-1.74435,-0.00565968,0.000828418,-0.00704981,0.00534476,-0.010176,-1.00103,0.00910448,0.00944563,1476,428,2.02459,1.74434
259,596,2.02417,-1.72321,-0.00329234,0.000986559,-0.00590653,0.00512918,-0.00743496,-0.959157,0.00729451,0.00841647,1483,428,2.02422,1.7232
266,596,2.00854,-1.69666,-0.0016695,0.00052531,-0.00507298,0.00461823,-0.00576242,-0.891918,0.00600539,0.00990946,1490,428,2.00853,1.69666
273,596,2.01343,-1.68634,-0.00102824,0.000197847,-0.00433175,0.00395972,-0.00479011,-0.855693,0.00505929,0.0118521,1497,428,2.01347,1.68635
280,596,2.01404,-1.66074,-0.000444124,-0.000209336,-0.00357107,0.00324627,-0.00389973,-0.801829,0.00413149,0.011972,1504,428,2.01407,1.66073
287,596,2.02124,-1.63507,-0.000136784,-0.000645797,-0.00292089,0.00254067,-0.00332325,-0.741941,0.00339557,0.0106695,1511,428,2.02127,1.63506
294,596,2.00525,-1.62274,-0.000229936,-0.000873922,-0.0021837,0.00165538,-0.00275924,-0.712199,0.0025752,0.00910954,1518,428,2.00527,1.62275
301,596,1.99585,-1.5787,-0.000539457,-0.00143838,-0.00141984,0.000500362,-0.0024782,-0.63211,0.00184172,0.0105821,1525,428,1.99584,1.57871
308,596,2.03687,-1.55322,-0.000987698,-0.00221438,-0.000638515,-0.000715665,-0.00248642,-0.402752,0.00147799,0.0162101,1532,428,2.03685,1.55323
315,596,2.0332,-1.5325,-0.00159255,-0.00346457,0.000140689,-0.00158204,-0.00347508,0.0745951,0.00200902,0.0153705,1539,428,2.03319,1.53251
322,596,2.03296,-1.48322,-0.00235066,-0.00506791,0.000814973,-0.00212498,-0.0052936,0.270155,0.00307599,0.012955,1546,428,2.03292,1.4832
329,596,2.02246,-1.45105,-0.00320275,-0.00703266,0.0015238,-0.00267045,-0.00756495,0.336069,0.0044301,0.010153,1553,428,2.02251,1.45105
336,596,2.01367,-1.43509,-0.00418638,-0.00896422,0.00208441,-0.00340486,-0.00974574,0.358716,0.00571119,0.00892765,1560,428,2.01371,1.4351
343,596,2.01465,-1.42151,-0.00549266,-0.0110131,0.00265951,-0.00441989,-0.0120858,0.38341,0.00706116,0.0113189,1567,428,2.01469,1.42151
350,596,2.03015,-1.37531,-0.00682934,-0.0129332,0.00307403,-0.00554953,-0.014213,0.394502,0.00827128,0.0118855,1574,428,2.0301,1.3753
357,596,2.021,-1.34079,-0.00768043,-0.0146282,0.00357362,-0.00617048,-0.0161381,0.399774,0.00940294,0.00904954,1581,428,2.02103,1.3408
364,596,2.01172,-1.31503,-0.00811254,-0.0159216,0.00402482,-0.00640954,-0.0176246,0.400283,0.0103009,0.0081711,1588,428,2.0117,1.31504
371,596,2.00891,-1.2713,-0.00788378,-0.0163402,0.00413676,-0.0061967,-0.0180273,0.387234,0.0105761,0.00867109,1595,428,2.00897,1.27131
378,596,2.03833,-1.22232,-0.00785982,-0.0165279,0.00437265,-0.00603723,-0.0183505,0.394917,0.0107992,0.0125054,1602,428,2.0383,1.22233
385,596,2.01318,-1.16245,-0.00739538,-0.0159733,0.00433896,-0.00558338,-0.0177853,0.395597,0.0105027,0.0213095,1609,428,2.01319,1.16244
392,596,1.90564,-1.03824,-0.00623943,-0.0146934,0.00395786,-0.00467573,-0.0162571,0.376264,0.00966419,0.0309636,1616,428,1.90566,1.03823
399,596,1.82874,-0.913757,-0.00405958,-0.0131812,0.00326646,-0.0030105,-0.0142302,0.310759,0.00865955,0.0393542,1623,428,1.82872,0.913748
406,596,2.1405,-1.0574,-0.00111877,-0.0108518,0.00253235,-0.000499323,-0.0114712,0.239903,0.00748658,0.045554,1630,428,2.14049,1.05742
413,596,2.34363,-0.944946,0.00246367,-0.00832916,0.00156598,0.00268629,-0.00855178,0.141216,0.00677648,0.0456997,1637,428,2.34368,0.944934
420,596,2.81763,-0.901459,0.00635555,-0.00493445,-4.74187e-06,0.00635555,-0.00493445,-0.000420006,0.00653548,0.045474,1644,428,2.81765,0.901454
427,596,2.52039,-0.113159,0,0,0,0,0,0,0,-1,1651,428,2.52038,0.113151
434,596,3.80896,-0.253998,0,0,0,0,0,0,0,-1,1658,428,3.80902,0.254004
441,596,3.86401,-0.131622,0,0,0,0,0,0,0,-1,1665,428,3.86406,0.131613
448,596,3.17786,-0.40097,0,0,0,0,0,0,0,-1,1672,428,3.17782,0.400965
455,596,4.41284,-0.766785,0,0,0,0,0,0,0,-1,1679,428,4.41283,0.766773
462,596,0,0,0,0,0,0,0,0,0,-1,1686,428,0,0
469,596,0,0,0,0,0,0,0,0,0,-1,1693,428,0,0
476,596,0,0,0,0,0,0,0,0,0,-1,1700,428,0,0
483,596,0,0,0,0,0,0,0,0,0,-1,1707,428,0,0
490,596,0,0,0,0,0,0,0,0,0,-1,1714,428,0,0
497,596,0,0,0,0,0,0,0,0,0,-1,1721,428,0,0
504,596,0,0,0,0,0,0,0,0,0,-1,1728,428,0,0
511,596,0,0,0,0,0,0,0,0,0,-1,1735,428,0,0
518,596,0,0,0,0,0,0,0,0,0,-1,1742,428,0,0
525,596,0,0,0,0,0,0,0,0,0,-1,1749,428,0,0
532,596,0,0,0,0,0,0,0,0,0,-1,1756,428,0,0
539,596,0,0,0,0,0,0,0,0,0,-1,1763,428,0,0
546,596,0,0,0,0,0,0,0,0,0,-1,1770,428,0,0
553,596,0,0,0,0,0,0,0,0,0,-1,1777,428,0,0
560,596,0,0,0,0,0,0,0,0,0,-1,1784,428,0,0
567,596,0,0,0,0,0,0,0,0,0,-1,1791,428,0,0
574,596,0,0,0,0,0,0,0,0,0,-1,1798,428,0,0
581,596,0,0,0,0,0,0,0,0,0,-1,1805,428,0,0
588,596,0,0,0,0,0,0,0,0,0,-1,1812,428,0,0
595,596,0,0,0,0,0,0,0,0,0,-1,1819,428,0,0
602,596,0,0,0,0,0,0,0,0,0,-1,1826,428,0,0
609,596,0,0,0,0,0,0,0,0,0,-1,1833,428,0,0
616,596,0,0,0,0,0,0,0,0,0,-1,1840,428,0,0
623,596,0,0,0,0,0,0,0,0,0,-1,1847,428,0,0
630,596,0,0,0,0,0,0,0,0,0,-1,1854,428,0,0
637,596,0,0,0,0,0,0,0,0,0,-1,1861,428,0,0
644,596,0,0,0,0,0,0,0,0,0,-1,1868,428,0,0
651,596,0,0,0,0,0,0,0,0,0,-1,1875,428,0,0
658,596,0,0,0,0,0,0,0,0,0,-1,1882,428,0,0
665,596,0,0,0,0,0,0,0,0,0,-1,1889,428,0,0
672,596,0,0,0,0,0,0,0,0,0,-1,1896,428,0,0
679,596,0,0,0,0,0,0,0,0,0,-1,1903,428,0,0
686,596,0,0,0,0,0,0,0,0,0,-1,1910,428,0,0
693,596,0,0,0,0,0,0,0,0,0,-1,1917,428,0,0
700,596,0,0,0,0,0,0,0,0,0,-1,1924,428,0,0
707,596,0,0,0,0,0,0,0,0,0,-1,1931,428,0,0
714,596,0,0,0,0,0,0,0,0,0,-1,1938,428,0,0
721,596,0,0,0,0,0,0,0,0,0,-1,1945,428,0,0
728,596,0,0,0,0,0,0,0,0,0,-1,1952,428,0,0
735,596,0,0,0,0,0,0,0,0,0,-1,1959,428,0,0
742,596,0,0,0,0,0,0,0,0,0,-1,1966,428,0,0
749,596,0,0,0,0,0,0,0,0,0,-1,1973,428,0,0
756,596,0,0,0,0,0,0,0,0,0,-1,1980,428,0,0
763,596,0,0,0,0,0,0,0,0,0,-1,1987,428,0,0
770,596,0,0,0,0,0,0,0,0,0,-1,1994,428,0,0
777,596,0,0,0,0,0,0,0,0,0,-1,2001,428,0,0
784,596,0,0,0,0,0,0,0,0,0,-1,2008,428,0,0
791,596,0,0,0,0,0,0,0,0,0,-1,2015,428,0,0
798,596,0,0,0,0,0,0,0,0,0,-1,2022,428,0,0
805,596,0,0,0,0,0,0,0,0,0,-1,2029,428,0,0
812,596,0,0,0,0,0,0,0,0,0,-1,2036,428,0,0
-700,589,0,0,0,0,0,0,0,0,0,-1,524,435,0,0
-693,589,0,0,0,0,0,0,0,0,0,-1,531,435,0,0
-686,589,0,0,0,0,0,0,0,0,0,-1,538,435,0,0
-679,589,0,0,0,0,0,0,0,0,0,-1,545,435,0,0
-672,589,0,0,0,0,0,0,0,0,0,-1,552,435,0,0
-665,589,0,0,0,0,0,0,0,0,0,-1,559,435,0,0
-658,589,0,0,0,0,0,0,0,0,0,-1,566,435,0,0
-651,589,0,0,0,0,0,0,0,0,0,-1,573,435,0,0
-644,589,0,0,0,0,0,0,0,0,0,-1,580,435,0,0
-637,589,0,0,0,0,0,0,0,0,0,-1,587,435,0,0
-630,589,0,0,0,0,0,0,0,0,0,-1,594,435,0,0
-623,589,0,0,0,0,0,0,0,0,0,-1,601,435,0,0
-616,589,0,0,0,0,0,0,0,0,0,-1,608,435,0,0
-609,589,0,0,0,0,0,0,0,0,0,-1,615,435,0,0
-602,589,0,0,0,0,0,0,0,0,0,-1,622,435,0,0
-595,589,0,0,0,0,0,0,0,0,0,-1,629,435,0,0
-588,589,0,0,0,0,0,0,0,0,0,-1,636,435,0,0
-581,589,0,0,0,0,0,0,0,0,0,-1,643,435,0,0
-574,589,0,0,0,0,0,0,0,0,0,-1,650,435,0,0
-567,589,0,0,0,0,0,0,0,0,0,-1,657,435,0,0
-560,589,0,0,0,0,0,0,0,0,0,-1,664,435,0,0
-553,589,0,0,0,0,0,0,0,0,0,-1,671,435,0,0
-546,589,0,0,0,0,0,0,0,0,0,-1,678,435,0,0
-539,589,0,0,0,0,0,0,0,0,0,-1,685,435,0,0
-532,589,0,0,0,0,0,0,0,0,0,-1,692,435,0,0
-525,589,0,0,0,0,0,0,0,0,0,-1,699,435,0,0
-518,589,0,0,0,0,0,0,0,0,0,-1,706,435,0,0
-511,589,0,0,0,0,0,0,0,0,0,-1,713,435,0,0
-504,589,0,0,0,0,0,0,0,0,0,-1,720,435,0,0
-497,589,0,0,0,0,0,0,0,0,0,-1,727,435,0,0
-490,589,0,0,0,0,0,0,0,0,0,-1,734,435,0,0
-483,589,0,0,0,0,0,0,0,0,0,-1,741,435,0,0
-476,589,0,0,0,0,0,0,0,0,0,-1,748,435,0,0
-469,589,0,0,0,0,0,0,0,0,0,-1,755,435,0,0
-462,589,0,0,0,0,0,0,0,0,0,-1,762,435,0,0
-455,589,0,0,0,0,0,0,0,0,0,-1,769,435,0,0
-448,589,0,0,0,0,0,0,0,0,0,-1,776,435,0,0
-441,589,0,0,0,0,0,0,0,0,0,-1,783,435,0,0
-434,589,0,0,0,0,0,0,0,0,0,-1,790,435,0,0
-427,589,0,0,0,0,0,0,0,0,0,-1,797,435,0,0
-420,589,0,0,0,0,0,0,0,0,0,-1,804,435,0,0
-413,589,0,0,0,0,0,0,0,0,0,-1,811,435,0,0
-406,589,0,0,0,0,0,0,0,0,0,-1,818,435,0,0
-399,589,0,0,0,0,0,0,0,0,0,-1,825,435,0,0
-392,589,0,0,0,0,0,0,0,0,0,-1,832,435,0,0
-385,589,0,0,0,0,0,0,0,0,0,-1,839,435,0,0
-378,589,0,0,0,0,0,0,0,0,0,-1,846,435,0,0
-371,589,0,0,0,0,0,0,0,0,0,-1,853,435,0,0
-364,589,0,0,0,0,0,0,0,0,0,-1,860,435,0,0
-357,589,0,0,0,0,0,0,0,0,0,-1,867,435,0,0
-350,589,5.75,-1.84091,-0.0591378,0.0402085,-0.00421236,0.0403868,-0.0593161,-1.5285,0.0579083,0.0461036,874,435,5.74999,1.84092
-343,589,4.73486,-2.15686,0,0,0,0,0,0,0,-1,881,435,4.73484,2.15687
-336,589,4.20648,-2.62943,-0.044832,0.028724,-0.00153243,0.0287559,-0.0448639,-1.54997,0.0428422,0.041019,888,435,4.20646,2.62942
-329,589,3.77252,-2.40561,-0.0382633,0.0224911,-0.000115848,0.0224913,-0.0382635,-1.56889,0.0354686,0.0431313,895,435,3.77253,2.4056
-322,589,3.17493,-1.39456,-0.0324561,0.0166712,0.00138558,0.0167102,-0.0324951,1.54262,0.0288919,0.0425164,902,435,3.17494,1.39455
-315,589,2.67474,-1.5351,-0.027044,0.0114513,0.0027186,0.0116423,-0.027235,1.50064,0.0230398,0.0435721,909,435,2.67475,1.53509
-308,589,2.30078,-1.41547,0,0,0,0,0,0,0,-1,916,435,2.30081,1.41546
-301,589,2.11505,-1.1987,-0.0151709,0.00335316,0.00592984,0.00508878,-0.0169065,1.28606,0.0132959,0.0458624,923,435,2.11502,1.1987
-294,589,1.82147,-1.19952,-0.0094096,0.000560357,0.00774112,0.00478271,-0.013632,1.07146,0.0110333,0.0456962,930,435,1.82149,1.19954
-287,589,1.7041,-1.03259,-0.00510078,-9.01754e-05,0.00880422,0.00655826,-0.0117492,0.924013,0.0107105,0.0447723,937,435,1.70408,1.03258
-280,589,1.76208,-1.04398,-0.00166592,-9.99678e-05,0.00942911,0.00857862,-0.0103445,0.826822,0.0109411,0.0337547,944,435,1.76211,1.04397
-273,589,1.73688,-1.13376,0.00119349,-0.000244204,0.00978727,0.0102883,-0.00933899,0.74874,0.0113362,0.019663,951,435,1.73685,1.13376
-266,589,1.74512,-1.16403,0.00277634,0.000609964,0.00971536,0.0114687,-0.0080824,0.729881,0.0113441,0.0159554,958,435,1.74511,1.16403
-259,589,1.74036,-1.198,0.00413035,0.00146965,0.00945976,0.0123528,-0.00675284,0.71554,0.0111875,0.0131764,965,435,1.74038,1.19801
-252,589,1.75031,-1.24295,0.00462497,0.00216236,0.00864355,0.0121245,-0.00533714,0.714647,0.0103322,0.00935599,972,435,1.7503,1.24294
-245,589,1.76288,-1.27457,0.00407278,0.00262713,0.00761187,0.0109961,-0.00429615,0.73806,0.00910704,0.00954758,979,435,1.76287,1.27457
-238,589,1.75372,-1.31018,0.00311107,0.00290959,0.00623538,0.00924653,-0.00322586,0.777321,0.00747537,0.013285,986,435,1.75371,1.31019
-231,589,1.74658,-1.33267,0.00203956,0.00273192,0.0047942,0.00719243,-0.00242094,0.82144,0.00577367,0.0145149,993,435,1.74659,1.33268
-224,589,1.73358,-1.37869,0.00101024,0.00245543,0.00339719,0.00520602,-0.00174035,0.890188,0.00417355,0.0139778,1000,435,1.73359,1.3787
-217,589,1.74335,-1.427,0.000305132,0.00195217,0.00211172,0.00339526,-0.00113796,0.971315,0.00272327,0.0144817,1007,435,1.74335,1.42701
-210,589,1.74591,-1.44849,-1.91631e-05,0.0012319,0.00123908,0.00199439,-0.000781653,1.01915,0.00165294,0.0136632,1014,435,1.7459,1.44848
-203,589,1.73914,-1.45657,-2.81661e-05,0.000623465,0.000526072,0.000916445,-0.000321146,1.06266,0.000741565,0.0105951,1021,435,1.73916,1.45658
-196,589,1.71814,-1.48993,-0.000128782,5.63348e-05,1.83348e-05,5.81332e-05,-0.000130581,1.47302,0.000111598,0.0126641,1028,435,1.71818,1.48993
-189,589,1.703,-1.53726,-0.000291813,-0.000751175,-0.000240219,-0.000189141,-0.000853846,-0.40391,0.000517829,0.0153572,1035,435,1.70299,1.53726
-182,589,1.73169,-1.54813,2.93597e-05,-0.00125652,-0.000182881,5.48637e-05,-0.00128202,-0.138563,0.000873544,0.0117174,1042,435,1.73166,1.54811
-175,589,1.75586,-1.57419,0.000688238,-0.00206345,9.00926e-05,0.000691185,-0.0020664,0.0326941,0.00165677,0.0151856,1049,435,1.75585,1.5742
-168,589,1.76086,-1.61658,0.00142509,-0.0027675,0.000284461,0.0014443,-0.00278671,0.0674368,0.00248342,0.0128294,1056,435,1.76081,1.61659
-161,589,1.75757,-1.64093,0.00221025,-0.00340192,0.000318764,0.0022283,-0.00341997,0.0565563,0.00328513,0.0116342,1063,435,1.75754,1.64094
-154,589,1.75513,-1.65485,0.00307139,-0.00391922,0.000410909,0.00309546,-0.00394329,0.0585115,0.00407364,0.0116817,1070,435,1.75507,1.65484
-147,589,1.76929,-1.67499,0.00399175,-0.00433046,0.000551203,0.0040281,-0.00436681,0.0658494,0.00484812,0.0118624,1077,435,1.76928,1.67498
-140,589,1.78381,-1.68762,0.00504293,-0.00471596,0.000623466,0.0050826,-0.00475563,0.0635426,0.00568115,0.0121848,1084,435,1.78377,1.68762
-133,589,1.77148,-1.70193,0.00587439,-0.00504608,0.000485274,0.00589592,-0.00506761,0.0443206,0.00633581,0.0125384,1091,435,1.77154,1.70194
-126,589,1.78076,-1.74365,0.00633334,-0.00524237,0.000333694,0.00634295,-0.00525198,0.0287953,0.00670421,0.010512,1098,435,1.78071,1.74364
-119,589,1.79236,-1.77228,0.00656063,-0.00527237,0.000327273,0.00656967,-0.00528142,0.0276295,0.00685569,0.0163828,1105,435,1.79237,1.77227
-112,589,1.77637,-1.79514,0.00612808,-0.00494756,0.000629415,0.00616373,-0.00498321,0.0565859,0.00644771,0.0169012,1112,435,1.77633,1.79515
-105,589,1.76672,-1.81589,0.00498113,-0.00398629,0.00125427,0.00515326,-0.00415842,0.136383,0.00538631,0.016078,1119,435,1.76669,1.81589
-98,589,1.78418,-1.81595,0.00338551,-0.00315192,0.0018203,0.00385819,-0.00362459,0.254057,0.00432089,0.0170395,1126,435,1.78415,1.81596
-91,589,1.81458,-1.79523,0.00113367,-0.00209904,0.00280489,0.0027546,-0.00371997,0.524006,0.00375192,0.0207085,1133,435,1.81461,1.79522
-84,589,1.8158,-1.82343,0.00126368,0.000567284,0.00547619,0.00640273,-0.00457176,0.753649,0.00636545,0.0283469,1140,435,1.81585,1.82343
-77,589,1.70007,-1.83371,0.00214568,0.0019205,0.0085325,0.0105663,-0.00650015,0.778801,0.00994613,0.0343744,1147,435,1.70013,1.83371
-70,589,1.50378,-1.91476,0.00677328,0.00321279,0.0104246,0.0155685,-0.00558247,0.700827,0.0126571,0.042228,1154,435,1.50374,1.91476
-63,589,0.69165,-2.04913,0.0114924,0.0042319,0.0116784,0.0200918,-0.00436754,0.634708,0.0150629,0.0463562,1161,435,0.691611,2.04913
-56,589,0.304565,-2.46915,0.0169362,0.00594809,0.0131187,0.0256648,-0.00278054,0.587096,0.018108,0.0499861,1168,435,0.30451,2.46916
-49,589,-0.148193,-2.25891,0,0,0,0,0,0,0,-1,1175,435,-0.148247,2.25892
-42,589,-0.545532,-2.23007,0,0,0,0,0,0,0,-1,1182,435,-0.545505,2.23007
-35,589,-0.948364,-2.44232,0,0,0,0,0,0,0,-1,1189,435,-0.948362,2.44233
-28,589,1.12366,-1.95197,0,0,0,0,0,0,0,-1,1196,435,1.12364,1.95196
-21,589,1.69397,-1.75958,0.0331823,0.00225829,0.0132671,0.0380941,-0.00265345,0.354573,0.0263251,0.0463313,1203,435,1.694,1.75957
-14,589,2.16296,-1.44748,0.0329448,0.000237468,0.0129191,0.0374321,-0.0042498,0.3343,0.0264852,0.0471743,1210,435,2.16296,1.44748
-7,589,2.70081,-1.29205,0,0,0,0,0,0,0,-1,1217,435,2.70086,1.29204
0,589,1.15662,-1.74365,0,0,0,0,0,0,0,-1,1224,435,1.15664,1.74366
7,589,1.21106,-1.76563,0.0241986,-0.00985195,0.0141112,0.0292863,-0.0149397,0.34604,0.0259779,0.0482905,1231,435,1.21103,1.76562
14,589,1.39868,-1.84039,0.0198179,-0.0144053,0.0159411,0.0260928,-0.0206801,0.374999,0.0270645,0.0488876,1238,435,1.39866,1.8404
21,589,1.57898,-1.76602,0.0164914,-0.0199588,0.0170567,0.0232279,-0.0266954,0.376147,0.0288464,0.0477773,1245,435,1.57904,1.76602
28,589,2.02844,-1.80618,0.0151689,-0.0265226,0.0179694,0.0218448,-0.0331985,0.355715,0.0320038,0.0484875,1252,435,2.02848,1.8062
35,589,1.96143,-1.8855,0,0,0,0,0,0,0,-1,1259,435,1.9614,1.88551
42,589,2.40503,-2.39655,0.0165369,-0.0382193,0.0199602,0.0230405,-0.0447229,0.314981,0.0397852,0.0456396,1266,435,2.40506,2.39656
49,589,2.04321,-1.84393,0.0191243,-0.0433239,0.0193342,0.0246256,-0.0488251,0.277211,0.0431672,0.0442662,1273,435,2.04321,1.84394
56,589,1.70789,-1.52164,0.0228503,-0.04629,0.0173815,0.026974,-0.0504137,0.232938,0.0453578,0.0422413,1280,435,1.7079,1.52164
63,589,1.41113,-1.30356,0.0262171,-0.0473761,0.0146465,0.0290249,-0.0501839,0.189408,0.0462719,0.042497,1287,435,1.41112,1.30356
70,589,1.49365,-1.49994,0,0,0,0,0,0,0,-1,1294,435,1.49363,1.49993
77,589,1.23743,-1.63654,0,0,0,0,0,0,0,-1,1301,435,1.23743,1.63654
84,589,1.62244,-2.33444,0.0303893,-0.0376471,0.00270915,0.030497,-0.0377548,0.0397353,0.0394794,0.0437445,1308,435,1.62249,2.33445
91,589,1.76172,-1.89041,0.0275756,-0.0298055,-0.00170994,0.0276265,-0.0298564,-0.0297645,0.0331961,0.0442962,1315,435,1.76177,1.89042
98,589,4.94397,-1.01517,0.0232387,-0.0205665,-0.00577464,0.0239871,-0.021315,-0.128892,0.0261704,0.0479459,1322,435,4.94396,1.01516
105,589,1.96387,-1.04199,0.0177297,-0.0108903,-0.00878358,0.0202104,-0.013371,-0.275256,0.0195218,0.0449561,1329,435,1.96382,1.042
112,589,2.74402,-1.14252,0.011374,-0.00160964,-0.0109269,0.017592,-0.00782772,-0.517359,0.0150327,0.0433179,1336,435,2.74405,1.14253
119,589,2.62964,-1.85361,0.00423524,0.00725562,-0.0123329,0.0181704,-0.00667957,-0.846321,0.0148497,0.0432985,1343,435,2.62964,1.85361
126,589,2.72742,-2.30289,-0.00363325,0.0144012,-0.0127624,0.0210106,-0.0102426,-1.09295,0.0183976,0.0462555,1350,435,2.7274,2.30289
133,589,2.6449,-2.53763,-0.0114248,0.0198222,-0.0123725,0.0241278,-0.0157304,-1.2359,0.0231818,0.0441018,1357,435,2.64488,2.53762
140,589,2.88904,-2.62799,-0.0180162,0.0231864,-0.0122005,0.0265281,-0.0213579,-1.30346,0.0277007,0.0430914,1364,435,2.889,2.62799
147,589,3.24048,-2.67728,-0.02336,0.0237541,-0.0118558,0.0265693,-0.0261751,-1.33766,0.0304523,0.047221,1371,435,3.24046,2.67727
154,589,3.50818,-2.73267,0,0,0,0,0,0,0,-1,1378,435,3.50818,2.73266
161,589,1.6731,-1.59668,0,0,0,0,0,0,0,-1,1385,435,1.67313,1.59669
168,589,2.20166,-1.83459,0,0,0,0,0,0,0,-1,1392,435,2.20164,1.83459
175,589,3.31934,-1.93765,-0.0356812,0.0121364,-0.0175207,0.0178689,-0.0414137,-1.25459,0.0351151,0.0449532,1399,435,3.31936,1.93766
182,589,3.07227,-1.81546,-0.0355039,0.0101739,-0.0188662,0.0169585,-0.0422884,-1.22558,0.0352329,0.0451588,1406,435,3.07226,1.81547
189,589,2.91504,-1.77563,0,0,0,0,0,0,0,-1,1413,435,2.91507,1.77564
196,589,3.07507,-1.84146,-0.0337226,0.00282505,-0.0226263,0.0136353,-0.0445328,-1.12509,0.0351271,0.042697,1420,435,3.07503,1.84145
203,589,2.24097,-1.73047,-0.0324069,0.000706451,-0.0223385,0.011955,-0.0436555,-1.10431,0.0338009,0.0362658,1427,435,2.24103,1.73047
210,589,1.92432,-1.76657,-0.0289468,0.000531575,-0.0222368,0.0124705,-0.0408857,-1.07807,0.0322285,0.0268118,1434,435,1.92433,1.76658
217,589,1.99585,-1.82928,-0.026095,0.00118297,-0.0205495,0.0122078,-0.0371198,-1.07838,0.0296652,0.0222908,1441,435,1.99591,1.82929
224,589,2.00024,-1.86118,-0.0228662,0.00156175,-0.0185551,0.011562,-0.0328664,-1.07648,0.0266156,0.020032,1448,435,2.0003,1.86116
231,589,2.02502,-1.84323,-0.0193037,0.00128164,-0.0162649,0.010237,-0.028259,-1.0675,0.0230233,0.0161473,1455,435,2.02505,1.84322
238,589,2.03748,-1.79636,-0.0156893,0.000974384,-0.0143831,0.00926463,-0.0239795,-1.04792,0.0198103,0.0165073,1462,435,2.03748,1.79635
245,589,2.03247,-1.73846,-0.0118597,0.000513298,-0.0126212,0.00838265,-0.019729,-1.01327,0.0166651,0.016788,1469,435,2.03242,1.73846
252,589,2.03528,-1.71921,-0.00858289,3.86461e-05,-0.0112516,0.00777698,-0.0163212,-0.968336,0.0142016,0.0126826,1476,435,2.03527,1.7192
259,589,2.03577,-1.71634,-0.0055453,0.000195117,-0.00977974,0.00751713,-0.0128673,-0.928133,0.0119033,0.00906657,1483,435,2.03578,1.71633
266,589,2.0387,-1.69879,-0.00335429,-0.000370091,-0.00861651,0.00688255,-0.0106069,-0.871132,0.0101736,0.00936296,1490,435,2.03864,1.69878
273,589,2.03601,-1.68637,-0.00243294,-0.000722593,-0.00755342,0.0060239,-0.00917944,-0.841767,0.00884045,0.0114793,1497,435,2.03601,1.68636
280,589,2.03503,-1.66782,-0.0016668,-0.00113568,-0.00650438,0.00510856,-0.00791104,-0.805801,0.00757469,0.011968,1504,435,2.03501,1.66782
287,589,2.0459,-1.66583,-0.0011933,-0.0013641,-0.00564336,0.0043653,-0.00692271,-0.777832,0.00657265,0.0111846,1511,435,2.04592,1.66585
294,589,2.04224,-1.63635,-0.00110994,-0.00113792,-0.00470725,0.00358334,-0.0058312,-0.783912,0.00548689,0.00997089,1518,435,2.04222,1.63636
301,589,2.03418,-1.58414,-0.00120204,-0.00113514,-0.00376585,0.00259741,-0.00493459,-0.789839,0.00441784,0.0101322,1525,435,2.03419,1.58415
308,589,2.04138,-1.54779,-0.00136206,-0.0012745,-0.00277612,0.00145819,-0.00409475,-0.793282,0.00332427,0.0102847,1532,435,2.04138,1.54779
315,589,2.06519,-1.52975,-0.00161585,-0.0017247,-0.00184691,0.000177436,-0.00351798,-0.770668,0.00240665,0.0105535,1539,435,2.06518,1.52975
322,589,2.07532,-1.508,-0.00196378,-0.00255165,-0.00104295,-0.00117413,-0.00334129,-0.648046,0.00195729,0.0115101,1546,435,2.07535,1.508
329,589,2.06567,-1.47067,-0.00239126,-0.00374807,-0.000357582,-0.00230279,-0.00383654,-0.242544,0.00222981,0.0101218,1553,435,2.06573,1.47068
336,589,2.05408,-1.44241,-0.00288577,-0.00483958,0.000196802,-0.00286615,-0.00485921,0.0993972,0.00282052,0.00941602,1560,435,2.05414,1.44242
343,589,2.05347,-1.41165,-0.00365712,-0.00612413,0.000752547,-0.00344568,-0.00633557,0.273902,0.00366253,0.0108402,1567,435,2.05346,1.41165
350,589,2.04028,-1.37372,-0.00452263,-0.0073662,0.00113338,-0.00412616,-0.00776266,0.336501,0.00448475,0.0160974,1574,435,2.04034,1.37371
357,589,2.04053,-1.35349,-0.00480985,-0.00840618,0.00165362,-0.00416509,-0.00905094,0.371774,0.00523108,0.0123128,1581,435,2.04051,1.3535
364,589,2.05664,-1.32382,-0.00474495,-0.00915142,0.00208027,-0.00391804,-0.00997832,0.378349,0.00580508,0.00980795,1588,435,2.05668,1.32382
371,589,2.06982,-1.28983,-0.00434439,-0.00929372,0.00216214,-0.00353291,-0.0101052,0.359049,0.00592156,0.0100306,1595,435,2.0698,1.28982
378,589,2.06946,-1.25824,-0.00416371,-0.00928446,0.00232184,-0.00326772,-0.0101804,0.36829,0.00600195,0.0110119,1602,435,2.06943,1.25823
385,589,2.07629,-1.21085,-0.00372806,-0.00880145,0.002252,-0.00287266,-0.00965686,0.363008,0.00572582,0.0122449,1609,435,2.07628,1.21086
392,589,2.06384,-1.16162,-0.00280597,-0.00779745,0.00188966,-0.00217129,-0.00843213,0.324032,0.00505555,0.013565,1616,435,2.06378,1.16162
399,589,2.052,-1.15259,-0.00113344,-0.00686149,0.00129085,-0.000855981,-0.00713895,0.211722,0.00450118,0.0184837,1623,435,2.05205,1.15259
406,589,2.08154,-1.12173,0.000989467,-0.00554949,0.000759682,0.00107656,-0.00563659,0.114152,0.00416324,0.0347753,1630,435,2.08158,1.12172
413,589,2.42908,-1.08142,0.00344209,-0.00417264,0.000123476,0.00344409,-0.00417465,0.0162097,0.00440542,0.0393455,1637,435,2.42904,1.08143
420,589,2.91113,-1.22171,0,0,0,0,0,0,0,-1,1644,435,2.91119,1.22172
427,589,2.20435,-0.45517,0,0,0,0,0,0,0,-1,1651,435,2.2043,0.455177
434,589,1.8905,-0.898071,0,0,0,0,0,0,0,-1,1658,435,1.89047,0.898059
441,589,1.92126,-0.884338,0,0,0,0,0,0,0,-1,1665,435,1.92123,0.884337
448,589,2.81897,-0.366333,0,0,0,0,0,0,0,-1,1672,435,2.81901,0.366343
455,589,3.40015,-0.461792,0,0,0,0,0,0,0,-1,1679,435,3.40018,0.461778
462,589,3.49548,-0.507996,0,0,0,0,0,0,0,-1,1686,435,3.49552,0.507985
469,589,3.85535,-0.974792,0,0,0,0,0,0,0,-1,1693,435,3.85536,0.97479
476,589,0,0,0,0,0,0,0,0,0,-1,1700,435,0,0
483,589,0,0,0,0,0,0,0,0,0,-1,1707,435,0,0
490,589,0,0,0,0,0,0,0,0,0,-1,1714,435,0,0
497,589,0,0,0,0,0,0,0,0,0,-1,1721,435,0,0
504,589,0,0,0,0,0,0,0,0,0,-1,1728,435,0,0
511,589,0,0,0,0,0,0,0,0,0,-1,1735,435,0,0
518,589,0,0,0,0,0,0,0,0,0,-1,1742,435,0,0
525,589,0,0,0,0,0,0,0,0,0,-1,1749,435,0,0
532,589,0,0,0,0,0,0,0,0,0,-1,1756,435,0,0
539,589,0,0,0,0,0,0,0,0,0,-1,1763,435,0,0
546,589,0,0,0,0,0,0,0,0,0,-1,1770,435,0,0
553,589,0,0,0,0,0,0,0,0,0,-1,1777,435,0,0
560,589,0,0,0,0,0,0,0,0,0,-1,1784,435,0,0
567,589,0,0,0,0,0,0,0,0,0,-1,1791,435,0,0
574,589,0,0,0,0,0,0,0,0,0,-1,1798,435,0,0
581,589,0,0,0,0,0,0,0,0,0,-1,1805,435,0,0
588,589,0,0,0,0,0,0,0,0,0,-1,1812,435,0,0
595,589,0,0,0,0,0,0,0,0,0,-1,1819,435,0,0
602,589,0,0,0,0,0,0,0,0,0,-1,1826,435,0,0
609,589,0,0,0,0,0,0,0,0,0,-1,1833,435,0,0
616,589,0,0,0,0,0,0,0,0,0,-1,1840,435,0,0
623,589,0,0,0,0,0,0,0,0,0,-1,1847,435,0,0
630,589,0,0,0,0,0,0,0,0,0,-1,1854,435,0,0
637,589,0,0,0,0,0,0,0,0,0,-1,1861,435,0,0
644,589,0,0,0,0,0,0,0,0,0,-1,1868,435,0,0
651,589,0,0,0,0,0,0,0,0,0,-1,1875,435,0,0
658,589,0,0,0,0,0,0,0,0,0,-1,1882,435,0,0
665,589,0,0,0,0,0,0,0,0,0,-1,1889,435,0,0
672,589,0,0,0,0,0,0,0,0,0,-1,1896,435,0,0
679,589,0,0,0,0,0,0,0,0,0,-1,1903,435,0,0
686,589,0,0,0,0,0,0,0,0,0,-1,1910,435,0,0
693,589,0,0,0,0,0,0,0,0,0,-1,1917,435,0,0
700,589,0,0,0,0,0,0,0,0,0,-1,1924,435,0,0
707,589,0,0,0,0,0,0,0,0,0,-1,1931,435,0,0
714,589,0,0,0,0,0,0,0,0,0,-1,1938,435,0,0
721,589,0,0,0,0,0,0,0,0,0,-1,1945,435,0,0
728,589,0,0,0,0,0,0,0,0,0,-1,1952,435,0,0
735,589,0,0,0,0,0,0,0,0,0,-1,1959,435,0,0
742,589,0,0,0,0,0,0,0,0,0,-1,1966,435,0,0
749,589,0,0,0,0,0,0,0,0,0,-1,1973,435,0,0
756,589,0,0,0,0,0,0,0,0,0,-1,1980,435,0,0
763,589,0,0,0,0,0,0,0,0,0,-1,1987,435,0,0
770,589,0,0,0,0,0,0,0,0,0,-1,1994,435,0,0
777,589,0,0,0,0,0,0,0,0,0,-1,2001,435,0,0
784,589,0,0,0,0,0,0,0,0,0,-1,2008,435,0,0
791,589,0,0,0,0,0,0,0,0,0,-1,2015,435,0,0
798,589,0,0,0,0,0,0,0,0,0,-1,2022,435,0,0
805,589,0,0,0,0,0,0,0,0,0,-1,2029,435,0,0
812,589,0,0,0,0,0,0,0,0,0,-1,2036,435,0,0
-700,582,0,0,0,0,0,0,0,0,0,-1,524,442,0,0
-693,582,0,0,0,0,0,0,0,0,0,-1,531,442,0,0
-686,582,0,0,0,0,0,0,0,0,0,-1,538,442,0,0
-679,582,0,0,0,0,0,0,0,0,0,-1,545,442,0,0
-672,582,0,0,0,0,0,0,0,0,0,-1,552,442,0,0
-665,582,0,0,0,0,0,0,0,0,0,-1,559,442,0,0
-658,582,0,0,0,0,0,0,0,0,0,-1,566,442,0,0
-651,582,0,0,0,0,0,0,0,0,0,-1,573,442,0,0
-644,582,0,0,0,0,0,0,0,0,0,-1,580,442,0,0
-637,582,0,0,0,0,0,0,0,0,0,-1,587,442,0,0
-630,582,0,0,0,0,0,0,0,0,0,-1,594,442,0,0
-623,582,0,0,0,0,0,0,0,0,0,-1,601,442,0,0
-616,582,0,0,0,0,0,0,0,0,0,-1,608,442,0,0
-609,582,0,0,0,0,0,0,0,0,0,-1,615,442,0,0
-602,582,0,0,0,0,0,0,0,0,0,-1,622,442,0,0
-595,582,0,0,0,0,0,0,0,0,0,-1,629,442,0,0
-588,582,0,0,0,0,0,0,0,0,0,-1,636,442,0,0
-581,582,0,0,0,0,0,0,0,0,0,-1,643,442,0,0
-574,582,0,0,0,0,0,0,0,0,0,-1,650,442,0,0
-567,582,0,0,0,0,0,0,0,0,0,-1,657,442,0,0
-560,582,0,0,0,0,0,0,0,0,0,-1,664,442,0,0
-553,582,0,0,0,0,0,0,0,0,0,-1,671,442,0,0
-546,582,0,0,0,0,0,0,0,0,0,-1,678,442,0,0
-539,582,0,0,0,0,0,0,0,0,0,-1,685,442,0,0
-532,582,0,0,0,0,0,0,0,0,0,-1,692,442,0,0
-525,582,0,0,0,0,0,0,0,0,0,-1,699,442,0,0
-518,582,0,0,0,0,0,0,0,0,0,-1,706,442,0,0
-511,582,0,0,0,0,0,0,0,0,0,-1,713,442,0,0
-504,582,0,0,0,0,0,0,0,0,0,-1,720,442,0,0
-497,582,0,0,0,0,0,0,0,0,0,-1,727,442,0,0
-490,582,0,0,0,0,0,0,0,0,0,-1,734,442,0,0
-483,582,0,0,0,0,0,0,0,0,0,-1,741,442,0,0
-476,582,0,0,0,0,0,0,0,0,0,-1,748,442,0,0
-469,582,0,0,0,0,0,0,0,0,0,-1,755,442,0,0
-462,582,0,0,0,0,0,0,0,0,0,-1,762,442,0,0
-455,582,0,0,0,0,0,0,0,0,0,-1,769,442,0,0
-448,582,0,0,0,0,0,0,0,0,0,-1,776,442,0,0
-441,582,0,0,0,0,0,0,0,0,0,-1,783,442,0,0
-434,582,0,0,0,0,0,0,0,0,0,-1,790,442,0,0
-427,582,0,0,0,0,0,0,0,0,0,-1,797,442,0,0
-420,582,0,0,0,0,0,0,0,0,0,-1,804,442,0,0
-413,582,0,0,0,0,0,0,0,0,0,-1,811,442,0,0
-406,582,0,0,0,0,0,0,0,0,0,-1,818,442,0,0
-399,582,0,0,0,0,0,0,0,0,0,-1,825,442,0,0
-392,582,0,0,0,0,0,0,0,0,0,-1,832,442,0,0
-385,582,0,0,0,0,0,0,0,0,0,-1,839,442,0,0
-378,582,0,0,0,0,0,0,0,0,0,-1,846,442,0,0
-371,582,0,0,0,0,0,0,0,0,0,-1,853,442,0,0
-364,582,0,0,0,0,0,0,0,0,0,-1,860,442,0,0
-357,582,7.26355,-2.38049,0,0,0,0,0,0,0,-1,867,442,7.26357,2.38048
-350,582,6.43408,-2.89325,0,0,0,0,0,0,0,-1,874,442,6.43409,2.89326
-343,582,5.10767,-3.36661,0,0,0,0,0,0,0,-1,881,442,5.10769,3.36661
-336,582,4.19745,-3.18893,0,0,0,0,0,0,0,-1,888,442,4.19743,3.18893
-329,582,3.96063,-3.10907,0,0,0,0,0,0,0,-1,895,442,3.96065,3.10907
-322,582,3.27301,-1.30569,-0.0252053,0.0123879,0.00164991,0.0124602,-0.0252775,1.52702,0.0222028,0.0432015,902,442,3.27299,1.30568
-315,582,2.78595,-1.33817,-0.0214835,0.00876857,0.00242134,0.00896114,-0.0216761,1.49143,0.0181891,0.0437107,909,442,2.78592,1.33817
-308,582,2.19788,-1.33316,-0.0172983,0.00533922,0.00334486,0.0058231,-0.0177822,1.42713,0.0141996,0.0441991,916,442,2.19789,1.33317
-301,582,1.85352,-0.982941,0,0,0,0,0,0,0,-1,923,442,1.8535,0.982943
-294,582,1.82764,-0.991486,-0.00886026,0.000614269,0.00534402,0.00301845,-0.0112644,1.14804,0.00869226,0.0402501,930,442,1.82765,0.991501
-287,582,1.73853,-1.0336,-0.00565004,0.000118485,0.00588524,0.00378823,-0.00931978,1.01324,0.00778929,0.0329031,937,442,1.73854,1.03361
-280,582,1.70862,-1.08667,-0.00281189,7.1181e-05,0.00613328,0.00493006,-0.00767077,0.900821,0.00733223,0.0153506,944,442,1.70859,1.08668
-273,582,1.70734,-1.12784,-0.000423393,-6.69835e-05,0.00622736,0.00598472,-0.0064751,0.799702,0.00719554,0.00961978,951,442,1.70733,1.12785
-266,582,1.71655,-1.16656,0.000908857,0.000657064,0.0060424,0.00682667,-0.00526075,0.774982,0.00699817,0.00881192,958,442,1.71657,1.16657
-259,582,1.71747,-1.20175,0.0021577,0.00136978,0.00576064,0.00753783,-0.00401035,0.751257,0.00677024,0.00782621,965,442,1.7175,1.20176
-252,582,1.71692,-1.23666,0.0027529,0.00188951,0.0050807,0.00742022,-0.0027778,0.743016,0.00608779,0.00805383,972,442,1.71689,1.23666
-245,582,1.72882,-1.27032,0.00244982,0.00219383,0.00436199,0.00668569,-0.00204204,0.770731,0.00527134,0.0109108,979,442,1.72882,1.27034
-238,582,1.72809,-1.29968,0.001827,0.00232908,0.00338807,0.0054754,-0.00131932,0.822379,0.00416037,0.0146626,986,442,1.72808,1.2997
-231,582,1.71991,-1.33374,0.00114608,0.00202068,0.00240507,0.00402789,-0.000861125,0.875327,0.00301359,0.0116922,993,442,1.7199,1.33374
-224,582,1.71289,-1.371,0.000533264,0.001579,0.00152121,0.00266469,-0.000552428,0.950932,0.00198637,0.00977403,1000,442,1.71289,1.37099
-217,582,1.72516,-1.40411,0.000179521,0.000907337,0.000825632,0.0014457,-0.000358844,0.992971,0.00110305,0.0115097,1007,442,1.72515,1.4041
-210,582,1.73846,-1.43073,0.000118887,-5.12548e-05,0.000494282,0.000535365,-0.000467733,0.700178,0.000579577,0.012182,1014,442,1.73844,1.43074
-203,582,1.73895,-1.45087,0.000338984,-0.000941048,0.000297528,0.000404761,-0.00100682,0.217578,0.000839325,0.0105165,1021,442,1.73893,1.45088
-196,582,1.72168,-1.49146,0.000530006,-0.00184393,0.000241368,0.000554298,-0.00186822,0.100306,0.00146561,0.0152218,1028,442,1.72168,1.49147
-189,582,1.69507,-1.53101,0.000609846,-0.00294114,0.000345543,0.000643158,-0.00297445,0.0961078,0.00222851,0.0200823,1035,442,1.69506,1.531
-182,582,1.7301,-1.56409,0.00112729,-0.00369212,0.000639777,0.00121078,-0.0037756,0.129756,0.00300315,0.0140049,1042,442,1.73014,1.56408
-175,582,1.75049,-1.56396,0.00189472,-0.00474638,0.00105715,0.00205894,-0.0049106,0.154111,0.00413462,0.0130353,1049,442,1.75045,1.56396
-168,582,1.75061,-1.60281,0.00295592,-0.00566897,0.00125465,0.00313472,-0.00584778,0.141561,0.00526431,0.0110264,1056,442,1.75063,1.6028
-161,582,1.73914,-1.62045,0.00407991,-0.0064579,0.00118822,0.00421223,-0.00659022,0.110902,0.00628697,0.0120231,1063,442,1.73909,1.62044
-154,582,1.72559,-1.64682,0.00528866,-0.0070016,0.00118913,0.00540266,-0.0071156,0.0955723,0.00724994,0.0117284,1070,442,1.72556,1.64683
-147,582,1.73975,-1.66565,0.00660712,-0.00733584,0.00120504,0.0067105,-0.00743922,0.0855809,0.00817295,0.0106545,1077,442,1.73977,1.66565
-140,582,1.75342,-1.67032,0.00812155,-0.0075672,0.00105592,0.0081923,-0.00763795,0.0669023,0.00914146,0.0100276,1084,442,1.75343,1.67032
-133,582,1.75854,-1.69986,0.00940052,-0.00769382,0.000711364,0.00943008,-0.00772338,0.0415183,0.00991988,0.0118588,1091,442,1.75856,1.69985
-126,582,1.76038,-1.73041,0.0102175,-0.00764055,0.000327305,0.0102235,-0.00764655,0.0183199,0.010353,0.0112211,1098,442,1.76035,1.7304
-119,582,1.72778,-1.73697,0.0108281,-0.00742913,8.98366e-05,0.0108285,-0.00742957,0.00492045,0.010602,0.016571,1105,442,1.72774,1.73698
-112,582,1.65942,-1.77789,0.0106543,-0.00686186,0.000161916,0.0106558,-0.00686336,0.00924273,0.0101934,0.0246942,1112,442,1.65944,1.7779
-105,582,1.54272,-1.78098,0.00955152,-0.00549939,0.000608826,0.00957611,-0.00552398,0.0403632,0.00882205,0.0307429,1119,442,1.54274,1.78098
-98,582,1.34949,-1.87286,0.00768613,-0.00448093,0.00113963,0.00779196,-0.00458675,0.092592,0.00722627,0.0335165,1126,442,1.3495,1.87287
-91,582,1.56958,-1.74243,0.00482433,-0.00322905,0.00225839,0.00541441,-0.00381913,0.255569,0.00535744,0.0357398,1133,442,1.56959,1.74243
-84,582,1.79553,-1.74429,0.0053218,0.000509301,0.00572143,0.00912238,-0.00329128,0.586343,0.00742592,0.0394204,1140,442,1.79557,1.7443
-77,582,1.46777,-1.8894,0.0067416,0.00196529,0.00984342,0.0144824,-0.00577554,0.66639,0.0120507,0.0435092,1147,442,1.46781,1.88941
-70,582,1.17493,-1.98538,0,0,0,0,0,0,0,-1,1154,442,1.17493,1.98538
-63,582,-0.234375,-1.98166,0,0,0,0,0,0,0,-1,1161,442,-0.234317,1.98166
-56,582,-0.503296,-2.82614,0,0,0,0,0,0,0,-1,1168,442,-0.503296,2.82614
-49,582,-0.232422,-3.29642,0,0,0,0,0,0,0,-1,1175,442,-0.232478,3.2964
-42,582,-0.948975,1.13968,0,0,0,0,0,0,0,-1,1182,442,-0.949003,-1.13969
-35,582,-1.0365,-2.55014,0,0,0,0,0,0,0,-1,1189,442,-1.03651,2.55015
-28,582,0.422729,-2.06506,0,0,0,0,0,0,0,-1,1196,442,0.422713,2.06507
-21,582,1.6781,-1.61069,0.0401104,0.00299142,0.0149826,0.0454032,-0.00230141,0.339581,0.0310644,0.0462039,1203,442,1.67812,1.6107
-14,582,2.33337,-1.474,0.0396507,0.000410664,0.0144841,0.0444179,-0.00435651,0.317964,0.0311657,0.0457757,1210,442,2.33337,1.47401
-7,582,3.00085,-1.33029,0,0,0,0,0,0,0,-1,1217,442,3.00081,1.33028
0,582,0.572876,-0.958466,0,0,0,0,0,0,0,-1,1224,442,0.572888,0.958472
7,582,1.0144,-1.66415,0,0,0,0,0,0,0,-1,1231,442,1.01445,1.66415
14,582,1.33557,-1.7742,0,0,0,0,0,0,0,-1,1238,442,1.33553,1.77421
21,582,1.94409,-2.0257,0.021174,-0.0255425,0.0197403,0.0283982,-0.0327667,0.350824,0.0353436,0.043645,1245,442,1.94411,2.0257
28,582,1.76733,-2.09488,0.0200383,-0.0336942,0.020994,0.0272682,-0.040924,0.331656,0.0396331,0.0451026,1252,442,1.7673,2.09487
35,582,1.72961,-2.1763,0.0199124,-0.0412031,0.0228152,0.0274901,-0.0487807,0.320669,0.0446032,0.0450502,1259,442,1.72956,2.17631
42,582,1.8064,-2.43973,0.0218418,-0.0485183,0.0238803,0.0291812,-0.0558577,0.298179,0.049896,0.0428888,1266,442,1.80636,2.43973
49,582,1.57495,-1.88177,0.0248954,-0.0549637,0.0235676,0.0313318,-0.0614001,0.266603,0.0544689,0.0446158,1273,442,1.575,1.88177
56,582,1.18127,-1.26407,0.029261,-0.0586899,0.021678,0.0343139,-0.0637428,0.228999,0.0574567,0.0466863,1280,442,1.18128,1.26408
63,582,0.893921,-0.5961,0.0326743,-0.0593995,0.0187445,0.0363441,-0.0630692,0.193333,0.0580835,0.0415668,1287,442,0.893904,0.596091
70,582,0.781494,-0.123566,0.0351238,-0.0570356,0.0146063,0.0373833,-0.0592951,0.153481,0.0562932,0.0427109,1294,442,0.781462,0.123553
77,582,0.891724,-3.14835,0.0361635,-0.052833,0.0102898,0.0373377,-0.0540072,0.113623,0.0530299,0.0465234,1301,442,0.891756,3.14836
84,582,1.35632,-2.3949,0.0347605,-0.0454299,0.00571733,0.0351661,-0.0458355,0.0708194,0.0469013,0.049187,1308,442,1.35632,2.39488
91,582,4.02966,-0.597107,0.0299241,-0.0351748,0.000873595,0.0299358,-0.0351865,0.0134163,0.0376391,0.0437251,1315,442,4.02965,0.597092
98,582,4.53845,-1.03702,0.0233684,-0.0232835,-0.00349123,0.0236282,-0.0235433,-0.0742845,0.0272345,0.0437489,1322,442,4.53847,1.03703
105,582,5.29382,-1.51819,0.0156883,-0.0108696,-0.00681445,0.0173347,-0.0125161,-0.237067,0.0173091,0.0450198,1329,442,5.29383,1.51817
112,582,3.12891,-1.78061,0,0,0,0,0,0,0,-1,1336,442,3.12888,1.78061
119,582,3.13464,-2.00772,-0.00261026,0.0121638,-0.0107096,0.0177869,-0.00823339,-1.08731,0.0153567,0.0457876,1343,442,3.13463,2.00771
126,582,3.10767,-2.28064,-0.0129898,0.0210605,-0.0110794,0.0243481,-0.0162774,-1.28234,0.023609,0.0473797,1350,442,3.10765,2.28063
133,582,3.02649,-2.57248,-0.0230556,0.0274803,-0.0105087,0.0295784,-0.0251537,-1.37373,0.031634,0.0460824,1357,442,3.02652,2.57246
140,582,2.92578,-2.80026,-0.031392,0.0315784,-0.0101022,0.0331594,-0.032973,-1.41556,0.0381816,0.0450825,1364,442,2.92575,2.80026
147,582,3.52039,-2.85828,-0.0377274,0.0321012,-0.00959835,0.0333965,-0.0390228,-1.43665,0.0418533,0.049407,1371,442,3.52033,2.85829
154,582,3.82043,-2.93173,0,0,0,0,0,0,0,-1,1378,442,3.82039,2.93174
161,582,1.97644,-1.19525,0,0,0,0,0,0,0,-1,1385,442,1.97649,1.19525
168,582,3.28796,-0.962494,0,0,0,0,0,0,0,-1,1392,442,3.28793,0.962509
175,582,4.40955,-1.85992,0,0,0,0,0,0,0,-1,1399,442,4.40957,1.85991
182,582,4.03809,-1.64264,0,0,0,0,0,0,0,-1,1406,442,4.03811,1.64264
189,582,2.97314,-1.01117,0,0,0,0,0,0,0,-1,1413,442,2.97313,1.01117
196,582,3.87463,-1.72253,0,0,0,0,0,0,0,-1,1420,442,3.87467,1.72253
203,582,2.81055,-1.26852,-0.0444564,0.00125828,-0.0298558,0.0160018,-0.0591999,-1.1121,0.0457432,0.0432747,1427,442,2.81054,1.26851
210,582,1.81714,-1.61719,-0.0394063,4.80659e-05,-0.030263,0.0164458,-0.055804,-1.07424,0.0437279,0.0415603,1434,442,1.81715,1.61719
217,582,2.02881,-1.73999,0,0,0,0,0,0,0,-1,1441,442,2.02887,1.73998
224,582,2.26819,-2.11014,-0.0310833,0.000267389,-0.025253,0.0143146,-0.0451305,-1.06316,0.0358249,0.0374206,1448,442,2.26819,2.11014
231,582,2.1571,-1.90414,-0.0265143,-0.000414489,-0.0223694,0.0124333,-0.0393621,-1.04945,0.0312222,0.0352668,1455,442,2.15716,1.90414
238,582,2.07629,-1.71564,-0.0219827,-0.00110246,-0.0199987,0.0110172,-0.0341024,-1.02596,0.0271626,0.0299404,1462,442,2.07635,1.71564
245,582,2.05811,-1.73044,-0.017091,-0.00184018,-0.0177147,0.00982057,-0.0287517,-0.98864,0.0231465,0.0259561,1469,442,2.05808,1.73045
252,582,2.1051,-1.70166,-0.0129612,-0.00250066,-0.0160026,0.00910472,-0.0245666,-0.943345,0.0201118,0.0166141,1476,442,2.10511,1.70167
259,582,2.08118,-1.69992,-0.00916019,-0.00233815,-0.014145,0.00880134,-0.0202997,-0.903712,0.0172331,0.0126716,1483,442,2.08124,1.69993
266,582,2.05994,-1.69476,-0.00625477,-0.00290108,-0.0126091,0.00814216,-0.017298,-0.851504,0.0150016,0.00982564,1490,442,2.05992,1.69478
273,582,2.04272,-1.68399,-0.00478062,-0.00309745,-0.0111758,0.00726845,-0.0151465,-0.822979,0.013205,0.00976193,1497,442,2.04273,1.684
280,582,2.05066,-1.67499,-0.00353475,-0.0032972,-0.00979358,0.00637833,-0.0132103,-0.791462,0.0115365,0.0109817,1504,442,2.05062,1.67499
287,582,2.07385,-1.65356,-0.00259514,-0.0031006,-0.0086524,0.00580823,-0.011504,-0.770797,0.0101739,0.0113146,1511,442,2.0738,1.65357
294,582,2.07263,-1.62088,-0.00209821,-0.00227415,-0.00744582,0.00526016,-0.00963252,-0.779491,0.00872094,0.00894439,1518,442,2.07267,1.62087
301,582,2.08643,-1.57458,-0.00183303,-0.00162134,-0.00623859,0.0045123,-0.00796667,-0.79388,0.00729617,0.00929683,1525,442,2.08646,1.57459
308,582,2.09375,-1.54535,-0.00159817,-0.00112751,-0.0049385,0.00358126,-0.00630695,-0.809206,0.0057808,0.0121322,1532,442,2.09377,1.54536
315,582,2.08789,-1.53201,-0.00149773,-0.000819364,-0.00376957,0.00262626,-0.00494335,-0.830267,0.00443804,0.0134841,1539,442,2.08794,1.53202
322,582,2.09241,-1.50018,-0.00150541,-0.000876642,-0.00278644,0.00161309,-0.00399514,-0.841574,0.00333385,0.0106607,1546,442,2.09236,1.50019
329,582,2.08313,-1.46439,-0.00167039,-0.00142176,-0.00207674,0.000534379,-0.00362653,-0.815292,0.00261409,0.00959618,1553,442,2.08315,1.46437
336,582,2.07153,-1.427,-0.00187865,-0.00183655,-0.00149784,-0.000359616,-0.00335558,-0.792425,0.00212734,0.0102387,1560,442,2.07153,1.42701
343,582,2.07495,-1.38336,-0.00230887,-0.00249955,-0.000932917,-0.00146643,-0.00334199,-0.734477,0.00193431,0.0136314,1567,442,2.07491,1.38336
350,582,2.06665,-1.3772,-0.00289682,-0.00320092,-0.000566467,-0.00246235,-0.00363539,-0.654278,0.00214244,0.0165152,1574,442,2.06664,1.37721
357,582,2.07715,-1.35229,-0.00284846,-0.00374768,5.69776e-07,-0.00284846,-0.00374768,0.000633629,0.00225918,0.0127791,1581,442,2.07712,1.35229
364,582,2.0946,-1.31079,-0.00248814,-0.00410538,0.000426015,-0.00238278,-0.00421074,0.242444,0.0024381,0.0100726,1588,442,2.09455,1.3108
371,582,2.10413,-1.29559,-0.00201013,-0.00405766,0.000525573,-0.0018831,-0.00418469,0.237145,0.00242005,0.0139469,1595,442,2.10407,1.2956
378,582,2.09363,-1.27841,-0.00173538,-0.00394057,0.000681434,-0.0015418,-0.00413415,0.276785,0.0024124,0.0141287,1602,442,2.09358,1.2784
385,582,2.08862,-1.23923,-0.00129794,-0.0035824,0.000661319,-0.00112031,-0.00376003,0.262407,0.00222915,0.0101994,1609,442,2.08861,1.23922
392,582,2.08472,-1.18735,-0.000528537,-0.00290961,0.000407696,-0.000460665,-0.00297749,0.164965,0.00185065,0.00935654,1616,442,2.08468,1.18736
399,582,2.07629,-1.1402,0.000727096,-0.0024764,-7.09913e-06,0.000727111,-0.00247641,-0.00221604,0.00193929,0.01097,1623,442,2.0763,1.14021
406,582,2.08179,-1.11429,0.00218353,-0.00188222,-0.000307507,0.00220666,-0.00190534,-0.0750644,0.00237619,0.0153651,1630,442,2.08177,1.11428
413,582,2.17505,-1.0437,0.00377148,-0.00130579,-0.000675525,0.00385982,-0.00139413,-0.130035,0.00314275,0.02443,1637,442,2.17499,1.04371
420,582,2.16199,-0.943939,0.00533035,-0.000372092,-0.00122818,0.00558362,-0.000625364,-0.203367,0.00394742,0.0295304,1644,442,2.16205,0.943947
427,582,1.9917,-0.926178,0.00730296,0.000321763,-0.00188101,0.00777752,-0.000152796,-0.247132,0.00523669,0.033235,1651,442,1.99172,0.926185
434,582,1.96265,-0.944489,0.00944163,0.00192314,-0.00227682,0.0100774,0.0012874,-0.272285,0.00633288,0.0426981,1658,442,1.96264,0.944477
441,582,1.97266,-0.935303,0.0112266,0.00514192,-0.00203256,0.0118431,0.00452542,-0.294493,0.00690069,0.0462052,1665,442,1.97268,0.935313
448,582,1.94861,-0.968323,0,0,0,0,0,0,0,-1,1672,442,1.94858,0.968315
455,582,3.0033,-0.667694,0,0,0,0,0,0,0,-1,1679,442,3.00334,0.667706
462,582,3.40491,-0.0499878,0,0,0,0,0,0,0,-1,1686,442,3.40493,0.0499774
469,582,3.72168,-0.229401,0,0,0,0,0,0,0,-1,1693,442,3.72166,0.229415
476,582,-0.57251,-0.303253,0,0,0,0,0,0,0,-1,1700,442,-0.572468,0.303263
483,582,0,0,0,0,0,0,0,0,0,-1,1707,442,0,0
490,582,0,0,0,0,0,0,0,0,0,-1,1714,442,0,0
497,582,0,0,0,0,0,0,0,0,0,-1,1721,442,0,0
504,582,0,0,0,0,0,0,0,0,0,-1,1728,442,0,0
511,582,0,0,0,0,0,0,0,0,0,-1,1735,442,0,0
518,582,0,0,0,0,0,0,0,0,0,-1,1742,442,0,0
525,582,0,0,0,0,0,0,0,0,0,-1,1749,442,0,0
532,582,0,0,0,0,0,0,0,0,0,-1,1756,442,0,0
539,582,0,0,0,0,0,0,0,0,0,-1,1763,442,0,0
546,582,0,0,0,0,0,0,0,0,0,-1,1770,442,0,0
553,582,0,0,0,0,0,0,0,0,0,-1,1777,442,0,0
560,582,0,0,0,0,0,0,0,0,0,-1,1784,442,0,0
567,582,0,0,0,0,0,0,0,0,0,-1,1791,442,0,0
574,582,0,0,0,0,0,0,0,0,0,-1,1798,442,0,0
581,582,0,0,0,0,0,0,0,0,0,-1,1805,442,0,0
588,582,0,0,0,0,0,0,0,0,0,-1,1812,442,0,0
595,582,0,0,0,0,0,0,0,0,0,-1,1819,442,0,0
602,582,0,0,0,0,0,0,0,0,0,-1,1826,442,0,0
609,582,0,0,0,0,0,0,0,0,0,-1,1833,442,0,0
616,582,0,0,0,0,0,0,0,0,0,-1,1840,442,0,0
623,582,0,0,0,0,0,0,0,0,0,-1,1847,442,0,0
630,582,0,0,0,0,0,0,0,0,0,-1,1854,442,0,0
637,582,0,0,0,0,0,0,0,0,0,-1,1861,442,0,0
644,582,0,0,0,0,0,0,0,0,0,-1,1868,442,0,0
651,582,0,0,0,0,0,0,0,0,0,-1,1875,442,0,0
658,582,0,0,0,0,0,0,0,0,0,-1,1882,442,0,0
665,582,0,0,0,0,0,0,0,0,0,-1,1889,442,0,0
672,582,0,0,0,0,0,0,0,0,0,-1,1896,442,0,0
679,582,0,0,0,0,0,0,0,0,0,-1,1903,442,0,0
686,582,0,0,0,0,0,0,0,0,0,-1,1910,442,0,0
693,582,0,0,0,0,0,0,0,0,0,-1,1917,442,0,0
700,582,0,0,0,0,0,0,0,0,0,-1,1924,442,0,0
707,582,0,0,0,0,0,0,0,0,0,-1,1931,442,0,0
714,582,0,0,0,0,0,0,0,0,0,-1,1938,442,0,0
721,582,0,0,0,0,0,0,0,0,0,-1,1945,442,0,0
728,582,0,0,0,0,0,0,0,0,0,-1,1952,442,0,0
735,582,0,0,0,0,0,0,0,0,0,-1,1959,442,0,0
742,582,0,0,0,0,0,0,0,0,0,-1,1966,442,0,0
749,582,0,0,0,0,0,0,0,0,0,-1,1973,442,0,0
756,582,0,0,0,0,0,0,0,0,0,-1,1980,442,0,0
763,582,0,0,0,0,0,0,0,0,0,-1,1987,442,0,0
770,582,0,0,0,0,0,0,0,0,0,-1,1994,442,0,0
777,582,0,0,0,0,0,0,0,0,0,-1,2001,442,0,0
784,582,0,0,0,0,0,0,0,0,0,-1,2008,442,0,0
791,582,0,0,0,0,0,0,0,0,0,-1,2015,442,0,0
798,582,0,0,0,0,0,0,0,0,0,-1,2022,442,0,0
805,582,0,0,0,0,0,0,0,0,0,-1,2029,442,0,0
812,582,0,0,0,0,0,0,0,0,0,-1,2036,442,0,0
-700,575,0,0,0,0,0,0,0,0,0,-1,524,449,0,0
-693,575,0,0,0,0,0,0,0,0,0,-1,531,449,0,0
-686,575,0,0,0,0,0,0,0,0,0,-1,538,449,0,0
-679,575,0,0,0,0,0,0,0,0,0,-1,545,449,0,0
-672,575,0,0,0,0,0,0,0,0,0,-1,552,449,0,0
-665,575,0,0,0,0,0,0,0,0,0,-1,559,449,0,0
-658,575,0,0,0,0,0,0,0,0,0,-1,566,449,0,0
-651,575,0,0,0,0,0,0,0,0,0,-1,573,449,0,0
-644,575,0,0,0,0,0,0,0,0,0,-1,580,449,0,0
-637,575,0,0,0,0,0,0,0,0,0,-1,587,449,0,0
-630,575,0,0,0,0,0,0,0,0,0,-1,594,449,0,0
-623,575,0,0,0,0,0,0,0,0,0,-1,601,449,0,0
-616,575,0,0,0,0,0,0,0,0,0,-1,608,449,0,0
-609,575,0,0,0,0,0,0,0,0,0,-1,615,449,0,0
-602,575,0,0,0,0,0,0,0,0,0,-1,622,449,0,0
-595,575,0,0,0,0,0,0,0,0,0,-1,629,449,0,0
-588,575,0,0,0,0,0,0,0,0,0,-1,636,449,0,0
-581,575,0,0,0,0,0,0,0,0,0,-1,643,449,0,0
-574,575,0,0,0,0,0,0,0,0,0,-1,650,449,0,0
-567,575,0,0,0,0,0,0,0,0,0,-1,657,449,0,0
-560,575,0,0,0,0,0,0,0,0,0,-1,664,449,0,0
-553,575,0,0,0,0,0,0,0,0,0,-1,671,449,0,0
-546,575,0,0,0,0,0,0,0,0,0,-1,678,449,0,0
-539,575,0,0,0,0,0,0,0,0,0,-1,685,449,0,0
-532,575,0,0,0,0,0,0,0,0,0,-1,692,449,0,0
-525,575,0,0,0,0,0,0,0,0,0,-1,699,449,0,0
-518,575,0,0,0,0,0,0,0,0,0,-1,706,449,0,0
-511,575,0,0,0,0,0,0,0,0,0,-1,713,449,0,0
-504,575,0,0,0,0,0,0,0,0,0,-1,720,449,0,0
-497,575,0,0,0,0,0,0,0,0,0,-1,727,449,0,0
-490,575,0,0,0,0,0,0,0,0,0,-1,734,449,0,0
-483,575,0,0,0,0,0,0,0,0,0,-1,741,449,0,0
-476,575,0,0,0,0,0,0,0,0,0,-1,748,449,0,0
-469,575,0,0,0,0,0,0,0,0,0,-1,755,449,0,0
-462,575,0,0,0,0,0,0,0,0,0,-1,762,449,0,0
-455,575,0,0,0,0,0,0,0,0,0,-1,769,449,0,0
-448,575,0,0,0,0,0,0,0,0,0,-1,776,449,0,0
-441,575,0,0,0,0,0,0,0,0,0,-1,783,449,0,0
-434,575,0,0,0,0,0,0,0,0,0,-1,790,449,0,0
-427,575,0,0,0,0,0,0,0,0,0,-1,797,449,0,0
-420,575,0,0,0,0,0,0,0,0,0,-1,804,449,0,0
-413,575,0,0,0,0,0,0,0,0,0,-1,811,449,0,0
-406,575,0,0,0,0,0,0,0,0,0,-1,818,449,0,0
-399,575,0,0,0,0,0,0,0,0,0,-1,825,449,0,0
-392,575,0,0,0,0,0,0,0,0,0,-1,832,449,0,0
-385,575,0,0,0,0,0,0,0,0,0,-1,839,449,0,0
-378,575,0,0,0,0,0,0,0,0,0,-1,846,449,0,0
-371,575,1.26526,-1.20728,0,0,0,0,0,0,0,-1,853,449,1.26525,1.20729
-364,575,1.71039,-1.26788,0,0,0,0,0,0,0,-1,860,449,1.71038,1.26788
-357,575,2.17505,-1.27948,0,0,0,0,0,0,0,-1,867,449,2.17504,1.27948
-350,575,7.22791,-4.32208,0,0,0,0,0,0,0,-1,874,449,7.22788,4.32208
-343,575,5.16705,-2.79279,0,0,0,0,0,0,0,-1,881,449,5.16704,2.7928
-336,575,4.48407,-3.51086,0,0,0,0,0,0,0,-1,888,449,4.4841,3.51087
-329,575,3.80115,-4.22894,0,0,0,0,0,0,0,-1,895,449,3.80116,4.22895
-322,575,1.57117,-0.644775,-0.0190789,0.00898407,0.0017158,0.00908859,-0.0191834,1.50996,0.0166661,0.0436853,902,449,1.57116,0.644785
-315,575,2.80511,-1.24844,-0.0167105,0.00654462,0.00212209,0.00673668,-0.0169026,1.48054,0.0140625,0.0436315,909,449,2.8051,1.24843
-308,575,1.54327,-1.07022,-0.0138893,0.00414902,0.00252904,0.00449689,-0.0142372,1.4341,0.0112929,0.0384489,916,449,1.54326,1.07021
-301,575,1.69885,-1.00272,-0.0110328,0.0024061,0.00292765,0.00301619,-0.0116429,1.36535,0.0089386,0.0274772,923,449,1.69887,1.00271
-294,575,1.77032,-0.988525,-0.00813118,0.000580278,0.00352975,0.00183093,-0.00938183,1.23028,0.00694577,0.0209049,930,449,1.77031,0.988531
-287,575,1.74146,-1.0545,-0.00581547,0.000205108,0.00368405,0.00195235,-0.00756271,1.12794,0.00580311,0.0155518,937,449,1.74147,1.0545
-280,575,1.70197,-1.10168,-0.00337283,0.000151083,0.00364809,0.00244043,-0.00566218,1.01037,0.00479973,0.0118335,944,449,1.70195,1.10167
-273,575,1.69446,-1.14142,-0.00130212,3.34313e-05,0.00351347,0.00294202,-0.00421071,0.879309,0.00415122,0.0106243,951,449,1.69443,1.14142
-266,575,1.68304,-1.19238,-9.20172e-05,0.00067305,0.00321967,0.00353283,-0.0029518,0.844527,0.00374891,0.0117459,958,449,1.68307,1.19238
-259,575,1.68146,-1.22229,0.00116966,0.00129033,0.00288905,0.00411968,-0.00165969,0.795838,0.003436,0.0118752,965,449,1.68147,1.22229
-252,575,1.67157,-1.2337,0.00195522,0.00169254,0.00228752,0.00411517,-0.000467406,0.756722,0.00291178,0.0111099,972,449,1.67154,1.23369
-245,575,1.67236,-1.26923,0.00194376,0.00189641,0.00179588,0.00371612,0.000124049,0.778808,0.00243712,0.0132159,979,449,1.67239,1.26922
-238,575,1.68011,-1.30765,0.001647,0.00189613,0.00112095,0.00289941,0.00064372,0.840733,0.0017581,0.0128091,986,449,1.68013,1.30764
-231,575,1.68518,-1.33792,0.00130678,0.00145372,0.000478973,0.00186482,0.000895674,0.861502,0.00107694,0.0111221,993,449,1.68518,1.33791
-224,575,1.68488,-1.36215,0.00104955,0.000824989,-2.91033e-05,0.00105326,0.000821278,-0.126811,0.000639039,0.0120539,1000,449,1.68488,1.36215
-217,575,1.70123,-1.39154,0.000937347,-5.51002e-05,-0.00028856,0.00101515,-0.000132901,-0.263357,0.000725137,0.0103544,1007,449,1.70123,1.39154
-210,575,1.72595,-1.42328,0.00100664,-0.00126054,-0.000228182,0.00102938,-0.00128327,-0.0993185,0.00133789,0.0086794,1014,449,1.72594,1.42328
-203,575,1.71295,-1.45102,0.00132751,-0.00249009,5.22511e-06,0.00132752,-0.0024901,0.00136869,0.00223791,0.011985,1021,449,1.71296,1.45102
-196,575,1.71106,-1.5018,0.00163111,-0.00376493,0.000288604,0.00164651,-0.00378032,0.0532818,0.0032129,0.0151196,1028,449,1.71107,1.50181
-189,575,1.71167,-1.54407,0.001826,-0.00523131,0.00070026,0.00189481,-0.00530012,0.0979522,0.00430629,0.0146037,1035,449,1.71167,1.54408
-182,575,1.70801,-1.56042,0.00249051,-0.00629779,0.00123974,0.00266205,-0.00646933,0.137493,0.0054226,0.0128957,1042,449,1.70806,1.56044
-175,575,1.72449,-1.58179,0.00337054,-0.00768622,0.00185056,0.00367205,-0.00798773,0.161507,0.00688377,0.0110382,1049,449,1.72444,1.58178
-168,575,1.71106,-1.59894,0.00486086,-0.00884496,0.00211748,0.00518054,-0.00916465,0.149842,0.008388,0.00975988,1056,449,1.71105,1.59895
-161,575,1.71155,-1.62772,0.00645452,-0.00981468,0.00200682,0.00669841,-0.0100586,0.120936,0.00973926,0.0133077,1063,449,1.71158,1.62773
-154,575,1.71887,-1.64902,0.00814905,-0.0103995,0.00195195,0.00835224,-0.0106027,0.103721,0.0109693,0.0138167,1070,449,1.7189,1.64901
-147,575,1.73303,-1.64301,0.0100573,-0.0106527,0.00185378,0.010222,-0.0108173,0.0885729,0.0121487,0.0119454,1077,449,1.73302,1.64299
-140,575,1.73633,-1.62646,0.0122787,-0.0106993,0.00142202,0.0123664,-0.010787,0.061573,0.0133779,0.0171386,1084,449,1.73628,1.62646
-133,575,1.72522,-1.63745,0.0142998,-0.0105645,0.00078952,0.0143248,-0.0105896,0.0317106,0.0144381,0.0272879,1091,449,1.72525,1.63744
-126,575,1.69531,-1.58688,0.0157916,-0.010239,5.30035e-05,0.0157917,-0.0102391,0.00203619,0.0151424,0.03134,1098,449,1.69532,1.5869
-119,575,1.62061,-1.54459,0.0171179,-0.00974783,-0.000555202,0.0171294,-0.00975929,-0.0206541,0.0157174,0.0358808,1105,449,1.62055,1.54459
-112,575,1.53577,-1.51706,0.017523,-0.00894582,-0.000850801,0.0175503,-0.00897314,-0.0320994,0.0155779,0.0409164,1112,449,1.53574,1.51706
-105,575,2.31946,-1.98721,0,0,0,0,0,0,0,-1,1119,449,2.31947,1.98722
-98,575,2.86304,-2.3663,0,0,0,0,0,0,0,-1,1126,449,2.86305,2.36629
-91,575,3.09998,-2.48291,0,0,0,0,0,0,0,-1,1133,449,3.09997,2.4829
-84,575,1.72412,-1.60425,0.0122978,0.000682893,0.00535535,0.0143901,-0.00140942,0.372461,0.010096,0.0454756,1140,449,1.72412,1.60425
-77,575,1.6571,-1.84241,0.0142098,0.0020464,0.0108609,0.0205759,-0.00431968,0.530169,0.0153609,0.0415956,1147,449,1.65705,1.84241
-70,575,1.58618,-2.28448,0,0,0,0,0,0,0,-1,1154,449,1.58623,2.28449
-63,575,0.256958,-2.33072,0,0,0,0,0,0,0,-1,1161,449,0.256993,2.33071
-56,575,-0.513672,-2.09262,0,0,0,0,0,0,0,-1,1168,449,-0.513615,2.09262
-49,575,-1.19238,-3.28647,0,0,0,0,0,0,0,-1,1175,449,-1.19232,3.28646
-42,575,-0.830322,0.773499,0,0,0,0,0,0,0,-1,1182,449,-0.83038,-0.77351
-35,575,-0.62085,0.205139,0,0,0,0,0,0,0,-1,1189,449,-0.620855,-0.205126
-28,575,0.857666,-1.73978,0,0,0,0,0,0,0,-1,1196,449,0.857716,1.73976
-21,575,1.52039,-1.64944,0.046823,0.00386659,0.0165227,0.052443,-0.00175339,0.327862,0.0355609,0.0459158,1203,449,1.52041,1.64944
-14,575,2.19409,-1.53934,0.0460426,0.000587479,0.015747,0.0509648,-0.00433475,0.302959,0.0355098,0.043647,1210,449,2.19405,1.53934
-7,575,3.20923,-1.19281,0.0442994,-0.00421226,0.0149965,0.0485609,-0.00847382,0.276871,0.0355369,0.0467578,1217,449,3.20926,1.19281
0,575,4.09717,-0.835968,0,0,0,0,0,0,0,-1,1224,449,4.0972,0.835971
7,575,1.85449,-1.44098,0,0,0,0,0,0,0,-1,1231,449,1.85452,1.44097
14,575,1.61121,-1.58893,0.0297629,-0.0233995,0.0200063,0.0364505,-0.0300871,0.322596,0.038474,0.0448658,1238,449,1.61119,1.58891
21,575,1.36035,-1.75659,0.0264599,-0.0322398,0.0219917,0.0337849,-0.0395648,0.321524,0.0423923,0.043913,1245,449,1.36041,1.75658
28,575,1.29309,-2.10562,0,0,0,0,0,0,0,-1,1252,449,1.29309,2.10561
35,575,1.05933,-2.30908,0.0260038,-0.0514335,0.0260383,0.0339448,-0.0593745,0.296015,0.0545407,0.0422298,1259,449,1.05933,2.30909
42,575,0.993042,-2.44867,0.0283107,-0.0605109,0.0276682,0.0362243,-0.0684245,0.278582,0.061365,0.0407012,1266,449,0.993061,2.44867
49,575,0.543213,-1.81738,0.0317789,-0.0683723,0.0278972,0.0390253,-0.0756188,0.25414,0.0673044,0.0434595,1273,449,0.543208,1.8174
56,575,0.6698,-1.0361,0,0,0,0,0,0,0,-1,1280,449,0.669828,1.0361
63,575,0.558228,0.425385,0.0395069,-0.0727284,0.023449,0.0442091,-0.0774305,0.197901,0.0710964,0.04046,1287,449,0.558215,-0.425382
70,575,0.531006,1.05991,0.0410569,-0.0688495,0.0192118,0.0443184,-0.072111,0.16816,0.0678559,0.0414511,1294,449,0.530971,-1.05991
77,575,2.85156,0.386932,0.0406872,-0.0628663,0.014834,0.0427702,-0.0649493,0.139513,0.0626298,0.0454685,1301,449,2.85151,-0.386921
84,575,3.36401,-0.220642,0.0372968,-0.052923,0.0101809,0.0384314,-0.0540576,0.110986,0.053652,0.0459706,1308,449,3.36405,0.220633
91,575,3.75354,-0.63797,0.0296165,-0.0398707,0.00516812,0.0299988,-0.040253,0.0738338,0.0407037,0.0417451,1315,449,3.75357,0.637969
98,575,4.12354,-0.956329,0.0201762,-0.0249588,0.000759158,0.020189,-0.0249716,0.0168134,0.0261221,0.0422281,1322,449,4.12356,0.956319
105,575,4.56055,-1.33511,0.00997031,-0.00955247,-0.00279049,0.0103613,-0.0099435,-0.139222,0.0117238,0.0420576,1329,449,4.56059,1.3351
112,575,3.24805,-2.03406,0,0,0,0,0,0,0,-1,1336,449,3.24801,2.03405
119,575,3.45959,-2.19254,-0.0136975,0.0187432,-0.00703257,0.0202021,-0.0151565,-1.36625,0.0204835,0.0429919,1343,449,3.45961,2.19254
126,575,3.56042,-2.44675,-0.0268606,0.029467,-0.00734191,0.0304082,-0.0278018,-1.44329,0.0336188,0.0477225,1350,449,3.56045,2.44676
133,575,3.62061,-2.841,0,0,0,0,0,0,0,-1,1357,449,3.62059,2.84102
140,575,3.22961,-2.96542,0,0,0,0,0,0,0,-1,1364,449,3.2296,2.96542
147,575,3.76538,-3.06512,0,0,0,0,0,0,0,-1,1371,449,3.7654,3.06513
154,575,0.052124,-6.0589,0,0,0,0,0,0,0,-1,1378,449,0.0521023,6.05889
161,575,2.33167,-0.829712,0,0,0,0,0,0,0,-1,1385,449,2.33169,0.829697
168,575,3.95776,2.01065,0,0,0,0,0,0,0,-1,1392,449,3.9578,-2.01066
175,575,4.32617,1.93634,0,0,0,0,0,0,0,-1,1399,449,4.32612,-1.93634
182,575,4.34351,0.888519,0,0,0,0,0,0,0,-1,1406,449,4.34352,-0.888507
189,575,3.0542,-1.1412,0,0,0,0,0,0,0,-1,1413,449,3.0542,1.14121
196,575,4.22119,-1.18875,0,0,0,0,0,0,0,-1,1420,449,4.22122,1.18875
203,575,3.20129,-0.704285,-0.0589824,0.00221485,-0.0387478,0.0209889,-0.0777565,-1.11961,0.060069,0.0462289,1427,449,3.20127,0.704297
210,575,1.88184,-1.83453,-0.0518884,-0.000528605,-0.0402159,0.0215071,-0.0739241,-1.06954,0.0578013,0.0461953,1434,449,1.88178,1.83452
217,575,2.45886,-1.86093,0,0,0,0,0,0,0,-1,1441,449,2.45884,1.86093
224,575,2.60303,-2.42383,-0.0406037,-0.00104917,-0.0335524,0.018121,-0.0597739,-1.05171,0.0470671,0.0425412,1448,449,2.60309,2.42382
231,575,2.57166,-2.67563,-0.034785,-0.00211313,-0.0299955,0.0157064,-0.0526045,-1.03475,0.0413127,0.0441018,1455,449,2.5716,2.67562
238,575,2.82471,-2.79401,0,0,0,0,0,0,0,-1,1462,449,2.82475,2.79402
245,575,2.3623,-1.72534,0,0,0,0,0,0,0,-1,1469,449,2.36226,1.72534
252,575,2.39075,-1.70355,-0.0178165,-0.00504371,-0.0220466,0.0115229,-0.0343831,-0.926378,0.0275775,0.0383701,1476,449,2.39075,1.70357
259,575,2.34143,-1.69135,-0.0131462,-0.00488121,-0.0197261,0.0111407,-0.029168,-0.888651,0.0240355,0.0320021,1483,449,2.34138,1.69135
266,575,2.23743,-1.70987,-0.00943306,-0.00544271,-0.0177231,0.0103972,-0.0252729,-0.84145,0.0211827,0.0235971,1490,449,2.23747,1.70986
273,575,2.11536,-1.70953,-0.00736886,-0.00548469,-0.0158413,0.00944254,-0.0222961,-0.815098,0.0188185,0.0173652,1497,449,2.1154,1.70954
280,575,2.06445,-1.67841,-0.00563264,-0.00545834,-0.0140249,0.00847972,-0.0195707,-0.788505,0.0166115,0.014576,1504,449,2.06451,1.67842
287,575,2.08923,-1.63821,-0.00423355,-0.00481921,-0.0124828,0.00795983,-0.0170126,-0.773671,0.0147302,0.0117343,1511,449,2.08921,1.6382
294,575,2.1001,-1.60498,-0.00344234,-0.00342572,-0.0108931,0.0074591,-0.0143272,-0.785779,0.012785,0.00984895,1518,449,2.10013,1.60497
301,575,2.11536,-1.58322,-0.00306088,-0.00213961,-0.00931448,0.00672562,-0.0119261,-0.810105,0.0109072,0.00936795,1525,449,2.11535,1.58322
308,575,2.1217,-1.55447,-0.00262409,-0.00115041,-0.0076093,0.00575764,-0.00953215,-0.833665,0.00891677,0.0106363,1532,449,2.12174,1.55448
315,575,2.10938,-1.53018,-0.00237106,-0.000238312,-0.00610572,0.00489346,-0.00750284,-0.871852,0.00720966,0.0107373,1539,449,2.10943,1.53019
322,575,2.11658,-1.47885,-0.00224544,0.000261353,-0.00487565,0.00404214,-0.00602622,-0.91121,0.00585047,0.00933079,1546,449,2.1166,1.47885
329,575,2.1084,-1.46469,-0.00234867,0.000136411,-0.00407897,0.00315789,-0.00537015,-0.933244,0.00497858,0.00932872,1553,449,2.10834,1.4647
336,575,2.10205,-1.42303,-0.00243437,0.000142904,-0.00341959,0.00250861,-0.00480007,-0.965589,0.00428824,0.0116285,1560,449,2.10203,1.42303
343,575,2.10657,-1.38077,-0.00261545,-0.000149199,-0.00276727,0.00164726,-0.00441191,-0.994998,0.00361761,0.0123085,1567,449,2.10662,1.38077
350,575,2.09912,-1.3768,-0.00298745,-0.000568153,-0.00232167,0.000840101,-0.0043957,-1.02556,0.00324693,0.0109961,1574,449,2.09916,1.37682
357,575,2.11743,-1.34427,-0.002627,-0.000886123,-0.00159058,5.6616e-05,-0.00356974,-1.03576,0.00239892,0.0103341,1581,449,2.11742,1.34428
364,575,2.1261,-1.30005,-0.00194405,-0.00110788,-0.00105124,-0.000394637,-0.00265729,-0.97466,0.00165574,0.0104034,1588,449,2.12615,1.30005
371,575,2.12402,-1.27884,-0.001295,-0.00107944,-0.000803044,-0.000376976,-0.00199746,-0.852104,0.00122547,0.018844,1595,449,2.12408,1.27884
378,575,2.13928,-1.25476,-0.00081541,-0.00102098,-0.000496742,-0.000410931,-0.00142546,-0.683378,0.000847227,0.0166647,1602,449,2.13925,1.25476
385,575,2.11121,-1.22177,-0.000285074,-0.000845361,-0.000368185,-0.000102572,-0.00102786,-0.460185,0.000653739,0.0107741,1609,449,2.1112,1.22176
392,575,2.10034,-1.18881,0.000414417,-0.000507733,-0.000433138,0.000585955,-0.00067927,-0.377083,0.00073114,0.00918923,1616,449,2.10035,1.18882
399,575,2.10913,-1.1637,0.00140026,-0.000461174,-0.000609153,0.00158188,-0.000642798,-0.289766,0.00132201,0.00946249,1623,449,2.10908,1.1637
406,575,2.12012,-1.11606,0.00242346,-0.000326847,-0.000700319,0.00259152,-0.000494903,-0.235516,0.00191409,0.0101954,1630,449,2.12016,1.11607
413,575,2.1239,-1.09067,0.00350242,-8.88018e-05,-0.000876015,0.00370471,-0.000291095,-0.226946,0.00257233,0.0109486,1637,449,2.12388,1.09068
420,575,2.10779,-1.03864,0.00449483,0.00026095,-0.00117118,0.0047972,-4.14278e-05,-0.252665,0.00321203,0.0108853,1644,449,2.10781,1.03865
427,575,2.07349,-1.00089,0.00569863,0.000386459,-0.0015393,0.00611244,-2.7349e-05,-0.262619,0.00408411,0.0140188,1651,449,2.07347,1.00087
434,575,2.04089,-0.988739,0.00704579,0.00130755,-0.00154269,0.00743423,0.000919101,-0.24667,0.00467997,0.0194999,1658,449,2.04092,0.988752
441,575,2.06287,-0.97995,0.00835818,0.00380105,-0.00124662,0.00867691,0.00348232,-0.25031,0.00504202,0.0349628,1665,449,2.06289,0.979965
448,575,2.25598,-1.353,0.0101408,0.00621496,-0.00105312,0.0104055,0.0059503,-0.246211,0.00602825,0.0462084,1672,449,2.256,1.353
455,575,2.55151,-1.16528,0,0,0,0,0,0,0,-1,1679,449,2.55146,1.16528
462,575,1.96558,-0.466888,0,0,0,0,0,0,0,-1,1686,449,1.96563,0.466879
469,575,2.48499,-0.557983,0,0,0,0,0,0,0,-1,1693,449,2.48504,0.557987
476,575,2.02161,-0.812531,0,0,0,0,0,0,0,-1,1700,449,2.02163,0.812523
483,575,2.58936,-0.214691,0,0,0,0,0,0,0,-1,1707,449,2.58929,0.214696
490,575,2.72766,0.0155334,0,0,0,0,0,0,0,-1,1714,449,2.72764,-0.0155256
497,575,0,0,0,0,0,0,0,0,0,-1,1721,449,0,0
504,575,0,0,0,0,0,0,0,0,0,-1,1728,449,0,0
511,575,0,0,0,0,0,0,0,0,0,-1,1735,449,0,0
518,575,0,0,0,0,0,0,0,0,0,-1,1742,449,0,0
525,575,0,0,0,0,0,0,0,0,0,-1,1749,449,0,0
532,575,0,0,0,0,0,0,0,0,0,-1,1756,449,0,0
539,575,0,0,0,0,0,0,0,0,0,-1,1763,449,0,0
546,575,0,0,0,0,0,0,0,0,0,-1,1770,449,0,0
553,575,0,0,0,0,0,0,0,0,0,-1,1777,449,0,0
560,575,0,0,0,0,0,0,0,0,0,-1,1784,449,0,0
567,575,0,0,0,0,0,0,0,0,0,-1,1791,449,0,0
574,575,0,0,0,0,0,0,0,0,0,-1,1798,449,0,0
581,575,0,0,0,0,0,0,0,0,0,-1,1805,449,0,0
588,575,0,0,0,0,0,0,0,0,0,-1,1812,449,0,0
595,575,0,0,0,0,0,0,0,0,0,-1,1819,449,0,0
602,575,0,0,0,0,0,0,0,0,0,-1,1826,449,0,0
609,575,0,0,0,0,0,0,0,0,0,-1,1833,449,0,0
616,575,0,0,0,0,0,0,0,0,0,-1,1840,449,0,0
623,575,0,0,0,0,0,0,0,0,0,-1,1847,449,0,0
630,575,0,0,0,0,0,0,0,0,0,-1,1854,449,0,0
637,575,0,0,0,0,0,0,0,0,0,-1,1861,449,0,0
644,575,0,0,0,0,0,0,0,0,0,-1,1868,449,0,0
651,575,0,0,0,0,0,0,0,0,0,-1,1875,449,0,0
658,575,0,0,0,0,0,0,0,0,0,-1,1882,449,0,0
665,575,0,0,0,0,0,0,0,0,0,-1,1889,449,0,0
672,575,0,0,0,0,0,0,0,0,0,-1,1896,449,0,0
679,575,0,0,0,0,0,0,0,0,0,-1,1903,449,0,0
686,575,0,0,0,0,0,0,0,0,0,-1,1910,449,0,0
693,575,0,0,0,0,0,0,0,0,0,-1,1917,449,0,0
700,575,0,0,0,0,0,0,0,0,0,-1,1924,449,0,0
707,575,0,0,0,0,0,0,0,0,0,-1,1931,449,0,0
714,575,0,0,0,0,0,0,0,0,0,-1,1938,449,0,0
721,575,0,0,0,0,0,0,0,0,0,-1,1945,449,0,0
728,575,0,0,0,0,0,0,0,0,0,-1,1952,449,0,0
735,575,0,0,0,0,0,0,0,0,0,-1,1959,449,0,0
742,575,0,0,0,0,0,0,0,0,0,-1,1966,449,0,0
749,575,0,0,0,0,0,0,0,0,0,-1,1973,449,0,0
756,575,0,0,0,0,0,0,0,0,0,-1,1980,449,0,0
763,575,0,0,0,0,0,0,0,0,0,-1,1987,449,0,0
770,575,0,0,0,0,0,0,0,0,0,-1,1994,449,0,0
777,575,0,0,0,0,0,0,0,0,0,-1,2001,449,0,0
784,575,0,0,0,0,0,0,0,0,0,-1,2008,449,0,0
791,575,0,0,0,0,0,0,0,0,0,-1,2015,449,0,0
798,575,0,0,0,0,0,0,0,0,0,-1,2022,449,0,0
805,575,0,0,0,0,0,0,0,0,0,-1,2029,449,0,0
812,575,0,0,0,0,0,0,0,0,0,-1,2036,449,0,0
-700,568,0,0,0,0,0,0,0,0,0,-1,524,456,0,0
-693,568,0,0,0,0,0,0,0,0,0,-1,531,456,0,0
-686,568,0,0,0,0,0,0,0,0,0,-1,538,456,0,0
-679,568,0,0,0,0,0,0,0,0,0,-1,545,456,0,0
-672,568,0,0,0,0,0,0,0,0,0,-1,552,456,0,0
-665,568,0,0,0,0,0,0,0,0,0,-1,559,456,0,0
-658,568,0,0,0,0,0,0,0,0,0,-1,566,456,0,0
-651,568,0,0,0,0,0,0,0,0,0,-1,573,456,0,0
-644,568,0,0,0,0,0,0,0,0,0,-1,580,456,0,0
-637,568,0,0,0,0,0,0,0,0,0,-1,587,456,0,0
-630,568,0,0,0,0,0,0,0,0,0,-1,594,456,0,0
-623,568,0,0,0,0,0,0,0,0,0,-1,601,456,0,0
-616,568,0,0,0,0,0,0,0,0,0,-1,608,456,0,0
-609,568,0,0,0,0,0,0,0,0,0,-1,615,456,0,0
-602,568,0,0,0,0,0,0,0,0,0,-1,622,456,0,0
-595,568,0,0,0,0,0,0,0,0,0,-1,629,456,0,0
-588,568,0,0,0,0,0,0,0,0,0,-1,636,456,0,0
-581,568,0,0,0,0,0,0,0,0,0,-1,643,456,0,0
-574,568,0,0,0,0,0,0,0,0,0,-1,650,456,0,0
-567,568,0,0,0,0,0,0,0,0,0,-1,657,456,0,0
-560,568,0,0,0,0,0,0,0,0,0,-1,664,456,0,0
-553,568,0,0,0,0,0,0,0,0,0,-1,671,456,0,0
-546,568,0,0,0,0,0,0,0,0,0,-1,678,456,0,0
-539,568,0,0,0,0,0,0,0,0,0,-1,685,456,0,0
-532,568,0,0,0,0,0,0,0,0,0,-1,692,456,0,0
-525,568,0,0,0,0,0,0,0,0,0,-1,699,456,0,0
-518,568,0,0,0,0,0,0,0,0,0,-1,706,456,0,0
-511,568,0,0,0,0,0,0,0,0,0,-1,713,456,0,0
-504,568,0,0,0,0,0,0,0,0,0,-1,720,456,0,0
-497,568,0,0,0,0,0,0,0,0,0,-1,727,456,0,0
-490,568,0,0,0,0,0,0,0,0,0,-1,734,456,0,0
-483,568,0,0,0,0,0,0,0,0,0,-1,741,456,0,0
-476,568,0,0,0,0,0,0,0,0,0,-1,748,456,0,0
-469,568,0,0,0,0,0,0,0,0,0,-1,755,456,0,0
-462,568,0,0,0,0,0,0,0,0,0,-1,762,456,0,0
-455,568,0,0,0,0,0,0,0,0,0,-1,769,456,0,0
-448,568,0,0,0,0,0,0,0,0,0,-1,776,456,0,0
-441,568,0,0,0,0,0,0,0,0,0,-1,783,456,0,0
-434,568,0,0,0,0,0,0,0,0,0,-1,790,456,0,0
-427,568,0,0,0,0,0,0,0,0,0,-1,797,456,0,0
-420,568,0,0,0,0,0,0,0,0,0,-1,804,456,0,0
-413,568,0,0,0,0,0,0,0,0,0,-1,811,456,0,0
-406,568,0,0,0,0,0,0,0,0,0,-1,818,456,0,0
-399,568,0,0,0,0,0,0,0,0,0,-1,825,456,0,0
-392,568,0,0,0,0,0,0,0,0,0,-1,832,456,0,0
-385,568,0,0,0,0,0,0,0,0,0,-1,839,456,0,0
-378,568,1.71411,-1.08029,0,0,0,0,0,0,0,-1,846,456,1.71411,1.08028
-371,568,1.56799,-1.16611,-0.0285644,0.00739001,0.00142636,0.00744651,-0.0286209,1.53121,0.0219872,0.045121,853,456,1.56799,1.1661
-364,568,1.64343,-1.14508,-0.027504,0.00716965,0.00239471,0.00733426,-0.0276686,1.50217,0.0213153,0.0442983,860,456,1.64344,1.14509
-357,568,0.857361,-0.700684,0,0,0,0,0,0,0,-1,867,456,0.857335,0.700696
-350,568,1.3584,0.0148621,0,0,0,0,0,0,0,-1,874,456,1.35839,-0.0148559
-343,568,1.76361,-0.32132,0,0,0,0,0,0,0,-1,881,456,1.76359,0.321326
-336,568,4.86267,-3.89966,0,0,0,0,0,0,0,-1,888,456,4.86267,3.89966
-329,568,1.80737,-0.694427,-0.0144938,0.00780675,0.00158206,0.00791842,-0.0146055,1.50032,0.0131938,0.0467194,895,456,1.8074,0.694422
-322,568,1.63,-0.819855,-0.0133485,0.0063709,0.00149584,0.00648372,-0.0134614,1.49551,0.0117478,0.0438091,902,456,1.63,0.819865
-315,568,1.51196,-0.975494,-0.0119253,0.00480113,0.0016578,0.00496385,-0.0120881,1.47295,0.0101273,0.0373708,909,456,1.51198,0.975493
-308,568,1.6347,-0.967957,-0.0101415,0.00317168,0.00176312,0.00340122,-0.010371,1.44133,0.00828386,0.0243199,916,456,1.63473,0.967969
-301,568,1.67517,-1.00757,-0.00833513,0.00195663,0.00184875,0.00227865,-0.00865715,1.39834,0.00666217,0.0130195,923,456,1.67519,1.00755
-294,568,1.67731,-1.02191,-0.00644043,0.000476989,0.00206068,0.00104433,-0.00700777,1.30214,0.00505603,0.0105221,930,456,1.67729,1.02191
-287,568,1.67523,-1.07275,-0.00486297,0.000168969,0.00190098,0.000806385,-0.00550038,1.24727,0.00396316,0.00962823,937,456,1.67525,1.07275
-280,568,1.66968,-1.11551,-0.0029477,0.000144359,0.00161448,0.000833669,-0.00363701,1.16727,0.00274509,0.00963221,944,456,1.66966,1.11551
-273,568,1.67438,-1.15588,-0.00128824,6.18757e-05,0.00126821,0.000823502,-0.00204987,1.02997,0.00170856,0.0108526,951,456,1.6744,1.15587
-266,568,1.6593,-1.2016,-0.000344292,0.000604074,0.000836248,0.00109122,-0.000831441,1.04331,0.00111342,0.0110188,958,456,1.65928,1.2016
-259,568,1.65784,-1.22772,0.000698891,0.00114504,0.000407166,0.00138623,0.000457696,1.036,0.000815587,0.0124853,965,456,1.65783,1.22772
-252,568,1.64374,-1.23401,0.00139254,0.00147152,-0.000194089,0.0016301,0.00123396,-0.885765,0.000981699,0.0121918,972,456,1.64374,1.234
-245,568,1.64758,-1.27142,0.00137638,0.00163678,-0.000590477,0.00211124,0.000901918,-0.893911,0.00122322,0.0132224,979,456,1.6476,1.27142
-238,568,1.66058,-1.30261,0.0011356,0.00154,-0.00108074,0.0024373,0.000238302,-0.877876,0.00155154,0.0117633,986,456,1.66055,1.30261
-231,568,1.65472,-1.32962,0.000889872,0.00100979,-0.00148129,0.00243233,-0.000532673,-0.805626,0.00182521,0.0103652,993,456,1.65474,1.32962
-224,568,1.65497,-1.35425,0.000732415,0.000194405,-0.00168181,0.0021666,-0.00123978,-0.706095,0.00199079,0.0127866,1000,456,1.65499,1.35426
-217,568,1.67474,-1.38785,0.000687663,-0.000886323,-0.00158735,0.0016724,-0.00187106,-0.555261,0.00204689,0.0112425,1007,456,1.67474,1.38783
-210,568,1.68115,-1.42896,0.000839423,-0.00237809,-0.00117934,0.00122539,-0.00276406,-0.316291,0.00235973,0.009888,1014,456,1.68116,1.42895
-203,568,1.67255,-1.47021,0.00126925,-0.00397106,-0.000568628,0.00133024,-0.00403205,-0.106854,0.00322425,0.00947159,1021,456,1.67255,1.47022
-196,568,1.67749,-1.48672,0.00169009,-0.00567962,6.0928e-05,0.0016906,-0.00568012,0.00826659,0.00445844,0.0125132,1028,456,1.67751,1.48673
-189,568,1.69177,-1.51031,0.00204804,-0.00762806,0.000833033,0.00211923,-0.00769926,0.0852559,0.00596606,0.0121527,1035,456,1.69177,1.51033
-182,568,1.6759,-1.54648,0.00299395,-0.00911267,0.00168446,0.00322395,-0.00934267,0.135702,0.00753657,0.0132557,1042,456,1.67585,1.54649
-175,568,1.68518,-1.58542,0.00424101,-0.010961,0.00257359,0.00466488,-0.0113849,0.163235,0.00953323,0.0108346,1049,456,1.68524,1.58542
-168,568,1.69299,-1.59418,0.00642199,-0.0124407,0.00299031,0.00688469,-0.0129034,0.153517,0.0115995,0.0139319,1056,456,1.69302,1.59417
-161,568,1.69861,-1.59579,0.00878151,-0.0136641,0.00293167,0.0091581,-0.0140407,0.127757,0.0134924,0.0213221,1063,456,1.69863,1.59579
-154,568,1.75476,-1.60959,0.0113197,-0.0143752,0.00288282,0.0116392,-0.0146946,0.110366,0.0152379,0.0268757,1070,456,1.7548,1.60958
-147,568,1.88428,-1.58746,0.0141709,-0.0145656,0.00264906,0.0144131,-0.0148078,0.0911606,0.0168712,0.0300907,1077,456,1.88426,1.58747
-140,568,1.7373,-1.60916,0.0175291,-0.0144721,0.00190087,0.0176416,-0.0145847,0.0591229,0.0186337,0.0345677,1084,456,1.73727,1.60917
-133,568,1.70203,-1.66193,0.0207543,-0.0140271,0.000859704,0.0207755,-0.0140483,0.0246972,0.0202302,0.0398926,1091,456,1.70207,1.66194
-126,568,1.54749,-1.36298,0.0234235,-0.0133448,-0.000407437,0.023428,-0.0133494,-0.0110794,0.0214975,0.0458039,1098,456,1.54753,1.36296
-119,568,1.55811,-1.39426,0.0260262,-0.0124011,-0.00161349,0.0260938,-0.0124688,-0.0418899,0.0227226,0.0491305,1105,456,1.55808,1.39426
-112,568,1.75281,-1.56244,0.0274689,-0.0112311,-0.00254329,0.0276353,-0.0113975,-0.0653435,0.0231765,0.0488406,1112,456,1.75279,1.56243
-105,568,2.03699,-1.74576,0.0274773,-0.00897892,-0.00304057,0.0277292,-0.00923078,-0.0826425,0.0222119,0.0458875,1119,456,2.03703,1.74575
-98,568,2.34778,-1.7803,0,0,0,0,0,0,0,-1,1126,456,2.34773,1.7803
-91,568,2.5957,-1.89905,0,0,0,0,0,0,0,-1,1133,456,2.59567,1.89903
-84,568,2.78601,-1.97256,0,0,0,0,0,0,0,-1,1140,456,2.78602,1.97256
-77,568,1.61584,-1.39719,0,0,0,0,0,0,0,-1,1147,456,1.61582,1.3972
-70,568,1.53064,-1.8876,0,0,0,0,0,0,0,-1,1154,456,1.53068,1.8876
-63,568,-0.152222,-4.4194,0,0,0,0,0,0,0,-1,1161,456,-0.152252,4.41941
-56,568,-0.700684,-5.88092,0,0,0,0,0,0,0,-1,1168,456,-0.700632,5.88093
-49,568,-1.05188,-7.59601,0,0,0,0,0,0,0,-1,1175,456,-1.05193,7.59599
-42,568,-0.664795,0.521973,0,0,0,0,0,0,0,-1,1182,456,-0.664829,-0.521984
-35,568,-0.153076,-1.67731,0,0,0,0,0,0,0,-1,1189,456,-0.153068,1.67731
-28,568,0.751587,-1.77441,0,0,0,0,0,0,0,-1,1196,456,0.751589,1.77442
-21,568,1.42224,-1.66284,0.0528983,0.00486581,0.017861,0.0588119,-0.00104777,0.31973,0.0395618,0.043234,1203,456,1.42228,1.66284
-14,568,2.08606,-1.79733,0.0515921,0.000676821,0.0166258,0.0565402,-0.00427127,0.289267,0.0391949,0.0427228,1210,456,2.08604,1.79733
-7,568,3.20337,-1.59592,0.0494422,-0.00539394,0.015535,0.0535375,-0.00948916,0.257748,0.039239,0.0492473,1217,456,3.20333,1.59592
0,568,4.14233,-1.18481,0,0,0,0,0,0,0,-1,1224,456,4.14236,1.18481
7,568,1.25378,-1.13666,0,0,0,0,0,0,0,-1,1231,456,1.25375,1.13666
14,568,1.00818,-1.33154,0.0349842,-0.0294851,0.0211126,0.0412829,-0.0357838,0.289929,0.0445322,0.0441341,1238,456,1.00816,1.33154
21,568,0.882813,-1.57513,0.0323386,-0.0403624,0.0235007,0.0392737,-0.0472975,0.286956,0.0500534,0.0445132,1245,456,0.882819,1.57514
28,568,0.841797,-1.75092,0,0,0,0,0,0,0,-1,1252,456,0.84178,1.75091
35,568,0.331299,-2.45206,0.0333833,-0.0634184,0.0286438,0.041224,-0.0712591,0.267186,0.0657094,0.0415096,1259,456,0.331285,2.45205
42,568,0.554077,-1.33075,0.0361819,-0.0744343,0.0310106,0.0442824,-0.0825347,0.255506,0.0743199,0.04014,1266,456,0.554069,1.33075
49,568,0.53125,-0.339386,0.0399362,-0.0836517,0.0320588,0.0477573,-0.0914728,0.239288,0.0816946,0.0431009,1273,456,0.531199,0.339381
56,568,0.480713,0.575226,0.0448855,-0.0889579,0.031257,0.0518252,-0.0958976,0.218478,0.0865438,0.0446165,1280,456,0.480771,-0.575228
63,568,0.516113,1.33978,0.0463174,-0.0870574,0.0287087,0.0522345,-0.0929745,0.203259,0.0849291,0.0458589,1287,456,0.516111,-1.33978
70,568,0.69751,2.02264,0.0459464,-0.0808695,0.024761,0.0506096,-0.0855326,0.186146,0.0794591,0.0461604,1294,456,0.697469,-2.02264
77,568,0.498657,2.94559,0.0430591,-0.0724608,0.0207528,0.0466741,-0.0760758,0.172465,0.0715442,0.0464774,1301,456,0.498678,-2.94558
84,568,3.40063,-0.166199,0.0366553,-0.0594147,0.0164781,0.039403,-0.0621624,0.165232,0.0591276,0.0468708,1308,456,3.40062,0.166197
91,568,3.40552,-0.493317,0.0252459,-0.0433146,0.011623,0.0271627,-0.0452314,0.163447,0.0422285,0.0421706,1315,456,3.40557,0.493323
98,568,3.51746,-0.852325,0.0122647,-0.0251002,0.00749876,0.0137135,-0.026549,0.190847,0.023636,0.0453301,1322,456,3.51741,0.852327
105,568,3.69775,-1.44537,-0.000641337,-0.00660343,0.00380929,0.00121469,-0.00845946,0.453386,0.00608508,0.0468334,1329,456,3.6977,1.44537
112,568,3.65955,-2.12204,-0.0144513,0.0110373,0.000903281,0.0110693,-0.0144833,1.53542,0.0147966,0.0448707,1336,456,3.65955,2.12205
119,568,3.75549,-2.50964,-0.029738,0.0270302,-0.000901546,0.0270445,-0.0297523,-1.55492,0.0328041,0.0441829,1343,456,3.75555,2.50964
126,568,4.0321,-2.59418,0,0,0,0,0,0,0,-1,1350,456,4.03216,2.59418
133,568,2.58606,2.1456,0,0,0,0,0,0,0,-1,1357,456,2.58608,-2.14559
140,568,3.52979,-3.11517,0,0,0,0,0,0,0,-1,1364,456,3.52981,3.11516
147,568,-0.641479,-4.71234,-0.08147,0.0526518,0.00217809,0.0526871,-0.0815053,1.55456,0.0780693,0.04129,1371,456,-0.641433,4.71233
154,568,-1.50513,-5.75656,-0.0903248,0.0464816,-0.000812526,0.0464864,-0.0903296,-1.56486,0.0803314,0.0391071,1378,456,-1.5051,5.75657
161,568,-2.37354,-6.66757,0,0,0,0,0,0,0,-1,1385,456,-2.37349,6.66756
168,568,4.00525,2.77975,0,0,0,0,0,0,0,-1,1392,456,4.0053,-2.77976
175,568,4.28333,2.57944,0,0,0,0,0,0,0,-1,1399,456,4.28329,-2.57945
182,568,4.39111,1.94464,0,0,0,0,0,0,0,-1,1406,456,4.39114,-1.94464
189,568,4.66138,1.59784,0,0,0,0,0,0,0,-1,1413,456,4.66136,-1.59785
196,568,3.28027,-0.181183,0,0,0,0,0,0,0,-1,1420,456,3.28029,0.181188
203,568,3.49792,-0.260193,0,0,0,0,0,0,0,-1,1427,456,3.49791,0.260184
210,568,2.0426,-1.95865,0,0,0,0,0,0,0,-1,1434,456,2.0426,1.95864
217,568,3.12231,-2.14426,-0.0587872,-0.00315062,-0.0475161,0.0240914,-0.0860292,-1.05022,0.0668464,0.0464636,1441,456,3.12227,2.14425
224,568,2.83679,-2.5473,-0.0514741,-0.00362381,-0.0432007,0.0218343,-0.0769322,-1.03828,0.0599076,0.042758,1448,456,2.83683,2.54731
231,568,2.32202,-2.6723,-0.0443141,-0.00511135,-0.0388927,0.0188402,-0.0682656,-1.01881,0.0529204,0.0463639,1455,456,2.32206,2.67232
238,568,1.85461,-2.63425,0,0,0,0,0,0,0,-1,1462,456,1.85466,2.63426
245,568,2.22913,-1.83377,0,0,0,0,0,0,0,-1,1469,456,2.22913,1.83376
252,568,2.62622,-1.70303,-0.023891,-0.00900116,-0.0292676,0.0137536,-0.0466457,-0.909943,0.0365546,0.0487148,1476,456,2.62617,1.70302
259,568,2.83594,-1.5694,-0.0183686,-0.00885369,-0.0264936,0.0133062,-0.0405285,-0.874237,0.032379,0.0439628,1483,456,2.83588,1.56939
266,568,2.82776,-1.52957,-0.0138134,-0.00932651,-0.0240123,0.0125469,-0.0356868,-0.831977,0.0288963,0.0400664,1490,456,2.8278,1.52958
273,568,2.60986,-1.69385,-0.0110676,-0.00907569,-0.0216829,0.0116342,-0.0317774,-0.808348,0.0259475,0.0442326,1497,456,2.60992,1.69385
280,568,2.13,-1.65952,-0.00875001,-0.0086328,-0.0193878,0.0106965,-0.0280793,-0.78691,0.0231249,0.0369945,1504,456,2.13001,1.6595
287,568,2.13989,-1.63885,-0.00678021,-0.00735556,-0.0173032,0.0102377,-0.0243734,-0.777086,0.0205308,0.0234544,1511,456,2.13991,1.63884
294,568,2.17163,-1.62622,-0.005573,-0.00527283,-0.0151595,0.00973728,-0.0205831,-0.790348,0.0178749,0.0186583,1518,456,2.17166,1.62621
301,568,2.13684,-1.5723,-0.00494626,-0.00326967,-0.0130209,0.00893991,-0.0171559,-0.817544,0.0153133,0.0141552,1525,456,2.13683,1.57229
308,568,2.13391,-1.54636,-0.00416015,-0.00171833,-0.0107073,0.00783744,-0.0137159,-0.842166,0.0125972,0.0106568,1532,456,2.13393,1.54637
315,568,2.13672,-1.51465,-0.00364406,-0.000187082,-0.00865354,0.0069089,-0.01074,-0.883973,0.0102693,0.00779153,1539,456,2.1367,1.51466
322,568,2.14441,-1.48795,-0.0033778,0.000765082,-0.00701275,0.00600593,-0.00861865,-0.929006,0.0084883,0.00949176,1546,456,2.14435,1.48795
329,568,2.1499,-1.46494,-0.00354123,0.000772975,-0.00596129,0.00495544,-0.00772369,-0.958995,0.00737822,0.0106632,1553,456,2.14993,1.46494
336,568,2.15588,-1.43805,-0.00362157,0.000891398,-0.00507298,0.00418711,-0.00691728,-0.994661,0.00647539,0.0114685,1560,456,2.15591,1.43805
343,568,2.15833,-1.40338,-0.00365557,0.000672958,-0.00419484,0.00322894,-0.00621156,-1.02356,0.0055404,0.0112512,1567,456,2.15829,1.40337
350,568,2.13928,-1.3909,-0.00394054,0.000273887,-0.00355208,0.00229676,-0.00596342,-1.05311,0.00492314,0.00954729,1574,456,2.13924,1.3909
357,568,2.13989,-1.35236,-0.00339048,-3.50667e-05,-0.00254063,0.00133181,-0.00475736,-1.07721,0.00369637,0.00904856,1581,456,2.13983,1.35235
364,568,2.16589,-1.30331,-0.00249431,-0.000278563,-0.0018148,0.000739801,-0.00351268,-1.05944,0.00262339,0.0115638,1588,456,2.16588,1.30331
371,568,2.15552,-1.26486,-0.00174571,-0.000336375,-0.00137416,0.000503263,-0.00258535,-1.02232,0.00191351,0.0198884,1595,456,2.15552,1.26486
378,568,2.17371,-1.23181,-0.0011054,-0.000334404,-0.000886274,0.000246583,-0.00168638,-0.990538,0.00121482,0.0166001,1602,456,2.17368,1.23181
385,568,2.14795,-1.21255,-0.000484495,-0.000245347,-0.000621411,0.00026789,-0.000997732,-0.880448,0.000770142,0.00823365,1609,456,2.14795,1.21256
392,568,2.12634,-1.18896,0.000169378,-5.55144e-05,-0.000547771,0.000616125,-0.000502261,-0.684165,0.000646815,0.00962863,1616,456,2.12634,1.18898
399,568,2.13025,-1.17459,0.00099739,-0.00012468,-0.000570206,0.00123629,-0.000363579,-0.396752,0.00096841,0.0157423,1623,456,2.13025,1.17458
406,568,2.15112,-1.12253,0.00184331,-0.000129057,-0.000577909,0.00200016,-0.000285912,-0.265033,0.00143825,0.0146672,1630,456,2.15116,1.12253
413,568,2.16089,-1.06833,0.00263162,-1.99684e-06,-0.000655153,0.0027856,-0.000155974,-0.230835,0.00191118,0.0115994,1637,456,2.1609,1.06832
420,568,2.15625,-1.03888,0.00332988,0.000194066,-0.000823017,0.00353276,-8.81427e-06,-0.24169,0.00235812,0.00966881,1644,456,2.1562,1.03887
427,568,2.13257,-0.997162,0.00419917,0.000184242,-0.00105088,0.0044576,-7.41859e-05,-0.24113,0.00299677,0.0102722,1651,456,2.13252,0.997157
434,568,2.11963,-0.964874,0.00517395,0.000842572,-0.000989476,0.00538928,0.000627238,-0.214283,0.0034031,0.0122931,1658,456,2.11968,0.964874
441,568,2.14612,-0.965363,0.00613314,0.00275915,-0.000681621,0.00626564,0.00262665,-0.191994,0.00363317,0.0200028,1665,456,2.14616,0.965375
448,568,2.32239,-1.01282,0.00731187,0.00452816,-0.000410327,0.00737109,0.00446893,-0.143342,0.00428763,0.0384199,1672,456,2.32238,1.01282
455,568,2.4502,-1.04523,0.00845567,0.00712839,0.000269375,0.00850826,0.0070758,0.192793,0.00526011,0.0479958,1679,456,2.45015,1.04522
462,568,2.54785,-1.06628,0,0,0,0,0,0,0,-1,1686,456,2.54779,1.06629
469,568,2.31519,-0.610565,0.0074839,0.0151173,0.00354807,0.0165118,0.00608946,1.19633,0.00964187,0.0414878,1693,456,2.31514,0.610555
476,568,2.13184,-0.761292,0.00678474,0.0207776,0.00646514,0.0233074,0.00425499,1.19782,0.014332,0.0467507,1700,456,2.13184,0.761297
483,568,2.45374,-0.336243,0.00639626,0.028121,0.00969783,0.0318202,0.00269707,1.20639,0.020374,0.04714,1707,456,2.45375,0.336241
490,568,2.6051,-0.0758972,0.00752135,0.0351436,0.0135709,0.0406953,0.00196974,1.18248,0.026498,0.0455534,1714,456,2.60508,0.0758844
497,568,2.61938,0.197021,0,0,0,0,0,0,0,-1,1721,456,2.61944,-0.197036
504,568,0,0,0,0,0,0,0,0,0,-1,1728,456,0,0
511,568,0,0,0,0,0,0,0,0,0,-1,1735,456,0,0
518,568,0,0,0,0,0,0,0,0,0,-1,1742,456,0,0
525,568,0,0,0,0,0,0,0,0,0,-1,1749,456,0,0
532,568,0,0,0,0,0,0,0,0,0,-1,1756,456,0,0
539,568,0,0,0,0,0,0,0,0,0,-1,1763,456,0,0
546,568,0,0,0,0,0,0,0,0,0,-1,1770,456,0,0
553,568,0,0,0,0,0,0,0,0,0,-1,1777,456,0,0
560,568,0,0,0,0,0,0,0,0,0,-1,1784,456,0,0
567,568,0,0,0,0,0,0,0,0,0,-1,1791,456,0,0
574,568,0,0,0,0,0,0,0,0,0,-1,1798,456,0,0
581,568,0,0,0,0,0,0,0,0,0,-1,1805,456,0,0
588,568,0,0,0,0,0,0,0,0,0,-1,1812,456,0,0
595,568,0,0,0,0,0,0,0,0,0,-1,1819,456,0,0
602,568,0,0,0,0,0,0,0,0,0,-1,1826,456,0,0
609,568,0,0,0,0,0,0,0,0,0,-1,1833,456,0,0
616,568,0,0,0,0,0,0,0,0,0,-1,1840,456,0,0
623,568,0,0,0,0,0,0,0,0,0,-1,1847,456,0,0
630,568,0,0,0,0,0,0,0,0,0,-1,1854,456,0,0
637,568,0,0,0,0,0,0,0,0,0,-1,1861,456,0,0
644,568,0,0,0,0,0,0,0,0,0,-1,1868,456,0,0
651,568,0,0,0,0,0,0,0,0,0,-1,1875,456,0,0
658,568,0,0,0,0,0,0,0,0,0,-1,1882,456,0,0
665,568,0,0,0,0,0,0,0,0,0,-1,1889,456,0,0
672,568,0,0,0,0,0,0,0,0,0,-1,1896,456,0,0
679,568,0,0,0,0,0,0,0,0,0,-1,1903,456,0,0
686,568,0,0,0,0,0,0,0,0,0,-1,1910,456,0,0
693,568,0,0,0,0,0,0,0,0,0,-1,1917,456,0,0
700,568,0,0,0,0,0,0,0,0,0,-1,1924,456,0,0
707,568,0,0,0,0,0,0,0,0,0,-1,1931,456,0,0
714,568,0,0,0,0,0,0,0,0,0,-1,1938,456,0,0
721,568,0,0,0,0,0,0,0,0,0,-1,1945,456,0,0
728,568,0,0,0,0,0,0,0,0,0,-1,1952,456,0,0
735,568,0,0,0,0,0,0,0,0,0,-1,1959,456,0,0
742,568,0,0,0,0,0,0,0,0,0,-1,1966,456,0,0
749,568,0,0,0,0,0,0,0,0,0,-1,1973,456,0,0
756,568,0,0,0,0,0,0,0,0,0,-1,1980,456,0,0
763,568,0,0,0,0,0,0,0,0,0,-1,1987,456,0,0
770,568,0,0,0,0,0,0,0,0,0,-1,1994,456,0,0
777,568,0,0,0,0,0,0,0,0,0,-1,2001,456,0,0
784,568,0,0,0,0,0,0,0,0,0,-1,2008,456,0,0
791,568,0,0,0,0,0,0,0,0,0,-1,2015,456,0,0
798,568,0,0,0,0,0,0,0,0,0,-1,2022,456,0,0
805,568,0,0,0,0,0,0,0,0,0,-1,2029,456,0,0
812,568,0,0,0,0,0,0,0,0,0,-1,2036,456,0,0
-700,561,0,0,0,0,0,0,0,0,0,-1,524,463,0,0
-693,561,0,0,0,0,0,0,0,0,0,-1,531,463,0,0
-686,561,0,0,0,0,0,0,0,0,0,-1,538,463,0,0
-679,561,0,0,0,0,0,0,0,0,0,-1,545,463,0,0
-672,561,0,0,0,0,0,0,0,0,0,-1,552,463,0,0
-665,561,0,0,0,0,0,0,0,0,0,-1,559,463,0,0
-658,561,0,0,0,0,0,0,0,0,0,-1,566,463,0,0
-651,561,0,0,0,0,0,0,0,0,0,-1,573,463,0,0
-644,561,0,0,0,0,0,0,0,0,0,-1,580,463,0,0
-637,561,0,0,0,0,0,0,0,0,0,-1,587,463,0,0
-630,561,0,0,0,0,0,0,0,0,0,-1,594,463,0,0
-623,561,0,0,0,0,0,0,0,0,0,-1,601,463,0,0
-616,561,0,0,0,0,0,0,0,0,0,-1,608,463,0,0
-609,561,0,0,0,0,0,0,0,0,0,-1,615,463,0,0
-602,561,0,0,0,0,0,0,0,0,0,-1,622,463,0,0
-595,561,0,0,0,0,0,0,0,0,0,-1,629,463,0,0
-588,561,0,0,0,0,0,0,0,0,0,-1,636,463,0,0
-581,561,0,0,0,0,0,0,0,0,0,-1,643,463,0,0
-574,561,0,0,0,0,0,0,0,0,0,-1,650,463,0,0
-567,561,0,0,0,0,0,0,0,0,0,-1,657,463,0,0
-560,561,0,0,0,0,0,0,0,0,0,-1,664,463,0,0
-553,561,0,0,0,0,0,0,0,0,0,-1,671,463,0,0
-546,561,0,0,0,0,0,0,0,0,0,-1,678,463,0,0
-539,561,0,0,0,0,0,0,0,0,0,-1,685,463,0,0
-532,561,0,0,0,0,0,0,0,0,0,-1,692,463,0,0
-525,561,0,0,0,0,0,0,0,0,0,-1,699,463,0,0
-518,561,0,0,0,0,0,0,0,0,0,-1,706,463,0,0
-511,561,0,0,0,0,0,0,0,0,0,-1,713,463,0,0
-504,561,0,0,0,0,0,0,0,0,0,-1,720,463,0,0
-497,561,0,0,0,0,0,0,0,0,0,-1,727,463,0,0
-490,561,0,0,0,0,0,0,0,0,0,-1,734,463,0,0
-483,561,0,0,0,0,0,0,0,0,0,-1,741,463,0,0
-476,561,0,0,0,0,0,0,0,0,0,-1,748,463,0,0
-469,561,0,0,0,0,0,0,0,0,0,-1,755,463,0,0
-462,561,0,0,0,0,0,0,0,0,0,-1,762,463,0,0
-455,561,0,0,0,0,0,0,0,0,0,-1,769,463,0,0
-448,561,0,0,0,0,0,0,0,0,0,-1,776,463,0,0
-441,561,0,0,0,0,0,0,0,0,0,-1,783,463,0,0
-434,561,0,0,0,0,0,0,0,0,0,-1,790,463,0,0
-427,561,0,0,0,0,0,0,0,0,0,-1,797,463,0,0
-420,561,0,0,0,0,0,0,0,0,0,-1,804,463,0,0
-413,561,0,0,0,0,0,0,0,0,0,-1,811,463,0,0
-406,561,0,0,0,0,0,0,0,0,0,-1,818,463,0,0
-399,561,0,0,0,0,0,0,0,0,0,-1,825,463,0,0
-392,561,1.69525,2.33911,0,0,0,0,0,0,0,-1,832,463,1.69522,-2.33912
-385,561,1.31714,-1.20941,0,0,0,0,0,0,0,-1,839,463,1.31714,1.2094
-378,561,1.70239,-1.1311,-0.0272552,-0.00224259,-0.00126961,-0.00217831,-0.0273195,-1.52021,0.0175321,0.0445022,846,463,1.70239,1.1311
-371,561,1.69702,-1.13348,-0.0232016,-0.000193684,0.000513667,-0.000182221,-0.0232131,1.54849,0.015415,0.0423636,853,463,1.69705,1.13349
-364,561,1.59137,-1.06027,-0.0208659,0.000731515,0.00199308,0.000913903,-0.0210483,1.47954,0.0143465,0.0392559,860,463,1.59139,1.06026
-357,561,1.06537,-1.12625,-0.0185568,0.00246289,0.00274316,0.00281499,-0.0189089,1.44314,0.0136414,0.0428989,867,463,1.06536,1.12625
-350,561,1.03003,-0.239624,-0.0156548,0.00414883,0.0023824,0.00443141,-0.0159374,1.45274,0.0123696,0.0497262,874,463,1.03001,0.239621
-343,561,1.63953,-0.433746,-0.0131639,0.00530754,0.00210456,0.00554429,-0.0134006,1.45877,0.011247,0.048025,881,463,1.63952,0.433745
-336,561,2.19049,-0.623444,0,0,0,0,0,0,0,-1,888,463,2.19047,0.623429
-329,561,1.72858,-0.826691,-0.00944779,0.00529187,0.00130586,0.00540666,-0.00956259,1.48311,0.00875283,0.035465,895,463,1.72856,0.826705
-322,561,1.62634,-0.875641,-0.00899251,0.00454337,0.0010639,0.00462648,-0.00907562,1.49284,0.00804872,0.0282111,902,463,1.62634,0.875651
-315,561,1.62756,-0.892639,-0.00825604,0.0035793,0.00106965,0.0036752,-0.00835193,1.48138,0.00711671,0.0197164,909,463,1.62757,0.892649
-308,561,1.64014,-0.951416,-0.00721204,0.00247733,0.00101481,0.00258247,-0.00731718,1.46755,0.00592946,0.0152329,916,463,1.64014,0.951404
-301,561,1.63824,-0.992615,-0.00613995,0.0016475,0.000923531,0.00175552,-0.00624797,1.45436,0.00485741,0.0119804,923,463,1.63825,0.992627
-294,561,1.63611,-1.01932,-0.00494732,0.000451852,0.000892645,0.000595606,-0.00509108,1.41113,0.00360901,0.0101131,930,463,1.6361,1.01933
-287,561,1.6123,-1.06366,-0.00385765,0.000178133,0.000573874,0.00025815,-0.00393766,1.43226,0.00271525,0.00863897,937,463,1.61233,1.06366
-280,561,1.60016,-1.09369,-0.00231135,0.000152813,0.000146832,0.000161532,-0.00232006,1.51149,0.00160327,0.0108466,944,463,1.60013,1.09368
-273,561,1.62372,-1.13956,-0.00090052,8.77696e-05,-0.000348251,0.000198156,-0.00101091,-1.26384,0.000748781,0.0132409,951,463,1.62372,1.13955
-266,561,1.63354,-1.18353,-0.000115224,0.000516714,-0.000884631,0.00114011,-0.000738621,-0.956925,0.00109291,0.00879915,958,463,1.63358,1.18353
-259,561,1.63556,-1.21127,0.000787069,0.000975166,-0.00141146,0.0022957,-0.000533468,-0.818665,0.00173583,0.00981366,965,463,1.63555,1.21129
-252,561,1.61322,-1.23499,0.0014381,0.00122857,-0.00203857,0.00337459,-0.000707922,-0.759725,0.00251908,0.0139096,972,463,1.61324,1.235
-245,561,1.62616,-1.2879,0.00146357,0.00136758,-0.00241849,0.00383454,-0.00100339,-0.775476,0.0029483,0.0166853,979,463,1.62614,1.28789
-238,561,1.63727,-1.31033,0.00128986,0.00119372,-0.00278612,0.00402833,-0.00154475,-0.776772,0.00332241,0.0129194,986,463,1.63725,1.31033
-231,561,1.63647,-1.34164,0.00110542,0.000605405,-0.00301915,0.00388489,-0.00217407,-0.744089,0.00354433,0.0102105,993,463,1.63648,1.34164
-224,561,1.63385,-1.38037,0.000989826,-0.000348149,-0.00301461,0.00340879,-0.00276711,-0.67621,0.00357206,0.0109557,1000,463,1.63388,1.38038
-217,561,1.65222,-1.40393,0.000927228,-0.0015868,-0.00264533,0.00259901,-0.00325859,-0.5636,0.00338903,0.0114825,1007,463,1.65222,1.40394
-210,561,1.6543,-1.43091,0.00106417,-0.00337117,-0.00190702,0.00177136,-0.00407836,-0.355112,0.00346378,0.0113302,1014,463,1.6543,1.43092
-203,561,1.6524,-1.46442,0.00150556,-0.00530827,-0.000943705,0.00163385,-0.00543656,-0.135111,0.00427437,0.0125551,1021,463,1.65241,1.46441
-196,561,1.62573,-1.47925,0.00194288,-0.00746072,4.25899e-05,0.00194308,-0.00746092,0.00452898,0.00573248,0.0128929,1028,463,1.62571,1.47925
-189,561,1.63879,-1.48978,0.00235468,-0.00992961,0.00119089,0.00246906,-0.010044,0.0957564,0.00765296,0.0148332,1035,463,1.63876,1.48978
-182,561,1.6543,-1.52457,0.00350178,-0.0118951,0.00238843,0.00386378,-0.012257,0.150416,0.00971877,0.0165497,1042,463,1.65434,1.52456
-175,561,1.65015,-1.55179,0.00505704,-0.0142982,0.00361754,0.00571107,-0.0149523,0.178861,0.0123213,0.0238594,1049,463,1.65013,1.55178
-168,561,1.69812,-1.5668,0.00792911,-0.0161949,0.00422797,0.00864865,-0.0169144,0.168569,0.0150138,0.0357894,1056,463,1.69818,1.56681
-161,561,1.81628,-1.52371,0.0111982,-0.0177462,0.00420842,0.0117977,-0.0183457,0.141495,0.0175396,0.0400659,1063,463,1.81634,1.52371
-154,561,1.96558,-1.46658,0.0147895,-0.0186575,0.0041474,0.0152961,-0.0191641,0.121547,0.0199373,0.0421371,1070,463,1.96564,1.46658
-147,561,2.08484,-1.34979,0.0189642,-0.0189316,0.0037219,0.0193263,-0.0192937,0.0969794,0.0222973,0.0427732,1077,463,2.0848,1.3498
-140,561,1.9054,-1.31042,0.0239728,-0.0187774,0.00254288,0.0241236,-0.0189281,0.0592039,0.0249162,0.0431096,1084,463,1.9054,1.31044
-133,561,-0.271484,-0.390106,0,0,0,0,0,0,0,-1,1091,463,-0.271523,0.390106
-126,561,1.43176,-1.14819,0,0,0,0,0,0,0,-1,1098,463,1.43175,1.14819
-119,561,1.39429,-1.29199,0.038203,-0.0153663,-0.00321692,0.0383955,-0.0155588,-0.0597654,0.0320671,0.0479401,1105,463,1.39424,1.292
-112,561,1.62573,-1.56506,0.0413309,-0.0136403,-0.00516219,0.0418115,-0.0141209,-0.0928257,0.0335858,0.0490285,1112,463,1.6257,1.56505
-105,561,1.8833,-1.81851,0.0428358,-0.0106289,-0.00671492,0.0436663,-0.0114593,-0.12305,0.0335887,0.0491788,1119,463,1.88324,1.81852
-98,561,2.12305,-2.0123,0,0,0,0,0,0,0,-1,1126,463,2.12306,2.0123
-91,561,2.09131,-1.31516,0,0,0,0,0,0,0,-1,1133,463,2.09137,1.31517
-84,561,1.71301,-0.169434,0,0,0,0,0,0,0,-1,1140,463,1.71297,0.169435
-77,561,1.67456,-0.87085,0,0,0,0,0,0,0,-1,1147,463,1.67459,0.870861
-70,561,1.63623,-1.5723,0,0,0,0,0,0,0,-1,1154,463,1.63621,1.57229
-63,561,0.0893555,-4.62836,0,0,0,0,0,0,0,-1,1161,463,0.0893472,4.62835
-56,561,-0.478394,-6.08743,0,0,0,0,0,0,0,-1,1168,463,-0.478428,6.08744
-49,561,-0.661377,-7.52588,0,0,0,0,0,0,0,-1,1175,463,-0.661406,7.52587
-42,561,-0.954834,-1.62927,0,0,0,0,0,0,0,-1,1182,463,-0.954848,1.62928
-35,561,-0.178223,-1.75897,0.0491962,0.010764,0.0207828,0.0582853,0.00167491,0.412274,0.0383107,0.0486069,1189,463,-0.178221,1.75898
-28,561,0.551392,-1.83667,0.0549978,0.00933362,0.0204677,0.0628289,0.00150252,0.365423,0.0413942,0.0477667,1196,463,0.551443,1.83668
-21,561,1.32239,-1.70596,0.0576154,0.00596998,0.0188989,0.0637924,-0.000207029,0.315899,0.0425975,0.0482035,1203,463,1.32242,1.70596
-14,561,2.09912,-1.57513,0,0,0,0,0,0,0,-1,1210,463,2.09908,1.57514
-7,561,2.91626,-1.83429,0,0,0,0,0,0,0,-1,1217,463,2.91623,1.83428
0,561,0.0162354,-0.676666,0.0487956,-0.0163662,0.0158356,0.0524402,-0.0200107,0.226209,0.0432037,0.0498311,1224,463,0.0161839,0.676677
7,561,0.338989,-0.957886,0.0436665,-0.0258594,0.0178237,0.0479695,-0.0301624,0.236887,0.0454983,0.0452012,1231,463,0.338946,0.9579
14,561,0.377808,-1.06851,0.0401122,-0.0371487,0.0210838,0.0454912,-0.0425277,0.2498,0.0508274,0.043128,1238,463,0.377836,1.0685
21,561,0.337646,-1.24744,0.0388179,-0.0503533,0.0237601,0.0447537,-0.0562892,0.244814,0.0584637,0.0440748,1245,463,0.337623,1.24742
28,561,0.0656738,-1.5509,0.0406109,-0.0640708,0.0260115,0.046718,-0.0701779,0.230608,0.0679414,0.0439609,1252,463,0.0657342,1.55091
35,561,-0.39624,-2.20346,0.0423539,-0.0775298,0.0300925,0.0494836,-0.0846594,0.232635,0.07833,0.0393448,1259,463,-0.396192,2.20345
42,561,-0.40625,-2.99268,0.0457839,-0.0906021,0.0334009,0.0535245,-0.0983427,0.227727,0.0889442,0.042558,1266,463,-0.406258,2.99266
49,561,1.49268,0.887756,0.0495692,-0.100913,0.035623,0.057576,-0.10892,0.221092,0.0976381,0.0433466,1273,463,1.49267,-0.887762
56,561,0.572388,1.5863,0.0540014,-0.106819,0.0361021,0.061734,-0.114552,0.211,0.10329,0.0456307,1280,463,0.572409,-1.5863
63,561,0.570923,2.30719,0.0524589,-0.101868,0.0343894,0.0597752,-0.109185,0.209623,0.0989296,0.0484529,1287,463,0.570936,-2.30718
70,561,0.538208,3.09253,0.048618,-0.0922251,0.0313086,0.0552641,-0.0988712,0.209172,0.0901694,0.0490811,1294,463,0.53815,-3.09254
77,561,0.479614,3.58276,0.0416571,-0.0806023,0.0283045,0.047892,-0.0868371,0.216815,0.0788617,0.0487364,1301,463,0.479609,-3.58275
84,561,0.192017,4.41132,0.0310063,-0.0639657,0.0250598,0.0372131,-0.0701725,0.242793,0.062965,0.044181,1308,463,0.192059,-4.41133
91,561,2.52979,-0.313263,0,0,0,0,0,0,0,-1,1315,463,2.52982,0.313269
98,561,2.849,-1.02274,-0.00207807,-0.0231677,0.0173297,0.00766282,-0.0329086,0.512081,0.0248897,0.0460611,1322,463,2.84905,1.02275
105,561,3.07983,-1.7066,-0.0175892,-0.00168189,0.013585,0.00610649,-0.0253776,1.05023,0.019279,0.0482253,1329,463,3.07979,1.70661
112,561,2.96997,-2.36328,-0.0336709,0.0187379,0.0103037,0.0206909,-0.0356238,1.38348,0.0328921,0.0445674,1336,463,2.96995,2.36328
119,561,3.97498,-2.81985,0,0,0,0,0,0,0,-1,1343,463,3.97502,2.81985
126,561,1.49011,-3.979,0,0,0,0,0,0,0,-1,1350,463,1.49011,3.97899
133,561,0.637085,-3.40833,0,0,0,0,0,0,0,-1,1357,463,0.637072,3.40833
140,561,-0.365234,-4.05341,-0.101869,0.0647637,0.010269,0.0653941,-0.102499,1.50948,0.0977193,0.0484791,1364,463,-0.365233,4.05341
147,561,-1.64307,-4.94876,-0.111478,0.0644671,0.0121913,0.0653078,-0.112319,1.50194,0.103743,0.041913,1371,463,-1.64307,4.94876
154,561,-2.96753,-5.93137,-0.121414,0.0568308,0.00881052,0.0572652,-0.121849,1.52153,0.105628,0.0412646,1378,463,-2.9675,5.93136
161,561,-4.27551,-6.88156,0,0,0,0,0,0,0,-1,1385,463,-4.27549,6.88157
168,561,3.85925,3.58826,0,0,0,0,0,0,0,-1,1392,463,3.85928,-3.58827
175,561,4.16626,3.37015,0,0,0,0,0,0,0,-1,1399,463,4.16623,-3.37014
182,561,4.30408,3.06348,0,0,0,0,0,0,0,-1,1406,463,4.30403,-3.06348
189,561,4.60754,2.74045,0,0,0,0,0,0,0,-1,1413,463,4.60752,-2.74045
196,561,3.44702,-0.0272827,0,0,0,0,0,0,0,-1,1420,463,3.44698,0.0272944
203,561,3.70898,0.662048,0,0,0,0,0,0,0,-1,1427,463,3.70894,-0.662047
210,561,4.03467,-1.87704,0,0,0,0,0,0,0,-1,1434,463,4.03463,1.87703
217,561,3.65356,-2.22458,-0.0725748,-0.00703308,-0.059368,0.0280082,-0.107616,-1.03759,0.0826769,0.0454334,1441,463,3.65352,2.22456
224,561,3.22937,-2.67664,-0.0634832,-0.00788844,-0.0538645,0.0249283,-0.0963,-1.02361,0.073924,0.0477376,1448,463,3.22936,2.67663
231,561,2.849,-3.0769,0,0,0,0,0,0,0,-1,1455,463,2.84899,3.07692
238,561,0.637939,-2.21423,0,0,0,0,0,0,0,-1,1462,463,0.637935,2.21423
245,561,2.18115,-2.29297,0,0,0,0,0,0,0,-1,1469,463,2.1811,2.29297
252,561,3.40039,-1.54391,0,0,0,0,0,0,0,-1,1476,463,3.40038,1.54391
259,561,3.38171,-1.49976,0,0,0,0,0,0,0,-1,1483,463,3.38172,1.49976
266,561,3.23828,-1.35083,0,0,0,0,0,0,0,-1,1490,463,3.23823,1.35082
273,561,3.0625,-1.66684,0,0,0,0,0,0,0,-1,1497,463,3.06253,1.66682
280,561,2.20886,-1.32098,-0.013212,-0.0131224,-0.0258908,0.0127237,-0.0390581,-0.786263,0.0311583,0.0491911,1504,463,2.20891,1.32099
287,561,2.20874,-1.51431,-0.0105622,-0.0109175,-0.0231924,0.0124532,-0.0339329,-0.781568,0.0277216,0.0418235,1511,463,2.20872,1.51432
294,561,2.276,-1.62775,-0.0088098,-0.00791901,-0.0204448,0.0120852,-0.0288141,-0.796289,0.0242627,0.0349558,1518,463,2.27598,1.62774
301,561,2.20886,-1.59918,-0.00783655,-0.00491352,-0.0176366,0.011322,-0.0240721,-0.826738,0.020872,0.0297503,1525,463,2.20884,1.59918
308,561,2.12622,-1.53061,-0.00650254,-0.00259755,-0.0145852,0.0101653,-0.0192653,-0.851937,0.0172604,0.019465,1532,463,2.12623,1.5306
315,561,2.14807,-1.53326,-0.00555614,-0.000238352,-0.0118416,0.00923919,-0.0150337,-0.895836,0.0141464,0.0129392,1539,463,2.14812,1.53327
322,561,2.14966,-1.4978,-0.00506643,0.00129938,-0.00965469,0.0082823,-0.0120493,-0.944625,0.0118055,0.0143883,1546,463,2.14966,1.4978
329,561,2.16113,-1.46011,-0.00529364,0.00138683,-0.00820599,0.00690636,-0.0108132,-0.978682,0.0103129,0.0126698,1553,463,2.16108,1.46011
336,561,2.1908,-1.43546,-0.00533521,0.00157228,-0.00695949,0.00588789,-0.00965083,-1.01573,0.00905854,0.0111419,1560,463,2.19078,1.43544
343,561,2.18884,-1.42139,-0.00514141,0.00137554,-0.00573514,0.00471323,-0.00847911,-1.04374,0.00771935,0.0100958,1567,463,2.18887,1.42139
350,561,2.17065,-1.38538,-0.00527095,0.000956376,-0.00481905,0.00358015,-0.00789472,-1.07222,0.00677933,0.00926709,1574,463,2.17064,1.38537
357,561,2.16431,-1.34082,-0.00445408,0.000639455,-0.00347755,0.00240307,-0.0062177,-1.10145,0.00513706,0.00927227,1581,463,2.16426,1.34082
364,561,2.1825,-1.3168,-0.00327594,0.000367732,-0.00253945,0.00167126,-0.00457946,-1.09656,0.00373679,0.00907739,1588,463,2.18246,1.31681
371,561,2.17871,-1.2818,-0.00235703,0.000229623,-0.00190936,0.00124245,-0.00336986,-1.08308,0.00275572,0.0152847,1595,463,2.17874,1.28179
378,561,2.18713,-1.25238,-0.00151881,0.000167791,-0.00124343,0.000826916,-0.00217793,-1.08337,0.00179235,0.0106205,1602,463,2.18708,1.25237
385,561,2.19507,-1.2088,-0.000779825,0.000163794,-0.000862348,0.000674964,-0.001291,-1.03571,0.00115347,0.00858097,1609,463,2.19512,1.2088
392,561,2.17175,-1.17664,-0.000131741,0.000224204,-0.00067924,0.000748401,-0.000655938,-0.913526,0.000811381,0.0124053,1616,463,2.17174,1.17663
399,561,2.15369,-1.14978,0.00060242,8.34676e-05,-0.000583205,0.000981266,-0.000295379,-0.57609,0.000771716,0.0190508,1623,463,2.15374,1.14978
406,561,2.17505,-1.10611,0.00131448,-4.82426e-05,-0.000518737,0.00148947,-0.000223235,-0.325355,0.00107515,0.0177428,1630,463,2.1751,1.1061
413,561,2.19861,-1.04837,0.00187399,-5.54006e-07,-0.00052141,0.00200926,-0.000135824,-0.253836,0.001387,0.0159129,1637,463,2.19855,1.04837
420,561,2.17737,-1.03729,0.00235436,7.25734e-05,-0.000593002,0.00249927,-7.23361e-05,-0.239669,0.00169081,0.012895,1644,463,2.17734,1.03728
427,561,2.17078,-0.998688,0.0029891,-8.85975e-06,-0.000699362,0.00314422,-0.00016398,-0.218269,0.00215289,0.00984304,1651,463,2.17074,0.998682
434,561,2.15259,-0.957275,0.00372355,0.000483041,-0.000589383,0.00382741,0.000379173,-0.17444,0.00243508,0.0103014,1658,463,2.15264,0.957272
441,561,2.16345,-0.935822,0.00444596,0.00196853,-0.000302446,0.00448235,0.00193214,-0.119738,0.00259607,0.0128815,1665,463,2.16345,0.935812
448,561,2.18811,-0.894867,0.00523274,0.00329671,-2.92488e-05,0.00523318,0.00329627,-0.015103,0.00305517,0.017541,1672,463,2.18805,0.894876
455,561,2.32825,-0.908936,0.00598195,0.00524653,0.000527244,0.00625704,0.00497144,0.480904,0.00381572,0.0328971,1679,463,2.32823,0.908932
462,561,2.30957,-0.775146,0.00621478,0.00786301,0.001538,0.00878378,0.00529401,1.03135,0.00510686,0.033859,1686,463,2.30957,0.775157
469,561,2.18469,-0.719513,0.00489369,0.0114149,0.00316707,0.0126998,0.00360876,1.18537,0.00755653,0.0230864,1693,463,2.18465,0.719502
476,561,2.22144,-0.713745,0.00413843,0.0157872,0.00531221,0.0178459,0.00207973,1.20108,0.0112682,0.0391902,1700,463,2.22146,0.713739
483,561,2.25317,-0.681427,0.00317749,0.0212604,0.00783063,0.02418,0.000257888,1.21392,0.0160347,0.0493764,1707,463,2.25315,0.681435
490,561,2.4646,-0.789734,0.00375719,0.0263476,0.0108348,0.0307041,-0.000599251,1.1885,0.020672,0.0443486,1714,463,2.46457,0.78972
497,561,2.72632,-0.968201,0,0,0,0,0,0,0,-1,1721,463,2.72627,0.968206
504,561,2.06995,1.14066,0,0,0,0,0,0,0,-1,1728,463,2.06994,-1.14066
511,561,0,0,0,0,0,0,0,0,0,-1,1735,463,0,0
518,561,0,0,0,0,0,0,0,0,0,-1,1742,463,0,0
525,561,0,0,0,0,0,0,0,0,0,-1,1749,463,0,0
532,561,0,0,0,0,0,0,0,0,0,-1,1756,463,0,0
539,561,0,0,0,0,0,0,0,0,0,-1,1763,463,0,0
546,561,0,0,0,0,0,0,0,0,0,-1,1770,463,0,0
553,561,0,0,0,0,0,0,0,0,0,-1,1777,463,0,0
560,561,0,0,0,0,0,0,0,0,0,-1,1784,463,0,0
567,561,0,0,0,0,0,0,0,0,0,-1,1791,463,0,0
574,561,0,0,0,0,0,0,0,0,0,-1,1798,463,0,0
581,561,0,0,0,0,0,0,0,0,0,-1,1805,463,0,0
588,561,0,0,0,0,0,0,0,0,0,-1,1812,463,0,0
595,561,0,0,0,0,0,0,0,0,0,-1,1819,463,0,0
602,561,0,0,0,0,0,0,0,0,0,-1,1826,463,0,0
609,561,0,0,0,0,0,0,0,0,0,-1,1833,463,0,0
616,561,0,0,0,0,0,0,0,0,0,-1,1840,463,0,0
623,561,0,0,0,0,0,0,0,0,0,-1,1847,463,0,0
630,561,0,0,0,0,0,0,0,0,0,-1,1854,463,0,0
637,561,0,0,0,0,0,0,0,0,0,-1,1861,463,0,0
644,561,0,0,0,0,0,0,0,0,0,-1,1868,463,0,0
651,561,0,0,0,0,0,0,0,0,0,-1,1875,463,0,0
658,561,0,0,0,0,0,0,0,0,0,-1,1882,463,0,0
665,561,0,0,0,0,0,0,0,0,0,-1,1889,463,0,0
672,561,0,0,0,0,0,0,0,0,0,-1,1896,463,0,0
679,561,0,0,0,0,0,0,0,0,0,-1,1903,463,0,0
686,561,0,0,0,0,0,0,0,0,0,-1,1910,463,0,0
693,561,0,0,0,0,0,0,0,0,0,-1,1917,463,0,0
700,561,0,0,0,0,0,0,0,0,0,-1,1924,463,0,0
707,561,0,0,0,0,0,0,0,0,0,-1,1931,463,0,0
714,561,0,0,0,0,0,0,0,0,0,-1,1938,463,0,0
721,561,0,0,0,0,0,0,0,0,0,-1,1945,463,0,0
728,561,0,0,0,0,0,0,0,0,0,-1,1952,463,0,0
735,561,0,0,0,0,0,0,0,0,0,-1,1959,463,0,0
742,561,0,0,0,0,0,0,0,0,0,-1,1966,463,0,0
749,561,0,0,0,0,0,0,0,0,0,-1,1973,463,0,0
756,561,0,0,0,0,0,0,0,0,0,-1,1980,463,0,0
763,561,0,0,0,0,0,0,0,0,0,-1,1987,463,0,0
770,561,0,0,0,0,0,0,0,0,0,-1,1994,463,0,0
777,561,0,0,0,0,0,0,0,0,0,-1,2001,463,0,0
784,561,0,0,0,0,0,0,0,0,0,-1,2008,463,0,0
791,561,0,0,0,0,0,0,0,0,0,-1,2015,463,0,0
798,561,0,0,0,0,0,0,0,0,0,-1,2022,463,0,0
805,561,0,0,0,0,0,0,0,0,0,-1,2029,463,0,0
812,561,0,0,0,0,0,0,0,0,0,-1,2036,463,0,0
-700,554,0,0,0,0,0,0,0,0,0,-1,524,470,0,0
-693,554,0,0,0,0,0,0,0,0,0,-1,531,470,0,0
-686,554,0,0,0,0,0,0,0,0,0,-1,538,470,0,0
-679,554,0,0,0,0,0,0,0,0,0,-1,545,470,0,0
-672,554,0,0,0,0,0,0,0,0,0,-1,552,470,0,0
-665,554,0,0,0,0,0,0,0,0,0,-1,559,470,0,0
-658,554,0,0,0,0,0,0,0,0,0,-1,566,470,0,0
-651,554,0,0,0,0,0,0,0,0,0,-1,573,470,0,0
-644,554,0,0,0,0,0,0,0,0,0,-1,580,470,0,0
-637,554,0,0,0,0,0,0,0,0,0,-1,587,470,0,0
-630,554,0,0,0,0,0,0,0,0,0,-1,594,470,0,0
-623,554,0,0,0,0,0,0,0,0,0,-1,601,470,0,0
-616,554,0,0,0,0,0,0,0,0,0,-1,608,470,0,0
-609,554,0,0,0,0,0,0,0,0,0,-1,615,470,0,0
-602,554,0,0,0,0,0,0,0,0,0,-1,622,470,0,0
-595,554,0,0,0,0,0,0,0,0,0,-1,629,470,0,0
-588,554,0,0,0,0,0,0,0,0,0,-1,636,470,0,0
-581,554,0,0,0,0,0,0,0,0,0,-1,643,470,0,0
-574,554,0,0,0,0,0,0,0,0,0,-1,650,470,0,0
-567,554,0,0,0,0,0,0,0,0,0,-1,657,470,0,0
-560,554,0,0,0,0,0,0,0,0,0,-1,664,470,0,0
-553,554,0,0,0,0,0,0,0,0,0,-1,671,470,0,0
-546,554,0,0,0,0,0,0,0,0,0,-1,678,470,0,0
-539,554,0,0,0,0,0,0,0,0,0,-1,685,470,0,0
-532,554,0,0,0,0,0,0,0,0,0,-1,692,470,0,0
-525,554,0,0,0,0,0,0,0,0,0,-1,699,470,0,0
-518,554,0,0,0,0,0,0,0,0,0,-1,706,470,0,0
-511,554,0,0,0,0,0,0,0,0,0,-1,713,470,0,0
-504,554,0,0,0,0,0,0,0,0,0,-1,720,470,0,0
-497,554,0,0,0,0,0,0,0,0,0,-1,727,470,0,0
-490,554,0,0,0,0,0,0,0,0,0,-1,734,470,0,0
-483,554,0,0,0,0,0,0,0,0,0,-1,741,470,0,0
-476,554,0,0,0,0,0,0,0,0,0,-1,748,470,0,0
-469,554,0,0,0,0,0,0,0,0,0,-1,755,470,0,0
-462,554,0,0,0,0,0,0,0,0,0,-1,762,470,0,0
-455,554,0,0,0,0,0,0,0,0,0,-1,769,470,0,0
-448,554,0,0,0,0,0,0,0,0,0,-1,776,470,0,0
-441,554,0,0,0,0,0,0,0,0,0,-1,783,470,0,0
-434,554,0,0,0,0,0,0,0,0,0,-1,790,470,0,0
-427,554,0,0,0,0,0,0,0,0,0,-1,797,470,0,0
-420,554,0,0,0,0,0,0,0,0,0,-1,804,470,0,0
-413,554,0,0,0,0,0,0,0,0,0,-1,811,470,0,0
-406,554,0,0,0,0,0,0,0,0,0,-1,818,470,0,0
-399,554,2.18335,2.61304,0,0,0,0,0,0,0,-1,825,470,2.18333,-2.61303
-392,554,1.05078,-1.11877,0,0,0,0,0,0,0,-1,832,470,1.05077,1.11877
-385,554,1.22162,-1.06793,-0.029815,-0.00966687,-0.00715116,-0.00738674,-0.0320951,-1.26214,0.0194088,0.0491529,839,470,1.22165,1.06795
-378,554,1.47089,-0.99762,-0.0250299,-0.00656127,-0.00309769,-0.00605555,-0.0255357,-1.40897,0.0154072,0.0494478,846,470,1.47087,0.997616
-371,554,1.51746,-1.00793,-0.0200056,-0.00435051,-0.000852768,-0.00430419,-0.0200519,-1.51654,0.0121892,0.0459958,853,470,1.51747,1.00792
-364,554,1.44574,-0.959625,-0.0165059,-0.00300868,0.00109615,-0.00292023,-0.0165943,1.49029,0.0102294,0.04173,860,470,1.44576,0.959628
-357,554,1.13232,-0.734772,-0.0135511,-0.000992549,0.00212366,-0.000643157,-0.0139005,1.40773,0.00906022,0.0437278,867,470,1.13231,0.734775
-350,554,1.29059,-0.615173,-0.0105088,0.000975711,0.00205835,0.00133348,-0.0108665,1.3987,0.0077273,0.0476691,874,470,1.29057,0.61517
-343,554,1.57147,-0.675079,-0.00830006,0.00259613,0.00184975,0.00290158,-0.00860551,1.40714,0.00691033,0.0424573,881,470,1.57146,0.675087
-336,554,1.63452,-0.721344,-0.00622414,0.00334216,0.00130259,0.00351636,-0.00639834,1.43786,0.0058043,0.0320632,888,470,1.63454,0.721331
-329,554,1.58667,-0.83725,-0.00538815,0.00349417,0.0010573,0.00361829,-0.00551227,1.45394,0.0053092,0.01652,895,470,1.58668,0.837245
-322,554,1.59381,-0.884888,-0.00536258,0.0031778,0.000774209,0.00324741,-0.0054322,1.48112,0.00506382,0.00980949,902,470,1.59379,0.884899
-315,554,1.60699,-0.922058,-0.00507635,0.00261297,0.000690583,0.0026745,-0.00513788,1.48193,0.00458461,0.0102853,909,470,1.60701,0.922067
-308,554,1.59589,-0.966797,-0.00452825,0.00186638,0.000553304,0.0019139,-0.00457578,1.48512,0.00385044,0.0134913,916,470,1.59588,0.966792
-301,554,1.59625,-0.998016,-0.00394825,0.00130908,0.000356411,0.00133314,-0.0039723,1.50341,0.00318692,0.0138692,923,470,1.59626,0.998005
-294,554,1.59271,-1.03058,-0.0032234,0.000360774,0.000155308,0.000367491,-0.00323011,1.52757,0.00228577,0.0110473,930,470,1.59272,1.03058
-287,554,1.57239,-1.06903,-0.00244881,0.000126502,-0.000289965,0.000158747,-0.00248105,-1.46005,0.00170941,0.0108326,937,470,1.57238,1.06904
-280,554,1.55597,-1.09415,-0.00116094,0.000116015,-0.00084542,0.000536966,-0.00158189,-1.10881,0.00127194,0.0108945,944,470,1.556,1.09415
-273,554,1.58282,-1.13474,4.21446e-05,9.41292e-05,-0.00149302,0.00156138,-0.00142511,-0.794102,0.00172485,0.0143092,951,470,1.58281,1.13474
-266,554,1.60785,-1.18027,0.000691738,0.000446267,-0.00217077,0.00274324,-0.00160524,-0.757158,0.00253909,0.0120606,958,470,1.60784,1.18027
-259,554,1.60181,-1.19836,0.00140767,0.000859366,-0.00286581,0.00401241,-0.00174538,-0.737712,0.00340907,0.0114127,965,470,1.60182,1.19835
-252,554,1.57941,-1.21582,0.00196372,0.00105232,-0.0035979,0.00513467,-0.00211863,-0.722405,0.00430668,0.0136573,972,470,1.57939,1.21583
-245,554,1.57922,-1.24713,0.00196366,0.00117249,-0.0040394,0.0056268,-0.00249065,-0.736588,0.00480178,0.0158562,979,470,1.57923,1.24713
-238,554,1.59747,-1.30545,0.00173831,0.000916946,-0.00435818,0.00570511,-0.00304986,-0.738421,0.00513159,0.0114708,986,470,1.59747,1.30544
-231,554,1.60461,-1.34085,0.00150048,0.000257966,-0.00447825,0.00540036,-0.00364191,-0.716474,0.00525336,0.00945878,993,470,1.60459,1.34085
-224,554,1.60309,-1.36685,0.00131924,-0.000872822,-0.0043133,0.00467359,-0.00422717,-0.660979,0.00514101,0.0102888,1000,470,1.60309,1.36686
-217,554,1.61249,-1.38589,0.00113067,-0.00231855,-0.0036812,0.00347122,-0.0046591,-0.566336,0.00471071,0.0107425,1007,470,1.6125,1.38589
-210,554,1.62848,-1.41299,0.00116874,-0.00445008,-0.00259465,0.00218359,-0.00546493,-0.372839,0.00454932,0.0128998,1014,470,1.62848,1.41298
-203,554,1.62561,-1.44144,0.00155227,-0.00677396,-0.00127608,0.00174345,-0.00696515,-0.148714,0.00532066,0.0178035,1021,470,1.62561,1.44143
-196,554,1.59204,-1.4454,0.00196913,-0.00940952,0.000109331,0.00197018,-0.00941057,0.00960723,0.00702317,0.0244129,1028,470,1.59206,1.44539
-189,554,1.56824,-1.46109,0.00241903,-0.0124529,0.0016925,0.00260921,-0.0126431,0.111899,0.00941969,0.0318457,1035,470,1.56823,1.46109
-182,554,1.60693,-1.43204,0.00376306,-0.0149382,0.00328901,0.00432464,-0.0154998,0.169113,0.0120365,0.0369518,1042,470,1.60689,1.43205
-175,554,1.60583,-1.38962,0.00565775,-0.0179032,0.00488864,0.00663182,-0.0188772,0.196676,0.0152828,0.0408458,1049,470,1.6058,1.38962
-168,554,1.61902,-1.41391,0.00933352,-0.020195,0.00564961,0.0103775,-0.021239,0.182732,0.0186094,0.0456456,1056,470,1.61906,1.4139
-161,554,1.6239,-1.42508,0.0136067,-0.0220862,0.00566245,0.0144834,-0.022963,0.15362,0.0218037,0.0438101,1063,470,1.62394,1.42507
-154,554,1.8252,-1.39276,0.0184132,-0.0232078,0.00556892,0.0191454,-0.02394,0.130737,0.0249267,0.0422412,1070,470,1.82526,1.39275
-147,554,2.10425,-1.35995,0,0,0,0,0,0,0,-1,1077,470,2.1042,1.35995
-140,554,-0.796753,-0.397552,0,0,0,0,0,0,0,-1,1084,470,-0.796812,0.397562
-133,554,-0.224731,-0.556427,0.0392768,-0.0226,0.000899598,0.0392898,-0.0226131,0.0145344,0.0361694,0.0444143,1091,470,-0.224697,0.556423
-126,554,0.316162,-0.735291,0.0470435,-0.0213081,-0.00210927,0.0471085,-0.0213732,-0.0308201,0.0404578,0.0438977,1098,470,0.316196,0.735287
-119,554,1.08313,-1.11304,0.0543591,-0.0186785,-0.00550219,0.0547713,-0.0190907,-0.0747713,0.0442717,0.0427684,1105,470,1.08311,1.11303
-112,554,1.96802,-1.4281,0.060059,-0.016111,-0.00898561,0.0611046,-0.0171567,-0.115849,0.0474996,0.0451604,1112,470,1.968,1.42811
-105,554,2.90918,-1.67969,0,0,0,0,0,0,0,-1,1119,470,2.90924,1.67969
-98,554,1.52795,-2.4202,0,0,0,0,0,0,0,-1,1126,470,1.52795,2.4202
-91,554,-0.166016,-0.760956,0,0,0,0,0,0,0,-1,1133,470,-0.166001,0.760961
-84,554,0.23999,-0.994659,0,0,0,0,0,0,0,-1,1140,470,0.240043,0.99467
-77,554,1.7052,-0.558716,0,0,0,0,0,0,0,-1,1147,470,1.70516,0.558727
-70,554,0.460083,-2.33859,0,0,0,0,0,0,0,-1,1154,470,0.46011,2.33859
-63,554,0.214478,-4.39279,0,0,0,0,0,0,0,-1,1161,470,0.21443,4.3928
-56,554,-0.3573,-5.88034,0,0,0,0,0,0,0,-1,1168,470,-0.357336,5.88034
-49,554,-0.514771,0.024292,0,0,0,0,0,0,0,-1,1175,470,-0.514758,-0.0243031
-42,554,-0.846069,-1.72067,0,0,0,0,0,0,0,-1,1182,470,-0.846117,1.72069
-35,554,-0.18335,-1.849,0.0493533,0.0136204,0.0229625,0.0605813,0.0023924,0.454786,0.0396142,0.0468712,1189,470,-0.183298,1.849
-28,554,0.146118,-1.68079,0.0570965,0.0116864,0.0218665,0.0659139,0.00286897,0.383294,0.0430181,0.0464706,1196,470,0.14609,1.68078
-21,554,1.15979,-1.69901,0,0,0,0,0,0,0,-1,1203,470,1.15981,1.69899
-14,554,-0.526855,0.223877,0.0556916,-0.000145382,0.0162722,0.0600876,-0.00454141,0.263856,0.0416548,0.045353,1210,470,-0.526878,-0.223867
-7,554,-0.350586,-0.189911,0.0528904,-0.0101659,0.0138586,0.0558018,-0.0130773,0.20707,0.0422405,0.044055,1217,470,-0.350534,0.189912
0,554,-0.138794,-0.50708,0.0495845,-0.0216448,0.0140577,0.0522586,-0.0243188,0.187972,0.0451822,0.0477705,1224,470,-0.138837,0.50709
7,554,0.149902,-0.767456,0.0461263,-0.033494,0.0158092,0.0491505,-0.0365182,0.189009,0.0496397,0.0490321,1231,470,0.149956,0.767468
14,554,0.111084,-0.600464,0.0447732,-0.0471997,0.0190371,0.0485579,-0.0509844,0.196247,0.0574764,0.0466902,1238,470,0.111144,0.600479
21,554,-0.27771,-0.847534,0.0459024,-0.0630669,0.0217872,0.050097,-0.0672615,0.1902,0.0679981,0.0423721,1245,470,-0.277712,0.847519
28,554,-0.576904,-1.21375,0.0501031,-0.0786977,0.024163,0.0544869,-0.0830814,0.179473,0.079995,0.0422186,1252,470,-0.576954,1.21376
35,554,-1.18835,-1.84778,0.0533867,-0.0944539,0.0294024,0.0590196,-0.100087,0.189286,0.0928745,0.0394304,1259,470,-1.18836,1.84778
42,554,1.65161,1.40085,0.0575873,-0.109591,0.033942,0.0642157,-0.116219,0.192859,0.105606,0.0436112,1266,470,1.6516,-1.40085
49,554,2.17126,2.16827,0.0609007,-0.120364,0.0378862,0.0685007,-0.127964,0.197973,0.115147,0.0454937,1273,470,2.17121,-2.16827
56,554,0.436523,2.67627,0,0,0,0,0,0,0,-1,1280,470,0.436516,-2.67628
63,554,0.38623,3.38519,0.0567381,-0.116219,0.0403567,0.0656912,-0.125172,0.218313,0.111965,0.0441751,1287,470,0.386241,-3.38519
70,554,0.348755,4.12653,0.0470724,-0.101394,0.0390511,0.0567174,-0.111039,0.242139,0.0985323,0.0469181,1294,470,0.348749,-4.12652
77,554,0.470947,4.23346,0,0,0,0,0,0,0,-1,1301,470,0.470993,-4.23347
84,554,0.0423584,4.95477,0.0176184,-0.0651176,0.0367018,0.0315526,-0.0790518,0.36285,0.0657911,0.0470118,1308,470,0.0423487,-4.95476
91,554,-0.167847,5.55743,0,0,0,0,0,0,0,-1,1315,470,-0.16786,-5.55744
98,554,2.27588,-1.15268,0,0,0,0,0,0,0,-1,1322,470,2.27588,1.15267
105,554,2.49048,-1.94312,0,0,0,0,0,0,0,-1,1329,470,2.49053,1.9431
112,554,2.08887,-3.20361,-0.0604336,0.0284389,0.0236476,0.0343394,-0.0663341,1.32627,0.0590942,0.0383692,1336,470,2.08891,3.20361
119,554,1.27026,-3.74405,-0.079964,0.0486923,0.0209095,0.0520053,-0.0832769,1.41366,0.0787977,0.0392103,1343,470,1.27031,3.74405
126,554,0.417114,-4.20233,-0.100696,0.0645859,0.0198839,0.0669443,-0.103054,1.45274,0.098884,0.0426399,1350,470,0.417096,4.20234
133,554,-0.633423,-4.36612,-0.120517,0.0731905,0.0205164,0.0753396,-0.122666,1.46642,0.115402,0.0435056,1357,470,-0.63337,4.36611
140,554,-1.95435,-4.72726,-0.136446,0.0778193,0.0226841,0.0801945,-0.138821,1.46647,0.12795,0.0468579,1364,470,-1.95432,4.72726
147,554,-3.50476,-5.46143,0,0,0,0,0,0,0,-1,1371,470,-3.50479,5.46144
154,554,-4.78271,-5.85867,0,0,0,0,0,0,0,-1,1378,470,-4.78274,5.85866
161,554,5.0531,4.54623,0,0,0,0,0,0,0,-1,1385,470,5.0531,-4.54624
168,554,3.72327,4.37369,0,0,0,0,0,0,0,-1,1392,470,3.72324,-4.37369
175,554,4.20239,4.25659,0,0,0,0,0,0,0,-1,1399,470,4.20238,-4.2566
182,554,4.34021,3.33237,0,0,0,0,0,0,0,-1,1406,470,4.3402,-3.33238
189,554,4.56665,3.11749,0,0,0,0,0,0,0,-1,1413,470,4.56666,-3.1175
196,554,3.2821,0.891205,0,0,0,0,0,0,0,-1,1420,470,3.28211,-0.891208
203,554,3.55615,1.1395,0,0,0,0,0,0,0,-1,1427,470,3.5561,-1.1395
210,554,3.13428,-0.588104,0,0,0,0,0,0,0,-1,1434,470,3.13423,0.588105
217,554,4.05164,-2.36783,0,0,0,0,0,0,0,-1,1441,470,4.05162,2.36782
224,554,3.59436,-2.83066,0,0,0,0,0,0,0,-1,1448,470,3.5944,2.83065
231,554,2.6947,-1.6366,0,0,0,0,0,0,0,-1,1455,470,2.69476,1.63658
238,554,3.03711,-1.49835,0,0,0,0,0,0,0,-1,1462,470,3.0371,1.49835
245,554,2.63953,-1.87329,0,0,0,0,0,0,0,-1,1469,470,2.63951,1.87328
252,554,2.14783,-2.29904,0,0,0,0,0,0,0,-1,1476,470,2.14787,2.29904
259,554,3.97729,-1.32358,0,0,0,0,0,0,0,-1,1483,470,3.97732,1.32356
266,554,1.79138,-2.99207,0,0,0,0,0,0,0,-1,1490,470,1.79137,2.99206
273,554,2.6908,1.57291,0,0,0,0,0,0,0,-1,1497,470,2.69078,-1.57289
280,554,2.13574,-1.03754,0,0,0,0,0,0,0,-1,1504,470,2.13569,1.03755
287,554,2.30786,-1.40848,0,0,0,0,0,0,0,-1,1511,470,2.30785,1.40847
294,554,2.05872,-1.72263,-0.0135137,-0.0115671,-0.0267469,0.0142242,-0.039305,-0.803585,0.0320159,0.0462692,1518,470,2.05868,1.72262
301,554,3.48279,-1.55124,-0.012092,-0.00719505,-0.0232369,0.013722,-0.033009,-0.837889,0.0277356,0.0446934,1525,470,3.48277,1.55125
308,554,2.78625,-1.59042,-0.00995401,-0.00384887,-0.0193846,0.012722,-0.0265249,-0.863494,0.0231216,0.0384493,1532,470,2.7863,1.59042
315,554,2.40857,-1.56778,-0.00830438,-0.000301621,-0.0158433,0.0120378,-0.0206438,-0.909092,0.0190855,0.0332602,1539,470,2.40851,1.56779
322,554,2.34265,-1.51776,-0.00744435,0.00190676,-0.0130926,0.0111336,-0.0166712,-0.956897,0.0161589,0.029156,1546,470,2.34261,1.51776
329,554,2.224,-1.47296,-0.00772549,0.00203117,-0.0111421,0.00931611,-0.0150104,-0.991741,0.0141726,0.0177965,1553,470,2.22399,1.47297
336,554,2.19983,-1.43054,-0.00769429,0.0021356,-0.00965787,0.00805722,-0.0136159,-1.02077,0.0126494,0.010624,1560,470,2.19985,1.43054
343,554,2.2135,-1.4249,-0.00720997,0.00181993,-0.00813239,0.00660663,-0.0119967,-1.0388,0.0108898,0.00922268,1567,470,2.21349,1.4249
350,554,2.21997,-1.39008,-0.00712028,0.00127509,-0.0069761,0.00521906,-0.0110642,-1.05624,0.00960095,0.00915834,1574,470,2.22002,1.39008
357,554,2.224,-1.34918,-0.00596767,0.000882268,-0.00535864,0.00381697,-0.00890237,-1.06975,0.00753662,0.0103773,1581,470,2.22395,1.34919
364,554,2.22852,-1.33148,-0.00443334,0.000551334,-0.0042619,0.00299615,-0.00687816,-1.04998,0.00584595,0.00857849,1588,470,2.22852,1.33149
371,554,2.22827,-1.30038,-0.00325494,0.000345144,-0.00348174,0.00246462,-0.00537442,-1.02397,0.00462864,0.00827951,1595,470,2.22832,1.30037
378,554,2.22998,-1.24707,-0.00215104,0.000257517,-0.00265171,0.0019656,-0.00385912,-0.998549,0.00342163,0.00979465,1602,470,2.22995,1.24708
385,554,2.24304,-1.20697,-0.00121912,0.000227911,-0.00213008,0.001754,-0.00274521,-0.949117,0.00261855,0.00899455,1609,470,2.24308,1.20698
392,554,2.21362,-1.17743,-0.000491098,0.000240582,-0.00177863,0.0016906,-0.00194112,-0.886827,0.00209844,0.0122191,1616,470,2.21366,1.17744
399,554,2.19177,-1.14267,0.000254802,0.000113248,-0.00146596,0.00165169,-0.00128364,-0.761277,0.00169915,0.0175074,1623,470,2.19182,1.14266
406,554,2.21216,-1.11398,0.000944838,-5.10434e-05,-0.0012032,0.00174906,-0.000855265,-0.589205,0.00153284,0.0162778,1630,470,2.21212,1.11398
413,554,2.21472,-1.04822,0.00139046,2.07735e-05,-0.00098504,0.00190533,-0.000494097,-0.481634,0.001463,0.0148724,1637,470,2.21477,1.04823
420,554,2.19836,-1.02457,0.00175042,6.91254e-05,-0.000836604,0.00209577,-0.000276226,-0.391494,0.00149777,0.0158001,1644,470,2.19832,1.02457
427,554,2.20154,-0.999939,0.00223951,1.14492e-05,-0.00071984,0.00245184,-0.000200881,-0.286835,0.00170547,0.010966,1651,470,2.20149,0.999953
434,554,2.19458,-0.976196,0.00280377,0.000352634,-0.000499052,0.00290148,0.000254922,-0.193349,0.00185519,0.00936175,1658,470,2.1946,0.976196
441,554,2.20837,-0.947998,0.00333153,0.00148417,-0.000184218,0.00334972,0.00146598,-0.0984282,0.00193897,0.0104105,1665,470,2.20838,0.947984
448,554,2.21411,-0.896301,0.00378331,0.00244274,0.000109698,0.00379223,0.00243383,0.0811106,0.0022186,0.0111669,1672,470,2.21406,0.89629
455,554,2.21729,-0.845245,0.00420593,0.00384403,0.000599101,0.00465081,0.00339915,0.638738,0.00277892,0.0128396,1679,470,2.21729,0.845259
462,554,2.22107,-0.802612,0.00435227,0.00579118,0.00140982,0.00665452,0.00348894,1.02133,0.0038435,0.0161704,1686,470,2.22113,0.802624
469,554,2.23438,-0.756775,0.00300344,0.00849449,0.00267184,0.00957997,0.00191796,1.1849,0.00585303,0.0220073,1693,470,2.2344,0.756785
476,554,2.31763,-0.783875,0.00218166,0.0117717,0.00424268,0.0133792,0.000574137,1.20862,0.00873438,0.039374,1700,470,2.31763,0.783883
483,554,2.35974,-0.853607,0.000941374,0.0157968,0.00617183,0.0180263,-0.00128816,1.22414,0.0124691,0.0489654,1707,470,2.35969,0.85362
490,554,2.38013,-0.904846,0,0,0,0,0,0,0,-1,1714,470,2.38017,0.904843
497,554,1.8418,0.0494385,0,0,0,0,0,0,0,-1,1721,470,1.84182,-0.0494309
504,554,0.254639,-0.667725,0,0,0,0,0,0,0,-1,1728,470,0.254586,0.667737
511,554,0.786621,-0.617554,0,0,0,0,0,0,0,-1,1735,470,0.786647,0.617543
518,554,2.4519,0.0266724,0,0,0,0,0,0,0,-1,1742,470,2.45188,-0.0266793
525,554,0,0,0,0,0,0,0,0,0,-1,1749,470,0,0
532,554,0,0,0,0,0,0,0,0,0,-1,1756,470,0,0
539,554,0,0,0,0,0,0,0,0,0,-1,1763,470,0,0
546,554,0,0,0,0,0,0,0,0,0,-1,1770,470,0,0
553,554,0,0,0,0,0,0,0,0,0,-1,1777,470,0,0
560,554,0,0,0,0,0,0,0,0,0,-1,1784,470,0,0
567,554,0,0,0,0,0,0,0,0,0,-1,1791,470,0,0
574,554,0,0,0,0,0,0,0,0,0,-1,1798,470,0,0
581,554,0,0,0,0,0,0,0,0,0,-1,1805,470,0,0
588,554,0,0,0,0,0,0,0,0,0,-1,1812,470,0,0
595,554,0,0,0,0,0,0,0,0,0,-1,1819,470,0,0
602,554,0,0,0,0,0,0,0,0,0,-1,1826,470,0,0
609,554,0,0,0,0,0,0,0,0,0,-1,1833,470,0,0
616,554,0,0,0,0,0,0,0,0,0,-1,1840,470,0,0
623,554,0,0,0,0,0,0,0,0,0,-1,1847,470,0,0
630,554,0,0,0,0,0,0,0,0,0,-1,1854,470,0,0
637,554,0,0,0,0,0,0,0,0,0,-1,1861,470,0,0
644,554,0,0,0,0,0,0,0,0,0,-1,1868,470,0,0
651,554,0,0,0,0,0,0,0,0,0,-1,1875,470,0,0
658,554,0,0,0,0,0,0,0,0,0,-1,1882,470,0,0
665,554,0,0,0,0,0,0,0,0,0,-1,1889,470,0,0
672,554,0,0,0,0,0,0,0,0,0,-1,1896,470,0,0
679,554,0,0,0,0,0,0,0,0,0,-1,1903,470,0,0
686,554,0,0,0,0,0,0,0,0,0,-1,1910,470,0,0
693,554,0,0,0,0,0,0,0,0,0,-1,1917,470,0,0
700,554,0,0,0,0,0,0,0,0,0,-1,1924,470,0,0
707,554,0,0,0,0,0,0,0,0,0,-1,1931,470,0,0
714,554,0,0,0,0,0,0,0,0,0,-1,1938,470,0,0
721,554,0,0,0,0,0,0,0,0,0,-1,1945,470,0,0
728,554,0,0,0,0,0,0,0,0,0,-1,1952,470,0,0
735,554,0,0,0,0,0,0,0,0,0,-1,1959,470,0,0
742,554,0,0,0,0,0,0,0,0,0,-1,1966,470,0,0
749,554,0,0,0,0,0,0,0,0,0,-1,1973,470,0,0
756,554,0,0,0,0,0,0,0,0,0,-1,1980,470,0,0
763,554,0,0,0,0,0,0,0,0,0,-1,1987,470,0,0
770,554,0,0,0,0,0,0,0,0,0,-1,1994,470,0,0
777,554,0,0,0,0,0,0,0,0,0,-1,2001,470,0,0
784,554,0,0,0,0,0,0,0,0,0,-1,2008,470,0,0
791,554,0,0,0,0,0,0,0,0,0,-1,2015,470,0,0
798,554,0,0,0,0,0,0,0,0,0,-1,2022,470,0,0
805,554,0,0,0,0,0,0,0,0,0,-1,2029,470,0,0
812,554,0,0,0,0,0,0,0,0,0,-1,2036,470,0,0
-700,547,0,0,0,0,0,0,0,0,0,-1,524,477,0,0
-693,547,0,0,0,0,0,0,0,0,0,-1,531,477,0,0
-686,547,0,0,0,0,0,0,0,0,0,-1,538,477,0,0
-679,547,0,0,0,0,0,0,0,0,0,-1,545,477,0,0
-672,547,0,0,0,0,0,0,0,0,0,-1,552,477,0,0
-665,547,0,0,0,0,0,0,0,0,0,-1,559,477,0,0
-658,547,0,0,0,0,0,0,0,0,0,-1,566,477,0,0
-651,547,0,0,0,0,0,0,0,0,0,-1,573,477,0,0
-644,547,0,0,0,0,0,0,0,0,0,-1,580,477,0,0
-637,547,0,0,0,0,0,0,0,0,0,-1,587,477,0,0
-630,547,0,0,0,0,0,0,0,0,0,-1,594,477,0,0
-623,547,0,0,0,0,0,0,0,0,0,-1,601,477,0,0
-616,547,0,0,0,0,0,0,0,0,0,-1,608,477,0,0
-609,547,0,0,0,0,0,0,0,0,0,-1,615,477,0,0
-602,547,0,0,0,0,0,0,0,0,0,-1,622,477,0,0
-595,547,0,0,0,0,0,0,0,0,0,-1,629,477,0,0
-588,547,0,0,0,0,0,0,0,0,0,-1,636,477,0,0
-581,547,0,0,0,0,0,0,0,0,0,-1,643,477,0,0
-574,547,0,0,0,0,0,0,0,0,0,-1,650,477,0,0
-567,547,0,0,0,0,0,0,0,0,0,-1,657,477,0,0
-560,547,0,0,0,0,0,0,0,0,0,-1,664,477,0,0
-553,547,0,0,0,0,0,0,0,0,0,-1,671,477,0,0
-546,547,0,0,0,0,0,0,0,0,0,-1,678,477,0,0
-539,547,0,0,0,0,0,0,0,0,0,-1,685,477,0,0
-532,547,0,0,0,0,0,0,0,0,0,-1,692,477,0,0
-525,547,0,0,0,0,0,0,0,0,0,-1,699,477,0,0
-518,547,0,0,0,0,0,0,0,0,0,-1,706,477,0,0
-511,547,0,0,0,0,0,0,0,0,0,-1,713,477,0,0
-504,547,0,0,0,0,0,0,0,0,0,-1,720,477,0,0
-497,547,0,0,0,0,0,0,0,0,0,-1,727,477,0,0
-490,547,0,0,0,0,0,0,0,0,0,-1,734,477,0,0
-483,547,0,0,0,0,0,0,0,0,0,-1,741,477,0,0
-476,547,0,0,0,0,0,0,0,0,0,-1,748,477,0,0
-469,547,0,0,0,0,0,0,0,0,0,-1,755,477,0,0
-462,547,0,0,0,0,0,0,0,0,0,-1,762,477,0,0
-455,547,0,0,0,0,0,0,0,0,0,-1,769,477,0,0
-448,547,0,0,0,0,0,0,0,0,0,-1,776,477,0,0
-441,547,0,0,0,0,0,0,0,0,0,-1,783,477,0,0
-434,547,0,0,0,0,0,0,0,0,0,-1,790,477,0,0
-427,547,0,0,0,0,0,0,0,0,0,-1,797,477,0,0
-420,547,0,0,0,0,0,0,0,0,0,-1,804,477,0,0
-413,547,0,0,0,0,0,0,0,0,0,-1,811,477,0,0
-406,547,2.91278,1.96182,0,0,0,0,0,0,0,-1,818,477,2.91275,-1.96181
-399,547,2.54504,-1.45334,0,0,0,0,0,0,0,-1,825,477,2.54504,1.45333
-392,547,2.45526,-1.14157,-0.0338682,-0.0110776,-0.0144355,-0.00408171,-0.040864,-1.11952,0.0259892,0.0402741,832,477,2.45526,1.14158
-385,547,1.11536,-0.926544,-0.0283949,-0.0109353,-0.00873989,-0.00731216,-0.032018,-1.17781,0.0193735,0.0463469,839,477,1.11538,0.926551
-378,547,1.23633,-0.833923,-0.0232355,-0.00840471,-0.00458901,-0.00709961,-0.0245406,-1.29371,0.0145819,0.0499768,846,477,1.23634,0.83393
-371,547,0.943054,-0.640839,-0.0178479,-0.0063738,-0.00206307,-0.00601412,-0.0182075,-1.39819,0.010712,0.0455627,853,477,0.943075,0.640842
-364,547,0.916687,-0.591522,0,0,0,0,0,0,0,-1,860,477,0.916707,0.591529
-357,547,1.04053,-0.647278,-0.010338,-0.00303455,0.00136576,-0.0027875,-0.010585,1.39185,0.00633535,0.0475519,867,477,1.04052,0.647288
-350,547,1.21594,-0.685516,-0.0071121,-0.00104429,0.00160523,-0.000645797,-0.00751059,1.32747,0.00480628,0.043255,874,477,1.21592,0.685519
-343,547,1.54187,-0.725586,-0.00491672,0.000703562,0.00159427,0.0011243,-0.00533746,1.31277,0.00398628,0.0339157,881,477,1.54189,0.72558
-336,547,1.56482,-0.796661,-0.00299607,0.00161408,0.00118069,0.00189887,-0.00328086,1.33411,0.00302579,0.0152641,888,477,1.56484,0.79667
-329,547,1.53711,-0.856232,-0.00222572,0.00196478,0.00101339,0.00219698,-0.00245792,1.34555,0.00268892,0.0086997,895,477,1.53709,0.856229
-322,547,1.54889,-0.89447,-0.00224828,0.00188903,0.000785825,0.00203326,-0.00239251,1.38928,0.00255802,0.00933799,902,477,1.54888,0.894465
-315,547,1.56201,-0.923859,-0.00212586,0.00152981,0.000698534,0.00165874,-0.00225479,1.38828,0.0022682,0.00925776,909,477,1.56199,0.923867
-308,547,1.54681,-0.956299,-0.00180675,0.00101833,0.000533183,0.00111561,-0.00190403,1.39033,0.00176308,0.0113706,916,477,1.54681,0.956304
-301,547,1.55206,-0.995514,-0.00142469,0.000733788,0.00026422,0.000765661,-0.00145657,1.45075,0.00130351,0.0112893,923,477,1.55208,0.995513
-294,547,1.55743,-1.03821,-0.000915665,8.27646e-05,-8.83107e-05,9.05154e-05,-0.000923416,-1.48325,0.000647893,0.00899832,930,477,1.55743,1.03821
-287,547,1.54944,-1.07205,-0.00029129,3.87569e-06,-0.000683644,0.000555685,-0.0008431,-0.891705,0.000813252,0.0105829,937,477,1.54943,1.07204
-280,547,1.54327,-1.10709,0.000825378,0.000158797,-0.0014126,0.00194347,-0.000959298,-0.669546,0.00170772,0.0124596,944,477,1.5433,1.10708
-273,547,1.55011,-1.13794,0.00185926,0.00034883,-0.00228569,0.00351127,-0.00130318,-0.62584,0.00287542,0.0120636,951,477,1.55013,1.13795
-266,547,1.55249,-1.17648,0.00236523,0.000815345,-0.00321106,0.00489353,-0.00171296,-0.666994,0.00395886,0.0121437,958,477,1.5525,1.17647
-259,547,1.55798,-1.21112,0.0029646,0.00130762,-0.00408064,0.0063,-0.00202779,-0.685245,0.00501451,0.0107,965,477,1.55798,1.21111
-252,547,1.55701,-1.23184,0.00347716,0.00152775,-0.00490381,0.0075022,-0.00249728,-0.687295,0.00600942,0.0101836,972,477,1.55699,1.23183
-245,547,1.55939,-1.25659,0.00341572,0.00164584,-0.00539886,0.00800169,-0.00294012,-0.704164,0.00653868,0.01184,979,477,1.55939,1.2566
-238,547,1.565,-1.30823,0.00303194,0.00126434,-0.00561701,0.00783425,-0.00353797,-0.707366,0.00672012,0.00844921,986,477,1.56499,1.30822
-231,547,1.56165,-1.34686,0.00272371,0.000441056,-0.00552957,0.00722851,-0.00406375,-0.683625,0.00660439,0.00808015,993,477,1.56164,1.34685
-224,547,1.5564,-1.35599,0.00243142,-0.000997192,-0.00509692,0.00609461,-0.00466038,-0.623171,0.00622778,0.0105762,1000,477,1.55642,1.356
-217,547,1.56091,-1.36963,0.00204457,-0.00282623,-0.00412205,0.00439691,-0.00517857,-0.518576,0.00553454,0.0136526,1007,477,1.56089,1.36961
-210,547,1.55743,-1.41513,0.0020012,-0.00544391,-0.00262795,0.00283535,-0.00627806,-0.307355,0.00538532,0.0210423,1014,477,1.55743,1.41514
-203,547,1.48334,-1.40854,0.00228279,-0.0083322,-0.000881624,0.00235552,-0.00840493,-0.0823031,0.00653161,0.031774,1021,477,1.48336,1.40855
-196,547,1.40649,-1.40454,0.00258664,-0.0116643,0.000986161,0.00265455,-0.0117322,0.0687628,0.00884022,0.0398409,1028,477,1.40655,1.40453
-189,547,1.44727,-1.33197,0.00298341,-0.0153544,0.00304485,0.00347576,-0.0158468,0.160313,0.0118936,0.0470892,1035,477,1.4473,1.33197
-182,547,1.47278,-1.29138,0,0,0,0,0,0,0,-1,1042,477,1.47278,1.29139
-175,547,1.53687,-1.3707,0.00652674,-0.0219886,0.00698755,0.00814695,-0.0236088,0.227844,0.0190448,0.0468242,1049,477,1.53684,1.3707
-168,547,1.57605,-1.33139,0.0109485,-0.0246509,0.00779261,0.0125795,-0.026282,0.206329,0.0228969,0.0471844,1056,477,1.57601,1.3314
-161,547,1.46375,-1.30371,0.0161996,-0.0268404,0.00771839,0.0175419,-0.0281827,0.172185,0.0266363,0.0460579,1063,477,1.46372,1.3037
-154,547,1.47412,-0.996521,0.0220553,-0.0281567,0.00731488,0.0230993,-0.0292006,0.141756,0.0302638,0.0432819,1070,477,1.47415,0.996518
-147,547,1.75806,-0.676819,0,0,0,0,0,0,0,-1,1077,477,1.75809,0.676831
-140,547,-0.721436,-0.730804,0,0,0,0,0,0,0,-1,1084,477,-0.721483,0.730797
-133,547,-0.17749,-0.731476,0.0516322,-0.027931,0.000796437,0.0516402,-0.027939,0.0100088,0.0466194,0.0464846,1091,477,-0.177492,0.73149
-126,547,0.244385,-0.500549,0.0638018,-0.0264091,-0.00346365,0.0639346,-0.0265419,-0.0383199,0.0537031,0.0432517,1098,477,0.244379,0.500545
-119,547,1.13525,-0.966736,0,0,0,0,0,0,0,-1,1105,477,1.13525,0.96675
-112,547,2.38403,-1.04172,0,0,0,0,0,0,0,-1,1112,477,2.38404,1.04172
-105,547,3.38306,-1.2644,0,0,0,0,0,0,0,-1,1119,477,3.38311,1.26441
-98,547,3.63452,0.623322,0,0,0,0,0,0,0,-1,1126,477,3.63451,-0.623314
-91,547,3.5741,0.759521,0,0,0,0,0,0,0,-1,1133,477,3.57406,-0.759524
-84,547,0.512451,-0.934692,0,0,0,0,0,0,0,-1,1140,477,0.512484,0.934693
-77,547,0.59668,-1.79474,0,0,0,0,0,0,0,-1,1147,477,0.59669,1.79475
-70,547,0.205322,-2.35114,0,0,0,0,0,0,0,-1,1154,477,0.205344,2.35113
-63,547,0.184204,-4.22076,0,0,0,0,0,0,0,-1,1161,477,0.184186,4.22077
-56,547,-0.480835,-0.137512,0,0,0,0,0,0,0,-1,1168,477,-0.480855,0.137502
-49,547,-0.545654,-0.183289,0,0,0,0,0,0,0,-1,1175,477,-0.545611,0.1833
-42,547,-1.0658,-2.30774,0,0,0,0,0,0,0,-1,1182,477,-1.06579,2.30772
-35,547,-0.611816,-2.44254,0.0433722,0.0177459,0.0269063,0.0603605,0.000757664,0.563179,0.0399902,0.0407356,1189,477,-0.611756,2.44253
-28,547,-0.473389,-1.69971,0.0534738,0.0143982,0.0236148,0.0645854,0.00328666,0.439799,0.0420042,0.0419378,1196,477,-0.473373,1.69972
-21,547,0.282471,-1.66592,0,0,0,0,0,0,0,-1,1203,477,0.282487,1.66592
-14,547,-0.676636,0.328278,0.0483835,-0.00209611,0.014492,0.0522481,-0.00596072,0.260607,0.0369795,0.0445782,1210,477,-0.676603,-0.32829
-7,547,-0.277954,-0.116119,0.0462282,-0.0153526,0.0106716,0.0480251,-0.0171495,0.166816,0.0390107,0.041878,1217,477,-0.278014,0.116105
0,547,-0.153198,-0.417633,0.0451674,-0.029826,0.0100677,0.0464954,-0.0311541,0.131155,0.0451217,0.0439948,1224,477,-0.153186,0.417632
7,547,-0.0343018,-0.528595,0,0,0,0,0,0,0,-1,1231,477,-0.0342516,0.528585
14,547,0,0,0,0,0,0,0,0,0,-1,1238,477,0,0
21,547,0,0,0,0,0,0,0,0,0,-1,1245,477,0,0
28,547,0,0,0,0,0,0,0,0,0,-1,1252,477,0,0
35,547,0,0,0,0,0,0,0,0,0,-1,1259,477,0,0
42,547,0,0,0,0,0,0,0,0,0,-1,1266,477,0,0
49,547,0,0,0,0,0,0,0,0,0,-1,1273,477,0,0
56,547,0,0,0,0,0,0,0,0,0,-1,1280,477,0,0
63,547,0,0,0,0,0,0,0,0,0,-1,1287,477,0,0
70,547,0,0,0,0,0,0,0,0,0,-1,1294,477,0,0
77,547,0,0,0,0,0,0,0,0,0,-1,1301,477,0,0
84,547,0,0,0,0,0,0,0,0,0,-1,1308,477,0,0
91,547,0,0,0,0,0,0,0,0,0,-1,1315,477,0,0
98,547,0,0,0,0,0,0,0,0,0,-1,1322,477,0,0
105,547,2.08105,-3.29193,0,0,0,0,0,0,0,-1,1329,477,2.081,3.29194
112,547,1.38159,-3.91168,-0.097197,0.0397083,0.0422,0.0516709,-0.10916,1.29457,0.0948122,0.0427087,1336,477,1.38158,3.91169
119,547,0.650757,-4.40402,-0.117045,0.0613247,0.0386148,0.0693255,-0.125046,1.36649,0.113747,0.0419205,1343,477,0.650793,4.40401
126,547,-0.485107,-4.30304,-0.138566,0.0785424,0.0366323,0.0845567,-0.144581,1.40807,0.133797,0.0444172,1350,477,-0.485076,4.30304
133,547,-2.00903,-4.70837,-0.159845,0.0869932,0.0365283,0.0922853,-0.165137,1.42692,0.150594,0.043661,1357,477,-2.00907,4.70837
140,547,-3.27405,-5.29422,-0.177445,0.0907588,0.0388653,0.0962772,-0.182963,1.42975,0.163788,0.0430697,1364,477,-3.2741,5.29421
147,547,-4.51123,-5.76547,0,0,0,0,0,0,0,-1,1371,477,-4.51126,5.76548
154,547,-5.77344,-6.13593,0,0,0,0,0,0,0,-1,1378,477,-5.77348,6.13594
161,547,-7.04199,-6.56323,0,0,0,0,0,0,0,-1,1385,477,-7.04199,6.56322
168,547,2.67737,-0.81958,0,0,0,0,0,0,0,-1,1392,477,2.67733,0.819569
175,547,3.35034,-0.26532,0,0,0,0,0,0,0,-1,1399,477,3.3503,0.265306
182,547,4.26038,3.72672,0,0,0,0,0,0,0,-1,1406,477,4.26039,-3.7267
189,547,3.40454,1.28671,0,0,0,0,0,0,0,-1,1413,477,3.40457,-1.28673
196,547,3.53931,1.87793,0,0,0,0,0,0,0,-1,1420,477,3.53928,-1.87794
203,547,4.01086,0.871368,0,0,0,0,0,0,0,-1,1427,477,4.01084,-0.871379
210,547,3.40051,1.45767,0,0,0,0,0,0,0,-1,1434,477,3.40052,-1.45766
217,547,3.67712,-0.860107,0,0,0,0,0,0,0,-1,1441,477,3.67718,0.86011
224,547,3.48914,-1.23459,0,0,0,0,0,0,0,-1,1448,477,3.48914,1.23458
231,547,3.22791,-1.57773,0,0,0,0,0,0,0,-1,1455,477,3.22792,1.57772
238,547,3.44446,-1.03024,0,0,0,0,0,0,0,-1,1462,477,3.44446,1.03024
245,547,3.04089,-1.42444,0,0,0,0,0,0,0,-1,1469,477,3.04088,1.42444
252,547,2.58838,-1.84421,-0.0495359,-0.0321673,-0.0548483,0.0146799,-0.0963831,-0.863913,0.0696662,0.0433762,1476,477,2.58834,1.8442
259,547,2.26062,-2.35748,-0.0419347,-0.0324459,-0.0511538,0.014183,-0.0885636,-0.831639,0.0642937,0.0435988,1483,477,2.2606,2.35749
266,547,1.90344,-2.69995,-0.0352977,-0.0322276,-0.0476903,0.0139524,-0.0814777,-0.801487,0.0595169,0.0464271,1490,477,1.90343,2.69996
273,547,1.26221,-3.19025,0,0,0,0,0,0,0,-1,1497,477,1.26224,3.19024
280,547,2.73157,-3.34119,0,0,0,0,0,0,0,-1,1504,477,2.73161,3.34119
287,547,2.34448,-2.47711,0,0,0,0,0,0,0,-1,1511,477,2.34446,2.47711
294,547,1.67737,-1.98853,0,0,0,0,0,0,0,-1,1518,477,1.67734,1.98852
301,547,4.38953,-1.61322,0,0,0,0,0,0,0,-1,1525,477,4.38947,1.61323
308,547,3.4209,-1.67581,0,0,0,0,0,0,0,-1,1532,477,3.42084,1.6758
315,547,2.70496,-1.61938,0,0,0,0,0,0,0,-1,1539,477,2.70498,1.61939
322,547,2.76025,-1.61102,-0.0109378,0.00294781,-0.0176104,0.0149346,-0.0229246,-0.973166,0.0220196,0.0412566,1546,477,2.76021,1.61102
329,547,2.57617,-1.52942,-0.0109473,0.00313252,-0.0150138,0.012675,-0.0204897,-1.00463,0.019324,0.0358781,1553,477,2.5762,1.52943
336,547,2.31165,-1.42886,-0.0104435,0.00307363,-0.0131653,0.0111138,-0.0184836,-1.02254,0.0172638,0.02551,1560,477,2.3117,1.42885
343,547,2.23474,-1.4108,-0.00965536,0.00252449,-0.0112871,0.00925979,-0.0163907,-1.03279,0.0149988,0.018975,1567,477,2.23479,1.41081
350,547,2.24536,-1.40466,-0.00926139,0.00175994,-0.00980584,0.00749747,-0.0149989,-1.04139,0.0132268,0.013956,1574,477,2.24535,1.40466
357,547,2.25244,-1.36215,-0.00764194,0.00119699,-0.00783077,0.00576934,-0.0122143,-1.0423,0.0106028,0.0110399,1581,477,2.25244,1.36216
364,547,2.26013,-1.32437,-0.00565333,0.000707885,-0.00647907,0.00474494,-0.00969039,-1.01357,0.00849571,0.00960116,1588,477,2.26015,1.32438
371,547,2.2655,-1.29703,-0.00414181,0.000329472,-0.00544352,0.00397856,-0.0077909,-0.980245,0.0069129,0.00896663,1595,477,2.26547,1.29704
378,547,2.26672,-1.26022,-0.00274214,0.000123319,-0.00434495,0.00326567,-0.00588448,-0.944657,0.00535448,0.00998789,1602,477,2.26669,1.26023
385,547,2.27393,-1.22842,-0.00161725,-1.23407e-05,-0.00358433,0.00285826,-0.00448785,-0.895521,0.00427592,0.0103265,1609,477,2.27387,1.22841
392,547,2.25879,-1.18961,-0.000827629,-0.000107942,-0.00298341,0.00253725,-0.00347282,-0.845416,0.0034839,0.0111843,1616,477,2.25881,1.18962
399,547,2.25415,-1.15439,-9.22008e-05,-0.000265499,-0.00239555,0.00221826,-0.00257596,-0.767321,0.00277051,0.0132692,1623,477,2.25416,1.15438
406,547,2.25159,-1.1181,0.000550747,-0.000483335,-0.00190332,0.002006,-0.00193859,-0.652772,0.00227752,0.0126632,1630,477,2.25164,1.11811
413,547,2.24731,-1.04807,0.000865201,-0.000377932,-0.00145942,0.00182991,-0.00134264,-0.584082,0.00183886,0.0118063,1637,477,2.24729,1.04807
420,547,2.24719,-1.01859,0.00111394,-0.000310789,-0.00110814,0.00171893,-0.000915782,-0.499733,0.00154453,0.0136671,1644,477,2.24724,1.01857
427,547,2.26038,-0.992065,0.00152792,-0.000271351,-0.000761699,0.00180707,-0.000550498,-0.35128,0.00142413,0.0117717,1651,477,2.26038,0.992066
434,547,2.25208,-0.967468,0.00192855,-1.46406e-06,-0.000459696,0.00203245,-0.000105362,-0.222281,0.00139142,0.008035,1658,477,2.25205,0.967454
441,547,2.26013,-0.956512,0.00231815,0.000917872,-8.51001e-05,0.0023233,0.000912719,-0.060477,0.00135159,0.00914347,1665,477,2.26019,0.956513
448,547,2.26624,-0.89212,0.00258538,0.00168131,0.000205505,0.0026299,0.00163679,0.213345,0.00153346,0.0100339,1672,477,2.26624,0.892113
455,547,2.26843,-0.853943,0.00281837,0.00273506,0.000591584,0.00336976,0.00218367,0.750252,0.00197375,0.0101638,1679,477,2.26848,0.853931
462,547,2.22925,-0.815643,0.0029129,0.00416029,0.00123015,0.00491583,0.00215737,1.02002,0.00284522,0.0104499,1686,477,2.22922,0.815637
469,547,2.2467,-0.79599,0.00160143,0.00618062,0.00217859,0.00705148,0.000730564,1.19052,0.00447738,0.0175055,1693,477,2.24671,0.795992
476,547,2.32007,-0.784515,0.000804445,0.00858964,0.00329141,0.00979466,-0.000400575,1.21984,0.00666731,0.0299246,1700,477,2.32009,0.784526
483,547,2.36633,-0.767975,0,0,0,0,0,0,0,-1,1707,477,2.36628,0.767984
490,547,2.3252,-1.07013,0,0,0,0,0,0,0,-1,1714,477,2.32525,1.07012
497,547,2.11194,-0.622711,0,0,0,0,0,0,0,-1,1721,477,2.11197,0.622713
504,547,1.19385,-0.425446,0,0,0,0,0,0,0,-1,1728,477,1.19387,0.425443
511,547,2.63708,-0.551056,0,0,0,0,0,0,0,-1,1735,477,2.63708,0.551064
518,547,2.37109,-0.00772095,0.00284731,0.0384622,0.0133715,0.0429236,-0.00161412,1.24876,0.0291687,0.0477315,1742,477,2.37114,0.0077229
525,547,1.92676,0.944611,0,0,0,0,0,0,0,-1,1749,477,1.92675,-0.944596
532,547,0,0,0,0,0,0,0,0,0,-1,1756,477,0,0
539,547,0,0,0,0,0,0,0,0,0,-1,1763,477,0,0
546,547,0,0,0,0,0,0,0,0,0,-1,1770,477,0,0
553,547,0,0,0,0,0,0,0,0,0,-1,1777,477,0,0
560,547,0,0,0,0,0,0,0,0,0,-1,1784,477,0,0
567,547,0,0,0,0,0,0,0,0,0,-1,1791,477,0,0
574,547,0,0,0,0,0,0,0,0,0,-1,1798,477,0,0
581,547,0,0,0,0,0,0,0,0,0,-1,1805,477,0,0
588,547,0,0,0,0,0,0,0,0,0,-1,1812,477,0,0
595,547,0,0,0,0,0,0,0,0,0,-1,1819,477,0,0
602,547,0,0,0,0,0,0,0,0,0,-1,1826,477,0,0
609,547,0,0,0,0,0,0,0,0,0,-1,1833,477,0,0
616,547,0,0,0,0,0,0,0,0,0,-1,1840,477,0,0
623,547,0,0,0,0,0,0,0,0,0,-1,1847,477,0,0
630,547,0,0,0,0,0,0,0,0,0,-1,1854,477,0,0
637,547,0,0,0,0,0,0,0,0,0,-1,1861,477,0,0
644,547,0,0,0,0,0,0,0,0,0,-1,1868,477,0,0
651,547,0,0,0,0,0,0,0,0,0,-1,1875,477,0,0
658,547,0,0,0,0,0,0,0,0,0,-1,1882,477,0,0
665,547,0,0,0,0,0,0,0,0,0,-1,1889,477,0,0
672,547,0,0,0,0,0,0,0,0,0,-1,1896,477,0,0
679,547,0,0,0,0,0,0,0,0,0,-1,1903,477,0,0
686,547,0,0,0,0,0,0,0,0,0,-1,1910,477,0,0
693,547,0,0,0,0,0,0,0,0,0,-1,1917,477,0,0
700,547,0,0,0,0,0,0,0,0,0,-1,1924,477,0,0
707,547,0,0,0,0,0,0,0,0,0,-1,1931,477,0,0
714,547,0,0,0,0,0,0,0,0,0,-1,1938,477,0,0
721,547,0,0,0,0,0,0,0,0,0,-1,1945,477,0,0
728,547,0,0,0,0,0,0,0,0,0,-1,1952,477,0,0
735,547,0,0,0,0,0,0,0,0,0,-1,1959,477,0,0
742,547,0,0,0,0,0,0,0,0,0,-1,1966,477,0,0
749,547,0,0,0,0,0,0,0,0,0,-1,1973,477,0,0
756,547,0,0,0,0,0,0,0,0,0,-1,1980,477,0,0
763,547,0,0,0,0,0,0,0,0,0,-1,1987,477,0,0
770,547,0,0,0,0,0,0,0,0,0,-1,1994,477,0,0
777,547,0,0,0,0,0,0,0,0,0,-1,2001,477,0,0
784,547,0,0,0,0,0,0,0,0,0,-1,2008,477,0,0
791,547,0,0,0,0,0,0,0,0,0,-1,2015,477,0,0
798,547,0,0,0,0,0,0,0,0,0,-1,2022,477,0,0
805,547,0,0,0,0,0,0,0,0,0,-1,2029,477,0,0
812,547,0,0,0,0,0,0,0,0,0,-1,2036,477,0,0
-700,540,0,0,0,0,0,0,0,0,0,-1,524,484,0,0
-693,540,0,0,0,0,0,0,0,0,0,-1,531,484,0,0
-686,540,0,0,0,0,0,0,0,0,0,-1,538,484,0,0
-679,540,0,0,0,0,0,0,0,0,0,-1,545,484,0,0
-672,540,0,0,0,0,0,0,0,0,0,-1,552,484,0,0
-665,540,0,0,0,0,0,0,0,0,0,-1,559,484,0,0
-658,540,0,0,0,0,0,0,0,0,0,-1,566,484,0,0
-651,540,0,0,0,0,0,0,0,0,0,-1,573,484,0,0
-644,540,0,0,0,0,0,0,0,0,0,-1,580,484,0,0
-637,540,0,0,0,0,0,0,0,0,0,-1,587,484,0,0
-630,540,0,0,0,0,0,0,0,0,0,-1,594,484,0,0
-623,540,0,0,0,0,0,0,0,0,0,-1,601,484,0,0
-616,540,0,0,0,0,0,0,0,0,0,-1,608,484,0,0
-609,540,0,0,0,0,0,0,0,0,0,-1,615,484,0,0
-602,540,0,0,0,0,0,0,0,0,0,-1,622,484,0,0
-595,540,0,0,0,0,0,0,0,0,0,-1,629,484,0,0
-588,540,0,0,0,0,0,0,0,0,0,-1,636,484,0,0
-581,540,0,0,0,0,0,0,0,0,0,-1,643,484,0,0
-574,540,0,0,0,0,0,0,0,0,0,-1,650,484,0,0
-567,540,0,0,0,0,0,0,0,0,0,-1,657,484,0,0
-560,540,0,0,0,0,0,0,0,0,0,-1,664,484,0,0
-553,540,0,0,0,0,0,0,0,0,0,-1,671,484,0,0
-546,540,0,0,0,0,0,0,0,0,0,-1,678,484,0,0
-539,540,0,0,0,0,0,0,0,0,0,-1,685,484,0,0
-532,540,0,0,0,0,0,0,0,0,0,-1,692,484,0,0
-525,540,0,0,0,0,0,0,0,0,0,-1,699,484,0,0
-518,540,0,0,0,0,0,0,0,0,0,-1,706,484,0,0
-511,540,0,0,0,0,0,0,0,0,0,-1,713,484,0,0
-504,540,0,0,0,0,0,0,0,0,0,-1,720,484,0,0
-497,540,0,0,0,0,0,0,0,0,0,-1,727,484,0,0
-490,540,0,0,0,0,0,0,0,0,0,-1,734,484,0,0
-483,540,0,0,0,0,0,0,0,0,0,-1,741,484,0,0
-476,540,0,0,0,0,0,0,0,0,0,-1,748,484,0,0
-469,540,0,0,0,0,0,0,0,0,0,-1,755,484,0,0
-462,540,0,0,0,0,0,0,0,0,0,-1,762,484,0,0
-455,540,0,0,0,0,0,0,0,0,0,-1,769,484,0,0
-448,540,0,0,0,0,0,0,0,0,0,-1,776,484,0,0
-441,540,0,0,0,0,0,0,0,0,0,-1,783,484,0,0
-434,540,0,0,0,0,0,0,0,0,0,-1,790,484,0,0
-427,540,0,0,0,0,0,0,0,0,0,-1,797,484,0,0
-420,540,2.81219,1.50119,-0.0468911,0.00269769,-0.0409347,0.0257615,-0.0699549,-1.0577,0.0571916,0.0468955,804,484,2.81222,-1.5012
-413,540,2.83838,0.917267,-0.0445088,-0.00495285,-0.0339754,0.014582,-0.0640437,-1.04899,0.0482959,0.0458716,811,484,2.83837,-0.917266
-406,540,2.62421,-1.42798,0,0,0,0,0,0,0,-1,818,484,2.62423,1.42798
-399,540,2.36536,-1.25986,-0.0370829,-0.0110233,-0.0200655,-0.000128213,-0.0479781,-1.07336,0.0319427,0.0435937,825,484,2.36538,1.25987
-392,540,2.10614,-1.07504,-0.0315003,-0.0115307,-0.0141703,-0.00418075,-0.0388502,-1.09231,0.0246251,0.0420638,832,484,2.10614,1.07503
-385,540,1.60797,-0.760559,-0.0262422,-0.0110158,-0.00929319,-0.00661551,-0.0306425,-1.12857,0.0186191,0.0440687,839,484,1.60798,0.760568
-378,540,1.14667,-0.486053,-0.021114,-0.0088996,-0.00541541,-0.00684441,-0.0231692,-1.20808,0.0137449,0.0479546,846,484,1.14669,0.486046
-371,540,1.41559,-0.631409,-0.0158859,-0.00708703,-0.00296304,-0.00618226,-0.0167907,-1.27444,0.00980575,0.0479919,853,484,1.41561,0.631412
-364,540,1.30145,-0.577301,-0.0116183,-0.00584625,-0.000737327,-0.00575355,-0.011711,-1.44573,0.00676171,0.0465021,860,484,1.30147,0.577297
-357,540,1.3183,-0.709167,-0.00804032,-0.00409125,0.000542428,-0.0040181,-0.00811348,1.43675,0.00468439,0.0404542,867,484,1.31833,0.709153
-350,540,1.43549,-0.729614,-0.0047639,-0.00229996,0.000987629,-0.00195295,-0.00511091,1.23292,0.002978,0.0264497,874,484,1.43552,0.72962
-343,540,1.51666,-0.772461,-0.00255344,-0.000584838,0.0011713,-3.91783e-05,-0.0030991,1.13483,0.00205314,0.0132587,881,484,1.51667,0.772453
-336,540,1.51666,-0.825684,-0.000734963,0.000329917,0.000899967,0.000843151,-0.0012482,1.05252,0.00121497,0.0115461,888,484,1.51665,0.825691
-329,540,1.50574,-0.84964,6.87708e-05,0.000724047,0.000803842,0.00126446,-0.00047164,0.978914,0.00103659,0.00939578,895,484,1.50573,0.849638
-322,540,1.50378,-0.886871,0.000127045,0.000765428,0.000623796,0.00114695,-0.000254481,1.02188,0.000862076,0.0128352,902,484,1.50377,0.886865
-315,540,1.50134,-0.926147,0.000253527,0.000521705,0.00053365,0.000937855,-0.000162622,0.908484,0.0006859,0.0117831,909,484,1.50134,0.926158
-308,540,1.50055,-0.957275,0.000538745,0.00024429,0.000301879,0.000727385,5.56504e-05,0.558516,0.000467478,0.0114454,916,484,1.50055,0.957269
-301,540,1.4986,-0.978302,0.000897492,0.000239785,-9.93246e-05,0.000912164,0.000225113,-0.14666,0.000548687,0.0117335,923,484,1.4986,0.978306
-294,540,1.52136,-1.02649,0.00138546,-8.44481e-05,-0.000657482,0.00163663,-0.000335617,-0.364908,0.00121847,0.010406,930,484,1.52137,1.0265
-287,540,1.5412,-1.07941,0.00202035,7.17152e-05,-0.00147484,0.00281364,-0.00072158,-0.493494,0.00215691,0.00781811,937,484,1.54121,1.07939
-280,540,1.53668,-1.11066,0.00303168,0.000461067,-0.00244923,0.00451237,-0.00101962,-0.543761,0.00339948,0.00941765,944,484,1.53667,1.11065
-273,540,1.52325,-1.15326,0.00390181,0.000942688,-0.00361381,0.00632721,-0.00148271,-0.591099,0.0047895,0.0114524,951,484,1.52325,1.15325
-266,540,1.51782,-1.18863,0.00429128,0.00158868,-0.00482919,0.00795467,-0.00207471,-0.648978,0.00611318,0.0123897,958,484,1.51782,1.18863
-259,540,1.53473,-1.23492,0.0048338,0.00219328,-0.00581544,0.00947697,-0.00244989,-0.673777,0.00727346,0.0111972,965,484,1.5347,1.23492
-252,540,1.53143,-1.25342,0.00536855,0.00245282,-0.00657688,0.0106472,-0.00282583,-0.676329,0.00820394,0.0106002,972,484,1.53141,1.25343
-245,540,1.5274,-1.27094,0.00522477,0.00255682,-0.00701032,0.0110269,-0.00324531,-0.691379,0.00863868,0.0115734,979,484,1.52743,1.27095
-238,540,1.52545,-1.31754,0.0046423,0.00199849,-0.00701964,0.0104634,-0.00382263,-0.692331,0.00853993,0.00908406,986,484,1.52545,1.31754
-231,540,1.5097,-1.35376,0.00422456,0.000966081,-0.00657133,0.00936561,-0.00417497,-0.663883,0.00800683,0.0115094,993,484,1.5097,1.35375
-224,540,1.51312,-1.36255,0.00385519,-0.000810923,-0.00568911,0.00767104,-0.00462678,-0.59081,0.0071723,0.0159925,1000,484,1.51311,1.36256
-217,540,1.48431,-1.40283,0.00334083,-0.0030777,-0.00423357,0.00544405,-0.00518091,-0.461081,0.00613495,0.0242399,1007,484,1.48429,1.40284
-210,540,1.44409,-1.51208,0.0032337,-0.00623877,-0.00224784,0.00374005,-0.00674513,-0.221563,0.00613593,0.0355192,1014,484,1.44407,1.5121
-203,540,1.40198,-1.59616,0,0,0,0,0,0,0,-1,1021,484,1.40195,1.59616
-196,540,1.11755,-1.42065,0,0,0,0,0,0,0,-1,1028,484,1.11751,1.42067
-189,540,1.34998,-1.20828,0,0,0,0,0,0,0,-1,1035,484,1.34999,1.20828
-182,540,0.872559,-0.664063,0,0,0,0,0,0,0,-1,1042,484,0.87255,0.664069
-175,540,1.25659,-1.4512,0,0,0,0,0,0,0,-1,1049,484,1.2566,1.45121
-168,540,1.0658,-1.10504,0.0132731,-0.0291655,0.0106346,0.0157888,-0.0316813,0.232295,0.0279142,0.0436576,1056,484,1.06584,1.10504
-161,540,1.28552,-1.39307,0.0194976,-0.0315916,0.0103469,0.0215135,-0.0336075,0.192428,0.0320785,0.0469989,1063,484,1.28548,1.39307
-154,540,1.28821,-1.06519,0,0,0,0,0,0,0,-1,1070,484,1.28817,1.06517
-147,540,1.5249,-0.419037,0,0,0,0,0,0,0,-1,1077,484,1.5249,0.419043
-140,540,1.0105,-2.50592,0,0,0,0,0,0,0,-1,1084,484,1.01044,2.50591
-133,540,0.00622559,-0.87796,0,0,0,0,0,0,0,-1,1091,484,0.00619785,0.877972
-126,540,0.259033,-0.217621,0,0,0,0,0,0,0,-1,1098,484,0.259039,0.217617
-119,540,1.86047,-0.497192,0.101693,-0.0258852,-0.0130251,0.103009,-0.0272014,-0.100711,0.0793103,0.0443449,1105,484,1.86042,0.497207
-112,540,3.05762,-0.899963,0,0,0,0,0,0,0,-1,1112,484,3.05761,0.899953
-105,540,4.00366,-1.12521,0,0,0,0,0,0,0,-1,1119,484,4.00365,1.12522
-98,540,3.72766,0.978394,0,0,0,0,0,0,0,-1,1126,484,3.7276,-0.978394
-91,540,0.984741,-1.15225,0,0,0,0,0,0,0,-1,1133,484,0.984696,1.15226
-84,540,0.715698,-1.54535,0,0,0,0,0,0,0,-1,1140,484,0.715719,1.54534
-77,540,0.503662,-1.93759,0,0,0,0,0,0,0,-1,1147,484,0.503673,1.9376
-70,540,0.162354,-2.31,0,0,0,0,0,0,0,-1,1154,484,0.16233,2.30999
-63,540,-0.0715332,-3.00568,0,0,0,0,0,0,0,-1,1161,484,-0.0715666,3.00568
-56,540,-0.560791,0.440094,0,0,0,0,0,0,0,-1,1168,484,-0.560821,-0.440088
-49,540,-0.605469,-0.261261,0,0,0,0,0,0,0,-1,1175,484,-0.605486,0.261255
-42,540,0,0,0,0,0,0,0,0,0,-1,1182,484,0,0
-35,540,0,0,0,0,0,0,0,0,0,-1,1189,484,0,0
-28,540,0,0,0,0,0,0,0,0,0,-1,1196,484,0,0
-21,540,0,0,0,0,0,0,0,0,0,-1,1203,484,0,0
-14,540,0,0,0,0,0,0,0,0,0,-1,1210,484,0,0
-7,540,0,0,0,0,0,0,0,0,0,-1,1217,484,0,0
0,540,0,0,0,0,0,0,0,0,0,-1,1224,484,0,0
7,540,0,0,0,0,0,0,0,0,0,-1,1231,484,0,0
14,540,0,0,0,0,0,0,0,0,0,-1,1238,484,0,0
21,540,0,0,0,0,0,0,0,0,0,-1,1245,484,0,0
28,540,0,0,0,0,0,0,0,0,0,-1,1252,484,0,0
35,540,0,0,0,0,0,0,0,0,0,-1,1259,484,0,0
42,540,0,0,0,0,0,0,0,0,0,-1,1266,484,0,0
49,540,0,0,0,0,0,0,0,0,0,-1,1273,484,0,0
56,540,0,0,0,0,0,0,0,0,0,-1,1280,484,0,0
63,540,0,0,0,0,0,0,0,0,0,-1,1287,484,0,0
70,540,0,0,0,0,0,0,0,0,0,-1,1294,484,0,0
77,540,0,0,0,0,0,0,0,0,0,-1,1301,484,0,0
84,540,0,0,0,0,0,0,0,0,0,-1,1308,484,0,0
91,540,0,0,0,0,0,0,0,0,0,-1,1315,484,0,0
98,540,0,0,0,0,0,0,0,0,0,-1,1322,484,0,0
105,540,0,0,0,0,0,0,0,0,0,-1,1329,484,0,0
112,540,0,0,0,0,0,0,0,0,0,-1,1336,484,0,0
119,540,0,0,0,0,0,0,0,0,0,-1,1343,484,0,0
126,540,0,0,0,0,0,0,0,0,0,-1,1350,484,0,0
133,540,0,0,0,0,0,0,0,0,0,-1,1357,484,0,0
140,540,0,0,0,0,0,0,0,0,0,-1,1364,484,0,0
147,540,0,0,0,0,0,0,0,0,0,-1,1371,484,0,0
154,540,0,0,0,0,0,0,0,0,0,-1,1378,484,0,0
161,540,0,0,0,0,0,0,0,0,0,-1,1385,484,0,0
168,540,3.05078,-0.0010376,0,0,0,0,0,0,0,-1,1392,484,3.05084,0.00102554
175,540,3.37708,0.617035,0,0,0,0,0,0,0,-1,1399,484,3.37707,-0.617046
182,540,3.32678,1.23267,0,0,0,0,0,0,0,-1,1406,484,3.32678,-1.23266
189,540,3.5813,2.15619,0,0,0,0,0,0,0,-1,1413,484,3.58129,-2.1562
196,540,1.84448,-0.801483,0,0,0,0,0,0,0,-1,1420,484,1.84446,0.80148
203,540,4.14648,0.702087,0,0,0,0,0,0,0,-1,1427,484,4.14645,-0.702089
210,540,2.83728,-0.0263672,0,0,0,0,0,0,0,-1,1434,484,2.83732,0.0263685
217,540,3.26538,-0.406982,0,0,0,0,0,0,0,-1,1441,484,3.26543,0.40699
224,540,3.65381,-1.10559,0,0,0,0,0,0,0,-1,1448,484,3.65386,1.1056
231,540,3.74927,-1.47247,0,0,0,0,0,0,0,-1,1455,484,3.74927,1.47248
238,540,3.57385,-1.63251,0,0,0,0,0,0,0,-1,1462,484,3.57386,1.63251
245,540,3.91528,-1.41522,0,0,0,0,0,0,0,-1,1469,484,3.91533,1.41523
252,540,3.38135,-1.72,-0.0604133,-0.0444396,-0.0630877,0.0111648,-0.116018,-0.848363,0.0813227,0.042554,1476,484,3.38139,1.72001
259,540,2.95593,-2.12759,-0.0522514,-0.0451665,-0.0592434,0.0106403,-0.108058,-0.81526,0.0758348,0.0394329,1483,484,2.95598,2.1276
266,540,2.552,-2.85858,-0.0452243,-0.0447001,-0.0556597,0.0106981,-0.100623,-0.787753,0.0709172,0.0455007,1490,484,2.55198,2.85857
273,540,1.98193,-3.59601,0,0,0,0,0,0,0,-1,1497,484,1.98195,3.59601
280,540,2.49768,-2.09839,0,0,0,0,0,0,0,-1,1504,484,2.49772,2.0984
287,540,2.35254,-1.5643,0,0,0,0,0,0,0,-1,1511,484,2.35257,1.56429
294,540,1.51709,-2.30826,0,0,0,0,0,0,0,-1,1518,484,1.51709,2.30826
301,540,2.8009,-0.297211,0,0,0,0,0,0,0,-1,1525,484,2.80091,0.297225
308,540,2.65906,-0.943756,0,0,0,0,0,0,0,-1,1532,484,2.65911,0.943764
315,540,1.77258,-2.01605,0,0,0,0,0,0,0,-1,1539,484,1.77255,2.01607
322,540,3.65906,-1.40259,-0.0153822,0.00450351,-0.0231399,0.0197463,-0.030625,-0.988313,0.0293071,0.0441687,1546,484,3.65909,1.40258
329,540,3.07666,-1.41208,-0.0150565,0.00472213,-0.0197012,0.0168768,-0.0272112,-1.01801,0.0256862,0.0462489,1553,484,3.07662,1.41208
336,540,2.42908,-1.20837,-0.0140029,0.00437593,-0.0172186,0.0147038,-0.0243308,-1.03052,0.0227639,0.0446203,1560,484,2.42913,1.20836
343,540,2.23901,-1.27328,-0.0127661,0.00353774,-0.0147818,0.0122664,-0.0214948,-1.03739,0.0197333,0.0414833,1567,484,2.23899,1.27328
350,540,2.24792,-1.30084,-0.0119762,0.00247554,-0.0128639,0.0100041,-0.0195047,-1.04129,0.0173288,0.0305239,1574,484,2.2479,1.30085
357,540,2.28735,-1.34454,-0.00985082,0.00155852,-0.0104161,0.00772977,-0.0160221,-1.03593,0.0139889,0.0187009,1581,484,2.28735,1.34454
364,540,2.276,-1.30942,-0.00741759,0.000793617,-0.00867957,0.00628963,-0.0129136,-1.00631,0.0113047,0.0111616,1588,484,2.27595,1.30942
371,540,2.28137,-1.27884,-0.00560446,0.000129254,-0.00729585,0.00510129,-0.0105765,-0.972602,0.00923374,0.0104052,1595,484,2.28137,1.27883
378,540,2.28845,-1.24707,-0.00396073,-0.000300326,-0.00585382,0.00400273,-0.00826379,-0.936909,0.00722311,0.0105978,1602,484,2.28847,1.24706
385,540,2.29309,-1.22885,-0.00268428,-0.00061846,-0.00481373,0.00327193,-0.00657467,-0.891084,0.00579055,0.0128205,1609,484,2.29307,1.22884
392,540,2.27759,-1.18585,-0.00185762,-0.000852779,-0.00395969,0.00263624,-0.00534663,-0.848503,0.00469663,0.0122915,1616,484,2.2776,1.18584
399,540,2.27722,-1.15106,-0.00111754,-0.00105755,-0.00312481,0.00203741,-0.0042125,-0.790197,0.00368051,0.0164859,1623,484,2.27728,1.15107
406,540,2.25793,-1.13034,-0.000466977,-0.00131494,-0.00245577,0.00160115,-0.00338307,-0.699917,0.0029383,0.0160441,1630,484,2.2579,1.13033
413,540,2.27441,-1.07361,-0.000186153,-0.00114317,-0.00185808,0.00125404,-0.00258337,-0.659372,0.0022594,0.0109414,1637,484,2.27444,1.07361
420,540,2.29297,-1.01544,6.79655e-05,-0.00100668,-0.00137375,0.00100574,-0.00194445,-0.598977,0.0017318,0.00978702,1644,484,2.29299,1.01545
427,540,2.302,-0.976898,0.000537301,-0.00080704,-0.000857352,0.000954564,-0.0012243,-0.452942,0.00126118,0.0102042,1651,484,2.30203,0.976896
434,540,2.28918,-0.941467,0.000909605,-0.000523371,-0.000506804,0.00107073,-0.000684496,-0.307819,0.00102153,0.012514,1658,484,2.28916,0.941482
441,540,2.28186,-0.934052,0.00126748,0.000300458,-8.98912e-05,0.00127577,0.000292173,-0.0919074,0.00077178,0.0170561,1665,484,2.2818,0.934058
448,540,2.29846,-0.908081,0.00154128,0.000992293,0.000202061,0.00160763,0.000925941,0.317281,0.000931729,0.0107969,1672,484,2.29848,0.908086
455,540,2.30066,-0.868256,0.00174618,0.00184956,0.000505776,0.00230628,0.00128946,0.836325,0.00133463,0.00960122,1679,484,2.30064,0.86826
462,540,2.27832,-0.809692,0.00184138,0.00290473,0.00101951,0.00352288,0.00122324,1.02575,0.00206534,0.00997578,1686,484,2.2783,0.809699
469,540,2.27625,-0.786041,0.000653432,0.00440573,0.00172345,0.00507717,-1.80078e-05,1.1993,0.0033908,0.0123779,1693,484,2.27619,0.786047
476,540,2.30518,-0.771179,-0.000102976,0.00614162,0.00250239,0.00702066,-0.000982017,1.23298,0.00503977,0.0143599,1700,484,2.30523,0.771177
483,540,2.32361,-0.703857,-0.00138185,0.00820381,0.00357229,0.00938865,-0.00256668,1.25054,0.00726735,0.0207578,1707,484,2.32356,0.703871
490,540,2.28149,-0.656982,-0.00143625,0.0102286,0.00476917,0.0119302,-0.0031379,1.22808,0.00917998,0.0363723,1714,484,2.2815,0.656971
497,540,2.18872,-0.50238,-0.00260424,0.0126225,0.00628176,0.0148795,-0.00486123,1.22587,0.0118765,0.0479685,1721,484,2.18877,0.502382
504,540,2.35693,-0.392578,0,0,0,0,0,0,0,-1,1728,484,2.35693,0.392581
511,540,2.46838,-0.424896,-0.00188766,0.0232915,0.0084328,0.0258548,-0.00445096,1.2757,0.0188957,0.0464557,1735,484,2.46839,0.424888
518,540,2.41003,-0.100189,0.00142749,0.0335298,0.00979046,0.03628,-0.00132276,1.29694,0.0246394,0.0450592,1742,484,2.41001,0.100179
525,540,-1.89294,-1.8898,0,0,0,0,0,0,0,-1,1749,484,-1.89289,1.88979
532,540,-0.961548,-1.08157,0,0,0,0,0,0,0,-1,1756,484,-0.961536,1.08157
539,540,0,0,0,0,0,0,0,0,0,-1,1763,484,0,0
546,540,0,0,0,0,0,0,0,0,0,-1,1770,484,0,0
553,540,0,0,0,0,0,0,0,0,0,-1,1777,484,0,0
560,540,0,0,0,0,0,0,0,0,0,-1,1784,484,0,0
567,540,0,0,0,0,0,0,0,0,0,-1,1791,484,0,0
574,540,0,0,0,0,0,0,0,0,0,-1,1798,484,0,0
581,540,0,0,0,0,0,0,0,0,0,-1,1805,484,0,0
588,540,0,0,0,0,0,0,0,0,0,-1,1812,484,0,0
595,540,0,0,0,0,0,0,0,0,0,-1,1819,484,0,0
602,540,0,0,0,0,0,0,0,0,0,-1,1826,484,0,0
609,540,0,0,0,0,0,0,0,0,0,-1,1833,484,0,0
616,540,0,0,0,0,0,0,0,0,0,-1,1840,484,0,0
623,540,0,0,0,0,0,0,0,0,0,-1,1847,484,0,0
630,540,0,0,0,0,0,0,0,0,0,-1,1854,484,0,0
637,540,0,0,0,0,0,0,0,0,0,-1,1861,484,0,0
644,540,0,0,0,0,0,0,0,0,0,-1,1868,484,0,0
651,540,0,0,0,0,0,0,0,0,0,-1,1875,484,0,0
658,540,0,0,0,0,0,0,0,0,0,-1,1882,484,0,0
665,540,0,0,0,0,0,0,0,0,0,-1,1889,484,0,0
672,540,0,0,0,0,0,0,0,0,0,-1,1896,484,0,0
679,540,0,0,0,0,0,0,0,0,0,-1,1903,484,0,0
686,540,0,0,0,0,0,0,0,0,0,-1,1910,484,0,0
693,540,0,0,0,0,0,0,0,0,0,-1,1917,484,0,0
700,540,0,0,0,0,0,0,0,0,0,-1,1924,484,0,0
707,540,0,0,0,0,0,0,0,0,0,-1,1931,484,0,0
714,540,0,0,0,0,0,0,0,0,0,-1,1938,484,0,0
721,540,0,0,0,0,0,0,0,0,0,-1,1945,484,0,0
728,540,0,0,0,0,0,0,0,0,0,-1,1952,484,0,0
735,540,0,0,0,0,0,0,0,0,0,-1,1959,484,0,0
742,540,0,0,0,0,0,0,0,0,0,-1,1966,484,0,0
749,540,0,0,0,0,0,0,0,0,0,-1,1973,484,0,0
756,540,0,0,0,0,0,0,0,0,0,-1,1980,484,0,0
763,540,0,0,0,0,0,0,0,0,0,-1,1987,484,0,0
770,540,0,0,0,0,0,0,0,0,0,-1,1994,484,0,0
777,540,0,0,0,0,0,0,0,0,0,-1,2001,484,0,0
784,540,0,0,0,0,0,0,0,0,0,-1,2008,484,0,0
791,540,0,0,0,0,0,0,0,0,0,-1,2015,484,0,0
798,540,0,0,0,0,0,0,0,0,0,-1,2022,484,0,0
805,540,0,0,0,0,0,0,0,0,0,-1,2029,484,0,0
812,540,0,0,0,0,0,0,0,0,0,-1,2036,484,0,0
-700,533,0,0,0,0,0,0,0,0,0,-1,524,491,0,0
-693,533,0,0,0,0,0,0,0,0,0,-1,531,491,0,0
-686,533,0,0,0,0,0,0,0,0,0,-1,538,491,0,0
-679,533,0,0,0,0,0,0,0,0,0,-1,545,491,0,0
-672,533,0,0,0,0,0,0,0,0,0,-1,552,491,0,0
-665,533,0,0,0,0,0,0,0,0,0,-1,559,491,0,0
-658,533,0,0,0,0,0,0,0,0,0,-1,566,491,0,0
-651,533,0,0,0,0,0,0,0,0,0,-1,573,491,0,0
-644,533,0,0,0,0,0,0,0,0,0,-1,580,491,0,0
-637,533,0,0,0,0,0,0,0,0,0,-1,587,491,0,0
-630,533,0,0,0,0,0,0,0,0,0,-1,594,491,0,0
-623,533,0,0,0,0,0,0,0,0,0,-1,601,491,0,0
-616,533,0,0,0,0,0,0,0,0,0,-1,608,491,0,0
-609,533,0,0,0,0,0,0,0,0,0,-1,615,491,0,0
-602,533,0,0,0,0,0,0,0,0,0,-1,622,491,0,0
-595,533,0,0,0,0,0,0,0,0,0,-1,629,491,0,0
-588,533,0,0,0,0,0,0,0,0,0,-1,636,491,0,0
-581,533,0,0,0,0,0,0,0,0,0,-1,643,491,0,0
-574,533,0,0,0,0,0,0,0,0,0,-1,650,491,0,0
-567,533,0,0,0,0,0,0,0,0,0,-1,657,491,0,0
-560,533,0,0,0,0,0,0,0,0,0,-1,664,491,0,0
-553,533,0,0,0,0,0,0,0,0,0,-1,671,491,0,0
-546,533,0,0,0,0,0,0,0,0,0,-1,678,491,0,0
-539,533,0,0,0,0,0,0,0,0,0,-1,685,491,0,0
-532,533,0,0,0,0,0,0,0,0,0,-1,692,491,0,0
-525,533,0,0,0,0,0,0,0,0,0,-1,699,491,0,0
-518,533,0,0,0,0,0,0,0,0,0,-1,706,491,0,0
-511,533,0,0,0,0,0,0,0,0,0,-1,713,491,0,0
-504,533,0,0,0,0,0,0,0,0,0,-1,720,491,0,0
-497,533,0,0,0,0,0,0,0,0,0,-1,727,491,0,0
-490,533,0,0,0,0,0,0,0,0,0,-1,734,491,0,0
-483,533,0,0,0,0,0,0,0,0,0,-1,741,491,0,0
-476,533,0,0,0,0,0,0,0,0,0,-1,748,491,0,0
-469,533,0,0,0,0,0,0,0,0,0,-1,755,491,0,0
-462,533,0,0,0,0,0,0,0,0,0,-1,762,491,0,0
-455,533,0,0,0,0,0,0,0,0,0,-1,769,491,0,0
-448,533,0,0,0,0,0,0,0,0,0,-1,776,491,0,0
-441,533,0,0,0,0,0,0,0,0,0,-1,783,491,0,0
-434,533,0,0,0,0,0,0,0,0,0,-1,790,491,0,0
-427,533,3.81189,1.18512,0,0,0,0,0,0,0,-1,797,491,3.81187,-1.18512
-420,533,3.54694,0.980804,-0.0445067,-0.00295565,-0.0305536,0.0132167,-0.060679,-1.08398,0.0455026,0.0470384,804,491,3.54693,-0.980803
-413,533,3.47253,0.580353,-0.041726,-0.00847733,-0.0270695,0.0066651,-0.0568684,-1.06077,0.040318,0.0463405,811,491,3.47256,-0.580365
-406,533,3.39526,-0.00354004,-0.0384952,-0.0115947,-0.0226251,0.00127623,-0.0513661,-1.05357,0.0346773,0.045122,818,491,3.39526,0.00354935
-399,533,2.43707,-0.949799,-0.0337508,-0.0119084,-0.0175975,-0.00211857,-0.0435406,-1.06312,0.0283473,0.0422713,825,491,2.43706,0.949809
-392,533,2.26886,-0.821686,-0.0280861,-0.0115982,-0.0128926,-0.00453918,-0.0351451,-1.06985,0.0220731,0.0448072,832,491,2.26883,0.821687
-385,533,1.65851,-0.402252,-0.0230521,-0.0109084,-0.00891345,-0.00619521,-0.0277653,-1.0844,0.0168296,0.0476381,839,491,1.65853,0.402254
-378,533,1.14374,-0.0163269,0,0,0,0,0,0,0,-1,846,491,1.14371,0.0163223
-371,533,1.44177,-0.440918,-0.0135512,-0.00749285,-0.00333458,-0.00601699,-0.0150271,-1.15412,0.00873307,0.044371,853,491,1.44178,0.440915
-364,533,1.39807,-0.499634,-0.00947087,-0.00642214,-0.00126306,-0.00596685,-0.00992616,-1.22483,0.00576981,0.0348992,860,491,1.39805,0.499643
-357,533,1.49524,-0.670959,-0.00605405,-0.00494476,-5.48432e-05,-0.00494206,-0.00605676,-1.52152,0.00372233,0.0194143,867,491,1.49526,0.670964
-350,533,1.48163,-0.724335,-0.00295145,-0.00341518,0.0004843,-0.00264637,-0.00372026,0.562141,0.00221092,0.0107845,874,491,1.48165,0.724334
-343,533,1.52032,-0.774933,-0.000850979,-0.00181751,0.000767622,-0.000427168,-0.00224132,0.504461,0.00137414,0.0106489,881,491,1.52031,0.774926
-336,533,1.48145,-0.827881,0.000844492,-0.000896742,0.000603883,0.00103343,-0.00108568,0.303218,0.00122359,0.0149273,888,491,1.48145,0.827867
-329,533,1.46198,-0.850922,0.0017218,-0.000477843,0.000540641,0.0018475,-0.000603542,0.228441,0.00147461,0.0129638,895,491,1.46197,0.850915
-322,533,1.47894,-0.873077,0.00194427,-0.000317671,0.000406426,0.00201508,-0.000388481,0.172494,0.00148986,0.0108804,902,491,1.47895,0.873086
-315,533,1.46155,-0.942017,0.00220049,-0.000408457,0.000325867,0.00224058,-0.000448543,0.122399,0.00166351,0.0118325,909,491,1.46154,0.942018
-308,533,1.46454,-0.966034,0.00262653,-0.00042263,6.2475e-05,0.00262781,-0.000423909,0.0204778,0.00190893,0.0111636,916,491,1.46455,0.966021
-301,533,1.4632,-0.981995,0.00317519,-0.000146016,-0.000420664,0.00322764,-0.000198469,-0.12405,0.00222088,0.0121571,923,491,1.46323,0.982003
-294,533,1.4873,-1.02899,0.00386719,-9.23389e-05,-0.00115349,0.00417871,-0.000403863,-0.263778,0.00292972,0.0108988,930,491,1.48728,1.02901
-287,533,1.50446,-1.08167,0.00476087,0.000286508,-0.00214463,0.00562279,-0.000575408,-0.382139,0.00395431,0.00844491,937,491,1.50443,1.08166
-280,533,1.49634,-1.12405,0.00579516,0.000882481,-0.00333083,0.00747742,-0.000799786,-0.467686,0.00527181,0.00815528,944,491,1.49631,1.12406
-273,533,1.48254,-1.15732,0.00656657,0.00155697,-0.00477277,0.00945188,-0.00132835,-0.543749,0.00678751,0.0113393,951,491,1.48256,1.15731
-266,533,1.48523,-1.18942,0.00685349,0.00234494,-0.00630678,0.0112968,-0.00209834,-0.613756,0.00831931,0.0111468,958,491,1.48526,1.18941
-259,533,1.49768,-1.23529,0.00728081,0.0030243,-0.00745171,0.0129022,-0.00259713,-0.646298,0.0095852,0.0111358,965,491,1.49769,1.2353
-252,533,1.49304,-1.27139,0.00772475,0.00328404,-0.00817367,0.0139743,-0.00296549,-0.652775,0.0104459,0.0122827,972,491,1.49302,1.27139
-245,533,1.51056,-1.27792,0.00730227,0.00332595,-0.00856443,0.0141063,-0.00347806,-0.671348,0.0107527,0.0164496,979,491,1.51054,1.27793
-238,533,1.50354,-1.28595,0.0062433,0.00255186,-0.00839122,0.0129894,-0.00419423,-0.677143,0.0103451,0.0178591,986,491,1.50351,1.28595
-231,533,1.51172,-1.3212,0.00541723,0.00124604,-0.00764659,0.0112575,-0.00459427,-0.652262,0.00941771,0.025222,993,491,1.5117,1.32121
-224,533,1.54755,-1.36621,0.00468618,-0.000806394,-0.00631776,0.00882874,-0.00494895,-0.580372,0.008059,0.0324041,1000,491,1.54758,1.36621
-217,533,1.51831,-1.53189,0.00390434,-0.00348448,-0.00438813,0.00594616,-0.0055263,-0.435509,0.0066251,0.0353057,1007,491,1.51834,1.5319
-210,533,1.49896,-1.72607,0.00364964,-0.00715713,-0.00189117,0.00397103,-0.00747853,-0.168336,0.006713,0.0411734,1014,491,1.49898,1.72609
-203,533,1.37708,-2.24213,0.00370539,-0.0113433,0.000932679,0.00376298,-0.0114009,0.0616628,0.00911756,0.0443511,1021,491,1.37707,2.24213
-196,533,1.36987,-2.72073,0,0,0,0,0,0,0,-1,1028,491,1.36985,2.72073
-189,533,-0.0477295,-0.369843,0,0,0,0,0,0,0,-1,1035,491,-0.0477663,0.369846
-182,533,0.0894775,-0.365997,0.00585494,-0.025558,0.0101473,0.00884772,-0.0285508,0.286801,0.0225688,0.0448687,1042,491,0.0895334,0.365998
-175,533,0.383057,-0.499908,0.0086016,-0.0303873,0.0129386,0.0125046,-0.0342903,0.292975,0.027976,0.0434514,1049,491,0.38304,0.499897
-168,533,0.531616,-0.516937,0.0148495,-0.0336489,0.0136911,0.0184476,-0.037247,0.256991,0.0327602,0.0419444,1056,491,0.531582,0.516926
-161,533,0.645264,-0.131714,0.0221248,-0.0361492,0.0130684,0.0249213,-0.0389457,0.21081,0.0371688,0.043967,1063,491,0.645319,0.131716
-154,533,0.718384,0.179352,0,0,0,0,0,0,0,-1,1070,491,0.718436,-0.179338
-147,533,0.784546,0.484009,0,0,0,0,0,0,0,-1,1077,491,0.784539,-0.484003
-140,533,0.202515,-2.71893,0,0,0,0,0,0,0,-1,1084,491,0.202558,2.71893
-133,533,-0.191284,-0.078125,0,0,0,0,0,0,0,-1,1091,491,-0.191317,0.0781118
-126,533,1.02808,-0.16272,0,0,0,0,0,0,0,-1,1098,491,1.02807,0.162716
-119,533,2.50171,-0.545135,0,0,0,0,0,0,0,-1,1105,491,2.50165,0.545121
-112,533,3.69775,-0.749786,0,0,0,0,0,0,0,-1,1112,491,3.69777,0.749773
-105,533,3.84839,1.12769,0,0,0,0,0,0,0,-1,1119,491,3.84843,-1.12769
-98,533,4.03259,1.05957,0,0,0,0,0,0,0,-1,1126,491,4.03265,-1.05956
-91,533,0.966919,-0.952515,0,0,0,0,0,0,0,-1,1133,491,0.966881,0.952504
-84,533,0.462402,-1.33258,0,0,0,0,0,0,0,-1,1140,491,0.462403,1.33258
-77,533,0,0,0,0,0,0,0,0,0,-1,1147,491,0,0
-70,533,0,0,0,0,0,0,0,0,0,-1,1154,491,0,0
-63,533,0,0,0,0,0,0,0,0,0,-1,1161,491,0,0
-56,533,0,0,0,0,0,0,0,0,0,-1,1168,491,0,0
-49,533,0,0,0,0,0,0,0,0,0,-1,1175,491,0,0
-42,533,0,0,0,0,0,0,0,0,0,-1,1182,491,0,0
-35,533,0,0,0,0,0,0,0,0,0,-1,1189,491,0,0
-28,533,0,0,0,0,0,0,0,0,0,-1,1196,491,0,0
-21,533,0,0,0,0,0,0,0,0,0,-1,1203,491,0,0
-14,533,0,0,0,0,0,0,0,0,0,-1,1210,491,0,0
-7,533,0,0,0,0,0,0,0,0,0,-1,1217,491,0,0
0,533,0,0,0,0,0,0,0,0,0,-1,1224,491,0,0
7,533,0,0,0,0,0,0,0,0,0,-1,1231,491,0,0
14,533,0,0,0,0,0,0,0,0,0,-1,1238,491,0,0
21,533,0,0,0,0,0,0,0,0,0,-1,1245,491,0,0
28,533,0,0,0,0,0,0,0,0,0,-1,1252,491,0,0
35,533,0,0,0,0,0,0,0,0,0,-1,1259,491,0,0
42,533,0,0,0,0,0,0,0,0,0,-1,1266,491,0,0
49,533,0,0,0,0,0,0,0,0,0,-1,1273,491,0,0
56,533,0,0,0,0,0,0,0,0,0,-1,1280,491,0,0
63,533,0,0,0,0,0,0,0,0,0,-1,1287,491,0,0
70,533,0,0,0,0,0,0,0,0,0,-1,1294,491,0,0
77,533,0,0,0,0,0,0,0,0,0,-1,1301,491,0,0
84,533,0,0,0,0,0,0,0,0,0,-1,1308,491,0,0
91,533,0,0,0,0,0,0,0,0,0,-1,1315,491,0,0
98,533,0,0,0,0,0,0,0,0,0,-1,1322,491,0,0
105,533,0,0,0,0,0,0,0,0,0,-1,1329,491,0,0
112,533,0,0,0,0,0,0,0,0,0,-1,1336,491,0,0
119,533,0,0,0,0,0,0,0,0,0,-1,1343,491,0,0
126,533,0,0,0,0,0,0,0,0,0,-1,1350,491,0,0
133,533,0,0,0,0,0,0,0,0,0,-1,1357,491,0,0
140,533,0,0,0,0,0,0,0,0,0,-1,1364,491,0,0
147,533,0,0,0,0,0,0,0,0,0,-1,1371,491,0,0
154,533,0,0,0,0,0,0,0,0,0,-1,1378,491,0,0
161,533,0,0,0,0,0,0,0,0,0,-1,1385,491,0,0
168,533,0,0,0,0,0,0,0,0,0,-1,1392,491,0,0
175,533,0,0,0,0,0,0,0,0,0,-1,1399,491,0,0
182,533,0,0,0,0,0,0,0,0,0,-1,1406,491,0,0
189,533,0,0,0,0,0,0,0,0,0,-1,1413,491,0,0
196,533,0,0,0,0,0,0,0,0,0,-1,1420,491,0,0
203,533,3.7887,1.16193,0,0,0,0,0,0,0,-1,1427,491,3.78872,-1.16193
210,533,4.6615,-1.65118,0,0,0,0,0,0,0,-1,1434,491,4.66149,1.65118
217,533,4.54382,-1.73865,0,0,0,0,0,0,0,-1,1441,491,4.54385,1.73866
224,533,4.45874,-1.69855,0,0,0,0,0,0,0,-1,1448,491,4.45875,1.69854
231,533,4.37109,-1.49399,0,0,0,0,0,0,0,-1,1455,491,4.37115,1.49398
238,533,4.2561,-1.32529,0,0,0,0,0,0,0,-1,1462,491,4.25614,1.3253
245,533,4.6062,-1.09225,0,0,0,0,0,0,0,-1,1469,491,4.60617,1.09225
252,533,4.01184,-1.30679,-0.0722619,-0.0598785,-0.0698986,0.00410207,-0.136242,-0.829573,0.0922261,0.043797,1476,491,4.01178,1.3068
259,533,3.3822,-1.53482,-0.0634597,-0.0613473,-0.0659049,0.00350986,-0.128317,-0.793411,0.0867383,0.0417841,1483,491,3.38223,1.53483
266,533,2.76086,-1.75592,-0.0562452,-0.060653,-0.0622564,0.00384632,-0.120744,-0.767705,0.0818086,0.0476598,1490,491,2.76084,1.75591
273,533,2.38,-1.39896,0,0,0,0,0,0,0,-1,1497,491,2.38005,1.39895
280,533,2.26904,-0.848663,0,0,0,0,0,0,0,-1,1504,491,2.26909,0.848666
287,533,2.09985,-0.354431,0,0,0,0,0,0,0,-1,1511,491,2.09989,0.354445
294,533,4.19116,0.0862732,0,0,0,0,0,0,0,-1,1518,491,4.19122,-0.0862609
301,533,3.74438,-1.31793,0,0,0,0,0,0,0,-1,1525,491,3.74444,1.31795
308,533,2.59998,-2.37115,0,0,0,0,0,0,0,-1,1532,491,2.59993,2.37115
315,533,2.5741,-2.15573,0,0,0,0,0,0,0,-1,1539,491,2.57412,2.15574
322,533,2.49524,-1.95483,0,0,0,0,0,0,0,-1,1546,491,2.49522,1.95482
329,533,2.36963,-1.42041,0,0,0,0,0,0,0,-1,1553,491,2.36959,1.4204
336,533,2.43726,-1.32388,-0.0209153,0.00712098,-0.0211376,0.0184663,-0.0322606,-1.07819,0.0296459,0.0477681,1560,491,2.43723,1.32388
343,533,2.49561,-1.34348,-0.0192755,0.0059685,-0.0181887,0.0154857,-0.0287927,-1.08872,0.0259461,0.046356,1567,491,2.49556,1.34349
350,533,2.31982,-1.33182,-0.0180939,0.00445052,-0.0158684,0.0126429,-0.0262862,-1.09422,0.0229312,0.0444277,1574,491,2.31978,1.33183
357,533,2.31372,-1.31262,-0.0153454,0.0029868,-0.0130566,0.00977349,-0.0221321,-1.09144,0.0188757,0.035076,1581,491,2.31376,1.31261
364,533,2.34326,-1.30951,-0.0122032,0.00178495,-0.0110487,0.00786724,-0.0182855,-1.06757,0.0154935,0.0234373,1588,491,2.34326,1.3095
371,533,2.29639,-1.25824,-0.00975585,0.000674473,-0.00943868,0.00624293,-0.0153243,-1.03779,0.0128145,0.0171263,1595,491,2.29641,1.25824
378,533,2.3042,-1.23413,-0.00746515,-0.000167771,-0.00777089,0.00476839,-0.0124013,-1.00489,0.0102342,0.0136471,1602,491,2.30419,1.23413
385,533,2.31763,-1.22229,-0.00558909,-0.000836072,-0.00655698,0.00376179,-0.0101869,-0.959255,0.00833323,0.0156395,1609,491,2.31765,1.22228
392,533,2.29407,-1.18182,-0.00429985,-0.00131853,-0.00553116,0.00291931,-0.00853769,-0.917022,0.00687471,0.0126368,1616,491,2.29409,1.18183
399,533,2.31458,-1.15393,-0.00313609,-0.00165952,-0.00450145,0.00216379,-0.0069594,-0.86668,0.0055045,0.0116697,1623,491,2.31462,1.15393
406,533,2.31006,-1.12537,-0.0020774,-0.00200221,-0.0036727,0.0016331,-0.0057127,-0.790516,0.00445378,0.0141432,1630,491,2.31009,1.12537
413,533,2.31323,-1.08487,-0.00145794,-0.00179815,-0.0029097,0.00128662,-0.00454271,-0.756202,0.00353625,0.0114229,1637,491,2.31322,1.08488
420,533,2.31543,-1.02771,-0.000872737,-0.00162463,-0.00226996,0.0010522,-0.00354956,-0.703334,0.00278419,0.0104136,1644,491,2.31549,1.02772
427,533,2.32825,-0.979767,-0.000128177,-0.00128625,-0.00153331,0.00093179,-0.00234622,-0.604857,0.0019504,0.0112754,1651,491,2.3283,0.979758
434,533,2.32434,-0.966919,0.000333706,-0.000978947,-0.00107478,0.000936711,-0.00158195,-0.511287,0.00146997,0.0115087,1658,491,2.3243,0.966911
441,533,2.33521,-0.939423,0.000672318,-0.000175306,-0.000530512,0.00092752,-0.000430508,-0.448372,0.000801369,0.0140518,1665,491,2.33526,0.939426
448,533,2.3479,-0.925568,0.000979403,0.000486051,-0.000146672,0.00101971,0.00044574,-0.268218,0.000590282,0.0151588,1672,491,2.34794,0.925567
455,533,2.32776,-0.880554,0.00112274,0.00121759,0.000187704,0.00136376,0.000976559,0.909138,0.000811507,0.0152525,1679,491,2.32771,0.880543
462,533,2.31409,-0.788422,0.00117843,0.00201877,0.000663689,0.00238411,0.000813089,1.06759,0.00139946,0.0147156,1686,491,2.31414,0.788429
469,533,2.31714,-0.771698,0.000106785,0.00310243,0.00122009,0.00353647,-0.000327253,1.22901,0.00247396,0.00900202,1693,491,2.31713,0.77171
476,533,2.32849,-0.758606,-0.000626833,0.00432257,0.00181635,0.0049176,-0.00122187,1.25422,0.0037526,0.00884503,1700,491,2.32845,0.758595
483,533,2.33508,-0.693268,-0.00176962,0.00576904,0.0026125,0.00658588,-0.00258647,1.26776,0.00546088,0.0102,1707,491,2.33503,0.693258
490,533,2.31189,-0.633118,-0.00188013,0.00729759,0.00344835,0.00844883,-0.00303137,1.24858,0.00686969,0.0226639,1714,491,2.31192,0.633108
497,533,2.26794,-0.598663,-0.00289245,0.00918351,0.00448491,0.0106669,-0.00437588,1.25136,0.00893456,0.0401039,1721,491,2.26795,0.598673
504,533,2.28345,-0.531311,-0.00328655,0.0127137,0.00513779,0.0142214,-0.00479426,1.28535,0.0114196,0.0411788,1728,491,2.28345,0.531324
511,533,2.23999,-0.371948,-0.00222004,0.0190535,0.00567629,0.0204733,-0.00363985,1.3257,0.01501,0.0434094,1735,491,2.23996,0.37195
518,533,2.23694,-0.213837,0.000725221,0.0292271,0.00678163,0.0307584,-0.000806103,1.34872,0.0207795,0.0461774,1742,491,2.23695,0.213842
525,533,-1.10718,-1.43491,0,0,0,0,0,0,0,-1,1749,491,-1.10722,1.43491
532,533,-0.126831,-0.604523,0,0,0,0,0,0,0,-1,1756,491,-0.126875,0.60451
539,533,0.941772,0.170044,0.0179709,0.0623151,0.0102103,0.0645531,0.0157329,1.35502,0.0388674,0.0470024,1763,491,0.941785,-0.170053
546,533,2.17957,0.753662,0,0,0,0,0,0,0,-1,1770,491,2.17955,-0.753654
553,533,0,0,0,0,0,0,0,0,0,-1,1777,491,0,0
560,533,0,0,0,0,0,0,0,0,0,-1,1784,491,0,0
567,533,0,0,0,0,0,0,0,0,0,-1,1791,491,0,0
574,533,0,0,0,0,0,0,0,0,0,-1,1798,491,0,0
581,533,0,0,0,0,0,0,0,0,0,-1,1805,491,0,0
588,533,0,0,0,0,0,0,0,0,0,-1,1812,491,0,0
595,533,0,0,0,0,0,0,0,0,0,-1,1819,491,0,0
602,533,0,0,0,0,0,0,0,0,0,-1,1826,491,0,0
609,533,0,0,0,0,0,0,0,0,0,-1,1833,491,0,0
616,533,0,0,0,0,0,0,0,0,0,-1,1840,491,0,0
623,533,0,0,0,0,0,0,0,0,0,-1,1847,491,0,0
630,533,0,0,0,0,0,0,0,0,0,-1,1854,491,0,0
637,533,0,0,0,0,0,0,0,0,0,-1,1861,491,0,0
644,533,0,0,0,0,0,0,0,0,0,-1,1868,491,0,0
651,533,0,0,0,0,0,0,0,0,0,-1,1875,491,0,0
658,533,0,0,0,0,0,0,0,0,0,-1,1882,491,0,0
665,533,0,0,0,0,0,0,0,0,0,-1,1889,491,0,0
672,533,0,0,0,0,0,0,0,0,0,-1,1896,491,0,0
679,533,0,0,0,0,0,0,0,0,0,-1,1903,491,0,0
686,533,0,0,0,0,0,0,0,0,0,-1,1910,491,0,0
693,533,0,0,0,0,0,0,0,0,0,-1,1917,491,0,0
700,533,0,0,0,0,0,0,0,0,0,-1,1924,491,0,0
707,533,0,0,0,0,0,0,0,0,0,-1,1931,491,0,0
714,533,0,0,0,0,0,0,0,0,0,-1,1938,491,0,0
721,533,0,0,0,0,0,0,0,0,0,-1,1945,491,0,0
728,533,0,0,0,0,0,0,0,0,0,-1,1952,491,0,0
735,533,0,0,0,0,0,0,0,0,0,-1,1959,491,0,0
742,533,0,0,0,0,0,0,0,0,0,-1,1966,491,0,0
749,533,0,0,0,0,0,0,0,0,0,-1,1973,491,0,0
756,533,0,0,0,0,0,0,0,0,0,-1,1980,491,0,0
763,533,0,0,0,0,0,0,0,0,0,-1,1987,491,0,0
770,533,0,0,0,0,0,0,0,0,0,-1,1994,491,0,0
777,533,0,0,0,0,0,0,0,0,0,-1,2001,491,0,0
784,533,0,0,0,0,0,0,0,0,0,-1,2008,491,0,0
791,533,0,0,0,0,0,0,0,0,0,-1,2015,491,0,0
798,533,0,0,0,0,0,0,0,0,0,-1,2022,491,0,0
805,533,0,0,0,0,0,0,0,0,0,-1,2029,491,0,0
812,533,0,0,0,0,0,0,0,0,0,-1,2036,491,0,0
-700,526,0,0,0,0,0,0,0,0,0,-1,524,498,0,0
-693,526,0,0,0,0,0,0,0,0,0,-1,531,498,0,0
-686,526,0,0,0,0,0,0,0,0,0,-1,538,498,0,0
-679,526,0,0,0,0,0,0,0,0,0,-1,545,498,0,0
-672,526,0,0,0,0,0,0,0,0,0,-1,552,498,0,0
-665,526,0,0,0,0,0,0,0,0,0,-1,559,498,0,0
-658,526,0,0,0,0,0,0,0,0,0,-1,566,498,0,0
-651,526,0,0,0,0,0,0,0,0,0,-1,573,498,0,0
-644,526,0,0,0,0,0,0,0,0,0,-1,580,498,0,0
-637,526,0,0,0,0,0,0,0,0,0,-1,587,498,0,0
-630,526,0,0,0,0,0,0,0,0,0,-1,594,498,0,0
-623,526,0,0,0,0,0,0,0,0,0,-1,601,498,0,0
-616,526,0,0,0,0,0,0,0,0,0,-1,608,498,0,0
-609,526,0,0,0,0,0,0,0,0,0,-1,615,498,0,0
-602,526,0,0,0,0,0,0,0,0,0,-1,622,498,0,0
-595,526,0,0,0,0,0,0,0,0,0,-1,629,498,0,0
-588,526,0,0,0,0,0,0,0,0,0,-1,636,498,0,0
-581,526,0,0,0,0,0,0,0,0,0,-1,643,498,0,0
-574,526,0,0,0,0,0,0,0,0,0,-1,650,498,0,0
-567,526,0,0,0,0,0,0,0,0,0,-1,657,498,0,0
-560,526,0,0,0,0,0,0,0,0,0,-1,664,498,0,0
-553,526,0,0,0,0,0,0,0,0,0,-1,671,498,0,0
-546,526,0,0,0,0,0,0,0,0,0,-1,678,498,0,0
-539,526,0,0,0,0,0,0,0,0,0,-1,685,498,0,0
-532,526,0,0,0,0,0,0,0,0,0,-1,692,498,0,0
-525,526,0,0,0,0,0,0,0,0,0,-1,699,498,0,0
-518,526,0,0,0,0,0,0,0,0,0,-1,706,498,0,0
-511,526,0,0,0,0,0,0,0,0,0,-1,713,498,0,0
-504,526,0,0,0,0,0,0,0,0,0,-1,720,498,0,0
-497,526,0,0,0,0,0,0,0,0,0,-1,727,498,0,0
-490,526,0,0,0,0,0,0,0,0,0,-1,734,498,0,0
-483,526,0,0,0,0,0,0,0,0,0,-1,741,498,0,0
-476,526,0,0,0,0,0,0,0,0,0,-1,748,498,0,0
-469,526,0,0,0,0,0,0,0,0,0,-1,755,498,0,0
-462,526,0,0,0,0,0,0,0,0,0,-1,762,498,0,0
-455,526,0,0,0,0,0,0,0,0,0,-1,769,498,0,0
-448,526,0,0,0,0,0,0,0,0,0,-1,776,498,0,0
-441,526,0,0,0,0,0,0,0,0,0,-1,783,498,0,0
-434,526,2.19696,-1.4068,0,0,0,0,0,0,0,-1,790,498,2.19699,1.4068
-427,526,4.33264,0.519714,0,0,0,0,0,0,0,-1,797,498,4.33264,-0.519699
-420,526,4.00494,0.539673,0,0,0,0,0,0,0,-1,804,498,4.00496,-0.539659
-413,526,4.54358,0.087738,0,0,0,0,0,0,0,-1,811,498,4.54361,-0.0877452
-406,526,3.92139,-0.0777283,-0.03456,-0.0123903,-0.0184095,-0.00198596,-0.0449643,-1.05639,0.0293366,0.0420654,818,498,3.92136,0.077727
-399,526,3.24554,-0.301636,-0.0300528,-0.0117389,-0.0149841,-0.00333534,-0.0384564,-1.05967,0.0246013,0.0442581,825,498,3.24555,0.301629
-392,526,2.47321,-0.406433,-0.0245746,-0.010749,-0.0113629,-0.00436132,-0.0309622,-1.05867,0.0193522,0.0467034,832,498,2.4732,0.406437
-385,526,1.74658,-0.329468,-0.0200041,-0.00972065,-0.00826586,-0.00512782,-0.024597,-1.06363,0.0149841,0.0475671,839,498,1.74656,0.329457
-378,526,1.4433,-0.427948,-0.0158452,-0.00778882,-0.00540495,-0.0050761,-0.0185579,-1.10563,0.0110747,0.043439,846,498,1.44328,0.427943
-371,526,1.44098,-0.526031,-0.0118919,-0.00630133,-0.00354679,-0.00458073,-0.0136126,-1.11913,0.00799803,0.0318634,853,498,1.441,0.526025
-364,526,1.43231,-0.620667,-0.00833014,-0.00524114,-0.00172693,-0.0044688,-0.00910248,-1.15024,0.00525561,0.0162761,860,498,1.43232,0.620675
-357,526,1.41425,-0.679138,-0.00525404,-0.00392481,-0.000651242,-0.00365893,-0.00551992,-1.18318,0.00324279,0.0117888,867,498,1.41427,0.679149
-350,526,1.4314,-0.716888,-0.00249929,-0.00269566,-8.95671e-05,-0.00246457,-0.00273038,-0.369756,0.00173844,0.011757,874,498,1.43142,0.716874
-343,526,1.46948,-0.776825,-0.000558351,-0.00137712,0.000261086,-0.000482182,-0.00145328,0.283859,0.000854735,0.0156006,881,498,1.46949,0.776839
-336,526,1.43329,-0.832947,0.0010379,-0.000650241,0.000202083,0.00106176,-0.000674095,0.117496,0.00101049,0.0149033,888,498,1.43328,0.832936
-329,526,1.4137,-0.848206,0.00207417,-0.000453685,0.000142942,0.00208223,-0.000461742,0.0563075,0.00156494,0.0135196,895,498,1.41371,0.848212
-322,526,1.44135,-0.880798,0.00263614,-0.000439653,9.79547e-06,0.00263617,-0.000439684,0.00318465,0.00192086,0.00924733,902,498,1.44137,0.880792
-315,526,1.44641,-0.932709,0.00319651,-0.000642322,-0.000114248,0.00319991,-0.00064572,-0.0297262,0.00237792,0.00823101,909,498,1.44639,0.932704
-308,526,1.44403,-0.97876,0.00394194,-0.000588887,-0.000476467,0.00399151,-0.00063845,-0.10365,0.00289736,0.00797826,916,498,1.444,0.978746
-301,526,1.4436,-1.0043,0.00486042,-0.000167293,-0.00111813,0.00509787,-0.000404742,-0.209255,0.00354121,0.00923655,923,498,1.44363,1.00432
-294,526,1.45026,-1.03073,0.00599193,7.38979e-05,-0.00204237,0.00662833,-0.000562506,-0.302066,0.00461783,0.00864597,930,498,1.45023,1.03073
-287,526,1.44513,-1.06998,0.0072767,0.000672024,-0.00326724,0.00861982,-0.000671094,-0.390027,0.0059828,0.00887359,937,498,1.44515,1.06997
-280,526,1.41272,-1.1203,0.00846633,0.00147542,-0.0047046,0.0108319,-0.000890134,-0.4659,0.00753551,0.0112132,944,498,1.41271,1.12029
-273,526,1.41449,-1.15033,0.00927524,0.00238403,-0.00646804,0.0131582,-0.00149892,-0.540661,0.00931207,0.00955894,951,498,1.41449,1.15032
-266,526,1.43274,-1.17853,0.00957913,0.0034505,-0.00836071,0.0154194,-0.00238976,-0.609743,0.0111618,0.00929056,958,498,1.43276,1.17851
-259,526,1.44324,-1.21368,0.0100822,0.00428532,-0.00955851,0.017172,-0.00280455,-0.63819,0.0124883,0.0142019,965,498,1.44322,1.2137
-252,526,1.42401,-1.21783,0.0106048,0.00457611,-0.010019,0.0180531,-0.00287215,-0.639274,0.0130981,0.0242394,972,498,1.424,1.21783
-245,526,1.54004,-1.21414,0.0100013,0.00453762,-0.0101562,0.0177866,-0.00324772,-0.654016,0.0130755,0.0339281,979,498,1.54006,1.21414
-238,526,1.80701,-1.25049,0.00851617,0.00351033,-0.00959206,0.0159265,-0.00389998,-0.657775,0.0121285,0.0373381,986,498,1.80703,1.2505
-231,526,1.88354,-1.32095,0.00735021,0.00192837,-0.00836608,0.0134336,-0.00415505,-0.628718,0.0106154,0.0387251,993,498,1.88356,1.32095
-224,526,1.96667,-1.43372,0.0062704,-0.00042197,-0.00641898,0.010163,-0.00431458,-0.545129,0.00858297,0.0420101,1000,498,1.96667,1.43372
-217,526,1.65845,-1.57104,0.00513396,-0.00354759,-0.00387022,0.00660876,-0.00502239,-0.364076,0.00673603,0.0423903,1007,498,1.65846,1.57104
-210,526,1.68433,-1.68341,0.00464612,-0.00774872,-0.000763687,0.004693,-0.00779559,-0.0613042,0.00728408,0.04591,1014,498,1.6843,1.68341
-203,526,1.81195,-2.08954,0.00443924,-0.0126058,0.00268267,0.00485149,-0.013018,0.152478,0.01067,0.0492184,1021,498,1.81195,2.08953
-196,526,1.60754,-2.4671,0,0,0,0,0,0,0,-1,1028,498,1.60753,2.46711
-189,526,-0.265137,-0.0604248,0.00457694,-0.0237666,0.010198,0.00786479,-0.0270544,0.31188,0.021151,0.0467563,1035,498,-0.265131,0.060421
-182,526,-0.205566,0.144897,0.00609548,-0.028868,0.013713,0.0108321,-0.0336047,0.332583,0.026755,0.0431322,1042,498,-0.205617,-0.144884
-175,526,0.0959473,0.126343,0.00898409,-0.0342955,0.0169588,0.0148376,-0.0401491,0.332357,0.0328486,0.0439439,1049,498,0.0959918,-0.126331
-168,526,0.0847168,-0.0258179,0,0,0,0,0,0,0,-1,1056,498,0.0847464,0.0258063
-161,526,0.310181,0.372314,0,0,0,0,0,0,0,-1,1063,498,0.310181,-0.372319
-154,526,0.433594,0.674225,0,0,0,0,0,0,0,-1,1070,498,0.433587,-0.674227
-147,526,0.365356,-2.14755,0,0,0,0,0,0,0,-1,1077,498,0.36539,2.14754
-140,526,-0.152832,-2.72351,0,0,0,0,0,0,0,-1,1084,498,-0.152844,2.72352
-133,526,4.5321,1.08731,0,0,0,0,0,0,0,-1,1091,498,4.53212,-1.08732
-126,526,1.89832,-0.231171,0,0,0,0,0,0,0,-1,1098,498,1.89833,0.231177
-119,526,3.22498,-0.633759,0,0,0,0,0,0,0,-1,1105,498,3.22503,0.633768
-112,526,-0.0960693,0.378174,0,0,0,0,0,0,0,-1,1112,498,-0.0960594,-0.378183
-105,526,0,0,0,0,0,0,0,0,0,-1,1119,498,0,0
-98,526,0,0,0,0,0,0,0,0,0,-1,1126,498,0,0
-91,526,0,0,0,0,0,0,0,0,0,-1,1133,498,0,0
-84,526,0,0,0,0,0,0,0,0,0,-1,1140,498,0,0
-77,526,0,0,0,0,0,0,0,0,0,-1,1147,498,0,0
-70,526,0,0,0,0,0,0,0,0,0,-1,1154,498,0,0
-63,526,0,0,0,0,0,0,0,0,0,-1,1161,498,0,0
-56,526,0,0,0,0,0,0,0,0,0,-1,1168,498,0,0
-49,526,0,0,0,0,0,0,0,0,0,-1,1175,498,0,0
-42,526,0,0,0,0,0,0,0,0,0,-1,1182,498,0,0
-35,526,0,0,0,0,0,0,0,0,0,-1,1189,498,0,0
-28,526,0,0,0,0,0,0,0,0,0,-1,1196,498,0,0
-21,526,0,0,0,0,0,0,0,0,0,-1,1203,498,0,0
-14,526,0,0,0,0,0,0,0,0,0,-1,1210,498,0,0
-7,526,0,0,0,0,0,0,0,0,0,-1,1217,498,0,0
0,526,0,0,0,0,0,0,0,0,0,-1,1224,498,0,0
7,526,0,0,0,0,0,0,0,0,0,-1,1231,498,0,0
14,526,0,0,0,0,0,0,0,0,0,-1,1238,498,0,0
21,526,0,0,0,0,0,0,0,0,0,-1,1245,498,0,0
28,526,0,0,0,0,0,0,0,0,0,-1,1252,498,0,0
35,526,0,0,0,0,0,0,0,0,0,-1,1259,498,0,0
42,526,0,0,0,0,0,0,0,0,0,-1,1266,498,0,0
49,526,0,0,0,0,0,0,0,0,0,-1,1273,498,0,0
56,526,0,0,0,0,0,0,0,0,0,-1,1280,498,0,0
63,526,0,0,0,0,0,0,0,0,0,-1,1287,498,0,0
70,526,0,0,0,0,0,0,0,0,0,-1,1294,498,0,0
77,526,0,0,0,0,0,0,0,0,0,-1,1301,498,0,0
84,526,0,0,0,0,0,0,0,0,0,-1,1308,498,0,0
91,526,0,0,0,0,0,0,0,0,0,-1,1315,498,0,0
98,526,0,0,0,0,0,0,0,0,0,-1,1322,498,0,0
105,526,0,0,0,0,0,0,0,0,0,-1,1329,498,0,0
112,526,0,0,0,0,0,0,0,0,0,-1,1336,498,0,0
119,526,0,0,0,0,0,0,0,0,0,-1,1343,498,0,0
126,526,0,0,0,0,0,0,0,0,0,-1,1350,498,0,0
133,526,0,0,0,0,0,0,0,0,0,-1,1357,498,0,0
140,526,0,0,0,0,0,0,0,0,0,-1,1364,498,0,0
147,526,0,0,0,0,0,0,0,0,0,-1,1371,498,0,0
154,526,0,0,0,0,0,0,0,0,0,-1,1378,498,0,0
161,526,0,0,0,0,0,0,0,0,0,-1,1385,498,0,0
168,526,0,0,0,0,0,0,0,0,0,-1,1392,498,0,0
175,526,0,0,0,0,0,0,0,0,0,-1,1399,498,0,0
182,526,0,0,0,0,0,0,0,0,0,-1,1406,498,0,0
189,526,0,0,0,0,0,0,0,0,0,-1,1413,498,0,0
196,526,0,0,0,0,0,0,0,0,0,-1,1420,498,0,0
203,526,0,0,0,0,0,0,0,0,0,-1,1427,498,0,0
210,526,0,0,0,0,0,0,0,0,0,-1,1434,498,0,0
217,526,0,0,0,0,0,0,0,0,0,-1,1441,498,0,0
224,526,0,0,0,0,0,0,0,0,0,-1,1448,498,0,0
231,526,5.02026,-1.46545,0,0,0,0,0,0,0,-1,1455,498,5.02031,1.46544
238,526,4.90002,-1.14731,0,0,0,0,0,0,0,-1,1462,498,4.90005,1.14732
245,526,4.82422,-0.819824,0,0,0,0,0,0,0,-1,1469,498,4.82419,0.819831
252,526,4.3717,-0.754608,0,0,0,0,0,0,0,-1,1476,498,4.37167,0.754622
259,526,3.67542,-0.891907,0,0,0,0,0,0,0,-1,1483,498,3.67544,0.891908
266,526,3.07483,-1.16077,0,0,0,0,0,0,0,-1,1490,498,3.07487,1.16078
273,526,2.34326,-0.28244,0,0,0,0,0,0,0,-1,1497,498,2.34329,0.282445
280,526,2.10229,0.340363,0,0,0,0,0,0,0,-1,1504,498,2.10227,-0.340365
287,526,1.82361,0.733459,0,0,0,0,0,0,0,-1,1511,498,1.82362,-0.733451
294,526,1.49316,1.13605,0,0,0,0,0,0,0,-1,1518,498,1.49312,-1.13604
301,526,3.75757,-0.65152,0,0,0,0,0,0,0,-1,1525,498,3.75753,0.65152
308,526,3.35901,-2.50385,0,0,0,0,0,0,0,-1,1532,498,3.35895,2.50384
315,526,3.33325,-2.28839,0,0,0,0,0,0,0,-1,1539,498,3.33321,2.28839
322,526,3.25305,-2.11877,0,0,0,0,0,0,0,-1,1546,498,3.253,2.11878
329,526,3.04663,-1.79279,0,0,0,0,0,0,0,-1,1553,498,3.04658,1.79277
336,526,2.93018,-1.44797,-0.0311925,0.0105808,-0.0238317,0.0213833,-0.041995,-1.14522,0.0372309,0.0457128,1560,498,2.93013,1.44797
343,526,2.96594,-1.48166,-0.0290146,0.00892633,-0.0203584,0.0177829,-0.0378711,-1.16046,0.0328222,0.0433395,1567,498,2.96591,1.48167
350,526,2.21594,-1.88052,-0.0272525,0.00674969,-0.0176468,0.0142526,-0.0347554,-1.16878,0.0291085,0.0442767,1574,498,2.21595,1.88051
357,526,2.33362,-1.2977,0,0,0,0,0,0,0,-1,1581,498,2.3336,1.29769
364,526,2.56531,-1.36743,-0.0195335,0.00278956,-0.0123961,0.00830863,-0.0250526,-1.15192,0.0200535,0.0382083,1588,498,2.56527,1.36743
371,526,2.60754,-1.23386,-0.0161857,0.00112856,-0.0106887,0.00622624,-0.0212834,-1.12578,0.0166568,0.0358749,1595,498,2.60751,1.23385
378,526,2.48828,-1.27402,-0.0130203,-0.000200188,-0.00894863,0.00439734,-0.0176178,-1.09619,0.0134527,0.0336352,1602,498,2.48831,1.27401
385,526,2.41223,-1.27411,-0.010305,-0.00128441,-0.00767712,0.00310929,-0.0146987,-1.05099,0.0109832,0.0261618,1609,498,2.41221,1.27412
392,526,2.34241,-1.1705,-0.00831213,-0.00204995,-0.00656815,0.00209525,-0.0124573,-1.00782,0.0090842,0.0168159,1616,498,2.34241,1.1705
399,526,2.34387,-1.13898,-0.00648234,-0.00252072,-0.00544732,0.00129475,-0.0102978,-0.959781,0.00733498,0.0128655,1623,498,2.34385,1.13899
406,526,2.36841,-1.11407,-0.00480994,-0.00290468,-0.00453355,0.000775254,-0.00848987,-0.888956,0.00593523,0.0113267,1630,498,2.36836,1.11408
413,526,2.36133,-1.07813,-0.00364704,-0.00263884,-0.00367791,0.000569359,-0.00685524,-0.853505,0.00477128,0.0119922,1637,498,2.36127,1.07813
420,526,2.34949,-1.03214,-0.00253563,-0.00240618,-0.00294903,0.000478834,-0.00542064,-0.79637,0.00378349,0.0126699,1644,498,2.34951,1.03214
427,526,2.35132,-0.99115,-0.00135702,-0.0019213,-0.0020558,0.000435913,-0.00371423,-0.717203,0.00263351,0.012724,1651,498,2.35129,0.991142
434,526,2.35889,-0.953888,-0.000678212,-0.00152367,-0.00155201,0.000507612,-0.00270949,-0.652437,0.00199715,0.0114708,1658,498,2.35884,0.953894
441,526,2.36121,-0.933807,-0.00022943,-0.000639648,-0.000921126,0.000509147,-0.00137823,-0.675849,0.00112753,0.0102796,1665,498,2.36123,0.933794
448,526,2.36511,-0.912903,0.000239721,5.69728e-05,-0.000461066,0.00061838,-0.000321687,-0.687576,0.000551685,0.00961828,1672,498,2.36513,0.912893
455,526,2.35156,-0.879089,0.000445423,0.000755274,-0.000104077,0.000786987,0.00041371,-1.27503,0.000454567,0.0125398,1679,498,2.35157,0.879092
462,526,2.36218,-0.811768,0.000569384,0.0014316,0.000330577,0.00154376,0.000457229,1.24371,0.00091564,0.0101348,1686,498,2.36224,0.811778
469,526,2.36243,-0.776093,-0.000308035,0.00220294,0.000767012,0.00241869,-0.000523791,1.29659,0.00181246,0.00759151,1693,498,2.3624,0.776079
476,526,2.36084,-0.751251,-0.000908493,0.00305941,0.00122103,0.00340504,-0.00125413,1.29494,0.00278388,0.00933196,1700,498,2.36083,0.751252
483,526,2.37512,-0.702484,-0.00184827,0.00407491,0.00180111,0.00457959,-0.00235295,1.2976,0.00407074,0.00936892,1707,498,2.37514,0.702479
490,526,2.36597,-0.633362,-0.00197277,0.00525001,0.00237694,0.00596204,-0.0026848,1.27974,0.00511038,0.0122413,1714,498,2.36596,0.633356
497,526,2.3501,-0.587219,-0.00278607,0.00672084,0.00308118,0.0076321,-0.00369734,1.28324,0.00667126,0.0200926,1721,498,2.35011,0.587228
504,526,2.30127,-0.54425,-0.003078,0.00980085,0.00337498,0.0106317,-0.00390883,1.32942,0.00868893,0.0273606,1728,498,2.30124,0.544265
511,526,2.25684,-0.417542,-0.00211336,0.0157178,0.00364698,0.0164348,-0.00283044,1.37665,0.0120117,0.0358218,1735,498,2.25685,0.417538
518,526,2.18701,-0.455231,0.000492201,0.0255284,0.00467992,0.0263746,-0.000353997,1.39191,0.0177023,0.0427699,1742,498,2.18696,0.45524
525,526,2.07861,-0.254578,0,0,0,0,0,0,0,-1,1749,498,2.07865,0.254564
532,526,0.716309,-0.596649,0,0,0,0,0,0,0,-1,1756,498,0.716249,0.596639
539,526,1.31482,0.57132,0,0,0,0,0,0,0,-1,1763,498,1.31481,-0.571307
546,526,1.91333,1.73926,0,0,0,0,0,0,0,-1,1770,498,1.91337,-1.73925
553,526,0.792236,1.72839,0,0,0,0,0,0,0,-1,1777,498,0.792187,-1.7284
560,526,0,0,0,0,0,0,0,0,0,-1,1784,498,0,0
567,526,0,0,0,0,0,0,0,0,0,-1,1791,498,0,0
574,526,0,0,0,0,0,0,0,0,0,-1,1798,498,0,0
581,526,0,0,0,0,0,0,0,0,0,-1,1805,498,0,0
588,526,0,0,0,0,0,0,0,0,0,-1,1812,498,0,0
595,526,0,0,0,0,0,0,0,0,0,-1,1819,498,0,0
602,526,0,0,0,0,0,0,0,0,0,-1,1826,498,0,0
609,526,0,0,0,0,0,0,0,0,0,-1,1833,498,0,0
616,526,0,0,0,0,0,0,0,0,0,-1,1840,498,0,0
623,526,0,0,0,0,0,0,0,0,0,-1,1847,498,0,0
630,526,0,0,0,0,0,0,0,0,0,-1,1854,498,0,0
637,526,0,0,0,0,0,0,0,0,0,-1,1861,498,0,0
644,526,0,0,0,0,0,0,0,0,0,-1,1868,498,0,0
651,526,0,0,0,0,0,0,0,0,0,-1,1875,498,0,0
658,526,0,0,0,0,0,0,0,0,0,-1,1882,498,0,0
665,526,0,0,0,0,0,0,0,0,0,-1,1889,498,0,0
672,526,0,0,0,0,0,0,0,0,0,-1,1896,498,0,0
679,526,0,0,0,0,0,0,0,0,0,-1,1903,498,0,0
686,526,0,0,0,0,0,0,0,0,0,-1,1910,498,0,0
693,526,0,0,0,0,0,0,0,0,0,-1,1917,498,0,0
700,526,0,0,0,0,0,0,0,0,0,-1,1924,498,0,0
707,526,0,0,0,0,0,0,0,0,0,-1,1931,498,0,0
714,526,0,0,0,0,0,0,0,0,0,-1,1938,498,0,0
721,526,0,0,0,0,0,0,0,0,0,-1,1945,498,0,0
728,526,0,0,0,0,0,0,0,0,0,-1,1952,498,0,0
735,526,0,0,0,0,0,0,0,0,0,-1,1959,498,0,0
742,526,0,0,0,0,0,0,0,0,0,-1,1966,498,0,0
749,526,0,0,0,0,0,0,0,0,0,-1,1973,498,0,0
756,526,0,0,0,0,0,0,0,0,0,-1,1980,498,0,0
763,526,0,0,0,0,0,0,0,0,0,-1,1987,498,0,0
770,526,0,0,0,0,0,0,0,0,0,-1,1994,498,0,0
777,526,0,0,0,0,0,0,0,0,0,-1,2001,498,0,0
784,526,0,0,0,0,0,0,0,0,0,-1,2008,498,0,0
791,526,0,0,0,0,0,0,0,0,0,-1,2015,498,0,0
798,526,0,0,0,0,0,0,0,0,0,-1,2022,498,0,0
805,526,0,0,0,0,0,0,0,0,0,-1,2029,498,0,0
812,526,0,0,0,0,0,0,0,0,0,-1,2036,498,0,0
-700,519,0,0,0,0,0,0,0,0,0,-1,524,505,0,0
-693,519,0,0,0,0,0,0,0,0,0,-1,531,505,0,0
-686,519,0,0,0,0,0,0,0,0,0,-1,538,505,0,0
-679,519,0,0,0,0,0,0,0,0,0,-1,545,505,0,0
-672,519,0,0,0,0,0,0,0,0,0,-1,552,505,0,0
-665,519,0,0,0,0,0,0,0,0,0,-1,559,505,0,0
-658,519,0,0,0,0,0,0,0,0,0,-1,566,505,0,0
-651,519,0,0,0,0,0,0,0,0,0,-1,573,505,0,0
-644,519,0,0,0,0,0,0,0,0,0,-1,580,505,0,0
-637,519,0,0,0,0,0,0,0,0,0,-1,587,505,0,0
-630,519,0,0,0,0,0,0,0,0,0,-1,594,505,0,0
-623,519,0,0,0,0,0,0,0,0,0,-1,601,505,0,0
-616,519,0,0,0,0,0,0,0,0,0,-1,608,505,0,0
-609,519,0,0,0,0,0,0,0,0,0,-1,615,505,0,0
-602,519,0,0,0,0,0,0,0,0,0,-1,622,505,0,0
-595,519,0,0,0,0,0,0,0,0,0,-1,629,505,0,0
-588,519,0,0,0,0,0,0,0,0,0,-1,636,505,0,0
-581,519,0,0,0,0,0,0,0,0,0,-1,643,505,0,0
-574,519,0,0,0,0,0,0,0,0,0,-1,650,505,0,0
-567,519,0,0,0,0,0,0,0,0,0,-1,657,505,0,0
-560,519,0,0,0,0,0,0,0,0,0,-1,664,505,0,0
-553,519,0,0,0,0,0,0,0,0,0,-1,671,505,0,0
-546,519,0,0,0,0,0,0,0,0,0,-1,678,505,0,0
-539,519,0,0,0,0,0,0,0,0,0,-1,685,505,0,0
-532,519,0,0,0,0,0,0,0,0,0,-1,692,505,0,0
-525,519,0,0,0,0,0,0,0,0,0,-1,699,505,0,0
-518,519,0,0,0,0,0,0,0,0,0,-1,706,505,0,0
-511,519,0,0,0,0,0,0,0,0,0,-1,713,505,0,0
-504,519,0,0,0,0,0,0,0,0,0,-1,720,505,0,0
-497,519,0,0,0,0,0,0,0,0,0,-1,727,505,0,0
-490,519,0,0,0,0,0,0,0,0,0,-1,734,505,0,0
-483,519,0,0,0,0,0,0,0,0,0,-1,741,505,0,0
-476,519,0,0,0,0,0,0,0,0,0,-1,748,505,0,0
-469,519,0,0,0,0,0,0,0,0,0,-1,755,505,0,0
-462,519,0,0,0,0,0,0,0,0,0,-1,762,505,0,0
-455,519,0,0,0,0,0,0,0,0,0,-1,769,505,0,0
-448,519,0,0,0,0,0,0,0,0,0,-1,776,505,0,0
-441,519,2.22351,-0.855743,0,0,0,0,0,0,0,-1,783,505,2.22352,0.855753
-434,519,1.85944,-1.03635,0,0,0,0,0,0,0,-1,790,505,1.85943,1.03634
-427,519,1.11481,-1.21295,0,0,0,0,0,0,0,-1,797,505,1.11481,1.21296
-420,519,4.29877,-0.540314,0,0,0,0,0,0,0,-1,804,505,4.29877,0.540309
-413,519,4.20026,-0.421448,0,0,0,0,0,0,0,-1,811,505,4.20026,0.421459
-406,519,4.21869,-0.255341,0,0,0,0,0,0,0,-1,818,505,4.21868,0.255353
-399,519,3.67767,-0.331573,0,0,0,0,0,0,0,-1,825,505,3.67766,0.331568
-392,519,2.53467,-0.105927,0,0,0,0,0,0,0,-1,832,505,2.53465,0.105918
-385,519,1.81525,-0.0362549,0,0,0,0,0,0,0,-1,839,505,1.81527,0.0362572
-378,519,1.35931,-0.46994,-0.0131801,-0.00657486,-0.00488761,-0.00397867,-0.0157763,-1.08252,0.00947401,0.0285857,846,505,1.35929,0.469944
-371,519,1.39954,-0.542297,-0.0101012,-0.00519167,-0.00336687,-0.0034797,-0.0118132,-1.10039,0.00700963,0.0160994,853,505,1.39956,0.542285
-364,519,1.40521,-0.614716,-0.00722993,-0.00416082,-0.00185896,-0.00328485,-0.0081059,-1.13044,0.00470787,0.0100165,860,505,1.40519,0.614724
-357,519,1.39948,-0.673492,-0.00469391,-0.00298717,-0.000935003,-0.00257466,-0.00510643,-1.15529,0.00294823,0.010017,867,505,1.3995,0.6735
-350,519,1.40283,-0.723633,-0.00244727,-0.00202043,-0.000388921,-0.00179022,-0.00267748,-1.03634,0.00157487,0.0119638,874,505,1.40285,0.723646
-343,519,1.40875,-0.77179,-0.000806184,-0.000964325,-1.22524e-06,-0.000806175,-0.000964334,-0.00774716,0.000597192,0.0141157,881,505,1.40877,0.771783
-336,519,1.37994,-0.817505,0.00060649,-0.000392625,2.82944e-05,0.000607291,-0.000393425,0.0282892,0.000582145,0.012991,888,505,1.37992,0.817509
-329,519,1.38373,-0.832336,0.00175725,-0.00038039,-4.75504e-05,0.0017583,-0.000381447,-0.0222298,0.00131788,0.0110279,895,505,1.3837,0.832329
-322,519,1.41272,-0.881714,0.00267701,-0.00046721,-0.000204109,0.0026902,-0.000480404,-0.0645546,0.00197319,0.00948934,902,505,1.4127,0.881701
-315,519,1.42261,-0.935577,0.00363132,-0.000747461,-0.00039191,0.00366612,-0.000782261,-0.0885641,0.00274228,0.00851642,909,505,1.42258,0.935576
-308,519,1.41711,-0.978333,0.00483864,-0.00058049,-0.000886931,0.0049801,-0.000721958,-0.158171,0.00358504,0.0075947,916,505,1.41713,0.97834
-301,519,1.40985,-1.013,0.00631424,4.894e-05,-0.00174097,0.00676551,-0.000402327,-0.253623,0.00465025,0.0114226,923,505,1.40984,1.01299
-294,519,1.41302,-1.02231,0.00812343,0.000524607,-0.00291394,0.00911219,-0.000464154,-0.327129,0.00623527,0.0135035,930,505,1.41304,1.02232
-287,519,1.40851,-1.07404,0.0100478,0.00141185,-0.00444104,0.011924,-0.000464342,-0.399724,0.00810854,0.00994021,937,505,1.4085,1.07403
-280,519,1.36218,-1.12344,0.0115263,0.0024728,-0.00619506,0.0146723,-0.000673137,-0.46988,0.0100134,0.0124456,944,505,1.36215,1.12346
-273,519,1.36285,-1.16412,0.0124135,0.00364402,-0.00833136,0.0174435,-0.00138598,-0.543167,0.0121175,0.0135088,951,505,1.36286,1.16412
-266,519,1.42828,-1.1615,0.0127496,0.00505214,-0.0106563,0.0202309,-0.00242916,-0.612104,0.0143656,0.0170563,958,505,1.42828,1.16149
-259,519,1.39978,-1.13412,0.0133714,0.0059953,-0.011797,0.0220434,-0.00267673,-0.633899,0.0156643,0.0322022,965,505,1.39978,1.13411
-252,519,1.67279,-1.23251,0.0140376,0.00619476,-0.0117791,0.0225309,-0.00229855,-0.624712,0.0158425,0.0437624,972,505,1.67281,1.23251
-245,519,2.13092,-1.37161,0.0131805,0.00600541,-0.0114604,0.0216018,-0.00241582,-0.63371,0.0152703,0.0486114,979,505,2.13091,1.37162
-238,519,2.34595,-1.39017,0.0111767,0.00467335,-0.0103253,0.0187502,-0.00290018,-0.632853,0.0135706,0.045297,986,505,2.34596,1.39018
-231,519,2.62793,-1.4761,0.00961286,0.00280094,-0.00846161,0.0153283,-0.00291447,-0.59406,0.0113161,0.0444405,993,505,2.6279,1.4761
-224,519,2.54181,-1.44891,0.00810182,0.000224453,-0.00568655,0.0110805,-0.00275424,-0.482516,0.00845595,0.0445342,1000,505,2.54181,1.44891
-217,519,2.26978,-1.50269,0.00657246,-0.00336415,-0.00236381,0.00710612,-0.00389782,-0.222042,0.00644251,0.0457054,1007,505,2.26979,1.50268
-210,519,1.95734,-1.66574,0.00584354,-0.00807227,0.00144615,0.00599223,-0.00822097,0.102463,0.00823956,0.0497465,1014,505,1.95733,1.66575
-203,519,2.0047,-1.83975,0,0,0,0,0,0,0,-1,1021,505,2.00469,1.83975
-196,519,0.0153809,0.264679,0.00492143,-0.0197515,0.0100218,0.00847917,-0.0233093,0.341121,0.0190071,0.0455299,1028,505,0.0153265,-0.264687
-189,519,-0.0958252,0.395569,0.00490855,-0.0259086,0.0143873,0.0105812,-0.0315813,0.375568,0.025329,0.0446186,1035,505,-0.0958551,-0.395565
-182,519,-0.19751,0.473541,0.00613975,-0.0316755,0.0184565,0.0136545,-0.0391902,0.386662,0.031675,0.0421272,1042,505,-0.197482,-0.473544
-175,519,-0.0985107,0.592621,0.00899875,-0.0376211,0.02217,0.0178581,-0.0464804,0.38017,0.0383515,0.0471413,1049,505,-0.0985664,-0.592635
-168,519,-0.0919189,0.408813,0,0,0,0,0,0,0,-1,1056,505,-0.091937,-0.408827
-161,519,0.101685,0.155304,0,0,0,0,0,0,0,-1,1063,505,0.101719,-0.155305
-154,519,-0.572144,-1.80533,0,0,0,0,0,0,0,-1,1070,505,-0.572162,1.80533
-147,519,-0.154419,-2.06433,0,0,0,0,0,0,0,-1,1077,505,-0.154396,2.06432
-140,519,1.06445,0.429596,0,0,0,0,0,0,0,-1,1084,505,1.06441,-0.429603
-133,519,3.74744,3.57724,0,0,0,0,0,0,0,-1,1091,505,3.74744,-3.57725
-126,519,0,0,0,0,0,0,0,0,0,-1,1098,505,0,0
-119,519,0,0,0,0,0,0,0,0,0,-1,1105,505,0,0
-112,519,0,0,0,0,0,0,0,0,0,-1,1112,505,0,0
-105,519,0,0,0,0,0,0,0,0,0,-1,1119,505,0,0
-98,519,0,0,0,0,0,0,0,0,0,-1,1126,505,0,0
-91,519,0,0,0,0,0,0,0,0,0,-1,1133,505,0,0
-84,519,0,0,0,0,0,0,0,0,0,-1,1140,505,0,0
-77,519,0,0,0,0,0,0,0,0,0,-1,1147,505,0,0
-70,519,0,0,0,0,0,0,0,0,0,-1,1154,505,0,0
-63,519,0,0,0,0,0,0,0,0,0,-1,1161,505,0,0
-56,519,0,0,0,0,0,0,0,0,0,-1,1168,505,0,0
-49,519,0,0,0,0,0,0,0,0,0,-1,1175,505,0,0
-42,519,0,0,0,0,0,0,0,0,0,-1,1182,505,0,0
-35,519,0,0,0,0,0,0,0,0,0,-1,1189,505,0,0
-28,519,0,0,0,0,0,0,0,0,0,-1,1196,505,0,0
-21,519,0,0,0,0,0,0,0,0,0,-1,1203,505,0,0
-14,519,0,0,0,0,0,0,0,0,0,-1,1210,505,0,0
-7,519,0,0,0,0,0,0,0,0,0,-1,1217,505,0,0
0,519,0,0,0,0,0,0,0,0,0,-1,1224,505,0,0
7,519,0,0,0,0,0,0,0,0,0,-1,1231,505,0,0
14,519,0,0,0,0,0,0,0,0,0,-1,1238,505,0,0
21,519,0,0,0,0,0,0,0,0,0,-1,1245,505,0,0
28,519,0,0,0,0,0,0,0,0,0,-1,1252,505,0,0
35,519,0,0,0,0,0,0,0,0,0,-1,1259,505,0,0
42,519,0,0,0,0,0,0,0,0,0,-1,1266,505,0,0
49,519,0,0,0,0,0,0,0,0,0,-1,1273,505,0,0
56,519,0,0,0,0,0,0,0,0,0,-1,1280,505,0,0
63,519,0,0,0,0,0,0,0,0,0,-1,1287,505,0,0
70,519,0,0,0,0,0,0,0,0,0,-1,1294,505,0,0
77,519,0,0,0,0,0,0,0,0,0,-1,1301,505,0,0
84,519,0,0,0,0,0,0,0,0,0,-1,1308,505,0,0
91,519,0,0,0,0,0,0,0,0,0,-1,1315,505,0,0
98,519,0,0,0,0,0,0,0,0,0,-1,1322,505,0,0
105,519,0,0,0,0,0,0,0,0,0,-1,1329,505,0,0
112,519,0,0,0,0,0,0,0,0,0,-1,1336,505,0,0
119,519,0,0,0,0,0,0,0,0,0,-1,1343,505,0,0
126,519,0,0,0,0,0,0,0,0,0,-1,1350,505,0,0
133,519,0,0,0,0,0,0,0,0,0,-1,1357,505,0,0
140,519,0,0,0,0,0,0,0,0,0,-1,1364,505,0,0
147,519,0,0,0,0,0,0,0,0,0,-1,1371,505,0,0
154,519,0,0,0,0,0,0,0,0,0,-1,1378,505,0,0
161,519,0,0,0,0,0,0,0,0,0,-1,1385,505,0,0
168,519,0,0,0,0,0,0,0,0,0,-1,1392,505,0,0
175,519,0,0,0,0,0,0,0,0,0,-1,1399,505,0,0
182,519,0,0,0,0,0,0,0,0,0,-1,1406,505,0,0
189,519,0,0,0,0,0,0,0,0,0,-1,1413,505,0,0
196,519,0,0,0,0,0,0,0,0,0,-1,1420,505,0,0
203,519,0,0,0,0,0,0,0,0,0,-1,1427,505,0,0
210,519,0,0,0,0,0,0,0,0,0,-1,1434,505,0,0
217,519,0,0,0,0,0,0,0,0,0,-1,1441,505,0,0
224,519,0,0,0,0,0,0,0,0,0,-1,1448,505,0,0
231,519,0,0,0,0,0,0,0,0,0,-1,1455,505,0,0
238,519,0,0,0,0,0,0,0,0,0,-1,1462,505,0,0
245,519,0,0,0,0,0,0,0,0,0,-1,1469,505,0,0
252,519,5.43933,-0.442413,0,0,0,0,0,0,0,-1,1476,505,5.43934,0.442423
259,519,3.93506,-0.439209,0,0,0,0,0,0,0,-1,1483,505,3.93506,0.439217
266,519,2.79407,-0.683716,0,0,0,0,0,0,0,-1,1490,505,2.79403,0.683706
273,519,2.87622,-0.163635,0,0,0,0,0,0,0,-1,1497,505,2.87626,0.163636
280,519,1.93762,1.43814,0,0,0,0,0,0,0,-1,1504,505,1.93766,-1.43815
287,519,1.71069,1.13184,0,0,0,0,0,0,0,-1,1511,505,1.71065,-1.13185
294,519,1.48926,0.944244,0,0,0,0,0,0,0,-1,1518,505,1.48932,-0.94424
301,519,3.55664,-0.752625,0,0,0,0,0,0,0,-1,1525,505,3.5566,0.752628
308,519,4.26416,-1.54022,0,0,0,0,0,0,0,-1,1532,505,4.2641,1.54023
315,519,4.099,-2.4024,0,0,0,0,0,0,0,-1,1539,505,4.09894,2.4024
322,519,4.01074,-2.28275,0,0,0,0,0,0,0,-1,1546,505,4.01078,2.28274
329,519,3.75208,-2.08264,0,0,0,0,0,0,0,-1,1553,505,3.75204,2.08263
336,519,3.4635,-1.72272,0,0,0,0,0,0,0,-1,1560,505,3.46349,1.72272
343,519,3.37549,-1.45236,0,0,0,0,0,0,0,-1,1567,505,3.37545,1.45236
350,519,2.396,-2.52716,0,0,0,0,0,0,0,-1,1574,505,2.39594,2.52717
357,519,2.92908,-1.88773,0,0,0,0,0,0,0,-1,1581,505,2.92911,1.88773
364,519,2.94495,-1.43393,-0.0276026,0.00293519,-0.0128683,0.00763456,-0.032302,-1.22065,0.0244796,0.0443494,1588,505,2.9449,1.43394
371,519,2.94946,-1.12701,-0.0233398,0.000701861,-0.0111263,0.00506078,-0.0276987,-1.19741,0.0203634,0.0436098,1595,505,2.94951,1.12702
378,519,2.72119,-1.27841,-0.0193315,-0.0011059,-0.00938594,0.0028633,-0.0233007,-1.17072,0.0165709,0.0425016,1602,505,2.72116,1.27843
385,519,2.39465,-1.15308,-0.015806,-0.00261283,-0.00812064,0.00125289,-0.0196717,-1.1265,0.0135514,0.038972,1609,505,2.39464,1.15309
392,519,2.28674,-1.07019,-0.0130912,-0.00361821,-0.00701476,0.000109418,-0.0168188,-1.08235,0.0112492,0.0311282,1616,505,2.2867,1.07018
399,519,2.36902,-1.12747,-0.0105771,-0.00417418,-0.00588194,-0.000678882,-0.0140724,-1.03462,0.00916369,0.0209291,1623,505,2.36905,1.12747
406,519,2.42151,-1.11841,-0.00826788,-0.00451792,-0.0049562,-0.0010939,-0.0116919,-0.966233,0.00745677,0.0153409,1630,505,2.42146,1.11841
413,519,2.422,-1.08466,-0.00650679,-0.00411156,-0.00409347,-0.00104411,-0.00957424,-0.927711,0.00606482,0.0127092,1637,505,2.42199,1.08465
420,519,2.39514,-1.03479,-0.00482223,-0.00373314,-0.00335286,-0.000880898,-0.00767448,-0.865901,0.00484943,0.0151187,1644,505,2.3952,1.03478
427,519,2.39905,-1.01105,-0.00313863,-0.00303421,-0.00238187,-0.000703978,-0.00546885,-0.796356,0.00343537,0.0134544,1651,505,2.399,1.01106
434,519,2.40271,-0.975769,-0.00212126,-0.00244466,-0.00191555,-0.000360596,-0.00420532,-0.743291,0.00269141,0.011734,1658,505,2.40275,0.975758
441,519,2.39575,-0.929993,-0.00144309,-0.0013624,-0.00124955,-0.000152547,-0.00265294,-0.801537,0.00172003,0.0113222,1665,505,2.3957,0.929984
448,519,2.3999,-0.900604,-0.000693354,-0.00051963,-0.00074127,0.00013985,-0.00135283,-0.843722,0.000951937,0.00881868,1672,505,2.39986,0.900604
455,519,2.39221,-0.867157,-0.000333723,0.000311061,-0.000365086,0.000475726,-0.000498388,-1.14709,0.000562456,0.00930335,1679,505,2.39221,0.867171
462,519,2.40271,-0.828369,-8.21844e-05,0.00102709,3.51067e-05,0.0010282,-8.32944e-05,1.53919,0.000714849,0.00918564,1686,505,2.40269,0.82838
469,519,2.41565,-0.785309,-0.000738466,0.00160821,0.000390423,0.00167146,-0.000801717,1.41019,0.00145702,0.0104049,1693,505,2.41571,0.78531
476,519,2.41101,-0.749634,-0.00117051,0.00224436,0.000749536,0.00240163,-0.00132778,1.36397,0.00218273,0.012269,1700,505,2.41106,0.749623
483,519,2.41394,-0.711578,-0.00188178,0.00298685,0.00118038,0.00325794,-0.00215287,1.34505,0.00314557,0.0127353,1707,505,2.41398,0.711582
490,519,2.41016,-0.631744,-0.0019789,0.00392215,0.00157882,0.004318,-0.00237475,1.32513,0.00391798,0.0110442,1714,505,2.41017,0.631742
497,519,2.40649,-0.602325,-0.00254134,0.00506011,0.00204714,0.00557637,-0.0030576,1.32376,0.00505503,0.0122842,1721,505,2.40646,0.602321
504,519,2.38501,-0.571808,-0.00267061,0.00763993,0.00208946,0.00804727,-0.00307796,1.37826,0.0066333,0.0124367,1728,505,2.38501,0.571796
511,519,2.38904,-0.527557,-0.00177639,0.0129883,0.00220766,0.0133113,-0.00209942,1.42551,0.00965043,0.0162865,1735,505,2.38899,0.527571
518,519,2.26953,-0.473267,0.000523232,0.0221496,0.00324599,0.0226263,4.65363e-05,1.42498,0.0150687,0.0328252,1742,505,2.26956,0.473256
525,519,2.23462,-0.308319,0.00377496,0.0291585,0.00536248,0.0302449,0.00268859,1.37091,0.0193295,0.0462364,1749,505,2.23466,0.308318
532,519,2.19324,-0.161804,0,0,0,0,0,0,0,-1,1756,505,2.19327,0.161814
539,519,1.44775,0.607147,0,0,0,0,0,0,0,-1,1763,505,1.44778,-0.607143
546,519,1.30713,0.890289,0,0,0,0,0,0,0,-1,1770,505,1.30711,-0.890281
553,519,1.50671,1.0759,0.0311976,0.0873811,0.013316,0.0903774,0.0282014,1.34947,0.0533942,0.0484159,1777,505,1.50674,-1.07591
560,519,1.67175,1.5817,0.0420817,0.108346,0.0174908,0.112679,0.0377483,1.32793,0.0662254,0.0459455,1784,505,1.67172,-1.58168
567,519,0,0,0,0,0,0,0,0,0,-1,1791,505,0,0
574,519,0,0,0,0,0,0,0,0,0,-1,1798,505,0,0
581,519,0,0,0,0,0,0,0,0,0,-1,1805,505,0,0
588,519,0,0,0,0,0,0,0,0,0,-1,1812,505,0,0
595,519,0,0,0,0,0,0,0,0,0,-1,1819,505,0,0
602,519,0,0,0,0,0,0,0,0,0,-1,1826,505,0,0
609,519,0,0,0,0,0,0,0,0,0,-1,1833,505,0,0
616,519,0,0,0,0,0,0,0,0,0,-1,1840,505,0,0
623,519,0,0,0,0,0,0,0,0,0,-1,1847,505,0,0
630,519,0,0,0,0,0,0,0,0,0,-1,1854,505,0,0
637,519,0,0,0,0,0,0,0,0,0,-1,1861,505,0,0
644,519,0,0,0,0,0,0,0,0,0,-1,1868,505,0,0
651,519,0,0,0,0,0,0,0,0,0,-1,1875,505,0,0
658,519,0,0,0,0,0,0,0,0,0,-1,1882,505,0,0
665,519,0,0,0,0,0,0,0,0,0,-1,1889,505,0,0
672,519,0,0,0,0,0,0,0,0,0,-1,1896,505,0,0
679,519,0,0,0,0,0,0,0,0,0,-1,1903,505,0,0
686,519,0,0,0,0,0,0,0,0,0,-1,1910,505,0,0
693,519,0,0,0,0,0,0,0,0,0,-1,1917,505,0,0
700,519,0,0,0,0,0,0,0,0,0,-1,1924,505,0,0
707,519,0,0,0,0,0,0,0,0,0,-1,1931,505,0,0
714,519,0,0,0,0,0,0,0,0,0,-1,1938,505,0,0
721,519,0,0,0,0,0,0,0,0,0,-1,1945,505,0,0
728,519,0,0,0,0,0,0,0,0,0,-1,1952,505,0,0
735,519,0,0,0,0,0,0,0,0,0,-1,1959,505,0,0
742,519,0,0,0,0,0,0,0,0,0,-1,1966,505,0,0
749,519,0,0,0,0,0,0,0,0,0,-1,1973,505,0,0
756,519,0,0,0,0,0,0,0,0,0,-1,1980,505,0,0
763,519,0,0,0,0,0,0,0,0,0,-1,1987,505,0,0
770,519,0,0,0,0,0,0,0,0,0,-1,1994,505,0,0
777,519,0,0,0,0,0,0,0,0,0,-1,2001,505,0,0
784,519,0,0,0,0,0,0,0,0,0,-1,2008,505,0,0
791,519,0,0,0,0,0,0,0,0,0,-1,2015,505,0,0
798,519,0,0,0,0,0,0,0,0,0,-1,2022,505,0,0
805,519,0,0,0,0,0,0,0,0,0,-1,2029,505,0,0
812,519,0,0,0,0,0,0,0,0,0,-1,2036,505,0,0
-700,512,0,0,0,0,0,0,0,0,0,-1,524,512,0,0
-693,512,0,0,0,0,0,0,0,0,0,-1,531,512,0,0
-686,512,0,0,0,0,0,0,0,0,0,-1,538,512,0,0
-679,512,0,0,0,0,0,0,0,0,0,-1,545,512,0,0
-672,512,0,0,0,0,0,0,0,0,0,-1,552,512,0,0
-665,512,0,0,0,0,0,0,0,0,0,-1,559,512,0,0
-658,512,0,0,0,0,0,0,0,0,0,-1,566,512,0,0
-651,512,0,0,0,0,0,0,0,0,0,-1,573,512,0,0
-644,512,0,0,0,0,0,0,0,0,0,-1,580,512,0,0
-637,512,0,0,0,0,0,0,0,0,0,-1,587,512,0,0
-630,512,0,0,0,0,0,0,0,0,0,-1,594,512,0,0
-623,512,0,0,0,0,0,0,0,0,0,-1,601,512,0,0
-616,512,0,0,0,0,0,0,0,0,0,-1,608,512,0,0
-609,512,0,0,0,0,0,0,0,0,0,-1,615,512,0,0
-602,512,0,0,0,0,0,0,0,0,0,-1,622,512,0,0
-595,512,0,0,0,0,0,0,0,0,0,-1,629,512,0,0
-588,512,0,0,0,0,0,0,0,0,0,-1,636,512,0,0
-581,512,0,0,0,0,0,0,0,0,0,-1,643,512,0,0
-574,512,0,0,0,0,0,0,0,0,0,-1,650,512,0,0
-567,512,0,0,0,0,0,0,0,0,0,-1,657,512,0,0
-560,512,0,0,0,0,0,0,0,0,0,-1,664,512,0,0
-553,512,0,0,0,0,0,0,0,0,0,-1,671,512,0,0
-546,512,0,0,0,0,0,0,0,0,0,-1,678,512,0,0
-539,512,0,0,0,0,0,0,0,0,0,-1,685,512,0,0
-532,512,0,0,0,0,0,0,0,0,0,-1,692,512,0,0
-525,512,0,0,0,0,0,0,0,0,0,-1,699,512,0,0
-518,512,0,0,0,0,0,0,0,0,0,-1,706,512,0,0
-511,512,0,0,0,0,0,0,0,0,0,-1,713,512,0,0
-504,512,0,0,0,0,0,0,0,0,0,-1,720,512,0,0
-497,512,0,0,0,0,0,0,0,0,0,-1,727,512,0,0
-490,512,0,0,0,0,0,0,0,0,0,-1,734,512,0,0
-483,512,0,0,0,0,0,0,0,0,0,-1,741,512,0,0
-476,512,0,0,0,0,0,0,0,0,0,-1,748,512,0,0
-469,512,0,0,0,0,0,0,0,0,0,-1,755,512,0,0
-462,512,0,0,0,0,0,0,0,0,0,-1,762,512,0,0
-455,512,0,0,0,0,0,0,0,0,0,-1,769,512,0,0
-448,512,2.69421,-0.529968,-0.0407231,0.00806079,0.00529077,0.00862799,-0.0412903,1.464,0.0308082,0.0414145,776,512,2.69423,0.529959
-441,512,1.98712,-0.733704,-0.0390978,0.000628736,-0.00165792,0.000697806,-0.0391668,-1.52916,0.0263469,0.0459464,783,512,1.98711,0.733727
-434,512,1.40088,-1.00586,-0.036877,-0.00411639,-0.00575016,-0.00313643,-0.0378569,-1.402,0.0242602,0.0486855,790,512,1.40089,1.00588
-427,512,1.84583,-0.70813,-0.0335969,-0.00708542,-0.00783525,-0.00494292,-0.0357394,-1.30388,0.0223615,0.0486719,797,512,1.84582,0.708102
-420,512,1.96808,-1.40308,0,0,0,0,0,0,0,-1,804,512,1.96807,1.40309
-413,512,4.59155,-1.06372,0,0,0,0,0,0,0,-1,811,512,4.59154,1.06372
-406,512,4.56561,-0.617188,0,0,0,0,0,0,0,-1,818,512,4.56564,0.617173
-399,512,1.38025,-0.411133,-0.0220441,-0.0100036,-0.00969373,-0.00461278,-0.0274349,-1.06327,0.0169627,0.0391196,825,512,1.38024,0.411137
-392,512,1.35834,-0.475525,-0.0173278,-0.00847584,-0.00768962,-0.00402942,-0.0217743,-1.04653,0.0133769,0.0328512,832,512,1.35834,0.475541
-385,512,1.35809,-0.496399,-0.0137412,-0.00723769,-0.00600739,-0.00365843,-0.0173204,-1.03346,0.0105413,0.0181381,839,512,1.35807,0.496381
-378,512,1.37659,-0.528198,-0.010689,-0.00546677,-0.00417076,-0.0031572,-0.0129986,-1.06508,0.00782849,0.0140476,846,512,1.37661,0.528209
-371,512,1.37366,-0.585144,-0.0081897,-0.00422899,-0.00295748,-0.00265006,-0.00976863,-1.08042,0.00583329,0.0110603,853,512,1.37366,0.585144
-364,512,1.37885,-0.647888,-0.00582778,-0.00326534,-0.00175729,-0.00237179,-0.00672132,-1.10039,0.00393616,0.00930939,860,512,1.37887,0.647906
-357,512,1.3938,-0.69574,-0.00371928,-0.00221542,-0.000996232,-0.00171921,-0.0042155,-1.10867,0.00244757,0.0110535,867,512,1.39382,0.695735
-350,512,1.39783,-0.743347,-0.00182856,-0.00143858,-0.00052802,-0.0010707,-0.00219645,-0.962273,0.00126825,0.0117684,874,512,1.39781,0.743372
-343,512,1.36542,-0.790894,-0.000362077,-0.000589647,-0.000152112,-0.000285901,-0.000665823,-0.464277,0.000385689,0.0110217,881,512,1.36544,0.79087
-336,512,1.34772,-0.806091,0.000976678,-0.000110433,-8.65255e-05,0.000983522,-0.000117276,-0.0789299,0.000698065,0.0108082,888,512,1.34769,0.806081
-329,512,1.35706,-0.82019,0.00228719,-0.000208844,-0.000228112,0.00230787,-0.00022952,-0.0903918,0.00162051,0.0112823,895,512,1.35705,0.820168
-322,512,1.37537,-0.878174,0.00355438,-0.00031552,-0.00046467,0.00360939,-0.000370532,-0.117841,0.0025388,0.00930558,902,512,1.37535,0.878156
-315,512,1.38428,-0.936218,0.00489387,-0.000591636,-0.000774508,0.00500113,-0.000698893,-0.137609,0.0035898,0.00991148,909,512,1.38431,0.936221
-308,512,1.38727,-0.979126,0.00653318,-0.000229894,-0.00145731,0.00683384,-0.000530551,-0.203454,0.00474264,0.0108959,916,512,1.38728,0.979136
-301,512,1.38068,-1.02618,0.00852898,0.000714412,-0.00259071,0.00930983,-6.64415e-05,-0.292746,0.00622882,0.0148829,923,512,1.38066,1.02621
-294,512,1.37268,-1.04675,0.0109918,0.0015264,-0.00408712,0.0125124,5.85755e-06,-0.356166,0.00833962,0.0136689,930,512,1.37268,1.04677
-287,512,1.36127,-1.07312,0.013569,0.00282487,-0.00599529,0.016247,0.000146931,-0.420085,0.0107827,0.014433,937,512,1.36124,1.07312
-280,512,1.33392,-1.1369,0.0152546,0.00421014,-0.00809521,0.0195318,-6.6977e-05,-0.486071,0.0130436,0.0156785,944,512,1.33394,1.13687
-273,512,1.40277,-1.12091,0.0160871,0.00563844,-0.0105808,0.0226631,-0.000937562,-0.556079,0.0154307,0.0272913,951,512,1.40274,1.12089
-266,512,1.61707,-1.02094,0.0163065,0.00741422,-0.0133156,0.0258986,-0.00217788,-0.624265,0.0180356,0.0343517,958,512,1.61709,1.02093
-259,512,1.81171,-1.01813,0.0170086,0.00839659,-0.0141905,0.0275321,-0.00212687,-0.638092,0.0191032,0.0424863,965,512,1.8117,1.01811
-252,512,1.82117,-1.23041,0.0178619,0.00826509,-0.0133176,0.0272192,-0.00109218,-0.612485,0.0185209,0.0497441,972,512,1.82115,1.23039
-245,512,2.49579,-1.52478,0,0,0,0,0,0,0,-1,979,512,2.49579,1.52479
-238,512,2.46301,-1.41711,0.0141151,0.00602038,-0.0103665,0.0211964,-0.00106085,-0.599285,0.0144975,0.0499539,986,512,2.46302,1.41713
-231,512,2.34991,-1.37036,0.0120853,0.00385267,-0.00770196,0.0167019,-0.000763956,-0.539985,0.0113978,0.0485583,993,512,2.34993,1.37038
-224,512,2.99628,-1.50458,0.0100548,0.00116625,-0.0038358,0.0114812,-0.000260158,-0.356022,0.0077423,0.0491364,1000,512,2.99628,1.50455
-217,512,2.71942,-1.62616,0,0,0,0,0,0,0,-1,1007,512,2.71942,1.62617
-210,512,2.18915,-1.70679,0,0,0,0,0,0,0,-1,1014,512,2.18913,1.70677
-203,512,0.33783,-0.292786,0.00645831,-0.0142974,0.0100096,0.0104989,-0.018338,0.383668,0.0168528,0.0448345,1021,512,0.337812,0.292757
-196,512,0.317383,0.113922,0.00569115,-0.0209792,0.0152048,0.01258,-0.027868,0.425407,0.0239023,0.041285,1028,512,0.31739,-0.113933
-189,512,-0.0241699,0.434631,0.00530767,-0.0273594,0.0201314,0.0148982,-0.0369499,0.444587,0.0308238,0.0415036,1035,512,-0.024195,-0.434621
-182,512,-0.302124,0.585754,0.0060145,-0.0336498,0.0247701,0.0179136,-0.0455489,0.44783,0.0377804,0.0442143,1042,512,-0.302177,-0.585748
-175,512,-0.285767,1.08115,0,0,0,0,0,0,0,-1,1049,512,-0.285793,-1.08113
-168,512,-0.343994,0.559448,0,0,0,0,0,0,0,-1,1056,512,-0.343953,-0.559457
-161,512,3.16931,3.29422,0,0,0,0,0,0,0,-1,1063,512,3.16937,-3.29423
-154,512,3.11609,3.08133,0,0,0,0,0,0,0,-1,1070,512,3.11606,-3.08132
-147,512,0,0,0,0,0,0,0,0,0,-1,1077,512,0,0
-140,512,0,0,0,0,0,0,0,0,0,-1,1084,512,0,0
-133,512,0,0,0,0,0,0,0,0,0,-1,1091,512,0,0
-126,512,0,0,0,0,0,0,0,0,0,-1,1098,512,0,0
-119,512,0,0,0,0,0,0,0,0,0,-1,1105,512,0,0
-112,512,0,0,0,0,0,0,0,0,0,-1,1112,512,0,0
-105,512,0,0,0,0,0,0,0,0,0,-1,1119,512,0,0
-98,512,0,0,0,0,0,0,0,0,0,-1,1126,512,0,0
-91,512,0,0,0,0,0,0,0,0,0,-1,1133,512,0,0
-84,512,0,0,0,0,0,0,0,0,0,-1,1140,512,0,0
-77,512,0,0,0,0,0,0,0,0,0,-1,1147,512,0,0
-70,512,0,0,0,0,0,0,0,0,0,-1,1154,512,0,0
-63,512,0,0,0,0,0,0,0,0,0,-1,1161,512,0,0
-56,512,0,0,0,0,0,0,0,0,0,-1,1168,512,0,0
-49,512,0,0,0,0,0,0,0,0,0,-1,1175,512,0,0
-42,512,0,0,0,0,0,0,0,0,0,-1,1182,512,0,0
-35,512,0,0,0,0,0,0,0,0,0,-1,1189,512,0,0
-28,512,0,0,0,0,0,0,0,0,0,-1,1196,512,0,0
-21,512,0,0,0,0,0,0,0,0,0,-1,1203,512,0,0
-14,512,0,0,0,0,0,0,0,0,0,-1,1210,512,0,0
-7,512,0,0,0,0,0,0,0,0,0,-1,1217,512,0,0
0,512,0,0,0,0,0,0,0,0,0,-1,1224,512,0,0
7,512,0,0,0,0,0,0,0,0,0,-1,1231,512,0,0
14,512,0,0,0,0,0,0,0,0,0,-1,1238,512,0,0
21,512,0,0,0,0,0,0,0,0,0,-1,1245,512,0,0
28,512,0,0,0,0,0,0,0,0,0,-1,1252,512,0,0
35,512,0,0,0,0,0,0,0,0,0,-1,1259,512,0,0
42,512,0,0,0,0,0,0,0,0,0,-1,1266,512,0,0
49,512,0,0,0,0,0,0,0,0,0,-1,1273,512,0,0
56,512,0,0,0,0,0,0,0,0,0,-1,1280,512,0,0
63,512,0,0,0,0,0,0,0,0,0,-1,1287,512,0,0
70,512,0,0,0,0,0,0,0,0,0,-1,1294,512,0,0
77,512,0,0,0,0,0,0,0,0,0,-1,1301,512,0,0
84,512,0,0,0,0,0,0,0,0,0,-1,1308,512,0,0
91,512,0,0,0,0,0,0,0,0,0,-1,1315,512,0,0
98,512,0,0,0,0,0,0,0,0,0,-1,1322,512,0,0
105,512,0,0,0,0,0,0,0,0,0,-1,1329,512,0,0
112,512,0,0,0,0,0,0,0,0,0,-1,1336,512,0,0
119,512,0,0,0,0,0,0,0,0,0,-1,1343,512,0,0
126,512,0,0,0,0,0,0,0,0,0,-1,1350,512,0,0
133,512,0,0,0,0,0,0,0,0,0,-1,1357,512,0,0
140,512,0,0,0,0,0,0,0,0,0,-1,1364,512,0,0
147,512,0,0,0,0,0,0,0,0,0,-1,1371,512,0,0
154,512,0,0,0,0,0,0,0,0,0,-1,1378,512,0,0
161,512,0,0,0,0,0,0,0,0,0,-1,1385,512,0,0
168,512,0,0,0,0,0,0,0,0,0,-1,1392,512,0,0
175,512,0,0,0,0,0,0,0,0,0,-1,1399,512,0,0
182,512,0,0,0,0,0,0,0,0,0,-1,1406,512,0,0
189,512,0,0,0,0,0,0,0,0,0,-1,1413,512,0,0
196,512,0,0,0,0,0,0,0,0,0,-1,1420,512,0,0
203,512,0,0,0,0,0,0,0,0,0,-1,1427,512,0,0
210,512,0,0,0,0,0,0,0,0,0,-1,1434,512,0,0
217,512,0,0,0,0,0,0,0,0,0,-1,1441,512,0,0
224,512,0,0,0,0,0,0,0,0,0,-1,1448,512,0,0
231,512,0,0,0,0,0,0,0,0,0,-1,1455,512,0,0
238,512,0,0,0,0,0,0,0,0,0,-1,1462,512,0,0
245,512,0,0,0,0,0,0,0,0,0,-1,1469,512,0,0
252,512,0,0,0,0,0,0,0,0,0,-1,1476,512,0,0
259,512,0,0,0,0,0,0,0,0,0,-1,1483,512,0,0
266,512,0,0,0,0,0,0,0,0,0,-1,1490,512,0,0
273,512,2.7428,0.0884399,0,0,0,0,0,0,0,-1,1497,512,2.74277,-0.0884482
280,512,2.64172,0.508972,0,0,0,0,0,0,0,-1,1504,512,2.64175,-0.508972
287,512,1.38062,1.50177,0,0,0,0,0,0,0,-1,1511,512,1.38059,-1.50177
294,512,2.69092,0.437286,0,0,0,0,0,0,0,-1,1518,512,2.69091,-0.437297
301,512,3.05542,-0.264038,0,0,0,0,0,0,0,-1,1525,512,3.05541,0.264047
308,512,4.80798,-1.75226,0,0,0,0,0,0,0,-1,1532,512,4.80797,1.75225
315,512,5.31616,-2.60486,0,0,0,0,0,0,0,-1,1539,512,5.31622,2.60486
322,512,1.41479,-0.292114,0,0,0,0,0,0,0,-1,1546,512,1.4148,0.292135
329,512,1.56384,-0.437744,0,0,0,0,0,0,0,-1,1553,512,1.56384,0.437736
336,512,1.65588,-0.781738,0,0,0,0,0,0,0,-1,1560,512,1.65589,0.781761
343,512,2.06702,-1.31299,0,0,0,0,0,0,0,-1,1567,512,2.06696,1.31301
350,512,2.42969,-0.919312,0,0,0,0,0,0,0,-1,1574,512,2.42965,0.919303
357,512,3.05701,-1.99792,0,0,0,0,0,0,0,-1,1581,512,3.05706,1.99795
364,512,3.09399,-1.51617,0,0,0,0,0,0,0,-1,1588,512,3.094,1.51619
371,512,3.17407,-1.01526,0,0,0,0,0,0,0,-1,1595,512,3.1741,1.01526
378,512,2.59106,-1.19916,0,0,0,0,0,0,0,-1,1602,512,2.59112,1.19918
385,512,2.30139,-0.914673,0,0,0,0,0,0,0,-1,1609,512,2.3014,0.914663
392,512,2.2843,-0.990845,-0.0189255,-0.00543907,-0.00718895,-0.00232571,-0.0220388,-1.16211,0.0139819,0.044058,1616,512,2.28431,0.99083
399,512,2.40247,-1.04077,-0.0156341,-0.00623275,-0.00616988,-0.00317691,-0.01869,-1.11093,0.0115476,0.0363987,1623,512,2.40243,1.04075
406,512,2.41968,-1.12286,-0.0125806,-0.00663597,-0.00537824,-0.00346336,-0.0157532,-1.03784,0.00955916,0.0256402,1630,512,2.41966,1.12288
413,512,2.43347,-1.06738,-0.0101217,-0.00616081,-0.00465846,-0.00307928,-0.0132032,-0.986386,0.00797634,0.0205835,1637,512,2.43352,1.06741
420,512,2.4585,-1.04468,-0.00774176,-0.00567821,-0.00403289,-0.0025472,-0.0108728,-0.910631,0.00656625,0.0162933,1644,512,2.45852,1.04466
427,512,2.44714,-1.02698,-0.0054479,-0.00478323,-0.00310024,-0.00199757,-0.00823357,-0.838793,0.00495916,0.0135147,1651,512,2.44713,1.02696
434,512,2.43628,-0.992981,-0.00400982,-0.00397552,-0.00274591,-0.0012467,-0.00673864,-0.788521,0.00413991,0.010243,1658,512,2.43633,0.992955
441,512,2.44409,-0.941589,-0.00301653,-0.00264241,-0.0020985,-0.000722653,-0.00493629,-0.82985,0.00307838,0.0120498,1665,512,2.44414,0.941609
448,512,2.43188,-0.908203,-0.00186775,-0.00158615,-0.00158833,-0.000132388,-0.00332151,-0.829606,0.00217156,0.00888063,1672,512,2.43185,0.908219
455,512,2.44214,-0.862122,-0.00124481,-0.000507379,-0.00118175,0.000361845,-0.00211403,-0.936616,0.00154417,0.008022,1679,512,2.44213,0.862092
462,512,2.44885,-0.819397,-0.000826035,0.00031668,-0.00073174,0.000673704,-0.00118306,-1.11687,0.00108536,0.00854935,1686,512,2.44889,0.819376
469,512,2.44373,-0.786255,-0.00125407,0.000790031,-0.000359373,0.000851371,-0.00131541,-1.40174,0.00126052,0.0102813,1693,512,2.44374,0.786274
476,512,2.44263,-0.751404,-0.00151102,0.00128744,3.8795e-07,0.00128744,-0.00151102,1.57066,0.00161741,0.0128629,1700,512,2.44258,0.75143
483,512,2.44885,-0.695557,-0.00199416,0.00187235,0.000400855,0.00191347,-0.00203528,1.46857,0.00228017,0.0121454,1707,512,2.44886,0.695548
490,512,2.4541,-0.641479,-0.00204608,0.00262329,0.000737705,0.00273707,-0.00215985,1.41777,0.00283378,0.00999465,1714,512,2.45409,0.641506
497,512,2.45398,-0.602173,-0.00239629,0.00347068,0.00110509,0.00367193,-0.00259755,1.39066,0.00363736,0.0107563,1721,512,2.45393,0.602163
504,512,2.43958,-0.559326,-0.00239891,0.00561142,0.0010464,0.00574585,-0.00253335,1.44302,0.00489848,0.0120684,1728,512,2.43955,0.55935
511,512,2.43079,-0.512878,-0.00154129,0.0103082,0.00109531,0.0104085,-0.00164169,1.47939,0.00754602,0.0119592,1735,512,2.43075,0.512853
518,512,2.43994,-0.47467,0.000481256,0.0186032,0.00216611,0.0188585,0.000225937,1.45347,0.0124977,0.0136677,1742,512,2.43998,0.474687
525,512,2.37561,-0.375244,0.00330506,0.0248278,0.00433806,0.0256693,0.00246359,1.3792,0.0163537,0.0350791,1749,512,2.37567,0.375235
532,512,2.32715,-0.205017,0.00709287,0.0344317,0.00588919,0.0356463,0.00587821,1.3674,0.0220673,0.0483039,1756,512,2.32717,0.204994
539,512,1.95752,0.291016,0.0122741,0.0463959,0.0079461,0.0481556,0.0105144,1.35286,0.0292361,0.0489963,1763,512,1.9575,-0.29103
546,512,1.78955,0.564636,0,0,0,0,0,0,0,-1,1770,512,1.78957,-0.564646
553,512,2.26257,0.466522,0.0271093,0.0771798,0.0148381,0.0812466,0.0230424,1.30328,0.0483499,0.0464734,1777,512,2.26262,-0.466533
560,512,2.40186,0.913605,0.0365546,0.0953884,0.0201861,0.101648,0.0302948,1.27009,0.0602614,0.0439034,1784,512,2.4019,-0.913597
567,512,2.55872,1.41672,0.047417,0.11476,0.0268965,0.124184,0.0379934,1.2338,0.0734755,0.0458675,1791,512,2.55873,-1.41671
574,512,0,0,0,0,0,0,0,0,0,-1,1798,512,0,0
581,512,0,0,0,0,0,0,0,0,0,-1,1805,512,0,0
588,512,0,0,0,0,0,0,0,0,0,-1,1812,512,0,0
595,512,0,0,0,0,0,0,0,0,0,-1,1819,512,0,0
602,512,0,0,0,0,0,0,0,0,0,-1,1826,512,0,0
609,512,0,0,0,0,0,0,0,0,0,-1,1833,512,0,0
616,512,0,0,0,0,0,0,0,0,0,-1,1840,512,0,0
623,512,0,0,0,0,0,0,0,0,0,-1,1847,512,0,0
630,512,0,0,0,0,0,0,0,0,0,-1,1854,512,0,0
637,512,0,0,0,0,0,0,0,0,0,-1,1861,512,0,0
644,512,0,0,0,0,0,0,0,0,0,-1,1868,512,0,0
651,512,0,0,0,0,0,0,0,0,0,-1,1875,512,0,0
658,512,0,0,0,0,0,0,0,0,0,-1,1882,512,0,0
665,512,0,0,0,0,0,0,0,0,0,-1,1889,512,0,0
672,512,0,0,0,0,0,0,0,0,0,-1,1896,512,0,0
679,512,0,0,0,0,0,0,0,0,0,-1,1903,512,0,0
686,512,0,0,0,0,0,0,0,0,0,-1,1910,512,0,0
693,512,0,0,0,0,0,0,0,0,0,-1,1917,512,0,0
700,512,0,0,0,0,0,0,0,0,0,-1,1924,512,0,0
707,512,0,0,0,0,0,0,0,0,0,-1,1931,512,0,0
714,512,0,0,0,0,0,0,0,0,0,-1,1938,512,0,0
721,512,0,0,0,0,0,0,0,0,0,-1,1945,512,0,0
728,512,0,0,0,0,0,0,0,0,0,-1,1952,512,0,0
735,512,0,0,0,0,0,0,0,0,0,-1,1959,512,0,0
742,512,0,0,0,0,0,0,0,0,0,-1,1966,512,0,0
749,512,0,0,0,0,0,0,0,0,0,-1,1973,512,0,0
756,512,0,0,0,0,0,0,0,0,0,-1,1980,512,0,0
763,512,0,0,0,0,0,0,0,0,0,-1,1987,512,0,0
770,512,0,0,0,0,0,0,0,0,0,-1,1994,512,0,0
777,512,0,0,0,0,0,0,0,0,0,-1,2001,512,0,0
784,512,0,0,0,0,0,0,0,0,0,-1,2008,512,0,0
791,512,0,0,0,0,0,0,0,0,0,-1,2015,512,0,0
798,512,0,0,0,0,0,0,0,0,0,-1,2022,512,0,0
805,512,0,0,0,0,0,0,0,0,0,-1,2029,512,0,0
812,512,0,0,0,0,0,0,0,0,0,-1,2036,512,0,0
-700,505,0,0,0,0,0,0,0,0,0,-1,524,519,0,0
-693,505,0,0,0,0,0,0,0,0,0,-1,531,519,0,0
-686,505,0,0,0,0,0,0,0,0,0,-1,538,519,0,0
-679,505,0,0,0,0,0,0,0,0,0,-1,545,519,0,0
-672,505,0,0,0,0,0,0,0,0,0,-1,552,519,0,0
-665,505,0,0,0,0,0,0,0,0,0,-1,559,519,0,0
-658,505,0,0,0,0,0,0,0,0,0,-1,566,519,0,0
-651,505,0,0,0,0,0,0,0,0,0,-1,573,519,0,0
-644,505,0,0,0,0,0,0,0,0,0,-1,580,519,0,0
-637,505,0,0,0,0,0,0,0,0,0,-1,587,519,0,0
-630,505,0,0,0,0,0,0,0,0,0,-1,594,519,0,0
-623,505,0,0,0,0,0,0,0,0,0,-1,601,519,0,0
-616,505,0,0,0,0,0,0,0,0,0,-1,608,519,0,0
-609,505,0,0,0,0,0,0,0,0,0,-1,615,519,0,0
-602,505,0,0,0,0,0,0,0,0,0,-1,622,519,0,0
-595,505,0,0,0,0,0,0,0,0,0,-1,629,519,0,0
-588,505,0,0,0,0,0,0,0,0,0,-1,636,519,0,0
-581,505,0,0,0,0,0,0,0,0,0,-1,643,519,0,0
-574,505,0,0,0,0,0,0,0,0,0,-1,650,519,0,0
-567,505,0,0,0,0,0,0,0,0,0,-1,657,519,0,0
-560,505,0,0,0,0,0,0,0,0,0,-1,664,519,0,0
-553,505,0,0,0,0,0,0,0,0,0,-1,671,519,0,0
-546,505,0,0,0,0,0,0,0,0,0,-1,678,519,0,0
-539,505,0,0,0,0,0,0,0,0,0,-1,685,519,0,0
-532,505,0,0,0,0,0,0,0,0,0,-1,692,519,0,0
-525,505,0,0,0,0,0,0,0,0,0,-1,699,519,0,0
-518,505,0,0,0,0,0,0,0,0,0,-1,706,519,0,0
-511,505,0,0,0,0,0,0,0,0,0,-1,713,519,0,0
-504,505,0,0,0,0,0,0,0,0,0,-1,720,519,0,0
-497,505,0,0,0,0,0,0,0,0,0,-1,727,519,0,0
-490,505,0,0,0,0,0,0,0,0,0,-1,734,519,0,0
-483,505,0,0,0,0,0,0,0,0,0,-1,741,519,0,0
-476,505,0,0,0,0,0,0,0,0,0,-1,748,519,0,0
-469,505,0,0,0,0,0,0,0,0,0,-1,755,519,0,0
-462,505,0,0,0,0,0,0,0,0,0,-1,762,519,0,0
-455,505,3.4762,-0.0957031,-0.0322943,0.0171815,0.0238575,0.0268114,-0.0419242,1.18715,0.040003,0.0436765,769,519,3.47618,0.0956829
-448,505,2.7041,-0.354431,-0.0316839,0.00678322,0.0133233,0.0109471,-0.0358478,1.26789,0.0282634,0.0421681,776,519,2.70412,0.35445
-441,505,1.9024,-0.587341,-0.0311125,-0.000103132,0.00582649,0.000955492,-0.0321711,1.39107,0.0217729,0.0465411,783,519,1.90237,0.587321
-434,505,2.24414,0.212463,-0.0297709,-0.00441969,0.000957406,-0.00438359,-0.029807,1.5331,0.0185833,0.0468683,790,519,2.24416,-0.212479
-427,505,1.89917,-0.574341,-0.0274412,-0.00693793,-0.00220079,-0.00670436,-0.0276748,-1.46506,0.0166707,0.0445677,797,519,1.89915,0.574333
-420,505,1.78448,-1.02887,-0.0249952,-0.00823319,-0.00447103,-0.00711518,-0.0261132,-1.32576,0.0155881,0.0435392,804,519,1.78451,1.02889
-413,505,1.66492,-1.43616,0,0,0,0,0,0,0,-1,811,519,1.66491,1.43617
-406,505,1.37061,-0.347351,0,0,0,0,0,0,0,-1,818,519,1.37063,0.347356
-399,505,1.33606,-0.409363,-0.0181945,-0.00865446,-0.00749001,-0.00454455,-0.0223044,-1.06894,0.0136101,0.0381185,825,519,1.33607,0.40936
-392,505,1.33588,-0.463257,-0.0140621,-0.00716882,-0.00607699,-0.00362911,-0.0176018,-1.04336,0.0107314,0.0192013,832,519,1.33587,0.463234
-385,505,1.32434,-0.511841,-0.0109571,-0.00601838,-0.00490742,-0.00299405,-0.0139814,-1.01849,0.00850054,0.00924719,839,519,1.32435,0.511831
-378,505,1.3219,-0.55304,-0.00839156,-0.0044691,-0.00349792,-0.00242011,-0.0104406,-1.0409,0.0063103,0.0103553,846,519,1.32188,0.553054
-371,505,1.33392,-0.602844,-0.00643001,-0.00341017,-0.00255156,-0.00195525,-0.00788493,-1.05257,0.00474122,0.0122868,853,519,1.33393,0.602848
-364,505,1.33099,-0.649902,-0.00453327,-0.00256613,-0.00160959,-0.00166338,-0.00543601,-1.05966,0.00321627,0.0136978,860,519,1.33101,0.649932
-357,505,1.34302,-0.690552,-0.00278422,-0.00163063,-0.00103018,-0.00102676,-0.00338809,-1.0406,0.00200606,0.0121691,867,519,1.34302,0.690577
-350,505,1.34131,-0.729919,-0.00118498,-0.000988234,-0.000665862,-0.000413515,-0.00175969,-0.858735,0.00106246,0.0116142,874,519,1.34133,0.729944
-343,505,1.32068,-0.78064,0.000186317,-0.000299738,-0.000327296,0.000350948,-0.000464369,-0.466047,0.000472239,0.00889373,881,519,1.32071,0.780642
-336,505,1.31531,-0.794983,0.0015763,0.000143872,-0.000261306,0.00162248,9.76934e-05,-0.174919,0.0010506,0.0103913,888,519,1.3153,0.794965
-329,505,1.31396,-0.809265,0.00318038,7.77998e-06,-0.000509403,0.00326017,-7.2005e-05,-0.155362,0.00219784,0.0127981,895,519,1.31399,0.809246
-322,505,1.30023,-0.872253,0.00493657,-3.81378e-05,-0.000876722,0.00508656,-0.000188125,-0.169437,0.00345546,0.0127881,902,519,1.30021,0.872242
-315,505,1.32166,-0.934937,0.00683911,-0.000217064,-0.00136974,0.00709567,-0.000473629,-0.185163,0.00489597,0.0120192,909,519,1.32166,0.934925
-308,505,1.34113,-0.982544,0.00907678,0.000431472,-0.00230731,0.00965402,-0.000145773,-0.245149,0.00648515,0.0126666,916,519,1.34113,0.982562
-301,505,1.34796,-1.02625,0.0117555,0.00180837,-0.0037978,0.0130397,0.00052417,-0.326073,0.00852379,0.0157578,923,519,1.34795,1.02627
-294,505,1.32129,-1.02814,0.0150307,0.00308155,-0.00570529,0.0173172,0.00079502,-0.381173,0.0112892,0.0173968,930,519,1.32128,1.02812
-287,505,1.23999,-1.11438,0.0183733,0.00494334,-0.00808669,0.0221696,0.00114712,-0.438902,0.0144126,0.0236448,937,519,1.23996,1.11436
-280,505,1.16962,-1.13849,0.020134,0.00672624,-0.0105497,0.0259296,0.000930555,-0.502358,0.0169847,0.0360215,944,519,1.16964,1.13852
-273,505,1.45593,-0.949951,0.0206239,0.00838949,-0.0133173,0.0291618,-0.000148376,-0.5701,0.0194908,0.0420212,951,519,1.45591,0.949938
-266,505,2.06396,-1.10406,0.0204963,0.0105603,-0.0164122,0.0326759,-0.00161934,-0.638431,0.0223433,0.044134,958,519,2.06394,1.10406
-259,505,2.22473,-1.23193,0.0210392,0.0114825,-0.0166711,0.0336032,-0.00108157,-0.645827,0.0227712,0.0456565,965,519,2.22472,1.23193
-252,505,2.36365,-0.90918,0,0,0,0,0,0,0,-1,972,519,2.36365,0.909174
-245,505,0.436218,-1.96344,0,0,0,0,0,0,0,-1,979,519,0.436244,1.96345
-238,505,2.65918,-1.54755,0,0,0,0,0,0,0,-1,986,519,2.65918,1.54757
-231,505,2.48254,-1.50909,0,0,0,0,0,0,0,-1,993,519,2.48257,1.50908
-224,505,2.49371,-1.48798,0,0,0,0,0,0,0,-1,1000,519,2.49373,1.48796
-217,505,-1.73566,-3.40833,0,0,0,0,0,0,0,-1,1007,519,-1.73563,3.40833
-210,505,-0.205383,-0.837585,0,0,0,0,0,0,0,-1,1014,519,-0.205377,0.83758
-203,505,0.265442,-0.379089,0.00786864,-0.0147922,0.0164154,0.0164842,-0.0234077,0.483328,0.023147,0.0459141,1021,519,0.265463,0.3791
-196,505,0.507202,0.149109,0.00679732,-0.0218343,0.022451,0.0191083,-0.0341453,0.501576,0.0311519,0.0458338,1028,519,0.507208,-0.149089
-189,505,-0.0351563,0.496338,0.00595019,-0.0280324,0.0278784,0.0216071,-0.0436893,0.511718,0.0384108,0.0439364,1035,519,-0.0351321,-0.496353
-182,505,-0.27417,0.444458,0.00576977,-0.0343964,0.0330524,0.0243622,-0.0529887,0.512399,0.0456666,0.0418831,1042,519,-0.274176,-0.444461
-175,505,-0.370361,0.455017,0,0,0,0,0,0,0,-1,1049,519,-0.370371,-0.455039
-168,505,0,0,0,0,0,0,0,0,0,-1,1056,519,0,0
-161,505,0,0,0,0,0,0,0,0,0,-1,1063,519,0,0
-154,505,0,0,0,0,0,0,0,0,0,-1,1070,519,0,0
-147,505,0,0,0,0,0,0,0,0,0,-1,1077,519,0,0
-140,505,0,0,0,0,0,0,0,0,0,-1,1084,519,0,0
-133,505,0,0,0,0,0,0,0,0,0,-1,1091,519,0,0
-126,505,0,0,0,0,0,0,0,0,0,-1,1098,519,0,0
-119,505,0,0,0,0,0,0,0,0,0,-1,1105,519,0,0
-112,505,0,0,0,0,0,0,0,0,0,-1,1112,519,0,0
-105,505,0,0,0,0,0,0,0,0,0,-1,1119,519,0,0
-98,505,0,0,0,0,0,0,0,0,0,-1,1126,519,0,0
-91,505,0,0,0,0,0,0,0,0,0,-1,1133,519,0,0
-84,505,0,0,0,0,0,0,0,0,0,-1,1140,519,0,0
-77,505,0,0,0,0,0,0,0,0,0,-1,1147,519,0,0
-70,505,0,0,0,0,0,0,0,0,0,-1,1154,519,0,0
-63,505,0,0,0,0,0,0,0,0,0,-1,1161,519,0,0
-56,505,0,0,0,0,0,0,0,0,0,-1,1168,519,0,0
-49,505,0,0,0,0,0,0,0,0,0,-1,1175,519,0,0
-42,505,0,0,0,0,0,0,0,0,0,-1,1182,519,0,0
-35,505,0,0,0,0,0,0,0,0,0,-1,1189,519,0,0
-28,505,0,0,0,0,0,0,0,0,0,-1,1196,519,0,0
-21,505,0,0,0,0,0,0,0,0,0,-1,1203,519,0,0
-14,505,0,0,0,0,0,0,0,0,0,-1,1210,519,0,0
-7,505,0,0,0,0,0,0,0,0,0,-1,1217,519,0,0
0,505,0,0,0,0,0,0,0,0,0,-1,1224,519,0,0
7,505,0,0,0,0,0,0,0,0,0,-1,1231,519,0,0
14,505,0,0,0,0,0,0,0,0,0,-1,1238,519,0,0
21,505,0,0,0,0,0,0,0,0,0,-1,1245,519,0,0
28,505,0,0,0,0,0,0,0,0,0,-1,1252,519,0,0
35,505,0,0,0,0,0,0,0,0,0,-1,1259,519,0,0
42,505,0,0,0,0,0,0,0,0,0,-1,1266,519,0,0
49,505,0,0,0,0,0,0,0,0,0,-1,1273,519,0,0
56,505,0,0,0,0,0,0,0,0,0,-1,1280,519,0,0
63,505,0,0,0,0,0,0,0,0,0,-1,1287,519,0,0
70,505,0,0,0,0,0,0,0,0,0,-1,1294,519,0,0
77,505,0,0,0,0,0,0,0,0,0,-1,1301,519,0,0
84,505,0,0,0,0,0,0,0,0,0,-1,1308,519,0,0
91,505,0,0,0,0,0,0,0,0,0,-1,1315,519,0,0
98,505,0,0,0,0,0,0,0,0,0,-1,1322,519,0,0
105,505,0,0,0,0,0,0,0,0,0,-1,1329,519,0,0
112,505,0,0,0,0,0,0,0,0,0,-1,1336,519,0,0
119,505,0,0,0,0,0,0,0,0,0,-1,1343,519,0,0
126,505,0,0,0,0,0,0,0,0,0,-1,1350,519,0,0
133,505,0,0,0,0,0,0,0,0,0,-1,1357,519,0,0
140,505,0,0,0,0,0,0,0,0,0,-1,1364,519,0,0
147,505,0,0,0,0,0,0,0,0,0,-1,1371,519,0,0
154,505,0,0,0,0,0,0,0,0,0,-1,1378,519,0,0
161,505,0,0,0,0,0,0,0,0,0,-1,1385,519,0,0
168,505,0,0,0,0,0,0,0,0,0,-1,1392,519,0,0
175,505,0,0,0,0,0,0,0,0,0,-1,1399,519,0,0
182,505,0,0,0,0,0,0,0,0,0,-1,1406,519,0,0
189,505,0,0,0,0,0,0,0,0,0,-1,1413,519,0,0
196,505,0,0,0,0,0,0,0,0,0,-1,1420,519,0,0
203,505,0,0,0,0,0,0,0,0,0,-1,1427,519,0,0
210,505,0,0,0,0,0,0,0,0,0,-1,1434,519,0,0
217,505,0,0,0,0,0,0,0,0,0,-1,1441,519,0,0
224,505,0,0,0,0,0,0,0,0,0,-1,1448,519,0,0
231,505,0,0,0,0,0,0,0,0,0,-1,1455,519,0,0
238,505,0,0,0,0,0,0,0,0,0,-1,1462,519,0,0
245,505,0,0,0,0,0,0,0,0,0,-1,1469,519,0,0
252,505,0,0,0,0,0,0,0,0,0,-1,1476,519,0,0
259,505,0,0,0,0,0,0,0,0,0,-1,1483,519,0,0
266,505,0,0,0,0,0,0,0,0,0,-1,1490,519,0,0
273,505,0,0,0,0,0,0,0,0,0,-1,1497,519,0,0
280,505,0,0,0,0,0,0,0,0,0,-1,1504,519,0,0
287,505,2.41626,0.753845,0,0,0,0,0,0,0,-1,1511,519,2.41624,-0.75383
294,505,2.42969,1.07385,0,0,0,0,0,0,0,-1,1518,519,2.42967,-1.07385
301,505,3.37744,0.0842896,0,0,0,0,0,0,0,-1,1525,519,3.37744,-0.0843086
308,505,5.3241,-1.97681,0,0,0,0,0,0,0,-1,1532,519,5.32408,1.97683
315,505,-0.250977,0.435303,0,0,0,0,0,0,0,-1,1539,519,-0.250994,-0.435292
322,505,-0.0604248,0.00335693,0,0,0,0,0,0,0,-1,1546,519,-0.0604163,-0.00336136
329,505,0.0341797,-0.270569,0,0,0,0,0,0,0,-1,1553,519,0.0342148,0.270589
336,505,0.492188,-0.675293,0,0,0,0,0,0,0,-1,1560,519,0.492143,0.67531
343,505,1.31763,-1.26312,0,0,0,0,0,0,0,-1,1567,519,1.31762,1.26311
350,505,2.09644,-1.60016,0,0,0,0,0,0,0,-1,1574,519,2.09647,1.60017
357,505,2.7439,-1.74994,0,0,0,0,0,0,0,-1,1581,519,2.74384,1.74996
364,505,3.18091,-1.59253,0,0,0,0,0,0,0,-1,1588,519,3.18092,1.59251
371,505,2.84595,-1.9389,-0.0421895,0.00119775,-0.0103771,0.00355195,-0.0445437,-1.34771,0.0309478,0.0437283,1595,519,2.84593,1.93891
378,505,2.67151,-1.52905,-0.0361107,-0.00254315,-0.0089961,-0.000284214,-0.0383697,-1.32478,0.0254856,0.0435393,1602,519,2.67146,1.52906
385,505,2.55469,-1.23553,-0.0306647,-0.00566433,-0.00800185,-0.00332254,-0.0330065,-1.28609,0.0209847,0.0441076,1609,519,2.55468,1.23555
392,505,2.35718,-0.95636,-0.0261469,-0.00774017,-0.00721193,-0.00525106,-0.028636,-1.23846,0.0176033,0.0474859,1616,519,2.35715,0.956362
399,505,2.64722,-0.9646,-0.0220146,-0.00899175,-0.00639169,-0.0063789,-0.0246274,-1.18274,0.0147589,0.0455107,1623,519,2.64728,0.964599
406,505,2.43298,-1.09351,-0.0181646,-0.00959109,-0.00579609,-0.00666877,-0.021087,-1.1038,0.0124456,0.0385003,1630,519,2.43296,1.09351
413,505,2.48047,-1.10406,-0.0149153,-0.00914585,-0.00526766,-0.00602474,-0.0180364,-1.03591,0.0106028,0.0348809,1637,519,2.48048,1.10406
420,505,2.53369,-1.0755,-0.0117273,-0.00859991,-0.00479895,-0.00511631,-0.0152109,-0.942893,0.0089374,0.0265399,1644,519,2.53366,1.07552
427,505,2.49512,-1.03949,-0.0086776,-0.00750859,-0.00393341,-0.0041165,-0.0120697,-0.859158,0.00708483,0.0128927,1651,519,2.49507,1.0395
434,505,2.47644,-0.992737,-0.00664608,-0.00637846,-0.00369505,-0.0028148,-0.0102097,-0.803497,0.0060891,0.00939246,1658,519,2.47642,0.992713
441,505,2.4696,-0.934082,-0.00516908,-0.00462121,-0.00304694,-0.00183592,-0.00795438,-0.830231,0.00480921,0.00999283,1665,519,2.46955,0.934081
448,505,2.48718,-0.890869,-0.0034579,-0.00320191,-0.0024849,-0.00084171,-0.00581809,-0.81113,0.00363083,0.0102352,1672,519,2.48721,0.890874
455,505,2.50098,-0.8479,-0.00240223,-0.00167392,-0.00199135,-1.37049e-05,-0.00406244,-0.875832,0.00270374,0.0106458,1679,519,2.501,0.847904
462,505,2.48169,-0.812317,-0.00166863,-0.000533392,-0.00144091,0.000447674,-0.00264969,-0.973029,0.00193304,0.0107944,1686,519,2.48166,0.812327
469,505,2.47314,-0.784485,-0.00177177,-1.26962e-05,-0.000982724,0.000426604,-0.00221107,-1.15042,0.00163491,0.0107407,1693,519,2.47318,0.784463
476,505,2.47803,-0.738525,-0.00175047,0.000540105,-0.000549876,0.000665268,-0.00187564,-1.34699,0.00152146,0.0110927,1700,519,2.47799,0.738551
483,505,2.49377,-0.690613,-0.00196785,0.00112168,-9.87983e-05,0.00112484,-0.00197101,-1.53886,0.00180951,0.0122513,1707,519,2.49381,0.690625
490,505,2.49548,-0.641113,-0.00197528,0.00176424,0.000254642,0.0017815,-0.00199254,1.50312,0.00218008,0.0115575,1714,519,2.49548,0.641123
497,505,2.49109,-0.611145,-0.00213687,0.0023928,0.000613159,0.00247433,-0.0022184,1.4386,0.00271069,0.0110805,1721,519,2.49112,0.611148
504,505,2.48096,-0.564026,-0.002033,0.00414836,0.000534346,0.00419422,-0.00207885,1.4852,0.00368976,0.0120701,1728,519,2.48091,0.564042
511,505,2.47656,-0.526428,-0.0012248,0.0081827,0.000575996,0.00821783,-0.00125994,1.50987,0.00594322,0.0134504,1735,519,2.47656,0.526436
518,505,2.51672,-0.526733,0.000546167,0.0154827,0.00168732,0.0156709,0.000357929,1.4597,0.01033,0.0168351,1742,519,2.51676,0.526736
525,505,2.45056,-0.462769,0.00298792,0.0207812,0.00386486,0.0215844,0.0021847,1.36589,0.0137195,0.0237122,1749,519,2.45051,0.462781
532,505,2.46814,-0.328796,0.00622691,0.0290039,0.00551001,0.0302669,0.004964,1.34549,0.0187436,0.0398444,1756,519,2.46819,0.328806
539,505,2.5697,-0.217468,0.0106218,0.0393738,0.00775493,0.0413321,0.00866349,1.32345,0.0251689,0.0470507,1763,519,2.5697,0.217472
546,505,2.62476,-0.0649414,0.0163049,0.0517072,0.0110284,0.0548617,0.0131505,1.2922,0.0330742,0.047747,1770,519,2.62475,0.0649455
553,505,2.71216,-0.0554199,0.0232346,0.0657411,0.0154489,0.0707627,0.018213,1.25652,0.0424279,0.0487494,1777,519,2.7121,0.0553919
560,505,2.90491,-0.147461,0.0313768,0.0810907,0.021235,0.0889261,0.0235414,1.21731,0.0532023,0.0483031,1784,519,2.90493,0.147483
567,505,3.53809,-0.0460815,0.0408468,0.0971994,0.0284544,0.109067,0.0289787,1.17564,0.0652341,0.0468203,1791,519,3.53811,0.0461092
574,505,3.8075,0.079834,0,0,0,0,0,0,0,-1,1798,519,3.80746,-0.0798049
581,505,0,0,0,0,0,0,0,0,0,-1,1805,519,0,0
588,505,0,0,0,0,0,0,0,0,0,-1,1812,519,0,0
595,505,0,0,0,0,0,0,0,0,0,-1,1819,519,0,0
602,505,0,0,0,0,0,0,0,0,0,-1,1826,519,0,0
609,505,0,0,0,0,0,0,0,0,0,-1,1833,519,0,0
616,505,0,0,0,0,0,0,0,0,0,-1,1840,519,0,0
623,505,0,0,0,0,0,0,0,0,0,-1,1847,519,0,0
630,505,0,0,0,0,0,0,0,0,0,-1,1854,519,0,0
637,505,0,0,0,0,0,0,0,0,0,-1,1861,519,0,0
644,505,0,0,0,0,0,0,0,0,0,-1,1868,519,0,0
651,505,0,0,0,0,0,0,0,0,0,-1,1875,519,0,0
658,505,0,0,0,0,0,0,0,0,0,-1,1882,519,0,0
665,505,0,0,0,0,0,0,0,0,0,-1,1889,519,0,0
672,505,0,0,0,0,0,0,0,0,0,-1,1896,519,0,0
679,505,0,0,0,0,0,0,0,0,0,-1,1903,519,0,0
686,505,0,0,0,0,0,0,0,0,0,-1,1910,519,0,0
693,505,0,0,0,0,0,0,0,0,0,-1,1917,519,0,0
700,505,0,0,0,0,0,0,0,0,0,-1,1924,519,0,0
707,505,0,0,0,0,0,0,0,0,0,-1,1931,519,0,0
714,505,0,0,0,0,0,0,0,0,0,-1,1938,519,0,0
721,505,0,0,0,0,0,0,0,0,0,-1,1945,519,0,0
728,505,0,0,0,0,0,0,0,0,0,-1,1952,519,0,0
735,505,0,0,0,0,0,0,0,0,0,-1,1959,519,0,0
742,505,0,0,0,0,0,0,0,0,0,-1,1966,519,0,0
749,505,0,0,0,0,0,0,0,0,0,-1,1973,519,0,0
756,505,0,0,0,0,0,0,0,0,0,-1,1980,519,0,0
763,505,0,0,0,0,0,0,0,0,0,-1,1987,519,0,0
770,505,0,0,0,0,0,0,0,0,0,-1,1994,519,0,0
777,505,0,0,0,0,0,0,0,0,0,-1,2001,519,0,0
784,505,0,0,0,0,0,0,0,0,0,-1,2008,519,0,0
791,505,0,0,0,0,0,0,0,0,0,-1,2015,519,0,0
798,505,0,0,0,0,0,0,0,0,0,-1,2022,519,0,0
805,505,0,0,0,0,0,0,0,0,0,-1,2029,519,0,0
812,505,0,0,0,0,0,0,0,0,0,-1,2036,519,0,0
-700,498,0,0,0,0,0,0,0,0,0,-1,524,526,0,0
-693,498,0,0,0,0,0,0,0,0,0,-1,531,526,0,0
-686,498,0,0,0,0,0,0,0,0,0,-1,538,526,0,0
-679,498,0,0,0,0,0,0,0,0,0,-1,545,526,0,0
-672,498,0,0,0,0,0,0,0,0,0,-1,552,526,0,0
-665,498,0,0,0,0,0,0,0,0,0,-1,559,526,0,0
-658,498,0,0,0,0,0,0,0,0,0,-1,566,526,0,0
-651,498,0,0,0,0,0,0,0,0,0,-1,573,526,0,0
-644,498,0,0,0,0,0,0,0,0,0,-1,580,526,0,0
-637,498,0,0,0,0,0,0,0,0,0,-1,587,526,0,0
-630,498,0,0,0,0,0,0,0,0,0,-1,594,526,0,0
-623,498,0,0,0,0,0,0,0,0,0,-1,601,526,0,0
-616,498,0,0,0,0,0,0,0,0,0,-1,608,526,0,0
-609,498,0,0,0,0,0,0,0,0,0,-1,615,526,0,0
-602,498,0,0,0,0,0,0,0,0,0,-1,622,526,0,0
-595,498,0,0,0,0,0,0,0,0,0,-1,629,526,0,0
-588,498,0,0,0,0,0,0,0,0,0,-1,636,526,0,0
-581,498,0,0,0,0,0,0,0,0,0,-1,643,526,0,0
-574,498,0,0,0,0,0,0,0,0,0,-1,650,526,0,0
-567,498,0,0,0,0,0,0,0,0,0,-1,657,526,0,0
-560,498,0,0,0,0,0,0,0,0,0,-1,664,526,0,0
-553,498,0,0,0,0,0,0,0,0,0,-1,671,526,0,0
-546,498,0,0,0,0,0,0,0,0,0,-1,678,526,0,0
-539,498,0,0,0,0,0,0,0,0,0,-1,685,526,0,0
-532,498,0,0,0,0,0,0,0,0,0,-1,692,526,0,0
-525,498,0,0,0,0,0,0,0,0,0,-1,699,526,0,0
-518,498,0,0,0,0,0,0,0,0,0,-1,706,526,0,0
-511,498,0,0,0,0,0,0,0,0,0,-1,713,526,0,0
-504,498,0,0,0,0,0,0,0,0,0,-1,720,526,0,0
-497,498,0,0,0,0,0,0,0,0,0,-1,727,526,0,0
-490,498,0,0,0,0,0,0,0,0,0,-1,734,526,0,0
-483,498,0,0,0,0,0,0,0,0,0,-1,741,526,0,0
-476,498,0,0,0,0,0,0,0,0,0,-1,748,526,0,0
-469,498,0,0,0,0,0,0,0,0,0,-1,755,526,0,0
-462,498,4.02252,0.0306396,-0.019577,0.0254907,0.0363047,0.0456863,-0.0397726,1.06314,0.0493791,0.039738,762,526,4.02254,-0.0306584
-455,498,3.48395,0.0863647,-0.0212874,0.0145674,0.026606,0.0287223,-0.0354422,1.08186,0.0371131,0.0401672,769,526,3.48392,-0.0863879
-448,498,2.78839,0.0917358,-0.0223388,0.00588499,0.0175898,0.0143241,-0.0307779,1.12346,0.026611,0.0429026,776,526,2.78839,-0.0917549
-441,498,2.6557,0.0464478,0,0,0,0,0,0,0,-1,783,526,2.65571,-0.04647
-434,498,2.18103,0.285034,-0.0227361,-0.00387852,0.00546528,-0.00240908,-0.0242056,1.30814,0.015397,0.0448328,790,526,2.18105,-0.285051
-427,498,1.82361,-0.176086,-0.0214397,-0.00602271,0.00187931,-0.00579693,-0.0216655,1.45123,0.0129513,0.0450563,797,526,1.82359,0.176105
-420,498,1.61646,-0.562744,-0.0198183,-0.0070714,-0.000978319,-0.00699675,-0.0198929,-1.49464,0.0116523,0.043737,804,526,1.61648,0.562755
-413,498,1.35321,-0.874329,-0.0185842,-0.00874547,-0.00401677,-0.00731389,-0.0200158,-1.22843,0.0116949,0.0461609,811,526,1.35319,0.874342
-406,498,1.13385,-0.978333,0,0,0,0,0,0,0,-1,818,526,1.13388,0.97835
-399,498,1.28351,-0.408752,-0.0149011,-0.00713005,-0.00560855,-0.00419259,-0.0178386,-1.08833,0.0107704,0.0241177,825,526,1.28349,0.408763
-392,498,1.28961,-0.463379,-0.0113476,-0.00577702,-0.00465536,-0.00313736,-0.0139873,-1.05498,0.00847492,0.0115212,832,526,1.28962,0.463408
-385,498,1.28119,-0.511658,-0.00870258,-0.00477685,-0.00387117,-0.00239934,-0.0110801,-1.02003,0.00673103,0.00857741,839,526,1.28117,0.51166
-378,498,1.26929,-0.545288,-0.00656542,-0.00347704,-0.00279301,-0.00182977,-0.00821269,-1.03792,0.00497858,0.00986271,846,526,1.2693,0.545272
-371,498,1.29156,-0.585022,-0.00503857,-0.00259787,-0.00203705,-0.0014436,-0.00619284,-1.05527,0.00374138,0.0144683,853,526,1.29155,0.584995
-364,498,1.28711,-0.633423,-0.0033781,-0.00188154,-0.00132359,-0.00110936,-0.00415029,-1.04267,0.00248117,0.0153061,860,526,1.28713,0.633396
-357,498,1.28003,-0.670959,-0.00167521,-0.00102951,-0.000973669,-0.000326561,-0.00237816,-0.945485,0.00148857,0.0113622,867,526,1.28002,0.670954
-350,498,1.2807,-0.712402,-0.000104145,-0.000489232,-0.000761138,0.000488426,-0.0010818,-0.661513,0.000927897,0.0111088,874,526,1.28068,0.712423
-343,498,1.28693,-0.763,0.00145629,6.80792e-05,-0.000539888,0.00164154,-0.000117168,-0.330534,0.00113543,0.0106103,881,526,1.28693,0.762971
-336,498,1.29999,-0.807129,0.0032274,0.000504025,-0.000576616,0.00334446,0.000386971,-0.200281,0.00211249,0.0132808,888,526,1.29996,0.807132
-329,498,1.29431,-0.838257,0.00548168,0.000359117,-0.00105093,0.0056889,0.000151893,-0.194684,0.003743,0.0179343,895,526,1.29433,0.838244
-322,498,1.26355,-0.885315,0.00807921,0.000417433,-0.00169174,0.00843612,6.05192e-05,-0.207926,0.00560402,0.0167771,902,526,1.26358,0.885308
-315,498,1.27533,-0.93811,0.0109362,0.000376736,-0.00251601,0.011505,-0.000192112,-0.222353,0.00773484,0.0145823,909,526,1.27532,0.938137
-308,498,1.28119,-0.977966,0.0141133,0.00136139,-0.00384687,0.0151839,0.000290789,-0.271436,0.0100271,0.0121446,916,526,1.2812,0.97794
-301,498,1.2912,-1.03253,0.0177545,0.00326628,-0.00583289,0.0198109,0.00120987,-0.338949,0.012823,0.0157204,923,526,1.2912,1.03256
-294,498,1.29358,-1.01611,0.0220881,0.00508695,-0.00828562,0.0254581,0.00171692,-0.386297,0.0164297,0.0290236,930,526,1.29361,1.0161
-287,498,0.975342,-1.19244,0.0263979,0.00769027,-0.0112592,0.0316819,0.00240634,-0.438786,0.0203666,0.0400215,937,526,0.97535,1.19244
-280,498,0.981445,-1.1203,0.0279293,0.00992886,-0.0140373,0.0356039,0.00225427,-0.500329,0.0230213,0.0476207,944,526,0.981425,1.12032
-273,498,1.92981,-1.13544,0.0275031,0.0117848,-0.0169146,0.0382952,0.000992719,-0.567919,0.0252057,0.0476222,951,526,1.9298,1.13546
-266,498,2.2951,-1.15686,0,0,0,0,0,0,0,-1,958,526,2.29508,1.15684
-259,498,2.11896,-1.43262,0.0259051,0.0150522,-0.019284,0.0405117,0.000445729,-0.648247,0.0268604,0.0435729,965,526,2.11898,1.43261
-252,498,2.23822,-1.48016,0.0259196,0.0133655,-0.0148394,0.0357549,0.0035302,-0.58531,0.0227514,0.0440403,972,526,2.23825,1.48016
-245,498,2.61987,-1.48846,0,0,0,0,0,0,0,-1,979,526,2.61985,1.48849
-238,498,2.63647,-1.54004,0,0,0,0,0,0,0,-1,986,526,2.63645,1.54006
-231,498,2.50244,-1.58643,0,0,0,0,0,0,0,-1,993,526,2.50245,1.58643
-224,498,2.36847,-1.63281,0,0,0,0,0,0,0,-1,1000,526,2.36846,1.6328
-217,498,-1.72308,-2.4505,0,0,0,0,0,0,0,-1,1007,526,-1.72305,2.4505
-210,498,-0.710571,-1.2851,0.0102964,-0.00785046,0.0184428,0.0217769,-0.019331,0.556795,0.0237476,0.0452421,1014,526,-0.710566,1.28509
-203,498,0.114197,-0.151611,0.00957372,-0.0153373,0.0255414,0.0255348,-0.0312984,0.558535,0.0328688,0.0423127,1021,526,0.114186,0.151625
-196,498,0.565552,0.473328,0.0084262,-0.0225017,0.032695,0.0291299,-0.0432054,0.564501,0.0420255,0.0475244,1028,526,0.565549,-0.473341
-189,498,-0.0999756,0.620117,0.00712077,-0.0278794,0.0386599,0.032057,-0.0528156,0.572863,0.0494874,0.0442624,1035,526,-0.0999655,-0.620115
-182,498,0,0,0,0,0,0,0,0,0,-1,1042,526,0,0
-175,498,0,0,0,0,0,0,0,0,0,-1,1049,526,0,0
-168,498,0,0,0,0,0,0,0,0,0,-1,1056,526,0,0
-161,498,0,0,0,0,0,0,0,0,0,-1,1063,526,0,0
-154,498,0,0,0,0,0,0,0,0,0,-1,1070,526,0,0
-147,498,0,0,0,0,0,0,0,0,0,-1,1077,526,0,0
-140,498,0,0,0,0,0,0,0,0,0,-1,1084,526,0,0
-133,498,0,0,0,0,0,0,0,0,0,-1,1091,526,0,0
-126,498,0,0,0,0,0,0,0,0,0,-1,1098,526,0,0
-119,498,0,0,0,0,0,0,0,0,0,-1,1105,526,0,0
-112,498,0,0,0,0,0,0,0,0,0,-1,1112,526,0,0
-105,498,0,0,0,0,0,0,0,0,0,-1,1119,526,0,0
-98,498,0,0,0,0,0,0,0,0,0,-1,1126,526,0,0
-91,498,0,0,0,0,0,0,0,0,0,-1,1133,526,0,0
-84,498,0,0,0,0,0,0,0,0,0,-1,1140,526,0,0
-77,498,0,0,0,0,0,0,0,0,0,-1,1147,526,0,0
-70,498,0,0,0,0,0,0,0,0,0,-1,1154,526,0,0
-63,498,0,0,0,0,0,0,0,0,0,-1,1161,526,0,0
-56,498,0,0,0,0,0,0,0,0,0,-1,1168,526,0,0
-49,498,0,0,0,0,0,0,0,0,0,-1,1175,526,0,0
-42,498,0,0,0,0,0,0,0,0,0,-1,1182,526,0,0
-35,498,0,0,0,0,0,0,0,0,0,-1,1189,526,0,0
-28,498,0,0,0,0,0,0,0,0,0,-1,1196,526,0,0
-21,498,0,0,0,0,0,0,0,0,0,-1,1203,526,0,0
-14,498,0,0,0,0,0,0,0,0,0,-1,1210,526,0,0
-7,498,0,0,0,0,0,0,0,0,0,-1,1217,526,0,0
0,498,0,0,0,0,0,0,0,0,0,-1,1224,526,0,0
7,498,0,0,0,0,0,0,0,0,0,-1,1231,526,0,0
14,498,0,0,0,0,0,0,0,0,0,-1,1238,526,0,0
21,498,0,0,0,0,0,0,0,0,0,-1,1245,526,0,0
28,498,0,0,0,0,0,0,0,0,0,-1,1252,526,0,0
35,498,0,0,0,0,0,0,0,0,0,-1,1259,526,0,0
42,498,0,0,0,0,0,0,0,0,0,-1,1266,526,0,0
49,498,0,0,0,0,0,0,0,0,0,-1,1273,526,0,0
56,498,0,0,0,0,0,0,0,0,0,-1,1280,526,0,0
63,498,0,0,0,0,0,0,0,0,0,-1,1287,526,0,0
70,498,0,0,0,0,0,0,0,0,0,-1,1294,526,0,0
77,498,0,0,0,0,0,0,0,0,0,-1,1301,526,0,0
84,498,0,0,0,0,0,0,0,0,0,-1,1308,526,0,0
91,498,0,0,0,0,0,0,0,0,0,-1,1315,526,0,0
98,498,0,0,0,0,0,0,0,0,0,-1,1322,526,0,0
105,498,0,0,0,0,0,0,0,0,0,-1,1329,526,0,0
112,498,0,0,0,0,0,0,0,0,0,-1,1336,526,0,0
119,498,0,0,0,0,0,0,0,0,0,-1,1343,526,0,0
126,498,0,0,0,0,0,0,0,0,0,-1,1350,526,0,0
133,498,0,0,0,0,0,0,0,0,0,-1,1357,526,0,0
140,498,0,0,0,0,0,0,0,0,0,-1,1364,526,0,0
147,498,0,0,0,0,0,0,0,0,0,-1,1371,526,0,0
154,498,0,0,0,0,0,0,0,0,0,-1,1378,526,0,0
161,498,0,0,0,0,0,0,0,0,0,-1,1385,526,0,0
168,498,0,0,0,0,0,0,0,0,0,-1,1392,526,0,0
175,498,0,0,0,0,0,0,0,0,0,-1,1399,526,0,0
182,498,0,0,0,0,0,0,0,0,0,-1,1406,526,0,0
189,498,0,0,0,0,0,0,0,0,0,-1,1413,526,0,0
196,498,0,0,0,0,0,0,0,0,0,-1,1420,526,0,0
203,498,0,0,0,0,0,0,0,0,0,-1,1427,526,0,0
210,498,0,0,0,0,0,0,0,0,0,-1,1434,526,0,0
217,498,0,0,0,0,0,0,0,0,0,-1,1441,526,0,0
224,498,0,0,0,0,0,0,0,0,0,-1,1448,526,0,0
231,498,0,0,0,0,0,0,0,0,0,-1,1455,526,0,0
238,498,0,0,0,0,0,0,0,0,0,-1,1462,526,0,0
245,498,0,0,0,0,0,0,0,0,0,-1,1469,526,0,0
252,498,0,0,0,0,0,0,0,0,0,-1,1476,526,0,0
259,498,0,0,0,0,0,0,0,0,0,-1,1483,526,0,0
266,498,0,0,0,0,0,0,0,0,0,-1,1490,526,0,0
273,498,0,0,0,0,0,0,0,0,0,-1,1497,526,0,0
280,498,0,0,0,0,0,0,0,0,0,-1,1504,526,0,0
287,498,0,0,0,0,0,0,0,0,0,-1,1511,526,0,0
294,498,0,0,0,0,0,0,0,0,0,-1,1518,526,0,0
301,498,0,0,0,0,0,0,0,0,0,-1,1525,526,0,0
308,498,5.75989,-2.33276,0,0,0,0,0,0,0,-1,1532,526,5.75992,2.33276
315,498,6.16736,-3.36761,0,0,0,0,0,0,0,-1,1539,526,6.16731,3.36759
322,498,-0.768188,-0.295227,0,0,0,0,0,0,0,-1,1546,526,-0.76817,0.2952
329,498,-0.422974,-0.959106,0,0,0,0,0,0,0,-1,1553,526,-0.422953,0.959091
336,498,-0.317261,-1.10864,0,0,0,0,0,0,0,-1,1560,526,-0.317296,1.10863
343,498,0.660645,-1.17609,0,0,0,0,0,0,0,-1,1567,526,0.660682,1.17611
350,498,1.62146,-1.4198,0,0,0,0,0,0,0,-1,1574,526,1.62152,1.41979
357,498,2.42053,-1.92523,0,0,0,0,0,0,0,-1,1581,526,2.42048,1.92522
364,498,4.75195,-2.32983,0,0,0,0,0,0,0,-1,1588,526,4.75196,2.32982
371,498,3.92285,-1.32031,-0.0541529,0.00217888,-0.00862113,0.00346874,-0.0554428,-1.42228,0.0381707,0.0475818,1595,526,3.92288,1.32031
378,498,3.02319,-1.77661,-0.0468694,-0.00297694,-0.0075591,-0.0017116,-0.0481348,-1.40494,0.0315348,0.0474356,1602,526,3.02319,1.7766
385,498,4.97241,-0.441895,-0.0401831,-0.00722372,-0.00684084,-0.00586027,-0.0415466,-1.37407,0.0259657,0.0460779,1609,526,4.97239,0.441869
392,498,4.37134,-0.319763,-0.034361,-0.0100562,-0.00640425,-0.00847195,-0.0359452,-1.32829,0.021698,0.0470145,1616,526,4.37132,0.31975
399,498,3.79858,-0.195618,0,0,0,0,0,0,0,-1,1623,526,3.79854,0.19563
406,498,2.68091,-1.21893,0,0,0,0,0,0,0,-1,1630,526,2.68087,1.21892
413,498,2.66418,-1.12061,-0.019439,-0.0121446,-0.00553493,-0.00916327,-0.0224204,-1.07672,0.0130161,0.0468044,1637,526,2.66418,1.12063
420,498,2.60767,-1.05652,-0.0151276,-0.0115423,-0.00534393,-0.00769836,-0.0189715,-0.947225,0.0110178,0.0444286,1644,526,2.60763,1.05652
427,498,2.51074,-1.03387,-0.0110136,-0.0102833,-0.00465215,-0.00598201,-0.0153149,-0.824566,0.00891235,0.0306977,1651,526,2.51079,1.03386
434,498,2.52209,-0.974976,-0.00812734,-0.00882421,-0.00463304,-0.00382966,-0.0131219,-0.747866,0.00779168,0.0145304,1658,526,2.52209,0.974973
441,498,2.50452,-0.926025,-0.00604533,-0.0066424,-0.00406378,-0.00226913,-0.0104186,-0.748733,0.00632649,0.00839466,1665,526,2.50451,0.925999
448,498,2.53662,-0.887085,-0.00372595,-0.00485723,-0.00351524,-0.000731134,-0.00785205,-0.705626,0.00500881,0.00939283,1672,526,2.53662,0.887115
455,498,2.53271,-0.840271,-0.00227409,-0.0028415,-0.00296127,0.00041704,-0.00553263,-0.737641,0.003835,0.0129256,1679,526,2.53275,0.840286
462,498,2.5177,-0.814636,-0.00133128,-0.00132508,-0.00230221,0.000974031,-0.0036304,-0.786072,0.00280195,0.015078,1686,526,2.51766,0.814616
469,498,2.51233,-0.790833,-0.00127238,-0.000660114,-0.00172461,0.000785329,-0.00271782,-0.873237,0.00212265,0.0136133,1693,526,2.51228,0.790837
476,498,2.52905,-0.732788,-0.0011448,4.2082e-05,-0.00119317,0.000781238,-0.00188396,-1.01617,0.00158204,0.0107127,1700,526,2.529,0.732791
483,498,2.53333,-0.664368,-0.00124599,0.00074798,-0.000655977,0.000944429,-0.00144244,-1.27982,0.00138802,0.00931453,1707,526,2.53337,0.66435
490,498,2.52637,-0.649048,-0.00133353,0.00136369,-0.000235788,0.00138414,-0.00135399,-1.48425,0.00158089,0.0108631,1714,526,2.52642,0.649019
497,498,2.54285,-0.625061,-0.00145452,0.00185822,0.000173829,0.00186732,-0.00146361,1.51851,0.00192782,0.0115458,1721,526,2.5429,0.625088
504,498,2.52417,-0.57196,-0.00137552,0.0032613,0.000132107,0.00326506,-0.00137928,1.54234,0.00275411,0.0131836,1728,526,2.52419,0.571947
511,498,2.51904,-0.516357,-0.00072067,0.00659791,0.00021166,0.00660403,-0.000726786,1.54191,0.00466386,0.0140218,1735,526,2.51907,0.516364
518,498,2.55396,-0.494751,0.000739858,0.0127781,0.00135569,0.0129289,0.000589075,1.46003,0.00842976,0.014639,1742,526,2.5539,0.494772
525,498,2.53711,-0.455872,0.00276142,0.0170998,0.00348787,0.0179032,0.00195799,1.3444,0.0113393,0.0169392,1749,526,2.53711,0.455861
532,498,2.55042,-0.44812,0.00544296,0.0238542,0.00515314,0.0251984,0.00409877,1.31564,0.015613,0.0239529,1756,526,2.5504,0.448123
539,498,2.71436,-0.497925,0.00906813,0.0324766,0.00740093,0.0346202,0.00692452,1.28887,0.0211532,0.0342255,1763,526,2.71431,0.497918
546,498,2.77649,-0.454529,0.0137146,0.0425604,0.0106694,0.0460778,0.0101972,1.25234,0.0279466,0.0451225,1770,526,2.77655,0.454516
553,498,3.02502,-0.661194,0,0,0,0,0,0,0,-1,1777,526,3.02505,0.661218
560,498,2.84741,-1.2821,0.0263399,0.0667127,0.020576,0.075351,0.0177016,1.17332,0.0454962,0.0487396,1784,526,2.84747,1.28212
567,498,3.08459,-0.788391,0.0343657,0.079879,0.0273464,0.0926989,0.0215458,1.13242,0.056016,0.0465941,1791,526,3.0846,0.788384
574,498,3.5144,-0.18103,0.043561,0.0926286,0.0354019,0.111167,0.0250228,1.08841,0.0673383,0.0465739,1798,526,3.51444,0.181028
581,498,3.96143,0.375671,0,0,0,0,0,0,0,-1,1805,526,3.96142,-0.375645
588,498,0,0,0,0,0,0,0,0,0,-1,1812,526,0,0
595,498,0,0,0,0,0,0,0,0,0,-1,1819,526,0,0
602,498,0,0,0,0,0,0,0,0,0,-1,1826,526,0,0
609,498,0,0,0,0,0,0,0,0,0,-1,1833,526,0,0
616,498,0,0,0,0,0,0,0,0,0,-1,1840,526,0,0
623,498,0,0,0,0,0,0,0,0,0,-1,1847,526,0,0
630,498,0,0,0,0,0,0,0,0,0,-1,1854,526,0,0
637,498,0,0,0,0,0,0,0,0,0,-1,1861,526,0,0
644,498,0,0,0,0,0,0,0,0,0,-1,1868,526,0,0
651,498,0,0,0,0,0,0,0,0,0,-1,1875,526,0,0
658,498,0,0,0,0,0,0,0,0,0,-1,1882,526,0,0
665,498,0,0,0,0,0,0,0,0,0,-1,1889,526,0,0
672,498,0,0,0,0,0,0,0,0,0,-1,1896,526,0,0
679,498,0,0,0,0,0,0,0,0,0,-1,1903,526,0,0
686,498,0,0,0,0,0,0,0,0,0,-1,1910,526,0,0
693,498,0,0,0,0,0,0,0,0,0,-1,1917,526,0,0
700,498,0,0,0,0,0,0,0,0,0,-1,1924,526,0,0
707,498,0,0,0,0,0,0,0,0,0,-1,1931,526,0,0
714,498,0,0,0,0,0,0,0,0,0,-1,1938,526,0,0
721,498,0,0,0,0,0,0,0,0,0,-1,1945,526,0,0
728,498,0,0,0,0,0,0,0,0,0,-1,1952,526,0,0
735,498,0,0,0,0,0,0,0,0,0,-1,1959,526,0,0
742,498,0,0,0,0,0,0,0,0,0,-1,1966,526,0,0
749,498,0,0,0,0,0,0,0,0,0,-1,1973,526,0,0
756,498,0,0,0,0,0,0,0,0,0,-1,1980,526,0,0
763,498,0,0,0,0,0,0,0,0,0,-1,1987,526,0,0
770,498,0,0,0,0,0,0,0,0,0,-1,1994,526,0,0
777,498,0,0,0,0,0,0,0,0,0,-1,2001,526,0,0
784,498,0,0,0,0,0,0,0,0,0,-1,2008,526,0,0
791,498,0,0,0,0,0,0,0,0,0,-1,2015,526,0,0
798,498,0,0,0,0,0,0,0,0,0,-1,2022,526,0,0
805,498,0,0,0,0,0,0,0,0,0,-1,2029,526,0,0
812,498,0,0,0,0,0,0,0,0,0,-1,2036,526,0,0
-700,491,0,0,0,0,0,0,0,0,0,-1,524,533,0,0
-693,491,0,0,0,0,0,0,0,0,0,-1,531,533,0,0
-686,491,0,0,0,0,0,0,0,0,0,-1,538,533,0,0
-679,491,0,0,0,0,0,0,0,0,0,-1,545,533,0,0
-672,491,0,0,0,0,0,0,0,0,0,-1,552,533,0,0
-665,491,0,0,0,0,0,0,0,0,0,-1,559,533,0,0
-658,491,0,0,0,0,0,0,0,0,0,-1,566,533,0,0
-651,491,0,0,0,0,0,0,0,0,0,-1,573,533,0,0
-644,491,0,0,0,0,0,0,0,0,0,-1,580,533,0,0
-637,491,0,0,0,0,0,0,0,0,0,-1,587,533,0,0
-630,491,0,0,0,0,0,0,0,0,0,-1,594,533,0,0
-623,491,0,0,0,0,0,0,0,0,0,-1,601,533,0,0
-616,491,0,0,0,0,0,0,0,0,0,-1,608,533,0,0
-609,491,0,0,0,0,0,0,0,0,0,-1,615,533,0,0
-602,491,0,0,0,0,0,0,0,0,0,-1,622,533,0,0
-595,491,0,0,0,0,0,0,0,0,0,-1,629,533,0,0
-588,491,0,0,0,0,0,0,0,0,0,-1,636,533,0,0
-581,491,0,0,0,0,0,0,0,0,0,-1,643,533,0,0
-574,491,0,0,0,0,0,0,0,0,0,-1,650,533,0,0
-567,491,0,0,0,0,0,0,0,0,0,-1,657,533,0,0
-560,491,0,0,0,0,0,0,0,0,0,-1,664,533,0,0
-553,491,0,0,0,0,0,0,0,0,0,-1,671,533,0,0
-546,491,0,0,0,0,0,0,0,0,0,-1,678,533,0,0
-539,491,0,0,0,0,0,0,0,0,0,-1,685,533,0,0
-532,491,0,0,0,0,0,0,0,0,0,-1,692,533,0,0
-525,491,0,0,0,0,0,0,0,0,0,-1,699,533,0,0
-518,491,0,0,0,0,0,0,0,0,0,-1,706,533,0,0
-511,491,0,0,0,0,0,0,0,0,0,-1,713,533,0,0
-504,491,0,0,0,0,0,0,0,0,0,-1,720,533,0,0
-497,491,0,0,0,0,0,0,0,0,0,-1,727,533,0,0
-490,491,0,0,0,0,0,0,0,0,0,-1,734,533,0,0
-483,491,0,0,0,0,0,0,0,0,0,-1,741,533,0,0
-476,491,0,0,0,0,0,0,0,0,0,-1,748,533,0,0
-469,491,3.91577,-0.334351,-0.00722802,0.0310857,0.0387631,0.0551673,-0.0313096,1.0149,0.0505569,0.0460663,755,533,3.91576,0.334361
-462,491,3.69244,0.129761,-0.00886109,0.0205314,0.0328956,0.0418643,-0.030194,0.995474,0.0417843,0.0423638,762,533,3.69247,-0.129784
-455,491,3.29834,0.261169,-0.0116016,0.0119036,0.0257736,0.0284777,-0.0281757,0.999311,0.032709,0.0416471,769,533,3.29836,-0.261149
-448,491,2.76233,0.276245,-0.0137656,0.00502153,0.0186466,0.0165071,-0.0252511,1.01873,0.0242846,0.0434733,776,533,2.76233,-0.276261
-441,491,2.41327,-0.0116577,-0.0151915,0.000114413,0.012462,0.0070857,-0.0221628,1.06076,0.0176186,0.0435599,783,533,2.41327,0.0116702
-434,491,2.11719,-0.0820313,-0.015682,-0.0030643,0.00797472,0.000795318,-0.0195416,1.12005,0.0133008,0.0447811,790,533,2.11721,0.0820022
-427,491,1.14832,-0.0436401,-0.0151719,-0.00483201,0.0044738,-0.00316506,-0.0168389,1.21413,0.0103338,0.0474042,797,533,1.14834,0.0436532
-420,491,1.35437,-0.237366,-0.0142295,-0.00571173,0.00146626,-0.0054664,-0.0144748,1.40501,0.00844004,0.0411988,804,533,1.35434,0.237384
-413,491,1.21283,-0.370789,-0.0135299,-0.00714979,-0.00169343,-0.00672817,-0.0139515,-1.32679,0.00805658,0.034558,811,533,1.21284,0.37081
-406,491,1.26288,-0.386841,-0.0129204,-0.00704599,-0.00357762,-0.00535431,-0.0146121,-1.1291,0.00853603,0.0198611,818,533,1.26288,0.386855
-399,491,1.24066,-0.43219,-0.0110596,-0.00561564,-0.00393426,-0.00355353,-0.0131217,-1.08802,0.00783664,0.0112012,825,533,1.24065,0.43221
-392,491,1.23889,-0.470642,-0.00814756,-0.0044462,-0.00327572,-0.00253452,-0.0100592,-1.04253,0.00604122,0.00936828,832,533,1.23889,0.470663
-385,491,1.24213,-0.508423,-0.00604467,-0.00360809,-0.00273206,-0.001835,-0.00781777,-0.995128,0.0047206,0.0092466,839,533,1.24215,0.508413
-378,491,1.24152,-0.545837,-0.00444459,-0.00255106,-0.0018698,-0.00140199,-0.00559366,-1.01975,0.00336071,0.013046,846,533,1.24154,0.545842
-371,491,1.24341,-0.585083,-0.00342364,-0.00185397,-0.00122508,-0.00118388,-0.00409372,-1.07028,0.00243253,0.0136806,853,533,1.24338,0.585057
-364,491,1.24426,-0.628479,-0.00209741,-0.0013017,-0.000664763,-0.000924832,-0.00247428,-1.05505,0.00144362,0.0132705,860,533,1.24424,0.628452
-357,491,1.2356,-0.671509,-0.000589732,-0.000520355,-0.00048008,-7.37115e-05,-0.00103638,-0.821464,0.000667704,0.0118835,867,533,1.2356,0.671487
-350,491,1.23126,-0.709534,0.000848138,-4.98078e-05,-0.000405306,0.00100402,-0.00020569,-0.367164,0.000747405,0.0141656,874,533,1.23129,0.709537
-343,491,1.2486,-0.753357,0.00252322,0.000395588,-0.000307245,0.0025667,0.000352108,-0.140582,0.00160668,0.0202854,881,533,1.24863,0.753379
-336,491,1.26459,-0.811157,0.00461589,0.000838828,-0.000467236,0.00467283,0.000781888,-0.121268,0.00289006,0.0215171,888,533,1.26458,0.811138
-329,491,1.24823,-0.853577,0.00749974,0.000719407,-0.00120871,0.00770877,0.000510379,-0.171242,0.00497778,0.023669,895,533,1.2482,0.853561
-322,491,1.22504,-0.874939,0.0109533,0.000915792,-0.00217332,0.0114037,0.000465433,-0.20433,0.00745214,0.0199124,902,533,1.22507,0.874944
-315,491,1.22778,-0.909119,0.0148407,0.00105663,-0.00339451,0.0156313,0.000266037,-0.228825,0.0103333,0.0125738,909,533,1.22776,0.909136
-308,491,1.23254,-0.960632,0.0190798,0.0024068,-0.00518745,0.020562,0.000924596,-0.278313,0.0134104,0.0199257,916,533,1.23252,0.960602
-301,491,1.13458,-0.943298,0.0238266,0.00493204,-0.00776369,0.0266074,0.00215124,-0.343944,0.0170664,0.0351375,923,533,1.13456,0.943277
-294,491,1.3407,-0.788574,0.0293891,0.0074607,-0.0108923,0.0338799,0.00296992,-0.391055,0.0216646,0.0383392,930,533,1.34071,0.788601
-287,491,1.7168,-0.456543,0.0348842,0.0110192,-0.0146385,0.0418374,0.00406597,-0.443446,0.0266399,0.0406139,937,533,1.71679,0.456516
-280,491,1.96063,-0.465759,0.0360162,0.0138062,-0.0177436,0.0458433,0.00397902,-0.505789,0.029326,0.0457317,944,533,1.96066,0.465739
-273,491,2.08948,-1.1524,0.0342975,0.0158046,-0.0206178,0.0476473,0.00245477,-0.574608,0.0309791,0.0473336,951,533,2.0895,1.15238
-266,491,2.46106,-1.64099,0,0,0,0,0,0,0,-1,958,533,2.46103,1.64096
-259,491,2.49127,-2.29547,0.0303742,0.0194618,-0.0216385,0.0472337,0.00260223,-0.661896,0.0306586,0.0458597,965,533,2.49125,2.29546
-252,491,2.70032,-2.44647,0.0293853,0.0162755,-0.0144424,0.0386907,0.00697011,-0.572366,0.0238129,0.0436202,972,533,2.70033,2.44649
-245,491,3.01367,-3.01025,0,0,0,0,0,0,0,-1,979,533,3.0137,3.01023
-238,491,3.14929,-1.28192,0,0,0,0,0,0,0,-1,986,533,3.1493,1.28194
-231,491,2.75653,-1.36011,0.0175357,0.0069319,0.00195536,0.0178847,0.00658282,0.176664,0.0104449,0.044364,993,533,2.75653,1.3601
-224,491,2.28265,-1.29437,0.0130894,0.00488661,0.0115289,0.0212247,-0.00324866,0.614503,0.0153477,0.0479042,1000,533,2.28267,1.29437
-217,491,1.75128,-1.19226,0,0,0,0,0,0,0,-1,1007,533,1.75131,1.19226
-210,491,-0.982666,-1.11328,0.0112246,-0.00798729,0.029626,0.0327631,-0.0295257,0.628626,0.0359787,0.0421048,1014,533,-0.982671,1.11327
-203,491,-0.235229,-0.102661,0.0111807,-0.0160978,0.0386563,0.0385333,-0.0434505,0.615799,0.0473617,0.0412491,1021,533,-0.235248,0.102686
-196,491,0,0,0,0,0,0,0,0,0,-1,1028,533,0,0
-189,491,0,0,0,0,0,0,0,0,0,-1,1035,533,0,0
-182,491,0,0,0,0,0,0,0,0,0,-1,1042,533,0,0
-175,491,0,0,0,0,0,0,0,0,0,-1,1049,533,0,0
-168,491,0,0,0,0,0,0,0,0,0,-1,1056,533,0,0
-161,491,0,0,0,0,0,0,0,0,0,-1,1063,533,0,0
-154,491,0,0,0,0,0,0,0,0,0,-1,1070,533,0,0
-147,491,0,0,0,0,0,0,0,0,0,-1,1077,533,0,0
-140,491,0,0,0,0,0,0,0,0,0,-1,1084,533,0,0
-133,491,0,0,0,0,0,0,0,0,0,-1,1091,533,0,0
-126,491,0,0,0,0,0,0,0,0,0,-1,1098,533,0,0
-119,491,0,0,0,0,0,0,0,0,0,-1,1105,533,0,0
-112,491,0,0,0,0,0,0,0,0,0,-1,1112,533,0,0
-105,491,0,0,0,0,0,0,0,0,0,-1,1119,533,0,0
-98,491,0,0,0,0,0,0,0,0,0,-1,1126,533,0,0
-91,491,0,0,0,0,0,0,0,0,0,-1,1133,533,0,0
-84,491,0,0,0,0,0,0,0,0,0,-1,1140,533,0,0
-77,491,0,0,0,0,0,0,0,0,0,-1,1147,533,0,0
-70,491,0,0,0,0,0,0,0,0,0,-1,1154,533,0,0
-63,491,0,0,0,0,0,0,0,0,0,-1,1161,533,0,0
-56,491,0,0,0,0,0,0,0,0,0,-1,1168,533,0,0
-49,491,0,0,0,0,0,0,0,0,0,-1,1175,533,0,0
-42,491,0,0,0,0,0,0,0,0,0,-1,1182,533,0,0
-35,491,0,0,0,0,0,0,0,0,0,-1,1189,533,0,0
-28,491,0,0,0,0,0,0,0,0,0,-1,1196,533,0,0
-21,491,0,0,0,0,0,0,0,0,0,-1,1203,533,0,0
-14,491,0,0,0,0,0,0,0,0,0,-1,1210,533,0,0
-7,491,0,0,0,0,0,0,0,0,0,-1,1217,533,0,0
0,491,0,0,0,0,0,0,0,0,0,-1,1224,533,0,0
7,491,0,0,0,0,0,0,0,0,0,-1,1231,533,0,0
14,491,0,0,0,0,0,0,0,0,0,-1,1238,533,0,0
21,491,0,0,0,0,0,0,0,0,0,-1,1245,533,0,0
28,491,0,0,0,0,0,0,0,0,0,-1,1252,533,0,0
35,491,0,0,0,0,0,0,0,0,0,-1,1259,533,0,0
42,491,0,0,0,0,0,0,0,0,0,-1,1266,533,0,0
49,491,0,0,0,0,0,0,0,0,0,-1,1273,533,0,0
56,491,0,0,0,0,0,0,0,0,0,-1,1280,533,0,0
63,491,0,0,0,0,0,0,0,0,0,-1,1287,533,0,0
70,491,0,0,0,0,0,0,0,0,0,-1,1294,533,0,0
77,491,0,0,0,0,0,0,0,0,0,-1,1301,533,0,0
84,491,0,0,0,0,0,0,0,0,0,-1,1308,533,0,0
91,491,0,0,0,0,0,0,0,0,0,-1,1315,533,0,0
98,491,0,0,0,0,0,0,0,0,0,-1,1322,533,0,0
105,491,0,0,0,0,0,0,0,0,0,-1,1329,533,0,0
112,491,0,0,0,0,0,0,0,0,0,-1,1336,533,0,0
119,491,0,0,0,0,0,0,0,0,0,-1,1343,533,0,0
126,491,0,0,0,0,0,0,0,0,0,-1,1350,533,0,0
133,491,0,0,0,0,0,0,0,0,0,-1,1357,533,0,0
140,491,0,0,0,0,0,0,0,0,0,-1,1364,533,0,0
147,491,0,0,0,0,0,0,0,0,0,-1,1371,533,0,0
154,491,0,0,0,0,0,0,0,0,0,-1,1378,533,0,0
161,491,0,0,0,0,0,0,0,0,0,-1,1385,533,0,0
168,491,0,0,0,0,0,0,0,0,0,-1,1392,533,0,0
175,491,0,0,0,0,0,0,0,0,0,-1,1399,533,0,0
182,491,0,0,0,0,0,0,0,0,0,-1,1406,533,0,0
189,491,0,0,0,0,0,0,0,0,0,-1,1413,533,0,0
196,491,0,0,0,0,0,0,0,0,0,-1,1420,533,0,0
203,491,0,0,0,0,0,0,0,0,0,-1,1427,533,0,0
210,491,0,0,0,0,0,0,0,0,0,-1,1434,533,0,0
217,491,0,0,0,0,0,0,0,0,0,-1,1441,533,0,0
224,491,0,0,0,0,0,0,0,0,0,-1,1448,533,0,0
231,491,0,0,0,0,0,0,0,0,0,-1,1455,533,0,0
238,491,0,0,0,0,0,0,0,0,0,-1,1462,533,0,0
245,491,0,0,0,0,0,0,0,0,0,-1,1469,533,0,0
252,491,0,0,0,0,0,0,0,0,0,-1,1476,533,0,0
259,491,0,0,0,0,0,0,0,0,0,-1,1483,533,0,0
266,491,0,0,0,0,0,0,0,0,0,-1,1490,533,0,0
273,491,0,0,0,0,0,0,0,0,0,-1,1497,533,0,0
280,491,0,0,0,0,0,0,0,0,0,-1,1504,533,0,0
287,491,0,0,0,0,0,0,0,0,0,-1,1511,533,0,0
294,491,0,0,0,0,0,0,0,0,0,-1,1518,533,0,0
301,491,0,0,0,0,0,0,0,0,0,-1,1525,533,0,0
308,491,0,0,0,0,0,0,0,0,0,-1,1532,533,0,0
315,491,0,0,0,0,0,0,0,0,0,-1,1539,533,0,0
322,491,0.692017,0.170715,0,0,0,0,0,0,0,-1,1546,533,0.692036,-0.170728
329,491,-0.425903,-0.960632,0,0,0,0,0,0,0,-1,1553,533,-0.425865,0.960611
336,491,-1.11963,-1.59198,0,0,0,0,0,0,0,-1,1560,533,-1.11958,1.592
343,491,0.417114,-0.85376,0,0,0,0,0,0,0,-1,1567,533,0.417148,0.853746
350,491,1.22424,-1.32953,0,0,0,0,0,0,0,-1,1574,533,1.22429,1.32953
357,491,2.04932,-1.79883,0,0,0,0,0,0,0,-1,1581,533,2.04935,1.79882
364,491,6.08435,-3.00189,0,0,0,0,0,0,0,-1,1588,533,6.08438,3.00191
371,491,4.95618,-1.7652,0,0,0,0,0,0,0,-1,1595,533,4.95622,1.76522
378,491,4.49231,-0.78949,0,0,0,0,0,0,0,-1,1602,533,4.49227,0.789477
385,491,4.43518,-0.498901,-0.0510978,-0.0090238,-0.00450506,-0.00854683,-0.0515748,-1.46531,0.031918,0.0456577,1609,533,4.43519,0.498893
392,491,4.31396,-0.365906,-0.04367,-0.0128717,-0.0045858,-0.0122034,-0.0443383,-1.42608,0.0264469,0.0435673,1616,533,4.31395,0.3659
399,491,3.28784,-1.01996,0,0,0,0,0,0,0,-1,1623,533,3.28782,1.01994
406,491,2.97986,-1.17383,-0.02989,-0.0162079,-0.00500233,-0.0145741,-0.0315238,-1.25511,0.0182175,0.0428979,1630,533,2.97982,1.17381
413,491,2.81848,-1.07239,-0.0240529,-0.0158386,-0.00529347,-0.0132458,-0.0266457,-1.11533,0.015384,0.0475628,1637,533,2.81852,1.07237
420,491,2.599,-0.856995,-0.0184045,-0.0152126,-0.00548391,-0.0110972,-0.02252,-0.926998,0.0130024,0.0488149,1644,533,2.59898,0.856973
427,491,2.38464,-0.951721,-0.0131403,-0.0138018,-0.00508247,-0.00837781,-0.0185642,-0.752907,0.010735,0.0441085,1651,533,2.38468,0.951743
434,491,2.50891,-0.973206,-0.00933885,-0.0119887,-0.00534985,-0.00515233,-0.0161753,-0.66401,0.00954162,0.0295782,1658,533,2.50893,0.973187
441,491,2.54626,-0.931763,-0.00659024,-0.00935168,-0.00494548,-0.00283636,-0.0131056,-0.64927,0.00796181,0.0166961,1665,533,2.54632,0.931758
448,491,2.57751,-0.897827,-0.00369817,-0.00714147,-0.00448051,-0.000619921,-0.0102197,-0.601969,0.00661619,0.010968,1672,533,2.57749,0.897799
455,491,2.56958,-0.849731,-0.00189871,-0.00453951,-0.00391594,0.000913446,-0.00735167,-0.622791,0.00523224,0.0112145,1679,533,2.56956,0.849736
462,491,2.56006,-0.817322,-0.000832068,-0.00254278,-0.00316654,0.00159261,-0.00496746,-0.653485,0.00395099,0.0142513,1686,533,2.56005,0.817323
469,491,2.55981,-0.78418,-0.0007084,-0.00160033,-0.00248303,0.00136839,-0.00367713,-0.696542,0.00301297,0.0140635,1693,533,2.55975,0.784166
476,491,2.57532,-0.736572,-0.00053507,-0.000631309,-0.00186227,0.0012797,-0.00244608,-0.772481,0.00218593,0.0109079,1700,533,2.57536,0.73656
483,491,2.57458,-0.676941,-0.000562255,0.00029768,-0.00123973,0.00117989,-0.00144446,-0.952319,0.00151774,0.0128152,1707,533,2.57453,0.676911
490,491,2.5752,-0.65448,-0.000768798,0.000914035,-0.000779729,0.00121977,-0.00107453,-1.19711,0.0013255,0.0109564,1714,533,2.5752,0.654494
497,491,2.58386,-0.630432,-0.000876441,0.00134971,-0.000317371,0.00139407,-0.000920803,-1.43192,0.00134577,0.0115085,1721,533,2.58388,0.630432
504,491,2.57605,-0.571899,-0.000817268,0.00244626,-0.000322584,0.00247784,-0.000848848,-1.47321,0.00199595,0.0123041,1728,533,2.57601,0.571917
511,491,2.56677,-0.501221,-0.000298791,0.00510877,-0.000218288,0.00511756,-0.000307588,-1.53052,0.00351872,0.010657,1735,533,2.56672,0.501225
518,491,2.57971,-0.482239,0.000913731,0.0101703,0.000885304,0.0102542,0.000829821,1.4763,0.006577,0.00844466,1742,533,2.5797,0.482252
525,491,2.58875,-0.44635,0.00259332,0.0136157,0.00287291,0.0143195,0.00188946,1.33053,0.00898302,0.00843355,1749,533,2.58871,0.446333
532,491,2.58276,-0.388855,0.00479352,0.0190146,0.00445853,0.0202968,0.00351131,1.29077,0.0125259,0.0115081,1756,533,2.58272,0.388827
539,491,2.58496,-0.364929,0.0077135,0.0259942,0.0065888,0.0281215,0.00558628,1.25851,0.0171908,0.0179488,1763,533,2.58494,0.364901
546,491,2.57471,-0.317688,0.0114593,0.0340518,0.00962965,0.0375993,0.00791187,1.21783,0.0228893,0.031985,1770,533,2.57466,0.31768
553,491,2.42346,-0.219604,0.0161201,0.0432676,0.0135792,0.0488939,0.0104938,1.178,0.0297221,0.0440964,1777,533,2.42351,0.21962
560,491,2.33948,-0.233459,0,0,0,0,0,0,0,-1,1784,533,2.33954,0.233435
567,491,3.75635,-2.47021,0.0282377,0.0638312,0.0242789,0.0761374,0.0159314,1.10167,0.0463692,0.0488783,1791,533,3.75631,2.47019
574,491,3.10852,1.34894,0.035717,0.0741396,0.0308972,0.0913111,0.0185454,1.06354,0.0557305,0.0485099,1798,533,3.10847,-1.34897
581,491,3.6499,1.47601,0,0,0,0,0,0,0,-1,1805,533,3.64989,-1.47602
588,491,4.14514,-0.352966,0,0,0,0,0,0,0,-1,1812,533,4.14513,0.352936
595,491,0,0,0,0,0,0,0,0,0,-1,1819,533,0,0
602,491,0,0,0,0,0,0,0,0,0,-1,1826,533,0,0
609,491,0,0,0,0,0,0,0,0,0,-1,1833,533,0,0
616,491,0,0,0,0,0,0,0,0,0,-1,1840,533,0,0
623,491,0,0,0,0,0,0,0,0,0,-1,1847,533,0,0
630,491,0,0,0,0,0,0,0,0,0,-1,1854,533,0,0
637,491,0,0,0,0,0,0,0,0,0,-1,1861,533,0,0
644,491,0,0,0,0,0,0,0,0,0,-1,1868,533,0,0
651,491,0,0,0,0,0,0,0,0,0,-1,1875,533,0,0
658,491,0,0,0,0,0,0,0,0,0,-1,1882,533,0,0
665,491,0,0,0,0,0,0,0,0,0,-1,1889,533,0,0
672,491,0,0,0,0,0,0,0,0,0,-1,1896,533,0,0
679,491,0,0,0,0,0,0,0,0,0,-1,1903,533,0,0
686,491,0,0,0,0,0,0,0,0,0,-1,1910,533,0,0
693,491,0,0,0,0,0,0,0,0,0,-1,1917,533,0,0
700,491,0,0,0,0,0,0,0,0,0,-1,1924,533,0,0
707,491,0,0,0,0,0,0,0,0,0,-1,1931,533,0,0
714,491,0,0,0,0,0,0,0,0,0,-1,1938,533,0,0
721,491,0,0,0,0,0,0,0,0,0,-1,1945,533,0,0
728,491,0,0,0,0,0,0,0,0,0,-1,1952,533,0,0
735,491,0,0,0,0,0,0,0,0,0,-1,1959,533,0,0
742,491,0,0,0,0,0,0,0,0,0,-1,1966,533,0,0
749,491,0,0,0,0,0,0,0,0,0,-1,1973,533,0,0
756,491,0,0,0,0,0,0,0,0,0,-1,1980,533,0,0
763,491,0,0,0,0,0,0,0,0,0,-1,1987,533,0,0
770,491,0,0,0,0,0,0,0,0,0,-1,1994,533,0,0
777,491,0,0,0,0,0,0,0,0,0,-1,2001,533,0,0
784,491,0,0,0,0,0,0,0,0,0,-1,2008,533,0,0
791,491,0,0,0,0,0,0,0,0,0,-1,2015,533,0,0
798,491,0,0,0,0,0,0,0,0,0,-1,2022,533,0,0
805,491,0,0,0,0,0,0,0,0,0,-1,2029,533,0,0
812,491,0,0,0,0,0,0,0,0,0,-1,2036,533,0,0
-700,484,0,0,0,0,0,0,0,0,0,-1,524,540,0,0
-693,484,0,0,0,0,0,0,0,0,0,-1,531,540,0,0
-686,484,0,0,0,0,0,0,0,0,0,-1,538,540,0,0
-679,484,0,0,0,0,0,0,0,0,0,-1,545,540,0,0
-672,484,0,0,0,0,0,0,0,0,0,-1,552,540,0,0
-665,484,0,0,0,0,0,0,0,0,0,-1,559,540,0,0
-658,484,0,0,0,0,0,0,0,0,0,-1,566,540,0,0
-651,484,0,0,0,0,0,0,0,0,0,-1,573,540,0,0
-644,484,0,0,0,0,0,0,0,0,0,-1,580,540,0,0
-637,484,0,0,0,0,0,0,0,0,0,-1,587,540,0,0
-630,484,0,0,0,0,0,0,0,0,0,-1,594,540,0,0
-623,484,0,0,0,0,0,0,0,0,0,-1,601,540,0,0
-616,484,0,0,0,0,0,0,0,0,0,-1,608,540,0,0
-609,484,0,0,0,0,0,0,0,0,0,-1,615,540,0,0
-602,484,0,0,0,0,0,0,0,0,0,-1,622,540,0,0
-595,484,0,0,0,0,0,0,0,0,0,-1,629,540,0,0
-588,484,0,0,0,0,0,0,0,0,0,-1,636,540,0,0
-581,484,0,0,0,0,0,0,0,0,0,-1,643,540,0,0
-574,484,0,0,0,0,0,0,0,0,0,-1,650,540,0,0
-567,484,0,0,0,0,0,0,0,0,0,-1,657,540,0,0
-560,484,0,0,0,0,0,0,0,0,0,-1,664,540,0,0
-553,484,0,0,0,0,0,0,0,0,0,-1,671,540,0,0
-546,484,0,0,0,0,0,0,0,0,0,-1,678,540,0,0
-539,484,0,0,0,0,0,0,0,0,0,-1,685,540,0,0
-532,484,0,0,0,0,0,0,0,0,0,-1,692,540,0,0
-525,484,0,0,0,0,0,0,0,0,0,-1,699,540,0,0
-518,484,0,0,0,0,0,0,0,0,0,-1,706,540,0,0
-511,484,0,0,0,0,0,0,0,0,0,-1,713,540,0,0
-504,484,0,0,0,0,0,0,0,0,0,-1,720,540,0,0
-497,484,0,0,0,0,0,0,0,0,0,-1,727,540,0,0
-490,484,0,0,0,0,0,0,0,0,0,-1,734,540,0,0
-483,484,0,0,0,0,0,0,0,0,0,-1,741,540,0,0
-476,484,-0.451355,-1.42566,0,0,0,0,0,0,0,-1,748,540,-0.45134,1.42565
-469,484,0.0808716,-1.55493,0.00111925,0.0235549,0.0309492,0.0452566,-0.0205824,0.959264,0.0388918,0.0489161,755,540,0.0808456,1.55492
-462,484,0.668579,-1.67761,-0.00101636,0.0154607,0.0279144,0.0363269,-0.0218825,0.928892,0.0339504,0.0493163,762,540,0.668558,1.6776
-455,484,2.92053,0.383728,-0.004232,0.00886993,0.0232228,0.0264481,-0.0218102,0.922872,0.0279048,0.0465221,769,540,2.92055,-0.383712
-448,484,2.35638,-0.211853,-0.00707243,0.00360633,0.0180371,0.0170778,-0.0205439,0.9293,0.0217516,0.044108,776,540,2.3564,0.211871
-441,484,2.17621,-0.166016,-0.00922003,-0.000247505,0.0131685,0.00917796,-0.0186455,0.949573,0.0163709,0.0439383,783,540,2.1762,0.165986
-434,484,0.981262,-0.156677,-0.0102726,-0.00278507,0.00953277,0.00371273,-0.0167704,0.972508,0.0126015,0.0453609,790,540,0.981238,0.156647
-427,484,1.05066,-0.238525,-0.0104405,-0.00415528,0.00646162,-0.000112602,-0.0144832,1.01173,0.00961817,0.0381708,797,540,1.05066,0.238541
-420,484,1.11884,-0.314819,-0.0101893,-0.00482102,0.00363147,-0.00298939,-0.0120209,1.10365,0.00722662,0.0266962,804,540,1.11882,0.314837
-413,484,1.16724,-0.363159,-0.0100438,-0.00595354,0.000535403,-0.00588462,-0.0101127,1.44277,0.00586464,0.0156419,811,540,1.16724,0.363155
-406,484,1.20233,-0.393616,-0.0099548,-0.00571678,-0.0014825,-0.00524967,-0.0104219,-1.26556,0.00601715,0.0111693,818,540,1.20236,0.393637
-399,484,1.19128,-0.4328,-0.0086422,-0.00436164,-0.00208944,-0.00351084,-0.009493,-1.18411,0.00554235,0.0156467,825,540,1.19127,0.432821
-392,484,1.1662,-0.4776,-0.00629604,-0.00329724,-0.00166089,-0.00255907,-0.00703422,-1.15257,0.00411112,0.0179467,832,540,1.16618,0.47763
-385,484,1.18707,-0.504944,-0.00462576,-0.00252851,-0.00132983,-0.00188359,-0.00527067,-1.11925,0.00308401,0.0131756,839,540,1.18704,0.504918
-378,484,1.19476,-0.560242,-0.00343832,-0.00161986,-0.000665993,-0.00140204,-0.00365614,-1.2547,0.0021299,0.0139112,846,540,1.19477,0.560218
-371,484,1.19836,-0.587097,-0.00273977,-0.00105087,-0.000121773,-0.00104213,-0.0027485,-1.49919,0.00160222,0.0156075,853,540,1.19837,0.587107
-364,484,1.20905,-0.608093,-0.00151388,-0.000656228,0.000270947,-0.000577803,-0.00159231,1.28905,0.000930773,0.011145,860,540,1.20903,0.608084
-357,484,1.19897,-0.672058,3.40469e-05,6.04196e-05,0.000264262,0.000311824,-0.000217357,0.810327,0.000307141,0.0116466,867,540,1.199,0.672052
-350,484,1.18964,-0.712646,0.00155603,0.000448966,0.000193182,0.00158877,0.000416224,0.167892,0.000951291,0.0148946,874,540,1.18964,0.712628
-343,484,1.18317,-0.751526,0.00355227,0.000754901,0.000135087,0.00355878,0.000748393,0.0481414,0.00216658,0.0207439,881,540,1.18314,0.751521
-336,484,1.18909,-0.819885,0.00622979,0.00117086,-0.00021939,0.00623929,0.00116136,-0.0432585,0.00383153,0.0242027,888,540,1.18909,0.819898
-329,484,1.16504,-0.856934,0.00993719,0.00106397,-0.0012843,0.0101193,0.000881823,-0.140888,0.00647234,0.0261857,895,540,1.16502,0.856907
-322,484,1.22845,-0.857483,0.0144229,0.0013818,-0.00264985,0.0149407,0.000863936,-0.192999,0.00968535,0.0206799,902,540,1.22847,0.857456
-315,484,1.19446,-0.85144,0.0195513,0.00169998,-0.00435152,0.0205555,0.000695732,-0.226811,0.0134778,0.021577,909,540,1.19446,0.851421
-308,484,1.14471,-0.793213,0.0250568,0.00337057,-0.00669817,0.0269588,0.00146854,-0.276679,0.0175036,0.0363012,916,540,1.14474,0.793191
-301,484,0.938721,-0.768188,0.0310973,0.00649122,-0.00996507,0.0346268,0.00296178,-0.340394,0.0221633,0.0463486,923,540,0.938731,0.768197
-294,484,0.984558,-0.771851,0.0381052,0.00988359,-0.0138901,0.0437947,0.00419416,-0.388758,0.0279037,0.0445093,930,540,0.984581,0.771866
-287,484,1.70862,-0.42511,0.0450193,0.0145582,-0.0185924,0.053823,0.00575447,-0.442234,0.034126,0.0417113,937,540,1.70861,0.425128
-280,484,2.74695,-0.0638428,0.0454246,0.0179848,-0.0220085,0.0576394,0.00576995,-0.506677,0.0366546,0.046223,944,540,2.74696,0.0638348
-273,484,2.09186,-1.41956,0,0,0,0,0,0,0,-1,951,540,2.09183,1.41954
-266,484,2.61316,-0.760681,0,0,0,0,0,0,0,-1,958,540,2.61315,0.760698
-259,484,2.8847,-3.073,0,0,0,0,0,0,0,-1,965,540,2.88473,3.073
-252,484,3.03833,-3.07532,0,0,0,0,0,0,0,-1,972,540,3.03835,3.07532
-245,484,3.61389,-3.60754,0,0,0,0,0,0,0,-1,979,540,3.61389,3.60752
-238,484,3.54205,-1.26569,0,0,0,0,0,0,0,-1,986,540,3.54205,1.26567
-231,484,3.04169,-1.19,0.0161659,0.00717312,0.00821632,0.0210357,0.00230332,0.535033,0.0133226,0.0458309,993,540,3.04168,1.19002
-224,484,2.54156,-1.08453,0.0105624,0.00537093,0.0205036,0.0286339,-0.0127006,0.722434,0.0244483,0.0459951,1000,540,2.54157,1.08456
-217,484,2.09991,-0.922241,0,0,0,0,0,0,0,-1,1007,540,2.0999,0.922271
-210,484,0,0,0,0,0,0,0,0,0,-1,1014,540,0,0
-203,484,0,0,0,0,0,0,0,0,0,-1,1021,540,0,0
-196,484,0,0,0,0,0,0,0,0,0,-1,1028,540,0,0
-189,484,0,0,0,0,0,0,0,0,0,-1,1035,540,0,0
-182,484,0,0,0,0,0,0,0,0,0,-1,1042,540,0,0
-175,484,0,0,0,0,0,0,0,0,0,-1,1049,540,0,0
-168,484,0,0,0,0,0,0,0,0,0,-1,1056,540,0,0
-161,484,0,0,0,0,0,0,0,0,0,-1,1063,540,0,0
-154,484,0,0,0,0,0,0,0,0,0,-1,1070,540,0,0
-147,484,0,0,0,0,0,0,0,0,0,-1,1077,540,0,0
-140,484,0,0,0,0,0,0,0,0,0,-1,1084,540,0,0
-133,484,0,0,0,0,0,0,0,0,0,-1,1091,540,0,0
-126,484,0,0,0,0,0,0,0,0,0,-1,1098,540,0,0
-119,484,0,0,0,0,0,0,0,0,0,-1,1105,540,0,0
-112,484,0,0,0,0,0,0,0,0,0,-1,1112,540,0,0
-105,484,0,0,0,0,0,0,0,0,0,-1,1119,540,0,0
-98,484,0,0,0,0,0,0,0,0,0,-1,1126,540,0,0
-91,484,0,0,0,0,0,0,0,0,0,-1,1133,540,0,0
-84,484,0,0,0,0,0,0,0,0,0,-1,1140,540,0,0
-77,484,0,0,0,0,0,0,0,0,0,-1,1147,540,0,0
-70,484,0,0,0,0,0,0,0,0,0,-1,1154,540,0,0
-63,484,0,0,0,0,0,0,0,0,0,-1,1161,540,0,0
-56,484,0,0,0,0,0,0,0,0,0,-1,1168,540,0,0
-49,484,0,0,0,0,0,0,0,0,0,-1,1175,540,0,0
-42,484,0,0,0,0,0,0,0,0,0,-1,1182,540,0,0
-35,484,0,0,0,0,0,0,0,0,0,-1,1189,540,0,0
-28,484,0,0,0,0,0,0,0,0,0,-1,1196,540,0,0
-21,484,0,0,0,0,0,0,0,0,0,-1,1203,540,0,0
-14,484,0,0,0,0,0,0,0,0,0,-1,1210,540,0,0
-7,484,0,0,0,0,0,0,0,0,0,-1,1217,540,0,0
0,484,0,0,0,0,0,0,0,0,0,-1,1224,540,0,0
7,484,0,0,0,0,0,0,0,0,0,-1,1231,540,0,0
14,484,0,0,0,0,0,0,0,0,0,-1,1238,540,0,0
21,484,0,0,0,0,0,0,0,0,0,-1,1245,540,0,0
28,484,0,0,0,0,0,0,0,0,0,-1,1252,540,0,0
35,484,0,0,0,0,0,0,0,0,0,-1,1259,540,0,0
42,484,0,0,0,0,0,0,0,0,0,-1,1266,540,0,0
49,484,0,0,0,0,0,0,0,0,0,-1,1273,540,0,0
56,484,0,0,0,0,0,0,0,0,0,-1,1280,540,0,0
63,484,0,0,0,0,0,0,0,0,0,-1,1287,540,0,0
70,484,0,0,0,0,0,0,0,0,0,-1,1294,540,0,0
77,484,0,0,0,0,0,0,0,0,0,-1,1301,540,0,0
84,484,0,0,0,0,0,0,0,0,0,-1,1308,540,0,0
91,484,0,0,0,0,0,0,0,0,0,-1,1315,540,0,0
98,484,0,0,0,0,0,0,0,0,0,-1,1322,540,0,0
105,484,0,0,0,0,0,0,0,0,0,-1,1329,540,0,0
112,484,0,0,0,0,0,0,0,0,0,-1,1336,540,0,0
119,484,0,0,0,0,0,0,0,0,0,-1,1343,540,0,0
126,484,0,0,0,0,0,0,0,0,0,-1,1350,540,0,0
133,484,0,0,0,0,0,0,0,0,0,-1,1357,540,0,0
140,484,0,0,0,0,0,0,0,0,0,-1,1364,540,0,0
147,484,0,0,0,0,0,0,0,0,0,-1,1371,540,0,0
154,484,0,0,0,0,0,0,0,0,0,-1,1378,540,0,0
161,484,0,0,0,0,0,0,0,0,0,-1,1385,540,0,0
168,484,0,0,0,0,0,0,0,0,0,-1,1392,540,0,0
175,484,0,0,0,0,0,0,0,0,0,-1,1399,540,0,0
182,484,0,0,0,0,0,0,0,0,0,-1,1406,540,0,0
189,484,0,0,0,0,0,0,0,0,0,-1,1413,540,0,0
196,484,0,0,0,0,0,0,0,0,0,-1,1420,540,0,0
203,484,0,0,0,0,0,0,0,0,0,-1,1427,540,0,0
210,484,0,0,0,0,0,0,0,0,0,-1,1434,540,0,0
217,484,0,0,0,0,0,0,0,0,0,-1,1441,540,0,0
224,484,0,0,0,0,0,0,0,0,0,-1,1448,540,0,0
231,484,0,0,0,0,0,0,0,0,0,-1,1455,540,0,0
238,484,0,0,0,0,0,0,0,0,0,-1,1462,540,0,0
245,484,0,0,0,0,0,0,0,0,0,-1,1469,540,0,0
252,484,0,0,0,0,0,0,0,0,0,-1,1476,540,0,0
259,484,0,0,0,0,0,0,0,0,0,-1,1483,540,0,0
266,484,0,0,0,0,0,0,0,0,0,-1,1490,540,0,0
273,484,0,0,0,0,0,0,0,0,0,-1,1497,540,0,0
280,484,0,0,0,0,0,0,0,0,0,-1,1504,540,0,0
287,484,0,0,0,0,0,0,0,0,0,-1,1511,540,0,0
294,484,0,0,0,0,0,0,0,0,0,-1,1518,540,0,0
301,484,0,0,0,0,0,0,0,0,0,-1,1525,540,0,0
308,484,0,0,0,0,0,0,0,0,0,-1,1532,540,0,0
315,484,0,0,0,0,0,0,0,0,0,-1,1539,540,0,0
322,484,0,0,0,0,0,0,0,0,0,-1,1546,540,0,0
329,484,0,0,0,0,0,0,0,0,0,-1,1553,540,0,0
336,484,7.58862,-0.632324,0,0,0,0,0,0,0,-1,1560,540,7.58868,0.632332
343,484,8.29297,-0.858948,0,0,0,0,0,0,0,-1,1567,540,8.29292,0.85897
350,484,0.789551,-1.20416,0,0,0,0,0,0,0,-1,1574,540,0.789568,1.20414
357,484,8.07629,-4.16846,0,0,0,0,0,0,0,-1,1581,540,8.07625,4.16845
364,484,7.08069,-3.27271,-0.0935781,0.0180154,-0.00148912,0.0180353,-0.093598,-1.55746,0.0691983,0.0481348,1588,540,7.08067,3.27273
371,484,6.04749,-2.36255,-0.0821845,0.00637783,-0.000997034,0.00638906,-0.0821957,-1.55954,0.0570462,0.0453239,1595,540,6.0475,2.36253
378,484,5.07251,-1.55719,-0.0729326,-0.00385974,-0.000648972,-0.00385365,-0.0729387,-1.5614,0.0473935,0.0453636,1602,540,5.07256,1.55718
385,484,4.55627,-0.815247,0,0,0,0,0,0,0,-1,1609,540,4.55626,0.815232
392,484,4.35291,-0.649841,-0.0530933,-0.0165241,-0.0014025,-0.0164704,-0.053147,-1.53252,0.031415,0.0430081,1616,540,4.35293,0.649827
399,484,3.87769,-0.676636,-0.0437216,-0.0194895,-0.0023791,-0.0192581,-0.043953,-1.47385,0.0254409,0.0427011,1623,540,3.87765,0.676645
406,484,3.4574,-0.740173,-0.0347756,-0.0206221,-0.00345851,-0.0198222,-0.0355755,-1.34351,0.0205843,0.0467716,1630,540,3.45744,0.740178
413,484,2.96497,-0.914795,0,0,0,0,0,0,0,-1,1637,540,2.96493,0.914772
420,484,2.55103,-0.902222,0,0,0,0,0,0,0,-1,1644,540,2.55097,0.902221
427,484,2.28748,-0.677246,-0.0133284,-0.0179046,-0.00509034,-0.0100356,-0.0211975,-0.574181,0.0122441,0.0470759,1651,540,2.28744,0.677245
434,484,2.64465,-0.867615,-0.00858754,-0.0156536,-0.0057391,-0.00538117,-0.01886,-0.50949,0.0112184,0.0454828,1658,540,2.64466,0.867586
441,484,2.97327,-1.17224,-0.00521492,-0.0124799,-0.00561056,-0.00216359,-0.0155312,-0.498114,0.00971358,0.0418879,1665,540,2.97331,1.17222
448,484,2.68665,-0.926636,-0.00194122,-0.00978504,-0.00532162,0.000747543,-0.0124738,-0.467841,0.00857591,0.03112,1672,540,2.68669,0.92663
455,484,2.61389,-0.851746,-4.21384e-05,-0.00654879,-0.00482024,0.00251993,-0.00911086,-0.488547,0.0070653,0.0171561,1679,540,2.61395,0.851767
462,484,2.60913,-0.816101,0.000854208,-0.00403415,-0.00403733,0.00312957,-0.00630951,-0.51321,0.00555178,0.0126233,1686,540,2.60914,0.816123
469,484,2.62122,-0.770813,0.00071193,-0.00272929,-0.00325997,0.00267749,-0.00469485,-0.542579,0.00430922,0.0149871,1693,540,2.62125,0.77084
476,484,2.61499,-0.714783,0.000660327,-0.00144578,-0.00254611,0.00236256,-0.00314801,-0.589314,0.00319228,0.015042,1700,540,2.61493,0.714776
483,484,2.6073,-0.689148,0.000469086,-0.000267411,-0.00181494,0.00195276,-0.00175109,-0.685308,0.00213947,0.0117981,1707,540,2.60726,0.689176
490,484,2.625,-0.664246,-0.000126776,0.000431181,-0.00133411,0.00151517,-0.00121077,-0.888469,0.00157709,0.0120051,1714,540,2.62502,0.664275
497,484,2.61536,-0.617554,-0.000410474,0.000847548,-0.000776284,0.00121767,-0.000780599,-1.12589,0.00116287,0.0136907,1721,540,2.61532,0.617567
504,484,2.604,-0.558228,-0.000468269,0.00169934,-0.000658013,0.00188345,-0.000652381,-1.29797,0.00152049,0.0157029,1728,540,2.60402,0.558203
511,484,2.6178,-0.503418,-0.00015039,0.00377259,-0.000483123,0.00383121,-0.000209012,-1.45005,0.00262658,0.0170311,1735,540,2.61785,0.503416
518,484,2.61682,-0.490356,0.00080531,0.00779089,0.000545387,0.00783321,0.000762986,1.49335,0.0049873,0.0134765,1742,540,2.61679,0.490369
525,484,2.61865,-0.454468,0.00214113,0.0104577,0.00232586,0.0110639,0.00153486,1.31581,0.00692129,0.0118456,1749,540,2.61859,0.454456
532,484,2.61731,-0.403076,0.00389647,0.014663,0.00375558,0.0158436,0.00271591,1.26623,0.00978357,0.0146247,1756,540,2.61725,0.403055
539,484,2.60718,-0.328674,0.00621772,0.0201821,0.00567438,0.0221971,0.00420271,1.22958,0.0136151,0.0172941,1763,540,2.6072,0.328697
546,484,2.59961,-0.288208,0.00920526,0.0264533,0.00833638,0.0298238,0.00583474,1.18658,0.0182512,0.0184113,1770,540,2.59956,0.288187
553,484,2.54138,-0.242249,0.0129051,0.0335764,0.0116959,0.0388491,0.00763248,1.14727,0.0237673,0.0328763,1777,540,2.54136,0.242244
560,484,2.61182,-0.150879,0.0173344,0.0413581,0.0157298,0.0491379,0.00955454,1.11148,0.0300839,0.0448745,1784,540,2.61177,0.15086
567,484,2.57007,0.257202,0,0,0,0,0,0,0,-1,1791,540,2.57004,-0.257186
574,484,2.62805,0.732605,0,0,0,0,0,0,0,-1,1798,540,2.62811,-0.732613
581,484,2.78491,0.749756,0,0,0,0,0,0,0,-1,1805,540,2.78488,-0.749732
588,484,2.98083,0.649536,0,0,0,0,0,0,0,-1,1812,540,2.98078,-0.649554
595,484,3.47278,0.680847,0,0,0,0,0,0,0,-1,1819,540,3.47282,-0.680867
602,484,0,0,0,0,0,0,0,0,0,-1,1826,540,0,0
609,484,0,0,0,0,0,0,0,0,0,-1,1833,540,0,0
616,484,0,0,0,0,0,0,0,0,0,-1,1840,540,0,0
623,484,0,0,0,0,0,0,0,0,0,-1,1847,540,0,0
630,484,0,0,0,0,0,0,0,0,0,-1,1854,540,0,0
637,484,0,0,0,0,0,0,0,0,0,-1,1861,540,0,0
644,484,0,0,0,0,0,0,0,0,0,-1,1868,540,0,0
651,484,0,0,0,0,0,0,0,0,0,-1,1875,540,0,0
658,484,0,0,0,0,0,0,0,0,0,-1,1882,540,0,0
665,484,0,0,0,0,0,0,0,0,0,-1,1889,540,0,0
672,484,0,0,0,0,0,0,0,0,0,-1,1896,540,0,0
679,484,0,0,0,0,0,0,0,0,0,-1,1903,540,0,0
686,484,0,0,0,0,0,0,0,0,0,-1,1910,540,0,0
693,484,0,0,0,0,0,0,0,0,0,-1,1917,540,0,0
700,484,0,0,0,0,0,0,0,0,0,-1,1924,540,0,0
707,484,0,0,0,0,0,0,0,0,0,-1,1931,540,0,0
714,484,0,0,0,0,0,0,0,0,0,-1,1938,540,0,0
721,484,0,0,0,0,0,0,0,0,0,-1,1945,540,0,0
728,484,0,0,0,0,0,0,0,0,0,-1,1952,540,0,0
735,484,0,0,0,0,0,0,0,0,0,-1,1959,540,0,0
742,484,0,0,0,0,0,0,0,0,0,-1,1966,540,0,0
749,484,0,0,0,0,0,0,0,0,0,-1,1973,540,0,0
756,484,0,0,0,0,0,0,0,0,0,-1,1980,540,0,0
763,484,0,0,0,0,0,0,0,0,0,-1,1987,540,0,0
770,484,0,0,0,0,0,0,0,0,0,-1,1994,540,0,0
777,484,0,0,0,0,0,0,0,0,0,-1,2001,540,0,0
784,484,0,0,0,0,0,0,0,0,0,-1,2008,540,0,0
791,484,0,0,0,0,0,0,0,0,0,-1,2015,540,0,0
798,484,0,0,0,0,0,0,0,0,0,-1,2022,540,0,0
805,484,0,0,0,0,0,0,0,0,0,-1,2029,540,0,0
812,484,0,0,0,0,0,0,0,0,0,-1,2036,540,0,0
-700,477,0,0,0,0,0,0,0,0,0,-1,524,547,0,0
-693,477,0,0,0,0,0,0,0,0,0,-1,531,547,0,0
-686,477,0,0,0,0,0,0,0,0,0,-1,538,547,0,0
-679,477,0,0,0,0,0,0,0,0,0,-1,545,547,0,0
-672,477,0,0,0,0,0,0,0,0,0,-1,552,547,0,0
-665,477,0,0,0,0,0,0,0,0,0,-1,559,547,0,0
-658,477,0,0,0,0,0,0,0,0,0,-1,566,547,0,0
-651,477,0,0,0,0,0,0,0,0,0,-1,573,547,0,0
-644,477,0,0,0,0,0,0,0,0,0,-1,580,547,0,0
-637,477,0,0,0,0,0,0,0,0,0,-1,587,547,0,0
-630,477,0,0,0,0,0,0,0,0,0,-1,594,547,0,0
-623,477,0,0,0,0,0,0,0,0,0,-1,601,547,0,0
-616,477,0,0,0,0,0,0,0,0,0,-1,608,547,0,0
-609,477,0,0,0,0,0,0,0,0,0,-1,615,547,0,0
-602,477,0,0,0,0,0,0,0,0,0,-1,622,547,0,0
-595,477,0,0,0,0,0,0,0,0,0,-1,629,547,0,0
-588,477,0,0,0,0,0,0,0,0,0,-1,636,547,0,0
-581,477,0,0,0,0,0,0,0,0,0,-1,643,547,0,0
-574,477,0,0,0,0,0,0,0,0,0,-1,650,547,0,0
-567,477,0,0,0,0,0,0,0,0,0,-1,657,547,0,0
-560,477,0,0,0,0,0,0,0,0,0,-1,664,547,0,0
-553,477,0,0,0,0,0,0,0,0,0,-1,671,547,0,0
-546,477,0,0,0,0,0,0,0,0,0,-1,678,547,0,0
-539,477,0,0,0,0,0,0,0,0,0,-1,685,547,0,0
-532,477,0,0,0,0,0,0,0,0,0,-1,692,547,0,0
-525,477,0,0,0,0,0,0,0,0,0,-1,699,547,0,0
-518,477,0,0,0,0,0,0,0,0,0,-1,706,547,0,0
-511,477,0,0,0,0,0,0,0,0,0,-1,713,547,0,0
-504,477,0,0,0,0,0,0,0,0,0,-1,720,547,0,0
-497,477,0,0,0,0,0,0,0,0,0,-1,727,547,0,0
-490,477,0,0,0,0,0,0,0,0,0,-1,734,547,0,0
-483,477,0.184021,0.200195,0.0057972,0.031128,0.0202607,0.0423563,-0.0054311,1.06474,0.0302111,0.0424494,741,547,0.183992,-0.200207
-476,477,-0.415833,-1.17383,0,0,0,0,0,0,0,-1,748,547,-0.415809,1.17386
-469,477,0.0662842,-1.32141,0.00695349,0.0169927,0.0226323,0.0351553,-0.0112091,0.894527,0.0279333,0.0463475,755,547,0.0662824,1.32143
-462,477,0.57489,-1.45453,0.00485588,0.0110025,0.0216321,0.0297785,-0.0139202,0.855961,0.0257773,0.0478779,762,547,0.574914,1.45451
-455,477,2.16901,0.453796,0.00164064,0.00620095,0.0191112,0.0231675,-0.0153259,0.844773,0.0223774,0.0460201,769,547,2.16899,-0.45379
-448,477,1.98907,0.133606,-0.00140344,0.00239034,0.0157796,0.0163867,-0.0153998,0.845217,0.0183548,0.0448838,776,547,1.98907,-0.133578
-441,477,1.70343,0.00213623,-0.00389907,-0.000432374,0.0123363,0.0102918,-0.0146232,0.855195,0.0144569,0.0447072,783,547,1.70344,-0.00212449
-434,477,1.12708,-0.261353,-0.00527846,-0.00233615,0.00970764,0.00601118,-0.0136258,0.860599,0.0116181,0.0372473,790,547,1.12707,0.261366
-427,477,1.09149,-0.273682,-0.00592925,-0.00334469,0.00733756,0.00281352,-0.0120875,0.872563,0.00914162,0.0172607,797,547,1.09151,0.273686
-420,477,1.10602,-0.302856,-0.00626092,-0.00382615,0.00496139,6.50287e-05,-0.0101521,0.905707,0.00678984,0.0146358,804,547,1.10603,0.30288
-413,477,1.13855,-0.339111,-0.00662295,-0.004674,0.00220075,-0.00324163,-0.00805532,0.99382,0.00468017,0.0137757,811,547,1.13856,0.339091
-406,477,1.15851,-0.366028,-0.0070026,-0.00435245,0.000269104,-0.0043254,-0.00702965,1.47062,0.00409439,0.0104446,818,547,1.15851,0.36601
-399,477,1.177,-0.428101,-0.00623003,-0.00316723,-0.000430238,-0.00310794,-0.00628932,-1.43385,0.00363122,0.0179847,825,547,1.17702,0.428096
-392,477,1.14514,-0.474243,-0.00450538,-0.0022963,-0.00013646,-0.00228791,-0.00451378,-1.50934,0.00260611,0.0180789,832,547,1.14516,0.474271
-385,477,1.15088,-0.497864,-0.0033193,-0.00166898,3.98249e-05,-0.00166802,-0.00332026,1.54668,0.00191696,0.0142896,839,547,1.15089,0.49788
-378,477,1.13733,-0.556885,-0.00259414,-0.000963104,0.000525029,-0.000808712,-0.00274853,1.28479,0.00163104,0.0128231,846,547,1.13735,0.556907
-371,477,1.14655,-0.573364,-0.00220101,-0.000562157,0.000964355,-0.000116103,-0.00264706,1.13756,0.00172731,0.0134149,853,547,1.14654,0.573342
-364,477,1.14697,-0.600037,-0.000966519,-0.000368922,0.00119032,0.000559533,-0.00189497,0.908369,0.00148538,0.0126329,860,547,1.14699,0.600008
-357,477,1.14331,-0.668884,0.000777482,0.000334077,0.000926093,0.00150804,-0.000396481,0.667911,0.00116032,0.00996422,867,547,1.14333,0.668863
-350,477,1.1485,-0.724121,0.00252727,0.000765832,0.000609151,0.0027174,0.000575696,0.302551,0.00165346,0.0102517,874,547,1.14851,0.724144
-343,477,1.14075,-0.759521,0.00503994,0.00105772,0.000303361,0.00506292,0.00103474,0.0755975,0.00308869,0.0174405,881,547,1.14075,0.759534
-336,477,1.12897,-0.823792,0.00854179,0.00158542,-0.000347169,0.00855907,0.00156813,-0.0497418,0.00526181,0.0211582,888,547,1.12894,0.823766
-329,477,1.15704,-0.87738,0.0133343,0.00166469,-0.00184083,0.0136178,0.00138119,-0.152804,0.00865493,0.0274101,895,547,1.15704,0.877404
-322,477,1.16455,-0.788391,0.0191241,0.00228783,-0.00374345,0.0199189,0.00149302,-0.209214,0.0128107,0.0317238,902,547,1.16455,0.788369
-315,477,1.15173,-0.686157,0.0258106,0.00298713,-0.00607588,0.0273272,0.00147045,-0.244625,0.0177483,0.038574,909,547,1.15175,0.686182
-308,477,1.12579,-0.727173,0,0,0,0,0,0,0,-1,916,547,1.12582,0.727169
-301,477,0.551453,-0.546753,0,0,0,0,0,0,0,-1,923,547,0.551423,0.546755
-294,477,0.345703,-0.973145,0,0,0,0,0,0,0,-1,930,547,0.345675,0.973168
-287,477,1.31616,-1.38196,0,0,0,0,0,0,0,-1,937,547,1.31618,1.38198
-280,477,2.19885,-0.982239,0,0,0,0,0,0,0,-1,944,547,2.19883,0.982254
-273,477,2.1543,-0.227234,0,0,0,0,0,0,0,-1,951,547,2.15428,0.227253
-266,477,2.94769,-0.975464,0,0,0,0,0,0,0,-1,958,547,2.94772,0.975464
-259,477,3.02679,-1.1261,0,0,0,0,0,0,0,-1,965,547,3.02677,1.1261
-252,477,3.23163,-3.70068,0,0,0,0,0,0,0,-1,972,547,3.23162,3.70067
-245,477,2.09558,3.46637,0,0,0,0,0,0,0,-1,979,547,2.0956,-3.46639
-238,477,3.97229,-1.15826,0,0,0,0,0,0,0,-1,986,547,3.97232,1.15824
-231,477,3.28052,-0.974487,0,0,0,0,0,0,0,-1,993,547,3.28054,0.974505
-224,477,0,0,0,0,0,0,0,0,0,-1,1000,547,0,0
-217,477,0,0,0,0,0,0,0,0,0,-1,1007,547,0,0
-210,477,0,0,0,0,0,0,0,0,0,-1,1014,547,0,0
-203,477,0,0,0,0,0,0,0,0,0,-1,1021,547,0,0
-196,477,0,0,0,0,0,0,0,0,0,-1,1028,547,0,0
-189,477,0,0,0,0,0,0,0,0,0,-1,1035,547,0,0
-182,477,0,0,0,0,0,0,0,0,0,-1,1042,547,0,0
-175,477,0,0,0,0,0,0,0,0,0,-1,1049,547,0,0
-168,477,0,0,0,0,0,0,0,0,0,-1,1056,547,0,0
-161,477,0,0,0,0,0,0,0,0,0,-1,1063,547,0,0
-154,477,0,0,0,0,0,0,0,0,0,-1,1070,547,0,0
-147,477,0,0,0,0,0,0,0,0,0,-1,1077,547,0,0
-140,477,0,0,0,0,0,0,0,0,0,-1,1084,547,0,0
-133,477,0,0,0,0,0,0,0,0,0,-1,1091,547,0,0
-126,477,0,0,0,0,0,0,0,0,0,-1,1098,547,0,0
-119,477,0,0,0,0,0,0,0,0,0,-1,1105,547,0,0
-112,477,0,0,0,0,0,0,0,0,0,-1,1112,547,0,0
-105,477,0,0,0,0,0,0,0,0,0,-1,1119,547,0,0
-98,477,0,0,0,0,0,0,0,0,0,-1,1126,547,0,0
-91,477,0,0,0,0,0,0,0,0,0,-1,1133,547,0,0
-84,477,0,0,0,0,0,0,0,0,0,-1,1140,547,0,0
-77,477,0,0,0,0,0,0,0,0,0,-1,1147,547,0,0
-70,477,0,0,0,0,0,0,0,0,0,-1,1154,547,0,0
-63,477,0,0,0,0,0,0,0,0,0,-1,1161,547,0,0
-56,477,0,0,0,0,0,0,0,0,0,-1,1168,547,0,0
-49,477,0,0,0,0,0,0,0,0,0,-1,1175,547,0,0
-42,477,0,0,0,0,0,0,0,0,0,-1,1182,547,0,0
-35,477,0,0,0,0,0,0,0,0,0,-1,1189,547,0,0
-28,477,0,0,0,0,0,0,0,0,0,-1,1196,547,0,0
-21,477,0,0,0,0,0,0,0,0,0,-1,1203,547,0,0
-14,477,0,0,0,0,0,0,0,0,0,-1,1210,547,0,0
-7,477,0,0,0,0,0,0,0,0,0,-1,1217,547,0,0
0,477,0,0,0,0,0,0,0,0,0,-1,1224,547,0,0
7,477,0,0,0,0,0,0,0,0,0,-1,1231,547,0,0
14,477,0,0,0,0,0,0,0,0,0,-1,1238,547,0,0
21,477,0,0,0,0,0,0,0,0,0,-1,1245,547,0,0
28,477,0,0,0,0,0,0,0,0,0,-1,1252,547,0,0
35,477,0,0,0,0,0,0,0,0,0,-1,1259,547,0,0
42,477,0,0,0,0,0,0,0,0,0,-1,1266,547,0,0
49,477,0,0,0,0,0,0,0,0,0,-1,1273,547,0,0
56,477,0,0,0,0,0,0,0,0,0,-1,1280,547,0,0
63,477,0,0,0,0,0,0,0,0,0,-1,1287,547,0,0
70,477,0,0,0,0,0,0,0,0,0,-1,1294,547,0,0
77,477,0,0,0,0,0,0,0,0,0,-1,1301,547,0,0
84,477,0,0,0,0,0,0,0,0,0,-1,1308,547,0,0
91,477,0,0,0,0,0,0,0,0,0,-1,1315,547,0,0
98,477,0,0,0,0,0,0,0,0,0,-1,1322,547,0,0
105,477,0,0,0,0,0,0,0,0,0,-1,1329,547,0,0
112,477,0,0,0,0,0,0,0,0,0,-1,1336,547,0,0
119,477,0,0,0,0,0,0,0,0,0,-1,1343,547,0,0
126,477,0,0,0,0,0,0,0,0,0,-1,1350,547,0,0
133,477,0,0,0,0,0,0,0,0,0,-1,1357,547,0,0
140,477,0,0,0,0,0,0,0,0,0,-1,1364,547,0,0
147,477,0,0,0,0,0,0,0,0,0,-1,1371,547,0,0
154,477,0,0,0,0,0,0,0,0,0,-1,1378,547,0,0
161,477,0,0,0,0,0,0,0,0,0,-1,1385,547,0,0
168,477,0,0,0,0,0,0,0,0,0,-1,1392,547,0,0
175,477,0,0,0,0,0,0,0,0,0,-1,1399,547,0,0
182,477,0,0,0,0,0,0,0,0,0,-1,1406,547,0,0
189,477,0,0,0,0,0,0,0,0,0,-1,1413,547,0,0
196,477,0,0,0,0,0,0,0,0,0,-1,1420,547,0,0
203,477,0,0,0,0,0,0,0,0,0,-1,1427,547,0,0
210,477,0,0,0,0,0,0,0,0,0,-1,1434,547,0,0
217,477,0,0,0,0,0,0,0,0,0,-1,1441,547,0,0
224,477,0,0,0,0,0,0,0,0,0,-1,1448,547,0,0
231,477,0,0,0,0,0,0,0,0,0,-1,1455,547,0,0
238,477,0,0,0,0,0,0,0,0,0,-1,1462,547,0,0
245,477,0,0,0,0,0,0,0,0,0,-1,1469,547,0,0
252,477,0,0,0,0,0,0,0,0,0,-1,1476,547,0,0
259,477,0,0,0,0,0,0,0,0,0,-1,1483,547,0,0
266,477,0,0,0,0,0,0,0,0,0,-1,1490,547,0,0
273,477,0,0,0,0,0,0,0,0,0,-1,1497,547,0,0
280,477,0,0,0,0,0,0,0,0,0,-1,1504,547,0,0
287,477,0,0,0,0,0,0,0,0,0,-1,1511,547,0,0
294,477,0,0,0,0,0,0,0,0,0,-1,1518,547,0,0
301,477,0,0,0,0,0,0,0,0,0,-1,1525,547,0,0
308,477,0,0,0,0,0,0,0,0,0,-1,1532,547,0,0
315,477,0,0,0,0,0,0,0,0,0,-1,1539,547,0,0
322,477,0,0,0,0,0,0,0,0,0,-1,1546,547,0,0
329,477,0,0,0,0,0,0,0,0,0,-1,1553,547,0,0
336,477,0,0,0,0,0,0,0,0,0,-1,1560,547,0,0
343,477,0,0,0,0,0,0,0,0,0,-1,1567,547,0,0
350,477,-0.269653,-1.56549,0,0,0,0,0,0,0,-1,1574,547,-0.26969,1.56551
357,477,9.10046,-4.29822,0,0,0,0,0,0,0,-1,1581,547,9.10045,4.29824
364,477,8.11157,-3.48022,-0.113236,0.022451,0.00492902,0.0226298,-0.113415,1.53453,0.0841733,0.0439422,1588,547,8.11154,3.48024
371,477,7.07642,-2.69861,-0.0993828,0.00751891,0.00559551,0.00781099,-0.0996749,1.51864,0.0692007,0.0476145,1595,547,7.07638,2.69859
378,477,6.08118,-1.77832,-0.0886672,-0.00573066,0.0056863,-0.00534262,-0.0890552,1.50266,0.0576718,0.0450867,1602,547,6.08123,1.77832
385,477,5.4563,-1.05988,-0.0754723,-0.0150097,0.00464814,-0.0146545,-0.0758275,1.49452,0.046444,0.0409023,1609,547,5.45632,1.05986
392,477,4.77686,-0.557495,-0.0624446,-0.0206327,0.00245575,-0.020489,-0.0625883,1.51233,0.0368464,0.0388279,1616,547,4.77685,0.557494
399,477,4.16333,-0.298279,-0.0502379,-0.0237245,2.23411e-05,-0.0237245,-0.0502379,1.56995,0.0290197,0.0431355,1623,547,4.16332,0.298268
406,477,3.71167,-0.207397,-0.0389192,-0.0247105,-0.0021967,-0.0243786,-0.0392511,-1.42086,0.0228821,0.0452755,1630,547,3.71171,0.207372
413,477,3.42346,0.299805,0,0,0,0,0,0,0,-1,1637,547,3.42348,-0.299833
420,477,2.80762,0.165039,0,0,0,0,0,0,0,-1,1644,547,2.80766,-0.165017
427,477,2.22412,-0.3797,0,0,0,0,0,0,0,-1,1651,547,2.22417,0.379676
434,477,2.75256,-0.792297,0,0,0,0,0,0,0,-1,1658,547,2.75257,0.792267
441,477,3.33105,-1.31683,-0.00392851,-0.0150108,-0.00692093,-0.000603795,-0.0183355,-0.447834,0.0120275,0.0457147,1665,547,3.33104,1.31685
448,477,3.02441,-1.15356,-0.000472844,-0.0119415,-0.00672609,0.00263155,-0.0150459,-0.432413,0.0110131,0.042142,1672,547,3.02444,1.15355
455,477,2.83264,-0.948181,0.00139683,-0.00824045,-0.00616354,0.00440178,-0.0112454,-0.453627,0.00931747,0.0337662,1679,547,2.83259,0.948183
462,477,2.66675,-0.852539,0.00203642,-0.00538992,-0.00522388,0.00473235,-0.00808585,-0.476427,0.00748454,0.021838,1686,547,2.66676,0.852511
469,477,2.66174,-0.770569,0.00162394,-0.00384144,-0.00422498,0.00392296,-0.00614045,-0.498339,0.00585694,0.0148054,1693,547,2.6617,0.770587
476,477,2.65369,-0.722229,0.00137639,-0.00234248,-0.0033106,0.003314,-0.00428009,-0.529522,0.00439626,0.0153905,1700,547,2.65373,0.722236
483,477,2.65698,-0.700867,0.00108555,-0.000983848,-0.00238527,0.00265087,-0.00254917,-0.580753,0.00300244,0.0107788,1707,547,2.65694,0.70088
490,477,2.66821,-0.661011,0.000161229,-0.000188212,-0.00177338,0.00176848,-0.00179546,-0.736295,0.00205766,0.0107569,1714,547,2.66818,0.661004
497,477,2.66382,-0.600281,-0.00025046,0.000205235,-0.00106268,0.00106422,-0.00110945,-0.891003,0.00125506,0.0135109,1721,547,2.66385,0.600271
504,477,2.65002,-0.536804,-0.000373075,0.000893917,-0.000781432,0.00126638,-0.000745538,-1.12601,0.00117448,0.0185654,1728,547,2.65005,0.536782
511,477,2.65454,-0.516235,-0.000203626,0.00254044,-0.000520029,0.00263569,-0.000298871,-1.38965,0.00186475,0.02141,1735,547,2.65457,0.516207
518,477,2.67102,-0.494751,0.000554714,0.00571158,0.000412952,0.00574444,0.000521855,1.49139,0.00366807,0.0175626,1742,547,2.67103,0.494749
525,477,2.66028,-0.457764,0.00159578,0.00779041,0.00194393,0.0083499,0.00103629,1.29056,0.00525534,0.0154382,1749,547,2.66024,0.457785
532,477,2.67603,-0.430969,0.00291444,0.0110462,0.00317504,0.012139,0.00182162,1.2393,0.00755901,0.0197942,1756,547,2.67599,0.430952
539,477,2.64734,-0.333069,0.0046436,0.0153819,0.00482421,0.0172308,0.00279466,1.2048,0.0106782,0.0166307,1763,547,2.64729,0.333085
546,477,2.65308,-0.285095,0.00690451,0.0202117,0.00702118,0.0232311,0.00388509,1.16466,0.0143685,0.0168009,1770,547,2.65308,0.285089
553,477,2.64148,-0.286438,0.00971796,0.0256179,0.00969965,0.0302092,0.00512658,1.12869,0.0186668,0.015764,1777,547,2.64147,0.286444
560,477,2.68506,-0.240112,0.0131155,0.0315114,0.0128422,0.0381098,0.00651714,1.09617,0.0235369,0.0306531,1784,547,2.6851,0.24011
567,477,2.63464,0.0549316,0.0171814,0.0378532,0.016465,0.0469576,0.00807693,1.06569,0.0289903,0.0388573,1791,547,2.63462,-0.0549455
574,477,2.71313,0.226135,0,0,0,0,0,0,0,-1,1798,547,2.71313,-0.226143
581,477,2.94373,0.129639,0.0268608,0.0506811,0.0241013,0.0656545,0.0118874,1.01488,0.0403945,0.0437084,1805,547,2.94371,-0.129636
588,477,3.15857,0.0322266,0.0322782,0.0565974,0.027485,0.0744924,0.0143832,0.99366,0.0456292,0.0483904,1812,547,3.15859,-0.0322063
595,477,3.33679,-0.0372925,0,0,0,0,0,0,0,-1,1819,547,3.33679,0.0372821
602,477,3.79773,0.855408,0,0,0,0,0,0,0,-1,1826,547,3.79776,-0.855415
609,477,0,0,0,0,0,0,0,0,0,-1,1833,547,0,0
616,477,0,0,0,0,0,0,0,0,0,-1,1840,547,0,0
623,477,0,0,0,0,0,0,0,0,0,-1,1847,547,0,0
630,477,0,0,0,0,0,0,0,0,0,-1,1854,547,0,0
637,477,0,0,0,0,0,0,0,0,0,-1,1861,547,0,0
644,477,0,0,0,0,0,0,0,0,0,-1,1868,547,0,0
651,477,0,0,0,0,0,0,0,0,0,-1,1875,547,0,0
658,477,0,0,0,0,0,0,0,0,0,-1,1882,547,0,0
665,477,0,0,0,0,0,0,0,0,0,-1,1889,547,0,0
672,477,0,0,0,0,0,0,0,0,0,-1,1896,547,0,0
679,477,0,0,0,0,0,0,0,0,0,-1,1903,547,0,0
686,477,0,0,0,0,0,0,0,0,0,-1,1910,547,0,0
693,477,0,0,0,0,0,0,0,0,0,-1,1917,547,0,0
700,477,0,0,0,0,0,0,0,0,0,-1,1924,547,0,0
707,477,0,0,0,0,0,0,0,0,0,-1,1931,547,0,0
714,477,0,0,0,0,0,0,0,0,0,-1,1938,547,0,0
721,477,0,0,0,0,0,0,0,0,0,-1,1945,547,0,0
728,477,0,0,0,0,0,0,0,0,0,-1,1952,547,0,0
735,477,0,0,0,0,0,0,0,0,0,-1,1959,547,0,0
742,477,0,0,0,0,0,0,0,0,0,-1,1966,547,0,0
749,477,0,0,0,0,0,0,0,0,0,-1,1973,547,0,0
756,477,0,0,0,0,0,0,0,0,0,-1,1980,547,0,0
763,477,0,0,0,0,0,0,0,0,0,-1,1987,547,0,0
770,477,0,0,0,0,0,0,0,0,0,-1,1994,547,0,0
777,477,0,0,0,0,0,0,0,0,0,-1,2001,547,0,0
784,477,0,0,0,0,0,0,0,0,0,-1,2008,547,0,0
791,477,0,0,0,0,0,0,0,0,0,-1,2015,547,0,0
798,477,0,0,0,0,0,0,0,0,0,-1,2022,547,0,0
805,477,0,0,0,0,0,0,0,0,0,-1,2029,547,0,0
812,477,0,0,0,0,0,0,0,0,0,-1,2036,547,0,0
-700,470,0,0,0,0,0,0,0,0,0,-1,524,554,0,0
-693,470,0,0,0,0,0,0,0,0,0,-1,531,554,0,0
-686,470,0,0,0,0,0,0,0,0,0,-1,538,554,0,0
-679,470,0,0,0,0,0,0,0,0,0,-1,545,554,0,0
-672,470,0,0,0,0,0,0,0,0,0,-1,552,554,0,0
-665,470,0,0,0,0,0,0,0,0,0,-1,559,554,0,0
-658,470,0,0,0,0,0,0,0,0,0,-1,566,554,0,0
-651,470,0,0,0,0,0,0,0,0,0,-1,573,554,0,0
-644,470,0,0,0,0,0,0,0,0,0,-1,580,554,0,0
-637,470,0,0,0,0,0,0,0,0,0,-1,587,554,0,0
-630,470,0,0,0,0,0,0,0,0,0,-1,594,554,0,0
-623,470,0,0,0,0,0,0,0,0,0,-1,601,554,0,0
-616,470,0,0,0,0,0,0,0,0,0,-1,608,554,0,0
-609,470,0,0,0,0,0,0,0,0,0,-1,615,554,0,0
-602,470,0,0,0,0,0,0,0,0,0,-1,622,554,0,0
-595,470,0,0,0,0,0,0,0,0,0,-1,629,554,0,0
-588,470,0,0,0,0,0,0,0,0,0,-1,636,554,0,0
-581,470,0,0,0,0,0,0,0,0,0,-1,643,554,0,0
-574,470,0,0,0,0,0,0,0,0,0,-1,650,554,0,0
-567,470,0,0,0,0,0,0,0,0,0,-1,657,554,0,0
-560,470,0,0,0,0,0,0,0,0,0,-1,664,554,0,0
-553,470,0,0,0,0,0,0,0,0,0,-1,671,554,0,0
-546,470,0,0,0,0,0,0,0,0,0,-1,678,554,0,0
-539,470,0,0,0,0,0,0,0,0,0,-1,685,554,0,0
-532,470,0,0,0,0,0,0,0,0,0,-1,692,554,0,0
-525,470,0,0,0,0,0,0,0,0,0,-1,699,554,0,0
-518,470,0,0,0,0,0,0,0,0,0,-1,706,554,0,0
-511,470,0,0,0,0,0,0,0,0,0,-1,713,554,0,0
-504,470,0,0,0,0,0,0,0,0,0,-1,720,554,0,0
-497,470,0,0,0,0,0,0,0,0,0,-1,727,554,0,0
-490,470,-0.309937,0.678467,0.00657982,0.0274152,0.00777367,0.0299959,0.00399912,1.25026,0.0188065,0.0439895,734,554,-0.309912,-0.678479
-483,470,-0.00579834,0.200012,0.0099856,0.0213957,0.0111799,0.0282421,0.00313926,1.02132,0.0178738,0.0437333,741,554,-0.00579235,-0.199992
-476,470,-0.210815,-1.24139,0,0,0,0,0,0,0,-1,748,554,-0.210801,1.2414
-469,470,0.0945435,-1.11029,0.0107009,0.0117148,0.0147349,0.0259515,-0.00353577,0.802594,0.018592,0.0475602,755,554,0.0945186,1.11026
-462,470,0.483887,-0.955994,0.00877599,0.00734499,0.0150254,0.0231029,-0.00698196,0.761607,0.0181818,0.0456305,762,554,0.483907,0.956021
-455,470,1.1499,-0.582642,0,0,0,0,0,0,0,-1,769,554,1.14993,0.582625
-448,470,1.08606,-0.0137939,0,0,0,0,0,0,0,-1,776,554,1.08607,0.0138163
-441,470,1.1087,-0.0998535,0.000354323,-0.000363356,0.00988728,0.00988927,-0.0098983,0.76726,0.0114244,0.0411173,783,554,1.10868,0.0998478
-434,470,1.12,-0.227539,-0.00116218,-0.00164765,0.00822827,0.00682693,-0.00963676,0.770652,0.00955135,0.0202228,790,554,1.11997,0.227514
-427,470,1.10406,-0.244873,-0.00216779,-0.00229783,0.00658973,0.00435724,-0.00882286,0.780465,0.00775376,0.00961543,797,554,1.10409,0.24485
-420,470,1.11163,-0.28479,-0.00295963,-0.00260425,0.00481097,0.00203231,-0.0075962,0.803857,0.00586024,0.0113373,804,554,1.11163,0.284776
-413,470,1.12183,-0.323486,-0.00372493,-0.00314966,0.00258696,-0.000834396,-0.00604019,0.840764,0.00377949,0.0119722,811,554,1.12181,0.323462
-406,470,1.10114,-0.365173,-0.00444524,-0.00283398,0.00095344,-0.00239137,-0.00488784,1.13618,0.00282221,0.00927463,818,554,1.10116,0.365152
-399,470,1.13574,-0.425537,-0.00414487,-0.00201657,0.000338045,-0.00196417,-0.00419727,1.417,0.00242495,0.0126708,825,554,1.13576,0.425539
-392,470,1.12811,-0.472046,-0.00304091,-0.0014948,0.00065407,-0.00125522,-0.00328048,1.21969,0.0019113,0.0145708,832,554,1.12813,0.472022
-385,470,1.12842,-0.495178,-0.00231353,-0.00118937,0.000815022,-0.000761402,-0.0027415,1.08727,0.0016341,0.0105022,839,554,1.12841,0.495207
-378,470,1.11853,-0.545776,-0.00200832,-0.000859637,0.0012232,-8.26508e-05,-0.00278531,1.00489,0.00182995,0.014467,846,554,1.11851,0.545787
-371,470,1.12366,-0.578186,-0.00182431,-0.000798336,0.00161575,0.000383912,-0.00300656,0.93911,0.00214383,0.0131245,853,554,1.12366,0.578166
-364,470,1.11621,-0.620056,-0.000433513,-0.000994412,0.00173671,0.00104525,-0.00247317,0.705348,0.00208638,0.0126919,860,554,1.11621,0.620027
-357,470,1.10535,-0.675232,0.00165636,-0.000435927,0.00123288,0.00222713,-0.0010067,0.433576,0.00191086,0.0117954,867,554,1.10533,0.675257
-350,470,1.11963,-0.723022,0.00379238,-1.77257e-05,0.00066771,0.00390601,-0.000131351,0.168558,0.00264887,0.00866972,874,554,1.1196,0.722997
-343,470,1.11926,-0.759094,0.00699853,0.00025866,7.17132e-05,0.00699929,0.000257897,0.0106385,0.00458265,0.0164503,881,554,1.11929,0.759097
-336,470,1.05298,-0.811523,0.0115203,0.000920615,-0.000940025,0.011603,0.000837896,-0.0877714,0.00747172,0.0236983,888,554,1.05298,0.811534
-329,470,1.07666,-0.823303,0.0176186,0.00127235,-0.00291772,0.0181238,0.000767168,-0.171444,0.0118351,0.0321902,895,554,1.07667,0.823287
-322,470,1.16803,-0.876831,0.0249405,0.00231419,-0.00542897,0.0261757,0.00107899,-0.223712,0.0171021,0.0374501,902,554,1.16804,0.876816
-315,470,1.34589,-0.834167,0.0334325,0.00356344,-0.00847261,0.0356685,0.00132749,-0.25802,0.0233491,0.0402483,909,554,1.34589,0.834195
-308,470,1.50989,-0.480286,0.0422947,0.00630332,-0.0123147,0.0461049,0.00249315,-0.300059,0.0299401,0.0429492,916,554,1.50988,0.480285
-301,470,0.258301,-0.55365,0,0,0,0,0,0,0,-1,923,554,0.258309,0.553622
-294,470,-0.0432129,-1.21582,0,0,0,0,0,0,0,-1,930,554,-0.0432269,1.21583
-287,470,1.20264,-2.30469,0,0,0,0,0,0,0,-1,937,554,1.20261,2.30472
-280,470,0.909119,-1.7276,0,0,0,0,0,0,0,-1,944,554,0.909103,1.72759
-273,470,0.207275,-0.444519,0,0,0,0,0,0,0,-1,951,554,0.207305,0.444545
-266,470,0.282654,-0.191284,0,0,0,0,0,0,0,-1,958,554,0.282665,0.191298
-259,470,1.53186,-2.82666,0,0,0,0,0,0,0,-1,965,554,1.53187,2.82664
-252,470,1.44788,-2.93378,0,0,0,0,0,0,0,-1,972,554,1.4479,2.93376
-245,470,2.43671,2.97681,0,0,0,0,0,0,0,-1,979,554,2.43673,-2.97678
-238,470,0,0,0,0,0,0,0,0,0,-1,986,554,0,0
-231,470,0,0,0,0,0,0,0,0,0,-1,993,554,0,0
-224,470,0,0,0,0,0,0,0,0,0,-1,1000,554,0,0
-217,470,0,0,0,0,0,0,0,0,0,-1,1007,554,0,0
-210,470,0,0,0,0,0,0,0,0,0,-1,1014,554,0,0
-203,470,0,0,0,0,0,0,0,0,0,-1,1021,554,0,0
-196,470,0,0,0,0,0,0,0,0,0,-1,1028,554,0,0
-189,470,0,0,0,0,0,0,0,0,0,-1,1035,554,0,0
-182,470,0,0,0,0,0,0,0,0,0,-1,1042,554,0,0
-175,470,0,0,0,0,0,0,0,0,0,-1,1049,554,0,0
-168,470,0,0,0,0,0,0,0,0,0,-1,1056,554,0,0
-161,470,0,0,0,0,0,0,0,0,0,-1,1063,554,0,0
-154,470,0,0,0,0,0,0,0,0,0,-1,1070,554,0,0
-147,470,0,0,0,0,0,0,0,0,0,-1,1077,554,0,0
-140,470,0,0,0,0,0,0,0,0,0,-1,1084,554,0,0
-133,470,0,0,0,0,0,0,0,0,0,-1,1091,554,0,0
-126,470,0,0,0,0,0,0,0,0,0,-1,1098,554,0,0
-119,470,0,0,0,0,0,0,0,0,0,-1,1105,554,0,0
-112,470,0,0,0,0,0,0,0,0,0,-1,1112,554,0,0
-105,470,0,0,0,0,0,0,0,0,0,-1,1119,554,0,0
-98,470,0,0,0,0,0,0,0,0,0,-1,1126,554,0,0
-91,470,0,0,0,0,0,0,0,0,0,-1,1133,554,0,0
-84,470,0,0,0,0,0,0,0,0,0,-1,1140,554,0,0
-77,470,0,0,0,0,0,0,0,0,0,-1,1147,554,0,0
-70,470,0,0,0,0,0,0,0,0,0,-1,1154,554,0,0
-63,470,0,0,0,0,0,0,0,0,0,-1,1161,554,0,0
-56,470,0,0,0,0,0,0,0,0,0,-1,1168,554,0,0
-49,470,0,0,0,0,0,0,0,0,0,-1,1175,554,0,0
-42,470,0,0,0,0,0,0,0,0,0,-1,1182,554,0,0
-35,470,0,0,0,0,0,0,0,0,0,-1,1189,554,0,0
-28,470,0,0,0,0,0,0,0,0,0,-1,1196,554,0,0
-21,470,0,0,0,0,0,0,0,0,0,-1,1203,554,0,0
-14,470,0,0,0,0,0,0,0,0,0,-1,1210,554,0,0
-7,470,0,0,0,0,0,0,0,0,0,-1,1217,554,0,0
0,470,0,0,0,0,0,0,0,0,0,-1,1224,554,0,0
7,470,0,0,0,0,0,0,0,0,0,-1,1231,554,0,0
14,470,0,0,0,0,0,0,0,0,0,-1,1238,554,0,0
21,470,0,0,0,0,0,0,0,0,0,-1,1245,554,0,0
28,470,0,0,0,0,0,0,0,0,0,-1,1252,554,0,0
35,470,0,0,0,0,0,0,0,0,0,-1,1259,554,0,0
42,470,0,0,0,0,0,0,0,0,0,-1,1266,554,0,0
49,470,0,0,0,0,0,0,0,0,0,-1,1273,554,0,0
56,470,0,0,0,0,0,0,0,0,0,-1,1280,554,0,0
63,470,0,0,0,0,0,0,0,0,0,-1,1287,554,0,0
70,470,0,0,0,0,0,0,0,0,0,-1,1294,554,0,0
77,470,0,0,0,0,0,0,0,0,0,-1,1301,554,0,0
84,470,0,0,0,0,0,0,0,0,0,-1,1308,554,0,0
91,470,0,0,0,0,0,0,0,0,0,-1,1315,554,0,0
98,470,0,0,0,0,0,0,0,0,0,-1,1322,554,0,0
105,470,0,0,0,0,0,0,0,0,0,-1,1329,554,0,0
112,470,0,0,0,0,0,0,0,0,0,-1,1336,554,0,0
119,470,0,0,0,0,0,0,0,0,0,-1,1343,554,0,0
126,470,0,0,0,0,0,0,0,0,0,-1,1350,554,0,0
133,470,0,0,0,0,0,0,0,0,0,-1,1357,554,0,0
140,470,0,0,0,0,0,0,0,0,0,-1,1364,554,0,0
147,470,0,0,0,0,0,0,0,0,0,-1,1371,554,0,0
154,470,0,0,0,0,0,0,0,0,0,-1,1378,554,0,0
161,470,0,0,0,0,0,0,0,0,0,-1,1385,554,0,0
168,470,0,0,0,0,0,0,0,0,0,-1,1392,554,0,0
175,470,0,0,0,0,0,0,0,0,0,-1,1399,554,0,0
182,470,0,0,0,0,0,0,0,0,0,-1,1406,554,0,0
189,470,0,0,0,0,0,0,0,0,0,-1,1413,554,0,0
196,470,0,0,0,0,0,0,0,0,0,-1,1420,554,0,0
203,470,0,0,0,0,0,0,0,0,0,-1,1427,554,0,0
210,470,0,0,0,0,0,0,0,0,0,-1,1434,554,0,0
217,470,0,0,0,0,0,0,0,0,0,-1,1441,554,0,0
224,470,0,0,0,0,0,0,0,0,0,-1,1448,554,0,0
231,470,0,0,0,0,0,0,0,0,0,-1,1455,554,0,0
238,470,0,0,0,0,0,0,0,0,0,-1,1462,554,0,0
245,470,0,0,0,0,0,0,0,0,0,-1,1469,554,0,0
252,470,0,0,0,0,0,0,0,0,0,-1,1476,554,0,0
259,470,0,0,0,0,0,0,0,0,0,-1,1483,554,0,0
266,470,0,0,0,0,0,0,0,0,0,-1,1490,554,0,0
273,470,0,0,0,0,0,0,0,0,0,-1,1497,554,0,0
280,470,0,0,0,0,0,0,0,0,0,-1,1504,554,0,0
287,470,0,0,0,0,0,0,0,0,0,-1,1511,554,0,0
294,470,0,0,0,0,0,0,0,0,0,-1,1518,554,0,0
301,470,0,0,0,0,0,0,0,0,0,-1,1525,554,0,0
308,470,0,0,0,0,0,0,0,0,0,-1,1532,554,0,0
315,470,0,0,0,0,0,0,0,0,0,-1,1539,554,0,0
322,470,0,0,0,0,0,0,0,0,0,-1,1546,554,0,0
329,470,0,0,0,0,0,0,0,0,0,-1,1553,554,0,0
336,470,0,0,0,0,0,0,0,0,0,-1,1560,554,0,0
343,470,0,0,0,0,0,0,0,0,0,-1,1567,554,0,0
350,470,0,0,0,0,0,0,0,0,0,-1,1574,554,0,0
357,470,0,0,0,0,0,0,0,0,0,-1,1581,554,0,0
364,470,9.15955,-3.76404,0,0,0,0,0,0,0,-1,1588,554,9.15951,3.76403
371,470,8.11926,-2.92694,0,0,0,0,0,0,0,-1,1595,554,8.1193,2.92694
378,470,6.18213,-1.4845,-0.105833,-0.00970224,0.0150424,-0.00740341,-0.108132,1.41915,0.0697512,0.0471562,1602,554,6.18212,1.48449
385,470,5.6908,-0.866272,-0.087035,-0.0187102,0.0116546,-0.0167769,-0.0889683,1.40641,0.0545862,0.0471543,1609,554,5.69077,0.866285
392,470,4.91638,-0.32666,-0.069536,-0.0239025,0.00722293,-0.0227865,-0.070652,1.41751,0.0416387,0.0424122,1616,554,4.91633,0.326676
399,470,4.19238,0.181213,-0.0543159,-0.0268845,0.00300882,-0.0265584,-0.054642,1.46282,0.0315517,0.0430443,1623,554,4.19233,-0.181207
406,470,3.58252,0.272156,-0.040653,-0.0276624,-0.000531794,-0.0276406,-0.0406747,-1.52995,0.023983,0.0464358,1630,554,3.5825,-0.272167
413,470,3.24707,0.852356,0,0,0,0,0,0,0,-1,1637,554,3.24703,-0.852355
420,470,2.97046,1.245,0,0,0,0,0,0,0,-1,1644,554,2.97043,-1.245
427,470,3.82727,-0.638916,0,0,0,0,0,0,0,-1,1651,554,3.82732,0.638893
434,470,3.51501,-1.0321,-0.00517668,-0.0210252,-0.00760317,-0.00211905,-0.0240829,-0.382361,0.0153976,0.0458551,1658,554,3.51506,1.03208
441,470,3.45496,-1.26855,-0.00100452,-0.0170692,-0.00794054,0.00225786,-0.0203316,-0.389825,0.0143663,0.0441368,1665,554,3.45497,1.26858
448,470,3.37585,-1.25702,0,0,0,0,0,0,0,-1,1672,554,3.3758,1.25704
455,470,2.97424,-1.03339,0.00412841,-0.00985823,-0.00724888,0.00720746,-0.0129373,-0.40167,0.0117864,0.0421266,1679,554,2.97429,1.03336
462,470,2.8009,-0.878113,0.00435213,-0.00688359,-0.00616402,0.00707426,-0.00960572,-0.415861,0.00966709,0.0384385,1686,554,2.80089,0.878142
469,470,2.72546,-0.776489,0.00346581,-0.00520792,-0.00497367,0.00572787,-0.00746998,-0.426844,0.00764188,0.0280589,1693,554,2.7255,0.776485
476,470,2.6759,-0.729187,0.00283501,-0.00356298,-0.00389042,0.00467277,-0.00540075,-0.44131,0.00582101,0.0150986,1700,554,2.67593,0.729183
483,470,2.69812,-0.700073,0.00226047,-0.00205173,-0.00280166,0.00363964,-0.00343089,-0.457441,0.00408276,0.0110816,1707,554,2.69816,0.700078
490,470,2.70825,-0.653687,0.000900636,-0.00123109,-0.00209337,0.00218387,-0.00251433,-0.549923,0.00271475,0.0110696,1714,554,2.70825,0.65366
497,470,2.71021,-0.594849,0.000195186,-0.000804479,-0.00123284,0.00102567,-0.00163496,-0.592808,0.00154948,0.0122908,1721,554,2.71026,0.59484
504,470,2.70056,-0.546448,-6.7986e-05,-0.000155937,-0.000800581,0.000689827,-0.000913749,-0.757961,0.000928829,0.019193,1728,554,2.7006,0.546443
511,470,2.71362,-0.571533,-9.31406e-05,0.00118883,-0.000458239,0.00133578,-0.000240093,-1.26047,0.000980401,0.0252374,1735,554,2.71362,0.57153
518,470,2.75537,-0.512878,0.000481156,0.00360687,0.000339076,0.00364323,0.000444797,1.46397,0.00229497,0.0230312,1742,554,2.75536,0.512869
525,470,2.71606,-0.442993,0.00128436,0.00518763,0.0015589,0.0057338,0.000738186,1.2338,0.00360177,0.0146583,1749,554,2.71607,0.442999
532,470,2.69263,-0.387329,0.0022805,0.00761712,0.0025425,0.00863448,0.00126313,1.19017,0.00538489,0.0138996,1756,554,2.69258,0.387328
539,470,2.7085,-0.341736,0.00358413,0.0109349,0.00388652,0.0126087,0.00191035,1.16414,0.00784689,0.0150098,1763,554,2.70853,0.34175
546,470,2.698,-0.308228,0.00530069,0.0145556,0.00558936,0.0171844,0.00267181,1.13116,0.0106777,0.013609,1770,554,2.69803,0.308245
553,470,2.68848,-0.281006,0.00742197,0.0185468,0.0075859,0.0223911,0.00357766,1.10175,0.0138893,0.0103097,1777,554,2.68845,0.280983
560,470,2.70386,-0.223083,0.0100073,0.0228762,0.00988586,0.0282372,0.00464635,1.07389,0.0174831,0.0118936,1784,554,2.70386,0.223061
567,470,2.68628,-0.168457,0.0131558,0.0275821,0.0125177,0.0348162,0.00592167,1.04678,0.0215104,0.0147753,1791,554,2.68623,0.168465
574,470,2.8938,-0.238464,0,0,0,0,0,0,0,-1,1798,554,2.89381,0.23844
581,470,3.09387,-0.483215,0.0208563,0.0373941,0.0179786,0.0489142,0.00933619,1.00094,0.0299859,0.0499264,1805,554,3.09387,0.483228
588,470,3.24292,-0.530701,0.0253162,0.0421634,0.0203425,0.0557574,0.0117223,0.981695,0.0339457,0.0478056,1812,554,3.24296,0.530713
595,470,2.76355,0.462891,0,0,0,0,0,0,0,-1,1819,554,2.76361,-0.462866
602,470,3.67542,1.00299,0,0,0,0,0,0,0,-1,1826,554,3.67543,-1.00301
609,470,4.41345,1.26654,0,0,0,0,0,0,0,-1,1833,554,4.41346,-1.26657
616,470,0,0,0,0,0,0,0,0,0,-1,1840,554,0,0
623,470,0,0,0,0,0,0,0,0,0,-1,1847,554,0,0
630,470,0,0,0,0,0,0,0,0,0,-1,1854,554,0,0
637,470,0,0,0,0,0,0,0,0,0,-1,1861,554,0,0
644,470,0,0,0,0,0,0,0,0,0,-1,1868,554,0,0
651,470,0,0,0,0,0,0,0,0,0,-1,1875,554,0,0
658,470,0,0,0,0,0,0,0,0,0,-1,1882,554,0,0
665,470,0,0,0,0,0,0,0,0,0,-1,1889,554,0,0
672,470,0,0,0,0,0,0,0,0,0,-1,1896,554,0,0
679,470,0,0,0,0,0,0,0,0,0,-1,1903,554,0,0
686,470,0,0,0,0,0,0,0,0,0,-1,1910,554,0,0
693,470,0,0,0,0,0,0,0,0,0,-1,1917,554,0,0
700,470,0,0,0,0,0,0,0,0,0,-1,1924,554,0,0
707,470,0,0,0,0,0,0,0,0,0,-1,1931,554,0,0
714,470,0,0,0,0,0,0,0,0,0,-1,1938,554,0,0
721,470,0,0,0,0,0,0,0,0,0,-1,1945,554,0,0
728,470,0,0,0,0,0,0,0,0,0,-1,1952,554,0,0
735,470,0,0,0,0,0,0,0,0,0,-1,1959,554,0,0
742,470,0,0,0,0,0,0,0,0,0,-1,1966,554,0,0
749,470,0,0,0,0,0,0,0,0,0,-1,1973,554,0,0
756,470,0,0,0,0,0,0,0,0,0,-1,1980,554,0,0
763,470,0,0,0,0,0,0,0,0,0,-1,1987,554,0,0
770,470,0,0,0,0,0,0,0,0,0,-1,1994,554,0,0
777,470,0,0,0,0,0,0,0,0,0,-1,2001,554,0,0
784,470,0,0,0,0,0,0,0,0,0,-1,2008,554,0,0
791,470,0,0,0,0,0,0,0,0,0,-1,2015,554,0,0
798,470,0,0,0,0,0,0,0,0,0,-1,2022,554,0,0
805,470,0,0,0,0,0,0,0,0,0,-1,2029,554,0,0
812,470,0,0,0,0,0,0,0,0,0,-1,2036,554,0,0
-700,463,0,0,0,0,0,0,0,0,0,-1,524,561,0,0
-693,463,0,0,0,0,0,0,0,0,0,-1,531,561,0,0
-686,463,0,0,0,0,0,0,0,0,0,-1,538,561,0,0
-679,463,0,0,0,0,0,0,0,0,0,-1,545,561,0,0
-672,463,0,0,0,0,0,0,0,0,0,-1,552,561,0,0
-665,463,0,0,0,0,0,0,0,0,0,-1,559,561,0,0
-658,463,0,0,0,0,0,0,0,0,0,-1,566,561,0,0
-651,463,0,0,0,0,0,0,0,0,0,-1,573,561,0,0
-644,463,0,0,0,0,0,0,0,0,0,-1,580,561,0,0
-637,463,0,0,0,0,0,0,0,0,0,-1,587,561,0,0
-630,463,0,0,0,0,0,0,0,0,0,-1,594,561,0,0
-623,463,0,0,0,0,0,0,0,0,0,-1,601,561,0,0
-616,463,0,0,0,0,0,0,0,0,0,-1,608,561,0,0
-609,463,0,0,0,0,0,0,0,0,0,-1,615,561,0,0
-602,463,0,0,0,0,0,0,0,0,0,-1,622,561,0,0
-595,463,0,0,0,0,0,0,0,0,0,-1,629,561,0,0
-588,463,0,0,0,0,0,0,0,0,0,-1,636,561,0,0
-581,463,0,0,0,0,0,0,0,0,0,-1,643,561,0,0
-574,463,0,0,0,0,0,0,0,0,0,-1,650,561,0,0
-567,463,0,0,0,0,0,0,0,0,0,-1,657,561,0,0
-560,463,0,0,0,0,0,0,0,0,0,-1,664,561,0,0
-553,463,0,0,0,0,0,0,0,0,0,-1,671,561,0,0
-546,463,0,0,0,0,0,0,0,0,0,-1,678,561,0,0
-539,463,0,0,0,0,0,0,0,0,0,-1,685,561,0,0
-532,463,0,0,0,0,0,0,0,0,0,-1,692,561,0,0
-525,463,0,0,0,0,0,0,0,0,0,-1,699,561,0,0
-518,463,0,0,0,0,0,0,0,0,0,-1,706,561,0,0
-511,463,0,0,0,0,0,0,0,0,0,-1,713,561,0,0
-504,463,0,0,0,0,0,0,0,0,0,-1,720,561,0,0
-497,463,0.297241,1.49945,0,0,0,0,0,0,0,-1,727,561,0.297216,-1.49947
-490,463,0.000244141,0.615234,0.0104593,0.022813,0.000653814,0.0228475,0.0104248,1.51807,0.0132078,0.0458845,734,561,0.000241938,-0.615248
-483,463,-0.224304,0.312012,0.0124505,0.0155016,0.00402845,0.0182837,0.00966841,0.9664,0.0105619,0.0459878,741,561,-0.224326,-0.31202
-476,463,-0.443604,0.198425,0.0131151,0.0109714,0.00673708,0.0188651,0.00522144,0.706512,0.0112477,0.0490118,748,561,-0.443574,-0.198455
-469,463,0.211609,-1.06903,0,0,0,0,0,0,0,-1,755,561,0.211627,1.06903
-462,463,0.550598,-0.872864,0.0108093,0.00441816,0.00925649,0.0174063,-0.00217882,0.61919,0.0123945,0.0467345,762,561,0.550583,0.872883
-455,463,0.902039,-0.492737,0.00812539,0.00217357,0.00924731,0.0148638,-0.00456488,0.629724,0.0117307,0.043358,769,561,0.902046,0.492724
-448,463,1.06232,-0.110901,0.00538742,0.000540627,0.00839746,0.0117042,-0.00577613,0.644921,0.0102839,0.0398074,776,561,1.06233,0.110877
-441,463,1.08252,-0.153992,0.00291309,-0.000614663,0.00712808,0.00849229,-0.00619386,0.664107,0.0085136,0.0249145,783,561,1.08252,0.153966
-434,463,1.08057,-0.200317,0.00129429,-0.00145331,0.00624972,0.00631942,-0.00647844,0.67721,0.00738904,0.00961839,790,561,1.08059,0.200304
-427,463,1.08118,-0.231506,-2.75113e-05,-0.00185466,0.00526282,0.00440044,-0.00628262,0.699459,0.00619969,0.0085305,797,561,1.08116,0.231484
-420,463,1.09326,-0.267212,-0.00124238,-0.00203538,0.00405049,0.00243097,-0.00570873,0.736609,0.0048248,0.00932145,804,561,1.09325,0.267195
-413,463,1.08527,-0.31543,-0.00240246,-0.00229386,0.00238285,3.53039e-05,-0.00473163,0.79679,0.00316625,0.00833583,811,561,1.08527,0.315451
-406,463,1.06073,-0.370239,-0.00338179,-0.00201821,0.00110396,-0.00140248,-0.00399753,1.06202,0.00234196,0.00795613,818,561,1.06075,0.370216
-399,463,1.07135,-0.426758,-0.00345517,-0.00161676,0.000621556,-0.00142634,-0.0036456,1.27351,0.00212132,0.00919839,825,561,1.07132,0.42676
-392,463,1.07825,-0.470886,-0.00285488,-0.00147213,0.000959009,-0.000981262,-0.00334575,1.09771,0.00198593,0.00904649,832,561,1.07823,0.470885
-385,463,1.06641,-0.518066,-0.00241601,-0.00149658,0.00114293,-0.000724371,-0.00318822,0.97661,0.00192988,0.00972237,839,561,1.06638,0.518067
-378,463,1.08893,-0.575378,-0.00227901,-0.00155614,0.00149586,-0.000378667,-0.00345648,0.903938,0.00218904,0.0108619,846,561,1.08895,0.575404
-371,463,1.10645,-0.61499,-0.00197513,-0.00187106,0.00183067,-9.169e-05,-0.0037545,0.799607,0.00247301,0.0107551,853,561,1.10645,0.614985
-364,463,1.09869,-0.640503,-6.25608e-05,-0.00251083,0.00181224,0.000900244,-0.00347364,0.488357,0.00266698,0.0129807,860,561,1.09869,0.640476
-357,463,1.08789,-0.685486,0.00273319,-0.00217868,0.00100302,0.00293011,-0.00237561,0.193866,0.00306883,0.0139696,867,561,1.08789,0.685494
-350,463,1.07428,-0.701538,0.00559135,-0.00187002,0.000126543,0.0055935,-0.00187217,0.0169532,0.00448524,0.0137638,874,561,1.07426,0.701563
-343,463,1.12744,-0.697815,0.00977128,-0.00169636,-0.000852869,0.00983437,-0.00175944,-0.0738305,0.0072146,0.0264657,881,561,1.12746,0.697817
-336,463,1.09186,-0.791016,0.0155363,-0.00100861,-0.00233627,0.0158599,-0.00133218,-0.137624,0.0110441,0.0393274,888,561,1.09183,0.791023
-329,463,1.23254,-0.848572,0.0231247,-0.000446741,-0.0048849,0.0240969,-0.00141898,-0.196462,0.0165579,0.0446476,895,561,1.23256,0.848554
-322,463,1.17297,-0.953369,0.0321523,0.000982474,-0.00809257,0.0341281,-0.000993345,-0.239467,0.0230903,0.0441617,902,561,1.17298,0.95339
-315,463,1.67786,-1.24731,0.0425994,0.00282914,-0.0119058,0.0458911,-0.000462579,-0.269742,0.0307494,0.0432214,909,561,1.67784,1.2473
-308,463,1.84607,-1.0896,0.0534655,0.00628483,-0.0166015,0.0587216,0.00102879,-0.306616,0.0388093,0.0442963,916,561,1.84609,1.08957
-301,463,1.90649,-1.04388,0.0646474,0.0124042,-0.0224399,0.0729626,0.00408911,-0.354864,0.0473376,0.0473474,923,561,1.90646,1.04388
-294,463,2.05994,-1.04645,0,0,0,0,0,0,0,-1,930,561,2.05995,1.04642
-287,463,0.316528,-1.10193,0,0,0,0,0,0,0,-1,937,561,0.316509,1.10191
-280,463,0.585815,-1.172,0,0,0,0,0,0,0,-1,944,561,0.585802,1.17198
-273,463,0.375244,-0.492188,0,0,0,0,0,0,0,-1,951,561,0.375216,0.492175
-266,463,0.501953,-0.285767,0,0,0,0,0,0,0,-1,958,561,0.501967,0.285787
-259,463,0.639771,-0.119812,0,0,0,0,0,0,0,-1,965,561,0.639767,0.119795
-252,463,0,0,0,0,0,0,0,0,0,-1,972,561,0,0
-245,463,0,0,0,0,0,0,0,0,0,-1,979,561,0,0
-238,463,0,0,0,0,0,0,0,0,0,-1,986,561,0,0
-231,463,0,0,0,0,0,0,0,0,0,-1,993,561,0,0
-224,463,0,0,0,0,0,0,0,0,0,-1,1000,561,0,0
-217,463,0,0,0,0,0,0,0,0,0,-1,1007,561,0,0
-210,463,0,0,0,0,0,0,0,0,0,-1,1014,561,0,0
-203,463,0,0,0,0,0,0,0,0,0,-1,1021,561,0,0
-196,463,0,0,0,0,0,0,0,0,0,-1,1028,561,0,0
-189,463,0,0,0,0,0,0,0,0,0,-1,1035,561,0,0
-182,463,0,0,0,0,0,0,0,0,0,-1,1042,561,0,0
-175,463,0,0,0,0,0,0,0,0,0,-1,1049,561,0,0
-168,463,0,0,0,0,0,0,0,0,0,-1,1056,561,0,0
-161,463,0,0,0,0,0,0,0,0,0,-1,1063,561,0,0
-154,463,0,0,0,0,0,0,0,0,0,-1,1070,561,0,0
-147,463,0,0,0,0,0,0,0,0,0,-1,1077,561,0,0
-140,463,0,0,0,0,0,0,0,0,0,-1,1084,561,0,0
-133,463,0,0,0,0,0,0,0,0,0,-1,1091,561,0,0
-126,463,0,0,0,0,0,0,0,0,0,-1,1098,561,0,0
-119,463,0,0,0,0,0,0,0,0,0,-1,1105,561,0,0
-112,463,0,0,0,0,0,0,0,0,0,-1,1112,561,0,0
-105,463,0,0,0,0,0,0,0,0,0,-1,1119,561,0,0
-98,463,0,0,0,0,0,0,0,0,0,-1,1126,561,0,0
-91,463,0,0,0,0,0,0,0,0,0,-1,1133,561,0,0
-84,463,0,0,0,0,0,0,0,0,0,-1,1140,561,0,0
-77,463,0,0,0,0,0,0,0,0,0,-1,1147,561,0,0
-70,463,0,0,0,0,0,0,0,0,0,-1,1154,561,0,0
-63,463,0,0,0,0,0,0,0,0,0,-1,1161,561,0,0
-56,463,0,0,0,0,0,0,0,0,0,-1,1168,561,0,0
-49,463,0,0,0,0,0,0,0,0,0,-1,1175,561,0,0
-42,463,0,0,0,0,0,0,0,0,0,-1,1182,561,0,0
-35,463,0,0,0,0,0,0,0,0,0,-1,1189,561,0,0
-28,463,0,0,0,0,0,0,0,0,0,-1,1196,561,0,0
-21,463,0,0,0,0,0,0,0,0,0,-1,1203,561,0,0
-14,463,0,0,0,0,0,0,0,0,0,-1,1210,561,0,0
-7,463,0,0,0,0,0,0,0,0,0,-1,1217,561,0,0
0,463,0,0,0,0,0,0,0,0,0,-1,1224,561,0,0
7,463,0,0,0,0,0,0,0,0,0,-1,1231,561,0,0
14,463,0,0,0,0,0,0,0,0,0,-1,1238,561,0,0
21,463,0,0,0,0,0,0,0,0,0,-1,1245,561,0,0
28,463,0,0,0,0,0,0,0,0,0,-1,1252,561,0,0
35,463,0,0,0,0,0,0,0,0,0,-1,1259,561,0,0
42,463,0,0,0,0,0,0,0,0,0,-1,1266,561,0,0
49,463,0,0,0,0,0,0,0,0,0,-1,1273,561,0,0
56,463,0,0,0,0,0,0,0,0,0,-1,1280,561,0,0
63,463,0,0,0,0,0,0,0,0,0,-1,1287,561,0,0
70,463,0,0,0,0,0,0,0,0,0,-1,1294,561,0,0
77,463,0,0,0,0,0,0,0,0,0,-1,1301,561,0,0
84,463,0,0,0,0,0,0,0,0,0,-1,1308,561,0,0
91,463,0,0,0,0,0,0,0,0,0,-1,1315,561,0,0
98,463,0,0,0,0,0,0,0,0,0,-1,1322,561,0,0
105,463,0,0,0,0,0,0,0,0,0,-1,1329,561,0,0
112,463,0,0,0,0,0,0,0,0,0,-1,1336,561,0,0
119,463,0,0,0,0,0,0,0,0,0,-1,1343,561,0,0
126,463,0,0,0,0,0,0,0,0,0,-1,1350,561,0,0
133,463,0,0,0,0,0,0,0,0,0,-1,1357,561,0,0
140,463,0,0,0,0,0,0,0,0,0,-1,1364,561,0,0
147,463,0,0,0,0,0,0,0,0,0,-1,1371,561,0,0
154,463,0,0,0,0,0,0,0,0,0,-1,1378,561,0,0
161,463,0,0,0,0,0,0,0,0,0,-1,1385,561,0,0
168,463,0,0,0,0,0,0,0,0,0,-1,1392,561,0,0
175,463,0,0,0,0,0,0,0,0,0,-1,1399,561,0,0
182,463,0,0,0,0,0,0,0,0,0,-1,1406,561,0,0
189,463,0,0,0,0,0,0,0,0,0,-1,1413,561,0,0
196,463,0,0,0,0,0,0,0,0,0,-1,1420,561,0,0
203,463,0,0,0,0,0,0,0,0,0,-1,1427,561,0,0
210,463,0,0,0,0,0,0,0,0,0,-1,1434,561,0,0
217,463,0,0,0,0,0,0,0,0,0,-1,1441,561,0,0
224,463,0,0,0,0,0,0,0,0,0,-1,1448,561,0,0
231,463,0,0,0,0,0,0,0,0,0,-1,1455,561,0,0
238,463,0,0,0,0,0,0,0,0,0,-1,1462,561,0,0
245,463,0,0,0,0,0,0,0,0,0,-1,1469,561,0,0
252,463,0,0,0,0,0,0,0,0,0,-1,1476,561,0,0
259,463,0,0,0,0,0,0,0,0,0,-1,1483,561,0,0
266,463,0,0,0,0,0,0,0,0,0,-1,1490,561,0,0
273,463,0,0,0,0,0,0,0,0,0,-1,1497,561,0,0
280,463,0,0,0,0,0,0,0,0,0,-1,1504,561,0,0
287,463,0,0,0,0,0,0,0,0,0,-1,1511,561,0,0
294,463,0,0,0,0,0,0,0,0,0,-1,1518,561,0,0
301,463,0,0,0,0,0,0,0,0,0,-1,1525,561,0,0
308,463,0,0,0,0,0,0,0,0,0,-1,1532,561,0,0
315,463,0,0,0,0,0,0,0,0,0,-1,1539,561,0,0
322,463,0,0,0,0,0,0,0,0,0,-1,1546,561,0,0
329,463,0,0,0,0,0,0,0,0,0,-1,1553,561,0,0
336,463,0,0,0,0,0,0,0,0,0,-1,1560,561,0,0
343,463,0,0,0,0,0,0,0,0,0,-1,1567,561,0,0
350,463,0,0,0,0,0,0,0,0,0,-1,1574,561,0,0
357,463,0,0,0,0,0,0,0,0,0,-1,1581,561,0,0
364,463,0,0,0,0,0,0,0,0,0,-1,1588,561,0,0
371,463,-0.489868,0.569824,0,0,0,0,0,0,0,-1,1595,561,-0.48991,-0.569847
378,463,5.66772,-1.06256,0,0,0,0,0,0,0,-1,1602,561,5.66774,1.06254
385,463,5.87524,-0.685913,0,0,0,0,0,0,0,-1,1609,561,5.8753,0.685916
392,463,4.99805,-0.15564,-0.0745625,-0.027214,0.013254,-0.0237564,-0.0780201,1.31561,0.0461785,0.0475143,1616,561,4.99801,0.155612
399,463,4.3009,0.747314,-0.056622,-0.0302237,0.00653764,-0.0286933,-0.0581523,1.34085,0.0335752,0.0440138,1623,561,4.30093,-0.747288
406,463,3.54688,0.638916,0,0,0,0,0,0,0,-1,1630,561,3.54693,-0.638916
413,463,3.04004,1.08081,0,0,0,0,0,0,0,-1,1637,561,3.04008,-1.0808
420,463,4.6543,0.627991,0,0,0,0,0,0,0,-1,1644,561,4.65431,-0.628013
427,463,4.0022,0.0135498,-0.00901071,-0.0284062,-0.00677399,-0.00687911,-0.0305377,-0.304864,0.0184969,0.0424095,1651,561,4.0022,-0.0135414
434,463,3.47412,-0.672974,-0.00275848,-0.0253625,-0.00851844,9.22242e-05,-0.0282132,-0.322936,0.0188396,0.0459519,1658,561,3.47417,0.672986
441,463,3.48938,-1.2619,0.00164687,-0.0211855,-0.00909992,0.00482992,-0.0243686,-0.336487,0.0180721,0.0434405,1665,561,3.48936,1.26188
448,463,2.64465,-0.873169,0,0,0,0,0,0,0,-1,1672,561,2.64464,0.873199
455,463,3.01099,-0.83905,0.00652929,-0.0134797,-0.00840936,0.00959412,-0.0165445,-0.349494,0.0152679,0.043107,1679,561,3.01097,0.839062
462,463,3.00891,-0.894836,0.0063593,-0.010292,-0.00710194,0.00897687,-0.0129095,-0.353123,0.0127039,0.0461859,1686,561,3.00886,0.894866
469,463,2.77722,-0.777161,0.00513327,-0.00831328,-0.00564594,0.00718946,-0.0103695,-0.34926,0.0101929,0.0442432,1693,561,2.77719,0.777136
476,463,2.73926,-0.74585,0.00424792,-0.00632324,-0.00434399,0.00580395,-0.00787927,-0.343963,0.00793024,0.0288478,1700,561,2.73924,0.745857
483,463,2.70349,-0.736023,0.00347446,-0.00446829,-0.00306257,0.00451818,-0.00551201,-0.328454,0.0058004,0.0149422,1707,561,2.70353,0.736016
490,463,2.73218,-0.66626,0.00178714,-0.00338921,-0.00223985,0.00262176,-0.00422384,-0.356688,0.00398822,0.0124493,1714,561,2.73212,0.666241
497,463,2.74365,-0.605164,0.000855678,-0.00268008,-0.00122866,0.0012407,-0.00306511,-0.303678,0.00255926,0.0120685,1721,561,2.74362,0.605145
504,463,2.75012,-0.55481,0.000468417,-0.00176868,-0.000598879,0.00061865,-0.00191891,-0.245786,0.00152783,0.016337,1728,561,2.75018,0.554813
511,463,2.74939,-0.575623,0.000256868,-0.000451948,-0.000167566,0.000294485,-0.000489565,-0.220829,0.000457318,0.0228793,1735,561,2.7494,0.575606
518,463,2.7926,-0.510742,0.000663905,0.0015325,0.000484562,0.00174891,0.000447499,1.15077,0.00104908,0.0218392,1742,561,2.79265,0.510723
525,463,2.76013,-0.46051,0.00123723,0.00284025,0.00139818,0.00365036,0.000427118,1.04566,0.00230443,0.0172334,1749,561,2.76013,0.460501
532,463,2.74915,-0.401367,0.00189465,0.00463522,0.00211466,0.00578475,0.00074512,1.07288,0.00363368,0.0153351,1756,561,2.74912,0.401372
539,463,2.76978,-0.324219,0.00277464,0.00717501,0.00317023,0.00883373,0.00111592,1.08875,0.00555467,0.0139342,1763,561,2.76973,0.324195
546,463,2.76184,-0.296387,0.00399525,0.00984872,0.00444987,0.0122481,0.00159591,1.07629,0.00768882,0.0113057,1770,561,2.76187,0.296402
553,463,2.7511,-0.249146,0.00551959,0.0127487,0.00589244,0.0160469,0.00222141,1.06051,0.0100397,0.0107553,1777,561,2.75108,0.249165
560,463,2.74341,-0.188782,0.00738906,0.0158429,0.00752179,0.0202441,0.00298787,1.04139,0.0126186,0.0110354,1784,561,2.74339,0.188791
567,463,2.72937,-0.157288,0.0097265,0.0192067,0.00939888,0.0249931,0.00394009,1.01895,0.0155164,0.0104775,1791,561,2.72931,0.157307
574,463,2.70569,-0.174683,0.0125822,0.0227063,0.0113974,0.0301152,0.00517327,0.994385,0.0185938,0.0265141,1798,561,2.70567,0.174706
581,463,3.23303,-0.250244,0.0157389,0.0263635,0.0132816,0.0353558,0.00674663,0.975641,0.0216745,0.0469628,1805,561,3.23305,0.250254
588,463,2.70654,0.180054,0,0,0,0,0,0,0,-1,1812,561,2.70652,-0.180038
595,463,2.84082,0.363647,0,0,0,0,0,0,0,-1,1819,561,2.84077,-0.36365
602,463,2.97498,0.547241,0,0,0,0,0,0,0,-1,1826,561,2.97503,-0.547262
609,463,4.39563,0.841614,0,0,0,0,0,0,0,-1,1833,561,4.39562,-0.841625
616,463,2.50049,0.0299683,0,0,0,0,0,0,0,-1,1840,561,2.50044,-0.0299763
623,463,0,0,0,0,0,0,0,0,0,-1,1847,561,0,0
630,463,0,0,0,0,0,0,0,0,0,-1,1854,561,0,0
637,463,0,0,0,0,0,0,0,0,0,-1,1861,561,0,0
644,463,0,0,0,0,0,0,0,0,0,-1,1868,561,0,0
651,463,0,0,0,0,0,0,0,0,0,-1,1875,561,0,0
658,463,0,0,0,0,0,0,0,0,0,-1,1882,561,0,0
665,463,0,0,0,0,0,0,0,0,0,-1,1889,561,0,0
672,463,0,0,0,0,0,0,0,0,0,-1,1896,561,0,0
679,463,0,0,0,0,0,0,0,0,0,-1,1903,561,0,0
686,463,0,0,0,0,0,0,0,0,0,-1,1910,561,0,0
693,463,0,0,0,0,0,0,0,0,0,-1,1917,561,0,0
700,463,0,0,0,0,0,0,0,0,0,-1,1924,561,0,0
707,463,0,0,0,0,0,0,0,0,0,-1,1931,561,0,0
714,463,0,0,0,0,0,0,0,0,0,-1,1938,561,0,0
721,463,0,0,0,0,0,0,0,0,0,-1,1945,561,0,0
728,463,0,0,0,0,0,0,0,0,0,-1,1952,561,0,0
735,463,0,0,0,0,0,0,0,0,0,-1,1959,561,0,0
742,463,0,0,0,0,0,0,0,0,0,-1,1966,561,0,0
749,463,0,0,0,0,0,0,0,0,0,-1,1973,561,0,0
756,463,0,0,0,0,0,0,0,0,0,-1,1980,561,0,0
763,463,0,0,0,0,0,0,0,0,0,-1,1987,561,0,0
770,463,0,0,0,0,0,0,0,0,0,-1,1994,561,0,0
777,463,0,0,0,0,0,0,0,0,0,-1,2001,561,0,0
784,463,0,0,0,0,0,0,0,0,0,-1,2008,561,0,0
791,463,0,0,0,0,0,0,0,0,0,-1,2015,561,0,0
798,463,0,0,0,0,0,0,0,0,0,-1,2022,561,0,0
805,463,0,0,0,0,0,0,0,0,0,-1,2029,561,0,0
812,463,0,0,0,0,0,0,0,0,0,-1,2036,561,0,0
-700,456,0,0,0,0,0,0,0,0,0,-1,524,568,0,0
-693,456,0,0,0,0,0,0,0,0,0,-1,531,568,0,0
-686,456,0,0,0,0,0,0,0,0,0,-1,538,568,0,0
-679,456,0,0,0,0,0,0,0,0,0,-1,545,568,0,0
-672,456,0,0,0,0,0,0,0,0,0,-1,552,568,0,0
-665,456,0,0,0,0,0,0,0,0,0,-1,559,568,0,0
-658,456,0,0,0,0,0,0,0,0,0,-1,566,568,0,0
-651,456,0,0,0,0,0,0,0,0,0,-1,573,568,0,0
-644,456,0,0,0,0,0,0,0,0,0,-1,580,568,0,0
-637,456,0,0,0,0,0,0,0,0,0,-1,587,568,0,0
-630,456,0,0,0,0,0,0,0,0,0,-1,594,568,0,0
-623,456,0,0,0,0,0,0,0,0,0,-1,601,568,0,0
-616,456,0,0,0,0,0,0,0,0,0,-1,608,568,0,0
-609,456,0,0,0,0,0,0,0,0,0,-1,615,568,0,0
-602,456,0,0,0,0,0,0,0,0,0,-1,622,568,0,0
-595,456,0,0,0,0,0,0,0,0,0,-1,629,568,0,0
-588,456,0,0,0,0,0,0,0,0,0,-1,636,568,0,0
-581,456,0,0,0,0,0,0,0,0,0,-1,643,568,0,0
-574,456,0,0,0,0,0,0,0,0,0,-1,650,568,0,0
-567,456,0,0,0,0,0,0,0,0,0,-1,657,568,0,0
-560,456,0,0,0,0,0,0,0,0,0,-1,664,568,0,0
-553,456,0,0,0,0,0,0,0,0,0,-1,671,568,0,0
-546,456,0,0,0,0,0,0,0,0,0,-1,678,568,0,0
-539,456,0,0,0,0,0,0,0,0,0,-1,685,568,0,0
-532,456,0,0,0,0,0,0,0,0,0,-1,692,568,0,0
-525,456,0,0,0,0,0,0,0,0,0,-1,699,568,0,0
-518,456,0,0,0,0,0,0,0,0,0,-1,706,568,0,0
-511,456,0,0,0,0,0,0,0,0,0,-1,713,568,0,0
-504,456,1.33643,-0.772034,0,0,0,0,0,0,0,-1,720,568,1.33643,0.772035
-497,456,0.416687,0.893982,0,0,0,0,0,0,0,-1,727,568,0.416706,-0.893994
-490,456,0.145813,0.45105,0.0131907,0.0191155,-0.00377092,0.0209484,0.0113577,-1.11834,0.0121089,0.0451666,734,568,0.145838,-0.451055
-483,456,-0.244507,0.325012,0.0141763,0.0116829,-0.000517646,0.0142795,0.0115797,-0.196772,0.00875955,0.0430637,741,568,-0.244508,-0.325018
-476,456,-0.167358,0.220581,0.0144003,0.00762078,0.00216693,0.0150337,0.00698735,0.284394,0.00868689,0.0436623,748,568,-0.167356,-0.220574
-469,456,0.286194,-0.288269,0.0137099,0.00548975,0.00381112,0.0152049,0.00399471,0.373838,0.00910208,0.0458785,755,568,0.286218,0.288284
-462,456,0.292114,-0.0991821,0.0118946,0.00281299,0.0051543,0.014223,0.000484616,0.424295,0.00932467,0.0447448,762,568,0.292106,0.0991553
-455,456,0.760559,-0.0124512,0.00943671,0.00128067,0.00572829,0.0123903,-0.00167292,0.476061,0.00887059,0.0441477,769,568,0.760567,0.0124459
-448,456,1.00067,-0.0874634,0.00694178,0.000255039,0.00560369,0.0101237,-0.00292688,0.516427,0.00790743,0.0279211,776,568,1.00065,0.0874565
-441,456,1.03668,-0.160645,0.00455878,-0.000474644,0.00504376,0.00767885,-0.00359472,0.553985,0.00664965,0.0124184,783,568,1.03666,0.16063
-434,456,1.03284,-0.213684,0.00287539,-0.00107701,0.0047356,0.00603059,-0.00423221,0.58773,0.00595548,0.00815209,790,568,1.03282,0.21366
-427,456,1.03491,-0.253906,0.00136012,-0.00139285,0.00422539,0.00442757,-0.00446031,0.627936,0.00513143,0.00814453,797,568,1.03493,0.253901
-420,456,1.04083,-0.286865,-0.000135627,-0.00159001,0.00344806,0.00266109,-0.00438673,0.681472,0.00410951,0.00847182,804,568,1.04081,0.286844
-413,456,1.03125,-0.321838,-0.00156912,-0.00173112,0.00222867,0.000580026,-0.00388027,0.767234,0.00280028,0.00755955,811,568,1.03125,0.321853
-406,456,1.01337,-0.367859,-0.0026403,-0.00163705,0.00122654,-0.000813528,-0.00346382,0.979509,0.00209146,0.00777687,818,568,1.01339,0.367886
-399,456,1.00665,-0.428284,-0.00289434,-0.00173596,0.00080134,-0.00132641,-0.00330389,1.09832,0.00191981,0.00912172,825,568,1.00665,0.428284
-392,456,1.01477,-0.467407,-0.00258848,-0.00203712,0.00104031,-0.00123658,-0.00338902,0.91492,0.00198032,0.00806056,832,568,1.0148,0.467395
-385,456,1.02179,-0.504822,-0.00226736,-0.00248858,0.00113817,-0.00123444,-0.0035215,0.736957,0.00206319,0.0086389,839,568,1.02181,0.50485
-378,456,1.03174,-0.567444,-0.00207768,-0.00305536,0.00130687,-0.00117121,-0.00396182,0.606428,0.00235019,0.0101096,846,568,1.03176,0.567455
-371,456,1.04242,-0.605774,-0.00144469,-0.0038351,0.00145379,-0.000757869,-0.00452192,0.441352,0.00279643,0.0104367,853,568,1.04244,0.605772
-364,456,1.05481,-0.636719,0.00114094,-0.00500577,0.00117225,0.00135691,-0.00522174,0.182196,0.00401072,0.0137949,860,568,1.05484,0.636718
-357,456,1.03058,-0.670715,0.00481311,-0.00506196,-6.91186e-05,0.00481359,-0.00506244,-0.00699885,0.00570254,0.015041,867,568,1.03057,0.670741
-350,456,1.03455,-0.674927,0.00859117,-0.00502987,-0.00139426,0.00873242,-0.00517113,-0.100966,0.00811452,0.0261499,874,568,1.03455,0.67491
-343,456,0.857605,-0.700684,0.0139399,-0.00510879,-0.00290515,0.0143731,-0.00554201,-0.14803,0.0118688,0.0394935,881,568,0.857599,0.700699
-336,456,1.13293,-0.781067,0,0,0,0,0,0,0,-1,888,568,1.13295,0.78105
-329,456,1.43384,-0.89502,0,0,0,0,0,0,0,-1,895,568,1.43382,0.895005
-322,456,1.24371,-0.929504,0.041065,-0.00218041,-0.0121031,0.0442218,-0.00533728,-0.255146,0.0314118,0.0449037,902,568,1.24373,0.929476
-315,456,1.4469,-0.794189,0.0535118,0.000267653,-0.0166964,0.0583143,-0.00453485,-0.280076,0.0404726,0.0476942,909,568,1.44689,0.794211
-308,456,2.4505,-1.74335,0.0665292,0.00452844,-0.0222379,0.0736804,-0.0026228,-0.311135,0.0500175,0.045032,916,568,2.4505,1.74334
-301,456,2.65302,-1.53308,0.0797295,0.0120499,-0.0288977,0.0903893,0.00139014,-0.353394,0.0598015,0.0484918,923,568,2.653,1.5331
-294,456,2.80273,-1.44415,0,0,0,0,0,0,0,-1,930,568,2.80276,1.44418
-287,456,0.429871,-0.875488,0,0,0,0,0,0,0,-1,937,568,0.42989,0.87551
-280,456,0.389954,-0.692688,0,0,0,0,0,0,0,-1,944,568,0.389941,0.692659
-273,456,0.472534,-0.53186,0,0,0,0,0,0,0,-1,951,568,0.472515,0.531876
-266,456,0.474548,-0.58313,0,0,0,0,0,0,0,-1,958,568,0.474571,0.583133
-259,456,0,0,0,0,0,0,0,0,0,-1,965,568,0,0
-252,456,0,0,0,0,0,0,0,0,0,-1,972,568,0,0
-245,456,0,0,0,0,0,0,0,0,0,-1,979,568,0,0
-238,456,0,0,0,0,0,0,0,0,0,-1,986,568,0,0
-231,456,0,0,0,0,0,0,0,0,0,-1,993,568,0,0
-224,456,0,0,0,0,0,0,0,0,0,-1,1000,568,0,0
-217,456,0,0,0,0,0,0,0,0,0,-1,1007,568,0,0
-210,456,0,0,0,0,0,0,0,0,0,-1,1014,568,0,0
-203,456,0,0,0,0,0,0,0,0,0,-1,1021,568,0,0
-196,456,0,0,0,0,0,0,0,0,0,-1,1028,568,0,0
-189,456,0,0,0,0,0,0,0,0,0,-1,1035,568,0,0
-182,456,0,0,0,0,0,0,0,0,0,-1,1042,568,0,0
-175,456,0,0,0,0,0,0,0,0,0,-1,1049,568,0,0
-168,456,0,0,0,0,0,0,0,0,0,-1,1056,568,0,0
-161,456,0,0,0,0,0,0,0,0,0,-1,1063,568,0,0
-154,456,0,0,0,0,0,0,0,0,0,-1,1070,568,0,0
-147,456,0,0,0,0,0,0,0,0,0,-1,1077,568,0,0
-140,456,0,0,0,0,0,0,0,0,0,-1,1084,568,0,0
-133,456,0,0,0,0,0,0,0,0,0,-1,1091,568,0,0
-126,456,0,0,0,0,0,0,0,0,0,-1,1098,568,0,0
-119,456,0,0,0,0,0,0,0,0,0,-1,1105,568,0,0
-112,456,0,0,0,0,0,0,0,0,0,-1,1112,568,0,0
-105,456,0,0,0,0,0,0,0,0,0,-1,1119,568,0,0
-98,456,0,0,0,0,0,0,0,0,0,-1,1126,568,0,0
-91,456,0,0,0,0,0,0,0,0,0,-1,1133,568,0,0
-84,456,0,0,0,0,0,0,0,0,0,-1,1140,568,0,0
-77,456,0,0,0,0,0,0,0,0,0,-1,1147,568,0,0
-70,456,0,0,0,0,0,0,0,0,0,-1,1154,568,0,0
-63,456,0,0,0,0,0,0,0,0,0,-1,1161,568,0,0
-56,456,0,0,0,0,0,0,0,0,0,-1,1168,568,0,0
-49,456,0,0,0,0,0,0,0,0,0,-1,1175,568,0,0
-42,456,0,0,0,0,0,0,0,0,0,-1,1182,568,0,0
-35,456,0,0,0,0,0,0,0,0,0,-1,1189,568,0,0
-28,456,0,0,0,0,0,0,0,0,0,-1,1196,568,0,0
-21,456,0,0,0,0,0,0,0,0,0,-1,1203,568,0,0
-14,456,0,0,0,0,0,0,0,0,0,-1,1210,568,0,0
-7,456,0,0,0,0,0,0,0,0,0,-1,1217,568,0,0
0,456,0,0,0,0,0,0,0,0,0,-1,1224,568,0,0
7,456,0,0,0,0,0,0,0,0,0,-1,1231,568,0,0
14,456,0,0,0,0,0,0,0,0,0,-1,1238,568,0,0
21,456,0,0,0,0,0,0,0,0,0,-1,1245,568,0,0
28,456,0,0,0,0,0,0,0,0,0,-1,1252,568,0,0
35,456,0,0,0,0,0,0,0,0,0,-1,1259,568,0,0
42,456,0,0,0,0,0,0,0,0,0,-1,1266,568,0,0
49,456,0,0,0,0,0,0,0,0,0,-1,1273,568,0,0
56,456,0,0,0,0,0,0,0,0,0,-1,1280,568,0,0
63,456,0,0,0,0,0,0,0,0,0,-1,1287,568,0,0
70,456,0,0,0,0,0,0,0,0,0,-1,1294,568,0,0
77,456,0,0,0,0,0,0,0,0,0,-1,1301,568,0,0
84,456,0,0,0,0,0,0,0,0,0,-1,1308,568,0,0
91,456,0,0,0,0,0,0,0,0,0,-1,1315,568,0,0
98,456,0,0,0,0,0,0,0,0,0,-1,1322,568,0,0
105,456,0,0,0,0,0,0,0,0,0,-1,1329,568,0,0
112,456,0,0,0,0,0,0,0,0,0,-1,1336,568,0,0
119,456,0,0,0,0,0,0,0,0,0,-1,1343,568,0,0
126,456,0,0,0,0,0,0,0,0,0,-1,1350,568,0,0
133,456,0,0,0,0,0,0,0,0,0,-1,1357,568,0,0
140,456,0,0,0,0,0,0,0,0,0,-1,1364,568,0,0
147,456,0,0,0,0,0,0,0,0,0,-1,1371,568,0,0
154,456,0,0,0,0,0,0,0,0,0,-1,1378,568,0,0
161,456,0,0,0,0,0,0,0,0,0,-1,1385,568,0,0
168,456,0,0,0,0,0,0,0,0,0,-1,1392,568,0,0
175,456,0,0,0,0,0,0,0,0,0,-1,1399,568,0,0
182,456,0,0,0,0,0,0,0,0,0,-1,1406,568,0,0
189,456,0,0,0,0,0,0,0,0,0,-1,1413,568,0,0
196,456,0,0,0,0,0,0,0,0,0,-1,1420,568,0,0
203,456,0,0,0,0,0,0,0,0,0,-1,1427,568,0,0
210,456,0,0,0,0,0,0,0,0,0,-1,1434,568,0,0
217,456,0,0,0,0,0,0,0,0,0,-1,1441,568,0,0
224,456,0,0,0,0,0,0,0,0,0,-1,1448,568,0,0
231,456,0,0,0,0,0,0,0,0,0,-1,1455,568,0,0
238,456,0,0,0,0,0,0,0,0,0,-1,1462,568,0,0
245,456,0,0,0,0,0,0,0,0,0,-1,1469,568,0,0
252,456,0,0,0,0,0,0,0,0,0,-1,1476,568,0,0
259,456,0,0,0,0,0,0,0,0,0,-1,1483,568,0,0
266,456,0,0,0,0,0,0,0,0,0,-1,1490,568,0,0
273,456,0,0,0,0,0,0,0,0,0,-1,1497,568,0,0
280,456,0,0,0,0,0,0,0,0,0,-1,1504,568,0,0
287,456,0,0,0,0,0,0,0,0,0,-1,1511,568,0,0
294,456,0,0,0,0,0,0,0,0,0,-1,1518,568,0,0
301,456,0,0,0,0,0,0,0,0,0,-1,1525,568,0,0
308,456,0,0,0,0,0,0,0,0,0,-1,1532,568,0,0
315,456,0,0,0,0,0,0,0,0,0,-1,1539,568,0,0
322,456,0,0,0,0,0,0,0,0,0,-1,1546,568,0,0
329,456,0,0,0,0,0,0,0,0,0,-1,1553,568,0,0
336,456,0,0,0,0,0,0,0,0,0,-1,1560,568,0,0
343,456,0,0,0,0,0,0,0,0,0,-1,1567,568,0,0
350,456,0,0,0,0,0,0,0,0,0,-1,1574,568,0,0
357,456,0,0,0,0,0,0,0,0,0,-1,1581,568,0,0
364,456,0,0,0,0,0,0,0,0,0,-1,1588,568,0,0
371,456,0,0,0,0,0,0,0,0,0,-1,1595,568,0,0
378,456,0,0,0,0,0,0,0,0,0,-1,1602,568,0,0
385,456,3.61401,1.62543,0,0,0,0,0,0,0,-1,1609,568,3.61405,-1.6254
392,456,5.04797,-0.15686,0,0,0,0,0,0,0,-1,1616,568,5.04791,0.156861
399,456,4.47034,1.19049,0,0,0,0,0,0,0,-1,1623,568,4.47039,-1.19048
406,456,5.97437,2.3949,0,0,0,0,0,0,0,-1,1630,568,5.97437,-2.3949
413,456,5.4104,1.87457,0,0,0,0,0,0,0,-1,1637,568,5.41041,-1.87459
420,456,4.83545,1.33887,-0.0156772,-0.0348244,-0.00516849,-0.0143712,-0.0361304,-0.247517,0.0210048,0.0437875,1644,568,4.8354,-1.33887
427,456,4.13232,0.817688,-0.0068494,-0.0328794,-0.00719634,-0.00499236,-0.0347364,-0.252544,0.0216859,0.0430632,1651,568,4.13236,-0.817712
434,456,2.06628,-0.681396,0,0,0,0,0,0,0,-1,1658,568,2.06624,0.681396
441,456,2.54358,-0.702454,0,0,0,0,0,0,0,-1,1665,568,2.54363,0.702484
448,456,2.92981,-0.735291,0,0,0,0,0,0,0,-1,1672,568,2.92982,0.73532
455,456,3.30945,-0.65564,0,0,0,0,0,0,0,-1,1679,568,3.30947,0.655653
462,456,3.31714,-0.910767,0,0,0,0,0,0,0,-1,1686,568,3.31713,0.910789
469,456,2.80762,-0.795898,0,0,0,0,0,0,0,-1,1693,568,2.80758,0.79591
476,456,2.80872,-0.700562,0.00481403,-0.0094886,-0.0047807,0.00626484,-0.0109394,-0.294638,0.0100543,0.042794,1700,568,2.80875,0.700561
483,456,2.81238,-0.732117,0.00390262,-0.00727544,-0.00335233,0.00483091,-0.00820372,-0.270138,0.00760906,0.0367924,1707,568,2.81237,0.732107
490,456,2.77246,-0.710999,0.00195765,-0.00589558,-0.00245007,0.00265933,-0.00659726,-0.278927,0.00550314,0.0220504,1714,568,2.77242,0.711003
497,456,2.77222,-0.615051,0.000879304,-0.00482643,-0.00130794,0.00116484,-0.00511196,-0.214936,0.00385536,0.0135586,1721,568,2.77226,0.615059
504,456,2.80103,-0.564148,0.00052097,-0.0034875,-0.000461471,0.000573411,-0.00353994,-0.113152,0.00257249,0.0108638,1728,568,2.80108,0.564138
511,456,2.78552,-0.521423,0.00026511,-0.00202962,6.71758e-05,0.000267074,-0.00203158,0.0292405,0.00145163,0.0137369,1735,568,2.78556,0.521415
518,456,2.78503,-0.492249,0.00067198,-0.000357867,0.000562639,0.000919754,-0.000605642,0.414825,0.00088689,0.0151027,1742,568,2.78502,0.492245
525,456,2.77734,-0.463928,0.00117604,0.000772425,0.00117001,0.00216152,-0.000213054,0.699996,0.00151703,0.0151118,1749,568,2.77737,0.463948
532,456,2.77856,-0.393616,0.00159932,0.00202207,0.00166804,0.00349207,0.000129319,0.848422,0.00228616,0.0139935,1756,568,2.77862,0.393609
539,456,2.8092,-0.310181,0.00218452,0.00386075,0.00250058,0.00565993,0.000385338,0.947099,0.00365162,0.0155825,1763,568,2.80918,0.310184
546,456,2.82349,-0.299377,0.00304106,0.005679,0.00343994,0.00804417,0.000675901,0.968468,0.00515228,0.0174661,1770,568,2.8235,0.299383
553,456,2.81042,-0.235413,0.00412953,0.00763281,0.00446011,0.0106729,0.00108943,0.972512,0.00678136,0.0125183,1777,568,2.81042,0.235404
560,456,2.79504,-0.188477,0.00545047,0.00965443,0.0055843,0.0135193,0.00158565,0.965401,0.00853354,0.00989171,1784,568,2.79508,0.188505
567,456,2.79248,-0.161011,0.00714093,0.0118206,0.00688472,0.0167522,0.00220929,0.949203,0.0105094,0.0087915,1791,568,2.79246,0.160986
574,456,2.80127,-0.162537,0.0092679,0.0140507,0.00826619,0.0202644,0.00305414,0.926203,0.0126154,0.0154709,1798,568,2.80125,0.162507
581,456,2.79919,-0.0249023,0.011582,0.0164687,0.00960264,0.023934,0.00411673,0.909977,0.0147761,0.0364964,1805,568,2.79917,0.0249312
588,456,2.69958,0.289001,0,0,0,0,0,0,0,-1,1812,568,2.69955,-0.288989
595,456,2.78528,0.339294,0,0,0,0,0,0,0,-1,1819,568,2.78525,-0.339268
602,456,2.85193,0.363953,0,0,0,0,0,0,0,-1,1826,568,2.85193,-0.363958
609,456,4.62244,-0.178589,0,0,0,0,0,0,0,-1,1833,568,4.62239,0.178575
616,456,5.43896,-0.514526,0,0,0,0,0,0,0,-1,1840,568,5.43898,0.514518
623,456,2.56152,-0.0487061,0,0,0,0,0,0,0,-1,1847,568,2.56151,0.0487255
630,456,0,0,0,0,0,0,0,0,0,-1,1854,568,0,0
637,456,0,0,0,0,0,0,0,0,0,-1,1861,568,0,0
644,456,0,0,0,0,0,0,0,0,0,-1,1868,568,0,0
651,456,0,0,0,0,0,0,0,0,0,-1,1875,568,0,0
658,456,0,0,0,0,0,0,0,0,0,-1,1882,568,0,0
665,456,0,0,0,0,0,0,0,0,0,-1,1889,568,0,0
672,456,0,0,0,0,0,0,0,0,0,-1,1896,568,0,0
679,456,0,0,0,0,0,0,0,0,0,-1,1903,568,0,0
686,456,0,0,0,0,0,0,0,0,0,-1,1910,568,0,0
693,456,0,0,0,0,0,0,0,0,0,-1,1917,568,0,0
700,456,0,0,0,0,0,0,0,0,0,-1,1924,568,0,0
707,456,0,0,0,0,0,0,0,0,0,-1,1931,568,0,0
714,456,0,0,0,0,0,0,0,0,0,-1,1938,568,0,0
721,456,0,0,0,0,0,0,0,0,0,-1,1945,568,0,0
728,456,0,0,0,0,0,0,0,0,0,-1,1952,568,0,0
735,456,0,0,0,0,0,0,0,0,0,-1,1959,568,0,0
742,456,0,0,0,0,0,0,0,0,0,-1,1966,568,0,0
749,456,0,0,0,0,0,0,0,0,0,-1,1973,568,0,0
756,456,0,0,0,0,0,0,0,0,0,-1,1980,568,0,0
763,456,0,0,0,0,0,0,0,0,0,-1,1987,568,0,0
770,456,0,0,0,0,0,0,0,0,0,-1,1994,568,0,0
777,456,0,0,0,0,0,0,0,0,0,-1,2001,568,0,0
784,456,0,0,0,0,0,0,0,0,0,-1,2008,568,0,0
791,456,0,0,0,0,0,0,0,0,0,-1,2015,568,0,0
798,456,0,0,0,0,0,0,0,0,0,-1,2022,568,0,0
805,456,0,0,0,0,0,0,0,0,0,-1,2029,568,0,0
812,456,0,0,0,0,0,0,0,0,0,-1,2036,568,0,0
-700,449,0,0,0,0,0,0,0,0,0,-1,524,575,0,0
-693,449,0,0,0,0,0,0,0,0,0,-1,531,575,0,0
-686,449,0,0,0,0,0,0,0,0,0,-1,538,575,0,0
-679,449,0,0,0,0,0,0,0,0,0,-1,545,575,0,0
-672,449,0,0,0,0,0,0,0,0,0,-1,552,575,0,0
-665,449,0,0,0,0,0,0,0,0,0,-1,559,575,0,0
-658,449,0,0,0,0,0,0,0,0,0,-1,566,575,0,0
-651,449,0,0,0,0,0,0,0,0,0,-1,573,575,0,0
-644,449,0,0,0,0,0,0,0,0,0,-1,580,575,0,0
-637,449,0,0,0,0,0,0,0,0,0,-1,587,575,0,0
-630,449,0,0,0,0,0,0,0,0,0,-1,594,575,0,0
-623,449,0,0,0,0,0,0,0,0,0,-1,601,575,0,0
-616,449,0,0,0,0,0,0,0,0,0,-1,608,575,0,0
-609,449,0,0,0,0,0,0,0,0,0,-1,615,575,0,0
-602,449,0,0,0,0,0,0,0,0,0,-1,622,575,0,0
-595,449,0,0,0,0,0,0,0,0,0,-1,629,575,0,0
-588,449,0,0,0,0,0,0,0,0,0,-1,636,575,0,0
-581,449,0,0,0,0,0,0,0,0,0,-1,643,575,0,0
-574,449,0,0,0,0,0,0,0,0,0,-1,650,575,0,0
-567,449,0,0,0,0,0,0,0,0,0,-1,657,575,0,0
-560,449,0,0,0,0,0,0,0,0,0,-1,664,575,0,0
-553,449,0,0,0,0,0,0,0,0,0,-1,671,575,0,0
-546,449,0,0,0,0,0,0,0,0,0,-1,678,575,0,0
-539,449,0,0,0,0,0,0,0,0,0,-1,685,575,0,0
-532,449,0,0,0,0,0,0,0,0,0,-1,692,575,0,0
-525,449,0,0,0,0,0,0,0,0,0,-1,699,575,0,0
-518,449,0,0,0,0,0,0,0,0,0,-1,706,575,0,0
-511,449,0.429749,0.926758,0,0,0,0,0,0,0,-1,713,575,0.429776,-0.926742
-504,449,0.534668,0.509705,0,0,0,0,0,0,0,-1,720,575,0.534656,-0.509711
-497,449,0.355774,0.855103,0,0,0,0,0,0,0,-1,727,575,0.355772,-0.855118
-490,449,0.217712,0.49231,0.0146121,0.0156414,-0.0067958,0.021942,0.00831149,-0.823191,0.0127917,0.0459848,734,575,0.217712,-0.49229
-483,449,0.00219727,0.211609,0.0149352,0.00863604,-0.00371539,0.0166564,0.00691489,-0.433815,0.0096626,0.04173,741,575,0.00219927,-0.21161
-476,449,-0.000732422,0.239014,0.0148597,0.0051702,-0.00113614,0.0149912,0.00503877,-0.115173,0.00880878,0.0411066,748,575,-0.000715139,-0.239019
-469,449,0.314941,-0.0109863,0.014094,0.00391403,0.000591899,0.0141283,0.00387973,0.0578837,0.00842869,0.0443581,755,575,0.314954,0.0110035
-462,449,0.640686,-0.000732422,0.0123083,0.00176602,0.00204013,0.0126894,0.00138499,0.184641,0.00803778,0.043154,762,575,0.640669,0.000727532
-455,449,0.866577,0.000244141,0.0100519,0.000697034,0.00294063,0.0108994,-0.000150541,0.280623,0.007317,0.0335507,769,575,0.866548,-0.000270885
-448,449,0.967651,-0.0961914,0.00782061,4.56119e-05,0.003324,0.00904795,-0.00118174,0.353709,0.006462,0.0175542,776,575,0.967634,0.0961812
-441,449,0.994019,-0.184937,0.00558072,-0.000467865,0.00331817,0.00704604,-0.00193318,0.41585,0.00545711,0.0125702,783,575,0.994001,0.184929
-434,449,0.977417,-0.234985,0.00389358,-0.000966064,0.00346887,0.00569898,-0.00277146,0.479879,0.00498682,0.011604,790,575,0.977423,0.235007
-427,449,0.983704,-0.271667,0.00227034,-0.00129752,0.00337479,0.00430369,-0.00333086,0.542264,0.00441972,0.0122943,797,575,0.98368,0.271645
-420,449,0.985168,-0.30072,0.000590326,-0.00158883,0.00299667,0.00268936,-0.00368786,0.61103,0.0036969,0.0120206,804,575,0.985153,0.300748
-413,449,0.978455,-0.335327,-0.0010433,-0.00171889,0.00220474,0.000849376,-0.00361156,0.709382,0.00273515,0.00880738,811,575,0.978459,0.335325
-406,449,0.956421,-0.390015,-0.00216208,-0.0018525,0.00147945,-0.000519767,-0.00349482,0.837521,0.0021774,0.00816141,818,575,0.956434,0.390025
-399,449,0.941467,-0.43042,-0.00258778,-0.00244939,0.00112084,-0.00139561,-0.00364156,0.816225,0.00212148,0.00824865,825,575,0.941471,0.430401
-392,449,0.969543,-0.466431,-0.00254774,-0.00316363,0.00127959,-0.00153957,-0.00417181,0.667314,0.00243598,0.00897486,832,575,0.969552,0.466459
-385,449,0.992798,-0.501648,-0.00235736,-0.0040254,0.00129894,-0.00164773,-0.00473502,0.500005,0.00277556,0.0100057,839,575,0.992825,0.501647
-378,449,0.987122,-0.5401,-0.00216715,-0.00505501,0.00128769,-0.00167637,-0.00554578,0.364132,0.00328425,0.00914751,846,575,0.987117,0.540092
-371,449,0.988525,-0.582336,-0.00124576,-0.00632083,0.00121642,-0.000969261,-0.00659733,0.223505,0.00411337,0.00987035,853,575,0.988515,0.582335
-364,449,0.993896,-0.633789,0.00204438,-0.00807268,0.000651391,0.00208614,-0.00811444,0.0640331,0.00622269,0.0178046,860,575,0.993923,0.63377
-357,449,0.995605,-0.639587,0.00666964,-0.00860254,-0.00106277,0.00674324,-0.00867614,-0.0691448,0.00892567,0.0284344,867,575,0.995617,0.639582
-350,449,0.991699,-0.609985,0.0114759,-0.00893756,-0.00289576,0.0118787,-0.00934039,-0.138223,0.01228,0.0420447,874,575,0.991676,0.609963
-343,449,0.636597,-0.488831,0.0181397,-0.00937245,-0.00501772,0.0190263,-0.010259,-0.174883,0.0171586,0.0456746,881,575,0.636577,0.488811
-336,449,0.287415,-0.30188,0,0,0,0,0,0,0,-1,888,575,0.287432,0.301896
-329,449,0.628479,-0.872864,0,0,0,0,0,0,0,-1,895,575,0.628457,0.872873
-322,449,1.27942,-1.08704,0,0,0,0,0,0,0,-1,902,575,1.27942,1.08702
-315,449,1.48975,-0.94635,0.0653206,-0.00373812,-0.0217829,0.0716174,-0.0100349,-0.281398,0.0514173,0.0460488,909,575,1.48973,0.946351
-308,449,3.13611,-1.81799,0.0808632,0.00134048,-0.0283463,0.0899329,-0.00772927,-0.309669,0.0626907,0.0455949,916,575,3.13608,1.81798
-301,449,3.255,-1.36426,0,0,0,0,0,0,0,-1,923,575,3.25498,1.36426
-294,449,0.464783,-0.91571,0,0,0,0,0,0,0,-1,930,575,0.464768,0.91573
-287,449,0.536743,-0.670837,0,0,0,0,0,0,0,-1,937,575,0.536727,0.670845
-280,449,0.421143,-0.441101,0,0,0,0,0,0,0,-1,944,575,0.421144,0.441094
-273,449,0,0,0,0,0,0,0,0,0,-1,951,575,0,0
-266,449,0,0,0,0,0,0,0,0,0,-1,958,575,0,0
-259,449,0,0,0,0,0,0,0,0,0,-1,965,575,0,0
-252,449,0,0,0,0,0,0,0,0,0,-1,972,575,0,0
-245,449,0,0,0,0,0,0,0,0,0,-1,979,575,0,0
-238,449,0,0,0,0,0,0,0,0,0,-1,986,575,0,0
-231,449,0,0,0,0,0,0,0,0,0,-1,993,575,0,0
-224,449,0,0,0,0,0,0,0,0,0,-1,1000,575,0,0
-217,449,0,0,0,0,0,0,0,0,0,-1,1007,575,0,0
-210,449,0,0,0,0,0,0,0,0,0,-1,1014,575,0,0
-203,449,0,0,0,0,0,0,0,0,0,-1,1021,575,0,0
-196,449,0,0,0,0,0,0,0,0,0,-1,1028,575,0,0
-189,449,0,0,0,0,0,0,0,0,0,-1,1035,575,0,0
-182,449,0,0,0,0,0,0,0,0,0,-1,1042,575,0,0
-175,449,0,0,0,0,0,0,0,0,0,-1,1049,575,0,0
-168,449,0,0,0,0,0,0,0,0,0,-1,1056,575,0,0
-161,449,0,0,0,0,0,0,0,0,0,-1,1063,575,0,0
-154,449,0,0,0,0,0,0,0,0,0,-1,1070,575,0,0
-147,449,0,0,0,0,0,0,0,0,0,-1,1077,575,0,0
-140,449,0,0,0,0,0,0,0,0,0,-1,1084,575,0,0
-133,449,0,0,0,0,0,0,0,0,0,-1,1091,575,0,0
-126,449,0,0,0,0,0,0,0,0,0,-1,1098,575,0,0
-119,449,0,0,0,0,0,0,0,0,0,-1,1105,575,0,0
-112,449,0,0,0,0,0,0,0,0,0,-1,1112,575,0,0
-105,449,0,0,0,0,0,0,0,0,0,-1,1119,575,0,0
-98,449,0,0,0,0,0,0,0,0,0,-1,1126,575,0,0
-91,449,0,0,0,0,0,0,0,0,0,-1,1133,575,0,0
-84,449,0,0,0,0,0,0,0,0,0,-1,1140,575,0,0
-77,449,0,0,0,0,0,0,0,0,0,-1,1147,575,0,0
-70,449,0,0,0,0,0,0,0,0,0,-1,1154,575,0,0
-63,449,0,0,0,0,0,0,0,0,0,-1,1161,575,0,0
-56,449,0,0,0,0,0,0,0,0,0,-1,1168,575,0,0
-49,449,0,0,0,0,0,0,0,0,0,-1,1175,575,0,0
-42,449,0,0,0,0,0,0,0,0,0,-1,1182,575,0,0
-35,449,0,0,0,0,0,0,0,0,0,-1,1189,575,0,0
-28,449,0,0,0,0,0,0,0,0,0,-1,1196,575,0,0
-21,449,0,0,0,0,0,0,0,0,0,-1,1203,575,0,0
-14,449,0,0,0,0,0,0,0,0,0,-1,1210,575,0,0
-7,449,0,0,0,0,0,0,0,0,0,-1,1217,575,0,0
0,449,0,0,0,0,0,0,0,0,0,-1,1224,575,0,0
7,449,0,0,0,0,0,0,0,0,0,-1,1231,575,0,0
14,449,0,0,0,0,0,0,0,0,0,-1,1238,575,0,0
21,449,0,0,0,0,0,0,0,0,0,-1,1245,575,0,0
28,449,0,0,0,0,0,0,0,0,0,-1,1252,575,0,0
35,449,0,0,0,0,0,0,0,0,0,-1,1259,575,0,0
42,449,0,0,0,0,0,0,0,0,0,-1,1266,575,0,0
49,449,0,0,0,0,0,0,0,0,0,-1,1273,575,0,0
56,449,0,0,0,0,0,0,0,0,0,-1,1280,575,0,0
63,449,0,0,0,0,0,0,0,0,0,-1,1287,575,0,0
70,449,0,0,0,0,0,0,0,0,0,-1,1294,575,0,0
77,449,0,0,0,0,0,0,0,0,0,-1,1301,575,0,0
84,449,0,0,0,0,0,0,0,0,0,-1,1308,575,0,0
91,449,0,0,0,0,0,0,0,0,0,-1,1315,575,0,0
98,449,0,0,0,0,0,0,0,0,0,-1,1322,575,0,0
105,449,0,0,0,0,0,0,0,0,0,-1,1329,575,0,0
112,449,0,0,0,0,0,0,0,0,0,-1,1336,575,0,0
119,449,0,0,0,0,0,0,0,0,0,-1,1343,575,0,0
126,449,0,0,0,0,0,0,0,0,0,-1,1350,575,0,0
133,449,0,0,0,0,0,0,0,0,0,-1,1357,575,0,0
140,449,0,0,0,0,0,0,0,0,0,-1,1364,575,0,0
147,449,0,0,0,0,0,0,0,0,0,-1,1371,575,0,0
154,449,0,0,0,0,0,0,0,0,0,-1,1378,575,0,0
161,449,0,0,0,0,0,0,0,0,0,-1,1385,575,0,0
168,449,0,0,0,0,0,0,0,0,0,-1,1392,575,0,0
175,449,0,0,0,0,0,0,0,0,0,-1,1399,575,0,0
182,449,0,0,0,0,0,0,0,0,0,-1,1406,575,0,0
189,449,0,0,0,0,0,0,0,0,0,-1,1413,575,0,0
196,449,0,0,0,0,0,0,0,0,0,-1,1420,575,0,0
203,449,0,0,0,0,0,0,0,0,0,-1,1427,575,0,0
210,449,0,0,0,0,0,0,0,0,0,-1,1434,575,0,0
217,449,0,0,0,0,0,0,0,0,0,-1,1441,575,0,0
224,449,0,0,0,0,0,0,0,0,0,-1,1448,575,0,0
231,449,0,0,0,0,0,0,0,0,0,-1,1455,575,0,0
238,449,0,0,0,0,0,0,0,0,0,-1,1462,575,0,0
245,449,0,0,0,0,0,0,0,0,0,-1,1469,575,0,0
252,449,0,0,0,0,0,0,0,0,0,-1,1476,575,0,0
259,449,0,0,0,0,0,0,0,0,0,-1,1483,575,0,0
266,449,0,0,0,0,0,0,0,0,0,-1,1490,575,0,0
273,449,0,0,0,0,0,0,0,0,0,-1,1497,575,0,0
280,449,0,0,0,0,0,0,0,0,0,-1,1504,575,0,0
287,449,0,0,0,0,0,0,0,0,0,-1,1511,575,0,0
294,449,0,0,0,0,0,0,0,0,0,-1,1518,575,0,0
301,449,0,0,0,0,0,0,0,0,0,-1,1525,575,0,0
308,449,0,0,0,0,0,0,0,0,0,-1,1532,575,0,0
315,449,0,0,0,0,0,0,0,0,0,-1,1539,575,0,0
322,449,0,0,0,0,0,0,0,0,0,-1,1546,575,0,0
329,449,0,0,0,0,0,0,0,0,0,-1,1553,575,0,0
336,449,0,0,0,0,0,0,0,0,0,-1,1560,575,0,0
343,449,0,0,0,0,0,0,0,0,0,-1,1567,575,0,0
350,449,0,0,0,0,0,0,0,0,0,-1,1574,575,0,0
357,449,0,0,0,0,0,0,0,0,0,-1,1581,575,0,0
364,449,0,0,0,0,0,0,0,0,0,-1,1588,575,0,0
371,449,0,0,0,0,0,0,0,0,0,-1,1595,575,0,0
378,449,0,0,0,0,0,0,0,0,0,-1,1602,575,0,0
385,449,0,0,0,0,0,0,0,0,0,-1,1609,575,0,0
392,449,3.4762,1.71802,0,0,0,0,0,0,0,-1,1616,575,3.4762,-1.71801
399,449,3.41443,1.87531,0,0,0,0,0,0,0,-1,1623,575,3.41439,-1.87528
406,449,3.54333,1.83124,0,0,0,0,0,0,0,-1,1630,575,3.54339,-1.83121
413,449,5.27649,2.74689,0,0,0,0,0,0,0,-1,1637,575,5.27651,-2.74688
420,449,4.70264,2.21893,0,0,0,0,0,0,0,-1,1644,575,4.70263,-2.21894
427,449,2.10791,-1.09338,0,0,0,0,0,0,0,-1,1651,575,2.10796,1.09339
434,449,2.42639,-0.907776,0.00186853,-0.033103,-0.00970409,0.0043808,-0.0356152,-0.253326,0.0253303,0.0496129,1658,575,2.42636,0.907772
441,449,2.77673,-0.702576,0.00607924,-0.0286533,-0.0110592,0.00930162,-0.0318757,-0.283527,0.0249361,0.0481662,1665,575,2.77671,0.702598
448,449,3.17981,-0.650024,0.00888618,-0.0247027,-0.0113127,0.0123409,-0.0281575,-0.296393,0.0239688,0.0483289,1672,575,3.17975,0.650054
455,449,3.57886,-0.546631,0.00919786,-0.0203108,-0.0103514,0.0124669,-0.0235798,-0.305894,0.0211387,0.0492881,1679,575,3.57881,0.546658
462,449,3.93811,-0.259766,0,0,0,0,0,0,0,-1,1686,575,3.93807,0.259748
469,449,2.36926,-0.574829,0,0,0,0,0,0,0,-1,1693,575,2.36924,0.574823
476,449,2.65381,-0.577332,0.00454713,-0.012256,-0.00505561,0.00595095,-0.0136598,-0.270851,0.0116102,0.0482175,1700,575,2.65381,0.577345
483,449,3.08838,-0.696411,0.00354782,-0.00991329,-0.00349567,0.00440146,-0.0107669,-0.239513,0.00901085,0.0448288,1707,575,3.08834,0.696421
490,449,3.57874,-0.984497,0,0,0,0,0,0,0,-1,1714,575,3.57868,0.984506
497,449,2.80298,-0.56366,0.000313826,-0.00705988,-0.00126989,0.000526396,-0.00727244,-0.165855,0.00503295,0.0252054,1721,575,2.80292,0.563685
504,449,2.81519,-0.571289,6.8918e-05,-0.00536527,-0.000219137,7.77405e-05,-0.00537409,-0.0402386,0.00360892,0.0146901,1728,575,2.8152,0.57127
511,449,2.84436,-0.533264,-0.000116522,-0.0037036,0.000444497,-6.22628e-05,-0.00375786,0.121469,0.00248474,0.00995943,1735,575,2.84433,0.533289
518,449,2.84302,-0.494019,0.000376503,-0.00213541,0.000785049,0.000601671,-0.00236058,0.279321,0.00180796,0.0125364,1742,575,2.84304,0.494012
525,449,2.82166,-0.455078,0.000864719,-0.00103323,0.00109559,0.00136518,-0.00153369,0.428492,0.00167461,0.0128282,1749,575,2.82168,0.455078
532,449,2.80322,-0.397278,0.00101026,-0.000127734,0.00138304,0.00193678,-0.00105425,0.590246,0.00175175,0.0103002,1756,575,2.80317,0.397263
539,449,2.82788,-0.343445,0.00128117,0.0012617,0.00202185,0.00329331,-0.000750439,0.78299,0.00248376,0.0114946,1763,575,2.82791,0.34346
546,449,2.83704,-0.312988,0.00177347,0.00252898,0.00266916,0.00484698,-0.000544534,0.855694,0.00342728,0.0186195,1770,575,2.83701,0.313013
553,449,2.83264,-0.259521,0.00247241,0.00389687,0.0033419,0.00660159,-0.000232312,0.890388,0.00448051,0.0138186,1777,575,2.83259,0.259509
560,449,2.8374,-0.241943,0.00331809,0.00525881,0.00405185,0.00845487,0.000122028,0.902927,0.00559635,0.0124908,1784,575,2.83744,0.241955
567,449,2.82971,-0.18457,0.00447635,0.00668024,0.00488069,0.0105818,0.000574755,0.896425,0.00687099,0.00874107,1791,575,2.82967,0.18456
574,449,2.83423,-0.122803,0.00602045,0.00811306,0.0057656,0.0129265,0.00120698,0.875158,0.00824486,0.0108027,1798,575,2.83423,0.122775
581,449,2.81689,-0.0540771,0.00763922,0.00967731,0.00660259,0.015339,0.0019775,0.861964,0.00963474,0.0192174,1805,575,2.8169,0.054062
588,449,2.75891,0.0986328,0.00909854,0.0115195,0.00722721,0.0176369,0.00298113,0.868372,0.0109009,0.033713,1812,575,2.75886,-0.09865
595,449,2.80957,0.19165,0.0118114,0.0135865,0.00723178,0.019985,0.0054129,0.846459,0.0119354,0.0422051,1819,575,2.80956,-0.191636
602,449,2.85303,0.268433,0,0,0,0,0,0,0,-1,1826,575,2.85298,-0.268426
609,449,3.02991,0.501099,0,0,0,0,0,0,0,-1,1833,575,3.02995,-0.501088
616,449,1.89331,1.29047,0,0,0,0,0,0,0,-1,1840,575,1.89333,-1.29046
623,449,2.83691,-0.407776,0,0,0,0,0,0,0,-1,1847,575,2.83685,0.407805
630,449,2.90125,-0.134644,0,0,0,0,0,0,0,-1,1854,575,2.90124,0.134658
637,449,0,0,0,0,0,0,0,0,0,-1,1861,575,0,0
644,449,0,0,0,0,0,0,0,0,0,-1,1868,575,0,0
651,449,0,0,0,0,0,0,0,0,0,-1,1875,575,0,0
658,449,0,0,0,0,0,0,0,0,0,-1,1882,575,0,0
665,449,0,0,0,0,0,0,0,0,0,-1,1889,575,0,0
672,449,0,0,0,0,0,0,0,0,0,-1,1896,575,0,0
679,449,0,0,0,0,0,0,0,0,0,-1,1903,575,0,0
686,449,0,0,0,0,0,0,0,0,0,-1,1910,575,0,0
693,449,0,0,0,0,0,0,0,0,0,-1,1917,575,0,0
700,449,0,0,0,0,0,0,0,0,0,-1,1924,575,0,0
707,449,0,0,0,0,0,0,0,0,0,-1,1931,575,0,0
714,449,0,0,0,0,0,0,0,0,0,-1,1938,575,0,0
721,449,0,0,0,0,0,0,0,0,0,-1,1945,575,0,0
728,449,0,0,0,0,0,0,0,0,0,-1,1952,575,0,0
735,449,0,0,0,0,0,0,0,0,0,-1,1959,575,0,0
742,449,0,0,0,0,0,0,0,0,0,-1,1966,575,0,0
749,449,0,0,0,0,0,0,0,0,0,-1,1973,575,0,0
756,449,0,0,0,0,0,0,0,0,0,-1,1980,575,0,0
763,449,0,0,0,0,0,0,0,0,0,-1,1987,575,0,0
770,449,0,0,0,0,0,0,0,0,0,-1,1994,575,0,0
777,449,0,0,0,0,0,0,0,0,0,-1,2001,575,0,0
784,449,0,0,0,0,0,0,0,0,0,-1,2008,575,0,0
791,449,0,0,0,0,0,0,0,0,0,-1,2015,575,0,0
798,449,0,0,0,0,0,0,0,0,0,-1,2022,575,0,0
805,449,0,0,0,0,0,0,0,0,0,-1,2029,575,0,0
812,449,0,0,0,0,0,0,0,0,0,-1,2036,575,0,0
-700,442,0,0,0,0,0,0,0,0,0,-1,524,582,0,0
-693,442,0,0,0,0,0,0,0,0,0,-1,531,582,0,0
-686,442,0,0,0,0,0,0,0,0,0,-1,538,582,0,0
-679,442,0,0,0,0,0,0,0,0,0,-1,545,582,0,0
-672,442,0,0,0,0,0,0,0,0,0,-1,552,582,0,0
-665,442,0,0,0,0,0,0,0,0,0,-1,559,582,0,0
-658,442,0,0,0,0,0,0,0,0,0,-1,566,582,0,0
-651,442,0,0,0,0,0,0,0,0,0,-1,573,582,0,0
-644,442,0,0,0,0,0,0,0,0,0,-1,580,582,0,0
-637,442,0,0,0,0,0,0,0,0,0,-1,587,582,0,0
-630,442,0,0,0,0,0,0,0,0,0,-1,594,582,0,0
-623,442,0,0,0,0,0,0,0,0,0,-1,601,582,0,0
-616,442,0,0,0,0,0,0,0,0,0,-1,608,582,0,0
-609,442,0,0,0,0,0,0,0,0,0,-1,615,582,0,0
-602,442,0,0,0,0,0,0,0,0,0,-1,622,582,0,0
-595,442,0,0,0,0,0,0,0,0,0,-1,629,582,0,0
-588,442,0,0,0,0,0,0,0,0,0,-1,636,582,0,0
-581,442,0,0,0,0,0,0,0,0,0,-1,643,582,0,0
-574,442,0,0,0,0,0,0,0,0,0,-1,650,582,0,0
-567,442,0,0,0,0,0,0,0,0,0,-1,657,582,0,0
-560,442,0,0,0,0,0,0,0,0,0,-1,664,582,0,0
-553,442,0,0,0,0,0,0,0,0,0,-1,671,582,0,0
-546,442,0,0,0,0,0,0,0,0,0,-1,678,582,0,0
-539,442,0,0,0,0,0,0,0,0,0,-1,685,582,0,0
-532,442,0,0,0,0,0,0,0,0,0,-1,692,582,0,0
-525,442,0,0,0,0,0,0,0,0,0,-1,699,582,0,0
-518,442,0.174988,1.15985,0.00836581,0.0503234,-0.0247158,0.0617634,-0.00307426,-1.1373,0.0422377,0.0414881,706,582,0.174998,-1.15987
-511,442,0.305908,0.611877,0,0,0,0,0,0,0,-1,713,582,0.305935,-0.611849
-504,442,-0.252808,0.842651,0,0,0,0,0,0,0,-1,720,582,-0.252796,-0.842634
-497,442,0.0625,0.761719,0,0,0,0,0,0,0,-1,727,582,0.0624777,-0.761698
-490,442,0.321045,0.474976,0.0153525,0.0135068,-0.00876614,0.0232442,0.00561508,-0.732953,0.0140049,0.0452938,734,582,0.321045,-0.474998
-483,442,0.197754,0.430908,0.0152135,0.00659207,-0.00585172,0.0181709,0.00363471,-0.467944,0.0111025,0.0425712,741,582,0.197744,-0.430934
-476,442,0.275696,0.207214,0.0148396,0.00346577,-0.00344193,0.0158001,0.00250528,-0.272131,0.00980556,0.0418618,748,582,0.275716,-0.207198
-469,442,0.436035,0.00469971,0.0139354,0.00274967,-0.00178828,0.0142143,0.00247073,-0.154735,0.00876945,0.0401113,755,582,0.436013,-0.00467787
-462,442,0.812134,-0.000244141,0.0121486,0.000986273,-0.000393557,0.0121625,0.000972413,-0.0351993,0.00780438,0.0321562,762,582,0.812155,0.000257823
-455,442,0.915771,-0.0426025,0.0100394,0.000187236,0.000664317,0.010084,0.000142644,0.0670241,0.00667563,0.0181694,769,582,0.915742,0.0425766
-448,442,0.939026,-0.118225,0.00805614,-0.000301163,0.00140749,0.00828682,-0.000531837,0.162447,0.00571009,0.0122299,776,582,0.939031,0.118211
-441,442,0.936157,-0.168335,0.00598487,-0.000764945,0.00185192,0.00645959,-0.00123966,0.250935,0.00477357,0.0129178,783,582,0.936178,0.168305
-434,442,0.937012,-0.223816,0.00433457,-0.00125772,0.00237949,0.00520999,-0.00213314,0.352533,0.00436185,0.0122833,790,582,0.936991,0.223815
-427,442,0.925171,-0.280396,0.00266242,-0.00167498,0.00266626,0.00393061,-0.00294317,0.443973,0.0039822,0.0126117,797,582,0.92515,0.280374
-420,442,0.935974,-0.312378,0.000879889,-0.00210057,0.00267783,0.00245422,-0.00367491,0.531485,0.00356197,0.0129044,804,582,0.93596,0.31238
-413,442,0.949097,-0.339355,-0.000887465,-0.00229193,0.00233026,0.000844076,-0.00402347,0.639049,0.00300347,0.0102854,811,582,0.949075,0.339359
-406,442,0.939392,-0.386108,-0.00198755,-0.00272661,0.00190319,-0.000418353,-0.00429581,0.689509,0.00273511,0.00853532,818,582,0.939395,0.386106
-399,442,0.930908,-0.431702,-0.00245307,-0.00386299,0.00161622,-0.00139476,-0.0049213,0.579747,0.00292883,0.00766488,825,582,0.93092,0.431691
-392,442,0.929749,-0.459412,-0.00253119,-0.00502524,0.00164698,-0.00171239,-0.00584403,0.461364,0.00346908,0.00995789,832,582,0.929767,0.459399
-385,442,0.945374,-0.486877,-0.00235393,-0.006372,0.00150391,-0.00185339,-0.00687253,0.321293,0.00410578,0.0118568,839,582,0.945395,0.486881
-378,442,0.941284,-0.52301,-0.00200035,-0.00797889,0.00119234,-0.00177133,-0.00820791,0.189767,0.00498748,0.0116008,846,582,0.941297,0.523038
-371,442,0.934814,-0.573242,-0.000589397,-0.00987686,0.000740755,-0.000530686,-0.00993557,0.0790922,0.0064541,0.0224379,853,582,0.934819,0.573265
-364,442,0.848633,-0.698792,0.00356537,-0.0123506,-0.00029319,0.00357077,-0.012356,-0.0184129,0.00965034,0.0363522,860,582,0.848644,0.698802
-357,442,0.75116,-0.785339,0.00931914,-0.0135712,-0.00268239,0.00962928,-0.0138813,-0.115107,0.0136476,0.043929,867,582,0.751145,0.785352
-350,442,0.413879,-0.641602,0.015352,-0.0145053,-0.0052571,0.0162506,-0.0154039,-0.169294,0.0182779,0.045116,874,582,0.413852,0.641623
-343,442,0.152344,-0.29248,0.0235016,-0.0155084,-0.00820915,0.0251587,-0.0171655,-0.199185,0.0245808,0.0440746,881,582,0.152356,0.292493
-336,442,-0.048645,0.276428,0,0,0,0,0,0,0,-1,888,582,-0.0486293,-0.276424
-329,442,0.468201,-0.479553,0,0,0,0,0,0,0,-1,895,582,0.468212,0.479544
-322,442,0.912781,-0.645325,0.0614428,-0.013647,-0.0218,0.0673129,-0.019517,-0.26303,0.052602,0.0468773,902,582,0.912763,0.645304
-315,442,1.28259,-0.802429,0.078187,-0.0102125,-0.0280052,0.0863123,-0.0183378,-0.282382,0.0645286,0.0441316,909,582,1.28259,0.802415
-308,442,3.90607,-1.9209,0,0,0,0,0,0,0,-1,916,582,3.90608,1.92089
-301,442,1.94855,-0.66217,0,0,0,0,0,0,0,-1,923,582,1.94858,0.66215
-294,442,0.512451,-0.401245,0,0,0,0,0,0,0,-1,930,582,0.512427,0.401228
-287,442,0.644226,-0.475769,0,0,0,0,0,0,0,-1,937,582,0.644198,0.475791
-280,442,0,0,0,0,0,0,0,0,0,-1,944,582,0,0
-273,442,0,0,0,0,0,0,0,0,0,-1,951,582,0,0
-266,442,0,0,0,0,0,0,0,0,0,-1,958,582,0,0
-259,442,0,0,0,0,0,0,0,0,0,-1,965,582,0,0
-252,442,0,0,0,0,0,0,0,0,0,-1,972,582,0,0
-245,442,0,0,0,0,0,0,0,0,0,-1,979,582,0,0
-238,442,0,0,0,0,0,0,0,0,0,-1,986,582,0,0
-231,442,0,0,0,0,0,0,0,0,0,-1,993,582,0,0
-224,442,0,0,0,0,0,0,0,0,0,-1,1000,582,0,0
-217,442,0,0,0,0,0,0,0,0,0,-1,1007,582,0,0
-210,442,0,0,0,0,0,0,0,0,0,-1,1014,582,0,0
-203,442,0,0,0,0,0,0,0,0,0,-1,1021,582,0,0
-196,442,0,0,0,0,0,0,0,0,0,-1,1028,582,0,0
-189,442,0,0,0,0,0,0,0,0,0,-1,1035,582,0,0
-182,442,0,0,0,0,0,0,0,0,0,-1,1042,582,0,0
-175,442,0,0,0,0,0,0,0,0,0,-1,1049,582,0,0
-168,442,0,0,0,0,0,0,0,0,0,-1,1056,582,0,0
-161,442,0,0,0,0,0,0,0,0,0,-1,1063,582,0,0
-154,442,0,0,0,0,0,0,0,0,0,-1,1070,582,0,0
-147,442,0,0,0,0,0,0,0,0,0,-1,1077,582,0,0
-140,442,0,0,0,0,0,0,0,0,0,-1,1084,582,0,0
-133,442,0,0,0,0,0,0,0,0,0,-1,1091,582,0,0
-126,442,0,0,0,0,0,0,0,0,0,-1,1098,582,0,0
-119,442,0,0,0,0,0,0,0,0,0,-1,1105,582,0,0
-112,442,0,0,0,0,0,0,0,0,0,-1,1112,582,0,0
-105,442,0,0,0,0,0,0,0,0,0,-1,1119,582,0,0
-98,442,0,0,0,0,0,0,0,0,0,-1,1126,582,0,0
-91,442,0,0,0,0,0,0,0,0,0,-1,1133,582,0,0
-84,442,0,0,0,0,0,0,0,0,0,-1,1140,582,0,0
-77,442,0,0,0,0,0,0,0,0,0,-1,1147,582,0,0
-70,442,0,0,0,0,0,0,0,0,0,-1,1154,582,0,0
-63,442,0,0,0,0,0,0,0,0,0,-1,1161,582,0,0
-56,442,0,0,0,0,0,0,0,0,0,-1,1168,582,0,0
-49,442,0,0,0,0,0,0,0,0,0,-1,1175,582,0,0
-42,442,0,0,0,0,0,0,0,0,0,-1,1182,582,0,0
-35,442,0,0,0,0,0,0,0,0,0,-1,1189,582,0,0
-28,442,0,0,0,0,0,0,0,0,0,-1,1196,582,0,0
-21,442,0,0,0,0,0,0,0,0,0,-1,1203,582,0,0
-14,442,0,0,0,0,0,0,0,0,0,-1,1210,582,0,0
-7,442,0,0,0,0,0,0,0,0,0,-1,1217,582,0,0
0,442,0,0,0,0,0,0,0,0,0,-1,1224,582,0,0
7,442,0,0,0,0,0,0,0,0,0,-1,1231,582,0,0
14,442,0,0,0,0,0,0,0,0,0,-1,1238,582,0,0
21,442,0,0,0,0,0,0,0,0,0,-1,1245,582,0,0
28,442,0,0,0,0,0,0,0,0,0,-1,1252,582,0,0
35,442,0,0,0,0,0,0,0,0,0,-1,1259,582,0,0
42,442,0,0,0,0,0,0,0,0,0,-1,1266,582,0,0
49,442,0,0,0,0,0,0,0,0,0,-1,1273,582,0,0
56,442,0,0,0,0,0,0,0,0,0,-1,1280,582,0,0
63,442,0,0,0,0,0,0,0,0,0,-1,1287,582,0,0
70,442,0,0,0,0,0,0,0,0,0,-1,1294,582,0,0
77,442,0,0,0,0,0,0,0,0,0,-1,1301,582,0,0
84,442,0,0,0,0,0,0,0,0,0,-1,1308,582,0,0
91,442,0,0,0,0,0,0,0,0,0,-1,1315,582,0,0
98,442,0,0,0,0,0,0,0,0,0,-1,1322,582,0,0
105,442,0,0,0,0,0,0,0,0,0,-1,1329,582,0,0
112,442,0,0,0,0,0,0,0,0,0,-1,1336,582,0,0
119,442,0,0,0,0,0,0,0,0,0,-1,1343,582,0,0
126,442,0,0,0,0,0,0,0,0,0,-1,1350,582,0,0
133,442,0,0,0,0,0,0,0,0,0,-1,1357,582,0,0
140,442,0,0,0,0,0,0,0,0,0,-1,1364,582,0,0
147,442,0,0,0,0,0,0,0,0,0,-1,1371,582,0,0
154,442,0,0,0,0,0,0,0,0,0,-1,1378,582,0,0
161,442,0,0,0,0,0,0,0,0,0,-1,1385,582,0,0
168,442,0,0,0,0,0,0,0,0,0,-1,1392,582,0,0
175,442,0,0,0,0,0,0,0,0,0,-1,1399,582,0,0
182,442,0,0,0,0,0,0,0,0,0,-1,1406,582,0,0
189,442,0,0,0,0,0,0,0,0,0,-1,1413,582,0,0
196,442,0,0,0,0,0,0,0,0,0,-1,1420,582,0,0
203,442,0,0,0,0,0,0,0,0,0,-1,1427,582,0,0
210,442,0,0,0,0,0,0,0,0,0,-1,1434,582,0,0
217,442,0,0,0,0,0,0,0,0,0,-1,1441,582,0,0
224,442,0,0,0,0,0,0,0,0,0,-1,1448,582,0,0
231,442,0,0,0,0,0,0,0,0,0,-1,1455,582,0,0
238,442,0,0,0,0,0,0,0,0,0,-1,1462,582,0,0
245,442,0,0,0,0,0,0,0,0,0,-1,1469,582,0,0
252,442,0,0,0,0,0,0,0,0,0,-1,1476,582,0,0
259,442,0,0,0,0,0,0,0,0,0,-1,1483,582,0,0
266,442,0,0,0,0,0,0,0,0,0,-1,1490,582,0,0
273,442,0,0,0,0,0,0,0,0,0,-1,1497,582,0,0
280,442,0,0,0,0,0,0,0,0,0,-1,1504,582,0,0
287,442,0,0,0,0,0,0,0,0,0,-1,1511,582,0,0
294,442,0,0,0,0,0,0,0,0,0,-1,1518,582,0,0
301,442,0,0,0,0,0,0,0,0,0,-1,1525,582,0,0
308,442,0,0,0,0,0,0,0,0,0,-1,1532,582,0,0
315,442,0,0,0,0,0,0,0,0,0,-1,1539,582,0,0
322,442,0,0,0,0,0,0,0,0,0,-1,1546,582,0,0
329,442,0,0,0,0,0,0,0,0,0,-1,1553,582,0,0
336,442,0,0,0,0,0,0,0,0,0,-1,1560,582,0,0
343,442,0,0,0,0,0,0,0,0,0,-1,1567,582,0,0
350,442,0,0,0,0,0,0,0,0,0,-1,1574,582,0,0
357,442,0,0,0,0,0,0,0,0,0,-1,1581,582,0,0
364,442,0,0,0,0,0,0,0,0,0,-1,1588,582,0,0
371,442,0,0,0,0,0,0,0,0,0,-1,1595,582,0,0
378,442,0,0,0,0,0,0,0,0,0,-1,1602,582,0,0
385,442,0,0,0,0,0,0,0,0,0,-1,1609,582,0,0
392,442,0,0,0,0,0,0,0,0,0,-1,1616,582,0,0
399,442,0,0,0,0,0,0,0,0,0,-1,1623,582,0,0
406,442,3.7196,2.52588,0,0,0,0,0,0,0,-1,1630,582,3.71965,-2.52587
413,442,3.66699,2.87408,0,0,0,0,0,0,0,-1,1637,582,3.66703,-2.87408
420,442,4.69055,3.09448,0,0,0,0,0,0,0,-1,1644,582,4.69054,-3.0945
427,442,2.44519,-1.35358,0,0,0,0,0,0,0,-1,1651,582,2.44514,1.35361
434,442,2.79443,-1.14661,0.004621,-0.0361945,-0.010118,0.00699153,-0.038565,-0.230137,0.0283296,0.0448259,1658,582,2.79441,1.14659
441,442,3.18689,-0.565369,0.00844272,-0.031763,-0.0116499,0.0115744,-0.0348948,-0.26261,0.0279325,0.0459601,1665,582,3.18686,0.565361
448,442,3.38611,-0.39563,0.0101886,-0.0277616,-0.0118851,0.0136035,-0.0311765,-0.279787,0.026509,0.0484306,1672,582,3.38611,0.395638
455,442,3.79199,-0.259888,0.00939552,-0.0235362,-0.0106568,0.0125432,-0.0266839,-0.287203,0.0231331,0.04804,1679,582,3.79195,0.259865
462,442,3.98486,-0.207581,0,0,0,0,0,0,0,-1,1686,582,3.98481,0.20758
469,442,4.26062,-0.00695801,0,0,0,0,0,0,0,-1,1693,582,4.26057,0.00693043
476,442,2.6626,-0.560486,0,0,0,0,0,0,0,-1,1700,582,2.66262,0.560466
483,442,3.63,-0.778137,0,0,0,0,0,0,0,-1,1707,582,3.63003,0.778126
490,442,4.18726,-1.10156,0,0,0,0,0,0,0,-1,1714,582,4.18721,1.10156
497,442,3.11426,-0.735779,-0.000594616,-0.00969241,-0.00110846,-0.00046151,-0.00982552,-0.119509,0.00640206,0.0416784,1721,582,3.11429,0.735764
504,442,2.90784,-0.579834,-0.000542714,-0.00756108,-1.70852e-05,-0.000542672,-0.00756112,-0.00243433,0.00486995,0.0260144,1728,582,2.90786,0.579821
511,442,2.87036,-0.539734,-0.000509131,-0.00555625,0.000634751,-0.000430526,-0.00563486,0.123209,0.0036216,0.0122467,1735,582,2.8704,0.539738
518,442,2.89417,-0.496094,0.000330614,-0.00381252,0.000693766,0.000443698,-0.0039256,0.16158,0.00277681,0.0104257,1742,582,2.89418,0.496087
525,442,2.88696,-0.442566,0.000966572,-0.00245267,0.000626862,0.00107787,-0.00256397,0.175723,0.00216019,0.0107594,1749,582,2.88702,0.44256
532,442,2.89038,-0.39978,0.000855573,-0.00165494,0.000668972,0.00102271,-0.00182208,0.244824,0.00166391,0.0107435,1756,582,2.89041,0.399775
539,442,2.89209,-0.355835,0.000841481,-0.000413836,0.00108796,0.00146985,-0.0010422,0.523762,0.00145732,0.0105812,1763,582,2.89211,0.35584
546,442,2.88477,-0.304565,0.00100294,0.000655696,0.00144251,0.00228224,-0.000623603,0.725506,0.00176644,0.0125114,1770,582,2.88482,0.304556
553,442,2.86597,-0.262451,0.0013744,0.00181528,0.00179614,0.00340446,-0.000214781,0.846458,0.00234451,0.013716,1777,582,2.86596,0.262443
560,442,2.86536,-0.244446,0.00182814,0.00292625,0.00214733,0.00459361,0.000160786,0.910562,0.00301024,0.0135786,1784,582,2.8653,0.244428
567,442,2.86414,-0.176453,0.00256583,0.00404618,0.00258473,0.00599462,0.000617384,0.924848,0.00380734,0.00960611,1791,582,2.86414,0.17643
574,442,2.86023,-0.114319,0.00367432,0.00514017,0.00308091,0.00757414,0.00124035,0.902173,0.00469096,0.0113664,1798,582,2.86019,0.114331
581,442,2.86499,-0.065979,0.00480163,0.0063124,0.00354582,0.0091824,0.00193163,0.890347,0.0055901,0.0121428,1805,582,2.86501,0.0660004
588,442,2.84985,-0.0219116,0.00569073,0.00773111,0.00377254,0.010619,0.00280287,0.917453,0.00635453,0.0142048,1812,582,2.84987,0.0219028
595,442,2.82239,0.131042,0.00783987,0.00929824,0.00341208,0.0120582,0.00507993,0.890668,0.00699049,0.0288651,1819,582,2.82236,-0.131027
602,442,2.7854,0.0834961,0.0124275,0.0107388,0.00288775,0.0145918,0.00857447,0.643165,0.00846758,0.0437181,1826,582,2.78543,-0.0835016
609,442,2.92627,0.0765991,0.0204066,0.0116714,0.00221823,0.0209376,0.0111404,0.234968,0.0120966,0.0465015,1833,582,2.92625,-0.0766265
616,442,3.02783,0.239136,0,0,0,0,0,0,0,-1,1840,582,3.0278,-0.23914
623,442,2.50256,-0.921082,0,0,0,0,0,0,0,-1,1847,582,2.50257,0.92109
630,442,2.37939,2.68091,0,0,0,0,0,0,0,-1,1854,582,2.37942,-2.68089
637,442,2.4325,2.21686,0,0,0,0,0,0,0,-1,1861,582,2.43249,-2.21686
644,442,0,0,0,0,0,0,0,0,0,-1,1868,582,0,0
651,442,0,0,0,0,0,0,0,0,0,-1,1875,582,0,0
658,442,0,0,0,0,0,0,0,0,0,-1,1882,582,0,0
665,442,0,0,0,0,0,0,0,0,0,-1,1889,582,0,0
672,442,0,0,0,0,0,0,0,0,0,-1,1896,582,0,0
679,442,0,0,0,0,0,0,0,0,0,-1,1903,582,0,0
686,442,0,0,0,0,0,0,0,0,0,-1,1910,582,0,0
693,442,0,0,0,0,0,0,0,0,0,-1,1917,582,0,0
700,442,0,0,0,0,0,0,0,0,0,-1,1924,582,0,0
707,442,0,0,0,0,0,0,0,0,0,-1,1931,582,0,0
714,442,0,0,0,0,0,0,0,0,0,-1,1938,582,0,0
721,442,0,0,0,0,0,0,0,0,0,-1,1945,582,0,0
728,442,0,0,0,0,0,0,0,0,0,-1,1952,582,0,0
735,442,0,0,0,0,0,0,0,0,0,-1,1959,582,0,0
742,442,0,0,0,0,0,0,0,0,0,-1,1966,582,0,0
749,442,0,0,0,0,0,0,0,0,0,-1,1973,582,0,0
756,442,0,0,0,0,0,0,0,0,0,-1,1980,582,0,0
763,442,0,0,0,0,0,0,0,0,0,-1,1987,582,0,0
770,442,0,0,0,0,0,0,0,0,0,-1,1994,582,0,0
777,442,0,0,0,0,0,0,0,0,0,-1,2001,582,0,0
784,442,0,0,0,0,0,0,0,0,0,-1,2008,582,0,0
791,442,0,0,0,0,0,0,0,0,0,-1,2015,582,0,0
798,442,0,0,0,0,0,0,0,0,0,-1,2022,582,0,0
805,442,0,0,0,0,0,0,0,0,0,-1,2029,582,0,0
812,442,0,0,0,0,0,0,0,0,0,-1,2036,582,0,0
-700,435,0,0,0,0,0,0,0,0,0,-1,524,589,0,0
-693,435,0,0,0,0,0,0,0,0,0,-1,531,589,0,0
-686,435,0,0,0,0,0,0,0,0,0,-1,538,589,0,0
-679,435,0,0,0,0,0,0,0,0,0,-1,545,589,0,0
-672,435,0,0,0,0,0,0,0,0,0,-1,552,589,0,0
-665,435,0,0,0,0,0,0,0,0,0,-1,559,589,0,0
-658,435,0,0,0,0,0,0,0,0,0,-1,566,589,0,0
-651,435,0,0,0,0,0,0,0,0,0,-1,573,589,0,0
-644,435,0,0,0,0,0,0,0,0,0,-1,580,589,0,0
-637,435,0,0,0,0,0,0,0,0,0,-1,587,589,0,0
-630,435,0,0,0,0,0,0,0,0,0,-1,594,589,0,0
-623,435,0,0,0,0,0,0,0,0,0,-1,601,589,0,0
-616,435,0,0,0,0,0,0,0,0,0,-1,608,589,0,0
-609,435,0,0,0,0,0,0,0,0,0,-1,615,589,0,0
-602,435,0,0,0,0,0,0,0,0,0,-1,622,589,0,0
-595,435,0,0,0,0,0,0,0,0,0,-1,629,589,0,0
-588,435,0,0,0,0,0,0,0,0,0,-1,636,589,0,0
-581,435,0,0,0,0,0,0,0,0,0,-1,643,589,0,0
-574,435,0,0,0,0,0,0,0,0,0,-1,650,589,0,0
-567,435,0,0,0,0,0,0,0,0,0,-1,657,589,0,0
-560,435,0,0,0,0,0,0,0,0,0,-1,664,589,0,0
-553,435,0,0,0,0,0,0,0,0,0,-1,671,589,0,0
-546,435,0,0,0,0,0,0,0,0,0,-1,678,589,0,0
-539,435,0,0,0,0,0,0,0,0,0,-1,685,589,0,0
-532,435,0,0,0,0,0,0,0,0,0,-1,692,589,0,0
-525,435,0.379822,0.752441,0.00880998,0.0642272,-0.0279233,0.0758566,-0.00281941,-1.17617,0.0515366,0.0440993,699,589,0.379848,-0.752436
-518,435,0.411438,0.837524,0.0110836,0.0475236,-0.0237003,0.059198,-0.000590758,-1.1131,0.0396637,0.0419172,706,589,0.411457,-0.837532
-511,435,0.513916,0.682251,0,0,0,0,0,0,0,-1,713,589,0.513914,-0.682251
-504,435,0.195496,0.147705,0,0,0,0,0,0,0,-1,720,589,0.195474,-0.147693
-497,435,0.666016,0.116943,0,0,0,0,0,0,0,-1,727,589,0.66604,-0.11694
-490,435,0.591919,0.359619,0.0154758,0.0101689,-0.0110429,0.0241795,0.00146515,-0.667491,0.0156542,0.0454922,734,589,0.591929,-0.359627
-483,435,0.480286,0.43396,0.015015,0.00323634,-0.00844385,0.0194205,-0.00116913,-0.480885,0.0133538,0.0432828,741,589,0.480265,-0.43399
-476,435,0.536255,0.299011,0.0143847,0.000420794,-0.00617715,0.0167251,-0.00191953,-0.362157,0.0118419,0.042354,748,589,0.536229,-0.299015
-469,435,0.701233,0.0366211,0.0133051,0.000200461,-0.0045519,0.0147311,-0.00122548,-0.30358,0.0102536,0.0270626,755,589,0.701254,-0.0365906
-462,435,0.854675,-0.0330811,0.0114626,-0.00117575,-0.00317721,0.0122164,-0.00192953,-0.232938,0.00885776,0.0135861,762,589,0.854663,0.0330811
-455,435,0.874817,-0.0791626,0.00945399,-0.00167732,-0.00189374,0.00976734,-0.00199067,-0.163983,0.00726658,0.0114003,769,589,0.874827,0.079185
-448,435,0.886536,-0.130249,0.00768935,-0.00194297,-0.000765812,0.00774985,-0.00200347,-0.0788444,0.00594795,0.0119284,776,589,0.886535,0.130275
-441,435,0.890381,-0.159607,0.00579006,-0.00227179,0.000144506,0.00579265,-0.00227438,0.0179169,0.00480288,0.0101528,783,589,0.890393,0.159626
-434,435,0.895325,-0.192871,0.00417962,-0.00268414,0.00105985,0.00433955,-0.00284406,0.149767,0.00417731,0.0113641,790,589,0.895321,0.192861
-427,435,0.892578,-0.262085,0.00249228,-0.00309612,0.00176946,0.00300543,-0.00360927,0.282259,0.0038243,0.00954662,797,589,0.892584,0.262084
-420,435,0.899597,-0.303101,0.000669413,-0.00355118,0.00222583,0.00162631,-0.00450808,0.406019,0.00366965,0.00974429,804,589,0.899578,0.303092
-413,435,0.907532,-0.341675,-0.00125423,-0.00362677,0.00249779,0.000324668,-0.00520568,0.563703,0.00358358,0.0101019,811,589,0.907545,0.341667
-406,435,0.910522,-0.39032,-0.00228036,-0.00430919,0.00241888,-0.000671792,-0.00591776,0.58685,0.0037414,0.00985442,818,589,0.910551,0.390335
-399,435,0.901611,-0.441223,-0.00271035,-0.00595358,0.00221674,-0.00158541,-0.00707853,0.46961,0.00428935,0.00847125,825,589,0.901625,0.44125
-392,435,0.895447,-0.453491,-0.00278954,-0.00751237,0.00209668,-0.00199305,-0.00830885,0.363043,0.00500885,0.0097133,832,589,0.895439,0.453513
-385,435,0.891907,-0.479187,-0.00255918,-0.00932309,0.00176653,-0.0021256,-0.00975666,0.24068,0.00592441,0.0117637,839,589,0.891897,0.479188
-378,435,0.891724,-0.513306,-0.0019209,-0.0114944,0.00108196,-0.00180014,-0.0116151,0.111149,0.00721858,0.0169046,846,589,0.891713,0.51331
-371,435,0.722229,-0.746033,7.99424e-05,-0.0140096,0.000123572,8.10265e-05,-0.0140107,0.0087696,0.00936756,0.0342801,853,589,0.722215,0.74604
-364,435,0.704651,-1.10077,0.00507695,-0.0171948,-0.00150912,0.00517874,-0.0172966,-0.067349,0.0135903,0.0444659,860,589,0.704625,1.10077
-357,435,0.44397,-0.835022,0.0119219,-0.0191868,-0.00470869,0.012619,-0.0198839,-0.146977,0.0189212,0.0492425,867,589,0.443979,0.835
-350,435,0.217773,-0.305481,0.0191903,-0.0208549,-0.00821761,0.020811,-0.0224756,-0.194727,0.0249977,0.0480085,874,589,0.217747,0.305502
-343,435,-0.211243,-0.331177,0.0287716,-0.0225986,-0.012141,0.0314965,-0.0253235,-0.22078,0.0328695,0.0478951,881,589,-0.211221,0.331195
-336,435,-0.284668,0.350647,0,0,0,0,0,0,0,-1,888,589,-0.284662,-0.350631
-329,435,-0.465271,0.959106,0,0,0,0,0,0,0,-1,895,589,-0.465257,-0.959117
-322,435,0.852478,-0.44873,0.0724456,-0.0222635,-0.0281516,0.0801816,-0.0299995,-0.268177,0.0657756,0.0449618,902,589,0.852508,0.448756
-315,435,1.14258,-0.281677,0.091675,-0.0185326,-0.0350784,0.101893,-0.0287504,-0.283444,0.0792694,0.0454519,909,589,1.14259,0.281656
-308,435,1.45276,-0.481079,0,0,0,0,0,0,0,-1,916,589,1.45274,0.48105
-301,435,1.88135,-0.824158,0,0,0,0,0,0,0,-1,923,589,1.88135,0.824129
-294,435,2.23065,-1.1311,0,0,0,0,0,0,0,-1,930,589,2.23065,1.1311
-287,435,0,0,0,0,0,0,0,0,0,-1,937,589,0,0
-280,435,0,0,0,0,0,0,0,0,0,-1,944,589,0,0
-273,435,0,0,0,0,0,0,0,0,0,-1,951,589,0,0
-266,435,0,0,0,0,0,0,0,0,0,-1,958,589,0,0
-259,435,0,0,0,0,0,0,0,0,0,-1,965,589,0,0
-252,435,0,0,0,0,0,0,0,0,0,-1,972,589,0,0
-245,435,0,0,0,0,0,0,0,0,0,-1,979,589,0,0
-238,435,0,0,0,0,0,0,0,0,0,-1,986,589,0,0
-231,435,0,0,0,0,0,0,0,0,0,-1,993,589,0,0
-224,435,0,0,0,0,0,0,0,0,0,-1,1000,589,0,0
-217,435,0,0,0,0,0,0,0,0,0,-1,1007,589,0,0
-210,435,0,0,0,0,0,0,0,0,0,-1,1014,589,0,0
-203,435,0,0,0,0,0,0,0,0,0,-1,1021,589,0,0
-196,435,0,0,0,0,0,0,0,0,0,-1,1028,589,0,0
-189,435,0,0,0,0,0,0,0,0,0,-1,1035,589,0,0
-182,435,0,0,0,0,0,0,0,0,0,-1,1042,589,0,0
-175,435,0,0,0,0,0,0,0,0,0,-1,1049,589,0,0
-168,435,0,0,0,0,0,0,0,0,0,-1,1056,589,0,0
-161,435,0,0,0,0,0,0,0,0,0,-1,1063,589,0,0
-154,435,0,0,0,0,0,0,0,0,0,-1,1070,589,0,0
-147,435,0,0,0,0,0,0,0,0,0,-1,1077,589,0,0
-140,435,0,0,0,0,0,0,0,0,0,-1,1084,589,0,0
-133,435,0,0,0,0,0,0,0,0,0,-1,1091,589,0,0
-126,435,0,0,0,0,0,0,0,0,0,-1,1098,589,0,0
-119,435,0,0,0,0,0,0,0,0,0,-1,1105,589,0,0
-112,435,0,0,0,0,0,0,0,0,0,-1,1112,589,0,0
-105,435,0,0,0,0,0,0,0,0,0,-1,1119,589,0,0
-98,435,0,0,0,0,0,0,0,0,0,-1,1126,589,0,0
-91,435,0,0,0,0,0,0,0,0,0,-1,1133,589,0,0
-84,435,0,0,0,0,0,0,0,0,0,-1,1140,589,0,0
-77,435,0,0,0,0,0,0,0,0,0,-1,1147,589,0,0
-70,435,0,0,0,0,0,0,0,0,0,-1,1154,589,0,0
-63,435,0,0,0,0,0,0,0,0,0,-1,1161,589,0,0
-56,435,0,0,0,0,0,0,0,0,0,-1,1168,589,0,0
-49,435,0,0,0,0,0,0,0,0,0,-1,1175,589,0,0
-42,435,0,0,0,0,0,0,0,0,0,-1,1182,589,0,0
-35,435,0,0,0,0,0,0,0,0,0,-1,1189,589,0,0
-28,435,0,0,0,0,0,0,0,0,0,-1,1196,589,0,0
-21,435,0,0,0,0,0,0,0,0,0,-1,1203,589,0,0
-14,435,0,0,0,0,0,0,0,0,0,-1,1210,589,0,0
-7,435,0,0,0,0,0,0,0,0,0,-1,1217,589,0,0
0,435,0,0,0,0,0,0,0,0,0,-1,1224,589,0,0
7,435,0,0,0,0,0,0,0,0,0,-1,1231,589,0,0
14,435,0,0,0,0,0,0,0,0,0,-1,1238,589,0,0
21,435,0,0,0,0,0,0,0,0,0,-1,1245,589,0,0
28,435,0,0,0,0,0,0,0,0,0,-1,1252,589,0,0
35,435,0,0,0,0,0,0,0,0,0,-1,1259,589,0,0
42,435,0,0,0,0,0,0,0,0,0,-1,1266,589,0,0
49,435,0,0,0,0,0,0,0,0,0,-1,1273,589,0,0
56,435,0,0,0,0,0,0,0,0,0,-1,1280,589,0,0
63,435,0,0,0,0,0,0,0,0,0,-1,1287,589,0,0
70,435,0,0,0,0,0,0,0,0,0,-1,1294,589,0,0
77,435,0,0,0,0,0,0,0,0,0,-1,1301,589,0,0
84,435,0,0,0,0,0,0,0,0,0,-1,1308,589,0,0
91,435,0,0,0,0,0,0,0,0,0,-1,1315,589,0,0
98,435,0,0,0,0,0,0,0,0,0,-1,1322,589,0,0
105,435,0,0,0,0,0,0,0,0,0,-1,1329,589,0,0
112,435,0,0,0,0,0,0,0,0,0,-1,1336,589,0,0
119,435,0,0,0,0,0,0,0,0,0,-1,1343,589,0,0
126,435,0,0,0,0,0,0,0,0,0,-1,1350,589,0,0
133,435,0,0,0,0,0,0,0,0,0,-1,1357,589,0,0
140,435,0,0,0,0,0,0,0,0,0,-1,1364,589,0,0
147,435,0,0,0,0,0,0,0,0,0,-1,1371,589,0,0
154,435,0,0,0,0,0,0,0,0,0,-1,1378,589,0,0
161,435,0,0,0,0,0,0,0,0,0,-1,1385,589,0,0
168,435,0,0,0,0,0,0,0,0,0,-1,1392,589,0,0
175,435,0,0,0,0,0,0,0,0,0,-1,1399,589,0,0
182,435,0,0,0,0,0,0,0,0,0,-1,1406,589,0,0
189,435,0,0,0,0,0,0,0,0,0,-1,1413,589,0,0
196,435,0,0,0,0,0,0,0,0,0,-1,1420,589,0,0
203,435,0,0,0,0,0,0,0,0,0,-1,1427,589,0,0
210,435,0,0,0,0,0,0,0,0,0,-1,1434,589,0,0
217,435,0,0,0,0,0,0,0,0,0,-1,1441,589,0,0
224,435,0,0,0,0,0,0,0,0,0,-1,1448,589,0,0
231,435,0,0,0,0,0,0,0,0,0,-1,1455,589,0,0
238,435,0,0,0,0,0,0,0,0,0,-1,1462,589,0,0
245,435,0,0,0,0,0,0,0,0,0,-1,1469,589,0,0
252,435,0,0,0,0,0,0,0,0,0,-1,1476,589,0,0
259,435,0,0,0,0,0,0,0,0,0,-1,1483,589,0,0
266,435,0,0,0,0,0,0,0,0,0,-1,1490,589,0,0
273,435,0,0,0,0,0,0,0,0,0,-1,1497,589,0,0
280,435,0,0,0,0,0,0,0,0,0,-1,1504,589,0,0
287,435,0,0,0,0,0,0,0,0,0,-1,1511,589,0,0
294,435,0,0,0,0,0,0,0,0,0,-1,1518,589,0,0
301,435,0,0,0,0,0,0,0,0,0,-1,1525,589,0,0
308,435,0,0,0,0,0,0,0,0,0,-1,1532,589,0,0
315,435,0,0,0,0,0,0,0,0,0,-1,1539,589,0,0
322,435,0,0,0,0,0,0,0,0,0,-1,1546,589,0,0
329,435,0,0,0,0,0,0,0,0,0,-1,1553,589,0,0
336,435,0,0,0,0,0,0,0,0,0,-1,1560,589,0,0
343,435,0,0,0,0,0,0,0,0,0,-1,1567,589,0,0
350,435,0,0,0,0,0,0,0,0,0,-1,1574,589,0,0
357,435,0,0,0,0,0,0,0,0,0,-1,1581,589,0,0
364,435,0,0,0,0,0,0,0,0,0,-1,1588,589,0,0
371,435,0,0,0,0,0,0,0,0,0,-1,1595,589,0,0
378,435,0,0,0,0,0,0,0,0,0,-1,1602,589,0,0
385,435,0,0,0,0,0,0,0,0,0,-1,1609,589,0,0
392,435,0,0,0,0,0,0,0,0,0,-1,1616,589,0,0
399,435,0,0,0,0,0,0,0,0,0,-1,1623,589,0,0
406,435,0,0,0,0,0,0,0,0,0,-1,1630,589,0,0
413,435,3.62073,3.42682,0,0,0,0,0,0,0,-1,1637,589,3.62069,-3.4268
420,435,3.6062,3.71564,0,0,0,0,0,0,0,-1,1644,589,3.60616,-3.71562
427,435,3.11963,0.640198,0,0,0,0,0,0,0,-1,1651,589,3.11967,-0.640192
434,435,2.72107,-1.34802,0.00852873,-0.0390871,-0.0114307,0.0111306,-0.041689,-0.22381,0.0321516,0.0414962,1658,589,2.7211,1.34803
441,435,3.71521,0.451477,0.0112883,-0.0348051,-0.0127628,0.0145862,-0.038103,-0.25287,0.0314139,0.043375,1665,589,3.7152,-0.451482
448,435,3.74255,0.111267,0.0116078,-0.030901,-0.0127111,0.0151187,-0.034412,-0.269491,0.0293108,0.0458045,1672,589,3.74252,-0.111267
455,435,4.05237,-0.272827,0.0093138,-0.0270808,-0.0111016,0.0124328,-0.0301998,-0.273894,0.0253164,0.0482391,1679,589,4.05237,0.272847
462,435,4.34119,-0.367676,0,0,0,0,0,0,0,-1,1686,589,4.34114,0.367662
469,435,4.62561,-0.652222,0.00336539,-0.0217349,-0.00653878,0.00496664,-0.0233361,-0.240158,0.0174502,0.0467011,1693,589,4.62562,0.652204
476,435,4.72107,-0.576355,0.00206389,-0.0189415,-0.00475727,0.00309108,-0.0199687,-0.212656,0.0144534,0.0432124,1700,589,4.72108,0.576369
483,435,3.89355,-1.08215,0,0,0,0,0,0,0,-1,1707,589,3.8936,1.08214
490,435,3.13354,-0.395508,0,0,0,0,0,0,0,-1,1714,589,3.1335,0.395483
497,435,3.24939,-0.566162,-0.0012697,-0.0123728,-0.00156059,-0.00105452,-0.012588,-0.137019,0.0080635,0.0470806,1721,589,3.24942,0.56618
504,435,3.10242,-0.548157,-0.000869316,-0.00976609,-0.00047463,-0.000844066,-0.00979134,-0.0531475,0.00626519,0.0386632,1728,589,3.10237,0.548142
511,435,2.90125,-0.531311,-0.000577551,-0.00735277,0.000174107,-0.00057308,-0.00735724,0.025675,0.0047254,0.0196869,1735,589,2.90127,0.531308
518,435,2.93262,-0.488647,0.000597785,-0.00529042,3.00643e-05,0.000597939,-0.00529057,0.00510568,0.00374232,0.00965624,1742,589,2.93268,0.488631
525,435,2.94128,-0.434143,0.00141819,-0.00366118,-0.000331958,0.00143979,-0.00368278,-0.0649858,0.00305056,0.0106653,1749,589,2.94134,0.434115
532,435,2.9325,-0.397217,0.00109244,-0.00292001,-0.00051862,0.00115839,-0.00298596,-0.126484,0.00246907,0.0126719,1756,589,2.93248,0.397247
539,435,2.9408,-0.360596,0.00084467,-0.00175927,-0.000331487,0.000886206,-0.00180081,-0.124653,0.00158102,0.0140922,1763,589,2.94076,0.360602
546,435,2.93042,-0.308411,0.000735157,-0.000839694,-0.000285499,0.000785317,-0.000889853,-0.173916,0.000967787,0.0129418,1770,589,2.93042,0.308387
553,435,2.91321,-0.272766,0.000857477,0.000152832,-0.000270259,0.000949194,6.11146e-05,-0.327171,0.00061344,0.00997425,1777,589,2.91324,0.272753
560,435,2.91394,-0.232178,0.00101458,0.00105256,-0.000282952,0.00131716,0.000749979,-0.81891,0.000762898,0.00903414,1784,589,2.91388,0.232206
567,435,2.92688,-0.166687,0.00144079,0.0018926,-0.000225764,0.00198607,0.00134732,-1.17825,0.00117073,0.00850975,1791,589,2.92689,0.166717
574,435,2.90845,-0.114685,0.00221935,0.00265863,-0.000116164,0.00268746,0.00219052,-1.32755,0.00165111,0.00970538,1798,589,2.90845,0.114709
581,435,2.90125,-0.06604,0.00298553,0.00343521,2.2516e-05,0.00343633,0.0029844,1.52089,0.00215609,0.0162375,1805,589,2.90127,0.0660112
588,435,2.90125,-0.0291748,0.00347797,0.00445803,-5.5985e-05,0.00446121,0.00347479,-1.51392,0.00270594,0.0157307,1812,589,2.90121,0.0292031
595,435,2.8844,0.0266113,0.00518072,0.00554974,-0.000669969,0.00606014,0.00467032,-0.919769,0.00366572,0.0178005,1819,589,2.88444,-0.0265844
602,435,2.84424,0.0664063,0.00927418,0.00642899,-0.00129979,0.00977856,0.00592462,-0.370159,0.00568769,0.036862,1826,589,2.84428,-0.0663875
609,435,2.79163,-0.00427246,0.016519,0.00698348,-0.00209121,0.0169575,0.00654502,-0.206672,0.00987491,0.0438704,1833,589,2.79163,0.00428013
616,435,2.93945,-0.192139,0,0,0,0,0,0,0,-1,1840,589,2.93946,0.192146
623,435,2.95862,-0.513977,0,0,0,0,0,0,0,-1,1847,589,2.95865,0.514004
630,435,3.14246,1.75177,0,0,0,0,0,0,0,-1,1854,589,3.14251,-1.75179
637,435,3.16968,-0.106079,0,0,0,0,0,0,0,-1,1861,589,3.16969,0.106102
644,435,0,0,0,0,0,0,0,0,0,-1,1868,589,0,0
651,435,0,0,0,0,0,0,0,0,0,-1,1875,589,0,0
658,435,0,0,0,0,0,0,0,0,0,-1,1882,589,0,0
665,435,0,0,0,0,0,0,0,0,0,-1,1889,589,0,0
672,435,0,0,0,0,0,0,0,0,0,-1,1896,589,0,0
679,435,0,0,0,0,0,0,0,0,0,-1,1903,589,0,0
686,435,0,0,0,0,0,0,0,0,0,-1,1910,589,0,0
693,435,0,0,0,0,0,0,0,0,0,-1,1917,589,0,0
700,435,0,0,0,0,0,0,0,0,0,-1,1924,589,0,0
707,435,0,0,0,0,0,0,0,0,0,-1,1931,589,0,0
714,435,0,0,0,0,0,0,0,0,0,-1,1938,589,0,0
721,435,0,0,0,0,0,0,0,0,0,-1,1945,589,0,0
728,435,0,0,0,0,0,0,0,0,0,-1,1952,589,0,0
735,435,0,0,0,0,0,0,0,0,0,-1,1959,589,0,0
742,435,0,0,0,0,0,0,0,0,0,-1,1966,589,0,0
749,435,0,0,0,0,0,0,0,0,0,-1,1973,589,0,0
756,435,0,0,0,0,0,0,0,0,0,-1,1980,589,0,0
763,435,0,0,0,0,0,0,0,0,0,-1,1987,589,0,0
770,435,0,0,0,0,0,0,0,0,0,-1,1994,589,0,0
777,435,0,0,0,0,0,0,0,0,0,-1,2001,589,0,0
784,435,0,0,0,0,0,0,0,0,0,-1,2008,589,0,0
791,435,0,0,0,0,0,0,0,0,0,-1,2015,589,0,0
798,435,0,0,0,0,0,0,0,0,0,-1,2022,589,0,0
805,435,0,0,0,0,0,0,0,0,0,-1,2029,589,0,0
812,435,0,0,0,0,0,0,0,0,0,-1,2036,589,0,0
-700,428,0,0,0,0,0,0,0,0,0,-1,524,596,0,0
-693,428,0,0,0,0,0,0,0,0,0,-1,531,596,0,0
-686,428,0,0,0,0,0,0,0,0,0,-1,538,596,0,0
-679,428,0,0,0,0,0,0,0,0,0,-1,545,596,0,0
-672,428,0,0,0,0,0,0,0,0,0,-1,552,596,0,0
-665,428,0,0,0,0,0,0,0,0,0,-1,559,596,0,0
-658,428,0,0,0,0,0,0,0,0,0,-1,566,596,0,0
-651,428,0,0,0,0,0,0,0,0,0,-1,573,596,0,0
-644,428,0,0,0,0,0,0,0,0,0,-1,580,596,0,0
-637,428,0,0,0,0,0,0,0,0,0,-1,587,596,0,0
-630,428,0,0,0,0,0,0,0,0,0,-1,594,596,0,0
-623,428,0,0,0,0,0,0,0,0,0,-1,601,596,0,0
-616,428,0,0,0,0,0,0,0,0,0,-1,608,596,0,0
-609,428,0,0,0,0,0,0,0,0,0,-1,615,596,0,0
-602,428,0,0,0,0,0,0,0,0,0,-1,622,596,0,0
-595,428,0,0,0,0,0,0,0,0,0,-1,629,596,0,0
-588,428,0,0,0,0,0,0,0,0,0,-1,636,596,0,0
-581,428,0,0,0,0,0,0,0,0,0,-1,643,596,0,0
-574,428,0,0,0,0,0,0,0,0,0,-1,650,596,0,0
-567,428,0,0,0,0,0,0,0,0,0,-1,657,596,0,0
-560,428,0,0,0,0,0,0,0,0,0,-1,664,596,0,0
-553,428,0,0,0,0,0,0,0,0,0,-1,671,596,0,0
-546,428,0,0,0,0,0,0,0,0,0,-1,678,596,0,0
-539,428,0,0,0,0,0,0,0,0,0,-1,685,596,0,0
-532,428,0,0,0,0,0,0,0,0,0,-1,692,596,0,0
-525,428,0.170105,0.695129,0.0114948,0.0612706,-0.0245455,0.0713383,0.00142714,-1.18156,0.0470903,0.0423882,699,596,0.170103,-0.69513
-518,428,0.15271,0.742188,0.0128949,0.0448657,-0.021319,0.0555267,0.00223386,-1.10709,0.0362961,0.0416177,706,596,0.152737,-0.742195
-511,428,0.436646,0.507019,0.0140587,0.0318025,-0.0182475,0.0432205,0.00264069,-1.01167,0.027975,0.0450542,713,596,0.43663,-0.50703
-504,428,0.793091,0.231689,0,0,0,0,0,0,0,-1,720,596,0.793097,-0.231687
-497,428,0.355957,0.585938,0,0,0,0,0,0,0,-1,727,596,0.355931,-0.585942
-490,428,0.553589,0.23877,0,0,0,0,0,0,0,-1,734,596,0.553617,-0.238766
-483,428,0.578247,0.21759,0.0127041,0.00208868,-0.00911423,0.0179435,-0.00315069,-0.521726,0.0131391,0.0403222,741,596,0.578273,-0.217586
-476,428,0.703064,0.103271,0.0117995,-0.000553195,-0.0071416,0.0150651,-0.00381875,-0.428874,0.0115291,0.031559,748,596,0.703082,-0.103288
-469,428,0.798584,0.0222168,0.010616,-0.000561508,-0.00568617,0.0130001,-0.00294562,-0.397019,0.00979735,0.0167157,755,596,0.798586,-0.0222276
-462,428,0.839233,-0.0182495,0.00880236,-0.00183228,-0.00449679,0.0104489,-0.0034788,-0.350993,0.00837007,0.0141881,762,596,0.839228,0.0182695
-455,428,0.831421,-0.0743408,0.00702505,-0.00236834,-0.00321862,0.00802208,-0.00336536,-0.300394,0.0067553,0.0113355,769,596,0.831408,0.0743208
-448,428,0.831177,-0.130066,0.00564457,-0.00274654,-0.00193334,0.00606859,-0.00317056,-0.215902,0.00542099,0.0099281,776,596,0.831167,0.130064
-441,428,0.833191,-0.168091,0.00410759,-0.00325001,-0.000760614,0.00418539,-0.00332782,-0.101942,0.00434716,0.0117378,783,596,0.833178,0.168119
-434,428,0.847473,-0.21228,0.00282966,-0.00374581,0.000417155,0.00285602,-0.00377217,0.0631039,0.00383896,0.00920948,790,596,0.847489,0.212303
-427,428,0.855408,-0.266113,0.00150501,-0.00425222,0.00151098,0.00187747,-0.00462467,0.241683,0.00386409,0.0100936,797,596,0.855421,0.266119
-420,428,0.865479,-0.291321,4.65931e-05,-0.00476692,0.00241623,0.00105021,-0.00577053,0.393681,0.00424066,0.0109129,804,596,0.865492,0.291335
-413,428,0.869507,-0.323242,-0.0015908,-0.00478262,0.00325687,0.000440151,-0.00681357,0.557585,0.00469598,0.0129604,811,596,0.869523,0.323256
-406,428,0.86615,-0.389771,-0.00213164,-0.00557412,0.00360674,0.000143519,-0.00784928,0.562765,0.00528135,0.0146547,818,596,0.86613,0.389769
-399,428,0.860168,-0.438416,-0.00213346,-0.00740593,0.00359919,-0.000308315,-0.00923107,0.46931,0.00605389,0.013017,825,596,0.860176,0.438404
-392,428,0.854553,-0.463623,-0.00180984,-0.0090046,0.00343403,-0.000433925,-0.0103805,0.381086,0.00678034,0.0112988,832,596,0.854582,0.463624
-385,428,0.844421,-0.508179,-0.00109963,-0.0108143,0.00306832,-0.000211681,-0.0117023,0.281696,0.00773194,0.0162033,839,596,0.844432,0.508153
-378,428,0.805176,-0.545776,0.000211538,-0.0130431,0.00215133,0.000551973,-0.0133835,0.156942,0.00911189,0.0301904,846,596,0.805178,0.545759
-371,428,0.649231,-0.669312,0.00296179,-0.0157149,0.000793606,0.00299545,-0.0157486,0.0423899,0.0116269,0.0390235,853,596,0.649229,0.669337
-364,428,0.630554,-1.32611,0,0,0,0,0,0,0,-1,860,596,0.630532,1.32609
-357,428,0.725647,-1.56213,0,0,0,0,0,0,0,-1,867,596,0.725671,1.56215
-350,428,0.561462,0.0245361,0,0,0,0,0,0,0,-1,874,596,0.561452,-0.0245618
-343,428,-0.519714,-0.413452,0,0,0,0,0,0,0,-1,881,596,-0.519739,0.413469
-336,428,-0.554443,0.27179,0,0,0,0,0,0,0,-1,888,596,-0.554474,-0.271777
-329,428,0.249146,1.49481,0,0,0,0,0,0,0,-1,895,596,0.249128,-1.49478
-322,428,0.746582,-0.116333,0,0,0,0,0,0,0,-1,902,596,0.746569,0.116333
-315,428,1.01239,0.393066,0,0,0,0,0,0,0,-1,909,596,1.01239,-0.393061
-308,428,1.32922,-0.593994,0,0,0,0,0,0,0,-1,916,596,1.32924,0.594
-301,428,0,0,0,0,0,0,0,0,0,-1,923,596,0,0
-294,428,0,0,0,0,0,0,0,0,0,-1,930,596,0,0
-287,428,0,0,0,0,0,0,0,0,0,-1,937,596,0,0
-280,428,0,0,0,0,0,0,0,0,0,-1,944,596,0,0
-273,428,0,0,0,0,0,0,0,0,0,-1,951,596,0,0
-266,428,0,0,0,0,0,0,0,0,0,-1,958,596,0,0
-259,428,0,0,0,0,0,0,0,0,0,-1,965,596,0,0
-252,428,0,0,0,0,0,0,0,0,0,-1,972,596,0,0
-245,428,0,0,0,0,0,0,0,0,0,-1,979,596,0,0
-238,428,0,0,0,0,0,0,0,0,0,-1,986,596,0,0
-231,428,0,0,0,0,0,0,0,0,0,-1,993,596,0,0
-224,428,0,0,0,0,0,0,0,0,0,-1,1000,596,0,0
-217,428,0,0,0,0,0,0,0,0,0,-1,1007,596,0,0
-210,428,0,0,0,0,0,0,0,0,0,-1,1014,596,0,0
-203,428,0,0,0,0,0,0,0,0,0,-1,1021,596,0,0
-196,428,0,0,0,0,0,0,0,0,0,-1,1028,596,0,0
-189,428,0,0,0,0,0,0,0,0,0,-1,1035,596,0,0
-182,428,0,0,0,0,0,0,0,0,0,-1,1042,596,0,0
-175,428,0,0,0,0,0,0,0,0,0,-1,1049,596,0,0
-168,428,0,0,0,0,0,0,0,0,0,-1,1056,596,0,0
-161,428,0,0,0,0,0,0,0,0,0,-1,1063,596,0,0
-154,428,0,0,0,0,0,0,0,0,0,-1,1070,596,0,0
-147,428,0,0,0,0,0,0,0,0,0,-1,1077,596,0,0
-140,428,0,0,0,0,0,0,0,0,0,-1,1084,596,0,0
-133,428,0,0,0,0,0,0,0,0,0,-1,1091,596,0,0
-126,428,0,0,0,0,0,0,0,0,0,-1,1098,596,0,0
-119,428,0,0,0,0,0,0,0,0,0,-1,1105,596,0,0
-112,428,0,0,0,0,0,0,0,0,0,-1,1112,596,0,0
-105,428,0,0,0,0,0,0,0,0,0,-1,1119,596,0,0
-98,428,0,0,0,0,0,0,0,0,0,-1,1126,596,0,0
-91,428,0,0,0,0,0,0,0,0,0,-1,1133,596,0,0
-84,428,0,0,0,0,0,0,0,0,0,-1,1140,596,0,0
-77,428,0,0,0,0,0,0,0,0,0,-1,1147,596,0,0
-70,428,0,0,0,0,0,0,0,0,0,-1,1154,596,0,0
-63,428,0,0,0,0,0,0,0,0,0,-1,1161,596,0,0
-56,428,0,0,0,0,0,0,0,0,0,-1,1168,596,0,0
-49,428,0,0,0,0,0,0,0,0,0,-1,1175,596,0,0
-42,428,0,0,0,0,0,0,0,0,0,-1,1182,596,0,0
-35,428,0,0,0,0,0,0,0,0,0,-1,1189,596,0,0
-28,428,0,0,0,0,0,0,0,0,0,-1,1196,596,0,0
-21,428,0,0,0,0,0,0,0,0,0,-1,1203,596,0,0
-14,428,0,0,0,0,0,0,0,0,0,-1,1210,596,0,0
-7,428,0,0,0,0,0,0,0,0,0,-1,1217,596,0,0
0,428,0,0,0,0,0,0,0,0,0,-1,1224,596,0,0
7,428,0,0,0,0,0,0,0,0,0,-1,1231,596,0,0
14,428,0,0,0,0,0,0,0,0,0,-1,1238,596,0,0
21,428,0,0,0,0,0,0,0,0,0,-1,1245,596,0,0
28,428,0,0,0,0,0,0,0,0,0,-1,1252,596,0,0
35,428,0,0,0,0,0,0,0,0,0,-1,1259,596,0,0
42,428,0,0,0,0,0,0,0,0,0,-1,1266,596,0,0
49,428,0,0,0,0,0,0,0,0,0,-1,1273,596,0,0
56,428,0,0,0,0,0,0,0,0,0,-1,1280,596,0,0
63,428,0,0,0,0,0,0,0,0,0,-1,1287,596,0,0
70,428,0,0,0,0,0,0,0,0,0,-1,1294,596,0,0
77,428,0,0,0,0,0,0,0,0,0,-1,1301,596,0,0
84,428,0,0,0,0,0,0,0,0,0,-1,1308,596,0,0
91,428,0,0,0,0,0,0,0,0,0,-1,1315,596,0,0
98,428,0,0,0,0,0,0,0,0,0,-1,1322,596,0,0
105,428,0,0,0,0,0,0,0,0,0,-1,1329,596,0,0
112,428,0,0,0,0,0,0,0,0,0,-1,1336,596,0,0
119,428,0,0,0,0,0,0,0,0,0,-1,1343,596,0,0
126,428,0,0,0,0,0,0,0,0,0,-1,1350,596,0,0
133,428,0,0,0,0,0,0,0,0,0,-1,1357,596,0,0
140,428,0,0,0,0,0,0,0,0,0,-1,1364,596,0,0
147,428,0,0,0,0,0,0,0,0,0,-1,1371,596,0,0
154,428,0,0,0,0,0,0,0,0,0,-1,1378,596,0,0
161,428,0,0,0,0,0,0,0,0,0,-1,1385,596,0,0
168,428,0,0,0,0,0,0,0,0,0,-1,1392,596,0,0
175,428,0,0,0,0,0,0,0,0,0,-1,1399,596,0,0
182,428,0,0,0,0,0,0,0,0,0,-1,1406,596,0,0
189,428,0,0,0,0,0,0,0,0,0,-1,1413,596,0,0
196,428,0,0,0,0,0,0,0,0,0,-1,1420,596,0,0
203,428,0,0,0,0,0,0,0,0,0,-1,1427,596,0,0
210,428,0,0,0,0,0,0,0,0,0,-1,1434,596,0,0
217,428,0,0,0,0,0,0,0,0,0,-1,1441,596,0,0
224,428,0,0,0,0,0,0,0,0,0,-1,1448,596,0,0
231,428,0,0,0,0,0,0,0,0,0,-1,1455,596,0,0
238,428,0,0,0,0,0,0,0,0,0,-1,1462,596,0,0
245,428,0,0,0,0,0,0,0,0,0,-1,1469,596,0,0
252,428,0,0,0,0,0,0,0,0,0,-1,1476,596,0,0
259,428,0,0,0,0,0,0,0,0,0,-1,1483,596,0,0
266,428,0,0,0,0,0,0,0,0,0,-1,1490,596,0,0
273,428,0,0,0,0,0,0,0,0,0,-1,1497,596,0,0
280,428,0,0,0,0,0,0,0,0,0,-1,1504,596,0,0
287,428,0,0,0,0,0,0,0,0,0,-1,1511,596,0,0
294,428,0,0,0,0,0,0,0,0,0,-1,1518,596,0,0
301,428,0,0,0,0,0,0,0,0,0,-1,1525,596,0,0
308,428,0,0,0,0,0,0,0,0,0,-1,1532,596,0,0
315,428,0,0,0,0,0,0,0,0,0,-1,1539,596,0,0
322,428,0,0,0,0,0,0,0,0,0,-1,1546,596,0,0
329,428,0,0,0,0,0,0,0,0,0,-1,1553,596,0,0
336,428,0,0,0,0,0,0,0,0,0,-1,1560,596,0,0
343,428,0,0,0,0,0,0,0,0,0,-1,1567,596,0,0
350,428,0,0,0,0,0,0,0,0,0,-1,1574,596,0,0
357,428,0,0,0,0,0,0,0,0,0,-1,1581,596,0,0
364,428,0,0,0,0,0,0,0,0,0,-1,1588,596,0,0
371,428,0,0,0,0,0,0,0,0,0,-1,1595,596,0,0
378,428,0,0,0,0,0,0,0,0,0,-1,1602,596,0,0
385,428,0,0,0,0,0,0,0,0,0,-1,1609,596,0,0
392,428,0,0,0,0,0,0,0,0,0,-1,1616,596,0,0
399,428,0,0,0,0,0,0,0,0,0,-1,1623,596,0,0
406,428,0,0,0,0,0,0,0,0,0,-1,1630,596,0,0
413,428,0,0,0,0,0,0,0,0,0,-1,1637,596,0,0
420,428,2.95886,0.551819,0,0,0,0,0,0,0,-1,1644,596,2.9589,-0.551797
427,428,3.19385,0.384705,0,0,0,0,0,0,0,-1,1651,596,3.19383,-0.384692
434,428,3.58264,0.326721,0.0119187,-0.0410784,-0.0126108,0.0147665,-0.0439261,-0.222094,0.0352527,0.0398806,1658,596,3.58266,-0.326739
441,428,3.9519,0.128723,0.0128179,-0.0376197,-0.0136834,0.016291,-0.0410928,-0.248567,0.0341465,0.0408227,1665,596,3.95191,-0.1287
448,428,4.11597,-0.176636,0.0109076,-0.0342231,-0.0131734,0.0144714,-0.037787,-0.264207,0.0311563,0.0450284,1672,596,4.11598,0.176625
455,428,4.27405,-0.252258,0.00690617,-0.0310521,-0.0111835,0.00995607,-0.034102,-0.26624,0.0266799,0.0466572,1679,596,4.274,0.252281
462,428,4.51819,-0.276733,0,0,0,0,0,0,0,-1,1686,596,4.51823,0.276706
469,428,5.11121,-0.862427,0.000669009,-0.0256992,-0.00665133,0.00225179,-0.027282,-0.233619,0.0189831,0.0438567,1693,596,5.11126,0.862439
476,428,4.63452,-0.556213,0.000179322,-0.0226129,-0.00513662,0.00128346,-0.023717,-0.211732,0.0162561,0.0435989,1700,596,4.63454,0.556225
483,428,4.36401,-0.597229,0.000304825,-0.0196789,-0.00421149,0.00115612,-0.0205302,-0.199448,0.014088,0.0412226,1707,596,4.36403,0.597204
490,428,4.10742,-0.59552,0,0,0,0,0,0,0,-1,1714,596,4.10737,0.595542
497,428,2.94995,-0.240723,-0.00141089,-0.014898,-0.00307751,-0.000741844,-0.015567,-0.214066,0.0101398,0.0441531,1721,596,2.94994,0.240715
504,428,2.90564,-0.446594,-0.000502343,-0.0117774,-0.00212962,-0.000113513,-0.0121662,-0.180593,0.00807323,0.0404754,1728,596,2.90563,0.446611
511,428,2.99146,-0.531799,0.000149276,-0.00890536,-0.0015471,0.000406321,-0.00916241,-0.164642,0.00624812,0.0355186,1735,596,2.99149,0.531785
518,428,3.00928,-0.514954,0.00167583,-0.0064016,-0.00182035,0.00206711,-0.00679289,-0.211728,0.00535238,0.023933,1742,596,3.00923,0.514955
525,428,2.95508,-0.454163,0.00265315,-0.00439612,-0.00225388,0.00331218,-0.00505514,-0.284467,0.00486569,0.014208,1749,596,2.95504,0.454174
532,428,2.9502,-0.392944,0.00197875,-0.00360112,-0.00229175,0.00279933,-0.00442171,-0.343837,0.004204,0.015419,1756,596,2.95014,0.392959
539,428,2.97656,-0.399963,0.00138316,-0.00238113,-0.00186051,0.00214751,-0.00314548,-0.389809,0.00307396,0.0193291,1763,596,2.97661,0.399963
546,428,2.98022,-0.362183,0.000925457,-0.00147782,-0.00151871,0.00166041,-0.00221277,-0.450715,0.00224375,0.0158165,1770,596,2.9802,0.362152
553,428,2.97595,-0.289612,0.000780509,-0.000531635,-0.00123831,0.00152581,-0.00127693,-0.541792,0.00162029,0.0111615,1777,596,2.97597,0.289588
560,428,2.98584,-0.226868,0.000654421,0.000271888,-0.0010013,0.00148256,-0.000556252,-0.691026,0.00121693,0.0117973,1784,596,2.98583,0.226896
567,428,2.98254,-0.176147,0.00084424,0.000943333,-0.000692712,0.00158827,0.000199305,-0.8211,0.000999059,0.010475,1791,596,2.98259,0.176149
574,428,2.96582,-0.136292,0.00140226,0.0014849,-0.000406652,0.00185232,0.00103483,-0.836031,0.00107189,0.0117315,1798,596,2.9658,0.13628
581,428,2.94946,-0.0826416,0.00192329,0.00197567,-7.63409e-05,0.00203019,0.00186877,-0.950633,0.00130299,0.0107996,1805,596,2.94945,0.0826624
588,428,2.94409,-0.0409546,0.00221519,0.00273558,4.34435e-06,0.00273562,0.00221515,1.56245,0.00167739,0.0134539,1812,596,2.94411,0.0409291
595,428,2.93359,-0.00292969,0.00365572,0.00351003,-0.000488449,0.00407672,0.00308902,-0.711374,0.00245571,0.00932943,1819,596,2.9336,0.00294204
602,428,2.9281,0.0439453,0.00732013,0.00418362,-0.00103824,0.00763267,0.00387109,-0.292395,0.00440687,0.0186325,1826,596,2.92815,-0.043918
609,428,2.88806,-0.0012207,0.0138942,0.00451895,-0.00173816,0.014206,0.00420707,-0.177542,0.00842603,0.0382016,1833,596,2.8881,0.00124076
616,428,3.07043,0.00683594,0,0,0,0,0,0,0,-1,1840,596,3.07043,-0.00680767
623,428,3.57788,-0.0570679,0,0,0,0,0,0,0,-1,1847,596,3.57787,0.0570881
630,428,3.31091,-0.815125,0,0,0,0,0,0,0,-1,1854,596,3.31097,0.815138
637,428,-0.21521,1.09222,0,0,0,0,0,0,0,-1,1861,596,-0.215255,-1.09222
644,428,0.724487,1.48029,0,0,0,0,0,0,0,-1,1868,596,0.724441,-1.48027
651,428,0,0,0,0,0,0,0,0,0,-1,1875,596,0,0
658,428,0,0,0,0,0,0,0,0,0,-1,1882,596,0,0
665,428,0,0,0,0,0,0,0,0,0,-1,1889,596,0,0
672,428,0,0,0,0,0,0,0,0,0,-1,1896,596,0,0
679,428,0,0,0,0,0,0,0,0,0,-1,1903,596,0,0
686,428,0,0,0,0,0,0,0,0,0,-1,1910,596,0,0
693,428,0,0,0,0,0,0,0,0,0,-1,1917,596,0,0
700,428,0,0,0,0,0,0,0,0,0,-1,1924,596,0,0
707,428,0,0,0,0,0,0,0,0,0,-1,1931,596,0,0
714,428,0,0,0,0,0,0,0,0,0,-1,1938,596,0,0
721,428,0,0,0,0,0,0,0,0,0,-1,1945,596,0,0
728,428,0,0,0,0,0,0,0,0,0,-1,1952,596,0,0
735,428,0,0,0,0,0,0,0,0,0,-1,1959,596,0,0
742,428,0,0,0,0,0,0,0,0,0,-1,1966,596,0,0
749,428,0,0,0,0,0,0,0,0,0,-1,1973,596,0,0
756,428,0,0,0,0,0,0,0,0,0,-1,1980,596,0,0
763,428,0,0,0,0,0,0,0,0,0,-1,1987,596,0,0
770,428,0,0,0,0,0,0,0,0,0,-1,1994,596,0,0
777,428,0,0,0,0,0,0,0,0,0,-1,2001,596,0,0
784,428,0,0,0,0,0,0,0,0,0,-1,2008,596,0,0
791,428,0,0,0,0,0,0,0,0,0,-1,2015,596,0,0
798,428,0,0,0,0,0,0,0,0,0,-1,2022,596,0,0
805,428,0,0,0,0,0,0,0,0,0,-1,2029,596,0,0
812,428,0,0,0,0,0,0,0,0,0,-1,2036,596,0,0
-700,421,0,0,0,0,0,0,0,0,0,-1,524,603,0,0
-693,421,0,0,0,0,0,0,0,0,0,-1,531,603,0,0
-686,421,0,0,0,0,0,0,0,0,0,-1,538,603,0,0
-679,421,0,0,0,0,0,0,0,0,0,-1,545,603,0,0
-672,421,0,0,0,0,0,0,0,0,0,-1,552,603,0,0
-665,421,0,0,0,0,0,0,0,0,0,-1,559,603,0,0
-658,421,0,0,0,0,0,0,0,0,0,-1,566,603,0,0
-651,421,0,0,0,0,0,0,0,0,0,-1,573,603,0,0
-644,421,0,0,0,0,0,0,0,0,0,-1,580,603,0,0
-637,421,0,0,0,0,0,0,0,0,0,-1,587,603,0,0
-630,421,0,0,0,0,0,0,0,0,0,-1,594,603,0,0
-623,421,0,0,0,0,0,0,0,0,0,-1,601,603,0,0
-616,421,0,0,0,0,0,0,0,0,0,-1,608,603,0,0
-609,421,0,0,0,0,0,0,0,0,0,-1,615,603,0,0
-602,421,0,0,0,0,0,0,0,0,0,-1,622,603,0,0
-595,421,0,0,0,0,0,0,0,0,0,-1,629,603,0,0
-588,421,0,0,0,0,0,0,0,0,0,-1,636,603,0,0
-581,421,0,0,0,0,0,0,0,0,0,-1,643,603,0,0
-574,421,0,0,0,0,0,0,0,0,0,-1,650,603,0,0
-567,421,0,0,0,0,0,0,0,0,0,-1,657,603,0,0
-560,421,0,0,0,0,0,0,0,0,0,-1,664,603,0,0
-553,421,0,0,0,0,0,0,0,0,0,-1,671,603,0,0
-546,421,0,0,0,0,0,0,0,0,0,-1,678,603,0,0
-539,421,0,0,0,0,0,0,0,0,0,-1,685,603,0,0
-532,421,-0.205505,1.88831,0.0125352,0.0750773,-0.0250848,0.0838952,0.00371724,-1.23276,0.0547332,0.0407806,692,603,-0.2055,-1.88831
-525,421,-0.144226,1.0722,0.0137505,0.0564901,-0.021492,0.0654283,0.0048123,-1.17667,0.0421065,0.0423053,699,603,-0.144215,-1.07219
-518,421,0.0629883,0.571167,0.0145162,0.0416052,-0.0183848,0.050896,0.00522531,-1.10287,0.03233,0.0435236,706,603,0.0630104,-0.571187
-511,421,0.412415,0.386475,0.0147375,0.0297209,-0.0155879,0.039524,0.00493443,-1.00941,0.0248682,0.0438472,713,603,0.412402,-0.386466
-504,421,0.741394,0.202515,0,0,0,0,0,0,0,-1,720,603,0.741403,-0.202497
-497,421,0.0170288,0.117432,0,0,0,0,0,0,0,-1,727,603,0.0170223,-0.117427
-490,421,0.291504,0.156616,0.0125072,0.0089343,-0.00970354,0.0205873,0.000854121,-0.694367,0.0134492,0.0414399,734,603,0.2915,-0.156626
-483,421,0.64386,0.15802,0.0113821,0.00252488,-0.00779069,0.0159149,-0.00200795,-0.52695,0.0113387,0.0318718,741,603,0.64387,-0.158028
-476,421,0.740112,0.0788574,0.010223,8.72013e-05,-0.00614657,0.0131215,-0.00281134,-0.440646,0.00981985,0.017717,748,603,0.740138,-0.0788374
-469,421,0.797974,0.0160522,0.00887384,0.000176976,-0.00493077,0.0110997,-0.00204889,-0.424037,0.00816887,0.0147219,755,603,0.797969,-0.0160298
-462,421,0.820435,-0.0246582,0.00699738,-0.00109553,-0.00403218,0.00866339,-0.00276154,-0.391815,0.00688331,0.01621,762,603,0.820435,0.0246605
-455,421,0.809937,-0.0697021,0.00529062,-0.00186883,-0.00295074,0.00635,-0.00292821,-0.34469,0.00547686,0.0162728,769,603,0.809908,0.0696956
-448,421,0.776245,-0.113098,0.00407882,-0.00262437,-0.0017457,0.0045062,-0.00305175,-0.240097,0.00439044,0.01642,776,603,0.776258,0.113068
-441,421,0.785156,-0.176514,0.00273143,-0.00358708,-0.000528664,0.00277535,-0.003631,-0.0829011,0.00370969,0.0126106,783,603,0.785179,0.176536
-434,421,0.794373,-0.219482,0.00163695,-0.00438896,0.000748993,0.00172865,-0.00448066,0.121826,0.00370045,0.00927486,790,603,0.794384,0.219507
-427,421,0.810547,-0.259766,0.000570011,-0.00516808,0.00210176,0.00125748,-0.00585555,0.316124,0.0043834,0.00960559,797,603,0.810537,0.259775
-420,421,0.820618,-0.289001,-0.000515237,-0.00588043,0.00341241,0.00114278,-0.00753844,0.452285,0.00544666,0.0117376,804,603,0.820598,0.289027
-413,421,0.817383,-0.324524,-0.0018672,-0.00601721,0.00474956,0.00124084,-0.00912525,0.579452,0.00653649,0.0137037,811,603,0.817387,0.324505
-406,421,0.802734,-0.384094,-0.00193847,-0.00693478,0.00554152,0.00164196,-0.0105152,0.573636,0.00761669,0.0178416,818,603,0.80271,0.384107
-399,421,0.802368,-0.433472,-0.00143453,-0.00877947,0.00583532,0.00178778,-0.0120018,0.504537,0.00865885,0.0149451,825,603,0.802347,0.433481
-392,421,0.789551,-0.467896,-0.000519778,-0.0102275,0.00575974,0.0021586,-0.0129059,0.435271,0.00940638,0.0144379,832,603,0.789531,0.467904
-385,421,0.678284,-0.546753,0.000879381,-0.0117861,0.00551823,0.00294631,-0.013853,0.358388,0.0103581,0.0319096,839,603,0.6783,0.546725
-378,421,0.51593,-0.414795,0.00306833,-0.0137947,0.00451083,0.00419914,-0.0149255,0.245626,0.0116061,0.0433138,846,603,0.515951,0.414804
-371,421,0.553711,-0.535095,0.00675264,-0.016356,0.00285556,0.00710027,-0.0167037,0.121143,0.0141111,0.0429942,853,603,0.553736,0.535066
-364,421,0.58667,-0.623779,0,0,0,0,0,0,0,-1,860,603,0.586668,0.62375
-357,421,0.786499,-0.822205,0.0221025,-0.0229459,-0.0043538,0.0225195,-0.0233628,-0.0954697,0.0264916,0.0467935,867,603,0.786521,0.822174
-350,421,1.09338,-1.36694,0.0315202,-0.026038,-0.00974594,0.0331256,-0.0276434,-0.163262,0.0351326,0.0480387,874,603,1.09337,1.36697
-343,421,1.47345,-1.81201,0,0,0,0,0,0,0,-1,881,603,1.47346,1.81202
-336,421,0.215759,-2.30457,0,0,0,0,0,0,0,-1,888,603,0.215761,2.30456
-329,421,0.973633,0.796021,0,0,0,0,0,0,0,-1,895,603,0.973631,-0.796047
-322,421,-0.293518,0.658386,0,0,0,0,0,0,0,-1,902,603,-0.29351,-0.65837
-315,421,0.789917,0.918884,0,0,0,0,0,0,0,-1,909,603,0.789904,-0.918871
-308,421,0,0,0,0,0,0,0,0,0,-1,916,603,0,0
-301,421,0,0,0,0,0,0,0,0,0,-1,923,603,0,0
-294,421,0,0,0,0,0,0,0,0,0,-1,930,603,0,0
-287,421,0,0,0,0,0,0,0,0,0,-1,937,603,0,0
-280,421,0,0,0,0,0,0,0,0,0,-1,944,603,0,0
-273,421,0,0,0,0,0,0,0,0,0,-1,951,603,0,0
-266,421,0,0,0,0,0,0,0,0,0,-1,958,603,0,0
-259,421,0,0,0,0,0,0,0,0,0,-1,965,603,0,0
-252,421,0,0,0,0,0,0,0,0,0,-1,972,603,0,0
-245,421,0,0,0,0,0,0,0,0,0,-1,979,603,0,0
-238,421,0,0,0,0,0,0,0,0,0,-1,986,603,0,0
-231,421,0,0,0,0,0,0,0,0,0,-1,993,603,0,0
-224,421,0,0,0,0,0,0,0,0,0,-1,1000,603,0,0
-217,421,0,0,0,0,0,0,0,0,0,-1,1007,603,0,0
-210,421,0,0,0,0,0,0,0,0,0,-1,1014,603,0,0
-203,421,0,0,0,0,0,0,0,0,0,-1,1021,603,0,0
-196,421,0,0,0,0,0,0,0,0,0,-1,1028,603,0,0
-189,421,0,0,0,0,0,0,0,0,0,-1,1035,603,0,0
-182,421,0,0,0,0,0,0,0,0,0,-1,1042,603,0,0
-175,421,0,0,0,0,0,0,0,0,0,-1,1049,603,0,0
-168,421,0,0,0,0,0,0,0,0,0,-1,1056,603,0,0
-161,421,0,0,0,0,0,0,0,0,0,-1,1063,603,0,0
-154,421,0,0,0,0,0,0,0,0,0,-1,1070,603,0,0
-147,421,0,0,0,0,0,0,0,0,0,-1,1077,603,0,0
-140,421,0,0,0,0,0,0,0,0,0,-1,1084,603,0,0
-133,421,0,0,0,0,0,0,0,0,0,-1,1091,603,0,0
-126,421,0,0,0,0,0,0,0,0,0,-1,1098,603,0,0
-119,421,0,0,0,0,0,0,0,0,0,-1,1105,603,0,0
-112,421,0,0,0,0,0,0,0,0,0,-1,1112,603,0,0
-105,421,0,0,0,0,0,0,0,0,0,-1,1119,603,0,0
-98,421,0,0,0,0,0,0,0,0,0,-1,1126,603,0,0
-91,421,0,0,0,0,0,0,0,0,0,-1,1133,603,0,0
-84,421,0,0,0,0,0,0,0,0,0,-1,1140,603,0,0
-77,421,0,0,0,0,0,0,0,0,0,-1,1147,603,0,0
-70,421,0,0,0,0,0,0,0,0,0,-1,1154,603,0,0
-63,421,0,0,0,0,0,0,0,0,0,-1,1161,603,0,0
-56,421,0,0,0,0,0,0,0,0,0,-1,1168,603,0,0
-49,421,0,0,0,0,0,0,0,0,0,-1,1175,603,0,0
-42,421,0,0,0,0,0,0,0,0,0,-1,1182,603,0,0
-35,421,0,0,0,0,0,0,0,0,0,-1,1189,603,0,0
-28,421,0,0,0,0,0,0,0,0,0,-1,1196,603,0,0
-21,421,0,0,0,0,0,0,0,0,0,-1,1203,603,0,0
-14,421,0,0,0,0,0,0,0,0,0,-1,1210,603,0,0
-7,421,0,0,0,0,0,0,0,0,0,-1,1217,603,0,0
0,421,0,0,0,0,0,0,0,0,0,-1,1224,603,0,0
7,421,0,0,0,0,0,0,0,0,0,-1,1231,603,0,0
14,421,0,0,0,0,0,0,0,0,0,-1,1238,603,0,0
21,421,0,0,0,0,0,0,0,0,0,-1,1245,603,0,0
28,421,0,0,0,0,0,0,0,0,0,-1,1252,603,0,0
35,421,0,0,0,0,0,0,0,0,0,-1,1259,603,0,0
42,421,0,0,0,0,0,0,0,0,0,-1,1266,603,0,0
49,421,0,0,0,0,0,0,0,0,0,-1,1273,603,0,0
56,421,0,0,0,0,0,0,0,0,0,-1,1280,603,0,0
63,421,0,0,0,0,0,0,0,0,0,-1,1287,603,0,0
70,421,0,0,0,0,0,0,0,0,0,-1,1294,603,0,0
77,421,0,0,0,0,0,0,0,0,0,-1,1301,603,0,0
84,421,0,0,0,0,0,0,0,0,0,-1,1308,603,0,0
91,421,0,0,0,0,0,0,0,0,0,-1,1315,603,0,0
98,421,0,0,0,0,0,0,0,0,0,-1,1322,603,0,0
105,421,0,0,0,0,0,0,0,0,0,-1,1329,603,0,0
112,421,0,0,0,0,0,0,0,0,0,-1,1336,603,0,0
119,421,0,0,0,0,0,0,0,0,0,-1,1343,603,0,0
126,421,0,0,0,0,0,0,0,0,0,-1,1350,603,0,0
133,421,0,0,0,0,0,0,0,0,0,-1,1357,603,0,0
140,421,0,0,0,0,0,0,0,0,0,-1,1364,603,0,0
147,421,0,0,0,0,0,0,0,0,0,-1,1371,603,0,0
154,421,0,0,0,0,0,0,0,0,0,-1,1378,603,0,0
161,421,0,0,0,0,0,0,0,0,0,-1,1385,603,0,0
168,421,0,0,0,0,0,0,0,0,0,-1,1392,603,0,0
175,421,0,0,0,0,0,0,0,0,0,-1,1399,603,0,0
182,421,0,0,0,0,0,0,0,0,0,-1,1406,603,0,0
189,421,0,0,0,0,0,0,0,0,0,-1,1413,603,0,0
196,421,0,0,0,0,0,0,0,0,0,-1,1420,603,0,0
203,421,0,0,0,0,0,0,0,0,0,-1,1427,603,0,0
210,421,0,0,0,0,0,0,0,0,0,-1,1434,603,0,0
217,421,0,0,0,0,0,0,0,0,0,-1,1441,603,0,0
224,421,0,0,0,0,0,0,0,0,0,-1,1448,603,0,0
231,421,0,0,0,0,0,0,0,0,0,-1,1455,603,0,0
238,421,0,0,0,0,0,0,0,0,0,-1,1462,603,0,0
245,421,0,0,0,0,0,0,0,0,0,-1,1469,603,0,0
252,421,0,0,0,0,0,0,0,0,0,-1,1476,603,0,0
259,421,0,0,0,0,0,0,0,0,0,-1,1483,603,0,0
266,421,0,0,0,0,0,0,0,0,0,-1,1490,603,0,0
273,421,0,0,0,0,0,0,0,0,0,-1,1497,603,0,0
280,421,0,0,0,0,0,0,0,0,0,-1,1504,603,0,0
287,421,0,0,0,0,0,0,0,0,0,-1,1511,603,0,0
294,421,0,0,0,0,0,0,0,0,0,-1,1518,603,0,0
301,421,0,0,0,0,0,0,0,0,0,-1,1525,603,0,0
308,421,0,0,0,0,0,0,0,0,0,-1,1532,603,0,0
315,421,0,0,0,0,0,0,0,0,0,-1,1539,603,0,0
322,421,0,0,0,0,0,0,0,0,0,-1,1546,603,0,0
329,421,0,0,0,0,0,0,0,0,0,-1,1553,603,0,0
336,421,0,0,0,0,0,0,0,0,0,-1,1560,603,0,0
343,421,0,0,0,0,0,0,0,0,0,-1,1567,603,0,0
350,421,0,0,0,0,0,0,0,0,0,-1,1574,603,0,0
357,421,0,0,0,0,0,0,0,0,0,-1,1581,603,0,0
364,421,0,0,0,0,0,0,0,0,0,-1,1588,603,0,0
371,421,0,0,0,0,0,0,0,0,0,-1,1595,603,0,0
378,421,0,0,0,0,0,0,0,0,0,-1,1602,603,0,0
385,421,0,0,0,0,0,0,0,0,0,-1,1609,603,0,0
392,421,0,0,0,0,0,0,0,0,0,-1,1616,603,0,0
399,421,0,0,0,0,0,0,0,0,0,-1,1623,603,0,0
406,421,0,0,0,0,0,0,0,0,0,-1,1630,603,0,0
413,421,0,0,0,0,0,0,0,0,0,-1,1637,603,0,0
420,421,0,0,0,0,0,0,0,0,0,-1,1644,603,0,0
427,421,0,0,0,0,0,0,0,0,0,-1,1651,603,0,0
434,421,3.68176,-0.0327759,0.0138821,-0.0422616,-0.0150473,0.0176606,-0.0460402,-0.246026,0.0379748,0.0448808,1658,603,3.6818,0.0328037
441,421,4.1936,-0.233826,0.0118146,-0.0402203,-0.015152,0.0159051,-0.0443108,-0.263681,0.036032,0.0491203,1665,603,4.19361,0.23383
448,421,4.3606,-0.356445,0,0,0,0,0,0,0,-1,1672,603,4.36056,0.356454
455,421,4.50513,-0.23877,0.00200581,-0.0352565,-0.0114189,0.00522671,-0.0384774,-0.274924,0.0275595,0.0461293,1679,603,4.50509,0.238778
462,421,4.6803,-0.213135,-0.00183021,-0.0324708,-0.00939007,0.000818485,-0.0351195,-0.274931,0.0236905,0.0457602,1686,603,4.68024,0.213135
469,421,4.7793,-0.452759,-0.00337018,-0.0293046,-0.00745845,-0.00137822,-0.0312966,-0.260984,0.0204205,0.0462236,1693,603,4.77931,0.452767
476,421,4.87451,-0.476746,-0.00214081,-0.0257143,-0.00668499,-0.000377039,-0.0274781,-0.257962,0.0181944,0.0454688,1700,603,4.87452,0.47677
483,421,4.57056,-0.457275,-0.000681708,-0.0223361,-0.00655301,0.00114693,-0.0241647,-0.27213,0.0165054,0.0431661,1707,603,4.57059,0.457298
490,421,4.35144,-0.517273,0,0,0,0,0,0,0,-1,1714,603,4.35148,0.517244
497,421,2.40466,-0.492615,0,0,0,0,0,0,0,-1,1721,603,2.4047,0.492615
504,421,2.62415,-0.468872,0.000504186,-0.0127217,-0.00585575,0.00272419,-0.0149417,-0.362374,0.0109824,0.0411224,1728,603,2.62418,0.468891
511,421,3.06421,-0.528198,0.001605,-0.00937088,-0.00540807,0.00382192,-0.0115878,-0.389034,0.00926574,0.0418547,1735,603,3.06424,0.528203
518,421,3.13879,-0.499084,0.00355063,-0.00640463,-0.00585418,0.00625729,-0.00911129,-0.433073,0.0089239,0.0391829,1742,603,3.13882,0.499069
525,421,3.05396,-0.430664,0.00471017,-0.00401462,-0.00631174,0.00802035,-0.00732481,-0.483015,0.00886257,0.0265563,1749,603,3.05389,0.430678
532,421,2.98889,-0.412842,0.0036242,-0.00319987,-0.0059722,0.00709033,-0.006666,-0.525866,0.00794348,0.0181592,1756,603,2.9889,0.412851
539,421,3.01855,-0.40564,0.0025676,-0.00200937,-0.00504982,0.00582329,-0.00526506,-0.57265,0.00640456,0.0192031,1763,603,3.01861,0.405658
546,421,3.02527,-0.358765,0.00162455,-0.00125938,-0.00411348,0.00454148,-0.00417631,-0.616817,0.00503469,0.012757,1770,603,3.02528,0.358738
553,421,3.03088,-0.28595,0.00106064,-0.000525449,-0.00326669,0.00362917,-0.00309398,-0.666318,0.00388571,0.0118565,1777,603,3.0309,0.285975
560,421,3.02759,-0.220581,0.000557443,2.59247e-05,-0.00252526,0.00283089,-0.00224752,-0.732971,0.00293847,0.0136506,1784,603,3.02761,0.220591
567,421,3.02185,-0.170654,0.000480803,0.000362489,-0.00173425,0.00215691,-0.00131362,-0.768349,0.00202333,0.014806,1791,603,3.02185,0.170668
574,421,3.01917,-0.13092,0.000747186,0.000531935,-0.00108142,0.00172632,-0.0004472,-0.7358,0.00132534,0.0157976,1798,603,3.01911,0.130891
581,421,3.01001,-0.072937,0.000953032,0.000641068,-0.000397851,0.00122439,0.000369714,-0.598576,0.000725147,0.0144652,1805,603,3.01002,0.0729372
588,421,2.98889,-0.0484009,0.00106955,0.00106357,-3.81132e-05,0.00110479,0.00102833,-0.746286,0.000712409,0.0104171,1812,603,2.98894,0.0484022
595,421,3,0.0158691,0.00234883,0.00149348,-0.000340502,0.00246783,0.00137449,-0.3362,0.00142788,0.0136108,1819,603,3.00006,-0.0158387
602,421,3.00317,0.041626,0.00566757,0.00201055,-0.000807945,0.00583811,0.00184,-0.208032,0.00344654,0.0129195,1826,603,3.00321,-0.0416059
609,421,2.99683,0.0580444,0.0115167,0.00222555,-0.00134752,0.0117082,0.00203407,-0.141159,0.00722355,0.0194846,1833,603,2.99684,-0.0580182
616,421,3.09534,0.020752,0.0192703,0.0033438,-0.00177375,0.0194654,0.00314865,-0.109583,0.0120651,0.0354958,1840,603,3.09536,-0.020735
623,421,3.41272,0.0402222,0.0290181,0.00406813,-0.00241028,0.0292488,0.00383742,-0.0954285,0.0183543,0.0443616,1847,603,3.41274,-0.0402078
630,421,3.45386,0.175659,0,0,0,0,0,0,0,-1,1854,603,3.4538,-0.175659
637,421,0.246582,0.441162,0,0,0,0,0,0,0,-1,1861,603,0.246623,-0.441164
644,421,1.13696,1.00635,0,0,0,0,0,0,0,-1,1868,603,1.13701,-1.00634
651,421,2.01404,0.64978,0,0,0,0,0,0,0,-1,1875,603,2.01402,-0.649768
658,421,0,0,0,0,0,0,0,0,0,-1,1882,603,0,0
665,421,0,0,0,0,0,0,0,0,0,-1,1889,603,0,0
672,421,0,0,0,0,0,0,0,0,0,-1,1896,603,0,0
679,421,0,0,0,0,0,0,0,0,0,-1,1903,603,0,0
686,421,0,0,0,0,0,0,0,0,0,-1,1910,603,0,0
693,421,0,0,0,0,0,0,0,0,0,-1,1917,603,0,0
700,421,0,0,0,0,0,0,0,0,0,-1,1924,603,0,0
707,421,0,0,0,0,0,0,0,0,0,-1,1931,603,0,0
714,421,0,0,0,0,0,0,0,0,0,-1,1938,603,0,0
721,421,0,0,0,0,0,0,0,0,0,-1,1945,603,0,0
728,421,0,0,0,0,0,0,0,0,0,-1,1952,603,0,0
735,421,0,0,0,0,0,0,0,0,0,-1,1959,603,0,0
742,421,0,0,0,0,0,0,0,0,0,-1,1966,603,0,0
749,421,0,0,0,0,0,0,0,0,0,-1,1973,603,0,0
756,421,0,0,0,0,0,0,0,0,0,-1,1980,603,0,0
763,421,0,0,0,0,0,0,0,0,0,-1,1987,603,0,0
770,421,0,0,0,0,0,0,0,0,0,-1,1994,603,0,0
777,421,0,0,0,0,0,0,0,0,0,-1,2001,603,0,0
784,421,0,0,0,0,0,0,0,0,0,-1,2008,603,0,0
791,421,0,0,0,0,0,0,0,0,0,-1,2015,603,0,0
798,421,0,0,0,0,0,0,0,0,0,-1,2022,603,0,0
805,421,0,0,0,0,0,0,0,0,0,-1,2029,603,0,0
812,421,0,0,0,0,0,0,0,0,0,-1,2036,603,0,0
-700,414,0,0,0,0,0,0,0,0,0,-1,524,610,0,0
-693,414,0,0,0,0,0,0,0,0,0,-1,531,610,0,0
-686,414,0,0,0,0,0,0,0,0,0,-1,538,610,0,0
-679,414,0,0,0,0,0,0,0,0,0,-1,545,610,0,0
-672,414,0,0,0,0,0,0,0,0,0,-1,552,610,0,0
-665,414,0,0,0,0,0,0,0,0,0,-1,559,610,0,0
-658,414,0,0,0,0,0,0,0,0,0,-1,566,610,0,0
-651,414,0,0,0,0,0,0,0,0,0,-1,573,610,0,0
-644,414,0,0,0,0,0,0,0,0,0,-1,580,610,0,0
-637,414,0,0,0,0,0,0,0,0,0,-1,587,610,0,0
-630,414,0,0,0,0,0,0,0,0,0,-1,594,610,0,0
-623,414,0,0,0,0,0,0,0,0,0,-1,601,610,0,0
-616,414,0,0,0,0,0,0,0,0,0,-1,608,610,0,0
-609,414,0,0,0,0,0,0,0,0,0,-1,615,610,0,0
-602,414,0,0,0,0,0,0,0,0,0,-1,622,610,0,0
-595,414,0,0,0,0,0,0,0,0,0,-1,629,610,0,0
-588,414,0,0,0,0,0,0,0,0,0,-1,636,610,0,0
-581,414,0,0,0,0,0,0,0,0,0,-1,643,610,0,0
-574,414,0,0,0,0,0,0,0,0,0,-1,650,610,0,0
-567,414,0,0,0,0,0,0,0,0,0,-1,657,610,0,0
-560,414,0,0,0,0,0,0,0,0,0,-1,664,610,0,0
-553,414,0,0,0,0,0,0,0,0,0,-1,671,610,0,0
-546,414,0,0,0,0,0,0,0,0,0,-1,678,610,0,0
-539,414,-0.478882,2.51385,0.0115792,0.0862974,-0.0254954,0.0941679,0.00370866,-1.27137,0.0615796,0.0462887,685,610,-0.478859,-2.51386
-532,414,-0.460754,1.82892,0.0131233,0.0664534,-0.0217148,0.0741767,0.00539999,-1.22908,0.047753,0.0436193,692,610,-0.460739,-1.82892
-525,414,-0.113281,0.43457,0,0,0,0,0,0,0,-1,699,610,-0.113295,-0.434599
-518,414,0.208252,0.356873,0.0145262,0.0373076,-0.0157415,0.0453474,0.00648643,-1.0986,0.0283182,0.045547,706,610,0.20826,-0.35688
-511,414,0.514343,0.292358,0.0143336,0.0267452,-0.0131251,0.0350577,0.00602116,-1.00623,0.0216457,0.0432029,713,610,0.514349,-0.292329
-504,414,0.526245,0.13324,0,0,0,0,0,0,0,-1,720,610,0.526233,-0.133253
-497,414,0.417236,0.0830688,0.0125624,0.0128867,-0.00929252,0.0220185,0.0034306,-0.794122,0.0136796,0.0450268,727,610,0.417207,-0.083092
-490,414,0.550964,0.0979004,0.0113119,0.00834912,-0.0078212,0.0177908,0.00187026,-0.691803,0.0112889,0.0329219,734,610,0.550976,-0.0979001
-483,414,0.714172,0.118896,0.010055,0.00245102,-0.00616045,0.0134922,-0.000986207,-0.508927,0.00934092,0.0141608,741,610,0.714143,-0.118914
-476,414,0.741333,0.0749512,0.00878028,0.000261702,-0.00475622,0.0109056,-0.00186361,-0.420231,0.00796462,0.00959006,748,610,0.741325,-0.0749302
-469,414,0.76062,0.0134888,0.00737238,0.000423468,-0.00369562,0.00897034,-0.00117449,-0.408117,0.00640771,0.0113492,755,610,0.760637,-0.0135169
-462,414,0.781738,-0.038269,0.00550922,-0.000800328,-0.0030056,0.00671177,-0.00200288,-0.380594,0.00527055,0.0206447,762,610,0.78174,0.0382789
-455,414,0.754639,-0.0726318,0.00388625,-0.00174649,-0.00207665,0.00456908,-0.00242932,-0.317677,0.004103,0.0221898,769,610,0.754619,0.0726053
-448,414,0.729065,-0.0935059,0.00277998,-0.00282429,-0.00095975,0.00293978,-0.0029841,-0.164992,0.00342018,0.0221884,776,610,0.729065,0.0935104
-441,414,0.746277,-0.150513,0.00154909,-0.0042006,0.000263707,0.00156116,-0.00421267,0.0457366,0.0034487,0.0156845,783,610,0.74628,0.150513
-434,414,0.752625,-0.21759,0.000620624,-0.00528195,0.00159507,0.00102409,-0.00568542,0.247747,0.00417373,0.0092525,790,610,0.752639,0.217563
-427,414,0.765015,-0.261963,-0.000172407,-0.00632444,0.00318607,0.00118023,-0.00767707,0.401486,0.00555342,0.0105851,797,610,0.765042,0.261949
-420,414,0.761353,-0.30426,-0.000929168,-0.00722703,0.00482502,0.00168355,-0.00983975,0.496289,0.00718705,0.0107492,804,610,0.76138,0.304275
-413,414,0.757996,-0.352173,-0.00204876,-0.00745219,0.00660751,0.00238804,-0.011889,0.591327,0.00883031,0.0107831,811,610,0.757991,0.352191
-406,414,0.747681,-0.406433,-0.00168539,-0.00847271,0.00778515,0.00341362,-0.0135717,0.579859,0.0103746,0.0142547,818,610,0.747711,0.406421
-399,414,0.730774,-0.411621,-0.00066759,-0.0102861,0.00833405,0.00414529,-0.0150989,0.523708,0.0116952,0.0186321,825,610,0.730799,0.411605
-392,414,0.691284,-0.452087,0.000889069,-0.0115454,0.00831141,0.00505131,-0.0157076,0.464277,0.0125005,0.0248254,832,610,0.691309,0.452059
-385,414,0.458313,-0.428833,0.00297626,-0.0128246,0.00812646,0.00640968,-0.016258,0.39975,0.0134927,0.0416251,839,610,0.458302,0.428837
-378,414,0.270569,-0.251038,0.00599247,-0.0145653,0.00692302,0.00810648,-0.0166793,0.296366,0.0145926,0.0484463,846,610,0.270556,0.251067
-371,414,0.41864,-0.391541,0,0,0,0,0,0,0,-1,853,610,0.418652,0.391563
-364,414,0.456665,-0.426819,0,0,0,0,0,0,0,-1,860,610,0.456692,0.426805
-357,414,0.911499,-0.130005,0.0274948,-0.0241867,-0.00374882,0.0277653,-0.0244572,-0.0720343,0.0301709,0.0448259,867,610,0.911491,0.130028
-350,414,1.45422,-0.528259,0.0379947,-0.0280792,-0.0102143,0.0395377,-0.0296222,-0.149928,0.0400661,0.04527,874,610,1.4542,0.528277
-343,414,1.84436,-1.23981,0.0512346,-0.0329326,-0.0178084,0.0548475,-0.0365455,-0.200158,0.0531172,0.0442148,881,610,1.84436,1.2398
-336,414,2.10284,-2.17584,0,0,0,0,0,0,0,-1,888,610,2.10286,2.17586
-329,414,0.49115,0.159973,0,0,0,0,0,0,0,-1,895,610,0.491166,-0.159977
-322,414,-0.162231,0.254578,0,0,0,0,0,0,0,-1,902,610,-0.162204,-0.254562
-315,414,0,0,0,0,0,0,0,0,0,-1,909,610,0,0
-308,414,0,0,0,0,0,0,0,0,0,-1,916,610,0,0
-301,414,0,0,0,0,0,0,0,0,0,-1,923,610,0,0
-294,414,0,0,0,0,0,0,0,0,0,-1,930,610,0,0
-287,414,0,0,0,0,0,0,0,0,0,-1,937,610,0,0
-280,414,0,0,0,0,0,0,0,0,0,-1,944,610,0,0
-273,414,0,0,0,0,0,0,0,0,0,-1,951,610,0,0
-266,414,0,0,0,0,0,0,0,0,0,-1,958,610,0,0
-259,414,0,0,0,0,0,0,0,0,0,-1,965,610,0,0
-252,414,0,0,0,0,0,0,0,0,0,-1,972,610,0,0
-245,414,0,0,0,0,0,0,0,0,0,-1,979,610,0,0
-238,414,0,0,0,0,0,0,0,0,0,-1,986,610,0,0
-231,414,0,0,0,0,0,0,0,0,0,-1,993,610,0,0
-224,414,0,0,0,0,0,0,0,0,0,-1,1000,610,0,0
-217,414,0,0,0,0,0,0,0,0,0,-1,1007,610,0,0
-210,414,0,0,0,0,0,0,0,0,0,-1,1014,610,0,0
-203,414,0,0,0,0,0,0,0,0,0,-1,1021,610,0,0
-196,414,0,0,0,0,0,0,0,0,0,-1,1028,610,0,0
-189,414,0,0,0,0,0,0,0,0,0,-1,1035,610,0,0
-182,414,0,0,0,0,0,0,0,0,0,-1,1042,610,0,0
-175,414,0,0,0,0,0,0,0,0,0,-1,1049,610,0,0
-168,414,0,0,0,0,0,0,0,0,0,-1,1056,610,0,0
-161,414,0,0,0,0,0,0,0,0,0,-1,1063,610,0,0
-154,414,0,0,0,0,0,0,0,0,0,-1,1070,610,0,0
-147,414,0,0,0,0,0,0,0,0,0,-1,1077,610,0,0
-140,414,0,0,0,0,0,0,0,0,0,-1,1084,610,0,0
-133,414,0,0,0,0,0,0,0,0,0,-1,1091,610,0,0
-126,414,0,0,0,0,0,0,0,0,0,-1,1098,610,0,0
-119,414,0,0,0,0,0,0,0,0,0,-1,1105,610,0,0
-112,414,0,0,0,0,0,0,0,0,0,-1,1112,610,0,0
-105,414,0,0,0,0,0,0,0,0,0,-1,1119,610,0,0
-98,414,0,0,0,0,0,0,0,0,0,-1,1126,610,0,0
-91,414,0,0,0,0,0,0,0,0,0,-1,1133,610,0,0
-84,414,0,0,0,0,0,0,0,0,0,-1,1140,610,0,0
-77,414,0,0,0,0,0,0,0,0,0,-1,1147,610,0,0
-70,414,0,0,0,0,0,0,0,0,0,-1,1154,610,0,0
-63,414,0,0,0,0,0,0,0,0,0,-1,1161,610,0,0
-56,414,0,0,0,0,0,0,0,0,0,-1,1168,610,0,0
-49,414,0,0,0,0,0,0,0,0,0,-1,1175,610,0,0
-42,414,0,0,0,0,0,0,0,0,0,-1,1182,610,0,0
-35,414,0,0,0,0,0,0,0,0,0,-1,1189,610,0,0
-28,414,0,0,0,0,0,0,0,0,0,-1,1196,610,0,0
-21,414,0,0,0,0,0,0,0,0,0,-1,1203,610,0,0
-14,414,0,0,0,0,0,0,0,0,0,-1,1210,610,0,0
-7,414,0,0,0,0,0,0,0,0,0,-1,1217,610,0,0
0,414,0,0,0,0,0,0,0,0,0,-1,1224,610,0,0
7,414,0,0,0,0,0,0,0,0,0,-1,1231,610,0,0
14,414,0,0,0,0,0,0,0,0,0,-1,1238,610,0,0
21,414,0,0,0,0,0,0,0,0,0,-1,1245,610,0,0
28,414,0,0,0,0,0,0,0,0,0,-1,1252,610,0,0
35,414,0,0,0,0,0,0,0,0,0,-1,1259,610,0,0
42,414,0,0,0,0,0,0,0,0,0,-1,1266,610,0,0
49,414,0,0,0,0,0,0,0,0,0,-1,1273,610,0,0
56,414,0,0,0,0,0,0,0,0,0,-1,1280,610,0,0
63,414,0,0,0,0,0,0,0,0,0,-1,1287,610,0,0
70,414,0,0,0,0,0,0,0,0,0,-1,1294,610,0,0
77,414,0,0,0,0,0,0,0,0,0,-1,1301,610,0,0
84,414,0,0,0,0,0,0,0,0,0,-1,1308,610,0,0
91,414,0,0,0,0,0,0,0,0,0,-1,1315,610,0,0
98,414,0,0,0,0,0,0,0,0,0,-1,1322,610,0,0
105,414,0,0,0,0,0,0,0,0,0,-1,1329,610,0,0
112,414,0,0,0,0,0,0,0,0,0,-1,1336,610,0,0
119,414,0,0,0,0,0,0,0,0,0,-1,1343,610,0,0
126,414,0,0,0,0,0,0,0,0,0,-1,1350,610,0,0
133,414,0,0,0,0,0,0,0,0,0,-1,1357,610,0,0
140,414,0,0,0,0,0,0,0,0,0,-1,1364,610,0,0
147,414,0,0,0,0,0,0,0,0,0,-1,1371,610,0,0
154,414,0,0,0,0,0,0,0,0,0,-1,1378,610,0,0
161,414,0,0,0,0,0,0,0,0,0,-1,1385,610,0,0
168,414,0,0,0,0,0,0,0,0,0,-1,1392,610,0,0
175,414,0,0,0,0,0,0,0,0,0,-1,1399,610,0,0
182,414,0,0,0,0,0,0,0,0,0,-1,1406,610,0,0
189,414,0,0,0,0,0,0,0,0,0,-1,1413,610,0,0
196,414,0,0,0,0,0,0,0,0,0,-1,1420,610,0,0
203,414,0,0,0,0,0,0,0,0,0,-1,1427,610,0,0
210,414,0,0,0,0,0,0,0,0,0,-1,1434,610,0,0
217,414,0,0,0,0,0,0,0,0,0,-1,1441,610,0,0
224,414,0,0,0,0,0,0,0,0,0,-1,1448,610,0,0
231,414,0,0,0,0,0,0,0,0,0,-1,1455,610,0,0
238,414,0,0,0,0,0,0,0,0,0,-1,1462,610,0,0
245,414,0,0,0,0,0,0,0,0,0,-1,1469,610,0,0
252,414,0,0,0,0,0,0,0,0,0,-1,1476,610,0,0
259,414,0,0,0,0,0,0,0,0,0,-1,1483,610,0,0
266,414,0,0,0,0,0,0,0,0,0,-1,1490,610,0,0
273,414,0,0,0,0,0,0,0,0,0,-1,1497,610,0,0
280,414,0,0,0,0,0,0,0,0,0,-1,1504,610,0,0
287,414,0,0,0,0,0,0,0,0,0,-1,1511,610,0,0
294,414,0,0,0,0,0,0,0,0,0,-1,1518,610,0,0
301,414,0,0,0,0,0,0,0,0,0,-1,1525,610,0,0
308,414,0,0,0,0,0,0,0,0,0,-1,1532,610,0,0
315,414,0,0,0,0,0,0,0,0,0,-1,1539,610,0,0
322,414,0,0,0,0,0,0,0,0,0,-1,1546,610,0,0
329,414,0,0,0,0,0,0,0,0,0,-1,1553,610,0,0
336,414,0,0,0,0,0,0,0,0,0,-1,1560,610,0,0
343,414,0,0,0,0,0,0,0,0,0,-1,1567,610,0,0
350,414,0,0,0,0,0,0,0,0,0,-1,1574,610,0,0
357,414,0,0,0,0,0,0,0,0,0,-1,1581,610,0,0
364,414,0,0,0,0,0,0,0,0,0,-1,1588,610,0,0
371,414,0,0,0,0,0,0,0,0,0,-1,1595,610,0,0
378,414,0,0,0,0,0,0,0,0,0,-1,1602,610,0,0
385,414,0,0,0,0,0,0,0,0,0,-1,1609,610,0,0
392,414,0,0,0,0,0,0,0,0,0,-1,1616,610,0,0
399,414,0,0,0,0,0,0,0,0,0,-1,1623,610,0,0
406,414,0,0,0,0,0,0,0,0,0,-1,1630,610,0,0
413,414,0,0,0,0,0,0,0,0,0,-1,1637,610,0,0
420,414,0,0,0,0,0,0,0,0,0,-1,1644,610,0,0
427,414,0,0,0,0,0,0,0,0,0,-1,1651,610,0,0
434,414,0,0,0,0,0,0,0,0,0,-1,1658,610,0,0
441,414,5.01672,0.711243,0,0,0,0,0,0,0,-1,1665,610,5.01666,-0.711227
448,414,4.82678,0.47052,-0.000560867,-0.0414161,-0.014331,0.00396479,-0.0459418,-0.305883,0.0320314,0.0469312,1672,610,4.82675,-0.470546
455,414,4.73962,0.384583,-0.00578303,-0.0391666,-0.0119672,-0.00193634,-0.0430133,-0.311006,0.0280524,0.043314,1679,610,4.73965,-0.384578
462,414,4.77783,0.083313,-0.00817733,-0.0359189,-0.0105818,-0.00460182,-0.0394944,-0.325848,0.0249376,0.0477369,1686,610,4.77781,-0.0833244
469,414,4.41467,-0.320251,-0.00776342,-0.0320494,-0.00926732,-0.00463109,-0.0351817,-0.325943,0.0220733,0.0484305,1693,610,4.41472,0.320228
476,414,4.45764,-0.643677,-0.00397861,-0.0276743,-0.0097239,-0.000499178,-0.0311537,-0.343627,0.0206048,0.046949,1700,610,4.45762,0.643697
483,414,4.73718,-0.107483,-0.000788318,-0.023762,-0.0105793,0.00334117,-0.0278915,-0.372147,0.0198022,0.0458066,1707,610,4.7372,0.107509
490,414,4.48547,-0.180603,0,0,0,0,0,0,0,-1,1714,610,4.48552,0.180628
497,414,2.19641,-0.245544,0,0,0,0,0,0,0,-1,1721,610,2.19637,0.245557
504,414,2.41162,-0.195496,0.00266,-0.0128786,-0.0111654,0.00849316,-0.0187118,-0.481433,0.0160719,0.0454818,1728,610,2.41165,0.195484
511,414,2.53882,-0.250061,0.00419207,-0.00924512,-0.0107855,0.0101804,-0.0152335,-0.506844,0.0147691,0.0439844,1735,610,2.53881,0.250072
518,414,2.6803,-0.350159,0.00648467,-0.00599051,-0.0113674,0.0132134,-0.0127192,-0.534465,0.0149731,0.0440191,1742,610,2.68025,0.350184
525,414,3.15771,-0.469177,0.00769807,-0.00337419,-0.0117455,0.0151467,-0.0108228,-0.565168,0.0150626,0.0401532,1749,610,3.15777,0.469154
532,414,3.13538,-0.477417,0.006016,-0.00265482,-0.0108015,0.0133196,-0.00995846,-0.594554,0.0134862,0.0311695,1756,610,3.13534,0.477406
539,414,3.0603,-0.397217,0.00434967,-0.00156602,-0.00916804,0.0110252,-0.00824154,-0.629357,0.0111623,0.0169447,1763,610,3.0603,0.397224
546,414,3.0509,-0.342224,0.00281496,-0.000977449,-0.00742217,0.00857932,-0.00674181,-0.660334,0.00886684,0.0116705,1770,610,3.05092,0.342222
553,414,3.05591,-0.292114,0.00173198,-0.000417767,-0.00582547,0.00658091,-0.0052667,-0.694168,0.00685424,0.0108689,1777,610,3.05595,0.292102
560,414,3.06335,-0.205994,0.000802447,-2.58737e-05,-0.00442171,0.00482935,-0.00405277,-0.738702,0.00513462,0.0126373,1784,610,3.06337,0.20599
567,414,3.06812,-0.147583,0.000458474,0.000136322,-0.00306346,0.00336509,-0.0027703,-0.759133,0.00354781,0.0205206,1791,610,3.06808,0.147593
574,414,3.03784,-0.130493,0.000453421,0.000139889,-0.00200544,0.00230821,-0.0017149,-0.746392,0.00233115,0.0188112,1798,610,3.03786,0.130498
581,414,3.05969,-0.0779419,0.000337783,0.000109296,-0.000927591,0.00115814,-0.00071106,-0.724126,0.00108942,0.0156494,1805,610,3.0597,0.077968
588,414,3.05688,-0.0620728,0.000295885,0.000448301,-0.00028653,0.000668585,7.56012e-05,-0.915374,0.000422782,0.0150896,1812,610,3.05692,0.0621012
595,414,3.02979,-0.00152588,0.00147284,0.000754874,-0.000389153,0.0016433,0.000584415,-0.412852,0.00096185,0.0201084,1819,610,3.02984,0.00152952
602,414,3.05469,0.0742798,0.00446205,0.00111609,-0.00067811,0.00459425,0.000983886,-0.192547,0.00279324,0.02276,1826,610,3.05471,-0.0742943
609,414,3.05078,0.0797729,0.00958199,0.00136609,-0.00109022,0.0097242,0.00122389,-0.129707,0.00611579,0.0131212,1833,610,3.05076,-0.0797718
616,414,3.08435,0.107178,0.0164209,0.002426,-0.00135347,0.0165506,0.0022963,-0.0955323,0.0103535,0.0191732,1840,610,3.08436,-0.107164
623,414,3.21338,0.127197,0.0249717,0.00317695,-0.00177259,0.0251149,0.00303373,-0.080625,0.0158292,0.0299156,1847,610,3.21334,-0.12718
630,414,3.26538,0.14624,0.0357342,0.00415583,-0.00250562,0.0359317,0.00395826,-0.0786901,0.0227501,0.0394806,1854,610,3.26541,-0.146212
637,414,3.28809,0.14917,0,0,0,0,0,0,0,-1,1861,610,3.28815,-0.1492
644,414,1.39551,0.478577,0.0658733,0.00627939,-0.00442238,0.0661996,0.005953,-0.0736709,0.0422887,0.0460795,1868,610,1.39545,-0.478577
651,414,2.25037,0.571472,0.0856404,0.0071948,-0.00537021,0.0860063,0.00682888,-0.0680347,0.0552022,0.0483785,1875,610,2.25034,-0.571477
658,414,3.16565,0.693481,0.108261,0.00827613,-0.00580864,0.108597,0.0079398,-0.0578359,0.069902,0.0484672,1882,610,3.1657,-0.693456
665,414,0,0,0,0,0,0,0,0,0,-1,1889,610,0,0
672,414,0,0,0,0,0,0,0,0,0,-1,1896,610,0,0
679,414,0,0,0,0,0,0,0,0,0,-1,1903,610,0,0
686,414,0,0,0,0,0,0,0,0,0,-1,1910,610,0,0
693,414,0,0,0,0,0,0,0,0,0,-1,1917,610,0,0
700,414,0,0,0,0,0,0,0,0,0,-1,1924,610,0,0
707,414,0,0,0,0,0,0,0,0,0,-1,1931,610,0,0
714,414,0,0,0,0,0,0,0,0,0,-1,1938,610,0,0
721,414,0,0,0,0,0,0,0,0,0,-1,1945,610,0,0
728,414,0,0,0,0,0,0,0,0,0,-1,1952,610,0,0
735,414,0,0,0,0,0,0,0,0,0,-1,1959,610,0,0
742,414,0,0,0,0,0,0,0,0,0,-1,1966,610,0,0
749,414,0,0,0,0,0,0,0,0,0,-1,1973,610,0,0
756,414,0,0,0,0,0,0,0,0,0,-1,1980,610,0,0
763,414,0,0,0,0,0,0,0,0,0,-1,1987,610,0,0
770,414,0,0,0,0,0,0,0,0,0,-1,1994,610,0,0
777,414,0,0,0,0,0,0,0,0,0,-1,2001,610,0,0
784,414,0,0,0,0,0,0,0,0,0,-1,2008,610,0,0
791,414,0,0,0,0,0,0,0,0,0,-1,2015,610,0,0
798,414,0,0,0,0,0,0,0,0,0,-1,2022,610,0,0
805,414,0,0,0,0,0,0,0,0,0,-1,2029,610,0,0
812,414,0,0,0,0,0,0,0,0,0,-1,2036,610,0,0
-700,407,0,0,0,0,0,0,0,0,0,-1,524,617,0,0
-693,407,0,0,0,0,0,0,0,0,0,-1,531,617,0,0
-686,407,0,0,0,0,0,0,0,0,0,-1,538,617,0,0
-679,407,0,0,0,0,0,0,0,0,0,-1,545,617,0,0
-672,407,0,0,0,0,0,0,0,0,0,-1,552,617,0,0
-665,407,0,0,0,0,0,0,0,0,0,-1,559,617,0,0
-658,407,0,0,0,0,0,0,0,0,0,-1,566,617,0,0
-651,407,0,0,0,0,0,0,0,0,0,-1,573,617,0,0
-644,407,0,0,0,0,0,0,0,0,0,-1,580,617,0,0
-637,407,0,0,0,0,0,0,0,0,0,-1,587,617,0,0
-630,407,0,0,0,0,0,0,0,0,0,-1,594,617,0,0
-623,407,0,0,0,0,0,0,0,0,0,-1,601,617,0,0
-616,407,0,0,0,0,0,0,0,0,0,-1,608,617,0,0
-609,407,0,0,0,0,0,0,0,0,0,-1,615,617,0,0
-602,407,0,0,0,0,0,0,0,0,0,-1,622,617,0,0
-595,407,0,0,0,0,0,0,0,0,0,-1,629,617,0,0
-588,407,0,0,0,0,0,0,0,0,0,-1,636,617,0,0
-581,407,0,0,0,0,0,0,0,0,0,-1,643,617,0,0
-574,407,0,0,0,0,0,0,0,0,0,-1,650,617,0,0
-567,407,0,0,0,0,0,0,0,0,0,-1,657,617,0,0
-560,407,0,0,0,0,0,0,0,0,0,-1,664,617,0,0
-553,407,0,0,0,0,0,0,0,0,0,-1,671,617,0,0
-546,407,-0.222412,-0.582458,0,0,0,0,0,0,0,-1,678,617,-0.222437,0.582472
-539,407,0.0811768,-0.334534,0.0115535,0.0729814,-0.0212958,0.079642,0.00489287,-1.26767,0.0515412,0.0422533,685,617,0.0811482,0.334531
-532,407,0.0808716,-0.376953,0.013069,0.0567012,-0.0184242,0.0634402,0.00633002,-1.22014,0.0403493,0.0429539,692,617,0.0808822,0.376927
-525,407,-0.83905,-1.1073,0.0140623,0.0431971,-0.015776,0.0501027,0.00715661,-1.15819,0.0312903,0.0453437,699,617,-0.839069,1.10727
-518,407,-0.166809,-0.488403,0.0144575,0.0320411,-0.0133602,0.0392428,0.00725586,-1.07641,0.02411,0.0466807,706,617,-0.166833,0.488433
-511,407,0.455322,0.0227051,0.0140642,0.022924,-0.0109439,0.0303006,0.0066876,-0.977711,0.0183813,0.0452563,713,617,0.455348,-0.0227022
-504,407,0.534119,0.122009,0.0131876,0.0159543,-0.00900454,0.0236811,0.00546075,-0.861619,0.0143186,0.0450902,720,617,0.534093,-0.121997
-497,407,0.64325,0.14502,0.0119774,0.0111453,-0.00753726,0.0191101,0.00401266,-0.757827,0.0116355,0.0360401,727,617,0.643234,-0.145036
-490,407,0.678894,0.120239,0.0106718,0.00731559,-0.00625019,0.0154652,0.00252214,-0.654247,0.00958074,0.0182661,734,617,0.678902,-0.120229
-483,407,0.704102,0.107239,0.00932003,0.00210988,-0.00484735,0.0117559,-0.000326022,-0.465663,0.00794819,0.00974085,741,617,0.70412,-0.107242
-476,407,0.718994,0.0834961,0.00795767,0.000201608,-0.00369264,0.00943452,-0.00127524,-0.380458,0.006755,0.00866406,748,617,0.718996,-0.0834779
-469,407,0.721802,0.0401611,0.00656601,0.000362409,-0.00277955,0.00762919,-0.000700773,-0.365331,0.00533508,0.0123772,755,617,0.721796,-0.0401408
-462,407,0.700073,-0.0218506,0.00476455,-0.000843954,-0.00225516,0.00555885,-0.00163825,-0.338646,0.00435591,0.0196886,762,617,0.700062,0.0218537
-455,407,0.692871,-0.0705566,0.00327985,-0.0019965,-0.00142607,0.00364062,-0.00235726,-0.24778,0.0034892,0.0204383,769,617,0.692898,0.0705817
-448,407,0.709045,-0.0845947,0.00233722,-0.00342843,-0.000359502,0.00235955,-0.00345076,-0.0620321,0.00337425,0.0175423,776,617,0.709072,0.0845911
-441,407,0.703369,-0.118042,0.00132116,-0.00521251,0.000935726,0.00145253,-0.00534387,0.139482,0.00413274,0.0132657,783,617,0.703385,0.118054
-434,407,0.696167,-0.188171,0.000685358,-0.00656686,0.00242217,0.00141993,-0.00730144,0.294455,0.00540349,0.00995042,790,617,0.696155,0.188159
-427,407,0.718018,-0.249695,0.000293657,-0.00782337,0.00434114,0.00217796,-0.00970767,0.409517,0.00730678,0.0107361,797,617,0.717999,0.249712
-420,407,0.70929,-0.302429,-8.97558e-06,-0.00883511,0.00643073,0.00337728,-0.0122214,0.48468,0.00947612,0.0104491,804,617,0.709297,0.302448
-413,407,0.714783,-0.34259,-0.000816488,-0.00901909,0.00876958,0.00476344,-0.014599,0.566671,0.0116498,0.0095913,811,617,0.714758,0.342593
-406,407,0.731262,-0.366699,-2.11173e-05,-0.00992112,0.0104992,0.00663649,-0.0165787,0.565119,0.013807,0.016768,818,617,0.731244,0.366684
-399,407,0.701355,-0.320862,0.00145339,-0.0114047,0.0115095,0.00820767,-0.018159,0.530692,0.01558,0.0335395,825,617,0.701347,0.320852
-392,407,0.655945,-0.268555,0.00355147,-0.0121882,0.0117543,0.0098272,-0.018464,0.490406,0.0165857,0.0425128,832,617,0.655962,0.268544
-385,407,0.367615,-0.300964,0.00618103,-0.012852,0.0118504,0.0118631,-0.018534,0.447098,0.0176901,0.0451508,839,617,0.367605,0.300973
-378,407,0.0588989,-0.0762329,0,0,0,0,0,0,0,-1,846,617,0.058895,0.0762102
-371,407,0.65918,1.19012,0,0,0,0,0,0,0,-1,853,617,0.659209,-1.1901
-364,407,0.532715,0.669373,0,0,0,0,0,0,0,-1,860,617,0.532714,-0.669364
-357,407,1.06207,0.524841,0.0329471,-0.0232254,-0.00142966,0.0329834,-0.0232618,-0.0254292,0.0326345,0.0461423,867,617,1.06206,-0.524834
-350,407,1.7865,0.202271,0.0446482,-0.0282232,-0.00888632,0.0457162,-0.0292912,-0.11961,0.0436503,0.0499726,874,617,1.78647,-0.202269
-343,407,2.29633,-0.861206,0.0592639,-0.0346489,-0.0177313,0.0625002,-0.0378851,-0.180529,0.0585354,0.0491224,881,617,2.29636,0.861177
-336,407,2.71667,-2.17664,0,0,0,0,0,0,0,-1,888,617,2.71665,2.17664
-329,407,0.0168457,-0.274841,0,0,0,0,0,0,0,-1,895,617,0.0168304,0.274864
-322,407,0,0,0,0,0,0,0,0,0,-1,902,617,0,0
-315,407,0,0,0,0,0,0,0,0,0,-1,909,617,0,0
-308,407,0,0,0,0,0,0,0,0,0,-1,916,617,0,0
-301,407,0,0,0,0,0,0,0,0,0,-1,923,617,0,0
-294,407,0,0,0,0,0,0,0,0,0,-1,930,617,0,0
-287,407,0,0,0,0,0,0,0,0,0,-1,937,617,0,0
-280,407,0,0,0,0,0,0,0,0,0,-1,944,617,0,0
-273,407,0,0,0,0,0,0,0,0,0,-1,951,617,0,0
-266,407,0,0,0,0,0,0,0,0,0,-1,958,617,0,0
-259,407,0,0,0,0,0,0,0,0,0,-1,965,617,0,0
-252,407,0,0,0,0,0,0,0,0,0,-1,972,617,0,0
-245,407,0,0,0,0,0,0,0,0,0,-1,979,617,0,0
-238,407,0,0,0,0,0,0,0,0,0,-1,986,617,0,0
-231,407,0,0,0,0,0,0,0,0,0,-1,993,617,0,0
-224,407,0,0,0,0,0,0,0,0,0,-1,1000,617,0,0
-217,407,0,0,0,0,0,0,0,0,0,-1,1007,617,0,0
-210,407,0,0,0,0,0,0,0,0,0,-1,1014,617,0,0
-203,407,0,0,0,0,0,0,0,0,0,-1,1021,617,0,0
-196,407,0,0,0,0,0,0,0,0,0,-1,1028,617,0,0
-189,407,0,0,0,0,0,0,0,0,0,-1,1035,617,0,0
-182,407,0,0,0,0,0,0,0,0,0,-1,1042,617,0,0
-175,407,0,0,0,0,0,0,0,0,0,-1,1049,617,0,0
-168,407,0,0,0,0,0,0,0,0,0,-1,1056,617,0,0
-161,407,0,0,0,0,0,0,0,0,0,-1,1063,617,0,0
-154,407,0,0,0,0,0,0,0,0,0,-1,1070,617,0,0
-147,407,0,0,0,0,0,0,0,0,0,-1,1077,617,0,0
-140,407,0,0,0,0,0,0,0,0,0,-1,1084,617,0,0
-133,407,0,0,0,0,0,0,0,0,0,-1,1091,617,0,0
-126,407,0,0,0,0,0,0,0,0,0,-1,1098,617,0,0
-119,407,0,0,0,0,0,0,0,0,0,-1,1105,617,0,0
-112,407,0,0,0,0,0,0,0,0,0,-1,1112,617,0,0
-105,407,0,0,0,0,0,0,0,0,0,-1,1119,617,0,0
-98,407,0,0,0,0,0,0,0,0,0,-1,1126,617,0,0
-91,407,0,0,0,0,0,0,0,0,0,-1,1133,617,0,0
-84,407,0,0,0,0,0,0,0,0,0,-1,1140,617,0,0
-77,407,0,0,0,0,0,0,0,0,0,-1,1147,617,0,0
-70,407,0,0,0,0,0,0,0,0,0,-1,1154,617,0,0
-63,407,0,0,0,0,0,0,0,0,0,-1,1161,617,0,0
-56,407,0,0,0,0,0,0,0,0,0,-1,1168,617,0,0
-49,407,0,0,0,0,0,0,0,0,0,-1,1175,617,0,0
-42,407,0,0,0,0,0,0,0,0,0,-1,1182,617,0,0
-35,407,0,0,0,0,0,0,0,0,0,-1,1189,617,0,0
-28,407,0,0,0,0,0,0,0,0,0,-1,1196,617,0,0
-21,407,0,0,0,0,0,0,0,0,0,-1,1203,617,0,0
-14,407,0,0,0,0,0,0,0,0,0,-1,1210,617,0,0
-7,407,0,0,0,0,0,0,0,0,0,-1,1217,617,0,0
0,407,0,0,0,0,0,0,0,0,0,-1,1224,617,0,0
7,407,0,0,0,0,0,0,0,0,0,-1,1231,617,0,0
14,407,0,0,0,0,0,0,0,0,0,-1,1238,617,0,0
21,407,0,0,0,0,0,0,0,0,0,-1,1245,617,0,0
28,407,0,0,0,0,0,0,0,0,0,-1,1252,617,0,0
35,407,0,0,0,0,0,0,0,0,0,-1,1259,617,0,0
42,407,0,0,0,0,0,0,0,0,0,-1,1266,617,0,0
49,407,0,0,0,0,0,0,0,0,0,-1,1273,617,0,0
56,407,0,0,0,0,0,0,0,0,0,-1,1280,617,0,0
63,407,0,0,0,0,0,0,0,0,0,-1,1287,617,0,0
70,407,0,0,0,0,0,0,0,0,0,-1,1294,617,0,0
77,407,0,0,0,0,0,0,0,0,0,-1,1301,617,0,0
84,407,0,0,0,0,0,0,0,0,0,-1,1308,617,0,0
91,407,0,0,0,0,0,0,0,0,0,-1,1315,617,0,0
98,407,0,0,0,0,0,0,0,0,0,-1,1322,617,0,0
105,407,0,0,0,0,0,0,0,0,0,-1,1329,617,0,0
112,407,0,0,0,0,0,0,0,0,0,-1,1336,617,0,0
119,407,0,0,0,0,0,0,0,0,0,-1,1343,617,0,0
126,407,0,0,0,0,0,0,0,0,0,-1,1350,617,0,0
133,407,0,0,0,0,0,0,0,0,0,-1,1357,617,0,0
140,407,0,0,0,0,0,0,0,0,0,-1,1364,617,0,0
147,407,0,0,0,0,0,0,0,0,0,-1,1371,617,0,0
154,407,0,0,0,0,0,0,0,0,0,-1,1378,617,0,0
161,407,0,0,0,0,0,0,0,0,0,-1,1385,617,0,0
168,407,0,0,0,0,0,0,0,0,0,-1,1392,617,0,0
175,407,0,0,0,0,0,0,0,0,0,-1,1399,617,0,0
182,407,0,0,0,0,0,0,0,0,0,-1,1406,617,0,0
189,407,0,0,0,0,0,0,0,0,0,-1,1413,617,0,0
196,407,0,0,0,0,0,0,0,0,0,-1,1420,617,0,0
203,407,0,0,0,0,0,0,0,0,0,-1,1427,617,0,0
210,407,0,0,0,0,0,0,0,0,0,-1,1434,617,0,0
217,407,0,0,0,0,0,0,0,0,0,-1,1441,617,0,0
224,407,0,0,0,0,0,0,0,0,0,-1,1448,617,0,0
231,407,0,0,0,0,0,0,0,0,0,-1,1455,617,0,0
238,407,0,0,0,0,0,0,0,0,0,-1,1462,617,0,0
245,407,0,0,0,0,0,0,0,0,0,-1,1469,617,0,0
252,407,0,0,0,0,0,0,0,0,0,-1,1476,617,0,0
259,407,0,0,0,0,0,0,0,0,0,-1,1483,617,0,0
266,407,0,0,0,0,0,0,0,0,0,-1,1490,617,0,0
273,407,0,0,0,0,0,0,0,0,0,-1,1497,617,0,0
280,407,0,0,0,0,0,0,0,0,0,-1,1504,617,0,0
287,407,0,0,0,0,0,0,0,0,0,-1,1511,617,0,0
294,407,0,0,0,0,0,0,0,0,0,-1,1518,617,0,0
301,407,0,0,0,0,0,0,0,0,0,-1,1525,617,0,0
308,407,0,0,0,0,0,0,0,0,0,-1,1532,617,0,0
315,407,0,0,0,0,0,0,0,0,0,-1,1539,617,0,0
322,407,0,0,0,0,0,0,0,0,0,-1,1546,617,0,0
329,407,0,0,0,0,0,0,0,0,0,-1,1553,617,0,0
336,407,0,0,0,0,0,0,0,0,0,-1,1560,617,0,0
343,407,0,0,0,0,0,0,0,0,0,-1,1567,617,0,0
350,407,0,0,0,0,0,0,0,0,0,-1,1574,617,0,0
357,407,0,0,0,0,0,0,0,0,0,-1,1581,617,0,0
364,407,0,0,0,0,0,0,0,0,0,-1,1588,617,0,0
371,407,0,0,0,0,0,0,0,0,0,-1,1595,617,0,0
378,407,0,0,0,0,0,0,0,0,0,-1,1602,617,0,0
385,407,0,0,0,0,0,0,0,0,0,-1,1609,617,0,0
392,407,0,0,0,0,0,0,0,0,0,-1,1616,617,0,0
399,407,0,0,0,0,0,0,0,0,0,-1,1623,617,0,0
406,407,0,0,0,0,0,0,0,0,0,-1,1630,617,0,0
413,407,0,0,0,0,0,0,0,0,0,-1,1637,617,0,0
420,407,0,0,0,0,0,0,0,0,0,-1,1644,617,0,0
427,407,0,0,0,0,0,0,0,0,0,-1,1651,617,0,0
434,407,0,0,0,0,0,0,0,0,0,-1,1658,617,0,0
441,407,0,0,0,0,0,0,0,0,0,-1,1665,617,0,0
448,407,5.41846,1.23962,-0.0153022,-0.0455779,-0.0147927,-0.0092745,-0.0516056,-0.386933,0.0317668,0.0452126,1672,617,5.41844,-1.23962
455,407,5.19165,1.24744,-0.0182155,-0.0432278,-0.012633,-0.0129454,-0.048498,-0.395221,0.0289966,0.0413296,1679,617,5.19162,-1.24745
462,407,4.90735,1.24762,-0.0175142,-0.0391043,-0.0122888,-0.0119523,-0.0446662,-0.42501,0.0267005,0.0455395,1686,617,4.90731,-1.24763
469,407,4.39246,1.70422,-0.0141458,-0.0343449,-0.0117348,-0.00876291,-0.0397278,-0.430075,0.0241012,0.0493425,1693,617,4.3925,-1.70422
476,407,3.9209,2.03821,0,0,0,0,0,0,0,-1,1700,617,3.92086,-2.03821
483,407,4.86829,0.333862,0,0,0,0,0,0,0,-1,1707,617,4.86823,-0.333891
490,407,3.60046,0.437134,0,0,0,0,0,0,0,-1,1714,617,3.60046,-0.437134
497,407,3.60828,0.45459,0,0,0,0,0,0,0,-1,1721,617,3.60823,-0.45459
504,407,2.26196,-0.0180664,0,0,0,0,0,0,0,-1,1728,617,2.26191,0.0180504
511,407,2.0824,-0.118958,0,0,0,0,0,0,0,-1,1735,617,2.08242,0.118945
518,407,2.34241,-0.17688,0,0,0,0,0,0,0,-1,1742,617,2.3424,0.176872
525,407,3.17822,-0.613525,0.0104872,-0.00219781,-0.0178916,0.0231272,-0.0148379,-0.615061,0.0220926,0.0462184,1749,617,3.17822,0.61354
532,407,3.27051,-0.427429,0.00820215,-0.0016244,-0.0162926,0.0203062,-0.0137284,-0.638952,0.0197718,0.0382179,1756,617,3.27054,0.427437
539,407,3.13928,-0.375427,0.00592893,-0.000680863,-0.0138994,0.016911,-0.0116629,-0.66868,0.0165896,0.0194993,1763,617,3.13929,0.375409
546,407,3.08228,-0.329712,0.0038332,-0.000277334,-0.0112916,0.013255,-0.00969914,-0.695375,0.0133055,0.01084,1770,617,3.0823,0.329716
553,407,3.0874,-0.263123,0.00226378,9.88899e-05,-0.00889615,0.0101431,-0.00778042,-0.724858,0.0103781,0.0120517,1777,617,3.08745,0.263107
560,407,3.10449,-0.177124,0.000934863,0.000340815,-0.00676656,0.00741092,-0.00613524,-0.763464,0.00783243,0.0132855,1784,617,3.10448,0.177132
567,407,3.09009,-0.166382,0.00034757,0.000364282,-0.0047808,0.00513674,-0.00442489,-0.786272,0.0055255,0.0258255,1791,617,3.09014,0.166407
574,407,3.07959,-0.159424,9.5656e-05,0.000271756,-0.00327919,0.00346408,-0.00309667,-0.79882,0.00378983,0.0232743,1798,617,3.07956,0.159424
581,407,3.0957,-0.0896606,-0.000317323,0.000178421,-0.00175074,0.00169874,-0.00183765,-0.855721,0.00204226,0.0155371,1805,617,3.09565,0.0896369
588,407,3.09229,-0.0498047,-0.000469183,0.00050944,-0.000757446,0.000921877,-0.00088162,-1.07218,0.00104134,0.00940441,1812,617,3.09231,0.049782
595,407,3.09973,-0.0192261,0.000645658,0.000761045,-0.000577462,0.00128369,0.000123015,-0.835187,0.000817877,0.0169383,1819,617,3.09967,0.0192323
602,407,3.11621,0.0471802,0.0033398,0.0010014,-0.000628162,0.00349786,0.000843345,-0.246504,0.0021078,0.0165931,1826,617,3.1162,-0.0471775
609,407,3.1106,0.0841675,0.00779042,0.00133067,-0.000897648,0.00791284,0.00120825,-0.13554,0.00492216,0.0122626,1833,617,3.11058,-0.084143
616,407,3.13269,0.182007,0.0137892,0.00234006,-0.00100911,0.0138775,0.0022518,-0.0872426,0.00859988,0.0129774,1840,617,3.13272,-0.182035
623,407,3.16675,0.211914,0.0212571,0.00306424,-0.00120688,0.0213369,0.00298453,-0.0659525,0.0133415,0.0205151,1847,617,3.16677,-0.211924
630,407,3.10535,0.15625,0.0307147,0.00405279,-0.00162849,0.0308138,0.00395369,-0.0607782,0.0193597,0.0356252,1854,617,3.1053,-0.156223
637,407,2.66296,0.613953,0.0426483,0.00518988,-0.00211534,0.0427673,0.0050708,-0.0562335,0.0269806,0.0438463,1861,617,2.66301,-0.613927
644,407,1.82825,0.277344,0.0571697,0.0064349,-0.0025319,0.0572958,0.00630886,-0.0497399,0.0362775,0.0464214,1868,617,1.82823,-0.277337
651,407,2.74744,0.541809,0.074545,0.00774857,-0.00276799,0.0746595,0.00763407,-0.0413448,0.0474335,0.0457891,1875,617,2.74743,-0.541828
658,407,3.46826,0.962036,0.0943685,0.00922883,-0.00253571,0.094444,0.00915338,-0.0297478,0.0601442,0.0467989,1882,617,3.4683,-0.962007
665,407,4.23401,1.37152,0.11611,0.0106688,-0.00184141,0.116142,0.0106366,-0.0174567,0.0741375,0.0446074,1889,617,4.23402,-1.37152
672,407,0,0,0,0,0,0,0,0,0,-1,1896,617,0,0
679,407,0,0,0,0,0,0,0,0,0,-1,1903,617,0,0
686,407,0,0,0,0,0,0,0,0,0,-1,1910,617,0,0
693,407,0,0,0,0,0,0,0,0,0,-1,1917,617,0,0
700,407,0,0,0,0,0,0,0,0,0,-1,1924,617,0,0
707,407,0,0,0,0,0,0,0,0,0,-1,1931,617,0,0
714,407,0,0,0,0,0,0,0,0,0,-1,1938,617,0,0
721,407,0,0,0,0,0,0,0,0,0,-1,1945,617,0,0
728,407,0,0,0,0,0,0,0,0,0,-1,1952,617,0,0
735,407,0,0,0,0,0,0,0,0,0,-1,1959,617,0,0
742,407,0,0,0,0,0,0,0,0,0,-1,1966,617,0,0
749,407,0,0,0,0,0,0,0,0,0,-1,1973,617,0,0
756,407,0,0,0,0,0,0,0,0,0,-1,1980,617,0,0
763,407,0,0,0,0,0,0,0,0,0,-1,1987,617,0,0
770,407,0,0,0,0,0,0,0,0,0,-1,1994,617,0,0
777,407,0,0,0,0,0,0,0,0,0,-1,2001,617,0,0
784,407,0,0,0,0,0,0,0,0,0,-1,2008,617,0,0
791,407,0,0,0,0,0,0,0,0,0,-1,2015,617,0,0
798,407,0,0,0,0,0,0,0,0,0,-1,2022,617,0,0
805,407,0,0,0,0,0,0,0,0,0,-1,2029,617,0,0
812,407,0,0,0,0,0,0,0,0,0,-1,2036,617,0,0
-700,400,0,0,0,0,0,0,0,0,0,-1,524,624,0,0
-693,400,0,0,0,0,0,0,0,0,0,-1,531,624,0,0
-686,400,0,0,0,0,0,0,0,0,0,-1,538,624,0,0
-679,400,0,0,0,0,0,0,0,0,0,-1,545,624,0,0
-672,400,0,0,0,0,0,0,0,0,0,-1,552,624,0,0
-665,400,0,0,0,0,0,0,0,0,0,-1,559,624,0,0
-658,400,0,0,0,0,0,0,0,0,0,-1,566,624,0,0
-651,400,0,0,0,0,0,0,0,0,0,-1,573,624,0,0
-644,400,0,0,0,0,0,0,0,0,0,-1,580,624,0,0
-637,400,0,0,0,0,0,0,0,0,0,-1,587,624,0,0
-630,400,0,0,0,0,0,0,0,0,0,-1,594,624,0,0
-623,400,0,0,0,0,0,0,0,0,0,-1,601,624,0,0
-616,400,0,0,0,0,0,0,0,0,0,-1,608,624,0,0
-609,400,0,0,0,0,0,0,0,0,0,-1,615,624,0,0
-602,400,0,0,0,0,0,0,0,0,0,-1,622,624,0,0
-595,400,0,0,0,0,0,0,0,0,0,-1,629,624,0,0
-588,400,0,0,0,0,0,0,0,0,0,-1,636,624,0,0
-581,400,0,0,0,0,0,0,0,0,0,-1,643,624,0,0
-574,400,0,0,0,0,0,0,0,0,0,-1,650,624,0,0
-567,400,0,0,0,0,0,0,0,0,0,-1,657,624,0,0
-560,400,0,0,0,0,0,0,0,0,0,-1,664,624,0,0
-553,400,0,0,0,0,0,0,0,0,0,-1,671,624,0,0
-546,400,-0.156067,0.86377,0,0,0,0,0,0,0,-1,678,624,-0.156071,-0.863792
-539,400,0.413879,-0.720703,0.0107839,0.06008,-0.0176123,0.0657258,0.00513808,-1.26058,0.0422089,0.0458237,685,624,0.413868,0.720728
-532,400,0.455566,-0.548889,0.0122141,0.0468705,-0.0154051,0.0527281,0.00635649,-1.20744,0.0332365,0.0421458,692,624,0.455558,0.548908
-525,400,0.310852,-0.326538,0.0131489,0.0358034,-0.0132358,0.0418972,0.00705505,-1.13932,0.025902,0.0486946,699,624,0.310866,0.326525
-518,400,0.12207,-0.203247,0.0134878,0.0265229,-0.0111921,0.0329568,0.00705386,-1.04906,0.0200381,0.0498881,706,624,0.122096,0.203249
-511,400,0.331787,-0.250916,0.0129701,0.018849,-0.00894408,0.0253243,0.00649486,-0.944163,0.0151881,0.0473896,713,624,0.331804,0.250931
-504,400,0.384827,-0.0526733,0.011995,0.0130551,-0.00717356,0.0197182,0.00533195,-0.822277,0.0117776,0.0428747,720,624,0.384846,0.0526464
-497,400,0.590515,0.140442,0.0107295,0.00914608,-0.00586087,0.0158519,0.0040237,-0.718261,0.00951467,0.0282618,727,624,0.590515,-0.140445
-490,400,0.665833,0.141785,0.00942091,0.00602433,-0.0047246,0.0127432,0.00270206,-0.612861,0.00775333,0.0141459,734,624,0.665816,-0.141794
-483,400,0.669006,0.132996,0.00807162,0.00157785,-0.00354944,0.00963522,1.42409e-05,-0.414943,0.00641874,0.0135553,741,624,0.669021,-0.133022
-476,400,0.681458,0.112305,0.00674874,-9.15417e-05,-0.00259171,0.00761979,-0.00096259,-0.32423,0.00542924,0.0126866,748,624,0.681434,-0.112325
-469,400,0.658386,0.0516357,0.00538427,-5.35424e-05,-0.00171807,0.00588161,-0.00055088,-0.281772,0.004117,0.0141178,755,624,0.658384,-0.0516536
-462,400,0.658997,-0.026062,0.00355573,-0.00129368,-0.00121868,0.00384476,-0.00158272,-0.232866,0.003223,0.0188476,762,624,0.659016,0.0260776
-455,400,0.663635,-0.0650635,0.00206754,-0.00268564,-0.000385221,0.00209856,-0.00271666,-0.0803462,0.00278769,0.0194475,769,624,0.663628,0.0650756
-448,400,0.655579,-0.0818481,0.00107832,-0.00449379,0.000732388,0.00117298,-0.00458845,0.12853,0.0035158,0.0152669,776,624,0.655566,0.0818775
-441,400,0.655396,-0.130188,2.54923e-05,-0.00667578,0.00217575,0.000669935,-0.00732022,0.287961,0.00511809,0.0139709,783,624,0.655408,0.130192
-434,400,0.653992,-0.18634,-0.000549299,-0.00827511,0.00388577,0.00106696,-0.00989137,0.394175,0.00697715,0.010328,790,624,0.654016,0.186329
-427,400,0.674927,-0.244568,-0.000785728,-0.00966561,0.00619624,0.00239709,-0.0128484,0.474523,0.00946636,0.00936593,797,624,0.674913,0.244575
-420,400,0.673584,-0.298706,-0.000861511,-0.0106561,0.00880066,0.00431269,-0.0158303,0.5315,0.0122469,0.00940512,804,624,0.67356,0.298695
-413,400,0.661438,-0.32843,-0.0015393,-0.010619,0.0117145,0.00648429,-0.0186426,0.600539,0.0150625,0.0158636,811,624,0.661439,0.328438
-406,400,0.623047,-0.254395,-0.000426852,-0.0111293,0.0140356,0.009243,-0.0207991,0.603274,0.0177674,0.0275304,818,624,0.623021,0.254373
-399,400,0.701843,0.105835,0.00152271,-0.0119491,0.0155735,0.0117546,-0.0221809,0.581285,0.0198986,0.0390175,825,624,0.70187,-0.105807
-392,400,0.601624,0.57605,0.00430811,-0.011909,0.0161618,0.0142814,-0.0218823,0.552891,0.0210323,0.0419537,832,624,0.601614,-0.576054
-385,400,0.198608,-0.150391,0.00775225,-0.0115368,0.0166251,0.0173278,-0.0211123,0.522562,0.0222292,0.0459188,839,624,0.198601,0.150369
-378,400,-0.0137329,-0.127136,0,0,0,0,0,0,0,-1,846,624,-0.0137518,0.127159
-371,400,-0.199829,-0.125916,0,0,0,0,0,0,0,-1,853,624,-0.199803,0.125941
-364,400,0.458862,1.21796,0,0,0,0,0,0,0,-1,860,624,0.458857,-1.21797
-357,400,1.33289,1.1593,0,0,0,0,0,0,0,-1,867,624,1.33288,-1.15932
-350,400,2.20691,1.10065,0,0,0,0,0,0,0,-1,874,624,2.20689,-1.10066
-343,400,3.05029,-0.325378,0,0,0,0,0,0,0,-1,881,624,3.05028,0.325385
-336,400,0,0,0,0,0,0,0,0,0,-1,888,624,0,0
-329,400,0,0,0,0,0,0,0,0,0,-1,895,624,0,0
-322,400,0,0,0,0,0,0,0,0,0,-1,902,624,0,0
-315,400,0,0,0,0,0,0,0,0,0,-1,909,624,0,0
-308,400,0,0,0,0,0,0,0,0,0,-1,916,624,0,0
-301,400,0,0,0,0,0,0,0,0,0,-1,923,624,0,0
-294,400,0,0,0,0,0,0,0,0,0,-1,930,624,0,0
-287,400,0,0,0,0,0,0,0,0,0,-1,937,624,0,0
-280,400,0,0,0,0,0,0,0,0,0,-1,944,624,0,0
-273,400,0,0,0,0,0,0,0,0,0,-1,951,624,0,0
-266,400,0,0,0,0,0,0,0,0,0,-1,958,624,0,0
-259,400,0,0,0,0,0,0,0,0,0,-1,965,624,0,0
-252,400,0,0,0,0,0,0,0,0,0,-1,972,624,0,0
-245,400,0,0,0,0,0,0,0,0,0,-1,979,624,0,0
-238,400,0,0,0,0,0,0,0,0,0,-1,986,624,0,0
-231,400,0,0,0,0,0,0,0,0,0,-1,993,624,0,0
-224,400,0,0,0,0,0,0,0,0,0,-1,1000,624,0,0
-217,400,0,0,0,0,0,0,0,0,0,-1,1007,624,0,0
-210,400,0,0,0,0,0,0,0,0,0,-1,1014,624,0,0
-203,400,0,0,0,0,0,0,0,0,0,-1,1021,624,0,0
-196,400,0,0,0,0,0,0,0,0,0,-1,1028,624,0,0
-189,400,0,0,0,0,0,0,0,0,0,-1,1035,624,0,0
-182,400,0,0,0,0,0,0,0,0,0,-1,1042,624,0,0
-175,400,0,0,0,0,0,0,0,0,0,-1,1049,624,0,0
-168,400,0,0,0,0,0,0,0,0,0,-1,1056,624,0,0
-161,400,0,0,0,0,0,0,0,0,0,-1,1063,624,0,0
-154,400,0,0,0,0,0,0,0,0,0,-1,1070,624,0,0
-147,400,0,0,0,0,0,0,0,0,0,-1,1077,624,0,0
-140,400,0,0,0,0,0,0,0,0,0,-1,1084,624,0,0
-133,400,0,0,0,0,0,0,0,0,0,-1,1091,624,0,0
-126,400,0,0,0,0,0,0,0,0,0,-1,1098,624,0,0
-119,400,0,0,0,0,0,0,0,0,0,-1,1105,624,0,0
-112,400,0,0,0,0,0,0,0,0,0,-1,1112,624,0,0
-105,400,0,0,0,0,0,0,0,0,0,-1,1119,624,0,0
-98,400,0,0,0,0,0,0,0,0,0,-1,1126,624,0,0
-91,400,0,0,0,0,0,0,0,0,0,-1,1133,624,0,0
-84,400,0,0,0,0,0,0,0,0,0,-1,1140,624,0,0
-77,400,0,0,0,0,0,0,0,0,0,-1,1147,624,0,0
-70,400,0,0,0,0,0,0,0,0,0,-1,1154,624,0,0
-63,400,0,0,0,0,0,0,0,0,0,-1,1161,624,0,0
-56,400,0,0,0,0,0,0,0,0,0,-1,1168,624,0,0
-49,400,0,0,0,0,0,0,0,0,0,-1,1175,624,0,0
-42,400,0,0,0,0,0,0,0,0,0,-1,1182,624,0,0
-35,400,0,0,0,0,0,0,0,0,0,-1,1189,624,0,0
-28,400,0,0,0,0,0,0,0,0,0,-1,1196,624,0,0
-21,400,0,0,0,0,0,0,0,0,0,-1,1203,624,0,0
-14,400,0,0,0,0,0,0,0,0,0,-1,1210,624,0,0
-7,400,0,0,0,0,0,0,0,0,0,-1,1217,624,0,0
0,400,0,0,0,0,0,0,0,0,0,-1,1224,624,0,0
7,400,0,0,0,0,0,0,0,0,0,-1,1231,624,0,0
14,400,0,0,0,0,0,0,0,0,0,-1,1238,624,0,0
21,400,0,0,0,0,0,0,0,0,0,-1,1245,624,0,0
28,400,0,0,0,0,0,0,0,0,0,-1,1252,624,0,0
35,400,0,0,0,0,0,0,0,0,0,-1,1259,624,0,0
42,400,0,0,0,0,0,0,0,0,0,-1,1266,624,0,0
49,400,0,0,0,0,0,0,0,0,0,-1,1273,624,0,0
56,400,0,0,0,0,0,0,0,0,0,-1,1280,624,0,0
63,400,0,0,0,0,0,0,0,0,0,-1,1287,624,0,0
70,400,0,0,0,0,0,0,0,0,0,-1,1294,624,0,0
77,400,0,0,0,0,0,0,0,0,0,-1,1301,624,0,0
84,400,0,0,0,0,0,0,0,0,0,-1,1308,624,0,0
91,400,0,0,0,0,0,0,0,0,0,-1,1315,624,0,0
98,400,0,0,0,0,0,0,0,0,0,-1,1322,624,0,0
105,400,0,0,0,0,0,0,0,0,0,-1,1329,624,0,0
112,400,0,0,0,0,0,0,0,0,0,-1,1336,624,0,0
119,400,0,0,0,0,0,0,0,0,0,-1,1343,624,0,0
126,400,0,0,0,0,0,0,0,0,0,-1,1350,624,0,0
133,400,0,0,0,0,0,0,0,0,0,-1,1357,624,0,0
140,400,0,0,0,0,0,0,0,0,0,-1,1364,624,0,0
147,400,0,0,0,0,0,0,0,0,0,-1,1371,624,0,0
154,400,0,0,0,0,0,0,0,0,0,-1,1378,624,0,0
161,400,0,0,0,0,0,0,0,0,0,-1,1385,624,0,0
168,400,0,0,0,0,0,0,0,0,0,-1,1392,624,0,0
175,400,0,0,0,0,0,0,0,0,0,-1,1399,624,0,0
182,400,0,0,0,0,0,0,0,0,0,-1,1406,624,0,0
189,400,0,0,0,0,0,0,0,0,0,-1,1413,624,0,0
196,400,0,0,0,0,0,0,0,0,0,-1,1420,624,0,0
203,400,0,0,0,0,0,0,0,0,0,-1,1427,624,0,0
210,400,0,0,0,0,0,0,0,0,0,-1,1434,624,0,0
217,400,0,0,0,0,0,0,0,0,0,-1,1441,624,0,0
224,400,0,0,0,0,0,0,0,0,0,-1,1448,624,0,0
231,400,0,0,0,0,0,0,0,0,0,-1,1455,624,0,0
238,400,0,0,0,0,0,0,0,0,0,-1,1462,624,0,0
245,400,0,0,0,0,0,0,0,0,0,-1,1469,624,0,0
252,400,0,0,0,0,0,0,0,0,0,-1,1476,624,0,0
259,400,0,0,0,0,0,0,0,0,0,-1,1483,624,0,0
266,400,0,0,0,0,0,0,0,0,0,-1,1490,624,0,0
273,400,0,0,0,0,0,0,0,0,0,-1,1497,624,0,0
280,400,0,0,0,0,0,0,0,0,0,-1,1504,624,0,0
287,400,0,0,0,0,0,0,0,0,0,-1,1511,624,0,0
294,400,0,0,0,0,0,0,0,0,0,-1,1518,624,0,0
301,400,0,0,0,0,0,0,0,0,0,-1,1525,624,0,0
308,400,0,0,0,0,0,0,0,0,0,-1,1532,624,0,0
315,400,0,0,0,0,0,0,0,0,0,-1,1539,624,0,0
322,400,0,0,0,0,0,0,0,0,0,-1,1546,624,0,0
329,400,0,0,0,0,0,0,0,0,0,-1,1553,624,0,0
336,400,0,0,0,0,0,0,0,0,0,-1,1560,624,0,0
343,400,0,0,0,0,0,0,0,0,0,-1,1567,624,0,0
350,400,0,0,0,0,0,0,0,0,0,-1,1574,624,0,0
357,400,0,0,0,0,0,0,0,0,0,-1,1581,624,0,0
364,400,0,0,0,0,0,0,0,0,0,-1,1588,624,0,0
371,400,0,0,0,0,0,0,0,0,0,-1,1595,624,0,0
378,400,0,0,0,0,0,0,0,0,0,-1,1602,624,0,0
385,400,0,0,0,0,0,0,0,0,0,-1,1609,624,0,0
392,400,0,0,0,0,0,0,0,0,0,-1,1616,624,0,0
399,400,0,0,0,0,0,0,0,0,0,-1,1623,624,0,0
406,400,0,0,0,0,0,0,0,0,0,-1,1630,624,0,0
413,400,0,0,0,0,0,0,0,0,0,-1,1637,624,0,0
420,400,0,0,0,0,0,0,0,0,0,-1,1644,624,0,0
427,400,0,0,0,0,0,0,0,0,0,-1,1651,624,0,0
434,400,0,0,0,0,0,0,0,0,0,-1,1658,624,0,0
441,400,0,0,0,0,0,0,0,0,0,-1,1665,624,0,0
448,400,0,0,0,0,0,0,0,0,0,-1,1672,624,0,0
455,400,5.60425,1.4776,-0.0316243,-0.0465415,-0.0143012,-0.0229536,-0.0552122,-0.545034,0.0320273,0.043343,1679,624,5.60419,-1.47759
462,400,5.15125,1.3598,-0.0271636,-0.0412037,-0.0153421,-0.0173118,-0.0510555,-0.570834,0.0299815,0.0441731,1686,624,5.15125,-1.35981
469,400,4.44434,1.41528,-0.0203454,-0.0354157,-0.0158232,-0.0103548,-0.0454063,-0.563181,0.0274775,0.047266,1693,624,4.44436,-1.4153
476,400,3.80249,1.4696,0,0,0,0,0,0,0,-1,1700,624,3.80248,-1.46958
483,400,5.41028,1.21063,0,0,0,0,0,0,0,-1,1707,624,5.41027,-1.21061
490,400,5.60645,1.17773,0,0,0,0,0,0,0,-1,1714,624,5.60643,-1.17773
497,400,3.61646,0.417908,0,0,0,0,0,0,0,-1,1721,624,3.61648,-0.417905
504,400,3.52551,0.841125,0,0,0,0,0,0,0,-1,1728,624,3.52556,-0.841099
511,400,3.44409,0.784973,0,0,0,0,0,0,0,-1,1735,624,3.44415,-0.784951
518,400,3.2124,0.998169,0,0,0,0,0,0,0,-1,1742,624,3.21243,-0.998186
525,400,3.5896,-0.717407,0,0,0,0,0,0,0,-1,1749,624,3.58963,0.717409
532,400,3.38464,-0.513855,0.0110199,0.000147758,-0.0227144,0.0289397,-0.017772,-0.667946,0.0272247,0.0397249,1756,624,3.38467,0.513878
539,400,3.21179,-0.307434,0.00808724,0.000844804,-0.0194928,0.0242923,-0.0153603,-0.693559,0.0230862,0.0230412,1763,624,3.21182,0.307451
546,400,3.13379,-0.318542,0.00541016,0.000972079,-0.0159339,0.0192788,-0.0128965,-0.71621,0.0186979,0.0124927,1770,624,3.13381,0.318555
553,400,3.14465,-0.239929,0.00331988,0.00105745,-0.0126285,0.0148677,-0.0104904,-0.740729,0.014713,0.0114852,1777,624,3.14462,0.239935
560,400,3.15442,-0.172058,0.00156519,0.00104122,-0.00963396,0.0109407,-0.00833432,-0.771805,0.0111623,0.0121352,1784,624,3.15445,0.172038
567,400,3.14844,-0.148682,0.000730203,0.000824781,-0.00691185,0.0076895,-0.00613452,-0.788819,0.00799812,0.0167549,1791,624,3.14849,0.148655
574,400,3.14539,-0.129456,0.000219263,0.000547834,-0.00488007,0.00526638,-0.00449928,-0.802224,0.005644,0.0180515,1798,624,3.14544,0.129443
581,400,3.14014,-0.090332,-0.000518659,0.000305886,-0.00281612,0.00273975,-0.00295252,-0.858081,0.0032872,0.0146348,1805,624,3.14014,0.0903097
588,400,3.14148,-0.0371704,-0.000778832,0.000539753,-0.00138818,0.00141724,-0.00165632,-1.0071,0.00177631,0.00969509,1812,624,3.14146,0.0371413
595,400,3.16199,0.00463867,0.000276663,0.000685142,-0.000874937,0.00137936,-0.000417556,-0.900062,0.00108586,0.00943448,1819,624,3.16197,-0.00462198
602,400,3.16113,0.0441284,0.00266934,0.00076333,-0.000662601,0.00287705,0.000555621,-0.303774,0.00176227,0.0105523,1826,624,3.16113,-0.0441178
609,400,3.13062,0.112732,0.00647984,0.00116759,-0.000780752,0.00659222,0.00105522,-0.142946,0.00408871,0.0119217,1833,624,3.13061,-0.112732
616,400,3.12256,0.190491,0.0116799,0.00213233,-0.000726904,0.0117349,0.0020773,-0.0755548,0.00723098,0.0145546,1840,624,3.1226,-0.190481
623,400,3.17151,0.227417,0.0181155,0.00284316,-0.000706014,0.018148,0.00281059,-0.0460973,0.0112792,0.0187984,1847,624,3.17155,-0.227431
630,400,3.12866,0.238831,0.0262198,0.00381702,-0.000822928,0.02625,0.00378683,-0.0366674,0.0163843,0.0246447,1854,624,3.12865,-0.238841
637,400,2.85901,0.20282,0.0364124,0.00494501,-0.000912076,0.0364388,0.00491859,-0.0289524,0.0228303,0.0407572,1861,624,2.85899,-0.202831
644,400,2.71399,0.197388,0.0487393,0.00625238,-0.000941103,0.0487601,0.00623154,-0.022136,0.0306415,0.0439417,1868,624,2.714,-0.197376
651,400,3.13721,0.581299,0.0633668,0.00757379,-0.000761147,0.0633772,0.00756341,-0.013639,0.0399696,0.0415933,1875,624,3.13725,-0.581319
658,400,3.75464,0.967896,0.0799337,0.00902331,-0.000216024,0.0799344,0.00902265,-0.0030464,0.0505511,0.0435082,1882,624,3.75467,-0.967886
665,400,4.41736,1.35168,0.0976805,0.0103616,0.000607998,0.0976847,0.0103573,0.00696251,0.0619599,0.0472325,1889,624,4.41737,-1.35169
672,400,0,0,0,0,0,0,0,0,0,-1,1896,624,0,0
679,400,0,0,0,0,0,0,0,0,0,-1,1903,624,0,0
686,400,0,0,0,0,0,0,0,0,0,-1,1910,624,0,0
693,400,0,0,0,0,0,0,0,0,0,-1,1917,624,0,0
700,400,0,0,0,0,0,0,0,0,0,-1,1924,624,0,0
707,400,0,0,0,0,0,0,0,0,0,-1,1931,624,0,0
714,400,0,0,0,0,0,0,0,0,0,-1,1938,624,0,0
721,400,0,0,0,0,0,0,0,0,0,-1,1945,624,0,0
728,400,0,0,0,0,0,0,0,0,0,-1,1952,624,0,0
735,400,0,0,0,0,0,0,0,0,0,-1,1959,624,0,0
742,400,0,0,0,0,0,0,0,0,0,-1,1966,624,0,0
749,400,0,0,0,0,0,0,0,0,0,-1,1973,624,0,0
756,400,0,0,0,0,0,0,0,0,0,-1,1980,624,0,0
763,400,0,0,0,0,0,0,0,0,0,-1,1987,624,0,0
770,400,0,0,0,0,0,0,0,0,0,-1,1994,624,0,0
777,400,0,0,0,0,0,0,0,0,0,-1,2001,624,0,0
784,400,0,0,0,0,0,0,0,0,0,-1,2008,624,0,0
791,400,0,0,0,0,0,0,0,0,0,-1,2015,624,0,0
798,400,0,0,0,0,0,0,0,0,0,-1,2022,624,0,0
805,400,0,0,0,0,0,0,0,0,0,-1,2029,624,0,0
812,400,0,0,0,0,0,0,0,0,0,-1,2036,624,0,0
-700,393,0,0,0,0,0,0,0,0,0,-1,524,631,0,0
-693,393,0,0,0,0,0,0,0,0,0,-1,531,631,0,0
-686,393,0,0,0,0,0,0,0,0,0,-1,538,631,0,0
-679,393,0,0,0,0,0,0,0,0,0,-1,545,631,0,0
-672,393,0,0,0,0,0,0,0,0,0,-1,552,631,0,0
-665,393,0,0,0,0,0,0,0,0,0,-1,559,631,0,0
-658,393,0,0,0,0,0,0,0,0,0,-1,566,631,0,0
-651,393,0,0,0,0,0,0,0,0,0,-1,573,631,0,0
-644,393,0,0,0,0,0,0,0,0,0,-1,580,631,0,0
-637,393,0,0,0,0,0,0,0,0,0,-1,587,631,0,0
-630,393,0,0,0,0,0,0,0,0,0,-1,594,631,0,0
-623,393,0,0,0,0,0,0,0,0,0,-1,601,631,0,0
-616,393,0,0,0,0,0,0,0,0,0,-1,608,631,0,0
-609,393,0,0,0,0,0,0,0,0,0,-1,615,631,0,0
-602,393,0,0,0,0,0,0,0,0,0,-1,622,631,0,0
-595,393,0,0,0,0,0,0,0,0,0,-1,629,631,0,0
-588,393,0,0,0,0,0,0,0,0,0,-1,636,631,0,0
-581,393,0,0,0,0,0,0,0,0,0,-1,643,631,0,0
-574,393,0,0,0,0,0,0,0,0,0,-1,650,631,0,0
-567,393,0,0,0,0,0,0,0,0,0,-1,657,631,0,0
-560,393,0,0,0,0,0,0,0,0,0,-1,664,631,0,0
-553,393,-0.257263,0.379456,0.0048597,0.0719544,-0.0157766,0.0754789,0.00133516,-1.351,0.0498802,0.0439634,671,631,-0.257281,-0.379438
-546,393,-0.085022,0.785156,0.00743109,0.0593797,-0.0155224,0.0636644,0.00314638,-1.30147,0.041434,0.049559,678,631,-0.0850021,-0.785172
-539,393,-0.0635986,0.823242,0,0,0,0,0,0,0,-1,685,631,-0.0635863,-0.823272
-532,393,0.789063,-0.718872,0,0,0,0,0,0,0,-1,692,631,0.789087,0.718875
-525,393,0.237183,-0.271057,0,0,0,0,0,0,0,-1,699,631,0.237179,0.271064
-518,393,0.187683,-0.266968,0.0119415,0.0209187,-0.00915542,0.0266266,0.00623356,-1.01331,0.0160811,0.0476305,706,631,0.187713,0.266967
-511,393,0.217529,-0.151611,0.0113724,0.0146422,-0.00709427,0.0202875,0.00572707,-0.89865,0.0120774,0.044805,713,631,0.217524,0.151589
-504,393,0.431763,0.154907,0.01041,0.00998686,-0.00550253,0.015705,0.00469182,-0.766185,0.0093089,0.0346449,720,631,0.431771,-0.154921
-497,393,0.569214,0.210388,0.00919041,0.00698389,-0.00433762,0.0125629,0.00361142,-0.660865,0.0074684,0.0172901,727,631,0.569238,-0.210392
-490,393,0.617859,0.148071,0.00797474,0.00453435,-0.00335362,0.0100236,0.00248548,-0.548426,0.00602723,0.013223,734,631,0.617845,-0.148101
-483,393,0.646057,0.104919,0.00668039,0.000840642,-0.00238931,0.00753338,-1.23449e-05,-0.342898,0.00502637,0.0181973,741,631,0.646047,-0.104924
-476,393,0.656738,0.0912476,0.00538463,-0.000647339,-0.00157308,0.00577023,-0.00103293,-0.240381,0.00423335,0.0154431,748,631,0.656728,-0.0912285
-469,393,0.621887,0.0396729,0.00400207,-0.000849152,-0.000625928,0.00408153,-0.000928611,-0.12627,0.00307761,0.0122474,755,631,0.621908,-0.0396926
-462,393,0.626587,-0.0524902,0.00208291,-0.00215956,-5.71998e-05,0.00208368,-0.00216033,-0.0134794,0.00245041,0.0140429,762,631,0.626561,0.0524746
-455,393,0.626038,-0.0907593,0.000447624,-0.00378344,0.000874966,0.000621424,-0.00395724,0.196084,0.00286783,0.0139275,769,631,0.62606,0.0907291
-448,393,0.607788,-0.125,-0.000860381,-0.005931,0.00212444,-8.7969e-05,-0.00670341,0.348725,0.00443991,0.0144239,776,631,0.607807,0.124979
-441,393,0.609741,-0.168579,-0.00217828,-0.00844401,0.0037884,-0.000395173,-0.0102271,0.439915,0.00669024,0.0126622,783,631,0.609727,0.168566
-434,393,0.608154,-0.194946,-0.00289581,-0.0102343,0.00577256,0.000274955,-0.0134051,0.502291,0.00902979,0.0100546,790,631,0.608163,0.194949
-427,393,0.638,-0.238098,-0.00322656,-0.0116849,0.00849503,0.0020338,-0.0169453,0.554438,0.0120322,0.011398,797,631,0.637983,0.238074
-420,393,0.636475,-0.27771,-0.00330288,-0.0125598,0.0116041,0.0045618,-0.0204245,0.595635,0.0153644,0.0155005,804,631,0.636472,0.277728
-413,393,0.555664,-0.241821,-0.00397722,-0.0122141,0.0150118,0.00747084,-0.0236622,0.651519,0.0187674,0.0296985,811,631,0.555645,0.241812
-406,393,0.474731,0.148376,-0.00269146,-0.0121849,0.0178693,0.0110508,-0.0259272,0.655578,0.0219176,0.0397818,818,631,0.474729,-0.148364
-399,393,0.457581,0.592834,-0.000338974,-0.0121457,0.019907,0.0145216,-0.0270062,0.641256,0.0243346,0.0409047,825,631,0.457587,-0.592808
-392,393,0.225281,0.814819,0.00313599,-0.01106,0.0208616,0.0180741,-0.0259981,0.621421,0.0255818,0.0412136,832,631,0.225296,-0.814798
-385,393,0.0441284,-0.043335,0,0,0,0,0,0,0,-1,839,631,0.0441116,0.0433378
-378,393,-0.155579,-0.0823364,0,0,0,0,0,0,0,-1,846,631,-0.155573,0.0823629
-371,393,3.53571,0.611328,0,0,0,0,0,0,0,-1,853,631,3.53573,-0.611343
-364,393,2.95264,0.21521,0,0,0,0,0,0,0,-1,860,631,2.95264,-0.215238
-357,393,1.57599,1.76788,0,0,0,0,0,0,0,-1,867,631,1.576,-1.76791
-350,393,0.339844,-0.600586,0,0,0,0,0,0,0,-1,874,631,0.339852,0.60059
-343,393,0,0,0,0,0,0,0,0,0,-1,881,631,0,0
-336,393,0,0,0,0,0,0,0,0,0,-1,888,631,0,0
-329,393,0,0,0,0,0,0,0,0,0,-1,895,631,0,0
-322,393,0,0,0,0,0,0,0,0,0,-1,902,631,0,0
-315,393,0,0,0,0,0,0,0,0,0,-1,909,631,0,0
-308,393,0,0,0,0,0,0,0,0,0,-1,916,631,0,0
-301,393,0,0,0,0,0,0,0,0,0,-1,923,631,0,0
-294,393,0,0,0,0,0,0,0,0,0,-1,930,631,0,0
-287,393,0,0,0,0,0,0,0,0,0,-1,937,631,0,0
-280,393,0,0,0,0,0,0,0,0,0,-1,944,631,0,0
-273,393,0,0,0,0,0,0,0,0,0,-1,951,631,0,0
-266,393,0,0,0,0,0,0,0,0,0,-1,958,631,0,0
-259,393,0,0,0,0,0,0,0,0,0,-1,965,631,0,0
-252,393,0,0,0,0,0,0,0,0,0,-1,972,631,0,0
-245,393,0,0,0,0,0,0,0,0,0,-1,979,631,0,0
-238,393,0,0,0,0,0,0,0,0,0,-1,986,631,0,0
-231,393,0,0,0,0,0,0,0,0,0,-1,993,631,0,0
-224,393,0,0,0,0,0,0,0,0,0,-1,1000,631,0,0
-217,393,0,0,0,0,0,0,0,0,0,-1,1007,631,0,0
-210,393,0,0,0,0,0,0,0,0,0,-1,1014,631,0,0
-203,393,0,0,0,0,0,0,0,0,0,-1,1021,631,0,0
-196,393,0,0,0,0,0,0,0,0,0,-1,1028,631,0,0
-189,393,0,0,0,0,0,0,0,0,0,-1,1035,631,0,0
-182,393,0,0,0,0,0,0,0,0,0,-1,1042,631,0,0
-175,393,0,0,0,0,0,0,0,0,0,-1,1049,631,0,0
-168,393,0,0,0,0,0,0,0,0,0,-1,1056,631,0,0
-161,393,0,0,0,0,0,0,0,0,0,-1,1063,631,0,0
-154,393,0,0,0,0,0,0,0,0,0,-1,1070,631,0,0
-147,393,0,0,0,0,0,0,0,0,0,-1,1077,631,0,0
-140,393,0,0,0,0,0,0,0,0,0,-1,1084,631,0,0
-133,393,0,0,0,0,0,0,0,0,0,-1,1091,631,0,0
-126,393,0,0,0,0,0,0,0,0,0,-1,1098,631,0,0
-119,393,0,0,0,0,0,0,0,0,0,-1,1105,631,0,0
-112,393,0,0,0,0,0,0,0,0,0,-1,1112,631,0,0
-105,393,0,0,0,0,0,0,0,0,0,-1,1119,631,0,0
-98,393,0,0,0,0,0,0,0,0,0,-1,1126,631,0,0
-91,393,0,0,0,0,0,0,0,0,0,-1,1133,631,0,0
-84,393,0,0,0,0,0,0,0,0,0,-1,1140,631,0,0
-77,393,0,0,0,0,0,0,0,0,0,-1,1147,631,0,0
-70,393,0,0,0,0,0,0,0,0,0,-1,1154,631,0,0
-63,393,0,0,0,0,0,0,0,0,0,-1,1161,631,0,0
-56,393,0,0,0,0,0,0,0,0,0,-1,1168,631,0,0
-49,393,0,0,0,0,0,0,0,0,0,-1,1175,631,0,0
-42,393,0,0,0,0,0,0,0,0,0,-1,1182,631,0,0
-35,393,0,0,0,0,0,0,0,0,0,-1,1189,631,0,0
-28,393,0,0,0,0,0,0,0,0,0,-1,1196,631,0,0
-21,393,0,0,0,0,0,0,0,0,0,-1,1203,631,0,0
-14,393,0,0,0,0,0,0,0,0,0,-1,1210,631,0,0
-7,393,0,0,0,0,0,0,0,0,0,-1,1217,631,0,0
0,393,0,0,0,0,0,0,0,0,0,-1,1224,631,0,0
7,393,0,0,0,0,0,0,0,0,0,-1,1231,631,0,0
14,393,0,0,0,0,0,0,0,0,0,-1,1238,631,0,0
21,393,0,0,0,0,0,0,0,0,0,-1,1245,631,0,0
28,393,0,0,0,0,0,0,0,0,0,-1,1252,631,0,0
35,393,0,0,0,0,0,0,0,0,0,-1,1259,631,0,0
42,393,0,0,0,0,0,0,0,0,0,-1,1266,631,0,0
49,393,0,0,0,0,0,0,0,0,0,-1,1273,631,0,0
56,393,0,0,0,0,0,0,0,0,0,-1,1280,631,0,0
63,393,0,0,0,0,0,0,0,0,0,-1,1287,631,0,0
70,393,0,0,0,0,0,0,0,0,0,-1,1294,631,0,0
77,393,0,0,0,0,0,0,0,0,0,-1,1301,631,0,0
84,393,0,0,0,0,0,0,0,0,0,-1,1308,631,0,0
91,393,0,0,0,0,0,0,0,0,0,-1,1315,631,0,0
98,393,0,0,0,0,0,0,0,0,0,-1,1322,631,0,0
105,393,0,0,0,0,0,0,0,0,0,-1,1329,631,0,0
112,393,0,0,0,0,0,0,0,0,0,-1,1336,631,0,0
119,393,0,0,0,0,0,0,0,0,0,-1,1343,631,0,0
126,393,0,0,0,0,0,0,0,0,0,-1,1350,631,0,0
133,393,0,0,0,0,0,0,0,0,0,-1,1357,631,0,0
140,393,0,0,0,0,0,0,0,0,0,-1,1364,631,0,0
147,393,0,0,0,0,0,0,0,0,0,-1,1371,631,0,0
154,393,0,0,0,0,0,0,0,0,0,-1,1378,631,0,0
161,393,0,0,0,0,0,0,0,0,0,-1,1385,631,0,0
168,393,0,0,0,0,0,0,0,0,0,-1,1392,631,0,0
175,393,0,0,0,0,0,0,0,0,0,-1,1399,631,0,0
182,393,0,0,0,0,0,0,0,0,0,-1,1406,631,0,0
189,393,0,0,0,0,0,0,0,0,0,-1,1413,631,0,0
196,393,0,0,0,0,0,0,0,0,0,-1,1420,631,0,0
203,393,0,0,0,0,0,0,0,0,0,-1,1427,631,0,0
210,393,0,0,0,0,0,0,0,0,0,-1,1434,631,0,0
217,393,0,0,0,0,0,0,0,0,0,-1,1441,631,0,0
224,393,0,0,0,0,0,0,0,0,0,-1,1448,631,0,0
231,393,0,0,0,0,0,0,0,0,0,-1,1455,631,0,0
238,393,0,0,0,0,0,0,0,0,0,-1,1462,631,0,0
245,393,0,0,0,0,0,0,0,0,0,-1,1469,631,0,0
252,393,0,0,0,0,0,0,0,0,0,-1,1476,631,0,0
259,393,0,0,0,0,0,0,0,0,0,-1,1483,631,0,0
266,393,0,0,0,0,0,0,0,0,0,-1,1490,631,0,0
273,393,0,0,0,0,0,0,0,0,0,-1,1497,631,0,0
280,393,0,0,0,0,0,0,0,0,0,-1,1504,631,0,0
287,393,0,0,0,0,0,0,0,0,0,-1,1511,631,0,0
294,393,0,0,0,0,0,0,0,0,0,-1,1518,631,0,0
301,393,0,0,0,0,0,0,0,0,0,-1,1525,631,0,0
308,393,0,0,0,0,0,0,0,0,0,-1,1532,631,0,0
315,393,0,0,0,0,0,0,0,0,0,-1,1539,631,0,0
322,393,0,0,0,0,0,0,0,0,0,-1,1546,631,0,0
329,393,0,0,0,0,0,0,0,0,0,-1,1553,631,0,0
336,393,0,0,0,0,0,0,0,0,0,-1,1560,631,0,0
343,393,0,0,0,0,0,0,0,0,0,-1,1567,631,0,0
350,393,0,0,0,0,0,0,0,0,0,-1,1574,631,0,0
357,393,0,0,0,0,0,0,0,0,0,-1,1581,631,0,0
364,393,0,0,0,0,0,0,0,0,0,-1,1588,631,0,0
371,393,0,0,0,0,0,0,0,0,0,-1,1595,631,0,0
378,393,0,0,0,0,0,0,0,0,0,-1,1602,631,0,0
385,393,0,0,0,0,0,0,0,0,0,-1,1609,631,0,0
392,393,0,0,0,0,0,0,0,0,0,-1,1616,631,0,0
399,393,0,0,0,0,0,0,0,0,0,-1,1623,631,0,0
406,393,0,0,0,0,0,0,0,0,0,-1,1630,631,0,0
413,393,0,0,0,0,0,0,0,0,0,-1,1637,631,0,0
420,393,0,0,0,0,0,0,0,0,0,-1,1644,631,0,0
427,393,0,0,0,0,0,0,0,0,0,-1,1651,631,0,0
434,393,0,0,0,0,0,0,0,0,0,-1,1658,631,0,0
441,393,0,0,0,0,0,0,0,0,0,-1,1665,631,0,0
448,393,0,0,0,0,0,0,0,0,0,-1,1672,631,0,0
455,393,0,0,0,0,0,0,0,0,0,-1,1679,631,0,0
462,393,4.78918,1.50366,-0.03382,-0.0413519,-0.0204031,-0.0168382,-0.0583336,-0.694136,0.0346673,0.0441377,1686,631,4.78924,-1.50369
469,393,3.97913,1.74194,-0.0239638,-0.0346956,-0.0220456,-0.00664045,-0.052019,-0.666019,0.0326914,0.0456131,1693,631,3.97912,-1.74193
476,393,3.46204,1.96338,0,0,0,0,0,0,0,-1,1700,631,3.46199,-1.96341
483,393,4.85461,1.13898,0,0,0,0,0,0,0,-1,1707,631,4.85457,-1.139
490,393,5.15369,1.14288,0,0,0,0,0,0,0,-1,1714,631,5.15365,-1.14291
497,393,5.36902,0.70575,0,0,0,0,0,0,0,-1,1721,631,5.36908,-0.705765
504,393,3.48083,1.45697,0,0,0,0,0,0,0,-1,1728,631,3.48086,-1.45699
511,393,2.83484,1.16608,0,0,0,0,0,0,0,-1,1735,631,2.83484,-1.16605
518,393,3.26965,0.951965,0.01674,-0.000464736,-0.0337981,0.0430133,-0.0267381,-0.660783,0.0406347,0.0468047,1742,631,3.26963,-0.951968
525,393,3.53223,0.671509,0.0178382,0.00228594,-0.0336133,0.0445631,-0.0244389,-0.671727,0.0403991,0.0446393,1749,631,3.53228,-0.67149
532,393,3.54089,0.183533,0.0142107,0.00246713,-0.0303525,0.0392542,-0.0225763,-0.689852,0.0361281,0.0427388,1756,631,3.54089,-0.18355
539,393,3.36682,-0.0936279,0.0106236,0.00283437,-0.0260877,0.0331058,-0.0196478,-0.7113,0.0307859,0.0376078,1763,631,3.36678,0.0936238
546,393,3.20898,-0.294312,0.00733321,0.00258251,-0.0213499,0.0264394,-0.0165237,-0.729997,0.025024,0.0240231,1770,631,3.20893,0.294304
553,393,3.21558,-0.280396,0.00465782,0.00229066,-0.016927,0.0204426,-0.0134941,-0.750494,0.0197298,0.0133536,1777,631,3.21556,0.280389
560,393,3.20728,-0.192627,0.00241732,0.00191858,-0.0128642,0.0150345,-0.0106987,-0.775707,0.0149272,0.0121029,1784,631,3.20733,0.192624
567,393,3.19019,-0.154419,0.00130478,0.0013806,-0.00926045,0.0106032,-0.00791783,-0.787445,0.0107305,0.0133999,1791,631,3.19022,0.154443
574,393,3.18286,-0.137329,0.000498573,0.000856929,-0.00659378,0.00727397,-0.00591847,-0.798982,0.00763005,0.0137974,1798,631,3.18286,0.137346
581,393,3.18359,-0.0930176,-0.000584392,0.000421885,-0.00392559,0.00387645,-0.00403895,-0.849135,0.00457028,0.0123134,1805,631,3.18359,0.092994
588,393,3.20325,-0.0419922,-0.000966495,0.000503067,-0.00202809,0.00192538,-0.00238881,-0.959194,0.00249558,0.0122426,1812,631,3.2033,0.0419883
595,393,3.20471,-0.0113525,8.21371e-07,0.000518527,-0.00116642,0.00145447,-0.000935118,-0.894589,0.00139045,0.0106362,1819,631,3.20468,0.0113326
602,393,3.20349,0.0186157,0.00207992,0.000422171,-0.000701537,0.00233695,0.000165142,-0.351192,0.00150594,0.0128983,1826,631,3.20349,-0.0185947
609,393,3.18384,0.0721436,0.00528748,0.000893148,-0.000684176,0.00539154,0.000789089,-0.150937,0.00336234,0.0137496,1833,631,3.18386,-0.0721739
616,393,3.15967,0.154846,0.0097433,0.00180964,-0.000492591,0.00977376,0.00177917,-0.0617725,0.0060112,0.0139138,1840,631,3.15971,-0.154817
623,393,3.16809,0.218445,0.0152277,0.00250442,-0.000300156,0.0152348,0.00249734,-0.0235736,0.0094349,0.0151693,1847,631,3.16814,-0.218425
630,393,3.19617,0.23761,0.0220523,0.00344492,-0.000175438,0.0220539,0.00344327,-0.00942728,0.0136999,0.0191095,1854,631,3.19613,-0.237625
637,393,3.03662,0.16925,0.0305797,0.00450775,9.87226e-06,0.0305797,0.00450774,0.000378654,0.0190624,0.0310051,1861,631,3.03667,-0.169231
644,393,3.06958,0.2146,0.0407919,0.00571592,0.000259296,0.0407938,0.005714,0.00739186,0.0255055,0.0398309,1868,631,3.06963,-0.214593
651,393,3.31592,0.738159,0.0527904,0.006795,0.000720132,0.0528016,0.00678373,0.0156515,0.0331719,0.0401537,1875,631,3.31591,-0.738137
658,393,3.9541,0.942139,0.0662604,0.00794577,0.00154984,0.0663016,0.00790461,0.0265522,0.041816,0.042997,1882,631,3.95415,-0.942137
665,393,4.81921,0.932861,0.0805318,0.00887165,0.00251889,0.0806202,0.00878322,0.0350928,0.0510715,0.0441168,1889,631,4.81919,-0.932882
672,393,5.58179,0.930237,0.0946033,0.00933169,0.00364946,0.0947592,0.00917578,0.042694,0.0603472,0.0461771,1896,631,5.58173,-0.930206
679,393,0,0,0,0,0,0,0,0,0,-1,1903,631,0,0
686,393,0,0,0,0,0,0,0,0,0,-1,1910,631,0,0
693,393,0,0,0,0,0,0,0,0,0,-1,1917,631,0,0
700,393,0,0,0,0,0,0,0,0,0,-1,1924,631,0,0
707,393,0,0,0,0,0,0,0,0,0,-1,1931,631,0,0
714,393,0,0,0,0,0,0,0,0,0,-1,1938,631,0,0
721,393,0,0,0,0,0,0,0,0,0,-1,1945,631,0,0
728,393,0,0,0,0,0,0,0,0,0,-1,1952,631,0,0
735,393,0,0,0,0,0,0,0,0,0,-1,1959,631,0,0
742,393,0,0,0,0,0,0,0,0,0,-1,1966,631,0,0
749,393,0,0,0,0,0,0,0,0,0,-1,1973,631,0,0
756,393,0,0,0,0,0,0,0,0,0,-1,1980,631,0,0
763,393,0,0,0,0,0,0,0,0,0,-1,1987,631,0,0
770,393,0,0,0,0,0,0,0,0,0,-1,1994,631,0,0
777,393,0,0,0,0,0,0,0,0,0,-1,2001,631,0,0
784,393,0,0,0,0,0,0,0,0,0,-1,2008,631,0,0
791,393,0,0,0,0,0,0,0,0,0,-1,2015,631,0,0
798,393,0,0,0,0,0,0,0,0,0,-1,2022,631,0,0
805,393,0,0,0,0,0,0,0,0,0,-1,2029,631,0,0
812,393,0,0,0,0,0,0,0,0,0,-1,2036,631,0,0
-700,386,0,0,0,0,0,0,0,0,0,-1,524,638,0,0
-693,386,0,0,0,0,0,0,0,0,0,-1,531,638,0,0
-686,386,0,0,0,0,0,0,0,0,0,-1,538,638,0,0
-679,386,0,0,0,0,0,0,0,0,0,-1,545,638,0,0
-672,386,0,0,0,0,0,0,0,0,0,-1,552,638,0,0
-665,386,0,0,0,0,0,0,0,0,0,-1,559,638,0,0
-658,386,0,0,0,0,0,0,0,0,0,-1,566,638,0,0
-651,386,0,0,0,0,0,0,0,0,0,-1,573,638,0,0
-644,386,0,0,0,0,0,0,0,0,0,-1,580,638,0,0
-637,386,0,0,0,0,0,0,0,0,0,-1,587,638,0,0
-630,386,0,0,0,0,0,0,0,0,0,-1,594,638,0,0
-623,386,0,0,0,0,0,0,0,0,0,-1,601,638,0,0
-616,386,0,0,0,0,0,0,0,0,0,-1,608,638,0,0
-609,386,0,0,0,0,0,0,0,0,0,-1,615,638,0,0
-602,386,0,0,0,0,0,0,0,0,0,-1,622,638,0,0
-595,386,0,0,0,0,0,0,0,0,0,-1,629,638,0,0
-588,386,0,0,0,0,0,0,0,0,0,-1,636,638,0,0
-581,386,0,0,0,0,0,0,0,0,0,-1,643,638,0,0
-574,386,0,0,0,0,0,0,0,0,0,-1,650,638,0,0
-567,386,0,0,0,0,0,0,0,0,0,-1,657,638,0,0
-560,386,-0.214294,0.396545,0,0,0,0,0,0,0,-1,664,638,-0.214288,-0.396517
-553,386,-0.11377,0.574097,0.00509316,0.0561828,-0.0122895,0.0589853,0.00229066,-1.34659,0.0385827,0.0460491,671,638,-0.113762,-0.57408
-546,386,-0.0151367,0.75592,0.00720128,0.0462546,-0.0121875,0.0497458,0.00371,-1.2918,0.031999,0.0476223,678,638,-0.0151641,-0.755942
-539,386,-0.0981445,1.11707,0.00866685,0.0369802,-0.0113283,0.0409547,0.00469231,-1.23336,0.0258812,0.0440291,685,638,-0.0981655,-1.11704
-532,386,0.143066,0.145691,0,0,0,0,0,0,0,-1,692,638,0.143053,-0.145675
-525,386,-0.132935,0.00628662,0.0103058,0.0218408,-0.00859526,0.0264243,0.0057223,-1.0809,0.0160524,0.0454659,699,638,-0.132912,-0.0062642
-518,386,0.0800171,0.0739136,0.010423,0.0158448,-0.00726681,0.0208899,0.00537791,-0.963929,0.0125249,0.0469755,706,638,0.0800382,-0.0739092
-511,386,0.346313,0.179199,0.00961515,0.0107942,-0.00544878,0.0156853,0.0047241,-0.839285,0.00929147,0.0372307,713,638,0.346301,-0.179179
-504,386,0.550842,0.277405,0.00865379,0.00711993,-0.00407722,0.0120356,0.00373814,-0.692434,0.007113,0.0180354,720,638,0.55086,-0.277395
-497,386,0.548706,0.193909,0.00755551,0.00488775,-0.00304654,0.00954738,0.00289588,-0.579053,0.00565255,0.00982127,727,638,0.548678,-0.19389
-490,386,0.553162,0.130615,0.00645903,0.00302574,-0.00221738,0.0075466,0.00193817,-0.456,0.00452554,0.0120066,734,638,0.553175,-0.130631
-483,386,0.599487,0.0777588,0.00521061,6.09977e-05,-0.0014639,0.00559766,-0.000326056,-0.258485,0.00384507,0.0156808,741,638,0.59949,-0.0777662
-476,386,0.606812,0.0518799,0.00392069,-0.00125509,-0.00077887,0.00403536,-0.00136975,-0.146172,0.00324467,0.0148078,748,638,0.606819,-0.0519032
-469,386,0.592407,0.00616455,0.0025289,-0.00168481,0.000200263,0.0025384,-0.0016943,0.0473843,0.00245989,0.0111993,755,638,0.592391,-0.00618391
-462,386,0.598938,-0.062439,0.000460472,-0.00302431,0.000822224,0.00064473,-0.00320857,0.220455,0.00238321,0.0102939,762,638,0.598952,0.062428
-455,386,0.599121,-0.0955811,-0.00142007,-0.00481123,0.0018261,-0.000623733,-0.00560757,0.411222,0.00354879,0.0112806,769,638,0.599104,0.0955926
-448,386,0.577881,-0.130249,-0.00320791,-0.00717966,0.00315629,-0.00146472,-0.00892284,0.504598,0.00552542,0.0118422,776,638,0.577878,0.130254
-441,386,0.562988,-0.163452,-0.00490907,-0.00989111,0.0049887,-0.00182404,-0.0129761,0.553842,0.0081114,0.0117771,783,638,0.562958,0.163436
-434,386,0.572998,-0.192993,-0.00589172,-0.0117602,0.00719975,-0.00105125,-0.0166007,0.591901,0.0107339,0.0146072,790,638,0.573011,0.19298
-427,386,0.593994,-0.216248,-0.00647313,-0.0131608,0.0102595,0.000973687,-0.0206076,0.627864,0.0140742,0.0231805,797,638,0.594002,0.216266
-420,386,0.561523,-0.187805,-0.00668752,-0.013839,0.0137945,0.00398711,-0.0245136,0.658581,0.0178208,0.0293055,804,638,0.561525,0.187809
-413,386,0.527161,-0.156372,-0.00743511,-0.0131715,0.0176239,0.00755244,-0.028159,0.704733,0.0217321,0.0420266,811,638,0.527176,0.156401
-406,386,0.448181,0.55603,-0.00607348,-0.012553,0.0209948,0.0119301,-0.0305566,0.708846,0.0253033,0.0461731,818,638,0.448179,-0.556059
-399,386,0.338623,0.780823,0,0,0,0,0,0,0,-1,825,638,0.338611,-0.780796
-392,386,0.352417,1.05615,0,0,0,0,0,0,0,-1,832,638,0.352421,-1.05617
-385,386,-0.17511,0.920349,0,0,0,0,0,0,0,-1,839,638,-0.175135,-0.920352
-378,386,2.08411,0.794556,0,0,0,0,0,0,0,-1,846,638,2.08409,-0.79455
-371,386,2.71411,0.510681,0,0,0,0,0,0,0,-1,853,638,2.71412,-0.510656
-364,386,1.97253,-0.0724487,0.0310389,-0.000486472,0.0186914,0.0397268,-0.00917438,0.435099,0.0300137,0.0428112,860,638,1.97255,0.0724481
-357,386,1.26099,-0.271362,0,0,0,0,0,0,0,-1,867,638,1.26097,0.271379
-350,386,0,0,0,0,0,0,0,0,0,-1,874,638,0,0
-343,386,0,0,0,0,0,0,0,0,0,-1,881,638,0,0
-336,386,0,0,0,0,0,0,0,0,0,-1,888,638,0,0
-329,386,0,0,0,0,0,0,0,0,0,-1,895,638,0,0
-322,386,0,0,0,0,0,0,0,0,0,-1,902,638,0,0
-315,386,0,0,0,0,0,0,0,0,0,-1,909,638,0,0
-308,386,0,0,0,0,0,0,0,0,0,-1,916,638,0,0
-301,386,0,0,0,0,0,0,0,0,0,-1,923,638,0,0
-294,386,0,0,0,0,0,0,0,0,0,-1,930,638,0,0
-287,386,0,0,0,0,0,0,0,0,0,-1,937,638,0,0
-280,386,0,0,0,0,0,0,0,0,0,-1,944,638,0,0
-273,386,0,0,0,0,0,0,0,0,0,-1,951,638,0,0
-266,386,0,0,0,0,0,0,0,0,0,-1,958,638,0,0
-259,386,0,0,0,0,0,0,0,0,0,-1,965,638,0,0
-252,386,0,0,0,0,0,0,0,0,0,-1,972,638,0,0
-245,386,0,0,0,0,0,0,0,0,0,-1,979,638,0,0
-238,386,0,0,0,0,0,0,0,0,0,-1,986,638,0,0
-231,386,0,0,0,0,0,0,0,0,0,-1,993,638,0,0
-224,386,0,0,0,0,0,0,0,0,0,-1,1000,638,0,0
-217,386,0,0,0,0,0,0,0,0,0,-1,1007,638,0,0
-210,386,0,0,0,0,0,0,0,0,0,-1,1014,638,0,0
-203,386,0,0,0,0,0,0,0,0,0,-1,1021,638,0,0
-196,386,0,0,0,0,0,0,0,0,0,-1,1028,638,0,0
-189,386,0,0,0,0,0,0,0,0,0,-1,1035,638,0,0
-182,386,0,0,0,0,0,0,0,0,0,-1,1042,638,0,0
-175,386,0,0,0,0,0,0,0,0,0,-1,1049,638,0,0
-168,386,0,0,0,0,0,0,0,0,0,-1,1056,638,0,0
-161,386,0,0,0,0,0,0,0,0,0,-1,1063,638,0,0
-154,386,0,0,0,0,0,0,0,0,0,-1,1070,638,0,0
-147,386,0,0,0,0,0,0,0,0,0,-1,1077,638,0,0
-140,386,0,0,0,0,0,0,0,0,0,-1,1084,638,0,0
-133,386,0,0,0,0,0,0,0,0,0,-1,1091,638,0,0
-126,386,0,0,0,0,0,0,0,0,0,-1,1098,638,0,0
-119,386,0,0,0,0,0,0,0,0,0,-1,1105,638,0,0
-112,386,0,0,0,0,0,0,0,0,0,-1,1112,638,0,0
-105,386,0,0,0,0,0,0,0,0,0,-1,1119,638,0,0
-98,386,0,0,0,0,0,0,0,0,0,-1,1126,638,0,0
-91,386,0,0,0,0,0,0,0,0,0,-1,1133,638,0,0
-84,386,0,0,0,0,0,0,0,0,0,-1,1140,638,0,0
-77,386,0,0,0,0,0,0,0,0,0,-1,1147,638,0,0
-70,386,0,0,0,0,0,0,0,0,0,-1,1154,638,0,0
-63,386,0,0,0,0,0,0,0,0,0,-1,1161,638,0,0
-56,386,0,0,0,0,0,0,0,0,0,-1,1168,638,0,0
-49,386,0,0,0,0,0,0,0,0,0,-1,1175,638,0,0
-42,386,0,0,0,0,0,0,0,0,0,-1,1182,638,0,0
-35,386,0,0,0,0,0,0,0,0,0,-1,1189,638,0,0
-28,386,0,0,0,0,0,0,0,0,0,-1,1196,638,0,0
-21,386,0,0,0,0,0,0,0,0,0,-1,1203,638,0,0
-14,386,0,0,0,0,0,0,0,0,0,-1,1210,638,0,0
-7,386,0,0,0,0,0,0,0,0,0,-1,1217,638,0,0
0,386,0,0,0,0,0,0,0,0,0,-1,1224,638,0,0
7,386,0,0,0,0,0,0,0,0,0,-1,1231,638,0,0
14,386,0,0,0,0,0,0,0,0,0,-1,1238,638,0,0
21,386,0,0,0,0,0,0,0,0,0,-1,1245,638,0,0
28,386,0,0,0,0,0,0,0,0,0,-1,1252,638,0,0
35,386,0,0,0,0,0,0,0,0,0,-1,1259,638,0,0
42,386,0,0,0,0,0,0,0,0,0,-1,1266,638,0,0
49,386,0,0,0,0,0,0,0,0,0,-1,1273,638,0,0
56,386,0,0,0,0,0,0,0,0,0,-1,1280,638,0,0
63,386,0,0,0,0,0,0,0,0,0,-1,1287,638,0,0
70,386,0,0,0,0,0,0,0,0,0,-1,1294,638,0,0
77,386,0,0,0,0,0,0,0,0,0,-1,1301,638,0,0
84,386,0,0,0,0,0,0,0,0,0,-1,1308,638,0,0
91,386,0,0,0,0,0,0,0,0,0,-1,1315,638,0,0
98,386,0,0,0,0,0,0,0,0,0,-1,1322,638,0,0
105,386,0,0,0,0,0,0,0,0,0,-1,1329,638,0,0
112,386,0,0,0,0,0,0,0,0,0,-1,1336,638,0,0
119,386,0,0,0,0,0,0,0,0,0,-1,1343,638,0,0
126,386,0,0,0,0,0,0,0,0,0,-1,1350,638,0,0
133,386,0,0,0,0,0,0,0,0,0,-1,1357,638,0,0
140,386,0,0,0,0,0,0,0,0,0,-1,1364,638,0,0
147,386,0,0,0,0,0,0,0,0,0,-1,1371,638,0,0
154,386,0,0,0,0,0,0,0,0,0,-1,1378,638,0,0
161,386,0,0,0,0,0,0,0,0,0,-1,1385,638,0,0
168,386,0,0,0,0,0,0,0,0,0,-1,1392,638,0,0
175,386,0,0,0,0,0,0,0,0,0,-1,1399,638,0,0
182,386,0,0,0,0,0,0,0,0,0,-1,1406,638,0,0
189,386,0,0,0,0,0,0,0,0,0,-1,1413,638,0,0
196,386,0,0,0,0,0,0,0,0,0,-1,1420,638,0,0
203,386,0,0,0,0,0,0,0,0,0,-1,1427,638,0,0
210,386,0,0,0,0,0,0,0,0,0,-1,1434,638,0,0
217,386,0,0,0,0,0,0,0,0,0,-1,1441,638,0,0
224,386,0,0,0,0,0,0,0,0,0,-1,1448,638,0,0
231,386,0,0,0,0,0,0,0,0,0,-1,1455,638,0,0
238,386,0,0,0,0,0,0,0,0,0,-1,1462,638,0,0
245,386,0,0,0,0,0,0,0,0,0,-1,1469,638,0,0
252,386,0,0,0,0,0,0,0,0,0,-1,1476,638,0,0
259,386,0,0,0,0,0,0,0,0,0,-1,1483,638,0,0
266,386,0,0,0,0,0,0,0,0,0,-1,1490,638,0,0
273,386,0,0,0,0,0,0,0,0,0,-1,1497,638,0,0
280,386,0,0,0,0,0,0,0,0,0,-1,1504,638,0,0
287,386,0,0,0,0,0,0,0,0,0,-1,1511,638,0,0
294,386,0,0,0,0,0,0,0,0,0,-1,1518,638,0,0
301,386,0,0,0,0,0,0,0,0,0,-1,1525,638,0,0
308,386,0,0,0,0,0,0,0,0,0,-1,1532,638,0,0
315,386,0,0,0,0,0,0,0,0,0,-1,1539,638,0,0
322,386,0,0,0,0,0,0,0,0,0,-1,1546,638,0,0
329,386,0,0,0,0,0,0,0,0,0,-1,1553,638,0,0
336,386,0,0,0,0,0,0,0,0,0,-1,1560,638,0,0
343,386,0,0,0,0,0,0,0,0,0,-1,1567,638,0,0
350,386,0,0,0,0,0,0,0,0,0,-1,1574,638,0,0
357,386,0,0,0,0,0,0,0,0,0,-1,1581,638,0,0
364,386,0,0,0,0,0,0,0,0,0,-1,1588,638,0,0
371,386,0,0,0,0,0,0,0,0,0,-1,1595,638,0,0
378,386,0,0,0,0,0,0,0,0,0,-1,1602,638,0,0
385,386,0,0,0,0,0,0,0,0,0,-1,1609,638,0,0
392,386,0,0,0,0,0,0,0,0,0,-1,1616,638,0,0
399,386,0,0,0,0,0,0,0,0,0,-1,1623,638,0,0
406,386,0,0,0,0,0,0,0,0,0,-1,1630,638,0,0
413,386,0,0,0,0,0,0,0,0,0,-1,1637,638,0,0
420,386,0,0,0,0,0,0,0,0,0,-1,1644,638,0,0
427,386,0,0,0,0,0,0,0,0,0,-1,1651,638,0,0
434,386,0,0,0,0,0,0,0,0,0,-1,1658,638,0,0
441,386,0,0,0,0,0,0,0,0,0,-1,1665,638,0,0
448,386,0,0,0,0,0,0,0,0,0,-1,1672,638,0,0
455,386,0,0,0,0,0,0,0,0,0,-1,1679,638,0,0
462,386,0,0,0,0,0,0,0,0,0,-1,1686,638,0,0
469,386,3.68701,2.07721,0,0,0,0,0,0,0,-1,1693,638,3.687,-2.07724
476,386,3.99756,0.462402,0,0,0,0,0,0,0,-1,1700,638,3.99757,-0.462405
483,386,4.03931,1.06165,0,0,0,0,0,0,0,-1,1707,638,4.03936,-1.06162
490,386,4.59009,1.00134,0,0,0,0,0,0,0,-1,1714,638,4.59003,-1.00132
497,386,3.45837,0.657837,0,0,0,0,0,0,0,-1,1721,638,3.45839,-0.657837
504,386,3.02173,1.65045,0,0,0,0,0,0,0,-1,1728,638,3.02175,-1.65044
511,386,3.11902,1.04968,0.018495,-4.34755e-06,-0.0408395,0.0511192,-0.0326286,-0.674033,0.048743,0.044996,1735,638,3.11901,-1.0497
518,386,3.24512,0.814819,0.0217582,0.00331401,-0.0415607,0.0551076,-0.0300354,-0.67622,0.0498628,0.0455606,1742,638,3.24509,-0.814829
525,386,3.51282,0.775024,0.0223857,0.00578514,-0.0409247,0.0558434,-0.0276726,-0.685346,0.0491238,0.0444204,1749,638,3.51288,-0.775001
532,386,3.68994,0.412476,0.0180762,0.00568567,-0.0368158,0.0492143,-0.0254525,-0.70204,0.0438305,0.0445549,1756,638,3.68992,-0.412484
539,386,3.49768,0.172424,0.0138616,0.00556828,-0.03165,0.0416355,-0.0222056,-0.720261,0.0374233,0.0424316,1763,638,3.49767,-0.17245
546,386,3.00562,0.128479,0.0100047,0.00481822,-0.0259952,0.0335357,-0.0187127,-0.735683,0.0305676,0.0393921,1770,638,3.00559,-0.128508
553,386,3.25073,-0.263184,0.00672202,0.00403144,-0.0206819,0.0261024,-0.0153489,-0.752921,0.0241988,0.0319504,1777,638,3.25072,0.263194
560,386,3.24756,-0.183411,0.00392215,0.00318696,-0.0157285,0.0192873,-0.0121782,-0.773715,0.0183206,0.0217385,1784,638,3.24753,0.183435
567,386,3.22205,-0.15155,0.00240364,0.0022265,-0.0113772,0.0136926,-0.00906251,-0.781506,0.013228,0.0157963,1791,638,3.22207,0.151541
574,386,3.22485,-0.135742,0.00116293,0.00136944,-0.00813367,0.00940051,-0.00686814,-0.791745,0.00943056,0.012492,1798,638,3.22488,0.135732
581,386,3.22827,-0.0914917,-0.000380126,0.000637402,-0.00492373,0.00507858,-0.00482131,-0.83688,0.00571635,0.0124499,1805,638,3.22831,0.0914973
588,386,3.23303,-0.0461426,-0.00100352,0.000489593,-0.00258102,0.00242985,-0.00294378,-0.926181,0.0031072,0.0114463,1812,638,3.23307,0.0461696
595,386,3.21814,-0.0220337,-0.000202413,0.000363472,-0.00138566,0.00149478,-0.00133372,-0.886111,0.00163392,0.012041,1819,638,3.21818,0.0220065
602,386,3.22302,-0.000366211,0.00150439,9.06037e-05,-0.000699617,0.00179207,-0.000197068,-0.390112,0.00126553,0.0136814,1826,638,3.22304,0.000387233
609,386,3.24048,0.0496826,0.00413002,0.000607778,-0.000576482,0.00422197,0.000515827,-0.158173,0.00265943,0.0138557,1833,638,3.24051,-0.0496805
616,386,3.23083,0.125,0.00792449,0.00146216,-0.000291925,0.00793765,0.001449,-0.0450511,0.00488099,0.0113411,1840,638,3.23085,-0.12503
623,386,3.22314,0.189758,0.0125612,0.0021228,8.07717e-06,0.0125612,0.00212279,0.000773793,0.00776389,0.0107345,1847,638,3.22315,-0.189761
630,386,3.24341,0.204834,0.0182161,0.00299831,0.000300555,0.018222,0.00299238,0.01974,0.0112836,0.0159936,1854,638,3.24341,-0.204832
637,386,3.23267,0.223999,0.0252113,0.00393752,0.000682305,0.0252331,0.00391565,0.0320287,0.0156807,0.0202944,1861,638,3.23271,-0.223978
644,386,3.15637,0.295654,0.0334914,0.00495679,0.00111848,0.0335352,0.00491302,0.0391172,0.0209124,0.0312929,1868,638,3.15642,-0.295636
651,386,3.43445,0.626221,0.0430734,0.00572482,0.00174319,0.0431546,0.00564364,0.0465386,0.0270852,0.0416199,1875,638,3.43445,-0.626193
658,386,4.10474,0.761597,0.0537071,0.00656158,0.0027381,0.0538656,0.00640309,0.0578186,0.0339777,0.0455212,1882,638,4.10477,-0.761569
665,386,4.72327,0.372437,0.0649381,0.00712424,0.00378664,0.065185,0.00687728,0.0651263,0.0413553,0.0457985,1889,638,4.72321,-0.372425
672,386,5.50439,0.97406,0.0760122,0.00723553,0.00489086,0.0763582,0.00688947,0.0706385,0.0487715,0.0496928,1896,638,5.50445,-0.974071
679,386,6.27563,0.87854,0,0,0,0,0,0,0,-1,1903,638,6.27569,-0.878558
686,386,0,0,0,0,0,0,0,0,0,-1,1910,638,0,0
693,386,0,0,0,0,0,0,0,0,0,-1,1917,638,0,0
700,386,0,0,0,0,0,0,0,0,0,-1,1924,638,0,0
707,386,0,0,0,0,0,0,0,0,0,-1,1931,638,0,0
714,386,0,0,0,0,0,0,0,0,0,-1,1938,638,0,0
721,386,0,0,0,0,0,0,0,0,0,-1,1945,638,0,0
728,386,0,0,0,0,0,0,0,0,0,-1,1952,638,0,0
735,386,0,0,0,0,0,0,0,0,0,-1,1959,638,0,0
742,386,0,0,0,0,0,0,0,0,0,-1,1966,638,0,0
749,386,0,0,0,0,0,0,0,0,0,-1,1973,638,0,0
756,386,0,0,0,0,0,0,0,0,0,-1,1980,638,0,0
763,386,0,0,0,0,0,0,0,0,0,-1,1987,638,0,0
770,386,0,0,0,0,0,0,0,0,0,-1,1994,638,0,0
777,386,0,0,0,0,0,0,0,0,0,-1,2001,638,0,0
784,386,0,0,0,0,0,0,0,0,0,-1,2008,638,0,0
791,386,0,0,0,0,0,0,0,0,0,-1,2015,638,0,0
798,386,0,0,0,0,0,0,0,0,0,-1,2022,638,0,0
805,386,0,0,0,0,0,0,0,0,0,-1,2029,638,0,0
812,386,0,0,0,0,0,0,0,0,0,-1,2036,638,0,0
-700,379,0,0,0,0,0,0,0,0,0,-1,524,645,0,0
-693,379,0,0,0,0,0,0,0,0,0,-1,531,645,0,0
-686,379,0,0,0,0,0,0,0,0,0,-1,538,645,0,0
-679,379,0,0,0,0,0,0,0,0,0,-1,545,645,0,0
-672,379,0,0,0,0,0,0,0,0,0,-1,552,645,0,0
-665,379,0,0,0,0,0,0,0,0,0,-1,559,645,0,0
-658,379,0,0,0,0,0,0,0,0,0,-1,566,645,0,0
-651,379,0,0,0,0,0,0,0,0,0,-1,573,645,0,0
-644,379,0,0,0,0,0,0,0,0,0,-1,580,645,0,0
-637,379,0,0,0,0,0,0,0,0,0,-1,587,645,0,0
-630,379,0,0,0,0,0,0,0,0,0,-1,594,645,0,0
-623,379,0,0,0,0,0,0,0,0,0,-1,601,645,0,0
-616,379,0,0,0,0,0,0,0,0,0,-1,608,645,0,0
-609,379,0,0,0,0,0,0,0,0,0,-1,615,645,0,0
-602,379,0,0,0,0,0,0,0,0,0,-1,622,645,0,0
-595,379,0,0,0,0,0,0,0,0,0,-1,629,645,0,0
-588,379,0,0,0,0,0,0,0,0,0,-1,636,645,0,0
-581,379,0,0,0,0,0,0,0,0,0,-1,643,645,0,0
-574,379,0,0,0,0,0,0,0,0,0,-1,650,645,0,0
-567,379,-1.65424,1.90906,0,0,0,0,0,0,0,-1,657,645,-1.65423,-1.90907
-560,379,-0.334595,0.854797,0,0,0,0,0,0,0,-1,664,645,-0.334598,-0.854826
-553,379,-0.171692,0.705688,0.00501902,0.0436477,-0.00961612,0.0459091,0.00275759,-1.33982,0.0297295,0.0473489,671,645,-0.171668,-0.705662
-546,379,-0.0911255,0.678772,0.00678695,0.0357725,-0.00972927,0.0387353,0.00382409,-1.27519,0.0246479,0.0463293,678,645,-0.0910989,-0.678777
-539,379,-0.294922,0.074585,0.00787824,0.0283918,-0.00917359,0.0318957,0.00437434,-1.20594,0.019966,0.0418643,685,645,-0.294905,-0.0745768
-532,379,0.148254,0.188477,0.00854889,0.0219935,-0.00812226,0.0258145,0.00472793,-1.13108,0.0158702,0.0457589,692,645,0.148249,-0.188462
-525,379,0.24707,0.195923,0.00900285,0.0164056,-0.0070643,0.0206795,0.00472899,-1.02671,0.0125115,0.0432752,699,645,0.247048,-0.195939
-518,379,0.164917,0.104736,0.00897565,0.011621,-0.00602618,0.016468,0.0041287,-0.89343,0.00989386,0.0375603,706,645,0.164902,-0.104755
-511,379,0.507935,0.26239,0.00797122,0.00757354,-0.00439456,0.0121714,0.00337333,-0.76279,0.00725611,0.0213851,713,645,0.507904,-0.262371
-504,379,0.540649,0.225525,0.00702751,0.00469922,-0.00319206,0.00926108,0.00246564,-0.610543,0.00553825,0.0113861,720,645,0.540643,-0.225498
-497,379,0.528076,0.193115,0.00605532,0.00307111,-0.00224191,0.00725627,0.00187016,-0.491784,0.00435025,0.0100221,727,645,0.528058,-0.193123
-490,379,0.523071,0.148987,0.00508768,0.00168269,-0.00149768,0.00565268,0.0011177,-0.360741,0.00345666,0.0106694,734,645,0.523056,-0.148977
-483,379,0.532532,0.105957,0.00391998,-0.000632932,-0.000886683,0.00408656,-0.000799519,-0.185712,0.00302629,0.0118488,741,645,0.532522,-0.105931
-476,379,0.53949,0.0732422,0.0026349,-0.00170617,-0.00035818,0.00266425,-0.00173552,-0.0817727,0.00255901,0.0119542,748,645,0.539504,-0.073216
-469,379,0.554688,0.0123901,0.00117138,-0.00235309,0.000677068,0.00129697,-0.00247868,0.18341,0.00221518,0.0114356,755,645,0.554688,-0.0124155
-462,379,0.55304,-0.0460815,-0.00113473,-0.00367005,0.0013767,-0.000530953,-0.00427382,0.413305,0.00268975,0.00890478,762,645,0.553042,0.0460785
-455,379,0.54071,-0.0773315,-0.00336445,-0.00551079,0.00241333,-0.00179643,-0.00707881,0.576186,0.00424893,0.0089171,769,645,0.54068,0.0773115
-448,379,0.53833,-0.0998535,-0.00570825,-0.00793883,0.00376007,-0.00290155,-0.0107455,0.641225,0.00641895,0.010221,776,645,0.538355,0.0998671
-441,379,0.536865,-0.143127,-0.00789739,-0.0106862,0.00568687,-0.00343646,-0.0151471,0.665172,0.00916979,0.0113292,783,645,0.536838,0.143151
-434,379,0.563599,-0.167725,-0.00927309,-0.0125247,0.0080511,-0.00268527,-0.0191125,0.685771,0.0119476,0.0204317,790,645,0.563608,0.1677
-427,379,0.53656,-0.0598755,-0.0102425,-0.0137922,0.0113518,-0.000527601,-0.0235071,0.707851,0.0154985,0.0321712,797,645,0.536584,0.059853
-420,379,0.547668,0.124512,-0.0106983,-0.0142437,0.0152376,0.00286943,-0.0278114,0.72749,0.0195676,0.0389876,804,645,0.547639,-0.124514
-413,379,0.394043,0.296997,-0.0115441,-0.0133102,0.0194374,0.00703028,-0.0318846,0.762699,0.0239463,0.0427285,811,645,0.394034,-0.296981
-406,379,0.369019,0.681702,0,0,0,0,0,0,0,-1,818,645,0.369013,-0.681678
-399,379,-0.38324,-0.24353,0,0,0,0,0,0,0,-1,825,645,-0.383231,0.24354
-392,379,0.51532,1.13708,0,0,0,0,0,0,0,-1,832,645,0.515306,-1.13706
-385,379,-0.259766,0.323547,0.00410817,-0.0022396,0.0307665,0.0318641,-0.0299955,0.734,0.0357201,0.0470074,839,645,-0.259757,-0.323566
-378,379,0.846375,0.34552,0.0121833,0.00269435,0.0311405,0.0389386,-0.024061,0.709801,0.0367094,0.0470733,846,645,0.846369,-0.345534
-371,379,1.39105,0.135071,0.0221135,0.00684582,0.0292678,0.0447267,-0.0157673,0.657826,0.0362356,0.0464095,853,645,1.39103,-0.135096
-364,379,0.907715,-0.343994,0.0338178,0.00965726,0.0241073,0.0487023,-0.00522718,0.553133,0.0343434,0.0404859,860,645,0.907743,0.343968
-357,379,0,0,0,0,0,0,0,0,0,-1,867,645,0,0
-350,379,0,0,0,0,0,0,0,0,0,-1,874,645,0,0
-343,379,0,0,0,0,0,0,0,0,0,-1,881,645,0,0
-336,379,0,0,0,0,0,0,0,0,0,-1,888,645,0,0
-329,379,0,0,0,0,0,0,0,0,0,-1,895,645,0,0
-322,379,0,0,0,0,0,0,0,0,0,-1,902,645,0,0
-315,379,0,0,0,0,0,0,0,0,0,-1,909,645,0,0
-308,379,0,0,0,0,0,0,0,0,0,-1,916,645,0,0
-301,379,0,0,0,0,0,0,0,0,0,-1,923,645,0,0
-294,379,0,0,0,0,0,0,0,0,0,-1,930,645,0,0
-287,379,0,0,0,0,0,0,0,0,0,-1,937,645,0,0
-280,379,0,0,0,0,0,0,0,0,0,-1,944,645,0,0
-273,379,0,0,0,0,0,0,0,0,0,-1,951,645,0,0
-266,379,0,0,0,0,0,0,0,0,0,-1,958,645,0,0
-259,379,0,0,0,0,0,0,0,0,0,-1,965,645,0,0
-252,379,0,0,0,0,0,0,0,0,0,-1,972,645,0,0
-245,379,0,0,0,0,0,0,0,0,0,-1,979,645,0,0
-238,379,0,0,0,0,0,0,0,0,0,-1,986,645,0,0
-231,379,0,0,0,0,0,0,0,0,0,-1,993,645,0,0
-224,379,0,0,0,0,0,0,0,0,0,-1,1000,645,0,0
-217,379,0,0,0,0,0,0,0,0,0,-1,1007,645,0,0
-210,379,0,0,0,0,0,0,0,0,0,-1,1014,645,0,0
-203,379,0,0,0,0,0,0,0,0,0,-1,1021,645,0,0
-196,379,0,0,0,0,0,0,0,0,0,-1,1028,645,0,0
-189,379,0,0,0,0,0,0,0,0,0,-1,1035,645,0,0
-182,379,0,0,0,0,0,0,0,0,0,-1,1042,645,0,0
-175,379,0,0,0,0,0,0,0,0,0,-1,1049,645,0,0
-168,379,0,0,0,0,0,0,0,0,0,-1,1056,645,0,0
-161,379,0,0,0,0,0,0,0,0,0,-1,1063,645,0,0
-154,379,0,0,0,0,0,0,0,0,0,-1,1070,645,0,0
-147,379,0,0,0,0,0,0,0,0,0,-1,1077,645,0,0
-140,379,0,0,0,0,0,0,0,0,0,-1,1084,645,0,0
-133,379,0,0,0,0,0,0,0,0,0,-1,1091,645,0,0
-126,379,0,0,0,0,0,0,0,0,0,-1,1098,645,0,0
-119,379,0,0,0,0,0,0,0,0,0,-1,1105,645,0,0
-112,379,0,0,0,0,0,0,0,0,0,-1,1112,645,0,0
-105,379,0,0,0,0,0,0,0,0,0,-1,1119,645,0,0
-98,379,0,0,0,0,0,0,0,0,0,-1,1126,645,0,0
-91,379,0,0,0,0,0,0,0,0,0,-1,1133,645,0,0
-84,379,0,0,0,0,0,0,0,0,0,-1,1140,645,0,0
-77,379,0,0,0,0,0,0,0,0,0,-1,1147,645,0,0
-70,379,0,0,0,0,0,0,0,0,0,-1,1154,645,0,0
-63,379,0,0,0,0,0,0,0,0,0,-1,1161,645,0,0
-56,379,0,0,0,0,0,0,0,0,0,-1,1168,645,0,0
-49,379,0,0,0,0,0,0,0,0,0,-1,1175,645,0,0
-42,379,0,0,0,0,0,0,0,0,0,-1,1182,645,0,0
-35,379,0,0,0,0,0,0,0,0,0,-1,1189,645,0,0
-28,379,0,0,0,0,0,0,0,0,0,-1,1196,645,0,0
-21,379,0,0,0,0,0,0,0,0,0,-1,1203,645,0,0
-14,379,0,0,0,0,0,0,0,0,0,-1,1210,645,0,0
-7,379,0,0,0,0,0,0,0,0,0,-1,1217,645,0,0
0,379,0,0,0,0,0,0,0,0,0,-1,1224,645,0,0
7,379,0,0,0,0,0,0,0,0,0,-1,1231,645,0,0
14,379,0,0,0,0,0,0,0,0,0,-1,1238,645,0,0
21,379,0,0,0,0,0,0,0,0,0,-1,1245,645,0,0
28,379,0,0,0,0,0,0,0,0,0,-1,1252,645,0,0
35,379,0,0,0,0,0,0,0,0,0,-1,1259,645,0,0
42,379,0,0,0,0,0,0,0,0,0,-1,1266,645,0,0
49,379,0,0,0,0,0,0,0,0,0,-1,1273,645,0,0
56,379,0,0,0,0,0,0,0,0,0,-1,1280,645,0,0
63,379,0,0,0,0,0,0,0,0,0,-1,1287,645,0,0
70,379,0,0,0,0,0,0,0,0,0,-1,1294,645,0,0
77,379,0,0,0,0,0,0,0,0,0,-1,1301,645,0,0
84,379,0,0,0,0,0,0,0,0,0,-1,1308,645,0,0
91,379,0,0,0,0,0,0,0,0,0,-1,1315,645,0,0
98,379,0,0,0,0,0,0,0,0,0,-1,1322,645,0,0
105,379,0,0,0,0,0,0,0,0,0,-1,1329,645,0,0
112,379,0,0,0,0,0,0,0,0,0,-1,1336,645,0,0
119,379,0,0,0,0,0,0,0,0,0,-1,1343,645,0,0
126,379,0,0,0,0,0,0,0,0,0,-1,1350,645,0,0
133,379,0,0,0,0,0,0,0,0,0,-1,1357,645,0,0
140,379,0,0,0,0,0,0,0,0,0,-1,1364,645,0,0
147,379,0,0,0,0,0,0,0,0,0,-1,1371,645,0,0
154,379,0,0,0,0,0,0,0,0,0,-1,1378,645,0,0
161,379,0,0,0,0,0,0,0,0,0,-1,1385,645,0,0
168,379,0,0,0,0,0,0,0,0,0,-1,1392,645,0,0
175,379,0,0,0,0,0,0,0,0,0,-1,1399,645,0,0
182,379,0,0,0,0,0,0,0,0,0,-1,1406,645,0,0
189,379,0,0,0,0,0,0,0,0,0,-1,1413,645,0,0
196,379,0,0,0,0,0,0,0,0,0,-1,1420,645,0,0
203,379,0,0,0,0,0,0,0,0,0,-1,1427,645,0,0
210,379,0,0,0,0,0,0,0,0,0,-1,1434,645,0,0
217,379,0,0,0,0,0,0,0,0,0,-1,1441,645,0,0
224,379,0,0,0,0,0,0,0,0,0,-1,1448,645,0,0
231,379,0,0,0,0,0,0,0,0,0,-1,1455,645,0,0
238,379,0,0,0,0,0,0,0,0,0,-1,1462,645,0,0
245,379,0,0,0,0,0,0,0,0,0,-1,1469,645,0,0
252,379,0,0,0,0,0,0,0,0,0,-1,1476,645,0,0
259,379,0,0,0,0,0,0,0,0,0,-1,1483,645,0,0
266,379,0,0,0,0,0,0,0,0,0,-1,1490,645,0,0
273,379,0,0,0,0,0,0,0,0,0,-1,1497,645,0,0
280,379,0,0,0,0,0,0,0,0,0,-1,1504,645,0,0
287,379,0,0,0,0,0,0,0,0,0,-1,1511,645,0,0
294,379,0,0,0,0,0,0,0,0,0,-1,1518,645,0,0
301,379,0,0,0,0,0,0,0,0,0,-1,1525,645,0,0
308,379,0,0,0,0,0,0,0,0,0,-1,1532,645,0,0
315,379,0,0,0,0,0,0,0,0,0,-1,1539,645,0,0
322,379,0,0,0,0,0,0,0,0,0,-1,1546,645,0,0
329,379,0,0,0,0,0,0,0,0,0,-1,1553,645,0,0
336,379,0,0,0,0,0,0,0,0,0,-1,1560,645,0,0
343,379,0,0,0,0,0,0,0,0,0,-1,1567,645,0,0
350,379,0,0,0,0,0,0,0,0,0,-1,1574,645,0,0
357,379,0,0,0,0,0,0,0,0,0,-1,1581,645,0,0
364,379,0,0,0,0,0,0,0,0,0,-1,1588,645,0,0
371,379,0,0,0,0,0,0,0,0,0,-1,1595,645,0,0
378,379,0,0,0,0,0,0,0,0,0,-1,1602,645,0,0
385,379,0,0,0,0,0,0,0,0,0,-1,1609,645,0,0
392,379,0,0,0,0,0,0,0,0,0,-1,1616,645,0,0
399,379,0,0,0,0,0,0,0,0,0,-1,1623,645,0,0
406,379,0,0,0,0,0,0,0,0,0,-1,1630,645,0,0
413,379,0,0,0,0,0,0,0,0,0,-1,1637,645,0,0
420,379,0,0,0,0,0,0,0,0,0,-1,1644,645,0,0
427,379,0,0,0,0,0,0,0,0,0,-1,1651,645,0,0
434,379,0,0,0,0,0,0,0,0,0,-1,1658,645,0,0
441,379,0,0,0,0,0,0,0,0,0,-1,1665,645,0,0
448,379,0,0,0,0,0,0,0,0,0,-1,1672,645,0,0
455,379,0,0,0,0,0,0,0,0,0,-1,1679,645,0,0
462,379,0,0,0,0,0,0,0,0,0,-1,1686,645,0,0
469,379,0,0,0,0,0,0,0,0,0,-1,1693,645,0,0
476,379,3.32239,1.03882,0,0,0,0,0,0,0,-1,1700,645,3.32234,-1.03884
483,379,3.06702,1.09424,0,0,0,0,0,0,0,-1,1707,645,3.06701,-1.09421
490,379,2.48755,1.16388,0,0,0,0,0,0,0,-1,1714,645,2.48758,-1.16387
497,379,3.51392,1.53845,0,0,0,0,0,0,0,-1,1721,645,3.51386,-1.53843
504,379,3.72717,1.3374,0.0194342,4.19865e-05,-0.046049,0.0567968,-0.0373206,-0.681634,0.0547252,0.0450924,1728,645,3.72717,-1.3374
511,379,4.13318,0.960754,0.023335,0.00378111,-0.0459639,0.0605503,-0.0334342,-0.680605,0.0550096,0.043782,1735,645,4.13313,-0.960733
518,379,3.32178,0.95929,0,0,0,0,0,0,0,-1,1742,645,3.32176,-0.959316
525,379,3.49084,1.06805,0.0267188,0.0092168,-0.0457006,0.0644987,-0.0285631,-0.690801,0.0550483,0.0430301,1749,645,3.4909,-1.06803
532,379,4.01685,0.632751,0.0218402,0.00883362,-0.0407334,0.0565862,-0.0259123,-0.706239,0.0487156,0.0429964,1756,645,4.01688,-0.632735
539,379,4.2533,0.0214844,0.017155,0.00819221,-0.0348085,0.0477694,-0.0224221,-0.721378,0.0413965,0.0418968,1763,645,4.25325,-0.0215123
546,379,2.80945,0.580872,0.0128792,0.00696278,-0.0285205,0.0385944,-0.0187525,-0.733722,0.0337634,0.04479,1770,645,2.80945,-0.580843
553,379,3.21558,-0.120117,0.00912091,0.00570469,-0.0226698,0.0301469,-0.0153213,-0.747796,0.0267122,0.0458876,1777,645,3.21555,0.120131
560,379,3.36963,-0.150696,0.00584414,0.00442887,-0.0172166,0.0223677,-0.0120947,-0.764859,0.0201894,0.0277094,1784,645,3.36967,0.15071
567,379,3.26074,-0.146179,0.0039178,0.00308705,-0.0124813,0.0159907,-0.00898583,-0.768764,0.014608,0.0149521,1791,645,3.26069,0.146193
574,379,3.29333,-0.148315,0.00222541,0.00192095,-0.00893575,0.0110102,-0.00686387,-0.776881,0.0104118,0.0111261,1798,645,3.29329,0.148295
581,379,3.28601,-0.107605,0.000215855,0.000868568,-0.00540908,0.00596113,-0.00487671,-0.815529,0.00626766,0.0133577,1805,645,3.28601,0.107614
588,379,3.26392,-0.0654297,-0.000707133,0.000489175,-0.0027803,0.00273494,-0.0029529,-0.891353,0.00328468,0.0162283,1812,645,3.26386,0.0654049
595,379,3.26367,-0.0132446,-0.000157778,0.000233817,-0.00136801,0.00141997,-0.00134393,-0.856479,0.00159594,0.0140073,1819,645,3.26362,0.0132584
602,379,3.26758,0.0319214,0.00111952,-0.00019286,-0.000550711,0.00131999,-0.00039333,-0.349111,0.00103629,0.0137353,1826,645,3.26761,-0.0319019
609,379,3.27185,0.0737305,0.00314853,0.000358008,-0.000397153,0.00320396,0.000302585,-0.138655,0.00204259,0.0136208,1833,645,3.27186,-0.0737493
616,379,3.26697,0.13147,0.00627965,0.00111916,-9.61956e-05,0.00628145,0.00111737,-0.0186322,0.00386933,0.0111466,1840,645,3.26701,-0.131474
623,379,3.26819,0.187866,0.0101172,0.00173605,0.000269019,0.0101258,0.00172742,0.0320541,0.00625477,0.0117301,1847,645,3.26814,-0.187886
630,379,3.27588,0.215271,0.0146914,0.00252346,0.000670997,0.0147283,0.00248657,0.0549225,0.00910394,0.0128877,1854,645,3.27583,-0.215293
637,379,3.28662,0.254456,0.020289,0.00333655,0.00118672,0.0203717,0.00325388,0.069551,0.0126369,0.012827,1861,645,3.28661,-0.254454
644,379,3.27112,0.343872,0.0268309,0.00416434,0.00173688,0.0269632,0.00403202,0.0760359,0.0167936,0.019294,1868,645,3.27106,-0.343862
651,379,3.56714,0.361389,0.0342957,0.00466754,0.00245278,0.0344974,0.00446586,0.0820412,0.0216636,0.0410481,1875,645,3.5671,-0.361405
658,379,4.18701,0.333191,0.0424956,0.00530113,0.00353544,0.0428287,0.00496806,0.093932,0.027049,0.0434127,1882,645,4.18706,-0.333185
665,379,4.5979,0.212769,0.0510318,0.00585844,0.00456236,0.051488,0.00540226,0.0996559,0.0326738,0.0460921,1889,645,4.59795,-0.212741
672,379,5.47595,1.30884,0,0,0,0,0,0,0,-1,1896,645,5.47594,-1.30886
679,379,1.90881,1.13904,0,0,0,0,0,0,0,-1,1903,645,1.90878,-1.13904
686,379,0,0,0,0,0,0,0,0,0,-1,1910,645,0,0
693,379,0,0,0,0,0,0,0,0,0,-1,1917,645,0,0
700,379,0,0,0,0,0,0,0,0,0,-1,1924,645,0,0
707,379,0,0,0,0,0,0,0,0,0,-1,1931,645,0,0
714,379,0,0,0,0,0,0,0,0,0,-1,1938,645,0,0
721,379,0,0,0,0,0,0,0,0,0,-1,1945,645,0,0
728,379,0,0,0,0,0,0,0,0,0,-1,1952,645,0,0
735,379,0,0,0,0,0,0,0,0,0,-1,1959,645,0,0
742,379,0,0,0,0,0,0,0,0,0,-1,1966,645,0,0
749,379,0,0,0,0,0,0,0,0,0,-1,1973,645,0,0
756,379,0,0,0,0,0,0,0,0,0,-1,1980,645,0,0
763,379,0,0,0,0,0,0,0,0,0,-1,1987,645,0,0
770,379,0,0,0,0,0,0,0,0,0,-1,1994,645,0,0
777,379,0,0,0,0,0,0,0,0,0,-1,2001,645,0,0
784,379,0,0,0,0,0,0,0,0,0,-1,2008,645,0,0
791,379,0,0,0,0,0,0,0,0,0,-1,2015,645,0,0
798,379,0,0,0,0,0,0,0,0,0,-1,2022,645,0,0
805,379,0,0,0,0,0,0,0,0,0,-1,2029,645,0,0
812,379,0,0,0,0,0,0,0,0,0,-1,2036,645,0,0
-700,372,0,0,0,0,0,0,0,0,0,-1,524,652,0,0
-693,372,0,0,0,0,0,0,0,0,0,-1,531,652,0,0
-686,372,0,0,0,0,0,0,0,0,0,-1,538,652,0,0
-679,372,0,0,0,0,0,0,0,0,0,-1,545,652,0,0
-672,372,0,0,0,0,0,0,0,0,0,-1,552,652,0,0
-665,372,0,0,0,0,0,0,0,0,0,-1,559,652,0,0
-658,372,0,0,0,0,0,0,0,0,0,-1,566,652,0,0
-651,372,0,0,0,0,0,0,0,0,0,-1,573,652,0,0
-644,372,0,0,0,0,0,0,0,0,0,-1,580,652,0,0
-637,372,0,0,0,0,0,0,0,0,0,-1,587,652,0,0
-630,372,0,0,0,0,0,0,0,0,0,-1,594,652,0,0
-623,372,0,0,0,0,0,0,0,0,0,-1,601,652,0,0
-616,372,0,0,0,0,0,0,0,0,0,-1,608,652,0,0
-609,372,0,0,0,0,0,0,0,0,0,-1,615,652,0,0
-602,372,0,0,0,0,0,0,0,0,0,-1,622,652,0,0
-595,372,0,0,0,0,0,0,0,0,0,-1,629,652,0,0
-588,372,0,0,0,0,0,0,0,0,0,-1,636,652,0,0
-581,372,0,0,0,0,0,0,0,0,0,-1,643,652,0,0
-574,372,0,0,0,0,0,0,0,0,0,-1,650,652,0,0
-567,372,-0.483887,0.773376,-0.00110186,0.0415274,-0.00301824,0.04174,-0.00131449,-1.50046,0.028275,0.0439368,657,652,-0.483881,-0.77335
-560,372,-0.186523,0.757141,0.00276015,0.0371193,-0.00549787,0.0379776,0.00190187,-1.41593,0.0247088,0.0452959,664,652,-0.18653,-0.75712
-553,372,-0.0609741,0.606201,0.00507383,0.031857,-0.00685151,0.0335079,0.00342288,-1.33434,0.0212896,0.0477778,671,652,-0.0609944,-0.606183
-546,372,0.0452881,0.374146,0.00636655,0.0265898,-0.00742157,0.0290211,0.00393525,-1.25422,0.0181782,0.0453294,678,652,0.0452791,-0.374117
-539,372,0.155823,0.257874,0.00698702,0.0212263,-0.00725174,0.0242692,0.00394413,-1.1735,0.0150381,0.044199,685,652,0.155841,-0.257851
-532,372,0.275146,0.244629,0.0073278,0.0162856,-0.00644356,0.019654,0.0039594,-1.08911,0.0120026,0.0462218,692,652,0.275151,-0.244619
-525,372,0.394714,0.275818,0.00757182,0.0119248,-0.00565564,0.0158083,0.00368831,-0.969079,0.00954985,0.0401984,699,652,0.39471,-0.275801
-518,372,0.463745,0.293335,0.00736772,0.00821172,-0.00488315,0.0126911,0.00288836,-0.828501,0.00768113,0.0231328,706,652,0.463737,-0.293351
-511,372,0.483093,0.261108,0.00621302,0.00504601,-0.00345639,0.00913481,0.00212422,-0.701776,0.00551977,0.011496,713,652,0.483064,-0.261085
-504,372,0.488953,0.228577,0.00533071,0.00286278,-0.00244605,0.00683643,0.00135706,-0.551789,0.00417936,0.0101248,720,652,0.488937,-0.228589
-497,372,0.49823,0.187927,0.00452395,0.00173968,-0.00159331,0.00524764,0.001016,-0.426341,0.00321374,0.0110612,727,652,0.498204,-0.187913
-490,372,0.49823,0.148987,0.00376093,0.000752215,-0.000942061,0.00403156,0.000481588,-0.279738,0.00254243,0.012533,734,652,0.498212,-0.148999
-483,372,0.487366,0.119019,0.00273087,-0.00100089,-0.000463524,0.00278758,-0.00105761,-0.121746,0.00229369,0.011811,741,652,0.487387,-0.119034
-476,372,0.48877,0.0847168,0.00124018,-0.00166769,-1.87754e-05,0.0012403,-0.00166781,-0.0064564,0.00168503,0.0119349,748,652,0.488758,-0.0847414
-469,372,0.495239,0.0337524,-0.00053759,-0.00244111,0.00115402,6.51553e-06,-0.00298521,0.440578,0.00199232,0.0102415,755,652,0.49526,-0.0337754
-462,372,0.502441,-0.0304565,-0.00330412,-0.00360905,0.00198827,-0.00146248,-0.00545069,0.747133,0.00325763,0.00902707,762,652,0.502416,0.0304438
-455,372,0.486572,-0.0687256,-0.00616063,-0.00532639,0.00314024,-0.00257569,-0.00891133,0.851427,0.00529541,0.00888832,769,652,0.486554,0.0687497
-448,372,0.490356,-0.0957642,-0.00943251,-0.00758938,0.0046039,-0.00381572,-0.0132062,0.884178,0.00784776,0.00839055,776,652,0.490373,0.095779
-441,372,0.506592,-0.171936,-0.0124961,-0.0101561,0.00670387,-0.0045209,-0.0181313,0.87179,0.0108978,0.0130708,783,652,0.506574,0.171922
-434,372,0.549622,-0.0241699,0,0,0,0,0,0,0,-1,790,652,0.549618,0.0241697
-427,372,0.629883,0.393799,-0.0164344,-0.0128975,0.0128064,-0.00173801,-0.0275939,0.854008,0.0178448,0.0381127,797,652,0.62989,-0.393787
-420,372,0.54541,0.562866,-0.0174428,-0.0131175,0.0169957,0.00185259,-0.0324129,0.848682,0.0222519,0.0430026,804,652,0.545396,-0.562895
-413,372,0.423584,0.665894,-0.0185842,-0.0119357,0.0214504,0.00644647,-0.0369664,0.862274,0.0270504,0.0464964,811,652,0.423596,-0.665865
-406,372,0.531616,0.496826,0,0,0,0,0,0,0,-1,818,652,0.531605,-0.496816
-399,372,-1.07379,0.374512,0,0,0,0,0,0,0,-1,825,652,-1.07377,-0.374495
-392,372,-0.857422,-0.0527344,-0.00869388,-0.00290742,0.0325655,0.0268931,-0.0384944,0.829704,0.037949,0.0468974,832,652,-0.857433,0.0527321
-385,372,-0.784424,-0.362366,-0.00162269,0.00336718,0.0355166,0.0364764,-0.0347319,0.820464,0.0411163,0.0475038,839,652,-0.784443,0.362365
-378,372,-0.429199,-0.198364,0.00730285,0.0104478,0.0370018,0.0459105,-0.0281598,0.806634,0.0431719,0.0477711,846,652,-0.429179,0.198392
-371,372,0.069519,-0.174622,0.018638,0.0167473,0.0366376,0.0543425,-0.0189572,0.7725,0.0439326,0.0441361,853,652,0.0695446,0.174611
-364,372,0,0,0,0,0,0,0,0,0,-1,860,652,0,0
-357,372,0,0,0,0,0,0,0,0,0,-1,867,652,0,0
-350,372,0,0,0,0,0,0,0,0,0,-1,874,652,0,0
-343,372,0,0,0,0,0,0,0,0,0,-1,881,652,0,0
-336,372,0,0,0,0,0,0,0,0,0,-1,888,652,0,0
-329,372,0,0,0,0,0,0,0,0,0,-1,895,652,0,0
-322,372,0,0,0,0,0,0,0,0,0,-1,902,652,0,0
-315,372,0,0,0,0,0,0,0,0,0,-1,909,652,0,0
-308,372,0,0,0,0,0,0,0,0,0,-1,916,652,0,0
-301,372,0,0,0,0,0,0,0,0,0,-1,923,652,0,0
-294,372,0,0,0,0,0,0,0,0,0,-1,930,652,0,0
-287,372,0,0,0,0,0,0,0,0,0,-1,937,652,0,0
-280,372,0,0,0,0,0,0,0,0,0,-1,944,652,0,0
-273,372,0,0,0,0,0,0,0,0,0,-1,951,652,0,0
-266,372,0,0,0,0,0,0,0,0,0,-1,958,652,0,0
-259,372,0,0,0,0,0,0,0,0,0,-1,965,652,0,0
-252,372,0,0,0,0,0,0,0,0,0,-1,972,652,0,0
-245,372,0,0,0,0,0,0,0,0,0,-1,979,652,0,0
-238,372,0,0,0,0,0,0,0,0,0,-1,986,652,0,0
-231,372,0,0,0,0,0,0,0,0,0,-1,993,652,0,0
-224,372,0,0,0,0,0,0,0,0,0,-1,1000,652,0,0
-217,372,0,0,0,0,0,0,0,0,0,-1,1007,652,0,0
-210,372,0,0,0,0,0,0,0,0,0,-1,1014,652,0,0
-203,372,0,0,0,0,0,0,0,0,0,-1,1021,652,0,0
-196,372,0,0,0,0,0,0,0,0,0,-1,1028,652,0,0
-189,372,0,0,0,0,0,0,0,0,0,-1,1035,652,0,0
-182,372,0,0,0,0,0,0,0,0,0,-1,1042,652,0,0
-175,372,0,0,0,0,0,0,0,0,0,-1,1049,652,0,0
-168,372,0,0,0,0,0,0,0,0,0,-1,1056,652,0,0
-161,372,0,0,0,0,0,0,0,0,0,-1,1063,652,0,0
-154,372,0,0,0,0,0,0,0,0,0,-1,1070,652,0,0
-147,372,0,0,0,0,0,0,0,0,0,-1,1077,652,0,0
-140,372,0,0,0,0,0,0,0,0,0,-1,1084,652,0,0
-133,372,0,0,0,0,0,0,0,0,0,-1,1091,652,0,0
-126,372,0,0,0,0,0,0,0,0,0,-1,1098,652,0,0
-119,372,0,0,0,0,0,0,0,0,0,-1,1105,652,0,0
-112,372,0,0,0,0,0,0,0,0,0,-1,1112,652,0,0
-105,372,0,0,0,0,0,0,0,0,0,-1,1119,652,0,0
-98,372,0,0,0,0,0,0,0,0,0,-1,1126,652,0,0
-91,372,0,0,0,0,0,0,0,0,0,-1,1133,652,0,0
-84,372,0,0,0,0,0,0,0,0,0,-1,1140,652,0,0
-77,372,0,0,0,0,0,0,0,0,0,-1,1147,652,0,0
-70,372,0,0,0,0,0,0,0,0,0,-1,1154,652,0,0
-63,372,0,0,0,0,0,0,0,0,0,-1,1161,652,0,0
-56,372,0,0,0,0,0,0,0,0,0,-1,1168,652,0,0
-49,372,0,0,0,0,0,0,0,0,0,-1,1175,652,0,0
-42,372,0,0,0,0,0,0,0,0,0,-1,1182,652,0,0
-35,372,0,0,0,0,0,0,0,0,0,-1,1189,652,0,0
-28,372,0,0,0,0,0,0,0,0,0,-1,1196,652,0,0
-21,372,0,0,0,0,0,0,0,0,0,-1,1203,652,0,0
-14,372,0,0,0,0,0,0,0,0,0,-1,1210,652,0,0
-7,372,0,0,0,0,0,0,0,0,0,-1,1217,652,0,0
0,372,0,0,0,0,0,0,0,0,0,-1,1224,652,0,0
7,372,0,0,0,0,0,0,0,0,0,-1,1231,652,0,0
14,372,0,0,0,0,0,0,0,0,0,-1,1238,652,0,0
21,372,0,0,0,0,0,0,0,0,0,-1,1245,652,0,0
28,372,0,0,0,0,0,0,0,0,0,-1,1252,652,0,0
35,372,0,0,0,0,0,0,0,0,0,-1,1259,652,0,0
42,372,0,0,0,0,0,0,0,0,0,-1,1266,652,0,0
49,372,0,0,0,0,0,0,0,0,0,-1,1273,652,0,0
56,372,0,0,0,0,0,0,0,0,0,-1,1280,652,0,0
63,372,0,0,0,0,0,0,0,0,0,-1,1287,652,0,0
70,372,0,0,0,0,0,0,0,0,0,-1,1294,652,0,0
77,372,0,0,0,0,0,0,0,0,0,-1,1301,652,0,0
84,372,0,0,0,0,0,0,0,0,0,-1,1308,652,0,0
91,372,0,0,0,0,0,0,0,0,0,-1,1315,652,0,0
98,372,0,0,0,0,0,0,0,0,0,-1,1322,652,0,0
105,372,0,0,0,0,0,0,0,0,0,-1,1329,652,0,0
112,372,0,0,0,0,0,0,0,0,0,-1,1336,652,0,0
119,372,0,0,0,0,0,0,0,0,0,-1,1343,652,0,0
126,372,0,0,0,0,0,0,0,0,0,-1,1350,652,0,0
133,372,0,0,0,0,0,0,0,0,0,-1,1357,652,0,0
140,372,0,0,0,0,0,0,0,0,0,-1,1364,652,0,0
147,372,0,0,0,0,0,0,0,0,0,-1,1371,652,0,0
154,372,0,0,0,0,0,0,0,0,0,-1,1378,652,0,0
161,372,0,0,0,0,0,0,0,0,0,-1,1385,652,0,0
168,372,0,0,0,0,0,0,0,0,0,-1,1392,652,0,0
175,372,0,0,0,0,0,0,0,0,0,-1,1399,652,0,0
182,372,0,0,0,0,0,0,0,0,0,-1,1406,652,0,0
189,372,0,0,0,0,0,0,0,0,0,-1,1413,652,0,0
196,372,0,0,0,0,0,0,0,0,0,-1,1420,652,0,0
203,372,0,0,0,0,0,0,0,0,0,-1,1427,652,0,0
210,372,0,0,0,0,0,0,0,0,0,-1,1434,652,0,0
217,372,0,0,0,0,0,0,0,0,0,-1,1441,652,0,0
224,372,0,0,0,0,0,0,0,0,0,-1,1448,652,0,0
231,372,0,0,0,0,0,0,0,0,0,-1,1455,652,0,0
238,372,0,0,0,0,0,0,0,0,0,-1,1462,652,0,0
245,372,0,0,0,0,0,0,0,0,0,-1,1469,652,0,0
252,372,0,0,0,0,0,0,0,0,0,-1,1476,652,0,0
259,372,0,0,0,0,0,0,0,0,0,-1,1483,652,0,0
266,372,0,0,0,0,0,0,0,0,0,-1,1490,652,0,0
273,372,0,0,0,0,0,0,0,0,0,-1,1497,652,0,0
280,372,0,0,0,0,0,0,0,0,0,-1,1504,652,0,0
287,372,0,0,0,0,0,0,0,0,0,-1,1511,652,0,0
294,372,0,0,0,0,0,0,0,0,0,-1,1518,652,0,0
301,372,0,0,0,0,0,0,0,0,0,-1,1525,652,0,0
308,372,0,0,0,0,0,0,0,0,0,-1,1532,652,0,0
315,372,0,0,0,0,0,0,0,0,0,-1,1539,652,0,0
322,372,0,0,0,0,0,0,0,0,0,-1,1546,652,0,0
329,372,0,0,0,0,0,0,0,0,0,-1,1553,652,0,0
336,372,0,0,0,0,0,0,0,0,0,-1,1560,652,0,0
343,372,0,0,0,0,0,0,0,0,0,-1,1567,652,0,0
350,372,0,0,0,0,0,0,0,0,0,-1,1574,652,0,0
357,372,0,0,0,0,0,0,0,0,0,-1,1581,652,0,0
364,372,0,0,0,0,0,0,0,0,0,-1,1588,652,0,0
371,372,0,0,0,0,0,0,0,0,0,-1,1595,652,0,0
378,372,0,0,0,0,0,0,0,0,0,-1,1602,652,0,0
385,372,0,0,0,0,0,0,0,0,0,-1,1609,652,0,0
392,372,0,0,0,0,0,0,0,0,0,-1,1616,652,0,0
399,372,0,0,0,0,0,0,0,0,0,-1,1623,652,0,0
406,372,0,0,0,0,0,0,0,0,0,-1,1630,652,0,0
413,372,0,0,0,0,0,0,0,0,0,-1,1637,652,0,0
420,372,0,0,0,0,0,0,0,0,0,-1,1644,652,0,0
427,372,0,0,0,0,0,0,0,0,0,-1,1651,652,0,0
434,372,0,0,0,0,0,0,0,0,0,-1,1658,652,0,0
441,372,0,0,0,0,0,0,0,0,0,-1,1665,652,0,0
448,372,0,0,0,0,0,0,0,0,0,-1,1672,652,0,0
455,372,0,0,0,0,0,0,0,0,0,-1,1679,652,0,0
462,372,0,0,0,0,0,0,0,0,0,-1,1686,652,0,0
469,372,0,0,0,0,0,0,0,0,0,-1,1693,652,0,0
476,372,0,0,0,0,0,0,0,0,0,-1,1700,652,0,0
483,372,2.10229,1.7785,0,0,0,0,0,0,0,-1,1707,652,2.10231,-1.77852
490,372,3.6687,2.08893,0,0,0,0,0,0,0,-1,1714,652,3.66865,-2.08891
497,372,4.06152,1.68579,0.0188917,-0.0011432,-0.0485285,0.0584258,-0.0406774,-0.683616,0.0575223,0.0437888,1721,652,4.06158,-1.68579
504,372,4.37036,1.41376,0.0248489,0.00323058,-0.0491746,0.0643883,-0.0363089,-0.677213,0.0588862,0.0467541,1728,652,4.37041,-1.41375
511,372,4.78479,0.939453,0.0290722,0.00700465,-0.0497805,0.0690271,-0.0329502,-0.676337,0.0600922,0.0478056,1735,652,4.78475,-0.939455
518,372,2.84827,1.23828,0,0,0,0,0,0,0,-1,1742,652,2.84828,-1.23826
525,372,3.53357,1.41693,0.0313514,0.0120087,-0.0490968,0.0717203,-0.0283602,-0.68815,0.0595618,0.043278,1749,652,3.53359,-1.41694
532,372,4.68164,0.481628,0.0257877,0.0112681,-0.0430694,0.0622049,-0.0251491,-0.701903,0.0519244,0.0411173,1756,652,4.68161,-0.481649
539,372,4.61829,-0.169373,0.0206254,0.0101385,-0.0363782,0.0521361,-0.0213722,-0.713822,0.0436614,0.0447483,1763,652,4.61832,0.169344
546,372,4.53357,-0.800171,0.0160004,0.00852571,-0.0295901,0.0420883,-0.0175622,-0.722579,0.0353963,0.0496686,1770,652,4.53351,0.800179
553,372,3.25415,-0.0509644,0,0,0,0,0,0,0,-1,1777,652,3.25412,0.0509839
560,372,3.43127,-0.312561,0.00814256,0.00533555,-0.0177131,0.0245077,-0.0110296,-0.745863,0.0210036,0.0319059,1784,652,3.43126,0.312551
567,372,3.3501,-0.162415,0.00579958,0.00374107,-0.0128505,0.017662,-0.00812137,-0.745436,0.015222,0.0157247,1791,652,3.35013,0.162415
574,372,3.34509,-0.137695,0.00362968,0.00236878,-0.00919947,0.0122203,-0.00622182,-0.751186,0.0108337,0.012292,1798,652,3.34515,0.137682
581,372,3.3291,-0.110596,0.00117105,0.00105425,-0.00550296,0.00661592,-0.00439062,-0.780092,0.00639777,0.0141477,1805,652,3.32908,0.110612
588,372,3.31738,-0.0652466,-0.000139042,0.000491726,-0.00272632,0.00292084,-0.00256816,-0.842983,0.00317126,0.0154642,1812,652,3.31742,0.0652617
595,372,3.33337,-0.00585938,5.69888e-05,0.000134825,-0.00120088,0.00129742,-0.00110561,-0.801596,0.00138886,0.0135885,1819,652,3.33337,0.00584024
602,372,3.32703,0.0439453,0.000850715,-0.00040907,-0.0003385,0.000935908,-0.000494263,-0.246557,0.00083873,0.0124027,1826,652,3.327,-0.0439502
609,372,3.30444,0.0913086,0.00229063,0.000159335,-0.000212275,0.00231157,0.000138398,-0.0983119,0.00149705,0.0124272,1833,652,3.30446,-0.0912857
616,372,3.30286,0.133667,0.00478305,0.000799439,4.66104e-05,0.00478359,0.000798894,0.0116984,0.00295893,0.0122499,1840,652,3.30288,-0.133684
623,372,3.31543,0.178833,0.00787875,0.00135951,0.000431921,0.00790724,0.00133102,0.0658695,0.0048886,0.0115268,1847,652,3.31544,-0.178833
630,372,3.3175,0.224915,0.0114811,0.00204244,0.000879279,0.0115623,0.00196123,0.0921012,0.00714475,0.0156691,1854,652,3.31748,-0.224933
637,372,3.32056,0.264832,0.0158542,0.00272999,0.00144927,0.0160123,0.00257185,0.108683,0.00992925,0.0201732,1861,652,3.3205,-0.264805
644,372,3.32251,0.341064,0.0209239,0.00336729,0.00202999,0.0211555,0.00313563,0.113628,0.0131834,0.016566,1868,652,3.32257,-0.341093
651,372,3.2926,0.443237,0.0266394,0.00362508,0.00273912,0.0269609,0.00330357,0.116844,0.0169802,0.0316397,1875,652,3.29258,-0.443257
658,372,3.69531,0.508057,0.0328881,0.00408161,0.00380944,0.0333833,0.00358635,0.129282,0.0211616,0.040489,1882,652,3.6953,-0.508036
665,372,4.10229,0.701843,0.0393216,0.00457779,0.00471864,0.039951,0.00394835,0.132613,0.0254203,0.0478273,1889,652,4.10233,-0.701852
672,372,4.48328,0.836365,0,0,0,0,0,0,0,-1,1896,652,4.48333,-0.836347
679,372,2.49731,1.01678,0,0,0,0,0,0,0,-1,1903,652,2.49731,-1.01679
686,372,2.86658,0.823059,0,0,0,0,0,0,0,-1,1910,652,2.86653,-0.823057
693,372,0,0,0,0,0,0,0,0,0,-1,1917,652,0,0
700,372,0,0,0,0,0,0,0,0,0,-1,1924,652,0,0
707,372,0,0,0,0,0,0,0,0,0,-1,1931,652,0,0
714,372,0,0,0,0,0,0,0,0,0,-1,1938,652,0,0
721,372,0,0,0,0,0,0,0,0,0,-1,1945,652,0,0
728,372,0,0,0,0,0,0,0,0,0,-1,1952,652,0,0
735,372,0,0,0,0,0,0,0,0,0,-1,1959,652,0,0
742,372,0,0,0,0,0,0,0,0,0,-1,1966,652,0,0
749,372,0,0,0,0,0,0,0,0,0,-1,1973,652,0,0
756,372,0,0,0,0,0,0,0,0,0,-1,1980,652,0,0
763,372,0,0,0,0,0,0,0,0,0,-1,1987,652,0,0
770,372,0,0,0,0,0,0,0,0,0,-1,1994,652,0,0
777,372,0,0,0,0,0,0,0,0,0,-1,2001,652,0,0
784,372,0,0,0,0,0,0,0,0,0,-1,2008,652,0,0
791,372,0,0,0,0,0,0,0,0,0,-1,2015,652,0,0
798,372,0,0,0,0,0,0,0,0,0,-1,2022,652,0,0
805,372,0,0,0,0,0,0,0,0,0,-1,2029,652,0,0
812,372,0,0,0,0,0,0,0,0,0,-1,2036,652,0,0
-700,365,0,0,0,0,0,0,0,0,0,-1,524,659,0,0
-693,365,0,0,0,0,0,0,0,0,0,-1,531,659,0,0
-686,365,0,0,0,0,0,0,0,0,0,-1,538,659,0,0
-679,365,0,0,0,0,0,0,0,0,0,-1,545,659,0,0
-672,365,0,0,0,0,0,0,0,0,0,-1,552,659,0,0
-665,365,0,0,0,0,0,0,0,0,0,-1,559,659,0,0
-658,365,0,0,0,0,0,0,0,0,0,-1,566,659,0,0
-651,365,0,0,0,0,0,0,0,0,0,-1,573,659,0,0
-644,365,0,0,0,0,0,0,0,0,0,-1,580,659,0,0
-637,365,0,0,0,0,0,0,0,0,0,-1,587,659,0,0
-630,365,0,0,0,0,0,0,0,0,0,-1,594,659,0,0
-623,365,0,0,0,0,0,0,0,0,0,-1,601,659,0,0
-616,365,0,0,0,0,0,0,0,0,0,-1,608,659,0,0
-609,365,0,0,0,0,0,0,0,0,0,-1,615,659,0,0
-602,365,0,0,0,0,0,0,0,0,0,-1,622,659,0,0
-595,365,0,0,0,0,0,0,0,0,0,-1,629,659,0,0
-588,365,0,0,0,0,0,0,0,0,0,-1,636,659,0,0
-581,365,0,0,0,0,0,0,0,0,0,-1,643,659,0,0
-574,365,0.415161,-0.0859375,-0.00535002,0.0263846,0.00423329,0.0269396,-0.00590502,1.44044,0.0202176,0.0437578,650,659,0.415143,0.0859168
-567,365,0.159363,0.145325,5.97577e-05,0.0270113,0.000184333,0.0270126,5.84964e-05,1.56396,0.0179889,0.0424187,657,659,0.159344,-0.145307
-560,365,0.168701,0.142578,0.00332967,0.025357,-0.00249854,0.0256368,0.00304982,-1.45926,0.0161708,0.0449526,664,659,0.168672,-0.142584
-553,365,0.354492,0.208374,0.00509588,0.0223686,-0.00409043,0.0232884,0.00417618,-1.34963,0.0143377,0.0466603,671,659,0.354504,-0.20837
-546,365,0.408508,0.268921,0.00592494,0.0193351,-0.00506473,0.021033,0.00422707,-1.24734,0.0128469,0.0440414,678,659,0.408508,-0.268895
-539,365,0.116699,0.179688,0.00609464,0.0156894,-0.00523415,0.0179921,0.00379193,-1.15634,0.0109518,0.0422101,685,659,0.116672,-0.179671
-532,365,0.284973,0.26123,0.00609849,0.0118886,-0.00464062,0.0144632,0.00352393,-1.06428,0.00870846,0.0412164,692,659,0.284989,-0.261247
-525,365,0.446472,0.266418,0.00612031,0.00849588,-0.00409976,0.0115764,0.00303974,-0.926398,0.00693028,0.0330099,699,659,0.446479,-0.266403
-518,365,0.467407,0.301819,0.00569408,0.00564755,-0.00357588,0.00924677,0.00209486,-0.782145,0.00559844,0.0183083,706,659,0.46741,-0.301811
-511,365,0.447205,0.249573,0.00436501,0.00320248,-0.00239148,0.00624485,0.00132264,-0.666181,0.00379988,0.0160555,713,659,0.447212,-0.249574
-504,365,0.437378,0.229309,0.0035189,0.0015948,-0.00159464,0.00441922,0.00069448,-0.513976,0.0027441,0.0117962,720,659,0.437385,-0.229289
-497,365,0.440491,0.183289,0.00287013,0.000902679,-0.000847538,0.00318488,0.00058793,-0.355583,0.00195694,0.012098,727,659,0.440464,-0.183287
-490,365,0.453247,0.140259,0.00228833,0.000252414,-0.000286772,0.00232795,0.000212791,-0.137298,0.00148613,0.0136777,734,659,0.453261,-0.140253
-483,365,0.440308,0.0996704,0.00137633,-0.00103206,8.46919e-05,0.00137931,-0.00103504,0.0351075,0.00139864,0.0122949,741,659,0.440303,-0.0996507
-476,365,0.444641,0.0670776,-0.000206862,-0.00141418,0.000451235,-5.68523e-05,-0.00156419,0.320949,0.00102437,0.0114989,748,659,0.444617,-0.067101
-469,365,0.452942,0.0280151,-0.00216166,-0.00233149,0.00174846,-0.000496053,-0.00399709,0.761135,0.00251573,0.0107899,755,659,0.452943,-0.0279899
-462,365,0.457886,-0.0126953,-0.0052788,-0.0034019,0.00272327,-0.00145992,-0.00722078,0.951329,0.00440854,0.0116285,762,659,0.457899,0.0126778
-455,365,0.444946,-0.0574341,-0.0086479,-0.00505826,0.00399259,-0.00247562,-0.0112305,0.996633,0.00681343,0.0122312,769,659,0.444933,0.0574369
-448,365,0.447266,-0.109009,-0.0126977,-0.00724277,0.00557075,-0.00376764,-0.0161729,1.01305,0.00977124,0.0100301,776,659,0.447261,0.109002
-441,365,0.422363,-0.140442,-0.0165366,-0.00969841,0.00782557,-0.00457762,-0.0216574,0.991357,0.0131801,0.0199057,783,659,0.422385,0.140454
-434,365,0.208618,-0.578796,0,0,0,0,0,0,0,-1,790,659,0.208593,0.578822
-427,365,0.364746,-0.670837,0,0,0,0,0,0,0,-1,797,659,0.364746,0.670833
-420,365,0.584412,-0.019165,0,0,0,0,0,0,0,-1,804,659,0.584422,0.0191412
-413,365,0.289795,0.783142,0,0,0,0,0,0,0,-1,811,659,0.289794,-0.783173
-406,365,-2.33051,0.121826,0,0,0,0,0,0,0,-1,818,659,-2.3305,-0.121853
-399,365,-1.89154,0.339355,0,0,0,0,0,0,0,-1,825,659,-1.89153,-0.339329
-392,365,-1.73438,0.15741,-0.0162752,0.00144012,0.036468,0.0301107,-0.0449458,0.904535,0.0436152,0.0449666,832,659,-1.73435,-0.157416
-385,365,-1.67584,-0.403625,-0.00877266,0.00992451,0.0403982,0.0420417,-0.0408899,0.899102,0.0478821,0.0455388,839,659,-1.67584,0.403641
-378,365,-1.68109,-0.929321,0,0,0,0,0,0,0,-1,846,659,-1.68111,0.929351
-371,365,0,0,0,0,0,0,0,0,0,-1,853,659,0,0
-364,365,0,0,0,0,0,0,0,0,0,-1,860,659,0,0
-357,365,0,0,0,0,0,0,0,0,0,-1,867,659,0,0
-350,365,0,0,0,0,0,0,0,0,0,-1,874,659,0,0
-343,365,0,0,0,0,0,0,0,0,0,-1,881,659,0,0
-336,365,0,0,0,0,0,0,0,0,0,-1,888,659,0,0
-329,365,0,0,0,0,0,0,0,0,0,-1,895,659,0,0
-322,365,0,0,0,0,0,0,0,0,0,-1,902,659,0,0
-315,365,0,0,0,0,0,0,0,0,0,-1,909,659,0,0
-308,365,0,0,0,0,0,0,0,0,0,-1,916,659,0,0
-301,365,0,0,0,0,0,0,0,0,0,-1,923,659,0,0
-294,365,0,0,0,0,0,0,0,0,0,-1,930,659,0,0
-287,365,0,0,0,0,0,0,0,0,0,-1,937,659,0,0
-280,365,0,0,0,0,0,0,0,0,0,-1,944,659,0,0
-273,365,0,0,0,0,0,0,0,0,0,-1,951,659,0,0
-266,365,0,0,0,0,0,0,0,0,0,-1,958,659,0,0
-259,365,0,0,0,0,0,0,0,0,0,-1,965,659,0,0
-252,365,0,0,0,0,0,0,0,0,0,-1,972,659,0,0
-245,365,0,0,0,0,0,0,0,0,0,-1,979,659,0,0
-238,365,0,0,0,0,0,0,0,0,0,-1,986,659,0,0
-231,365,0,0,0,0,0,0,0,0,0,-1,993,659,0,0
-224,365,0,0,0,0,0,0,0,0,0,-1,1000,659,0,0
-217,365,0,0,0,0,0,0,0,0,0,-1,1007,659,0,0
-210,365,0,0,0,0,0,0,0,0,0,-1,1014,659,0,0
-203,365,0,0,0,0,0,0,0,0,0,-1,1021,659,0,0
-196,365,0,0,0,0,0,0,0,0,0,-1,1028,659,0,0
-189,365,0,0,0,0,0,0,0,0,0,-1,1035,659,0,0
-182,365,0,0,0,0,0,0,0,0,0,-1,1042,659,0,0
-175,365,0,0,0,0,0,0,0,0,0,-1,1049,659,0,0
-168,365,0,0,0,0,0,0,0,0,0,-1,1056,659,0,0
-161,365,0,0,0,0,0,0,0,0,0,-1,1063,659,0,0
-154,365,0,0,0,0,0,0,0,0,0,-1,1070,659,0,0
-147,365,0,0,0,0,0,0,0,0,0,-1,1077,659,0,0
-140,365,0,0,0,0,0,0,0,0,0,-1,1084,659,0,0
-133,365,0,0,0,0,0,0,0,0,0,-1,1091,659,0,0
-126,365,0,0,0,0,0,0,0,0,0,-1,1098,659,0,0
-119,365,0,0,0,0,0,0,0,0,0,-1,1105,659,0,0
-112,365,0,0,0,0,0,0,0,0,0,-1,1112,659,0,0
-105,365,0,0,0,0,0,0,0,0,0,-1,1119,659,0,0
-98,365,0,0,0,0,0,0,0,0,0,-1,1126,659,0,0
-91,365,0,0,0,0,0,0,0,0,0,-1,1133,659,0,0
-84,365,0,0,0,0,0,0,0,0,0,-1,1140,659,0,0
-77,365,0,0,0,0,0,0,0,0,0,-1,1147,659,0,0
-70,365,0,0,0,0,0,0,0,0,0,-1,1154,659,0,0
-63,365,0,0,0,0,0,0,0,0,0,-1,1161,659,0,0
-56,365,0,0,0,0,0,0,0,0,0,-1,1168,659,0,0
-49,365,0,0,0,0,0,0,0,0,0,-1,1175,659,0,0
-42,365,0,0,0,0,0,0,0,0,0,-1,1182,659,0,0
-35,365,0,0,0,0,0,0,0,0,0,-1,1189,659,0,0
-28,365,0,0,0,0,0,0,0,0,0,-1,1196,659,0,0
-21,365,0,0,0,0,0,0,0,0,0,-1,1203,659,0,0
-14,365,0,0,0,0,0,0,0,0,0,-1,1210,659,0,0
-7,365,0,0,0,0,0,0,0,0,0,-1,1217,659,0,0
0,365,0,0,0,0,0,0,0,0,0,-1,1224,659,0,0
7,365,0,0,0,0,0,0,0,0,0,-1,1231,659,0,0
14,365,0,0,0,0,0,0,0,0,0,-1,1238,659,0,0
21,365,0,0,0,0,0,0,0,0,0,-1,1245,659,0,0
28,365,0,0,0,0,0,0,0,0,0,-1,1252,659,0,0
35,365,0,0,0,0,0,0,0,0,0,-1,1259,659,0,0
42,365,0,0,0,0,0,0,0,0,0,-1,1266,659,0,0
49,365,0,0,0,0,0,0,0,0,0,-1,1273,659,0,0
56,365,0,0,0,0,0,0,0,0,0,-1,1280,659,0,0
63,365,0,0,0,0,0,0,0,0,0,-1,1287,659,0,0
70,365,0,0,0,0,0,0,0,0,0,-1,1294,659,0,0
77,365,0,0,0,0,0,0,0,0,0,-1,1301,659,0,0
84,365,0,0,0,0,0,0,0,0,0,-1,1308,659,0,0
91,365,0,0,0,0,0,0,0,0,0,-1,1315,659,0,0
98,365,0,0,0,0,0,0,0,0,0,-1,1322,659,0,0
105,365,0,0,0,0,0,0,0,0,0,-1,1329,659,0,0
112,365,0,0,0,0,0,0,0,0,0,-1,1336,659,0,0
119,365,0,0,0,0,0,0,0,0,0,-1,1343,659,0,0
126,365,0,0,0,0,0,0,0,0,0,-1,1350,659,0,0
133,365,0,0,0,0,0,0,0,0,0,-1,1357,659,0,0
140,365,0,0,0,0,0,0,0,0,0,-1,1364,659,0,0
147,365,0,0,0,0,0,0,0,0,0,-1,1371,659,0,0
154,365,0,0,0,0,0,0,0,0,0,-1,1378,659,0,0
161,365,0,0,0,0,0,0,0,0,0,-1,1385,659,0,0
168,365,0,0,0,0,0,0,0,0,0,-1,1392,659,0,0
175,365,0,0,0,0,0,0,0,0,0,-1,1399,659,0,0
182,365,0,0,0,0,0,0,0,0,0,-1,1406,659,0,0
189,365,0,0,0,0,0,0,0,0,0,-1,1413,659,0,0
196,365,0,0,0,0,0,0,0,0,0,-1,1420,659,0,0
203,365,0,0,0,0,0,0,0,0,0,-1,1427,659,0,0
210,365,0,0,0,0,0,0,0,0,0,-1,1434,659,0,0
217,365,0,0,0,0,0,0,0,0,0,-1,1441,659,0,0
224,365,0,0,0,0,0,0,0,0,0,-1,1448,659,0,0
231,365,0,0,0,0,0,0,0,0,0,-1,1455,659,0,0
238,365,0,0,0,0,0,0,0,0,0,-1,1462,659,0,0
245,365,0,0,0,0,0,0,0,0,0,-1,1469,659,0,0
252,365,0,0,0,0,0,0,0,0,0,-1,1476,659,0,0
259,365,0,0,0,0,0,0,0,0,0,-1,1483,659,0,0
266,365,0,0,0,0,0,0,0,0,0,-1,1490,659,0,0
273,365,0,0,0,0,0,0,0,0,0,-1,1497,659,0,0
280,365,0,0,0,0,0,0,0,0,0,-1,1504,659,0,0
287,365,0,0,0,0,0,0,0,0,0,-1,1511,659,0,0
294,365,0,0,0,0,0,0,0,0,0,-1,1518,659,0,0
301,365,0,0,0,0,0,0,0,0,0,-1,1525,659,0,0
308,365,0,0,0,0,0,0,0,0,0,-1,1532,659,0,0
315,365,0,0,0,0,0,0,0,0,0,-1,1539,659,0,0
322,365,0,0,0,0,0,0,0,0,0,-1,1546,659,0,0
329,365,0,0,0,0,0,0,0,0,0,-1,1553,659,0,0
336,365,0,0,0,0,0,0,0,0,0,-1,1560,659,0,0
343,365,0,0,0,0,0,0,0,0,0,-1,1567,659,0,0
350,365,0,0,0,0,0,0,0,0,0,-1,1574,659,0,0
357,365,0,0,0,0,0,0,0,0,0,-1,1581,659,0,0
364,365,0,0,0,0,0,0,0,0,0,-1,1588,659,0,0
371,365,0,0,0,0,0,0,0,0,0,-1,1595,659,0,0
378,365,0,0,0,0,0,0,0,0,0,-1,1602,659,0,0
385,365,0,0,0,0,0,0,0,0,0,-1,1609,659,0,0
392,365,0,0,0,0,0,0,0,0,0,-1,1616,659,0,0
399,365,0,0,0,0,0,0,0,0,0,-1,1623,659,0,0
406,365,0,0,0,0,0,0,0,0,0,-1,1630,659,0,0
413,365,0,0,0,0,0,0,0,0,0,-1,1637,659,0,0
420,365,0,0,0,0,0,0,0,0,0,-1,1644,659,0,0
427,365,0,0,0,0,0,0,0,0,0,-1,1651,659,0,0
434,365,0,0,0,0,0,0,0,0,0,-1,1658,659,0,0
441,365,0,0,0,0,0,0,0,0,0,-1,1665,659,0,0
448,365,0,0,0,0,0,0,0,0,0,-1,1672,659,0,0
455,365,0,0,0,0,0,0,0,0,0,-1,1679,659,0,0
462,365,0,0,0,0,0,0,0,0,0,-1,1686,659,0,0
469,365,0,0,0,0,0,0,0,0,0,-1,1693,659,0,0
476,365,0,0,0,0,0,0,0,0,0,-1,1700,659,0,0
483,365,0,0,0,0,0,0,0,0,0,-1,1707,659,0,0
490,365,3.98376,2.3559,0,0,0,0,0,0,0,-1,1714,659,3.98372,-2.35588
497,365,4.64124,1.75531,0.0233514,0.00272973,-0.0481677,0.0622995,-0.0362184,-0.679959,0.0575399,0.0457589,1721,659,4.64117,-1.75531
504,365,5.15796,1.362,0.0292095,0.0067156,-0.0501739,0.0693815,-0.0334564,-0.675141,0.0605691,0.0482787,1728,659,5.15793,-1.36201
511,365,5.3999,0.969177,0,0,0,0,0,0,0,-1,1735,659,5.3999,-0.969184
518,365,4.69788,2.11084,0,0,0,0,0,0,0,-1,1742,659,4.69783,-2.11086
525,365,4.93372,1.32953,0.0347629,0.0149305,-0.0507291,0.0765359,-0.0268425,-0.688878,0.0619415,0.0434851,1749,659,4.93366,-1.32954
532,365,5.23682,0.3349,0.0287085,0.0136783,-0.0434983,0.0653361,-0.0229493,-0.699859,0.0528936,0.0440797,1756,659,5.23685,-0.3349
539,365,5.56812,-0.283447,0.0231967,0.011955,-0.0360665,0.0540777,-0.018926,-0.708096,0.0437471,0.0478125,1763,659,5.56812,0.283454
546,365,5.79016,-0.692444,0,0,0,0,0,0,0,-1,1770,659,5.79016,0.692443
553,365,3.16309,-0.867554,0,0,0,0,0,0,0,-1,1777,659,3.16305,0.867544
560,365,3.46313,-0.497559,0.00999412,0.00609919,-0.0169981,0.0251559,-0.00906263,-0.728362,0.0204715,0.0440416,1784,659,3.46315,0.497557
567,365,3.54053,-0.247437,0.00736248,0.00426554,-0.0122665,0.0181779,-0.00654984,-0.722612,0.0147933,0.036655,1791,659,3.54056,0.24743
574,365,3.41406,-0.130066,0.00482914,0.00270631,-0.00875169,0.0125835,-0.0050481,-0.725052,0.0104849,0.0203715,1798,659,3.41409,0.130071
581,365,3.35681,-0.104553,0.00202976,0.00113226,-0.00513028,0.00673088,-0.00356886,-0.741774,0.00603924,0.0130287,1805,659,3.35686,0.104532
588,365,3.35022,-0.059082,0.000380813,0.000398465,-0.00240377,0.00279342,-0.00201414,-0.787234,0.00278778,0.0116843,1812,659,3.35021,0.0590903
595,365,3.36682,-0.00164795,0.000214426,-1.93694e-05,-0.000937063,0.00104185,-0.000846798,-0.723344,0.00109235,0.0115162,1819,659,3.36679,0.00164984
602,365,3.36609,0.0388794,0.000517681,-0.000622927,-0.000170558,0.000542638,-0.000647885,-0.145299,0.000688244,0.0117292,1826,659,3.36613,-0.038853
609,365,3.3252,0.0893555,0.00140374,-3.76436e-05,-0.000142425,0.00141767,-5.15821e-05,-0.0975548,0.00096277,0.0128908,1833,659,3.32515,-0.0893452
616,365,3.34192,0.132507,0.00332078,0.000481759,2.24614e-05,0.00332095,0.000481582,0.00791104,0.00207218,0.0144135,1840,659,3.34187,-0.13251
623,365,3.3811,0.16687,0.00576319,0.00100286,0.000405954,0.00579756,0.000968494,0.0844657,0.00358607,0.0106881,1847,659,3.38112,-0.166896
630,365,3.37451,0.221008,0.00854453,0.00159821,0.00086908,0.00865161,0.00149113,0.122596,0.00534055,0.014842,1854,659,3.3745,-0.221009
637,365,3.35864,0.250061,0.0119026,0.0021677,0.00146072,0.012117,0.00195324,0.145775,0.00751207,0.0210144,1861,659,3.35866,-0.250073
644,365,3.36011,0.298462,0.0157548,0.00262957,0.00203512,0.0160631,0.00232126,0.150353,0.010025,0.0147062,1868,659,3.3601,-0.298476
651,365,3.37305,0.36438,0.0200465,0.00266319,0.00271645,0.0204611,0.00224859,0.151458,0.0129564,0.0185458,1875,659,3.37308,-0.364383
658,365,3.32605,0.399719,0.024693,0.00294736,0.00375492,0.0253231,0.00231724,0.166263,0.0161651,0.0339154,1882,659,3.32603,-0.399719
665,365,3.34521,0.490417,0.0293486,0.00326,0.00453133,0.0301133,0.00249536,0.167169,0.0192976,0.0466603,1889,659,3.3452,-0.490447
672,365,3.36633,0.428101,0.0339635,0.00321553,0.00527347,0.0348428,0.00233625,0.165218,0.0224903,0.0493367,1896,659,3.36635,-0.428109
679,365,3.35229,0.432068,0,0,0,0,0,0,0,-1,1903,659,3.3523,-0.432054
686,365,3.24414,0.78595,0.0424451,0.00265291,0.00639747,0.0434483,0.00164967,0.155552,0.0284316,0.0471084,1910,659,3.24416,-0.785977
693,365,3.3551,0.865417,0.0455759,0.00210307,0.00660375,0.0465569,0.00112206,0.147474,0.0306708,0.0479674,1917,659,3.35514,-0.865424
700,365,0,0,0,0,0,0,0,0,0,-1,1924,659,0,0
707,365,0,0,0,0,0,0,0,0,0,-1,1931,659,0,0
714,365,0,0,0,0,0,0,0,0,0,-1,1938,659,0,0
721,365,0,0,0,0,0,0,0,0,0,-1,1945,659,0,0
728,365,0,0,0,0,0,0,0,0,0,-1,1952,659,0,0
735,365,0,0,0,0,0,0,0,0,0,-1,1959,659,0,0
742,365,0,0,0,0,0,0,0,0,0,-1,1966,659,0,0
749,365,0,0,0,0,0,0,0,0,0,-1,1973,659,0,0
756,365,0,0,0,0,0,0,0,0,0,-1,1980,659,0,0
763,365,0,0,0,0,0,0,0,0,0,-1,1987,659,0,0
770,365,0,0,0,0,0,0,0,0,0,-1,1994,659,0,0
777,365,0,0,0,0,0,0,0,0,0,-1,2001,659,0,0
784,365,0,0,0,0,0,0,0,0,0,-1,2008,659,0,0
791,365,0,0,0,0,0,0,0,0,0,-1,2015,659,0,0
798,365,0,0,0,0,0,0,0,0,0,-1,2022,659,0,0
805,365,0,0,0,0,0,0,0,0,0,-1,2029,659,0,0
812,365,0,0,0,0,0,0,0,0,0,-1,2036,659,0,0
-700,358,0,0,0,0,0,0,0,0,0,-1,524,666,0,0
-693,358,0,0,0,0,0,0,0,0,0,-1,531,666,0,0
-686,358,0,0,0,0,0,0,0,0,0,-1,538,666,0,0
-679,358,0,0,0,0,0,0,0,0,0,-1,545,666,0,0
-672,358,0,0,0,0,0,0,0,0,0,-1,552,666,0,0
-665,358,0,0,0,0,0,0,0,0,0,-1,559,666,0,0
-658,358,0,0,0,0,0,0,0,0,0,-1,566,666,0,0
-651,358,0,0,0,0,0,0,0,0,0,-1,573,666,0,0
-644,358,0,0,0,0,0,0,0,0,0,-1,580,666,0,0
-637,358,0,0,0,0,0,0,0,0,0,-1,587,666,0,0
-630,358,0,0,0,0,0,0,0,0,0,-1,594,666,0,0
-623,358,0,0,0,0,0,0,0,0,0,-1,601,666,0,0
-616,358,0,0,0,0,0,0,0,0,0,-1,608,666,0,0
-609,358,0,0,0,0,0,0,0,0,0,-1,615,666,0,0
-602,358,0,0,0,0,0,0,0,0,0,-1,622,666,0,0
-595,358,0,0,0,0,0,0,0,0,0,-1,629,666,0,0
-588,358,0,0,0,0,0,0,0,0,0,-1,636,666,0,0
-581,358,0.304016,-0.422974,-0.0106527,0.00359441,0.012686,0.0110201,-0.0180784,1.04122,0.016964,0.0440924,643,666,0.30404,0.422978
-574,358,-0.0505981,-0.286255,-0.0032705,0.0101932,0.0070487,0.0132082,-0.00628554,1.1666,0.0114889,0.0421794,650,666,-0.0505732,0.286266
-567,358,0.0593872,0.195801,0,0,0,0,0,0,0,-1,657,666,0.0593628,-0.195814
-560,358,0.0800171,0.0306396,0,0,0,0,0,0,0,-1,664,666,0.0800367,-0.0306437
-553,358,1.11273,0.667419,0,0,0,0,0,0,0,-1,671,666,1.11275,-0.667407
-546,358,0.865662,0.334839,0.00579098,0.0108656,-0.00263549,0.0119867,0.00466991,-1.16861,0.00697651,0.047592,678,666,0.86565,-0.334823
-539,358,0.371826,0.226135,0.00563764,0.00892613,-0.00316,0.0108441,0.0037197,-1.02529,0.00636285,0.0435931,685,666,0.371796,-0.226142
-532,358,0.39502,0.316345,0.00530707,0.00628511,-0.00282702,0.0086651,0.00292709,-0.871041,0.00508978,0.035561,692,666,0.395049,-0.316354
-525,358,0.408569,0.327209,0.00506277,0.00396377,-0.00256355,0.00713505,0.00189148,-0.67982,0.00426827,0.0216155,699,666,0.408567,-0.327234
-518,358,0.423218,0.312439,0.00436538,0.00217071,-0.00230987,0.00582531,0.000710771,-0.563649,0.00366964,0.0166447,706,666,0.42321,-0.312427
-511,358,0.407776,0.272034,0.00277547,0.000555753,-0.0014275,0.0034738,-0.000142574,-0.454968,0.00236482,0.0151966,713,666,0.407791,-0.272008
-504,358,0.39679,0.25177,0.00185962,-0.000328925,-0.000867703,0.00216189,-0.000631199,-0.335214,0.00169139,0.0106063,720,666,0.396805,-0.251756
-497,358,0.397583,0.187378,0.00128559,-0.000484607,-0.000226126,0.00131402,-0.000513035,-0.125065,0.00108812,0.0103857,727,666,0.397595,-0.187353
-490,358,0.40918,0.137939,0.00081739,-0.000713371,0.000256132,0.00085911,-0.000755091,0.161466,0.000932604,0.00999343,734,666,0.409175,-0.137949
-483,358,0.397339,0.101135,-6.48327e-05,-0.00140079,0.000532501,0.000121445,-0.00158706,0.336511,0.00110076,0.00937238,741,666,0.397319,-0.101127
-476,358,0.401978,0.0634155,-0.00185137,-0.00141745,0.000864452,-0.000743147,-0.00252567,0.90835,0.00149879,0.0100102,748,666,0.40198,-0.063421
-469,358,0.414368,0.019104,-0.0040817,-0.00239681,0.00231218,-0.000778386,-0.00570013,0.960099,0.00356903,0.0115927,755,666,0.414359,-0.019116
-462,358,0.401123,-0.0255737,-0.00760802,-0.00328945,0.00343327,-0.00139289,-0.00950458,1.06611,0.0059269,0.0150909,762,666,0.401119,0.0255943
-455,358,0.41571,-0.050293,-0.011549,-0.00476076,0.00480554,-0.00227158,-0.0140382,1.09287,0.00870103,0.0142576,769,666,0.4157,0.0502747
-448,358,0.443298,-0.0894775,-0.0164291,-0.00669059,0.00647574,-0.0034577,-0.019662,1.10776,0.012121,0.0204,776,666,0.443272,0.0894632
-441,358,0.189392,-0.18634,-0.0211539,-0.00882216,0.00883855,-0.00421129,-0.0257647,1.08996,0.015959,0.0337374,783,666,0.189374,0.186324
-434,358,0.039978,-0.600037,-0.0251225,-0.0101768,0.0116624,-0.00379845,-0.0315009,1.07033,0.0198559,0.0385634,790,666,0.0399896,0.600045
-427,358,0.374268,-1.1192,-0.0289525,-0.0108818,0.0154041,-0.00205875,-0.0377755,1.05064,0.0245263,0.0411207,797,666,0.37424,1.11922
-420,358,1.35156,-1.18555,-0.031819,-0.0107428,0.0197974,0.0011465,-0.0437083,1.02997,0.0295285,0.0444049,804,666,1.35154,1.18554
-413,358,2.44666,-1.22821,0,0,0,0,0,0,0,-1,811,666,2.44663,1.2282
-406,358,-2.71576,0.260803,-0.034567,-0.00636419,0.0293093,0.0120596,-0.0529907,1.00961,0.0399583,0.0473912,818,666,-2.71574,-0.260825
-399,358,-2.74188,0.461853,0,0,0,0,0,0,0,-1,825,666,-2.74191,-0.46186
-392,358,-2.9212,0.342041,-0.027053,0.00605188,0.0393605,0.0321987,-0.0531999,0.984439,0.0497994,0.0430027,832,666,-2.92118,-0.342066
-385,358,-2.78015,-0.0898438,-0.0195937,0.0167603,0.0443038,0.046471,-0.0493044,0.980067,0.055304,0.0468308,839,666,-2.78016,0.0898423
-378,358,0,0,0,0,0,0,0,0,0,-1,846,666,0,0
-371,358,0,0,0,0,0,0,0,0,0,-1,853,666,0,0
-364,358,0,0,0,0,0,0,0,0,0,-1,860,666,0,0
-357,358,0,0,0,0,0,0,0,0,0,-1,867,666,0,0
-350,358,0,0,0,0,0,0,0,0,0,-1,874,666,0,0
-343,358,0,0,0,0,0,0,0,0,0,-1,881,666,0,0
-336,358,0,0,0,0,0,0,0,0,0,-1,888,666,0,0
-329,358,0,0,0,0,0,0,0,0,0,-1,895,666,0,0
-322,358,0,0,0,0,0,0,0,0,0,-1,902,666,0,0
-315,358,0,0,0,0,0,0,0,0,0,-1,909,666,0,0
-308,358,0,0,0,0,0,0,0,0,0,-1,916,666,0,0
-301,358,0,0,0,0,0,0,0,0,0,-1,923,666,0,0
-294,358,0,0,0,0,0,0,0,0,0,-1,930,666,0,0
-287,358,0,0,0,0,0,0,0,0,0,-1,937,666,0,0
-280,358,0,0,0,0,0,0,0,0,0,-1,944,666,0,0
-273,358,0,0,0,0,0,0,0,0,0,-1,951,666,0,0
-266,358,0,0,0,0,0,0,0,0,0,-1,958,666,0,0
-259,358,0,0,0,0,0,0,0,0,0,-1,965,666,0,0
-252,358,0,0,0,0,0,0,0,0,0,-1,972,666,0,0
-245,358,0,0,0,0,0,0,0,0,0,-1,979,666,0,0
-238,358,0,0,0,0,0,0,0,0,0,-1,986,666,0,0
-231,358,0,0,0,0,0,0,0,0,0,-1,993,666,0,0
-224,358,0,0,0,0,0,0,0,0,0,-1,1000,666,0,0
-217,358,0,0,0,0,0,0,0,0,0,-1,1007,666,0,0
-210,358,0,0,0,0,0,0,0,0,0,-1,1014,666,0,0
-203,358,0,0,0,0,0,0,0,0,0,-1,1021,666,0,0
-196,358,0,0,0,0,0,0,0,0,0,-1,1028,666,0,0
-189,358,0,0,0,0,0,0,0,0,0,-1,1035,666,0,0
-182,358,0,0,0,0,0,0,0,0,0,-1,1042,666,0,0
-175,358,0,0,0,0,0,0,0,0,0,-1,1049,666,0,0
-168,358,0,0,0,0,0,0,0,0,0,-1,1056,666,0,0
-161,358,0,0,0,0,0,0,0,0,0,-1,1063,666,0,0
-154,358,0,0,0,0,0,0,0,0,0,-1,1070,666,0,0
-147,358,0,0,0,0,0,0,0,0,0,-1,1077,666,0,0
-140,358,0,0,0,0,0,0,0,0,0,-1,1084,666,0,0
-133,358,0,0,0,0,0,0,0,0,0,-1,1091,666,0,0
-126,358,0,0,0,0,0,0,0,0,0,-1,1098,666,0,0
-119,358,0,0,0,0,0,0,0,0,0,-1,1105,666,0,0
-112,358,0,0,0,0,0,0,0,0,0,-1,1112,666,0,0
-105,358,0,0,0,0,0,0,0,0,0,-1,1119,666,0,0
-98,358,0,0,0,0,0,0,0,0,0,-1,1126,666,0,0
-91,358,0,0,0,0,0,0,0,0,0,-1,1133,666,0,0
-84,358,0,0,0,0,0,0,0,0,0,-1,1140,666,0,0
-77,358,0,0,0,0,0,0,0,0,0,-1,1147,666,0,0
-70,358,0,0,0,0,0,0,0,0,0,-1,1154,666,0,0
-63,358,0,0,0,0,0,0,0,0,0,-1,1161,666,0,0
-56,358,0,0,0,0,0,0,0,0,0,-1,1168,666,0,0
-49,358,0,0,0,0,0,0,0,0,0,-1,1175,666,0,0
-42,358,0,0,0,0,0,0,0,0,0,-1,1182,666,0,0
-35,358,0,0,0,0,0,0,0,0,0,-1,1189,666,0,0
-28,358,0,0,0,0,0,0,0,0,0,-1,1196,666,0,0
-21,358,0,0,0,0,0,0,0,0,0,-1,1203,666,0,0
-14,358,0,0,0,0,0,0,0,0,0,-1,1210,666,0,0
-7,358,0,0,0,0,0,0,0,0,0,-1,1217,666,0,0
0,358,0,0,0,0,0,0,0,0,0,-1,1224,666,0,0
7,358,0,0,0,0,0,0,0,0,0,-1,1231,666,0,0
14,358,0,0,0,0,0,0,0,0,0,-1,1238,666,0,0
21,358,0,0,0,0,0,0,0,0,0,-1,1245,666,0,0
28,358,0,0,0,0,0,0,0,0,0,-1,1252,666,0,0
35,358,0,0,0,0,0,0,0,0,0,-1,1259,666,0,0
42,358,0,0,0,0,0,0,0,0,0,-1,1266,666,0,0
49,358,0,0,0,0,0,0,0,0,0,-1,1273,666,0,0
56,358,0,0,0,0,0,0,0,0,0,-1,1280,666,0,0
63,358,0,0,0,0,0,0,0,0,0,-1,1287,666,0,0
70,358,0,0,0,0,0,0,0,0,0,-1,1294,666,0,0
77,358,0,0,0,0,0,0,0,0,0,-1,1301,666,0,0
84,358,0,0,0,0,0,0,0,0,0,-1,1308,666,0,0
91,358,0,0,0,0,0,0,0,0,0,-1,1315,666,0,0
98,358,0,0,0,0,0,0,0,0,0,-1,1322,666,0,0
105,358,0,0,0,0,0,0,0,0,0,-1,1329,666,0,0
112,358,0,0,0,0,0,0,0,0,0,-1,1336,666,0,0
119,358,0,0,0,0,0,0,0,0,0,-1,1343,666,0,0
126,358,0,0,0,0,0,0,0,0,0,-1,1350,666,0,0
133,358,0,0,0,0,0,0,0,0,0,-1,1357,666,0,0
140,358,0,0,0,0,0,0,0,0,0,-1,1364,666,0,0
147,358,0,0,0,0,0,0,0,0,0,-1,1371,666,0,0
154,358,0,0,0,0,0,0,0,0,0,-1,1378,666,0,0
161,358,0,0,0,0,0,0,0,0,0,-1,1385,666,0,0
168,358,0,0,0,0,0,0,0,0,0,-1,1392,666,0,0
175,358,0,0,0,0,0,0,0,0,0,-1,1399,666,0,0
182,358,0,0,0,0,0,0,0,0,0,-1,1406,666,0,0
189,358,0,0,0,0,0,0,0,0,0,-1,1413,666,0,0
196,358,0,0,0,0,0,0,0,0,0,-1,1420,666,0,0
203,358,0,0,0,0,0,0,0,0,0,-1,1427,666,0,0
210,358,0,0,0,0,0,0,0,0,0,-1,1434,666,0,0
217,358,0,0,0,0,0,0,0,0,0,-1,1441,666,0,0
224,358,0,0,0,0,0,0,0,0,0,-1,1448,666,0,0
231,358,0,0,0,0,0,0,0,0,0,-1,1455,666,0,0
238,358,0,0,0,0,0,0,0,0,0,-1,1462,666,0,0
245,358,0,0,0,0,0,0,0,0,0,-1,1469,666,0,0
252,358,0,0,0,0,0,0,0,0,0,-1,1476,666,0,0
259,358,0,0,0,0,0,0,0,0,0,-1,1483,666,0,0
266,358,0,0,0,0,0,0,0,0,0,-1,1490,666,0,0
273,358,0,0,0,0,0,0,0,0,0,-1,1497,666,0,0
280,358,0,0,0,0,0,0,0,0,0,-1,1504,666,0,0
287,358,0,0,0,0,0,0,0,0,0,-1,1511,666,0,0
294,358,0,0,0,0,0,0,0,0,0,-1,1518,666,0,0
301,358,0,0,0,0,0,0,0,0,0,-1,1525,666,0,0
308,358,0,0,0,0,0,0,0,0,0,-1,1532,666,0,0
315,358,0,0,0,0,0,0,0,0,0,-1,1539,666,0,0
322,358,0,0,0,0,0,0,0,0,0,-1,1546,666,0,0
329,358,0,0,0,0,0,0,0,0,0,-1,1553,666,0,0
336,358,0,0,0,0,0,0,0,0,0,-1,1560,666,0,0
343,358,0,0,0,0,0,0,0,0,0,-1,1567,666,0,0
350,358,0,0,0,0,0,0,0,0,0,-1,1574,666,0,0
357,358,0,0,0,0,0,0,0,0,0,-1,1581,666,0,0
364,358,0,0,0,0,0,0,0,0,0,-1,1588,666,0,0
371,358,0,0,0,0,0,0,0,0,0,-1,1595,666,0,0
378,358,0,0,0,0,0,0,0,0,0,-1,1602,666,0,0
385,358,0,0,0,0,0,0,0,0,0,-1,1609,666,0,0
392,358,0,0,0,0,0,0,0,0,0,-1,1616,666,0,0
399,358,0,0,0,0,0,0,0,0,0,-1,1623,666,0,0
406,358,0,0,0,0,0,0,0,0,0,-1,1630,666,0,0
413,358,0,0,0,0,0,0,0,0,0,-1,1637,666,0,0
420,358,0,0,0,0,0,0,0,0,0,-1,1644,666,0,0
427,358,0,0,0,0,0,0,0,0,0,-1,1651,666,0,0
434,358,0,0,0,0,0,0,0,0,0,-1,1658,666,0,0
441,358,0,0,0,0,0,0,0,0,0,-1,1665,666,0,0
448,358,0,0,0,0,0,0,0,0,0,-1,1672,666,0,0
455,358,0,0,0,0,0,0,0,0,0,-1,1679,666,0,0
462,358,0,0,0,0,0,0,0,0,0,-1,1686,666,0,0
469,358,0,0,0,0,0,0,0,0,0,-1,1693,666,0,0
476,358,0,0,0,0,0,0,0,0,0,-1,1700,666,0,0
483,358,0,0,0,0,0,0,0,0,0,-1,1707,666,0,0
490,358,0,0,0,0,0,0,0,0,0,-1,1714,666,0,0
497,358,5.09021,1.61334,0,0,0,0,0,0,0,-1,1721,666,5.09023,-1.61336
504,358,5.82471,1.50116,0,0,0,0,0,0,0,-1,1728,666,5.82475,-1.50117
511,358,4.99744,0.62854,0,0,0,0,0,0,0,-1,1735,666,4.99738,-0.62854
518,358,5.78601,1.53229,0,0,0,0,0,0,0,-1,1742,666,5.78601,-1.53229
525,358,5.99915,0.732849,0.0379609,0.0178359,-0.0505098,0.0794008,-0.023604,-0.687076,0.0623103,0.0468862,1749,666,5.99918,-0.732857
532,358,6.0498,0.0678101,0.0317383,0.0159622,-0.0421563,0.0667381,-0.0190377,-0.69291,0.0520126,0.0441827,1756,666,6.04978,-0.0678377
539,358,6.72473,-0.229675,0,0,0,0,0,0,0,-1,1763,666,6.7247,0.229696
546,358,4.68457,-0.312317,0,0,0,0,0,0,0,-1,1770,666,4.68463,0.3123
553,358,3.81018,-0.352966,0,0,0,0,0,0,0,-1,1777,666,3.81018,0.352938
560,358,3.59326,-0.0198975,0.0122631,0.00676706,-0.0157709,0.0255235,-0.00649344,-0.699142,0.0195431,0.0482209,1784,666,3.59326,0.0198712
567,358,3.59644,-0.0568848,0.00931208,0.00474015,-0.0113822,0.0186356,-0.00458336,-0.686298,0.0142003,0.0474541,1791,666,3.59645,0.0568871
574,358,3.47998,-0.0949097,0.00642857,0.003036,-0.00815131,0.0130582,-0.00359365,-0.682813,0.0101184,0.0384765,1798,666,3.47995,0.0948933
581,358,3.40564,-0.0802612,0.00331399,0.00122168,-0.00474934,0.00713103,-0.00259537,-0.676992,0.00581551,0.0188163,1805,666,3.40564,0.0802446
588,358,3.38745,-0.0576782,0.00128132,0.000343607,-0.00216878,0.00303135,-0.00140642,-0.678944,0.00261877,0.0117548,1812,666,3.38745,0.0576549
595,358,3.40527,-0.00823975,0.000670673,-0.000120317,-0.000813607,0.00117982,-0.000629461,-0.559165,0.00106057,0.0105272,1819,666,3.40533,0.00824135
602,358,3.39795,0.0476074,0.000423709,-0.000757916,-0.000155544,0.000443841,-0.000778048,-0.128715,0.0007142,0.0102284,1826,666,3.39794,-0.0476048
609,358,3.354,0.0806274,0.000723114,-0.000182346,-0.000206556,0.000768008,-0.00022724,-0.214018,0.000602217,0.0137156,1833,666,3.35405,-0.0806107
616,358,3.35742,0.120728,0.0020557,0.000211527,-0.000111795,0.00206245,0.000204774,-0.0603261,0.00131205,0.0146107,1840,666,3.3574,-0.120746
623,358,3.38281,0.152649,0.00381948,0.000685627,0.000310133,0.00384987,0.00065523,0.0976996,0.00237845,0.0134324,1847,666,3.38287,-0.152658
630,358,3.39111,0.193542,0.00578853,0.0012016,0.000822866,0.00593168,0.00105846,0.172241,0.00365311,0.0166058,1854,666,3.39113,-0.193555
637,358,3.39563,0.243469,0.00820555,0.00167937,0.00146208,0.00851813,0.00136679,0.210623,0.00528243,0.0245506,1861,666,3.39567,-0.243465
644,358,3.40869,0.284424,0.0109743,0.00200572,0.0020561,0.0114232,0.00155681,0.214956,0.00715321,0.0200527,1868,666,3.40864,-0.284417
651,358,3.44446,0.35907,0.014077,0.00189363,0.00272696,0.0146595,0.00131112,0.210451,0.0093666,0.0157324,1875,666,3.44443,-0.3591
658,358,3.37048,0.392334,0.0175219,0.00209898,0.0037947,0.018405,0.00121588,0.228648,0.0118855,0.0218396,1882,666,3.37048,-0.392307
665,358,3.34717,0.358337,0.0208185,0.00225587,0.00447504,0.021841,0.00123336,0.224635,0.0141675,0.0366857,1889,666,3.3472,-0.358327
672,358,3.34143,0.408752,0.0239142,0.00196884,0.00504891,0.02502,0.000862974,0.215625,0.0163999,0.0448438,1896,666,3.34144,-0.408739
679,358,3.25635,0.600891,0,0,0,0,0,0,0,-1,1903,666,3.2563,-0.600893
686,358,3.2417,0.769958,0.0297692,0.000981121,0.00595144,0.030951,-0.000200717,0.19603,0.0207012,0.0462608,1910,666,3.24174,-0.769974
693,358,3.62,0.658447,0.031834,0.000206624,0.00601421,0.0329391,-0.000898419,0.181712,0.0222649,0.0447224,1917,666,3.62004,-0.658432
700,358,0,0,0,0,0,0,0,0,0,-1,1924,666,0,0
707,358,0,0,0,0,0,0,0,0,0,-1,1931,666,0,0
714,358,0,0,0,0,0,0,0,0,0,-1,1938,666,0,0
721,358,0,0,0,0,0,0,0,0,0,-1,1945,666,0,0
728,358,0,0,0,0,0,0,0,0,0,-1,1952,666,0,0
735,358,0,0,0,0,0,0,0,0,0,-1,1959,666,0,0
742,358,0,0,0,0,0,0,0,0,0,-1,1966,666,0,0
749,358,0,0,0,0,0,0,0,0,0,-1,1973,666,0,0
756,358,0,0,0,0,0,0,0,0,0,-1,1980,666,0,0
763,358,0,0,0,0,0,0,0,0,0,-1,1987,666,0,0
770,358,0,0,0,0,0,0,0,0,0,-1,1994,666,0,0
777,358,0,0,0,0,0,0,0,0,0,-1,2001,666,0,0
784,358,0,0,0,0,0,0,0,0,0,-1,2008,666,0,0
791,358,0,0,0,0,0,0,0,0,0,-1,2015,666,0,0
798,358,0,0,0,0,0,0,0,0,0,-1,2022,666,0,0
805,358,0,0,0,0,0,0,0,0,0,-1,2029,666,0,0
812,358,0,0,0,0,0,0,0,0,0,-1,2036,666,0,0
-700,351,0,0,0,0,0,0,0,0,0,-1,524,673,0,0
-693,351,0,0,0,0,0,0,0,0,0,-1,531,673,0,0
-686,351,0,0,0,0,0,0,0,0,0,-1,538,673,0,0
-679,351,0,0,0,0,0,0,0,0,0,-1,545,673,0,0
-672,351,0,0,0,0,0,0,0,0,0,-1,552,673,0,0
-665,351,0,0,0,0,0,0,0,0,0,-1,559,673,0,0
-658,351,0,0,0,0,0,0,0,0,0,-1,566,673,0,0
-651,351,0,0,0,0,0,0,0,0,0,-1,573,673,0,0
-644,351,0,0,0,0,0,0,0,0,0,-1,580,673,0,0
-637,351,0,0,0,0,0,0,0,0,0,-1,587,673,0,0
-630,351,0,0,0,0,0,0,0,0,0,-1,594,673,0,0
-623,351,0,0,0,0,0,0,0,0,0,-1,601,673,0,0
-616,351,0,0,0,0,0,0,0,0,0,-1,608,673,0,0
-609,351,0,0,0,0,0,0,0,0,0,-1,615,673,0,0
-602,351,0,0,0,0,0,0,0,0,0,-1,622,673,0,0
-595,351,0,0,0,0,0,0,0,0,0,-1,629,673,0,0
-588,351,0,0,0,0,0,0,0,0,0,-1,636,673,0,0
-581,351,-0.263855,-0.465454,-0.0081088,-0.0122502,0.0147566,0.00472174,-0.0250807,0.715692,0.0184964,0.0431753,643,673,-0.263864,0.465436
-574,351,-0.57489,-0.471375,-0.00143692,-0.00288912,0.00929371,0.00715901,-0.011485,0.746413,0.0108603,0.0463618,650,673,-0.574887,0.471405
-567,351,-1.35529,0.245605,0,0,0,0,0,0,0,-1,657,673,-1.35527,-0.245589
-560,351,0.00396729,-0.10791,0,0,0,0,0,0,0,-1,664,673,0.003968,0.107938
-553,351,0.322571,-0.0368652,0,0,0,0,0,0,0,-1,671,673,0.32259,0.0368496
-546,351,1.29401,0.501282,0,0,0,0,0,0,0,-1,678,673,1.294,-0.501307
-539,351,0.560791,0.397278,0.00546183,0.00531987,-0.0018443,0.00723651,0.00354519,-0.766165,0.00417829,0.0399499,685,673,0.560771,-0.397301
-532,351,0.402283,0.377747,0.00479854,0.0033788,-0.00167864,0.00591124,0.0022661,-0.58536,0.00344367,0.0257862,692,673,0.402269,-0.37777
-525,351,0.375488,0.360474,0.00423916,0.00167595,-0.00160124,0.00500853,0.000906585,-0.447911,0.0030816,0.0143275,699,673,0.375467,-0.360467
-518,351,0.368347,0.337585,0.00321012,0.000505974,-0.00149031,0.00387029,-0.0001542,-0.416998,0.0026331,0.0107591,706,673,0.368347,-0.337609
-511,351,0.381165,0.298523,0.00135204,-0.000704418,-0.000791606,0.00162146,-0.00097384,-0.32805,0.00151387,0.0109691,713,673,0.381141,-0.298548
-504,351,0.369507,0.254578,0.000347846,-0.00128905,-0.000388312,0.000435292,-0.00137649,-0.2215,0.00109207,0.00991979,720,673,0.369514,-0.254561
-497,351,0.367126,0.192322,-0.000236754,-0.00124531,0.000215938,-0.000192465,-0.00128959,0.202295,0.000803298,0.00970514,727,673,0.367119,-0.192322
-490,351,0.365784,0.13623,-0.000685779,-0.00134497,0.000690966,-0.000249824,-0.00178092,0.562857,0.00111339,0.00901223,734,673,0.365771,-0.136218
-483,351,0.362671,0.10791,-0.00161441,-0.00183308,0.000992534,-0.000725209,-0.00272228,0.730541,0.00162789,0.0107203,741,673,0.362656,-0.107918
-476,351,0.354858,0.0732422,-0.00373272,-0.00156874,0.00135199,-0.000919087,-0.00438237,1.12286,0.00266851,0.0102588,748,673,0.35488,-0.0732532
-469,351,0.353638,0.0290527,-0.00636111,-0.00263329,0.00295693,-0.00100184,-0.00799257,1.06662,0.00502781,0.0119995,755,673,0.353612,-0.029052
-462,351,0.359009,-0.0252075,-0.0103815,-0.0033444,0.00423429,-0.00135756,-0.0123683,1.13207,0.00783235,0.0143735,762,673,0.359039,0.0252333
-455,351,0.381836,-0.0603638,-0.0150109,-0.00455681,0.0056945,-0.00205409,-0.0175137,1.15671,0.0110549,0.0140742,769,673,0.38186,0.0603736
-448,351,0.333069,0.00866699,-0.0208559,-0.0060889,0.00742022,-0.00300455,-0.0239402,1.17686,0.0150589,0.0316786,776,673,0.333085,-0.00867246
-441,351,0.211975,0.0161133,-0.0266637,-0.00768064,0.00981566,-0.003518,-0.0308264,1.1697,0.0194844,0.0430416,783,673,0.211949,-0.0161388
-434,351,-0.0560913,-0.262268,-0.0319368,-0.00859238,0.0126408,-0.00305903,-0.0374702,1.15819,0.0240254,0.0434849,790,673,-0.0560959,0.262269
-427,351,0.228088,-0.751038,-0.0373056,-0.00888231,0.0162622,-0.00149698,-0.0446909,1.1445,0.0293077,0.0422827,797,673,0.228117,0.751025
-420,351,0.924866,-1.11633,-0.0417186,-0.0084079,0.0204656,0.00132313,-0.0514496,1.12695,0.0347492,0.0475558,804,673,0.924868,1.11634
-413,351,-2.50134,0.610168,-0.0457894,-0.00676177,0.0246697,0.00517887,-0.05773,1.12001,0.040324,0.0441076,811,673,-2.50134,-0.610192
-406,351,-3.10425,0.41394,-0.0476074,-0.0033979,0.0294991,0.0113595,-0.0623647,1.10694,0.0458346,0.04489,818,673,-3.10427,-0.41396
-399,351,-3.83398,-0.0435181,0,0,0,0,0,0,0,-1,825,673,-3.83396,0.0435406
-392,351,-3.98254,0.534973,0,0,0,0,0,0,0,-1,832,673,-3.98253,-0.534979
-385,351,-4.24969,0.373901,0,0,0,0,0,0,0,-1,839,673,-4.24969,-0.373917
-378,351,0,0,0,0,0,0,0,0,0,-1,846,673,0,0
-371,351,0,0,0,0,0,0,0,0,0,-1,853,673,0,0
-364,351,0,0,0,0,0,0,0,0,0,-1,860,673,0,0
-357,351,0,0,0,0,0,0,0,0,0,-1,867,673,0,0
-350,351,0,0,0,0,0,0,0,0,0,-1,874,673,0,0
-343,351,0,0,0,0,0,0,0,0,0,-1,881,673,0,0
-336,351,0,0,0,0,0,0,0,0,0,-1,888,673,0,0
-329,351,0,0,0,0,0,0,0,0,0,-1,895,673,0,0
-322,351,0,0,0,0,0,0,0,0,0,-1,902,673,0,0
-315,351,0,0,0,0,0,0,0,0,0,-1,909,673,0,0
-308,351,0,0,0,0,0,0,0,0,0,-1,916,673,0,0
-301,351,0,0,0,0,0,0,0,0,0,-1,923,673,0,0
-294,351,0,0,0,0,0,0,0,0,0,-1,930,673,0,0
-287,351,0,0,0,0,0,0,0,0,0,-1,937,673,0,0
-280,351,0,0,0,0,0,0,0,0,0,-1,944,673,0,0
-273,351,0,0,0,0,0,0,0,0,0,-1,951,673,0,0
-266,351,0,0,0,0,0,0,0,0,0,-1,958,673,0,0
-259,351,0,0,0,0,0,0,0,0,0,-1,965,673,0,0
-252,351,0,0,0,0,0,0,0,0,0,-1,972,673,0,0
-245,351,0,0,0,0,0,0,0,0,0,-1,979,673,0,0
-238,351,0,0,0,0,0,0,0,0,0,-1,986,673,0,0
-231,351,0,0,0,0,0,0,0,0,0,-1,993,673,0,0
-224,351,0,0,0,0,0,0,0,0,0,-1,1000,673,0,0
-217,351,0,0,0,0,0,0,0,0,0,-1,1007,673,0,0
-210,351,0,0,0,0,0,0,0,0,0,-1,1014,673,0,0
-203,351,0,0,0,0,0,0,0,0,0,-1,1021,673,0,0
-196,351,0,0,0,0,0,0,0,0,0,-1,1028,673,0,0
-189,351,0,0,0,0,0,0,0,0,0,-1,1035,673,0,0
-182,351,0,0,0,0,0,0,0,0,0,-1,1042,673,0,0
-175,351,0,0,0,0,0,0,0,0,0,-1,1049,673,0,0
-168,351,0,0,0,0,0,0,0,0,0,-1,1056,673,0,0
-161,351,0,0,0,0,0,0,0,0,0,-1,1063,673,0,0
-154,351,0,0,0,0,0,0,0,0,0,-1,1070,673,0,0
-147,351,0,0,0,0,0,0,0,0,0,-1,1077,673,0,0
-140,351,0,0,0,0,0,0,0,0,0,-1,1084,673,0,0
-133,351,0,0,0,0,0,0,0,0,0,-1,1091,673,0,0
-126,351,0,0,0,0,0,0,0,0,0,-1,1098,673,0,0
-119,351,0,0,0,0,0,0,0,0,0,-1,1105,673,0,0
-112,351,0,0,0,0,0,0,0,0,0,-1,1112,673,0,0
-105,351,0,0,0,0,0,0,0,0,0,-1,1119,673,0,0
-98,351,0,0,0,0,0,0,0,0,0,-1,1126,673,0,0
-91,351,0,0,0,0,0,0,0,0,0,-1,1133,673,0,0
-84,351,0,0,0,0,0,0,0,0,0,-1,1140,673,0,0
-77,351,0,0,0,0,0,0,0,0,0,-1,1147,673,0,0
-70,351,0,0,0,0,0,0,0,0,0,-1,1154,673,0,0
-63,351,0,0,0,0,0,0,0,0,0,-1,1161,673,0,0
-56,351,0,0,0,0,0,0,0,0,0,-1,1168,673,0,0
-49,351,0,0,0,0,0,0,0,0,0,-1,1175,673,0,0
-42,351,0,0,0,0,0,0,0,0,0,-1,1182,673,0,0
-35,351,0,0,0,0,0,0,0,0,0,-1,1189,673,0,0
-28,351,0,0,0,0,0,0,0,0,0,-1,1196,673,0,0
-21,351,0,0,0,0,0,0,0,0,0,-1,1203,673,0,0
-14,351,0,0,0,0,0,0,0,0,0,-1,1210,673,0,0
-7,351,0,0,0,0,0,0,0,0,0,-1,1217,673,0,0
0,351,0,0,0,0,0,0,0,0,0,-1,1224,673,0,0
7,351,0,0,0,0,0,0,0,0,0,-1,1231,673,0,0
14,351,0,0,0,0,0,0,0,0,0,-1,1238,673,0,0
21,351,0,0,0,0,0,0,0,0,0,-1,1245,673,0,0
28,351,0,0,0,0,0,0,0,0,0,-1,1252,673,0,0
35,351,0,0,0,0,0,0,0,0,0,-1,1259,673,0,0
42,351,0,0,0,0,0,0,0,0,0,-1,1266,673,0,0
49,351,0,0,0,0,0,0,0,0,0,-1,1273,673,0,0
56,351,0,0,0,0,0,0,0,0,0,-1,1280,673,0,0
63,351,0,0,0,0,0,0,0,0,0,-1,1287,673,0,0
70,351,0,0,0,0,0,0,0,0,0,-1,1294,673,0,0
77,351,0,0,0,0,0,0,0,0,0,-1,1301,673,0,0
84,351,0,0,0,0,0,0,0,0,0,-1,1308,673,0,0
91,351,0,0,0,0,0,0,0,0,0,-1,1315,673,0,0
98,351,0,0,0,0,0,0,0,0,0,-1,1322,673,0,0
105,351,0,0,0,0,0,0,0,0,0,-1,1329,673,0,0
112,351,0,0,0,0,0,0,0,0,0,-1,1336,673,0,0
119,351,0,0,0,0,0,0,0,0,0,-1,1343,673,0,0
126,351,0,0,0,0,0,0,0,0,0,-1,1350,673,0,0
133,351,0,0,0,0,0,0,0,0,0,-1,1357,673,0,0
140,351,0,0,0,0,0,0,0,0,0,-1,1364,673,0,0
147,351,0,0,0,0,0,0,0,0,0,-1,1371,673,0,0
154,351,0,0,0,0,0,0,0,0,0,-1,1378,673,0,0
161,351,0,0,0,0,0,0,0,0,0,-1,1385,673,0,0
168,351,0,0,0,0,0,0,0,0,0,-1,1392,673,0,0
175,351,0,0,0,0,0,0,0,0,0,-1,1399,673,0,0
182,351,0,0,0,0,0,0,0,0,0,-1,1406,673,0,0
189,351,0,0,0,0,0,0,0,0,0,-1,1413,673,0,0
196,351,0,0,0,0,0,0,0,0,0,-1,1420,673,0,0
203,351,0,0,0,0,0,0,0,0,0,-1,1427,673,0,0
210,351,0,0,0,0,0,0,0,0,0,-1,1434,673,0,0
217,351,0,0,0,0,0,0,0,0,0,-1,1441,673,0,0
224,351,0,0,0,0,0,0,0,0,0,-1,1448,673,0,0
231,351,0,0,0,0,0,0,0,0,0,-1,1455,673,0,0
238,351,0,0,0,0,0,0,0,0,0,-1,1462,673,0,0
245,351,0,0,0,0,0,0,0,0,0,-1,1469,673,0,0
252,351,0,0,0,0,0,0,0,0,0,-1,1476,673,0,0
259,351,0,0,0,0,0,0,0,0,0,-1,1483,673,0,0
266,351,0,0,0,0,0,0,0,0,0,-1,1490,673,0,0
273,351,0,0,0,0,0,0,0,0,0,-1,1497,673,0,0
280,351,0,0,0,0,0,0,0,0,0,-1,1504,673,0,0
287,351,0,0,0,0,0,0,0,0,0,-1,1511,673,0,0
294,351,0,0,0,0,0,0,0,0,0,-1,1518,673,0,0
301,351,0,0,0,0,0,0,0,0,0,-1,1525,673,0,0
308,351,0,0,0,0,0,0,0,0,0,-1,1532,673,0,0
315,351,0,0,0,0,0,0,0,0,0,-1,1539,673,0,0
322,351,0,0,0,0,0,0,0,0,0,-1,1546,673,0,0
329,351,0,0,0,0,0,0,0,0,0,-1,1553,673,0,0
336,351,0,0,0,0,0,0,0,0,0,-1,1560,673,0,0
343,351,0,0,0,0,0,0,0,0,0,-1,1567,673,0,0
350,351,0,0,0,0,0,0,0,0,0,-1,1574,673,0,0
357,351,0,0,0,0,0,0,0,0,0,-1,1581,673,0,0
364,351,0,0,0,0,0,0,0,0,0,-1,1588,673,0,0
371,351,0,0,0,0,0,0,0,0,0,-1,1595,673,0,0
378,351,0,0,0,0,0,0,0,0,0,-1,1602,673,0,0
385,351,0,0,0,0,0,0,0,0,0,-1,1609,673,0,0
392,351,0,0,0,0,0,0,0,0,0,-1,1616,673,0,0
399,351,0,0,0,0,0,0,0,0,0,-1,1623,673,0,0
406,351,0,0,0,0,0,0,0,0,0,-1,1630,673,0,0
413,351,0,0,0,0,0,0,0,0,0,-1,1637,673,0,0
420,351,0,0,0,0,0,0,0,0,0,-1,1644,673,0,0
427,351,0,0,0,0,0,0,0,0,0,-1,1651,673,0,0
434,351,0,0,0,0,0,0,0,0,0,-1,1658,673,0,0
441,351,0,0,0,0,0,0,0,0,0,-1,1665,673,0,0
448,351,0,0,0,0,0,0,0,0,0,-1,1672,673,0,0
455,351,0,0,0,0,0,0,0,0,0,-1,1679,673,0,0
462,351,0,0,0,0,0,0,0,0,0,-1,1686,673,0,0
469,351,0,0,0,0,0,0,0,0,0,-1,1693,673,0,0
476,351,0,0,0,0,0,0,0,0,0,-1,1700,673,0,0
483,351,0,0,0,0,0,0,0,0,0,-1,1707,673,0,0
490,351,0,0,0,0,0,0,0,0,0,-1,1714,673,0,0
497,351,0,0,0,0,0,0,0,0,0,-1,1721,673,0,0
504,351,2.41284,1.34906,0,0,0,0,0,0,0,-1,1728,673,2.41282,-1.34907
511,351,6.07959,1.03119,0,0,0,0,0,0,0,-1,1735,673,6.07956,-1.03119
518,351,6.09729,0.704895,0,0,0,0,0,0,0,-1,1742,673,6.09725,-0.704875
525,351,6.13928,0.344666,0.0403678,0.020336,-0.0448539,0.0763105,-0.0156067,-0.67555,0.0567952,0.0478167,1749,673,6.13929,-0.344687
532,351,6.33435,-0.128357,0.033885,0.0185123,-0.0370787,0.0640657,-0.0116683,-0.683197,0.0470843,0.045177,1756,673,6.33433,0.128337
539,351,6.40613,-0.523926,0,0,0,0,0,0,0,-1,1763,673,6.40607,0.523954
546,351,5.33875,0.0795288,0,0,0,0,0,0,0,-1,1770,673,5.33871,-0.079527
553,351,4.45728,0.161682,0,0,0,0,0,0,0,-1,1777,673,4.45731,-0.161668
560,351,3.87048,-0.0286255,0,0,0,0,0,0,0,-1,1784,673,3.87053,0.0286006
567,351,3.62915,-0.00567627,0,0,0,0,0,0,0,-1,1791,673,3.62915,0.00568392
574,351,3.50256,-0.032959,0.00692386,0.00536528,-0.00683605,0.0130249,-0.000735755,-0.728645,0.00893861,0.0483703,1798,673,3.50255,0.0329485
581,351,3.48584,-0.0410767,0.00372266,0.00322256,-0.00390858,0.00738918,-0.000443954,-0.753454,0.00508057,0.0365372,1805,673,3.48588,0.0411061
588,351,3.47009,-0.043396,0.00152736,0.00200515,-0.00173213,0.00351478,1.77339e-05,-0.853926,0.0023373,0.0181198,1812,673,3.47005,0.0434207
595,351,3.47522,-0.024353,0.00072286,0.00114006,-0.000685216,0.00164773,0.000215196,-0.933157,0.00103424,0.0127371,1819,673,3.47524,0.0243245
602,351,3.45081,0.0411377,0.000238392,0.000175644,-0.000248807,0.000457795,-4.37592e-05,-0.722681,0.00032078,0.0160257,1826,673,3.45075,-0.0411457
609,351,3.44299,0.0559692,0.000301839,0.000385725,-0.000417365,0.000763249,-7.56852e-05,-0.835478,0.000535846,0.0154281,1833,673,3.44303,-0.05596
616,351,3.41748,0.0841675,0.0012858,0.000278927,-0.000447134,0.00145569,0.000109031,-0.363119,0.000936238,0.014175,1840,673,3.41748,-0.0841749
623,351,3.40735,0.166199,0.00261974,0.000456787,6.33293e-06,0.00261975,0.000456769,0.00292788,0.00161591,0.0141885,1847,673,3.40738,-0.166181
630,351,3.43323,0.186707,0.00402892,0.000801044,0.000576017,0.00412863,0.000701333,0.171405,0.00255098,0.0225422,1854,673,3.43326,-0.186697
637,351,3.4729,0.275513,0.00573987,0.00115517,0.00124891,0.00605801,0.000837029,0.249427,0.0037906,0.0277353,1861,673,3.47288,-0.2755
644,351,3.45044,0.309387,0.00768973,0.00133538,0.00184017,0.00818416,0.000840949,0.262487,0.00519852,0.0210809,1868,673,3.4504,-0.309399
651,351,3.46472,0.319031,0.00987587,0.00110433,0.00246634,0.0105218,0.000458423,0.256138,0.00686682,0.0152226,1875,673,3.46475,-0.319041
658,351,3.44568,0.408691,0.0123503,0.00124766,0.00348591,0.013354,0.000243927,0.280356,0.00882249,0.0157352,1882,673,3.44566,-0.408679
665,351,3.38513,0.401917,0.0145632,0.00134938,0.00405322,0.0157074,0.000205172,0.275136,0.0104039,0.0210078,1889,673,3.38518,-0.401904
672,351,3.41882,0.473389,0.0164376,0.000796788,0.00450229,0.017641,-0.00040663,0.261185,0.0118985,0.0281821,1896,673,3.41881,-0.473399
679,351,3.39404,0.565613,0.018367,0.000277759,0.00490758,0.0196127,-0.000967881,0.24857,0.0134094,0.0386381,1903,673,3.39406,-0.565594
686,351,3.36902,0.642151,0.0199414,-0.000466268,0.0051227,0.0211551,-0.00167997,0.232638,0.0146955,0.0439694,1910,673,3.36903,-0.642137
693,351,3.4895,0.670166,0.0208543,-0.00138107,0.0050268,0.021938,-0.00246468,0.212317,0.0155123,0.0436406,1917,673,3.48954,-0.670192
700,351,3.40979,0.734375,0.0205594,-0.00230577,0.00441726,0.0213831,-0.00312946,0.184352,0.0154049,0.045328,1924,673,3.40977,-0.734366
707,351,0,0,0,0,0,0,0,0,0,-1,1931,673,0,0
714,351,0,0,0,0,0,0,0,0,0,-1,1938,673,0,0
721,351,0,0,0,0,0,0,0,0,0,-1,1945,673,0,0
728,351,0,0,0,0,0,0,0,0,0,-1,1952,673,0,0
735,351,0,0,0,0,0,0,0,0,0,-1,1959,673,0,0
742,351,0,0,0,0,0,0,0,0,0,-1,1966,673,0,0
749,351,0,0,0,0,0,0,0,0,0,-1,1973,673,0,0
756,351,0,0,0,0,0,0,0,0,0,-1,1980,673,0,0
763,351,0,0,0,0,0,0,0,0,0,-1,1987,673,0,0
770,351,0,0,0,0,0,0,0,0,0,-1,1994,673,0,0
777,351,0,0,0,0,0,0,0,0,0,-1,2001,673,0,0
784,351,0,0,0,0,0,0,0,0,0,-1,2008,673,0,0
791,351,0,0,0,0,0,0,0,0,0,-1,2015,673,0,0
798,351,0,0,0,0,0,0,0,0,0,-1,2022,673,0,0
805,351,0,0,0,0,0,0,0,0,0,-1,2029,673,0,0
812,351,0,0,0,0,0,0,0,0,0,-1,2036,673,0,0
-700,344,0,0,0,0,0,0,0,0,0,-1,524,680,0,0
-693,344,0,0,0,0,0,0,0,0,0,-1,531,680,0,0
-686,344,0,0,0,0,0,0,0,0,0,-1,538,680,0,0
-679,344,0,0,0,0,0,0,0,0,0,-1,545,680,0,0
-672,344,0,0,0,0,0,0,0,0,0,-1,552,680,0,0
-665,344,0,0,0,0,0,0,0,0,0,-1,559,680,0,0
-658,344,0,0,0,0,0,0,0,0,0,-1,566,680,0,0
-651,344,0,0,0,0,0,0,0,0,0,-1,573,680,0,0
-644,344,0,0,0,0,0,0,0,0,0,-1,580,680,0,0
-637,344,0,0,0,0,0,0,0,0,0,-1,587,680,0,0
-630,344,0,0,0,0,0,0,0,0,0,-1,594,680,0,0
-623,344,0,0,0,0,0,0,0,0,0,-1,601,680,0,0
-616,344,0,0,0,0,0,0,0,0,0,-1,608,680,0,0
-609,344,0,0,0,0,0,0,0,0,0,-1,615,680,0,0
-602,344,0,0,0,0,0,0,0,0,0,-1,622,680,0,0
-595,344,0,0,0,0,0,0,0,0,0,-1,629,680,0,0
-588,344,0.242126,-0.842834,-0.0138912,-0.0407737,0.0237665,-2.83867e-05,-0.0546365,0.528045,0.0364149,0.0428021,636,680,0.242124,0.842828
-581,344,0.00439453,-0.477783,-0.00502922,-0.0230813,0.0164207,0.00468269,-0.0327932,0.534103,0.0235785,0.0453473,643,680,0.00438414,0.477805
-574,344,-1.16003,0.182007,0,0,0,0,0,0,0,-1,650,680,-1.16004,-0.181993
-567,344,-1.07098,0.342896,0,0,0,0,0,0,0,-1,657,680,-1.07101,-0.342924
-560,344,0.327332,-0.276306,0,0,0,0,0,0,0,-1,664,680,0.32734,0.276278
-553,344,0.407654,-0.00140381,0.00631819,0.00180693,0.00181199,0.00695586,0.00116926,0.338381,0.0043008,0.0449577,671,680,0.407683,0.001397
-546,344,0.455933,0.212585,0.00615986,0.003529,7.70551e-05,0.00616211,0.00352675,0.0292555,0.00357008,0.0412558,678,680,0.455952,-0.21261
-539,344,0.337463,0.424194,0.00550253,0.00395163,-0.000914826,0.00592634,0.00352782,-0.433836,0.00344222,0.0336022,685,680,0.337459,-0.424223
-532,344,0.352356,0.398865,0.0045773,0.0024694,-0.00085457,0.00488022,0.00216647,-0.340653,0.0028235,0.0167151,692,680,0.352372,-0.398865
-525,344,0.320923,0.365845,0.00373787,0.00113831,-0.000876399,0.00400574,0.000870444,-0.296622,0.00243281,0.0141694,699,680,0.320894,-0.365821
-518,344,0.313416,0.315613,0.00241593,0.000311316,-0.000816067,0.00269528,3.19645e-05,-0.329812,0.0017863,0.0185484,706,680,0.313389,-0.315625
-511,344,0.332275,0.266418,0.000366779,-0.000831661,-0.000275288,0.00042699,-0.000891871,-0.215326,0.000777053,0.0159944,713,680,0.332299,-0.266389
-504,344,0.337097,0.205994,-0.000680816,-0.00144629,-2.59116e-06,-0.000680807,-0.0014463,-0.003385,0.000835497,0.0161916,720,680,0.337121,-0.205984
-497,344,0.341064,0.16748,-0.00121014,-0.00156574,0.000546595,-0.000813157,-0.00196273,0.628154,0.00113872,0.0139757,727,680,0.341056,-0.16751
-490,344,0.318787,0.133301,-0.00158997,-0.00180934,0.00100174,-0.000691928,-0.00270738,0.730869,0.00162417,0.0119209,734,680,0.318784,-0.133308
-483,344,0.315247,0.108276,-0.00249644,-0.00246556,0.00131268,-0.00116823,-0.00379377,0.791279,0.00224355,0.0118493,741,680,0.315248,-0.108295
-476,344,0.301941,0.085083,-0.00489846,-0.00209267,0.00167029,-0.00131429,-0.00567685,1.1347,0.00343142,0.012797,748,680,0.301921,-0.0850724
-469,344,0.301331,0.0318604,-0.00789207,-0.00326514,0.00335043,-0.00150706,-0.00965015,1.08756,0.00599456,0.0102557,755,680,0.301324,-0.0318601
-462,344,0.306824,-0.0304565,-0.01235,-0.00382915,0.00466839,-0.00176937,-0.0144098,1.15527,0.00907443,0.0105597,762,680,0.306804,0.0304871
-455,344,0.277344,-0.0105591,-0.0176155,-0.00474394,0.00612126,-0.00229776,-0.0200616,1.19062,0.0126781,0.0236111,769,680,0.277356,0.010568
-448,344,0.231018,0.0969849,-0.0243796,-0.00577128,0.00780764,-0.00292938,-0.0272215,1.22171,0.0172543,0.0406605,776,680,0.230995,-0.0969696
-441,344,0.193542,0.0554199,-0.0313491,-0.00667536,0.0101347,-0.0030463,-0.0349782,1.22694,0.0223726,0.0457543,783,680,0.193554,-0.0554206
-434,344,-0.0836182,-0.0808105,-0.0381777,-0.00694611,0.0128645,-0.00232956,-0.0427942,1.22625,0.0277855,0.0471538,790,680,-0.0836424,0.0808401
-427,344,-0.692566,0.18335,-0.0454571,-0.00664212,0.0162503,-0.000737099,-0.0513621,1.22225,0.0339984,0.0445975,797,680,-0.692544,-0.183374
-420,344,-1.80103,0.369385,-0.051953,-0.0056732,0.0201126,0.00184586,-0.0594721,1.21304,0.0402775,0.0414694,804,680,-1.80104,-0.369401
-413,344,-2.86877,0.477478,-0.0581371,-0.00377079,0.0238279,0.00519424,-0.0671021,1.21094,0.0465628,0.0417748,811,680,-2.8688,-0.477472
-406,344,-3.53674,0.476135,-0.0624719,-1.13903e-05,0.0280415,0.0107304,-0.0732137,1.20497,0.052751,0.0437089,818,680,-3.53675,-0.47613
-399,344,-4.28357,0.0730591,-0.0641309,0.00526749,0.0326656,0.0182241,-0.0770875,1.19319,0.0584217,0.0438298,825,680,-4.28354,-0.0730639
-392,344,-5.20319,-0.0996094,0,0,0,0,0,0,0,-1,832,680,-5.20316,0.0996018
-385,344,0,0,0,0,0,0,0,0,0,-1,839,680,0,0
-378,344,0,0,0,0,0,0,0,0,0,-1,846,680,0,0
-371,344,0,0,0,0,0,0,0,0,0,-1,853,680,0,0
-364,344,0,0,0,0,0,0,0,0,0,-1,860,680,0,0
-357,344,0,0,0,0,0,0,0,0,0,-1,867,680,0,0
-350,344,0,0,0,0,0,0,0,0,0,-1,874,680,0,0
-343,344,0,0,0,0,0,0,0,0,0,-1,881,680,0,0
-336,344,0,0,0,0,0,0,0,0,0,-1,888,680,0,0
-329,344,0,0,0,0,0,0,0,0,0,-1,895,680,0,0
-322,344,0,0,0,0,0,0,0,0,0,-1,902,680,0,0
-315,344,0,0,0,0,0,0,0,0,0,-1,909,680,0,0
-308,344,0,0,0,0,0,0,0,0,0,-1,916,680,0,0
-301,344,0,0,0,0,0,0,0,0,0,-1,923,680,0,0
-294,344,0,0,0,0,0,0,0,0,0,-1,930,680,0,0
-287,344,0,0,0,0,0,0,0,0,0,-1,937,680,0,0
-280,344,0,0,0,0,0,0,0,0,0,-1,944,680,0,0
-273,344,0,0,0,0,0,0,0,0,0,-1,951,680,0,0
-266,344,0,0,0,0,0,0,0,0,0,-1,958,680,0,0
-259,344,0,0,0,0,0,0,0,0,0,-1,965,680,0,0
-252,344,0,0,0,0,0,0,0,0,0,-1,972,680,0,0
-245,344,0,0,0,0,0,0,0,0,0,-1,979,680,0,0
-238,344,0,0,0,0,0,0,0,0,0,-1,986,680,0,0
-231,344,0,0,0,0,0,0,0,0,0,-1,993,680,0,0
-224,344,0,0,0,0,0,0,0,0,0,-1,1000,680,0,0
-217,344,0,0,0,0,0,0,0,0,0,-1,1007,680,0,0
-210,344,0,0,0,0,0,0,0,0,0,-1,1014,680,0,0
-203,344,0,0,0,0,0,0,0,0,0,-1,1021,680,0,0
-196,344,0,0,0,0,0,0,0,0,0,-1,1028,680,0,0
-189,344,0,0,0,0,0,0,0,0,0,-1,1035,680,0,0
-182,344,0,0,0,0,0,0,0,0,0,-1,1042,680,0,0
-175,344,0,0,0,0,0,0,0,0,0,-1,1049,680,0,0
-168,344,0,0,0,0,0,0,0,0,0,-1,1056,680,0,0
-161,344,0,0,0,0,0,0,0,0,0,-1,1063,680,0,0
-154,344,0,0,0,0,0,0,0,0,0,-1,1070,680,0,0
-147,344,0,0,0,0,0,0,0,0,0,-1,1077,680,0,0
-140,344,0,0,0,0,0,0,0,0,0,-1,1084,680,0,0
-133,344,0,0,0,0,0,0,0,0,0,-1,1091,680,0,0
-126,344,0,0,0,0,0,0,0,0,0,-1,1098,680,0,0
-119,344,0,0,0,0,0,0,0,0,0,-1,1105,680,0,0
-112,344,0,0,0,0,0,0,0,0,0,-1,1112,680,0,0
-105,344,0,0,0,0,0,0,0,0,0,-1,1119,680,0,0
-98,344,0,0,0,0,0,0,0,0,0,-1,1126,680,0,0
-91,344,0,0,0,0,0,0,0,0,0,-1,1133,680,0,0
-84,344,0,0,0,0,0,0,0,0,0,-1,1140,680,0,0
-77,344,0,0,0,0,0,0,0,0,0,-1,1147,680,0,0
-70,344,0,0,0,0,0,0,0,0,0,-1,1154,680,0,0
-63,344,0,0,0,0,0,0,0,0,0,-1,1161,680,0,0
-56,344,0,0,0,0,0,0,0,0,0,-1,1168,680,0,0
-49,344,0,0,0,0,0,0,0,0,0,-1,1175,680,0,0
-42,344,0,0,0,0,0,0,0,0,0,-1,1182,680,0,0
-35,344,0,0,0,0,0,0,0,0,0,-1,1189,680,0,0
-28,344,0,0,0,0,0,0,0,0,0,-1,1196,680,0,0
-21,344,0,0,0,0,0,0,0,0,0,-1,1203,680,0,0
-14,344,0,0,0,0,0,0,0,0,0,-1,1210,680,0,0
-7,344,0,0,0,0,0,0,0,0,0,-1,1217,680,0,0
0,344,0,0,0,0,0,0,0,0,0,-1,1224,680,0,0
7,344,0,0,0,0,0,0,0,0,0,-1,1231,680,0,0
14,344,0,0,0,0,0,0,0,0,0,-1,1238,680,0,0
21,344,0,0,0,0,0,0,0,0,0,-1,1245,680,0,0
28,344,0,0,0,0,0,0,0,0,0,-1,1252,680,0,0
35,344,0,0,0,0,0,0,0,0,0,-1,1259,680,0,0
42,344,0,0,0,0,0,0,0,0,0,-1,1266,680,0,0
49,344,0,0,0,0,0,0,0,0,0,-1,1273,680,0,0
56,344,0,0,0,0,0,0,0,0,0,-1,1280,680,0,0
63,344,0,0,0,0,0,0,0,0,0,-1,1287,680,0,0
70,344,0,0,0,0,0,0,0,0,0,-1,1294,680,0,0
77,344,0,0,0,0,0,0,0,0,0,-1,1301,680,0,0
84,344,0,0,0,0,0,0,0,0,0,-1,1308,680,0,0
91,344,0,0,0,0,0,0,0,0,0,-1,1315,680,0,0
98,344,0,0,0,0,0,0,0,0,0,-1,1322,680,0,0
105,344,0,0,0,0,0,0,0,0,0,-1,1329,680,0,0
112,344,0,0,0,0,0,0,0,0,0,-1,1336,680,0,0
119,344,0,0,0,0,0,0,0,0,0,-1,1343,680,0,0
126,344,0,0,0,0,0,0,0,0,0,-1,1350,680,0,0
133,344,0,0,0,0,0,0,0,0,0,-1,1357,680,0,0
140,344,0,0,0,0,0,0,0,0,0,-1,1364,680,0,0
147,344,0,0,0,0,0,0,0,0,0,-1,1371,680,0,0
154,344,0,0,0,0,0,0,0,0,0,-1,1378,680,0,0
161,344,0,0,0,0,0,0,0,0,0,-1,1385,680,0,0
168,344,0,0,0,0,0,0,0,0,0,-1,1392,680,0,0
175,344,0,0,0,0,0,0,0,0,0,-1,1399,680,0,0
182,344,0,0,0,0,0,0,0,0,0,-1,1406,680,0,0
189,344,0,0,0,0,0,0,0,0,0,-1,1413,680,0,0
196,344,0,0,0,0,0,0,0,0,0,-1,1420,680,0,0
203,344,0,0,0,0,0,0,0,0,0,-1,1427,680,0,0
210,344,0,0,0,0,0,0,0,0,0,-1,1434,680,0,0
217,344,0,0,0,0,0,0,0,0,0,-1,1441,680,0,0
224,344,0,0,0,0,0,0,0,0,0,-1,1448,680,0,0
231,344,0,0,0,0,0,0,0,0,0,-1,1455,680,0,0
238,344,0,0,0,0,0,0,0,0,0,-1,1462,680,0,0
245,344,0,0,0,0,0,0,0,0,0,-1,1469,680,0,0
252,344,0,0,0,0,0,0,0,0,0,-1,1476,680,0,0
259,344,0,0,0,0,0,0,0,0,0,-1,1483,680,0,0
266,344,0,0,0,0,0,0,0,0,0,-1,1490,680,0,0
273,344,0,0,0,0,0,0,0,0,0,-1,1497,680,0,0
280,344,0,0,0,0,0,0,0,0,0,-1,1504,680,0,0
287,344,0,0,0,0,0,0,0,0,0,-1,1511,680,0,0
294,344,0,0,0,0,0,0,0,0,0,-1,1518,680,0,0
301,344,0,0,0,0,0,0,0,0,0,-1,1525,680,0,0
308,344,0,0,0,0,0,0,0,0,0,-1,1532,680,0,0
315,344,0,0,0,0,0,0,0,0,0,-1,1539,680,0,0
322,344,0,0,0,0,0,0,0,0,0,-1,1546,680,0,0
329,344,0,0,0,0,0,0,0,0,0,-1,1553,680,0,0
336,344,0,0,0,0,0,0,0,0,0,-1,1560,680,0,0
343,344,0,0,0,0,0,0,0,0,0,-1,1567,680,0,0
350,344,0,0,0,0,0,0,0,0,0,-1,1574,680,0,0
357,344,0,0,0,0,0,0,0,0,0,-1,1581,680,0,0
364,344,0,0,0,0,0,0,0,0,0,-1,1588,680,0,0
371,344,0,0,0,0,0,0,0,0,0,-1,1595,680,0,0
378,344,0,0,0,0,0,0,0,0,0,-1,1602,680,0,0
385,344,0,0,0,0,0,0,0,0,0,-1,1609,680,0,0
392,344,0,0,0,0,0,0,0,0,0,-1,1616,680,0,0
399,344,0,0,0,0,0,0,0,0,0,-1,1623,680,0,0
406,344,0,0,0,0,0,0,0,0,0,-1,1630,680,0,0
413,344,0,0,0,0,0,0,0,0,0,-1,1637,680,0,0
420,344,0,0,0,0,0,0,0,0,0,-1,1644,680,0,0
427,344,0,0,0,0,0,0,0,0,0,-1,1651,680,0,0
434,344,0,0,0,0,0,0,0,0,0,-1,1658,680,0,0
441,344,0,0,0,0,0,0,0,0,0,-1,1665,680,0,0
448,344,0,0,0,0,0,0,0,0,0,-1,1672,680,0,0
455,344,0,0,0,0,0,0,0,0,0,-1,1679,680,0,0
462,344,0,0,0,0,0,0,0,0,0,-1,1686,680,0,0
469,344,0,0,0,0,0,0,0,0,0,-1,1693,680,0,0
476,344,0,0,0,0,0,0,0,0,0,-1,1700,680,0,0
483,344,0,0,0,0,0,0,0,0,0,-1,1707,680,0,0
490,344,0,0,0,0,0,0,0,0,0,-1,1714,680,0,0
497,344,0,0,0,0,0,0,0,0,0,-1,1721,680,0,0
504,344,0,0,0,0,0,0,0,0,0,-1,1728,680,0,0
511,344,3.73804,1.44196,0,0,0,0,0,0,0,-1,1735,680,3.73804,-1.44196
518,344,6.30823,0.704956,0,0,0,0,0,0,0,-1,1742,680,6.30822,-0.704957
525,344,6.34692,0.360901,0,0,0,0,0,0,0,-1,1749,680,6.34697,-0.360901
532,344,6.55847,-0.256348,0,0,0,0,0,0,0,-1,1756,680,6.55848,0.256356
539,344,3.3396,1.32141,0,0,0,0,0,0,0,-1,1763,680,3.3396,-1.32142
546,344,5.14246,-0.413086,0,0,0,0,0,0,0,-1,1770,680,5.14245,0.413108
553,344,4.76465,-0.112244,0,0,0,0,0,0,0,-1,1777,680,4.76463,0.112225
560,344,4.45117,0.130127,0,0,0,0,0,0,0,-1,1784,680,4.45118,-0.130151
567,344,4.1377,0.372498,0,0,0,0,0,0,0,-1,1791,680,4.13773,-0.372526
574,344,3.43005,0.00439453,0.00747647,0.00774134,-0.0052345,0.0128451,0.00237273,-0.798046,0.00789228,0.0486253,1798,680,3.43,-0.0043806
581,344,3.58337,-0.0643311,0.00430794,0.00539992,-0.00292299,0.00782748,0.00188038,-0.87773,0.00471813,0.0426648,1805,680,3.5834,0.064313
588,344,3.6366,-0.0205688,0.00201682,0.0039272,-0.00127351,0.00456393,0.00138009,-1.10716,0.00270272,0.0323623,1812,680,3.63659,0.0205864
595,344,3.5647,-0.00518799,0.00102349,0.00271624,-0.000636475,0.00292885,0.000810879,-1.24841,0.0017462,0.0167046,1819,680,3.56465,0.00521263
602,344,3.57922,0.0667725,0.000327807,0.00147434,-0.000489669,0.001655,0.000147143,-1.21734,0.0010577,0.0170047,1826,680,3.57923,-0.0668001
609,344,3.53064,0.078064,0.000173504,0.00132866,-0.000789521,0.00172932,-0.000227151,-1.10119,0.00123557,0.0147869,1833,680,3.53062,-0.0780817
616,344,3.49207,0.106812,0.000837909,0.000643811,-0.000950012,0.00169582,-0.000214096,-0.734497,0.00120825,0.0204038,1840,680,3.49202,-0.106842
623,344,3.47131,0.183228,0.0017499,0.000407286,-0.000498019,0.00191446,0.000242725,-0.319136,0.00120359,0.0172824,1847,680,3.47134,-0.183255
630,344,3.47473,0.184265,0.00266197,0.000544702,0.000128564,0.00266975,0.000536924,0.0604255,0.0016306,0.0226663,1854,680,3.47473,-0.184255
637,344,3.51135,0.236633,0.00379176,0.000767933,0.000850731,0.00401467,0.000545019,0.256265,0.00251454,0.0228869,1861,680,3.51138,-0.236608
644,344,3.50867,0.298828,0.00509604,0.000803558,0.00146411,0.00554787,0.00035173,0.299331,0.00358709,0.0159232,1868,680,3.50864,-0.298841
651,344,3.48853,0.335388,0.0065851,0.00046765,0.00206015,0.0072142,-0.000161446,0.296371,0.00486417,0.0115092,1875,680,3.48853,-0.335413
658,344,3.48877,0.410706,0.00832366,0.000542786,0.00303458,0.00936721,-0.000500759,0.331216,0.00641824,0.0151996,1882,680,3.48881,-0.410716
665,344,3.46936,0.461121,0.00971143,0.00057731,0.00348184,0.0108873,-0.000598563,0.325689,0.00746572,0.0191455,1889,680,3.4694,-0.461135
672,344,3.45886,0.480713,0.0106968,-9.50124e-05,0.00378758,0.0118934,-0.00129165,0.306012,0.0083927,0.0139712,1896,680,3.45885,-0.480732
679,344,3.4613,0.524292,0.0117842,-0.00066913,0.00404741,0.012984,-0.00186897,0.288193,0.00934151,0.0295776,1903,680,3.4613,-0.524282
686,344,3.42249,0.737549,0.0125179,-0.00147923,0.0041078,0.0136343,-0.00259571,0.265385,0.010067,0.0414893,1910,680,3.42248,-0.737577
693,344,3.45667,0.924011,0.0126017,-0.00245045,0.00381704,0.0135144,-0.00336307,0.234685,0.010315,0.0452831,1917,680,3.45672,-0.924034
700,344,3.7074,1.07806,0.011577,-0.00352419,0.0029596,0.0121363,-0.00408351,0.186782,0.00974162,0.0435954,1924,680,3.70742,-1.07805
707,344,3.98694,1.8418,0.00886535,-0.00461962,0.00129196,0.00898801,-0.00474228,0.0946603,0.00805253,0.0436578,1931,680,3.98691,-1.84179
714,344,0,0,0,0,0,0,0,0,0,-1,1938,680,0,0
721,344,0,0,0,0,0,0,0,0,0,-1,1945,680,0,0
728,344,0,0,0,0,0,0,0,0,0,-1,1952,680,0,0
735,344,0,0,0,0,0,0,0,0,0,-1,1959,680,0,0
742,344,0,0,0,0,0,0,0,0,0,-1,1966,680,0,0
749,344,0,0,0,0,0,0,0,0,0,-1,1973,680,0,0
756,344,0,0,0,0,0,0,0,0,0,-1,1980,680,0,0
763,344,0,0,0,0,0,0,0,0,0,-1,1987,680,0,0
770,344,0,0,0,0,0,0,0,0,0,-1,1994,680,0,0
777,344,0,0,0,0,0,0,0,0,0,-1,2001,680,0,0
784,344,0,0,0,0,0,0,0,0,0,-1,2008,680,0,0
791,344,0,0,0,0,0,0,0,0,0,-1,2015,680,0,0
798,344,0,0,0,0,0,0,0,0,0,-1,2022,680,0,0
805,344,0,0,0,0,0,0,0,0,0,-1,2029,680,0,0
812,344,0,0,0,0,0,0,0,0,0,-1,2036,680,0,0
-700,337,0,0,0,0,0,0,0,0,0,-1,524,687,0,0
-693,337,0,0,0,0,0,0,0,0,0,-1,531,687,0,0
-686,337,0,0,0,0,0,0,0,0,0,-1,538,687,0,0
-679,337,0,0,0,0,0,0,0,0,0,-1,545,687,0,0
-672,337,0,0,0,0,0,0,0,0,0,-1,552,687,0,0
-665,337,0,0,0,0,0,0,0,0,0,-1,559,687,0,0
-658,337,0,0,0,0,0,0,0,0,0,-1,566,687,0,0
-651,337,0,0,0,0,0,0,0,0,0,-1,573,687,0,0
-644,337,0,0,0,0,0,0,0,0,0,-1,580,687,0,0
-637,337,0,0,0,0,0,0,0,0,0,-1,587,687,0,0
-630,337,0,0,0,0,0,0,0,0,0,-1,594,687,0,0
-623,337,0,0,0,0,0,0,0,0,0,-1,601,687,0,0
-616,337,0,0,0,0,0,0,0,0,0,-1,608,687,0,0
-609,337,0,0,0,0,0,0,0,0,0,-1,615,687,0,0
-602,337,0,0,0,0,0,0,0,0,0,-1,622,687,0,0
-595,337,0,0,0,0,0,0,0,0,0,-1,629,687,0,0
-588,337,0.664612,-0.668579,-0.0122747,-0.0514518,0.0246577,-0.000371799,-0.0633547,0.449734,0.0421131,0.048257,636,687,0.664612,0.668606
-581,337,0.508179,-0.647339,-0.00397713,-0.0321433,0.0174709,0.00438002,-0.0405005,0.446176,0.0285724,0.0484541,643,687,0.508192,0.647311
-574,337,-0.878235,0.301208,0,0,0,0,0,0,0,-1,650,687,-0.878206,-0.301205
-567,337,-0.78595,0.467712,0.00465155,-0.00983081,0.00780337,0.0080559,-0.0132352,0.411375,0.012413,0.045264,657,687,-0.785961,-0.467725
-560,337,0.532898,0.857727,0.00611748,-0.00432476,0.00476481,0.00796485,-0.00617213,0.369867,0.00818383,0.0473966,664,687,0.532869,-0.857717
-553,337,0.531921,0.691895,0.00641236,-0.00118759,0.00261033,0.00722255,-0.00199779,0.300952,0.00560101,0.0440287,671,687,0.531912,-0.691915
-546,337,0.249573,0.442078,0.00615693,0.00174149,0.000722345,0.00627209,0.00162632,0.158106,0.00375847,0.0362865,678,687,0.24956,-0.442104
-539,337,0.25946,0.429382,0.00532927,0.00295942,-0.000410637,0.00539841,0.00289029,-0.1668,0.00311938,0.0211047,685,687,0.25943,-0.429386
-532,337,0.278259,0.393738,0.00417243,0.00179398,-0.0004161,0.00424313,0.00172329,-0.168289,0.00246412,0.0118924,692,687,0.278287,-0.393722
-525,337,0.27063,0.361633,0.00305055,0.000704673,-0.000456625,0.0031363,0.000618925,-0.185624,0.00191813,0.0135134,699,687,0.270606,-0.36163
-518,337,0.26532,0.317383,0.00144912,6.23635e-05,-0.000332637,0.00152478,-1.32973e-05,-0.223652,0.00102098,0.0200156,706,687,0.265324,-0.317412
-511,337,0.273682,0.24762,-0.000746585,-0.0012038,0.00015786,-0.000697377,-0.00125301,0.302169,0.000724967,0.0206623,713,687,0.273712,-0.247625
-504,337,0.279846,0.166687,-0.00185532,-0.00198234,0.000418437,-0.0014956,-0.00234206,0.710082,0.00136939,0.02127,720,687,0.279856,-0.166689
-497,337,0.295349,0.144775,-0.00239811,-0.00239559,0.00102031,-0.00137654,-0.00341716,0.786016,0.00198528,0.0146035,727,687,0.295376,-0.144772
-490,337,0.258484,0.125305,-0.00275539,-0.00288481,0.00154567,-0.00127308,-0.00436712,0.764477,0.00259339,0.0119734,734,687,0.258459,-0.125316
-483,337,0.277588,0.0889893,-0.00368615,-0.00382558,0.00193918,-0.00181543,-0.0056963,0.767431,0.00336005,0.0125039,741,687,0.277602,-0.0889708
-476,337,0.282593,0.0668335,-0.006394,-0.00337494,0.00233452,-0.00210442,-0.00766452,1.07239,0.00457258,0.0113739,748,687,0.2826,-0.0668129
-469,337,0.2677,0.0258179,-0.00975593,-0.00458232,0.00408114,-0.00233722,-0.012001,1.06786,0.0073466,0.0100652,755,687,0.267714,-0.0258299
-462,337,0.26709,0.0133667,-0.0146162,-0.00494169,0.00539537,-0.00253263,-0.0170252,1.15085,0.0106072,0.0195067,762,687,0.26708,-0.0133478
-455,337,0.221619,0.0438232,-0.0204811,-0.00544857,0.00678309,-0.00284037,-0.0230892,1.20371,0.0145388,0.0409965,769,687,0.221623,-0.0438191
-448,337,0.170715,0.0597534,0,0,0,0,0,0,0,-1,776,687,0.170685,-0.0597539
-441,337,0.239563,0.2276,-0.0362219,-0.00581208,0.0104913,-0.00254386,-0.0394901,1.26881,0.0255211,0.0478817,783,687,0.239564,-0.227609
-434,337,-0.273071,-0.212463,-0.044663,-0.00514934,0.012917,-0.00130148,-0.0485108,1.28128,0.0319156,0.0438255,790,687,-0.273085,0.212452
-427,337,-1.08386,0.185852,-0.0540566,-0.00389257,0.0158194,0.00067945,-0.0586286,1.28945,0.0393142,0.0432449,797,687,-1.08388,-0.18586
-420,337,-1.79626,0.0239258,0,0,0,0,0,0,0,-1,804,687,-1.79624,-0.0239055
-413,337,-3.06641,0.429321,-0.0720791,0.000213072,0.0218444,0.00630106,-0.0781671,1.299,0.0543337,0.0452181,811,687,-3.0664,-0.429333
-406,337,-3.73376,0.640869,-0.0801615,0.00461302,0.0249575,0.0114148,-0.0869633,1.30473,0.062131,0.044302,818,687,-3.73377,-0.640883
-399,337,-4.74316,0.328857,-0.0857212,0.00940201,0.0282424,0.0171553,-0.0934745,1.30287,0.068752,0.0434086,825,687,-4.74314,-0.328883
-392,337,0,0,0,0,0,0,0,0,0,-1,832,687,0,0
-385,337,0,0,0,0,0,0,0,0,0,-1,839,687,0,0
-378,337,0,0,0,0,0,0,0,0,0,-1,846,687,0,0
-371,337,0,0,0,0,0,0,0,0,0,-1,853,687,0,0
-364,337,0,0,0,0,0,0,0,0,0,-1,860,687,0,0
-357,337,0,0,0,0,0,0,0,0,0,-1,867,687,0,0
-350,337,0,0,0,0,0,0,0,0,0,-1,874,687,0,0
-343,337,0,0,0,0,0,0,0,0,0,-1,881,687,0,0
-336,337,0,0,0,0,0,0,0,0,0,-1,888,687,0,0
-329,337,0,0,0,0,0,0,0,0,0,-1,895,687,0,0
-322,337,0,0,0,0,0,0,0,0,0,-1,902,687,0,0
-315,337,0,0,0,0,0,0,0,0,0,-1,909,687,0,0
-308,337,0,0,0,0,0,0,0,0,0,-1,916,687,0,0
-301,337,0,0,0,0,0,0,0,0,0,-1,923,687,0,0
-294,337,0,0,0,0,0,0,0,0,0,-1,930,687,0,0
-287,337,0,0,0,0,0,0,0,0,0,-1,937,687,0,0
-280,337,0,0,0,0,0,0,0,0,0,-1,944,687,0,0
-273,337,0,0,0,0,0,0,0,0,0,-1,951,687,0,0
-266,337,0,0,0,0,0,0,0,0,0,-1,958,687,0,0
-259,337,0,0,0,0,0,0,0,0,0,-1,965,687,0,0
-252,337,0,0,0,0,0,0,0,0,0,-1,972,687,0,0
-245,337,0,0,0,0,0,0,0,0,0,-1,979,687,0,0
-238,337,0,0,0,0,0,0,0,0,0,-1,986,687,0,0
-231,337,0,0,0,0,0,0,0,0,0,-1,993,687,0,0
-224,337,0,0,0,0,0,0,0,0,0,-1,1000,687,0,0
-217,337,0,0,0,0,0,0,0,0,0,-1,1007,687,0,0
-210,337,0,0,0,0,0,0,0,0,0,-1,1014,687,0,0
-203,337,0,0,0,0,0,0,0,0,0,-1,1021,687,0,0
-196,337,0,0,0,0,0,0,0,0,0,-1,1028,687,0,0
-189,337,0,0,0,0,0,0,0,0,0,-1,1035,687,0,0
-182,337,0,0,0,0,0,0,0,0,0,-1,1042,687,0,0
-175,337,0,0,0,0,0,0,0,0,0,-1,1049,687,0,0
-168,337,0,0,0,0,0,0,0,0,0,-1,1056,687,0,0
-161,337,0,0,0,0,0,0,0,0,0,-1,1063,687,0,0
-154,337,0,0,0,0,0,0,0,0,0,-1,1070,687,0,0
-147,337,0,0,0,0,0,0,0,0,0,-1,1077,687,0,0
-140,337,0,0,0,0,0,0,0,0,0,-1,1084,687,0,0
-133,337,0,0,0,0,0,0,0,0,0,-1,1091,687,0,0
-126,337,0,0,0,0,0,0,0,0,0,-1,1098,687,0,0
-119,337,0,0,0,0,0,0,0,0,0,-1,1105,687,0,0
-112,337,0,0,0,0,0,0,0,0,0,-1,1112,687,0,0
-105,337,0,0,0,0,0,0,0,0,0,-1,1119,687,0,0
-98,337,0,0,0,0,0,0,0,0,0,-1,1126,687,0,0
-91,337,0,0,0,0,0,0,0,0,0,-1,1133,687,0,0
-84,337,0,0,0,0,0,0,0,0,0,-1,1140,687,0,0
-77,337,0,0,0,0,0,0,0,0,0,-1,1147,687,0,0
-70,337,0,0,0,0,0,0,0,0,0,-1,1154,687,0,0
-63,337,0,0,0,0,0,0,0,0,0,-1,1161,687,0,0
-56,337,0,0,0,0,0,0,0,0,0,-1,1168,687,0,0
-49,337,0,0,0,0,0,0,0,0,0,-1,1175,687,0,0
-42,337,0,0,0,0,0,0,0,0,0,-1,1182,687,0,0
-35,337,0,0,0,0,0,0,0,0,0,-1,1189,687,0,0
-28,337,0,0,0,0,0,0,0,0,0,-1,1196,687,0,0
-21,337,0,0,0,0,0,0,0,0,0,-1,1203,687,0,0
-14,337,0,0,0,0,0,0,0,0,0,-1,1210,687,0,0
-7,337,0,0,0,0,0,0,0,0,0,-1,1217,687,0,0
0,337,0,0,0,0,0,0,0,0,0,-1,1224,687,0,0
7,337,0,0,0,0,0,0,0,0,0,-1,1231,687,0,0
14,337,0,0,0,0,0,0,0,0,0,-1,1238,687,0,0
21,337,0,0,0,0,0,0,0,0,0,-1,1245,687,0,0
28,337,0,0,0,0,0,0,0,0,0,-1,1252,687,0,0
35,337,0,0,0,0,0,0,0,0,0,-1,1259,687,0,0
42,337,0,0,0,0,0,0,0,0,0,-1,1266,687,0,0
49,337,0,0,0,0,0,0,0,0,0,-1,1273,687,0,0
56,337,0,0,0,0,0,0,0,0,0,-1,1280,687,0,0
63,337,0,0,0,0,0,0,0,0,0,-1,1287,687,0,0
70,337,0,0,0,0,0,0,0,0,0,-1,1294,687,0,0
77,337,0,0,0,0,0,0,0,0,0,-1,1301,687,0,0
84,337,0,0,0,0,0,0,0,0,0,-1,1308,687,0,0
91,337,0,0,0,0,0,0,0,0,0,-1,1315,687,0,0
98,337,0,0,0,0,0,0,0,0,0,-1,1322,687,0,0
105,337,0,0,0,0,0,0,0,0,0,-1,1329,687,0,0
112,337,0,0,0,0,0,0,0,0,0,-1,1336,687,0,0
119,337,0,0,0,0,0,0,0,0,0,-1,1343,687,0,0
126,337,0,0,0,0,0,0,0,0,0,-1,1350,687,0,0
133,337,0,0,0,0,0,0,0,0,0,-1,1357,687,0,0
140,337,0,0,0,0,0,0,0,0,0,-1,1364,687,0,0
147,337,0,0,0,0,0,0,0,0,0,-1,1371,687,0,0
154,337,0,0,0,0,0,0,0,0,0,-1,1378,687,0,0
161,337,0,0,0,0,0,0,0,0,0,-1,1385,687,0,0
168,337,0,0,0,0,0,0,0,0,0,-1,1392,687,0,0
175,337,0,0,0,0,0,0,0,0,0,-1,1399,687,0,0
182,337,0,0,0,0,0,0,0,0,0,-1,1406,687,0,0
189,337,0,0,0,0,0,0,0,0,0,-1,1413,687,0,0
196,337,0,0,0,0,0,0,0,0,0,-1,1420,687,0,0
203,337,0,0,0,0,0,0,0,0,0,-1,1427,687,0,0
210,337,0,0,0,0,0,0,0,0,0,-1,1434,687,0,0
217,337,0,0,0,0,0,0,0,0,0,-1,1441,687,0,0
224,337,0,0,0,0,0,0,0,0,0,-1,1448,687,0,0
231,337,0,0,0,0,0,0,0,0,0,-1,1455,687,0,0
238,337,0,0,0,0,0,0,0,0,0,-1,1462,687,0,0
245,337,0,0,0,0,0,0,0,0,0,-1,1469,687,0,0
252,337,0,0,0,0,0,0,0,0,0,-1,1476,687,0,0
259,337,0,0,0,0,0,0,0,0,0,-1,1483,687,0,0
266,337,0,0,0,0,0,0,0,0,0,-1,1490,687,0,0
273,337,0,0,0,0,0,0,0,0,0,-1,1497,687,0,0
280,337,0,0,0,0,0,0,0,0,0,-1,1504,687,0,0
287,337,0,0,0,0,0,0,0,0,0,-1,1511,687,0,0
294,337,0,0,0,0,0,0,0,0,0,-1,1518,687,0,0
301,337,0,0,0,0,0,0,0,0,0,-1,1525,687,0,0
308,337,0,0,0,0,0,0,0,0,0,-1,1532,687,0,0
315,337,0,0,0,0,0,0,0,0,0,-1,1539,687,0,0
322,337,0,0,0,0,0,0,0,0,0,-1,1546,687,0,0
329,337,0,0,0,0,0,0,0,0,0,-1,1553,687,0,0
336,337,0,0,0,0,0,0,0,0,0,-1,1560,687,0,0
343,337,0,0,0,0,0,0,0,0,0,-1,1567,687,0,0
350,337,0,0,0,0,0,0,0,0,0,-1,1574,687,0,0
357,337,0,0,0,0,0,0,0,0,0,-1,1581,687,0,0
364,337,0,0,0,0,0,0,0,0,0,-1,1588,687,0,0
371,337,0,0,0,0,0,0,0,0,0,-1,1595,687,0,0
378,337,0,0,0,0,0,0,0,0,0,-1,1602,687,0,0
385,337,0,0,0,0,0,0,0,0,0,-1,1609,687,0,0
392,337,0,0,0,0,0,0,0,0,0,-1,1616,687,0,0
399,337,0,0,0,0,0,0,0,0,0,-1,1623,687,0,0
406,337,0,0,0,0,0,0,0,0,0,-1,1630,687,0,0
413,337,0,0,0,0,0,0,0,0,0,-1,1637,687,0,0
420,337,0,0,0,0,0,0,0,0,0,-1,1644,687,0,0
427,337,0,0,0,0,0,0,0,0,0,-1,1651,687,0,0
434,337,0,0,0,0,0,0,0,0,0,-1,1658,687,0,0
441,337,0,0,0,0,0,0,0,0,0,-1,1665,687,0,0
448,337,0,0,0,0,0,0,0,0,0,-1,1672,687,0,0
455,337,0,0,0,0,0,0,0,0,0,-1,1679,687,0,0
462,337,0,0,0,0,0,0,0,0,0,-1,1686,687,0,0
469,337,0,0,0,0,0,0,0,0,0,-1,1693,687,0,0
476,337,0,0,0,0,0,0,0,0,0,-1,1700,687,0,0
483,337,0,0,0,0,0,0,0,0,0,-1,1707,687,0,0
490,337,0,0,0,0,0,0,0,0,0,-1,1714,687,0,0
497,337,0,0,0,0,0,0,0,0,0,-1,1721,687,0,0
504,337,0,0,0,0,0,0,0,0,0,-1,1728,687,0,0
511,337,0,0,0,0,0,0,0,0,0,-1,1735,687,0,0
518,337,4.58276,0.287781,0,0,0,0,0,0,0,-1,1742,687,4.58277,-0.28776
525,337,4.81335,0.100525,0.0430667,0.0215287,-0.0296921,0.0638824,0.000712998,-0.611431,0.0423526,0.0467156,1749,687,4.8134,-0.10054
532,337,4.99792,-0.0806885,0.0366739,0.0206839,-0.0244985,0.054449,0.0029088,-0.627674,0.0353696,0.0428448,1756,687,4.99791,0.0806727
539,337,4.67554,-0.319641,0,0,0,0,0,0,0,-1,1763,687,4.67558,0.319656
546,337,5.12732,-0.497009,0.0246911,0.0173126,-0.014602,0.0360627,0.00594099,-0.661661,0.0223265,0.0433784,1770,687,5.12738,0.497001
553,337,5.57263,-0.673706,0.0196209,0.0155373,-0.0108701,0.0286392,0.00651887,-0.692561,0.0173334,0.0421185,1777,687,5.57268,0.673733
560,337,4.91321,0.0842896,0,0,0,0,0,0,0,-1,1784,687,4.91315,-0.0842899
567,337,2.94373,0.600159,0,0,0,0,0,0,0,-1,1791,687,2.94372,-0.600173
574,337,3.55872,-0.258179,0,0,0,0,0,0,0,-1,1798,687,3.5587,0.258175
581,337,3.73621,-0.109741,0.00520901,0.00705239,-0.00234606,0.00865131,0.00361009,-0.97257,0.00501757,0.0454081,1805,687,3.73622,0.109728
588,337,3.76782,-0.00878906,0.00281581,0.0054622,-0.00123427,0.0059485,0.00232951,-1.19548,0.00346116,0.0420377,1812,687,3.76787,0.00877916
595,337,3.63391,0.0632935,0.00158308,0.00406282,-0.000959646,0.00439082,0.00125509,-1.24146,0.0026114,0.0323149,1819,687,3.63391,-0.0633018
602,337,3.57434,0.0812378,0.000639349,0.00266573,-0.00105117,0.00311251,0.000192572,-1.1689,0.00201389,0.0145073,1826,687,3.57429,-0.081251
609,337,3.58777,0.10614,0.000234591,0.00230815,-0.00141926,0.00302899,-0.000486248,-1.10085,0.0021994,0.0163515,1833,687,3.58778,-0.10617
616,337,3.5481,0.14032,0.000587135,0.00108457,-0.00166567,0.00251998,-0.000848282,-0.85951,0.00202293,0.0164145,1840,687,3.54813,-0.140342
623,337,3.54102,0.176758,0.00110624,0.00048688,-0.00119325,0.00202934,-0.000436223,-0.658437,0.00151932,0.0140528,1847,687,3.54099,-0.176728
630,337,3.53162,0.199951,0.00157927,0.000436167,-0.000505443,0.0017707,0.000244734,-0.362047,0.00110794,0.0183743,1854,687,3.53167,-0.199942
637,337,3.55066,0.242859,0.00219284,0.000535322,0.000266934,0.00223477,0.000493395,0.155799,0.00135565,0.0163237,1861,687,3.55063,-0.242865
644,337,3.55811,0.312561,0.00293676,0.000444796,0.000917834,0.00323832,0.000143235,0.317446,0.00211276,0.010713,1868,687,3.55816,-0.312552
651,337,3.54724,0.34845,0.00383628,3.46992e-05,0.00151539,0.00436642,-0.000495437,0.336528,0.00308936,0.00977835,1875,687,3.54726,-0.348463
658,337,3.55457,0.390259,0.00496549,4.42986e-05,0.00247397,0.00599417,-0.000984385,0.394055,0.00436143,0.0116662,1882,687,3.55453,-0.390266
665,337,3.55371,0.440369,0.00570043,1.2718e-05,0.00285102,0.00688347,-0.00117032,0.393328,0.00502472,0.0142402,1889,687,3.55372,-0.440366
672,337,3.52173,0.474548,0.00599532,-0.000765348,0.00305137,0.00716883,-0.00193886,0.367148,0.00553978,0.0124505,1896,687,3.5217,-0.474555
679,337,3.45667,0.507568,0.00641084,-0.00129183,0.00318564,0.00755761,-0.00243861,0.34554,0.00601828,0.0277268,1903,687,3.45667,-0.507597
686,337,3.54968,0.976501,0.00647216,-0.00208986,0.00310148,0.00747757,-0.00309527,0.313482,0.00627658,0.0390362,1910,687,3.54971,-0.976481
693,337,3.70654,1.44415,0.0059226,-0.00304793,0.00263961,0.00664168,-0.00376701,0.265963,0.00608537,0.0417753,1917,687,3.70654,-1.44417
700,337,3.90845,1.51678,0.00432808,-0.00413449,0.00160576,0.00462253,-0.00442893,0.181354,0.00522626,0.0396913,1924,687,3.90848,-1.5168
707,337,3.88037,1.79333,0.00113545,-0.00529179,-0.000255189,0.00114556,-0.0053019,-0.0396211,0.00397191,0.04132,1931,687,3.88033,-1.79331
714,337,0,0,0,0,0,0,0,0,0,-1,1938,687,0,0
721,337,0,0,0,0,0,0,0,0,0,-1,1945,687,0,0
728,337,0,0,0,0,0,0,0,0,0,-1,1952,687,0,0
735,337,0,0,0,0,0,0,0,0,0,-1,1959,687,0,0
742,337,0,0,0,0,0,0,0,0,0,-1,1966,687,0,0
749,337,0,0,0,0,0,0,0,0,0,-1,1973,687,0,0
756,337,0,0,0,0,0,0,0,0,0,-1,1980,687,0,0
763,337,0,0,0,0,0,0,0,0,0,-1,1987,687,0,0
770,337,0,0,0,0,0,0,0,0,0,-1,1994,687,0,0
777,337,0,0,0,0,0,0,0,0,0,-1,2001,687,0,0
784,337,0,0,0,0,0,0,0,0,0,-1,2008,687,0,0
791,337,0,0,0,0,0,0,0,0,0,-1,2015,687,0,0
798,337,0,0,0,0,0,0,0,0,0,-1,2022,687,0,0
805,337,0,0,0,0,0,0,0,0,0,-1,2029,687,0,0
812,337,0,0,0,0,0,0,0,0,0,-1,2036,687,0,0
-700,330,0,0,0,0,0,0,0,0,0,-1,524,694,0,0
-693,330,0,0,0,0,0,0,0,0,0,-1,531,694,0,0
-686,330,0,0,0,0,0,0,0,0,0,-1,538,694,0,0
-679,330,0,0,0,0,0,0,0,0,0,-1,545,694,0,0
-672,330,0,0,0,0,0,0,0,0,0,-1,552,694,0,0
-665,330,0,0,0,0,0,0,0,0,0,-1,559,694,0,0
-658,330,0,0,0,0,0,0,0,0,0,-1,566,694,0,0
-651,330,0,0,0,0,0,0,0,0,0,-1,573,694,0,0
-644,330,0,0,0,0,0,0,0,0,0,-1,580,694,0,0
-637,330,0,0,0,0,0,0,0,0,0,-1,587,694,0,0
-630,330,0,0,0,0,0,0,0,0,0,-1,594,694,0,0
-623,330,0,0,0,0,0,0,0,0,0,-1,601,694,0,0
-616,330,0,0,0,0,0,0,0,0,0,-1,608,694,0,0
-609,330,0,0,0,0,0,0,0,0,0,-1,615,694,0,0
-602,330,0,0,0,0,0,0,0,0,0,-1,622,694,0,0
-595,330,4.12628,-10.0823,0,0,0,0,0,0,0,-1,629,694,4.12628,10.0823
-588,330,4.14313,-9.65289,0,0,0,0,0,0,0,-1,636,694,4.14315,9.65292
-581,330,0.882507,-0.858887,0,0,0,0,0,0,0,-1,643,694,0.882509,0.858892
-574,330,-0.921936,0.234192,0,0,0,0,0,0,0,-1,650,694,-0.921936,-0.234167
-567,330,-0.614624,0.452393,0.00514406,-0.015327,0.00916238,0.00864589,-0.0188288,0.365065,0.0162216,0.0430744,657,694,-0.614647,-0.452378
-560,330,0.143188,0.640137,0.00632724,-0.00859344,0.00589463,0.00837497,-0.0106412,0.334347,0.0110049,0.0384001,664,694,0.143201,-0.640151
-553,330,0.232849,0.585693,0.00647118,-0.00429689,0.00349024,0.0075035,-0.00532921,0.287575,0.00744433,0.0330935,671,694,0.232869,-0.585669
-546,330,0.287292,0.486023,0.00613378,-0.00030909,0.00141861,0.00643231,-0.000607611,0.207406,0.00450442,0.021497,678,694,0.28732,-0.48603
-539,330,0.261597,0.442932,0.00520058,0.0016857,0.000112916,0.00520421,0.00168207,0.0320809,0.00306661,0.00967002,685,694,0.261572,-0.442904
-532,330,0.229614,0.388672,0.00382679,0.000841366,7.21395e-05,0.00382854,0.000839624,0.0241451,0.00232361,0.00949154,692,694,0.229603,-0.388663
-525,330,0.214539,0.342712,0.00243723,4.55815e-05,0.000108633,0.00244216,4.06574e-05,0.0452975,0.00161472,0.00996424,699,694,0.214535,-0.342713
-518,330,0.221436,0.320801,0.000601359,-0.000426538,0.000377249,0.000724952,-0.000550131,0.316598,0.000738473,0.0122393,706,694,0.221417,-0.320795
-511,330,0.219788,0.253601,-0.00169233,-0.00183952,0.000918981,-0.000844001,-0.00268785,0.745444,0.00158722,0.0163598,713,694,0.219809,-0.253572
-504,330,0.227539,0.177307,-0.00279768,-0.00281912,0.00126963,-0.00153872,-0.00407808,0.781177,0.00237799,0.0158846,720,694,0.227518,-0.177289
-497,330,0.222229,0.162476,-0.00334172,-0.00353738,0.00200523,-0.00143194,-0.00544716,0.761023,0.00326067,0.0114008,727,694,0.222223,-0.162495
-490,330,0.230042,0.122375,-0.00364281,-0.00430041,0.00268426,-0.00126729,-0.00667593,0.724457,0.0040941,0.0114662,734,694,0.230041,-0.122384
-483,330,0.234131,0.0852661,-0.00451104,-0.00555964,0.00325035,-0.00174298,-0.0083277,0.705434,0.00507164,0.012556,741,694,0.234113,-0.0852449
-476,330,0.253113,0.0519409,-0.0073482,-0.00516695,0.00372571,-0.00237551,-0.0101396,0.927785,0.00612349,0.013125,748,694,0.253094,-0.0519244
-469,330,0.266357,0.0465088,-0.0108676,-0.00648652,0.00549736,-0.00275933,-0.0145948,0.974991,0.00895294,0.0172477,755,694,0.266353,-0.0464889
-462,330,0.221558,0.0956421,-0.015873,-0.00675889,0.00675404,-0.00316831,-0.0194636,1.08217,0.0120591,0.0345697,762,694,0.221534,-0.0956265
-455,330,0.197937,0.143677,-0.0220824,-0.00699655,0.00800501,-0.00354057,-0.0255384,1.16324,0.0159767,0.0449001,769,694,0.19795,-0.143685
-448,330,0.21875,0.171021,0,0,0,0,0,0,0,-1,776,694,0.218723,-0.171003
-441,330,1.89227,-0.233398,0,0,0,0,0,0,0,-1,783,694,1.89226,0.233388
-434,330,2.58429,-0.859802,0,0,0,0,0,0,0,-1,790,694,2.5843,0.859825
-427,330,-1.42255,0.132446,-0.0604121,-0.00226452,0.015393,0.00155896,-0.0642356,1.32733,0.0433527,0.0433366,797,694,-1.42256,-0.132462
-420,330,-2.13947,0.0892944,-0.0719524,0.000200231,0.0175192,0.00422906,-0.0759812,1.34476,0.052121,0.044953,804,694,-2.1395,-0.0892835
-413,330,-2.677,0.437378,-0.0842839,0.00344039,0.019157,0.00744138,-0.0882849,1.3649,0.0614873,0.0454529,811,694,-2.67699,-0.437381
-406,330,-3.28308,0.854614,-0.0971412,0.00927133,0.0207158,0.0131619,-0.101032,1.38515,0.0721431,0.0444129,818,694,-3.28307,-0.854599
-399,330,0,0,0,0,0,0,0,0,0,-1,825,694,0,0
-392,330,0,0,0,0,0,0,0,0,0,-1,832,694,0,0
-385,330,0,0,0,0,0,0,0,0,0,-1,839,694,0,0
-378,330,0,0,0,0,0,0,0,0,0,-1,846,694,0,0
-371,330,0,0,0,0,0,0,0,0,0,-1,853,694,0,0
-364,330,0,0,0,0,0,0,0,0,0,-1,860,694,0,0
-357,330,0,0,0,0,0,0,0,0,0,-1,867,694,0,0
-350,330,0,0,0,0,0,0,0,0,0,-1,874,694,0,0
-343,330,0,0,0,0,0,0,0,0,0,-1,881,694,0,0
-336,330,0,0,0,0,0,0,0,0,0,-1,888,694,0,0
-329,330,0,0,0,0,0,0,0,0,0,-1,895,694,0,0
-322,330,0,0,0,0,0,0,0,0,0,-1,902,694,0,0
-315,330,0,0,0,0,0,0,0,0,0,-1,909,694,0,0
-308,330,0,0,0,0,0,0,0,0,0,-1,916,694,0,0
-301,330,0,0,0,0,0,0,0,0,0,-1,923,694,0,0
-294,330,0,0,0,0,0,0,0,0,0,-1,930,694,0,0
-287,330,0,0,0,0,0,0,0,0,0,-1,937,694,0,0
-280,330,0,0,0,0,0,0,0,0,0,-1,944,694,0,0
-273,330,0,0,0,0,0,0,0,0,0,-1,951,694,0,0
-266,330,0,0,0,0,0,0,0,0,0,-1,958,694,0,0
-259,330,0,0,0,0,0,0,0,0,0,-1,965,694,0,0
-252,330,0,0,0,0,0,0,0,0,0,-1,972,694,0,0
-245,330,0,0,0,0,0,0,0,0,0,-1,979,694,0,0
-238,330,0,0,0,0,0,0,0,0,0,-1,986,694,0,0
-231,330,0,0,0,0,0,0,0,0,0,-1,993,694,0,0
-224,330,0,0,0,0,0,0,0,0,0,-1,1000,694,0,0
-217,330,0,0,0,0,0,0,0,0,0,-1,1007,694,0,0
-210,330,0,0,0,0,0,0,0,0,0,-1,1014,694,0,0
-203,330,0,0,0,0,0,0,0,0,0,-1,1021,694,0,0
-196,330,0,0,0,0,0,0,0,0,0,-1,1028,694,0,0
-189,330,0,0,0,0,0,0,0,0,0,-1,1035,694,0,0
-182,330,0,0,0,0,0,0,0,0,0,-1,1042,694,0,0
-175,330,0,0,0,0,0,0,0,0,0,-1,1049,694,0,0
-168,330,0,0,0,0,0,0,0,0,0,-1,1056,694,0,0
-161,330,0,0,0,0,0,0,0,0,0,-1,1063,694,0,0
-154,330,0,0,0,0,0,0,0,0,0,-1,1070,694,0,0
-147,330,0,0,0,0,0,0,0,0,0,-1,1077,694,0,0
-140,330,0,0,0,0,0,0,0,0,0,-1,1084,694,0,0
-133,330,0,0,0,0,0,0,0,0,0,-1,1091,694,0,0
-126,330,0,0,0,0,0,0,0,0,0,-1,1098,694,0,0
-119,330,0,0,0,0,0,0,0,0,0,-1,1105,694,0,0
-112,330,0,0,0,0,0,0,0,0,0,-1,1112,694,0,0
-105,330,0,0,0,0,0,0,0,0,0,-1,1119,694,0,0
-98,330,0,0,0,0,0,0,0,0,0,-1,1126,694,0,0
-91,330,0,0,0,0,0,0,0,0,0,-1,1133,694,0,0
-84,330,0,0,0,0,0,0,0,0,0,-1,1140,694,0,0
-77,330,0,0,0,0,0,0,0,0,0,-1,1147,694,0,0
-70,330,0,0,0,0,0,0,0,0,0,-1,1154,694,0,0
-63,330,0,0,0,0,0,0,0,0,0,-1,1161,694,0,0
-56,330,0,0,0,0,0,0,0,0,0,-1,1168,694,0,0
-49,330,0,0,0,0,0,0,0,0,0,-1,1175,694,0,0
-42,330,0,0,0,0,0,0,0,0,0,-1,1182,694,0,0
-35,330,0,0,0,0,0,0,0,0,0,-1,1189,694,0,0
-28,330,0,0,0,0,0,0,0,0,0,-1,1196,694,0,0
-21,330,0,0,0,0,0,0,0,0,0,-1,1203,694,0,0
-14,330,0,0,0,0,0,0,0,0,0,-1,1210,694,0,0
-7,330,0,0,0,0,0,0,0,0,0,-1,1217,694,0,0
0,330,0,0,0,0,0,0,0,0,0,-1,1224,694,0,0
7,330,0,0,0,0,0,0,0,0,0,-1,1231,694,0,0
14,330,0,0,0,0,0,0,0,0,0,-1,1238,694,0,0
21,330,0,0,0,0,0,0,0,0,0,-1,1245,694,0,0
28,330,0,0,0,0,0,0,0,0,0,-1,1252,694,0,0
35,330,0,0,0,0,0,0,0,0,0,-1,1259,694,0,0
42,330,0,0,0,0,0,0,0,0,0,-1,1266,694,0,0
49,330,0,0,0,0,0,0,0,0,0,-1,1273,694,0,0
56,330,0,0,0,0,0,0,0,0,0,-1,1280,694,0,0
63,330,0,0,0,0,0,0,0,0,0,-1,1287,694,0,0
70,330,0,0,0,0,0,0,0,0,0,-1,1294,694,0,0
77,330,0,0,0,0,0,0,0,0,0,-1,1301,694,0,0
84,330,0,0,0,0,0,0,0,0,0,-1,1308,694,0,0
91,330,0,0,0,0,0,0,0,0,0,-1,1315,694,0,0
98,330,0,0,0,0,0,0,0,0,0,-1,1322,694,0,0
105,330,0,0,0,0,0,0,0,0,0,-1,1329,694,0,0
112,330,0,0,0,0,0,0,0,0,0,-1,1336,694,0,0
119,330,0,0,0,0,0,0,0,0,0,-1,1343,694,0,0
126,330,0,0,0,0,0,0,0,0,0,-1,1350,694,0,0
133,330,0,0,0,0,0,0,0,0,0,-1,1357,694,0,0
140,330,0,0,0,0,0,0,0,0,0,-1,1364,694,0,0
147,330,0,0,0,0,0,0,0,0,0,-1,1371,694,0,0
154,330,0,0,0,0,0,0,0,0,0,-1,1378,694,0,0
161,330,0,0,0,0,0,0,0,0,0,-1,1385,694,0,0
168,330,0,0,0,0,0,0,0,0,0,-1,1392,694,0,0
175,330,0,0,0,0,0,0,0,0,0,-1,1399,694,0,0
182,330,0,0,0,0,0,0,0,0,0,-1,1406,694,0,0
189,330,0,0,0,0,0,0,0,0,0,-1,1413,694,0,0
196,330,0,0,0,0,0,0,0,0,0,-1,1420,694,0,0
203,330,0,0,0,0,0,0,0,0,0,-1,1427,694,0,0
210,330,0,0,0,0,0,0,0,0,0,-1,1434,694,0,0
217,330,0,0,0,0,0,0,0,0,0,-1,1441,694,0,0
224,330,0,0,0,0,0,0,0,0,0,-1,1448,694,0,0
231,330,0,0,0,0,0,0,0,0,0,-1,1455,694,0,0
238,330,0,0,0,0,0,0,0,0,0,-1,1462,694,0,0
245,330,0,0,0,0,0,0,0,0,0,-1,1469,694,0,0
252,330,0,0,0,0,0,0,0,0,0,-1,1476,694,0,0
259,330,0,0,0,0,0,0,0,0,0,-1,1483,694,0,0
266,330,0,0,0,0,0,0,0,0,0,-1,1490,694,0,0
273,330,0,0,0,0,0,0,0,0,0,-1,1497,694,0,0
280,330,0,0,0,0,0,0,0,0,0,-1,1504,694,0,0
287,330,0,0,0,0,0,0,0,0,0,-1,1511,694,0,0
294,330,0,0,0,0,0,0,0,0,0,-1,1518,694,0,0
301,330,0,0,0,0,0,0,0,0,0,-1,1525,694,0,0
308,330,0,0,0,0,0,0,0,0,0,-1,1532,694,0,0
315,330,0,0,0,0,0,0,0,0,0,-1,1539,694,0,0
322,330,0,0,0,0,0,0,0,0,0,-1,1546,694,0,0
329,330,0,0,0,0,0,0,0,0,0,-1,1553,694,0,0
336,330,0,0,0,0,0,0,0,0,0,-1,1560,694,0,0
343,330,0,0,0,0,0,0,0,0,0,-1,1567,694,0,0
350,330,0,0,0,0,0,0,0,0,0,-1,1574,694,0,0
357,330,0,0,0,0,0,0,0,0,0,-1,1581,694,0,0
364,330,0,0,0,0,0,0,0,0,0,-1,1588,694,0,0
371,330,0,0,0,0,0,0,0,0,0,-1,1595,694,0,0
378,330,0,0,0,0,0,0,0,0,0,-1,1602,694,0,0
385,330,0,0,0,0,0,0,0,0,0,-1,1609,694,0,0
392,330,0,0,0,0,0,0,0,0,0,-1,1616,694,0,0
399,330,0,0,0,0,0,0,0,0,0,-1,1623,694,0,0
406,330,0,0,0,0,0,0,0,0,0,-1,1630,694,0,0
413,330,0,0,0,0,0,0,0,0,0,-1,1637,694,0,0
420,330,0,0,0,0,0,0,0,0,0,-1,1644,694,0,0
427,330,0,0,0,0,0,0,0,0,0,-1,1651,694,0,0
434,330,0,0,0,0,0,0,0,0,0,-1,1658,694,0,0
441,330,0,0,0,0,0,0,0,0,0,-1,1665,694,0,0
448,330,0,0,0,0,0,0,0,0,0,-1,1672,694,0,0
455,330,0,0,0,0,0,0,0,0,0,-1,1679,694,0,0
462,330,0,0,0,0,0,0,0,0,0,-1,1686,694,0,0
469,330,0,0,0,0,0,0,0,0,0,-1,1693,694,0,0
476,330,0,0,0,0,0,0,0,0,0,-1,1700,694,0,0
483,330,0,0,0,0,0,0,0,0,0,-1,1707,694,0,0
490,330,0,0,0,0,0,0,0,0,0,-1,1714,694,0,0
497,330,0,0,0,0,0,0,0,0,0,-1,1721,694,0,0
504,330,0,0,0,0,0,0,0,0,0,-1,1728,694,0,0
511,330,0,0,0,0,0,0,0,0,0,-1,1735,694,0,0
518,330,0,0,0,0,0,0,0,0,0,-1,1742,694,0,0
525,330,4.47876,-0.215393,0.0440329,0.0203192,-0.0207423,0.0560681,0.00828401,-0.525751,0.0349462,0.0458259,1749,694,4.47878,0.215373
532,330,4.6991,-0.317505,0.0382138,0.0209633,-0.0175214,0.0491179,0.0100592,-0.556678,0.0299605,0.0437703,1756,694,4.6991,0.317493
539,330,4.83044,-0.432373,0.0320567,0.020384,-0.0135385,0.0409632,0.0114775,-0.581889,0.0244,0.042994,1763,694,4.83044,0.432398
546,330,5.11084,-0.537415,0.0262714,0.0191131,-0.00991531,0.0332338,0.0121508,-0.61219,0.0194172,0.0420983,1770,694,5.11085,0.537385
553,330,5.56396,-0.621094,0.0211383,0.0176941,-0.00704717,0.0266707,0.0121617,-0.665564,0.0154182,0.0427687,1777,694,5.56393,0.621103
560,330,5.63538,0.206238,0.016537,0.0159172,-0.00472427,0.0209616,0.0114927,-0.752648,0.0121209,0.0447581,1784,694,5.63532,-0.206238
567,330,5.53259,0.833069,0,0,0,0,0,0,0,-1,1791,694,5.53254,-0.833063
574,330,2.49524,0.757507,0,0,0,0,0,0,0,-1,1798,694,2.4952,-0.757482
581,330,3.40063,0.140686,0,0,0,0,0,0,0,-1,1805,694,3.40059,-0.140666
588,330,3.57874,0.107849,0.00383816,0.00789629,-0.00123587,0.00824304,0.00349141,-1.29726,0.00477762,0.0492098,1812,694,3.57879,-0.107821
595,330,3.62183,0.0707397,0.00228707,0.00628279,-0.00139994,0.00672445,0.00184541,-1.26519,0.0040119,0.040044,1819,694,3.62186,-0.0707213
602,330,3.59534,0.111389,0.00104303,0.00466535,-0.00176952,0.00538628,0.000322095,-1.18391,0.00348845,0.026315,1826,694,3.59533,-0.111403
609,330,3.56372,0.112549,0.000376691,0.00401226,-0.00224537,0.00508343,-0.000694473,-1.12567,0.00364258,0.0141287,1833,694,3.56377,-0.112547
616,330,3.58252,0.130615,0.00042127,0.00217527,-0.00260009,0.00404228,-0.00144574,-0.948054,0.0032846,0.0106297,1840,694,3.58257,-0.130604
623,330,3.58997,0.165466,0.000535012,0.00107689,-0.00210013,0.00292348,-0.00131158,-0.849549,0.00250345,0.0124825,1847,694,3.59,-0.165461
630,330,3.60303,0.209167,0.000649543,0.000747485,-0.00134411,0.00204351,-0.000646484,-0.803607,0.00162138,0.013565,1854,694,3.60305,-0.209151
637,330,3.6123,0.24939,0.000920229,0.000664639,-0.000508405,0.00131665,0.000268214,-0.662267,0.00080343,0.0119384,1861,694,3.61225,-0.249379
644,330,3.59692,0.300903,0.00129026,0.000408358,0.000193627,0.00133089,0.000367718,0.206882,0.000793614,0.00750283,1868,694,3.59697,-0.300886
651,330,3.59155,0.340271,0.00180611,-9.72604e-05,0.000796428,0.00209539,-0.000386544,0.348409,0.00154201,0.0106193,1875,694,3.5916,-0.340248
658,330,3.59375,0.382874,0.00255556,-0.00017737,0.00172073,0.0033864,-0.00100821,0.449826,0.00265819,0.0117681,1882,694,3.5938,-0.382846
665,330,3.58264,0.443726,0.00288764,-0.000290057,0.0020144,0.00386438,-0.0012668,0.451478,0.00308643,0.0110815,1889,694,3.58267,-0.443703
672,330,3.56152,0.497498,0.00274013,-0.00117779,0.00209752,0.00365121,-0.00208886,0.409771,0.0033547,0.0120115,1896,694,3.56151,-0.497482
679,330,3.50903,0.533691,0.00269845,-0.0016059,0.00208223,0.00354086,-0.00244831,0.384441,0.00347698,0.0216897,1903,694,3.50906,-0.533696
686,330,3.59485,0.972778,0.00226941,-0.00232569,0.00187142,0.00293512,-0.00299141,0.341769,0.00342174,0.0363821,1910,694,3.5948,-0.972773
693,330,3.70105,1.39722,0.00123519,-0.00321487,0.00126443,0.00156937,-0.00354905,0.258383,0.0030279,0.0434287,1917,694,3.70103,-1.39724
700,330,3.7583,1.56555,-0.0008274,-0.00424263,0.00012127,-0.0008231,-0.00424693,0.0354491,0.00260071,0.0428993,1924,694,3.75835,-1.56558
707,330,3.8418,1.7038,-0.00443253,-0.00535497,-0.00178193,-0.0030531,-0.00673441,-0.658761,0.00389375,0.0402957,1931,694,3.84176,-1.70381
714,330,3.5957,2.04688,-0.0102145,-0.00642799,-0.0046899,-0.00326361,-0.0133789,-0.977237,0.00805486,0.0418509,1938,694,3.59576,-2.0469
721,330,0,0,0,0,0,0,0,0,0,-1,1945,694,0,0
728,330,0,0,0,0,0,0,0,0,0,-1,1952,694,0,0
735,330,0,0,0,0,0,0,0,0,0,-1,1959,694,0,0
742,330,0,0,0,0,0,0,0,0,0,-1,1966,694,0,0
749,330,0,0,0,0,0,0,0,0,0,-1,1973,694,0,0
756,330,0,0,0,0,0,0,0,0,0,-1,1980,694,0,0
763,330,0,0,0,0,0,0,0,0,0,-1,1987,694,0,0
770,330,0,0,0,0,0,0,0,0,0,-1,1994,694,0,0
777,330,0,0,0,0,0,0,0,0,0,-1,2001,694,0,0
784,330,0,0,0,0,0,0,0,0,0,-1,2008,694,0,0
791,330,0,0,0,0,0,0,0,0,0,-1,2015,694,0,0
798,330,0,0,0,0,0,0,0,0,0,-1,2022,694,0,0
805,330,0,0,0,0,0,0,0,0,0,-1,2029,694,0,0
812,330,0,0,0,0,0,0,0,0,0,-1,2036,694,0,0
-700,323,0,0,0,0,0,0,0,0,0,-1,524,701,0,0
-693,323,0,0,0,0,0,0,0,0,0,-1,531,701,0,0
-686,323,0,0,0,0,0,0,0,0,0,-1,538,701,0,0
-679,323,0,0,0,0,0,0,0,0,0,-1,545,701,0,0
-672,323,0,0,0,0,0,0,0,0,0,-1,552,701,0,0
-665,323,0,0,0,0,0,0,0,0,0,-1,559,701,0,0
-658,323,0,0,0,0,0,0,0,0,0,-1,566,701,0,0
-651,323,0,0,0,0,0,0,0,0,0,-1,573,701,0,0
-644,323,0,0,0,0,0,0,0,0,0,-1,580,701,0,0
-637,323,0,0,0,0,0,0,0,0,0,-1,587,701,0,0
-630,323,0,0,0,0,0,0,0,0,0,-1,594,701,0,0
-623,323,0,0,0,0,0,0,0,0,0,-1,601,701,0,0
-616,323,0,0,0,0,0,0,0,0,0,-1,608,701,0,0
-609,323,0,0,0,0,0,0,0,0,0,-1,615,701,0,0
-602,323,3.35992,-8.96155,-0.0293704,-0.127474,0.0481121,-0.00971381,-0.147131,0.387862,0.0950151,0.0467289,622,701,3.35995,8.96157
-595,323,3.2981,-8.56787,-0.0165519,-0.0935512,0.0372216,-0.00150088,-0.108602,0.384261,0.0719064,0.0460675,629,701,3.29812,8.56787
-588,323,3.48291,-8.02155,0,0,0,0,0,0,0,-1,636,701,3.48293,8.02154
-581,323,-0.880493,0.0899048,0,0,0,0,0,0,0,-1,643,701,-0.880489,-0.089903
-574,323,-0.584839,0.299988,0.00340173,-0.0309351,0.0150048,0.00903462,-0.036568,0.359126,0.0278824,0.043271,650,701,-0.584869,-0.299983
-567,323,-0.243652,0.495117,0.00561341,-0.019583,0.0104644,0.0093926,-0.0233622,0.34657,0.0194759,0.0384061,657,701,-0.243671,-0.495144
-560,323,0.0769043,0.556396,0.0064851,-0.0118691,0.00705835,0.00888554,-0.0142695,0.327815,0.0134885,0.0363526,664,701,0.0768872,-0.556409
-553,323,0.171692,0.537842,0.00645586,-0.00667427,0.00450294,0.00785173,-0.00807015,0.300598,0.00919279,0.0219343,671,701,0.17172,-0.537841
-546,323,0.196777,0.494202,0.00610771,-0.00185022,0.00229322,0.00672124,-0.00246375,0.261419,0.00548957,0.00958547,678,701,0.196771,-0.494178
-539,323,0.199768,0.439026,0.00506145,0.000717173,0.000871019,0.00522958,0.000549042,0.190683,0.00331854,0.0102056,685,701,0.199765,-0.439004
-532,323,0.18573,0.390137,0.00341944,0.000212425,0.00081419,0.00361431,1.7561e-05,0.234916,0.0024037,0.00971878,692,701,0.185739,-0.390128
-525,323,0.163818,0.351013,0.00163031,-0.000297493,0.000858666,0.00195731,-0.000624487,0.36386,0.0015554,0.00733866,699,701,0.163807,-0.351032
-518,323,0.170105,0.322266,-0.000528746,-0.000621435,0.00119865,0.000624456,-0.00177464,0.766076,0.0014372,0.008575,706,701,0.170124,-0.32226
-511,323,0.161316,0.27063,-0.00303201,-0.00221298,0.00170648,-0.000867562,-0.00437742,0.90316,0.00267638,0.0119881,713,701,0.16131,-0.270652
-504,323,0.149292,0.219543,-0.00434742,-0.00340117,0.00203595,-0.0017841,-0.0059645,0.899564,0.00353503,0.0131067,720,701,0.149275,-0.219571
-497,323,0.16864,0.170227,-0.00516596,-0.00440579,0.00276652,-0.00199337,-0.00757838,0.853664,0.00453622,0.0107919,727,701,0.168659,-0.170197
-490,323,0.201782,0.12384,-0.00567226,-0.00543679,0.00346756,-0.00208496,-0.00902408,0.802368,0.00545553,0.0117307,734,701,0.2018,-0.123821
-483,323,0.191223,0.081604,-0.00670538,-0.0070594,0.00405783,-0.0028207,-0.0109441,0.763601,0.00656114,0.0125066,741,701,0.19121,-0.0816095
-476,323,0.224731,0.0374756,-0.0097524,-0.00680942,0.00451014,-0.00353679,-0.013025,0.943085,0.00777727,0.0156881,748,701,0.224747,-0.0374978
-469,323,0.181763,0.0579224,-0.0134042,-0.00829204,0.00616779,-0.00417167,-0.0175246,0.981839,0.0105706,0.0348069,755,701,0.181765,-0.0579307
-462,323,0.189331,0.126404,-0.0183668,-0.0086151,0.007292,-0.00471899,-0.0222629,1.08009,0.0135458,0.0430412,762,701,0.189349,-0.12643
-455,323,0.341492,-0.11145,-0.0246051,-0.00882663,0.00839001,-0.00519926,-0.0282325,1.16272,0.0173502,0.04484,769,701,0.341504,0.111466
-448,323,0.43573,-0.113708,0,0,0,0,0,0,0,-1,776,701,0.435702,0.113711
-441,323,1.33942,-0.395691,-0.0422157,-0.00741204,0.0110561,-0.00419688,-0.0454308,1.2878,0.0289897,0.0478929,783,701,1.3394,0.395688
-434,323,1.76575,-0.75061,0,0,0,0,0,0,0,-1,790,701,1.76574,0.750627
-427,323,2.45349,-1.13495,-0.0658312,-0.00267884,0.0140015,0.000286225,-0.0687962,1.36211,0.0459599,0.0473189,797,701,2.45347,1.13495
-420,323,-1.91852,0.334045,-0.0790699,-0.000229723,0.0151789,0.00259167,-0.0818913,1.38702,0.0554782,0.0431697,804,701,-1.91853,-0.334021
-413,323,-2.24994,0.527893,-0.0948006,0.003822,0.0154961,0.00619951,-0.0971781,1.41856,0.0669476,0.0434225,811,701,-2.24995,-0.527902
-406,323,0,0,0,0,0,0,0,0,0,-1,818,701,0,0
-399,323,0,0,0,0,0,0,0,0,0,-1,825,701,0,0
-392,323,0,0,0,0,0,0,0,0,0,-1,832,701,0,0
-385,323,0,0,0,0,0,0,0,0,0,-1,839,701,0,0
-378,323,0,0,0,0,0,0,0,0,0,-1,846,701,0,0
-371,323,0,0,0,0,0,0,0,0,0,-1,853,701,0,0
-364,323,0,0,0,0,0,0,0,0,0,-1,860,701,0,0
-357,323,0,0,0,0,0,0,0,0,0,-1,867,701,0,0
-350,323,0,0,0,0,0,0,0,0,0,-1,874,701,0,0
-343,323,0,0,0,0,0,0,0,0,0,-1,881,701,0,0
-336,323,0,0,0,0,0,0,0,0,0,-1,888,701,0,0
-329,323,0,0,0,0,0,0,0,0,0,-1,895,701,0,0
-322,323,0,0,0,0,0,0,0,0,0,-1,902,701,0,0
-315,323,0,0,0,0,0,0,0,0,0,-1,909,701,0,0
-308,323,0,0,0,0,0,0,0,0,0,-1,916,701,0,0
-301,323,0,0,0,0,0,0,0,0,0,-1,923,701,0,0
-294,323,0,0,0,0,0,0,0,0,0,-1,930,701,0,0
-287,323,0,0,0,0,0,0,0,0,0,-1,937,701,0,0
-280,323,0,0,0,0,0,0,0,0,0,-1,944,701,0,0
-273,323,0,0,0,0,0,0,0,0,0,-1,951,701,0,0
-266,323,0,0,0,0,0,0,0,0,0,-1,958,701,0,0
-259,323,0,0,0,0,0,0,0,0,0,-1,965,701,0,0
-252,323,0,0,0,0,0,0,0,0,0,-1,972,701,0,0
-245,323,0,0,0,0,0,0,0,0,0,-1,979,701,0,0
-238,323,0,0,0,0,0,0,0,0,0,-1,986,701,0,0
-231,323,0,0,0,0,0,0,0,0,0,-1,993,701,0,0
-224,323,0,0,0,0,0,0,0,0,0,-1,1000,701,0,0
-217,323,0,0,0,0,0,0,0,0,0,-1,1007,701,0,0
-210,323,0,0,0,0,0,0,0,0,0,-1,1014,701,0,0
-203,323,0,0,0,0,0,0,0,0,0,-1,1021,701,0,0
-196,323,0,0,0,0,0,0,0,0,0,-1,1028,701,0,0
-189,323,0,0,0,0,0,0,0,0,0,-1,1035,701,0,0
-182,323,0,0,0,0,0,0,0,0,0,-1,1042,701,0,0
-175,323,0,0,0,0,0,0,0,0,0,-1,1049,701,0,0
-168,323,0,0,0,0,0,0,0,0,0,-1,1056,701,0,0
-161,323,0,0,0,0,0,0,0,0,0,-1,1063,701,0,0
-154,323,0,0,0,0,0,0,0,0,0,-1,1070,701,0,0
-147,323,0,0,0,0,0,0,0,0,0,-1,1077,701,0,0
-140,323,0,0,0,0,0,0,0,0,0,-1,1084,701,0,0
-133,323,0,0,0,0,0,0,0,0,0,-1,1091,701,0,0
-126,323,0,0,0,0,0,0,0,0,0,-1,1098,701,0,0
-119,323,0,0,0,0,0,0,0,0,0,-1,1105,701,0,0
-112,323,0,0,0,0,0,0,0,0,0,-1,1112,701,0,0
-105,323,0,0,0,0,0,0,0,0,0,-1,1119,701,0,0
-98,323,0,0,0,0,0,0,0,0,0,-1,1126,701,0,0
-91,323,0,0,0,0,0,0,0,0,0,-1,1133,701,0,0
-84,323,0,0,0,0,0,0,0,0,0,-1,1140,701,0,0
-77,323,0,0,0,0,0,0,0,0,0,-1,1147,701,0,0
-70,323,0,0,0,0,0,0,0,0,0,-1,1154,701,0,0
-63,323,0,0,0,0,0,0,0,0,0,-1,1161,701,0,0
-56,323,0,0,0,0,0,0,0,0,0,-1,1168,701,0,0
-49,323,0,0,0,0,0,0,0,0,0,-1,1175,701,0,0
-42,323,0,0,0,0,0,0,0,0,0,-1,1182,701,0,0
-35,323,0,0,0,0,0,0,0,0,0,-1,1189,701,0,0
-28,323,0,0,0,0,0,0,0,0,0,-1,1196,701,0,0
-21,323,0,0,0,0,0,0,0,0,0,-1,1203,701,0,0
-14,323,0,0,0,0,0,0,0,0,0,-1,1210,701,0,0
-7,323,0,0,0,0,0,0,0,0,0,-1,1217,701,0,0
0,323,0,0,0,0,0,0,0,0,0,-1,1224,701,0,0
7,323,0,0,0,0,0,0,0,0,0,-1,1231,701,0,0
14,323,0,0,0,0,0,0,0,0,0,-1,1238,701,0,0
21,323,0,0,0,0,0,0,0,0,0,-1,1245,701,0,0
28,323,0,0,0,0,0,0,0,0,0,-1,1252,701,0,0
35,323,0,0,0,0,0,0,0,0,0,-1,1259,701,0,0
42,323,0,0,0,0,0,0,0,0,0,-1,1266,701,0,0
49,323,0,0,0,0,0,0,0,0,0,-1,1273,701,0,0
56,323,0,0,0,0,0,0,0,0,0,-1,1280,701,0,0
63,323,0,0,0,0,0,0,0,0,0,-1,1287,701,0,0
70,323,0,0,0,0,0,0,0,0,0,-1,1294,701,0,0
77,323,0,0,0,0,0,0,0,0,0,-1,1301,701,0,0
84,323,0,0,0,0,0,0,0,0,0,-1,1308,701,0,0
91,323,0,0,0,0,0,0,0,0,0,-1,1315,701,0,0
98,323,0,0,0,0,0,0,0,0,0,-1,1322,701,0,0
105,323,0,0,0,0,0,0,0,0,0,-1,1329,701,0,0
112,323,0,0,0,0,0,0,0,0,0,-1,1336,701,0,0
119,323,0,0,0,0,0,0,0,0,0,-1,1343,701,0,0
126,323,0,0,0,0,0,0,0,0,0,-1,1350,701,0,0
133,323,0,0,0,0,0,0,0,0,0,-1,1357,701,0,0
140,323,0,0,0,0,0,0,0,0,0,-1,1364,701,0,0
147,323,0,0,0,0,0,0,0,0,0,-1,1371,701,0,0
154,323,0,0,0,0,0,0,0,0,0,-1,1378,701,0,0
161,323,0,0,0,0,0,0,0,0,0,-1,1385,701,0,0
168,323,0,0,0,0,0,0,0,0,0,-1,1392,701,0,0
175,323,0,0,0,0,0,0,0,0,0,-1,1399,701,0,0
182,323,0,0,0,0,0,0,0,0,0,-1,1406,701,0,0
189,323,0,0,0,0,0,0,0,0,0,-1,1413,701,0,0
196,323,0,0,0,0,0,0,0,0,0,-1,1420,701,0,0
203,323,0,0,0,0,0,0,0,0,0,-1,1427,701,0,0
210,323,0,0,0,0,0,0,0,0,0,-1,1434,701,0,0
217,323,0,0,0,0,0,0,0,0,0,-1,1441,701,0,0
224,323,0,0,0,0,0,0,0,0,0,-1,1448,701,0,0
231,323,0,0,0,0,0,0,0,0,0,-1,1455,701,0,0
238,323,0,0,0,0,0,0,0,0,0,-1,1462,701,0,0
245,323,0,0,0,0,0,0,0,0,0,-1,1469,701,0,0
252,323,0,0,0,0,0,0,0,0,0,-1,1476,701,0,0
259,323,0,0,0,0,0,0,0,0,0,-1,1483,701,0,0
266,323,0,0,0,0,0,0,0,0,0,-1,1490,701,0,0
273,323,0,0,0,0,0,0,0,0,0,-1,1497,701,0,0
280,323,0,0,0,0,0,0,0,0,0,-1,1504,701,0,0
287,323,0,0,0,0,0,0,0,0,0,-1,1511,701,0,0
294,323,0,0,0,0,0,0,0,0,0,-1,1518,701,0,0
301,323,0,0,0,0,0,0,0,0,0,-1,1525,701,0,0
308,323,0,0,0,0,0,0,0,0,0,-1,1532,701,0,0
315,323,0,0,0,0,0,0,0,0,0,-1,1539,701,0,0
322,323,0,0,0,0,0,0,0,0,0,-1,1546,701,0,0
329,323,0,0,0,0,0,0,0,0,0,-1,1553,701,0,0
336,323,0,0,0,0,0,0,0,0,0,-1,1560,701,0,0
343,323,0,0,0,0,0,0,0,0,0,-1,1567,701,0,0
350,323,0,0,0,0,0,0,0,0,0,-1,1574,701,0,0
357,323,0,0,0,0,0,0,0,0,0,-1,1581,701,0,0
364,323,0,0,0,0,0,0,0,0,0,-1,1588,701,0,0
371,323,0,0,0,0,0,0,0,0,0,-1,1595,701,0,0
378,323,0,0,0,0,0,0,0,0,0,-1,1602,701,0,0
385,323,0,0,0,0,0,0,0,0,0,-1,1609,701,0,0
392,323,0,0,0,0,0,0,0,0,0,-1,1616,701,0,0
399,323,0,0,0,0,0,0,0,0,0,-1,1623,701,0,0
406,323,0,0,0,0,0,0,0,0,0,-1,1630,701,0,0
413,323,0,0,0,0,0,0,0,0,0,-1,1637,701,0,0
420,323,0,0,0,0,0,0,0,0,0,-1,1644,701,0,0
427,323,0,0,0,0,0,0,0,0,0,-1,1651,701,0,0
434,323,0,0,0,0,0,0,0,0,0,-1,1658,701,0,0
441,323,0,0,0,0,0,0,0,0,0,-1,1665,701,0,0
448,323,0,0,0,0,0,0,0,0,0,-1,1672,701,0,0
455,323,0,0,0,0,0,0,0,0,0,-1,1679,701,0,0
462,323,0,0,0,0,0,0,0,0,0,-1,1686,701,0,0
469,323,0,0,0,0,0,0,0,0,0,-1,1693,701,0,0
476,323,0,0,0,0,0,0,0,0,0,-1,1700,701,0,0
483,323,0,0,0,0,0,0,0,0,0,-1,1707,701,0,0
490,323,0,0,0,0,0,0,0,0,0,-1,1714,701,0,0
497,323,0,0,0,0,0,0,0,0,0,-1,1721,701,0,0
504,323,0,0,0,0,0,0,0,0,0,-1,1728,701,0,0
511,323,0,0,0,0,0,0,0,0,0,-1,1735,701,0,0
518,323,0,0,0,0,0,0,0,0,0,-1,1742,701,0,0
525,323,0,0,0,0,0,0,0,0,0,-1,1749,701,0,0
532,323,4.44373,-0.175049,0.0383922,0.0211931,-0.0107394,0.0435508,0.0160344,-0.447801,0.0254337,0.0460509,1756,701,4.44371,0.175021
539,323,4.80908,-0.449646,0.0326501,0.0213761,-0.00778717,0.0366264,0.0173998,-0.47211,0.021155,0.0466408,1763,701,4.80904,0.449627
546,323,5.26611,-0.455994,0.0268435,0.0204695,-0.00523206,0.0297828,0.0175302,-0.511845,0.0172849,0.0430434,1770,701,5.26616,0.45597
553,323,5.51184,-0.319702,0.0216629,0.0194425,-0.0033159,0.0240495,0.0170559,-0.62386,0.0142844,0.0450303,1777,701,5.51185,0.319678
560,323,5.4917,-0.0181274,0.0170451,0.0179286,-0.00200534,0.0195403,0.0154335,-0.893815,0.0118966,0.0443099,1784,701,5.49164,0.0181538
567,323,5.55005,0.270447,0,0,0,0,0,0,0,-1,1791,701,5.55,-0.270444
574,323,2.39563,0.592407,0,0,0,0,0,0,0,-1,1798,701,2.39561,-0.592393
581,323,2.19885,1.84595,0,0,0,0,0,0,0,-1,1805,701,2.1988,-1.84595
588,323,3.53235,0.0619507,0,0,0,0,0,0,0,-1,1812,701,3.5324,-0.0619409
595,323,3.54407,-0.0543823,0.00227745,0.0089169,-0.00207592,0.00951253,0.00168182,-1.29138,0.00586206,0.0468279,1819,701,3.54408,0.0543983
602,323,3.65186,0.1474,0.000840454,0.00728048,-0.00270631,0.00826672,-0.00014579,-1.22133,0.00556038,0.0358765,1826,701,3.65186,-0.147421
609,323,3.604,0.144226,6.29816e-05,0.006409,-0.00323788,0.00776941,-0.00129742,-1.17304,0.00566185,0.0204959,1833,701,3.60398,-0.144247
616,323,3.64197,0.1203,-4.85973e-05,0.0040576,-0.00363562,0.00617978,-0.00217078,-1.04243,0.00500297,0.0120056,1840,701,3.64193,-0.120298
623,323,3.65356,0.156494,-0.000111794,0.00244943,-0.00308549,0.0045095,-0.00217187,-0.982102,0.00393541,0.0126516,1847,701,3.65361,-0.156503
630,323,3.6427,0.223145,-0.00012904,0.00179972,-0.0022355,0.00326999,-0.0015993,-0.989035,0.00286591,0.0136457,1854,701,3.64274,-0.223128
637,323,3.64197,0.264343,2.3741e-05,0.00147435,-0.00130081,0.00223839,-0.000740305,-1.03972,0.00179078,0.0101437,1861,701,3.64198,-0.264369
644,323,3.65259,0.30481,0.000238241,0.00100726,-0.000506119,0.00125837,-1.28617e-05,-1.11025,0.000843231,0.00745161,1868,701,3.6526,-0.304804
651,323,3.62817,0.350708,0.000601057,0.000386399,0.000139216,0.000669513,0.000317943,0.45701,0.000386706,0.00898684,1875,701,3.62817,-0.350684
658,323,3.6167,0.395142,0.00116126,0.000135397,0.00107193,0.00183666,-0.000540004,0.562244,0.00143863,0.0107152,1882,701,3.61673,-0.395156
665,323,3.60913,0.444153,0.00129373,-9.0099e-05,0.00133507,0.00210553,-0.000901898,0.546323,0.00178209,0.0103043,1889,701,3.60912,-0.444165
672,323,3.59839,0.504333,0.000941501,-0.00109757,0.00135782,0.00161994,-0.00177601,0.463372,0.00196135,0.00944199,1896,701,3.59842,-0.504305
679,323,3.58984,0.541504,0.000596393,-0.00142296,0.00119578,0.00115175,-0.00197832,0.43479,0.00182803,0.0163534,1903,701,3.58987,-0.541514
686,323,3.59204,0.585999,-0.000329812,-0.00204546,0.000802677,-1.28376e-05,-0.00236244,0.376099,0.0015707,0.0375604,1910,701,3.59203,-0.585971
693,323,3.59497,0.632446,0,0,0,0,0,0,0,-1,1917,701,3.59498,-0.632458
700,323,3.81494,1.48236,-0.00448203,-0.00376367,-0.00134153,-0.00273407,-0.00551162,-0.9162,0.00318217,0.0473009,1924,701,3.81491,-1.48237
707,323,4.125,1.46155,-0.00872637,-0.00475741,-0.00343587,-0.0027741,-0.0107097,-1.04728,0.00641814,0.0432646,1931,701,4.12504,-1.46154
714,323,4.09167,1.45306,-0.015223,-0.00570944,-0.00649952,-0.002412,-0.0185205,-1.1013,0.0116267,0.0432658,1938,701,4.09168,-1.45307
721,323,0,0,0,0,0,0,0,0,0,-1,1945,701,0,0
728,323,0,0,0,0,0,0,0,0,0,-1,1952,701,0,0
735,323,0,0,0,0,0,0,0,0,0,-1,1959,701,0,0
742,323,0,0,0,0,0,0,0,0,0,-1,1966,701,0,0
749,323,0,0,0,0,0,0,0,0,0,-1,1973,701,0,0
756,323,0,0,0,0,0,0,0,0,0,-1,1980,701,0,0
763,323,0,0,0,0,0,0,0,0,0,-1,1987,701,0,0
770,323,0,0,0,0,0,0,0,0,0,-1,1994,701,0,0
777,323,0,0,0,0,0,0,0,0,0,-1,2001,701,0,0
784,323,0,0,0,0,0,0,0,0,0,-1,2008,701,0,0
791,323,0,0,0,0,0,0,0,0,0,-1,2015,701,0,0
798,323,0,0,0,0,0,0,0,0,0,-1,2022,701,0,0
805,323,0,0,0,0,0,0,0,0,0,-1,2029,701,0,0
812,323,0,0,0,0,0,0,0,0,0,-1,2036,701,0,0
-700,316,0,0,0,0,0,0,0,0,0,-1,524,708,0,0
-693,316,0,0,0,0,0,0,0,0,0,-1,531,708,0,0
-686,316,0,0,0,0,0,0,0,0,0,-1,538,708,0,0
-679,316,0,0,0,0,0,0,0,0,0,-1,545,708,0,0
-672,316,0,0,0,0,0,0,0,0,0,-1,552,708,0,0
-665,316,0,0,0,0,0,0,0,0,0,-1,559,708,0,0
-658,316,0,0,0,0,0,0,0,0,0,-1,566,708,0,0
-651,316,0,0,0,0,0,0,0,0,0,-1,573,708,0,0
-644,316,0,0,0,0,0,0,0,0,0,-1,580,708,0,0
-637,316,0,0,0,0,0,0,0,0,0,-1,587,708,0,0
-630,316,0,0,0,0,0,0,0,0,0,-1,594,708,0,0
-623,316,0,0,0,0,0,0,0,0,0,-1,601,708,0,0
-616,316,0,0,0,0,0,0,0,0,0,-1,608,708,0,0
-609,316,0,0,0,0,0,0,0,0,0,-1,615,708,0,0
-602,316,2.5387,-7.42108,-0.0260895,-0.125357,0.0464222,-0.00776349,-0.143683,0.375987,0.0933086,0.0483721,622,708,2.53869,7.4211
-595,316,2.44934,-7.01703,-0.0152698,-0.0957627,0.037308,-0.00063755,-0.110395,0.373764,0.073385,0.0494143,629,708,2.44932,7.01705
-588,316,-0.69281,0.183472,0,0,0,0,0,0,0,-1,636,708,-0.692825,-0.183467
-581,316,-0.564209,0.309875,0,0,0,0,0,0,0,-1,643,708,-0.564201,-0.30987
-574,316,-0.27948,0.43335,0.00272836,-0.0354319,0.0165811,0.00892637,-0.0416299,0.357718,0.0311579,0.044165,650,708,-0.279462,-0.433378
-567,316,0.0541382,0.555603,0.00480917,-0.0233319,0.0119545,0.00920186,-0.0277246,0.352135,0.0221955,0.0438184,657,708,0.0541361,-0.555595
-560,316,0.197754,0.572693,0.00570497,-0.0147788,0.00833745,0.0086695,-0.0177433,0.341626,0.0155465,0.0391355,664,708,0.19777,-0.572681
-553,316,0.164856,0.552551,0.0057471,-0.0088267,0.00555543,0.00762327,-0.0107029,0.325691,0.0106303,0.0228452,671,708,0.164832,-0.552562
-546,316,0.140686,0.512878,0.00556273,-0.00328834,0.00314441,0.00656607,-0.00429168,0.308874,0.0063144,0.0137579,678,708,0.140657,-0.512859
-539,316,0.145264,0.421692,0.00461579,-0.000221029,0.00155561,0.0050729,-0.000678143,0.285804,0.00362917,0.0117166,685,708,0.145261,-0.421692
-532,316,0.128052,0.376038,0.00287835,-0.00036767,0.00143733,0.0034233,-0.000912625,0.362399,0.00263953,0.00976433,692,708,0.128041,-0.376012
-525,316,0.12677,0.357117,0.000842845,-0.000553108,0.00146279,0.00176565,-0.00147591,0.562795,0.001874,0.0086541,699,708,0.126778,-0.357114
-518,316,0.137268,0.319092,-0.00155774,-0.000667426,0.00181594,0.000757122,-0.00298229,0.905598,0.00228281,0.00886697,706,708,0.137248,-0.31912
-511,316,0.140808,0.275208,-0.00418961,-0.00231538,0.00227474,-0.000792284,-0.0057127,0.980788,0.00357377,0.0108191,713,708,0.140828,-0.275177
-504,316,0.125793,0.210571,-0.00568911,-0.00360855,0.00259254,-0.00185537,-0.00744229,0.976195,0.00447322,0.0140692,720,708,0.125813,-0.210545
-497,316,0.143311,0.169983,-0.00680032,-0.00483489,0.00330584,-0.00236879,-0.00926642,0.929872,0.00555888,0.0119141,727,708,0.143316,-0.170001
-490,316,0.139587,0.136292,-0.00754846,-0.00608725,0.00402828,-0.00272386,-0.0109119,0.875108,0.00655797,0.0119567,734,708,0.139611,-0.136317
-483,316,0.139038,0.0643921,-0.00877809,-0.0080358,0.00463477,-0.00375734,-0.0130566,0.825352,0.00776125,0.0153303,741,708,0.139033,-0.0643917
-476,316,0.108215,-0.00256348,-0.0119663,-0.00797286,0.00505045,-0.00453875,-0.0154004,0.973646,0.00913781,0.0320908,748,708,0.108239,0.00254003
-469,316,-0.369934,-0.146484,-0.0156369,-0.00962315,0.00653233,-0.00543889,-0.0198212,1.0011,0.0118257,0.0443678,755,708,-0.369918,0.146489
-462,316,0.133911,0.195801,0,0,0,0,0,0,0,-1,762,708,0.133891,-0.195809
-455,316,0.184387,-0.0701294,-0.0264992,-0.0103468,0.00835705,-0.00680126,-0.0300448,1.16955,0.0181916,0.0476776,769,708,0.184417,0.0701209
-448,316,0.282043,-0.222229,-0.0346521,-0.00997088,0.00929532,-0.00686178,-0.0377612,1.24801,0.0232272,0.0464397,776,708,0.282069,0.222244
-441,316,0.616638,-0.474121,-0.0442419,-0.00866565,0.010318,-0.00588974,-0.0470178,1.30799,0.0295781,0.0463415,783,708,0.616625,0.474132
-434,316,0.85498,-0.623291,0,0,0,0,0,0,0,-1,790,708,0.854971,0.6233
-427,316,1.66492,-1.1109,0,0,0,0,0,0,0,-1,797,708,1.6649,1.11091
-420,316,-1.604,0.625366,0,0,0,0,0,0,0,-1,804,708,-1.60399,-0.625382
-413,316,0,0,0,0,0,0,0,0,0,-1,811,708,0,0
-406,316,0,0,0,0,0,0,0,0,0,-1,818,708,0,0
-399,316,0,0,0,0,0,0,0,0,0,-1,825,708,0,0
-392,316,0,0,0,0,0,0,0,0,0,-1,832,708,0,0
-385,316,0,0,0,0,0,0,0,0,0,-1,839,708,0,0
-378,316,0,0,0,0,0,0,0,0,0,-1,846,708,0,0
-371,316,0,0,0,0,0,0,0,0,0,-1,853,708,0,0
-364,316,0,0,0,0,0,0,0,0,0,-1,860,708,0,0
-357,316,0,0,0,0,0,0,0,0,0,-1,867,708,0,0
-350,316,0,0,0,0,0,0,0,0,0,-1,874,708,0,0
-343,316,0,0,0,0,0,0,0,0,0,-1,881,708,0,0
-336,316,0,0,0,0,0,0,0,0,0,-1,888,708,0,0
-329,316,0,0,0,0,0,0,0,0,0,-1,895,708,0,0
-322,316,0,0,0,0,0,0,0,0,0,-1,902,708,0,0
-315,316,0,0,0,0,0,0,0,0,0,-1,909,708,0,0
-308,316,0,0,0,0,0,0,0,0,0,-1,916,708,0,0
-301,316,0,0,0,0,0,0,0,0,0,-1,923,708,0,0
-294,316,0,0,0,0,0,0,0,0,0,-1,930,708,0,0
-287,316,0,0,0,0,0,0,0,0,0,-1,937,708,0,0
-280,316,0,0,0,0,0,0,0,0,0,-1,944,708,0,0
-273,316,0,0,0,0,0,0,0,0,0,-1,951,708,0,0
-266,316,0,0,0,0,0,0,0,0,0,-1,958,708,0,0
-259,316,0,0,0,0,0,0,0,0,0,-1,965,708,0,0
-252,316,0,0,0,0,0,0,0,0,0,-1,972,708,0,0
-245,316,0,0,0,0,0,0,0,0,0,-1,979,708,0,0
-238,316,0,0,0,0,0,0,0,0,0,-1,986,708,0,0
-231,316,0,0,0,0,0,0,0,0,0,-1,993,708,0,0
-224,316,0,0,0,0,0,0,0,0,0,-1,1000,708,0,0
-217,316,0,0,0,0,0,0,0,0,0,-1,1007,708,0,0
-210,316,0,0,0,0,0,0,0,0,0,-1,1014,708,0,0
-203,316,0,0,0,0,0,0,0,0,0,-1,1021,708,0,0
-196,316,0,0,0,0,0,0,0,0,0,-1,1028,708,0,0
-189,316,0,0,0,0,0,0,0,0,0,-1,1035,708,0,0
-182,316,0,0,0,0,0,0,0,0,0,-1,1042,708,0,0
-175,316,0,0,0,0,0,0,0,0,0,-1,1049,708,0,0
-168,316,0,0,0,0,0,0,0,0,0,-1,1056,708,0,0
-161,316,0,0,0,0,0,0,0,0,0,-1,1063,708,0,0
-154,316,0,0,0,0,0,0,0,0,0,-1,1070,708,0,0
-147,316,0,0,0,0,0,0,0,0,0,-1,1077,708,0,0
-140,316,0,0,0,0,0,0,0,0,0,-1,1084,708,0,0
-133,316,0,0,0,0,0,0,0,0,0,-1,1091,708,0,0
-126,316,0,0,0,0,0,0,0,0,0,-1,1098,708,0,0
-119,316,0,0,0,0,0,0,0,0,0,-1,1105,708,0,0
-112,316,0,0,0,0,0,0,0,0,0,-1,1112,708,0,0
-105,316,0,0,0,0,0,0,0,0,0,-1,1119,708,0,0
-98,316,0,0,0,0,0,0,0,0,0,-1,1126,708,0,0
-91,316,0,0,0,0,0,0,0,0,0,-1,1133,708,0,0
-84,316,0,0,0,0,0,0,0,0,0,-1,1140,708,0,0
-77,316,0,0,0,0,0,0,0,0,0,-1,1147,708,0,0
-70,316,0,0,0,0,0,0,0,0,0,-1,1154,708,0,0
-63,316,0,0,0,0,0,0,0,0,0,-1,1161,708,0,0
-56,316,0,0,0,0,0,0,0,0,0,-1,1168,708,0,0
-49,316,0,0,0,0,0,0,0,0,0,-1,1175,708,0,0
-42,316,0,0,0,0,0,0,0,0,0,-1,1182,708,0,0
-35,316,0,0,0,0,0,0,0,0,0,-1,1189,708,0,0
-28,316,0,0,0,0,0,0,0,0,0,-1,1196,708,0,0
-21,316,0,0,0,0,0,0,0,0,0,-1,1203,708,0,0
-14,316,0,0,0,0,0,0,0,0,0,-1,1210,708,0,0
-7,316,0,0,0,0,0,0,0,0,0,-1,1217,708,0,0
0,316,0,0,0,0,0,0,0,0,0,-1,1224,708,0,0
7,316,0,0,0,0,0,0,0,0,0,-1,1231,708,0,0
14,316,0,0,0,0,0,0,0,0,0,-1,1238,708,0,0
21,316,0,0,0,0,0,0,0,0,0,-1,1245,708,0,0
28,316,0,0,0,0,0,0,0,0,0,-1,1252,708,0,0
35,316,0,0,0,0,0,0,0,0,0,-1,1259,708,0,0
42,316,0,0,0,0,0,0,0,0,0,-1,1266,708,0,0
49,316,0,0,0,0,0,0,0,0,0,-1,1273,708,0,0
56,316,0,0,0,0,0,0,0,0,0,-1,1280,708,0,0
63,316,0,0,0,0,0,0,0,0,0,-1,1287,708,0,0
70,316,0,0,0,0,0,0,0,0,0,-1,1294,708,0,0
77,316,0,0,0,0,0,0,0,0,0,-1,1301,708,0,0
84,316,0,0,0,0,0,0,0,0,0,-1,1308,708,0,0
91,316,0,0,0,0,0,0,0,0,0,-1,1315,708,0,0
98,316,0,0,0,0,0,0,0,0,0,-1,1322,708,0,0
105,316,0,0,0,0,0,0,0,0,0,-1,1329,708,0,0
112,316,0,0,0,0,0,0,0,0,0,-1,1336,708,0,0
119,316,0,0,0,0,0,0,0,0,0,-1,1343,708,0,0
126,316,0,0,0,0,0,0,0,0,0,-1,1350,708,0,0
133,316,0,0,0,0,0,0,0,0,0,-1,1357,708,0,0
140,316,0,0,0,0,0,0,0,0,0,-1,1364,708,0,0
147,316,0,0,0,0,0,0,0,0,0,-1,1371,708,0,0
154,316,0,0,0,0,0,0,0,0,0,-1,1378,708,0,0
161,316,0,0,0,0,0,0,0,0,0,-1,1385,708,0,0
168,316,0,0,0,0,0,0,0,0,0,-1,1392,708,0,0
175,316,0,0,0,0,0,0,0,0,0,-1,1399,708,0,0
182,316,0,0,0,0,0,0,0,0,0,-1,1406,708,0,0
189,316,0,0,0,0,0,0,0,0,0,-1,1413,708,0,0
196,316,0,0,0,0,0,0,0,0,0,-1,1420,708,0,0
203,316,0,0,0,0,0,0,0,0,0,-1,1427,708,0,0
210,316,0,0,0,0,0,0,0,0,0,-1,1434,708,0,0
217,316,0,0,0,0,0,0,0,0,0,-1,1441,708,0,0
224,316,0,0,0,0,0,0,0,0,0,-1,1448,708,0,0
231,316,0,0,0,0,0,0,0,0,0,-1,1455,708,0,0
238,316,0,0,0,0,0,0,0,0,0,-1,1462,708,0,0
245,316,0,0,0,0,0,0,0,0,0,-1,1469,708,0,0
252,316,0,0,0,0,0,0,0,0,0,-1,1476,708,0,0
259,316,0,0,0,0,0,0,0,0,0,-1,1483,708,0,0
266,316,0,0,0,0,0,0,0,0,0,-1,1490,708,0,0
273,316,0,0,0,0,0,0,0,0,0,-1,1497,708,0,0
280,316,0,0,0,0,0,0,0,0,0,-1,1504,708,0,0
287,316,0,0,0,0,0,0,0,0,0,-1,1511,708,0,0
294,316,0,0,0,0,0,0,0,0,0,-1,1518,708,0,0
301,316,0,0,0,0,0,0,0,0,0,-1,1525,708,0,0
308,316,0,0,0,0,0,0,0,0,0,-1,1532,708,0,0
315,316,0,0,0,0,0,0,0,0,0,-1,1539,708,0,0
322,316,0,0,0,0,0,0,0,0,0,-1,1546,708,0,0
329,316,0,0,0,0,0,0,0,0,0,-1,1553,708,0,0
336,316,0,0,0,0,0,0,0,0,0,-1,1560,708,0,0
343,316,0,0,0,0,0,0,0,0,0,-1,1567,708,0,0
350,316,0,0,0,0,0,0,0,0,0,-1,1574,708,0,0
357,316,0,0,0,0,0,0,0,0,0,-1,1581,708,0,0
364,316,0,0,0,0,0,0,0,0,0,-1,1588,708,0,0
371,316,0,0,0,0,0,0,0,0,0,-1,1595,708,0,0
378,316,0,0,0,0,0,0,0,0,0,-1,1602,708,0,0
385,316,0,0,0,0,0,0,0,0,0,-1,1609,708,0,0
392,316,0,0,0,0,0,0,0,0,0,-1,1616,708,0,0
399,316,0,0,0,0,0,0,0,0,0,-1,1623,708,0,0
406,316,0,0,0,0,0,0,0,0,0,-1,1630,708,0,0
413,316,0,0,0,0,0,0,0,0,0,-1,1637,708,0,0
420,316,0,0,0,0,0,0,0,0,0,-1,1644,708,0,0
427,316,0,0,0,0,0,0,0,0,0,-1,1651,708,0,0
434,316,0,0,0,0,0,0,0,0,0,-1,1658,708,0,0
441,316,0,0,0,0,0,0,0,0,0,-1,1665,708,0,0
448,316,0,0,0,0,0,0,0,0,0,-1,1672,708,0,0
455,316,0,0,0,0,0,0,0,0,0,-1,1679,708,0,0
462,316,0,0,0,0,0,0,0,0,0,-1,1686,708,0,0
469,316,0,0,0,0,0,0,0,0,0,-1,1693,708,0,0
476,316,0,0,0,0,0,0,0,0,0,-1,1700,708,0,0
483,316,0,0,0,0,0,0,0,0,0,-1,1707,708,0,0
490,316,0,0,0,0,0,0,0,0,0,-1,1714,708,0,0
497,316,0,0,0,0,0,0,0,0,0,-1,1721,708,0,0
504,316,0,0,0,0,0,0,0,0,0,-1,1728,708,0,0
511,316,0,0,0,0,0,0,0,0,0,-1,1735,708,0,0
518,316,0,0,0,0,0,0,0,0,0,-1,1742,708,0,0
525,316,0,0,0,0,0,0,0,0,0,-1,1749,708,0,0
532,316,4.20068,0.417664,0,0,0,0,0,0,0,-1,1756,708,4.20064,-0.417682
539,316,5.04138,-0.644348,0,0,0,0,0,0,0,-1,1763,708,5.04136,0.644366
546,316,5.08752,-0.381409,0.0268562,0.0210284,-0.000573962,0.0269122,0.0209724,-0.0972413,0.0163258,0.0451525,1770,708,5.08749,0.381428
553,316,5.14941,-0.184692,0.0213993,0.0202076,0.000566305,0.0216255,0.0199814,0.379999,0.0139014,0.0446155,1777,708,5.14939,0.184704
560,316,5.06201,-0.161316,0.0167773,0.0190392,0.000815839,0.0193027,0.0165137,1.25833,0.0120469,0.0443428,1784,708,5.06203,0.161293
567,316,4.8241,-0.214539,0,0,0,0,0,0,0,-1,1791,708,4.82406,0.214534
574,316,4.46936,-0.244324,0,0,0,0,0,0,0,-1,1798,708,4.4694,0.244338
581,316,4.37292,1.66772,0,0,0,0,0,0,0,-1,1805,708,4.37289,-1.66772
588,316,4.30237,1.14929,0,0,0,0,0,0,0,-1,1812,708,4.3024,-1.14928
595,316,3.49475,-0.322876,0,0,0,0,0,0,0,-1,1819,708,3.49472,0.322869
602,316,3.62451,0.218994,0.000598617,0.0099703,-0.00404031,0.0114716,-0.000902724,-1.21502,0.00796574,0.0451065,1826,708,3.62449,-0.219024
609,316,3.64087,0.177368,-0.000307033,0.00902798,-0.00456057,0.0108862,-0.0021652,-1.18389,0.0080765,0.0330117,1833,708,3.64087,-0.177367
616,316,3.69934,0.123535,-0.000577163,0.00634252,-0.00494708,0.00891957,-0.00315422,-1.09055,0.00723087,0.0132732,1840,708,3.69936,-0.123529
623,316,3.70471,0.168335,-0.000782058,0.00433025,-0.00435311,0.00682221,-0.00327402,-1.05088,0.00594784,0.0106071,1847,708,3.70471,-0.168311
630,316,3.67981,0.206238,-0.000872546,0.00337541,-0.00340112,0.00526128,-0.00275842,-1.06452,0.00470474,0.0122556,1854,708,3.67984,-0.206211
637,316,3.68127,0.280884,-0.000755486,0.00276845,-0.00235176,0.00394507,-0.0019321,-1.1069,0.00345889,0.0115445,1861,708,3.68125,-0.280866
644,316,3.69397,0.317566,-0.000598181,0.00203067,-0.00142594,0.00265558,-0.00122309,-1.15776,0.00228969,0.0114102,1868,708,3.69403,-0.317538
651,316,3.66736,0.346985,-0.00030863,0.00125143,-0.000692175,0.00151426,-0.000571457,-1.2079,0.00124452,0.0120952,1875,708,3.66736,-0.346961
658,316,3.6637,0.369202,0.00014392,0.000730262,0.000278803,0.000841665,3.25161e-05,1.19065,0.000550592,0.0167738,1882,708,3.66365,-0.369198
665,316,3.67651,0.426086,0.000168632,0.000315669,0.000544105,0.000791199,-0.000306899,0.852551,0.000654218,0.0141078,1889,708,3.67656,-0.426092
672,316,3.65503,0.521729,-0.000271177,-0.000863875,0.000562891,6.86099e-05,-0.00120366,0.543096,0.000826261,0.0117679,1896,708,3.65505,-0.521731
679,316,3.66577,0.559265,-0.000786695,-0.00118957,0.000327298,-0.000603813,-0.00137245,0.509546,0.000794286,0.0170365,1903,708,3.6658,-0.55924
686,316,3.62378,0.559387,-0.00196973,-0.00177392,-0.000114592,-0.00172111,-0.00202255,-1.13891,0.00125996,0.0288109,1910,708,3.62378,-0.559365
693,316,3.4292,0.575134,-0.00376211,-0.00252098,-0.000956021,-0.00200178,-0.00428132,-1.07327,0.00247355,0.0434937,1917,708,3.42921,-0.575104
700,316,3.8324,1.37482,0,0,0,0,0,0,0,-1,1924,708,3.83236,-1.37479
707,316,4.14429,1.48572,-0.0110975,-0.00430987,-0.00428138,-0.00224034,-0.0131671,-1.12053,0.00813476,0.0463566,1931,708,4.14434,-1.48575
714,316,4.18982,1.42352,-0.0176399,-0.00519304,-0.00710823,-0.00196883,-0.0208642,-1.14496,0.0133018,0.0452586,1938,708,4.1898,-1.4235
721,316,3.45313,0.885925,-0.0270452,-0.00584794,-0.0109343,-0.00121865,-0.0316745,-1.1703,0.020722,0.0455163,1945,708,3.45309,-0.885899
728,316,0,0,0,0,0,0,0,0,0,-1,1952,708,0,0
735,316,0,0,0,0,0,0,0,0,0,-1,1959,708,0,0
742,316,0,0,0,0,0,0,0,0,0,-1,1966,708,0,0
749,316,0,0,0,0,0,0,0,0,0,-1,1973,708,0,0
756,316,0,0,0,0,0,0,0,0,0,-1,1980,708,0,0
763,316,0,0,0,0,0,0,0,0,0,-1,1987,708,0,0
770,316,0,0,0,0,0,0,0,0,0,-1,1994,708,0,0
777,316,0,0,0,0,0,0,0,0,0,-1,2001,708,0,0
784,316,0,0,0,0,0,0,0,0,0,-1,2008,708,0,0
791,316,0,0,0,0,0,0,0,0,0,-1,2015,708,0,0
798,316,0,0,0,0,0,0,0,0,0,-1,2022,708,0,0
805,316,0,0,0,0,0,0,0,0,0,-1,2029,708,0,0
812,316,0,0,0,0,0,0,0,0,0,-1,2036,708,0,0
-700,309,0,0,0,0,0,0,0,0,0,-1,524,715,0,0
-693,309,0,0,0,0,0,0,0,0,0,-1,531,715,0,0
-686,309,0,0,0,0,0,0,0,0,0,-1,538,715,0,0
-679,309,0,0,0,0,0,0,0,0,0,-1,545,715,0,0
-672,309,0,0,0,0,0,0,0,0,0,-1,552,715,0,0
-665,309,0,0,0,0,0,0,0,0,0,-1,559,715,0,0
-658,309,0,0,0,0,0,0,0,0,0,-1,566,715,0,0
-651,309,0,0,0,0,0,0,0,0,0,-1,573,715,0,0
-644,309,0,0,0,0,0,0,0,0,0,-1,580,715,0,0
-637,309,0,0,0,0,0,0,0,0,0,-1,587,715,0,0
-630,309,0,0,0,0,0,0,0,0,0,-1,594,715,0,0
-623,309,0,0,0,0,0,0,0,0,0,-1,601,715,0,0
-616,309,0,0,0,0,0,0,0,0,0,-1,608,715,0,0
-609,309,-0.50708,0.808044,0,0,0,0,0,0,0,-1,615,715,-0.507074,-0.808029
-602,309,2.29773,-5.45007,0,0,0,0,0,0,0,-1,622,715,2.29775,5.45005
-595,309,1.82629,-5.47357,-0.0143667,-0.09638,0.0367402,-0.000315346,-0.110431,0.365288,0.073516,0.0472173,629,715,1.8263,5.47356
-588,309,1.34814,-5.46948,0,0,0,0,0,0,0,-1,636,715,1.34812,5.46948
-581,309,-0.241577,0.0610352,0,0,0,0,0,0,0,-1,643,715,-0.241583,-0.0610315
-574,309,-0.216858,0.112488,0.00235264,-0.0384083,0.0172172,0.00865168,-0.0447074,0.350731,0.0330682,0.0490614,650,715,-0.216841,-0.112508
-567,309,-0.171692,0.120178,0.00436141,-0.0258556,0.012572,0.008908,-0.0304022,0.34701,0.0237998,0.0457239,657,715,-0.171704,-0.120173
-560,309,0.238159,0.619141,0.00530358,-0.0167244,0.00883787,0.00841106,-0.0198319,0.338108,0.0167446,0.0377783,664,715,0.238149,-0.619138
-553,309,0.103149,0.559143,0.00537556,-0.0102633,0.00593466,0.00737263,-0.0122604,0.324606,0.0114516,0.0215429,671,715,0.103143,-0.559126
-546,309,0.0928345,0.506531,0.00530955,-0.00425604,0.00344008,0.00641822,-0.0053647,0.311768,0.00681193,0.0136531,678,715,0.0928286,-0.506512
-539,309,0.0923462,0.425476,0.00438577,-0.000913623,0.0017913,0.00493445,-0.00146231,0.297232,0.00387028,0.0129878,685,715,0.0923396,-0.425449
-532,309,0.0853271,0.383789,0.00246229,-0.000830486,0.00166246,0.00315564,-0.00152384,0.395129,0.00275591,0.0103869,692,715,0.0853139,-0.383768
-525,309,0.0847168,0.351257,0.000102901,-0.000782806,0.00169131,0.00140837,-0.00208828,0.657352,0.00203147,0.0137096,699,715,0.0847359,-0.351263
-518,309,0.106995,0.309021,-0.00260641,-0.000802795,0.00205597,0.000540451,-0.00394966,0.992077,0.00283051,0.0146999,706,715,0.107019,-0.309029
-511,309,0.107544,0.268127,-0.00543978,-0.00257293,0.00245395,-0.00116442,-0.00684828,1.04973,0.00423113,0.011752,713,715,0.107527,-0.268147
-504,309,0.107727,0.219666,-0.00721016,-0.00404245,0.00273194,-0.00246844,-0.00878416,1.0481,0.00523117,0.00953386,720,715,0.107744,-0.219682
-497,309,0.113464,0.181335,-0.00871664,-0.00551583,0.0033567,-0.00339753,-0.0108349,1.00785,0.00639886,0.0130817,727,715,0.113435,-0.181324
-490,309,0.0916138,0.145325,-0.0098282,-0.00703383,0.00400463,-0.00418964,-0.0126724,0.953242,0.00745504,0.01452,734,715,0.0915847,-0.145318
-483,309,0.0599365,0.122498,-0.0113329,-0.00932831,0.00451639,-0.00570434,-0.0149569,0.894591,0.00871598,0.0246218,741,715,0.0599378,-0.122512
-476,309,-0.304382,-0.0836182,-0.0145965,-0.00965693,0.00479179,-0.00673588,-0.0175175,1.02335,0.0102033,0.0354763,748,715,-0.304358,0.0836226
-469,309,-0.969543,-0.417358,-0.0181487,-0.0116418,0.00596398,-0.00810156,-0.0216889,1.03509,0.0126549,0.0408864,755,715,-0.969554,0.417338
-462,309,-1.52301,-0.634888,-0.0225022,-0.0124591,0.00660463,-0.00918386,-0.0257775,1.11043,0.0150862,0.0416749,762,715,-1.52299,0.634858
-455,309,0.0670166,0.198486,0,0,0,0,0,0,0,-1,769,715,0.0670045,-0.198474
-448,309,-0.355469,-0.296082,-0.0358081,-0.0127622,0.00769932,-0.0104266,-0.0381437,1.27627,0.0227639,0.0437482,776,715,-0.355445,0.296097
-441,309,-0.062561,-0.668762,-0.0452598,-0.0114036,0.0082148,-0.00951567,-0.0471477,1.3449,0.028789,0.0430492,783,715,-0.0625803,0.668773
-434,309,0.700195,-1.13574,0,0,0,0,0,0,0,-1,790,715,0.700213,1.13575
-427,309,1.56055,-1.70636,0,0,0,0,0,0,0,-1,797,715,1.56054,1.70636
-420,309,-1.28766,0.906494,0,0,0,0,0,0,0,-1,804,715,-1.28763,-0.906513
-413,309,0,0,0,0,0,0,0,0,0,-1,811,715,0,0
-406,309,0,0,0,0,0,0,0,0,0,-1,818,715,0,0
-399,309,0,0,0,0,0,0,0,0,0,-1,825,715,0,0
-392,309,0,0,0,0,0,0,0,0,0,-1,832,715,0,0
-385,309,0,0,0,0,0,0,0,0,0,-1,839,715,0,0
-378,309,0,0,0,0,0,0,0,0,0,-1,846,715,0,0
-371,309,0,0,0,0,0,0,0,0,0,-1,853,715,0,0
-364,309,0,0,0,0,0,0,0,0,0,-1,860,715,0,0
-357,309,0,0,0,0,0,0,0,0,0,-1,867,715,0,0
-350,309,0,0,0,0,0,0,0,0,0,-1,874,715,0,0
-343,309,0,0,0,0,0,0,0,0,0,-1,881,715,0,0
-336,309,0,0,0,0,0,0,0,0,0,-1,888,715,0,0
-329,309,0,0,0,0,0,0,0,0,0,-1,895,715,0,0
-322,309,0,0,0,0,0,0,0,0,0,-1,902,715,0,0
-315,309,0,0,0,0,0,0,0,0,0,-1,909,715,0,0
-308,309,0,0,0,0,0,0,0,0,0,-1,916,715,0,0
-301,309,0,0,0,0,0,0,0,0,0,-1,923,715,0,0
-294,309,0,0,0,0,0,0,0,0,0,-1,930,715,0,0
-287,309,0,0,0,0,0,0,0,0,0,-1,937,715,0,0
-280,309,0,0,0,0,0,0,0,0,0,-1,944,715,0,0
-273,309,0,0,0,0,0,0,0,0,0,-1,951,715,0,0
-266,309,0,0,0,0,0,0,0,0,0,-1,958,715,0,0
-259,309,0,0,0,0,0,0,0,0,0,-1,965,715,0,0
-252,309,0,0,0,0,0,0,0,0,0,-1,972,715,0,0
-245,309,0,0,0,0,0,0,0,0,0,-1,979,715,0,0
-238,309,0,0,0,0,0,0,0,0,0,-1,986,715,0,0
-231,309,0,0,0,0,0,0,0,0,0,-1,993,715,0,0
-224,309,0,0,0,0,0,0,0,0,0,-1,1000,715,0,0
-217,309,0,0,0,0,0,0,0,0,0,-1,1007,715,0,0
-210,309,0,0,0,0,0,0,0,0,0,-1,1014,715,0,0
-203,309,0,0,0,0,0,0,0,0,0,-1,1021,715,0,0
-196,309,0,0,0,0,0,0,0,0,0,-1,1028,715,0,0
-189,309,0,0,0,0,0,0,0,0,0,-1,1035,715,0,0
-182,309,0,0,0,0,0,0,0,0,0,-1,1042,715,0,0
-175,309,0,0,0,0,0,0,0,0,0,-1,1049,715,0,0
-168,309,0,0,0,0,0,0,0,0,0,-1,1056,715,0,0
-161,309,0,0,0,0,0,0,0,0,0,-1,1063,715,0,0
-154,309,0,0,0,0,0,0,0,0,0,-1,1070,715,0,0
-147,309,0,0,0,0,0,0,0,0,0,-1,1077,715,0,0
-140,309,0,0,0,0,0,0,0,0,0,-1,1084,715,0,0
-133,309,0,0,0,0,0,0,0,0,0,-1,1091,715,0,0
-126,309,0,0,0,0,0,0,0,0,0,-1,1098,715,0,0
-119,309,0,0,0,0,0,0,0,0,0,-1,1105,715,0,0
-112,309,0,0,0,0,0,0,0,0,0,-1,1112,715,0,0
-105,309,0,0,0,0,0,0,0,0,0,-1,1119,715,0,0
-98,309,0,0,0,0,0,0,0,0,0,-1,1126,715,0,0
-91,309,0,0,0,0,0,0,0,0,0,-1,1133,715,0,0
-84,309,0,0,0,0,0,0,0,0,0,-1,1140,715,0,0
-77,309,0,0,0,0,0,0,0,0,0,-1,1147,715,0,0
-70,309,0,0,0,0,0,0,0,0,0,-1,1154,715,0,0
-63,309,0,0,0,0,0,0,0,0,0,-1,1161,715,0,0
-56,309,0,0,0,0,0,0,0,0,0,-1,1168,715,0,0
-49,309,0,0,0,0,0,0,0,0,0,-1,1175,715,0,0
-42,309,0,0,0,0,0,0,0,0,0,-1,1182,715,0,0
-35,309,0,0,0,0,0,0,0,0,0,-1,1189,715,0,0
-28,309,0,0,0,0,0,0,0,0,0,-1,1196,715,0,0
-21,309,0,0,0,0,0,0,0,0,0,-1,1203,715,0,0
-14,309,0,0,0,0,0,0,0,0,0,-1,1210,715,0,0
-7,309,0,0,0,0,0,0,0,0,0,-1,1217,715,0,0
0,309,0,0,0,0,0,0,0,0,0,-1,1224,715,0,0
7,309,0,0,0,0,0,0,0,0,0,-1,1231,715,0,0
14,309,0,0,0,0,0,0,0,0,0,-1,1238,715,0,0
21,309,0,0,0,0,0,0,0,0,0,-1,1245,715,0,0
28,309,0,0,0,0,0,0,0,0,0,-1,1252,715,0,0
35,309,0,0,0,0,0,0,0,0,0,-1,1259,715,0,0
42,309,0,0,0,0,0,0,0,0,0,-1,1266,715,0,0
49,309,0,0,0,0,0,0,0,0,0,-1,1273,715,0,0
56,309,0,0,0,0,0,0,0,0,0,-1,1280,715,0,0
63,309,0,0,0,0,0,0,0,0,0,-1,1287,715,0,0
70,309,0,0,0,0,0,0,0,0,0,-1,1294,715,0,0
77,309,0,0,0,0,0,0,0,0,0,-1,1301,715,0,0
84,309,0,0,0,0,0,0,0,0,0,-1,1308,715,0,0
91,309,0,0,0,0,0,0,0,0,0,-1,1315,715,0,0
98,309,0,0,0,0,0,0,0,0,0,-1,1322,715,0,0
105,309,0,0,0,0,0,0,0,0,0,-1,1329,715,0,0
112,309,0,0,0,0,0,0,0,0,0,-1,1336,715,0,0
119,309,0,0,0,0,0,0,0,0,0,-1,1343,715,0,0
126,309,0,0,0,0,0,0,0,0,0,-1,1350,715,0,0
133,309,0,0,0,0,0,0,0,0,0,-1,1357,715,0,0
140,309,0,0,0,0,0,0,0,0,0,-1,1364,715,0,0
147,309,0,0,0,0,0,0,0,0,0,-1,1371,715,0,0
154,309,0,0,0,0,0,0,0,0,0,-1,1378,715,0,0
161,309,0,0,0,0,0,0,0,0,0,-1,1385,715,0,0
168,309,0,0,0,0,0,0,0,0,0,-1,1392,715,0,0
175,309,0,0,0,0,0,0,0,0,0,-1,1399,715,0,0
182,309,0,0,0,0,0,0,0,0,0,-1,1406,715,0,0
189,309,0,0,0,0,0,0,0,0,0,-1,1413,715,0,0
196,309,0,0,0,0,0,0,0,0,0,-1,1420,715,0,0
203,309,0,0,0,0,0,0,0,0,0,-1,1427,715,0,0
210,309,0,0,0,0,0,0,0,0,0,-1,1434,715,0,0
217,309,0,0,0,0,0,0,0,0,0,-1,1441,715,0,0
224,309,0,0,0,0,0,0,0,0,0,-1,1448,715,0,0
231,309,0,0,0,0,0,0,0,0,0,-1,1455,715,0,0
238,309,0,0,0,0,0,0,0,0,0,-1,1462,715,0,0
245,309,0,0,0,0,0,0,0,0,0,-1,1469,715,0,0
252,309,0,0,0,0,0,0,0,0,0,-1,1476,715,0,0
259,309,0,0,0,0,0,0,0,0,0,-1,1483,715,0,0
266,309,0,0,0,0,0,0,0,0,0,-1,1490,715,0,0
273,309,0,0,0,0,0,0,0,0,0,-1,1497,715,0,0
280,309,0,0,0,0,0,0,0,0,0,-1,1504,715,0,0
287,309,0,0,0,0,0,0,0,0,0,-1,1511,715,0,0
294,309,0,0,0,0,0,0,0,0,0,-1,1518,715,0,0
301,309,0,0,0,0,0,0,0,0,0,-1,1525,715,0,0
308,309,0,0,0,0,0,0,0,0,0,-1,1532,715,0,0
315,309,0,0,0,0,0,0,0,0,0,-1,1539,715,0,0
322,309,0,0,0,0,0,0,0,0,0,-1,1546,715,0,0
329,309,0,0,0,0,0,0,0,0,0,-1,1553,715,0,0
336,309,0,0,0,0,0,0,0,0,0,-1,1560,715,0,0
343,309,0,0,0,0,0,0,0,0,0,-1,1567,715,0,0
350,309,0,0,0,0,0,0,0,0,0,-1,1574,715,0,0
357,309,0,0,0,0,0,0,0,0,0,-1,1581,715,0,0
364,309,0,0,0,0,0,0,0,0,0,-1,1588,715,0,0
371,309,0,0,0,0,0,0,0,0,0,-1,1595,715,0,0
378,309,0,0,0,0,0,0,0,0,0,-1,1602,715,0,0
385,309,0,0,0,0,0,0,0,0,0,-1,1609,715,0,0
392,309,0,0,0,0,0,0,0,0,0,-1,1616,715,0,0
399,309,0,0,0,0,0,0,0,0,0,-1,1623,715,0,0
406,309,0,0,0,0,0,0,0,0,0,-1,1630,715,0,0
413,309,0,0,0,0,0,0,0,0,0,-1,1637,715,0,0
420,309,0,0,0,0,0,0,0,0,0,-1,1644,715,0,0
427,309,0,0,0,0,0,0,0,0,0,-1,1651,715,0,0
434,309,0,0,0,0,0,0,0,0,0,-1,1658,715,0,0
441,309,0,0,0,0,0,0,0,0,0,-1,1665,715,0,0
448,309,0,0,0,0,0,0,0,0,0,-1,1672,715,0,0
455,309,0,0,0,0,0,0,0,0,0,-1,1679,715,0,0
462,309,0,0,0,0,0,0,0,0,0,-1,1686,715,0,0
469,309,0,0,0,0,0,0,0,0,0,-1,1693,715,0,0
476,309,0,0,0,0,0,0,0,0,0,-1,1700,715,0,0
483,309,0,0,0,0,0,0,0,0,0,-1,1707,715,0,0
490,309,0,0,0,0,0,0,0,0,0,-1,1714,715,0,0
497,309,0,0,0,0,0,0,0,0,0,-1,1721,715,0,0
504,309,0,0,0,0,0,0,0,0,0,-1,1728,715,0,0
511,309,0,0,0,0,0,0,0,0,0,-1,1735,715,0,0
518,309,0,0,0,0,0,0,0,0,0,-1,1742,715,0,0
525,309,0,0,0,0,0,0,0,0,0,-1,1749,715,0,0
532,309,0,0,0,0,0,0,0,0,0,-1,1756,715,0,0
539,309,4.83508,-0.221436,0,0,0,0,0,0,0,-1,1763,715,4.83503,0.221443
546,309,4.68274,-0.318115,0,0,0,0,0,0,0,-1,1770,715,4.68269,0.318137
553,309,4.7417,-0.205627,0,0,0,0,0,0,0,-1,1777,715,4.74166,0.205625
560,309,6.08569,1.87323,0,0,0,0,0,0,0,-1,1784,715,6.08573,-1.87321
567,309,5.91479,1.98608,0,0,0,0,0,0,0,-1,1791,715,5.91477,-1.98606
574,309,4.15002,0.634216,0,0,0,0,0,0,0,-1,1798,715,4.14999,-0.63422
581,309,4.42468,0.982117,0,0,0,0,0,0,0,-1,1805,715,4.4247,-0.982146
588,309,4.30249,0.842651,0.00355518,0.0160313,-0.00294806,0.0166929,0.00289364,-1.35006,0.0103004,0.047405,1812,715,4.30251,-0.842624
595,309,4.3728,0.605225,0.00164346,0.0143725,-0.00416017,0.0156115,0.000404418,-1.28133,0.0102755,0.0440332,1819,715,4.37286,-0.605232
602,309,3.55408,0.237976,0,0,0,0,0,0,0,-1,1826,715,3.55408,-0.237962
609,309,3.71118,0.161499,-0.000987418,0.0117037,-0.00551265,0.0137638,-0.00304753,-1.21316,0.0103425,0.0397718,1833,715,3.71124,-0.161482
616,309,3.7428,0.137268,-0.00141257,0.00863882,-0.00583237,0.0113121,-0.00408584,-1.14102,0.00921055,0.0191041,1840,715,3.74275,-0.137267
623,309,3.74744,0.178833,-0.00176137,0.00620884,-0.00517833,0.00875796,-0.0043105,-1.11335,0.00768934,0.0095268,1847,715,3.74738,-0.178852
630,309,3.71924,0.2052,-0.00187264,0.00495612,-0.00414066,0.00690858,-0.0038251,-1.13018,0.00628175,0.00979312,1854,715,3.71927,-0.205229
637,309,3.70203,0.262085,-0.0016753,0.00404333,-0.00297275,0.00530869,-0.00294065,-1.16837,0.00482773,0.012625,1861,715,3.70199,-0.262079
644,309,3.69727,0.310608,-0.00145299,0.00298638,-0.00188743,0.00368036,-0.00214697,-1.21846,0.00340301,0.0140929,1868,715,3.69724,-0.31058
651,309,3.71301,0.352051,-0.00112147,0.00200596,-0.00106303,0.00233307,-0.00144859,-1.27227,0.00220316,0.0133601,1875,715,3.71303,-0.352042
658,309,3.73596,0.36615,-0.000677168,0.00119874,-7.13838e-05,0.00120145,-0.000679881,-1.53282,0.00110001,0.0180492,1882,715,3.73594,-0.366174
665,309,3.74414,0.411804,-0.000641005,0.000576534,0.000191153,0.00060584,-0.000670311,1.41867,0.0007371,0.016176,1889,715,3.74416,-0.411814
672,309,3.72461,0.509277,-0.00104095,-0.000779488,0.000195061,-0.000675401,-0.00114503,1.08062,0.000664634,0.0151211,1896,715,3.72466,-0.509259
679,309,3.71301,0.575073,-0.00162755,-0.00112617,-0.000116819,-0.00110028,-0.00165343,-1.35276,0.000971873,0.0159289,1903,715,3.71305,-0.575047
686,309,3.68628,0.592773,-0.00296402,-0.00170677,-0.000634188,-0.00144244,-0.00322835,-1.17589,0.0018674,0.0187031,1910,715,3.68626,-0.592797
693,309,3.52209,0.593872,-0.00494345,-0.00240511,-0.00152877,-0.00168734,-0.00566122,-1.13184,0.0033562,0.0286414,1917,715,3.52207,-0.593864
700,309,3.41638,0.83136,0,0,0,0,0,0,0,-1,1924,715,3.41636,-0.83139
707,309,4.10413,1.38727,-0.0126169,-0.00396768,-0.00478525,-0.00184242,-0.0147422,-1.15284,0.00927518,0.0466765,1931,715,4.10415,-1.38726
714,309,4.68921,2.06299,-0.0191823,-0.00467722,-0.0074364,-0.0015423,-0.0223172,-1.17184,0.0143916,0.042817,1938,715,4.6892,-2.06302
721,309,3.63525,0.887817,-0.0283836,-0.00511184,-0.01093,-0.000783438,-0.032712,-1.19373,0.0215516,0.0457479,1945,715,3.63521,-0.887788
728,309,0,0,0,0,0,0,0,0,0,-1,1952,715,0,0
735,309,0,0,0,0,0,0,0,0,0,-1,1959,715,0,0
742,309,0,0,0,0,0,0,0,0,0,-1,1966,715,0,0
749,309,0,0,0,0,0,0,0,0,0,-1,1973,715,0,0
756,309,0,0,0,0,0,0,0,0,0,-1,1980,715,0,0
763,309,0,0,0,0,0,0,0,0,0,-1,1987,715,0,0
770,309,0,0,0,0,0,0,0,0,0,-1,1994,715,0,0
777,309,0,0,0,0,0,0,0,0,0,-1,2001,715,0,0
784,309,0,0,0,0,0,0,0,0,0,-1,2008,715,0,0
791,309,0,0,0,0,0,0,0,0,0,-1,2015,715,0,0
798,309,0,0,0,0,0,0,0,0,0,-1,2022,715,0,0
805,309,0,0,0,0,0,0,0,0,0,-1,2029,715,0,0
812,309,0,0,0,0,0,0,0,0,0,-1,2036,715,0,0
-700,302,0,0,0,0,0,0,0,0,0,-1,524,722,0,0
-693,302,0,0,0,0,0,0,0,0,0,-1,531,722,0,0
-686,302,0,0,0,0,0,0,0,0,0,-1,538,722,0,0
-679,302,0,0,0,0,0,0,0,0,0,-1,545,722,0,0
-672,302,0,0,0,0,0,0,0,0,0,-1,552,722,0,0
-665,302,0,0,0,0,0,0,0,0,0,-1,559,722,0,0
-658,302,0,0,0,0,0,0,0,0,0,-1,566,722,0,0
-651,302,0,0,0,0,0,0,0,0,0,-1,573,722,0,0
-644,302,0,0,0,0,0,0,0,0,0,-1,580,722,0,0
-637,302,0,0,0,0,0,0,0,0,0,-1,587,722,0,0
-630,302,0,0,0,0,0,0,0,0,0,-1,594,722,0,0
-623,302,0,0,0,0,0,0,0,0,0,-1,601,722,0,0
-616,302,0,0,0,0,0,0,0,0,0,-1,608,722,0,0
-609,302,2.21393,-4.1554,0,0,0,0,0,0,0,-1,615,722,2.21392,4.15537
-602,302,1.73248,-4.22327,-0.0210606,-0.118874,0.0421225,-0.00542144,-0.134514,0.355503,0.0879243,0.0467808,622,722,1.73247,4.22325
-595,302,1.24585,-4.29767,-0.0128681,-0.0947309,0.0352485,0.000217512,-0.107817,0.355469,0.0719503,0.0454056,629,722,1.24588,4.29769
-588,302,-0.114624,0.17981,0,0,0,0,0,0,0,-1,636,722,-0.114626,-0.179782
-581,302,-0.213379,0.219543,0,0,0,0,0,0,0,-1,643,722,-0.21336,-0.219545
-574,302,-0.213196,0.264465,0,0,0,0,0,0,0,-1,650,722,-0.213222,-0.264481
-567,302,0.031311,0.449585,0,0,0,0,0,0,0,-1,657,722,0.0312864,-0.449594
-560,302,0.125916,0.55011,0.00496681,-0.0167819,0.00864688,0.00798562,-0.0198007,0.335892,0.0165188,0.0301264,664,722,0.125901,-0.550116
-553,302,0.0509033,0.551941,0.00508868,-0.0102034,0.00576242,0.00701695,-0.0121317,0.322916,0.0111862,0.0132225,671,722,0.0509097,-0.551957
-546,302,0.0317993,0.480225,0.00513134,-0.00417068,0.00335831,0.00621706,-0.00525641,0.312689,0.00663195,0.0133577,678,722,0.0318265,-0.480239
-539,302,0.027832,0.433289,0.00422719,-0.000962917,0.00182013,0.00480187,-0.00153759,0.305827,0.0038184,0.0127545,685,722,0.0278021,-0.433313
-532,302,0.024231,0.398621,0.00217657,-0.000776195,0.00177425,0.00300836,-0.00160798,0.438388,0.00270581,0.0128824,692,722,0.0242457,-0.398611
-525,302,0.0401001,0.357117,-0.000477964,-0.000595643,0.00190875,0.00137285,-0.00244646,0.76999,0.00223393,0.018443,699,722,0.0401175,-0.357118
-518,302,0.0531006,0.310913,-0.00339866,-0.000631588,0.0023463,0.000708717,-0.00473896,1.05179,0.00342011,0.0180956,706,722,0.0531131,-0.310898
-511,302,0.0552368,0.282166,-0.00635338,-0.00259761,0.00277748,-0.00112276,-0.00782824,1.08265,0.00488775,0.00932788,713,722,0.0552089,-0.282164
-504,302,0.0735474,0.238892,-0.00837762,-0.00429502,0.00308899,-0.00263379,-0.0100389,1.07737,0.00601019,0.00854203,720,722,0.0735239,-0.238884
-497,302,0.0662231,0.197266,-0.0102928,-0.00605122,0.00368629,-0.0039192,-0.0124248,1.04644,0.00733459,0.0126375,727,722,0.0662523,-0.197243
-490,302,0.0610352,0.154663,-0.0118112,-0.00786835,0.00430512,-0.00510474,-0.0145748,1.00011,0.00853966,0.0162754,734,722,0.061013,-0.154686
-483,302,-0.0301514,0.176025,0,0,0,0,0,0,0,-1,741,722,-0.030157,-0.17605
-476,302,-0.401062,-0.0609741,-0.0170104,-0.0113986,0.00492044,-0.00854025,-0.0198688,1.04453,0.0115088,0.0371874,748,722,-0.40108,0.0609519
-469,302,-1.31317,-0.570618,-0.0205569,-0.0138531,0.00573364,-0.0105634,-0.0238465,1.04991,0.0137976,0.0405426,755,722,-1.31317,0.570639
-462,302,-2.11444,0.86908,-0.0244815,-0.015189,0.00598753,-0.0122564,-0.027414,1.11536,0.015857,0.0426922,762,722,-2.11442,-0.869091
-455,302,-1.8241,1.37994,-0.0296276,-0.0161037,0.00600787,-0.0138203,-0.031911,1.20759,0.0184788,0.0440388,769,722,-1.82407,-1.37995
-448,302,-0.839539,-0.687683,0,0,0,0,0,0,0,-1,776,722,-0.839553,0.687684
-441,302,-0.644104,-1.15735,0,0,0,0,0,0,0,-1,783,722,-0.644118,1.15737
-434,302,-0.27124,-1.45209,0,0,0,0,0,0,0,-1,790,722,-0.271259,1.45207
-427,302,-0.0908203,0.837769,0,0,0,0,0,0,0,-1,797,722,-0.0908468,-0.837776
-420,302,0,0,0,0,0,0,0,0,0,-1,804,722,0,0
-413,302,0,0,0,0,0,0,0,0,0,-1,811,722,0,0
-406,302,0,0,0,0,0,0,0,0,0,-1,818,722,0,0
-399,302,0,0,0,0,0,0,0,0,0,-1,825,722,0,0
-392,302,0,0,0,0,0,0,0,0,0,-1,832,722,0,0
-385,302,0,0,0,0,0,0,0,0,0,-1,839,722,0,0
-378,302,0,0,0,0,0,0,0,0,0,-1,846,722,0,0
-371,302,0,0,0,0,0,0,0,0,0,-1,853,722,0,0
-364,302,0,0,0,0,0,0,0,0,0,-1,860,722,0,0
-357,302,0,0,0,0,0,0,0,0,0,-1,867,722,0,0
-350,302,0,0,0,0,0,0,0,0,0,-1,874,722,0,0
-343,302,0,0,0,0,0,0,0,0,0,-1,881,722,0,0
-336,302,0,0,0,0,0,0,0,0,0,-1,888,722,0,0
-329,302,0,0,0,0,0,0,0,0,0,-1,895,722,0,0
-322,302,0,0,0,0,0,0,0,0,0,-1,902,722,0,0
-315,302,0,0,0,0,0,0,0,0,0,-1,909,722,0,0
-308,302,0,0,0,0,0,0,0,0,0,-1,916,722,0,0
-301,302,0,0,0,0,0,0,0,0,0,-1,923,722,0,0
-294,302,0,0,0,0,0,0,0,0,0,-1,930,722,0,0
-287,302,0,0,0,0,0,0,0,0,0,-1,937,722,0,0
-280,302,0,0,0,0,0,0,0,0,0,-1,944,722,0,0
-273,302,0,0,0,0,0,0,0,0,0,-1,951,722,0,0
-266,302,0,0,0,0,0,0,0,0,0,-1,958,722,0,0
-259,302,0,0,0,0,0,0,0,0,0,-1,965,722,0,0
-252,302,0,0,0,0,0,0,0,0,0,-1,972,722,0,0
-245,302,0,0,0,0,0,0,0,0,0,-1,979,722,0,0
-238,302,0,0,0,0,0,0,0,0,0,-1,986,722,0,0
-231,302,0,0,0,0,0,0,0,0,0,-1,993,722,0,0
-224,302,0,0,0,0,0,0,0,0,0,-1,1000,722,0,0
-217,302,0,0,0,0,0,0,0,0,0,-1,1007,722,0,0
-210,302,0,0,0,0,0,0,0,0,0,-1,1014,722,0,0
-203,302,0,0,0,0,0,0,0,0,0,-1,1021,722,0,0
-196,302,0,0,0,0,0,0,0,0,0,-1,1028,722,0,0
-189,302,0,0,0,0,0,0,0,0,0,-1,1035,722,0,0
-182,302,0,0,0,0,0,0,0,0,0,-1,1042,722,0,0
-175,302,0,0,0,0,0,0,0,0,0,-1,1049,722,0,0
-168,302,0,0,0,0,0,0,0,0,0,-1,1056,722,0,0
-161,302,0,0,0,0,0,0,0,0,0,-1,1063,722,0,0
-154,302,0,0,0,0,0,0,0,0,0,-1,1070,722,0,0
-147,302,0,0,0,0,0,0,0,0,0,-1,1077,722,0,0
-140,302,0,0,0,0,0,0,0,0,0,-1,1084,722,0,0
-133,302,0,0,0,0,0,0,0,0,0,-1,1091,722,0,0
-126,302,0,0,0,0,0,0,0,0,0,-1,1098,722,0,0
-119,302,0,0,0,0,0,0,0,0,0,-1,1105,722,0,0
-112,302,0,0,0,0,0,0,0,0,0,-1,1112,722,0,0
-105,302,0,0,0,0,0,0,0,0,0,-1,1119,722,0,0
-98,302,0,0,0,0,0,0,0,0,0,-1,1126,722,0,0
-91,302,0,0,0,0,0,0,0,0,0,-1,1133,722,0,0
-84,302,0,0,0,0,0,0,0,0,0,-1,1140,722,0,0
-77,302,0,0,0,0,0,0,0,0,0,-1,1147,722,0,0
-70,302,0,0,0,0,0,0,0,0,0,-1,1154,722,0,0
-63,302,0,0,0,0,0,0,0,0,0,-1,1161,722,0,0
-56,302,0,0,0,0,0,0,0,0,0,-1,1168,722,0,0
-49,302,0,0,0,0,0,0,0,0,0,-1,1175,722,0,0
-42,302,0,0,0,0,0,0,0,0,0,-1,1182,722,0,0
-35,302,0,0,0,0,0,0,0,0,0,-1,1189,722,0,0
-28,302,0,0,0,0,0,0,0,0,0,-1,1196,722,0,0
-21,302,0,0,0,0,0,0,0,0,0,-1,1203,722,0,0
-14,302,0,0,0,0,0,0,0,0,0,-1,1210,722,0,0
-7,302,0,0,0,0,0,0,0,0,0,-1,1217,722,0,0
0,302,0,0,0,0,0,0,0,0,0,-1,1224,722,0,0
7,302,0,0,0,0,0,0,0,0,0,-1,1231,722,0,0
14,302,0,0,0,0,0,0,0,0,0,-1,1238,722,0,0
21,302,0,0,0,0,0,0,0,0,0,-1,1245,722,0,0
28,302,0,0,0,0,0,0,0,0,0,-1,1252,722,0,0
35,302,0,0,0,0,0,0,0,0,0,-1,1259,722,0,0
42,302,0,0,0,0,0,0,0,0,0,-1,1266,722,0,0
49,302,0,0,0,0,0,0,0,0,0,-1,1273,722,0,0
56,302,0,0,0,0,0,0,0,0,0,-1,1280,722,0,0
63,302,0,0,0,0,0,0,0,0,0,-1,1287,722,0,0
70,302,0,0,0,0,0,0,0,0,0,-1,1294,722,0,0
77,302,0,0,0,0,0,0,0,0,0,-1,1301,722,0,0
84,302,0,0,0,0,0,0,0,0,0,-1,1308,722,0,0
91,302,0,0,0,0,0,0,0,0,0,-1,1315,722,0,0
98,302,0,0,0,0,0,0,0,0,0,-1,1322,722,0,0
105,302,0,0,0,0,0,0,0,0,0,-1,1329,722,0,0
112,302,0,0,0,0,0,0,0,0,0,-1,1336,722,0,0
119,302,0,0,0,0,0,0,0,0,0,-1,1343,722,0,0
126,302,0,0,0,0,0,0,0,0,0,-1,1350,722,0,0
133,302,0,0,0,0,0,0,0,0,0,-1,1357,722,0,0
140,302,0,0,0,0,0,0,0,0,0,-1,1364,722,0,0
147,302,0,0,0,0,0,0,0,0,0,-1,1371,722,0,0
154,302,0,0,0,0,0,0,0,0,0,-1,1378,722,0,0
161,302,0,0,0,0,0,0,0,0,0,-1,1385,722,0,0
168,302,0,0,0,0,0,0,0,0,0,-1,1392,722,0,0
175,302,0,0,0,0,0,0,0,0,0,-1,1399,722,0,0
182,302,0,0,0,0,0,0,0,0,0,-1,1406,722,0,0
189,302,0,0,0,0,0,0,0,0,0,-1,1413,722,0,0
196,302,0,0,0,0,0,0,0,0,0,-1,1420,722,0,0
203,302,0,0,0,0,0,0,0,0,0,-1,1427,722,0,0
210,302,0,0,0,0,0,0,0,0,0,-1,1434,722,0,0
217,302,0,0,0,0,0,0,0,0,0,-1,1441,722,0,0
224,302,0,0,0,0,0,0,0,0,0,-1,1448,722,0,0
231,302,0,0,0,0,0,0,0,0,0,-1,1455,722,0,0
238,302,0,0,0,0,0,0,0,0,0,-1,1462,722,0,0
245,302,0,0,0,0,0,0,0,0,0,-1,1469,722,0,0
252,302,0,0,0,0,0,0,0,0,0,-1,1476,722,0,0
259,302,0,0,0,0,0,0,0,0,0,-1,1483,722,0,0
266,302,0,0,0,0,0,0,0,0,0,-1,1490,722,0,0
273,302,0,0,0,0,0,0,0,0,0,-1,1497,722,0,0
280,302,0,0,0,0,0,0,0,0,0,-1,1504,722,0,0
287,302,0,0,0,0,0,0,0,0,0,-1,1511,722,0,0
294,302,0,0,0,0,0,0,0,0,0,-1,1518,722,0,0
301,302,0,0,0,0,0,0,0,0,0,-1,1525,722,0,0
308,302,0,0,0,0,0,0,0,0,0,-1,1532,722,0,0
315,302,0,0,0,0,0,0,0,0,0,-1,1539,722,0,0
322,302,0,0,0,0,0,0,0,0,0,-1,1546,722,0,0
329,302,0,0,0,0,0,0,0,0,0,-1,1553,722,0,0
336,302,0,0,0,0,0,0,0,0,0,-1,1560,722,0,0
343,302,0,0,0,0,0,0,0,0,0,-1,1567,722,0,0
350,302,0,0,0,0,0,0,0,0,0,-1,1574,722,0,0
357,302,0,0,0,0,0,0,0,0,0,-1,1581,722,0,0
364,302,0,0,0,0,0,0,0,0,0,-1,1588,722,0,0
371,302,0,0,0,0,0,0,0,0,0,-1,1595,722,0,0
378,302,0,0,0,0,0,0,0,0,0,-1,1602,722,0,0
385,302,0,0,0,0,0,0,0,0,0,-1,1609,722,0,0
392,302,0,0,0,0,0,0,0,0,0,-1,1616,722,0,0
399,302,0,0,0,0,0,0,0,0,0,-1,1623,722,0,0
406,302,0,0,0,0,0,0,0,0,0,-1,1630,722,0,0
413,302,0,0,0,0,0,0,0,0,0,-1,1637,722,0,0
420,302,0,0,0,0,0,0,0,0,0,-1,1644,722,0,0
427,302,0,0,0,0,0,0,0,0,0,-1,1651,722,0,0
434,302,0,0,0,0,0,0,0,0,0,-1,1658,722,0,0
441,302,0,0,0,0,0,0,0,0,0,-1,1665,722,0,0
448,302,0,0,0,0,0,0,0,0,0,-1,1672,722,0,0
455,302,0,0,0,0,0,0,0,0,0,-1,1679,722,0,0
462,302,0,0,0,0,0,0,0,0,0,-1,1686,722,0,0
469,302,0,0,0,0,0,0,0,0,0,-1,1693,722,0,0
476,302,0,0,0,0,0,0,0,0,0,-1,1700,722,0,0
483,302,0,0,0,0,0,0,0,0,0,-1,1707,722,0,0
490,302,0,0,0,0,0,0,0,0,0,-1,1714,722,0,0
497,302,0,0,0,0,0,0,0,0,0,-1,1721,722,0,0
504,302,0,0,0,0,0,0,0,0,0,-1,1728,722,0,0
511,302,0,0,0,0,0,0,0,0,0,-1,1735,722,0,0
518,302,0,0,0,0,0,0,0,0,0,-1,1742,722,0,0
525,302,0,0,0,0,0,0,0,0,0,-1,1749,722,0,0
532,302,0,0,0,0,0,0,0,0,0,-1,1756,722,0,0
539,302,0,0,0,0,0,0,0,0,0,-1,1763,722,0,0
546,302,4.61084,-0.205139,0,0,0,0,0,0,0,-1,1770,722,4.61079,0.205166
553,302,4.69446,-0.200745,0,0,0,0,0,0,0,-1,1777,722,4.69446,0.200727
560,302,5.37891,0.927551,0.0160933,0.0229623,0.00335496,0.024329,0.0147266,1.18395,0.0141498,0.0472111,1784,722,5.37888,-0.927534
567,302,5.41968,1.13373,0.0120919,0.0227074,0.00149486,0.0229139,0.0118854,1.43353,0.0132324,0.0479913,1791,722,5.41968,-1.13373
574,302,4.8512,0.754395,0.00869352,0.0218115,-0.000559872,0.0218354,0.00866967,-1.52822,0.0126954,0.0441258,1798,722,4.85115,-0.754422
581,302,4.71838,0.76886,0.00571935,0.0202445,-0.00226344,0.020589,0.00537481,-1.41974,0.0123313,0.0444373,1805,722,4.7184,-0.76889
588,302,4.5033,0.724487,0.00319053,0.018854,-0.00369818,0.0196832,0.00236128,-1.35021,0.0124102,0.0460696,1812,722,4.50333,-0.724512
595,302,4.33582,0.580261,0.00120176,0.0171295,-0.00486679,0.0184989,-0.000167584,-1.29652,0.0123888,0.0411053,1819,722,4.33581,-0.580264
602,302,4.50305,0.372864,-0.000444126,0.0154186,-0.00571486,0.017263,-0.00228856,-1.25861,0.0123424,0.0401044,1826,722,4.50302,-0.372881
609,302,3.74524,0.180847,0,0,0,0,0,0,0,-1,1833,722,3.74524,-0.180827
616,302,3.79468,0.154419,-0.00222423,0.0110603,-0.00623129,0.0135256,-0.00468958,-1.19405,0.0109212,0.0337388,1840,722,3.79468,-0.15444
623,302,3.79492,0.17627,-0.00274122,0.00834726,-0.00551892,0.0106259,-0.00501984,-1.17924,0.00922432,0.0120805,1847,722,3.79487,-0.176286
630,302,3.75647,0.212341,-0.00289645,0.00686789,-0.00444409,0.00858765,-0.00461622,-1.20157,0.00773735,0.00982146,1854,722,3.75641,-0.212357
637,302,3.73657,0.256042,-0.00262602,0.00565553,-0.00318328,0.00673772,-0.0037082,-1.24309,0.00611491,0.0131499,1861,722,3.73651,-0.25605
644,302,3.74402,0.300415,-0.00233257,0.00425605,-0.00197447,0.00480244,-0.00287896,-1.30082,0.00448097,0.0149049,1868,722,3.74403,-0.300417
651,302,3.7666,0.357117,-0.00193638,0.00304548,-0.00108153,0.00327014,-0.00216105,-1.36598,0.00315742,0.0138417,1875,722,3.76665,-0.357108
658,302,3.79321,0.379761,-0.00149416,0.00190919,-0.000100867,0.00191218,-0.00149715,-1.54119,0.00197323,0.014531,1882,722,3.79322,-0.379782
665,302,3.78711,0.416931,-0.00143125,0.00105758,0.000142242,0.00106568,-0.00143935,1.51389,0.00145164,0.0145412,1889,722,3.78711,-0.416945
672,302,3.76599,0.491638,-0.00174495,-0.000467246,0.000130512,-0.000454051,-0.00175815,1.47004,0.00105387,0.0118272,1896,722,3.76604,-0.491656
679,302,3.75195,0.542114,-0.00234902,-0.000857201,-0.000264818,-0.000811587,-0.00239463,-1.40022,0.00140625,0.00960262,1903,722,3.75194,-0.542116
686,302,3.75269,0.567505,-0.00369589,-0.00137598,-0.000711074,-0.00117538,-0.0038965,-1.29583,0.00230789,0.011625,1910,722,3.75267,-0.567528
693,302,3.73328,0.569519,-0.00568626,-0.00197092,-0.00153294,-0.00142009,-0.00623709,-1.22584,0.00377481,0.0206185,1917,722,3.73332,-0.569499
700,302,3.76526,0.664673,-0.00873893,-0.00253772,-0.0026617,-0.00155196,-0.00972469,-1.21611,0.00603272,0.038812,1924,722,3.7652,-0.664695
707,302,3.97546,1.2652,0,0,0,0,0,0,0,-1,1931,722,3.97542,-1.26521
714,302,3.5824,0.545471,0,0,0,0,0,0,0,-1,1938,722,3.58241,-0.545472
721,302,3.04163,2.17432,-0.0277311,-0.00323484,-0.00882896,-0.000384389,-0.0305816,-1.25851,0.0202608,0.0460951,1945,722,3.04164,-2.17433
728,302,2.71985,1.72852,-0.0390889,-0.00235213,-0.0119885,0.001214,-0.042655,-1.28167,0.0288499,0.0488903,1952,722,2.71984,-1.72852
735,302,0,0,0,0,0,0,0,0,0,-1,1959,722,0,0
742,302,0,0,0,0,0,0,0,0,0,-1,1966,722,0,0
749,302,0,0,0,0,0,0,0,0,0,-1,1973,722,0,0
756,302,0,0,0,0,0,0,0,0,0,-1,1980,722,0,0
763,302,0,0,0,0,0,0,0,0,0,-1,1987,722,0,0
770,302,0,0,0,0,0,0,0,0,0,-1,1994,722,0,0
777,302,0,0,0,0,0,0,0,0,0,-1,2001,722,0,0
784,302,0,0,0,0,0,0,0,0,0,-1,2008,722,0,0
791,302,0,0,0,0,0,0,0,0,0,-1,2015,722,0,0
798,302,0,0,0,0,0,0,0,0,0,-1,2022,722,0,0
805,302,0,0,0,0,0,0,0,0,0,-1,2029,722,0,0
812,302,0,0,0,0,0,0,0,0,0,-1,2036,722,0,0
-700,295,0,0,0,0,0,0,0,0,0,-1,524,729,0,0
-693,295,0,0,0,0,0,0,0,0,0,-1,531,729,0,0
-686,295,0,0,0,0,0,0,0,0,0,-1,538,729,0,0
-679,295,0,0,0,0,0,0,0,0,0,-1,545,729,0,0
-672,295,0,0,0,0,0,0,0,0,0,-1,552,729,0,0
-665,295,0,0,0,0,0,0,0,0,0,-1,559,729,0,0
-658,295,0,0,0,0,0,0,0,0,0,-1,566,729,0,0
-651,295,0,0,0,0,0,0,0,0,0,-1,573,729,0,0
-644,295,0,0,0,0,0,0,0,0,0,-1,580,729,0,0
-637,295,0,0,0,0,0,0,0,0,0,-1,587,729,0,0
-630,295,0,0,0,0,0,0,0,0,0,-1,594,729,0,0
-623,295,0,0,0,0,0,0,0,0,0,-1,601,729,0,0
-616,295,-0.388489,-1.48816,0,0,0,0,0,0,0,-1,608,729,-0.388516,1.48819
-609,295,1.62366,-2.91418,0,0,0,0,0,0,0,-1,615,729,1.62366,2.91416
-602,295,1.15192,-2.97577,0,0,0,0,0,0,0,-1,622,729,1.15194,2.97575
-595,295,-0.140686,-0.00128174,0,0,0,0,0,0,0,-1,629,729,-0.140683,0.00126026
-588,295,-0.107849,0.137817,-0.00626504,-0.0714241,0.0269826,0.00345775,-0.0811469,0.345853,0.0552866,0.0480489,636,729,-0.10782,-0.137818
-581,295,-0.121155,0.304016,-0.00201832,-0.0535018,0.0213568,0.00568768,-0.0612078,0.346282,0.0428271,0.0460653,643,729,-0.121135,-0.304029
-574,295,-0.115356,0.410278,0.00121009,-0.0385466,0.0164239,0.00711726,-0.0444538,0.345263,0.032271,0.0428186,650,729,-0.115328,-0.41029
-567,295,-0.00292969,0.504578,0.00302828,-0.0259013,0.0119715,0.0073397,-0.0302127,0.345681,0.0229824,0.0365893,657,729,-0.00295336,-0.504571
-560,295,0.00482178,0.565125,0.00403889,-0.0165699,0.00831857,0.00697758,-0.0195086,0.339583,0.015852,0.0169368,664,729,0.00480551,-0.565107
-553,295,0.0374146,0.504944,0.00428748,-0.00994398,0.00547079,0.00614745,-0.011804,0.327722,0.0105344,0.0147924,671,729,0.0374275,-0.504938
-546,295,-0.00323486,0.442932,0.00449131,-0.00406091,0.00315352,0.00552837,-0.00509797,0.317718,0.0061368,0.0187615,678,729,-0.00322048,-0.44293
-539,295,-0.0248413,0.423889,0.00369014,-0.00106301,0.00172883,0.00425243,-0.00162531,0.314456,0.00350469,0.0162258,685,729,-0.0248317,-0.423916
-532,295,-0.0172729,0.392334,0.00163042,-0.000717512,0.00174391,0.00255869,-0.00164578,0.489148,0.00244646,0.0151399,692,729,-0.0172763,-0.39236
-525,295,0.00799561,0.366089,-0.00118017,-0.000350952,0.00193933,0.00121759,-0.00274871,0.890708,0.00234613,0.0148584,699,729,0.00800564,-0.366103
-518,295,0.017334,0.322327,-0.00416577,-0.000372711,0.00239664,0.000787014,-0.00532549,1.12011,0.00383965,0.00986115,706,729,0.0173578,-0.322305
-511,295,0.010376,0.287842,-0.00712818,-0.00239016,0.00283723,-0.00106294,-0.0084554,1.13325,0.00531815,0.00800429,713,729,0.0103883,-0.287857
-504,295,0.00952148,0.235596,-0.00934517,-0.00419611,0.00315901,-0.0026954,-0.0108459,1.1273,0.00652054,0.00971543,720,729,0.00953262,-0.235566
-497,295,-0.00726318,0.201904,-0.0116141,-0.00609769,0.00367853,-0.00425815,-0.0134537,1.10709,0.00793991,0.0139419,727,729,-0.00724503,-0.201883
-490,295,0.0117188,0.262146,-0.0135071,-0.00810045,0.00419766,-0.00581095,-0.0157966,1.07147,0.00922573,0.0261981,734,729,0.0117056,-0.262121
-483,295,-0.163574,0.700928,0,0,0,0,0,0,0,-1,741,729,-0.163576,-0.700929
-476,295,-0.514099,-0.156616,0,0,0,0,0,0,0,-1,748,729,-0.514098,0.156601
-469,295,-0.787842,1.31812,0,0,0,0,0,0,0,-1,755,729,-0.787827,-1.31812
-462,295,-1.3233,1.51453,-0.0246629,-0.0171459,0.00418629,-0.0152784,-0.0265303,1.1512,0.015376,0.0454892,762,729,-1.32333,-1.51455
-455,295,-1.23688,1.94958,-0.0284158,-0.0183927,0.0034496,-0.0173202,-0.0294882,1.26937,0.0171114,0.0456032,769,729,-1.23689,-1.94961
-448,295,-0.82312,2.40295,-0.0339732,-0.01871,0.00251478,-0.0183064,-0.0343769,1.41164,0.0198615,0.0481048,776,729,-0.82312,-2.40293
-441,295,-0.558594,2.61029,0,0,0,0,0,0,0,-1,783,729,-0.558615,-2.61028
-434,295,-0.125427,2.88928,0,0,0,0,0,0,0,-1,790,729,-0.125417,-2.88926
-427,295,0,0,0,0,0,0,0,0,0,-1,797,729,0,0
-420,295,0,0,0,0,0,0,0,0,0,-1,804,729,0,0
-413,295,0,0,0,0,0,0,0,0,0,-1,811,729,0,0
-406,295,0,0,0,0,0,0,0,0,0,-1,818,729,0,0
-399,295,0,0,0,0,0,0,0,0,0,-1,825,729,0,0
-392,295,0,0,0,0,0,0,0,0,0,-1,832,729,0,0
-385,295,0,0,0,0,0,0,0,0,0,-1,839,729,0,0
-378,295,0,0,0,0,0,0,0,0,0,-1,846,729,0,0
-371,295,0,0,0,0,0,0,0,0,0,-1,853,729,0,0
-364,295,0,0,0,0,0,0,0,0,0,-1,860,729,0,0
-357,295,0,0,0,0,0,0,0,0,0,-1,867,729,0,0
-350,295,0,0,0,0,0,0,0,0,0,-1,874,729,0,0
-343,295,0,0,0,0,0,0,0,0,0,-1,881,729,0,0
-336,295,0,0,0,0,0,0,0,0,0,-1,888,729,0,0
-329,295,0,0,0,0,0,0,0,0,0,-1,895,729,0,0
-322,295,0,0,0,0,0,0,0,0,0,-1,902,729,0,0
-315,295,0,0,0,0,0,0,0,0,0,-1,909,729,0,0
-308,295,0,0,0,0,0,0,0,0,0,-1,916,729,0,0
-301,295,0,0,0,0,0,0,0,0,0,-1,923,729,0,0
-294,295,0,0,0,0,0,0,0,0,0,-1,930,729,0,0
-287,295,0,0,0,0,0,0,0,0,0,-1,937,729,0,0
-280,295,0,0,0,0,0,0,0,0,0,-1,944,729,0,0
-273,295,0,0,0,0,0,0,0,0,0,-1,951,729,0,0
-266,295,0,0,0,0,0,0,0,0,0,-1,958,729,0,0
-259,295,0,0,0,0,0,0,0,0,0,-1,965,729,0,0
-252,295,0,0,0,0,0,0,0,0,0,-1,972,729,0,0
-245,295,0,0,0,0,0,0,0,0,0,-1,979,729,0,0
-238,295,0,0,0,0,0,0,0,0,0,-1,986,729,0,0
-231,295,0,0,0,0,0,0,0,0,0,-1,993,729,0,0
-224,295,0,0,0,0,0,0,0,0,0,-1,1000,729,0,0
-217,295,0,0,0,0,0,0,0,0,0,-1,1007,729,0,0
-210,295,0,0,0,0,0,0,0,0,0,-1,1014,729,0,0
-203,295,0,0,0,0,0,0,0,0,0,-1,1021,729,0,0
-196,295,0,0,0,0,0,0,0,0,0,-1,1028,729,0,0
-189,295,0,0,0,0,0,0,0,0,0,-1,1035,729,0,0
-182,295,0,0,0,0,0,0,0,0,0,-1,1042,729,0,0
-175,295,0,0,0,0,0,0,0,0,0,-1,1049,729,0,0
-168,295,0,0,0,0,0,0,0,0,0,-1,1056,729,0,0
-161,295,0,0,0,0,0,0,0,0,0,-1,1063,729,0,0
-154,295,0,0,0,0,0,0,0,0,0,-1,1070,729,0,0
-147,295,0,0,0,0,0,0,0,0,0,-1,1077,729,0,0
-140,295,0,0,0,0,0,0,0,0,0,-1,1084,729,0,0
-133,295,0,0,0,0,0,0,0,0,0,-1,1091,729,0,0
-126,295,0,0,0,0,0,0,0,0,0,-1,1098,729,0,0
-119,295,0,0,0,0,0,0,0,0,0,-1,1105,729,0,0
-112,295,0,0,0,0,0,0,0,0,0,-1,1112,729,0,0
-105,295,0,0,0,0,0,0,0,0,0,-1,1119,729,0,0
-98,295,0,0,0,0,0,0,0,0,0,-1,1126,729,0,0
-91,295,0,0,0,0,0,0,0,0,0,-1,1133,729,0,0
-84,295,0,0,0,0,0,0,0,0,0,-1,1140,729,0,0
-77,295,0,0,0,0,0,0,0,0,0,-1,1147,729,0,0
-70,295,0,0,0,0,0,0,0,0,0,-1,1154,729,0,0
-63,295,0,0,0,0,0,0,0,0,0,-1,1161,729,0,0
-56,295,0,0,0,0,0,0,0,0,0,-1,1168,729,0,0
-49,295,0,0,0,0,0,0,0,0,0,-1,1175,729,0,0
-42,295,0,0,0,0,0,0,0,0,0,-1,1182,729,0,0
-35,295,0,0,0,0,0,0,0,0,0,-1,1189,729,0,0
-28,295,0,0,0,0,0,0,0,0,0,-1,1196,729,0,0
-21,295,0,0,0,0,0,0,0,0,0,-1,1203,729,0,0
-14,295,0,0,0,0,0,0,0,0,0,-1,1210,729,0,0
-7,295,0,0,0,0,0,0,0,0,0,-1,1217,729,0,0
0,295,0,0,0,0,0,0,0,0,0,-1,1224,729,0,0
7,295,0,0,0,0,0,0,0,0,0,-1,1231,729,0,0
14,295,0,0,0,0,0,0,0,0,0,-1,1238,729,0,0
21,295,0,0,0,0,0,0,0,0,0,-1,1245,729,0,0
28,295,0,0,0,0,0,0,0,0,0,-1,1252,729,0,0
35,295,0,0,0,0,0,0,0,0,0,-1,1259,729,0,0
42,295,0,0,0,0,0,0,0,0,0,-1,1266,729,0,0
49,295,0,0,0,0,0,0,0,0,0,-1,1273,729,0,0
56,295,0,0,0,0,0,0,0,0,0,-1,1280,729,0,0
63,295,0,0,0,0,0,0,0,0,0,-1,1287,729,0,0
70,295,0,0,0,0,0,0,0,0,0,-1,1294,729,0,0
77,295,0,0,0,0,0,0,0,0,0,-1,1301,729,0,0
84,295,0,0,0,0,0,0,0,0,0,-1,1308,729,0,0
91,295,0,0,0,0,0,0,0,0,0,-1,1315,729,0,0
98,295,0,0,0,0,0,0,0,0,0,-1,1322,729,0,0
105,295,0,0,0,0,0,0,0,0,0,-1,1329,729,0,0
112,295,0,0,0,0,0,0,0,0,0,-1,1336,729,0,0
119,295,0,0,0,0,0,0,0,0,0,-1,1343,729,0,0
126,295,0,0,0,0,0,0,0,0,0,-1,1350,729,0,0
133,295,0,0,0,0,0,0,0,0,0,-1,1357,729,0,0
140,295,0,0,0,0,0,0,0,0,0,-1,1364,729,0,0
147,295,0,0,0,0,0,0,0,0,0,-1,1371,729,0,0
154,295,0,0,0,0,0,0,0,0,0,-1,1378,729,0,0
161,295,0,0,0,0,0,0,0,0,0,-1,1385,729,0,0
168,295,0,0,0,0,0,0,0,0,0,-1,1392,729,0,0
175,295,0,0,0,0,0,0,0,0,0,-1,1399,729,0,0
182,295,0,0,0,0,0,0,0,0,0,-1,1406,729,0,0
189,295,0,0,0,0,0,0,0,0,0,-1,1413,729,0,0
196,295,0,0,0,0,0,0,0,0,0,-1,1420,729,0,0
203,295,0,0,0,0,0,0,0,0,0,-1,1427,729,0,0
210,295,0,0,0,0,0,0,0,0,0,-1,1434,729,0,0
217,295,0,0,0,0,0,0,0,0,0,-1,1441,729,0,0
224,295,0,0,0,0,0,0,0,0,0,-1,1448,729,0,0
231,295,0,0,0,0,0,0,0,0,0,-1,1455,729,0,0
238,295,0,0,0,0,0,0,0,0,0,-1,1462,729,0,0
245,295,0,0,0,0,0,0,0,0,0,-1,1469,729,0,0
252,295,0,0,0,0,0,0,0,0,0,-1,1476,729,0,0
259,295,0,0,0,0,0,0,0,0,0,-1,1483,729,0,0
266,295,0,0,0,0,0,0,0,0,0,-1,1490,729,0,0
273,295,0,0,0,0,0,0,0,0,0,-1,1497,729,0,0
280,295,0,0,0,0,0,0,0,0,0,-1,1504,729,0,0
287,295,0,0,0,0,0,0,0,0,0,-1,1511,729,0,0
294,295,0,0,0,0,0,0,0,0,0,-1,1518,729,0,0
301,295,0,0,0,0,0,0,0,0,0,-1,1525,729,0,0
308,295,0,0,0,0,0,0,0,0,0,-1,1532,729,0,0
315,295,0,0,0,0,0,0,0,0,0,-1,1539,729,0,0
322,295,0,0,0,0,0,0,0,0,0,-1,1546,729,0,0
329,295,0,0,0,0,0,0,0,0,0,-1,1553,729,0,0
336,295,0,0,0,0,0,0,0,0,0,-1,1560,729,0,0
343,295,0,0,0,0,0,0,0,0,0,-1,1567,729,0,0
350,295,0,0,0,0,0,0,0,0,0,-1,1574,729,0,0
357,295,0,0,0,0,0,0,0,0,0,-1,1581,729,0,0
364,295,0,0,0,0,0,0,0,0,0,-1,1588,729,0,0
371,295,0,0,0,0,0,0,0,0,0,-1,1595,729,0,0
378,295,0,0,0,0,0,0,0,0,0,-1,1602,729,0,0
385,295,0,0,0,0,0,0,0,0,0,-1,1609,729,0,0
392,295,0,0,0,0,0,0,0,0,0,-1,1616,729,0,0
399,295,0,0,0,0,0,0,0,0,0,-1,1623,729,0,0
406,295,0,0,0,0,0,0,0,0,0,-1,1630,729,0,0
413,295,0,0,0,0,0,0,0,0,0,-1,1637,729,0,0
420,295,0,0,0,0,0,0,0,0,0,-1,1644,729,0,0
427,295,0,0,0,0,0,0,0,0,0,-1,1651,729,0,0
434,295,0,0,0,0,0,0,0,0,0,-1,1658,729,0,0
441,295,0,0,0,0,0,0,0,0,0,-1,1665,729,0,0
448,295,0,0,0,0,0,0,0,0,0,-1,1672,729,0,0
455,295,0,0,0,0,0,0,0,0,0,-1,1679,729,0,0
462,295,0,0,0,0,0,0,0,0,0,-1,1686,729,0,0
469,295,0,0,0,0,0,0,0,0,0,-1,1693,729,0,0
476,295,0,0,0,0,0,0,0,0,0,-1,1700,729,0,0
483,295,0,0,0,0,0,0,0,0,0,-1,1707,729,0,0
490,295,0,0,0,0,0,0,0,0,0,-1,1714,729,0,0
497,295,0,0,0,0,0,0,0,0,0,-1,1721,729,0,0
504,295,0,0,0,0,0,0,0,0,0,-1,1728,729,0,0
511,295,0,0,0,0,0,0,0,0,0,-1,1735,729,0,0
518,295,0,0,0,0,0,0,0,0,0,-1,1742,729,0,0
525,295,0,0,0,0,0,0,0,0,0,-1,1749,729,0,0
532,295,0,0,0,0,0,0,0,0,0,-1,1756,729,0,0
539,295,0,0,0,0,0,0,0,0,0,-1,1763,729,0,0
546,295,4.81592,0.199158,0,0,0,0,0,0,0,-1,1770,729,4.81594,-0.199161
553,295,4.84448,-0.031311,0.0216153,0.0217054,0.00404301,0.0257036,0.0176171,0.79097,0.0151762,0.042359,1777,729,4.84451,0.0313209
560,295,4.88184,-0.173767,0.0161415,0.0234401,0.00311934,0.0245916,0.01499,1.21717,0.0143111,0.0440894,1784,729,4.8818,0.173747
567,295,4.94019,0.168396,0.0119922,0.023737,0.0011273,0.0238443,0.011885,1.47597,0.0137665,0.0461785,1791,729,4.94018,-0.168384
574,295,4.95679,0.523254,0.00852863,0.0231859,-0.00108899,0.0232664,0.00844816,-1.49704,0.0135996,0.0484535,1798,729,4.95682,-0.523244
581,295,4.91406,0.807007,0.00545524,0.0219541,-0.00295195,0.0224664,0.00494298,-1.39898,0.013632,0.047852,1805,729,4.91408,-0.806997
588,295,4.67651,0.600952,0.00284311,0.020701,-0.00439819,0.0217254,0.00181866,-1.34195,0.0139171,0.0460349,1812,729,4.67656,-0.600931
595,295,4.57324,0.326904,0.000749739,0.0190555,-0.00539983,0.0205296,-0.000724394,-1.30429,0.0139342,0.0444132,1819,729,4.5733,-0.326891
602,295,4.77026,0.105652,-0.000981957,0.0173805,-0.00607601,0.0192089,-0.0028104,-1.27849,0.0138382,0.043117,1826,729,4.77022,-0.105623
609,295,4.9259,0.0699463,-0.00229992,0.0163165,-0.0061849,0.018184,-0.00416739,-1.27756,0.0137243,0.04163,1833,729,4.92592,-0.0699651
616,295,3.82813,0.145874,0,0,0,0,0,0,0,-1,1840,729,3.82815,-0.145895
623,295,3.79041,0.211243,-0.00381091,0.0103196,-0.00544141,0.0121721,-0.00566344,-1.24266,0.0105234,0.022575,1847,729,3.79037,-0.211221
630,295,3.79724,0.233154,-0.00404721,0.00870027,-0.00434861,0.0100424,-0.00538937,-1.27143,0.00904355,0.0114885,1854,729,3.79723,-0.233184
637,295,3.78906,0.279053,-0.003713,0.00727853,-0.00305857,0.0080723,-0.00450677,-1.31687,0.00735914,0.0129994,1861,729,3.78909,-0.279074
644,295,3.80457,0.315125,-0.00329654,0.00558823,-0.00181054,0.00594302,-0.00365133,-1.37729,0.00559172,0.0123979,1868,729,3.80453,-0.31515
651,295,3.81116,0.355347,-0.00275455,0.00417178,-0.000918266,0.00429146,-0.00287423,-1.4412,0.00416399,0.0120109,1875,729,3.81118,-0.355358
658,295,3.79346,0.395081,-0.00221091,0.00272054,-3.88127e-06,0.00272054,-0.00221091,-1.57001,0.00285224,0.0117699,1882,729,3.79349,-0.395089
665,295,3.78296,0.445129,-0.00200182,0.0016626,0.000197576,0.00167322,-0.00201244,1.51709,0.00213092,0.0114402,1889,729,3.7829,-0.445116
672,295,3.78943,0.489075,-0.00209274,2.69725e-05,0.000161664,3.92313e-05,-0.00210499,1.49511,0.00141659,0.0118939,1896,729,3.78941,-0.489089
679,295,3.78503,0.523071,-0.00254829,-0.000357868,-0.000297787,-0.000318106,-0.00258805,-1.43806,0.00162972,0.00880349,1903,729,3.78501,-0.523066
686,295,3.79907,0.54425,-0.00373837,-0.000788617,-0.00071141,-0.000626006,-0.00390098,-1.34608,0.00241914,0.00833183,1910,729,3.79913,-0.54428
693,295,3.81519,0.576477,-0.0055578,-0.00123365,-0.00146888,-0.000781885,-0.00600957,-1.27242,0.00377285,0.0151858,1917,729,3.81522,-0.576499
700,295,3.89001,0.621826,-0.0083576,-0.0016193,-0.00250791,-0.000788355,-0.00918854,-1.25085,0.00588055,0.0299132,1924,729,3.89007,-0.621822
707,295,3.83154,0.483459,-0.0122913,-0.00182566,-0.00377374,-0.000606847,-0.0135101,-1.2584,0.00881143,0.0397379,1931,729,3.83151,-0.483449
714,295,3.43359,0.484558,-0.0177125,-0.00181731,-0.00541845,-0.000145967,-0.0193839,-1.2716,0.0128742,0.0444953,1938,729,3.43357,-0.484587
721,295,3.66553,0.376404,0,0,0,0,0,0,0,-1,1945,729,3.66547,-0.376387
728,295,2.76758,1.52637,0,0,0,0,0,0,0,-1,1952,729,2.76761,-1.52635
735,295,0,0,0,0,0,0,0,0,0,-1,1959,729,0,0
742,295,0,0,0,0,0,0,0,0,0,-1,1966,729,0,0
749,295,0,0,0,0,0,0,0,0,0,-1,1973,729,0,0
756,295,0,0,0,0,0,0,0,0,0,-1,1980,729,0,0
763,295,0,0,0,0,0,0,0,0,0,-1,1987,729,0,0
770,295,0,0,0,0,0,0,0,0,0,-1,1994,729,0,0
777,295,0,0,0,0,0,0,0,0,0,-1,2001,729,0,0
784,295,0,0,0,0,0,0,0,0,0,-1,2008,729,0,0
791,295,0,0,0,0,0,0,0,0,0,-1,2015,729,0,0
798,295,0,0,0,0,0,0,0,0,0,-1,2022,729,0,0
805,295,0,0,0,0,0,0,0,0,0,-1,2029,729,0,0
812,295,0,0,0,0,0,0,0,0,0,-1,2036,729,0,0
-700,288,0,0,0,0,0,0,0,0,0,-1,524,736,0,0
-693,288,0,0,0,0,0,0,0,0,0,-1,531,736,0,0
-686,288,0,0,0,0,0,0,0,0,0,-1,538,736,0,0
-679,288,0,0,0,0,0,0,0,0,0,-1,545,736,0,0
-672,288,0,0,0,0,0,0,0,0,0,-1,552,736,0,0
-665,288,0,0,0,0,0,0,0,0,0,-1,559,736,0,0
-658,288,0,0,0,0,0,0,0,0,0,-1,566,736,0,0
-651,288,0,0,0,0,0,0,0,0,0,-1,573,736,0,0
-644,288,0,0,0,0,0,0,0,0,0,-1,580,736,0,0
-637,288,0,0,0,0,0,0,0,0,0,-1,587,736,0,0
-630,288,0,0,0,0,0,0,0,0,0,-1,594,736,0,0
-623,288,0,0,0,0,0,0,0,0,0,-1,601,736,0,0
-616,288,1.01056,-0.59491,0,0,0,0,0,0,0,-1,608,736,1.01056,0.594918
-609,288,1.13849,-0.822754,-0.023891,-0.130191,0.0410459,-0.00988676,-0.144195,0.3288,0.0930097,0.0487829,615,736,1.13852,0.822764
-602,288,0.547852,-1.44501,-0.0174179,-0.109016,0.0364427,-0.00468814,-0.121746,0.336059,0.0796473,0.0488632,622,736,0.547861,1.44498
-595,288,-0.23761,-0.119324,0,0,0,0,0,0,0,-1,629,736,-0.23759,0.119307
-588,288,-0.122864,0.0302124,-0.00649632,-0.0688039,0.0255424,0.00263603,-0.0779362,0.343373,0.0528581,0.0473294,636,736,-0.122884,-0.0302316
-581,288,-0.0446167,0.288696,-0.00277233,-0.0517306,0.0203826,0.00460255,-0.0591055,0.347168,0.041024,0.0450405,643,736,-0.0445984,-0.288669
-574,288,-0.0142822,0.526245,0.000210539,-0.0372975,0.0157611,0.005954,-0.0430409,0.349451,0.0308706,0.030773,650,736,-0.0143101,-0.526275
-567,288,-0.0222778,0.58136,0.00196834,-0.0249149,0.0114787,0.00620262,-0.0291491,0.353396,0.0217965,0.0174647,657,736,-0.0222957,-0.581354
-560,288,-0.0274658,0.550354,0.00305887,-0.0157519,0.00790209,0.0059378,-0.0186308,0.349379,0.0148023,0.0107529,664,736,-0.0274742,-0.550364
-553,288,0.031189,0.483765,0.0034552,-0.00928917,0.00509915,0.00524427,-0.0110782,0.337438,0.00962236,0.0169117,671,736,0.0311838,-0.483772
-546,288,0.00787354,0.434753,0.00381647,-0.00373894,0.00287676,0.00478712,-0.00470958,0.325414,0.00548299,0.0181355,678,736,0.00789348,-0.434755
-539,288,-0.0334473,0.421631,0.00314368,-0.00107047,0.00155555,0.00365567,-0.00158246,0.31797,0.00310219,0.0150671,685,736,-0.0334713,-0.421617
-532,288,-0.0125122,0.389587,0.00119879,-0.000669736,0.0015655,0.00208762,-0.00155856,0.516373,0.0021125,0.0121821,692,736,-0.0125284,-0.389591
-525,288,-0.0109863,0.357361,-0.00154819,-0.000207082,0.00176718,0.00101249,-0.00276777,0.966731,0.0022596,0.0121308,699,736,-0.0109663,-0.357338
-518,288,-0.0219727,0.309143,-0.00438546,-0.000278276,0.00216604,0.00065292,-0.00531666,1.16478,0.00378092,0.0110412,706,736,-0.0219883,-0.309169
-511,288,-0.0323486,0.272156,-0.00719769,-0.00227949,0.00255961,-0.00118912,-0.00828807,1.16809,0.00517475,0.00797243,713,736,-0.0323294,-0.272181
-504,288,-0.0457764,0.219971,-0.00945547,-0.00412978,0.00283573,-0.00290262,-0.0106826,1.16238,0.0063783,0.00929494,720,736,-0.0458045,-0.219999
-497,288,-0.0515137,0.202271,-0.0118971,-0.0061063,0.00320849,-0.00467991,-0.0133235,1.15247,0.00780494,0.0174805,727,736,-0.0514871,-0.202246
-490,288,-0.103882,0.630249,-0.0139999,-0.00821371,0.00353187,-0.00654128,-0.0156723,1.12855,0.00908951,0.0381403,734,736,-0.103888,-0.630256
-483,288,-0.174194,1.10437,-0.0161452,-0.0113401,0.00355223,-0.00945424,-0.0180311,1.08274,0.0104144,0.0402503,741,736,-0.174194,-1.10435
-476,288,-0.358582,1.42609,-0.018901,-0.0132926,0.00306946,-0.0119392,-0.0202544,1.15554,0.0117561,0.0399376,748,736,-0.358587,-1.42606
-469,288,-0.60199,1.86298,-0.0208331,-0.0165032,0.00245015,-0.0153986,-0.0219377,1.14724,0.0130055,0.0437759,755,736,-0.602008,-1.863
-462,288,-0.656921,2.02673,-0.0219104,-0.0189587,0.00119809,-0.0185336,-0.0223355,1.22985,0.0137987,0.0499912,762,736,-0.656936,-2.02671
-455,288,-0.780945,2.21167,0,0,0,0,0,0,0,-1,769,736,-0.780941,-2.21167
-448,288,-0.188538,3.10242,0,0,0,0,0,0,0,-1,776,736,-0.188508,-3.10241
-441,288,-0.0599976,3.50018,0,0,0,0,0,0,0,-1,783,736,-0.0599982,-3.5002
-434,288,0.33136,-0.229675,0,0,0,0,0,0,0,-1,790,736,0.331379,0.229678
-427,288,0,0,0,0,0,0,0,0,0,-1,797,736,0,0
-420,288,0,0,0,0,0,0,0,0,0,-1,804,736,0,0
-413,288,0,0,0,0,0,0,0,0,0,-1,811,736,0,0
-406,288,0,0,0,0,0,0,0,0,0,-1,818,736,0,0
-399,288,0,0,0,0,0,0,0,0,0,-1,825,736,0,0
-392,288,0,0,0,0,0,0,0,0,0,-1,832,736,0,0
-385,288,0,0,0,0,0,0,0,0,0,-1,839,736,0,0
-378,288,0,0,0,0,0,0,0,0,0,-1,846,736,0,0
-371,288,0,0,0,0,0,0,0,0,0,-1,853,736,0,0
-364,288,0,0,0,0,0,0,0,0,0,-1,860,736,0,0
-357,288,0,0,0,0,0,0,0,0,0,-1,867,736,0,0
-350,288,0,0,0,0,0,0,0,0,0,-1,874,736,0,0
-343,288,0,0,0,0,0,0,0,0,0,-1,881,736,0,0
-336,288,0,0,0,0,0,0,0,0,0,-1,888,736,0,0
-329,288,0,0,0,0,0,0,0,0,0,-1,895,736,0,0
-322,288,0,0,0,0,0,0,0,0,0,-1,902,736,0,0
-315,288,0,0,0,0,0,0,0,0,0,-1,909,736,0,0
-308,288,0,0,0,0,0,0,0,0,0,-1,916,736,0,0
-301,288,0,0,0,0,0,0,0,0,0,-1,923,736,0,0
-294,288,0,0,0,0,0,0,0,0,0,-1,930,736,0,0
-287,288,0,0,0,0,0,0,0,0,0,-1,937,736,0,0
-280,288,0,0,0,0,0,0,0,0,0,-1,944,736,0,0
-273,288,0,0,0,0,0,0,0,0,0,-1,951,736,0,0
-266,288,0,0,0,0,0,0,0,0,0,-1,958,736,0,0
-259,288,0,0,0,0,0,0,0,0,0,-1,965,736,0,0
-252,288,0,0,0,0,0,0,0,0,0,-1,972,736,0,0
-245,288,0,0,0,0,0,0,0,0,0,-1,979,736,0,0
-238,288,0,0,0,0,0,0,0,0,0,-1,986,736,0,0
-231,288,0,0,0,0,0,0,0,0,0,-1,993,736,0,0
-224,288,0,0,0,0,0,0,0,0,0,-1,1000,736,0,0
-217,288,0,0,0,0,0,0,0,0,0,-1,1007,736,0,0
-210,288,0,0,0,0,0,0,0,0,0,-1,1014,736,0,0
-203,288,0,0,0,0,0,0,0,0,0,-1,1021,736,0,0
-196,288,0,0,0,0,0,0,0,0,0,-1,1028,736,0,0
-189,288,0,0,0,0,0,0,0,0,0,-1,1035,736,0,0
-182,288,0,0,0,0,0,0,0,0,0,-1,1042,736,0,0
-175,288,0,0,0,0,0,0,0,0,0,-1,1049,736,0,0
-168,288,0,0,0,0,0,0,0,0,0,-1,1056,736,0,0
-161,288,0,0,0,0,0,0,0,0,0,-1,1063,736,0,0
-154,288,0,0,0,0,0,0,0,0,0,-1,1070,736,0,0
-147,288,0,0,0,0,0,0,0,0,0,-1,1077,736,0,0
-140,288,0,0,0,0,0,0,0,0,0,-1,1084,736,0,0
-133,288,0,0,0,0,0,0,0,0,0,-1,1091,736,0,0
-126,288,0,0,0,0,0,0,0,0,0,-1,1098,736,0,0
-119,288,0,0,0,0,0,0,0,0,0,-1,1105,736,0,0
-112,288,0,0,0,0,0,0,0,0,0,-1,1112,736,0,0
-105,288,0,0,0,0,0,0,0,0,0,-1,1119,736,0,0
-98,288,0,0,0,0,0,0,0,0,0,-1,1126,736,0,0
-91,288,0,0,0,0,0,0,0,0,0,-1,1133,736,0,0
-84,288,0,0,0,0,0,0,0,0,0,-1,1140,736,0,0
-77,288,0,0,0,0,0,0,0,0,0,-1,1147,736,0,0
-70,288,0,0,0,0,0,0,0,0,0,-1,1154,736,0,0
-63,288,0,0,0,0,0,0,0,0,0,-1,1161,736,0,0
-56,288,0,0,0,0,0,0,0,0,0,-1,1168,736,0,0
-49,288,0,0,0,0,0,0,0,0,0,-1,1175,736,0,0
-42,288,0,0,0,0,0,0,0,0,0,-1,1182,736,0,0
-35,288,0,0,0,0,0,0,0,0,0,-1,1189,736,0,0
-28,288,0,0,0,0,0,0,0,0,0,-1,1196,736,0,0
-21,288,0,0,0,0,0,0,0,0,0,-1,1203,736,0,0
-14,288,0,0,0,0,0,0,0,0,0,-1,1210,736,0,0
-7,288,0,0,0,0,0,0,0,0,0,-1,1217,736,0,0
0,288,0,0,0,0,0,0,0,0,0,-1,1224,736,0,0
7,288,0,0,0,0,0,0,0,0,0,-1,1231,736,0,0
14,288,0,0,0,0,0,0,0,0,0,-1,1238,736,0,0
21,288,0,0,0,0,0,0,0,0,0,-1,1245,736,0,0
28,288,0,0,0,0,0,0,0,0,0,-1,1252,736,0,0
35,288,0,0,0,0,0,0,0,0,0,-1,1259,736,0,0
42,288,0,0,0,0,0,0,0,0,0,-1,1266,736,0,0
49,288,0,0,0,0,0,0,0,0,0,-1,1273,736,0,0
56,288,0,0,0,0,0,0,0,0,0,-1,1280,736,0,0
63,288,0,0,0,0,0,0,0,0,0,-1,1287,736,0,0
70,288,0,0,0,0,0,0,0,0,0,-1,1294,736,0,0
77,288,0,0,0,0,0,0,0,0,0,-1,1301,736,0,0
84,288,0,0,0,0,0,0,0,0,0,-1,1308,736,0,0
91,288,0,0,0,0,0,0,0,0,0,-1,1315,736,0,0
98,288,0,0,0,0,0,0,0,0,0,-1,1322,736,0,0
105,288,0,0,0,0,0,0,0,0,0,-1,1329,736,0,0
112,288,0,0,0,0,0,0,0,0,0,-1,1336,736,0,0
119,288,0,0,0,0,0,0,0,0,0,-1,1343,736,0,0
126,288,0,0,0,0,0,0,0,0,0,-1,1350,736,0,0
133,288,0,0,0,0,0,0,0,0,0,-1,1357,736,0,0
140,288,0,0,0,0,0,0,0,0,0,-1,1364,736,0,0
147,288,0,0,0,0,0,0,0,0,0,-1,1371,736,0,0
154,288,0,0,0,0,0,0,0,0,0,-1,1378,736,0,0
161,288,0,0,0,0,0,0,0,0,0,-1,1385,736,0,0
168,288,0,0,0,0,0,0,0,0,0,-1,1392,736,0,0
175,288,0,0,0,0,0,0,0,0,0,-1,1399,736,0,0
182,288,0,0,0,0,0,0,0,0,0,-1,1406,736,0,0
189,288,0,0,0,0,0,0,0,0,0,-1,1413,736,0,0
196,288,0,0,0,0,0,0,0,0,0,-1,1420,736,0,0
203,288,0,0,0,0,0,0,0,0,0,-1,1427,736,0,0
210,288,0,0,0,0,0,0,0,0,0,-1,1434,736,0,0
217,288,0,0,0,0,0,0,0,0,0,-1,1441,736,0,0
224,288,0,0,0,0,0,0,0,0,0,-1,1448,736,0,0
231,288,0,0,0,0,0,0,0,0,0,-1,1455,736,0,0
238,288,0,0,0,0,0,0,0,0,0,-1,1462,736,0,0
245,288,0,0,0,0,0,0,0,0,0,-1,1469,736,0,0
252,288,0,0,0,0,0,0,0,0,0,-1,1476,736,0,0
259,288,0,0,0,0,0,0,0,0,0,-1,1483,736,0,0
266,288,0,0,0,0,0,0,0,0,0,-1,1490,736,0,0
273,288,0,0,0,0,0,0,0,0,0,-1,1497,736,0,0
280,288,0,0,0,0,0,0,0,0,0,-1,1504,736,0,0
287,288,0,0,0,0,0,0,0,0,0,-1,1511,736,0,0
294,288,0,0,0,0,0,0,0,0,0,-1,1518,736,0,0
301,288,0,0,0,0,0,0,0,0,0,-1,1525,736,0,0
308,288,0,0,0,0,0,0,0,0,0,-1,1532,736,0,0
315,288,0,0,0,0,0,0,0,0,0,-1,1539,736,0,0
322,288,0,0,0,0,0,0,0,0,0,-1,1546,736,0,0
329,288,0,0,0,0,0,0,0,0,0,-1,1553,736,0,0
336,288,0,0,0,0,0,0,0,0,0,-1,1560,736,0,0
343,288,0,0,0,0,0,0,0,0,0,-1,1567,736,0,0
350,288,0,0,0,0,0,0,0,0,0,-1,1574,736,0,0
357,288,0,0,0,0,0,0,0,0,0,-1,1581,736,0,0
364,288,0,0,0,0,0,0,0,0,0,-1,1588,736,0,0
371,288,0,0,0,0,0,0,0,0,0,-1,1595,736,0,0
378,288,0,0,0,0,0,0,0,0,0,-1,1602,736,0,0
385,288,0,0,0,0,0,0,0,0,0,-1,1609,736,0,0
392,288,0,0,0,0,0,0,0,0,0,-1,1616,736,0,0
399,288,0,0,0,0,0,0,0,0,0,-1,1623,736,0,0
406,288,0,0,0,0,0,0,0,0,0,-1,1630,736,0,0
413,288,0,0,0,0,0,0,0,0,0,-1,1637,736,0,0
420,288,0,0,0,0,0,0,0,0,0,-1,1644,736,0,0
427,288,0,0,0,0,0,0,0,0,0,-1,1651,736,0,0
434,288,0,0,0,0,0,0,0,0,0,-1,1658,736,0,0
441,288,0,0,0,0,0,0,0,0,0,-1,1665,736,0,0
448,288,0,0,0,0,0,0,0,0,0,-1,1672,736,0,0
455,288,0,0,0,0,0,0,0,0,0,-1,1679,736,0,0
462,288,0,0,0,0,0,0,0,0,0,-1,1686,736,0,0
469,288,0,0,0,0,0,0,0,0,0,-1,1693,736,0,0
476,288,0,0,0,0,0,0,0,0,0,-1,1700,736,0,0
483,288,0,0,0,0,0,0,0,0,0,-1,1707,736,0,0
490,288,0,0,0,0,0,0,0,0,0,-1,1714,736,0,0
497,288,0,0,0,0,0,0,0,0,0,-1,1721,736,0,0
504,288,0,0,0,0,0,0,0,0,0,-1,1728,736,0,0
511,288,0,0,0,0,0,0,0,0,0,-1,1735,736,0,0
518,288,0,0,0,0,0,0,0,0,0,-1,1742,736,0,0
525,288,0,0,0,0,0,0,0,0,0,-1,1749,736,0,0
532,288,0,0,0,0,0,0,0,0,0,-1,1756,736,0,0
539,288,0,0,0,0,0,0,0,0,0,-1,1763,736,0,0
546,288,0,0,0,0,0,0,0,0,0,-1,1770,736,0,0
553,288,4.92871,0.341553,0.0224478,0.0195633,0.00265307,0.0240253,0.0179858,0.536431,0.0144313,0.0358264,1777,736,4.92873,-0.341564
560,288,5.12073,-0.235229,0.016155,0.0226336,0.00236543,0.0234053,0.0153832,1.25543,0.013734,0.04032,1784,736,5.12074,0.235237
567,288,4.65405,-0.799255,0,0,0,0,0,0,0,-1,1791,736,4.654,0.799251
574,288,4.62598,-0.304565,0,0,0,0,0,0,0,-1,1798,736,4.62598,0.304563
581,288,4.99438,0.899963,0,0,0,0,0,0,0,-1,1805,736,4.99433,-0.899948
588,288,4.86157,0.557678,0,0,0,0,0,0,0,-1,1812,736,4.86162,-0.557656
595,288,4.72888,0.215393,0,0,0,0,0,0,0,-1,1819,736,4.72892,-0.215365
602,288,5.08191,-0.0324097,-0.00199784,0.018406,-0.00625127,0.0201689,-0.00376077,-1.29592,0.014859,0.0469518,1826,736,5.08185,0.0324306
609,288,5.24438,0.0233154,-0.00346341,0.0173948,-0.00622455,0.0191111,-0.00517973,-1.30175,0.0147731,0.0457302,1833,736,5.24434,-0.0233187
616,288,3.80786,0.539856,0,0,0,0,0,0,0,-1,1840,736,3.80781,-0.539862
623,288,3.82886,0.391663,-0.00531459,0.0116383,-0.00532555,0.0131724,-0.00684872,-1.29032,0.0117498,0.0379499,1847,736,3.82885,-0.391651
630,288,3.84741,0.227173,-0.00560026,0.00996668,-0.00427995,0.0110658,-0.00669938,-1.31942,0.0103595,0.0184529,1854,736,3.84745,-0.227174
637,288,3.8269,0.283386,-0.00516773,0.00846183,-0.0030112,0.00909745,-0.00580335,-1.36276,0.00867277,0.0099696,1861,736,3.82696,-0.283404
644,288,3.84473,0.323608,-0.00457259,0.00660335,-0.00174116,0.00686833,-0.00483757,-1.41977,0.00679222,0.00892022,1868,736,3.84471,-0.323636
651,288,3.85645,0.357544,-0.00382879,0.00506165,-0.000865233,0.00514507,-0.00391221,-1.47468,0.00524535,0.0102258,1875,736,3.85639,-0.35755
658,288,3.84314,0.425659,-0.00313012,0.00335361,-3.99849e-05,0.00335385,-0.00313037,-1.56463,0.00374441,0.0151704,1882,736,3.84308,-0.425679
665,288,3.83533,0.454163,-0.00272146,0.00215773,0.000126163,0.00216099,-0.00272472,1.54496,0.00282702,0.0158532,1889,736,3.83534,-0.454174
672,288,3.8335,0.48645,-0.00253328,0.000499594,7.72274e-05,0.000501559,-0.00253524,1.54535,0.00187979,0.0128533,1896,736,3.83345,-0.486447
679,288,3.83936,0.53009,-0.00277078,0.000168595,-0.000415741,0.000226266,-0.00282846,-1.43296,0.0019654,0.0102708,1903,736,3.8394,-0.530097
686,288,3.84265,0.552368,-0.00374848,-0.000126341,-0.000779388,3.42429e-05,-0.00390906,-1.3676,0.00261753,0.00845384,1910,736,3.84262,-0.552338
693,288,3.85132,0.587952,-0.00538191,-0.000403557,-0.0014819,4.16697e-06,-0.00578963,-1.3023,0.00386114,0.0105008,1917,736,3.85131,-0.587963
700,288,3.8468,0.60791,-0.00809421,-0.00049073,-0.00243753,0.000223588,-0.00880853,-1.28573,0.00594828,0.0205924,1924,736,3.84675,-0.607914
707,288,3.62,0.618408,-0.0119479,-0.000310069,-0.00352322,0.000673433,-0.0129314,-1.29858,0.00885393,0.0356583,1931,736,3.62002,-0.618438
714,288,3.55664,0.619324,-0.0170958,0.000152398,-0.00485165,0.00142343,-0.0183668,-1.31457,0.0127455,0.0465089,1938,736,3.55665,-0.619332
721,288,3.35022,1.06421,0,0,0,0,0,0,0,-1,1945,736,3.35021,-1.06423
728,288,2.9425,1.50006,-0.0331485,0.00264848,-0.00863153,0.00462106,-0.0351211,-1.34612,0.0250966,0.0449896,1952,736,2.94247,-1.50006
735,288,2.61792,1.59363,-0.0448987,0.0050413,-0.0113947,0.00751834,-0.0473758,-1.35674,0.0343652,0.043794,1959,736,2.6179,-1.59366
742,288,0,0,0,0,0,0,0,0,0,-1,1966,736,0,0
749,288,0,0,0,0,0,0,0,0,0,-1,1973,736,0,0
756,288,0,0,0,0,0,0,0,0,0,-1,1980,736,0,0
763,288,0,0,0,0,0,0,0,0,0,-1,1987,736,0,0
770,288,0,0,0,0,0,0,0,0,0,-1,1994,736,0,0
777,288,0,0,0,0,0,0,0,0,0,-1,2001,736,0,0
784,288,0,0,0,0,0,0,0,0,0,-1,2008,736,0,0
791,288,0,0,0,0,0,0,0,0,0,-1,2015,736,0,0
798,288,0,0,0,0,0,0,0,0,0,-1,2022,736,0,0
805,288,0,0,0,0,0,0,0,0,0,-1,2029,736,0,0
812,288,0,0,0,0,0,0,0,0,0,-1,2036,736,0,0
-700,281,0,0,0,0,0,0,0,0,0,-1,524,743,0,0
-693,281,0,0,0,0,0,0,0,0,0,-1,531,743,0,0
-686,281,0,0,0,0,0,0,0,0,0,-1,538,743,0,0
-679,281,0,0,0,0,0,0,0,0,0,-1,545,743,0,0
-672,281,0,0,0,0,0,0,0,0,0,-1,552,743,0,0
-665,281,0,0,0,0,0,0,0,0,0,-1,559,743,0,0
-658,281,0,0,0,0,0,0,0,0,0,-1,566,743,0,0
-651,281,0,0,0,0,0,0,0,0,0,-1,573,743,0,0
-644,281,0,0,0,0,0,0,0,0,0,-1,580,743,0,0
-637,281,0,0,0,0,0,0,0,0,0,-1,587,743,0,0
-630,281,0,0,0,0,0,0,0,0,0,-1,594,743,0,0
-623,281,-0.428223,0.0670166,-0.0377208,-0.161008,0.0457048,-0.0226255,-0.176103,0.318999,0.110634,0.0464503,601,743,-0.428201,-0.0669958
-616,281,-0.0701294,0.191467,0,0,0,0,0,0,0,-1,608,743,-0.0701583,-0.191483
-609,281,0.00494385,0.0297241,-0.0205786,-0.121091,0.0355464,-0.00927813,-0.132392,0.307805,0.0853369,0.045626,615,743,0.00492846,-0.0297275
-602,281,-0.166077,-0.103394,-0.0139834,-0.100568,0.030489,-0.00432475,-0.110226,0.30679,0.0720859,0.0469948,622,743,-0.1661,0.103378
-595,281,-0.488892,-0.0784912,-0.00862009,-0.0810026,0.0255352,-0.000518549,-0.0891041,0.307225,0.0592307,0.047873,629,743,-0.488888,0.0784706
-588,281,-0.363403,0.187256,-0.00447876,-0.0630602,0.020801,0.00215581,-0.0696948,0.308755,0.0471982,0.0466055,636,743,-0.363425,-0.187226
-581,281,-0.0055542,0.337341,-0.00159936,-0.0473467,0.0165439,0.00375651,-0.0527025,0.313088,0.0364518,0.0421707,643,743,-0.00552901,-0.337326
-574,281,-0.0144043,0.528564,0.00068554,-0.0340903,0.0128069,0.00489288,-0.0382977,0.317415,0.0273092,0.0240552,650,743,-0.0143776,-0.52859
-567,281,-0.0803223,0.57373,0.001881,-0.0227126,0.00935206,0.00503323,-0.0258648,0.325103,0.0191428,0.0112653,657,743,-0.0803434,-0.573708
-560,281,-0.0792847,0.543335,0.00258782,-0.0143796,0.00644811,0.00476016,-0.0165519,0.324954,0.0129171,0.00867195,664,743,-0.0792842,-0.543325
-553,281,-0.0412598,0.505066,0.00245307,-0.0089861,0.00460395,0.00407583,-0.0106089,0.338875,0.00875341,0.013435,671,743,-0.0412295,-0.505095
-546,281,-0.0471802,0.459595,0.00274459,-0.00392524,0.00275643,0.00373629,-0.00491694,0.345357,0.00501142,0.0139721,678,743,-0.0471662,-0.459622
-539,281,-0.072998,0.422363,0.00222921,-0.00161988,0.00158592,0.00279846,-0.00218914,0.344617,0.00288674,0.0119603,685,743,-0.0729886,-0.422384
-532,281,-0.0575562,0.416138,0.000443418,-0.00120602,0.00161366,0.00143089,-0.0021935,0.549159,0.00210793,0.0108427,692,743,-0.0575429,-0.416133
-525,281,-0.0651245,0.36676,-0.00219164,-0.000705538,0.00182865,0.00052526,-0.00342244,0.978377,0.00247536,0.0130812,699,743,-0.0651144,-0.366731
-518,281,-0.0637207,0.301025,-0.00487426,-0.000823818,0.00218645,0.000131242,-0.00582932,1.15897,0.00393069,0.012606,706,743,-0.0637241,-0.301009
-511,281,-0.0601196,0.264282,-0.00754103,-0.00269829,0.00255427,-0.0016001,-0.00863923,1.16475,0.00530714,0.0109206,713,743,-0.0601233,-0.264255
-504,281,-0.065918,0.218933,-0.00990628,-0.00447151,0.00280251,-0.00328528,-0.0110925,1.17039,0.00657926,0.0112513,720,743,-0.0659255,-0.218929
-497,281,-0.0253296,0.176453,-0.0125891,-0.00635208,0.0030254,-0.00512569,-0.0138155,1.18568,0.00806439,0.0279163,727,743,-0.025329,-0.176461
-490,281,-0.109314,0.766296,-0.0149617,-0.00839978,0.0031529,-0.00713042,-0.0162311,1.18805,0.00939401,0.0402,734,743,-0.109292,-0.766271
-483,281,-0.16272,1.58575,-0.0172093,-0.0115022,0.00288293,-0.0102994,-0.0184121,1.17554,0.0106552,0.0405737,741,743,-0.162708,-1.58575
-476,281,-0.320862,1.79047,-0.0195006,-0.0139507,0.00200682,-0.013301,-0.0201503,1.25774,0.0118309,0.0431931,748,743,-0.320875,-1.79047
-469,281,-0.399475,2.39331,-0.0205992,-0.0176682,0.000862543,-0.0174332,-0.0208342,1.30481,0.012906,0.0454759,755,743,-0.39948,-2.3933
-462,281,-0.40448,2.68811,-0.0200009,-0.021084,-0.00101239,-0.0193943,-0.0216906,-0.53979,0.013759,0.0460595,762,743,-0.404465,-2.68812
-455,281,-0.464478,3.03082,-0.0183399,-0.0237865,-0.00349889,-0.0166294,-0.025497,-0.454707,0.0149463,0.0445098,769,743,-0.464496,-3.03081
-448,281,0.409973,3.79346,0,0,0,0,0,0,0,-1,776,743,0.409978,-3.79346
-441,281,0.522949,4.17786,0,0,0,0,0,0,0,-1,783,743,0.522958,-4.17783
-434,281,0,0,0,0,0,0,0,0,0,-1,790,743,0,0
-427,281,0,0,0,0,0,0,0,0,0,-1,797,743,0,0
-420,281,0,0,0,0,0,0,0,0,0,-1,804,743,0,0
-413,281,0,0,0,0,0,0,0,0,0,-1,811,743,0,0
-406,281,0,0,0,0,0,0,0,0,0,-1,818,743,0,0
-399,281,0,0,0,0,0,0,0,0,0,-1,825,743,0,0
-392,281,0,0,0,0,0,0,0,0,0,-1,832,743,0,0
-385,281,0,0,0,0,0,0,0,0,0,-1,839,743,0,0
-378,281,0,0,0,0,0,0,0,0,0,-1,846,743,0,0
-371,281,0,0,0,0,0,0,0,0,0,-1,853,743,0,0
-364,281,0,0,0,0,0,0,0,0,0,-1,860,743,0,0
-357,281,0,0,0,0,0,0,0,0,0,-1,867,743,0,0
-350,281,0,0,0,0,0,0,0,0,0,-1,874,743,0,0
-343,281,0,0,0,0,0,0,0,0,0,-1,881,743,0,0
-336,281,0,0,0,0,0,0,0,0,0,-1,888,743,0,0
-329,281,0,0,0,0,0,0,0,0,0,-1,895,743,0,0
-322,281,0,0,0,0,0,0,0,0,0,-1,902,743,0,0
-315,281,0,0,0,0,0,0,0,0,0,-1,909,743,0,0
-308,281,0,0,0,0,0,0,0,0,0,-1,916,743,0,0
-301,281,0,0,0,0,0,0,0,0,0,-1,923,743,0,0
-294,281,0,0,0,0,0,0,0,0,0,-1,930,743,0,0
-287,281,0,0,0,0,0,0,0,0,0,-1,937,743,0,0
-280,281,0,0,0,0,0,0,0,0,0,-1,944,743,0,0
-273,281,0,0,0,0,0,0,0,0,0,-1,951,743,0,0
-266,281,0,0,0,0,0,0,0,0,0,-1,958,743,0,0
-259,281,0,0,0,0,0,0,0,0,0,-1,965,743,0,0
-252,281,0,0,0,0,0,0,0,0,0,-1,972,743,0,0
-245,281,0,0,0,0,0,0,0,0,0,-1,979,743,0,0
-238,281,0,0,0,0,0,0,0,0,0,-1,986,743,0,0
-231,281,0,0,0,0,0,0,0,0,0,-1,993,743,0,0
-224,281,0,0,0,0,0,0,0,0,0,-1,1000,743,0,0
-217,281,0,0,0,0,0,0,0,0,0,-1,1007,743,0,0
-210,281,0,0,0,0,0,0,0,0,0,-1,1014,743,0,0
-203,281,0,0,0,0,0,0,0,0,0,-1,1021,743,0,0
-196,281,0,0,0,0,0,0,0,0,0,-1,1028,743,0,0
-189,281,0,0,0,0,0,0,0,0,0,-1,1035,743,0,0
-182,281,0,0,0,0,0,0,0,0,0,-1,1042,743,0,0
-175,281,0,0,0,0,0,0,0,0,0,-1,1049,743,0,0
-168,281,0,0,0,0,0,0,0,0,0,-1,1056,743,0,0
-161,281,0,0,0,0,0,0,0,0,0,-1,1063,743,0,0
-154,281,0,0,0,0,0,0,0,0,0,-1,1070,743,0,0
-147,281,0,0,0,0,0,0,0,0,0,-1,1077,743,0,0
-140,281,0,0,0,0,0,0,0,0,0,-1,1084,743,0,0
-133,281,0,0,0,0,0,0,0,0,0,-1,1091,743,0,0
-126,281,0,0,0,0,0,0,0,0,0,-1,1098,743,0,0
-119,281,0,0,0,0,0,0,0,0,0,-1,1105,743,0,0
-112,281,0,0,0,0,0,0,0,0,0,-1,1112,743,0,0
-105,281,0,0,0,0,0,0,0,0,0,-1,1119,743,0,0
-98,281,0,0,0,0,0,0,0,0,0,-1,1126,743,0,0
-91,281,0,0,0,0,0,0,0,0,0,-1,1133,743,0,0
-84,281,0,0,0,0,0,0,0,0,0,-1,1140,743,0,0
-77,281,0,0,0,0,0,0,0,0,0,-1,1147,743,0,0
-70,281,0,0,0,0,0,0,0,0,0,-1,1154,743,0,0
-63,281,0,0,0,0,0,0,0,0,0,-1,1161,743,0,0
-56,281,0,0,0,0,0,0,0,0,0,-1,1168,743,0,0
-49,281,0,0,0,0,0,0,0,0,0,-1,1175,743,0,0
-42,281,0,0,0,0,0,0,0,0,0,-1,1182,743,0,0
-35,281,0,0,0,0,0,0,0,0,0,-1,1189,743,0,0
-28,281,0,0,0,0,0,0,0,0,0,-1,1196,743,0,0
-21,281,0,0,0,0,0,0,0,0,0,-1,1203,743,0,0
-14,281,0,0,0,0,0,0,0,0,0,-1,1210,743,0,0
-7,281,0,0,0,0,0,0,0,0,0,-1,1217,743,0,0
0,281,0,0,0,0,0,0,0,0,0,-1,1224,743,0,0
7,281,0,0,0,0,0,0,0,0,0,-1,1231,743,0,0
14,281,0,0,0,0,0,0,0,0,0,-1,1238,743,0,0
21,281,0,0,0,0,0,0,0,0,0,-1,1245,743,0,0
28,281,0,0,0,0,0,0,0,0,0,-1,1252,743,0,0
35,281,0,0,0,0,0,0,0,0,0,-1,1259,743,0,0
42,281,0,0,0,0,0,0,0,0,0,-1,1266,743,0,0
49,281,0,0,0,0,0,0,0,0,0,-1,1273,743,0,0
56,281,0,0,0,0,0,0,0,0,0,-1,1280,743,0,0
63,281,0,0,0,0,0,0,0,0,0,-1,1287,743,0,0
70,281,0,0,0,0,0,0,0,0,0,-1,1294,743,0,0
77,281,0,0,0,0,0,0,0,0,0,-1,1301,743,0,0
84,281,0,0,0,0,0,0,0,0,0,-1,1308,743,0,0
91,281,0,0,0,0,0,0,0,0,0,-1,1315,743,0,0
98,281,0,0,0,0,0,0,0,0,0,-1,1322,743,0,0
105,281,0,0,0,0,0,0,0,0,0,-1,1329,743,0,0
112,281,0,0,0,0,0,0,0,0,0,-1,1336,743,0,0
119,281,0,0,0,0,0,0,0,0,0,-1,1343,743,0,0
126,281,0,0,0,0,0,0,0,0,0,-1,1350,743,0,0
133,281,0,0,0,0,0,0,0,0,0,-1,1357,743,0,0
140,281,0,0,0,0,0,0,0,0,0,-1,1364,743,0,0
147,281,0,0,0,0,0,0,0,0,0,-1,1371,743,0,0
154,281,0,0,0,0,0,0,0,0,0,-1,1378,743,0,0
161,281,0,0,0,0,0,0,0,0,0,-1,1385,743,0,0
168,281,0,0,0,0,0,0,0,0,0,-1,1392,743,0,0
175,281,0,0,0,0,0,0,0,0,0,-1,1399,743,0,0
182,281,0,0,0,0,0,0,0,0,0,-1,1406,743,0,0
189,281,0,0,0,0,0,0,0,0,0,-1,1413,743,0,0
196,281,0,0,0,0,0,0,0,0,0,-1,1420,743,0,0
203,281,0,0,0,0,0,0,0,0,0,-1,1427,743,0,0
210,281,0,0,0,0,0,0,0,0,0,-1,1434,743,0,0
217,281,0,0,0,0,0,0,0,0,0,-1,1441,743,0,0
224,281,0,0,0,0,0,0,0,0,0,-1,1448,743,0,0
231,281,0,0,0,0,0,0,0,0,0,-1,1455,743,0,0
238,281,0,0,0,0,0,0,0,0,0,-1,1462,743,0,0
245,281,0,0,0,0,0,0,0,0,0,-1,1469,743,0,0
252,281,0,0,0,0,0,0,0,0,0,-1,1476,743,0,0
259,281,0,0,0,0,0,0,0,0,0,-1,1483,743,0,0
266,281,0,0,0,0,0,0,0,0,0,-1,1490,743,0,0
273,281,0,0,0,0,0,0,0,0,0,-1,1497,743,0,0
280,281,0,0,0,0,0,0,0,0,0,-1,1504,743,0,0
287,281,0,0,0,0,0,0,0,0,0,-1,1511,743,0,0
294,281,0,0,0,0,0,0,0,0,0,-1,1518,743,0,0
301,281,0,0,0,0,0,0,0,0,0,-1,1525,743,0,0
308,281,0,0,0,0,0,0,0,0,0,-1,1532,743,0,0
315,281,0,0,0,0,0,0,0,0,0,-1,1539,743,0,0
322,281,0,0,0,0,0,0,0,0,0,-1,1546,743,0,0
329,281,0,0,0,0,0,0,0,0,0,-1,1553,743,0,0
336,281,0,0,0,0,0,0,0,0,0,-1,1560,743,0,0
343,281,0,0,0,0,0,0,0,0,0,-1,1567,743,0,0
350,281,0,0,0,0,0,0,0,0,0,-1,1574,743,0,0
357,281,0,0,0,0,0,0,0,0,0,-1,1581,743,0,0
364,281,0,0,0,0,0,0,0,0,0,-1,1588,743,0,0
371,281,0,0,0,0,0,0,0,0,0,-1,1595,743,0,0
378,281,0,0,0,0,0,0,0,0,0,-1,1602,743,0,0
385,281,0,0,0,0,0,0,0,0,0,-1,1609,743,0,0
392,281,0,0,0,0,0,0,0,0,0,-1,1616,743,0,0
399,281,0,0,0,0,0,0,0,0,0,-1,1623,743,0,0
406,281,0,0,0,0,0,0,0,0,0,-1,1630,743,0,0
413,281,0,0,0,0,0,0,0,0,0,-1,1637,743,0,0
420,281,0,0,0,0,0,0,0,0,0,-1,1644,743,0,0
427,281,0,0,0,0,0,0,0,0,0,-1,1651,743,0,0
434,281,0,0,0,0,0,0,0,0,0,-1,1658,743,0,0
441,281,0,0,0,0,0,0,0,0,0,-1,1665,743,0,0
448,281,0,0,0,0,0,0,0,0,0,-1,1672,743,0,0
455,281,0,0,0,0,0,0,0,0,0,-1,1679,743,0,0
462,281,0,0,0,0,0,0,0,0,0,-1,1686,743,0,0
469,281,0,0,0,0,0,0,0,0,0,-1,1693,743,0,0
476,281,0,0,0,0,0,0,0,0,0,-1,1700,743,0,0
483,281,0,0,0,0,0,0,0,0,0,-1,1707,743,0,0
490,281,0,0,0,0,0,0,0,0,0,-1,1714,743,0,0
497,281,0,0,0,0,0,0,0,0,0,-1,1721,743,0,0
504,281,0,0,0,0,0,0,0,0,0,-1,1728,743,0,0
511,281,0,0,0,0,0,0,0,0,0,-1,1735,743,0,0
518,281,0,0,0,0,0,0,0,0,0,-1,1742,743,0,0
525,281,0,0,0,0,0,0,0,0,0,-1,1749,743,0,0
532,281,0,0,0,0,0,0,0,0,0,-1,1756,743,0,0
539,281,0,0,0,0,0,0,0,0,0,-1,1763,743,0,0
546,281,0,0,0,0,0,0,0,0,0,-1,1770,743,0,0
553,281,0,0,0,0,0,0,0,0,0,-1,1777,743,0,0
560,281,5.31384,-0.0674438,0,0,0,0,0,0,0,-1,1784,743,5.31383,0.0674498
567,281,4.41418,1.06317,0.0112426,0.0218879,0.000943929,0.021971,0.0111596,1.48304,0.0126855,0.0442332,1791,743,4.41419,-1.06317
574,281,4.92773,0.989441,0.00772931,0.0224235,-0.00136352,0.022549,0.00760386,-1.47905,0.0132466,0.0459324,1798,743,4.92778,-0.989471
581,281,4.94971,0.746277,0,0,0,0,0,0,0,-1,1805,743,4.9497,-0.746281
588,281,4.9447,0.449646,0,0,0,0,0,0,0,-1,1812,743,4.94469,-0.449647
595,281,4.95361,0.374939,0,0,0,0,0,0,0,-1,1819,743,4.95365,-0.374963
602,281,4.30518,0.644409,0,0,0,0,0,0,0,-1,1826,743,4.30513,-0.644397
609,281,4.27258,0.487732,0,0,0,0,0,0,0,-1,1833,743,4.27262,-0.487734
616,281,4.39417,0.622253,-0.00590384,0.0145205,-0.00561272,0.0159613,-0.00734461,-1.31952,0.0137588,0.0480794,1840,743,4.39416,-0.622249
623,281,4.32397,0.176941,-0.00696477,0.0118837,-0.0048014,0.0130363,-0.00811738,-1.3352,0.0123227,0.0459834,1847,743,4.32396,-0.176913
630,281,3.9165,0.196594,-0.00736055,0.0101962,-0.00383777,0.0109985,-0.0081628,-1.36472,0.0111031,0.0313018,1854,743,3.91653,-0.196602
637,281,3.8833,0.264465,-0.00690524,0.00866836,-0.00263801,0.00910308,-0.00733996,-1.40747,0.00951156,0.0123714,1861,743,3.88329,-0.264493
644,281,3.90466,0.315735,-0.00616086,0.00679404,-0.0014127,0.0069463,-0.00631313,-1.46343,0.00765824,0.00946989,1868,743,3.9047,-0.31574
651,281,3.92444,0.347534,-0.0051773,0.00526952,-0.000622029,0.00530643,-0.00521421,-1.51153,0.00607417,0.0106591,1875,743,3.92449,-0.347561
658,281,3.92139,0.41571,-0.00422791,0.0034487,7.5009e-05,0.00344944,-0.00422864,1.56103,0.00444054,0.0179319,1882,743,3.92141,-0.41574
665,281,3.90735,0.439697,-0.00351653,0.00222384,0.000184109,0.00222974,-0.00352242,1.53877,0.00334885,0.019144,1889,743,3.9074,-0.439674
672,281,3.87781,0.482422,-0.00294058,0.000655899,0.000117714,0.000659748,-0.00294442,1.53811,0.00221585,0.0110929,1896,743,3.87781,-0.482417
679,281,3.89575,0.505981,-0.00283308,0.000389809,-0.000392675,0.000436962,-0.00288023,-1.45129,0.00208116,0.0149162,1903,743,3.89574,-0.505973
686,281,3.8866,0.546753,-0.00341079,0.000288299,-0.000675418,0.000407766,-0.00353026,-1.39573,0.00250053,0.0113378,1910,743,3.88662,-0.546757
693,281,3.88794,0.584961,-0.00467854,0.000200916,-0.0012673,0.000510426,-0.00498805,-1.33126,0.00350791,0.00946341,1917,743,3.8879,-0.584991
700,281,3.89673,0.591187,-0.00705832,0.000511971,-0.00196212,0.000990303,-0.00753665,-1.33168,0.00538498,0.0161079,1924,743,3.89674,-0.591198
707,281,3.81226,0.590149,-0.0104544,0.00115047,-0.0026778,0.00173856,-0.0110425,-1.35461,0.0080044,0.0331383,1931,743,3.81221,-0.590168
714,281,3.79968,0.706726,-0.0149048,0.00219592,-0.0034628,0.00287051,-0.0155794,-1.3784,0.0114635,0.0457479,1938,743,3.7997,-0.706697
721,281,4.05115,0.750854,0,0,0,0,0,0,0,-1,1945,743,4.05117,-0.750854
728,281,3.078,1.13849,-0.0288203,0.00628239,-0.00564615,0.0071682,-0.0297061,-1.41518,0.022576,0.0442299,1952,743,3.07797,-1.13851
735,281,2.79199,1.65881,-0.0389958,0.00961533,-0.00735431,0.0107036,-0.040084,-1.42389,0.0309145,0.0445118,1959,743,2.79195,-1.65882
742,281,0,0,0,0,0,0,0,0,0,-1,1966,743,0,0
749,281,0,0,0,0,0,0,0,0,0,-1,1973,743,0,0
756,281,0,0,0,0,0,0,0,0,0,-1,1980,743,0,0
763,281,0,0,0,0,0,0,0,0,0,-1,1987,743,0,0
770,281,0,0,0,0,0,0,0,0,0,-1,1994,743,0,0
777,281,0,0,0,0,0,0,0,0,0,-1,2001,743,0,0
784,281,0,0,0,0,0,0,0,0,0,-1,2008,743,0,0
791,281,0,0,0,0,0,0,0,0,0,-1,2015,743,0,0
798,281,0,0,0,0,0,0,0,0,0,-1,2022,743,0,0
805,281,0,0,0,0,0,0,0,0,0,-1,2029,743,0,0
812,281,0,0,0,0,0,0,0,0,0,-1,2036,743,0,0
-700,274,0,0,0,0,0,0,0,0,0,-1,524,750,0,0
-693,274,0,0,0,0,0,0,0,0,0,-1,531,750,0,0
-686,274,0,0,0,0,0,0,0,0,0,-1,538,750,0,0
-679,274,0,0,0,0,0,0,0,0,0,-1,545,750,0,0
-672,274,0,0,0,0,0,0,0,0,0,-1,552,750,0,0
-665,274,0,0,0,0,0,0,0,0,0,-1,559,750,0,0
-658,274,0,0,0,0,0,0,0,0,0,-1,566,750,0,0
-651,274,0,0,0,0,0,0,0,0,0,-1,573,750,0,0
-644,274,0,0,0,0,0,0,0,0,0,-1,580,750,0,0
-637,274,0,0,0,0,0,0,0,0,0,-1,587,750,0,0
-630,274,0,0,0,0,0,0,0,0,0,-1,594,750,0,0
-623,274,-1.01105,1.29919,0,0,0,0,0,0,0,-1,601,750,-1.01107,-1.29917
-616,274,-1.1684,1.09076,0,0,0,0,0,0,0,-1,608,750,-1.1684,-1.09075
-609,274,-0.799561,0.793884,0,0,0,0,0,0,0,-1,615,750,-0.799564,-0.793856
-602,274,-1.06427,0.941345,-0.0104337,-0.0884196,0.0238014,-0.0037434,-0.0951098,0.274016,0.0621963,0.0443519,622,750,-1.06429,-0.941369
-595,274,-1.66412,0.955627,-0.00615942,-0.0706555,0.0200469,-0.000436217,-0.0763787,0.278093,0.0507743,0.0471175,629,750,-1.66413,-0.95561
-588,274,-0.472046,1.15527,-0.00298187,-0.054749,0.016466,0.00181172,-0.0595426,0.283291,0.0403126,0.0433257,636,750,-0.472045,-1.15527
-581,274,-0.162598,0.658447,-0.000865515,-0.0409036,0.0132109,0.00310066,-0.0448698,0.291658,0.0309985,0.0358294,643,750,-0.162614,-0.658437
-574,274,-0.0824585,0.630859,0.000879184,-0.0292986,0.0103272,0.00407488,-0.0324943,0.300098,0.023141,0.0191968,650,750,-0.0824343,-0.630863
-567,274,-0.13031,0.585938,0.00173372,-0.0194156,0.00761786,0.00419192,-0.0218738,0.31214,0.0161621,0.0164671,657,750,-0.130316,-0.58594
-560,274,-0.102905,0.504883,0.00228757,-0.0123582,0.00528732,0.00399687,-0.0140675,0.312678,0.0109564,0.015621,664,750,-0.1029,-0.504894
-553,274,-0.103882,0.505493,0.00198246,-0.00847576,0.00410048,0.00339846,-0.00989176,0.332505,0.00797254,0.00996772,671,750,-0.103898,-0.50552
-546,274,-0.11145,0.469727,0.00230729,-0.00407838,0.00263093,0.0032516,-0.00502269,0.344606,0.0048135,0.0105816,678,750,-0.111422,-0.469735
-539,274,-0.123535,0.43573,0.00198038,-0.00220337,0.00168414,0.00257407,-0.00279706,0.338917,0.00310191,0.0106059,685,750,-0.123529,-0.43576
-532,274,-0.110657,0.415527,0.000455503,-0.00178773,0.00176358,0.00142392,-0.00275614,0.502167,0.00245388,0.0106006,692,750,-0.110646,-0.415528
-525,274,-0.10437,0.374268,-0.00194527,-0.00128492,0.00199479,0.000406838,-0.00363703,0.867414,0.00257105,0.0110601,699,750,-0.104359,-0.374264
-518,274,-0.101379,0.311646,-0.00437629,-0.00143097,0.00228297,-0.000186884,-0.00562037,1.07185,0.0036862,0.0123373,706,750,-0.10136,-0.311656
-511,274,-0.0962524,0.258911,-0.00684036,-0.00310781,0.00258065,-0.00178932,-0.00815886,1.09846,0.00495176,0.0118129,713,750,-0.0962249,-0.258897
-504,274,-0.0986938,0.219177,-0.00922499,-0.00473057,0.0027568,-0.00342111,-0.0105345,1.12735,0.00620534,0.0176962,720,750,-0.0986897,-0.21919
-497,274,-0.0264893,0.181885,-0.0120282,-0.00640626,0.00280462,-0.0052464,-0.013188,1.17866,0.00766694,0.0373424,727,750,-0.0265112,-0.181897
-490,274,-0.0340576,1.73407,-0.0146405,-0.00828655,0.00266729,-0.00731532,-0.0156118,1.22159,0.00901939,0.043118,734,750,-0.0340525,-1.7341
-483,274,-0.225281,2.01843,-0.017098,-0.0111488,0.00207264,-0.0104979,-0.0177489,1.26652,0.0103043,0.042667,741,750,-0.225282,-2.01843
-476,274,-3.01495,0.437378,-0.0191586,-0.0141397,0.00103915,-0.013933,-0.0193652,1.3745,0.011534,0.0442005,748,750,-3.01496,-0.437363
-469,274,-3.55884,0.49646,0,0,0,0,0,0,0,-1,755,750,-3.55884,-0.496467
-462,274,-0.206787,3.43872,-0.0175294,-0.0232363,-0.0024836,-0.0165999,-0.0241657,-0.358106,0.0142734,0.0477374,762,750,-0.206791,-3.43869
-455,274,-0.177429,3.6391,-0.0124739,-0.0283965,-0.00516562,-0.0109449,-0.0299255,-0.28778,0.0174839,0.0440762,769,750,-0.177439,-3.63912
-448,274,1.03119,4.48523,0,0,0,0,0,0,0,-1,776,750,1.03121,-4.48523
-441,274,0,0,0,0,0,0,0,0,0,-1,783,750,0,0
-434,274,0,0,0,0,0,0,0,0,0,-1,790,750,0,0
-427,274,0,0,0,0,0,0,0,0,0,-1,797,750,0,0
-420,274,0,0,0,0,0,0,0,0,0,-1,804,750,0,0
-413,274,0,0,0,0,0,0,0,0,0,-1,811,750,0,0
-406,274,0,0,0,0,0,0,0,0,0,-1,818,750,0,0
-399,274,0,0,0,0,0,0,0,0,0,-1,825,750,0,0
-392,274,0,0,0,0,0,0,0,0,0,-1,832,750,0,0
-385,274,0,0,0,0,0,0,0,0,0,-1,839,750,0,0
-378,274,0,0,0,0,0,0,0,0,0,-1,846,750,0,0
-371,274,0,0,0,0,0,0,0,0,0,-1,853,750,0,0
-364,274,0,0,0,0,0,0,0,0,0,-1,860,750,0,0
-357,274,0,0,0,0,0,0,0,0,0,-1,867,750,0,0
-350,274,0,0,0,0,0,0,0,0,0,-1,874,750,0,0
-343,274,0,0,0,0,0,0,0,0,0,-1,881,750,0,0
-336,274,0,0,0,0,0,0,0,0,0,-1,888,750,0,0
-329,274,0,0,0,0,0,0,0,0,0,-1,895,750,0,0
-322,274,0,0,0,0,0,0,0,0,0,-1,902,750,0,0
-315,274,0,0,0,0,0,0,0,0,0,-1,909,750,0,0
-308,274,0,0,0,0,0,0,0,0,0,-1,916,750,0,0
-301,274,0,0,0,0,0,0,0,0,0,-1,923,750,0,0
-294,274,0,0,0,0,0,0,0,0,0,-1,930,750,0,0
-287,274,0,0,0,0,0,0,0,0,0,-1,937,750,0,0
-280,274,0,0,0,0,0,0,0,0,0,-1,944,750,0,0
-273,274,0,0,0,0,0,0,0,0,0,-1,951,750,0,0
-266,274,0,0,0,0,0,0,0,0,0,-1,958,750,0,0
-259,274,0,0,0,0,0,0,0,0,0,-1,965,750,0,0
-252,274,0,0,0,0,0,0,0,0,0,-1,972,750,0,0
-245,274,0,0,0,0,0,0,0,0,0,-1,979,750,0,0
-238,274,0,0,0,0,0,0,0,0,0,-1,986,750,0,0
-231,274,0,0,0,0,0,0,0,0,0,-1,993,750,0,0
-224,274,0,0,0,0,0,0,0,0,0,-1,1000,750,0,0
-217,274,0,0,0,0,0,0,0,0,0,-1,1007,750,0,0
-210,274,0,0,0,0,0,0,0,0,0,-1,1014,750,0,0
-203,274,0,0,0,0,0,0,0,0,0,-1,1021,750,0,0
-196,274,0,0,0,0,0,0,0,0,0,-1,1028,750,0,0
-189,274,0,0,0,0,0,0,0,0,0,-1,1035,750,0,0
-182,274,0,0,0,0,0,0,0,0,0,-1,1042,750,0,0
-175,274,0,0,0,0,0,0,0,0,0,-1,1049,750,0,0
-168,274,0,0,0,0,0,0,0,0,0,-1,1056,750,0,0
-161,274,0,0,0,0,0,0,0,0,0,-1,1063,750,0,0
-154,274,0,0,0,0,0,0,0,0,0,-1,1070,750,0,0
-147,274,0,0,0,0,0,0,0,0,0,-1,1077,750,0,0
-140,274,0,0,0,0,0,0,0,0,0,-1,1084,750,0,0
-133,274,0,0,0,0,0,0,0,0,0,-1,1091,750,0,0
-126,274,0,0,0,0,0,0,0,0,0,-1,1098,750,0,0
-119,274,0,0,0,0,0,0,0,0,0,-1,1105,750,0,0
-112,274,0,0,0,0,0,0,0,0,0,-1,1112,750,0,0
-105,274,0,0,0,0,0,0,0,0,0,-1,1119,750,0,0
-98,274,0,0,0,0,0,0,0,0,0,-1,1126,750,0,0
-91,274,0,0,0,0,0,0,0,0,0,-1,1133,750,0,0
-84,274,0,0,0,0,0,0,0,0,0,-1,1140,750,0,0
-77,274,0,0,0,0,0,0,0,0,0,-1,1147,750,0,0
-70,274,0,0,0,0,0,0,0,0,0,-1,1154,750,0,0
-63,274,0,0,0,0,0,0,0,0,0,-1,1161,750,0,0
-56,274,0,0,0,0,0,0,0,0,0,-1,1168,750,0,0
-49,274,0,0,0,0,0,0,0,0,0,-1,1175,750,0,0
-42,274,0,0,0,0,0,0,0,0,0,-1,1182,750,0,0
-35,274,0,0,0,0,0,0,0,0,0,-1,1189,750,0,0
-28,274,0,0,0,0,0,0,0,0,0,-1,1196,750,0,0
-21,274,0,0,0,0,0,0,0,0,0,-1,1203,750,0,0
-14,274,0,0,0,0,0,0,0,0,0,-1,1210,750,0,0
-7,274,0,0,0,0,0,0,0,0,0,-1,1217,750,0,0
0,274,0,0,0,0,0,0,0,0,0,-1,1224,750,0,0
7,274,0,0,0,0,0,0,0,0,0,-1,1231,750,0,0
14,274,0,0,0,0,0,0,0,0,0,-1,1238,750,0,0
21,274,0,0,0,0,0,0,0,0,0,-1,1245,750,0,0
28,274,0,0,0,0,0,0,0,0,0,-1,1252,750,0,0
35,274,0,0,0,0,0,0,0,0,0,-1,1259,750,0,0
42,274,0,0,0,0,0,0,0,0,0,-1,1266,750,0,0
49,274,0,0,0,0,0,0,0,0,0,-1,1273,750,0,0
56,274,0,0,0,0,0,0,0,0,0,-1,1280,750,0,0
63,274,0,0,0,0,0,0,0,0,0,-1,1287,750,0,0
70,274,0,0,0,0,0,0,0,0,0,-1,1294,750,0,0
77,274,0,0,0,0,0,0,0,0,0,-1,1301,750,0,0
84,274,0,0,0,0,0,0,0,0,0,-1,1308,750,0,0
91,274,0,0,0,0,0,0,0,0,0,-1,1315,750,0,0
98,274,0,0,0,0,0,0,0,0,0,-1,1322,750,0,0
105,274,0,0,0,0,0,0,0,0,0,-1,1329,750,0,0
112,274,0,0,0,0,0,0,0,0,0,-1,1336,750,0,0
119,274,0,0,0,0,0,0,0,0,0,-1,1343,750,0,0
126,274,0,0,0,0,0,0,0,0,0,-1,1350,750,0,0
133,274,0,0,0,0,0,0,0,0,0,-1,1357,750,0,0
140,274,0,0,0,0,0,0,0,0,0,-1,1364,750,0,0
147,274,0,0,0,0,0,0,0,0,0,-1,1371,750,0,0
154,274,0,0,0,0,0,0,0,0,0,-1,1378,750,0,0
161,274,0,0,0,0,0,0,0,0,0,-1,1385,750,0,0
168,274,0,0,0,0,0,0,0,0,0,-1,1392,750,0,0
175,274,0,0,0,0,0,0,0,0,0,-1,1399,750,0,0
182,274,0,0,0,0,0,0,0,0,0,-1,1406,750,0,0
189,274,0,0,0,0,0,0,0,0,0,-1,1413,750,0,0
196,274,0,0,0,0,0,0,0,0,0,-1,1420,750,0,0
203,274,0,0,0,0,0,0,0,0,0,-1,1427,750,0,0
210,274,0,0,0,0,0,0,0,0,0,-1,1434,750,0,0
217,274,0,0,0,0,0,0,0,0,0,-1,1441,750,0,0
224,274,0,0,0,0,0,0,0,0,0,-1,1448,750,0,0
231,274,0,0,0,0,0,0,0,0,0,-1,1455,750,0,0
238,274,0,0,0,0,0,0,0,0,0,-1,1462,750,0,0
245,274,0,0,0,0,0,0,0,0,0,-1,1469,750,0,0
252,274,0,0,0,0,0,0,0,0,0,-1,1476,750,0,0
259,274,0,0,0,0,0,0,0,0,0,-1,1483,750,0,0
266,274,0,0,0,0,0,0,0,0,0,-1,1490,750,0,0
273,274,0,0,0,0,0,0,0,0,0,-1,1497,750,0,0
280,274,0,0,0,0,0,0,0,0,0,-1,1504,750,0,0
287,274,0,0,0,0,0,0,0,0,0,-1,1511,750,0,0
294,274,0,0,0,0,0,0,0,0,0,-1,1518,750,0,0
301,274,0,0,0,0,0,0,0,0,0,-1,1525,750,0,0
308,274,0,0,0,0,0,0,0,0,0,-1,1532,750,0,0
315,274,0,0,0,0,0,0,0,0,0,-1,1539,750,0,0
322,274,0,0,0,0,0,0,0,0,0,-1,1546,750,0,0
329,274,0,0,0,0,0,0,0,0,0,-1,1553,750,0,0
336,274,0,0,0,0,0,0,0,0,0,-1,1560,750,0,0
343,274,0,0,0,0,0,0,0,0,0,-1,1567,750,0,0
350,274,0,0,0,0,0,0,0,0,0,-1,1574,750,0,0
357,274,0,0,0,0,0,0,0,0,0,-1,1581,750,0,0
364,274,0,0,0,0,0,0,0,0,0,-1,1588,750,0,0
371,274,0,0,0,0,0,0,0,0,0,-1,1595,750,0,0
378,274,0,0,0,0,0,0,0,0,0,-1,1602,750,0,0
385,274,0,0,0,0,0,0,0,0,0,-1,1609,750,0,0
392,274,0,0,0,0,0,0,0,0,0,-1,1616,750,0,0
399,274,0,0,0,0,0,0,0,0,0,-1,1623,750,0,0
406,274,0,0,0,0,0,0,0,0,0,-1,1630,750,0,0
413,274,0,0,0,0,0,0,0,0,0,-1,1637,750,0,0
420,274,0,0,0,0,0,0,0,0,0,-1,1644,750,0,0
427,274,0,0,0,0,0,0,0,0,0,-1,1651,750,0,0
434,274,0,0,0,0,0,0,0,0,0,-1,1658,750,0,0
441,274,0,0,0,0,0,0,0,0,0,-1,1665,750,0,0
448,274,0,0,0,0,0,0,0,0,0,-1,1672,750,0,0
455,274,0,0,0,0,0,0,0,0,0,-1,1679,750,0,0
462,274,0,0,0,0,0,0,0,0,0,-1,1686,750,0,0
469,274,0,0,0,0,0,0,0,0,0,-1,1693,750,0,0
476,274,0,0,0,0,0,0,0,0,0,-1,1700,750,0,0
483,274,0,0,0,0,0,0,0,0,0,-1,1707,750,0,0
490,274,0,0,0,0,0,0,0,0,0,-1,1714,750,0,0
497,274,0,0,0,0,0,0,0,0,0,-1,1721,750,0,0
504,274,0,0,0,0,0,0,0,0,0,-1,1728,750,0,0
511,274,0,0,0,0,0,0,0,0,0,-1,1735,750,0,0
518,274,0,0,0,0,0,0,0,0,0,-1,1742,750,0,0
525,274,0,0,0,0,0,0,0,0,0,-1,1749,750,0,0
532,274,0,0,0,0,0,0,0,0,0,-1,1756,750,0,0
539,274,0,0,0,0,0,0,0,0,0,-1,1763,750,0,0
546,274,0,0,0,0,0,0,0,0,0,-1,1770,750,0,0
553,274,0,0,0,0,0,0,0,0,0,-1,1777,750,0,0
560,274,4.78223,0.815186,0,0,0,0,0,0,0,-1,1784,750,4.78223,-0.815201
567,274,4.6593,0.894531,0.0106843,0.019364,0.0010417,0.0194873,0.0105611,1.45301,0.0112642,0.0397648,1791,750,4.6593,-0.894509
574,274,4.88049,0.79657,0.00738777,0.0204311,-0.00132154,0.0205636,0.00725522,-1.47083,0.0120427,0.0445531,1798,750,4.88049,-0.796591
581,274,4.90747,0.412354,0,0,0,0,0,0,0,-1,1805,750,4.90743,-0.412375
588,274,4.99194,0.0745239,0,0,0,0,0,0,0,-1,1812,750,4.99196,-0.0745276
595,274,4.92102,0.0429688,-0.00171789,0.0187249,-0.00543097,0.0200782,-0.00307113,-1.3266,0.0145179,0.0453365,1819,750,4.92107,-0.0429705
602,274,4.5,0.293762,-0.0038887,0.0174441,-0.00563996,0.0188434,-0.005288,-1.3276,0.0146466,0.0476419,1826,750,4.50001,-0.293753
609,274,4.4845,0.225464,-0.00566728,0.0165199,-0.00527284,0.0177093,-0.00685663,-1.34895,0.0146372,0.0478632,1833,750,4.48448,-0.225465
616,274,4.44897,0.108521,-0.00702622,0.0141042,-0.00478081,0.0151355,-0.00805756,-1.35833,0.0135968,0.0453794,1840,750,4.44903,-0.108509
623,274,4.36304,0.043457,-0.00816988,0.011743,-0.00394541,0.0124962,-0.00892311,-1.38215,0.0124237,0.0459164,1847,750,4.36302,-0.0434678
630,274,3.97961,0.134277,-0.00861374,0.0101609,-0.00308102,0.0106536,-0.00910643,-1.41223,0.0114201,0.0382168,1854,750,3.97965,-0.134252
637,274,3.9436,0.227051,-0.0081757,0.00871006,-0.00199943,0.00894359,-0.00840922,-1.45453,0.0100202,0.0128677,1861,750,3.94357,-0.227044
644,274,3.9447,0.289673,-0.00736517,0.00691068,-0.00087176,0.00696372,-0.00741821,-1.51003,0.00830479,0.0113853,1868,750,3.94469,-0.2897
651,274,3.94922,0.342834,-0.00621929,0.00543965,-0.000207175,0.00544333,-0.00622297,-1.55303,0.00674056,0.0126794,1875,750,3.9492,-0.342813
658,274,3.94617,0.388245,-0.00507926,0.0035195,0.000334241,0.00353248,-0.00509223,1.532,0.00500655,0.015081,1882,750,3.94616,-0.388228
665,274,3.92651,0.454224,-0.00408541,0.00219022,0.000369806,0.00221194,-0.00410713,1.51214,0.0037026,0.0160837,1889,750,3.92648,-0.454222
672,274,3.922,0.466797,-0.00314548,0.00063986,0.00027816,0.000660191,-0.00316581,1.49784,0.00236157,0.0138449,1896,750,3.92203,-0.466769
679,274,3.93494,0.494934,-0.00267109,0.000320291,-0.000239763,0.000339387,-0.00269018,-1.49132,0.00191663,0.0136418,1903,750,3.93495,-0.494906
686,274,3.93762,0.54657,-0.0028113,0.000248287,-0.000449375,0.000312923,-0.00287593,-1.42794,0.00202965,0.0123828,1910,750,3.93758,-0.546576
693,274,3.93018,0.59021,-0.00367223,0.000190778,-0.000932711,0.000404188,-0.00388564,-1.34586,0.00273513,0.0105149,1917,750,3.93012,-0.590181
700,274,3.92261,0.628052,-0.00568225,0.000637995,-0.00144654,0.000953335,-0.00599759,-1.35616,0.00435113,0.0131057,1924,750,3.92257,-0.628047
707,274,3.90222,0.642761,-0.00862865,0.0014711,-0.00189164,0.00181377,-0.00897131,-1.39159,0.0066682,0.0200924,1931,750,3.9022,-0.642774
714,274,3.93286,0.668518,-0.0124308,0.0027797,-0.00229001,0.003117,-0.012768,-1.42456,0.00971909,0.0370852,1938,750,3.93285,-0.668506
721,274,4.10278,0.708801,-0.0176529,0.00476729,-0.00278651,0.00510842,-0.017994,-1.44898,0.0140127,0.0465933,1945,750,4.10277,-0.70879
728,274,4.28699,0.804749,-0.0246243,0.00756734,-0.00349091,0.00794155,-0.0249985,-1.46401,0.0198497,0.04912,1952,750,4.28697,-0.804721
735,274,3.09412,1.39777,-0.0337012,0.0112681,-0.00464556,0.011743,-0.0341761,-1.46892,0.0275458,0.0484967,1959,750,3.09408,-1.39776
742,274,5.70361,3.65314,0,0,0,0,0,0,0,-1,1966,750,5.70364,-3.65311
749,274,0,0,0,0,0,0,0,0,0,-1,1973,750,0,0
756,274,0,0,0,0,0,0,0,0,0,-1,1980,750,0,0
763,274,0,0,0,0,0,0,0,0,0,-1,1987,750,0,0
770,274,0,0,0,0,0,0,0,0,0,-1,1994,750,0,0
777,274,0,0,0,0,0,0,0,0,0,-1,2001,750,0,0
784,274,0,0,0,0,0,0,0,0,0,-1,2008,750,0,0
791,274,0,0,0,0,0,0,0,0,0,-1,2015,750,0,0
798,274,0,0,0,0,0,0,0,0,0,-1,2022,750,0,0
805,274,0,0,0,0,0,0,0,0,0,-1,2029,750,0,0
812,274,0,0,0,0,0,0,0,0,0,-1,2036,750,0,0
-700,267,0,0,0,0,0,0,0,0,0,-1,524,757,0,0
-693,267,0,0,0,0,0,0,0,0,0,-1,531,757,0,0
-686,267,0,0,0,0,0,0,0,0,0,-1,538,757,0,0
-679,267,0,0,0,0,0,0,0,0,0,-1,545,757,0,0
-672,267,0,0,0,0,0,0,0,0,0,-1,552,757,0,0
-665,267,0,0,0,0,0,0,0,0,0,-1,559,757,0,0
-658,267,0,0,0,0,0,0,0,0,0,-1,566,757,0,0
-651,267,0,0,0,0,0,0,0,0,0,-1,573,757,0,0
-644,267,0,0,0,0,0,0,0,0,0,-1,580,757,0,0
-637,267,0,0,0,0,0,0,0,0,0,-1,587,757,0,0
-630,267,-1.26044,2.4032,-0.0318652,-0.15382,0.0296073,-0.0250574,-0.160627,0.22601,0.0997867,0.0418369,594,757,-1.26045,-2.40321
-623,267,-1.62201,2.20026,-0.0233012,-0.133296,0.0255409,-0.0176599,-0.138937,0.217384,0.0873353,0.0423917,601,757,-1.62198,-2.20024
-616,267,-1.8338,2.11243,-0.0163887,-0.113244,0.0222068,-0.0115399,-0.118092,0.214974,0.0751775,0.0465026,608,757,-1.83381,-2.11243
-609,267,-2.26904,2.09216,0,0,0,0,0,0,0,-1,615,757,-2.26906,-2.09216
-602,267,-2.56836,2.00061,-0.00645632,-0.0767195,0.0166213,-0.00272281,-0.0804531,0.220955,0.0527512,0.046364,622,757,-2.56834,-2.00062
-595,267,-2.78412,1.91321,-0.00319453,-0.0608321,0.0141197,7.85366e-05,-0.0641052,0.227786,0.042763,0.0456719,629,757,-2.78413,-1.91319
-588,267,-3.00897,1.8241,0,0,0,0,0,0,0,-1,636,757,-3.00896,-1.82412
-581,267,-0.139648,0.713196,0.000476165,-0.034655,0.0095359,0.00289766,-0.0370765,0.248678,0.025738,0.0246955,643,757,-0.139638,-0.713172
-574,267,-0.152405,0.624146,0.0016772,-0.0245162,0.0075632,0.00370417,-0.0265432,0.261851,0.0190506,0.0135617,650,757,-0.152398,-0.624148
-567,267,-0.163025,0.613586,0.00215501,-0.0159739,0.00567186,0.00378328,-0.0176022,0.27956,0.0131782,0.020534,657,757,-0.163035,-0.613572
-560,267,-0.137329,0.516602,0.00247082,-0.010048,0.00396928,0.00362326,-0.0112004,0.28257,0.00892335,0.0227488,664,757,-0.137308,-0.516585
-553,267,-0.124146,0.492859,0.00191998,-0.00740276,0.00350814,0.0030926,-0.00857538,0.322581,0.00698002,0.0183698,671,757,-0.124161,-0.492834
-546,267,-0.133057,0.475281,0.0021987,-0.00376606,0.00246643,0.00308645,-0.0046538,0.345495,0.00449927,0.0111669,678,757,-0.133052,-0.475263
-539,267,-0.150879,0.431824,0.00201345,-0.00233748,0.00175612,0.0026338,-0.00295783,0.33957,0.00323014,0.00962654,685,757,-0.150854,-0.431825
-532,267,-0.1427,0.396118,0.000757779,-0.00191267,0.0018352,0.00169209,-0.00284698,0.470905,0.00264876,0.00928522,692,757,-0.142729,-0.396121
-525,267,-0.137268,0.353088,-0.00134636,-0.00142785,0.00203646,0.000649764,-0.00342397,0.775395,0.00252723,0.00886029,699,757,-0.137238,-0.353085
-518,267,-0.138428,0.301392,-0.00346822,-0.00160796,0.00221321,-0.000137378,-0.00493881,0.984324,0.00324771,0.00952565,706,757,-0.138425,-0.301384
-511,267,-0.141724,0.244934,-0.00569548,-0.00306727,0.00241025,-0.00163617,-0.00712658,1.03498,0.00431045,0.0135849,713,757,-0.141718,-0.244909
-504,267,-0.153625,0.203003,-0.00803849,-0.0045244,0.00248106,-0.00324123,-0.00932165,1.0935,0.00546444,0.0265679,720,757,-0.153608,-0.202994
-497,267,-0.172791,0.203674,-0.010868,-0.00600387,0.00233684,-0.00506314,-0.0118087,1.18808,0.00684079,0.0433651,727,757,-0.172803,-0.203676
-490,267,-0.207153,0.207214,0,0,0,0,0,0,0,-1,734,757,-0.207166,-0.207232
-483,267,-1.79095,0.248047,-0.0164691,-0.0104532,0.000974784,-0.0102992,-0.0166231,1.4141,0.0096884,0.039903,741,757,-1.79096,-0.248055
-476,267,-2.33813,0.286438,-0.0180295,-0.0142589,-0.000512582,-0.0141904,-0.0180979,-1.43806,0.0109967,0.0421039,748,757,-2.33815,-0.286426
-469,267,-2.8761,0.323914,-0.0173485,-0.0195307,-0.00262081,-0.0156007,-0.0212785,-0.588152,0.0127226,0.047063,755,757,-2.87612,-0.323919
-462,267,-3.43164,0.33313,0,0,0,0,0,0,0,-1,762,757,-3.43161,-0.333127
-455,267,-0.494934,3.83582,0,0,0,0,0,0,0,-1,769,757,-0.494911,-3.83583
-448,267,-0.874023,-0.997375,0,0,0,0,0,0,0,-1,776,757,-0.87404,0.997405
-441,267,0,0,0,0,0,0,0,0,0,-1,783,757,0,0
-434,267,0,0,0,0,0,0,0,0,0,-1,790,757,0,0
-427,267,0,0,0,0,0,0,0,0,0,-1,797,757,0,0
-420,267,0,0,0,0,0,0,0,0,0,-1,804,757,0,0
-413,267,0,0,0,0,0,0,0,0,0,-1,811,757,0,0
-406,267,0,0,0,0,0,0,0,0,0,-1,818,757,0,0
-399,267,0,0,0,0,0,0,0,0,0,-1,825,757,0,0
-392,267,0,0,0,0,0,0,0,0,0,-1,832,757,0,0
-385,267,0,0,0,0,0,0,0,0,0,-1,839,757,0,0
-378,267,0,0,0,0,0,0,0,0,0,-1,846,757,0,0
-371,267,0,0,0,0,0,0,0,0,0,-1,853,757,0,0
-364,267,0,0,0,0,0,0,0,0,0,-1,860,757,0,0
-357,267,0,0,0,0,0,0,0,0,0,-1,867,757,0,0
-350,267,0,0,0,0,0,0,0,0,0,-1,874,757,0,0
-343,267,0,0,0,0,0,0,0,0,0,-1,881,757,0,0
-336,267,0,0,0,0,0,0,0,0,0,-1,888,757,0,0
-329,267,0,0,0,0,0,0,0,0,0,-1,895,757,0,0
-322,267,0,0,0,0,0,0,0,0,0,-1,902,757,0,0
-315,267,0,0,0,0,0,0,0,0,0,-1,909,757,0,0
-308,267,0,0,0,0,0,0,0,0,0,-1,916,757,0,0
-301,267,0,0,0,0,0,0,0,0,0,-1,923,757,0,0
-294,267,0,0,0,0,0,0,0,0,0,-1,930,757,0,0
-287,267,0,0,0,0,0,0,0,0,0,-1,937,757,0,0
-280,267,0,0,0,0,0,0,0,0,0,-1,944,757,0,0
-273,267,0,0,0,0,0,0,0,0,0,-1,951,757,0,0
-266,267,0,0,0,0,0,0,0,0,0,-1,958,757,0,0
-259,267,0,0,0,0,0,0,0,0,0,-1,965,757,0,0
-252,267,0,0,0,0,0,0,0,0,0,-1,972,757,0,0
-245,267,0,0,0,0,0,0,0,0,0,-1,979,757,0,0
-238,267,0,0,0,0,0,0,0,0,0,-1,986,757,0,0
-231,267,0,0,0,0,0,0,0,0,0,-1,993,757,0,0
-224,267,0,0,0,0,0,0,0,0,0,-1,1000,757,0,0
-217,267,0,0,0,0,0,0,0,0,0,-1,1007,757,0,0
-210,267,0,0,0,0,0,0,0,0,0,-1,1014,757,0,0
-203,267,0,0,0,0,0,0,0,0,0,-1,1021,757,0,0
-196,267,0,0,0,0,0,0,0,0,0,-1,1028,757,0,0
-189,267,0,0,0,0,0,0,0,0,0,-1,1035,757,0,0
-182,267,0,0,0,0,0,0,0,0,0,-1,1042,757,0,0
-175,267,0,0,0,0,0,0,0,0,0,-1,1049,757,0,0
-168,267,0,0,0,0,0,0,0,0,0,-1,1056,757,0,0
-161,267,0,0,0,0,0,0,0,0,0,-1,1063,757,0,0
-154,267,0,0,0,0,0,0,0,0,0,-1,1070,757,0,0
-147,267,0,0,0,0,0,0,0,0,0,-1,1077,757,0,0
-140,267,0,0,0,0,0,0,0,0,0,-1,1084,757,0,0
-133,267,0,0,0,0,0,0,0,0,0,-1,1091,757,0,0
-126,267,0,0,0,0,0,0,0,0,0,-1,1098,757,0,0
-119,267,0,0,0,0,0,0,0,0,0,-1,1105,757,0,0
-112,267,0,0,0,0,0,0,0,0,0,-1,1112,757,0,0
-105,267,0,0,0,0,0,0,0,0,0,-1,1119,757,0,0
-98,267,0,0,0,0,0,0,0,0,0,-1,1126,757,0,0
-91,267,0,0,0,0,0,0,0,0,0,-1,1133,757,0,0
-84,267,0,0,0,0,0,0,0,0,0,-1,1140,757,0,0
-77,267,0,0,0,0,0,0,0,0,0,-1,1147,757,0,0
-70,267,0,0,0,0,0,0,0,0,0,-1,1154,757,0,0
-63,267,0,0,0,0,0,0,0,0,0,-1,1161,757,0,0
-56,267,0,0,0,0,0,0,0,0,0,-1,1168,757,0,0
-49,267,0,0,0,0,0,0,0,0,0,-1,1175,757,0,0
-42,267,0,0,0,0,0,0,0,0,0,-1,1182,757,0,0
-35,267,0,0,0,0,0,0,0,0,0,-1,1189,757,0,0
-28,267,0,0,0,0,0,0,0,0,0,-1,1196,757,0,0
-21,267,0,0,0,0,0,0,0,0,0,-1,1203,757,0,0
-14,267,0,0,0,0,0,0,0,0,0,-1,1210,757,0,0
-7,267,0,0,0,0,0,0,0,0,0,-1,1217,757,0,0
0,267,0,0,0,0,0,0,0,0,0,-1,1224,757,0,0
7,267,0,0,0,0,0,0,0,0,0,-1,1231,757,0,0
14,267,0,0,0,0,0,0,0,0,0,-1,1238,757,0,0
21,267,0,0,0,0,0,0,0,0,0,-1,1245,757,0,0
28,267,0,0,0,0,0,0,0,0,0,-1,1252,757,0,0
35,267,0,0,0,0,0,0,0,0,0,-1,1259,757,0,0
42,267,0,0,0,0,0,0,0,0,0,-1,1266,757,0,0
49,267,0,0,0,0,0,0,0,0,0,-1,1273,757,0,0
56,267,0,0,0,0,0,0,0,0,0,-1,1280,757,0,0
63,267,0,0,0,0,0,0,0,0,0,-1,1287,757,0,0
70,267,0,0,0,0,0,0,0,0,0,-1,1294,757,0,0
77,267,0,0,0,0,0,0,0,0,0,-1,1301,757,0,0
84,267,0,0,0,0,0,0,0,0,0,-1,1308,757,0,0
91,267,0,0,0,0,0,0,0,0,0,-1,1315,757,0,0
98,267,0,0,0,0,0,0,0,0,0,-1,1322,757,0,0
105,267,0,0,0,0,0,0,0,0,0,-1,1329,757,0,0
112,267,0,0,0,0,0,0,0,0,0,-1,1336,757,0,0
119,267,0,0,0,0,0,0,0,0,0,-1,1343,757,0,0
126,267,0,0,0,0,0,0,0,0,0,-1,1350,757,0,0
133,267,0,0,0,0,0,0,0,0,0,-1,1357,757,0,0
140,267,0,0,0,0,0,0,0,0,0,-1,1364,757,0,0
147,267,0,0,0,0,0,0,0,0,0,-1,1371,757,0,0
154,267,0,0,0,0,0,0,0,0,0,-1,1378,757,0,0
161,267,0,0,0,0,0,0,0,0,0,-1,1385,757,0,0
168,267,0,0,0,0,0,0,0,0,0,-1,1392,757,0,0
175,267,0,0,0,0,0,0,0,0,0,-1,1399,757,0,0
182,267,0,0,0,0,0,0,0,0,0,-1,1406,757,0,0
189,267,0,0,0,0,0,0,0,0,0,-1,1413,757,0,0
196,267,0,0,0,0,0,0,0,0,0,-1,1420,757,0,0
203,267,0,0,0,0,0,0,0,0,0,-1,1427,757,0,0
210,267,0,0,0,0,0,0,0,0,0,-1,1434,757,0,0
217,267,0,0,0,0,0,0,0,0,0,-1,1441,757,0,0
224,267,0,0,0,0,0,0,0,0,0,-1,1448,757,0,0
231,267,0,0,0,0,0,0,0,0,0,-1,1455,757,0,0
238,267,0,0,0,0,0,0,0,0,0,-1,1462,757,0,0
245,267,0,0,0,0,0,0,0,0,0,-1,1469,757,0,0
252,267,0,0,0,0,0,0,0,0,0,-1,1476,757,0,0
259,267,0,0,0,0,0,0,0,0,0,-1,1483,757,0,0
266,267,0,0,0,0,0,0,0,0,0,-1,1490,757,0,0
273,267,0,0,0,0,0,0,0,0,0,-1,1497,757,0,0
280,267,0,0,0,0,0,0,0,0,0,-1,1504,757,0,0
287,267,0,0,0,0,0,0,0,0,0,-1,1511,757,0,0
294,267,0,0,0,0,0,0,0,0,0,-1,1518,757,0,0
301,267,0,0,0,0,0,0,0,0,0,-1,1525,757,0,0
308,267,0,0,0,0,0,0,0,0,0,-1,1532,757,0,0
315,267,0,0,0,0,0,0,0,0,0,-1,1539,757,0,0
322,267,0,0,0,0,0,0,0,0,0,-1,1546,757,0,0
329,267,0,0,0,0,0,0,0,0,0,-1,1553,757,0,0
336,267,0,0,0,0,0,0,0,0,0,-1,1560,757,0,0
343,267,0,0,0,0,0,0,0,0,0,-1,1567,757,0,0
350,267,0,0,0,0,0,0,0,0,0,-1,1574,757,0,0
357,267,0,0,0,0,0,0,0,0,0,-1,1581,757,0,0
364,267,0,0,0,0,0,0,0,0,0,-1,1588,757,0,0
371,267,0,0,0,0,0,0,0,0,0,-1,1595,757,0,0
378,267,0,0,0,0,0,0,0,0,0,-1,1602,757,0,0
385,267,0,0,0,0,0,0,0,0,0,-1,1609,757,0,0
392,267,0,0,0,0,0,0,0,0,0,-1,1616,757,0,0
399,267,0,0,0,0,0,0,0,0,0,-1,1623,757,0,0
406,267,0,0,0,0,0,0,0,0,0,-1,1630,757,0,0
413,267,0,0,0,0,0,0,0,0,0,-1,1637,757,0,0
420,267,0,0,0,0,0,0,0,0,0,-1,1644,757,0,0
427,267,0,0,0,0,0,0,0,0,0,-1,1651,757,0,0
434,267,0,0,0,0,0,0,0,0,0,-1,1658,757,0,0
441,267,0,0,0,0,0,0,0,0,0,-1,1665,757,0,0
448,267,0,0,0,0,0,0,0,0,0,-1,1672,757,0,0
455,267,0,0,0,0,0,0,0,0,0,-1,1679,757,0,0
462,267,0,0,0,0,0,0,0,0,0,-1,1686,757,0,0
469,267,0,0,0,0,0,0,0,0,0,-1,1693,757,0,0
476,267,0,0,0,0,0,0,0,0,0,-1,1700,757,0,0
483,267,0,0,0,0,0,0,0,0,0,-1,1707,757,0,0
490,267,0,0,0,0,0,0,0,0,0,-1,1714,757,0,0
497,267,0,0,0,0,0,0,0,0,0,-1,1721,757,0,0
504,267,0,0,0,0,0,0,0,0,0,-1,1728,757,0,0
511,267,0,0,0,0,0,0,0,0,0,-1,1735,757,0,0
518,267,0,0,0,0,0,0,0,0,0,-1,1742,757,0,0
525,267,0,0,0,0,0,0,0,0,0,-1,1749,757,0,0
532,267,0,0,0,0,0,0,0,0,0,-1,1756,757,0,0
539,267,0,0,0,0,0,0,0,0,0,-1,1763,757,0,0
546,267,0,0,0,0,0,0,0,0,0,-1,1770,757,0,0
553,267,0,0,0,0,0,0,0,0,0,-1,1777,757,0,0
560,267,0,0,0,0,0,0,0,0,0,-1,1784,757,0,0
567,267,4.86926,0.748047,0.00993216,0.0167629,0.0015598,0.0171022,0.00959283,1.35659,0.00989836,0.0350718,1791,757,4.86929,-0.748075
574,267,4.8717,0.749634,0.00714905,0.0179902,-0.000773718,0.0180451,0.00709411,-1.49991,0.0104974,0.0389775,1798,757,4.87165,-0.749628
581,267,4.8999,0.848389,0.00417932,0.018142,-0.0030052,0.0187613,0.00355997,-1.36755,0.0115059,0.0368565,1805,757,4.89988,-0.848375
588,267,5.77612,0.0443115,0,0,0,0,0,0,0,-1,1812,757,5.77613,-0.0443129
595,267,5.03015,0.188782,-0.00214947,0.0169178,-0.00481906,0.0180665,-0.00329823,-1.33679,0.013281,0.0466413,1819,757,5.03019,-0.188797
602,267,4.9325,-0.271973,-0.00455395,0.0157622,-0.00485456,0.0168626,-0.00565435,-1.34789,0.0135263,0.0473557,1826,757,4.93245,0.271968
609,267,4.7417,-0.0251465,-0.00651352,0.0148818,-0.00437035,0.0157401,-0.0073718,-1.37688,0.0136321,0.0458064,1833,757,4.74175,0.0251693
616,267,5.02429,-0.21698,-0.00800294,0.0127809,-0.00376278,0.0134411,-0.0086632,-1.39709,0.0128609,0.0409726,1840,757,5.0243,0.216993
623,267,4.6571,-0.48938,-0.00917194,0.0106652,-0.002951,0.0110949,-0.00960163,-1.42621,0.0119595,0.0417749,1847,757,4.65706,0.489406
630,267,4.37524,-0.187805,-0.00961013,0.00915731,-0.00221518,0.00941523,-0.00986805,-1.45489,0.0111342,0.0351719,1854,757,4.37528,0.187785
637,267,4.0293,0.177307,-0.00918128,0.00777436,-0.00128796,0.00787164,-0.00927855,-1.49541,0.00991277,0.0239076,1861,757,4.02929,-0.17729
644,267,3.96863,0.28009,-0.00833999,0.00611833,-0.000310263,0.00612499,-0.00834664,-1.54935,0.00838795,0.0115291,1868,757,3.96861,-0.280115
651,267,3.94922,0.369629,-0.00710229,0.00480197,0.000230671,0.00480644,-0.00710676,1.55143,0.0069207,0.0136526,1875,757,3.9492,-0.369624
658,267,3.95642,0.395142,-0.00582486,0.00298296,0.000639913,0.0030292,-0.00587111,1.49865,0.00522519,0.0143335,1882,757,3.95642,-0.395168
665,267,3.97217,0.43335,-0.00461274,0.0017633,0.000636857,0.00182628,-0.00467573,1.47221,0.00387224,0.0151949,1889,757,3.97219,-0.433341
672,267,3.98438,0.4646,-0.003377,0.000410913,0.000564329,0.0004932,-0.00345929,1.426,0.00248695,0.0135155,1896,757,3.98438,-0.464576
679,267,3.97375,0.495239,-0.0025585,0.000168856,0.000110562,0.00017333,-0.00256297,1.53035,0.00176926,0.0125157,1903,757,3.97373,-0.495211
686,267,3.97693,0.548523,-0.00228667,0.000235853,4.30758e-05,0.000236588,-0.00228741,1.55373,0.00160961,0.0114438,1910,757,3.97687,-0.548511
693,267,3.97131,0.588196,-0.00280038,0.000402654,-0.000289481,0.000428606,-0.00282633,-1.48138,0.00204214,0.0113435,1917,757,3.97131,-0.588207
700,267,3.94531,0.63739,-0.00451351,0.00116529,-0.000616247,0.0012314,-0.00457961,-1.46394,0.00353575,0.0141692,1924,757,3.94533,-0.63738
707,267,3.92114,0.667969,-0.00710001,0.0023674,-0.000845523,0.00244232,-0.00717493,-1.48242,0.00577228,0.0145181,1931,757,3.92117,-0.667941
714,267,3.99084,0.640503,-0.0103671,0.00409141,-0.000979442,0.00415746,-0.0104331,-1.50346,0.00867974,0.0265928,1938,757,3.99086,-0.640531
721,267,4.10449,0.63623,-0.0149235,0.00657428,-0.00121699,0.00664295,-0.0149921,-1.51443,0.0127973,0.0440886,1945,757,4.10443,-0.636232
728,267,4.20386,0.634521,0,0,0,0,0,0,0,-1,1952,757,4.20385,-0.634516
735,267,5.72705,1.7973,-0.0291514,0.014161,-0.00266751,0.0143246,-0.0293151,-1.50952,0.0256861,0.0482008,1959,757,5.72707,-1.79729
742,267,5.60071,3.2583,0,0,0,0,0,0,0,-1,1966,757,5.60067,-3.25828
749,267,0,0,0,0,0,0,0,0,0,-1,1973,757,0,0
756,267,0,0,0,0,0,0,0,0,0,-1,1980,757,0,0
763,267,0,0,0,0,0,0,0,0,0,-1,1987,757,0,0
770,267,0,0,0,0,0,0,0,0,0,-1,1994,757,0,0
777,267,0,0,0,0,0,0,0,0,0,-1,2001,757,0,0
784,267,0,0,0,0,0,0,0,0,0,-1,2008,757,0,0
791,267,0,0,0,0,0,0,0,0,0,-1,2015,757,0,0
798,267,0,0,0,0,0,0,0,0,0,-1,2022,757,0,0
805,267,0,0,0,0,0,0,0,0,0,-1,2029,757,0,0
812,267,0,0,0,0,0,0,0,0,0,-1,2036,757,0,0
-700,260,0,0,0,0,0,0,0,0,0,-1,524,764,0,0
-693,260,0,0,0,0,0,0,0,0,0,-1,531,764,0,0
-686,260,0,0,0,0,0,0,0,0,0,-1,538,764,0,0
-679,260,0,0,0,0,0,0,0,0,0,-1,545,764,0,0
-672,260,0,0,0,0,0,0,0,0,0,-1,552,764,0,0
-665,260,0,0,0,0,0,0,0,0,0,-1,559,764,0,0
-658,260,0,0,0,0,0,0,0,0,0,-1,566,764,0,0
-651,260,0,0,0,0,0,0,0,0,0,-1,573,764,0,0
-644,260,0,0,0,0,0,0,0,0,0,-1,580,764,0,0
-637,260,0,0,0,0,0,0,0,0,0,-1,587,764,0,0
-630,260,-1.50171,2.96588,-0.0217895,-0.135726,0.0179617,-0.019025,-0.13849,0.152714,0.086684,0.0438298,594,764,-1.50172,-2.96585
-623,260,-1.85992,3.19421,-0.0148444,-0.115782,0.0150883,-0.0126372,-0.117989,0.145253,0.0748035,0.0423197,601,764,-1.8599,-3.19422
-616,260,-2.43469,3.16907,-0.00936469,-0.0970205,0.0129016,-0.00750521,-0.0988799,0.143142,0.0635661,0.0466286,608,764,-2.43468,-3.1691
-609,260,-3.289,3.02997,0,0,0,0,0,0,0,-1,615,764,-3.289,-3.02997
-602,260,-3.65729,2.87885,-0.0018758,-0.064117,0.00964584,-0.00041521,-0.0655776,0.15028,0.0435806,0.0495435,622,764,-3.65731,-2.87884
-595,260,-3.86035,2.76147,0.000321812,-0.0502975,0.00830634,0.00164999,-0.0516257,0.158556,0.0349801,0.0479825,629,764,-3.86033,-2.76148
-588,260,-3.92358,2.72498,0,0,0,0,0,0,0,-1,636,764,-3.92359,-2.72495
-581,260,-0.188538,0.673767,0.0022838,-0.0280175,0.00583111,0.00336718,-0.0291009,0.1837,0.0206149,0.0202693,643,764,-0.18853,-0.673776
-574,260,-0.210754,0.611694,0.00288364,-0.0194809,0.00473496,0.00384481,-0.020442,0.200272,0.015074,0.0139225,650,764,-0.210724,-0.611705
-567,260,-0.206604,0.589417,0.00297726,-0.0124227,0.00360591,0.00377976,-0.0132252,0.218985,0.0103103,0.0148141,657,764,-0.20662,-0.589398
-560,260,-0.181641,0.564087,0.00299413,-0.00778955,0.00254367,0.00356402,-0.00835944,0.220402,0.00706716,0.0173326,664,764,-0.181647,-0.564091
-553,260,-0.167969,0.524292,0.00214006,-0.00646952,0.00284026,0.00299262,-0.00732208,0.291613,0.00612756,0.0166031,671,764,-0.167962,-0.524309
-546,260,-0.172668,0.479065,0.00232288,-0.00362629,0.00225162,0.00307897,-0.00438238,0.323968,0.00432967,0.0107028,678,764,-0.172664,-0.479056
-539,260,-0.180969,0.434265,0.00225221,-0.00262905,0.00177362,0.0028286,-0.00320543,0.314212,0.00348601,0.0098841,685,764,-0.180986,-0.434281
-532,260,-0.182617,0.406677,0.00131092,-0.00228139,0.00184947,0.00209289,-0.00306336,0.400011,0.00299448,0.0112283,692,764,-0.1826,-0.40669
-525,260,-0.180664,0.356689,-0.000392828,-0.00190593,0.0020225,0.00100999,-0.00330875,0.606421,0.00260851,0.01055,699,764,-0.180688,-0.356705
-518,260,-0.178711,0.307922,-0.00209067,-0.00215728,0.00211139,-1.2324e-05,-0.00423563,0.777512,0.00281965,0.0109761,706,764,-0.17874,-0.307949
-511,260,-0.197449,0.264282,-0.00392801,-0.00341084,0.00221859,-0.00143582,-0.00590303,0.843414,0.00355476,0.0182612,713,764,-0.197439,-0.264267
-504,260,-0.172241,0.175964,-0.00603938,-0.00467195,0.00217422,-0.00307647,-0.00763486,0.937735,0.00443558,0.0360545,720,764,-0.172252,-0.175982
-497,260,-0.120972,0.30304,-0.00872869,-0.00593461,0.00182993,-0.00502939,-0.0096339,1.11142,0.00556394,0.046216,727,764,-0.120992,-0.303062
-490,260,-0.282898,0.427979,-0.011659,-0.00750376,0.00110823,-0.00722666,-0.0119361,1.32579,0.00694221,0.0442809,734,764,-0.282925,-0.427973
-483,260,-1.02924,0.280518,-0.0144878,-0.00991276,-0.000168813,-0.00990654,-0.0144941,-1.53396,0.00855392,0.0389059,741,764,-1.02924,-0.280497
-476,260,-1.58453,0.113037,-0.016378,-0.0134915,-0.00209962,-0.0123869,-0.0174826,-1.08651,0.0103821,0.0437119,748,764,-1.58456,-0.113038
-469,260,-2.00897,0.0476074,-0.0162034,-0.0187093,-0.0047468,-0.012547,-0.0223657,-0.656359,0.0129448,0.0497354,755,764,-2.00898,-0.047592
-462,260,-2.63513,0.0220947,0,0,0,0,0,0,0,-1,762,764,-2.63511,-0.0220966
-455,260,-0.1922,0.83728,0,0,0,0,0,0,0,-1,769,764,-0.192194,-0.837271
-448,260,0,0,0,0,0,0,0,0,0,-1,776,764,0,0
-441,260,0,0,0,0,0,0,0,0,0,-1,783,764,0,0
-434,260,0,0,0,0,0,0,0,0,0,-1,790,764,0,0
-427,260,0,0,0,0,0,0,0,0,0,-1,797,764,0,0
-420,260,0,0,0,0,0,0,0,0,0,-1,804,764,0,0
-413,260,0,0,0,0,0,0,0,0,0,-1,811,764,0,0
-406,260,0,0,0,0,0,0,0,0,0,-1,818,764,0,0
-399,260,0,0,0,0,0,0,0,0,0,-1,825,764,0,0
-392,260,0,0,0,0,0,0,0,0,0,-1,832,764,0,0
-385,260,0,0,0,0,0,0,0,0,0,-1,839,764,0,0
-378,260,0,0,0,0,0,0,0,0,0,-1,846,764,0,0
-371,260,0,0,0,0,0,0,0,0,0,-1,853,764,0,0
-364,260,0,0,0,0,0,0,0,0,0,-1,860,764,0,0
-357,260,0,0,0,0,0,0,0,0,0,-1,867,764,0,0
-350,260,0,0,0,0,0,0,0,0,0,-1,874,764,0,0
-343,260,0,0,0,0,0,0,0,0,0,-1,881,764,0,0
-336,260,0,0,0,0,0,0,0,0,0,-1,888,764,0,0
-329,260,0,0,0,0,0,0,0,0,0,-1,895,764,0,0
-322,260,0,0,0,0,0,0,0,0,0,-1,902,764,0,0
-315,260,0,0,0,0,0,0,0,0,0,-1,909,764,0,0
-308,260,0,0,0,0,0,0,0,0,0,-1,916,764,0,0
-301,260,0,0,0,0,0,0,0,0,0,-1,923,764,0,0
-294,260,0,0,0,0,0,0,0,0,0,-1,930,764,0,0
-287,260,0,0,0,0,0,0,0,0,0,-1,937,764,0,0
-280,260,0,0,0,0,0,0,0,0,0,-1,944,764,0,0
-273,260,0,0,0,0,0,0,0,0,0,-1,951,764,0,0
-266,260,0,0,0,0,0,0,0,0,0,-1,958,764,0,0
-259,260,0,0,0,0,0,0,0,0,0,-1,965,764,0,0
-252,260,0,0,0,0,0,0,0,0,0,-1,972,764,0,0
-245,260,0,0,0,0,0,0,0,0,0,-1,979,764,0,0
-238,260,0,0,0,0,0,0,0,0,0,-1,986,764,0,0
-231,260,0,0,0,0,0,0,0,0,0,-1,993,764,0,0
-224,260,0,0,0,0,0,0,0,0,0,-1,1000,764,0,0
-217,260,0,0,0,0,0,0,0,0,0,-1,1007,764,0,0
-210,260,0,0,0,0,0,0,0,0,0,-1,1014,764,0,0
-203,260,0,0,0,0,0,0,0,0,0,-1,1021,764,0,0
-196,260,0,0,0,0,0,0,0,0,0,-1,1028,764,0,0
-189,260,0,0,0,0,0,0,0,0,0,-1,1035,764,0,0
-182,260,0,0,0,0,0,0,0,0,0,-1,1042,764,0,0
-175,260,0,0,0,0,0,0,0,0,0,-1,1049,764,0,0
-168,260,0,0,0,0,0,0,0,0,0,-1,1056,764,0,0
-161,260,0,0,0,0,0,0,0,0,0,-1,1063,764,0,0
-154,260,0,0,0,0,0,0,0,0,0,-1,1070,764,0,0
-147,260,0,0,0,0,0,0,0,0,0,-1,1077,764,0,0
-140,260,0,0,0,0,0,0,0,0,0,-1,1084,764,0,0
-133,260,0,0,0,0,0,0,0,0,0,-1,1091,764,0,0
-126,260,0,0,0,0,0,0,0,0,0,-1,1098,764,0,0
-119,260,0,0,0,0,0,0,0,0,0,-1,1105,764,0,0
-112,260,0,0,0,0,0,0,0,0,0,-1,1112,764,0,0
-105,260,0,0,0,0,0,0,0,0,0,-1,1119,764,0,0
-98,260,0,0,0,0,0,0,0,0,0,-1,1126,764,0,0
-91,260,0,0,0,0,0,0,0,0,0,-1,1133,764,0,0
-84,260,0,0,0,0,0,0,0,0,0,-1,1140,764,0,0
-77,260,0,0,0,0,0,0,0,0,0,-1,1147,764,0,0
-70,260,0,0,0,0,0,0,0,0,0,-1,1154,764,0,0
-63,260,0,0,0,0,0,0,0,0,0,-1,1161,764,0,0
-56,260,0,0,0,0,0,0,0,0,0,-1,1168,764,0,0
-49,260,0,0,0,0,0,0,0,0,0,-1,1175,764,0,0
-42,260,0,0,0,0,0,0,0,0,0,-1,1182,764,0,0
-35,260,0,0,0,0,0,0,0,0,0,-1,1189,764,0,0
-28,260,0,0,0,0,0,0,0,0,0,-1,1196,764,0,0
-21,260,0,0,0,0,0,0,0,0,0,-1,1203,764,0,0
-14,260,0,0,0,0,0,0,0,0,0,-1,1210,764,0,0
-7,260,0,0,0,0,0,0,0,0,0,-1,1217,764,0,0
0,260,0,0,0,0,0,0,0,0,0,-1,1224,764,0,0
7,260,0,0,0,0,0,0,0,0,0,-1,1231,764,0,0
14,260,0,0,0,0,0,0,0,0,0,-1,1238,764,0,0
21,260,0,0,0,0,0,0,0,0,0,-1,1245,764,0,0
28,260,0,0,0,0,0,0,0,0,0,-1,1252,764,0,0
35,260,0,0,0,0,0,0,0,0,0,-1,1259,764,0,0
42,260,0,0,0,0,0,0,0,0,0,-1,1266,764,0,0
49,260,0,0,0,0,0,0,0,0,0,-1,1273,764,0,0
56,260,0,0,0,0,0,0,0,0,0,-1,1280,764,0,0
63,260,0,0,0,0,0,0,0,0,0,-1,1287,764,0,0
70,260,0,0,0,0,0,0,0,0,0,-1,1294,764,0,0
77,260,0,0,0,0,0,0,0,0,0,-1,1301,764,0,0
84,260,0,0,0,0,0,0,0,0,0,-1,1308,764,0,0
91,260,0,0,0,0,0,0,0,0,0,-1,1315,764,0,0
98,260,0,0,0,0,0,0,0,0,0,-1,1322,764,0,0
105,260,0,0,0,0,0,0,0,0,0,-1,1329,764,0,0
112,260,0,0,0,0,0,0,0,0,0,-1,1336,764,0,0
119,260,0,0,0,0,0,0,0,0,0,-1,1343,764,0,0
126,260,0,0,0,0,0,0,0,0,0,-1,1350,764,0,0
133,260,0,0,0,0,0,0,0,0,0,-1,1357,764,0,0
140,260,0,0,0,0,0,0,0,0,0,-1,1364,764,0,0
147,260,0,0,0,0,0,0,0,0,0,-1,1371,764,0,0
154,260,0,0,0,0,0,0,0,0,0,-1,1378,764,0,0
161,260,0,0,0,0,0,0,0,0,0,-1,1385,764,0,0
168,260,0,0,0,0,0,0,0,0,0,-1,1392,764,0,0
175,260,0,0,0,0,0,0,0,0,0,-1,1399,764,0,0
182,260,0,0,0,0,0,0,0,0,0,-1,1406,764,0,0
189,260,0,0,0,0,0,0,0,0,0,-1,1413,764,0,0
196,260,0,0,0,0,0,0,0,0,0,-1,1420,764,0,0
203,260,0,0,0,0,0,0,0,0,0,-1,1427,764,0,0
210,260,0,0,0,0,0,0,0,0,0,-1,1434,764,0,0
217,260,0,0,0,0,0,0,0,0,0,-1,1441,764,0,0
224,260,0,0,0,0,0,0,0,0,0,-1,1448,764,0,0
231,260,0,0,0,0,0,0,0,0,0,-1,1455,764,0,0
238,260,0,0,0,0,0,0,0,0,0,-1,1462,764,0,0
245,260,0,0,0,0,0,0,0,0,0,-1,1469,764,0,0
252,260,0,0,0,0,0,0,0,0,0,-1,1476,764,0,0
259,260,0,0,0,0,0,0,0,0,0,-1,1483,764,0,0
266,260,0,0,0,0,0,0,0,0,0,-1,1490,764,0,0
273,260,0,0,0,0,0,0,0,0,0,-1,1497,764,0,0
280,260,0,0,0,0,0,0,0,0,0,-1,1504,764,0,0
287,260,0,0,0,0,0,0,0,0,0,-1,1511,764,0,0
294,260,0,0,0,0,0,0,0,0,0,-1,1518,764,0,0
301,260,0,0,0,0,0,0,0,0,0,-1,1525,764,0,0
308,260,0,0,0,0,0,0,0,0,0,-1,1532,764,0,0
315,260,0,0,0,0,0,0,0,0,0,-1,1539,764,0,0
322,260,0,0,0,0,0,0,0,0,0,-1,1546,764,0,0
329,260,0,0,0,0,0,0,0,0,0,-1,1553,764,0,0
336,260,0,0,0,0,0,0,0,0,0,-1,1560,764,0,0
343,260,0,0,0,0,0,0,0,0,0,-1,1567,764,0,0
350,260,0,0,0,0,0,0,0,0,0,-1,1574,764,0,0
357,260,0,0,0,0,0,0,0,0,0,-1,1581,764,0,0
364,260,0,0,0,0,0,0,0,0,0,-1,1588,764,0,0
371,260,0,0,0,0,0,0,0,0,0,-1,1595,764,0,0
378,260,0,0,0,0,0,0,0,0,0,-1,1602,764,0,0
385,260,0,0,0,0,0,0,0,0,0,-1,1609,764,0,0
392,260,0,0,0,0,0,0,0,0,0,-1,1616,764,0,0
399,260,0,0,0,0,0,0,0,0,0,-1,1623,764,0,0
406,260,0,0,0,0,0,0,0,0,0,-1,1630,764,0,0
413,260,0,0,0,0,0,0,0,0,0,-1,1637,764,0,0
420,260,0,0,0,0,0,0,0,0,0,-1,1644,764,0,0
427,260,0,0,0,0,0,0,0,0,0,-1,1651,764,0,0
434,260,0,0,0,0,0,0,0,0,0,-1,1658,764,0,0
441,260,0,0,0,0,0,0,0,0,0,-1,1665,764,0,0
448,260,0,0,0,0,0,0,0,0,0,-1,1672,764,0,0
455,260,0,0,0,0,0,0,0,0,0,-1,1679,764,0,0
462,260,0,0,0,0,0,0,0,0,0,-1,1686,764,0,0
469,260,0,0,0,0,0,0,0,0,0,-1,1693,764,0,0
476,260,0,0,0,0,0,0,0,0,0,-1,1700,764,0,0
483,260,0,0,0,0,0,0,0,0,0,-1,1707,764,0,0
490,260,0,0,0,0,0,0,0,0,0,-1,1714,764,0,0
497,260,0,0,0,0,0,0,0,0,0,-1,1721,764,0,0
504,260,0,0,0,0,0,0,0,0,0,-1,1728,764,0,0
511,260,0,0,0,0,0,0,0,0,0,-1,1735,764,0,0
518,260,0,0,0,0,0,0,0,0,0,-1,1742,764,0,0
525,260,0,0,0,0,0,0,0,0,0,-1,1749,764,0,0
532,260,0,0,0,0,0,0,0,0,0,-1,1756,764,0,0
539,260,0,0,0,0,0,0,0,0,0,-1,1763,764,0,0
546,260,0,0,0,0,0,0,0,0,0,-1,1770,764,0,0
553,260,0,0,0,0,0,0,0,0,0,-1,1777,764,0,0
560,260,0,0,0,0,0,0,0,0,0,-1,1784,764,0,0
567,260,0,0,0,0,0,0,0,0,0,-1,1791,764,0,0
574,260,4.95227,0.61615,0.00794049,0.0143442,-9.64765e-05,0.0143456,0.00793904,-1.55574,0.00829819,0.0359721,1798,764,4.95228,-0.616155
581,260,4.82813,0.833984,0.00505749,0.0150552,-0.00226589,0.0155448,0.00456792,-1.35801,0.00922552,0.0364503,1805,764,4.82817,-0.833969
588,260,5.27527,0.593872,0,0,0,0,0,0,0,-1,1812,764,5.27525,-0.593872
595,260,4.70142,0.625977,0,0,0,0,0,0,0,-1,1819,764,4.70145,-0.625986
602,260,5.14038,-0.611633,0,0,0,0,0,0,0,-1,1826,764,5.14042,0.611635
609,260,4.99463,-0.279053,0,0,0,0,0,0,0,-1,1833,764,4.99467,0.279042
616,260,5.68713,-0.72113,0,0,0,0,0,0,0,-1,1840,764,5.68711,0.721114
623,260,4.5282,-0.803101,0,0,0,0,0,0,0,-1,1847,764,4.52815,0.80312
630,260,4.9082,-0.47052,-0.0100631,0.00780337,-0.00118449,0.00788156,-0.0101412,-1.50488,0.0104327,0.0460346,1854,764,4.90823,0.47052
637,260,4.20801,-0.0602417,-0.00964751,0.00653839,-0.000437597,0.00655021,-0.00965933,-1.54379,0.00941579,0.0413181,1861,764,4.20806,0.0602275
644,260,4.01746,0.255798,-0.00882142,0.00509294,0.000353707,0.00510192,-0.00883041,1.5454,0.00813928,0.0227285,1868,764,4.01744,-0.255804
651,260,4.02124,0.334351,-0.0076062,0.00398757,0.000722246,0.00403238,-0.00765102,1.50882,0.00685241,0.0130544,1875,764,4.02119,-0.334361
658,260,4.01086,0.379578,-0.00626323,0.00239471,0.000973936,0.00250292,-0.00637143,1.46015,0.00528339,0.0147168,1882,764,4.01087,-0.37959
665,260,4.00903,0.42804,-0.00487097,0.00140469,0.000924804,0.00153814,-0.00500441,1.42749,0.0039501,0.0146839,1889,764,4.00904,-0.428068
672,260,4.02441,0.480652,-0.00334958,0.000332461,0.000873689,0.000529254,-0.00354638,1.34925,0.00255898,0.013347,1896,764,4.0244,-0.480676
679,260,3.99927,0.513306,-0.00216321,0.000223023,0.000492241,0.000320576,-0.00226077,1.37515,0.00162461,0.0126022,1903,764,3.99931,-0.513316
686,260,4.0011,0.54126,-0.0014068,0.000456488,0.000532544,0.000597953,-0.00154827,1.31115,0.00127897,0.0125316,1910,764,4.00107,-0.54128
693,260,3.99658,0.57373,-0.00148522,0.000860895,0.000334117,0.00090755,-0.00153187,1.43206,0.00142369,0.0120803,1917,764,3.9966,-0.573758
700,260,3.98389,0.626587,-0.00283257,0.0019292,0.000173846,0.00193554,-0.00283891,1.53435,0.00277292,0.0121054,1924,764,3.98386,-0.626587
707,260,3.96814,0.647766,-0.00501029,0.00346738,0.000116036,0.00346897,-0.00501188,1.55711,0.00492336,0.0132536,1931,764,3.96809,-0.647781
714,260,4.03833,0.653076,-0.00770693,0.00552986,0.000208068,0.00553313,-0.0077102,1.55508,0.0076804,0.0227621,1938,764,4.03832,-0.653104
721,260,4.13403,0.636963,-0.0116124,0.0083852,0.000192838,0.00838706,-0.0116143,1.56115,0.0115978,0.0424824,1945,764,4.13404,-0.636937
728,260,4.23022,0.625305,0,0,0,0,0,0,0,-1,1952,764,4.23024,-0.625331
735,260,5.32861,1.7334,0,0,0,0,0,0,0,-1,1959,764,5.32856,-1.73338
742,260,5.22485,3.07422,0,0,0,0,0,0,0,-1,1966,764,5.22489,-3.07424
749,260,6.08179,4.30621,0,0,0,0,0,0,0,-1,1973,764,6.08173,-4.30621
756,260,0,0,0,0,0,0,0,0,0,-1,1980,764,0,0
763,260,0,0,0,0,0,0,0,0,0,-1,1987,764,0,0
770,260,0,0,0,0,0,0,0,0,0,-1,1994,764,0,0
777,260,0,0,0,0,0,0,0,0,0,-1,2001,764,0,0
784,260,0,0,0,0,0,0,0,0,0,-1,2008,764,0,0
791,260,0,0,0,0,0,0,0,0,0,-1,2015,764,0,0
798,260,0,0,0,0,0,0,0,0,0,-1,2022,764,0,0
805,260,0,0,0,0,0,0,0,0,0,-1,2029,764,0,0
812,260,0,0,0,0,0,0,0,0,0,-1,2036,764,0,0
-700,253,0,0,0,0,0,0,0,0,0,-1,524,771,0,0
-693,253,0,0,0,0,0,0,0,0,0,-1,531,771,0,0
-686,253,0,0,0,0,0,0,0,0,0,-1,538,771,0,0
-679,253,0,0,0,0,0,0,0,0,0,-1,545,771,0,0
-672,253,0,0,0,0,0,0,0,0,0,-1,552,771,0,0
-665,253,0,0,0,0,0,0,0,0,0,-1,559,771,0,0
-658,253,0,0,0,0,0,0,0,0,0,-1,566,771,0,0
-651,253,0,0,0,0,0,0,0,0,0,-1,573,771,0,0
-644,253,0,0,0,0,0,0,0,0,0,-1,580,771,0,0
-637,253,-1.51959,3.58459,-0.0214182,-0.139634,0.0131681,-0.0199691,-0.141083,0.109601,0.0881563,0.0466726,587,771,-1.5196,-3.58461
-630,253,-1.48779,3.73572,-0.0134361,-0.11833,0.00910516,-0.0126516,-0.119115,0.0859465,0.0755467,0.0464571,594,771,-1.48778,-3.73574
-623,253,-2.04565,4.54193,0,0,0,0,0,0,0,-1,601,771,-2.04566,-4.54195
-616,253,-3.14221,4.26074,0,0,0,0,0,0,0,-1,608,771,-3.14218,-4.26076
-609,253,-1.97284,4.36096,0,0,0,0,0,0,0,-1,615,771,-1.97284,-4.36093
-602,253,-4.77234,3.78552,0,0,0,0,0,0,0,-1,622,771,-4.77237,-3.78553
-595,253,-4.99261,3.67407,0,0,0,0,0,0,0,-1,629,771,-4.99259,-3.67408
-588,253,-0.274841,0.539673,0.0044494,-0.0302576,0.00278067,0.00467077,-0.0304789,0.0794432,0.0220418,0.0362456,636,771,-0.274831,-0.539688
-581,253,-0.227661,0.670776,0.00433493,-0.021671,0.00240275,0.00455506,-0.0218911,0.0913618,0.0163256,0.0198821,643,771,-0.227639,-0.670748
-574,253,-0.256531,0.616821,0.00430663,-0.0146987,0.00207334,0.00453018,-0.0149223,0.107409,0.011753,0.0172053,650,771,-0.2565,-0.616823
-567,253,-0.251709,0.578186,0.00395028,-0.0090742,0.00164573,0.00415501,-0.00927893,0.123765,0.00794192,0.0143261,657,771,-0.251687,-0.578182
-560,253,-0.225891,0.557251,0.00362743,-0.00569442,0.00115205,0.0037677,-0.00583469,0.121158,0.00558659,0.011684,664,771,-0.225922,-0.557244
-553,253,-0.224304,0.532532,0.00249355,-0.0056225,0.00213785,0.00302224,-0.00615119,0.242436,0.00539801,0.0117437,671,771,-0.224281,-0.532559
-546,253,-0.2276,0.504456,0.00255987,-0.0034969,0.0019912,0.00315584,-0.00409287,0.29082,0.00419669,0.00994886,678,771,-0.227578,-0.504482
-539,253,-0.228516,0.439941,0.00258007,-0.00290477,0.00176516,0.00309904,-0.00342374,0.28595,0.00376748,0.0104096,685,771,-0.2285,-0.439918
-532,253,-0.229614,0.404236,0.00200671,-0.00269034,0.00184896,0.0026472,-0.00333084,0.33347,0.00345894,0.0133468,692,771,-0.22964,-0.404215
-525,253,-0.220459,0.359924,0.000773023,-0.00247279,0.00202143,0.00174241,-0.00344218,0.447159,0.00304648,0.0112894,699,771,-0.220439,-0.359928
-518,253,-0.228821,0.329956,-0.000449285,-0.00281285,0.00206994,0.000752475,-0.00401461,0.526015,0.00295929,0.0140051,706,771,-0.22881,-0.329962
-511,253,-0.291443,0.297058,-0.00179474,-0.00376994,0.00211248,-0.000450406,-0.00511428,0.566739,0.00326974,0.0295409,713,771,-0.291438,-0.29708
-504,253,-0.174744,0.171448,-0.00351373,-0.00476334,0.00197637,-0.00206575,-0.00621132,0.632301,0.0036525,0.0390131,720,771,-0.174759,-0.171444
-497,253,0.0426636,0.291748,-0.00589606,-0.0056834,0.0014765,-0.00430941,-0.00727005,0.821343,0.00422138,0.041866,727,771,0.0426657,-0.291729
-490,253,-0.160828,0.586731,-0.00871805,-0.00687176,0.000530545,-0.00673016,-0.00885965,1.30999,0.00534006,0.0441226,734,771,-0.160801,-0.586705
-483,253,-0.589111,0.764709,0,0,0,0,0,0,0,-1,741,771,-0.589092,-0.764722
-476,253,-0.80896,0.0443726,0,0,0,0,0,0,0,-1,748,771,-0.808946,-0.044397
-469,253,-1.61633,0.194641,0,0,0,0,0,0,0,-1,755,771,-1.61636,-0.194626
-462,253,-2.00299,-0.0187988,0,0,0,0,0,0,0,-1,762,771,-2.00299,0.0188033
-455,253,-0.0865479,1.16217,0,0,0,0,0,0,0,-1,769,771,-0.0865536,-1.16217
-448,253,0,0,0,0,0,0,0,0,0,-1,776,771,0,0
-441,253,0,0,0,0,0,0,0,0,0,-1,783,771,0,0
-434,253,0,0,0,0,0,0,0,0,0,-1,790,771,0,0
-427,253,0,0,0,0,0,0,0,0,0,-1,797,771,0,0
-420,253,0,0,0,0,0,0,0,0,0,-1,804,771,0,0
-413,253,0,0,0,0,0,0,0,0,0,-1,811,771,0,0
-406,253,0,0,0,0,0,0,0,0,0,-1,818,771,0,0
-399,253,0,0,0,0,0,0,0,0,0,-1,825,771,0,0
-392,253,0,0,0,0,0,0,0,0,0,-1,832,771,0,0
-385,253,0,0,0,0,0,0,0,0,0,-1,839,771,0,0
-378,253,0,0,0,0,0,0,0,0,0,-1,846,771,0,0
-371,253,0,0,0,0,0,0,0,0,0,-1,853,771,0,0
-364,253,0,0,0,0,0,0,0,0,0,-1,860,771,0,0
-357,253,0,0,0,0,0,0,0,0,0,-1,867,771,0,0
-350,253,0,0,0,0,0,0,0,0,0,-1,874,771,0,0
-343,253,0,0,0,0,0,0,0,0,0,-1,881,771,0,0
-336,253,0,0,0,0,0,0,0,0,0,-1,888,771,0,0
-329,253,0,0,0,0,0,0,0,0,0,-1,895,771,0,0
-322,253,0,0,0,0,0,0,0,0,0,-1,902,771,0,0
-315,253,0,0,0,0,0,0,0,0,0,-1,909,771,0,0
-308,253,0,0,0,0,0,0,0,0,0,-1,916,771,0,0
-301,253,0,0,0,0,0,0,0,0,0,-1,923,771,0,0
-294,253,0,0,0,0,0,0,0,0,0,-1,930,771,0,0
-287,253,0,0,0,0,0,0,0,0,0,-1,937,771,0,0
-280,253,0,0,0,0,0,0,0,0,0,-1,944,771,0,0
-273,253,0,0,0,0,0,0,0,0,0,-1,951,771,0,0
-266,253,0,0,0,0,0,0,0,0,0,-1,958,771,0,0
-259,253,0,0,0,0,0,0,0,0,0,-1,965,771,0,0
-252,253,0,0,0,0,0,0,0,0,0,-1,972,771,0,0
-245,253,0,0,0,0,0,0,0,0,0,-1,979,771,0,0
-238,253,0,0,0,0,0,0,0,0,0,-1,986,771,0,0
-231,253,0,0,0,0,0,0,0,0,0,-1,993,771,0,0
-224,253,0,0,0,0,0,0,0,0,0,-1,1000,771,0,0
-217,253,0,0,0,0,0,0,0,0,0,-1,1007,771,0,0
-210,253,0,0,0,0,0,0,0,0,0,-1,1014,771,0,0
-203,253,0,0,0,0,0,0,0,0,0,-1,1021,771,0,0
-196,253,0,0,0,0,0,0,0,0,0,-1,1028,771,0,0
-189,253,0,0,0,0,0,0,0,0,0,-1,1035,771,0,0
-182,253,0,0,0,0,0,0,0,0,0,-1,1042,771,0,0
-175,253,0,0,0,0,0,0,0,0,0,-1,1049,771,0,0
-168,253,0,0,0,0,0,0,0,0,0,-1,1056,771,0,0
-161,253,0,0,0,0,0,0,0,0,0,-1,1063,771,0,0
-154,253,0,0,0,0,0,0,0,0,0,-1,1070,771,0,0
-147,253,0,0,0,0,0,0,0,0,0,-1,1077,771,0,0
-140,253,0,0,0,0,0,0,0,0,0,-1,1084,771,0,0
-133,253,0,0,0,0,0,0,0,0,0,-1,1091,771,0,0
-126,253,0,0,0,0,0,0,0,0,0,-1,1098,771,0,0
-119,253,0,0,0,0,0,0,0,0,0,-1,1105,771,0,0
-112,253,0,0,0,0,0,0,0,0,0,-1,1112,771,0,0
-105,253,0,0,0,0,0,0,0,0,0,-1,1119,771,0,0
-98,253,0,0,0,0,0,0,0,0,0,-1,1126,771,0,0
-91,253,0,0,0,0,0,0,0,0,0,-1,1133,771,0,0
-84,253,0,0,0,0,0,0,0,0,0,-1,1140,771,0,0
-77,253,0,0,0,0,0,0,0,0,0,-1,1147,771,0,0
-70,253,0,0,0,0,0,0,0,0,0,-1,1154,771,0,0
-63,253,0,0,0,0,0,0,0,0,0,-1,1161,771,0,0
-56,253,0,0,0,0,0,0,0,0,0,-1,1168,771,0,0
-49,253,0,0,0,0,0,0,0,0,0,-1,1175,771,0,0
-42,253,0,0,0,0,0,0,0,0,0,-1,1182,771,0,0
-35,253,0,0,0,0,0,0,0,0,0,-1,1189,771,0,0
-28,253,0,0,0,0,0,0,0,0,0,-1,1196,771,0,0
-21,253,0,0,0,0,0,0,0,0,0,-1,1203,771,0,0
-14,253,0,0,0,0,0,0,0,0,0,-1,1210,771,0,0
-7,253,0,0,0,0,0,0,0,0,0,-1,1217,771,0,0
0,253,0,0,0,0,0,0,0,0,0,-1,1224,771,0,0
7,253,0,0,0,0,0,0,0,0,0,-1,1231,771,0,0
14,253,0,0,0,0,0,0,0,0,0,-1,1238,771,0,0
21,253,0,0,0,0,0,0,0,0,0,-1,1245,771,0,0
28,253,0,0,0,0,0,0,0,0,0,-1,1252,771,0,0
35,253,0,0,0,0,0,0,0,0,0,-1,1259,771,0,0
42,253,0,0,0,0,0,0,0,0,0,-1,1266,771,0,0
49,253,0,0,0,0,0,0,0,0,0,-1,1273,771,0,0
56,253,0,0,0,0,0,0,0,0,0,-1,1280,771,0,0
63,253,0,0,0,0,0,0,0,0,0,-1,1287,771,0,0
70,253,0,0,0,0,0,0,0,0,0,-1,1294,771,0,0
77,253,0,0,0,0,0,0,0,0,0,-1,1301,771,0,0
84,253,0,0,0,0,0,0,0,0,0,-1,1308,771,0,0
91,253,0,0,0,0,0,0,0,0,0,-1,1315,771,0,0
98,253,0,0,0,0,0,0,0,0,0,-1,1322,771,0,0
105,253,0,0,0,0,0,0,0,0,0,-1,1329,771,0,0
112,253,0,0,0,0,0,0,0,0,0,-1,1336,771,0,0
119,253,0,0,0,0,0,0,0,0,0,-1,1343,771,0,0
126,253,0,0,0,0,0,0,0,0,0,-1,1350,771,0,0
133,253,0,0,0,0,0,0,0,0,0,-1,1357,771,0,0
140,253,0,0,0,0,0,0,0,0,0,-1,1364,771,0,0
147,253,0,0,0,0,0,0,0,0,0,-1,1371,771,0,0
154,253,0,0,0,0,0,0,0,0,0,-1,1378,771,0,0
161,253,0,0,0,0,0,0,0,0,0,-1,1385,771,0,0
168,253,0,0,0,0,0,0,0,0,0,-1,1392,771,0,0
175,253,0,0,0,0,0,0,0,0,0,-1,1399,771,0,0
182,253,0,0,0,0,0,0,0,0,0,-1,1406,771,0,0
189,253,0,0,0,0,0,0,0,0,0,-1,1413,771,0,0
196,253,0,0,0,0,0,0,0,0,0,-1,1420,771,0,0
203,253,0,0,0,0,0,0,0,0,0,-1,1427,771,0,0
210,253,0,0,0,0,0,0,0,0,0,-1,1434,771,0,0
217,253,0,0,0,0,0,0,0,0,0,-1,1441,771,0,0
224,253,0,0,0,0,0,0,0,0,0,-1,1448,771,0,0
231,253,0,0,0,0,0,0,0,0,0,-1,1455,771,0,0
238,253,0,0,0,0,0,0,0,0,0,-1,1462,771,0,0
245,253,0,0,0,0,0,0,0,0,0,-1,1469,771,0,0
252,253,0,0,0,0,0,0,0,0,0,-1,1476,771,0,0
259,253,0,0,0,0,0,0,0,0,0,-1,1483,771,0,0
266,253,0,0,0,0,0,0,0,0,0,-1,1490,771,0,0
273,253,0,0,0,0,0,0,0,0,0,-1,1497,771,0,0
280,253,0,0,0,0,0,0,0,0,0,-1,1504,771,0,0
287,253,0,0,0,0,0,0,0,0,0,-1,1511,771,0,0
294,253,0,0,0,0,0,0,0,0,0,-1,1518,771,0,0
301,253,0,0,0,0,0,0,0,0,0,-1,1525,771,0,0
308,253,0,0,0,0,0,0,0,0,0,-1,1532,771,0,0
315,253,0,0,0,0,0,0,0,0,0,-1,1539,771,0,0
322,253,0,0,0,0,0,0,0,0,0,-1,1546,771,0,0
329,253,0,0,0,0,0,0,0,0,0,-1,1553,771,0,0
336,253,0,0,0,0,0,0,0,0,0,-1,1560,771,0,0
343,253,0,0,0,0,0,0,0,0,0,-1,1567,771,0,0
350,253,0,0,0,0,0,0,0,0,0,-1,1574,771,0,0
357,253,0,0,0,0,0,0,0,0,0,-1,1581,771,0,0
364,253,0,0,0,0,0,0,0,0,0,-1,1588,771,0,0
371,253,0,0,0,0,0,0,0,0,0,-1,1595,771,0,0
378,253,0,0,0,0,0,0,0,0,0,-1,1602,771,0,0
385,253,0,0,0,0,0,0,0,0,0,-1,1609,771,0,0
392,253,0,0,0,0,0,0,0,0,0,-1,1616,771,0,0
399,253,0,0,0,0,0,0,0,0,0,-1,1623,771,0,0
406,253,0,0,0,0,0,0,0,0,0,-1,1630,771,0,0
413,253,0,0,0,0,0,0,0,0,0,-1,1637,771,0,0
420,253,0,0,0,0,0,0,0,0,0,-1,1644,771,0,0
427,253,0,0,0,0,0,0,0,0,0,-1,1651,771,0,0
434,253,0,0,0,0,0,0,0,0,0,-1,1658,771,0,0
441,253,0,0,0,0,0,0,0,0,0,-1,1665,771,0,0
448,253,0,0,0,0,0,0,0,0,0,-1,1672,771,0,0
455,253,0,0,0,0,0,0,0,0,0,-1,1679,771,0,0
462,253,0,0,0,0,0,0,0,0,0,-1,1686,771,0,0
469,253,0,0,0,0,0,0,0,0,0,-1,1693,771,0,0
476,253,0,0,0,0,0,0,0,0,0,-1,1700,771,0,0
483,253,0,0,0,0,0,0,0,0,0,-1,1707,771,0,0
490,253,0,0,0,0,0,0,0,0,0,-1,1714,771,0,0
497,253,0,0,0,0,0,0,0,0,0,-1,1721,771,0,0
504,253,0,0,0,0,0,0,0,0,0,-1,1728,771,0,0
511,253,0,0,0,0,0,0,0,0,0,-1,1735,771,0,0
518,253,0,0,0,0,0,0,0,0,0,-1,1742,771,0,0
525,253,0,0,0,0,0,0,0,0,0,-1,1749,771,0,0
532,253,0,0,0,0,0,0,0,0,0,-1,1756,771,0,0
539,253,0,0,0,0,0,0,0,0,0,-1,1763,771,0,0
546,253,0,0,0,0,0,0,0,0,0,-1,1770,771,0,0
553,253,0,0,0,0,0,0,0,0,0,-1,1777,771,0,0
560,253,0,0,0,0,0,0,0,0,0,-1,1784,771,0,0
567,253,0,0,0,0,0,0,0,0,0,-1,1791,771,0,0
574,253,4.83057,0.547852,0.00784654,0.00928419,0.00171706,0.0104268,0.0067039,0.983633,0.00610138,0.0360263,1798,771,4.83062,-0.547845
581,253,4.74109,0.749084,0.0054622,0.0110858,-0.00068344,0.0111676,0.00538033,-1.45158,0.00644906,0.0374738,1805,771,4.74113,-0.749091
588,253,4.81177,0.825195,0.00172438,0.0118184,-0.00200597,0.0122024,0.00134034,-1.38164,0.00772699,0.0415091,1812,771,4.81171,-0.825166
595,253,4.36914,0.827209,0,0,0,0,0,0,0,-1,1819,771,4.3691,-0.82718
602,253,6.70093,-0.986084,0,0,0,0,0,0,0,-1,1826,771,6.70098,0.986062
609,253,5.85168,-1.25592,0,0,0,0,0,0,0,-1,1833,771,5.85171,1.25594
616,253,4.79468,-1.42334,0,0,0,0,0,0,0,-1,1840,771,4.79464,1.42335
623,253,4.52698,-0.987549,-0.00989783,0.00746263,-0.000685386,0.00748965,-0.00992485,-1.5314,0.010087,0.0465437,1847,771,4.52703,0.987552
630,253,4.39893,-0.643616,-0.0102155,0.00617391,-0.000243169,0.00617751,-0.0102191,-1.55596,0.00956196,0.0491535,1854,771,4.39887,0.64364
637,253,4.22717,-0.287476,-0.00977878,0.00503091,0.000310074,0.0050374,-0.00978527,1.54987,0.00870298,0.0476932,1861,771,4.22721,0.287502
644,253,4.06445,0.189941,-0.0089441,0.00379596,0.000887291,0.00385746,-0.0090056,1.5016,0.00762218,0.0381379,1868,771,4.06448,-0.189932
651,253,4.07178,0.303223,-0.00776412,0.00289107,0.00107696,0.00299883,-0.00787188,1.47107,0.006483,0.0224875,1875,771,4.0718,-0.303213
658,253,4.0813,0.390686,-0.00647244,0.00158697,0.00114896,0.00174756,-0.00663303,1.43192,0.00510524,0.0173829,1882,771,4.08133,-0.390686
665,253,4.0083,0.441711,-0.00504016,0.000847886,0.00104208,0.00102688,-0.00521915,1.40069,0.00386744,0.0186466,1889,771,4.00833,-0.44169
672,253,3.99683,0.479431,-0.00341106,0.000111396,0.000994132,0.000372598,-0.00367226,1.31386,0.00258135,0.0160433,1896,771,3.99682,-0.479441
679,253,4.04089,0.520874,-0.00200325,0.000182104,0.000676633,0.000374641,-0.00219579,1.29357,0.0016034,0.0139325,1903,771,4.04089,-0.520871
686,253,4.06067,0.531677,-0.000890153,0.000600484,0.000778002,0.000932564,-0.00122223,1.16737,0.00124781,0.0167615,1910,771,4.06068,-0.531669
693,253,4.03882,0.577026,-0.000655812,0.00124884,0.000672213,0.00146219,-0.000869159,1.26347,0.00136044,0.0151899,1917,771,4.03879,-0.576999
700,253,4.03247,0.62262,-0.00173606,0.00259039,0.000620771,0.0026777,-0.00182337,1.43107,0.00261425,0.0132139,1924,771,4.03243,-0.622619
707,253,4.0365,0.63678,-0.00359875,0.00442334,0.00066045,0.00447735,-0.00365277,1.4892,0.00470196,0.0127339,1931,771,4.03644,-0.636766
714,253,4.06311,0.663818,-0.00580628,0.00667545,0.000877706,0.00673686,-0.0058677,1.50094,0.00728301,0.0179348,1938,771,4.06312,-0.663814
721,253,4.14014,0.747559,-0.00907902,0.00972476,0.000989575,0.0097767,-0.00913095,1.51836,0.0109185,0.0333225,1945,771,4.14018,-0.747576
728,253,4.23132,0.845459,0,0,0,0,0,0,0,-1,1952,771,4.23132,-0.845467
735,253,4.74524,1.52374,-0.0200246,0.0182047,0.000179911,0.0182056,-0.0200254,1.56609,0.022081,0.0448088,1959,771,4.74523,-1.52372
742,253,4.9491,2.90979,0,0,0,0,0,0,0,-1,1966,771,4.94915,-2.90981
749,253,5.37769,4.05011,0,0,0,0,0,0,0,-1,1973,771,5.37767,-4.05011
756,253,0,0,0,0,0,0,0,0,0,-1,1980,771,0,0
763,253,0,0,0,0,0,0,0,0,0,-1,1987,771,0,0
770,253,0,0,0,0,0,0,0,0,0,-1,1994,771,0,0
777,253,0,0,0,0,0,0,0,0,0,-1,2001,771,0,0
784,253,0,0,0,0,0,0,0,0,0,-1,2008,771,0,0
791,253,0,0,0,0,0,0,0,0,0,-1,2015,771,0,0
798,253,0,0,0,0,0,0,0,0,0,-1,2022,771,0,0
805,253,0,0,0,0,0,0,0,0,0,-1,2029,771,0,0
812,253,0,0,0,0,0,0,0,0,0,-1,2036,771,0,0
-700,246,0,0,0,0,0,0,0,0,0,-1,524,778,0,0
-693,246,0,0,0,0,0,0,0,0,0,-1,531,778,0,0
-686,246,0,0,0,0,0,0,0,0,0,-1,538,778,0,0
-679,246,0,0,0,0,0,0,0,0,0,-1,545,778,0,0
-672,246,0,0,0,0,0,0,0,0,0,-1,552,778,0,0
-665,246,0,0,0,0,0,0,0,0,0,-1,559,778,0,0
-658,246,0,0,0,0,0,0,0,0,0,-1,566,778,0,0
-651,246,0,0,0,0,0,0,0,0,0,-1,573,778,0,0
-644,246,0,0,0,0,0,0,0,0,0,-1,580,778,0,0
-637,246,-1.63184,4.51862,-0.0176749,-0.125494,0.00780098,-0.0171134,-0.126056,0.0718536,0.0789533,0.0464804,587,778,-1.63183,-4.51861
-630,246,-1.42468,4.68695,-0.0085334,-0.102803,0.00291158,-0.00844356,-0.102893,0.0308464,0.0659612,0.0496457,594,778,-1.42466,-4.68695
-623,246,-1.52515,5.03668,-0.00194756,-0.0831252,0.00015953,-0.00194725,-0.0831255,0.00196518,0.0547794,0.0490861,601,778,-1.52515,-5.0367
-616,246,-1.77838,5.27429,0.00251065,-0.0662206,-0.0012733,0.00253423,-0.0662442,-0.0185173,0.0450313,0.0460187,608,778,-1.77839,-5.27429
-609,246,-1.96777,5.52374,0.00535535,-0.0518291,-0.00183447,0.00541414,-0.0518879,-0.0320359,0.0365306,0.0482972,615,778,-1.9678,-5.52376
-602,246,-2.11768,5.77252,0,0,0,0,0,0,0,-1,622,778,-2.11767,-5.77252
-595,246,-0.301697,0.483582,0.00735467,-0.0298557,-0.00146093,0.00741194,-0.029913,-0.039181,0.0228175,0.0449033,629,778,-0.301668,-0.483556
-588,246,-0.291199,0.585876,0.007,-0.0219238,-0.000951146,0.00703125,-0.0219551,-0.0328372,0.017459,0.0288106,636,778,-0.291184,-0.585874
-581,246,-0.261597,0.670959,0.00631307,-0.015012,-0.000598775,0.00632987,-0.0150288,-0.028049,0.0126678,0.0143055,643,778,-0.261604,-0.670948
-574,246,-0.271606,0.617615,0.00570449,-0.00961078,-0.000228626,0.0057079,-0.00961419,-0.0149236,0.00894153,0.0160067,650,778,-0.271635,-0.617592
-567,246,-0.281433,0.578064,0.00486754,-0.00549564,-1.92668e-05,0.00486758,-0.00549567,-0.00185915,0.00598689,0.0149039,657,778,-0.281404,-0.578062
-560,246,-0.259949,0.540283,0.00413041,-0.00345726,3.97421e-06,0.00413041,-0.00345727,0.000523772,0.00438649,0.0125528,664,778,-0.259971,-0.540263
-553,246,-0.254639,0.509216,0.00269166,-0.00462601,0.00155812,0.0030096,-0.00494395,0.201295,0.00463704,0.012446,671,778,-0.254635,-0.509226
-546,246,-0.25238,0.498413,0.00257079,-0.00332714,0.00181668,0.00308546,-0.0038418,0.276066,0.0040074,0.0103287,678,778,-0.252368,-0.498387
-539,246,-0.261597,0.447388,0.00263263,-0.00313237,0.00179808,0.00314746,-0.00364721,0.278865,0.00392644,0.0102439,685,778,-0.261616,-0.447395
-532,246,-0.279114,0.388977,0.00238544,-0.00312477,0.00184823,0.00294795,-0.00368728,0.295442,0.00383877,0.0112391,692,778,-0.279137,-0.388968
-525,246,-0.265686,0.365356,0.0016467,-0.00313174,0.00201343,0.00238195,-0.00386698,0.350124,0.00364162,0.0121919,699,778,-0.265704,-0.365356
-518,246,-0.283691,0.316833,0.000933883,-0.00359491,0.00201401,0.00169995,-0.00436098,0.36347,0.00360995,0.0191225,706,778,-0.283668,-0.316844
-511,246,-0.413757,0.320862,0.000119745,-0.00440384,0.00197683,0.000861878,-0.00514597,0.359135,0.00375109,0.0382514,713,778,-0.413774,-0.320834
-504,246,-0.231506,0.125671,-0.00111226,-0.00515143,0.00176563,-0.000449276,-0.00581441,0.359203,0.00373553,0.0432732,720,778,-0.231514,-0.125699
-497,246,0.0944214,0.120117,-0.00291589,-0.0057441,0.00116328,-0.0024989,-0.00616109,0.344193,0.00357818,0.0457492,727,778,0.0944405,-0.120088
-490,246,0.0510864,0.555176,-0.00519153,-0.00643142,7.63368e-05,-0.00518685,-0.0064361,0.061259,0.00394088,0.0498017,734,778,0.0510563,-0.555206
-483,246,-0.0450439,0.971619,0,0,0,0,0,0,0,-1,741,778,-0.0450465,-0.971634
-476,246,-1.18597,0.708557,-0.00969423,-0.00953216,-0.00420621,-0.00540621,-0.0138202,-0.79503,0.00804183,0.0473611,748,778,-1.18597,-0.708557
-469,246,-1.47156,0.556152,-0.0102824,-0.012934,-0.00754949,-0.00394317,-0.0192732,-0.698478,0.0117569,0.0412357,755,778,-1.47159,-0.556127
-462,246,-1.38824,0.658325,-0.00827057,-0.0186872,-0.0118829,-0.000504678,-0.0264531,-0.578856,0.0174696,0.0456975,762,778,-1.38823,-0.658303
-455,246,0,0,0,0,0,0,0,0,0,-1,769,778,0,0
-448,246,0,0,0,0,0,0,0,0,0,-1,776,778,0,0
-441,246,0,0,0,0,0,0,0,0,0,-1,783,778,0,0
-434,246,0,0,0,0,0,0,0,0,0,-1,790,778,0,0
-427,246,0,0,0,0,0,0,0,0,0,-1,797,778,0,0
-420,246,0,0,0,0,0,0,0,0,0,-1,804,778,0,0
-413,246,0,0,0,0,0,0,0,0,0,-1,811,778,0,0
-406,246,0,0,0,0,0,0,0,0,0,-1,818,778,0,0
-399,246,0,0,0,0,0,0,0,0,0,-1,825,778,0,0
-392,246,0,0,0,0,0,0,0,0,0,-1,832,778,0,0
-385,246,0,0,0,0,0,0,0,0,0,-1,839,778,0,0
-378,246,0,0,0,0,0,0,0,0,0,-1,846,778,0,0
-371,246,0,0,0,0,0,0,0,0,0,-1,853,778,0,0
-364,246,0,0,0,0,0,0,0,0,0,-1,860,778,0,0
-357,246,0,0,0,0,0,0,0,0,0,-1,867,778,0,0
-350,246,0,0,0,0,0,0,0,0,0,-1,874,778,0,0
-343,246,0,0,0,0,0,0,0,0,0,-1,881,778,0,0
-336,246,0,0,0,0,0,0,0,0,0,-1,888,778,0,0
-329,246,0,0,0,0,0,0,0,0,0,-1,895,778,0,0
-322,246,0,0,0,0,0,0,0,0,0,-1,902,778,0,0
-315,246,0,0,0,0,0,0,0,0,0,-1,909,778,0,0
-308,246,0,0,0,0,0,0,0,0,0,-1,916,778,0,0
-301,246,0,0,0,0,0,0,0,0,0,-1,923,778,0,0
-294,246,0,0,0,0,0,0,0,0,0,-1,930,778,0,0
-287,246,0,0,0,0,0,0,0,0,0,-1,937,778,0,0
-280,246,0,0,0,0,0,0,0,0,0,-1,944,778,0,0
-273,246,0,0,0,0,0,0,0,0,0,-1,951,778,0,0
-266,246,0,0,0,0,0,0,0,0,0,-1,958,778,0,0
-259,246,0,0,0,0,0,0,0,0,0,-1,965,778,0,0
-252,246,0,0,0,0,0,0,0,0,0,-1,972,778,0,0
-245,246,0,0,0,0,0,0,0,0,0,-1,979,778,0,0
-238,246,0,0,0,0,0,0,0,0,0,-1,986,778,0,0
-231,246,0,0,0,0,0,0,0,0,0,-1,993,778,0,0
-224,246,0,0,0,0,0,0,0,0,0,-1,1000,778,0,0
-217,246,0,0,0,0,0,0,0,0,0,-1,1007,778,0,0
-210,246,0,0,0,0,0,0,0,0,0,-1,1014,778,0,0
-203,246,0,0,0,0,0,0,0,0,0,-1,1021,778,0,0
-196,246,0,0,0,0,0,0,0,0,0,-1,1028,778,0,0
-189,246,0,0,0,0,0,0,0,0,0,-1,1035,778,0,0
-182,246,0,0,0,0,0,0,0,0,0,-1,1042,778,0,0
-175,246,0,0,0,0,0,0,0,0,0,-1,1049,778,0,0
-168,246,0,0,0,0,0,0,0,0,0,-1,1056,778,0,0
-161,246,0,0,0,0,0,0,0,0,0,-1,1063,778,0,0
-154,246,0,0,0,0,0,0,0,0,0,-1,1070,778,0,0
-147,246,0,0,0,0,0,0,0,0,0,-1,1077,778,0,0
-140,246,0,0,0,0,0,0,0,0,0,-1,1084,778,0,0
-133,246,0,0,0,0,0,0,0,0,0,-1,1091,778,0,0
-126,246,0,0,0,0,0,0,0,0,0,-1,1098,778,0,0
-119,246,0,0,0,0,0,0,0,0,0,-1,1105,778,0,0
-112,246,0,0,0,0,0,0,0,0,0,-1,1112,778,0,0
-105,246,0,0,0,0,0,0,0,0,0,-1,1119,778,0,0
-98,246,0,0,0,0,0,0,0,0,0,-1,1126,778,0,0
-91,246,0,0,0,0,0,0,0,0,0,-1,1133,778,0,0
-84,246,0,0,0,0,0,0,0,0,0,-1,1140,778,0,0
-77,246,0,0,0,0,0,0,0,0,0,-1,1147,778,0,0
-70,246,0,0,0,0,0,0,0,0,0,-1,1154,778,0,0
-63,246,0,0,0,0,0,0,0,0,0,-1,1161,778,0,0
-56,246,0,0,0,0,0,0,0,0,0,-1,1168,778,0,0
-49,246,0,0,0,0,0,0,0,0,0,-1,1175,778,0,0
-42,246,0,0,0,0,0,0,0,0,0,-1,1182,778,0,0
-35,246,0,0,0,0,0,0,0,0,0,-1,1189,778,0,0
-28,246,0,0,0,0,0,0,0,0,0,-1,1196,778,0,0
-21,246,0,0,0,0,0,0,0,0,0,-1,1203,778,0,0
-14,246,0,0,0,0,0,0,0,0,0,-1,1210,778,0,0
-7,246,0,0,0,0,0,0,0,0,0,-1,1217,778,0,0
0,246,0,0,0,0,0,0,0,0,0,-1,1224,778,0,0
7,246,0,0,0,0,0,0,0,0,0,-1,1231,778,0,0
14,246,0,0,0,0,0,0,0,0,0,-1,1238,778,0,0
21,246,0,0,0,0,0,0,0,0,0,-1,1245,778,0,0
28,246,0,0,0,0,0,0,0,0,0,-1,1252,778,0,0
35,246,0,0,0,0,0,0,0,0,0,-1,1259,778,0,0
42,246,0,0,0,0,0,0,0,0,0,-1,1266,778,0,0
49,246,0,0,0,0,0,0,0,0,0,-1,1273,778,0,0
56,246,0,0,0,0,0,0,0,0,0,-1,1280,778,0,0
63,246,0,0,0,0,0,0,0,0,0,-1,1287,778,0,0
70,246,0,0,0,0,0,0,0,0,0,-1,1294,778,0,0
77,246,0,0,0,0,0,0,0,0,0,-1,1301,778,0,0
84,246,0,0,0,0,0,0,0,0,0,-1,1308,778,0,0
91,246,0,0,0,0,0,0,0,0,0,-1,1315,778,0,0
98,246,0,0,0,0,0,0,0,0,0,-1,1322,778,0,0
105,246,0,0,0,0,0,0,0,0,0,-1,1329,778,0,0
112,246,0,0,0,0,0,0,0,0,0,-1,1336,778,0,0
119,246,0,0,0,0,0,0,0,0,0,-1,1343,778,0,0
126,246,0,0,0,0,0,0,0,0,0,-1,1350,778,0,0
133,246,0,0,0,0,0,0,0,0,0,-1,1357,778,0,0
140,246,0,0,0,0,0,0,0,0,0,-1,1364,778,0,0
147,246,0,0,0,0,0,0,0,0,0,-1,1371,778,0,0
154,246,0,0,0,0,0,0,0,0,0,-1,1378,778,0,0
161,246,0,0,0,0,0,0,0,0,0,-1,1385,778,0,0
168,246,0,0,0,0,0,0,0,0,0,-1,1392,778,0,0
175,246,0,0,0,0,0,0,0,0,0,-1,1399,778,0,0
182,246,0,0,0,0,0,0,0,0,0,-1,1406,778,0,0
189,246,0,0,0,0,0,0,0,0,0,-1,1413,778,0,0
196,246,0,0,0,0,0,0,0,0,0,-1,1420,778,0,0
203,246,0,0,0,0,0,0,0,0,0,-1,1427,778,0,0
210,246,0,0,0,0,0,0,0,0,0,-1,1434,778,0,0
217,246,0,0,0,0,0,0,0,0,0,-1,1441,778,0,0
224,246,0,0,0,0,0,0,0,0,0,-1,1448,778,0,0
231,246,0,0,0,0,0,0,0,0,0,-1,1455,778,0,0
238,246,0,0,0,0,0,0,0,0,0,-1,1462,778,0,0
245,246,0,0,0,0,0,0,0,0,0,-1,1469,778,0,0
252,246,0,0,0,0,0,0,0,0,0,-1,1476,778,0,0
259,246,0,0,0,0,0,0,0,0,0,-1,1483,778,0,0
266,246,0,0,0,0,0,0,0,0,0,-1,1490,778,0,0
273,246,0,0,0,0,0,0,0,0,0,-1,1497,778,0,0
280,246,0,0,0,0,0,0,0,0,0,-1,1504,778,0,0
287,246,0,0,0,0,0,0,0,0,0,-1,1511,778,0,0
294,246,0,0,0,0,0,0,0,0,0,-1,1518,778,0,0
301,246,0,0,0,0,0,0,0,0,0,-1,1525,778,0,0
308,246,0,0,0,0,0,0,0,0,0,-1,1532,778,0,0
315,246,0,0,0,0,0,0,0,0,0,-1,1539,778,0,0
322,246,0,0,0,0,0,0,0,0,0,-1,1546,778,0,0
329,246,0,0,0,0,0,0,0,0,0,-1,1553,778,0,0
336,246,0,0,0,0,0,0,0,0,0,-1,1560,778,0,0
343,246,0,0,0,0,0,0,0,0,0,-1,1567,778,0,0
350,246,0,0,0,0,0,0,0,0,0,-1,1574,778,0,0
357,246,0,0,0,0,0,0,0,0,0,-1,1581,778,0,0
364,246,0,0,0,0,0,0,0,0,0,-1,1588,778,0,0
371,246,0,0,0,0,0,0,0,0,0,-1,1595,778,0,0
378,246,0,0,0,0,0,0,0,0,0,-1,1602,778,0,0
385,246,0,0,0,0,0,0,0,0,0,-1,1609,778,0,0
392,246,0,0,0,0,0,0,0,0,0,-1,1616,778,0,0
399,246,0,0,0,0,0,0,0,0,0,-1,1623,778,0,0
406,246,0,0,0,0,0,0,0,0,0,-1,1630,778,0,0
413,246,0,0,0,0,0,0,0,0,0,-1,1637,778,0,0
420,246,0,0,0,0,0,0,0,0,0,-1,1644,778,0,0
427,246,0,0,0,0,0,0,0,0,0,-1,1651,778,0,0
434,246,0,0,0,0,0,0,0,0,0,-1,1658,778,0,0
441,246,0,0,0,0,0,0,0,0,0,-1,1665,778,0,0
448,246,0,0,0,0,0,0,0,0,0,-1,1672,778,0,0
455,246,0,0,0,0,0,0,0,0,0,-1,1679,778,0,0
462,246,0,0,0,0,0,0,0,0,0,-1,1686,778,0,0
469,246,0,0,0,0,0,0,0,0,0,-1,1693,778,0,0
476,246,0,0,0,0,0,0,0,0,0,-1,1700,778,0,0
483,246,0,0,0,0,0,0,0,0,0,-1,1707,778,0,0
490,246,0,0,0,0,0,0,0,0,0,-1,1714,778,0,0
497,246,0,0,0,0,0,0,0,0,0,-1,1721,778,0,0
504,246,0,0,0,0,0,0,0,0,0,-1,1728,778,0,0
511,246,0,0,0,0,0,0,0,0,0,-1,1735,778,0,0
518,246,0,0,0,0,0,0,0,0,0,-1,1742,778,0,0
525,246,0,0,0,0,0,0,0,0,0,-1,1749,778,0,0
532,246,0,0,0,0,0,0,0,0,0,-1,1756,778,0,0
539,246,0,0,0,0,0,0,0,0,0,-1,1763,778,0,0
546,246,0,0,0,0,0,0,0,0,0,-1,1770,778,0,0
553,246,0,0,0,0,0,0,0,0,0,-1,1777,778,0,0
560,246,0,0,0,0,0,0,0,0,0,-1,1784,778,0,0
567,246,0,0,0,0,0,0,0,0,0,-1,1791,778,0,0
574,246,0,0,0,0,0,0,0,0,0,-1,1798,778,0,0
581,246,4.85181,0.752563,0.00680934,0.00612889,2.67879e-05,0.0068104,0.00612784,0.0392866,0.00433071,0.03565,1805,778,4.85178,-0.752555
588,246,4.89832,0.637451,0.00309867,0.00779707,-0.00114803,0.00806258,0.00283316,-1.34352,0.00472297,0.0421036,1812,778,4.89827,-0.637451
595,246,5.11902,0.627136,-0.000869583,0.00856184,-0.00146771,0.00878497,-0.00109271,-1.41993,0.00625279,0.0432775,1819,778,5.11903,-0.627149
602,246,5.10986,0.745667,-0.00420513,0.00849618,-0.00130597,0.00862908,-0.00433802,-1.46939,0.00762197,0.0422507,1826,778,5.10983,-0.745681
609,246,5.9574,-1.54633,0,0,0,0,0,0,0,-1,1833,778,5.95736,1.54634
616,246,4.69495,-1.31927,0,0,0,0,0,0,0,-1,1840,778,4.69492,1.31925
623,246,4.57166,-1.08942,-0.0097293,0.00552464,0.000215283,0.00552768,-0.00973234,1.55669,0.00892116,0.0449376,1847,778,4.5717,1.08939
630,246,4.40283,-0.790833,-0.0100621,0.00432016,0.000466876,0.0043353,-0.0100773,1.53838,0.00853838,0.0441167,1854,778,4.4028,0.790817
637,246,4.19946,-0.5047,-0.00966922,0.00326357,0.000800335,0.00331291,-0.00971856,1.50923,0.00782084,0.0490231,1861,778,4.1995,0.504721
644,246,4.13916,0.0527344,-0.00890258,0.00221545,0.00115118,0.00233339,-0.00902052,1.4687,0.0069238,0.0446746,1868,778,4.13917,-0.0527086
651,246,4.04395,0.324707,-0.00781876,0.00147007,0.00116016,0.00161278,-0.00796147,1.4484,0.00591894,0.0287066,1875,778,4.04399,-0.324732
658,246,4.0813,0.415161,-0.00659808,0.000432978,0.00107303,0.000593092,-0.00675819,1.42267,0.00471561,0.0190835,1882,778,4.08126,-0.415188
665,246,4.04895,0.444092,-0.00521882,-0.000105475,0.000915549,5.35115e-05,-0.0053778,1.39886,0.00360317,0.0195231,1889,778,4.04895,-0.444079
672,246,4.04004,0.50531,-0.00360247,-0.000526621,0.000851268,-0.000306743,-0.00382235,1.31803,0.00245239,0.0204496,1896,778,4.04006,-0.505335
679,246,4.05688,0.5177,-0.00206003,-0.000262875,0.000608403,-7.62815e-05,-0.00224662,1.27321,0.00147298,0.0213266,1903,778,4.05694,-0.5177
686,246,4.09412,0.538879,-0.000685323,0.000341999,0.000756984,0.000743145,-0.00108647,1.08349,0.00106251,0.0217445,1910,778,4.09416,-0.538864
693,246,4.08691,0.591675,-0.000175021,0.00121778,0.000725071,0.00152671,-0.000483958,1.16801,0.00121178,0.0166154,1917,778,4.08695,-0.591702
700,246,4.08679,0.617798,-0.000977486,0.0027524,0.000741607,0.00289444,-0.00111953,1.38155,0.00239179,0.0128872,1924,778,4.08681,-0.617791
707,246,4.08472,0.650574,-0.00253224,0.00476419,0.000825358,0.00485639,-0.00262443,1.45955,0.00438266,0.0116772,1931,778,4.08476,-0.650602
714,246,4.0863,0.691101,-0.00432617,0.00705456,0.00109134,0.00715827,-0.00442987,1.47605,0.00675195,0.0115397,1938,778,4.08633,-0.691122
721,246,4.08606,0.750244,-0.00707166,0.0101153,0.00124047,0.0102044,-0.00716073,1.49912,0.0100769,0.0168347,1945,778,4.0861,-0.750262
728,246,4.16565,0.890869,-0.0110735,0.0139095,0.00114268,0.0139617,-0.0111256,1.52518,0.014515,0.0345856,1952,778,4.16566,-0.890874
735,246,4.29346,1.17993,-0.0165508,0.0183955,0.000588092,0.0184054,-0.0165607,1.55397,0.0201971,0.0445249,1959,778,4.2934,-1.17996
742,246,4.31934,1.64191,0,0,0,0,0,0,0,-1,1966,778,4.31938,-1.64191
749,246,3.30835,1.80884,-0.033299,0.0286987,-0.00292714,0.0288366,-0.0334369,-1.52372,0.0359863,0.0464742,1973,778,3.30833,-1.80884
756,246,3.23584,1.79529,-0.0452932,0.0337087,-0.00665951,0.0342661,-0.0458507,-1.48729,0.0464163,0.0466869,1980,778,3.23582,-1.7953
763,246,0,0,0,0,0,0,0,0,0,-1,1987,778,0,0
770,246,0,0,0,0,0,0,0,0,0,-1,1994,778,0,0
777,246,0,0,0,0,0,0,0,0,0,-1,2001,778,0,0
784,246,0,0,0,0,0,0,0,0,0,-1,2008,778,0,0
791,246,0,0,0,0,0,0,0,0,0,-1,2015,778,0,0
798,246,0,0,0,0,0,0,0,0,0,-1,2022,778,0,0
805,246,0,0,0,0,0,0,0,0,0,-1,2029,778,0,0
812,246,0,0,0,0,0,0,0,0,0,-1,2036,778,0,0
-700,239,0,0,0,0,0,0,0,0,0,-1,524,785,0,0
-693,239,0,0,0,0,0,0,0,0,0,-1,531,785,0,0
-686,239,0,0,0,0,0,0,0,0,0,-1,538,785,0,0
-679,239,0,0,0,0,0,0,0,0,0,-1,545,785,0,0
-672,239,0,0,0,0,0,0,0,0,0,-1,552,785,0,0
-665,239,0,0,0,0,0,0,0,0,0,-1,559,785,0,0
-658,239,0,0,0,0,0,0,0,0,0,-1,566,785,0,0
-651,239,0,0,0,0,0,0,0,0,0,-1,573,785,0,0
-644,239,0,0,0,0,0,0,0,0,0,-1,580,785,0,0
-637,239,-1.21674,5.42523,-0.0191061,-0.110615,0.00750929,-0.018494,-0.111227,0.081336,0.0688199,0.0464,587,785,-1.21674,-5.42524
-630,239,-1.30847,5.7713,-0.00784774,-0.0874386,0.000602994,-0.00784317,-0.0874432,0.00757559,0.0558649,0.0484384,594,785,-1.30847,-5.77127
-623,239,-1.37225,6.14691,-0.000175141,-0.0683081,-0.00323192,-2.21767e-05,-0.0684611,-0.047294,0.0456333,0.0451858,601,785,-1.37224,-6.14688
-616,239,-1.53888,6.46161,0.00473365,-0.0525729,-0.00512248,0.00518793,-0.0530272,-0.0884528,0.0372016,0.0449059,608,785,-1.5389,-6.46163
-609,239,-1.66309,7.04279,0.00759677,-0.0397575,-0.00570844,0.00827519,-0.0404359,-0.11829,0.0300973,0.0467395,615,785,-1.66311,-7.0428
-602,239,-1.8222,7.71222,0,0,0,0,0,0,0,-1,622,785,-1.82221,-7.71222
-595,239,-0.297729,0.715149,0.00896393,-0.0214539,-0.00461798,0.00964957,-0.0221396,-0.147395,0.0188198,0.0407486,629,785,-0.297728,-0.715171
-588,239,-0.295654,0.703186,0.00826669,-0.015343,-0.0036398,0.00881509,-0.0158914,-0.149541,0.014458,0.0182694,636,785,-0.295659,-0.703172
-581,239,-0.29895,0.668884,0.00726723,-0.00990807,-0.00277441,0.00770427,-0.0103451,-0.156243,0.0104579,0.0104304,643,785,-0.298943,-0.668854
-574,239,-0.301025,0.615417,0.00631088,-0.00580308,-0.00186413,0.00659125,-0.00608345,-0.149283,0.0073197,0.0114407,650,785,-0.301047,-0.615412
-567,239,-0.312561,0.578064,0.00517901,-0.002896,-0.00115383,0.00534065,-0.00305764,-0.139179,0.00490811,0.0124968,657,785,-0.312535,-0.57808
-560,239,-0.295349,0.539307,0.00421269,-0.00187547,-0.000723392,0.00429746,-0.00196024,-0.116656,0.00369593,0.0130186,664,785,-0.295367,-0.539279
-553,239,-0.295959,0.498657,0.0026784,-0.00389047,0.00122946,0.00290097,-0.00411304,0.179091,0.00406965,0.0136231,671,785,-0.29598,-0.498662
-546,239,-0.309937,0.47644,0.00252419,-0.00316478,0.00181433,0.00305356,-0.00369415,0.28389,0.00390164,0.0146519,678,785,-0.309933,-0.476454
-539,239,-0.303223,0.444092,0.00269856,-0.00323233,0.00197866,0.00329808,-0.00383185,0.2942,0.00412031,0.0156619,685,785,-0.303247,-0.444065
-532,239,-0.295959,0.38269,0.00279644,-0.00344296,0.00203023,0.00339888,-0.00404541,0.288461,0.00430336,0.0114915,692,785,-0.295931,-0.382677
-525,239,-0.280396,0.369324,0.00251073,-0.0037008,0.00219253,0.00320667,-0.00439674,0.307356,0.00440772,0.0128324,699,785,-0.280375,-0.369353
-518,239,-0.295898,0.28125,0.00225061,-0.00431745,0.00220237,0.00292072,-0.00498757,0.295371,0.00461754,0.0335326,706,785,-0.295902,-0.281262
-511,239,-0.427551,0.311218,0.0019393,-0.00511151,0.00216103,0.00254893,-0.00572115,0.274958,0.00489042,0.0427321,713,785,-0.427528,-0.311196
-504,239,0.334473,-0.28772,0.00122656,-0.00574998,0.00192751,0.00172368,-0.0062471,0.252407,0.00484265,0.0433826,720,785,0.334477,0.287704
-497,239,0.211914,0.0479126,-5.00743e-05,-0.00610546,0.00132579,0.000227478,-0.00638301,0.206368,0.00433316,0.0466455,727,785,0.211938,-0.0479128
-490,239,0.104797,0.436768,0,0,0,0,0,0,0,-1,734,785,0.10477,-0.436758
-483,239,-2.13367,0.659302,-0.00401699,-0.00681779,-0.00149122,-0.0033717,-0.00746308,-0.408398,0.00431548,0.0471853,741,785,-2.13369,-0.659273
-476,239,-1.45502,0.672668,-0.00621152,-0.00771688,-0.0040082,-0.00288594,-0.0110425,-0.692587,0.00661301,0.0438854,748,785,-1.455,-0.672664
-469,239,-1.32111,0.764038,-0.00744099,-0.00954414,-0.00724148,-0.00117513,-0.01581,-0.713295,0.0101709,0.0453908,755,785,-1.32112,-0.764029
-462,239,-1.2323,0.771118,-0.00678683,-0.0131833,-0.0114071,0.0018619,-0.0218321,-0.648721,0.0152134,0.049302,762,785,-1.23229,-0.771143
-455,239,0,0,0,0,0,0,0,0,0,-1,769,785,0,0
-448,239,0,0,0,0,0,0,0,0,0,-1,776,785,0,0
-441,239,0,0,0,0,0,0,0,0,0,-1,783,785,0,0
-434,239,0,0,0,0,0,0,0,0,0,-1,790,785,0,0
-427,239,0,0,0,0,0,0,0,0,0,-1,797,785,0,0
-420,239,0,0,0,0,0,0,0,0,0,-1,804,785,0,0
-413,239,0,0,0,0,0,0,0,0,0,-1,811,785,0,0
-406,239,0,0,0,0,0,0,0,0,0,-1,818,785,0,0
-399,239,0,0,0,0,0,0,0,0,0,-1,825,785,0,0
-392,239,0,0,0,0,0,0,0,0,0,-1,832,785,0,0
-385,239,0,0,0,0,0,0,0,0,0,-1,839,785,0,0
-378,239,0,0,0,0,0,0,0,0,0,-1,846,785,0,0
-371,239,0,0,0,0,0,0,0,0,0,-1,853,785,0,0
-364,239,0,0,0,0,0,0,0,0,0,-1,860,785,0,0
-357,239,0,0,0,0,0,0,0,0,0,-1,867,785,0,0
-350,239,0,0,0,0,0,0,0,0,0,-1,874,785,0,0
-343,239,0,0,0,0,0,0,0,0,0,-1,881,785,0,0
-336,239,0,0,0,0,0,0,0,0,0,-1,888,785,0,0
-329,239,0,0,0,0,0,0,0,0,0,-1,895,785,0,0
-322,239,0,0,0,0,0,0,0,0,0,-1,902,785,0,0
-315,239,0,0,0,0,0,0,0,0,0,-1,909,785,0,0
-308,239,0,0,0,0,0,0,0,0,0,-1,916,785,0,0
-301,239,0,0,0,0,0,0,0,0,0,-1,923,785,0,0
-294,239,0,0,0,0,0,0,0,0,0,-1,930,785,0,0
-287,239,0,0,0,0,0,0,0,0,0,-1,937,785,0,0
-280,239,0,0,0,0,0,0,0,0,0,-1,944,785,0,0
-273,239,0,0,0,0,0,0,0,0,0,-1,951,785,0,0
-266,239,0,0,0,0,0,0,0,0,0,-1,958,785,0,0
-259,239,0,0,0,0,0,0,0,0,0,-1,965,785,0,0
-252,239,0,0,0,0,0,0,0,0,0,-1,972,785,0,0
-245,239,0,0,0,0,0,0,0,0,0,-1,979,785,0,0
-238,239,0,0,0,0,0,0,0,0,0,-1,986,785,0,0
-231,239,0,0,0,0,0,0,0,0,0,-1,993,785,0,0
-224,239,0,0,0,0,0,0,0,0,0,-1,1000,785,0,0
-217,239,0,0,0,0,0,0,0,0,0,-1,1007,785,0,0
-210,239,0,0,0,0,0,0,0,0,0,-1,1014,785,0,0
-203,239,0,0,0,0,0,0,0,0,0,-1,1021,785,0,0
-196,239,0,0,0,0,0,0,0,0,0,-1,1028,785,0,0
-189,239,0,0,0,0,0,0,0,0,0,-1,1035,785,0,0
-182,239,0,0,0,0,0,0,0,0,0,-1,1042,785,0,0
-175,239,0,0,0,0,0,0,0,0,0,-1,1049,785,0,0
-168,239,0,0,0,0,0,0,0,0,0,-1,1056,785,0,0
-161,239,0,0,0,0,0,0,0,0,0,-1,1063,785,0,0
-154,239,0,0,0,0,0,0,0,0,0,-1,1070,785,0,0
-147,239,0,0,0,0,0,0,0,0,0,-1,1077,785,0,0
-140,239,0,0,0,0,0,0,0,0,0,-1,1084,785,0,0
-133,239,0,0,0,0,0,0,0,0,0,-1,1091,785,0,0
-126,239,0,0,0,0,0,0,0,0,0,-1,1098,785,0,0
-119,239,0,0,0,0,0,0,0,0,0,-1,1105,785,0,0
-112,239,0,0,0,0,0,0,0,0,0,-1,1112,785,0,0
-105,239,0,0,0,0,0,0,0,0,0,-1,1119,785,0,0
-98,239,0,0,0,0,0,0,0,0,0,-1,1126,785,0,0
-91,239,0,0,0,0,0,0,0,0,0,-1,1133,785,0,0
-84,239,0,0,0,0,0,0,0,0,0,-1,1140,785,0,0
-77,239,0,0,0,0,0,0,0,0,0,-1,1147,785,0,0
-70,239,0,0,0,0,0,0,0,0,0,-1,1154,785,0,0
-63,239,0,0,0,0,0,0,0,0,0,-1,1161,785,0,0
-56,239,0,0,0,0,0,0,0,0,0,-1,1168,785,0,0
-49,239,0,0,0,0,0,0,0,0,0,-1,1175,785,0,0
-42,239,0,0,0,0,0,0,0,0,0,-1,1182,785,0,0
-35,239,0,0,0,0,0,0,0,0,0,-1,1189,785,0,0
-28,239,0,0,0,0,0,0,0,0,0,-1,1196,785,0,0
-21,239,0,0,0,0,0,0,0,0,0,-1,1203,785,0,0
-14,239,0,0,0,0,0,0,0,0,0,-1,1210,785,0,0
-7,239,0,0,0,0,0,0,0,0,0,-1,1217,785,0,0
0,239,0,0,0,0,0,0,0,0,0,-1,1224,785,0,0
7,239,0,0,0,0,0,0,0,0,0,-1,1231,785,0,0
14,239,0,0,0,0,0,0,0,0,0,-1,1238,785,0,0
21,239,0,0,0,0,0,0,0,0,0,-1,1245,785,0,0
28,239,0,0,0,0,0,0,0,0,0,-1,1252,785,0,0
35,239,0,0,0,0,0,0,0,0,0,-1,1259,785,0,0
42,239,0,0,0,0,0,0,0,0,0,-1,1266,785,0,0
49,239,0,0,0,0,0,0,0,0,0,-1,1273,785,0,0
56,239,0,0,0,0,0,0,0,0,0,-1,1280,785,0,0
63,239,0,0,0,0,0,0,0,0,0,-1,1287,785,0,0
70,239,0,0,0,0,0,0,0,0,0,-1,1294,785,0,0
77,239,0,0,0,0,0,0,0,0,0,-1,1301,785,0,0
84,239,0,0,0,0,0,0,0,0,0,-1,1308,785,0,0
91,239,0,0,0,0,0,0,0,0,0,-1,1315,785,0,0
98,239,0,0,0,0,0,0,0,0,0,-1,1322,785,0,0
105,239,0,0,0,0,0,0,0,0,0,-1,1329,785,0,0
112,239,0,0,0,0,0,0,0,0,0,-1,1336,785,0,0
119,239,0,0,0,0,0,0,0,0,0,-1,1343,785,0,0
126,239,0,0,0,0,0,0,0,0,0,-1,1350,785,0,0
133,239,0,0,0,0,0,0,0,0,0,-1,1357,785,0,0
140,239,0,0,0,0,0,0,0,0,0,-1,1364,785,0,0
147,239,0,0,0,0,0,0,0,0,0,-1,1371,785,0,0
154,239,0,0,0,0,0,0,0,0,0,-1,1378,785,0,0
161,239,0,0,0,0,0,0,0,0,0,-1,1385,785,0,0
168,239,0,0,0,0,0,0,0,0,0,-1,1392,785,0,0
175,239,0,0,0,0,0,0,0,0,0,-1,1399,785,0,0
182,239,0,0,0,0,0,0,0,0,0,-1,1406,785,0,0
189,239,0,0,0,0,0,0,0,0,0,-1,1413,785,0,0
196,239,0,0,0,0,0,0,0,0,0,-1,1420,785,0,0
203,239,0,0,0,0,0,0,0,0,0,-1,1427,785,0,0
210,239,0,0,0,0,0,0,0,0,0,-1,1434,785,0,0
217,239,0,0,0,0,0,0,0,0,0,-1,1441,785,0,0
224,239,0,0,0,0,0,0,0,0,0,-1,1448,785,0,0
231,239,0,0,0,0,0,0,0,0,0,-1,1455,785,0,0
238,239,0,0,0,0,0,0,0,0,0,-1,1462,785,0,0
245,239,0,0,0,0,0,0,0,0,0,-1,1469,785,0,0
252,239,0,0,0,0,0,0,0,0,0,-1,1476,785,0,0
259,239,0,0,0,0,0,0,0,0,0,-1,1483,785,0,0
266,239,0,0,0,0,0,0,0,0,0,-1,1490,785,0,0
273,239,0,0,0,0,0,0,0,0,0,-1,1497,785,0,0
280,239,0,0,0,0,0,0,0,0,0,-1,1504,785,0,0
287,239,0,0,0,0,0,0,0,0,0,-1,1511,785,0,0
294,239,0,0,0,0,0,0,0,0,0,-1,1518,785,0,0
301,239,0,0,0,0,0,0,0,0,0,-1,1525,785,0,0
308,239,0,0,0,0,0,0,0,0,0,-1,1532,785,0,0
315,239,0,0,0,0,0,0,0,0,0,-1,1539,785,0,0
322,239,0,0,0,0,0,0,0,0,0,-1,1546,785,0,0
329,239,0,0,0,0,0,0,0,0,0,-1,1553,785,0,0
336,239,0,0,0,0,0,0,0,0,0,-1,1560,785,0,0
343,239,0,0,0,0,0,0,0,0,0,-1,1567,785,0,0
350,239,0,0,0,0,0,0,0,0,0,-1,1574,785,0,0
357,239,0,0,0,0,0,0,0,0,0,-1,1581,785,0,0
364,239,0,0,0,0,0,0,0,0,0,-1,1588,785,0,0
371,239,0,0,0,0,0,0,0,0,0,-1,1595,785,0,0
378,239,0,0,0,0,0,0,0,0,0,-1,1602,785,0,0
385,239,0,0,0,0,0,0,0,0,0,-1,1609,785,0,0
392,239,0,0,0,0,0,0,0,0,0,-1,1616,785,0,0
399,239,0,0,0,0,0,0,0,0,0,-1,1623,785,0,0
406,239,0,0,0,0,0,0,0,0,0,-1,1630,785,0,0
413,239,0,0,0,0,0,0,0,0,0,-1,1637,785,0,0
420,239,0,0,0,0,0,0,0,0,0,-1,1644,785,0,0
427,239,0,0,0,0,0,0,0,0,0,-1,1651,785,0,0
434,239,0,0,0,0,0,0,0,0,0,-1,1658,785,0,0
441,239,0,0,0,0,0,0,0,0,0,-1,1665,785,0,0
448,239,0,0,0,0,0,0,0,0,0,-1,1672,785,0,0
455,239,0,0,0,0,0,0,0,0,0,-1,1679,785,0,0
462,239,0,0,0,0,0,0,0,0,0,-1,1686,785,0,0
469,239,0,0,0,0,0,0,0,0,0,-1,1693,785,0,0
476,239,0,0,0,0,0,0,0,0,0,-1,1700,785,0,0
483,239,0,0,0,0,0,0,0,0,0,-1,1707,785,0,0
490,239,0,0,0,0,0,0,0,0,0,-1,1714,785,0,0
497,239,0,0,0,0,0,0,0,0,0,-1,1721,785,0,0
504,239,0,0,0,0,0,0,0,0,0,-1,1728,785,0,0
511,239,0,0,0,0,0,0,0,0,0,-1,1735,785,0,0
518,239,0,0,0,0,0,0,0,0,0,-1,1742,785,0,0
525,239,0,0,0,0,0,0,0,0,0,-1,1749,785,0,0
532,239,0,0,0,0,0,0,0,0,0,-1,1756,785,0,0
539,239,0,0,0,0,0,0,0,0,0,-1,1763,785,0,0
546,239,0,0,0,0,0,0,0,0,0,-1,1770,785,0,0
553,239,0,0,0,0,0,0,0,0,0,-1,1777,785,0,0
560,239,0,0,0,0,0,0,0,0,0,-1,1784,785,0,0
567,239,0,0,0,0,0,0,0,0,0,-1,1791,785,0,0
574,239,0,0,0,0,0,0,0,0,0,-1,1798,785,0,0
581,239,4.93176,0.739014,0.00735708,0.00307496,9.64009e-05,0.00735925,0.00307279,0.0224972,0.00426808,0.035488,1805,785,4.93177,-0.739011
588,239,4.85547,0.655334,0.00382196,0.00505804,-0.000704914,0.00537749,0.00350251,-1.14531,0.00315174,0.0395577,1812,785,4.85543,-0.655308
595,239,4.93921,0.524048,-0.000309411,0.00598416,-0.000737372,0.0060694,-0.000394649,-1.45571,0.00418402,0.0360373,1819,785,4.9392,-0.524025
602,239,4.96606,0.675903,-0.00386009,0.00617743,-0.000388083,0.00619242,-0.00387508,-1.53221,0.00586357,0.038947,1826,785,4.96601,-0.67591
609,239,4.98218,0.814392,-0.00652987,0.00575546,8.28713e-05,0.00575602,-0.00653043,1.56405,0.00709828,0.0479308,1833,785,4.98222,-0.81437
616,239,5.45898,-0.527283,0,0,0,0,0,0,0,-1,1840,785,5.45898,0.527307
623,239,4.91101,-0.668396,-0.00944718,0.00362843,0.000952347,0.00369743,-0.00951618,1.49847,0.00787158,0.0439241,1847,785,4.91099,0.668378
630,239,4.39539,-0.871155,-0.00972085,0.00251915,0.00102973,0.00260518,-0.00980687,1.48745,0.00755749,0.0434251,1854,785,4.39534,0.871184
637,239,4.14917,-0.72052,0,0,0,0,0,0,0,-1,1861,785,4.14916,0.720518
644,239,4.15076,0.0164185,0,0,0,0,0,0,0,-1,1868,785,4.15071,-0.0164198
651,239,4.02515,0.319275,-0.00766758,9.9962e-05,0.00111393,0.000256552,-0.00782417,1.43114,0.0053037,0.034304,1875,785,4.02515,-0.319297
658,239,4.0946,0.411926,-0.00653109,-0.000710165,0.000886621,-0.000578114,-0.00666314,1.42295,0.00426248,0.0162861,1882,785,4.09465,-0.411953
665,239,4.10999,0.449158,-0.00521964,-0.00106946,0.00067278,-0.000963118,-0.00532598,1.41403,0.00327713,0.0128071,1889,785,4.11,-0.449154
672,239,4.07605,0.506592,-0.00371198,-0.00127867,0.000596148,-0.00114047,-0.00385018,1.34299,0.00228362,0.0198893,1896,785,4.07601,-0.506577
679,239,4.08557,0.546082,-0.00215951,-0.000867306,0.000403151,-0.000751844,-0.00227497,1.29187,0.00133838,0.0206433,1903,785,4.08563,-0.546067
686,239,4.09387,0.574097,-0.000646859,-0.000132481,0.000584959,0.000249332,-0.00102867,0.992513,0.000782251,0.0221595,1910,785,4.09389,-0.574087
693,239,4.11926,0.597656,5.10184e-05,0.000887553,0.000614766,0.00121285,-0.000274276,1.08411,0.000913815,0.0147267,1917,785,4.11921,-0.597628
700,239,4.12573,0.614746,-0.000524095,0.002483,0.000676335,0.00262812,-0.000669208,1.35944,0.00201258,0.0107723,1924,785,4.12572,-0.614744
707,239,4.12292,0.650513,-0.00180254,0.00450384,0.000765149,0.00459534,-0.00189405,1.45177,0.00385333,0.00999849,1931,785,4.12294,-0.650531
714,239,4.12671,0.686279,-0.00325647,0.00667397,0.00102247,0.00677816,-0.00336065,1.46925,0.00596346,0.00934455,1938,785,4.12671,-0.686283
721,239,4.12415,0.726135,-0.00557031,0.00955503,0.00113346,0.0096395,-0.00565478,1.49641,0.00892949,0.0173449,1945,785,4.12415,-0.726117
728,239,4.21948,0.788757,-0.00901607,0.0130846,0.000998979,0.0131297,-0.00906113,1.52572,0.0128835,0.034038,1952,785,4.21942,-0.788765
735,239,4.40503,1.27533,-0.013784,0.0172602,0.000439958,0.0172664,-0.0137902,1.55663,0.0179679,0.0444748,1959,785,4.40506,-1.27535
742,239,4.41309,1.81073,0,0,0,0,0,0,0,-1,1966,785,4.41311,-1.8107
749,239,4.38293,2.25641,-0.0284502,0.0269383,-0.00283325,0.0270829,-0.0285948,-1.51982,0.0321495,0.0472585,1973,785,4.38299,-2.25643
756,239,3.27039,1.73035,-0.0389706,0.0317496,-0.00618117,0.0322858,-0.0395068,-1.48427,0.0415193,0.046432,1980,785,3.27044,-1.73033
763,239,0,0,0,0,0,0,0,0,0,-1,1987,785,0,0
770,239,0,0,0,0,0,0,0,0,0,-1,1994,785,0,0
777,239,0,0,0,0,0,0,0,0,0,-1,2001,785,0,0
784,239,0,0,0,0,0,0,0,0,0,-1,2008,785,0,0
791,239,0,0,0,0,0,0,0,0,0,-1,2015,785,0,0
798,239,0,0,0,0,0,0,0,0,0,-1,2022,785,0,0
805,239,0,0,0,0,0,0,0,0,0,-1,2029,785,0,0
812,239,0,0,0,0,0,0,0,0,0,-1,2036,785,0,0
-700,232,0,0,0,0,0,0,0,0,0,-1,524,792,0,0
-693,232,0,0,0,0,0,0,0,0,0,-1,531,792,0,0
-686,232,0,0,0,0,0,0,0,0,0,-1,538,792,0,0
-679,232,0,0,0,0,0,0,0,0,0,-1,545,792,0,0
-672,232,0,0,0,0,0,0,0,0,0,-1,552,792,0,0
-665,232,0,0,0,0,0,0,0,0,0,-1,559,792,0,0
-658,232,0,0,0,0,0,0,0,0,0,-1,566,792,0,0
-651,232,0,0,0,0,0,0,0,0,0,-1,573,792,0,0
-644,232,-1.84882,5.76672,0,0,0,0,0,0,0,-1,580,792,-1.84884,-5.76673
-637,232,-1.3913,6.38861,0,0,0,0,0,0,0,-1,587,792,-1.39132,-6.38859
-630,232,-1.21356,6.76581,0,0,0,0,0,0,0,-1,594,792,-1.21354,-6.76582
-623,232,-1.25317,7.12933,0,0,0,0,0,0,0,-1,601,792,-1.2532,-7.1293
-616,232,-1.39539,7.44653,0,0,0,0,0,0,0,-1,608,792,-1.39537,-7.44655
-609,232,-1.28986,7.77338,0.00884151,-0.0285372,-0.00750689,0.0102928,-0.0299885,-0.190971,0.0241653,0.0488304,615,792,-1.28987,-7.7734
-602,232,-0.325195,0.775452,0.0101702,-0.0199176,-0.00742889,0.0119045,-0.0216519,-0.229343,0.0196444,0.0454767,622,792,-0.325198,-0.775443
-595,232,-0.411011,0.751099,0.0101862,-0.0135787,-0.0066594,0.011925,-0.0153176,-0.255412,0.0157691,0.0323747,629,792,-0.41103,-0.751098
-588,232,-0.348633,0.714478,0.00929433,-0.00911765,-0.00551713,0.010821,-0.0106443,-0.269951,0.0123931,0.0111943,636,792,-0.348657,-0.714502
-581,232,-0.336182,0.675781,0.00805565,-0.00507397,-0.00436113,0.00937222,-0.00639054,-0.293188,0.00915475,0.00805651,643,792,-0.336155,-0.675761
-574,232,-0.328918,0.621033,0.00678391,-0.00217923,-0.00309185,0.00774697,-0.00314229,-0.301959,0.00647157,0.00878918,650,792,-0.328899,-0.621054
-567,232,-0.335449,0.57959,0.00539218,-0.000444831,-0.00199397,0.00600831,-0.00106096,-0.299687,0.00440202,0.010048,657,792,-0.335422,-0.579587
-560,232,-0.336304,0.547363,0.00424653,-0.00043976,-0.0012148,0.00454271,-0.000735946,-0.239149,0.00330125,0.012235,664,792,-0.336294,-0.547335
-553,232,-0.346863,0.505981,0.00271301,-0.00312361,0.00100282,0.00288051,-0.00329111,0.165495,0.00356581,0.0129665,671,792,-0.346882,-0.50599
-546,232,-0.373169,0.480408,0.00255769,-0.00297206,0.00183702,0.00311233,-0.0035267,0.293221,0.00383554,0.0209745,678,792,-0.373182,-0.48043
-539,232,-0.360046,0.440369,0.00283513,-0.00328022,0.00213191,0.00350497,-0.00395006,0.304433,0.00430672,0.0243468,685,792,-0.36007,-0.440381
-532,232,-0.327271,0.39325,0.00323632,-0.00365815,0.0021838,0.00386982,-0.00429165,0.282342,0.00471413,0.0135259,692,792,-0.327274,-0.393248
-525,232,-0.279907,0.403503,0.00335097,-0.0041148,0.00234328,0.00402551,-0.00478934,0.280284,0.00509562,0.0201494,699,792,-0.27989,-0.40353
-518,232,0.161072,1.01624,0.00345887,-0.00482005,0.00236984,0.00408923,-0.00545042,0.259976,0.00552638,0.0449168,706,792,0.161063,-1.01625
-511,232,-0.43457,0.225769,0.00354834,-0.00560321,0.00231722,0.00410163,-0.0061565,0.234382,0.00596201,0.0467279,713,792,-0.434584,-0.225749
-504,232,-0.64801,0.348816,0.00329704,-0.00621547,0.00204686,0.00371878,-0.00663721,0.203198,0.00605766,0.0454648,720,792,-0.648001,-0.348794
-497,232,-0.0665283,0.0726929,0.00257187,-0.00651343,0.00140557,0.00278435,-0.00672591,0.150037,0.00564576,0.0452302,727,792,-0.0665046,-0.0727096
-490,232,-1.25531,0.864258,0.00137244,-0.00662173,0.000272308,0.0013817,-0.00663099,0.0340108,0.00494599,0.045709,734,792,-1.25534,-0.864275
-483,232,-1.24017,0.864075,-0.000277951,-0.00665645,-0.00149952,5.69844e-05,-0.00699139,-0.219754,0.00468004,0.043153,741,792,-1.24014,-0.864084
-476,232,-1.25818,0.794067,-0.00200132,-0.00693668,-0.00403933,0.000264454,-0.00920246,-0.511196,0.006225,0.0356153,748,792,-1.25816,-0.794046
-469,232,-1.22357,0.859802,-0.00279424,-0.00783805,-0.00715695,0.00227213,-0.0129044,-0.616005,0.0094518,0.0355234,755,792,-1.2236,-0.859809
-462,232,0,0,0,0,0,0,0,0,0,-1,762,792,0,0
-455,232,0,0,0,0,0,0,0,0,0,-1,769,792,0,0
-448,232,0,0,0,0,0,0,0,0,0,-1,776,792,0,0
-441,232,0,0,0,0,0,0,0,0,0,-1,783,792,0,0
-434,232,0,0,0,0,0,0,0,0,0,-1,790,792,0,0
-427,232,0,0,0,0,0,0,0,0,0,-1,797,792,0,0
-420,232,0,0,0,0,0,0,0,0,0,-1,804,792,0,0
-413,232,0,0,0,0,0,0,0,0,0,-1,811,792,0,0
-406,232,0,0,0,0,0,0,0,0,0,-1,818,792,0,0
-399,232,0,0,0,0,0,0,0,0,0,-1,825,792,0,0
-392,232,0,0,0,0,0,0,0,0,0,-1,832,792,0,0
-385,232,0,0,0,0,0,0,0,0,0,-1,839,792,0,0
-378,232,0,0,0,0,0,0,0,0,0,-1,846,792,0,0
-371,232,0,0,0,0,0,0,0,0,0,-1,853,792,0,0
-364,232,0,0,0,0,0,0,0,0,0,-1,860,792,0,0
-357,232,0,0,0,0,0,0,0,0,0,-1,867,792,0,0
-350,232,0,0,0,0,0,0,0,0,0,-1,874,792,0,0
-343,232,0,0,0,0,0,0,0,0,0,-1,881,792,0,0
-336,232,0,0,0,0,0,0,0,0,0,-1,888,792,0,0
-329,232,0,0,0,0,0,0,0,0,0,-1,895,792,0,0
-322,232,0,0,0,0,0,0,0,0,0,-1,902,792,0,0
-315,232,0,0,0,0,0,0,0,0,0,-1,909,792,0,0
-308,232,0,0,0,0,0,0,0,0,0,-1,916,792,0,0
-301,232,0,0,0,0,0,0,0,0,0,-1,923,792,0,0
-294,232,0,0,0,0,0,0,0,0,0,-1,930,792,0,0
-287,232,0,0,0,0,0,0,0,0,0,-1,937,792,0,0
-280,232,0,0,0,0,0,0,0,0,0,-1,944,792,0,0
-273,232,0,0,0,0,0,0,0,0,0,-1,951,792,0,0
-266,232,0,0,0,0,0,0,0,0,0,-1,958,792,0,0
-259,232,0,0,0,0,0,0,0,0,0,-1,965,792,0,0
-252,232,0,0,0,0,0,0,0,0,0,-1,972,792,0,0
-245,232,0,0,0,0,0,0,0,0,0,-1,979,792,0,0
-238,232,0,0,0,0,0,0,0,0,0,-1,986,792,0,0
-231,232,0,0,0,0,0,0,0,0,0,-1,993,792,0,0
-224,232,0,0,0,0,0,0,0,0,0,-1,1000,792,0,0
-217,232,0,0,0,0,0,0,0,0,0,-1,1007,792,0,0
-210,232,0,0,0,0,0,0,0,0,0,-1,1014,792,0,0
-203,232,0,0,0,0,0,0,0,0,0,-1,1021,792,0,0
-196,232,0,0,0,0,0,0,0,0,0,-1,1028,792,0,0
-189,232,0,0,0,0,0,0,0,0,0,-1,1035,792,0,0
-182,232,0,0,0,0,0,0,0,0,0,-1,1042,792,0,0
-175,232,0,0,0,0,0,0,0,0,0,-1,1049,792,0,0
-168,232,0,0,0,0,0,0,0,0,0,-1,1056,792,0,0
-161,232,0,0,0,0,0,0,0,0,0,-1,1063,792,0,0
-154,232,0,0,0,0,0,0,0,0,0,-1,1070,792,0,0
-147,232,0,0,0,0,0,0,0,0,0,-1,1077,792,0,0
-140,232,0,0,0,0,0,0,0,0,0,-1,1084,792,0,0
-133,232,0,0,0,0,0,0,0,0,0,-1,1091,792,0,0
-126,232,0,0,0,0,0,0,0,0,0,-1,1098,792,0,0
-119,232,0,0,0,0,0,0,0,0,0,-1,1105,792,0,0
-112,232,0,0,0,0,0,0,0,0,0,-1,1112,792,0,0
-105,232,0,0,0,0,0,0,0,0,0,-1,1119,792,0,0
-98,232,0,0,0,0,0,0,0,0,0,-1,1126,792,0,0
-91,232,0,0,0,0,0,0,0,0,0,-1,1133,792,0,0
-84,232,0,0,0,0,0,0,0,0,0,-1,1140,792,0,0
-77,232,0,0,0,0,0,0,0,0,0,-1,1147,792,0,0
-70,232,0,0,0,0,0,0,0,0,0,-1,1154,792,0,0
-63,232,0,0,0,0,0,0,0,0,0,-1,1161,792,0,0
-56,232,0,0,0,0,0,0,0,0,0,-1,1168,792,0,0
-49,232,0,0,0,0,0,0,0,0,0,-1,1175,792,0,0
-42,232,0,0,0,0,0,0,0,0,0,-1,1182,792,0,0
-35,232,0,0,0,0,0,0,0,0,0,-1,1189,792,0,0
-28,232,0,0,0,0,0,0,0,0,0,-1,1196,792,0,0
-21,232,0,0,0,0,0,0,0,0,0,-1,1203,792,0,0
-14,232,0,0,0,0,0,0,0,0,0,-1,1210,792,0,0
-7,232,0,0,0,0,0,0,0,0,0,-1,1217,792,0,0
0,232,0,0,0,0,0,0,0,0,0,-1,1224,792,0,0
7,232,0,0,0,0,0,0,0,0,0,-1,1231,792,0,0
14,232,0,0,0,0,0,0,0,0,0,-1,1238,792,0,0
21,232,0,0,0,0,0,0,0,0,0,-1,1245,792,0,0
28,232,0,0,0,0,0,0,0,0,0,-1,1252,792,0,0
35,232,0,0,0,0,0,0,0,0,0,-1,1259,792,0,0
42,232,0,0,0,0,0,0,0,0,0,-1,1266,792,0,0
49,232,0,0,0,0,0,0,0,0,0,-1,1273,792,0,0
56,232,0,0,0,0,0,0,0,0,0,-1,1280,792,0,0
63,232,0,0,0,0,0,0,0,0,0,-1,1287,792,0,0
70,232,0,0,0,0,0,0,0,0,0,-1,1294,792,0,0
77,232,0,0,0,0,0,0,0,0,0,-1,1301,792,0,0
84,232,0,0,0,0,0,0,0,0,0,-1,1308,792,0,0
91,232,0,0,0,0,0,0,0,0,0,-1,1315,792,0,0
98,232,0,0,0,0,0,0,0,0,0,-1,1322,792,0,0
105,232,0,0,0,0,0,0,0,0,0,-1,1329,792,0,0
112,232,0,0,0,0,0,0,0,0,0,-1,1336,792,0,0
119,232,0,0,0,0,0,0,0,0,0,-1,1343,792,0,0
126,232,0,0,0,0,0,0,0,0,0,-1,1350,792,0,0
133,232,0,0,0,0,0,0,0,0,0,-1,1357,792,0,0
140,232,0,0,0,0,0,0,0,0,0,-1,1364,792,0,0
147,232,0,0,0,0,0,0,0,0,0,-1,1371,792,0,0
154,232,0,0,0,0,0,0,0,0,0,-1,1378,792,0,0
161,232,0,0,0,0,0,0,0,0,0,-1,1385,792,0,0
168,232,0,0,0,0,0,0,0,0,0,-1,1392,792,0,0
175,232,0,0,0,0,0,0,0,0,0,-1,1399,792,0,0
182,232,0,0,0,0,0,0,0,0,0,-1,1406,792,0,0
189,232,0,0,0,0,0,0,0,0,0,-1,1413,792,0,0
196,232,0,0,0,0,0,0,0,0,0,-1,1420,792,0,0
203,232,0,0,0,0,0,0,0,0,0,-1,1427,792,0,0
210,232,0,0,0,0,0,0,0,0,0,-1,1434,792,0,0
217,232,0,0,0,0,0,0,0,0,0,-1,1441,792,0,0
224,232,0,0,0,0,0,0,0,0,0,-1,1448,792,0,0
231,232,0,0,0,0,0,0,0,0,0,-1,1455,792,0,0
238,232,0,0,0,0,0,0,0,0,0,-1,1462,792,0,0
245,232,0,0,0,0,0,0,0,0,0,-1,1469,792,0,0
252,232,0,0,0,0,0,0,0,0,0,-1,1476,792,0,0
259,232,0,0,0,0,0,0,0,0,0,-1,1483,792,0,0
266,232,0,0,0,0,0,0,0,0,0,-1,1490,792,0,0
273,232,0,0,0,0,0,0,0,0,0,-1,1497,792,0,0
280,232,0,0,0,0,0,0,0,0,0,-1,1504,792,0,0
287,232,0,0,0,0,0,0,0,0,0,-1,1511,792,0,0
294,232,0,0,0,0,0,0,0,0,0,-1,1518,792,0,0
301,232,0,0,0,0,0,0,0,0,0,-1,1525,792,0,0
308,232,0,0,0,0,0,0,0,0,0,-1,1532,792,0,0
315,232,0,0,0,0,0,0,0,0,0,-1,1539,792,0,0
322,232,0,0,0,0,0,0,0,0,0,-1,1546,792,0,0
329,232,0,0,0,0,0,0,0,0,0,-1,1553,792,0,0
336,232,0,0,0,0,0,0,0,0,0,-1,1560,792,0,0
343,232,0,0,0,0,0,0,0,0,0,-1,1567,792,0,0
350,232,0,0,0,0,0,0,0,0,0,-1,1574,792,0,0
357,232,0,0,0,0,0,0,0,0,0,-1,1581,792,0,0
364,232,0,0,0,0,0,0,0,0,0,-1,1588,792,0,0
371,232,0,0,0,0,0,0,0,0,0,-1,1595,792,0,0
378,232,0,0,0,0,0,0,0,0,0,-1,1602,792,0,0
385,232,0,0,0,0,0,0,0,0,0,-1,1609,792,0,0
392,232,0,0,0,0,0,0,0,0,0,-1,1616,792,0,0
399,232,0,0,0,0,0,0,0,0,0,-1,1623,792,0,0
406,232,0,0,0,0,0,0,0,0,0,-1,1630,792,0,0
413,232,0,0,0,0,0,0,0,0,0,-1,1637,792,0,0
420,232,0,0,0,0,0,0,0,0,0,-1,1644,792,0,0
427,232,0,0,0,0,0,0,0,0,0,-1,1651,792,0,0
434,232,0,0,0,0,0,0,0,0,0,-1,1658,792,0,0
441,232,0,0,0,0,0,0,0,0,0,-1,1665,792,0,0
448,232,0,0,0,0,0,0,0,0,0,-1,1672,792,0,0
455,232,0,0,0,0,0,0,0,0,0,-1,1679,792,0,0
462,232,0,0,0,0,0,0,0,0,0,-1,1686,792,0,0
469,232,0,0,0,0,0,0,0,0,0,-1,1693,792,0,0
476,232,0,0,0,0,0,0,0,0,0,-1,1700,792,0,0
483,232,0,0,0,0,0,0,0,0,0,-1,1707,792,0,0
490,232,0,0,0,0,0,0,0,0,0,-1,1714,792,0,0
497,232,0,0,0,0,0,0,0,0,0,-1,1721,792,0,0
504,232,0,0,0,0,0,0,0,0,0,-1,1728,792,0,0
511,232,0,0,0,0,0,0,0,0,0,-1,1735,792,0,0
518,232,0,0,0,0,0,0,0,0,0,-1,1742,792,0,0
525,232,0,0,0,0,0,0,0,0,0,-1,1749,792,0,0
532,232,0,0,0,0,0,0,0,0,0,-1,1756,792,0,0
539,232,0,0,0,0,0,0,0,0,0,-1,1763,792,0,0
546,232,0,0,0,0,0,0,0,0,0,-1,1770,792,0,0
553,232,0,0,0,0,0,0,0,0,0,-1,1777,792,0,0
560,232,0,0,0,0,0,0,0,0,0,-1,1784,792,0,0
567,232,0,0,0,0,0,0,0,0,0,-1,1791,792,0,0
574,232,0,0,0,0,0,0,0,0,0,-1,1798,792,0,0
581,232,0,0,0,0,0,0,0,0,0,-1,1805,792,0,0
588,232,4.9093,0.616333,0.00421288,0.00380664,0.000368403,0.00443045,0.00358907,0.533461,0.00271695,0.0408267,1812,792,4.90931,-0.61631
595,232,4.83032,0.476929,0.00021085,0.0042587,0.000225914,0.00427127,0.000198281,1.51522,0.00278378,0.0381831,1819,792,4.83028,-0.476956
602,232,4.87292,0.587463,-0.00335941,0.00430858,0.00051066,0.00434244,-0.00339327,1.50459,0.00447741,0.0358913,1826,792,4.87291,-0.587494
609,232,4.93542,0.739929,-0.00596194,0.00368488,0.000805075,0.00375161,-0.00602867,1.4881,0.00569743,0.0394837,1833,792,4.93541,-0.739914
616,232,5.0282,0.715637,-0.00769862,0.00274833,0.00105532,0.00285387,-0.00780416,1.47112,0.00637082,0.0419458,1840,792,5.02822,-0.715626
623,232,5.32605,-0.235535,0,0,0,0,0,0,0,-1,1847,792,5.326,0.235532
630,232,4.44385,-0.223206,-0.00892588,0.000752814,0.00119434,0.000898016,-0.00907108,1.44982,0.00636787,0.048805,1854,792,4.4438,0.223217
637,232,3.65808,-0.0621948,-0.00856795,-1.26339e-05,0.00114668,0.000138392,-0.00871898,1.43984,0.00585933,0.0492982,1861,792,3.65809,0.0622096
644,232,3.06445,0.124939,0,0,0,0,0,0,0,-1,1868,792,3.06449,-0.124944
651,232,4.02979,0.394775,-0.00702259,-0.00109698,0.000831011,-0.000982644,-0.00713692,1.43407,0.00446658,0.0383589,1875,792,4.02976,-0.394782
658,232,4.15503,0.401306,-0.00597184,-0.00167399,0.000486992,-0.0016195,-0.00602633,1.45937,0.00360122,0.0195845,1882,792,4.15506,-0.401279
665,232,4.15222,0.43927,-0.00476276,-0.0018603,0.000227061,-0.00184264,-0.00478042,1.4932,0.00278401,0.0106431,1889,792,4.15225,-0.439279
672,232,4.11816,0.490479,-0.00343134,-0.00188746,0.00013345,-0.00187601,-0.0034428,1.4852,0.00199037,0.0177593,1896,792,4.11813,-0.490499
679,232,4.13477,0.526489,-0.00198695,-0.00139536,-2.29898e-05,-0.00139446,-0.00198785,-1.53201,0.00117834,0.0183149,1903,792,4.1348,-0.526491
686,232,4.15161,0.557678,-0.000474849,-0.000600172,0.000196923,-0.000330858,-0.000744163,0.631363,0.000430521,0.0174609,1910,792,4.15166,-0.557703
693,232,4.1615,0.582336,0.000282279,0.000494143,0.000308617,0.000714502,6.19199e-05,0.950722,0.000457095,0.00984106,1917,792,4.16156,-0.582346
700,232,4.17444,0.622681,-0.000145299,0.0020757,0.000435574,0.00215807,-0.000227667,1.3839,0.00152029,0.012037,1924,792,4.17448,-0.622692
707,232,4.18066,0.659058,-0.00120618,0.00404451,0.000556751,0.00410289,-0.00126457,1.46631,0.00324011,0.0123993,1931,792,4.18062,-0.659075
714,232,4.16528,0.686707,-0.00238659,0.00604547,0.000823994,0.00612524,-0.00246636,1.47429,0.0051081,0.0126161,1938,792,4.16532,-0.686727
721,232,4.17957,0.706726,-0.00432323,0.00871957,0.000912645,0.00878313,-0.00438678,1.50127,0.00774358,0.0167055,1945,792,4.17962,-0.706731
728,232,4.20154,0.724609,-0.00725877,0.0119629,0.000754596,0.0119925,-0.00728835,1.53162,0.0112417,0.0309824,1952,792,4.20159,-0.724592
735,232,4.22107,0.80719,-0.0113587,0.0158043,0.000201316,0.0158058,-0.0113602,1.56339,0.0157541,0.0463277,1959,792,4.22105,-0.807166
742,232,4.17078,0.850891,0,0,0,0,0,0,0,-1,1966,792,4.17074,-0.850868
749,232,3.50671,1.35748,-0.02404,0.0247695,-0.00279441,0.024929,-0.0241995,-1.51379,0.0283654,0.0465972,1973,792,3.50666,-1.35749
756,232,3.43604,1.53796,-0.0331418,0.0292663,-0.00575868,0.0297933,-0.0336687,-1.47955,0.0366626,0.0455231,1980,792,3.43604,-1.53796
763,232,3.32214,1.86926,0,0,0,0,0,0,0,-1,1987,792,3.3222,-1.86924
770,232,0,0,0,0,0,0,0,0,0,-1,1994,792,0,0
777,232,0,0,0,0,0,0,0,0,0,-1,2001,792,0,0
784,232,0,0,0,0,0,0,0,0,0,-1,2008,792,0,0
791,232,0,0,0,0,0,0,0,0,0,-1,2015,792,0,0
798,232,0,0,0,0,0,0,0,0,0,-1,2022,792,0,0
805,232,0,0,0,0,0,0,0,0,0,-1,2029,792,0,0
812,232,0,0,0,0,0,0,0,0,0,-1,2036,792,0,0
-700,225,0,0,0,0,0,0,0,0,0,-1,524,799,0,0
-693,225,0,0,0,0,0,0,0,0,0,-1,531,799,0,0
-686,225,0,0,0,0,0,0,0,0,0,-1,538,799,0,0
-679,225,0,0,0,0,0,0,0,0,0,-1,545,799,0,0
-672,225,0,0,0,0,0,0,0,0,0,-1,552,799,0,0
-665,225,0,0,0,0,0,0,0,0,0,-1,559,799,0,0
-658,225,0,0,0,0,0,0,0,0,0,-1,566,799,0,0
-651,225,0,0,0,0,0,0,0,0,0,-1,573,799,0,0
-644,225,-2.04016,6.63409,0,0,0,0,0,0,0,-1,580,799,-2.04019,-6.63407
-637,225,-1.61157,7.46808,0,0,0,0,0,0,0,-1,587,799,-1.61155,-7.4681
-630,225,-0.636658,8.34052,0,0,0,0,0,0,0,-1,594,799,-0.636669,-8.34054
-623,225,-1.73773,1.35699,0,0,0,0,0,0,0,-1,601,799,-1.73771,-1.357
-616,225,-0.667175,0.806335,0,0,0,0,0,0,0,-1,608,799,-0.667184,-0.806346
-609,225,-0.644348,0.808716,0.00817918,-0.0178426,-0.00943353,0.0112392,-0.0209026,-0.31367,0.0188346,0.0492469,615,799,-0.644353,-0.808733
-602,225,-0.343445,0.63031,0.00973475,-0.01091,-0.00935227,0.0133414,-0.0145166,-0.368066,0.0160886,0.0456589,622,799,-0.343466,-0.63032
-595,225,-0.43866,0.739014,0.0099559,-0.0062584,-0.0085149,0.0136058,-0.00990835,-0.404962,0.0136318,0.0267861,629,799,-0.438648,-0.739033
-588,225,-0.397034,0.704102,0.00915395,-0.00339331,-0.00716452,0.0124034,-0.00664275,-0.425799,0.0111627,0.0111464,636,799,-0.397026,-0.704091
-581,225,-0.368042,0.676697,0.00784852,-0.000733292,-0.0056563,0.0106573,-0.00354208,-0.460905,0.0085342,0.00967955,643,799,-0.368017,-0.676699
-574,225,-0.344666,0.622681,0.00644671,0.00097789,-0.00399593,0.00855424,-0.00112965,-0.485343,0.00611426,0.00848986,650,799,-0.344667,-0.62271
-567,225,-0.352844,0.559265,0.00495051,0.00145614,-0.00251343,0.00626437,0.000142279,-0.481669,0.00412964,0.0107265,657,799,-0.352844,-0.559237
-560,225,-0.374329,0.522156,0.00369359,0.000536917,-0.00139655,0.00422275,7.7656e-06,-0.362184,0.00281258,0.0107606,664,799,-0.374317,-0.522159
-553,225,-0.382874,0.50708,0.00224518,-0.00257059,0.000991122,0.00244119,-0.0027666,0.195239,0.00300867,0.0107041,671,799,-0.382874,-0.507107
-546,225,-0.39978,0.482788,0.00209818,-0.00289498,0.00203493,0.00282245,-0.00361924,0.341937,0.00372858,0.0187561,678,799,-0.399797,-0.482792
-539,225,-0.386169,0.466003,0.0024122,-0.00341884,0.00244993,0.00330489,-0.00431153,0.349419,0.00441012,0.020501,685,799,-0.386152,-0.465994
-532,225,-0.372375,0.430176,0.0030171,-0.00391964,0.00251716,0.00383425,-0.00473679,0.313899,0.00495763,0.0130376,692,799,-0.372372,-0.430171
-525,225,-0.352173,0.38916,0.00343278,-0.00458306,0.00263668,0.00422231,-0.00537259,0.290943,0.00555287,0.0308122,699,799,-0.352166,-0.389138
-518,225,0.0840454,1.00403,0.0038279,-0.00534343,0.00265962,0.00454336,-0.00605889,0.262786,0.00614202,0.0414516,706,799,0.0840329,-1.00404
-511,225,0.485962,1.78082,0.00426017,-0.00611122,0.00255196,0.00485409,-0.00670514,0.22866,0.00670219,0.0427792,713,799,0.485932,-1.7808
-504,225,0.792114,2.32886,0,0,0,0,0,0,0,-1,720,799,0.792141,-2.32884
-497,225,-1.46954,0.793701,0.00416946,-0.00695944,0.00142368,0.0043487,-0.00713868,0.12524,0.00669713,0.0439112,727,799,-1.46953,-0.7937
-490,225,-1.36908,0.785583,0.00349727,-0.00695263,0.000131637,0.00349893,-0.00695429,0.0125943,0.0061441,0.0398142,734,799,-1.36906,-0.785554
-483,225,-1.31354,0.776428,0.00229408,-0.00669408,-0.00184156,0.00265676,-0.00705676,-0.194452,0.00579672,0.0327692,741,799,-1.31351,-0.776408
-476,225,-1.28937,0.782776,0.000841346,-0.00642387,-0.0045792,0.00305382,-0.00863634,-0.450082,0.00700114,0.0304028,748,799,-1.28939,-0.782776
-469,225,-1.23773,0.913269,6.118e-05,-0.00627509,-0.00774646,0.00526232,-0.0114762,-0.591287,0.00988348,0.0358701,755,799,-1.23774,-0.913292
-462,225,0,0,0,0,0,0,0,0,0,-1,762,799,0,0
-455,225,0,0,0,0,0,0,0,0,0,-1,769,799,0,0
-448,225,0,0,0,0,0,0,0,0,0,-1,776,799,0,0
-441,225,0,0,0,0,0,0,0,0,0,-1,783,799,0,0
-434,225,0,0,0,0,0,0,0,0,0,-1,790,799,0,0
-427,225,0,0,0,0,0,0,0,0,0,-1,797,799,0,0
-420,225,0,0,0,0,0,0,0,0,0,-1,804,799,0,0
-413,225,0,0,0,0,0,0,0,0,0,-1,811,799,0,0
-406,225,0,0,0,0,0,0,0,0,0,-1,818,799,0,0
-399,225,0,0,0,0,0,0,0,0,0,-1,825,799,0,0
-392,225,0,0,0,0,0,0,0,0,0,-1,832,799,0,0
-385,225,0,0,0,0,0,0,0,0,0,-1,839,799,0,0
-378,225,0,0,0,0,0,0,0,0,0,-1,846,799,0,0
-371,225,0,0,0,0,0,0,0,0,0,-1,853,799,0,0
-364,225,0,0,0,0,0,0,0,0,0,-1,860,799,0,0
-357,225,0,0,0,0,0,0,0,0,0,-1,867,799,0,0
-350,225,0,0,0,0,0,0,0,0,0,-1,874,799,0,0
-343,225,0,0,0,0,0,0,0,0,0,-1,881,799,0,0
-336,225,0,0,0,0,0,0,0,0,0,-1,888,799,0,0
-329,225,0,0,0,0,0,0,0,0,0,-1,895,799,0,0
-322,225,0,0,0,0,0,0,0,0,0,-1,902,799,0,0
-315,225,0,0,0,0,0,0,0,0,0,-1,909,799,0,0
-308,225,0,0,0,0,0,0,0,0,0,-1,916,799,0,0
-301,225,0,0,0,0,0,0,0,0,0,-1,923,799,0,0
-294,225,0,0,0,0,0,0,0,0,0,-1,930,799,0,0
-287,225,0,0,0,0,0,0,0,0,0,-1,937,799,0,0
-280,225,0,0,0,0,0,0,0,0,0,-1,944,799,0,0
-273,225,0,0,0,0,0,0,0,0,0,-1,951,799,0,0
-266,225,0,0,0,0,0,0,0,0,0,-1,958,799,0,0
-259,225,0,0,0,0,0,0,0,0,0,-1,965,799,0,0
-252,225,0,0,0,0,0,0,0,0,0,-1,972,799,0,0
-245,225,0,0,0,0,0,0,0,0,0,-1,979,799,0,0
-238,225,0,0,0,0,0,0,0,0,0,-1,986,799,0,0
-231,225,0,0,0,0,0,0,0,0,0,-1,993,799,0,0
-224,225,0,0,0,0,0,0,0,0,0,-1,1000,799,0,0
-217,225,0,0,0,0,0,0,0,0,0,-1,1007,799,0,0
-210,225,0,0,0,0,0,0,0,0,0,-1,1014,799,0,0
-203,225,0,0,0,0,0,0,0,0,0,-1,1021,799,0,0
-196,225,0,0,0,0,0,0,0,0,0,-1,1028,799,0,0
-189,225,0,0,0,0,0,0,0,0,0,-1,1035,799,0,0
-182,225,0,0,0,0,0,0,0,0,0,-1,1042,799,0,0
-175,225,0,0,0,0,0,0,0,0,0,-1,1049,799,0,0
-168,225,0,0,0,0,0,0,0,0,0,-1,1056,799,0,0
-161,225,0,0,0,0,0,0,0,0,0,-1,1063,799,0,0
-154,225,0,0,0,0,0,0,0,0,0,-1,1070,799,0,0
-147,225,0,0,0,0,0,0,0,0,0,-1,1077,799,0,0
-140,225,0,0,0,0,0,0,0,0,0,-1,1084,799,0,0
-133,225,0,0,0,0,0,0,0,0,0,-1,1091,799,0,0
-126,225,0,0,0,0,0,0,0,0,0,-1,1098,799,0,0
-119,225,0,0,0,0,0,0,0,0,0,-1,1105,799,0,0
-112,225,0,0,0,0,0,0,0,0,0,-1,1112,799,0,0
-105,225,0,0,0,0,0,0,0,0,0,-1,1119,799,0,0
-98,225,0,0,0,0,0,0,0,0,0,-1,1126,799,0,0
-91,225,0,0,0,0,0,0,0,0,0,-1,1133,799,0,0
-84,225,0,0,0,0,0,0,0,0,0,-1,1140,799,0,0
-77,225,0,0,0,0,0,0,0,0,0,-1,1147,799,0,0
-70,225,0,0,0,0,0,0,0,0,0,-1,1154,799,0,0
-63,225,0,0,0,0,0,0,0,0,0,-1,1161,799,0,0
-56,225,0,0,0,0,0,0,0,0,0,-1,1168,799,0,0
-49,225,0,0,0,0,0,0,0,0,0,-1,1175,799,0,0
-42,225,0,0,0,0,0,0,0,0,0,-1,1182,799,0,0
-35,225,0,0,0,0,0,0,0,0,0,-1,1189,799,0,0
-28,225,0,0,0,0,0,0,0,0,0,-1,1196,799,0,0
-21,225,0,0,0,0,0,0,0,0,0,-1,1203,799,0,0
-14,225,0,0,0,0,0,0,0,0,0,-1,1210,799,0,0
-7,225,0,0,0,0,0,0,0,0,0,-1,1217,799,0,0
0,225,0,0,0,0,0,0,0,0,0,-1,1224,799,0,0
7,225,0,0,0,0,0,0,0,0,0,-1,1231,799,0,0
14,225,0,0,0,0,0,0,0,0,0,-1,1238,799,0,0
21,225,0,0,0,0,0,0,0,0,0,-1,1245,799,0,0
28,225,0,0,0,0,0,0,0,0,0,-1,1252,799,0,0
35,225,0,0,0,0,0,0,0,0,0,-1,1259,799,0,0
42,225,0,0,0,0,0,0,0,0,0,-1,1266,799,0,0
49,225,0,0,0,0,0,0,0,0,0,-1,1273,799,0,0
56,225,0,0,0,0,0,0,0,0,0,-1,1280,799,0,0
63,225,0,0,0,0,0,0,0,0,0,-1,1287,799,0,0
70,225,0,0,0,0,0,0,0,0,0,-1,1294,799,0,0
77,225,0,0,0,0,0,0,0,0,0,-1,1301,799,0,0
84,225,0,0,0,0,0,0,0,0,0,-1,1308,799,0,0
91,225,0,0,0,0,0,0,0,0,0,-1,1315,799,0,0
98,225,0,0,0,0,0,0,0,0,0,-1,1322,799,0,0
105,225,0,0,0,0,0,0,0,0,0,-1,1329,799,0,0
112,225,0,0,0,0,0,0,0,0,0,-1,1336,799,0,0
119,225,0,0,0,0,0,0,0,0,0,-1,1343,799,0,0
126,225,0,0,0,0,0,0,0,0,0,-1,1350,799,0,0
133,225,0,0,0,0,0,0,0,0,0,-1,1357,799,0,0
140,225,0,0,0,0,0,0,0,0,0,-1,1364,799,0,0
147,225,0,0,0,0,0,0,0,0,0,-1,1371,799,0,0
154,225,0,0,0,0,0,0,0,0,0,-1,1378,799,0,0
161,225,0,0,0,0,0,0,0,0,0,-1,1385,799,0,0
168,225,0,0,0,0,0,0,0,0,0,-1,1392,799,0,0
175,225,0,0,0,0,0,0,0,0,0,-1,1399,799,0,0
182,225,0,0,0,0,0,0,0,0,0,-1,1406,799,0,0
189,225,0,0,0,0,0,0,0,0,0,-1,1413,799,0,0
196,225,0,0,0,0,0,0,0,0,0,-1,1420,799,0,0
203,225,0,0,0,0,0,0,0,0,0,-1,1427,799,0,0
210,225,0,0,0,0,0,0,0,0,0,-1,1434,799,0,0
217,225,0,0,0,0,0,0,0,0,0,-1,1441,799,0,0
224,225,0,0,0,0,0,0,0,0,0,-1,1448,799,0,0
231,225,0,0,0,0,0,0,0,0,0,-1,1455,799,0,0
238,225,0,0,0,0,0,0,0,0,0,-1,1462,799,0,0
245,225,0,0,0,0,0,0,0,0,0,-1,1469,799,0,0
252,225,0,0,0,0,0,0,0,0,0,-1,1476,799,0,0
259,225,0,0,0,0,0,0,0,0,0,-1,1483,799,0,0
266,225,0,0,0,0,0,0,0,0,0,-1,1490,799,0,0
273,225,0,0,0,0,0,0,0,0,0,-1,1497,799,0,0
280,225,0,0,0,0,0,0,0,0,0,-1,1504,799,0,0
287,225,0,0,0,0,0,0,0,0,0,-1,1511,799,0,0
294,225,0,0,0,0,0,0,0,0,0,-1,1518,799,0,0
301,225,0,0,0,0,0,0,0,0,0,-1,1525,799,0,0
308,225,0,0,0,0,0,0,0,0,0,-1,1532,799,0,0
315,225,0,0,0,0,0,0,0,0,0,-1,1539,799,0,0
322,225,0,0,0,0,0,0,0,0,0,-1,1546,799,0,0
329,225,0,0,0,0,0,0,0,0,0,-1,1553,799,0,0
336,225,0,0,0,0,0,0,0,0,0,-1,1560,799,0,0
343,225,0,0,0,0,0,0,0,0,0,-1,1567,799,0,0
350,225,0,0,0,0,0,0,0,0,0,-1,1574,799,0,0
357,225,0,0,0,0,0,0,0,0,0,-1,1581,799,0,0
364,225,0,0,0,0,0,0,0,0,0,-1,1588,799,0,0
371,225,0,0,0,0,0,0,0,0,0,-1,1595,799,0,0
378,225,0,0,0,0,0,0,0,0,0,-1,1602,799,0,0
385,225,0,0,0,0,0,0,0,0,0,-1,1609,799,0,0
392,225,0,0,0,0,0,0,0,0,0,-1,1616,799,0,0
399,225,0,0,0,0,0,0,0,0,0,-1,1623,799,0,0
406,225,0,0,0,0,0,0,0,0,0,-1,1630,799,0,0
413,225,0,0,0,0,0,0,0,0,0,-1,1637,799,0,0
420,225,0,0,0,0,0,0,0,0,0,-1,1644,799,0,0
427,225,0,0,0,0,0,0,0,0,0,-1,1651,799,0,0
434,225,0,0,0,0,0,0,0,0,0,-1,1658,799,0,0
441,225,0,0,0,0,0,0,0,0,0,-1,1665,799,0,0
448,225,0,0,0,0,0,0,0,0,0,-1,1672,799,0,0
455,225,0,0,0,0,0,0,0,0,0,-1,1679,799,0,0
462,225,0,0,0,0,0,0,0,0,0,-1,1686,799,0,0
469,225,0,0,0,0,0,0,0,0,0,-1,1693,799,0,0
476,225,0,0,0,0,0,0,0,0,0,-1,1700,799,0,0
483,225,0,0,0,0,0,0,0,0,0,-1,1707,799,0,0
490,225,0,0,0,0,0,0,0,0,0,-1,1714,799,0,0
497,225,0,0,0,0,0,0,0,0,0,-1,1721,799,0,0
504,225,0,0,0,0,0,0,0,0,0,-1,1728,799,0,0
511,225,0,0,0,0,0,0,0,0,0,-1,1735,799,0,0
518,225,0,0,0,0,0,0,0,0,0,-1,1742,799,0,0
525,225,0,0,0,0,0,0,0,0,0,-1,1749,799,0,0
532,225,0,0,0,0,0,0,0,0,0,-1,1756,799,0,0
539,225,0,0,0,0,0,0,0,0,0,-1,1763,799,0,0
546,225,0,0,0,0,0,0,0,0,0,-1,1770,799,0,0
553,225,0,0,0,0,0,0,0,0,0,-1,1777,799,0,0
560,225,0,0,0,0,0,0,0,0,0,-1,1784,799,0,0
567,225,0,0,0,0,0,0,0,0,0,-1,1791,799,0,0
574,225,0,0,0,0,0,0,0,0,0,-1,1798,799,0,0
581,225,0,0,0,0,0,0,0,0,0,-1,1805,799,0,0
588,225,4.98364,0.766907,0.00329036,0.00285557,0.000234053,0.0033924,0.00275352,0.411138,0.00208158,0.0387381,1812,799,4.98365,-0.766936
595,225,4.87207,0.71283,0.000160662,0.00275372,0.000310345,0.00279034,0.000124036,1.45332,0.00182029,0.0369595,1819,799,4.87207,-0.71283
602,225,4.82458,0.661133,-0.00292332,0.00264391,0.000776544,0.00275019,-0.00302961,1.43477,0.00333827,0.0356112,1826,799,4.82458,-0.661147
609,225,4.92249,0.688354,-0.00520192,0.0018744,0.0011005,0.0020416,-0.00536912,1.42002,0.00442001,0.0325653,1833,799,4.92249,-0.68837
616,225,4.96057,0.732605,-0.00674236,0.000924687,0.00126611,0.00112836,-0.00694603,1.4113,0.00504901,0.0377985,1840,799,4.96055,-0.732612
623,225,5.08398,0.588501,-0.0075649,-4.85251e-05,0.00129531,0.000168436,-0.00778186,1.40484,0.00524495,0.0389105,1847,799,5.08393,-0.588483
630,225,4.7793,0.471008,0,0,0,0,0,0,0,-1,1854,799,4.77928,-0.471001
637,225,3.9353,0.813965,0,0,0,0,0,0,0,-1,1861,799,3.93535,-0.813963
644,225,3.22021,0.978027,0,0,0,0,0,0,0,-1,1868,799,3.22017,-0.978027
651,225,4.0802,0.442322,0,0,0,0,0,0,0,-1,1875,799,4.08021,-0.442305
658,225,4.22534,0.391357,-0.00521093,-0.00252999,-3.97189e-05,-0.00252941,-0.00521152,-1.55599,0.0030093,0.0318337,1882,799,4.22535,-0.391367
665,225,4.21033,0.408447,-0.00415166,-0.0025517,-0.000328389,-0.00248692,-0.00421644,-1.37604,0.00244742,0.0120214,1889,799,4.21036,-0.408453
672,225,4.17322,0.489685,-0.00303043,-0.00240336,-0.000454196,-0.00216499,-0.0032688,-1.0875,0.0019201,0.0166568,1896,799,4.17316,-0.4897
679,225,4.18323,0.510681,-0.00180797,-0.00187349,-0.000563065,-0.00127671,-0.00240475,-0.756342,0.00138927,0.0171562,1903,799,4.18317,-0.510675
686,225,4.21106,0.541077,-0.000433722,-0.00107809,-0.00031215,-0.000307308,-0.0012045,-0.38479,0.000722685,0.0106383,1910,799,4.21104,-0.54109
693,225,4.19653,0.584229,0.000289117,3.56369e-05,-0.000119996,0.000336911,-1.21571e-05,-0.379036,0.000228767,0.00974197,1917,799,4.19651,-0.584254
700,225,4.19873,0.630981,-4.40589e-05,0.00154869,7.5593e-05,0.00155227,-4.76385e-05,1.52348,0.00105109,0.0112376,1924,799,4.19874,-0.63096
707,225,4.19653,0.662781,-0.000928178,0.00341968,0.0002377,0.00343264,-0.000941135,1.51634,0.00265826,0.0115534,1931,799,4.19648,-0.662752
714,225,4.19861,0.689331,-0.00190482,0.00520921,0.000508101,0.00524532,-0.00194093,1.49985,0.0042927,0.0125856,1938,799,4.1986,-0.689319
721,225,4.22205,0.704712,-0.00353724,0.00762169,0.00055903,0.00764963,-0.00356517,1.52087,0.00661646,0.0135606,1945,799,4.22211,-0.704726
728,225,4.2251,0.736694,-0.00603299,0.0105093,0.000353221,0.0105169,-0.00604053,1.54946,0.00967517,0.0222821,1952,799,4.22512,-0.736687
735,225,4.21497,0.705872,-0.00952303,0.0139143,-0.000238589,0.0139167,-0.00952546,-1.56062,0.0136133,0.0423695,1959,799,4.21496,-0.705855
742,225,4.20691,0.677856,0,0,0,0,0,0,0,-1,1966,799,4.20694,-0.67787
749,225,3.55469,1.68622,0,0,0,0,0,0,0,-1,1973,799,3.5547,-1.68625
756,225,3.59546,1.36011,0,0,0,0,0,0,0,-1,1980,799,3.59542,-1.36013
763,225,3.39587,1.54108,0,0,0,0,0,0,0,-1,1987,799,3.39589,-1.54106
770,225,0,0,0,0,0,0,0,0,0,-1,1994,799,0,0
777,225,0,0,0,0,0,0,0,0,0,-1,2001,799,0,0
784,225,0,0,0,0,0,0,0,0,0,-1,2008,799,0,0
791,225,0,0,0,0,0,0,0,0,0,-1,2015,799,0,0
798,225,0,0,0,0,0,0,0,0,0,-1,2022,799,0,0
805,225,0,0,0,0,0,0,0,0,0,-1,2029,799,0,0
812,225,0,0,0,0,0,0,0,0,0,-1,2036,799,0,0
-700,218,0,0,0,0,0,0,0,0,0,-1,524,806,0,0
-693,218,0,0,0,0,0,0,0,0,0,-1,531,806,0,0
-686,218,0,0,0,0,0,0,0,0,0,-1,538,806,0,0
-679,218,0,0,0,0,0,0,0,0,0,-1,545,806,0,0
-672,218,0,0,0,0,0,0,0,0,0,-1,552,806,0,0
-665,218,0,0,0,0,0,0,0,0,0,-1,559,806,0,0
-658,218,0,0,0,0,0,0,0,0,0,-1,566,806,0,0
-651,218,-3.40424,7.53369,0,0,0,0,0,0,0,-1,573,806,-3.40423,-7.5337
-644,218,-2.47711,8.24463,0,0,0,0,0,0,0,-1,580,806,-2.47714,-8.24466
-637,218,-1.60211,8.8175,0,0,0,0,0,0,0,-1,587,806,-1.60212,-8.81752
-630,218,-0.674866,9.66943,0,0,0,0,0,0,0,-1,594,806,-0.674891,-9.66942
-623,218,-0.229309,-0.376953,0,0,0,0,0,0,0,-1,601,806,-0.229282,0.376927
-616,218,-0.714478,0.744263,0,0,0,0,0,0,0,-1,608,806,-0.714455,-0.744274
-609,218,-0.636841,0.74176,0.00711988,-0.00946822,-0.00873775,0.0108732,-0.0132216,-0.405722,0.0139331,0.0449676,615,806,-0.636853,-0.741738
-602,218,-0.548279,0.736084,0.00848122,-0.00424053,-0.00895758,0.0131067,-0.00886596,-0.476658,0.0127644,0.0383333,622,806,-0.548256,-0.73606
-595,218,-0.45929,0.726196,0.00877712,-0.00109896,-0.00837148,0.0135584,-0.00588028,-0.518932,0.0115111,0.0166925,629,806,-0.459286,-0.726169
-588,218,-0.420593,0.695496,0.00811256,0.000480677,-0.0071504,0.0124015,-0.0038083,-0.540289,0.00978729,0.0103884,636,806,-0.420563,-0.695478
-581,218,-0.402405,0.684204,0.00686272,0.00205986,-0.00561808,0.0105711,-0.00164851,-0.583428,0.00765629,0.00989543,643,806,-0.402389,-0.684225
-574,218,-0.396118,0.639343,0.00544983,0.00287003,-0.00385959,0.00822936,9.04989e-05,-0.62413,0.00545632,0.00997796,650,806,-0.396134,-0.639338
-567,218,-0.40033,0.565735,0.0039619,0.0025323,-0.00233672,0.00569071,0.000803493,-0.636968,0.00355636,0.0163496,657,806,-0.400302,-0.565707
-560,218,-0.411438,0.531189,0.00271335,0.00103484,-0.0011301,0.00328175,0.000466441,-0.466011,0.00205012,0.015952,664,806,-0.411426,-0.531216
-553,218,-0.387573,0.482544,0.00144907,-0.00209279,0.0011562,0.00179309,-0.0024368,0.289197,0.00245154,0.0169363,671,806,-0.38757,-0.482528
-546,218,-0.390503,0.467957,0.00133302,-0.00269358,0.00224407,0.00233455,-0.00369511,0.419775,0.00351064,0.0134007,678,806,-0.390517,-0.467979
-539,218,-0.400391,0.442261,0.00169283,-0.00327169,0.00266792,0.00285466,-0.00443352,0.410717,0.00424062,0.0130507,685,806,-0.400365,-0.442269
-532,218,-0.421021,0.394775,0.0025192,-0.00389119,0.00272419,0.00352048,-0.00489248,0.352227,0.00487871,0.0138385,692,806,-0.421013,-0.394764
-525,218,-0.405273,0.345764,0.00332109,-0.00467806,0.0028855,0.00425332,-0.00561029,0.312489,0.00571269,0.0405761,699,806,-0.40527,-0.345782
-518,218,-0.193359,0.360229,0.0040106,-0.00546554,0.00293123,0.00484401,-0.00629895,0.277011,0.00645165,0.0460432,706,806,-0.193333,-0.36024
-511,218,0.0923462,2.03436,0,0,0,0,0,0,0,-1,713,806,0.09236,-2.03437
-504,218,-1.7616,0.42218,0.0054951,-0.00676835,0.00251196,0.00598969,-0.00726294,0.194405,0.00766317,0.0430156,720,806,-1.76159,-0.422197
-497,218,-1.42902,0.710999,0.0059558,-0.00711399,0.00183575,0.00620874,-0.00736694,0.136929,0.00784743,0.0443383,727,806,-1.42903,-0.711021
-490,218,-1.26331,0.806824,0.00610573,-0.00716296,0.000681149,0.00614061,-0.00719784,0.0511558,0.00770901,0.0366682,734,806,-1.26331,-0.806843
-483,218,-1.30524,0.743896,0.00576692,-0.00688763,-0.00107448,0.0058575,-0.00697821,-0.0841063,0.00742011,0.031859,741,806,-1.30526,-0.743875
-476,218,-1.25958,0.838257,0.00507532,-0.00639974,-0.00350553,0.00606148,-0.0073859,-0.274228,0.00777639,0.0356696,748,806,-1.25957,-0.838226
-469,218,0,0,0,0,0,0,0,0,0,-1,755,806,0,0
-462,218,0,0,0,0,0,0,0,0,0,-1,762,806,0,0
-455,218,0,0,0,0,0,0,0,0,0,-1,769,806,0,0
-448,218,0,0,0,0,0,0,0,0,0,-1,776,806,0,0
-441,218,0,0,0,0,0,0,0,0,0,-1,783,806,0,0
-434,218,0,0,0,0,0,0,0,0,0,-1,790,806,0,0
-427,218,0,0,0,0,0,0,0,0,0,-1,797,806,0,0
-420,218,0,0,0,0,0,0,0,0,0,-1,804,806,0,0
-413,218,0,0,0,0,0,0,0,0,0,-1,811,806,0,0
-406,218,0,0,0,0,0,0,0,0,0,-1,818,806,0,0
-399,218,0,0,0,0,0,0,0,0,0,-1,825,806,0,0
-392,218,0,0,0,0,0,0,0,0,0,-1,832,806,0,0
-385,218,0,0,0,0,0,0,0,0,0,-1,839,806,0,0
-378,218,0,0,0,0,0,0,0,0,0,-1,846,806,0,0
-371,218,0,0,0,0,0,0,0,0,0,-1,853,806,0,0
-364,218,0,0,0,0,0,0,0,0,0,-1,860,806,0,0
-357,218,0,0,0,0,0,0,0,0,0,-1,867,806,0,0
-350,218,0,0,0,0,0,0,0,0,0,-1,874,806,0,0
-343,218,0,0,0,0,0,0,0,0,0,-1,881,806,0,0
-336,218,0,0,0,0,0,0,0,0,0,-1,888,806,0,0
-329,218,0,0,0,0,0,0,0,0,0,-1,895,806,0,0
-322,218,0,0,0,0,0,0,0,0,0,-1,902,806,0,0
-315,218,0,0,0,0,0,0,0,0,0,-1,909,806,0,0
-308,218,0,0,0,0,0,0,0,0,0,-1,916,806,0,0
-301,218,0,0,0,0,0,0,0,0,0,-1,923,806,0,0
-294,218,0,0,0,0,0,0,0,0,0,-1,930,806,0,0
-287,218,0,0,0,0,0,0,0,0,0,-1,937,806,0,0
-280,218,0,0,0,0,0,0,0,0,0,-1,944,806,0,0
-273,218,0,0,0,0,0,0,0,0,0,-1,951,806,0,0
-266,218,0,0,0,0,0,0,0,0,0,-1,958,806,0,0
-259,218,0,0,0,0,0,0,0,0,0,-1,965,806,0,0
-252,218,0,0,0,0,0,0,0,0,0,-1,972,806,0,0
-245,218,0,0,0,0,0,0,0,0,0,-1,979,806,0,0
-238,218,0,0,0,0,0,0,0,0,0,-1,986,806,0,0
-231,218,0,0,0,0,0,0,0,0,0,-1,993,806,0,0
-224,218,0,0,0,0,0,0,0,0,0,-1,1000,806,0,0
-217,218,0,0,0,0,0,0,0,0,0,-1,1007,806,0,0
-210,218,0,0,0,0,0,0,0,0,0,-1,1014,806,0,0
-203,218,0,0,0,0,0,0,0,0,0,-1,1021,806,0,0
-196,218,0,0,0,0,0,0,0,0,0,-1,1028,806,0,0
-189,218,0,0,0,0,0,0,0,0,0,-1,1035,806,0,0
-182,218,0,0,0,0,0,0,0,0,0,-1,1042,806,0,0
-175,218,0,0,0,0,0,0,0,0,0,-1,1049,806,0,0
-168,218,0,0,0,0,0,0,0,0,0,-1,1056,806,0,0
-161,218,0,0,0,0,0,0,0,0,0,-1,1063,806,0,0
-154,218,0,0,0,0,0,0,0,0,0,-1,1070,806,0,0
-147,218,0,0,0,0,0,0,0,0,0,-1,1077,806,0,0
-140,218,0,0,0,0,0,0,0,0,0,-1,1084,806,0,0
-133,218,0,0,0,0,0,0,0,0,0,-1,1091,806,0,0
-126,218,0,0,0,0,0,0,0,0,0,-1,1098,806,0,0
-119,218,0,0,0,0,0,0,0,0,0,-1,1105,806,0,0
-112,218,0,0,0,0,0,0,0,0,0,-1,1112,806,0,0
-105,218,0,0,0,0,0,0,0,0,0,-1,1119,806,0,0
-98,218,0,0,0,0,0,0,0,0,0,-1,1126,806,0,0
-91,218,0,0,0,0,0,0,0,0,0,-1,1133,806,0,0
-84,218,0,0,0,0,0,0,0,0,0,-1,1140,806,0,0
-77,218,0,0,0,0,0,0,0,0,0,-1,1147,806,0,0
-70,218,0,0,0,0,0,0,0,0,0,-1,1154,806,0,0
-63,218,0,0,0,0,0,0,0,0,0,-1,1161,806,0,0
-56,218,0,0,0,0,0,0,0,0,0,-1,1168,806,0,0
-49,218,0,0,0,0,0,0,0,0,0,-1,1175,806,0,0
-42,218,0,0,0,0,0,0,0,0,0,-1,1182,806,0,0
-35,218,0,0,0,0,0,0,0,0,0,-1,1189,806,0,0
-28,218,0,0,0,0,0,0,0,0,0,-1,1196,806,0,0
-21,218,0,0,0,0,0,0,0,0,0,-1,1203,806,0,0
-14,218,0,0,0,0,0,0,0,0,0,-1,1210,806,0,0
-7,218,0,0,0,0,0,0,0,0,0,-1,1217,806,0,0
0,218,0,0,0,0,0,0,0,0,0,-1,1224,806,0,0
7,218,0,0,0,0,0,0,0,0,0,-1,1231,806,0,0
14,218,0,0,0,0,0,0,0,0,0,-1,1238,806,0,0
21,218,0,0,0,0,0,0,0,0,0,-1,1245,806,0,0
28,218,0,0,0,0,0,0,0,0,0,-1,1252,806,0,0
35,218,0,0,0,0,0,0,0,0,0,-1,1259,806,0,0
42,218,0,0,0,0,0,0,0,0,0,-1,1266,806,0,0
49,218,0,0,0,0,0,0,0,0,0,-1,1273,806,0,0
56,218,0,0,0,0,0,0,0,0,0,-1,1280,806,0,0
63,218,0,0,0,0,0,0,0,0,0,-1,1287,806,0,0
70,218,0,0,0,0,0,0,0,0,0,-1,1294,806,0,0
77,218,0,0,0,0,0,0,0,0,0,-1,1301,806,0,0
84,218,0,0,0,0,0,0,0,0,0,-1,1308,806,0,0
91,218,0,0,0,0,0,0,0,0,0,-1,1315,806,0,0
98,218,0,0,0,0,0,0,0,0,0,-1,1322,806,0,0
105,218,0,0,0,0,0,0,0,0,0,-1,1329,806,0,0
112,218,0,0,0,0,0,0,0,0,0,-1,1336,806,0,0
119,218,0,0,0,0,0,0,0,0,0,-1,1343,806,0,0
126,218,0,0,0,0,0,0,0,0,0,-1,1350,806,0,0
133,218,0,0,0,0,0,0,0,0,0,-1,1357,806,0,0
140,218,0,0,0,0,0,0,0,0,0,-1,1364,806,0,0
147,218,0,0,0,0,0,0,0,0,0,-1,1371,806,0,0
154,218,0,0,0,0,0,0,0,0,0,-1,1378,806,0,0
161,218,0,0,0,0,0,0,0,0,0,-1,1385,806,0,0
168,218,0,0,0,0,0,0,0,0,0,-1,1392,806,0,0
175,218,0,0,0,0,0,0,0,0,0,-1,1399,806,0,0
182,218,0,0,0,0,0,0,0,0,0,-1,1406,806,0,0
189,218,0,0,0,0,0,0,0,0,0,-1,1413,806,0,0
196,218,0,0,0,0,0,0,0,0,0,-1,1420,806,0,0
203,218,0,0,0,0,0,0,0,0,0,-1,1427,806,0,0
210,218,0,0,0,0,0,0,0,0,0,-1,1434,806,0,0
217,218,0,0,0,0,0,0,0,0,0,-1,1441,806,0,0
224,218,0,0,0,0,0,0,0,0,0,-1,1448,806,0,0
231,218,0,0,0,0,0,0,0,0,0,-1,1455,806,0,0
238,218,0,0,0,0,0,0,0,0,0,-1,1462,806,0,0
245,218,0,0,0,0,0,0,0,0,0,-1,1469,806,0,0
252,218,0,0,0,0,0,0,0,0,0,-1,1476,806,0,0
259,218,0,0,0,0,0,0,0,0,0,-1,1483,806,0,0
266,218,0,0,0,0,0,0,0,0,0,-1,1490,806,0,0
273,218,0,0,0,0,0,0,0,0,0,-1,1497,806,0,0
280,218,0,0,0,0,0,0,0,0,0,-1,1504,806,0,0
287,218,0,0,0,0,0,0,0,0,0,-1,1511,806,0,0
294,218,0,0,0,0,0,0,0,0,0,-1,1518,806,0,0
301,218,0,0,0,0,0,0,0,0,0,-1,1525,806,0,0
308,218,0,0,0,0,0,0,0,0,0,-1,1532,806,0,0
315,218,0,0,0,0,0,0,0,0,0,-1,1539,806,0,0
322,218,0,0,0,0,0,0,0,0,0,-1,1546,806,0,0
329,218,0,0,0,0,0,0,0,0,0,-1,1553,806,0,0
336,218,0,0,0,0,0,0,0,0,0,-1,1560,806,0,0
343,218,0,0,0,0,0,0,0,0,0,-1,1567,806,0,0
350,218,0,0,0,0,0,0,0,0,0,-1,1574,806,0,0
357,218,0,0,0,0,0,0,0,0,0,-1,1581,806,0,0
364,218,0,0,0,0,0,0,0,0,0,-1,1588,806,0,0
371,218,0,0,0,0,0,0,0,0,0,-1,1595,806,0,0
378,218,0,0,0,0,0,0,0,0,0,-1,1602,806,0,0
385,218,0,0,0,0,0,0,0,0,0,-1,1609,806,0,0
392,218,0,0,0,0,0,0,0,0,0,-1,1616,806,0,0
399,218,0,0,0,0,0,0,0,0,0,-1,1623,806,0,0
406,218,0,0,0,0,0,0,0,0,0,-1,1630,806,0,0
413,218,0,0,0,0,0,0,0,0,0,-1,1637,806,0,0
420,218,0,0,0,0,0,0,0,0,0,-1,1644,806,0,0
427,218,0,0,0,0,0,0,0,0,0,-1,1651,806,0,0
434,218,0,0,0,0,0,0,0,0,0,-1,1658,806,0,0
441,218,0,0,0,0,0,0,0,0,0,-1,1665,806,0,0
448,218,0,0,0,0,0,0,0,0,0,-1,1672,806,0,0
455,218,0,0,0,0,0,0,0,0,0,-1,1679,806,0,0
462,218,0,0,0,0,0,0,0,0,0,-1,1686,806,0,0
469,218,0,0,0,0,0,0,0,0,0,-1,1693,806,0,0
476,218,0,0,0,0,0,0,0,0,0,-1,1700,806,0,0
483,218,0,0,0,0,0,0,0,0,0,-1,1707,806,0,0
490,218,0,0,0,0,0,0,0,0,0,-1,1714,806,0,0
497,218,0,0,0,0,0,0,0,0,0,-1,1721,806,0,0
504,218,0,0,0,0,0,0,0,0,0,-1,1728,806,0,0
511,218,0,0,0,0,0,0,0,0,0,-1,1735,806,0,0
518,218,0,0,0,0,0,0,0,0,0,-1,1742,806,0,0
525,218,0,0,0,0,0,0,0,0,0,-1,1749,806,0,0
532,218,0,0,0,0,0,0,0,0,0,-1,1756,806,0,0
539,218,0,0,0,0,0,0,0,0,0,-1,1763,806,0,0
546,218,0,0,0,0,0,0,0,0,0,-1,1770,806,0,0
553,218,0,0,0,0,0,0,0,0,0,-1,1777,806,0,0
560,218,0,0,0,0,0,0,0,0,0,-1,1784,806,0,0
567,218,0,0,0,0,0,0,0,0,0,-1,1791,806,0,0
574,218,0,0,0,0,0,0,0,0,0,-1,1798,806,0,0
581,218,0,0,0,0,0,0,0,0,0,-1,1805,806,0,0
588,218,0,0,0,0,0,0,0,0,0,-1,1812,806,0,0
595,218,4.88818,0.705994,0.000883522,0.00286323,-0.000167388,0.00287728,0.000869469,-1.48704,0.00170399,0.0379219,1819,806,4.88823,-0.706018
602,218,4.8584,0.698364,-0.00172284,0.00220129,0.000628596,0.00229952,-0.00182108,1.41577,0.00238437,0.0346384,1826,806,4.85838,-0.698352
609,218,4.91064,0.707153,-0.00375773,0.00098524,0.00107611,0.00121797,-0.00399046,1.3578,0.0031459,0.0304458,1833,806,4.91061,-0.707175
616,218,4.89063,0.759583,-0.00520563,-0.000152871,0.00120497,0.000119774,-0.00547828,1.34828,0.00369276,0.0308088,1840,806,4.89062,-0.759579
623,218,4.83252,0.779175,-0.00600895,-0.00117192,0.00110512,-0.000931395,-0.00624948,1.35649,0.00389317,0.034145,1847,806,4.83247,-0.779146
630,218,4.87769,0.758484,-0.00621012,-0.00192905,0.000782932,-0.00179036,-0.00634881,1.39547,0.00377983,0.0388312,1854,806,4.87766,-0.758511
637,218,4.25342,1.65369,0,0,0,0,0,0,0,-1,1861,806,4.25344,-1.6537
644,218,3.91077,1.07562,0,0,0,0,0,0,0,-1,1868,806,3.91081,-1.0756
651,218,4.32861,0.701782,-0.00510015,-0.00293043,-0.000137031,-0.00292181,-0.00510877,-1.50797,0.0029597,0.0419707,1875,806,4.32861,-0.701762
658,218,4.29077,0.383362,-0.00438385,-0.00309634,-0.000588604,-0.00286781,-0.00461237,-1.20046,0.00268915,0.0402956,1882,806,4.29077,-0.38337
665,218,4.25903,0.407715,-0.00350061,-0.00300236,-0.000881986,-0.00233499,-0.00416798,-0.923042,0.00241219,0.0239282,1889,806,4.25909,-0.407719
672,218,4.23157,0.469055,-0.00264309,-0.00278659,-0.000984339,-0.00172789,-0.00370179,-0.749017,0.0021388,0.0108341,1896,806,4.23157,-0.469027
679,218,4.24695,0.516968,-0.00167528,-0.00226548,-0.001023,-0.000905668,-0.00303509,-0.644976,0.00179916,0.0107709,1903,806,4.2469,-0.516981
686,218,4.2572,0.553711,-0.000460936,-0.00150994,-0.000732169,-8.4786e-05,-0.00188609,-0.474585,0.00123011,0.0103413,1910,806,4.2572,-0.553739
693,218,4.24756,0.593994,0.000204446,-0.000428989,-0.000462462,0.000448247,-0.00067279,-0.485155,0.000651544,0.0113971,1917,806,4.24759,-0.593998
700,218,4.23157,0.630981,-7.5882e-06,0.000975356,-0.000180879,0.00100758,-3.98163e-05,-1.39447,0.000685381,0.00940971,1924,806,4.23156,-0.630964
707,218,4.21631,0.664856,-0.000660364,0.00270956,6.11995e-05,0.00271067,-0.000661475,1.55264,0.00206326,0.0071172,1931,806,4.21627,-0.664858
714,218,4.24243,0.694824,-0.00137468,0.00427229,0.000391499,0.00429931,-0.0014017,1.50191,0.00343027,0.00941085,1938,806,4.24247,-0.694816
721,218,4.27307,0.719727,-0.00262855,0.00640391,0.000477697,0.00642911,-0.00265375,1.51811,0.00539288,0.0120494,1945,806,4.27301,-0.719734
728,218,4.29321,0.734131,-0.00460079,0.0089034,0.000319651,0.00891096,-0.00460835,1.54714,0.00793605,0.0178488,1952,806,4.29321,-0.734101
735,218,4.32849,0.707886,-0.00739611,0.0118094,-0.000211271,0.0118117,-0.00739843,-1.5598,0.0111881,0.0343479,1959,806,4.32845,-0.707879
742,218,3.81128,1.38776,-0.0111591,0.0150826,-0.00118919,0.0151364,-0.0112129,-1.5256,0.0152689,0.047911,1966,806,3.81125,-1.38774
749,218,3.76135,1.23083,-0.0160785,0.0185253,-0.00274993,0.0187424,-0.0162957,-1.49199,0.0202457,0.0491297,1973,806,3.76136,-1.23082
756,218,3.60864,1.16644,-0.0223295,0.021777,-0.00509364,0.0223576,-0.0229101,-1.4573,0.026136,0.0456541,1980,806,3.60868,-1.16643
763,218,3.60498,1.18018,0,0,0,0,0,0,0,-1,1987,806,3.605,-1.18015
770,218,0,0,0,0,0,0,0,0,0,-1,1994,806,0,0
777,218,0,0,0,0,0,0,0,0,0,-1,2001,806,0,0
784,218,0,0,0,0,0,0,0,0,0,-1,2008,806,0,0
791,218,0,0,0,0,0,0,0,0,0,-1,2015,806,0,0
798,218,0,0,0,0,0,0,0,0,0,-1,2022,806,0,0
805,218,0,0,0,0,0,0,0,0,0,-1,2029,806,0,0
812,218,0,0,0,0,0,0,0,0,0,-1,2036,806,0,0
-700,211,0,0,0,0,0,0,0,0,0,-1,524,813,0,0
-693,211,0,0,0,0,0,0,0,0,0,-1,531,813,0,0
-686,211,0,0,0,0,0,0,0,0,0,-1,538,813,0,0
-679,211,0,0,0,0,0,0,0,0,0,-1,545,813,0,0
-672,211,0,0,0,0,0,0,0,0,0,-1,552,813,0,0
-665,211,0,0,0,0,0,0,0,0,0,-1,559,813,0,0
-658,211,0,0,0,0,0,0,0,0,0,-1,566,813,0,0
-651,211,0.0108032,-0.746094,0,0,0,0,0,0,0,-1,573,813,0.0107901,0.746124
-644,211,-2.37323,9.41205,0,0,0,0,0,0,0,-1,580,813,-2.37321,-9.41208
-637,211,-1.70074,10.1003,0,0,0,0,0,0,0,-1,587,813,-1.70075,-10.1003
-630,211,-0.190735,-0.0639648,0,0,0,0,0,0,0,-1,594,813,-0.190709,0.0639584
-623,211,-0.38446,-0.134949,-0.000879311,-0.0159095,-0.00257985,-0.000448822,-0.01634,-0.165342,0.0107468,0.0492748,601,813,-0.384469,0.13494
-616,211,-0.800232,0.631104,0.00380372,-0.0082263,-0.00590928,0.00622079,-0.0106434,-0.388266,0.00984749,0.0450964,608,813,-0.80023,-0.631113
-609,211,-0.623535,0.621704,0.00659936,-0.00276819,-0.00751902,0.0107741,-0.00694294,-0.506846,0.0103084,0.0366206,615,813,-0.623553,-0.621699
-602,211,-0.471558,0.717285,0.00762606,0.000654329,-0.00786587,0.0127439,-0.00446348,-0.576821,0.010311,0.0193988,622,813,-0.471551,-0.717279
-595,211,-0.451843,0.719604,0.00789266,0.00237026,-0.00752053,0.0131429,-0.00287995,-0.609461,0.00986306,0.0103263,629,813,-0.451821,-0.719602
-588,211,-0.439636,0.7005,0.00730451,0.00285422,-0.00650629,0.0119556,-0.00179691,-0.620634,0.00863197,0.00985178,636,813,-0.43961,-0.700521
-581,211,-0.436646,0.666199,0.00608284,0.00357224,-0.00506806,0.0100487,-0.000393664,-0.663997,0.00683417,0.0107253,643,813,-0.436618,-0.666221
-574,211,-0.463379,0.629639,0.00459733,0.00370382,-0.00331536,0.0074959,0.000805244,-0.718425,0.00475165,0.0127557,650,813,-0.463376,-0.629664
-567,211,-0.468506,0.598755,0.00307377,0.00281777,-0.00186302,0.00481318,0.00107835,-0.751099,0.00291656,0.018555,657,813,-0.468508,-0.598783
-560,211,-0.443909,0.556152,0.0018106,0.0010904,-0.000691577,0.00223021,0.00067079,-0.545367,0.00132124,0.0204179,664,813,-0.443935,-0.556182
-553,211,-0.416199,0.513428,0.000699808,-0.00171905,0.00135143,0.00130396,-0.0023232,0.420396,0.00212152,0.0183139,671,813,-0.416195,-0.51343
-546,211,-0.40863,0.509583,0.000580473,-0.00240457,0.0024404,0.00194858,-0.00377268,0.51095,0.00335866,0.0159522,678,813,-0.408642,-0.509596
-539,211,-0.451172,0.459106,0.000916769,-0.00301594,0.00286122,0.00242217,-0.00452134,0.484342,0.00406945,0.0103651,685,813,-0.451146,-0.459106
-532,211,-0.477966,0.437988,0.00180597,-0.00368801,0.0029042,0.00305652,-0.00493856,0.406606,0.0046584,0.0280717,692,813,-0.477971,-0.437961
-525,211,-0.415649,0.218079,0.00274484,-0.00448826,0.00307319,0.00387422,-0.00561764,0.352176,0.00551086,0.0432069,699,813,-0.415621,-0.218102
-518,211,-0.339478,0.0188599,0,0,0,0,0,0,0,-1,706,813,-0.339471,-0.0188876
-511,211,-1.75763,0.276184,0,0,0,0,0,0,0,-1,713,813,-1.75763,-0.276162
-504,211,-1.51648,0.480713,0.00560743,-0.00669474,0.002773,0.0062036,-0.00729091,0.211766,0.00779948,0.0424256,720,813,-1.51647,-0.480696
-497,211,-1.22797,0.814331,0.00643594,-0.00714968,0.00215981,0.00677104,-0.00748477,0.153924,0.00823403,0.0419729,727,813,-1.22795,-0.814318
-490,211,-1.2038,0.873291,0.0070176,-0.00734211,0.00111625,0.00710385,-0.00742837,0.0771178,0.00839088,0.0326184,734,813,-1.20378,-0.873317
-483,211,-1.22083,0.783386,0.00709645,-0.00723407,-0.000445623,0.00711029,-0.00724791,-0.0310561,0.00828984,0.0308207,741,813,-1.22085,-0.783396
-476,211,-1.00818,1.01343,0.0067851,-0.00684721,-0.00262004,0.00727131,-0.00733342,-0.183488,0.00843207,0.0350895,748,813,-1.00817,-1.01344
-469,211,0,0,0,0,0,0,0,0,0,-1,755,813,0,0
-462,211,0,0,0,0,0,0,0,0,0,-1,762,813,0,0
-455,211,0,0,0,0,0,0,0,0,0,-1,769,813,0,0
-448,211,0,0,0,0,0,0,0,0,0,-1,776,813,0,0
-441,211,0,0,0,0,0,0,0,0,0,-1,783,813,0,0
-434,211,0,0,0,0,0,0,0,0,0,-1,790,813,0,0
-427,211,0,0,0,0,0,0,0,0,0,-1,797,813,0,0
-420,211,0,0,0,0,0,0,0,0,0,-1,804,813,0,0
-413,211,0,0,0,0,0,0,0,0,0,-1,811,813,0,0
-406,211,0,0,0,0,0,0,0,0,0,-1,818,813,0,0
-399,211,0,0,0,0,0,0,0,0,0,-1,825,813,0,0
-392,211,0,0,0,0,0,0,0,0,0,-1,832,813,0,0
-385,211,0,0,0,0,0,0,0,0,0,-1,839,813,0,0
-378,211,0,0,0,0,0,0,0,0,0,-1,846,813,0,0
-371,211,0,0,0,0,0,0,0,0,0,-1,853,813,0,0
-364,211,0,0,0,0,0,0,0,0,0,-1,860,813,0,0
-357,211,0,0,0,0,0,0,0,0,0,-1,867,813,0,0
-350,211,0,0,0,0,0,0,0,0,0,-1,874,813,0,0
-343,211,0,0,0,0,0,0,0,0,0,-1,881,813,0,0
-336,211,0,0,0,0,0,0,0,0,0,-1,888,813,0,0
-329,211,0,0,0,0,0,0,0,0,0,-1,895,813,0,0
-322,211,0,0,0,0,0,0,0,0,0,-1,902,813,0,0
-315,211,0,0,0,0,0,0,0,0,0,-1,909,813,0,0
-308,211,0,0,0,0,0,0,0,0,0,-1,916,813,0,0
-301,211,0,0,0,0,0,0,0,0,0,-1,923,813,0,0
-294,211,0,0,0,0,0,0,0,0,0,-1,930,813,0,0
-287,211,0,0,0,0,0,0,0,0,0,-1,937,813,0,0
-280,211,0,0,0,0,0,0,0,0,0,-1,944,813,0,0
-273,211,0,0,0,0,0,0,0,0,0,-1,951,813,0,0
-266,211,0,0,0,0,0,0,0,0,0,-1,958,813,0,0
-259,211,0,0,0,0,0,0,0,0,0,-1,965,813,0,0
-252,211,0,0,0,0,0,0,0,0,0,-1,972,813,0,0
-245,211,0,0,0,0,0,0,0,0,0,-1,979,813,0,0
-238,211,0,0,0,0,0,0,0,0,0,-1,986,813,0,0
-231,211,0,0,0,0,0,0,0,0,0,-1,993,813,0,0
-224,211,0,0,0,0,0,0,0,0,0,-1,1000,813,0,0
-217,211,0,0,0,0,0,0,0,0,0,-1,1007,813,0,0
-210,211,0,0,0,0,0,0,0,0,0,-1,1014,813,0,0
-203,211,0,0,0,0,0,0,0,0,0,-1,1021,813,0,0
-196,211,0,0,0,0,0,0,0,0,0,-1,1028,813,0,0
-189,211,0,0,0,0,0,0,0,0,0,-1,1035,813,0,0
-182,211,0,0,0,0,0,0,0,0,0,-1,1042,813,0,0
-175,211,0,0,0,0,0,0,0,0,0,-1,1049,813,0,0
-168,211,0,0,0,0,0,0,0,0,0,-1,1056,813,0,0
-161,211,0,0,0,0,0,0,0,0,0,-1,1063,813,0,0
-154,211,0,0,0,0,0,0,0,0,0,-1,1070,813,0,0
-147,211,0,0,0,0,0,0,0,0,0,-1,1077,813,0,0
-140,211,0,0,0,0,0,0,0,0,0,-1,1084,813,0,0
-133,211,0,0,0,0,0,0,0,0,0,-1,1091,813,0,0
-126,211,0,0,0,0,0,0,0,0,0,-1,1098,813,0,0
-119,211,0,0,0,0,0,0,0,0,0,-1,1105,813,0,0
-112,211,0,0,0,0,0,0,0,0,0,-1,1112,813,0,0
-105,211,0,0,0,0,0,0,0,0,0,-1,1119,813,0,0
-98,211,0,0,0,0,0,0,0,0,0,-1,1126,813,0,0
-91,211,0,0,0,0,0,0,0,0,0,-1,1133,813,0,0
-84,211,0,0,0,0,0,0,0,0,0,-1,1140,813,0,0
-77,211,0,0,0,0,0,0,0,0,0,-1,1147,813,0,0
-70,211,0,0,0,0,0,0,0,0,0,-1,1154,813,0,0
-63,211,0,0,0,0,0,0,0,0,0,-1,1161,813,0,0
-56,211,0,0,0,0,0,0,0,0,0,-1,1168,813,0,0
-49,211,0,0,0,0,0,0,0,0,0,-1,1175,813,0,0
-42,211,0,0,0,0,0,0,0,0,0,-1,1182,813,0,0
-35,211,0,0,0,0,0,0,0,0,0,-1,1189,813,0,0
-28,211,0,0,0,0,0,0,0,0,0,-1,1196,813,0,0
-21,211,0,0,0,0,0,0,0,0,0,-1,1203,813,0,0
-14,211,0,0,0,0,0,0,0,0,0,-1,1210,813,0,0
-7,211,0,0,0,0,0,0,0,0,0,-1,1217,813,0,0
0,211,0,0,0,0,0,0,0,0,0,-1,1224,813,0,0
7,211,0,0,0,0,0,0,0,0,0,-1,1231,813,0,0
14,211,0,0,0,0,0,0,0,0,0,-1,1238,813,0,0
21,211,0,0,0,0,0,0,0,0,0,-1,1245,813,0,0
28,211,0,0,0,0,0,0,0,0,0,-1,1252,813,0,0
35,211,0,0,0,0,0,0,0,0,0,-1,1259,813,0,0
42,211,0,0,0,0,0,0,0,0,0,-1,1266,813,0,0
49,211,0,0,0,0,0,0,0,0,0,-1,1273,813,0,0
56,211,0,0,0,0,0,0,0,0,0,-1,1280,813,0,0
63,211,0,0,0,0,0,0,0,0,0,-1,1287,813,0,0
70,211,0,0,0,0,0,0,0,0,0,-1,1294,813,0,0
77,211,0,0,0,0,0,0,0,0,0,-1,1301,813,0,0
84,211,0,0,0,0,0,0,0,0,0,-1,1308,813,0,0
91,211,0,0,0,0,0,0,0,0,0,-1,1315,813,0,0
98,211,0,0,0,0,0,0,0,0,0,-1,1322,813,0,0
105,211,0,0,0,0,0,0,0,0,0,-1,1329,813,0,0
112,211,0,0,0,0,0,0,0,0,0,-1,1336,813,0,0
119,211,0,0,0,0,0,0,0,0,0,-1,1343,813,0,0
126,211,0,0,0,0,0,0,0,0,0,-1,1350,813,0,0
133,211,0,0,0,0,0,0,0,0,0,-1,1357,813,0,0
140,211,0,0,0,0,0,0,0,0,0,-1,1364,813,0,0
147,211,0,0,0,0,0,0,0,0,0,-1,1371,813,0,0
154,211,0,0,0,0,0,0,0,0,0,-1,1378,813,0,0
161,211,0,0,0,0,0,0,0,0,0,-1,1385,813,0,0
168,211,0,0,0,0,0,0,0,0,0,-1,1392,813,0,0
175,211,0,0,0,0,0,0,0,0,0,-1,1399,813,0,0
182,211,0,0,0,0,0,0,0,0,0,-1,1406,813,0,0
189,211,0,0,0,0,0,0,0,0,0,-1,1413,813,0,0
196,211,0,0,0,0,0,0,0,0,0,-1,1420,813,0,0
203,211,0,0,0,0,0,0,0,0,0,-1,1427,813,0,0
210,211,0,0,0,0,0,0,0,0,0,-1,1434,813,0,0
217,211,0,0,0,0,0,0,0,0,0,-1,1441,813,0,0
224,211,0,0,0,0,0,0,0,0,0,-1,1448,813,0,0
231,211,0,0,0,0,0,0,0,0,0,-1,1455,813,0,0
238,211,0,0,0,0,0,0,0,0,0,-1,1462,813,0,0
245,211,0,0,0,0,0,0,0,0,0,-1,1469,813,0,0
252,211,0,0,0,0,0,0,0,0,0,-1,1476,813,0,0
259,211,0,0,0,0,0,0,0,0,0,-1,1483,813,0,0
266,211,0,0,0,0,0,0,0,0,0,-1,1490,813,0,0
273,211,0,0,0,0,0,0,0,0,0,-1,1497,813,0,0
280,211,0,0,0,0,0,0,0,0,0,-1,1504,813,0,0
287,211,0,0,0,0,0,0,0,0,0,-1,1511,813,0,0
294,211,0,0,0,0,0,0,0,0,0,-1,1518,813,0,0
301,211,0,0,0,0,0,0,0,0,0,-1,1525,813,0,0
308,211,0,0,0,0,0,0,0,0,0,-1,1532,813,0,0
315,211,0,0,0,0,0,0,0,0,0,-1,1539,813,0,0
322,211,0,0,0,0,0,0,0,0,0,-1,1546,813,0,0
329,211,0,0,0,0,0,0,0,0,0,-1,1553,813,0,0
336,211,0,0,0,0,0,0,0,0,0,-1,1560,813,0,0
343,211,0,0,0,0,0,0,0,0,0,-1,1567,813,0,0
350,211,0,0,0,0,0,0,0,0,0,-1,1574,813,0,0
357,211,0,0,0,0,0,0,0,0,0,-1,1581,813,0,0
364,211,0,0,0,0,0,0,0,0,0,-1,1588,813,0,0
371,211,0,0,0,0,0,0,0,0,0,-1,1595,813,0,0
378,211,0,0,0,0,0,0,0,0,0,-1,1602,813,0,0
385,211,0,0,0,0,0,0,0,0,0,-1,1609,813,0,0
392,211,0,0,0,0,0,0,0,0,0,-1,1616,813,0,0
399,211,0,0,0,0,0,0,0,0,0,-1,1623,813,0,0
406,211,0,0,0,0,0,0,0,0,0,-1,1630,813,0,0
413,211,0,0,0,0,0,0,0,0,0,-1,1637,813,0,0
420,211,0,0,0,0,0,0,0,0,0,-1,1644,813,0,0
427,211,0,0,0,0,0,0,0,0,0,-1,1651,813,0,0
434,211,0,0,0,0,0,0,0,0,0,-1,1658,813,0,0
441,211,0,0,0,0,0,0,0,0,0,-1,1665,813,0,0
448,211,0,0,0,0,0,0,0,0,0,-1,1672,813,0,0
455,211,0,0,0,0,0,0,0,0,0,-1,1679,813,0,0
462,211,0,0,0,0,0,0,0,0,0,-1,1686,813,0,0
469,211,0,0,0,0,0,0,0,0,0,-1,1693,813,0,0
476,211,0,0,0,0,0,0,0,0,0,-1,1700,813,0,0
483,211,0,0,0,0,0,0,0,0,0,-1,1707,813,0,0
490,211,0,0,0,0,0,0,0,0,0,-1,1714,813,0,0
497,211,0,0,0,0,0,0,0,0,0,-1,1721,813,0,0
504,211,0,0,0,0,0,0,0,0,0,-1,1728,813,0,0
511,211,0,0,0,0,0,0,0,0,0,-1,1735,813,0,0
518,211,0,0,0,0,0,0,0,0,0,-1,1742,813,0,0
525,211,0,0,0,0,0,0,0,0,0,-1,1749,813,0,0
532,211,0,0,0,0,0,0,0,0,0,-1,1756,813,0,0
539,211,0,0,0,0,0,0,0,0,0,-1,1763,813,0,0
546,211,0,0,0,0,0,0,0,0,0,-1,1770,813,0,0
553,211,0,0,0,0,0,0,0,0,0,-1,1777,813,0,0
560,211,0,0,0,0,0,0,0,0,0,-1,1784,813,0,0
567,211,0,0,0,0,0,0,0,0,0,-1,1791,813,0,0
574,211,0,0,0,0,0,0,0,0,0,-1,1798,813,0,0
581,211,0,0,0,0,0,0,0,0,0,-1,1805,813,0,0
588,211,0,0,0,0,0,0,0,0,0,-1,1812,813,0,0
595,211,4.93799,0.56366,0.00063284,0.00439489,-0.00123897,0.00476627,0.000261468,-1.27958,0.00309404,0.0373736,1819,813,4.93799,-0.56363
602,211,5.03662,0.741394,-0.00125554,0.00290952,0.000213238,0.00292041,-0.00126642,1.51978,0.00247935,0.0373762,1826,813,5.03661,-0.741379
609,211,5.00195,0.954529,-0.00282154,0.000965517,0.00097937,0.0012038,-0.00305982,1.33213,0.00253816,0.038891,1833,813,5.00197,-0.954558
616,211,4.84546,0.753418,-0.00400868,-0.000575115,0.00115953,-0.000220218,-0.00436358,1.27378,0.00283849,0.0307374,1840,813,4.84546,-0.753422
623,211,4.81311,0.768555,-0.00472453,-0.00179402,0.000980568,-0.00149618,-0.00502237,1.27592,0.00297757,0.0301097,1847,813,4.81315,-0.768549
630,211,4.82312,0.795532,-0.00495881,-0.00263039,0.00056499,-0.00250054,-0.00508866,1.34489,0.00293809,0.0365196,1854,813,4.82315,-0.795541
637,211,5.05334,0.674194,-0.00489326,-0.00315077,0.000197682,-0.00312862,-0.0049154,1.45924,0.00287294,0.0410334,1861,813,5.05331,-0.674177
644,211,4.15686,1.60577,0,0,0,0,0,0,0,-1,1868,813,4.15684,-1.60577
651,211,4.4397,1.39856,0,0,0,0,0,0,0,-1,1875,813,4.43964,-1.39855
658,211,4.28381,0.438354,0,0,0,0,0,0,0,-1,1882,813,4.28376,-0.438347
665,211,4.33093,0.391113,-0.00297998,-0.00341027,-0.00136574,-0.00181255,-0.0045777,-0.707276,0.00266195,0.0356252,1889,813,4.33096,-0.3911
672,211,4.25,0.478149,-0.00236454,-0.00316141,-0.00145854,-0.00125098,-0.00427496,-0.652065,0.00253792,0.0135823,1896,813,4.25006,-0.478129
679,211,4.26819,0.502869,-0.00167276,-0.00263472,-0.0014804,-0.000597168,-0.00371032,-0.628329,0.00230047,0.0108736,1903,813,4.26815,-0.502871
686,211,4.27551,0.554199,-0.000723012,-0.00191289,-0.0012114,3.16559e-05,-0.00266755,-0.55714,0.00178901,0.00971834,1910,813,4.27553,-0.55419
693,211,4.27625,0.586487,-0.000198433,-0.0008615,-0.000933968,0.000461099,-0.00152103,-0.614849,0.00119768,0.0114575,1917,813,4.27623,-0.586503
700,211,4.23206,0.61377,-0.000363431,0.000436554,-0.000644825,0.000795372,-0.000722249,-1.06301,0.000876538,0.0138494,1924,813,4.23212,-0.613755
707,211,4.26563,0.689575,-0.00086232,0.00203197,-0.000389243,0.0020834,-0.000913754,-1.43942,0.00177379,0.0191224,1931,813,4.26557,-0.689597
714,211,4.27087,0.743103,-0.00143588,0.00339612,-7.16749e-05,0.00339718,-0.00143695,-1.55597,0.00286645,0.021052,1938,813,4.27084,-0.743118
721,211,4.2937,0.722229,-0.0024637,0.00526796,-2.88774e-05,0.00526807,-0.00246381,-1.56706,0.00456082,0.0158452,1945,813,4.29373,-0.722259
728,211,4.31628,0.742065,-0.00409311,0.00738209,-0.000201893,0.00738564,-0.00409666,-1.55321,0.00671935,0.0143308,1952,813,4.31623,-0.742047
735,211,4.33191,0.764282,-0.00638637,0.00975901,-0.000720961,0.00979114,-0.0064185,-1.52626,0.00942592,0.0241704,1959,813,4.33191,-0.764293
742,211,4.47961,0.717224,-0.00943654,0.0123892,-0.00162162,0.012509,-0.00955637,-1.49704,0.0127774,0.0466767,1966,813,4.47964,-0.717202
749,211,3.95496,0.879517,-0.0133626,0.0150889,-0.00296828,0.0153953,-0.013669,-1.46794,0.0167901,0.0494126,1973,813,3.95498,-0.879512
756,211,3.75403,0.88501,-0.0182875,0.0175234,-0.00489541,0.0181806,-0.0189446,-1.43736,0.0214357,0.0444882,1980,813,3.75407,-0.885019
763,211,3.90222,0.589661,0,0,0,0,0,0,0,-1,1987,813,3.90225,-0.589647
770,211,0.970093,0.525635,0,0,0,0,0,0,0,-1,1994,813,0.970104,-0.525631
777,211,0,0,0,0,0,0,0,0,0,-1,2001,813,0,0
784,211,0,0,0,0,0,0,0,0,0,-1,2008,813,0,0
791,211,0,0,0,0,0,0,0,0,0,-1,2015,813,0,0
798,211,0,0,0,0,0,0,0,0,0,-1,2022,813,0,0
805,211,0,0,0,0,0,0,0,0,0,-1,2029,813,0,0
812,211,0,0,0,0,0,0,0,0,0,-1,2036,813,0,0
-700,204,0,0,0,0,0,0,0,0,0,-1,524,820,0,0
-693,204,0,0,0,0,0,0,0,0,0,-1,531,820,0,0
-686,204,0,0,0,0,0,0,0,0,0,-1,538,820,0,0
-679,204,0,0,0,0,0,0,0,0,0,-1,545,820,0,0
-672,204,0,0,0,0,0,0,0,0,0,-1,552,820,0,0
-665,204,0,0,0,0,0,0,0,0,0,-1,559,820,0,0
-658,204,0,0,0,0,0,0,0,0,0,-1,566,820,0,0
-651,204,0.0771484,-0.661499,0,0,0,0,0,0,0,-1,573,820,0.0771644,0.661504
-644,204,-0.115723,-0.159607,0,0,0,0,0,0,0,-1,580,820,-0.115727,0.15959
-637,204,-0.422119,0.074646,-0.013288,-0.0217455,0.0113344,-0.00541918,-0.0296143,0.606853,0.0182073,0.0470586,587,820,-0.422115,-0.0746578
-630,204,-0.512085,0.146545,-0.00624029,-0.0134484,0.00431276,-0.00422393,-0.0154648,0.437338,0.00922988,0.0432396,594,820,-0.512081,-0.146563
-623,204,-0.575684,0.0963745,-0.000809896,-0.00673054,-0.000597195,-0.000750259,-0.00679017,-0.0995308,0.00429858,0.0414271,601,820,-0.575665,-0.0964029
-616,204,-0.415466,0.209839,0.0030141,-0.00169088,-0.00373558,0.00507621,-0.003753,-0.504394,0.00511659,0.0411923,608,820,-0.415484,-0.209837
-609,204,-0.474548,0.510437,0.00534407,0.00170629,-0.00540599,0.00922896,-0.0021786,-0.623118,0.00699289,0.0308887,615,820,-0.474542,-0.510457
-602,204,-0.463196,0.740479,0.00610535,0.00356736,-0.00598723,0.0109566,-0.00128388,-0.680969,0.0077678,0.0135106,622,820,-0.463221,-0.74047
-595,204,-0.465393,0.735413,0.00641444,0.00415768,-0.00599738,0.0113887,-0.00081655,-0.692412,0.00787875,0.0135985,629,820,-0.465381,-0.735421
-588,204,-0.480225,0.684875,0.0059886,0.00388893,-0.00532524,0.0103665,-0.000488978,-0.688074,0.00707963,0.011949,636,820,-0.480215,-0.68485
-581,204,-0.476563,0.646729,0.00488909,0.0040386,-0.00413033,0.00861601,0.000311682,-0.734101,0.00564298,0.012055,643,820,-0.476537,-0.646734
-574,204,-0.490845,0.606567,0.00344377,0.00377626,-0.00250878,0.00612429,0.00109574,-0.818483,0.00377106,0.0132155,650,820,-0.490863,-0.606581
-567,204,-0.48645,0.578491,0.00195597,0.00257733,-0.00122452,0.00352997,0.00100333,-0.909634,0.00210033,0.0129413,657,820,-0.486425,-0.578468
-560,204,-0.475708,0.536865,0.00071915,0.000829186,-0.000146368,0.000930535,0.000617801,-0.965173,0.000546784,0.0128226,664,820,-0.475679,-0.536851
-553,204,-0.461426,0.496704,-0.000247408,-0.00157941,0.00163341,0.000850561,-0.00267738,0.591819,0.00212594,0.0095735,671,820,-0.461397,-0.49672
-546,204,-0.478577,0.493958,-0.000361217,-0.00231898,0.00267827,0.00151145,-0.00419165,0.610194,0.00341174,0.00964533,678,820,-0.478581,-0.493941
-539,204,-0.499146,0.492859,-4.31947e-06,-0.00295655,0.00309976,0.00195285,-0.00491372,0.563183,0.00408542,0.0147218,685,820,-0.499161,-0.492889
-532,204,-0.479309,1.0274,0,0,0,0,0,0,0,-1,692,820,-0.479302,-1.0274
-525,204,-0.696594,0.212524,0,0,0,0,0,0,0,-1,699,820,-0.696586,-0.212523
-518,204,-0.913879,-0.602356,0,0,0,0,0,0,0,-1,706,820,-0.913871,0.60235
-511,204,-2.6532,-0.87561,0,0,0,0,0,0,0,-1,713,820,-2.65319,0.875623
-504,204,-2.83246,-1.12024,0,0,0,0,0,0,0,-1,720,820,-2.83245,1.12025
-497,204,-1.20172,0.847839,0.00670383,-0.00667442,0.00263285,0.00720332,-0.00717392,0.187489,0.00830071,0.0361854,727,820,-1.20173,-0.847855
-490,204,-1.21924,0.849731,0.00756771,-0.00679628,0.00163155,0.0077507,-0.00697927,0.11169,0.00850824,0.0323966,734,820,-1.21926,-0.849706
-483,204,-1.15692,0.814941,0.00775445,-0.00664647,0.000132415,0.00775567,-0.00664768,0.00919383,0.00832398,0.0384556,741,820,-1.1569,-0.814914
-476,204,0,0,0,0,0,0,0,0,0,-1,748,820,0,0
-469,204,0,0,0,0,0,0,0,0,0,-1,755,820,0,0
-462,204,0,0,0,0,0,0,0,0,0,-1,762,820,0,0
-455,204,0,0,0,0,0,0,0,0,0,-1,769,820,0,0
-448,204,0,0,0,0,0,0,0,0,0,-1,776,820,0,0
-441,204,0,0,0,0,0,0,0,0,0,-1,783,820,0,0
-434,204,0,0,0,0,0,0,0,0,0,-1,790,820,0,0
-427,204,0,0,0,0,0,0,0,0,0,-1,797,820,0,0
-420,204,0,0,0,0,0,0,0,0,0,-1,804,820,0,0
-413,204,0,0,0,0,0,0,0,0,0,-1,811,820,0,0
-406,204,0,0,0,0,0,0,0,0,0,-1,818,820,0,0
-399,204,0,0,0,0,0,0,0,0,0,-1,825,820,0,0
-392,204,0,0,0,0,0,0,0,0,0,-1,832,820,0,0
-385,204,0,0,0,0,0,0,0,0,0,-1,839,820,0,0
-378,204,0,0,0,0,0,0,0,0,0,-1,846,820,0,0
-371,204,0,0,0,0,0,0,0,0,0,-1,853,820,0,0
-364,204,0,0,0,0,0,0,0,0,0,-1,860,820,0,0
-357,204,0,0,0,0,0,0,0,0,0,-1,867,820,0,0
-350,204,0,0,0,0,0,0,0,0,0,-1,874,820,0,0
-343,204,0,0,0,0,0,0,0,0,0,-1,881,820,0,0
-336,204,0,0,0,0,0,0,0,0,0,-1,888,820,0,0
-329,204,0,0,0,0,0,0,0,0,0,-1,895,820,0,0
-322,204,0,0,0,0,0,0,0,0,0,-1,902,820,0,0
-315,204,0,0,0,0,0,0,0,0,0,-1,909,820,0,0
-308,204,0,0,0,0,0,0,0,0,0,-1,916,820,0,0
-301,204,0,0,0,0,0,0,0,0,0,-1,923,820,0,0
-294,204,0,0,0,0,0,0,0,0,0,-1,930,820,0,0
-287,204,0,0,0,0,0,0,0,0,0,-1,937,820,0,0
-280,204,0,0,0,0,0,0,0,0,0,-1,944,820,0,0
-273,204,0,0,0,0,0,0,0,0,0,-1,951,820,0,0
-266,204,0,0,0,0,0,0,0,0,0,-1,958,820,0,0
-259,204,0,0,0,0,0,0,0,0,0,-1,965,820,0,0
-252,204,0,0,0,0,0,0,0,0,0,-1,972,820,0,0
-245,204,0,0,0,0,0,0,0,0,0,-1,979,820,0,0
-238,204,0,0,0,0,0,0,0,0,0,-1,986,820,0,0
-231,204,0,0,0,0,0,0,0,0,0,-1,993,820,0,0
-224,204,0,0,0,0,0,0,0,0,0,-1,1000,820,0,0
-217,204,0,0,0,0,0,0,0,0,0,-1,1007,820,0,0
-210,204,0,0,0,0,0,0,0,0,0,-1,1014,820,0,0
-203,204,0,0,0,0,0,0,0,0,0,-1,1021,820,0,0
-196,204,0,0,0,0,0,0,0,0,0,-1,1028,820,0,0
-189,204,0,0,0,0,0,0,0,0,0,-1,1035,820,0,0
-182,204,0,0,0,0,0,0,0,0,0,-1,1042,820,0,0
-175,204,0,0,0,0,0,0,0,0,0,-1,1049,820,0,0
-168,204,0,0,0,0,0,0,0,0,0,-1,1056,820,0,0
-161,204,0,0,0,0,0,0,0,0,0,-1,1063,820,0,0
-154,204,0,0,0,0,0,0,0,0,0,-1,1070,820,0,0
-147,204,0,0,0,0,0,0,0,0,0,-1,1077,820,0,0
-140,204,0,0,0,0,0,0,0,0,0,-1,1084,820,0,0
-133,204,0,0,0,0,0,0,0,0,0,-1,1091,820,0,0
-126,204,0,0,0,0,0,0,0,0,0,-1,1098,820,0,0
-119,204,0,0,0,0,0,0,0,0,0,-1,1105,820,0,0
-112,204,0,0,0,0,0,0,0,0,0,-1,1112,820,0,0
-105,204,0,0,0,0,0,0,0,0,0,-1,1119,820,0,0
-98,204,0,0,0,0,0,0,0,0,0,-1,1126,820,0,0
-91,204,0,0,0,0,0,0,0,0,0,-1,1133,820,0,0
-84,204,0,0,0,0,0,0,0,0,0,-1,1140,820,0,0
-77,204,0,0,0,0,0,0,0,0,0,-1,1147,820,0,0
-70,204,0,0,0,0,0,0,0,0,0,-1,1154,820,0,0
-63,204,0,0,0,0,0,0,0,0,0,-1,1161,820,0,0
-56,204,0,0,0,0,0,0,0,0,0,-1,1168,820,0,0
-49,204,0,0,0,0,0,0,0,0,0,-1,1175,820,0,0
-42,204,0,0,0,0,0,0,0,0,0,-1,1182,820,0,0
-35,204,0,0,0,0,0,0,0,0,0,-1,1189,820,0,0
-28,204,0,0,0,0,0,0,0,0,0,-1,1196,820,0,0
-21,204,0,0,0,0,0,0,0,0,0,-1,1203,820,0,0
-14,204,0,0,0,0,0,0,0,0,0,-1,1210,820,0,0
-7,204,0,0,0,0,0,0,0,0,0,-1,1217,820,0,0
0,204,0,0,0,0,0,0,0,0,0,-1,1224,820,0,0
7,204,0,0,0,0,0,0,0,0,0,-1,1231,820,0,0
14,204,0,0,0,0,0,0,0,0,0,-1,1238,820,0,0
21,204,0,0,0,0,0,0,0,0,0,-1,1245,820,0,0
28,204,0,0,0,0,0,0,0,0,0,-1,1252,820,0,0
35,204,0,0,0,0,0,0,0,0,0,-1,1259,820,0,0
42,204,0,0,0,0,0,0,0,0,0,-1,1266,820,0,0
49,204,0,0,0,0,0,0,0,0,0,-1,1273,820,0,0
56,204,0,0,0,0,0,0,0,0,0,-1,1280,820,0,0
63,204,0,0,0,0,0,0,0,0,0,-1,1287,820,0,0
70,204,0,0,0,0,0,0,0,0,0,-1,1294,820,0,0
77,204,0,0,0,0,0,0,0,0,0,-1,1301,820,0,0
84,204,0,0,0,0,0,0,0,0,0,-1,1308,820,0,0
91,204,0,0,0,0,0,0,0,0,0,-1,1315,820,0,0
98,204,0,0,0,0,0,0,0,0,0,-1,1322,820,0,0
105,204,0,0,0,0,0,0,0,0,0,-1,1329,820,0,0
112,204,0,0,0,0,0,0,0,0,0,-1,1336,820,0,0
119,204,0,0,0,0,0,0,0,0,0,-1,1343,820,0,0
126,204,0,0,0,0,0,0,0,0,0,-1,1350,820,0,0
133,204,0,0,0,0,0,0,0,0,0,-1,1357,820,0,0
140,204,0,0,0,0,0,0,0,0,0,-1,1364,820,0,0
147,204,0,0,0,0,0,0,0,0,0,-1,1371,820,0,0
154,204,0,0,0,0,0,0,0,0,0,-1,1378,820,0,0
161,204,0,0,0,0,0,0,0,0,0,-1,1385,820,0,0
168,204,0,0,0,0,0,0,0,0,0,-1,1392,820,0,0
175,204,0,0,0,0,0,0,0,0,0,-1,1399,820,0,0
182,204,0,0,0,0,0,0,0,0,0,-1,1406,820,0,0
189,204,0,0,0,0,0,0,0,0,0,-1,1413,820,0,0
196,204,0,0,0,0,0,0,0,0,0,-1,1420,820,0,0
203,204,0,0,0,0,0,0,0,0,0,-1,1427,820,0,0
210,204,0,0,0,0,0,0,0,0,0,-1,1434,820,0,0
217,204,0,0,0,0,0,0,0,0,0,-1,1441,820,0,0
224,204,0,0,0,0,0,0,0,0,0,-1,1448,820,0,0
231,204,0,0,0,0,0,0,0,0,0,-1,1455,820,0,0
238,204,0,0,0,0,0,0,0,0,0,-1,1462,820,0,0
245,204,0,0,0,0,0,0,0,0,0,-1,1469,820,0,0
252,204,0,0,0,0,0,0,0,0,0,-1,1476,820,0,0
259,204,0,0,0,0,0,0,0,0,0,-1,1483,820,0,0
266,204,0,0,0,0,0,0,0,0,0,-1,1490,820,0,0
273,204,0,0,0,0,0,0,0,0,0,-1,1497,820,0,0
280,204,0,0,0,0,0,0,0,0,0,-1,1504,820,0,0
287,204,0,0,0,0,0,0,0,0,0,-1,1511,820,0,0
294,204,0,0,0,0,0,0,0,0,0,-1,1518,820,0,0
301,204,0,0,0,0,0,0,0,0,0,-1,1525,820,0,0
308,204,0,0,0,0,0,0,0,0,0,-1,1532,820,0,0
315,204,0,0,0,0,0,0,0,0,0,-1,1539,820,0,0
322,204,0,0,0,0,0,0,0,0,0,-1,1546,820,0,0
329,204,0,0,0,0,0,0,0,0,0,-1,1553,820,0,0
336,204,0,0,0,0,0,0,0,0,0,-1,1560,820,0,0
343,204,0,0,0,0,0,0,0,0,0,-1,1567,820,0,0
350,204,0,0,0,0,0,0,0,0,0,-1,1574,820,0,0
357,204,0,0,0,0,0,0,0,0,0,-1,1581,820,0,0
364,204,0,0,0,0,0,0,0,0,0,-1,1588,820,0,0
371,204,0,0,0,0,0,0,0,0,0,-1,1595,820,0,0
378,204,0,0,0,0,0,0,0,0,0,-1,1602,820,0,0
385,204,0,0,0,0,0,0,0,0,0,-1,1609,820,0,0
392,204,0,0,0,0,0,0,0,0,0,-1,1616,820,0,0
399,204,0,0,0,0,0,0,0,0,0,-1,1623,820,0,0
406,204,0,0,0,0,0,0,0,0,0,-1,1630,820,0,0
413,204,0,0,0,0,0,0,0,0,0,-1,1637,820,0,0
420,204,0,0,0,0,0,0,0,0,0,-1,1644,820,0,0
427,204,0,0,0,0,0,0,0,0,0,-1,1651,820,0,0
434,204,0,0,0,0,0,0,0,0,0,-1,1658,820,0,0
441,204,0,0,0,0,0,0,0,0,0,-1,1665,820,0,0
448,204,0,0,0,0,0,0,0,0,0,-1,1672,820,0,0
455,204,0,0,0,0,0,0,0,0,0,-1,1679,820,0,0
462,204,0,0,0,0,0,0,0,0,0,-1,1686,820,0,0
469,204,0,0,0,0,0,0,0,0,0,-1,1693,820,0,0
476,204,0,0,0,0,0,0,0,0,0,-1,1700,820,0,0
483,204,0,0,0,0,0,0,0,0,0,-1,1707,820,0,0
490,204,0,0,0,0,0,0,0,0,0,-1,1714,820,0,0
497,204,0,0,0,0,0,0,0,0,0,-1,1721,820,0,0
504,204,0,0,0,0,0,0,0,0,0,-1,1728,820,0,0
511,204,0,0,0,0,0,0,0,0,0,-1,1735,820,0,0
518,204,0,0,0,0,0,0,0,0,0,-1,1742,820,0,0
525,204,0,0,0,0,0,0,0,0,0,-1,1749,820,0,0
532,204,0,0,0,0,0,0,0,0,0,-1,1756,820,0,0
539,204,0,0,0,0,0,0,0,0,0,-1,1763,820,0,0
546,204,0,0,0,0,0,0,0,0,0,-1,1770,820,0,0
553,204,0,0,0,0,0,0,0,0,0,-1,1777,820,0,0
560,204,0,0,0,0,0,0,0,0,0,-1,1784,820,0,0
567,204,0,0,0,0,0,0,0,0,0,-1,1791,820,0,0
574,204,0,0,0,0,0,0,0,0,0,-1,1798,820,0,0
581,204,0,0,0,0,0,0,0,0,0,-1,1805,820,0,0
588,204,0,0,0,0,0,0,0,0,0,-1,1812,820,0,0
595,204,0,0,0,0,0,0,0,0,0,-1,1819,820,0,0
602,204,5.05139,0.704407,-0.00190584,0.00398454,-0.000889705,0.00411599,-0.00203729,-1.42411,0.00361954,0.0374867,1826,820,5.05133,-0.704382
609,204,4.97974,0.88269,-0.00256805,0.00181973,2.58334e-05,0.00181988,-0.0025682,1.56491,0.00254571,0.0420633,1833,820,4.97968,-0.882698
616,204,4.88708,0.765564,-0.00318382,6.83483e-05,0.000247849,8.71287e-05,-0.0032026,1.49517,0.00216469,0.0368778,1840,820,4.88711,-0.765567
623,204,4.90173,0.684204,-0.00363347,-0.00138386,9.80383e-05,-0.0013796,-0.00363773,1.52733,0.00212056,0.0286637,1847,820,4.90168,-0.684223
630,204,4.93018,0.701477,-0.00380677,-0.00240879,-0.000296604,-0.00234846,-0.0038671,-1.37014,0.00224974,0.0293111,1854,820,4.93019,-0.701471
637,204,4.97278,0.645691,-0.00378533,-0.00308351,-0.000650152,-0.00269561,-0.00417323,-1.03286,0.00244338,0.0346027,1861,820,4.97275,-0.645686
644,204,4.98682,0.653931,-0.00359871,-0.0034519,-0.000960456,-0.00256205,-0.00448857,-0.823538,0.00260012,0.039407,1868,820,4.98685,-0.653949
651,204,4.62122,1.80627,0,0,0,0,0,0,0,-1,1875,820,4.62115,-1.80625
658,204,4.73071,-0.0628052,0,0,0,0,0,0,0,-1,1882,820,4.73067,0.0628146
665,204,4.32471,0.438354,0,0,0,0,0,0,0,-1,1889,820,4.32465,-0.438331
672,204,4.29456,0.502747,-0.00205587,-0.00339096,-0.00194163,-0.000670238,-0.0047766,-0.619825,0.00298616,0.017738,1896,820,4.29452,-0.502723
679,204,4.28943,0.509949,-0.0016027,-0.00293492,-0.00192699,-0.000229941,-0.00430768,-0.61899,0.00279829,0.0115758,1903,820,4.28949,-0.509964
686,204,4.30688,0.54071,-0.000942406,-0.00226638,-0.0016601,0.00018283,-0.00339162,-0.595678,0.00232442,0.00967159,1910,820,4.30685,-0.540716
693,204,4.28967,0.574768,-0.00056115,-0.00126067,-0.00137689,0.000509704,-0.00233153,-0.661017,0.00174919,0.0155064,1917,820,4.28965,-0.574757
700,204,4.31946,0.608948,-0.000671552,-8.39439e-05,-0.00107702,0.000738625,-0.00149412,-0.918555,0.00131344,0.0170392,1924,820,4.31946,-0.608973
707,204,4.29138,0.682129,-0.00100146,0.00134206,-0.000790262,0.00158364,-0.00124305,-1.27412,0.00163593,0.015437,1931,820,4.29139,-0.682101
714,204,4.29285,0.76062,-0.00138834,0.00250253,-0.000447084,0.00255324,-0.00143905,-1.45785,0.00233468,0.0250059,1938,820,4.29282,-0.760607
721,204,4.29431,0.726013,-0.00213543,0.00409807,-0.000385796,0.00412186,-0.00215922,-1.50922,0.00368492,0.0224537,1945,820,4.29429,-0.726011
728,204,4.29614,0.745667,-0.00335849,0.00581456,-0.00049799,0.00584152,-0.00338545,-1.51672,0.00538973,0.0125042,1952,820,4.2962,-0.745676
735,204,4.31726,0.786011,-0.00507725,0.00764804,-0.000926004,0.00771507,-0.00514428,-1.49853,0.00747364,0.0144183,1959,820,4.31725,-0.785983
742,204,4.3761,0.765808,-0.00736414,0.00962615,-0.00167847,0.00979038,-0.00752837,-1.47326,0.0100274,0.0304847,1966,820,4.37615,-0.765789
749,204,4.31262,0.698059,-0.0102852,0.0115903,-0.00275927,0.011933,-0.0106279,-1.44724,0.0130328,0.0462666,1973,820,4.31263,-0.698084
756,204,4.11816,0.692017,-0.0139115,0.0132556,-0.00424987,0.0139049,-0.0145608,-1.41919,0.0164362,0.0499399,1980,820,4.11821,-0.69202
763,204,4.12427,0.787354,-0.0183051,0.0141029,-0.00626486,0.0152718,-0.019474,-1.38633,0.0201093,0.048515,1987,820,4.12423,-0.787339
770,204,4.15027,1.10162,0,0,0,0,0,0,0,-1,1994,820,4.15022,-1.10165
777,204,0,0,0,0,0,0,0,0,0,-1,2001,820,0,0
784,204,0,0,0,0,0,0,0,0,0,-1,2008,820,0,0
791,204,0,0,0,0,0,0,0,0,0,-1,2015,820,0,0
798,204,0,0,0,0,0,0,0,0,0,-1,2022,820,0,0
805,204,0,0,0,0,0,0,0,0,0,-1,2029,820,0,0
812,204,0,0,0,0,0,0,0,0,0,-1,2036,820,0,0
-700,197,0,0,0,0,0,0,0,0,0,-1,524,827,0,0
-693,197,0,0,0,0,0,0,0,0,0,-1,531,827,0,0
-686,197,0,0,0,0,0,0,0,0,0,-1,538,827,0,0
-679,197,0,0,0,0,0,0,0,0,0,-1,545,827,0,0
-672,197,0,0,0,0,0,0,0,0,0,-1,552,827,0,0
-665,197,0,0,0,0,0,0,0,0,0,-1,559,827,0,0
-658,197,1.66809,-1.97015,0,0,0,0,0,0,0,-1,566,827,1.66807,1.97013
-651,197,0.125671,-0.581726,0,0,0,0,0,0,0,-1,573,827,0.125682,0.581707
-644,197,0.165222,0.587402,0,0,0,0,0,0,0,-1,580,827,0.165246,-0.587423
-637,197,-0.128662,0.542236,-0.0137408,-0.00962855,0.0145666,0.00302626,-0.0263957,0.855512,0.0186877,0.0442987,587,827,-0.128644,-0.542249
-630,197,-0.468933,0.459961,-0.00813888,-0.0052531,0.00813953,0.00157044,-0.0149624,0.873122,0.0105375,0.0412896,594,827,-0.468938,-0.459961
-623,197,-0.700256,0.341797,-0.00353014,-0.00162534,0.00339227,0.000945687,-0.00610117,0.922252,0.00441655,0.0418798,601,827,-0.70023,-0.341802
-616,197,-0.608948,0.394897,-0.0002325,0.00104377,9.761e-05,0.00105119,-0.000239922,1.4949,0.000792959,0.0403689,608,827,-0.608948,-0.394911
-609,197,-0.53479,0.622864,0.00218962,0.00286523,-0.00194489,0.00450143,0.000553423,-0.871385,0.00283455,0.0272041,615,827,-0.534767,-0.622868
-602,197,-0.513672,0.739502,0.00314994,0.00371167,-0.00302059,0.00646442,0.00039719,-0.831757,0.00418351,0.0142813,622,827,-0.513667,-0.739518
-595,197,-0.50708,0.723999,0.00383395,0.00371599,-0.00359244,0.00736789,0.000182046,-0.77719,0.00485238,0.016337,629,827,-0.507052,-0.724027
-588,197,-0.508362,0.680847,0.00384128,0.00318737,-0.00344898,0.00697876,4.98844e-05,-0.73814,0.00463597,0.0171996,636,827,-0.508377,-0.680818
-581,197,-0.508057,0.639099,0.00307147,0.00312009,-0.00266301,0.0057589,0.000432667,-0.789962,0.00370348,0.0102425,643,827,-0.508085,-0.639081
-574,197,-0.515564,0.618042,0.00188139,0.00286024,-0.00136146,0.00381757,0.000924062,-0.957948,0.00229977,0.0116051,650,827,-0.515556,-0.618066
-567,197,-0.517578,0.576172,0.000603915,0.00171164,-0.000392966,0.00183688,0.000478671,-1.26226,0.0011003,0.0129543,657,827,-0.517558,-0.576146
-560,197,-0.527527,0.554199,-0.00042363,0.00022378,0.000433959,0.000441467,-0.000641317,1.10585,0.000628685,0.0115824,664,827,-0.527524,-0.55423
-553,197,-0.508118,0.52179,-0.00113706,-0.00170939,0.00186622,0.000464802,-0.00331126,0.709321,0.00237763,0.00973104,671,827,-0.50811,-0.521783
-546,197,-0.516907,0.499817,-0.00117334,-0.00241597,0.00275893,0.00103337,-0.00462268,0.674645,0.0034778,0.0152211,678,827,-0.516912,-0.499808
-539,197,-0.584412,0.544067,-0.000733619,-0.00303888,0.00307771,0.00140021,-0.00517271,0.606228,0.0039978,0.0284009,685,827,-0.584393,-0.54404
-532,197,-0.585693,1.02649,0,0,0,0,0,0,0,-1,692,827,-0.585684,-1.02649
-525,197,-1.13947,0.282776,0.00147286,-0.00426552,0.00322254,0.00291841,-0.00571108,0.421669,0.00506846,0.0444443,699,827,-1.13944,-0.282794
-518,197,-1.69336,0.143005,0.00275258,-0.00490037,0.00321997,0.00392712,-0.00607491,0.349769,0.00581888,0.0454889,706,827,-1.69338,-0.142999
-511,197,-2.04706,-0.202759,0,0,0,0,0,0,0,-1,713,827,-2.04706,0.202756
-504,197,-2.14111,-0.43634,0,0,0,0,0,0,0,-1,720,827,-2.14112,0.436354
-497,197,-2.11249,-0.558655,0,0,0,0,0,0,0,-1,727,827,-2.11249,0.558626
-490,197,-1.32379,0.893921,0.00803972,-0.0059359,0.000711393,0.00807584,-0.00597202,0.0507277,0.0081408,0.0386564,734,827,-1.32376,-0.893894
-483,197,-1.18793,0.803833,0.00811547,-0.00554606,-0.000832455,0.00816601,-0.0055966,-0.0606353,0.00799187,0.0404135,741,827,-1.1879,-0.803826
-476,197,0,0,0,0,0,0,0,0,0,-1,748,827,0,0
-469,197,0,0,0,0,0,0,0,0,0,-1,755,827,0,0
-462,197,0,0,0,0,0,0,0,0,0,-1,762,827,0,0
-455,197,0,0,0,0,0,0,0,0,0,-1,769,827,0,0
-448,197,0,0,0,0,0,0,0,0,0,-1,776,827,0,0
-441,197,0,0,0,0,0,0,0,0,0,-1,783,827,0,0
-434,197,0,0,0,0,0,0,0,0,0,-1,790,827,0,0
-427,197,0,0,0,0,0,0,0,0,0,-1,797,827,0,0
-420,197,0,0,0,0,0,0,0,0,0,-1,804,827,0,0
-413,197,0,0,0,0,0,0,0,0,0,-1,811,827,0,0
-406,197,0,0,0,0,0,0,0,0,0,-1,818,827,0,0
-399,197,0,0,0,0,0,0,0,0,0,-1,825,827,0,0
-392,197,0,0,0,0,0,0,0,0,0,-1,832,827,0,0
-385,197,0,0,0,0,0,0,0,0,0,-1,839,827,0,0
-378,197,0,0,0,0,0,0,0,0,0,-1,846,827,0,0
-371,197,0,0,0,0,0,0,0,0,0,-1,853,827,0,0
-364,197,0,0,0,0,0,0,0,0,0,-1,860,827,0,0
-357,197,0,0,0,0,0,0,0,0,0,-1,867,827,0,0
-350,197,0,0,0,0,0,0,0,0,0,-1,874,827,0,0
-343,197,0,0,0,0,0,0,0,0,0,-1,881,827,0,0
-336,197,0,0,0,0,0,0,0,0,0,-1,888,827,0,0
-329,197,0,0,0,0,0,0,0,0,0,-1,895,827,0,0
-322,197,0,0,0,0,0,0,0,0,0,-1,902,827,0,0
-315,197,0,0,0,0,0,0,0,0,0,-1,909,827,0,0
-308,197,0,0,0,0,0,0,0,0,0,-1,916,827,0,0
-301,197,0,0,0,0,0,0,0,0,0,-1,923,827,0,0
-294,197,0,0,0,0,0,0,0,0,0,-1,930,827,0,0
-287,197,0,0,0,0,0,0,0,0,0,-1,937,827,0,0
-280,197,0,0,0,0,0,0,0,0,0,-1,944,827,0,0
-273,197,0,0,0,0,0,0,0,0,0,-1,951,827,0,0
-266,197,0,0,0,0,0,0,0,0,0,-1,958,827,0,0
-259,197,0,0,0,0,0,0,0,0,0,-1,965,827,0,0
-252,197,0,0,0,0,0,0,0,0,0,-1,972,827,0,0
-245,197,0,0,0,0,0,0,0,0,0,-1,979,827,0,0
-238,197,0,0,0,0,0,0,0,0,0,-1,986,827,0,0
-231,197,0,0,0,0,0,0,0,0,0,-1,993,827,0,0
-224,197,0,0,0,0,0,0,0,0,0,-1,1000,827,0,0
-217,197,0,0,0,0,0,0,0,0,0,-1,1007,827,0,0
-210,197,0,0,0,0,0,0,0,0,0,-1,1014,827,0,0
-203,197,0,0,0,0,0,0,0,0,0,-1,1021,827,0,0
-196,197,0,0,0,0,0,0,0,0,0,-1,1028,827,0,0
-189,197,0,0,0,0,0,0,0,0,0,-1,1035,827,0,0
-182,197,0,0,0,0,0,0,0,0,0,-1,1042,827,0,0
-175,197,0,0,0,0,0,0,0,0,0,-1,1049,827,0,0
-168,197,0,0,0,0,0,0,0,0,0,-1,1056,827,0,0
-161,197,0,0,0,0,0,0,0,0,0,-1,1063,827,0,0
-154,197,0,0,0,0,0,0,0,0,0,-1,1070,827,0,0
-147,197,0,0,0,0,0,0,0,0,0,-1,1077,827,0,0
-140,197,0,0,0,0,0,0,0,0,0,-1,1084,827,0,0
-133,197,0,0,0,0,0,0,0,0,0,-1,1091,827,0,0
-126,197,0,0,0,0,0,0,0,0,0,-1,1098,827,0,0
-119,197,0,0,0,0,0,0,0,0,0,-1,1105,827,0,0
-112,197,0,0,0,0,0,0,0,0,0,-1,1112,827,0,0
-105,197,0,0,0,0,0,0,0,0,0,-1,1119,827,0,0
-98,197,0,0,0,0,0,0,0,0,0,-1,1126,827,0,0
-91,197,0,0,0,0,0,0,0,0,0,-1,1133,827,0,0
-84,197,0,0,0,0,0,0,0,0,0,-1,1140,827,0,0
-77,197,0,0,0,0,0,0,0,0,0,-1,1147,827,0,0
-70,197,0,0,0,0,0,0,0,0,0,-1,1154,827,0,0
-63,197,0,0,0,0,0,0,0,0,0,-1,1161,827,0,0
-56,197,0,0,0,0,0,0,0,0,0,-1,1168,827,0,0
-49,197,0,0,0,0,0,0,0,0,0,-1,1175,827,0,0
-42,197,0,0,0,0,0,0,0,0,0,-1,1182,827,0,0
-35,197,0,0,0,0,0,0,0,0,0,-1,1189,827,0,0
-28,197,0,0,0,0,0,0,0,0,0,-1,1196,827,0,0
-21,197,0,0,0,0,0,0,0,0,0,-1,1203,827,0,0
-14,197,0,0,0,0,0,0,0,0,0,-1,1210,827,0,0
-7,197,0,0,0,0,0,0,0,0,0,-1,1217,827,0,0
0,197,0,0,0,0,0,0,0,0,0,-1,1224,827,0,0
7,197,0,0,0,0,0,0,0,0,0,-1,1231,827,0,0
14,197,0,0,0,0,0,0,0,0,0,-1,1238,827,0,0
21,197,0,0,0,0,0,0,0,0,0,-1,1245,827,0,0
28,197,0,0,0,0,0,0,0,0,0,-1,1252,827,0,0
35,197,0,0,0,0,0,0,0,0,0,-1,1259,827,0,0
42,197,0,0,0,0,0,0,0,0,0,-1,1266,827,0,0
49,197,0,0,0,0,0,0,0,0,0,-1,1273,827,0,0
56,197,0,0,0,0,0,0,0,0,0,-1,1280,827,0,0
63,197,0,0,0,0,0,0,0,0,0,-1,1287,827,0,0
70,197,0,0,0,0,0,0,0,0,0,-1,1294,827,0,0
77,197,0,0,0,0,0,0,0,0,0,-1,1301,827,0,0
84,197,0,0,0,0,0,0,0,0,0,-1,1308,827,0,0
91,197,0,0,0,0,0,0,0,0,0,-1,1315,827,0,0
98,197,0,0,0,0,0,0,0,0,0,-1,1322,827,0,0
105,197,0,0,0,0,0,0,0,0,0,-1,1329,827,0,0
112,197,0,0,0,0,0,0,0,0,0,-1,1336,827,0,0
119,197,0,0,0,0,0,0,0,0,0,-1,1343,827,0,0
126,197,0,0,0,0,0,0,0,0,0,-1,1350,827,0,0
133,197,0,0,0,0,0,0,0,0,0,-1,1357,827,0,0
140,197,0,0,0,0,0,0,0,0,0,-1,1364,827,0,0
147,197,0,0,0,0,0,0,0,0,0,-1,1371,827,0,0
154,197,0,0,0,0,0,0,0,0,0,-1,1378,827,0,0
161,197,0,0,0,0,0,0,0,0,0,-1,1385,827,0,0
168,197,0,0,0,0,0,0,0,0,0,-1,1392,827,0,0
175,197,0,0,0,0,0,0,0,0,0,-1,1399,827,0,0
182,197,0,0,0,0,0,0,0,0,0,-1,1406,827,0,0
189,197,0,0,0,0,0,0,0,0,0,-1,1413,827,0,0
196,197,0,0,0,0,0,0,0,0,0,-1,1420,827,0,0
203,197,0,0,0,0,0,0,0,0,0,-1,1427,827,0,0
210,197,0,0,0,0,0,0,0,0,0,-1,1434,827,0,0
217,197,0,0,0,0,0,0,0,0,0,-1,1441,827,0,0
224,197,0,0,0,0,0,0,0,0,0,-1,1448,827,0,0
231,197,0,0,0,0,0,0,0,0,0,-1,1455,827,0,0
238,197,0,0,0,0,0,0,0,0,0,-1,1462,827,0,0
245,197,0,0,0,0,0,0,0,0,0,-1,1469,827,0,0
252,197,0,0,0,0,0,0,0,0,0,-1,1476,827,0,0
259,197,0,0,0,0,0,0,0,0,0,-1,1483,827,0,0
266,197,0,0,0,0,0,0,0,0,0,-1,1490,827,0,0
273,197,0,0,0,0,0,0,0,0,0,-1,1497,827,0,0
280,197,0,0,0,0,0,0,0,0,0,-1,1504,827,0,0
287,197,0,0,0,0,0,0,0,0,0,-1,1511,827,0,0
294,197,0,0,0,0,0,0,0,0,0,-1,1518,827,0,0
301,197,0,0,0,0,0,0,0,0,0,-1,1525,827,0,0
308,197,0,0,0,0,0,0,0,0,0,-1,1532,827,0,0
315,197,0,0,0,0,0,0,0,0,0,-1,1539,827,0,0
322,197,0,0,0,0,0,0,0,0,0,-1,1546,827,0,0
329,197,0,0,0,0,0,0,0,0,0,-1,1553,827,0,0
336,197,0,0,0,0,0,0,0,0,0,-1,1560,827,0,0
343,197,0,0,0,0,0,0,0,0,0,-1,1567,827,0,0
350,197,0,0,0,0,0,0,0,0,0,-1,1574,827,0,0
357,197,0,0,0,0,0,0,0,0,0,-1,1581,827,0,0
364,197,0,0,0,0,0,0,0,0,0,-1,1588,827,0,0
371,197,0,0,0,0,0,0,0,0,0,-1,1595,827,0,0
378,197,0,0,0,0,0,0,0,0,0,-1,1602,827,0,0
385,197,0,0,0,0,0,0,0,0,0,-1,1609,827,0,0
392,197,0,0,0,0,0,0,0,0,0,-1,1616,827,0,0
399,197,0,0,0,0,0,0,0,0,0,-1,1623,827,0,0
406,197,0,0,0,0,0,0,0,0,0,-1,1630,827,0,0
413,197,0,0,0,0,0,0,0,0,0,-1,1637,827,0,0
420,197,0,0,0,0,0,0,0,0,0,-1,1644,827,0,0
427,197,0,0,0,0,0,0,0,0,0,-1,1651,827,0,0
434,197,0,0,0,0,0,0,0,0,0,-1,1658,827,0,0
441,197,0,0,0,0,0,0,0,0,0,-1,1665,827,0,0
448,197,0,0,0,0,0,0,0,0,0,-1,1672,827,0,0
455,197,0,0,0,0,0,0,0,0,0,-1,1679,827,0,0
462,197,0,0,0,0,0,0,0,0,0,-1,1686,827,0,0
469,197,0,0,0,0,0,0,0,0,0,-1,1693,827,0,0
476,197,0,0,0,0,0,0,0,0,0,-1,1700,827,0,0
483,197,0,0,0,0,0,0,0,0,0,-1,1707,827,0,0
490,197,0,0,0,0,0,0,0,0,0,-1,1714,827,0,0
497,197,0,0,0,0,0,0,0,0,0,-1,1721,827,0,0
504,197,0,0,0,0,0,0,0,0,0,-1,1728,827,0,0
511,197,0,0,0,0,0,0,0,0,0,-1,1735,827,0,0
518,197,0,0,0,0,0,0,0,0,0,-1,1742,827,0,0
525,197,0,0,0,0,0,0,0,0,0,-1,1749,827,0,0
532,197,0,0,0,0,0,0,0,0,0,-1,1756,827,0,0
539,197,0,0,0,0,0,0,0,0,0,-1,1763,827,0,0
546,197,0,0,0,0,0,0,0,0,0,-1,1770,827,0,0
553,197,0,0,0,0,0,0,0,0,0,-1,1777,827,0,0
560,197,0,0,0,0,0,0,0,0,0,-1,1784,827,0,0
567,197,0,0,0,0,0,0,0,0,0,-1,1791,827,0,0
574,197,0,0,0,0,0,0,0,0,0,-1,1798,827,0,0
581,197,0,0,0,0,0,0,0,0,0,-1,1805,827,0,0
588,197,0,0,0,0,0,0,0,0,0,-1,1812,827,0,0
595,197,0,0,0,0,0,0,0,0,0,-1,1819,827,0,0
602,197,4.97058,0.630676,-0.00306135,0.00487958,-0.00152396,0.00516201,-0.00334378,-1.38755,0.00494808,0.0392966,1826,827,4.97052,-0.63065
609,197,4.92175,0.69104,-0.00287189,0.00264342,-0.000536364,0.0026951,-0.00292356,-1.47475,0.00324483,0.0409563,1833,827,4.9217,-0.691017
616,197,4.92749,0.64679,-0.00291929,0.000830482,-0.000376199,0.000867852,-0.00295666,-1.47179,0.00231526,0.0382431,1840,827,4.92751,-0.646774
623,197,4.95129,0.645569,-0.00307925,-0.000770734,-0.000558542,-0.000642697,-0.00320729,-1.34546,0.00195942,0.0360722,1847,827,4.95131,-0.645561
630,197,4.98364,0.688232,-0.00315593,-0.00196039,-0.000984889,-0.00140606,-0.00371026,-1.05815,0.00216294,0.0309083,1854,827,4.98368,-0.688211
637,197,4.91943,0.680237,-0.00314111,-0.00277527,-0.00138029,-0.00156583,-0.00435055,-0.851277,0.00254444,0.027313,1861,827,4.91948,-0.680249
644,197,4.98865,0.543518,-0.0030063,-0.00324397,-0.00170868,-0.00141233,-0.00483794,-0.75068,0.00287268,0.0316143,1868,827,4.98867,-0.543535
651,197,4.72864,0.665405,-0.00285608,-0.00356126,-0.00205642,-0.00112225,-0.0052951,-0.700494,0.00322181,0.0435464,1875,827,4.72864,-0.665424
658,197,4.47327,0.637207,-0.00258468,-0.00370124,-0.002381,-0.000697378,-0.00558854,-0.670242,0.00351636,0.0498717,1882,827,4.47324,-0.637231
665,197,4.37317,0.550903,-0.00218237,-0.00356753,-0.00251005,-0.0002711,-0.0054788,-0.650787,0.0035656,0.0458209,1889,827,4.37311,-0.550924
672,197,4.36035,0.528259,-0.00193222,-0.0033897,-0.00242279,-0.000130949,-0.00519097,-0.639309,0.00341783,0.026363,1896,827,4.3603,-0.528257
679,197,4.34424,0.537231,-0.00166182,-0.00299303,-0.00235737,0.000122113,-0.00477696,-0.647804,0.00322611,0.0127905,1903,827,4.34423,-0.537236
686,197,4.33936,0.545776,-0.00120508,-0.00242978,-0.00214241,0.000410778,-0.00404564,-0.646198,0.00284392,0.0104555,1910,827,4.3394,-0.545785
693,197,4.33081,0.597351,-0.000919852,-0.00151696,-0.00187669,0.000681884,-0.00311869,-0.706517,0.00233978,0.0148719,1917,827,4.33086,-0.597351
700,197,4.36597,0.649414,-0.000987243,-0.000489609,-0.00159041,0.000871329,-0.00234818,-0.862993,0.00192287,0.0209841,1924,827,4.36601,-0.649404
707,197,4.34595,0.665161,-0.00118233,0.000722421,-0.00130133,0.00138265,-0.00184256,-1.10129,0.00186837,0.00935654,1931,827,4.34591,-0.665186
714,197,4.34094,0.684448,-0.00140985,0.0016559,-0.000971744,0.00193796,-0.00169191,-1.2883,0.00209731,0.0118753,1938,827,4.34096,-0.684421
721,197,4.32983,0.707947,-0.00190576,0.00295368,-0.000931944,0.00312628,-0.00207836,-1.38767,0.00302513,0.0121734,1945,827,4.32979,-0.707932
728,197,4.32825,0.74469,-0.00276424,0.00427857,-0.00102058,0.00442348,-0.00290915,-1.42975,0.00426348,0.0103908,1952,827,4.32821,-0.744693
735,197,4.32117,0.782959,-0.00397112,0.00560357,-0.00138577,0.0058001,-0.00416765,-1.42991,0.00578055,0.0113508,1959,827,4.32121,-0.782988
742,197,4.33728,0.795837,-0.00559988,0.00699237,-0.00200869,0.00730503,-0.00591254,-1.41638,0.00764527,0.0209921,1966,827,4.33729,-0.79584
749,197,4.41516,0.77356,-0.00766636,0.00831584,-0.00283016,0.00880221,-0.00815273,-1.40061,0.00979133,0.0431742,1973,827,4.41518,-0.773579
756,197,4.33557,0.655212,-0.0101846,0.00934352,-0.00386978,0.0100824,-0.0109235,-1.38213,0.012131,0.048138,1980,827,4.3356,-0.655188
763,197,4.29395,0.99408,-0.0132035,0.00966799,-0.00516938,0.0107821,-0.0143176,-1.35852,0.0145391,0.0495424,1987,827,4.29396,-0.994081
770,197,4.19983,1.22864,0,0,0,0,0,0,0,-1,1994,827,4.19986,-1.22867
777,197,0,0,0,0,0,0,0,0,0,-1,2001,827,0,0
784,197,0,0,0,0,0,0,0,0,0,-1,2008,827,0,0
791,197,0,0,0,0,0,0,0,0,0,-1,2015,827,0,0
798,197,0,0,0,0,0,0,0,0,0,-1,2022,827,0,0
805,197,0,0,0,0,0,0,0,0,0,-1,2029,827,0,0
812,197,0,0,0,0,0,0,0,0,0,-1,2036,827,0,0
-700,190,0,0,0,0,0,0,0,0,0,-1,524,834,0,0
-693,190,0,0,0,0,0,0,0,0,0,-1,531,834,0,0
-686,190,0,0,0,0,0,0,0,0,0,-1,538,834,0,0
-679,190,0,0,0,0,0,0,0,0,0,-1,545,834,0,0
-672,190,0,0,0,0,0,0,0,0,0,-1,552,834,0,0
-665,190,0,0,0,0,0,0,0,0,0,-1,559,834,0,0
-658,190,2.04333,-1.85504,0,0,0,0,0,0,0,-1,566,834,2.04335,1.85504
-651,190,1.42322,-0.628784,0,0,0,0,0,0,0,-1,573,834,1.4232,0.628766
-644,190,0.560547,0.0435181,-0.0192472,-0.000243301,0.0257851,0.0177349,-0.0372254,0.961931,0.0323896,0.0477269,580,834,0.560546,-0.0435264
-637,190,-0.0355835,0.817749,-0.0143374,0.000932972,0.01799,0.0128409,-0.0262454,0.986085,0.0230046,0.0465165,587,834,-0.0356067,-0.817762
-630,190,-0.446716,0.880554,-0.00962683,0.00228772,0.0117408,0.00949617,-0.0168353,1.02017,0.015398,0.0458001,594,834,-0.446743,-0.880547
-623,190,-0.807129,0.59375,0,0,0,0,0,0,0,-1,601,834,-0.807111,-0.593744
-616,190,-0.594971,0.649475,-0.00253764,0.00428464,0.00337309,0.00567075,-0.00392375,1.1809,0.00556992,0.0392453,608,834,-0.595,-0.649482
-609,190,-0.562134,0.699463,-0.000108861,0.00474406,0.000957855,0.00492627,-0.000291078,1.38281,0.00338538,0.0193226,615,834,-0.562135,-0.699474
-602,190,-0.549927,0.72522,0.000921298,0.00464319,-0.000543591,0.00472096,0.00084353,-1.4287,0.00290721,0.0134396,622,834,-0.549898,-0.725206
-595,190,-0.55658,0.703003,0.00181505,0.00403086,-0.00157079,0.00484514,0.00100076,-1.09254,0.00295358,0.0172353,629,834,-0.556596,-0.703024
-588,190,-0.553528,0.671509,0.00210204,0.00315578,-0.00185106,0.00455349,0.000704332,-0.924048,0.00283025,0.013667,636,834,-0.553498,-0.67151
-581,190,-0.535583,0.660828,0.00158561,0.00282929,-0.00143552,0.00377187,0.000643036,-0.989787,0.00233,0.00949584,643,834,-0.535612,-0.660802
-574,190,-0.535583,0.625732,0.000579142,0.00243962,-0.000392671,0.0025191,0.00049966,-1.37108,0.00154011,0.00949708,650,834,-0.535585,-0.625725
-567,190,-0.540833,0.583191,-0.000583031,0.00117135,0.000344442,0.00123655,-0.000648233,1.38371,0.00110571,0.0107413,657,834,-0.540837,-0.583197
-560,190,-0.555725,0.562317,-0.00145589,-0.000171859,0.000962058,0.000342731,-0.00197048,1.07963,0.00144155,0.011015,664,834,-0.555719,-0.562302
-553,190,-0.559998,0.539856,-0.00197755,-0.00176965,0.00208433,0.000213323,-0.00396053,0.810314,0.00271425,0.0102292,671,834,-0.559996,-0.539874
-546,190,-0.547913,0.464783,-0.00196589,-0.00243959,0.00282298,0.000630165,-0.00503564,0.743546,0.00358565,0.020733,678,834,-0.547908,-0.464801
-539,190,-0.625,0.61792,-0.0014738,-0.00307095,0.00302634,0.000857552,-0.00540231,0.656401,0.00391879,0.0336186,685,834,-0.624989,-0.617926
-532,190,-0.777283,0.9729,0,0,0,0,0,0,0,-1,692,834,-0.777308,-0.972874
-525,190,-1.37152,0.308777,0.000959694,-0.00419921,0.00293917,0.00229078,-0.00553029,0.425245,0.00464282,0.0495266,699,834,-1.37153,-0.308783
-518,190,-1.44354,0.453979,0.00250667,-0.00473545,0.00276906,0.00344409,-0.00567287,0.326425,0.00531585,0.0491096,706,834,-1.44355,-0.453964
-511,190,-1.44092,0.470093,0,0,0,0,0,0,0,-1,713,834,-1.44094,-0.47011
-504,190,-1.35223,0.366882,0,0,0,0,0,0,0,-1,720,834,-1.35221,-0.36686
-497,190,-1.34357,0.252258,0,0,0,0,0,0,0,-1,727,834,-1.34354,-0.252231
-490,190,-1.35236,0.683777,0,0,0,0,0,0,0,-1,734,834,-1.35235,-0.683761
-483,190,0,0,0,0,0,0,0,0,0,-1,741,834,0,0
-476,190,0,0,0,0,0,0,0,0,0,-1,748,834,0,0
-469,190,0,0,0,0,0,0,0,0,0,-1,755,834,0,0
-462,190,0,0,0,0,0,0,0,0,0,-1,762,834,0,0
-455,190,0,0,0,0,0,0,0,0,0,-1,769,834,0,0
-448,190,0,0,0,0,0,0,0,0,0,-1,776,834,0,0
-441,190,0,0,0,0,0,0,0,0,0,-1,783,834,0,0
-434,190,0,0,0,0,0,0,0,0,0,-1,790,834,0,0
-427,190,0,0,0,0,0,0,0,0,0,-1,797,834,0,0
-420,190,0,0,0,0,0,0,0,0,0,-1,804,834,0,0
-413,190,0,0,0,0,0,0,0,0,0,-1,811,834,0,0
-406,190,0,0,0,0,0,0,0,0,0,-1,818,834,0,0
-399,190,0,0,0,0,0,0,0,0,0,-1,825,834,0,0
-392,190,0,0,0,0,0,0,0,0,0,-1,832,834,0,0
-385,190,0,0,0,0,0,0,0,0,0,-1,839,834,0,0
-378,190,0,0,0,0,0,0,0,0,0,-1,846,834,0,0
-371,190,0,0,0,0,0,0,0,0,0,-1,853,834,0,0
-364,190,0,0,0,0,0,0,0,0,0,-1,860,834,0,0
-357,190,0,0,0,0,0,0,0,0,0,-1,867,834,0,0
-350,190,0,0,0,0,0,0,0,0,0,-1,874,834,0,0
-343,190,0,0,0,0,0,0,0,0,0,-1,881,834,0,0
-336,190,0,0,0,0,0,0,0,0,0,-1,888,834,0,0
-329,190,0,0,0,0,0,0,0,0,0,-1,895,834,0,0
-322,190,0,0,0,0,0,0,0,0,0,-1,902,834,0,0
-315,190,0,0,0,0,0,0,0,0,0,-1,909,834,0,0
-308,190,0,0,0,0,0,0,0,0,0,-1,916,834,0,0
-301,190,0,0,0,0,0,0,0,0,0,-1,923,834,0,0
-294,190,0,0,0,0,0,0,0,0,0,-1,930,834,0,0
-287,190,0,0,0,0,0,0,0,0,0,-1,937,834,0,0
-280,190,0,0,0,0,0,0,0,0,0,-1,944,834,0,0
-273,190,0,0,0,0,0,0,0,0,0,-1,951,834,0,0
-266,190,0,0,0,0,0,0,0,0,0,-1,958,834,0,0
-259,190,0,0,0,0,0,0,0,0,0,-1,965,834,0,0
-252,190,0,0,0,0,0,0,0,0,0,-1,972,834,0,0
-245,190,0,0,0,0,0,0,0,0,0,-1,979,834,0,0
-238,190,0,0,0,0,0,0,0,0,0,-1,986,834,0,0
-231,190,0,0,0,0,0,0,0,0,0,-1,993,834,0,0
-224,190,0,0,0,0,0,0,0,0,0,-1,1000,834,0,0
-217,190,0,0,0,0,0,0,0,0,0,-1,1007,834,0,0
-210,190,0,0,0,0,0,0,0,0,0,-1,1014,834,0,0
-203,190,0,0,0,0,0,0,0,0,0,-1,1021,834,0,0
-196,190,0,0,0,0,0,0,0,0,0,-1,1028,834,0,0
-189,190,0,0,0,0,0,0,0,0,0,-1,1035,834,0,0
-182,190,0,0,0,0,0,0,0,0,0,-1,1042,834,0,0
-175,190,0,0,0,0,0,0,0,0,0,-1,1049,834,0,0
-168,190,0,0,0,0,0,0,0,0,0,-1,1056,834,0,0
-161,190,0,0,0,0,0,0,0,0,0,-1,1063,834,0,0
-154,190,0,0,0,0,0,0,0,0,0,-1,1070,834,0,0
-147,190,0,0,0,0,0,0,0,0,0,-1,1077,834,0,0
-140,190,0,0,0,0,0,0,0,0,0,-1,1084,834,0,0
-133,190,0,0,0,0,0,0,0,0,0,-1,1091,834,0,0
-126,190,0,0,0,0,0,0,0,0,0,-1,1098,834,0,0
-119,190,0,0,0,0,0,0,0,0,0,-1,1105,834,0,0
-112,190,0,0,0,0,0,0,0,0,0,-1,1112,834,0,0
-105,190,0,0,0,0,0,0,0,0,0,-1,1119,834,0,0
-98,190,0,0,0,0,0,0,0,0,0,-1,1126,834,0,0
-91,190,0,0,0,0,0,0,0,0,0,-1,1133,834,0,0
-84,190,0,0,0,0,0,0,0,0,0,-1,1140,834,0,0
-77,190,0,0,0,0,0,0,0,0,0,-1,1147,834,0,0
-70,190,0,0,0,0,0,0,0,0,0,-1,1154,834,0,0
-63,190,0,0,0,0,0,0,0,0,0,-1,1161,834,0,0
-56,190,0,0,0,0,0,0,0,0,0,-1,1168,834,0,0
-49,190,0,0,0,0,0,0,0,0,0,-1,1175,834,0,0
-42,190,0,0,0,0,0,0,0,0,0,-1,1182,834,0,0
-35,190,0,0,0,0,0,0,0,0,0,-1,1189,834,0,0
-28,190,0,0,0,0,0,0,0,0,0,-1,1196,834,0,0
-21,190,0,0,0,0,0,0,0,0,0,-1,1203,834,0,0
-14,190,0,0,0,0,0,0,0,0,0,-1,1210,834,0,0
-7,190,0,0,0,0,0,0,0,0,0,-1,1217,834,0,0
0,190,0,0,0,0,0,0,0,0,0,-1,1224,834,0,0
7,190,0,0,0,0,0,0,0,0,0,-1,1231,834,0,0
14,190,0,0,0,0,0,0,0,0,0,-1,1238,834,0,0
21,190,0,0,0,0,0,0,0,0,0,-1,1245,834,0,0
28,190,0,0,0,0,0,0,0,0,0,-1,1252,834,0,0
35,190,0,0,0,0,0,0,0,0,0,-1,1259,834,0,0
42,190,0,0,0,0,0,0,0,0,0,-1,1266,834,0,0
49,190,0,0,0,0,0,0,0,0,0,-1,1273,834,0,0
56,190,0,0,0,0,0,0,0,0,0,-1,1280,834,0,0
63,190,0,0,0,0,0,0,0,0,0,-1,1287,834,0,0
70,190,0,0,0,0,0,0,0,0,0,-1,1294,834,0,0
77,190,0,0,0,0,0,0,0,0,0,-1,1301,834,0,0
84,190,0,0,0,0,0,0,0,0,0,-1,1308,834,0,0
91,190,0,0,0,0,0,0,0,0,0,-1,1315,834,0,0
98,190,0,0,0,0,0,0,0,0,0,-1,1322,834,0,0
105,190,0,0,0,0,0,0,0,0,0,-1,1329,834,0,0
112,190,0,0,0,0,0,0,0,0,0,-1,1336,834,0,0
119,190,0,0,0,0,0,0,0,0,0,-1,1343,834,0,0
126,190,0,0,0,0,0,0,0,0,0,-1,1350,834,0,0
133,190,0,0,0,0,0,0,0,0,0,-1,1357,834,0,0
140,190,0,0,0,0,0,0,0,0,0,-1,1364,834,0,0
147,190,0,0,0,0,0,0,0,0,0,-1,1371,834,0,0
154,190,0,0,0,0,0,0,0,0,0,-1,1378,834,0,0
161,190,0,0,0,0,0,0,0,0,0,-1,1385,834,0,0
168,190,0,0,0,0,0,0,0,0,0,-1,1392,834,0,0
175,190,0,0,0,0,0,0,0,0,0,-1,1399,834,0,0
182,190,0,0,0,0,0,0,0,0,0,-1,1406,834,0,0
189,190,0,0,0,0,0,0,0,0,0,-1,1413,834,0,0
196,190,0,0,0,0,0,0,0,0,0,-1,1420,834,0,0
203,190,0,0,0,0,0,0,0,0,0,-1,1427,834,0,0
210,190,0,0,0,0,0,0,0,0,0,-1,1434,834,0,0
217,190,0,0,0,0,0,0,0,0,0,-1,1441,834,0,0
224,190,0,0,0,0,0,0,0,0,0,-1,1448,834,0,0
231,190,0,0,0,0,0,0,0,0,0,-1,1455,834,0,0
238,190,0,0,0,0,0,0,0,0,0,-1,1462,834,0,0
245,190,0,0,0,0,0,0,0,0,0,-1,1469,834,0,0
252,190,0,0,0,0,0,0,0,0,0,-1,1476,834,0,0
259,190,0,0,0,0,0,0,0,0,0,-1,1483,834,0,0
266,190,0,0,0,0,0,0,0,0,0,-1,1490,834,0,0
273,190,0,0,0,0,0,0,0,0,0,-1,1497,834,0,0
280,190,0,0,0,0,0,0,0,0,0,-1,1504,834,0,0
287,190,0,0,0,0,0,0,0,0,0,-1,1511,834,0,0
294,190,0,0,0,0,0,0,0,0,0,-1,1518,834,0,0
301,190,0,0,0,0,0,0,0,0,0,-1,1525,834,0,0
308,190,0,0,0,0,0,0,0,0,0,-1,1532,834,0,0
315,190,0,0,0,0,0,0,0,0,0,-1,1539,834,0,0
322,190,0,0,0,0,0,0,0,0,0,-1,1546,834,0,0
329,190,0,0,0,0,0,0,0,0,0,-1,1553,834,0,0
336,190,0,0,0,0,0,0,0,0,0,-1,1560,834,0,0
343,190,0,0,0,0,0,0,0,0,0,-1,1567,834,0,0
350,190,0,0,0,0,0,0,0,0,0,-1,1574,834,0,0
357,190,0,0,0,0,0,0,0,0,0,-1,1581,834,0,0
364,190,0,0,0,0,0,0,0,0,0,-1,1588,834,0,0
371,190,0,0,0,0,0,0,0,0,0,-1,1595,834,0,0
378,190,0,0,0,0,0,0,0,0,0,-1,1602,834,0,0
385,190,0,0,0,0,0,0,0,0,0,-1,1609,834,0,0
392,190,0,0,0,0,0,0,0,0,0,-1,1616,834,0,0
399,190,0,0,0,0,0,0,0,0,0,-1,1623,834,0,0
406,190,0,0,0,0,0,0,0,0,0,-1,1630,834,0,0
413,190,0,0,0,0,0,0,0,0,0,-1,1637,834,0,0
420,190,0,0,0,0,0,0,0,0,0,-1,1644,834,0,0
427,190,0,0,0,0,0,0,0,0,0,-1,1651,834,0,0
434,190,0,0,0,0,0,0,0,0,0,-1,1658,834,0,0
441,190,0,0,0,0,0,0,0,0,0,-1,1665,834,0,0
448,190,0,0,0,0,0,0,0,0,0,-1,1672,834,0,0
455,190,0,0,0,0,0,0,0,0,0,-1,1679,834,0,0
462,190,0,0,0,0,0,0,0,0,0,-1,1686,834,0,0
469,190,0,0,0,0,0,0,0,0,0,-1,1693,834,0,0
476,190,0,0,0,0,0,0,0,0,0,-1,1700,834,0,0
483,190,0,0,0,0,0,0,0,0,0,-1,1707,834,0,0
490,190,0,0,0,0,0,0,0,0,0,-1,1714,834,0,0
497,190,0,0,0,0,0,0,0,0,0,-1,1721,834,0,0
504,190,0,0,0,0,0,0,0,0,0,-1,1728,834,0,0
511,190,0,0,0,0,0,0,0,0,0,-1,1735,834,0,0
518,190,0,0,0,0,0,0,0,0,0,-1,1742,834,0,0
525,190,0,0,0,0,0,0,0,0,0,-1,1749,834,0,0
532,190,0,0,0,0,0,0,0,0,0,-1,1756,834,0,0
539,190,0,0,0,0,0,0,0,0,0,-1,1763,834,0,0
546,190,0,0,0,0,0,0,0,0,0,-1,1770,834,0,0
553,190,0,0,0,0,0,0,0,0,0,-1,1777,834,0,0
560,190,0,0,0,0,0,0,0,0,0,-1,1784,834,0,0
567,190,0,0,0,0,0,0,0,0,0,-1,1791,834,0,0
574,190,0,0,0,0,0,0,0,0,0,-1,1798,834,0,0
581,190,0,0,0,0,0,0,0,0,0,-1,1805,834,0,0
588,190,0,0,0,0,0,0,0,0,0,-1,1812,834,0,0
595,190,0,0,0,0,0,0,0,0,0,-1,1819,834,0,0
602,190,4.99768,0.542358,-0.00491499,0.00506848,-0.0021263,0.00550248,-0.00534899,-1.36945,0.0062653,0.0440313,1826,834,4.99774,-0.542366
609,190,4.82056,0.564148,-0.0036063,0.00310743,-0.00102569,0.00326063,-0.0037595,-1.42253,0.00405648,0.0414508,1833,834,4.82055,-0.564164
616,190,4.81567,0.464966,-0.00290406,0.00153862,-0.000883761,0.00170797,-0.00307341,-1.38147,0.0027978,0.0384378,1840,834,4.81569,-0.464963
623,190,4.82532,0.598267,-0.00264787,-1.20959e-05,-0.00103824,0.000347746,-0.00300772,-1.23717,0.00213054,0.0363732,1847,834,4.82528,-0.598251
630,190,4.90137,0.80957,-0.00254403,-0.00127734,-0.00147823,-0.000302487,-0.00351889,-0.987792,0.00225188,0.0380102,1854,834,4.90141,-0.809582
637,190,4.89648,0.764282,-0.00250644,-0.00219058,-0.00192254,-0.000419492,-0.00427753,-0.826379,0.00272265,0.0315647,1861,834,4.89652,-0.764281
644,190,4.89966,0.707886,-0.00242674,-0.00276211,-0.00227635,-0.000311909,-0.00487694,-0.748632,0.00315247,0.0247468,1868,834,4.89967,-0.70786
651,190,4.99646,0.62323,-0.0023657,-0.00316061,-0.00259613,-0.000136783,-0.00538953,-0.709441,0.0035483,0.0346455,1875,834,4.99647,-0.623245
658,190,4.64795,0.839661,-0.00221317,-0.00336993,-0.00287323,0.00013932,-0.00572242,-0.686075,0.00386222,0.0422926,1882,834,4.64793,-0.839687
665,190,4.40381,0.776123,-0.0019424,-0.00329028,-0.00295917,0.00041861,-0.00565128,-0.673435,0.00391453,0.0430067,1889,834,4.4038,-0.776146
672,190,4.34729,0.692078,-0.00184473,-0.00317898,-0.00281018,0.000376421,-0.00540014,-0.668857,0.0037319,0.034345,1896,834,4.34731,-0.692104
679,190,4.36145,0.575806,-0.00176117,-0.00288225,-0.00271719,0.000452699,-0.00509612,-0.683678,0.00355793,0.0175131,1903,834,4.36149,-0.575815
686,190,4.37024,0.570435,-0.00148204,-0.00242217,-0.00250882,0.000600374,-0.00450459,-0.69279,0.00322188,0.00982575,1910,834,4.37021,-0.570424
693,190,4.36731,0.600952,-0.00126626,-0.00162572,-0.00222052,0.000781799,-0.00367377,-0.745016,0.00274712,0.0117987,1917,834,4.36728,-0.600949
700,190,4.37085,0.639099,-0.00128669,-0.000727811,-0.00186299,0.000876576,-0.00289108,-0.859841,0.00227655,0.0110271,1924,834,4.37083,-0.639129
707,190,4.36255,0.661682,-0.0013425,0.000289021,-0.00149973,0.0011805,-0.00223397,-1.03449,0.00200238,0.0128599,1931,834,4.36254,-0.661659
714,190,4.3739,0.675903,-0.00138416,0.00105091,-0.00108242,0.0014625,-0.00179574,-1.20744,0.00188442,0.0114933,1938,834,4.37392,-0.675925
721,190,4.37854,0.703613,-0.0015706,0.00215022,-0.000933828,0.00237144,-0.00179181,-1.33819,0.0024114,0.0104809,1945,834,4.37851,-0.703593
728,190,4.36279,0.728821,-0.00195914,0.00315394,-0.000833247,0.00328631,-0.0020915,-1.41326,0.00313032,0.0122115,1952,834,4.36283,-0.728841
735,190,4.36621,0.77124,-0.00258109,0.00411924,-0.000970998,0.00425712,-0.00271897,-1.42974,0.00406015,0.0115534,1959,834,4.36625,-0.771244
742,190,4.34607,0.831665,-0.00345419,0.00508695,-0.00130153,0.00528088,-0.00364812,-1.42288,0.00518381,0.0158814,1966,834,4.34604,-0.831671
749,190,4.33569,0.864685,-0.00451825,0.00594291,-0.00172474,0.00621993,-0.00479527,-1.41154,0.00637734,0.0387851,1973,834,4.33566,-0.864706
756,190,4.36035,0.775391,-0.00566,0.00648412,-0.00221376,0.00687508,-0.00605096,-1.39599,0.00746791,0.0482528,1980,834,4.36036,-0.775384
763,190,4.37256,1.08728,0,0,0,0,0,0,0,-1,1987,834,4.37258,-1.08731
770,190,4.24951,1.35571,0,0,0,0,0,0,0,-1,1994,834,4.2495,-1.35569
777,190,3.59399,1.47839,0,0,0,0,0,0,0,-1,2001,834,3.594,-1.47839
784,190,0,0,0,0,0,0,0,0,0,-1,2008,834,0,0
791,190,0,0,0,0,0,0,0,0,0,-1,2015,834,0,0
798,190,0,0,0,0,0,0,0,0,0,-1,2022,834,0,0
805,190,0,0,0,0,0,0,0,0,0,-1,2029,834,0,0
812,190,0,0,0,0,0,0,0,0,0,-1,2036,834,0,0
-700,183,0,0,0,0,0,0,0,0,0,-1,524,841,0,0
-693,183,0,0,0,0,0,0,0,0,0,-1,531,841,0,0
-686,183,0,0,0,0,0,0,0,0,0,-1,538,841,0,0
-679,183,0,0,0,0,0,0,0,0,0,-1,545,841,0,0
-672,183,0,0,0,0,0,0,0,0,0,-1,552,841,0,0
-665,183,0,0,0,0,0,0,0,0,0,-1,559,841,0,0
-658,183,1.98688,-1.86639,0,0,0,0,0,0,0,-1,566,841,1.98685,1.86638
-651,183,1.27234,-0.833557,-0.0171347,0.00923766,0.036463,0.0348255,-0.0427225,0.958898,0.0448497,0.0481521,573,841,1.27235,0.833568
-644,183,0.559143,-0.169922,-0.0155627,0.00672965,0.0279958,0.0257166,-0.0345496,0.974847,0.0349191,0.047064,580,841,0.559171,0.169895
-637,183,-0.0708008,0.758423,-0.0127054,0.00558046,0.0206842,0.0190524,-0.0261773,0.993499,0.0262211,0.048818,587,841,-0.0707761,-0.758442
-630,183,-0.243591,1.46265,-0.00943585,0.00514456,0.0146127,0.0141846,-0.0184759,1.01678,0.0189107,0.0443955,594,841,-0.243599,-1.46266
-623,183,-0.566406,0.802734,0,0,0,0,0,0,0,-1,601,841,-0.566405,-0.80273
-616,183,-0.585144,0.787537,-0.00400347,0.00480503,0.00599563,0.0078402,-0.00703864,1.10218,0.00859446,0.0358827,608,841,-0.585161,-0.787542
-609,183,-0.598694,0.75592,-0.00176298,0.00468213,0.00328746,0.00606308,-0.00314393,1.17311,0.005404,0.0142943,615,841,-0.598705,-0.755944
-602,183,-0.584351,0.740173,-0.000811721,0.00423245,0.00146177,0.00462544,-0.00120471,1.30816,0.00355393,0.00986049,622,841,-0.584354,-0.740147
-595,183,-0.587097,0.694153,9.27012e-05,0.00353894,0.000118951,0.00354304,8.86004e-05,1.53633,0.00233306,0.0102188,629,841,-0.587067,-0.694158
-588,183,-0.57605,0.66864,0.000544478,0.00262825,-0.000504594,0.00274401,0.000428719,-1.34529,0.0017045,0.00965937,636,841,-0.576057,-0.668657
-581,183,-0.565002,0.65564,0.000204359,0.00229159,-0.000406826,0.00236808,0.000127867,-1.38495,0.00153787,0.010535,643,841,-0.565019,-0.655656
-574,183,-0.564209,0.624023,-0.000653851,0.00191298,0.000441939,0.00198694,-0.00072781,1.40498,0.00162258,0.0113091,650,841,-0.56423,-0.623997
-567,183,-0.562866,0.593689,-0.00169496,0.000669382,0.00101067,0.00104252,-0.0020681,1.21712,0.00182816,0.0116299,657,841,-0.562872,-0.593706
-560,183,-0.587341,0.573364,-0.00245258,-0.000451439,0.00148119,0.000335468,-0.00323949,1.08245,0.00227972,0.0116698,664,841,-0.587323,-0.573369
-553,183,-0.594727,0.510193,-0.002857,-0.00164359,0.0023399,0.000166986,-0.00466757,0.912248,0.00316884,0.0103622,671,841,-0.594741,-0.510182
-546,183,-0.580688,0.434631,-0.00281414,-0.0022055,0.00293062,0.000436559,-0.0054562,0.837133,0.00379137,0.0232254,678,841,-0.580658,-0.434651
-539,183,-0.540527,0.386292,-0.00231398,-0.0027621,0.00303475,0.000504972,-0.00558105,0.74855,0.00389994,0.0405309,685,841,-0.540558,-0.386292
-532,183,-1.12671,0.642212,0,0,0,0,0,0,0,-1,692,841,-1.12671,-0.642188
-525,183,-1.3689,0.280212,0,0,0,0,0,0,0,-1,699,841,-1.3689,-0.280216
-518,183,-1.41272,0.465576,0.00174423,-0.00403674,0.00250096,0.002676,-0.00496852,0.356637,0.00447923,0.0496189,706,841,-1.41269,-0.465579
-511,183,-1.26019,0.645142,0.00370454,-0.00433872,0.00195131,0.00415293,-0.00478711,0.225871,0.00516587,0.0425861,713,841,-1.2602,-0.645166
-504,183,-0.985901,0.996155,0.00585655,-0.00449139,0.00110559,0.00597336,-0.0046082,0.105258,0.00612619,0.0429619,720,841,-0.985889,-0.996175
-497,183,-1.16797,0.678284,0.00804325,-0.00443154,-8.64234e-05,0.00804385,-0.00443214,-0.0069274,0.00730293,0.0450956,727,841,-1.168,-0.678296
-490,183,-1.27155,0.589111,0.0097512,-0.00414343,-0.001573,0.00992706,-0.00431928,-0.111332,0.00843486,0.0426731,734,841,-1.27152,-0.58914
-483,183,0,0,0,0,0,0,0,0,0,-1,741,841,0,0
-476,183,0,0,0,0,0,0,0,0,0,-1,748,841,0,0
-469,183,0,0,0,0,0,0,0,0,0,-1,755,841,0,0
-462,183,0,0,0,0,0,0,0,0,0,-1,762,841,0,0
-455,183,0,0,0,0,0,0,0,0,0,-1,769,841,0,0
-448,183,0,0,0,0,0,0,0,0,0,-1,776,841,0,0
-441,183,0,0,0,0,0,0,0,0,0,-1,783,841,0,0
-434,183,0,0,0,0,0,0,0,0,0,-1,790,841,0,0
-427,183,0,0,0,0,0,0,0,0,0,-1,797,841,0,0
-420,183,0,0,0,0,0,0,0,0,0,-1,804,841,0,0
-413,183,0,0,0,0,0,0,0,0,0,-1,811,841,0,0
-406,183,0,0,0,0,0,0,0,0,0,-1,818,841,0,0
-399,183,0,0,0,0,0,0,0,0,0,-1,825,841,0,0
-392,183,0,0,0,0,0,0,0,0,0,-1,832,841,0,0
-385,183,0,0,0,0,0,0,0,0,0,-1,839,841,0,0
-378,183,0,0,0,0,0,0,0,0,0,-1,846,841,0,0
-371,183,0,0,0,0,0,0,0,0,0,-1,853,841,0,0
-364,183,0,0,0,0,0,0,0,0,0,-1,860,841,0,0
-357,183,0,0,0,0,0,0,0,0,0,-1,867,841,0,0
-350,183,0,0,0,0,0,0,0,0,0,-1,874,841,0,0
-343,183,0,0,0,0,0,0,0,0,0,-1,881,841,0,0
-336,183,0,0,0,0,0,0,0,0,0,-1,888,841,0,0
-329,183,0,0,0,0,0,0,0,0,0,-1,895,841,0,0
-322,183,0,0,0,0,0,0,0,0,0,-1,902,841,0,0
-315,183,0,0,0,0,0,0,0,0,0,-1,909,841,0,0
-308,183,0,0,0,0,0,0,0,0,0,-1,916,841,0,0
-301,183,0,0,0,0,0,0,0,0,0,-1,923,841,0,0
-294,183,0,0,0,0,0,0,0,0,0,-1,930,841,0,0
-287,183,0,0,0,0,0,0,0,0,0,-1,937,841,0,0
-280,183,0,0,0,0,0,0,0,0,0,-1,944,841,0,0
-273,183,0,0,0,0,0,0,0,0,0,-1,951,841,0,0
-266,183,0,0,0,0,0,0,0,0,0,-1,958,841,0,0
-259,183,0,0,0,0,0,0,0,0,0,-1,965,841,0,0
-252,183,0,0,0,0,0,0,0,0,0,-1,972,841,0,0
-245,183,0,0,0,0,0,0,0,0,0,-1,979,841,0,0
-238,183,0,0,0,0,0,0,0,0,0,-1,986,841,0,0
-231,183,0,0,0,0,0,0,0,0,0,-1,993,841,0,0
-224,183,0,0,0,0,0,0,0,0,0,-1,1000,841,0,0
-217,183,0,0,0,0,0,0,0,0,0,-1,1007,841,0,0
-210,183,0,0,0,0,0,0,0,0,0,-1,1014,841,0,0
-203,183,0,0,0,0,0,0,0,0,0,-1,1021,841,0,0
-196,183,0,0,0,0,0,0,0,0,0,-1,1028,841,0,0
-189,183,0,0,0,0,0,0,0,0,0,-1,1035,841,0,0
-182,183,0,0,0,0,0,0,0,0,0,-1,1042,841,0,0
-175,183,0,0,0,0,0,0,0,0,0,-1,1049,841,0,0
-168,183,0,0,0,0,0,0,0,0,0,-1,1056,841,0,0
-161,183,0,0,0,0,0,0,0,0,0,-1,1063,841,0,0
-154,183,0,0,0,0,0,0,0,0,0,-1,1070,841,0,0
-147,183,0,0,0,0,0,0,0,0,0,-1,1077,841,0,0
-140,183,0,0,0,0,0,0,0,0,0,-1,1084,841,0,0
-133,183,0,0,0,0,0,0,0,0,0,-1,1091,841,0,0
-126,183,0,0,0,0,0,0,0,0,0,-1,1098,841,0,0
-119,183,0,0,0,0,0,0,0,0,0,-1,1105,841,0,0
-112,183,0,0,0,0,0,0,0,0,0,-1,1112,841,0,0
-105,183,0,0,0,0,0,0,0,0,0,-1,1119,841,0,0
-98,183,0,0,0,0,0,0,0,0,0,-1,1126,841,0,0
-91,183,0,0,0,0,0,0,0,0,0,-1,1133,841,0,0
-84,183,0,0,0,0,0,0,0,0,0,-1,1140,841,0,0
-77,183,0,0,0,0,0,0,0,0,0,-1,1147,841,0,0
-70,183,0,0,0,0,0,0,0,0,0,-1,1154,841,0,0
-63,183,0,0,0,0,0,0,0,0,0,-1,1161,841,0,0
-56,183,0,0,0,0,0,0,0,0,0,-1,1168,841,0,0
-49,183,0,0,0,0,0,0,0,0,0,-1,1175,841,0,0
-42,183,0,0,0,0,0,0,0,0,0,-1,1182,841,0,0
-35,183,0,0,0,0,0,0,0,0,0,-1,1189,841,0,0
-28,183,0,0,0,0,0,0,0,0,0,-1,1196,841,0,0
-21,183,0,0,0,0,0,0,0,0,0,-1,1203,841,0,0
-14,183,0,0,0,0,0,0,0,0,0,-1,1210,841,0,0
-7,183,0,0,0,0,0,0,0,0,0,-1,1217,841,0,0
0,183,0,0,0,0,0,0,0,0,0,-1,1224,841,0,0
7,183,0,0,0,0,0,0,0,0,0,-1,1231,841,0,0
14,183,0,0,0,0,0,0,0,0,0,-1,1238,841,0,0
21,183,0,0,0,0,0,0,0,0,0,-1,1245,841,0,0
28,183,0,0,0,0,0,0,0,0,0,-1,1252,841,0,0
35,183,0,0,0,0,0,0,0,0,0,-1,1259,841,0,0
42,183,0,0,0,0,0,0,0,0,0,-1,1266,841,0,0
49,183,0,0,0,0,0,0,0,0,0,-1,1273,841,0,0
56,183,0,0,0,0,0,0,0,0,0,-1,1280,841,0,0
63,183,0,0,0,0,0,0,0,0,0,-1,1287,841,0,0
70,183,0,0,0,0,0,0,0,0,0,-1,1294,841,0,0
77,183,0,0,0,0,0,0,0,0,0,-1,1301,841,0,0
84,183,0,0,0,0,0,0,0,0,0,-1,1308,841,0,0
91,183,0,0,0,0,0,0,0,0,0,-1,1315,841,0,0
98,183,0,0,0,0,0,0,0,0,0,-1,1322,841,0,0
105,183,0,0,0,0,0,0,0,0,0,-1,1329,841,0,0
112,183,0,0,0,0,0,0,0,0,0,-1,1336,841,0,0
119,183,0,0,0,0,0,0,0,0,0,-1,1343,841,0,0
126,183,0,0,0,0,0,0,0,0,0,-1,1350,841,0,0
133,183,0,0,0,0,0,0,0,0,0,-1,1357,841,0,0
140,183,0,0,0,0,0,0,0,0,0,-1,1364,841,0,0
147,183,0,0,0,0,0,0,0,0,0,-1,1371,841,0,0
154,183,0,0,0,0,0,0,0,0,0,-1,1378,841,0,0
161,183,0,0,0,0,0,0,0,0,0,-1,1385,841,0,0
168,183,0,0,0,0,0,0,0,0,0,-1,1392,841,0,0
175,183,0,0,0,0,0,0,0,0,0,-1,1399,841,0,0
182,183,0,0,0,0,0,0,0,0,0,-1,1406,841,0,0
189,183,0,0,0,0,0,0,0,0,0,-1,1413,841,0,0
196,183,0,0,0,0,0,0,0,0,0,-1,1420,841,0,0
203,183,0,0,0,0,0,0,0,0,0,-1,1427,841,0,0
210,183,0,0,0,0,0,0,0,0,0,-1,1434,841,0,0
217,183,0,0,0,0,0,0,0,0,0,-1,1441,841,0,0
224,183,0,0,0,0,0,0,0,0,0,-1,1448,841,0,0
231,183,0,0,0,0,0,0,0,0,0,-1,1455,841,0,0
238,183,0,0,0,0,0,0,0,0,0,-1,1462,841,0,0
245,183,0,0,0,0,0,0,0,0,0,-1,1469,841,0,0
252,183,0,0,0,0,0,0,0,0,0,-1,1476,841,0,0
259,183,0,0,0,0,0,0,0,0,0,-1,1483,841,0,0
266,183,0,0,0,0,0,0,0,0,0,-1,1490,841,0,0
273,183,0,0,0,0,0,0,0,0,0,-1,1497,841,0,0
280,183,0,0,0,0,0,0,0,0,0,-1,1504,841,0,0
287,183,0,0,0,0,0,0,0,0,0,-1,1511,841,0,0
294,183,0,0,0,0,0,0,0,0,0,-1,1518,841,0,0
301,183,0,0,0,0,0,0,0,0,0,-1,1525,841,0,0
308,183,0,0,0,0,0,0,0,0,0,-1,1532,841,0,0
315,183,0,0,0,0,0,0,0,0,0,-1,1539,841,0,0
322,183,0,0,0,0,0,0,0,0,0,-1,1546,841,0,0
329,183,0,0,0,0,0,0,0,0,0,-1,1553,841,0,0
336,183,0,0,0,0,0,0,0,0,0,-1,1560,841,0,0
343,183,0,0,0,0,0,0,0,0,0,-1,1567,841,0,0
350,183,0,0,0,0,0,0,0,0,0,-1,1574,841,0,0
357,183,0,0,0,0,0,0,0,0,0,-1,1581,841,0,0
364,183,0,0,0,0,0,0,0,0,0,-1,1588,841,0,0
371,183,0,0,0,0,0,0,0,0,0,-1,1595,841,0,0
378,183,0,0,0,0,0,0,0,0,0,-1,1602,841,0,0
385,183,0,0,0,0,0,0,0,0,0,-1,1609,841,0,0
392,183,0,0,0,0,0,0,0,0,0,-1,1616,841,0,0
399,183,0,0,0,0,0,0,0,0,0,-1,1623,841,0,0
406,183,0,0,0,0,0,0,0,0,0,-1,1630,841,0,0
413,183,0,0,0,0,0,0,0,0,0,-1,1637,841,0,0
420,183,0,0,0,0,0,0,0,0,0,-1,1644,841,0,0
427,183,0,0,0,0,0,0,0,0,0,-1,1651,841,0,0
434,183,0,0,0,0,0,0,0,0,0,-1,1658,841,0,0
441,183,0,0,0,0,0,0,0,0,0,-1,1665,841,0,0
448,183,0,0,0,0,0,0,0,0,0,-1,1672,841,0,0
455,183,0,0,0,0,0,0,0,0,0,-1,1679,841,0,0
462,183,0,0,0,0,0,0,0,0,0,-1,1686,841,0,0
469,183,0,0,0,0,0,0,0,0,0,-1,1693,841,0,0
476,183,0,0,0,0,0,0,0,0,0,-1,1700,841,0,0
483,183,0,0,0,0,0,0,0,0,0,-1,1707,841,0,0
490,183,0,0,0,0,0,0,0,0,0,-1,1714,841,0,0
497,183,0,0,0,0,0,0,0,0,0,-1,1721,841,0,0
504,183,0,0,0,0,0,0,0,0,0,-1,1728,841,0,0
511,183,0,0,0,0,0,0,0,0,0,-1,1735,841,0,0
518,183,0,0,0,0,0,0,0,0,0,-1,1742,841,0,0
525,183,0,0,0,0,0,0,0,0,0,-1,1749,841,0,0
532,183,0,0,0,0,0,0,0,0,0,-1,1756,841,0,0
539,183,0,0,0,0,0,0,0,0,0,-1,1763,841,0,0
546,183,0,0,0,0,0,0,0,0,0,-1,1770,841,0,0
553,183,0,0,0,0,0,0,0,0,0,-1,1777,841,0,0
560,183,0,0,0,0,0,0,0,0,0,-1,1784,841,0,0
567,183,0,0,0,0,0,0,0,0,0,-1,1791,841,0,0
574,183,0,0,0,0,0,0,0,0,0,-1,1798,841,0,0
581,183,0,0,0,0,0,0,0,0,0,-1,1805,841,0,0
588,183,0,0,0,0,0,0,0,0,0,-1,1812,841,0,0
595,183,0,0,0,0,0,0,0,0,0,-1,1819,841,0,0
602,183,0,0,0,0,0,0,0,0,0,-1,1826,841,0,0
609,183,4.97339,0.597778,-0.00437328,0.00230275,-0.00176272,0.00273959,-0.00481012,-1.32787,0.00441313,0.0412123,1833,841,4.97344,-0.59779
616,183,4.80908,0.467407,-0.00287705,0.00159163,-0.00125388,0.00191942,-0.00320484,-1.3151,0.00298936,0.038524,1840,841,4.80904,-0.467388
623,183,4.87207,0.512878,-0.00216113,0.000556194,-0.001085,0.000936264,-0.0025412,-1.23386,0.00207777,0.0410173,1847,841,4.87211,-0.512906
630,183,4.95435,0.717834,-0.0018466,-0.000509884,-0.00136963,0.000345762,-0.00270225,-1.01239,0.00192712,0.0407729,1854,841,4.95438,-0.717816
637,183,4.92822,0.777893,-0.001804,-0.0013736,-0.00179331,0.000217372,-0.00339497,-0.845114,0.00233914,0.0332738,1861,841,4.92823,-0.777881
644,183,4.89893,0.751282,-0.00182996,-0.00199426,-0.00217825,0.000267695,-0.00409191,-0.76655,0.00282141,0.0255333,1868,841,4.89897,-0.751265
651,183,4.93994,0.69397,-0.00190268,-0.00246542,-0.00252265,0.000354246,-0.00472235,-0.729859,0.00327271,0.0228379,1875,841,4.93994,-0.693983
658,183,5.04395,0.581665,-0.00190046,-0.00276378,-0.00281965,0.000520381,-0.00518462,-0.709443,0.00364229,0.0405017,1882,841,5.04399,-0.581656
665,183,4.22705,1.39453,0,0,0,0,0,0,0,-1,1889,841,4.22702,-1.39452
672,183,4.26221,0.968994,-0.00184887,-0.00276712,-0.00279569,0.000525141,-0.00514113,-0.704012,0.0036152,0.0382505,1896,841,4.26216,-0.968974
679,183,4.35242,0.574768,-0.00195443,-0.00260673,-0.0027634,0.000502007,-0.00506316,-0.726657,0.00355461,0.0258066,1903,841,4.35241,-0.574782
686,183,4.39893,0.559753,-0.00184531,-0.00228974,-0.00263905,0.000580869,-0.00471591,-0.743396,0.00335437,0.01229,1910,841,4.39893,-0.559772
693,183,4.41174,0.595093,-0.00167971,-0.00166368,-0.0024003,0.000728619,-0.004072,-0.787068,0.00298731,0.011015,1917,841,4.41176,-0.595118
700,183,4.41431,0.640442,-0.00157797,-0.000959514,-0.00203792,0.000792503,-0.00332999,-0.860693,0.00252595,0.0141317,1924,841,4.41426,-0.64046
707,183,4.39648,0.665405,-0.00141598,-0.000161824,-0.00162183,0.000949931,-0.00252774,-0.969871,0.00207557,0.0114586,1931,841,4.39648,-0.66543
714,183,4.38684,0.6698,-0.0012042,0.000412214,-0.00114899,0.00100877,-0.00180076,-1.0919,0.00164342,0.0147255,1938,841,4.38687,-0.669778
721,183,4.39258,0.693298,-0.000991544,0.00128543,-0.000897362,0.00159657,-0.00130268,-1.23704,0.00167675,0.0132198,1945,841,4.39254,-0.693278
728,183,4.39746,0.729065,-0.000807826,0.00199615,-0.000648798,0.002139,-0.000950671,-1.35409,0.00182727,0.0114571,1952,841,4.39748,-0.729086
735,183,4.40759,0.76123,-0.000698851,0.00257255,-0.000601977,0.0026798,-0.000806106,-1.39448,0.00210727,0.0109798,1959,841,4.40759,-0.761249
742,183,4.41003,0.81189,-0.000739832,0.00307325,-0.000628202,0.00317408,-0.000840661,-1.41165,0.00244493,0.0110677,1966,841,4.41002,-0.811863
749,183,4.38513,0.873535,-0.000775081,0.00343896,-0.000686924,0.00354811,-0.000884228,-1.41322,0.00270869,0.0319953,1973,841,4.38514,-0.873519
756,183,4.40479,0.969055,-0.000696877,0.00347239,-0.000668174,0.00357685,-0.000801342,-1.41571,0.00269174,0.0465706,1980,841,4.40475,-0.969034
763,183,4.42908,1.21875,0,0,0,0,0,0,0,-1,1987,841,4.42902,-1.21874
770,183,5.65967,-0.836304,0,0,0,0,0,0,0,-1,1994,841,5.65973,0.83632
777,183,5.3241,-0.546326,0,0,0,0,0,0,0,-1,2001,841,5.32416,0.546334
784,183,0,0,0,0,0,0,0,0,0,-1,2008,841,0,0
791,183,0,0,0,0,0,0,0,0,0,-1,2015,841,0,0
798,183,0,0,0,0,0,0,0,0,0,-1,2022,841,0,0
805,183,0,0,0,0,0,0,0,0,0,-1,2029,841,0,0
812,183,0,0,0,0,0,0,0,0,0,-1,2036,841,0,0
-700,176,0,0,0,0,0,0,0,0,0,-1,524,848,0,0
-693,176,0,0,0,0,0,0,0,0,0,-1,531,848,0,0
-686,176,0,0,0,0,0,0,0,0,0,-1,538,848,0,0
-679,176,0,0,0,0,0,0,0,0,0,-1,545,848,0,0
-672,176,0,0,0,0,0,0,0,0,0,-1,552,848,0,0
-665,176,-0.178162,-1.38116,0,0,0,0,0,0,0,-1,559,848,-0.178156,1.38118
-658,176,1.77185,-1.78986,0,0,0,0,0,0,0,-1,566,848,1.77187,1.78984
-651,176,0.987122,-0.961426,-0.0115794,0.00610859,0.0378156,0.0361006,-0.0415714,0.900269,0.0448811,0.0468154,573,848,0.98714,0.961408
-644,176,0.362671,-0.417847,-0.0133726,0.00253207,0.0308557,0.0264437,-0.0372842,0.911517,0.0369703,0.042759,580,848,0.362687,0.417845
-637,176,-0.0619507,2.3725,0,0,0,0,0,0,0,-1,587,848,-0.0619517,-2.3725
-630,176,-0.239807,1.92078,-0.0114427,-6.70338e-05,0.0190689,0.0141442,-0.025654,0.930336,0.0232956,0.0453123,594,848,-0.239829,-1.92079
-623,176,-0.419861,1.29718,-0.00945693,-0.000203127,0.0144465,0.0103394,-0.0199994,0.940375,0.0178096,0.0428998,601,848,-0.419874,-1.29719
-616,176,-0.65155,0.773254,-0.00779139,-0.000198251,0.0105401,0.00720819,-0.0151978,0.958266,0.0132074,0.0276677,608,848,-0.65153,-0.773276
-609,176,-0.620239,0.773621,-0.00560364,0.000183331,0.00752563,0.00535256,-0.0107729,0.968928,0.00948371,0.0109148,615,848,-0.620224,-0.773592
-602,176,-0.611511,0.738586,-0.00447268,0.000300459,0.00526888,0.00369808,-0.0078703,0.998052,0.00682226,0.0111571,622,848,-0.611499,-0.73857
-595,176,-0.619385,0.701477,-0.0033033,0.000306721,0.00345538,0.00240013,-0.00539672,1.02609,0.004611,0.0105652,629,848,-0.619406,-0.701484
-588,176,-0.610046,0.665344,-0.00244778,5.20598e-05,0.00227774,0.00140029,-0.00379601,1.03634,0.00310455,0.0102494,636,848,-0.610057,-0.665358
-581,176,-0.601257,0.658813,-0.00233961,0.000258959,0.00178075,0.00116403,-0.00324468,1.10057,0.00263817,0.0104106,643,848,-0.601242,-0.658805
-574,176,-0.600281,0.636963,-0.00274993,0.000373875,0.00209487,0.00142502,-0.00380108,1.10573,0.0031195,0.0124961,650,848,-0.600265,-0.636939
-567,176,-0.591919,0.607056,-0.00341694,-0.000477922,0.00223935,0.000731031,-0.0046259,1.07577,0.00335427,0.0128982,657,848,-0.591911,-0.607048
-560,176,-0.64093,0.573242,-0.00380206,-0.00109457,0.00236924,0.000280409,-0.00517703,1.04495,0.00354852,0.0109051,664,848,-0.640908,-0.573269
-553,176,-0.670532,0.508484,-0.00370427,-0.00148264,0.00256753,0.000204065,-0.00539098,0.98956,0.0036639,0.0179703,671,848,-0.670543,-0.508462
-546,176,-0.667847,0.481323,-0.00344043,-0.00182465,0.00285759,0.000337059,-0.00560214,0.923161,0.00385203,0.029954,678,848,-0.667856,-0.48134
-539,176,-0.819885,0.493347,-0.00278869,-0.00220629,0.0027891,0.000306773,-0.00530176,0.837413,0.00364107,0.0364439,685,848,-0.819882,-0.493355
-532,176,-1.15778,0.682617,-0.00158189,-0.00238341,0.00257929,0.000627585,-0.00459289,0.708326,0.00329113,0.0403412,692,848,-1.15777,-0.682631
-525,176,-1.12775,0.850647,0,0,0,0,0,0,0,-1,699,848,-1.12774,-0.850639
-518,176,-1.39496,0.492126,0.00222521,-0.002804,0.00160395,0.00269321,-0.003272,0.283895,0.00344941,0.0446995,706,848,-1.39497,-0.49212
-511,176,-1.35498,0.73999,0.0047404,-0.00295854,0.000755266,0.00481379,-0.00303193,0.0968696,0.0045685,0.039753,713,848,-1.35497,-0.74
-504,176,-1.18823,0.856262,0.00754032,-0.00311022,-0.0003848,0.0075542,-0.0031241,-0.0360669,0.00633951,0.040895,720,848,-1.18823,-0.856262
-497,176,-1.14941,0.894287,0.0103847,-0.00331911,-0.00178432,0.0106132,-0.00354763,-0.127378,0.00850823,0.0429862,727,848,-1.14943,-0.894308
-490,176,-1.21198,0.826111,0.0125496,-0.00379343,-0.00325556,0.0131742,-0.00441807,-0.189565,0.010568,0.0411902,734,848,-1.21198,-0.826117
-483,176,0,0,0,0,0,0,0,0,0,-1,741,848,0,0
-476,176,0,0,0,0,0,0,0,0,0,-1,748,848,0,0
-469,176,0,0,0,0,0,0,0,0,0,-1,755,848,0,0
-462,176,0,0,0,0,0,0,0,0,0,-1,762,848,0,0
-455,176,0,0,0,0,0,0,0,0,0,-1,769,848,0,0
-448,176,0,0,0,0,0,0,0,0,0,-1,776,848,0,0
-441,176,0,0,0,0,0,0,0,0,0,-1,783,848,0,0
-434,176,0,0,0,0,0,0,0,0,0,-1,790,848,0,0
-427,176,0,0,0,0,0,0,0,0,0,-1,797,848,0,0
-420,176,0,0,0,0,0,0,0,0,0,-1,804,848,0,0
-413,176,0,0,0,0,0,0,0,0,0,-1,811,848,0,0
-406,176,0,0,0,0,0,0,0,0,0,-1,818,848,0,0
-399,176,0,0,0,0,0,0,0,0,0,-1,825,848,0,0
-392,176,0,0,0,0,0,0,0,0,0,-1,832,848,0,0
-385,176,0,0,0,0,0,0,0,0,0,-1,839,848,0,0
-378,176,0,0,0,0,0,0,0,0,0,-1,846,848,0,0
-371,176,0,0,0,0,0,0,0,0,0,-1,853,848,0,0
-364,176,0,0,0,0,0,0,0,0,0,-1,860,848,0,0
-357,176,0,0,0,0,0,0,0,0,0,-1,867,848,0,0
-350,176,0,0,0,0,0,0,0,0,0,-1,874,848,0,0
-343,176,0,0,0,0,0,0,0,0,0,-1,881,848,0,0
-336,176,0,0,0,0,0,0,0,0,0,-1,888,848,0,0
-329,176,0,0,0,0,0,0,0,0,0,-1,895,848,0,0
-322,176,0,0,0,0,0,0,0,0,0,-1,902,848,0,0
-315,176,0,0,0,0,0,0,0,0,0,-1,909,848,0,0
-308,176,0,0,0,0,0,0,0,0,0,-1,916,848,0,0
-301,176,0,0,0,0,0,0,0,0,0,-1,923,848,0,0
-294,176,0,0,0,0,0,0,0,0,0,-1,930,848,0,0
-287,176,0,0,0,0,0,0,0,0,0,-1,937,848,0,0
-280,176,0,0,0,0,0,0,0,0,0,-1,944,848,0,0
-273,176,0,0,0,0,0,0,0,0,0,-1,951,848,0,0
-266,176,0,0,0,0,0,0,0,0,0,-1,958,848,0,0
-259,176,0,0,0,0,0,0,0,0,0,-1,965,848,0,0
-252,176,0,0,0,0,0,0,0,0,0,-1,972,848,0,0
-245,176,0,0,0,0,0,0,0,0,0,-1,979,848,0,0
-238,176,0,0,0,0,0,0,0,0,0,-1,986,848,0,0
-231,176,0,0,0,0,0,0,0,0,0,-1,993,848,0,0
-224,176,0,0,0,0,0,0,0,0,0,-1,1000,848,0,0
-217,176,0,0,0,0,0,0,0,0,0,-1,1007,848,0,0
-210,176,0,0,0,0,0,0,0,0,0,-1,1014,848,0,0
-203,176,0,0,0,0,0,0,0,0,0,-1,1021,848,0,0
-196,176,0,0,0,0,0,0,0,0,0,-1,1028,848,0,0
-189,176,0,0,0,0,0,0,0,0,0,-1,1035,848,0,0
-182,176,0,0,0,0,0,0,0,0,0,-1,1042,848,0,0
-175,176,0,0,0,0,0,0,0,0,0,-1,1049,848,0,0
-168,176,0,0,0,0,0,0,0,0,0,-1,1056,848,0,0
-161,176,0,0,0,0,0,0,0,0,0,-1,1063,848,0,0
-154,176,0,0,0,0,0,0,0,0,0,-1,1070,848,0,0
-147,176,0,0,0,0,0,0,0,0,0,-1,1077,848,0,0
-140,176,0,0,0,0,0,0,0,0,0,-1,1084,848,0,0
-133,176,0,0,0,0,0,0,0,0,0,-1,1091,848,0,0
-126,176,0,0,0,0,0,0,0,0,0,-1,1098,848,0,0
-119,176,0,0,0,0,0,0,0,0,0,-1,1105,848,0,0
-112,176,0,0,0,0,0,0,0,0,0,-1,1112,848,0,0
-105,176,0,0,0,0,0,0,0,0,0,-1,1119,848,0,0
-98,176,0,0,0,0,0,0,0,0,0,-1,1126,848,0,0
-91,176,0,0,0,0,0,0,0,0,0,-1,1133,848,0,0
-84,176,0,0,0,0,0,0,0,0,0,-1,1140,848,0,0
-77,176,0,0,0,0,0,0,0,0,0,-1,1147,848,0,0
-70,176,0,0,0,0,0,0,0,0,0,-1,1154,848,0,0
-63,176,0,0,0,0,0,0,0,0,0,-1,1161,848,0,0
-56,176,0,0,0,0,0,0,0,0,0,-1,1168,848,0,0
-49,176,0,0,0,0,0,0,0,0,0,-1,1175,848,0,0
-42,176,0,0,0,0,0,0,0,0,0,-1,1182,848,0,0
-35,176,0,0,0,0,0,0,0,0,0,-1,1189,848,0,0
-28,176,0,0,0,0,0,0,0,0,0,-1,1196,848,0,0
-21,176,0,0,0,0,0,0,0,0,0,-1,1203,848,0,0
-14,176,0,0,0,0,0,0,0,0,0,-1,1210,848,0,0
-7,176,0,0,0,0,0,0,0,0,0,-1,1217,848,0,0
0,176,0,0,0,0,0,0,0,0,0,-1,1224,848,0,0
7,176,0,0,0,0,0,0,0,0,0,-1,1231,848,0,0
14,176,0,0,0,0,0,0,0,0,0,-1,1238,848,0,0
21,176,0,0,0,0,0,0,0,0,0,-1,1245,848,0,0
28,176,0,0,0,0,0,0,0,0,0,-1,1252,848,0,0
35,176,0,0,0,0,0,0,0,0,0,-1,1259,848,0,0
42,176,0,0,0,0,0,0,0,0,0,-1,1266,848,0,0
49,176,0,0,0,0,0,0,0,0,0,-1,1273,848,0,0
56,176,0,0,0,0,0,0,0,0,0,-1,1280,848,0,0
63,176,0,0,0,0,0,0,0,0,0,-1,1287,848,0,0
70,176,0,0,0,0,0,0,0,0,0,-1,1294,848,0,0
77,176,0,0,0,0,0,0,0,0,0,-1,1301,848,0,0
84,176,0,0,0,0,0,0,0,0,0,-1,1308,848,0,0
91,176,0,0,0,0,0,0,0,0,0,-1,1315,848,0,0
98,176,0,0,0,0,0,0,0,0,0,-1,1322,848,0,0
105,176,0,0,0,0,0,0,0,0,0,-1,1329,848,0,0
112,176,0,0,0,0,0,0,0,0,0,-1,1336,848,0,0
119,176,0,0,0,0,0,0,0,0,0,-1,1343,848,0,0
126,176,0,0,0,0,0,0,0,0,0,-1,1350,848,0,0
133,176,0,0,0,0,0,0,0,0,0,-1,1357,848,0,0
140,176,0,0,0,0,0,0,0,0,0,-1,1364,848,0,0
147,176,0,0,0,0,0,0,0,0,0,-1,1371,848,0,0
154,176,0,0,0,0,0,0,0,0,0,-1,1378,848,0,0
161,176,0,0,0,0,0,0,0,0,0,-1,1385,848,0,0
168,176,0,0,0,0,0,0,0,0,0,-1,1392,848,0,0
175,176,0,0,0,0,0,0,0,0,0,-1,1399,848,0,0
182,176,0,0,0,0,0,0,0,0,0,-1,1406,848,0,0
189,176,0,0,0,0,0,0,0,0,0,-1,1413,848,0,0
196,176,0,0,0,0,0,0,0,0,0,-1,1420,848,0,0
203,176,0,0,0,0,0,0,0,0,0,-1,1427,848,0,0
210,176,0,0,0,0,0,0,0,0,0,-1,1434,848,0,0
217,176,0,0,0,0,0,0,0,0,0,-1,1441,848,0,0
224,176,0,0,0,0,0,0,0,0,0,-1,1448,848,0,0
231,176,0,0,0,0,0,0,0,0,0,-1,1455,848,0,0
238,176,0,0,0,0,0,0,0,0,0,-1,1462,848,0,0
245,176,0,0,0,0,0,0,0,0,0,-1,1469,848,0,0
252,176,0,0,0,0,0,0,0,0,0,-1,1476,848,0,0
259,176,0,0,0,0,0,0,0,0,0,-1,1483,848,0,0
266,176,0,0,0,0,0,0,0,0,0,-1,1490,848,0,0
273,176,0,0,0,0,0,0,0,0,0,-1,1497,848,0,0
280,176,0,0,0,0,0,0,0,0,0,-1,1504,848,0,0
287,176,0,0,0,0,0,0,0,0,0,-1,1511,848,0,0
294,176,0,0,0,0,0,0,0,0,0,-1,1518,848,0,0
301,176,0,0,0,0,0,0,0,0,0,-1,1525,848,0,0
308,176,0,0,0,0,0,0,0,0,0,-1,1532,848,0,0
315,176,0,0,0,0,0,0,0,0,0,-1,1539,848,0,0
322,176,0,0,0,0,0,0,0,0,0,-1,1546,848,0,0
329,176,0,0,0,0,0,0,0,0,0,-1,1553,848,0,0
336,176,0,0,0,0,0,0,0,0,0,-1,1560,848,0,0
343,176,0,0,0,0,0,0,0,0,0,-1,1567,848,0,0
350,176,0,0,0,0,0,0,0,0,0,-1,1574,848,0,0
357,176,0,0,0,0,0,0,0,0,0,-1,1581,848,0,0
364,176,0,0,0,0,0,0,0,0,0,-1,1588,848,0,0
371,176,0,0,0,0,0,0,0,0,0,-1,1595,848,0,0
378,176,0,0,0,0,0,0,0,0,0,-1,1602,848,0,0
385,176,0,0,0,0,0,0,0,0,0,-1,1609,848,0,0
392,176,0,0,0,0,0,0,0,0,0,-1,1616,848,0,0
399,176,0,0,0,0,0,0,0,0,0,-1,1623,848,0,0
406,176,0,0,0,0,0,0,0,0,0,-1,1630,848,0,0
413,176,0,0,0,0,0,0,0,0,0,-1,1637,848,0,0
420,176,0,0,0,0,0,0,0,0,0,-1,1644,848,0,0
427,176,0,0,0,0,0,0,0,0,0,-1,1651,848,0,0
434,176,0,0,0,0,0,0,0,0,0,-1,1658,848,0,0
441,176,0,0,0,0,0,0,0,0,0,-1,1665,848,0,0
448,176,0,0,0,0,0,0,0,0,0,-1,1672,848,0,0
455,176,0,0,0,0,0,0,0,0,0,-1,1679,848,0,0
462,176,0,0,0,0,0,0,0,0,0,-1,1686,848,0,0
469,176,0,0,0,0,0,0,0,0,0,-1,1693,848,0,0
476,176,0,0,0,0,0,0,0,0,0,-1,1700,848,0,0
483,176,0,0,0,0,0,0,0,0,0,-1,1707,848,0,0
490,176,0,0,0,0,0,0,0,0,0,-1,1714,848,0,0
497,176,0,0,0,0,0,0,0,0,0,-1,1721,848,0,0
504,176,0,0,0,0,0,0,0,0,0,-1,1728,848,0,0
511,176,0,0,0,0,0,0,0,0,0,-1,1735,848,0,0
518,176,0,0,0,0,0,0,0,0,0,-1,1742,848,0,0
525,176,0,0,0,0,0,0,0,0,0,-1,1749,848,0,0
532,176,0,0,0,0,0,0,0,0,0,-1,1756,848,0,0
539,176,0,0,0,0,0,0,0,0,0,-1,1763,848,0,0
546,176,0,0,0,0,0,0,0,0,0,-1,1770,848,0,0
553,176,0,0,0,0,0,0,0,0,0,-1,1777,848,0,0
560,176,0,0,0,0,0,0,0,0,0,-1,1784,848,0,0
567,176,0,0,0,0,0,0,0,0,0,-1,1791,848,0,0
574,176,0,0,0,0,0,0,0,0,0,-1,1798,848,0,0
581,176,0,0,0,0,0,0,0,0,0,-1,1805,848,0,0
588,176,0,0,0,0,0,0,0,0,0,-1,1812,848,0,0
595,176,0,0,0,0,0,0,0,0,0,-1,1819,848,0,0
602,176,0,0,0,0,0,0,0,0,0,-1,1826,848,0,0
609,176,5.00244,0.840515,-0.00544127,0.000685422,-0.00274983,0.00173858,-0.00649443,-1.20504,0.00501072,0.0384932,1833,848,5.00247,-0.840518
616,176,4.73022,0.850464,-0.00313187,0.0010589,-0.00187449,0.00177498,-0.00384796,-1.20589,0.00331913,0.0395066,1840,848,4.73017,-0.85048
623,176,4.87463,0.530396,-0.00187037,0.000781887,-0.00131925,0.00132633,-0.00241481,-1.1794,0.00219021,0.0452927,1847,848,4.87463,-0.530425
630,176,4.96936,0.616089,-0.00124403,9.29194e-05,-0.00136838,0.000947378,-0.00209848,-1.01261,0.0017999,0.0431388,1854,848,4.96939,-0.616076
637,176,5.00989,0.732239,-0.00111848,-0.000600215,-0.00168905,0.000849468,-0.00256816,-0.861514,0.00205465,0.0324768,1861,848,5.00983,-0.732242
644,176,4.90039,0.756348,-0.00122518,-0.0011988,-0.00204983,0.00083788,-0.00326186,-0.788615,0.00250109,0.0300226,1868,848,4.90044,-0.756371
651,176,4.91687,0.69165,-0.00142763,-0.00171282,-0.00238514,0.000819168,-0.00395962,-0.755542,0.00295095,0.0301382,1875,848,4.91683,-0.691676
658,176,5.00842,0.603577,-0.00157548,-0.00208642,-0.00267955,0.000860752,-0.00452266,-0.737871,0.00333921,0.0350126,1882,848,5.0084,-0.603562
665,176,4.37207,1.38391,0,0,0,0,0,0,0,-1,1889,848,4.37202,-1.3839
672,176,4.34436,0.974609,-0.00183843,-0.0022908,-0.00266893,0.000613888,-0.00474311,-0.743126,0.00338531,0.0465115,1896,848,4.34435,-0.974635
679,176,4.37744,0.542725,-0.00207243,-0.00223433,-0.0026555,0.000503355,-0.00481011,-0.770161,0.00338701,0.0365885,1903,848,4.37745,-0.542706
686,176,4.43298,0.550598,-0.0021396,-0.00208192,-0.00257573,0.000465135,-0.00468666,-0.790996,0.00329046,0.0158398,1910,848,4.43302,-0.550624
693,176,4.45068,0.602966,-0.00206377,-0.00166303,-0.00238698,0.000531975,-0.00425877,-0.827271,0.0030321,0.0104378,1917,848,4.45068,-0.602938
700,176,4.4624,0.624695,-0.00192052,-0.00116929,-0.00209475,0.000583252,-0.00367307,-0.874111,0.00266449,0.0151711,1924,848,4.4624,-0.624699
707,176,4.45422,0.668396,-0.00167221,-0.000580751,-0.00170084,0.000659768,-0.00291273,-0.940639,0.00219505,0.0128141,1931,848,4.45427,-0.668389
714,176,4.44507,0.690613,-0.00133661,-0.000179437,-0.00124628,0.000616018,-0.00213206,-1.00272,0.00166514,0.010765,1938,848,4.44507,-0.690584
721,176,4.43518,0.702148,-0.000918242,0.00047145,-0.000994933,0.000990154,-0.00143695,-1.09022,0.00140918,0.0104637,1945,848,4.43512,-0.702154
728,176,4.44812,0.724426,-0.000439768,0.000917315,-0.000738587,0.00124173,-0.000764187,-1.15692,0.00116901,0.0128595,1952,848,4.4481,-0.724452
735,176,4.44141,0.756897,-7.13136e-06,0.0010942,-0.000664489,0.00140654,-0.000319471,-1.1314,0.00106035,0.0129574,1959,848,4.44143,-0.756893
742,176,4.46252,0.800598,0.000245574,0.00111261,-0.000620296,0.00143587,-7.76808e-05,-1.09039,0.00098416,0.0166584,1966,848,4.46248,-0.800594
749,176,4.46277,0.868835,0.000508356,0.000945674,-0.000634619,0.00139825,5.57823e-05,-0.951305,0.000914139,0.0256183,1973,848,4.46283,-0.868819
756,176,4.47742,1.01074,0.000842449,0.000356728,-0.000549483,0.00120035,-1.17224e-06,-0.577316,0.000800624,0.0401812,1980,848,4.47745,-1.01076
763,176,4.48499,1.11975,0,0,0,0,0,0,0,-1,1987,848,4.48499,-1.11976
770,176,6.42456,-0.569763,0,0,0,0,0,0,0,-1,1994,848,6.42457,0.569781
777,176,6.14355,-0.353455,0,0,0,0,0,0,0,-1,2001,848,6.1435,0.35344
784,176,0,0,0,0,0,0,0,0,0,-1,2008,848,0,0
791,176,0,0,0,0,0,0,0,0,0,-1,2015,848,0,0
798,176,0,0,0,0,0,0,0,0,0,-1,2022,848,0,0
805,176,0,0,0,0,0,0,0,0,0,-1,2029,848,0,0
812,176,0,0,0,0,0,0,0,0,0,-1,2036,848,0,0
-700,169,0,0,0,0,0,0,0,0,0,-1,524,855,0,0
-693,169,0,0,0,0,0,0,0,0,0,-1,531,855,0,0
-686,169,0,0,0,0,0,0,0,0,0,-1,538,855,0,0
-679,169,0,0,0,0,0,0,0,0,0,-1,545,855,0,0
-672,169,0,0,0,0,0,0,0,0,0,-1,552,855,0,0
-665,169,-0.33429,-1.31989,0,0,0,0,0,0,0,-1,559,855,-0.33428,1.31989
-658,169,0.0692749,-1.55786,0.00767666,0.0109514,0.0457671,0.0551104,-0.0364824,0.803279,0.0532444,0.0495269,566,855,0.0692988,1.55784
-651,169,0.638977,-1.20929,-0.00139889,0.00449134,0.038441,0.0400999,-0.0370074,0.823631,0.0445298,0.0481001,573,855,0.638987,1.2093
-644,169,0.275208,-0.677673,-0.00607133,0.00054655,0.0314568,0.0288679,-0.0343927,0.837801,0.03657,0.0446318,580,855,0.275235,0.67769
-637,169,0.421875,-0.577209,-0.00796507,-0.00166178,0.0250956,0.0204793,-0.0301062,0.847864,0.0293813,0.0420003,587,855,0.421873,0.577238
-630,169,-0.235474,2.39655,0,0,0,0,0,0,0,-1,594,855,-0.23546,-2.39656
-623,169,-0.684143,0.599304,-0.00744451,-0.00296109,0.0148235,0.00978929,-0.0201949,0.860443,0.0176554,0.0376904,601,855,-0.684141,-0.599275
-616,169,-0.697876,0.762695,-0.00674863,-0.0029748,0.0108225,0.00612402,-0.0158474,0.871706,0.0130928,0.021793,608,855,-0.697855,-0.76271
-609,169,-0.655762,0.792664,-0.00538704,-0.00241834,0.00767702,0.00391651,-0.0117219,0.880895,0.00939624,0.0135683,615,855,-0.655778,-0.792685
-602,169,-0.650391,0.757874,-0.00465535,-0.00218684,0.00537164,0.00209052,-0.00893272,0.898324,0.0067606,0.0124997,622,855,-0.650393,-0.757903
-595,169,-0.658813,0.711304,-0.00371421,-0.00180366,0.00364753,0.00101161,-0.00652949,0.91347,0.00472642,0.0107077,629,855,-0.658831,-0.711329
-588,169,-0.643005,0.679382,-0.00297582,-0.00165489,0.00248269,0.00025369,-0.00488439,0.915401,0.00334404,0.00822342,636,855,-0.643003,-0.679384
-581,169,-0.640503,0.665588,-0.00291773,-0.00114724,0.00193818,9.82878e-05,-0.00416326,0.999622,0.00280884,0.00870817,643,855,-0.640523,-0.665561
-574,169,-0.650574,0.647522,-0.0033693,-0.000757551,0.00224771,0.000536093,-0.00466294,1.04856,0.00330187,0.0110011,650,855,-0.650569,-0.647524
-567,169,-0.632263,0.621765,-0.00408064,-0.00136986,0.00235704,-6.29574e-06,-0.0054442,1.04633,0.00362737,0.0110122,657,855,-0.632268,-0.621789
-560,169,-0.667542,0.586792,-0.00449427,-0.00156317,0.00243166,-0.000189558,-0.00586788,1.0566,0.00385029,0.0100303,664,855,-0.667562,-0.586765
-553,169,-0.694336,0.549011,-0.00439529,-0.00138707,0.00251478,3.90888e-05,-0.00582145,1.05491,0.00389406,0.0180562,671,855,-0.694323,-0.549012
-546,169,-0.847107,0.650085,-0.00418973,-0.00156415,0.00267232,0.000100427,-0.00585431,1.01371,0.00393678,0.0297711,678,855,-0.847131,-0.650055
-539,169,-1.07251,0.734558,-0.00355548,-0.00177092,0.00246617,-4.05719e-05,-0.00528582,0.958976,0.00351043,0.0352719,685,855,-1.07252,-0.734564
-532,169,-1.20728,0.7854,-0.00228685,-0.00174742,0.00207583,7.6141e-05,-0.00411041,0.850001,0.002766,0.0373053,692,855,-1.2073,-0.785429
-525,169,-1.13727,0.89801,-0.000420065,-0.00172647,0.00146467,0.000530453,-0.00267699,0.575648,0.00198524,0.0466561,699,855,-1.13729,-0.898039
-518,169,-1.17383,0.795654,0.00203985,-0.00161932,0.000619463,0.00214187,-0.00172135,0.163233,0.00223483,0.0433961,706,855,-1.17382,-0.795641
-511,169,-1.31299,0.596375,0.00511048,-0.00152006,-0.00048821,0.00514624,-0.00155581,-0.0731051,0.00405029,0.0405952,713,855,-1.31296,-0.596374
-504,169,-1.36121,0.520752,0.00871774,-0.00150533,-0.00185428,0.00904367,-0.00183127,-0.174,0.00672319,0.0405223,720,855,-1.36118,-0.52076
-497,169,-1.23737,0.866699,0.0126496,-0.00176865,-0.00334631,0.0133883,-0.00250743,-0.217291,0.00986814,0.041329,727,855,-1.23734,-0.866715
-490,169,0,0,0,0,0,0,0,0,0,-1,734,855,0,0
-483,169,0,0,0,0,0,0,0,0,0,-1,741,855,0,0
-476,169,0,0,0,0,0,0,0,0,0,-1,748,855,0,0
-469,169,0,0,0,0,0,0,0,0,0,-1,755,855,0,0
-462,169,0,0,0,0,0,0,0,0,0,-1,762,855,0,0
-455,169,0,0,0,0,0,0,0,0,0,-1,769,855,0,0
-448,169,0,0,0,0,0,0,0,0,0,-1,776,855,0,0
-441,169,0,0,0,0,0,0,0,0,0,-1,783,855,0,0
-434,169,0,0,0,0,0,0,0,0,0,-1,790,855,0,0
-427,169,0,0,0,0,0,0,0,0,0,-1,797,855,0,0
-420,169,0,0,0,0,0,0,0,0,0,-1,804,855,0,0
-413,169,0,0,0,0,0,0,0,0,0,-1,811,855,0,0
-406,169,0,0,0,0,0,0,0,0,0,-1,818,855,0,0
-399,169,0,0,0,0,0,0,0,0,0,-1,825,855,0,0
-392,169,0,0,0,0,0,0,0,0,0,-1,832,855,0,0
-385,169,0,0,0,0,0,0,0,0,0,-1,839,855,0,0
-378,169,0,0,0,0,0,0,0,0,0,-1,846,855,0,0
-371,169,0,0,0,0,0,0,0,0,0,-1,853,855,0,0
-364,169,0,0,0,0,0,0,0,0,0,-1,860,855,0,0
-357,169,0,0,0,0,0,0,0,0,0,-1,867,855,0,0
-350,169,0,0,0,0,0,0,0,0,0,-1,874,855,0,0
-343,169,0,0,0,0,0,0,0,0,0,-1,881,855,0,0
-336,169,0,0,0,0,0,0,0,0,0,-1,888,855,0,0
-329,169,0,0,0,0,0,0,0,0,0,-1,895,855,0,0
-322,169,0,0,0,0,0,0,0,0,0,-1,902,855,0,0
-315,169,0,0,0,0,0,0,0,0,0,-1,909,855,0,0
-308,169,0,0,0,0,0,0,0,0,0,-1,916,855,0,0
-301,169,0,0,0,0,0,0,0,0,0,-1,923,855,0,0
-294,169,0,0,0,0,0,0,0,0,0,-1,930,855,0,0
-287,169,0,0,0,0,0,0,0,0,0,-1,937,855,0,0
-280,169,0,0,0,0,0,0,0,0,0,-1,944,855,0,0
-273,169,0,0,0,0,0,0,0,0,0,-1,951,855,0,0
-266,169,0,0,0,0,0,0,0,0,0,-1,958,855,0,0
-259,169,0,0,0,0,0,0,0,0,0,-1,965,855,0,0
-252,169,0,0,0,0,0,0,0,0,0,-1,972,855,0,0
-245,169,0,0,0,0,0,0,0,0,0,-1,979,855,0,0
-238,169,0,0,0,0,0,0,0,0,0,-1,986,855,0,0
-231,169,0,0,0,0,0,0,0,0,0,-1,993,855,0,0
-224,169,0,0,0,0,0,0,0,0,0,-1,1000,855,0,0
-217,169,0,0,0,0,0,0,0,0,0,-1,1007,855,0,0
-210,169,0,0,0,0,0,0,0,0,0,-1,1014,855,0,0
-203,169,0,0,0,0,0,0,0,0,0,-1,1021,855,0,0
-196,169,0,0,0,0,0,0,0,0,0,-1,1028,855,0,0
-189,169,0,0,0,0,0,0,0,0,0,-1,1035,855,0,0
-182,169,0,0,0,0,0,0,0,0,0,-1,1042,855,0,0
-175,169,0,0,0,0,0,0,0,0,0,-1,1049,855,0,0
-168,169,0,0,0,0,0,0,0,0,0,-1,1056,855,0,0
-161,169,0,0,0,0,0,0,0,0,0,-1,1063,855,0,0
-154,169,0,0,0,0,0,0,0,0,0,-1,1070,855,0,0
-147,169,0,0,0,0,0,0,0,0,0,-1,1077,855,0,0
-140,169,0,0,0,0,0,0,0,0,0,-1,1084,855,0,0
-133,169,0,0,0,0,0,0,0,0,0,-1,1091,855,0,0
-126,169,0,0,0,0,0,0,0,0,0,-1,1098,855,0,0
-119,169,0,0,0,0,0,0,0,0,0,-1,1105,855,0,0
-112,169,0,0,0,0,0,0,0,0,0,-1,1112,855,0,0
-105,169,0,0,0,0,0,0,0,0,0,-1,1119,855,0,0
-98,169,0,0,0,0,0,0,0,0,0,-1,1126,855,0,0
-91,169,0,0,0,0,0,0,0,0,0,-1,1133,855,0,0
-84,169,0,0,0,0,0,0,0,0,0,-1,1140,855,0,0
-77,169,0,0,0,0,0,0,0,0,0,-1,1147,855,0,0
-70,169,0,0,0,0,0,0,0,0,0,-1,1154,855,0,0
-63,169,0,0,0,0,0,0,0,0,0,-1,1161,855,0,0
-56,169,0,0,0,0,0,0,0,0,0,-1,1168,855,0,0
-49,169,0,0,0,0,0,0,0,0,0,-1,1175,855,0,0
-42,169,0,0,0,0,0,0,0,0,0,-1,1182,855,0,0
-35,169,0,0,0,0,0,0,0,0,0,-1,1189,855,0,0
-28,169,0,0,0,0,0,0,0,0,0,-1,1196,855,0,0
-21,169,0,0,0,0,0,0,0,0,0,-1,1203,855,0,0
-14,169,0,0,0,0,0,0,0,0,0,-1,1210,855,0,0
-7,169,0,0,0,0,0,0,0,0,0,-1,1217,855,0,0
0,169,0,0,0,0,0,0,0,0,0,-1,1224,855,0,0
7,169,0,0,0,0,0,0,0,0,0,-1,1231,855,0,0
14,169,0,0,0,0,0,0,0,0,0,-1,1238,855,0,0
21,169,0,0,0,0,0,0,0,0,0,-1,1245,855,0,0
28,169,0,0,0,0,0,0,0,0,0,-1,1252,855,0,0
35,169,0,0,0,0,0,0,0,0,0,-1,1259,855,0,0
42,169,0,0,0,0,0,0,0,0,0,-1,1266,855,0,0
49,169,0,0,0,0,0,0,0,0,0,-1,1273,855,0,0
56,169,0,0,0,0,0,0,0,0,0,-1,1280,855,0,0
63,169,0,0,0,0,0,0,0,0,0,-1,1287,855,0,0
70,169,0,0,0,0,0,0,0,0,0,-1,1294,855,0,0
77,169,0,0,0,0,0,0,0,0,0,-1,1301,855,0,0
84,169,0,0,0,0,0,0,0,0,0,-1,1308,855,0,0
91,169,0,0,0,0,0,0,0,0,0,-1,1315,855,0,0
98,169,0,0,0,0,0,0,0,0,0,-1,1322,855,0,0
105,169,0,0,0,0,0,0,0,0,0,-1,1329,855,0,0
112,169,0,0,0,0,0,0,0,0,0,-1,1336,855,0,0
119,169,0,0,0,0,0,0,0,0,0,-1,1343,855,0,0
126,169,0,0,0,0,0,0,0,0,0,-1,1350,855,0,0
133,169,0,0,0,0,0,0,0,0,0,-1,1357,855,0,0
140,169,0,0,0,0,0,0,0,0,0,-1,1364,855,0,0
147,169,0,0,0,0,0,0,0,0,0,-1,1371,855,0,0
154,169,0,0,0,0,0,0,0,0,0,-1,1378,855,0,0
161,169,0,0,0,0,0,0,0,0,0,-1,1385,855,0,0
168,169,0,0,0,0,0,0,0,0,0,-1,1392,855,0,0
175,169,0,0,0,0,0,0,0,0,0,-1,1399,855,0,0
182,169,0,0,0,0,0,0,0,0,0,-1,1406,855,0,0
189,169,0,0,0,0,0,0,0,0,0,-1,1413,855,0,0
196,169,0,0,0,0,0,0,0,0,0,-1,1420,855,0,0
203,169,0,0,0,0,0,0,0,0,0,-1,1427,855,0,0
210,169,0,0,0,0,0,0,0,0,0,-1,1434,855,0,0
217,169,0,0,0,0,0,0,0,0,0,-1,1441,855,0,0
224,169,0,0,0,0,0,0,0,0,0,-1,1448,855,0,0
231,169,0,0,0,0,0,0,0,0,0,-1,1455,855,0,0
238,169,0,0,0,0,0,0,0,0,0,-1,1462,855,0,0
245,169,0,0,0,0,0,0,0,0,0,-1,1469,855,0,0
252,169,0,0,0,0,0,0,0,0,0,-1,1476,855,0,0
259,169,0,0,0,0,0,0,0,0,0,-1,1483,855,0,0
266,169,0,0,0,0,0,0,0,0,0,-1,1490,855,0,0
273,169,0,0,0,0,0,0,0,0,0,-1,1497,855,0,0
280,169,0,0,0,0,0,0,0,0,0,-1,1504,855,0,0
287,169,0,0,0,0,0,0,0,0,0,-1,1511,855,0,0
294,169,0,0,0,0,0,0,0,0,0,-1,1518,855,0,0
301,169,0,0,0,0,0,0,0,0,0,-1,1525,855,0,0
308,169,0,0,0,0,0,0,0,0,0,-1,1532,855,0,0
315,169,0,0,0,0,0,0,0,0,0,-1,1539,855,0,0
322,169,0,0,0,0,0,0,0,0,0,-1,1546,855,0,0
329,169,0,0,0,0,0,0,0,0,0,-1,1553,855,0,0
336,169,0,0,0,0,0,0,0,0,0,-1,1560,855,0,0
343,169,0,0,0,0,0,0,0,0,0,-1,1567,855,0,0
350,169,0,0,0,0,0,0,0,0,0,-1,1574,855,0,0
357,169,0,0,0,0,0,0,0,0,0,-1,1581,855,0,0
364,169,0,0,0,0,0,0,0,0,0,-1,1588,855,0,0
371,169,0,0,0,0,0,0,0,0,0,-1,1595,855,0,0
378,169,0,0,0,0,0,0,0,0,0,-1,1602,855,0,0
385,169,0,0,0,0,0,0,0,0,0,-1,1609,855,0,0
392,169,0,0,0,0,0,0,0,0,0,-1,1616,855,0,0
399,169,0,0,0,0,0,0,0,0,0,-1,1623,855,0,0
406,169,0,0,0,0,0,0,0,0,0,-1,1630,855,0,0
413,169,0,0,0,0,0,0,0,0,0,-1,1637,855,0,0
420,169,0,0,0,0,0,0,0,0,0,-1,1644,855,0,0
427,169,0,0,0,0,0,0,0,0,0,-1,1651,855,0,0
434,169,0,0,0,0,0,0,0,0,0,-1,1658,855,0,0
441,169,0,0,0,0,0,0,0,0,0,-1,1665,855,0,0
448,169,0,0,0,0,0,0,0,0,0,-1,1672,855,0,0
455,169,0,0,0,0,0,0,0,0,0,-1,1679,855,0,0
462,169,0,0,0,0,0,0,0,0,0,-1,1686,855,0,0
469,169,0,0,0,0,0,0,0,0,0,-1,1693,855,0,0
476,169,0,0,0,0,0,0,0,0,0,-1,1700,855,0,0
483,169,0,0,0,0,0,0,0,0,0,-1,1707,855,0,0
490,169,0,0,0,0,0,0,0,0,0,-1,1714,855,0,0
497,169,0,0,0,0,0,0,0,0,0,-1,1721,855,0,0
504,169,0,0,0,0,0,0,0,0,0,-1,1728,855,0,0
511,169,0,0,0,0,0,0,0,0,0,-1,1735,855,0,0
518,169,0,0,0,0,0,0,0,0,0,-1,1742,855,0,0
525,169,0,0,0,0,0,0,0,0,0,-1,1749,855,0,0
532,169,0,0,0,0,0,0,0,0,0,-1,1756,855,0,0
539,169,0,0,0,0,0,0,0,0,0,-1,1763,855,0,0
546,169,0,0,0,0,0,0,0,0,0,-1,1770,855,0,0
553,169,0,0,0,0,0,0,0,0,0,-1,1777,855,0,0
560,169,0,0,0,0,0,0,0,0,0,-1,1784,855,0,0
567,169,0,0,0,0,0,0,0,0,0,-1,1791,855,0,0
574,169,0,0,0,0,0,0,0,0,0,-1,1798,855,0,0
581,169,0,0,0,0,0,0,0,0,0,-1,1805,855,0,0
588,169,0,0,0,0,0,0,0,0,0,-1,1812,855,0,0
595,169,0,0,0,0,0,0,0,0,0,-1,1819,855,0,0
602,169,0,0,0,0,0,0,0,0,0,-1,1826,855,0,0
609,169,0,0,0,0,0,0,0,0,0,-1,1833,855,0,0
616,169,4.7218,0.791199,-0.00318665,0.000585263,-0.00254691,0.00186847,-0.00446985,-1.10409,0.00376076,0.0406634,1840,855,4.72175,-0.791193
623,169,4.92395,0.423706,-0.0018341,0.000594396,-0.00159907,0.00138799,-0.00262769,-1.11013,0.00235499,0.0464771,1847,855,4.92396,-0.423712
630,169,4.93799,0.466675,-0.00109409,5.41687e-05,-0.00137552,0.00097057,-0.00201049,-0.983102,0.00175568,0.0445204,1854,855,4.93804,-0.466652
637,169,4.94714,0.629639,-0.000937279,-0.000537815,-0.00156012,0.000835308,-0.0023104,-0.849064,0.00188156,0.0370956,1861,855,4.94712,-0.62963
644,169,4.94629,0.783447,-0.00110903,-0.00109288,-0.00186908,0.000768143,-0.00297005,-0.787559,0.00227963,0.0353183,1868,855,4.94633,-0.783451
651,169,4.91931,0.679077,-0.00139471,-0.00156718,-0.0021904,0.000711158,-0.00367304,-0.765724,0.00271695,0.0355445,1875,855,4.91932,-0.679052
658,169,4.98181,0.625061,-0.00163296,-0.00191754,-0.00248692,0.000715734,-0.00426624,-0.756822,0.00311031,0.0338423,1882,855,4.98185,-0.62508
665,169,5.0658,0.55127,-0.0017852,-0.00201213,-0.00263198,0.000735762,-0.0045331,-0.763856,0.00329482,0.0440505,1889,855,5.06581,-0.551255
672,169,4.46252,0.882385,0,0,0,0,0,0,0,-1,1896,855,4.46252,-0.882401
679,169,4.57239,0.55481,-0.00233329,-0.00207511,-0.00251054,0.00030966,-0.00471806,-0.811086,0.00325351,0.0436312,1903,855,4.57234,-0.554836
686,169,4.46106,0.565796,-0.0024458,-0.00194201,-0.00246681,0.000285731,-0.00467354,-0.836279,0.00321517,0.0201098,1910,855,4.46109,-0.56577
693,169,4.47449,0.61676,-0.00238518,-0.00160451,-0.00231733,0.000355136,-0.00434482,-0.868835,0.00302189,0.0115701,1917,855,4.47443,-0.616746
700,169,4.49365,0.655029,-0.00222814,-0.00119806,-0.00204053,0.000391423,-0.00381763,-0.909019,0.00268509,0.0123254,1924,855,4.49366,-0.655016
707,169,4.47717,0.661865,-0.00194158,-0.000714245,-0.00164703,0.000429722,-0.00308555,-0.963727,0.00221422,0.0134242,1931,855,4.47715,-0.661895
714,169,4.45215,0.670715,-0.00152185,-0.000377236,-0.00118181,0.000363551,-0.00226264,-1.01089,0.00164307,0.0126287,1938,855,4.45212,-0.670691
721,169,4.43518,0.700623,-0.000943795,0.000191096,-0.000879663,0.000670456,-0.00142315,-1.07185,0.00123451,0.014783,1945,855,4.43519,-0.700632
728,169,4.46301,0.740845,-0.00023613,0.000528889,-0.000536669,0.000805415,-0.000512656,-1.09501,0.00076722,0.0123501,1952,855,4.46299,-0.740831
735,169,4.47693,0.770508,0.000438171,0.000519024,-0.000343992,0.000824957,0.000132238,-0.843891,0.00051162,0.0180125,1959,855,4.47693,-0.770484
742,169,4.49744,0.803406,0.000908902,0.000379895,-0.000148352,0.000947664,0.000341132,-0.255574,0.00055424,0.0137895,1966,855,4.4974,-0.80339
749,169,4.54858,0.81366,0.00133779,-0.000159141,-5.93943e-05,0.00134014,-0.000161494,-0.0395945,0.000951836,0.0208115,1973,855,4.54854,-0.813669
756,169,4.60046,0.852539,0.00177636,-0.00112364,0.000126984,0.00178191,-0.00112919,0.043676,0.00169475,0.0404748,1980,855,4.60052,-0.852533
763,169,4.62402,0.864441,0,0,0,0,0,0,0,-1,1987,855,4.62404,-0.864424
770,169,4.36951,0.923401,0,0,0,0,0,0,0,-1,1994,855,4.36945,-0.923402
777,169,6.96631,0.0132446,0,0,0,0,0,0,0,-1,2001,855,6.96629,-0.0132431
784,169,6.61108,0.287598,0,0,0,0,0,0,0,-1,2008,855,6.61108,-0.287618
791,169,0,0,0,0,0,0,0,0,0,-1,2015,855,0,0
798,169,0,0,0,0,0,0,0,0,0,-1,2022,855,0,0
805,169,0,0,0,0,0,0,0,0,0,-1,2029,855,0,0
812,169,0,0,0,0,0,0,0,0,0,-1,2036,855,0,0
-700,162,0,0,0,0,0,0,0,0,0,-1,524,862,0,0
-693,162,0,0,0,0,0,0,0,0,0,-1,531,862,0,0
-686,162,0,0,0,0,0,0,0,0,0,-1,538,862,0,0
-679,162,0,0,0,0,0,0,0,0,0,-1,545,862,0,0
-672,162,0,0,0,0,0,0,0,0,0,-1,552,862,0,0
-665,162,-0.650391,-1.43585,0,0,0,0,0,0,0,-1,559,862,-0.650365,1.43584
-658,162,-0.264038,-1.54028,0.0169442,0.00872767,0.0452472,0.0582692,-0.0325974,0.740124,0.0531552,0.0488042,566,862,-0.264038,1.5403
-651,162,0.088501,-1.46362,0.00598655,0.0033707,0.0382754,0.0429764,-0.0336191,0.768319,0.0443323,0.0474258,573,862,0.0885141,1.46361
-644,162,0.262268,-1.05298,-0.000497891,7.71715e-05,0.031476,0.031267,-0.0316877,0.789966,0.0363472,0.0439904,580,862,0.26228,1.05296
-637,162,0.420105,-0.59613,-0.00394565,-0.00176042,0.0252002,0.0223708,-0.0280769,0.807063,0.029188,0.0429206,587,862,0.420123,0.596105
-630,162,0.559998,-0.146423,0,0,0,0,0,0,0,-1,594,862,0.560011,0.146413
-623,162,-0.695374,0.768494,-0.00564566,-0.00278374,0.0149406,0.0107943,-0.0192237,0.833141,0.0175572,0.0321487,601,862,-0.695376,-0.76852
-616,162,-0.696838,0.782227,-0.00578748,-0.00278675,0.0109096,0.0067252,-0.0152994,0.853733,0.0130332,0.0177859,608,862,-0.696837,-0.782249
-609,162,-0.689331,0.766663,-0.00506108,-0.00221816,0.00771552,0.00420576,-0.011485,0.876494,0.00937838,0.013348,615,862,-0.689316,-0.766639
-602,162,-0.690918,0.738098,-0.00467114,-0.00216348,0.00535798,0.00208543,-0.00892004,0.900336,0.00675009,0.0109022,622,862,-0.690901,-0.738117
-595,162,-0.688354,0.714478,-0.00398539,-0.00174119,0.00371566,0.0010181,-0.00674468,0.932041,0.00487142,0.00980308,629,862,-0.688334,-0.714459
-588,162,-0.670776,0.690552,-0.00337886,-0.0015643,0.00258243,0.000265588,-0.00520875,0.954327,0.00356433,0.00955191,636,862,-0.670777,-0.690524
-581,162,-0.663757,0.670166,-0.00337819,-0.00110632,0.00200354,6.09038e-05,-0.00454541,1.04329,0.00305078,0.0110093,643,862,-0.66375,-0.670182
-574,162,-0.693115,0.634949,-0.00386078,-0.000803975,0.0023146,0.000441322,-0.00510608,1.0772,0.00356029,0.015493,650,862,-0.693112,-0.634935
-567,162,-0.695801,0.59259,-0.00455908,-0.00143739,0.00243398,-0.000106783,-0.00588968,1.07051,0.00389135,0.0164315,657,862,-0.695807,-0.592566
-560,162,-0.691589,0.542175,-0.00489273,-0.00158846,0.0024576,-0.000279285,-0.0062019,1.08133,0.00404472,0.0114567,664,862,-0.69158,-0.542154
-553,162,-0.7005,0.506836,-0.00475003,-0.00140898,0.00246713,-0.000100013,-0.006059,1.083,0.00400641,0.0212568,671,862,-0.700522,-0.50685
-546,162,-0.957581,0.638,-0.00450814,-0.00154508,0.00254248,-8.39746e-05,-0.00596925,1.0492,0.00395181,0.0319853,678,862,-0.957551,-0.637986
-539,162,-1.25391,0.713318,-0.00377853,-0.001674,0.00222541,-0.000264611,-0.00518791,1.00624,0.00337387,0.0381467,685,862,-1.2539,-0.713323
-532,162,-1.20374,0.777344,-0.00235322,-0.00155393,0.00167829,-0.000228357,-0.00367879,0.902283,0.00238006,0.0369203,692,862,-1.20371,-0.77736
-525,162,-1.18372,0.845947,-0.000239167,-0.00134307,0.000867715,0.000237269,-0.0018195,0.502129,0.00129933,0.0402307,699,862,-1.18369,-0.845966
-518,162,-1.16388,0.686401,0.00260813,-0.000978482,-0.000222552,0.00262189,-0.000992239,-0.061735,0.00215617,0.0415725,706,862,-1.16391,-0.686387
-511,162,-1.01904,0.398193,0.00622368,-0.000491258,-0.00160581,0.00658794,-0.000855513,-0.223061,0.00470314,0.0432459,713,862,-1.01903,-0.39821
-504,162,-1.05432,0.268311,0.0105291,7.61147e-05,-0.00322812,0.0114457,-0.000840432,-0.276646,0.00792546,0.042283,720,862,-1.05434,-0.268282
-497,162,-1.17432,0.896667,0.0153416,0.000537454,-0.00485625,0.0167924,-0.000913378,-0.290315,0.0115115,0.0427338,727,862,-1.17432,-0.896685
-490,162,0,0,0,0,0,0,0,0,0,-1,734,862,0,0
-483,162,0,0,0,0,0,0,0,0,0,-1,741,862,0,0
-476,162,0,0,0,0,0,0,0,0,0,-1,748,862,0,0
-469,162,0,0,0,0,0,0,0,0,0,-1,755,862,0,0
-462,162,0,0,0,0,0,0,0,0,0,-1,762,862,0,0
-455,162,0,0,0,0,0,0,0,0,0,-1,769,862,0,0
-448,162,0,0,0,0,0,0,0,0,0,-1,776,862,0,0
-441,162,0,0,0,0,0,0,0,0,0,-1,783,862,0,0
-434,162,0,0,0,0,0,0,0,0,0,-1,790,862,0,0
-427,162,0,0,0,0,0,0,0,0,0,-1,797,862,0,0
-420,162,0,0,0,0,0,0,0,0,0,-1,804,862,0,0
-413,162,0,0,0,0,0,0,0,0,0,-1,811,862,0,0
-406,162,0,0,0,0,0,0,0,0,0,-1,818,862,0,0
-399,162,0,0,0,0,0,0,0,0,0,-1,825,862,0,0
-392,162,0,0,0,0,0,0,0,0,0,-1,832,862,0,0
-385,162,0,0,0,0,0,0,0,0,0,-1,839,862,0,0
-378,162,0,0,0,0,0,0,0,0,0,-1,846,862,0,0
-371,162,0,0,0,0,0,0,0,0,0,-1,853,862,0,0
-364,162,0,0,0,0,0,0,0,0,0,-1,860,862,0,0
-357,162,0,0,0,0,0,0,0,0,0,-1,867,862,0,0
-350,162,0,0,0,0,0,0,0,0,0,-1,874,862,0,0
-343,162,0,0,0,0,0,0,0,0,0,-1,881,862,0,0
-336,162,0,0,0,0,0,0,0,0,0,-1,888,862,0,0
-329,162,0,0,0,0,0,0,0,0,0,-1,895,862,0,0
-322,162,0,0,0,0,0,0,0,0,0,-1,902,862,0,0
-315,162,0,0,0,0,0,0,0,0,0,-1,909,862,0,0
-308,162,0,0,0,0,0,0,0,0,0,-1,916,862,0,0
-301,162,0,0,0,0,0,0,0,0,0,-1,923,862,0,0
-294,162,0,0,0,0,0,0,0,0,0,-1,930,862,0,0
-287,162,0,0,0,0,0,0,0,0,0,-1,937,862,0,0
-280,162,0,0,0,0,0,0,0,0,0,-1,944,862,0,0
-273,162,0,0,0,0,0,0,0,0,0,-1,951,862,0,0
-266,162,0,0,0,0,0,0,0,0,0,-1,958,862,0,0
-259,162,0,0,0,0,0,0,0,0,0,-1,965,862,0,0
-252,162,0,0,0,0,0,0,0,0,0,-1,972,862,0,0
-245,162,0,0,0,0,0,0,0,0,0,-1,979,862,0,0
-238,162,0,0,0,0,0,0,0,0,0,-1,986,862,0,0
-231,162,0,0,0,0,0,0,0,0,0,-1,993,862,0,0
-224,162,0,0,0,0,0,0,0,0,0,-1,1000,862,0,0
-217,162,0,0,0,0,0,0,0,0,0,-1,1007,862,0,0
-210,162,0,0,0,0,0,0,0,0,0,-1,1014,862,0,0
-203,162,0,0,0,0,0,0,0,0,0,-1,1021,862,0,0
-196,162,0,0,0,0,0,0,0,0,0,-1,1028,862,0,0
-189,162,0,0,0,0,0,0,0,0,0,-1,1035,862,0,0
-182,162,0,0,0,0,0,0,0,0,0,-1,1042,862,0,0
-175,162,0,0,0,0,0,0,0,0,0,-1,1049,862,0,0
-168,162,0,0,0,0,0,0,0,0,0,-1,1056,862,0,0
-161,162,0,0,0,0,0,0,0,0,0,-1,1063,862,0,0
-154,162,0,0,0,0,0,0,0,0,0,-1,1070,862,0,0
-147,162,0,0,0,0,0,0,0,0,0,-1,1077,862,0,0
-140,162,0,0,0,0,0,0,0,0,0,-1,1084,862,0,0
-133,162,0,0,0,0,0,0,0,0,0,-1,1091,862,0,0
-126,162,0,0,0,0,0,0,0,0,0,-1,1098,862,0,0
-119,162,0,0,0,0,0,0,0,0,0,-1,1105,862,0,0
-112,162,0,0,0,0,0,0,0,0,0,-1,1112,862,0,0
-105,162,0,0,0,0,0,0,0,0,0,-1,1119,862,0,0
-98,162,0,0,0,0,0,0,0,0,0,-1,1126,862,0,0
-91,162,0,0,0,0,0,0,0,0,0,-1,1133,862,0,0
-84,162,0,0,0,0,0,0,0,0,0,-1,1140,862,0,0
-77,162,0,0,0,0,0,0,0,0,0,-1,1147,862,0,0
-70,162,0,0,0,0,0,0,0,0,0,-1,1154,862,0,0
-63,162,0,0,0,0,0,0,0,0,0,-1,1161,862,0,0
-56,162,0,0,0,0,0,0,0,0,0,-1,1168,862,0,0
-49,162,0,0,0,0,0,0,0,0,0,-1,1175,862,0,0
-42,162,0,0,0,0,0,0,0,0,0,-1,1182,862,0,0
-35,162,0,0,0,0,0,0,0,0,0,-1,1189,862,0,0
-28,162,0,0,0,0,0,0,0,0,0,-1,1196,862,0,0
-21,162,0,0,0,0,0,0,0,0,0,-1,1203,862,0,0
-14,162,0,0,0,0,0,0,0,0,0,-1,1210,862,0,0
-7,162,0,0,0,0,0,0,0,0,0,-1,1217,862,0,0
0,162,0,0,0,0,0,0,0,0,0,-1,1224,862,0,0
7,162,0,0,0,0,0,0,0,0,0,-1,1231,862,0,0
14,162,0,0,0,0,0,0,0,0,0,-1,1238,862,0,0
21,162,0,0,0,0,0,0,0,0,0,-1,1245,862,0,0
28,162,0,0,0,0,0,0,0,0,0,-1,1252,862,0,0
35,162,0,0,0,0,0,0,0,0,0,-1,1259,862,0,0
42,162,0,0,0,0,0,0,0,0,0,-1,1266,862,0,0
49,162,0,0,0,0,0,0,0,0,0,-1,1273,862,0,0
56,162,0,0,0,0,0,0,0,0,0,-1,1280,862,0,0
63,162,0,0,0,0,0,0,0,0,0,-1,1287,862,0,0
70,162,0,0,0,0,0,0,0,0,0,-1,1294,862,0,0
77,162,0,0,0,0,0,0,0,0,0,-1,1301,862,0,0
84,162,0,0,0,0,0,0,0,0,0,-1,1308,862,0,0
91,162,0,0,0,0,0,0,0,0,0,-1,1315,862,0,0
98,162,0,0,0,0,0,0,0,0,0,-1,1322,862,0,0
105,162,0,0,0,0,0,0,0,0,0,-1,1329,862,0,0
112,162,0,0,0,0,0,0,0,0,0,-1,1336,862,0,0
119,162,0,0,0,0,0,0,0,0,0,-1,1343,862,0,0
126,162,0,0,0,0,0,0,0,0,0,-1,1350,862,0,0
133,162,0,0,0,0,0,0,0,0,0,-1,1357,862,0,0
140,162,0,0,0,0,0,0,0,0,0,-1,1364,862,0,0
147,162,0,0,0,0,0,0,0,0,0,-1,1371,862,0,0
154,162,0,0,0,0,0,0,0,0,0,-1,1378,862,0,0
161,162,0,0,0,0,0,0,0,0,0,-1,1385,862,0,0
168,162,0,0,0,0,0,0,0,0,0,-1,1392,862,0,0
175,162,0,0,0,0,0,0,0,0,0,-1,1399,862,0,0
182,162,0,0,0,0,0,0,0,0,0,-1,1406,862,0,0
189,162,0,0,0,0,0,0,0,0,0,-1,1413,862,0,0
196,162,0,0,0,0,0,0,0,0,0,-1,1420,862,0,0
203,162,0,0,0,0,0,0,0,0,0,-1,1427,862,0,0
210,162,0,0,0,0,0,0,0,0,0,-1,1434,862,0,0
217,162,0,0,0,0,0,0,0,0,0,-1,1441,862,0,0
224,162,0,0,0,0,0,0,0,0,0,-1,1448,862,0,0
231,162,0,0,0,0,0,0,0,0,0,-1,1455,862,0,0
238,162,0,0,0,0,0,0,0,0,0,-1,1462,862,0,0
245,162,0,0,0,0,0,0,0,0,0,-1,1469,862,0,0
252,162,0,0,0,0,0,0,0,0,0,-1,1476,862,0,0
259,162,0,0,0,0,0,0,0,0,0,-1,1483,862,0,0
266,162,0,0,0,0,0,0,0,0,0,-1,1490,862,0,0
273,162,0,0,0,0,0,0,0,0,0,-1,1497,862,0,0
280,162,0,0,0,0,0,0,0,0,0,-1,1504,862,0,0
287,162,0,0,0,0,0,0,0,0,0,-1,1511,862,0,0
294,162,0,0,0,0,0,0,0,0,0,-1,1518,862,0,0
301,162,0,0,0,0,0,0,0,0,0,-1,1525,862,0,0
308,162,0,0,0,0,0,0,0,0,0,-1,1532,862,0,0
315,162,0,0,0,0,0,0,0,0,0,-1,1539,862,0,0
322,162,0,0,0,0,0,0,0,0,0,-1,1546,862,0,0
329,162,0,0,0,0,0,0,0,0,0,-1,1553,862,0,0
336,162,0,0,0,0,0,0,0,0,0,-1,1560,862,0,0
343,162,0,0,0,0,0,0,0,0,0,-1,1567,862,0,0
350,162,0,0,0,0,0,0,0,0,0,-1,1574,862,0,0
357,162,0,0,0,0,0,0,0,0,0,-1,1581,862,0,0
364,162,0,0,0,0,0,0,0,0,0,-1,1588,862,0,0
371,162,0,0,0,0,0,0,0,0,0,-1,1595,862,0,0
378,162,0,0,0,0,0,0,0,0,0,-1,1602,862,0,0
385,162,0,0,0,0,0,0,0,0,0,-1,1609,862,0,0
392,162,0,0,0,0,0,0,0,0,0,-1,1616,862,0,0
399,162,0,0,0,0,0,0,0,0,0,-1,1623,862,0,0
406,162,0,0,0,0,0,0,0,0,0,-1,1630,862,0,0
413,162,0,0,0,0,0,0,0,0,0,-1,1637,862,0,0
420,162,0,0,0,0,0,0,0,0,0,-1,1644,862,0,0
427,162,0,0,0,0,0,0,0,0,0,-1,1651,862,0,0
434,162,0,0,0,0,0,0,0,0,0,-1,1658,862,0,0
441,162,0,0,0,0,0,0,0,0,0,-1,1665,862,0,0
448,162,0,0,0,0,0,0,0,0,0,-1,1672,862,0,0
455,162,0,0,0,0,0,0,0,0,0,-1,1679,862,0,0
462,162,0,0,0,0,0,0,0,0,0,-1,1686,862,0,0
469,162,0,0,0,0,0,0,0,0,0,-1,1693,862,0,0
476,162,0,0,0,0,0,0,0,0,0,-1,1700,862,0,0
483,162,0,0,0,0,0,0,0,0,0,-1,1707,862,0,0
490,162,0,0,0,0,0,0,0,0,0,-1,1714,862,0,0
497,162,0,0,0,0,0,0,0,0,0,-1,1721,862,0,0
504,162,0,0,0,0,0,0,0,0,0,-1,1728,862,0,0
511,162,0,0,0,0,0,0,0,0,0,-1,1735,862,0,0
518,162,0,0,0,0,0,0,0,0,0,-1,1742,862,0,0
525,162,0,0,0,0,0,0,0,0,0,-1,1749,862,0,0
532,162,0,0,0,0,0,0,0,0,0,-1,1756,862,0,0
539,162,0,0,0,0,0,0,0,0,0,-1,1763,862,0,0
546,162,0,0,0,0,0,0,0,0,0,-1,1770,862,0,0
553,162,0,0,0,0,0,0,0,0,0,-1,1777,862,0,0
560,162,0,0,0,0,0,0,0,0,0,-1,1784,862,0,0
567,162,0,0,0,0,0,0,0,0,0,-1,1791,862,0,0
574,162,0,0,0,0,0,0,0,0,0,-1,1798,862,0,0
581,162,0,0,0,0,0,0,0,0,0,-1,1805,862,0,0
588,162,0,0,0,0,0,0,0,0,0,-1,1812,862,0,0
595,162,0,0,0,0,0,0,0,0,0,-1,1819,862,0,0
602,162,0,0,0,0,0,0,0,0,0,-1,1826,862,0,0
609,162,0,0,0,0,0,0,0,0,0,-1,1833,862,0,0
616,162,4.9939,0.474731,-0.0028996,-0.000383954,-0.00331918,0.00190774,-0.00519129,-0.966515,0.00424225,0.041147,1840,862,4.99394,-0.474717
623,162,4.98987,0.399841,-0.00146876,0.000214176,-0.00195601,0.00150204,-0.00275663,-0.98853,0.00249405,0.0443289,1847,862,4.98987,-0.399811
630,162,4.92871,0.44165,-0.00065425,6.75598e-05,-0.00142981,0.00118131,-0.001768,-0.909023,0.00171398,0.0419719,1854,862,4.92867,-0.441653
637,162,4.90991,0.538391,-0.000502134,-0.000247635,-0.00144513,0.00107583,-0.0018256,-0.829312,0.00169369,0.0393858,1861,862,4.90996,-0.538379
644,162,4.93616,0.70697,-0.000770938,-0.000625292,-0.00166855,0.000972023,-0.00236825,-0.807207,0.00198387,0.0369966,1868,862,4.93617,-0.706974
651,162,4.94116,0.661316,-0.00118998,-0.000989255,-0.00195808,0.000871032,-0.00305026,-0.811003,0.00237765,0.0341893,1875,862,4.94119,-0.661295
658,162,4.97986,0.653931,-0.00157112,-0.001298,-0.0022478,0.000817389,-0.0036865,-0.815737,0.00277062,0.0338025,1882,862,4.97985,-0.65391
665,162,4.97913,0.573181,-0.00186553,-0.00140901,-0.00240981,0.000783331,-0.00405787,-0.832619,0.00300063,0.0389143,1889,862,4.97908,-0.57319
672,162,4.9231,0.572388,-0.00224443,-0.00154527,-0.00231004,0.000441492,-0.00423119,-0.860494,0.00297889,0.0438989,1896,862,4.92313,-0.572404
679,162,4.70032,0.57489,-0.00258088,-0.00153461,-0.00233348,0.000333662,-0.00444915,-0.895668,0.00308334,0.0429637,1903,862,4.70035,-0.574902
686,162,4.5199,0.596252,-0.00274151,-0.00146076,-0.00233726,0.000322263,-0.00452453,-0.919109,0.00312931,0.0247398,1910,862,4.51993,-0.596231
693,162,4.49756,0.6427,-0.00269006,-0.00129655,-0.0022229,0.000336235,-0.00432285,-0.93727,0.00300026,0.0157075,1917,862,4.4976,-0.642673
700,162,4.50256,0.673767,-0.00250546,-0.00106173,-0.00195996,0.000305076,-0.00387227,-0.961842,0.00268898,0.0145838,1924,862,4.50262,-0.67377
707,162,4.49463,0.654602,-0.0021637,-0.000794314,-0.00157124,0.000234933,-0.00319295,-0.990875,0.00221111,0.011107,1931,862,4.49457,-0.654631
714,162,4.47791,0.658081,-0.00165162,-0.000592905,-0.00110182,0.000100123,-0.00234465,-1.00934,0.00159752,0.0152425,1938,862,4.47796,-0.658065
721,162,4.40894,0.739746,-0.000918043,-0.000189908,-0.000759738,0.000288489,-0.00139644,-1.00883,0.00104054,0.0288356,1945,862,4.40899,-0.739769
728,162,4.41809,0.77356,1.06829e-05,-3.60708e-05,-0.000359444,0.000347509,-0.000372897,-0.752926,0.000416013,0.0225089,1952,862,4.41813,-0.773529
735,162,4.48071,0.787476,0.000919967,-0.000286961,-0.000104923,0.00092902,-0.000296014,-0.0860736,0.000738078,0.0107526,1959,862,4.4807,-0.78745
742,162,4.50989,0.802795,0.0016261,-0.000614394,0.000215633,0.00164667,-0.000634959,0.0950807,0.00135978,0.0115883,1966,862,4.50986,-0.802795
749,162,4.52466,0.814392,0.00228888,-0.00129327,0.000528192,0.00236514,-0.00136953,0.143387,0.0021816,0.015521,1973,862,4.52467,-0.814381
756,162,4.57581,0.839722,0.00293739,-0.00237259,0.00091435,0.00309042,-0.00252562,0.165834,0.00324789,0.0350347,1980,862,4.57576,-0.839743
763,162,4.63635,0.908447,0.00356574,-0.00413146,0.00151463,0.00385306,-0.00441878,0.187469,0.00477947,0.046218,1987,862,4.63634,-0.908425
770,162,4.45972,1.22522,0,0,0,0,0,0,0,-1,1994,862,4.45977,-1.22521
777,162,4.099,1.47528,0,0,0,0,0,0,0,-1,2001,862,4.09905,-1.47529
784,162,6.75574,0.615784,0,0,0,0,0,0,0,-1,2008,862,6.75577,-0.615807
791,162,0,0,0,0,0,0,0,0,0,-1,2015,862,0,0
798,162,0,0,0,0,0,0,0,0,0,-1,2022,862,0,0
805,162,0,0,0,0,0,0,0,0,0,-1,2029,862,0,0
812,162,0,0,0,0,0,0,0,0,0,-1,2036,862,0,0
-700,155,0,0,0,0,0,0,0,0,0,-1,524,869,0,0
-693,155,0,0,0,0,0,0,0,0,0,-1,531,869,0,0
-686,155,0,0,0,0,0,0,0,0,0,-1,538,869,0,0
-679,155,0,0,0,0,0,0,0,0,0,-1,545,869,0,0
-672,155,0,0,0,0,0,0,0,0,0,-1,552,869,0,0
-665,155,-0.111389,-2.58099,0,0,0,0,0,0,0,-1,559,869,-0.111405,2.58099
-658,155,0.0761719,-2.07428,0.0223938,0.00504994,0.0449157,0.059467,-0.0320233,0.690036,0.0536082,0.049579,566,869,0.0761426,2.07431
-651,155,0.21521,-1.57556,0.0107907,0.000895363,0.0380804,0.0442435,-0.0325575,0.720797,0.0445118,0.0475103,573,869,0.2152,1.57553
-644,155,0.35199,-1.07129,0.00342947,-0.001555,0.0313591,0.0323953,-0.0305208,0.745745,0.03633,0.0456612,580,869,0.352,1.07131
-637,155,0.403198,-0.521851,-0.000908379,-0.00280767,0.0251238,0.0232837,-0.0269998,0.766508,0.0290576,0.0462809,587,869,0.403196,0.521838
-630,155,0.39502,-0.050354,0,0,0,0,0,0,0,-1,594,869,0.395,0.0503248
-623,155,-0.691956,0.82251,-0.0040754,-0.0031793,0.0148862,0.0112656,-0.0185203,0.800443,0.0173661,0.0247742,601,869,-0.691967,-0.822529
-616,155,-0.697449,0.78894,-0.00482502,-0.00301967,0.010857,0.0069721,-0.0148168,0.826874,0.0128487,0.0131218,608,869,-0.697479,-0.78892
-609,155,-0.69928,0.755676,-0.00464226,-0.00231402,0.00761913,0.00422941,-0.0111857,0.861206,0.00919701,0.0125133,615,869,-0.699301,-0.755664
-602,155,-0.714905,0.732056,-0.00452613,-0.0022988,0.00523461,0.0019393,-0.00876423,0.89021,0.00658514,0.0105004,622,869,-0.714875,-0.732028
-595,155,-0.715698,0.698303,-0.00406534,-0.00177294,0.0037127,0.000966464,-0.00680474,0.935119,0.00489058,0.00955467,629,869,-0.715683,-0.698291
-588,155,-0.697815,0.676147,-0.00361085,-0.00153904,0.00259972,0.00022357,-0.00537345,0.97499,0.0036591,0.0108189,636,869,-0.697831,-0.676134
-581,155,-0.698669,0.651489,-0.00368437,-0.00109705,0.00198647,-2.01343e-05,-0.00476129,1.07402,0.0031675,0.0141493,643,869,-0.69867,-0.651475
-574,155,-0.718445,0.619141,-0.00419947,-0.000862485,0.00227882,0.000293361,-0.00535532,1.1014,0.00367191,0.019463,650,869,-0.718453,-0.619138
-567,155,-0.71875,0.566467,-0.00487726,-0.00141654,0.00242797,-0.000165421,-0.00612838,1.09499,0.00403157,0.021251,657,869,-0.718764,-0.566458
-560,155,-0.730042,0.507813,-0.00514434,-0.00147457,0.00240741,-0.000282504,-0.0063364,1.11102,0.00413332,0.0203389,664,869,-0.730059,-0.507814
-553,155,-0.792297,0.509827,-0.00492851,-0.00125453,0.00234301,-0.00011423,-0.00606881,1.11786,0.00400834,0.031519,671,869,-0.792326,-0.50981
-546,155,-1.01172,0.608215,-0.00459787,-0.00127425,0.00232732,-7.63314e-05,-0.00579578,1.09544,0.00383867,0.0322777,678,869,-1.0117,-0.608221
-539,155,-1.27985,0.628296,-0.00371669,-0.00125136,0.00189825,-0.000220658,-0.00474739,1.07336,0.003094,0.0405552,685,869,-1.27985,-0.628282
-532,155,-1.21411,0.830139,-0.00209205,-0.000964536,0.00118981,-0.000211683,-0.0028449,1.00664,0.00183013,0.0348305,692,869,-1.21411,-0.830118
-525,155,-1.18353,0.877686,0.000295439,-0.000514037,0.000165539,0.000327983,-0.000546582,0.194121,0.000510161,0.0364788,699,869,-1.18354,-0.877701
-518,155,-1.21729,0.79364,0.00356291,0.000117166,-0.0011985,0.00393877,-0.0002587,-0.303898,0.00271619,0.0409385,706,869,-1.21731,-0.793627
-511,155,-0.835571,0.0857544,0,0,0,0,0,0,0,-1,713,869,-0.835567,-0.0857631
-504,155,-0.674866,0.20575,0,0,0,0,0,0,0,-1,720,869,-0.674846,-0.205756
-497,155,0,0,0,0,0,0,0,0,0,-1,727,869,0,0
-490,155,0,0,0,0,0,0,0,0,0,-1,734,869,0,0
-483,155,0,0,0,0,0,0,0,0,0,-1,741,869,0,0
-476,155,0,0,0,0,0,0,0,0,0,-1,748,869,0,0
-469,155,0,0,0,0,0,0,0,0,0,-1,755,869,0,0
-462,155,0,0,0,0,0,0,0,0,0,-1,762,869,0,0
-455,155,0,0,0,0,0,0,0,0,0,-1,769,869,0,0
-448,155,0,0,0,0,0,0,0,0,0,-1,776,869,0,0
-441,155,0,0,0,0,0,0,0,0,0,-1,783,869,0,0
-434,155,0,0,0,0,0,0,0,0,0,-1,790,869,0,0
-427,155,0,0,0,0,0,0,0,0,0,-1,797,869,0,0
-420,155,0,0,0,0,0,0,0,0,0,-1,804,869,0,0
-413,155,0,0,0,0,0,0,0,0,0,-1,811,869,0,0
-406,155,0,0,0,0,0,0,0,0,0,-1,818,869,0,0
-399,155,0,0,0,0,0,0,0,0,0,-1,825,869,0,0
-392,155,0,0,0,0,0,0,0,0,0,-1,832,869,0,0
-385,155,0,0,0,0,0,0,0,0,0,-1,839,869,0,0
-378,155,0,0,0,0,0,0,0,0,0,-1,846,869,0,0
-371,155,0,0,0,0,0,0,0,0,0,-1,853,869,0,0
-364,155,0,0,0,0,0,0,0,0,0,-1,860,869,0,0
-357,155,0,0,0,0,0,0,0,0,0,-1,867,869,0,0
-350,155,0,0,0,0,0,0,0,0,0,-1,874,869,0,0
-343,155,0,0,0,0,0,0,0,0,0,-1,881,869,0,0
-336,155,0,0,0,0,0,0,0,0,0,-1,888,869,0,0
-329,155,0,0,0,0,0,0,0,0,0,-1,895,869,0,0
-322,155,0,0,0,0,0,0,0,0,0,-1,902,869,0,0
-315,155,0,0,0,0,0,0,0,0,0,-1,909,869,0,0
-308,155,0,0,0,0,0,0,0,0,0,-1,916,869,0,0
-301,155,0,0,0,0,0,0,0,0,0,-1,923,869,0,0
-294,155,0,0,0,0,0,0,0,0,0,-1,930,869,0,0
-287,155,0,0,0,0,0,0,0,0,0,-1,937,869,0,0
-280,155,0,0,0,0,0,0,0,0,0,-1,944,869,0,0
-273,155,0,0,0,0,0,0,0,0,0,-1,951,869,0,0
-266,155,0,0,0,0,0,0,0,0,0,-1,958,869,0,0
-259,155,0,0,0,0,0,0,0,0,0,-1,965,869,0,0
-252,155,0,0,0,0,0,0,0,0,0,-1,972,869,0,0
-245,155,0,0,0,0,0,0,0,0,0,-1,979,869,0,0
-238,155,0,0,0,0,0,0,0,0,0,-1,986,869,0,0
-231,155,0,0,0,0,0,0,0,0,0,-1,993,869,0,0
-224,155,0,0,0,0,0,0,0,0,0,-1,1000,869,0,0
-217,155,0,0,0,0,0,0,0,0,0,-1,1007,869,0,0
-210,155,0,0,0,0,0,0,0,0,0,-1,1014,869,0,0
-203,155,0,0,0,0,0,0,0,0,0,-1,1021,869,0,0
-196,155,0,0,0,0,0,0,0,0,0,-1,1028,869,0,0
-189,155,0,0,0,0,0,0,0,0,0,-1,1035,869,0,0
-182,155,0,0,0,0,0,0,0,0,0,-1,1042,869,0,0
-175,155,0,0,0,0,0,0,0,0,0,-1,1049,869,0,0
-168,155,0,0,0,0,0,0,0,0,0,-1,1056,869,0,0
-161,155,0,0,0,0,0,0,0,0,0,-1,1063,869,0,0
-154,155,0,0,0,0,0,0,0,0,0,-1,1070,869,0,0
-147,155,0,0,0,0,0,0,0,0,0,-1,1077,869,0,0
-140,155,0,0,0,0,0,0,0,0,0,-1,1084,869,0,0
-133,155,0,0,0,0,0,0,0,0,0,-1,1091,869,0,0
-126,155,0,0,0,0,0,0,0,0,0,-1,1098,869,0,0
-119,155,0,0,0,0,0,0,0,0,0,-1,1105,869,0,0
-112,155,0,0,0,0,0,0,0,0,0,-1,1112,869,0,0
-105,155,0,0,0,0,0,0,0,0,0,-1,1119,869,0,0
-98,155,0,0,0,0,0,0,0,0,0,-1,1126,869,0,0
-91,155,0,0,0,0,0,0,0,0,0,-1,1133,869,0,0
-84,155,0,0,0,0,0,0,0,0,0,-1,1140,869,0,0
-77,155,0,0,0,0,0,0,0,0,0,-1,1147,869,0,0
-70,155,0,0,0,0,0,0,0,0,0,-1,1154,869,0,0
-63,155,0,0,0,0,0,0,0,0,0,-1,1161,869,0,0
-56,155,0,0,0,0,0,0,0,0,0,-1,1168,869,0,0
-49,155,0,0,0,0,0,0,0,0,0,-1,1175,869,0,0
-42,155,0,0,0,0,0,0,0,0,0,-1,1182,869,0,0
-35,155,0,0,0,0,0,0,0,0,0,-1,1189,869,0,0
-28,155,0,0,0,0,0,0,0,0,0,-1,1196,869,0,0
-21,155,0,0,0,0,0,0,0,0,0,-1,1203,869,0,0
-14,155,0,0,0,0,0,0,0,0,0,-1,1210,869,0,0
-7,155,0,0,0,0,0,0,0,0,0,-1,1217,869,0,0
0,155,0,0,0,0,0,0,0,0,0,-1,1224,869,0,0
7,155,0,0,0,0,0,0,0,0,0,-1,1231,869,0,0
14,155,0,0,0,0,0,0,0,0,0,-1,1238,869,0,0
21,155,0,0,0,0,0,0,0,0,0,-1,1245,869,0,0
28,155,0,0,0,0,0,0,0,0,0,-1,1252,869,0,0
35,155,0,0,0,0,0,0,0,0,0,-1,1259,869,0,0
42,155,0,0,0,0,0,0,0,0,0,-1,1266,869,0,0
49,155,0,0,0,0,0,0,0,0,0,-1,1273,869,0,0
56,155,0,0,0,0,0,0,0,0,0,-1,1280,869,0,0
63,155,0,0,0,0,0,0,0,0,0,-1,1287,869,0,0
70,155,0,0,0,0,0,0,0,0,0,-1,1294,869,0,0
77,155,0,0,0,0,0,0,0,0,0,-1,1301,869,0,0
84,155,0,0,0,0,0,0,0,0,0,-1,1308,869,0,0
91,155,0,0,0,0,0,0,0,0,0,-1,1315,869,0,0
98,155,0,0,0,0,0,0,0,0,0,-1,1322,869,0,0
105,155,0,0,0,0,0,0,0,0,0,-1,1329,869,0,0
112,155,0,0,0,0,0,0,0,0,0,-1,1336,869,0,0
119,155,0,0,0,0,0,0,0,0,0,-1,1343,869,0,0
126,155,0,0,0,0,0,0,0,0,0,-1,1350,869,0,0
133,155,0,0,0,0,0,0,0,0,0,-1,1357,869,0,0
140,155,0,0,0,0,0,0,0,0,0,-1,1364,869,0,0
147,155,0,0,0,0,0,0,0,0,0,-1,1371,869,0,0
154,155,0,0,0,0,0,0,0,0,0,-1,1378,869,0,0
161,155,0,0,0,0,0,0,0,0,0,-1,1385,869,0,0
168,155,0,0,0,0,0,0,0,0,0,-1,1392,869,0,0
175,155,0,0,0,0,0,0,0,0,0,-1,1399,869,0,0
182,155,0,0,0,0,0,0,0,0,0,-1,1406,869,0,0
189,155,0,0,0,0,0,0,0,0,0,-1,1413,869,0,0
196,155,0,0,0,0,0,0,0,0,0,-1,1420,869,0,0
203,155,0,0,0,0,0,0,0,0,0,-1,1427,869,0,0
210,155,0,0,0,0,0,0,0,0,0,-1,1434,869,0,0
217,155,0,0,0,0,0,0,0,0,0,-1,1441,869,0,0
224,155,0,0,0,0,0,0,0,0,0,-1,1448,869,0,0
231,155,0,0,0,0,0,0,0,0,0,-1,1455,869,0,0
238,155,0,0,0,0,0,0,0,0,0,-1,1462,869,0,0
245,155,0,0,0,0,0,0,0,0,0,-1,1469,869,0,0
252,155,0,0,0,0,0,0,0,0,0,-1,1476,869,0,0
259,155,0,0,0,0,0,0,0,0,0,-1,1483,869,0,0
266,155,0,0,0,0,0,0,0,0,0,-1,1490,869,0,0
273,155,0,0,0,0,0,0,0,0,0,-1,1497,869,0,0
280,155,0,0,0,0,0,0,0,0,0,-1,1504,869,0,0
287,155,0,0,0,0,0,0,0,0,0,-1,1511,869,0,0
294,155,0,0,0,0,0,0,0,0,0,-1,1518,869,0,0
301,155,0,0,0,0,0,0,0,0,0,-1,1525,869,0,0
308,155,0,0,0,0,0,0,0,0,0,-1,1532,869,0,0
315,155,0,0,0,0,0,0,0,0,0,-1,1539,869,0,0
322,155,0,0,0,0,0,0,0,0,0,-1,1546,869,0,0
329,155,0,0,0,0,0,0,0,0,0,-1,1553,869,0,0
336,155,0,0,0,0,0,0,0,0,0,-1,1560,869,0,0
343,155,0,0,0,0,0,0,0,0,0,-1,1567,869,0,0
350,155,0,0,0,0,0,0,0,0,0,-1,1574,869,0,0
357,155,0,0,0,0,0,0,0,0,0,-1,1581,869,0,0
364,155,0,0,0,0,0,0,0,0,0,-1,1588,869,0,0
371,155,0,0,0,0,0,0,0,0,0,-1,1595,869,0,0
378,155,0,0,0,0,0,0,0,0,0,-1,1602,869,0,0
385,155,0,0,0,0,0,0,0,0,0,-1,1609,869,0,0
392,155,0,0,0,0,0,0,0,0,0,-1,1616,869,0,0
399,155,0,0,0,0,0,0,0,0,0,-1,1623,869,0,0
406,155,0,0,0,0,0,0,0,0,0,-1,1630,869,0,0
413,155,0,0,0,0,0,0,0,0,0,-1,1637,869,0,0
420,155,0,0,0,0,0,0,0,0,0,-1,1644,869,0,0
427,155,0,0,0,0,0,0,0,0,0,-1,1651,869,0,0
434,155,0,0,0,0,0,0,0,0,0,-1,1658,869,0,0
441,155,0,0,0,0,0,0,0,0,0,-1,1665,869,0,0
448,155,0,0,0,0,0,0,0,0,0,-1,1672,869,0,0
455,155,0,0,0,0,0,0,0,0,0,-1,1679,869,0,0
462,155,0,0,0,0,0,0,0,0,0,-1,1686,869,0,0
469,155,0,0,0,0,0,0,0,0,0,-1,1693,869,0,0
476,155,0,0,0,0,0,0,0,0,0,-1,1700,869,0,0
483,155,0,0,0,0,0,0,0,0,0,-1,1707,869,0,0
490,155,0,0,0,0,0,0,0,0,0,-1,1714,869,0,0
497,155,0,0,0,0,0,0,0,0,0,-1,1721,869,0,0
504,155,0,0,0,0,0,0,0,0,0,-1,1728,869,0,0
511,155,0,0,0,0,0,0,0,0,0,-1,1735,869,0,0
518,155,0,0,0,0,0,0,0,0,0,-1,1742,869,0,0
525,155,0,0,0,0,0,0,0,0,0,-1,1749,869,0,0
532,155,0,0,0,0,0,0,0,0,0,-1,1756,869,0,0
539,155,0,0,0,0,0,0,0,0,0,-1,1763,869,0,0
546,155,0,0,0,0,0,0,0,0,0,-1,1770,869,0,0
553,155,0,0,0,0,0,0,0,0,0,-1,1777,869,0,0
560,155,0,0,0,0,0,0,0,0,0,-1,1784,869,0,0
567,155,0,0,0,0,0,0,0,0,0,-1,1791,869,0,0
574,155,0,0,0,0,0,0,0,0,0,-1,1798,869,0,0
581,155,0,0,0,0,0,0,0,0,0,-1,1805,869,0,0
588,155,0,0,0,0,0,0,0,0,0,-1,1812,869,0,0
595,155,0,0,0,0,0,0,0,0,0,-1,1819,869,0,0
602,155,0,0,0,0,0,0,0,0,0,-1,1826,869,0,0
609,155,0,0,0,0,0,0,0,0,0,-1,1833,869,0,0
616,155,5.26843,0.549255,-0.00218287,-0.00105955,-0.00398524,0.00240342,-0.00564583,-0.855405,0.00477126,0.0402131,1840,869,5.26841,-0.54926
623,155,5.03479,0.415161,-0.000808455,-0.000149577,-0.00226505,0.00180987,-0.0027679,-0.857614,0.0026622,0.0403139,1847,869,5.03476,-0.415185
630,155,4.97791,0.488953,-2.91918e-05,-4.3709e-05,-0.00147703,0.0014406,-0.0015135,-0.782941,0.00170572,0.0407839,1854,869,4.97791,-0.488975
637,155,4.90991,0.578735,6.23748e-05,-0.000154118,-0.00133998,0.00129847,-0.00139022,-0.745095,0.00155262,0.0399624,1861,869,4.90989,-0.578751
644,155,4.81738,0.624451,-0.000338109,-0.000379455,-0.0014834,0.00112476,-0.00184232,-0.77843,0.00172967,0.0354038,1868,869,4.81739,-0.624436
651,155,4.86902,0.679321,-0.000917545,-0.000625033,-0.00173483,0.000969699,-0.00251228,-0.827451,0.00207504,0.0313363,1875,869,4.86905,-0.679334
658,155,4.95483,0.731628,-0.00147682,-0.000869548,-0.00200879,0.00085842,-0.00320479,-0.860408,0.00247284,0.0277015,1882,869,4.95486,-0.731624
665,155,4.92285,0.719604,-0.00194003,-0.00096716,-0.00218459,0.0007845,-0.00369169,-0.894944,0.00276004,0.0312092,1889,869,4.92291,-0.71958
672,155,4.93591,0.667786,-0.00242594,-0.00109826,-0.00211473,0.000454373,-0.00397858,-0.937484,0.00281609,0.0368795,1896,869,4.93594,-0.667776
679,155,4.83325,0.645691,-0.00282563,-0.00108241,-0.00215826,0.000373597,-0.00428164,-0.977307,0.00298675,0.0353411,1903,869,4.83319,-0.645683
686,155,4.65564,0.685669,-0.00305586,-0.00103271,-0.00218022,0.000359176,-0.00444775,-1.00261,0.00309185,0.0252087,1910,869,4.65562,-0.685687
693,155,4.54321,0.658997,-0.00302731,-0.000964829,-0.00208968,0.000334213,-0.00432635,-1.01461,0.00300185,0.0163949,1917,869,4.54322,-0.658984
700,155,4.53406,0.666382,-0.00282851,-0.000841761,-0.00184416,0.00025955,-0.00392982,-1.03245,0.00271054,0.0152922,1924,869,4.53407,-0.666398
707,155,4.55566,0.697998,-0.00245042,-0.000691346,-0.00146107,0.00013449,-0.00327626,-1.05634,0.00223036,0.0114239,1931,869,4.5556,-0.697997
714,155,4.55444,0.665405,-0.0018724,-0.000577968,-0.00101153,-2.43121e-05,-0.00242605,-1.07,0.00160932,0.0190572,1938,869,4.55446,-0.665402
721,155,4.47778,0.736755,-0.00101743,-0.000269474,-0.000668453,0.000122503,-0.00140941,-1.04044,0.00098299,0.0245966,1945,869,4.47778,-0.736751
728,155,4.4856,0.789917,0.000104241,-0.00020946,-0.000263351,0.000253913,-0.000359132,-0.516811,0.000355675,0.0186681,1952,869,4.48554,-0.789931
735,155,4.50476,0.800842,0.00121237,-0.000584168,2.61673e-05,0.00121275,-0.000584549,0.0145613,0.00105859,0.0144125,1959,869,4.50471,-0.800818
742,155,4.54565,0.819153,0.00214362,-0.000984622,0.00039661,0.00219312,-0.00103412,0.124167,0.00190288,0.0156684,1966,869,4.54563,-0.819156
749,155,4.52783,0.844238,0.00306611,-0.00165315,0.00071801,0.00317294,-0.00175997,0.147694,0.0028867,0.0132854,1973,869,4.52789,-0.844222
756,155,4.57642,0.862488,0.003968,-0.00271819,0.0011021,0.00414498,-0.00289517,0.159223,0.00408592,0.0237226,1980,869,4.57639,-0.862467
763,155,4.68909,0.914429,0.00485628,-0.00436175,0.00167005,0.00514952,-0.00465499,0.173815,0.00566304,0.0419665,1987,869,4.68911,-0.914403
770,155,4.81458,0.982056,0,0,0,0,0,0,0,-1,1994,869,4.81462,-0.982082
777,155,6.57739,0.430847,0,0,0,0,0,0,0,-1,2001,869,6.57745,-0.430848
784,155,6.58508,0.708313,0,0,0,0,0,0,0,-1,2008,869,6.58507,-0.708283
791,155,0,0,0,0,0,0,0,0,0,-1,2015,869,0,0
798,155,0,0,0,0,0,0,0,0,0,-1,2022,869,0,0
805,155,0,0,0,0,0,0,0,0,0,-1,2029,869,0,0
812,155,0,0,0,0,0,0,0,0,0,-1,2036,869,0,0
-700,148,0,0,0,0,0,0,0,0,0,-1,524,876,0,0
-693,148,0,0,0,0,0,0,0,0,0,-1,531,876,0,0
-686,148,0,0,0,0,0,0,0,0,0,-1,538,876,0,0
-679,148,0,0,0,0,0,0,0,0,0,-1,545,876,0,0
-672,148,-1.61414,-2.17242,0.0699144,0.0155419,0.056199,0.105157,-0.0197012,0.560117,0.0775112,0.0445541,552,876,-1.61414,2.17241
-665,148,-0.839294,-1.72028,0,0,0,0,0,0,0,-1,559,876,-0.839296,1.72027
-658,148,-0.0897217,-1.59668,0,0,0,0,0,0,0,-1,566,876,-0.0896979,1.59667
-651,148,0.319458,-1.44318,0,0,0,0,0,0,0,-1,573,876,0.319479,1.44319
-644,148,0.32959,-0.996033,0.00685756,-0.00252271,0.0314949,0.0340096,-0.0296748,0.711483,0.0367966,0.0441285,580,876,0.329582,0.996057
-637,148,0.0808105,-0.500305,0.00167537,-0.0033229,0.0252189,0.0245187,-0.0261662,0.736011,0.0292681,0.0465177,587,876,0.080831,0.50029
-630,148,-0.176819,-0.245056,0,0,0,0,0,0,0,-1,594,876,-0.176846,0.245058
-623,148,-0.721252,0.774353,-0.00280379,-0.00320883,0.0149001,0.0118951,-0.0179077,0.778603,0.017323,0.0202899,601,876,-0.721264,-0.77433
-616,148,-0.715576,0.791504,-0.00407152,-0.00295204,0.0108376,0.00734025,-0.0143638,0.811199,0.0127477,0.0113858,608,876,-0.715591,-0.791494
-609,148,-0.716187,0.758667,-0.00436696,-0.00216068,0.00754601,0.0043624,-0.01089,0.857978,0.00907083,0.0108468,615,876,-0.716167,-0.758672
-602,148,-0.719849,0.71106,-0.00444378,-0.00221888,0.00512737,0.00191534,-0.00857799,0.892224,0.00645257,0.0104362,622,876,-0.719827,-0.711065
-595,148,-0.722839,0.683899,-0.00412996,-0.00159896,0.00370936,0.00105484,-0.00678375,0.949788,0.00491201,0.00914323,629,876,-0.722825,-0.683874
-588,148,-0.729736,0.677246,-0.00377978,-0.00130502,0.00261887,0.000354086,-0.00543888,1.0061,0.00374952,0.0118185,636,876,-0.729742,-0.677265
-581,148,-0.73407,0.656372,-0.00390127,-0.000919317,0.00195699,4.99515e-05,-0.00487054,1.11093,0.00326381,0.0158928,643,876,-0.7341,-0.656363
-574,148,-0.719727,0.615845,-0.00441621,-0.000777115,0.00218585,0.000247397,-0.00544072,1.1325,0.00371236,0.02181,650,876,-0.719733,-0.615823
-567,148,-0.745605,0.582947,-0.00503299,-0.00125782,0.00230467,-0.000166394,-0.00612441,1.12852,0.00402862,0.0274633,657,876,-0.745589,-0.582923
-560,148,-0.760437,0.539734,-0.0052339,-0.00126071,0.00223227,-0.000259061,-0.00623555,1.14901,0.00407343,0.0269107,664,876,-0.760411,-0.539752
-553,148,-0.892883,0.631531,-0.00493827,-0.00103269,0.00208249,-0.000130629,-0.00584033,1.16203,0.00385075,0.0327737,671,876,-0.892881,-0.631542
-546,148,-1.15674,0.778259,-0.00448711,-0.000957458,0.00194332,-9.71921e-05,-0.00534737,1.15405,0.00353296,0.039428,678,876,-1.15675,-0.778236
-539,148,-1.19043,0.771851,-0.00343146,-0.000806532,0.0013687,-0.000222707,-0.00401528,1.16761,0.00260579,0.0359687,685,876,-1.19044,-0.771854
-532,148,-1.16052,0.908081,-0.00157546,-0.000397664,0.000473791,-0.000230732,-0.00174239,1.23205,0.00109283,0.0366008,692,876,-1.16055,-0.908062
-525,148,-1.19073,0.930847,0.00114917,0.000195801,-0.000785235,0.00159109,-0.000246112,-0.5126,0.00115156,0.0383206,699,876,-1.19076,-0.930818
-518,148,-1.2959,0.836365,0.00487837,0.000985473,-0.00243225,0.00604713,-0.000183285,-0.447946,0.00409388,0.0432422,706,876,-1.29588,-0.836344
-511,148,-1.19556,0.563965,0.00954117,0.0019567,-0.00444084,0.0115886,-9.07662e-05,-0.432008,0.00775619,0.0416786,713,876,-1.19554,-0.563945
-504,148,-0.603943,0.127441,0.0148637,0.00300949,-0.00658566,0.0177967,7.64849e-05,-0.41899,0.011839,0.0419809,720,876,-0.603929,-0.127465
-497,148,0,0,0,0,0,0,0,0,0,-1,727,876,0,0
-490,148,0,0,0,0,0,0,0,0,0,-1,734,876,0,0
-483,148,0,0,0,0,0,0,0,0,0,-1,741,876,0,0
-476,148,0,0,0,0,0,0,0,0,0,-1,748,876,0,0
-469,148,0,0,0,0,0,0,0,0,0,-1,755,876,0,0
-462,148,0,0,0,0,0,0,0,0,0,-1,762,876,0,0
-455,148,0,0,0,0,0,0,0,0,0,-1,769,876,0,0
-448,148,0,0,0,0,0,0,0,0,0,-1,776,876,0,0
-441,148,0,0,0,0,0,0,0,0,0,-1,783,876,0,0
-434,148,0,0,0,0,0,0,0,0,0,-1,790,876,0,0
-427,148,0,0,0,0,0,0,0,0,0,-1,797,876,0,0
-420,148,0,0,0,0,0,0,0,0,0,-1,804,876,0,0
-413,148,0,0,0,0,0,0,0,0,0,-1,811,876,0,0
-406,148,0,0,0,0,0,0,0,0,0,-1,818,876,0,0
-399,148,0,0,0,0,0,0,0,0,0,-1,825,876,0,0
-392,148,0,0,0,0,0,0,0,0,0,-1,832,876,0,0
-385,148,0,0,0,0,0,0,0,0,0,-1,839,876,0,0
-378,148,0,0,0,0,0,0,0,0,0,-1,846,876,0,0
-371,148,0,0,0,0,0,0,0,0,0,-1,853,876,0,0
-364,148,0,0,0,0,0,0,0,0,0,-1,860,876,0,0
-357,148,0,0,0,0,0,0,0,0,0,-1,867,876,0,0
-350,148,0,0,0,0,0,0,0,0,0,-1,874,876,0,0
-343,148,0,0,0,0,0,0,0,0,0,-1,881,876,0,0
-336,148,0,0,0,0,0,0,0,0,0,-1,888,876,0,0
-329,148,0,0,0,0,0,0,0,0,0,-1,895,876,0,0
-322,148,0,0,0,0,0,0,0,0,0,-1,902,876,0,0
-315,148,0,0,0,0,0,0,0,0,0,-1,909,876,0,0
-308,148,0,0,0,0,0,0,0,0,0,-1,916,876,0,0
-301,148,0,0,0,0,0,0,0,0,0,-1,923,876,0,0
-294,148,0,0,0,0,0,0,0,0,0,-1,930,876,0,0
-287,148,0,0,0,0,0,0,0,0,0,-1,937,876,0,0
-280,148,0,0,0,0,0,0,0,0,0,-1,944,876,0,0
-273,148,0,0,0,0,0,0,0,0,0,-1,951,876,0,0
-266,148,0,0,0,0,0,0,0,0,0,-1,958,876,0,0
-259,148,0,0,0,0,0,0,0,0,0,-1,965,876,0,0
-252,148,0,0,0,0,0,0,0,0,0,-1,972,876,0,0
-245,148,0,0,0,0,0,0,0,0,0,-1,979,876,0,0
-238,148,0,0,0,0,0,0,0,0,0,-1,986,876,0,0
-231,148,0,0,0,0,0,0,0,0,0,-1,993,876,0,0
-224,148,0,0,0,0,0,0,0,0,0,-1,1000,876,0,0
-217,148,0,0,0,0,0,0,0,0,0,-1,1007,876,0,0
-210,148,0,0,0,0,0,0,0,0,0,-1,1014,876,0,0
-203,148,0,0,0,0,0,0,0,0,0,-1,1021,876,0,0
-196,148,0,0,0,0,0,0,0,0,0,-1,1028,876,0,0
-189,148,0,0,0,0,0,0,0,0,0,-1,1035,876,0,0
-182,148,0,0,0,0,0,0,0,0,0,-1,1042,876,0,0
-175,148,0,0,0,0,0,0,0,0,0,-1,1049,876,0,0
-168,148,0,0,0,0,0,0,0,0,0,-1,1056,876,0,0
-161,148,0,0,0,0,0,0,0,0,0,-1,1063,876,0,0
-154,148,0,0,0,0,0,0,0,0,0,-1,1070,876,0,0
-147,148,0,0,0,0,0,0,0,0,0,-1,1077,876,0,0
-140,148,0,0,0,0,0,0,0,0,0,-1,1084,876,0,0
-133,148,0,0,0,0,0,0,0,0,0,-1,1091,876,0,0
-126,148,0,0,0,0,0,0,0,0,0,-1,1098,876,0,0
-119,148,0,0,0,0,0,0,0,0,0,-1,1105,876,0,0
-112,148,0,0,0,0,0,0,0,0,0,-1,1112,876,0,0
-105,148,0,0,0,0,0,0,0,0,0,-1,1119,876,0,0
-98,148,0,0,0,0,0,0,0,0,0,-1,1126,876,0,0
-91,148,0,0,0,0,0,0,0,0,0,-1,1133,876,0,0
-84,148,0,0,0,0,0,0,0,0,0,-1,1140,876,0,0
-77,148,0,0,0,0,0,0,0,0,0,-1,1147,876,0,0
-70,148,0,0,0,0,0,0,0,0,0,-1,1154,876,0,0
-63,148,0,0,0,0,0,0,0,0,0,-1,1161,876,0,0
-56,148,0,0,0,0,0,0,0,0,0,-1,1168,876,0,0
-49,148,0,0,0,0,0,0,0,0,0,-1,1175,876,0,0
-42,148,0,0,0,0,0,0,0,0,0,-1,1182,876,0,0
-35,148,0,0,0,0,0,0,0,0,0,-1,1189,876,0,0
-28,148,0,0,0,0,0,0,0,0,0,-1,1196,876,0,0
-21,148,0,0,0,0,0,0,0,0,0,-1,1203,876,0,0
-14,148,0,0,0,0,0,0,0,0,0,-1,1210,876,0,0
-7,148,0,0,0,0,0,0,0,0,0,-1,1217,876,0,0
0,148,0,0,0,0,0,0,0,0,0,-1,1224,876,0,0
7,148,0,0,0,0,0,0,0,0,0,-1,1231,876,0,0
14,148,0,0,0,0,0,0,0,0,0,-1,1238,876,0,0
21,148,0,0,0,0,0,0,0,0,0,-1,1245,876,0,0
28,148,0,0,0,0,0,0,0,0,0,-1,1252,876,0,0
35,148,0,0,0,0,0,0,0,0,0,-1,1259,876,0,0
42,148,0,0,0,0,0,0,0,0,0,-1,1266,876,0,0
49,148,0,0,0,0,0,0,0,0,0,-1,1273,876,0,0
56,148,0,0,0,0,0,0,0,0,0,-1,1280,876,0,0
63,148,0,0,0,0,0,0,0,0,0,-1,1287,876,0,0
70,148,0,0,0,0,0,0,0,0,0,-1,1294,876,0,0
77,148,0,0,0,0,0,0,0,0,0,-1,1301,876,0,0
84,148,0,0,0,0,0,0,0,0,0,-1,1308,876,0,0
91,148,0,0,0,0,0,0,0,0,0,-1,1315,876,0,0
98,148,0,0,0,0,0,0,0,0,0,-1,1322,876,0,0
105,148,0,0,0,0,0,0,0,0,0,-1,1329,876,0,0
112,148,0,0,0,0,0,0,0,0,0,-1,1336,876,0,0
119,148,0,0,0,0,0,0,0,0,0,-1,1343,876,0,0
126,148,0,0,0,0,0,0,0,0,0,-1,1350,876,0,0
133,148,0,0,0,0,0,0,0,0,0,-1,1357,876,0,0
140,148,0,0,0,0,0,0,0,0,0,-1,1364,876,0,0
147,148,0,0,0,0,0,0,0,0,0,-1,1371,876,0,0
154,148,0,0,0,0,0,0,0,0,0,-1,1378,876,0,0
161,148,0,0,0,0,0,0,0,0,0,-1,1385,876,0,0
168,148,0,0,0,0,0,0,0,0,0,-1,1392,876,0,0
175,148,0,0,0,0,0,0,0,0,0,-1,1399,876,0,0
182,148,0,0,0,0,0,0,0,0,0,-1,1406,876,0,0
189,148,0,0,0,0,0,0,0,0,0,-1,1413,876,0,0
196,148,0,0,0,0,0,0,0,0,0,-1,1420,876,0,0
203,148,0,0,0,0,0,0,0,0,0,-1,1427,876,0,0
210,148,0,0,0,0,0,0,0,0,0,-1,1434,876,0,0
217,148,0,0,0,0,0,0,0,0,0,-1,1441,876,0,0
224,148,0,0,0,0,0,0,0,0,0,-1,1448,876,0,0
231,148,0,0,0,0,0,0,0,0,0,-1,1455,876,0,0
238,148,0,0,0,0,0,0,0,0,0,-1,1462,876,0,0
245,148,0,0,0,0,0,0,0,0,0,-1,1469,876,0,0
252,148,0,0,0,0,0,0,0,0,0,-1,1476,876,0,0
259,148,0,0,0,0,0,0,0,0,0,-1,1483,876,0,0
266,148,0,0,0,0,0,0,0,0,0,-1,1490,876,0,0
273,148,0,0,0,0,0,0,0,0,0,-1,1497,876,0,0
280,148,0,0,0,0,0,0,0,0,0,-1,1504,876,0,0
287,148,0,0,0,0,0,0,0,0,0,-1,1511,876,0,0
294,148,0,0,0,0,0,0,0,0,0,-1,1518,876,0,0
301,148,0,0,0,0,0,0,0,0,0,-1,1525,876,0,0
308,148,0,0,0,0,0,0,0,0,0,-1,1532,876,0,0
315,148,0,0,0,0,0,0,0,0,0,-1,1539,876,0,0
322,148,0,0,0,0,0,0,0,0,0,-1,1546,876,0,0
329,148,0,0,0,0,0,0,0,0,0,-1,1553,876,0,0
336,148,0,0,0,0,0,0,0,0,0,-1,1560,876,0,0
343,148,0,0,0,0,0,0,0,0,0,-1,1567,876,0,0
350,148,0,0,0,0,0,0,0,0,0,-1,1574,876,0,0
357,148,0,0,0,0,0,0,0,0,0,-1,1581,876,0,0
364,148,0,0,0,0,0,0,0,0,0,-1,1588,876,0,0
371,148,0,0,0,0,0,0,0,0,0,-1,1595,876,0,0
378,148,0,0,0,0,0,0,0,0,0,-1,1602,876,0,0
385,148,0,0,0,0,0,0,0,0,0,-1,1609,876,0,0
392,148,0,0,0,0,0,0,0,0,0,-1,1616,876,0,0
399,148,0,0,0,0,0,0,0,0,0,-1,1623,876,0,0
406,148,0,0,0,0,0,0,0,0,0,-1,1630,876,0,0
413,148,0,0,0,0,0,0,0,0,0,-1,1637,876,0,0
420,148,0,0,0,0,0,0,0,0,0,-1,1644,876,0,0
427,148,0,0,0,0,0,0,0,0,0,-1,1651,876,0,0
434,148,0,0,0,0,0,0,0,0,0,-1,1658,876,0,0
441,148,0,0,0,0,0,0,0,0,0,-1,1665,876,0,0
448,148,0,0,0,0,0,0,0,0,0,-1,1672,876,0,0
455,148,0,0,0,0,0,0,0,0,0,-1,1679,876,0,0
462,148,0,0,0,0,0,0,0,0,0,-1,1686,876,0,0
469,148,0,0,0,0,0,0,0,0,0,-1,1693,876,0,0
476,148,0,0,0,0,0,0,0,0,0,-1,1700,876,0,0
483,148,0,0,0,0,0,0,0,0,0,-1,1707,876,0,0
490,148,0,0,0,0,0,0,0,0,0,-1,1714,876,0,0
497,148,0,0,0,0,0,0,0,0,0,-1,1721,876,0,0
504,148,0,0,0,0,0,0,0,0,0,-1,1728,876,0,0
511,148,0,0,0,0,0,0,0,0,0,-1,1735,876,0,0
518,148,0,0,0,0,0,0,0,0,0,-1,1742,876,0,0
525,148,0,0,0,0,0,0,0,0,0,-1,1749,876,0,0
532,148,0,0,0,0,0,0,0,0,0,-1,1756,876,0,0
539,148,0,0,0,0,0,0,0,0,0,-1,1763,876,0,0
546,148,0,0,0,0,0,0,0,0,0,-1,1770,876,0,0
553,148,0,0,0,0,0,0,0,0,0,-1,1777,876,0,0
560,148,0,0,0,0,0,0,0,0,0,-1,1784,876,0,0
567,148,0,0,0,0,0,0,0,0,0,-1,1791,876,0,0
574,148,0,0,0,0,0,0,0,0,0,-1,1798,876,0,0
581,148,0,0,0,0,0,0,0,0,0,-1,1805,876,0,0
588,148,0,0,0,0,0,0,0,0,0,-1,1812,876,0,0
595,148,0,0,0,0,0,0,0,0,0,-1,1819,876,0,0
602,148,0,0,0,0,0,0,0,0,0,-1,1826,876,0,0
609,148,0,0,0,0,0,0,0,0,0,-1,1833,876,0,0
616,148,0,0,0,0,0,0,0,0,0,-1,1840,876,0,0
623,148,5.04102,0.532104,0.000240875,-0.00102011,-0.00238675,0.002079,-0.00285824,-0.656266,0.00286233,0.0398737,1847,876,5.041,-0.532077
630,148,5.01636,0.506226,0.000887778,-0.000670845,-0.00141156,0.00172086,-0.00150393,-0.533174,0.00186324,0.0410356,1854,876,5.01641,-0.5062
637,148,4.90747,0.63562,0.000868114,-0.000562008,-0.00114754,0.00150515,-0.00119904,-0.506773,0.00156459,0.0364655,1861,876,4.90744,-0.635596
644,148,4.72766,0.714661,0.000307766,-0.000608679,-0.00121412,0.00114725,-0.00144816,-0.604956,0.00150182,0.0355468,1868,876,4.72767,-0.714685
651,148,4.81702,0.781433,-0.000472192,-0.000713138,-0.00142927,0.000841677,-0.00202701,-0.743353,0.00170271,0.0362526,1875,876,4.81702,-0.781436
658,148,4.90283,0.755859,-0.00124496,-0.000842196,-0.00167803,0.000646489,-0.00273364,-0.845118,0.00207182,0.0328151,1882,876,4.90279,-0.755858
665,148,4.89783,0.752747,-0.00189516,-0.000874845,-0.00186005,0.000543742,-0.00331375,-0.919242,0.00241094,0.0238675,1889,876,4.89785,-0.752748
672,148,4.93079,0.696777,-0.00250149,-0.00096522,-0.00182575,0.000247407,-0.00371411,-0.984518,0.00256253,0.0256663,1896,876,4.9308,-0.696758
679,148,4.95935,0.673462,-0.00298039,-0.000923289,-0.00189301,0.000202554,-0.00410623,-1.03426,0.00280744,0.0312768,1903,876,4.9594,-0.673444
686,148,4.74365,0.687134,-0.00328923,-0.000873579,-0.00193301,0.000197929,-0.00436074,-1.06464,0.00297533,0.0237663,1910,876,4.7436,-0.687126
693,148,4.57959,0.656982,-0.00331978,-0.000834537,-0.00188327,0.000179126,-0.00433344,-1.07702,0.00295048,0.0197168,1917,876,4.57964,-0.656981
700,148,4.57361,0.650696,-0.00313771,-0.000730669,-0.00167343,0.000127078,-0.00399546,-1.09714,0.00270699,0.0144343,1924,876,4.57356,-0.650699
707,148,4.5835,0.695679,-0.00276171,-0.000611576,-0.00132517,1.97674e-05,-0.00339305,-1.12619,0.00226865,0.0125073,1931,876,4.58355,-0.695667
714,148,4.59021,0.683899,-0.00215578,-0.000500158,-0.000921877,-8.89659e-05,-0.00256697,-1.15124,0.00168244,0.0119444,1938,876,4.59025,-0.683904
721,148,4.54858,0.718262,-0.00124478,-0.000203574,-0.000610744,7.8341e-05,-0.0015267,-1.13834,0.00104489,0.0161141,1945,876,4.5486,-0.718288
728,148,4.54382,0.786133,-3.33174e-05,-0.000139352,-0.000223188,0.000143064,-0.000315733,-0.668787,0.000271068,0.0177846,1952,876,4.54381,-0.786129
735,148,4.56421,0.811829,0.00115404,-0.000518746,6.93911e-05,0.00115692,-0.00052162,0.0413874,0.000991972,0.016055,1959,876,4.56419,-0.811801
742,148,4.56677,0.847473,0.00223605,-0.000860777,0.000494124,0.00231298,-0.000937708,0.154451,0.00193196,0.0183792,1966,876,4.56683,-0.847461
749,148,4.54553,0.867493,0.00337929,-0.00149823,0.000884938,0.00353489,-0.00165382,0.174044,0.00306062,0.0155735,1973,876,4.54548,-0.867499
756,148,4.54822,0.861267,0.00447957,-0.00248528,0.00133703,0.00472741,-0.00273313,0.183291,0.00435834,0.0204878,1980,876,4.54821,-0.861264
763,148,4.6167,0.856384,0.00558791,-0.0039947,0.00197971,0.0059808,-0.00438759,0.195912,0.0060097,0.0431295,1987,876,4.61667,-0.856385
770,148,4.18445,1.06848,0,0,0,0,0,0,0,-1,1994,876,4.18449,-1.06846
777,148,4.68018,0.562805,0,0,0,0,0,0,0,-1,2001,876,4.68019,-0.562805
784,148,5.80151,0.419495,0,0,0,0,0,0,0,-1,2008,876,5.80146,-0.419487
791,148,5.58826,0.533142,0,0,0,0,0,0,0,-1,2015,876,5.5882,-0.533117
798,148,0,0,0,0,0,0,0,0,0,-1,2022,876,0,0
805,148,0,0,0,0,0,0,0,0,0,-1,2029,876,0,0
812,148,0,0,0,0,0,0,0,0,0,-1,2036,876,0,0
-700,141,0,0,0,0,0,0,0,0,0,-1,524,883,0,0
-693,141,0,0,0,0,0,0,0,0,0,-1,531,883,0,0
-686,141,0,0,0,0,0,0,0,0,0,-1,538,883,0,0
-679,141,0,0,0,0,0,0,0,0,0,-1,545,883,0,0
-672,141,-1.78632,-2.44482,0,0,0,0,0,0,0,-1,552,883,-1.78629,2.44479
-665,141,-0.633362,-1.72107,0,0,0,0,0,0,0,-1,559,883,-0.633376,1.72108
-658,141,-0.202332,-1.32117,0,0,0,0,0,0,0,-1,566,883,-0.202304,1.32119
-651,141,0.0596924,-1.37726,0,0,0,0,0,0,0,-1,573,883,0.059663,1.37724
-644,141,0.32489,-0.858887,0.00864266,-0.00255657,0.0300536,0.0336138,-0.0275277,0.693294,0.0353584,0.0454875,580,883,0.324897,0.858902
-637,141,0.092041,-0.456726,0.00325516,-0.00317194,0.0239956,0.0242514,-0.0241682,0.718833,0.0279551,0.0436954,587,883,0.0920336,0.456752
-630,141,-0.789429,0.720886,4.26601e-05,-0.00320493,0.0186348,0.0171243,-0.0202865,0.741939,0.0216248,0.0370941,594,883,-0.78941,-0.720857
-623,141,-0.75769,0.762024,-0.00180452,-0.00291981,0.0141208,0.0117696,-0.016494,0.765663,0.0163938,0.0188641,601,883,-0.757669,-0.762033
-616,141,-0.747742,0.775085,-0.00336623,-0.00269102,0.0102601,0.00723707,-0.0132943,0.801844,0.0120245,0.0106219,608,883,-0.747713,-0.7751
-609,141,-0.736938,0.756531,-0.0040548,-0.00192095,0.00710551,0.00419729,-0.010173,0.859919,0.00853247,0.0122013,615,883,-0.736921,-0.756539
-602,141,-0.730408,0.712708,-0.00429559,-0.00205931,0.0047649,0.00171688,-0.00807178,0.900644,0.00603544,0.0114069,622,883,-0.730408,-0.712701
-595,141,-0.733398,0.686035,-0.00406416,-0.0014249,0.00358058,0.00107149,-0.00656054,0.961951,0.00477113,0.00994894,629,883,-0.733392,-0.686046
-588,141,-0.78064,0.693237,-0.00382162,-0.00104743,0.00259188,0.000505179,-0.00537423,1.03109,0.00376254,0.0133944,636,883,-0.780612,-0.69322
-581,141,-0.775452,0.677368,-0.00401881,-0.000701278,0.00190487,0.000165825,-0.00488592,1.14362,0.00331394,0.0179458,643,883,-0.775476,-0.677377
-574,141,-0.731323,0.645386,-0.00450002,-0.000627138,0.00206324,0.000266042,-0.0053932,1.16225,0.00368735,0.0207456,650,883,-0.731323,-0.645361
-567,141,-0.748169,0.628906,-0.00502012,-0.00100282,0.00216603,-5.74247e-05,-0.00596551,1.15926,0.00395801,0.0259412,657,883,-0.748185,-0.628888
-560,141,-0.809875,0.596741,-0.00511757,-0.00094912,0.00206088,-0.000102266,-0.00596442,1.18091,0.00394264,0.0294548,664,883,-0.80985,-0.596736
-553,141,-0.995483,0.679932,-0.00471038,-0.000686862,0.00184796,3.30666e-05,-0.00543031,1.1993,0.00363128,0.0355249,671,883,-0.995471,-0.679955
-546,141,-1.1358,0.810608,-0.00411532,-0.000494094,0.00160804,0.000116887,-0.0047263,1.20769,0.00319054,0.0364843,678,883,-1.13579,-0.810593
-539,141,-1.12378,0.806335,-0.00290057,-0.000207428,0.000938108,8.71283e-05,-0.00319513,1.26655,0.00215971,0.0327067,685,883,-1.12376,-0.80633
-532,141,-1.15839,0.892029,-0.00088068,0.000325115,-7.75007e-05,0.000330076,-0.000885641,-1.50687,0.000725914,0.0319423,692,883,-1.15838,-0.892024
-525,141,-1.15082,1.0517,0.00203607,0.00104529,-0.00149038,0.00311124,-2.98811e-05,-0.624948,0.00208419,0.0418088,699,883,-1.1508,-1.05167
-518,141,-1.27747,0.926636,0.00597004,0.00195275,-0.00333356,0.00785334,6.94429e-05,-0.514251,0.00521257,0.0460089,706,883,-1.27746,-0.926633
-511,141,-1.11493,0.723022,0.0107504,0.00300935,-0.00556442,0.013658,0.000101686,-0.481521,0.00907164,0.040913,713,883,-1.11494,-0.722998
-504,141,-0.765808,0.129272,0.0159657,0.0040717,-0.00787943,0.0198905,0.000146919,-0.46213,0.0132116,0.0461547,720,883,-0.765795,-0.129268
-497,141,0,0,0,0,0,0,0,0,0,-1,727,883,0,0
-490,141,0,0,0,0,0,0,0,0,0,-1,734,883,0,0
-483,141,0,0,0,0,0,0,0,0,0,-1,741,883,0,0
-476,141,0,0,0,0,0,0,0,0,0,-1,748,883,0,0
-469,141,0,0,0,0,0,0,0,0,0,-1,755,883,0,0
-462,141,0,0,0,0,0,0,0,0,0,-1,762,883,0,0
-455,141,0,0,0,0,0,0,0,0,0,-1,769,883,0,0
-448,141,0,0,0,0,0,0,0,0,0,-1,776,883,0,0
-441,141,0,0,0,0,0,0,0,0,0,-1,783,883,0,0
-434,141,0,0,0,0,0,0,0,0,0,-1,790,883,0,0
-427,141,0,0,0,0,0,0,0,0,0,-1,797,883,0,0
-420,141,0,0,0,0,0,0,0,0,0,-1,804,883,0,0
-413,141,0,0,0,0,0,0,0,0,0,-1,811,883,0,0
-406,141,0,0,0,0,0,0,0,0,0,-1,818,883,0,0
-399,141,0,0,0,0,0,0,0,0,0,-1,825,883,0,0
-392,141,0,0,0,0,0,0,0,0,0,-1,832,883,0,0
-385,141,0,0,0,0,0,0,0,0,0,-1,839,883,0,0
-378,141,0,0,0,0,0,0,0,0,0,-1,846,883,0,0
-371,141,0,0,0,0,0,0,0,0,0,-1,853,883,0,0
-364,141,0,0,0,0,0,0,0,0,0,-1,860,883,0,0
-357,141,0,0,0,0,0,0,0,0,0,-1,867,883,0,0
-350,141,0,0,0,0,0,0,0,0,0,-1,874,883,0,0
-343,141,0,0,0,0,0,0,0,0,0,-1,881,883,0,0
-336,141,0,0,0,0,0,0,0,0,0,-1,888,883,0,0
-329,141,0,0,0,0,0,0,0,0,0,-1,895,883,0,0
-322,141,0,0,0,0,0,0,0,0,0,-1,902,883,0,0
-315,141,0,0,0,0,0,0,0,0,0,-1,909,883,0,0
-308,141,0,0,0,0,0,0,0,0,0,-1,916,883,0,0
-301,141,0,0,0,0,0,0,0,0,0,-1,923,883,0,0
-294,141,0,0,0,0,0,0,0,0,0,-1,930,883,0,0
-287,141,0,0,0,0,0,0,0,0,0,-1,937,883,0,0
-280,141,0,0,0,0,0,0,0,0,0,-1,944,883,0,0
-273,141,0,0,0,0,0,0,0,0,0,-1,951,883,0,0
-266,141,0,0,0,0,0,0,0,0,0,-1,958,883,0,0
-259,141,0,0,0,0,0,0,0,0,0,-1,965,883,0,0
-252,141,0,0,0,0,0,0,0,0,0,-1,972,883,0,0
-245,141,0,0,0,0,0,0,0,0,0,-1,979,883,0,0
-238,141,0,0,0,0,0,0,0,0,0,-1,986,883,0,0
-231,141,0,0,0,0,0,0,0,0,0,-1,993,883,0,0
-224,141,0,0,0,0,0,0,0,0,0,-1,1000,883,0,0
-217,141,0,0,0,0,0,0,0,0,0,-1,1007,883,0,0
-210,141,0,0,0,0,0,0,0,0,0,-1,1014,883,0,0
-203,141,0,0,0,0,0,0,0,0,0,-1,1021,883,0,0
-196,141,0,0,0,0,0,0,0,0,0,-1,1028,883,0,0
-189,141,0,0,0,0,0,0,0,0,0,-1,1035,883,0,0
-182,141,0,0,0,0,0,0,0,0,0,-1,1042,883,0,0
-175,141,0,0,0,0,0,0,0,0,0,-1,1049,883,0,0
-168,141,0,0,0,0,0,0,0,0,0,-1,1056,883,0,0
-161,141,0,0,0,0,0,0,0,0,0,-1,1063,883,0,0
-154,141,0,0,0,0,0,0,0,0,0,-1,1070,883,0,0
-147,141,0,0,0,0,0,0,0,0,0,-1,1077,883,0,0
-140,141,0,0,0,0,0,0,0,0,0,-1,1084,883,0,0
-133,141,0,0,0,0,0,0,0,0,0,-1,1091,883,0,0
-126,141,0,0,0,0,0,0,0,0,0,-1,1098,883,0,0
-119,141,0,0,0,0,0,0,0,0,0,-1,1105,883,0,0
-112,141,0,0,0,0,0,0,0,0,0,-1,1112,883,0,0
-105,141,0,0,0,0,0,0,0,0,0,-1,1119,883,0,0
-98,141,0,0,0,0,0,0,0,0,0,-1,1126,883,0,0
-91,141,0,0,0,0,0,0,0,0,0,-1,1133,883,0,0
-84,141,0,0,0,0,0,0,0,0,0,-1,1140,883,0,0
-77,141,0,0,0,0,0,0,0,0,0,-1,1147,883,0,0
-70,141,0,0,0,0,0,0,0,0,0,-1,1154,883,0,0
-63,141,0,0,0,0,0,0,0,0,0,-1,1161,883,0,0
-56,141,0,0,0,0,0,0,0,0,0,-1,1168,883,0,0
-49,141,0,0,0,0,0,0,0,0,0,-1,1175,883,0,0
-42,141,0,0,0,0,0,0,0,0,0,-1,1182,883,0,0
-35,141,0,0,0,0,0,0,0,0,0,-1,1189,883,0,0
-28,141,0,0,0,0,0,0,0,0,0,-1,1196,883,0,0
-21,141,0,0,0,0,0,0,0,0,0,-1,1203,883,0,0
-14,141,0,0,0,0,0,0,0,0,0,-1,1210,883,0,0
-7,141,0,0,0,0,0,0,0,0,0,-1,1217,883,0,0
0,141,0,0,0,0,0,0,0,0,0,-1,1224,883,0,0
7,141,0,0,0,0,0,0,0,0,0,-1,1231,883,0,0
14,141,0,0,0,0,0,0,0,0,0,-1,1238,883,0,0
21,141,0,0,0,0,0,0,0,0,0,-1,1245,883,0,0
28,141,0,0,0,0,0,0,0,0,0,-1,1252,883,0,0
35,141,0,0,0,0,0,0,0,0,0,-1,1259,883,0,0
42,141,0,0,0,0,0,0,0,0,0,-1,1266,883,0,0
49,141,0,0,0,0,0,0,0,0,0,-1,1273,883,0,0
56,141,0,0,0,0,0,0,0,0,0,-1,1280,883,0,0
63,141,0,0,0,0,0,0,0,0,0,-1,1287,883,0,0
70,141,0,0,0,0,0,0,0,0,0,-1,1294,883,0,0
77,141,0,0,0,0,0,0,0,0,0,-1,1301,883,0,0
84,141,0,0,0,0,0,0,0,0,0,-1,1308,883,0,0
91,141,0,0,0,0,0,0,0,0,0,-1,1315,883,0,0
98,141,0,0,0,0,0,0,0,0,0,-1,1322,883,0,0
105,141,0,0,0,0,0,0,0,0,0,-1,1329,883,0,0
112,141,0,0,0,0,0,0,0,0,0,-1,1336,883,0,0
119,141,0,0,0,0,0,0,0,0,0,-1,1343,883,0,0
126,141,0,0,0,0,0,0,0,0,0,-1,1350,883,0,0
133,141,0,0,0,0,0,0,0,0,0,-1,1357,883,0,0
140,141,0,0,0,0,0,0,0,0,0,-1,1364,883,0,0
147,141,0,0,0,0,0,0,0,0,0,-1,1371,883,0,0
154,141,0,0,0,0,0,0,0,0,0,-1,1378,883,0,0
161,141,0,0,0,0,0,0,0,0,0,-1,1385,883,0,0
168,141,0,0,0,0,0,0,0,0,0,-1,1392,883,0,0
175,141,0,0,0,0,0,0,0,0,0,-1,1399,883,0,0
182,141,0,0,0,0,0,0,0,0,0,-1,1406,883,0,0
189,141,0,0,0,0,0,0,0,0,0,-1,1413,883,0,0
196,141,0,0,0,0,0,0,0,0,0,-1,1420,883,0,0
203,141,0,0,0,0,0,0,0,0,0,-1,1427,883,0,0
210,141,0,0,0,0,0,0,0,0,0,-1,1434,883,0,0
217,141,0,0,0,0,0,0,0,0,0,-1,1441,883,0,0
224,141,0,0,0,0,0,0,0,0,0,-1,1448,883,0,0
231,141,0,0,0,0,0,0,0,0,0,-1,1455,883,0,0
238,141,0,0,0,0,0,0,0,0,0,-1,1462,883,0,0
245,141,0,0,0,0,0,0,0,0,0,-1,1469,883,0,0
252,141,0,0,0,0,0,0,0,0,0,-1,1476,883,0,0
259,141,0,0,0,0,0,0,0,0,0,-1,1483,883,0,0
266,141,0,0,0,0,0,0,0,0,0,-1,1490,883,0,0
273,141,0,0,0,0,0,0,0,0,0,-1,1497,883,0,0
280,141,0,0,0,0,0,0,0,0,0,-1,1504,883,0,0
287,141,0,0,0,0,0,0,0,0,0,-1,1511,883,0,0
294,141,0,0,0,0,0,0,0,0,0,-1,1518,883,0,0
301,141,0,0,0,0,0,0,0,0,0,-1,1525,883,0,0
308,141,0,0,0,0,0,0,0,0,0,-1,1532,883,0,0
315,141,0,0,0,0,0,0,0,0,0,-1,1539,883,0,0
322,141,0,0,0,0,0,0,0,0,0,-1,1546,883,0,0
329,141,0,0,0,0,0,0,0,0,0,-1,1553,883,0,0
336,141,0,0,0,0,0,0,0,0,0,-1,1560,883,0,0
343,141,0,0,0,0,0,0,0,0,0,-1,1567,883,0,0
350,141,0,0,0,0,0,0,0,0,0,-1,1574,883,0,0
357,141,0,0,0,0,0,0,0,0,0,-1,1581,883,0,0
364,141,0,0,0,0,0,0,0,0,0,-1,1588,883,0,0
371,141,0,0,0,0,0,0,0,0,0,-1,1595,883,0,0
378,141,0,0,0,0,0,0,0,0,0,-1,1602,883,0,0
385,141,0,0,0,0,0,0,0,0,0,-1,1609,883,0,0
392,141,0,0,0,0,0,0,0,0,0,-1,1616,883,0,0
399,141,0,0,0,0,0,0,0,0,0,-1,1623,883,0,0
406,141,0,0,0,0,0,0,0,0,0,-1,1630,883,0,0
413,141,0,0,0,0,0,0,0,0,0,-1,1637,883,0,0
420,141,0,0,0,0,0,0,0,0,0,-1,1644,883,0,0
427,141,0,0,0,0,0,0,0,0,0,-1,1651,883,0,0
434,141,0,0,0,0,0,0,0,0,0,-1,1658,883,0,0
441,141,0,0,0,0,0,0,0,0,0,-1,1665,883,0,0
448,141,0,0,0,0,0,0,0,0,0,-1,1672,883,0,0
455,141,0,0,0,0,0,0,0,0,0,-1,1679,883,0,0
462,141,0,0,0,0,0,0,0,0,0,-1,1686,883,0,0
469,141,0,0,0,0,0,0,0,0,0,-1,1693,883,0,0
476,141,0,0,0,0,0,0,0,0,0,-1,1700,883,0,0
483,141,0,0,0,0,0,0,0,0,0,-1,1707,883,0,0
490,141,0,0,0,0,0,0,0,0,0,-1,1714,883,0,0
497,141,0,0,0,0,0,0,0,0,0,-1,1721,883,0,0
504,141,0,0,0,0,0,0,0,0,0,-1,1728,883,0,0
511,141,0,0,0,0,0,0,0,0,0,-1,1735,883,0,0
518,141,0,0,0,0,0,0,0,0,0,-1,1742,883,0,0
525,141,0,0,0,0,0,0,0,0,0,-1,1749,883,0,0
532,141,0,0,0,0,0,0,0,0,0,-1,1756,883,0,0
539,141,0,0,0,0,0,0,0,0,0,-1,1763,883,0,0
546,141,0,0,0,0,0,0,0,0,0,-1,1770,883,0,0
553,141,0,0,0,0,0,0,0,0,0,-1,1777,883,0,0
560,141,0,0,0,0,0,0,0,0,0,-1,1784,883,0,0
567,141,0,0,0,0,0,0,0,0,0,-1,1791,883,0,0
574,141,0,0,0,0,0,0,0,0,0,-1,1798,883,0,0
581,141,0,0,0,0,0,0,0,0,0,-1,1805,883,0,0
588,141,0,0,0,0,0,0,0,0,0,-1,1812,883,0,0
595,141,0,0,0,0,0,0,0,0,0,-1,1819,883,0,0
602,141,0,0,0,0,0,0,0,0,0,-1,1826,883,0,0
609,141,0,0,0,0,0,0,0,0,0,-1,1833,883,0,0
616,141,0,0,0,0,0,0,0,0,0,-1,1840,883,0,0
623,141,4.92188,0.585449,0.00113609,-0.00171763,-0.00238163,0.00248558,-0.00306711,-0.515515,0.0032117,0.0438193,1847,883,4.92191,-0.585437
630,141,4.96948,0.47937,0.00180113,-0.000990345,-0.00126809,0.00229116,-0.00148038,-0.368758,0.00219421,0.0453685,1854,883,4.96946,-0.47935
637,141,5.00916,0.5,0,0,0,0,0,0,0,-1,1861,883,5.00911,-0.499997
644,141,4.88989,0.680359,0.00115809,-0.000474462,-0.000897199,0.00155477,-0.000871146,-0.416295,0.00141902,0.0394177,1868,883,4.88987,-0.680379
651,141,5.02087,0.743286,0.000237911,-0.000463328,-0.00107789,0.00102077,-0.00124619,-0.628154,0.00131099,0.0386041,1875,883,5.02084,-0.743315
658,141,5.01086,0.693726,-0.000715261,-0.000517206,-0.00130877,0.00069628,-0.00192875,-0.823158,0.00157025,0.0357571,1882,883,5.01084,-0.693701
665,141,4.92407,0.722961,-0.00153909,-0.000533908,-0.00149552,0.000541212,-0.00261421,-0.947501,0.00194843,0.0251825,1889,883,4.92404,-0.722983
672,141,4.94043,0.703613,-0.00227451,-0.000626339,-0.0014959,0.000257448,-0.00315829,-1.03716,0.00219638,0.0177792,1896,883,4.9404,-0.703591
679,141,4.97852,0.656616,-0.00286056,-0.000610956,-0.00158756,0.000209883,-0.0036814,-1.09361,0.00252714,0.0179625,1903,883,4.97851,-0.656633
686,141,4.81177,0.624634,-0.00328026,-0.000611413,-0.00165065,0.000176743,-0.00406841,-1.12533,0.00277307,0.0352328,1910,883,4.81177,-0.624629
693,141,4.6167,0.619629,-0.00340546,-0.000636066,-0.00165691,0.000138578,-0.0041801,-1.13347,0.00283406,0.0273878,1917,883,4.6167,-0.619606
700,141,4.60645,0.638245,-0.00329821,-0.000586835,-0.00149573,7.61654e-05,-0.00396121,-1.15356,0.00266656,0.0143856,1924,883,4.60642,-0.638269
707,141,4.59595,0.658875,-0.00298307,-0.000504598,-0.00119768,-2.04226e-05,-0.00346724,-1.18662,0.00230472,0.0122714,1931,883,4.59598,-0.658883
714,141,4.57959,0.670532,-0.00239011,-0.000409962,-0.00085917,-8.91512e-05,-0.00271092,-1.21343,0.00177831,0.0123173,1938,883,4.57963,-0.670517
721,141,4.58997,0.708191,-0.00149609,-0.000130841,-0.000601468,9.63372e-05,-0.00172327,-1.20966,0.00118227,0.0115384,1945,883,4.58991,-0.70819
728,141,4.5769,0.738647,-0.000289465,-5.49679e-05,-0.000271862,0.000123851,-0.000468284,-0.988987,0.000360633,0.0128718,1952,883,4.57685,-0.738645
735,141,4.57129,0.785583,0.000890168,-0.000420584,-2.24174e-05,0.000890552,-0.000420967,-0.017096,0.000773215,0.0127918,1959,883,4.57129,-0.785585
742,141,4.58203,0.835815,0.00203158,-0.000684078,0.000394778,0.00208781,-0.000740303,0.141471,0.00169346,0.0146449,1966,883,4.58207,-0.835806
749,141,4.57544,0.851257,0.00328743,-0.00120225,0.000893319,0.00345865,-0.00137347,0.189366,0.0028751,0.0134985,1973,883,4.57538,-0.851245
756,141,4.5575,0.88147,0.00447381,-0.0020252,0.00139196,0.0047594,-0.00231079,0.202357,0.00416277,0.0196524,1980,883,4.55755,-0.881441
763,141,4.6261,0.920898,0.00566596,-0.00327533,0.00208941,0.00613012,-0.0037395,0.218599,0.00575368,0.0415926,1987,883,4.62614,-0.920883
770,141,4.69971,1.08844,0.00689787,-0.00509588,0.0030931,0.00764858,-0.00584659,0.238098,0.00781455,0.0428599,1994,883,4.69969,-1.08845
777,141,5.19568,0.758911,0.00798751,-0.00764059,0.00450321,0.00919224,-0.00884531,0.261404,0.0104146,0.0433883,2001,883,5.19573,-0.758904
784,141,5.52576,0.319641,0,0,0,0,0,0,0,-1,2008,883,5.52576,-0.319648
791,141,5.10583,0.394897,0,0,0,0,0,0,0,-1,2015,883,5.10583,-0.394873
798,141,0,0,0,0,0,0,0,0,0,-1,2022,883,0,0
805,141,0,0,0,0,0,0,0,0,0,-1,2029,883,0,0
812,141,0,0,0,0,0,0,0,0,0,-1,2036,883,0,0
-700,134,0,0,0,0,0,0,0,0,0,-1,524,890,0,0
-693,134,0,0,0,0,0,0,0,0,0,-1,531,890,0,0
-686,134,0,0,0,0,0,0,0,0,0,-1,538,890,0,0
-679,134,0,0,0,0,0,0,0,0,0,-1,545,890,0,0
-672,134,-2.0614,-2.72821,0.0636717,0.00579158,0.061045,0.102289,-0.0328259,0.564051,0.0813725,0.0461755,552,890,-2.06139,2.72824
-665,134,-1.40198,-2.27808,0,0,0,0,0,0,0,-1,559,890,-1.40199,2.2781
-658,134,-0.252869,-1.06213,0,0,0,0,0,0,0,-1,566,890,-0.252855,1.06216
-651,134,-0.184082,-0.595032,0.0169771,-0.00287537,0.0373458,0.0456933,-0.0315915,0.655505,0.0448674,0.0425491,573,890,-0.184088,0.595055
-644,134,0.196228,-0.628662,0.0092183,-0.00367057,0.0301328,0.0335881,-0.0280403,0.680051,0.0356292,0.0431233,580,890,0.19622,0.628632
-637,134,-0.531738,0.338867,0.00403455,-0.00383929,0.0237221,0.0241442,-0.0239489,0.703168,0.0277667,0.0426768,587,890,-0.531731,-0.33884
-630,134,-0.640686,0.614685,0.000842268,-0.00357815,0.0181941,0.0169599,-0.0196958,0.724955,0.0211828,0.034974,594,890,-0.640712,-0.614714
-623,134,-0.760132,0.785889,-0.00109933,-0.00304172,0.0135151,0.0114794,-0.0156205,0.74953,0.0157069,0.0184504,601,890,-0.760126,-0.78588
-616,134,-0.783813,0.770752,-0.00280037,-0.00272915,0.00972582,0.00696113,-0.0124906,0.787229,0.0113807,0.010481,608,890,-0.783795,-0.770759
-609,134,-0.782227,0.762817,-0.00377657,-0.00191777,0.00663628,0.00385388,-0.00954822,0.85497,0.00796711,0.0107635,615,890,-0.782241,-0.762847
-602,134,-0.765747,0.730896,-0.00410532,-0.00203954,0.00434023,0.00138901,-0.00753387,0.902215,0.00554389,0.0114378,622,890,-0.765777,-0.730902
-595,134,-0.763245,0.710083,-0.00392457,-0.00139615,0.00335853,0.000928224,-0.00624895,0.965405,0.00450735,0.0106308,629,890,-0.763274,-0.710062
-588,134,-0.803589,0.711365,-0.00379429,-0.000940962,0.00250912,0.000518731,-0.00525398,1.0439,0.00368775,0.0170091,636,890,-0.803563,-0.711384
-581,134,-0.786499,0.665955,-0.00404491,-0.000623283,0.00184257,0.00018025,-0.00484844,1.15957,0.00329402,0.020909,643,890,-0.786506,-0.665984
-574,134,-0.76886,0.643677,-0.00453246,-0.000607327,0.00190466,0.000164955,-0.00530474,1.18558,0.00359274,0.020618,650,890,-0.768889,-0.643662
-567,134,-0.777039,0.613159,-0.00501686,-0.000883201,0.00194209,-0.000113922,-0.00578614,1.19365,0.00382002,0.0195331,657,890,-0.777011,-0.61315
-560,134,-0.925964,0.602173,-0.00507854,-0.000789263,0.00177382,-0.000150755,-0.00571705,1.22527,0.00376212,0.03172,664,890,-0.92597,-0.602158
-553,134,-1.15253,0.709167,-0.0046559,-0.000516711,0.00147288,-4.61107e-05,-0.0051265,1.26154,0.0034024,0.0411954,671,890,-1.15253,-0.709172
-546,134,-1.14447,0.76532,-0.00402881,-0.000241831,0.0011089,5.89832e-05,-0.00432962,1.3059,0.00290628,0.0268137,678,890,-1.1445,-0.765293
-539,134,-1.17535,0.771057,-0.00278544,0.000162972,0.000332263,0.000199952,-0.00282242,1.45996,0.00195168,0.0189833,685,890,-1.17536,-0.771035
-532,134,-1.20123,0.854126,-0.000760758,0.000815227,-0.000796812,0.00114788,-0.00109341,-1.17531,0.00129414,0.0246673,692,890,-1.20123,-0.854136
-525,134,-1.10968,0.946716,0.00216235,0.00168154,-0.00232429,0.00425863,-0.000414742,-0.733865,0.00298695,0.0383447,699,890,-1.10971,-0.946738
-518,134,-1.21265,0.999634,0.00610939,0.0027653,-0.0042762,0.00902882,-0.000154124,-0.599031,0.00607124,0.0458705,706,890,-1.21263,-0.999618
-511,134,-1.17908,0.891907,0.0108346,0.004026,-0.00657453,0.0148339,2.66689e-05,-0.546505,0.00988041,0.0448456,713,890,-1.17911,-0.891925
-504,134,0,0,0,0,0,0,0,0,0,-1,720,890,0,0
-497,134,0,0,0,0,0,0,0,0,0,-1,727,890,0,0
-490,134,0,0,0,0,0,0,0,0,0,-1,734,890,0,0
-483,134,0,0,0,0,0,0,0,0,0,-1,741,890,0,0
-476,134,0,0,0,0,0,0,0,0,0,-1,748,890,0,0
-469,134,0,0,0,0,0,0,0,0,0,-1,755,890,0,0
-462,134,0,0,0,0,0,0,0,0,0,-1,762,890,0,0
-455,134,0,0,0,0,0,0,0,0,0,-1,769,890,0,0
-448,134,0,0,0,0,0,0,0,0,0,-1,776,890,0,0
-441,134,0,0,0,0,0,0,0,0,0,-1,783,890,0,0
-434,134,0,0,0,0,0,0,0,0,0,-1,790,890,0,0
-427,134,0,0,0,0,0,0,0,0,0,-1,797,890,0,0
-420,134,0,0,0,0,0,0,0,0,0,-1,804,890,0,0
-413,134,0,0,0,0,0,0,0,0,0,-1,811,890,0,0
-406,134,0,0,0,0,0,0,0,0,0,-1,818,890,0,0
-399,134,0,0,0,0,0,0,0,0,0,-1,825,890,0,0
-392,134,0,0,0,0,0,0,0,0,0,-1,832,890,0,0
-385,134,0,0,0,0,0,0,0,0,0,-1,839,890,0,0
-378,134,0,0,0,0,0,0,0,0,0,-1,846,890,0,0
-371,134,0,0,0,0,0,0,0,0,0,-1,853,890,0,0
-364,134,0,0,0,0,0,0,0,0,0,-1,860,890,0,0
-357,134,0,0,0,0,0,0,0,0,0,-1,867,890,0,0
-350,134,0,0,0,0,0,0,0,0,0,-1,874,890,0,0
-343,134,0,0,0,0,0,0,0,0,0,-1,881,890,0,0
-336,134,0,0,0,0,0,0,0,0,0,-1,888,890,0,0
-329,134,0,0,0,0,0,0,0,0,0,-1,895,890,0,0
-322,134,0,0,0,0,0,0,0,0,0,-1,902,890,0,0
-315,134,0,0,0,0,0,0,0,0,0,-1,909,890,0,0
-308,134,0,0,0,0,0,0,0,0,0,-1,916,890,0,0
-301,134,0,0,0,0,0,0,0,0,0,-1,923,890,0,0
-294,134,0,0,0,0,0,0,0,0,0,-1,930,890,0,0
-287,134,0,0,0,0,0,0,0,0,0,-1,937,890,0,0
-280,134,0,0,0,0,0,0,0,0,0,-1,944,890,0,0
-273,134,0,0,0,0,0,0,0,0,0,-1,951,890,0,0
-266,134,0,0,0,0,0,0,0,0,0,-1,958,890,0,0
-259,134,0,0,0,0,0,0,0,0,0,-1,965,890,0,0
-252,134,0,0,0,0,0,0,0,0,0,-1,972,890,0,0
-245,134,0,0,0,0,0,0,0,0,0,-1,979,890,0,0
-238,134,0,0,0,0,0,0,0,0,0,-1,986,890,0,0
-231,134,0,0,0,0,0,0,0,0,0,-1,993,890,0,0
-224,134,0,0,0,0,0,0,0,0,0,-1,1000,890,0,0
-217,134,0,0,0,0,0,0,0,0,0,-1,1007,890,0,0
-210,134,0,0,0,0,0,0,0,0,0,-1,1014,890,0,0
-203,134,0,0,0,0,0,0,0,0,0,-1,1021,890,0,0
-196,134,0,0,0,0,0,0,0,0,0,-1,1028,890,0,0
-189,134,0,0,0,0,0,0,0,0,0,-1,1035,890,0,0
-182,134,0,0,0,0,0,0,0,0,0,-1,1042,890,0,0
-175,134,0,0,0,0,0,0,0,0,0,-1,1049,890,0,0
-168,134,0,0,0,0,0,0,0,0,0,-1,1056,890,0,0
-161,134,0,0,0,0,0,0,0,0,0,-1,1063,890,0,0
-154,134,0,0,0,0,0,0,0,0,0,-1,1070,890,0,0
-147,134,0,0,0,0,0,0,0,0,0,-1,1077,890,0,0
-140,134,0,0,0,0,0,0,0,0,0,-1,1084,890,0,0
-133,134,0,0,0,0,0,0,0,0,0,-1,1091,890,0,0
-126,134,0,0,0,0,0,0,0,0,0,-1,1098,890,0,0
-119,134,0,0,0,0,0,0,0,0,0,-1,1105,890,0,0
-112,134,0,0,0,0,0,0,0,0,0,-1,1112,890,0,0
-105,134,0,0,0,0,0,0,0,0,0,-1,1119,890,0,0
-98,134,0,0,0,0,0,0,0,0,0,-1,1126,890,0,0
-91,134,0,0,0,0,0,0,0,0,0,-1,1133,890,0,0
-84,134,0,0,0,0,0,0,0,0,0,-1,1140,890,0,0
-77,134,0,0,0,0,0,0,0,0,0,-1,1147,890,0,0
-70,134,0,0,0,0,0,0,0,0,0,-1,1154,890,0,0
-63,134,0,0,0,0,0,0,0,0,0,-1,1161,890,0,0
-56,134,0,0,0,0,0,0,0,0,0,-1,1168,890,0,0
-49,134,0,0,0,0,0,0,0,0,0,-1,1175,890,0,0
-42,134,0,0,0,0,0,0,0,0,0,-1,1182,890,0,0
-35,134,0,0,0,0,0,0,0,0,0,-1,1189,890,0,0
-28,134,0,0,0,0,0,0,0,0,0,-1,1196,890,0,0
-21,134,0,0,0,0,0,0,0,0,0,-1,1203,890,0,0
-14,134,0,0,0,0,0,0,0,0,0,-1,1210,890,0,0
-7,134,0,0,0,0,0,0,0,0,0,-1,1217,890,0,0
0,134,0,0,0,0,0,0,0,0,0,-1,1224,890,0,0
7,134,0,0,0,0,0,0,0,0,0,-1,1231,890,0,0
14,134,0,0,0,0,0,0,0,0,0,-1,1238,890,0,0
21,134,0,0,0,0,0,0,0,0,0,-1,1245,890,0,0
28,134,0,0,0,0,0,0,0,0,0,-1,1252,890,0,0
35,134,0,0,0,0,0,0,0,0,0,-1,1259,890,0,0
42,134,0,0,0,0,0,0,0,0,0,-1,1266,890,0,0
49,134,0,0,0,0,0,0,0,0,0,-1,1273,890,0,0
56,134,0,0,0,0,0,0,0,0,0,-1,1280,890,0,0
63,134,0,0,0,0,0,0,0,0,0,-1,1287,890,0,0
70,134,0,0,0,0,0,0,0,0,0,-1,1294,890,0,0
77,134,0,0,0,0,0,0,0,0,0,-1,1301,890,0,0
84,134,0,0,0,0,0,0,0,0,0,-1,1308,890,0,0
91,134,0,0,0,0,0,0,0,0,0,-1,1315,890,0,0
98,134,0,0,0,0,0,0,0,0,0,-1,1322,890,0,0
105,134,0,0,0,0,0,0,0,0,0,-1,1329,890,0,0
112,134,0,0,0,0,0,0,0,0,0,-1,1336,890,0,0
119,134,0,0,0,0,0,0,0,0,0,-1,1343,890,0,0
126,134,0,0,0,0,0,0,0,0,0,-1,1350,890,0,0
133,134,0,0,0,0,0,0,0,0,0,-1,1357,890,0,0
140,134,0,0,0,0,0,0,0,0,0,-1,1364,890,0,0
147,134,0,0,0,0,0,0,0,0,0,-1,1371,890,0,0
154,134,0,0,0,0,0,0,0,0,0,-1,1378,890,0,0
161,134,0,0,0,0,0,0,0,0,0,-1,1385,890,0,0
168,134,0,0,0,0,0,0,0,0,0,-1,1392,890,0,0
175,134,0,0,0,0,0,0,0,0,0,-1,1399,890,0,0
182,134,0,0,0,0,0,0,0,0,0,-1,1406,890,0,0
189,134,0,0,0,0,0,0,0,0,0,-1,1413,890,0,0
196,134,0,0,0,0,0,0,0,0,0,-1,1420,890,0,0
203,134,0,0,0,0,0,0,0,0,0,-1,1427,890,0,0
210,134,0,0,0,0,0,0,0,0,0,-1,1434,890,0,0
217,134,0,0,0,0,0,0,0,0,0,-1,1441,890,0,0
224,134,0,0,0,0,0,0,0,0,0,-1,1448,890,0,0
231,134,0,0,0,0,0,0,0,0,0,-1,1455,890,0,0
238,134,0,0,0,0,0,0,0,0,0,-1,1462,890,0,0
245,134,0,0,0,0,0,0,0,0,0,-1,1469,890,0,0
252,134,0,0,0,0,0,0,0,0,0,-1,1476,890,0,0
259,134,0,0,0,0,0,0,0,0,0,-1,1483,890,0,0
266,134,0,0,0,0,0,0,0,0,0,-1,1490,890,0,0
273,134,0,0,0,0,0,0,0,0,0,-1,1497,890,0,0
280,134,0,0,0,0,0,0,0,0,0,-1,1504,890,0,0
287,134,0,0,0,0,0,0,0,0,0,-1,1511,890,0,0
294,134,0,0,0,0,0,0,0,0,0,-1,1518,890,0,0
301,134,0,0,0,0,0,0,0,0,0,-1,1525,890,0,0
308,134,0,0,0,0,0,0,0,0,0,-1,1532,890,0,0
315,134,0,0,0,0,0,0,0,0,0,-1,1539,890,0,0
322,134,0,0,0,0,0,0,0,0,0,-1,1546,890,0,0
329,134,0,0,0,0,0,0,0,0,0,-1,1553,890,0,0
336,134,0,0,0,0,0,0,0,0,0,-1,1560,890,0,0
343,134,0,0,0,0,0,0,0,0,0,-1,1567,890,0,0
350,134,0,0,0,0,0,0,0,0,0,-1,1574,890,0,0
357,134,0,0,0,0,0,0,0,0,0,-1,1581,890,0,0
364,134,0,0,0,0,0,0,0,0,0,-1,1588,890,0,0
371,134,0,0,0,0,0,0,0,0,0,-1,1595,890,0,0
378,134,0,0,0,0,0,0,0,0,0,-1,1602,890,0,0
385,134,0,0,0,0,0,0,0,0,0,-1,1609,890,0,0
392,134,0,0,0,0,0,0,0,0,0,-1,1616,890,0,0
399,134,0,0,0,0,0,0,0,0,0,-1,1623,890,0,0
406,134,0,0,0,0,0,0,0,0,0,-1,1630,890,0,0
413,134,0,0,0,0,0,0,0,0,0,-1,1637,890,0,0
420,134,0,0,0,0,0,0,0,0,0,-1,1644,890,0,0
427,134,0,0,0,0,0,0,0,0,0,-1,1651,890,0,0
434,134,0,0,0,0,0,0,0,0,0,-1,1658,890,0,0
441,134,0,0,0,0,0,0,0,0,0,-1,1665,890,0,0
448,134,0,0,0,0,0,0,0,0,0,-1,1672,890,0,0
455,134,0,0,0,0,0,0,0,0,0,-1,1679,890,0,0
462,134,0,0,0,0,0,0,0,0,0,-1,1686,890,0,0
469,134,0,0,0,0,0,0,0,0,0,-1,1693,890,0,0
476,134,0,0,0,0,0,0,0,0,0,-1,1700,890,0,0
483,134,0,0,0,0,0,0,0,0,0,-1,1707,890,0,0
490,134,0,0,0,0,0,0,0,0,0,-1,1714,890,0,0
497,134,0,0,0,0,0,0,0,0,0,-1,1721,890,0,0
504,134,0,0,0,0,0,0,0,0,0,-1,1728,890,0,0
511,134,0,0,0,0,0,0,0,0,0,-1,1735,890,0,0
518,134,0,0,0,0,0,0,0,0,0,-1,1742,890,0,0
525,134,0,0,0,0,0,0,0,0,0,-1,1749,890,0,0
532,134,0,0,0,0,0,0,0,0,0,-1,1756,890,0,0
539,134,0,0,0,0,0,0,0,0,0,-1,1763,890,0,0
546,134,0,0,0,0,0,0,0,0,0,-1,1770,890,0,0
553,134,0,0,0,0,0,0,0,0,0,-1,1777,890,0,0
560,134,0,0,0,0,0,0,0,0,0,-1,1784,890,0,0
567,134,0,0,0,0,0,0,0,0,0,-1,1791,890,0,0
574,134,0,0,0,0,0,0,0,0,0,-1,1798,890,0,0
581,134,0,0,0,0,0,0,0,0,0,-1,1805,890,0,0
588,134,0,0,0,0,0,0,0,0,0,-1,1812,890,0,0
595,134,0,0,0,0,0,0,0,0,0,-1,1819,890,0,0
602,134,0,0,0,0,0,0,0,0,0,-1,1826,890,0,0
609,134,0,0,0,0,0,0,0,0,0,-1,1833,890,0,0
616,134,0,0,0,0,0,0,0,0,0,-1,1840,890,0,0
623,134,4.88696,0.691772,0.00245234,-0.00196021,-0.00268985,0.003725,-0.00323286,-0.441922,0.00402047,0.0482029,1847,890,4.88698,-0.691757
630,134,4.89075,0.675476,0.00293421,-0.000942404,-0.00151346,0.00345509,-0.00146328,-0.331467,0.00291621,0.0487745,1854,890,4.89072,-0.675507
637,134,5.04919,0.79718,0.00282669,-0.000369664,-0.00105726,0.00314475,-0.000687724,-0.292222,0.00235939,0.0462673,1861,890,5.04923,-0.797181
644,134,5.10339,0.808533,0,0,0,0,0,0,0,-1,1868,890,5.10341,-0.80854
651,134,5.00549,0.710388,0.00104474,-3.62285e-05,-0.00106294,0.00169671,-0.000688204,-0.550194,0.00141737,0.0395429,1875,890,5.00545,-0.710377
658,134,4.99792,0.566833,-8.6899e-05,-5.85695e-05,-0.00123299,0.00116034,-0.0013058,-0.791142,0.00142465,0.0383894,1882,890,4.99788,-0.566835
665,134,5.01624,0.636536,-0.00107471,-9.7124e-05,-0.00137851,0.000876685,-0.00204852,-0.955773,0.00173345,0.0300077,1889,890,5.01624,-0.636556
672,134,4.94641,0.667725,-0.00193263,-0.000214377,-0.00136709,0.000541124,-0.00268814,-1.06593,0.00199705,0.0186724,1896,890,4.94641,-0.667727
679,134,4.93787,0.640747,-0.00262349,-0.000240322,-0.0014383,0.000435866,-0.00329968,-1.13133,0.00235854,0.0142421,1903,890,4.93781,-0.640734
686,134,4.93909,0.704956,-0.00314707,-0.00029693,-0.00149025,0.000339955,-0.00378396,-1.16692,0.00264325,0.0398992,1910,890,4.93913,-0.704977
693,134,4.73523,0.6427,-0.00336827,-0.000387239,-0.00150718,0.000241969,-0.00399748,-1.17532,0.00274919,0.0214541,1917,890,4.73527,-0.642728
700,134,4.5835,0.642883,-0.00334115,-0.00041159,-0.00136931,0.000128771,-0.00388151,-1.19493,0.00263165,0.0159263,1924,890,4.58352,-0.642908
707,134,4.58508,0.63855,-0.00310235,-0.00037861,-0.00109796,8.862e-06,-0.00348983,-1.23154,0.00232951,0.0140151,1931,890,4.58503,-0.638555
714,134,4.59619,0.669189,-0.00256095,-0.000310895,-0.000805486,-5.22694e-05,-0.00281958,-1.26011,0.00186254,0.0126907,1938,890,4.59621,-0.669195
721,134,4.62244,0.693909,-0.00173571,-7.43538e-05,-0.000588135,0.000112774,-0.00192284,-1.26275,0.00132109,0.0127682,1945,890,4.62248,-0.693898
728,134,4.6051,0.727356,-0.00059653,-2.37774e-05,-0.000303282,0.000106969,-0.000727276,-1.16377,0.000524159,0.0137261,1952,890,4.60515,-0.727328
735,134,4.59143,0.780457,0.000520625,-0.000391262,-8.9129e-05,0.000529255,-0.000399892,-0.096524,0.000538173,0.0185904,1959,890,4.59147,-0.780468
742,134,4.60083,0.810303,0.00143595,-0.000648087,0.000363692,0.0014976,-0.000709733,0.167904,0.00130118,0.0136266,1966,890,4.60089,-0.810314
749,134,4.60999,0.842102,0.00235342,-0.00106425,0.00100599,0.00262755,-0.00133838,0.266035,0.0023297,0.0125701,1973,890,4.60996,-0.84211
756,134,4.60999,0.853455,0.00320248,-0.00177633,0.00159265,0.00366835,-0.0022422,0.284575,0.00344541,0.0167215,1980,890,4.60999,-0.853446
763,134,4.62866,0.848938,0.00391438,-0.00283952,0.00238525,0.00467183,-0.00359697,0.307482,0.00478742,0.0367354,1987,890,4.62864,-0.848955
770,134,4.70947,0.935242,0.00455378,-0.00434403,0.00348509,0.0057563,-0.00554655,0.332256,0.00652608,0.0425197,1994,890,4.70951,-0.93523
777,134,4.59778,1.26031,0.00504617,-0.0063866,0.00497132,0.00690547,-0.00824591,0.357899,0.00875906,0.0461263,2001,890,4.59781,-1.2603
784,134,4.92615,0.0839233,0.0052404,-0.00906592,0.0069039,0.00802865,-0.0118542,0.383834,0.01155,0.0469712,2008,890,4.9262,-0.0839101
791,134,4.70984,0.388672,0.00518377,-0.0124071,0.00933522,0.00921432,-0.0164376,0.407581,0.0150046,0.0442853,2015,890,4.70984,-0.388692
798,134,0,0,0,0,0,0,0,0,0,-1,2022,890,0,0
805,134,0,0,0,0,0,0,0,0,0,-1,2029,890,0,0
812,134,0,0,0,0,0,0,0,0,0,-1,2036,890,0,0
-700,127,0,0,0,0,0,0,0,0,0,-1,524,897,0,0
-693,127,0,0,0,0,0,0,0,0,0,-1,531,897,0,0
-686,127,0,0,0,0,0,0,0,0,0,-1,538,897,0,0
-679,127,-2.79712,-3.4267,0.0841263,0.00626534,0.0717416,0.12682,-0.036428,0.536807,0.09895,0.0443701,545,897,-2.79709,3.42667
-672,127,-2.3407,-2.94446,0.0607114,0.0017931,0.0632958,0.101068,-0.0385633,0.567597,0.0832648,0.0469602,552,897,-2.34068,2.94445
-665,127,-1.73193,-2.5271,0,0,0,0,0,0,0,-1,559,897,-1.73196,2.5271
-658,127,0.547607,1.13507,0.0285816,-0.00279426,0.04512,0.0606631,-0.0348758,0.618089,0.0558252,0.0444779,566,897,0.54763,-1.13508
-651,127,0.0516357,0.685059,0.0181534,-0.00379816,0.0367408,0.0455228,-0.0311675,0.64025,0.044535,0.0445488,573,897,0.0516384,-0.685069
-644,127,-0.122742,-0.072937,0.0106099,-0.00417941,0.0292264,0.0333626,-0.0269322,0.661492,0.0348771,0.0401395,580,897,-0.122755,0.0729615
-637,127,-0.41803,0.329834,0,0,0,0,0,0,0,-1,587,897,-0.418052,-0.329864
-630,127,-0.698914,0.682129,0.00203312,-0.00367977,0.0171789,0.0165914,-0.0182381,0.703014,0.0201163,0.0282946,594,897,-0.698891,-0.682128
-623,127,-0.77179,0.779785,-0.000162749,-0.00303645,0.0125268,0.0110093,-0.0142085,0.728297,0.0145985,0.0124379,601,897,-0.77179,-0.779812
-616,127,-0.791199,0.776062,-0.00206238,-0.00268474,0.00889472,0.00652661,-0.0112737,0.767913,0.0103981,0.00943581,608,897,-0.791211,-0.776059
-609,127,-0.80658,0.752319,-0.00340013,-0.00187795,0.00594554,0.00335502,-0.0086331,0.849057,0.00714145,0.012871,615,897,-0.806596,-0.752325
-602,127,-0.813232,0.722656,-0.00388314,-0.00200769,0.00376832,0.000937822,-0.00682865,0.907344,0.00489508,0.0139329,622,897,-0.813207,-0.72263
-595,127,-0.782532,0.692078,-0.00377157,-0.00138287,0.00305153,0.000699713,-0.00585416,0.971931,0.00415569,0.0124545,629,897,-0.782509,-0.692083
-588,127,-0.839478,0.696167,-0.00372887,-0.000882375,0.0023714,0.000460091,-0.00507134,1.05567,0.00354422,0.0164667,636,897,-0.8395,-0.696188
-581,127,-0.873047,0.642456,-0.00400531,-0.000593342,0.00177148,0.000160045,-0.0047587,1.16868,0.00322714,0.0210161,643,897,-0.873021,-0.642461
-574,127,-0.821411,0.635315,-0.00446949,-0.000631362,0.00177685,6.4915e-05,-0.00516577,1.19733,0.00346569,0.0216664,650,897,-0.821442,-0.635324
-567,127,-0.804932,0.557861,-0.00494482,-0.000843062,0.00174453,-0.000201454,-0.00558642,1.21837,0.00365898,0.028156,657,897,-0.804911,-0.557849
-560,127,-1.02087,0.622925,-0.00501778,-0.000722222,0.00151025,-0.000244397,-0.00549561,1.26437,0.00358505,0.0317143,664,897,-1.02089,-0.622932
-553,127,-1.20941,0.756287,-0.00464282,-0.000485431,0.00111526,-0.000205148,-0.0049231,1.32458,0.00321587,0.0377555,671,897,-1.20939,-0.756303
-546,127,-1.1615,0.75824,-0.0040447,-0.000175825,0.000624894,-7.73969e-05,-0.00414313,1.41457,0.00273665,0.0220962,678,897,-1.16149,-0.758224
-539,127,-1.14404,0.756104,-0.00285628,0.000302666,-0.000270175,0.000325606,-0.00287922,-1.48609,0.00203671,0.0196102,685,897,-1.14407,-0.75611
-532,127,-1.16388,0.780762,-0.000933419,0.00102521,-0.00153977,0.00187071,-0.00177892,-1.06864,0.00210734,0.0174149,692,897,-1.16388,-0.780747
-525,127,-1.14148,0.752441,0.00189418,0.00200447,-0.00322636,0.00517616,-0.00127751,-0.793944,0.00394615,0.0330114,699,897,-1.14149,-0.752461
-518,127,-1.23254,1.01727,0,0,0,0,0,0,0,-1,706,897,-1.23254,-1.01726
-511,127,-1.18744,0.852478,0,0,0,0,0,0,0,-1,713,897,-1.18742,-0.852487
-504,127,0,0,0,0,0,0,0,0,0,-1,720,897,0,0
-497,127,0,0,0,0,0,0,0,0,0,-1,727,897,0,0
-490,127,0,0,0,0,0,0,0,0,0,-1,734,897,0,0
-483,127,0,0,0,0,0,0,0,0,0,-1,741,897,0,0
-476,127,0,0,0,0,0,0,0,0,0,-1,748,897,0,0
-469,127,0,0,0,0,0,0,0,0,0,-1,755,897,0,0
-462,127,0,0,0,0,0,0,0,0,0,-1,762,897,0,0
-455,127,0,0,0,0,0,0,0,0,0,-1,769,897,0,0
-448,127,0,0,0,0,0,0,0,0,0,-1,776,897,0,0
-441,127,0,0,0,0,0,0,0,0,0,-1,783,897,0,0
-434,127,0,0,0,0,0,0,0,0,0,-1,790,897,0,0
-427,127,0,0,0,0,0,0,0,0,0,-1,797,897,0,0
-420,127,0,0,0,0,0,0,0,0,0,-1,804,897,0,0
-413,127,0,0,0,0,0,0,0,0,0,-1,811,897,0,0
-406,127,0,0,0,0,0,0,0,0,0,-1,818,897,0,0
-399,127,0,0,0,0,0,0,0,0,0,-1,825,897,0,0
-392,127,0,0,0,0,0,0,0,0,0,-1,832,897,0,0
-385,127,0,0,0,0,0,0,0,0,0,-1,839,897,0,0
-378,127,0,0,0,0,0,0,0,0,0,-1,846,897,0,0
-371,127,0,0,0,0,0,0,0,0,0,-1,853,897,0,0
-364,127,0,0,0,0,0,0,0,0,0,-1,860,897,0,0
-357,127,0,0,0,0,0,0,0,0,0,-1,867,897,0,0
-350,127,0,0,0,0,0,0,0,0,0,-1,874,897,0,0
-343,127,0,0,0,0,0,0,0,0,0,-1,881,897,0,0
-336,127,0,0,0,0,0,0,0,0,0,-1,888,897,0,0
-329,127,0,0,0,0,0,0,0,0,0,-1,895,897,0,0
-322,127,0,0,0,0,0,0,0,0,0,-1,902,897,0,0
-315,127,0,0,0,0,0,0,0,0,0,-1,909,897,0,0
-308,127,0,0,0,0,0,0,0,0,0,-1,916,897,0,0
-301,127,0,0,0,0,0,0,0,0,0,-1,923,897,0,0
-294,127,0,0,0,0,0,0,0,0,0,-1,930,897,0,0
-287,127,0,0,0,0,0,0,0,0,0,-1,937,897,0,0
-280,127,0,0,0,0,0,0,0,0,0,-1,944,897,0,0
-273,127,0,0,0,0,0,0,0,0,0,-1,951,897,0,0
-266,127,0,0,0,0,0,0,0,0,0,-1,958,897,0,0
-259,127,0,0,0,0,0,0,0,0,0,-1,965,897,0,0
-252,127,0,0,0,0,0,0,0,0,0,-1,972,897,0,0
-245,127,0,0,0,0,0,0,0,0,0,-1,979,897,0,0
-238,127,0,0,0,0,0,0,0,0,0,-1,986,897,0,0
-231,127,0,0,0,0,0,0,0,0,0,-1,993,897,0,0
-224,127,0,0,0,0,0,0,0,0,0,-1,1000,897,0,0
-217,127,0,0,0,0,0,0,0,0,0,-1,1007,897,0,0
-210,127,0,0,0,0,0,0,0,0,0,-1,1014,897,0,0
-203,127,0,0,0,0,0,0,0,0,0,-1,1021,897,0,0
-196,127,0,0,0,0,0,0,0,0,0,-1,1028,897,0,0
-189,127,0,0,0,0,0,0,0,0,0,-1,1035,897,0,0
-182,127,0,0,0,0,0,0,0,0,0,-1,1042,897,0,0
-175,127,0,0,0,0,0,0,0,0,0,-1,1049,897,0,0
-168,127,0,0,0,0,0,0,0,0,0,-1,1056,897,0,0
-161,127,0,0,0,0,0,0,0,0,0,-1,1063,897,0,0
-154,127,0,0,0,0,0,0,0,0,0,-1,1070,897,0,0
-147,127,0,0,0,0,0,0,0,0,0,-1,1077,897,0,0
-140,127,0,0,0,0,0,0,0,0,0,-1,1084,897,0,0
-133,127,0,0,0,0,0,0,0,0,0,-1,1091,897,0,0
-126,127,0,0,0,0,0,0,0,0,0,-1,1098,897,0,0
-119,127,0,0,0,0,0,0,0,0,0,-1,1105,897,0,0
-112,127,0,0,0,0,0,0,0,0,0,-1,1112,897,0,0
-105,127,0,0,0,0,0,0,0,0,0,-1,1119,897,0,0
-98,127,0,0,0,0,0,0,0,0,0,-1,1126,897,0,0
-91,127,0,0,0,0,0,0,0,0,0,-1,1133,897,0,0
-84,127,0,0,0,0,0,0,0,0,0,-1,1140,897,0,0
-77,127,0,0,0,0,0,0,0,0,0,-1,1147,897,0,0
-70,127,0,0,0,0,0,0,0,0,0,-1,1154,897,0,0
-63,127,0,0,0,0,0,0,0,0,0,-1,1161,897,0,0
-56,127,0,0,0,0,0,0,0,0,0,-1,1168,897,0,0
-49,127,0,0,0,0,0,0,0,0,0,-1,1175,897,0,0
-42,127,0,0,0,0,0,0,0,0,0,-1,1182,897,0,0
-35,127,0,0,0,0,0,0,0,0,0,-1,1189,897,0,0
-28,127,0,0,0,0,0,0,0,0,0,-1,1196,897,0,0
-21,127,0,0,0,0,0,0,0,0,0,-1,1203,897,0,0
-14,127,0,0,0,0,0,0,0,0,0,-1,1210,897,0,0
-7,127,0,0,0,0,0,0,0,0,0,-1,1217,897,0,0
0,127,0,0,0,0,0,0,0,0,0,-1,1224,897,0,0
7,127,0,0,0,0,0,0,0,0,0,-1,1231,897,0,0
14,127,0,0,0,0,0,0,0,0,0,-1,1238,897,0,0
21,127,0,0,0,0,0,0,0,0,0,-1,1245,897,0,0
28,127,0,0,0,0,0,0,0,0,0,-1,1252,897,0,0
35,127,0,0,0,0,0,0,0,0,0,-1,1259,897,0,0
42,127,0,0,0,0,0,0,0,0,0,-1,1266,897,0,0
49,127,0,0,0,0,0,0,0,0,0,-1,1273,897,0,0
56,127,0,0,0,0,0,0,0,0,0,-1,1280,897,0,0
63,127,0,0,0,0,0,0,0,0,0,-1,1287,897,0,0
70,127,0,0,0,0,0,0,0,0,0,-1,1294,897,0,0
77,127,0,0,0,0,0,0,0,0,0,-1,1301,897,0,0
84,127,0,0,0,0,0,0,0,0,0,-1,1308,897,0,0
91,127,0,0,0,0,0,0,0,0,0,-1,1315,897,0,0
98,127,0,0,0,0,0,0,0,0,0,-1,1322,897,0,0
105,127,0,0,0,0,0,0,0,0,0,-1,1329,897,0,0
112,127,0,0,0,0,0,0,0,0,0,-1,1336,897,0,0
119,127,0,0,0,0,0,0,0,0,0,-1,1343,897,0,0
126,127,0,0,0,0,0,0,0,0,0,-1,1350,897,0,0
133,127,0,0,0,0,0,0,0,0,0,-1,1357,897,0,0
140,127,0,0,0,0,0,0,0,0,0,-1,1364,897,0,0
147,127,0,0,0,0,0,0,0,0,0,-1,1371,897,0,0
154,127,0,0,0,0,0,0,0,0,0,-1,1378,897,0,0
161,127,0,0,0,0,0,0,0,0,0,-1,1385,897,0,0
168,127,0,0,0,0,0,0,0,0,0,-1,1392,897,0,0
175,127,0,0,0,0,0,0,0,0,0,-1,1399,897,0,0
182,127,0,0,0,0,0,0,0,0,0,-1,1406,897,0,0
189,127,0,0,0,0,0,0,0,0,0,-1,1413,897,0,0
196,127,0,0,0,0,0,0,0,0,0,-1,1420,897,0,0
203,127,0,0,0,0,0,0,0,0,0,-1,1427,897,0,0
210,127,0,0,0,0,0,0,0,0,0,-1,1434,897,0,0
217,127,0,0,0,0,0,0,0,0,0,-1,1441,897,0,0
224,127,0,0,0,0,0,0,0,0,0,-1,1448,897,0,0
231,127,0,0,0,0,0,0,0,0,0,-1,1455,897,0,0
238,127,0,0,0,0,0,0,0,0,0,-1,1462,897,0,0
245,127,0,0,0,0,0,0,0,0,0,-1,1469,897,0,0
252,127,0,0,0,0,0,0,0,0,0,-1,1476,897,0,0
259,127,0,0,0,0,0,0,0,0,0,-1,1483,897,0,0
266,127,0,0,0,0,0,0,0,0,0,-1,1490,897,0,0
273,127,0,0,0,0,0,0,0,0,0,-1,1497,897,0,0
280,127,0,0,0,0,0,0,0,0,0,-1,1504,897,0,0
287,127,0,0,0,0,0,0,0,0,0,-1,1511,897,0,0
294,127,0,0,0,0,0,0,0,0,0,-1,1518,897,0,0
301,127,0,0,0,0,0,0,0,0,0,-1,1525,897,0,0
308,127,0,0,0,0,0,0,0,0,0,-1,1532,897,0,0
315,127,0,0,0,0,0,0,0,0,0,-1,1539,897,0,0
322,127,0,0,0,0,0,0,0,0,0,-1,1546,897,0,0
329,127,0,0,0,0,0,0,0,0,0,-1,1553,897,0,0
336,127,0,0,0,0,0,0,0,0,0,-1,1560,897,0,0
343,127,0,0,0,0,0,0,0,0,0,-1,1567,897,0,0
350,127,0,0,0,0,0,0,0,0,0,-1,1574,897,0,0
357,127,0,0,0,0,0,0,0,0,0,-1,1581,897,0,0
364,127,0,0,0,0,0,0,0,0,0,-1,1588,897,0,0
371,127,0,0,0,0,0,0,0,0,0,-1,1595,897,0,0
378,127,0,0,0,0,0,0,0,0,0,-1,1602,897,0,0
385,127,0,0,0,0,0,0,0,0,0,-1,1609,897,0,0
392,127,0,0,0,0,0,0,0,0,0,-1,1616,897,0,0
399,127,0,0,0,0,0,0,0,0,0,-1,1623,897,0,0
406,127,0,0,0,0,0,0,0,0,0,-1,1630,897,0,0
413,127,0,0,0,0,0,0,0,0,0,-1,1637,897,0,0
420,127,0,0,0,0,0,0,0,0,0,-1,1644,897,0,0
427,127,0,0,0,0,0,0,0,0,0,-1,1651,897,0,0
434,127,0,0,0,0,0,0,0,0,0,-1,1658,897,0,0
441,127,0,0,0,0,0,0,0,0,0,-1,1665,897,0,0
448,127,0,0,0,0,0,0,0,0,0,-1,1672,897,0,0
455,127,0,0,0,0,0,0,0,0,0,-1,1679,897,0,0
462,127,0,0,0,0,0,0,0,0,0,-1,1686,897,0,0
469,127,0,0,0,0,0,0,0,0,0,-1,1693,897,0,0
476,127,0,0,0,0,0,0,0,0,0,-1,1700,897,0,0
483,127,0,0,0,0,0,0,0,0,0,-1,1707,897,0,0
490,127,0,0,0,0,0,0,0,0,0,-1,1714,897,0,0
497,127,0,0,0,0,0,0,0,0,0,-1,1721,897,0,0
504,127,0,0,0,0,0,0,0,0,0,-1,1728,897,0,0
511,127,0,0,0,0,0,0,0,0,0,-1,1735,897,0,0
518,127,0,0,0,0,0,0,0,0,0,-1,1742,897,0,0
525,127,0,0,0,0,0,0,0,0,0,-1,1749,897,0,0
532,127,0,0,0,0,0,0,0,0,0,-1,1756,897,0,0
539,127,0,0,0,0,0,0,0,0,0,-1,1763,897,0,0
546,127,0,0,0,0,0,0,0,0,0,-1,1770,897,0,0
553,127,0,0,0,0,0,0,0,0,0,-1,1777,897,0,0
560,127,0,0,0,0,0,0,0,0,0,-1,1784,897,0,0
567,127,0,0,0,0,0,0,0,0,0,-1,1791,897,0,0
574,127,0,0,0,0,0,0,0,0,0,-1,1798,897,0,0
581,127,0,0,0,0,0,0,0,0,0,-1,1805,897,0,0
588,127,0,0,0,0,0,0,0,0,0,-1,1812,897,0,0
595,127,0,0,0,0,0,0,0,0,0,-1,1819,897,0,0
602,127,0,0,0,0,0,0,0,0,0,-1,1826,897,0,0
609,127,0,0,0,0,0,0,0,0,0,-1,1833,897,0,0
616,127,0,0,0,0,0,0,0,0,0,-1,1840,897,0,0
623,127,0,0,0,0,0,0,0,0,0,-1,1847,897,0,0
630,127,4.81409,0.942383,0.00390234,-0.000285291,-0.00170368,0.00450789,-0.000890844,-0.341511,0.00334202,0.0432644,1854,897,4.81406,-0.942412
637,127,4.97681,0.753906,0.00357948,0.000203173,-0.00120255,0.00396401,-0.00018135,-0.309482,0.00270515,0.0417919,1861,897,4.97675,-0.753894
644,127,5.02258,0.738281,0.00270543,0.000410029,-0.00101416,0.00308931,2.61489e-05,-0.361853,0.00205088,0.041033,1868,897,5.0226,-0.73829
651,127,4.8855,0.675415,0.00150732,0.000450321,-0.00103546,0.00214135,-0.000183712,-0.549431,0.00149258,0.0405117,1875,897,4.88554,-0.675401
658,127,4.87756,0.518738,0.000236544,0.000394053,-0.00113449,0.00145252,-0.000821925,-0.820052,0.00132987,0.040377,1882,897,4.87759,-0.518759
665,127,4.96619,0.597473,-0.000891028,0.000301766,-0.00123135,0.00107355,-0.00166281,-1.01092,0.001592,0.0364397,1889,897,4.96619,-0.597445
672,127,4.90369,0.639893,-0.00183787,0.000143607,-0.00119962,0.000708715,-0.00240297,-1.13056,0.00188321,0.0294024,1896,897,4.90368,-0.63989
679,127,4.91272,0.630432,-0.00259157,8.00237e-05,-0.00124283,0.000568776,-0.00308032,-1.19612,0.00226705,0.0220367,1903,897,4.91268,-0.630446
686,127,4.96326,0.65387,-0.00317219,-1.28321e-05,-0.00127719,0.000438892,-0.00362391,-1.23084,0.00257474,0.0212345,1910,897,4.96326,-0.653845
693,127,4.76855,0.650818,-0.00343708,-0.000145724,-0.00129688,0.000303869,-0.00388667,-1.23709,0.00269812,0.0211389,1917,897,4.76851,-0.650827
700,127,4.59595,0.633728,-0.0034504,-0.000216689,-0.00118624,0.000171796,-0.00383889,-1.25431,0.0026184,0.0172584,1924,897,4.59593,-0.633723
707,127,4.59009,0.640625,-0.00324857,-0.000231404,-0.000961199,4.87904e-05,-0.00352877,-1.28715,0.00236894,0.0174961,1931,897,4.59007,-0.640639
714,127,4.61023,0.684631,-0.00272688,-0.000205315,-0.000728275,-1.00902e-05,-0.00292211,-1.30889,0.00194472,0.0148712,1938,897,4.61027,-0.684633
721,127,4.65613,0.705261,-0.00196305,-2.13188e-05,-0.000554071,0.000125659,-0.00211003,-1.3115,0.00145039,0.0121796,1945,897,4.65607,-0.705278
728,127,4.63708,0.738647,-0.000900723,-2.63088e-06,-0.00032747,0.000104092,-0.00100745,-1.25575,0.00070888,0.0131321,1952,897,4.63712,-0.738629
735,127,4.61755,0.778381,0.00015325,-0.000349703,-0.000159673,0.000199659,-0.000396113,-0.282858,0.000350147,0.0201396,1959,897,4.61758,-0.778393
742,127,4.63037,0.819763,0.000948997,-0.000618282,0.00028405,0.000998889,-0.000668174,0.173873,0.000968772,0.0177474,1966,897,4.63035,-0.819793
749,127,4.63538,0.838379,0.00166466,-0.0009333,0.000934451,0.00196585,-0.00123449,0.311805,0.00186373,0.0132825,1973,897,4.63538,-0.838379
756,127,4.61121,0.822021,0.00224355,-0.00148918,0.00145467,0.00274349,-0.00198911,0.331031,0.00274392,0.0155719,1980,897,4.61123,-0.82205
763,127,4.60352,0.786743,0.00262182,-0.00233838,0.00217523,0.00344059,-0.00315715,0.360002,0.00381038,0.023419,1987,897,4.60347,-0.786725
770,127,4.61938,0.764893,0.0027821,-0.00350837,0.00315613,0.00409261,-0.00481888,0.393564,0.00515074,0.0398634,1994,897,4.61943,-0.764908
777,127,4.60352,0.70813,0.00268052,-0.00504646,0.00447681,0.00473044,-0.00709637,0.429401,0.00687361,0.0498904,2001,897,4.60349,-0.708117
784,127,4.64441,0.383301,0.00216411,-0.00698841,0.00618076,0.00527836,-0.0101027,0.466733,0.00902467,0.047345,2008,897,4.64444,-0.383318
791,127,4.51587,0.606567,0.00122858,-0.00927936,0.00830733,0.00580395,-0.0138547,0.503429,0.0116629,0.0431942,2015,897,4.51583,-0.606556
798,127,0,0,0,0,0,0,0,0,0,-1,2022,897,0,0
805,127,0,0,0,0,0,0,0,0,0,-1,2029,897,0,0
812,127,0,0,0,0,0,0,0,0,0,-1,2036,897,0,0
-700,120,0,0,0,0,0,0,0,0,0,-1,524,904,0,0
-693,120,0,0,0,0,0,0,0,0,0,-1,531,904,0,0
-686,120,0,0,0,0,0,0,0,0,0,-1,538,904,0,0
-679,120,-2.59418,-3.45441,0,0,0,0,0,0,0,-1,545,904,-2.59416,3.4544
-672,120,-2.5943,-3.11823,0,0,0,0,0,0,0,-1,552,904,-2.59427,3.11824
-665,120,-1.53467,-1.8866,0.0394424,-0.000716898,0.0523498,0.0754314,-0.0367059,0.602268,0.0660168,0.0464331,559,904,-1.53465,1.88658
-658,120,-0.0133057,1.05627,0.0271021,-0.00226727,0.043301,0.0581406,-0.0333059,0.621919,0.0534417,0.0447228,566,904,-0.0133271,-1.05624
-651,120,-0.227478,0.868469,0.0176929,-0.00321029,0.0350362,0.0438032,-0.0293205,0.640446,0.0424931,0.047073,573,904,-0.227463,-0.868441
-644,120,-0.464661,0.690552,0.0107539,-0.00364103,0.0277173,0.032193,-0.0250801,0.658367,0.0331515,0.0422771,580,904,-0.464659,-0.690575
-637,120,-0.736267,0.750061,0.0058519,-0.00365841,0.0214189,0.0230372,-0.0208437,0.676166,0.0253452,0.0379532,587,904,-0.736267,-0.750031
-630,120,-0.828979,0.779297,0.00261374,-0.0033761,0.0161464,0.0160406,-0.016803,0.693697,0.0189639,0.0211259,594,904,-0.82897,-0.779283
-623,120,-0.821838,0.765625,0.000390424,-0.00287689,0.0117016,0.0105718,-0.0130583,0.716041,0.013668,0.0103053,601,904,-0.821845,-0.765601
-616,120,-0.807373,0.754211,-0.00153968,-0.00263591,0.00831009,0.00624035,-0.0104159,0.752467,0.00971672,0.00954262,608,904,-0.807389,-0.754191
-609,120,-0.822388,0.742432,-0.00308237,-0.00191364,0.00552167,0.00305451,-0.00805051,0.838117,0.00662423,0.0122356,615,904,-0.822392,-0.742414
-602,120,-0.845703,0.743835,-0.00365663,-0.002069,0.00343159,0.000659395,-0.00638502,0.899062,0.00449263,0.0124843,622,904,-0.845677,-0.743836
-595,120,-0.823914,0.695801,-0.00355862,-0.00150673,0.00288526,0.000529558,-0.00559492,0.956217,0.00391841,0.0152849,629,904,-0.823944,-0.695783
-588,120,-0.866577,0.630127,-0.00354563,-0.000952829,0.00230889,0.000398721,-0.00489718,1.04121,0.00340548,0.0195509,636,904,-0.866606,-0.630122
-581,120,-0.906616,0.633667,-0.00378782,-0.00066881,0.00172317,9.57693e-05,-0.0045524,1.15319,0.00306736,0.0228736,643,904,-0.906622,-0.633676
-574,120,-0.847046,0.636902,-0.00418532,-0.000706668,0.00163537,-5.85897e-05,-0.0048334,1.19349,0.00320292,0.0201576,650,904,-0.847053,-0.636907
-567,120,-0.851379,0.627808,-0.00459201,-0.000796397,0.00153413,-0.000253872,-0.00513453,1.23088,0.00334161,0.033257,657,904,-0.851363,-0.627793
-560,120,-1.03149,0.776855,-0.00459755,-0.000641828,0.0012515,-0.000279136,-0.00496025,1.28872,0.00321782,0.0416408,664,904,-1.03148,-0.776849
-553,120,-1.2146,0.857849,-0.00419291,-0.000429165,0.000794838,-0.000268194,-0.00435388,1.37098,0.00281745,0.0372361,671,904,-1.2146,-0.857833
-546,120,-1.11761,0.801819,-0.00356397,-0.000106849,0.000210412,-9.40901e-05,-0.00357673,1.51023,0.00235375,0.0303097,678,904,-1.11762,-0.801795
-539,120,-1.11926,0.768066,-0.00240025,0.000406919,-0.000754598,0.000596905,-0.00259024,-1.32415,0.00195639,0.0236245,685,904,-1.11927,-0.768087
-532,120,-1.20013,0.737366,-0.000595536,0.001143,-0.00209831,0.00254497,-0.00199751,-0.981773,0.00262894,0.025592,692,904,-1.20012,-0.73734
-525,120,-1.30768,0.734131,0.00203076,0.00214416,-0.0038658,0.00595368,-0.00177876,-0.792731,0.0046762,0.0333786,699,904,-1.30768,-0.734102
-518,120,-1.26196,0.721069,0.00558171,0.00344621,-0.00606826,0.0106754,-0.00164752,-0.698311,0.00772492,0.0393181,706,904,-1.26198,-0.721066
-511,120,-1.24158,0.839294,0.00968623,0.00508,-0.00856306,0.0162505,-0.00148426,-0.654027,0.0113608,0.0422175,713,904,-1.24159,-0.839266
-504,120,0,0,0,0,0,0,0,0,0,-1,720,904,0,0
-497,120,0,0,0,0,0,0,0,0,0,-1,727,904,0,0
-490,120,0,0,0,0,0,0,0,0,0,-1,734,904,0,0
-483,120,0,0,0,0,0,0,0,0,0,-1,741,904,0,0
-476,120,0,0,0,0,0,0,0,0,0,-1,748,904,0,0
-469,120,0,0,0,0,0,0,0,0,0,-1,755,904,0,0
-462,120,0,0,0,0,0,0,0,0,0,-1,762,904,0,0
-455,120,0,0,0,0,0,0,0,0,0,-1,769,904,0,0
-448,120,0,0,0,0,0,0,0,0,0,-1,776,904,0,0
-441,120,0,0,0,0,0,0,0,0,0,-1,783,904,0,0
-434,120,0,0,0,0,0,0,0,0,0,-1,790,904,0,0
-427,120,0,0,0,0,0,0,0,0,0,-1,797,904,0,0
-420,120,0,0,0,0,0,0,0,0,0,-1,804,904,0,0
-413,120,0,0,0,0,0,0,0,0,0,-1,811,904,0,0
-406,120,0,0,0,0,0,0,0,0,0,-1,818,904,0,0
-399,120,0,0,0,0,0,0,0,0,0,-1,825,904,0,0
-392,120,0,0,0,0,0,0,0,0,0,-1,832,904,0,0
-385,120,0,0,0,0,0,0,0,0,0,-1,839,904,0,0
-378,120,0,0,0,0,0,0,0,0,0,-1,846,904,0,0
-371,120,0,0,0,0,0,0,0,0,0,-1,853,904,0,0
-364,120,0,0,0,0,0,0,0,0,0,-1,860,904,0,0
-357,120,0,0,0,0,0,0,0,0,0,-1,867,904,0,0
-350,120,0,0,0,0,0,0,0,0,0,-1,874,904,0,0
-343,120,0,0,0,0,0,0,0,0,0,-1,881,904,0,0
-336,120,0,0,0,0,0,0,0,0,0,-1,888,904,0,0
-329,120,0,0,0,0,0,0,0,0,0,-1,895,904,0,0
-322,120,0,0,0,0,0,0,0,0,0,-1,902,904,0,0
-315,120,0,0,0,0,0,0,0,0,0,-1,909,904,0,0
-308,120,0,0,0,0,0,0,0,0,0,-1,916,904,0,0
-301,120,0,0,0,0,0,0,0,0,0,-1,923,904,0,0
-294,120,0,0,0,0,0,0,0,0,0,-1,930,904,0,0
-287,120,0,0,0,0,0,0,0,0,0,-1,937,904,0,0
-280,120,0,0,0,0,0,0,0,0,0,-1,944,904,0,0
-273,120,0,0,0,0,0,0,0,0,0,-1,951,904,0,0
-266,120,0,0,0,0,0,0,0,0,0,-1,958,904,0,0
-259,120,0,0,0,0,0,0,0,0,0,-1,965,904,0,0
-252,120,0,0,0,0,0,0,0,0,0,-1,972,904,0,0
-245,120,0,0,0,0,0,0,0,0,0,-1,979,904,0,0
-238,120,0,0,0,0,0,0,0,0,0,-1,986,904,0,0
-231,120,0,0,0,0,0,0,0,0,0,-1,993,904,0,0
-224,120,0,0,0,0,0,0,0,0,0,-1,1000,904,0,0
-217,120,0,0,0,0,0,0,0,0,0,-1,1007,904,0,0
-210,120,0,0,0,0,0,0,0,0,0,-1,1014,904,0,0
-203,120,0,0,0,0,0,0,0,0,0,-1,1021,904,0,0
-196,120,0,0,0,0,0,0,0,0,0,-1,1028,904,0,0
-189,120,0,0,0,0,0,0,0,0,0,-1,1035,904,0,0
-182,120,0,0,0,0,0,0,0,0,0,-1,1042,904,0,0
-175,120,0,0,0,0,0,0,0,0,0,-1,1049,904,0,0
-168,120,0,0,0,0,0,0,0,0,0,-1,1056,904,0,0
-161,120,0,0,0,0,0,0,0,0,0,-1,1063,904,0,0
-154,120,0,0,0,0,0,0,0,0,0,-1,1070,904,0,0
-147,120,0,0,0,0,0,0,0,0,0,-1,1077,904,0,0
-140,120,0,0,0,0,0,0,0,0,0,-1,1084,904,0,0
-133,120,0,0,0,0,0,0,0,0,0,-1,1091,904,0,0
-126,120,0,0,0,0,0,0,0,0,0,-1,1098,904,0,0
-119,120,0,0,0,0,0,0,0,0,0,-1,1105,904,0,0
-112,120,0,0,0,0,0,0,0,0,0,-1,1112,904,0,0
-105,120,0,0,0,0,0,0,0,0,0,-1,1119,904,0,0
-98,120,0,0,0,0,0,0,0,0,0,-1,1126,904,0,0
-91,120,0,0,0,0,0,0,0,0,0,-1,1133,904,0,0
-84,120,0,0,0,0,0,0,0,0,0,-1,1140,904,0,0
-77,120,0,0,0,0,0,0,0,0,0,-1,1147,904,0,0
-70,120,0,0,0,0,0,0,0,0,0,-1,1154,904,0,0
-63,120,0,0,0,0,0,0,0,0,0,-1,1161,904,0,0
-56,120,0,0,0,0,0,0,0,0,0,-1,1168,904,0,0
-49,120,0,0,0,0,0,0,0,0,0,-1,1175,904,0,0
-42,120,0,0,0,0,0,0,0,0,0,-1,1182,904,0,0
-35,120,0,0,0,0,0,0,0,0,0,-1,1189,904,0,0
-28,120,0,0,0,0,0,0,0,0,0,-1,1196,904,0,0
-21,120,0,0,0,0,0,0,0,0,0,-1,1203,904,0,0
-14,120,0,0,0,0,0,0,0,0,0,-1,1210,904,0,0
-7,120,0,0,0,0,0,0,0,0,0,-1,1217,904,0,0
0,120,0,0,0,0,0,0,0,0,0,-1,1224,904,0,0
7,120,0,0,0,0,0,0,0,0,0,-1,1231,904,0,0
14,120,0,0,0,0,0,0,0,0,0,-1,1238,904,0,0
21,120,0,0,0,0,0,0,0,0,0,-1,1245,904,0,0
28,120,0,0,0,0,0,0,0,0,0,-1,1252,904,0,0
35,120,0,0,0,0,0,0,0,0,0,-1,1259,904,0,0
42,120,0,0,0,0,0,0,0,0,0,-1,1266,904,0,0
49,120,0,0,0,0,0,0,0,0,0,-1,1273,904,0,0
56,120,0,0,0,0,0,0,0,0,0,-1,1280,904,0,0
63,120,0,0,0,0,0,0,0,0,0,-1,1287,904,0,0
70,120,0,0,0,0,0,0,0,0,0,-1,1294,904,0,0
77,120,0,0,0,0,0,0,0,0,0,-1,1301,904,0,0
84,120,0,0,0,0,0,0,0,0,0,-1,1308,904,0,0
91,120,0,0,0,0,0,0,0,0,0,-1,1315,904,0,0
98,120,0,0,0,0,0,0,0,0,0,-1,1322,904,0,0
105,120,0,0,0,0,0,0,0,0,0,-1,1329,904,0,0
112,120,0,0,0,0,0,0,0,0,0,-1,1336,904,0,0
119,120,0,0,0,0,0,0,0,0,0,-1,1343,904,0,0
126,120,0,0,0,0,0,0,0,0,0,-1,1350,904,0,0
133,120,0,0,0,0,0,0,0,0,0,-1,1357,904,0,0
140,120,0,0,0,0,0,0,0,0,0,-1,1364,904,0,0
147,120,0,0,0,0,0,0,0,0,0,-1,1371,904,0,0
154,120,0,0,0,0,0,0,0,0,0,-1,1378,904,0,0
161,120,0,0,0,0,0,0,0,0,0,-1,1385,904,0,0
168,120,0,0,0,0,0,0,0,0,0,-1,1392,904,0,0
175,120,0,0,0,0,0,0,0,0,0,-1,1399,904,0,0
182,120,0,0,0,0,0,0,0,0,0,-1,1406,904,0,0
189,120,0,0,0,0,0,0,0,0,0,-1,1413,904,0,0
196,120,0,0,0,0,0,0,0,0,0,-1,1420,904,0,0
203,120,0,0,0,0,0,0,0,0,0,-1,1427,904,0,0
210,120,0,0,0,0,0,0,0,0,0,-1,1434,904,0,0
217,120,0,0,0,0,0,0,0,0,0,-1,1441,904,0,0
224,120,0,0,0,0,0,0,0,0,0,-1,1448,904,0,0
231,120,0,0,0,0,0,0,0,0,0,-1,1455,904,0,0
238,120,0,0,0,0,0,0,0,0,0,-1,1462,904,0,0
245,120,0,0,0,0,0,0,0,0,0,-1,1469,904,0,0
252,120,0,0,0,0,0,0,0,0,0,-1,1476,904,0,0
259,120,0,0,0,0,0,0,0,0,0,-1,1483,904,0,0
266,120,0,0,0,0,0,0,0,0,0,-1,1490,904,0,0
273,120,0,0,0,0,0,0,0,0,0,-1,1497,904,0,0
280,120,0,0,0,0,0,0,0,0,0,-1,1504,904,0,0
287,120,0,0,0,0,0,0,0,0,0,-1,1511,904,0,0
294,120,0,0,0,0,0,0,0,0,0,-1,1518,904,0,0
301,120,0,0,0,0,0,0,0,0,0,-1,1525,904,0,0
308,120,0,0,0,0,0,0,0,0,0,-1,1532,904,0,0
315,120,0,0,0,0,0,0,0,0,0,-1,1539,904,0,0
322,120,0,0,0,0,0,0,0,0,0,-1,1546,904,0,0
329,120,0,0,0,0,0,0,0,0,0,-1,1553,904,0,0
336,120,0,0,0,0,0,0,0,0,0,-1,1560,904,0,0
343,120,0,0,0,0,0,0,0,0,0,-1,1567,904,0,0
350,120,0,0,0,0,0,0,0,0,0,-1,1574,904,0,0
357,120,0,0,0,0,0,0,0,0,0,-1,1581,904,0,0
364,120,0,0,0,0,0,0,0,0,0,-1,1588,904,0,0
371,120,0,0,0,0,0,0,0,0,0,-1,1595,904,0,0
378,120,0,0,0,0,0,0,0,0,0,-1,1602,904,0,0
385,120,0,0,0,0,0,0,0,0,0,-1,1609,904,0,0
392,120,0,0,0,0,0,0,0,0,0,-1,1616,904,0,0
399,120,0,0,0,0,0,0,0,0,0,-1,1623,904,0,0
406,120,0,0,0,0,0,0,0,0,0,-1,1630,904,0,0
413,120,0,0,0,0,0,0,0,0,0,-1,1637,904,0,0
420,120,0,0,0,0,0,0,0,0,0,-1,1644,904,0,0
427,120,0,0,0,0,0,0,0,0,0,-1,1651,904,0,0
434,120,0,0,0,0,0,0,0,0,0,-1,1658,904,0,0
441,120,0,0,0,0,0,0,0,0,0,-1,1665,904,0,0
448,120,0,0,0,0,0,0,0,0,0,-1,1672,904,0,0
455,120,0,0,0,0,0,0,0,0,0,-1,1679,904,0,0
462,120,0,0,0,0,0,0,0,0,0,-1,1686,904,0,0
469,120,0,0,0,0,0,0,0,0,0,-1,1693,904,0,0
476,120,0,0,0,0,0,0,0,0,0,-1,1700,904,0,0
483,120,0,0,0,0,0,0,0,0,0,-1,1707,904,0,0
490,120,0,0,0,0,0,0,0,0,0,-1,1714,904,0,0
497,120,0,0,0,0,0,0,0,0,0,-1,1721,904,0,0
504,120,0,0,0,0,0,0,0,0,0,-1,1728,904,0,0
511,120,0,0,0,0,0,0,0,0,0,-1,1735,904,0,0
518,120,0,0,0,0,0,0,0,0,0,-1,1742,904,0,0
525,120,0,0,0,0,0,0,0,0,0,-1,1749,904,0,0
532,120,0,0,0,0,0,0,0,0,0,-1,1756,904,0,0
539,120,0,0,0,0,0,0,0,0,0,-1,1763,904,0,0
546,120,0,0,0,0,0,0,0,0,0,-1,1770,904,0,0
553,120,0,0,0,0,0,0,0,0,0,-1,1777,904,0,0
560,120,0,0,0,0,0,0,0,0,0,-1,1784,904,0,0
567,120,0,0,0,0,0,0,0,0,0,-1,1791,904,0,0
574,120,0,0,0,0,0,0,0,0,0,-1,1798,904,0,0
581,120,0,0,0,0,0,0,0,0,0,-1,1805,904,0,0
588,120,0,0,0,0,0,0,0,0,0,-1,1812,904,0,0
595,120,0,0,0,0,0,0,0,0,0,-1,1819,904,0,0
602,120,0,0,0,0,0,0,0,0,0,-1,1826,904,0,0
609,120,0,0,0,0,0,0,0,0,0,-1,1833,904,0,0
616,120,0,0,0,0,0,0,0,0,0,-1,1840,904,0,0
623,120,0,0,0,0,0,0,0,0,0,-1,1847,904,0,0
630,120,4.78284,0.921753,0.00444611,0.000704899,-0.00189866,0.00524085,-8.98398e-05,-0.39642,0.00352423,0.0389972,1854,904,4.78281,-0.921761
637,120,4.83411,0.832092,0.00399556,0.000992066,-0.00138618,0.00453752,0.000450103,-0.372702,0.0028867,0.0403007,1861,904,4.83411,-0.832073
644,120,4.89001,0.75293,0.00307938,0.00107503,-0.00112371,0.00358288,0.000571528,-0.421252,0.00222271,0.0408194,1868,904,4.88997,-0.752905
651,120,4.80139,0.673096,0.00185373,0.00103439,-0.00106258,0.00258287,0.000305244,-0.601406,0.00162972,0.0415044,1875,904,4.80143,-0.673089
658,120,4.82947,0.604858,0.000538555,0.000916592,-0.00108425,0.00182818,-0.00037303,-0.871696,0.00136029,0.0403864,1882,904,4.82946,-0.604837
665,120,4.87683,0.632141,-0.000662377,0.000751997,-0.00111653,0.00136646,-0.00127684,-1.0677,0.0015264,0.0378291,1889,904,4.87686,-0.632111
672,120,4.8136,0.707153,-0.00165362,0.000551316,-0.00105837,0.000977109,-0.00207941,-1.1883,0.00180253,0.0358232,1896,904,4.81355,-0.707178
679,120,4.86768,0.658142,-0.0024454,0.000441841,-0.00106831,0.00079414,-0.0027977,-1.25225,0.00217864,0.0299427,1903,904,4.86772,-0.658141
686,120,4.92175,0.674683,-0.00306829,0.000307356,-0.00107517,0.000620717,-0.00338165,-1.2872,0.00248729,0.0163589,1910,904,4.92172,-0.67469
693,120,4.84558,0.661377,-0.00336976,0.000134334,-0.00108342,0.000442253,-0.00367768,-1.29389,0.00261171,0.0227805,1917,904,4.84562,-0.661382
700,120,4.69312,0.638184,-0.00343381,1.51027e-05,-0.000992426,0.000280284,-0.00369899,-1.30969,0.00256453,0.0155153,1924,904,4.6931,-0.638206
707,120,4.63293,0.656433,-0.00329216,-5.75581e-05,-0.000807173,0.000132678,-0.0034824,-1.33934,0.00236706,0.016672,1931,904,4.63293,-0.656437
714,120,4.64832,0.710999,-0.00281764,-8.62784e-05,-0.000624399,4.96926e-05,-0.00295361,-1.35638,0.00198585,0.0151571,1938,904,4.64835,-0.711024
721,120,4.66455,0.729736,-0.00213181,2.60412e-05,-0.000496601,0.000134842,-0.00224061,-1.35511,0.00154065,0.0129152,1945,904,4.66451,-0.729759
728,120,4.6626,0.746948,-0.00116841,1.08277e-05,-0.000323932,9.39514e-05,-0.00125153,-1.31961,0.000867368,0.00992191,1952,904,4.66263,-0.746961
735,120,4.65527,0.786438,-0.000187584,-0.00031158,-0.000187333,-5.22561e-05,-0.000446908,-0.625596,0.000282137,0.0123319,1959,904,4.65526,-0.786419
742,120,4.66931,0.81897,0.000478125,-0.000563644,0.000253061,0.000536344,-0.000621863,0.226123,0.000669298,0.0129174,1966,904,4.66927,-0.81894
749,120,4.66272,0.823303,0.000974438,-0.000768674,0.000907828,0.00136136,-0.00115559,0.40289,0.00145478,0.011084,1973,904,4.66278,-0.823331
756,120,4.64197,0.801758,0.00128494,-0.00112238,0.0013578,0.00189578,-0.00173322,0.42275,0.00209591,0.0131029,1980,904,4.64192,-0.80177
763,120,4.6123,0.78479,0.00134096,-0.0017015,0.00202296,0.00235084,-0.00271137,0.463014,0.00292514,0.0216967,1987,904,4.61226,-0.784764
770,120,4.62683,0.787292,0.00102023,-0.00247604,0.00290425,0.00266189,-0.00411769,0.514482,0.00394415,0.040489,1994,904,4.62686,-0.787311
777,120,4.57996,0.872742,0.000286496,-0.00345509,0.00407178,0.0028967,-0.00606529,0.570055,0.0052809,0.0474222,2001,904,4.58,-0.872714
784,120,4.47375,0.958313,-0.0010227,-0.00462791,0.00555068,0.00301074,-0.00866135,0.628394,0.00699716,0.0456714,2008,904,4.47381,-0.95834
791,120,4.42676,0.854919,-0.00297639,-0.00590647,0.00734061,0.00304395,-0.0119268,0.686902,0.00913647,0.0434215,2015,904,4.42677,-0.854941
798,120,4.34949,0.894287,-0.00586793,-0.00713524,0.00949339,0.00301293,-0.0160161,0.752074,0.0118105,0.0439958,2022,904,4.34954,-0.894298
805,120,0,0,0,0,0,0,0,0,0,-1,2029,904,0,0
812,120,0,0,0,0,0,0,0,0,0,-1,2036,904,0,0
-700,113,0,0,0,0,0,0,0,0,0,-1,524,911,0,0
-693,113,0,0,0,0,0,0,0,0,0,-1,531,911,0,0
-686,113,0,0,0,0,0,0,0,0,0,-1,538,911,0,0
-679,113,-2.04303,-3.07983,0,0,0,0,0,0,0,-1,545,911,-2.043,3.07985
-672,113,-1.48694,-2.25427,0.0477879,0.00300215,0.0595567,0.0890224,-0.0382324,0.605578,0.075396,0.0457825,552,911,-1.48694,2.25428
-665,113,-1.04822,-1.49438,0.0341695,0.000924095,0.0499174,0.0701592,-0.0350655,0.624671,0.0618675,0.0486146,559,911,-1.04821,1.49441
-658,113,-0.629883,-0.807556,0.02347,-0.000632918,0.0408964,0.0540536,-0.0312165,0.642112,0.0498158,0.0453418,566,911,-0.629899,0.807556
-651,113,-0.476074,0.629456,0.0152794,-0.00170848,0.0327709,0.0406392,-0.0270683,0.658593,0.0393518,0.0432524,573,911,-0.476047,-0.629444
-644,113,-0.623474,0.715271,0.00922413,-0.00234537,0.0256597,0.0297431,-0.0228643,0.674531,0.0304593,0.0402863,580,911,-0.623489,-0.715263
-637,113,-0.879272,0.735352,0.00494622,-0.00260213,0.0196115,0.0211434,-0.0187994,0.690337,0.0230742,0.0323472,587,911,-0.879242,-0.735381
-630,113,-0.856445,0.765076,0.00212404,-0.00256833,0.0146176,0.0145825,-0.0150268,0.705825,0.0170956,0.0147542,594,911,-0.856424,-0.76507
-623,113,-0.841736,0.776367,0.000120808,-0.00232584,0.0104335,0.00940242,-0.0116074,0.72704,0.0121523,0.00991825,601,911,-0.841762,-0.776362
-616,113,-0.839539,0.750793,-0.00161846,-0.0022902,0.00732948,0.00538285,-0.0092915,0.762502,0.00857184,0.00874485,608,911,-0.839513,-0.750764
-609,113,-0.849243,0.745911,-0.00312273,-0.00176669,0.00477059,0.00237381,-0.00726324,0.855988,0.00579775,0.0101049,615,911,-0.849216,-0.745901
-602,113,-0.873901,0.753357,-0.00362114,-0.00195737,0.0028429,0.000172856,-0.00575137,0.927734,0.00389315,0.0138517,622,911,-0.873895,-0.753355
-595,113,-0.885437,0.732727,-0.0034193,-0.0015474,0.00249758,0.00018384,-0.00515054,0.964671,0.00349658,0.0168166,629,911,-0.885412,-0.732722
-588,113,-0.883545,0.689514,-0.00338933,-0.00101562,0.0020653,0.000179562,-0.00458451,1.04619,0.00311792,0.0172593,636,911,-0.883553,-0.689524
-581,113,-0.877014,0.676147,-0.00360574,-0.000777965,0.00156351,-8.38558e-05,-0.00429984,1.15299,0.00283902,0.018534,643,911,-0.877011,-0.676168
-574,113,-0.83844,0.651794,-0.00393237,-0.000808014,0.00145387,-0.000236151,-0.00450424,1.19605,0.00292728,0.0163744,650,911,-0.838442,-0.651815
-567,113,-0.957764,0.633606,-0.00426406,-0.000857972,0.00134045,-0.000393722,-0.00472831,1.23739,0.0030295,0.028807,657,911,-0.957758,-0.633612
-560,113,-1.19696,0.688293,-0.00419725,-0.000703142,0.001062,-0.000405683,-0.00449471,1.2977,0.00287081,0.0418999,664,911,-1.19697,-0.688299
-553,113,-1.2149,0.824097,-0.00377183,-0.000528544,0.000595131,-0.000422788,-0.00387758,1.39493,0.00245628,0.0384241,671,911,-1.21492,-0.824091
-546,113,-1.14752,0.826843,-0.00313911,-0.0002243,-3.54919e-05,-0.000223868,-0.00313954,-1.55862,0.00202254,0.0346734,678,911,-1.14752,-0.826868
-539,113,-1.13513,0.719849,-0.00204224,0.000257291,-0.00100677,0.000635776,-0.00242072,-1.2112,0.00186227,0.0348235,685,911,-1.13511,-0.719823
-532,113,-1.19348,0.597473,-0.000413647,0.000949649,-0.00234204,0.00270722,-0.00217122,-0.927011,0.00282223,0.0357162,692,911,-1.19351,-0.597461
-525,113,-1.32758,0.581177,0.00189987,0.00188929,-0.00409267,0.00598725,-0.00219809,-0.784752,0.00489168,0.0360576,699,911,-1.32758,-0.581194
-518,113,-1.26483,0.585754,0.00491099,0.00310134,-0.00628053,0.0103515,-0.00233921,-0.713856,0.0077986,0.0418642,706,911,-1.26484,-0.58578
-511,113,-1.14954,0.548096,0.00813126,0.00463954,-0.00879725,0.0153542,-0.00258342,-0.687443,0.0111971,0.0447218,713,911,-1.14956,-0.548083
-504,113,0,0,0,0,0,0,0,0,0,-1,720,911,0,0
-497,113,0,0,0,0,0,0,0,0,0,-1,727,911,0,0
-490,113,0,0,0,0,0,0,0,0,0,-1,734,911,0,0
-483,113,0,0,0,0,0,0,0,0,0,-1,741,911,0,0
-476,113,0,0,0,0,0,0,0,0,0,-1,748,911,0,0
-469,113,0,0,0,0,0,0,0,0,0,-1,755,911,0,0
-462,113,0,0,0,0,0,0,0,0,0,-1,762,911,0,0
-455,113,0,0,0,0,0,0,0,0,0,-1,769,911,0,0
-448,113,0,0,0,0,0,0,0,0,0,-1,776,911,0,0
-441,113,0,0,0,0,0,0,0,0,0,-1,783,911,0,0
-434,113,0,0,0,0,0,0,0,0,0,-1,790,911,0,0
-427,113,0,0,0,0,0,0,0,0,0,-1,797,911,0,0
-420,113,0,0,0,0,0,0,0,0,0,-1,804,911,0,0
-413,113,0,0,0,0,0,0,0,0,0,-1,811,911,0,0
-406,113,0,0,0,0,0,0,0,0,0,-1,818,911,0,0
-399,113,0,0,0,0,0,0,0,0,0,-1,825,911,0,0
-392,113,0,0,0,0,0,0,0,0,0,-1,832,911,0,0
-385,113,0,0,0,0,0,0,0,0,0,-1,839,911,0,0
-378,113,0,0,0,0,0,0,0,0,0,-1,846,911,0,0
-371,113,0,0,0,0,0,0,0,0,0,-1,853,911,0,0
-364,113,0,0,0,0,0,0,0,0,0,-1,860,911,0,0
-357,113,0,0,0,0,0,0,0,0,0,-1,867,911,0,0
-350,113,0,0,0,0,0,0,0,0,0,-1,874,911,0,0
-343,113,0,0,0,0,0,0,0,0,0,-1,881,911,0,0
-336,113,0,0,0,0,0,0,0,0,0,-1,888,911,0,0
-329,113,0,0,0,0,0,0,0,0,0,-1,895,911,0,0
-322,113,0,0,0,0,0,0,0,0,0,-1,902,911,0,0
-315,113,0,0,0,0,0,0,0,0,0,-1,909,911,0,0
-308,113,0,0,0,0,0,0,0,0,0,-1,916,911,0,0
-301,113,0,0,0,0,0,0,0,0,0,-1,923,911,0,0
-294,113,0,0,0,0,0,0,0,0,0,-1,930,911,0,0
-287,113,0,0,0,0,0,0,0,0,0,-1,937,911,0,0
-280,113,0,0,0,0,0,0,0,0,0,-1,944,911,0,0
-273,113,0,0,0,0,0,0,0,0,0,-1,951,911,0,0
-266,113,0,0,0,0,0,0,0,0,0,-1,958,911,0,0
-259,113,0,0,0,0,0,0,0,0,0,-1,965,911,0,0
-252,113,0,0,0,0,0,0,0,0,0,-1,972,911,0,0
-245,113,0,0,0,0,0,0,0,0,0,-1,979,911,0,0
-238,113,0,0,0,0,0,0,0,0,0,-1,986,911,0,0
-231,113,0,0,0,0,0,0,0,0,0,-1,993,911,0,0
-224,113,0,0,0,0,0,0,0,0,0,-1,1000,911,0,0
-217,113,0,0,0,0,0,0,0,0,0,-1,1007,911,0,0
-210,113,0,0,0,0,0,0,0,0,0,-1,1014,911,0,0
-203,113,0,0,0,0,0,0,0,0,0,-1,1021,911,0,0
-196,113,0,0,0,0,0,0,0,0,0,-1,1028,911,0,0
-189,113,0,0,0,0,0,0,0,0,0,-1,1035,911,0,0
-182,113,0,0,0,0,0,0,0,0,0,-1,1042,911,0,0
-175,113,0,0,0,0,0,0,0,0,0,-1,1049,911,0,0
-168,113,0,0,0,0,0,0,0,0,0,-1,1056,911,0,0
-161,113,0,0,0,0,0,0,0,0,0,-1,1063,911,0,0
-154,113,0,0,0,0,0,0,0,0,0,-1,1070,911,0,0
-147,113,0,0,0,0,0,0,0,0,0,-1,1077,911,0,0
-140,113,0,0,0,0,0,0,0,0,0,-1,1084,911,0,0
-133,113,0,0,0,0,0,0,0,0,0,-1,1091,911,0,0
-126,113,0,0,0,0,0,0,0,0,0,-1,1098,911,0,0
-119,113,0,0,0,0,0,0,0,0,0,-1,1105,911,0,0
-112,113,0,0,0,0,0,0,0,0,0,-1,1112,911,0,0
-105,113,0,0,0,0,0,0,0,0,0,-1,1119,911,0,0
-98,113,0,0,0,0,0,0,0,0,0,-1,1126,911,0,0
-91,113,0,0,0,0,0,0,0,0,0,-1,1133,911,0,0
-84,113,0,0,0,0,0,0,0,0,0,-1,1140,911,0,0
-77,113,0,0,0,0,0,0,0,0,0,-1,1147,911,0,0
-70,113,0,0,0,0,0,0,0,0,0,-1,1154,911,0,0
-63,113,0,0,0,0,0,0,0,0,0,-1,1161,911,0,0
-56,113,0,0,0,0,0,0,0,0,0,-1,1168,911,0,0
-49,113,0,0,0,0,0,0,0,0,0,-1,1175,911,0,0
-42,113,0,0,0,0,0,0,0,0,0,-1,1182,911,0,0
-35,113,0,0,0,0,0,0,0,0,0,-1,1189,911,0,0
-28,113,0,0,0,0,0,0,0,0,0,-1,1196,911,0,0
-21,113,0,0,0,0,0,0,0,0,0,-1,1203,911,0,0
-14,113,0,0,0,0,0,0,0,0,0,-1,1210,911,0,0
-7,113,0,0,0,0,0,0,0,0,0,-1,1217,911,0,0
0,113,0,0,0,0,0,0,0,0,0,-1,1224,911,0,0
7,113,0,0,0,0,0,0,0,0,0,-1,1231,911,0,0
14,113,0,0,0,0,0,0,0,0,0,-1,1238,911,0,0
21,113,0,0,0,0,0,0,0,0,0,-1,1245,911,0,0
28,113,0,0,0,0,0,0,0,0,0,-1,1252,911,0,0
35,113,0,0,0,0,0,0,0,0,0,-1,1259,911,0,0
42,113,0,0,0,0,0,0,0,0,0,-1,1266,911,0,0
49,113,0,0,0,0,0,0,0,0,0,-1,1273,911,0,0
56,113,0,0,0,0,0,0,0,0,0,-1,1280,911,0,0
63,113,0,0,0,0,0,0,0,0,0,-1,1287,911,0,0
70,113,0,0,0,0,0,0,0,0,0,-1,1294,911,0,0
77,113,0,0,0,0,0,0,0,0,0,-1,1301,911,0,0
84,113,0,0,0,0,0,0,0,0,0,-1,1308,911,0,0
91,113,0,0,0,0,0,0,0,0,0,-1,1315,911,0,0
98,113,0,0,0,0,0,0,0,0,0,-1,1322,911,0,0
105,113,0,0,0,0,0,0,0,0,0,-1,1329,911,0,0
112,113,0,0,0,0,0,0,0,0,0,-1,1336,911,0,0
119,113,0,0,0,0,0,0,0,0,0,-1,1343,911,0,0
126,113,0,0,0,0,0,0,0,0,0,-1,1350,911,0,0
133,113,0,0,0,0,0,0,0,0,0,-1,1357,911,0,0
140,113,0,0,0,0,0,0,0,0,0,-1,1364,911,0,0
147,113,0,0,0,0,0,0,0,0,0,-1,1371,911,0,0
154,113,0,0,0,0,0,0,0,0,0,-1,1378,911,0,0
161,113,0,0,0,0,0,0,0,0,0,-1,1385,911,0,0
168,113,0,0,0,0,0,0,0,0,0,-1,1392,911,0,0
175,113,0,0,0,0,0,0,0,0,0,-1,1399,911,0,0
182,113,0,0,0,0,0,0,0,0,0,-1,1406,911,0,0
189,113,0,0,0,0,0,0,0,0,0,-1,1413,911,0,0
196,113,0,0,0,0,0,0,0,0,0,-1,1420,911,0,0
203,113,0,0,0,0,0,0,0,0,0,-1,1427,911,0,0
210,113,0,0,0,0,0,0,0,0,0,-1,1434,911,0,0
217,113,0,0,0,0,0,0,0,0,0,-1,1441,911,0,0
224,113,0,0,0,0,0,0,0,0,0,-1,1448,911,0,0
231,113,0,0,0,0,0,0,0,0,0,-1,1455,911,0,0
238,113,0,0,0,0,0,0,0,0,0,-1,1462,911,0,0
245,113,0,0,0,0,0,0,0,0,0,-1,1469,911,0,0
252,113,0,0,0,0,0,0,0,0,0,-1,1476,911,0,0
259,113,0,0,0,0,0,0,0,0,0,-1,1483,911,0,0
266,113,0,0,0,0,0,0,0,0,0,-1,1490,911,0,0
273,113,0,0,0,0,0,0,0,0,0,-1,1497,911,0,0
280,113,0,0,0,0,0,0,0,0,0,-1,1504,911,0,0
287,113,0,0,0,0,0,0,0,0,0,-1,1511,911,0,0
294,113,0,0,0,0,0,0,0,0,0,-1,1518,911,0,0
301,113,0,0,0,0,0,0,0,0,0,-1,1525,911,0,0
308,113,0,0,0,0,0,0,0,0,0,-1,1532,911,0,0
315,113,0,0,0,0,0,0,0,0,0,-1,1539,911,0,0
322,113,0,0,0,0,0,0,0,0,0,-1,1546,911,0,0
329,113,0,0,0,0,0,0,0,0,0,-1,1553,911,0,0
336,113,0,0,0,0,0,0,0,0,0,-1,1560,911,0,0
343,113,0,0,0,0,0,0,0,0,0,-1,1567,911,0,0
350,113,0,0,0,0,0,0,0,0,0,-1,1574,911,0,0
357,113,0,0,0,0,0,0,0,0,0,-1,1581,911,0,0
364,113,0,0,0,0,0,0,0,0,0,-1,1588,911,0,0
371,113,0,0,0,0,0,0,0,0,0,-1,1595,911,0,0
378,113,0,0,0,0,0,0,0,0,0,-1,1602,911,0,0
385,113,0,0,0,0,0,0,0,0,0,-1,1609,911,0,0
392,113,0,0,0,0,0,0,0,0,0,-1,1616,911,0,0
399,113,0,0,0,0,0,0,0,0,0,-1,1623,911,0,0
406,113,0,0,0,0,0,0,0,0,0,-1,1630,911,0,0
413,113,0,0,0,0,0,0,0,0,0,-1,1637,911,0,0
420,113,0,0,0,0,0,0,0,0,0,-1,1644,911,0,0
427,113,0,0,0,0,0,0,0,0,0,-1,1651,911,0,0
434,113,0,0,0,0,0,0,0,0,0,-1,1658,911,0,0
441,113,0,0,0,0,0,0,0,0,0,-1,1665,911,0,0
448,113,0,0,0,0,0,0,0,0,0,-1,1672,911,0,0
455,113,0,0,0,0,0,0,0,0,0,-1,1679,911,0,0
462,113,0,0,0,0,0,0,0,0,0,-1,1686,911,0,0
469,113,0,0,0,0,0,0,0,0,0,-1,1693,911,0,0
476,113,0,0,0,0,0,0,0,0,0,-1,1700,911,0,0
483,113,0,0,0,0,0,0,0,0,0,-1,1707,911,0,0
490,113,0,0,0,0,0,0,0,0,0,-1,1714,911,0,0
497,113,0,0,0,0,0,0,0,0,0,-1,1721,911,0,0
504,113,0,0,0,0,0,0,0,0,0,-1,1728,911,0,0
511,113,0,0,0,0,0,0,0,0,0,-1,1735,911,0,0
518,113,0,0,0,0,0,0,0,0,0,-1,1742,911,0,0
525,113,0,0,0,0,0,0,0,0,0,-1,1749,911,0,0
532,113,0,0,0,0,0,0,0,0,0,-1,1756,911,0,0
539,113,0,0,0,0,0,0,0,0,0,-1,1763,911,0,0
546,113,0,0,0,0,0,0,0,0,0,-1,1770,911,0,0
553,113,0,0,0,0,0,0,0,0,0,-1,1777,911,0,0
560,113,0,0,0,0,0,0,0,0,0,-1,1784,911,0,0
567,113,0,0,0,0,0,0,0,0,0,-1,1791,911,0,0
574,113,0,0,0,0,0,0,0,0,0,-1,1798,911,0,0
581,113,0,0,0,0,0,0,0,0,0,-1,1805,911,0,0
588,113,0,0,0,0,0,0,0,0,0,-1,1812,911,0,0
595,113,0,0,0,0,0,0,0,0,0,-1,1819,911,0,0
602,113,0,0,0,0,0,0,0,0,0,-1,1826,911,0,0
609,113,0,0,0,0,0,0,0,0,0,-1,1833,911,0,0
616,113,0,0,0,0,0,0,0,0,0,-1,1840,911,0,0
623,113,0,0,0,0,0,0,0,0,0,-1,1847,911,0,0
630,113,4.80273,0.752747,0.00414379,0.000864205,-0.00161954,0.00480874,0.000199255,-0.389593,0.00314152,0.0378115,1854,911,4.8027,-0.752773
637,113,4.88708,0.809875,0.00386086,0.00118746,-0.00131671,0.00440045,0.00064786,-0.388933,0.0027433,0.0377083,1861,911,4.88705,-0.809881
644,113,4.99207,0.818665,0.00312243,0.00130069,-0.00112943,0.00366252,0.000760604,-0.446056,0.00223178,0.03904,1868,911,4.99204,-0.818689
651,113,4.93738,0.895508,0.00204018,0.00128373,-0.00108426,0.00281029,0.000513615,-0.617582,0.00172796,0.0416668,1875,911,4.93734,-0.895526
658,113,4.94019,0.655762,0.00080719,0.00117959,-0.0010916,0.00210076,-0.000113978,-0.869874,0.00144,0.0413909,1882,911,4.94016,-0.65579
665,113,4.91638,0.6203,-0.000359318,0.00101724,-0.00109677,0.00162381,-0.000965884,-1.06561,0.00151116,0.0377871,1889,911,4.91643,-0.62029
672,113,4.84485,0.709595,-0.00134199,0.000828443,-0.00103819,0.00124507,-0.00175862,-1.18917,0.00174261,0.0348091,1896,911,4.84488,-0.709574
679,113,4.84399,0.647888,-0.00215813,0.000691981,-0.00101684,0.00101757,-0.00248371,-1.26092,0.0020797,0.0297149,1903,911,4.84399,-0.647908
686,113,4.90881,0.668579,-0.00281639,0.000525738,-0.000990835,0.000797406,-0.00308806,-1.30319,0.00236966,0.0232735,1910,911,4.90878,-0.668595
693,113,4.92041,0.691101,-0.00315691,0.000331886,-0.000968683,0.0005828,-0.00340783,-1.31734,0.002489,0.0238657,1917,911,4.92041,-0.69113
700,113,4.82642,0.65448,-0.00328297,0.000182226,-0.000875757,0.00039098,-0.00349172,-1.33679,0.00246848,0.0222238,1924,911,4.82645,-0.654477
707,113,4.69507,0.673035,-0.00322463,7.2675e-05,-0.000708071,0.000218297,-0.00337025,-1.36796,0.00232302,0.0165386,1931,911,4.69504,-0.67306
714,113,4.67236,0.729309,-0.00282237,6.01988e-06,-0.000551405,0.000109716,-0.00292606,-1.38491,0.00198829,0.015106,1938,911,4.6724,-0.72932
721,113,4.67163,0.766174,-0.0022395,5.7078e-05,-0.000442636,0.000139437,-0.00232186,-1.38684,0.00159642,0.014091,1945,911,4.67158,-0.766168
728,113,4.66919,0.784973,-0.00142308,1.12001e-05,-0.000288005,6.68708e-05,-0.00147875,-1.37985,0.00100886,0.0140281,1952,911,4.66925,-0.784944
735,113,4.67102,0.776489,-0.000565914,-0.00026832,-0.000163457,-0.000196077,-0.000638157,-1.15464,0.000377455,0.0137305,1959,911,4.67102,-0.776513
742,113,4.67383,0.790466,-8.90579e-05,-0.000490538,0.000316216,8.47536e-05,-0.00066435,0.502583,0.000473685,0.0111744,1966,911,4.67384,-0.790444
749,113,4.68408,0.812622,0.000147501,-0.00058472,0.00102127,0.000866296,-0.00130352,0.61329,0.00126119,0.0088198,1973,911,4.68409,-0.81261
756,113,4.69031,0.81311,0.000168787,-0.000756543,0.00148337,0.00125998,-0.00184773,0.634229,0.0018049,0.0109939,1980,911,4.69029,-0.813109
763,113,4.67444,0.828125,-0.000125548,-0.00107838,0.00219624,0.00164536,-0.00284929,0.678591,0.00262583,0.0196702,1987,911,4.67448,-0.828131
770,113,4.65796,0.860596,-0.000946316,-0.00148324,0.00312173,0.00191847,-0.00434803,0.742504,0.0037075,0.0423072,1994,911,4.65798,-0.860624
777,113,4.61047,0.948364,-0.00233449,-0.00194844,0.0043153,0.00217814,-0.00646108,0.807748,0.00518815,0.0493885,2001,911,4.61041,-0.948358
784,113,4.62488,0.990295,-0.00445634,-0.00242288,0.00578529,0.00243435,-0.00931356,0.872382,0.00715979,0.0424591,2008,911,4.6249,-0.99029
791,113,4.68958,0.314575,-0.00742842,-0.00279448,0.00749463,0.00273315,-0.0129561,0.935313,0.00967793,0.0413818,2015,911,4.68963,-0.314587
798,113,4.63342,1.53821,-0.0115795,-0.00286529,0.00943399,0.00316917,-0.0176139,1.00173,0.0129291,0.0415789,2022,911,4.63337,-1.53823
805,113,0,0,0,0,0,0,0,0,0,-1,2029,911,0,0
812,113,0,0,0,0,0,0,0,0,0,-1,2036,911,0,0
-700,106,0,0,0,0,0,0,0,0,0,-1,524,918,0,0
-693,106,0,0,0,0,0,0,0,0,0,-1,531,918,0,0
-686,106,0,0,0,0,0,0,0,0,0,-1,538,918,0,0
-679,106,-1.65619,-2.78296,0,0,0,0,0,0,0,-1,545,918,-1.65618,2.78298
-672,106,-1.12067,-1.9325,0.0419649,0.00696277,0.0555004,0.0826581,-0.0337305,0.632667,0.0691479,0.0484051,552,918,-1.12068,1.93252
-665,106,-1.20905,-1.12842,0.0295203,0.0044515,0.0465159,0.065161,-0.0311892,0.653792,0.0567687,0.0483544,559,918,-1.20902,1.12844
-658,106,-1.35767,-0.161194,0.019924,0.00247154,0.03803,0.0502161,-0.0278205,0.672622,0.0456687,0.0435351,566,918,-1.35767,0.161206
-651,106,-1.45587,0.749573,0,0,0,0,0,0,0,-1,573,918,-1.4559,-0.749553
-644,106,-1.01703,0.510132,0.00744289,-9.61768e-05,0.0236282,0.0276004,-0.0202537,0.706297,0.0277369,0.0410861,580,918,-1.01702,-0.51015
-637,106,-0.93512,0.711365,0.00379222,-0.000772653,0.0179256,0.0195802,-0.0165606,0.722075,0.0208901,0.0268768,587,918,-0.93511,-0.711351
-630,106,-0.878235,0.794067,0.00135168,-0.00122851,0.0133022,0.0134262,-0.0133031,0.737058,0.0154322,0.0112903,594,918,-0.878226,-0.794062
-623,106,-0.856262,0.778015,-0.000396323,-0.00131762,0.00937148,0.00852583,-0.0102398,0.760841,0.0108494,0.00960588,601,918,-0.856249,-0.777999
-616,106,-0.86615,0.742981,-0.00186629,-0.00157085,0.006543,0.0048261,-0.00826325,0.796685,0.00764349,0.00972686,608,918,-0.866151,-0.742981
-609,106,-0.869873,0.740295,-0.00316936,-0.00133249,0.00417096,0.00201996,-0.00652181,0.893768,0.00515485,0.010093,615,918,-0.869899,-0.740297
-602,106,-0.87738,0.73761,-0.00348939,-0.00157514,0.00233167,-1.17945e-05,-0.00505274,0.980156,0.00336457,0.0113492,622,918,-0.877407,-0.737632
-595,106,-0.916748,0.733459,-0.00319216,-0.00138055,0.00214559,4.2601e-05,-0.00461531,0.985135,0.00309117,0.0138808,629,918,-0.916732,-0.733482
-588,106,-0.916565,0.715393,-0.00317814,-0.000950474,0.00187889,0.000119922,-0.00424853,1.05296,0.00287316,0.0141989,636,918,-0.916579,-0.715369
-581,106,-0.889038,0.689758,-0.00341116,-0.000777564,0.00148051,-0.000112984,-0.00407574,1.14887,0.00268029,0.0136214,643,918,-0.889027,-0.689731
-574,106,-0.870911,0.660706,-0.00369888,-0.000798538,0.00135997,-0.000260614,-0.00423681,1.19414,0.0027418,0.0144093,650,918,-0.870884,-0.660732
-567,106,-1.00201,0.699036,-0.0040094,-0.000848341,0.00123229,-0.000424724,-0.00443301,1.23969,0.00282443,0.024388,657,918,-1.00203,-0.699063
-560,106,-1.19867,0.789246,-0.0039481,-0.000692987,0.000975486,-0.000423041,-0.00421805,1.30082,0.00268216,0.0325615,664,918,-1.19864,-0.789216
-553,106,-1.17657,0.89386,-0.00358705,-0.000526473,0.000531862,-0.000436681,-0.00367684,1.40355,0.00231941,0.0354114,671,918,-1.1766,-0.893862
-546,106,-1.1167,0.796875,-0.00304018,-0.000215446,-0.000112304,-0.000210988,-0.00304463,-1.53112,0.00196321,0.0403649,678,918,-1.1167,-0.796854
-539,106,-1.06458,0.719116,-0.0021332,0.000274403,-0.0010575,0.000672927,-0.00253172,-1.2104,0.00195119,0.0434863,685,918,-1.06456,-0.719138
-532,106,-1.20264,0.477295,-0.000815089,0.00098697,-0.00235486,0.0026073,-0.00243542,-0.968118,0.00291197,0.0399468,692,918,-1.20266,-0.477293
-525,106,-1.37518,0.44458,0.00104375,0.00196458,-0.00406341,0.00559357,-0.00258524,-0.841811,0.00482734,0.0379636,699,918,-1.37521,-0.444559
-518,106,-1.31738,0.467834,0.003379,0.00324944,-0.00622833,0.00954289,-0.00291445,-0.780198,0.00752398,0.0412537,706,918,-1.31739,-0.467862
-511,106,0,0,0,0,0,0,0,0,0,-1,713,918,0,0
-504,106,0,0,0,0,0,0,0,0,0,-1,720,918,0,0
-497,106,0,0,0,0,0,0,0,0,0,-1,727,918,0,0
-490,106,0,0,0,0,0,0,0,0,0,-1,734,918,0,0
-483,106,0,0,0,0,0,0,0,0,0,-1,741,918,0,0
-476,106,0,0,0,0,0,0,0,0,0,-1,748,918,0,0
-469,106,0,0,0,0,0,0,0,0,0,-1,755,918,0,0
-462,106,0,0,0,0,0,0,0,0,0,-1,762,918,0,0
-455,106,0,0,0,0,0,0,0,0,0,-1,769,918,0,0
-448,106,0,0,0,0,0,0,0,0,0,-1,776,918,0,0
-441,106,0,0,0,0,0,0,0,0,0,-1,783,918,0,0
-434,106,0,0,0,0,0,0,0,0,0,-1,790,918,0,0
-427,106,0,0,0,0,0,0,0,0,0,-1,797,918,0,0
-420,106,0,0,0,0,0,0,0,0,0,-1,804,918,0,0
-413,106,0,0,0,0,0,0,0,0,0,-1,811,918,0,0
-406,106,0,0,0,0,0,0,0,0,0,-1,818,918,0,0
-399,106,0,0,0,0,0,0,0,0,0,-1,825,918,0,0
-392,106,0,0,0,0,0,0,0,0,0,-1,832,918,0,0
-385,106,0,0,0,0,0,0,0,0,0,-1,839,918,0,0
-378,106,0,0,0,0,0,0,0,0,0,-1,846,918,0,0
-371,106,0,0,0,0,0,0,0,0,0,-1,853,918,0,0
-364,106,0,0,0,0,0,0,0,0,0,-1,860,918,0,0
-357,106,0,0,0,0,0,0,0,0,0,-1,867,918,0,0
-350,106,0,0,0,0,0,0,0,0,0,-1,874,918,0,0
-343,106,0,0,0,0,0,0,0,0,0,-1,881,918,0,0
-336,106,0,0,0,0,0,0,0,0,0,-1,888,918,0,0
-329,106,0,0,0,0,0,0,0,0,0,-1,895,918,0,0
-322,106,0,0,0,0,0,0,0,0,0,-1,902,918,0,0
-315,106,0,0,0,0,0,0,0,0,0,-1,909,918,0,0
-308,106,0,0,0,0,0,0,0,0,0,-1,916,918,0,0
-301,106,0,0,0,0,0,0,0,0,0,-1,923,918,0,0
-294,106,0,0,0,0,0,0,0,0,0,-1,930,918,0,0
-287,106,0,0,0,0,0,0,0,0,0,-1,937,918,0,0
-280,106,0,0,0,0,0,0,0,0,0,-1,944,918,0,0
-273,106,0,0,0,0,0,0,0,0,0,-1,951,918,0,0
-266,106,0,0,0,0,0,0,0,0,0,-1,958,918,0,0
-259,106,0,0,0,0,0,0,0,0,0,-1,965,918,0,0
-252,106,0,0,0,0,0,0,0,0,0,-1,972,918,0,0
-245,106,0,0,0,0,0,0,0,0,0,-1,979,918,0,0
-238,106,0,0,0,0,0,0,0,0,0,-1,986,918,0,0
-231,106,0,0,0,0,0,0,0,0,0,-1,993,918,0,0
-224,106,0,0,0,0,0,0,0,0,0,-1,1000,918,0,0
-217,106,0,0,0,0,0,0,0,0,0,-1,1007,918,0,0
-210,106,0,0,0,0,0,0,0,0,0,-1,1014,918,0,0
-203,106,0,0,0,0,0,0,0,0,0,-1,1021,918,0,0
-196,106,0,0,0,0,0,0,0,0,0,-1,1028,918,0,0
-189,106,0,0,0,0,0,0,0,0,0,-1,1035,918,0,0
-182,106,0,0,0,0,0,0,0,0,0,-1,1042,918,0,0
-175,106,0,0,0,0,0,0,0,0,0,-1,1049,918,0,0
-168,106,0,0,0,0,0,0,0,0,0,-1,1056,918,0,0
-161,106,0,0,0,0,0,0,0,0,0,-1,1063,918,0,0
-154,106,0,0,0,0,0,0,0,0,0,-1,1070,918,0,0
-147,106,0,0,0,0,0,0,0,0,0,-1,1077,918,0,0
-140,106,0,0,0,0,0,0,0,0,0,-1,1084,918,0,0
-133,106,0,0,0,0,0,0,0,0,0,-1,1091,918,0,0
-126,106,0,0,0,0,0,0,0,0,0,-1,1098,918,0,0
-119,106,0,0,0,0,0,0,0,0,0,-1,1105,918,0,0
-112,106,0,0,0,0,0,0,0,0,0,-1,1112,918,0,0
-105,106,0,0,0,0,0,0,0,0,0,-1,1119,918,0,0
-98,106,0,0,0,0,0,0,0,0,0,-1,1126,918,0,0
-91,106,0,0,0,0,0,0,0,0,0,-1,1133,918,0,0
-84,106,0,0,0,0,0,0,0,0,0,-1,1140,918,0,0
-77,106,0,0,0,0,0,0,0,0,0,-1,1147,918,0,0
-70,106,0,0,0,0,0,0,0,0,0,-1,1154,918,0,0
-63,106,0,0,0,0,0,0,0,0,0,-1,1161,918,0,0
-56,106,0,0,0,0,0,0,0,0,0,-1,1168,918,0,0
-49,106,0,0,0,0,0,0,0,0,0,-1,1175,918,0,0
-42,106,0,0,0,0,0,0,0,0,0,-1,1182,918,0,0
-35,106,0,0,0,0,0,0,0,0,0,-1,1189,918,0,0
-28,106,0,0,0,0,0,0,0,0,0,-1,1196,918,0,0
-21,106,0,0,0,0,0,0,0,0,0,-1,1203,918,0,0
-14,106,0,0,0,0,0,0,0,0,0,-1,1210,918,0,0
-7,106,0,0,0,0,0,0,0,0,0,-1,1217,918,0,0
0,106,0,0,0,0,0,0,0,0,0,-1,1224,918,0,0
7,106,0,0,0,0,0,0,0,0,0,-1,1231,918,0,0
14,106,0,0,0,0,0,0,0,0,0,-1,1238,918,0,0
21,106,0,0,0,0,0,0,0,0,0,-1,1245,918,0,0
28,106,0,0,0,0,0,0,0,0,0,-1,1252,918,0,0
35,106,0,0,0,0,0,0,0,0,0,-1,1259,918,0,0
42,106,0,0,0,0,0,0,0,0,0,-1,1266,918,0,0
49,106,0,0,0,0,0,0,0,0,0,-1,1273,918,0,0
56,106,0,0,0,0,0,0,0,0,0,-1,1280,918,0,0
63,106,0,0,0,0,0,0,0,0,0,-1,1287,918,0,0
70,106,0,0,0,0,0,0,0,0,0,-1,1294,918,0,0
77,106,0,0,0,0,0,0,0,0,0,-1,1301,918,0,0
84,106,0,0,0,0,0,0,0,0,0,-1,1308,918,0,0
91,106,0,0,0,0,0,0,0,0,0,-1,1315,918,0,0
98,106,0,0,0,0,0,0,0,0,0,-1,1322,918,0,0
105,106,0,0,0,0,0,0,0,0,0,-1,1329,918,0,0
112,106,0,0,0,0,0,0,0,0,0,-1,1336,918,0,0
119,106,0,0,0,0,0,0,0,0,0,-1,1343,918,0,0
126,106,0,0,0,0,0,0,0,0,0,-1,1350,918,0,0
133,106,0,0,0,0,0,0,0,0,0,-1,1357,918,0,0
140,106,0,0,0,0,0,0,0,0,0,-1,1364,918,0,0
147,106,0,0,0,0,0,0,0,0,0,-1,1371,918,0,0
154,106,0,0,0,0,0,0,0,0,0,-1,1378,918,0,0
161,106,0,0,0,0,0,0,0,0,0,-1,1385,918,0,0
168,106,0,0,0,0,0,0,0,0,0,-1,1392,918,0,0
175,106,0,0,0,0,0,0,0,0,0,-1,1399,918,0,0
182,106,0,0,0,0,0,0,0,0,0,-1,1406,918,0,0
189,106,0,0,0,0,0,0,0,0,0,-1,1413,918,0,0
196,106,0,0,0,0,0,0,0,0,0,-1,1420,918,0,0
203,106,0,0,0,0,0,0,0,0,0,-1,1427,918,0,0
210,106,0,0,0,0,0,0,0,0,0,-1,1434,918,0,0
217,106,0,0,0,0,0,0,0,0,0,-1,1441,918,0,0
224,106,0,0,0,0,0,0,0,0,0,-1,1448,918,0,0
231,106,0,0,0,0,0,0,0,0,0,-1,1455,918,0,0
238,106,0,0,0,0,0,0,0,0,0,-1,1462,918,0,0
245,106,0,0,0,0,0,0,0,0,0,-1,1469,918,0,0
252,106,0,0,0,0,0,0,0,0,0,-1,1476,918,0,0
259,106,0,0,0,0,0,0,0,0,0,-1,1483,918,0,0
266,106,0,0,0,0,0,0,0,0,0,-1,1490,918,0,0
273,106,0,0,0,0,0,0,0,0,0,-1,1497,918,0,0
280,106,0,0,0,0,0,0,0,0,0,-1,1504,918,0,0
287,106,0,0,0,0,0,0,0,0,0,-1,1511,918,0,0
294,106,0,0,0,0,0,0,0,0,0,-1,1518,918,0,0
301,106,0,0,0,0,0,0,0,0,0,-1,1525,918,0,0
308,106,0,0,0,0,0,0,0,0,0,-1,1532,918,0,0
315,106,0,0,0,0,0,0,0,0,0,-1,1539,918,0,0
322,106,0,0,0,0,0,0,0,0,0,-1,1546,918,0,0
329,106,0,0,0,0,0,0,0,0,0,-1,1553,918,0,0
336,106,0,0,0,0,0,0,0,0,0,-1,1560,918,0,0
343,106,0,0,0,0,0,0,0,0,0,-1,1567,918,0,0
350,106,0,0,0,0,0,0,0,0,0,-1,1574,918,0,0
357,106,0,0,0,0,0,0,0,0,0,-1,1581,918,0,0
364,106,0,0,0,0,0,0,0,0,0,-1,1588,918,0,0
371,106,0,0,0,0,0,0,0,0,0,-1,1595,918,0,0
378,106,0,0,0,0,0,0,0,0,0,-1,1602,918,0,0
385,106,0,0,0,0,0,0,0,0,0,-1,1609,918,0,0
392,106,0,0,0,0,0,0,0,0,0,-1,1616,918,0,0
399,106,0,0,0,0,0,0,0,0,0,-1,1623,918,0,0
406,106,0,0,0,0,0,0,0,0,0,-1,1630,918,0,0
413,106,0,0,0,0,0,0,0,0,0,-1,1637,918,0,0
420,106,0,0,0,0,0,0,0,0,0,-1,1644,918,0,0
427,106,0,0,0,0,0,0,0,0,0,-1,1651,918,0,0
434,106,0,0,0,0,0,0,0,0,0,-1,1658,918,0,0
441,106,0,0,0,0,0,0,0,0,0,-1,1665,918,0,0
448,106,0,0,0,0,0,0,0,0,0,-1,1672,918,0,0
455,106,0,0,0,0,0,0,0,0,0,-1,1679,918,0,0
462,106,0,0,0,0,0,0,0,0,0,-1,1686,918,0,0
469,106,0,0,0,0,0,0,0,0,0,-1,1693,918,0,0
476,106,0,0,0,0,0,0,0,0,0,-1,1700,918,0,0
483,106,0,0,0,0,0,0,0,0,0,-1,1707,918,0,0
490,106,0,0,0,0,0,0,0,0,0,-1,1714,918,0,0
497,106,0,0,0,0,0,0,0,0,0,-1,1721,918,0,0
504,106,0,0,0,0,0,0,0,0,0,-1,1728,918,0,0
511,106,0,0,0,0,0,0,0,0,0,-1,1735,918,0,0
518,106,0,0,0,0,0,0,0,0,0,-1,1742,918,0,0
525,106,0,0,0,0,0,0,0,0,0,-1,1749,918,0,0
532,106,0,0,0,0,0,0,0,0,0,-1,1756,918,0,0
539,106,0,0,0,0,0,0,0,0,0,-1,1763,918,0,0
546,106,0,0,0,0,0,0,0,0,0,-1,1770,918,0,0
553,106,0,0,0,0,0,0,0,0,0,-1,1777,918,0,0
560,106,0,0,0,0,0,0,0,0,0,-1,1784,918,0,0
567,106,0,0,0,0,0,0,0,0,0,-1,1791,918,0,0
574,106,0,0,0,0,0,0,0,0,0,-1,1798,918,0,0
581,106,0,0,0,0,0,0,0,0,0,-1,1805,918,0,0
588,106,0,0,0,0,0,0,0,0,0,-1,1812,918,0,0
595,106,0,0,0,0,0,0,0,0,0,-1,1819,918,0,0
602,106,0,0,0,0,0,0,0,0,0,-1,1826,918,0,0
609,106,0,0,0,0,0,0,0,0,0,-1,1833,918,0,0
616,106,0,0,0,0,0,0,0,0,0,-1,1840,918,0,0
623,106,0,0,0,0,0,0,0,0,0,-1,1847,918,0,0
630,106,4.81262,0.68396,0.003794,0.0013537,-0.0013924,0.00442521,0.000722493,-0.425616,0.00274123,0.0404496,1854,918,4.8126,-0.683989
637,106,4.8916,0.718933,0.00367328,0.00162209,-0.00125082,0.00426521,0.00103016,-0.442008,0.00256986,0.0382564,1861,918,4.89157,-0.718949
644,106,4.97217,0.641418,0.00312144,0.00169059,-0.00110468,0.00372213,0.0010899,-0.498043,0.00220961,0.0370336,1868,918,4.97214,-0.641408
651,106,5.07947,0.468506,0.00222106,0.00163898,-0.00105097,0.00302054,0.000839497,-0.650322,0.00180033,0.03976,1875,918,5.0795,-0.468496
658,106,5.11548,0.439026,0.00111468,0.00150303,-0.00102622,0.00235328,0.000264429,-0.878902,0.00148856,0.0411651,1882,918,5.1155,-0.439045
665,106,4.96973,0.541016,1.44697e-05,0.00131026,-0.000993633,0.00184857,-0.000523837,-1.0743,0.00143913,0.0398084,1889,918,4.96967,-0.541013
672,106,4.86926,0.619568,-0.000951273,0.00110121,-0.000917391,0.00145148,-0.00130154,-1.20607,0.00159024,0.036538,1896,918,4.86925,-0.619576
679,106,4.83618,0.547974,-0.00177887,0.000922847,-0.00086022,0.00117349,-0.00202951,-1.28728,0.00187114,0.0327229,1903,918,4.8362,-0.548
686,106,4.91809,0.580383,-0.00246037,0.000715417,-0.00081048,0.000910298,-0.00265525,-1.33483,0.00213917,0.0282866,1910,918,4.91814,-0.580377
693,106,4.95349,0.595337,-0.00283527,0.000495726,-0.000763016,0.000662188,-0.00300173,-1.356,0.00225454,0.0196374,1917,918,4.95352,-0.595311
700,106,4.92981,0.61377,-0.00302292,0.000326361,-0.000674251,0.000457,-0.00315356,-1.37941,0.00227009,0.0265594,1924,918,4.92975,-0.613741
707,106,4.73401,0.6698,-0.00305231,0.000192808,-0.000535148,0.000278781,-0.00313828,-1.4115,0.00219103,0.0192381,1931,918,4.73395,-0.669827
714,106,4.68445,0.705811,-0.00273745,9.73285e-05,-0.000416796,0.000157339,-0.00279746,-1.4278,0.00191957,0.0145802,1938,918,4.6845,-0.705803
721,106,4.69922,0.755554,-0.0022754,0.000107127,-0.000331709,0.000152447,-0.00232073,-1.43501,0.00160039,0.0139998,1945,918,4.69916,-0.755553
728,106,4.69348,0.787598,-0.00159728,4.47001e-05,-0.000204314,6.97414e-05,-0.00162232,-1.44884,0.00110553,0.0135391,1952,918,4.69352,-0.787623
735,106,4.69214,0.782715,-0.000827979,-0.000166339,-0.000105541,-0.000149911,-0.000844407,-1.41639,0.000520218,0.0127533,1959,918,4.6921,-0.782691
742,106,4.70178,0.79364,-0.000510693,-0.000364835,0.00038082,-5.00241e-05,-0.000825505,0.880005,0.000534443,0.0104051,1966,918,4.70183,-0.793611
749,106,4.70618,0.80658,-0.000527523,-0.000352416,0.0011017,0.000665201,-0.00154514,0.825051,0.00130942,0.00838596,1973,918,4.70617,-0.806603
756,106,4.70435,0.81488,-0.00078374,-0.000352828,0.00154006,0.000986776,-0.00212334,0.854898,0.00183516,0.00925246,1980,918,4.70431,-0.814904
763,106,4.70227,0.849915,-0.00141078,-0.000448178,0.0022716,0.00139255,-0.0032515,0.889793,0.00275192,0.0161425,1987,918,4.70224,-0.849905
770,106,4.71667,0.929077,-0.00272209,-0.0005305,0.0032174,0.00177259,-0.00502518,0.949529,0.00407169,0.0368901,1994,918,4.71666,-0.929082
777,106,4.9502,0.901245,-0.00479025,-0.000549586,0.00441372,0.00222669,-0.00756652,1.00932,0.00592766,0.0437447,2001,918,4.95014,-0.901268
784,106,4.80981,0.899353,0,0,0,0,0,0,0,-1,2008,918,4.80984,-0.899377
791,106,4.81726,0.336548,-0.0119739,9.27832e-07,0.00747941,0.00359427,-0.0155672,1.12293,0.0117607,0.0435948,2015,918,4.8173,-0.336537
798,106,4.87793,0.228271,-0.0176604,0.00094687,0.00921567,0.0047385,-0.0214521,1.18047,0.0161148,0.0448367,2022,918,4.87799,-0.228277
805,106,0,0,0,0,0,0,0,0,0,-1,2029,918,0,0
812,106,0,0,0,0,0,0,0,0,0,-1,2036,918,0,0
-700,99,0,0,0,0,0,0,0,0,0,-1,524,925,0,0
-693,99,0,0,0,0,0,0,0,0,0,-1,531,925,0,0
-686,99,0,0,0,0,0,0,0,0,0,-1,538,925,0,0
-679,99,1.12903,-1.23187,0,0,0,0,0,0,0,-1,545,925,1.12905,1.23187
-672,99,-0.83551,-1.85724,0,0,0,0,0,0,0,-1,552,925,-0.835495,1.85726
-665,99,-1.20587,-1.30676,0,0,0,0,0,0,0,-1,559,925,-1.20589,1.30678
-658,99,-1.1825,-0.232605,0,0,0,0,0,0,0,-1,566,925,-1.18249,0.232615
-651,99,-1.27869,0.628052,0,0,0,0,0,0,0,-1,573,925,-1.2787,-0.62807
-644,99,-1.05933,0.462524,0,0,0,0,0,0,0,-1,580,925,-1.0593,-0.462531
-637,99,-0.978333,0.718689,0.0030972,0.00116069,0.0163278,0.0184855,-0.0142276,0.755782,0.0189401,0.0307087,587,925,-0.978328,-0.718677
-630,99,-0.904724,0.798828,0.000820569,0.000172521,0.0120136,0.0125145,-0.0115214,0.771916,0.0138811,0.0134629,594,925,-0.904726,-0.798856
-623,99,-0.905396,0.768616,-0.000819418,-0.000302818,0.0083185,0.00776139,-0.00888363,0.800919,0.00961729,0.00764889,601,925,-0.90537,-0.768602
-616,99,-0.906738,0.747742,-0.00203562,-0.000845048,0.00576404,0.00435437,-0.00723503,0.836854,0.00675969,0.00884251,608,925,-0.906723,-0.747769
-609,99,-0.900024,0.733276,-0.00313969,-0.000882911,0.0036082,0.00176923,-0.00579183,0.936945,0.00456667,0.00951622,615,925,-0.900031,-0.733263
-602,99,-0.895386,0.728516,-0.00334343,-0.00117333,0.00191999,-5.30039e-05,-0.00446376,1.04259,0.00295833,0.0091703,622,925,-0.895382,-0.728499
-595,99,-0.922729,0.722046,-0.00292695,-0.00118142,0.00182285,-3.31653e-05,-0.0040752,1.00867,0.00270581,0.0115035,629,925,-0.922746,-0.72206
-588,99,-0.91925,0.712646,-0.00289261,-0.000862753,0.00169266,9.59348e-05,-0.0038513,1.05546,0.0026001,0.0106003,636,925,-0.919242,-0.712667
-581,99,-0.889038,0.680664,-0.00313099,-0.000736443,0.00138061,-0.000106271,-0.00376116,1.1426,0.00247278,0.0102777,643,925,-0.889048,-0.680689
-574,99,-0.907227,0.648315,-0.00339206,-0.000723101,0.001234,-0.00024,-0.00387517,1.19765,0.00250728,0.0111568,650,925,-0.907196,-0.648287
-567,99,-1.02173,0.651367,-0.00367526,-0.000746088,0.00107221,-0.000395558,-0.00402579,1.25483,0.00256221,0.0231361,657,925,-1.02175,-0.651339
-560,99,-1.12183,0.72583,-0.00361549,-0.000560754,0.000788912,-0.000369043,-0.0038072,1.33241,0.0024245,0.0333457,664,925,-1.12183,-0.725809
-553,99,-1.20795,0.830139,-0.00332959,-0.000354773,0.000320381,-0.00032066,-0.0033637,1.46472,0.00214359,0.0396403,671,925,-1.20797,-0.830125
-546,99,-1.1283,0.856567,-0.00290812,3.41532e-06,-0.000354182,4.58814e-05,-0.00295059,-1.45147,0.00198253,0.0440036,678,925,-1.12827,-0.856576
-539,99,-1.03906,0.712158,-0.00225452,0.000554661,-0.00131871,0.00107669,-0.00277655,-1.19386,0.00229569,0.041511,685,925,-1.03906,-0.712147
-532,99,-1.18982,0.543823,-0.0013617,0.00134815,-0.00261644,0.00293968,-0.00295322,-1.02431,0.00340227,0.0414039,692,925,-1.1898,-0.543834
-525,99,-1.23865,0.591675,-0.000172483,0.00243108,-0.00429298,0.00561531,-0.00335672,-0.932609,0.00523443,0.0421113,699,925,-1.23867,-0.59168
-518,99,-1.276,0.462524,0.00111334,0.00385913,-0.00637623,0.00900859,-0.00403612,-0.891436,0.0077116,0.0412089,706,925,-1.27598,-0.4625
-511,99,0,0,0,0,0,0,0,0,0,-1,713,925,0,0
-504,99,0,0,0,0,0,0,0,0,0,-1,720,925,0,0
-497,99,0,0,0,0,0,0,0,0,0,-1,727,925,0,0
-490,99,0,0,0,0,0,0,0,0,0,-1,734,925,0,0
-483,99,0,0,0,0,0,0,0,0,0,-1,741,925,0,0
-476,99,0,0,0,0,0,0,0,0,0,-1,748,925,0,0
-469,99,0,0,0,0,0,0,0,0,0,-1,755,925,0,0
-462,99,0,0,0,0,0,0,0,0,0,-1,762,925,0,0
-455,99,0,0,0,0,0,0,0,0,0,-1,769,925,0,0
-448,99,0,0,0,0,0,0,0,0,0,-1,776,925,0,0
-441,99,0,0,0,0,0,0,0,0,0,-1,783,925,0,0
-434,99,0,0,0,0,0,0,0,0,0,-1,790,925,0,0
-427,99,0,0,0,0,0,0,0,0,0,-1,797,925,0,0
-420,99,0,0,0,0,0,0,0,0,0,-1,804,925,0,0
-413,99,0,0,0,0,0,0,0,0,0,-1,811,925,0,0
-406,99,0,0,0,0,0,0,0,0,0,-1,818,925,0,0
-399,99,0,0,0,0,0,0,0,0,0,-1,825,925,0,0
-392,99,0,0,0,0,0,0,0,0,0,-1,832,925,0,0
-385,99,0,0,0,0,0,0,0,0,0,-1,839,925,0,0
-378,99,0,0,0,0,0,0,0,0,0,-1,846,925,0,0
-371,99,0,0,0,0,0,0,0,0,0,-1,853,925,0,0
-364,99,0,0,0,0,0,0,0,0,0,-1,860,925,0,0
-357,99,0,0,0,0,0,0,0,0,0,-1,867,925,0,0
-350,99,0,0,0,0,0,0,0,0,0,-1,874,925,0,0
-343,99,0,0,0,0,0,0,0,0,0,-1,881,925,0,0
-336,99,0,0,0,0,0,0,0,0,0,-1,888,925,0,0
-329,99,0,0,0,0,0,0,0,0,0,-1,895,925,0,0
-322,99,0,0,0,0,0,0,0,0,0,-1,902,925,0,0
-315,99,0,0,0,0,0,0,0,0,0,-1,909,925,0,0
-308,99,0,0,0,0,0,0,0,0,0,-1,916,925,0,0
-301,99,0,0,0,0,0,0,0,0,0,-1,923,925,0,0
-294,99,0,0,0,0,0,0,0,0,0,-1,930,925,0,0
-287,99,0,0,0,0,0,0,0,0,0,-1,937,925,0,0
-280,99,0,0,0,0,0,0,0,0,0,-1,944,925,0,0
-273,99,0,0,0,0,0,0,0,0,0,-1,951,925,0,0
-266,99,0,0,0,0,0,0,0,0,0,-1,958,925,0,0
-259,99,0,0,0,0,0,0,0,0,0,-1,965,925,0,0
-252,99,0,0,0,0,0,0,0,0,0,-1,972,925,0,0
-245,99,0,0,0,0,0,0,0,0,0,-1,979,925,0,0
-238,99,0,0,0,0,0,0,0,0,0,-1,986,925,0,0
-231,99,0,0,0,0,0,0,0,0,0,-1,993,925,0,0
-224,99,0,0,0,0,0,0,0,0,0,-1,1000,925,0,0
-217,99,0,0,0,0,0,0,0,0,0,-1,1007,925,0,0
-210,99,0,0,0,0,0,0,0,0,0,-1,1014,925,0,0
-203,99,0,0,0,0,0,0,0,0,0,-1,1021,925,0,0
-196,99,0,0,0,0,0,0,0,0,0,-1,1028,925,0,0
-189,99,0,0,0,0,0,0,0,0,0,-1,1035,925,0,0
-182,99,0,0,0,0,0,0,0,0,0,-1,1042,925,0,0
-175,99,0,0,0,0,0,0,0,0,0,-1,1049,925,0,0
-168,99,0,0,0,0,0,0,0,0,0,-1,1056,925,0,0
-161,99,0,0,0,0,0,0,0,0,0,-1,1063,925,0,0
-154,99,0,0,0,0,0,0,0,0,0,-1,1070,925,0,0
-147,99,0,0,0,0,0,0,0,0,0,-1,1077,925,0,0
-140,99,0,0,0,0,0,0,0,0,0,-1,1084,925,0,0
-133,99,0,0,0,0,0,0,0,0,0,-1,1091,925,0,0
-126,99,0,0,0,0,0,0,0,0,0,-1,1098,925,0,0
-119,99,0,0,0,0,0,0,0,0,0,-1,1105,925,0,0
-112,99,0,0,0,0,0,0,0,0,0,-1,1112,925,0,0
-105,99,0,0,0,0,0,0,0,0,0,-1,1119,925,0,0
-98,99,0,0,0,0,0,0,0,0,0,-1,1126,925,0,0
-91,99,0,0,0,0,0,0,0,0,0,-1,1133,925,0,0
-84,99,0,0,0,0,0,0,0,0,0,-1,1140,925,0,0
-77,99,0,0,0,0,0,0,0,0,0,-1,1147,925,0,0
-70,99,0,0,0,0,0,0,0,0,0,-1,1154,925,0,0
-63,99,0,0,0,0,0,0,0,0,0,-1,1161,925,0,0
-56,99,0,0,0,0,0,0,0,0,0,-1,1168,925,0,0
-49,99,0,0,0,0,0,0,0,0,0,-1,1175,925,0,0
-42,99,0,0,0,0,0,0,0,0,0,-1,1182,925,0,0
-35,99,0,0,0,0,0,0,0,0,0,-1,1189,925,0,0
-28,99,0,0,0,0,0,0,0,0,0,-1,1196,925,0,0
-21,99,0,0,0,0,0,0,0,0,0,-1,1203,925,0,0
-14,99,0,0,0,0,0,0,0,0,0,-1,1210,925,0,0
-7,99,0,0,0,0,0,0,0,0,0,-1,1217,925,0,0
0,99,0,0,0,0,0,0,0,0,0,-1,1224,925,0,0
7,99,0,0,0,0,0,0,0,0,0,-1,1231,925,0,0
14,99,0,0,0,0,0,0,0,0,0,-1,1238,925,0,0
21,99,0,0,0,0,0,0,0,0,0,-1,1245,925,0,0
28,99,0,0,0,0,0,0,0,0,0,-1,1252,925,0,0
35,99,0,0,0,0,0,0,0,0,0,-1,1259,925,0,0
42,99,0,0,0,0,0,0,0,0,0,-1,1266,925,0,0
49,99,0,0,0,0,0,0,0,0,0,-1,1273,925,0,0
56,99,0,0,0,0,0,0,0,0,0,-1,1280,925,0,0
63,99,0,0,0,0,0,0,0,0,0,-1,1287,925,0,0
70,99,0,0,0,0,0,0,0,0,0,-1,1294,925,0,0
77,99,0,0,0,0,0,0,0,0,0,-1,1301,925,0,0
84,99,0,0,0,0,0,0,0,0,0,-1,1308,925,0,0
91,99,0,0,0,0,0,0,0,0,0,-1,1315,925,0,0
98,99,0,0,0,0,0,0,0,0,0,-1,1322,925,0,0
105,99,0,0,0,0,0,0,0,0,0,-1,1329,925,0,0
112,99,0,0,0,0,0,0,0,0,0,-1,1336,925,0,0
119,99,0,0,0,0,0,0,0,0,0,-1,1343,925,0,0
126,99,0,0,0,0,0,0,0,0,0,-1,1350,925,0,0
133,99,0,0,0,0,0,0,0,0,0,-1,1357,925,0,0
140,99,0,0,0,0,0,0,0,0,0,-1,1364,925,0,0
147,99,0,0,0,0,0,0,0,0,0,-1,1371,925,0,0
154,99,0,0,0,0,0,0,0,0,0,-1,1378,925,0,0
161,99,0,0,0,0,0,0,0,0,0,-1,1385,925,0,0
168,99,0,0,0,0,0,0,0,0,0,-1,1392,925,0,0
175,99,0,0,0,0,0,0,0,0,0,-1,1399,925,0,0
182,99,0,0,0,0,0,0,0,0,0,-1,1406,925,0,0
189,99,0,0,0,0,0,0,0,0,0,-1,1413,925,0,0
196,99,0,0,0,0,0,0,0,0,0,-1,1420,925,0,0
203,99,0,0,0,0,0,0,0,0,0,-1,1427,925,0,0
210,99,0,0,0,0,0,0,0,0,0,-1,1434,925,0,0
217,99,0,0,0,0,0,0,0,0,0,-1,1441,925,0,0
224,99,0,0,0,0,0,0,0,0,0,-1,1448,925,0,0
231,99,0,0,0,0,0,0,0,0,0,-1,1455,925,0,0
238,99,0,0,0,0,0,0,0,0,0,-1,1462,925,0,0
245,99,0,0,0,0,0,0,0,0,0,-1,1469,925,0,0
252,99,0,0,0,0,0,0,0,0,0,-1,1476,925,0,0
259,99,0,0,0,0,0,0,0,0,0,-1,1483,925,0,0
266,99,0,0,0,0,0,0,0,0,0,-1,1490,925,0,0
273,99,0,0,0,0,0,0,0,0,0,-1,1497,925,0,0
280,99,0,0,0,0,0,0,0,0,0,-1,1504,925,0,0
287,99,0,0,0,0,0,0,0,0,0,-1,1511,925,0,0
294,99,0,0,0,0,0,0,0,0,0,-1,1518,925,0,0
301,99,0,0,0,0,0,0,0,0,0,-1,1525,925,0,0
308,99,0,0,0,0,0,0,0,0,0,-1,1532,925,0,0
315,99,0,0,0,0,0,0,0,0,0,-1,1539,925,0,0
322,99,0,0,0,0,0,0,0,0,0,-1,1546,925,0,0
329,99,0,0,0,0,0,0,0,0,0,-1,1553,925,0,0
336,99,0,0,0,0,0,0,0,0,0,-1,1560,925,0,0
343,99,0,0,0,0,0,0,0,0,0,-1,1567,925,0,0
350,99,0,0,0,0,0,0,0,0,0,-1,1574,925,0,0
357,99,0,0,0,0,0,0,0,0,0,-1,1581,925,0,0
364,99,0,0,0,0,0,0,0,0,0,-1,1588,925,0,0
371,99,0,0,0,0,0,0,0,0,0,-1,1595,925,0,0
378,99,0,0,0,0,0,0,0,0,0,-1,1602,925,0,0
385,99,0,0,0,0,0,0,0,0,0,-1,1609,925,0,0
392,99,0,0,0,0,0,0,0,0,0,-1,1616,925,0,0
399,99,0,0,0,0,0,0,0,0,0,-1,1623,925,0,0
406,99,0,0,0,0,0,0,0,0,0,-1,1630,925,0,0
413,99,0,0,0,0,0,0,0,0,0,-1,1637,925,0,0
420,99,0,0,0,0,0,0,0,0,0,-1,1644,925,0,0
427,99,0,0,0,0,0,0,0,0,0,-1,1651,925,0,0
434,99,0,0,0,0,0,0,0,0,0,-1,1658,925,0,0
441,99,0,0,0,0,0,0,0,0,0,-1,1665,925,0,0
448,99,0,0,0,0,0,0,0,0,0,-1,1672,925,0,0
455,99,0,0,0,0,0,0,0,0,0,-1,1679,925,0,0
462,99,0,0,0,0,0,0,0,0,0,-1,1686,925,0,0
469,99,0,0,0,0,0,0,0,0,0,-1,1693,925,0,0
476,99,0,0,0,0,0,0,0,0,0,-1,1700,925,0,0
483,99,0,0,0,0,0,0,0,0,0,-1,1707,925,0,0
490,99,0,0,0,0,0,0,0,0,0,-1,1714,925,0,0
497,99,0,0,0,0,0,0,0,0,0,-1,1721,925,0,0
504,99,0,0,0,0,0,0,0,0,0,-1,1728,925,0,0
511,99,0,0,0,0,0,0,0,0,0,-1,1735,925,0,0
518,99,0,0,0,0,0,0,0,0,0,-1,1742,925,0,0
525,99,0,0,0,0,0,0,0,0,0,-1,1749,925,0,0
532,99,0,0,0,0,0,0,0,0,0,-1,1756,925,0,0
539,99,0,0,0,0,0,0,0,0,0,-1,1763,925,0,0
546,99,0,0,0,0,0,0,0,0,0,-1,1770,925,0,0
553,99,0,0,0,0,0,0,0,0,0,-1,1777,925,0,0
560,99,0,0,0,0,0,0,0,0,0,-1,1784,925,0,0
567,99,0,0,0,0,0,0,0,0,0,-1,1791,925,0,0
574,99,0,0,0,0,0,0,0,0,0,-1,1798,925,0,0
581,99,0,0,0,0,0,0,0,0,0,-1,1805,925,0,0
588,99,0,0,0,0,0,0,0,0,0,-1,1812,925,0,0
595,99,0,0,0,0,0,0,0,0,0,-1,1819,925,0,0
602,99,0,0,0,0,0,0,0,0,0,-1,1826,925,0,0
609,99,0,0,0,0,0,0,0,0,0,-1,1833,925,0,0
616,99,0,0,0,0,0,0,0,0,0,-1,1840,925,0,0
623,99,0,0,0,0,0,0,0,0,0,-1,1847,925,0,0
630,99,0,0,0,0,0,0,0,0,0,-1,1854,925,0,0
637,99,4.84338,0.646362,0.00330758,0.00231142,-0.00110807,0.00402437,0.00159464,-0.574178,0.00234009,0.0431,1861,925,4.84334,-0.646336
644,99,4.84424,0.718018,0.0028985,0.00221907,-0.0010163,0.00363036,0.00148722,-0.624102,0.00210736,0.0375667,1868,925,4.84427,-0.718016
651,99,4.97998,0.575928,0.00219251,0.00204831,-0.000958042,0.00308116,0.00115966,-0.74784,0.00179694,0.0392466,1875,925,4.97992,-0.575929
658,99,5.11353,0.530334,0.00125003,0.00181962,-0.000899275,0.00247812,0.000591528,-0.93875,0.00149445,0.0421312,1882,925,5.11354,-0.530344
665,99,4.94995,0.573853,0.000254257,0.00155694,-0.000826803,0.00195814,-0.000146946,-1.11902,0.00135706,0.0405058,1889,925,4.94995,-0.573845
672,99,4.9436,0.543823,-0.000671117,0.00128689,-0.000727548,0.00152763,-0.000911857,-1.25124,0.00142331,0.038408,1896,925,4.94362,-0.543846
679,99,4.92493,0.524841,-0.00147421,0.00105764,-0.000632908,0.00120704,-0.00162361,-1.33899,0.00164016,0.0367137,1903,925,4.92494,-0.524844
686,99,4.90491,0.657104,-0.00214116,0.000814263,-0.000561546,0.000917363,-0.00224426,-1.38922,0.00187818,0.0298493,1910,925,4.90495,-0.657075
693,99,4.9137,0.66272,-0.00252274,0.000574527,-0.000493054,0.000651122,-0.00259934,-1.41668,0.00198584,0.020773,1917,925,4.91366,-0.662694
700,99,4.95923,0.665955,-0.00273434,0.000397437,-0.000411599,0.000450629,-0.00278753,-1.44228,0.00202534,0.0235193,1924,925,4.95919,-0.665973
707,99,4.77454,0.690674,-0.00282467,0.000255246,-0.000304683,0.000285098,-0.00285452,-1.47313,0.00200482,0.0204724,1931,925,4.77452,-0.69065
714,99,4.729,0.696838,-0.00260643,0.000148938,-0.000221651,0.000166654,-0.00262415,-1.49104,0.00180754,0.0132313,1938,925,4.72896,-0.696852
721,99,4.74182,0.721558,-0.00226957,0.000137057,-0.000159533,0.000147586,-0.0022801,-1.50489,0.00157158,0.015748,1945,925,4.7418,-0.72153
728,99,4.73059,0.76593,-0.00172404,7.72643e-05,-5.94928e-05,7.9227e-05,-0.001726,-1.53782,0.00117797,0.0134581,1952,925,4.73061,-0.76594
735,99,4.72827,0.785156,-0.00103865,-4.13434e-05,1.84465e-05,-4.10023e-05,-0.00103899,1.55231,0.000679407,0.0118747,1959,925,4.72822,-0.785161
742,99,4.73901,0.798096,-0.000885989,-0.000200542,0.000516884,7.69188e-05,-0.00116345,1.07815,0.000802502,0.0106257,1966,925,4.73903,-0.798123
749,99,4.72107,0.802429,-0.0011701,-8.13004e-05,0.00123815,0.000726844,-0.00197825,0.992522,0.00161653,0.00909424,1973,925,4.72101,-0.802423
756,99,4.72083,0.814636,-0.00171901,8.45655e-05,0.00164667,0.00106021,-0.00269465,1.03591,0.00223528,0.0101226,1980,925,4.72081,-0.814666
763,99,4.74304,0.828796,-0.00268513,0.000198435,0.00239351,0.00155087,-0.00403756,1.05648,0.00333125,0.0125253,1987,925,4.74307,-0.828819
770,99,4.80432,0.890808,-0.00447938,0.000408313,0.00335229,0.00211299,-0.00618406,1.10036,0.0049788,0.0264335,1994,925,4.80435,-0.890781
777,99,4.93945,0.942871,-0.00721926,0.000787523,0.00453318,0.00283201,-0.00926374,1.14711,0.00730517,0.0414377,2001,925,4.93945,-0.942865
784,99,5.04626,1.00348,0,0,0,0,0,0,0,-1,2008,925,5.04628,-1.00346
791,99,5.1936,0.201721,-0.0164974,0.00254763,0.00738666,0.00507671,-0.0190265,1.24092,0.0146723,0.0423135,2015,925,5.19361,-0.201708
798,99,5.58862,0.823181,-0.0237274,0.00435223,0.00881882,0.00689216,-0.0262674,1.29037,0.0202047,0.0461111,2022,925,5.58858,-0.823208
805,99,0,0,0,0,0,0,0,0,0,-1,2029,925,0,0
812,99,0,0,0,0,0,0,0,0,0,-1,2036,925,0,0
-700,92,0,0,0,0,0,0,0,0,0,-1,524,932,0,0
-693,92,0,0,0,0,0,0,0,0,0,-1,531,932,0,0
-686,92,1.03534,-0.811646,0,0,0,0,0,0,0,-1,538,932,1.03535,0.811635
-679,92,0.543152,-0.130066,0,0,0,0,0,0,0,-1,545,932,0.543148,0.130056
-672,92,0.290283,0.144531,0.036418,0.0154207,0.0471312,0.0742057,-0.022367,0.67581,0.0583724,0.0484453,552,932,0.290306,-0.14455
-665,92,0.0294189,0.423584,0.0249645,0.0119462,0.0392078,0.0581998,-0.0212891,0.70314,0.0475136,0.0465379,559,932,0.0294384,-0.423557
-658,92,-1.02374,-0.36792,0,0,0,0,0,0,0,-1,566,932,-1.02376,0.367922
-651,92,-0.701721,1.62775,0.0101526,0.00639364,0.0252051,0.0335482,-0.0170019,0.748183,0.0297017,0.0451336,573,932,-0.701708,-1.62776
-644,92,-1.5354,0.569946,0.00571972,0.00433744,0.0194349,0.0244757,-0.0144186,0.767625,0.0227045,0.0431825,580,932,-1.53542,-0.569962
-637,92,-0.977661,0.786011,0.00272704,0.00274164,0.0145811,0.0173155,-0.0118468,0.785648,0.0169352,0.0279092,587,932,-0.977646,-0.786034
-630,92,-0.912292,0.794067,0.000500186,0.00136017,0.0107314,0.0116702,-0.00980983,0.805422,0.012417,0.0129982,594,932,-0.912316,-0.794077
-623,92,-0.912048,0.765381,-0.00111366,0.000545271,0.00734412,0.00710661,-0.007675,0.841631,0.00853627,0.00802759,601,932,-0.912027,-0.76541
-616,92,-0.923157,0.745789,-0.00209824,-0.000231772,0.00507942,0.00399943,-0.00632944,0.876249,0.00601374,0.00767232,608,932,-0.923145,-0.745816
-609,92,-0.929565,0.723389,-0.00299951,-0.000510085,0.00314725,0.00162965,-0.00513924,0.973705,0.00407936,0.00797091,615,932,-0.929557,-0.72341
-602,92,-0.922119,0.718933,-0.00310014,-0.00083152,0.00158786,-1.44296e-05,-0.00391723,1.09555,0.00260669,0.00807239,622,932,-0.922112,-0.718939
-595,92,-0.903381,0.709717,-0.00259228,-0.00100686,0.00150361,-9.98006e-05,-0.00349934,1.02799,0.00230035,0.0126844,629,932,-0.903397,-0.709715
-588,92,-0.898621,0.709717,-0.00252936,-0.000812862,0.00146908,3.02996e-05,-0.00337252,1.04976,0.00225852,0.0138989,636,932,-0.898626,-0.709729
-581,92,-0.888062,0.680725,-0.00273747,-0.000741899,0.00121397,-0.000168282,-0.00331108,1.12938,0.00215349,0.0119408,643,932,-0.888032,-0.68075
-574,92,-0.96344,0.664063,-0.00293562,-0.000692654,0.00101502,-0.000301527,-0.00332675,1.20299,0.00212447,0.014567,650,932,-0.963455,-0.664092
-567,92,-1.10724,0.677429,-0.00315653,-0.000704773,0.000808664,-0.000462075,-0.00339923,1.27923,0.00212891,0.0263267,657,932,-1.10723,-0.677417
-560,92,-1.14111,0.672974,-0.00308585,-0.000505831,0.000488776,-0.000416338,-0.00317534,1.38971,0.00199267,0.0371282,664,932,-1.14111,-0.672947
-553,92,-1.20203,0.704041,-0.00289443,-0.000272004,-1.88375e-05,-0.000271869,-0.00289457,-1.56361,0.00184577,0.0405125,671,932,-1.20205,-0.704035
-546,92,-1.2002,0.690247,-0.00261264,0.000131894,-0.000743025,0.000320141,-0.00280089,-1.32267,0.00198261,0.0402369,678,932,-1.20018,-0.690244
-539,92,-1.09583,0.633728,-0.00226013,0.000760162,-0.00174952,0.00156115,-0.00306112,-1.14145,0.00271511,0.0381748,685,932,-1.0958,-0.633752
-532,92,-0.976685,0.638062,-0.00189856,0.00167899,-0.00307334,0.00344622,-0.00366579,-1.04895,0.00410677,0.0439071,692,932,-0.976707,-0.638046
-525,92,-1.00348,0.783508,-0.00159683,0.00295566,-0.00474575,0.00594281,-0.00458399,-1.00901,0.00609451,0.0431383,699,932,-1.00349,-0.783517
-518,92,-1.18225,0.794556,-0.00175382,0.0046812,-0.00679058,0.00897796,-0.00605059,-1.00664,0.00873143,0.0421737,706,932,-1.18225,-0.794555
-511,92,0,0,0,0,0,0,0,0,0,-1,713,932,0,0
-504,92,0,0,0,0,0,0,0,0,0,-1,720,932,0,0
-497,92,0,0,0,0,0,0,0,0,0,-1,727,932,0,0
-490,92,0,0,0,0,0,0,0,0,0,-1,734,932,0,0
-483,92,0,0,0,0,0,0,0,0,0,-1,741,932,0,0
-476,92,0,0,0,0,0,0,0,0,0,-1,748,932,0,0
-469,92,0,0,0,0,0,0,0,0,0,-1,755,932,0,0
-462,92,0,0,0,0,0,0,0,0,0,-1,762,932,0,0
-455,92,0,0,0,0,0,0,0,0,0,-1,769,932,0,0
-448,92,0,0,0,0,0,0,0,0,0,-1,776,932,0,0
-441,92,0,0,0,0,0,0,0,0,0,-1,783,932,0,0
-434,92,0,0,0,0,0,0,0,0,0,-1,790,932,0,0
-427,92,0,0,0,0,0,0,0,0,0,-1,797,932,0,0
-420,92,0,0,0,0,0,0,0,0,0,-1,804,932,0,0
-413,92,0,0,0,0,0,0,0,0,0,-1,811,932,0,0
-406,92,0,0,0,0,0,0,0,0,0,-1,818,932,0,0
-399,92,0,0,0,0,0,0,0,0,0,-1,825,932,0,0
-392,92,0,0,0,0,0,0,0,0,0,-1,832,932,0,0
-385,92,0,0,0,0,0,0,0,0,0,-1,839,932,0,0
-378,92,0,0,0,0,0,0,0,0,0,-1,846,932,0,0
-371,92,0,0,0,0,0,0,0,0,0,-1,853,932,0,0
-364,92,0,0,0,0,0,0,0,0,0,-1,860,932,0,0
-357,92,0,0,0,0,0,0,0,0,0,-1,867,932,0,0
-350,92,0,0,0,0,0,0,0,0,0,-1,874,932,0,0
-343,92,0,0,0,0,0,0,0,0,0,-1,881,932,0,0
-336,92,0,0,0,0,0,0,0,0,0,-1,888,932,0,0
-329,92,0,0,0,0,0,0,0,0,0,-1,895,932,0,0
-322,92,0,0,0,0,0,0,0,0,0,-1,902,932,0,0
-315,92,0,0,0,0,0,0,0,0,0,-1,909,932,0,0
-308,92,0,0,0,0,0,0,0,0,0,-1,916,932,0,0
-301,92,0,0,0,0,0,0,0,0,0,-1,923,932,0,0
-294,92,0,0,0,0,0,0,0,0,0,-1,930,932,0,0
-287,92,0,0,0,0,0,0,0,0,0,-1,937,932,0,0
-280,92,0,0,0,0,0,0,0,0,0,-1,944,932,0,0
-273,92,0,0,0,0,0,0,0,0,0,-1,951,932,0,0
-266,92,0,0,0,0,0,0,0,0,0,-1,958,932,0,0
-259,92,0,0,0,0,0,0,0,0,0,-1,965,932,0,0
-252,92,0,0,0,0,0,0,0,0,0,-1,972,932,0,0
-245,92,0,0,0,0,0,0,0,0,0,-1,979,932,0,0
-238,92,0,0,0,0,0,0,0,0,0,-1,986,932,0,0
-231,92,0,0,0,0,0,0,0,0,0,-1,993,932,0,0
-224,92,0,0,0,0,0,0,0,0,0,-1,1000,932,0,0
-217,92,0,0,0,0,0,0,0,0,0,-1,1007,932,0,0
-210,92,0,0,0,0,0,0,0,0,0,-1,1014,932,0,0
-203,92,0,0,0,0,0,0,0,0,0,-1,1021,932,0,0
-196,92,0,0,0,0,0,0,0,0,0,-1,1028,932,0,0
-189,92,0,0,0,0,0,0,0,0,0,-1,1035,932,0,0
-182,92,0,0,0,0,0,0,0,0,0,-1,1042,932,0,0
-175,92,0,0,0,0,0,0,0,0,0,-1,1049,932,0,0
-168,92,0,0,0,0,0,0,0,0,0,-1,1056,932,0,0
-161,92,0,0,0,0,0,0,0,0,0,-1,1063,932,0,0
-154,92,0,0,0,0,0,0,0,0,0,-1,1070,932,0,0
-147,92,0,0,0,0,0,0,0,0,0,-1,1077,932,0,0
-140,92,0,0,0,0,0,0,0,0,0,-1,1084,932,0,0
-133,92,0,0,0,0,0,0,0,0,0,-1,1091,932,0,0
-126,92,0,0,0,0,0,0,0,0,0,-1,1098,932,0,0
-119,92,0,0,0,0,0,0,0,0,0,-1,1105,932,0,0
-112,92,0,0,0,0,0,0,0,0,0,-1,1112,932,0,0
-105,92,0,0,0,0,0,0,0,0,0,-1,1119,932,0,0
-98,92,0,0,0,0,0,0,0,0,0,-1,1126,932,0,0
-91,92,0,0,0,0,0,0,0,0,0,-1,1133,932,0,0
-84,92,0,0,0,0,0,0,0,0,0,-1,1140,932,0,0
-77,92,0,0,0,0,0,0,0,0,0,-1,1147,932,0,0
-70,92,0,0,0,0,0,0,0,0,0,-1,1154,932,0,0
-63,92,0,0,0,0,0,0,0,0,0,-1,1161,932,0,0
-56,92,0,0,0,0,0,0,0,0,0,-1,1168,932,0,0
-49,92,0,0,0,0,0,0,0,0,0,-1,1175,932,0,0
-42,92,0,0,0,0,0,0,0,0,0,-1,1182,932,0,0
-35,92,0,0,0,0,0,0,0,0,0,-1,1189,932,0,0
-28,92,0,0,0,0,0,0,0,0,0,-1,1196,932,0,0
-21,92,0,0,0,0,0,0,0,0,0,-1,1203,932,0,0
-14,92,0,0,0,0,0,0,0,0,0,-1,1210,932,0,0
-7,92,0,0,0,0,0,0,0,0,0,-1,1217,932,0,0
0,92,0,0,0,0,0,0,0,0,0,-1,1224,932,0,0
7,92,0,0,0,0,0,0,0,0,0,-1,1231,932,0,0
14,92,0,0,0,0,0,0,0,0,0,-1,1238,932,0,0
21,92,0,0,0,0,0,0,0,0,0,-1,1245,932,0,0
28,92,0,0,0,0,0,0,0,0,0,-1,1252,932,0,0
35,92,0,0,0,0,0,0,0,0,0,-1,1259,932,0,0
42,92,0,0,0,0,0,0,0,0,0,-1,1266,932,0,0
49,92,0,0,0,0,0,0,0,0,0,-1,1273,932,0,0
56,92,0,0,0,0,0,0,0,0,0,-1,1280,932,0,0
63,92,0,0,0,0,0,0,0,0,0,-1,1287,932,0,0
70,92,0,0,0,0,0,0,0,0,0,-1,1294,932,0,0
77,92,0,0,0,0,0,0,0,0,0,-1,1301,932,0,0
84,92,0,0,0,0,0,0,0,0,0,-1,1308,932,0,0
91,92,0,0,0,0,0,0,0,0,0,-1,1315,932,0,0
98,92,0,0,0,0,0,0,0,0,0,-1,1322,932,0,0
105,92,0,0,0,0,0,0,0,0,0,-1,1329,932,0,0
112,92,0,0,0,0,0,0,0,0,0,-1,1336,932,0,0
119,92,0,0,0,0,0,0,0,0,0,-1,1343,932,0,0
126,92,0,0,0,0,0,0,0,0,0,-1,1350,932,0,0
133,92,0,0,0,0,0,0,0,0,0,-1,1357,932,0,0
140,92,0,0,0,0,0,0,0,0,0,-1,1364,932,0,0
147,92,0,0,0,0,0,0,0,0,0,-1,1371,932,0,0
154,92,0,0,0,0,0,0,0,0,0,-1,1378,932,0,0
161,92,0,0,0,0,0,0,0,0,0,-1,1385,932,0,0
168,92,0,0,0,0,0,0,0,0,0,-1,1392,932,0,0
175,92,0,0,0,0,0,0,0,0,0,-1,1399,932,0,0
182,92,0,0,0,0,0,0,0,0,0,-1,1406,932,0,0
189,92,0,0,0,0,0,0,0,0,0,-1,1413,932,0,0
196,92,0,0,0,0,0,0,0,0,0,-1,1420,932,0,0
203,92,0,0,0,0,0,0,0,0,0,-1,1427,932,0,0
210,92,0,0,0,0,0,0,0,0,0,-1,1434,932,0,0
217,92,0,0,0,0,0,0,0,0,0,-1,1441,932,0,0
224,92,0,0,0,0,0,0,0,0,0,-1,1448,932,0,0
231,92,0,0,0,0,0,0,0,0,0,-1,1455,932,0,0
238,92,0,0,0,0,0,0,0,0,0,-1,1462,932,0,0
245,92,0,0,0,0,0,0,0,0,0,-1,1469,932,0,0
252,92,0,0,0,0,0,0,0,0,0,-1,1476,932,0,0
259,92,0,0,0,0,0,0,0,0,0,-1,1483,932,0,0
266,92,0,0,0,0,0,0,0,0,0,-1,1490,932,0,0
273,92,0,0,0,0,0,0,0,0,0,-1,1497,932,0,0
280,92,0,0,0,0,0,0,0,0,0,-1,1504,932,0,0
287,92,0,0,0,0,0,0,0,0,0,-1,1511,932,0,0
294,92,0,0,0,0,0,0,0,0,0,-1,1518,932,0,0
301,92,0,0,0,0,0,0,0,0,0,-1,1525,932,0,0
308,92,0,0,0,0,0,0,0,0,0,-1,1532,932,0,0
315,92,0,0,0,0,0,0,0,0,0,-1,1539,932,0,0
322,92,0,0,0,0,0,0,0,0,0,-1,1546,932,0,0
329,92,0,0,0,0,0,0,0,0,0,-1,1553,932,0,0
336,92,0,0,0,0,0,0,0,0,0,-1,1560,932,0,0
343,92,0,0,0,0,0,0,0,0,0,-1,1567,932,0,0
350,92,0,0,0,0,0,0,0,0,0,-1,1574,932,0,0
357,92,0,0,0,0,0,0,0,0,0,-1,1581,932,0,0
364,92,0,0,0,0,0,0,0,0,0,-1,1588,932,0,0
371,92,0,0,0,0,0,0,0,0,0,-1,1595,932,0,0
378,92,0,0,0,0,0,0,0,0,0,-1,1602,932,0,0
385,92,0,0,0,0,0,0,0,0,0,-1,1609,932,0,0
392,92,0,0,0,0,0,0,0,0,0,-1,1616,932,0,0
399,92,0,0,0,0,0,0,0,0,0,-1,1623,932,0,0
406,92,0,0,0,0,0,0,0,0,0,-1,1630,932,0,0
413,92,0,0,0,0,0,0,0,0,0,-1,1637,932,0,0
420,92,0,0,0,0,0,0,0,0,0,-1,1644,932,0,0
427,92,0,0,0,0,0,0,0,0,0,-1,1651,932,0,0
434,92,0,0,0,0,0,0,0,0,0,-1,1658,932,0,0
441,92,0,0,0,0,0,0,0,0,0,-1,1665,932,0,0
448,92,0,0,0,0,0,0,0,0,0,-1,1672,932,0,0
455,92,0,0,0,0,0,0,0,0,0,-1,1679,932,0,0
462,92,0,0,0,0,0,0,0,0,0,-1,1686,932,0,0
469,92,0,0,0,0,0,0,0,0,0,-1,1693,932,0,0
476,92,0,0,0,0,0,0,0,0,0,-1,1700,932,0,0
483,92,0,0,0,0,0,0,0,0,0,-1,1707,932,0,0
490,92,0,0,0,0,0,0,0,0,0,-1,1714,932,0,0
497,92,0,0,0,0,0,0,0,0,0,-1,1721,932,0,0
504,92,0,0,0,0,0,0,0,0,0,-1,1728,932,0,0
511,92,0,0,0,0,0,0,0,0,0,-1,1735,932,0,0
518,92,0,0,0,0,0,0,0,0,0,-1,1742,932,0,0
525,92,0,0,0,0,0,0,0,0,0,-1,1749,932,0,0
532,92,0,0,0,0,0,0,0,0,0,-1,1756,932,0,0
539,92,0,0,0,0,0,0,0,0,0,-1,1763,932,0,0
546,92,0,0,0,0,0,0,0,0,0,-1,1770,932,0,0
553,92,0,0,0,0,0,0,0,0,0,-1,1777,932,0,0
560,92,0,0,0,0,0,0,0,0,0,-1,1784,932,0,0
567,92,0,0,0,0,0,0,0,0,0,-1,1791,932,0,0
574,92,0,0,0,0,0,0,0,0,0,-1,1798,932,0,0
581,92,0,0,0,0,0,0,0,0,0,-1,1805,932,0,0
588,92,0,0,0,0,0,0,0,0,0,-1,1812,932,0,0
595,92,0,0,0,0,0,0,0,0,0,-1,1819,932,0,0
602,92,0,0,0,0,0,0,0,0,0,-1,1826,932,0,0
609,92,0,0,0,0,0,0,0,0,0,-1,1833,932,0,0
616,92,0,0,0,0,0,0,0,0,0,-1,1840,932,0,0
623,92,0,0,0,0,0,0,0,0,0,-1,1847,932,0,0
630,92,0,0,0,0,0,0,0,0,0,-1,1854,932,0,0
637,92,4.83936,0.608276,0.00229419,0.00247313,-0.00136718,0.00375377,0.00101355,-0.818073,0.00224236,0.0462503,1861,932,4.83933,-0.608292
644,92,4.74707,0.897705,0.00223936,0.00224112,-0.00118534,0.00342558,0.0010549,-0.785769,0.00202581,0.0396071,1868,932,4.74712,-0.897728
651,92,4.87097,0.811157,0.00185836,0.00197718,-0.00104159,0.00296105,0.000874484,-0.813886,0.00175666,0.0394094,1875,932,4.87095,-0.81116
658,92,5.06641,0.638489,0,0,0,0,0,0,0,-1,1882,932,5.06638,-0.638464
665,92,4.84875,0.669312,0.000343753,0.00139701,-0.00076245,0.00179703,-5.62611e-05,-1.08763,0.0012172,0.0415984,1889,932,4.84873,-0.669309
672,92,4.97046,0.747192,-0.000478848,0.0011164,-0.000611766,0.00132399,-0.000686442,-1.24365,0.00118002,0.0391118,1896,932,4.97046,-0.747208
679,92,4.95447,0.762451,-0.00122723,0.00087888,-0.000476033,0.000981477,-0.00132983,-1.35852,0.00133948,0.0380399,1903,932,4.95442,-0.762463
686,92,4.91919,0.734985,-0.00185979,0.000645209,-0.000382028,0.000702175,-0.00191676,-1.42277,0.00156531,0.0297498,1910,932,4.91914,-0.735011
693,92,4.91968,0.719971,-0.00223159,0.000421852,-0.000292254,0.00045366,-0.00226339,-1.46239,0.00168068,0.0190886,1917,932,4.91972,-0.719941
700,92,4.92944,0.689026,-0.0024422,0.000273475,-0.000218457,0.000290936,-0.00245966,-1.49104,0.00174486,0.0209492,1924,932,4.92942,-0.689053
707,92,4.85254,0.682495,-0.0025735,0.000162505,-0.000137407,0.000169388,-0.00258039,-1.52074,0.00177941,0.0207463,1931,932,4.85256,-0.682512
714,92,4.76563,0.680359,-0.00243895,8.42109e-05,-7.31685e-05,8.63309e-05,-0.00244107,-1.54183,0.00165691,0.0173862,1938,932,4.76557,-0.680329
721,92,4.7771,0.734436,-0.0022093,8.39519e-05,-1.63965e-05,8.40692e-05,-0.00220942,-1.56365,0.00150175,0.0200863,1945,932,4.77709,-0.734447
728,92,4.74915,0.793457,-0.00176647,5.38391e-05,6.76116e-05,5.6347e-05,-0.00176898,1.53372,0.00119855,0.0150051,1952,932,4.74914,-0.793447
735,92,4.74084,0.783508,-0.00114432,4.44438e-05,0.000142048,6.11818e-05,-0.00116106,1.4535,0.000795216,0.0141198,1959,932,4.74089,-0.783499
742,92,4.77136,0.78418,-0.00113753,-5.55844e-05,0.00066235,0.000258638,-0.00145175,1.12783,0.00106457,0.0154449,1966,932,4.77142,-0.784169
749,92,4.74451,0.806335,-0.00165812,0.000173645,0.00137208,0.000907443,-0.00239192,1.07969,0.00196811,0.0134553,1973,932,4.74456,-0.806363
756,92,4.73157,0.83551,-0.00247222,0.000501093,0.00175018,0.0013108,-0.00328193,1.13748,0.00273181,0.0129701,1980,932,4.73153,-0.835502
763,92,4.78162,0.858643,-0.0037439,0.000812282,0.00250284,0.00191856,-0.00485018,1.15461,0.00402826,0.0145749,1987,932,4.78166,-0.858665
770,92,4.78723,0.968933,-0.00596379,0.00128734,0.00345491,0.00266988,-0.00734634,1.19015,0.00598928,0.023965,1994,932,4.78728,-0.968918
777,92,4.71033,1.03827,-0.00930773,0.00201845,0.00458848,0.00364404,-0.0109333,1.23032,0.00875995,0.0423927,2001,932,4.71036,-1.03824
784,92,4.56934,0.64978,0,0,0,0,0,0,0,-1,2008,932,4.56936,-0.649801
791,92,5.66199,0.327515,-0.0205415,0.00481004,0.0071018,0.00666391,-0.0223954,1.31545,0.0175778,0.0440822,2015,932,5.66199,-0.327526
798,92,5.89685,0.975403,-0.0292459,0.00732749,0.00812371,0.00905074,-0.0309691,1.36177,0.0242331,0.0433748,2022,932,5.8969,-0.975397
805,92,0,0,0,0,0,0,0,0,0,-1,2029,932,0,0
812,92,0,0,0,0,0,0,0,0,0,-1,2036,932,0,0
-700,85,0,0,0,0,0,0,0,0,0,-1,524,939,0,0
-693,85,0,0,0,0,0,0,0,0,0,-1,531,939,0,0
-686,85,0.827698,-1.25885,0,0,0,0,0,0,0,-1,538,939,0.827721,1.25882
-679,85,0.627075,-0.633606,0.050449,0.0222604,0.0461212,0.0845814,-0.011872,0.637108,0.060733,0.044273,545,939,0.627102,0.633605
-672,85,0.558716,-0.262268,0.0351996,0.0179761,0.0398725,0.0673798,-0.0142041,0.679041,0.0503272,0.0443858,552,939,0.558715,0.262256
-665,85,0.303528,0.0103149,0.0238573,0.0141455,0.0334905,0.0528421,-0.0148393,0.713403,0.0410778,0.0422015,559,939,0.303506,-0.0103078
-658,85,0.00964355,0.404175,0.0155008,0.0108089,0.0274008,0.0406559,-0.0143463,0.742694,0.0329443,0.0435608,566,939,0.0096369,-0.404164
-651,85,-0.51123,0.924133,0.00947355,0.00798016,0.0218225,0.0305622,-0.0131085,0.768296,0.0258758,0.0401254,573,939,-0.511205,-0.924112
-644,85,-0.885071,0.873962,0.00526869,0.00565962,0.0168914,0.0223567,-0.0114284,0.791184,0.019843,0.0309477,580,939,-0.885078,-0.873937
-637,85,-0.913757,0.823303,0.00247113,0.00382127,0.0126997,0.0158639,-0.00957148,0.811951,0.0148341,0.0168096,587,939,-0.913788,-0.823296
-630,85,-0.923706,0.795166,0.000245961,0.00223022,0.00942695,0.0107171,-0.00824092,0.837827,0.0109765,0.0105211,594,939,-0.9237,-0.795183
-623,85,-0.919861,0.772034,-0.00135892,0.0012015,0.00642706,0.00647461,-0.00663203,0.883707,0.00756731,0.00809109,601,939,-0.919832,-0.772062
-616,85,-0.927917,0.749023,-0.0021814,0.000242407,0.00442951,0.00362281,-0.00556181,0.918929,0.00534199,0.00793617,608,939,-0.927939,-0.749018
-609,85,-0.936279,0.742798,-0.00283353,-0.00020474,0.00270633,0.00148949,-0.00452776,1.01146,0.00361868,0.0107053,615,939,-0.936259,-0.742769
-602,85,-0.952332,0.724121,-0.00279103,-0.000522129,0.00126829,4.5045e-05,-0.00335821,1.15028,0.00225397,0.0142892,622,939,-0.952337,-0.724146
-595,85,-0.93219,0.717834,-0.0022156,-0.000829405,0.001192,-0.000143648,-0.00290135,1.04874,0.00188818,0.0153663,629,939,-0.932197,-0.717841
-588,85,-0.926392,0.708191,-0.00210828,-0.000786769,0.00124502,-3.80342e-05,-0.00285702,1.02936,0.00189213,0.0146101,636,939,-0.926372,-0.708211
-581,85,-0.922058,0.669312,-0.00222705,-0.000817201,0.0010665,-0.000243711,-0.00280054,1.07742,0.00179132,0.0130095,643,939,-0.92204,-0.669308
-574,85,-0.999268,0.706726,-0.00233978,-0.000771508,0.000866313,-0.000387155,-0.00272414,1.15322,0.00170178,0.0190982,650,939,-0.999298,-0.706717
-567,85,-1.13538,0.781311,-0.00244517,-0.000818686,0.000648905,-0.000591524,-0.00267233,1.23406,0.00162077,0.0285617,657,939,-1.13538,-0.78132
-560,85,-1.07587,0.654053,-0.00227812,-0.000671621,0.000326612,-0.000607757,-0.00234198,1.3777,0.00140331,0.035558,664,939,-1.07586,-0.654045
-553,85,-1.13055,0.613647,-0.00203939,-0.000480981,-0.000172135,-0.000462194,-0.00205818,-1.46209,0.00124694,0.0411381,671,939,-1.13053,-0.613635
-546,85,-1.1344,0.666382,-0.00174431,-0.000106302,-0.000894603,0.000287576,-0.00213819,-1.15605,0.00153035,0.0394023,678,939,-1.13441,-0.666356
-539,85,-1.13037,0.715515,-0.00148896,0.000526181,-0.00189114,0.00166141,-0.0026242,-1.03016,0.00249502,0.0381775,685,939,-1.13038,-0.71549
-532,85,-1.02979,0.713257,-0.00139703,0.00150835,-0.00318959,0.00356048,-0.00344917,-0.999085,0.0040472,0.0410714,692,939,-1.02979,-0.71323
-525,85,-1.00214,0.65625,-0.00166705,0.00294239,-0.00480574,0.00596748,-0.00469214,-1.00899,0.006169,0.0399558,699,939,-1.00212,-0.65626
-518,85,-1.22577,0.657288,-0.00288666,0.0049836,-0.00677598,0.00888423,-0.00678729,-1.04847,0.00907492,0.0389602,706,939,-1.22577,-0.657296
-511,85,0,0,0,0,0,0,0,0,0,-1,713,939,0,0
-504,85,0,0,0,0,0,0,0,0,0,-1,720,939,0,0
-497,85,0,0,0,0,0,0,0,0,0,-1,727,939,0,0
-490,85,0,0,0,0,0,0,0,0,0,-1,734,939,0,0
-483,85,0,0,0,0,0,0,0,0,0,-1,741,939,0,0
-476,85,0,0,0,0,0,0,0,0,0,-1,748,939,0,0
-469,85,0,0,0,0,0,0,0,0,0,-1,755,939,0,0
-462,85,0,0,0,0,0,0,0,0,0,-1,762,939,0,0
-455,85,0,0,0,0,0,0,0,0,0,-1,769,939,0,0
-448,85,0,0,0,0,0,0,0,0,0,-1,776,939,0,0
-441,85,0,0,0,0,0,0,0,0,0,-1,783,939,0,0
-434,85,0,0,0,0,0,0,0,0,0,-1,790,939,0,0
-427,85,0,0,0,0,0,0,0,0,0,-1,797,939,0,0
-420,85,0,0,0,0,0,0,0,0,0,-1,804,939,0,0
-413,85,0,0,0,0,0,0,0,0,0,-1,811,939,0,0
-406,85,0,0,0,0,0,0,0,0,0,-1,818,939,0,0
-399,85,0,0,0,0,0,0,0,0,0,-1,825,939,0,0
-392,85,0,0,0,0,0,0,0,0,0,-1,832,939,0,0
-385,85,0,0,0,0,0,0,0,0,0,-1,839,939,0,0
-378,85,0,0,0,0,0,0,0,0,0,-1,846,939,0,0
-371,85,0,0,0,0,0,0,0,0,0,-1,853,939,0,0
-364,85,0,0,0,0,0,0,0,0,0,-1,860,939,0,0
-357,85,0,0,0,0,0,0,0,0,0,-1,867,939,0,0
-350,85,0,0,0,0,0,0,0,0,0,-1,874,939,0,0
-343,85,0,0,0,0,0,0,0,0,0,-1,881,939,0,0
-336,85,0,0,0,0,0,0,0,0,0,-1,888,939,0,0
-329,85,0,0,0,0,0,0,0,0,0,-1,895,939,0,0
-322,85,0,0,0,0,0,0,0,0,0,-1,902,939,0,0
-315,85,0,0,0,0,0,0,0,0,0,-1,909,939,0,0
-308,85,0,0,0,0,0,0,0,0,0,-1,916,939,0,0
-301,85,0,0,0,0,0,0,0,0,0,-1,923,939,0,0
-294,85,0,0,0,0,0,0,0,0,0,-1,930,939,0,0
-287,85,0,0,0,0,0,0,0,0,0,-1,937,939,0,0
-280,85,0,0,0,0,0,0,0,0,0,-1,944,939,0,0
-273,85,0,0,0,0,0,0,0,0,0,-1,951,939,0,0
-266,85,0,0,0,0,0,0,0,0,0,-1,958,939,0,0
-259,85,0,0,0,0,0,0,0,0,0,-1,965,939,0,0
-252,85,0,0,0,0,0,0,0,0,0,-1,972,939,0,0
-245,85,0,0,0,0,0,0,0,0,0,-1,979,939,0,0
-238,85,0,0,0,0,0,0,0,0,0,-1,986,939,0,0
-231,85,0,0,0,0,0,0,0,0,0,-1,993,939,0,0
-224,85,0,0,0,0,0,0,0,0,0,-1,1000,939,0,0
-217,85,0,0,0,0,0,0,0,0,0,-1,1007,939,0,0
-210,85,0,0,0,0,0,0,0,0,0,-1,1014,939,0,0
-203,85,0,0,0,0,0,0,0,0,0,-1,1021,939,0,0
-196,85,0,0,0,0,0,0,0,0,0,-1,1028,939,0,0
-189,85,0,0,0,0,0,0,0,0,0,-1,1035,939,0,0
-182,85,0,0,0,0,0,0,0,0,0,-1,1042,939,0,0
-175,85,0,0,0,0,0,0,0,0,0,-1,1049,939,0,0
-168,85,0,0,0,0,0,0,0,0,0,-1,1056,939,0,0
-161,85,0,0,0,0,0,0,0,0,0,-1,1063,939,0,0
-154,85,0,0,0,0,0,0,0,0,0,-1,1070,939,0,0
-147,85,0,0,0,0,0,0,0,0,0,-1,1077,939,0,0
-140,85,0,0,0,0,0,0,0,0,0,-1,1084,939,0,0
-133,85,0,0,0,0,0,0,0,0,0,-1,1091,939,0,0
-126,85,0,0,0,0,0,0,0,0,0,-1,1098,939,0,0
-119,85,0,0,0,0,0,0,0,0,0,-1,1105,939,0,0
-112,85,0,0,0,0,0,0,0,0,0,-1,1112,939,0,0
-105,85,0,0,0,0,0,0,0,0,0,-1,1119,939,0,0
-98,85,0,0,0,0,0,0,0,0,0,-1,1126,939,0,0
-91,85,0,0,0,0,0,0,0,0,0,-1,1133,939,0,0
-84,85,0,0,0,0,0,0,0,0,0,-1,1140,939,0,0
-77,85,0,0,0,0,0,0,0,0,0,-1,1147,939,0,0
-70,85,0,0,0,0,0,0,0,0,0,-1,1154,939,0,0
-63,85,0,0,0,0,0,0,0,0,0,-1,1161,939,0,0
-56,85,0,0,0,0,0,0,0,0,0,-1,1168,939,0,0
-49,85,0,0,0,0,0,0,0,0,0,-1,1175,939,0,0
-42,85,0,0,0,0,0,0,0,0,0,-1,1182,939,0,0
-35,85,0,0,0,0,0,0,0,0,0,-1,1189,939,0,0
-28,85,0,0,0,0,0,0,0,0,0,-1,1196,939,0,0
-21,85,0,0,0,0,0,0,0,0,0,-1,1203,939,0,0
-14,85,0,0,0,0,0,0,0,0,0,-1,1210,939,0,0
-7,85,0,0,0,0,0,0,0,0,0,-1,1217,939,0,0
0,85,0,0,0,0,0,0,0,0,0,-1,1224,939,0,0
7,85,0,0,0,0,0,0,0,0,0,-1,1231,939,0,0
14,85,0,0,0,0,0,0,0,0,0,-1,1238,939,0,0
21,85,0,0,0,0,0,0,0,0,0,-1,1245,939,0,0
28,85,0,0,0,0,0,0,0,0,0,-1,1252,939,0,0
35,85,0,0,0,0,0,0,0,0,0,-1,1259,939,0,0
42,85,0,0,0,0,0,0,0,0,0,-1,1266,939,0,0
49,85,0,0,0,0,0,0,0,0,0,-1,1273,939,0,0
56,85,0,0,0,0,0,0,0,0,0,-1,1280,939,0,0
63,85,0,0,0,0,0,0,0,0,0,-1,1287,939,0,0
70,85,0,0,0,0,0,0,0,0,0,-1,1294,939,0,0
77,85,0,0,0,0,0,0,0,0,0,-1,1301,939,0,0
84,85,0,0,0,0,0,0,0,0,0,-1,1308,939,0,0
91,85,0,0,0,0,0,0,0,0,0,-1,1315,939,0,0
98,85,0,0,0,0,0,0,0,0,0,-1,1322,939,0,0
105,85,0,0,0,0,0,0,0,0,0,-1,1329,939,0,0
112,85,0,0,0,0,0,0,0,0,0,-1,1336,939,0,0
119,85,0,0,0,0,0,0,0,0,0,-1,1343,939,0,0
126,85,0,0,0,0,0,0,0,0,0,-1,1350,939,0,0
133,85,0,0,0,0,0,0,0,0,0,-1,1357,939,0,0
140,85,0,0,0,0,0,0,0,0,0,-1,1364,939,0,0
147,85,0,0,0,0,0,0,0,0,0,-1,1371,939,0,0
154,85,0,0,0,0,0,0,0,0,0,-1,1378,939,0,0
161,85,0,0,0,0,0,0,0,0,0,-1,1385,939,0,0
168,85,0,0,0,0,0,0,0,0,0,-1,1392,939,0,0
175,85,0,0,0,0,0,0,0,0,0,-1,1399,939,0,0
182,85,0,0,0,0,0,0,0,0,0,-1,1406,939,0,0
189,85,0,0,0,0,0,0,0,0,0,-1,1413,939,0,0
196,85,0,0,0,0,0,0,0,0,0,-1,1420,939,0,0
203,85,0,0,0,0,0,0,0,0,0,-1,1427,939,0,0
210,85,0,0,0,0,0,0,0,0,0,-1,1434,939,0,0
217,85,0,0,0,0,0,0,0,0,0,-1,1441,939,0,0
224,85,0,0,0,0,0,0,0,0,0,-1,1448,939,0,0
231,85,0,0,0,0,0,0,0,0,0,-1,1455,939,0,0
238,85,0,0,0,0,0,0,0,0,0,-1,1462,939,0,0
245,85,0,0,0,0,0,0,0,0,0,-1,1469,939,0,0
252,85,0,0,0,0,0,0,0,0,0,-1,1476,939,0,0
259,85,0,0,0,0,0,0,0,0,0,-1,1483,939,0,0
266,85,0,0,0,0,0,0,0,0,0,-1,1490,939,0,0
273,85,0,0,0,0,0,0,0,0,0,-1,1497,939,0,0
280,85,0,0,0,0,0,0,0,0,0,-1,1504,939,0,0
287,85,0,0,0,0,0,0,0,0,0,-1,1511,939,0,0
294,85,0,0,0,0,0,0,0,0,0,-1,1518,939,0,0
301,85,0,0,0,0,0,0,0,0,0,-1,1525,939,0,0
308,85,0,0,0,0,0,0,0,0,0,-1,1532,939,0,0
315,85,0,0,0,0,0,0,0,0,0,-1,1539,939,0,0
322,85,0,0,0,0,0,0,0,0,0,-1,1546,939,0,0
329,85,0,0,0,0,0,0,0,0,0,-1,1553,939,0,0
336,85,0,0,0,0,0,0,0,0,0,-1,1560,939,0,0
343,85,0,0,0,0,0,0,0,0,0,-1,1567,939,0,0
350,85,0,0,0,0,0,0,0,0,0,-1,1574,939,0,0
357,85,0,0,0,0,0,0,0,0,0,-1,1581,939,0,0
364,85,0,0,0,0,0,0,0,0,0,-1,1588,939,0,0
371,85,0,0,0,0,0,0,0,0,0,-1,1595,939,0,0
378,85,0,0,0,0,0,0,0,0,0,-1,1602,939,0,0
385,85,0,0,0,0,0,0,0,0,0,-1,1609,939,0,0
392,85,0,0,0,0,0,0,0,0,0,-1,1616,939,0,0
399,85,0,0,0,0,0,0,0,0,0,-1,1623,939,0,0
406,85,0,0,0,0,0,0,0,0,0,-1,1630,939,0,0
413,85,0,0,0,0,0,0,0,0,0,-1,1637,939,0,0
420,85,0,0,0,0,0,0,0,0,0,-1,1644,939,0,0
427,85,0,0,0,0,0,0,0,0,0,-1,1651,939,0,0
434,85,0,0,0,0,0,0,0,0,0,-1,1658,939,0,0
441,85,0,0,0,0,0,0,0,0,0,-1,1665,939,0,0
448,85,0,0,0,0,0,0,0,0,0,-1,1672,939,0,0
455,85,0,0,0,0,0,0,0,0,0,-1,1679,939,0,0
462,85,0,0,0,0,0,0,0,0,0,-1,1686,939,0,0
469,85,0,0,0,0,0,0,0,0,0,-1,1693,939,0,0
476,85,0,0,0,0,0,0,0,0,0,-1,1700,939,0,0
483,85,0,0,0,0,0,0,0,0,0,-1,1707,939,0,0
490,85,0,0,0,0,0,0,0,0,0,-1,1714,939,0,0
497,85,0,0,0,0,0,0,0,0,0,-1,1721,939,0,0
504,85,0,0,0,0,0,0,0,0,0,-1,1728,939,0,0
511,85,0,0,0,0,0,0,0,0,0,-1,1735,939,0,0
518,85,0,0,0,0,0,0,0,0,0,-1,1742,939,0,0
525,85,0,0,0,0,0,0,0,0,0,-1,1749,939,0,0
532,85,0,0,0,0,0,0,0,0,0,-1,1756,939,0,0
539,85,0,0,0,0,0,0,0,0,0,-1,1763,939,0,0
546,85,0,0,0,0,0,0,0,0,0,-1,1770,939,0,0
553,85,0,0,0,0,0,0,0,0,0,-1,1777,939,0,0
560,85,0,0,0,0,0,0,0,0,0,-1,1784,939,0,0
567,85,0,0,0,0,0,0,0,0,0,-1,1791,939,0,0
574,85,0,0,0,0,0,0,0,0,0,-1,1798,939,0,0
581,85,0,0,0,0,0,0,0,0,0,-1,1805,939,0,0
588,85,0,0,0,0,0,0,0,0,0,-1,1812,939,0,0
595,85,0,0,0,0,0,0,0,0,0,-1,1819,939,0,0
602,85,0,0,0,0,0,0,0,0,0,-1,1826,939,0,0
609,85,0,0,0,0,0,0,0,0,0,-1,1833,939,0,0
616,85,0,0,0,0,0,0,0,0,0,-1,1840,939,0,0
623,85,0,0,0,0,0,0,0,0,0,-1,1847,939,0,0
630,85,0,0,0,0,0,0,0,0,0,-1,1854,939,0,0
637,85,4.88757,0.609436,0.000829856,0.00225007,-0.00150495,0.00320404,-0.000124109,-1.00583,0.00217857,0.0465949,1861,939,4.88757,-0.609424
644,85,4.86743,0.484619,0.00125115,0.00184373,-0.00124631,0.00282848,0.000266395,-0.9021,0.00180343,0.0414822,1868,939,4.86738,-0.484589
651,85,4.93457,0.408997,0.00127417,0.00150903,-0.00103616,0.00243439,0.000348811,-0.841825,0.00152005,0.0434289,1875,939,4.93462,-0.408979
658,85,5.03284,0.373169,0,0,0,0,0,0,0,-1,1882,939,5.03287,-0.373178
665,85,4.7644,0.783936,0.000298494,0.000951206,-0.000647659,0.00135009,-0.000100388,-1.01878,0.000935319,0.039863,1889,939,4.76438,-0.783948
672,85,4.94641,0.820068,-0.000386086,0.000723198,-0.000463748,0.000891529,-0.000554418,-1.22261,0.000842346,0.0405736,1896,939,4.94638,-0.820089
679,85,5.07043,0.783936,-0.00104745,0.000539554,-0.000303431,0.00059559,-0.00110349,-1.38818,0.000995465,0.0398544,1903,939,5.07041,-0.783943
686,85,4.9751,0.754761,-0.00162038,0.00036377,-0.000197589,0.000383256,-0.00163986,-1.4725,0.00124088,0.0334769,1910,939,4.97508,-0.754737
693,85,4.93188,0.700256,-0.00196433,0.000197827,-9.60432e-05,0.000202085,-0.00196858,-1.52649,0.00138468,0.0224852,1917,939,4.93192,-0.700282
700,85,4.93213,0.681213,-0.00215699,0.000101371,-3.10124e-05,0.000101797,-0.00215742,-1.55707,0.00147338,0.0192327,1924,939,4.93211,-0.681188
707,85,4.87439,0.661255,-0.00232301,4.2955e-05,2.49623e-05,4.32183e-05,-0.00232327,1.56025,0.00156345,0.0239447,1931,939,4.87441,-0.661227
714,85,4.77673,0.698364,-0.00227092,1.02584e-05,6.60792e-05,1.2171e-05,-0.00227283,1.54186,0.00151929,0.0240872,1938,939,4.7767,-0.698381
721,85,4.78772,0.747559,-0.00215651,2.61816e-05,0.000119323,3.26853e-05,-0.00216302,1.51634,0.00145303,0.0202632,1945,939,4.78772,-0.74754
728,85,4.75806,0.803528,-0.00184527,4.62692e-05,0.000177593,6.27987e-05,-0.0018618,1.47799,0.00126265,0.0153418,1952,939,4.75804,-0.803526
735,85,4.76453,0.782898,-0.00130865,0.000128447,0.000250563,0.000170881,-0.00135108,1.40303,0.00096275,0.0149374,1959,939,4.76456,-0.782923
742,85,4.78857,0.778931,-0.00144836,8.23725e-05,0.000780505,0.000410155,-0.00177614,1.1732,0.00134187,0.0140025,1966,939,4.78861,-0.778908
749,85,4.7644,0.804688,-0.0021996,0.000408635,0.00145192,0.00105613,-0.0028471,1.15131,0.00233127,0.0134099,1973,939,4.76437,-0.804693
756,85,4.74927,0.830261,-0.00328302,0.000886925,0.0017854,0.0015469,-0.003943,1.21672,0.00326868,0.012924,1980,939,4.74927,-0.830239
763,85,4.77649,0.886963,-0.00484924,0.00137983,0.0025156,0.00226887,-0.00573828,1.23109,0.00476539,0.0125038,1987,939,4.77645,-0.886971
770,85,4.79675,0.952026,-0.00743824,0.00209109,0.00342555,0.00319468,-0.00854183,1.25913,0.00700657,0.018607,1994,939,4.79672,-0.952016
777,85,4.7052,1.08789,-0.0112778,0.00312278,0.00447172,0.00439836,-0.0125534,1.29292,0.0101576,0.0412591,2001,939,4.70519,-1.08791
784,85,4.61731,1.20178,0,0,0,0,0,0,0,-1,2008,939,4.61734,-1.20181
791,85,5.91199,0.191956,-0.0240529,0.00676021,0.00653796,0.00809005,-0.0253827,1.37013,0.0201669,0.0486724,2015,939,5.91195,-0.191931
798,85,3.76672,1.04529,-0.0339211,0.00984685,0.00708112,0.010964,-0.0350382,1.41432,0.0277452,0.0438426,2022,939,3.76674,-1.04531
805,85,3.099,0.844177,0,0,0,0,0,0,0,-1,2029,939,3.09899,-0.844206
812,85,0,0,0,0,0,0,0,0,0,-1,2036,939,0,0
-700,78,0,0,0,0,0,0,0,0,0,-1,524,946,0,0
-693,78,0,0,0,0,0,0,0,0,0,-1,531,946,0,0
-686,78,-2.76221,1.00092,0,0,0,0,0,0,0,-1,538,946,-2.76222,-1.0009
-679,78,-2.4375,0.992859,0.0498417,0.0233294,0.0373053,0.076176,-0.00300499,0.614685,0.0518147,0.045508,545,946,-2.43753,-0.992859
-672,78,-2.08704,0.729187,0.0340313,0.0191055,0.0329276,0.0603311,-0.0071943,0.673957,0.0428208,0.0431525,552,946,-2.08704,-0.729166
-665,78,-1.98932,0.57312,0.0224545,0.0153188,0.0281168,0.0472288,-0.0094556,0.722289,0.0350653,0.0443619,559,946,-1.98933,-0.573111
-658,78,-0.964172,1.06024,0.0140782,0.0119913,0.0233173,0.0363754,-0.0103059,0.763037,0.0283177,0.0484729,566,946,-0.964147,-1.06021
-651,78,-0.891479,0.872681,0.00816995,0.00913152,0.0187747,0.0274316,-0.0101302,0.798199,0.0224401,0.0425557,573,946,-0.891496,-0.872662
-644,78,-0.914978,0.856201,0.00416309,0.00673745,0.0146602,0.0201669,-0.00926632,0.829187,0.0173774,0.0242724,580,946,-0.914984,-0.856191
-637,78,-0.935425,0.822083,0.00158932,0.00478851,0.0111016,0.0144052,-0.00802736,0.856949,0.0131248,0.012611,587,946,-0.935429,-0.82206
-630,78,-0.946594,0.791382,-0.000604602,0.00309229,0.00837765,0.009823,-0.0073353,0.893979,0.00994099,0.0121776,594,946,-0.946578,-0.791382
-623,78,-0.964172,0.767273,-0.00210506,0.00191257,0.00573688,0.00598218,-0.00617466,0.953806,0.00701905,0.0111452,601,946,-0.964188,-0.767273
-616,78,-0.957886,0.756226,-0.00260814,0.000821634,0.00397741,0.0034381,-0.00522461,0.988935,0.00503674,0.00942475,608,946,-0.957885,-0.756235
-609,78,-0.93158,0.747925,-0.00291283,0.00021074,0.00242748,0.00153545,-0.00423754,1.07125,0.00345259,0.0109895,615,946,-0.931554,-0.747903
-602,78,-0.93634,0.719238,-0.0026372,-0.000142981,0.00109379,0.000268725,-0.0030489,1.2108,0.00212784,0.0146156,622,946,-0.936355,-0.719231
-595,78,-0.940918,0.698547,-0.00192346,-0.000629221,0.000986704,-9.63628e-05,-0.00245632,1.07563,0.00160639,0.0142784,629,946,-0.940896,-0.698567
-588,78,-0.951172,0.705078,-0.00174508,-0.000728225,0.00110673,-1.87265e-05,-0.00245458,1.00072,0.00163018,0.0127093,636,946,-0.951158,-0.705098
-581,78,-0.965942,0.676147,-0.00178683,-0.000849696,0.00101684,-0.000198657,-0.00243787,1.0013,0.00156324,0.0140817,643,946,-0.965935,-0.676156
-574,78,-1.04132,0.713318,-0.00182758,-0.000800957,0.000822476,-0.000344755,-0.00228378,1.06438,0.0014216,0.0183449,650,946,-1.04131,-0.713326
-567,78,-1.14282,0.76001,-0.00185337,-0.00086174,0.000624634,-0.000560059,-0.00215505,1.12086,0.00129116,0.028082,657,946,-1.14285,-0.759989
-560,78,-1.13501,0.669128,-0.00162042,-0.000749619,0.000322464,-0.000643211,-0.00172683,1.25206,0.00100774,0.0331348,664,946,-1.13504,-0.669138
-553,78,-1.10443,0.645325,-0.00133221,-0.000573345,-0.000159484,-0.00054119,-0.00136436,-1.37185,0.000793305,0.0405963,671,946,-1.10441,-0.645298
-546,78,-1.03436,0.751221,-0.00103164,-0.000195564,-0.00087222,0.000353623,-0.00158083,-1.00887,0.00118941,0.0394146,678,946,-1.03436,-0.751236
-539,78,-1.03125,0.9021,-0.000836779,0.000473668,-0.0018763,0.00180586,-0.00216897,-0.953384,0.00229806,0.0384147,685,946,-1.03126,-0.902108
-532,78,-0.984009,0.936096,-0.000905908,0.00154574,-0.00320921,0.00375527,-0.00311544,-0.967832,0.00397253,0.0397624,692,946,-0.984014,-0.936089
-525,78,-0.877747,0.826782,-0.00151708,0.00315295,-0.00490498,0.00625035,-0.00461448,-1.00755,0.00629647,0.0377284,699,946,-0.877777,-0.826793
-518,78,-1.13788,0.660095,-0.00334054,0.00550757,-0.00707663,0.00942923,-0.0072622,-1.06476,0.00966383,0.0389642,706,946,-1.13788,-0.660091
-511,78,0,0,0,0,0,0,0,0,0,-1,713,946,0,0
-504,78,0,0,0,0,0,0,0,0,0,-1,720,946,0,0
-497,78,0,0,0,0,0,0,0,0,0,-1,727,946,0,0
-490,78,0,0,0,0,0,0,0,0,0,-1,734,946,0,0
-483,78,0,0,0,0,0,0,0,0,0,-1,741,946,0,0
-476,78,0,0,0,0,0,0,0,0,0,-1,748,946,0,0
-469,78,0,0,0,0,0,0,0,0,0,-1,755,946,0,0
-462,78,0,0,0,0,0,0,0,0,0,-1,762,946,0,0
-455,78,0,0,0,0,0,0,0,0,0,-1,769,946,0,0
-448,78,0,0,0,0,0,0,0,0,0,-1,776,946,0,0
-441,78,0,0,0,0,0,0,0,0,0,-1,783,946,0,0
-434,78,0,0,0,0,0,0,0,0,0,-1,790,946,0,0
-427,78,0,0,0,0,0,0,0,0,0,-1,797,946,0,0
-420,78,0,0,0,0,0,0,0,0,0,-1,804,946,0,0
-413,78,0,0,0,0,0,0,0,0,0,-1,811,946,0,0
-406,78,0,0,0,0,0,0,0,0,0,-1,818,946,0,0
-399,78,0,0,0,0,0,0,0,0,0,-1,825,946,0,0
-392,78,0,0,0,0,0,0,0,0,0,-1,832,946,0,0
-385,78,0,0,0,0,0,0,0,0,0,-1,839,946,0,0
-378,78,0,0,0,0,0,0,0,0,0,-1,846,946,0,0
-371,78,0,0,0,0,0,0,0,0,0,-1,853,946,0,0
-364,78,0,0,0,0,0,0,0,0,0,-1,860,946,0,0
-357,78,0,0,0,0,0,0,0,0,0,-1,867,946,0,0
-350,78,0,0,0,0,0,0,0,0,0,-1,874,946,0,0
-343,78,0,0,0,0,0,0,0,0,0,-1,881,946,0,0
-336,78,0,0,0,0,0,0,0,0,0,-1,888,946,0,0
-329,78,0,0,0,0,0,0,0,0,0,-1,895,946,0,0
-322,78,0,0,0,0,0,0,0,0,0,-1,902,946,0,0
-315,78,0,0,0,0,0,0,0,0,0,-1,909,946,0,0
-308,78,0,0,0,0,0,0,0,0,0,-1,916,946,0,0
-301,78,0,0,0,0,0,0,0,0,0,-1,923,946,0,0
-294,78,0,0,0,0,0,0,0,0,0,-1,930,946,0,0
-287,78,0,0,0,0,0,0,0,0,0,-1,937,946,0,0
-280,78,0,0,0,0,0,0,0,0,0,-1,944,946,0,0
-273,78,0,0,0,0,0,0,0,0,0,-1,951,946,0,0
-266,78,0,0,0,0,0,0,0,0,0,-1,958,946,0,0
-259,78,0,0,0,0,0,0,0,0,0,-1,965,946,0,0
-252,78,0,0,0,0,0,0,0,0,0,-1,972,946,0,0
-245,78,0,0,0,0,0,0,0,0,0,-1,979,946,0,0
-238,78,0,0,0,0,0,0,0,0,0,-1,986,946,0,0
-231,78,0,0,0,0,0,0,0,0,0,-1,993,946,0,0
-224,78,0,0,0,0,0,0,0,0,0,-1,1000,946,0,0
-217,78,0,0,0,0,0,0,0,0,0,-1,1007,946,0,0
-210,78,0,0,0,0,0,0,0,0,0,-1,1014,946,0,0
-203,78,0,0,0,0,0,0,0,0,0,-1,1021,946,0,0
-196,78,0,0,0,0,0,0,0,0,0,-1,1028,946,0,0
-189,78,0,0,0,0,0,0,0,0,0,-1,1035,946,0,0
-182,78,0,0,0,0,0,0,0,0,0,-1,1042,946,0,0
-175,78,0,0,0,0,0,0,0,0,0,-1,1049,946,0,0
-168,78,0,0,0,0,0,0,0,0,0,-1,1056,946,0,0
-161,78,0,0,0,0,0,0,0,0,0,-1,1063,946,0,0
-154,78,0,0,0,0,0,0,0,0,0,-1,1070,946,0,0
-147,78,0,0,0,0,0,0,0,0,0,-1,1077,946,0,0
-140,78,0,0,0,0,0,0,0,0,0,-1,1084,946,0,0
-133,78,0,0,0,0,0,0,0,0,0,-1,1091,946,0,0
-126,78,0,0,0,0,0,0,0,0,0,-1,1098,946,0,0
-119,78,0,0,0,0,0,0,0,0,0,-1,1105,946,0,0
-112,78,0,0,0,0,0,0,0,0,0,-1,1112,946,0,0
-105,78,0,0,0,0,0,0,0,0,0,-1,1119,946,0,0
-98,78,0,0,0,0,0,0,0,0,0,-1,1126,946,0,0
-91,78,0,0,0,0,0,0,0,0,0,-1,1133,946,0,0
-84,78,0,0,0,0,0,0,0,0,0,-1,1140,946,0,0
-77,78,0,0,0,0,0,0,0,0,0,-1,1147,946,0,0
-70,78,0,0,0,0,0,0,0,0,0,-1,1154,946,0,0
-63,78,0,0,0,0,0,0,0,0,0,-1,1161,946,0,0
-56,78,0,0,0,0,0,0,0,0,0,-1,1168,946,0,0
-49,78,0,0,0,0,0,0,0,0,0,-1,1175,946,0,0
-42,78,0,0,0,0,0,0,0,0,0,-1,1182,946,0,0
-35,78,0,0,0,0,0,0,0,0,0,-1,1189,946,0,0
-28,78,0,0,0,0,0,0,0,0,0,-1,1196,946,0,0
-21,78,0,0,0,0,0,0,0,0,0,-1,1203,946,0,0
-14,78,0,0,0,0,0,0,0,0,0,-1,1210,946,0,0
-7,78,0,0,0,0,0,0,0,0,0,-1,1217,946,0,0
0,78,0,0,0,0,0,0,0,0,0,-1,1224,946,0,0
7,78,0,0,0,0,0,0,0,0,0,-1,1231,946,0,0
14,78,0,0,0,0,0,0,0,0,0,-1,1238,946,0,0
21,78,0,0,0,0,0,0,0,0,0,-1,1245,946,0,0
28,78,0,0,0,0,0,0,0,0,0,-1,1252,946,0,0
35,78,0,0,0,0,0,0,0,0,0,-1,1259,946,0,0
42,78,0,0,0,0,0,0,0,0,0,-1,1266,946,0,0
49,78,0,0,0,0,0,0,0,0,0,-1,1273,946,0,0
56,78,0,0,0,0,0,0,0,0,0,-1,1280,946,0,0
63,78,0,0,0,0,0,0,0,0,0,-1,1287,946,0,0
70,78,0,0,0,0,0,0,0,0,0,-1,1294,946,0,0
77,78,0,0,0,0,0,0,0,0,0,-1,1301,946,0,0
84,78,0,0,0,0,0,0,0,0,0,-1,1308,946,0,0
91,78,0,0,0,0,0,0,0,0,0,-1,1315,946,0,0
98,78,0,0,0,0,0,0,0,0,0,-1,1322,946,0,0
105,78,0,0,0,0,0,0,0,0,0,-1,1329,946,0,0
112,78,0,0,0,0,0,0,0,0,0,-1,1336,946,0,0
119,78,0,0,0,0,0,0,0,0,0,-1,1343,946,0,0
126,78,0,0,0,0,0,0,0,0,0,-1,1350,946,0,0
133,78,0,0,0,0,0,0,0,0,0,-1,1357,946,0,0
140,78,0,0,0,0,0,0,0,0,0,-1,1364,946,0,0
147,78,0,0,0,0,0,0,0,0,0,-1,1371,946,0,0
154,78,0,0,0,0,0,0,0,0,0,-1,1378,946,0,0
161,78,0,0,0,0,0,0,0,0,0,-1,1385,946,0,0
168,78,0,0,0,0,0,0,0,0,0,-1,1392,946,0,0
175,78,0,0,0,0,0,0,0,0,0,-1,1399,946,0,0
182,78,0,0,0,0,0,0,0,0,0,-1,1406,946,0,0
189,78,0,0,0,0,0,0,0,0,0,-1,1413,946,0,0
196,78,0,0,0,0,0,0,0,0,0,-1,1420,946,0,0
203,78,0,0,0,0,0,0,0,0,0,-1,1427,946,0,0
210,78,0,0,0,0,0,0,0,0,0,-1,1434,946,0,0
217,78,0,0,0,0,0,0,0,0,0,-1,1441,946,0,0
224,78,0,0,0,0,0,0,0,0,0,-1,1448,946,0,0
231,78,0,0,0,0,0,0,0,0,0,-1,1455,946,0,0
238,78,0,0,0,0,0,0,0,0,0,-1,1462,946,0,0
245,78,0,0,0,0,0,0,0,0,0,-1,1469,946,0,0
252,78,0,0,0,0,0,0,0,0,0,-1,1476,946,0,0
259,78,0,0,0,0,0,0,0,0,0,-1,1483,946,0,0
266,78,0,0,0,0,0,0,0,0,0,-1,1490,946,0,0
273,78,0,0,0,0,0,0,0,0,0,-1,1497,946,0,0
280,78,0,0,0,0,0,0,0,0,0,-1,1504,946,0,0
287,78,0,0,0,0,0,0,0,0,0,-1,1511,946,0,0
294,78,0,0,0,0,0,0,0,0,0,-1,1518,946,0,0
301,78,0,0,0,0,0,0,0,0,0,-1,1525,946,0,0
308,78,0,0,0,0,0,0,0,0,0,-1,1532,946,0,0
315,78,0,0,0,0,0,0,0,0,0,-1,1539,946,0,0
322,78,0,0,0,0,0,0,0,0,0,-1,1546,946,0,0
329,78,0,0,0,0,0,0,0,0,0,-1,1553,946,0,0
336,78,0,0,0,0,0,0,0,0,0,-1,1560,946,0,0
343,78,0,0,0,0,0,0,0,0,0,-1,1567,946,0,0
350,78,0,0,0,0,0,0,0,0,0,-1,1574,946,0,0
357,78,0,0,0,0,0,0,0,0,0,-1,1581,946,0,0
364,78,0,0,0,0,0,0,0,0,0,-1,1588,946,0,0
371,78,0,0,0,0,0,0,0,0,0,-1,1595,946,0,0
378,78,0,0,0,0,0,0,0,0,0,-1,1602,946,0,0
385,78,0,0,0,0,0,0,0,0,0,-1,1609,946,0,0
392,78,0,0,0,0,0,0,0,0,0,-1,1616,946,0,0
399,78,0,0,0,0,0,0,0,0,0,-1,1623,946,0,0
406,78,0,0,0,0,0,0,0,0,0,-1,1630,946,0,0
413,78,0,0,0,0,0,0,0,0,0,-1,1637,946,0,0
420,78,0,0,0,0,0,0,0,0,0,-1,1644,946,0,0
427,78,0,0,0,0,0,0,0,0,0,-1,1651,946,0,0
434,78,0,0,0,0,0,0,0,0,0,-1,1658,946,0,0
441,78,0,0,0,0,0,0,0,0,0,-1,1665,946,0,0
448,78,0,0,0,0,0,0,0,0,0,-1,1672,946,0,0
455,78,0,0,0,0,0,0,0,0,0,-1,1679,946,0,0
462,78,0,0,0,0,0,0,0,0,0,-1,1686,946,0,0
469,78,0,0,0,0,0,0,0,0,0,-1,1693,946,0,0
476,78,0,0,0,0,0,0,0,0,0,-1,1700,946,0,0
483,78,0,0,0,0,0,0,0,0,0,-1,1707,946,0,0
490,78,0,0,0,0,0,0,0,0,0,-1,1714,946,0,0
497,78,0,0,0,0,0,0,0,0,0,-1,1721,946,0,0
504,78,0,0,0,0,0,0,0,0,0,-1,1728,946,0,0
511,78,0,0,0,0,0,0,0,0,0,-1,1735,946,0,0
518,78,0,0,0,0,0,0,0,0,0,-1,1742,946,0,0
525,78,0,0,0,0,0,0,0,0,0,-1,1749,946,0,0
532,78,0,0,0,0,0,0,0,0,0,-1,1756,946,0,0
539,78,0,0,0,0,0,0,0,0,0,-1,1763,946,0,0
546,78,0,0,0,0,0,0,0,0,0,-1,1770,946,0,0
553,78,0,0,0,0,0,0,0,0,0,-1,1777,946,0,0
560,78,0,0,0,0,0,0,0,0,0,-1,1784,946,0,0
567,78,0,0,0,0,0,0,0,0,0,-1,1791,946,0,0
574,78,0,0,0,0,0,0,0,0,0,-1,1798,946,0,0
581,78,0,0,0,0,0,0,0,0,0,-1,1805,946,0,0
588,78,0,0,0,0,0,0,0,0,0,-1,1812,946,0,0
595,78,0,0,0,0,0,0,0,0,0,-1,1819,946,0,0
602,78,0,0,0,0,0,0,0,0,0,-1,1826,946,0,0
609,78,0,0,0,0,0,0,0,0,0,-1,1833,946,0,0
616,78,0,0,0,0,0,0,0,0,0,-1,1840,946,0,0
623,78,0,0,0,0,0,0,0,0,0,-1,1847,946,0,0
630,78,0,0,0,0,0,0,0,0,0,-1,1854,946,0,0
637,78,5.05188,0.683655,-0.000902393,0.00229624,-0.00149885,0.00288881,-0.00149496,-1.19431,0.00257326,0.0447443,1861,946,5.05186,-0.68363
644,78,4.99414,0.60553,3.58586e-05,0.00169802,-0.00121847,0.00234185,-0.000607972,-1.08469,0.00179848,0.0441135,1868,946,4.99414,-0.605536
651,78,4.93054,0.533875,0.00048426,0.00128471,-0.000984667,0.00194738,-0.000178411,-0.978428,0.00136163,0.0433919,1875,946,4.9306,-0.533854
658,78,4.95557,0.678345,0.000470666,0.00097221,-0.000748411,0.00151074,-6.78693e-05,-0.947056,0.00103053,0.038923,1882,946,4.95559,-0.678337
665,78,4.92542,0.732239,0.000117736,0.000726602,-0.00053095,0.00103421,-0.000189867,-1.0457,0.000760699,0.0381223,1889,946,4.92546,-0.732222
672,78,5.00513,0.642029,-0.00039572,0.00053515,-0.000325099,0.000637447,-0.000498017,-1.26594,0.000657206,0.0410067,1896,946,5.00514,-0.642019
679,78,5.2019,0.637878,-0.000943898,0.000388855,-0.000143888,0.000404213,-0.000959256,-1.46447,0.000808648,0.0400875,1903,946,5.20186,-0.637881
686,78,5.01282,0.75531,-0.00143147,0.000249177,-2.01593e-05,0.000249418,-0.00143171,-1.5588,0.00104756,0.0377313,1910,946,5.01284,-0.755306
693,78,4.95288,0.696655,-0.00172329,0.000127239,9.94639e-05,0.000132569,-0.00172862,1.51725,0.00119905,0.028048,1917,946,4.95284,-0.696629
700,78,4.93994,0.6875,-0.00188157,6.01827e-05,0.000155179,7.2506e-05,-0.00189389,1.49155,0.00128744,0.0201402,1924,946,4.94,-0.687472
707,78,4.90063,0.710632,-0.00205792,3.55213e-05,0.000186156,5.19461e-05,-0.00207435,1.48279,0.00140053,0.023379,1931,946,4.90061,-0.710611
714,78,4.80579,0.705505,-0.0020731,2.20203e-05,0.000211666,4.31906e-05,-0.00209427,1.47111,0.0014108,0.0187366,1938,946,4.80581,-0.705529
721,78,4.79211,0.750366,-0.00203977,3.62839e-05,0.00026144,6.87012e-05,-0.00207218,1.44743,0.00140492,0.017329,1945,946,4.79206,-0.750352
728,78,4.78552,0.814636,-0.00181132,4.62679e-05,0.000313844,9.78598e-05,-0.00186291,1.40787,0.00127581,0.0174122,1952,946,4.7855,-0.814631
735,78,4.78088,0.788513,-0.0013406,0.00018367,0.0003876,0.000276569,-0.0014335,1.33556,0.00105995,0.0121688,1959,946,4.78085,-0.788516
742,78,4.79163,0.785278,-0.00155144,0.000177498,0.000900162,0.000561068,-0.00193501,1.16798,0.00151213,0.0123135,1966,946,4.79169,-0.785305
749,78,4.77991,0.800842,-0.00245132,0.000560427,0.00150812,0.00118577,-0.00307666,1.17772,0.00254035,0.0132653,1973,946,4.77989,-0.800844
756,78,4.78748,0.814758,-0.00371222,0.00114064,0.00178622,0.00172721,-0.00429878,1.25351,0.00358315,0.0143584,1980,946,4.78746,-0.814778
763,78,4.78564,0.86438,-0.00546476,0.00176084,0.0024674,0.00252302,-0.00622693,1.2712,0.00520047,0.0125967,1987,946,4.7857,-0.864365
770,78,4.81091,0.898865,-0.00829037,0.00265233,0.00330194,0.00357148,-0.00920952,1.2993,0.00761467,0.0163404,1994,946,4.81089,-0.898872
777,78,4.75635,1.08527,-0.0124711,0.00392579,0.00422219,0.00494914,-0.0134944,1.33301,0.0110228,0.0360425,2001,946,4.75633,-1.08525
784,78,4.88623,1.30243,-0.0183823,0.00573473,0.00511693,0.00677548,-0.0194231,1.37014,0.0157023,0.0428114,2008,946,4.88629,-1.30241
791,78,4.98474,1.33301,-0.0264108,0.00828471,0.00572874,0.00920613,-0.0273322,1.41132,0.0219436,0.0422369,2015,946,4.9848,-1.33302
798,78,4.32544,0.742065,-0.0372308,0.0118753,0.00571191,0.0125309,-0.0378865,1.45651,0.0303107,0.0442423,2022,946,4.32546,-0.742083
805,78,3.71252,0.640137,-0.0519341,0.0169595,0.00443432,0.0172438,-0.0522183,1.50678,0.0417641,0.0468466,2029,946,3.7125,-0.640166
812,78,0,0,0,0,0,0,0,0,0,-1,2036,946,0,0
-700,71,0,0,0,0,0,0,0,0,0,-1,524,953,0,0
-693,71,0,0,0,0,0,0,0,0,0,-1,531,953,0,0
-686,71,-2.26312,0.318237,0,0,0,0,0,0,0,-1,538,953,-2.26312,-0.318234
-679,71,-1.96063,0.382019,0.0497616,0.0228995,0.0299364,0.0691418,0.00351933,0.574531,0.0449674,0.0461696,545,953,-1.96066,-0.382025
-672,71,-1.76886,0.304199,0.0335532,0.0185642,0.0271767,0.0542498,-0.00213243,0.650858,0.0368979,0.0446864,552,953,-1.76886,-0.30422
-665,71,-1.42719,0.407593,0.0217404,0.0148188,0.0237683,0.0422985,-0.00573937,0.713103,0.0302939,0.0442699,559,953,-1.42716,-0.407571
-658,71,-1.12463,0.65155,0.013254,0.0115985,0.0201387,0.032582,-0.0077294,0.764858,0.0247042,0.0440311,566,953,-1.12465,-0.651552
-651,71,-0.921082,0.763855,0.00733162,0.00886506,0.016534,0.0246501,-0.00845344,0.808568,0.0198603,0.0414343,573,953,-0.921066,-0.763828
-644,71,-0.923584,0.853516,0.00338133,0.00658738,0.0131457,0.0182275,-0.00825876,0.84607,0.0156487,0.0309798,580,953,-0.92359,-0.853492
-637,71,-0.949097,0.820557,0.00090707,0.00473087,0.0101279,0.0131258,-0.00748783,0.878688,0.0120487,0.0141762,587,953,-0.949086,-0.820578
-630,71,-0.975464,0.787659,-0.00132427,0.00313144,0.00784796,0.00906164,-0.00725446,0.923698,0.00943934,0.013556,594,953,-0.975485,-0.787686
-623,71,-1.00067,0.769104,-0.00274583,0.00201537,0.00548719,0.00561611,-0.00634658,0.990068,0.00691095,0.0128636,601,953,-1.00067,-0.769127
-616,71,-0.995361,0.752197,-0.00300878,0.000958322,0.00388659,0.00333826,-0.00538872,1.02135,0.00508467,0.0119131,608,953,-0.995357,-0.752183
-609,71,-0.959656,0.748779,-0.00299088,0.000337631,0.00243906,0.00162613,-0.00427938,1.08478,0.00352238,0.0134783,615,953,-0.959686,-0.748775
-602,71,-0.950256,0.709839,-0.00252612,3.36426e-05,0.00115074,0.000474897,-0.00296737,1.20464,0.00215407,0.0147143,622,953,-0.950265,-0.709863
-595,71,-0.954529,0.686523,-0.00171531,-0.000458523,0.00092908,3.47191e-05,-0.00220855,1.08274,0.00148408,0.0148743,629,953,-0.954539,-0.686518
-588,71,-0.960571,0.692444,-0.00144145,-0.000649273,0.00102838,5.66582e-05,-0.00214738,0.969221,0.00145084,0.0155643,636,953,-0.960577,-0.692449
-581,71,-0.997498,0.71814,-0.00137111,-0.000759571,0.000962173,-5.57512e-05,-0.00207493,0.939248,0.00136508,0.0207917,643,953,-0.997472,-0.718125
-574,71,-1.08252,0.742737,-0.0013446,-0.000678496,0.000768604,-0.000173887,-0.00184921,0.989847,0.00117913,0.024478,650,953,-1.08249,-0.742713
-567,71,-1.15033,0.738403,-0.00128869,-0.000723558,0.000581249,-0.000359832,-0.00165242,1.01165,0.00100341,0.0201445,657,953,-1.15036,-0.738395
-560,71,-1.21106,0.710876,-0.000991846,-0.000613843,0.000286883,-0.0004593,-0.00114639,1.07667,0.00066621,0.0288327,664,953,-1.21104,-0.71087
-553,71,-1.26404,0.70929,-0.000654312,-0.000412943,-0.000190024,-0.000308519,-0.000758736,-1.06831,0.000440596,0.0413348,671,953,-1.26403,-0.709312
-546,71,-1.14148,0.83667,-0.00033368,7.82611e-06,-0.000908436,0.000761418,-0.00108727,-0.878296,0.00107285,0.0411528,678,953,-1.1415,-0.83667
-539,71,-1.05389,0.89032,-0.000162659,0.000751512,-0.00193841,0.002286,-0.00169715,-0.901185,0.00230803,0.0406188,685,953,-1.05391,-0.890325
-532,71,-0.85022,1.00439,-0.000320763,0.00194491,-0.00332799,0.00432758,-0.00270344,-0.949445,0.0040953,0.0436276,692,953,-0.850228,-1.00442
-525,71,-0.746582,1.00018,-0.00115238,0.00375789,-0.00513767,0.0069969,-0.00439139,-1.00829,0.00663215,0.0412918,699,953,-0.746564,-1.00019
-518,71,0,0,0,0,0,0,0,0,0,-1,706,953,0,0
-511,71,0,0,0,0,0,0,0,0,0,-1,713,953,0,0
-504,71,0,0,0,0,0,0,0,0,0,-1,720,953,0,0
-497,71,0,0,0,0,0,0,0,0,0,-1,727,953,0,0
-490,71,0,0,0,0,0,0,0,0,0,-1,734,953,0,0
-483,71,0,0,0,0,0,0,0,0,0,-1,741,953,0,0
-476,71,0,0,0,0,0,0,0,0,0,-1,748,953,0,0
-469,71,0,0,0,0,0,0,0,0,0,-1,755,953,0,0
-462,71,0,0,0,0,0,0,0,0,0,-1,762,953,0,0
-455,71,0,0,0,0,0,0,0,0,0,-1,769,953,0,0
-448,71,0,0,0,0,0,0,0,0,0,-1,776,953,0,0
-441,71,0,0,0,0,0,0,0,0,0,-1,783,953,0,0
-434,71,0,0,0,0,0,0,0,0,0,-1,790,953,0,0
-427,71,0,0,0,0,0,0,0,0,0,-1,797,953,0,0
-420,71,0,0,0,0,0,0,0,0,0,-1,804,953,0,0
-413,71,0,0,0,0,0,0,0,0,0,-1,811,953,0,0
-406,71,0,0,0,0,0,0,0,0,0,-1,818,953,0,0
-399,71,0,0,0,0,0,0,0,0,0,-1,825,953,0,0
-392,71,0,0,0,0,0,0,0,0,0,-1,832,953,0,0
-385,71,0,0,0,0,0,0,0,0,0,-1,839,953,0,0
-378,71,0,0,0,0,0,0,0,0,0,-1,846,953,0,0
-371,71,0,0,0,0,0,0,0,0,0,-1,853,953,0,0
-364,71,0,0,0,0,0,0,0,0,0,-1,860,953,0,0
-357,71,0,0,0,0,0,0,0,0,0,-1,867,953,0,0
-350,71,0,0,0,0,0,0,0,0,0,-1,874,953,0,0
-343,71,0,0,0,0,0,0,0,0,0,-1,881,953,0,0
-336,71,0,0,0,0,0,0,0,0,0,-1,888,953,0,0
-329,71,0,0,0,0,0,0,0,0,0,-1,895,953,0,0
-322,71,0,0,0,0,0,0,0,0,0,-1,902,953,0,0
-315,71,0,0,0,0,0,0,0,0,0,-1,909,953,0,0
-308,71,0,0,0,0,0,0,0,0,0,-1,916,953,0,0
-301,71,0,0,0,0,0,0,0,0,0,-1,923,953,0,0
-294,71,0,0,0,0,0,0,0,0,0,-1,930,953,0,0
-287,71,0,0,0,0,0,0,0,0,0,-1,937,953,0,0
-280,71,0,0,0,0,0,0,0,0,0,-1,944,953,0,0
-273,71,0,0,0,0,0,0,0,0,0,-1,951,953,0,0
-266,71,0,0,0,0,0,0,0,0,0,-1,958,953,0,0
-259,71,0,0,0,0,0,0,0,0,0,-1,965,953,0,0
-252,71,0,0,0,0,0,0,0,0,0,-1,972,953,0,0
-245,71,0,0,0,0,0,0,0,0,0,-1,979,953,0,0
-238,71,0,0,0,0,0,0,0,0,0,-1,986,953,0,0
-231,71,0,0,0,0,0,0,0,0,0,-1,993,953,0,0
-224,71,0,0,0,0,0,0,0,0,0,-1,1000,953,0,0
-217,71,0,0,0,0,0,0,0,0,0,-1,1007,953,0,0
-210,71,0,0,0,0,0,0,0,0,0,-1,1014,953,0,0
-203,71,0,0,0,0,0,0,0,0,0,-1,1021,953,0,0
-196,71,0,0,0,0,0,0,0,0,0,-1,1028,953,0,0
-189,71,0,0,0,0,0,0,0,0,0,-1,1035,953,0,0
-182,71,0,0,0,0,0,0,0,0,0,-1,1042,953,0,0
-175,71,0,0,0,0,0,0,0,0,0,-1,1049,953,0,0
-168,71,0,0,0,0,0,0,0,0,0,-1,1056,953,0,0
-161,71,0,0,0,0,0,0,0,0,0,-1,1063,953,0,0
-154,71,0,0,0,0,0,0,0,0,0,-1,1070,953,0,0
-147,71,0,0,0,0,0,0,0,0,0,-1,1077,953,0,0
-140,71,0,0,0,0,0,0,0,0,0,-1,1084,953,0,0
-133,71,0,0,0,0,0,0,0,0,0,-1,1091,953,0,0
-126,71,0,0,0,0,0,0,0,0,0,-1,1098,953,0,0
-119,71,0,0,0,0,0,0,0,0,0,-1,1105,953,0,0
-112,71,0,0,0,0,0,0,0,0,0,-1,1112,953,0,0
-105,71,0,0,0,0,0,0,0,0,0,-1,1119,953,0,0
-98,71,0,0,0,0,0,0,0,0,0,-1,1126,953,0,0
-91,71,0,0,0,0,0,0,0,0,0,-1,1133,953,0,0
-84,71,0,0,0,0,0,0,0,0,0,-1,1140,953,0,0
-77,71,0,0,0,0,0,0,0,0,0,-1,1147,953,0,0
-70,71,0,0,0,0,0,0,0,0,0,-1,1154,953,0,0
-63,71,0,0,0,0,0,0,0,0,0,-1,1161,953,0,0
-56,71,0,0,0,0,0,0,0,0,0,-1,1168,953,0,0
-49,71,0,0,0,0,0,0,0,0,0,-1,1175,953,0,0
-42,71,0,0,0,0,0,0,0,0,0,-1,1182,953,0,0
-35,71,0,0,0,0,0,0,0,0,0,-1,1189,953,0,0
-28,71,0,0,0,0,0,0,0,0,0,-1,1196,953,0,0
-21,71,0,0,0,0,0,0,0,0,0,-1,1203,953,0,0
-14,71,0,0,0,0,0,0,0,0,0,-1,1210,953,0,0
-7,71,0,0,0,0,0,0,0,0,0,-1,1217,953,0,0
0,71,0,0,0,0,0,0,0,0,0,-1,1224,953,0,0
7,71,0,0,0,0,0,0,0,0,0,-1,1231,953,0,0
14,71,0,0,0,0,0,0,0,0,0,-1,1238,953,0,0
21,71,0,0,0,0,0,0,0,0,0,-1,1245,953,0,0
28,71,0,0,0,0,0,0,0,0,0,-1,1252,953,0,0
35,71,0,0,0,0,0,0,0,0,0,-1,1259,953,0,0
42,71,0,0,0,0,0,0,0,0,0,-1,1266,953,0,0
49,71,0,0,0,0,0,0,0,0,0,-1,1273,953,0,0
56,71,0,0,0,0,0,0,0,0,0,-1,1280,953,0,0
63,71,0,0,0,0,0,0,0,0,0,-1,1287,953,0,0
70,71,0,0,0,0,0,0,0,0,0,-1,1294,953,0,0
77,71,0,0,0,0,0,0,0,0,0,-1,1301,953,0,0
84,71,0,0,0,0,0,0,0,0,0,-1,1308,953,0,0
91,71,0,0,0,0,0,0,0,0,0,-1,1315,953,0,0
98,71,0,0,0,0,0,0,0,0,0,-1,1322,953,0,0
105,71,0,0,0,0,0,0,0,0,0,-1,1329,953,0,0
112,71,0,0,0,0,0,0,0,0,0,-1,1336,953,0,0
119,71,0,0,0,0,0,0,0,0,0,-1,1343,953,0,0
126,71,0,0,0,0,0,0,0,0,0,-1,1350,953,0,0
133,71,0,0,0,0,0,0,0,0,0,-1,1357,953,0,0
140,71,0,0,0,0,0,0,0,0,0,-1,1364,953,0,0
147,71,0,0,0,0,0,0,0,0,0,-1,1371,953,0,0
154,71,0,0,0,0,0,0,0,0,0,-1,1378,953,0,0
161,71,0,0,0,0,0,0,0,0,0,-1,1385,953,0,0
168,71,0,0,0,0,0,0,0,0,0,-1,1392,953,0,0
175,71,0,0,0,0,0,0,0,0,0,-1,1399,953,0,0
182,71,0,0,0,0,0,0,0,0,0,-1,1406,953,0,0
189,71,0,0,0,0,0,0,0,0,0,-1,1413,953,0,0
196,71,0,0,0,0,0,0,0,0,0,-1,1420,953,0,0
203,71,0,0,0,0,0,0,0,0,0,-1,1427,953,0,0
210,71,0,0,0,0,0,0,0,0,0,-1,1434,953,0,0
217,71,0,0,0,0,0,0,0,0,0,-1,1441,953,0,0
224,71,0,0,0,0,0,0,0,0,0,-1,1448,953,0,0
231,71,0,0,0,0,0,0,0,0,0,-1,1455,953,0,0
238,71,0,0,0,0,0,0,0,0,0,-1,1462,953,0,0
245,71,0,0,0,0,0,0,0,0,0,-1,1469,953,0,0
252,71,0,0,0,0,0,0,0,0,0,-1,1476,953,0,0
259,71,0,0,0,0,0,0,0,0,0,-1,1483,953,0,0
266,71,0,0,0,0,0,0,0,0,0,-1,1490,953,0,0
273,71,0,0,0,0,0,0,0,0,0,-1,1497,953,0,0
280,71,0,0,0,0,0,0,0,0,0,-1,1504,953,0,0
287,71,0,0,0,0,0,0,0,0,0,-1,1511,953,0,0
294,71,0,0,0,0,0,0,0,0,0,-1,1518,953,0,0
301,71,0,0,0,0,0,0,0,0,0,-1,1525,953,0,0
308,71,0,0,0,0,0,0,0,0,0,-1,1532,953,0,0
315,71,0,0,0,0,0,0,0,0,0,-1,1539,953,0,0
322,71,0,0,0,0,0,0,0,0,0,-1,1546,953,0,0
329,71,0,0,0,0,0,0,0,0,0,-1,1553,953,0,0
336,71,0,0,0,0,0,0,0,0,0,-1,1560,953,0,0
343,71,0,0,0,0,0,0,0,0,0,-1,1567,953,0,0
350,71,0,0,0,0,0,0,0,0,0,-1,1574,953,0,0
357,71,0,0,0,0,0,0,0,0,0,-1,1581,953,0,0
364,71,0,0,0,0,0,0,0,0,0,-1,1588,953,0,0
371,71,0,0,0,0,0,0,0,0,0,-1,1595,953,0,0
378,71,0,0,0,0,0,0,0,0,0,-1,1602,953,0,0
385,71,0,0,0,0,0,0,0,0,0,-1,1609,953,0,0
392,71,0,0,0,0,0,0,0,0,0,-1,1616,953,0,0
399,71,0,0,0,0,0,0,0,0,0,-1,1623,953,0,0
406,71,0,0,0,0,0,0,0,0,0,-1,1630,953,0,0
413,71,0,0,0,0,0,0,0,0,0,-1,1637,953,0,0
420,71,0,0,0,0,0,0,0,0,0,-1,1644,953,0,0
427,71,0,0,0,0,0,0,0,0,0,-1,1651,953,0,0
434,71,0,0,0,0,0,0,0,0,0,-1,1658,953,0,0
441,71,0,0,0,0,0,0,0,0,0,-1,1665,953,0,0
448,71,0,0,0,0,0,0,0,0,0,-1,1672,953,0,0
455,71,0,0,0,0,0,0,0,0,0,-1,1679,953,0,0
462,71,0,0,0,0,0,0,0,0,0,-1,1686,953,0,0
469,71,0,0,0,0,0,0,0,0,0,-1,1693,953,0,0
476,71,0,0,0,0,0,0,0,0,0,-1,1700,953,0,0
483,71,0,0,0,0,0,0,0,0,0,-1,1707,953,0,0
490,71,0,0,0,0,0,0,0,0,0,-1,1714,953,0,0
497,71,0,0,0,0,0,0,0,0,0,-1,1721,953,0,0
504,71,0,0,0,0,0,0,0,0,0,-1,1728,953,0,0
511,71,0,0,0,0,0,0,0,0,0,-1,1735,953,0,0
518,71,0,0,0,0,0,0,0,0,0,-1,1742,953,0,0
525,71,0,0,0,0,0,0,0,0,0,-1,1749,953,0,0
532,71,0,0,0,0,0,0,0,0,0,-1,1756,953,0,0
539,71,0,0,0,0,0,0,0,0,0,-1,1763,953,0,0
546,71,0,0,0,0,0,0,0,0,0,-1,1770,953,0,0
553,71,0,0,0,0,0,0,0,0,0,-1,1777,953,0,0
560,71,0,0,0,0,0,0,0,0,0,-1,1784,953,0,0
567,71,0,0,0,0,0,0,0,0,0,-1,1791,953,0,0
574,71,0,0,0,0,0,0,0,0,0,-1,1798,953,0,0
581,71,0,0,0,0,0,0,0,0,0,-1,1805,953,0,0
588,71,0,0,0,0,0,0,0,0,0,-1,1812,953,0,0
595,71,0,0,0,0,0,0,0,0,0,-1,1819,953,0,0
602,71,0,0,0,0,0,0,0,0,0,-1,1826,953,0,0
609,71,0,0,0,0,0,0,0,0,0,-1,1833,953,0,0
616,71,0,0,0,0,0,0,0,0,0,-1,1840,953,0,0
623,71,0,0,0,0,0,0,0,0,0,-1,1847,953,0,0
630,71,0,0,0,0,0,0,0,0,0,-1,1854,953,0,0
637,71,5.18799,0.584961,-0.00245249,0.0025859,-0.000988769,0.00277299,-0.00263959,-1.38379,0.00312527,0.0412111,1861,953,5.18794,-0.584962
644,71,5.08008,0.562012,-0.00103354,0.00191658,-0.000869564,0.00215382,-0.00127078,-1.30446,0.00199898,0.0441834,1868,953,5.08007,-0.56204
651,71,4.90186,0.471191,-0.000222665,0.00144495,-0.000742651,0.00172773,-0.000505445,-1.20698,0.00135216,0.0413787,1875,953,4.90185,-0.471196
658,71,5.00342,0.539734,6.27737e-05,0.00108172,-0.000562263,0.001331,-0.000186504,-1.15349,0.000955588,0.0353547,1882,953,5.00339,-0.539714
665,71,5.01465,0.536255,-6.36638e-05,0.000799801,-0.000370719,0.000937125,-0.000200988,-1.21604,0.000701412,0.0375175,1889,953,5.01462,-0.536261
672,71,5.03992,0.566345,-0.000422311,0.00058105,-0.000179937,0.000612343,-0.000453604,-1.39861,0.000617695,0.0401177,1896,953,5.03994,-0.566342
679,71,5.04834,0.627869,-0.000865696,0.000417647,-2.22348e-06,0.000417651,-0.0008657,-1.56906,0.000755846,0.0378598,1903,953,5.04837,-0.627882
686,71,5.00049,0.582642,-0.00127023,0.000265096,0.000123363,0.000274945,-0.00128007,1.49113,0.000958271,0.0366109,1910,953,5.00049,-0.582633
693,71,4.96338,0.5896,-0.00151774,0.000139695,0.000251555,0.000177034,-0.00155507,1.42344,0.00110048,0.03261,1917,953,4.9634,-0.589624
700,71,4.94055,0.588684,-0.00163178,6.69388e-05,0.00029868,0.000117924,-0.00168276,1.40172,0.00116315,0.0262336,1924,953,4.9405,-0.588656
707,71,4.92529,0.69397,-0.00180443,4.12025e-05,0.000314344,9.32717e-05,-0.0018565,1.40664,0.0012699,0.0167112,1931,953,4.92528,-0.693954
714,71,4.86145,0.729492,-0.0018712,2.45038e-05,0.000337245,8.27123e-05,-0.00192941,1.39988,0.00131471,0.0156141,1938,953,4.86147,-0.72951
721,71,4.80884,0.741882,-0.00190186,4.00546e-05,0.000399832,0.000119156,-0.00198096,1.37548,0.0013621,0.0139363,1945,953,4.80881,-0.741856
728,71,4.77271,0.79718,-0.00172633,4.92749e-05,0.000452033,0.000157729,-0.00183478,1.33532,0.00127901,0.016151,1952,953,4.77267,-0.797161
735,71,4.78613,0.782776,-0.00129814,0.000249609,0.00051757,0.000406733,-0.00145527,1.27606,0.00113042,0.0105361,1959,953,4.78614,-0.782746
742,71,4.82568,0.784912,-0.00154343,0.000302407,0.00100448,0.000743586,-0.00198461,1.15695,0.00162854,0.0118241,1966,953,4.82566,-0.784884
749,71,4.83875,0.79364,-0.00250814,0.000731927,0.00153317,0.00134239,-0.0031186,1.19187,0.00264273,0.0155109,1973,953,4.83877,-0.79365
756,71,4.82593,0.830505,-0.00385027,0.00138885,0.00175549,0.00192268,-0.0043841,1.27559,0.00373251,0.0157969,1980,953,4.82592,-0.830525
763,71,4.81116,0.860291,-0.00568213,0.0021066,0.00236374,0.00276782,-0.00634335,1.29803,0.00539366,0.0131485,1987,953,4.81114,-0.860292
770,71,4.823,0.869568,-0.00860245,0.00313081,0.00308979,0.00389473,-0.00936637,1.32842,0.00787054,0.0145658,1994,953,4.82303,-0.869571
777,71,4.83203,0.907837,-0.0129383,0.00457659,0.00384672,0.00538419,-0.0137459,1.36386,0.0113911,0.0329206,2001,953,4.83204,-0.907808
784,71,4.90967,1.09369,-0.0191034,0.00660262,0.00448841,0.00736379,-0.0198646,1.40281,0.0162632,0.0427467,2008,953,4.90966,-1.0937
791,71,5.03125,1.17444,-0.0275217,0.00941518,0.00470865,0.010006,-0.0281125,1.44598,0.0228203,0.0408336,2015,953,5.03121,-1.17442
798,71,4.78589,0.644348,-0.0389499,0.0133201,0.00408543,0.0136375,-0.0392673,1.49326,0.0317169,0.042452,2022,953,4.78586,-0.644353
805,71,4.354,0.42157,-0.0545915,0.0187807,0.00184931,0.0188273,-0.0546381,1.54561,0.044063,0.0442316,2029,953,4.35402,-0.421541
812,71,0,0,0,0,0,0,0,0,0,-1,2036,953,0,0
-700,64,0,0,0,0,0,0,0,0,0,-1,524,960,0,0
-693,64,0,0,0,0,0,0,0,0,0,-1,531,960,0,0
-686,64,-1.80139,-0.166748,0,0,0,0,0,0,0,-1,538,960,-1.80139,0.166775
-679,64,-1.4386,-0.161987,0.0463384,0.0200224,0.0208125,0.0578034,0.00855737,0.503511,0.0360236,0.0447285,545,960,-1.43859,0.162014
-672,64,-1.16583,-0.286255,0.0302119,0.01586,0.0199983,0.0442827,0.00178919,0.613139,0.0289439,0.0458186,552,960,-1.16582,0.286252
-665,64,-1.03943,0.343567,0.0185978,0.0124031,0.0182517,0.0340131,-0.00301228,0.701348,0.0237433,0.0470274,559,960,-1.03945,-0.343537
-658,64,-0.958191,0.54895,0.0104133,0.00952824,0.016001,0.0259779,-0.00603639,0.771574,0.0196424,0.0435568,566,960,-0.958162,-0.548943
-651,64,-0.915283,0.71991,0.00486191,0.00715939,0.0135126,0.019572,-0.00755068,0.827802,0.0161638,0.0410209,573,960,-0.915271,-0.719897
-644,64,-0.946533,0.828308,0.00131638,0.00523748,0.0110069,0.0144571,-0.0079032,0.873534,0.0130932,0.0298971,580,960,-0.946532,-0.828301
-637,64,-0.963623,0.825134,-0.000757212,0.0037221,0.00868028,0.010447,-0.00748212,0.911653,0.0103985,0.0152811,587,960,-0.963645,-0.825157
-630,64,-0.992065,0.791077,-0.0027706,0.00242191,0.00693533,0.00723101,-0.00757971,0.964499,0.00855176,0.0133373,594,960,-0.992065,-0.791097
-623,64,-1.00562,0.773621,-0.00393091,0.00152806,0.00494212,0.00444433,-0.00684719,1.0377,0.00656818,0.0130384,601,960,-1.00562,-0.773612
-616,64,-1.00946,0.762817,-0.00381104,0.000678853,0.00354516,0.00263009,-0.00576228,1.06765,0.00495654,0.0157237,608,960,-1.00943,-0.762847
-609,64,-0.995789,0.756958,-0.00323106,0.000183087,0.00231066,0.00134886,-0.00439683,1.10354,0.00346937,0.0153183,615,960,-0.995814,-0.756972
-602,64,-0.975281,0.741516,-0.0024343,6.4182e-05,0.00114168,0.000507287,-0.00287741,1.20058,0.00210782,0.0153126,622,960,-0.975277,-0.741524
-595,64,-0.964966,0.688293,-0.00151239,-0.000322171,0.000820846,9.65951e-05,-0.00193115,1.09905,0.00132081,0.0154404,629,960,-0.964962,-0.68827
-588,64,-0.966553,0.71344,-0.00113689,-0.000577568,0.000895762,8.11741e-05,-0.00179563,0.936706,0.00122504,0.020419,636,960,-0.966559,-0.713416
-581,64,-1.01392,0.802979,-0.000939491,-0.000695903,0.000833691,2.48436e-05,-0.00166024,0.85793,0.0011152,0.0262277,643,960,-1.01393,-0.803004
-574,64,-1.06403,0.893555,-0.000827538,-0.000595626,0.000626257,-7.4681e-05,-0.00134848,0.87694,0.000875158,0.0303002,650,960,-1.06403,-0.893577
-567,64,-1.1192,0.692932,-0.000663963,-0.000659803,0.000430946,-0.000230932,-0.00109283,0.787811,0.00066508,0.025352,657,960,-1.1192,-0.692956
-560,64,-1.21387,0.653076,-0.000281286,-0.000608539,0.000120585,-0.000241653,-0.000648172,0.317549,0.000378236,0.0345142,664,960,-1.21387,-0.653054
-553,64,-1.2063,0.8703,0.000137296,-0.000436582,-0.000382336,0.000328389,-0.000627675,-0.463491,0.000560927,0.0400712,671,960,-1.20628,-0.870327
-546,64,-1.21136,1.06329,0.000521627,-3.53003e-05,-0.00114833,0.00142478,-0.000938451,-0.666448,0.00137401,0.040828,678,960,-1.21135,-1.06329
-539,64,-1.22638,0.98407,0,0,0,0,0,0,0,-1,685,960,-1.22636,-0.98408
-532,64,-1.03595,1.03662,0.000537271,0.00194259,-0.00378138,0.00508604,-0.00260619,-0.877261,0.00451738,0.0419121,692,960,-1.03596,-1.03662
-525,64,-0.898132,0.93927,-0.000448653,0.00387315,-0.00581218,0.00791313,-0.00448864,-0.963374,0.00725058,0.0401726,699,960,-0.898163,-0.939277
-518,64,0,0,0,0,0,0,0,0,0,-1,706,960,0,0
-511,64,0,0,0,0,0,0,0,0,0,-1,713,960,0,0
-504,64,0,0,0,0,0,0,0,0,0,-1,720,960,0,0
-497,64,0,0,0,0,0,0,0,0,0,-1,727,960,0,0
-490,64,0,0,0,0,0,0,0,0,0,-1,734,960,0,0
-483,64,0,0,0,0,0,0,0,0,0,-1,741,960,0,0
-476,64,0,0,0,0,0,0,0,0,0,-1,748,960,0,0
-469,64,0,0,0,0,0,0,0,0,0,-1,755,960,0,0
-462,64,0,0,0,0,0,0,0,0,0,-1,762,960,0,0
-455,64,0,0,0,0,0,0,0,0,0,-1,769,960,0,0
-448,64,0,0,0,0,0,0,0,0,0,-1,776,960,0,0
-441,64,0,0,0,0,0,0,0,0,0,-1,783,960,0,0
-434,64,0,0,0,0,0,0,0,0,0,-1,790,960,0,0
-427,64,0,0,0,0,0,0,0,0,0,-1,797,960,0,0
-420,64,0,0,0,0,0,0,0,0,0,-1,804,960,0,0
-413,64,0,0,0,0,0,0,0,0,0,-1,811,960,0,0
-406,64,0,0,0,0,0,0,0,0,0,-1,818,960,0,0
-399,64,0,0,0,0,0,0,0,0,0,-1,825,960,0,0
-392,64,0,0,0,0,0,0,0,0,0,-1,832,960,0,0
-385,64,0,0,0,0,0,0,0,0,0,-1,839,960,0,0
-378,64,0,0,0,0,0,0,0,0,0,-1,846,960,0,0
-371,64,0,0,0,0,0,0,0,0,0,-1,853,960,0,0
-364,64,0,0,0,0,0,0,0,0,0,-1,860,960,0,0
-357,64,0,0,0,0,0,0,0,0,0,-1,867,960,0,0
-350,64,0,0,0,0,0,0,0,0,0,-1,874,960,0,0
-343,64,0,0,0,0,0,0,0,0,0,-1,881,960,0,0
-336,64,0,0,0,0,0,0,0,0,0,-1,888,960,0,0
-329,64,0,0,0,0,0,0,0,0,0,-1,895,960,0,0
-322,64,0,0,0,0,0,0,0,0,0,-1,902,960,0,0
-315,64,0,0,0,0,0,0,0,0,0,-1,909,960,0,0
-308,64,0,0,0,0,0,0,0,0,0,-1,916,960,0,0
-301,64,0,0,0,0,0,0,0,0,0,-1,923,960,0,0
-294,64,0,0,0,0,0,0,0,0,0,-1,930,960,0,0
-287,64,0,0,0,0,0,0,0,0,0,-1,937,960,0,0
-280,64,0,0,0,0,0,0,0,0,0,-1,944,960,0,0
-273,64,0,0,0,0,0,0,0,0,0,-1,951,960,0,0
-266,64,0,0,0,0,0,0,0,0,0,-1,958,960,0,0
-259,64,0,0,0,0,0,0,0,0,0,-1,965,960,0,0
-252,64,0,0,0,0,0,0,0,0,0,-1,972,960,0,0
-245,64,0,0,0,0,0,0,0,0,0,-1,979,960,0,0
-238,64,0,0,0,0,0,0,0,0,0,-1,986,960,0,0
-231,64,0,0,0,0,0,0,0,0,0,-1,993,960,0,0
-224,64,0,0,0,0,0,0,0,0,0,-1,1000,960,0,0
-217,64,0,0,0,0,0,0,0,0,0,-1,1007,960,0,0
-210,64,0,0,0,0,0,0,0,0,0,-1,1014,960,0,0
-203,64,0,0,0,0,0,0,0,0,0,-1,1021,960,0,0
-196,64,0,0,0,0,0,0,0,0,0,-1,1028,960,0,0
-189,64,0,0,0,0,0,0,0,0,0,-1,1035,960,0,0
-182,64,0,0,0,0,0,0,0,0,0,-1,1042,960,0,0
-175,64,0,0,0,0,0,0,0,0,0,-1,1049,960,0,0
-168,64,0,0,0,0,0,0,0,0,0,-1,1056,960,0,0
-161,64,0,0,0,0,0,0,0,0,0,-1,1063,960,0,0
-154,64,0,0,0,0,0,0,0,0,0,-1,1070,960,0,0
-147,64,0,0,0,0,0,0,0,0,0,-1,1077,960,0,0
-140,64,0,0,0,0,0,0,0,0,0,-1,1084,960,0,0
-133,64,0,0,0,0,0,0,0,0,0,-1,1091,960,0,0
-126,64,0,0,0,0,0,0,0,0,0,-1,1098,960,0,0
-119,64,0,0,0,0,0,0,0,0,0,-1,1105,960,0,0
-112,64,0,0,0,0,0,0,0,0,0,-1,1112,960,0,0
-105,64,0,0,0,0,0,0,0,0,0,-1,1119,960,0,0
-98,64,0,0,0,0,0,0,0,0,0,-1,1126,960,0,0
-91,64,0,0,0,0,0,0,0,0,0,-1,1133,960,0,0
-84,64,0,0,0,0,0,0,0,0,0,-1,1140,960,0,0
-77,64,0,0,0,0,0,0,0,0,0,-1,1147,960,0,0
-70,64,0,0,0,0,0,0,0,0,0,-1,1154,960,0,0
-63,64,0,0,0,0,0,0,0,0,0,-1,1161,960,0,0
-56,64,0,0,0,0,0,0,0,0,0,-1,1168,960,0,0
-49,64,0,0,0,0,0,0,0,0,0,-1,1175,960,0,0
-42,64,0,0,0,0,0,0,0,0,0,-1,1182,960,0,0
-35,64,0,0,0,0,0,0,0,0,0,-1,1189,960,0,0
-28,64,0,0,0,0,0,0,0,0,0,-1,1196,960,0,0
-21,64,0,0,0,0,0,0,0,0,0,-1,1203,960,0,0
-14,64,0,0,0,0,0,0,0,0,0,-1,1210,960,0,0
-7,64,0,0,0,0,0,0,0,0,0,-1,1217,960,0,0
0,64,0,0,0,0,0,0,0,0,0,-1,1224,960,0,0
7,64,0,0,0,0,0,0,0,0,0,-1,1231,960,0,0
14,64,0,0,0,0,0,0,0,0,0,-1,1238,960,0,0
21,64,0,0,0,0,0,0,0,0,0,-1,1245,960,0,0
28,64,0,0,0,0,0,0,0,0,0,-1,1252,960,0,0
35,64,0,0,0,0,0,0,0,0,0,-1,1259,960,0,0
42,64,0,0,0,0,0,0,0,0,0,-1,1266,960,0,0
49,64,0,0,0,0,0,0,0,0,0,-1,1273,960,0,0
56,64,0,0,0,0,0,0,0,0,0,-1,1280,960,0,0
63,64,0,0,0,0,0,0,0,0,0,-1,1287,960,0,0
70,64,0,0,0,0,0,0,0,0,0,-1,1294,960,0,0
77,64,0,0,0,0,0,0,0,0,0,-1,1301,960,0,0
84,64,0,0,0,0,0,0,0,0,0,-1,1308,960,0,0
91,64,0,0,0,0,0,0,0,0,0,-1,1315,960,0,0
98,64,0,0,0,0,0,0,0,0,0,-1,1322,960,0,0
105,64,0,0,0,0,0,0,0,0,0,-1,1329,960,0,0
112,64,0,0,0,0,0,0,0,0,0,-1,1336,960,0,0
119,64,0,0,0,0,0,0,0,0,0,-1,1343,960,0,0
126,64,0,0,0,0,0,0,0,0,0,-1,1350,960,0,0
133,64,0,0,0,0,0,0,0,0,0,-1,1357,960,0,0
140,64,0,0,0,0,0,0,0,0,0,-1,1364,960,0,0
147,64,0,0,0,0,0,0,0,0,0,-1,1371,960,0,0
154,64,0,0,0,0,0,0,0,0,0,-1,1378,960,0,0
161,64,0,0,0,0,0,0,0,0,0,-1,1385,960,0,0
168,64,0,0,0,0,0,0,0,0,0,-1,1392,960,0,0
175,64,0,0,0,0,0,0,0,0,0,-1,1399,960,0,0
182,64,0,0,0,0,0,0,0,0,0,-1,1406,960,0,0
189,64,0,0,0,0,0,0,0,0,0,-1,1413,960,0,0
196,64,0,0,0,0,0,0,0,0,0,-1,1420,960,0,0
203,64,0,0,0,0,0,0,0,0,0,-1,1427,960,0,0
210,64,0,0,0,0,0,0,0,0,0,-1,1434,960,0,0
217,64,0,0,0,0,0,0,0,0,0,-1,1441,960,0,0
224,64,0,0,0,0,0,0,0,0,0,-1,1448,960,0,0
231,64,0,0,0,0,0,0,0,0,0,-1,1455,960,0,0
238,64,0,0,0,0,0,0,0,0,0,-1,1462,960,0,0
245,64,0,0,0,0,0,0,0,0,0,-1,1469,960,0,0
252,64,0,0,0,0,0,0,0,0,0,-1,1476,960,0,0
259,64,0,0,0,0,0,0,0,0,0,-1,1483,960,0,0
266,64,0,0,0,0,0,0,0,0,0,-1,1490,960,0,0
273,64,0,0,0,0,0,0,0,0,0,-1,1497,960,0,0
280,64,0,0,0,0,0,0,0,0,0,-1,1504,960,0,0
287,64,0,0,0,0,0,0,0,0,0,-1,1511,960,0,0
294,64,0,0,0,0,0,0,0,0,0,-1,1518,960,0,0
301,64,0,0,0,0,0,0,0,0,0,-1,1525,960,0,0
308,64,0,0,0,0,0,0,0,0,0,-1,1532,960,0,0
315,64,0,0,0,0,0,0,0,0,0,-1,1539,960,0,0
322,64,0,0,0,0,0,0,0,0,0,-1,1546,960,0,0
329,64,0,0,0,0,0,0,0,0,0,-1,1553,960,0,0
336,64,0,0,0,0,0,0,0,0,0,-1,1560,960,0,0
343,64,0,0,0,0,0,0,0,0,0,-1,1567,960,0,0
350,64,0,0,0,0,0,0,0,0,0,-1,1574,960,0,0
357,64,0,0,0,0,0,0,0,0,0,-1,1581,960,0,0
364,64,0,0,0,0,0,0,0,0,0,-1,1588,960,0,0
371,64,0,0,0,0,0,0,0,0,0,-1,1595,960,0,0
378,64,0,0,0,0,0,0,0,0,0,-1,1602,960,0,0
385,64,0,0,0,0,0,0,0,0,0,-1,1609,960,0,0
392,64,0,0,0,0,0,0,0,0,0,-1,1616,960,0,0
399,64,0,0,0,0,0,0,0,0,0,-1,1623,960,0,0
406,64,0,0,0,0,0,0,0,0,0,-1,1630,960,0,0
413,64,0,0,0,0,0,0,0,0,0,-1,1637,960,0,0
420,64,0,0,0,0,0,0,0,0,0,-1,1644,960,0,0
427,64,0,0,0,0,0,0,0,0,0,-1,1651,960,0,0
434,64,0,0,0,0,0,0,0,0,0,-1,1658,960,0,0
441,64,0,0,0,0,0,0,0,0,0,-1,1665,960,0,0
448,64,0,0,0,0,0,0,0,0,0,-1,1672,960,0,0
455,64,0,0,0,0,0,0,0,0,0,-1,1679,960,0,0
462,64,0,0,0,0,0,0,0,0,0,-1,1686,960,0,0
469,64,0,0,0,0,0,0,0,0,0,-1,1693,960,0,0
476,64,0,0,0,0,0,0,0,0,0,-1,1700,960,0,0
483,64,0,0,0,0,0,0,0,0,0,-1,1707,960,0,0
490,64,0,0,0,0,0,0,0,0,0,-1,1714,960,0,0
497,64,0,0,0,0,0,0,0,0,0,-1,1721,960,0,0
504,64,0,0,0,0,0,0,0,0,0,-1,1728,960,0,0
511,64,0,0,0,0,0,0,0,0,0,-1,1735,960,0,0
518,64,0,0,0,0,0,0,0,0,0,-1,1742,960,0,0
525,64,0,0,0,0,0,0,0,0,0,-1,1749,960,0,0
532,64,0,0,0,0,0,0,0,0,0,-1,1756,960,0,0
539,64,0,0,0,0,0,0,0,0,0,-1,1763,960,0,0
546,64,0,0,0,0,0,0,0,0,0,-1,1770,960,0,0
553,64,0,0,0,0,0,0,0,0,0,-1,1777,960,0,0
560,64,0,0,0,0,0,0,0,0,0,-1,1784,960,0,0
567,64,0,0,0,0,0,0,0,0,0,-1,1791,960,0,0
574,64,0,0,0,0,0,0,0,0,0,-1,1798,960,0,0
581,64,0,0,0,0,0,0,0,0,0,-1,1805,960,0,0
588,64,0,0,0,0,0,0,0,0,0,-1,1812,960,0,0
595,64,0,0,0,0,0,0,0,0,0,-1,1819,960,0,0
602,64,0,0,0,0,0,0,0,0,0,-1,1826,960,0,0
609,64,0,0,0,0,0,0,0,0,0,-1,1833,960,0,0
616,64,0,0,0,0,0,0,0,0,0,-1,1840,960,0,0
623,64,0,0,0,0,0,0,0,0,0,-1,1847,960,0,0
630,64,0,0,0,0,0,0,0,0,0,-1,1854,960,0,0
637,64,0,0,0,0,0,0,0,0,0,-1,1861,960,0,0
644,64,5.04065,0.518005,-0.0016434,0.00218215,-0.000541077,0.0022572,-0.00171845,-1.43296,0.00230236,0.042535,1868,960,5.04064,-0.518013
651,64,4.9585,0.572571,-0.000650071,0.00159384,-0.000467747,0.00168743,-0.00074367,-1.3733,0.00143842,0.0414074,1875,960,4.95848,-0.572596
658,64,4.97473,0.698792,-0.000194618,0.00112548,-0.000320336,0.00119911,-0.000268245,-1.34488,0.000902213,0.0371356,1882,960,4.97468,-0.698782
665,64,4.9873,0.502808,-0.000171807,0.000763806,-0.00014976,0.000787193,-0.000195193,-1.41588,0.000600529,0.0414379,1889,960,4.98726,-0.502832
672,64,5.06238,0.53363,-0.00041859,0.000488459,2.13926e-05,0.000488964,-0.000419095,1.54723,0.000524785,0.0421797,1896,960,5.0624,-0.533627
679,64,5.00745,0.542908,-0.000782067,0.000290664,0.000183734,0.000321261,-0.000812664,1.40578,0.000674852,0.0373414,1903,960,5.0075,-0.5429
686,64,4.96655,0.493958,-0.00112301,0.0001332,0.000300337,0.000201313,-0.00119112,1.34778,0.000868994,0.0347459,1910,960,4.9666,-0.493975
693,64,4.96204,0.486145,-0.00133361,7.81885e-06,0.000421399,0.000129212,-0.00145501,1.29032,0.00101582,0.0317881,1917,960,4.96204,-0.486132
700,64,4.94519,0.572205,-0.00140595,-6.74728e-05,0.000453148,7.15116e-05,-0.00154493,1.2732,0.0010546,0.0243151,1924,960,4.94522,-0.572191
707,64,4.92603,0.700195,-0.00156282,-8.67076e-05,0.000446626,3.79074e-05,-0.00168744,1.2987,0.0011378,0.0161365,1931,960,4.92599,-0.700168
714,64,4.91309,0.736755,-0.00166882,-8.07325e-05,0.000455233,4.05069e-05,-0.00179006,1.31051,0.0012071,0.0140013,1938,960,4.91312,-0.736752
721,64,4.81616,0.733765,-0.0017513,-2.24736e-05,0.000519637,0.000121693,-0.00189547,1.30017,0.0013061,0.0130661,1945,960,4.81613,-0.733743
728,64,4.78271,0.768005,-0.00161219,4.48835e-05,0.000551886,0.000211862,-0.00177917,1.27699,0.00126267,0.013843,1952,960,4.78266,-0.767983
735,64,4.80652,0.785278,-0.00120266,0.000323448,0.000602972,0.00053293,-0.00141214,1.23643,0.0011606,0.0144697,1959,960,4.80657,-0.785251
742,64,4.85144,0.810059,-0.00144111,0.000436304,0.00105671,0.000911036,-0.00191584,1.14856,0.00166611,0.0132519,1966,960,4.85141,-0.810068
749,64,4.83765,0.823242,-0.00237942,0.00094589,0.00150669,0.00152701,-0.00296055,1.20268,0.00263459,0.0126994,1973,960,4.8377,-0.823231
756,64,4.83435,0.849731,-0.00369454,0.00167432,0.00168555,0.00215963,-0.00417985,1.29046,0.00372153,0.0142661,1980,960,4.83433,-0.849708
763,64,4.82849,0.872437,-0.00547473,0.0024882,0.00222878,0.00306958,-0.00605611,1.31563,0.00536194,0.0132801,1987,960,4.82851,-0.872415
770,64,4.82507,0.854919,-0.00831382,0.00363174,0.00286583,0.00428369,-0.00896577,1.34711,0.00780717,0.0130697,1994,960,4.82509,-0.854903
777,64,4.71375,0.828003,-0.0125717,0.00522266,0.00349758,0.00588544,-0.0132345,1.38352,0.0113075,0.0296587,2001,960,4.71369,-0.828017
784,64,4.56702,0.861023,-0.0186898,0.00742109,0.00394901,0.00800527,-0.019274,1.42393,0.0161914,0.0461018,2008,960,4.56705,-0.861002
791,64,4.39087,0.976196,-0.027109,0.0104208,0.00386644,0.010815,-0.0275032,1.4692,0.0228117,0.0485588,2015,960,4.39083,-0.976218
798,64,4.20361,1.02722,0,0,0,0,0,0,0,-1,2022,960,4.20356,-1.02722
805,64,4.776,0.0831299,0,0,0,0,0,0,0,-1,2029,960,4.77605,-0.0831239
812,64,0,0,0,0,0,0,0,0,0,-1,2036,960,0,0
-700,57,0,0,0,0,0,0,0,0,0,-1,524,967,0,0
-693,57,0,0,0,0,0,0,0,0,0,-1,531,967,0,0
-686,57,-1.81073,-0.650574,0.0664717,0.0211735,0.0119952,0.069452,0.0181932,0.243528,0.0415854,0.0434025,538,967,-1.81074,0.650569
-679,57,-0.954163,-0.799133,0.0442624,0.0162597,0.014338,0.0503014,0.0102207,0.398637,0.0306998,0.0454848,545,967,-0.954165,0.799128
-672,57,-0.466675,-0.691101,0.0282751,0.012406,0.0148583,0.0371847,0.00349635,0.540155,0.0237105,0.0464887,552,967,-0.466647,0.691096
-665,57,-0.254456,-0.586731,0.0167745,0.00934184,0.0142656,0.0277998,-0.00168355,0.657976,0.0191191,0.0466842,559,967,-0.254426,0.586757
-658,57,-1.57861,0.376831,0.00872629,0.00690174,0.0129833,0.0208293,-0.0052013,0.750323,0.015906,0.0477356,566,967,-1.5786,-0.376831
-651,57,-1.0047,0.685364,0,0,0,0,0,0,0,-1,573,967,-1.0047,-0.685359
-644,57,-1.01379,0.732056,-1.62156e-06,0.00348994,0.00941939,0.011324,-0.00783565,0.877028,0.0111228,0.0279861,580,967,-1.01381,-0.732068
-637,57,-0.987122,0.803345,-0.00186624,0.00238296,0.0076128,0.00816207,-0.00764535,0.921477,0.00912804,0.0149511,587,967,-0.987148,-0.803329
-630,57,-1.00134,0.781311,-0.003796,0.00144238,0.00626617,0.00561473,-0.00796835,0.983357,0.00788134,0.0127854,594,967,-1.00132,-0.781329
-623,57,-0.992188,0.775635,-0.00478043,0.000842642,0.00454482,0.00337528,-0.00731307,1.0624,0.00630897,0.0115682,601,967,-0.992192,-0.77562
-616,57,-0.99176,0.756714,-0.00432671,0.000257308,0.00328789,0.00197323,-0.00604263,1.08979,0.00482266,0.0137111,608,967,-0.991782,-0.756687
-609,57,-0.996765,0.745239,-0.00340383,-4.97723e-05,0.00217353,0.0010185,-0.0044721,1.11398,0.00337256,0.0147309,615,967,-0.996788,-0.745254
-602,57,-0.996033,0.740173,-0.00234507,-9.77193e-06,0.00110962,0.000433375,-0.00278822,1.19084,0.00201884,0.0104968,622,967,-0.99603,-0.740191
-595,57,-1.00275,0.710754,-0.00128652,-0.000255087,0.00072469,0.000118657,-0.00166026,1.09464,0.00114844,0.0111208,629,967,-1.00273,-0.710784
-588,57,-1.02271,0.731567,-0.000791501,-0.000521073,0.000765212,0.00012078,-0.00143335,0.872846,0.000998268,0.0154019,636,967,-1.02271,-0.731591
-581,57,-1.04919,0.83905,-0.000455397,-0.000650022,0.000708771,0.00016271,-0.00126813,0.717176,0.000904548,0.0228743,643,967,-1.0492,-0.83904
-574,57,-1.09662,0.827576,-0.000246833,-0.000531592,0.000495964,0.000126784,-0.000905209,0.645619,0.00064987,0.0283478,650,967,-1.09663,-0.827591
-567,57,-1.08917,0.649536,3.76875e-05,-0.000604266,0.000303211,0.000158257,-0.000724835,0.378472,0.000543708,0.032748,657,967,-1.08916,-0.649558
-560,57,-1.12384,0.661621,0.000511277,-0.000590393,-4.23983e-06,0.000511294,-0.00059041,-0.00384847,0.000636615,0.0404512,664,967,-1.12383,-0.661612
-553,57,-1.0498,0.890869,0.00101902,-0.000431746,-0.000516265,0.00118398,-0.000596706,-0.309273,0.00104655,0.0405012,671,967,-1.04982,-0.890899
-546,57,-1.05255,0.989258,0,0,0,0,0,0,0,-1,678,967,-1.05253,-0.989261
-539,57,-0.655273,0.36676,0.00172233,0.000722953,-0.00247607,0.00374863,-0.00130335,-0.685832,0.00302851,0.0445668,685,967,-0.655284,-0.366734
-532,57,-1.09875,0.755493,0.00152114,0.00200907,-0.0040991,0.00587146,-0.00234124,-0.815121,0.00488544,0.0397633,692,967,-1.09875,-0.755475
-525,57,-1.07489,0.646057,0.000405518,0.00406044,-0.00630943,0.00880173,-0.00433578,-0.926361,0.00772965,0.0368916,699,967,-1.07489,-0.646083
-518,57,0,0,0,0,0,0,0,0,0,-1,706,967,0,0
-511,57,0,0,0,0,0,0,0,0,0,-1,713,967,0,0
-504,57,0,0,0,0,0,0,0,0,0,-1,720,967,0,0
-497,57,0,0,0,0,0,0,0,0,0,-1,727,967,0,0
-490,57,0,0,0,0,0,0,0,0,0,-1,734,967,0,0
-483,57,0,0,0,0,0,0,0,0,0,-1,741,967,0,0
-476,57,0,0,0,0,0,0,0,0,0,-1,748,967,0,0
-469,57,0,0,0,0,0,0,0,0,0,-1,755,967,0,0
-462,57,0,0,0,0,0,0,0,0,0,-1,762,967,0,0
-455,57,0,0,0,0,0,0,0,0,0,-1,769,967,0,0
-448,57,0,0,0,0,0,0,0,0,0,-1,776,967,0,0
-441,57,0,0,0,0,0,0,0,0,0,-1,783,967,0,0
-434,57,0,0,0,0,0,0,0,0,0,-1,790,967,0,0
-427,57,0,0,0,0,0,0,0,0,0,-1,797,967,0,0
-420,57,0,0,0,0,0,0,0,0,0,-1,804,967,0,0
-413,57,0,0,0,0,0,0,0,0,0,-1,811,967,0,0
-406,57,0,0,0,0,0,0,0,0,0,-1,818,967,0,0
-399,57,0,0,0,0,0,0,0,0,0,-1,825,967,0,0
-392,57,0,0,0,0,0,0,0,0,0,-1,832,967,0,0
-385,57,0,0,0,0,0,0,0,0,0,-1,839,967,0,0
-378,57,0,0,0,0,0,0,0,0,0,-1,846,967,0,0
-371,57,0,0,0,0,0,0,0,0,0,-1,853,967,0,0
-364,57,0,0,0,0,0,0,0,0,0,-1,860,967,0,0
-357,57,0,0,0,0,0,0,0,0,0,-1,867,967,0,0
-350,57,0,0,0,0,0,0,0,0,0,-1,874,967,0,0
-343,57,0,0,0,0,0,0,0,0,0,-1,881,967,0,0
-336,57,0,0,0,0,0,0,0,0,0,-1,888,967,0,0
-329,57,0,0,0,0,0,0,0,0,0,-1,895,967,0,0
-322,57,0,0,0,0,0,0,0,0,0,-1,902,967,0,0
-315,57,0,0,0,0,0,0,0,0,0,-1,909,967,0,0
-308,57,0,0,0,0,0,0,0,0,0,-1,916,967,0,0
-301,57,0,0,0,0,0,0,0,0,0,-1,923,967,0,0
-294,57,0,0,0,0,0,0,0,0,0,-1,930,967,0,0
-287,57,0,0,0,0,0,0,0,0,0,-1,937,967,0,0
-280,57,0,0,0,0,0,0,0,0,0,-1,944,967,0,0
-273,57,0,0,0,0,0,0,0,0,0,-1,951,967,0,0
-266,57,0,0,0,0,0,0,0,0,0,-1,958,967,0,0
-259,57,0,0,0,0,0,0,0,0,0,-1,965,967,0,0
-252,57,0,0,0,0,0,0,0,0,0,-1,972,967,0,0
-245,57,0,0,0,0,0,0,0,0,0,-1,979,967,0,0
-238,57,0,0,0,0,0,0,0,0,0,-1,986,967,0,0
-231,57,0,0,0,0,0,0,0,0,0,-1,993,967,0,0
-224,57,0,0,0,0,0,0,0,0,0,-1,1000,967,0,0
-217,57,0,0,0,0,0,0,0,0,0,-1,1007,967,0,0
-210,57,0,0,0,0,0,0,0,0,0,-1,1014,967,0,0
-203,57,0,0,0,0,0,0,0,0,0,-1,1021,967,0,0
-196,57,0,0,0,0,0,0,0,0,0,-1,1028,967,0,0
-189,57,0,0,0,0,0,0,0,0,0,-1,1035,967,0,0
-182,57,0,0,0,0,0,0,0,0,0,-1,1042,967,0,0
-175,57,0,0,0,0,0,0,0,0,0,-1,1049,967,0,0
-168,57,0,0,0,0,0,0,0,0,0,-1,1056,967,0,0
-161,57,0,0,0,0,0,0,0,0,0,-1,1063,967,0,0
-154,57,0,0,0,0,0,0,0,0,0,-1,1070,967,0,0
-147,57,0,0,0,0,0,0,0,0,0,-1,1077,967,0,0
-140,57,0,0,0,0,0,0,0,0,0,-1,1084,967,0,0
-133,57,0,0,0,0,0,0,0,0,0,-1,1091,967,0,0
-126,57,0,0,0,0,0,0,0,0,0,-1,1098,967,0,0
-119,57,0,0,0,0,0,0,0,0,0,-1,1105,967,0,0
-112,57,0,0,0,0,0,0,0,0,0,-1,1112,967,0,0
-105,57,0,0,0,0,0,0,0,0,0,-1,1119,967,0,0
-98,57,0,0,0,0,0,0,0,0,0,-1,1126,967,0,0
-91,57,0,0,0,0,0,0,0,0,0,-1,1133,967,0,0
-84,57,0,0,0,0,0,0,0,0,0,-1,1140,967,0,0
-77,57,0,0,0,0,0,0,0,0,0,-1,1147,967,0,0
-70,57,0,0,0,0,0,0,0,0,0,-1,1154,967,0,0
-63,57,0,0,0,0,0,0,0,0,0,-1,1161,967,0,0
-56,57,0,0,0,0,0,0,0,0,0,-1,1168,967,0,0
-49,57,0,0,0,0,0,0,0,0,0,-1,1175,967,0,0
-42,57,0,0,0,0,0,0,0,0,0,-1,1182,967,0,0
-35,57,0,0,0,0,0,0,0,0,0,-1,1189,967,0,0
-28,57,0,0,0,0,0,0,0,0,0,-1,1196,967,0,0
-21,57,0,0,0,0,0,0,0,0,0,-1,1203,967,0,0
-14,57,0,0,0,0,0,0,0,0,0,-1,1210,967,0,0
-7,57,0,0,0,0,0,0,0,0,0,-1,1217,967,0,0
0,57,0,0,0,0,0,0,0,0,0,-1,1224,967,0,0
7,57,0,0,0,0,0,0,0,0,0,-1,1231,967,0,0
14,57,0,0,0,0,0,0,0,0,0,-1,1238,967,0,0
21,57,0,0,0,0,0,0,0,0,0,-1,1245,967,0,0
28,57,0,0,0,0,0,0,0,0,0,-1,1252,967,0,0
35,57,0,0,0,0,0,0,0,0,0,-1,1259,967,0,0
42,57,0,0,0,0,0,0,0,0,0,-1,1266,967,0,0
49,57,0,0,0,0,0,0,0,0,0,-1,1273,967,0,0
56,57,0,0,0,0,0,0,0,0,0,-1,1280,967,0,0
63,57,0,0,0,0,0,0,0,0,0,-1,1287,967,0,0
70,57,0,0,0,0,0,0,0,0,0,-1,1294,967,0,0
77,57,0,0,0,0,0,0,0,0,0,-1,1301,967,0,0
84,57,0,0,0,0,0,0,0,0,0,-1,1308,967,0,0
91,57,0,0,0,0,0,0,0,0,0,-1,1315,967,0,0
98,57,0,0,0,0,0,0,0,0,0,-1,1322,967,0,0
105,57,0,0,0,0,0,0,0,0,0,-1,1329,967,0,0
112,57,0,0,0,0,0,0,0,0,0,-1,1336,967,0,0
119,57,0,0,0,0,0,0,0,0,0,-1,1343,967,0,0
126,57,0,0,0,0,0,0,0,0,0,-1,1350,967,0,0
133,57,0,0,0,0,0,0,0,0,0,-1,1357,967,0,0
140,57,0,0,0,0,0,0,0,0,0,-1,1364,967,0,0
147,57,0,0,0,0,0,0,0,0,0,-1,1371,967,0,0
154,57,0,0,0,0,0,0,0,0,0,-1,1378,967,0,0
161,57,0,0,0,0,0,0,0,0,0,-1,1385,967,0,0
168,57,0,0,0,0,0,0,0,0,0,-1,1392,967,0,0
175,57,0,0,0,0,0,0,0,0,0,-1,1399,967,0,0
182,57,0,0,0,0,0,0,0,0,0,-1,1406,967,0,0
189,57,0,0,0,0,0,0,0,0,0,-1,1413,967,0,0
196,57,0,0,0,0,0,0,0,0,0,-1,1420,967,0,0
203,57,0,0,0,0,0,0,0,0,0,-1,1427,967,0,0
210,57,0,0,0,0,0,0,0,0,0,-1,1434,967,0,0
217,57,0,0,0,0,0,0,0,0,0,-1,1441,967,0,0
224,57,0,0,0,0,0,0,0,0,0,-1,1448,967,0,0
231,57,0,0,0,0,0,0,0,0,0,-1,1455,967,0,0
238,57,0,0,0,0,0,0,0,0,0,-1,1462,967,0,0
245,57,0,0,0,0,0,0,0,0,0,-1,1469,967,0,0
252,57,0,0,0,0,0,0,0,0,0,-1,1476,967,0,0
259,57,0,0,0,0,0,0,0,0,0,-1,1483,967,0,0
266,57,0,0,0,0,0,0,0,0,0,-1,1490,967,0,0
273,57,0,0,0,0,0,0,0,0,0,-1,1497,967,0,0
280,57,0,0,0,0,0,0,0,0,0,-1,1504,967,0,0
287,57,0,0,0,0,0,0,0,0,0,-1,1511,967,0,0
294,57,0,0,0,0,0,0,0,0,0,-1,1518,967,0,0
301,57,0,0,0,0,0,0,0,0,0,-1,1525,967,0,0
308,57,0,0,0,0,0,0,0,0,0,-1,1532,967,0,0
315,57,0,0,0,0,0,0,0,0,0,-1,1539,967,0,0
322,57,0,0,0,0,0,0,0,0,0,-1,1546,967,0,0
329,57,0,0,0,0,0,0,0,0,0,-1,1553,967,0,0
336,57,0,0,0,0,0,0,0,0,0,-1,1560,967,0,0
343,57,0,0,0,0,0,0,0,0,0,-1,1567,967,0,0
350,57,0,0,0,0,0,0,0,0,0,-1,1574,967,0,0
357,57,0,0,0,0,0,0,0,0,0,-1,1581,967,0,0
364,57,0,0,0,0,0,0,0,0,0,-1,1588,967,0,0
371,57,0,0,0,0,0,0,0,0,0,-1,1595,967,0,0
378,57,0,0,0,0,0,0,0,0,0,-1,1602,967,0,0
385,57,0,0,0,0,0,0,0,0,0,-1,1609,967,0,0
392,57,0,0,0,0,0,0,0,0,0,-1,1616,967,0,0
399,57,0,0,0,0,0,0,0,0,0,-1,1623,967,0,0
406,57,0,0,0,0,0,0,0,0,0,-1,1630,967,0,0
413,57,0,0,0,0,0,0,0,0,0,-1,1637,967,0,0
420,57,0,0,0,0,0,0,0,0,0,-1,1644,967,0,0
427,57,0,0,0,0,0,0,0,0,0,-1,1651,967,0,0
434,57,0,0,0,0,0,0,0,0,0,-1,1658,967,0,0
441,57,0,0,0,0,0,0,0,0,0,-1,1665,967,0,0
448,57,0,0,0,0,0,0,0,0,0,-1,1672,967,0,0
455,57,0,0,0,0,0,0,0,0,0,-1,1679,967,0,0
462,57,0,0,0,0,0,0,0,0,0,-1,1686,967,0,0
469,57,0,0,0,0,0,0,0,0,0,-1,1693,967,0,0
476,57,0,0,0,0,0,0,0,0,0,-1,1700,967,0,0
483,57,0,0,0,0,0,0,0,0,0,-1,1707,967,0,0
490,57,0,0,0,0,0,0,0,0,0,-1,1714,967,0,0
497,57,0,0,0,0,0,0,0,0,0,-1,1721,967,0,0
504,57,0,0,0,0,0,0,0,0,0,-1,1728,967,0,0
511,57,0,0,0,0,0,0,0,0,0,-1,1735,967,0,0
518,57,0,0,0,0,0,0,0,0,0,-1,1742,967,0,0
525,57,0,0,0,0,0,0,0,0,0,-1,1749,967,0,0
532,57,0,0,0,0,0,0,0,0,0,-1,1756,967,0,0
539,57,0,0,0,0,0,0,0,0,0,-1,1763,967,0,0
546,57,0,0,0,0,0,0,0,0,0,-1,1770,967,0,0
553,57,0,0,0,0,0,0,0,0,0,-1,1777,967,0,0
560,57,0,0,0,0,0,0,0,0,0,-1,1784,967,0,0
567,57,0,0,0,0,0,0,0,0,0,-1,1791,967,0,0
574,57,0,0,0,0,0,0,0,0,0,-1,1798,967,0,0
581,57,0,0,0,0,0,0,0,0,0,-1,1805,967,0,0
588,57,0,0,0,0,0,0,0,0,0,-1,1812,967,0,0
595,57,0,0,0,0,0,0,0,0,0,-1,1819,967,0,0
602,57,0,0,0,0,0,0,0,0,0,-1,1826,967,0,0
609,57,0,0,0,0,0,0,0,0,0,-1,1833,967,0,0
616,57,0,0,0,0,0,0,0,0,0,-1,1840,967,0,0
623,57,0,0,0,0,0,0,0,0,0,-1,1847,967,0,0
630,57,0,0,0,0,0,0,0,0,0,-1,1854,967,0,0
637,57,0,0,0,0,0,0,0,0,0,-1,1861,967,0,0
644,57,5.03992,0.546997,-0.00234986,0.00202867,-0.000181636,0.00203619,-0.00235738,-1.52941,0.00253889,0.0408915,1868,967,5.03995,-0.546995
651,57,4.97278,0.689697,-0.00114982,0.0013077,-0.000132109,0.00131478,-0.00115691,-1.51725,0.001428,0.0354487,1875,967,4.97278,-0.689721
658,57,4.91125,0.726685,-0.000519508,0.000748126,-2.27784e-05,0.000748535,-0.000519917,-1.55283,0.000736295,0.0356107,1882,967,4.91127,-0.726694
665,57,5.00745,0.519714,-0.000337027,0.000343681,0.000105543,0.00035967,-0.000353016,1.42045,0.000411475,0.0433173,1889,967,5.0074,-0.519713
672,57,5.09583,0.499573,-0.000457369,6.13708e-05,0.000232229,0.000150143,-0.000546141,1.20567,0.000423117,0.0422723,1896,967,5.09579,-0.499585
679,57,5.00952,0.566162,-0.000729559,-0.000117386,0.000355244,4.54488e-05,-0.000892394,1.141,0.000610643,0.0390917,1903,967,5.00954,-0.566164
686,57,4.9436,0.500122,-0.0009979,-0.000229183,0.000446267,-2.45717e-05,-0.00120251,1.1409,0.000793611,0.0384407,1910,967,4.94361,-0.50012
693,57,4.922,0.507385,-0.00116623,-0.000304843,0.0005446,-4.12133e-05,-0.00142986,1.11997,0.000939806,0.0309686,1917,967,4.92203,-0.507412
700,57,4.93677,0.589783,-0.00119132,-0.000344177,0.000555702,-6.90232e-05,-0.00146648,1.11104,0.000955475,0.0203974,1924,967,4.9368,-0.589779
707,57,4.92566,0.699219,-0.0013272,-0.000299901,0.000521295,-8.17147e-05,-0.00154539,1.1744,0.00100413,0.0175256,1931,967,4.92568,-0.699197
714,57,4.92371,0.757324,-0.00146637,-0.000235995,0.000511235,-5.12975e-05,-0.00165107,1.22411,0.00108402,0.0171615,1938,967,4.92372,-0.757302
721,57,4.84985,0.730713,-0.00158954,-0.000121491,0.00057401,7.62995e-05,-0.00178733,1.23896,0.00121779,0.0158226,1945,967,4.84987,-0.730742
728,57,4.82751,0.780518,-0.00149189,5.86066e-06,0.000595539,0.000213793,-0.00169982,1.23488,0.00121079,0.0184604,1952,967,4.82754,-0.780538
735,57,4.82129,0.81781,-0.00113211,0.000328199,0.000652371,0.000577184,-0.00138109,1.2062,0.00116193,0.0179701,1959,967,4.82133,-0.817836
742,57,4.84399,0.820251,-0.00135957,0.00048122,0.00106254,0.000966568,-0.00184492,1.14232,0.00164941,0.0142737,1966,967,4.84401,-0.820237
749,57,4.81299,0.827942,-0.00224358,0.000937445,0.00138753,0.00145761,-0.00276375,1.21212,0.00247579,0.0124999,1973,967,4.81299,-0.827949
756,57,4.81287,0.835144,-0.00349491,0.00161232,0.00150064,0.00202061,-0.00390319,1.30515,0.0034772,0.0108426,1980,967,4.81292,-0.835155
763,57,4.83289,0.838257,-0.0051816,0.00235058,0.00192382,0.0028135,-0.00564452,1.33466,0.00497358,0.0113913,1987,967,4.83287,-0.838275
770,57,4.81641,0.845459,-0.007862,0.00338714,0.00239336,0.00387518,-0.00835004,1.36964,0.00721412,0.010726,1994,967,4.81647,-0.845477
777,57,4.76038,0.854187,-0.0119148,0.00483648,0.0027963,0.00529094,-0.0123693,1.40968,0.0104656,0.0275053,2001,967,4.76035,-0.854163
784,57,4.83936,0.909302,-0.0177905,0.00686263,0.00293268,0.00720669,-0.0181346,1.45401,0.0150774,0.0488408,2008,967,4.83932,-0.909312
791,57,3.97522,1.03131,0,0,0,0,0,0,0,-1,2015,967,3.97517,-1.03132
798,57,5.74438,-0.968567,0,0,0,0,0,0,0,-1,2022,967,5.7444,0.968581
805,57,5.0498,-0.761292,0,0,0,0,0,0,0,-1,2029,967,5.04976,0.761318
812,57,0,0,0,0,0,0,0,0,0,-1,2036,967,0,0
-700,50,0,0,0,0,0,0,0,0,0,-1,524,974,0,0
-693,50,-2.90704,-0.735657,0,0,0,0,0,0,0,-1,531,974,-2.90703,0.735643
-686,50,-1.41107,-1.65369,0.0630086,0.0162644,0.0050263,0.0635429,0.0157301,0.105915,0.0382135,0.0459367,538,974,-1.41108,1.6537
-679,50,-0.55127,-0.920349,0.0418506,0.0120404,0.00867062,0.0441891,0.00970185,0.263435,0.0268169,0.0442775,545,974,-0.551251,0.920346
-672,50,0.00427246,-0.989136,0,0,0,0,0,0,0,-1,552,974,0.00428336,0.98915
-665,50,-0.365112,-0.489868,0,0,0,0,0,0,0,-1,559,974,-0.365098,0.489893
-658,50,0.394897,-0.679016,0,0,0,0,0,0,0,-1,566,974,0.394885,0.679032
-651,50,-0.272217,-0.0531006,0.00227499,0.0031314,0.00944601,0.0121589,-0.00675252,0.808048,0.0110662,0.0444628,573,974,-0.272192,0.0530816
-644,50,-0.988159,0.712646,-0.000918714,0.00207779,0.00813251,0.00884891,-0.00768984,0.876492,0.00955646,0.0253286,580,974,-0.988137,-0.712661
-637,50,-1.01263,0.758667,-0.00265171,0.00132944,0.00679773,0.00642205,-0.00774433,0.927831,0.00819083,0.0127166,587,974,-1.01265,-0.758668
-630,50,-1.00616,0.762634,-0.00451521,0.000715021,0.00577294,0.00443754,-0.00823773,0.998069,0.0074269,0.00979632,594,974,-1.00617,-0.762664
-623,50,-0.998596,0.761169,-0.00532702,0.000336847,0.0042544,0.00261567,-0.00760584,1.07905,0.00613133,0.0103907,601,974,-0.998611,-0.761143
-616,50,-0.998352,0.746033,-0.00463269,-1.94656e-05,0.00309746,0.00153588,-0.00618803,1.10544,0.00472133,0.0108777,608,974,-0.998329,-0.746046
-609,50,-1.005,0.736511,-0.00347101,-0.000171288,0.00209244,0.000843496,-0.00448579,1.11924,0.00330774,0.0107439,615,974,-1.005,-0.736536
-602,50,-1.02734,0.715515,-0.00222934,-6.31265e-05,0.00109066,0.000390861,-0.00268333,1.17636,0.00193239,0.0103445,622,974,-1.02736,-0.715491
-595,50,-1.04187,0.716125,-0.00106081,-0.000172027,0.000618047,0.000144809,-0.00137764,1.09709,0.000970306,0.0102743,629,974,-1.04188,-0.716143
-588,50,-1.05719,0.752563,-0.000453132,-0.000408347,0.000631015,0.000200673,-0.00106215,0.803134,0.000783605,0.0114212,636,974,-1.05721,-0.752585
-581,50,-1.10187,0.759705,-7.44871e-06,-0.000514715,0.000590088,0.000381206,-0.00090337,0.582424,0.000761801,0.019317,643,974,-1.10187,-0.759732
-574,50,-1.12634,0.710327,0.000270112,-0.000341028,0.000386559,0.00045729,-0.000528207,0.450942,0.000569468,0.0260698,650,974,-1.12633,-0.710314
-567,50,-1.05707,0.635376,0.000639231,-0.000361019,0.000209801,0.000681454,-0.000403242,0.1986,0.000633079,0.0362242,657,974,-1.05704,-0.635386
-560,50,-1.02502,0.662231,0.00116501,-0.000283323,-8.20343e-05,0.00116964,-0.000287955,-0.0563999,0.000891389,0.043212,664,974,-1.02503,-0.662207
-553,50,-1.00275,0.788086,0.0017119,-5.05019e-05,-0.000579709,0.00188548,-0.000224089,-0.290942,0.00133796,0.0419802,671,974,-1.00277,-0.788082
-546,50,-0.999329,0.865723,0,0,0,0,0,0,0,-1,678,974,-0.999352,-0.865695
-539,50,-0.705505,0.406494,0.00245567,0.00130436,-0.00255012,0.0044943,-0.000734269,-0.67439,0.00326857,0.0434255,685,974,-0.705518,-0.406498
-532,50,-0.706116,0.414185,0.00224226,0.00274269,-0.00422208,0.00672197,-0.00173702,-0.814996,0.00515873,0.043854,692,974,-0.706113,-0.414204
-525,50,-1.00409,0.334961,0.00108722,0.00502539,-0.0065531,0.00989885,-0.00378624,-0.931347,0.00815958,0.0401704,699,974,-1.00409,-0.334946
-518,50,0,0,0,0,0,0,0,0,0,-1,706,974,0,0
-511,50,0,0,0,0,0,0,0,0,0,-1,713,974,0,0
-504,50,0,0,0,0,0,0,0,0,0,-1,720,974,0,0
-497,50,0,0,0,0,0,0,0,0,0,-1,727,974,0,0
-490,50,0,0,0,0,0,0,0,0,0,-1,734,974,0,0
-483,50,0,0,0,0,0,0,0,0,0,-1,741,974,0,0
-476,50,0,0,0,0,0,0,0,0,0,-1,748,974,0,0
-469,50,0,0,0,0,0,0,0,0,0,-1,755,974,0,0
-462,50,0,0,0,0,0,0,0,0,0,-1,762,974,0,0
-455,50,0,0,0,0,0,0,0,0,0,-1,769,974,0,0
-448,50,0,0,0,0,0,0,0,0,0,-1,776,974,0,0
-441,50,0,0,0,0,0,0,0,0,0,-1,783,974,0,0
-434,50,0,0,0,0,0,0,0,0,0,-1,790,974,0,0
-427,50,0,0,0,0,0,0,0,0,0,-1,797,974,0,0
-420,50,0,0,0,0,0,0,0,0,0,-1,804,974,0,0
-413,50,0,0,0,0,0,0,0,0,0,-1,811,974,0,0
-406,50,0,0,0,0,0,0,0,0,0,-1,818,974,0,0
-399,50,0,0,0,0,0,0,0,0,0,-1,825,974,0,0
-392,50,0,0,0,0,0,0,0,0,0,-1,832,974,0,0
-385,50,0,0,0,0,0,0,0,0,0,-1,839,974,0,0
-378,50,0,0,0,0,0,0,0,0,0,-1,846,974,0,0
-371,50,0,0,0,0,0,0,0,0,0,-1,853,974,0,0
-364,50,0,0,0,0,0,0,0,0,0,-1,860,974,0,0
-357,50,0,0,0,0,0,0,0,0,0,-1,867,974,0,0
-350,50,0,0,0,0,0,0,0,0,0,-1,874,974,0,0
-343,50,0,0,0,0,0,0,0,0,0,-1,881,974,0,0
-336,50,0,0,0,0,0,0,0,0,0,-1,888,974,0,0
-329,50,0,0,0,0,0,0,0,0,0,-1,895,974,0,0
-322,50,0,0,0,0,0,0,0,0,0,-1,902,974,0,0
-315,50,0,0,0,0,0,0,0,0,0,-1,909,974,0,0
-308,50,0,0,0,0,0,0,0,0,0,-1,916,974,0,0
-301,50,0,0,0,0,0,0,0,0,0,-1,923,974,0,0
-294,50,0,0,0,0,0,0,0,0,0,-1,930,974,0,0
-287,50,0,0,0,0,0,0,0,0,0,-1,937,974,0,0
-280,50,0,0,0,0,0,0,0,0,0,-1,944,974,0,0
-273,50,0,0,0,0,0,0,0,0,0,-1,951,974,0,0
-266,50,0,0,0,0,0,0,0,0,0,-1,958,974,0,0
-259,50,0,0,0,0,0,0,0,0,0,-1,965,974,0,0
-252,50,0,0,0,0,0,0,0,0,0,-1,972,974,0,0
-245,50,0,0,0,0,0,0,0,0,0,-1,979,974,0,0
-238,50,0,0,0,0,0,0,0,0,0,-1,986,974,0,0
-231,50,0,0,0,0,0,0,0,0,0,-1,993,974,0,0
-224,50,0,0,0,0,0,0,0,0,0,-1,1000,974,0,0
-217,50,0,0,0,0,0,0,0,0,0,-1,1007,974,0,0
-210,50,0,0,0,0,0,0,0,0,0,-1,1014,974,0,0
-203,50,0,0,0,0,0,0,0,0,0,-1,1021,974,0,0
-196,50,0,0,0,0,0,0,0,0,0,-1,1028,974,0,0
-189,50,0,0,0,0,0,0,0,0,0,-1,1035,974,0,0
-182,50,0,0,0,0,0,0,0,0,0,-1,1042,974,0,0
-175,50,0,0,0,0,0,0,0,0,0,-1,1049,974,0,0
-168,50,0,0,0,0,0,0,0,0,0,-1,1056,974,0,0
-161,50,0,0,0,0,0,0,0,0,0,-1,1063,974,0,0
-154,50,0,0,0,0,0,0,0,0,0,-1,1070,974,0,0
-147,50,0,0,0,0,0,0,0,0,0,-1,1077,974,0,0
-140,50,0,0,0,0,0,0,0,0,0,-1,1084,974,0,0
-133,50,0,0,0,0,0,0,0,0,0,-1,1091,974,0,0
-126,50,0,0,0,0,0,0,0,0,0,-1,1098,974,0,0
-119,50,0,0,0,0,0,0,0,0,0,-1,1105,974,0,0
-112,50,0,0,0,0,0,0,0,0,0,-1,1112,974,0,0
-105,50,0,0,0,0,0,0,0,0,0,-1,1119,974,0,0
-98,50,0,0,0,0,0,0,0,0,0,-1,1126,974,0,0
-91,50,0,0,0,0,0,0,0,0,0,-1,1133,974,0,0
-84,50,0,0,0,0,0,0,0,0,0,-1,1140,974,0,0
-77,50,0,0,0,0,0,0,0,0,0,-1,1147,974,0,0
-70,50,0,0,0,0,0,0,0,0,0,-1,1154,974,0,0
-63,50,0,0,0,0,0,0,0,0,0,-1,1161,974,0,0
-56,50,0,0,0,0,0,0,0,0,0,-1,1168,974,0,0
-49,50,0,0,0,0,0,0,0,0,0,-1,1175,974,0,0
-42,50,0,0,0,0,0,0,0,0,0,-1,1182,974,0,0
-35,50,0,0,0,0,0,0,0,0,0,-1,1189,974,0,0
-28,50,0,0,0,0,0,0,0,0,0,-1,1196,974,0,0
-21,50,0,0,0,0,0,0,0,0,0,-1,1203,974,0,0
-14,50,0,0,0,0,0,0,0,0,0,-1,1210,974,0,0
-7,50,0,0,0,0,0,0,0,0,0,-1,1217,974,0,0
0,50,0,0,0,0,0,0,0,0,0,-1,1224,974,0,0
7,50,0,0,0,0,0,0,0,0,0,-1,1231,974,0,0
14,50,0,0,0,0,0,0,0,0,0,-1,1238,974,0,0
21,50,0,0,0,0,0,0,0,0,0,-1,1245,974,0,0
28,50,0,0,0,0,0,0,0,0,0,-1,1252,974,0,0
35,50,0,0,0,0,0,0,0,0,0,-1,1259,974,0,0
42,50,0,0,0,0,0,0,0,0,0,-1,1266,974,0,0
49,50,0,0,0,0,0,0,0,0,0,-1,1273,974,0,0
56,50,0,0,0,0,0,0,0,0,0,-1,1280,974,0,0
63,50,0,0,0,0,0,0,0,0,0,-1,1287,974,0,0
70,50,0,0,0,0,0,0,0,0,0,-1,1294,974,0,0
77,50,0,0,0,0,0,0,0,0,0,-1,1301,974,0,0
84,50,0,0,0,0,0,0,0,0,0,-1,1308,974,0,0
91,50,0,0,0,0,0,0,0,0,0,-1,1315,974,0,0
98,50,0,0,0,0,0,0,0,0,0,-1,1322,974,0,0
105,50,0,0,0,0,0,0,0,0,0,-1,1329,974,0,0
112,50,0,0,0,0,0,0,0,0,0,-1,1336,974,0,0
119,50,0,0,0,0,0,0,0,0,0,-1,1343,974,0,0
126,50,0,0,0,0,0,0,0,0,0,-1,1350,974,0,0
133,50,0,0,0,0,0,0,0,0,0,-1,1357,974,0,0
140,50,0,0,0,0,0,0,0,0,0,-1,1364,974,0,0
147,50,0,0,0,0,0,0,0,0,0,-1,1371,974,0,0
154,50,0,0,0,0,0,0,0,0,0,-1,1378,974,0,0
161,50,0,0,0,0,0,0,0,0,0,-1,1385,974,0,0
168,50,0,0,0,0,0,0,0,0,0,-1,1392,974,0,0
175,50,0,0,0,0,0,0,0,0,0,-1,1399,974,0,0
182,50,0,0,0,0,0,0,0,0,0,-1,1406,974,0,0
189,50,0,0,0,0,0,0,0,0,0,-1,1413,974,0,0
196,50,0,0,0,0,0,0,0,0,0,-1,1420,974,0,0
203,50,0,0,0,0,0,0,0,0,0,-1,1427,974,0,0
210,50,0,0,0,0,0,0,0,0,0,-1,1434,974,0,0
217,50,0,0,0,0,0,0,0,0,0,-1,1441,974,0,0
224,50,0,0,0,0,0,0,0,0,0,-1,1448,974,0,0
231,50,0,0,0,0,0,0,0,0,0,-1,1455,974,0,0
238,50,0,0,0,0,0,0,0,0,0,-1,1462,974,0,0
245,50,0,0,0,0,0,0,0,0,0,-1,1469,974,0,0
252,50,0,0,0,0,0,0,0,0,0,-1,1476,974,0,0
259,50,0,0,0,0,0,0,0,0,0,-1,1483,974,0,0
266,50,0,0,0,0,0,0,0,0,0,-1,1490,974,0,0
273,50,0,0,0,0,0,0,0,0,0,-1,1497,974,0,0
280,50,0,0,0,0,0,0,0,0,0,-1,1504,974,0,0
287,50,0,0,0,0,0,0,0,0,0,-1,1511,974,0,0
294,50,0,0,0,0,0,0,0,0,0,-1,1518,974,0,0
301,50,0,0,0,0,0,0,0,0,0,-1,1525,974,0,0
308,50,0,0,0,0,0,0,0,0,0,-1,1532,974,0,0
315,50,0,0,0,0,0,0,0,0,0,-1,1539,974,0,0
322,50,0,0,0,0,0,0,0,0,0,-1,1546,974,0,0
329,50,0,0,0,0,0,0,0,0,0,-1,1553,974,0,0
336,50,0,0,0,0,0,0,0,0,0,-1,1560,974,0,0
343,50,0,0,0,0,0,0,0,0,0,-1,1567,974,0,0
350,50,0,0,0,0,0,0,0,0,0,-1,1574,974,0,0
357,50,0,0,0,0,0,0,0,0,0,-1,1581,974,0,0
364,50,0,0,0,0,0,0,0,0,0,-1,1588,974,0,0
371,50,0,0,0,0,0,0,0,0,0,-1,1595,974,0,0
378,50,0,0,0,0,0,0,0,0,0,-1,1602,974,0,0
385,50,0,0,0,0,0,0,0,0,0,-1,1609,974,0,0
392,50,0,0,0,0,0,0,0,0,0,-1,1616,974,0,0
399,50,0,0,0,0,0,0,0,0,0,-1,1623,974,0,0
406,50,0,0,0,0,0,0,0,0,0,-1,1630,974,0,0
413,50,0,0,0,0,0,0,0,0,0,-1,1637,974,0,0
420,50,0,0,0,0,0,0,0,0,0,-1,1644,974,0,0
427,50,0,0,0,0,0,0,0,0,0,-1,1651,974,0,0
434,50,0,0,0,0,0,0,0,0,0,-1,1658,974,0,0
441,50,0,0,0,0,0,0,0,0,0,-1,1665,974,0,0
448,50,0,0,0,0,0,0,0,0,0,-1,1672,974,0,0
455,50,0,0,0,0,0,0,0,0,0,-1,1679,974,0,0
462,50,0,0,0,0,0,0,0,0,0,-1,1686,974,0,0
469,50,0,0,0,0,0,0,0,0,0,-1,1693,974,0,0
476,50,0,0,0,0,0,0,0,0,0,-1,1700,974,0,0
483,50,0,0,0,0,0,0,0,0,0,-1,1707,974,0,0
490,50,0,0,0,0,0,0,0,0,0,-1,1714,974,0,0
497,50,0,0,0,0,0,0,0,0,0,-1,1721,974,0,0
504,50,0,0,0,0,0,0,0,0,0,-1,1728,974,0,0
511,50,0,0,0,0,0,0,0,0,0,-1,1735,974,0,0
518,50,0,0,0,0,0,0,0,0,0,-1,1742,974,0,0
525,50,0,0,0,0,0,0,0,0,0,-1,1749,974,0,0
532,50,0,0,0,0,0,0,0,0,0,-1,1756,974,0,0
539,50,0,0,0,0,0,0,0,0,0,-1,1763,974,0,0
546,50,0,0,0,0,0,0,0,0,0,-1,1770,974,0,0
553,50,0,0,0,0,0,0,0,0,0,-1,1777,974,0,0
560,50,0,0,0,0,0,0,0,0,0,-1,1784,974,0,0
567,50,0,0,0,0,0,0,0,0,0,-1,1791,974,0,0
574,50,0,0,0,0,0,0,0,0,0,-1,1798,974,0,0
581,50,0,0,0,0,0,0,0,0,0,-1,1805,974,0,0
588,50,0,0,0,0,0,0,0,0,0,-1,1812,974,0,0
595,50,0,0,0,0,0,0,0,0,0,-1,1819,974,0,0
602,50,0,0,0,0,0,0,0,0,0,-1,1826,974,0,0
609,50,0,0,0,0,0,0,0,0,0,-1,1833,974,0,0
616,50,0,0,0,0,0,0,0,0,0,-1,1840,974,0,0
623,50,0,0,0,0,0,0,0,0,0,-1,1847,974,0,0
630,50,0,0,0,0,0,0,0,0,0,-1,1854,974,0,0
637,50,0,0,0,0,0,0,0,0,0,-1,1861,974,0,0
644,50,4.95728,0.582031,-0.00290614,0.00177525,0.000146885,0.00177985,-0.00291074,1.53946,0.00273423,0.0376506,1868,974,4.95727,-0.582045
651,50,4.7876,0.619446,-0.00151484,0.0010297,0.000147249,0.0010382,-0.00152333,1.51318,0.00148771,0.0321134,1875,974,4.78764,-0.619454
658,50,4.70898,0.667908,-0.000746347,0.000464782,0.000193811,0.00049504,-0.000776605,1.41592,0.00074016,0.0361101,1882,974,4.70895,-0.66793
665,50,4.86047,0.600586,-0.000436095,8.003e-05,0.000265822,0.000192451,-0.000548516,1.17069,0.000443956,0.0402949,1889,974,4.86044,-0.600571
672,50,5.00366,0.52356,-0.000453939,-0.000170832,0.000345537,6.10221e-05,-0.000685793,0.979802,0.000478834,0.0404876,1896,974,5.00363,-0.523586
679,50,4.90796,0.632446,-0.000656075,-0.000314642,0.000432818,-2.00899e-05,-0.000950628,0.973246,0.000627162,0.039738,1903,974,4.90793,-0.632437
686,50,4.81873,0.594055,-0.000871383,-0.000384334,0.000502555,-6.94094e-05,-0.00118631,1.01101,0.00076878,0.0407755,1910,974,4.81868,-0.594077
693,50,4.83655,0.525208,-0.00101166,-0.000421056,0.00058336,-6.25125e-05,-0.0013702,1.0197,0.000893358,0.0358557,1917,974,4.83657,-0.525182
700,50,4.90417,0.632935,-0.00100259,-0.000441416,0.000582597,-7.53584e-05,-0.00136865,1.00981,0.000888377,0.0187275,1924,974,4.90418,-0.632904
707,50,4.90662,0.708313,-0.00111606,-0.000355786,0.000539324,-7.6093e-05,-0.00139575,1.09238,0.000906202,0.019254,1931,974,4.90661,-0.708299
714,50,4.93164,0.739014,-0.00128284,-0.000269704,0.000529005,-4.38384e-05,-0.0015087,1.16727,0.000991512,0.0180747,1938,974,4.93161,-0.73899
721,50,4.87585,0.742249,-0.00144842,-0.000143771,0.000596372,8.7752e-05,-0.00167995,1.20049,0.00115033,0.0158559,1945,974,4.87589,-0.742249
728,50,4.85693,0.765808,-0.00141029,6.16326e-06,0.000608283,0.000231527,-0.00163566,1.21598,0.00117524,0.0170132,1952,974,4.85693,-0.765783
735,50,4.84497,0.798096,-0.00110813,0.000315587,0.000644936,0.000564293,-0.00135684,1.20274,0.00114019,0.0161005,1959,974,4.845,-0.798115
742,50,4.85376,0.797729,-0.00131121,0.000487754,0.00100375,0.000936079,-0.00175954,1.15073,0.00158034,0.0138242,1966,974,4.85377,-0.797722
749,50,4.84119,0.804016,-0.00209761,0.000884915,0.00128099,0.00135956,-0.00257226,1.21595,0.00230575,0.0149671,1973,974,4.8412,-0.803992
756,50,4.84912,0.815613,-0.00322754,0.00149007,0.00137876,0.00186347,-0.00360094,1.30632,0.00320759,0.0120484,1980,974,4.84911,-0.815627
763,50,4.84387,0.835754,-0.00474633,0.00214789,0.00174454,0.0025642,-0.00516263,1.33654,0.0045444,0.0112395,1987,974,4.84383,-0.835765
770,50,4.82751,0.840576,-0.00714469,0.00307513,0.00215268,0.00351006,-0.00757962,1.37144,0.00654475,0.0103753,1994,974,4.82748,-0.840568
777,50,4.83301,0.849976,-0.0108042,0.00437811,0.00250027,0.00477926,-0.0112054,1.41171,0.00947407,0.0231557,2001,974,4.83301,-0.850002
784,50,4.86511,0.899475,-0.0161719,0.00621993,0.00259207,0.00651607,-0.0164681,1.45704,0.0136783,0.0423655,2008,974,4.86506,-0.899485
791,50,4.8877,0.949463,0,0,0,0,0,0,0,-1,2015,974,4.88765,-0.94947
798,50,6.14319,-2.07428,0,0,0,0,0,0,0,-1,2022,974,6.14322,2.0743
805,50,5.45496,-1.83759,0,0,0,0,0,0,0,-1,2029,974,5.455,1.8376
812,50,0,0,0,0,0,0,0,0,0,-1,2036,974,0,0
-700,43,0,0,0,0,0,0,0,0,0,-1,524,981,0,0
-693,43,-2.66248,-2.01044,0,0,0,0,0,0,0,-1,531,981,-2.6625,2.01041
-686,43,-2.17792,-1.7124,0.0562952,0.0091281,-0.000884676,0.0563118,0.00911152,-0.0187474,0.0349028,0.0406427,538,981,-2.1779,1.7124
-679,43,-1.38647,-1.47461,0.0369394,0.00601601,0.0038228,0.0374049,0.00555044,0.121191,0.0233078,0.0411837,545,981,-1.38645,1.47461
-672,43,-0.536072,-0.361816,0.022794,0.00387147,0.00655499,0.0248428,0.00182259,0.302947,0.015989,0.0459535,552,981,-0.536053,0.361839
-665,43,-0.401306,-0.244385,0.0125654,0.00238047,0.00791512,0.0168847,-0.00193889,0.499543,0.0119553,0.0484592,559,981,-0.401309,0.244411
-658,43,0.251099,-0.480896,0,0,0,0,0,0,0,-1,566,981,0.2511,0.480922
-651,43,-0.390564,0.101074,0.000761978,0.00068293,0.00792068,0.00864324,-0.00719833,0.782903,0.00915881,0.0385764,573,981,-0.390541,-0.101063
-644,43,-1.00122,0.734802,-0.00203019,0.000255499,0.00709384,0.00629796,-0.00807265,0.865264,0.00831794,0.0173949,580,981,-1.00122,-0.73483
-637,43,-1.02118,0.765808,-0.00347506,3.53116e-06,0.00617779,0.0046822,-0.00815373,0.922616,0.00750063,0.0103752,587,981,-1.02118,-0.765812
-630,43,-1.00165,0.765137,-0.00512791,-0.000166679,0.00541951,0.00331295,-0.00860753,1.00003,0.00710498,0.0108785,594,981,-1.00168,-0.765134
-623,43,-1.01501,0.743958,-0.00568777,-0.000269802,0.00409441,0.00193067,-0.00788825,1.07765,0.00600672,0.0111793,601,981,-1.015,-0.743932
-616,43,-1.0199,0.739197,-0.00475996,-0.000338252,0.00300354,0.00118039,-0.0062786,1.10267,0.00462963,0.00996238,608,981,-1.01987,-0.73919
-609,43,-1.01343,0.73584,-0.00340146,-0.000306293,0.00204484,0.000710572,-0.00441832,1.10932,0.00320874,0.0121527,615,981,-1.01342,-0.735813
-602,43,-1.03088,0.711548,-0.00203595,-0.000124693,0.00107039,0.000354585,-0.00251523,1.14981,0.00180665,0.0139438,622,981,-1.03086,-0.711542
-595,43,-1.05127,0.716553,-0.000809181,-0.000143632,0.00053805,0.000156236,-0.00110905,1.06235,0.000796568,0.012543,629,981,-1.05124,-0.716565
-588,43,-1.06946,0.755188,-0.000129894,-0.000397272,0.000509157,0.000262833,-0.000789998,0.657012,0.000632742,0.0120266,636,981,-1.06947,-0.755217
-581,43,-1.10382,0.759338,0.000387709,-0.000509098,0.000485545,0.000600229,-0.000721618,0.412573,0.00076424,0.0176324,643,981,-1.10382,-0.759326
-574,43,-1.11163,0.724854,0.000716632,-0.00031492,0.000313463,0.000804415,-0.000402704,0.273049,0.000709678,0.0265105,650,981,-1.11162,-0.724827
-567,43,-1.05981,0.681335,0.00115455,-0.000299843,0.000184323,0.00117755,-0.00032284,0.124121,0.000911899,0.0378011,657,981,-1.05979,-0.681357
-560,43,-1.00793,0.72113,0.00170798,-0.000189572,-5.58987e-05,0.00170963,-0.000191217,-0.0294243,0.00120854,0.0412345,664,981,-1.00792,-0.721117
-553,43,-0.978333,0.857117,0.00226742,8.60442e-05,-0.000488502,0.00237182,-1.83553e-05,-0.210546,0.00158737,0.0395179,671,981,-0.97833,-0.857143
-546,43,-0.966064,0.687256,0.00275,0.000629561,-0.00120176,0.00329237,8.71927e-05,-0.423944,0.00216644,0.0400222,678,981,-0.966084,-0.687262
-539,43,-0.723206,0.352234,0.00299674,0.00157824,-0.00229797,0.00469242,-0.000117437,-0.635714,0.00316815,0.0436714,685,981,-0.723221,-0.35226
-532,43,-0.407288,0.318909,0.00275181,0.00313935,-0.00388248,0.00683289,-0.000941734,-0.810332,0.00489944,0.0482295,692,981,-0.407262,-0.318902
-525,43,-0.597717,0.0678101,0.00156002,0.00563167,-0.00614815,0.0100723,-0.00288061,-0.94528,0.00785319,0.0473851,699,981,-0.597698,-0.0678002
-518,43,0,0,0,0,0,0,0,0,0,-1,706,981,0,0
-511,43,0,0,0,0,0,0,0,0,0,-1,713,981,0,0
-504,43,0,0,0,0,0,0,0,0,0,-1,720,981,0,0
-497,43,0,0,0,0,0,0,0,0,0,-1,727,981,0,0
-490,43,0,0,0,0,0,0,0,0,0,-1,734,981,0,0
-483,43,0,0,0,0,0,0,0,0,0,-1,741,981,0,0
-476,43,0,0,0,0,0,0,0,0,0,-1,748,981,0,0
-469,43,0,0,0,0,0,0,0,0,0,-1,755,981,0,0
-462,43,0,0,0,0,0,0,0,0,0,-1,762,981,0,0
-455,43,0,0,0,0,0,0,0,0,0,-1,769,981,0,0
-448,43,0,0,0,0,0,0,0,0,0,-1,776,981,0,0
-441,43,0,0,0,0,0,0,0,0,0,-1,783,981,0,0
-434,43,0,0,0,0,0,0,0,0,0,-1,790,981,0,0
-427,43,0,0,0,0,0,0,0,0,0,-1,797,981,0,0
-420,43,0,0,0,0,0,0,0,0,0,-1,804,981,0,0
-413,43,0,0,0,0,0,0,0,0,0,-1,811,981,0,0
-406,43,0,0,0,0,0,0,0,0,0,-1,818,981,0,0
-399,43,0,0,0,0,0,0,0,0,0,-1,825,981,0,0
-392,43,0,0,0,0,0,0,0,0,0,-1,832,981,0,0
-385,43,0,0,0,0,0,0,0,0,0,-1,839,981,0,0
-378,43,0,0,0,0,0,0,0,0,0,-1,846,981,0,0
-371,43,0,0,0,0,0,0,0,0,0,-1,853,981,0,0
-364,43,0,0,0,0,0,0,0,0,0,-1,860,981,0,0
-357,43,0,0,0,0,0,0,0,0,0,-1,867,981,0,0
-350,43,0,0,0,0,0,0,0,0,0,-1,874,981,0,0
-343,43,0,0,0,0,0,0,0,0,0,-1,881,981,0,0
-336,43,0,0,0,0,0,0,0,0,0,-1,888,981,0,0
-329,43,0,0,0,0,0,0,0,0,0,-1,895,981,0,0
-322,43,0,0,0,0,0,0,0,0,0,-1,902,981,0,0
-315,43,0,0,0,0,0,0,0,0,0,-1,909,981,0,0
-308,43,0,0,0,0,0,0,0,0,0,-1,916,981,0,0
-301,43,0,0,0,0,0,0,0,0,0,-1,923,981,0,0
-294,43,0,0,0,0,0,0,0,0,0,-1,930,981,0,0
-287,43,0,0,0,0,0,0,0,0,0,-1,937,981,0,0
-280,43,0,0,0,0,0,0,0,0,0,-1,944,981,0,0
-273,43,0,0,0,0,0,0,0,0,0,-1,951,981,0,0
-266,43,0,0,0,0,0,0,0,0,0,-1,958,981,0,0
-259,43,0,0,0,0,0,0,0,0,0,-1,965,981,0,0
-252,43,0,0,0,0,0,0,0,0,0,-1,972,981,0,0
-245,43,0,0,0,0,0,0,0,0,0,-1,979,981,0,0
-238,43,0,0,0,0,0,0,0,0,0,-1,986,981,0,0
-231,43,0,0,0,0,0,0,0,0,0,-1,993,981,0,0
-224,43,0,0,0,0,0,0,0,0,0,-1,1000,981,0,0
-217,43,0,0,0,0,0,0,0,0,0,-1,1007,981,0,0
-210,43,0,0,0,0,0,0,0,0,0,-1,1014,981,0,0
-203,43,0,0,0,0,0,0,0,0,0,-1,1021,981,0,0
-196,43,0,0,0,0,0,0,0,0,0,-1,1028,981,0,0
-189,43,0,0,0,0,0,0,0,0,0,-1,1035,981,0,0
-182,43,0,0,0,0,0,0,0,0,0,-1,1042,981,0,0
-175,43,0,0,0,0,0,0,0,0,0,-1,1049,981,0,0
-168,43,0,0,0,0,0,0,0,0,0,-1,1056,981,0,0
-161,43,0,0,0,0,0,0,0,0,0,-1,1063,981,0,0
-154,43,0,0,0,0,0,0,0,0,0,-1,1070,981,0,0
-147,43,0,0,0,0,0,0,0,0,0,-1,1077,981,0,0
-140,43,0,0,0,0,0,0,0,0,0,-1,1084,981,0,0
-133,43,0,0,0,0,0,0,0,0,0,-1,1091,981,0,0
-126,43,0,0,0,0,0,0,0,0,0,-1,1098,981,0,0
-119,43,0,0,0,0,0,0,0,0,0,-1,1105,981,0,0
-112,43,0,0,0,0,0,0,0,0,0,-1,1112,981,0,0
-105,43,0,0,0,0,0,0,0,0,0,-1,1119,981,0,0
-98,43,0,0,0,0,0,0,0,0,0,-1,1126,981,0,0
-91,43,0,0,0,0,0,0,0,0,0,-1,1133,981,0,0
-84,43,0,0,0,0,0,0,0,0,0,-1,1140,981,0,0
-77,43,0,0,0,0,0,0,0,0,0,-1,1147,981,0,0
-70,43,0,0,0,0,0,0,0,0,0,-1,1154,981,0,0
-63,43,0,0,0,0,0,0,0,0,0,-1,1161,981,0,0
-56,43,0,0,0,0,0,0,0,0,0,-1,1168,981,0,0
-49,43,0,0,0,0,0,0,0,0,0,-1,1175,981,0,0
-42,43,0,0,0,0,0,0,0,0,0,-1,1182,981,0,0
-35,43,0,0,0,0,0,0,0,0,0,-1,1189,981,0,0
-28,43,0,0,0,0,0,0,0,0,0,-1,1196,981,0,0
-21,43,0,0,0,0,0,0,0,0,0,-1,1203,981,0,0
-14,43,0,0,0,0,0,0,0,0,0,-1,1210,981,0,0
-7,43,0,0,0,0,0,0,0,0,0,-1,1217,981,0,0
0,43,0,0,0,0,0,0,0,0,0,-1,1224,981,0,0
7,43,0,0,0,0,0,0,0,0,0,-1,1231,981,0,0
14,43,0,0,0,0,0,0,0,0,0,-1,1238,981,0,0
21,43,0,0,0,0,0,0,0,0,0,-1,1245,981,0,0
28,43,0,0,0,0,0,0,0,0,0,-1,1252,981,0,0
35,43,0,0,0,0,0,0,0,0,0,-1,1259,981,0,0
42,43,0,0,0,0,0,0,0,0,0,-1,1266,981,0,0
49,43,0,0,0,0,0,0,0,0,0,-1,1273,981,0,0
56,43,0,0,0,0,0,0,0,0,0,-1,1280,981,0,0
63,43,0,0,0,0,0,0,0,0,0,-1,1287,981,0,0
70,43,0,0,0,0,0,0,0,0,0,-1,1294,981,0,0
77,43,0,0,0,0,0,0,0,0,0,-1,1301,981,0,0
84,43,0,0,0,0,0,0,0,0,0,-1,1308,981,0,0
91,43,0,0,0,0,0,0,0,0,0,-1,1315,981,0,0
98,43,0,0,0,0,0,0,0,0,0,-1,1322,981,0,0
105,43,0,0,0,0,0,0,0,0,0,-1,1329,981,0,0
112,43,0,0,0,0,0,0,0,0,0,-1,1336,981,0,0
119,43,0,0,0,0,0,0,0,0,0,-1,1343,981,0,0
126,43,0,0,0,0,0,0,0,0,0,-1,1350,981,0,0
133,43,0,0,0,0,0,0,0,0,0,-1,1357,981,0,0
140,43,0,0,0,0,0,0,0,0,0,-1,1364,981,0,0
147,43,0,0,0,0,0,0,0,0,0,-1,1371,981,0,0
154,43,0,0,0,0,0,0,0,0,0,-1,1378,981,0,0
161,43,0,0,0,0,0,0,0,0,0,-1,1385,981,0,0
168,43,0,0,0,0,0,0,0,0,0,-1,1392,981,0,0
175,43,0,0,0,0,0,0,0,0,0,-1,1399,981,0,0
182,43,0,0,0,0,0,0,0,0,0,-1,1406,981,0,0
189,43,0,0,0,0,0,0,0,0,0,-1,1413,981,0,0
196,43,0,0,0,0,0,0,0,0,0,-1,1420,981,0,0
203,43,0,0,0,0,0,0,0,0,0,-1,1427,981,0,0
210,43,0,0,0,0,0,0,0,0,0,-1,1434,981,0,0
217,43,0,0,0,0,0,0,0,0,0,-1,1441,981,0,0
224,43,0,0,0,0,0,0,0,0,0,-1,1448,981,0,0
231,43,0,0,0,0,0,0,0,0,0,-1,1455,981,0,0
238,43,0,0,0,0,0,0,0,0,0,-1,1462,981,0,0
245,43,0,0,0,0,0,0,0,0,0,-1,1469,981,0,0
252,43,0,0,0,0,0,0,0,0,0,-1,1476,981,0,0
259,43,0,0,0,0,0,0,0,0,0,-1,1483,981,0,0
266,43,0,0,0,0,0,0,0,0,0,-1,1490,981,0,0
273,43,0,0,0,0,0,0,0,0,0,-1,1497,981,0,0
280,43,0,0,0,0,0,0,0,0,0,-1,1504,981,0,0
287,43,0,0,0,0,0,0,0,0,0,-1,1511,981,0,0
294,43,0,0,0,0,0,0,0,0,0,-1,1518,981,0,0
301,43,0,0,0,0,0,0,0,0,0,-1,1525,981,0,0
308,43,0,0,0,0,0,0,0,0,0,-1,1532,981,0,0
315,43,0,0,0,0,0,0,0,0,0,-1,1539,981,0,0
322,43,0,0,0,0,0,0,0,0,0,-1,1546,981,0,0
329,43,0,0,0,0,0,0,0,0,0,-1,1553,981,0,0
336,43,0,0,0,0,0,0,0,0,0,-1,1560,981,0,0
343,43,0,0,0,0,0,0,0,0,0,-1,1567,981,0,0
350,43,0,0,0,0,0,0,0,0,0,-1,1574,981,0,0
357,43,0,0,0,0,0,0,0,0,0,-1,1581,981,0,0
364,43,0,0,0,0,0,0,0,0,0,-1,1588,981,0,0
371,43,0,0,0,0,0,0,0,0,0,-1,1595,981,0,0
378,43,0,0,0,0,0,0,0,0,0,-1,1602,981,0,0
385,43,0,0,0,0,0,0,0,0,0,-1,1609,981,0,0
392,43,0,0,0,0,0,0,0,0,0,-1,1616,981,0,0
399,43,0,0,0,0,0,0,0,0,0,-1,1623,981,0,0
406,43,0,0,0,0,0,0,0,0,0,-1,1630,981,0,0
413,43,0,0,0,0,0,0,0,0,0,-1,1637,981,0,0
420,43,0,0,0,0,0,0,0,0,0,-1,1644,981,0,0
427,43,0,0,0,0,0,0,0,0,0,-1,1651,981,0,0
434,43,0,0,0,0,0,0,0,0,0,-1,1658,981,0,0
441,43,0,0,0,0,0,0,0,0,0,-1,1665,981,0,0
448,43,0,0,0,0,0,0,0,0,0,-1,1672,981,0,0
455,43,0,0,0,0,0,0,0,0,0,-1,1679,981,0,0
462,43,0,0,0,0,0,0,0,0,0,-1,1686,981,0,0
469,43,0,0,0,0,0,0,0,0,0,-1,1693,981,0,0
476,43,0,0,0,0,0,0,0,0,0,-1,1700,981,0,0
483,43,0,0,0,0,0,0,0,0,0,-1,1707,981,0,0
490,43,0,0,0,0,0,0,0,0,0,-1,1714,981,0,0
497,43,0,0,0,0,0,0,0,0,0,-1,1721,981,0,0
504,43,0,0,0,0,0,0,0,0,0,-1,1728,981,0,0
511,43,0,0,0,0,0,0,0,0,0,-1,1735,981,0,0
518,43,0,0,0,0,0,0,0,0,0,-1,1742,981,0,0
525,43,0,0,0,0,0,0,0,0,0,-1,1749,981,0,0
532,43,0,0,0,0,0,0,0,0,0,-1,1756,981,0,0
539,43,0,0,0,0,0,0,0,0,0,-1,1763,981,0,0
546,43,0,0,0,0,0,0,0,0,0,-1,1770,981,0,0
553,43,0,0,0,0,0,0,0,0,0,-1,1777,981,0,0
560,43,0,0,0,0,0,0,0,0,0,-1,1784,981,0,0
567,43,0,0,0,0,0,0,0,0,0,-1,1791,981,0,0
574,43,0,0,0,0,0,0,0,0,0,-1,1798,981,0,0
581,43,0,0,0,0,0,0,0,0,0,-1,1805,981,0,0
588,43,0,0,0,0,0,0,0,0,0,-1,1812,981,0,0
595,43,0,0,0,0,0,0,0,0,0,-1,1819,981,0,0
602,43,0,0,0,0,0,0,0,0,0,-1,1826,981,0,0
609,43,0,0,0,0,0,0,0,0,0,-1,1833,981,0,0
616,43,0,0,0,0,0,0,0,0,0,-1,1840,981,0,0
623,43,0,0,0,0,0,0,0,0,0,-1,1847,981,0,0
630,43,0,0,0,0,0,0,0,0,0,-1,1854,981,0,0
637,43,0,0,0,0,0,0,0,0,0,-1,1861,981,0,0
644,43,4.82019,0.701782,-0.00302278,0.00196182,0.00015614,0.0019667,-0.00302767,1.53951,0.00290511,0.0353945,1868,981,4.82019,-0.701792
651,43,4.70203,0.684082,-0.0016148,0.00116647,0.000176966,0.00117769,-0.00162602,1.50751,0.0016256,0.0355162,1875,981,4.70204,-0.684076
658,43,4.83276,0.679993,-0.000831921,0.00056331,0.000213951,0.000595381,-0.000863992,1.42201,0.000847314,0.0379991,1882,981,4.83281,-0.679991
665,43,4.98535,0.569519,-0.00047463,0.000153981,0.00027775,0.000259119,-0.000579768,1.20893,0.000495985,0.038679,1889,981,4.98537,-0.569548
672,43,5.05481,0.447144,-0.000434201,-0.000117895,0.000354826,0.000112429,-0.000664525,0.995042,0.000484857,0.0408551,1896,981,5.05483,-0.447143
679,43,4.79553,0.67688,-0.000589305,-0.000281298,0.000441892,3.26576e-05,-0.000903261,0.953071,0.00061335,0.0418401,1903,981,4.7955,-0.676873
686,43,4.77991,0.733948,-0.00076818,-0.000366619,0.000515501,-1.41776e-05,-0.00112062,0.971103,0.0007424,0.0408129,1910,981,4.77994,-0.733927
693,43,4.82983,0.702881,-0.000887679,-0.00040903,0.000598132,-4.12029e-06,-0.00129259,0.975703,0.000860356,0.0368307,1917,981,4.82982,-0.7029
700,43,4.84741,0.710693,-0.00085351,-0.00045896,0.000604557,-2.03055e-05,-0.00129217,0.943108,0.000854755,0.030738,1924,981,4.84746,-0.710694
707,43,4.89294,0.68335,-0.000941041,-0.000377203,0.000568191,-2.48361e-05,-0.00129341,1.01569,0.000854114,0.0232017,1931,981,4.89289,-0.683368
714,43,4.948,0.677551,-0.00111884,-0.000294229,0.000564423,-7.55809e-06,-0.00140551,1.10085,0.000934501,0.0190325,1938,981,4.94804,-0.677577
721,43,4.92517,0.716614,-0.00130671,-0.000171502,0.000629001,0.000108134,-0.00158635,1.15247,0.00109539,0.0163987,1945,981,4.92512,-0.716613
728,43,4.87671,0.737915,-0.00130721,-1.89725e-05,0.000614232,0.000226948,-0.00155313,1.18997,0.00111877,0.0136243,1952,981,4.87675,-0.737937
735,43,4.86731,0.773743,-0.00106011,0.000259003,0.00061501,0.000501251,-0.00130236,1.19557,0.00107501,0.0116722,1959,981,4.86733,-0.773757
742,43,4.85498,0.777893,-0.00127424,0.000419955,0.000852546,0.000774693,-0.00162898,1.17649,0.00141668,0.0141559,1966,981,4.85494,-0.777863
749,43,4.86816,0.798279,-0.00199694,0.000814042,0.0010029,0.00113517,-0.00231807,1.26091,0.00203235,0.0164039,1973,981,4.86812,-0.798268
756,43,4.87805,0.810791,-0.00302366,0.001362,0.00100992,0.00158339,-0.00324504,1.355,0.00284219,0.0154881,1980,981,4.87804,-0.810793
763,43,4.86279,0.810486,-0.00442236,0.00196801,0.00120099,0.00218627,-0.00464062,1.39103,0.00402551,0.016621,1987,981,4.86278,-0.810487
770,43,4.86169,0.828064,-0.0066144,0.00281813,0.00139804,0.00302098,-0.00681724,1.42671,0.00581935,0.0140445,1994,981,4.86173,-0.828058
777,43,4.85107,0.831604,-0.00998797,0.0039999,0.00150837,0.0041607,-0.0101488,1.46459,0.00849929,0.0199948,2001,981,4.85112,-0.831587
784,43,4.87,0.903748,-0.0150026,0.00565828,0.00135248,0.00574644,-0.0150908,1.50571,0.0124271,0.0416853,2008,981,4.86994,-0.903761
791,43,4.89929,0.966248,0,0,0,0,0,0,0,-1,2015,981,4.8993,-0.966233
798,43,6.6665,-2.86316,0,0,0,0,0,0,0,-1,2022,981,6.66656,2.86315
805,43,6.03101,-2.70154,0,0,0,0,0,0,0,-1,2029,981,6.03106,2.70154
812,43,5.39563,-2.53992,0,0,0,0,0,0,0,-1,2036,981,5.39557,2.53993
-700,36,0,0,0,0,0,0,0,0,0,-1,524,988,0,0
-693,36,-1.1532,-1.32501,0,0,0,0,0,0,0,-1,531,988,-1.15318,1.32501
-686,36,-0.896545,-1.05981,0.0481794,0.00277067,-0.00544897,0.0488241,0.00212595,-0.117771,0.0318644,0.041634,538,988,-0.896556,1.05982
-679,36,-0.488708,-0.920471,0.0308406,0.000578392,-7.58063e-05,0.0308408,0.000578201,-0.00250496,0.0203705,0.0426178,545,988,-0.48872,0.920451
-672,36,-0.184631,-0.378418,0.018226,-0.000718964,0.00337006,0.0188076,-0.0013006,0.170905,0.0129936,0.04722,552,988,-0.184631,0.378416
-665,36,-0.274658,-0.123352,0.00918579,-0.00142954,0.00542011,0.0114642,-0.00370797,0.39794,0.00913325,0.0463776,559,988,-0.274672,0.123366
-658,36,-0.327637,0.131226,0.00298407,-0.00173537,0.00640684,0.00745193,-0.00620323,0.608951,0.00789479,0.0436745,566,988,-0.327625,-0.131244
-651,36,-0.685974,0.46875,-0.000994363,-0.00176719,0.00658388,0.00521443,-0.00797599,0.756086,0.00767092,0.0353882,573,988,-0.685993,-0.468734
-644,36,-1.02142,0.743958,-0.00325859,-0.00162738,0.00619054,0.00380104,-0.00868702,0.850896,0.00739165,0.0182668,580,988,-1.02142,-0.743927
-637,36,-1.02991,0.800476,-0.00432787,-0.00141317,0.00566152,0.00297556,-0.0087166,0.91137,0.00701649,0.0127553,587,988,-1.02993,-0.800473
-630,36,-1.00818,0.787415,-0.00569424,-0.00117238,0.00514863,0.00218987,-0.00905649,0.992288,0.00688471,0.0115754,594,988,-1.00818,-0.787387
-623,36,-1.02521,0.751221,-0.00597074,-0.00098193,0.00399219,0.00123106,-0.00818374,1.06463,0.00590908,0.0117513,601,988,-1.02518,-0.751196
-616,36,-1.04102,0.735962,-0.00479291,-0.000767765,0.00297091,0.000808078,-0.00636875,1.08311,0.00453923,0.0099635,608,988,-1.04104,-0.735973
-609,36,-1.02643,0.747009,-0.00321885,-0.000535205,0.00208981,0.000606473,-0.00436053,1.07079,0.00312883,0.014869,615,988,-1.02643,-0.747029
-602,36,-1.02472,0.738037,-0.00178652,-0.000297543,0.00112071,0.000303427,-0.00238749,1.07858,0.00170184,0.0190353,622,988,-1.02474,-0.738044
-595,36,-1.0387,0.726135,-0.000579343,-0.000232693,0.000520707,0.000142778,-0.000954815,0.946062,0.000689084,0.0191537,629,988,-1.03868,-0.726138
-588,36,-1.06262,0.727844,0.000139197,-0.000548975,0.000431833,0.000347266,-0.000757044,0.449004,0.000652041,0.0171509,636,988,-1.06262,-0.727841
-581,36,-1.08832,0.73114,0.000715322,-0.000722447,0.00041493,0.000826475,-0.000833599,0.261738,0.000958447,0.0205992,643,988,-1.08835,-0.731139
-574,36,-1.10437,0.735168,0.00108515,-0.000598108,0.000271248,0.00112778,-0.000640739,0.155889,0.00103388,0.0263841,650,988,-1.10439,-0.735176
-567,36,-1.08789,0.696838,0.00158346,-0.000642755,0.000173811,0.00159695,-0.000656244,0.077449,0.00133814,0.0344108,657,988,-1.08788,-0.696845
-560,36,-1.01514,0.773254,0.00215827,-0.000605838,-3.13422e-05,0.00215863,-0.000606193,-0.011337,0.00167805,0.0370447,664,988,-1.01514,-0.77328
-553,36,-0.857971,0.803833,0.00273743,-0.000418417,-0.000424837,0.00279362,-0.000474607,-0.131501,0.00203911,0.0375214,671,988,-0.85796,-0.803863
-546,36,-0.82843,0.692566,0.00324307,1.90551e-05,-0.00109872,0.0035819,-0.000319771,-0.29913,0.00250134,0.0418266,678,988,-0.82845,-0.692551
-539,36,-0.876587,0.753418,0.00352827,0.000839541,-0.00215879,0.00472708,-0.000359262,-0.506912,0.00327771,0.0450262,685,988,-0.87656,-0.753431
-532,36,-0.31604,0.427307,0.00335726,0.00225619,-0.00372366,0.00657086,-0.000957413,-0.712006,0.00473211,0.0482915,692,988,-0.316037,-0.427291
-525,36,-0.166199,-0.185303,0,0,0,0,0,0,0,-1,699,988,-0.166217,0.185275
-518,36,0,0,0,0,0,0,0,0,0,-1,706,988,0,0
-511,36,0,0,0,0,0,0,0,0,0,-1,713,988,0,0
-504,36,0,0,0,0,0,0,0,0,0,-1,720,988,0,0
-497,36,0,0,0,0,0,0,0,0,0,-1,727,988,0,0
-490,36,0,0,0,0,0,0,0,0,0,-1,734,988,0,0
-483,36,0,0,0,0,0,0,0,0,0,-1,741,988,0,0
-476,36,0,0,0,0,0,0,0,0,0,-1,748,988,0,0
-469,36,0,0,0,0,0,0,0,0,0,-1,755,988,0,0
-462,36,0,0,0,0,0,0,0,0,0,-1,762,988,0,0
-455,36,0,0,0,0,0,0,0,0,0,-1,769,988,0,0
-448,36,0,0,0,0,0,0,0,0,0,-1,776,988,0,0
-441,36,0,0,0,0,0,0,0,0,0,-1,783,988,0,0
-434,36,0,0,0,0,0,0,0,0,0,-1,790,988,0,0
-427,36,0,0,0,0,0,0,0,0,0,-1,797,988,0,0
-420,36,0,0,0,0,0,0,0,0,0,-1,804,988,0,0
-413,36,0,0,0,0,0,0,0,0,0,-1,811,988,0,0
-406,36,0,0,0,0,0,0,0,0,0,-1,818,988,0,0
-399,36,0,0,0,0,0,0,0,0,0,-1,825,988,0,0
-392,36,0,0,0,0,0,0,0,0,0,-1,832,988,0,0
-385,36,0,0,0,0,0,0,0,0,0,-1,839,988,0,0
-378,36,0,0,0,0,0,0,0,0,0,-1,846,988,0,0
-371,36,0,0,0,0,0,0,0,0,0,-1,853,988,0,0
-364,36,0,0,0,0,0,0,0,0,0,-1,860,988,0,0
-357,36,0,0,0,0,0,0,0,0,0,-1,867,988,0,0
-350,36,0,0,0,0,0,0,0,0,0,-1,874,988,0,0
-343,36,0,0,0,0,0,0,0,0,0,-1,881,988,0,0
-336,36,0,0,0,0,0,0,0,0,0,-1,888,988,0,0
-329,36,0,0,0,0,0,0,0,0,0,-1,895,988,0,0
-322,36,0,0,0,0,0,0,0,0,0,-1,902,988,0,0
-315,36,0,0,0,0,0,0,0,0,0,-1,909,988,0,0
-308,36,0,0,0,0,0,0,0,0,0,-1,916,988,0,0
-301,36,0,0,0,0,0,0,0,0,0,-1,923,988,0,0
-294,36,0,0,0,0,0,0,0,0,0,-1,930,988,0,0
-287,36,0,0,0,0,0,0,0,0,0,-1,937,988,0,0
-280,36,0,0,0,0,0,0,0,0,0,-1,944,988,0,0
-273,36,0,0,0,0,0,0,0,0,0,-1,951,988,0,0
-266,36,0,0,0,0,0,0,0,0,0,-1,958,988,0,0
-259,36,0,0,0,0,0,0,0,0,0,-1,965,988,0,0
-252,36,0,0,0,0,0,0,0,0,0,-1,972,988,0,0
-245,36,0,0,0,0,0,0,0,0,0,-1,979,988,0,0
-238,36,0,0,0,0,0,0,0,0,0,-1,986,988,0,0
-231,36,0,0,0,0,0,0,0,0,0,-1,993,988,0,0
-224,36,0,0,0,0,0,0,0,0,0,-1,1000,988,0,0
-217,36,0,0,0,0,0,0,0,0,0,-1,1007,988,0,0
-210,36,0,0,0,0,0,0,0,0,0,-1,1014,988,0,0
-203,36,0,0,0,0,0,0,0,0,0,-1,1021,988,0,0
-196,36,0,0,0,0,0,0,0,0,0,-1,1028,988,0,0
-189,36,0,0,0,0,0,0,0,0,0,-1,1035,988,0,0
-182,36,0,0,0,0,0,0,0,0,0,-1,1042,988,0,0
-175,36,0,0,0,0,0,0,0,0,0,-1,1049,988,0,0
-168,36,0,0,0,0,0,0,0,0,0,-1,1056,988,0,0
-161,36,0,0,0,0,0,0,0,0,0,-1,1063,988,0,0
-154,36,0,0,0,0,0,0,0,0,0,-1,1070,988,0,0
-147,36,0,0,0,0,0,0,0,0,0,-1,1077,988,0,0
-140,36,0,0,0,0,0,0,0,0,0,-1,1084,988,0,0
-133,36,0,0,0,0,0,0,0,0,0,-1,1091,988,0,0
-126,36,0,0,0,0,0,0,0,0,0,-1,1098,988,0,0
-119,36,0,0,0,0,0,0,0,0,0,-1,1105,988,0,0
-112,36,0,0,0,0,0,0,0,0,0,-1,1112,988,0,0
-105,36,0,0,0,0,0,0,0,0,0,-1,1119,988,0,0
-98,36,0,0,0,0,0,0,0,0,0,-1,1126,988,0,0
-91,36,0,0,0,0,0,0,0,0,0,-1,1133,988,0,0
-84,36,0,0,0,0,0,0,0,0,0,-1,1140,988,0,0
-77,36,0,0,0,0,0,0,0,0,0,-1,1147,988,0,0
-70,36,0,0,0,0,0,0,0,0,0,-1,1154,988,0,0
-63,36,0,0,0,0,0,0,0,0,0,-1,1161,988,0,0
-56,36,0,0,0,0,0,0,0,0,0,-1,1168,988,0,0
-49,36,0,0,0,0,0,0,0,0,0,-1,1175,988,0,0
-42,36,0,0,0,0,0,0,0,0,0,-1,1182,988,0,0
-35,36,0,0,0,0,0,0,0,0,0,-1,1189,988,0,0
-28,36,0,0,0,0,0,0,0,0,0,-1,1196,988,0,0
-21,36,0,0,0,0,0,0,0,0,0,-1,1203,988,0,0
-14,36,0,0,0,0,0,0,0,0,0,-1,1210,988,0,0
-7,36,0,0,0,0,0,0,0,0,0,-1,1217,988,0,0
0,36,0,0,0,0,0,0,0,0,0,-1,1224,988,0,0
7,36,0,0,0,0,0,0,0,0,0,-1,1231,988,0,0
14,36,0,0,0,0,0,0,0,0,0,-1,1238,988,0,0
21,36,0,0,0,0,0,0,0,0,0,-1,1245,988,0,0
28,36,0,0,0,0,0,0,0,0,0,-1,1252,988,0,0
35,36,0,0,0,0,0,0,0,0,0,-1,1259,988,0,0
42,36,0,0,0,0,0,0,0,0,0,-1,1266,988,0,0
49,36,0,0,0,0,0,0,0,0,0,-1,1273,988,0,0
56,36,0,0,0,0,0,0,0,0,0,-1,1280,988,0,0
63,36,0,0,0,0,0,0,0,0,0,-1,1287,988,0,0
70,36,0,0,0,0,0,0,0,0,0,-1,1294,988,0,0
77,36,0,0,0,0,0,0,0,0,0,-1,1301,988,0,0
84,36,0,0,0,0,0,0,0,0,0,-1,1308,988,0,0
91,36,0,0,0,0,0,0,0,0,0,-1,1315,988,0,0
98,36,0,0,0,0,0,0,0,0,0,-1,1322,988,0,0
105,36,0,0,0,0,0,0,0,0,0,-1,1329,988,0,0
112,36,0,0,0,0,0,0,0,0,0,-1,1336,988,0,0
119,36,0,0,0,0,0,0,0,0,0,-1,1343,988,0,0
126,36,0,0,0,0,0,0,0,0,0,-1,1350,988,0,0
133,36,0,0,0,0,0,0,0,0,0,-1,1357,988,0,0
140,36,0,0,0,0,0,0,0,0,0,-1,1364,988,0,0
147,36,0,0,0,0,0,0,0,0,0,-1,1371,988,0,0
154,36,0,0,0,0,0,0,0,0,0,-1,1378,988,0,0
161,36,0,0,0,0,0,0,0,0,0,-1,1385,988,0,0
168,36,0,0,0,0,0,0,0,0,0,-1,1392,988,0,0
175,36,0,0,0,0,0,0,0,0,0,-1,1399,988,0,0
182,36,0,0,0,0,0,0,0,0,0,-1,1406,988,0,0
189,36,0,0,0,0,0,0,0,0,0,-1,1413,988,0,0
196,36,0,0,0,0,0,0,0,0,0,-1,1420,988,0,0
203,36,0,0,0,0,0,0,0,0,0,-1,1427,988,0,0
210,36,0,0,0,0,0,0,0,0,0,-1,1434,988,0,0
217,36,0,0,0,0,0,0,0,0,0,-1,1441,988,0,0
224,36,0,0,0,0,0,0,0,0,0,-1,1448,988,0,0
231,36,0,0,0,0,0,0,0,0,0,-1,1455,988,0,0
238,36,0,0,0,0,0,0,0,0,0,-1,1462,988,0,0
245,36,0,0,0,0,0,0,0,0,0,-1,1469,988,0,0
252,36,0,0,0,0,0,0,0,0,0,-1,1476,988,0,0
259,36,0,0,0,0,0,0,0,0,0,-1,1483,988,0,0
266,36,0,0,0,0,0,0,0,0,0,-1,1490,988,0,0
273,36,0,0,0,0,0,0,0,0,0,-1,1497,988,0,0
280,36,0,0,0,0,0,0,0,0,0,-1,1504,988,0,0
287,36,0,0,0,0,0,0,0,0,0,-1,1511,988,0,0
294,36,0,0,0,0,0,0,0,0,0,-1,1518,988,0,0
301,36,0,0,0,0,0,0,0,0,0,-1,1525,988,0,0
308,36,0,0,0,0,0,0,0,0,0,-1,1532,988,0,0
315,36,0,0,0,0,0,0,0,0,0,-1,1539,988,0,0
322,36,0,0,0,0,0,0,0,0,0,-1,1546,988,0,0
329,36,0,0,0,0,0,0,0,0,0,-1,1553,988,0,0
336,36,0,0,0,0,0,0,0,0,0,-1,1560,988,0,0
343,36,0,0,0,0,0,0,0,0,0,-1,1567,988,0,0
350,36,0,0,0,0,0,0,0,0,0,-1,1574,988,0,0
357,36,0,0,0,0,0,0,0,0,0,-1,1581,988,0,0
364,36,0,0,0,0,0,0,0,0,0,-1,1588,988,0,0
371,36,0,0,0,0,0,0,0,0,0,-1,1595,988,0,0
378,36,0,0,0,0,0,0,0,0,0,-1,1602,988,0,0
385,36,0,0,0,0,0,0,0,0,0,-1,1609,988,0,0
392,36,0,0,0,0,0,0,0,0,0,-1,1616,988,0,0
399,36,0,0,0,0,0,0,0,0,0,-1,1623,988,0,0
406,36,0,0,0,0,0,0,0,0,0,-1,1630,988,0,0
413,36,0,0,0,0,0,0,0,0,0,-1,1637,988,0,0
420,36,0,0,0,0,0,0,0,0,0,-1,1644,988,0,0
427,36,0,0,0,0,0,0,0,0,0,-1,1651,988,0,0
434,36,0,0,0,0,0,0,0,0,0,-1,1658,988,0,0
441,36,0,0,0,0,0,0,0,0,0,-1,1665,988,0,0
448,36,0,0,0,0,0,0,0,0,0,-1,1672,988,0,0
455,36,0,0,0,0,0,0,0,0,0,-1,1679,988,0,0
462,36,0,0,0,0,0,0,0,0,0,-1,1686,988,0,0
469,36,0,0,0,0,0,0,0,0,0,-1,1693,988,0,0
476,36,0,0,0,0,0,0,0,0,0,-1,1700,988,0,0
483,36,0,0,0,0,0,0,0,0,0,-1,1707,988,0,0
490,36,0,0,0,0,0,0,0,0,0,-1,1714,988,0,0
497,36,0,0,0,0,0,0,0,0,0,-1,1721,988,0,0
504,36,0,0,0,0,0,0,0,0,0,-1,1728,988,0,0
511,36,0,0,0,0,0,0,0,0,0,-1,1735,988,0,0
518,36,0,0,0,0,0,0,0,0,0,-1,1742,988,0,0
525,36,0,0,0,0,0,0,0,0,0,-1,1749,988,0,0
532,36,0,0,0,0,0,0,0,0,0,-1,1756,988,0,0
539,36,0,0,0,0,0,0,0,0,0,-1,1763,988,0,0
546,36,0,0,0,0,0,0,0,0,0,-1,1770,988,0,0
553,36,0,0,0,0,0,0,0,0,0,-1,1777,988,0,0
560,36,0,0,0,0,0,0,0,0,0,-1,1784,988,0,0
567,36,0,0,0,0,0,0,0,0,0,-1,1791,988,0,0
574,36,0,0,0,0,0,0,0,0,0,-1,1798,988,0,0
581,36,0,0,0,0,0,0,0,0,0,-1,1805,988,0,0
588,36,0,0,0,0,0,0,0,0,0,-1,1812,988,0,0
595,36,0,0,0,0,0,0,0,0,0,-1,1819,988,0,0
602,36,0,0,0,0,0,0,0,0,0,-1,1826,988,0,0
609,36,0,0,0,0,0,0,0,0,0,-1,1833,988,0,0
616,36,0,0,0,0,0,0,0,0,0,-1,1840,988,0,0
623,36,0,0,0,0,0,0,0,0,0,-1,1847,988,0,0
630,36,0,0,0,0,0,0,0,0,0,-1,1854,988,0,0
637,36,0,0,0,0,0,0,0,0,0,-1,1861,988,0,0
644,36,4.82263,0.814819,-0.00262955,0.00201822,-1.28389e-05,0.00201826,-0.00262958,-1.56803,0.00269116,0.0384881,1868,988,4.82265,-0.814804
651,36,4.80835,0.744507,-0.00139796,0.00114815,8.23996e-05,0.00115081,-0.00140063,1.53848,0.00147543,0.036453,1875,988,4.80838,-0.744496
658,36,4.97363,0.768005,-0.000739748,0.000501251,0.000137059,0.000516208,-0.000754705,1.4621,0.000738056,0.0372756,1882,988,4.97365,-0.768016
665,36,5.08264,0.745483,-0.000435358,7.42595e-05,0.000209879,0.000149567,-0.000510665,1.22629,0.000399738,0.0385092,1889,988,5.08267,-0.745471
672,36,5.06787,0.684448,-0.000395714,-0.000200559,0.000297381,1.48443e-05,-0.000611117,0.943925,0.000412448,0.0402529,1896,988,5.06793,-0.684443
679,36,4.99792,0.740906,-0.000535851,-0.000361932,0.00039315,-4.62388e-05,-0.000851544,0.894239,0.000552928,0.0405781,1903,988,4.99791,-0.740886
686,36,4.86328,0.77417,-0.000694298,-0.000442488,0.000477032,-7.50249e-05,-0.00106176,0.914423,0.000684205,0.0367684,1910,988,4.86332,-0.774151
693,36,4.823,0.779663,-0.000802888,-0.000474308,0.000567947,-4.7366e-05,-0.00122983,0.92619,0.000804563,0.037563,1917,988,4.82296,-0.779641
700,36,4.8739,0.741333,-0.000753465,-0.000523793,0.000585392,-4.20798e-05,-0.00123518,0.882253,0.00080979,0.0353202,1924,988,4.87389,-0.741318
707,36,4.91174,0.695251,-0.000821167,-0.000427049,0.00055797,-3.23632e-05,-0.00121585,0.955147,0.0008,0.0233921,1931,988,4.91171,-0.695221
714,36,4.95618,0.693481,-0.000991463,-0.00033523,0.000561322,-1.31599e-05,-0.00131353,1.04989,0.000871335,0.0186703,1938,988,4.95624,-0.693471
721,36,4.92688,0.728088,-0.00115806,-0.000209405,0.000625976,0.000101654,-0.00146912,1.10962,0.001015,0.0192503,1945,988,4.92687,-0.728086
728,36,4.91052,0.739441,-0.00115904,-5.66369e-05,0.000596895,0.00020463,-0.00142031,1.15821,0.00102194,0.0148118,1952,988,4.91053,-0.739432
735,36,4.88513,0.774841,-0.000954805,0.000199702,0.000562422,0.000428389,-0.00118349,1.1846,0.000964058,0.0152651,1959,988,4.8851,-0.774838
742,36,4.86292,0.788147,-0.00115271,0.000340734,0.000687898,0.000609293,-0.00142127,1.19859,0.00120319,0.0130857,1966,988,4.86287,-0.788139
749,36,4.88538,0.803894,-0.0017603,0.000666876,0.000671417,0.000840227,-0.00193365,1.31813,0.00164245,0.0141907,1973,988,4.88537,-0.803874
756,36,4.87598,0.796143,-0.00262982,0.00110185,0.000561472,0.0011845,-0.00271247,1.42464,0.00230684,0.0122348,1980,988,4.87595,-0.796119
763,36,4.87195,0.809937,-0.00384302,0.0015703,0.000525288,0.0016208,-0.00389352,1.47495,0.00327258,0.0140368,1987,988,4.87197,-0.809967
770,36,4.8855,0.819641,-0.00575388,0.0022177,0.000423765,0.00224016,-0.00577634,1.51784,0.00477607,0.012488,1994,988,4.88551,-0.819667
777,36,4.84766,0.83252,-0.00875494,0.0031015,0.00015669,0.00310357,-0.00875701,1.55758,0.00710228,0.0205719,2001,988,4.8476,-0.832527
784,36,4.78674,0.87384,-0.0133381,0.00432302,-0.00046272,0.00433514,-0.0133502,-1.54462,0.0106437,0.0437574,2008,988,4.78673,-0.873868
791,36,4.76355,0.919495,0,0,0,0,0,0,0,-1,2015,988,4.76359,-0.919486
798,36,4.70898,0.978271,0,0,0,0,0,0,0,-1,2022,988,4.70904,-0.978268
805,36,6.81055,-3.41187,0,0,0,0,0,0,0,-1,2029,988,6.8106,3.41186
812,36,6.22314,-3.15973,0,0,0,0,0,0,0,-1,2036,988,6.22318,3.15971
-700,29,0,0,0,0,0,0,0,0,0,-1,524,995,0,0
-693,29,-0.239075,-0.815002,0,0,0,0,0,0,0,-1,531,995,-0.239101,0.814983
-686,29,-0.327698,-0.227173,0.0383785,-1.2375e-05,-0.0123378,0.0420016,-0.0036355,-0.28563,0.0292882,0.0389365,538,995,-0.327685,0.227166
-679,29,0.337585,-0.429932,0.023573,-0.00174198,-0.00627808,0.0250444,-0.00321341,-0.23022,0.017864,0.0458976,545,995,0.337557,0.429943
-672,29,0.188721,-0.0921631,0.0129108,-0.00266763,-0.00202105,0.0131688,-0.00292556,-0.126935,0.00989951,0.0451202,552,995,0.188704,0.092163
-665,29,-0.152893,0.123352,0.00539005,-0.00305996,0.000874589,0.00547962,-0.00314953,0.10206,0.00504222,0.0435645,559,995,-0.152904,-0.123337
-658,29,-0.309998,0.300903,0.000358699,-0.00308118,0.00268723,0.00182928,-0.00455175,0.500727,0.00379421,0.0411489,566,995,-0.309982,-0.300881
-651,29,-0.750549,0.524719,-0.00274128,-0.00285562,0.00363641,0.00083841,-0.0064353,0.777538,0.00459524,0.0351735,573,995,-0.750526,-0.524689
-644,29,-1.03278,0.754089,-0.00436318,-0.00248462,0.00393068,0.000617448,-0.00746526,0.902679,0.0051949,0.0175909,580,995,-1.03279,-0.754112
-637,29,-1.03857,0.794373,-0.00497725,-0.00208665,0.00404648,0.000764895,-0.0078288,0.956924,0.00549195,0.0121493,587,995,-1.03859,-0.794368
-630,29,-1.03497,0.790771,-0.00597575,-0.00165554,0.00398477,0.000716947,-0.00834824,1.03377,0.00581922,0.0106745,594,995,-1.03499,-0.7908
-623,29,-1.04089,0.789429,-0.00594073,-0.00137921,0.00327216,0.000328626,-0.00764857,1.08976,0.00521204,0.010048,601,995,-1.04091,-0.789416
-616,29,-1.0625,0.761841,-0.0045618,-0.00102788,0.00251756,0.000280915,-0.0058706,1.09138,0.00401065,0.0123931,608,995,-1.06251,-0.761865
-609,29,-1.05206,0.735962,-0.00286145,-0.000677774,0.00185069,0.000379145,-0.00391837,1.0519,0.00274737,0.0195971,615,995,-1.05204,-0.73597
-602,29,-1.02222,0.740234,-0.00144432,-0.000441581,0.000998444,0.000174306,-0.00206021,1.01808,0.00143511,0.0216955,622,995,-1.02224,-0.740217
-595,29,-1.01532,0.727051,-0.000289533,-0.000314011,0.000459693,0.000158084,-0.000761627,0.772089,0.000567829,0.0193764,629,995,-1.01535,-0.72708
-588,29,-1.04852,0.707092,0.000416454,-0.000623083,0.000360202,0.000529065,-0.000735694,0.303008,0.00073345,0.0210777,636,995,-1.04851,-0.707101
-581,29,-1.07654,0.692139,0.000990969,-0.000826401,0.000346111,0.00105465,-0.000890085,0.181963,0.00112413,0.0332047,643,995,-1.07656,-0.692124
-574,29,-1.09766,0.734131,0.00138213,-0.000748279,0.000237327,0.00140825,-0.000774397,0.10961,0.00127774,0.0305921,650,995,-1.09765,-0.73413
-567,29,-1.09766,0.732666,0.00190819,-0.000822564,0.000175364,0.00191941,-0.00083378,0.0638685,0.00163022,0.0320867,657,995,-1.09768,-0.732648
-560,29,-1.08063,0.742615,0.00247061,-0.000823204,1.89093e-05,0.00247072,-0.000823313,0.0057406,0.0019795,0.0366167,664,995,-1.08063,-0.742609
-553,29,-0.97345,0.771851,0.00303085,-0.000700067,-0.000307902,0.00305609,-0.000725307,-0.0817897,0.00231731,0.0391274,671,995,-0.973456,-0.771847
-546,29,-0.926453,0.824768,0.00351582,-0.000370755,-0.00089296,0.00371116,-0.000566099,-0.215367,0.00268279,0.0431875,678,995,-0.92645,-0.824756
-539,29,-0.996033,0.83252,0.00379217,0.000273146,-0.00184254,0.00458037,-0.000515052,-0.404222,0.00323895,0.0454018,685,995,-0.996052,-0.832492
-532,29,-0.982971,0.818726,0.00365135,0.00141963,-0.00327914,0.00599929,-0.000928306,-0.621399,0.00434216,0.0484767,692,995,-0.982992,-0.818732
-525,29,-1.00195,0.82489,0,0,0,0,0,0,0,-1,699,995,-1.00193,-0.82488
-518,29,0,0,0,0,0,0,0,0,0,-1,706,995,0,0
-511,29,0,0,0,0,0,0,0,0,0,-1,713,995,0,0
-504,29,0,0,0,0,0,0,0,0,0,-1,720,995,0,0
-497,29,0,0,0,0,0,0,0,0,0,-1,727,995,0,0
-490,29,0,0,0,0,0,0,0,0,0,-1,734,995,0,0
-483,29,0,0,0,0,0,0,0,0,0,-1,741,995,0,0
-476,29,0,0,0,0,0,0,0,0,0,-1,748,995,0,0
-469,29,0,0,0,0,0,0,0,0,0,-1,755,995,0,0
-462,29,0,0,0,0,0,0,0,0,0,-1,762,995,0,0
-455,29,0,0,0,0,0,0,0,0,0,-1,769,995,0,0
-448,29,0,0,0,0,0,0,0,0,0,-1,776,995,0,0
-441,29,0,0,0,0,0,0,0,0,0,-1,783,995,0,0
-434,29,0,0,0,0,0,0,0,0,0,-1,790,995,0,0
-427,29,0,0,0,0,0,0,0,0,0,-1,797,995,0,0
-420,29,0,0,0,0,0,0,0,0,0,-1,804,995,0,0
-413,29,0,0,0,0,0,0,0,0,0,-1,811,995,0,0
-406,29,0,0,0,0,0,0,0,0,0,-1,818,995,0,0
-399,29,0,0,0,0,0,0,0,0,0,-1,825,995,0,0
-392,29,0,0,0,0,0,0,0,0,0,-1,832,995,0,0
-385,29,0,0,0,0,0,0,0,0,0,-1,839,995,0,0
-378,29,0,0,0,0,0,0,0,0,0,-1,846,995,0,0
-371,29,0,0,0,0,0,0,0,0,0,-1,853,995,0,0
-364,29,0,0,0,0,0,0,0,0,0,-1,860,995,0,0
-357,29,0,0,0,0,0,0,0,0,0,-1,867,995,0,0
-350,29,0,0,0,0,0,0,0,0,0,-1,874,995,0,0
-343,29,0,0,0,0,0,0,0,0,0,-1,881,995,0,0
-336,29,0,0,0,0,0,0,0,0,0,-1,888,995,0,0
-329,29,0,0,0,0,0,0,0,0,0,-1,895,995,0,0
-322,29,0,0,0,0,0,0,0,0,0,-1,902,995,0,0
-315,29,0,0,0,0,0,0,0,0,0,-1,909,995,0,0
-308,29,0,0,0,0,0,0,0,0,0,-1,916,995,0,0
-301,29,0,0,0,0,0,0,0,0,0,-1,923,995,0,0
-294,29,0,0,0,0,0,0,0,0,0,-1,930,995,0,0
-287,29,0,0,0,0,0,0,0,0,0,-1,937,995,0,0
-280,29,0,0,0,0,0,0,0,0,0,-1,944,995,0,0
-273,29,0,0,0,0,0,0,0,0,0,-1,951,995,0,0
-266,29,0,0,0,0,0,0,0,0,0,-1,958,995,0,0
-259,29,0,0,0,0,0,0,0,0,0,-1,965,995,0,0
-252,29,0,0,0,0,0,0,0,0,0,-1,972,995,0,0
-245,29,0,0,0,0,0,0,0,0,0,-1,979,995,0,0
-238,29,0,0,0,0,0,0,0,0,0,-1,986,995,0,0
-231,29,0,0,0,0,0,0,0,0,0,-1,993,995,0,0
-224,29,0,0,0,0,0,0,0,0,0,-1,1000,995,0,0
-217,29,0,0,0,0,0,0,0,0,0,-1,1007,995,0,0
-210,29,0,0,0,0,0,0,0,0,0,-1,1014,995,0,0
-203,29,0,0,0,0,0,0,0,0,0,-1,1021,995,0,0
-196,29,0,0,0,0,0,0,0,0,0,-1,1028,995,0,0
-189,29,0,0,0,0,0,0,0,0,0,-1,1035,995,0,0
-182,29,0,0,0,0,0,0,0,0,0,-1,1042,995,0,0
-175,29,0,0,0,0,0,0,0,0,0,-1,1049,995,0,0
-168,29,0,0,0,0,0,0,0,0,0,-1,1056,995,0,0
-161,29,0,0,0,0,0,0,0,0,0,-1,1063,995,0,0
-154,29,0,0,0,0,0,0,0,0,0,-1,1070,995,0,0
-147,29,0,0,0,0,0,0,0,0,0,-1,1077,995,0,0
-140,29,0,0,0,0,0,0,0,0,0,-1,1084,995,0,0
-133,29,0,0,0,0,0,0,0,0,0,-1,1091,995,0,0
-126,29,0,0,0,0,0,0,0,0,0,-1,1098,995,0,0
-119,29,0,0,0,0,0,0,0,0,0,-1,1105,995,0,0
-112,29,0,0,0,0,0,0,0,0,0,-1,1112,995,0,0
-105,29,0,0,0,0,0,0,0,0,0,-1,1119,995,0,0
-98,29,0,0,0,0,0,0,0,0,0,-1,1126,995,0,0
-91,29,0,0,0,0,0,0,0,0,0,-1,1133,995,0,0
-84,29,0,0,0,0,0,0,0,0,0,-1,1140,995,0,0
-77,29,0,0,0,0,0,0,0,0,0,-1,1147,995,0,0
-70,29,0,0,0,0,0,0,0,0,0,-1,1154,995,0,0
-63,29,0,0,0,0,0,0,0,0,0,-1,1161,995,0,0
-56,29,0,0,0,0,0,0,0,0,0,-1,1168,995,0,0
-49,29,0,0,0,0,0,0,0,0,0,-1,1175,995,0,0
-42,29,0,0,0,0,0,0,0,0,0,-1,1182,995,0,0
-35,29,0,0,0,0,0,0,0,0,0,-1,1189,995,0,0
-28,29,0,0,0,0,0,0,0,0,0,-1,1196,995,0,0
-21,29,0,0,0,0,0,0,0,0,0,-1,1203,995,0,0
-14,29,0,0,0,0,0,0,0,0,0,-1,1210,995,0,0
-7,29,0,0,0,0,0,0,0,0,0,-1,1217,995,0,0
0,29,0,0,0,0,0,0,0,0,0,-1,1224,995,0,0
7,29,0,0,0,0,0,0,0,0,0,-1,1231,995,0,0
14,29,0,0,0,0,0,0,0,0,0,-1,1238,995,0,0
21,29,0,0,0,0,0,0,0,0,0,-1,1245,995,0,0
28,29,0,0,0,0,0,0,0,0,0,-1,1252,995,0,0
35,29,0,0,0,0,0,0,0,0,0,-1,1259,995,0,0
42,29,0,0,0,0,0,0,0,0,0,-1,1266,995,0,0
49,29,0,0,0,0,0,0,0,0,0,-1,1273,995,0,0
56,29,0,0,0,0,0,0,0,0,0,-1,1280,995,0,0
63,29,0,0,0,0,0,0,0,0,0,-1,1287,995,0,0
70,29,0,0,0,0,0,0,0,0,0,-1,1294,995,0,0
77,29,0,0,0,0,0,0,0,0,0,-1,1301,995,0,0
84,29,0,0,0,0,0,0,0,0,0,-1,1308,995,0,0
91,29,0,0,0,0,0,0,0,0,0,-1,1315,995,0,0
98,29,0,0,0,0,0,0,0,0,0,-1,1322,995,0,0
105,29,0,0,0,0,0,0,0,0,0,-1,1329,995,0,0
112,29,0,0,0,0,0,0,0,0,0,-1,1336,995,0,0
119,29,0,0,0,0,0,0,0,0,0,-1,1343,995,0,0
126,29,0,0,0,0,0,0,0,0,0,-1,1350,995,0,0
133,29,0,0,0,0,0,0,0,0,0,-1,1357,995,0,0
140,29,0,0,0,0,0,0,0,0,0,-1,1364,995,0,0
147,29,0,0,0,0,0,0,0,0,0,-1,1371,995,0,0
154,29,0,0,0,0,0,0,0,0,0,-1,1378,995,0,0
161,29,0,0,0,0,0,0,0,0,0,-1,1385,995,0,0
168,29,0,0,0,0,0,0,0,0,0,-1,1392,995,0,0
175,29,0,0,0,0,0,0,0,0,0,-1,1399,995,0,0
182,29,0,0,0,0,0,0,0,0,0,-1,1406,995,0,0
189,29,0,0,0,0,0,0,0,0,0,-1,1413,995,0,0
196,29,0,0,0,0,0,0,0,0,0,-1,1420,995,0,0
203,29,0,0,0,0,0,0,0,0,0,-1,1427,995,0,0
210,29,0,0,0,0,0,0,0,0,0,-1,1434,995,0,0
217,29,0,0,0,0,0,0,0,0,0,-1,1441,995,0,0
224,29,0,0,0,0,0,0,0,0,0,-1,1448,995,0,0
231,29,0,0,0,0,0,0,0,0,0,-1,1455,995,0,0
238,29,0,0,0,0,0,0,0,0,0,-1,1462,995,0,0
245,29,0,0,0,0,0,0,0,0,0,-1,1469,995,0,0
252,29,0,0,0,0,0,0,0,0,0,-1,1476,995,0,0
259,29,0,0,0,0,0,0,0,0,0,-1,1483,995,0,0
266,29,0,0,0,0,0,0,0,0,0,-1,1490,995,0,0
273,29,0,0,0,0,0,0,0,0,0,-1,1497,995,0,0
280,29,0,0,0,0,0,0,0,0,0,-1,1504,995,0,0
287,29,0,0,0,0,0,0,0,0,0,-1,1511,995,0,0
294,29,0,0,0,0,0,0,0,0,0,-1,1518,995,0,0
301,29,0,0,0,0,0,0,0,0,0,-1,1525,995,0,0
308,29,0,0,0,0,0,0,0,0,0,-1,1532,995,0,0
315,29,0,0,0,0,0,0,0,0,0,-1,1539,995,0,0
322,29,0,0,0,0,0,0,0,0,0,-1,1546,995,0,0
329,29,0,0,0,0,0,0,0,0,0,-1,1553,995,0,0
336,29,0,0,0,0,0,0,0,0,0,-1,1560,995,0,0
343,29,0,0,0,0,0,0,0,0,0,-1,1567,995,0,0
350,29,0,0,0,0,0,0,0,0,0,-1,1574,995,0,0
357,29,0,0,0,0,0,0,0,0,0,-1,1581,995,0,0
364,29,0,0,0,0,0,0,0,0,0,-1,1588,995,0,0
371,29,0,0,0,0,0,0,0,0,0,-1,1595,995,0,0
378,29,0,0,0,0,0,0,0,0,0,-1,1602,995,0,0
385,29,0,0,0,0,0,0,0,0,0,-1,1609,995,0,0
392,29,0,0,0,0,0,0,0,0,0,-1,1616,995,0,0
399,29,0,0,0,0,0,0,0,0,0,-1,1623,995,0,0
406,29,0,0,0,0,0,0,0,0,0,-1,1630,995,0,0
413,29,0,0,0,0,0,0,0,0,0,-1,1637,995,0,0
420,29,0,0,0,0,0,0,0,0,0,-1,1644,995,0,0
427,29,0,0,0,0,0,0,0,0,0,-1,1651,995,0,0
434,29,0,0,0,0,0,0,0,0,0,-1,1658,995,0,0
441,29,0,0,0,0,0,0,0,0,0,-1,1665,995,0,0
448,29,0,0,0,0,0,0,0,0,0,-1,1672,995,0,0
455,29,0,0,0,0,0,0,0,0,0,-1,1679,995,0,0
462,29,0,0,0,0,0,0,0,0,0,-1,1686,995,0,0
469,29,0,0,0,0,0,0,0,0,0,-1,1693,995,0,0
476,29,0,0,0,0,0,0,0,0,0,-1,1700,995,0,0
483,29,0,0,0,0,0,0,0,0,0,-1,1707,995,0,0
490,29,0,0,0,0,0,0,0,0,0,-1,1714,995,0,0
497,29,0,0,0,0,0,0,0,0,0,-1,1721,995,0,0
504,29,0,0,0,0,0,0,0,0,0,-1,1728,995,0,0
511,29,0,0,0,0,0,0,0,0,0,-1,1735,995,0,0
518,29,0,0,0,0,0,0,0,0,0,-1,1742,995,0,0
525,29,0,0,0,0,0,0,0,0,0,-1,1749,995,0,0
532,29,0,0,0,0,0,0,0,0,0,-1,1756,995,0,0
539,29,0,0,0,0,0,0,0,0,0,-1,1763,995,0,0
546,29,0,0,0,0,0,0,0,0,0,-1,1770,995,0,0
553,29,0,0,0,0,0,0,0,0,0,-1,1777,995,0,0
560,29,0,0,0,0,0,0,0,0,0,-1,1784,995,0,0
567,29,0,0,0,0,0,0,0,0,0,-1,1791,995,0,0
574,29,0,0,0,0,0,0,0,0,0,-1,1798,995,0,0
581,29,0,0,0,0,0,0,0,0,0,-1,1805,995,0,0
588,29,0,0,0,0,0,0,0,0,0,-1,1812,995,0,0
595,29,0,0,0,0,0,0,0,0,0,-1,1819,995,0,0
602,29,0,0,0,0,0,0,0,0,0,-1,1826,995,0,0
609,29,0,0,0,0,0,0,0,0,0,-1,1833,995,0,0
616,29,0,0,0,0,0,0,0,0,0,-1,1840,995,0,0
623,29,0,0,0,0,0,0,0,0,0,-1,1847,995,0,0
630,29,0,0,0,0,0,0,0,0,0,-1,1854,995,0,0
637,29,0,0,0,0,0,0,0,0,0,-1,1861,995,0,0
644,29,4.96558,0.694885,-0.00245067,0.0025541,0.000283618,0.00257012,-0.00246669,1.51437,0.00290821,0.0407521,1868,995,4.96561,-0.694881
651,29,4.86731,0.773682,-0.00134452,0.00148013,0.000348188,0.00152242,-0.00138681,1.44994,0.00168025,0.0388593,1875,995,4.86733,-0.77368
658,29,4.87012,0.990723,-0.00077066,0.000717402,0.000340012,0.000791411,-0.000844669,1.35647,0.000944758,0.0413633,1882,995,4.87007,-0.990707
665,29,4.97119,1.01453,-0.000494056,0.000227213,0.00035024,0.000369296,-0.00063614,1.18541,0.000587264,0.0424652,1889,995,4.97119,-1.01452
672,29,4.99939,0.691345,-0.000434625,-7.52268e-05,0.000391781,0.000176101,-0.000685953,1.00042,0.000525924,0.0394595,1896,995,4.99939,-0.691324
679,29,4.99084,0.687256,-0.00054384,-0.000248663,0.000453206,8.03809e-05,-0.000872883,0.94281,0.000610482,0.0382877,1903,995,4.99087,-0.687277
686,29,4.87378,0.650024,-0.000670425,-0.000333341,0.000512879,3.79789e-05,-0.00104175,0.944149,0.000707496,0.0344897,1910,995,4.87382,-0.650026
693,29,4.77661,0.723694,-0.000756031,-0.000365814,0.000573273,4.46429e-05,-0.00116649,0.949421,0.000792959,0.0355745,1917,995,4.77659,-0.723711
700,29,4.85657,0.73645,-0.000696536,-0.000424531,0.000584941,4.00104e-05,-0.00116108,0.899622,0.000787727,0.03409,1924,995,4.8566,-0.736422
707,29,4.90637,0.684814,-0.000739887,-0.00033045,0.00056423,6.50531e-05,-0.00113539,0.959427,0.000779516,0.0198777,1931,995,4.90637,-0.684802
714,29,4.93433,0.724365,-0.000887429,-0.000250937,0.00056682,8.0868e-05,-0.00121923,1.0412,0.000841075,0.0152076,1938,995,4.93427,-0.724382
721,29,4.92432,0.743408,-0.00102451,-0.000141872,0.000621328,0.000178919,-0.0013453,1.09419,0.000962068,0.0159281,1945,995,4.92437,-0.743406
728,29,4.89587,0.743896,-0.00102759,-3.1278e-06,0.000577468,0.000256554,-0.00128727,1.1482,0.000955253,0.0141495,1952,995,4.89584,-0.743917
735,29,4.85999,0.772217,-0.000867682,0.000210829,0.00051414,0.000416648,-0.0010735,1.19002,0.000887762,0.0131219,1959,995,4.86004,-0.772202
742,29,4.84595,0.803772,-0.000905218,0.000325285,0.000523443,0.000517825,-0.00109776,1.21832,0.000952578,0.0106723,1966,995,4.84589,-0.803763
749,29,4.87976,0.806458,-0.00113712,0.000553712,0.000375162,0.000633215,-0.00121662,1.36197,0.00108556,0.0115005,1973,995,4.87975,-0.806483
756,29,4.89856,0.804016,-0.00158817,0.000882615,0.000155535,0.000892367,-0.00159793,1.50818,0.00145688,0.0105725,1980,995,4.89852,-0.804018
763,29,4.8916,0.818176,-0.00218928,0.00123835,-9.18216e-05,0.00124081,-0.00219173,-1.54403,0.00200697,0.0110007,1987,995,4.8916,-0.818198
770,29,4.87305,0.823181,-0.00315244,0.00172607,-0.000474699,0.00177183,-0.00319821,-1.47469,0.00290857,0.0120128,1994,995,4.87305,-0.82321
777,29,4.85876,0.867981,-0.00474921,0.00238233,-0.0010968,0.0025472,-0.00491408,-1.42159,0.00437943,0.0194725,2001,995,4.8588,-0.867964
784,29,4.71423,0.938232,-0.00734116,0.0032669,-0.00215376,0.00368751,-0.00776177,-1.37794,0.00674831,0.0404948,2008,995,4.71423,-0.938221
791,29,4.74133,0.977234,0,0,0,0,0,0,0,-1,2015,995,4.74138,-0.977213
798,29,4.07825,-0.292236,0,0,0,0,0,0,0,-1,2022,995,4.07825,0.292256
805,29,7.26965,-3.96283,0,0,0,0,0,0,0,-1,2029,995,7.26963,3.96281
812,29,2.91992,-0.0777588,0,0,0,0,0,0,0,-1,2036,995,2.91988,0.07778
-700,22,0,0,0,0,0,0,0,0,0,-1,524,1002,0,0
-693,22,0.392334,0.437073,0,0,0,0,0,0,0,-1,531,1002,0.392334,-0.437083
-686,22,0.201111,0.439697,0.0256578,-0.00246724,-0.0163873,0.0331892,-0.00999861,-0.430798,0.0261053,0.0434567,538,1002,0.201087,-0.439702
-679,22,0.233032,0.337524,0.0139018,-0.00397631,-0.00981682,0.0182396,-0.00831418,-0.416082,0.0156838,0.0484761,545,1002,0.233043,-0.337502
-672,22,0.156067,0.369324,0.00563854,-0.00466416,-0.00502665,0.00768467,-0.00671029,-0.386573,0.00831727,0.0464289,552,1002,0.156049,-0.369296
-665,22,-0.0546265,0.370239,2.80257e-05,-0.0048026,-0.00162019,0.000521107,-0.00529568,-0.295429,0.00371635,0.0426207,559,1002,-0.054643,-0.370218
-658,22,-0.5224,0.374023,0,0,0,0,0,0,0,-1,566,1002,-0.522389,-0.374036
-651,22,-0.793518,0.560852,-0.00541683,-0.00406976,0.00203256,-0.00260204,-0.00688455,0.945391,0.00401407,0.0350497,573,1002,-0.793535,-0.560835
-644,22,-1.03461,0.758606,-0.00614349,-0.00344732,0.00268949,-0.00178697,-0.00780384,1.01772,0.00472102,0.0151135,580,1002,-1.03459,-0.758634
-637,22,-1.03876,0.775818,-0.00608713,-0.00286338,0.0031841,-0.000906407,-0.0080441,1.01971,0.00508758,0.0108386,587,1002,-1.03873,-0.775828
-630,22,-1.04749,0.780151,-0.0065229,-0.00224283,0.00336533,-0.000394739,-0.008371,1.0686,0.00545385,0.010078,594,1002,-1.04749,-0.780147
-623,22,-1.05237,0.780273,-0.00603088,-0.00181179,0.00285542,-0.000371181,-0.00747149,1.10354,0.00486199,0.00915281,601,1002,-1.05239,-0.78025
-616,22,-1.06677,0.768127,-0.00438491,-0.00129325,0.00225366,-0.000106212,-0.00557194,1.08601,0.00367974,0.0153979,608,1002,-1.06677,-0.768111
-609,22,-1.06665,0.756836,-0.00252046,-0.000723575,0.00164585,0.000253087,-0.00349713,1.03524,0.00242019,0.0255996,615,1002,-1.06667,-0.756811
-602,22,-1.06482,0.729736,-0.00110217,-0.000469118,0.000808719,8.28104e-05,-0.0016541,0.971931,0.00113135,0.0250437,622,1002,-1.06479,-0.729712
-595,22,-1.07831,0.726318,-1.17505e-05,-0.00029489,0.000349167,0.000223455,-0.000530096,0.5928,0.000446908,0.0208524,629,1002,-1.07831,-0.726293
-588,22,-1.06653,0.683472,0.000665189,-0.000544835,0.000267965,0.000721876,-0.000601522,0.20847,0.000765116,0.0264889,636,1002,-1.06652,-0.683456
-581,22,-1.10022,0.649292,0.00121415,-0.000725646,0.000265825,0.00124992,-0.000761414,0.133753,0.00117261,0.0376473,643,1002,-1.10025,-0.649313
-574,22,-1.08496,0.709778,0.00160433,-0.000638244,0.000205454,0.001623,-0.000656911,0.09061,0.00135513,0.0329697,650,1002,-1.08497,-0.709794
-567,22,-1.08405,0.740295,0.00211893,-0.00067115,0.000204756,0.00213387,-0.000686096,0.072867,0.00169813,0.0315659,657,1002,-1.08402,-0.740273
-560,22,-1.08264,0.7323,0.00263001,-0.000636314,0.00013563,0.00263563,-0.000641936,0.0414287,0.00200561,0.0380602,664,1002,-1.08263,-0.732303
-553,22,-1.05469,0.754333,0.00312612,-0.00049339,-5.94654e-05,0.00312709,-0.000494366,-0.0164232,0.00226755,0.0415829,671,1002,-1.05468,-0.754329
-546,22,-1.12836,0.775513,0.00354224,-0.000174028,-0.000451113,0.00359622,-0.000228004,-0.119085,0.00247698,0.0416116,678,1002,-1.12836,-0.775491
-539,22,-1.15405,0.658691,0.00376833,0.000412061,-0.00113137,0.00411408,6.63053e-05,-0.296594,0.00272089,0.0421235,685,1002,-1.15407,-0.65871
-532,22,-1.13159,0.67627,0.00363431,0.00143722,-0.00220612,0.00500026,7.12669e-05,-0.554394,0.00331001,0.0447098,692,1002,-1.13158,-0.676293
-525,22,0,0,0,0,0,0,0,0,0,-1,699,1002,0,0
-518,22,0,0,0,0,0,0,0,0,0,-1,706,1002,0,0
-511,22,0,0,0,0,0,0,0,0,0,-1,713,1002,0,0
-504,22,0,0,0,0,0,0,0,0,0,-1,720,1002,0,0
-497,22,0,0,0,0,0,0,0,0,0,-1,727,1002,0,0
-490,22,0,0,0,0,0,0,0,0,0,-1,734,1002,0,0
-483,22,0,0,0,0,0,0,0,0,0,-1,741,1002,0,0
-476,22,0,0,0,0,0,0,0,0,0,-1,748,1002,0,0
-469,22,0,0,0,0,0,0,0,0,0,-1,755,1002,0,0
-462,22,0,0,0,0,0,0,0,0,0,-1,762,1002,0,0
-455,22,0,0,0,0,0,0,0,0,0,-1,769,1002,0,0
-448,22,0,0,0,0,0,0,0,0,0,-1,776,1002,0,0
-441,22,0,0,0,0,0,0,0,0,0,-1,783,1002,0,0
-434,22,0,0,0,0,0,0,0,0,0,-1,790,1002,0,0
-427,22,0,0,0,0,0,0,0,0,0,-1,797,1002,0,0
-420,22,0,0,0,0,0,0,0,0,0,-1,804,1002,0,0
-413,22,0,0,0,0,0,0,0,0,0,-1,811,1002,0,0
-406,22,0,0,0,0,0,0,0,0,0,-1,818,1002,0,0
-399,22,0,0,0,0,0,0,0,0,0,-1,825,1002,0,0
-392,22,0,0,0,0,0,0,0,0,0,-1,832,1002,0,0
-385,22,0,0,0,0,0,0,0,0,0,-1,839,1002,0,0
-378,22,0,0,0,0,0,0,0,0,0,-1,846,1002,0,0
-371,22,0,0,0,0,0,0,0,0,0,-1,853,1002,0,0
-364,22,0,0,0,0,0,0,0,0,0,-1,860,1002,0,0
-357,22,0,0,0,0,0,0,0,0,0,-1,867,1002,0,0
-350,22,0,0,0,0,0,0,0,0,0,-1,874,1002,0,0
-343,22,0,0,0,0,0,0,0,0,0,-1,881,1002,0,0
-336,22,0,0,0,0,0,0,0,0,0,-1,888,1002,0,0
-329,22,0,0,0,0,0,0,0,0,0,-1,895,1002,0,0
-322,22,0,0,0,0,0,0,0,0,0,-1,902,1002,0,0
-315,22,0,0,0,0,0,0,0,0,0,-1,909,1002,0,0
-308,22,0,0,0,0,0,0,0,0,0,-1,916,1002,0,0
-301,22,0,0,0,0,0,0,0,0,0,-1,923,1002,0,0
-294,22,0,0,0,0,0,0,0,0,0,-1,930,1002,0,0
-287,22,0,0,0,0,0,0,0,0,0,-1,937,1002,0,0
-280,22,0,0,0,0,0,0,0,0,0,-1,944,1002,0,0
-273,22,0,0,0,0,0,0,0,0,0,-1,951,1002,0,0
-266,22,0,0,0,0,0,0,0,0,0,-1,958,1002,0,0
-259,22,0,0,0,0,0,0,0,0,0,-1,965,1002,0,0
-252,22,0,0,0,0,0,0,0,0,0,-1,972,1002,0,0
-245,22,0,0,0,0,0,0,0,0,0,-1,979,1002,0,0
-238,22,0,0,0,0,0,0,0,0,0,-1,986,1002,0,0
-231,22,0,0,0,0,0,0,0,0,0,-1,993,1002,0,0
-224,22,0,0,0,0,0,0,0,0,0,-1,1000,1002,0,0
-217,22,0,0,0,0,0,0,0,0,0,-1,1007,1002,0,0
-210,22,0,0,0,0,0,0,0,0,0,-1,1014,1002,0,0
-203,22,0,0,0,0,0,0,0,0,0,-1,1021,1002,0,0
-196,22,0,0,0,0,0,0,0,0,0,-1,1028,1002,0,0
-189,22,0,0,0,0,0,0,0,0,0,-1,1035,1002,0,0
-182,22,0,0,0,0,0,0,0,0,0,-1,1042,1002,0,0
-175,22,0,0,0,0,0,0,0,0,0,-1,1049,1002,0,0
-168,22,0,0,0,0,0,0,0,0,0,-1,1056,1002,0,0
-161,22,0,0,0,0,0,0,0,0,0,-1,1063,1002,0,0
-154,22,0,0,0,0,0,0,0,0,0,-1,1070,1002,0,0
-147,22,0,0,0,0,0,0,0,0,0,-1,1077,1002,0,0
-140,22,0,0,0,0,0,0,0,0,0,-1,1084,1002,0,0
-133,22,0,0,0,0,0,0,0,0,0,-1,1091,1002,0,0
-126,22,0,0,0,0,0,0,0,0,0,-1,1098,1002,0,0
-119,22,0,0,0,0,0,0,0,0,0,-1,1105,1002,0,0
-112,22,0,0,0,0,0,0,0,0,0,-1,1112,1002,0,0
-105,22,0,0,0,0,0,0,0,0,0,-1,1119,1002,0,0
-98,22,0,0,0,0,0,0,0,0,0,-1,1126,1002,0,0
-91,22,0,0,0,0,0,0,0,0,0,-1,1133,1002,0,0
-84,22,0,0,0,0,0,0,0,0,0,-1,1140,1002,0,0
-77,22,0,0,0,0,0,0,0,0,0,-1,1147,1002,0,0
-70,22,0,0,0,0,0,0,0,0,0,-1,1154,1002,0,0
-63,22,0,0,0,0,0,0,0,0,0,-1,1161,1002,0,0
-56,22,0,0,0,0,0,0,0,0,0,-1,1168,1002,0,0
-49,22,0,0,0,0,0,0,0,0,0,-1,1175,1002,0,0
-42,22,0,0,0,0,0,0,0,0,0,-1,1182,1002,0,0
-35,22,0,0,0,0,0,0,0,0,0,-1,1189,1002,0,0
-28,22,0,0,0,0,0,0,0,0,0,-1,1196,1002,0,0
-21,22,0,0,0,0,0,0,0,0,0,-1,1203,1002,0,0
-14,22,0,0,0,0,0,0,0,0,0,-1,1210,1002,0,0
-7,22,0,0,0,0,0,0,0,0,0,-1,1217,1002,0,0
0,22,0,0,0,0,0,0,0,0,0,-1,1224,1002,0,0
7,22,0,0,0,0,0,0,0,0,0,-1,1231,1002,0,0
14,22,0,0,0,0,0,0,0,0,0,-1,1238,1002,0,0
21,22,0,0,0,0,0,0,0,0,0,-1,1245,1002,0,0
28,22,0,0,0,0,0,0,0,0,0,-1,1252,1002,0,0
35,22,0,0,0,0,0,0,0,0,0,-1,1259,1002,0,0
42,22,0,0,0,0,0,0,0,0,0,-1,1266,1002,0,0
49,22,0,0,0,0,0,0,0,0,0,-1,1273,1002,0,0
56,22,0,0,0,0,0,0,0,0,0,-1,1280,1002,0,0
63,22,0,0,0,0,0,0,0,0,0,-1,1287,1002,0,0
70,22,0,0,0,0,0,0,0,0,0,-1,1294,1002,0,0
77,22,0,0,0,0,0,0,0,0,0,-1,1301,1002,0,0
84,22,0,0,0,0,0,0,0,0,0,-1,1308,1002,0,0
91,22,0,0,0,0,0,0,0,0,0,-1,1315,1002,0,0
98,22,0,0,0,0,0,0,0,0,0,-1,1322,1002,0,0
105,22,0,0,0,0,0,0,0,0,0,-1,1329,1002,0,0
112,22,0,0,0,0,0,0,0,0,0,-1,1336,1002,0,0
119,22,0,0,0,0,0,0,0,0,0,-1,1343,1002,0,0
126,22,0,0,0,0,0,0,0,0,0,-1,1350,1002,0,0
133,22,0,0,0,0,0,0,0,0,0,-1,1357,1002,0,0
140,22,0,0,0,0,0,0,0,0,0,-1,1364,1002,0,0
147,22,0,0,0,0,0,0,0,0,0,-1,1371,1002,0,0
154,22,0,0,0,0,0,0,0,0,0,-1,1378,1002,0,0
161,22,0,0,0,0,0,0,0,0,0,-1,1385,1002,0,0
168,22,0,0,0,0,0,0,0,0,0,-1,1392,1002,0,0
175,22,0,0,0,0,0,0,0,0,0,-1,1399,1002,0,0
182,22,0,0,0,0,0,0,0,0,0,-1,1406,1002,0,0
189,22,0,0,0,0,0,0,0,0,0,-1,1413,1002,0,0
196,22,0,0,0,0,0,0,0,0,0,-1,1420,1002,0,0
203,22,0,0,0,0,0,0,0,0,0,-1,1427,1002,0,0
210,22,0,0,0,0,0,0,0,0,0,-1,1434,1002,0,0
217,22,0,0,0,0,0,0,0,0,0,-1,1441,1002,0,0
224,22,0,0,0,0,0,0,0,0,0,-1,1448,1002,0,0
231,22,0,0,0,0,0,0,0,0,0,-1,1455,1002,0,0
238,22,0,0,0,0,0,0,0,0,0,-1,1462,1002,0,0
245,22,0,0,0,0,0,0,0,0,0,-1,1469,1002,0,0
252,22,0,0,0,0,0,0,0,0,0,-1,1476,1002,0,0
259,22,0,0,0,0,0,0,0,0,0,-1,1483,1002,0,0
266,22,0,0,0,0,0,0,0,0,0,-1,1490,1002,0,0
273,22,0,0,0,0,0,0,0,0,0,-1,1497,1002,0,0
280,22,0,0,0,0,0,0,0,0,0,-1,1504,1002,0,0
287,22,0,0,0,0,0,0,0,0,0,-1,1511,1002,0,0
294,22,0,0,0,0,0,0,0,0,0,-1,1518,1002,0,0
301,22,0,0,0,0,0,0,0,0,0,-1,1525,1002,0,0
308,22,0,0,0,0,0,0,0,0,0,-1,1532,1002,0,0
315,22,0,0,0,0,0,0,0,0,0,-1,1539,1002,0,0
322,22,0,0,0,0,0,0,0,0,0,-1,1546,1002,0,0
329,22,0,0,0,0,0,0,0,0,0,-1,1553,1002,0,0
336,22,0,0,0,0,0,0,0,0,0,-1,1560,1002,0,0
343,22,0,0,0,0,0,0,0,0,0,-1,1567,1002,0,0
350,22,0,0,0,0,0,0,0,0,0,-1,1574,1002,0,0
357,22,0,0,0,0,0,0,0,0,0,-1,1581,1002,0,0
364,22,0,0,0,0,0,0,0,0,0,-1,1588,1002,0,0
371,22,0,0,0,0,0,0,0,0,0,-1,1595,1002,0,0
378,22,0,0,0,0,0,0,0,0,0,-1,1602,1002,0,0
385,22,0,0,0,0,0,0,0,0,0,-1,1609,1002,0,0
392,22,0,0,0,0,0,0,0,0,0,-1,1616,1002,0,0
399,22,0,0,0,0,0,0,0,0,0,-1,1623,1002,0,0
406,22,0,0,0,0,0,0,0,0,0,-1,1630,1002,0,0
413,22,0,0,0,0,0,0,0,0,0,-1,1637,1002,0,0
420,22,0,0,0,0,0,0,0,0,0,-1,1644,1002,0,0
427,22,0,0,0,0,0,0,0,0,0,-1,1651,1002,0,0
434,22,0,0,0,0,0,0,0,0,0,-1,1658,1002,0,0
441,22,0,0,0,0,0,0,0,0,0,-1,1665,1002,0,0
448,22,0,0,0,0,0,0,0,0,0,-1,1672,1002,0,0
455,22,0,0,0,0,0,0,0,0,0,-1,1679,1002,0,0
462,22,0,0,0,0,0,0,0,0,0,-1,1686,1002,0,0
469,22,0,0,0,0,0,0,0,0,0,-1,1693,1002,0,0
476,22,0,0,0,0,0,0,0,0,0,-1,1700,1002,0,0
483,22,0,0,0,0,0,0,0,0,0,-1,1707,1002,0,0
490,22,0,0,0,0,0,0,0,0,0,-1,1714,1002,0,0
497,22,0,0,0,0,0,0,0,0,0,-1,1721,1002,0,0
504,22,0,0,0,0,0,0,0,0,0,-1,1728,1002,0,0
511,22,0,0,0,0,0,0,0,0,0,-1,1735,1002,0,0
518,22,0,0,0,0,0,0,0,0,0,-1,1742,1002,0,0
525,22,0,0,0,0,0,0,0,0,0,-1,1749,1002,0,0
532,22,0,0,0,0,0,0,0,0,0,-1,1756,1002,0,0
539,22,0,0,0,0,0,0,0,0,0,-1,1763,1002,0,0
546,22,0,0,0,0,0,0,0,0,0,-1,1770,1002,0,0
553,22,0,0,0,0,0,0,0,0,0,-1,1777,1002,0,0
560,22,0,0,0,0,0,0,0,0,0,-1,1784,1002,0,0
567,22,0,0,0,0,0,0,0,0,0,-1,1791,1002,0,0
574,22,0,0,0,0,0,0,0,0,0,-1,1798,1002,0,0
581,22,0,0,0,0,0,0,0,0,0,-1,1805,1002,0,0
588,22,0,0,0,0,0,0,0,0,0,-1,1812,1002,0,0
595,22,0,0,0,0,0,0,0,0,0,-1,1819,1002,0,0
602,22,0,0,0,0,0,0,0,0,0,-1,1826,1002,0,0
609,22,0,0,0,0,0,0,0,0,0,-1,1833,1002,0,0
616,22,0,0,0,0,0,0,0,0,0,-1,1840,1002,0,0
623,22,0,0,0,0,0,0,0,0,0,-1,1847,1002,0,0
630,22,0,0,0,0,0,0,0,0,0,-1,1854,1002,0,0
637,22,0,0,0,0,0,0,0,0,0,-1,1861,1002,0,0
644,22,4.8988,0.628784,-0.00243314,0.00307364,0.00039171,0.00310136,-0.00246086,1.50014,0.00321844,0.0401661,1868,1002,4.89881,-0.62881
651,22,4.84216,0.723877,-0.00137249,0.00175376,0.000463857,0.00182113,-0.00143986,1.42656,0.00188702,0.0422948,1875,1002,4.84211,-0.72385
658,22,4.84827,0.811279,-0.000824511,0.000867544,0.000432138,0.00097152,-0.000928486,1.33468,0.00109706,0.0440957,1882,1002,4.84826,-0.811251
665,22,4.93433,0.745117,-0.000544656,0.00031222,0.000414068,0.000479611,-0.000712046,1.18662,0.000692352,0.0423236,1889,1002,4.93434,-0.745101
672,22,4.95544,0.64801,-0.000446692,-1.78428e-05,0.000440003,0.000257203,-0.000721737,1.01213,0.000586019,0.0396725,1896,1002,4.95546,-0.647985
679,22,4.95801,0.573975,-0.000515822,-0.000201427,0.000491567,0.000157466,-0.000874715,0.940154,0.000642101,0.0379847,1903,1002,4.95805,-0.573956
686,22,4.93542,0.563049,-0.000609947,-0.000286154,0.000545737,0.000121194,-0.0010173,0.929591,0.000721993,0.0358396,1910,1002,4.93546,-0.56302
693,22,4.9071,0.760559,-0.000678298,-0.000311569,0.000593591,0.000126334,-0.0011162,0.935202,0.000789621,0.0366043,1917,1002,4.90709,-0.760561
700,22,4.90796,0.75354,-0.000623252,-0.000389538,0.000611539,0.000116209,-0.001129,0.879803,0.000794241,0.0347149,1924,1002,4.90795,-0.753568
707,22,4.87036,0.646667,-0.000645527,-0.000299732,0.000603903,0.000155536,-0.0011008,0.924819,0.000790824,0.0252978,1931,1002,4.87034,-0.646695
714,22,4.90674,0.715637,-0.000765771,-0.000218082,0.000609604,0.000176361,-0.00116021,0.996499,0.000838468,0.0147223,1938,1002,4.9068,-0.715652
721,22,4.94824,0.747681,-0.000893736,-0.000113055,0.000654655,0.000258798,-0.00126559,1.05423,0.000941919,0.0135363,1945,1002,4.94827,-0.747658
728,22,4.87915,0.74469,-0.000919393,7.95504e-06,0.000596633,0.000299903,-0.00121134,1.11572,0.000923899,0.0134425,1952,1002,4.87911,-0.744688
735,22,4.84949,0.787903,-0.000822105,0.00016316,0.000502236,0.000374038,-0.00103298,1.17327,0.000841516,0.0140153,1959,1002,4.84948,-0.787892
742,22,4.86108,0.824951,-0.000875672,0.00021788,0.00043718,0.000371169,-0.00102896,1.23356,0.000837574,0.0135532,1966,1002,4.86104,-0.824933
749,22,4.8927,0.821838,-0.000986706,0.000313822,0.000286629,0.000374191,-0.00104707,1.36321,0.000850671,0.0109601,1973,1002,4.89268,-0.821817
756,22,4.92993,0.773254,-0.00123066,0.000474413,9.45904e-05,0.000479644,-0.00123589,1.51555,0.00102204,0.0148973,1980,1002,4.92999,-0.773232
763,22,4.89624,0.824097,-0.00157649,0.000633743,-0.00014989,0.000643862,-0.00158661,-1.50339,0.00132555,0.0163032,1987,1002,4.89626,-0.824096
770,22,4.89172,0.838562,-0.00208648,0.000826587,-0.000467357,0.000899731,-0.00215963,-1.41555,0.00181556,0.0108833,1994,1002,4.89172,-0.838555
777,22,4.87415,0.884888,-0.00291453,0.00104494,-0.000895414,0.00123802,-0.00310761,-1.35842,0.00258519,0.0175987,2001,1002,4.87414,-0.884888
784,22,4.81628,0.940369,-0.00427197,0.00127803,-0.00154043,0.00167691,-0.00467086,-1.31742,0.00379834,0.0386324,2008,1002,4.81633,-0.940364
791,22,4.77234,0.994446,0,0,0,0,0,0,0,-1,2015,1002,4.77234,-0.994441
798,22,4.06812,-0.0911865,0,0,0,0,0,0,0,-1,2022,1002,4.06806,0.0911943
805,22,3.75793,0.0235596,0,0,0,0,0,0,0,-1,2029,1002,3.75791,-0.0235471
812,22,3.17664,0.220947,0,0,0,0,0,0,0,-1,2036,1002,3.17665,-0.220977
-700,15,0,0,0,0,0,0,0,0,0,-1,524,1009,0,0
-693,15,-0.162415,0.449768,0.0253164,-0.00066082,-0.0275837,0.0428166,-0.0181609,-0.565357,0.036152,0.0453285,531,1009,-0.162423,-0.449797
-686,15,-0.0888672,0.403992,0.0130258,-0.00419013,-0.0185386,0.0248574,-0.0160217,-0.568046,0.0237847,0.0439276,538,1009,-0.0888933,-0.403992
-679,15,0.287903,0.420227,0,0,0,0,0,0,0,-1,545,1009,0.287885,-0.420256
-672,15,0.0737305,0.506958,-0.000981756,-0.00681364,-0.00677608,0.00347916,-0.0112746,-0.582211,0.00890558,0.0465305,552,1009,0.0737428,-0.506939
-665,15,-0.17395,0.538818,-0.00456217,-0.00686223,-0.00313534,-0.0023726,-0.0090518,-0.609618,0.00541963,0.0411858,559,1009,-0.173952,-0.538797
-658,15,-0.492188,0.43866,-0.00654251,-0.0064113,-0.000623467,-0.00585,-0.00710382,-0.83782,0.0043782,0.040351,566,1009,-0.492167,-0.438661
-651,15,-0.880493,0.641602,-0.00732929,-0.00564294,0.000966185,-0.00520375,-0.00776848,1.14416,0.00457058,0.0345983,573,1009,-0.880479,-0.6416
-644,15,-1.04852,0.790405,-0.007242,-0.00471416,0.00182072,-0.00376166,-0.0081945,1.08881,0.00473639,0.0141314,580,1009,-1.04852,-0.790393
-637,15,-1.04761,0.791138,-0.00659068,-0.00390874,0.00257727,-0.00234445,-0.00815497,1.02528,0.00484795,0.0108758,587,1009,-1.0476,-0.791112
-630,15,-1.05383,0.760437,-0.00651266,-0.00308176,0.00292267,-0.00140829,-0.00818613,1.05078,0.00505382,0.00937515,594,1009,-1.05385,-0.760448
-623,15,-1.05157,0.760193,-0.00570311,-0.00238578,0.00248636,-0.00105561,-0.00703328,1.07955,0.0043796,0.00784921,601,1009,-1.0516,-0.760172
-616,15,-1.07361,0.757996,-0.00391981,-0.00162076,0.0019625,-0.000495902,-0.00504466,1.05033,0.0032106,0.0120392,608,1009,-1.07363,-0.758013
-609,15,-1.05042,0.745483,-0.00203616,-0.000676077,0.00139271,0.000193757,-0.00290599,1.01251,0.00200503,0.0196577,615,1009,-1.05044,-0.745481
-602,15,-1.07251,0.74646,-0.000719931,-0.000403517,0.00061446,7.2776e-05,-0.00119622,0.911398,0.000822815,0.0192181,622,1009,-1.07253,-0.746442
-595,15,-1.10809,0.708801,0.000260011,-0.000209472,0.000259032,0.000374842,-0.000324303,0.417276,0.000404003,0.018346,629,1009,-1.10809,-0.70882
-588,15,-1.09943,0.67865,0.000879694,-0.000414568,0.000218005,0.000915428,-0.000450302,0.162469,0.000803603,0.0253302,636,1009,-1.0994,-0.678641
-581,15,-1.086,0.603149,0.00139294,-0.000586737,0.000230726,0.00141947,-0.000613271,0.114503,0.00120398,0.0357737,643,1009,-1.08602,-0.603146
-574,15,-1.08191,0.639954,0.00175524,-0.000523868,0.000215507,0.00177544,-0.000544066,0.0934538,0.00140066,0.0319485,650,1009,-1.08192,-0.639939
-567,15,-1.07849,0.659973,0.00219807,-0.000561987,0.000259996,0.00222234,-0.000586265,0.0931082,0.0017108,0.0328235,657,1009,-1.07847,-0.659971
-560,15,-1.0058,0.751282,0.00260435,-0.000559728,0.00026306,0.00262607,-0.000581449,0.0823857,0.0019733,0.0392402,664,1009,-1.00578,-0.75129
-553,15,-0.980774,0.844727,0.00296132,-0.000494748,0.000171616,0.00296982,-0.000503249,0.0494941,0.00216719,0.0421729,671,1009,-0.9808,-0.844711
-546,15,-1.16431,0.755859,0.00320521,-0.00032101,-7.27493e-05,0.00320671,-0.00032251,-0.0206193,0.00225302,0.0406195,678,1009,-1.16428,-0.75588
-539,15,-1.17426,0.793274,0.00324024,2.29698e-05,-0.000552532,0.00333248,-6.92771e-05,-0.165427,0.0022451,0.0411247,685,1009,-1.17427,-0.793274
-532,15,-0.988953,0.589905,0.00292047,0.000670076,-0.00136307,0.00356277,2.77788e-05,-0.440353,0.00236598,0.0423073,692,1009,-0.988974,-0.589887
-525,15,0,0,0,0,0,0,0,0,0,-1,699,1009,0,0
-518,15,0,0,0,0,0,0,0,0,0,-1,706,1009,0,0
-511,15,0,0,0,0,0,0,0,0,0,-1,713,1009,0,0
-504,15,0,0,0,0,0,0,0,0,0,-1,720,1009,0,0
-497,15,0,0,0,0,0,0,0,0,0,-1,727,1009,0,0
-490,15,0,0,0,0,0,0,0,0,0,-1,734,1009,0,0
-483,15,0,0,0,0,0,0,0,0,0,-1,741,1009,0,0
-476,15,0,0,0,0,0,0,0,0,0,-1,748,1009,0,0
-469,15,0,0,0,0,0,0,0,0,0,-1,755,1009,0,0
-462,15,0,0,0,0,0,0,0,0,0,-1,762,1009,0,0
-455,15,0,0,0,0,0,0,0,0,0,-1,769,1009,0,0
-448,15,0,0,0,0,0,0,0,0,0,-1,776,1009,0,0
-441,15,0,0,0,0,0,0,0,0,0,-1,783,1009,0,0
-434,15,0,0,0,0,0,0,0,0,0,-1,790,1009,0,0
-427,15,0,0,0,0,0,0,0,0,0,-1,797,1009,0,0
-420,15,0,0,0,0,0,0,0,0,0,-1,804,1009,0,0
-413,15,0,0,0,0,0,0,0,0,0,-1,811,1009,0,0
-406,15,0,0,0,0,0,0,0,0,0,-1,818,1009,0,0
-399,15,0,0,0,0,0,0,0,0,0,-1,825,1009,0,0
-392,15,0,0,0,0,0,0,0,0,0,-1,832,1009,0,0
-385,15,0,0,0,0,0,0,0,0,0,-1,839,1009,0,0
-378,15,0,0,0,0,0,0,0,0,0,-1,846,1009,0,0
-371,15,0,0,0,0,0,0,0,0,0,-1,853,1009,0,0
-364,15,0,0,0,0,0,0,0,0,0,-1,860,1009,0,0
-357,15,0,0,0,0,0,0,0,0,0,-1,867,1009,0,0
-350,15,0,0,0,0,0,0,0,0,0,-1,874,1009,0,0
-343,15,0,0,0,0,0,0,0,0,0,-1,881,1009,0,0
-336,15,0,0,0,0,0,0,0,0,0,-1,888,1009,0,0
-329,15,0,0,0,0,0,0,0,0,0,-1,895,1009,0,0
-322,15,0,0,0,0,0,0,0,0,0,-1,902,1009,0,0
-315,15,0,0,0,0,0,0,0,0,0,-1,909,1009,0,0
-308,15,0,0,0,0,0,0,0,0,0,-1,916,1009,0,0
-301,15,0,0,0,0,0,0,0,0,0,-1,923,1009,0,0
-294,15,0,0,0,0,0,0,0,0,0,-1,930,1009,0,0
-287,15,0,0,0,0,0,0,0,0,0,-1,937,1009,0,0
-280,15,0,0,0,0,0,0,0,0,0,-1,944,1009,0,0
-273,15,0,0,0,0,0,0,0,0,0,-1,951,1009,0,0
-266,15,0,0,0,0,0,0,0,0,0,-1,958,1009,0,0
-259,15,0,0,0,0,0,0,0,0,0,-1,965,1009,0,0
-252,15,0,0,0,0,0,0,0,0,0,-1,972,1009,0,0
-245,15,0,0,0,0,0,0,0,0,0,-1,979,1009,0,0
-238,15,0,0,0,0,0,0,0,0,0,-1,986,1009,0,0
-231,15,0,0,0,0,0,0,0,0,0,-1,993,1009,0,0
-224,15,0,0,0,0,0,0,0,0,0,-1,1000,1009,0,0
-217,15,0,0,0,0,0,0,0,0,0,-1,1007,1009,0,0
-210,15,0,0,0,0,0,0,0,0,0,-1,1014,1009,0,0
-203,15,0,0,0,0,0,0,0,0,0,-1,1021,1009,0,0
-196,15,0,0,0,0,0,0,0,0,0,-1,1028,1009,0,0
-189,15,0,0,0,0,0,0,0,0,0,-1,1035,1009,0,0
-182,15,0,0,0,0,0,0,0,0,0,-1,1042,1009,0,0
-175,15,0,0,0,0,0,0,0,0,0,-1,1049,1009,0,0
-168,15,0,0,0,0,0,0,0,0,0,-1,1056,1009,0,0
-161,15,0,0,0,0,0,0,0,0,0,-1,1063,1009,0,0
-154,15,0,0,0,0,0,0,0,0,0,-1,1070,1009,0,0
-147,15,0,0,0,0,0,0,0,0,0,-1,1077,1009,0,0
-140,15,0,0,0,0,0,0,0,0,0,-1,1084,1009,0,0
-133,15,0,0,0,0,0,0,0,0,0,-1,1091,1009,0,0
-126,15,0,0,0,0,0,0,0,0,0,-1,1098,1009,0,0
-119,15,0,0,0,0,0,0,0,0,0,-1,1105,1009,0,0
-112,15,0,0,0,0,0,0,0,0,0,-1,1112,1009,0,0
-105,15,0,0,0,0,0,0,0,0,0,-1,1119,1009,0,0
-98,15,0,0,0,0,0,0,0,0,0,-1,1126,1009,0,0
-91,15,0,0,0,0,0,0,0,0,0,-1,1133,1009,0,0
-84,15,0,0,0,0,0,0,0,0,0,-1,1140,1009,0,0
-77,15,0,0,0,0,0,0,0,0,0,-1,1147,1009,0,0
-70,15,0,0,0,0,0,0,0,0,0,-1,1154,1009,0,0
-63,15,0,0,0,0,0,0,0,0,0,-1,1161,1009,0,0
-56,15,0,0,0,0,0,0,0,0,0,-1,1168,1009,0,0
-49,15,0,0,0,0,0,0,0,0,0,-1,1175,1009,0,0
-42,15,0,0,0,0,0,0,0,0,0,-1,1182,1009,0,0
-35,15,0,0,0,0,0,0,0,0,0,-1,1189,1009,0,0
-28,15,0,0,0,0,0,0,0,0,0,-1,1196,1009,0,0
-21,15,0,0,0,0,0,0,0,0,0,-1,1203,1009,0,0
-14,15,0,0,0,0,0,0,0,0,0,-1,1210,1009,0,0
-7,15,0,0,0,0,0,0,0,0,0,-1,1217,1009,0,0
0,15,0,0,0,0,0,0,0,0,0,-1,1224,1009,0,0
7,15,0,0,0,0,0,0,0,0,0,-1,1231,1009,0,0
14,15,0,0,0,0,0,0,0,0,0,-1,1238,1009,0,0
21,15,0,0,0,0,0,0,0,0,0,-1,1245,1009,0,0
28,15,0,0,0,0,0,0,0,0,0,-1,1252,1009,0,0
35,15,0,0,0,0,0,0,0,0,0,-1,1259,1009,0,0
42,15,0,0,0,0,0,0,0,0,0,-1,1266,1009,0,0
49,15,0,0,0,0,0,0,0,0,0,-1,1273,1009,0,0
56,15,0,0,0,0,0,0,0,0,0,-1,1280,1009,0,0
63,15,0,0,0,0,0,0,0,0,0,-1,1287,1009,0,0
70,15,0,0,0,0,0,0,0,0,0,-1,1294,1009,0,0
77,15,0,0,0,0,0,0,0,0,0,-1,1301,1009,0,0
84,15,0,0,0,0,0,0,0,0,0,-1,1308,1009,0,0
91,15,0,0,0,0,0,0,0,0,0,-1,1315,1009,0,0
98,15,0,0,0,0,0,0,0,0,0,-1,1322,1009,0,0
105,15,0,0,0,0,0,0,0,0,0,-1,1329,1009,0,0
112,15,0,0,0,0,0,0,0,0,0,-1,1336,1009,0,0
119,15,0,0,0,0,0,0,0,0,0,-1,1343,1009,0,0
126,15,0,0,0,0,0,0,0,0,0,-1,1350,1009,0,0
133,15,0,0,0,0,0,0,0,0,0,-1,1357,1009,0,0
140,15,0,0,0,0,0,0,0,0,0,-1,1364,1009,0,0
147,15,0,0,0,0,0,0,0,0,0,-1,1371,1009,0,0
154,15,0,0,0,0,0,0,0,0,0,-1,1378,1009,0,0
161,15,0,0,0,0,0,0,0,0,0,-1,1385,1009,0,0
168,15,0,0,0,0,0,0,0,0,0,-1,1392,1009,0,0
175,15,0,0,0,0,0,0,0,0,0,-1,1399,1009,0,0
182,15,0,0,0,0,0,0,0,0,0,-1,1406,1009,0,0
189,15,0,0,0,0,0,0,0,0,0,-1,1413,1009,0,0
196,15,0,0,0,0,0,0,0,0,0,-1,1420,1009,0,0
203,15,0,0,0,0,0,0,0,0,0,-1,1427,1009,0,0
210,15,0,0,0,0,0,0,0,0,0,-1,1434,1009,0,0
217,15,0,0,0,0,0,0,0,0,0,-1,1441,1009,0,0
224,15,0,0,0,0,0,0,0,0,0,-1,1448,1009,0,0
231,15,0,0,0,0,0,0,0,0,0,-1,1455,1009,0,0
238,15,0,0,0,0,0,0,0,0,0,-1,1462,1009,0,0
245,15,0,0,0,0,0,0,0,0,0,-1,1469,1009,0,0
252,15,0,0,0,0,0,0,0,0,0,-1,1476,1009,0,0
259,15,0,0,0,0,0,0,0,0,0,-1,1483,1009,0,0
266,15,0,0,0,0,0,0,0,0,0,-1,1490,1009,0,0
273,15,0,0,0,0,0,0,0,0,0,-1,1497,1009,0,0
280,15,0,0,0,0,0,0,0,0,0,-1,1504,1009,0,0
287,15,0,0,0,0,0,0,0,0,0,-1,1511,1009,0,0
294,15,0,0,0,0,0,0,0,0,0,-1,1518,1009,0,0
301,15,0,0,0,0,0,0,0,0,0,-1,1525,1009,0,0
308,15,0,0,0,0,0,0,0,0,0,-1,1532,1009,0,0
315,15,0,0,0,0,0,0,0,0,0,-1,1539,1009,0,0
322,15,0,0,0,0,0,0,0,0,0,-1,1546,1009,0,0
329,15,0,0,0,0,0,0,0,0,0,-1,1553,1009,0,0
336,15,0,0,0,0,0,0,0,0,0,-1,1560,1009,0,0
343,15,0,0,0,0,0,0,0,0,0,-1,1567,1009,0,0
350,15,0,0,0,0,0,0,0,0,0,-1,1574,1009,0,0
357,15,0,0,0,0,0,0,0,0,0,-1,1581,1009,0,0
364,15,0,0,0,0,0,0,0,0,0,-1,1588,1009,0,0
371,15,0,0,0,0,0,0,0,0,0,-1,1595,1009,0,0
378,15,0,0,0,0,0,0,0,0,0,-1,1602,1009,0,0
385,15,0,0,0,0,0,0,0,0,0,-1,1609,1009,0,0
392,15,0,0,0,0,0,0,0,0,0,-1,1616,1009,0,0
399,15,0,0,0,0,0,0,0,0,0,-1,1623,1009,0,0
406,15,0,0,0,0,0,0,0,0,0,-1,1630,1009,0,0
413,15,0,0,0,0,0,0,0,0,0,-1,1637,1009,0,0
420,15,0,0,0,0,0,0,0,0,0,-1,1644,1009,0,0
427,15,0,0,0,0,0,0,0,0,0,-1,1651,1009,0,0
434,15,0,0,0,0,0,0,0,0,0,-1,1658,1009,0,0
441,15,0,0,0,0,0,0,0,0,0,-1,1665,1009,0,0
448,15,0,0,0,0,0,0,0,0,0,-1,1672,1009,0,0
455,15,0,0,0,0,0,0,0,0,0,-1,1679,1009,0,0
462,15,0,0,0,0,0,0,0,0,0,-1,1686,1009,0,0
469,15,0,0,0,0,0,0,0,0,0,-1,1693,1009,0,0
476,15,0,0,0,0,0,0,0,0,0,-1,1700,1009,0,0
483,15,0,0,0,0,0,0,0,0,0,-1,1707,1009,0,0
490,15,0,0,0,0,0,0,0,0,0,-1,1714,1009,0,0
497,15,0,0,0,0,0,0,0,0,0,-1,1721,1009,0,0
504,15,0,0,0,0,0,0,0,0,0,-1,1728,1009,0,0
511,15,0,0,0,0,0,0,0,0,0,-1,1735,1009,0,0
518,15,0,0,0,0,0,0,0,0,0,-1,1742,1009,0,0
525,15,0,0,0,0,0,0,0,0,0,-1,1749,1009,0,0
532,15,0,0,0,0,0,0,0,0,0,-1,1756,1009,0,0
539,15,0,0,0,0,0,0,0,0,0,-1,1763,1009,0,0
546,15,0,0,0,0,0,0,0,0,0,-1,1770,1009,0,0
553,15,0,0,0,0,0,0,0,0,0,-1,1777,1009,0,0
560,15,0,0,0,0,0,0,0,0,0,-1,1784,1009,0,0
567,15,0,0,0,0,0,0,0,0,0,-1,1791,1009,0,0
574,15,0,0,0,0,0,0,0,0,0,-1,1798,1009,0,0
581,15,0,0,0,0,0,0,0,0,0,-1,1805,1009,0,0
588,15,0,0,0,0,0,0,0,0,0,-1,1812,1009,0,0
595,15,0,0,0,0,0,0,0,0,0,-1,1819,1009,0,0
602,15,0,0,0,0,0,0,0,0,0,-1,1826,1009,0,0
609,15,0,0,0,0,0,0,0,0,0,-1,1833,1009,0,0
616,15,0,0,0,0,0,0,0,0,0,-1,1840,1009,0,0
623,15,0,0,0,0,0,0,0,0,0,-1,1847,1009,0,0
630,15,0,0,0,0,0,0,0,0,0,-1,1854,1009,0,0
637,15,0,0,0,0,0,0,0,0,0,-1,1861,1009,0,0
644,15,4.84644,0.434143,-0.00235069,0.00329421,0.000421768,0.00332554,-0.00238203,1.49663,0.00331025,0.0417642,1868,1009,4.84649,-0.434133
651,15,4.91687,0.359863,-0.00139042,0.00184546,0.000480604,0.00191534,-0.0014603,1.42642,0.00195482,0.0409269,1875,1009,4.91681,-0.359833
658,15,4.84521,0.575256,-0.000891506,0.000889695,0.000417492,0.000982695,-0.000984505,1.35162,0.00113576,0.0406236,1882,1009,4.84522,-0.575228
665,15,4.84961,0.629028,-0.000622734,0.000290237,0.000367971,0.000420081,-0.000752577,1.23157,0.000686046,0.0405475,1889,1009,4.84957,-0.629021
672,15,4.89478,0.650757,-0.000487739,-6.38741e-05,0.000381608,0.000160702,-0.000712315,1.03888,0.000536527,0.0383993,1896,1009,4.89479,-0.650785
679,15,4.94946,0.639709,-0.00050952,-0.000261923,0.000431614,6.32958e-05,-0.000834738,0.925062,0.000578746,0.0360013,1903,1009,4.94947,-0.639683
686,15,4.93787,0.66803,-0.000564491,-0.0003524,0.000490284,4.31761e-05,-0.000960067,0.891905,0.000654911,0.0402182,1910,1009,4.93791,-0.668024
693,15,5,0.731567,-0.000610908,-0.000368808,0.000542785,6.62614e-05,-0.00104598,0.895111,0.000720422,0.0405844,1917,1009,5.00005,-0.731555
700,15,4.98425,0.706909,-0.000559221,-0.000453099,0.000578187,7.44566e-05,-0.00108678,0.831155,0.000750568,0.033168,1924,1009,4.98427,-0.706925
707,15,4.8894,0.686829,-0.000561165,-0.000361619,0.000585268,0.00013232,-0.0010551,0.869824,0.000751403,0.0253935,1931,1009,4.88935,-0.686802
714,15,4.89954,0.7229,-0.000652369,-0.000282652,0.000601624,0.000161873,-0.00109689,0.934453,0.000790763,0.015987,1938,1009,4.89949,-0.722927
721,15,4.95117,0.770325,-0.000763845,-0.000165847,0.000654174,0.00025442,-0.00118411,0.999754,0.000886469,0.0133633,1945,1009,4.95116,-0.770355
728,15,4.86694,0.78241,-0.00080478,-4.90428e-05,0.000599251,0.000281528,-0.00113535,1.06669,0.000866132,0.0154858,1952,1009,4.8669,-0.782389
735,15,4.8761,0.798096,-0.000770867,7.6677e-05,0.000482092,0.000294773,-0.000988964,1.14595,0.000776448,0.0153182,1959,1009,4.87606,-0.798117
742,15,4.90576,0.811218,-0.000866872,3.40709e-05,0.00035288,0.000155831,-0.000988631,1.23854,0.000716701,0.015684,1966,1009,4.90578,-0.811196
749,15,4.90137,0.796997,-0.000906489,5.7622e-05,0.000197059,9.63447e-05,-0.000945212,1.37677,0.000664588,0.0102424,1973,1009,4.90139,-0.797007
756,15,4.90283,0.792969,-0.00102552,5.6004e-05,1.42948e-05,5.6193e-05,-0.0010257,1.55758,0.000703282,0.0118166,1980,1009,4.90286,-0.792965
763,15,4.8905,0.819641,-0.00121455,1.37403e-05,-0.000239823,5.89052e-05,-0.00125971,-1.38465,0.000860117,0.0114424,1987,1009,4.89047,-0.819651
770,15,4.8866,0.828308,-0.00143846,-9.30662e-05,-0.000520058,8.45194e-05,-0.00161605,-1.24174,0.00110662,0.0103238,1994,1009,4.88661,-0.828302
777,15,4.87012,0.868896,-0.00174781,-0.000314203,-0.000796546,4.05764e-05,-0.00210259,-1.15178,0.00141545,0.0182716,2001,1009,4.87014,-0.86891
784,15,4.91333,0.797852,-0.00223731,-0.000730454,-0.00108792,-0.000160546,-0.00280721,-1.08825,0.00182032,0.0385691,2008,1009,4.9133,-0.797855
791,15,5.27917,0.766235,0,0,0,0,0,0,0,-1,2015,1009,5.27921,-0.766266
798,15,5.4646,0.558472,0,0,0,0,0,0,0,-1,2022,1009,5.4646,-0.558481
805,15,3.51208,0.358459,0,0,0,0,0,0,0,-1,2029,1009,3.51204,-0.358464
812,15,3.07129,0.775696,0,0,0,0,0,0,0,-1,2036,1009,3.07128,-0.775679
-700,8,0,0,0,0,0,0,0,0,0,-1,524,1016,0,0
-693,8,-0.161255,0.571472,0.00936638,0.000593035,-0.0317355,0.037017,-0.0270575,-0.71672,0.0371421,0.0459528,531,1016,-0.161281,-0.571449
-686,8,-0.176453,0.341858,0.00120987,-0.0034845,-0.0223618,0.0213473,-0.0236219,-0.733108,0.0259741,0.0442187,538,1016,-0.176441,-0.341844
-679,8,0.010498,0.587097,-0.00390165,-0.00574824,-0.0151834,0.0103865,-0.0200364,-0.755031,0.0178568,0.0467523,545,1016,0.0105162,-0.587127
-672,8,-0.0524292,0.736816,-0.0069787,-0.00682001,-0.00969935,0.00280031,-0.016599,-0.789488,0.0121079,0.0456629,552,1016,-0.0524411,-0.736799
-665,8,-0.369507,0.808472,-0.00857437,-0.00705673,-0.00558985,-0.00217443,-0.0134567,-0.852861,0.00834132,0.0412959,559,1016,-0.369528,-0.808487
-658,8,-0.851135,0.65387,-0.00906245,-0.00670347,-0.00263566,-0.00499542,-0.0107705,-0.99579,0.00622378,0.0325072,566,1016,-0.85116,-0.653889
-651,8,-1.05035,0.754456,-0.00876817,-0.00596001,-0.000643391,-0.00581962,-0.00890856,-1.35596,0.00522328,0.0184826,573,1016,-1.05033,-0.754485
-644,8,-1.04492,0.785034,-0.00793256,-0.00500616,0.000560643,-0.00490243,-0.00803629,1.38784,0.00467706,0.0116904,580,1016,-1.04491,-0.785046
-637,8,-1.04785,0.791504,-0.0067444,-0.00421194,0.00171354,-0.00334755,-0.0076088,1.1036,0.00440349,0.0101375,587,1016,-1.04787,-0.791474
-630,8,-1.04834,0.761902,-0.00619558,-0.00339622,0.00232323,-0.00208361,-0.00750819,1.05652,0.00447563,0.00990121,594,1016,-1.04832,-0.761932
-623,8,-1.05182,0.753967,-0.00514335,-0.0026143,0.00201659,-0.00149856,-0.00625909,1.06544,0.00377373,0.0111935,601,1016,-1.0518,-0.75398
-616,8,-1.05762,0.751892,-0.00331766,-0.00174926,0.00161391,-0.000739111,-0.00432781,1.01155,0.00267312,0.010761,608,1016,-1.05759,-0.751906
-609,8,-1.06006,0.741638,-0.00150002,-0.000596874,0.00111101,0.00015083,-0.00224772,0.978426,0.0015512,0.0144205,615,1016,-1.06005,-0.741623
-602,8,-1.06244,0.747559,-0.000349516,-0.000359649,0.000399382,4.48316e-05,-0.000753997,0.779056,0.000518255,0.020772,622,1016,-1.06243,-0.747549
-595,8,-1.07739,0.706482,0.000491628,-0.000179366,0.000154549,0.000525513,-0.000213252,0.21584,0.000439043,0.0175475,629,1016,-1.07738,-0.706488
-588,8,-1.07422,0.691956,0.00104499,-0.000352267,0.000161947,0.00106351,-0.000370791,0.113892,0.000859687,0.0185386,636,1016,-1.07421,-0.691981
-581,8,-1.06659,0.694763,0.00151318,-0.000540283,0.000201863,0.00153284,-0.000559939,0.0970658,0.00125103,0.0272108,643,1016,-1.06657,-0.694776
-574,8,-1.04999,0.709961,0.00184494,-0.000538878,0.000240204,0.0018689,-0.000562841,0.0994326,0.00146992,0.0343154,650,1016,-1.04996,-0.709938
-567,8,-0.950256,0.566895,0.00221768,-0.00061766,0.000345225,0.00225911,-0.000659089,0.119433,0.00176722,0.0378313,657,1016,-0.95028,-0.566908
-560,8,-0.911194,0.799438,0.00252809,-0.000691481,0.000443024,0.00258793,-0.000751331,0.134279,0.00202279,0.0388902,664,1016,-0.911197,-0.799459
-553,8,-0.936401,1.00433,0.00276178,-0.000759793,0.0004869,0.00282786,-0.000825872,0.134891,0.00221252,0.0395598,671,1016,-0.936385,-1.00431
-546,8,-0.808533,0.776733,0,0,0,0,0,0,0,-1,678,1016,-0.808563,-0.776711
-539,8,-1.06793,0.855164,0.00271524,-0.000807042,0.000195541,0.00272607,-0.000817865,0.055289,0.00214268,0.0408126,685,1016,-1.06791,-0.855181
-532,8,-0.936279,0.705261,0.00222448,-0.000691673,-0.000302064,0.00225544,-0.000722633,-0.102138,0.0017937,0.0395108,692,1016,-0.936273,-0.705256
-525,8,0,0,0,0,0,0,0,0,0,-1,699,1016,0,0
-518,8,0,0,0,0,0,0,0,0,0,-1,706,1016,0,0
-511,8,0,0,0,0,0,0,0,0,0,-1,713,1016,0,0
-504,8,0,0,0,0,0,0,0,0,0,-1,720,1016,0,0
-497,8,0,0,0,0,0,0,0,0,0,-1,727,1016,0,0
-490,8,0,0,0,0,0,0,0,0,0,-1,734,1016,0,0
-483,8,0,0,0,0,0,0,0,0,0,-1,741,1016,0,0
-476,8,0,0,0,0,0,0,0,0,0,-1,748,1016,0,0
-469,8,0,0,0,0,0,0,0,0,0,-1,755,1016,0,0
-462,8,0,0,0,0,0,0,0,0,0,-1,762,1016,0,0
-455,8,0,0,0,0,0,0,0,0,0,-1,769,1016,0,0
-448,8,0,0,0,0,0,0,0,0,0,-1,776,1016,0,0
-441,8,0,0,0,0,0,0,0,0,0,-1,783,1016,0,0
-434,8,0,0,0,0,0,0,0,0,0,-1,790,1016,0,0
-427,8,0,0,0,0,0,0,0,0,0,-1,797,1016,0,0
-420,8,0,0,0,0,0,0,0,0,0,-1,804,1016,0,0
-413,8,0,0,0,0,0,0,0,0,0,-1,811,1016,0,0
-406,8,0,0,0,0,0,0,0,0,0,-1,818,1016,0,0
-399,8,0,0,0,0,0,0,0,0,0,-1,825,1016,0,0
-392,8,0,0,0,0,0,0,0,0,0,-1,832,1016,0,0
-385,8,0,0,0,0,0,0,0,0,0,-1,839,1016,0,0
-378,8,0,0,0,0,0,0,0,0,0,-1,846,1016,0,0
-371,8,0,0,0,0,0,0,0,0,0,-1,853,1016,0,0
-364,8,0,0,0,0,0,0,0,0,0,-1,860,1016,0,0
-357,8,0,0,0,0,0,0,0,0,0,-1,867,1016,0,0
-350,8,0,0,0,0,0,0,0,0,0,-1,874,1016,0,0
-343,8,0,0,0,0,0,0,0,0,0,-1,881,1016,0,0
-336,8,0,0,0,0,0,0,0,0,0,-1,888,1016,0,0
-329,8,0,0,0,0,0,0,0,0,0,-1,895,1016,0,0
-322,8,0,0,0,0,0,0,0,0,0,-1,902,1016,0,0
-315,8,0,0,0,0,0,0,0,0,0,-1,909,1016,0,0
-308,8,0,0,0,0,0,0,0,0,0,-1,916,1016,0,0
-301,8,0,0,0,0,0,0,0,0,0,-1,923,1016,0,0
-294,8,0,0,0,0,0,0,0,0,0,-1,930,1016,0,0
-287,8,0,0,0,0,0,0,0,0,0,-1,937,1016,0,0
-280,8,0,0,0,0,0,0,0,0,0,-1,944,1016,0,0
-273,8,0,0,0,0,0,0,0,0,0,-1,951,1016,0,0
-266,8,0,0,0,0,0,0,0,0,0,-1,958,1016,0,0
-259,8,0,0,0,0,0,0,0,0,0,-1,965,1016,0,0
-252,8,0,0,0,0,0,0,0,0,0,-1,972,1016,0,0
-245,8,0,0,0,0,0,0,0,0,0,-1,979,1016,0,0
-238,8,0,0,0,0,0,0,0,0,0,-1,986,1016,0,0
-231,8,0,0,0,0,0,0,0,0,0,-1,993,1016,0,0
-224,8,0,0,0,0,0,0,0,0,0,-1,1000,1016,0,0
-217,8,0,0,0,0,0,0,0,0,0,-1,1007,1016,0,0
-210,8,0,0,0,0,0,0,0,0,0,-1,1014,1016,0,0
-203,8,0,0,0,0,0,0,0,0,0,-1,1021,1016,0,0
-196,8,0,0,0,0,0,0,0,0,0,-1,1028,1016,0,0
-189,8,0,0,0,0,0,0,0,0,0,-1,1035,1016,0,0
-182,8,0,0,0,0,0,0,0,0,0,-1,1042,1016,0,0
-175,8,0,0,0,0,0,0,0,0,0,-1,1049,1016,0,0
-168,8,0,0,0,0,0,0,0,0,0,-1,1056,1016,0,0
-161,8,0,0,0,0,0,0,0,0,0,-1,1063,1016,0,0
-154,8,0,0,0,0,0,0,0,0,0,-1,1070,1016,0,0
-147,8,0,0,0,0,0,0,0,0,0,-1,1077,1016,0,0
-140,8,0,0,0,0,0,0,0,0,0,-1,1084,1016,0,0
-133,8,0,0,0,0,0,0,0,0,0,-1,1091,1016,0,0
-126,8,0,0,0,0,0,0,0,0,0,-1,1098,1016,0,0
-119,8,0,0,0,0,0,0,0,0,0,-1,1105,1016,0,0
-112,8,0,0,0,0,0,0,0,0,0,-1,1112,1016,0,0
-105,8,0,0,0,0,0,0,0,0,0,-1,1119,1016,0,0
-98,8,0,0,0,0,0,0,0,0,0,-1,1126,1016,0,0
-91,8,0,0,0,0,0,0,0,0,0,-1,1133,1016,0,0
-84,8,0,0,0,0,0,0,0,0,0,-1,1140,1016,0,0
-77,8,0,0,0,0,0,0,0,0,0,-1,1147,1016,0,0
-70,8,0,0,0,0,0,0,0,0,0,-1,1154,1016,0,0
-63,8,0,0,0,0,0,0,0,0,0,-1,1161,1016,0,0
-56,8,0,0,0,0,0,0,0,0,0,-1,1168,1016,0,0
-49,8,0,0,0,0,0,0,0,0,0,-1,1175,1016,0,0
-42,8,0,0,0,0,0,0,0,0,0,-1,1182,1016,0,0
-35,8,0,0,0,0,0,0,0,0,0,-1,1189,1016,0,0
-28,8,0,0,0,0,0,0,0,0,0,-1,1196,1016,0,0
-21,8,0,0,0,0,0,0,0,0,0,-1,1203,1016,0,0
-14,8,0,0,0,0,0,0,0,0,0,-1,1210,1016,0,0
-7,8,0,0,0,0,0,0,0,0,0,-1,1217,1016,0,0
0,8,0,0,0,0,0,0,0,0,0,-1,1224,1016,0,0
7,8,0,0,0,0,0,0,0,0,0,-1,1231,1016,0,0
14,8,0,0,0,0,0,0,0,0,0,-1,1238,1016,0,0
21,8,0,0,0,0,0,0,0,0,0,-1,1245,1016,0,0
28,8,0,0,0,0,0,0,0,0,0,-1,1252,1016,0,0
35,8,0,0,0,0,0,0,0,0,0,-1,1259,1016,0,0
42,8,0,0,0,0,0,0,0,0,0,-1,1266,1016,0,0
49,8,0,0,0,0,0,0,0,0,0,-1,1273,1016,0,0
56,8,0,0,0,0,0,0,0,0,0,-1,1280,1016,0,0
63,8,0,0,0,0,0,0,0,0,0,-1,1287,1016,0,0
70,8,0,0,0,0,0,0,0,0,0,-1,1294,1016,0,0
77,8,0,0,0,0,0,0,0,0,0,-1,1301,1016,0,0
84,8,0,0,0,0,0,0,0,0,0,-1,1308,1016,0,0
91,8,0,0,0,0,0,0,0,0,0,-1,1315,1016,0,0
98,8,0,0,0,0,0,0,0,0,0,-1,1322,1016,0,0
105,8,0,0,0,0,0,0,0,0,0,-1,1329,1016,0,0
112,8,0,0,0,0,0,0,0,0,0,-1,1336,1016,0,0
119,8,0,0,0,0,0,0,0,0,0,-1,1343,1016,0,0
126,8,0,0,0,0,0,0,0,0,0,-1,1350,1016,0,0
133,8,0,0,0,0,0,0,0,0,0,-1,1357,1016,0,0
140,8,0,0,0,0,0,0,0,0,0,-1,1364,1016,0,0
147,8,0,0,0,0,0,0,0,0,0,-1,1371,1016,0,0
154,8,0,0,0,0,0,0,0,0,0,-1,1378,1016,0,0
161,8,0,0,0,0,0,0,0,0,0,-1,1385,1016,0,0
168,8,0,0,0,0,0,0,0,0,0,-1,1392,1016,0,0
175,8,0,0,0,0,0,0,0,0,0,-1,1399,1016,0,0
182,8,0,0,0,0,0,0,0,0,0,-1,1406,1016,0,0
189,8,0,0,0,0,0,0,0,0,0,-1,1413,1016,0,0
196,8,0,0,0,0,0,0,0,0,0,-1,1420,1016,0,0
203,8,0,0,0,0,0,0,0,0,0,-1,1427,1016,0,0
210,8,0,0,0,0,0,0,0,0,0,-1,1434,1016,0,0
217,8,0,0,0,0,0,0,0,0,0,-1,1441,1016,0,0
224,8,0,0,0,0,0,0,0,0,0,-1,1448,1016,0,0
231,8,0,0,0,0,0,0,0,0,0,-1,1455,1016,0,0
238,8,0,0,0,0,0,0,0,0,0,-1,1462,1016,0,0
245,8,0,0,0,0,0,0,0,0,0,-1,1469,1016,0,0
252,8,0,0,0,0,0,0,0,0,0,-1,1476,1016,0,0
259,8,0,0,0,0,0,0,0,0,0,-1,1483,1016,0,0
266,8,0,0,0,0,0,0,0,0,0,-1,1490,1016,0,0
273,8,0,0,0,0,0,0,0,0,0,-1,1497,1016,0,0
280,8,0,0,0,0,0,0,0,0,0,-1,1504,1016,0,0
287,8,0,0,0,0,0,0,0,0,0,-1,1511,1016,0,0
294,8,0,0,0,0,0,0,0,0,0,-1,1518,1016,0,0
301,8,0,0,0,0,0,0,0,0,0,-1,1525,1016,0,0
308,8,0,0,0,0,0,0,0,0,0,-1,1532,1016,0,0
315,8,0,0,0,0,0,0,0,0,0,-1,1539,1016,0,0
322,8,0,0,0,0,0,0,0,0,0,-1,1546,1016,0,0
329,8,0,0,0,0,0,0,0,0,0,-1,1553,1016,0,0
336,8,0,0,0,0,0,0,0,0,0,-1,1560,1016,0,0
343,8,0,0,0,0,0,0,0,0,0,-1,1567,1016,0,0
350,8,0,0,0,0,0,0,0,0,0,-1,1574,1016,0,0
357,8,0,0,0,0,0,0,0,0,0,-1,1581,1016,0,0
364,8,0,0,0,0,0,0,0,0,0,-1,1588,1016,0,0
371,8,0,0,0,0,0,0,0,0,0,-1,1595,1016,0,0
378,8,0,0,0,0,0,0,0,0,0,-1,1602,1016,0,0
385,8,0,0,0,0,0,0,0,0,0,-1,1609,1016,0,0
392,8,0,0,0,0,0,0,0,0,0,-1,1616,1016,0,0
399,8,0,0,0,0,0,0,0,0,0,-1,1623,1016,0,0
406,8,0,0,0,0,0,0,0,0,0,-1,1630,1016,0,0
413,8,0,0,0,0,0,0,0,0,0,-1,1637,1016,0,0
420,8,0,0,0,0,0,0,0,0,0,-1,1644,1016,0,0
427,8,0,0,0,0,0,0,0,0,0,-1,1651,1016,0,0
434,8,0,0,0,0,0,0,0,0,0,-1,1658,1016,0,0
441,8,0,0,0,0,0,0,0,0,0,-1,1665,1016,0,0
448,8,0,0,0,0,0,0,0,0,0,-1,1672,1016,0,0
455,8,0,0,0,0,0,0,0,0,0,-1,1679,1016,0,0
462,8,0,0,0,0,0,0,0,0,0,-1,1686,1016,0,0
469,8,0,0,0,0,0,0,0,0,0,-1,1693,1016,0,0
476,8,0,0,0,0,0,0,0,0,0,-1,1700,1016,0,0
483,8,0,0,0,0,0,0,0,0,0,-1,1707,1016,0,0
490,8,0,0,0,0,0,0,0,0,0,-1,1714,1016,0,0
497,8,0,0,0,0,0,0,0,0,0,-1,1721,1016,0,0
504,8,0,0,0,0,0,0,0,0,0,-1,1728,1016,0,0
511,8,0,0,0,0,0,0,0,0,0,-1,1735,1016,0,0
518,8,0,0,0,0,0,0,0,0,0,-1,1742,1016,0,0
525,8,0,0,0,0,0,0,0,0,0,-1,1749,1016,0,0
532,8,0,0,0,0,0,0,0,0,0,-1,1756,1016,0,0
539,8,0,0,0,0,0,0,0,0,0,-1,1763,1016,0,0
546,8,0,0,0,0,0,0,0,0,0,-1,1770,1016,0,0
553,8,0,0,0,0,0,0,0,0,0,-1,1777,1016,0,0
560,8,0,0,0,0,0,0,0,0,0,-1,1784,1016,0,0
567,8,0,0,0,0,0,0,0,0,0,-1,1791,1016,0,0
574,8,0,0,0,0,0,0,0,0,0,-1,1798,1016,0,0
581,8,0,0,0,0,0,0,0,0,0,-1,1805,1016,0,0
588,8,0,0,0,0,0,0,0,0,0,-1,1812,1016,0,0
595,8,0,0,0,0,0,0,0,0,0,-1,1819,1016,0,0
602,8,0,0,0,0,0,0,0,0,0,-1,1826,1016,0,0
609,8,0,0,0,0,0,0,0,0,0,-1,1833,1016,0,0
616,8,0,0,0,0,0,0,0,0,0,-1,1840,1016,0,0
623,8,0,0,0,0,0,0,0,0,0,-1,1847,1016,0,0
630,8,0,0,0,0,0,0,0,0,0,-1,1854,1016,0,0
637,8,0,0,0,0,0,0,0,0,0,-1,1861,1016,0,0
644,8,5.03235,0.305298,-0.00257175,0.00377143,0.000172012,0.00377609,-0.00257641,1.54371,0.00368936,0.043366,1868,1016,5.03234,-0.305298
651,8,5.00073,0.385498,-0.00161828,0.00217852,0.000328958,0.00220681,-0.00164657,1.48501,0.00223258,0.0408937,1875,1016,5.00078,-0.385514
658,8,4.93359,0.494019,-0.00109521,0.00113539,0.000300686,0.00117522,-0.00113503,1.43913,0.00133389,0.0408114,1882,1016,4.93361,-0.494018
665,8,4.86414,0.64801,-0.000797978,0.000466946,0.000255851,0.000516736,-0.000847768,1.37859,0.000795487,0.0408971,1889,1016,4.86418,-0.648013
672,8,4.90771,0.78418,-0.000604267,5.79332e-05,0.000274673,0.000157034,-0.000703367,1.22454,0.000529082,0.0397325,1896,1016,4.9077,-0.784177
679,8,5.02881,0.870972,-0.000563835,-0.000184411,0.000333086,9.20056e-06,-0.000757447,1.04427,0.000508059,0.0366178,1903,1016,5.02877,-0.87096
686,8,5.04285,0.86438,-0.000570683,-0.000309263,0.000399705,-1.94383e-05,-0.000860508,0.943425,0.000567303,0.0391273,1910,1016,5.0429,-0.864372
693,8,5.00757,0.760681,-0.000581985,-0.000350396,0.000463227,1.12896e-05,-0.00094367,0.907875,0.00063291,0.0389265,1917,1016,5.00762,-0.760681
700,8,4.96057,0.722107,-0.000527987,-0.000447619,0.000518535,3.22865e-05,-0.00100789,0.824069,0.000682945,0.0316612,1924,1016,4.96055,-0.722108
707,8,4.90051,0.708679,-0.000512808,-0.000374183,0.000544895,0.00010579,-0.000992781,0.84866,0.000699788,0.0227193,1931,1016,4.90051,-0.708685
714,8,4.91199,0.723328,-0.000577271,-0.000314575,0.000568028,0.000137093,-0.00102894,0.899019,0.000735926,0.0165691,1938,1016,4.91201,-0.72335
721,8,4.95154,0.759766,-0.000664258,-0.000201593,0.000619528,0.000228383,-0.00109423,0.964082,0.000816337,0.0142233,1945,1016,4.95157,-0.759747
728,8,4.89172,0.813171,-0.000695109,-8.65637e-05,0.000574893,0.000259613,-0.00104129,1.02879,0.000794986,0.0138251,1952,1016,4.89177,-0.813192
735,8,4.88831,0.821899,-0.000678224,2.96349e-05,0.000460273,0.000256324,-0.000904912,1.11316,0.000704436,0.0148588,1959,1016,4.88829,-0.821881
742,8,4.89697,0.788574,-0.00078838,-3.05937e-05,0.000255978,4.77708e-05,-0.000866744,1.27372,0.000594393,0.0123735,1966,1016,4.89695,-0.788544
749,8,4.89832,0.777893,-0.000810139,3.14557e-05,-9.57379e-06,3.15646e-05,-0.000810248,-1.55942,0.000550988,0.00882546,1973,1016,4.89833,-0.777895
756,8,4.90771,0.799683,-0.000879188,3.34745e-05,-0.000328973,0.000139692,-0.000985406,-1.25849,0.000708109,0.0117091,1980,1016,4.9077,-0.799691
763,8,4.89758,0.815552,-0.00100847,1.20685e-05,-0.000793278,0.000445019,-0.00144142,-1.0712,0.00113865,0.0129633,1987,1016,4.89754,-0.815582
770,8,4.88635,0.815918,-0.00115815,-5.67976e-05,-0.00138942,0.000887089,-0.00210204,-0.974071,0.00177266,0.0137106,1994,1016,4.88634,-0.815947
777,8,4.88074,0.835876,-0.00133811,-0.000209555,-0.00212198,0.00142189,-0.00296956,-0.915351,0.00258736,0.0180276,2001,1016,4.88074,-0.835858
784,8,4.9137,0.743652,-0.00164112,-0.00050651,-0.00309082,0.00206864,-0.00421627,-0.87616,0.00369853,0.0359615,2008,1016,4.91374,-0.743664
791,8,4.96594,0.599304,0,0,0,0,0,0,0,-1,2015,1016,4.96598,-0.599289
798,8,3.57458,0.561707,0,0,0,0,0,0,0,-1,2022,1016,3.57455,-0.561703
805,8,3.2533,0.751831,0,0,0,0,0,0,0,-1,2029,1016,3.25329,-0.751835
812,8,2.64038,0.759888,0,0,0,0,0,0,0,-1,2036,1016,2.6404,-0.759904
-700,1,0,0,0,0,0,0,0,0,0,-1,524,1023,0,0
-693,1,0.0363159,0.600891,-0.00631644,0.00231113,-0.0356977,0.0339547,-0.03796,-0.845528,0.0415415,0.0431601,531,1023,0.0363335,-0.600902
-686,1,0.0913696,-0.0113525,-0.0100685,-0.00220906,-0.0261264,0.0202815,-0.032559,-0.860044,0.0307808,0.0455309,538,1023,0.0913786,0.0113692
-679,1,-0.0348511,0.530701,-0.0117881,-0.00487657,-0.0185955,0.0105816,-0.0272463,-0.87727,0.0225353,0.0497622,545,1023,-0.034828,-0.530671
-672,1,-0.154785,0.881958,0,0,0,0,0,0,0,-1,552,1023,-0.154803,-0.881988
-665,1,-0.522583,0.932312,0,0,0,0,0,0,0,-1,559,1023,-0.522591,-0.932328
-658,1,-1.05646,0.803711,-0.0109251,-0.00656129,-0.00476379,-0.0035035,-0.0139829,-1.00015,0.00840124,0.0322549,566,1023,-1.05645,-0.803741
-651,1,-1.07556,0.769043,-0.00961601,-0.00591087,-0.00237794,-0.00474904,-0.0107778,-1.11632,0.0062372,0.0137747,573,1023,-1.07558,-0.769015
-644,1,-1.04504,0.764099,-0.00811266,-0.0049999,-0.000823902,-0.00479528,-0.00831729,-1.32736,0.00482071,0.0115245,580,1023,-1.04504,-0.764115
-637,1,-1.05469,0.760071,-0.00648056,-0.00427158,0.00069706,-0.00407001,-0.00668213,1.2893,0.00388842,0.010377,587,1023,-1.0547,-0.760043
-630,1,-1.0589,0.738953,-0.00547082,-0.00345322,0.00153248,-0.00262731,-0.00629674,1.07649,0.00365198,0.0119674,594,1023,-1.05888,-0.738976
-623,1,-1.07843,0.747925,-0.00426754,-0.00271034,0.00141832,-0.00187096,-0.00510692,1.03642,0.00298338,0.011839,601,1023,-1.07843,-0.747929
-616,1,-1.06213,0.748169,-0.00252185,-0.00185174,0.00117764,-0.000962414,-0.00341117,0.923992,0.0020308,0.0138071,608,1023,-1.06216,-0.748167
-609,1,-1.04968,0.729797,-0.000895791,-0.000579125,0.000797495,7.56028e-05,-0.00155052,0.883393,0.00105978,0.0148583,615,1023,-1.04967,-0.72977
-602,1,-1.05743,0.714539,-1.81629e-06,-0.00043649,0.000184423,6.5886e-05,-0.000504192,0.351829,0.000360105,0.0125927,622,1023,-1.05743,-0.714535
-595,1,-1.06384,0.727905,0.000685922,-0.000321056,4.77512e-05,0.000688181,-0.000323315,0.0472789,0.000596518,0.0116282,629,1023,-1.06387,-0.727893
-588,1,-1.07599,0.772949,0.00118259,-0.000482161,9.30356e-05,0.00118777,-0.000487345,0.0556547,0.00099491,0.0163024,636,1023,-1.07598,-0.772965
-581,1,-1.08069,0.8125,0.00161757,-0.000690435,0.000155437,0.00162799,-0.000700856,0.0669438,0.00137962,0.0246846,643,1023,-1.0807,-0.812511
-574,1,-0.992493,0.723694,0.00193895,-0.000758691,0.000240077,0.00196015,-0.00077989,0.0880727,0.00163015,0.0345833,650,1023,-0.992496,-0.7237
-567,1,-0.808472,0.493774,0.00227033,-0.000870709,0.000395829,0.00231944,-0.000919823,0.123447,0.0019275,0.0395528,657,1023,-0.808452,-0.493747
-560,1,-0.852356,0.817871,0.00253222,-0.000986849,0.000577657,0.00262462,-0.00107925,0.158607,0.0021996,0.0394874,664,1023,-0.852327,-0.817886
-553,1,-0.860596,0.856323,0.00271693,-0.00111681,0.000747537,0.00285753,-0.00125741,0.185919,0.0024349,0.0376476,671,1023,-0.860575,-0.856321
-546,1,-0.803772,0.703369,0.00276419,-0.00126333,0.00087041,0.00294424,-0.00144339,0.20399,0.00258213,0.0415986,678,1023,-0.803742,-0.703347
-539,1,-0.931152,0.706604,0.00260889,-0.0014329,0.000885539,0.0027944,-0.0016184,0.206495,0.00257771,0.041963,685,1023,-0.931139,-0.706613
-532,1,-1.01233,0.733765,0.00214974,-0.00159697,0.000719522,0.00228317,-0.0017304,0.183354,0.00232455,0.0411637,692,1023,-1.01232,-0.733773
-525,1,0,0,0,0,0,0,0,0,0,-1,699,1023,0,0
-518,1,0,0,0,0,0,0,0,0,0,-1,706,1023,0,0
-511,1,0,0,0,0,0,0,0,0,0,-1,713,1023,0,0
-504,1,0,0,0,0,0,0,0,0,0,-1,720,1023,0,0
-497,1,0,0,0,0,0,0,0,0,0,-1,727,1023,0,0
-490,1,0,0,0,0,0,0,0,0,0,-1,734,1023,0,0
-483,1,0,0,0,0,0,0,0,0,0,-1,741,1023,0,0
-476,1,0,0,0,0,0,0,0,0,0,-1,748,1023,0,0
-469,1,0,0,0,0,0,0,0,0,0,-1,755,1023,0,0
-462,1,0,0,0,0,0,0,0,0,0,-1,762,1023,0,0
-455,1,0,0,0,0,0,0,0,0,0,-1,769,1023,0,0
-448,1,0,0,0,0,0,0,0,0,0,-1,776,1023,0,0
-441,1,0,0,0,0,0,0,0,0,0,-1,783,1023,0,0
-434,1,0,0,0,0,0,0,0,0,0,-1,790,1023,0,0
-427,1,0,0,0,0,0,0,0,0,0,-1,797,1023,0,0
-420,1,0,0,0,0,0,0,0,0,0,-1,804,1023,0,0
-413,1,0,0,0,0,0,0,0,0,0,-1,811,1023,0,0
-406,1,0,0,0,0,0,0,0,0,0,-1,818,1023,0,0
-399,1,0,0,0,0,0,0,0,0,0,-1,825,1023,0,0
-392,1,0,0,0,0,0,0,0,0,0,-1,832,1023,0,0
-385,1,0,0,0,0,0,0,0,0,0,-1,839,1023,0,0
-378,1,0,0,0,0,0,0,0,0,0,-1,846,1023,0,0
-371,1,0,0,0,0,0,0,0,0,0,-1,853,1023,0,0
-364,1,0,0,0,0,0,0,0,0,0,-1,860,1023,0,0
-357,1,0,0,0,0,0,0,0,0,0,-1,867,1023,0,0
-350,1,0,0,0,0,0,0,0,0,0,-1,874,1023,0,0
-343,1,0,0,0,0,0,0,0,0,0,-1,881,1023,0,0
-336,1,0,0,0,0,0,0,0,0,0,-1,888,1023,0,0
-329,1,0,0,0,0,0,0,0,0,0,-1,895,1023,0,0
-322,1,0,0,0,0,0,0,0,0,0,-1,902,1023,0,0
-315,1,0,0,0,0,0,0,0,0,0,-1,909,1023,0,0
-308,1,0,0,0,0,0,0,0,0,0,-1,916,1023,0,0
-301,1,0,0,0,0,0,0,0,0,0,-1,923,1023,0,0
-294,1,0,0,0,0,0,0,0,0,0,-1,930,1023,0,0
-287,1,0,0,0,0,0,0,0,0,0,-1,937,1023,0,0
-280,1,0,0,0,0,0,0,0,0,0,-1,944,1023,0,0
-273,1,0,0,0,0,0,0,0,0,0,-1,951,1023,0,0
-266,1,0,0,0,0,0,0,0,0,0,-1,958,1023,0,0
-259,1,0,0,0,0,0,0,0,0,0,-1,965,1023,0,0
-252,1,0,0,0,0,0,0,0,0,0,-1,972,1023,0,0
-245,1,0,0,0,0,0,0,0,0,0,-1,979,1023,0,0
-238,1,0,0,0,0,0,0,0,0,0,-1,986,1023,0,0
-231,1,0,0,0,0,0,0,0,0,0,-1,993,1023,0,0
-224,1,0,0,0,0,0,0,0,0,0,-1,1000,1023,0,0
-217,1,0,0,0,0,0,0,0,0,0,-1,1007,1023,0,0
-210,1,0,0,0,0,0,0,0,0,0,-1,1014,1023,0,0
-203,1,0,0,0,0,0,0,0,0,0,-1,1021,1023,0,0
-196,1,0,0,0,0,0,0,0,0,0,-1,1028,1023,0,0
-189,1,0,0,0,0,0,0,0,0,0,-1,1035,1023,0,0
-182,1,0,0,0,0,0,0,0,0,0,-1,1042,1023,0,0
-175,1,0,0,0,0,0,0,0,0,0,-1,1049,1023,0,0
-168,1,0,0,0,0,0,0,0,0,0,-1,1056,1023,0,0
-161,1,0,0,0,0,0,0,0,0,0,-1,1063,1023,0,0
-154,1,0,0,0,0,0,0,0,0,0,-1,1070,1023,0,0
-147,1,0,0,0,0,0,0,0,0,0,-1,1077,1023,0,0
-140,1,0,0,0,0,0,0,0,0,0,-1,1084,1023,0,0
-133,1,0,0,0,0,0,0,0,0,0,-1,1091,1023,0,0
-126,1,0,0,0,0,0,0,0,0,0,-1,1098,1023,0,0
-119,1,0,0,0,0,0,0,0,0,0,-1,1105,1023,0,0
-112,1,0,0,0,0,0,0,0,0,0,-1,1112,1023,0,0
-105,1,0,0,0,0,0,0,0,0,0,-1,1119,1023,0,0
-98,1,0,0,0,0,0,0,0,0,0,-1,1126,1023,0,0
-91,1,0,0,0,0,0,0,0,0,0,-1,1133,1023,0,0
-84,1,0,0,0,0,0,0,0,0,0,-1,1140,1023,0,0
-77,1,0,0,0,0,0,0,0,0,0,-1,1147,1023,0,0
-70,1,0,0,0,0,0,0,0,0,0,-1,1154,1023,0,0
-63,1,0,0,0,0,0,0,0,0,0,-1,1161,1023,0,0
-56,1,0,0,0,0,0,0,0,0,0,-1,1168,1023,0,0
-49,1,0,0,0,0,0,0,0,0,0,-1,1175,1023,0,0
-42,1,0,0,0,0,0,0,0,0,0,-1,1182,1023,0,0
-35,1,0,0,0,0,0,0,0,0,0,-1,1189,1023,0,0
-28,1,0,0,0,0,0,0,0,0,0,-1,1196,1023,0,0
-21,1,0,0,0,0,0,0,0,0,0,-1,1203,1023,0,0
-14,1,0,0,0,0,0,0,0,0,0,-1,1210,1023,0,0
-7,1,0,0,0,0,0,0,0,0,0,-1,1217,1023,0,0
0,1,0,0,0,0,0,0,0,0,0,-1,1224,1023,0,0
7,1,0,0,0,0,0,0,0,0,0,-1,1231,1023,0,0
14,1,0,0,0,0,0,0,0,0,0,-1,1238,1023,0,0
21,1,0,0,0,0,0,0,0,0,0,-1,1245,1023,0,0
28,1,0,0,0,0,0,0,0,0,0,-1,1252,1023,0,0
35,1,0,0,0,0,0,0,0,0,0,-1,1259,1023,0,0
42,1,0,0,0,0,0,0,0,0,0,-1,1266,1023,0,0
49,1,0,0,0,0,0,0,0,0,0,-1,1273,1023,0,0
56,1,0,0,0,0,0,0,0,0,0,-1,1280,1023,0,0
63,1,0,0,0,0,0,0,0,0,0,-1,1287,1023,0,0
70,1,0,0,0,0,0,0,0,0,0,-1,1294,1023,0,0
77,1,0,0,0,0,0,0,0,0,0,-1,1301,1023,0,0
84,1,0,0,0,0,0,0,0,0,0,-1,1308,1023,0,0
91,1,0,0,0,0,0,0,0,0,0,-1,1315,1023,0,0
98,1,0,0,0,0,0,0,0,0,0,-1,1322,1023,0,0
105,1,0,0,0,0,0,0,0,0,0,-1,1329,1023,0,0
112,1,0,0,0,0,0,0,0,0,0,-1,1336,1023,0,0
119,1,0,0,0,0,0,0,0,0,0,-1,1343,1023,0,0
126,1,0,0,0,0,0,0,0,0,0,-1,1350,1023,0,0
133,1,0,0,0,0,0,0,0,0,0,-1,1357,1023,0,0
140,1,0,0,0,0,0,0,0,0,0,-1,1364,1023,0,0
147,1,0,0,0,0,0,0,0,0,0,-1,1371,1023,0,0
154,1,0,0,0,0,0,0,0,0,0,-1,1378,1023,0,0
161,1,0,0,0,0,0,0,0,0,0,-1,1385,1023,0,0
168,1,0,0,0,0,0,0,0,0,0,-1,1392,1023,0,0
175,1,0,0,0,0,0,0,0,0,0,-1,1399,1023,0,0
182,1,0,0,0,0,0,0,0,0,0,-1,1406,1023,0,0
189,1,0,0,0,0,0,0,0,0,0,-1,1413,1023,0,0
196,1,0,0,0,0,0,0,0,0,0,-1,1420,1023,0,0
203,1,0,0,0,0,0,0,0,0,0,-1,1427,1023,0,0
210,1,0,0,0,0,0,0,0,0,0,-1,1434,1023,0,0
217,1,0,0,0,0,0,0,0,0,0,-1,1441,1023,0,0
224,1,0,0,0,0,0,0,0,0,0,-1,1448,1023,0,0
231,1,0,0,0,0,0,0,0,0,0,-1,1455,1023,0,0
238,1,0,0,0,0,0,0,0,0,0,-1,1462,1023,0,0
245,1,0,0,0,0,0,0,0,0,0,-1,1469,1023,0,0
252,1,0,0,0,0,0,0,0,0,0,-1,1476,1023,0,0
259,1,0,0,0,0,0,0,0,0,0,-1,1483,1023,0,0
266,1,0,0,0,0,0,0,0,0,0,-1,1490,1023,0,0
273,1,0,0,0,0,0,0,0,0,0,-1,1497,1023,0,0
280,1,0,0,0,0,0,0,0,0,0,-1,1504,1023,0,0
287,1,0,0,0,0,0,0,0,0,0,-1,1511,1023,0,0
294,1,0,0,0,0,0,0,0,0,0,-1,1518,1023,0,0
301,1,0,0,0,0,0,0,0,0,0,-1,1525,1023,0,0
308,1,0,0,0,0,0,0,0,0,0,-1,1532,1023,0,0
315,1,0,0,0,0,0,0,0,0,0,-1,1539,1023,0,0
322,1,0,0,0,0,0,0,0,0,0,-1,1546,1023,0,0
329,1,0,0,0,0,0,0,0,0,0,-1,1553,1023,0,0
336,1,0,0,0,0,0,0,0,0,0,-1,1560,1023,0,0
343,1,0,0,0,0,0,0,0,0,0,-1,1567,1023,0,0
350,1,0,0,0,0,0,0,0,0,0,-1,1574,1023,0,0
357,1,0,0,0,0,0,0,0,0,0,-1,1581,1023,0,0
364,1,0,0,0,0,0,0,0,0,0,-1,1588,1023,0,0
371,1,0,0,0,0,0,0,0,0,0,-1,1595,1023,0,0
378,1,0,0,0,0,0,0,0,0,0,-1,1602,1023,0,0
385,1,0,0,0,0,0,0,0,0,0,-1,1609,1023,0,0
392,1,0,0,0,0,0,0,0,0,0,-1,1616,1023,0,0
399,1,0,0,0,0,0,0,0,0,0,-1,1623,1023,0,0
406,1,0,0,0,0,0,0,0,0,0,-1,1630,1023,0,0
413,1,0,0,0,0,0,0,0,0,0,-1,1637,1023,0,0
420,1,0,0,0,0,0,0,0,0,0,-1,1644,1023,0,0
427,1,0,0,0,0,0,0,0,0,0,-1,1651,1023,0,0
434,1,0,0,0,0,0,0,0,0,0,-1,1658,1023,0,0
441,1,0,0,0,0,0,0,0,0,0,-1,1665,1023,0,0
448,1,0,0,0,0,0,0,0,0,0,-1,1672,1023,0,0
455,1,0,0,0,0,0,0,0,0,0,-1,1679,1023,0,0
462,1,0,0,0,0,0,0,0,0,0,-1,1686,1023,0,0
469,1,0,0,0,0,0,0,0,0,0,-1,1693,1023,0,0
476,1,0,0,0,0,0,0,0,0,0,-1,1700,1023,0,0
483,1,0,0,0,0,0,0,0,0,0,-1,1707,1023,0,0
490,1,0,0,0,0,0,0,0,0,0,-1,1714,1023,0,0
497,1,0,0,0,0,0,0,0,0,0,-1,1721,1023,0,0
504,1,0,0,0,0,0,0,0,0,0,-1,1728,1023,0,0
511,1,0,0,0,0,0,0,0,0,0,-1,1735,1023,0,0
518,1,0,0,0,0,0,0,0,0,0,-1,1742,1023,0,0
525,1,0,0,0,0,0,0,0,0,0,-1,1749,1023,0,0
532,1,0,0,0,0,0,0,0,0,0,-1,1756,1023,0,0
539,1,0,0,0,0,0,0,0,0,0,-1,1763,1023,0,0
546,1,0,0,0,0,0,0,0,0,0,-1,1770,1023,0,0
553,1,0,0,0,0,0,0,0,0,0,-1,1777,1023,0,0
560,1,0,0,0,0,0,0,0,0,0,-1,1784,1023,0,0
567,1,0,0,0,0,0,0,0,0,0,-1,1791,1023,0,0
574,1,0,0,0,0,0,0,0,0,0,-1,1798,1023,0,0
581,1,0,0,0,0,0,0,0,0,0,-1,1805,1023,0,0
588,1,0,0,0,0,0,0,0,0,0,-1,1812,1023,0,0
595,1,0,0,0,0,0,0,0,0,0,-1,1819,1023,0,0
602,1,0,0,0,0,0,0,0,0,0,-1,1826,1023,0,0
609,1,0,0,0,0,0,0,0,0,0,-1,1833,1023,0,0
616,1,0,0,0,0,0,0,0,0,0,-1,1840,1023,0,0
623,1,0,0,0,0,0,0,0,0,0,-1,1847,1023,0,0
630,1,0,0,0,0,0,0,0,0,0,-1,1854,1023,0,0
637,1,0,0,0,0,0,0,0,0,0,-1,1861,1023,0,0
644,1,0,0,0,0,0,0,0,0,0,-1,1868,1023,0,0
651,1,5.01294,0.570129,-0.00200219,0.00199793,5.92956e-05,0.00199881,-0.00200306,1.55598,0.00231048,0.038939,1875,1023,5.01298,-0.570157
658,1,4.96912,0.561951,-0.00139144,0.00106052,9.15407e-05,0.00106393,-0.00139485,1.53353,0.00142385,0.0423472,1882,1023,4.96909,-0.561967
665,1,4.90442,0.544373,-0.00102049,0.000468588,8.69721e-05,0.000473651,-0.00102555,1.51265,0.000884901,0.0427427,1889,1023,4.90441,-0.544381
672,1,4.97363,0.716919,-0.000743207,0.000106973,0.000143704,0.000130606,-0.00076684,1.4078,0.000559863,0.0402001,1896,1023,4.97367,-0.71694
679,1,5.0968,0.9021,-0.000625158,-0.000110261,0.000239389,-1.61604e-05,-0.000719259,1.19626,0.000474211,0.0390504,1903,1023,5.09686,-0.902126
686,1,5.16895,0.79364,-0.000573643,-0.000229613,0.000336428,-2.37752e-05,-0.000779482,1.02172,0.000511914,0.038829,1910,1023,5.16891,-0.793667
693,1,5.08044,0.766296,-0.000545999,-0.000280663,0.000425637,3.25024e-05,-0.000859165,0.936473,0.000583912,0.0366431,1917,1023,5.08045,-0.76632
700,1,4.95435,0.722107,-0.000487211,-0.000387042,0.000509256,7.4586e-05,-0.000948839,0.834415,0.00065883,0.0301784,1924,1023,4.95429,-0.722131
707,1,4.9165,0.676636,-0.000457419,-0.000335578,0.000562733,0.000169522,-0.00096252,0.839317,0.000705014,0.0225216,1931,1023,4.91651,-0.676663
714,1,4.91333,0.670288,-0.000492876,-0.000296822,0.000590821,0.000204049,-0.000993747,0.867607,0.000739953,0.0185691,1938,1023,4.91339,-0.670266
721,1,4.94568,0.694031,-0.000554613,-0.000210888,0.00063655,0.000276592,-0.00104209,0.91725,0.000802966,0.0171867,1945,1023,4.94566,-0.694013
728,1,4.88672,0.780457,-0.00060182,-0.000113534,0.000598876,0.000289052,-0.00100441,0.978948,0.000783924,0.0135922,1952,1023,4.88675,-0.780454
735,1,4.88428,0.797607,-0.000657939,-1.53496e-05,0.000478781,0.000239951,-0.00091324,1.08092,0.000702603,0.0134137,1959,1023,4.88424,-0.79758
742,1,4.90698,0.78717,-0.000835198,-7.03999e-05,0.000224994,-9.11969e-06,-0.000896478,1.30488,0.000594636,0.0119651,1966,1023,4.907,-0.787186
749,1,4.91382,0.799683,-0.000897906,2.98393e-05,-0.000107474,4.21269e-05,-0.000910194,-1.45696,0.000621314,0.00979914,1973,1023,4.91387,-0.799662
756,1,4.90723,0.799988,-0.00100757,7.34304e-05,-0.000503292,0.000271472,-0.00120561,-1.19591,0.000907862,0.010614,1980,1023,4.90721,-0.799968
763,1,4.90906,0.807922,-0.00120175,0.000122434,-0.00106798,0.000716903,-0.00179622,-1.06288,0.00149489,0.0127406,1987,1023,4.90908,-0.807936
770,1,4.92395,0.826721,-0.00145119,0.000147686,-0.00180196,0.00131959,-0.00262309,-0.994178,0.0023174,0.0126278,1994,1023,4.924,-0.826715
777,1,4.87708,0.82428,-0.00173877,0.000126223,-0.0027119,0.00206147,-0.00367402,-0.950992,0.00335473,0.0147376,2001,1023,4.87705,-0.824279
784,1,4.89563,0.693054,-0.00215282,2.67982e-05,-0.00390781,0.00299391,-0.00511994,-0.921383,0.00473784,0.0345601,2008,1023,4.89566,-0.693073
791,1,4.94458,0.515137,0,0,0,0,0,0,0,-1,2015,1023,4.94456,-0.515154
798,1,4.25476,0.717712,0,0,0,0,0,0,0,-1,2022,1023,4.25479,-0.717694
805,1,2.99805,1.12592,0,0,0,0,0,0,0,-1,2029,1023,2.99802,-1.12594
812,1,2.43994,0.557922,0,0,0,0,0,0,0,-1,2036,1023,2.43995,-0.557947
-700,-6,0,0,0,0,0,0,0,0,0,-1,524,1030,0,0
-693,-6,0.267151,0.446533,-0.0197494,0.00817067,-0.0434449,0.0398433,-0.0514221,-0.940851,0.0528333,0.0420383,531,1030,0.267151,-0.4465
-686,-6,0.317566,-0.0633545,-0.0198454,0.00264472,-0.0328725,0.0261423,-0.0433429,-0.9502,0.040525,0.0436365,538,1030,0.317579,0.0633934
-679,-6,0.521606,-0.524292,-0.0187092,-0.00098445,-0.0242895,0.016009,-0.0357026,-0.960325,0.0305689,0.0423171,545,1030,0.521636,0.524261
-672,-6,0.413513,-0.961426,-0.0169498,-0.00323751,-0.0173719,0.00858223,-0.0287695,-0.973349,0.0225905,0.0480446,552,1030,0.413502,0.96141
-665,-6,-1.08167,0.725098,0,0,0,0,0,0,0,-1,559,1030,-1.08168,-0.725101
-658,-6,-1.06543,0.755859,-0.0126103,-0.00483416,-0.00772539,-7.3608e-05,-0.0173709,-1.01853,0.0115561,0.042193,566,1030,-1.06546,-0.755879
-651,-6,-1.07159,0.746582,-0.0103798,-0.0046513,-0.00465832,-0.0020471,-0.012984,-1.06104,0.00806073,0.0316099,573,1030,-1.07159,-0.746556
-644,-6,-1.06464,0.730225,-0.00826017,-0.00410146,-0.00254518,-0.00289422,-0.0094674,-1.1279,0.00560188,0.0236674,580,1030,-1.06464,-0.730239
-637,-6,-1.07428,0.745117,-0.00620278,-0.00366091,-0.000559958,-0.00354302,-0.00632067,-1.3633,0.00365815,0.0140337,587,1030,-1.0743,-0.745108
-630,-6,-1.0741,0.748413,-0.00476795,-0.00312442,0.000715791,-0.00285639,-0.00503598,1.2125,0.00291626,0.0120301,594,1030,-1.07407,-0.748447
-623,-6,-1.07965,0.750366,-0.00343527,-0.00258051,0.000950031,-0.00196615,-0.00404962,0.996766,0.00233838,0.0123268,601,1030,-1.07962,-0.750369
-616,-6,-1.05847,0.751953,-0.00181691,-0.00181524,0.000866727,-0.000949348,-0.0026828,0.785878,0.00157081,0.0131638,608,1030,-1.0585,-0.751997
-609,-6,-1.03162,0.730835,-0.00034637,-0.000466826,0.000565732,0.000162331,-0.000975527,0.732368,0.000710669,0.0150908,615,1030,-1.03164,-0.730806
-602,-6,-1.03137,0.723389,0.000376846,-0.000417933,6.18158e-06,0.000376894,-0.000417982,0.00777711,0.000459126,0.0120012,622,1030,-1.03138,-0.723335
-595,-6,-1.01868,0.734253,0.000872099,-0.000348745,4.25543e-06,0.000872114,-0.00034876,0.00348559,0.000726139,0.0123279,629,1030,-1.01867,-0.734215
-588,-6,-1.03143,0.759277,0.00124816,-0.000485053,0.00011824,0.00125619,-0.000493083,0.0678013,0.00104148,0.0135619,636,1030,-1.03142,-0.759325
-581,-6,-1.07117,0.805176,0.00162608,-0.000660068,0.000215035,0.00164613,-0.000680119,0.0929734,0.00138112,0.0212995,643,1030,-1.07119,-0.805169
-574,-6,-1.12372,0.799561,0.00192672,-0.00073731,0.000363678,0.00197548,-0.000786065,0.133266,0.00164293,0.0322601,650,1030,-1.12371,-0.799612
-567,-6,-0.943665,0.594604,0.00219356,-0.000826793,0.000590015,0.00230472,-0.000937959,0.186229,0.0019268,0.0411595,657,1030,-0.943645,-0.594654
-560,-6,-0.860229,0.594482,0.00238524,-0.000925199,0.000879783,0.00260453,-0.00114448,0.244272,0.00221853,0.0401441,664,1030,-0.860223,-0.59449
-553,-6,-0.827087,0.548584,0.00250395,-0.00105087,0.001207,0.00287504,-0.00142195,0.298273,0.00252771,0.0376534,671,1030,-0.827095,-0.548628
-546,-6,-0.838501,0.603271,0.00250467,-0.00122479,0.00155511,0.00306802,-0.00178814,0.347554,0.00283598,0.0411798,678,1030,-0.838507,-0.603241
-539,-6,-0.900391,0.724365,0.00235559,-0.00148044,0.00188119,0.00312415,-0.002249,0.387853,0.00311587,0.0438396,685,1030,-0.900392,-0.724406
-532,-6,-1.02209,0.796753,0.00200532,-0.00183334,0.00214631,0.00296531,-0.00279333,0.420585,0.00332525,0.0421517,692,1030,-1.02208,-0.796804
-525,-6,0,0,0,0,0,0,0,0,0,-1,699,1030,0,0
-518,-6,0,0,0,0,0,0,0,0,0,-1,706,1030,0,0
-511,-6,0,0,0,0,0,0,0,0,0,-1,713,1030,0,0
-504,-6,0,0,0,0,0,0,0,0,0,-1,720,1030,0,0
-497,-6,0,0,0,0,0,0,0,0,0,-1,727,1030,0,0
-490,-6,0,0,0,0,0,0,0,0,0,-1,734,1030,0,0
-483,-6,0,0,0,0,0,0,0,0,0,-1,741,1030,0,0
-476,-6,0,0,0,0,0,0,0,0,0,-1,748,1030,0,0
-469,-6,0,0,0,0,0,0,0,0,0,-1,755,1030,0,0
-462,-6,0,0,0,0,0,0,0,0,0,-1,762,1030,0,0
-455,-6,0,0,0,0,0,0,0,0,0,-1,769,1030,0,0
-448,-6,0,0,0,0,0,0,0,0,0,-1,776,1030,0,0
-441,-6,0,0,0,0,0,0,0,0,0,-1,783,1030,0,0
-434,-6,0,0,0,0,0,0,0,0,0,-1,790,1030,0,0
-427,-6,0,0,0,0,0,0,0,0,0,-1,797,1030,0,0
-420,-6,0,0,0,0,0,0,0,0,0,-1,804,1030,0,0
-413,-6,0,0,0,0,0,0,0,0,0,-1,811,1030,0,0
-406,-6,0,0,0,0,0,0,0,0,0,-1,818,1030,0,0
-399,-6,0,0,0,0,0,0,0,0,0,-1,825,1030,0,0
-392,-6,0,0,0,0,0,0,0,0,0,-1,832,1030,0,0
-385,-6,0,0,0,0,0,0,0,0,0,-1,839,1030,0,0
-378,-6,0,0,0,0,0,0,0,0,0,-1,846,1030,0,0
-371,-6,0,0,0,0,0,0,0,0,0,-1,853,1030,0,0
-364,-6,0,0,0,0,0,0,0,0,0,-1,860,1030,0,0
-357,-6,0,0,0,0,0,0,0,0,0,-1,867,1030,0,0
-350,-6,0,0,0,0,0,0,0,0,0,-1,874,1030,0,0
-343,-6,0,0,0,0,0,0,0,0,0,-1,881,1030,0,0
-336,-6,0,0,0,0,0,0,0,0,0,-1,888,1030,0,0
-329,-6,0,0,0,0,0,0,0,0,0,-1,895,1030,0,0
-322,-6,0,0,0,0,0,0,0,0,0,-1,902,1030,0,0
-315,-6,0,0,0,0,0,0,0,0,0,-1,909,1030,0,0
-308,-6,0,0,0,0,0,0,0,0,0,-1,916,1030,0,0
-301,-6,0,0,0,0,0,0,0,0,0,-1,923,1030,0,0
-294,-6,0,0,0,0,0,0,0,0,0,-1,930,1030,0,0
-287,-6,0,0,0,0,0,0,0,0,0,-1,937,1030,0,0
-280,-6,0,0,0,0,0,0,0,0,0,-1,944,1030,0,0
-273,-6,0,0,0,0,0,0,0,0,0,-1,951,1030,0,0
-266,-6,0,0,0,0,0,0,0,0,0,-1,958,1030,0,0
-259,-6,0,0,0,0,0,0,0,0,0,-1,965,1030,0,0
-252,-6,0,0,0,0,0,0,0,0,0,-1,972,1030,0,0
-245,-6,0,0,0,0,0,0,0,0,0,-1,979,1030,0,0
-238,-6,0,0,0,0,0,0,0,0,0,-1,986,1030,0,0
-231,-6,0,0,0,0,0,0,0,0,0,-1,993,1030,0,0
-224,-6,0,0,0,0,0,0,0,0,0,-1,1000,1030,0,0
-217,-6,0,0,0,0,0,0,0,0,0,-1,1007,1030,0,0
-210,-6,0,0,0,0,0,0,0,0,0,-1,1014,1030,0,0
-203,-6,0,0,0,0,0,0,0,0,0,-1,1021,1030,0,0
-196,-6,0,0,0,0,0,0,0,0,0,-1,1028,1030,0,0
-189,-6,0,0,0,0,0,0,0,0,0,-1,1035,1030,0,0
-182,-6,0,0,0,0,0,0,0,0,0,-1,1042,1030,0,0
-175,-6,0,0,0,0,0,0,0,0,0,-1,1049,1030,0,0
-168,-6,0,0,0,0,0,0,0,0,0,-1,1056,1030,0,0
-161,-6,0,0,0,0,0,0,0,0,0,-1,1063,1030,0,0
-154,-6,0,0,0,0,0,0,0,0,0,-1,1070,1030,0,0
-147,-6,0,0,0,0,0,0,0,0,0,-1,1077,1030,0,0
-140,-6,0,0,0,0,0,0,0,0,0,-1,1084,1030,0,0
-133,-6,0,0,0,0,0,0,0,0,0,-1,1091,1030,0,0
-126,-6,0,0,0,0,0,0,0,0,0,-1,1098,1030,0,0
-119,-6,0,0,0,0,0,0,0,0,0,-1,1105,1030,0,0
-112,-6,0,0,0,0,0,0,0,0,0,-1,1112,1030,0,0
-105,-6,0,0,0,0,0,0,0,0,0,-1,1119,1030,0,0
-98,-6,0,0,0,0,0,0,0,0,0,-1,1126,1030,0,0
-91,-6,0,0,0,0,0,0,0,0,0,-1,1133,1030,0,0
-84,-6,0,0,0,0,0,0,0,0,0,-1,1140,1030,0,0
-77,-6,0,0,0,0,0,0,0,0,0,-1,1147,1030,0,0
-70,-6,0,0,0,0,0,0,0,0,0,-1,1154,1030,0,0
-63,-6,0,0,0,0,0,0,0,0,0,-1,1161,1030,0,0
-56,-6,0,0,0,0,0,0,0,0,0,-1,1168,1030,0,0
-49,-6,0,0,0,0,0,0,0,0,0,-1,1175,1030,0,0
-42,-6,0,0,0,0,0,0,0,0,0,-1,1182,1030,0,0
-35,-6,0,0,0,0,0,0,0,0,0,-1,1189,1030,0,0
-28,-6,0,0,0,0,0,0,0,0,0,-1,1196,1030,0,0
-21,-6,0,0,0,0,0,0,0,0,0,-1,1203,1030,0,0
-14,-6,0,0,0,0,0,0,0,0,0,-1,1210,1030,0,0
-7,-6,0,0,0,0,0,0,0,0,0,-1,1217,1030,0,0
0,-6,0,0,0,0,0,0,0,0,0,-1,1224,1030,0,0
7,-6,0,0,0,0,0,0,0,0,0,-1,1231,1030,0,0
14,-6,0,0,0,0,0,0,0,0,0,-1,1238,1030,0,0
21,-6,0,0,0,0,0,0,0,0,0,-1,1245,1030,0,0
28,-6,0,0,0,0,0,0,0,0,0,-1,1252,1030,0,0
35,-6,0,0,0,0,0,0,0,0,0,-1,1259,1030,0,0
42,-6,0,0,0,0,0,0,0,0,0,-1,1266,1030,0,0
49,-6,0,0,0,0,0,0,0,0,0,-1,1273,1030,0,0
56,-6,0,0,0,0,0,0,0,0,0,-1,1280,1030,0,0
63,-6,0,0,0,0,0,0,0,0,0,-1,1287,1030,0,0
70,-6,0,0,0,0,0,0,0,0,0,-1,1294,1030,0,0
77,-6,0,0,0,0,0,0,0,0,0,-1,1301,1030,0,0
84,-6,0,0,0,0,0,0,0,0,0,-1,1308,1030,0,0
91,-6,0,0,0,0,0,0,0,0,0,-1,1315,1030,0,0
98,-6,0,0,0,0,0,0,0,0,0,-1,1322,1030,0,0
105,-6,0,0,0,0,0,0,0,0,0,-1,1329,1030,0,0
112,-6,0,0,0,0,0,0,0,0,0,-1,1336,1030,0,0
119,-6,0,0,0,0,0,0,0,0,0,-1,1343,1030,0,0
126,-6,0,0,0,0,0,0,0,0,0,-1,1350,1030,0,0
133,-6,0,0,0,0,0,0,0,0,0,-1,1357,1030,0,0
140,-6,0,0,0,0,0,0,0,0,0,-1,1364,1030,0,0
147,-6,0,0,0,0,0,0,0,0,0,-1,1371,1030,0,0
154,-6,0,0,0,0,0,0,0,0,0,-1,1378,1030,0,0
161,-6,0,0,0,0,0,0,0,0,0,-1,1385,1030,0,0
168,-6,0,0,0,0,0,0,0,0,0,-1,1392,1030,0,0
175,-6,0,0,0,0,0,0,0,0,0,-1,1399,1030,0,0
182,-6,0,0,0,0,0,0,0,0,0,-1,1406,1030,0,0
189,-6,0,0,0,0,0,0,0,0,0,-1,1413,1030,0,0
196,-6,0,0,0,0,0,0,0,0,0,-1,1420,1030,0,0
203,-6,0,0,0,0,0,0,0,0,0,-1,1427,1030,0,0
210,-6,0,0,0,0,0,0,0,0,0,-1,1434,1030,0,0
217,-6,0,0,0,0,0,0,0,0,0,-1,1441,1030,0,0
224,-6,0,0,0,0,0,0,0,0,0,-1,1448,1030,0,0
231,-6,0,0,0,0,0,0,0,0,0,-1,1455,1030,0,0
238,-6,0,0,0,0,0,0,0,0,0,-1,1462,1030,0,0
245,-6,0,0,0,0,0,0,0,0,0,-1,1469,1030,0,0
252,-6,0,0,0,0,0,0,0,0,0,-1,1476,1030,0,0
259,-6,0,0,0,0,0,0,0,0,0,-1,1483,1030,0,0
266,-6,0,0,0,0,0,0,0,0,0,-1,1490,1030,0,0
273,-6,0,0,0,0,0,0,0,0,0,-1,1497,1030,0,0
280,-6,0,0,0,0,0,0,0,0,0,-1,1504,1030,0,0
287,-6,0,0,0,0,0,0,0,0,0,-1,1511,1030,0,0
294,-6,0,0,0,0,0,0,0,0,0,-1,1518,1030,0,0
301,-6,0,0,0,0,0,0,0,0,0,-1,1525,1030,0,0
308,-6,0,0,0,0,0,0,0,0,0,-1,1532,1030,0,0
315,-6,0,0,0,0,0,0,0,0,0,-1,1539,1030,0,0
322,-6,0,0,0,0,0,0,0,0,0,-1,1546,1030,0,0
329,-6,0,0,0,0,0,0,0,0,0,-1,1553,1030,0,0
336,-6,0,0,0,0,0,0,0,0,0,-1,1560,1030,0,0
343,-6,0,0,0,0,0,0,0,0,0,-1,1567,1030,0,0
350,-6,0,0,0,0,0,0,0,0,0,-1,1574,1030,0,0
357,-6,0,0,0,0,0,0,0,0,0,-1,1581,1030,0,0
364,-6,0,0,0,0,0,0,0,0,0,-1,1588,1030,0,0
371,-6,0,0,0,0,0,0,0,0,0,-1,1595,1030,0,0
378,-6,0,0,0,0,0,0,0,0,0,-1,1602,1030,0,0
385,-6,0,0,0,0,0,0,0,0,0,-1,1609,1030,0,0
392,-6,0,0,0,0,0,0,0,0,0,-1,1616,1030,0,0
399,-6,0,0,0,0,0,0,0,0,0,-1,1623,1030,0,0
406,-6,0,0,0,0,0,0,0,0,0,-1,1630,1030,0,0
413,-6,0,0,0,0,0,0,0,0,0,-1,1637,1030,0,0
420,-6,0,0,0,0,0,0,0,0,0,-1,1644,1030,0,0
427,-6,0,0,0,0,0,0,0,0,0,-1,1651,1030,0,0
434,-6,0,0,0,0,0,0,0,0,0,-1,1658,1030,0,0
441,-6,0,0,0,0,0,0,0,0,0,-1,1665,1030,0,0
448,-6,0,0,0,0,0,0,0,0,0,-1,1672,1030,0,0
455,-6,0,0,0,0,0,0,0,0,0,-1,1679,1030,0,0
462,-6,0,0,0,0,0,0,0,0,0,-1,1686,1030,0,0
469,-6,0,0,0,0,0,0,0,0,0,-1,1693,1030,0,0
476,-6,0,0,0,0,0,0,0,0,0,-1,1700,1030,0,0
483,-6,0,0,0,0,0,0,0,0,0,-1,1707,1030,0,0
490,-6,0,0,0,0,0,0,0,0,0,-1,1714,1030,0,0
497,-6,0,0,0,0,0,0,0,0,0,-1,1721,1030,0,0
504,-6,0,0,0,0,0,0,0,0,0,-1,1728,1030,0,0
511,-6,0,0,0,0,0,0,0,0,0,-1,1735,1030,0,0
518,-6,0,0,0,0,0,0,0,0,0,-1,1742,1030,0,0
525,-6,0,0,0,0,0,0,0,0,0,-1,1749,1030,0,0
532,-6,0,0,0,0,0,0,0,0,0,-1,1756,1030,0,0
539,-6,0,0,0,0,0,0,0,0,0,-1,1763,1030,0,0
546,-6,0,0,0,0,0,0,0,0,0,-1,1770,1030,0,0
553,-6,0,0,0,0,0,0,0,0,0,-1,1777,1030,0,0
560,-6,0,0,0,0,0,0,0,0,0,-1,1784,1030,0,0
567,-6,0,0,0,0,0,0,0,0,0,-1,1791,1030,0,0
574,-6,0,0,0,0,0,0,0,0,0,-1,1798,1030,0,0
581,-6,0,0,0,0,0,0,0,0,0,-1,1805,1030,0,0
588,-6,0,0,0,0,0,0,0,0,0,-1,1812,1030,0,0
595,-6,0,0,0,0,0,0,0,0,0,-1,1819,1030,0,0
602,-6,0,0,0,0,0,0,0,0,0,-1,1826,1030,0,0
609,-6,0,0,0,0,0,0,0,0,0,-1,1833,1030,0,0
616,-6,0,0,0,0,0,0,0,0,0,-1,1840,1030,0,0
623,-6,0,0,0,0,0,0,0,0,0,-1,1847,1030,0,0
630,-6,0,0,0,0,0,0,0,0,0,-1,1854,1030,0,0
637,-6,0,0,0,0,0,0,0,0,0,-1,1861,1030,0,0
644,-6,0,0,0,0,0,0,0,0,0,-1,1868,1030,0,0
651,-6,5.00134,0.800537,-0.00233938,0.00150309,-8.2595e-05,0.00150487,-0.00234115,-1.54931,0.00223793,0.0380186,1875,1030,5.0013,-0.800488
658,-6,4.99829,0.670654,-0.00170627,0.00069154,-5.48986e-05,0.000692796,-0.00170753,-1.54792,0.00142651,0.0398348,1882,1030,4.99824,-0.670683
665,-6,4.95728,0.588501,-0.0012979,0.000198924,-5.29181e-05,0.000200792,-0.00129977,-1.5355,0.000940614,0.0424544,1889,1030,4.95733,-0.588483
672,-6,5.04504,0.743164,-0.000960074,-8.78022e-05,2.00867e-05,-8.73399e-05,-0.000960536,1.54778,0.00061332,0.040961,1896,1030,5.04507,-0.743192
679,-6,5.00549,0.62207,-0.000774086,-0.000248837,0.000140147,-0.000213782,-0.00080914,1.3257,0.000484163,0.0415034,1903,1030,5.00553,-0.622021
686,-6,4.93225,0.50415,-0.000663596,-0.000329614,0.000262657,-0.000185358,-0.000807852,1.06855,0.000488645,0.0396368,1910,1030,4.93222,-0.504105
693,-6,5.02368,0.724243,-0.000590862,-0.000358004,0.000375903,-8.0912e-05,-0.000867954,0.935579,0.00055364,0.0361304,1917,1030,5.02371,-0.724259
700,-6,4.96375,0.702881,-0.000521254,-0.00044062,0.000485745,6.47872e-06,-0.000968352,0.826803,0.000647739,0.0302971,1924,1030,4.96374,-0.702829
707,-6,4.90479,0.669312,-0.000469586,-0.00038934,0.000562226,0.000134192,-0.000993119,0.82102,0.000711043,0.0241972,1931,1030,4.90483,-0.669365
714,-6,4.92224,0.697876,-0.000466845,-0.000343213,0.000599669,0.000197817,-0.00100787,0.836759,0.000746642,0.0240906,1938,1030,4.92226,-0.697875
721,-6,4.93262,0.712524,-0.000495729,-0.000264583,0.000648982,0.000279037,-0.00103935,0.873516,0.000802253,0.021187,1945,1030,4.93266,-0.712499
728,-6,4.90613,0.782715,-0.000542013,-0.000171827,0.000621767,0.000291812,-0.00100565,0.930066,0.000785974,0.0161599,1952,1030,4.90617,-0.782728
735,-6,4.9021,0.778564,-0.000642951,-8.16869e-05,0.000501261,0.000212152,-0.00093679,1.04059,0.000705951,0.0139286,1959,1030,4.90208,-0.778561
742,-6,4.91492,0.788086,-0.000862215,-0.000147292,0.000207957,-9.12025e-05,-0.000918305,1.30735,0.00058418,0.011748,1966,1030,4.91497,-0.788112
749,-6,4.89941,0.813965,-0.000935975,-2.72839e-05,-0.000182744,8.09002e-06,-0.000971348,-1.37959,0.000650279,0.0111116,1973,1030,4.89944,-0.813931
756,-6,4.89758,0.805664,-0.00104918,3.18547e-05,-0.00064722,0.000334576,-0.00135191,-1.1333,0.00103105,0.0117379,1980,1030,4.89761,-0.805639
763,-6,4.91455,0.798462,-0.00124896,0.000115723,-0.00129921,0.000900876,-0.00203412,-1.0272,0.00173611,0.0112252,1987,1030,4.91458,-0.79842
770,-6,4.92017,0.817139,-0.00151556,0.000188326,-0.0021534,0.00165219,-0.00297942,-0.973764,0.00271041,0.00997509,1994,1030,4.92021,-0.817186
777,-6,4.87219,0.795044,-0.00180566,0.000238014,-0.00322779,0.00260185,-0.0041695,-0.938695,0.00394421,0.0135243,2001,1030,4.87225,-0.795058
784,-6,4.82617,0.710815,-0.00218565,0.000256706,-0.00464226,0.00383572,-0.00576466,-0.914013,0.00557995,0.0346634,2008,1030,4.82615,-0.710758
791,-6,4.68225,0.425049,-0.00242005,0.000253957,-0.00663057,0.00568098,-0.00784707,-0.884885,0.00784373,0.0468115,2015,1030,4.68229,-0.425106
798,-6,4.40271,0.450073,0,0,0,0,0,0,0,-1,2022,1030,4.40274,-0.450112
805,-6,4.65759,0.617676,0,0,0,0,0,0,0,-1,2029,1030,4.65755,-0.617692
812,-6,4.68738,0.551392,0,0,0,0,0,0,0,-1,2036,1030,4.68733,-0.551342
-700,-13,0,0,0,0,0,0,0,0,0,-1,524,1037,0,0
-693,-13,0.620789,0.449097,-0.030855,0.0152252,-0.0480302,0.0454556,-0.0610854,-1.00904,0.0617318,0.0467561,531,1037,0.620815,-0.449157
-686,-13,0.427795,0.0109863,-0.0281758,0.00828359,-0.0362951,0.0306698,-0.050562,-1.01813,0.0473657,0.0427844,538,1037,0.427781,-0.0109883
-679,-13,0.353027,-0.546509,-0.0248418,0.00346152,-0.0268746,0.0196828,-0.041063,-1.02774,0.0357884,0.0440407,545,1037,0.35302,0.546523
-672,-13,0.335083,-0.982056,-0.0213234,0.000215974,-0.0193421,0.0115846,-0.032692,-1.03942,0.0265137,0.0492763,552,1037,0.335103,0.98211
-665,-13,-0.799194,-2.2782,-0.01782,-0.00179879,-0.0134237,0.00582276,-0.0254416,-1.05441,0.0191986,0.049235,559,1037,-0.799167,2.27814
-658,-13,-1.01807,0.733154,0,0,0,0,0,0,0,-1,566,1037,-1.01804,-0.733116
-651,-13,-1.02393,0.670898,-0.0114089,-0.00319055,-0.0055824,-0.00036801,-0.0142314,-1.10267,0.00936733,0.0408493,573,1037,-1.0239,-0.670955
-644,-13,-1.05286,0.726196,-0.00869166,-0.00304715,-0.00327007,-0.00154986,-0.010189,-1.14141,0.00633949,0.0272981,580,1037,-1.05286,-0.726144
-637,-13,-1.06525,0.763306,-0.00619993,-0.00291632,-0.00109075,-0.00258702,-0.00652923,-1.2776,0.00379663,0.0180711,587,1037,-1.06527,-0.763343
-630,-13,-1.07574,0.756348,-0.00437723,-0.00272021,0.000423277,-0.00261835,-0.0044791,1.33464,0.00259831,0.0120991,594,1037,-1.07577,-0.756342
-623,-13,-1.06714,0.779175,-0.00285269,-0.00238862,0.000713242,-0.00187062,-0.00337069,0.942659,0.00194998,0.0109373,601,1037,-1.06714,-0.779187
-616,-13,-1.03943,0.766846,-0.00124593,-0.00167908,0.000619414,-0.000806323,-0.00211869,0.617219,0.0012348,0.0111141,608,1037,-1.03942,-0.766881
-609,-13,-0.98938,0.739136,8.04449e-05,-0.000221781,0.000381556,0.000339722,-0.000481058,0.596852,0.000476214,0.0164695,615,1037,-0.98938,-0.73911
-602,-13,-1.01215,0.736938,0.000650361,-0.00022302,-0.000120527,0.000666688,-0.000239348,-0.134648,0.000542148,0.0110512,622,1037,-1.01215,-0.736925
-595,-13,-1.02789,0.73645,0.000978271,-0.000157722,1.78137e-07,0.000978271,-0.000157722,0.000156811,0.000710613,0.0114737,629,1037,-1.02791,-0.736494
-588,-13,-0.995911,0.727417,0.0012433,-0.000220373,0.000175906,0.00126415,-0.000241217,0.117944,0.000933615,0.0144316,636,1037,-0.9959,-0.727445
-581,-13,-1.03223,0.775635,0.00157104,-0.000306881,0.000289315,0.00161461,-0.000350443,0.149446,0.00121025,0.0167466,643,1037,-1.03221,-0.775676
-574,-13,-1.12799,0.898071,0.00183044,-0.00032475,0.0005034,0.00194222,-0.000436534,0.218513,0.00146221,0.0338378,650,1037,-1.12798,-0.89811
-567,-13,-1.12109,0.949463,0.00202892,-0.000334331,0.000798315,0.00227332,-0.00057873,0.297083,0.00174082,0.0411473,657,1037,-1.12112,-0.949489
-560,-13,-1.01587,0.753662,0.00215007,-0.00036081,0.00118929,0.00262395,-0.000834685,0.379172,0.00208401,0.0428013,664,1037,-1.01585,-0.75361
-553,-13,-0.877197,0.382813,0,0,0,0,0,0,0,-1,671,1037,-0.877195,-0.382868
-546,-13,-1.00482,0.752319,0.00215444,-0.000585969,0.00220945,0.00338407,-0.00181559,0.507843,0.00304721,0.0398629,678,1037,-1.00482,-0.752356
-539,-13,-1.04553,1.09985,0.00199944,-0.000880715,0.00281104,0.0037178,-0.00259908,0.548681,0.00366607,0.0423352,685,1037,-1.04552,-1.09987
-532,-13,-1.01349,0.935547,0.00172474,-0.00138083,0.00345675,0.00396145,-0.00361754,0.574303,0.00437723,0.0419715,692,1037,-1.01348,-0.935595
-525,-13,0,0,0,0,0,0,0,0,0,-1,699,1037,0,0
-518,-13,0,0,0,0,0,0,0,0,0,-1,706,1037,0,0
-511,-13,0,0,0,0,0,0,0,0,0,-1,713,1037,0,0
-504,-13,0,0,0,0,0,0,0,0,0,-1,720,1037,0,0
-497,-13,0,0,0,0,0,0,0,0,0,-1,727,1037,0,0
-490,-13,0,0,0,0,0,0,0,0,0,-1,734,1037,0,0
-483,-13,0,0,0,0,0,0,0,0,0,-1,741,1037,0,0
-476,-13,0,0,0,0,0,0,0,0,0,-1,748,1037,0,0
-469,-13,0,0,0,0,0,0,0,0,0,-1,755,1037,0,0
-462,-13,0,0,0,0,0,0,0,0,0,-1,762,1037,0,0
-455,-13,0,0,0,0,0,0,0,0,0,-1,769,1037,0,0
-448,-13,0,0,0,0,0,0,0,0,0,-1,776,1037,0,0
-441,-13,0,0,0,0,0,0,0,0,0,-1,783,1037,0,0
-434,-13,0,0,0,0,0,0,0,0,0,-1,790,1037,0,0
-427,-13,0,0,0,0,0,0,0,0,0,-1,797,1037,0,0
-420,-13,0,0,0,0,0,0,0,0,0,-1,804,1037,0,0
-413,-13,0,0,0,0,0,0,0,0,0,-1,811,1037,0,0
-406,-13,0,0,0,0,0,0,0,0,0,-1,818,1037,0,0
-399,-13,0,0,0,0,0,0,0,0,0,-1,825,1037,0,0
-392,-13,0,0,0,0,0,0,0,0,0,-1,832,1037,0,0
-385,-13,0,0,0,0,0,0,0,0,0,-1,839,1037,0,0
-378,-13,0,0,0,0,0,0,0,0,0,-1,846,1037,0,0
-371,-13,0,0,0,0,0,0,0,0,0,-1,853,1037,0,0
-364,-13,0,0,0,0,0,0,0,0,0,-1,860,1037,0,0
-357,-13,0,0,0,0,0,0,0,0,0,-1,867,1037,0,0
-350,-13,0,0,0,0,0,0,0,0,0,-1,874,1037,0,0
-343,-13,0,0,0,0,0,0,0,0,0,-1,881,1037,0,0
-336,-13,0,0,0,0,0,0,0,0,0,-1,888,1037,0,0
-329,-13,0,0,0,0,0,0,0,0,0,-1,895,1037,0,0
-322,-13,0,0,0,0,0,0,0,0,0,-1,902,1037,0,0
-315,-13,0,0,0,0,0,0,0,0,0,-1,909,1037,0,0
-308,-13,0,0,0,0,0,0,0,0,0,-1,916,1037,0,0
-301,-13,0,0,0,0,0,0,0,0,0,-1,923,1037,0,0
-294,-13,0,0,0,0,0,0,0,0,0,-1,930,1037,0,0
-287,-13,0,0,0,0,0,0,0,0,0,-1,937,1037,0,0
-280,-13,0,0,0,0,0,0,0,0,0,-1,944,1037,0,0
-273,-13,0,0,0,0,0,0,0,0,0,-1,951,1037,0,0
-266,-13,0,0,0,0,0,0,0,0,0,-1,958,1037,0,0
-259,-13,0,0,0,0,0,0,0,0,0,-1,965,1037,0,0
-252,-13,0,0,0,0,0,0,0,0,0,-1,972,1037,0,0
-245,-13,0,0,0,0,0,0,0,0,0,-1,979,1037,0,0
-238,-13,0,0,0,0,0,0,0,0,0,-1,986,1037,0,0
-231,-13,0,0,0,0,0,0,0,0,0,-1,993,1037,0,0
-224,-13,0,0,0,0,0,0,0,0,0,-1,1000,1037,0,0
-217,-13,0,0,0,0,0,0,0,0,0,-1,1007,1037,0,0
-210,-13,0,0,0,0,0,0,0,0,0,-1,1014,1037,0,0
-203,-13,0,0,0,0,0,0,0,0,0,-1,1021,1037,0,0
-196,-13,0,0,0,0,0,0,0,0,0,-1,1028,1037,0,0
-189,-13,0,0,0,0,0,0,0,0,0,-1,1035,1037,0,0
-182,-13,0,0,0,0,0,0,0,0,0,-1,1042,1037,0,0
-175,-13,0,0,0,0,0,0,0,0,0,-1,1049,1037,0,0
-168,-13,0,0,0,0,0,0,0,0,0,-1,1056,1037,0,0
-161,-13,0,0,0,0,0,0,0,0,0,-1,1063,1037,0,0
-154,-13,0,0,0,0,0,0,0,0,0,-1,1070,1037,0,0
-147,-13,0,0,0,0,0,0,0,0,0,-1,1077,1037,0,0
-140,-13,0,0,0,0,0,0,0,0,0,-1,1084,1037,0,0
-133,-13,0,0,0,0,0,0,0,0,0,-1,1091,1037,0,0
-126,-13,0,0,0,0,0,0,0,0,0,-1,1098,1037,0,0
-119,-13,0,0,0,0,0,0,0,0,0,-1,1105,1037,0,0
-112,-13,0,0,0,0,0,0,0,0,0,-1,1112,1037,0,0
-105,-13,0,0,0,0,0,0,0,0,0,-1,1119,1037,0,0
-98,-13,0,0,0,0,0,0,0,0,0,-1,1126,1037,0,0
-91,-13,0,0,0,0,0,0,0,0,0,-1,1133,1037,0,0
-84,-13,0,0,0,0,0,0,0,0,0,-1,1140,1037,0,0
-77,-13,0,0,0,0,0,0,0,0,0,-1,1147,1037,0,0
-70,-13,0,0,0,0,0,0,0,0,0,-1,1154,1037,0,0
-63,-13,0,0,0,0,0,0,0,0,0,-1,1161,1037,0,0
-56,-13,0,0,0,0,0,0,0,0,0,-1,1168,1037,0,0
-49,-13,0,0,0,0,0,0,0,0,0,-1,1175,1037,0,0
-42,-13,0,0,0,0,0,0,0,0,0,-1,1182,1037,0,0
-35,-13,0,0,0,0,0,0,0,0,0,-1,1189,1037,0,0
-28,-13,0,0,0,0,0,0,0,0,0,-1,1196,1037,0,0
-21,-13,0,0,0,0,0,0,0,0,0,-1,1203,1037,0,0
-14,-13,0,0,0,0,0,0,0,0,0,-1,1210,1037,0,0
-7,-13,0,0,0,0,0,0,0,0,0,-1,1217,1037,0,0
0,-13,0,0,0,0,0,0,0,0,0,-1,1224,1037,0,0
7,-13,0,0,0,0,0,0,0,0,0,-1,1231,1037,0,0
14,-13,0,0,0,0,0,0,0,0,0,-1,1238,1037,0,0
21,-13,0,0,0,0,0,0,0,0,0,-1,1245,1037,0,0
28,-13,0,0,0,0,0,0,0,0,0,-1,1252,1037,0,0
35,-13,0,0,0,0,0,0,0,0,0,-1,1259,1037,0,0
42,-13,0,0,0,0,0,0,0,0,0,-1,1266,1037,0,0
49,-13,0,0,0,0,0,0,0,0,0,-1,1273,1037,0,0
56,-13,0,0,0,0,0,0,0,0,0,-1,1280,1037,0,0
63,-13,0,0,0,0,0,0,0,0,0,-1,1287,1037,0,0
70,-13,0,0,0,0,0,0,0,0,0,-1,1294,1037,0,0
77,-13,0,0,0,0,0,0,0,0,0,-1,1301,1037,0,0
84,-13,0,0,0,0,0,0,0,0,0,-1,1308,1037,0,0
91,-13,0,0,0,0,0,0,0,0,0,-1,1315,1037,0,0
98,-13,0,0,0,0,0,0,0,0,0,-1,1322,1037,0,0
105,-13,0,0,0,0,0,0,0,0,0,-1,1329,1037,0,0
112,-13,0,0,0,0,0,0,0,0,0,-1,1336,1037,0,0
119,-13,0,0,0,0,0,0,0,0,0,-1,1343,1037,0,0
126,-13,0,0,0,0,0,0,0,0,0,-1,1350,1037,0,0
133,-13,0,0,0,0,0,0,0,0,0,-1,1357,1037,0,0
140,-13,0,0,0,0,0,0,0,0,0,-1,1364,1037,0,0
147,-13,0,0,0,0,0,0,0,0,0,-1,1371,1037,0,0
154,-13,0,0,0,0,0,0,0,0,0,-1,1378,1037,0,0
161,-13,0,0,0,0,0,0,0,0,0,-1,1385,1037,0,0
168,-13,0,0,0,0,0,0,0,0,0,-1,1392,1037,0,0
175,-13,0,0,0,0,0,0,0,0,0,-1,1399,1037,0,0
182,-13,0,0,0,0,0,0,0,0,0,-1,1406,1037,0,0
189,-13,0,0,0,0,0,0,0,0,0,-1,1413,1037,0,0
196,-13,0,0,0,0,0,0,0,0,0,-1,1420,1037,0,0
203,-13,0,0,0,0,0,0,0,0,0,-1,1427,1037,0,0
210,-13,0,0,0,0,0,0,0,0,0,-1,1434,1037,0,0
217,-13,0,0,0,0,0,0,0,0,0,-1,1441,1037,0,0
224,-13,0,0,0,0,0,0,0,0,0,-1,1448,1037,0,0
231,-13,0,0,0,0,0,0,0,0,0,-1,1455,1037,0,0
238,-13,0,0,0,0,0,0,0,0,0,-1,1462,1037,0,0
245,-13,0,0,0,0,0,0,0,0,0,-1,1469,1037,0,0
252,-13,0,0,0,0,0,0,0,0,0,-1,1476,1037,0,0
259,-13,0,0,0,0,0,0,0,0,0,-1,1483,1037,0,0
266,-13,0,0,0,0,0,0,0,0,0,-1,1490,1037,0,0
273,-13,0,0,0,0,0,0,0,0,0,-1,1497,1037,0,0
280,-13,0,0,0,0,0,0,0,0,0,-1,1504,1037,0,0
287,-13,0,0,0,0,0,0,0,0,0,-1,1511,1037,0,0
294,-13,0,0,0,0,0,0,0,0,0,-1,1518,1037,0,0
301,-13,0,0,0,0,0,0,0,0,0,-1,1525,1037,0,0
308,-13,0,0,0,0,0,0,0,0,0,-1,1532,1037,0,0
315,-13,0,0,0,0,0,0,0,0,0,-1,1539,1037,0,0
322,-13,0,0,0,0,0,0,0,0,0,-1,1546,1037,0,0
329,-13,0,0,0,0,0,0,0,0,0,-1,1553,1037,0,0
336,-13,0,0,0,0,0,0,0,0,0,-1,1560,1037,0,0
343,-13,0,0,0,0,0,0,0,0,0,-1,1567,1037,0,0
350,-13,0,0,0,0,0,0,0,0,0,-1,1574,1037,0,0
357,-13,0,0,0,0,0,0,0,0,0,-1,1581,1037,0,0
364,-13,0,0,0,0,0,0,0,0,0,-1,1588,1037,0,0
371,-13,0,0,0,0,0,0,0,0,0,-1,1595,1037,0,0
378,-13,0,0,0,0,0,0,0,0,0,-1,1602,1037,0,0
385,-13,0,0,0,0,0,0,0,0,0,-1,1609,1037,0,0
392,-13,0,0,0,0,0,0,0,0,0,-1,1616,1037,0,0
399,-13,0,0,0,0,0,0,0,0,0,-1,1623,1037,0,0
406,-13,0,0,0,0,0,0,0,0,0,-1,1630,1037,0,0
413,-13,0,0,0,0,0,0,0,0,0,-1,1637,1037,0,0
420,-13,0,0,0,0,0,0,0,0,0,-1,1644,1037,0,0
427,-13,0,0,0,0,0,0,0,0,0,-1,1651,1037,0,0
434,-13,0,0,0,0,0,0,0,0,0,-1,1658,1037,0,0
441,-13,0,0,0,0,0,0,0,0,0,-1,1665,1037,0,0
448,-13,0,0,0,0,0,0,0,0,0,-1,1672,1037,0,0
455,-13,0,0,0,0,0,0,0,0,0,-1,1679,1037,0,0
462,-13,0,0,0,0,0,0,0,0,0,-1,1686,1037,0,0
469,-13,0,0,0,0,0,0,0,0,0,-1,1693,1037,0,0
476,-13,0,0,0,0,0,0,0,0,0,-1,1700,1037,0,0
483,-13,0,0,0,0,0,0,0,0,0,-1,1707,1037,0,0
490,-13,0,0,0,0,0,0,0,0,0,-1,1714,1037,0,0
497,-13,0,0,0,0,0,0,0,0,0,-1,1721,1037,0,0
504,-13,0,0,0,0,0,0,0,0,0,-1,1728,1037,0,0
511,-13,0,0,0,0,0,0,0,0,0,-1,1735,1037,0,0
518,-13,0,0,0,0,0,0,0,0,0,-1,1742,1037,0,0
525,-13,0,0,0,0,0,0,0,0,0,-1,1749,1037,0,0
532,-13,0,0,0,0,0,0,0,0,0,-1,1756,1037,0,0
539,-13,0,0,0,0,0,0,0,0,0,-1,1763,1037,0,0
546,-13,0,0,0,0,0,0,0,0,0,-1,1770,1037,0,0
553,-13,0,0,0,0,0,0,0,0,0,-1,1777,1037,0,0
560,-13,0,0,0,0,0,0,0,0,0,-1,1784,1037,0,0
567,-13,0,0,0,0,0,0,0,0,0,-1,1791,1037,0,0
574,-13,0,0,0,0,0,0,0,0,0,-1,1798,1037,0,0
581,-13,0,0,0,0,0,0,0,0,0,-1,1805,1037,0,0
588,-13,0,0,0,0,0,0,0,0,0,-1,1812,1037,0,0
595,-13,0,0,0,0,0,0,0,0,0,-1,1819,1037,0,0
602,-13,0,0,0,0,0,0,0,0,0,-1,1826,1037,0,0
609,-13,0,0,0,0,0,0,0,0,0,-1,1833,1037,0,0
616,-13,0,0,0,0,0,0,0,0,0,-1,1840,1037,0,0
623,-13,0,0,0,0,0,0,0,0,0,-1,1847,1037,0,0
630,-13,0,0,0,0,0,0,0,0,0,-1,1854,1037,0,0
637,-13,0,0,0,0,0,0,0,0,0,-1,1861,1037,0,0
644,-13,0,0,0,0,0,0,0,0,0,-1,1868,1037,0,0
651,-13,4.92273,0.985229,-0.00290849,0.00136849,0.000376584,0.0014014,-0.00294139,1.48364,0.00255932,0.0393305,1875,1037,4.92278,-0.985175
658,-13,5.05798,0.942993,-0.00217429,0.000613587,0.000252015,0.000636185,-0.00219688,1.48137,0.00171641,0.0415542,1882,1037,5.05799,-0.942933
665,-13,5.05823,0.814941,-0.00166894,0.000158953,0.000157224,0.000172378,-0.00168236,1.48562,0.00118323,0.0431147,1889,1037,5.05818,-0.81497
672,-13,4.9563,0.665649,-0.00123206,-9.96477e-05,0.000166104,-7.5786e-05,-0.00125592,1.42812,0.000813197,0.0382158,1896,1037,4.95633,-0.665644
679,-13,4.86548,0.68335,-0.000953261,-0.000241395,0.000247841,-0.000163607,-0.00103105,1.26667,0.000639841,0.0395252,1903,1037,4.86544,-0.683408
686,-13,4.86572,0.708984,-0.000768123,-0.000309102,0.000347918,-0.000121813,-0.000955412,1.07697,0.00060047,0.0400137,1910,1037,4.86573,-0.708996
693,-13,4.92334,0.853271,-0.000642442,-0.000329995,0.000447889,-1.18662e-05,-0.000960571,0.9532,0.000636462,0.0376625,1917,1037,4.92329,-0.853242
700,-13,4.95557,0.681641,-0.000554206,-0.000396119,0.000553636,8.40881e-05,-0.00103441,0.856305,0.000719278,0.034537,1924,1037,4.95552,-0.681596
707,-13,4.91101,0.651733,-0.000481913,-0.00035345,0.000618209,0.000203855,-0.00103922,0.837162,0.000769814,0.028941,1931,1037,4.91103,-0.651675
714,-13,4.91821,0.760742,-0.000447394,-0.000310247,0.000646273,0.00027108,-0.00102872,0.838253,0.000791796,0.0213627,1938,1037,4.91819,-0.760691
721,-13,4.91809,0.811646,-0.000449147,-0.000239427,0.000689762,0.000353399,-0.00104197,0.860832,0.000837678,0.018693,1945,1037,4.91805,-0.811653
728,-13,4.91772,0.813843,-0.000496166,-0.000157926,0.000662008,0.000356223,-0.00101031,0.910456,0.000818543,0.0160771,1952,1037,4.91777,-0.813839
735,-13,4.90771,0.804443,-0.000633543,-7.29324e-05,0.000536387,0.000251974,-0.00095845,1.02617,0.00073745,0.0158778,1959,1037,4.90769,-0.804433
742,-13,4.90979,0.808838,-0.000873129,-0.000123663,0.000211351,-6.81707e-05,-0.000928622,1.31403,0.000597655,0.00958839,1966,1037,4.90979,-0.808845
749,-13,4.89063,0.815063,-0.000951888,2.6301e-05,-0.000238895,8.15267e-05,-0.00100711,-1.34362,0.000700169,0.0145909,1973,1037,4.89056,-0.815004
756,-13,4.90881,0.800415,-0.00104809,0.000109586,-0.000772195,0.000495807,-0.00143431,-1.10702,0.00115743,0.0122776,1980,1037,4.9088,-0.800408
763,-13,4.9209,0.796509,-0.00122183,0.000247721,-0.00150007,0.00118331,-0.00215742,-1.01314,0.00195591,0.0103945,1987,1037,4.92095,-0.796522
770,-13,4.90417,0.800781,-0.00146747,0.000405591,-0.00245332,0.00209506,-0.00315694,-0.967731,0.00305283,0.0092363,1994,1037,4.90423,-0.800748
777,-13,4.87915,0.793823,-0.0017235,0.000588114,-0.00366554,0.00327576,-0.00441114,-0.938123,0.00445414,0.0110236,2001,1037,4.87919,-0.793794
784,-13,4.88403,0.745605,-0.00203843,0.000806894,-0.00526487,0.00483793,-0.00606946,-0.917356,0.00631075,0.0263089,2008,1037,4.88403,-0.745643
791,-13,4.69482,0.678589,-0.00219815,0.00110364,-0.00749159,0.00712408,-0.00821859,-0.893848,0.0088656,0.0459151,2015,1037,4.69483,-0.67858
798,-13,4.50256,0.75,0,0,0,0,0,0,0,-1,2022,1037,4.5025,-0.749971
805,-13,4.7229,0.840942,0,0,0,0,0,0,0,-1,2029,1037,4.72295,-0.840947
812,-13,5.66833,1.57043,0,0,0,0,0,0,0,-1,2036,1037,5.66837,-1.5704
-700,-20,1.23364,1.13501,0,0,0,0,0,0,0,-1,524,1044,1.23362,-1.13504
-693,-20,0.868286,0.512451,-0.0396747,0.0225107,-0.0526303,0.0525466,-0.0697106,-1.0522,0.0708167,0.0443118,531,1044,0.868299,-0.512512
-686,-20,0.365967,-0.067749,-0.0344795,0.0141175,-0.039834,0.0364791,-0.0568411,-1.05927,0.0543043,0.0437151,538,1044,0.365988,0.0677744
-679,-20,-0.0777588,-0.675537,-0.029219,0.00805499,-0.0295826,0.0243818,-0.0455458,-1.06649,0.0409845,0.0451703,545,1044,-0.0777659,0.675581
-672,-20,-0.350464,-1.42224,-0.0242286,0.00377066,-0.0213976,0.0153415,-0.0357994,-1.07508,0.0303035,0.0476179,552,1044,-0.350459,1.42221
-665,-20,-0.70459,-2.13696,-0.0196123,0.000905112,-0.0149719,0.00879572,-0.0275029,-1.08576,0.0218651,0.0477081,559,1044,-0.704565,2.13691
-658,-20,-1.03827,-2.76587,0,0,0,0,0,0,0,-1,566,1044,-1.0383,2.76589
-651,-20,-1.02667,0.859863,-0.0118055,-0.00170647,-0.0064453,0.00143177,-0.0149437,-1.11768,0.0104724,0.0405992,573,1044,-1.02668,-0.859809
-644,-20,-1.03662,0.744873,-0.00871022,-0.0019765,-0.0039094,-0.000183987,-0.0105027,-1.14088,0.0069413,0.0253782,580,1044,-1.03663,-0.744841
-637,-20,-1.04095,0.759644,-0.00592604,-0.00215151,-0.00153791,-0.00160425,-0.0064733,-1.22892,0.00389258,0.0159139,587,1044,-1.04098,-0.759609
-630,-20,-1.05853,0.759766,-0.00387982,-0.00229191,0.000157741,-0.00227639,-0.00389534,1.47273,0.00225963,0.0131053,594,1044,-1.05853,-0.759783
-623,-20,-1.06543,0.773804,-0.00232584,-0.00214388,0.000500438,-0.00172622,-0.0027435,0.875317,0.00160149,0.0122883,601,1044,-1.06545,-0.77384
-616,-20,-1.04938,0.778076,-0.000829388,-0.00148097,0.000418831,-0.000624557,-0.0016858,0.454852,0.000984121,0.0128427,608,1044,-1.04941,-0.77806
-609,-20,-1.02673,0.75293,0.000337798,4.43789e-05,0.000215426,0.000451726,-6.95493e-05,0.486461,0.00032681,0.0149404,615,1044,-1.02675,-0.752976
-602,-20,-1.04108,0.750244,0.000793954,-1.48802e-05,-0.000239308,0.000859453,-8.03794e-05,-0.26716,0.000601555,0.0112308,622,1044,-1.04108,-0.7502
-595,-20,-1.05365,0.741089,0.00103289,5.93935e-05,-7.07905e-05,0.00103801,5.42727e-05,-0.0722117,0.000674642,0.0101071,629,1044,-1.05364,-0.741119
-588,-20,-1.06384,0.725586,0.00123448,8.26585e-05,0.000121558,0.00124717,6.99696e-05,0.104009,0.000809131,0.0129498,636,1044,-1.06386,-0.725619
-581,-20,-1.04041,0.822754,0.00149916,0.000102622,0.000214782,0.00153144,7.03358e-05,0.149204,0.000998343,0.0216779,643,1044,-1.04038,-0.822756
-574,-20,-1.10547,0.989746,0.00170681,0.000189169,0.000409854,0.00181042,8.55578e-05,0.247613,0.00117946,0.0368624,650,1044,-1.10549,-0.989798
-567,-20,-1.07532,1.26929,0.00183746,0.000298222,0.000692973,0.00210347,3.22129e-05,0.366521,0.0013917,0.042813,657,1044,-1.07529,-1.26927
-560,-20,-1.0083,1.07507,0.00187708,0.000407977,0.00108208,0.00245037,-0.000165315,0.487209,0.00169138,0.0432589,664,1044,-1.00831,-1.07511
-553,-20,-0.877563,0.337769,0.00182877,0.000492201,0.00156274,0.00286012,-0.000539146,0.583347,0.00210955,0.04392,671,1044,-0.877539,-0.337759
-546,-20,-0.944824,0.742065,0.00165571,0.000518324,0.00214076,0.00330202,-0.00112799,0.655571,0.00265835,0.0409775,678,1044,-0.944799,-0.742035
-539,-20,-1.03217,1.26086,0.0013497,0.000431308,0.00279194,0.00371995,-0.00193894,0.703892,0.00332066,0.0429059,685,1044,-1.03217,-1.26091
-532,-20,-1.05542,1.25818,0.000887143,0.000169957,0.00351058,0.0040574,-0.0030003,0.734502,0.00408997,0.0422151,692,1044,-1.0554,-1.25816
-525,-20,0,0,0,0,0,0,0,0,0,-1,699,1044,0,0
-518,-20,0,0,0,0,0,0,0,0,0,-1,706,1044,0,0
-511,-20,0,0,0,0,0,0,0,0,0,-1,713,1044,0,0
-504,-20,0,0,0,0,0,0,0,0,0,-1,720,1044,0,0
-497,-20,0,0,0,0,0,0,0,0,0,-1,727,1044,0,0
-490,-20,0,0,0,0,0,0,0,0,0,-1,734,1044,0,0
-483,-20,0,0,0,0,0,0,0,0,0,-1,741,1044,0,0
-476,-20,0,0,0,0,0,0,0,0,0,-1,748,1044,0,0
-469,-20,0,0,0,0,0,0,0,0,0,-1,755,1044,0,0
-462,-20,0,0,0,0,0,0,0,0,0,-1,762,1044,0,0
-455,-20,0,0,0,0,0,0,0,0,0,-1,769,1044,0,0
-448,-20,0,0,0,0,0,0,0,0,0,-1,776,1044,0,0
-441,-20,0,0,0,0,0,0,0,0,0,-1,783,1044,0,0
-434,-20,0,0,0,0,0,0,0,0,0,-1,790,1044,0,0
-427,-20,0,0,0,0,0,0,0,0,0,-1,797,1044,0,0
-420,-20,0,0,0,0,0,0,0,0,0,-1,804,1044,0,0
-413,-20,0,0,0,0,0,0,0,0,0,-1,811,1044,0,0
-406,-20,0,0,0,0,0,0,0,0,0,-1,818,1044,0,0
-399,-20,0,0,0,0,0,0,0,0,0,-1,825,1044,0,0
-392,-20,0,0,0,0,0,0,0,0,0,-1,832,1044,0,0
-385,-20,0,0,0,0,0,0,0,0,0,-1,839,1044,0,0
-378,-20,0,0,0,0,0,0,0,0,0,-1,846,1044,0,0
-371,-20,0,0,0,0,0,0,0,0,0,-1,853,1044,0,0
-364,-20,0,0,0,0,0,0,0,0,0,-1,860,1044,0,0
-357,-20,0,0,0,0,0,0,0,0,0,-1,867,1044,0,0
-350,-20,0,0,0,0,0,0,0,0,0,-1,874,1044,0,0
-343,-20,0,0,0,0,0,0,0,0,0,-1,881,1044,0,0
-336,-20,0,0,0,0,0,0,0,0,0,-1,888,1044,0,0
-329,-20,0,0,0,0,0,0,0,0,0,-1,895,1044,0,0
-322,-20,0,0,0,0,0,0,0,0,0,-1,902,1044,0,0
-315,-20,0,0,0,0,0,0,0,0,0,-1,909,1044,0,0
-308,-20,0,0,0,0,0,0,0,0,0,-1,916,1044,0,0
-301,-20,0,0,0,0,0,0,0,0,0,-1,923,1044,0,0
-294,-20,0,0,0,0,0,0,0,0,0,-1,930,1044,0,0
-287,-20,0,0,0,0,0,0,0,0,0,-1,937,1044,0,0
-280,-20,0,0,0,0,0,0,0,0,0,-1,944,1044,0,0
-273,-20,0,0,0,0,0,0,0,0,0,-1,951,1044,0,0
-266,-20,0,0,0,0,0,0,0,0,0,-1,958,1044,0,0
-259,-20,0,0,0,0,0,0,0,0,0,-1,965,1044,0,0
-252,-20,0,0,0,0,0,0,0,0,0,-1,972,1044,0,0
-245,-20,0,0,0,0,0,0,0,0,0,-1,979,1044,0,0
-238,-20,0,0,0,0,0,0,0,0,0,-1,986,1044,0,0
-231,-20,0,0,0,0,0,0,0,0,0,-1,993,1044,0,0
-224,-20,0,0,0,0,0,0,0,0,0,-1,1000,1044,0,0
-217,-20,0,0,0,0,0,0,0,0,0,-1,1007,1044,0,0
-210,-20,0,0,0,0,0,0,0,0,0,-1,1014,1044,0,0
-203,-20,0,0,0,0,0,0,0,0,0,-1,1021,1044,0,0
-196,-20,0,0,0,0,0,0,0,0,0,-1,1028,1044,0,0
-189,-20,0,0,0,0,0,0,0,0,0,-1,1035,1044,0,0
-182,-20,0,0,0,0,0,0,0,0,0,-1,1042,1044,0,0
-175,-20,0,0,0,0,0,0,0,0,0,-1,1049,1044,0,0
-168,-20,0,0,0,0,0,0,0,0,0,-1,1056,1044,0,0
-161,-20,0,0,0,0,0,0,0,0,0,-1,1063,1044,0,0
-154,-20,0,0,0,0,0,0,0,0,0,-1,1070,1044,0,0
-147,-20,0,0,0,0,0,0,0,0,0,-1,1077,1044,0,0
-140,-20,0,0,0,0,0,0,0,0,0,-1,1084,1044,0,0
-133,-20,0,0,0,0,0,0,0,0,0,-1,1091,1044,0,0
-126,-20,0,0,0,0,0,0,0,0,0,-1,1098,1044,0,0
-119,-20,0,0,0,0,0,0,0,0,0,-1,1105,1044,0,0
-112,-20,0,0,0,0,0,0,0,0,0,-1,1112,1044,0,0
-105,-20,0,0,0,0,0,0,0,0,0,-1,1119,1044,0,0
-98,-20,0,0,0,0,0,0,0,0,0,-1,1126,1044,0,0
-91,-20,0,0,0,0,0,0,0,0,0,-1,1133,1044,0,0
-84,-20,0,0,0,0,0,0,0,0,0,-1,1140,1044,0,0
-77,-20,0,0,0,0,0,0,0,0,0,-1,1147,1044,0,0
-70,-20,0,0,0,0,0,0,0,0,0,-1,1154,1044,0,0
-63,-20,0,0,0,0,0,0,0,0,0,-1,1161,1044,0,0
-56,-20,0,0,0,0,0,0,0,0,0,-1,1168,1044,0,0
-49,-20,0,0,0,0,0,0,0,0,0,-1,1175,1044,0,0
-42,-20,0,0,0,0,0,0,0,0,0,-1,1182,1044,0,0
-35,-20,0,0,0,0,0,0,0,0,0,-1,1189,1044,0,0
-28,-20,0,0,0,0,0,0,0,0,0,-1,1196,1044,0,0
-21,-20,0,0,0,0,0,0,0,0,0,-1,1203,1044,0,0
-14,-20,0,0,0,0,0,0,0,0,0,-1,1210,1044,0,0
-7,-20,0,0,0,0,0,0,0,0,0,-1,1217,1044,0,0
0,-20,0,0,0,0,0,0,0,0,0,-1,1224,1044,0,0
7,-20,0,0,0,0,0,0,0,0,0,-1,1231,1044,0,0
14,-20,0,0,0,0,0,0,0,0,0,-1,1238,1044,0,0
21,-20,0,0,0,0,0,0,0,0,0,-1,1245,1044,0,0
28,-20,0,0,0,0,0,0,0,0,0,-1,1252,1044,0,0
35,-20,0,0,0,0,0,0,0,0,0,-1,1259,1044,0,0
42,-20,0,0,0,0,0,0,0,0,0,-1,1266,1044,0,0
49,-20,0,0,0,0,0,0,0,0,0,-1,1273,1044,0,0
56,-20,0,0,0,0,0,0,0,0,0,-1,1280,1044,0,0
63,-20,0,0,0,0,0,0,0,0,0,-1,1287,1044,0,0
70,-20,0,0,0,0,0,0,0,0,0,-1,1294,1044,0,0
77,-20,0,0,0,0,0,0,0,0,0,-1,1301,1044,0,0
84,-20,0,0,0,0,0,0,0,0,0,-1,1308,1044,0,0
91,-20,0,0,0,0,0,0,0,0,0,-1,1315,1044,0,0
98,-20,0,0,0,0,0,0,0,0,0,-1,1322,1044,0,0
105,-20,0,0,0,0,0,0,0,0,0,-1,1329,1044,0,0
112,-20,0,0,0,0,0,0,0,0,0,-1,1336,1044,0,0
119,-20,0,0,0,0,0,0,0,0,0,-1,1343,1044,0,0
126,-20,0,0,0,0,0,0,0,0,0,-1,1350,1044,0,0
133,-20,0,0,0,0,0,0,0,0,0,-1,1357,1044,0,0
140,-20,0,0,0,0,0,0,0,0,0,-1,1364,1044,0,0
147,-20,0,0,0,0,0,0,0,0,0,-1,1371,1044,0,0
154,-20,0,0,0,0,0,0,0,0,0,-1,1378,1044,0,0
161,-20,0,0,0,0,0,0,0,0,0,-1,1385,1044,0,0
168,-20,0,0,0,0,0,0,0,0,0,-1,1392,1044,0,0
175,-20,0,0,0,0,0,0,0,0,0,-1,1399,1044,0,0
182,-20,0,0,0,0,0,0,0,0,0,-1,1406,1044,0,0
189,-20,0,0,0,0,0,0,0,0,0,-1,1413,1044,0,0
196,-20,0,0,0,0,0,0,0,0,0,-1,1420,1044,0,0
203,-20,0,0,0,0,0,0,0,0,0,-1,1427,1044,0,0
210,-20,0,0,0,0,0,0,0,0,0,-1,1434,1044,0,0
217,-20,0,0,0,0,0,0,0,0,0,-1,1441,1044,0,0
224,-20,0,0,0,0,0,0,0,0,0,-1,1448,1044,0,0
231,-20,0,0,0,0,0,0,0,0,0,-1,1455,1044,0,0
238,-20,0,0,0,0,0,0,0,0,0,-1,1462,1044,0,0
245,-20,0,0,0,0,0,0,0,0,0,-1,1469,1044,0,0
252,-20,0,0,0,0,0,0,0,0,0,-1,1476,1044,0,0
259,-20,0,0,0,0,0,0,0,0,0,-1,1483,1044,0,0
266,-20,0,0,0,0,0,0,0,0,0,-1,1490,1044,0,0
273,-20,0,0,0,0,0,0,0,0,0,-1,1497,1044,0,0
280,-20,0,0,0,0,0,0,0,0,0,-1,1504,1044,0,0
287,-20,0,0,0,0,0,0,0,0,0,-1,1511,1044,0,0
294,-20,0,0,0,0,0,0,0,0,0,-1,1518,1044,0,0
301,-20,0,0,0,0,0,0,0,0,0,-1,1525,1044,0,0
308,-20,0,0,0,0,0,0,0,0,0,-1,1532,1044,0,0
315,-20,0,0,0,0,0,0,0,0,0,-1,1539,1044,0,0
322,-20,0,0,0,0,0,0,0,0,0,-1,1546,1044,0,0
329,-20,0,0,0,0,0,0,0,0,0,-1,1553,1044,0,0
336,-20,0,0,0,0,0,0,0,0,0,-1,1560,1044,0,0
343,-20,0,0,0,0,0,0,0,0,0,-1,1567,1044,0,0
350,-20,0,0,0,0,0,0,0,0,0,-1,1574,1044,0,0
357,-20,0,0,0,0,0,0,0,0,0,-1,1581,1044,0,0
364,-20,0,0,0,0,0,0,0,0,0,-1,1588,1044,0,0
371,-20,0,0,0,0,0,0,0,0,0,-1,1595,1044,0,0
378,-20,0,0,0,0,0,0,0,0,0,-1,1602,1044,0,0
385,-20,0,0,0,0,0,0,0,0,0,-1,1609,1044,0,0
392,-20,0,0,0,0,0,0,0,0,0,-1,1616,1044,0,0
399,-20,0,0,0,0,0,0,0,0,0,-1,1623,1044,0,0
406,-20,0,0,0,0,0,0,0,0,0,-1,1630,1044,0,0
413,-20,0,0,0,0,0,0,0,0,0,-1,1637,1044,0,0
420,-20,0,0,0,0,0,0,0,0,0,-1,1644,1044,0,0
427,-20,0,0,0,0,0,0,0,0,0,-1,1651,1044,0,0
434,-20,0,0,0,0,0,0,0,0,0,-1,1658,1044,0,0
441,-20,0,0,0,0,0,0,0,0,0,-1,1665,1044,0,0
448,-20,0,0,0,0,0,0,0,0,0,-1,1672,1044,0,0
455,-20,0,0,0,0,0,0,0,0,0,-1,1679,1044,0,0
462,-20,0,0,0,0,0,0,0,0,0,-1,1686,1044,0,0
469,-20,0,0,0,0,0,0,0,0,0,-1,1693,1044,0,0
476,-20,0,0,0,0,0,0,0,0,0,-1,1700,1044,0,0
483,-20,0,0,0,0,0,0,0,0,0,-1,1707,1044,0,0
490,-20,0,0,0,0,0,0,0,0,0,-1,1714,1044,0,0
497,-20,0,0,0,0,0,0,0,0,0,-1,1721,1044,0,0
504,-20,0,0,0,0,0,0,0,0,0,-1,1728,1044,0,0
511,-20,0,0,0,0,0,0,0,0,0,-1,1735,1044,0,0
518,-20,0,0,0,0,0,0,0,0,0,-1,1742,1044,0,0
525,-20,0,0,0,0,0,0,0,0,0,-1,1749,1044,0,0
532,-20,0,0,0,0,0,0,0,0,0,-1,1756,1044,0,0
539,-20,0,0,0,0,0,0,0,0,0,-1,1763,1044,0,0
546,-20,0,0,0,0,0,0,0,0,0,-1,1770,1044,0,0
553,-20,0,0,0,0,0,0,0,0,0,-1,1777,1044,0,0
560,-20,0,0,0,0,0,0,0,0,0,-1,1784,1044,0,0
567,-20,0,0,0,0,0,0,0,0,0,-1,1791,1044,0,0
574,-20,0,0,0,0,0,0,0,0,0,-1,1798,1044,0,0
581,-20,0,0,0,0,0,0,0,0,0,-1,1805,1044,0,0
588,-20,0,0,0,0,0,0,0,0,0,-1,1812,1044,0,0
595,-20,0,0,0,0,0,0,0,0,0,-1,1819,1044,0,0
602,-20,0,0,0,0,0,0,0,0,0,-1,1826,1044,0,0
609,-20,0,0,0,0,0,0,0,0,0,-1,1833,1044,0,0
616,-20,0,0,0,0,0,0,0,0,0,-1,1840,1044,0,0
623,-20,0,0,0,0,0,0,0,0,0,-1,1847,1044,0,0
630,-20,0,0,0,0,0,0,0,0,0,-1,1854,1044,0,0
637,-20,0,0,0,0,0,0,0,0,0,-1,1861,1044,0,0
644,-20,0,0,0,0,0,0,0,0,0,-1,1868,1044,0,0
651,-20,5.02075,0.792358,-0.00323276,0.00169516,0.000986528,0.00188532,-0.00342292,1.38038,0.00310727,0.0393889,1875,1044,5.02076,-0.79236
658,-20,4.99121,0.783569,-0.00244519,0.000923698,0.000625785,0.00103618,-0.00255768,1.39294,0.002136,0.0412697,1882,1044,4.99127,-0.783518
665,-20,5.00745,0.788818,-0.00187634,0.000424864,0.000387341,0.000488312,-0.00193979,1.40843,0.00148301,0.0391905,1889,1044,5.00742,-0.788785
672,-20,4.85217,0.650757,-0.00137012,0.000116447,0.000305616,0.000176825,-0.00143049,1.37575,0.00101774,0.0269964,1896,1044,4.85218,-0.650761
679,-20,4.91162,0.724121,-0.001026,-7.35497e-05,0.000335447,3.2733e-05,-0.00113228,1.26396,0.000765998,0.0298657,1903,1044,4.91167,-0.724132
686,-20,4.94714,0.752808,-0.000789023,-0.000181813,0.000407805,2.29916e-05,-0.000993828,1.10538,0.000670347,0.0391426,1910,1044,4.94719,-0.752844
693,-20,4.88342,0.701782,-0.000629404,-0.000234879,0.000494703,0.000100441,-0.000964724,0.975112,0.00067911,0.041531,1917,1044,4.88338,-0.701724
700,-20,4.9447,0.706177,-0.000528848,-0.000306949,0.000593597,0.000185978,-0.00102178,0.877787,0.000750893,0.0382963,1924,1044,4.94464,-0.706232
707,-20,4.9574,0.635864,-0.000456708,-0.000292636,0.00065051,0.000280991,-0.00103033,0.848122,0.000797234,0.029206,1931,1044,4.95743,-0.635912
714,-20,4.93457,0.664429,-0.000414008,-0.000269651,0.000674574,0.000336595,-0.00102025,0.838695,0.00081585,0.0197309,1938,1044,4.9346,-0.664436
721,-20,4.92639,0.730591,-0.000398405,-0.000210011,0.00071896,0.000420896,-0.00102931,0.850536,0.00086149,0.0114994,1945,1044,4.92637,-0.730614
728,-20,4.90198,0.801636,-0.00043735,-0.000130819,0.0006937,0.000426346,-0.000994514,0.894121,0.000841912,0.0114535,1952,1044,4.902,-0.801627
735,-20,4.90759,0.839844,-0.00060738,-4.45364e-05,0.000562811,0.000303291,-0.000955207,1.01723,0.000758394,0.0141927,1959,1044,4.90759,-0.839802
742,-20,4.90002,0.81543,-0.000870374,-6.14401e-05,0.000219471,-5.73226e-06,-0.000926082,1.32222,0.000615486,0.0129844,1966,1044,4.90004,-0.815418
749,-20,4.88806,0.796509,-0.000959006,0.000137345,-0.000278789,0.000204165,-0.00102583,-1.33555,0.000761122,0.0143495,1973,1044,4.88808,-0.796483
756,-20,4.90247,0.789307,-0.00102051,0.000398268,-0.000902518,0.000836821,-0.00145907,-1.11848,0.00134166,0.0115171,1980,1044,4.90246,-0.789293
763,-20,4.91968,0.784424,-0.00112661,0.000828974,-0.00174738,0.00185353,-0.00215117,-1.04048,0.00231425,0.0120617,1987,1044,4.91974,-0.784416
770,-20,4.91675,0.802246,-0.00130064,0.00135975,-0.00283374,0.00315997,-0.00310086,-1.00484,0.00361475,0.0113326,1994,1044,4.91671,-0.802205
777,-20,4.88477,0.819702,-0.00144297,0.00215855,-0.00424129,0.00496552,-0.00424995,-0.986155,0.0053259,0.0114516,2001,1044,4.88478,-0.819731
784,-20,4.88989,0.804565,-0.0015707,0.00338026,-0.00612053,0.00750697,-0.00569741,-0.977568,0.00764738,0.0166121,2008,1044,4.88993,-0.804512
791,-20,4.81799,0.858276,-0.00146332,0.00529671,-0.00873622,0.011284,-0.0074506,-0.969978,0.0108916,0.0370475,2015,1044,4.81805,-0.858247
798,-20,4.74023,0.937988,0,0,0,0,0,0,0,-1,2022,1044,4.74024,-0.938002
805,-20,4.63232,2.10193,0,0,0,0,0,0,0,-1,2029,1044,4.63227,-2.1019
812,-20,5.33069,1.59045,0,0,0,0,0,0,0,-1,2036,1044,5.33066,-1.59049
-700,-27,1.35175,0.738159,0,0,0,0,0,0,0,-1,524,1051,1.35176,-0.738159
-693,-27,1.00897,0.41333,-0.0461773,0.0323242,-0.0570216,0.0622984,-0.0761514,-1.08683,0.0800673,0.0458278,531,1051,1.009,-0.413314
-686,-27,0.41687,-0.111938,-0.0389313,0.0225324,-0.0430304,0.0446783,-0.0610772,-1.09549,0.0613022,0.0436881,538,1051,0.416868,0.111916
-679,-27,-0.181213,-0.756226,-0.0321639,0.0150779,-0.0319235,0.0311692,-0.0482552,-1.10391,0.046208,0.0464129,545,1051,-0.181194,0.756213
-672,-27,-0.46759,-1.44543,-0.0260559,0.00948751,-0.0231142,0.0208723,-0.0374407,-1.11313,0.034117,0.0488938,552,1051,-0.467587,1.44542
-665,-27,-0.695923,-2.11072,-0.0206151,0.00544419,-0.0162294,0.0132272,-0.0283981,-1.12363,0.0245586,0.0481577,559,1051,-0.695952,2.11067
-658,-27,-1.19702,1.03027,-0.0158641,0.00267743,-0.0109855,0.00778125,-0.0209679,-1.13587,0.0171705,0.0446143,566,1051,-1.19701,-1.03027
-651,-27,-1.07129,0.835815,-0.0118245,0.000926873,-0.00711677,0.00410617,-0.0150038,-1.15066,0.0116158,0.0347269,573,1051,-1.07131,-0.835782
-644,-27,-1.05249,0.758423,-0.00849425,-6.32854e-05,-0.00439864,0.00181371,-0.0103712,-1.16747,0.00759131,0.0150535,580,1051,-1.05251,-0.758402
-637,-27,-1.04529,0.721558,-0.0055283,-0.000749498,-0.00190791,-8.12253e-05,-0.00619657,-1.23389,0.00410424,0.0122224,587,1051,-1.04531,-0.721506
-630,-27,-1.06036,0.753418,-0.00335272,-0.0013875,-6.0473e-05,-0.00138564,-0.00335458,-1.54006,0.0019465,0.016818,594,1051,-1.06039,-0.753446
-623,-27,-1.06598,0.780273,-0.00183393,-0.00167526,0.000340345,-0.00140512,-0.00210406,0.899902,0.00123738,0.0146876,601,1051,-1.06597,-0.780221
-616,-27,-1.04858,0.78064,-0.000488815,-0.00124084,0.000235855,-0.000420967,-0.00130869,0.280109,0.000771425,0.0132649,608,1051,-1.04861,-0.780672
-609,-27,-1.0495,0.759399,0.000524976,0.000213248,5.62573e-05,0.000534818,0.000203406,0.173193,0.000311712,0.0141586,615,1051,-1.04947,-0.759424
-602,-27,-1.03772,0.768066,0.000905829,0.000102176,-0.000383593,0.00105953,-5.1523e-05,-0.381094,0.000724138,0.0117809,622,1051,-1.03772,-0.768124
-595,-27,-1.03662,0.765503,0.00108784,0.000182353,-0.000221947,0.00113931,0.000130877,-0.2279,0.000719892,0.00978669,629,1051,-1.03662,-0.765508
-588,-27,-1.04938,0.73938,0.00127618,0.000264535,-4.70231e-05,0.00127836,0.000262354,-0.0463487,0.000779643,0.013167,636,1051,-1.04935,-0.739394
-581,-27,-1.04761,0.770752,0.00156394,0.000373276,-5.84884e-06,0.00156397,0.000373247,-0.00491209,0.000943178,0.0192248,643,1051,-1.04761,-0.770709
-574,-27,-1.05829,0.894287,0.00179474,0.000539354,0.000136207,0.00180935,0.000524746,0.106841,0.0010749,0.0348525,650,1051,-1.05829,-0.89432
-567,-27,-1.03174,1.16321,0.00195937,0.000739621,0.00036824,0.00206192,0.000637072,0.271603,0.00121907,0.044737,657,1051,-1.03172,-1.16318
-560,-27,-0.906677,0.942627,0.00205258,0.000957637,0.000710041,0.00240171,0.000608514,0.456981,0.00144176,0.0455935,664,1051,-0.906698,-0.942658
-553,-27,-0.820801,0.494141,0.00207989,0.00117298,0.00115037,0.00286296,0.000389922,0.597658,0.00179285,0.0420207,671,1051,-0.820805,-0.494134
-546,-27,-0.865051,0.55542,0.00201076,0.00135793,0.00169939,0.0034148,-4.61108e-05,0.690515,0.00229206,0.0429444,678,1051,-0.865038,-0.555477
-539,-27,-0.948059,1.0166,0.00185024,0.0014656,0.0023349,0.00400072,-0.000684882,0.744307,0.00292232,0.042496,685,1051,-0.948071,-1.01666
-532,-27,-0.958557,1.20007,0.00158366,0.00144841,0.00305114,0.00456792,-0.00153585,0.774317,0.00366608,0.0433948,692,1051,-0.958548,-1.20007
-525,-27,0,0,0,0,0,0,0,0,0,-1,699,1051,0,0
-518,-27,0,0,0,0,0,0,0,0,0,-1,706,1051,0,0
-511,-27,0,0,0,0,0,0,0,0,0,-1,713,1051,0,0
-504,-27,0,0,0,0,0,0,0,0,0,-1,720,1051,0,0
-497,-27,0,0,0,0,0,0,0,0,0,-1,727,1051,0,0
-490,-27,0,0,0,0,0,0,0,0,0,-1,734,1051,0,0
-483,-27,0,0,0,0,0,0,0,0,0,-1,741,1051,0,0
-476,-27,0,0,0,0,0,0,0,0,0,-1,748,1051,0,0
-469,-27,0,0,0,0,0,0,0,0,0,-1,755,1051,0,0
-462,-27,0,0,0,0,0,0,0,0,0,-1,762,1051,0,0
-455,-27,0,0,0,0,0,0,0,0,0,-1,769,1051,0,0
-448,-27,0,0,0,0,0,0,0,0,0,-1,776,1051,0,0
-441,-27,0,0,0,0,0,0,0,0,0,-1,783,1051,0,0
-434,-27,0,0,0,0,0,0,0,0,0,-1,790,1051,0,0
-427,-27,0,0,0,0,0,0,0,0,0,-1,797,1051,0,0
-420,-27,0,0,0,0,0,0,0,0,0,-1,804,1051,0,0
-413,-27,0,0,0,0,0,0,0,0,0,-1,811,1051,0,0
-406,-27,0,0,0,0,0,0,0,0,0,-1,818,1051,0,0
-399,-27,0,0,0,0,0,0,0,0,0,-1,825,1051,0,0
-392,-27,0,0,0,0,0,0,0,0,0,-1,832,1051,0,0
-385,-27,0,0,0,0,0,0,0,0,0,-1,839,1051,0,0
-378,-27,0,0,0,0,0,0,0,0,0,-1,846,1051,0,0
-371,-27,0,0,0,0,0,0,0,0,0,-1,853,1051,0,0
-364,-27,0,0,0,0,0,0,0,0,0,-1,860,1051,0,0
-357,-27,0,0,0,0,0,0,0,0,0,-1,867,1051,0,0
-350,-27,0,0,0,0,0,0,0,0,0,-1,874,1051,0,0
-343,-27,0,0,0,0,0,0,0,0,0,-1,881,1051,0,0
-336,-27,0,0,0,0,0,0,0,0,0,-1,888,1051,0,0
-329,-27,0,0,0,0,0,0,0,0,0,-1,895,1051,0,0
-322,-27,0,0,0,0,0,0,0,0,0,-1,902,1051,0,0
-315,-27,0,0,0,0,0,0,0,0,0,-1,909,1051,0,0
-308,-27,0,0,0,0,0,0,0,0,0,-1,916,1051,0,0
-301,-27,0,0,0,0,0,0,0,0,0,-1,923,1051,0,0
-294,-27,0,0,0,0,0,0,0,0,0,-1,930,1051,0,0
-287,-27,0,0,0,0,0,0,0,0,0,-1,937,1051,0,0
-280,-27,0,0,0,0,0,0,0,0,0,-1,944,1051,0,0
-273,-27,0,0,0,0,0,0,0,0,0,-1,951,1051,0,0
-266,-27,0,0,0,0,0,0,0,0,0,-1,958,1051,0,0
-259,-27,0,0,0,0,0,0,0,0,0,-1,965,1051,0,0
-252,-27,0,0,0,0,0,0,0,0,0,-1,972,1051,0,0
-245,-27,0,0,0,0,0,0,0,0,0,-1,979,1051,0,0
-238,-27,0,0,0,0,0,0,0,0,0,-1,986,1051,0,0
-231,-27,0,0,0,0,0,0,0,0,0,-1,993,1051,0,0
-224,-27,0,0,0,0,0,0,0,0,0,-1,1000,1051,0,0
-217,-27,0,0,0,0,0,0,0,0,0,-1,1007,1051,0,0
-210,-27,0,0,0,0,0,0,0,0,0,-1,1014,1051,0,0
-203,-27,0,0,0,0,0,0,0,0,0,-1,1021,1051,0,0
-196,-27,0,0,0,0,0,0,0,0,0,-1,1028,1051,0,0
-189,-27,0,0,0,0,0,0,0,0,0,-1,1035,1051,0,0
-182,-27,0,0,0,0,0,0,0,0,0,-1,1042,1051,0,0
-175,-27,0,0,0,0,0,0,0,0,0,-1,1049,1051,0,0
-168,-27,0,0,0,0,0,0,0,0,0,-1,1056,1051,0,0
-161,-27,0,0,0,0,0,0,0,0,0,-1,1063,1051,0,0
-154,-27,0,0,0,0,0,0,0,0,0,-1,1070,1051,0,0
-147,-27,0,0,0,0,0,0,0,0,0,-1,1077,1051,0,0
-140,-27,0,0,0,0,0,0,0,0,0,-1,1084,1051,0,0
-133,-27,0,0,0,0,0,0,0,0,0,-1,1091,1051,0,0
-126,-27,0,0,0,0,0,0,0,0,0,-1,1098,1051,0,0
-119,-27,0,0,0,0,0,0,0,0,0,-1,1105,1051,0,0
-112,-27,0,0,0,0,0,0,0,0,0,-1,1112,1051,0,0
-105,-27,0,0,0,0,0,0,0,0,0,-1,1119,1051,0,0
-98,-27,0,0,0,0,0,0,0,0,0,-1,1126,1051,0,0
-91,-27,0,0,0,0,0,0,0,0,0,-1,1133,1051,0,0
-84,-27,0,0,0,0,0,0,0,0,0,-1,1140,1051,0,0
-77,-27,0,0,0,0,0,0,0,0,0,-1,1147,1051,0,0
-70,-27,0,0,0,0,0,0,0,0,0,-1,1154,1051,0,0
-63,-27,0,0,0,0,0,0,0,0,0,-1,1161,1051,0,0
-56,-27,0,0,0,0,0,0,0,0,0,-1,1168,1051,0,0
-49,-27,0,0,0,0,0,0,0,0,0,-1,1175,1051,0,0
-42,-27,0,0,0,0,0,0,0,0,0,-1,1182,1051,0,0
-35,-27,0,0,0,0,0,0,0,0,0,-1,1189,1051,0,0
-28,-27,0,0,0,0,0,0,0,0,0,-1,1196,1051,0,0
-21,-27,0,0,0,0,0,0,0,0,0,-1,1203,1051,0,0
-14,-27,0,0,0,0,0,0,0,0,0,-1,1210,1051,0,0
-7,-27,0,0,0,0,0,0,0,0,0,-1,1217,1051,0,0
0,-27,0,0,0,0,0,0,0,0,0,-1,1224,1051,0,0
7,-27,0,0,0,0,0,0,0,0,0,-1,1231,1051,0,0
14,-27,0,0,0,0,0,0,0,0,0,-1,1238,1051,0,0
21,-27,0,0,0,0,0,0,0,0,0,-1,1245,1051,0,0
28,-27,0,0,0,0,0,0,0,0,0,-1,1252,1051,0,0
35,-27,0,0,0,0,0,0,0,0,0,-1,1259,1051,0,0
42,-27,0,0,0,0,0,0,0,0,0,-1,1266,1051,0,0
49,-27,0,0,0,0,0,0,0,0,0,-1,1273,1051,0,0
56,-27,0,0,0,0,0,0,0,0,0,-1,1280,1051,0,0
63,-27,0,0,0,0,0,0,0,0,0,-1,1287,1051,0,0
70,-27,0,0,0,0,0,0,0,0,0,-1,1294,1051,0,0
77,-27,0,0,0,0,0,0,0,0,0,-1,1301,1051,0,0
84,-27,0,0,0,0,0,0,0,0,0,-1,1308,1051,0,0
91,-27,0,0,0,0,0,0,0,0,0,-1,1315,1051,0,0
98,-27,0,0,0,0,0,0,0,0,0,-1,1322,1051,0,0
105,-27,0,0,0,0,0,0,0,0,0,-1,1329,1051,0,0
112,-27,0,0,0,0,0,0,0,0,0,-1,1336,1051,0,0
119,-27,0,0,0,0,0,0,0,0,0,-1,1343,1051,0,0
126,-27,0,0,0,0,0,0,0,0,0,-1,1350,1051,0,0
133,-27,0,0,0,0,0,0,0,0,0,-1,1357,1051,0,0
140,-27,0,0,0,0,0,0,0,0,0,-1,1364,1051,0,0
147,-27,0,0,0,0,0,0,0,0,0,-1,1371,1051,0,0
154,-27,0,0,0,0,0,0,0,0,0,-1,1378,1051,0,0
161,-27,0,0,0,0,0,0,0,0,0,-1,1385,1051,0,0
168,-27,0,0,0,0,0,0,0,0,0,-1,1392,1051,0,0
175,-27,0,0,0,0,0,0,0,0,0,-1,1399,1051,0,0
182,-27,0,0,0,0,0,0,0,0,0,-1,1406,1051,0,0
189,-27,0,0,0,0,0,0,0,0,0,-1,1413,1051,0,0
196,-27,0,0,0,0,0,0,0,0,0,-1,1420,1051,0,0
203,-27,0,0,0,0,0,0,0,0,0,-1,1427,1051,0,0
210,-27,0,0,0,0,0,0,0,0,0,-1,1434,1051,0,0
217,-27,0,0,0,0,0,0,0,0,0,-1,1441,1051,0,0
224,-27,0,0,0,0,0,0,0,0,0,-1,1448,1051,0,0
231,-27,0,0,0,0,0,0,0,0,0,-1,1455,1051,0,0
238,-27,0,0,0,0,0,0,0,0,0,-1,1462,1051,0,0
245,-27,0,0,0,0,0,0,0,0,0,-1,1469,1051,0,0
252,-27,0,0,0,0,0,0,0,0,0,-1,1476,1051,0,0
259,-27,0,0,0,0,0,0,0,0,0,-1,1483,1051,0,0
266,-27,0,0,0,0,0,0,0,0,0,-1,1490,1051,0,0
273,-27,0,0,0,0,0,0,0,0,0,-1,1497,1051,0,0
280,-27,0,0,0,0,0,0,0,0,0,-1,1504,1051,0,0
287,-27,0,0,0,0,0,0,0,0,0,-1,1511,1051,0,0
294,-27,0,0,0,0,0,0,0,0,0,-1,1518,1051,0,0
301,-27,0,0,0,0,0,0,0,0,0,-1,1525,1051,0,0
308,-27,0,0,0,0,0,0,0,0,0,-1,1532,1051,0,0
315,-27,0,0,0,0,0,0,0,0,0,-1,1539,1051,0,0
322,-27,0,0,0,0,0,0,0,0,0,-1,1546,1051,0,0
329,-27,0,0,0,0,0,0,0,0,0,-1,1553,1051,0,0
336,-27,0,0,0,0,0,0,0,0,0,-1,1560,1051,0,0
343,-27,0,0,0,0,0,0,0,0,0,-1,1567,1051,0,0
350,-27,0,0,0,0,0,0,0,0,0,-1,1574,1051,0,0
357,-27,0,0,0,0,0,0,0,0,0,-1,1581,1051,0,0
364,-27,0,0,0,0,0,0,0,0,0,-1,1588,1051,0,0
371,-27,0,0,0,0,0,0,0,0,0,-1,1595,1051,0,0
378,-27,0,0,0,0,0,0,0,0,0,-1,1602,1051,0,0
385,-27,0,0,0,0,0,0,0,0,0,-1,1609,1051,0,0
392,-27,0,0,0,0,0,0,0,0,0,-1,1616,1051,0,0
399,-27,0,0,0,0,0,0,0,0,0,-1,1623,1051,0,0
406,-27,0,0,0,0,0,0,0,0,0,-1,1630,1051,0,0
413,-27,0,0,0,0,0,0,0,0,0,-1,1637,1051,0,0
420,-27,0,0,0,0,0,0,0,0,0,-1,1644,1051,0,0
427,-27,0,0,0,0,0,0,0,0,0,-1,1651,1051,0,0
434,-27,0,0,0,0,0,0,0,0,0,-1,1658,1051,0,0
441,-27,0,0,0,0,0,0,0,0,0,-1,1665,1051,0,0
448,-27,0,0,0,0,0,0,0,0,0,-1,1672,1051,0,0
455,-27,0,0,0,0,0,0,0,0,0,-1,1679,1051,0,0
462,-27,0,0,0,0,0,0,0,0,0,-1,1686,1051,0,0
469,-27,0,0,0,0,0,0,0,0,0,-1,1693,1051,0,0
476,-27,0,0,0,0,0,0,0,0,0,-1,1700,1051,0,0
483,-27,0,0,0,0,0,0,0,0,0,-1,1707,1051,0,0
490,-27,0,0,0,0,0,0,0,0,0,-1,1714,1051,0,0
497,-27,0,0,0,0,0,0,0,0,0,-1,1721,1051,0,0
504,-27,0,0,0,0,0,0,0,0,0,-1,1728,1051,0,0
511,-27,0,0,0,0,0,0,0,0,0,-1,1735,1051,0,0
518,-27,0,0,0,0,0,0,0,0,0,-1,1742,1051,0,0
525,-27,0,0,0,0,0,0,0,0,0,-1,1749,1051,0,0
532,-27,0,0,0,0,0,0,0,0,0,-1,1756,1051,0,0
539,-27,0,0,0,0,0,0,0,0,0,-1,1763,1051,0,0
546,-27,0,0,0,0,0,0,0,0,0,-1,1770,1051,0,0
553,-27,0,0,0,0,0,0,0,0,0,-1,1777,1051,0,0
560,-27,0,0,0,0,0,0,0,0,0,-1,1784,1051,0,0
567,-27,0,0,0,0,0,0,0,0,0,-1,1791,1051,0,0
574,-27,0,0,0,0,0,0,0,0,0,-1,1798,1051,0,0
581,-27,0,0,0,0,0,0,0,0,0,-1,1805,1051,0,0
588,-27,0,0,0,0,0,0,0,0,0,-1,1812,1051,0,0
595,-27,0,0,0,0,0,0,0,0,0,-1,1819,1051,0,0
602,-27,0,0,0,0,0,0,0,0,0,-1,1826,1051,0,0
609,-27,0,0,0,0,0,0,0,0,0,-1,1833,1051,0,0
616,-27,0,0,0,0,0,0,0,0,0,-1,1840,1051,0,0
623,-27,0,0,0,0,0,0,0,0,0,-1,1847,1051,0,0
630,-27,0,0,0,0,0,0,0,0,0,-1,1854,1051,0,0
637,-27,0,0,0,0,0,0,0,0,0,-1,1861,1051,0,0
644,-27,0,0,0,0,0,0,0,0,0,-1,1868,1051,0,0
651,-27,5.11768,0.663574,-0.00337588,0.00184126,0.0015338,0.00225878,-0.00379339,1.30503,0.00353147,0.038571,1875,1051,5.11771,-0.663563
658,-27,4.95142,0.734253,-0.00257022,0.0010277,0.000971729,0.00127337,-0.00281589,1.32317,0.00241627,0.0398341,1882,1051,4.95141,-0.734309
665,-27,4.88318,0.778442,-0.00197037,0.000481111,0.000607825,0.000623541,-0.0021128,1.34062,0.00165598,0.0383937,1889,1051,4.88318,-0.778419
672,-27,4.89624,0.688599,-0.00143063,0.000128394,0.000441885,0.000244929,-0.00154717,1.31294,0.00112203,0.031267,1896,1051,4.8962,-0.688566
679,-27,4.83582,0.680786,-0.00105504,-9.65875e-05,0.000420652,6.18435e-05,-0.00121347,1.2106,0.00083036,0.0296584,1903,1051,4.83582,-0.680727
686,-27,4.8717,0.572754,-0.000793717,-0.000227376,0.000464149,3.31625e-05,-0.00105426,1.0593,0.000714148,0.0403808,1910,1051,4.87173,-0.572697
693,-27,4.86084,0.399658,-0.000619795,-0.000293787,0.000536816,0.000104228,-0.00101781,0.932799,0.000715816,0.0426521,1917,1051,4.86081,-0.399599
700,-27,4.94043,0.546997,-0.000523384,-0.000353099,0.000630887,0.000198364,-0.00107485,0.852472,0.000791021,0.0392602,1924,1051,4.94049,-0.546951
707,-27,4.94006,0.694824,-0.000454071,-0.000359096,0.000682374,0.000277441,-0.00109061,0.820138,0.000835059,0.0237224,1931,1051,4.94008,-0.694767
714,-27,4.93835,0.676758,-0.000414663,-0.00033168,0.000698363,0.000326423,-0.00107277,0.815069,0.000845262,0.0160832,1938,1051,4.93831,-0.676708
721,-27,4.9314,0.749146,-0.00039019,-0.00025781,0.00073525,0.000414224,-0.00106222,0.830289,0.000879368,0.0113597,1945,1051,4.93144,-0.749099
728,-27,4.91052,0.793213,-0.00041282,-0.000165326,0.000715784,0.000437329,-0.00101547,0.870994,0.000860631,0.0129039,1952,1051,4.91049,-0.793237
735,-27,4.89282,0.817139,-0.000594403,-6.92046e-05,0.000595159,0.000318714,-0.000982321,0.993164,0.000783046,0.0160287,1959,1051,4.89284,-0.817104
742,-27,4.88171,0.798706,-0.000864475,-3.35158e-05,0.000240315,3.09781e-05,-0.000928969,1.3086,0.000629892,0.0159432,1966,1051,4.88173,-0.798728
749,-27,4.88269,0.789307,-0.000961789,0.000246535,-0.000292548,0.000313638,-0.00102889,-1.34532,0.000810949,0.0107324,1973,1051,4.88268,-0.789317
756,-27,4.89014,0.794312,-0.000987384,0.000766574,-0.000989022,0.00121143,-0.00143224,-1.14811,0.0015281,0.0104279,1980,1051,4.89019,-0.794369
763,-27,4.90869,0.774902,-0.00101306,0.00173241,-0.00192167,0.00272129,-0.00200194,-1.09554,0.00273748,0.0137824,1987,1051,4.90871,-0.774893
770,-27,4.88171,0.779419,-0.0011101,0.00286146,-0.00309751,0.00455507,-0.00280371,-1.07044,0.00428851,0.015564,1994,1051,4.88171,-0.779381
777,-27,4.85522,0.821411,-0.00114324,0.00461881,-0.00463089,0.00719173,-0.00371616,-1.06367,0.00640335,0.0153565,2001,1051,4.85527,-0.82136
784,-27,4.82483,0.82019,-0.00110655,0.00735594,-0.00667332,0.0110264,-0.00477699,-1.06794,0.00935886,0.0221772,2008,1051,4.82483,-0.820162
791,-27,4.73694,0.667358,-0.000780577,0.0116323,-0.00948299,0.0167593,-0.00590759,-1.07516,0.0135774,0.0406875,2015,1051,4.73695,-0.66735
798,-27,5.05469,0.582642,0.000122562,0.0183024,-0.0133524,0.0253653,-0.00694037,-1.08425,0.0196368,0.0474984,2022,1051,5.05473,-0.582621
805,-27,5.22607,0.440063,0,0,0,0,0,0,0,-1,2029,1051,5.22604,-0.440059
812,-27,4.68896,1.37073,0,0,0,0,0,0,0,-1,2036,1051,4.68902,-1.37078
-700,-34,1.21246,0.345825,0,0,0,0,0,0,0,-1,524,1058,1.21246,-0.34584
-693,-34,1.18579,0.117065,-0.0267468,0.036822,-0.0612192,0.0740162,-0.063941,-1.02484,0.0797204,0.0470601,531,1058,1.18579,-0.117092
-686,-34,0.400513,-0.341553,-0.0238931,0.0270197,-0.046264,0.0543685,-0.0512419,-1.03691,0.0609831,0.0459523,538,1058,0.400492,0.341523
-679,-34,-0.124573,-0.874634,0,0,0,0,0,0,0,-1,545,1058,-0.124558,0.874686
-672,-34,-0.62207,-1.48083,0,0,0,0,0,0,0,-1,552,1058,-0.622044,1.48086
-665,-34,-1.45953,0.964966,-0.0142942,0.00852401,-0.0175195,0.0180218,-0.023792,-1.07402,0.0242177,0.043574,559,1058,-1.45954,-0.964927
-658,-34,-1.32318,0.924194,-0.0112912,0.00516428,-0.0118803,0.0113877,-0.0175147,-1.08825,0.0168113,0.0453514,566,1058,-1.32316,-0.924146
-651,-34,-1.08307,0.782959,-0.00857807,0.00285538,-0.00771835,0.00674354,-0.0124662,-1.10415,0.0112536,0.029733,573,1058,-1.08305,-0.782971
-644,-34,-1.06403,0.731445,-0.00623807,0.0013718,-0.00479398,0.0036873,-0.00855357,-1.12084,0.00725103,0.0105274,580,1058,-1.064,-0.731387
-637,-34,-1.05994,0.718384,-0.00395326,0.000310416,-0.00221009,0.00124928,-0.00489212,-1.16909,0.0037479,0.01079,587,1058,-1.05993,-0.718434
-630,-34,-1.05194,0.746582,-0.00255098,-0.000678673,-8.97412e-05,-0.000674382,-0.00255527,-1.52301,0.00152912,0.0138407,594,1058,-1.05195,-0.746604
-623,-34,-1.04413,0.767334,-0.00151299,-0.00123755,0.000301896,-0.00104345,-0.0017071,0.999391,0.000993691,0.0120191,601,1058,-1.04414,-0.767374
-616,-34,-1.06213,0.768555,-0.000268376,-0.00104957,0.000107899,-0.000253747,-0.0010642,0.13476,0.000641825,0.018484,608,1058,-1.06211,-0.768545
-609,-34,-1.07703,0.759033,0.000624185,0.000261249,-7.04338e-05,0.000637375,0.00024806,-0.185118,0.000370988,0.0183594,615,1058,-1.07704,-0.759079
-602,-34,-1.06213,0.758179,0.000992912,0.000113189,-0.000488827,0.00121065,-0.000104543,-0.419038,0.000844105,0.0145005,622,1058,-1.06214,-0.758175
-595,-34,-1.04468,0.760132,0.00116158,0.000173283,-0.0003501,0.00127303,6.18298e-05,-0.308202,0.000828845,0.0115802,629,1058,-1.04466,-0.760188
-588,-34,-1.03619,0.723389,0.0013551,0.000296244,-0.000203068,0.00139271,0.000258636,-0.183128,0.000855394,0.0166172,636,1058,-1.03618,-0.723356
-581,-34,-1.04553,0.721802,0.00166774,0.000463369,-0.000192514,0.00169777,0.000433345,-0.154712,0.0010186,0.0207376,643,1058,-1.04551,-0.721745
-574,-34,-0.99823,0.790039,0.0019318,0.000685424,-8.85401e-05,0.00193806,0.000679166,-0.0705657,0.0011355,0.0338679,650,1058,-0.99821,-0.790089
-567,-34,-0.939941,0.794312,0.00213792,0.00095888,0.000110996,0.00214828,0.000948521,0.0930516,0.00124314,0.0421162,657,1058,-0.939939,-0.794347
-560,-34,-0.932251,0.795898,0.00228713,0.00127321,0.000428154,0.00244374,0.0011166,0.350662,0.00141264,0.0436822,664,1058,-0.932247,-0.795945
-553,-34,-0.979126,0.881226,0.0023831,0.00161537,0.000856864,0.00293815,0.00106032,0.574808,0.00171809,0.0428027,671,1058,-0.979122,-0.881245
-546,-34,-0.952271,0.419922,0.00239743,0.00196439,0.00141487,0.00361226,0.000749564,0.709471,0.00220127,0.0437733,678,1058,-0.952288,-0.419899
-539,-34,-1.03418,0.791504,0.00233793,0.00228231,0.00208384,0.00439414,0.000226089,0.778726,0.00285705,0.0420984,685,1058,-1.03415,-0.79145
-532,-34,-0.868164,0.857666,0.002176,0.0025378,0.00285921,0.00522182,-0.000508027,0.816991,0.00366232,0.0424441,692,1058,-0.86814,-0.857618
-525,-34,0,0,0,0,0,0,0,0,0,-1,699,1058,0,0
-518,-34,0,0,0,0,0,0,0,0,0,-1,706,1058,0,0
-511,-34,0,0,0,0,0,0,0,0,0,-1,713,1058,0,0
-504,-34,0,0,0,0,0,0,0,0,0,-1,720,1058,0,0
-497,-34,0,0,0,0,0,0,0,0,0,-1,727,1058,0,0
-490,-34,0,0,0,0,0,0,0,0,0,-1,734,1058,0,0
-483,-34,0,0,0,0,0,0,0,0,0,-1,741,1058,0,0
-476,-34,0,0,0,0,0,0,0,0,0,-1,748,1058,0,0
-469,-34,0,0,0,0,0,0,0,0,0,-1,755,1058,0,0
-462,-34,0,0,0,0,0,0,0,0,0,-1,762,1058,0,0
-455,-34,0,0,0,0,0,0,0,0,0,-1,769,1058,0,0
-448,-34,0,0,0,0,0,0,0,0,0,-1,776,1058,0,0
-441,-34,0,0,0,0,0,0,0,0,0,-1,783,1058,0,0
-434,-34,0,0,0,0,0,0,0,0,0,-1,790,1058,0,0
-427,-34,0,0,0,0,0,0,0,0,0,-1,797,1058,0,0
-420,-34,0,0,0,0,0,0,0,0,0,-1,804,1058,0,0
-413,-34,0,0,0,0,0,0,0,0,0,-1,811,1058,0,0
-406,-34,0,0,0,0,0,0,0,0,0,-1,818,1058,0,0
-399,-34,0,0,0,0,0,0,0,0,0,-1,825,1058,0,0
-392,-34,0,0,0,0,0,0,0,0,0,-1,832,1058,0,0
-385,-34,0,0,0,0,0,0,0,0,0,-1,839,1058,0,0
-378,-34,0,0,0,0,0,0,0,0,0,-1,846,1058,0,0
-371,-34,0,0,0,0,0,0,0,0,0,-1,853,1058,0,0
-364,-34,0,0,0,0,0,0,0,0,0,-1,860,1058,0,0
-357,-34,0,0,0,0,0,0,0,0,0,-1,867,1058,0,0
-350,-34,0,0,0,0,0,0,0,0,0,-1,874,1058,0,0
-343,-34,0,0,0,0,0,0,0,0,0,-1,881,1058,0,0
-336,-34,0,0,0,0,0,0,0,0,0,-1,888,1058,0,0
-329,-34,0,0,0,0,0,0,0,0,0,-1,895,1058,0,0
-322,-34,0,0,0,0,0,0,0,0,0,-1,902,1058,0,0
-315,-34,0,0,0,0,0,0,0,0,0,-1,909,1058,0,0
-308,-34,0,0,0,0,0,0,0,0,0,-1,916,1058,0,0
-301,-34,0,0,0,0,0,0,0,0,0,-1,923,1058,0,0
-294,-34,0,0,0,0,0,0,0,0,0,-1,930,1058,0,0
-287,-34,0,0,0,0,0,0,0,0,0,-1,937,1058,0,0
-280,-34,0,0,0,0,0,0,0,0,0,-1,944,1058,0,0
-273,-34,0,0,0,0,0,0,0,0,0,-1,951,1058,0,0
-266,-34,0,0,0,0,0,0,0,0,0,-1,958,1058,0,0
-259,-34,0,0,0,0,0,0,0,0,0,-1,965,1058,0,0
-252,-34,0,0,0,0,0,0,0,0,0,-1,972,1058,0,0
-245,-34,0,0,0,0,0,0,0,0,0,-1,979,1058,0,0
-238,-34,0,0,0,0,0,0,0,0,0,-1,986,1058,0,0
-231,-34,0,0,0,0,0,0,0,0,0,-1,993,1058,0,0
-224,-34,0,0,0,0,0,0,0,0,0,-1,1000,1058,0,0
-217,-34,0,0,0,0,0,0,0,0,0,-1,1007,1058,0,0
-210,-34,0,0,0,0,0,0,0,0,0,-1,1014,1058,0,0
-203,-34,0,0,0,0,0,0,0,0,0,-1,1021,1058,0,0
-196,-34,0,0,0,0,0,0,0,0,0,-1,1028,1058,0,0
-189,-34,0,0,0,0,0,0,0,0,0,-1,1035,1058,0,0
-182,-34,0,0,0,0,0,0,0,0,0,-1,1042,1058,0,0
-175,-34,0,0,0,0,0,0,0,0,0,-1,1049,1058,0,0
-168,-34,0,0,0,0,0,0,0,0,0,-1,1056,1058,0,0
-161,-34,0,0,0,0,0,0,0,0,0,-1,1063,1058,0,0
-154,-34,0,0,0,0,0,0,0,0,0,-1,1070,1058,0,0
-147,-34,0,0,0,0,0,0,0,0,0,-1,1077,1058,0,0
-140,-34,0,0,0,0,0,0,0,0,0,-1,1084,1058,0,0
-133,-34,0,0,0,0,0,0,0,0,0,-1,1091,1058,0,0
-126,-34,0,0,0,0,0,0,0,0,0,-1,1098,1058,0,0
-119,-34,0,0,0,0,0,0,0,0,0,-1,1105,1058,0,0
-112,-34,0,0,0,0,0,0,0,0,0,-1,1112,1058,0,0
-105,-34,0,0,0,0,0,0,0,0,0,-1,1119,1058,0,0
-98,-34,0,0,0,0,0,0,0,0,0,-1,1126,1058,0,0
-91,-34,0,0,0,0,0,0,0,0,0,-1,1133,1058,0,0
-84,-34,0,0,0,0,0,0,0,0,0,-1,1140,1058,0,0
-77,-34,0,0,0,0,0,0,0,0,0,-1,1147,1058,0,0
-70,-34,0,0,0,0,0,0,0,0,0,-1,1154,1058,0,0
-63,-34,0,0,0,0,0,0,0,0,0,-1,1161,1058,0,0
-56,-34,0,0,0,0,0,0,0,0,0,-1,1168,1058,0,0
-49,-34,0,0,0,0,0,0,0,0,0,-1,1175,1058,0,0
-42,-34,0,0,0,0,0,0,0,0,0,-1,1182,1058,0,0
-35,-34,0,0,0,0,0,0,0,0,0,-1,1189,1058,0,0
-28,-34,0,0,0,0,0,0,0,0,0,-1,1196,1058,0,0
-21,-34,0,0,0,0,0,0,0,0,0,-1,1203,1058,0,0
-14,-34,0,0,0,0,0,0,0,0,0,-1,1210,1058,0,0
-7,-34,0,0,0,0,0,0,0,0,0,-1,1217,1058,0,0
0,-34,0,0,0,0,0,0,0,0,0,-1,1224,1058,0,0
7,-34,0,0,0,0,0,0,0,0,0,-1,1231,1058,0,0
14,-34,0,0,0,0,0,0,0,0,0,-1,1238,1058,0,0
21,-34,0,0,0,0,0,0,0,0,0,-1,1245,1058,0,0
28,-34,0,0,0,0,0,0,0,0,0,-1,1252,1058,0,0
35,-34,0,0,0,0,0,0,0,0,0,-1,1259,1058,0,0
42,-34,0,0,0,0,0,0,0,0,0,-1,1266,1058,0,0
49,-34,0,0,0,0,0,0,0,0,0,-1,1273,1058,0,0
56,-34,0,0,0,0,0,0,0,0,0,-1,1280,1058,0,0
63,-34,0,0,0,0,0,0,0,0,0,-1,1287,1058,0,0
70,-34,0,0,0,0,0,0,0,0,0,-1,1294,1058,0,0
77,-34,0,0,0,0,0,0,0,0,0,-1,1301,1058,0,0
84,-34,0,0,0,0,0,0,0,0,0,-1,1308,1058,0,0
91,-34,0,0,0,0,0,0,0,0,0,-1,1315,1058,0,0
98,-34,0,0,0,0,0,0,0,0,0,-1,1322,1058,0,0
105,-34,0,0,0,0,0,0,0,0,0,-1,1329,1058,0,0
112,-34,0,0,0,0,0,0,0,0,0,-1,1336,1058,0,0
119,-34,0,0,0,0,0,0,0,0,0,-1,1343,1058,0,0
126,-34,0,0,0,0,0,0,0,0,0,-1,1350,1058,0,0
133,-34,0,0,0,0,0,0,0,0,0,-1,1357,1058,0,0
140,-34,0,0,0,0,0,0,0,0,0,-1,1364,1058,0,0
147,-34,0,0,0,0,0,0,0,0,0,-1,1371,1058,0,0
154,-34,0,0,0,0,0,0,0,0,0,-1,1378,1058,0,0
161,-34,0,0,0,0,0,0,0,0,0,-1,1385,1058,0,0
168,-34,0,0,0,0,0,0,0,0,0,-1,1392,1058,0,0
175,-34,0,0,0,0,0,0,0,0,0,-1,1399,1058,0,0
182,-34,0,0,0,0,0,0,0,0,0,-1,1406,1058,0,0
189,-34,0,0,0,0,0,0,0,0,0,-1,1413,1058,0,0
196,-34,0,0,0,0,0,0,0,0,0,-1,1420,1058,0,0
203,-34,0,0,0,0,0,0,0,0,0,-1,1427,1058,0,0
210,-34,0,0,0,0,0,0,0,0,0,-1,1434,1058,0,0
217,-34,0,0,0,0,0,0,0,0,0,-1,1441,1058,0,0
224,-34,0,0,0,0,0,0,0,0,0,-1,1448,1058,0,0
231,-34,0,0,0,0,0,0,0,0,0,-1,1455,1058,0,0
238,-34,0,0,0,0,0,0,0,0,0,-1,1462,1058,0,0
245,-34,0,0,0,0,0,0,0,0,0,-1,1469,1058,0,0
252,-34,0,0,0,0,0,0,0,0,0,-1,1476,1058,0,0
259,-34,0,0,0,0,0,0,0,0,0,-1,1483,1058,0,0
266,-34,0,0,0,0,0,0,0,0,0,-1,1490,1058,0,0
273,-34,0,0,0,0,0,0,0,0,0,-1,1497,1058,0,0
280,-34,0,0,0,0,0,0,0,0,0,-1,1504,1058,0,0
287,-34,0,0,0,0,0,0,0,0,0,-1,1511,1058,0,0
294,-34,0,0,0,0,0,0,0,0,0,-1,1518,1058,0,0
301,-34,0,0,0,0,0,0,0,0,0,-1,1525,1058,0,0
308,-34,0,0,0,0,0,0,0,0,0,-1,1532,1058,0,0
315,-34,0,0,0,0,0,0,0,0,0,-1,1539,1058,0,0
322,-34,0,0,0,0,0,0,0,0,0,-1,1546,1058,0,0
329,-34,0,0,0,0,0,0,0,0,0,-1,1553,1058,0,0
336,-34,0,0,0,0,0,0,0,0,0,-1,1560,1058,0,0
343,-34,0,0,0,0,0,0,0,0,0,-1,1567,1058,0,0
350,-34,0,0,0,0,0,0,0,0,0,-1,1574,1058,0,0
357,-34,0,0,0,0,0,0,0,0,0,-1,1581,1058,0,0
364,-34,0,0,0,0,0,0,0,0,0,-1,1588,1058,0,0
371,-34,0,0,0,0,0,0,0,0,0,-1,1595,1058,0,0
378,-34,0,0,0,0,0,0,0,0,0,-1,1602,1058,0,0
385,-34,0,0,0,0,0,0,0,0,0,-1,1609,1058,0,0
392,-34,0,0,0,0,0,0,0,0,0,-1,1616,1058,0,0
399,-34,0,0,0,0,0,0,0,0,0,-1,1623,1058,0,0
406,-34,0,0,0,0,0,0,0,0,0,-1,1630,1058,0,0
413,-34,0,0,0,0,0,0,0,0,0,-1,1637,1058,0,0
420,-34,0,0,0,0,0,0,0,0,0,-1,1644,1058,0,0
427,-34,0,0,0,0,0,0,0,0,0,-1,1651,1058,0,0
434,-34,0,0,0,0,0,0,0,0,0,-1,1658,1058,0,0
441,-34,0,0,0,0,0,0,0,0,0,-1,1665,1058,0,0
448,-34,0,0,0,0,0,0,0,0,0,-1,1672,1058,0,0
455,-34,0,0,0,0,0,0,0,0,0,-1,1679,1058,0,0
462,-34,0,0,0,0,0,0,0,0,0,-1,1686,1058,0,0
469,-34,0,0,0,0,0,0,0,0,0,-1,1693,1058,0,0
476,-34,0,0,0,0,0,0,0,0,0,-1,1700,1058,0,0
483,-34,0,0,0,0,0,0,0,0,0,-1,1707,1058,0,0
490,-34,0,0,0,0,0,0,0,0,0,-1,1714,1058,0,0
497,-34,0,0,0,0,0,0,0,0,0,-1,1721,1058,0,0
504,-34,0,0,0,0,0,0,0,0,0,-1,1728,1058,0,0
511,-34,0,0,0,0,0,0,0,0,0,-1,1735,1058,0,0
518,-34,0,0,0,0,0,0,0,0,0,-1,1742,1058,0,0
525,-34,0,0,0,0,0,0,0,0,0,-1,1749,1058,0,0
532,-34,0,0,0,0,0,0,0,0,0,-1,1756,1058,0,0
539,-34,0,0,0,0,0,0,0,0,0,-1,1763,1058,0,0
546,-34,0,0,0,0,0,0,0,0,0,-1,1770,1058,0,0
553,-34,0,0,0,0,0,0,0,0,0,-1,1777,1058,0,0
560,-34,0,0,0,0,0,0,0,0,0,-1,1784,1058,0,0
567,-34,0,0,0,0,0,0,0,0,0,-1,1791,1058,0,0
574,-34,0,0,0,0,0,0,0,0,0,-1,1798,1058,0,0
581,-34,0,0,0,0,0,0,0,0,0,-1,1805,1058,0,0
588,-34,0,0,0,0,0,0,0,0,0,-1,1812,1058,0,0
595,-34,0,0,0,0,0,0,0,0,0,-1,1819,1058,0,0
602,-34,0,0,0,0,0,0,0,0,0,-1,1826,1058,0,0
609,-34,0,0,0,0,0,0,0,0,0,-1,1833,1058,0,0
616,-34,0,0,0,0,0,0,0,0,0,-1,1840,1058,0,0
623,-34,0,0,0,0,0,0,0,0,0,-1,1847,1058,0,0
630,-34,0,0,0,0,0,0,0,0,0,-1,1854,1058,0,0
637,-34,0,0,0,0,0,0,0,0,0,-1,1861,1058,0,0
644,-34,0,0,0,0,0,0,0,0,0,-1,1868,1058,0,0
651,-34,5.04065,0.654907,-0.00345708,0.000707615,0.00215069,0.00161886,-0.00436833,1.17003,0.00357614,0.0391266,1875,1058,5.04071,-0.654854
658,-34,5.00085,0.733032,-0.00261431,0.000160188,0.00137169,0.000723832,-0.00317795,1.18092,0.00239663,0.0430151,1882,1058,5.0008,-0.733069
665,-34,5.07422,0.880493,-0.00197357,-0.000197399,0.000868732,0.000156848,-0.00232782,1.18361,0.00160672,0.0433311,1889,1058,5.07419,-0.880495
672,-34,4.78162,0.796265,-0.00141237,-0.000417171,0.00060655,-0.000130227,-0.00169931,1.12892,0.00109206,0.0404855,1896,1058,4.78168,-0.796229
679,-34,4.56482,0.739746,-0.0010248,-0.000542559,0.000523031,-0.000207744,-0.00135961,1.00138,0.000845708,0.0382085,1903,1058,4.56476,-0.739702
686,-34,4.64441,0.572754,-0.000758604,-0.000593057,0.000529936,-0.000139469,-0.00121219,0.86287,0.000765883,0.0426944,1910,1058,4.64444,-0.57273
693,-34,4.90076,0.397217,-0.000587321,-0.00059399,0.000584399,-6.24725e-06,-0.00117506,0.782545,0.000781302,0.0433781,1917,1058,4.90072,-0.397182
700,-34,4.95642,0.55896,-0.000505068,-0.000571044,0.000672538,0.00013529,-0.0012114,0.760893,0.000856268,0.0377696,1924,1058,4.95637,-0.55902
707,-34,4.9021,0.754395,-0.000446431,-0.000546427,0.000711079,0.000216405,-0.00120926,0.750299,0.000887153,0.0222349,1931,1058,4.90209,-0.754418
714,-34,4.92651,0.733521,-0.000414619,-0.000477732,0.000712312,0.000266835,-0.00115919,0.763262,0.000875399,0.0139076,1938,1058,4.92652,-0.733554
721,-34,4.93127,0.797119,-0.000396337,-0.000367915,0.000745513,0.000363522,-0.00112777,0.794928,0.000897897,0.014134,1945,1058,4.9313,-0.797079
728,-34,4.91882,0.813843,-0.000414624,-0.000251858,0.000736633,0.000407875,-0.00107436,0.840415,0.000884133,0.0129887,1952,1058,4.91881,-0.8138
735,-34,4.88049,0.800903,-0.000604418,-0.000137439,0.000626264,0.000297445,-0.0010393,0.963831,0.000810421,0.0140861,1959,1058,4.88046,-0.800929
742,-34,4.87292,0.781006,-0.000878656,-3.60335e-05,0.000262286,3.89387e-05,-0.000953628,1.29238,0.000649121,0.0142114,1966,1058,4.87298,-0.781033
749,-34,4.90381,0.791382,-0.00100623,0.000322954,-0.000314461,0.000393595,-0.00107687,-1.34982,0.000878993,0.0118163,1973,1058,4.90381,-0.791334
756,-34,4.91833,0.797852,-0.00102814,0.00102998,-0.001081,0.00149341,-0.00149157,-1.16579,0.00172338,0.00931441,1980,1058,4.91836,-0.797804
763,-34,4.90247,0.78186,-0.00102858,0.00231957,-0.00209125,0.00332428,-0.00203328,-1.12292,0.00312298,0.0111531,1987,1058,4.90253,-0.781873
770,-34,4.86072,0.784058,-0.00111344,0.00382599,-0.00334638,0.00551533,-0.00280278,-1.1033,0.00488684,0.0168435,1994,1058,4.86069,-0.784
777,-34,4.84705,0.831787,-0.00113848,0.00616298,-0.00498954,0.00869475,-0.00367025,-1.10123,0.00733277,0.0172295,2001,1058,4.84706,-0.831821
784,-34,4.80225,0.898926,-0.00108566,0.00977696,-0.00717398,0.0133437,-0.00465242,-1.10941,0.0107864,0.0313519,2008,1058,4.80225,-0.898898
791,-34,4.76196,0.930054,-0.000740782,0.0153562,-0.0101533,0.0202641,-0.00564868,-1.12053,0.015734,0.0447129,2015,1058,4.76192,-0.930041
798,-34,5.08105,0.810547,0.000177387,0.0239171,-0.0142151,0.0305664,-0.00647199,-1.13326,0.0228426,0.0477857,2022,1058,5.081,-0.81057
805,-34,5.18958,0.70166,0,0,0,0,0,0,0,-1,2029,1058,5.18953,-0.701657
812,-34,4.401,0.921631,0,0,0,0,0,0,0,-1,2036,1058,4.40095,-0.921685
-700,-41,2.52136,1.13123,0,0,0,0,0,0,0,-1,524,1065,2.52134,-1.13123
-693,-41,1.67401,-0.074707,-0.00424963,0.0355651,-0.0596038,0.0784981,-0.0471827,-0.946571,0.0733088,0.0448299,531,1065,1.67404,0.0746763
-686,-41,1.03711,-0.908081,-0.00566302,0.0265892,-0.0450867,0.058347,-0.0374208,-0.957143,0.0557298,0.0429063,538,1065,1.03708,0.908099
-679,-41,0.702332,-1.40454,0,0,0,0,0,0,0,-1,545,1065,0.702305,1.4045
-672,-41,-1.60889,1.17224,0,0,0,0,0,0,0,-1,552,1065,-1.6089,-1.17227
-665,-41,-1.19031,0.585938,0,0,0,0,0,0,0,-1,559,1065,-1.19033,-0.58594
-658,-41,-1.13452,0.628296,-0.00501984,0.00592956,-0.0115946,0.013277,-0.0123673,-1.00597,0.0148088,0.0429604,566,1065,-1.13455,-0.628348
-651,-41,-1.0799,0.731934,-0.00410068,0.00359985,-0.00752934,0.00820627,-0.00870709,-1.02175,0.00976636,0.0278365,573,1065,-1.07988,-0.731878
-644,-41,-1.07153,0.714233,-0.00315221,0.00203514,-0.00467377,0.00478668,-0.00590375,-1.03871,0.00618334,0.00997479,580,1065,-1.07153,-0.714213
-637,-41,-1.06519,0.714478,-0.00190082,0.000862369,-0.00219507,0.00207445,-0.0031129,-1.06628,0.00301486,0.0103508,587,1065,-1.06517,-0.714516
-630,-41,-1.0553,0.73999,-0.00138327,-0.000250811,-1.4902e-06,-0.000250809,-0.00138327,-1.56948,0.000850986,0.0113216,594,1065,-1.05532,-0.739949
-623,-41,-1.04388,0.736694,-0.00109374,-0.000731495,0.000217027,-0.00062994,-0.00119529,1.13313,0.000690438,0.0114739,601,1065,-1.04385,-0.736647
-616,-41,-1.03076,0.77063,-0.000224978,-0.000756175,5.60343e-05,-0.000219131,-0.000762021,0.103962,0.000452996,0.0154797,608,1065,-1.03078,-0.770683
-609,-41,-1.0542,0.785522,0.000589391,0.00035968,-0.000125689,0.000644798,0.000304273,-0.415203,0.00037247,0.0197267,615,1065,-1.05417,-0.785582
-602,-41,-1.06042,0.747437,0.00100505,0.000191339,-0.000524444,0.00126195,-6.55624e-05,-0.455498,0.000863985,0.0119422,622,1065,-1.06045,-0.747387
-595,-41,-1.04675,0.756226,0.00120534,0.000239881,-0.000417842,0.00136106,8.41598e-05,-0.356735,0.000880664,0.0123336,629,1065,-1.04677,-0.756203
-588,-41,-1.04315,0.740356,0.00140934,0.000394405,-0.00029133,0.00148702,0.000316726,-0.260574,0.000904448,0.0202064,636,1065,-1.04315,-0.740313
-581,-41,-1.03735,0.700928,0.00173472,0.000611756,-0.00029246,0.00180632,0.000540155,-0.240102,0.00107059,0.0331447,643,1065,-1.03738,-0.700949
-574,-41,-0.98822,0.7052,0.00202718,0.000875579,-0.000208114,0.00206363,0.000839123,-0.173413,0.00119835,0.0358913,650,1065,-0.988209,-0.705218
-567,-41,-0.961792,0.643921,0.00226455,0.00120039,-2.07548e-05,0.00226495,0.00119998,-0.0194935,0.00130844,0.0412135,657,1065,-0.961782,-0.643943
-560,-41,-0.944702,0.575317,0.00244899,0.00157892,0.000294189,0.00253912,0.00148879,0.297301,0.00147323,0.0427819,664,1065,-0.944673,-0.575308
-553,-41,-1.06134,0.703979,0.00257802,0.00200253,0.000737477,0.0030819,0.00149865,0.599395,0.00177956,0.0434863,671,1065,-1.06132,-0.70395
-546,-41,-1.07782,0.839966,0.00262055,0.00245574,0.00133482,0.0038755,0.00120079,0.754568,0.00229083,0.0419347,678,1065,-1.07783,-0.839931
-539,-41,-1.08191,0.894287,0.00257987,0.00290858,0.00207626,0.00482697,0.000661471,0.824896,0.00302172,0.0403923,685,1065,-1.0819,-0.894237
-532,-41,-1.0069,0.957275,0.00239483,0.00333965,0.00296228,0.00586695,-0.000132478,0.86447,0.0039562,0.0386163,692,1065,-1.00687,-0.957254
-525,-41,0,0,0,0,0,0,0,0,0,-1,699,1065,0,0
-518,-41,0,0,0,0,0,0,0,0,0,-1,706,1065,0,0
-511,-41,0,0,0,0,0,0,0,0,0,-1,713,1065,0,0
-504,-41,0,0,0,0,0,0,0,0,0,-1,720,1065,0,0
-497,-41,0,0,0,0,0,0,0,0,0,-1,727,1065,0,0
-490,-41,0,0,0,0,0,0,0,0,0,-1,734,1065,0,0
-483,-41,0,0,0,0,0,0,0,0,0,-1,741,1065,0,0
-476,-41,0,0,0,0,0,0,0,0,0,-1,748,1065,0,0
-469,-41,0,0,0,0,0,0,0,0,0,-1,755,1065,0,0
-462,-41,0,0,0,0,0,0,0,0,0,-1,762,1065,0,0
-455,-41,0,0,0,0,0,0,0,0,0,-1,769,1065,0,0
-448,-41,0,0,0,0,0,0,0,0,0,-1,776,1065,0,0
-441,-41,0,0,0,0,0,0,0,0,0,-1,783,1065,0,0
-434,-41,0,0,0,0,0,0,0,0,0,-1,790,1065,0,0
-427,-41,0,0,0,0,0,0,0,0,0,-1,797,1065,0,0
-420,-41,0,0,0,0,0,0,0,0,0,-1,804,1065,0,0
-413,-41,0,0,0,0,0,0,0,0,0,-1,811,1065,0,0
-406,-41,0,0,0,0,0,0,0,0,0,-1,818,1065,0,0
-399,-41,0,0,0,0,0,0,0,0,0,-1,825,1065,0,0
-392,-41,0,0,0,0,0,0,0,0,0,-1,832,1065,0,0
-385,-41,0,0,0,0,0,0,0,0,0,-1,839,1065,0,0
-378,-41,0,0,0,0,0,0,0,0,0,-1,846,1065,0,0
-371,-41,0,0,0,0,0,0,0,0,0,-1,853,1065,0,0
-364,-41,0,0,0,0,0,0,0,0,0,-1,860,1065,0,0
-357,-41,0,0,0,0,0,0,0,0,0,-1,867,1065,0,0
-350,-41,0,0,0,0,0,0,0,0,0,-1,874,1065,0,0
-343,-41,0,0,0,0,0,0,0,0,0,-1,881,1065,0,0
-336,-41,0,0,0,0,0,0,0,0,0,-1,888,1065,0,0
-329,-41,0,0,0,0,0,0,0,0,0,-1,895,1065,0,0
-322,-41,0,0,0,0,0,0,0,0,0,-1,902,1065,0,0
-315,-41,0,0,0,0,0,0,0,0,0,-1,909,1065,0,0
-308,-41,0,0,0,0,0,0,0,0,0,-1,916,1065,0,0
-301,-41,0,0,0,0,0,0,0,0,0,-1,923,1065,0,0
-294,-41,0,0,0,0,0,0,0,0,0,-1,930,1065,0,0
-287,-41,0,0,0,0,0,0,0,0,0,-1,937,1065,0,0
-280,-41,0,0,0,0,0,0,0,0,0,-1,944,1065,0,0
-273,-41,0,0,0,0,0,0,0,0,0,-1,951,1065,0,0
-266,-41,0,0,0,0,0,0,0,0,0,-1,958,1065,0,0
-259,-41,0,0,0,0,0,0,0,0,0,-1,965,1065,0,0
-252,-41,0,0,0,0,0,0,0,0,0,-1,972,1065,0,0
-245,-41,0,0,0,0,0,0,0,0,0,-1,979,1065,0,0
-238,-41,0,0,0,0,0,0,0,0,0,-1,986,1065,0,0
-231,-41,0,0,0,0,0,0,0,0,0,-1,993,1065,0,0
-224,-41,0,0,0,0,0,0,0,0,0,-1,1000,1065,0,0
-217,-41,0,0,0,0,0,0,0,0,0,-1,1007,1065,0,0
-210,-41,0,0,0,0,0,0,0,0,0,-1,1014,1065,0,0
-203,-41,0,0,0,0,0,0,0,0,0,-1,1021,1065,0,0
-196,-41,0,0,0,0,0,0,0,0,0,-1,1028,1065,0,0
-189,-41,0,0,0,0,0,0,0,0,0,-1,1035,1065,0,0
-182,-41,0,0,0,0,0,0,0,0,0,-1,1042,1065,0,0
-175,-41,0,0,0,0,0,0,0,0,0,-1,1049,1065,0,0
-168,-41,0,0,0,0,0,0,0,0,0,-1,1056,1065,0,0
-161,-41,0,0,0,0,0,0,0,0,0,-1,1063,1065,0,0
-154,-41,0,0,0,0,0,0,0,0,0,-1,1070,1065,0,0
-147,-41,0,0,0,0,0,0,0,0,0,-1,1077,1065,0,0
-140,-41,0,0,0,0,0,0,0,0,0,-1,1084,1065,0,0
-133,-41,0,0,0,0,0,0,0,0,0,-1,1091,1065,0,0
-126,-41,0,0,0,0,0,0,0,0,0,-1,1098,1065,0,0
-119,-41,0,0,0,0,0,0,0,0,0,-1,1105,1065,0,0
-112,-41,0,0,0,0,0,0,0,0,0,-1,1112,1065,0,0
-105,-41,0,0,0,0,0,0,0,0,0,-1,1119,1065,0,0
-98,-41,0,0,0,0,0,0,0,0,0,-1,1126,1065,0,0
-91,-41,0,0,0,0,0,0,0,0,0,-1,1133,1065,0,0
-84,-41,0,0,0,0,0,0,0,0,0,-1,1140,1065,0,0
-77,-41,0,0,0,0,0,0,0,0,0,-1,1147,1065,0,0
-70,-41,0,0,0,0,0,0,0,0,0,-1,1154,1065,0,0
-63,-41,0,0,0,0,0,0,0,0,0,-1,1161,1065,0,0
-56,-41,0,0,0,0,0,0,0,0,0,-1,1168,1065,0,0
-49,-41,0,0,0,0,0,0,0,0,0,-1,1175,1065,0,0
-42,-41,0,0,0,0,0,0,0,0,0,-1,1182,1065,0,0
-35,-41,0,0,0,0,0,0,0,0,0,-1,1189,1065,0,0
-28,-41,0,0,0,0,0,0,0,0,0,-1,1196,1065,0,0
-21,-41,0,0,0,0,0,0,0,0,0,-1,1203,1065,0,0
-14,-41,0,0,0,0,0,0,0,0,0,-1,1210,1065,0,0
-7,-41,0,0,0,0,0,0,0,0,0,-1,1217,1065,0,0
0,-41,0,0,0,0,0,0,0,0,0,-1,1224,1065,0,0
7,-41,0,0,0,0,0,0,0,0,0,-1,1231,1065,0,0
14,-41,0,0,0,0,0,0,0,0,0,-1,1238,1065,0,0
21,-41,0,0,0,0,0,0,0,0,0,-1,1245,1065,0,0
28,-41,0,0,0,0,0,0,0,0,0,-1,1252,1065,0,0
35,-41,0,0,0,0,0,0,0,0,0,-1,1259,1065,0,0
42,-41,0,0,0,0,0,0,0,0,0,-1,1266,1065,0,0
49,-41,0,0,0,0,0,0,0,0,0,-1,1273,1065,0,0
56,-41,0,0,0,0,0,0,0,0,0,-1,1280,1065,0,0
63,-41,0,0,0,0,0,0,0,0,0,-1,1287,1065,0,0
70,-41,0,0,0,0,0,0,0,0,0,-1,1294,1065,0,0
77,-41,0,0,0,0,0,0,0,0,0,-1,1301,1065,0,0
84,-41,0,0,0,0,0,0,0,0,0,-1,1308,1065,0,0
91,-41,0,0,0,0,0,0,0,0,0,-1,1315,1065,0,0
98,-41,0,0,0,0,0,0,0,0,0,-1,1322,1065,0,0
105,-41,0,0,0,0,0,0,0,0,0,-1,1329,1065,0,0
112,-41,0,0,0,0,0,0,0,0,0,-1,1336,1065,0,0
119,-41,0,0,0,0,0,0,0,0,0,-1,1343,1065,0,0
126,-41,0,0,0,0,0,0,0,0,0,-1,1350,1065,0,0
133,-41,0,0,0,0,0,0,0,0,0,-1,1357,1065,0,0
140,-41,0,0,0,0,0,0,0,0,0,-1,1364,1065,0,0
147,-41,0,0,0,0,0,0,0,0,0,-1,1371,1065,0,0
154,-41,0,0,0,0,0,0,0,0,0,-1,1378,1065,0,0
161,-41,0,0,0,0,0,0,0,0,0,-1,1385,1065,0,0
168,-41,0,0,0,0,0,0,0,0,0,-1,1392,1065,0,0
175,-41,0,0,0,0,0,0,0,0,0,-1,1399,1065,0,0
182,-41,0,0,0,0,0,0,0,0,0,-1,1406,1065,0,0
189,-41,0,0,0,0,0,0,0,0,0,-1,1413,1065,0,0
196,-41,0,0,0,0,0,0,0,0,0,-1,1420,1065,0,0
203,-41,0,0,0,0,0,0,0,0,0,-1,1427,1065,0,0
210,-41,0,0,0,0,0,0,0,0,0,-1,1434,1065,0,0
217,-41,0,0,0,0,0,0,0,0,0,-1,1441,1065,0,0
224,-41,0,0,0,0,0,0,0,0,0,-1,1448,1065,0,0
231,-41,0,0,0,0,0,0,0,0,0,-1,1455,1065,0,0
238,-41,0,0,0,0,0,0,0,0,0,-1,1462,1065,0,0
245,-41,0,0,0,0,0,0,0,0,0,-1,1469,1065,0,0
252,-41,0,0,0,0,0,0,0,0,0,-1,1476,1065,0,0
259,-41,0,0,0,0,0,0,0,0,0,-1,1483,1065,0,0
266,-41,0,0,0,0,0,0,0,0,0,-1,1490,1065,0,0
273,-41,0,0,0,0,0,0,0,0,0,-1,1497,1065,0,0
280,-41,0,0,0,0,0,0,0,0,0,-1,1504,1065,0,0
287,-41,0,0,0,0,0,0,0,0,0,-1,1511,1065,0,0
294,-41,0,0,0,0,0,0,0,0,0,-1,1518,1065,0,0
301,-41,0,0,0,0,0,0,0,0,0,-1,1525,1065,0,0
308,-41,0,0,0,0,0,0,0,0,0,-1,1532,1065,0,0
315,-41,0,0,0,0,0,0,0,0,0,-1,1539,1065,0,0
322,-41,0,0,0,0,0,0,0,0,0,-1,1546,1065,0,0
329,-41,0,0,0,0,0,0,0,0,0,-1,1553,1065,0,0
336,-41,0,0,0,0,0,0,0,0,0,-1,1560,1065,0,0
343,-41,0,0,0,0,0,0,0,0,0,-1,1567,1065,0,0
350,-41,0,0,0,0,0,0,0,0,0,-1,1574,1065,0,0
357,-41,0,0,0,0,0,0,0,0,0,-1,1581,1065,0,0
364,-41,0,0,0,0,0,0,0,0,0,-1,1588,1065,0,0
371,-41,0,0,0,0,0,0,0,0,0,-1,1595,1065,0,0
378,-41,0,0,0,0,0,0,0,0,0,-1,1602,1065,0,0
385,-41,0,0,0,0,0,0,0,0,0,-1,1609,1065,0,0
392,-41,0,0,0,0,0,0,0,0,0,-1,1616,1065,0,0
399,-41,0,0,0,0,0,0,0,0,0,-1,1623,1065,0,0
406,-41,0,0,0,0,0,0,0,0,0,-1,1630,1065,0,0
413,-41,0,0,0,0,0,0,0,0,0,-1,1637,1065,0,0
420,-41,0,0,0,0,0,0,0,0,0,-1,1644,1065,0,0
427,-41,0,0,0,0,0,0,0,0,0,-1,1651,1065,0,0
434,-41,0,0,0,0,0,0,0,0,0,-1,1658,1065,0,0
441,-41,0,0,0,0,0,0,0,0,0,-1,1665,1065,0,0
448,-41,0,0,0,0,0,0,0,0,0,-1,1672,1065,0,0
455,-41,0,0,0,0,0,0,0,0,0,-1,1679,1065,0,0
462,-41,0,0,0,0,0,0,0,0,0,-1,1686,1065,0,0
469,-41,0,0,0,0,0,0,0,0,0,-1,1693,1065,0,0
476,-41,0,0,0,0,0,0,0,0,0,-1,1700,1065,0,0
483,-41,0,0,0,0,0,0,0,0,0,-1,1707,1065,0,0
490,-41,0,0,0,0,0,0,0,0,0,-1,1714,1065,0,0
497,-41,0,0,0,0,0,0,0,0,0,-1,1721,1065,0,0
504,-41,0,0,0,0,0,0,0,0,0,-1,1728,1065,0,0
511,-41,0,0,0,0,0,0,0,0,0,-1,1735,1065,0,0
518,-41,0,0,0,0,0,0,0,0,0,-1,1742,1065,0,0
525,-41,0,0,0,0,0,0,0,0,0,-1,1749,1065,0,0
532,-41,0,0,0,0,0,0,0,0,0,-1,1756,1065,0,0
539,-41,0,0,0,0,0,0,0,0,0,-1,1763,1065,0,0
546,-41,0,0,0,0,0,0,0,0,0,-1,1770,1065,0,0
553,-41,0,0,0,0,0,0,0,0,0,-1,1777,1065,0,0
560,-41,0,0,0,0,0,0,0,0,0,-1,1784,1065,0,0
567,-41,0,0,0,0,0,0,0,0,0,-1,1791,1065,0,0
574,-41,0,0,0,0,0,0,0,0,0,-1,1798,1065,0,0
581,-41,0,0,0,0,0,0,0,0,0,-1,1805,1065,0,0
588,-41,0,0,0,0,0,0,0,0,0,-1,1812,1065,0,0
595,-41,0,0,0,0,0,0,0,0,0,-1,1819,1065,0,0
602,-41,0,0,0,0,0,0,0,0,0,-1,1826,1065,0,0
609,-41,0,0,0,0,0,0,0,0,0,-1,1833,1065,0,0
616,-41,0,0,0,0,0,0,0,0,0,-1,1840,1065,0,0
623,-41,0,0,0,0,0,0,0,0,0,-1,1847,1065,0,0
630,-41,0,0,0,0,0,0,0,0,0,-1,1854,1065,0,0
637,-41,0,0,0,0,0,0,0,0,0,-1,1861,1065,0,0
644,-41,0,0,0,0,0,0,0,0,0,-1,1868,1065,0,0
651,-41,4.98413,0.639893,-0.00309813,-0.000618886,0.00277955,0.00118494,-0.00490195,0.995151,0.00372629,0.0365038,1875,1065,4.98407,-0.639898
658,-41,4.99573,0.567261,-0.00233257,-0.000737982,0.00173446,0.000373657,-0.00344421,1.00083,0.00243029,0.0423826,1882,1065,4.99568,-0.567217
665,-41,5.02417,0.857788,-0.00174451,-0.000813956,0.00106432,-0.000117661,-0.00244081,0.991461,0.00158944,0.0443641,1889,1065,5.02415,-0.857798
672,-41,4.95435,0.79187,-0.00124157,-0.000854426,0.000694882,-0.000326657,-0.00176933,0.921237,0.00108715,0.0440365,1896,1065,4.95438,-0.791885
679,-41,4.70544,0.85083,-0.000907763,-0.000862948,0.000545091,-0.000339805,-0.00143091,0.805941,0.000863258,0.0429104,1903,1065,4.70544,-0.850888
686,-41,4.80225,0.832886,-0.0006855,-0.000834959,0.000517063,-0.000237794,-0.00128266,0.713632,0.000787898,0.0433656,1910,1065,4.80223,-0.832859
693,-41,4.96179,0.653442,-0.000548639,-0.00078359,0.000557704,-9.61724e-05,-0.00123606,0.681595,0.000793924,0.0433756,1917,1065,4.96175,-0.653407
700,-41,5.05176,0.6698,-0.000498342,-0.000692351,0.00063866,5.06377e-05,-0.00124133,0.71003,0.000844939,0.0347495,1924,1065,5.05181,-0.6698
707,-41,4.91516,0.698364,-0.00046289,-0.00064718,0.000670464,0.000121732,-0.0012318,0.717109,0.000864639,0.0214935,1931,1065,4.91521,-0.698404
714,-41,4.92322,0.711548,-0.000448523,-0.000556528,0.000671835,0.000171477,-0.00117653,0.745294,0.000847315,0.0112423,1938,1065,4.92316,-0.71152
721,-41,4.92834,0.77002,-0.000441745,-0.00043842,0.000716004,0.000275924,-0.00115609,0.786559,0.000877286,0.0177809,1945,1065,4.9284,-0.770001
728,-41,4.9209,0.8125,-0.000455705,-0.000317056,0.000725451,0.000342375,-0.00111514,0.833034,0.000880037,0.0160917,1952,1065,4.92092,-0.81244
735,-41,4.89307,0.807251,-0.000651218,-0.000192791,0.000629147,0.000247596,-0.00109161,0.960087,0.000822782,0.0154462,1959,1065,4.89312,-0.807262
742,-41,4.89136,0.788574,-0.000902763,-3.2614e-05,0.000267107,4.28367e-05,-0.000978214,1.2955,0.000666881,0.0130044,1966,1065,4.89135,-0.788609
749,-41,4.9209,0.803955,-0.00102717,0.000403301,-0.000332095,0.000476639,-0.00110051,-1.35345,0.000934013,0.0125785,1973,1065,4.92092,-0.803978
756,-41,4.91724,0.809204,-0.00103215,0.00130877,-0.00114798,0.00177777,-0.00150115,-1.18294,0.00189533,0.0118531,1980,1065,4.91725,-0.809193
763,-41,4.90417,0.7948,-0.000987219,0.0029408,-0.00221888,0.00394003,-0.00198644,-1.14767,0.00348307,0.00962445,1987,1065,4.90421,-0.794798
770,-41,4.8717,0.798096,-0.00102427,0.00483857,-0.00353063,0.00649611,-0.00268181,-1.13187,0.00544928,0.0115882,1994,1065,4.87169,-0.7981
777,-41,4.87109,0.79895,-0.000992053,0.00777027,-0.005252,0.0102286,-0.00345034,-1.13302,0.00821435,0.0135808,2001,1065,4.87107,-0.798897
784,-41,4.8717,0.835693,-0.000862308,0.0122711,-0.00753888,0.0157022,-0.00429342,-1.14369,0.0121547,0.0247738,2008,1065,4.87172,-0.835732
791,-41,5.08191,1.05652,-0.000422867,0.0191471,-0.0106386,0.0238164,-0.00509213,-1.15721,0.0178192,0.0447075,2015,1065,5.08186,-1.0565
798,-41,4.65332,-0.0566406,0.000595858,0.0295594,-0.0148325,0.0358074,-0.00565218,-1.17212,0.0259616,0.0465693,2022,1065,4.65336,0.056685
805,-41,4.51526,-0.429688,0,0,0,0,0,0,0,-1,2029,1065,4.51526,0.429629
812,-41,4.23828,0.415649,0,0,0,0,0,0,0,-1,2036,1065,4.23826,-0.415592
-700,-48,2.83417,1.08423,0,0,0,0,0,0,0,-1,524,1072,2.83414,-1.0842
-693,-48,2.06354,-0.136963,0,0,0,0,0,0,0,-1,531,1072,2.06354,0.13699
-686,-48,2.07788,-1.13342,0,0,0,0,0,0,0,-1,538,1072,2.07789,1.13346
-679,-48,-1.22479,1.83118,0,0,0,0,0,0,0,-1,545,1072,-1.22481,-1.83119
-672,-48,-1.06354,1.37805,0,0,0,0,0,0,0,-1,552,1072,-1.06355,-1.37801
-665,-48,-0.884094,0.888184,0.000952436,0.0112507,-0.016428,0.0233177,-0.0111145,-0.937267,0.0202914,0.0452198,559,1072,-0.884104,-0.888168
-658,-48,-0.988159,0.595337,-0.00023499,0.00772925,-0.0110248,0.015469,-0.00797477,-0.958706,0.0137639,0.0465689,566,1072,-0.988189,-0.595338
-651,-48,-1.04944,0.689087,-0.000837521,0.00511507,-0.0070619,0.00980224,-0.00552469,-0.984832,0.00896315,0.0282267,573,1072,-1.04946,-0.689143
-644,-48,-1.06018,0.713379,-0.0010313,0.00325192,-0.00430581,0.00591931,-0.00369869,-1.01617,0.00560207,0.0104931,580,1072,-1.06015,-0.713363
-637,-48,-1.03784,0.708496,-0.000703267,0.00182343,-0.00198788,0.00291544,-0.00179528,-1.06846,0.00274525,0.0116999,587,1072,-1.03787,-0.708466
-630,-48,-1.0144,0.729736,-0.000956615,0.000487829,0.000192878,0.000513141,-0.000981927,1.44031,0.000877208,0.0150347,594,1072,-1.01442,-0.729788
-623,-48,-1.03778,0.735229,-0.00109817,-9.35591e-05,0.000271279,-2.49853e-05,-0.00116675,1.3232,0.000769637,0.010491,601,1072,-1.03781,-0.735264
-616,-48,-1.02899,0.744751,-0.000386926,-0.000348171,4.47281e-05,-0.000318804,-0.000416294,0.989807,0.000251414,0.00953287,608,1072,-1.02902,-0.744758
-609,-48,-1.0304,0.736084,0.000416837,0.000532427,-0.00017362,0.000657619,0.000291645,-0.946071,0.000380484,0.0107126,615,1072,-1.03041,-0.736094
-602,-48,-1.03845,0.73877,0.000921605,0.000368791,-0.000589905,0.00129665,-6.25371e-06,-0.566307,0.000866525,0.0112172,622,1072,-1.03847,-0.738742
-595,-48,-1.01581,0.759766,0.00116162,0.000431177,-0.000533206,0.00144269,0.000150105,-0.485121,0.000915868,0.0138369,629,1072,-1.01582,-0.759806
-588,-48,-1.02222,0.760986,0.0013817,0.00060931,-0.000437178,0.00157883,0.000412177,-0.42362,0.000945596,0.0261114,636,1072,-1.02221,-0.760958
-581,-48,-1.01227,0.75708,0.00173306,0.000865226,-0.00046715,0.00193672,0.000661559,-0.411133,0.00113672,0.0402066,643,1072,-1.01225,-0.757086
-574,-48,-0.922302,0.715332,0.00205635,0.0011539,-0.000411965,0.00221612,0.000994128,-0.369974,0.00128173,0.0404279,650,1072,-0.922311,-0.71539
-567,-48,-0.848083,0.589966,0.00233621,0.00149342,-0.000249001,0.00240428,0.00142535,-0.266852,0.00139606,0.0401877,657,1072,-0.848078,-0.589916
-560,-48,-0.932007,0.703491,0.00257937,0.00187418,4.65819e-05,0.00258243,0.00187111,0.0656751,0.00154027,0.0410973,664,1072,-0.932023,-0.703461
-553,-48,-0.90332,0.753784,0.00278497,0.00228703,0.00047873,0.0030756,0.0019964,0.545612,0.00180183,0.0428525,671,1072,-0.90331,-0.753726
-546,-48,-0.889099,0.757202,0.00292471,0.00271717,0.00107614,0.00390208,0.00173981,0.737334,0.00225726,0.0408547,678,1072,-0.889074,-0.757214
-539,-48,-0.96344,0.844604,0.0030099,0.00313489,0.00183282,0.00490628,0.00123851,0.80244,0.00294611,0.0402068,685,1072,-0.963439,-0.844568
-532,-48,-0.99646,0.891724,0.00297105,0.00352428,0.00273742,0.00599903,0.000496304,0.835752,0.00384461,0.0397678,692,1072,-0.996444,-0.891768
-525,-48,0,0,0,0,0,0,0,0,0,-1,699,1072,0,0
-518,-48,0,0,0,0,0,0,0,0,0,-1,706,1072,0,0
-511,-48,0,0,0,0,0,0,0,0,0,-1,713,1072,0,0
-504,-48,0,0,0,0,0,0,0,0,0,-1,720,1072,0,0
-497,-48,0,0,0,0,0,0,0,0,0,-1,727,1072,0,0
-490,-48,0,0,0,0,0,0,0,0,0,-1,734,1072,0,0
-483,-48,0,0,0,0,0,0,0,0,0,-1,741,1072,0,0
-476,-48,0,0,0,0,0,0,0,0,0,-1,748,1072,0,0
-469,-48,0,0,0,0,0,0,0,0,0,-1,755,1072,0,0
-462,-48,0,0,0,0,0,0,0,0,0,-1,762,1072,0,0
-455,-48,0,0,0,0,0,0,0,0,0,-1,769,1072,0,0
-448,-48,0,0,0,0,0,0,0,0,0,-1,776,1072,0,0
-441,-48,0,0,0,0,0,0,0,0,0,-1,783,1072,0,0
-434,-48,0,0,0,0,0,0,0,0,0,-1,790,1072,0,0
-427,-48,0,0,0,0,0,0,0,0,0,-1,797,1072,0,0
-420,-48,0,0,0,0,0,0,0,0,0,-1,804,1072,0,0
-413,-48,0,0,0,0,0,0,0,0,0,-1,811,1072,0,0
-406,-48,0,0,0,0,0,0,0,0,0,-1,818,1072,0,0
-399,-48,0,0,0,0,0,0,0,0,0,-1,825,1072,0,0
-392,-48,0,0,0,0,0,0,0,0,0,-1,832,1072,0,0
-385,-48,0,0,0,0,0,0,0,0,0,-1,839,1072,0,0
-378,-48,0,0,0,0,0,0,0,0,0,-1,846,1072,0,0
-371,-48,0,0,0,0,0,0,0,0,0,-1,853,1072,0,0
-364,-48,0,0,0,0,0,0,0,0,0,-1,860,1072,0,0
-357,-48,0,0,0,0,0,0,0,0,0,-1,867,1072,0,0
-350,-48,0,0,0,0,0,0,0,0,0,-1,874,1072,0,0
-343,-48,0,0,0,0,0,0,0,0,0,-1,881,1072,0,0
-336,-48,0,0,0,0,0,0,0,0,0,-1,888,1072,0,0
-329,-48,0,0,0,0,0,0,0,0,0,-1,895,1072,0,0
-322,-48,0,0,0,0,0,0,0,0,0,-1,902,1072,0,0
-315,-48,0,0,0,0,0,0,0,0,0,-1,909,1072,0,0
-308,-48,0,0,0,0,0,0,0,0,0,-1,916,1072,0,0
-301,-48,0,0,0,0,0,0,0,0,0,-1,923,1072,0,0
-294,-48,0,0,0,0,0,0,0,0,0,-1,930,1072,0,0
-287,-48,0,0,0,0,0,0,0,0,0,-1,937,1072,0,0
-280,-48,0,0,0,0,0,0,0,0,0,-1,944,1072,0,0
-273,-48,0,0,0,0,0,0,0,0,0,-1,951,1072,0,0
-266,-48,0,0,0,0,0,0,0,0,0,-1,958,1072,0,0
-259,-48,0,0,0,0,0,0,0,0,0,-1,965,1072,0,0
-252,-48,0,0,0,0,0,0,0,0,0,-1,972,1072,0,0
-245,-48,0,0,0,0,0,0,0,0,0,-1,979,1072,0,0
-238,-48,0,0,0,0,0,0,0,0,0,-1,986,1072,0,0
-231,-48,0,0,0,0,0,0,0,0,0,-1,993,1072,0,0
-224,-48,0,0,0,0,0,0,0,0,0,-1,1000,1072,0,0
-217,-48,0,0,0,0,0,0,0,0,0,-1,1007,1072,0,0
-210,-48,0,0,0,0,0,0,0,0,0,-1,1014,1072,0,0
-203,-48,0,0,0,0,0,0,0,0,0,-1,1021,1072,0,0
-196,-48,0,0,0,0,0,0,0,0,0,-1,1028,1072,0,0
-189,-48,0,0,0,0,0,0,0,0,0,-1,1035,1072,0,0
-182,-48,0,0,0,0,0,0,0,0,0,-1,1042,1072,0,0
-175,-48,0,0,0,0,0,0,0,0,0,-1,1049,1072,0,0
-168,-48,0,0,0,0,0,0,0,0,0,-1,1056,1072,0,0
-161,-48,0,0,0,0,0,0,0,0,0,-1,1063,1072,0,0
-154,-48,0,0,0,0,0,0,0,0,0,-1,1070,1072,0,0
-147,-48,0,0,0,0,0,0,0,0,0,-1,1077,1072,0,0
-140,-48,0,0,0,0,0,0,0,0,0,-1,1084,1072,0,0
-133,-48,0,0,0,0,0,0,0,0,0,-1,1091,1072,0,0
-126,-48,0,0,0,0,0,0,0,0,0,-1,1098,1072,0,0
-119,-48,0,0,0,0,0,0,0,0,0,-1,1105,1072,0,0
-112,-48,0,0,0,0,0,0,0,0,0,-1,1112,1072,0,0
-105,-48,0,0,0,0,0,0,0,0,0,-1,1119,1072,0,0
-98,-48,0,0,0,0,0,0,0,0,0,-1,1126,1072,0,0
-91,-48,0,0,0,0,0,0,0,0,0,-1,1133,1072,0,0
-84,-48,0,0,0,0,0,0,0,0,0,-1,1140,1072,0,0
-77,-48,0,0,0,0,0,0,0,0,0,-1,1147,1072,0,0
-70,-48,0,0,0,0,0,0,0,0,0,-1,1154,1072,0,0
-63,-48,0,0,0,0,0,0,0,0,0,-1,1161,1072,0,0
-56,-48,0,0,0,0,0,0,0,0,0,-1,1168,1072,0,0
-49,-48,0,0,0,0,0,0,0,0,0,-1,1175,1072,0,0
-42,-48,0,0,0,0,0,0,0,0,0,-1,1182,1072,0,0
-35,-48,0,0,0,0,0,0,0,0,0,-1,1189,1072,0,0
-28,-48,0,0,0,0,0,0,0,0,0,-1,1196,1072,0,0
-21,-48,0,0,0,0,0,0,0,0,0,-1,1203,1072,0,0
-14,-48,0,0,0,0,0,0,0,0,0,-1,1210,1072,0,0
-7,-48,0,0,0,0,0,0,0,0,0,-1,1217,1072,0,0
0,-48,0,0,0,0,0,0,0,0,0,-1,1224,1072,0,0
7,-48,0,0,0,0,0,0,0,0,0,-1,1231,1072,0,0
14,-48,0,0,0,0,0,0,0,0,0,-1,1238,1072,0,0
21,-48,0,0,0,0,0,0,0,0,0,-1,1245,1072,0,0
28,-48,0,0,0,0,0,0,0,0,0,-1,1252,1072,0,0
35,-48,0,0,0,0,0,0,0,0,0,-1,1259,1072,0,0
42,-48,0,0,0,0,0,0,0,0,0,-1,1266,1072,0,0
49,-48,0,0,0,0,0,0,0,0,0,-1,1273,1072,0,0
56,-48,0,0,0,0,0,0,0,0,0,-1,1280,1072,0,0
63,-48,0,0,0,0,0,0,0,0,0,-1,1287,1072,0,0
70,-48,0,0,0,0,0,0,0,0,0,-1,1294,1072,0,0
77,-48,0,0,0,0,0,0,0,0,0,-1,1301,1072,0,0
84,-48,0,0,0,0,0,0,0,0,0,-1,1308,1072,0,0
91,-48,0,0,0,0,0,0,0,0,0,-1,1315,1072,0,0
98,-48,0,0,0,0,0,0,0,0,0,-1,1322,1072,0,0
105,-48,0,0,0,0,0,0,0,0,0,-1,1329,1072,0,0
112,-48,0,0,0,0,0,0,0,0,0,-1,1336,1072,0,0
119,-48,0,0,0,0,0,0,0,0,0,-1,1343,1072,0,0
126,-48,0,0,0,0,0,0,0,0,0,-1,1350,1072,0,0
133,-48,0,0,0,0,0,0,0,0,0,-1,1357,1072,0,0
140,-48,0,0,0,0,0,0,0,0,0,-1,1364,1072,0,0
147,-48,0,0,0,0,0,0,0,0,0,-1,1371,1072,0,0
154,-48,0,0,0,0,0,0,0,0,0,-1,1378,1072,0,0
161,-48,0,0,0,0,0,0,0,0,0,-1,1385,1072,0,0
168,-48,0,0,0,0,0,0,0,0,0,-1,1392,1072,0,0
175,-48,0,0,0,0,0,0,0,0,0,-1,1399,1072,0,0
182,-48,0,0,0,0,0,0,0,0,0,-1,1406,1072,0,0
189,-48,0,0,0,0,0,0,0,0,0,-1,1413,1072,0,0
196,-48,0,0,0,0,0,0,0,0,0,-1,1420,1072,0,0
203,-48,0,0,0,0,0,0,0,0,0,-1,1427,1072,0,0
210,-48,0,0,0,0,0,0,0,0,0,-1,1434,1072,0,0
217,-48,0,0,0,0,0,0,0,0,0,-1,1441,1072,0,0
224,-48,0,0,0,0,0,0,0,0,0,-1,1448,1072,0,0
231,-48,0,0,0,0,0,0,0,0,0,-1,1455,1072,0,0
238,-48,0,0,0,0,0,0,0,0,0,-1,1462,1072,0,0
245,-48,0,0,0,0,0,0,0,0,0,-1,1469,1072,0,0
252,-48,0,0,0,0,0,0,0,0,0,-1,1476,1072,0,0
259,-48,0,0,0,0,0,0,0,0,0,-1,1483,1072,0,0
266,-48,0,0,0,0,0,0,0,0,0,-1,1490,1072,0,0
273,-48,0,0,0,0,0,0,0,0,0,-1,1497,1072,0,0
280,-48,0,0,0,0,0,0,0,0,0,-1,1504,1072,0,0
287,-48,0,0,0,0,0,0,0,0,0,-1,1511,1072,0,0
294,-48,0,0,0,0,0,0,0,0,0,-1,1518,1072,0,0
301,-48,0,0,0,0,0,0,0,0,0,-1,1525,1072,0,0
308,-48,0,0,0,0,0,0,0,0,0,-1,1532,1072,0,0
315,-48,0,0,0,0,0,0,0,0,0,-1,1539,1072,0,0
322,-48,0,0,0,0,0,0,0,0,0,-1,1546,1072,0,0
329,-48,0,0,0,0,0,0,0,0,0,-1,1553,1072,0,0
336,-48,0,0,0,0,0,0,0,0,0,-1,1560,1072,0,0
343,-48,0,0,0,0,0,0,0,0,0,-1,1567,1072,0,0
350,-48,0,0,0,0,0,0,0,0,0,-1,1574,1072,0,0
357,-48,0,0,0,0,0,0,0,0,0,-1,1581,1072,0,0
364,-48,0,0,0,0,0,0,0,0,0,-1,1588,1072,0,0
371,-48,0,0,0,0,0,0,0,0,0,-1,1595,1072,0,0
378,-48,0,0,0,0,0,0,0,0,0,-1,1602,1072,0,0
385,-48,0,0,0,0,0,0,0,0,0,-1,1609,1072,0,0
392,-48,0,0,0,0,0,0,0,0,0,-1,1616,1072,0,0
399,-48,0,0,0,0,0,0,0,0,0,-1,1623,1072,0,0
406,-48,0,0,0,0,0,0,0,0,0,-1,1630,1072,0,0
413,-48,0,0,0,0,0,0,0,0,0,-1,1637,1072,0,0
420,-48,0,0,0,0,0,0,0,0,0,-1,1644,1072,0,0
427,-48,0,0,0,0,0,0,0,0,0,-1,1651,1072,0,0
434,-48,0,0,0,0,0,0,0,0,0,-1,1658,1072,0,0
441,-48,0,0,0,0,0,0,0,0,0,-1,1665,1072,0,0
448,-48,0,0,0,0,0,0,0,0,0,-1,1672,1072,0,0
455,-48,0,0,0,0,0,0,0,0,0,-1,1679,1072,0,0
462,-48,0,0,0,0,0,0,0,0,0,-1,1686,1072,0,0
469,-48,0,0,0,0,0,0,0,0,0,-1,1693,1072,0,0
476,-48,0,0,0,0,0,0,0,0,0,-1,1700,1072,0,0
483,-48,0,0,0,0,0,0,0,0,0,-1,1707,1072,0,0
490,-48,0,0,0,0,0,0,0,0,0,-1,1714,1072,0,0
497,-48,0,0,0,0,0,0,0,0,0,-1,1721,1072,0,0
504,-48,0,0,0,0,0,0,0,0,0,-1,1728,1072,0,0
511,-48,0,0,0,0,0,0,0,0,0,-1,1735,1072,0,0
518,-48,0,0,0,0,0,0,0,0,0,-1,1742,1072,0,0
525,-48,0,0,0,0,0,0,0,0,0,-1,1749,1072,0,0
532,-48,0,0,0,0,0,0,0,0,0,-1,1756,1072,0,0
539,-48,0,0,0,0,0,0,0,0,0,-1,1763,1072,0,0
546,-48,0,0,0,0,0,0,0,0,0,-1,1770,1072,0,0
553,-48,0,0,0,0,0,0,0,0,0,-1,1777,1072,0,0
560,-48,0,0,0,0,0,0,0,0,0,-1,1784,1072,0,0
567,-48,0,0,0,0,0,0,0,0,0,-1,1791,1072,0,0
574,-48,0,0,0,0,0,0,0,0,0,-1,1798,1072,0,0
581,-48,0,0,0,0,0,0,0,0,0,-1,1805,1072,0,0
588,-48,0,0,0,0,0,0,0,0,0,-1,1812,1072,0,0
595,-48,0,0,0,0,0,0,0,0,0,-1,1819,1072,0,0
602,-48,0,0,0,0,0,0,0,0,0,-1,1826,1072,0,0
609,-48,0,0,0,0,0,0,0,0,0,-1,1833,1072,0,0
616,-48,0,0,0,0,0,0,0,0,0,-1,1840,1072,0,0
623,-48,0,0,0,0,0,0,0,0,0,-1,1847,1072,0,0
630,-48,0,0,0,0,0,0,0,0,0,-1,1854,1072,0,0
637,-48,0,0,0,0,0,0,0,0,0,-1,1861,1072,0,0
644,-48,0,0,0,0,0,0,0,0,0,-1,1868,1072,0,0
651,-48,4.98975,0.622925,-0.00213173,-0.00138096,0.00296337,0.00123071,-0.00474339,0.8484,0.00364248,0.0329978,1875,1072,4.98972,-0.622967
658,-48,4.99036,0.560181,-0.00162239,-0.0011657,0.00183548,0.000455583,-0.00324367,0.847283,0.00232921,0.0389878,1882,1072,4.99036,-0.560197
665,-48,4.84692,0.786499,-0.00122222,-0.00103392,0.00111902,-5.09352e-06,-0.00225105,0.827366,0.001499,0.045488,1889,1072,4.84698,-0.786461
672,-48,4.79321,0.729614,-0.000878014,-0.000956752,0.000723935,-0.000192379,-0.00164239,0.758234,0.00103677,0.0429543,1896,1072,4.79317,-0.72963
679,-48,4.97546,0.740845,-0.00067351,-0.000903236,0.000557283,-0.000219376,-0.00135737,0.683765,0.000841376,0.0406969,1903,1072,4.97544,-0.740857
686,-48,5.05396,0.857544,0,0,0,0,0,0,0,-1,1910,1072,5.05393,-0.857507
693,-48,5.1051,0.87085,0,0,0,0,0,0,0,-1,1917,1072,5.10512,-0.870845
700,-48,4.95654,0.668945,-0.000499379,-0.000673596,0.000645541,6.49046e-05,-0.00123788,0.718334,0.000847717,0.0316564,1924,1072,4.95655,-0.668899
707,-48,4.92529,0.687378,-0.000502949,-0.00064686,0.000671175,0.000100117,-0.00124993,0.731998,0.000868582,0.0212566,1931,1072,4.92523,-0.687421
714,-48,4.91565,0.767456,-0.0005178,-0.000563256,0.000667881,0.000127739,-0.0012088,0.76839,0.000851643,0.0149127,1938,1072,4.9157,-0.767403
721,-48,4.92554,0.80249,-0.000529783,-0.000457041,0.000722134,0.000229638,-0.00121646,0.81056,0.000897368,0.0177841,1945,1072,4.92554,-0.802445
728,-48,4.8905,0.826294,-0.00052684,-0.000353132,0.00073837,0.000303475,-0.00118345,0.843944,0.000907203,0.0184241,1952,1072,4.89044,-0.826245
735,-48,4.90308,0.832642,-0.000693212,-0.000233401,0.000636717,0.000213646,-0.00114026,0.958654,0.000840489,0.0165424,1959,1072,4.90306,-0.832621
742,-48,4.89917,0.805054,-0.000911144,-1.99299e-05,0.000268973,5.49552e-05,-0.000986029,1.29926,0.000676416,0.0125243,1966,1072,4.89913,-0.805076
749,-48,4.91138,0.787354,-0.00101498,0.000495881,-0.000337827,0.000567978,-0.00108707,-1.36054,0.000971085,0.0118754,1973,1072,4.91143,-0.787368
756,-48,4.90613,0.792358,-0.000955922,0.00160029,-0.00122223,0.00209063,-0.00144626,-1.18927,0.00205329,0.0115071,1980,1072,4.90614,-0.792399
763,-48,4.90466,0.791748,-0.000826703,0.00357216,-0.0023587,0.00459778,-0.00185233,-1.16063,0.00383477,0.0108955,1987,1072,4.9047,-0.791767
770,-48,4.92529,0.783813,-0.000765376,0.00584115,-0.00373734,0.0075258,-0.00245003,-1.14731,0.00600292,0.0116262,1994,1072,4.92532,-0.783839
777,-48,4.87854,0.774292,-0.000612516,0.00931029,-0.00554853,0.0117921,-0.00309434,-1.15019,0.00907053,0.0108549,2001,1072,4.87854,-0.77433
784,-48,4.84351,0.750854,-0.000333029,0.014573,-0.00795298,0.0180194,-0.00377942,-1.16188,0.0134509,0.0228407,2008,1072,4.84353,-0.75082
791,-48,4.67102,0.378418,0.000287521,0.0225043,-0.0111912,0.0271642,-0.00437236,-1.17624,0.0197291,0.0404318,2015,1072,4.67108,-0.378416
798,-48,4.3927,-0.134399,0.00150682,0.0343337,-0.0155323,0.040518,-0.0046774,-1.19188,0.0286984,0.0459203,2022,1072,4.39268,0.134444
805,-48,4.19482,-0.484741,0,0,0,0,0,0,0,-1,2029,1072,4.19484,0.484693
812,-48,4.08545,-0.827393,0,0,0,0,0,0,0,-1,2036,1072,4.08544,0.827447
-700,-55,-0.116455,0.268921,0,0,0,0,0,0,0,-1,524,1079,-0.11646,-0.268978
-693,-55,2.8653,-0.623047,0,0,0,0,0,0,0,-1,531,1079,2.86528,0.623086
-686,-55,2.85999,-1.66943,0.0253848,0.0303747,-0.0412704,0.0692255,-0.013466,-0.815589,0.0512323,0.0455349,538,1079,2.85999,1.66941
-679,-55,2.70734,-2.71082,0.0179731,0.0235555,-0.0301438,0.0510371,-0.00950848,-0.831565,0.0375972,0.0481202,545,1079,2.70732,2.71086
-672,-55,-0.526917,0.775391,0,0,0,0,0,0,0,-1,552,1079,-0.526924,-0.775384
-665,-55,-0.679321,0.699707,0.00763672,0.0131266,-0.0145317,0.0251703,-0.00440696,-0.878746,0.0184257,0.0493204,559,1079,-0.679347,-0.699654
-658,-55,-0.855164,0.622803,0.00440139,0.00939762,-0.00944837,0.0166725,-0.00287353,-0.914639,0.0121863,0.0468333,566,1079,-0.855153,-0.622828
-651,-55,-1.03461,0.672974,0.00219535,0.00653224,-0.00580411,0.0105597,-0.00183216,-0.964172,0.00772333,0.0317397,573,1079,-1.03461,-0.672964
-644,-55,-1.03876,0.708862,0.000820769,0.00440169,-0.00334479,0.00640508,-0.00118263,-1.03114,0.00471398,0.0127393,580,1079,-1.03876,-0.708819
-637,-55,-1.01263,0.696899,0.000212333,0.00273448,-0.00135818,0.00332677,-0.000379957,-1.15957,0.00235474,0.0115144,587,1079,-1.01264,-0.696879
-630,-55,-1.00781,0.719238,-0.000806819,0.00115072,0.000642281,0.00134264,-0.000998739,1.28043,0.00135665,0.0139651,594,1079,-1.00783,-0.719196
-623,-55,-1.03094,0.740845,-0.00136346,0.000537443,0.000484975,0.000654024,-0.00148004,1.33489,0.0012625,0.0132031,601,1079,-1.03095,-0.740788
-616,-55,-1.01117,0.73584,-0.000723513,2.89627e-05,0.000137195,5.31964e-05,-0.000747747,1.39596,0.000517143,0.0123196,608,1079,-1.01119,-0.735797
-609,-55,-1.00629,0.737427,0.000174036,0.000631851,-0.000194538,0.00070335,0.000102537,-1.21859,0.000438733,0.0122269,615,1079,-1.00627,-0.737405
-602,-55,-1.0199,0.754272,0.000836334,0.000448666,-0.000670803,0.00134075,-5.57466e-05,-0.64475,0.000912981,0.0123309,622,1079,-1.01989,-0.754299
-595,-55,-1.00043,0.762817,0.0011503,0.000495166,-0.000686814,0.00158366,6.1803e-05,-0.562884,0.00103579,0.0147198,629,1079,-1.00044,-0.762783
-588,-55,-1.00403,0.746216,0.00141994,0.000667096,-0.000642705,0.00178834,0.000298693,-0.520486,0.00110619,0.0261886,636,1079,-1.00405,-0.746194
-581,-55,-0.996765,0.77832,0.00182976,0.000915498,-0.000714749,0.00222106,0.000524197,-0.500895,0.00134058,0.0417762,643,1079,-0.996757,-0.778355
-574,-55,-0.950439,0.929199,0.00222694,0.00116376,-0.000698752,0.00257333,0.000817374,-0.460218,0.0015183,0.0423233,650,1079,-0.950447,-0.929215
-567,-55,-0.873779,0.916504,0.00259736,0.00145864,-0.000569124,0.00283303,0.00122297,-0.392596,0.00164073,0.0398663,657,1079,-0.873793,-0.916447
-560,-55,-0.941895,0.790771,0.00295621,0.00177132,-0.000303778,0.00302955,0.00169797,-0.236899,0.00175337,0.0389913,664,1079,-0.941867,-0.790738
-553,-55,-0.862915,0.725098,0.00330565,0.0020861,9.93682e-05,0.00331369,0.00207805,0.0807692,0.00193366,0.0392464,671,1079,-0.862906,-0.725054
-546,-55,-0.86676,0.725464,0.00361947,0.00237927,0.000667471,0.00391044,0.00208831,0.411086,0.00225944,0.037661,678,1079,-0.866753,-0.725406
-539,-55,-0.986145,0.724487,0.00391659,0.00260714,0.00138768,0.00479625,0.00172748,0.564975,0.00280498,0.0398194,685,1079,-0.986144,-0.72445
-532,-55,-0.950745,0.686279,0.00412082,0.00272966,0.00221963,0.0057513,0.00109918,0.633557,0.0035254,0.0404907,692,1079,-0.950737,-0.686226
-525,-55,0,0,0,0,0,0,0,0,0,-1,699,1079,0,0
-518,-55,0,0,0,0,0,0,0,0,0,-1,706,1079,0,0
-511,-55,0,0,0,0,0,0,0,0,0,-1,713,1079,0,0
-504,-55,0,0,0,0,0,0,0,0,0,-1,720,1079,0,0
-497,-55,0,0,0,0,0,0,0,0,0,-1,727,1079,0,0
-490,-55,0,0,0,0,0,0,0,0,0,-1,734,1079,0,0
-483,-55,0,0,0,0,0,0,0,0,0,-1,741,1079,0,0
-476,-55,0,0,0,0,0,0,0,0,0,-1,748,1079,0,0
-469,-55,0,0,0,0,0,0,0,0,0,-1,755,1079,0,0
-462,-55,0,0,0,0,0,0,0,0,0,-1,762,1079,0,0
-455,-55,0,0,0,0,0,0,0,0,0,-1,769,1079,0,0
-448,-55,0,0,0,0,0,0,0,0,0,-1,776,1079,0,0
-441,-55,0,0,0,0,0,0,0,0,0,-1,783,1079,0,0
-434,-55,0,0,0,0,0,0,0,0,0,-1,790,1079,0,0
-427,-55,0,0,0,0,0,0,0,0,0,-1,797,1079,0,0
-420,-55,0,0,0,0,0,0,0,0,0,-1,804,1079,0,0
-413,-55,0,0,0,0,0,0,0,0,0,-1,811,1079,0,0
-406,-55,0,0,0,0,0,0,0,0,0,-1,818,1079,0,0
-399,-55,0,0,0,0,0,0,0,0,0,-1,825,1079,0,0
-392,-55,0,0,0,0,0,0,0,0,0,-1,832,1079,0,0
-385,-55,0,0,0,0,0,0,0,0,0,-1,839,1079,0,0
-378,-55,0,0,0,0,0,0,0,0,0,-1,846,1079,0,0
-371,-55,0,0,0,0,0,0,0,0,0,-1,853,1079,0,0
-364,-55,0,0,0,0,0,0,0,0,0,-1,860,1079,0,0
-357,-55,0,0,0,0,0,0,0,0,0,-1,867,1079,0,0
-350,-55,0,0,0,0,0,0,0,0,0,-1,874,1079,0,0
-343,-55,0,0,0,0,0,0,0,0,0,-1,881,1079,0,0
-336,-55,0,0,0,0,0,0,0,0,0,-1,888,1079,0,0
-329,-55,0,0,0,0,0,0,0,0,0,-1,895,1079,0,0
-322,-55,0,0,0,0,0,0,0,0,0,-1,902,1079,0,0
-315,-55,0,0,0,0,0,0,0,0,0,-1,909,1079,0,0
-308,-55,0,0,0,0,0,0,0,0,0,-1,916,1079,0,0
-301,-55,0,0,0,0,0,0,0,0,0,-1,923,1079,0,0
-294,-55,0,0,0,0,0,0,0,0,0,-1,930,1079,0,0
-287,-55,0,0,0,0,0,0,0,0,0,-1,937,1079,0,0
-280,-55,0,0,0,0,0,0,0,0,0,-1,944,1079,0,0
-273,-55,0,0,0,0,0,0,0,0,0,-1,951,1079,0,0
-266,-55,0,0,0,0,0,0,0,0,0,-1,958,1079,0,0
-259,-55,0,0,0,0,0,0,0,0,0,-1,965,1079,0,0
-252,-55,0,0,0,0,0,0,0,0,0,-1,972,1079,0,0
-245,-55,0,0,0,0,0,0,0,0,0,-1,979,1079,0,0
-238,-55,0,0,0,0,0,0,0,0,0,-1,986,1079,0,0
-231,-55,0,0,0,0,0,0,0,0,0,-1,993,1079,0,0
-224,-55,0,0,0,0,0,0,0,0,0,-1,1000,1079,0,0
-217,-55,0,0,0,0,0,0,0,0,0,-1,1007,1079,0,0
-210,-55,0,0,0,0,0,0,0,0,0,-1,1014,1079,0,0
-203,-55,0,0,0,0,0,0,0,0,0,-1,1021,1079,0,0
-196,-55,0,0,0,0,0,0,0,0,0,-1,1028,1079,0,0
-189,-55,0,0,0,0,0,0,0,0,0,-1,1035,1079,0,0
-182,-55,0,0,0,0,0,0,0,0,0,-1,1042,1079,0,0
-175,-55,0,0,0,0,0,0,0,0,0,-1,1049,1079,0,0
-168,-55,0,0,0,0,0,0,0,0,0,-1,1056,1079,0,0
-161,-55,0,0,0,0,0,0,0,0,0,-1,1063,1079,0,0
-154,-55,0,0,0,0,0,0,0,0,0,-1,1070,1079,0,0
-147,-55,0,0,0,0,0,0,0,0,0,-1,1077,1079,0,0
-140,-55,0,0,0,0,0,0,0,0,0,-1,1084,1079,0,0
-133,-55,0,0,0,0,0,0,0,0,0,-1,1091,1079,0,0
-126,-55,0,0,0,0,0,0,0,0,0,-1,1098,1079,0,0
-119,-55,0,0,0,0,0,0,0,0,0,-1,1105,1079,0,0
-112,-55,0,0,0,0,0,0,0,0,0,-1,1112,1079,0,0
-105,-55,0,0,0,0,0,0,0,0,0,-1,1119,1079,0,0
-98,-55,0,0,0,0,0,0,0,0,0,-1,1126,1079,0,0
-91,-55,0,0,0,0,0,0,0,0,0,-1,1133,1079,0,0
-84,-55,0,0,0,0,0,0,0,0,0,-1,1140,1079,0,0
-77,-55,0,0,0,0,0,0,0,0,0,-1,1147,1079,0,0
-70,-55,0,0,0,0,0,0,0,0,0,-1,1154,1079,0,0
-63,-55,0,0,0,0,0,0,0,0,0,-1,1161,1079,0,0
-56,-55,0,0,0,0,0,0,0,0,0,-1,1168,1079,0,0
-49,-55,0,0,0,0,0,0,0,0,0,-1,1175,1079,0,0
-42,-55,0,0,0,0,0,0,0,0,0,-1,1182,1079,0,0
-35,-55,0,0,0,0,0,0,0,0,0,-1,1189,1079,0,0
-28,-55,0,0,0,0,0,0,0,0,0,-1,1196,1079,0,0
-21,-55,0,0,0,0,0,0,0,0,0,-1,1203,1079,0,0
-14,-55,0,0,0,0,0,0,0,0,0,-1,1210,1079,0,0
-7,-55,0,0,0,0,0,0,0,0,0,-1,1217,1079,0,0
0,-55,0,0,0,0,0,0,0,0,0,-1,1224,1079,0,0
7,-55,0,0,0,0,0,0,0,0,0,-1,1231,1079,0,0
14,-55,0,0,0,0,0,0,0,0,0,-1,1238,1079,0,0
21,-55,0,0,0,0,0,0,0,0,0,-1,1245,1079,0,0
28,-55,0,0,0,0,0,0,0,0,0,-1,1252,1079,0,0
35,-55,0,0,0,0,0,0,0,0,0,-1,1259,1079,0,0
42,-55,0,0,0,0,0,0,0,0,0,-1,1266,1079,0,0
49,-55,0,0,0,0,0,0,0,0,0,-1,1273,1079,0,0
56,-55,0,0,0,0,0,0,0,0,0,-1,1280,1079,0,0
63,-55,0,0,0,0,0,0,0,0,0,-1,1287,1079,0,0
70,-55,0,0,0,0,0,0,0,0,0,-1,1294,1079,0,0
77,-55,0,0,0,0,0,0,0,0,0,-1,1301,1079,0,0
84,-55,0,0,0,0,0,0,0,0,0,-1,1308,1079,0,0
91,-55,0,0,0,0,0,0,0,0,0,-1,1315,1079,0,0
98,-55,0,0,0,0,0,0,0,0,0,-1,1322,1079,0,0
105,-55,0,0,0,0,0,0,0,0,0,-1,1329,1079,0,0
112,-55,0,0,0,0,0,0,0,0,0,-1,1336,1079,0,0
119,-55,0,0,0,0,0,0,0,0,0,-1,1343,1079,0,0
126,-55,0,0,0,0,0,0,0,0,0,-1,1350,1079,0,0
133,-55,0,0,0,0,0,0,0,0,0,-1,1357,1079,0,0
140,-55,0,0,0,0,0,0,0,0,0,-1,1364,1079,0,0
147,-55,0,0,0,0,0,0,0,0,0,-1,1371,1079,0,0
154,-55,0,0,0,0,0,0,0,0,0,-1,1378,1079,0,0
161,-55,0,0,0,0,0,0,0,0,0,-1,1385,1079,0,0
168,-55,0,0,0,0,0,0,0,0,0,-1,1392,1079,0,0
175,-55,0,0,0,0,0,0,0,0,0,-1,1399,1079,0,0
182,-55,0,0,0,0,0,0,0,0,0,-1,1406,1079,0,0
189,-55,0,0,0,0,0,0,0,0,0,-1,1413,1079,0,0
196,-55,0,0,0,0,0,0,0,0,0,-1,1420,1079,0,0
203,-55,0,0,0,0,0,0,0,0,0,-1,1427,1079,0,0
210,-55,0,0,0,0,0,0,0,0,0,-1,1434,1079,0,0
217,-55,0,0,0,0,0,0,0,0,0,-1,1441,1079,0,0
224,-55,0,0,0,0,0,0,0,0,0,-1,1448,1079,0,0
231,-55,0,0,0,0,0,0,0,0,0,-1,1455,1079,0,0
238,-55,0,0,0,0,0,0,0,0,0,-1,1462,1079,0,0
245,-55,0,0,0,0,0,0,0,0,0,-1,1469,1079,0,0
252,-55,0,0,0,0,0,0,0,0,0,-1,1476,1079,0,0
259,-55,0,0,0,0,0,0,0,0,0,-1,1483,1079,0,0
266,-55,0,0,0,0,0,0,0,0,0,-1,1490,1079,0,0
273,-55,0,0,0,0,0,0,0,0,0,-1,1497,1079,0,0
280,-55,0,0,0,0,0,0,0,0,0,-1,1504,1079,0,0
287,-55,0,0,0,0,0,0,0,0,0,-1,1511,1079,0,0
294,-55,0,0,0,0,0,0,0,0,0,-1,1518,1079,0,0
301,-55,0,0,0,0,0,0,0,0,0,-1,1525,1079,0,0
308,-55,0,0,0,0,0,0,0,0,0,-1,1532,1079,0,0
315,-55,0,0,0,0,0,0,0,0,0,-1,1539,1079,0,0
322,-55,0,0,0,0,0,0,0,0,0,-1,1546,1079,0,0
329,-55,0,0,0,0,0,0,0,0,0,-1,1553,1079,0,0
336,-55,0,0,0,0,0,0,0,0,0,-1,1560,1079,0,0
343,-55,0,0,0,0,0,0,0,0,0,-1,1567,1079,0,0
350,-55,0,0,0,0,0,0,0,0,0,-1,1574,1079,0,0
357,-55,0,0,0,0,0,0,0,0,0,-1,1581,1079,0,0
364,-55,0,0,0,0,0,0,0,0,0,-1,1588,1079,0,0
371,-55,0,0,0,0,0,0,0,0,0,-1,1595,1079,0,0
378,-55,0,0,0,0,0,0,0,0,0,-1,1602,1079,0,0
385,-55,0,0,0,0,0,0,0,0,0,-1,1609,1079,0,0
392,-55,0,0,0,0,0,0,0,0,0,-1,1616,1079,0,0
399,-55,0,0,0,0,0,0,0,0,0,-1,1623,1079,0,0
406,-55,0,0,0,0,0,0,0,0,0,-1,1630,1079,0,0
413,-55,0,0,0,0,0,0,0,0,0,-1,1637,1079,0,0
420,-55,0,0,0,0,0,0,0,0,0,-1,1644,1079,0,0
427,-55,0,0,0,0,0,0,0,0,0,-1,1651,1079,0,0
434,-55,0,0,0,0,0,0,0,0,0,-1,1658,1079,0,0
441,-55,0,0,0,0,0,0,0,0,0,-1,1665,1079,0,0
448,-55,0,0,0,0,0,0,0,0,0,-1,1672,1079,0,0
455,-55,0,0,0,0,0,0,0,0,0,-1,1679,1079,0,0
462,-55,0,0,0,0,0,0,0,0,0,-1,1686,1079,0,0
469,-55,0,0,0,0,0,0,0,0,0,-1,1693,1079,0,0
476,-55,0,0,0,0,0,0,0,0,0,-1,1700,1079,0,0
483,-55,0,0,0,0,0,0,0,0,0,-1,1707,1079,0,0
490,-55,0,0,0,0,0,0,0,0,0,-1,1714,1079,0,0
497,-55,0,0,0,0,0,0,0,0,0,-1,1721,1079,0,0
504,-55,0,0,0,0,0,0,0,0,0,-1,1728,1079,0,0
511,-55,0,0,0,0,0,0,0,0,0,-1,1735,1079,0,0
518,-55,0,0,0,0,0,0,0,0,0,-1,1742,1079,0,0
525,-55,0,0,0,0,0,0,0,0,0,-1,1749,1079,0,0
532,-55,0,0,0,0,0,0,0,0,0,-1,1756,1079,0,0
539,-55,0,0,0,0,0,0,0,0,0,-1,1763,1079,0,0
546,-55,0,0,0,0,0,0,0,0,0,-1,1770,1079,0,0
553,-55,0,0,0,0,0,0,0,0,0,-1,1777,1079,0,0
560,-55,0,0,0,0,0,0,0,0,0,-1,1784,1079,0,0
567,-55,0,0,0,0,0,0,0,0,0,-1,1791,1079,0,0
574,-55,0,0,0,0,0,0,0,0,0,-1,1798,1079,0,0
581,-55,0,0,0,0,0,0,0,0,0,-1,1805,1079,0,0
588,-55,0,0,0,0,0,0,0,0,0,-1,1812,1079,0,0
595,-55,0,0,0,0,0,0,0,0,0,-1,1819,1079,0,0
602,-55,0,0,0,0,0,0,0,0,0,-1,1826,1079,0,0
609,-55,0,0,0,0,0,0,0,0,0,-1,1833,1079,0,0
616,-55,0,0,0,0,0,0,0,0,0,-1,1840,1079,0,0
623,-55,0,0,0,0,0,0,0,0,0,-1,1847,1079,0,0
630,-55,0,0,0,0,0,0,0,0,0,-1,1854,1079,0,0
637,-55,0,0,0,0,0,0,0,0,0,-1,1861,1079,0,0
644,-55,0,0,0,0,0,0,0,0,0,-1,1868,1079,0,0
651,-55,5.03125,0.674194,-0.00103586,-0.00141497,0.00315846,0.00193874,-0.00438956,0.755427,0.00374386,0.035324,1875,1079,5.03128,-0.674179
658,-55,5.03198,0.750977,-0.000827415,-0.00116488,0.00195446,0.000965587,-0.00295788,0.74234,0.00236055,0.0347373,1882,1079,5.03194,-0.75099
665,-55,4.95605,0.76355,-0.000648559,-0.00101906,0.00119102,0.000371534,-0.00203915,0.708247,0.00149871,0.0404932,1889,1079,4.95611,-0.763577
672,-55,4.9624,0.819824,-0.000488604,-0.00094574,0.000770027,8.60614e-05,-0.00152041,0.641124,0.00104347,0.0393368,1896,1079,4.96244,-0.819772
679,-55,4.98035,0.821533,-0.000426844,-0.000903821,0.000584066,-3.44522e-05,-0.00129621,0.591567,0.00085289,0.0360889,1903,1079,4.98035,-0.821473
686,-55,4.94189,0.717407,-0.000405518,-0.000861648,0.000538086,-4.91601e-05,-0.00121801,0.584952,0.000796123,0.0372319,1910,1079,4.94189,-0.717351
693,-55,4.93042,0.685303,-0.000418111,-0.000816884,0.000574399,-9.47661e-06,-0.00122552,0.618344,0.000813872,0.0379892,1917,1079,4.93045,-0.68533
700,-55,4.93811,0.729614,-0.000506275,-0.000700372,0.000661342,6.51007e-05,-0.00127175,0.712546,0.000870344,0.0336412,1924,1079,4.93816,-0.729647
707,-55,4.93787,0.767944,-0.000552946,-0.000686712,0.000677268,6.07333e-05,-0.00130039,0.736181,0.000887864,0.0216291,1931,1079,4.93789,-0.767949
714,-55,4.93286,0.820801,-0.000600575,-0.000608655,0.000666179,6.15758e-05,-0.00127081,0.782366,0.000868457,0.0153931,1938,1079,4.93285,-0.820784
721,-55,4.92676,0.853638,-0.00063187,-0.000511359,0.000727559,0.000158436,-0.00130166,0.826713,0.000925122,0.0145393,1945,1079,4.92671,-0.853666
728,-55,4.86768,0.821411,-0.000608026,-0.000412955,0.000750997,0.000246814,-0.00126779,0.849974,0.000938351,0.016607,1952,1079,4.86768,-0.821461
735,-55,4.88623,0.827393,-0.000740896,-0.000287864,0.000639372,0.000163931,-0.00119269,0.955639,0.000855025,0.0148994,1959,1079,4.88626,-0.827452
742,-55,4.89709,0.819702,-0.000931842,-3.13649e-05,0.000271466,4.41422e-05,-0.00100735,1.29951,0.000686753,0.0138514,1966,1079,4.89706,-0.819721
749,-55,4.90417,0.788452,-0.00102325,0.000522184,-0.000338831,0.000593207,-0.00109427,-1.36417,0.00098848,0.0110179,1973,1079,4.90416,-0.788403
756,-55,4.89111,0.783081,-0.000944135,0.00175529,-0.00126303,0.00225408,-0.00144292,-1.19468,0.00215153,0.010611,1980,1079,4.89113,-0.78311
763,-55,4.90576,0.789673,-0.000793296,0.00392661,-0.00245676,0.00497327,-0.00183996,-1.16805,0.00406992,0.0133135,1987,1079,4.90578,-0.789684
770,-55,4.93298,0.778687,-0.000706668,0.00640146,-0.0038741,0.00810477,-0.00240998,-1.15657,0.00636056,0.0145244,1994,1079,4.93293,-0.778691
777,-55,4.88623,0.772583,-0.000547463,0.010151,-0.00572994,0.0126406,-0.00303701,-1.16092,0.00960085,0.0119134,2001,1079,4.88625,-0.772641
784,-55,4.85974,0.731445,-0.000291713,0.0157707,-0.00818528,0.0192068,-0.0037278,-1.17335,0.0142111,0.0260027,2008,1079,4.85972,-0.731385
791,-55,4.8429,0.665894,0.000246186,0.0241144,-0.0114658,0.0287298,-0.00436927,-1.1881,0.0207635,0.0418445,2015,1079,4.84287,-0.665854
798,-55,4.84668,0.629639,0,0,0,0,0,0,0,-1,2022,1079,4.84664,-0.629594
805,-55,3.87439,-0.539795,0,0,0,0,0,0,0,-1,2029,1079,3.87441,0.539757
812,-55,3.6803,1.97827,0,0,0,0,0,0,0,-1,2036,1079,3.68028,-1.97825
-700,-62,0.190552,0.124268,0,0,0,0,0,0,0,-1,524,1086,0.190558,-0.124208
-693,-62,3.45331,-1.12402,0,0,0,0,0,0,0,-1,531,1086,3.45329,1.124
-686,-62,3.55035,-2.22144,0.04115,0.0327012,-0.0394573,0.0766084,-0.00275725,-0.73207,0.0520157,0.0492656,538,1086,3.55037,2.2215
-679,-62,3.64307,-3.34814,0.0308328,0.0257669,-0.0280609,0.0564748,0.000124894,-0.740387,0.0376083,0.047882,545,1086,3.64308,3.34812
-672,-62,-0.579346,1.51416,0.0221642,0.0198615,-0.0192186,0.0402659,0.00175984,-0.75548,0.026277,0.0455693,552,1086,-0.579357,-1.51417
-665,-62,-0.797729,0.816772,0.0151743,0.0149525,-0.0125357,0.0275995,0.00252724,-0.780975,0.0176178,0.0479901,559,1086,-0.79774,-0.816826
-658,-62,-0.981567,0.701904,0.00977357,0.0109788,-0.00768381,0.0180836,0.00266878,-0.824531,0.0112719,0.0456219,566,1086,-0.981544,-0.701909
-651,-62,-1.01239,0.702026,0.00581733,0.00785158,-0.00432549,0.0112779,0.00239099,-0.900874,0.00686191,0.0318886,573,1086,-1.01238,-0.701979
-644,-62,-1.02173,0.705078,0.00311565,0.00545963,-0.00216442,0.006749,0.00182628,-1.03354,0.00403092,0.010541,580,1086,-1.0217,-0.705131
-637,-62,-1.00336,0.699219,0.0014465,0.00354676,-0.000459227,0.00364279,0.00135048,-1.36467,0.00212647,0.0099104,587,1086,-1.00337,-0.699162
-630,-62,-1.02112,0.723145,-0.000440346,0.00163789,0.00130814,0.0022694,-0.00107186,1.12104,0.00196995,0.011333,594,1086,-1.02112,-0.723084
-623,-62,-1.04028,0.746216,-0.00152125,0.00108501,0.000840388,0.00133249,-0.00176873,1.28441,0.00179639,0.0120302,601,1086,-1.04026,-0.74622
-616,-62,-1.01764,0.73645,-0.000999232,0.000350323,0.000358105,0.000439459,-0.00108837,1.32684,0.000908225,0.0120866,608,1086,-1.01763,-0.736439
-609,-62,-0.999695,0.737061,-4.01916e-05,0.000659953,-0.000147745,0.000689853,-7.00919e-05,-1.37112,0.000484957,0.0119327,615,1086,-0.999676,-0.737027
-602,-62,-0.996826,0.765991,0.000749573,0.000443791,-0.000721283,0.00133399,-0.000140627,-0.680959,0.000939717,0.0126335,622,1086,-0.996834,-0.766022
-595,-62,-0.991028,0.781738,0.0011354,0.000459112,-0.000830599,0.00169405,-9.95352e-05,-0.592087,0.00116397,0.0162929,629,1086,-0.990999,-0.781719
-588,-62,-0.997498,0.791992,0.00144765,0.000618455,-0.000855441,0.00198366,8.24359e-05,-0.559749,0.00129584,0.0233378,636,1086,-0.997517,-0.79195
-581,-62,-0.97998,0.824951,0.0018943,0.000836623,-0.000975228,0.00247485,0.000256076,-0.536952,0.00157151,0.0350579,643,1086,-0.97999,-0.824895
-574,-62,-0.974976,0.806641,0.00233397,0.0010337,-0.00101279,0.00288733,0.000480328,-0.500059,0.00178644,0.0367647,650,1086,-0.974993,-0.806643
-567,-62,-1.008,0.671021,0.00275545,0.0012811,-0.000933202,0.00320751,0.000829031,-0.451109,0.00192253,0.0359124,657,1086,-1.00797,-0.671022
-560,-62,-1.10236,0.626465,0.0031749,0.00153749,-0.000717542,0.00344484,0.00126755,-0.35982,0.00201187,0.0354082,664,1086,-1.10236,-0.62647
-553,-62,-0.968445,0.525146,0.00359392,0.0017841,-0.000363963,0.00366437,0.00171365,-0.191205,0.0021171,0.0339427,671,1086,-0.968414,-0.5252
-546,-62,-0.976746,0.613159,0.003984,0.00199195,0.000154819,0.00399596,0.00197999,0.0771013,0.0023071,0.0307247,678,1086,-0.976743,-0.613101
-539,-62,-1.01794,0.907471,0.00436522,0.00211323,0.000822692,0.00463375,0.0018447,0.315496,0.00269375,0.0377412,685,1086,-1.01797,-0.907432
-532,-62,-0.759338,0.603516,0.00465233,0.0020821,0.00157234,0.00539792,0.00133651,0.442789,0.00324615,0.0396831,692,1086,-0.759328,-0.603514
-525,-62,0,0,0,0,0,0,0,0,0,-1,699,1086,0,0
-518,-62,0,0,0,0,0,0,0,0,0,-1,706,1086,0,0
-511,-62,0,0,0,0,0,0,0,0,0,-1,713,1086,0,0
-504,-62,0,0,0,0,0,0,0,0,0,-1,720,1086,0,0
-497,-62,0,0,0,0,0,0,0,0,0,-1,727,1086,0,0
-490,-62,0,0,0,0,0,0,0,0,0,-1,734,1086,0,0
-483,-62,0,0,0,0,0,0,0,0,0,-1,741,1086,0,0
-476,-62,0,0,0,0,0,0,0,0,0,-1,748,1086,0,0
-469,-62,0,0,0,0,0,0,0,0,0,-1,755,1086,0,0
-462,-62,0,0,0,0,0,0,0,0,0,-1,762,1086,0,0
-455,-62,0,0,0,0,0,0,0,0,0,-1,769,1086,0,0
-448,-62,0,0,0,0,0,0,0,0,0,-1,776,1086,0,0
-441,-62,0,0,0,0,0,0,0,0,0,-1,783,1086,0,0
-434,-62,0,0,0,0,0,0,0,0,0,-1,790,1086,0,0
-427,-62,0,0,0,0,0,0,0,0,0,-1,797,1086,0,0
-420,-62,0,0,0,0,0,0,0,0,0,-1,804,1086,0,0
-413,-62,0,0,0,0,0,0,0,0,0,-1,811,1086,0,0
-406,-62,0,0,0,0,0,0,0,0,0,-1,818,1086,0,0
-399,-62,0,0,0,0,0,0,0,0,0,-1,825,1086,0,0
-392,-62,0,0,0,0,0,0,0,0,0,-1,832,1086,0,0
-385,-62,0,0,0,0,0,0,0,0,0,-1,839,1086,0,0
-378,-62,0,0,0,0,0,0,0,0,0,-1,846,1086,0,0
-371,-62,0,0,0,0,0,0,0,0,0,-1,853,1086,0,0
-364,-62,0,0,0,0,0,0,0,0,0,-1,860,1086,0,0
-357,-62,0,0,0,0,0,0,0,0,0,-1,867,1086,0,0
-350,-62,0,0,0,0,0,0,0,0,0,-1,874,1086,0,0
-343,-62,0,0,0,0,0,0,0,0,0,-1,881,1086,0,0
-336,-62,0,0,0,0,0,0,0,0,0,-1,888,1086,0,0
-329,-62,0,0,0,0,0,0,0,0,0,-1,895,1086,0,0
-322,-62,0,0,0,0,0,0,0,0,0,-1,902,1086,0,0
-315,-62,0,0,0,0,0,0,0,0,0,-1,909,1086,0,0
-308,-62,0,0,0,0,0,0,0,0,0,-1,916,1086,0,0
-301,-62,0,0,0,0,0,0,0,0,0,-1,923,1086,0,0
-294,-62,0,0,0,0,0,0,0,0,0,-1,930,1086,0,0
-287,-62,0,0,0,0,0,0,0,0,0,-1,937,1086,0,0
-280,-62,0,0,0,0,0,0,0,0,0,-1,944,1086,0,0
-273,-62,0,0,0,0,0,0,0,0,0,-1,951,1086,0,0
-266,-62,0,0,0,0,0,0,0,0,0,-1,958,1086,0,0
-259,-62,0,0,0,0,0,0,0,0,0,-1,965,1086,0,0
-252,-62,0,0,0,0,0,0,0,0,0,-1,972,1086,0,0
-245,-62,0,0,0,0,0,0,0,0,0,-1,979,1086,0,0
-238,-62,0,0,0,0,0,0,0,0,0,-1,986,1086,0,0
-231,-62,0,0,0,0,0,0,0,0,0,-1,993,1086,0,0
-224,-62,0,0,0,0,0,0,0,0,0,-1,1000,1086,0,0
-217,-62,0,0,0,0,0,0,0,0,0,-1,1007,1086,0,0
-210,-62,0,0,0,0,0,0,0,0,0,-1,1014,1086,0,0
-203,-62,0,0,0,0,0,0,0,0,0,-1,1021,1086,0,0
-196,-62,0,0,0,0,0,0,0,0,0,-1,1028,1086,0,0
-189,-62,0,0,0,0,0,0,0,0,0,-1,1035,1086,0,0
-182,-62,0,0,0,0,0,0,0,0,0,-1,1042,1086,0,0
-175,-62,0,0,0,0,0,0,0,0,0,-1,1049,1086,0,0
-168,-62,0,0,0,0,0,0,0,0,0,-1,1056,1086,0,0
-161,-62,0,0,0,0,0,0,0,0,0,-1,1063,1086,0,0
-154,-62,0,0,0,0,0,0,0,0,0,-1,1070,1086,0,0
-147,-62,0,0,0,0,0,0,0,0,0,-1,1077,1086,0,0
-140,-62,0,0,0,0,0,0,0,0,0,-1,1084,1086,0,0
-133,-62,0,0,0,0,0,0,0,0,0,-1,1091,1086,0,0
-126,-62,0,0,0,0,0,0,0,0,0,-1,1098,1086,0,0
-119,-62,0,0,0,0,0,0,0,0,0,-1,1105,1086,0,0
-112,-62,0,0,0,0,0,0,0,0,0,-1,1112,1086,0,0
-105,-62,0,0,0,0,0,0,0,0,0,-1,1119,1086,0,0
-98,-62,0,0,0,0,0,0,0,0,0,-1,1126,1086,0,0
-91,-62,0,0,0,0,0,0,0,0,0,-1,1133,1086,0,0
-84,-62,0,0,0,0,0,0,0,0,0,-1,1140,1086,0,0
-77,-62,0,0,0,0,0,0,0,0,0,-1,1147,1086,0,0
-70,-62,0,0,0,0,0,0,0,0,0,-1,1154,1086,0,0
-63,-62,0,0,0,0,0,0,0,0,0,-1,1161,1086,0,0
-56,-62,0,0,0,0,0,0,0,0,0,-1,1168,1086,0,0
-49,-62,0,0,0,0,0,0,0,0,0,-1,1175,1086,0,0
-42,-62,0,0,0,0,0,0,0,0,0,-1,1182,1086,0,0
-35,-62,0,0,0,0,0,0,0,0,0,-1,1189,1086,0,0
-28,-62,0,0,0,0,0,0,0,0,0,-1,1196,1086,0,0
-21,-62,0,0,0,0,0,0,0,0,0,-1,1203,1086,0,0
-14,-62,0,0,0,0,0,0,0,0,0,-1,1210,1086,0,0
-7,-62,0,0,0,0,0,0,0,0,0,-1,1217,1086,0,0
0,-62,0,0,0,0,0,0,0,0,0,-1,1224,1086,0,0
7,-62,0,0,0,0,0,0,0,0,0,-1,1231,1086,0,0
14,-62,0,0,0,0,0,0,0,0,0,-1,1238,1086,0,0
21,-62,0,0,0,0,0,0,0,0,0,-1,1245,1086,0,0
28,-62,0,0,0,0,0,0,0,0,0,-1,1252,1086,0,0
35,-62,0,0,0,0,0,0,0,0,0,-1,1259,1086,0,0
42,-62,0,0,0,0,0,0,0,0,0,-1,1266,1086,0,0
49,-62,0,0,0,0,0,0,0,0,0,-1,1273,1086,0,0
56,-62,0,0,0,0,0,0,0,0,0,-1,1280,1086,0,0
63,-62,0,0,0,0,0,0,0,0,0,-1,1287,1086,0,0
70,-62,0,0,0,0,0,0,0,0,0,-1,1294,1086,0,0
77,-62,0,0,0,0,0,0,0,0,0,-1,1301,1086,0,0
84,-62,0,0,0,0,0,0,0,0,0,-1,1308,1086,0,0
91,-62,0,0,0,0,0,0,0,0,0,-1,1315,1086,0,0
98,-62,0,0,0,0,0,0,0,0,0,-1,1322,1086,0,0
105,-62,0,0,0,0,0,0,0,0,0,-1,1329,1086,0,0
112,-62,0,0,0,0,0,0,0,0,0,-1,1336,1086,0,0
119,-62,0,0,0,0,0,0,0,0,0,-1,1343,1086,0,0
126,-62,0,0,0,0,0,0,0,0,0,-1,1350,1086,0,0
133,-62,0,0,0,0,0,0,0,0,0,-1,1357,1086,0,0
140,-62,0,0,0,0,0,0,0,0,0,-1,1364,1086,0,0
147,-62,0,0,0,0,0,0,0,0,0,-1,1371,1086,0,0
154,-62,0,0,0,0,0,0,0,0,0,-1,1378,1086,0,0
161,-62,0,0,0,0,0,0,0,0,0,-1,1385,1086,0,0
168,-62,0,0,0,0,0,0,0,0,0,-1,1392,1086,0,0
175,-62,0,0,0,0,0,0,0,0,0,-1,1399,1086,0,0
182,-62,0,0,0,0,0,0,0,0,0,-1,1406,1086,0,0
189,-62,0,0,0,0,0,0,0,0,0,-1,1413,1086,0,0
196,-62,0,0,0,0,0,0,0,0,0,-1,1420,1086,0,0
203,-62,0,0,0,0,0,0,0,0,0,-1,1427,1086,0,0
210,-62,0,0,0,0,0,0,0,0,0,-1,1434,1086,0,0
217,-62,0,0,0,0,0,0,0,0,0,-1,1441,1086,0,0
224,-62,0,0,0,0,0,0,0,0,0,-1,1448,1086,0,0
231,-62,0,0,0,0,0,0,0,0,0,-1,1455,1086,0,0
238,-62,0,0,0,0,0,0,0,0,0,-1,1462,1086,0,0
245,-62,0,0,0,0,0,0,0,0,0,-1,1469,1086,0,0
252,-62,0,0,0,0,0,0,0,0,0,-1,1476,1086,0,0
259,-62,0,0,0,0,0,0,0,0,0,-1,1483,1086,0,0
266,-62,0,0,0,0,0,0,0,0,0,-1,1490,1086,0,0
273,-62,0,0,0,0,0,0,0,0,0,-1,1497,1086,0,0
280,-62,0,0,0,0,0,0,0,0,0,-1,1504,1086,0,0
287,-62,0,0,0,0,0,0,0,0,0,-1,1511,1086,0,0
294,-62,0,0,0,0,0,0,0,0,0,-1,1518,1086,0,0
301,-62,0,0,0,0,0,0,0,0,0,-1,1525,1086,0,0
308,-62,0,0,0,0,0,0,0,0,0,-1,1532,1086,0,0
315,-62,0,0,0,0,0,0,0,0,0,-1,1539,1086,0,0
322,-62,0,0,0,0,0,0,0,0,0,-1,1546,1086,0,0
329,-62,0,0,0,0,0,0,0,0,0,-1,1553,1086,0,0
336,-62,0,0,0,0,0,0,0,0,0,-1,1560,1086,0,0
343,-62,0,0,0,0,0,0,0,0,0,-1,1567,1086,0,0
350,-62,0,0,0,0,0,0,0,0,0,-1,1574,1086,0,0
357,-62,0,0,0,0,0,0,0,0,0,-1,1581,1086,0,0
364,-62,0,0,0,0,0,0,0,0,0,-1,1588,1086,0,0
371,-62,0,0,0,0,0,0,0,0,0,-1,1595,1086,0,0
378,-62,0,0,0,0,0,0,0,0,0,-1,1602,1086,0,0
385,-62,0,0,0,0,0,0,0,0,0,-1,1609,1086,0,0
392,-62,0,0,0,0,0,0,0,0,0,-1,1616,1086,0,0
399,-62,0,0,0,0,0,0,0,0,0,-1,1623,1086,0,0
406,-62,0,0,0,0,0,0,0,0,0,-1,1630,1086,0,0
413,-62,0,0,0,0,0,0,0,0,0,-1,1637,1086,0,0
420,-62,0,0,0,0,0,0,0,0,0,-1,1644,1086,0,0
427,-62,0,0,0,0,0,0,0,0,0,-1,1651,1086,0,0
434,-62,0,0,0,0,0,0,0,0,0,-1,1658,1086,0,0
441,-62,0,0,0,0,0,0,0,0,0,-1,1665,1086,0,0
448,-62,0,0,0,0,0,0,0,0,0,-1,1672,1086,0,0
455,-62,0,0,0,0,0,0,0,0,0,-1,1679,1086,0,0
462,-62,0,0,0,0,0,0,0,0,0,-1,1686,1086,0,0
469,-62,0,0,0,0,0,0,0,0,0,-1,1693,1086,0,0
476,-62,0,0,0,0,0,0,0,0,0,-1,1700,1086,0,0
483,-62,0,0,0,0,0,0,0,0,0,-1,1707,1086,0,0
490,-62,0,0,0,0,0,0,0,0,0,-1,1714,1086,0,0
497,-62,0,0,0,0,0,0,0,0,0,-1,1721,1086,0,0
504,-62,0,0,0,0,0,0,0,0,0,-1,1728,1086,0,0
511,-62,0,0,0,0,0,0,0,0,0,-1,1735,1086,0,0
518,-62,0,0,0,0,0,0,0,0,0,-1,1742,1086,0,0
525,-62,0,0,0,0,0,0,0,0,0,-1,1749,1086,0,0
532,-62,0,0,0,0,0,0,0,0,0,-1,1756,1086,0,0
539,-62,0,0,0,0,0,0,0,0,0,-1,1763,1086,0,0
546,-62,0,0,0,0,0,0,0,0,0,-1,1770,1086,0,0
553,-62,0,0,0,0,0,0,0,0,0,-1,1777,1086,0,0
560,-62,0,0,0,0,0,0,0,0,0,-1,1784,1086,0,0
567,-62,0,0,0,0,0,0,0,0,0,-1,1791,1086,0,0
574,-62,0,0,0,0,0,0,0,0,0,-1,1798,1086,0,0
581,-62,0,0,0,0,0,0,0,0,0,-1,1805,1086,0,0
588,-62,0,0,0,0,0,0,0,0,0,-1,1812,1086,0,0
595,-62,0,0,0,0,0,0,0,0,0,-1,1819,1086,0,0
602,-62,0,0,0,0,0,0,0,0,0,-1,1826,1086,0,0
609,-62,0,0,0,0,0,0,0,0,0,-1,1833,1086,0,0
616,-62,0,0,0,0,0,0,0,0,0,-1,1840,1086,0,0
623,-62,0,0,0,0,0,0,0,0,0,-1,1847,1086,0,0
630,-62,0,0,0,0,0,0,0,0,0,-1,1854,1086,0,0
637,-62,0,0,0,0,0,0,0,0,0,-1,1861,1086,0,0
644,-62,0,0,0,0,0,0,0,0,0,-1,1868,1086,0,0
651,-62,5.04553,0.662598,0.000192537,-0.000922445,0.00346215,0.0031418,-0.0038717,0.705571,0.00405655,0.0421454,1875,1086,5.04555,-0.662598
658,-62,5.08521,0.883057,0.000101159,-0.000691976,0.00217946,0.00191984,-0.00251066,0.695404,0.00256552,0.0406033,1882,1086,5.08524,-0.883008
665,-62,5.01367,0.771973,3.83577e-05,-0.000598933,0.00134879,0.00110563,-0.00166621,0.669403,0.0016112,0.0383892,1889,1086,5.01367,-0.771921
672,-62,4.89954,0.825562,-1.76967e-05,-0.000588813,0.000876564,0.00061865,-0.00122516,0.627934,0.00108355,0.038703,1896,1086,4.89953,-0.825557
679,-62,4.96814,0.924683,-0.000129997,-0.0006102,0.000647184,0.000320188,-0.00106039,0.607771,0.000834388,0.0371536,1903,1086,4.96811,-0.92463
686,-62,4.95288,0.768555,-0.000240029,-0.000628579,0.000570878,0.000168725,-0.00103733,0.621391,0.000754115,0.0372925,1910,1086,4.95293,-0.768524
693,-62,4.9679,0.672241,-0.00035322,-0.00063821,0.000587706,0.000109019,-0.00110045,0.666464,0.000772541,0.0375213,1917,1086,4.96788,-0.672225
700,-62,4.96594,0.690796,-0.000531392,-0.000559934,0.000662,0.000116491,-0.00120782,0.774621,0.000846717,0.0322237,1924,1086,4.96589,-0.690788
707,-62,4.93567,0.752808,-0.000627577,-0.000588348,0.000660163,5.2492e-05,-0.00126842,0.80025,0.000863641,0.0199487,1931,1086,4.93568,-0.75276
714,-62,4.94263,0.740845,-0.000709748,-0.000551972,0.00063724,1.12452e-05,-0.00127296,0.846983,0.000852416,0.0130549,1938,1086,4.94257,-0.740788
721,-62,4.94531,0.800659,-0.000766103,-0.000493724,0.000701962,8.51381e-05,-0.00134496,0.881214,0.000926327,0.0135653,1945,1086,4.94528,-0.800603
728,-62,4.8822,0.817505,-0.000729138,-0.000411798,0.000727807,0.000174435,-0.00131537,0.892724,0.000940466,0.0140982,1952,1086,4.88224,-0.81756
735,-62,4.89014,0.824097,-0.000838609,-0.000296848,0.000604451,9.46437e-05,-0.0012301,0.996052,0.000853366,0.0139641,1959,1086,4.89014,-0.82411
742,-62,4.90186,0.828979,-0.00102461,-2.73826e-05,0.000266887,3.95517e-05,-0.00109154,1.32507,0.000741231,0.0125358,1966,1086,4.90185,-0.829002
749,-62,4.88892,0.796387,-0.00110806,0.000537427,-0.000320593,0.000597682,-0.00116832,-1.38501,0.00103719,0.0118723,1973,1086,4.88886,-0.796349
756,-62,4.85059,0.797241,-0.00101552,0.00182596,-0.00126661,0.00230859,-0.00149814,-1.20674,0.00221436,0.0130074,1980,1086,4.85053,-0.79726
763,-62,4.86597,0.795044,-0.000842231,0.00408419,-0.00250485,0.00513405,-0.0018921,-1.17391,0.00419802,0.0133778,1987,1086,4.86596,-0.795017
770,-62,4.89246,0.785034,-0.000732432,0.00663286,-0.00393908,0.00834264,-0.00244221,-1.16128,0.00652988,0.011161,1994,1086,4.89245,-0.785052
777,-62,4.86865,0.75769,-0.000547834,0.0104666,-0.00581449,0.012968,-0.00304922,-1.16453,0.00982081,0.0122517,2001,1086,4.86862,-0.75768
784,-62,4.8916,0.721313,-0.000252335,0.0161548,-0.0082941,0.0196171,-0.00371455,-1.17535,0.014476,0.0245046,2008,1086,4.89154,-0.721272
791,-62,4.95813,0.68396,0.000343445,0.024489,-0.0115968,0.0291565,-0.00432409,-1.18815,0.0210278,0.0441237,2015,1086,4.95807,-0.683906
798,-62,5.03113,0.675903,0,0,0,0,0,0,0,-1,2022,1086,5.03108,-0.675913
805,-62,4.09888,2.42761,0,0,0,0,0,0,0,-1,2029,1086,4.09887,-2.42763
812,-62,4.18579,1.63318,0,0,0,0,0,0,0,-1,2036,1086,4.18576,-1.63318
-700,-69,0.268799,-1.03723,0,0,0,0,0,0,0,-1,524,1093,0.268794,1.03728
-693,-69,4.2392,-1.229,0,0,0,0,0,0,0,-1,531,1093,4.23919,1.22906
-686,-69,4.53546,-2.07166,0,0,0,0,0,0,0,-1,538,1093,4.53547,2.07168
-679,-69,-1.00159,1.32288,0,0,0,0,0,0,0,-1,545,1093,-1.0016,-1.32284
-672,-69,-1.1842,1.39185,0,0,0,0,0,0,0,-1,552,1093,-1.1842,-1.39179
-665,-69,-1.00537,0.882568,0,0,0,0,0,0,0,-1,559,1093,-1.00536,-0.882616
-658,-69,-0.806458,0.757813,0.0162508,0.0120689,-0.00587165,0.0203927,0.00792698,-0.614343,0.0118705,0.0447843,566,1093,-0.806475,-0.757859
-651,-69,-0.995544,0.70813,0.0102141,0.00882746,-0.00285638,0.0124601,0.00658146,-0.666337,0.00719766,0.0291841,573,1093,-0.995564,-0.708095
-644,-69,-1.01019,0.703735,0.00594174,0.00628536,-0.00101607,0.00714404,0.00508306,-0.869151,0.00424585,0.00852278,580,1093,-1.0102,-0.703771
-637,-69,-0.991638,0.711792,0.00301803,0.00420355,0.000379124,0.00431442,0.00290716,1.28628,0.00254061,0.0116615,587,1093,-0.991636,-0.711735
-630,-69,-0.999207,0.721069,0.000162825,0.00209634,0.00187536,0.00323946,-0.000980299,1.02338,0.00255001,0.0137984,594,1093,-0.999232,-0.721112
-623,-69,-1.01294,0.751221,-0.00151708,0.00159946,0.0011613,0.00198459,-0.00190222,1.25057,0.00224422,0.0116804,601,1093,-1.01295,-0.751249
-616,-69,-1.00092,0.750366,-0.00119927,0.000670032,0.000600446,0.000846285,-0.00137552,1.28528,0.00129483,0.0120284,608,1093,-1.0009,-0.750382
-609,-69,-1.00281,0.724487,-0.000213888,0.000703404,-0.000106531,0.000715613,-0.000226097,-1.45668,0.000567654,0.0113616,615,1093,-1.0028,-0.724479
-602,-69,-1.00165,0.770874,0.000705795,0.000471555,-0.000776221,0.00137368,-0.000196332,-0.71052,0.000987758,0.0146711,622,1093,-1.00164,-0.770869
-595,-69,-0.988647,0.790894,0.00116226,0.000457059,-0.00098249,0.0018535,-0.000234186,-0.613115,0.00132067,0.0182602,629,1093,-0.988677,-0.790943
-588,-69,-1.00061,0.786621,0.00150749,0.000598676,-0.0010586,0.00220509,-9.8925e-05,-0.582664,0.00150412,0.0207176,636,1093,-1.00062,-0.786623
-581,-69,-1.00262,0.798462,0.0019688,0.000792152,-0.00119641,0.00271371,4.72378e-05,-0.556889,0.0017936,0.0279519,643,1093,-1.00263,-0.798515
-574,-69,-1.01825,0.687256,0.00243051,0.0009705,-0.00126645,0.00316229,0.000238723,-0.523949,0.00203329,0.0311249,650,1093,-1.01828,-0.687255
-567,-69,-1.08228,0.48877,0.00286654,0.00119291,-0.00120336,0.00349544,0.000564011,-0.481582,0.0021669,0.0339383,657,1093,-1.08226,-0.488778
-560,-69,-1.11536,0.443604,0.00328658,0.0014232,-0.000996794,0.00371931,0.000990469,-0.409571,0.00222416,0.0351846,664,1093,-1.11534,-0.44356
-553,-69,-0.969482,0.530029,0.00368331,0.0016455,-0.000643956,0.00386974,0.00145907,-0.281812,0.0022566,0.0361342,671,1093,-0.969512,-0.530067
-546,-69,-0.92981,0.520386,0.00402045,0.00183573,-0.000121022,0.00402713,0.00182905,-0.0551697,0.00232832,0.0362983,678,1093,-0.929793,-0.520405
-539,-69,-0.788269,0.792114,0.00431368,0.00195752,0.00055111,0.00443622,0.00183499,0.21878,0.00257395,0.0396281,685,1093,-0.788245,-0.792101
-532,-69,-0.702576,0.684082,0.00446314,0.00195358,0.00126995,0.00499364,0.00142308,0.395703,0.00297062,0.0397149,692,1093,-0.702604,-0.684134
-525,-69,0,0,0,0,0,0,0,0,0,-1,699,1093,0,0
-518,-69,0,0,0,0,0,0,0,0,0,-1,706,1093,0,0
-511,-69,0,0,0,0,0,0,0,0,0,-1,713,1093,0,0
-504,-69,0,0,0,0,0,0,0,0,0,-1,720,1093,0,0
-497,-69,0,0,0,0,0,0,0,0,0,-1,727,1093,0,0
-490,-69,0,0,0,0,0,0,0,0,0,-1,734,1093,0,0
-483,-69,0,0,0,0,0,0,0,0,0,-1,741,1093,0,0
-476,-69,0,0,0,0,0,0,0,0,0,-1,748,1093,0,0
-469,-69,0,0,0,0,0,0,0,0,0,-1,755,1093,0,0
-462,-69,0,0,0,0,0,0,0,0,0,-1,762,1093,0,0
-455,-69,0,0,0,0,0,0,0,0,0,-1,769,1093,0,0
-448,-69,0,0,0,0,0,0,0,0,0,-1,776,1093,0,0
-441,-69,0,0,0,0,0,0,0,0,0,-1,783,1093,0,0
-434,-69,0,0,0,0,0,0,0,0,0,-1,790,1093,0,0
-427,-69,0,0,0,0,0,0,0,0,0,-1,797,1093,0,0
-420,-69,0,0,0,0,0,0,0,0,0,-1,804,1093,0,0
-413,-69,0,0,0,0,0,0,0,0,0,-1,811,1093,0,0
-406,-69,0,0,0,0,0,0,0,0,0,-1,818,1093,0,0
-399,-69,0,0,0,0,0,0,0,0,0,-1,825,1093,0,0
-392,-69,0,0,0,0,0,0,0,0,0,-1,832,1093,0,0
-385,-69,0,0,0,0,0,0,0,0,0,-1,839,1093,0,0
-378,-69,0,0,0,0,0,0,0,0,0,-1,846,1093,0,0
-371,-69,0,0,0,0,0,0,0,0,0,-1,853,1093,0,0
-364,-69,0,0,0,0,0,0,0,0,0,-1,860,1093,0,0
-357,-69,0,0,0,0,0,0,0,0,0,-1,867,1093,0,0
-350,-69,0,0,0,0,0,0,0,0,0,-1,874,1093,0,0
-343,-69,0,0,0,0,0,0,0,0,0,-1,881,1093,0,0
-336,-69,0,0,0,0,0,0,0,0,0,-1,888,1093,0,0
-329,-69,0,0,0,0,0,0,0,0,0,-1,895,1093,0,0
-322,-69,0,0,0,0,0,0,0,0,0,-1,902,1093,0,0
-315,-69,0,0,0,0,0,0,0,0,0,-1,909,1093,0,0
-308,-69,0,0,0,0,0,0,0,0,0,-1,916,1093,0,0
-301,-69,0,0,0,0,0,0,0,0,0,-1,923,1093,0,0
-294,-69,0,0,0,0,0,0,0,0,0,-1,930,1093,0,0
-287,-69,0,0,0,0,0,0,0,0,0,-1,937,1093,0,0
-280,-69,0,0,0,0,0,0,0,0,0,-1,944,1093,0,0
-273,-69,0,0,0,0,0,0,0,0,0,-1,951,1093,0,0
-266,-69,0,0,0,0,0,0,0,0,0,-1,958,1093,0,0
-259,-69,0,0,0,0,0,0,0,0,0,-1,965,1093,0,0
-252,-69,0,0,0,0,0,0,0,0,0,-1,972,1093,0,0
-245,-69,0,0,0,0,0,0,0,0,0,-1,979,1093,0,0
-238,-69,0,0,0,0,0,0,0,0,0,-1,986,1093,0,0
-231,-69,0,0,0,0,0,0,0,0,0,-1,993,1093,0,0
-224,-69,0,0,0,0,0,0,0,0,0,-1,1000,1093,0,0
-217,-69,0,0,0,0,0,0,0,0,0,-1,1007,1093,0,0
-210,-69,0,0,0,0,0,0,0,0,0,-1,1014,1093,0,0
-203,-69,0,0,0,0,0,0,0,0,0,-1,1021,1093,0,0
-196,-69,0,0,0,0,0,0,0,0,0,-1,1028,1093,0,0
-189,-69,0,0,0,0,0,0,0,0,0,-1,1035,1093,0,0
-182,-69,0,0,0,0,0,0,0,0,0,-1,1042,1093,0,0
-175,-69,0,0,0,0,0,0,0,0,0,-1,1049,1093,0,0
-168,-69,0,0,0,0,0,0,0,0,0,-1,1056,1093,0,0
-161,-69,0,0,0,0,0,0,0,0,0,-1,1063,1093,0,0
-154,-69,0,0,0,0,0,0,0,0,0,-1,1070,1093,0,0
-147,-69,0,0,0,0,0,0,0,0,0,-1,1077,1093,0,0
-140,-69,0,0,0,0,0,0,0,0,0,-1,1084,1093,0,0
-133,-69,0,0,0,0,0,0,0,0,0,-1,1091,1093,0,0
-126,-69,0,0,0,0,0,0,0,0,0,-1,1098,1093,0,0
-119,-69,0,0,0,0,0,0,0,0,0,-1,1105,1093,0,0
-112,-69,0,0,0,0,0,0,0,0,0,-1,1112,1093,0,0
-105,-69,0,0,0,0,0,0,0,0,0,-1,1119,1093,0,0
-98,-69,0,0,0,0,0,0,0,0,0,-1,1126,1093,0,0
-91,-69,0,0,0,0,0,0,0,0,0,-1,1133,1093,0,0
-84,-69,0,0,0,0,0,0,0,0,0,-1,1140,1093,0,0
-77,-69,0,0,0,0,0,0,0,0,0,-1,1147,1093,0,0
-70,-69,0,0,0,0,0,0,0,0,0,-1,1154,1093,0,0
-63,-69,0,0,0,0,0,0,0,0,0,-1,1161,1093,0,0
-56,-69,0,0,0,0,0,0,0,0,0,-1,1168,1093,0,0
-49,-69,0,0,0,0,0,0,0,0,0,-1,1175,1093,0,0
-42,-69,0,0,0,0,0,0,0,0,0,-1,1182,1093,0,0
-35,-69,0,0,0,0,0,0,0,0,0,-1,1189,1093,0,0
-28,-69,0,0,0,0,0,0,0,0,0,-1,1196,1093,0,0
-21,-69,0,0,0,0,0,0,0,0,0,-1,1203,1093,0,0
-14,-69,0,0,0,0,0,0,0,0,0,-1,1210,1093,0,0
-7,-69,0,0,0,0,0,0,0,0,0,-1,1217,1093,0,0
0,-69,0,0,0,0,0,0,0,0,0,-1,1224,1093,0,0
7,-69,0,0,0,0,0,0,0,0,0,-1,1231,1093,0,0
14,-69,0,0,0,0,0,0,0,0,0,-1,1238,1093,0,0
21,-69,0,0,0,0,0,0,0,0,0,-1,1245,1093,0,0
28,-69,0,0,0,0,0,0,0,0,0,-1,1252,1093,0,0
35,-69,0,0,0,0,0,0,0,0,0,-1,1259,1093,0,0
42,-69,0,0,0,0,0,0,0,0,0,-1,1266,1093,0,0
49,-69,0,0,0,0,0,0,0,0,0,-1,1273,1093,0,0
56,-69,0,0,0,0,0,0,0,0,0,-1,1280,1093,0,0
63,-69,0,0,0,0,0,0,0,0,0,-1,1287,1093,0,0
70,-69,0,0,0,0,0,0,0,0,0,-1,1294,1093,0,0
77,-69,0,0,0,0,0,0,0,0,0,-1,1301,1093,0,0
84,-69,0,0,0,0,0,0,0,0,0,-1,1308,1093,0,0
91,-69,0,0,0,0,0,0,0,0,0,-1,1315,1093,0,0
98,-69,0,0,0,0,0,0,0,0,0,-1,1322,1093,0,0
105,-69,0,0,0,0,0,0,0,0,0,-1,1329,1093,0,0
112,-69,0,0,0,0,0,0,0,0,0,-1,1336,1093,0,0
119,-69,0,0,0,0,0,0,0,0,0,-1,1343,1093,0,0
126,-69,0,0,0,0,0,0,0,0,0,-1,1350,1093,0,0
133,-69,0,0,0,0,0,0,0,0,0,-1,1357,1093,0,0
140,-69,0,0,0,0,0,0,0,0,0,-1,1364,1093,0,0
147,-69,0,0,0,0,0,0,0,0,0,-1,1371,1093,0,0
154,-69,0,0,0,0,0,0,0,0,0,-1,1378,1093,0,0
161,-69,0,0,0,0,0,0,0,0,0,-1,1385,1093,0,0
168,-69,0,0,0,0,0,0,0,0,0,-1,1392,1093,0,0
175,-69,0,0,0,0,0,0,0,0,0,-1,1399,1093,0,0
182,-69,0,0,0,0,0,0,0,0,0,-1,1406,1093,0,0
189,-69,0,0,0,0,0,0,0,0,0,-1,1413,1093,0,0
196,-69,0,0,0,0,0,0,0,0,0,-1,1420,1093,0,0
203,-69,0,0,0,0,0,0,0,0,0,-1,1427,1093,0,0
210,-69,0,0,0,0,0,0,0,0,0,-1,1434,1093,0,0
217,-69,0,0,0,0,0,0,0,0,0,-1,1441,1093,0,0
224,-69,0,0,0,0,0,0,0,0,0,-1,1448,1093,0,0
231,-69,0,0,0,0,0,0,0,0,0,-1,1455,1093,0,0
238,-69,0,0,0,0,0,0,0,0,0,-1,1462,1093,0,0
245,-69,0,0,0,0,0,0,0,0,0,-1,1469,1093,0,0
252,-69,0,0,0,0,0,0,0,0,0,-1,1476,1093,0,0
259,-69,0,0,0,0,0,0,0,0,0,-1,1483,1093,0,0
266,-69,0,0,0,0,0,0,0,0,0,-1,1490,1093,0,0
273,-69,0,0,0,0,0,0,0,0,0,-1,1497,1093,0,0
280,-69,0,0,0,0,0,0,0,0,0,-1,1504,1093,0,0
287,-69,0,0,0,0,0,0,0,0,0,-1,1511,1093,0,0
294,-69,0,0,0,0,0,0,0,0,0,-1,1518,1093,0,0
301,-69,0,0,0,0,0,0,0,0,0,-1,1525,1093,0,0
308,-69,0,0,0,0,0,0,0,0,0,-1,1532,1093,0,0
315,-69,0,0,0,0,0,0,0,0,0,-1,1539,1093,0,0
322,-69,0,0,0,0,0,0,0,0,0,-1,1546,1093,0,0
329,-69,0,0,0,0,0,0,0,0,0,-1,1553,1093,0,0
336,-69,0,0,0,0,0,0,0,0,0,-1,1560,1093,0,0
343,-69,0,0,0,0,0,0,0,0,0,-1,1567,1093,0,0
350,-69,0,0,0,0,0,0,0,0,0,-1,1574,1093,0,0
357,-69,0,0,0,0,0,0,0,0,0,-1,1581,1093,0,0
364,-69,0,0,0,0,0,0,0,0,0,-1,1588,1093,0,0
371,-69,0,0,0,0,0,0,0,0,0,-1,1595,1093,0,0
378,-69,0,0,0,0,0,0,0,0,0,-1,1602,1093,0,0
385,-69,0,0,0,0,0,0,0,0,0,-1,1609,1093,0,0
392,-69,0,0,0,0,0,0,0,0,0,-1,1616,1093,0,0
399,-69,0,0,0,0,0,0,0,0,0,-1,1623,1093,0,0
406,-69,0,0,0,0,0,0,0,0,0,-1,1630,1093,0,0
413,-69,0,0,0,0,0,0,0,0,0,-1,1637,1093,0,0
420,-69,0,0,0,0,0,0,0,0,0,-1,1644,1093,0,0
427,-69,0,0,0,0,0,0,0,0,0,-1,1651,1093,0,0
434,-69,0,0,0,0,0,0,0,0,0,-1,1658,1093,0,0
441,-69,0,0,0,0,0,0,0,0,0,-1,1665,1093,0,0
448,-69,0,0,0,0,0,0,0,0,0,-1,1672,1093,0,0
455,-69,0,0,0,0,0,0,0,0,0,-1,1679,1093,0,0
462,-69,0,0,0,0,0,0,0,0,0,-1,1686,1093,0,0
469,-69,0,0,0,0,0,0,0,0,0,-1,1693,1093,0,0
476,-69,0,0,0,0,0,0,0,0,0,-1,1700,1093,0,0
483,-69,0,0,0,0,0,0,0,0,0,-1,1707,1093,0,0
490,-69,0,0,0,0,0,0,0,0,0,-1,1714,1093,0,0
497,-69,0,0,0,0,0,0,0,0,0,-1,1721,1093,0,0
504,-69,0,0,0,0,0,0,0,0,0,-1,1728,1093,0,0
511,-69,0,0,0,0,0,0,0,0,0,-1,1735,1093,0,0
518,-69,0,0,0,0,0,0,0,0,0,-1,1742,1093,0,0
525,-69,0,0,0,0,0,0,0,0,0,-1,1749,1093,0,0
532,-69,0,0,0,0,0,0,0,0,0,-1,1756,1093,0,0
539,-69,0,0,0,0,0,0,0,0,0,-1,1763,1093,0,0
546,-69,0,0,0,0,0,0,0,0,0,-1,1770,1093,0,0
553,-69,0,0,0,0,0,0,0,0,0,-1,1777,1093,0,0
560,-69,0,0,0,0,0,0,0,0,0,-1,1784,1093,0,0
567,-69,0,0,0,0,0,0,0,0,0,-1,1791,1093,0,0
574,-69,0,0,0,0,0,0,0,0,0,-1,1798,1093,0,0
581,-69,0,0,0,0,0,0,0,0,0,-1,1805,1093,0,0
588,-69,0,0,0,0,0,0,0,0,0,-1,1812,1093,0,0
595,-69,0,0,0,0,0,0,0,0,0,-1,1819,1093,0,0
602,-69,0,0,0,0,0,0,0,0,0,-1,1826,1093,0,0
609,-69,0,0,0,0,0,0,0,0,0,-1,1833,1093,0,0
616,-69,0,0,0,0,0,0,0,0,0,-1,1840,1093,0,0
623,-69,0,0,0,0,0,0,0,0,0,-1,1847,1093,0,0
630,-69,0,0,0,0,0,0,0,0,0,-1,1854,1093,0,0
637,-69,0,0,0,0,0,0,0,0,0,-1,1861,1093,0,0
644,-69,0,0,0,0,0,0,0,0,0,-1,1868,1093,0,0
651,-69,4.85461,0.69165,0.000995538,-0.000930141,0.00332674,0.00349597,-0.00343057,0.644535,0.0039991,0.0426845,1875,1093,4.85459,-0.691592
658,-69,5.00049,0.750244,0.000769492,-0.000567282,0.00218126,0.00238247,-0.00218026,0.636729,0.00263516,0.0432335,1882,1093,5.00049,-0.750227
665,-69,5.06274,0.737061,0.000572202,-0.000414541,0.00142346,0.00158537,-0.00142771,0.618577,0.0017404,0.041795,1889,1093,5.06273,-0.737035
672,-69,4.90308,0.736084,0.000363386,-0.000386906,0.000985506,0.00104273,-0.00106625,0.603535,0.00121765,0.0376952,1896,1093,4.9031,-0.73613
679,-69,4.90051,0.874634,0.000114617,-0.00041607,0.000762568,0.000656688,-0.000958141,0.61797,0.000937721,0.0371012,1903,1093,4.90054,-0.874625
686,-69,4.9967,0.809814,-0.000105012,-0.000458591,0.000680785,0.000421564,-0.000985167,0.658362,0.000833622,0.0380575,1910,1093,4.99665,-0.809875
693,-69,4.9231,0.656128,-0.000306262,-0.000501535,0.000686292,0.000289304,-0.0010971,0.714739,0.000844518,0.0356056,1917,1093,4.92311,-0.656135
700,-69,4.9281,0.587646,-0.000564366,-0.000457578,0.000755051,0.000245964,-0.00126791,0.820697,0.000938071,0.0279464,1924,1093,4.92809,-0.587668
707,-69,4.92603,0.685913,-0.000698728,-0.000513014,0.000732555,0.000132545,-0.00134429,0.848441,0.000943482,0.0193058,1931,1093,4.92598,-0.685885
714,-69,4.93469,0.660522,-0.000814396,-0.00050885,0.000686438,4.16102e-05,-0.00136486,0.894893,0.000924087,0.0160782,1938,1093,4.93475,-0.660497
721,-69,4.94653,0.772827,-0.000911748,-0.000484065,0.000733075,6.57215e-05,-0.00146153,0.927313,0.000996985,0.0199797,1945,1093,4.94654,-0.772803
728,-69,4.90247,0.822632,-0.000870655,-0.00042378,0.000744737,0.000130315,-0.00142475,0.931137,0.000996117,0.014286,1952,1093,4.90249,-0.822622
735,-69,4.88293,0.810425,-0.000939365,-0.000325674,0.000597156,3.88596e-05,-0.0013039,1.02273,0.000882504,0.0132255,1959,1093,4.88297,-0.810418
742,-69,4.89331,0.80835,-0.00109152,-5.48931e-05,0.000264114,8.51922e-06,-0.00115493,1.33516,0.000772811,0.0114801,1966,1093,4.8933,-0.808396
749,-69,4.86011,0.792603,-0.00113891,0.000522795,-0.000312471,0.00057961,-0.00119573,-1.39094,0.00104537,0.0139309,1973,1093,4.86005,-0.792659
756,-69,4.85022,0.789551,-0.00101319,0.00185535,-0.00128253,0.00234514,-0.00150298,-1.206,0.00223938,0.0142711,1980,1093,4.85026,-0.789533
763,-69,4.84949,0.788696,-0.000803036,0.00417874,-0.00255511,0.0052562,-0.00188049,-1.17173,0.00427125,0.0133364,1987,1093,4.84946,-0.7887
770,-69,4.86792,0.780273,-0.000643866,0.00677923,-0.00400913,0.00853107,-0.00239571,-1.15884,0.0066318,0.0125554,1994,1093,4.8679,-0.780334
777,-69,4.8551,0.733398,-0.000417562,0.0106617,-0.00590771,0.0132207,-0.00297661,-1.16203,0.00995547,0.0172025,2001,1093,4.8551,-0.733411
784,-69,4.85535,0.674316,-8.28279e-05,0.0163721,-0.00841067,0.0199102,-0.00362102,-1.17259,0.0146306,0.0305427,2008,1093,4.8553,-0.674312
791,-69,4.8512,0.652832,0.000545383,0.0246453,-0.0117291,0.0294112,-0.00422054,-1.18484,0.0211551,0.0458628,2015,1093,4.85122,-0.652799
798,-69,4.9436,0.790771,0,0,0,0,0,0,0,-1,2022,1093,4.94356,-0.790818
805,-69,4.39478,1.53406,0.00334053,0.0530463,-0.0216718,0.0611682,-0.00478134,-1.21223,0.0424624,0.0473276,2029,1093,4.39475,-1.53407
812,-69,4.53137,1.36731,0.00611749,0.0763586,-0.0287637,0.0866341,-0.00415805,-1.22769,0.0591908,0.0476842,2036,1093,4.53142,-1.36727
-700,-76,0,0,0,0,0,0,0,0,0,-1,524,1100,0,0
-693,-76,-5.32935,3.49512,0,0,0,0,0,0,0,-1,531,1100,-5.32935,-3.49511
-686,-76,-0.790283,0.355225,0,0,0,0,0,0,0,-1,538,1100,-0.790313,-0.355265
-679,-76,-0.720398,0.365112,0.0595076,0.0265874,-0.0232963,0.0715721,0.0145229,-0.477842,0.043686,0.0456186,545,1100,-0.720407,-0.365054
-672,-76,-0.766602,0.452393,0.0445949,0.0210886,-0.0149587,0.0518654,0.0138181,-0.452417,0.0310145,0.0442708,552,1100,-0.766608,-0.452339
-665,-76,-0.768372,0.600952,0.0320267,0.0164217,-0.00888121,0.036046,0.0124024,-0.424983,0.0211458,0.0480491,559,1100,-0.768343,-0.600897
-658,-76,-0.859558,0.623291,0.0218824,0.012525,-0.0046546,0.0238033,0.010604,-0.391408,0.0137701,0.0463583,566,1100,-0.859586,-0.623244
-651,-76,-0.958374,0.660767,0.0140969,0.00933201,-0.00188871,0.0147547,0.00867418,-0.335156,0.0085624,0.027713,573,1100,-0.95837,-0.660718
-644,-76,-0.982666,0.710693,0.00847662,0.00677097,-0.000257383,0.00851461,0.00673298,-0.146554,0.00518557,0.0101231,580,1100,-0.982684,-0.710683
-637,-76,-0.98114,0.712524,0.00445552,0.00462146,0.000965433,0.00550748,0.0035695,0.828265,0.00322592,0.0135486,587,1100,-0.981126,-0.712507
-630,-76,-1.00317,0.719849,0.000720741,0.0023877,0.00226353,0.00396633,-0.000857889,0.961805,0.00297175,0.0145454,594,1100,-1.00319,-0.719887
-623,-76,-0.995117,0.743774,-0.00152913,0.00199525,0.00138311,0.00247322,-0.0020071,1.23807,0.00259138,0.0124926,601,1100,-0.99509,-0.743772
-616,-76,-0.981323,0.760376,-0.00145225,0.000883718,0.000827607,0.00114721,-0.00171574,1.26257,0.00166375,0.0111806,608,1100,-0.981339,-0.760324
-609,-76,-0.995239,0.743774,-0.000371333,0.000643105,-5.11641e-05,0.000645679,-0.000373907,-1.52053,0.000595588,0.0117393,615,1100,-0.99527,-0.743777
-602,-76,-1.00092,0.775146,0.000652041,0.000354755,-0.00079798,0.0013151,-0.000308308,-0.693316,0.000995548,0.0161618,622,1100,-1.00089,-0.775155
-595,-76,-0.987122,0.79895,0.00115195,0.000257572,-0.00105044,0.00184643,-0.000436904,-0.584159,0.00139951,0.0208408,629,1100,-0.987102,-0.798993
-588,-76,-0.993958,0.782959,0.00151425,0.000320364,-0.00113895,0.00220321,-0.000368595,-0.54402,0.00160584,0.0220765,636,1100,-0.993963,-0.782908
-581,-76,-1.01111,0.746582,0.00199703,0.000447201,-0.00128049,0.00271883,-0.000274601,-0.513293,0.00191067,0.0263042,643,1100,-1.01111,-0.746573
-574,-76,-1.00726,0.614502,0.00250924,0.000564302,-0.00136717,0.00321452,-0.000140978,-0.476263,0.00219152,0.0336,650,1100,-1.00727,-0.61453
-567,-76,-1.00378,0.396851,0.00298248,0.000718395,-0.00129976,0.00357407,0.00012681,-0.427128,0.00234159,0.0386276,657,1100,-1.00379,-0.396799
-560,-76,-0.958435,0.500122,0.00344713,0.000899071,-0.00109781,0.00385487,0.000491332,-0.35562,0.0024228,0.0394566,664,1100,-0.958418,-0.500159
-553,-76,-0.782532,0.49231,0.00389998,0.00110399,-0.000771358,0.00409867,0.000905307,-0.252097,0.00248624,0.0400958,671,1100,-0.782519,-0.492291
-546,-76,-0.790894,0.474731,0.00431304,0.00133,-0.000320713,0.00434713,0.00129591,-0.1059,0.00257711,0.0420376,678,1100,-0.790885,-0.474672
-539,-76,-0.7948,0.716064,0.00472446,0.00156883,0.000203224,0.0047375,0.0015558,0.0640479,0.00278837,0.0431171,685,1100,-0.79477,-0.716005
-532,-76,-0.741699,0.705688,0.00505788,0.00180165,0.000628475,0.00517497,0.00168456,0.184195,0.00304781,0.039646,692,1100,-0.741673,-0.705663
-525,-76,0,0,0,0,0,0,0,0,0,-1,699,1100,0,0
-518,-76,0,0,0,0,0,0,0,0,0,-1,706,1100,0,0
-511,-76,0,0,0,0,0,0,0,0,0,-1,713,1100,0,0
-504,-76,0,0,0,0,0,0,0,0,0,-1,720,1100,0,0
-497,-76,0,0,0,0,0,0,0,0,0,-1,727,1100,0,0
-490,-76,0,0,0,0,0,0,0,0,0,-1,734,1100,0,0
-483,-76,0,0,0,0,0,0,0,0,0,-1,741,1100,0,0
-476,-76,0,0,0,0,0,0,0,0,0,-1,748,1100,0,0
-469,-76,0,0,0,0,0,0,0,0,0,-1,755,1100,0,0
-462,-76,0,0,0,0,0,0,0,0,0,-1,762,1100,0,0
-455,-76,0,0,0,0,0,0,0,0,0,-1,769,1100,0,0
-448,-76,0,0,0,0,0,0,0,0,0,-1,776,1100,0,0
-441,-76,0,0,0,0,0,0,0,0,0,-1,783,1100,0,0
-434,-76,0,0,0,0,0,0,0,0,0,-1,790,1100,0,0
-427,-76,0,0,0,0,0,0,0,0,0,-1,797,1100,0,0
-420,-76,0,0,0,0,0,0,0,0,0,-1,804,1100,0,0
-413,-76,0,0,0,0,0,0,0,0,0,-1,811,1100,0,0
-406,-76,0,0,0,0,0,0,0,0,0,-1,818,1100,0,0
-399,-76,0,0,0,0,0,0,0,0,0,-1,825,1100,0,0
-392,-76,0,0,0,0,0,0,0,0,0,-1,832,1100,0,0
-385,-76,0,0,0,0,0,0,0,0,0,-1,839,1100,0,0
-378,-76,0,0,0,0,0,0,0,0,0,-1,846,1100,0,0
-371,-76,0,0,0,0,0,0,0,0,0,-1,853,1100,0,0
-364,-76,0,0,0,0,0,0,0,0,0,-1,860,1100,0,0
-357,-76,0,0,0,0,0,0,0,0,0,-1,867,1100,0,0
-350,-76,0,0,0,0,0,0,0,0,0,-1,874,1100,0,0
-343,-76,0,0,0,0,0,0,0,0,0,-1,881,1100,0,0
-336,-76,0,0,0,0,0,0,0,0,0,-1,888,1100,0,0
-329,-76,0,0,0,0,0,0,0,0,0,-1,895,1100,0,0
-322,-76,0,0,0,0,0,0,0,0,0,-1,902,1100,0,0
-315,-76,0,0,0,0,0,0,0,0,0,-1,909,1100,0,0
-308,-76,0,0,0,0,0,0,0,0,0,-1,916,1100,0,0
-301,-76,0,0,0,0,0,0,0,0,0,-1,923,1100,0,0
-294,-76,0,0,0,0,0,0,0,0,0,-1,930,1100,0,0
-287,-76,0,0,0,0,0,0,0,0,0,-1,937,1100,0,0
-280,-76,0,0,0,0,0,0,0,0,0,-1,944,1100,0,0
-273,-76,0,0,0,0,0,0,0,0,0,-1,951,1100,0,0
-266,-76,0,0,0,0,0,0,0,0,0,-1,958,1100,0,0
-259,-76,0,0,0,0,0,0,0,0,0,-1,965,1100,0,0
-252,-76,0,0,0,0,0,0,0,0,0,-1,972,1100,0,0
-245,-76,0,0,0,0,0,0,0,0,0,-1,979,1100,0,0
-238,-76,0,0,0,0,0,0,0,0,0,-1,986,1100,0,0
-231,-76,0,0,0,0,0,0,0,0,0,-1,993,1100,0,0
-224,-76,0,0,0,0,0,0,0,0,0,-1,1000,1100,0,0
-217,-76,0,0,0,0,0,0,0,0,0,-1,1007,1100,0,0
-210,-76,0,0,0,0,0,0,0,0,0,-1,1014,1100,0,0
-203,-76,0,0,0,0,0,0,0,0,0,-1,1021,1100,0,0
-196,-76,0,0,0,0,0,0,0,0,0,-1,1028,1100,0,0
-189,-76,0,0,0,0,0,0,0,0,0,-1,1035,1100,0,0
-182,-76,0,0,0,0,0,0,0,0,0,-1,1042,1100,0,0
-175,-76,0,0,0,0,0,0,0,0,0,-1,1049,1100,0,0
-168,-76,0,0,0,0,0,0,0,0,0,-1,1056,1100,0,0
-161,-76,0,0,0,0,0,0,0,0,0,-1,1063,1100,0,0
-154,-76,0,0,0,0,0,0,0,0,0,-1,1070,1100,0,0
-147,-76,0,0,0,0,0,0,0,0,0,-1,1077,1100,0,0
-140,-76,0,0,0,0,0,0,0,0,0,-1,1084,1100,0,0
-133,-76,0,0,0,0,0,0,0,0,0,-1,1091,1100,0,0
-126,-76,0,0,0,0,0,0,0,0,0,-1,1098,1100,0,0
-119,-76,0,0,0,0,0,0,0,0,0,-1,1105,1100,0,0
-112,-76,0,0,0,0,0,0,0,0,0,-1,1112,1100,0,0
-105,-76,0,0,0,0,0,0,0,0,0,-1,1119,1100,0,0
-98,-76,0,0,0,0,0,0,0,0,0,-1,1126,1100,0,0
-91,-76,0,0,0,0,0,0,0,0,0,-1,1133,1100,0,0
-84,-76,0,0,0,0,0,0,0,0,0,-1,1140,1100,0,0
-77,-76,0,0,0,0,0,0,0,0,0,-1,1147,1100,0,0
-70,-76,0,0,0,0,0,0,0,0,0,-1,1154,1100,0,0
-63,-76,0,0,0,0,0,0,0,0,0,-1,1161,1100,0,0
-56,-76,0,0,0,0,0,0,0,0,0,-1,1168,1100,0,0
-49,-76,0,0,0,0,0,0,0,0,0,-1,1175,1100,0,0
-42,-76,0,0,0,0,0,0,0,0,0,-1,1182,1100,0,0
-35,-76,0,0,0,0,0,0,0,0,0,-1,1189,1100,0,0
-28,-76,0,0,0,0,0,0,0,0,0,-1,1196,1100,0,0
-21,-76,0,0,0,0,0,0,0,0,0,-1,1203,1100,0,0
-14,-76,0,0,0,0,0,0,0,0,0,-1,1210,1100,0,0
-7,-76,0,0,0,0,0,0,0,0,0,-1,1217,1100,0,0
0,-76,0,0,0,0,0,0,0,0,0,-1,1224,1100,0,0
7,-76,0,0,0,0,0,0,0,0,0,-1,1231,1100,0,0
14,-76,0,0,0,0,0,0,0,0,0,-1,1238,1100,0,0
21,-76,0,0,0,0,0,0,0,0,0,-1,1245,1100,0,0
28,-76,0,0,0,0,0,0,0,0,0,-1,1252,1100,0,0
35,-76,0,0,0,0,0,0,0,0,0,-1,1259,1100,0,0
42,-76,0,0,0,0,0,0,0,0,0,-1,1266,1100,0,0
49,-76,0,0,0,0,0,0,0,0,0,-1,1273,1100,0,0
56,-76,0,0,0,0,0,0,0,0,0,-1,1280,1100,0,0
63,-76,0,0,0,0,0,0,0,0,0,-1,1287,1100,0,0
70,-76,0,0,0,0,0,0,0,0,0,-1,1294,1100,0,0
77,-76,0,0,0,0,0,0,0,0,0,-1,1301,1100,0,0
84,-76,0,0,0,0,0,0,0,0,0,-1,1308,1100,0,0
91,-76,0,0,0,0,0,0,0,0,0,-1,1315,1100,0,0
98,-76,0,0,0,0,0,0,0,0,0,-1,1322,1100,0,0
105,-76,0,0,0,0,0,0,0,0,0,-1,1329,1100,0,0
112,-76,0,0,0,0,0,0,0,0,0,-1,1336,1100,0,0
119,-76,0,0,0,0,0,0,0,0,0,-1,1343,1100,0,0
126,-76,0,0,0,0,0,0,0,0,0,-1,1350,1100,0,0
133,-76,0,0,0,0,0,0,0,0,0,-1,1357,1100,0,0
140,-76,0,0,0,0,0,0,0,0,0,-1,1364,1100,0,0
147,-76,0,0,0,0,0,0,0,0,0,-1,1371,1100,0,0
154,-76,0,0,0,0,0,0,0,0,0,-1,1378,1100,0,0
161,-76,0,0,0,0,0,0,0,0,0,-1,1385,1100,0,0
168,-76,0,0,0,0,0,0,0,0,0,-1,1392,1100,0,0
175,-76,0,0,0,0,0,0,0,0,0,-1,1399,1100,0,0
182,-76,0,0,0,0,0,0,0,0,0,-1,1406,1100,0,0
189,-76,0,0,0,0,0,0,0,0,0,-1,1413,1100,0,0
196,-76,0,0,0,0,0,0,0,0,0,-1,1420,1100,0,0
203,-76,0,0,0,0,0,0,0,0,0,-1,1427,1100,0,0
210,-76,0,0,0,0,0,0,0,0,0,-1,1434,1100,0,0
217,-76,0,0,0,0,0,0,0,0,0,-1,1441,1100,0,0
224,-76,0,0,0,0,0,0,0,0,0,-1,1448,1100,0,0
231,-76,0,0,0,0,0,0,0,0,0,-1,1455,1100,0,0
238,-76,0,0,0,0,0,0,0,0,0,-1,1462,1100,0,0
245,-76,0,0,0,0,0,0,0,0,0,-1,1469,1100,0,0
252,-76,0,0,0,0,0,0,0,0,0,-1,1476,1100,0,0
259,-76,0,0,0,0,0,0,0,0,0,-1,1483,1100,0,0
266,-76,0,0,0,0,0,0,0,0,0,-1,1490,1100,0,0
273,-76,0,0,0,0,0,0,0,0,0,-1,1497,1100,0,0
280,-76,0,0,0,0,0,0,0,0,0,-1,1504,1100,0,0
287,-76,0,0,0,0,0,0,0,0,0,-1,1511,1100,0,0
294,-76,0,0,0,0,0,0,0,0,0,-1,1518,1100,0,0
301,-76,0,0,0,0,0,0,0,0,0,-1,1525,1100,0,0
308,-76,0,0,0,0,0,0,0,0,0,-1,1532,1100,0,0
315,-76,0,0,0,0,0,0,0,0,0,-1,1539,1100,0,0
322,-76,0,0,0,0,0,0,0,0,0,-1,1546,1100,0,0
329,-76,0,0,0,0,0,0,0,0,0,-1,1553,1100,0,0
336,-76,0,0,0,0,0,0,0,0,0,-1,1560,1100,0,0
343,-76,0,0,0,0,0,0,0,0,0,-1,1567,1100,0,0
350,-76,0,0,0,0,0,0,0,0,0,-1,1574,1100,0,0
357,-76,0,0,0,0,0,0,0,0,0,-1,1581,1100,0,0
364,-76,0,0,0,0,0,0,0,0,0,-1,1588,1100,0,0
371,-76,0,0,0,0,0,0,0,0,0,-1,1595,1100,0,0
378,-76,0,0,0,0,0,0,0,0,0,-1,1602,1100,0,0
385,-76,0,0,0,0,0,0,0,0,0,-1,1609,1100,0,0
392,-76,0,0,0,0,0,0,0,0,0,-1,1616,1100,0,0
399,-76,0,0,0,0,0,0,0,0,0,-1,1623,1100,0,0
406,-76,0,0,0,0,0,0,0,0,0,-1,1630,1100,0,0
413,-76,0,0,0,0,0,0,0,0,0,-1,1637,1100,0,0
420,-76,0,0,0,0,0,0,0,0,0,-1,1644,1100,0,0
427,-76,0,0,0,0,0,0,0,0,0,-1,1651,1100,0,0
434,-76,0,0,0,0,0,0,0,0,0,-1,1658,1100,0,0
441,-76,0,0,0,0,0,0,0,0,0,-1,1665,1100,0,0
448,-76,0,0,0,0,0,0,0,0,0,-1,1672,1100,0,0
455,-76,0,0,0,0,0,0,0,0,0,-1,1679,1100,0,0
462,-76,0,0,0,0,0,0,0,0,0,-1,1686,1100,0,0
469,-76,0,0,0,0,0,0,0,0,0,-1,1693,1100,0,0
476,-76,0,0,0,0,0,0,0,0,0,-1,1700,1100,0,0
483,-76,0,0,0,0,0,0,0,0,0,-1,1707,1100,0,0
490,-76,0,0,0,0,0,0,0,0,0,-1,1714,1100,0,0
497,-76,0,0,0,0,0,0,0,0,0,-1,1721,1100,0,0
504,-76,0,0,0,0,0,0,0,0,0,-1,1728,1100,0,0
511,-76,0,0,0,0,0,0,0,0,0,-1,1735,1100,0,0
518,-76,0,0,0,0,0,0,0,0,0,-1,1742,1100,0,0
525,-76,0,0,0,0,0,0,0,0,0,-1,1749,1100,0,0
532,-76,0,0,0,0,0,0,0,0,0,-1,1756,1100,0,0
539,-76,0,0,0,0,0,0,0,0,0,-1,1763,1100,0,0
546,-76,0,0,0,0,0,0,0,0,0,-1,1770,1100,0,0
553,-76,0,0,0,0,0,0,0,0,0,-1,1777,1100,0,0
560,-76,0,0,0,0,0,0,0,0,0,-1,1784,1100,0,0
567,-76,0,0,0,0,0,0,0,0,0,-1,1791,1100,0,0
574,-76,0,0,0,0,0,0,0,0,0,-1,1798,1100,0,0
581,-76,0,0,0,0,0,0,0,0,0,-1,1805,1100,0,0
588,-76,0,0,0,0,0,0,0,0,0,-1,1812,1100,0,0
595,-76,0,0,0,0,0,0,0,0,0,-1,1819,1100,0,0
602,-76,0,0,0,0,0,0,0,0,0,-1,1826,1100,0,0
609,-76,0,0,0,0,0,0,0,0,0,-1,1833,1100,0,0
616,-76,0,0,0,0,0,0,0,0,0,-1,1840,1100,0,0
623,-76,0,0,0,0,0,0,0,0,0,-1,1847,1100,0,0
630,-76,0,0,0,0,0,0,0,0,0,-1,1854,1100,0,0
637,-76,0,0,0,0,0,0,0,0,0,-1,1861,1100,0,0
644,-76,0,0,0,0,0,0,0,0,0,-1,1868,1100,0,0
651,-76,4.91895,0.503784,0.00168819,-0.00162243,0.00312031,0.00356507,-0.00349931,0.541525,0.00407868,0.0396167,1875,1100,4.91894,-0.503788
658,-76,4.79761,0.59375,0.00137691,-0.00105738,0.00210406,0.00259051,-0.00227098,0.523177,0.00280881,0.041024,1882,1100,4.79761,-0.593757
665,-76,5.01758,0.688843,0.00107867,-0.000759793,0.00143226,0.00186131,-0.00154243,0.500102,0.00196803,0.0402453,1889,1100,5.01761,-0.688882
672,-76,5.00537,0.693726,0.000739068,-0.000635938,0.00104955,0.00130624,-0.00120312,0.495442,0.00144919,0.0380793,1896,1100,5.00539,-0.693671
679,-76,4.93799,0.700928,0.000369963,-0.000603025,0.000853389,0.000865788,-0.00109885,0.526336,0.00113694,0.0373584,1903,1100,4.93803,-0.700983
686,-76,4.97217,0.615356,4.81358e-05,-0.000608122,0.00078462,0.000570476,-0.00113046,0.587349,0.000999619,0.0365414,1910,1100,4.97215,-0.615317
693,-76,4.94299,0.550049,-0.000240126,-0.000629929,0.000795371,0.000383875,-0.00125393,0.665243,0.000989063,0.0374228,1917,1100,4.94294,-0.550084
700,-76,4.95129,0.609009,-0.000567669,-0.000570672,0.000866737,0.000297568,-0.00143591,0.784532,0.00107034,0.0304361,1924,1100,4.95127,-0.609008
707,-76,4.953,0.712646,-0.000749532,-0.000602507,0.000829297,0.00015653,-0.00150857,0.829605,0.00106174,0.020069,1931,1100,4.953,-0.71259
714,-76,4.94983,0.709473,-0.000905153,-0.000587725,0.000772877,4.25658e-05,-0.00153544,0.886668,0.00103811,0.0234734,1938,1100,4.94983,-0.709507
721,-76,4.92078,0.766846,-0.00104629,-0.00056585,0.000811018,3.97747e-05,-0.00165192,0.92938,0.00111477,0.0217318,1945,1100,4.92073,-0.766808
728,-76,4.88281,0.795166,-0.00100741,-0.00051194,0.000802067,7.97795e-05,-0.00159913,0.935186,0.00109365,0.0170088,1952,1100,4.88285,-0.795177
735,-76,4.84143,0.780884,-0.00104821,-0.000413051,0.000620454,-3.36214e-05,-0.00142763,1.02194,0.00094075,0.0150857,1959,1100,4.84138,-0.780931
742,-76,4.86389,0.802124,-0.00119492,-0.000143085,0.000279259,-7.35407e-05,-0.00126446,1.32673,0.000819563,0.0108552,1966,1100,4.86386,-0.802141
749,-76,4.84534,0.793091,-0.00122243,0.000442963,-0.000291148,0.000492395,-0.00127186,-1.40262,0.00105121,0.0131501,1973,1100,4.84533,-0.793139
756,-76,4.83984,0.782349,-0.00108903,0.00174561,-0.00128115,0.00223883,-0.00158225,-1.20331,0.00221693,0.01447,1980,1100,4.83988,-0.782304
763,-76,4.85071,0.767334,-0.000875902,0.00399521,-0.00258757,0.00511317,-0.00199386,-1.16297,0.00423294,0.0134795,1987,1100,4.85074,-0.767386
770,-76,4.87158,0.764282,-0.000708203,0.00649558,-0.0040608,0.00832174,-0.00253436,-1.14819,0.00655793,0.0124881,1994,1100,4.87159,-0.764274
777,-76,4.87573,0.752319,-0.000498011,0.0101965,-0.00597659,0.0128687,-0.00317029,-1.15034,0.00980823,0.0159354,2001,1100,4.8757,-0.752372
784,-76,4.86609,0.780762,-0.000194127,0.0155901,-0.00849416,0.0192926,-0.00389668,-1.15973,0.0143382,0.0286163,2008,1100,4.86614,-0.780791
791,-76,4.79773,0.77771,0.000385301,0.0233224,-0.011815,0.0283196,-0.00461195,-1.17066,0.02059,0.0402168,2015,1100,4.79777,-0.777749
798,-76,4.81335,0.563721,0.00140328,0.0342053,-0.0161277,0.0408063,-0.00519781,-1.1823,0.029092,0.0455333,2022,1100,4.81338,-0.563681
805,-76,4.74744,0.480957,0.00293572,0.0493312,-0.0216435,0.05786,-0.00559309,-1.19542,0.0405664,0.047627,2029,1100,4.74744,-0.480991
812,-76,4.91602,0.602295,0.00545471,0.0702598,-0.0285821,0.0810645,-0.00534994,-1.20938,0.0559117,0.0483739,2036,1100,4.91607,-0.602236
-700,-83,0,0,0,0,0,0,0,0,0,-1,524,1107,0,0
-693,-83,-5.21851,3.74182,0.110049,0.0396314,-0.0460912,0.13284,0.0168396,-0.459232,0.0835149,0.048207,531,1107,-5.21852,-3.74183
-686,-83,-4.40942,3.96545,0.0881725,0.0326585,-0.0323315,0.103027,0.0178035,-0.43069,0.0635867,0.0491805,538,1107,-4.40945,-3.96544
-679,-83,-0.048645,-0.670166,0.0684534,0.0265232,-0.0219143,0.077816,0.0171606,-0.403765,0.0472085,0.0446891,545,1107,-0.0486634,0.670211
-672,-83,-0.34491,-0.466064,0.0512899,0.0212278,-0.0140946,0.0568644,0.0156533,-0.376629,0.033918,0.0423373,552,1107,-0.344904,0.466011
-665,-83,-0.304871,0.000610352,0.0369251,0.0167113,-0.008376,0.0399448,0.0136916,-0.346011,0.0234392,0.0414113,559,1107,-0.304881,-0.00055662
-658,-83,-0.852539,0.360718,0,0,0,0,0,0,0,-1,566,1107,-0.85252,-0.360751
-651,-83,-0.952698,0.595093,0.0164867,0.00974224,-0.00173118,0.0169051,0.00932383,-0.237142,0.00977741,0.0296607,573,1107,-0.952719,-0.595034
-644,-83,-0.963928,0.674561,0.0100414,0.00716468,-0.000156829,0.0100499,0.00715616,-0.054302,0.00597376,0.0142944,580,1107,-0.963933,-0.674535
-637,-83,-0.965515,0.722412,0.005346,0.00496068,0.00104844,0.00621933,0.00408734,0.694532,0.00364941,0.0116757,587,1107,-0.965536,-0.722352
-630,-83,-1.00745,0.745117,0.00105945,0.00262039,0.00225166,0.00422301,-0.00054317,0.952228,0.00301276,0.0168574,594,1107,-1.00743,-0.745103
-623,-83,-0.99469,0.756958,-0.00158367,0.00231794,0.00136877,0.00275023,-0.00201597,1.26488,0.00276263,0.0152483,601,1107,-0.994697,-0.756913
-616,-83,-0.969116,0.758911,-0.00168147,0.00102442,0.00091696,0.00130588,-0.00196293,1.27298,0.00189991,0.0108179,608,1107,-0.969094,-0.758946
-609,-83,-0.976135,0.76355,-0.000523137,0.000450271,-2.42119e-05,0.000450873,-0.000523739,-1.54594,0.000563217,0.0103943,615,1107,-0.976107,-0.763489
-602,-83,-0.985046,0.785522,0.000551157,5.69849e-05,-0.000780792,0.00112303,-0.000514884,-0.632156,0.000967131,0.0128806,622,1107,-0.98505,-0.785502
-595,-83,-0.963745,0.823242,0.00107115,-0.000158854,-0.0010594,0.00168112,-0.000768826,-0.522413,0.0014468,0.0172438,629,1107,-0.963756,-0.823289
-588,-83,-0.964844,0.783447,0.00145192,-0.000198357,-0.00116319,0.00205292,-0.000799356,-0.476903,0.00169895,0.0226661,636,1107,-0.964834,-0.783415
-581,-83,-1.01874,0.75415,0.00194878,-0.000192692,-0.00131479,0.00257367,-0.000817581,-0.443674,0.00204357,0.0272681,643,1107,-1.01871,-0.754117
-574,-83,-0.998535,0.710693,0.00248553,-0.000186245,-0.0014213,0.0031002,-0.000800915,-0.408182,0.00237914,0.0348831,650,1107,-0.998536,-0.710661
-567,-83,-0.88147,0.602661,0.00298986,-0.000140203,-0.00136861,0.00350387,-0.000654213,-0.359271,0.00258176,0.0397277,657,1107,-0.881471,-0.602675
-560,-83,-0.752502,0.684448,0.00349438,-3.57866e-05,-0.00119724,0.00386211,-0.000403522,-0.298005,0.00271925,0.0401745,664,1107,-0.752478,-0.684457
-553,-83,-0.699219,0.479126,0.00400141,0.000138691,-0.000928969,0.00421321,-7.31086e-05,-0.224163,0.00283349,0.0400666,671,1107,-0.699222,-0.479075
-546,-83,-0.712952,0.49939,0.00448507,0.000395288,-0.000583344,0.00456665,0.00031371,-0.138944,0.00294544,0.0406565,678,1107,-0.712959,-0.499363
-539,-83,-0.646667,0.46936,0.00499021,0.000743584,-0.000230389,0.00500268,0.000731121,-0.0540408,0.0031201,0.0420427,685,1107,-0.646662,-0.469358
-532,-83,-0.720276,0.556152,0.00544863,0.00118104,-8.24523e-05,0.00545023,0.00117945,-0.0193109,0.00331111,0.0403947,692,1107,-0.720306,-0.55612
-525,-83,0,0,0,0,0,0,0,0,0,-1,699,1107,0,0
-518,-83,0,0,0,0,0,0,0,0,0,-1,706,1107,0,0
-511,-83,0,0,0,0,0,0,0,0,0,-1,713,1107,0,0
-504,-83,0,0,0,0,0,0,0,0,0,-1,720,1107,0,0
-497,-83,0,0,0,0,0,0,0,0,0,-1,727,1107,0,0
-490,-83,0,0,0,0,0,0,0,0,0,-1,734,1107,0,0
-483,-83,0,0,0,0,0,0,0,0,0,-1,741,1107,0,0
-476,-83,0,0,0,0,0,0,0,0,0,-1,748,1107,0,0
-469,-83,0,0,0,0,0,0,0,0,0,-1,755,1107,0,0
-462,-83,0,0,0,0,0,0,0,0,0,-1,762,1107,0,0
-455,-83,0,0,0,0,0,0,0,0,0,-1,769,1107,0,0
-448,-83,0,0,0,0,0,0,0,0,0,-1,776,1107,0,0
-441,-83,0,0,0,0,0,0,0,0,0,-1,783,1107,0,0
-434,-83,0,0,0,0,0,0,0,0,0,-1,790,1107,0,0
-427,-83,0,0,0,0,0,0,0,0,0,-1,797,1107,0,0
-420,-83,0,0,0,0,0,0,0,0,0,-1,804,1107,0,0
-413,-83,0,0,0,0,0,0,0,0,0,-1,811,1107,0,0
-406,-83,0,0,0,0,0,0,0,0,0,-1,818,1107,0,0
-399,-83,0,0,0,0,0,0,0,0,0,-1,825,1107,0,0
-392,-83,0,0,0,0,0,0,0,0,0,-1,832,1107,0,0
-385,-83,0,0,0,0,0,0,0,0,0,-1,839,1107,0,0
-378,-83,0,0,0,0,0,0,0,0,0,-1,846,1107,0,0
-371,-83,0,0,0,0,0,0,0,0,0,-1,853,1107,0,0
-364,-83,0,0,0,0,0,0,0,0,0,-1,860,1107,0,0
-357,-83,0,0,0,0,0,0,0,0,0,-1,867,1107,0,0
-350,-83,0,0,0,0,0,0,0,0,0,-1,874,1107,0,0
-343,-83,0,0,0,0,0,0,0,0,0,-1,881,1107,0,0
-336,-83,0,0,0,0,0,0,0,0,0,-1,888,1107,0,0
-329,-83,0,0,0,0,0,0,0,0,0,-1,895,1107,0,0
-322,-83,0,0,0,0,0,0,0,0,0,-1,902,1107,0,0
-315,-83,0,0,0,0,0,0,0,0,0,-1,909,1107,0,0
-308,-83,0,0,0,0,0,0,0,0,0,-1,916,1107,0,0
-301,-83,0,0,0,0,0,0,0,0,0,-1,923,1107,0,0
-294,-83,0,0,0,0,0,0,0,0,0,-1,930,1107,0,0
-287,-83,0,0,0,0,0,0,0,0,0,-1,937,1107,0,0
-280,-83,0,0,0,0,0,0,0,0,0,-1,944,1107,0,0
-273,-83,0,0,0,0,0,0,0,0,0,-1,951,1107,0,0
-266,-83,0,0,0,0,0,0,0,0,0,-1,958,1107,0,0
-259,-83,0,0,0,0,0,0,0,0,0,-1,965,1107,0,0
-252,-83,0,0,0,0,0,0,0,0,0,-1,972,1107,0,0
-245,-83,0,0,0,0,0,0,0,0,0,-1,979,1107,0,0
-238,-83,0,0,0,0,0,0,0,0,0,-1,986,1107,0,0
-231,-83,0,0,0,0,0,0,0,0,0,-1,993,1107,0,0
-224,-83,0,0,0,0,0,0,0,0,0,-1,1000,1107,0,0
-217,-83,0,0,0,0,0,0,0,0,0,-1,1007,1107,0,0
-210,-83,0,0,0,0,0,0,0,0,0,-1,1014,1107,0,0
-203,-83,0,0,0,0,0,0,0,0,0,-1,1021,1107,0,0
-196,-83,0,0,0,0,0,0,0,0,0,-1,1028,1107,0,0
-189,-83,0,0,0,0,0,0,0,0,0,-1,1035,1107,0,0
-182,-83,0,0,0,0,0,0,0,0,0,-1,1042,1107,0,0
-175,-83,0,0,0,0,0,0,0,0,0,-1,1049,1107,0,0
-168,-83,0,0,0,0,0,0,0,0,0,-1,1056,1107,0,0
-161,-83,0,0,0,0,0,0,0,0,0,-1,1063,1107,0,0
-154,-83,0,0,0,0,0,0,0,0,0,-1,1070,1107,0,0
-147,-83,0,0,0,0,0,0,0,0,0,-1,1077,1107,0,0
-140,-83,0,0,0,0,0,0,0,0,0,-1,1084,1107,0,0
-133,-83,0,0,0,0,0,0,0,0,0,-1,1091,1107,0,0
-126,-83,0,0,0,0,0,0,0,0,0,-1,1098,1107,0,0
-119,-83,0,0,0,0,0,0,0,0,0,-1,1105,1107,0,0
-112,-83,0,0,0,0,0,0,0,0,0,-1,1112,1107,0,0
-105,-83,0,0,0,0,0,0,0,0,0,-1,1119,1107,0,0
-98,-83,0,0,0,0,0,0,0,0,0,-1,1126,1107,0,0
-91,-83,0,0,0,0,0,0,0,0,0,-1,1133,1107,0,0
-84,-83,0,0,0,0,0,0,0,0,0,-1,1140,1107,0,0
-77,-83,0,0,0,0,0,0,0,0,0,-1,1147,1107,0,0
-70,-83,0,0,0,0,0,0,0,0,0,-1,1154,1107,0,0
-63,-83,0,0,0,0,0,0,0,0,0,-1,1161,1107,0,0
-56,-83,0,0,0,0,0,0,0,0,0,-1,1168,1107,0,0
-49,-83,0,0,0,0,0,0,0,0,0,-1,1175,1107,0,0
-42,-83,0,0,0,0,0,0,0,0,0,-1,1182,1107,0,0
-35,-83,0,0,0,0,0,0,0,0,0,-1,1189,1107,0,0
-28,-83,0,0,0,0,0,0,0,0,0,-1,1196,1107,0,0
-21,-83,0,0,0,0,0,0,0,0,0,-1,1203,1107,0,0
-14,-83,0,0,0,0,0,0,0,0,0,-1,1210,1107,0,0
-7,-83,0,0,0,0,0,0,0,0,0,-1,1217,1107,0,0
0,-83,0,0,0,0,0,0,0,0,0,-1,1224,1107,0,0
7,-83,0,0,0,0,0,0,0,0,0,-1,1231,1107,0,0
14,-83,0,0,0,0,0,0,0,0,0,-1,1238,1107,0,0
21,-83,0,0,0,0,0,0,0,0,0,-1,1245,1107,0,0
28,-83,0,0,0,0,0,0,0,0,0,-1,1252,1107,0,0
35,-83,0,0,0,0,0,0,0,0,0,-1,1259,1107,0,0
42,-83,0,0,0,0,0,0,0,0,0,-1,1266,1107,0,0
49,-83,0,0,0,0,0,0,0,0,0,-1,1273,1107,0,0
56,-83,0,0,0,0,0,0,0,0,0,-1,1280,1107,0,0
63,-83,0,0,0,0,0,0,0,0,0,-1,1287,1107,0,0
70,-83,0,0,0,0,0,0,0,0,0,-1,1294,1107,0,0
77,-83,0,0,0,0,0,0,0,0,0,-1,1301,1107,0,0
84,-83,0,0,0,0,0,0,0,0,0,-1,1308,1107,0,0
91,-83,0,0,0,0,0,0,0,0,0,-1,1315,1107,0,0
98,-83,0,0,0,0,0,0,0,0,0,-1,1322,1107,0,0
105,-83,0,0,0,0,0,0,0,0,0,-1,1329,1107,0,0
112,-83,0,0,0,0,0,0,0,0,0,-1,1336,1107,0,0
119,-83,0,0,0,0,0,0,0,0,0,-1,1343,1107,0,0
126,-83,0,0,0,0,0,0,0,0,0,-1,1350,1107,0,0
133,-83,0,0,0,0,0,0,0,0,0,-1,1357,1107,0,0
140,-83,0,0,0,0,0,0,0,0,0,-1,1364,1107,0,0
147,-83,0,0,0,0,0,0,0,0,0,-1,1371,1107,0,0
154,-83,0,0,0,0,0,0,0,0,0,-1,1378,1107,0,0
161,-83,0,0,0,0,0,0,0,0,0,-1,1385,1107,0,0
168,-83,0,0,0,0,0,0,0,0,0,-1,1392,1107,0,0
175,-83,0,0,0,0,0,0,0,0,0,-1,1399,1107,0,0
182,-83,0,0,0,0,0,0,0,0,0,-1,1406,1107,0,0
189,-83,0,0,0,0,0,0,0,0,0,-1,1413,1107,0,0
196,-83,0,0,0,0,0,0,0,0,0,-1,1420,1107,0,0
203,-83,0,0,0,0,0,0,0,0,0,-1,1427,1107,0,0
210,-83,0,0,0,0,0,0,0,0,0,-1,1434,1107,0,0
217,-83,0,0,0,0,0,0,0,0,0,-1,1441,1107,0,0
224,-83,0,0,0,0,0,0,0,0,0,-1,1448,1107,0,0
231,-83,0,0,0,0,0,0,0,0,0,-1,1455,1107,0,0
238,-83,0,0,0,0,0,0,0,0,0,-1,1462,1107,0,0
245,-83,0,0,0,0,0,0,0,0,0,-1,1469,1107,0,0
252,-83,0,0,0,0,0,0,0,0,0,-1,1476,1107,0,0
259,-83,0,0,0,0,0,0,0,0,0,-1,1483,1107,0,0
266,-83,0,0,0,0,0,0,0,0,0,-1,1490,1107,0,0
273,-83,0,0,0,0,0,0,0,0,0,-1,1497,1107,0,0
280,-83,0,0,0,0,0,0,0,0,0,-1,1504,1107,0,0
287,-83,0,0,0,0,0,0,0,0,0,-1,1511,1107,0,0
294,-83,0,0,0,0,0,0,0,0,0,-1,1518,1107,0,0
301,-83,0,0,0,0,0,0,0,0,0,-1,1525,1107,0,0
308,-83,0,0,0,0,0,0,0,0,0,-1,1532,1107,0,0
315,-83,0,0,0,0,0,0,0,0,0,-1,1539,1107,0,0
322,-83,0,0,0,0,0,0,0,0,0,-1,1546,1107,0,0
329,-83,0,0,0,0,0,0,0,0,0,-1,1553,1107,0,0
336,-83,0,0,0,0,0,0,0,0,0,-1,1560,1107,0,0
343,-83,0,0,0,0,0,0,0,0,0,-1,1567,1107,0,0
350,-83,0,0,0,0,0,0,0,0,0,-1,1574,1107,0,0
357,-83,0,0,0,0,0,0,0,0,0,-1,1581,1107,0,0
364,-83,0,0,0,0,0,0,0,0,0,-1,1588,1107,0,0
371,-83,0,0,0,0,0,0,0,0,0,-1,1595,1107,0,0
378,-83,0,0,0,0,0,0,0,0,0,-1,1602,1107,0,0
385,-83,0,0,0,0,0,0,0,0,0,-1,1609,1107,0,0
392,-83,0,0,0,0,0,0,0,0,0,-1,1616,1107,0,0
399,-83,0,0,0,0,0,0,0,0,0,-1,1623,1107,0,0
406,-83,0,0,0,0,0,0,0,0,0,-1,1630,1107,0,0
413,-83,0,0,0,0,0,0,0,0,0,-1,1637,1107,0,0
420,-83,0,0,0,0,0,0,0,0,0,-1,1644,1107,0,0
427,-83,0,0,0,0,0,0,0,0,0,-1,1651,1107,0,0
434,-83,0,0,0,0,0,0,0,0,0,-1,1658,1107,0,0
441,-83,0,0,0,0,0,0,0,0,0,-1,1665,1107,0,0
448,-83,0,0,0,0,0,0,0,0,0,-1,1672,1107,0,0
455,-83,0,0,0,0,0,0,0,0,0,-1,1679,1107,0,0
462,-83,0,0,0,0,0,0,0,0,0,-1,1686,1107,0,0
469,-83,0,0,0,0,0,0,0,0,0,-1,1693,1107,0,0
476,-83,0,0,0,0,0,0,0,0,0,-1,1700,1107,0,0
483,-83,0,0,0,0,0,0,0,0,0,-1,1707,1107,0,0
490,-83,0,0,0,0,0,0,0,0,0,-1,1714,1107,0,0
497,-83,0,0,0,0,0,0,0,0,0,-1,1721,1107,0,0
504,-83,0,0,0,0,0,0,0,0,0,-1,1728,1107,0,0
511,-83,0,0,0,0,0,0,0,0,0,-1,1735,1107,0,0
518,-83,0,0,0,0,0,0,0,0,0,-1,1742,1107,0,0
525,-83,0,0,0,0,0,0,0,0,0,-1,1749,1107,0,0
532,-83,0,0,0,0,0,0,0,0,0,-1,1756,1107,0,0
539,-83,0,0,0,0,0,0,0,0,0,-1,1763,1107,0,0
546,-83,0,0,0,0,0,0,0,0,0,-1,1770,1107,0,0
553,-83,0,0,0,0,0,0,0,0,0,-1,1777,1107,0,0
560,-83,0,0,0,0,0,0,0,0,0,-1,1784,1107,0,0
567,-83,0,0,0,0,0,0,0,0,0,-1,1791,1107,0,0
574,-83,0,0,0,0,0,0,0,0,0,-1,1798,1107,0,0
581,-83,0,0,0,0,0,0,0,0,0,-1,1805,1107,0,0
588,-83,0,0,0,0,0,0,0,0,0,-1,1812,1107,0,0
595,-83,0,0,0,0,0,0,0,0,0,-1,1819,1107,0,0
602,-83,0,0,0,0,0,0,0,0,0,-1,1826,1107,0,0
609,-83,0,0,0,0,0,0,0,0,0,-1,1833,1107,0,0
616,-83,0,0,0,0,0,0,0,0,0,-1,1840,1107,0,0
623,-83,0,0,0,0,0,0,0,0,0,-1,1847,1107,0,0
630,-83,0,0,0,0,0,0,0,0,0,-1,1854,1107,0,0
637,-83,0,0,0,0,0,0,0,0,0,-1,1861,1107,0,0
644,-83,4.89893,0.490723,0.00298903,-0.00286357,0.00377691,0.00484062,-0.00471517,0.45581,0.0055172,0.0356764,1868,1107,4.89887,-0.490681
651,-83,4.89246,0.395996,0.00234519,-0.00177747,0.00258674,0.00359147,-0.00302375,0.448979,0.00382399,0.0415832,1875,1107,4.8924,-0.396046
658,-83,4.68518,0.585938,0.00196573,-0.00114778,0.00173911,0.00274306,-0.00192512,0.420335,0.00270893,0.0433397,1882,1107,4.68518,-0.585901
665,-83,4.77649,0.722412,0.00156429,-0.000805841,0.00119719,0.00206376,-0.0013053,0.395243,0.00196149,0.0406585,1889,1107,4.77644,-0.722359
672,-83,4.98279,0.663086,0.00109268,-0.000657514,0.000915324,0.00148392,-0.00104876,0.403931,0.00146942,0.0383023,1896,1107,4.98277,-0.663124
679,-83,4.91931,0.658203,0.00060396,-0.000612908,0.000789008,0.000991882,-0.00100083,0.456952,0.0011505,0.0366127,1903,1107,4.91926,-0.658154
686,-83,4.92468,0.60144,0.000178693,-0.000617754,0.000770794,0.000648056,-0.00108712,0.546962,0.00101244,0.0333686,1910,1107,4.92473,-0.601422
693,-83,4.96045,0.548462,-0.000199259,-0.00064422,0.000817456,0.000425451,-0.00126893,0.652535,0.00101785,0.0348595,1917,1107,4.96039,-0.548458
700,-83,4.97644,0.631836,-0.000589587,-0.000588253,0.000913388,0.000324468,-0.00150231,0.785763,0.0011254,0.0299511,1924,1107,4.97641,-0.631786
707,-83,4.94873,0.711792,-0.000818477,-0.00061366,0.000887925,0.000177742,-0.00160988,0.842812,0.00113714,0.0201628,1931,1107,4.94873,-0.711774
714,-83,4.93286,0.744019,-0.00101144,-0.000609799,0.000839553,5.26184e-05,-0.00167385,0.902792,0.00113385,0.025675,1938,1107,4.9329,-0.743963
721,-83,4.87085,0.816772,-0.00118678,-0.000596817,0.000879105,3.54782e-05,-0.00181907,0.947268,0.00122471,0.0171145,1945,1107,4.87086,-0.816792
728,-83,4.8396,0.799438,-0.00114919,-0.000546429,0.000857549,6.11578e-05,-0.00175677,0.954378,0.00119209,0.0170239,1952,1107,4.83955,-0.79939
735,-83,4.82239,0.778931,-0.00116576,-0.000455538,0.000651109,-6.89968e-05,-0.0015523,1.03505,0.00101265,0.0168592,1959,1107,4.82239,-0.778928
742,-83,4.85107,0.803833,-0.00131544,-0.000199936,0.000311116,-0.000119033,-0.00139634,1.31639,0.000893862,0.010008,1966,1107,4.85102,-0.803867
749,-83,4.84448,0.80603,-0.00138286,0.00048707,-0.000226636,0.000514146,-0.00140994,-1.45189,0.0011503,0.00993326,1973,1107,4.84451,-0.806069
756,-83,4.84497,0.800171,-0.00132828,0.0018507,-0.00117018,0.00223499,-0.00171257,-1.25349,0.00228577,0.0128842,1980,1107,4.84499,-0.800173
763,-83,4.85315,0.77002,-0.00120494,0.00405872,-0.00244774,0.00502104,-0.00216727,-1.19621,0.0042578,0.0109968,1987,1107,4.85319,-0.769985
770,-83,4.87244,0.763184,-0.00116985,0.0065677,-0.00385385,0.00815965,-0.00276181,-1.17906,0.0065572,0.0130451,1994,1107,4.87241,-0.763159
777,-83,4.88745,0.77478,-0.00117096,0.0102288,-0.00566303,0.0125638,-0.0035059,-1.17972,0.00975675,0.0137355,2001,1107,4.88749,-0.774742
784,-83,4.87988,0.770142,-0.00114894,0.0154794,-0.00802981,0.018724,-0.00439345,-1.1868,0.0141759,0.0218855,2008,1107,4.8799,-0.770139
791,-83,4.76416,0.588989,-0.000930726,0.0228636,-0.0111418,0.0272662,-0.00533331,-1.19449,0.0201914,0.0384497,2015,1107,4.76419,-0.588933
798,-83,4.6759,0.373779,-0.000372833,0.0330371,-0.0151703,0.0388975,-0.00623321,-1.20215,0.0282396,0.0464203,2022,1107,4.67592,-0.373759
805,-83,4.63977,0.16748,0,0,0,0,0,0,0,-1,2029,1107,4.63982,-0.167476
812,-83,5.5658,-1.68335,0,0,0,0,0,0,0,-1,2036,1107,5.56579,1.6833
-700,-90,0,0,0,0,0,0,0,0,0,-1,524,1114,0,0
-693,-90,-4.80798,3.63147,0.117195,0.0378336,-0.0417755,0.135131,0.019897,-0.405556,0.0842421,0.0448315,531,1114,-4.80799,-3.63141
-686,-90,-3.96204,3.93237,0.0932409,0.0312788,-0.029286,0.104892,0.0196277,-0.37864,0.0643904,0.0442441,538,1114,-3.96204,-3.93242
-679,-90,-3.16333,4.23315,0.072136,0.0255736,-0.0198429,0.0794449,0.0182647,-0.352919,0.0480465,0.0463283,545,1114,-3.1633,-4.23315
-672,-90,-0.37323,-0.733521,0.0540487,0.0206586,-0.0127365,0.0583523,0.016355,-0.325851,0.0347571,0.0429574,552,1114,-0.373202,0.733567
-665,-90,-0.0530396,-0.190796,0.0390375,0.0164499,-0.00750852,0.0413057,0.0141817,-0.293368,0.0242349,0.0434442,559,1114,-0.0530452,0.190756
-658,-90,-0.40625,0.193726,0.0269902,0.0128687,-0.00381926,0.027957,0.011902,-0.247921,0.0162002,0.0411132,566,1114,-0.406258,-0.193707
-651,-90,-0.943237,0.58252,0.0177057,0.00985178,-0.00136122,0.0179349,0.00962255,-0.166836,0.0103639,0.0291686,573,1114,-0.943236,-0.582492
-644,-90,-0.965027,0.669312,0.0109205,0.00734996,0.000110547,0.0109239,0.00734654,0.0309215,0.00643085,0.0129018,580,1114,-0.965012,-0.669327
-637,-90,-0.953064,0.71936,0.00592805,0.00516314,0.00126049,0.00686283,0.00422836,0.638104,0.00399772,0.0113954,587,1114,-0.953052,-0.719383
-630,-90,-0.957153,0.735229,0.00136949,0.00278132,0.00231742,0.00449796,-0.000347145,0.933241,0.00312079,0.0113993,594,1114,-0.957169,-0.735234
-623,-90,-0.964966,0.740479,-0.00151591,0.00258404,0.00147239,0.00305802,-0.00198989,1.25936,0.00293608,0.00883494,601,1114,-0.96496,-0.740502
-616,-90,-0.963501,0.764648,-0.00183887,0.00119932,0.0011554,0.00158878,-0.00222834,1.24568,0.0022141,0.00700321,608,1114,-0.963484,-0.764701
-609,-90,-0.965332,0.776367,-0.000630505,0.000329432,8.15591e-05,0.000336312,-0.000637385,1.48664,0.000571052,0.00978373,615,1114,-0.965322,-0.776323
-602,-90,-0.978577,0.793213,0.000445226,-0.000150872,-0.000751524,0.000955645,-0.000661292,-0.596615,0.000938681,0.00979895,622,1114,-0.978604,-0.793268
-595,-90,-0.975708,0.804565,0.000949004,-0.000448817,-0.0010532,0.0015141,-0.00101391,-0.492457,0.00146904,0.0122058,629,1114,-0.975719,-0.80457
-588,-90,-0.97821,0.776245,0.00131753,-0.000574868,-0.00116598,0.00187294,-0.00113027,-0.44454,0.00175149,0.0169562,636,1114,-0.978207,-0.776203
-581,-90,-1.03754,0.844604,0.00179735,-0.000674295,-0.00133252,0.00237891,-0.00125585,-0.411516,0.00213166,0.0247296,643,1114,-1.03756,-0.844634
-574,-90,-1.0741,0.882202,0.00233864,-0.000777813,-0.00147765,0.00292786,-0.00136703,-0.379432,0.00253365,0.0336874,650,1114,-1.0741,-0.882211
-567,-90,-0.906067,0.838623,0.00284126,-0.000839626,-0.00145765,0.00334857,-0.00134694,-0.334925,0.00279186,0.0349126,657,1114,-0.906066,-0.838573
-560,-90,-0.740784,0.761719,0.00334811,-0.000831635,-0.00133455,0.00373787,-0.0012214,-0.284152,0.00298358,0.0369806,664,1114,-0.740787,-0.761715
-553,-90,-0.677185,0.619873,0.00386608,-0.000733193,-0.0011353,0.00413105,-0.00099817,-0.229293,0.0031401,0.0396104,671,1114,-0.677186,-0.61989
-546,-90,-0.693115,0.524292,0.00436997,-0.000526354,-0.000889579,0.00452659,-0.000682966,-0.174266,0.00326925,0.0417089,678,1114,-0.693092,-0.524231
-539,-90,-0.726624,0.496948,0.00490753,-0.000193553,-0.000676166,0.00499564,-0.000281659,-0.129573,0.00342817,0.041276,685,1114,-0.726637,-0.496955
-532,-90,-0.809021,0.571167,0.00542862,0.000267459,-0.000727543,0.00552922,0.000166862,-0.137399,0.0036318,0.0407041,692,1114,-0.809043,-0.571143
-525,-90,0,0,0,0,0,0,0,0,0,-1,699,1114,0,0
-518,-90,0,0,0,0,0,0,0,0,0,-1,706,1114,0,0
-511,-90,0,0,0,0,0,0,0,0,0,-1,713,1114,0,0
-504,-90,0,0,0,0,0,0,0,0,0,-1,720,1114,0,0
-497,-90,0,0,0,0,0,0,0,0,0,-1,727,1114,0,0
-490,-90,0,0,0,0,0,0,0,0,0,-1,734,1114,0,0
-483,-90,0,0,0,0,0,0,0,0,0,-1,741,1114,0,0
-476,-90,0,0,0,0,0,0,0,0,0,-1,748,1114,0,0
-469,-90,0,0,0,0,0,0,0,0,0,-1,755,1114,0,0
-462,-90,0,0,0,0,0,0,0,0,0,-1,762,1114,0,0
-455,-90,0,0,0,0,0,0,0,0,0,-1,769,1114,0,0
-448,-90,0,0,0,0,0,0,0,0,0,-1,776,1114,0,0
-441,-90,0,0,0,0,0,0,0,0,0,-1,783,1114,0,0
-434,-90,0,0,0,0,0,0,0,0,0,-1,790,1114,0,0
-427,-90,0,0,0,0,0,0,0,0,0,-1,797,1114,0,0
-420,-90,0,0,0,0,0,0,0,0,0,-1,804,1114,0,0
-413,-90,0,0,0,0,0,0,0,0,0,-1,811,1114,0,0
-406,-90,0,0,0,0,0,0,0,0,0,-1,818,1114,0,0
-399,-90,0,0,0,0,0,0,0,0,0,-1,825,1114,0,0
-392,-90,0,0,0,0,0,0,0,0,0,-1,832,1114,0,0
-385,-90,0,0,0,0,0,0,0,0,0,-1,839,1114,0,0
-378,-90,0,0,0,0,0,0,0,0,0,-1,846,1114,0,0
-371,-90,0,0,0,0,0,0,0,0,0,-1,853,1114,0,0
-364,-90,0,0,0,0,0,0,0,0,0,-1,860,1114,0,0
-357,-90,0,0,0,0,0,0,0,0,0,-1,867,1114,0,0
-350,-90,0,0,0,0,0,0,0,0,0,-1,874,1114,0,0
-343,-90,0,0,0,0,0,0,0,0,0,-1,881,1114,0,0
-336,-90,0,0,0,0,0,0,0,0,0,-1,888,1114,0,0
-329,-90,0,0,0,0,0,0,0,0,0,-1,895,1114,0,0
-322,-90,0,0,0,0,0,0,0,0,0,-1,902,1114,0,0
-315,-90,0,0,0,0,0,0,0,0,0,-1,909,1114,0,0
-308,-90,0,0,0,0,0,0,0,0,0,-1,916,1114,0,0
-301,-90,0,0,0,0,0,0,0,0,0,-1,923,1114,0,0
-294,-90,0,0,0,0,0,0,0,0,0,-1,930,1114,0,0
-287,-90,0,0,0,0,0,0,0,0,0,-1,937,1114,0,0
-280,-90,0,0,0,0,0,0,0,0,0,-1,944,1114,0,0
-273,-90,0,0,0,0,0,0,0,0,0,-1,951,1114,0,0
-266,-90,0,0,0,0,0,0,0,0,0,-1,958,1114,0,0
-259,-90,0,0,0,0,0,0,0,0,0,-1,965,1114,0,0
-252,-90,0,0,0,0,0,0,0,0,0,-1,972,1114,0,0
-245,-90,0,0,0,0,0,0,0,0,0,-1,979,1114,0,0
-238,-90,0,0,0,0,0,0,0,0,0,-1,986,1114,0,0
-231,-90,0,0,0,0,0,0,0,0,0,-1,993,1114,0,0
-224,-90,0,0,0,0,0,0,0,0,0,-1,1000,1114,0,0
-217,-90,0,0,0,0,0,0,0,0,0,-1,1007,1114,0,0
-210,-90,0,0,0,0,0,0,0,0,0,-1,1014,1114,0,0
-203,-90,0,0,0,0,0,0,0,0,0,-1,1021,1114,0,0
-196,-90,0,0,0,0,0,0,0,0,0,-1,1028,1114,0,0
-189,-90,0,0,0,0,0,0,0,0,0,-1,1035,1114,0,0
-182,-90,0,0,0,0,0,0,0,0,0,-1,1042,1114,0,0
-175,-90,0,0,0,0,0,0,0,0,0,-1,1049,1114,0,0
-168,-90,0,0,0,0,0,0,0,0,0,-1,1056,1114,0,0
-161,-90,0,0,0,0,0,0,0,0,0,-1,1063,1114,0,0
-154,-90,0,0,0,0,0,0,0,0,0,-1,1070,1114,0,0
-147,-90,0,0,0,0,0,0,0,0,0,-1,1077,1114,0,0
-140,-90,0,0,0,0,0,0,0,0,0,-1,1084,1114,0,0
-133,-90,0,0,0,0,0,0,0,0,0,-1,1091,1114,0,0
-126,-90,0,0,0,0,0,0,0,0,0,-1,1098,1114,0,0
-119,-90,0,0,0,0,0,0,0,0,0,-1,1105,1114,0,0
-112,-90,0,0,0,0,0,0,0,0,0,-1,1112,1114,0,0
-105,-90,0,0,0,0,0,0,0,0,0,-1,1119,1114,0,0
-98,-90,0,0,0,0,0,0,0,0,0,-1,1126,1114,0,0
-91,-90,0,0,0,0,0,0,0,0,0,-1,1133,1114,0,0
-84,-90,0,0,0,0,0,0,0,0,0,-1,1140,1114,0,0
-77,-90,0,0,0,0,0,0,0,0,0,-1,1147,1114,0,0
-70,-90,0,0,0,0,0,0,0,0,0,-1,1154,1114,0,0
-63,-90,0,0,0,0,0,0,0,0,0,-1,1161,1114,0,0
-56,-90,0,0,0,0,0,0,0,0,0,-1,1168,1114,0,0
-49,-90,0,0,0,0,0,0,0,0,0,-1,1175,1114,0,0
-42,-90,0,0,0,0,0,0,0,0,0,-1,1182,1114,0,0
-35,-90,0,0,0,0,0,0,0,0,0,-1,1189,1114,0,0
-28,-90,0,0,0,0,0,0,0,0,0,-1,1196,1114,0,0
-21,-90,0,0,0,0,0,0,0,0,0,-1,1203,1114,0,0
-14,-90,0,0,0,0,0,0,0,0,0,-1,1210,1114,0,0
-7,-90,0,0,0,0,0,0,0,0,0,-1,1217,1114,0,0
0,-90,0,0,0,0,0,0,0,0,0,-1,1224,1114,0,0
7,-90,0,0,0,0,0,0,0,0,0,-1,1231,1114,0,0
14,-90,0,0,0,0,0,0,0,0,0,-1,1238,1114,0,0
21,-90,0,0,0,0,0,0,0,0,0,-1,1245,1114,0,0
28,-90,0,0,0,0,0,0,0,0,0,-1,1252,1114,0,0
35,-90,0,0,0,0,0,0,0,0,0,-1,1259,1114,0,0
42,-90,0,0,0,0,0,0,0,0,0,-1,1266,1114,0,0
49,-90,0,0,0,0,0,0,0,0,0,-1,1273,1114,0,0
56,-90,0,0,0,0,0,0,0,0,0,-1,1280,1114,0,0
63,-90,0,0,0,0,0,0,0,0,0,-1,1287,1114,0,0
70,-90,0,0,0,0,0,0,0,0,0,-1,1294,1114,0,0
77,-90,0,0,0,0,0,0,0,0,0,-1,1301,1114,0,0
84,-90,0,0,0,0,0,0,0,0,0,-1,1308,1114,0,0
91,-90,0,0,0,0,0,0,0,0,0,-1,1315,1114,0,0
98,-90,0,0,0,0,0,0,0,0,0,-1,1322,1114,0,0
105,-90,0,0,0,0,0,0,0,0,0,-1,1329,1114,0,0
112,-90,0,0,0,0,0,0,0,0,0,-1,1336,1114,0,0
119,-90,0,0,0,0,0,0,0,0,0,-1,1343,1114,0,0
126,-90,0,0,0,0,0,0,0,0,0,-1,1350,1114,0,0
133,-90,0,0,0,0,0,0,0,0,0,-1,1357,1114,0,0
140,-90,0,0,0,0,0,0,0,0,0,-1,1364,1114,0,0
147,-90,0,0,0,0,0,0,0,0,0,-1,1371,1114,0,0
154,-90,0,0,0,0,0,0,0,0,0,-1,1378,1114,0,0
161,-90,0,0,0,0,0,0,0,0,0,-1,1385,1114,0,0
168,-90,0,0,0,0,0,0,0,0,0,-1,1392,1114,0,0
175,-90,0,0,0,0,0,0,0,0,0,-1,1399,1114,0,0
182,-90,0,0,0,0,0,0,0,0,0,-1,1406,1114,0,0
189,-90,0,0,0,0,0,0,0,0,0,-1,1413,1114,0,0
196,-90,0,0,0,0,0,0,0,0,0,-1,1420,1114,0,0
203,-90,0,0,0,0,0,0,0,0,0,-1,1427,1114,0,0
210,-90,0,0,0,0,0,0,0,0,0,-1,1434,1114,0,0
217,-90,0,0,0,0,0,0,0,0,0,-1,1441,1114,0,0
224,-90,0,0,0,0,0,0,0,0,0,-1,1448,1114,0,0
231,-90,0,0,0,0,0,0,0,0,0,-1,1455,1114,0,0
238,-90,0,0,0,0,0,0,0,0,0,-1,1462,1114,0,0
245,-90,0,0,0,0,0,0,0,0,0,-1,1469,1114,0,0
252,-90,0,0,0,0,0,0,0,0,0,-1,1476,1114,0,0
259,-90,0,0,0,0,0,0,0,0,0,-1,1483,1114,0,0
266,-90,0,0,0,0,0,0,0,0,0,-1,1490,1114,0,0
273,-90,0,0,0,0,0,0,0,0,0,-1,1497,1114,0,0
280,-90,0,0,0,0,0,0,0,0,0,-1,1504,1114,0,0
287,-90,0,0,0,0,0,0,0,0,0,-1,1511,1114,0,0
294,-90,0,0,0,0,0,0,0,0,0,-1,1518,1114,0,0
301,-90,0,0,0,0,0,0,0,0,0,-1,1525,1114,0,0
308,-90,0,0,0,0,0,0,0,0,0,-1,1532,1114,0,0
315,-90,0,0,0,0,0,0,0,0,0,-1,1539,1114,0,0
322,-90,0,0,0,0,0,0,0,0,0,-1,1546,1114,0,0
329,-90,0,0,0,0,0,0,0,0,0,-1,1553,1114,0,0
336,-90,0,0,0,0,0,0,0,0,0,-1,1560,1114,0,0
343,-90,0,0,0,0,0,0,0,0,0,-1,1567,1114,0,0
350,-90,0,0,0,0,0,0,0,0,0,-1,1574,1114,0,0
357,-90,0,0,0,0,0,0,0,0,0,-1,1581,1114,0,0
364,-90,0,0,0,0,0,0,0,0,0,-1,1588,1114,0,0
371,-90,0,0,0,0,0,0,0,0,0,-1,1595,1114,0,0
378,-90,0,0,0,0,0,0,0,0,0,-1,1602,1114,0,0
385,-90,0,0,0,0,0,0,0,0,0,-1,1609,1114,0,0
392,-90,0,0,0,0,0,0,0,0,0,-1,1616,1114,0,0
399,-90,0,0,0,0,0,0,0,0,0,-1,1623,1114,0,0
406,-90,0,0,0,0,0,0,0,0,0,-1,1630,1114,0,0
413,-90,0,0,0,0,0,0,0,0,0,-1,1637,1114,0,0
420,-90,0,0,0,0,0,0,0,0,0,-1,1644,1114,0,0
427,-90,0,0,0,0,0,0,0,0,0,-1,1651,1114,0,0
434,-90,0,0,0,0,0,0,0,0,0,-1,1658,1114,0,0
441,-90,0,0,0,0,0,0,0,0,0,-1,1665,1114,0,0
448,-90,0,0,0,0,0,0,0,0,0,-1,1672,1114,0,0
455,-90,0,0,0,0,0,0,0,0,0,-1,1679,1114,0,0
462,-90,0,0,0,0,0,0,0,0,0,-1,1686,1114,0,0
469,-90,0,0,0,0,0,0,0,0,0,-1,1693,1114,0,0
476,-90,0,0,0,0,0,0,0,0,0,-1,1700,1114,0,0
483,-90,0,0,0,0,0,0,0,0,0,-1,1707,1114,0,0
490,-90,0,0,0,0,0,0,0,0,0,-1,1714,1114,0,0
497,-90,0,0,0,0,0,0,0,0,0,-1,1721,1114,0,0
504,-90,0,0,0,0,0,0,0,0,0,-1,1728,1114,0,0
511,-90,0,0,0,0,0,0,0,0,0,-1,1735,1114,0,0
518,-90,0,0,0,0,0,0,0,0,0,-1,1742,1114,0,0
525,-90,0,0,0,0,0,0,0,0,0,-1,1749,1114,0,0
532,-90,0,0,0,0,0,0,0,0,0,-1,1756,1114,0,0
539,-90,0,0,0,0,0,0,0,0,0,-1,1763,1114,0,0
546,-90,0,0,0,0,0,0,0,0,0,-1,1770,1114,0,0
553,-90,0,0,0,0,0,0,0,0,0,-1,1777,1114,0,0
560,-90,0,0,0,0,0,0,0,0,0,-1,1784,1114,0,0
567,-90,0,0,0,0,0,0,0,0,0,-1,1791,1114,0,0
574,-90,0,0,0,0,0,0,0,0,0,-1,1798,1114,0,0
581,-90,0,0,0,0,0,0,0,0,0,-1,1805,1114,0,0
588,-90,0,0,0,0,0,0,0,0,0,-1,1812,1114,0,0
595,-90,0,0,0,0,0,0,0,0,0,-1,1819,1114,0,0
602,-90,0,0,0,0,0,0,0,0,0,-1,1826,1114,0,0
609,-90,0,0,0,0,0,0,0,0,0,-1,1833,1114,0,0
616,-90,0,0,0,0,0,0,0,0,0,-1,1840,1114,0,0
623,-90,0,0,0,0,0,0,0,0,0,-1,1847,1114,0,0
630,-90,0,0,0,0,0,0,0,0,0,-1,1854,1114,0,0
637,-90,0,0,0,0,0,0,0,0,0,-1,1861,1114,0,0
644,-90,4.78064,0.658936,0.00318345,-0.00238703,0.00290911,0.00442568,-0.00362926,0.403574,0.00465809,0.0364551,1868,1114,4.7806,-0.65893
651,-90,4.87915,0.602661,0.00264013,-0.00141906,0.00200781,0.00346546,-0.00224438,0.390002,0.00332161,0.0395007,1875,1114,4.87919,-0.602672
658,-90,4.80762,0.682129,0.00230297,-0.000842907,0.00136545,0.00281296,-0.0013529,0.357452,0.00245391,0.0420132,1882,1114,4.80768,-0.682154
665,-90,4.86609,0.842773,0.00185934,-0.00054739,0.000985908,0.00221165,-0.000899692,0.343197,0.0018488,0.0433922,1889,1114,4.86607,-0.842823
672,-90,5.06714,0.85498,0.00129957,-0.000435418,0.000822756,0.00162768,-0.00076353,0.379469,0.0014103,0.0441719,1896,1114,5.06709,-0.854949
679,-90,4.99951,0.856812,0.0007235,-0.000421698,0.000775913,0.00111522,-0.000813418,0.46752,0.00111803,0.0376261,1903,1114,4.99947,-0.856826
686,-90,4.93359,0.748169,0.000217654,-0.000458464,0.000810775,0.000758025,-0.000998835,0.587878,0.00101749,0.0309151,1910,1114,4.93362,-0.748184
693,-90,4.93909,0.686157,-0.000232525,-0.000515502,0.000888709,0.000525889,-0.00127392,0.706457,0.00106861,0.0310156,1917,1114,4.93911,-0.686139
700,-90,4.98792,0.669189,-0.000666271,-0.000499633,0.000998596,0.000419115,-0.00158502,0.82702,0.00122061,0.0277294,1924,1114,4.98788,-0.669148
707,-90,4.93909,0.701782,-0.000925261,-0.000545696,0.000982982,0.000265656,-0.00173661,0.880759,0.0012557,0.0194209,1931,1114,4.93908,-0.70173
714,-90,4.95129,0.771729,-0.00114208,-0.000567404,0.000936906,0.000125235,-0.00183472,0.93419,0.00126696,0.0264001,1938,1114,4.95134,-0.771736
721,-90,4.86499,0.849243,-0.00134692,-0.000567802,0.000966279,8.44895e-05,-0.00199921,0.977009,0.00136184,0.0164074,1945,1114,4.86498,-0.849206
728,-90,4.8269,0.837646,-0.00131297,-0.000525598,0.00092368,8.47939e-05,-0.00192336,0.986848,0.00131142,0.015637,1952,1114,4.82686,-0.837586
735,-90,4.83374,0.817139,-0.00129474,-0.000465143,0.000689852,-7.49862e-05,-0.0016849,1.05608,0.00109912,0.0168098,1959,1114,4.83372,-0.817084
742,-90,4.86731,0.811035,-0.00142812,-0.000241399,0.00035539,-0.00014311,-0.00152641,1.30097,0.000973414,0.0137293,1966,1114,4.86726,-0.811049
749,-90,4.87122,0.800781,-0.0015515,0.000539907,-0.000125234,0.00054738,-0.00155897,-1.5112,0.00126198,0.010509,1973,1114,4.87123,-0.800818
756,-90,4.87183,0.786255,-0.00162218,0.00196767,-0.000970816,0.00221339,-0.0018679,-1.32289,0.00235915,0.0120663,1980,1114,4.87184,-0.786246
763,-90,4.86853,0.759766,-0.00163119,0.00410435,-0.00216341,0.00482886,-0.0023557,-1.24765,0.00422913,0.0115905,1987,1114,4.86858,-0.759741
770,-90,4.85938,0.769287,-0.00179891,0.00660819,-0.00342395,0.0078262,-0.00301692,-1.22902,0.00646227,0.0136246,1994,1114,4.85932,-0.769339
777,-90,4.84509,0.774414,-0.00211136,0.0102048,-0.0050243,0.0119944,-0.00390095,-1.22862,0.00956552,0.0120797,2001,1114,4.8451,-0.774415
784,-90,4.82898,0.71814,-0.00250326,0.0152709,-0.00710858,0.0177641,-0.00499652,-1.23346,0.0138129,0.024736,2008,1114,4.82904,-0.718133
791,-90,4.8064,0.530151,-0.00281562,0.0222413,-0.00984589,0.0256472,-0.00622152,-1.23776,0.0195055,0.0418,2015,1114,4.80644,-0.530183
798,-90,5.05847,0.439575,-0.00293037,0.0316075,-0.0133932,0.0361925,-0.00751533,-1.24097,0.0269846,0.0457028,2022,1114,5.05843,-0.439516
805,-90,5.46729,0.604858,0,0,0,0,0,0,0,-1,2029,1114,5.46733,-0.604896
812,-90,5.97839,-3.69226,0,0,0,0,0,0,0,-1,2036,1114,5.97837,3.6923
-700,-97,0,0,0,0,0,0,0,0,0,-1,524,1121,0,0
-693,-97,-4.66162,3.44946,0.114348,0.0340307,-0.0367309,0.128612,0.0197661,-0.370425,0.0799712,0.0463423,531,1121,-4.66164,-3.44942
-686,-97,-3.86176,3.44409,0.0905767,0.0276623,-0.025958,0.099904,0.018335,-0.344954,0.0614102,0.0479917,538,1121,-3.86175,-3.44409
-679,-97,-0.112061,-0.660645,0,0,0,0,0,0,0,-1,545,1121,-0.112055,0.66065
-672,-97,0.0184326,-0.51355,0.0527202,0.0180411,-0.0114721,0.0561717,0.0145896,-0.292248,0.0336557,0.0450075,552,1121,0.0184581,0.513586
-665,-97,0.139771,-0.360352,0.0383351,0.0143827,-0.00679153,0.0401268,0.012591,-0.257933,0.0236967,0.0467543,559,1121,0.139751,0.360329
-658,-97,-0.527161,0.156982,0.0267442,0.0113048,-0.00343107,0.0274723,0.0105767,-0.209118,0.0160004,0.0405628,566,1121,-0.527137,-0.157015
-651,-97,-0.923706,0.603149,0.0177312,0.00871856,-0.00115214,0.0178762,0.00857361,-0.125154,0.0103237,0.0289219,573,1121,-0.923698,-0.603092
-644,-97,-0.950989,0.687256,0.011071,0.00656561,0.000233632,0.011083,0.00655353,0.0516718,0.00643427,0.0104642,580,1121,-0.950997,-0.687199
-637,-97,-0.932312,0.714111,0.0061445,0.00462841,0.00134737,0.00693243,0.00384048,0.529161,0.00401021,0.011144,587,1121,-0.932315,-0.714098
-630,-97,-0.932434,0.720947,0.00160027,0.00239508,0.00227162,0.00430379,-0.000308446,0.871994,0.00297734,0.00966039,594,1121,-0.932432,-0.72098
-623,-97,-0.942078,0.73877,-0.00138604,0.00244631,0.0015192,0.00297548,-0.0019152,1.23562,0.00284567,0.010523,601,1121,-0.942104,-0.738739
-616,-97,-0.943665,0.747314,-0.00189328,0.00118636,0.00131306,0.0016702,-0.00237711,1.21775,0.00234857,0.010676,608,1121,-0.943668,-0.747336
-609,-97,-0.932922,0.758057,-0.000696135,0.000348344,0.000133859,0.000365226,-0.000713017,1.44534,0.000633227,0.0129485,615,1121,-0.932931,-0.758062
-602,-97,-0.961914,0.755371,0.000343568,-0.000166749,-0.000716509,0.000848995,-0.000672177,-0.614343,0.000880225,0.0117509,622,1121,-0.961927,-0.755361
-595,-97,-0.975708,0.775635,0.000818779,-0.000499165,-0.0010254,0.00137869,-0.00105908,-0.499803,0.00141148,0.0150762,629,1121,-0.975679,-0.775657
-588,-97,-0.960876,0.772095,0.00117609,-0.000632847,-0.00114261,0.00172888,-0.00118564,-0.450606,0.00169242,0.0180688,636,1121,-0.960901,-0.772103
-581,-97,-0.998657,0.770874,0.00164935,-0.000754051,-0.0013211,0.00223353,-0.00133823,-0.416345,0.00208364,0.0261089,643,1121,-0.998638,-0.770891
-574,-97,-1.05493,0.823608,0.00219699,-0.000917388,-0.00148342,0.00279047,-0.00151087,-0.380571,0.00251974,0.0362598,650,1121,-1.05495,-0.823663
-567,-97,-0.960999,0.766846,0.00271151,-0.00102743,-0.00148246,0.00322796,-0.00154387,-0.335224,0.00281163,0.0358444,657,1121,-0.960993,-0.766874
-560,-97,-0.783936,0.729492,0.00323937,-0.00107895,-0.00138571,0.00364578,-0.00148536,-0.285287,0.00304874,0.0381197,664,1121,-0.783956,-0.72947
-553,-97,-0.795349,0.573364,0.00379038,-0.00105491,-0.00121955,0.00408002,-0.00134455,-0.23318,0.00326191,0.0425184,671,1121,-0.795334,-0.573378
-546,-97,-1.00208,0.727539,0.00434099,-0.000944635,-0.00101443,0.00452899,-0.00113264,-0.183251,0.00345925,0.0450729,678,1121,-1.00208,-0.727488
-539,-97,-1.01208,0.804565,0.00493586,-0.000737447,-0.000846594,0.0050595,-0.000861085,-0.145016,0.00369364,0.0426149,685,1121,-1.01211,-0.804601
-532,-97,-0.869751,0.662354,0.00554141,-0.000444633,-0.000945264,0.00568713,-0.000590354,-0.152955,0.00400274,0.0387824,692,1121,-0.86977,-0.662384
-525,-97,0,0,0,0,0,0,0,0,0,-1,699,1121,0,0
-518,-97,0,0,0,0,0,0,0,0,0,-1,706,1121,0,0
-511,-97,0,0,0,0,0,0,0,0,0,-1,713,1121,0,0
-504,-97,0,0,0,0,0,0,0,0,0,-1,720,1121,0,0
-497,-97,0,0,0,0,0,0,0,0,0,-1,727,1121,0,0
-490,-97,0,0,0,0,0,0,0,0,0,-1,734,1121,0,0
-483,-97,0,0,0,0,0,0,0,0,0,-1,741,1121,0,0
-476,-97,0,0,0,0,0,0,0,0,0,-1,748,1121,0,0
-469,-97,0,0,0,0,0,0,0,0,0,-1,755,1121,0,0
-462,-97,0,0,0,0,0,0,0,0,0,-1,762,1121,0,0
-455,-97,0,0,0,0,0,0,0,0,0,-1,769,1121,0,0
-448,-97,0,0,0,0,0,0,0,0,0,-1,776,1121,0,0
-441,-97,0,0,0,0,0,0,0,0,0,-1,783,1121,0,0
-434,-97,0,0,0,0,0,0,0,0,0,-1,790,1121,0,0
-427,-97,0,0,0,0,0,0,0,0,0,-1,797,1121,0,0
-420,-97,0,0,0,0,0,0,0,0,0,-1,804,1121,0,0
-413,-97,0,0,0,0,0,0,0,0,0,-1,811,1121,0,0
-406,-97,0,0,0,0,0,0,0,0,0,-1,818,1121,0,0
-399,-97,0,0,0,0,0,0,0,0,0,-1,825,1121,0,0
-392,-97,0,0,0,0,0,0,0,0,0,-1,832,1121,0,0
-385,-97,0,0,0,0,0,0,0,0,0,-1,839,1121,0,0
-378,-97,0,0,0,0,0,0,0,0,0,-1,846,1121,0,0
-371,-97,0,0,0,0,0,0,0,0,0,-1,853,1121,0,0
-364,-97,0,0,0,0,0,0,0,0,0,-1,860,1121,0,0
-357,-97,0,0,0,0,0,0,0,0,0,-1,867,1121,0,0
-350,-97,0,0,0,0,0,0,0,0,0,-1,874,1121,0,0
-343,-97,0,0,0,0,0,0,0,0,0,-1,881,1121,0,0
-336,-97,0,0,0,0,0,0,0,0,0,-1,888,1121,0,0
-329,-97,0,0,0,0,0,0,0,0,0,-1,895,1121,0,0
-322,-97,0,0,0,0,0,0,0,0,0,-1,902,1121,0,0
-315,-97,0,0,0,0,0,0,0,0,0,-1,909,1121,0,0
-308,-97,0,0,0,0,0,0,0,0,0,-1,916,1121,0,0
-301,-97,0,0,0,0,0,0,0,0,0,-1,923,1121,0,0
-294,-97,0,0,0,0,0,0,0,0,0,-1,930,1121,0,0
-287,-97,0,0,0,0,0,0,0,0,0,-1,937,1121,0,0
-280,-97,0,0,0,0,0,0,0,0,0,-1,944,1121,0,0
-273,-97,0,0,0,0,0,0,0,0,0,-1,951,1121,0,0
-266,-97,0,0,0,0,0,0,0,0,0,-1,958,1121,0,0
-259,-97,0,0,0,0,0,0,0,0,0,-1,965,1121,0,0
-252,-97,0,0,0,0,0,0,0,0,0,-1,972,1121,0,0
-245,-97,0,0,0,0,0,0,0,0,0,-1,979,1121,0,0
-238,-97,0,0,0,0,0,0,0,0,0,-1,986,1121,0,0
-231,-97,0,0,0,0,0,0,0,0,0,-1,993,1121,0,0
-224,-97,0,0,0,0,0,0,0,0,0,-1,1000,1121,0,0
-217,-97,0,0,0,0,0,0,0,0,0,-1,1007,1121,0,0
-210,-97,0,0,0,0,0,0,0,0,0,-1,1014,1121,0,0
-203,-97,0,0,0,0,0,0,0,0,0,-1,1021,1121,0,0
-196,-97,0,0,0,0,0,0,0,0,0,-1,1028,1121,0,0
-189,-97,0,0,0,0,0,0,0,0,0,-1,1035,1121,0,0
-182,-97,0,0,0,0,0,0,0,0,0,-1,1042,1121,0,0
-175,-97,0,0,0,0,0,0,0,0,0,-1,1049,1121,0,0
-168,-97,0,0,0,0,0,0,0,0,0,-1,1056,1121,0,0
-161,-97,0,0,0,0,0,0,0,0,0,-1,1063,1121,0,0
-154,-97,0,0,0,0,0,0,0,0,0,-1,1070,1121,0,0
-147,-97,0,0,0,0,0,0,0,0,0,-1,1077,1121,0,0
-140,-97,0,0,0,0,0,0,0,0,0,-1,1084,1121,0,0
-133,-97,0,0,0,0,0,0,0,0,0,-1,1091,1121,0,0
-126,-97,0,0,0,0,0,0,0,0,0,-1,1098,1121,0,0
-119,-97,0,0,0,0,0,0,0,0,0,-1,1105,1121,0,0
-112,-97,0,0,0,0,0,0,0,0,0,-1,1112,1121,0,0
-105,-97,0,0,0,0,0,0,0,0,0,-1,1119,1121,0,0
-98,-97,0,0,0,0,0,0,0,0,0,-1,1126,1121,0,0
-91,-97,0,0,0,0,0,0,0,0,0,-1,1133,1121,0,0
-84,-97,0,0,0,0,0,0,0,0,0,-1,1140,1121,0,0
-77,-97,0,0,0,0,0,0,0,0,0,-1,1147,1121,0,0
-70,-97,0,0,0,0,0,0,0,0,0,-1,1154,1121,0,0
-63,-97,0,0,0,0,0,0,0,0,0,-1,1161,1121,0,0
-56,-97,0,0,0,0,0,0,0,0,0,-1,1168,1121,0,0
-49,-97,0,0,0,0,0,0,0,0,0,-1,1175,1121,0,0
-42,-97,0,0,0,0,0,0,0,0,0,-1,1182,1121,0,0
-35,-97,0,0,0,0,0,0,0,0,0,-1,1189,1121,0,0
-28,-97,0,0,0,0,0,0,0,0,0,-1,1196,1121,0,0
-21,-97,0,0,0,0,0,0,0,0,0,-1,1203,1121,0,0
-14,-97,0,0,0,0,0,0,0,0,0,-1,1210,1121,0,0
-7,-97,0,0,0,0,0,0,0,0,0,-1,1217,1121,0,0
0,-97,0,0,0,0,0,0,0,0,0,-1,1224,1121,0,0
7,-97,0,0,0,0,0,0,0,0,0,-1,1231,1121,0,0
14,-97,0,0,0,0,0,0,0,0,0,-1,1238,1121,0,0
21,-97,0,0,0,0,0,0,0,0,0,-1,1245,1121,0,0
28,-97,0,0,0,0,0,0,0,0,0,-1,1252,1121,0,0
35,-97,0,0,0,0,0,0,0,0,0,-1,1259,1121,0,0
42,-97,0,0,0,0,0,0,0,0,0,-1,1266,1121,0,0
49,-97,0,0,0,0,0,0,0,0,0,-1,1273,1121,0,0
56,-97,0,0,0,0,0,0,0,0,0,-1,1280,1121,0,0
63,-97,0,0,0,0,0,0,0,0,0,-1,1287,1121,0,0
70,-97,0,0,0,0,0,0,0,0,0,-1,1294,1121,0,0
77,-97,0,0,0,0,0,0,0,0,0,-1,1301,1121,0,0
84,-97,0,0,0,0,0,0,0,0,0,-1,1308,1121,0,0
91,-97,0,0,0,0,0,0,0,0,0,-1,1315,1121,0,0
98,-97,0,0,0,0,0,0,0,0,0,-1,1322,1121,0,0
105,-97,0,0,0,0,0,0,0,0,0,-1,1329,1121,0,0
112,-97,0,0,0,0,0,0,0,0,0,-1,1336,1121,0,0
119,-97,0,0,0,0,0,0,0,0,0,-1,1343,1121,0,0
126,-97,0,0,0,0,0,0,0,0,0,-1,1350,1121,0,0
133,-97,0,0,0,0,0,0,0,0,0,-1,1357,1121,0,0
140,-97,0,0,0,0,0,0,0,0,0,-1,1364,1121,0,0
147,-97,0,0,0,0,0,0,0,0,0,-1,1371,1121,0,0
154,-97,0,0,0,0,0,0,0,0,0,-1,1378,1121,0,0
161,-97,0,0,0,0,0,0,0,0,0,-1,1385,1121,0,0
168,-97,0,0,0,0,0,0,0,0,0,-1,1392,1121,0,0
175,-97,0,0,0,0,0,0,0,0,0,-1,1399,1121,0,0
182,-97,0,0,0,0,0,0,0,0,0,-1,1406,1121,0,0
189,-97,0,0,0,0,0,0,0,0,0,-1,1413,1121,0,0
196,-97,0,0,0,0,0,0,0,0,0,-1,1420,1121,0,0
203,-97,0,0,0,0,0,0,0,0,0,-1,1427,1121,0,0
210,-97,0,0,0,0,0,0,0,0,0,-1,1434,1121,0,0
217,-97,0,0,0,0,0,0,0,0,0,-1,1441,1121,0,0
224,-97,0,0,0,0,0,0,0,0,0,-1,1448,1121,0,0
231,-97,0,0,0,0,0,0,0,0,0,-1,1455,1121,0,0
238,-97,0,0,0,0,0,0,0,0,0,-1,1462,1121,0,0
245,-97,0,0,0,0,0,0,0,0,0,-1,1469,1121,0,0
252,-97,0,0,0,0,0,0,0,0,0,-1,1476,1121,0,0
259,-97,0,0,0,0,0,0,0,0,0,-1,1483,1121,0,0
266,-97,0,0,0,0,0,0,0,0,0,-1,1490,1121,0,0
273,-97,0,0,0,0,0,0,0,0,0,-1,1497,1121,0,0
280,-97,0,0,0,0,0,0,0,0,0,-1,1504,1121,0,0
287,-97,0,0,0,0,0,0,0,0,0,-1,1511,1121,0,0
294,-97,0,0,0,0,0,0,0,0,0,-1,1518,1121,0,0
301,-97,0,0,0,0,0,0,0,0,0,-1,1525,1121,0,0
308,-97,0,0,0,0,0,0,0,0,0,-1,1532,1121,0,0
315,-97,0,0,0,0,0,0,0,0,0,-1,1539,1121,0,0
322,-97,0,0,0,0,0,0,0,0,0,-1,1546,1121,0,0
329,-97,0,0,0,0,0,0,0,0,0,-1,1553,1121,0,0
336,-97,0,0,0,0,0,0,0,0,0,-1,1560,1121,0,0
343,-97,0,0,0,0,0,0,0,0,0,-1,1567,1121,0,0
350,-97,0,0,0,0,0,0,0,0,0,-1,1574,1121,0,0
357,-97,0,0,0,0,0,0,0,0,0,-1,1581,1121,0,0
364,-97,0,0,0,0,0,0,0,0,0,-1,1588,1121,0,0
371,-97,0,0,0,0,0,0,0,0,0,-1,1595,1121,0,0
378,-97,0,0,0,0,0,0,0,0,0,-1,1602,1121,0,0
385,-97,0,0,0,0,0,0,0,0,0,-1,1609,1121,0,0
392,-97,0,0,0,0,0,0,0,0,0,-1,1616,1121,0,0
399,-97,0,0,0,0,0,0,0,0,0,-1,1623,1121,0,0
406,-97,0,0,0,0,0,0,0,0,0,-1,1630,1121,0,0
413,-97,0,0,0,0,0,0,0,0,0,-1,1637,1121,0,0
420,-97,0,0,0,0,0,0,0,0,0,-1,1644,1121,0,0
427,-97,0,0,0,0,0,0,0,0,0,-1,1651,1121,0,0
434,-97,0,0,0,0,0,0,0,0,0,-1,1658,1121,0,0
441,-97,0,0,0,0,0,0,0,0,0,-1,1665,1121,0,0
448,-97,0,0,0,0,0,0,0,0,0,-1,1672,1121,0,0
455,-97,0,0,0,0,0,0,0,0,0,-1,1679,1121,0,0
462,-97,0,0,0,0,0,0,0,0,0,-1,1686,1121,0,0
469,-97,0,0,0,0,0,0,0,0,0,-1,1693,1121,0,0
476,-97,0,0,0,0,0,0,0,0,0,-1,1700,1121,0,0
483,-97,0,0,0,0,0,0,0,0,0,-1,1707,1121,0,0
490,-97,0,0,0,0,0,0,0,0,0,-1,1714,1121,0,0
497,-97,0,0,0,0,0,0,0,0,0,-1,1721,1121,0,0
504,-97,0,0,0,0,0,0,0,0,0,-1,1728,1121,0,0
511,-97,0,0,0,0,0,0,0,0,0,-1,1735,1121,0,0
518,-97,0,0,0,0,0,0,0,0,0,-1,1742,1121,0,0
525,-97,0,0,0,0,0,0,0,0,0,-1,1749,1121,0,0
532,-97,0,0,0,0,0,0,0,0,0,-1,1756,1121,0,0
539,-97,0,0,0,0,0,0,0,0,0,-1,1763,1121,0,0
546,-97,0,0,0,0,0,0,0,0,0,-1,1770,1121,0,0
553,-97,0,0,0,0,0,0,0,0,0,-1,1777,1121,0,0
560,-97,0,0,0,0,0,0,0,0,0,-1,1784,1121,0,0
567,-97,0,0,0,0,0,0,0,0,0,-1,1791,1121,0,0
574,-97,0,0,0,0,0,0,0,0,0,-1,1798,1121,0,0
581,-97,0,0,0,0,0,0,0,0,0,-1,1805,1121,0,0
588,-97,0,0,0,0,0,0,0,0,0,-1,1812,1121,0,0
595,-97,0,0,0,0,0,0,0,0,0,-1,1819,1121,0,0
602,-97,0,0,0,0,0,0,0,0,0,-1,1826,1121,0,0
609,-97,0,0,0,0,0,0,0,0,0,-1,1833,1121,0,0
616,-97,0,0,0,0,0,0,0,0,0,-1,1840,1121,0,0
623,-97,0,0,0,0,0,0,0,0,0,-1,1847,1121,0,0
630,-97,0,0,0,0,0,0,0,0,0,-1,1854,1121,0,0
637,-97,0,0,0,0,0,0,0,0,0,-1,1861,1121,0,0
644,-97,4.82666,0.910278,0.00273732,-0.00194833,0.00246407,0.00379456,-0.00300558,0.405308,0.00393486,0.0391584,1868,1121,4.8267,-0.910226
651,-97,4.92651,0.77063,0.00242667,-0.00108409,0.00171654,0.00312646,-0.00178388,0.387105,0.00287009,0.0365267,1875,1121,4.92654,-0.770683
658,-97,4.92419,0.856323,0.00224953,-0.000550965,0.00119466,0.00268991,-0.000991342,0.353168,0.00219949,0.0380268,1882,1121,4.92419,-0.85637
665,-97,5.10571,0.883301,0.00186552,-0.000295528,0.000915629,0.0022013,-0.000631305,0.35149,0.0017171,0.0431371,1889,1121,5.10577,-0.883322
672,-97,5.13855,0.731323,0.00130577,-0.000212548,0.00082516,0.00166787,-0.000574643,0.413516,0.00134502,0.0474368,1896,1121,5.13855,-0.731317
679,-97,4.89587,0.868652,0.000715478,-0.000223794,0.000823629,0.00119396,-0.000702274,0.526287,0.00110699,0.0435105,1903,1121,4.89589,-0.868643
686,-97,4.89636,0.789673,0.000184982,-0.000287204,0.000887105,0.000866874,-0.000969095,0.655343,0.00106054,0.0346127,1910,1121,4.89632,-0.789649
693,-97,4.98047,0.696289,-0.00029121,-0.000369699,0.000971307,0.000641645,-0.00130255,0.765207,0.0011439,0.0310828,1917,1121,4.9805,-0.696309
700,-97,4.99365,0.668213,-0.000736583,-0.000394294,0.00108279,0.000530792,-0.00166167,0.863779,0.00132075,0.024885,1924,1121,4.99367,-0.668222
707,-97,4.94666,0.729614,-0.00100902,-0.000462595,0.00106646,0.00036509,-0.00183671,0.910796,0.00136257,0.0172537,1931,1121,4.94671,-0.729624
714,-97,4.96838,0.801758,-0.0012456,-0.000508245,0.00101624,0.000204123,-0.00195797,0.959409,0.0013784,0.0243424,1938,1121,4.96842,-0.801796
721,-97,4.89319,0.860596,-0.00146801,-0.000521604,0.00103559,0.000143779,-0.00213339,0.999702,0.00147253,0.0174342,1945,1121,4.89317,-0.860596
728,-97,4.84619,0.843872,-0.00143831,-0.000494816,0.000980719,0.000121718,-0.00205484,1.00957,0.00141222,0.018152,1952,1121,4.84622,-0.843826
735,-97,4.84021,0.8302,-0.00140416,-0.000471253,0.000732406,-6.93763e-05,-0.00180604,1.06895,0.00118158,0.0178934,1959,1121,4.84027,-0.830158
742,-97,4.85706,0.813965,-0.00151816,-0.000326643,0.000418633,-0.000194266,-0.00165054,1.26453,0.00104166,0.013833,1966,1121,4.85702,-0.813932
749,-97,4.8418,0.803223,-0.00163296,0.000460855,3.15702e-05,0.000461331,-0.00163343,1.55572,0.00127095,0.0150657,1973,1121,4.84179,-0.803203
756,-97,4.83276,0.79126,-0.00177172,0.00183665,-0.000695973,0.00196624,-0.0019013,-1.38671,0.00223303,0.0137051,1980,1121,4.83282,-0.791249
763,-97,4.85083,0.754028,-0.00185064,0.00376724,-0.0017613,0.00427377,-0.00235716,-1.29077,0.00388131,0.0117872,1987,1121,4.85083,-0.754037
770,-97,4.84851,0.736572,-0.00212672,0.00609594,-0.00283168,0.00697675,-0.00300752,-1.26923,0.00591432,0.00922674,1994,1121,4.84848,-0.736547
777,-97,4.84485,0.748535,-0.00262992,0.009421,-0.00417769,0.0107276,-0.00393653,-1.26768,0.00876375,0.011819,2001,1121,4.84485,-0.748557
784,-97,4.82825,0.675537,-0.00328582,0.0140637,-0.00593693,0.0159007,-0.0051229,-1.27071,0.0126585,0.0310503,2008,1121,4.8283,-0.675518
791,-97,4.85608,0.392212,-0.00395474,0.0203642,-0.0082574,0.022903,-0.00649348,-1.27252,0.0178317,0.0425983,2015,1121,4.8561,-0.392216
798,-97,4.92493,0.168213,-0.00456187,0.028673,-0.0112808,0.0321402,-0.00802912,-1.2726,0.0245449,0.0465057,2022,1121,4.92498,-0.168174
805,-97,5.09399,0.148682,-0.00508836,0.0393781,-0.0152173,0.0440871,-0.00979736,-1.27069,0.0331435,0.0466787,2029,1121,5.09402,-0.148663
812,-97,4.89099,0.139893,0,0,0,0,0,0,0,-1,2036,1121,4.89099,-0.139932
-700,-104,0,0,0,0,0,0,0,0,0,-1,524,1128,0,0
-693,-104,-4.4151,3.25793,0.099099,0.030179,-0.035788,0.114321,0.0149572,-0.40215,0.0717496,0.0493091,531,1128,-4.41512,-3.25799
-686,-104,-4.29614,3.23608,0.0797378,0.024287,-0.0257849,0.0898747,0.0141501,-0.374575,0.055801,0.0476219,538,1128,-4.29614,-3.23608
-679,-104,0.181213,-0.957397,0,0,0,0,0,0,0,-1,545,1128,0.181242,0.957409
-672,-104,0.259888,-0.796265,0.0480647,0.0158037,-0.0119417,0.0520039,0.0118644,-0.318637,0.0314691,0.0482446,552,1128,0.259895,0.796243
-665,-104,0.155884,-0.490479,0.0356095,0.0126643,-0.0072966,0.0377332,0.0105405,-0.283236,0.0224813,0.0442926,559,1128,0.155912,0.490511
-658,-104,-0.61554,-0.145996,0.0253203,0.0100326,-0.00386833,0.0262434,0.00910953,-0.234246,0.0153859,0.0390945,566,1128,-0.615514,0.145999
-651,-104,-0.864014,0.388184,0.0171096,0.00781162,-0.00147489,0.017338,0.00758327,-0.153602,0.0100362,0.0334454,573,1128,-0.863991,-0.388216
-644,-104,-0.932495,0.652222,0.0108947,0.00594614,3.07355e-05,0.0108948,0.00594595,0.00621074,0.00629892,0.0136652,580,1128,-0.932521,-0.652239
-637,-104,-0.913513,0.70459,0.00628276,0.00419954,0.00128497,0.00689527,0.00358703,0.444811,0.00398207,0.00973983,587,1128,-0.913509,-0.704635
-630,-104,-0.934509,0.723022,0.00191864,0.00207165,0.00219631,0.00419279,-0.000202497,0.802807,0.00286508,0.0114025,594,1128,-0.934482,-0.722993
-623,-104,-0.951599,0.756836,-0.00110132,0.00230989,0.00156505,0.00291913,-0.00171055,1.19957,0.00270313,0.014349,601,1128,-0.951623,-0.75678
-616,-104,-0.939697,0.76355,-0.00181485,0.00120674,0.00144531,0.00178674,-0.00239485,1.18917,0.00242273,0.0150709,608,1128,-0.939709,-0.763496
-609,-104,-0.900024,0.720947,-0.000697861,0.000427534,0.000167131,0.00045183,-0.000722157,1.42644,0.000683765,0.0176319,615,1128,-0.90005,-0.720958
-602,-104,-0.922241,0.733276,0.000234618,-0.000121122,-0.000688632,0.000767981,-0.000654484,-0.659013,0.000822132,0.0152176,622,1128,-0.922235,-0.733268
-595,-104,-0.922485,0.780029,0.000649196,-0.000502447,-0.00100127,0.00122841,-0.00108166,-0.524446,0.00133462,0.0144503,629,1128,-0.922464,-0.779987
-588,-104,-0.901733,0.749023,0.000981141,-0.00063262,-0.00112281,0.00155693,-0.00120841,-0.47384,0.00160079,0.0200704,636,1128,-0.901705,-0.749002
-581,-104,-0.926208,0.665161,0.00143849,-0.000758945,-0.00130807,0.00204806,-0.00136851,-0.436083,0.00198552,0.0294685,643,1128,-0.926215,-0.665155
-574,-104,-1.00793,0.73291,0.00198636,-0.000947649,-0.00148461,0.0026065,-0.00156779,-0.395681,0.00243477,0.0360538,650,1128,-1.00792,-0.732949
-567,-104,-0.757507,0.711426,0.00250972,-0.00108601,-0.00149469,0.00304989,-0.00162618,-0.34679,0.00274113,0.0354169,657,1128,-0.757529,-0.711436
-560,-104,-0.727722,0.474731,0.00306537,-0.00117497,-0.00141593,0.00349471,-0.0016043,-0.294406,0.0030106,0.0410964,664,1128,-0.727727,-0.474733
-553,-104,-1.17413,-0.0310059,0,0,0,0,0,0,0,-1,671,1128,-1.17416,0.0309908
-546,-104,-1.03174,0.512573,0.00429536,-0.00115224,-0.00111022,0.00451294,-0.00136982,-0.193521,0.00355433,0.0444786,678,1128,-1.03177,-0.512549
-539,-104,-1.05853,0.922729,0.00499849,-0.00102257,-0.000999826,0.00516018,-0.00118426,-0.160324,0.00389535,0.0415568,685,1128,-1.05855,-0.922737
-532,-104,-0.947083,0.800903,0.00576229,-0.000829812,-0.00117347,0.00596495,-0.00103247,-0.171016,0.00436172,0.0409318,692,1128,-0.947113,-0.800861
-525,-104,-0.856812,0.658325,0.00617026,-0.00057365,-0.00176271,0.0066032,-0.00100659,-0.240844,0.00477317,0.0367076,699,1128,-0.856818,-0.658304
-518,-104,0,0,0,0,0,0,0,0,0,-1,706,1128,0,0
-511,-104,0,0,0,0,0,0,0,0,0,-1,713,1128,0,0
-504,-104,0,0,0,0,0,0,0,0,0,-1,720,1128,0,0
-497,-104,0,0,0,0,0,0,0,0,0,-1,727,1128,0,0
-490,-104,0,0,0,0,0,0,0,0,0,-1,734,1128,0,0
-483,-104,0,0,0,0,0,0,0,0,0,-1,741,1128,0,0
-476,-104,0,0,0,0,0,0,0,0,0,-1,748,1128,0,0
-469,-104,0,0,0,0,0,0,0,0,0,-1,755,1128,0,0
-462,-104,0,0,0,0,0,0,0,0,0,-1,762,1128,0,0
-455,-104,0,0,0,0,0,0,0,0,0,-1,769,1128,0,0
-448,-104,0,0,0,0,0,0,0,0,0,-1,776,1128,0,0
-441,-104,0,0,0,0,0,0,0,0,0,-1,783,1128,0,0
-434,-104,0,0,0,0,0,0,0,0,0,-1,790,1128,0,0
-427,-104,0,0,0,0,0,0,0,0,0,-1,797,1128,0,0
-420,-104,0,0,0,0,0,0,0,0,0,-1,804,1128,0,0
-413,-104,0,0,0,0,0,0,0,0,0,-1,811,1128,0,0
-406,-104,0,0,0,0,0,0,0,0,0,-1,818,1128,0,0
-399,-104,0,0,0,0,0,0,0,0,0,-1,825,1128,0,0
-392,-104,0,0,0,0,0,0,0,0,0,-1,832,1128,0,0
-385,-104,0,0,0,0,0,0,0,0,0,-1,839,1128,0,0
-378,-104,0,0,0,0,0,0,0,0,0,-1,846,1128,0,0
-371,-104,0,0,0,0,0,0,0,0,0,-1,853,1128,0,0
-364,-104,0,0,0,0,0,0,0,0,0,-1,860,1128,0,0
-357,-104,0,0,0,0,0,0,0,0,0,-1,867,1128,0,0
-350,-104,0,0,0,0,0,0,0,0,0,-1,874,1128,0,0
-343,-104,0,0,0,0,0,0,0,0,0,-1,881,1128,0,0
-336,-104,0,0,0,0,0,0,0,0,0,-1,888,1128,0,0
-329,-104,0,0,0,0,0,0,0,0,0,-1,895,1128,0,0
-322,-104,0,0,0,0,0,0,0,0,0,-1,902,1128,0,0
-315,-104,0,0,0,0,0,0,0,0,0,-1,909,1128,0,0
-308,-104,0,0,0,0,0,0,0,0,0,-1,916,1128,0,0
-301,-104,0,0,0,0,0,0,0,0,0,-1,923,1128,0,0
-294,-104,0,0,0,0,0,0,0,0,0,-1,930,1128,0,0
-287,-104,0,0,0,0,0,0,0,0,0,-1,937,1128,0,0
-280,-104,0,0,0,0,0,0,0,0,0,-1,944,1128,0,0
-273,-104,0,0,0,0,0,0,0,0,0,-1,951,1128,0,0
-266,-104,0,0,0,0,0,0,0,0,0,-1,958,1128,0,0
-259,-104,0,0,0,0,0,0,0,0,0,-1,965,1128,0,0
-252,-104,0,0,0,0,0,0,0,0,0,-1,972,1128,0,0
-245,-104,0,0,0,0,0,0,0,0,0,-1,979,1128,0,0
-238,-104,0,0,0,0,0,0,0,0,0,-1,986,1128,0,0
-231,-104,0,0,0,0,0,0,0,0,0,-1,993,1128,0,0
-224,-104,0,0,0,0,0,0,0,0,0,-1,1000,1128,0,0
-217,-104,0,0,0,0,0,0,0,0,0,-1,1007,1128,0,0
-210,-104,0,0,0,0,0,0,0,0,0,-1,1014,1128,0,0
-203,-104,0,0,0,0,0,0,0,0,0,-1,1021,1128,0,0
-196,-104,0,0,0,0,0,0,0,0,0,-1,1028,1128,0,0
-189,-104,0,0,0,0,0,0,0,0,0,-1,1035,1128,0,0
-182,-104,0,0,0,0,0,0,0,0,0,-1,1042,1128,0,0
-175,-104,0,0,0,0,0,0,0,0,0,-1,1049,1128,0,0
-168,-104,0,0,0,0,0,0,0,0,0,-1,1056,1128,0,0
-161,-104,0,0,0,0,0,0,0,0,0,-1,1063,1128,0,0
-154,-104,0,0,0,0,0,0,0,0,0,-1,1070,1128,0,0
-147,-104,0,0,0,0,0,0,0,0,0,-1,1077,1128,0,0
-140,-104,0,0,0,0,0,0,0,0,0,-1,1084,1128,0,0
-133,-104,0,0,0,0,0,0,0,0,0,-1,1091,1128,0,0
-126,-104,0,0,0,0,0,0,0,0,0,-1,1098,1128,0,0
-119,-104,0,0,0,0,0,0,0,0,0,-1,1105,1128,0,0
-112,-104,0,0,0,0,0,0,0,0,0,-1,1112,1128,0,0
-105,-104,0,0,0,0,0,0,0,0,0,-1,1119,1128,0,0
-98,-104,0,0,0,0,0,0,0,0,0,-1,1126,1128,0,0
-91,-104,0,0,0,0,0,0,0,0,0,-1,1133,1128,0,0
-84,-104,0,0,0,0,0,0,0,0,0,-1,1140,1128,0,0
-77,-104,0,0,0,0,0,0,0,0,0,-1,1147,1128,0,0
-70,-104,0,0,0,0,0,0,0,0,0,-1,1154,1128,0,0
-63,-104,0,0,0,0,0,0,0,0,0,-1,1161,1128,0,0
-56,-104,0,0,0,0,0,0,0,0,0,-1,1168,1128,0,0
-49,-104,0,0,0,0,0,0,0,0,0,-1,1175,1128,0,0
-42,-104,0,0,0,0,0,0,0,0,0,-1,1182,1128,0,0
-35,-104,0,0,0,0,0,0,0,0,0,-1,1189,1128,0,0
-28,-104,0,0,0,0,0,0,0,0,0,-1,1196,1128,0,0
-21,-104,0,0,0,0,0,0,0,0,0,-1,1203,1128,0,0
-14,-104,0,0,0,0,0,0,0,0,0,-1,1210,1128,0,0
-7,-104,0,0,0,0,0,0,0,0,0,-1,1217,1128,0,0
0,-104,0,0,0,0,0,0,0,0,0,-1,1224,1128,0,0
7,-104,0,0,0,0,0,0,0,0,0,-1,1231,1128,0,0
14,-104,0,0,0,0,0,0,0,0,0,-1,1238,1128,0,0
21,-104,0,0,0,0,0,0,0,0,0,-1,1245,1128,0,0
28,-104,0,0,0,0,0,0,0,0,0,-1,1252,1128,0,0
35,-104,0,0,0,0,0,0,0,0,0,-1,1259,1128,0,0
42,-104,0,0,0,0,0,0,0,0,0,-1,1266,1128,0,0
49,-104,0,0,0,0,0,0,0,0,0,-1,1273,1128,0,0
56,-104,0,0,0,0,0,0,0,0,0,-1,1280,1128,0,0
63,-104,0,0,0,0,0,0,0,0,0,-1,1287,1128,0,0
70,-104,0,0,0,0,0,0,0,0,0,-1,1294,1128,0,0
77,-104,0,0,0,0,0,0,0,0,0,-1,1301,1128,0,0
84,-104,0,0,0,0,0,0,0,0,0,-1,1308,1128,0,0
91,-104,0,0,0,0,0,0,0,0,0,-1,1315,1128,0,0
98,-104,0,0,0,0,0,0,0,0,0,-1,1322,1128,0,0
105,-104,0,0,0,0,0,0,0,0,0,-1,1329,1128,0,0
112,-104,0,0,0,0,0,0,0,0,0,-1,1336,1128,0,0
119,-104,0,0,0,0,0,0,0,0,0,-1,1343,1128,0,0
126,-104,0,0,0,0,0,0,0,0,0,-1,1350,1128,0,0
133,-104,0,0,0,0,0,0,0,0,0,-1,1357,1128,0,0
140,-104,0,0,0,0,0,0,0,0,0,-1,1364,1128,0,0
147,-104,0,0,0,0,0,0,0,0,0,-1,1371,1128,0,0
154,-104,0,0,0,0,0,0,0,0,0,-1,1378,1128,0,0
161,-104,0,0,0,0,0,0,0,0,0,-1,1385,1128,0,0
168,-104,0,0,0,0,0,0,0,0,0,-1,1392,1128,0,0
175,-104,0,0,0,0,0,0,0,0,0,-1,1399,1128,0,0
182,-104,0,0,0,0,0,0,0,0,0,-1,1406,1128,0,0
189,-104,0,0,0,0,0,0,0,0,0,-1,1413,1128,0,0
196,-104,0,0,0,0,0,0,0,0,0,-1,1420,1128,0,0
203,-104,0,0,0,0,0,0,0,0,0,-1,1427,1128,0,0
210,-104,0,0,0,0,0,0,0,0,0,-1,1434,1128,0,0
217,-104,0,0,0,0,0,0,0,0,0,-1,1441,1128,0,0
224,-104,0,0,0,0,0,0,0,0,0,-1,1448,1128,0,0
231,-104,0,0,0,0,0,0,0,0,0,-1,1455,1128,0,0
238,-104,0,0,0,0,0,0,0,0,0,-1,1462,1128,0,0
245,-104,0,0,0,0,0,0,0,0,0,-1,1469,1128,0,0
252,-104,0,0,0,0,0,0,0,0,0,-1,1476,1128,0,0
259,-104,0,0,0,0,0,0,0,0,0,-1,1483,1128,0,0
266,-104,0,0,0,0,0,0,0,0,0,-1,1490,1128,0,0
273,-104,0,0,0,0,0,0,0,0,0,-1,1497,1128,0,0
280,-104,0,0,0,0,0,0,0,0,0,-1,1504,1128,0,0
287,-104,0,0,0,0,0,0,0,0,0,-1,1511,1128,0,0
294,-104,0,0,0,0,0,0,0,0,0,-1,1518,1128,0,0
301,-104,0,0,0,0,0,0,0,0,0,-1,1525,1128,0,0
308,-104,0,0,0,0,0,0,0,0,0,-1,1532,1128,0,0
315,-104,0,0,0,0,0,0,0,0,0,-1,1539,1128,0,0
322,-104,0,0,0,0,0,0,0,0,0,-1,1546,1128,0,0
329,-104,0,0,0,0,0,0,0,0,0,-1,1553,1128,0,0
336,-104,0,0,0,0,0,0,0,0,0,-1,1560,1128,0,0
343,-104,0,0,0,0,0,0,0,0,0,-1,1567,1128,0,0
350,-104,0,0,0,0,0,0,0,0,0,-1,1574,1128,0,0
357,-104,0,0,0,0,0,0,0,0,0,-1,1581,1128,0,0
364,-104,0,0,0,0,0,0,0,0,0,-1,1588,1128,0,0
371,-104,0,0,0,0,0,0,0,0,0,-1,1595,1128,0,0
378,-104,0,0,0,0,0,0,0,0,0,-1,1602,1128,0,0
385,-104,0,0,0,0,0,0,0,0,0,-1,1609,1128,0,0
392,-104,0,0,0,0,0,0,0,0,0,-1,1616,1128,0,0
399,-104,0,0,0,0,0,0,0,0,0,-1,1623,1128,0,0
406,-104,0,0,0,0,0,0,0,0,0,-1,1630,1128,0,0
413,-104,0,0,0,0,0,0,0,0,0,-1,1637,1128,0,0
420,-104,0,0,0,0,0,0,0,0,0,-1,1644,1128,0,0
427,-104,0,0,0,0,0,0,0,0,0,-1,1651,1128,0,0
434,-104,0,0,0,0,0,0,0,0,0,-1,1658,1128,0,0
441,-104,0,0,0,0,0,0,0,0,0,-1,1665,1128,0,0
448,-104,0,0,0,0,0,0,0,0,0,-1,1672,1128,0,0
455,-104,0,0,0,0,0,0,0,0,0,-1,1679,1128,0,0
462,-104,0,0,0,0,0,0,0,0,0,-1,1686,1128,0,0
469,-104,0,0,0,0,0,0,0,0,0,-1,1693,1128,0,0
476,-104,0,0,0,0,0,0,0,0,0,-1,1700,1128,0,0
483,-104,0,0,0,0,0,0,0,0,0,-1,1707,1128,0,0
490,-104,0,0,0,0,0,0,0,0,0,-1,1714,1128,0,0
497,-104,0,0,0,0,0,0,0,0,0,-1,1721,1128,0,0
504,-104,0,0,0,0,0,0,0,0,0,-1,1728,1128,0,0
511,-104,0,0,0,0,0,0,0,0,0,-1,1735,1128,0,0
518,-104,0,0,0,0,0,0,0,0,0,-1,1742,1128,0,0
525,-104,0,0,0,0,0,0,0,0,0,-1,1749,1128,0,0
532,-104,0,0,0,0,0,0,0,0,0,-1,1756,1128,0,0
539,-104,0,0,0,0,0,0,0,0,0,-1,1763,1128,0,0
546,-104,0,0,0,0,0,0,0,0,0,-1,1770,1128,0,0
553,-104,0,0,0,0,0,0,0,0,0,-1,1777,1128,0,0
560,-104,0,0,0,0,0,0,0,0,0,-1,1784,1128,0,0
567,-104,0,0,0,0,0,0,0,0,0,-1,1791,1128,0,0
574,-104,0,0,0,0,0,0,0,0,0,-1,1798,1128,0,0
581,-104,0,0,0,0,0,0,0,0,0,-1,1805,1128,0,0
588,-104,0,0,0,0,0,0,0,0,0,-1,1812,1128,0,0
595,-104,0,0,0,0,0,0,0,0,0,-1,1819,1128,0,0
602,-104,0,0,0,0,0,0,0,0,0,-1,1826,1128,0,0
609,-104,0,0,0,0,0,0,0,0,0,-1,1833,1128,0,0
616,-104,0,0,0,0,0,0,0,0,0,-1,1840,1128,0,0
623,-104,0,0,0,0,0,0,0,0,0,-1,1847,1128,0,0
630,-104,0,0,0,0,0,0,0,0,0,-1,1854,1128,0,0
637,-104,0,0,0,0,0,0,0,0,0,-1,1861,1128,0,0
644,-104,4.84302,0.920776,0.00238322,-0.00125765,0.00229276,0.00349037,-0.0023648,0.449865,0.00340124,0.0370298,1868,1128,4.84296,-0.92074
651,-104,4.92175,0.888916,0.0022286,-0.000505115,0.00156507,0.00293966,-0.00121618,0.42645,0.00246719,0.0348966,1875,1128,4.9217,-0.888925
658,-104,5.0177,0.972778,0.00216882,-9.67825e-05,0.00110332,0.00261733,-0.000545293,0.386107,0.0019522,0.0390904,1882,1128,5.01764,-0.972764
665,-104,5.14856,0.94458,0.00181287,4.14127e-05,0.000888247,0.00218153,-0.00032725,0.393409,0.00157481,0.0451812,1889,1128,5.14859,-0.944588
672,-104,5.08081,0.639282,0.00124935,2.56239e-05,0.00084446,0.00168031,-0.000405342,0.471889,0.00127695,0.0468101,1896,1128,5.08083,-0.639333
679,-104,4.78259,0.657715,0.000647918,-6.75356e-05,0.000874938,0.00123543,-0.000655052,0.591338,0.00110849,0.0447613,1903,1128,4.78259,-0.657679
686,-104,4.79285,0.673584,9.64138e-05,-0.000197372,0.000961428,0.000922106,-0.00102306,0.709591,0.00112355,0.0393853,1910,1128,4.79286,-0.673604
693,-104,4.91919,0.645264,-0.000399794,-0.000321946,0.00104973,0.000689584,-0.00141132,0.80393,0.00123659,0.0331158,1917,1128,4.91919,-0.645224
700,-104,4.97302,0.639038,-0.000846842,-0.000389896,0.00116548,0.000569298,-0.00180604,0.882187,0.00143202,0.0235972,1924,1128,4.97304,-0.639054
707,-104,4.95227,0.748779,-0.00113103,-0.000479067,0.00115084,0.000391066,-0.00200116,0.92341,0.00148176,0.0204677,1931,1128,4.9523,-0.748735
714,-104,4.92285,0.824097,-0.00138169,-0.000546607,0.00109848,0.000211008,-0.00213931,0.96702,0.00150149,0.0236877,1938,1128,4.92285,-0.824157
721,-104,4.86572,0.881592,-0.00160829,-0.000560341,0.00110509,0.000138702,-0.00230734,1.00677,0.00158648,0.0180887,1945,1128,4.86574,-0.881612
728,-104,4.8772,0.826538,-0.00156875,-0.000529717,0.00104421,0.000117077,-0.00221554,1.01623,0.00151756,0.0229098,1952,1128,4.87714,-0.826549
735,-104,4.86523,0.81311,-0.00150242,-0.000509492,0.000806438,-5.895e-05,-0.00195296,1.06131,0.00128277,0.0210338,1959,1128,4.86525,-0.813068
742,-104,4.83948,0.807861,-0.00159227,-0.000392984,0.000526221,-0.000194829,-0.00179042,1.21066,0.00113426,0.0132712,1966,1128,4.83948,-0.807863
749,-104,4.80005,0.798462,-0.00172482,0.000486241,0.000213975,0.000506758,-0.00174534,1.4752,0.00136422,0.0164932,1973,1128,4.80008,-0.798467
756,-104,4.78235,0.784424,-0.00193643,0.00187357,-0.000390212,0.00191312,-0.00197598,-1.46978,0.00224547,0.0164467,1980,1128,4.78239,-0.784461
763,-104,4.81909,0.774414,-0.00209336,0.00365993,-0.00131229,0.00394512,-0.00237855,-1.3568,0.00368813,0.0144391,1987,1128,4.8191,-0.774469
770,-104,4.83374,0.755371,-0.00252114,0.00592769,-0.00217523,0.00645483,-0.00304828,-1.33304,0.00560289,0.0115001,1994,1128,4.83375,-0.755318
777,-104,4.84692,0.74585,-0.00328308,0.0091509,-0.00324986,0.00994908,-0.00408125,-1.32996,0.00833321,0.0186899,2001,1128,4.84694,-0.745794
784,-104,4.771,0.672852,-0.00430728,0.0136172,-0.00466675,0.0147594,-0.00544951,-1.33076,0.0120733,0.0381905,2008,1128,4.77105,-0.6728
791,-104,4.73694,0.316284,-0.00549251,0.0195949,-0.00654788,0.0212011,-0.00709869,-1.33025,0.0170017,0.0458849,2015,1128,4.73688,-0.316294
798,-104,4.97375,0.0598145,0,0,0,0,0,0,0,-1,2022,1128,4.97376,-0.0598463
805,-104,5.72131,0.170654,-0.00830797,0.0370158,-0.0122802,0.0401291,-0.0114214,-1.3225,0.0312632,0.0442149,2029,1128,5.72128,-0.17062
812,-104,5.46252,0.820557,-0.00949047,0.0488668,-0.0165465,0.0532319,-0.0138555,-1.31287,0.0408964,0.0438622,2036,1128,5.46254,-0.820597
-700,-111,0,0,0,0,0,0,0,0,0,-1,524,1135,0,0
-693,-111,-3.90564,2.77209,0.0830828,0.0257598,-0.0342023,0.0990451,0.00979753,-0.436656,0.0630186,0.0473359,531,1135,-3.90567,-2.77213
-686,-111,-3.99921,1.74731,0.0679283,0.0204499,-0.0253176,0.0788954,0.00948277,-0.408781,0.0497383,0.0499409,538,1135,-3.99918,-1.74727
-679,-111,-3.50793,1.53845,0.0545106,0.0164084,-0.0181987,0.061806,0.00911302,-0.381259,0.0385273,0.0498322,545,1135,-3.50792,-1.5385
-672,-111,0.61322,-1.07166,0,0,0,0,0,0,0,-1,552,1135,0.613232,1.07165
-665,-111,-0.777222,-0.460815,0.0323093,0.0106488,-0.00794051,0.0349083,0.00804972,-0.316324,0.021107,0.0498757,559,1135,-0.777245,0.460855
-658,-111,-0.794006,-0.137329,0.0234961,0.00850831,-0.00447896,0.0247326,0.00727182,-0.269357,0.0146777,0.0444564,566,1135,-0.793986,0.137386
-651,-111,-0.849121,0.229614,0.0162331,0.00670188,-0.00198089,0.0166284,0.00630658,-0.196969,0.00969324,0.037331,573,1135,-0.849094,-0.229557
-644,-111,-0.914856,0.615601,0.0105702,0.00517369,-0.00034691,0.0105924,0.00515148,-0.0639339,0.00611627,0.021165,580,1135,-0.91483,-0.615575
-637,-111,-0.928955,0.709351,0.00636022,0.00366316,0.00106343,0.00672907,0.0032943,0.333869,0.00388531,0.00760015,587,1135,-0.928937,-0.709313
-630,-111,-0.941528,0.710205,0.0022612,0.00172761,0.00193466,0.00394737,4.14362e-05,0.716879,0.00261788,0.0113138,594,1135,-0.94155,-0.710193
-623,-111,-0.940796,0.733276,-0.000717158,0.00214823,0.0014179,0.00273123,-0.00130016,1.18069,0.00237591,0.0121141,601,1135,-0.940795,-0.733319
-616,-111,-0.927063,0.73584,-0.0016395,0.0012158,0.00141385,0.00179742,-0.00222112,1.18052,0.0023244,0.0135121,608,1135,-0.927047,-0.735828
-609,-111,-0.912598,0.735596,-0.000661316,0.000479024,0.0001244,0.000492437,-0.000674729,1.46339,0.000676598,0.0159148,615,1135,-0.912587,-0.735649
-602,-111,-0.906677,0.747437,0.000116894,-0.000110818,-0.000691528,0.000703877,-0.000697801,-0.703808,0.000809261,0.0157002,622,1135,-0.906658,-0.747384
-595,-111,-0.903381,0.78833,0.000458309,-0.000553182,-0.00100841,0.00108069,-0.00117557,-0.552964,0.00130304,0.0126078,629,1135,-0.903376,-0.788361
-588,-111,-0.891968,0.792603,0.000762287,-0.000706097,-0.00114012,0.00138416,-0.00132797,-0.49934,0.00156596,0.019586,636,1135,-0.891974,-0.792642
-581,-111,-0.905762,0.688599,0.00120649,-0.000851812,-0.0013381,0.00186543,-0.00151076,-0.457588,0.00195283,0.0305229,643,1135,-0.905772,-0.68854
-574,-111,-0.996948,0.806152,0.00175429,-0.00109895,-0.00151578,0.00240921,-0.00175387,-0.407845,0.00241347,0.0401375,650,1135,-0.996966,-0.806163
-567,-111,-0.867676,0.752563,0.00228211,-0.00129048,-0.00152184,0.00284248,-0.00185085,-0.352813,0.00272979,0.0368829,657,1135,-0.867653,-0.752568
-560,-111,-0.783142,0.492554,0.00287581,-0.00143439,-0.00144543,0.00331565,-0.00187424,-0.295396,0.00303466,0.0387413,664,1135,-0.783151,-0.492589
-553,-111,-0.86261,0.143555,0.00354281,-0.00151535,-0.00130113,0.00385788,-0.00183041,-0.237577,0.00335295,0.0430163,671,1135,-0.86258,-0.14355
-546,-111,-0.940491,0.52063,0.00426685,-0.00152493,-0.00112021,0.00447596,-0.00173405,-0.18455,0.00370001,0.0377822,678,1135,-0.940503,-0.520594
-539,-111,-0.86499,0.984009,0.00508551,-0.00144931,-0.000973312,0.0052274,-0.00159119,-0.144758,0.00411908,0.0380993,685,1135,-0.864995,-0.983974
-532,-111,-0.894287,1.00586,0.00597848,-0.00131015,-0.00105849,0.00612908,-0.00146076,-0.141335,0.00465009,0.0401685,692,1135,-0.894292,-1.00582
-525,-111,-0.895081,0.855713,0.00651519,-0.00112854,-0.00149625,0.00679764,-0.00141099,-0.186577,0.00506799,0.036696,699,1135,-0.895103,-0.855685
-518,-111,0,0,0,0,0,0,0,0,0,-1,706,1135,0,0
-511,-111,0,0,0,0,0,0,0,0,0,-1,713,1135,0,0
-504,-111,0,0,0,0,0,0,0,0,0,-1,720,1135,0,0
-497,-111,0,0,0,0,0,0,0,0,0,-1,727,1135,0,0
-490,-111,0,0,0,0,0,0,0,0,0,-1,734,1135,0,0
-483,-111,0,0,0,0,0,0,0,0,0,-1,741,1135,0,0
-476,-111,0,0,0,0,0,0,0,0,0,-1,748,1135,0,0
-469,-111,0,0,0,0,0,0,0,0,0,-1,755,1135,0,0
-462,-111,0,0,0,0,0,0,0,0,0,-1,762,1135,0,0
-455,-111,0,0,0,0,0,0,0,0,0,-1,769,1135,0,0
-448,-111,0,0,0,0,0,0,0,0,0,-1,776,1135,0,0
-441,-111,0,0,0,0,0,0,0,0,0,-1,783,1135,0,0
-434,-111,0,0,0,0,0,0,0,0,0,-1,790,1135,0,0
-427,-111,0,0,0,0,0,0,0,0,0,-1,797,1135,0,0
-420,-111,0,0,0,0,0,0,0,0,0,-1,804,1135,0,0
-413,-111,0,0,0,0,0,0,0,0,0,-1,811,1135,0,0
-406,-111,0,0,0,0,0,0,0,0,0,-1,818,1135,0,0
-399,-111,0,0,0,0,0,0,0,0,0,-1,825,1135,0,0
-392,-111,0,0,0,0,0,0,0,0,0,-1,832,1135,0,0
-385,-111,0,0,0,0,0,0,0,0,0,-1,839,1135,0,0
-378,-111,0,0,0,0,0,0,0,0,0,-1,846,1135,0,0
-371,-111,0,0,0,0,0,0,0,0,0,-1,853,1135,0,0
-364,-111,0,0,0,0,0,0,0,0,0,-1,860,1135,0,0
-357,-111,0,0,0,0,0,0,0,0,0,-1,867,1135,0,0
-350,-111,0,0,0,0,0,0,0,0,0,-1,874,1135,0,0
-343,-111,0,0,0,0,0,0,0,0,0,-1,881,1135,0,0
-336,-111,0,0,0,0,0,0,0,0,0,-1,888,1135,0,0
-329,-111,0,0,0,0,0,0,0,0,0,-1,895,1135,0,0
-322,-111,0,0,0,0,0,0,0,0,0,-1,902,1135,0,0
-315,-111,0,0,0,0,0,0,0,0,0,-1,909,1135,0,0
-308,-111,0,0,0,0,0,0,0,0,0,-1,916,1135,0,0
-301,-111,0,0,0,0,0,0,0,0,0,-1,923,1135,0,0
-294,-111,0,0,0,0,0,0,0,0,0,-1,930,1135,0,0
-287,-111,0,0,0,0,0,0,0,0,0,-1,937,1135,0,0
-280,-111,0,0,0,0,0,0,0,0,0,-1,944,1135,0,0
-273,-111,0,0,0,0,0,0,0,0,0,-1,951,1135,0,0
-266,-111,0,0,0,0,0,0,0,0,0,-1,958,1135,0,0
-259,-111,0,0,0,0,0,0,0,0,0,-1,965,1135,0,0
-252,-111,0,0,0,0,0,0,0,0,0,-1,972,1135,0,0
-245,-111,0,0,0,0,0,0,0,0,0,-1,979,1135,0,0
-238,-111,0,0,0,0,0,0,0,0,0,-1,986,1135,0,0
-231,-111,0,0,0,0,0,0,0,0,0,-1,993,1135,0,0
-224,-111,0,0,0,0,0,0,0,0,0,-1,1000,1135,0,0
-217,-111,0,0,0,0,0,0,0,0,0,-1,1007,1135,0,0
-210,-111,0,0,0,0,0,0,0,0,0,-1,1014,1135,0,0
-203,-111,0,0,0,0,0,0,0,0,0,-1,1021,1135,0,0
-196,-111,0,0,0,0,0,0,0,0,0,-1,1028,1135,0,0
-189,-111,0,0,0,0,0,0,0,0,0,-1,1035,1135,0,0
-182,-111,0,0,0,0,0,0,0,0,0,-1,1042,1135,0,0
-175,-111,0,0,0,0,0,0,0,0,0,-1,1049,1135,0,0
-168,-111,0,0,0,0,0,0,0,0,0,-1,1056,1135,0,0
-161,-111,0,0,0,0,0,0,0,0,0,-1,1063,1135,0,0
-154,-111,0,0,0,0,0,0,0,0,0,-1,1070,1135,0,0
-147,-111,0,0,0,0,0,0,0,0,0,-1,1077,1135,0,0
-140,-111,0,0,0,0,0,0,0,0,0,-1,1084,1135,0,0
-133,-111,0,0,0,0,0,0,0,0,0,-1,1091,1135,0,0
-126,-111,0,0,0,0,0,0,0,0,0,-1,1098,1135,0,0
-119,-111,0,0,0,0,0,0,0,0,0,-1,1105,1135,0,0
-112,-111,0,0,0,0,0,0,0,0,0,-1,1112,1135,0,0
-105,-111,0,0,0,0,0,0,0,0,0,-1,1119,1135,0,0
-98,-111,0,0,0,0,0,0,0,0,0,-1,1126,1135,0,0
-91,-111,0,0,0,0,0,0,0,0,0,-1,1133,1135,0,0
-84,-111,0,0,0,0,0,0,0,0,0,-1,1140,1135,0,0
-77,-111,0,0,0,0,0,0,0,0,0,-1,1147,1135,0,0
-70,-111,0,0,0,0,0,0,0,0,0,-1,1154,1135,0,0
-63,-111,0,0,0,0,0,0,0,0,0,-1,1161,1135,0,0
-56,-111,0,0,0,0,0,0,0,0,0,-1,1168,1135,0,0
-49,-111,0,0,0,0,0,0,0,0,0,-1,1175,1135,0,0
-42,-111,0,0,0,0,0,0,0,0,0,-1,1182,1135,0,0
-35,-111,0,0,0,0,0,0,0,0,0,-1,1189,1135,0,0
-28,-111,0,0,0,0,0,0,0,0,0,-1,1196,1135,0,0
-21,-111,0,0,0,0,0,0,0,0,0,-1,1203,1135,0,0
-14,-111,0,0,0,0,0,0,0,0,0,-1,1210,1135,0,0
-7,-111,0,0,0,0,0,0,0,0,0,-1,1217,1135,0,0
0,-111,0,0,0,0,0,0,0,0,0,-1,1224,1135,0,0
7,-111,0,0,0,0,0,0,0,0,0,-1,1231,1135,0,0
14,-111,0,0,0,0,0,0,0,0,0,-1,1238,1135,0,0
21,-111,0,0,0,0,0,0,0,0,0,-1,1245,1135,0,0
28,-111,0,0,0,0,0,0,0,0,0,-1,1252,1135,0,0
35,-111,0,0,0,0,0,0,0,0,0,-1,1259,1135,0,0
42,-111,0,0,0,0,0,0,0,0,0,-1,1266,1135,0,0
49,-111,0,0,0,0,0,0,0,0,0,-1,1273,1135,0,0
56,-111,0,0,0,0,0,0,0,0,0,-1,1280,1135,0,0
63,-111,0,0,0,0,0,0,0,0,0,-1,1287,1135,0,0
70,-111,0,0,0,0,0,0,0,0,0,-1,1294,1135,0,0
77,-111,0,0,0,0,0,0,0,0,0,-1,1301,1135,0,0
84,-111,0,0,0,0,0,0,0,0,0,-1,1308,1135,0,0
91,-111,0,0,0,0,0,0,0,0,0,-1,1315,1135,0,0
98,-111,0,0,0,0,0,0,0,0,0,-1,1322,1135,0,0
105,-111,0,0,0,0,0,0,0,0,0,-1,1329,1135,0,0
112,-111,0,0,0,0,0,0,0,0,0,-1,1336,1135,0,0
119,-111,0,0,0,0,0,0,0,0,0,-1,1343,1135,0,0
126,-111,0,0,0,0,0,0,0,0,0,-1,1350,1135,0,0
133,-111,0,0,0,0,0,0,0,0,0,-1,1357,1135,0,0
140,-111,0,0,0,0,0,0,0,0,0,-1,1364,1135,0,0
147,-111,0,0,0,0,0,0,0,0,0,-1,1371,1135,0,0
154,-111,0,0,0,0,0,0,0,0,0,-1,1378,1135,0,0
161,-111,0,0,0,0,0,0,0,0,0,-1,1385,1135,0,0
168,-111,0,0,0,0,0,0,0,0,0,-1,1392,1135,0,0
175,-111,0,0,0,0,0,0,0,0,0,-1,1399,1135,0,0
182,-111,0,0,0,0,0,0,0,0,0,-1,1406,1135,0,0
189,-111,0,0,0,0,0,0,0,0,0,-1,1413,1135,0,0
196,-111,0,0,0,0,0,0,0,0,0,-1,1420,1135,0,0
203,-111,0,0,0,0,0,0,0,0,0,-1,1427,1135,0,0
210,-111,0,0,0,0,0,0,0,0,0,-1,1434,1135,0,0
217,-111,0,0,0,0,0,0,0,0,0,-1,1441,1135,0,0
224,-111,0,0,0,0,0,0,0,0,0,-1,1448,1135,0,0
231,-111,0,0,0,0,0,0,0,0,0,-1,1455,1135,0,0
238,-111,0,0,0,0,0,0,0,0,0,-1,1462,1135,0,0
245,-111,0,0,0,0,0,0,0,0,0,-1,1469,1135,0,0
252,-111,0,0,0,0,0,0,0,0,0,-1,1476,1135,0,0
259,-111,0,0,0,0,0,0,0,0,0,-1,1483,1135,0,0
266,-111,0,0,0,0,0,0,0,0,0,-1,1490,1135,0,0
273,-111,0,0,0,0,0,0,0,0,0,-1,1497,1135,0,0
280,-111,0,0,0,0,0,0,0,0,0,-1,1504,1135,0,0
287,-111,0,0,0,0,0,0,0,0,0,-1,1511,1135,0,0
294,-111,0,0,0,0,0,0,0,0,0,-1,1518,1135,0,0
301,-111,0,0,0,0,0,0,0,0,0,-1,1525,1135,0,0
308,-111,0,0,0,0,0,0,0,0,0,-1,1532,1135,0,0
315,-111,0,0,0,0,0,0,0,0,0,-1,1539,1135,0,0
322,-111,0,0,0,0,0,0,0,0,0,-1,1546,1135,0,0
329,-111,0,0,0,0,0,0,0,0,0,-1,1553,1135,0,0
336,-111,0,0,0,0,0,0,0,0,0,-1,1560,1135,0,0
343,-111,0,0,0,0,0,0,0,0,0,-1,1567,1135,0,0
350,-111,0,0,0,0,0,0,0,0,0,-1,1574,1135,0,0
357,-111,0,0,0,0,0,0,0,0,0,-1,1581,1135,0,0
364,-111,0,0,0,0,0,0,0,0,0,-1,1588,1135,0,0
371,-111,0,0,0,0,0,0,0,0,0,-1,1595,1135,0,0
378,-111,0,0,0,0,0,0,0,0,0,-1,1602,1135,0,0
385,-111,0,0,0,0,0,0,0,0,0,-1,1609,1135,0,0
392,-111,0,0,0,0,0,0,0,0,0,-1,1616,1135,0,0
399,-111,0,0,0,0,0,0,0,0,0,-1,1623,1135,0,0
406,-111,0,0,0,0,0,0,0,0,0,-1,1630,1135,0,0
413,-111,0,0,0,0,0,0,0,0,0,-1,1637,1135,0,0
420,-111,0,0,0,0,0,0,0,0,0,-1,1644,1135,0,0
427,-111,0,0,0,0,0,0,0,0,0,-1,1651,1135,0,0
434,-111,0,0,0,0,0,0,0,0,0,-1,1658,1135,0,0
441,-111,0,0,0,0,0,0,0,0,0,-1,1665,1135,0,0
448,-111,0,0,0,0,0,0,0,0,0,-1,1672,1135,0,0
455,-111,0,0,0,0,0,0,0,0,0,-1,1679,1135,0,0
462,-111,0,0,0,0,0,0,0,0,0,-1,1686,1135,0,0
469,-111,0,0,0,0,0,0,0,0,0,-1,1693,1135,0,0
476,-111,0,0,0,0,0,0,0,0,0,-1,1700,1135,0,0
483,-111,0,0,0,0,0,0,0,0,0,-1,1707,1135,0,0
490,-111,0,0,0,0,0,0,0,0,0,-1,1714,1135,0,0
497,-111,0,0,0,0,0,0,0,0,0,-1,1721,1135,0,0
504,-111,0,0,0,0,0,0,0,0,0,-1,1728,1135,0,0
511,-111,0,0,0,0,0,0,0,0,0,-1,1735,1135,0,0
518,-111,0,0,0,0,0,0,0,0,0,-1,1742,1135,0,0
525,-111,0,0,0,0,0,0,0,0,0,-1,1749,1135,0,0
532,-111,0,0,0,0,0,0,0,0,0,-1,1756,1135,0,0
539,-111,0,0,0,0,0,0,0,0,0,-1,1763,1135,0,0
546,-111,0,0,0,0,0,0,0,0,0,-1,1770,1135,0,0
553,-111,0,0,0,0,0,0,0,0,0,-1,1777,1135,0,0
560,-111,0,0,0,0,0,0,0,0,0,-1,1784,1135,0,0
567,-111,0,0,0,0,0,0,0,0,0,-1,1791,1135,0,0
574,-111,0,0,0,0,0,0,0,0,0,-1,1798,1135,0,0
581,-111,0,0,0,0,0,0,0,0,0,-1,1805,1135,0,0
588,-111,0,0,0,0,0,0,0,0,0,-1,1812,1135,0,0
595,-111,0,0,0,0,0,0,0,0,0,-1,1819,1135,0,0
602,-111,0,0,0,0,0,0,0,0,0,-1,1826,1135,0,0
609,-111,0,0,0,0,0,0,0,0,0,-1,1833,1135,0,0
616,-111,0,0,0,0,0,0,0,0,0,-1,1840,1135,0,0
623,-111,0,0,0,0,0,0,0,0,0,-1,1847,1135,0,0
630,-111,0,0,0,0,0,0,0,0,0,-1,1854,1135,0,0
637,-111,0,0,0,0,0,0,0,0,0,-1,1861,1135,0,0
644,-111,4.77551,0.756714,0.00220707,-0.000579061,0.0018612,0.0031388,-0.0015108,0.464135,0.00273875,0.0368803,1868,1135,4.77547,-0.756673
651,-111,4.87256,0.851318,0.00217237,8.46575e-05,0.0012392,0.00274878,-0.000491751,0.435376,0.00201653,0.0362973,1875,1135,4.87259,-0.851271
658,-111,4.94043,0.876831,0.00217697,0.000365531,0.00090592,0.00255227,-9.7726e-06,0.392755,0.00170478,0.0412393,1882,1135,4.94044,-0.876874
665,-111,4.98755,0.747437,0.00181498,0.000381374,0.000803529,0.00217496,2.13915e-05,0.421191,0.0014429,0.0457963,1889,1135,4.98757,-0.747465
672,-111,5.00012,0.63855,0.00123123,0.000256897,0.000839564,0.00171473,-0.000226606,0.522509,0.00122569,0.0439557,1896,1135,5.00007,-0.638569
679,-111,4.9137,0.591187,0.000606684,7.04178e-05,0.000926258,0.00130284,-0.000625737,0.644509,0.00113611,0.0415468,1903,1135,4.91373,-0.59124
686,-111,4.81531,0.746216,2.60336e-05,-0.00013667,0.00104928,0.000997113,-0.00110775,0.74671,0.0012158,0.0392409,1910,1135,4.81536,-0.746242
693,-111,4.89307,0.707153,-0.000505186,-0.000307813,0.00115222,0.00074994,-0.00156294,0.828118,0.00136256,0.0323101,1917,1135,4.89309,-0.707149
700,-111,4.95227,0.66272,-0.000949617,-0.000422071,0.00127799,0.000619084,-0.00199077,0.887167,0.00157465,0.0221517,1924,1135,4.95232,-0.6627
707,-111,4.95813,0.735107,-0.00124251,-0.000536913,0.00126959,0.000427989,-0.00220741,0.92092,0.00163307,0.0303437,1931,1135,4.95817,-0.735126
714,-111,4.88245,0.814087,-0.00150612,-0.000631328,0.00121089,0.000218746,-0.00235619,0.958714,0.00164855,0.0154014,1938,1135,4.88242,-0.814038
721,-111,4.83875,0.86145,-0.00173076,-0.000644721,0.00119514,0.000124977,-0.00250045,0.998633,0.00171015,0.0114735,1945,1135,4.83879,-0.861411
728,-111,4.85913,0.83606,-0.00169385,-0.000603111,0.00112411,0.00010094,-0.0023979,1.01125,0.00163329,0.0160548,1952,1135,4.85913,-0.836021
735,-111,4.86377,0.815918,-0.00161483,-0.000578309,0.000892148,-6.48124e-05,-0.00212832,1.04853,0.00139778,0.0159907,1959,1135,4.86379,-0.815865
742,-111,4.84412,0.838867,-0.0016847,-0.000452213,0.000626258,-0.000189847,-0.00194707,1.17407,0.00123962,0.0106824,1966,1135,4.84415,-0.838831
749,-111,4.78967,0.825317,-0.00186693,0.000562593,0.000372988,0.000618565,-0.00192291,1.42184,0.00153038,0.0142505,1973,1135,4.78973,-0.825314
756,-111,4.77734,0.789551,-0.0021884,0.00202723,-0.000106269,0.00202991,-0.00219108,-1.54561,0.00243758,0.015552,1980,1135,4.77738,-0.789513
763,-111,4.81787,0.772461,-0.00248118,0.00374761,-0.000870173,0.00386689,-0.00260046,-1.43457,0.00375772,0.0128775,1987,1135,4.81787,-0.772417
770,-111,4.8092,0.795654,-0.00315059,0.00606762,-0.00150258,0.00630636,-0.00338933,-1.41323,0.00568163,0.0106302,1994,1135,4.80923,-0.795703
777,-111,4.81018,0.768677,-0.00427983,0.00935358,-0.00226349,0.00971956,-0.0046458,-1.4105,0.00846452,0.0229516,2001,1135,4.8102,-0.768646
784,-111,4.73267,0.717529,-0.0058069,0.0138807,-0.0032646,0.0144079,-0.00633412,-1.41068,0.0122741,0.0404799,2008,1135,4.73262,-0.717583
791,-111,4.27795,0.48584,-0.00767607,0.0198758,-0.0045915,0.0206208,-0.0084211,-1.40994,0.0172534,0.04482,2015,1135,4.27794,-0.485827
798,-111,4.14465,0.234863,0,0,0,0,0,0,0,-1,2022,1135,4.14459,-0.234892
805,-111,6.51294,0.58374,-0.012587,0.0368757,-0.00870062,0.0383615,-0.0140728,-1.40166,0.0313369,0.0420303,2029,1135,6.51299,-0.583737
812,-111,6.54456,1.18225,-0.0152252,0.0479537,-0.0118617,0.0501073,-0.0173788,-1.39119,0.0404616,0.0415439,2036,1135,6.54458,-1.18229
-700,-118,0,0,0,0,0,0,0,0,0,-1,524,1142,0,0
-693,-118,-3.39587,2.37354,0,0,0,0,0,0,0,-1,531,1142,-3.39585,-2.37349
-686,-118,-3.63031,2.30823,0,0,0,0,0,0,0,-1,538,1142,-3.6303,-2.30827
-679,-118,-3.36395,2.03503,0.0444557,0.0130059,-0.0186493,0.0531248,0.00433684,-0.435134,0.0340631,0.0499398,545,1142,-3.36392,-2.03501
-672,-118,-3.10034,1.72742,0.0354799,0.0103473,-0.0127673,0.0408277,0.00499947,-0.396666,0.0257145,0.0499409,552,1142,-3.10034,-1.72745
-665,-118,-2.8255,1.40894,0,0,0,0,0,0,0,-1,559,1142,-2.82548,-1.40897
-658,-118,-0.810486,-0.0874023,0,0,0,0,0,0,0,-1,566,1142,-0.810495,0.0873568
-651,-118,-0.87146,0.268188,0.0142356,0.00519439,-0.00186999,0.0146071,0.00482288,-0.196112,0.00859407,0.0394282,573,1142,-0.871488,-0.26819
-644,-118,-0.902893,0.650635,0.00941044,0.00403709,-0.000164728,0.00941548,0.00403204,-0.0306181,0.00545467,0.0231206,580,1142,-0.902907,-0.650657
-637,-118,-0.914795,0.700562,0.00581593,0.00281926,0.00129863,0.00630038,0.00233481,0.35706,0.00367792,0.0123386,587,1142,-0.914804,-0.700597
-630,-118,-0.905701,0.700317,0.0022622,0.00120333,0.00207537,0.00387461,-0.000409074,0.66051,0.00272966,0.0152721,594,1142,-0.905703,-0.700335
-623,-118,-0.879883,0.700562,-0.00046566,0.00178702,0.00170002,0.00269997,-0.00137861,1.07797,0.00239561,0.0139348,601,1142,-0.879878,-0.700563
-616,-118,-0.880249,0.708374,-0.00148262,0.00103299,0.00172975,0.00191391,-0.00236353,1.09976,0.00247412,0.0135918,608,1142,-0.880275,-0.708337
-609,-118,-0.901123,0.744141,-0.000648987,0.000395429,0.000331695,0.000491867,-0.000745425,1.28785,0.000719333,0.0136568,615,1142,-0.901121,-0.74414
-602,-118,-0.909241,0.775879,-2.66462e-05,-0.000125484,-0.000645789,0.000571612,-0.000723742,-0.74721,0.00074959,0.0127974,622,1142,-0.909222,-0.775833
-595,-118,-0.919067,0.793823,0.000243714,-0.000581162,-0.000997451,0.000910634,-0.00124808,-0.589357,0.0012514,0.0107142,629,1142,-0.919091,-0.793805
-588,-118,-0.890991,0.84668,0.000512865,-0.000735879,-0.00114864,0.00119586,-0.00141887,-0.536449,0.00151144,0.0144205,636,1142,-0.890968,-0.846628
-581,-118,-0.901123,0.772217,0.000918837,-0.000880847,-0.00135924,0.0016491,-0.00161111,-0.49301,0.00188233,0.0329739,643,1142,-0.901104,-0.772217
-574,-118,-0.965454,0.768677,0.00143705,-0.00117286,-0.00153503,0.00214685,-0.00188266,-0.433118,0.0023281,0.0400477,650,1142,-0.965469,-0.768736
-567,-118,-0.933533,0.728271,0.0019428,-0.00140139,-0.00153924,0.00254341,-0.00200199,-0.372026,0.00263049,0.0389395,657,1142,-0.933544,-0.728278
-560,-118,-0.73999,0.470703,0.00253609,-0.00158033,-0.00146638,0.00300503,-0.00204926,-0.309517,0.00293544,0.0357874,664,1142,-0.739983,-0.470679
-553,-118,-0.686462,0.329834,0.00322786,-0.00170643,-0.00131269,0.00355535,-0.00203392,-0.244486,0.00326657,0.0379408,671,1142,-0.686454,-0.329861
-546,-118,-0.763062,0.55896,0.00400787,-0.00177852,-0.00110174,0.00421055,-0.0019812,-0.181925,0.00365123,0.0364771,678,1142,-0.763054,-0.558936
-539,-118,-0.825562,0.897705,0.00490983,-0.00179202,-0.000885975,0.00502498,-0.00190716,-0.129241,0.00413501,0.038169,685,1142,-0.82554,-0.897692
-532,-118,-0.890564,1.00012,0.00591776,-0.00178131,-0.000823098,0.00600477,-0.00186833,-0.105323,0.00475005,0.0393911,692,1142,-0.890551,-1.00008
-525,-118,-0.872803,0.870361,0.00663028,-0.00181109,-0.00101099,0.00674968,-0.00193049,-0.117551,0.00526266,0.0390219,699,1142,-0.872776,-0.870333
-518,-118,0,0,0,0,0,0,0,0,0,-1,706,1142,0,0
-511,-118,0,0,0,0,0,0,0,0,0,-1,713,1142,0,0
-504,-118,0,0,0,0,0,0,0,0,0,-1,720,1142,0,0
-497,-118,0,0,0,0,0,0,0,0,0,-1,727,1142,0,0
-490,-118,0,0,0,0,0,0,0,0,0,-1,734,1142,0,0
-483,-118,0,0,0,0,0,0,0,0,0,-1,741,1142,0,0
-476,-118,0,0,0,0,0,0,0,0,0,-1,748,1142,0,0
-469,-118,0,0,0,0,0,0,0,0,0,-1,755,1142,0,0
-462,-118,0,0,0,0,0,0,0,0,0,-1,762,1142,0,0
-455,-118,0,0,0,0,0,0,0,0,0,-1,769,1142,0,0
-448,-118,0,0,0,0,0,0,0,0,0,-1,776,1142,0,0
-441,-118,0,0,0,0,0,0,0,0,0,-1,783,1142,0,0
-434,-118,0,0,0,0,0,0,0,0,0,-1,790,1142,0,0
-427,-118,0,0,0,0,0,0,0,0,0,-1,797,1142,0,0
-420,-118,0,0,0,0,0,0,0,0,0,-1,804,1142,0,0
-413,-118,0,0,0,0,0,0,0,0,0,-1,811,1142,0,0
-406,-118,0,0,0,0,0,0,0,0,0,-1,818,1142,0,0
-399,-118,0,0,0,0,0,0,0,0,0,-1,825,1142,0,0
-392,-118,0,0,0,0,0,0,0,0,0,-1,832,1142,0,0
-385,-118,0,0,0,0,0,0,0,0,0,-1,839,1142,0,0
-378,-118,0,0,0,0,0,0,0,0,0,-1,846,1142,0,0
-371,-118,0,0,0,0,0,0,0,0,0,-1,853,1142,0,0
-364,-118,0,0,0,0,0,0,0,0,0,-1,860,1142,0,0
-357,-118,0,0,0,0,0,0,0,0,0,-1,867,1142,0,0
-350,-118,0,0,0,0,0,0,0,0,0,-1,874,1142,0,0
-343,-118,0,0,0,0,0,0,0,0,0,-1,881,1142,0,0
-336,-118,0,0,0,0,0,0,0,0,0,-1,888,1142,0,0
-329,-118,0,0,0,0,0,0,0,0,0,-1,895,1142,0,0
-322,-118,0,0,0,0,0,0,0,0,0,-1,902,1142,0,0
-315,-118,0,0,0,0,0,0,0,0,0,-1,909,1142,0,0
-308,-118,0,0,0,0,0,0,0,0,0,-1,916,1142,0,0
-301,-118,0,0,0,0,0,0,0,0,0,-1,923,1142,0,0
-294,-118,0,0,0,0,0,0,0,0,0,-1,930,1142,0,0
-287,-118,0,0,0,0,0,0,0,0,0,-1,937,1142,0,0
-280,-118,0,0,0,0,0,0,0,0,0,-1,944,1142,0,0
-273,-118,0,0,0,0,0,0,0,0,0,-1,951,1142,0,0
-266,-118,0,0,0,0,0,0,0,0,0,-1,958,1142,0,0
-259,-118,0,0,0,0,0,0,0,0,0,-1,965,1142,0,0
-252,-118,0,0,0,0,0,0,0,0,0,-1,972,1142,0,0
-245,-118,0,0,0,0,0,0,0,0,0,-1,979,1142,0,0
-238,-118,0,0,0,0,0,0,0,0,0,-1,986,1142,0,0
-231,-118,0,0,0,0,0,0,0,0,0,-1,993,1142,0,0
-224,-118,0,0,0,0,0,0,0,0,0,-1,1000,1142,0,0
-217,-118,0,0,0,0,0,0,0,0,0,-1,1007,1142,0,0
-210,-118,0,0,0,0,0,0,0,0,0,-1,1014,1142,0,0
-203,-118,0,0,0,0,0,0,0,0,0,-1,1021,1142,0,0
-196,-118,0,0,0,0,0,0,0,0,0,-1,1028,1142,0,0
-189,-118,0,0,0,0,0,0,0,0,0,-1,1035,1142,0,0
-182,-118,0,0,0,0,0,0,0,0,0,-1,1042,1142,0,0
-175,-118,0,0,0,0,0,0,0,0,0,-1,1049,1142,0,0
-168,-118,0,0,0,0,0,0,0,0,0,-1,1056,1142,0,0
-161,-118,0,0,0,0,0,0,0,0,0,-1,1063,1142,0,0
-154,-118,0,0,0,0,0,0,0,0,0,-1,1070,1142,0,0
-147,-118,0,0,0,0,0,0,0,0,0,-1,1077,1142,0,0
-140,-118,0,0,0,0,0,0,0,0,0,-1,1084,1142,0,0
-133,-118,0,0,0,0,0,0,0,0,0,-1,1091,1142,0,0
-126,-118,0,0,0,0,0,0,0,0,0,-1,1098,1142,0,0
-119,-118,0,0,0,0,0,0,0,0,0,-1,1105,1142,0,0
-112,-118,0,0,0,0,0,0,0,0,0,-1,1112,1142,0,0
-105,-118,0,0,0,0,0,0,0,0,0,-1,1119,1142,0,0
-98,-118,0,0,0,0,0,0,0,0,0,-1,1126,1142,0,0
-91,-118,0,0,0,0,0,0,0,0,0,-1,1133,1142,0,0
-84,-118,0,0,0,0,0,0,0,0,0,-1,1140,1142,0,0
-77,-118,0,0,0,0,0,0,0,0,0,-1,1147,1142,0,0
-70,-118,0,0,0,0,0,0,0,0,0,-1,1154,1142,0,0
-63,-118,0,0,0,0,0,0,0,0,0,-1,1161,1142,0,0
-56,-118,0,0,0,0,0,0,0,0,0,-1,1168,1142,0,0
-49,-118,0,0,0,0,0,0,0,0,0,-1,1175,1142,0,0
-42,-118,0,0,0,0,0,0,0,0,0,-1,1182,1142,0,0
-35,-118,0,0,0,0,0,0,0,0,0,-1,1189,1142,0,0
-28,-118,0,0,0,0,0,0,0,0,0,-1,1196,1142,0,0
-21,-118,0,0,0,0,0,0,0,0,0,-1,1203,1142,0,0
-14,-118,0,0,0,0,0,0,0,0,0,-1,1210,1142,0,0
-7,-118,0,0,0,0,0,0,0,0,0,-1,1217,1142,0,0
0,-118,0,0,0,0,0,0,0,0,0,-1,1224,1142,0,0
7,-118,0,0,0,0,0,0,0,0,0,-1,1231,1142,0,0
14,-118,0,0,0,0,0,0,0,0,0,-1,1238,1142,0,0
21,-118,0,0,0,0,0,0,0,0,0,-1,1245,1142,0,0
28,-118,0,0,0,0,0,0,0,0,0,-1,1252,1142,0,0
35,-118,0,0,0,0,0,0,0,0,0,-1,1259,1142,0,0
42,-118,0,0,0,0,0,0,0,0,0,-1,1266,1142,0,0
49,-118,0,0,0,0,0,0,0,0,0,-1,1273,1142,0,0
56,-118,0,0,0,0,0,0,0,0,0,-1,1280,1142,0,0
63,-118,0,0,0,0,0,0,0,0,0,-1,1287,1142,0,0
70,-118,0,0,0,0,0,0,0,0,0,-1,1294,1142,0,0
77,-118,0,0,0,0,0,0,0,0,0,-1,1301,1142,0,0
84,-118,0,0,0,0,0,0,0,0,0,-1,1308,1142,0,0
91,-118,0,0,0,0,0,0,0,0,0,-1,1315,1142,0,0
98,-118,0,0,0,0,0,0,0,0,0,-1,1322,1142,0,0
105,-118,0,0,0,0,0,0,0,0,0,-1,1329,1142,0,0
112,-118,0,0,0,0,0,0,0,0,0,-1,1336,1142,0,0
119,-118,0,0,0,0,0,0,0,0,0,-1,1343,1142,0,0
126,-118,0,0,0,0,0,0,0,0,0,-1,1350,1142,0,0
133,-118,0,0,0,0,0,0,0,0,0,-1,1357,1142,0,0
140,-118,0,0,0,0,0,0,0,0,0,-1,1364,1142,0,0
147,-118,0,0,0,0,0,0,0,0,0,-1,1371,1142,0,0
154,-118,0,0,0,0,0,0,0,0,0,-1,1378,1142,0,0
161,-118,0,0,0,0,0,0,0,0,0,-1,1385,1142,0,0
168,-118,0,0,0,0,0,0,0,0,0,-1,1392,1142,0,0
175,-118,0,0,0,0,0,0,0,0,0,-1,1399,1142,0,0
182,-118,0,0,0,0,0,0,0,0,0,-1,1406,1142,0,0
189,-118,0,0,0,0,0,0,0,0,0,-1,1413,1142,0,0
196,-118,0,0,0,0,0,0,0,0,0,-1,1420,1142,0,0
203,-118,0,0,0,0,0,0,0,0,0,-1,1427,1142,0,0
210,-118,0,0,0,0,0,0,0,0,0,-1,1434,1142,0,0
217,-118,0,0,0,0,0,0,0,0,0,-1,1441,1142,0,0
224,-118,0,0,0,0,0,0,0,0,0,-1,1448,1142,0,0
231,-118,0,0,0,0,0,0,0,0,0,-1,1455,1142,0,0
238,-118,0,0,0,0,0,0,0,0,0,-1,1462,1142,0,0
245,-118,0,0,0,0,0,0,0,0,0,-1,1469,1142,0,0
252,-118,0,0,0,0,0,0,0,0,0,-1,1476,1142,0,0
259,-118,0,0,0,0,0,0,0,0,0,-1,1483,1142,0,0
266,-118,0,0,0,0,0,0,0,0,0,-1,1490,1142,0,0
273,-118,0,0,0,0,0,0,0,0,0,-1,1497,1142,0,0
280,-118,0,0,0,0,0,0,0,0,0,-1,1504,1142,0,0
287,-118,0,0,0,0,0,0,0,0,0,-1,1511,1142,0,0
294,-118,0,0,0,0,0,0,0,0,0,-1,1518,1142,0,0
301,-118,0,0,0,0,0,0,0,0,0,-1,1525,1142,0,0
308,-118,0,0,0,0,0,0,0,0,0,-1,1532,1142,0,0
315,-118,0,0,0,0,0,0,0,0,0,-1,1539,1142,0,0
322,-118,0,0,0,0,0,0,0,0,0,-1,1546,1142,0,0
329,-118,0,0,0,0,0,0,0,0,0,-1,1553,1142,0,0
336,-118,0,0,0,0,0,0,0,0,0,-1,1560,1142,0,0
343,-118,0,0,0,0,0,0,0,0,0,-1,1567,1142,0,0
350,-118,0,0,0,0,0,0,0,0,0,-1,1574,1142,0,0
357,-118,0,0,0,0,0,0,0,0,0,-1,1581,1142,0,0
364,-118,0,0,0,0,0,0,0,0,0,-1,1588,1142,0,0
371,-118,0,0,0,0,0,0,0,0,0,-1,1595,1142,0,0
378,-118,0,0,0,0,0,0,0,0,0,-1,1602,1142,0,0
385,-118,0,0,0,0,0,0,0,0,0,-1,1609,1142,0,0
392,-118,0,0,0,0,0,0,0,0,0,-1,1616,1142,0,0
399,-118,0,0,0,0,0,0,0,0,0,-1,1623,1142,0,0
406,-118,0,0,0,0,0,0,0,0,0,-1,1630,1142,0,0
413,-118,0,0,0,0,0,0,0,0,0,-1,1637,1142,0,0
420,-118,0,0,0,0,0,0,0,0,0,-1,1644,1142,0,0
427,-118,0,0,0,0,0,0,0,0,0,-1,1651,1142,0,0
434,-118,0,0,0,0,0,0,0,0,0,-1,1658,1142,0,0
441,-118,0,0,0,0,0,0,0,0,0,-1,1665,1142,0,0
448,-118,0,0,0,0,0,0,0,0,0,-1,1672,1142,0,0
455,-118,0,0,0,0,0,0,0,0,0,-1,1679,1142,0,0
462,-118,0,0,0,0,0,0,0,0,0,-1,1686,1142,0,0
469,-118,0,0,0,0,0,0,0,0,0,-1,1693,1142,0,0
476,-118,0,0,0,0,0,0,0,0,0,-1,1700,1142,0,0
483,-118,0,0,0,0,0,0,0,0,0,-1,1707,1142,0,0
490,-118,0,0,0,0,0,0,0,0,0,-1,1714,1142,0,0
497,-118,0,0,0,0,0,0,0,0,0,-1,1721,1142,0,0
504,-118,0,0,0,0,0,0,0,0,0,-1,1728,1142,0,0
511,-118,0,0,0,0,0,0,0,0,0,-1,1735,1142,0,0
518,-118,0,0,0,0,0,0,0,0,0,-1,1742,1142,0,0
525,-118,0,0,0,0,0,0,0,0,0,-1,1749,1142,0,0
532,-118,0,0,0,0,0,0,0,0,0,-1,1756,1142,0,0
539,-118,0,0,0,0,0,0,0,0,0,-1,1763,1142,0,0
546,-118,0,0,0,0,0,0,0,0,0,-1,1770,1142,0,0
553,-118,0,0,0,0,0,0,0,0,0,-1,1777,1142,0,0
560,-118,0,0,0,0,0,0,0,0,0,-1,1784,1142,0,0
567,-118,0,0,0,0,0,0,0,0,0,-1,1791,1142,0,0
574,-118,0,0,0,0,0,0,0,0,0,-1,1798,1142,0,0
581,-118,0,0,0,0,0,0,0,0,0,-1,1805,1142,0,0
588,-118,0,0,0,0,0,0,0,0,0,-1,1812,1142,0,0
595,-118,0,0,0,0,0,0,0,0,0,-1,1819,1142,0,0
602,-118,0,0,0,0,0,0,0,0,0,-1,1826,1142,0,0
609,-118,0,0,0,0,0,0,0,0,0,-1,1833,1142,0,0
616,-118,0,0,0,0,0,0,0,0,0,-1,1840,1142,0,0
623,-118,0,0,0,0,0,0,0,0,0,-1,1847,1142,0,0
630,-118,0,0,0,0,0,0,0,0,0,-1,1854,1142,0,0
637,-118,0,0,0,0,0,0,0,0,0,-1,1861,1142,0,0
644,-118,4.87866,0.699097,0.00182553,-0.000213151,0.00108867,0.00229758,-0.000685205,0.409138,0.00180403,0.0400786,1868,1142,4.87863,-0.69907
651,-118,4.8739,0.547852,0.00195822,0.000369403,0.000658651,0.00219575,0.000131869,0.34612,0.00142192,0.0380673,1875,1142,4.87389,-0.547885
658,-118,4.74951,0.560425,0.00203107,0.000501542,0.000508377,0.00218462,0.000347986,0.293338,0.00135539,0.0401749,1882,1142,4.74949,-0.56047
665,-118,4.84436,0.635132,0.00167292,0.000384661,0.000556993,0.00188034,0.000177236,0.35649,0.00119886,0.042731,1889,1142,4.84439,-0.6351
672,-118,4.8894,0.681885,0.00108443,0.000150589,0.00070136,0.00146007,-0.000225059,0.49172,0.00105642,0.0413065,1896,1142,4.88945,-0.681863
679,-118,4.88672,0.655151,0.000450723,-0.000121124,0.000866673,0.00107742,-0.00074782,0.626065,0.00105951,0.0386682,1903,1142,4.88666,-0.655119
686,-118,4.87183,0.705444,-0.000145385,-0.000388073,0.00104237,0.00078268,-0.00131614,0.727453,0.00122473,0.0347091,1910,1142,4.87184,-0.705503
693,-118,4.91223,0.677856,-0.000695468,-0.000579834,0.00117328,0.000537057,-0.00181236,0.810017,0.00142149,0.0298101,1917,1142,4.91229,-0.677819
700,-118,4.95923,0.696533,-0.00111565,-0.000721885,0.00131723,0.000413094,-0.00225063,0.859583,0.00165539,0.016636,1924,1142,4.95918,-0.696572
707,-118,5.00586,0.812134,-0.00140124,-0.000829507,0.0013328,0.000247738,-0.00247848,0.89104,0.00174079,0.043236,1931,1142,5.00584,-0.812163
714,-118,4.88892,0.817017,-0.00166656,-0.000907165,0.00127564,4.40878e-05,-0.00261782,0.930049,0.00176009,0.0243039,1938,1142,4.88892,-0.817023
721,-118,4.81689,0.833862,-0.00187144,-0.000883448,0.00124194,-4.08607e-05,-0.00271403,0.974685,0.00179589,0.00925701,1945,1142,4.81687,-0.833867
728,-118,4.82312,0.84729,-0.00182283,-0.000800814,0.00117289,-3.2444e-05,-0.0025912,0.99084,0.00171675,0.0127174,1952,1142,4.82311,-0.847283
735,-118,4.83716,0.848267,-0.00172021,-0.000741455,0.000959953,-0.000153336,-0.00230833,1.02112,0.00149041,0.0132149,1959,1142,4.83713,-0.848263
742,-118,4.86011,0.848022,-0.00175355,-0.000593931,0.000710048,-0.000257036,-0.00209045,1.12778,0.00131634,0.0196413,1966,1142,4.86013,-0.848069
749,-118,4.85974,0.820313,-0.00197067,0.00057114,0.000531488,0.000677797,-0.00207733,1.37275,0.00165767,0.0204894,1973,1142,4.85972,-0.820294
756,-118,4.80847,0.788452,-0.00239046,0.00215133,0.000202939,0.00216038,-0.00239951,1.52623,0.00263386,0.017949,1980,1142,4.80849,-0.788458
763,-118,4.81482,0.789307,-0.0028215,0.00385531,-0.000370678,0.00387583,-0.00284201,-1.51551,0.00389383,0.00978814,1987,1142,4.81486,-0.789324
770,-118,4.79724,0.810791,-0.00374417,0.00628798,-0.000739602,0.00634221,-0.0037984,-1.4976,0.00591577,0.0116762,1994,1142,4.79723,-0.810844
777,-118,4.78821,0.776611,-0.0052469,0.00975993,-0.00114413,0.00984666,-0.00533363,-1.49514,0.00889251,0.024027,2001,1142,4.78823,-0.776571
784,-118,4.81458,0.740112,-0.00728728,0.0145724,-0.00166827,0.0146989,-0.00741387,-1.49506,0.0129957,0.0412095,2008,1142,4.81457,-0.740093
791,-118,4.76697,0.762695,0,0,0,0,0,0,0,-1,2015,1142,4.76693,-0.762644
798,-118,4.27905,1.68201,0,0,0,0,0,0,0,-1,2022,1142,4.2791,-1.68199
805,-118,4.13953,1.85669,0,0,0,0,0,0,0,-1,2029,1142,4.13958,-1.85669
812,-118,7.73254,1.58862,0,0,0,0,0,0,0,-1,2036,1142,7.73254,-1.58865
-700,-125,0,0,0,0,0,0,0,0,0,-1,524,1149,0,0
-693,-125,-2.93201,2.55078,0.0452718,0.0168048,-0.0354287,0.0692192,-0.00714265,-0.594391,0.0487019,0.0471405,531,1149,-2.93198,-2.55075
-686,-125,-2.96216,2.38025,0.0415565,0.0125452,-0.0259234,0.0567567,-0.00265499,-0.530322,0.0387531,0.0476827,538,1149,-2.96214,-2.38026
-679,-125,-2.94672,2.18713,0.0367493,0.00958854,-0.0182859,0.0459461,0.000391755,-0.466001,0.030501,0.0458429,545,1149,-2.9467,-2.18714
-672,-125,-2.74829,1.83508,0.0314274,0.00743124,-0.0121488,0.0365041,0.00235455,-0.395821,0.0235904,0.0444222,552,1149,-2.7483,-1.83509
-665,-125,-1.04932,0.933105,0,0,0,0,0,0,0,-1,559,1149,-1.0493,-0.933074
-658,-125,-1.0481,0.850342,0,0,0,0,0,0,0,-1,566,1149,-1.04809,-0.850347
-651,-125,-0.832092,0.329224,0,0,0,0,0,0,0,-1,573,1149,-0.832112,-0.329183
-644,-125,-0.887207,0.696533,0.0111261,0.00276112,0.0005598,0.0111634,0.00272382,0.0665266,0.00672089,0.0232022,580,1149,-0.887179,-0.696574
-637,-125,-0.877136,0.671265,0.00775638,0.00185264,0.00191462,0.00832294,0.00128608,0.2877,0.00517349,0.0122604,587,1149,-0.877132,-0.671294
-630,-125,-0.865234,0.685181,0.00433772,0.000599318,0.00259172,0.00566398,-0.000726933,0.472985,0.00404015,0.013246,594,1149,-0.865233,-0.685154
-623,-125,-0.85553,0.702881,0.00142202,0.00126259,0.00217322,0.00351699,-0.000832375,0.767066,0.00266579,0.0120891,601,1149,-0.855519,-0.702833
-616,-125,-0.869507,0.706299,-8.0845e-05,0.000693674,0.00209251,0.00243446,-0.00182163,0.876897,0.00246573,0.0131733,608,1149,-0.869508,-0.706249
-609,-125,-0.88208,0.727661,0.000148598,0.000229496,0.000590447,0.000780878,-0.000402784,0.819598,0.000694912,0.0131798,615,1149,-0.88211,-0.727682
-602,-125,-0.889099,0.767944,2.71758e-05,-0.000129077,-0.000639666,0.000593469,-0.00069537,-0.724631,0.000744886,0.0113586,622,1149,-0.889081,-0.767947
-595,-125,-0.90387,0.803101,-3.11226e-06,-0.000536174,-0.000988544,0.000754202,-0.00129349,-0.65372,0.00119582,0.00947058,629,1149,-0.903872,-0.803045
-588,-125,-0.867065,0.837158,0.000239002,-0.000652861,-0.00116078,0.00103656,-0.00145042,-0.602007,0.00144247,0.0140173,636,1149,-0.867074,-0.837152
-581,-125,-0.908569,0.837402,0.000625418,-0.000766042,-0.00139516,0.0014887,-0.00162932,-0.554105,0.0018008,0.0331126,643,1149,-0.908588,-0.837347
-574,-125,-1.00403,0.915527,0.00110073,-0.00106762,-0.00157248,0.00192656,-0.00189345,-0.483586,0.00220551,0.0400578,650,1149,-1.00402,-0.915558
-567,-125,-0.93927,0.712158,0.00156842,-0.00128883,-0.00159303,0.00227959,-0.002,-0.419876,0.00247258,0.0377757,657,1149,-0.939281,-0.71213
-560,-125,-0.710876,0.430054,0.00214692,-0.00147288,-0.00154565,0.0027171,-0.00204305,-0.353405,0.00275744,0.0381295,664,1149,-0.710896,-0.430078
-553,-125,-0.6651,0.425171,0.00284932,-0.00163062,-0.00141204,0.00325724,-0.00203854,-0.281231,0.00308439,0.0397726,671,1149,-0.665129,-0.425206
-546,-125,-0.867554,0.744385,0.00367279,-0.0017741,-0.00120951,0.00392929,-0.00203059,-0.208972,0.00349866,0.0393249,678,1149,-0.867569,-0.744403
-539,-125,-1.06018,1.08997,0.00464801,-0.00191527,-0.000974713,0.00478971,-0.00205696,-0.14436,0.00405653,0.0384863,685,1149,-1.06018,-1.08999
-532,-125,-0.993713,0.894897,0.00576186,-0.00210646,-0.000826412,0.00584772,-0.00219232,-0.103525,0.00479918,0.0393482,692,1149,-0.99369,-0.894931
-525,-125,-0.657349,0.527832,0.00665122,-0.0024566,-0.000847889,0.00672948,-0.00253486,-0.0920407,0.0055285,0.0397384,699,1149,-0.65737,-0.527802
-518,-125,0,0,0,0,0,0,0,0,0,-1,706,1149,0,0
-511,-125,0,0,0,0,0,0,0,0,0,-1,713,1149,0,0
-504,-125,0,0,0,0,0,0,0,0,0,-1,720,1149,0,0
-497,-125,0,0,0,0,0,0,0,0,0,-1,727,1149,0,0
-490,-125,0,0,0,0,0,0,0,0,0,-1,734,1149,0,0
-483,-125,0,0,0,0,0,0,0,0,0,-1,741,1149,0,0
-476,-125,0,0,0,0,0,0,0,0,0,-1,748,1149,0,0
-469,-125,0,0,0,0,0,0,0,0,0,-1,755,1149,0,0
-462,-125,0,0,0,0,0,0,0,0,0,-1,762,1149,0,0
-455,-125,0,0,0,0,0,0,0,0,0,-1,769,1149,0,0
-448,-125,0,0,0,0,0,0,0,0,0,-1,776,1149,0,0
-441,-125,0,0,0,0,0,0,0,0,0,-1,783,1149,0,0
-434,-125,0,0,0,0,0,0,0,0,0,-1,790,1149,0,0
-427,-125,0,0,0,0,0,0,0,0,0,-1,797,1149,0,0
-420,-125,0,0,0,0,0,0,0,0,0,-1,804,1149,0,0
-413,-125,0,0,0,0,0,0,0,0,0,-1,811,1149,0,0
-406,-125,0,0,0,0,0,0,0,0,0,-1,818,1149,0,0
-399,-125,0,0,0,0,0,0,0,0,0,-1,825,1149,0,0
-392,-125,0,0,0,0,0,0,0,0,0,-1,832,1149,0,0
-385,-125,0,0,0,0,0,0,0,0,0,-1,839,1149,0,0
-378,-125,0,0,0,0,0,0,0,0,0,-1,846,1149,0,0
-371,-125,0,0,0,0,0,0,0,0,0,-1,853,1149,0,0
-364,-125,0,0,0,0,0,0,0,0,0,-1,860,1149,0,0
-357,-125,0,0,0,0,0,0,0,0,0,-1,867,1149,0,0
-350,-125,0,0,0,0,0,0,0,0,0,-1,874,1149,0,0
-343,-125,0,0,0,0,0,0,0,0,0,-1,881,1149,0,0
-336,-125,0,0,0,0,0,0,0,0,0,-1,888,1149,0,0
-329,-125,0,0,0,0,0,0,0,0,0,-1,895,1149,0,0
-322,-125,0,0,0,0,0,0,0,0,0,-1,902,1149,0,0
-315,-125,0,0,0,0,0,0,0,0,0,-1,909,1149,0,0
-308,-125,0,0,0,0,0,0,0,0,0,-1,916,1149,0,0
-301,-125,0,0,0,0,0,0,0,0,0,-1,923,1149,0,0
-294,-125,0,0,0,0,0,0,0,0,0,-1,930,1149,0,0
-287,-125,0,0,0,0,0,0,0,0,0,-1,937,1149,0,0
-280,-125,0,0,0,0,0,0,0,0,0,-1,944,1149,0,0
-273,-125,0,0,0,0,0,0,0,0,0,-1,951,1149,0,0
-266,-125,0,0,0,0,0,0,0,0,0,-1,958,1149,0,0
-259,-125,0,0,0,0,0,0,0,0,0,-1,965,1149,0,0
-252,-125,0,0,0,0,0,0,0,0,0,-1,972,1149,0,0
-245,-125,0,0,0,0,0,0,0,0,0,-1,979,1149,0,0
-238,-125,0,0,0,0,0,0,0,0,0,-1,986,1149,0,0
-231,-125,0,0,0,0,0,0,0,0,0,-1,993,1149,0,0
-224,-125,0,0,0,0,0,0,0,0,0,-1,1000,1149,0,0
-217,-125,0,0,0,0,0,0,0,0,0,-1,1007,1149,0,0
-210,-125,0,0,0,0,0,0,0,0,0,-1,1014,1149,0,0
-203,-125,0,0,0,0,0,0,0,0,0,-1,1021,1149,0,0
-196,-125,0,0,0,0,0,0,0,0,0,-1,1028,1149,0,0
-189,-125,0,0,0,0,0,0,0,0,0,-1,1035,1149,0,0
-182,-125,0,0,0,0,0,0,0,0,0,-1,1042,1149,0,0
-175,-125,0,0,0,0,0,0,0,0,0,-1,1049,1149,0,0
-168,-125,0,0,0,0,0,0,0,0,0,-1,1056,1149,0,0
-161,-125,0,0,0,0,0,0,0,0,0,-1,1063,1149,0,0
-154,-125,0,0,0,0,0,0,0,0,0,-1,1070,1149,0,0
-147,-125,0,0,0,0,0,0,0,0,0,-1,1077,1149,0,0
-140,-125,0,0,0,0,0,0,0,0,0,-1,1084,1149,0,0
-133,-125,0,0,0,0,0,0,0,0,0,-1,1091,1149,0,0
-126,-125,0,0,0,0,0,0,0,0,0,-1,1098,1149,0,0
-119,-125,0,0,0,0,0,0,0,0,0,-1,1105,1149,0,0
-112,-125,0,0,0,0,0,0,0,0,0,-1,1112,1149,0,0
-105,-125,0,0,0,0,0,0,0,0,0,-1,1119,1149,0,0
-98,-125,0,0,0,0,0,0,0,0,0,-1,1126,1149,0,0
-91,-125,0,0,0,0,0,0,0,0,0,-1,1133,1149,0,0
-84,-125,0,0,0,0,0,0,0,0,0,-1,1140,1149,0,0
-77,-125,0,0,0,0,0,0,0,0,0,-1,1147,1149,0,0
-70,-125,0,0,0,0,0,0,0,0,0,-1,1154,1149,0,0
-63,-125,0,0,0,0,0,0,0,0,0,-1,1161,1149,0,0
-56,-125,0,0,0,0,0,0,0,0,0,-1,1168,1149,0,0
-49,-125,0,0,0,0,0,0,0,0,0,-1,1175,1149,0,0
-42,-125,0,0,0,0,0,0,0,0,0,-1,1182,1149,0,0
-35,-125,0,0,0,0,0,0,0,0,0,-1,1189,1149,0,0
-28,-125,0,0,0,0,0,0,0,0,0,-1,1196,1149,0,0
-21,-125,0,0,0,0,0,0,0,0,0,-1,1203,1149,0,0
-14,-125,0,0,0,0,0,0,0,0,0,-1,1210,1149,0,0
-7,-125,0,0,0,0,0,0,0,0,0,-1,1217,1149,0,0
0,-125,0,0,0,0,0,0,0,0,0,-1,1224,1149,0,0
7,-125,0,0,0,0,0,0,0,0,0,-1,1231,1149,0,0
14,-125,0,0,0,0,0,0,0,0,0,-1,1238,1149,0,0
21,-125,0,0,0,0,0,0,0,0,0,-1,1245,1149,0,0
28,-125,0,0,0,0,0,0,0,0,0,-1,1252,1149,0,0
35,-125,0,0,0,0,0,0,0,0,0,-1,1259,1149,0,0
42,-125,0,0,0,0,0,0,0,0,0,-1,1266,1149,0,0
49,-125,0,0,0,0,0,0,0,0,0,-1,1273,1149,0,0
56,-125,0,0,0,0,0,0,0,0,0,-1,1280,1149,0,0
63,-125,0,0,0,0,0,0,0,0,0,-1,1287,1149,0,0
70,-125,0,0,0,0,0,0,0,0,0,-1,1294,1149,0,0
77,-125,0,0,0,0,0,0,0,0,0,-1,1301,1149,0,0
84,-125,0,0,0,0,0,0,0,0,0,-1,1308,1149,0,0
91,-125,0,0,0,0,0,0,0,0,0,-1,1315,1149,0,0
98,-125,0,0,0,0,0,0,0,0,0,-1,1322,1149,0,0
105,-125,0,0,0,0,0,0,0,0,0,-1,1329,1149,0,0
112,-125,0,0,0,0,0,0,0,0,0,-1,1336,1149,0,0
119,-125,0,0,0,0,0,0,0,0,0,-1,1343,1149,0,0
126,-125,0,0,0,0,0,0,0,0,0,-1,1350,1149,0,0
133,-125,0,0,0,0,0,0,0,0,0,-1,1357,1149,0,0
140,-125,0,0,0,0,0,0,0,0,0,-1,1364,1149,0,0
147,-125,0,0,0,0,0,0,0,0,0,-1,1371,1149,0,0
154,-125,0,0,0,0,0,0,0,0,0,-1,1378,1149,0,0
161,-125,0,0,0,0,0,0,0,0,0,-1,1385,1149,0,0
168,-125,0,0,0,0,0,0,0,0,0,-1,1392,1149,0,0
175,-125,0,0,0,0,0,0,0,0,0,-1,1399,1149,0,0
182,-125,0,0,0,0,0,0,0,0,0,-1,1406,1149,0,0
189,-125,0,0,0,0,0,0,0,0,0,-1,1413,1149,0,0
196,-125,0,0,0,0,0,0,0,0,0,-1,1420,1149,0,0
203,-125,0,0,0,0,0,0,0,0,0,-1,1427,1149,0,0
210,-125,0,0,0,0,0,0,0,0,0,-1,1434,1149,0,0
217,-125,0,0,0,0,0,0,0,0,0,-1,1441,1149,0,0
224,-125,0,0,0,0,0,0,0,0,0,-1,1448,1149,0,0
231,-125,0,0,0,0,0,0,0,0,0,-1,1455,1149,0,0
238,-125,0,0,0,0,0,0,0,0,0,-1,1462,1149,0,0
245,-125,0,0,0,0,0,0,0,0,0,-1,1469,1149,0,0
252,-125,0,0,0,0,0,0,0,0,0,-1,1476,1149,0,0
259,-125,0,0,0,0,0,0,0,0,0,-1,1483,1149,0,0
266,-125,0,0,0,0,0,0,0,0,0,-1,1490,1149,0,0
273,-125,0,0,0,0,0,0,0,0,0,-1,1497,1149,0,0
280,-125,0,0,0,0,0,0,0,0,0,-1,1504,1149,0,0
287,-125,0,0,0,0,0,0,0,0,0,-1,1511,1149,0,0
294,-125,0,0,0,0,0,0,0,0,0,-1,1518,1149,0,0
301,-125,0,0,0,0,0,0,0,0,0,-1,1525,1149,0,0
308,-125,0,0,0,0,0,0,0,0,0,-1,1532,1149,0,0
315,-125,0,0,0,0,0,0,0,0,0,-1,1539,1149,0,0
322,-125,0,0,0,0,0,0,0,0,0,-1,1546,1149,0,0
329,-125,0,0,0,0,0,0,0,0,0,-1,1553,1149,0,0
336,-125,0,0,0,0,0,0,0,0,0,-1,1560,1149,0,0
343,-125,0,0,0,0,0,0,0,0,0,-1,1567,1149,0,0
350,-125,0,0,0,0,0,0,0,0,0,-1,1574,1149,0,0
357,-125,0,0,0,0,0,0,0,0,0,-1,1581,1149,0,0
364,-125,0,0,0,0,0,0,0,0,0,-1,1588,1149,0,0
371,-125,0,0,0,0,0,0,0,0,0,-1,1595,1149,0,0
378,-125,0,0,0,0,0,0,0,0,0,-1,1602,1149,0,0
385,-125,0,0,0,0,0,0,0,0,0,-1,1609,1149,0,0
392,-125,0,0,0,0,0,0,0,0,0,-1,1616,1149,0,0
399,-125,0,0,0,0,0,0,0,0,0,-1,1623,1149,0,0
406,-125,0,0,0,0,0,0,0,0,0,-1,1630,1149,0,0
413,-125,0,0,0,0,0,0,0,0,0,-1,1637,1149,0,0
420,-125,0,0,0,0,0,0,0,0,0,-1,1644,1149,0,0
427,-125,0,0,0,0,0,0,0,0,0,-1,1651,1149,0,0
434,-125,0,0,0,0,0,0,0,0,0,-1,1658,1149,0,0
441,-125,0,0,0,0,0,0,0,0,0,-1,1665,1149,0,0
448,-125,0,0,0,0,0,0,0,0,0,-1,1672,1149,0,0
455,-125,0,0,0,0,0,0,0,0,0,-1,1679,1149,0,0
462,-125,0,0,0,0,0,0,0,0,0,-1,1686,1149,0,0
469,-125,0,0,0,0,0,0,0,0,0,-1,1693,1149,0,0
476,-125,0,0,0,0,0,0,0,0,0,-1,1700,1149,0,0
483,-125,0,0,0,0,0,0,0,0,0,-1,1707,1149,0,0
490,-125,0,0,0,0,0,0,0,0,0,-1,1714,1149,0,0
497,-125,0,0,0,0,0,0,0,0,0,-1,1721,1149,0,0
504,-125,0,0,0,0,0,0,0,0,0,-1,1728,1149,0,0
511,-125,0,0,0,0,0,0,0,0,0,-1,1735,1149,0,0
518,-125,0,0,0,0,0,0,0,0,0,-1,1742,1149,0,0
525,-125,0,0,0,0,0,0,0,0,0,-1,1749,1149,0,0
532,-125,0,0,0,0,0,0,0,0,0,-1,1756,1149,0,0
539,-125,0,0,0,0,0,0,0,0,0,-1,1763,1149,0,0
546,-125,0,0,0,0,0,0,0,0,0,-1,1770,1149,0,0
553,-125,0,0,0,0,0,0,0,0,0,-1,1777,1149,0,0
560,-125,0,0,0,0,0,0,0,0,0,-1,1784,1149,0,0
567,-125,0,0,0,0,0,0,0,0,0,-1,1791,1149,0,0
574,-125,0,0,0,0,0,0,0,0,0,-1,1798,1149,0,0
581,-125,0,0,0,0,0,0,0,0,0,-1,1805,1149,0,0
588,-125,0,0,0,0,0,0,0,0,0,-1,1812,1149,0,0
595,-125,0,0,0,0,0,0,0,0,0,-1,1819,1149,0,0
602,-125,0,0,0,0,0,0,0,0,0,-1,1826,1149,0,0
609,-125,0,0,0,0,0,0,0,0,0,-1,1833,1149,0,0
616,-125,0,0,0,0,0,0,0,0,0,-1,1840,1149,0,0
623,-125,0,0,0,0,0,0,0,0,0,-1,1847,1149,0,0
630,-125,0,0,0,0,0,0,0,0,0,-1,1854,1149,0,0
637,-125,0,0,0,0,0,0,0,0,0,-1,1861,1149,0,0
644,-125,4.91052,0.486938,0.00149792,-0.000142878,0.000308485,0.001554,-0.000198959,0.179832,0.00110829,0.0412012,1868,1149,4.91057,-0.486931
651,-125,4.75635,0.527588,0.00172679,0.000321567,0.000100824,0.00173398,0.00031437,0.071263,0.00106675,0.0397098,1875,1149,4.75638,-0.527568
658,-125,4.69165,0.721558,0.00180707,0.000318537,0.000156381,0.00182332,0.000302286,0.103551,0.00112836,0.0425641,1882,1149,4.69166,-0.721568
665,-125,4.68445,0.71106,0.00142421,9.51868e-05,0.00035633,0.00151372,5.67792e-06,0.246105,0.00100726,0.0459539,1889,1149,4.68446,-0.711049
672,-125,4.76587,0.616089,0.000826068,-0.000213659,0.000603091,0.00110243,-0.000490022,0.429689,0.000941793,0.0430098,1896,1149,4.76584,-0.616028
679,-125,4.87012,0.694092,0.000187666,-0.000532282,0.000836795,0.000738629,-0.00108325,0.582272,0.00105811,0.0386529,1903,1149,4.87009,-0.694144
686,-125,4.8949,0.740234,-0.000413775,-0.000817594,0.00105019,0.000453739,-0.00168511,0.690427,0.00130129,0.0360805,1910,1149,4.89487,-0.740251
693,-125,4.91284,0.700073,-0.000979573,-0.000987373,0.00119654,0.00021307,-0.00218002,0.783769,0.00152932,0.0290065,1917,1149,4.91279,-0.700074
700,-125,4.96582,0.752319,-0.00136611,-0.00112789,0.00134144,9.97174e-05,-0.00259372,0.829679,0.00176332,0.011826,1924,1149,4.96579,-0.752326
707,-125,5.05054,0.858887,-0.00162526,-0.00119514,0.00136414,-2.92105e-05,-0.0027912,0.86358,0.00185114,0.047674,1931,1149,5.0505,-0.858903
714,-125,4.87073,0.798218,-0.00187078,-0.00121887,0.00130206,-0.000202589,-0.00288706,0.908046,0.00186086,0.0324459,1938,1149,4.87072,-0.798177
721,-125,4.80115,0.824585,-0.00203841,-0.00113418,0.00124363,-0.000263035,-0.00290956,0.959742,0.00185824,0.0156995,1945,1149,4.8011,-0.824568
728,-125,4.79504,0.838013,-0.00197556,-0.000993202,0.00117096,-0.000214575,-0.00275419,0.983986,0.00176895,0.0112168,1952,1149,4.79505,-0.837986
735,-125,4.78735,0.844849,-0.00183831,-0.000875452,0.000981127,-0.000264001,-0.00244976,1.01348,0.00155267,0.014758,1959,1149,4.7874,-0.844838
742,-125,4.80457,0.84668,-0.00181442,-0.000683324,0.000745768,-0.000312915,-0.00218483,1.10981,0.00136426,0.0232099,1966,1149,4.80451,-0.846689
749,-125,4.79468,0.820679,-0.00204476,0.000641131,0.000649053,0.000789752,-0.00219338,1.34569,0.00178473,0.0267297,1973,1149,4.79472,-0.820641
756,-125,4.78162,0.789795,-0.00254142,0.00226995,0.000515152,0.00232449,-0.00259596,1.46532,0.00284226,0.0221336,1980,1149,4.78158,-0.789737
763,-125,4.81592,0.789185,-0.00312447,0.00390955,0.000205553,0.00391555,-0.00313048,1.54161,0.00407643,0.0115889,1987,1149,4.81598,-0.789223
770,-125,4.80078,0.776245,-0.00432968,0.0064225,0.000165621,0.00642505,-0.00433223,1.5554,0.00624977,0.0132752,1994,1149,4.8008,-0.776298
777,-125,4.77466,0.736694,-0.00624607,0.0100607,0.000203567,0.0100632,-0.00624861,1.55832,0.0095031,0.0242592,2001,1149,4.77468,-0.736686
784,-125,4.74963,0.705688,-0.00886816,0.0151669,0.000273582,0.01517,-0.00887128,1.55942,0.0140381,0.041434,2008,1149,4.74969,-0.705719
791,-125,4.74841,0.700562,0,0,0,0,0,0,0,-1,2015,1149,4.74844,-0.700612
798,-125,4.56116,1.03394,0,0,0,0,0,0,0,-1,2022,1149,4.56119,-1.03398
805,-125,4.396,1.20642,0,0,0,0,0,0,0,-1,2029,1149,4.39603,-1.20643
812,-125,8.89917,1.96826,0,0,0,0,0,0,0,-1,2036,1149,8.8992,-1.96828
-700,-132,0,0,0,0,0,0,0,0,0,-1,524,1156,0,0
-693,-132,-2.49921,2.53516,0.0237833,0.0110731,-0.0350681,0.0530675,-0.0182111,-0.69576,0.0427614,0.0453303,531,1156,-2.49922,-2.53518
-686,-132,-2.5531,2.47498,0.0252797,0.00724451,-0.0253581,0.0431758,-0.0106516,-0.614566,0.032914,0.0478365,538,1156,-2.55312,-2.47497
-679,-132,-2.604,2.12622,0.0247106,0.004851,-0.0176375,0.0350214,-0.00545981,-0.529016,0.0253642,0.0489554,545,1156,-2.60402,-2.12627
-672,-132,-2.39905,2.00659,0.0229355,0.00330323,-0.0114912,0.0282324,-0.00199369,-0.431926,0.0195201,0.0441092,552,1156,-2.39902,-2.00656
-665,-132,-1.08398,0.937012,0,0,0,0,0,0,0,-1,559,1156,-1.08396,-0.937023
-658,-132,-1.00861,0.831665,0.017197,0.00164048,-0.00305403,0.0177751,0.0010624,-0.187071,0.0115123,0.0466808,566,1156,-1.00862,-0.831726
-651,-132,-0.943359,0.780151,0.0138143,0.00122035,-0.000525399,0.0138362,0.00119847,-0.041622,0.00885171,0.0423495,573,1156,-0.943335,-0.780113
-644,-132,-0.879944,0.722534,0.0105185,0.000950277,0.00103563,0.0106293,0.000839469,0.106591,0.00682364,0.0221933,580,1156,-0.879944,-0.722507
-637,-132,-0.857605,0.691772,0.00783551,0.000474743,0.00230384,0.00849712,-0.000186868,0.279651,0.00572806,0.0115089,587,1156,-0.857607,-0.691741
-630,-132,-0.847534,0.692749,0.00512964,-0.000283567,0.00296798,0.00643982,-0.00159376,0.415714,0.00491143,0.0100028,594,1156,-0.847521,-0.692749
-623,-132,-0.862122,0.71582,0.00249156,0.000652853,0.00248513,0.00422193,-0.00107752,0.608234,0.00323419,0.01476,601,1156,-0.862128,-0.715842
-616,-132,-0.906128,0.751831,0.000727984,0.000372612,0.00229052,0.0028477,-0.00174711,0.746688,0.00267806,0.0204592,608,1156,-0.906142,-0.751853
-609,-132,-0.867249,0.737305,0.000543282,0.000146498,0.00073467,0.00110588,-0.000416096,0.653523,0.000908295,0.0126433,615,1156,-0.867273,-0.737271
-602,-132,-0.870178,0.765381,-2.27787e-05,-2.38782e-05,-0.000641091,0.000617762,-0.000664419,-0.784969,0.000740431,0.0108453,622,1156,-0.870152,-0.765376
-595,-132,-0.863159,0.797119,-0.000229675,-0.000350012,-0.000994609,0.000706584,-0.00128627,-0.755188,0.00116669,0.0100535,629,1156,-0.863153,-0.797167
-588,-132,-0.844971,0.816406,-1.52077e-05,-0.000410898,-0.00118932,0.000992608,-0.00141871,-0.702977,0.0013994,0.0137408,636,1156,-0.844995,-0.81636
-581,-132,-0.878052,0.828125,0.000348308,-0.000475382,-0.00144817,0.00144205,-0.00156913,-0.64686,0.00173902,0.0328737,643,1156,-0.87804,-0.828084
-574,-132,-0.96936,0.952637,0.000792762,-0.000762497,-0.00163591,0.00182646,-0.00179619,-0.563531,0.00209156,0.0418928,650,1156,-0.969371,-0.952698
-567,-132,-0.988098,0.881226,0.00125444,-0.000966618,-0.00169279,0.00216847,-0.00188065,-0.495096,0.00233972,0.038009,657,1156,-0.988124,-0.881185
-560,-132,-0.870483,0.660645,0.00184951,-0.00116432,-0.00168792,0.00260531,-0.00192012,-0.420997,0.00262272,0.035021,664,1156,-0.870473,-0.660592
-553,-132,-1.08911,0.719727,0.00260733,-0.00138695,-0.00160185,0.00317037,-0.00194998,-0.338002,0.0029841,0.0376038,671,1156,-1.08912,-0.719722
-546,-132,-1.12012,0.726196,0.00353374,-0.00166147,-0.00144964,0.00391086,-0.00203859,-0.254508,0.00349115,0.0383096,678,1156,-1.12011,-0.726239
-539,-132,-0.992126,0.703369,0.00465837,-0.00201719,-0.00126055,0.00488847,-0.00224729,-0.180551,0.00421285,0.0403078,685,1156,-0.992135,-0.703328
-532,-132,-0.677246,0.454346,0.00597399,-0.00251923,-0.00112563,0.00612064,-0.00266588,-0.129553,0.00520197,0.0403042,692,1156,-0.677226,-0.454369
-525,-132,-0.693176,0.372559,0.00716543,-0.00330624,-0.0011393,0.00728795,-0.00342876,-0.107129,0.00631961,0.0387287,699,1156,-0.69319,-0.372519
-518,-132,0,0,0,0,0,0,0,0,0,-1,706,1156,0,0
-511,-132,0,0,0,0,0,0,0,0,0,-1,713,1156,0,0
-504,-132,0,0,0,0,0,0,0,0,0,-1,720,1156,0,0
-497,-132,0,0,0,0,0,0,0,0,0,-1,727,1156,0,0
-490,-132,0,0,0,0,0,0,0,0,0,-1,734,1156,0,0
-483,-132,0,0,0,0,0,0,0,0,0,-1,741,1156,0,0
-476,-132,0,0,0,0,0,0,0,0,0,-1,748,1156,0,0
-469,-132,0,0,0,0,0,0,0,0,0,-1,755,1156,0,0
-462,-132,0,0,0,0,0,0,0,0,0,-1,762,1156,0,0
-455,-132,0,0,0,0,0,0,0,0,0,-1,769,1156,0,0
-448,-132,0,0,0,0,0,0,0,0,0,-1,776,1156,0,0
-441,-132,0,0,0,0,0,0,0,0,0,-1,783,1156,0,0
-434,-132,0,0,0,0,0,0,0,0,0,-1,790,1156,0,0
-427,-132,0,0,0,0,0,0,0,0,0,-1,797,1156,0,0
-420,-132,0,0,0,0,0,0,0,0,0,-1,804,1156,0,0
-413,-132,0,0,0,0,0,0,0,0,0,-1,811,1156,0,0
-406,-132,0,0,0,0,0,0,0,0,0,-1,818,1156,0,0
-399,-132,0,0,0,0,0,0,0,0,0,-1,825,1156,0,0
-392,-132,0,0,0,0,0,0,0,0,0,-1,832,1156,0,0
-385,-132,0,0,0,0,0,0,0,0,0,-1,839,1156,0,0
-378,-132,0,0,0,0,0,0,0,0,0,-1,846,1156,0,0
-371,-132,0,0,0,0,0,0,0,0,0,-1,853,1156,0,0
-364,-132,0,0,0,0,0,0,0,0,0,-1,860,1156,0,0
-357,-132,0,0,0,0,0,0,0,0,0,-1,867,1156,0,0
-350,-132,0,0,0,0,0,0,0,0,0,-1,874,1156,0,0
-343,-132,0,0,0,0,0,0,0,0,0,-1,881,1156,0,0
-336,-132,0,0,0,0,0,0,0,0,0,-1,888,1156,0,0
-329,-132,0,0,0,0,0,0,0,0,0,-1,895,1156,0,0
-322,-132,0,0,0,0,0,0,0,0,0,-1,902,1156,0,0
-315,-132,0,0,0,0,0,0,0,0,0,-1,909,1156,0,0
-308,-132,0,0,0,0,0,0,0,0,0,-1,916,1156,0,0
-301,-132,0,0,0,0,0,0,0,0,0,-1,923,1156,0,0
-294,-132,0,0,0,0,0,0,0,0,0,-1,930,1156,0,0
-287,-132,0,0,0,0,0,0,0,0,0,-1,937,1156,0,0
-280,-132,0,0,0,0,0,0,0,0,0,-1,944,1156,0,0
-273,-132,0,0,0,0,0,0,0,0,0,-1,951,1156,0,0
-266,-132,0,0,0,0,0,0,0,0,0,-1,958,1156,0,0
-259,-132,0,0,0,0,0,0,0,0,0,-1,965,1156,0,0
-252,-132,0,0,0,0,0,0,0,0,0,-1,972,1156,0,0
-245,-132,0,0,0,0,0,0,0,0,0,-1,979,1156,0,0
-238,-132,0,0,0,0,0,0,0,0,0,-1,986,1156,0,0
-231,-132,0,0,0,0,0,0,0,0,0,-1,993,1156,0,0
-224,-132,0,0,0,0,0,0,0,0,0,-1,1000,1156,0,0
-217,-132,0,0,0,0,0,0,0,0,0,-1,1007,1156,0,0
-210,-132,0,0,0,0,0,0,0,0,0,-1,1014,1156,0,0
-203,-132,0,0,0,0,0,0,0,0,0,-1,1021,1156,0,0
-196,-132,0,0,0,0,0,0,0,0,0,-1,1028,1156,0,0
-189,-132,0,0,0,0,0,0,0,0,0,-1,1035,1156,0,0
-182,-132,0,0,0,0,0,0,0,0,0,-1,1042,1156,0,0
-175,-132,0,0,0,0,0,0,0,0,0,-1,1049,1156,0,0
-168,-132,0,0,0,0,0,0,0,0,0,-1,1056,1156,0,0
-161,-132,0,0,0,0,0,0,0,0,0,-1,1063,1156,0,0
-154,-132,0,0,0,0,0,0,0,0,0,-1,1070,1156,0,0
-147,-132,0,0,0,0,0,0,0,0,0,-1,1077,1156,0,0
-140,-132,0,0,0,0,0,0,0,0,0,-1,1084,1156,0,0
-133,-132,0,0,0,0,0,0,0,0,0,-1,1091,1156,0,0
-126,-132,0,0,0,0,0,0,0,0,0,-1,1098,1156,0,0
-119,-132,0,0,0,0,0,0,0,0,0,-1,1105,1156,0,0
-112,-132,0,0,0,0,0,0,0,0,0,-1,1112,1156,0,0
-105,-132,0,0,0,0,0,0,0,0,0,-1,1119,1156,0,0
-98,-132,0,0,0,0,0,0,0,0,0,-1,1126,1156,0,0
-91,-132,0,0,0,0,0,0,0,0,0,-1,1133,1156,0,0
-84,-132,0,0,0,0,0,0,0,0,0,-1,1140,1156,0,0
-77,-132,0,0,0,0,0,0,0,0,0,-1,1147,1156,0,0
-70,-132,0,0,0,0,0,0,0,0,0,-1,1154,1156,0,0
-63,-132,0,0,0,0,0,0,0,0,0,-1,1161,1156,0,0
-56,-132,0,0,0,0,0,0,0,0,0,-1,1168,1156,0,0
-49,-132,0,0,0,0,0,0,0,0,0,-1,1175,1156,0,0
-42,-132,0,0,0,0,0,0,0,0,0,-1,1182,1156,0,0
-35,-132,0,0,0,0,0,0,0,0,0,-1,1189,1156,0,0
-28,-132,0,0,0,0,0,0,0,0,0,-1,1196,1156,0,0
-21,-132,0,0,0,0,0,0,0,0,0,-1,1203,1156,0,0
-14,-132,0,0,0,0,0,0,0,0,0,-1,1210,1156,0,0
-7,-132,0,0,0,0,0,0,0,0,0,-1,1217,1156,0,0
0,-132,0,0,0,0,0,0,0,0,0,-1,1224,1156,0,0
7,-132,0,0,0,0,0,0,0,0,0,-1,1231,1156,0,0
14,-132,0,0,0,0,0,0,0,0,0,-1,1238,1156,0,0
21,-132,0,0,0,0,0,0,0,0,0,-1,1245,1156,0,0
28,-132,0,0,0,0,0,0,0,0,0,-1,1252,1156,0,0
35,-132,0,0,0,0,0,0,0,0,0,-1,1259,1156,0,0
42,-132,0,0,0,0,0,0,0,0,0,-1,1266,1156,0,0
49,-132,0,0,0,0,0,0,0,0,0,-1,1273,1156,0,0
56,-132,0,0,0,0,0,0,0,0,0,-1,1280,1156,0,0
63,-132,0,0,0,0,0,0,0,0,0,-1,1287,1156,0,0
70,-132,0,0,0,0,0,0,0,0,0,-1,1294,1156,0,0
77,-132,0,0,0,0,0,0,0,0,0,-1,1301,1156,0,0
84,-132,0,0,0,0,0,0,0,0,0,-1,1308,1156,0,0
91,-132,0,0,0,0,0,0,0,0,0,-1,1315,1156,0,0
98,-132,0,0,0,0,0,0,0,0,0,-1,1322,1156,0,0
105,-132,0,0,0,0,0,0,0,0,0,-1,1329,1156,0,0
112,-132,0,0,0,0,0,0,0,0,0,-1,1336,1156,0,0
119,-132,0,0,0,0,0,0,0,0,0,-1,1343,1156,0,0
126,-132,0,0,0,0,0,0,0,0,0,-1,1350,1156,0,0
133,-132,0,0,0,0,0,0,0,0,0,-1,1357,1156,0,0
140,-132,0,0,0,0,0,0,0,0,0,-1,1364,1156,0,0
147,-132,0,0,0,0,0,0,0,0,0,-1,1371,1156,0,0
154,-132,0,0,0,0,0,0,0,0,0,-1,1378,1156,0,0
161,-132,0,0,0,0,0,0,0,0,0,-1,1385,1156,0,0
168,-132,0,0,0,0,0,0,0,0,0,-1,1392,1156,0,0
175,-132,0,0,0,0,0,0,0,0,0,-1,1399,1156,0,0
182,-132,0,0,0,0,0,0,0,0,0,-1,1406,1156,0,0
189,-132,0,0,0,0,0,0,0,0,0,-1,1413,1156,0,0
196,-132,0,0,0,0,0,0,0,0,0,-1,1420,1156,0,0
203,-132,0,0,0,0,0,0,0,0,0,-1,1427,1156,0,0
210,-132,0,0,0,0,0,0,0,0,0,-1,1434,1156,0,0
217,-132,0,0,0,0,0,0,0,0,0,-1,1441,1156,0,0
224,-132,0,0,0,0,0,0,0,0,0,-1,1448,1156,0,0
231,-132,0,0,0,0,0,0,0,0,0,-1,1455,1156,0,0
238,-132,0,0,0,0,0,0,0,0,0,-1,1462,1156,0,0
245,-132,0,0,0,0,0,0,0,0,0,-1,1469,1156,0,0
252,-132,0,0,0,0,0,0,0,0,0,-1,1476,1156,0,0
259,-132,0,0,0,0,0,0,0,0,0,-1,1483,1156,0,0
266,-132,0,0,0,0,0,0,0,0,0,-1,1490,1156,0,0
273,-132,0,0,0,0,0,0,0,0,0,-1,1497,1156,0,0
280,-132,0,0,0,0,0,0,0,0,0,-1,1504,1156,0,0
287,-132,0,0,0,0,0,0,0,0,0,-1,1511,1156,0,0
294,-132,0,0,0,0,0,0,0,0,0,-1,1518,1156,0,0
301,-132,0,0,0,0,0,0,0,0,0,-1,1525,1156,0,0
308,-132,0,0,0,0,0,0,0,0,0,-1,1532,1156,0,0
315,-132,0,0,0,0,0,0,0,0,0,-1,1539,1156,0,0
322,-132,0,0,0,0,0,0,0,0,0,-1,1546,1156,0,0
329,-132,0,0,0,0,0,0,0,0,0,-1,1553,1156,0,0
336,-132,0,0,0,0,0,0,0,0,0,-1,1560,1156,0,0
343,-132,0,0,0,0,0,0,0,0,0,-1,1567,1156,0,0
350,-132,0,0,0,0,0,0,0,0,0,-1,1574,1156,0,0
357,-132,0,0,0,0,0,0,0,0,0,-1,1581,1156,0,0
364,-132,0,0,0,0,0,0,0,0,0,-1,1588,1156,0,0
371,-132,0,0,0,0,0,0,0,0,0,-1,1595,1156,0,0
378,-132,0,0,0,0,0,0,0,0,0,-1,1602,1156,0,0
385,-132,0,0,0,0,0,0,0,0,0,-1,1609,1156,0,0
392,-132,0,0,0,0,0,0,0,0,0,-1,1616,1156,0,0
399,-132,0,0,0,0,0,0,0,0,0,-1,1623,1156,0,0
406,-132,0,0,0,0,0,0,0,0,0,-1,1630,1156,0,0
413,-132,0,0,0,0,0,0,0,0,0,-1,1637,1156,0,0
420,-132,0,0,0,0,0,0,0,0,0,-1,1644,1156,0,0
427,-132,0,0,0,0,0,0,0,0,0,-1,1651,1156,0,0
434,-132,0,0,0,0,0,0,0,0,0,-1,1658,1156,0,0
441,-132,0,0,0,0,0,0,0,0,0,-1,1665,1156,0,0
448,-132,0,0,0,0,0,0,0,0,0,-1,1672,1156,0,0
455,-132,0,0,0,0,0,0,0,0,0,-1,1679,1156,0,0
462,-132,0,0,0,0,0,0,0,0,0,-1,1686,1156,0,0
469,-132,0,0,0,0,0,0,0,0,0,-1,1693,1156,0,0
476,-132,0,0,0,0,0,0,0,0,0,-1,1700,1156,0,0
483,-132,0,0,0,0,0,0,0,0,0,-1,1707,1156,0,0
490,-132,0,0,0,0,0,0,0,0,0,-1,1714,1156,0,0
497,-132,0,0,0,0,0,0,0,0,0,-1,1721,1156,0,0
504,-132,0,0,0,0,0,0,0,0,0,-1,1728,1156,0,0
511,-132,0,0,0,0,0,0,0,0,0,-1,1735,1156,0,0
518,-132,0,0,0,0,0,0,0,0,0,-1,1742,1156,0,0
525,-132,0,0,0,0,0,0,0,0,0,-1,1749,1156,0,0
532,-132,0,0,0,0,0,0,0,0,0,-1,1756,1156,0,0
539,-132,0,0,0,0,0,0,0,0,0,-1,1763,1156,0,0
546,-132,0,0,0,0,0,0,0,0,0,-1,1770,1156,0,0
553,-132,0,0,0,0,0,0,0,0,0,-1,1777,1156,0,0
560,-132,0,0,0,0,0,0,0,0,0,-1,1784,1156,0,0
567,-132,0,0,0,0,0,0,0,0,0,-1,1791,1156,0,0
574,-132,0,0,0,0,0,0,0,0,0,-1,1798,1156,0,0
581,-132,0,0,0,0,0,0,0,0,0,-1,1805,1156,0,0
588,-132,0,0,0,0,0,0,0,0,0,-1,1812,1156,0,0
595,-132,0,0,0,0,0,0,0,0,0,-1,1819,1156,0,0
602,-132,0,0,0,0,0,0,0,0,0,-1,1826,1156,0,0
609,-132,0,0,0,0,0,0,0,0,0,-1,1833,1156,0,0
616,-132,0,0,0,0,0,0,0,0,0,-1,1840,1156,0,0
623,-132,0,0,0,0,0,0,0,0,0,-1,1847,1156,0,0
630,-132,0,0,0,0,0,0,0,0,0,-1,1854,1156,0,0
637,-132,0,0,0,0,0,0,0,0,0,-1,1861,1156,0,0
644,-132,4.90137,0.721069,0.00158059,0.00021437,-0.00013211,0.00159324,0.000201712,-0.0955188,0.00100172,0.0422206,1868,1156,4.90138,-0.721077
651,-132,4.77051,0.685303,0.00172765,0.000419618,-0.000220685,0.00176388,0.000383388,-0.162716,0.00107124,0.0423485,1875,1156,4.77051,-0.685316
658,-132,4.72119,0.756348,0.001692,0.00025991,-3.32182e-05,0.00169277,0.00025914,-0.0231789,0.00105282,0.0411881,1882,1156,4.72119,-0.756347
665,-132,4.71704,0.692017,0.00122173,-5.43415e-05,0.000262091,0.00127346,-0.000106075,0.194882,0.000886449,0.0428085,1889,1156,4.71703,-0.691963
672,-132,4.83997,0.679688,0.000584919,-0.000407397,0.000570083,0.000844517,-0.000666995,0.42731,0.000874676,0.041274,1896,1156,4.83999,-0.679747
679,-132,4.96851,0.673828,-6.67304e-05,-0.000742271,0.000842475,0.000503163,-0.00131216,0.594746,0.00108222,0.0393077,1903,1156,4.9685,-0.673857
686,-132,4.9425,0.665894,-0.00066667,-0.00103386,0.00106973,0.000235102,-0.00193563,0.700412,0.0013755,0.036047,1910,1156,4.94253,-0.665926
693,-132,4.91394,0.689575,-0.0012343,-0.00117303,0.00122091,1.76269e-05,-0.00242496,0.79794,0.00162255,0.0258555,1917,1156,4.9139,-0.689583
700,-132,4.96997,0.775879,-0.00158424,-0.00129655,0.00135859,-7.42143e-05,-0.00280658,0.838141,0.00184681,0.0243377,1924,1156,4.96996,-0.775895
707,-132,4.95667,0.796509,-0.00182319,-0.00132807,0.00137788,-0.000175679,-0.00297557,0.874283,0.00192783,0.0335259,1931,1156,4.95667,-0.79646
714,-132,4.77356,0.820801,-0.00203776,-0.00131446,0.00130759,-0.000319431,-0.00303278,0.920315,0.00192424,0.0276362,1938,1156,4.77361,-0.820826
721,-132,4.76404,0.87439,-0.00214952,-0.00119436,0.00123035,-0.00035215,-0.00299173,0.970529,0.00188808,0.0198061,1945,1156,4.76398,-0.874354
728,-132,4.75012,0.835449,-0.00206733,-0.00100588,0.00114815,-0.00027173,-0.00280148,1.00189,0.00178399,0.0118065,1952,1156,4.75009,-0.835423
735,-132,4.73511,0.831421,-0.00190186,-0.000850304,0.000974465,-0.000268822,-0.00248334,1.03279,0.00157363,0.0147914,1959,1156,4.73505,-0.831466
742,-132,4.73804,0.832764,-0.00181365,-0.00062958,0.000758482,-0.00025943,-0.0021838,1.11678,0.00137756,0.0204718,1966,1156,4.73802,-0.832714
749,-132,4.7229,0.802856,-0.00203879,0.000778736,0.00073317,0.000958101,-0.00221816,1.33087,0.0018813,0.0234436,1973,1156,4.72291,-0.802874
756,-132,4.75061,0.763794,-0.00258535,0.00244748,0.000758486,0.00255931,-0.00269717,1.42442,0.00303518,0.0227448,1980,1156,4.75062,-0.763833
763,-132,4.80457,0.777344,-0.0032968,0.00398012,0.000681314,0.00404336,-0.00336004,1.47824,0.00428042,0.0131701,1987,1156,4.80461,-0.777328
770,-132,4.79626,0.784546,-0.00473381,0.00655107,0.000929916,0.00662718,-0.00480993,1.48913,0.00663095,0.0122675,1994,1156,4.79623,-0.784557
777,-132,4.75513,0.751953,-0.00699008,0.0103338,0.00135746,0.0104395,-0.00709581,1.49307,0.0101852,0.0214246,2001,1156,4.75514,-0.751958
784,-132,4.69836,0.716919,-0.0101152,0.0157206,0.0019607,0.0158685,-0.0102631,1.49548,0.0152024,0.0449488,2008,1156,4.69834,-0.716866
791,-132,4.72998,0.63855,0,0,0,0,0,0,0,-1,2015,1156,4.72995,-0.638581
798,-132,4.79944,0.44519,-0.0196001,0.0327174,0.00387434,0.0330028,-0.0198854,1.49728,0.0308465,0.0461916,2022,1156,4.79946,-0.445228
805,-132,4.46594,0.76062,-0.0264076,0.0448417,0.00510932,0.0452062,-0.0267721,1.49957,0.0420085,0.0454642,2029,1156,4.466,-0.760598
812,-132,4.18982,1.10291,0,0,0,0,0,0,0,-1,2036,1156,4.18984,-1.10295
-700,-139,0,0,0,0,0,0,0,0,0,-1,524,1163,0,0
-693,-139,-2.36096,2.33972,0.00122927,0.00727091,-0.0332169,0.0376041,-0.0291039,-0.830745,0.0386179,0.0452321,531,1163,-2.36097,-2.33966
-686,-139,-2.54584,2.44104,0.00743258,0.00469307,-0.023168,0.0292713,-0.0171456,-0.755871,0.0271019,0.0481763,538,1163,-2.54585,-2.44106
-679,-139,-2.7052,2.77966,0,0,0,0,0,0,0,-1,545,1163,-2.7052,-2.7797
-672,-139,-2.04529,2.18518,0.0121841,0.00219054,-0.00919697,0.017654,-0.0032794,-0.536554,0.0130011,0.0481175,552,1163,-2.04527,-2.18516
-665,-139,-1.50397,1.50623,0,0,0,0,0,0,0,-1,559,1163,-1.50397,-1.50622
-658,-139,-0.990723,0.756226,0.011547,0.00120933,-0.00113825,0.0116708,0.00108549,-0.108377,0.00744513,0.0460035,566,1163,-0.990698,-0.756284
-651,-139,-0.883728,0.763794,0.0100636,0.000965496,0.00110418,0.0101957,0.000833406,0.119061,0.00653708,0.0443573,573,1163,-0.883749,-0.763814
-644,-139,-0.842957,0.716797,0.00822437,0.000803441,0.00235381,0.00890799,0.00011982,0.282655,0.00589913,0.0241947,580,1163,-0.842986,-0.71678
-637,-139,-0.838074,0.690552,0.00656016,0.000449934,0.00329963,0.00800186,-0.000991757,0.411928,0.00569402,0.0129721,587,1163,-0.838044,-0.690534
-630,-139,-0.844238,0.690308,0.00504684,-9.52157e-05,0.0036538,0.00694353,-0.0019919,0.47881,0.00541648,0.0109288,594,1163,-0.844239,-0.690363
-623,-139,-0.850952,0.697998,0.00311234,0.000640761,0.00299801,0.00511927,-0.00136617,0.589907,0.00394783,0.0167332,601,1163,-0.850943,-0.698051
-616,-139,-0.857117,0.710693,0.00128553,0.000402483,0.00259306,0.00347438,-0.00178637,0.701071,0.00308898,0.0175218,608,1163,-0.857087,-0.710739
-609,-139,-0.834595,0.739014,0.000831557,0.000246033,0.000934305,0.00151789,-0.000440304,0.63357,0.00118626,0.0203362,615,1163,-0.83461,-0.739047
-602,-139,-0.842896,0.773193,-0.000115557,0.00020079,-0.000674913,0.000735816,-0.000650584,-0.900501,0.000800943,0.012682,622,1163,-0.842911,-0.773147
-595,-139,-0.83783,0.810181,-0.000448399,-9.97222e-05,-0.00105476,0.000795008,-0.00134313,-0.867301,0.0012479,0.0102769,629,1163,-0.83785,-0.810149
-588,-139,-0.821533,0.834229,-0.000251439,-9.05534e-05,-0.00127489,0.00110643,-0.00144842,-0.816905,0.00147945,0.0131774,636,1163,-0.821519,-0.834169
-581,-139,-0.814026,0.830444,0.000105998,-8.91548e-05,-0.00155401,0.00156549,-0.00154865,-0.754044,0.00179796,0.0290583,643,1163,-0.81403,-0.830504
-574,-139,-0.94989,1.06592,0.000520301,-0.000343931,-0.00173578,0.00187695,-0.00170058,-0.663405,0.00206632,0.0416586,650,1163,-0.949899,-1.06597
-567,-139,-1.1131,1.11499,0.000953642,-0.000526152,-0.00179159,0.0021521,-0.00172461,-0.589574,0.00224276,0.0402734,657,1163,-1.11308,-1.11496
-560,-139,-1.04407,0.940918,0.00152418,-0.000715746,-0.0017904,0.00251606,-0.00170762,-0.505906,0.00245339,0.0341244,664,1163,-1.04408,-0.940933
-553,-139,-0.967896,0.805908,0.00229206,-0.000986223,-0.00169477,0.00301068,-0.00170484,-0.401041,0.00275708,0.0350368,671,1163,-0.967919,-0.805948
-546,-139,-1.04321,0.734863,0.0032435,-0.00137108,-0.00151851,0.00369836,-0.00182594,-0.291037,0.00324995,0.0355729,678,1163,-1.0432,-0.734847
-539,-139,-0.95929,0.821411,0,0,0,0,0,0,0,-1,685,1163,-0.959279,-0.821455
-532,-139,-0.754089,0.581909,0.00569351,-0.00267902,-0.00106171,0.00582604,-0.00281156,-0.12419,0.00508715,0.0394341,692,1163,-0.754094,-0.581963
-525,-139,-0.705139,0.41272,0.00686727,-0.0038052,-0.000962069,0.0069533,-0.00389123,-0.0891869,0.00634374,0.0394885,699,1163,-0.705148,-0.41267
-518,-139,0,0,0,0,0,0,0,0,0,-1,706,1163,0,0
-511,-139,0,0,0,0,0,0,0,0,0,-1,713,1163,0,0
-504,-139,0,0,0,0,0,0,0,0,0,-1,720,1163,0,0
-497,-139,0,0,0,0,0,0,0,0,0,-1,727,1163,0,0
-490,-139,0,0,0,0,0,0,0,0,0,-1,734,1163,0,0
-483,-139,0,0,0,0,0,0,0,0,0,-1,741,1163,0,0
-476,-139,0,0,0,0,0,0,0,0,0,-1,748,1163,0,0
-469,-139,0,0,0,0,0,0,0,0,0,-1,755,1163,0,0
-462,-139,0,0,0,0,0,0,0,0,0,-1,762,1163,0,0
-455,-139,0,0,0,0,0,0,0,0,0,-1,769,1163,0,0
-448,-139,0,0,0,0,0,0,0,0,0,-1,776,1163,0,0
-441,-139,0,0,0,0,0,0,0,0,0,-1,783,1163,0,0
-434,-139,0,0,0,0,0,0,0,0,0,-1,790,1163,0,0
-427,-139,0,0,0,0,0,0,0,0,0,-1,797,1163,0,0
-420,-139,0,0,0,0,0,0,0,0,0,-1,804,1163,0,0
-413,-139,0,0,0,0,0,0,0,0,0,-1,811,1163,0,0
-406,-139,0,0,0,0,0,0,0,0,0,-1,818,1163,0,0
-399,-139,0,0,0,0,0,0,0,0,0,-1,825,1163,0,0
-392,-139,0,0,0,0,0,0,0,0,0,-1,832,1163,0,0
-385,-139,0,0,0,0,0,0,0,0,0,-1,839,1163,0,0
-378,-139,0,0,0,0,0,0,0,0,0,-1,846,1163,0,0
-371,-139,0,0,0,0,0,0,0,0,0,-1,853,1163,0,0
-364,-139,0,0,0,0,0,0,0,0,0,-1,860,1163,0,0
-357,-139,0,0,0,0,0,0,0,0,0,-1,867,1163,0,0
-350,-139,0,0,0,0,0,0,0,0,0,-1,874,1163,0,0
-343,-139,0,0,0,0,0,0,0,0,0,-1,881,1163,0,0
-336,-139,0,0,0,0,0,0,0,0,0,-1,888,1163,0,0
-329,-139,0,0,0,0,0,0,0,0,0,-1,895,1163,0,0
-322,-139,0,0,0,0,0,0,0,0,0,-1,902,1163,0,0
-315,-139,0,0,0,0,0,0,0,0,0,-1,909,1163,0,0
-308,-139,0,0,0,0,0,0,0,0,0,-1,916,1163,0,0
-301,-139,0,0,0,0,0,0,0,0,0,-1,923,1163,0,0
-294,-139,0,0,0,0,0,0,0,0,0,-1,930,1163,0,0
-287,-139,0,0,0,0,0,0,0,0,0,-1,937,1163,0,0
-280,-139,0,0,0,0,0,0,0,0,0,-1,944,1163,0,0
-273,-139,0,0,0,0,0,0,0,0,0,-1,951,1163,0,0
-266,-139,0,0,0,0,0,0,0,0,0,-1,958,1163,0,0
-259,-139,0,0,0,0,0,0,0,0,0,-1,965,1163,0,0
-252,-139,0,0,0,0,0,0,0,0,0,-1,972,1163,0,0
-245,-139,0,0,0,0,0,0,0,0,0,-1,979,1163,0,0
-238,-139,0,0,0,0,0,0,0,0,0,-1,986,1163,0,0
-231,-139,0,0,0,0,0,0,0,0,0,-1,993,1163,0,0
-224,-139,0,0,0,0,0,0,0,0,0,-1,1000,1163,0,0
-217,-139,0,0,0,0,0,0,0,0,0,-1,1007,1163,0,0
-210,-139,0,0,0,0,0,0,0,0,0,-1,1014,1163,0,0
-203,-139,0,0,0,0,0,0,0,0,0,-1,1021,1163,0,0
-196,-139,0,0,0,0,0,0,0,0,0,-1,1028,1163,0,0
-189,-139,0,0,0,0,0,0,0,0,0,-1,1035,1163,0,0
-182,-139,0,0,0,0,0,0,0,0,0,-1,1042,1163,0,0
-175,-139,0,0,0,0,0,0,0,0,0,-1,1049,1163,0,0
-168,-139,0,0,0,0,0,0,0,0,0,-1,1056,1163,0,0
-161,-139,0,0,0,0,0,0,0,0,0,-1,1063,1163,0,0
-154,-139,0,0,0,0,0,0,0,0,0,-1,1070,1163,0,0
-147,-139,0,0,0,0,0,0,0,0,0,-1,1077,1163,0,0
-140,-139,0,0,0,0,0,0,0,0,0,-1,1084,1163,0,0
-133,-139,0,0,0,0,0,0,0,0,0,-1,1091,1163,0,0
-126,-139,0,0,0,0,0,0,0,0,0,-1,1098,1163,0,0
-119,-139,0,0,0,0,0,0,0,0,0,-1,1105,1163,0,0
-112,-139,0,0,0,0,0,0,0,0,0,-1,1112,1163,0,0
-105,-139,0,0,0,0,0,0,0,0,0,-1,1119,1163,0,0
-98,-139,0,0,0,0,0,0,0,0,0,-1,1126,1163,0,0
-91,-139,0,0,0,0,0,0,0,0,0,-1,1133,1163,0,0
-84,-139,0,0,0,0,0,0,0,0,0,-1,1140,1163,0,0
-77,-139,0,0,0,0,0,0,0,0,0,-1,1147,1163,0,0
-70,-139,0,0,0,0,0,0,0,0,0,-1,1154,1163,0,0
-63,-139,0,0,0,0,0,0,0,0,0,-1,1161,1163,0,0
-56,-139,0,0,0,0,0,0,0,0,0,-1,1168,1163,0,0
-49,-139,0,0,0,0,0,0,0,0,0,-1,1175,1163,0,0
-42,-139,0,0,0,0,0,0,0,0,0,-1,1182,1163,0,0
-35,-139,0,0,0,0,0,0,0,0,0,-1,1189,1163,0,0
-28,-139,0,0,0,0,0,0,0,0,0,-1,1196,1163,0,0
-21,-139,0,0,0,0,0,0,0,0,0,-1,1203,1163,0,0
-14,-139,0,0,0,0,0,0,0,0,0,-1,1210,1163,0,0
-7,-139,0,0,0,0,0,0,0,0,0,-1,1217,1163,0,0
0,-139,0,0,0,0,0,0,0,0,0,-1,1224,1163,0,0
7,-139,0,0,0,0,0,0,0,0,0,-1,1231,1163,0,0
14,-139,0,0,0,0,0,0,0,0,0,-1,1238,1163,0,0
21,-139,0,0,0,0,0,0,0,0,0,-1,1245,1163,0,0
28,-139,0,0,0,0,0,0,0,0,0,-1,1252,1163,0,0
35,-139,0,0,0,0,0,0,0,0,0,-1,1259,1163,0,0
42,-139,0,0,0,0,0,0,0,0,0,-1,1266,1163,0,0
49,-139,0,0,0,0,0,0,0,0,0,-1,1273,1163,0,0
56,-139,0,0,0,0,0,0,0,0,0,-1,1280,1163,0,0
63,-139,0,0,0,0,0,0,0,0,0,-1,1287,1163,0,0
70,-139,0,0,0,0,0,0,0,0,0,-1,1294,1163,0,0
77,-139,0,0,0,0,0,0,0,0,0,-1,1301,1163,0,0
84,-139,0,0,0,0,0,0,0,0,0,-1,1308,1163,0,0
91,-139,0,0,0,0,0,0,0,0,0,-1,1315,1163,0,0
98,-139,0,0,0,0,0,0,0,0,0,-1,1322,1163,0,0
105,-139,0,0,0,0,0,0,0,0,0,-1,1329,1163,0,0
112,-139,0,0,0,0,0,0,0,0,0,-1,1336,1163,0,0
119,-139,0,0,0,0,0,0,0,0,0,-1,1343,1163,0,0
126,-139,0,0,0,0,0,0,0,0,0,-1,1350,1163,0,0
133,-139,0,0,0,0,0,0,0,0,0,-1,1357,1163,0,0
140,-139,0,0,0,0,0,0,0,0,0,-1,1364,1163,0,0
147,-139,0,0,0,0,0,0,0,0,0,-1,1371,1163,0,0
154,-139,0,0,0,0,0,0,0,0,0,-1,1378,1163,0,0
161,-139,0,0,0,0,0,0,0,0,0,-1,1385,1163,0,0
168,-139,0,0,0,0,0,0,0,0,0,-1,1392,1163,0,0
175,-139,0,0,0,0,0,0,0,0,0,-1,1399,1163,0,0
182,-139,0,0,0,0,0,0,0,0,0,-1,1406,1163,0,0
189,-139,0,0,0,0,0,0,0,0,0,-1,1413,1163,0,0
196,-139,0,0,0,0,0,0,0,0,0,-1,1420,1163,0,0
203,-139,0,0,0,0,0,0,0,0,0,-1,1427,1163,0,0
210,-139,0,0,0,0,0,0,0,0,0,-1,1434,1163,0,0
217,-139,0,0,0,0,0,0,0,0,0,-1,1441,1163,0,0
224,-139,0,0,0,0,0,0,0,0,0,-1,1448,1163,0,0
231,-139,0,0,0,0,0,0,0,0,0,-1,1455,1163,0,0
238,-139,0,0,0,0,0,0,0,0,0,-1,1462,1163,0,0
245,-139,0,0,0,0,0,0,0,0,0,-1,1469,1163,0,0
252,-139,0,0,0,0,0,0,0,0,0,-1,1476,1163,0,0
259,-139,0,0,0,0,0,0,0,0,0,-1,1483,1163,0,0
266,-139,0,0,0,0,0,0,0,0,0,-1,1490,1163,0,0
273,-139,0,0,0,0,0,0,0,0,0,-1,1497,1163,0,0
280,-139,0,0,0,0,0,0,0,0,0,-1,1504,1163,0,0
287,-139,0,0,0,0,0,0,0,0,0,-1,1511,1163,0,0
294,-139,0,0,0,0,0,0,0,0,0,-1,1518,1163,0,0
301,-139,0,0,0,0,0,0,0,0,0,-1,1525,1163,0,0
308,-139,0,0,0,0,0,0,0,0,0,-1,1532,1163,0,0
315,-139,0,0,0,0,0,0,0,0,0,-1,1539,1163,0,0
322,-139,0,0,0,0,0,0,0,0,0,-1,1546,1163,0,0
329,-139,0,0,0,0,0,0,0,0,0,-1,1553,1163,0,0
336,-139,0,0,0,0,0,0,0,0,0,-1,1560,1163,0,0
343,-139,0,0,0,0,0,0,0,0,0,-1,1567,1163,0,0
350,-139,0,0,0,0,0,0,0,0,0,-1,1574,1163,0,0
357,-139,0,0,0,0,0,0,0,0,0,-1,1581,1163,0,0
364,-139,0,0,0,0,0,0,0,0,0,-1,1588,1163,0,0
371,-139,0,0,0,0,0,0,0,0,0,-1,1595,1163,0,0
378,-139,0,0,0,0,0,0,0,0,0,-1,1602,1163,0,0
385,-139,0,0,0,0,0,0,0,0,0,-1,1609,1163,0,0
392,-139,0,0,0,0,0,0,0,0,0,-1,1616,1163,0,0
399,-139,0,0,0,0,0,0,0,0,0,-1,1623,1163,0,0
406,-139,0,0,0,0,0,0,0,0,0,-1,1630,1163,0,0
413,-139,0,0,0,0,0,0,0,0,0,-1,1637,1163,0,0
420,-139,0,0,0,0,0,0,0,0,0,-1,1644,1163,0,0
427,-139,0,0,0,0,0,0,0,0,0,-1,1651,1163,0,0
434,-139,0,0,0,0,0,0,0,0,0,-1,1658,1163,0,0
441,-139,0,0,0,0,0,0,0,0,0,-1,1665,1163,0,0
448,-139,0,0,0,0,0,0,0,0,0,-1,1672,1163,0,0
455,-139,0,0,0,0,0,0,0,0,0,-1,1679,1163,0,0
462,-139,0,0,0,0,0,0,0,0,0,-1,1686,1163,0,0
469,-139,0,0,0,0,0,0,0,0,0,-1,1693,1163,0,0
476,-139,0,0,0,0,0,0,0,0,0,-1,1700,1163,0,0
483,-139,0,0,0,0,0,0,0,0,0,-1,1707,1163,0,0
490,-139,0,0,0,0,0,0,0,0,0,-1,1714,1163,0,0
497,-139,0,0,0,0,0,0,0,0,0,-1,1721,1163,0,0
504,-139,0,0,0,0,0,0,0,0,0,-1,1728,1163,0,0
511,-139,0,0,0,0,0,0,0,0,0,-1,1735,1163,0,0
518,-139,0,0,0,0,0,0,0,0,0,-1,1742,1163,0,0
525,-139,0,0,0,0,0,0,0,0,0,-1,1749,1163,0,0
532,-139,0,0,0,0,0,0,0,0,0,-1,1756,1163,0,0
539,-139,0,0,0,0,0,0,0,0,0,-1,1763,1163,0,0
546,-139,0,0,0,0,0,0,0,0,0,-1,1770,1163,0,0
553,-139,0,0,0,0,0,0,0,0,0,-1,1777,1163,0,0
560,-139,0,0,0,0,0,0,0,0,0,-1,1784,1163,0,0
567,-139,0,0,0,0,0,0,0,0,0,-1,1791,1163,0,0
574,-139,0,0,0,0,0,0,0,0,0,-1,1798,1163,0,0
581,-139,0,0,0,0,0,0,0,0,0,-1,1805,1163,0,0
588,-139,0,0,0,0,0,0,0,0,0,-1,1812,1163,0,0
595,-139,0,0,0,0,0,0,0,0,0,-1,1819,1163,0,0
602,-139,0,0,0,0,0,0,0,0,0,-1,1826,1163,0,0
609,-139,0,0,0,0,0,0,0,0,0,-1,1833,1163,0,0
616,-139,0,0,0,0,0,0,0,0,0,-1,1840,1163,0,0
623,-139,0,0,0,0,0,0,0,0,0,-1,1847,1163,0,0
630,-139,0,0,0,0,0,0,0,0,0,-1,1854,1163,0,0
637,-139,0,0,0,0,0,0,0,0,0,-1,1861,1163,0,0
644,-139,4.88013,0.660522,0.00162783,0.000972043,-0.000418116,0.00183129,0.000768585,-0.452876,0.00106183,0.0398928,1868,1163,4.88012,-0.660507
651,-139,4.78296,0.671753,0.00171547,0.000903841,-0.000400715,0.00187997,0.000739342,-0.389537,0.00109361,0.0404619,1875,1163,4.78296,-0.671795
658,-139,4.82813,0.60083,0.00158198,0.000561951,-0.000114465,0.00159467,0.000549264,-0.110388,0.000935417,0.0401433,1882,1163,4.82812,-0.600819
665,-139,4.89417,0.72522,0.0010525,0.000130453,0.000241275,0.00111182,7.11345e-05,0.241075,0.000718675,0.0391094,1889,1163,4.89415,-0.725228
672,-139,5.00708,0.844727,0.00040298,-0.000297237,0.000580913,0.000731131,-0.000625388,0.514202,0.000783979,0.0381595,1896,1163,5.00707,-0.84474
679,-139,5.06384,0.795654,-0.000242678,-0.000681749,0.000869412,0.000434488,-0.00135892,0.661728,0.0010803,0.0334873,1903,1163,5.06385,-0.795614
686,-139,4.95154,0.737183,-0.000822374,-0.001018,0.00109852,0.000182676,-0.00202305,0.740995,0.00141353,0.0302435,1910,1163,4.95155,-0.737138
693,-139,4.93506,0.70874,-0.0013791,-0.00116763,0.00124348,-2.53962e-05,-0.00252134,0.827811,0.00167249,0.0180827,1917,1163,4.9351,-0.708686
700,-139,4.99292,0.743652,-0.0016935,-0.00130017,0.0013676,-0.000115169,-0.0028785,0.856809,0.00188179,0.0333549,1924,1163,4.99293,-0.743653
707,-139,4.83728,0.85498,-0.00191293,-0.00133177,0.00138223,-0.00020991,-0.0030348,0.889002,0.00195698,0.0214227,1931,1163,4.83732,-0.85502
714,-139,4.71741,0.909912,-0.00211515,-0.00131045,0.00130186,-0.000350187,-0.00307541,0.935273,0.00194409,0.0214418,1938,1163,4.71739,-0.909884
721,-139,4.71753,0.877197,-0.00217505,-0.00118567,0.00120227,-0.000380289,-0.00298043,0.980572,0.0018731,0.0161407,1945,1163,4.71749,-0.877234
728,-139,4.72461,0.844238,-0.00205863,-0.00098553,0.00110703,-0.000291876,-0.00275228,1.01105,0.00174572,0.0188175,1952,1163,4.72465,-0.844272
735,-139,4.73999,0.819702,-0.00186575,-0.000825568,0.000950715,-0.000261984,-0.00242934,1.03569,0.00153968,0.0166872,1959,1163,4.74004,-0.819654
742,-139,4.7533,0.813232,-0.00170471,-0.000603343,0.000748458,-0.000224811,-0.00208324,1.10256,0.00132029,0.0219677,1966,1163,4.75334,-0.813235
749,-139,4.75916,0.783447,-0.00189255,0.000833552,0.000787582,0.00104473,-0.00210373,1.30883,0.00185172,0.0178485,1973,1163,4.75915,-0.783451
756,-139,4.73999,0.770996,-0.00242364,0.00260946,0.000928541,0.00277529,-0.00258948,1.39406,0.00309797,0.0106448,1980,1163,4.74001,-0.771031
763,-139,4.76099,0.776978,-0.0031539,0.00432057,0.00102881,0.00445959,-0.00329293,1.43648,0.00449278,0.0106942,1987,1163,4.76101,-0.776923
770,-139,4.76306,0.765015,-0.0046695,0.0071915,0.00150037,0.00737835,-0.00485635,1.4469,0.00711355,0.011255,1994,1163,4.76307,-0.765036
777,-139,4.75232,0.751709,-0.0070519,0.0115207,0.00223433,0.0117857,-0.00731691,1.45274,0.011129,0.0224206,2001,1163,4.75232,-0.751749
784,-139,4.7467,0.791748,-0.0104167,0.0178236,0.00327241,0.0181979,-0.010791,1.45693,0.0169178,0.0463016,2008,1163,4.74666,-0.791702
791,-139,4.73132,0.84082,0,0,0,0,0,0,0,-1,2015,1163,4.73126,-0.840778
798,-139,4.87915,-0.48584,-0.0210518,0.0385162,0.00662993,0.0392452,-0.0217808,1.46128,0.0357111,0.0482179,2022,1163,4.8791,0.485791
805,-139,4.40845,-0.0330811,-0.0289705,0.0539297,0.00899505,0.0548944,-0.0299353,1.46395,0.0496781,0.0419651,2029,1163,4.4085,0.0331144
812,-139,0,0,0,0,0,0,0,0,0,-1,2036,1163,0,0
-700,-146,0,0,0,0,0,0,0,0,0,-1,524,1170,0,0
-693,-146,-2.46381,2.47986,-0.016526,0.00368912,-0.0335839,0.0286535,-0.0414904,-0.931569,0.040723,0.0422445,531,1170,-2.46381,-2.47988
-686,-146,-2.52112,2.33325,-0.00677697,0.00325614,-0.0226303,0.0214193,-0.0249401,-0.894471,0.0267913,0.0469168,538,1170,-2.52113,-2.33331
-679,-146,-2.41565,2.83643,0,0,0,0,0,0,0,-1,545,1170,-2.41568,-2.83637
-672,-146,-1.67786,2.18823,0,0,0,0,0,0,0,-1,552,1170,-1.67784,-2.18828
-665,-146,-1.26215,1.62842,0,0,0,0,0,0,0,-1,559,1170,-1.26216,-1.62847
-658,-146,-0.734741,0.909302,0.00699007,0.00218274,0.000425976,0.00702753,0.00214529,0.0876992,0.00415865,0.0456293,566,1170,-0.734721,-0.90925
-651,-146,-0.839355,0.716187,0.00708222,0.00190914,0.00254129,0.00812174,0.000869619,0.388287,0.00514916,0.038098,573,1170,-0.839357,-0.716193
-644,-146,-0.810791,0.628174,0.0064615,0.00162024,0.00358943,0.00837024,-0.0002885,0.488738,0.00567877,0.0199904,580,1170,-0.810778,-0.628154
-637,-146,-0.81604,0.664673,0.00565619,0.00119608,0.00425027,0.00822593,-0.00137365,0.543798,0.00599453,0.011033,587,1170,-0.816062,-0.664625
-630,-146,-0.836121,0.696167,0.00490785,0.000703419,0.00446371,0.0077396,-0.00212833,0.565326,0.00599643,0.0106228,594,1170,-0.836106,-0.696127
-623,-146,-0.823425,0.693604,0.00362367,0.00095771,0.00367371,0.00619875,-0.00161737,0.611363,0.00476404,0.0131805,601,1170,-0.823399,-0.69357
-616,-146,-0.826599,0.718506,0.00197888,0.000545007,0.00291083,0.00425976,-0.00173587,0.664651,0.00356235,0.0180953,608,1170,-0.826587,-0.718505
-609,-146,-0.805908,0.750732,0.00122632,0.000320073,0.00112976,0.00199044,-0.000444044,0.59468,0.00149709,0.0164942,615,1170,-0.805884,-0.750776
-602,-146,-0.816711,0.771851,-0.000155059,0.000326208,-0.000740943,0.000864614,-0.000693464,-0.942409,0.000901364,0.0172256,622,1170,-0.816687,-0.771908
-595,-146,-0.825928,0.794067,-0.000628406,4.12959e-06,-0.0011484,0.000879016,-0.00150329,-0.919767,0.00139108,0.00979991,629,1170,-0.825957,-0.794018
-588,-146,-0.820496,0.826538,-0.000446159,6.58717e-05,-0.00140513,0.00123812,-0.00161841,-0.87551,0.00165408,0.0107098,636,1170,-0.820491,-0.826483
-581,-146,-0.80603,0.848999,-0.000101804,0.000116234,-0.0017005,0.00171121,-0.00169678,-0.817409,0.00196761,0.0222726,643,1170,-0.806002,-0.849018
-574,-146,-0.920898,0.84436,0.000269906,-0.000112156,-0.00186532,0.00195395,-0.0017962,-0.73437,0.00216579,0.0391814,650,1170,-0.920877,-0.844333
-567,-146,-1.03943,0.828125,0.000665179,-0.000251521,-0.00191834,0.00217917,-0.00176551,-0.668131,0.00228163,0.0406696,657,1170,-1.0394,-0.828128
-560,-146,-0.989441,0.830933,0.00121594,-0.000390394,-0.0019253,0.00249888,-0.00167333,-0.58779,0.0024245,0.0369665,664,1170,-0.989463,-0.830951
-553,-146,-0.923279,0.800659,0.00198861,-0.000636194,-0.00181629,0.00291704,-0.00156462,-0.47254,0.00262646,0.035059,671,1170,-0.923276,-0.800703
-546,-146,-0.84613,0.693237,0.00296733,-0.00101817,-0.00161478,0.00353945,-0.00159029,-0.340503,0.00303209,0.0369916,678,1170,-0.846143,-0.693197
-539,-146,-0.791443,0.651367,0.00415486,-0.00158473,-0.00134424,0.00445409,-0.00188395,-0.219028,0.00375822,0.0401688,685,1170,-0.791459,-0.651406
-532,-146,-0.761475,0.631958,0.00551511,-0.0023971,-0.00106192,0.00565516,-0.00253714,-0.131122,0.00484268,0.0406265,692,1170,-0.76147,-0.631906
-525,-146,-0.809753,0.84375,0.0068079,-0.00356855,-0.000910745,0.00688723,-0.00364788,-0.0868851,0.00617755,0.041401,699,1170,-0.809723,-0.843707
-518,-146,0,0,0,0,0,0,0,0,0,-1,706,1170,0,0
-511,-146,0,0,0,0,0,0,0,0,0,-1,713,1170,0,0
-504,-146,0,0,0,0,0,0,0,0,0,-1,720,1170,0,0
-497,-146,0,0,0,0,0,0,0,0,0,-1,727,1170,0,0
-490,-146,0,0,0,0,0,0,0,0,0,-1,734,1170,0,0
-483,-146,0,0,0,0,0,0,0,0,0,-1,741,1170,0,0
-476,-146,0,0,0,0,0,0,0,0,0,-1,748,1170,0,0
-469,-146,0,0,0,0,0,0,0,0,0,-1,755,1170,0,0
-462,-146,0,0,0,0,0,0,0,0,0,-1,762,1170,0,0
-455,-146,0,0,0,0,0,0,0,0,0,-1,769,1170,0,0
-448,-146,0,0,0,0,0,0,0,0,0,-1,776,1170,0,0
-441,-146,0,0,0,0,0,0,0,0,0,-1,783,1170,0,0
-434,-146,0,0,0,0,0,0,0,0,0,-1,790,1170,0,0
-427,-146,0,0,0,0,0,0,0,0,0,-1,797,1170,0,0
-420,-146,0,0,0,0,0,0,0,0,0,-1,804,1170,0,0
-413,-146,0,0,0,0,0,0,0,0,0,-1,811,1170,0,0
-406,-146,0,0,0,0,0,0,0,0,0,-1,818,1170,0,0
-399,-146,0,0,0,0,0,0,0,0,0,-1,825,1170,0,0
-392,-146,0,0,0,0,0,0,0,0,0,-1,832,1170,0,0
-385,-146,0,0,0,0,0,0,0,0,0,-1,839,1170,0,0
-378,-146,0,0,0,0,0,0,0,0,0,-1,846,1170,0,0
-371,-146,0,0,0,0,0,0,0,0,0,-1,853,1170,0,0
-364,-146,0,0,0,0,0,0,0,0,0,-1,860,1170,0,0
-357,-146,0,0,0,0,0,0,0,0,0,-1,867,1170,0,0
-350,-146,0,0,0,0,0,0,0,0,0,-1,874,1170,0,0
-343,-146,0,0,0,0,0,0,0,0,0,-1,881,1170,0,0
-336,-146,0,0,0,0,0,0,0,0,0,-1,888,1170,0,0
-329,-146,0,0,0,0,0,0,0,0,0,-1,895,1170,0,0
-322,-146,0,0,0,0,0,0,0,0,0,-1,902,1170,0,0
-315,-146,0,0,0,0,0,0,0,0,0,-1,909,1170,0,0
-308,-146,0,0,0,0,0,0,0,0,0,-1,916,1170,0,0
-301,-146,0,0,0,0,0,0,0,0,0,-1,923,1170,0,0
-294,-146,0,0,0,0,0,0,0,0,0,-1,930,1170,0,0
-287,-146,0,0,0,0,0,0,0,0,0,-1,937,1170,0,0
-280,-146,0,0,0,0,0,0,0,0,0,-1,944,1170,0,0
-273,-146,0,0,0,0,0,0,0,0,0,-1,951,1170,0,0
-266,-146,0,0,0,0,0,0,0,0,0,-1,958,1170,0,0
-259,-146,0,0,0,0,0,0,0,0,0,-1,965,1170,0,0
-252,-146,0,0,0,0,0,0,0,0,0,-1,972,1170,0,0
-245,-146,0,0,0,0,0,0,0,0,0,-1,979,1170,0,0
-238,-146,0,0,0,0,0,0,0,0,0,-1,986,1170,0,0
-231,-146,0,0,0,0,0,0,0,0,0,-1,993,1170,0,0
-224,-146,0,0,0,0,0,0,0,0,0,-1,1000,1170,0,0
-217,-146,0,0,0,0,0,0,0,0,0,-1,1007,1170,0,0
-210,-146,0,0,0,0,0,0,0,0,0,-1,1014,1170,0,0
-203,-146,0,0,0,0,0,0,0,0,0,-1,1021,1170,0,0
-196,-146,0,0,0,0,0,0,0,0,0,-1,1028,1170,0,0
-189,-146,0,0,0,0,0,0,0,0,0,-1,1035,1170,0,0
-182,-146,0,0,0,0,0,0,0,0,0,-1,1042,1170,0,0
-175,-146,0,0,0,0,0,0,0,0,0,-1,1049,1170,0,0
-168,-146,0,0,0,0,0,0,0,0,0,-1,1056,1170,0,0
-161,-146,0,0,0,0,0,0,0,0,0,-1,1063,1170,0,0
-154,-146,0,0,0,0,0,0,0,0,0,-1,1070,1170,0,0
-147,-146,0,0,0,0,0,0,0,0,0,-1,1077,1170,0,0
-140,-146,0,0,0,0,0,0,0,0,0,-1,1084,1170,0,0
-133,-146,0,0,0,0,0,0,0,0,0,-1,1091,1170,0,0
-126,-146,0,0,0,0,0,0,0,0,0,-1,1098,1170,0,0
-119,-146,0,0,0,0,0,0,0,0,0,-1,1105,1170,0,0
-112,-146,0,0,0,0,0,0,0,0,0,-1,1112,1170,0,0
-105,-146,0,0,0,0,0,0,0,0,0,-1,1119,1170,0,0
-98,-146,0,0,0,0,0,0,0,0,0,-1,1126,1170,0,0
-91,-146,0,0,0,0,0,0,0,0,0,-1,1133,1170,0,0
-84,-146,0,0,0,0,0,0,0,0,0,-1,1140,1170,0,0
-77,-146,0,0,0,0,0,0,0,0,0,-1,1147,1170,0,0
-70,-146,0,0,0,0,0,0,0,0,0,-1,1154,1170,0,0
-63,-146,0,0,0,0,0,0,0,0,0,-1,1161,1170,0,0
-56,-146,0,0,0,0,0,0,0,0,0,-1,1168,1170,0,0
-49,-146,0,0,0,0,0,0,0,0,0,-1,1175,1170,0,0
-42,-146,0,0,0,0,0,0,0,0,0,-1,1182,1170,0,0
-35,-146,0,0,0,0,0,0,0,0,0,-1,1189,1170,0,0
-28,-146,0,0,0,0,0,0,0,0,0,-1,1196,1170,0,0
-21,-146,0,0,0,0,0,0,0,0,0,-1,1203,1170,0,0
-14,-146,0,0,0,0,0,0,0,0,0,-1,1210,1170,0,0
-7,-146,0,0,0,0,0,0,0,0,0,-1,1217,1170,0,0
0,-146,0,0,0,0,0,0,0,0,0,-1,1224,1170,0,0
7,-146,0,0,0,0,0,0,0,0,0,-1,1231,1170,0,0
14,-146,0,0,0,0,0,0,0,0,0,-1,1238,1170,0,0
21,-146,0,0,0,0,0,0,0,0,0,-1,1245,1170,0,0
28,-146,0,0,0,0,0,0,0,0,0,-1,1252,1170,0,0
35,-146,0,0,0,0,0,0,0,0,0,-1,1259,1170,0,0
42,-146,0,0,0,0,0,0,0,0,0,-1,1266,1170,0,0
49,-146,0,0,0,0,0,0,0,0,0,-1,1273,1170,0,0
56,-146,0,0,0,0,0,0,0,0,0,-1,1280,1170,0,0
63,-146,0,0,0,0,0,0,0,0,0,-1,1287,1170,0,0
70,-146,0,0,0,0,0,0,0,0,0,-1,1294,1170,0,0
77,-146,0,0,0,0,0,0,0,0,0,-1,1301,1170,0,0
84,-146,0,0,0,0,0,0,0,0,0,-1,1308,1170,0,0
91,-146,0,0,0,0,0,0,0,0,0,-1,1315,1170,0,0
98,-146,0,0,0,0,0,0,0,0,0,-1,1322,1170,0,0
105,-146,0,0,0,0,0,0,0,0,0,-1,1329,1170,0,0
112,-146,0,0,0,0,0,0,0,0,0,-1,1336,1170,0,0
119,-146,0,0,0,0,0,0,0,0,0,-1,1343,1170,0,0
126,-146,0,0,0,0,0,0,0,0,0,-1,1350,1170,0,0
133,-146,0,0,0,0,0,0,0,0,0,-1,1357,1170,0,0
140,-146,0,0,0,0,0,0,0,0,0,-1,1364,1170,0,0
147,-146,0,0,0,0,0,0,0,0,0,-1,1371,1170,0,0
154,-146,0,0,0,0,0,0,0,0,0,-1,1378,1170,0,0
161,-146,0,0,0,0,0,0,0,0,0,-1,1385,1170,0,0
168,-146,0,0,0,0,0,0,0,0,0,-1,1392,1170,0,0
175,-146,0,0,0,0,0,0,0,0,0,-1,1399,1170,0,0
182,-146,0,0,0,0,0,0,0,0,0,-1,1406,1170,0,0
189,-146,0,0,0,0,0,0,0,0,0,-1,1413,1170,0,0
196,-146,0,0,0,0,0,0,0,0,0,-1,1420,1170,0,0
203,-146,0,0,0,0,0,0,0,0,0,-1,1427,1170,0,0
210,-146,0,0,0,0,0,0,0,0,0,-1,1434,1170,0,0
217,-146,0,0,0,0,0,0,0,0,0,-1,1441,1170,0,0
224,-146,0,0,0,0,0,0,0,0,0,-1,1448,1170,0,0
231,-146,0,0,0,0,0,0,0,0,0,-1,1455,1170,0,0
238,-146,0,0,0,0,0,0,0,0,0,-1,1462,1170,0,0
245,-146,0,0,0,0,0,0,0,0,0,-1,1469,1170,0,0
252,-146,0,0,0,0,0,0,0,0,0,-1,1476,1170,0,0
259,-146,0,0,0,0,0,0,0,0,0,-1,1483,1170,0,0
266,-146,0,0,0,0,0,0,0,0,0,-1,1490,1170,0,0
273,-146,0,0,0,0,0,0,0,0,0,-1,1497,1170,0,0
280,-146,0,0,0,0,0,0,0,0,0,-1,1504,1170,0,0
287,-146,0,0,0,0,0,0,0,0,0,-1,1511,1170,0,0
294,-146,0,0,0,0,0,0,0,0,0,-1,1518,1170,0,0
301,-146,0,0,0,0,0,0,0,0,0,-1,1525,1170,0,0
308,-146,0,0,0,0,0,0,0,0,0,-1,1532,1170,0,0
315,-146,0,0,0,0,0,0,0,0,0,-1,1539,1170,0,0
322,-146,0,0,0,0,0,0,0,0,0,-1,1546,1170,0,0
329,-146,0,0,0,0,0,0,0,0,0,-1,1553,1170,0,0
336,-146,0,0,0,0,0,0,0,0,0,-1,1560,1170,0,0
343,-146,0,0,0,0,0,0,0,0,0,-1,1567,1170,0,0
350,-146,0,0,0,0,0,0,0,0,0,-1,1574,1170,0,0
357,-146,0,0,0,0,0,0,0,0,0,-1,1581,1170,0,0
364,-146,0,0,0,0,0,0,0,0,0,-1,1588,1170,0,0
371,-146,0,0,0,0,0,0,0,0,0,-1,1595,1170,0,0
378,-146,0,0,0,0,0,0,0,0,0,-1,1602,1170,0,0
385,-146,0,0,0,0,0,0,0,0,0,-1,1609,1170,0,0
392,-146,0,0,0,0,0,0,0,0,0,-1,1616,1170,0,0
399,-146,0,0,0,0,0,0,0,0,0,-1,1623,1170,0,0
406,-146,0,0,0,0,0,0,0,0,0,-1,1630,1170,0,0
413,-146,0,0,0,0,0,0,0,0,0,-1,1637,1170,0,0
420,-146,0,0,0,0,0,0,0,0,0,-1,1644,1170,0,0
427,-146,0,0,0,0,0,0,0,0,0,-1,1651,1170,0,0
434,-146,0,0,0,0,0,0,0,0,0,-1,1658,1170,0,0
441,-146,0,0,0,0,0,0,0,0,0,-1,1665,1170,0,0
448,-146,0,0,0,0,0,0,0,0,0,-1,1672,1170,0,0
455,-146,0,0,0,0,0,0,0,0,0,-1,1679,1170,0,0
462,-146,0,0,0,0,0,0,0,0,0,-1,1686,1170,0,0
469,-146,0,0,0,0,0,0,0,0,0,-1,1693,1170,0,0
476,-146,0,0,0,0,0,0,0,0,0,-1,1700,1170,0,0
483,-146,0,0,0,0,0,0,0,0,0,-1,1707,1170,0,0
490,-146,0,0,0,0,0,0,0,0,0,-1,1714,1170,0,0
497,-146,0,0,0,0,0,0,0,0,0,-1,1721,1170,0,0
504,-146,0,0,0,0,0,0,0,0,0,-1,1728,1170,0,0
511,-146,0,0,0,0,0,0,0,0,0,-1,1735,1170,0,0
518,-146,0,0,0,0,0,0,0,0,0,-1,1742,1170,0,0
525,-146,0,0,0,0,0,0,0,0,0,-1,1749,1170,0,0
532,-146,0,0,0,0,0,0,0,0,0,-1,1756,1170,0,0
539,-146,0,0,0,0,0,0,0,0,0,-1,1763,1170,0,0
546,-146,0,0,0,0,0,0,0,0,0,-1,1770,1170,0,0
553,-146,0,0,0,0,0,0,0,0,0,-1,1777,1170,0,0
560,-146,0,0,0,0,0,0,0,0,0,-1,1784,1170,0,0
567,-146,0,0,0,0,0,0,0,0,0,-1,1791,1170,0,0
574,-146,0,0,0,0,0,0,0,0,0,-1,1798,1170,0,0
581,-146,0,0,0,0,0,0,0,0,0,-1,1805,1170,0,0
588,-146,0,0,0,0,0,0,0,0,0,-1,1812,1170,0,0
595,-146,0,0,0,0,0,0,0,0,0,-1,1819,1170,0,0
602,-146,0,0,0,0,0,0,0,0,0,-1,1826,1170,0,0
609,-146,0,0,0,0,0,0,0,0,0,-1,1833,1170,0,0
616,-146,0,0,0,0,0,0,0,0,0,-1,1840,1170,0,0
623,-146,0,0,0,0,0,0,0,0,0,-1,1847,1170,0,0
630,-146,0,0,0,0,0,0,0,0,0,-1,1854,1170,0,0
637,-146,4.96887,0.528198,0.00160514,0.000951903,-0.000867236,0.00220523,0.00035182,-0.605302,0.00136804,0.0372147,1861,1170,4.96892,-0.528246
644,-146,4.91724,0.56604,0.00144594,0.00138852,-0.000650437,0.0020683,0.000766158,-0.763342,0.00120742,0.0378708,1868,1170,4.91728,-0.566087
651,-146,4.83606,0.548828,0.00154404,0.00113777,-0.000523802,0.00190272,0.000779092,-0.600421,0.00110452,0.0370922,1875,1170,4.83612,-0.548796
658,-146,4.92236,0.556274,0.00136705,0.000675372,-0.000144833,0.00139615,0.00064627,-0.198298,0.000806809,0.0398546,1882,1170,4.92235,-0.556322
665,-146,4.97498,0.861328,0.000835492,0.000171132,0.000265478,0.000928543,7.80804e-05,0.337126,0.000594713,0.0397848,1889,1170,4.97496,-0.861302
672,-146,4.98425,0.964722,0.000219831,-0.000301443,0.000634258,0.000644916,-0.000726528,0.590451,0.000792271,0.0369192,1896,1170,4.98424,-0.964712
679,-146,5.05212,0.764893,-0.000385731,-0.000713663,0.000936173,0.000400726,-0.00150012,0.698705,0.00115702,0.0283689,1903,1170,5.05207,-0.764866
686,-146,4.95837,0.721924,-0.000915987,-0.00107363,0.00115988,0.000167751,-0.00215736,0.751473,0.0014973,0.0206772,1910,1170,4.95843,-0.721899
693,-146,4.94617,0.680908,-0.00144688,-0.00121665,0.00129831,-2.83628e-05,-0.00263516,0.829615,0.0017474,0.0126277,1917,1170,4.94617,-0.680896
700,-146,4.95996,0.913818,0,0,0,0,0,0,0,-1,1924,1170,4.9599,-0.913799
707,-146,4.84351,0.897583,-0.00191954,-0.00138221,0.00141782,-0.000207821,-0.00309393,0.879033,0.00199695,0.0265399,1931,1170,4.84355,-0.897617
714,-146,4.74951,0.880493,-0.00211034,-0.0013504,0.00131874,-0.000357978,-0.00310276,0.925665,0.00196011,0.0163678,1938,1170,4.74954,-0.880444
721,-146,4.69543,0.900269,-0.00212886,-0.00123187,0.00118477,-0.000413542,-0.00294718,0.966338,0.00184247,0.0218541,1945,1170,4.69545,-0.900229
728,-146,4.72424,0.855103,-0.00198564,-0.00106792,0.00107587,-0.00035715,-0.00269641,0.986968,0.00169118,0.0189799,1952,1170,4.72429,-0.855138
735,-146,4.73804,0.846802,-0.00176723,-0.000897657,0.00095408,-0.000283966,-0.00238092,0.999196,0.0015016,0.0175321,1959,1170,4.73808,-0.84685
742,-146,4.75952,0.809326,-0.00155965,-0.000690544,0.000775373,-0.000236256,-0.00201394,1.04081,0.00127121,0.0173363,1966,1170,4.75958,-0.809343
749,-146,4.73853,0.793823,-0.00172685,0.000682117,0.000878863,0.000968668,-0.0020134,1.25562,0.00175656,0.0148358,1973,1170,4.73849,-0.793809
756,-146,4.72693,0.775146,-0.00222373,0.00243195,0.00113707,0.00269482,-0.0024866,1.34361,0.0029923,0.0111831,1980,1170,4.72693,-0.775158
763,-146,4.724,0.764893,-0.00295973,0.00417805,0.0014314,0.0044544,-0.00323608,1.38008,0.00445864,0.0109927,1987,1170,4.72404,-0.76493
770,-146,4.72388,0.750488,-0.00450618,0.00714081,0.00213739,0.00752067,-0.00488603,1.39491,0.00721665,0.0115055,1994,1170,4.72393,-0.750436
777,-146,4.73071,0.746704,-0.00693132,0.0117263,0.00319253,0.0122575,-0.00746247,1.40593,0.011497,0.0198795,2001,1170,4.73074,-0.746736
784,-146,4.7655,0.852295,-0.0104092,0.0185592,0.00467833,0.019296,-0.011146,1.41459,0.0177844,0.0410331,2008,1170,4.76547,-0.852266
791,-146,4.77795,0.940796,0,0,0,0,0,0,0,-1,2015,1170,4.7779,-0.940786
798,-146,4.75269,-1.64697,0,0,0,0,0,0,0,-1,2022,1170,4.75272,1.64695
805,-146,4.42957,-1.14185,0,0,0,0,0,0,0,-1,2029,1170,4.42962,1.14184
812,-146,0,0,0,0,0,0,0,0,0,-1,2036,1170,0,0
-700,-153,0,0,0,0,0,0,0,0,0,-1,524,1177,0,0
-693,-153,0,0,0,0,0,0,0,0,0,-1,531,1177,0,0
-686,-153,-2.60406,2.21094,0,0,0,0,0,0,0,-1,538,1177,-2.60404,-2.21093
-679,-153,-2.69318,2.02209,0,0,0,0,0,0,0,-1,545,1177,-2.69315,-2.02204
-672,-153,-1.32391,2.20447,0,0,0,0,0,0,0,-1,552,1177,-1.32391,-2.20448
-665,-153,-0.602722,1.59424,0,0,0,0,0,0,0,-1,559,1177,-0.602719,-1.59429
-658,-153,-0.655884,0.733765,0,0,0,0,0,0,0,-1,566,1177,-0.655903,-0.733725
-651,-153,-0.835632,0.480347,0.00406292,0.00265993,0.00534081,0.00874811,-0.00202526,0.720099,0.00661138,0.0443231,573,1177,-0.835637,-0.480297
-644,-153,-0.796936,0.567871,0.00461959,0.00239183,0.00591791,0.00952754,-0.00251612,0.692376,0.00733567,0.0258087,580,1177,-0.796955,-0.567853
-637,-153,-0.787598,0.651367,0.00466572,0.00195723,0.00604453,0.00950585,-0.0028829,0.675196,0.0074856,0.0114502,587,1177,-0.787621,-0.65134
-630,-153,-0.802612,0.69751,0.00460878,0.00157468,0.00592646,0.00920928,-0.00302582,0.660099,0.0073585,0.0104476,594,1177,-0.802589,-0.697528
-623,-153,-0.804138,0.716797,0.00388604,0.00157678,0.00466677,0.00753889,-0.00207607,0.664126,0.00584223,0.00998464,601,1177,-0.804164,-0.716806
-616,-153,-0.784241,0.728149,0.00243615,0.000868904,0.00352903,0.00526752,-0.00196246,0.676145,0.00431716,0.0123967,608,1177,-0.784242,-0.728201
-609,-153,-0.778381,0.752319,0.00145146,0.000489514,0.0015355,0.00257955,-0.000638576,0.633621,0.00196741,0.0171267,615,1177,-0.778405,-0.752305
-602,-153,-0.813538,0.790283,-0.000264175,0.000442915,-0.000655207,0.000833877,-0.000655137,-1.03281,0.000861745,0.0194248,622,1177,-0.813511,-0.790261
-595,-153,-0.802429,0.801514,-0.000804243,2.26927e-05,-0.00114752,0.000828961,-0.00161051,-0.958315,0.00143232,0.0145911,629,1177,-0.802431,-0.801555
-588,-153,-0.809692,0.808594,-0.000599001,3.06905e-05,-0.00149414,0.0012428,-0.00181111,-0.889239,0.00177332,0.00934268,636,1177,-0.80967,-0.808566
-581,-153,-0.824219,0.850464,-0.000286216,7.28696e-05,-0.00178528,0.00168762,-0.00190096,-0.835514,0.00207309,0.0182815,643,1177,-0.824189,-0.850455
-574,-153,-0.826599,0.721069,3.67537e-05,-0.000172785,-0.00192598,0.00186081,-0.00199684,-0.758226,0.00222768,0.0392215,650,1177,-0.826582,-0.72103
-567,-153,-0.875366,0.608276,0.000383489,-0.000307958,-0.0019745,0.00204231,-0.00196678,-0.69873,0.00231478,0.0452877,657,1177,-0.875385,-0.608257
-560,-153,-0.906311,0.636597,0.000882411,-0.000435889,-0.00197447,0.00230485,-0.00185833,-0.624297,0.00240822,0.0400954,664,1177,-0.906282,-0.63655
-553,-153,-0.88739,0.716553,0.00161815,-0.000675695,-0.0018434,0.00264231,-0.00169985,-0.507115,0.00252655,0.0351018,671,1177,-0.887363,-0.716558
-546,-153,-0.724609,0.543945,0.00256754,-0.00104788,-0.00161133,0.00318144,-0.00166178,-0.364011,0.00284175,0.0363106,678,1177,-0.72462,-0.543959
-539,-153,-0.682617,0.522827,0.00372843,-0.00159591,-0.00130405,0.00403067,-0.00189815,-0.227745,0.00349603,0.0402712,685,1177,-0.682609,-0.522853
-532,-153,-0.774841,0.628296,0.00506136,-0.00236559,-0.000976174,0.00518753,-0.00249175,-0.128529,0.00452378,0.043236,692,1177,-0.774843,-0.628329
-525,-153,-1.03638,1.36023,0,0,0,0,0,0,0,-1,699,1177,-1.03637,-1.36026
-518,-153,0,0,0,0,0,0,0,0,0,-1,706,1177,0,0
-511,-153,0,0,0,0,0,0,0,0,0,-1,713,1177,0,0
-504,-153,0,0,0,0,0,0,0,0,0,-1,720,1177,0,0
-497,-153,0,0,0,0,0,0,0,0,0,-1,727,1177,0,0
-490,-153,0,0,0,0,0,0,0,0,0,-1,734,1177,0,0
-483,-153,0,0,0,0,0,0,0,0,0,-1,741,1177,0,0
-476,-153,0,0,0,0,0,0,0,0,0,-1,748,1177,0,0
-469,-153,0,0,0,0,0,0,0,0,0,-1,755,1177,0,0
-462,-153,0,0,0,0,0,0,0,0,0,-1,762,1177,0,0
-455,-153,0,0,0,0,0,0,0,0,0,-1,769,1177,0,0
-448,-153,0,0,0,0,0,0,0,0,0,-1,776,1177,0,0
-441,-153,0,0,0,0,0,0,0,0,0,-1,783,1177,0,0
-434,-153,0,0,0,0,0,0,0,0,0,-1,790,1177,0,0
-427,-153,0,0,0,0,0,0,0,0,0,-1,797,1177,0,0
-420,-153,0,0,0,0,0,0,0,0,0,-1,804,1177,0,0
-413,-153,0,0,0,0,0,0,0,0,0,-1,811,1177,0,0
-406,-153,0,0,0,0,0,0,0,0,0,-1,818,1177,0,0
-399,-153,0,0,0,0,0,0,0,0,0,-1,825,1177,0,0
-392,-153,0,0,0,0,0,0,0,0,0,-1,832,1177,0,0
-385,-153,0,0,0,0,0,0,0,0,0,-1,839,1177,0,0
-378,-153,0,0,0,0,0,0,0,0,0,-1,846,1177,0,0
-371,-153,0,0,0,0,0,0,0,0,0,-1,853,1177,0,0
-364,-153,0,0,0,0,0,0,0,0,0,-1,860,1177,0,0
-357,-153,0,0,0,0,0,0,0,0,0,-1,867,1177,0,0
-350,-153,0,0,0,0,0,0,0,0,0,-1,874,1177,0,0
-343,-153,0,0,0,0,0,0,0,0,0,-1,881,1177,0,0
-336,-153,0,0,0,0,0,0,0,0,0,-1,888,1177,0,0
-329,-153,0,0,0,0,0,0,0,0,0,-1,895,1177,0,0
-322,-153,0,0,0,0,0,0,0,0,0,-1,902,1177,0,0
-315,-153,0,0,0,0,0,0,0,0,0,-1,909,1177,0,0
-308,-153,0,0,0,0,0,0,0,0,0,-1,916,1177,0,0
-301,-153,0,0,0,0,0,0,0,0,0,-1,923,1177,0,0
-294,-153,0,0,0,0,0,0,0,0,0,-1,930,1177,0,0
-287,-153,0,0,0,0,0,0,0,0,0,-1,937,1177,0,0
-280,-153,0,0,0,0,0,0,0,0,0,-1,944,1177,0,0
-273,-153,0,0,0,0,0,0,0,0,0,-1,951,1177,0,0
-266,-153,0,0,0,0,0,0,0,0,0,-1,958,1177,0,0
-259,-153,0,0,0,0,0,0,0,0,0,-1,965,1177,0,0
-252,-153,0,0,0,0,0,0,0,0,0,-1,972,1177,0,0
-245,-153,0,0,0,0,0,0,0,0,0,-1,979,1177,0,0
-238,-153,0,0,0,0,0,0,0,0,0,-1,986,1177,0,0
-231,-153,0,0,0,0,0,0,0,0,0,-1,993,1177,0,0
-224,-153,0,0,0,0,0,0,0,0,0,-1,1000,1177,0,0
-217,-153,0,0,0,0,0,0,0,0,0,-1,1007,1177,0,0
-210,-153,0,0,0,0,0,0,0,0,0,-1,1014,1177,0,0
-203,-153,0,0,0,0,0,0,0,0,0,-1,1021,1177,0,0
-196,-153,0,0,0,0,0,0,0,0,0,-1,1028,1177,0,0
-189,-153,0,0,0,0,0,0,0,0,0,-1,1035,1177,0,0
-182,-153,0,0,0,0,0,0,0,0,0,-1,1042,1177,0,0
-175,-153,0,0,0,0,0,0,0,0,0,-1,1049,1177,0,0
-168,-153,0,0,0,0,0,0,0,0,0,-1,1056,1177,0,0
-161,-153,0,0,0,0,0,0,0,0,0,-1,1063,1177,0,0
-154,-153,0,0,0,0,0,0,0,0,0,-1,1070,1177,0,0
-147,-153,0,0,0,0,0,0,0,0,0,-1,1077,1177,0,0
-140,-153,0,0,0,0,0,0,0,0,0,-1,1084,1177,0,0
-133,-153,0,0,0,0,0,0,0,0,0,-1,1091,1177,0,0
-126,-153,0,0,0,0,0,0,0,0,0,-1,1098,1177,0,0
-119,-153,0,0,0,0,0,0,0,0,0,-1,1105,1177,0,0
-112,-153,0,0,0,0,0,0,0,0,0,-1,1112,1177,0,0
-105,-153,0,0,0,0,0,0,0,0,0,-1,1119,1177,0,0
-98,-153,0,0,0,0,0,0,0,0,0,-1,1126,1177,0,0
-91,-153,0,0,0,0,0,0,0,0,0,-1,1133,1177,0,0
-84,-153,0,0,0,0,0,0,0,0,0,-1,1140,1177,0,0
-77,-153,0,0,0,0,0,0,0,0,0,-1,1147,1177,0,0
-70,-153,0,0,0,0,0,0,0,0,0,-1,1154,1177,0,0
-63,-153,0,0,0,0,0,0,0,0,0,-1,1161,1177,0,0
-56,-153,0,0,0,0,0,0,0,0,0,-1,1168,1177,0,0
-49,-153,0,0,0,0,0,0,0,0,0,-1,1175,1177,0,0
-42,-153,0,0,0,0,0,0,0,0,0,-1,1182,1177,0,0
-35,-153,0,0,0,0,0,0,0,0,0,-1,1189,1177,0,0
-28,-153,0,0,0,0,0,0,0,0,0,-1,1196,1177,0,0
-21,-153,0,0,0,0,0,0,0,0,0,-1,1203,1177,0,0
-14,-153,0,0,0,0,0,0,0,0,0,-1,1210,1177,0,0
-7,-153,0,0,0,0,0,0,0,0,0,-1,1217,1177,0,0
0,-153,0,0,0,0,0,0,0,0,0,-1,1224,1177,0,0
7,-153,0,0,0,0,0,0,0,0,0,-1,1231,1177,0,0
14,-153,0,0,0,0,0,0,0,0,0,-1,1238,1177,0,0
21,-153,0,0,0,0,0,0,0,0,0,-1,1245,1177,0,0
28,-153,0,0,0,0,0,0,0,0,0,-1,1252,1177,0,0
35,-153,0,0,0,0,0,0,0,0,0,-1,1259,1177,0,0
42,-153,0,0,0,0,0,0,0,0,0,-1,1266,1177,0,0
49,-153,0,0,0,0,0,0,0,0,0,-1,1273,1177,0,0
56,-153,0,0,0,0,0,0,0,0,0,-1,1280,1177,0,0
63,-153,0,0,0,0,0,0,0,0,0,-1,1287,1177,0,0
70,-153,0,0,0,0,0,0,0,0,0,-1,1294,1177,0,0
77,-153,0,0,0,0,0,0,0,0,0,-1,1301,1177,0,0
84,-153,0,0,0,0,0,0,0,0,0,-1,1308,1177,0,0
91,-153,0,0,0,0,0,0,0,0,0,-1,1315,1177,0,0
98,-153,0,0,0,0,0,0,0,0,0,-1,1322,1177,0,0
105,-153,0,0,0,0,0,0,0,0,0,-1,1329,1177,0,0
112,-153,0,0,0,0,0,0,0,0,0,-1,1336,1177,0,0
119,-153,0,0,0,0,0,0,0,0,0,-1,1343,1177,0,0
126,-153,0,0,0,0,0,0,0,0,0,-1,1350,1177,0,0
133,-153,0,0,0,0,0,0,0,0,0,-1,1357,1177,0,0
140,-153,0,0,0,0,0,0,0,0,0,-1,1364,1177,0,0
147,-153,0,0,0,0,0,0,0,0,0,-1,1371,1177,0,0
154,-153,0,0,0,0,0,0,0,0,0,-1,1378,1177,0,0
161,-153,0,0,0,0,0,0,0,0,0,-1,1385,1177,0,0
168,-153,0,0,0,0,0,0,0,0,0,-1,1392,1177,0,0
175,-153,0,0,0,0,0,0,0,0,0,-1,1399,1177,0,0
182,-153,0,0,0,0,0,0,0,0,0,-1,1406,1177,0,0
189,-153,0,0,0,0,0,0,0,0,0,-1,1413,1177,0,0
196,-153,0,0,0,0,0,0,0,0,0,-1,1420,1177,0,0
203,-153,0,0,0,0,0,0,0,0,0,-1,1427,1177,0,0
210,-153,0,0,0,0,0,0,0,0,0,-1,1434,1177,0,0
217,-153,0,0,0,0,0,0,0,0,0,-1,1441,1177,0,0
224,-153,0,0,0,0,0,0,0,0,0,-1,1448,1177,0,0
231,-153,0,0,0,0,0,0,0,0,0,-1,1455,1177,0,0
238,-153,0,0,0,0,0,0,0,0,0,-1,1462,1177,0,0
245,-153,0,0,0,0,0,0,0,0,0,-1,1469,1177,0,0
252,-153,0,0,0,0,0,0,0,0,0,-1,1476,1177,0,0
259,-153,0,0,0,0,0,0,0,0,0,-1,1483,1177,0,0
266,-153,0,0,0,0,0,0,0,0,0,-1,1490,1177,0,0
273,-153,0,0,0,0,0,0,0,0,0,-1,1497,1177,0,0
280,-153,0,0,0,0,0,0,0,0,0,-1,1504,1177,0,0
287,-153,0,0,0,0,0,0,0,0,0,-1,1511,1177,0,0
294,-153,0,0,0,0,0,0,0,0,0,-1,1518,1177,0,0
301,-153,0,0,0,0,0,0,0,0,0,-1,1525,1177,0,0
308,-153,0,0,0,0,0,0,0,0,0,-1,1532,1177,0,0
315,-153,0,0,0,0,0,0,0,0,0,-1,1539,1177,0,0
322,-153,0,0,0,0,0,0,0,0,0,-1,1546,1177,0,0
329,-153,0,0,0,0,0,0,0,0,0,-1,1553,1177,0,0
336,-153,0,0,0,0,0,0,0,0,0,-1,1560,1177,0,0
343,-153,0,0,0,0,0,0,0,0,0,-1,1567,1177,0,0
350,-153,0,0,0,0,0,0,0,0,0,-1,1574,1177,0,0
357,-153,0,0,0,0,0,0,0,0,0,-1,1581,1177,0,0
364,-153,0,0,0,0,0,0,0,0,0,-1,1588,1177,0,0
371,-153,0,0,0,0,0,0,0,0,0,-1,1595,1177,0,0
378,-153,0,0,0,0,0,0,0,0,0,-1,1602,1177,0,0
385,-153,0,0,0,0,0,0,0,0,0,-1,1609,1177,0,0
392,-153,0,0,0,0,0,0,0,0,0,-1,1616,1177,0,0
399,-153,0,0,0,0,0,0,0,0,0,-1,1623,1177,0,0
406,-153,0,0,0,0,0,0,0,0,0,-1,1630,1177,0,0
413,-153,0,0,0,0,0,0,0,0,0,-1,1637,1177,0,0
420,-153,0,0,0,0,0,0,0,0,0,-1,1644,1177,0,0
427,-153,0,0,0,0,0,0,0,0,0,-1,1651,1177,0,0
434,-153,0,0,0,0,0,0,0,0,0,-1,1658,1177,0,0
441,-153,0,0,0,0,0,0,0,0,0,-1,1665,1177,0,0
448,-153,0,0,0,0,0,0,0,0,0,-1,1672,1177,0,0
455,-153,0,0,0,0,0,0,0,0,0,-1,1679,1177,0,0
462,-153,0,0,0,0,0,0,0,0,0,-1,1686,1177,0,0
469,-153,0,0,0,0,0,0,0,0,0,-1,1693,1177,0,0
476,-153,0,0,0,0,0,0,0,0,0,-1,1700,1177,0,0
483,-153,0,0,0,0,0,0,0,0,0,-1,1707,1177,0,0
490,-153,0,0,0,0,0,0,0,0,0,-1,1714,1177,0,0
497,-153,0,0,0,0,0,0,0,0,0,-1,1721,1177,0,0
504,-153,0,0,0,0,0,0,0,0,0,-1,1728,1177,0,0
511,-153,0,0,0,0,0,0,0,0,0,-1,1735,1177,0,0
518,-153,0,0,0,0,0,0,0,0,0,-1,1742,1177,0,0
525,-153,0,0,0,0,0,0,0,0,0,-1,1749,1177,0,0
532,-153,0,0,0,0,0,0,0,0,0,-1,1756,1177,0,0
539,-153,0,0,0,0,0,0,0,0,0,-1,1763,1177,0,0
546,-153,0,0,0,0,0,0,0,0,0,-1,1770,1177,0,0
553,-153,0,0,0,0,0,0,0,0,0,-1,1777,1177,0,0
560,-153,0,0,0,0,0,0,0,0,0,-1,1784,1177,0,0
567,-153,0,0,0,0,0,0,0,0,0,-1,1791,1177,0,0
574,-153,0,0,0,0,0,0,0,0,0,-1,1798,1177,0,0
581,-153,0,0,0,0,0,0,0,0,0,-1,1805,1177,0,0
588,-153,0,0,0,0,0,0,0,0,0,-1,1812,1177,0,0
595,-153,0,0,0,0,0,0,0,0,0,-1,1819,1177,0,0
602,-153,0,0,0,0,0,0,0,0,0,-1,1826,1177,0,0
609,-153,0,0,0,0,0,0,0,0,0,-1,1833,1177,0,0
616,-153,0,0,0,0,0,0,0,0,0,-1,1840,1177,0,0
623,-153,0,0,0,0,0,0,0,0,0,-1,1847,1177,0,0
630,-153,0,0,0,0,0,0,0,0,0,-1,1854,1177,0,0
637,-153,4.7981,0.549927,0.00156525,0.00117947,-0.00119299,0.00258084,0.000163879,-0.705247,0.00166862,0.038174,1861,1177,4.79809,-0.549874
644,-153,4.80945,0.603516,0.00139122,0.00148979,-0.000874014,0.00231591,0.000565102,-0.813565,0.00139428,0.0364666,1868,1177,4.80941,-0.603562
651,-153,4.90796,0.616943,0.00146576,0.00111349,-0.000609983,0.00192453,0.000654723,-0.644843,0.00112989,0.0316646,1875,1177,4.90797,-0.61694
658,-153,4.96716,0.64624,0.00124285,0.000577743,-0.000130612,0.00126758,0.000553013,-0.187124,0.000733814,0.0381183,1882,1177,4.96713,-0.646191
665,-153,4.98572,0.801758,0.000725909,3.74779e-05,0.000336059,0.000862755,-9.93682e-05,0.386705,0.000610992,0.0393307,1889,1177,4.98567,-0.801768
672,-153,4.93933,0.712402,0.000156093,-0.00045128,0.000734832,0.000647519,-0.000942706,0.58945,0.000923374,0.0348654,1896,1177,4.93932,-0.71243
679,-153,4.927,0.64563,-0.000400939,-0.000868605,0.00104705,0.000438066,-0.00170761,0.675538,0.00130909,0.0260883,1903,1177,4.927,-0.645601
686,-153,4.9563,0.720581,-0.000877785,-0.0012332,0.00125931,0.000216291,-0.00232728,0.715303,0.00162841,0.016375,1910,1177,4.95628,-0.720577
693,-153,4.9353,0.637207,-0.00138358,-0.00136011,0.00138817,1.63724e-05,-0.00276007,0.789625,0.00184553,0.0245334,1917,1177,4.93534,-0.637239
700,-153,5.08105,0.744995,-0.00163367,-0.00148347,0.00147341,-8.32474e-05,-0.00303389,0.810861,0.00199542,0.0445442,1924,1177,5.08112,-0.745033
707,-153,4.85925,0.934937,-0.00181,-0.00150281,0.00146234,-0.000186024,-0.00312678,0.837724,0.00202536,0.0304915,1931,1177,4.85927,-0.934993
714,-153,4.74829,0.896484,-0.00198597,-0.00144849,0.001342,-0.000348588,-0.00308588,0.884217,0.00195146,0.017059,1938,1177,4.74831,-0.89654
721,-153,4.75171,0.858643,-0.00196586,-0.00131886,0.00118938,-0.000409771,-0.00287495,0.91818,0.0017957,0.0162533,1945,1177,4.75173,-0.858637
728,-153,4.7179,0.838013,-0.00181871,-0.00115673,0.0010688,-0.000368841,-0.0026066,0.935558,0.00162877,0.0209014,1952,1177,4.71788,-0.837958
735,-153,4.70154,0.838135,-0.00160568,-0.0009308,0.000938473,-0.000270943,-0.00226553,0.957982,0.00142863,0.0166697,1959,1177,4.70155,-0.838173
742,-153,4.70801,0.823853,-0.00135527,-0.000683076,0.000783184,-0.000166917,-0.00187143,0.988084,0.00119587,0.0149886,1966,1177,4.70801,-0.823828
749,-153,4.70837,0.807861,-0.00147166,0.000617899,0.000918095,0.00096397,-0.00181773,1.21032,0.00163103,0.0155465,1973,1177,4.70842,-0.807868
756,-153,4.71582,0.785645,-0.00192478,0.00232127,0.00128347,0.00267907,-0.00228259,1.29892,0.00286766,0.0109975,1980,1177,4.71586,-0.785614
763,-153,4.70862,0.758667,-0.002653,0.00409472,0.00172788,0.00451144,-0.00306972,1.33414,0.00440329,0.0113026,1987,1177,4.70865,-0.758612
770,-153,4.71655,0.743164,-0.00420302,0.00711663,0.00259795,0.0076844,-0.00477079,1.35563,0.00725629,0.0107207,1994,1177,4.71657,-0.743149
777,-153,4.7063,0.753906,-0.00666305,0.0118889,0.0038829,0.0126688,-0.00744295,1.37258,0.0117414,0.0208917,2001,1177,4.70627,-0.753941
784,-153,4.66858,0.849243,-0.0102871,0.0191351,0.00569899,0.0202004,-0.0113525,1.386,0.0184543,0.0435705,2008,1177,4.66856,-0.84927
791,-153,4.62537,0.975952,0,0,0,0,0,0,0,-1,2015,1177,4.62535,-0.976009
798,-153,4.45715,-2.51819,0,0,0,0,0,0,0,-1,2022,1177,4.45721,2.51815
805,-153,3.65454,-2.25195,0,0,0,0,0,0,0,-1,2029,1177,3.6545,2.25193
812,-153,0,0,0,0,0,0,0,0,0,-1,2036,1177,0,0
-700,-160,0,0,0,0,0,0,0,0,0,-1,524,1184,0,0
-693,-160,0,0,0,0,0,0,0,0,0,-1,531,1184,0,0
-686,-160,-2.63971,2.1908,0,0,0,0,0,0,0,-1,538,1184,-2.6397,-2.19075
-679,-160,-2.60461,2.07361,0,0,0,0,0,0,0,-1,545,1184,-2.60464,-2.07367
-672,-160,-3.18835,2.93018,0,0,0,0,0,0,0,-1,552,1184,-3.18833,-2.93012
-665,-160,-0.347168,1.69775,0,0,0,0,0,0,0,-1,559,1184,-0.347175,-1.69778
-658,-160,-0.298279,-1.38562,0,0,0,0,0,0,0,-1,566,1184,-0.298295,1.38561
-651,-160,-0.819885,0.480957,0,0,0,0,0,0,0,-1,573,1184,-0.819899,-0.48099
-644,-160,-0.791138,0.572876,0.000917301,0.00320063,0.00845482,0.0105905,-0.00647259,0.852508,0.00994655,0.0363028,580,1184,-0.791157,-0.572882
-637,-160,-0.769165,0.662109,0.00197346,0.00279398,0.00798088,0.0103751,-0.0056077,0.811078,0.00936354,0.0136217,587,1184,-0.769146,-0.662162
-630,-160,-0.77478,0.677979,0.00279093,0.00254413,0.00746741,0.010136,-0.0048009,0.777136,0.00880525,0.00860362,594,1184,-0.774778,-0.677925
-623,-160,-0.786682,0.711304,0.00304875,0.00230667,0.00571458,0.00840432,-0.0030489,0.752979,0.00684925,0.00969241,601,1184,-0.786666,-0.711286
-616,-160,-0.780396,0.728638,0.00216977,0.0013158,0.00416771,0.00593231,-0.00244674,0.734351,0.00497521,0.00914743,608,1184,-0.780407,-0.728659
-609,-160,-0.781799,0.765137,0.00120711,0.000736008,0.00196566,0.00295129,-0.00100817,0.725766,0.00237598,0.012645,615,1184,-0.781776,-0.765119
-602,-160,-0.794922,0.803711,-0.000609595,0.00058596,-0.000528504,0.000786088,-0.000809723,-1.20881,0.000921376,0.0173504,622,1184,-0.79493,-0.803685
-595,-160,-0.737427,0.792236,-0.00109701,1.82086e-05,-0.00109914,0.00069309,-0.00177189,-1.02014,0.00146789,0.0178358,629,1184,-0.73744,-0.792273
-588,-160,-0.756653,0.84668,-0.000818588,-8.89682e-05,-0.00151523,0.00110475,-0.00201231,-0.903531,0.00182488,0.0166414,636,1184,-0.756656,-0.846706
-581,-160,-0.801086,0.86377,-0.000546878,-0.00010574,-0.00178284,0.00147013,-0.00212275,-0.846944,0.00208572,0.0146436,643,1184,-0.801116,-0.863736
-574,-160,-0.71759,0.729858,-0.000282762,-0.000400146,-0.00189035,0.00154981,-0.00223271,-0.769879,0.00219567,0.0370252,650,1184,-0.717571,-0.729906
-567,-160,-0.780823,0.5802,1.32307e-05,-0.000575824,-0.00192602,0.00166711,-0.00222971,-0.709526,0.00225763,0.0436677,657,1184,-0.780795,-0.580246
-560,-160,-0.92218,0.723389,0.000458805,-0.000747627,-0.0019198,0.00186793,-0.00215675,-0.633178,0.00232564,0.0386804,664,1184,-0.922185,-0.723329
-553,-160,-0.964905,0.849121,0.00116237,-0.00101449,-0.00177475,0.00215587,-0.00200799,-0.510332,0.00240451,0.0382728,671,1184,-0.964914,-0.849085
-546,-160,-0.882263,0.734985,0.00209867,-0.00138258,-0.00154171,0.00268327,-0.00196717,-0.362436,0.00269552,0.037097,678,1184,-0.882237,-0.734998
-539,-160,-0.665527,0.488647,0.00326434,-0.0018763,-0.00125949,0.00355634,-0.0021683,-0.227812,0.00333735,0.0408691,685,1184,-0.665549,-0.488625
-532,-160,-0.602783,0.421875,0.00461955,-0.00251717,-0.000990649,0.00475451,-0.00265213,-0.1354,0.00433327,0.0462241,692,1184,-0.602782,-0.421907
-525,-160,-0.411377,0.341064,0.00598753,-0.00335405,-0.000914889,0.00607628,-0.00344281,-0.0967129,0.00556551,0.0448297,699,1184,-0.411382,-0.34103
-518,-160,-0.512024,0.449707,0.00730852,-0.00431087,-0.00157067,0.00751709,-0.00451944,-0.13202,0.00702077,0.0424033,706,1184,-0.51204,-0.449738
-511,-160,0,0,0,0,0,0,0,0,0,-1,713,1184,0,0
-504,-160,0,0,0,0,0,0,0,0,0,-1,720,1184,0,0
-497,-160,0,0,0,0,0,0,0,0,0,-1,727,1184,0,0
-490,-160,0,0,0,0,0,0,0,0,0,-1,734,1184,0,0
-483,-160,0,0,0,0,0,0,0,0,0,-1,741,1184,0,0
-476,-160,0,0,0,0,0,0,0,0,0,-1,748,1184,0,0
-469,-160,0,0,0,0,0,0,0,0,0,-1,755,1184,0,0
-462,-160,0,0,0,0,0,0,0,0,0,-1,762,1184,0,0
-455,-160,0,0,0,0,0,0,0,0,0,-1,769,1184,0,0
-448,-160,0,0,0,0,0,0,0,0,0,-1,776,1184,0,0
-441,-160,0,0,0,0,0,0,0,0,0,-1,783,1184,0,0
-434,-160,0,0,0,0,0,0,0,0,0,-1,790,1184,0,0
-427,-160,0,0,0,0,0,0,0,0,0,-1,797,1184,0,0
-420,-160,0,0,0,0,0,0,0,0,0,-1,804,1184,0,0
-413,-160,0,0,0,0,0,0,0,0,0,-1,811,1184,0,0
-406,-160,0,0,0,0,0,0,0,0,0,-1,818,1184,0,0
-399,-160,0,0,0,0,0,0,0,0,0,-1,825,1184,0,0
-392,-160,0,0,0,0,0,0,0,0,0,-1,832,1184,0,0
-385,-160,0,0,0,0,0,0,0,0,0,-1,839,1184,0,0
-378,-160,0,0,0,0,0,0,0,0,0,-1,846,1184,0,0
-371,-160,0,0,0,0,0,0,0,0,0,-1,853,1184,0,0
-364,-160,0,0,0,0,0,0,0,0,0,-1,860,1184,0,0
-357,-160,0,0,0,0,0,0,0,0,0,-1,867,1184,0,0
-350,-160,0,0,0,0,0,0,0,0,0,-1,874,1184,0,0
-343,-160,0,0,0,0,0,0,0,0,0,-1,881,1184,0,0
-336,-160,0,0,0,0,0,0,0,0,0,-1,888,1184,0,0
-329,-160,0,0,0,0,0,0,0,0,0,-1,895,1184,0,0
-322,-160,0,0,0,0,0,0,0,0,0,-1,902,1184,0,0
-315,-160,0,0,0,0,0,0,0,0,0,-1,909,1184,0,0
-308,-160,0,0,0,0,0,0,0,0,0,-1,916,1184,0,0
-301,-160,0,0,0,0,0,0,0,0,0,-1,923,1184,0,0
-294,-160,0,0,0,0,0,0,0,0,0,-1,930,1184,0,0
-287,-160,0,0,0,0,0,0,0,0,0,-1,937,1184,0,0
-280,-160,0,0,0,0,0,0,0,0,0,-1,944,1184,0,0
-273,-160,0,0,0,0,0,0,0,0,0,-1,951,1184,0,0
-266,-160,0,0,0,0,0,0,0,0,0,-1,958,1184,0,0
-259,-160,0,0,0,0,0,0,0,0,0,-1,965,1184,0,0
-252,-160,0,0,0,0,0,0,0,0,0,-1,972,1184,0,0
-245,-160,0,0,0,0,0,0,0,0,0,-1,979,1184,0,0
-238,-160,0,0,0,0,0,0,0,0,0,-1,986,1184,0,0
-231,-160,0,0,0,0,0,0,0,0,0,-1,993,1184,0,0
-224,-160,0,0,0,0,0,0,0,0,0,-1,1000,1184,0,0
-217,-160,0,0,0,0,0,0,0,0,0,-1,1007,1184,0,0
-210,-160,0,0,0,0,0,0,0,0,0,-1,1014,1184,0,0
-203,-160,0,0,0,0,0,0,0,0,0,-1,1021,1184,0,0
-196,-160,0,0,0,0,0,0,0,0,0,-1,1028,1184,0,0
-189,-160,0,0,0,0,0,0,0,0,0,-1,1035,1184,0,0
-182,-160,0,0,0,0,0,0,0,0,0,-1,1042,1184,0,0
-175,-160,0,0,0,0,0,0,0,0,0,-1,1049,1184,0,0
-168,-160,0,0,0,0,0,0,0,0,0,-1,1056,1184,0,0
-161,-160,0,0,0,0,0,0,0,0,0,-1,1063,1184,0,0
-154,-160,0,0,0,0,0,0,0,0,0,-1,1070,1184,0,0
-147,-160,0,0,0,0,0,0,0,0,0,-1,1077,1184,0,0
-140,-160,0,0,0,0,0,0,0,0,0,-1,1084,1184,0,0
-133,-160,0,0,0,0,0,0,0,0,0,-1,1091,1184,0,0
-126,-160,0,0,0,0,0,0,0,0,0,-1,1098,1184,0,0
-119,-160,0,0,0,0,0,0,0,0,0,-1,1105,1184,0,0
-112,-160,0,0,0,0,0,0,0,0,0,-1,1112,1184,0,0
-105,-160,0,0,0,0,0,0,0,0,0,-1,1119,1184,0,0
-98,-160,0,0,0,0,0,0,0,0,0,-1,1126,1184,0,0
-91,-160,0,0,0,0,0,0,0,0,0,-1,1133,1184,0,0
-84,-160,0,0,0,0,0,0,0,0,0,-1,1140,1184,0,0
-77,-160,0,0,0,0,0,0,0,0,0,-1,1147,1184,0,0
-70,-160,0,0,0,0,0,0,0,0,0,-1,1154,1184,0,0
-63,-160,0,0,0,0,0,0,0,0,0,-1,1161,1184,0,0
-56,-160,0,0,0,0,0,0,0,0,0,-1,1168,1184,0,0
-49,-160,0,0,0,0,0,0,0,0,0,-1,1175,1184,0,0
-42,-160,0,0,0,0,0,0,0,0,0,-1,1182,1184,0,0
-35,-160,0,0,0,0,0,0,0,0,0,-1,1189,1184,0,0
-28,-160,0,0,0,0,0,0,0,0,0,-1,1196,1184,0,0
-21,-160,0,0,0,0,0,0,0,0,0,-1,1203,1184,0,0
-14,-160,0,0,0,0,0,0,0,0,0,-1,1210,1184,0,0
-7,-160,0,0,0,0,0,0,0,0,0,-1,1217,1184,0,0
0,-160,0,0,0,0,0,0,0,0,0,-1,1224,1184,0,0
7,-160,0,0,0,0,0,0,0,0,0,-1,1231,1184,0,0
14,-160,0,0,0,0,0,0,0,0,0,-1,1238,1184,0,0
21,-160,0,0,0,0,0,0,0,0,0,-1,1245,1184,0,0
28,-160,0,0,0,0,0,0,0,0,0,-1,1252,1184,0,0
35,-160,0,0,0,0,0,0,0,0,0,-1,1259,1184,0,0
42,-160,0,0,0,0,0,0,0,0,0,-1,1266,1184,0,0
49,-160,0,0,0,0,0,0,0,0,0,-1,1273,1184,0,0
56,-160,0,0,0,0,0,0,0,0,0,-1,1280,1184,0,0
63,-160,0,0,0,0,0,0,0,0,0,-1,1287,1184,0,0
70,-160,0,0,0,0,0,0,0,0,0,-1,1294,1184,0,0
77,-160,0,0,0,0,0,0,0,0,0,-1,1301,1184,0,0
84,-160,0,0,0,0,0,0,0,0,0,-1,1308,1184,0,0
91,-160,0,0,0,0,0,0,0,0,0,-1,1315,1184,0,0
98,-160,0,0,0,0,0,0,0,0,0,-1,1322,1184,0,0
105,-160,0,0,0,0,0,0,0,0,0,-1,1329,1184,0,0
112,-160,0,0,0,0,0,0,0,0,0,-1,1336,1184,0,0
119,-160,0,0,0,0,0,0,0,0,0,-1,1343,1184,0,0
126,-160,0,0,0,0,0,0,0,0,0,-1,1350,1184,0,0
133,-160,0,0,0,0,0,0,0,0,0,-1,1357,1184,0,0
140,-160,0,0,0,0,0,0,0,0,0,-1,1364,1184,0,0
147,-160,0,0,0,0,0,0,0,0,0,-1,1371,1184,0,0
154,-160,0,0,0,0,0,0,0,0,0,-1,1378,1184,0,0
161,-160,0,0,0,0,0,0,0,0,0,-1,1385,1184,0,0
168,-160,0,0,0,0,0,0,0,0,0,-1,1392,1184,0,0
175,-160,0,0,0,0,0,0,0,0,0,-1,1399,1184,0,0
182,-160,0,0,0,0,0,0,0,0,0,-1,1406,1184,0,0
189,-160,0,0,0,0,0,0,0,0,0,-1,1413,1184,0,0
196,-160,0,0,0,0,0,0,0,0,0,-1,1420,1184,0,0
203,-160,0,0,0,0,0,0,0,0,0,-1,1427,1184,0,0
210,-160,0,0,0,0,0,0,0,0,0,-1,1434,1184,0,0
217,-160,0,0,0,0,0,0,0,0,0,-1,1441,1184,0,0
224,-160,0,0,0,0,0,0,0,0,0,-1,1448,1184,0,0
231,-160,0,0,0,0,0,0,0,0,0,-1,1455,1184,0,0
238,-160,0,0,0,0,0,0,0,0,0,-1,1462,1184,0,0
245,-160,0,0,0,0,0,0,0,0,0,-1,1469,1184,0,0
252,-160,0,0,0,0,0,0,0,0,0,-1,1476,1184,0,0
259,-160,0,0,0,0,0,0,0,0,0,-1,1483,1184,0,0
266,-160,0,0,0,0,0,0,0,0,0,-1,1490,1184,0,0
273,-160,0,0,0,0,0,0,0,0,0,-1,1497,1184,0,0
280,-160,0,0,0,0,0,0,0,0,0,-1,1504,1184,0,0
287,-160,0,0,0,0,0,0,0,0,0,-1,1511,1184,0,0
294,-160,0,0,0,0,0,0,0,0,0,-1,1518,1184,0,0
301,-160,0,0,0,0,0,0,0,0,0,-1,1525,1184,0,0
308,-160,0,0,0,0,0,0,0,0,0,-1,1532,1184,0,0
315,-160,0,0,0,0,0,0,0,0,0,-1,1539,1184,0,0
322,-160,0,0,0,0,0,0,0,0,0,-1,1546,1184,0,0
329,-160,0,0,0,0,0,0,0,0,0,-1,1553,1184,0,0
336,-160,0,0,0,0,0,0,0,0,0,-1,1560,1184,0,0
343,-160,0,0,0,0,0,0,0,0,0,-1,1567,1184,0,0
350,-160,0,0,0,0,0,0,0,0,0,-1,1574,1184,0,0
357,-160,0,0,0,0,0,0,0,0,0,-1,1581,1184,0,0
364,-160,0,0,0,0,0,0,0,0,0,-1,1588,1184,0,0
371,-160,0,0,0,0,0,0,0,0,0,-1,1595,1184,0,0
378,-160,0,0,0,0,0,0,0,0,0,-1,1602,1184,0,0
385,-160,0,0,0,0,0,0,0,0,0,-1,1609,1184,0,0
392,-160,0,0,0,0,0,0,0,0,0,-1,1616,1184,0,0
399,-160,0,0,0,0,0,0,0,0,0,-1,1623,1184,0,0
406,-160,0,0,0,0,0,0,0,0,0,-1,1630,1184,0,0
413,-160,0,0,0,0,0,0,0,0,0,-1,1637,1184,0,0
420,-160,0,0,0,0,0,0,0,0,0,-1,1644,1184,0,0
427,-160,0,0,0,0,0,0,0,0,0,-1,1651,1184,0,0
434,-160,0,0,0,0,0,0,0,0,0,-1,1658,1184,0,0
441,-160,0,0,0,0,0,0,0,0,0,-1,1665,1184,0,0
448,-160,0,0,0,0,0,0,0,0,0,-1,1672,1184,0,0
455,-160,0,0,0,0,0,0,0,0,0,-1,1679,1184,0,0
462,-160,0,0,0,0,0,0,0,0,0,-1,1686,1184,0,0
469,-160,0,0,0,0,0,0,0,0,0,-1,1693,1184,0,0
476,-160,0,0,0,0,0,0,0,0,0,-1,1700,1184,0,0
483,-160,0,0,0,0,0,0,0,0,0,-1,1707,1184,0,0
490,-160,0,0,0,0,0,0,0,0,0,-1,1714,1184,0,0
497,-160,0,0,0,0,0,0,0,0,0,-1,1721,1184,0,0
504,-160,0,0,0,0,0,0,0,0,0,-1,1728,1184,0,0
511,-160,0,0,0,0,0,0,0,0,0,-1,1735,1184,0,0
518,-160,0,0,0,0,0,0,0,0,0,-1,1742,1184,0,0
525,-160,0,0,0,0,0,0,0,0,0,-1,1749,1184,0,0
532,-160,0,0,0,0,0,0,0,0,0,-1,1756,1184,0,0
539,-160,0,0,0,0,0,0,0,0,0,-1,1763,1184,0,0
546,-160,0,0,0,0,0,0,0,0,0,-1,1770,1184,0,0
553,-160,0,0,0,0,0,0,0,0,0,-1,1777,1184,0,0
560,-160,0,0,0,0,0,0,0,0,0,-1,1784,1184,0,0
567,-160,0,0,0,0,0,0,0,0,0,-1,1791,1184,0,0
574,-160,0,0,0,0,0,0,0,0,0,-1,1798,1184,0,0
581,-160,0,0,0,0,0,0,0,0,0,-1,1805,1184,0,0
588,-160,0,0,0,0,0,0,0,0,0,-1,1812,1184,0,0
595,-160,0,0,0,0,0,0,0,0,0,-1,1819,1184,0,0
602,-160,0,0,0,0,0,0,0,0,0,-1,1826,1184,0,0
609,-160,0,0,0,0,0,0,0,0,0,-1,1833,1184,0,0
616,-160,0,0,0,0,0,0,0,0,0,-1,1840,1184,0,0
623,-160,0,0,0,0,0,0,0,0,0,-1,1847,1184,0,0
630,-160,0,0,0,0,0,0,0,0,0,-1,1854,1184,0,0
637,-160,4.71631,0.653076,0.00196529,0.00185221,-0.00125173,0.00316175,0.000655744,-0.762828,0.00192681,0.0431212,1861,1184,4.71632,-0.653092
644,-160,4.8999,0.675659,0.00157231,0.00169928,-0.000984976,0.00262281,0.000648775,-0.817583,0.0015774,0.0425586,1868,1184,4.89993,-0.675602
651,-160,4.84558,0.587158,0.00144442,0.000995362,-0.00069224,0.00194763,0.000492148,-0.628576,0.00116942,0.0409535,1875,1184,4.8456,-0.58716
658,-160,4.95544,0.551025,0.00106549,0.000260791,-0.000209784,0.0011169,0.000209385,-0.240309,0.000685547,0.0412945,1882,1184,4.95546,-0.551074
665,-160,4.97998,0.623779,0.00050343,-0.00039338,0.000245457,0.000566216,-0.000456166,0.250422,0.000591411,0.0371338,1889,1184,4.97998,-0.623735
672,-160,4.94202,0.629395,-5.38295e-05,-0.000937226,0.0006364,0.000279135,-0.00127019,0.482035,0.000953556,0.0320592,1896,1184,4.94204,-0.629448
679,-160,4.9469,0.651978,-0.000568148,-0.00138021,0.000939688,4.94791e-05,-0.00199784,0.581467,0.00134869,0.0241351,1903,1184,4.94694,-0.651967
686,-160,4.97705,0.717041,-0.000979802,-0.00173306,0.00114159,-0.000154316,-0.00255855,0.626062,0.00165666,0.0141032,1910,1184,4.97704,-0.717002
693,-160,4.91919,0.661377,-0.00143796,-0.00181841,0.00127414,-0.000339926,-0.00291645,0.711297,0.00184148,0.0363594,1917,1184,4.91923,-0.661363
700,-160,4.90381,0.847046,-0.00164279,-0.00187516,0.00135616,-0.000397842,-0.0031201,0.742666,0.00196095,0.0388469,1924,1184,4.90383,-0.847043
707,-160,4.74939,0.952515,-0.00177023,-0.00182541,0.00134986,-0.000447683,-0.00314796,0.77518,0.00196647,0.0325927,1931,1184,4.74936,-0.952509
714,-160,4.71814,0.916138,-0.0019053,-0.00168841,0.00123649,-0.00055562,-0.00303809,0.829137,0.00186793,0.0219063,1938,1184,4.71816,-0.916108
721,-160,4.74121,0.858765,-0.00184192,-0.00148266,0.00109492,-0.000552732,-0.00277184,0.866702,0.00169398,0.0112744,1945,1184,4.74126,-0.8588
728,-160,4.70325,0.846802,-0.00165752,-0.0012488,0.000984822,-0.000447361,-0.00245896,0.887701,0.00151241,0.0106822,1952,1184,4.70323,-0.846781
735,-160,4.69214,0.848511,-0.00143774,-0.000863061,0.000867986,-0.00023609,-0.00206471,0.945241,0.00130492,0.013798,1959,1184,4.69209,-0.848477
742,-160,4.70081,0.806519,-0.00117798,-0.000483429,0.000735633,-1.72217e-05,-0.00164419,1.00593,0.00109043,0.0162287,1966,1184,4.70076,-0.806478
749,-160,4.70264,0.785156,-0.0012461,0.000804757,0.000880251,0.00113075,-0.0015721,1.21611,0.00156741,0.0173409,1973,1184,4.70261,-0.785106
756,-160,4.70227,0.781372,-0.00159286,0.00251086,0.00126699,0.00287051,-0.00195251,1.29421,0.00280134,0.011343,1980,1184,4.70224,-0.781369
763,-160,4.70361,0.759766,-0.0022178,0.00445029,0.00181753,0.00491351,-0.00268103,1.32124,0.00444741,0.0119626,1987,1184,4.70357,-0.759795
770,-160,4.69336,0.757568,-0.00361057,0.00766838,0.00276749,0.00831084,-0.00425303,1.34269,0.00737878,0.0181869,1994,1184,4.69341,-0.757525
777,-160,4.65601,0.763184,-0.00587624,0.0128108,0.00419316,0.0137086,-0.006774,1.35988,0.0120494,0.0327819,2001,1184,4.65603,-0.763132
784,-160,4.5365,0.75415,0,0,0,0,0,0,0,-1,2008,1184,4.53655,-0.754191
791,-160,4.27844,0.66272,0,0,0,0,0,0,0,-1,2015,1184,4.2784,-0.662767
798,-160,4.36389,-3.43237,0,0,0,0,0,0,0,-1,2022,1184,4.3639,3.43233
805,-160,4.55408,-0.0548096,0,0,0,0,0,0,0,-1,2029,1184,4.55407,0.0547905
812,-160,0,0,0,0,0,0,0,0,0,-1,2036,1184,0,0
-700,-167,0,0,0,0,0,0,0,0,0,-1,524,1191,0,0
-693,-167,0,0,0,0,0,0,0,0,0,-1,531,1191,0,0
-686,-167,-2.27698,2.57935,-0.0592969,-0.00446455,-0.0104196,-0.0025513,-0.0612101,-1.3892,0.0399835,0.0440052,538,1191,-2.27697,-2.5794
-679,-167,-2.31934,2.59961,-0.0426886,-0.000655839,-0.000719509,-0.000643527,-0.0427009,-1.55369,0.0282552,0.0452415,545,1191,-2.31933,-2.59957
-672,-167,-2.95526,2.72156,-0.0303729,0.0017975,0.00554488,0.00272639,-0.0313018,1.40481,0.0218335,0.0481758,552,1191,-2.95526,-2.72157
-665,-167,-3.66217,2.68896,0,0,0,0,0,0,0,-1,559,1191,-3.66215,-2.68895
-658,-167,-0.414551,-0.946899,-0.014084,0.00420983,0.0114632,0.00972818,-0.0196024,1.12214,0.0172509,0.0474973,566,1191,-0.41458,0.946947
-651,-167,-0.454651,-0.0742188,-0.00896486,0.00450681,0.0119751,0.0115105,-0.0159686,1.04159,0.0159345,0.0479894,573,1191,-0.454659,0.0741935
-644,-167,-0.673157,0.478638,-0.00534601,0.00435115,0.0113077,0.0118059,-0.0128008,0.987935,0.0142106,0.0373758,580,1191,-0.673155,-0.478674
-637,-167,-0.765869,0.66272,-0.00283503,0.00390129,0.0100614,0.0111434,-0.0100771,0.946915,0.0122568,0.0147824,587,1191,-0.765888,-0.662756
-630,-167,-0.761292,0.668579,-0.000732582,0.00369828,0.00901265,0.0107638,-0.0077981,0.905916,0.0107622,0.00799103,594,1191,-0.761265,-0.66862
-623,-167,-0.759644,0.689697,0.00100717,0.00312618,0.00674853,0.00889787,-0.00476452,0.863262,0.00800741,0.00917809,601,1191,-0.759653,-0.689667
-616,-167,-0.77301,0.724854,0.0011755,0.00181347,0.00478919,0.00629428,-0.00330532,0.818652,0.00563117,0.0127693,608,1191,-0.773004,-0.724793
-609,-167,-0.771667,0.755615,0.000662095,0.00101363,0.00237076,0.00321513,-0.00153941,0.8224,0.00280129,0.0132723,615,1191,-0.771657,-0.755624
-602,-167,-0.77771,0.751709,-0.00103782,0.00069709,-0.000389506,0.000780526,-0.00112126,-1.35978,0.00110385,0.0133652,622,1191,-0.777702,-0.75174
-595,-167,-0.756409,0.784912,-0.00141243,-3.16077e-06,-0.00104212,0.000550184,-0.00196578,-1.08267,0.00152731,0.0172103,629,1191,-0.756411,-0.784958
-588,-167,-0.754761,0.838501,-0.00108096,-0.000199006,-0.00151498,0.00093787,-0.00221784,-0.927024,0.00187124,0.0145905,636,1191,-0.754771,-0.838502
-581,-167,-0.761658,0.860229,-0.00087724,-0.000296824,-0.00175719,0.00119396,-0.00236803,-0.867236,0.00209342,0.0132109,643,1191,-0.761637,-0.860267
-574,-167,-0.676697,0.735596,-0.000689379,-0.000642765,-0.00184337,0.00117745,-0.00250959,-0.79172,0.00217454,0.0308025,650,1191,-0.676724,-0.735555
-567,-167,-0.722717,0.522461,-0.00045251,-0.000881502,-0.00187004,0.00121529,-0.0025493,-0.728297,0.00221851,0.0395535,657,1191,-0.722723,-0.522508
-560,-167,-0.831543,0.603394,-6.87923e-05,-0.00112709,-0.00184777,0.0013241,-0.00251999,-0.645944,0.0022549,0.0382961,664,1191,-0.831533,-0.603399
-553,-167,-0.928833,0.799316,0.000592449,-0.00145906,-0.00166534,0.00152259,-0.0023892,-0.509368,0.00227687,0.0387973,671,1191,-0.928831,-0.799263
-546,-167,-0.942932,0.783691,0.00152661,-0.00186959,-0.00141014,0.00203578,-0.00237876,-0.34651,0.0025513,0.0349633,678,1191,-0.942937,-0.78375
-539,-167,-0.960144,0.801514,0.00272723,-0.002363,-0.00111517,0.00296083,-0.0025966,-0.206483,0.00321088,0.0398914,685,1191,-0.960171,-0.801468
-532,-167,-0.764282,0.556763,0.00416344,-0.00293972,-0.000839131,0.00426122,-0.00303751,-0.116007,0.00423362,0.0455864,692,1191,-0.764287,-0.556793
-525,-167,-0.671631,0.485962,0.00567727,-0.0036073,-0.000749624,0.0057374,-0.00366744,-0.0800477,0.00547355,0.0439021,699,1191,-0.671637,-0.485981
-518,-167,-0.618347,0.484741,0.00724135,-0.00430901,-0.00130686,0.00738736,-0.00445503,-0.111271,0.00690672,0.0410826,706,1191,-0.618373,-0.484695
-511,-167,0,0,0,0,0,0,0,0,0,-1,713,1191,0,0
-504,-167,0,0,0,0,0,0,0,0,0,-1,720,1191,0,0
-497,-167,0,0,0,0,0,0,0,0,0,-1,727,1191,0,0
-490,-167,0,0,0,0,0,0,0,0,0,-1,734,1191,0,0
-483,-167,0,0,0,0,0,0,0,0,0,-1,741,1191,0,0
-476,-167,0,0,0,0,0,0,0,0,0,-1,748,1191,0,0
-469,-167,0,0,0,0,0,0,0,0,0,-1,755,1191,0,0
-462,-167,0,0,0,0,0,0,0,0,0,-1,762,1191,0,0
-455,-167,0,0,0,0,0,0,0,0,0,-1,769,1191,0,0
-448,-167,0,0,0,0,0,0,0,0,0,-1,776,1191,0,0
-441,-167,0,0,0,0,0,0,0,0,0,-1,783,1191,0,0
-434,-167,0,0,0,0,0,0,0,0,0,-1,790,1191,0,0
-427,-167,0,0,0,0,0,0,0,0,0,-1,797,1191,0,0
-420,-167,0,0,0,0,0,0,0,0,0,-1,804,1191,0,0
-413,-167,0,0,0,0,0,0,0,0,0,-1,811,1191,0,0
-406,-167,0,0,0,0,0,0,0,0,0,-1,818,1191,0,0
-399,-167,0,0,0,0,0,0,0,0,0,-1,825,1191,0,0
-392,-167,0,0,0,0,0,0,0,0,0,-1,832,1191,0,0
-385,-167,0,0,0,0,0,0,0,0,0,-1,839,1191,0,0
-378,-167,0,0,0,0,0,0,0,0,0,-1,846,1191,0,0
-371,-167,0,0,0,0,0,0,0,0,0,-1,853,1191,0,0
-364,-167,0,0,0,0,0,0,0,0,0,-1,860,1191,0,0
-357,-167,0,0,0,0,0,0,0,0,0,-1,867,1191,0,0
-350,-167,0,0,0,0,0,0,0,0,0,-1,874,1191,0,0
-343,-167,0,0,0,0,0,0,0,0,0,-1,881,1191,0,0
-336,-167,0,0,0,0,0,0,0,0,0,-1,888,1191,0,0
-329,-167,0,0,0,0,0,0,0,0,0,-1,895,1191,0,0
-322,-167,0,0,0,0,0,0,0,0,0,-1,902,1191,0,0
-315,-167,0,0,0,0,0,0,0,0,0,-1,909,1191,0,0
-308,-167,0,0,0,0,0,0,0,0,0,-1,916,1191,0,0
-301,-167,0,0,0,0,0,0,0,0,0,-1,923,1191,0,0
-294,-167,0,0,0,0,0,0,0,0,0,-1,930,1191,0,0
-287,-167,0,0,0,0,0,0,0,0,0,-1,937,1191,0,0
-280,-167,0,0,0,0,0,0,0,0,0,-1,944,1191,0,0
-273,-167,0,0,0,0,0,0,0,0,0,-1,951,1191,0,0
-266,-167,0,0,0,0,0,0,0,0,0,-1,958,1191,0,0
-259,-167,0,0,0,0,0,0,0,0,0,-1,965,1191,0,0
-252,-167,0,0,0,0,0,0,0,0,0,-1,972,1191,0,0
-245,-167,0,0,0,0,0,0,0,0,0,-1,979,1191,0,0
-238,-167,0,0,0,0,0,0,0,0,0,-1,986,1191,0,0
-231,-167,0,0,0,0,0,0,0,0,0,-1,993,1191,0,0
-224,-167,0,0,0,0,0,0,0,0,0,-1,1000,1191,0,0
-217,-167,0,0,0,0,0,0,0,0,0,-1,1007,1191,0,0
-210,-167,0,0,0,0,0,0,0,0,0,-1,1014,1191,0,0
-203,-167,0,0,0,0,0,0,0,0,0,-1,1021,1191,0,0
-196,-167,0,0,0,0,0,0,0,0,0,-1,1028,1191,0,0
-189,-167,0,0,0,0,0,0,0,0,0,-1,1035,1191,0,0
-182,-167,0,0,0,0,0,0,0,0,0,-1,1042,1191,0,0
-175,-167,0,0,0,0,0,0,0,0,0,-1,1049,1191,0,0
-168,-167,0,0,0,0,0,0,0,0,0,-1,1056,1191,0,0
-161,-167,0,0,0,0,0,0,0,0,0,-1,1063,1191,0,0
-154,-167,0,0,0,0,0,0,0,0,0,-1,1070,1191,0,0
-147,-167,0,0,0,0,0,0,0,0,0,-1,1077,1191,0,0
-140,-167,0,0,0,0,0,0,0,0,0,-1,1084,1191,0,0
-133,-167,0,0,0,0,0,0,0,0,0,-1,1091,1191,0,0
-126,-167,0,0,0,0,0,0,0,0,0,-1,1098,1191,0,0
-119,-167,0,0,0,0,0,0,0,0,0,-1,1105,1191,0,0
-112,-167,0,0,0,0,0,0,0,0,0,-1,1112,1191,0,0
-105,-167,0,0,0,0,0,0,0,0,0,-1,1119,1191,0,0
-98,-167,0,0,0,0,0,0,0,0,0,-1,1126,1191,0,0
-91,-167,0,0,0,0,0,0,0,0,0,-1,1133,1191,0,0
-84,-167,0,0,0,0,0,0,0,0,0,-1,1140,1191,0,0
-77,-167,0,0,0,0,0,0,0,0,0,-1,1147,1191,0,0
-70,-167,0,0,0,0,0,0,0,0,0,-1,1154,1191,0,0
-63,-167,0,0,0,0,0,0,0,0,0,-1,1161,1191,0,0
-56,-167,0,0,0,0,0,0,0,0,0,-1,1168,1191,0,0
-49,-167,0,0,0,0,0,0,0,0,0,-1,1175,1191,0,0
-42,-167,0,0,0,0,0,0,0,0,0,-1,1182,1191,0,0
-35,-167,0,0,0,0,0,0,0,0,0,-1,1189,1191,0,0
-28,-167,0,0,0,0,0,0,0,0,0,-1,1196,1191,0,0
-21,-167,0,0,0,0,0,0,0,0,0,-1,1203,1191,0,0
-14,-167,0,0,0,0,0,0,0,0,0,-1,1210,1191,0,0
-7,-167,0,0,0,0,0,0,0,0,0,-1,1217,1191,0,0
0,-167,0,0,0,0,0,0,0,0,0,-1,1224,1191,0,0
7,-167,0,0,0,0,0,0,0,0,0,-1,1231,1191,0,0
14,-167,0,0,0,0,0,0,0,0,0,-1,1238,1191,0,0
21,-167,0,0,0,0,0,0,0,0,0,-1,1245,1191,0,0
28,-167,0,0,0,0,0,0,0,0,0,-1,1252,1191,0,0
35,-167,0,0,0,0,0,0,0,0,0,-1,1259,1191,0,0
42,-167,0,0,0,0,0,0,0,0,0,-1,1266,1191,0,0
49,-167,0,0,0,0,0,0,0,0,0,-1,1273,1191,0,0
56,-167,0,0,0,0,0,0,0,0,0,-1,1280,1191,0,0
63,-167,0,0,0,0,0,0,0,0,0,-1,1287,1191,0,0
70,-167,0,0,0,0,0,0,0,0,0,-1,1294,1191,0,0
77,-167,0,0,0,0,0,0,0,0,0,-1,1301,1191,0,0
84,-167,0,0,0,0,0,0,0,0,0,-1,1308,1191,0,0
91,-167,0,0,0,0,0,0,0,0,0,-1,1315,1191,0,0
98,-167,0,0,0,0,0,0,0,0,0,-1,1322,1191,0,0
105,-167,0,0,0,0,0,0,0,0,0,-1,1329,1191,0,0
112,-167,0,0,0,0,0,0,0,0,0,-1,1336,1191,0,0
119,-167,0,0,0,0,0,0,0,0,0,-1,1343,1191,0,0
126,-167,0,0,0,0,0,0,0,0,0,-1,1350,1191,0,0
133,-167,0,0,0,0,0,0,0,0,0,-1,1357,1191,0,0
140,-167,0,0,0,0,0,0,0,0,0,-1,1364,1191,0,0
147,-167,0,0,0,0,0,0,0,0,0,-1,1371,1191,0,0
154,-167,0,0,0,0,0,0,0,0,0,-1,1378,1191,0,0
161,-167,0,0,0,0,0,0,0,0,0,-1,1385,1191,0,0
168,-167,0,0,0,0,0,0,0,0,0,-1,1392,1191,0,0
175,-167,0,0,0,0,0,0,0,0,0,-1,1399,1191,0,0
182,-167,0,0,0,0,0,0,0,0,0,-1,1406,1191,0,0
189,-167,0,0,0,0,0,0,0,0,0,-1,1413,1191,0,0
196,-167,0,0,0,0,0,0,0,0,0,-1,1420,1191,0,0
203,-167,0,0,0,0,0,0,0,0,0,-1,1427,1191,0,0
210,-167,0,0,0,0,0,0,0,0,0,-1,1434,1191,0,0
217,-167,0,0,0,0,0,0,0,0,0,-1,1441,1191,0,0
224,-167,0,0,0,0,0,0,0,0,0,-1,1448,1191,0,0
231,-167,0,0,0,0,0,0,0,0,0,-1,1455,1191,0,0
238,-167,0,0,0,0,0,0,0,0,0,-1,1462,1191,0,0
245,-167,0,0,0,0,0,0,0,0,0,-1,1469,1191,0,0
252,-167,0,0,0,0,0,0,0,0,0,-1,1476,1191,0,0
259,-167,0,0,0,0,0,0,0,0,0,-1,1483,1191,0,0
266,-167,0,0,0,0,0,0,0,0,0,-1,1490,1191,0,0
273,-167,0,0,0,0,0,0,0,0,0,-1,1497,1191,0,0
280,-167,0,0,0,0,0,0,0,0,0,-1,1504,1191,0,0
287,-167,0,0,0,0,0,0,0,0,0,-1,1511,1191,0,0
294,-167,0,0,0,0,0,0,0,0,0,-1,1518,1191,0,0
301,-167,0,0,0,0,0,0,0,0,0,-1,1525,1191,0,0
308,-167,0,0,0,0,0,0,0,0,0,-1,1532,1191,0,0
315,-167,0,0,0,0,0,0,0,0,0,-1,1539,1191,0,0
322,-167,0,0,0,0,0,0,0,0,0,-1,1546,1191,0,0
329,-167,0,0,0,0,0,0,0,0,0,-1,1553,1191,0,0
336,-167,0,0,0,0,0,0,0,0,0,-1,1560,1191,0,0
343,-167,0,0,0,0,0,0,0,0,0,-1,1567,1191,0,0
350,-167,0,0,0,0,0,0,0,0,0,-1,1574,1191,0,0
357,-167,0,0,0,0,0,0,0,0,0,-1,1581,1191,0,0
364,-167,0,0,0,0,0,0,0,0,0,-1,1588,1191,0,0
371,-167,0,0,0,0,0,0,0,0,0,-1,1595,1191,0,0
378,-167,0,0,0,0,0,0,0,0,0,-1,1602,1191,0,0
385,-167,0,0,0,0,0,0,0,0,0,-1,1609,1191,0,0
392,-167,0,0,0,0,0,0,0,0,0,-1,1616,1191,0,0
399,-167,0,0,0,0,0,0,0,0,0,-1,1623,1191,0,0
406,-167,0,0,0,0,0,0,0,0,0,-1,1630,1191,0,0
413,-167,0,0,0,0,0,0,0,0,0,-1,1637,1191,0,0
420,-167,0,0,0,0,0,0,0,0,0,-1,1644,1191,0,0
427,-167,0,0,0,0,0,0,0,0,0,-1,1651,1191,0,0
434,-167,0,0,0,0,0,0,0,0,0,-1,1658,1191,0,0
441,-167,0,0,0,0,0,0,0,0,0,-1,1665,1191,0,0
448,-167,0,0,0,0,0,0,0,0,0,-1,1672,1191,0,0
455,-167,0,0,0,0,0,0,0,0,0,-1,1679,1191,0,0
462,-167,0,0,0,0,0,0,0,0,0,-1,1686,1191,0,0
469,-167,0,0,0,0,0,0,0,0,0,-1,1693,1191,0,0
476,-167,0,0,0,0,0,0,0,0,0,-1,1700,1191,0,0
483,-167,0,0,0,0,0,0,0,0,0,-1,1707,1191,0,0
490,-167,0,0,0,0,0,0,0,0,0,-1,1714,1191,0,0
497,-167,0,0,0,0,0,0,0,0,0,-1,1721,1191,0,0
504,-167,0,0,0,0,0,0,0,0,0,-1,1728,1191,0,0
511,-167,0,0,0,0,0,0,0,0,0,-1,1735,1191,0,0
518,-167,0,0,0,0,0,0,0,0,0,-1,1742,1191,0,0
525,-167,0,0,0,0,0,0,0,0,0,-1,1749,1191,0,0
532,-167,0,0,0,0,0,0,0,0,0,-1,1756,1191,0,0
539,-167,0,0,0,0,0,0,0,0,0,-1,1763,1191,0,0
546,-167,0,0,0,0,0,0,0,0,0,-1,1770,1191,0,0
553,-167,0,0,0,0,0,0,0,0,0,-1,1777,1191,0,0
560,-167,0,0,0,0,0,0,0,0,0,-1,1784,1191,0,0
567,-167,0,0,0,0,0,0,0,0,0,-1,1791,1191,0,0
574,-167,0,0,0,0,0,0,0,0,0,-1,1798,1191,0,0
581,-167,0,0,0,0,0,0,0,0,0,-1,1805,1191,0,0
588,-167,0,0,0,0,0,0,0,0,0,-1,1812,1191,0,0
595,-167,0,0,0,0,0,0,0,0,0,-1,1819,1191,0,0
602,-167,0,0,0,0,0,0,0,0,0,-1,1826,1191,0,0
609,-167,0,0,0,0,0,0,0,0,0,-1,1833,1191,0,0
616,-167,0,0,0,0,0,0,0,0,0,-1,1840,1191,0,0
623,-167,0,0,0,0,0,0,0,0,0,-1,1847,1191,0,0
630,-167,0,0,0,0,0,0,0,0,0,-1,1854,1191,0,0
637,-167,4.93884,0.736328,0.00278355,0.00224929,-0.000834711,0.00339283,0.00164,-0.630536,0.00195921,0.043241,1861,1191,4.93888,-0.736378
644,-167,5.04016,0.746094,0.00197725,0.00152202,-0.000832376,0.00261257,0.000886697,-0.651932,0.00153409,0.0458489,1868,1191,5.04016,-0.746091
651,-167,4.86877,0.63147,0.00141837,0.000447839,-0.000716771,0.00179869,6.75152e-05,-0.487832,0.00117727,0.046481,1875,1191,4.86877,-0.631485
658,-167,4.97925,0.519897,0.000713285,-0.000480479,-0.000401391,0.000835696,-0.000602891,-0.296008,0.000834186,0.0445164,1882,1191,4.97925,-0.519861
665,-167,5.0387,0.633301,-2.10073e-05,-0.00121706,-7.74482e-05,-1.60131e-05,-0.00122206,-0.0643946,0.000809419,0.038541,1889,1191,5.03869,-0.633343
672,-167,4.96545,0.630737,-0.000652714,-0.00176506,0.000229927,-0.00060706,-0.00181072,0.196006,0.00106416,0.0285409,1896,1191,4.96547,-0.630703
679,-167,4.95825,0.645142,-0.00116869,-0.00216766,0.000479515,-0.000975769,-0.00236057,0.382501,0.00136968,0.0205873,1903,1191,4.95822,-0.645127
686,-167,4.96387,0.734253,-0.00152649,-0.00244991,0.000660631,-0.00118222,-0.00279418,0.480407,0.00161957,0.0253263,1910,1191,4.96388,-0.734196
693,-167,4.99976,0.849609,-0.00191502,-0.00243937,0.000817142,-0.00131902,-0.00303536,0.630164,0.00175746,0.046671,1917,1191,4.99976,-0.849561
700,-167,4.82434,0.924072,-0.00203276,-0.00237273,0.000936795,-0.00125066,-0.00315484,0.695648,0.00183443,0.040267,1924,1191,4.82433,-0.924083
707,-167,4.68042,0.911987,-0.00205466,-0.0021953,0.000982807,-0.00113966,-0.0031103,0.749684,0.00181697,0.0310791,1931,1191,4.68039,-0.912045
714,-167,4.69836,0.884155,-0.00208289,-0.00192834,0.000932939,-0.00106948,-0.00294175,0.826719,0.00171937,0.0177343,1938,1191,4.69832,-0.884158
721,-167,4.71228,0.857422,-0.00191379,-0.00159539,0.000856862,-0.000883066,-0.00262612,0.877247,0.00154305,0.0139839,1945,1191,4.71222,-0.857407
728,-167,4.69312,0.859863,-0.00163905,-0.00129309,0.000799986,-0.000647593,-0.00228454,0.891873,0.00135958,0.0112319,1952,1191,4.69308,-0.859922
735,-167,4.68896,0.856812,-0.0013116,-0.000770363,0.00076831,-0.000226404,-0.00185555,0.954725,0.0011689,0.0134146,1959,1191,4.68893,-0.856841
742,-167,4.66406,0.828613,-0.000975843,-0.000283003,0.000681868,0.000135398,-0.00139424,1.02043,0.000977758,0.0144731,1966,1191,4.66401,-0.828559
749,-167,4.67944,0.789673,-0.000973669,0.000925301,0.000826076,0.00123436,-0.00128272,1.21279,0.00145333,0.0139662,1973,1191,4.67948,-0.789642
756,-167,4.67786,0.778198,-0.00121635,0.00255041,0.00121682,0.0029093,-0.00157524,1.28399,0.00262706,0.0109939,1980,1191,4.67787,-0.778168
763,-167,4.6582,0.749634,-0.00173965,0.00453387,0.00184577,0.00503663,-0.00224241,1.30486,0.00430453,0.0117828,1987,1191,4.65826,-0.749597
770,-167,4.64136,0.783813,-0.0029362,0.00778539,0.00285447,0.00849799,-0.0036488,1.32615,0.00719682,0.0226779,1994,1191,4.6414,-0.783843
777,-167,4.67554,0.836304,-0.00498849,0.0130803,0.00442058,0.0141038,-0.00601202,1.34327,0.011923,0.0408253,2001,1191,4.67553,-0.836252
784,-167,4.70178,0.892944,0,0,0,0,0,0,0,-1,2008,1191,4.70173,-0.892908
791,-167,4.49268,0.268188,0,0,0,0,0,0,0,-1,2015,1191,4.49272,-0.268139
798,-167,4.63293,0.043335,0,0,0,0,0,0,0,-1,2022,1191,4.63288,-0.0433823
805,-167,4.56555,-0.226929,0,0,0,0,0,0,0,-1,2029,1191,4.56553,0.226878
812,-167,0,0,0,0,0,0,0,0,0,-1,2036,1191,0,0
-700,-174,0,0,0,0,0,0,0,0,0,-1,524,1198,0,0
-693,-174,0,0,0,0,0,0,0,0,0,-1,531,1198,0,0
-686,-174,-1.89581,2.99512,-0.0794259,-0.00231005,-0.00628318,-0.00180147,-0.0799345,-1.49003,0.0526994,0.0419737,538,1198,-1.89584,-2.99511
-679,-174,-2.07178,2.81628,-0.0595119,0.00210616,0.0045611,0.00244195,-0.0598477,1.49731,0.0407369,0.0429301,545,1198,-2.07178,-2.81623
-672,-174,-2.42255,2.25256,-0.0445064,0.0045951,0.0109833,0.00693993,-0.0468513,1.36046,0.0337859,0.0448715,552,1198,-2.42254,-2.25262
-665,-174,-2.84601,1.48499,0,0,0,0,0,0,0,-1,559,1198,-2.84599,-1.48494
-658,-174,-3.93402,0.74292,-0.0239159,0.00636203,0.0159679,0.0132268,-0.0307806,1.16478,0.0260727,0.0458808,566,1198,-3.93401,-0.742881
-651,-174,-0.386719,0.180298,-0.0169767,0.00619632,0.0157634,0.0141734,-0.0249538,1.10232,0.0228741,0.0424496,573,1198,-0.386742,-0.180244
-644,-174,-0.307983,0.613281,-0.0116935,0.00557997,0.0143627,0.0137027,-0.0198162,1.0561,0.0194592,0.0390836,580,1198,-0.308013,-0.613255
-637,-174,-0.735596,0.628174,-0.00774382,0.00474554,0.0124176,0.0124003,-0.0153986,1.01838,0.0160808,0.021089,587,1198,-0.735603,-0.628168
-630,-174,-0.736877,0.669434,-0.00440683,0.00425034,0.0108135,0.0115695,-0.0117259,0.975778,0.0134497,0.0111522,594,1198,-0.736907,-0.669406
-623,-174,-0.733582,0.693726,-0.00133141,0.00339612,0.00797938,0.00935449,-0.00728978,0.929397,0.00963419,0.0126565,601,1198,-0.733576,-0.693683
-616,-174,-0.748474,0.729614,-9.29424e-05,0.00186083,0.0055254,0.00649503,-0.00472715,0.872893,0.00650587,0.018444,608,1198,-0.748448,-0.729606
-609,-174,-0.762939,0.745117,-2.22963e-05,0.000926964,0.00285536,0.00334687,-0.0024422,0.867757,0.0033559,0.0198026,615,1198,-0.76294,-0.74507
-602,-174,-0.756714,0.737427,-0.00145932,0.00046377,-0.000114245,0.000470533,-0.00146608,-1.51167,0.00116631,0.0131586,622,1198,-0.756693,-0.737454
-595,-174,-0.731262,0.781982,-0.00171217,-0.000288717,-0.000852463,0.000110074,-0.00211096,-1.13323,0.00144539,0.0116309,629,1198,-0.731258,-0.782006
-588,-174,-0.730286,0.826782,-0.00132369,-0.00038999,-0.00143577,0.000652919,-0.0023666,-0.942586,0.00183452,0.0109896,636,1198,-0.730272,-0.826811
-581,-174,-0.750183,0.835571,-0.00123477,-0.000569849,-0.00163172,0.00076293,-0.00256755,-0.885897,0.00201475,0.0121081,643,1198,-0.75019,-0.835594
-574,-174,-0.759705,0.74231,-0.0011674,-0.000975921,-0.00166782,0.000598902,-0.00274222,-0.814069,0.00205705,0.0282314,650,1198,-0.759683,-0.742301
-567,-174,-0.65863,0.54834,-0.00102055,-0.00129419,-0.00167,0.000518223,-0.00283296,-0.744526,0.00208298,0.0414656,657,1198,-0.658658,-0.548313
-560,-174,-0.633667,0.548218,-0.000721921,-0.00163677,-0.00163198,0.000515525,-0.00287421,-0.64876,0.00210909,0.0412871,664,1198,-0.633673,-0.548199
-553,-174,-0.808105,0.621704,-0.000122165,-0.00205125,-0.0014319,0.000639756,-0.00281317,-0.489001,0.00212111,0.0369188,671,1198,-0.808103,-0.621724
-546,-174,-0.886414,0.664795,0.000793724,-0.00252942,-0.00119215,0.00117715,-0.00291285,-0.311181,0.00243121,0.028759,678,1198,-0.886427,-0.664795
-539,-174,-0.899048,0.638916,0.00202234,-0.00305519,-0.000949431,0.00219407,-0.00322692,-0.178935,0.00314868,0.0343514,685,1198,-0.899031,-0.638911
-532,-174,-0.844849,0.655762,0.00354692,-0.00361232,-0.000765456,0.00362784,-0.00369325,-0.105332,0.00422689,0.044282,692,1198,-0.844834,-0.655818
-525,-174,-0.817505,0.701416,0.00522506,-0.00417907,-0.000791533,0.00529122,-0.00424522,-0.0833869,0.0055169,0.0421201,699,1198,-0.817528,-0.701433
-518,-174,-0.812744,0.668701,0.00706646,-0.00472102,-0.00141692,0.00723439,-0.00488895,-0.117967,0.00704294,0.040471,706,1198,-0.812746,-0.668661
-511,-174,0,0,0,0,0,0,0,0,0,-1,713,1198,0,0
-504,-174,0,0,0,0,0,0,0,0,0,-1,720,1198,0,0
-497,-174,0,0,0,0,0,0,0,0,0,-1,727,1198,0,0
-490,-174,0,0,0,0,0,0,0,0,0,-1,734,1198,0,0
-483,-174,0,0,0,0,0,0,0,0,0,-1,741,1198,0,0
-476,-174,0,0,0,0,0,0,0,0,0,-1,748,1198,0,0
-469,-174,0,0,0,0,0,0,0,0,0,-1,755,1198,0,0
-462,-174,0,0,0,0,0,0,0,0,0,-1,762,1198,0,0
-455,-174,0,0,0,0,0,0,0,0,0,-1,769,1198,0,0
-448,-174,0,0,0,0,0,0,0,0,0,-1,776,1198,0,0
-441,-174,0,0,0,0,0,0,0,0,0,-1,783,1198,0,0
-434,-174,0,0,0,0,0,0,0,0,0,-1,790,1198,0,0
-427,-174,0,0,0,0,0,0,0,0,0,-1,797,1198,0,0
-420,-174,0,0,0,0,0,0,0,0,0,-1,804,1198,0,0
-413,-174,0,0,0,0,0,0,0,0,0,-1,811,1198,0,0
-406,-174,0,0,0,0,0,0,0,0,0,-1,818,1198,0,0
-399,-174,0,0,0,0,0,0,0,0,0,-1,825,1198,0,0
-392,-174,0,0,0,0,0,0,0,0,0,-1,832,1198,0,0
-385,-174,0,0,0,0,0,0,0,0,0,-1,839,1198,0,0
-378,-174,0,0,0,0,0,0,0,0,0,-1,846,1198,0,0
-371,-174,0,0,0,0,0,0,0,0,0,-1,853,1198,0,0
-364,-174,0,0,0,0,0,0,0,0,0,-1,860,1198,0,0
-357,-174,0,0,0,0,0,0,0,0,0,-1,867,1198,0,0
-350,-174,0,0,0,0,0,0,0,0,0,-1,874,1198,0,0
-343,-174,0,0,0,0,0,0,0,0,0,-1,881,1198,0,0
-336,-174,0,0,0,0,0,0,0,0,0,-1,888,1198,0,0
-329,-174,0,0,0,0,0,0,0,0,0,-1,895,1198,0,0
-322,-174,0,0,0,0,0,0,0,0,0,-1,902,1198,0,0
-315,-174,0,0,0,0,0,0,0,0,0,-1,909,1198,0,0
-308,-174,0,0,0,0,0,0,0,0,0,-1,916,1198,0,0
-301,-174,0,0,0,0,0,0,0,0,0,-1,923,1198,0,0
-294,-174,0,0,0,0,0,0,0,0,0,-1,930,1198,0,0
-287,-174,0,0,0,0,0,0,0,0,0,-1,937,1198,0,0
-280,-174,0,0,0,0,0,0,0,0,0,-1,944,1198,0,0
-273,-174,0,0,0,0,0,0,0,0,0,-1,951,1198,0,0
-266,-174,0,0,0,0,0,0,0,0,0,-1,958,1198,0,0
-259,-174,0,0,0,0,0,0,0,0,0,-1,965,1198,0,0
-252,-174,0,0,0,0,0,0,0,0,0,-1,972,1198,0,0
-245,-174,0,0,0,0,0,0,0,0,0,-1,979,1198,0,0
-238,-174,0,0,0,0,0,0,0,0,0,-1,986,1198,0,0
-231,-174,0,0,0,0,0,0,0,0,0,-1,993,1198,0,0
-224,-174,0,0,0,0,0,0,0,0,0,-1,1000,1198,0,0
-217,-174,0,0,0,0,0,0,0,0,0,-1,1007,1198,0,0
-210,-174,0,0,0,0,0,0,0,0,0,-1,1014,1198,0,0
-203,-174,0,0,0,0,0,0,0,0,0,-1,1021,1198,0,0
-196,-174,0,0,0,0,0,0,0,0,0,-1,1028,1198,0,0
-189,-174,0,0,0,0,0,0,0,0,0,-1,1035,1198,0,0
-182,-174,0,0,0,0,0,0,0,0,0,-1,1042,1198,0,0
-175,-174,0,0,0,0,0,0,0,0,0,-1,1049,1198,0,0
-168,-174,0,0,0,0,0,0,0,0,0,-1,1056,1198,0,0
-161,-174,0,0,0,0,0,0,0,0,0,-1,1063,1198,0,0
-154,-174,0,0,0,0,0,0,0,0,0,-1,1070,1198,0,0
-147,-174,0,0,0,0,0,0,0,0,0,-1,1077,1198,0,0
-140,-174,0,0,0,0,0,0,0,0,0,-1,1084,1198,0,0
-133,-174,0,0,0,0,0,0,0,0,0,-1,1091,1198,0,0
-126,-174,0,0,0,0,0,0,0,0,0,-1,1098,1198,0,0
-119,-174,0,0,0,0,0,0,0,0,0,-1,1105,1198,0,0
-112,-174,0,0,0,0,0,0,0,0,0,-1,1112,1198,0,0
-105,-174,0,0,0,0,0,0,0,0,0,-1,1119,1198,0,0
-98,-174,0,0,0,0,0,0,0,0,0,-1,1126,1198,0,0
-91,-174,0,0,0,0,0,0,0,0,0,-1,1133,1198,0,0
-84,-174,0,0,0,0,0,0,0,0,0,-1,1140,1198,0,0
-77,-174,0,0,0,0,0,0,0,0,0,-1,1147,1198,0,0
-70,-174,0,0,0,0,0,0,0,0,0,-1,1154,1198,0,0
-63,-174,0,0,0,0,0,0,0,0,0,-1,1161,1198,0,0
-56,-174,0,0,0,0,0,0,0,0,0,-1,1168,1198,0,0
-49,-174,0,0,0,0,0,0,0,0,0,-1,1175,1198,0,0
-42,-174,0,0,0,0,0,0,0,0,0,-1,1182,1198,0,0
-35,-174,0,0,0,0,0,0,0,0,0,-1,1189,1198,0,0
-28,-174,0,0,0,0,0,0,0,0,0,-1,1196,1198,0,0
-21,-174,0,0,0,0,0,0,0,0,0,-1,1203,1198,0,0
-14,-174,0,0,0,0,0,0,0,0,0,-1,1210,1198,0,0
-7,-174,0,0,0,0,0,0,0,0,0,-1,1217,1198,0,0
0,-174,0,0,0,0,0,0,0,0,0,-1,1224,1198,0,0
7,-174,0,0,0,0,0,0,0,0,0,-1,1231,1198,0,0
14,-174,0,0,0,0,0,0,0,0,0,-1,1238,1198,0,0
21,-174,0,0,0,0,0,0,0,0,0,-1,1245,1198,0,0
28,-174,0,0,0,0,0,0,0,0,0,-1,1252,1198,0,0
35,-174,0,0,0,0,0,0,0,0,0,-1,1259,1198,0,0
42,-174,0,0,0,0,0,0,0,0,0,-1,1266,1198,0,0
49,-174,0,0,0,0,0,0,0,0,0,-1,1273,1198,0,0
56,-174,0,0,0,0,0,0,0,0,0,-1,1280,1198,0,0
63,-174,0,0,0,0,0,0,0,0,0,-1,1287,1198,0,0
70,-174,0,0,0,0,0,0,0,0,0,-1,1294,1198,0,0
77,-174,0,0,0,0,0,0,0,0,0,-1,1301,1198,0,0
84,-174,0,0,0,0,0,0,0,0,0,-1,1308,1198,0,0
91,-174,0,0,0,0,0,0,0,0,0,-1,1315,1198,0,0
98,-174,0,0,0,0,0,0,0,0,0,-1,1322,1198,0,0
105,-174,0,0,0,0,0,0,0,0,0,-1,1329,1198,0,0
112,-174,0,0,0,0,0,0,0,0,0,-1,1336,1198,0,0
119,-174,0,0,0,0,0,0,0,0,0,-1,1343,1198,0,0
126,-174,0,0,0,0,0,0,0,0,0,-1,1350,1198,0,0
133,-174,0,0,0,0,0,0,0,0,0,-1,1357,1198,0,0
140,-174,0,0,0,0,0,0,0,0,0,-1,1364,1198,0,0
147,-174,0,0,0,0,0,0,0,0,0,-1,1371,1198,0,0
154,-174,0,0,0,0,0,0,0,0,0,-1,1378,1198,0,0
161,-174,0,0,0,0,0,0,0,0,0,-1,1385,1198,0,0
168,-174,0,0,0,0,0,0,0,0,0,-1,1392,1198,0,0
175,-174,0,0,0,0,0,0,0,0,0,-1,1399,1198,0,0
182,-174,0,0,0,0,0,0,0,0,0,-1,1406,1198,0,0
189,-174,0,0,0,0,0,0,0,0,0,-1,1413,1198,0,0
196,-174,0,0,0,0,0,0,0,0,0,-1,1420,1198,0,0
203,-174,0,0,0,0,0,0,0,0,0,-1,1427,1198,0,0
210,-174,0,0,0,0,0,0,0,0,0,-1,1434,1198,0,0
217,-174,0,0,0,0,0,0,0,0,0,-1,1441,1198,0,0
224,-174,0,0,0,0,0,0,0,0,0,-1,1448,1198,0,0
231,-174,0,0,0,0,0,0,0,0,0,-1,1455,1198,0,0
238,-174,0,0,0,0,0,0,0,0,0,-1,1462,1198,0,0
245,-174,0,0,0,0,0,0,0,0,0,-1,1469,1198,0,0
252,-174,0,0,0,0,0,0,0,0,0,-1,1476,1198,0,0
259,-174,0,0,0,0,0,0,0,0,0,-1,1483,1198,0,0
266,-174,0,0,0,0,0,0,0,0,0,-1,1490,1198,0,0
273,-174,0,0,0,0,0,0,0,0,0,-1,1497,1198,0,0
280,-174,0,0,0,0,0,0,0,0,0,-1,1504,1198,0,0
287,-174,0,0,0,0,0,0,0,0,0,-1,1511,1198,0,0
294,-174,0,0,0,0,0,0,0,0,0,-1,1518,1198,0,0
301,-174,0,0,0,0,0,0,0,0,0,-1,1525,1198,0,0
308,-174,0,0,0,0,0,0,0,0,0,-1,1532,1198,0,0
315,-174,0,0,0,0,0,0,0,0,0,-1,1539,1198,0,0
322,-174,0,0,0,0,0,0,0,0,0,-1,1546,1198,0,0
329,-174,0,0,0,0,0,0,0,0,0,-1,1553,1198,0,0
336,-174,0,0,0,0,0,0,0,0,0,-1,1560,1198,0,0
343,-174,0,0,0,0,0,0,0,0,0,-1,1567,1198,0,0
350,-174,0,0,0,0,0,0,0,0,0,-1,1574,1198,0,0
357,-174,0,0,0,0,0,0,0,0,0,-1,1581,1198,0,0
364,-174,0,0,0,0,0,0,0,0,0,-1,1588,1198,0,0
371,-174,0,0,0,0,0,0,0,0,0,-1,1595,1198,0,0
378,-174,0,0,0,0,0,0,0,0,0,-1,1602,1198,0,0
385,-174,0,0,0,0,0,0,0,0,0,-1,1609,1198,0,0
392,-174,0,0,0,0,0,0,0,0,0,-1,1616,1198,0,0
399,-174,0,0,0,0,0,0,0,0,0,-1,1623,1198,0,0
406,-174,0,0,0,0,0,0,0,0,0,-1,1630,1198,0,0
413,-174,0,0,0,0,0,0,0,0,0,-1,1637,1198,0,0
420,-174,0,0,0,0,0,0,0,0,0,-1,1644,1198,0,0
427,-174,0,0,0,0,0,0,0,0,0,-1,1651,1198,0,0
434,-174,0,0,0,0,0,0,0,0,0,-1,1658,1198,0,0
441,-174,0,0,0,0,0,0,0,0,0,-1,1665,1198,0,0
448,-174,0,0,0,0,0,0,0,0,0,-1,1672,1198,0,0
455,-174,0,0,0,0,0,0,0,0,0,-1,1679,1198,0,0
462,-174,0,0,0,0,0,0,0,0,0,-1,1686,1198,0,0
469,-174,0,0,0,0,0,0,0,0,0,-1,1693,1198,0,0
476,-174,0,0,0,0,0,0,0,0,0,-1,1700,1198,0,0
483,-174,0,0,0,0,0,0,0,0,0,-1,1707,1198,0,0
490,-174,0,0,0,0,0,0,0,0,0,-1,1714,1198,0,0
497,-174,0,0,0,0,0,0,0,0,0,-1,1721,1198,0,0
504,-174,0,0,0,0,0,0,0,0,0,-1,1728,1198,0,0
511,-174,0,0,0,0,0,0,0,0,0,-1,1735,1198,0,0
518,-174,0,0,0,0,0,0,0,0,0,-1,1742,1198,0,0
525,-174,0,0,0,0,0,0,0,0,0,-1,1749,1198,0,0
532,-174,0,0,0,0,0,0,0,0,0,-1,1756,1198,0,0
539,-174,0,0,0,0,0,0,0,0,0,-1,1763,1198,0,0
546,-174,0,0,0,0,0,0,0,0,0,-1,1770,1198,0,0
553,-174,0,0,0,0,0,0,0,0,0,-1,1777,1198,0,0
560,-174,0,0,0,0,0,0,0,0,0,-1,1784,1198,0,0
567,-174,0,0,0,0,0,0,0,0,0,-1,1791,1198,0,0
574,-174,0,0,0,0,0,0,0,0,0,-1,1798,1198,0,0
581,-174,0,0,0,0,0,0,0,0,0,-1,1805,1198,0,0
588,-174,0,0,0,0,0,0,0,0,0,-1,1812,1198,0,0
595,-174,0,0,0,0,0,0,0,0,0,-1,1819,1198,0,0
602,-174,0,0,0,0,0,0,0,0,0,-1,1826,1198,0,0
609,-174,0,0,0,0,0,0,0,0,0,-1,1833,1198,0,0
616,-174,0,0,0,0,0,0,0,0,0,-1,1840,1198,0,0
623,-174,0,0,0,0,0,0,0,0,0,-1,1847,1198,0,0
630,-174,0,0,0,0,0,0,0,0,0,-1,1854,1198,0,0
637,-174,5.00598,0.840698,0.00341304,0.00257251,-0.000655786,0.00377167,0.00221388,-0.50044,0.00218853,0.040643,1861,1198,5.00602,-0.840673
644,-174,5.19971,0.654175,0.00230634,0.00125747,-0.000645184,0.00261335,0.000950463,-0.444135,0.00152739,0.0428036,1868,1198,5.1997,-0.654146
651,-174,5.05237,0.725952,0.00139833,-0.000157663,-0.000539324,0.00156698,-0.000326318,-0.303081,0.00116871,0.0430556,1875,1198,5.05235,-0.72595
658,-174,5.0437,0.499756,0.00045271,-0.00125002,-0.000287911,0.000500074,-0.00129738,-0.163051,0.00107125,0.0401121,1882,1198,5.04365,-0.499789
665,-174,5.01123,0.643677,-0.000395595,-0.00203884,-3.69432e-05,-0.000394765,-0.00203967,-0.0224667,0.00124916,0.0366608,1889,1198,5.01119,-0.643677
672,-174,4.92981,0.623901,-0.00107002,-0.00255948,0.000203492,-0.00104272,-0.00258678,0.133366,0.0015028,0.0279638,1896,1198,4.92986,-0.623844
679,-174,4.93799,0.623413,-0.00157943,-0.00288984,0.000388254,-0.00147303,-0.00299624,0.267468,0.00172996,0.0221022,1903,1198,4.93801,-0.623397
686,-174,4.92749,0.74939,-0.00189456,-0.00308584,0.000518269,-0.00170065,-0.00327975,0.358027,0.001894,0.0448048,1910,1198,4.92748,-0.749415
693,-174,5.13574,1.2373,-0.00222601,-0.00297478,0.000654152,-0.00184669,-0.0033541,0.525491,0.00193979,0.0450832,1917,1198,5.13579,-1.2373
700,-174,4.95068,1.28564,-0.00228125,-0.00278274,0.000750832,-0.0017404,-0.00332359,0.624242,0.00191959,0.0444001,1924,1198,4.95073,-1.28564
707,-174,4.65039,0.939575,-0.00222131,-0.00248477,0.000792811,-0.00154936,-0.00315672,0.703073,0.00182264,0.0286149,1931,1198,4.6504,-0.939626
714,-174,4.67712,0.880615,-0.00215971,-0.00209898,0.000760948,-0.00136779,-0.0028909,0.805342,0.00166986,0.0176523,1938,1198,4.67708,-0.880587
721,-174,4.66821,0.888794,-0.00190746,-0.00160693,0.000702504,-0.0010388,-0.00247559,0.890759,0.00143543,0.0141916,1945,1198,4.66825,-0.888825
728,-174,4.67175,0.875732,-0.00156222,-0.00125507,0.000642297,-0.000748246,-0.00206905,0.902745,0.00120972,0.0109414,1952,1198,4.67171,-0.875737
735,-174,4.67517,0.847412,-0.00118647,-0.000647153,0.000640044,-0.00022228,-0.00161134,0.984768,0.00100833,0.0103436,1959,1198,4.67515,-0.84747
742,-174,4.64551,0.806396,-0.0008459,-8.91673e-05,0.000601793,0.000243322,-0.00117839,1.06604,0.000878012,0.0174738,1966,1198,4.64547,-0.806362
749,-174,4.66138,0.797363,-0.000828777,0.00100858,0.000738785,0.00126879,-0.00108898,1.23215,0.00136258,0.0165314,1973,1198,4.66139,-0.797351
756,-174,4.65564,0.767822,-0.00102563,0.00243657,0.00108593,0.00274898,-0.00133804,1.29067,0.00240606,0.0103511,1980,1198,4.65563,-0.767837
763,-174,4.62402,0.731323,-0.00148802,0.00422253,0.00165033,0.00466516,-0.00193066,1.30876,0.00391567,0.0122936,1987,1198,4.62408,-0.73129
770,-174,4.61816,0.764404,-0.00251414,0.00712521,0.00254152,0.00775426,-0.00314319,1.32816,0.00647667,0.0244375,1994,1198,4.61818,-0.764403
777,-174,4.67151,0.844971,0,0,0,0,0,0,0,-1,2001,1198,4.67145,-0.844958
784,-174,4.29395,0.578735,0,0,0,0,0,0,0,-1,2008,1198,4.29391,-0.578754
791,-174,4.65271,0.088623,0,0,0,0,0,0,0,-1,2015,1198,4.65273,-0.0886778
798,-174,4.86292,-0.380981,0,0,0,0,0,0,0,-1,2022,1198,4.8629,0.381037
805,-174,4.43457,-0.211426,0,0,0,0,0,0,0,-1,2029,1198,4.43461,0.211375
812,-174,0,0,0,0,0,0,0,0,0,-1,2036,1198,0,0
-700,-181,0,0,0,0,0,0,0,0,0,-1,524,1205,0,0
-693,-181,0,0,0,0,0,0,0,0,0,-1,531,1205,0,0
-686,-181,-0.929077,3.23267,-0.101817,-0.000390813,-0.00269052,-0.000319488,-0.101888,-1.54429,0.0678191,0.0425777,538,1205,-0.929048,-3.23271
-679,-181,-2.39471,3.12854,-0.0781781,0.00397339,0.0104254,0.00527578,-0.0794805,1.44652,0.0548302,0.0449924,545,1205,-2.39473,-3.12855
-672,-181,2.98663,0.207642,0,0,0,0,0,0,0,-1,552,1205,2.9866,-0.207669
-665,-181,2.13507,0.256714,0,0,0,0,0,0,0,-1,559,1205,2.13508,-0.256666
-658,-181,1.41235,0.414063,0,0,0,0,0,0,0,-1,566,1205,1.41234,-0.414014
-651,-181,0.347168,0.603271,0,0,0,0,0,0,0,-1,573,1205,0.347143,-0.603235
-644,-181,-0.14563,0.600098,0,0,0,0,0,0,0,-1,580,1205,-0.145648,-0.600132
-637,-181,-0.638428,0.597046,0,0,0,0,0,0,0,-1,587,1205,-0.638438,-0.597028
-630,-181,-0.708923,0.680786,-0.00783322,0.0034123,0.0135843,0.0124916,-0.0169125,0.98162,0.0170403,0.0116911,594,1205,-0.708944,-0.680787
-623,-181,-0.710144,0.709106,-0.00349631,0.00255666,0.0100703,0.0100454,-0.0109851,0.931372,0.012146,0.0131624,601,1205,-0.710168,-0.709055
-616,-181,-0.707153,0.735107,-0.00117916,0.00112243,0.00694335,0.00700971,-0.00706644,0.867522,0.00812689,0.0133455,608,1205,-0.707149,-0.735136
-609,-181,-0.697876,0.759155,-0.000477327,0.000267993,0.00389441,0.00380753,-0.00401687,0.833098,0.00451796,0.0134048,615,1205,-0.697856,-0.759153
-602,-181,-0.702087,0.774414,-0.00154694,-0.00017607,0.000656801,8.78162e-05,-0.00181082,1.18876,0.00123753,0.0118309,622,1205,-0.70206,-0.774404
-595,-181,-0.707886,0.811157,-0.00175527,-0.000578817,-0.000415974,-0.000446596,-0.00188749,-1.26304,0.00113903,0.0109869,629,1205,-0.707875,-0.811185
-588,-181,-0.704773,0.850464,-0.00150617,-0.0005773,-0.00131835,0.000356034,-0.0024395,-0.954752,0.00175708,0.0099212,636,1205,-0.704779,-0.850484
-581,-181,-0.721375,0.860352,-0.00154266,-0.000866526,-0.0014424,0.000276897,-0.00268609,-0.90051,0.0018898,0.0104595,643,1205,-0.721352,-0.86041
-574,-181,-0.773682,0.775391,-0.00160758,-0.00133358,-0.00142091,-4.30783e-05,-0.00289809,-0.833458,0.00191786,0.0252117,650,1205,-0.773698,-0.775443
-567,-181,-0.599487,0.609985,-0.00156486,-0.00173488,-0.0013947,-0.000252581,-0.00304716,-0.75496,0.0019527,0.0424508,657,1205,-0.599467,-0.610005
-560,-181,-0.508789,0.561157,-0.00137735,-0.00218716,-0.00135095,-0.000371934,-0.00319258,-0.639797,0.00201588,0.0443213,664,1205,-0.50877,-0.561188
-553,-181,-0.746826,0.554321,-0.000889562,-0.00269138,-0.00115903,-0.000322482,-0.00325846,-0.455028,0.00207319,0.0400722,671,1205,-0.746814,-0.554349
-546,-181,-0.840881,0.630615,-7.76349e-05,-0.00325349,-0.000964691,0.000192432,-0.00352356,-0.272964,0.00241574,0.0323349,678,1205,-0.8409,-0.630571
-539,-181,-0.852356,0.680786,0.00105726,-0.00383801,-0.000805899,0.00118652,-0.00396727,-0.159038,0.00311657,0.0364685,685,1205,-0.85233,-0.680841
-532,-181,-0.750671,0.869019,0.00251025,-0.00441708,-0.000738748,0.00258815,-0.00449499,-0.105068,0.00413855,0.0440891,692,1205,-0.750679,-0.869048
-525,-181,-0.734314,0.775635,0.0041536,-0.00494985,-0.000881456,0.00423816,-0.00503442,-0.0956427,0.0053601,0.040648,699,1205,-0.734344,-0.775598
-518,-181,-0.569885,0.489014,0.00601377,-0.00541015,-0.00153422,0.00621622,-0.0056126,-0.131202,0.00683234,0.0386908,706,1205,-0.569901,-0.489012
-511,-181,0,0,0,0,0,0,0,0,0,-1,713,1205,0,0
-504,-181,0,0,0,0,0,0,0,0,0,-1,720,1205,0,0
-497,-181,0,0,0,0,0,0,0,0,0,-1,727,1205,0,0
-490,-181,0,0,0,0,0,0,0,0,0,-1,734,1205,0,0
-483,-181,0,0,0,0,0,0,0,0,0,-1,741,1205,0,0
-476,-181,0,0,0,0,0,0,0,0,0,-1,748,1205,0,0
-469,-181,0,0,0,0,0,0,0,0,0,-1,755,1205,0,0
-462,-181,0,0,0,0,0,0,0,0,0,-1,762,1205,0,0
-455,-181,0,0,0,0,0,0,0,0,0,-1,769,1205,0,0
-448,-181,0,0,0,0,0,0,0,0,0,-1,776,1205,0,0
-441,-181,0,0,0,0,0,0,0,0,0,-1,783,1205,0,0
-434,-181,0,0,0,0,0,0,0,0,0,-1,790,1205,0,0
-427,-181,0,0,0,0,0,0,0,0,0,-1,797,1205,0,0
-420,-181,0,0,0,0,0,0,0,0,0,-1,804,1205,0,0
-413,-181,0,0,0,0,0,0,0,0,0,-1,811,1205,0,0
-406,-181,0,0,0,0,0,0,0,0,0,-1,818,1205,0,0
-399,-181,0,0,0,0,0,0,0,0,0,-1,825,1205,0,0
-392,-181,0,0,0,0,0,0,0,0,0,-1,832,1205,0,0
-385,-181,0,0,0,0,0,0,0,0,0,-1,839,1205,0,0
-378,-181,0,0,0,0,0,0,0,0,0,-1,846,1205,0,0
-371,-181,0,0,0,0,0,0,0,0,0,-1,853,1205,0,0
-364,-181,0,0,0,0,0,0,0,0,0,-1,860,1205,0,0
-357,-181,0,0,0,0,0,0,0,0,0,-1,867,1205,0,0
-350,-181,0,0,0,0,0,0,0,0,0,-1,874,1205,0,0
-343,-181,0,0,0,0,0,0,0,0,0,-1,881,1205,0,0
-336,-181,0,0,0,0,0,0,0,0,0,-1,888,1205,0,0
-329,-181,0,0,0,0,0,0,0,0,0,-1,895,1205,0,0
-322,-181,0,0,0,0,0,0,0,0,0,-1,902,1205,0,0
-315,-181,0,0,0,0,0,0,0,0,0,-1,909,1205,0,0
-308,-181,0,0,0,0,0,0,0,0,0,-1,916,1205,0,0
-301,-181,0,0,0,0,0,0,0,0,0,-1,923,1205,0,0
-294,-181,0,0,0,0,0,0,0,0,0,-1,930,1205,0,0
-287,-181,0,0,0,0,0,0,0,0,0,-1,937,1205,0,0
-280,-181,0,0,0,0,0,0,0,0,0,-1,944,1205,0,0
-273,-181,0,0,0,0,0,0,0,0,0,-1,951,1205,0,0
-266,-181,0,0,0,0,0,0,0,0,0,-1,958,1205,0,0
-259,-181,0,0,0,0,0,0,0,0,0,-1,965,1205,0,0
-252,-181,0,0,0,0,0,0,0,0,0,-1,972,1205,0,0
-245,-181,0,0,0,0,0,0,0,0,0,-1,979,1205,0,0
-238,-181,0,0,0,0,0,0,0,0,0,-1,986,1205,0,0
-231,-181,0,0,0,0,0,0,0,0,0,-1,993,1205,0,0
-224,-181,0,0,0,0,0,0,0,0,0,-1,1000,1205,0,0
-217,-181,0,0,0,0,0,0,0,0,0,-1,1007,1205,0,0
-210,-181,0,0,0,0,0,0,0,0,0,-1,1014,1205,0,0
-203,-181,0,0,0,0,0,0,0,0,0,-1,1021,1205,0,0
-196,-181,0,0,0,0,0,0,0,0,0,-1,1028,1205,0,0
-189,-181,0,0,0,0,0,0,0,0,0,-1,1035,1205,0,0
-182,-181,0,0,0,0,0,0,0,0,0,-1,1042,1205,0,0
-175,-181,0,0,0,0,0,0,0,0,0,-1,1049,1205,0,0
-168,-181,0,0,0,0,0,0,0,0,0,-1,1056,1205,0,0
-161,-181,0,0,0,0,0,0,0,0,0,-1,1063,1205,0,0
-154,-181,0,0,0,0,0,0,0,0,0,-1,1070,1205,0,0
-147,-181,0,0,0,0,0,0,0,0,0,-1,1077,1205,0,0
-140,-181,0,0,0,0,0,0,0,0,0,-1,1084,1205,0,0
-133,-181,0,0,0,0,0,0,0,0,0,-1,1091,1205,0,0
-126,-181,0,0,0,0,0,0,0,0,0,-1,1098,1205,0,0
-119,-181,0,0,0,0,0,0,0,0,0,-1,1105,1205,0,0
-112,-181,0,0,0,0,0,0,0,0,0,-1,1112,1205,0,0
-105,-181,0,0,0,0,0,0,0,0,0,-1,1119,1205,0,0
-98,-181,0,0,0,0,0,0,0,0,0,-1,1126,1205,0,0
-91,-181,0,0,0,0,0,0,0,0,0,-1,1133,1205,0,0
-84,-181,0,0,0,0,0,0,0,0,0,-1,1140,1205,0,0
-77,-181,0,0,0,0,0,0,0,0,0,-1,1147,1205,0,0
-70,-181,0,0,0,0,0,0,0,0,0,-1,1154,1205,0,0
-63,-181,0,0,0,0,0,0,0,0,0,-1,1161,1205,0,0
-56,-181,0,0,0,0,0,0,0,0,0,-1,1168,1205,0,0
-49,-181,0,0,0,0,0,0,0,0,0,-1,1175,1205,0,0
-42,-181,0,0,0,0,0,0,0,0,0,-1,1182,1205,0,0
-35,-181,0,0,0,0,0,0,0,0,0,-1,1189,1205,0,0
-28,-181,0,0,0,0,0,0,0,0,0,-1,1196,1205,0,0
-21,-181,0,0,0,0,0,0,0,0,0,-1,1203,1205,0,0
-14,-181,0,0,0,0,0,0,0,0,0,-1,1210,1205,0,0
-7,-181,0,0,0,0,0,0,0,0,0,-1,1217,1205,0,0
0,-181,0,0,0,0,0,0,0,0,0,-1,1224,1205,0,0
7,-181,0,0,0,0,0,0,0,0,0,-1,1231,1205,0,0
14,-181,0,0,0,0,0,0,0,0,0,-1,1238,1205,0,0
21,-181,0,0,0,0,0,0,0,0,0,-1,1245,1205,0,0
28,-181,0,0,0,0,0,0,0,0,0,-1,1252,1205,0,0
35,-181,0,0,0,0,0,0,0,0,0,-1,1259,1205,0,0
42,-181,0,0,0,0,0,0,0,0,0,-1,1266,1205,0,0
49,-181,0,0,0,0,0,0,0,0,0,-1,1273,1205,0,0
56,-181,0,0,0,0,0,0,0,0,0,-1,1280,1205,0,0
63,-181,0,0,0,0,0,0,0,0,0,-1,1287,1205,0,0
70,-181,0,0,0,0,0,0,0,0,0,-1,1294,1205,0,0
77,-181,0,0,0,0,0,0,0,0,0,-1,1301,1205,0,0
84,-181,0,0,0,0,0,0,0,0,0,-1,1308,1205,0,0
91,-181,0,0,0,0,0,0,0,0,0,-1,1315,1205,0,0
98,-181,0,0,0,0,0,0,0,0,0,-1,1322,1205,0,0
105,-181,0,0,0,0,0,0,0,0,0,-1,1329,1205,0,0
112,-181,0,0,0,0,0,0,0,0,0,-1,1336,1205,0,0
119,-181,0,0,0,0,0,0,0,0,0,-1,1343,1205,0,0
126,-181,0,0,0,0,0,0,0,0,0,-1,1350,1205,0,0
133,-181,0,0,0,0,0,0,0,0,0,-1,1357,1205,0,0
140,-181,0,0,0,0,0,0,0,0,0,-1,1364,1205,0,0
147,-181,0,0,0,0,0,0,0,0,0,-1,1371,1205,0,0
154,-181,0,0,0,0,0,0,0,0,0,-1,1378,1205,0,0
161,-181,0,0,0,0,0,0,0,0,0,-1,1385,1205,0,0
168,-181,0,0,0,0,0,0,0,0,0,-1,1392,1205,0,0
175,-181,0,0,0,0,0,0,0,0,0,-1,1399,1205,0,0
182,-181,0,0,0,0,0,0,0,0,0,-1,1406,1205,0,0
189,-181,0,0,0,0,0,0,0,0,0,-1,1413,1205,0,0
196,-181,0,0,0,0,0,0,0,0,0,-1,1420,1205,0,0
203,-181,0,0,0,0,0,0,0,0,0,-1,1427,1205,0,0
210,-181,0,0,0,0,0,0,0,0,0,-1,1434,1205,0,0
217,-181,0,0,0,0,0,0,0,0,0,-1,1441,1205,0,0
224,-181,0,0,0,0,0,0,0,0,0,-1,1448,1205,0,0
231,-181,0,0,0,0,0,0,0,0,0,-1,1455,1205,0,0
238,-181,0,0,0,0,0,0,0,0,0,-1,1462,1205,0,0
245,-181,0,0,0,0,0,0,0,0,0,-1,1469,1205,0,0
252,-181,0,0,0,0,0,0,0,0,0,-1,1476,1205,0,0
259,-181,0,0,0,0,0,0,0,0,0,-1,1483,1205,0,0
266,-181,0,0,0,0,0,0,0,0,0,-1,1490,1205,0,0
273,-181,0,0,0,0,0,0,0,0,0,-1,1497,1205,0,0
280,-181,0,0,0,0,0,0,0,0,0,-1,1504,1205,0,0
287,-181,0,0,0,0,0,0,0,0,0,-1,1511,1205,0,0
294,-181,0,0,0,0,0,0,0,0,0,-1,1518,1205,0,0
301,-181,0,0,0,0,0,0,0,0,0,-1,1525,1205,0,0
308,-181,0,0,0,0,0,0,0,0,0,-1,1532,1205,0,0
315,-181,0,0,0,0,0,0,0,0,0,-1,1539,1205,0,0
322,-181,0,0,0,0,0,0,0,0,0,-1,1546,1205,0,0
329,-181,0,0,0,0,0,0,0,0,0,-1,1553,1205,0,0
336,-181,0,0,0,0,0,0,0,0,0,-1,1560,1205,0,0
343,-181,0,0,0,0,0,0,0,0,0,-1,1567,1205,0,0
350,-181,0,0,0,0,0,0,0,0,0,-1,1574,1205,0,0
357,-181,0,0,0,0,0,0,0,0,0,-1,1581,1205,0,0
364,-181,0,0,0,0,0,0,0,0,0,-1,1588,1205,0,0
371,-181,0,0,0,0,0,0,0,0,0,-1,1595,1205,0,0
378,-181,0,0,0,0,0,0,0,0,0,-1,1602,1205,0,0
385,-181,0,0,0,0,0,0,0,0,0,-1,1609,1205,0,0
392,-181,0,0,0,0,0,0,0,0,0,-1,1616,1205,0,0
399,-181,0,0,0,0,0,0,0,0,0,-1,1623,1205,0,0
406,-181,0,0,0,0,0,0,0,0,0,-1,1630,1205,0,0
413,-181,0,0,0,0,0,0,0,0,0,-1,1637,1205,0,0
420,-181,0,0,0,0,0,0,0,0,0,-1,1644,1205,0,0
427,-181,0,0,0,0,0,0,0,0,0,-1,1651,1205,0,0
434,-181,0,0,0,0,0,0,0,0,0,-1,1658,1205,0,0
441,-181,0,0,0,0,0,0,0,0,0,-1,1665,1205,0,0
448,-181,0,0,0,0,0,0,0,0,0,-1,1672,1205,0,0
455,-181,0,0,0,0,0,0,0,0,0,-1,1679,1205,0,0
462,-181,0,0,0,0,0,0,0,0,0,-1,1686,1205,0,0
469,-181,0,0,0,0,0,0,0,0,0,-1,1693,1205,0,0
476,-181,0,0,0,0,0,0,0,0,0,-1,1700,1205,0,0
483,-181,0,0,0,0,0,0,0,0,0,-1,1707,1205,0,0
490,-181,0,0,0,0,0,0,0,0,0,-1,1714,1205,0,0
497,-181,0,0,0,0,0,0,0,0,0,-1,1721,1205,0,0
504,-181,0,0,0,0,0,0,0,0,0,-1,1728,1205,0,0
511,-181,0,0,0,0,0,0,0,0,0,-1,1735,1205,0,0
518,-181,0,0,0,0,0,0,0,0,0,-1,1742,1205,0,0
525,-181,0,0,0,0,0,0,0,0,0,-1,1749,1205,0,0
532,-181,0,0,0,0,0,0,0,0,0,-1,1756,1205,0,0
539,-181,0,0,0,0,0,0,0,0,0,-1,1763,1205,0,0
546,-181,0,0,0,0,0,0,0,0,0,-1,1770,1205,0,0
553,-181,0,0,0,0,0,0,0,0,0,-1,1777,1205,0,0
560,-181,0,0,0,0,0,0,0,0,0,-1,1784,1205,0,0
567,-181,0,0,0,0,0,0,0,0,0,-1,1791,1205,0,0
574,-181,0,0,0,0,0,0,0,0,0,-1,1798,1205,0,0
581,-181,0,0,0,0,0,0,0,0,0,-1,1805,1205,0,0
588,-181,0,0,0,0,0,0,0,0,0,-1,1812,1205,0,0
595,-181,0,0,0,0,0,0,0,0,0,-1,1819,1205,0,0
602,-181,0,0,0,0,0,0,0,0,0,-1,1826,1205,0,0
609,-181,0,0,0,0,0,0,0,0,0,-1,1833,1205,0,0
616,-181,0,0,0,0,0,0,0,0,0,-1,1840,1205,0,0
623,-181,0,0,0,0,0,0,0,0,0,-1,1847,1205,0,0
630,-181,5.03223,0.919189,0.00406733,0.00429049,-0.000740925,0.00492819,0.00342963,-0.860133,0.0029172,0.0360627,1854,1205,5.03218,-0.919145
637,-181,5.04028,0.934937,0.00360249,0.00278228,-0.000630906,0.00394487,0.0024399,-0.4972,0.00229879,0.0365421,1861,1205,5.04027,-0.934917
644,-181,5.09436,0.61084,0.00246049,0.00118575,-0.000635651,0.00272328,0.000922954,-0.392024,0.00159926,0.039,1868,1205,5.0944,-0.610868
651,-181,5.15198,0.672607,0.00140932,-0.00035624,-0.000570932,0.00157785,-0.000524775,-0.287041,0.00126369,0.0397183,1875,1205,5.15194,-0.672575
658,-181,5.08972,0.63147,0.000364682,-0.00151001,-0.000404366,0.000448183,-0.00159351,-0.203637,0.00123906,0.0356489,1882,1205,5.0897,-0.631425
665,-181,5.03271,0.701416,-0.000523947,-0.00232038,-0.000232452,-0.000494356,-0.00234997,-0.126618,0.00143062,0.0321173,1889,1205,5.03276,-0.701433
672,-181,4.93054,0.666748,-0.00121187,-0.00282956,-4.7171e-05,-0.00121049,-0.00283094,-0.0291263,0.00164015,0.0237573,1896,1205,4.93056,-0.666758
679,-181,4.93323,0.647095,-0.00171468,-0.00313357,9.0856e-05,-0.00170889,-0.00313936,0.0636869,0.00181489,0.0276845,1903,1205,4.93322,-0.647107
686,-181,4.91724,0.780518,-0.00200538,-0.00329708,0.000189686,-0.0019781,-0.00332436,0.142833,0.00193084,0.0463422,1910,1205,4.91724,-0.780562
693,-181,4.62231,1.14856,0,0,0,0,0,0,0,-1,1917,1205,4.62229,-1.14859
700,-181,4.67749,1.04443,-0.00233502,-0.00292229,0.000423769,-0.0021131,-0.00314422,0.482422,0.0018508,0.0458795,1924,1205,4.6775,-1.04441
707,-181,4.67151,0.948608,-0.00224271,-0.00258422,0.000490897,-0.00189372,-0.00293321,0.618023,0.00171726,0.0206979,1931,1205,4.67152,-0.948589
714,-181,4.66479,0.896484,-0.00214031,-0.00214266,0.000505818,-0.00163566,-0.0026473,0.784236,0.00154251,0.014794,1938,1205,4.66484,-0.89649
721,-181,4.64441,0.883667,-0.00182903,-0.00154395,0.000477767,-0.00118791,-0.00218507,0.93037,0.00126315,0.0112877,1945,1205,4.64441,-0.883616
728,-181,4.64868,0.872803,-0.00144384,-0.00115528,0.00043049,-0.000845538,-0.00175359,0.947092,0.00101265,0.0102668,1952,1205,4.64866,-0.872766
735,-181,4.67114,0.837402,-0.00103687,-0.000459655,0.000469957,-0.000196761,-0.00129976,1.06077,0.000808939,0.0104257,1959,1205,4.67114,-0.837405
742,-181,4.65466,0.827026,-0.0007117,0.000168158,0.000478447,0.000378189,-0.000921732,1.15714,0.000772069,0.015698,1966,1205,4.65465,-0.82702
749,-181,4.63708,0.802124,-0.000700554,0.00118491,0.00059799,0.00135857,-0.000874216,1.28816,0.00129917,0.0147871,1973,1205,4.63706,-0.802182
756,-181,4.64282,0.766235,-0.000868639,0.00246604,0.000886287,0.00268696,-0.00108956,1.32651,0.00224445,0.0108272,1980,1205,4.6428,-0.766222
763,-181,4.63391,0.740723,-0.0012723,0.0041036,0.00136296,0.0044294,-0.00159811,1.33616,0.00360569,0.0113366,1987,1205,4.63389,-0.740677
770,-181,4.61023,0.707275,-0.00212617,0.00670359,0.00210855,0.00718127,-0.00260385,1.34801,0.00585186,0.0236159,1994,1205,4.61023,-0.707266
777,-181,4.61108,0.705444,-0.00361318,0.0108576,0.00328087,0.0115667,-0.00432228,1.35794,0.00948602,0.0445872,2001,1205,4.61114,-0.705441
784,-181,4.6283,0.707886,0,0,0,0,0,0,0,-1,2008,1205,4.62833,-0.707879
791,-181,3.9104,0.754761,0,0,0,0,0,0,0,-1,2015,1205,3.91037,-0.754788
798,-181,4.26208,1.45703,0,0,0,0,0,0,0,-1,2022,1205,4.26211,-1.457
805,-181,0,0,0,0,0,0,0,0,0,-1,2029,1205,0,0
812,-181,0,0,0,0,0,0,0,0,0,-1,2036,1205,0,0
-700,-188,0,0,0,0,0,0,0,0,0,-1,524,1212,0,0
-693,-188,0,0,0,0,0,0,0,0,0,-1,531,1212,0,0
-686,-188,0,0,0,0,0,0,0,0,0,-1,538,1212,0,0
-679,-188,2.95734,-1.02148,0,0,0,0,0,0,0,-1,545,1212,2.95732,1.02153
-672,-188,2.2937,-0.347778,0,0,0,0,0,0,0,-1,552,1212,2.2937,0.347823
-665,-188,1.68854,-0.0487061,-0.0578839,0.00765319,0.026585,0.0170811,-0.0673118,1.23,0.0515209,0.0482319,559,1212,1.68856,0.0487018
-658,-188,1.16345,-0.0213623,-0.0438552,0.007208,0.0266746,0.0186006,-0.0552478,1.16715,0.0443519,0.0457989,566,1212,1.16348,0.0213777
-651,-188,0.517822,0.380615,-0.0326093,0.00628937,0.0248531,0.0183988,-0.0447187,1.11741,0.0374821,0.0442771,573,1212,0.517814,-0.3806
-644,-188,-0.169434,0.644287,0,0,0,0,0,0,0,-1,580,1212,-0.169422,-0.644282
-637,-188,-0.647522,0.661987,0,0,0,0,0,0,0,-1,587,1212,-0.647538,-0.662048
-630,-188,-0.680054,0.686035,-0.0109272,0.00341883,0.0151428,0.0130016,-0.0205099,1.00659,0.0195091,0.00970354,594,1212,-0.68006,-0.686078
-623,-188,-0.680542,0.717896,-0.00548169,0.00254958,0.0111521,0.0103869,-0.0133191,0.958212,0.0137215,0.00956754,601,1212,-0.680557,-0.717927
-616,-188,-0.672241,0.733643,-0.00227524,0.0011382,0.00760876,0.00722931,-0.00836635,0.895727,0.00901213,0.00922161,608,1212,-0.67227,-0.733677
-609,-188,-0.664612,0.773804,-0.000996788,0.000249684,0.00436998,0.00404065,-0.00478775,0.856229,0.00510316,0.0123062,615,1212,-0.664629,-0.773854
-602,-188,-0.674927,0.819824,-0.0016311,-0.000297454,0.00107813,0.000303408,-0.00223196,1.06235,0.00159873,0.0158733,622,1212,-0.674934,-0.819876
-595,-188,-0.691406,0.828491,-0.0017758,-0.000376054,-0.000229751,-0.000339308,-0.00181254,-1.4122,0.00111264,0.0119992,629,1212,-0.691423,-0.828462
-588,-188,-0.696838,0.851196,-0.001652,-0.000592984,-0.00119338,0.000183088,-0.00242808,-0.994201,0.00168307,0.0094157,636,1212,-0.696865,-0.851167
-581,-188,-0.693115,0.877075,-0.00186702,-0.00115034,-0.00117447,-0.000280757,-0.0027366,-0.933466,0.00173839,0.00838938,643,1212,-0.693102,-0.877032
-574,-188,-0.689819,0.787964,-0.00202594,-0.00164802,-0.00113242,-0.000688906,-0.00298505,-0.86807,0.00180477,0.0210517,650,1212,-0.68983,-0.787913
-567,-188,-0.527283,0.517334,-0.00203096,-0.00214727,-0.001109,-0.000978584,-0.00319964,-0.759202,0.00189317,0.0394575,657,1212,-0.527289,-0.517365
-560,-188,-0.511902,0.440308,-0.0019216,-0.0027045,-0.00107342,-0.00117048,-0.00345561,-0.610553,0.0020294,0.0442131,664,1212,-0.511913,-0.440365
-553,-188,-0.716614,0.428833,-0.00147823,-0.00328582,-0.000933104,-0.00108298,-0.00368107,-0.400676,0.00218445,0.0430367,671,1212,-0.716598,-0.428864
-546,-188,-0.899109,0.703735,-0.000662793,-0.00392542,-0.000849164,-0.000455014,-0.0041332,-0.239972,0.00261702,0.0380502,678,1212,-0.899126,-0.703761
-539,-188,-0.854858,0.76709,0.000505371,-0.00456135,-0.000852921,0.000645097,-0.00470107,-0.162378,0.00336973,0.0333926,685,1212,-0.854838,-0.767058
-532,-188,-0.682861,0.776367,0.00206474,-0.00516062,-0.00100534,0.00220202,-0.00529789,-0.135707,0.00445135,0.0387568,692,1212,-0.682882,-0.776357
-525,-188,-0.524231,0.703003,0.00391917,-0.00566971,-0.00139303,0.00411744,-0.00586798,-0.141383,0.00579454,0.0394512,699,1212,-0.524251,-0.70302
-518,-188,-0.599304,0.688354,0.00610905,-0.00605615,-0.00222848,0.00650442,-0.00645152,-0.175591,0.00748014,0.0388843,706,1212,-0.599309,-0.688301
-511,-188,-0.789551,0.614136,0.00826725,-0.00640981,-0.00371067,0.00915204,-0.0072946,-0.234075,0.00951564,0.0366319,713,1212,-0.789521,-0.614093
-504,-188,0,0,0,0,0,0,0,0,0,-1,720,1212,0,0
-497,-188,0,0,0,0,0,0,0,0,0,-1,727,1212,0,0
-490,-188,0,0,0,0,0,0,0,0,0,-1,734,1212,0,0
-483,-188,0,0,0,0,0,0,0,0,0,-1,741,1212,0,0
-476,-188,0,0,0,0,0,0,0,0,0,-1,748,1212,0,0
-469,-188,0,0,0,0,0,0,0,0,0,-1,755,1212,0,0
-462,-188,0,0,0,0,0,0,0,0,0,-1,762,1212,0,0
-455,-188,0,0,0,0,0,0,0,0,0,-1,769,1212,0,0
-448,-188,0,0,0,0,0,0,0,0,0,-1,776,1212,0,0
-441,-188,0,0,0,0,0,0,0,0,0,-1,783,1212,0,0
-434,-188,0,0,0,0,0,0,0,0,0,-1,790,1212,0,0
-427,-188,0,0,0,0,0,0,0,0,0,-1,797,1212,0,0
-420,-188,0,0,0,0,0,0,0,0,0,-1,804,1212,0,0
-413,-188,0,0,0,0,0,0,0,0,0,-1,811,1212,0,0
-406,-188,0,0,0,0,0,0,0,0,0,-1,818,1212,0,0
-399,-188,0,0,0,0,0,0,0,0,0,-1,825,1212,0,0
-392,-188,0,0,0,0,0,0,0,0,0,-1,832,1212,0,0
-385,-188,0,0,0,0,0,0,0,0,0,-1,839,1212,0,0
-378,-188,0,0,0,0,0,0,0,0,0,-1,846,1212,0,0
-371,-188,0,0,0,0,0,0,0,0,0,-1,853,1212,0,0
-364,-188,0,0,0,0,0,0,0,0,0,-1,860,1212,0,0
-357,-188,0,0,0,0,0,0,0,0,0,-1,867,1212,0,0
-350,-188,0,0,0,0,0,0,0,0,0,-1,874,1212,0,0
-343,-188,0,0,0,0,0,0,0,0,0,-1,881,1212,0,0
-336,-188,0,0,0,0,0,0,0,0,0,-1,888,1212,0,0
-329,-188,0,0,0,0,0,0,0,0,0,-1,895,1212,0,0
-322,-188,0,0,0,0,0,0,0,0,0,-1,902,1212,0,0
-315,-188,0,0,0,0,0,0,0,0,0,-1,909,1212,0,0
-308,-188,0,0,0,0,0,0,0,0,0,-1,916,1212,0,0
-301,-188,0,0,0,0,0,0,0,0,0,-1,923,1212,0,0
-294,-188,0,0,0,0,0,0,0,0,0,-1,930,1212,0,0
-287,-188,0,0,0,0,0,0,0,0,0,-1,937,1212,0,0
-280,-188,0,0,0,0,0,0,0,0,0,-1,944,1212,0,0
-273,-188,0,0,0,0,0,0,0,0,0,-1,951,1212,0,0
-266,-188,0,0,0,0,0,0,0,0,0,-1,958,1212,0,0
-259,-188,0,0,0,0,0,0,0,0,0,-1,965,1212,0,0
-252,-188,0,0,0,0,0,0,0,0,0,-1,972,1212,0,0
-245,-188,0,0,0,0,0,0,0,0,0,-1,979,1212,0,0
-238,-188,0,0,0,0,0,0,0,0,0,-1,986,1212,0,0
-231,-188,0,0,0,0,0,0,0,0,0,-1,993,1212,0,0
-224,-188,0,0,0,0,0,0,0,0,0,-1,1000,1212,0,0
-217,-188,0,0,0,0,0,0,0,0,0,-1,1007,1212,0,0
-210,-188,0,0,0,0,0,0,0,0,0,-1,1014,1212,0,0
-203,-188,0,0,0,0,0,0,0,0,0,-1,1021,1212,0,0
-196,-188,0,0,0,0,0,0,0,0,0,-1,1028,1212,0,0
-189,-188,0,0,0,0,0,0,0,0,0,-1,1035,1212,0,0
-182,-188,0,0,0,0,0,0,0,0,0,-1,1042,1212,0,0
-175,-188,0,0,0,0,0,0,0,0,0,-1,1049,1212,0,0
-168,-188,0,0,0,0,0,0,0,0,0,-1,1056,1212,0,0
-161,-188,0,0,0,0,0,0,0,0,0,-1,1063,1212,0,0
-154,-188,0,0,0,0,0,0,0,0,0,-1,1070,1212,0,0
-147,-188,0,0,0,0,0,0,0,0,0,-1,1077,1212,0,0
-140,-188,0,0,0,0,0,0,0,0,0,-1,1084,1212,0,0
-133,-188,0,0,0,0,0,0,0,0,0,-1,1091,1212,0,0
-126,-188,0,0,0,0,0,0,0,0,0,-1,1098,1212,0,0
-119,-188,0,0,0,0,0,0,0,0,0,-1,1105,1212,0,0
-112,-188,0,0,0,0,0,0,0,0,0,-1,1112,1212,0,0
-105,-188,0,0,0,0,0,0,0,0,0,-1,1119,1212,0,0
-98,-188,0,0,0,0,0,0,0,0,0,-1,1126,1212,0,0
-91,-188,0,0,0,0,0,0,0,0,0,-1,1133,1212,0,0
-84,-188,0,0,0,0,0,0,0,0,0,-1,1140,1212,0,0
-77,-188,0,0,0,0,0,0,0,0,0,-1,1147,1212,0,0
-70,-188,0,0,0,0,0,0,0,0,0,-1,1154,1212,0,0
-63,-188,0,0,0,0,0,0,0,0,0,-1,1161,1212,0,0
-56,-188,0,0,0,0,0,0,0,0,0,-1,1168,1212,0,0
-49,-188,0,0,0,0,0,0,0,0,0,-1,1175,1212,0,0
-42,-188,0,0,0,0,0,0,0,0,0,-1,1182,1212,0,0
-35,-188,0,0,0,0,0,0,0,0,0,-1,1189,1212,0,0
-28,-188,0,0,0,0,0,0,0,0,0,-1,1196,1212,0,0
-21,-188,0,0,0,0,0,0,0,0,0,-1,1203,1212,0,0
-14,-188,0,0,0,0,0,0,0,0,0,-1,1210,1212,0,0
-7,-188,0,0,0,0,0,0,0,0,0,-1,1217,1212,0,0
0,-188,0,0,0,0,0,0,0,0,0,-1,1224,1212,0,0
7,-188,0,0,0,0,0,0,0,0,0,-1,1231,1212,0,0
14,-188,0,0,0,0,0,0,0,0,0,-1,1238,1212,0,0
21,-188,0,0,0,0,0,0,0,0,0,-1,1245,1212,0,0
28,-188,0,0,0,0,0,0,0,0,0,-1,1252,1212,0,0
35,-188,0,0,0,0,0,0,0,0,0,-1,1259,1212,0,0
42,-188,0,0,0,0,0,0,0,0,0,-1,1266,1212,0,0
49,-188,0,0,0,0,0,0,0,0,0,-1,1273,1212,0,0
56,-188,0,0,0,0,0,0,0,0,0,-1,1280,1212,0,0
63,-188,0,0,0,0,0,0,0,0,0,-1,1287,1212,0,0
70,-188,0,0,0,0,0,0,0,0,0,-1,1294,1212,0,0
77,-188,0,0,0,0,0,0,0,0,0,-1,1301,1212,0,0
84,-188,0,0,0,0,0,0,0,0,0,-1,1308,1212,0,0
91,-188,0,0,0,0,0,0,0,0,0,-1,1315,1212,0,0
98,-188,0,0,0,0,0,0,0,0,0,-1,1322,1212,0,0
105,-188,0,0,0,0,0,0,0,0,0,-1,1329,1212,0,0
112,-188,0,0,0,0,0,0,0,0,0,-1,1336,1212,0,0
119,-188,0,0,0,0,0,0,0,0,0,-1,1343,1212,0,0
126,-188,0,0,0,0,0,0,0,0,0,-1,1350,1212,0,0
133,-188,0,0,0,0,0,0,0,0,0,-1,1357,1212,0,0
140,-188,0,0,0,0,0,0,0,0,0,-1,1364,1212,0,0
147,-188,0,0,0,0,0,0,0,0,0,-1,1371,1212,0,0
154,-188,0,0,0,0,0,0,0,0,0,-1,1378,1212,0,0
161,-188,0,0,0,0,0,0,0,0,0,-1,1385,1212,0,0
168,-188,0,0,0,0,0,0,0,0,0,-1,1392,1212,0,0
175,-188,0,0,0,0,0,0,0,0,0,-1,1399,1212,0,0
182,-188,0,0,0,0,0,0,0,0,0,-1,1406,1212,0,0
189,-188,0,0,0,0,0,0,0,0,0,-1,1413,1212,0,0
196,-188,0,0,0,0,0,0,0,0,0,-1,1420,1212,0,0
203,-188,0,0,0,0,0,0,0,0,0,-1,1427,1212,0,0
210,-188,0,0,0,0,0,0,0,0,0,-1,1434,1212,0,0
217,-188,0,0,0,0,0,0,0,0,0,-1,1441,1212,0,0
224,-188,0,0,0,0,0,0,0,0,0,-1,1448,1212,0,0
231,-188,0,0,0,0,0,0,0,0,0,-1,1455,1212,0,0
238,-188,0,0,0,0,0,0,0,0,0,-1,1462,1212,0,0
245,-188,0,0,0,0,0,0,0,0,0,-1,1469,1212,0,0
252,-188,0,0,0,0,0,0,0,0,0,-1,1476,1212,0,0
259,-188,0,0,0,0,0,0,0,0,0,-1,1483,1212,0,0
266,-188,0,0,0,0,0,0,0,0,0,-1,1490,1212,0,0
273,-188,0,0,0,0,0,0,0,0,0,-1,1497,1212,0,0
280,-188,0,0,0,0,0,0,0,0,0,-1,1504,1212,0,0
287,-188,0,0,0,0,0,0,0,0,0,-1,1511,1212,0,0
294,-188,0,0,0,0,0,0,0,0,0,-1,1518,1212,0,0
301,-188,0,0,0,0,0,0,0,0,0,-1,1525,1212,0,0
308,-188,0,0,0,0,0,0,0,0,0,-1,1532,1212,0,0
315,-188,0,0,0,0,0,0,0,0,0,-1,1539,1212,0,0
322,-188,0,0,0,0,0,0,0,0,0,-1,1546,1212,0,0
329,-188,0,0,0,0,0,0,0,0,0,-1,1553,1212,0,0
336,-188,0,0,0,0,0,0,0,0,0,-1,1560,1212,0,0
343,-188,0,0,0,0,0,0,0,0,0,-1,1567,1212,0,0
350,-188,0,0,0,0,0,0,0,0,0,-1,1574,1212,0,0
357,-188,0,0,0,0,0,0,0,0,0,-1,1581,1212,0,0
364,-188,0,0,0,0,0,0,0,0,0,-1,1588,1212,0,0
371,-188,0,0,0,0,0,0,0,0,0,-1,1595,1212,0,0
378,-188,0,0,0,0,0,0,0,0,0,-1,1602,1212,0,0
385,-188,0,0,0,0,0,0,0,0,0,-1,1609,1212,0,0
392,-188,0,0,0,0,0,0,0,0,0,-1,1616,1212,0,0
399,-188,0,0,0,0,0,0,0,0,0,-1,1623,1212,0,0
406,-188,0,0,0,0,0,0,0,0,0,-1,1630,1212,0,0
413,-188,0,0,0,0,0,0,0,0,0,-1,1637,1212,0,0
420,-188,0,0,0,0,0,0,0,0,0,-1,1644,1212,0,0
427,-188,0,0,0,0,0,0,0,0,0,-1,1651,1212,0,0
434,-188,0,0,0,0,0,0,0,0,0,-1,1658,1212,0,0
441,-188,0,0,0,0,0,0,0,0,0,-1,1665,1212,0,0
448,-188,0,0,0,0,0,0,0,0,0,-1,1672,1212,0,0
455,-188,0,0,0,0,0,0,0,0,0,-1,1679,1212,0,0
462,-188,0,0,0,0,0,0,0,0,0,-1,1686,1212,0,0
469,-188,0,0,0,0,0,0,0,0,0,-1,1693,1212,0,0
476,-188,0,0,0,0,0,0,0,0,0,-1,1700,1212,0,0
483,-188,0,0,0,0,0,0,0,0,0,-1,1707,1212,0,0
490,-188,0,0,0,0,0,0,0,0,0,-1,1714,1212,0,0
497,-188,0,0,0,0,0,0,0,0,0,-1,1721,1212,0,0
504,-188,0,0,0,0,0,0,0,0,0,-1,1728,1212,0,0
511,-188,0,0,0,0,0,0,0,0,0,-1,1735,1212,0,0
518,-188,0,0,0,0,0,0,0,0,0,-1,1742,1212,0,0
525,-188,0,0,0,0,0,0,0,0,0,-1,1749,1212,0,0
532,-188,0,0,0,0,0,0,0,0,0,-1,1756,1212,0,0
539,-188,0,0,0,0,0,0,0,0,0,-1,1763,1212,0,0
546,-188,0,0,0,0,0,0,0,0,0,-1,1770,1212,0,0
553,-188,0,0,0,0,0,0,0,0,0,-1,1777,1212,0,0
560,-188,0,0,0,0,0,0,0,0,0,-1,1784,1212,0,0
567,-188,0,0,0,0,0,0,0,0,0,-1,1791,1212,0,0
574,-188,0,0,0,0,0,0,0,0,0,-1,1798,1212,0,0
581,-188,0,0,0,0,0,0,0,0,0,-1,1805,1212,0,0
588,-188,0,0,0,0,0,0,0,0,0,-1,1812,1212,0,0
595,-188,0,0,0,0,0,0,0,0,0,-1,1819,1212,0,0
602,-188,0,0,0,0,0,0,0,0,0,-1,1826,1212,0,0
609,-188,0,0,0,0,0,0,0,0,0,-1,1833,1212,0,0
616,-188,0,0,0,0,0,0,0,0,0,-1,1840,1212,0,0
623,-188,0,0,0,0,0,0,0,0,0,-1,1847,1212,0,0
630,-188,4.96594,0.747803,0.00332549,0.00395065,-0.000278466,0.0040567,0.00321944,-1.20693,0.00247308,0.0408649,1854,1212,4.966,-0.747862
637,-188,4.91931,0.654297,0.00327505,0.00247122,-0.000261046,0.00335238,0.00239388,-0.288015,0.00199376,0.0388199,1861,1212,4.91936,-0.654324
644,-188,4.89624,0.6521,0.00240609,0.000892489,-0.000498814,0.00255569,0.000742889,-0.291376,0.00151801,0.0343477,1868,1212,4.89622,-0.652111
651,-188,4.88806,0.687378,0.00146832,-0.000522149,-0.000628384,0.0016501,-0.000703927,-0.281592,0.00139521,0.0312152,1875,1212,4.88808,-0.687433
658,-188,4.92993,0.690308,0.000504036,-0.00155361,-0.000643592,0.000688757,-0.00173833,-0.279502,0.00144429,0.0325521,1882,1212,4.9299,-0.690352
665,-188,4.97095,0.703125,-0.000330942,-0.002262,-0.000606001,-0.000156523,-0.00243642,-0.280246,0.0015747,0.0286404,1889,1212,4.97091,-0.703156
672,-188,4.95349,0.745728,-0.000992259,-0.00269803,-0.000504268,-0.000854337,-0.00283596,-0.26698,0.0016799,0.0220531,1896,1212,4.95344,-0.74571
679,-188,4.93591,0.641724,-0.00148413,-0.00295007,-0.000419137,-0.00137275,-0.00306144,-0.259726,0.00177066,0.0411013,1903,1212,4.93596,-0.641771
686,-188,4.36853,0.930908,0,0,0,0,0,0,0,-1,1910,1212,4.36855,-0.930945
693,-188,4.45691,0.939087,-0.00206454,-0.00294478,-0.000186139,-0.0020268,-0.00298253,-0.200057,0.00175858,0.0459934,1917,1212,4.45692,-0.939045
700,-188,4.55835,0.923462,-0.00212975,-0.00271575,-4.72844e-05,-0.00212595,-0.00271954,-0.0799993,0.00165112,0.0334634,1924,1212,4.55836,-0.923418
707,-188,4.62073,0.935913,-0.00207231,-0.0023912,7.76801e-05,-0.0020544,-0.00240912,0.226676,0.00150187,0.0112814,1931,1212,4.62072,-0.935883
714,-188,4.625,0.887329,-0.00198591,-0.00194315,0.000163182,-0.00179996,-0.00212911,0.850533,0.0013234,0.00877563,1938,1212,4.62498,-0.887378
721,-188,4.62341,0.878174,-0.00164481,-0.00127865,0.000176322,-0.00120755,-0.00171591,1.1875,0.00101773,0.00968212,1945,1212,4.62341,-0.878186
728,-188,4.62402,0.879761,-0.00126369,-0.000950914,0.000164591,-0.000880261,-0.00133434,1.16532,0.00078337,0.00917116,1952,1212,4.62404,-0.879733
735,-188,4.62878,0.855103,-0.000839455,-0.000208496,0.000248227,-0.000122548,-0.000925403,1.23747,0.000580414,0.0127886,1959,1212,4.62879,-0.85509
742,-188,4.61853,0.830933,-0.000515071,0.000485935,0.00028061,0.000559231,-0.000588367,1.3153,0.000662637,0.014509,1966,1212,4.61851,-0.830941
749,-188,4.61743,0.806519,-0.000452893,0.00133842,0.000323262,0.00139497,-0.000509444,1.39761,0.00113845,0.0132835,1973,1212,4.61747,-0.80654
756,-188,4.62842,0.778198,-0.000485528,0.00231189,0.000458084,0.00238499,-0.00055863,1.41255,0.00180525,0.0118944,1980,1212,4.62836,-0.778242
763,-188,4.6134,0.741211,-0.000680182,0.00358128,0.00073316,0.00370389,-0.00080279,1.4051,0.00277583,0.013439,1987,1212,4.61338,-0.74118
770,-188,4.56372,0.695313,-0.00114225,0.00547896,0.00117965,0.00568285,-0.00134614,1.39965,0.00430797,0.0211414,1994,1212,4.56368,-0.695348
777,-188,4.70496,0.505005,-0.00200703,0.00837037,0.0019329,0.0087187,-0.00235536,1.3925,0.00673627,0.04394,2001,1212,4.70496,-0.505022
784,-188,4.85022,0.347534,0,0,0,0,0,0,0,-1,2008,1212,4.85021,-0.347534
791,-188,4.12659,0.686401,0,0,0,0,0,0,0,-1,2015,1212,4.1266,-0.686365
798,-188,4.58826,0.960815,0,0,0,0,0,0,0,-1,2022,1212,4.58826,-0.960847
805,-188,0,0,0,0,0,0,0,0,0,-1,2029,1212,0,0
812,-188,0,0,0,0,0,0,0,0,0,-1,2036,1212,0,0
-700,-195,0,0,0,0,0,0,0,0,0,-1,524,1219,0,0
-693,-195,0,0,0,0,0,0,0,0,0,-1,531,1219,0,0
-686,-195,0,0,0,0,0,0,0,0,0,-1,538,1219,0,0
-679,-195,5.81671,-2.49207,0,0,0,0,0,0,0,-1,545,1219,5.81674,2.49207
-672,-195,1.70166,-0.542114,0,0,0,0,0,0,0,-1,552,1219,1.70165,0.542101
-665,-195,1.2041,-0.320801,-0.0698709,0.0123111,0.0314782,0.0229825,-0.0805423,1.24395,0.0627741,0.0479701,559,1219,1.2041,0.320762
-658,-195,0.908508,-0.419922,-0.0532532,0.0112812,0.0306033,0.0234857,-0.0654578,1.19133,0.0532233,0.045549,566,1219,0.908506,0.419912
-651,-195,0.551636,-0.366333,-0.0398836,0.00979428,0.0278792,0.0222946,-0.052384,1.14929,0.0442669,0.0438125,573,1219,0.551664,0.366373
-644,-195,-0.184875,0.674438,0,0,0,0,0,0,0,-1,580,1219,-0.184884,-0.674445
-637,-195,-0.646301,0.716187,0,0,0,0,0,0,0,-1,587,1219,-0.64633,-0.716199
-630,-195,-0.65802,0.692627,-0.0139353,0.00536748,0.0161864,0.0145615,-0.0231293,1.05423,0.0219474,0.00731064,594,1219,-0.658031,-0.692568
-623,-195,-0.658936,0.715698,-0.00750301,0.00409381,0.0118825,0.0115172,-0.0149264,1.01239,0.0153094,0.00696055,601,1219,-0.658938,-0.715717
-616,-195,-0.646545,0.728638,-0.00341526,0.00233033,0.00800465,0.00796209,-0.00904701,0.957685,0.00982687,0.00832462,608,1219,-0.646542,-0.728607
-609,-195,-0.651245,0.759155,-0.00153121,0.000935476,0.00466217,0.00452468,-0.00512041,0.914707,0.00557213,0.0147513,615,1219,-0.651218,-0.759165
-602,-195,-0.674011,0.793945,-0.00164327,-8.64859e-05,0.00142932,0.000762654,-0.00249241,1.03474,0.00196577,0.0201096,622,1219,-0.673999,-0.793947
-595,-195,-0.674988,0.826782,-0.00171344,-9.95247e-05,-1.67617e-05,-9.93506e-05,-0.00171362,-1.56041,0.00111078,0.0151794,629,1219,-0.674985,-0.826755
-588,-195,-0.671204,0.830566,-0.00171976,-0.000664282,-0.00100771,-5.44806e-05,-0.00232956,-1.02661,0.0015352,0.00790641,636,1219,-0.671196,-0.830588
-581,-195,-0.666626,0.855835,-0.00208506,-0.00154306,-0.000831514,-0.0009395,-0.00268862,-0.942925,0.00157556,0.00749322,643,1219,-0.666624,-0.855789
-574,-195,-0.657715,0.85437,-0.00230422,-0.002063,-0.00077379,-0.00140047,-0.00296674,-0.86271,0.00171374,0.0182446,650,1219,-0.657735,-0.854378
-567,-195,-0.583069,0.803833,-0.0022981,-0.00266127,-0.000779938,-0.00167889,-0.00328049,-0.671027,0.00189416,0.0347847,657,1219,-0.583067,-0.803776
-560,-195,-0.619446,0.635254,-0.00216041,-0.00330824,-0.00079872,-0.00175079,-0.00371786,-0.473866,0.00214772,0.0412291,664,1219,-0.619445,-0.635215
-553,-195,-0.791931,0.392822,-0.0016748,-0.00392044,-0.000754432,-0.00144488,-0.00415036,-0.295811,0.00243277,0.0426754,671,1219,-0.791945,-0.39283
-546,-195,-0.893066,0.645142,-0.000777261,-0.00457217,-0.000828522,-0.000604261,-0.00474517,-0.205848,0.0029825,0.0390523,678,1219,-0.893094,-0.645133
-539,-195,-0.873352,0.703857,0.000489266,-0.00517664,-0.00104241,0.000674962,-0.00536233,-0.176292,0.00381981,0.0315259,685,1219,-0.87337,-0.703813
-532,-195,-0.803162,0.694458,0.00218109,-0.00569345,-0.00145,0.0024396,-0.00595197,-0.176431,0.00498433,0.0328561,692,1219,-0.803164,-0.694482
-525,-195,-0.68866,0.674194,0.00420863,-0.00605813,-0.00209731,0.00462055,-0.00647004,-0.193933,0.00643276,0.036663,699,1219,-0.688654,-0.674238
-518,-195,-0.810059,0.767212,0.00657833,-0.00622829,-0.00310571,0.00729175,-0.00694171,-0.225795,0.00821852,0.0387143,706,1219,-0.810057,-0.767253
-511,-195,-0.732361,0.52771,0.00895012,-0.00624899,-0.00457371,0.0102203,-0.00751917,-0.270885,0.0102814,0.0391604,713,1219,-0.73239,-0.527668
-504,-195,0,0,0,0,0,0,0,0,0,-1,720,1219,0,0
-497,-195,0,0,0,0,0,0,0,0,0,-1,727,1219,0,0
-490,-195,0,0,0,0,0,0,0,0,0,-1,734,1219,0,0
-483,-195,0,0,0,0,0,0,0,0,0,-1,741,1219,0,0
-476,-195,0,0,0,0,0,0,0,0,0,-1,748,1219,0,0
-469,-195,0,0,0,0,0,0,0,0,0,-1,755,1219,0,0
-462,-195,0,0,0,0,0,0,0,0,0,-1,762,1219,0,0
-455,-195,0,0,0,0,0,0,0,0,0,-1,769,1219,0,0
-448,-195,0,0,0,0,0,0,0,0,0,-1,776,1219,0,0
-441,-195,0,0,0,0,0,0,0,0,0,-1,783,1219,0,0
-434,-195,0,0,0,0,0,0,0,0,0,-1,790,1219,0,0
-427,-195,0,0,0,0,0,0,0,0,0,-1,797,1219,0,0
-420,-195,0,0,0,0,0,0,0,0,0,-1,804,1219,0,0
-413,-195,0,0,0,0,0,0,0,0,0,-1,811,1219,0,0
-406,-195,0,0,0,0,0,0,0,0,0,-1,818,1219,0,0
-399,-195,0,0,0,0,0,0,0,0,0,-1,825,1219,0,0
-392,-195,0,0,0,0,0,0,0,0,0,-1,832,1219,0,0
-385,-195,0,0,0,0,0,0,0,0,0,-1,839,1219,0,0
-378,-195,0,0,0,0,0,0,0,0,0,-1,846,1219,0,0
-371,-195,0,0,0,0,0,0,0,0,0,-1,853,1219,0,0
-364,-195,0,0,0,0,0,0,0,0,0,-1,860,1219,0,0
-357,-195,0,0,0,0,0,0,0,0,0,-1,867,1219,0,0
-350,-195,0,0,0,0,0,0,0,0,0,-1,874,1219,0,0
-343,-195,0,0,0,0,0,0,0,0,0,-1,881,1219,0,0
-336,-195,0,0,0,0,0,0,0,0,0,-1,888,1219,0,0
-329,-195,0,0,0,0,0,0,0,0,0,-1,895,1219,0,0
-322,-195,0,0,0,0,0,0,0,0,0,-1,902,1219,0,0
-315,-195,0,0,0,0,0,0,0,0,0,-1,909,1219,0,0
-308,-195,0,0,0,0,0,0,0,0,0,-1,916,1219,0,0
-301,-195,0,0,0,0,0,0,0,0,0,-1,923,1219,0,0
-294,-195,0,0,0,0,0,0,0,0,0,-1,930,1219,0,0
-287,-195,0,0,0,0,0,0,0,0,0,-1,937,1219,0,0
-280,-195,0,0,0,0,0,0,0,0,0,-1,944,1219,0,0
-273,-195,0,0,0,0,0,0,0,0,0,-1,951,1219,0,0
-266,-195,0,0,0,0,0,0,0,0,0,-1,958,1219,0,0
-259,-195,0,0,0,0,0,0,0,0,0,-1,965,1219,0,0
-252,-195,0,0,0,0,0,0,0,0,0,-1,972,1219,0,0
-245,-195,0,0,0,0,0,0,0,0,0,-1,979,1219,0,0
-238,-195,0,0,0,0,0,0,0,0,0,-1,986,1219,0,0
-231,-195,0,0,0,0,0,0,0,0,0,-1,993,1219,0,0
-224,-195,0,0,0,0,0,0,0,0,0,-1,1000,1219,0,0
-217,-195,0,0,0,0,0,0,0,0,0,-1,1007,1219,0,0
-210,-195,0,0,0,0,0,0,0,0,0,-1,1014,1219,0,0
-203,-195,0,0,0,0,0,0,0,0,0,-1,1021,1219,0,0
-196,-195,0,0,0,0,0,0,0,0,0,-1,1028,1219,0,0
-189,-195,0,0,0,0,0,0,0,0,0,-1,1035,1219,0,0
-182,-195,0,0,0,0,0,0,0,0,0,-1,1042,1219,0,0
-175,-195,0,0,0,0,0,0,0,0,0,-1,1049,1219,0,0
-168,-195,0,0,0,0,0,0,0,0,0,-1,1056,1219,0,0
-161,-195,0,0,0,0,0,0,0,0,0,-1,1063,1219,0,0
-154,-195,0,0,0,0,0,0,0,0,0,-1,1070,1219,0,0
-147,-195,0,0,0,0,0,0,0,0,0,-1,1077,1219,0,0
-140,-195,0,0,0,0,0,0,0,0,0,-1,1084,1219,0,0
-133,-195,0,0,0,0,0,0,0,0,0,-1,1091,1219,0,0
-126,-195,0,0,0,0,0,0,0,0,0,-1,1098,1219,0,0
-119,-195,0,0,0,0,0,0,0,0,0,-1,1105,1219,0,0
-112,-195,0,0,0,0,0,0,0,0,0,-1,1112,1219,0,0
-105,-195,0,0,0,0,0,0,0,0,0,-1,1119,1219,0,0
-98,-195,0,0,0,0,0,0,0,0,0,-1,1126,1219,0,0
-91,-195,0,0,0,0,0,0,0,0,0,-1,1133,1219,0,0
-84,-195,0,0,0,0,0,0,0,0,0,-1,1140,1219,0,0
-77,-195,0,0,0,0,0,0,0,0,0,-1,1147,1219,0,0
-70,-195,0,0,0,0,0,0,0,0,0,-1,1154,1219,0,0
-63,-195,0,0,0,0,0,0,0,0,0,-1,1161,1219,0,0
-56,-195,0,0,0,0,0,0,0,0,0,-1,1168,1219,0,0
-49,-195,0,0,0,0,0,0,0,0,0,-1,1175,1219,0,0
-42,-195,0,0,0,0,0,0,0,0,0,-1,1182,1219,0,0
-35,-195,0,0,0,0,0,0,0,0,0,-1,1189,1219,0,0
-28,-195,0,0,0,0,0,0,0,0,0,-1,1196,1219,0,0
-21,-195,0,0,0,0,0,0,0,0,0,-1,1203,1219,0,0
-14,-195,0,0,0,0,0,0,0,0,0,-1,1210,1219,0,0
-7,-195,0,0,0,0,0,0,0,0,0,-1,1217,1219,0,0
0,-195,0,0,0,0,0,0,0,0,0,-1,1224,1219,0,0
7,-195,0,0,0,0,0,0,0,0,0,-1,1231,1219,0,0
14,-195,0,0,0,0,0,0,0,0,0,-1,1238,1219,0,0
21,-195,0,0,0,0,0,0,0,0,0,-1,1245,1219,0,0
28,-195,0,0,0,0,0,0,0,0,0,-1,1252,1219,0,0
35,-195,0,0,0,0,0,0,0,0,0,-1,1259,1219,0,0
42,-195,0,0,0,0,0,0,0,0,0,-1,1266,1219,0,0
49,-195,0,0,0,0,0,0,0,0,0,-1,1273,1219,0,0
56,-195,0,0,0,0,0,0,0,0,0,-1,1280,1219,0,0
63,-195,0,0,0,0,0,0,0,0,0,-1,1287,1219,0,0
70,-195,0,0,0,0,0,0,0,0,0,-1,1294,1219,0,0
77,-195,0,0,0,0,0,0,0,0,0,-1,1301,1219,0,0
84,-195,0,0,0,0,0,0,0,0,0,-1,1308,1219,0,0
91,-195,0,0,0,0,0,0,0,0,0,-1,1315,1219,0,0
98,-195,0,0,0,0,0,0,0,0,0,-1,1322,1219,0,0
105,-195,0,0,0,0,0,0,0,0,0,-1,1329,1219,0,0
112,-195,0,0,0,0,0,0,0,0,0,-1,1336,1219,0,0
119,-195,0,0,0,0,0,0,0,0,0,-1,1343,1219,0,0
126,-195,0,0,0,0,0,0,0,0,0,-1,1350,1219,0,0
133,-195,0,0,0,0,0,0,0,0,0,-1,1357,1219,0,0
140,-195,0,0,0,0,0,0,0,0,0,-1,1364,1219,0,0
147,-195,0,0,0,0,0,0,0,0,0,-1,1371,1219,0,0
154,-195,0,0,0,0,0,0,0,0,0,-1,1378,1219,0,0
161,-195,0,0,0,0,0,0,0,0,0,-1,1385,1219,0,0
168,-195,0,0,0,0,0,0,0,0,0,-1,1392,1219,0,0
175,-195,0,0,0,0,0,0,0,0,0,-1,1399,1219,0,0
182,-195,0,0,0,0,0,0,0,0,0,-1,1406,1219,0,0
189,-195,0,0,0,0,0,0,0,0,0,-1,1413,1219,0,0
196,-195,0,0,0,0,0,0,0,0,0,-1,1420,1219,0,0
203,-195,0,0,0,0,0,0,0,0,0,-1,1427,1219,0,0
210,-195,0,0,0,0,0,0,0,0,0,-1,1434,1219,0,0
217,-195,0,0,0,0,0,0,0,0,0,-1,1441,1219,0,0
224,-195,0,0,0,0,0,0,0,0,0,-1,1448,1219,0,0
231,-195,0,0,0,0,0,0,0,0,0,-1,1455,1219,0,0
238,-195,0,0,0,0,0,0,0,0,0,-1,1462,1219,0,0
245,-195,0,0,0,0,0,0,0,0,0,-1,1469,1219,0,0
252,-195,0,0,0,0,0,0,0,0,0,-1,1476,1219,0,0
259,-195,0,0,0,0,0,0,0,0,0,-1,1483,1219,0,0
266,-195,0,0,0,0,0,0,0,0,0,-1,1490,1219,0,0
273,-195,0,0,0,0,0,0,0,0,0,-1,1497,1219,0,0
280,-195,0,0,0,0,0,0,0,0,0,-1,1504,1219,0,0
287,-195,0,0,0,0,0,0,0,0,0,-1,1511,1219,0,0
294,-195,0,0,0,0,0,0,0,0,0,-1,1518,1219,0,0
301,-195,0,0,0,0,0,0,0,0,0,-1,1525,1219,0,0
308,-195,0,0,0,0,0,0,0,0,0,-1,1532,1219,0,0
315,-195,0,0,0,0,0,0,0,0,0,-1,1539,1219,0,0
322,-195,0,0,0,0,0,0,0,0,0,-1,1546,1219,0,0
329,-195,0,0,0,0,0,0,0,0,0,-1,1553,1219,0,0
336,-195,0,0,0,0,0,0,0,0,0,-1,1560,1219,0,0
343,-195,0,0,0,0,0,0,0,0,0,-1,1567,1219,0,0
350,-195,0,0,0,0,0,0,0,0,0,-1,1574,1219,0,0
357,-195,0,0,0,0,0,0,0,0,0,-1,1581,1219,0,0
364,-195,0,0,0,0,0,0,0,0,0,-1,1588,1219,0,0
371,-195,0,0,0,0,0,0,0,0,0,-1,1595,1219,0,0
378,-195,0,0,0,0,0,0,0,0,0,-1,1602,1219,0,0
385,-195,0,0,0,0,0,0,0,0,0,-1,1609,1219,0,0
392,-195,0,0,0,0,0,0,0,0,0,-1,1616,1219,0,0
399,-195,0,0,0,0,0,0,0,0,0,-1,1623,1219,0,0
406,-195,0,0,0,0,0,0,0,0,0,-1,1630,1219,0,0
413,-195,0,0,0,0,0,0,0,0,0,-1,1637,1219,0,0
420,-195,0,0,0,0,0,0,0,0,0,-1,1644,1219,0,0
427,-195,0,0,0,0,0,0,0,0,0,-1,1651,1219,0,0
434,-195,0,0,0,0,0,0,0,0,0,-1,1658,1219,0,0
441,-195,0,0,0,0,0,0,0,0,0,-1,1665,1219,0,0
448,-195,0,0,0,0,0,0,0,0,0,-1,1672,1219,0,0
455,-195,0,0,0,0,0,0,0,0,0,-1,1679,1219,0,0
462,-195,0,0,0,0,0,0,0,0,0,-1,1686,1219,0,0
469,-195,0,0,0,0,0,0,0,0,0,-1,1693,1219,0,0
476,-195,0,0,0,0,0,0,0,0,0,-1,1700,1219,0,0
483,-195,0,0,0,0,0,0,0,0,0,-1,1707,1219,0,0
490,-195,0,0,0,0,0,0,0,0,0,-1,1714,1219,0,0
497,-195,0,0,0,0,0,0,0,0,0,-1,1721,1219,0,0
504,-195,0,0,0,0,0,0,0,0,0,-1,1728,1219,0,0
511,-195,0,0,0,0,0,0,0,0,0,-1,1735,1219,0,0
518,-195,0,0,0,0,0,0,0,0,0,-1,1742,1219,0,0
525,-195,0,0,0,0,0,0,0,0,0,-1,1749,1219,0,0
532,-195,0,0,0,0,0,0,0,0,0,-1,1756,1219,0,0
539,-195,0,0,0,0,0,0,0,0,0,-1,1763,1219,0,0
546,-195,0,0,0,0,0,0,0,0,0,-1,1770,1219,0,0
553,-195,0,0,0,0,0,0,0,0,0,-1,1777,1219,0,0
560,-195,0,0,0,0,0,0,0,0,0,-1,1784,1219,0,0
567,-195,0,0,0,0,0,0,0,0,0,-1,1791,1219,0,0
574,-195,0,0,0,0,0,0,0,0,0,-1,1798,1219,0,0
581,-195,0,0,0,0,0,0,0,0,0,-1,1805,1219,0,0
588,-195,0,0,0,0,0,0,0,0,0,-1,1812,1219,0,0
595,-195,0,0,0,0,0,0,0,0,0,-1,1819,1219,0,0
602,-195,0,0,0,0,0,0,0,0,0,-1,1826,1219,0,0
609,-195,0,0,0,0,0,0,0,0,0,-1,1833,1219,0,0
616,-195,0,0,0,0,0,0,0,0,0,-1,1840,1219,0,0
623,-195,0,0,0,0,0,0,0,0,0,-1,1847,1219,0,0
630,-195,4.97534,0.639526,0.00300606,0.00308065,0.000212859,0.00325945,0.00282725,0.872128,0.00204419,0.0413772,1854,1219,4.97538,-0.639488
637,-195,4.89844,0.670776,0.00316621,0.00175269,-5.48155e-05,0.00316834,0.00175057,-0.0387019,0.0018326,0.0388842,1861,1219,4.89843,-0.670721
644,-195,4.8844,0.735474,0.00239623,0.000347439,-0.000563921,0.00254119,0.000202479,-0.25161,0.00163083,0.034212,1868,1219,4.88435,-0.735497
651,-195,4.9408,0.700928,0.00144866,-0.000825731,-0.000884367,0.00175206,-0.00112913,-0.330489,0.00167637,0.0269678,1875,1219,4.94083,-0.700888
658,-195,4.94885,0.721313,0.000469566,-0.0016516,-0.00104836,0.00090026,-0.00208229,-0.389803,0.00176648,0.0256504,1882,1219,4.94888,-0.721355
665,-195,4.95313,0.729492,-0.000387402,-0.0022026,-0.00109868,0.00013007,-0.00272007,-0.440176,0.00185825,0.0225396,1889,1219,4.95309,-0.729479
672,-195,4.9873,0.747437,-0.00106245,-0.00252927,-0.00104299,-0.000520827,-0.0030709,-0.478968,0.00189763,0.0308224,1896,1219,4.98731,-0.747483
679,-195,4.43054,0.668457,0,0,0,0,0,0,0,-1,1903,1219,4.43059,-0.668461
686,-195,4.40649,0.859009,0,0,0,0,0,0,0,-1,1910,1219,4.40653,-0.859031
693,-195,4.45032,0.918091,-0.00212358,-0.00265324,-0.000683222,-0.00165565,-0.00312116,-0.600504,0.00180312,0.0418673,1917,1219,4.45028,-0.918089
700,-195,4.5365,0.886841,-0.002191,-0.00241778,-0.000489299,-0.00180212,-0.00280665,-0.671537,0.00164209,0.0205457,1924,1219,4.53644,-0.886804
707,-195,4.56787,0.93103,-0.00213038,-0.0021061,-0.000287883,-0.0018301,-0.00240638,-0.80647,0.00145083,0.0101784,1931,1219,4.56791,-0.930996
714,-195,4.59021,0.904419,-0.00199978,-0.00167573,-0.000116684,-0.00163809,-0.00203743,-1.25873,0.00124668,0.0130791,1938,1219,4.59026,-0.904457
721,-195,4.60193,0.89856,-0.0015794,-0.000980163,-4.4899e-05,-0.000976817,-0.00158275,-1.49642,0.000922126,0.0119247,1945,1219,4.60193,-0.898607
728,-195,4.59973,0.906128,-0.00112547,-0.000746667,-1.25012e-05,-0.000746255,-0.00112588,-1.53784,0.000661418,0.0101207,1952,1219,4.59978,-0.906105
735,-195,4.59216,0.865479,-0.000649013,2.96877e-06,0.000117376,2.34562e-05,-0.000669501,1.39799,0.000454354,0.0125902,1959,1219,4.59215,-0.86544
742,-195,4.59521,0.839111,-0.000303047,0.000729706,0.000185958,0.000762169,-0.00033551,1.39797,0.000649507,0.0140156,1966,1219,4.59524,-0.839115
749,-195,4.59802,0.804321,-0.00017134,0.00142094,0.000168043,0.00143848,-0.000188881,1.46679,0.00102775,0.0127642,1973,1219,4.59804,-0.804342
756,-195,4.60132,0.775146,-5.12187e-05,0.00212308,0.000172117,0.00213662,-6.47593e-05,1.49229,0.00144648,0.0123883,1980,1219,4.60136,-0.775207
763,-195,4.58276,0.738281,-5.80293e-06,0.00304337,0.00026361,0.00306599,-2.84249e-05,1.48519,0.00205353,0.0139867,1987,1219,4.5828,-0.738301
770,-195,4.55139,0.767212,-3.72305e-05,0.00426539,0.00041621,0.00430528,-7.71224e-05,1.47524,0.00289624,0.0264306,1994,1219,4.55142,-0.767267
777,-195,4.65125,0.602539,-0.000188487,0.00588878,0.000702623,0.00596895,-0.000268663,1.45718,0.00407181,0.0461252,2001,1219,4.65129,-0.602523
784,-195,4.70618,0.95813,-0.000547036,0.00806196,0.00114811,0.00821244,-0.000697518,1.44047,0.00572166,0.046976,2008,1219,4.70619,-0.95817
791,-195,4.49048,0.636597,0,0,0,0,0,0,0,-1,2015,1219,4.49047,-0.636611
798,-195,4.66809,1.00183,0,0,0,0,0,0,0,-1,2022,1219,4.66812,-1.0018
805,-195,0,0,0,0,0,0,0,0,0,-1,2029,1219,0,0
812,-195,0,0,0,0,0,0,0,0,0,-1,2036,1219,0,0
-700,-202,0,0,0,0,0,0,0,0,0,-1,524,1226,0,0
-693,-202,0,0,0,0,0,0,0,0,0,-1,531,1226,0,0
-686,-202,0,0,0,0,0,0,0,0,0,-1,538,1226,0,0
-679,-202,5.5799,-2.67285,-0.134137,0.0197521,0.0287792,0.024958,-0.139343,1.39184,0.102235,0.0487875,545,1226,5.5799,2.67289
-672,-202,4.20837,-2.12134,-0.10313,0.0200542,0.034924,0.0292665,-0.112343,1.31289,0.0863206,0.0468075,552,1226,4.20838,2.12133
-665,-202,0.742676,-0.684448,0,0,0,0,0,0,0,-1,559,1226,0.742691,0.68447
-658,-202,0.745361,-0.888428,-0.0600138,0.01687,0.0340085,0.0297541,-0.0728979,1.20865,0.060986,0.0464421,566,1226,0.745351,0.888392
-651,-202,0.531616,-0.918823,-0.0448282,0.0145546,0.0304288,0.0273778,-0.0576514,1.17197,0.0501181,0.044919,573,1226,0.531593,0.918829
-644,-202,0.0900879,-0.32373,-0.0327371,0.0121453,0.0259434,0.0240067,-0.0445985,1.14197,0.0401995,0.0444696,580,1226,0.090082,0.323751
-637,-202,-0.270325,0.266602,0,0,0,0,0,0,0,-1,587,1226,-0.27033,-0.266656
-630,-202,-0.621155,0.675659,-0.015706,0.00802125,0.0170104,0.0168965,-0.0245813,1.0899,0.0240838,0.0122941,594,1226,-0.621132,-0.675608
-623,-202,-0.628296,0.701416,-0.00870553,0.00621816,0.0124948,0.0133096,-0.015797,1.05458,0.0168251,0.00735742,601,1226,-0.628279,-0.701372
-616,-202,-0.621887,0.72168,-0.00411665,0.0040192,0.00844001,0.00932047,-0.00941792,1.00996,0.0108187,0.00776662,608,1226,-0.621866,-0.721728
-609,-202,-0.594788,0.733032,-0.00178959,0.00198232,0.0050154,0.00545464,-0.00526191,0.965236,0.00618754,0.0190603,615,1226,-0.59481,-0.733087
-602,-202,-0.633911,0.791992,-0.0014631,0.000346764,0.00188534,0.0015331,-0.00264943,1.00915,0.00244329,0.0197323,622,1226,-0.633924,-0.791947
-595,-202,-0.669434,0.839844,-0.00155723,0.00030288,0.000279021,0.000343832,-0.00159818,1.42507,0.00119664,0.0150925,629,1226,-0.66946,-0.839811
-588,-202,-0.619446,0.838501,-0.00177191,-0.000664258,-0.000744818,-0.000289926,-0.00214624,-1.10508,0.00134464,0.00764413,636,1226,-0.619469,-0.838516
-581,-202,-0.619873,0.84436,-0.00232483,-0.00192595,-0.000430614,-0.00165083,-0.00259995,-1.00226,0.00151919,0.00884949,643,1226,-0.619885,-0.844321
-574,-202,-0.62616,0.869385,-0.00259468,-0.00250747,-0.000410279,-0.00213849,-0.00296367,-0.838337,0.00176619,0.0126311,650,1226,-0.62616,-0.869345
-567,-202,-0.623169,0.929565,-0.00255654,-0.0032483,-0.000521797,-0.0022764,-0.00352844,-0.492717,0.00206557,0.0305783,657,1226,-0.623183,-0.929555
-560,-202,-0.772827,0.681519,-0.00235942,-0.00402704,-0.000685979,-0.0021135,-0.00427296,-0.344216,0.00246704,0.0415806,664,1226,-0.772852,-0.681506
-553,-202,-0.941772,0.421997,-0.00182123,-0.00471972,-0.000814925,-0.00160782,-0.00493312,-0.256123,0.00290511,0.0447752,671,1226,-0.941758,-0.421978
-546,-202,-0.882629,0.510986,-0.00083479,-0.00545243,-0.00113801,-0.000569563,-0.00571765,-0.228974,0.00363681,0.0427357,678,1226,-0.882608,-0.510961
-539,-202,-0.913208,0.737061,0.00054095,-0.00611366,-0.00165984,0.000931981,-0.00650469,-0.231365,0.00467817,0.0365259,685,1226,-0.913206,-0.737121
-532,-202,-0.895752,0.772705,0.00237058,-0.00665513,-0.00241014,0.00297384,-0.00725839,-0.245262,0.00607777,0.0262882,692,1226,-0.895755,-0.772759
-525,-202,-0.828735,0.72998,0.00457211,-0.00699612,-0.00338725,0.00549093,-0.00791495,-0.264887,0.00778195,0.0307762,699,1226,-0.828729,-0.730017
-518,-202,-0.800293,0.593628,0.00711842,-0.00706596,-0.00461654,0.00848859,-0.00843614,-0.288516,0.00977151,0.0378886,706,1226,-0.800278,-0.593661
-511,-202,-0.699585,0.40979,0,0,0,0,0,0,0,-1,713,1226,-0.699591,-0.409844
-504,-202,0,0,0,0,0,0,0,0,0,-1,720,1226,0,0
-497,-202,0,0,0,0,0,0,0,0,0,-1,727,1226,0,0
-490,-202,0,0,0,0,0,0,0,0,0,-1,734,1226,0,0
-483,-202,0,0,0,0,0,0,0,0,0,-1,741,1226,0,0
-476,-202,0,0,0,0,0,0,0,0,0,-1,748,1226,0,0
-469,-202,0,0,0,0,0,0,0,0,0,-1,755,1226,0,0
-462,-202,0,0,0,0,0,0,0,0,0,-1,762,1226,0,0
-455,-202,0,0,0,0,0,0,0,0,0,-1,769,1226,0,0
-448,-202,0,0,0,0,0,0,0,0,0,-1,776,1226,0,0
-441,-202,0,0,0,0,0,0,0,0,0,-1,783,1226,0,0
-434,-202,0,0,0,0,0,0,0,0,0,-1,790,1226,0,0
-427,-202,0,0,0,0,0,0,0,0,0,-1,797,1226,0,0
-420,-202,0,0,0,0,0,0,0,0,0,-1,804,1226,0,0
-413,-202,0,0,0,0,0,0,0,0,0,-1,811,1226,0,0
-406,-202,0,0,0,0,0,0,0,0,0,-1,818,1226,0,0
-399,-202,0,0,0,0,0,0,0,0,0,-1,825,1226,0,0
-392,-202,0,0,0,0,0,0,0,0,0,-1,832,1226,0,0
-385,-202,0,0,0,0,0,0,0,0,0,-1,839,1226,0,0
-378,-202,0,0,0,0,0,0,0,0,0,-1,846,1226,0,0
-371,-202,0,0,0,0,0,0,0,0,0,-1,853,1226,0,0
-364,-202,0,0,0,0,0,0,0,0,0,-1,860,1226,0,0
-357,-202,0,0,0,0,0,0,0,0,0,-1,867,1226,0,0
-350,-202,0,0,0,0,0,0,0,0,0,-1,874,1226,0,0
-343,-202,0,0,0,0,0,0,0,0,0,-1,881,1226,0,0
-336,-202,0,0,0,0,0,0,0,0,0,-1,888,1226,0,0
-329,-202,0,0,0,0,0,0,0,0,0,-1,895,1226,0,0
-322,-202,0,0,0,0,0,0,0,0,0,-1,902,1226,0,0
-315,-202,0,0,0,0,0,0,0,0,0,-1,909,1226,0,0
-308,-202,0,0,0,0,0,0,0,0,0,-1,916,1226,0,0
-301,-202,0,0,0,0,0,0,0,0,0,-1,923,1226,0,0
-294,-202,0,0,0,0,0,0,0,0,0,-1,930,1226,0,0
-287,-202,0,0,0,0,0,0,0,0,0,-1,937,1226,0,0
-280,-202,0,0,0,0,0,0,0,0,0,-1,944,1226,0,0
-273,-202,0,0,0,0,0,0,0,0,0,-1,951,1226,0,0
-266,-202,0,0,0,0,0,0,0,0,0,-1,958,1226,0,0
-259,-202,0,0,0,0,0,0,0,0,0,-1,965,1226,0,0
-252,-202,0,0,0,0,0,0,0,0,0,-1,972,1226,0,0
-245,-202,0,0,0,0,0,0,0,0,0,-1,979,1226,0,0
-238,-202,0,0,0,0,0,0,0,0,0,-1,986,1226,0,0
-231,-202,0,0,0,0,0,0,0,0,0,-1,993,1226,0,0
-224,-202,0,0,0,0,0,0,0,0,0,-1,1000,1226,0,0
-217,-202,0,0,0,0,0,0,0,0,0,-1,1007,1226,0,0
-210,-202,0,0,0,0,0,0,0,0,0,-1,1014,1226,0,0
-203,-202,0,0,0,0,0,0,0,0,0,-1,1021,1226,0,0
-196,-202,0,0,0,0,0,0,0,0,0,-1,1028,1226,0,0
-189,-202,0,0,0,0,0,0,0,0,0,-1,1035,1226,0,0
-182,-202,0,0,0,0,0,0,0,0,0,-1,1042,1226,0,0
-175,-202,0,0,0,0,0,0,0,0,0,-1,1049,1226,0,0
-168,-202,0,0,0,0,0,0,0,0,0,-1,1056,1226,0,0
-161,-202,0,0,0,0,0,0,0,0,0,-1,1063,1226,0,0
-154,-202,0,0,0,0,0,0,0,0,0,-1,1070,1226,0,0
-147,-202,0,0,0,0,0,0,0,0,0,-1,1077,1226,0,0
-140,-202,0,0,0,0,0,0,0,0,0,-1,1084,1226,0,0
-133,-202,0,0,0,0,0,0,0,0,0,-1,1091,1226,0,0
-126,-202,0,0,0,0,0,0,0,0,0,-1,1098,1226,0,0
-119,-202,0,0,0,0,0,0,0,0,0,-1,1105,1226,0,0
-112,-202,0,0,0,0,0,0,0,0,0,-1,1112,1226,0,0
-105,-202,0,0,0,0,0,0,0,0,0,-1,1119,1226,0,0
-98,-202,0,0,0,0,0,0,0,0,0,-1,1126,1226,0,0
-91,-202,0,0,0,0,0,0,0,0,0,-1,1133,1226,0,0
-84,-202,0,0,0,0,0,0,0,0,0,-1,1140,1226,0,0
-77,-202,0,0,0,0,0,0,0,0,0,-1,1147,1226,0,0
-70,-202,0,0,0,0,0,0,0,0,0,-1,1154,1226,0,0
-63,-202,0,0,0,0,0,0,0,0,0,-1,1161,1226,0,0
-56,-202,0,0,0,0,0,0,0,0,0,-1,1168,1226,0,0
-49,-202,0,0,0,0,0,0,0,0,0,-1,1175,1226,0,0
-42,-202,0,0,0,0,0,0,0,0,0,-1,1182,1226,0,0
-35,-202,0,0,0,0,0,0,0,0,0,-1,1189,1226,0,0
-28,-202,0,0,0,0,0,0,0,0,0,-1,1196,1226,0,0
-21,-202,0,0,0,0,0,0,0,0,0,-1,1203,1226,0,0
-14,-202,0,0,0,0,0,0,0,0,0,-1,1210,1226,0,0
-7,-202,0,0,0,0,0,0,0,0,0,-1,1217,1226,0,0
0,-202,0,0,0,0,0,0,0,0,0,-1,1224,1226,0,0
7,-202,0,0,0,0,0,0,0,0,0,-1,1231,1226,0,0
14,-202,0,0,0,0,0,0,0,0,0,-1,1238,1226,0,0
21,-202,0,0,0,0,0,0,0,0,0,-1,1245,1226,0,0
28,-202,0,0,0,0,0,0,0,0,0,-1,1252,1226,0,0
35,-202,0,0,0,0,0,0,0,0,0,-1,1259,1226,0,0
42,-202,0,0,0,0,0,0,0,0,0,-1,1266,1226,0,0
49,-202,0,0,0,0,0,0,0,0,0,-1,1273,1226,0,0
56,-202,0,0,0,0,0,0,0,0,0,-1,1280,1226,0,0
63,-202,0,0,0,0,0,0,0,0,0,-1,1287,1226,0,0
70,-202,0,0,0,0,0,0,0,0,0,-1,1294,1226,0,0
77,-202,0,0,0,0,0,0,0,0,0,-1,1301,1226,0,0
84,-202,0,0,0,0,0,0,0,0,0,-1,1308,1226,0,0
91,-202,0,0,0,0,0,0,0,0,0,-1,1315,1226,0,0
98,-202,0,0,0,0,0,0,0,0,0,-1,1322,1226,0,0
105,-202,0,0,0,0,0,0,0,0,0,-1,1329,1226,0,0
112,-202,0,0,0,0,0,0,0,0,0,-1,1336,1226,0,0
119,-202,0,0,0,0,0,0,0,0,0,-1,1343,1226,0,0
126,-202,0,0,0,0,0,0,0,0,0,-1,1350,1226,0,0
133,-202,0,0,0,0,0,0,0,0,0,-1,1357,1226,0,0
140,-202,0,0,0,0,0,0,0,0,0,-1,1364,1226,0,0
147,-202,0,0,0,0,0,0,0,0,0,-1,1371,1226,0,0
154,-202,0,0,0,0,0,0,0,0,0,-1,1378,1226,0,0
161,-202,0,0,0,0,0,0,0,0,0,-1,1385,1226,0,0
168,-202,0,0,0,0,0,0,0,0,0,-1,1392,1226,0,0
175,-202,0,0,0,0,0,0,0,0,0,-1,1399,1226,0,0
182,-202,0,0,0,0,0,0,0,0,0,-1,1406,1226,0,0
189,-202,0,0,0,0,0,0,0,0,0,-1,1413,1226,0,0
196,-202,0,0,0,0,0,0,0,0,0,-1,1420,1226,0,0
203,-202,0,0,0,0,0,0,0,0,0,-1,1427,1226,0,0
210,-202,0,0,0,0,0,0,0,0,0,-1,1434,1226,0,0
217,-202,0,0,0,0,0,0,0,0,0,-1,1441,1226,0,0
224,-202,0,0,0,0,0,0,0,0,0,-1,1448,1226,0,0
231,-202,0,0,0,0,0,0,0,0,0,-1,1455,1226,0,0
238,-202,0,0,0,0,0,0,0,0,0,-1,1462,1226,0,0
245,-202,0,0,0,0,0,0,0,0,0,-1,1469,1226,0,0
252,-202,0,0,0,0,0,0,0,0,0,-1,1476,1226,0,0
259,-202,0,0,0,0,0,0,0,0,0,-1,1483,1226,0,0
266,-202,0,0,0,0,0,0,0,0,0,-1,1490,1226,0,0
273,-202,0,0,0,0,0,0,0,0,0,-1,1497,1226,0,0
280,-202,0,0,0,0,0,0,0,0,0,-1,1504,1226,0,0
287,-202,0,0,0,0,0,0,0,0,0,-1,1511,1226,0,0
294,-202,0,0,0,0,0,0,0,0,0,-1,1518,1226,0,0
301,-202,0,0,0,0,0,0,0,0,0,-1,1525,1226,0,0
308,-202,0,0,0,0,0,0,0,0,0,-1,1532,1226,0,0
315,-202,0,0,0,0,0,0,0,0,0,-1,1539,1226,0,0
322,-202,0,0,0,0,0,0,0,0,0,-1,1546,1226,0,0
329,-202,0,0,0,0,0,0,0,0,0,-1,1553,1226,0,0
336,-202,0,0,0,0,0,0,0,0,0,-1,1560,1226,0,0
343,-202,0,0,0,0,0,0,0,0,0,-1,1567,1226,0,0
350,-202,0,0,0,0,0,0,0,0,0,-1,1574,1226,0,0
357,-202,0,0,0,0,0,0,0,0,0,-1,1581,1226,0,0
364,-202,0,0,0,0,0,0,0,0,0,-1,1588,1226,0,0
371,-202,0,0,0,0,0,0,0,0,0,-1,1595,1226,0,0
378,-202,0,0,0,0,0,0,0,0,0,-1,1602,1226,0,0
385,-202,0,0,0,0,0,0,0,0,0,-1,1609,1226,0,0
392,-202,0,0,0,0,0,0,0,0,0,-1,1616,1226,0,0
399,-202,0,0,0,0,0,0,0,0,0,-1,1623,1226,0,0
406,-202,0,0,0,0,0,0,0,0,0,-1,1630,1226,0,0
413,-202,0,0,0,0,0,0,0,0,0,-1,1637,1226,0,0
420,-202,0,0,0,0,0,0,0,0,0,-1,1644,1226,0,0
427,-202,0,0,0,0,0,0,0,0,0,-1,1651,1226,0,0
434,-202,0,0,0,0,0,0,0,0,0,-1,1658,1226,0,0
441,-202,0,0,0,0,0,0,0,0,0,-1,1665,1226,0,0
448,-202,0,0,0,0,0,0,0,0,0,-1,1672,1226,0,0
455,-202,0,0,0,0,0,0,0,0,0,-1,1679,1226,0,0
462,-202,0,0,0,0,0,0,0,0,0,-1,1686,1226,0,0
469,-202,0,0,0,0,0,0,0,0,0,-1,1693,1226,0,0
476,-202,0,0,0,0,0,0,0,0,0,-1,1700,1226,0,0
483,-202,0,0,0,0,0,0,0,0,0,-1,1707,1226,0,0
490,-202,0,0,0,0,0,0,0,0,0,-1,1714,1226,0,0
497,-202,0,0,0,0,0,0,0,0,0,-1,1721,1226,0,0
504,-202,0,0,0,0,0,0,0,0,0,-1,1728,1226,0,0
511,-202,0,0,0,0,0,0,0,0,0,-1,1735,1226,0,0
518,-202,0,0,0,0,0,0,0,0,0,-1,1742,1226,0,0
525,-202,0,0,0,0,0,0,0,0,0,-1,1749,1226,0,0
532,-202,0,0,0,0,0,0,0,0,0,-1,1756,1226,0,0
539,-202,0,0,0,0,0,0,0,0,0,-1,1763,1226,0,0
546,-202,0,0,0,0,0,0,0,0,0,-1,1770,1226,0,0
553,-202,0,0,0,0,0,0,0,0,0,-1,1777,1226,0,0
560,-202,0,0,0,0,0,0,0,0,0,-1,1784,1226,0,0
567,-202,0,0,0,0,0,0,0,0,0,-1,1791,1226,0,0
574,-202,0,0,0,0,0,0,0,0,0,-1,1798,1226,0,0
581,-202,0,0,0,0,0,0,0,0,0,-1,1805,1226,0,0
588,-202,0,0,0,0,0,0,0,0,0,-1,1812,1226,0,0
595,-202,0,0,0,0,0,0,0,0,0,-1,1819,1226,0,0
602,-202,0,0,0,0,0,0,0,0,0,-1,1826,1226,0,0
609,-202,0,0,0,0,0,0,0,0,0,-1,1833,1226,0,0
616,-202,0,0,0,0,0,0,0,0,0,-1,1840,1226,0,0
623,-202,0,0,0,0,0,0,0,0,0,-1,1847,1226,0,0
630,-202,4.99548,0.753296,0.0028852,0.00263842,0.000238877,0.00303067,0.00249295,0.547004,0.0018672,0.0396608,1854,1226,4.99548,-0.753274
637,-202,4.99158,0.740601,0.00311705,0.00102589,-0.000175112,0.00313161,0.00101133,-0.0829692,0.00184544,0.0354446,1861,1226,4.99153,-0.74054
644,-202,5.03247,0.752808,0.00238412,-0.00051306,-0.000808267,0.00259436,-0.000723298,-0.25447,0.00201443,0.0321663,1868,1226,5.03244,-0.752762
651,-202,5.03796,0.710938,0.00142846,-0.00166447,-0.00122172,0.00185282,-0.00208883,-0.334308,0.00227707,0.0261529,1875,1226,5.038,-0.710945
658,-202,4.97925,0.737305,0.000441155,-0.00241823,-0.0014644,0.00105804,-0.00303512,-0.398695,0.00245336,0.0226506,1882,1226,4.97924,-0.737286
665,-202,4.94995,0.713501,-0.000434722,-0.00286632,-0.00156433,0.000330718,-0.00363176,-0.455057,0.0025386,0.0208951,1889,1226,4.94999,-0.713446
672,-202,5.03333,0.67749,-0.0011274,-0.00308125,-0.00153382,-0.000285809,-0.00392283,-0.501835,0.00252535,0.040681,1896,1226,5.03332,-0.677507
679,-202,5.12927,0.625366,-0.00164915,-0.00314391,-0.00147515,-0.000742855,-0.00405021,-0.550921,0.00248974,0.0466094,1903,1226,5.12928,-0.625417
686,-202,4.1084,1.01196,0,0,0,0,0,0,0,-1,1910,1226,4.10845,-1.0119
693,-202,4.48535,0.893677,-0.00221378,-0.00286924,-0.00112074,-0.00137384,-0.00370919,-0.643153,0.00216535,0.0384756,1917,1226,4.48537,-0.893721
700,-202,4.53076,0.937866,-0.00227636,-0.00253708,-0.000880439,-0.00151668,-0.00329676,-0.711902,0.00190541,0.0145724,1924,1226,4.53071,-0.937879
707,-202,4.53003,0.939209,-0.00222852,-0.00215415,-0.000616197,-0.00157402,-0.00280865,-0.815532,0.00162552,0.0135782,1931,1226,4.52999,-0.939152
714,-202,4.56165,0.924683,-0.00209072,-0.00166536,-0.000358055,-0.00146158,-0.00229449,-1.05339,0.0013412,0.0146553,1938,1226,4.56161,-0.924645
721,-202,4.57678,0.908569,-0.00162792,-0.000756882,-0.000259347,-0.000685511,-0.00169929,-1.30225,0.000987168,0.0126903,1945,1226,4.57678,-0.908616
728,-202,4.57117,0.896362,-0.00115625,-0.000534133,-0.000196309,-0.000477367,-0.00121302,-1.28931,0.000705607,0.0104594,1952,1226,4.57118,-0.896305
735,-202,4.57239,0.855469,-0.000691478,0.000189119,-2.20909e-05,0.000189673,-0.000692032,-1.54573,0.000535887,0.0108807,1959,1226,4.57242,-0.855451
742,-202,4.57031,0.827026,-0.000377517,0.000923701,7.00992e-05,0.000927467,-0.000381283,1.51713,0.000777231,0.0101827,1966,1226,4.57034,-0.826973
749,-202,4.55725,0.80542,-0.000319947,0.00160354,2.78782e-05,0.00160394,-0.000320351,1.55631,0.00119053,0.00956903,1973,1226,4.55728,-0.805474
756,-202,4.55652,0.776978,-0.000292843,0.00231084,-4.62052e-06,0.00231085,-0.000292851,-1.56902,0.00164689,0.0101311,1980,1226,4.55648,-0.777034
763,-202,4.55371,0.763062,-0.000319011,0.0032239,3.92454e-05,0.00322433,-0.000319446,1.55972,0.00226356,0.0142652,1987,1226,4.55371,-0.763012
770,-202,4.64709,1.03064,-0.000426899,0.00439518,0.00015198,0.00439996,-0.000431685,1.53932,0.00308728,0.0362937,1994,1226,4.64708,-1.03064
777,-202,4.89539,1.38867,-0.000687325,0.00589075,0.000415873,0.00591694,-0.000713512,1.50791,0.0042027,0.0473647,2001,1226,4.89544,-1.38872
784,-202,4.5271,0.692505,-0.00120839,0.00781276,0.000870322,0.00789596,-0.00129159,1.47549,0.00574312,0.0460495,2008,1226,4.52706,-0.692466
791,-202,4.57263,0.637817,0,0,0,0,0,0,0,-1,2015,1226,4.57267,-0.637781
798,-202,4.68823,0.74585,0,0,0,0,0,0,0,-1,2022,1226,4.68825,-0.745822
805,-202,0,0,0,0,0,0,0,0,0,-1,2029,1226,0,0
812,-202,0,0,0,0,0,0,0,0,0,-1,2036,1226,0,0
-700,-209,0,0,0,0,0,0,0,0,0,-1,524,1233,0,0
-693,-209,0,0,0,0,0,0,0,0,0,-1,531,1233,0,0
-686,-209,0,0,0,0,0,0,0,0,0,-1,538,1233,0,0
-679,-209,5.28741,-2.89954,-0.145713,0.0302314,0.034732,0.0368394,-0.152321,1.38279,0.115797,0.0495023,545,1233,5.28739,2.89954
-672,-209,3.8949,-2.2854,-0.11108,0.0287951,0.0398173,0.0393354,-0.12162,1.31202,0.096891,0.0483369,552,1233,3.8949,2.28541
-665,-209,1.93317,-1.62048,0,0,0,0,0,0,0,-1,559,1233,1.93314,1.6205
-658,-209,1.0166,-1.3114,-0.0637567,0.0232049,0.0370373,0.036841,-0.0773928,1.21802,0.0673239,0.0457035,566,1233,1.01662,1.31143
-651,-209,0.121155,-1.07971,-0.0473287,0.0200288,0.0328221,0.0333772,-0.0606771,1.18454,0.0550594,0.0434745,573,1233,0.121126,1.07966
-644,-209,-0.686584,-0.713379,-0.0343438,0.0168891,0.0278659,0.0291238,-0.0465785,1.15708,0.0440923,0.0485795,580,1233,-0.686583,0.713337
-637,-209,-1.40259,-0.328613,0,0,0,0,0,0,0,-1,587,1233,-1.40258,0.328669
-630,-209,-0.559021,0.615479,-0.0162893,0.0113912,0.0181717,0.0203931,-0.0252911,1.11085,0.0264263,0.0218803,594,1233,-0.559018,-0.61546
-623,-209,-0.601318,0.679077,-0.00904975,0.00901431,0.0134685,0.0161988,-0.0162343,1.08076,0.0187253,0.0114788,601,1233,-0.601343,-0.679049
-616,-209,-0.597778,0.720337,-0.00424317,0.00634567,0.00924374,0.0117038,-0.00960134,1.04547,0.0123205,0.0115499,608,1233,-0.597757,-0.720283
-609,-209,-0.576111,0.737549,-0.00165934,0.00369908,0.00573368,0.00734864,-0.0053089,1.00396,0.00733939,0.0130374,615,1233,-0.576124,-0.73755
-602,-209,-0.599609,0.778564,-0.00101646,0.00138195,0.00267821,0.00311718,-0.00275169,0.995895,0.00339058,0.0147073,622,1233,-0.599618,-0.778612
-595,-209,-0.602234,0.811157,-0.00124711,0.00125689,0.000824939,0.00150424,-0.00149445,1.27949,0.00173129,0.0109528,629,1233,-0.602248,-0.811171
-588,-209,-0.576904,0.82251,-0.00173574,-0.000180244,-0.000301321,-0.000123913,-0.00179207,-1.38599,0.00115562,0.0117614,636,1233,-0.576933,-0.822566
-581,-209,-0.580383,0.84375,-0.00248402,-0.00192906,1.32544e-05,-0.00192875,-0.00248433,1.54693,0.00150559,0.0106724,643,1233,-0.580392,-0.843749
-574,-209,-0.598572,0.868774,-0.00279402,-0.00255759,-4.99292e-05,-0.00254747,-0.00280413,-1.37098,0.00179001,0.0109678,650,1233,-0.598599,-0.868807
-567,-209,-0.616455,0.984985,-0.00270839,-0.0034407,-0.000329732,-0.0025818,-0.00356729,-0.366551,0.0021272,0.0242571,657,1233,-0.616441,-0.985035
-560,-209,-0.808289,0.745117,-0.00244575,-0.00433674,-0.000657181,-0.00223979,-0.0045427,-0.303704,0.00262281,0.0449084,664,1233,-0.808273,-0.745092
-553,-209,-1.05188,0.568726,-0.00182459,-0.00501634,-0.0010159,-0.00152868,-0.00531226,-0.283442,0.00315779,0.0467468,671,1233,-1.05189,-0.568751
-546,-209,-1.11029,0.803711,-0.000734837,-0.00580225,-0.00160728,-0.000268043,-0.00626905,-0.28265,0.00409294,0.04381,678,1233,-1.1103,-0.803772
-539,-209,-0.933411,0.855957,0.000742436,-0.00650559,-0.0024389,0.00148668,-0.00724983,-0.296182,0.00539747,0.0376773,685,1233,-0.933405,-0.855954
-532,-209,-0.885254,0.805176,0.0026788,-0.0070929,-0.00350738,0.00380737,-0.00822147,-0.311307,0.00709901,0.0271795,692,1233,-0.885281,-0.80517
-525,-209,-0.841553,0.739502,0.00499679,-0.00746726,-0.00475617,0.00660436,-0.00907483,-0.325943,0.00908977,0.0291116,699,1233,-0.841529,-0.73946
-518,-209,-0.771667,0.50061,0.00762685,-0.00753401,-0.00611029,0.00978288,-0.00969004,-0.339213,0.0112427,0.0383592,706,1233,-0.771698,-0.50055
-511,-209,-0.738647,0.318848,0.010312,-0.00722393,-0.00742184,0.0130314,-0.00994339,-0.351221,0.0133044,0.0410321,713,1233,-0.738632,-0.318848
-504,-209,0,0,0,0,0,0,0,0,0,-1,720,1233,0,0
-497,-209,0,0,0,0,0,0,0,0,0,-1,727,1233,0,0
-490,-209,0,0,0,0,0,0,0,0,0,-1,734,1233,0,0
-483,-209,0,0,0,0,0,0,0,0,0,-1,741,1233,0,0
-476,-209,0,0,0,0,0,0,0,0,0,-1,748,1233,0,0
-469,-209,0,0,0,0,0,0,0,0,0,-1,755,1233,0,0
-462,-209,0,0,0,0,0,0,0,0,0,-1,762,1233,0,0
-455,-209,0,0,0,0,0,0,0,0,0,-1,769,1233,0,0
-448,-209,0,0,0,0,0,0,0,0,0,-1,776,1233,0,0
-441,-209,0,0,0,0,0,0,0,0,0,-1,783,1233,0,0
-434,-209,0,0,0,0,0,0,0,0,0,-1,790,1233,0,0
-427,-209,0,0,0,0,0,0,0,0,0,-1,797,1233,0,0
-420,-209,0,0,0,0,0,0,0,0,0,-1,804,1233,0,0
-413,-209,0,0,0,0,0,0,0,0,0,-1,811,1233,0,0
-406,-209,0,0,0,0,0,0,0,0,0,-1,818,1233,0,0
-399,-209,0,0,0,0,0,0,0,0,0,-1,825,1233,0,0
-392,-209,0,0,0,0,0,0,0,0,0,-1,832,1233,0,0
-385,-209,0,0,0,0,0,0,0,0,0,-1,839,1233,0,0
-378,-209,0,0,0,0,0,0,0,0,0,-1,846,1233,0,0
-371,-209,0,0,0,0,0,0,0,0,0,-1,853,1233,0,0
-364,-209,0,0,0,0,0,0,0,0,0,-1,860,1233,0,0
-357,-209,0,0,0,0,0,0,0,0,0,-1,867,1233,0,0
-350,-209,0,0,0,0,0,0,0,0,0,-1,874,1233,0,0
-343,-209,0,0,0,0,0,0,0,0,0,-1,881,1233,0,0
-336,-209,0,0,0,0,0,0,0,0,0,-1,888,1233,0,0
-329,-209,0,0,0,0,0,0,0,0,0,-1,895,1233,0,0
-322,-209,0,0,0,0,0,0,0,0,0,-1,902,1233,0,0
-315,-209,0,0,0,0,0,0,0,0,0,-1,909,1233,0,0
-308,-209,0,0,0,0,0,0,0,0,0,-1,916,1233,0,0
-301,-209,0,0,0,0,0,0,0,0,0,-1,923,1233,0,0
-294,-209,0,0,0,0,0,0,0,0,0,-1,930,1233,0,0
-287,-209,0,0,0,0,0,0,0,0,0,-1,937,1233,0,0
-280,-209,0,0,0,0,0,0,0,0,0,-1,944,1233,0,0
-273,-209,0,0,0,0,0,0,0,0,0,-1,951,1233,0,0
-266,-209,0,0,0,0,0,0,0,0,0,-1,958,1233,0,0
-259,-209,0,0,0,0,0,0,0,0,0,-1,965,1233,0,0
-252,-209,0,0,0,0,0,0,0,0,0,-1,972,1233,0,0
-245,-209,0,0,0,0,0,0,0,0,0,-1,979,1233,0,0
-238,-209,0,0,0,0,0,0,0,0,0,-1,986,1233,0,0
-231,-209,0,0,0,0,0,0,0,0,0,-1,993,1233,0,0
-224,-209,0,0,0,0,0,0,0,0,0,-1,1000,1233,0,0
-217,-209,0,0,0,0,0,0,0,0,0,-1,1007,1233,0,0
-210,-209,0,0,0,0,0,0,0,0,0,-1,1014,1233,0,0
-203,-209,0,0,0,0,0,0,0,0,0,-1,1021,1233,0,0
-196,-209,0,0,0,0,0,0,0,0,0,-1,1028,1233,0,0
-189,-209,0,0,0,0,0,0,0,0,0,-1,1035,1233,0,0
-182,-209,0,0,0,0,0,0,0,0,0,-1,1042,1233,0,0
-175,-209,0,0,0,0,0,0,0,0,0,-1,1049,1233,0,0
-168,-209,0,0,0,0,0,0,0,0,0,-1,1056,1233,0,0
-161,-209,0,0,0,0,0,0,0,0,0,-1,1063,1233,0,0
-154,-209,0,0,0,0,0,0,0,0,0,-1,1070,1233,0,0
-147,-209,0,0,0,0,0,0,0,0,0,-1,1077,1233,0,0
-140,-209,0,0,0,0,0,0,0,0,0,-1,1084,1233,0,0
-133,-209,0,0,0,0,0,0,0,0,0,-1,1091,1233,0,0
-126,-209,0,0,0,0,0,0,0,0,0,-1,1098,1233,0,0
-119,-209,0,0,0,0,0,0,0,0,0,-1,1105,1233,0,0
-112,-209,0,0,0,0,0,0,0,0,0,-1,1112,1233,0,0
-105,-209,0,0,0,0,0,0,0,0,0,-1,1119,1233,0,0
-98,-209,0,0,0,0,0,0,0,0,0,-1,1126,1233,0,0
-91,-209,0,0,0,0,0,0,0,0,0,-1,1133,1233,0,0
-84,-209,0,0,0,0,0,0,0,0,0,-1,1140,1233,0,0
-77,-209,0,0,0,0,0,0,0,0,0,-1,1147,1233,0,0
-70,-209,0,0,0,0,0,0,0,0,0,-1,1154,1233,0,0
-63,-209,0,0,0,0,0,0,0,0,0,-1,1161,1233,0,0
-56,-209,0,0,0,0,0,0,0,0,0,-1,1168,1233,0,0
-49,-209,0,0,0,0,0,0,0,0,0,-1,1175,1233,0,0
-42,-209,0,0,0,0,0,0,0,0,0,-1,1182,1233,0,0
-35,-209,0,0,0,0,0,0,0,0,0,-1,1189,1233,0,0
-28,-209,0,0,0,0,0,0,0,0,0,-1,1196,1233,0,0
-21,-209,0,0,0,0,0,0,0,0,0,-1,1203,1233,0,0
-14,-209,0,0,0,0,0,0,0,0,0,-1,1210,1233,0,0
-7,-209,0,0,0,0,0,0,0,0,0,-1,1217,1233,0,0
0,-209,0,0,0,0,0,0,0,0,0,-1,1224,1233,0,0
7,-209,0,0,0,0,0,0,0,0,0,-1,1231,1233,0,0
14,-209,0,0,0,0,0,0,0,0,0,-1,1238,1233,0,0
21,-209,0,0,0,0,0,0,0,0,0,-1,1245,1233,0,0
28,-209,0,0,0,0,0,0,0,0,0,-1,1252,1233,0,0
35,-209,0,0,0,0,0,0,0,0,0,-1,1259,1233,0,0
42,-209,0,0,0,0,0,0,0,0,0,-1,1266,1233,0,0
49,-209,0,0,0,0,0,0,0,0,0,-1,1273,1233,0,0
56,-209,0,0,0,0,0,0,0,0,0,-1,1280,1233,0,0
63,-209,0,0,0,0,0,0,0,0,0,-1,1287,1233,0,0
70,-209,0,0,0,0,0,0,0,0,0,-1,1294,1233,0,0
77,-209,0,0,0,0,0,0,0,0,0,-1,1301,1233,0,0
84,-209,0,0,0,0,0,0,0,0,0,-1,1308,1233,0,0
91,-209,0,0,0,0,0,0,0,0,0,-1,1315,1233,0,0
98,-209,0,0,0,0,0,0,0,0,0,-1,1322,1233,0,0
105,-209,0,0,0,0,0,0,0,0,0,-1,1329,1233,0,0
112,-209,0,0,0,0,0,0,0,0,0,-1,1336,1233,0,0
119,-209,0,0,0,0,0,0,0,0,0,-1,1343,1233,0,0
126,-209,0,0,0,0,0,0,0,0,0,-1,1350,1233,0,0
133,-209,0,0,0,0,0,0,0,0,0,-1,1357,1233,0,0
140,-209,0,0,0,0,0,0,0,0,0,-1,1364,1233,0,0
147,-209,0,0,0,0,0,0,0,0,0,-1,1371,1233,0,0
154,-209,0,0,0,0,0,0,0,0,0,-1,1378,1233,0,0
161,-209,0,0,0,0,0,0,0,0,0,-1,1385,1233,0,0
168,-209,0,0,0,0,0,0,0,0,0,-1,1392,1233,0,0
175,-209,0,0,0,0,0,0,0,0,0,-1,1399,1233,0,0
182,-209,0,0,0,0,0,0,0,0,0,-1,1406,1233,0,0
189,-209,0,0,0,0,0,0,0,0,0,-1,1413,1233,0,0
196,-209,0,0,0,0,0,0,0,0,0,-1,1420,1233,0,0
203,-209,0,0,0,0,0,0,0,0,0,-1,1427,1233,0,0
210,-209,0,0,0,0,0,0,0,0,0,-1,1434,1233,0,0
217,-209,0,0,0,0,0,0,0,0,0,-1,1441,1233,0,0
224,-209,0,0,0,0,0,0,0,0,0,-1,1448,1233,0,0
231,-209,0,0,0,0,0,0,0,0,0,-1,1455,1233,0,0
238,-209,0,0,0,0,0,0,0,0,0,-1,1462,1233,0,0
245,-209,0,0,0,0,0,0,0,0,0,-1,1469,1233,0,0
252,-209,0,0,0,0,0,0,0,0,0,-1,1476,1233,0,0
259,-209,0,0,0,0,0,0,0,0,0,-1,1483,1233,0,0
266,-209,0,0,0,0,0,0,0,0,0,-1,1490,1233,0,0
273,-209,0,0,0,0,0,0,0,0,0,-1,1497,1233,0,0
280,-209,0,0,0,0,0,0,0,0,0,-1,1504,1233,0,0
287,-209,0,0,0,0,0,0,0,0,0,-1,1511,1233,0,0
294,-209,0,0,0,0,0,0,0,0,0,-1,1518,1233,0,0
301,-209,0,0,0,0,0,0,0,0,0,-1,1525,1233,0,0
308,-209,0,0,0,0,0,0,0,0,0,-1,1532,1233,0,0
315,-209,0,0,0,0,0,0,0,0,0,-1,1539,1233,0,0
322,-209,0,0,0,0,0,0,0,0,0,-1,1546,1233,0,0
329,-209,0,0,0,0,0,0,0,0,0,-1,1553,1233,0,0
336,-209,0,0,0,0,0,0,0,0,0,-1,1560,1233,0,0
343,-209,0,0,0,0,0,0,0,0,0,-1,1567,1233,0,0
350,-209,0,0,0,0,0,0,0,0,0,-1,1574,1233,0,0
357,-209,0,0,0,0,0,0,0,0,0,-1,1581,1233,0,0
364,-209,0,0,0,0,0,0,0,0,0,-1,1588,1233,0,0
371,-209,0,0,0,0,0,0,0,0,0,-1,1595,1233,0,0
378,-209,0,0,0,0,0,0,0,0,0,-1,1602,1233,0,0
385,-209,0,0,0,0,0,0,0,0,0,-1,1609,1233,0,0
392,-209,0,0,0,0,0,0,0,0,0,-1,1616,1233,0,0
399,-209,0,0,0,0,0,0,0,0,0,-1,1623,1233,0,0
406,-209,0,0,0,0,0,0,0,0,0,-1,1630,1233,0,0
413,-209,0,0,0,0,0,0,0,0,0,-1,1637,1233,0,0
420,-209,0,0,0,0,0,0,0,0,0,-1,1644,1233,0,0
427,-209,0,0,0,0,0,0,0,0,0,-1,1651,1233,0,0
434,-209,0,0,0,0,0,0,0,0,0,-1,1658,1233,0,0
441,-209,0,0,0,0,0,0,0,0,0,-1,1665,1233,0,0
448,-209,0,0,0,0,0,0,0,0,0,-1,1672,1233,0,0
455,-209,0,0,0,0,0,0,0,0,0,-1,1679,1233,0,0
462,-209,0,0,0,0,0,0,0,0,0,-1,1686,1233,0,0
469,-209,0,0,0,0,0,0,0,0,0,-1,1693,1233,0,0
476,-209,0,0,0,0,0,0,0,0,0,-1,1700,1233,0,0
483,-209,0,0,0,0,0,0,0,0,0,-1,1707,1233,0,0
490,-209,0,0,0,0,0,0,0,0,0,-1,1714,1233,0,0
497,-209,0,0,0,0,0,0,0,0,0,-1,1721,1233,0,0
504,-209,0,0,0,0,0,0,0,0,0,-1,1728,1233,0,0
511,-209,0,0,0,0,0,0,0,0,0,-1,1735,1233,0,0
518,-209,0,0,0,0,0,0,0,0,0,-1,1742,1233,0,0
525,-209,0,0,0,0,0,0,0,0,0,-1,1749,1233,0,0
532,-209,0,0,0,0,0,0,0,0,0,-1,1756,1233,0,0
539,-209,0,0,0,0,0,0,0,0,0,-1,1763,1233,0,0
546,-209,0,0,0,0,0,0,0,0,0,-1,1770,1233,0,0
553,-209,0,0,0,0,0,0,0,0,0,-1,1777,1233,0,0
560,-209,0,0,0,0,0,0,0,0,0,-1,1784,1233,0,0
567,-209,0,0,0,0,0,0,0,0,0,-1,1791,1233,0,0
574,-209,0,0,0,0,0,0,0,0,0,-1,1798,1233,0,0
581,-209,0,0,0,0,0,0,0,0,0,-1,1805,1233,0,0
588,-209,0,0,0,0,0,0,0,0,0,-1,1812,1233,0,0
595,-209,0,0,0,0,0,0,0,0,0,-1,1819,1233,0,0
602,-209,0,0,0,0,0,0,0,0,0,-1,1826,1233,0,0
609,-209,0,0,0,0,0,0,0,0,0,-1,1833,1233,0,0
616,-209,0,0,0,0,0,0,0,0,0,-1,1840,1233,0,0
623,-209,4.92712,0.647583,0.000270025,0.00419221,0.00185486,0.00493045,-0.000468214,1.19201,0.00345363,0.0350955,1847,1233,4.9271,-0.64757
630,-209,4.94958,0.645508,0.00277291,0.00166814,0.000746108,0.00314886,0.00129219,0.466749,0.00182771,0.0374725,1854,1233,4.94956,-0.645539
637,-209,4.93066,0.632324,0.00332643,9.37329e-06,-0.000242758,0.00334411,-8.29867e-06,-0.0726686,0.00223217,0.0339795,1861,1233,4.93062,-0.632286
644,-209,4.98914,0.656372,0.00280214,-0.00141324,-0.00127174,0.00315609,-0.0017672,-0.271451,0.00287992,0.0282969,1868,1233,4.98918,-0.656369
651,-209,5.0116,0.67749,0.00193388,-0.00237841,-0.00195838,0.0026905,-0.00313503,-0.368685,0.00336663,0.0228234,1875,1233,5.01154,-0.677439
658,-209,4.99683,0.727539,0.000955866,-0.00295852,-0.00237218,0.00207403,-0.00407668,-0.44048,0.00361332,0.0201872,1882,1233,4.99685,-0.727482
665,-209,5.01904,0.656738,2.97492e-05,-0.00325119,-0.00255386,0.00142462,-0.00464607,-0.499908,0.00366572,0.0332016,1889,1233,5.01907,-0.656768
672,-209,5.16248,0.493408,-0.000734088,-0.00333998,-0.00254057,0.000818163,-0.00489223,-0.548458,0.00356564,0.0463943,1896,1233,5.1625,-0.493387
679,-209,4.47998,0.552124,-0.00134907,-0.00329785,-0.00245939,0.000321925,-0.00496884,-0.596789,0.00342492,0.0495097,1903,1233,4.47996,-0.552088
686,-209,4.45959,0.707153,-0.00177022,-0.00315878,-0.00228347,-7.7808e-05,-0.00485118,-0.637816,0.0032085,0.0489549,1910,1233,4.45964,-0.70715
693,-209,4.48218,0.89917,-0.00209169,-0.00282273,-0.00193885,-0.000484202,-0.00443021,-0.692229,0.00280604,0.0390245,1917,1233,4.48218,-0.899219
700,-209,4.53296,0.981812,-0.00219588,-0.00244762,-0.00157118,-0.000745535,-0.00389797,-0.745428,0.00238923,0.0141205,1924,1233,4.5329,-0.981829
707,-209,4.52673,0.942383,-0.00221858,-0.00201061,-0.00118115,-0.000928877,-0.00330031,-0.829303,0.00196517,0.0132353,1931,1233,4.52668,-0.942408
714,-209,4.53564,0.916626,-0.00211243,-0.00147081,-0.000791192,-0.00093786,-0.00264538,-0.978009,0.00154871,0.0124309,1938,1233,4.53561,-0.916664
721,-209,4.53601,0.910034,-0.00151,-0.000337067,-0.000716036,2.02103e-06,-0.00184909,-1.12852,0.0012334,0.01267,1945,1233,4.53596,-0.910071
728,-209,4.55737,0.894165,-0.000936539,-7.33843e-05,-0.000678722,0.000299354,-0.00130928,-1.06859,0.000987872,0.0122639,1952,1233,4.55735,-0.894174
735,-209,4.56763,0.86084,-0.000337778,0.000692742,-0.000572655,0.000947824,-0.00059286,-1.15174,0.000897349,0.0127112,1959,1233,4.56763,-0.860796
742,-209,4.55737,0.831177,0.000147085,0.00154457,-0.0006192,0.00177945,-8.77945e-05,-1.20824,0.00121662,0.0108608,1966,1233,4.55738,-0.831214
749,-209,4.53735,0.80957,0.000391679,0.00235614,-0.000876456,0.00269033,5.74935e-05,-1.20652,0.0017747,0.00929024,1973,1233,4.53731,-0.809527
756,-209,4.52844,0.784302,0.000638317,0.00323576,-0.00117337,0.00368731,0.000186758,-1.20343,0.00239838,0.00994279,1980,1233,4.5284,-0.784317
763,-209,4.50806,0.750977,0.000909292,0.00432271,-0.00144395,0.00485159,0.000380414,-1.2197,0.00311534,0.0162387,1987,1233,4.50804,-0.750957
770,-209,4.51477,0.74292,0.00114304,0.00562923,-0.00165584,0.0061742,0.000598071,-1.25285,0.00393197,0.0410009,1994,1233,4.51477,-0.74287
777,-209,4.56836,0.752319,0.00122709,0.00716532,-0.00169136,0.00761327,0.000779139,-1.31189,0.00483676,0.0480851,2001,1233,4.56839,-0.752313
784,-209,4.37537,0.466553,0.0010032,0.0089535,-0.00145282,0.00921067,0.000746036,-1.3956,0.00590749,0.0447438,2008,1233,4.37533,-0.466501
791,-209,4.24707,0.205811,0,0,0,0,0,0,0,-1,2015,1233,4.24713,-0.205794
798,-209,4.7583,0.523315,0,0,0,0,0,0,0,-1,2022,1233,4.75835,-0.52328
805,-209,0,0,0,0,0,0,0,0,0,-1,2029,1233,0,0
812,-209,0,0,0,0,0,0,0,0,0,-1,2036,1233,0,0
-700,-216,0,0,0,0,0,0,0,0,0,-1,524,1240,0,0
-693,-216,0,0,0,0,0,0,0,0,0,-1,531,1240,0,0
-686,-216,0,0,0,0,0,0,0,0,0,-1,538,1240,0,0
-679,-216,5.04584,-2.9895,-0.152424,0.0429132,0.0403674,0.0509265,-0.160437,1.37483,0.127374,0.0454592,545,1240,5.04584,2.98949
-672,-216,3.52887,-2.45374,-0.115729,0.0393744,0.0440111,0.0509924,-0.127347,1.3127,0.106063,0.0466683,552,1240,3.52888,2.45374
-665,-216,2.00775,-1.85596,-0.0878502,0.0352103,0.0427344,0.0485947,-0.101235,1.26727,0.0882656,0.0485623,559,1240,2.00775,1.85592
-658,-216,0.736511,-1.15466,-0.0662019,0.0308262,0.0390173,0.0445694,-0.0799451,1.23213,0.0728492,0.0470775,566,1240,0.736527,1.15464
-651,-216,-0.122009,-1.11731,-0.049228,0.0265157,0.0340744,0.0395883,-0.0623006,1.20446,0.0593108,0.046182,573,1240,-0.122012,1.11736
-644,-216,-0.658997,-0.916016,-0.0358847,0.0223978,0.0286138,0.0340973,-0.0475842,1.18266,0.0473726,0.0454925,580,1240,-0.658973,0.916009
-637,-216,-1.33734,-0.914185,0,0,0,0,0,0,0,-1,587,1240,-1.33733,0.914194
-630,-216,-0.580872,0.563721,-0.0173954,0.0151526,0.0182817,0.0233543,-0.0255972,1.14908,0.0282721,0.0292306,594,1240,-0.580842,-0.563767
-623,-216,-0.560547,0.664307,-0.0101086,0.0120601,0.0135084,0.0184497,-0.0164982,1.12897,0.0201877,0.0127655,601,1240,-0.560556,-0.664281
-616,-216,-0.566772,0.72998,-0.00515099,0.00883175,0.00927853,0.0134581,-0.0097773,1.10827,0.0134709,0.0130232,608,1240,-0.56678,-0.729966
-609,-216,-0.568054,0.754028,-0.00226685,0.00554212,0.00583161,0.00865566,-0.00538039,1.08039,0.00817693,0.0126335,615,1240,-0.568033,-0.75408
-602,-216,-0.561584,0.761963,-0.00117502,0.00256912,0.00296622,0.00420463,-0.00281053,1.0669,0.00407677,0.0119693,622,1240,-0.561615,-0.761991
-595,-216,-0.555054,0.763184,-0.00137053,0.00231551,0.00101393,0.002576,-0.00163103,1.31932,0.00244927,0.0161805,629,1240,-0.555054,-0.763219
-588,-216,-0.514832,0.810181,-0.00190929,0.00044675,-4.71472e-05,0.000447693,-0.00191023,-1.5508,0.00144601,0.0180232,636,1240,-0.514802,-0.810221
-581,-216,-0.520935,0.851196,-0.00264064,-0.0017089,0.000379108,-0.00157414,-0.0027754,1.22926,0.00160719,0.0163543,643,1240,-0.520919,-0.851229
-574,-216,-0.560364,0.874878,-0.00293975,-0.0022711,0.000319353,-0.00214309,-0.00306777,1.18955,0.00181714,0.0123905,650,1240,-0.560351,-0.87485
-567,-216,-0.562378,0.968628,-0.00281348,-0.00320451,-8.33022e-05,-0.00279648,-0.00322152,-0.201388,0.00202095,0.0220122,657,1240,-0.562404,-0.968578
-560,-216,-0.81842,1.29736,-0.00249045,-0.00413511,-0.000544179,-0.0023267,-0.00429886,-0.292297,0.00248476,0.0393546,664,1240,-0.81845,-1.29734
-553,-216,-1.18909,1.03528,-0.00186677,-0.0047205,-0.00105871,-0.0015169,-0.00507037,-0.319174,0.00300506,0.0437217,671,1240,-1.18906,-1.03527
-546,-216,-0.98407,0.962158,0,0,0,0,0,0,0,-1,678,1240,-0.984056,-0.962124
-539,-216,-0.878174,0.842529,0.000695825,-0.00619882,-0.00287206,0.00173546,-0.00723845,-0.347309,0.00549622,0.041657,685,1240,-0.878183,-0.842487
-532,-216,-0.889709,0.82959,0.00260315,-0.00682997,-0.0041728,0.00418407,-0.00841088,-0.362152,0.00740693,0.0390439,692,1240,-0.889724,-0.829589
-525,-216,-0.88446,0.790405,0.00487203,-0.00728842,-0.0056364,0.00708266,-0.00949905,-0.373768,0.00960727,0.0348209,699,1240,-0.884432,-0.790407
-518,-216,-0.795471,0.60376,0.00740656,-0.00747812,-0.00712947,0.0102704,-0.010342,-0.381965,0.0119006,0.0377009,706,1240,-0.795475,-0.603727
-511,-216,-0.746155,0.50293,0.0100068,-0.00730681,-0.00843588,0.0134374,-0.0107374,-0.386236,0.0139863,0.040055,713,1240,-0.746127,-0.502931
-504,-216,-0.815918,0.71228,0.0110798,-0.00655783,-0.00893335,0.014814,-0.0102919,-0.395925,0.0145731,0.039073,720,1240,-0.815905,-0.712242
-497,-216,0,0,0,0,0,0,0,0,0,-1,727,1240,0,0
-490,-216,0,0,0,0,0,0,0,0,0,-1,734,1240,0,0
-483,-216,0,0,0,0,0,0,0,0,0,-1,741,1240,0,0
-476,-216,0,0,0,0,0,0,0,0,0,-1,748,1240,0,0
-469,-216,0,0,0,0,0,0,0,0,0,-1,755,1240,0,0
-462,-216,0,0,0,0,0,0,0,0,0,-1,762,1240,0,0
-455,-216,0,0,0,0,0,0,0,0,0,-1,769,1240,0,0
-448,-216,0,0,0,0,0,0,0,0,0,-1,776,1240,0,0
-441,-216,0,0,0,0,0,0,0,0,0,-1,783,1240,0,0
-434,-216,0,0,0,0,0,0,0,0,0,-1,790,1240,0,0
-427,-216,0,0,0,0,0,0,0,0,0,-1,797,1240,0,0
-420,-216,0,0,0,0,0,0,0,0,0,-1,804,1240,0,0
-413,-216,0,0,0,0,0,0,0,0,0,-1,811,1240,0,0
-406,-216,0,0,0,0,0,0,0,0,0,-1,818,1240,0,0
-399,-216,0,0,0,0,0,0,0,0,0,-1,825,1240,0,0
-392,-216,0,0,0,0,0,0,0,0,0,-1,832,1240,0,0
-385,-216,0,0,0,0,0,0,0,0,0,-1,839,1240,0,0
-378,-216,0,0,0,0,0,0,0,0,0,-1,846,1240,0,0
-371,-216,0,0,0,0,0,0,0,0,0,-1,853,1240,0,0
-364,-216,0,0,0,0,0,0,0,0,0,-1,860,1240,0,0
-357,-216,0,0,0,0,0,0,0,0,0,-1,867,1240,0,0
-350,-216,0,0,0,0,0,0,0,0,0,-1,874,1240,0,0
-343,-216,0,0,0,0,0,0,0,0,0,-1,881,1240,0,0
-336,-216,0,0,0,0,0,0,0,0,0,-1,888,1240,0,0
-329,-216,0,0,0,0,0,0,0,0,0,-1,895,1240,0,0
-322,-216,0,0,0,0,0,0,0,0,0,-1,902,1240,0,0
-315,-216,0,0,0,0,0,0,0,0,0,-1,909,1240,0,0
-308,-216,0,0,0,0,0,0,0,0,0,-1,916,1240,0,0
-301,-216,0,0,0,0,0,0,0,0,0,-1,923,1240,0,0
-294,-216,0,0,0,0,0,0,0,0,0,-1,930,1240,0,0
-287,-216,0,0,0,0,0,0,0,0,0,-1,937,1240,0,0
-280,-216,0,0,0,0,0,0,0,0,0,-1,944,1240,0,0
-273,-216,0,0,0,0,0,0,0,0,0,-1,951,1240,0,0
-266,-216,0,0,0,0,0,0,0,0,0,-1,958,1240,0,0
-259,-216,0,0,0,0,0,0,0,0,0,-1,965,1240,0,0
-252,-216,0,0,0,0,0,0,0,0,0,-1,972,1240,0,0
-245,-216,0,0,0,0,0,0,0,0,0,-1,979,1240,0,0
-238,-216,0,0,0,0,0,0,0,0,0,-1,986,1240,0,0
-231,-216,0,0,0,0,0,0,0,0,0,-1,993,1240,0,0
-224,-216,0,0,0,0,0,0,0,0,0,-1,1000,1240,0,0
-217,-216,0,0,0,0,0,0,0,0,0,-1,1007,1240,0,0
-210,-216,0,0,0,0,0,0,0,0,0,-1,1014,1240,0,0
-203,-216,0,0,0,0,0,0,0,0,0,-1,1021,1240,0,0
-196,-216,0,0,0,0,0,0,0,0,0,-1,1028,1240,0,0
-189,-216,0,0,0,0,0,0,0,0,0,-1,1035,1240,0,0
-182,-216,0,0,0,0,0,0,0,0,0,-1,1042,1240,0,0
-175,-216,0,0,0,0,0,0,0,0,0,-1,1049,1240,0,0
-168,-216,0,0,0,0,0,0,0,0,0,-1,1056,1240,0,0
-161,-216,0,0,0,0,0,0,0,0,0,-1,1063,1240,0,0
-154,-216,0,0,0,0,0,0,0,0,0,-1,1070,1240,0,0
-147,-216,0,0,0,0,0,0,0,0,0,-1,1077,1240,0,0
-140,-216,0,0,0,0,0,0,0,0,0,-1,1084,1240,0,0
-133,-216,0,0,0,0,0,0,0,0,0,-1,1091,1240,0,0
-126,-216,0,0,0,0,0,0,0,0,0,-1,1098,1240,0,0
-119,-216,0,0,0,0,0,0,0,0,0,-1,1105,1240,0,0
-112,-216,0,0,0,0,0,0,0,0,0,-1,1112,1240,0,0
-105,-216,0,0,0,0,0,0,0,0,0,-1,1119,1240,0,0
-98,-216,0,0,0,0,0,0,0,0,0,-1,1126,1240,0,0
-91,-216,0,0,0,0,0,0,0,0,0,-1,1133,1240,0,0
-84,-216,0,0,0,0,0,0,0,0,0,-1,1140,1240,0,0
-77,-216,0,0,0,0,0,0,0,0,0,-1,1147,1240,0,0
-70,-216,0,0,0,0,0,0,0,0,0,-1,1154,1240,0,0
-63,-216,0,0,0,0,0,0,0,0,0,-1,1161,1240,0,0
-56,-216,0,0,0,0,0,0,0,0,0,-1,1168,1240,0,0
-49,-216,0,0,0,0,0,0,0,0,0,-1,1175,1240,0,0
-42,-216,0,0,0,0,0,0,0,0,0,-1,1182,1240,0,0
-35,-216,0,0,0,0,0,0,0,0,0,-1,1189,1240,0,0
-28,-216,0,0,0,0,0,0,0,0,0,-1,1196,1240,0,0
-21,-216,0,0,0,0,0,0,0,0,0,-1,1203,1240,0,0
-14,-216,0,0,0,0,0,0,0,0,0,-1,1210,1240,0,0
-7,-216,0,0,0,0,0,0,0,0,0,-1,1217,1240,0,0
0,-216,0,0,0,0,0,0,0,0,0,-1,1224,1240,0,0
7,-216,0,0,0,0,0,0,0,0,0,-1,1231,1240,0,0
14,-216,0,0,0,0,0,0,0,0,0,-1,1238,1240,0,0
21,-216,0,0,0,0,0,0,0,0,0,-1,1245,1240,0,0
28,-216,0,0,0,0,0,0,0,0,0,-1,1252,1240,0,0
35,-216,0,0,0,0,0,0,0,0,0,-1,1259,1240,0,0
42,-216,0,0,0,0,0,0,0,0,0,-1,1266,1240,0,0
49,-216,0,0,0,0,0,0,0,0,0,-1,1273,1240,0,0
56,-216,0,0,0,0,0,0,0,0,0,-1,1280,1240,0,0
63,-216,0,0,0,0,0,0,0,0,0,-1,1287,1240,0,0
70,-216,0,0,0,0,0,0,0,0,0,-1,1294,1240,0,0
77,-216,0,0,0,0,0,0,0,0,0,-1,1301,1240,0,0
84,-216,0,0,0,0,0,0,0,0,0,-1,1308,1240,0,0
91,-216,0,0,0,0,0,0,0,0,0,-1,1315,1240,0,0
98,-216,0,0,0,0,0,0,0,0,0,-1,1322,1240,0,0
105,-216,0,0,0,0,0,0,0,0,0,-1,1329,1240,0,0
112,-216,0,0,0,0,0,0,0,0,0,-1,1336,1240,0,0
119,-216,0,0,0,0,0,0,0,0,0,-1,1343,1240,0,0
126,-216,0,0,0,0,0,0,0,0,0,-1,1350,1240,0,0
133,-216,0,0,0,0,0,0,0,0,0,-1,1357,1240,0,0
140,-216,0,0,0,0,0,0,0,0,0,-1,1364,1240,0,0
147,-216,0,0,0,0,0,0,0,0,0,-1,1371,1240,0,0
154,-216,0,0,0,0,0,0,0,0,0,-1,1378,1240,0,0
161,-216,0,0,0,0,0,0,0,0,0,-1,1385,1240,0,0
168,-216,0,0,0,0,0,0,0,0,0,-1,1392,1240,0,0
175,-216,0,0,0,0,0,0,0,0,0,-1,1399,1240,0,0
182,-216,0,0,0,0,0,0,0,0,0,-1,1406,1240,0,0
189,-216,0,0,0,0,0,0,0,0,0,-1,1413,1240,0,0
196,-216,0,0,0,0,0,0,0,0,0,-1,1420,1240,0,0
203,-216,0,0,0,0,0,0,0,0,0,-1,1427,1240,0,0
210,-216,0,0,0,0,0,0,0,0,0,-1,1434,1240,0,0
217,-216,0,0,0,0,0,0,0,0,0,-1,1441,1240,0,0
224,-216,0,0,0,0,0,0,0,0,0,-1,1448,1240,0,0
231,-216,0,0,0,0,0,0,0,0,0,-1,1455,1240,0,0
238,-216,0,0,0,0,0,0,0,0,0,-1,1462,1240,0,0
245,-216,0,0,0,0,0,0,0,0,0,-1,1469,1240,0,0
252,-216,0,0,0,0,0,0,0,0,0,-1,1476,1240,0,0
259,-216,0,0,0,0,0,0,0,0,0,-1,1483,1240,0,0
266,-216,0,0,0,0,0,0,0,0,0,-1,1490,1240,0,0
273,-216,0,0,0,0,0,0,0,0,0,-1,1497,1240,0,0
280,-216,0,0,0,0,0,0,0,0,0,-1,1504,1240,0,0
287,-216,0,0,0,0,0,0,0,0,0,-1,1511,1240,0,0
294,-216,0,0,0,0,0,0,0,0,0,-1,1518,1240,0,0
301,-216,0,0,0,0,0,0,0,0,0,-1,1525,1240,0,0
308,-216,0,0,0,0,0,0,0,0,0,-1,1532,1240,0,0
315,-216,0,0,0,0,0,0,0,0,0,-1,1539,1240,0,0
322,-216,0,0,0,0,0,0,0,0,0,-1,1546,1240,0,0
329,-216,0,0,0,0,0,0,0,0,0,-1,1553,1240,0,0
336,-216,0,0,0,0,0,0,0,0,0,-1,1560,1240,0,0
343,-216,0,0,0,0,0,0,0,0,0,-1,1567,1240,0,0
350,-216,0,0,0,0,0,0,0,0,0,-1,1574,1240,0,0
357,-216,0,0,0,0,0,0,0,0,0,-1,1581,1240,0,0
364,-216,0,0,0,0,0,0,0,0,0,-1,1588,1240,0,0
371,-216,0,0,0,0,0,0,0,0,0,-1,1595,1240,0,0
378,-216,0,0,0,0,0,0,0,0,0,-1,1602,1240,0,0
385,-216,0,0,0,0,0,0,0,0,0,-1,1609,1240,0,0
392,-216,0,0,0,0,0,0,0,0,0,-1,1616,1240,0,0
399,-216,0,0,0,0,0,0,0,0,0,-1,1623,1240,0,0
406,-216,0,0,0,0,0,0,0,0,0,-1,1630,1240,0,0
413,-216,0,0,0,0,0,0,0,0,0,-1,1637,1240,0,0
420,-216,0,0,0,0,0,0,0,0,0,-1,1644,1240,0,0
427,-216,0,0,0,0,0,0,0,0,0,-1,1651,1240,0,0
434,-216,0,0,0,0,0,0,0,0,0,-1,1658,1240,0,0
441,-216,0,0,0,0,0,0,0,0,0,-1,1665,1240,0,0
448,-216,0,0,0,0,0,0,0,0,0,-1,1672,1240,0,0
455,-216,0,0,0,0,0,0,0,0,0,-1,1679,1240,0,0
462,-216,0,0,0,0,0,0,0,0,0,-1,1686,1240,0,0
469,-216,0,0,0,0,0,0,0,0,0,-1,1693,1240,0,0
476,-216,0,0,0,0,0,0,0,0,0,-1,1700,1240,0,0
483,-216,0,0,0,0,0,0,0,0,0,-1,1707,1240,0,0
490,-216,0,0,0,0,0,0,0,0,0,-1,1714,1240,0,0
497,-216,0,0,0,0,0,0,0,0,0,-1,1721,1240,0,0
504,-216,0,0,0,0,0,0,0,0,0,-1,1728,1240,0,0
511,-216,0,0,0,0,0,0,0,0,0,-1,1735,1240,0,0
518,-216,0,0,0,0,0,0,0,0,0,-1,1742,1240,0,0
525,-216,0,0,0,0,0,0,0,0,0,-1,1749,1240,0,0
532,-216,0,0,0,0,0,0,0,0,0,-1,1756,1240,0,0
539,-216,0,0,0,0,0,0,0,0,0,-1,1763,1240,0,0
546,-216,0,0,0,0,0,0,0,0,0,-1,1770,1240,0,0
553,-216,0,0,0,0,0,0,0,0,0,-1,1777,1240,0,0
560,-216,0,0,0,0,0,0,0,0,0,-1,1784,1240,0,0
567,-216,0,0,0,0,0,0,0,0,0,-1,1791,1240,0,0
574,-216,0,0,0,0,0,0,0,0,0,-1,1798,1240,0,0
581,-216,0,0,0,0,0,0,0,0,0,-1,1805,1240,0,0
588,-216,0,0,0,0,0,0,0,0,0,-1,1812,1240,0,0
595,-216,0,0,0,0,0,0,0,0,0,-1,1819,1240,0,0
602,-216,0,0,0,0,0,0,0,0,0,-1,1826,1240,0,0
609,-216,0,0,0,0,0,0,0,0,0,-1,1833,1240,0,0
616,-216,0,0,0,0,0,0,0,0,0,-1,1840,1240,0,0
623,-216,4.84973,0.436401,6.24863e-05,0.0029704,0.00308274,0.00492485,-0.00189197,1.00575,0.00406346,0.0384105,1847,1240,4.84978,-0.436399
630,-216,4.88965,0.553467,0.00273349,0.00058205,0.00127146,0.00332324,-7.70076e-06,0.434301,0.00221806,0.036042,1854,1240,4.8897,-0.553495
637,-216,4.89038,0.634277,0.00344332,-0.000870224,-0.000327192,0.003468,-0.000894901,-0.0752782,0.00266094,0.0311942,1861,1240,4.89039,-0.634242
644,-216,4.94727,0.664185,0.00307286,-0.00198339,-0.00174815,0.0036184,-0.00252894,-0.302492,0.0035677,0.0240993,1868,1240,4.94729,-0.664217
651,-216,4.97327,0.686646,0.0023021,-0.00265957,-0.0027041,0.00349096,-0.00384843,-0.414216,0.00423907,0.0203121,1875,1240,4.97327,-0.686702
658,-216,5.01416,0.748779,0.00136906,-0.00302004,-0.00328397,0.00312425,-0.00477524,-0.490845,0.00459386,0.0286817,1882,1240,5.0142,-0.748748
665,-216,5.07373,0.657471,0.000422233,-0.00315072,-0.00354073,0.00260164,-0.00533013,-0.551758,0.00466886,0.0410762,1889,1240,5.07377,-0.657509
672,-216,5.73022,2.25,0,0,0,0,0,0,0,-1,1896,1240,5.73022,-2.24998
679,-216,5.80005,1.9939,-0.00107994,-0.00302526,-0.00343296,0.00151549,-0.00562069,-0.647352,0.00434137,0.0433894,1903,1240,5.80002,-1.99386
686,-216,4.79871,1.09558,-0.00160619,-0.00281027,-0.00319865,0.00104658,-0.00546305,-0.692378,0.00403637,0.0462597,1910,1240,4.79869,-1.09553
693,-216,4.49609,0.982666,-0.00196676,-0.00244259,-0.00272594,0.000531631,-0.00494098,-0.741869,0.00348474,0.0322536,1917,1240,4.49608,-0.982697
700,-216,4.52124,0.988037,-0.00209385,-0.00206047,-0.00223182,0.000154724,-0.00430905,-0.789138,0.00292564,0.0128041,1924,1240,4.52121,-0.988019
707,-216,4.51709,0.947632,-0.00213887,-0.00159891,-0.00173234,-0.000115636,-0.00362214,-0.8627,0.00237715,0.0143578,1931,1240,4.51704,-0.947594
714,-216,4.51587,0.920654,-0.00201825,-0.00103647,-0.00123193,-0.000201225,-0.00285349,-0.974993,0.00183893,0.0141282,1938,1240,4.51581,-0.920699
721,-216,4.50354,0.895752,-0.00127179,0.000250396,-0.0012011,0.000911239,-0.00193264,-1.0678,0.00167684,0.0131423,1945,1240,4.50356,-0.895737
728,-216,4.53821,0.856934,-0.000533111,0.000524431,-0.00126897,0.00137039,-0.00137907,-0.982805,0.0015874,0.0110295,1952,1240,4.53826,-0.856954
735,-216,4.55078,0.838501,0.000233723,0.00131516,-0.00129989,0.00218231,-0.000633423,-0.982498,0.00170568,0.00981715,1959,1240,4.55083,-0.838507
742,-216,4.53577,0.837524,0.00095674,0.00227567,-0.00156822,0.00331744,-8.50316e-05,-0.984432,0.00224051,0.0107065,1966,1240,4.53573,-0.837495
749,-216,4.53235,0.80835,0.00147346,0.00319969,-0.00211572,0.00462158,5.15697e-05,-0.979071,0.00306401,0.00841434,1973,1240,4.53232,-0.808358
756,-216,4.50488,0.770264,0.00203655,0.00419733,-0.00275708,0.00607814,0.000155738,-0.972133,0.00400119,0.00855788,1980,1240,4.50487,-0.7703
763,-216,4.4884,0.738403,0.00269843,0.00534285,-0.00341993,0.00768727,0.000354006,-0.969857,0.00501101,0.0141916,1987,1240,4.48846,-0.738455
770,-216,4.48376,0.672852,0.00336382,0.00659057,-0.00403821,0.00932577,0.000628619,-0.975447,0.00601859,0.0366065,1994,1240,4.48373,-0.672843
777,-216,4.38281,0.581055,0.00389522,0.00787235,-0.0044631,0.0107699,0.000997716,-0.994974,0.00687152,0.0475056,2001,1240,4.38277,-0.581082
784,-216,4.28345,0.576294,0.00409297,0.00908261,-0.00453242,0.0117615,0.00141412,-1.03699,0.00741469,0.0491923,2008,1240,4.28346,-0.576299
791,-216,4.25854,0.555176,0,0,0,0,0,0,0,-1,2015,1240,4.25857,-0.555181
798,-216,0,0,0,0,0,0,0,0,0,-1,2022,1240,0,0
805,-216,0,0,0,0,0,0,0,0,0,-1,2029,1240,0,0
812,-216,0,0,0,0,0,0,0,0,0,-1,2036,1240,0,0
-700,-223,0,0,0,0,0,0,0,0,0,-1,524,1247,0,0
-693,-223,0,0,0,0,0,0,0,0,0,-1,531,1247,0,0
-686,-223,0,0,0,0,0,0,0,0,0,-1,538,1247,0,0
-679,-223,0,0,0,0,0,0,0,0,0,-1,545,1247,0,0
-672,-223,2.3515,-2.40259,0,0,0,0,0,0,0,-1,552,1247,2.35153,2.40255
-665,-223,1.47858,-1.96692,-0.0902456,0.0450851,0.045288,0.0588421,-0.104003,1.27589,0.095216,0.0481231,559,1247,1.47856,1.96698
-658,-223,0.610718,-1.50208,-0.0677828,0.0391424,0.0401507,0.0525403,-0.0811807,1.24872,0.0777919,0.0456199,566,1247,0.610702,1.50213
-651,-223,-0.352844,-1.23743,0,0,0,0,0,0,0,-1,573,1247,-0.352848,1.23747
-644,-223,-0.130737,-0.654419,-0.0367508,0.0282662,0.02829,0.0388521,-0.0473367,1.21273,0.0498415,0.0465849,580,1247,-0.130744,0.654461
-637,-223,-0.939941,0.928345,0,0,0,0,0,0,0,-1,587,1247,-0.939924,-0.928359
-630,-223,-0.717224,0.807861,-0.018029,0.0190072,0.0174574,0.0259386,-0.0249604,1.19283,0.0293884,0.0371237,594,1247,-0.717237,-0.807916
-623,-223,-0.559265,0.669434,-0.0108485,0.0151014,0.0127257,0.0203004,-0.0160475,1.18295,0.0210333,0.0202705,601,1247,-0.559239,-0.66949
-616,-223,-0.556335,0.74292,-0.00593349,0.0112811,0.00864323,0.0148718,-0.00952419,1.17706,0.0141974,0.0152673,608,1247,-0.556308,-0.742929
-609,-223,-0.543579,0.757935,-0.00286977,0.00732995,0.00541308,0.00966716,-0.00520698,1.1632,0.00871533,0.0118785,615,1247,-0.543592,-0.757878
-602,-223,-0.540833,0.762085,-0.00141985,0.00368716,0.00293075,0.00502077,-0.00275346,1.14376,0.00455164,0.0139386,622,1247,-0.540804,-0.762123
-595,-223,-0.526367,0.779297,-0.00153681,0.0032308,0.000989624,0.00342806,-0.00173407,1.37405,0.00303337,0.0185808,629,1247,-0.526345,-0.779282
-588,-223,-0.497192,0.80957,-0.00205444,0.000945633,8.00331e-05,0.000947766,-0.00205657,1.54414,0.0017735,0.0215347,636,1247,-0.497194,-0.809534
-581,-223,-0.494446,0.85498,-0.00269771,-0.00139208,0.000665573,-0.00111261,-0.00297718,1.17326,0.00173705,0.0210997,643,1247,-0.494428,-0.855014
-574,-223,-0.548218,0.862671,-0.00293435,-0.00179012,0.000607114,-0.00152803,-0.00319645,1.16326,0.00184606,0.0174908,650,1247,-0.548232,-0.862658
-567,-223,-0.517761,0.914429,-0.00277585,-0.00268678,5.82739e-05,-0.00265798,-0.00280466,1.11167,0.00182285,0.0211771,657,1247,-0.517747,-0.914395
-560,-223,-0.514465,0.930176,-0.0023866,-0.00353894,-0.000537915,-0.00217453,-0.00375101,-0.375535,0.0021748,0.0352759,664,1247,-0.514474,-0.930164
-553,-223,-1.0094,1.55347,-0.0018105,-0.0039361,-0.00117785,-0.00128683,-0.00445977,-0.418349,0.00265049,0.0454815,671,1247,-1.00939,-1.55344
-546,-223,-1.43707,2.16113,0,0,0,0,0,0,0,-1,678,1247,-1.43707,-2.16117
-539,-223,-0.830811,0.817261,0,0,0,0,0,0,0,-1,685,1247,-0.83082,-0.817243
-532,-223,-1.17096,1.39697,0,0,0,0,0,0,0,-1,692,1247,-1.17093,-1.39701
-525,-223,-1.85486,2.27161,0,0,0,0,0,0,0,-1,699,1247,-1.85487,-2.27159
-518,-223,-0.875122,0.735962,0.00659786,-0.00667877,-0.00782398,0.0102202,-0.0103012,-0.433599,0.0118481,0.0394737,706,1247,-0.875149,-0.735929
-511,-223,-0.859985,0.694824,0.00900793,-0.00687498,-0.00911517,0.0131558,-0.0110229,-0.427051,0.0139777,0.0369518,713,1247,-0.860001,-0.694779
-504,-223,-0.869934,0.743286,0.0103867,-0.00680433,-0.00949726,0.0146006,-0.0110182,-0.417599,0.0148391,0.0369367,720,1247,-0.86991,-0.743249
-497,-223,0,0,0,0,0,0,0,0,0,-1,727,1247,0,0
-490,-223,0,0,0,0,0,0,0,0,0,-1,734,1247,0,0
-483,-223,0,0,0,0,0,0,0,0,0,-1,741,1247,0,0
-476,-223,0,0,0,0,0,0,0,0,0,-1,748,1247,0,0
-469,-223,0,0,0,0,0,0,0,0,0,-1,755,1247,0,0
-462,-223,0,0,0,0,0,0,0,0,0,-1,762,1247,0,0
-455,-223,0,0,0,0,0,0,0,0,0,-1,769,1247,0,0
-448,-223,0,0,0,0,0,0,0,0,0,-1,776,1247,0,0
-441,-223,0,0,0,0,0,0,0,0,0,-1,783,1247,0,0
-434,-223,0,0,0,0,0,0,0,0,0,-1,790,1247,0,0
-427,-223,0,0,0,0,0,0,0,0,0,-1,797,1247,0,0
-420,-223,0,0,0,0,0,0,0,0,0,-1,804,1247,0,0
-413,-223,0,0,0,0,0,0,0,0,0,-1,811,1247,0,0
-406,-223,0,0,0,0,0,0,0,0,0,-1,818,1247,0,0
-399,-223,0,0,0,0,0,0,0,0,0,-1,825,1247,0,0
-392,-223,0,0,0,0,0,0,0,0,0,-1,832,1247,0,0
-385,-223,0,0,0,0,0,0,0,0,0,-1,839,1247,0,0
-378,-223,0,0,0,0,0,0,0,0,0,-1,846,1247,0,0
-371,-223,0,0,0,0,0,0,0,0,0,-1,853,1247,0,0
-364,-223,0,0,0,0,0,0,0,0,0,-1,860,1247,0,0
-357,-223,0,0,0,0,0,0,0,0,0,-1,867,1247,0,0
-350,-223,0,0,0,0,0,0,0,0,0,-1,874,1247,0,0
-343,-223,0,0,0,0,0,0,0,0,0,-1,881,1247,0,0
-336,-223,0,0,0,0,0,0,0,0,0,-1,888,1247,0,0
-329,-223,0,0,0,0,0,0,0,0,0,-1,895,1247,0,0
-322,-223,0,0,0,0,0,0,0,0,0,-1,902,1247,0,0
-315,-223,0,0,0,0,0,0,0,0,0,-1,909,1247,0,0
-308,-223,0,0,0,0,0,0,0,0,0,-1,916,1247,0,0
-301,-223,0,0,0,0,0,0,0,0,0,-1,923,1247,0,0
-294,-223,0,0,0,0,0,0,0,0,0,-1,930,1247,0,0
-287,-223,0,0,0,0,0,0,0,0,0,-1,937,1247,0,0
-280,-223,0,0,0,0,0,0,0,0,0,-1,944,1247,0,0
-273,-223,0,0,0,0,0,0,0,0,0,-1,951,1247,0,0
-266,-223,0,0,0,0,0,0,0,0,0,-1,958,1247,0,0
-259,-223,0,0,0,0,0,0,0,0,0,-1,965,1247,0,0
-252,-223,0,0,0,0,0,0,0,0,0,-1,972,1247,0,0
-245,-223,0,0,0,0,0,0,0,0,0,-1,979,1247,0,0
-238,-223,0,0,0,0,0,0,0,0,0,-1,986,1247,0,0
-231,-223,0,0,0,0,0,0,0,0,0,-1,993,1247,0,0
-224,-223,0,0,0,0,0,0,0,0,0,-1,1000,1247,0,0
-217,-223,0,0,0,0,0,0,0,0,0,-1,1007,1247,0,0
-210,-223,0,0,0,0,0,0,0,0,0,-1,1014,1247,0,0
-203,-223,0,0,0,0,0,0,0,0,0,-1,1021,1247,0,0
-196,-223,0,0,0,0,0,0,0,0,0,-1,1028,1247,0,0
-189,-223,0,0,0,0,0,0,0,0,0,-1,1035,1247,0,0
-182,-223,0,0,0,0,0,0,0,0,0,-1,1042,1247,0,0
-175,-223,0,0,0,0,0,0,0,0,0,-1,1049,1247,0,0
-168,-223,0,0,0,0,0,0,0,0,0,-1,1056,1247,0,0
-161,-223,0,0,0,0,0,0,0,0,0,-1,1063,1247,0,0
-154,-223,0,0,0,0,0,0,0,0,0,-1,1070,1247,0,0
-147,-223,0,0,0,0,0,0,0,0,0,-1,1077,1247,0,0
-140,-223,0,0,0,0,0,0,0,0,0,-1,1084,1247,0,0
-133,-223,0,0,0,0,0,0,0,0,0,-1,1091,1247,0,0
-126,-223,0,0,0,0,0,0,0,0,0,-1,1098,1247,0,0
-119,-223,0,0,0,0,0,0,0,0,0,-1,1105,1247,0,0
-112,-223,0,0,0,0,0,0,0,0,0,-1,1112,1247,0,0
-105,-223,0,0,0,0,0,0,0,0,0,-1,1119,1247,0,0
-98,-223,0,0,0,0,0,0,0,0,0,-1,1126,1247,0,0
-91,-223,0,0,0,0,0,0,0,0,0,-1,1133,1247,0,0
-84,-223,0,0,0,0,0,0,0,0,0,-1,1140,1247,0,0
-77,-223,0,0,0,0,0,0,0,0,0,-1,1147,1247,0,0
-70,-223,0,0,0,0,0,0,0,0,0,-1,1154,1247,0,0
-63,-223,0,0,0,0,0,0,0,0,0,-1,1161,1247,0,0
-56,-223,0,0,0,0,0,0,0,0,0,-1,1168,1247,0,0
-49,-223,0,0,0,0,0,0,0,0,0,-1,1175,1247,0,0
-42,-223,0,0,0,0,0,0,0,0,0,-1,1182,1247,0,0
-35,-223,0,0,0,0,0,0,0,0,0,-1,1189,1247,0,0
-28,-223,0,0,0,0,0,0,0,0,0,-1,1196,1247,0,0
-21,-223,0,0,0,0,0,0,0,0,0,-1,1203,1247,0,0
-14,-223,0,0,0,0,0,0,0,0,0,-1,1210,1247,0,0
-7,-223,0,0,0,0,0,0,0,0,0,-1,1217,1247,0,0
0,-223,0,0,0,0,0,0,0,0,0,-1,1224,1247,0,0
7,-223,0,0,0,0,0,0,0,0,0,-1,1231,1247,0,0
14,-223,0,0,0,0,0,0,0,0,0,-1,1238,1247,0,0
21,-223,0,0,0,0,0,0,0,0,0,-1,1245,1247,0,0
28,-223,0,0,0,0,0,0,0,0,0,-1,1252,1247,0,0
35,-223,0,0,0,0,0,0,0,0,0,-1,1259,1247,0,0
42,-223,0,0,0,0,0,0,0,0,0,-1,1266,1247,0,0
49,-223,0,0,0,0,0,0,0,0,0,-1,1273,1247,0,0
56,-223,0,0,0,0,0,0,0,0,0,-1,1280,1247,0,0
63,-223,0,0,0,0,0,0,0,0,0,-1,1287,1247,0,0
70,-223,0,0,0,0,0,0,0,0,0,-1,1294,1247,0,0
77,-223,0,0,0,0,0,0,0,0,0,-1,1301,1247,0,0
84,-223,0,0,0,0,0,0,0,0,0,-1,1308,1247,0,0
91,-223,0,0,0,0,0,0,0,0,0,-1,1315,1247,0,0
98,-223,0,0,0,0,0,0,0,0,0,-1,1322,1247,0,0
105,-223,0,0,0,0,0,0,0,0,0,-1,1329,1247,0,0
112,-223,0,0,0,0,0,0,0,0,0,-1,1336,1247,0,0
119,-223,0,0,0,0,0,0,0,0,0,-1,1343,1247,0,0
126,-223,0,0,0,0,0,0,0,0,0,-1,1350,1247,0,0
133,-223,0,0,0,0,0,0,0,0,0,-1,1357,1247,0,0
140,-223,0,0,0,0,0,0,0,0,0,-1,1364,1247,0,0
147,-223,0,0,0,0,0,0,0,0,0,-1,1371,1247,0,0
154,-223,0,0,0,0,0,0,0,0,0,-1,1378,1247,0,0
161,-223,0,0,0,0,0,0,0,0,0,-1,1385,1247,0,0
168,-223,0,0,0,0,0,0,0,0,0,-1,1392,1247,0,0
175,-223,0,0,0,0,0,0,0,0,0,-1,1399,1247,0,0
182,-223,0,0,0,0,0,0,0,0,0,-1,1406,1247,0,0
189,-223,0,0,0,0,0,0,0,0,0,-1,1413,1247,0,0
196,-223,0,0,0,0,0,0,0,0,0,-1,1420,1247,0,0
203,-223,0,0,0,0,0,0,0,0,0,-1,1427,1247,0,0
210,-223,0,0,0,0,0,0,0,0,0,-1,1434,1247,0,0
217,-223,0,0,0,0,0,0,0,0,0,-1,1441,1247,0,0
224,-223,0,0,0,0,0,0,0,0,0,-1,1448,1247,0,0
231,-223,0,0,0,0,0,0,0,0,0,-1,1455,1247,0,0
238,-223,0,0,0,0,0,0,0,0,0,-1,1462,1247,0,0
245,-223,0,0,0,0,0,0,0,0,0,-1,1469,1247,0,0
252,-223,0,0,0,0,0,0,0,0,0,-1,1476,1247,0,0
259,-223,0,0,0,0,0,0,0,0,0,-1,1483,1247,0,0
266,-223,0,0,0,0,0,0,0,0,0,-1,1490,1247,0,0
273,-223,0,0,0,0,0,0,0,0,0,-1,1497,1247,0,0
280,-223,0,0,0,0,0,0,0,0,0,-1,1504,1247,0,0
287,-223,0,0,0,0,0,0,0,0,0,-1,1511,1247,0,0
294,-223,0,0,0,0,0,0,0,0,0,-1,1518,1247,0,0
301,-223,0,0,0,0,0,0,0,0,0,-1,1525,1247,0,0
308,-223,0,0,0,0,0,0,0,0,0,-1,1532,1247,0,0
315,-223,0,0,0,0,0,0,0,0,0,-1,1539,1247,0,0
322,-223,0,0,0,0,0,0,0,0,0,-1,1546,1247,0,0
329,-223,0,0,0,0,0,0,0,0,0,-1,1553,1247,0,0
336,-223,0,0,0,0,0,0,0,0,0,-1,1560,1247,0,0
343,-223,0,0,0,0,0,0,0,0,0,-1,1567,1247,0,0
350,-223,0,0,0,0,0,0,0,0,0,-1,1574,1247,0,0
357,-223,0,0,0,0,0,0,0,0,0,-1,1581,1247,0,0
364,-223,0,0,0,0,0,0,0,0,0,-1,1588,1247,0,0
371,-223,0,0,0,0,0,0,0,0,0,-1,1595,1247,0,0
378,-223,0,0,0,0,0,0,0,0,0,-1,1602,1247,0,0
385,-223,0,0,0,0,0,0,0,0,0,-1,1609,1247,0,0
392,-223,0,0,0,0,0,0,0,0,0,-1,1616,1247,0,0
399,-223,0,0,0,0,0,0,0,0,0,-1,1623,1247,0,0
406,-223,0,0,0,0,0,0,0,0,0,-1,1630,1247,0,0
413,-223,0,0,0,0,0,0,0,0,0,-1,1637,1247,0,0
420,-223,0,0,0,0,0,0,0,0,0,-1,1644,1247,0,0
427,-223,0,0,0,0,0,0,0,0,0,-1,1651,1247,0,0
434,-223,0,0,0,0,0,0,0,0,0,-1,1658,1247,0,0
441,-223,0,0,0,0,0,0,0,0,0,-1,1665,1247,0,0
448,-223,0,0,0,0,0,0,0,0,0,-1,1672,1247,0,0
455,-223,0,0,0,0,0,0,0,0,0,-1,1679,1247,0,0
462,-223,0,0,0,0,0,0,0,0,0,-1,1686,1247,0,0
469,-223,0,0,0,0,0,0,0,0,0,-1,1693,1247,0,0
476,-223,0,0,0,0,0,0,0,0,0,-1,1700,1247,0,0
483,-223,0,0,0,0,0,0,0,0,0,-1,1707,1247,0,0
490,-223,0,0,0,0,0,0,0,0,0,-1,1714,1247,0,0
497,-223,0,0,0,0,0,0,0,0,0,-1,1721,1247,0,0
504,-223,0,0,0,0,0,0,0,0,0,-1,1728,1247,0,0
511,-223,0,0,0,0,0,0,0,0,0,-1,1735,1247,0,0
518,-223,0,0,0,0,0,0,0,0,0,-1,1742,1247,0,0
525,-223,0,0,0,0,0,0,0,0,0,-1,1749,1247,0,0
532,-223,0,0,0,0,0,0,0,0,0,-1,1756,1247,0,0
539,-223,0,0,0,0,0,0,0,0,0,-1,1763,1247,0,0
546,-223,0,0,0,0,0,0,0,0,0,-1,1770,1247,0,0
553,-223,0,0,0,0,0,0,0,0,0,-1,1777,1247,0,0
560,-223,0,0,0,0,0,0,0,0,0,-1,1784,1247,0,0
567,-223,0,0,0,0,0,0,0,0,0,-1,1791,1247,0,0
574,-223,0,0,0,0,0,0,0,0,0,-1,1798,1247,0,0
581,-223,0,0,0,0,0,0,0,0,0,-1,1805,1247,0,0
588,-223,0,0,0,0,0,0,0,0,0,-1,1812,1247,0,0
595,-223,0,0,0,0,0,0,0,0,0,-1,1819,1247,0,0
602,-223,0,0,0,0,0,0,0,0,0,-1,1826,1247,0,0
609,-223,0,0,0,0,0,0,0,0,0,-1,1833,1247,0,0
616,-223,0,0,0,0,0,0,0,0,0,-1,1840,1247,0,0
623,-223,4.81287,0.484619,0.000489588,0.00145096,0.00346698,0.00447041,-0.00252987,0.854283,0.00409305,0.0376645,1847,1247,4.81282,-0.484614
630,-223,4.85193,0.526001,0.00351109,-0.00041132,0.00133851,0.00392432,-0.000824549,0.29944,0.00293,0.0342629,1854,1247,4.85198,-0.525989
637,-223,4.94849,0.704224,0.00444248,-0.00142539,-0.000594169,0.00450204,-0.00148495,-0.099907,0.00359992,0.0283093,1861,1247,4.94849,-0.704185
644,-223,4.96094,0.693604,0.00420567,-0.00209887,-0.00222338,0.00491089,-0.00280409,-0.307145,0.00450927,0.0210411,1868,1247,4.96099,-0.693662
651,-223,4.92969,0.682739,0.00346576,-0.00242703,-0.00333966,0.00497296,-0.00393424,-0.423939,0.00515422,0.0242419,1875,1247,4.92973,-0.68275
658,-223,4.96667,0.908325,0,0,0,0,0,0,0,-1,1882,1247,4.9667,-0.908369
665,-223,5.06226,1.59595,0.00143658,-0.00252605,-0.00434954,0.00423482,-0.00532429,-0.57168,0.00553089,0.0421695,1889,1247,5.06223,-1.59589
672,-223,5.0769,1.92944,0.000486934,-0.00244278,-0.00437485,0.00363566,-0.0055915,-0.623847,0.00536705,0.0400505,1896,1247,5.07685,-1.9294
679,-223,5.15869,1.81738,-0.000388261,-0.00230119,-0.0042475,0.00300913,-0.00569858,-0.674654,0.0051067,0.0408227,1903,1247,5.15866,-1.81735
686,-223,4.93115,1.35425,-0.00110025,-0.00205031,-0.00394828,0.00240147,-0.00555203,-0.725529,0.00471051,0.041191,1910,1247,4.93112,-1.35425
693,-223,4.48804,0.995239,-0.00163974,-0.00168049,-0.00337129,0.00171123,-0.00503147,-0.782376,0.00404717,0.0204858,1917,1247,4.48801,-0.995219
700,-223,4.50195,0.950928,-0.00187919,-0.00133318,-0.0028264,0.00123337,-0.00444574,-0.833545,0.00344926,0.00928811,1924,1247,4.50192,-0.950887
707,-223,4.50085,0.938965,-0.0019475,-0.000925722,-0.00221489,0.000836433,-0.00370965,-0.898746,0.00279396,0.0122692,1931,1247,4.50082,-0.938912
714,-223,4.49268,0.919067,-0.00178204,-0.000446919,-0.00160361,0.000622531,-0.00285149,-0.982631,0.00213892,0.0122131,1938,1247,4.49264,-0.919117
721,-223,4.49182,0.876099,-0.00084046,0.000980145,-0.00160913,0.00191861,-0.00177893,-1.04281,0.00213528,0.0142012,1945,1247,4.49179,-0.876115
728,-223,4.49365,0.851929,0.000131148,0.00136105,-0.00173857,0.00259023,-0.00109803,-0.955386,0.00218674,0.0145406,1952,1247,4.49362,-0.851982
735,-223,4.49097,0.835327,0.00114191,0.00224444,-0.00188816,0.00366016,-0.000273813,-0.92743,0.00253631,0.0127971,1959,1247,4.49097,-0.835354
742,-223,4.48438,0.822266,0.00222549,0.00343519,-0.0023277,0.00523534,0.000425337,-0.912511,0.00335744,0.0110842,1966,1247,4.48434,-0.822227
749,-223,4.49438,0.783813,0.00318006,0.00465265,-0.00307789,0.00708108,0.000751619,-0.902802,0.0044912,0.00902958,1973,1247,4.49441,-0.783829
756,-223,4.4884,0.753418,0.00426506,0.00601439,-0.00394003,0.00917567,0.00110378,-0.894624,0.0057844,0.00968201,1980,1247,4.48837,-0.753445
763,-223,4.4917,0.729614,0.00555514,0.00754404,-0.00482466,0.0114757,0.00162352,-0.887034,0.0071708,0.0127752,1987,1247,4.49165,-0.729586
770,-223,4.44629,0.638306,0.00692308,0.0091509,-0.00563814,0.0137841,0.00228987,-0.882926,0.0085292,0.0351106,1994,1247,4.44623,-0.638274
777,-223,4.39832,0.540894,0,0,0,0,0,0,0,-1,2001,1247,4.39833,-0.540915
784,-223,4.23145,0.613159,0,0,0,0,0,0,0,-1,2008,1247,4.23144,-0.61316
791,-223,8.69519,-2.37598,0,0,0,0,0,0,0,-1,2015,1247,8.69515,2.37598
798,-223,0,0,0,0,0,0,0,0,0,-1,2022,1247,0,0
805,-223,0,0,0,0,0,0,0,0,0,-1,2029,1247,0,0
812,-223,0,0,0,0,0,0,0,0,0,-1,2036,1247,0,0
-700,-230,0,0,0,0,0,0,0,0,0,-1,524,1254,0,0
-693,-230,0,0,0,0,0,0,0,0,0,-1,531,1254,0,0
-686,-230,0,0,0,0,0,0,0,0,0,-1,538,1254,0,0
-679,-230,0,0,0,0,0,0,0,0,0,-1,545,1254,0,0
-672,-230,2.92999,-3.07239,0,0,0,0,0,0,0,-1,552,1254,2.93001,3.0724
-665,-230,2.29279,-2.43506,-0.0927502,0.0552215,0.0477954,0.069317,-0.106846,1.28401,0.102474,0.0429234,559,1254,2.29277,2.43508
-658,-230,0.861328,-2.05933,-0.0703255,0.0477923,0.0412552,0.0607747,-0.0833079,1.26592,0.0835245,0.0445776,566,1254,0.861318,2.05932
-651,-230,0.020813,-1.6145,-0.0526158,0.0409028,0.0345494,0.052282,-0.0639951,1.25262,0.0672461,0.04609,573,1254,0.0208313,1.61445
-644,-230,-1.59875,4.89404,-0.0386116,0.0345421,0.0280856,0.044081,-0.0481506,1.24338,0.0532672,0.0466737,580,1254,-1.59877,-4.89408
-637,-230,-1.72083,5.21582,0,0,0,0,0,0,0,-1,587,1254,-1.7208,-5.21581
-630,-230,-0.513855,0.848755,-0.019064,0.0233174,0.0169,0.0292312,-0.0249778,1.23418,0.0313297,0.0400574,594,1254,-0.513833,-0.848703
-623,-230,-0.532227,0.769653,-0.0117709,0.0185825,0.0122644,0.0229186,-0.016107,1.23096,0.0226455,0.0253869,601,1254,-0.53222,-0.769676
-616,-230,-0.533081,0.74353,-0.00670085,0.0141277,0.0083361,0.0170531,-0.00962629,1.23329,0.015601,0.015478,608,1254,-0.533072,-0.74347
-609,-230,-0.499939,0.75,-0.0033813,0.00953795,0.00531361,0.0114426,-0.00528596,1.22661,0.00987386,0.0115497,615,1254,-0.499932,-0.750035
-602,-230,-0.499268,0.785278,-0.00133419,0.00527074,0.00314093,0.00652588,-0.00258932,1.19063,0.00542379,0.0111179,622,1254,-0.499248,-0.785237
-595,-230,-0.502075,0.810669,-0.00128781,0.00445791,0.00119704,0.00469732,-0.00152722,1.3734,0.00374588,0.0174592,629,1254,-0.502055,-0.810687
-588,-230,-0.483276,0.792114,-0.00183542,0.0017459,0.000432421,0.00179737,-0.00188689,1.45232,0.00212732,0.0244649,636,1254,-0.483289,-0.792133
-581,-230,-0.508728,0.823975,-0.00244413,-0.000764825,0.00108248,-0.000234522,-0.00297443,1.11526,0.00190958,0.0238116,643,1254,-0.508701,-0.823942
-574,-230,-0.529236,0.877197,-0.00276574,-0.000999034,0.000967798,-0.000572065,-0.00319271,1.15531,0.00196573,0.0169771,650,1254,-0.529245,-0.877173
-567,-230,-0.489014,0.904785,-0.00272484,-0.0019614,0.000253605,-0.00188484,-0.00280141,1.27759,0.00164928,0.0172212,657,1254,-0.489017,-0.90481
-560,-230,-0.465271,0.949707,-0.00231889,-0.00274277,-0.000454716,-0.00202915,-0.00303252,-0.567318,0.0017839,0.0284673,664,1254,-0.465269,-0.949746
-553,-230,-0.586243,1.64075,-0.00187621,-0.00295008,-0.00116707,-0.00112848,-0.00369781,-0.5698,0.00218829,0.0424475,671,1254,-0.586262,-1.64077
-546,-230,-0.391113,1.0094,0,0,0,0,0,0,0,-1,678,1254,-0.39114,-1.00937
-539,-230,-1.21277,2.30688,0,0,0,0,0,0,0,-1,685,1254,-1.21276,-2.30683
-532,-230,-1.77307,2.38647,0.00112073,-0.00408808,-0.00483172,0.00400526,-0.00697262,-0.538211,0.0064148,0.0402607,692,1254,-1.77305,-2.38648
-525,-230,-1.8421,2.2373,0.00270033,-0.0043922,-0.00646744,0.00652996,-0.00822183,-0.53462,0.0085356,0.0444441,699,1254,-1.84212,-2.23735
-518,-230,-1.11365,1.10767,0,0,0,0,0,0,0,-1,706,1254,-1.11367,-1.10769
-511,-230,-0.848083,0.772949,0.00625433,-0.00452059,-0.00938174,0.0116855,-0.00995171,-0.524763,0.0125056,0.0363203,713,1254,-0.848094,-0.772987
-504,-230,-0.806763,0.757324,0.00738357,-0.00416008,-0.00983018,0.0130111,-0.00978766,-0.519938,0.0132067,0.0358748,720,1254,-0.806749,-0.757273
-497,-230,0,0,0,0,0,0,0,0,0,-1,727,1254,0,0
-490,-230,0,0,0,0,0,0,0,0,0,-1,734,1254,0,0
-483,-230,0,0,0,0,0,0,0,0,0,-1,741,1254,0,0
-476,-230,0,0,0,0,0,0,0,0,0,-1,748,1254,0,0
-469,-230,0,0,0,0,0,0,0,0,0,-1,755,1254,0,0
-462,-230,0,0,0,0,0,0,0,0,0,-1,762,1254,0,0
-455,-230,0,0,0,0,0,0,0,0,0,-1,769,1254,0,0
-448,-230,0,0,0,0,0,0,0,0,0,-1,776,1254,0,0
-441,-230,0,0,0,0,0,0,0,0,0,-1,783,1254,0,0
-434,-230,0,0,0,0,0,0,0,0,0,-1,790,1254,0,0
-427,-230,0,0,0,0,0,0,0,0,0,-1,797,1254,0,0
-420,-230,0,0,0,0,0,0,0,0,0,-1,804,1254,0,0
-413,-230,0,0,0,0,0,0,0,0,0,-1,811,1254,0,0
-406,-230,0,0,0,0,0,0,0,0,0,-1,818,1254,0,0
-399,-230,0,0,0,0,0,0,0,0,0,-1,825,1254,0,0
-392,-230,0,0,0,0,0,0,0,0,0,-1,832,1254,0,0
-385,-230,0,0,0,0,0,0,0,0,0,-1,839,1254,0,0
-378,-230,0,0,0,0,0,0,0,0,0,-1,846,1254,0,0
-371,-230,0,0,0,0,0,0,0,0,0,-1,853,1254,0,0
-364,-230,0,0,0,0,0,0,0,0,0,-1,860,1254,0,0
-357,-230,0,0,0,0,0,0,0,0,0,-1,867,1254,0,0
-350,-230,0,0,0,0,0,0,0,0,0,-1,874,1254,0,0
-343,-230,0,0,0,0,0,0,0,0,0,-1,881,1254,0,0
-336,-230,0,0,0,0,0,0,0,0,0,-1,888,1254,0,0
-329,-230,0,0,0,0,0,0,0,0,0,-1,895,1254,0,0
-322,-230,0,0,0,0,0,0,0,0,0,-1,902,1254,0,0
-315,-230,0,0,0,0,0,0,0,0,0,-1,909,1254,0,0
-308,-230,0,0,0,0,0,0,0,0,0,-1,916,1254,0,0
-301,-230,0,0,0,0,0,0,0,0,0,-1,923,1254,0,0
-294,-230,0,0,0,0,0,0,0,0,0,-1,930,1254,0,0
-287,-230,0,0,0,0,0,0,0,0,0,-1,937,1254,0,0
-280,-230,0,0,0,0,0,0,0,0,0,-1,944,1254,0,0
-273,-230,0,0,0,0,0,0,0,0,0,-1,951,1254,0,0
-266,-230,0,0,0,0,0,0,0,0,0,-1,958,1254,0,0
-259,-230,0,0,0,0,0,0,0,0,0,-1,965,1254,0,0
-252,-230,0,0,0,0,0,0,0,0,0,-1,972,1254,0,0
-245,-230,0,0,0,0,0,0,0,0,0,-1,979,1254,0,0
-238,-230,0,0,0,0,0,0,0,0,0,-1,986,1254,0,0
-231,-230,0,0,0,0,0,0,0,0,0,-1,993,1254,0,0
-224,-230,0,0,0,0,0,0,0,0,0,-1,1000,1254,0,0
-217,-230,0,0,0,0,0,0,0,0,0,-1,1007,1254,0,0
-210,-230,0,0,0,0,0,0,0,0,0,-1,1014,1254,0,0
-203,-230,0,0,0,0,0,0,0,0,0,-1,1021,1254,0,0
-196,-230,0,0,0,0,0,0,0,0,0,-1,1028,1254,0,0
-189,-230,0,0,0,0,0,0,0,0,0,-1,1035,1254,0,0
-182,-230,0,0,0,0,0,0,0,0,0,-1,1042,1254,0,0
-175,-230,0,0,0,0,0,0,0,0,0,-1,1049,1254,0,0
-168,-230,0,0,0,0,0,0,0,0,0,-1,1056,1254,0,0
-161,-230,0,0,0,0,0,0,0,0,0,-1,1063,1254,0,0
-154,-230,0,0,0,0,0,0,0,0,0,-1,1070,1254,0,0
-147,-230,0,0,0,0,0,0,0,0,0,-1,1077,1254,0,0
-140,-230,0,0,0,0,0,0,0,0,0,-1,1084,1254,0,0
-133,-230,0,0,0,0,0,0,0,0,0,-1,1091,1254,0,0
-126,-230,0,0,0,0,0,0,0,0,0,-1,1098,1254,0,0
-119,-230,0,0,0,0,0,0,0,0,0,-1,1105,1254,0,0
-112,-230,0,0,0,0,0,0,0,0,0,-1,1112,1254,0,0
-105,-230,0,0,0,0,0,0,0,0,0,-1,1119,1254,0,0
-98,-230,0,0,0,0,0,0,0,0,0,-1,1126,1254,0,0
-91,-230,0,0,0,0,0,0,0,0,0,-1,1133,1254,0,0
-84,-230,0,0,0,0,0,0,0,0,0,-1,1140,1254,0,0
-77,-230,0,0,0,0,0,0,0,0,0,-1,1147,1254,0,0
-70,-230,0,0,0,0,0,0,0,0,0,-1,1154,1254,0,0
-63,-230,0,0,0,0,0,0,0,0,0,-1,1161,1254,0,0
-56,-230,0,0,0,0,0,0,0,0,0,-1,1168,1254,0,0
-49,-230,0,0,0,0,0,0,0,0,0,-1,1175,1254,0,0
-42,-230,0,0,0,0,0,0,0,0,0,-1,1182,1254,0,0
-35,-230,0,0,0,0,0,0,0,0,0,-1,1189,1254,0,0
-28,-230,0,0,0,0,0,0,0,0,0,-1,1196,1254,0,0
-21,-230,0,0,0,0,0,0,0,0,0,-1,1203,1254,0,0
-14,-230,0,0,0,0,0,0,0,0,0,-1,1210,1254,0,0
-7,-230,0,0,0,0,0,0,0,0,0,-1,1217,1254,0,0
0,-230,0,0,0,0,0,0,0,0,0,-1,1224,1254,0,0
7,-230,0,0,0,0,0,0,0,0,0,-1,1231,1254,0,0
14,-230,0,0,0,0,0,0,0,0,0,-1,1238,1254,0,0
21,-230,0,0,0,0,0,0,0,0,0,-1,1245,1254,0,0
28,-230,0,0,0,0,0,0,0,0,0,-1,1252,1254,0,0
35,-230,0,0,0,0,0,0,0,0,0,-1,1259,1254,0,0
42,-230,0,0,0,0,0,0,0,0,0,-1,1266,1254,0,0
49,-230,0,0,0,0,0,0,0,0,0,-1,1273,1254,0,0
56,-230,0,0,0,0,0,0,0,0,0,-1,1280,1254,0,0
63,-230,0,0,0,0,0,0,0,0,0,-1,1287,1254,0,0
70,-230,0,0,0,0,0,0,0,0,0,-1,1294,1254,0,0
77,-230,0,0,0,0,0,0,0,0,0,-1,1301,1254,0,0
84,-230,0,0,0,0,0,0,0,0,0,-1,1308,1254,0,0
91,-230,0,0,0,0,0,0,0,0,0,-1,1315,1254,0,0
98,-230,0,0,0,0,0,0,0,0,0,-1,1322,1254,0,0
105,-230,0,0,0,0,0,0,0,0,0,-1,1329,1254,0,0
112,-230,0,0,0,0,0,0,0,0,0,-1,1336,1254,0,0
119,-230,0,0,0,0,0,0,0,0,0,-1,1343,1254,0,0
126,-230,0,0,0,0,0,0,0,0,0,-1,1350,1254,0,0
133,-230,0,0,0,0,0,0,0,0,0,-1,1357,1254,0,0
140,-230,0,0,0,0,0,0,0,0,0,-1,1364,1254,0,0
147,-230,0,0,0,0,0,0,0,0,0,-1,1371,1254,0,0
154,-230,0,0,0,0,0,0,0,0,0,-1,1378,1254,0,0
161,-230,0,0,0,0,0,0,0,0,0,-1,1385,1254,0,0
168,-230,0,0,0,0,0,0,0,0,0,-1,1392,1254,0,0
175,-230,0,0,0,0,0,0,0,0,0,-1,1399,1254,0,0
182,-230,0,0,0,0,0,0,0,0,0,-1,1406,1254,0,0
189,-230,0,0,0,0,0,0,0,0,0,-1,1413,1254,0,0
196,-230,0,0,0,0,0,0,0,0,0,-1,1420,1254,0,0
203,-230,0,0,0,0,0,0,0,0,0,-1,1427,1254,0,0
210,-230,0,0,0,0,0,0,0,0,0,-1,1434,1254,0,0
217,-230,0,0,0,0,0,0,0,0,0,-1,1441,1254,0,0
224,-230,0,0,0,0,0,0,0,0,0,-1,1448,1254,0,0
231,-230,0,0,0,0,0,0,0,0,0,-1,1455,1254,0,0
238,-230,0,0,0,0,0,0,0,0,0,-1,1462,1254,0,0
245,-230,0,0,0,0,0,0,0,0,0,-1,1469,1254,0,0
252,-230,0,0,0,0,0,0,0,0,0,-1,1476,1254,0,0
259,-230,0,0,0,0,0,0,0,0,0,-1,1483,1254,0,0
266,-230,0,0,0,0,0,0,0,0,0,-1,1490,1254,0,0
273,-230,0,0,0,0,0,0,0,0,0,-1,1497,1254,0,0
280,-230,0,0,0,0,0,0,0,0,0,-1,1504,1254,0,0
287,-230,0,0,0,0,0,0,0,0,0,-1,1511,1254,0,0
294,-230,0,0,0,0,0,0,0,0,0,-1,1518,1254,0,0
301,-230,0,0,0,0,0,0,0,0,0,-1,1525,1254,0,0
308,-230,0,0,0,0,0,0,0,0,0,-1,1532,1254,0,0
315,-230,0,0,0,0,0,0,0,0,0,-1,1539,1254,0,0
322,-230,0,0,0,0,0,0,0,0,0,-1,1546,1254,0,0
329,-230,0,0,0,0,0,0,0,0,0,-1,1553,1254,0,0
336,-230,0,0,0,0,0,0,0,0,0,-1,1560,1254,0,0
343,-230,0,0,0,0,0,0,0,0,0,-1,1567,1254,0,0
350,-230,0,0,0,0,0,0,0,0,0,-1,1574,1254,0,0
357,-230,0,0,0,0,0,0,0,0,0,-1,1581,1254,0,0
364,-230,0,0,0,0,0,0,0,0,0,-1,1588,1254,0,0
371,-230,0,0,0,0,0,0,0,0,0,-1,1595,1254,0,0
378,-230,0,0,0,0,0,0,0,0,0,-1,1602,1254,0,0
385,-230,0,0,0,0,0,0,0,0,0,-1,1609,1254,0,0
392,-230,0,0,0,0,0,0,0,0,0,-1,1616,1254,0,0
399,-230,0,0,0,0,0,0,0,0,0,-1,1623,1254,0,0
406,-230,0,0,0,0,0,0,0,0,0,-1,1630,1254,0,0
413,-230,0,0,0,0,0,0,0,0,0,-1,1637,1254,0,0
420,-230,0,0,0,0,0,0,0,0,0,-1,1644,1254,0,0
427,-230,0,0,0,0,0,0,0,0,0,-1,1651,1254,0,0
434,-230,0,0,0,0,0,0,0,0,0,-1,1658,1254,0,0
441,-230,0,0,0,0,0,0,0,0,0,-1,1665,1254,0,0
448,-230,0,0,0,0,0,0,0,0,0,-1,1672,1254,0,0
455,-230,0,0,0,0,0,0,0,0,0,-1,1679,1254,0,0
462,-230,0,0,0,0,0,0,0,0,0,-1,1686,1254,0,0
469,-230,0,0,0,0,0,0,0,0,0,-1,1693,1254,0,0
476,-230,0,0,0,0,0,0,0,0,0,-1,1700,1254,0,0
483,-230,0,0,0,0,0,0,0,0,0,-1,1707,1254,0,0
490,-230,0,0,0,0,0,0,0,0,0,-1,1714,1254,0,0
497,-230,0,0,0,0,0,0,0,0,0,-1,1721,1254,0,0
504,-230,0,0,0,0,0,0,0,0,0,-1,1728,1254,0,0
511,-230,0,0,0,0,0,0,0,0,0,-1,1735,1254,0,0
518,-230,0,0,0,0,0,0,0,0,0,-1,1742,1254,0,0
525,-230,0,0,0,0,0,0,0,0,0,-1,1749,1254,0,0
532,-230,0,0,0,0,0,0,0,0,0,-1,1756,1254,0,0
539,-230,0,0,0,0,0,0,0,0,0,-1,1763,1254,0,0
546,-230,0,0,0,0,0,0,0,0,0,-1,1770,1254,0,0
553,-230,0,0,0,0,0,0,0,0,0,-1,1777,1254,0,0
560,-230,0,0,0,0,0,0,0,0,0,-1,1784,1254,0,0
567,-230,0,0,0,0,0,0,0,0,0,-1,1791,1254,0,0
574,-230,0,0,0,0,0,0,0,0,0,-1,1798,1254,0,0
581,-230,0,0,0,0,0,0,0,0,0,-1,1805,1254,0,0
588,-230,0,0,0,0,0,0,0,0,0,-1,1812,1254,0,0
595,-230,0,0,0,0,0,0,0,0,0,-1,1819,1254,0,0
602,-230,0,0,0,0,0,0,0,0,0,-1,1826,1254,0,0
609,-230,0,0,0,0,0,0,0,0,0,-1,1833,1254,0,0
616,-230,4.93579,0.721924,-0.00353226,0.00334893,0.00594079,0.00677351,-0.00695684,1.04787,0.00792746,0.0383124,1840,1254,4.93574,-0.721905
623,-230,4.91248,0.633423,0.0011246,3.43374e-05,0.00350389,0.0041255,-0.00296657,0.708228,0.00411279,0.035703,1847,1254,4.91242,-0.633414
630,-230,4.93115,0.60022,0.00397738,-0.00109163,0.00118208,0.00423949,-0.00135374,0.218202,0.00336947,0.0305399,1854,1254,4.93116,-0.600203
637,-230,4.95715,0.701904,0.00491806,-0.0015591,-0.000960074,0.00505737,-0.00169841,-0.144098,0.00405797,0.0258051,1861,1254,4.95717,-0.701866
644,-230,4.92139,0.68457,0.00477255,-0.0017594,-0.00271398,0.00575302,-0.00273986,-0.346675,0.00500518,0.0200685,1868,1254,4.92141,-0.68457
651,-230,4.90234,0.67627,0.00412427,-0.00175585,-0.00392865,0.00609117,-0.00372275,-0.464172,0.0057208,0.0368726,1875,1254,4.90236,-0.676225
658,-230,5.15295,0.571777,0.00322976,-0.00165714,-0.00468042,0.00606616,-0.00449354,-0.544829,0.00611914,0.0435303,1882,1254,5.15295,-0.571748
665,-230,4.24084,2.41101,0,0,0,0,0,0,0,-1,1889,1254,4.24082,-2.41106
672,-230,4.4436,2.14844,0.00118119,-0.00140102,-0.00506382,0.00511591,-0.00533574,-0.660574,0.00603471,0.0445152,1896,1254,4.44356,-2.14841
679,-230,4.61084,1.7804,0.000201744,-0.00128563,-0.00493676,0.00445052,-0.00553441,-0.710639,0.00577611,0.0425268,1903,1254,4.6108,-1.78035
686,-230,4.63171,1.26416,-0.000599351,-0.00105966,-0.00459515,0.00377141,-0.00543042,-0.760376,0.00534138,0.0356102,1910,1254,4.63173,-1.26416
693,-230,4.4519,0.996094,-0.00123154,-0.000726653,-0.00389049,0.00291958,-0.00487777,-0.817796,0.00454888,0.0152522,1917,1254,4.45187,-0.996097
700,-230,4.474,0.975708,-0.00158295,-0.000478172,-0.00327529,0.00229099,-0.0043521,-0.868938,0.00389644,0.00992631,1924,1254,4.47406,-0.975683
707,-230,4.4895,0.947144,-0.00168159,-0.000194734,-0.00259314,0.00175944,-0.00363577,-0.924999,0.0031771,0.00889994,1931,1254,4.4895,-0.947138
714,-230,4.47327,0.916626,-0.00148925,0.000127051,-0.00194235,0.00142267,-0.00278487,-0.982539,0.00247129,0.0125334,1938,1254,4.47326,-0.916599
721,-230,4.46338,0.886475,-0.000372974,0.00164693,-0.00205843,0.00292982,-0.00165587,-1.01346,0.00268139,0.0122177,1945,1254,4.46343,-0.886447
728,-230,4.46252,0.868652,0.000794144,0.00226167,-0.00229312,0.00393556,-0.000879745,-0.940243,0.00296085,0.0135039,1952,1254,4.46253,-0.868631
735,-230,4.46008,0.838379,0.00201124,0.00331554,-0.00262786,0.00537096,-4.41894e-05,-0.907024,0.00359546,0.0138659,1959,1254,4.46007,-0.838361
742,-230,4.45728,0.807373,0.00340497,0.00486526,-0.00329951,0.00751445,0.000755782,-0.894288,0.00477767,0.0100786,1966,1254,4.45724,-0.807398
749,-230,4.45251,0.778564,0.00475542,0.00657958,-0.00429814,0.0100613,0.00127365,-0.889949,0.0063259,0.0096457,1973,1254,4.45246,-0.778604
756,-230,4.44873,0.74707,0.00631377,0.00859432,-0.00541562,0.0129884,0.00191968,-0.889159,0.00809528,0.0113463,1980,1254,4.44878,-0.747052
763,-230,4.43274,0.675293,0.00817381,0.0109123,-0.0065283,0.0162134,0.0028727,-0.888769,0.00999,0.0220217,1987,1254,4.43274,-0.675344
770,-230,4.42004,0.534912,0.0101797,0.0134468,-0.00750408,0.0194931,0.00413342,-0.892571,0.0118601,0.0401813,1994,1254,4.42003,-0.534953
777,-230,4.40137,0.424438,0,0,0,0,0,0,0,-1,2001,1254,4.40134,-0.424438
784,-230,4.75586,0.304443,0,0,0,0,0,0,0,-1,2008,1254,4.75584,-0.304429
791,-230,4.77295,0.130005,0,0,0,0,0,0,0,-1,2015,1254,4.77294,-0.130051
798,-230,0,0,0,0,0,0,0,0,0,-1,2022,1254,0,0
805,-230,0,0,0,0,0,0,0,0,0,-1,2029,1254,0,0
812,-230,0,0,0,0,0,0,0,0,0,-1,2036,1254,0,0
-700,-237,0,0,0,0,0,0,0,0,0,-1,524,1261,0,0
-693,-237,0,0,0,0,0,0,0,0,0,-1,531,1261,0,0
-686,-237,0,0,0,0,0,0,0,0,0,-1,538,1261,0,0
-679,-237,0,0,0,0,0,0,0,0,0,-1,545,1261,0,0
-672,-237,1.59668,1.02563,0,0,0,0,0,0,0,-1,552,1261,1.59668,-1.02563
-665,-237,0.941528,2.05432,0,0,0,0,0,0,0,-1,559,1261,0.941557,-2.05429
-658,-237,0.626343,2.52405,0,0,0,0,0,0,0,-1,566,1261,0.626336,-2.52399
-651,-237,-1.73199,3.81604,-0.0477493,0.0486462,0.0341193,0.0595005,-0.0586036,1.26279,0.0681881,0.0461332,573,1261,-1.732,-3.816
-644,-237,-1.27301,3.92529,-0.0349321,0.0408685,0.027363,0.049714,-0.0437776,1.25814,0.0540136,0.0462916,580,1261,-1.273,-3.92527
-637,-237,-1.00287,3.75684,-0.0249981,0.0337834,0.0213412,0.0407143,-0.0319289,1.25678,0.0420427,0.0494015,587,1261,-1.00288,-3.75684
-630,-237,-0.523621,3.57446,0,0,0,0,0,0,0,-1,594,1261,-0.523591,-3.57451
-623,-237,-0.428345,0.757202,-0.0109838,0.0217186,0.011742,0.0254979,-0.014763,1.25941,0.0235185,0.0263709,601,1261,-0.428364,-0.757218
-616,-237,-0.475586,0.729126,-0.00643602,0.016594,0.00811748,0.0191676,-0.00900962,1.26378,0.0166168,0.0132924,608,1261,-0.475593,-0.729161
-609,-237,-0.466431,0.75061,-0.00333724,0.0114545,0.0053052,0.0131605,-0.00504323,1.25967,0.0108526,0.0152637,615,1261,-0.466403,-0.750625
-602,-237,-0.47052,0.78833,-0.00137926,0.00673848,0.00324726,0.0078776,-0.00251838,1.23341,0.00626232,0.0112909,622,1261,-0.470521,-0.78834
-595,-237,-0.476074,0.826782,-0.00131083,0.00553209,0.00142051,0.00581526,-0.00159399,1.37404,0.00450321,0.0141826,629,1261,-0.476092,-0.826739
-588,-237,-0.48291,0.811157,-0.00170625,0.00252738,0.000837304,0.00268696,-0.00186583,1.38246,0.00264277,0.0237594,636,1261,-0.482883,-0.811099
-581,-237,-0.488586,0.8302,-0.00214316,-7.93667e-05,0.00149852,0.000708176,-0.0029307,1.08692,0.0022277,0.0220916,643,1261,-0.48858,-0.830252
-574,-237,-0.483276,0.873657,-0.00254545,-0.00013756,0.00135588,0.000471746,-0.00315476,1.14846,0.00227677,0.0144386,650,1261,-0.483266,-0.873639
-567,-237,-0.457458,0.924316,-0.00255003,-0.00102227,0.000416155,-0.000916264,-0.00265603,1.32138,0.00155783,0.0133415,657,1261,-0.457483,-0.924367
-560,-237,-0.421753,0.956909,-0.00198101,-0.0016918,-0.000500022,-0.00131589,-0.00235692,-0.926158,0.00136385,0.0184335,664,1261,-0.421756,-0.956896
-553,-237,-0.42511,0.9823,-0.00160599,-0.00168146,-0.00132069,-0.000322495,-0.00296495,-0.771114,0.00187839,0.03862,671,1261,-0.425092,-0.982304
-546,-237,-0.423279,1.00171,0,0,0,0,0,0,0,-1,678,1261,-0.423301,-1.00172
-539,-237,-1.39301,2.33447,-0.000181326,-0.00192369,-0.00371098,0.00275936,-0.00486437,-0.670107,0.00445714,0.0433887,685,1261,-1.39303,-2.33447
-532,-237,-1.60559,2.51855,0.000997327,-0.00206981,-0.00534453,0.00502396,-0.00609644,-0.645681,0.00643031,0.0438438,692,1261,-1.60559,-2.51854
-525,-237,-1.67212,2.26074,0.00236849,-0.0021702,-0.00710921,0.00756177,-0.00736349,-0.630904,0.00861736,0.045999,699,1261,-1.6721,-2.26075
-518,-237,-1.32422,1.4574,0.00381229,-0.00217212,-0.0088278,0.0101412,-0.00850105,-0.621999,0.010777,0.0423851,706,1261,-1.32424,-1.45737
-511,-237,-0.876709,0.754639,0,0,0,0,0,0,0,-1,713,1261,-0.87673,-0.754606
-504,-237,-0.837341,0.794556,0.00595818,-0.00155734,-0.0107743,0.0136112,-0.00921034,-0.617608,0.0132574,0.0387698,720,1261,-0.837327,-0.794574
-497,-237,-0.658081,0.574585,0.00475554,-0.000515016,-0.00904458,0.0115409,-0.00730042,-0.64364,0.0109695,0.0463581,727,1261,-0.658077,-0.574578
-490,-237,0,0,0,0,0,0,0,0,0,-1,734,1261,0,0
-483,-237,0,0,0,0,0,0,0,0,0,-1,741,1261,0,0
-476,-237,0,0,0,0,0,0,0,0,0,-1,748,1261,0,0
-469,-237,0,0,0,0,0,0,0,0,0,-1,755,1261,0,0
-462,-237,0,0,0,0,0,0,0,0,0,-1,762,1261,0,0
-455,-237,0,0,0,0,0,0,0,0,0,-1,769,1261,0,0
-448,-237,0,0,0,0,0,0,0,0,0,-1,776,1261,0,0
-441,-237,0,0,0,0,0,0,0,0,0,-1,783,1261,0,0
-434,-237,0,0,0,0,0,0,0,0,0,-1,790,1261,0,0
-427,-237,0,0,0,0,0,0,0,0,0,-1,797,1261,0,0
-420,-237,0,0,0,0,0,0,0,0,0,-1,804,1261,0,0
-413,-237,0,0,0,0,0,0,0,0,0,-1,811,1261,0,0
-406,-237,0,0,0,0,0,0,0,0,0,-1,818,1261,0,0
-399,-237,0,0,0,0,0,0,0,0,0,-1,825,1261,0,0
-392,-237,0,0,0,0,0,0,0,0,0,-1,832,1261,0,0
-385,-237,0,0,0,0,0,0,0,0,0,-1,839,1261,0,0
-378,-237,0,0,0,0,0,0,0,0,0,-1,846,1261,0,0
-371,-237,0,0,0,0,0,0,0,0,0,-1,853,1261,0,0
-364,-237,0,0,0,0,0,0,0,0,0,-1,860,1261,0,0
-357,-237,0,0,0,0,0,0,0,0,0,-1,867,1261,0,0
-350,-237,0,0,0,0,0,0,0,0,0,-1,874,1261,0,0
-343,-237,0,0,0,0,0,0,0,0,0,-1,881,1261,0,0
-336,-237,0,0,0,0,0,0,0,0,0,-1,888,1261,0,0
-329,-237,0,0,0,0,0,0,0,0,0,-1,895,1261,0,0
-322,-237,0,0,0,0,0,0,0,0,0,-1,902,1261,0,0
-315,-237,0,0,0,0,0,0,0,0,0,-1,909,1261,0,0
-308,-237,0,0,0,0,0,0,0,0,0,-1,916,1261,0,0
-301,-237,0,0,0,0,0,0,0,0,0,-1,923,1261,0,0
-294,-237,0,0,0,0,0,0,0,0,0,-1,930,1261,0,0
-287,-237,0,0,0,0,0,0,0,0,0,-1,937,1261,0,0
-280,-237,0,0,0,0,0,0,0,0,0,-1,944,1261,0,0
-273,-237,0,0,0,0,0,0,0,0,0,-1,951,1261,0,0
-266,-237,0,0,0,0,0,0,0,0,0,-1,958,1261,0,0
-259,-237,0,0,0,0,0,0,0,0,0,-1,965,1261,0,0
-252,-237,0,0,0,0,0,0,0,0,0,-1,972,1261,0,0
-245,-237,0,0,0,0,0,0,0,0,0,-1,979,1261,0,0
-238,-237,0,0,0,0,0,0,0,0,0,-1,986,1261,0,0
-231,-237,0,0,0,0,0,0,0,0,0,-1,993,1261,0,0
-224,-237,0,0,0,0,0,0,0,0,0,-1,1000,1261,0,0
-217,-237,0,0,0,0,0,0,0,0,0,-1,1007,1261,0,0
-210,-237,0,0,0,0,0,0,0,0,0,-1,1014,1261,0,0
-203,-237,0,0,0,0,0,0,0,0,0,-1,1021,1261,0,0
-196,-237,0,0,0,0,0,0,0,0,0,-1,1028,1261,0,0
-189,-237,0,0,0,0,0,0,0,0,0,-1,1035,1261,0,0
-182,-237,0,0,0,0,0,0,0,0,0,-1,1042,1261,0,0
-175,-237,0,0,0,0,0,0,0,0,0,-1,1049,1261,0,0
-168,-237,0,0,0,0,0,0,0,0,0,-1,1056,1261,0,0
-161,-237,0,0,0,0,0,0,0,0,0,-1,1063,1261,0,0
-154,-237,0,0,0,0,0,0,0,0,0,-1,1070,1261,0,0
-147,-237,0,0,0,0,0,0,0,0,0,-1,1077,1261,0,0
-140,-237,0,0,0,0,0,0,0,0,0,-1,1084,1261,0,0
-133,-237,0,0,0,0,0,0,0,0,0,-1,1091,1261,0,0
-126,-237,0,0,0,0,0,0,0,0,0,-1,1098,1261,0,0
-119,-237,0,0,0,0,0,0,0,0,0,-1,1105,1261,0,0
-112,-237,0,0,0,0,0,0,0,0,0,-1,1112,1261,0,0
-105,-237,0,0,0,0,0,0,0,0,0,-1,1119,1261,0,0
-98,-237,0,0,0,0,0,0,0,0,0,-1,1126,1261,0,0
-91,-237,0,0,0,0,0,0,0,0,0,-1,1133,1261,0,0
-84,-237,0,0,0,0,0,0,0,0,0,-1,1140,1261,0,0
-77,-237,0,0,0,0,0,0,0,0,0,-1,1147,1261,0,0
-70,-237,0,0,0,0,0,0,0,0,0,-1,1154,1261,0,0
-63,-237,0,0,0,0,0,0,0,0,0,-1,1161,1261,0,0
-56,-237,0,0,0,0,0,0,0,0,0,-1,1168,1261,0,0
-49,-237,0,0,0,0,0,0,0,0,0,-1,1175,1261,0,0
-42,-237,0,0,0,0,0,0,0,0,0,-1,1182,1261,0,0
-35,-237,0,0,0,0,0,0,0,0,0,-1,1189,1261,0,0
-28,-237,0,0,0,0,0,0,0,0,0,-1,1196,1261,0,0
-21,-237,0,0,0,0,0,0,0,0,0,-1,1203,1261,0,0
-14,-237,0,0,0,0,0,0,0,0,0,-1,1210,1261,0,0
-7,-237,0,0,0,0,0,0,0,0,0,-1,1217,1261,0,0
0,-237,0,0,0,0,0,0,0,0,0,-1,1224,1261,0,0
7,-237,0,0,0,0,0,0,0,0,0,-1,1231,1261,0,0
14,-237,0,0,0,0,0,0,0,0,0,-1,1238,1261,0,0
21,-237,0,0,0,0,0,0,0,0,0,-1,1245,1261,0,0
28,-237,0,0,0,0,0,0,0,0,0,-1,1252,1261,0,0
35,-237,0,0,0,0,0,0,0,0,0,-1,1259,1261,0,0
42,-237,0,0,0,0,0,0,0,0,0,-1,1266,1261,0,0
49,-237,0,0,0,0,0,0,0,0,0,-1,1273,1261,0,0
56,-237,0,0,0,0,0,0,0,0,0,-1,1280,1261,0,0
63,-237,0,0,0,0,0,0,0,0,0,-1,1287,1261,0,0
70,-237,0,0,0,0,0,0,0,0,0,-1,1294,1261,0,0
77,-237,0,0,0,0,0,0,0,0,0,-1,1301,1261,0,0
84,-237,0,0,0,0,0,0,0,0,0,-1,1308,1261,0,0
91,-237,0,0,0,0,0,0,0,0,0,-1,1315,1261,0,0
98,-237,0,0,0,0,0,0,0,0,0,-1,1322,1261,0,0
105,-237,0,0,0,0,0,0,0,0,0,-1,1329,1261,0,0
112,-237,0,0,0,0,0,0,0,0,0,-1,1336,1261,0,0
119,-237,0,0,0,0,0,0,0,0,0,-1,1343,1261,0,0
126,-237,0,0,0,0,0,0,0,0,0,-1,1350,1261,0,0
133,-237,0,0,0,0,0,0,0,0,0,-1,1357,1261,0,0
140,-237,0,0,0,0,0,0,0,0,0,-1,1364,1261,0,0
147,-237,0,0,0,0,0,0,0,0,0,-1,1371,1261,0,0
154,-237,0,0,0,0,0,0,0,0,0,-1,1378,1261,0,0
161,-237,0,0,0,0,0,0,0,0,0,-1,1385,1261,0,0
168,-237,0,0,0,0,0,0,0,0,0,-1,1392,1261,0,0
175,-237,0,0,0,0,0,0,0,0,0,-1,1399,1261,0,0
182,-237,0,0,0,0,0,0,0,0,0,-1,1406,1261,0,0
189,-237,0,0,0,0,0,0,0,0,0,-1,1413,1261,0,0
196,-237,0,0,0,0,0,0,0,0,0,-1,1420,1261,0,0
203,-237,0,0,0,0,0,0,0,0,0,-1,1427,1261,0,0
210,-237,0,0,0,0,0,0,0,0,0,-1,1434,1261,0,0
217,-237,0,0,0,0,0,0,0,0,0,-1,1441,1261,0,0
224,-237,0,0,0,0,0,0,0,0,0,-1,1448,1261,0,0
231,-237,0,0,0,0,0,0,0,0,0,-1,1455,1261,0,0
238,-237,0,0,0,0,0,0,0,0,0,-1,1462,1261,0,0
245,-237,0,0,0,0,0,0,0,0,0,-1,1469,1261,0,0
252,-237,0,0,0,0,0,0,0,0,0,-1,1476,1261,0,0
259,-237,0,0,0,0,0,0,0,0,0,-1,1483,1261,0,0
266,-237,0,0,0,0,0,0,0,0,0,-1,1490,1261,0,0
273,-237,0,0,0,0,0,0,0,0,0,-1,1497,1261,0,0
280,-237,0,0,0,0,0,0,0,0,0,-1,1504,1261,0,0
287,-237,0,0,0,0,0,0,0,0,0,-1,1511,1261,0,0
294,-237,0,0,0,0,0,0,0,0,0,-1,1518,1261,0,0
301,-237,0,0,0,0,0,0,0,0,0,-1,1525,1261,0,0
308,-237,0,0,0,0,0,0,0,0,0,-1,1532,1261,0,0
315,-237,0,0,0,0,0,0,0,0,0,-1,1539,1261,0,0
322,-237,0,0,0,0,0,0,0,0,0,-1,1546,1261,0,0
329,-237,0,0,0,0,0,0,0,0,0,-1,1553,1261,0,0
336,-237,0,0,0,0,0,0,0,0,0,-1,1560,1261,0,0
343,-237,0,0,0,0,0,0,0,0,0,-1,1567,1261,0,0
350,-237,0,0,0,0,0,0,0,0,0,-1,1574,1261,0,0
357,-237,0,0,0,0,0,0,0,0,0,-1,1581,1261,0,0
364,-237,0,0,0,0,0,0,0,0,0,-1,1588,1261,0,0
371,-237,0,0,0,0,0,0,0,0,0,-1,1595,1261,0,0
378,-237,0,0,0,0,0,0,0,0,0,-1,1602,1261,0,0
385,-237,0,0,0,0,0,0,0,0,0,-1,1609,1261,0,0
392,-237,0,0,0,0,0,0,0,0,0,-1,1616,1261,0,0
399,-237,0,0,0,0,0,0,0,0,0,-1,1623,1261,0,0
406,-237,0,0,0,0,0,0,0,0,0,-1,1630,1261,0,0
413,-237,0,0,0,0,0,0,0,0,0,-1,1637,1261,0,0
420,-237,0,0,0,0,0,0,0,0,0,-1,1644,1261,0,0
427,-237,0,0,0,0,0,0,0,0,0,-1,1651,1261,0,0
434,-237,0,0,0,0,0,0,0,0,0,-1,1658,1261,0,0
441,-237,0,0,0,0,0,0,0,0,0,-1,1665,1261,0,0
448,-237,0,0,0,0,0,0,0,0,0,-1,1672,1261,0,0
455,-237,0,0,0,0,0,0,0,0,0,-1,1679,1261,0,0
462,-237,0,0,0,0,0,0,0,0,0,-1,1686,1261,0,0
469,-237,0,0,0,0,0,0,0,0,0,-1,1693,1261,0,0
476,-237,0,0,0,0,0,0,0,0,0,-1,1700,1261,0,0
483,-237,0,0,0,0,0,0,0,0,0,-1,1707,1261,0,0
490,-237,0,0,0,0,0,0,0,0,0,-1,1714,1261,0,0
497,-237,0,0,0,0,0,0,0,0,0,-1,1721,1261,0,0
504,-237,0,0,0,0,0,0,0,0,0,-1,1728,1261,0,0
511,-237,0,0,0,0,0,0,0,0,0,-1,1735,1261,0,0
518,-237,0,0,0,0,0,0,0,0,0,-1,1742,1261,0,0
525,-237,0,0,0,0,0,0,0,0,0,-1,1749,1261,0,0
532,-237,0,0,0,0,0,0,0,0,0,-1,1756,1261,0,0
539,-237,0,0,0,0,0,0,0,0,0,-1,1763,1261,0,0
546,-237,0,0,0,0,0,0,0,0,0,-1,1770,1261,0,0
553,-237,0,0,0,0,0,0,0,0,0,-1,1777,1261,0,0
560,-237,0,0,0,0,0,0,0,0,0,-1,1784,1261,0,0
567,-237,0,0,0,0,0,0,0,0,0,-1,1791,1261,0,0
574,-237,0,0,0,0,0,0,0,0,0,-1,1798,1261,0,0
581,-237,0,0,0,0,0,0,0,0,0,-1,1805,1261,0,0
588,-237,0,0,0,0,0,0,0,0,0,-1,1812,1261,0,0
595,-237,0,0,0,0,0,0,0,0,0,-1,1819,1261,0,0
602,-237,0,0,0,0,0,0,0,0,0,-1,1826,1261,0,0
609,-237,0,0,0,0,0,0,0,0,0,-1,1833,1261,0,0
616,-237,5.00903,0.76355,-0.00208109,0.00095543,0.0053811,0.00502836,-0.00615402,0.922897,0.00646704,0.0369841,1840,1261,5.00899,-0.763587
623,-237,4.99512,0.736328,0.00216879,-0.00155937,0.00324058,0.00404318,-0.00343376,0.524394,0.00432159,0.031717,1847,1261,4.99511,-0.736368
630,-237,4.96533,0.713745,0.00461533,-0.00225453,0.000936067,0.00474059,-0.00237979,0.133027,0.0041856,0.0240706,1854,1261,4.96534,-0.713777
637,-237,4.92773,0.690063,0.0054126,-0.00233543,-0.00126219,0.00561303,-0.00253586,-0.157481,0.00481528,0.0199184,1861,1261,4.92777,-0.690099
644,-237,4.89514,0.655273,0.00526435,-0.0021543,-0.00305069,0.00635771,-0.00324766,-0.344137,0.00564173,0.0394149,1868,1261,4.89518,-0.655326
651,-237,4.995,0.627441,0.00466493,-0.00183659,-0.00431974,0.00682043,-0.00399208,-0.462837,0.0063134,0.0486284,1875,1261,4.99501,-0.627478
658,-237,5.31689,0.554077,0.00381985,-0.00149342,-0.00511245,0.00692471,-0.00459828,-0.54578,0.00669785,0.0477039,1882,1261,5.31695,-0.554126
665,-237,3.39587,2.34167,0,0,0,0,0,0,0,-1,1889,1261,3.39591,-2.34173
672,-237,3.93347,1.94006,0.00174487,-0.000929,-0.00557507,0.00614107,-0.0053252,-0.667717,0.00662563,0.0461235,1896,1261,3.93347,-1.94006
679,-237,4.33594,1.5813,0.000699702,-0.000763621,-0.00547246,0.0054892,-0.00555312,-0.718943,0.00637532,0.0407477,1903,1261,4.33589,-1.58133
686,-237,4.44678,1.03564,-0.000165864,-0.000474309,-0.00509875,0.00478099,-0.00542116,-0.770279,0.00589408,0.0262495,1910,1261,4.44675,-1.0356
693,-237,4.4187,0.993652,-0.000896703,-0.000105718,-0.00427004,0.00378711,-0.00478953,-0.831577,0.00496299,0.0124576,1917,1261,4.41868,-0.993656
700,-237,4.43823,0.974121,-0.00131335,6.76148e-05,-0.00360822,0.00305083,-0.00429656,-0.879937,0.00426229,0.00997984,1924,1261,4.43824,-0.974151
707,-237,4.45496,0.940186,-0.00139674,0.000259336,-0.00290861,0.00245548,-0.00359288,-0.924072,0.00351254,0.00870543,1931,1261,4.45494,-0.940136
714,-237,4.44324,0.926514,-0.00113674,0.00044808,-0.0022857,0.00207483,-0.00276349,-0.952256,0.00280282,0.0113086,1938,1261,4.44328,-0.926527
721,-237,4.41821,0.909302,0.000192422,0.00202484,-0.00258555,0.00385171,-0.00163445,-0.955674,0.00325253,0.0125361,1945,1261,4.41816,-0.909301
728,-237,4.43201,0.875244,0.00159588,0.00278688,-0.00299742,0.00524739,-0.000864622,-0.883456,0.00381923,0.0132635,1952,1261,4.43198,-0.875249
735,-237,4.41467,0.817017,0.00305878,0.00393027,-0.0035981,0.00711892,-0.000129863,-0.845656,0.00478982,0.017947,1959,1261,4.41471,-0.817014
742,-237,4.43518,0.799316,0.00480865,0.0056866,-0.00459731,0.00986584,0.000629405,-0.832996,0.00637779,0.0136043,1966,1261,4.43516,-0.799275
749,-237,4.42078,0.790405,0.00663746,0.0077091,-0.00593548,0.0131329,0.00121367,-0.830413,0.00838006,0.00957353,1973,1261,4.42075,-0.790377
756,-237,4.36243,0.744629,0.00878554,0.0101093,-0.00741798,0.0168949,0.00199998,-0.829894,0.0106593,0.0127166,1980,1261,4.36239,-0.744608
763,-237,4.34045,0.605469,0.0113341,0.0128741,-0.00889223,0.0210297,0.00317864,-0.828587,0.0130895,0.0261477,1987,1261,4.3405,-0.605438
770,-237,4.4801,0.261963,0.0141167,0.0159204,-0.0101793,0.0252377,0.00479944,-0.82958,0.0154754,0.0397417,1994,1261,4.4801,-0.262015
777,-237,4.63757,-0.0214844,0.0169494,0.01909,-0.0109838,0.0290555,0.0069839,-0.833966,0.0175128,0.0437551,2001,1261,4.63756,0.0214516
784,-237,4.77319,-0.240356,0,0,0,0,0,0,0,-1,2008,1261,4.77322,0.240407
791,-237,4.9021,-0.457397,0,0,0,0,0,0,0,-1,2015,1261,4.90213,0.457425
798,-237,0,0,0,0,0,0,0,0,0,-1,2022,1261,0,0
805,-237,0,0,0,0,0,0,0,0,0,-1,2029,1261,0,0
812,-237,0,0,0,0,0,0,0,0,0,-1,2036,1261,0,0
-700,-244,0,0,0,0,0,0,0,0,0,-1,524,1268,0,0
-693,-244,0,0,0,0,0,0,0,0,0,-1,531,1268,0,0
-686,-244,0,0,0,0,0,0,0,0,0,-1,538,1268,0,0
-679,-244,0,0,0,0,0,0,0,0,0,-1,545,1268,0,0
-672,-244,1.04907,0.553589,0,0,0,0,0,0,0,-1,552,1268,1.04909,-0.553555
-665,-244,0.583069,1.33606,-0.0795051,0.0742676,0.046354,0.0871599,-0.0923974,1.29953,0.103682,0.0485392,559,1268,0.58307,-1.33605
-658,-244,0.350647,1.76306,-0.0593501,0.0634461,0.0384257,0.0744791,-0.0703831,1.29119,0.0836473,0.0453287,566,1268,0.350637,-1.76302
-651,-244,-0.00213623,1.80933,0,0,0,0,0,0,0,-1,573,1268,-0.00212574,-1.80932
-644,-244,-0.536133,2.46216,-0.0322467,0.0449437,0.0247025,0.0521721,-0.0394751,1.28613,0.0530815,0.0454563,580,1268,-0.536107,-2.46215
-637,-244,-0.247192,2.34631,-0.0231656,0.0370168,0.0190739,0.0425528,-0.0287015,1.28832,0.041397,0.0472165,587,1268,-0.247162,-2.34625
-630,-244,0.269775,2.2749,0,0,0,0,0,0,0,-1,594,1268,0.269794,-2.27488
-623,-244,-0.4021,0.663452,-0.0104448,0.0236445,0.010406,0.02657,-0.0133702,1.29674,0.0234755,0.0299622,601,1268,-0.402081,-0.663496
-616,-244,-0.443359,0.73999,-0.00633124,0.0180529,0.00725278,0.0200471,-0.0083254,1.30247,0.0168404,0.0156209,608,1268,-0.443339,-0.740024
-609,-244,-0.452026,0.754517,-0.00344071,0.0125717,0.00479623,0.0138984,-0.00476741,1.30093,0.0111983,0.0139131,615,1268,-0.451998,-0.754575
-602,-244,-0.442566,0.784302,-0.00156314,0.00760741,0.00297366,0.00848724,-0.00244298,1.28313,0.00662439,0.0141359,622,1268,-0.442589,-0.784256
-595,-244,-0.428101,0.825684,-0.00140074,0.00612081,0.00143793,0.00638633,-0.00166626,1.3882,0.00490818,0.0145041,629,1268,-0.42812,-0.825726
-588,-244,-0.458313,0.843506,-0.00157932,0.00300752,0.00109095,0.00325378,-0.00182558,1.34879,0.00297096,0.017835,636,1268,-0.458291,-0.843479
-581,-244,-0.462708,0.855835,-0.00180341,0.000456036,0.00177617,0.00143132,-0.00277869,1.06865,0.0024718,0.0156062,643,1268,-0.462738,-0.855814
-574,-244,-0.438171,0.887695,-0.00220542,0.000629474,0.00160274,0.00135164,-0.00292758,1.14746,0.00252584,0.0126967,650,1268,-0.438183,-0.887648
-567,-244,-0.434692,0.918091,-0.00224784,8.13801e-05,0.000335674,0.00012879,-0.00229526,1.43049,0.00157486,0.0101255,657,1268,-0.434701,-0.918113
-560,-244,-0.43512,0.950195,-0.00160849,-0.000387288,-0.000799847,8.38551e-06,-0.00200416,-1.11141,0.00133891,0.0109892,664,1268,-0.435112,-0.950154
-553,-244,-0.408325,0.979004,-0.00133464,-0.00012737,-0.00175786,0.0011276,-0.00258962,-0.950787,0.00220078,0.0289664,671,1268,-0.408318,-0.97898
-546,-244,-1.59113,2.86243,0,0,0,0,0,0,0,-1,678,1268,-1.59112,-2.86248
-539,-244,-1.79352,2.5282,-0.000228489,0.000105098,-0.00436704,0.00430853,-0.00443192,-0.804486,0.00504647,0.0446769,685,1268,-1.7935,-2.52814
-532,-244,-1.66602,2.27283,0.000761767,0.000167693,-0.0061143,0.00658624,-0.00565678,-0.761127,0.00707529,0.0455801,692,1268,-1.66603,-2.2728
-525,-244,-1.59509,2.20203,0.00188683,0.000212187,-0.0079559,0.00904935,-0.00695033,-0.732969,0.00926388,0.0457299,699,1268,-1.59509,-2.20205
-518,-244,-1.48779,1.75403,0.00300546,0.000257272,-0.00969213,0.0114204,-0.00815769,-0.71498,0.0113556,0.0433518,706,1268,-1.48781,-1.75407
-511,-244,-1.08557,1.13806,0.00397673,0.000336687,-0.0110204,0.0133264,-0.00901294,-0.703562,0.0129775,0.0419342,713,1268,-1.08555,-1.13803
-504,-244,-0.880005,0.831909,0.00431897,0.0005029,-0.0113949,0.0139644,-0.00914257,-0.702444,0.0134373,0.041725,720,1268,-0.880031,-0.83196
-497,-244,-0.781738,0.700562,0.00295171,0.000981532,-0.00958557,0.0116027,-0.00766943,-0.734194,0.0112037,0.0442864,727,1268,-0.781722,-0.700594
-490,-244,0,0,0,0,0,0,0,0,0,-1,734,1268,0,0
-483,-244,0,0,0,0,0,0,0,0,0,-1,741,1268,0,0
-476,-244,0,0,0,0,0,0,0,0,0,-1,748,1268,0,0
-469,-244,0,0,0,0,0,0,0,0,0,-1,755,1268,0,0
-462,-244,0,0,0,0,0,0,0,0,0,-1,762,1268,0,0
-455,-244,0,0,0,0,0,0,0,0,0,-1,769,1268,0,0
-448,-244,0,0,0,0,0,0,0,0,0,-1,776,1268,0,0
-441,-244,0,0,0,0,0,0,0,0,0,-1,783,1268,0,0
-434,-244,0,0,0,0,0,0,0,0,0,-1,790,1268,0,0
-427,-244,0,0,0,0,0,0,0,0,0,-1,797,1268,0,0
-420,-244,0,0,0,0,0,0,0,0,0,-1,804,1268,0,0
-413,-244,0,0,0,0,0,0,0,0,0,-1,811,1268,0,0
-406,-244,0,0,0,0,0,0,0,0,0,-1,818,1268,0,0
-399,-244,0,0,0,0,0,0,0,0,0,-1,825,1268,0,0
-392,-244,0,0,0,0,0,0,0,0,0,-1,832,1268,0,0
-385,-244,0,0,0,0,0,0,0,0,0,-1,839,1268,0,0
-378,-244,0,0,0,0,0,0,0,0,0,-1,846,1268,0,0
-371,-244,0,0,0,0,0,0,0,0,0,-1,853,1268,0,0
-364,-244,0,0,0,0,0,0,0,0,0,-1,860,1268,0,0
-357,-244,0,0,0,0,0,0,0,0,0,-1,867,1268,0,0
-350,-244,0,0,0,0,0,0,0,0,0,-1,874,1268,0,0
-343,-244,0,0,0,0,0,0,0,0,0,-1,881,1268,0,0
-336,-244,0,0,0,0,0,0,0,0,0,-1,888,1268,0,0
-329,-244,0,0,0,0,0,0,0,0,0,-1,895,1268,0,0
-322,-244,0,0,0,0,0,0,0,0,0,-1,902,1268,0,0
-315,-244,0,0,0,0,0,0,0,0,0,-1,909,1268,0,0
-308,-244,0,0,0,0,0,0,0,0,0,-1,916,1268,0,0
-301,-244,0,0,0,0,0,0,0,0,0,-1,923,1268,0,0
-294,-244,0,0,0,0,0,0,0,0,0,-1,930,1268,0,0
-287,-244,0,0,0,0,0,0,0,0,0,-1,937,1268,0,0
-280,-244,0,0,0,0,0,0,0,0,0,-1,944,1268,0,0
-273,-244,0,0,0,0,0,0,0,0,0,-1,951,1268,0,0
-266,-244,0,0,0,0,0,0,0,0,0,-1,958,1268,0,0
-259,-244,0,0,0,0,0,0,0,0,0,-1,965,1268,0,0
-252,-244,0,0,0,0,0,0,0,0,0,-1,972,1268,0,0
-245,-244,0,0,0,0,0,0,0,0,0,-1,979,1268,0,0
-238,-244,0,0,0,0,0,0,0,0,0,-1,986,1268,0,0
-231,-244,0,0,0,0,0,0,0,0,0,-1,993,1268,0,0
-224,-244,0,0,0,0,0,0,0,0,0,-1,1000,1268,0,0
-217,-244,0,0,0,0,0,0,0,0,0,-1,1007,1268,0,0
-210,-244,0,0,0,0,0,0,0,0,0,-1,1014,1268,0,0
-203,-244,0,0,0,0,0,0,0,0,0,-1,1021,1268,0,0
-196,-244,0,0,0,0,0,0,0,0,0,-1,1028,1268,0,0
-189,-244,0,0,0,0,0,0,0,0,0,-1,1035,1268,0,0
-182,-244,0,0,0,0,0,0,0,0,0,-1,1042,1268,0,0
-175,-244,0,0,0,0,0,0,0,0,0,-1,1049,1268,0,0
-168,-244,0,0,0,0,0,0,0,0,0,-1,1056,1268,0,0
-161,-244,0,0,0,0,0,0,0,0,0,-1,1063,1268,0,0
-154,-244,0,0,0,0,0,0,0,0,0,-1,1070,1268,0,0
-147,-244,0,0,0,0,0,0,0,0,0,-1,1077,1268,0,0
-140,-244,0,0,0,0,0,0,0,0,0,-1,1084,1268,0,0
-133,-244,0,0,0,0,0,0,0,0,0,-1,1091,1268,0,0
-126,-244,0,0,0,0,0,0,0,0,0,-1,1098,1268,0,0
-119,-244,0,0,0,0,0,0,0,0,0,-1,1105,1268,0,0
-112,-244,0,0,0,0,0,0,0,0,0,-1,1112,1268,0,0
-105,-244,0,0,0,0,0,0,0,0,0,-1,1119,1268,0,0
-98,-244,0,0,0,0,0,0,0,0,0,-1,1126,1268,0,0
-91,-244,0,0,0,0,0,0,0,0,0,-1,1133,1268,0,0
-84,-244,0,0,0,0,0,0,0,0,0,-1,1140,1268,0,0
-77,-244,0,0,0,0,0,0,0,0,0,-1,1147,1268,0,0
-70,-244,0,0,0,0,0,0,0,0,0,-1,1154,1268,0,0
-63,-244,0,0,0,0,0,0,0,0,0,-1,1161,1268,0,0
-56,-244,0,0,0,0,0,0,0,0,0,-1,1168,1268,0,0
-49,-244,0,0,0,0,0,0,0,0,0,-1,1175,1268,0,0
-42,-244,0,0,0,0,0,0,0,0,0,-1,1182,1268,0,0
-35,-244,0,0,0,0,0,0,0,0,0,-1,1189,1268,0,0
-28,-244,0,0,0,0,0,0,0,0,0,-1,1196,1268,0,0
-21,-244,0,0,0,0,0,0,0,0,0,-1,1203,1268,0,0
-14,-244,0,0,0,0,0,0,0,0,0,-1,1210,1268,0,0
-7,-244,0,0,0,0,0,0,0,0,0,-1,1217,1268,0,0
0,-244,0,0,0,0,0,0,0,0,0,-1,1224,1268,0,0
7,-244,0,0,0,0,0,0,0,0,0,-1,1231,1268,0,0
14,-244,0,0,0,0,0,0,0,0,0,-1,1238,1268,0,0
21,-244,0,0,0,0,0,0,0,0,0,-1,1245,1268,0,0
28,-244,0,0,0,0,0,0,0,0,0,-1,1252,1268,0,0
35,-244,0,0,0,0,0,0,0,0,0,-1,1259,1268,0,0
42,-244,0,0,0,0,0,0,0,0,0,-1,1266,1268,0,0
49,-244,0,0,0,0,0,0,0,0,0,-1,1273,1268,0,0
56,-244,0,0,0,0,0,0,0,0,0,-1,1280,1268,0,0
63,-244,0,0,0,0,0,0,0,0,0,-1,1287,1268,0,0
70,-244,0,0,0,0,0,0,0,0,0,-1,1294,1268,0,0
77,-244,0,0,0,0,0,0,0,0,0,-1,1301,1268,0,0
84,-244,0,0,0,0,0,0,0,0,0,-1,1308,1268,0,0
91,-244,0,0,0,0,0,0,0,0,0,-1,1315,1268,0,0
98,-244,0,0,0,0,0,0,0,0,0,-1,1322,1268,0,0
105,-244,0,0,0,0,0,0,0,0,0,-1,1329,1268,0,0
112,-244,0,0,0,0,0,0,0,0,0,-1,1336,1268,0,0
119,-244,0,0,0,0,0,0,0,0,0,-1,1343,1268,0,0
126,-244,0,0,0,0,0,0,0,0,0,-1,1350,1268,0,0
133,-244,0,0,0,0,0,0,0,0,0,-1,1357,1268,0,0
140,-244,0,0,0,0,0,0,0,0,0,-1,1364,1268,0,0
147,-244,0,0,0,0,0,0,0,0,0,-1,1371,1268,0,0
154,-244,0,0,0,0,0,0,0,0,0,-1,1378,1268,0,0
161,-244,0,0,0,0,0,0,0,0,0,-1,1385,1268,0,0
168,-244,0,0,0,0,0,0,0,0,0,-1,1392,1268,0,0
175,-244,0,0,0,0,0,0,0,0,0,-1,1399,1268,0,0
182,-244,0,0,0,0,0,0,0,0,0,-1,1406,1268,0,0
189,-244,0,0,0,0,0,0,0,0,0,-1,1413,1268,0,0
196,-244,0,0,0,0,0,0,0,0,0,-1,1420,1268,0,0
203,-244,0,0,0,0,0,0,0,0,0,-1,1427,1268,0,0
210,-244,0,0,0,0,0,0,0,0,0,-1,1434,1268,0,0
217,-244,0,0,0,0,0,0,0,0,0,-1,1441,1268,0,0
224,-244,0,0,0,0,0,0,0,0,0,-1,1448,1268,0,0
231,-244,0,0,0,0,0,0,0,0,0,-1,1455,1268,0,0
238,-244,0,0,0,0,0,0,0,0,0,-1,1462,1268,0,0
245,-244,0,0,0,0,0,0,0,0,0,-1,1469,1268,0,0
252,-244,0,0,0,0,0,0,0,0,0,-1,1476,1268,0,0
259,-244,0,0,0,0,0,0,0,0,0,-1,1483,1268,0,0
266,-244,0,0,0,0,0,0,0,0,0,-1,1490,1268,0,0
273,-244,0,0,0,0,0,0,0,0,0,-1,1497,1268,0,0
280,-244,0,0,0,0,0,0,0,0,0,-1,1504,1268,0,0
287,-244,0,0,0,0,0,0,0,0,0,-1,1511,1268,0,0
294,-244,0,0,0,0,0,0,0,0,0,-1,1518,1268,0,0
301,-244,0,0,0,0,0,0,0,0,0,-1,1525,1268,0,0
308,-244,0,0,0,0,0,0,0,0,0,-1,1532,1268,0,0
315,-244,0,0,0,0,0,0,0,0,0,-1,1539,1268,0,0
322,-244,0,0,0,0,0,0,0,0,0,-1,1546,1268,0,0
329,-244,0,0,0,0,0,0,0,0,0,-1,1553,1268,0,0
336,-244,0,0,0,0,0,0,0,0,0,-1,1560,1268,0,0
343,-244,0,0,0,0,0,0,0,0,0,-1,1567,1268,0,0
350,-244,0,0,0,0,0,0,0,0,0,-1,1574,1268,0,0
357,-244,0,0,0,0,0,0,0,0,0,-1,1581,1268,0,0
364,-244,0,0,0,0,0,0,0,0,0,-1,1588,1268,0,0
371,-244,0,0,0,0,0,0,0,0,0,-1,1595,1268,0,0
378,-244,0,0,0,0,0,0,0,0,0,-1,1602,1268,0,0
385,-244,0,0,0,0,0,0,0,0,0,-1,1609,1268,0,0
392,-244,0,0,0,0,0,0,0,0,0,-1,1616,1268,0,0
399,-244,0,0,0,0,0,0,0,0,0,-1,1623,1268,0,0
406,-244,0,0,0,0,0,0,0,0,0,-1,1630,1268,0,0
413,-244,0,0,0,0,0,0,0,0,0,-1,1637,1268,0,0
420,-244,0,0,0,0,0,0,0,0,0,-1,1644,1268,0,0
427,-244,0,0,0,0,0,0,0,0,0,-1,1651,1268,0,0
434,-244,0,0,0,0,0,0,0,0,0,-1,1658,1268,0,0
441,-244,0,0,0,0,0,0,0,0,0,-1,1665,1268,0,0
448,-244,0,0,0,0,0,0,0,0,0,-1,1672,1268,0,0
455,-244,0,0,0,0,0,0,0,0,0,-1,1679,1268,0,0
462,-244,0,0,0,0,0,0,0,0,0,-1,1686,1268,0,0
469,-244,0,0,0,0,0,0,0,0,0,-1,1693,1268,0,0
476,-244,0,0,0,0,0,0,0,0,0,-1,1700,1268,0,0
483,-244,0,0,0,0,0,0,0,0,0,-1,1707,1268,0,0
490,-244,0,0,0,0,0,0,0,0,0,-1,1714,1268,0,0
497,-244,0,0,0,0,0,0,0,0,0,-1,1721,1268,0,0
504,-244,0,0,0,0,0,0,0,0,0,-1,1728,1268,0,0
511,-244,0,0,0,0,0,0,0,0,0,-1,1735,1268,0,0
518,-244,0,0,0,0,0,0,0,0,0,-1,1742,1268,0,0
525,-244,0,0,0,0,0,0,0,0,0,-1,1749,1268,0,0
532,-244,0,0,0,0,0,0,0,0,0,-1,1756,1268,0,0
539,-244,0,0,0,0,0,0,0,0,0,-1,1763,1268,0,0
546,-244,0,0,0,0,0,0,0,0,0,-1,1770,1268,0,0
553,-244,0,0,0,0,0,0,0,0,0,-1,1777,1268,0,0
560,-244,0,0,0,0,0,0,0,0,0,-1,1784,1268,0,0
567,-244,0,0,0,0,0,0,0,0,0,-1,1791,1268,0,0
574,-244,0,0,0,0,0,0,0,0,0,-1,1798,1268,0,0
581,-244,0,0,0,0,0,0,0,0,0,-1,1805,1268,0,0
588,-244,0,0,0,0,0,0,0,0,0,-1,1812,1268,0,0
595,-244,0,0,0,0,0,0,0,0,0,-1,1819,1268,0,0
602,-244,0,0,0,0,0,0,0,0,0,-1,1826,1268,0,0
609,-244,0,0,0,0,0,0,0,0,0,-1,1833,1268,0,0
616,-244,5,0.644043,-0.000692254,-0.00331075,0.00593627,0.00407743,-0.00808043,0.67686,0.00714504,0.0326325,1840,1268,5.00003,-0.644004
623,-244,4.97595,0.708618,0.00297608,-0.00484054,0.00373523,0.00447396,-0.00633841,0.381379,0.00627338,0.0261383,1847,1268,4.9759,-0.708656
630,-244,4.979,0.776367,0.00497096,-0.00480469,0.00125497,0.0051295,-0.00496323,0.125662,0.00582731,0.0224515,1854,1268,4.97899,-0.776416
637,-244,5.02222,0.778198,0.00559365,-0.00422567,-0.00110844,0.00571721,-0.00434924,-0.111022,0.00582973,0.0348443,1861,1268,5.02219,-0.778197
644,-244,5.03015,0.75647,0.00541312,-0.00344611,-0.00302391,0.00634686,-0.00437985,-0.299496,0.00622768,0.0421444,1868,1268,5.03012,-0.756527
651,-244,5.33813,0.678833,0.00484582,-0.00263032,-0.00439456,0.0068771,-0.00466159,-0.432973,0.00670267,0.0451723,1875,1268,5.3381,-0.678791
658,-244,5.49866,0.508423,0.00407308,-0.00186791,-0.00528267,0.00716315,-0.00495798,-0.529276,0.00703663,0.048585,1882,1268,5.49863,-0.508464
665,-244,4.76318,0.880615,0,0,0,0,0,0,0,-1,1889,1268,4.76319,-0.880652
672,-244,4.73987,0.895264,0.00204333,-0.000676287,-0.00591717,0.00675493,-0.00538789,-0.672455,0.00702545,0.0487305,1896,1268,4.73992,-0.895238
679,-244,4.33667,0.995972,0.000961415,-0.000390579,-0.00585043,0.00617478,-0.00560394,-0.72788,0.00680311,0.0393458,1903,1268,4.33663,-0.995937
686,-244,4.39246,1.01892,6.66172e-05,2.36717e-05,-0.00544976,0.00549494,-0.00540465,-0.783428,0.00629296,0.0187873,1910,1268,4.39244,-1.01898
693,-244,4.39172,1.00195,-0.000706616,0.00044655,-0.00448295,0.00438984,-0.00464991,-0.849356,0.00521982,0.00914299,1917,1268,4.39178,-1.002
700,-244,4.38684,0.962646,-0.00112119,0.000548714,-0.00383434,0.00363796,-0.00421043,-0.892603,0.00453528,0.00823843,1924,1268,4.38679,-0.962625
707,-244,4.40662,0.939209,-0.0011251,0.000672325,-0.00316492,0.00306366,-0.00351644,-0.923737,0.00380202,0.0091899,1931,1268,4.40663,-0.939159
714,-244,4.41382,0.923584,-0.000740781,0.000767541,-0.00261908,0.00273887,-0.00271211,-0.92558,0.00314714,0.0101648,1938,1268,4.41388,-0.923582
721,-244,4.3916,0.911499,0.000824161,0.00239772,-0.00312052,0.00482912,-0.00160724,-0.90889,0.00386811,0.0118896,1945,1268,4.39159,-0.911549
728,-244,4.38281,0.871338,0.00248699,0.00340127,-0.00373089,0.00670292,-0.000814669,-0.846358,0.00476345,0.0155869,1952,1268,4.38284,-0.871335
735,-244,4.37183,0.830322,0.00422692,0.00471428,-0.00463085,0.00910786,-0.000166657,-0.811685,0.00612821,0.0211687,1959,1268,4.37179,-0.830287
742,-244,4.40222,0.810425,0.0063695,0.00677016,-0.00597573,0.0125489,0.000590738,-0.802154,0.00817615,0.0149725,1966,1268,4.4022,-0.810401
749,-244,4.40076,0.78125,0.00875407,0.00925312,-0.00766704,0.0166747,0.0013325,-0.801665,0.0107,0.0178692,1973,1268,4.4008,-0.781267
756,-244,4.29431,0.709595,0.0115795,0.0122479,-0.00951072,0.0214303,0.00239711,-0.80296,0.0135586,0.0235324,1980,1268,4.29437,-0.709535
763,-244,4.28735,0.502319,0.0149098,0.0157535,-0.0113266,0.0266661,0.00399721,-0.804012,0.0166061,0.0376773,1987,1268,4.28738,-0.502283
770,-244,4.52686,0.259766,0.018565,0.0196966,-0.0128796,0.0320228,0.00623882,-0.807348,0.0196027,0.0431586,1994,1268,4.52684,-0.259808
777,-244,4.69006,0.0161133,0.0223382,0.023911,-0.013796,0.036943,0.00930621,-0.813869,0.022187,0.04621,2001,1268,4.69011,-0.0161519
784,-244,4.62878,-0.12915,0,0,0,0,0,0,0,-1,2008,1268,4.62875,0.129189
791,-244,0,0,0,0,0,0,0,0,0,-1,2015,1268,0,0
798,-244,0,0,0,0,0,0,0,0,0,-1,2022,1268,0,0
805,-244,0,0,0,0,0,0,0,0,0,-1,2029,1268,0,0
812,-244,0,0,0,0,0,0,0,0,0,-1,2036,1268,0,0
-700,-251,0,0,0,0,0,0,0,0,0,-1,524,1275,0,0
-693,-251,0,0,0,0,0,0,0,0,0,-1,531,1275,0,0
-686,-251,0,0,0,0,0,0,0,0,0,-1,538,1275,0,0
-679,-251,0,0,0,0,0,0,0,0,0,-1,545,1275,0,0
-672,-251,0,0,0,0,0,0,0,0,0,-1,552,1275,0,0
-665,-251,0.10144,0.228882,-0.074617,0.0800131,0.0419369,0.0906545,-0.0852583,1.3223,0.101579,0.0487027,559,1275,0.101458,-0.228881
-658,-251,-0.0568848,0.697144,-0.0560835,0.0680644,0.0339058,0.0767208,-0.0647399,1.32083,0.08177,0.0475112,566,1275,-0.0568631,-0.697096
-651,-251,-0.0650635,0.824829,-0.0420587,0.0573444,0.0269325,0.0641725,-0.0488868,1.3225,0.0654734,0.0497129,573,1275,-0.0650834,-0.824777
-644,-251,0.140137,1.03955,-0.0312459,0.0477114,0.0209259,0.0529145,-0.0364489,1.3271,0.0518851,0.0432098,580,1275,0.140109,-1.0396
-637,-251,0.39093,1.13196,-0.0228649,0.039059,0.015872,0.0428902,-0.0266961,1.33395,0.0405367,0.0419377,587,1275,0.390905,-1.132
-630,-251,0.796509,1.31543,0,0,0,0,0,0,0,-1,594,1275,0.796534,-1.31539
-623,-251,-0.426636,0.561768,-0.0110233,0.0246311,0.00844284,0.0265293,-0.0129215,1.34965,0.0232242,0.0338329,601,1275,-0.426644,-0.561725
-616,-251,-0.423462,0.718628,-0.00711613,0.0187195,0.00587411,0.0199924,-0.00838898,1.35741,0.0168363,0.0177555,608,1275,-0.423465,-0.718638
-609,-251,-0.447693,0.739258,-0.00424372,0.0130696,0.00387075,0.0138956,-0.0050697,1.36056,0.0113379,0.0175436,615,1275,-0.447714,-0.739253
-602,-251,-0.438049,0.775269,-0.0022864,0.00802268,0.00235334,0.00853449,-0.00279821,1.35665,0.00681661,0.0137323,622,1275,-0.43806,-0.775298
-595,-251,-0.407532,0.797241,-0.00181914,0.00630902,0.00119898,0.00648219,-0.00199231,1.42736,0.00511654,0.0121274,629,1275,-0.407539,-0.797213
-588,-251,-0.407104,0.819336,-0.0016414,0.00326817,0.0011434,0.0035214,-0.00189463,1.35284,0.00317361,0.0132976,636,1275,-0.407096,-0.819317
-581,-251,-0.407104,0.873291,-0.00156381,0.000915189,0.0018733,0.00192194,-0.00257056,1.07766,0.00260274,0.013026,643,1275,-0.407134,-0.87326
-574,-251,-0.392151,0.923218,-0.00193135,0.00138182,0.00172179,0.00211455,-0.00266408,1.16845,0.00276502,0.0123279,650,1275,-0.392131,-0.923218
-567,-251,-0.405457,0.925659,-0.00203244,0.00109442,0.000272579,0.001118,-0.00205603,1.48449,0.00185901,0.0107221,657,1275,-0.40547,-0.925605
-560,-251,-0.414917,0.939087,-0.00137734,0.000755908,-0.000965436,0.00112795,-0.00174938,-1.20298,0.00167409,0.0107433,664,1275,-0.414929,-0.939052
-553,-251,-0.384949,1.01025,-0.00125032,0.00115139,-0.00194949,0.0022402,-0.00233913,-1.06144,0.00264408,0.0218246,671,1275,-0.384924,-1.01019
-546,-251,-2.09534,3.46692,0,0,0,0,0,0,0,-1,678,1275,-2.09536,-3.46687
-539,-251,-2.21326,3.07434,0,0,0,0,0,0,0,-1,685,1275,-2.21325,-3.07431
-532,-251,-1.64117,2.71228,0,0,0,0,0,0,0,-1,692,1275,-1.64116,-2.71226
-525,-251,-1.46692,2.41785,0.000928094,0.00188224,-0.0081003,0.00951951,-0.00670917,-0.814812,0.00941634,0.0461646,699,1275,-1.46693,-2.41781
-518,-251,-1.31836,2.0249,0.00164635,0.00195059,-0.00977499,0.0115746,-0.00797771,-0.793179,0.0113521,0.042699,706,1275,-1.31834,-2.02487
-511,-251,-1.11151,1.29724,0.00213682,0.00203018,-0.0110316,0.0131153,-0.00894827,-0.782981,0.0128139,0.0419232,713,1275,-1.11152,-1.29725
-504,-251,-0.782715,0.717285,0,0,0,0,0,0,0,-1,720,1275,-0.782726,-0.717279
-497,-251,-0.850891,0.77771,0,0,0,0,0,0,0,-1,727,1275,-0.850865,-0.777754
-490,-251,0,0,0,0,0,0,0,0,0,-1,734,1275,0,0
-483,-251,0,0,0,0,0,0,0,0,0,-1,741,1275,0,0
-476,-251,0,0,0,0,0,0,0,0,0,-1,748,1275,0,0
-469,-251,0,0,0,0,0,0,0,0,0,-1,755,1275,0,0
-462,-251,0,0,0,0,0,0,0,0,0,-1,762,1275,0,0
-455,-251,0,0,0,0,0,0,0,0,0,-1,769,1275,0,0
-448,-251,0,0,0,0,0,0,0,0,0,-1,776,1275,0,0
-441,-251,0,0,0,0,0,0,0,0,0,-1,783,1275,0,0
-434,-251,0,0,0,0,0,0,0,0,0,-1,790,1275,0,0
-427,-251,0,0,0,0,0,0,0,0,0,-1,797,1275,0,0
-420,-251,0,0,0,0,0,0,0,0,0,-1,804,1275,0,0
-413,-251,0,0,0,0,0,0,0,0,0,-1,811,1275,0,0
-406,-251,0,0,0,0,0,0,0,0,0,-1,818,1275,0,0
-399,-251,0,0,0,0,0,0,0,0,0,-1,825,1275,0,0
-392,-251,0,0,0,0,0,0,0,0,0,-1,832,1275,0,0
-385,-251,0,0,0,0,0,0,0,0,0,-1,839,1275,0,0
-378,-251,0,0,0,0,0,0,0,0,0,-1,846,1275,0,0
-371,-251,0,0,0,0,0,0,0,0,0,-1,853,1275,0,0
-364,-251,0,0,0,0,0,0,0,0,0,-1,860,1275,0,0
-357,-251,0,0,0,0,0,0,0,0,0,-1,867,1275,0,0
-350,-251,0,0,0,0,0,0,0,0,0,-1,874,1275,0,0
-343,-251,0,0,0,0,0,0,0,0,0,-1,881,1275,0,0
-336,-251,0,0,0,0,0,0,0,0,0,-1,888,1275,0,0
-329,-251,0,0,0,0,0,0,0,0,0,-1,895,1275,0,0
-322,-251,0,0,0,0,0,0,0,0,0,-1,902,1275,0,0
-315,-251,0,0,0,0,0,0,0,0,0,-1,909,1275,0,0
-308,-251,0,0,0,0,0,0,0,0,0,-1,916,1275,0,0
-301,-251,0,0,0,0,0,0,0,0,0,-1,923,1275,0,0
-294,-251,0,0,0,0,0,0,0,0,0,-1,930,1275,0,0
-287,-251,0,0,0,0,0,0,0,0,0,-1,937,1275,0,0
-280,-251,0,0,0,0,0,0,0,0,0,-1,944,1275,0,0
-273,-251,0,0,0,0,0,0,0,0,0,-1,951,1275,0,0
-266,-251,0,0,0,0,0,0,0,0,0,-1,958,1275,0,0
-259,-251,0,0,0,0,0,0,0,0,0,-1,965,1275,0,0
-252,-251,0,0,0,0,0,0,0,0,0,-1,972,1275,0,0
-245,-251,0,0,0,0,0,0,0,0,0,-1,979,1275,0,0
-238,-251,0,0,0,0,0,0,0,0,0,-1,986,1275,0,0
-231,-251,0,0,0,0,0,0,0,0,0,-1,993,1275,0,0
-224,-251,0,0,0,0,0,0,0,0,0,-1,1000,1275,0,0
-217,-251,0,0,0,0,0,0,0,0,0,-1,1007,1275,0,0
-210,-251,0,0,0,0,0,0,0,0,0,-1,1014,1275,0,0
-203,-251,0,0,0,0,0,0,0,0,0,-1,1021,1275,0,0
-196,-251,0,0,0,0,0,0,0,0,0,-1,1028,1275,0,0
-189,-251,0,0,0,0,0,0,0,0,0,-1,1035,1275,0,0
-182,-251,0,0,0,0,0,0,0,0,0,-1,1042,1275,0,0
-175,-251,0,0,0,0,0,0,0,0,0,-1,1049,1275,0,0
-168,-251,0,0,0,0,0,0,0,0,0,-1,1056,1275,0,0
-161,-251,0,0,0,0,0,0,0,0,0,-1,1063,1275,0,0
-154,-251,0,0,0,0,0,0,0,0,0,-1,1070,1275,0,0
-147,-251,0,0,0,0,0,0,0,0,0,-1,1077,1275,0,0
-140,-251,0,0,0,0,0,0,0,0,0,-1,1084,1275,0,0
-133,-251,0,0,0,0,0,0,0,0,0,-1,1091,1275,0,0
-126,-251,0,0,0,0,0,0,0,0,0,-1,1098,1275,0,0
-119,-251,0,0,0,0,0,0,0,0,0,-1,1105,1275,0,0
-112,-251,0,0,0,0,0,0,0,0,0,-1,1112,1275,0,0
-105,-251,0,0,0,0,0,0,0,0,0,-1,1119,1275,0,0
-98,-251,0,0,0,0,0,0,0,0,0,-1,1126,1275,0,0
-91,-251,0,0,0,0,0,0,0,0,0,-1,1133,1275,0,0
-84,-251,0,0,0,0,0,0,0,0,0,-1,1140,1275,0,0
-77,-251,0,0,0,0,0,0,0,0,0,-1,1147,1275,0,0
-70,-251,0,0,0,0,0,0,0,0,0,-1,1154,1275,0,0
-63,-251,0,0,0,0,0,0,0,0,0,-1,1161,1275,0,0
-56,-251,0,0,0,0,0,0,0,0,0,-1,1168,1275,0,0
-49,-251,0,0,0,0,0,0,0,0,0,-1,1175,1275,0,0
-42,-251,0,0,0,0,0,0,0,0,0,-1,1182,1275,0,0
-35,-251,0,0,0,0,0,0,0,0,0,-1,1189,1275,0,0
-28,-251,0,0,0,0,0,0,0,0,0,-1,1196,1275,0,0
-21,-251,0,0,0,0,0,0,0,0,0,-1,1203,1275,0,0
-14,-251,0,0,0,0,0,0,0,0,0,-1,1210,1275,0,0
-7,-251,0,0,0,0,0,0,0,0,0,-1,1217,1275,0,0
0,-251,0,0,0,0,0,0,0,0,0,-1,1224,1275,0,0
7,-251,0,0,0,0,0,0,0,0,0,-1,1231,1275,0,0
14,-251,0,0,0,0,0,0,0,0,0,-1,1238,1275,0,0
21,-251,0,0,0,0,0,0,0,0,0,-1,1245,1275,0,0
28,-251,0,0,0,0,0,0,0,0,0,-1,1252,1275,0,0
35,-251,0,0,0,0,0,0,0,0,0,-1,1259,1275,0,0
42,-251,0,0,0,0,0,0,0,0,0,-1,1266,1275,0,0
49,-251,0,0,0,0,0,0,0,0,0,-1,1273,1275,0,0
56,-251,0,0,0,0,0,0,0,0,0,-1,1280,1275,0,0
63,-251,0,0,0,0,0,0,0,0,0,-1,1287,1275,0,0
70,-251,0,0,0,0,0,0,0,0,0,-1,1294,1275,0,0
77,-251,0,0,0,0,0,0,0,0,0,-1,1301,1275,0,0
84,-251,0,0,0,0,0,0,0,0,0,-1,1308,1275,0,0
91,-251,0,0,0,0,0,0,0,0,0,-1,1315,1275,0,0
98,-251,0,0,0,0,0,0,0,0,0,-1,1322,1275,0,0
105,-251,0,0,0,0,0,0,0,0,0,-1,1329,1275,0,0
112,-251,0,0,0,0,0,0,0,0,0,-1,1336,1275,0,0
119,-251,0,0,0,0,0,0,0,0,0,-1,1343,1275,0,0
126,-251,0,0,0,0,0,0,0,0,0,-1,1350,1275,0,0
133,-251,0,0,0,0,0,0,0,0,0,-1,1357,1275,0,0
140,-251,0,0,0,0,0,0,0,0,0,-1,1364,1275,0,0
147,-251,0,0,0,0,0,0,0,0,0,-1,1371,1275,0,0
154,-251,0,0,0,0,0,0,0,0,0,-1,1378,1275,0,0
161,-251,0,0,0,0,0,0,0,0,0,-1,1385,1275,0,0
168,-251,0,0,0,0,0,0,0,0,0,-1,1392,1275,0,0
175,-251,0,0,0,0,0,0,0,0,0,-1,1399,1275,0,0
182,-251,0,0,0,0,0,0,0,0,0,-1,1406,1275,0,0
189,-251,0,0,0,0,0,0,0,0,0,-1,1413,1275,0,0
196,-251,0,0,0,0,0,0,0,0,0,-1,1420,1275,0,0
203,-251,0,0,0,0,0,0,0,0,0,-1,1427,1275,0,0
210,-251,0,0,0,0,0,0,0,0,0,-1,1434,1275,0,0
217,-251,0,0,0,0,0,0,0,0,0,-1,1441,1275,0,0
224,-251,0,0,0,0,0,0,0,0,0,-1,1448,1275,0,0
231,-251,0,0,0,0,0,0,0,0,0,-1,1455,1275,0,0
238,-251,0,0,0,0,0,0,0,0,0,-1,1462,1275,0,0
245,-251,0,0,0,0,0,0,0,0,0,-1,1469,1275,0,0
252,-251,0,0,0,0,0,0,0,0,0,-1,1476,1275,0,0
259,-251,0,0,0,0,0,0,0,0,0,-1,1483,1275,0,0
266,-251,0,0,0,0,0,0,0,0,0,-1,1490,1275,0,0
273,-251,0,0,0,0,0,0,0,0,0,-1,1497,1275,0,0
280,-251,0,0,0,0,0,0,0,0,0,-1,1504,1275,0,0
287,-251,0,0,0,0,0,0,0,0,0,-1,1511,1275,0,0
294,-251,0,0,0,0,0,0,0,0,0,-1,1518,1275,0,0
301,-251,0,0,0,0,0,0,0,0,0,-1,1525,1275,0,0
308,-251,0,0,0,0,0,0,0,0,0,-1,1532,1275,0,0
315,-251,0,0,0,0,0,0,0,0,0,-1,1539,1275,0,0
322,-251,0,0,0,0,0,0,0,0,0,-1,1546,1275,0,0
329,-251,0,0,0,0,0,0,0,0,0,-1,1553,1275,0,0
336,-251,0,0,0,0,0,0,0,0,0,-1,1560,1275,0,0
343,-251,0,0,0,0,0,0,0,0,0,-1,1567,1275,0,0
350,-251,0,0,0,0,0,0,0,0,0,-1,1574,1275,0,0
357,-251,0,0,0,0,0,0,0,0,0,-1,1581,1275,0,0
364,-251,0,0,0,0,0,0,0,0,0,-1,1588,1275,0,0
371,-251,0,0,0,0,0,0,0,0,0,-1,1595,1275,0,0
378,-251,0,0,0,0,0,0,0,0,0,-1,1602,1275,0,0
385,-251,0,0,0,0,0,0,0,0,0,-1,1609,1275,0,0
392,-251,0,0,0,0,0,0,0,0,0,-1,1616,1275,0,0
399,-251,0,0,0,0,0,0,0,0,0,-1,1623,1275,0,0
406,-251,0,0,0,0,0,0,0,0,0,-1,1630,1275,0,0
413,-251,0,0,0,0,0,0,0,0,0,-1,1637,1275,0,0
420,-251,0,0,0,0,0,0,0,0,0,-1,1644,1275,0,0
427,-251,0,0,0,0,0,0,0,0,0,-1,1651,1275,0,0
434,-251,0,0,0,0,0,0,0,0,0,-1,1658,1275,0,0
441,-251,0,0,0,0,0,0,0,0,0,-1,1665,1275,0,0
448,-251,0,0,0,0,0,0,0,0,0,-1,1672,1275,0,0
455,-251,0,0,0,0,0,0,0,0,0,-1,1679,1275,0,0
462,-251,0,0,0,0,0,0,0,0,0,-1,1686,1275,0,0
469,-251,0,0,0,0,0,0,0,0,0,-1,1693,1275,0,0
476,-251,0,0,0,0,0,0,0,0,0,-1,1700,1275,0,0
483,-251,0,0,0,0,0,0,0,0,0,-1,1707,1275,0,0
490,-251,0,0,0,0,0,0,0,0,0,-1,1714,1275,0,0
497,-251,0,0,0,0,0,0,0,0,0,-1,1721,1275,0,0
504,-251,0,0,0,0,0,0,0,0,0,-1,1728,1275,0,0
511,-251,0,0,0,0,0,0,0,0,0,-1,1735,1275,0,0
518,-251,0,0,0,0,0,0,0,0,0,-1,1742,1275,0,0
525,-251,0,0,0,0,0,0,0,0,0,-1,1749,1275,0,0
532,-251,0,0,0,0,0,0,0,0,0,-1,1756,1275,0,0
539,-251,0,0,0,0,0,0,0,0,0,-1,1763,1275,0,0
546,-251,0,0,0,0,0,0,0,0,0,-1,1770,1275,0,0
553,-251,0,0,0,0,0,0,0,0,0,-1,1777,1275,0,0
560,-251,0,0,0,0,0,0,0,0,0,-1,1784,1275,0,0
567,-251,0,0,0,0,0,0,0,0,0,-1,1791,1275,0,0
574,-251,0,0,0,0,0,0,0,0,0,-1,1798,1275,0,0
581,-251,0,0,0,0,0,0,0,0,0,-1,1805,1275,0,0
588,-251,0,0,0,0,0,0,0,0,0,-1,1812,1275,0,0
595,-251,0,0,0,0,0,0,0,0,0,-1,1819,1275,0,0
602,-251,0,0,0,0,0,0,0,0,0,-1,1826,1275,0,0
609,-251,4.9408,0.66272,-0.00387313,-0.00753555,0.00792863,0.00243301,-0.0138417,0.671907,0.0101366,0.0317766,1833,1275,4.94076,-0.662692
616,-251,4.96545,0.650269,0.00128902,-0.00760471,0.00704503,0.00517324,-0.0114889,0.503873,0.00984757,0.026052,1840,1275,4.96546,-0.65031
623,-251,4.98376,0.716064,0.00484546,-0.00789006,0.00455659,0.00630783,-0.00935243,0.310551,0.00909823,0.0222119,1847,1275,4.9838,-0.716116
630,-251,5.04749,0.794067,0.00654692,-0.00697823,0.00184688,0.00679458,-0.00722589,0.133301,0.008096,0.0318973,1854,1275,5.04743,-0.794088
637,-251,5.19885,0.790405,0.0069267,-0.00571268,-0.000673572,0.00696249,-0.00574847,-0.0530912,0.00734983,0.0375108,1861,1275,5.1989,-0.790373
644,-251,5.12317,0.847168,0.00653937,-0.00437666,-0.00271427,0.00717702,-0.00501431,-0.230743,0.00707549,0.043967,1868,1275,5.12312,-0.847165
651,-251,3.75232,4.07556,0,0,0,0,0,0,0,-1,1875,1275,3.75235,-4.07558
658,-251,4.69604,0.984619,0,0,0,0,0,0,0,-1,1882,1275,4.69601,-0.984631
665,-251,4.67957,0.942749,0.00378335,-0.00088565,-0.00582628,0.00772543,-0.00482773,-0.59485,0.00731165,0.0488271,1889,1275,4.67953,-0.942742
672,-251,4.66064,0.917114,0.00254729,-0.000267047,-0.0059784,0.0072819,-0.00500165,-0.669814,0.00713253,0.0438203,1896,1275,4.66066,-0.917096
679,-251,4.48987,0.973877,0.00137757,0.000118778,-0.00599081,0.00677196,-0.00527561,-0.73306,0.00697353,0.0347972,1903,1275,4.48987,-0.973916
686,-251,4.35144,1.03174,0.000377136,0.00054465,-0.00560362,0.00606514,-0.00514335,-0.792871,0.00647852,0.0153185,1910,1275,4.35145,-1.03168
693,-251,4.35974,1.01563,-0.000522202,0.000981545,-0.00448539,0.00477765,-0.0043183,-0.86844,0.00525378,0.00860928,1917,1275,4.35974,-1.01565
700,-251,4.36328,0.976074,-0.000782891,0.00107361,-0.00381817,0.00407475,-0.00378403,-0.904642,0.0045383,0.00838488,1924,1275,4.3633,-0.976016
707,-251,4.39612,0.94165,-0.000498778,0.00121584,-0.00316176,0.00363446,-0.0029174,-0.91779,0.00379026,0.0105539,1931,1275,4.3961,-0.941691
714,-251,4.38782,0.919678,0.00021645,0.00136383,-0.00266139,0.00351266,-0.00193238,-0.891554,0.00318752,0.0111971,1938,1275,4.3878,-0.919638
721,-251,4.35742,0.890259,0.00218067,0.00313147,-0.00327311,0.00596353,-0.00065139,-0.857516,0.00420965,0.0121281,1945,1275,4.35747,-0.890232
728,-251,4.35071,0.86377,0.00430432,0.00457897,-0.0039849,0.00842891,0.00045438,-0.802622,0.0054741,0.013021,1952,1275,4.35069,-0.863745
735,-251,4.36877,0.824585,0.00656913,0.0062573,-0.00508029,0.0114959,0.00133054,-0.770058,0.00726117,0.0133981,1959,1275,4.36876,-0.824542
742,-251,4.38684,0.814331,0.0093826,0.00883335,-0.00664705,0.0157607,0.00245526,-0.764752,0.00979186,0.0143646,1966,1275,4.38689,-0.814279
749,-251,4.38037,0.797607,0.0125938,0.0120116,-0.00858111,0.0208887,0.00371663,-0.768444,0.0128671,0.0224601,1973,1275,4.38038,-0.797628
756,-251,4.15857,0.724854,0.0163317,0.0158564,-0.0107085,0.0268052,0.00538298,-0.774304,0.0163734,0.0394021,1980,1275,4.15861,-0.72483
763,-251,3.90247,0.604736,0.020595,0.0203711,-0.0128512,0.0333348,0.0076314,-0.781043,0.0201666,0.047102,1987,1275,3.90241,-0.604779
770,-251,3.73474,0.599609,0.0251274,0.0254777,-0.0147552,0.0400587,0.0105463,-0.791333,0.0239764,0.0450994,1994,1275,3.73478,-0.599562
777,-251,4.13086,0.133423,0.0296184,0.0309746,-0.016015,0.0463259,0.0142671,-0.806555,0.0273959,0.0477232,2001,1275,4.1309,-0.133444
784,-251,3.84851,0.0455322,0.0334318,0.0364004,-0.0159172,0.0509024,0.0189299,-0.83189,0.0297084,0.0473848,2008,1275,3.84851,-0.045529
791,-251,0,0,0,0,0,0,0,0,0,-1,2015,1275,0,0
798,-251,0,0,0,0,0,0,0,0,0,-1,2022,1275,0,0
805,-251,0,0,0,0,0,0,0,0,0,-1,2029,1275,0,0
812,-251,0,0,0,0,0,0,0,0,0,-1,2036,1275,0,0
-700,-258,0,0,0,0,0,0,0,0,0,-1,524,1282,0,0
-693,-258,0,0,0,0,0,0,0,0,0,-1,531,1282,0,0
-686,-258,0,0,0,0,0,0,0,0,0,-1,538,1282,0,0
-679,-258,0,0,0,0,0,0,0,0,0,-1,545,1282,0,0
-672,-258,0,0,0,0,0,0,0,0,0,-1,552,1282,0,0
-665,-258,-0.177979,-0.88269,0,0,0,0,0,0,0,-1,559,1282,-0.177994,0.882704
-658,-258,-0.152832,-0.819214,-0.0528638,0.0706521,0.0274996,0.0764979,-0.0587096,1.36134,0.078287,0.046768,566,1282,-0.152861,0.819168
-651,-258,-0.218506,-0.18042,-0.0406107,0.0591054,0.0210046,0.0633493,-0.0448546,1.37143,0.062775,0.0490536,573,1282,-0.218492,0.180418
-644,-258,0.124329,0.253418,-0.031014,0.0488183,0.0157565,0.0518157,-0.0340114,1.38281,0.0499064,0.0471133,580,1282,0.124299,-0.253445
-637,-258,0.377502,0.640137,-0.0234158,0.0396663,0.0115801,0.0417249,-0.0254744,1.39486,0.0391738,0.0442948,587,1282,0.377511,-0.640111
-630,-258,-4.03864,-2.32397,0,0,0,0,0,0,0,-1,594,1282,-4.03865,2.324
-623,-258,-0.49823,0.25,-0.012409,0.0246288,0.00589398,0.0255441,-0.0133243,1.41673,0.0228074,0.03882,601,1282,-0.498244,-0.249948
-616,-258,-0.359009,0.613037,-0.0086174,0.0186055,0.00409547,0.0192083,-0.00922018,1.42466,0.0167475,0.0276069,608,1282,-0.359007,-0.613085
-609,-258,-0.379883,0.724365,-0.0056026,0.013016,0.00267813,0.0133935,-0.00598018,1.43074,0.0114551,0.0154395,615,1282,-0.379884,-0.724322
-602,-258,-0.39325,0.763672,-0.00344639,0.00807144,0.0015566,0.0082781,-0.00365305,1.4388,0.00705886,0.0133268,622,1282,-0.393223,-0.76363
-595,-258,-0.383972,0.786377,-0.00254172,0.00622181,0.000886134,0.00631051,-0.00263042,1.47103,0.0053058,0.0111673,629,1282,-0.383984,-0.786343
-588,-258,-0.362244,0.822632,-0.00191983,0.00343189,0.0011719,0.00367726,-0.0021652,1.3644,0.00341059,0.0113934,636,1282,-0.362214,-0.822674
-581,-258,-0.37085,0.859985,-0.00145813,0.00135434,0.00194407,0.00234746,-0.00245125,1.09851,0.00277076,0.0136531,643,1282,-0.370829,-0.859984
-574,-258,-0.359192,0.899292,-0.00171598,0.0020982,0.00183544,0.00283797,-0.00245575,1.18767,0.00305898,0.0134301,650,1282,-0.359221,-0.89934
-567,-258,-0.379761,0.928955,-0.0018476,0.00209922,0.00023777,0.00211349,-0.00186188,1.51084,0.00229671,0.0128336,657,1282,-0.379757,-0.928985
-560,-258,-0.390442,0.960815,-0.00116995,0.00189979,-0.00107867,0.00224091,-0.00151107,-1.2645,0.00217983,0.0177217,664,1282,-0.390428,-0.960867
-553,-258,-0.378052,1.02905,-0.00117633,0.0023978,-0.00206529,0.00334186,-0.00212039,-1.14205,0.00317981,0.0202911,671,1282,-0.378074,-1.029
-546,-258,-0.467285,1.20886,-0.00109563,0.00256906,-0.00310412,0.0043413,-0.00286786,-1.05202,0.00419109,0.0355305,678,1282,-0.467297,-1.20891
-539,-258,-1.82025,3.03821,0,0,0,0,0,0,0,-1,685,1282,-1.82025,-3.03825
-532,-258,-1.53503,2.83313,0,0,0,0,0,0,0,-1,692,1282,-1.53501,-2.83308
-525,-258,-1.25775,2.62561,-5.38267e-05,0.00385883,-0.00816875,0.0103022,-0.00649724,-0.902929,0.00978176,0.0470297,699,1282,-1.25777,-2.62557
-518,-258,-1.1344,2.22571,0.000238004,0.00409375,-0.00979756,0.0121513,-0.00781956,-0.882542,0.0116202,0.0433629,706,1282,-1.1344,-2.22572
-511,-258,-1.10864,1.50916,0,0,0,0,0,0,0,-1,713,1282,-1.10862,-1.50921
-504,-258,-0.922546,0.827515,-0.000504551,0.00477802,-0.0113635,0.0138032,-0.00952972,-0.899588,0.0135464,0.0410355,720,1282,-0.922569,-0.827484
-497,-258,-0.838623,0.788086,-0.00265419,0.00568111,-0.0100395,0.0123836,-0.0093567,-0.982137,0.0125923,0.0422373,727,1282,-0.838621,-0.788073
-490,-258,-0.765747,0.679565,-0.00590245,0.00747654,-0.00675002,0.0102903,-0.00871622,-1.17585,0.010986,0.0438956,734,1282,-0.765734,-0.679553
-483,-258,0,0,0,0,0,0,0,0,0,-1,741,1282,0,0
-476,-258,0,0,0,0,0,0,0,0,0,-1,748,1282,0,0
-469,-258,0,0,0,0,0,0,0,0,0,-1,755,1282,0,0
-462,-258,0,0,0,0,0,0,0,0,0,-1,762,1282,0,0
-455,-258,0,0,0,0,0,0,0,0,0,-1,769,1282,0,0
-448,-258,0,0,0,0,0,0,0,0,0,-1,776,1282,0,0
-441,-258,0,0,0,0,0,0,0,0,0,-1,783,1282,0,0
-434,-258,0,0,0,0,0,0,0,0,0,-1,790,1282,0,0
-427,-258,0,0,0,0,0,0,0,0,0,-1,797,1282,0,0
-420,-258,0,0,0,0,0,0,0,0,0,-1,804,1282,0,0
-413,-258,0,0,0,0,0,0,0,0,0,-1,811,1282,0,0
-406,-258,0,0,0,0,0,0,0,0,0,-1,818,1282,0,0
-399,-258,0,0,0,0,0,0,0,0,0,-1,825,1282,0,0
-392,-258,0,0,0,0,0,0,0,0,0,-1,832,1282,0,0
-385,-258,0,0,0,0,0,0,0,0,0,-1,839,1282,0,0
-378,-258,0,0,0,0,0,0,0,0,0,-1,846,1282,0,0
-371,-258,0,0,0,0,0,0,0,0,0,-1,853,1282,0,0
-364,-258,0,0,0,0,0,0,0,0,0,-1,860,1282,0,0
-357,-258,0,0,0,0,0,0,0,0,0,-1,867,1282,0,0
-350,-258,0,0,0,0,0,0,0,0,0,-1,874,1282,0,0
-343,-258,0,0,0,0,0,0,0,0,0,-1,881,1282,0,0
-336,-258,0,0,0,0,0,0,0,0,0,-1,888,1282,0,0
-329,-258,0,0,0,0,0,0,0,0,0,-1,895,1282,0,0
-322,-258,0,0,0,0,0,0,0,0,0,-1,902,1282,0,0
-315,-258,0,0,0,0,0,0,0,0,0,-1,909,1282,0,0
-308,-258,0,0,0,0,0,0,0,0,0,-1,916,1282,0,0
-301,-258,0,0,0,0,0,0,0,0,0,-1,923,1282,0,0
-294,-258,0,0,0,0,0,0,0,0,0,-1,930,1282,0,0
-287,-258,0,0,0,0,0,0,0,0,0,-1,937,1282,0,0
-280,-258,0,0,0,0,0,0,0,0,0,-1,944,1282,0,0
-273,-258,0,0,0,0,0,0,0,0,0,-1,951,1282,0,0
-266,-258,0,0,0,0,0,0,0,0,0,-1,958,1282,0,0
-259,-258,0,0,0,0,0,0,0,0,0,-1,965,1282,0,0
-252,-258,0,0,0,0,0,0,0,0,0,-1,972,1282,0,0
-245,-258,0,0,0,0,0,0,0,0,0,-1,979,1282,0,0
-238,-258,0,0,0,0,0,0,0,0,0,-1,986,1282,0,0
-231,-258,0,0,0,0,0,0,0,0,0,-1,993,1282,0,0
-224,-258,0,0,0,0,0,0,0,0,0,-1,1000,1282,0,0
-217,-258,0,0,0,0,0,0,0,0,0,-1,1007,1282,0,0
-210,-258,0,0,0,0,0,0,0,0,0,-1,1014,1282,0,0
-203,-258,0,0,0,0,0,0,0,0,0,-1,1021,1282,0,0
-196,-258,0,0,0,0,0,0,0,0,0,-1,1028,1282,0,0
-189,-258,0,0,0,0,0,0,0,0,0,-1,1035,1282,0,0
-182,-258,0,0,0,0,0,0,0,0,0,-1,1042,1282,0,0
-175,-258,0,0,0,0,0,0,0,0,0,-1,1049,1282,0,0
-168,-258,0,0,0,0,0,0,0,0,0,-1,1056,1282,0,0
-161,-258,0,0,0,0,0,0,0,0,0,-1,1063,1282,0,0
-154,-258,0,0,0,0,0,0,0,0,0,-1,1070,1282,0,0
-147,-258,0,0,0,0,0,0,0,0,0,-1,1077,1282,0,0
-140,-258,0,0,0,0,0,0,0,0,0,-1,1084,1282,0,0
-133,-258,0,0,0,0,0,0,0,0,0,-1,1091,1282,0,0
-126,-258,0,0,0,0,0,0,0,0,0,-1,1098,1282,0,0
-119,-258,0,0,0,0,0,0,0,0,0,-1,1105,1282,0,0
-112,-258,0,0,0,0,0,0,0,0,0,-1,1112,1282,0,0
-105,-258,0,0,0,0,0,0,0,0,0,-1,1119,1282,0,0
-98,-258,0,0,0,0,0,0,0,0,0,-1,1126,1282,0,0
-91,-258,0,0,0,0,0,0,0,0,0,-1,1133,1282,0,0
-84,-258,0,0,0,0,0,0,0,0,0,-1,1140,1282,0,0
-77,-258,0,0,0,0,0,0,0,0,0,-1,1147,1282,0,0
-70,-258,0,0,0,0,0,0,0,0,0,-1,1154,1282,0,0
-63,-258,0,0,0,0,0,0,0,0,0,-1,1161,1282,0,0
-56,-258,0,0,0,0,0,0,0,0,0,-1,1168,1282,0,0
-49,-258,0,0,0,0,0,0,0,0,0,-1,1175,1282,0,0
-42,-258,0,0,0,0,0,0,0,0,0,-1,1182,1282,0,0
-35,-258,0,0,0,0,0,0,0,0,0,-1,1189,1282,0,0
-28,-258,0,0,0,0,0,0,0,0,0,-1,1196,1282,0,0
-21,-258,0,0,0,0,0,0,0,0,0,-1,1203,1282,0,0
-14,-258,0,0,0,0,0,0,0,0,0,-1,1210,1282,0,0
-7,-258,0,0,0,0,0,0,0,0,0,-1,1217,1282,0,0
0,-258,0,0,0,0,0,0,0,0,0,-1,1224,1282,0,0
7,-258,0,0,0,0,0,0,0,0,0,-1,1231,1282,0,0
14,-258,0,0,0,0,0,0,0,0,0,-1,1238,1282,0,0
21,-258,0,0,0,0,0,0,0,0,0,-1,1245,1282,0,0
28,-258,0,0,0,0,0,0,0,0,0,-1,1252,1282,0,0
35,-258,0,0,0,0,0,0,0,0,0,-1,1259,1282,0,0
42,-258,0,0,0,0,0,0,0,0,0,-1,1266,1282,0,0
49,-258,0,0,0,0,0,0,0,0,0,-1,1273,1282,0,0
56,-258,0,0,0,0,0,0,0,0,0,-1,1280,1282,0,0
63,-258,0,0,0,0,0,0,0,0,0,-1,1287,1282,0,0
70,-258,0,0,0,0,0,0,0,0,0,-1,1294,1282,0,0
77,-258,0,0,0,0,0,0,0,0,0,-1,1301,1282,0,0
84,-258,0,0,0,0,0,0,0,0,0,-1,1308,1282,0,0
91,-258,0,0,0,0,0,0,0,0,0,-1,1315,1282,0,0
98,-258,0,0,0,0,0,0,0,0,0,-1,1322,1282,0,0
105,-258,0,0,0,0,0,0,0,0,0,-1,1329,1282,0,0
112,-258,0,0,0,0,0,0,0,0,0,-1,1336,1282,0,0
119,-258,0,0,0,0,0,0,0,0,0,-1,1343,1282,0,0
126,-258,0,0,0,0,0,0,0,0,0,-1,1350,1282,0,0
133,-258,0,0,0,0,0,0,0,0,0,-1,1357,1282,0,0
140,-258,0,0,0,0,0,0,0,0,0,-1,1364,1282,0,0
147,-258,0,0,0,0,0,0,0,0,0,-1,1371,1282,0,0
154,-258,0,0,0,0,0,0,0,0,0,-1,1378,1282,0,0
161,-258,0,0,0,0,0,0,0,0,0,-1,1385,1282,0,0
168,-258,0,0,0,0,0,0,0,0,0,-1,1392,1282,0,0
175,-258,0,0,0,0,0,0,0,0,0,-1,1399,1282,0,0
182,-258,0,0,0,0,0,0,0,0,0,-1,1406,1282,0,0
189,-258,0,0,0,0,0,0,0,0,0,-1,1413,1282,0,0
196,-258,0,0,0,0,0,0,0,0,0,-1,1420,1282,0,0
203,-258,0,0,0,0,0,0,0,0,0,-1,1427,1282,0,0
210,-258,0,0,0,0,0,0,0,0,0,-1,1434,1282,0,0
217,-258,0,0,0,0,0,0,0,0,0,-1,1441,1282,0,0
224,-258,0,0,0,0,0,0,0,0,0,-1,1448,1282,0,0
231,-258,0,0,0,0,0,0,0,0,0,-1,1455,1282,0,0
238,-258,0,0,0,0,0,0,0,0,0,-1,1462,1282,0,0
245,-258,0,0,0,0,0,0,0,0,0,-1,1469,1282,0,0
252,-258,0,0,0,0,0,0,0,0,0,-1,1476,1282,0,0
259,-258,0,0,0,0,0,0,0,0,0,-1,1483,1282,0,0
266,-258,0,0,0,0,0,0,0,0,0,-1,1490,1282,0,0
273,-258,0,0,0,0,0,0,0,0,0,-1,1497,1282,0,0
280,-258,0,0,0,0,0,0,0,0,0,-1,1504,1282,0,0
287,-258,0,0,0,0,0,0,0,0,0,-1,1511,1282,0,0
294,-258,0,0,0,0,0,0,0,0,0,-1,1518,1282,0,0
301,-258,0,0,0,0,0,0,0,0,0,-1,1525,1282,0,0
308,-258,0,0,0,0,0,0,0,0,0,-1,1532,1282,0,0
315,-258,0,0,0,0,0,0,0,0,0,-1,1539,1282,0,0
322,-258,0,0,0,0,0,0,0,0,0,-1,1546,1282,0,0
329,-258,0,0,0,0,0,0,0,0,0,-1,1553,1282,0,0
336,-258,0,0,0,0,0,0,0,0,0,-1,1560,1282,0,0
343,-258,0,0,0,0,0,0,0,0,0,-1,1567,1282,0,0
350,-258,0,0,0,0,0,0,0,0,0,-1,1574,1282,0,0
357,-258,0,0,0,0,0,0,0,0,0,-1,1581,1282,0,0
364,-258,0,0,0,0,0,0,0,0,0,-1,1588,1282,0,0
371,-258,0,0,0,0,0,0,0,0,0,-1,1595,1282,0,0
378,-258,0,0,0,0,0,0,0,0,0,-1,1602,1282,0,0
385,-258,0,0,0,0,0,0,0,0,0,-1,1609,1282,0,0
392,-258,0,0,0,0,0,0,0,0,0,-1,1616,1282,0,0
399,-258,0,0,0,0,0,0,0,0,0,-1,1623,1282,0,0
406,-258,0,0,0,0,0,0,0,0,0,-1,1630,1282,0,0
413,-258,0,0,0,0,0,0,0,0,0,-1,1637,1282,0,0
420,-258,0,0,0,0,0,0,0,0,0,-1,1644,1282,0,0
427,-258,0,0,0,0,0,0,0,0,0,-1,1651,1282,0,0
434,-258,0,0,0,0,0,0,0,0,0,-1,1658,1282,0,0
441,-258,0,0,0,0,0,0,0,0,0,-1,1665,1282,0,0
448,-258,0,0,0,0,0,0,0,0,0,-1,1672,1282,0,0
455,-258,0,0,0,0,0,0,0,0,0,-1,1679,1282,0,0
462,-258,0,0,0,0,0,0,0,0,0,-1,1686,1282,0,0
469,-258,0,0,0,0,0,0,0,0,0,-1,1693,1282,0,0
476,-258,0,0,0,0,0,0,0,0,0,-1,1700,1282,0,0
483,-258,0,0,0,0,0,0,0,0,0,-1,1707,1282,0,0
490,-258,0,0,0,0,0,0,0,0,0,-1,1714,1282,0,0
497,-258,0,0,0,0,0,0,0,0,0,-1,1721,1282,0,0
504,-258,0,0,0,0,0,0,0,0,0,-1,1728,1282,0,0
511,-258,0,0,0,0,0,0,0,0,0,-1,1735,1282,0,0
518,-258,0,0,0,0,0,0,0,0,0,-1,1742,1282,0,0
525,-258,0,0,0,0,0,0,0,0,0,-1,1749,1282,0,0
532,-258,0,0,0,0,0,0,0,0,0,-1,1756,1282,0,0
539,-258,0,0,0,0,0,0,0,0,0,-1,1763,1282,0,0
546,-258,0,0,0,0,0,0,0,0,0,-1,1770,1282,0,0
553,-258,0,0,0,0,0,0,0,0,0,-1,1777,1282,0,0
560,-258,0,0,0,0,0,0,0,0,0,-1,1784,1282,0,0
567,-258,0,0,0,0,0,0,0,0,0,-1,1791,1282,0,0
574,-258,0,0,0,0,0,0,0,0,0,-1,1798,1282,0,0
581,-258,0,0,0,0,0,0,0,0,0,-1,1805,1282,0,0
588,-258,0,0,0,0,0,0,0,0,0,-1,1812,1282,0,0
595,-258,0,0,0,0,0,0,0,0,0,-1,1819,1282,0,0
602,-258,0,0,0,0,0,0,0,0,0,-1,1826,1282,0,0
609,-258,4.94238,0.695557,-0.000348725,-0.0121057,0.00802938,0.00372405,-0.0161785,0.469418,0.0122177,0.0260364,1833,1282,4.94236,-0.69551
616,-258,4.93896,0.709839,0.00392072,-0.0110022,0.00692074,0.0066362,-0.0137177,0.37391,0.0119861,0.0232013,1840,1282,4.93899,-0.709884
623,-258,4.92981,0.71521,0.00650697,-0.00986868,0.0044765,0.00765079,-0.0110125,0.250163,0.0108334,0.0302895,1847,1282,4.92985,-0.71519
630,-258,5.14551,0.893066,0.00745645,-0.00806711,0.00183194,0.00766971,-0.00828037,0.11589,0.00921103,0.0384095,1854,1282,5.14547,-0.893006
637,-258,5.44446,1.17969,0.007345,-0.0062148,-0.000605748,0.00737201,-0.00624181,-0.044554,0.00786897,0.0421297,1861,1282,5.44445,-1.17972
644,-258,3.29236,4.9447,0,0,0,0,0,0,0,-1,1868,1282,3.29238,-4.9447
651,-258,3.77039,4.05847,0,0,0,0,0,0,0,-1,1875,1282,3.77037,-4.05852
658,-258,4.2417,3.12292,0.00486681,-0.00162546,-0.00513989,0.00769981,-0.00445846,-0.503748,0.00710224,0.0444214,1882,1282,4.24173,-3.12297
665,-258,4.62903,2.04724,0.00357438,-0.000364962,-0.00569829,0.00763381,-0.00442439,-0.618996,0.00704353,0.0413556,1889,1282,4.62903,-2.04729
672,-258,4.62366,1.28687,0.00231201,0.00034467,-0.00590333,0.00731306,-0.00465639,-0.702842,0.00696707,0.0413462,1896,1282,4.62362,-1.28686
679,-258,4.42004,1.0155,0.00124225,0.0007182,-0.00598104,0.006967,-0.00500655,-0.763507,0.00694375,0.0271449,1903,1282,4.42003,-1.01555
686,-258,4.32813,1.04565,0.000209383,0.00106057,-0.00562659,0.00627763,-0.00500768,-0.823146,0.00652932,0.0150702,1910,1282,4.32813,-1.04562
693,-258,4.34436,1.02161,-0.000649272,0.00137044,-0.00447262,0.00494579,-0.00422462,-0.896429,0.0053,0.0091363,1917,1282,4.34438,-1.02158
700,-258,4.35498,0.979248,-0.000173335,0.0015051,-0.00364274,0.00440405,-0.00307228,-0.898613,0.00433923,0.0085684,1924,1282,4.35504,-0.979306
707,-258,4.37561,0.943115,0.000758485,0.00171892,-0.00290707,0.00418517,-0.00170776,-0.867254,0.00350107,0.0101103,1931,1282,4.37556,-0.94313
714,-258,4.3512,0.919678,0.00211868,0.0019974,-0.00237357,0.00443238,-0.000316306,-0.772627,0.0030658,0.00972878,1938,1282,4.35119,-0.919673
721,-258,4.34363,0.885742,0.00480918,0.00391616,-0.00296336,0.00735948,0.00136586,-0.710623,0.00452035,0.010831,1945,1282,4.34357,-0.885769
728,-258,4.33752,0.849731,0.00780223,0.00585093,-0.00362764,0.0105831,0.00307004,-0.654032,0.0062871,0.0107554,1952,1282,4.33751,-0.849685
735,-258,4.33728,0.827881,0.0111388,0.008,-0.0047001,0.0145246,0.00461422,-0.624264,0.0085696,0.0137228,1959,1282,4.33724,-0.827878
742,-258,4.34778,0.819824,0.0151843,0.0111649,-0.0062737,0.0197623,0.00658688,-0.630394,0.0116192,0.0150352,1966,1282,4.34776,-0.81977
749,-258,4.33594,0.855225,0.0197783,0.0151116,-0.00822358,0.0259932,0.00889676,-0.647163,0.015254,0.0260984,1973,1282,4.33599,-0.855178
756,-258,4.29297,0.874878,0.0249209,0.0198986,-0.010417,0.0331252,0.0116943,-0.667125,0.0193983,0.0416547,1980,1282,4.29302,-0.874937
763,-258,3.82068,0.60498,0.0304579,0.0255392,-0.0126965,0.0409311,0.015066,-0.689732,0.0239042,0.0472889,1987,1282,3.82069,-0.605004
770,-258,5.04382,-0.235718,0.0359482,0.0319636,-0.0148161,0.0489053,0.0190064,-0.718565,0.028468,0.0477913,1994,1282,5.04385,0.235744
777,-258,5.28772,-0.618896,0,0,0,0,0,0,0,-1,2001,1282,5.28773,0.618913
784,-258,3.40112,0.476929,0,0,0,0,0,0,0,-1,2008,1282,3.40118,-0.476989
791,-258,0,0,0,0,0,0,0,0,0,-1,2015,1282,0,0
798,-258,0,0,0,0,0,0,0,0,0,-1,2022,1282,0,0
805,-258,0,0,0,0,0,0,0,0,0,-1,2029,1282,0,0
812,-258,0,0,0,0,0,0,0,0,0,-1,2036,1282,0,0
-700,-265,0,0,0,0,0,0,0,0,0,-1,524,1289,0,0
-693,-265,0,0,0,0,0,0,0,0,0,-1,531,1289,0,0
-686,-265,0,0,0,0,0,0,0,0,0,-1,538,1289,0,0
-679,-265,0,0,0,0,0,0,0,0,0,-1,545,1289,0,0
-672,-265,0,0,0,0,0,0,0,0,0,-1,552,1289,0,0
-665,-265,0.880493,-1.72388,0,0,0,0,0,0,0,-1,559,1289,0.880484,1.72392
-658,-265,0.129211,-1.48083,-0.0491789,0.0715228,0.0187708,0.0743745,-0.0520307,1.42002,0.0733591,0.0431053,566,1289,0.129236,1.48083
-651,-265,-0.295105,-0.810913,-0.0388571,0.0592511,0.0131725,0.0609889,-0.0405949,1.43963,0.0590421,0.0493899,573,1289,-0.295082,0.81096
-644,-265,0.0421143,-0.394165,-0.0305462,0.0485503,0.00912325,0.049589,-0.0315849,1.45744,0.0472485,0.0458115,580,1289,0.0421111,0.394153
-637,-265,-2.47076,-1.63586,-0.0237503,0.0391675,0.00622295,0.0397771,-0.0243599,1.47315,0.0373844,0.0455767,587,1289,-2.47076,1.63581
-630,-265,-3.21899,-2.05212,-0.0181963,0.0309936,0.00421361,0.0313519,-0.0185547,1.48596,0.0291276,0.0458244,594,1289,-3.219,2.0521
-623,-265,-3.67725,-2.32813,0,0,0,0,0,0,0,-1,601,1289,-3.67725,2.32812
-616,-265,-0.38092,0.486084,-0.00984811,0.0181062,0.00202419,0.0182521,-0.00999392,1.49889,0.0165385,0.0329312,608,1289,-0.380918,-0.486075
-609,-265,-0.35199,0.735474,-0.00672268,0.0127743,0.00132784,0.0128643,-0.00681269,1.50311,0.0115382,0.0154261,615,1289,-0.351989,-0.735437
-602,-265,-0.34314,0.766968,-0.00442166,0.00806641,0.000702656,0.00810582,-0.00446108,1.51477,0.00735652,0.0138695,622,1289,-0.343162,-0.766952
-595,-265,-0.333374,0.800293,-0.00316401,0.00615204,0.000537706,0.00618297,-0.00319494,1.51333,0.00550519,0.0113497,629,1289,-0.333385,-0.800303
-588,-265,-0.336731,0.825439,-0.0021563,0.00371444,0.0011749,0.00394084,-0.0023827,1.38043,0.00368766,0.00986103,636,1289,-0.33672,-0.825404
-581,-265,-0.335327,0.859253,-0.00134462,0.0019385,0.00205038,0.00292349,-0.00232961,1.12296,0.00303933,0.0119781,643,1289,-0.335326,-0.85922
-574,-265,-0.330933,0.908569,-0.00152922,0.00290049,0.00200354,0.00367223,-0.00230096,1.20312,0.00347878,0.0136287,650,1289,-0.330959,-0.908511
-567,-265,-0.350891,0.950073,-0.00170976,0.00319289,0.000297798,0.00321092,-0.00172778,1.51035,0.0028939,0.0186137,657,1289,-0.350872,-0.950099
-560,-265,-0.358276,0.975708,-0.0010486,0.00318405,-0.00105892,0.00343418,-0.00129874,-1.33883,0.00282374,0.0202549,664,1289,-0.358296,-0.975658
-553,-265,-0.363953,1.01501,-0.00121183,0.00377891,-0.00200845,0.00448678,-0.0019197,-1.23194,0.00379647,0.0198901,671,1289,-0.363937,-1.015
-546,-265,-0.348694,1.07202,-0.0013097,0.00409988,-0.00297,0.00541215,-0.00262198,-1.15475,0.00473083,0.0269662,678,1289,-0.348674,-1.07201
-539,-265,-0.573914,1.7937,-0.00136081,0.00506124,-0.00444129,0.0073307,-0.00363027,-1.09839,0.00644741,0.0421746,685,1289,-0.573933,-1.79373
-532,-265,-0.638611,2.3468,0,0,0,0,0,0,0,-1,692,1289,-0.638633,-2.34681
-525,-265,-0.755493,2.43823,0,0,0,0,0,0,0,-1,699,1289,-0.755487,-2.43827
-518,-265,-0.616699,2.47192,0,0,0,0,0,0,0,-1,706,1289,-0.616693,-2.47189
-511,-265,-0.44342,0.277588,0,0,0,0,0,0,0,-1,713,1289,-0.443421,-0.277539
-504,-265,-0.458313,0.299561,-0.00243358,0.00722529,-0.0102816,0.0137552,-0.0089635,-1.00496,0.0132135,0.0448657,720,1289,-0.458297,-0.299588
-497,-265,-0.840698,0.783447,-0.00463622,0.00821604,-0.00888779,0.0127575,-0.00917767,-1.09841,0.0127204,0.0457601,727,1289,-0.840673,-0.783458
-490,-265,-0.779175,0.702148,-0.00802724,0.0102946,-0.00569693,0.0119216,-0.00965416,-1.29262,0.0124797,0.0412631,734,1289,-0.779167,-0.702206
-483,-265,0,0,0,0,0,0,0,0,0,-1,741,1289,0,0
-476,-265,0,0,0,0,0,0,0,0,0,-1,748,1289,0,0
-469,-265,0,0,0,0,0,0,0,0,0,-1,755,1289,0,0
-462,-265,0,0,0,0,0,0,0,0,0,-1,762,1289,0,0
-455,-265,0,0,0,0,0,0,0,0,0,-1,769,1289,0,0
-448,-265,0,0,0,0,0,0,0,0,0,-1,776,1289,0,0
-441,-265,0,0,0,0,0,0,0,0,0,-1,783,1289,0,0
-434,-265,0,0,0,0,0,0,0,0,0,-1,790,1289,0,0
-427,-265,0,0,0,0,0,0,0,0,0,-1,797,1289,0,0
-420,-265,0,0,0,0,0,0,0,0,0,-1,804,1289,0,0
-413,-265,0,0,0,0,0,0,0,0,0,-1,811,1289,0,0
-406,-265,0,0,0,0,0,0,0,0,0,-1,818,1289,0,0
-399,-265,0,0,0,0,0,0,0,0,0,-1,825,1289,0,0
-392,-265,0,0,0,0,0,0,0,0,0,-1,832,1289,0,0
-385,-265,0,0,0,0,0,0,0,0,0,-1,839,1289,0,0
-378,-265,0,0,0,0,0,0,0,0,0,-1,846,1289,0,0
-371,-265,0,0,0,0,0,0,0,0,0,-1,853,1289,0,0
-364,-265,0,0,0,0,0,0,0,0,0,-1,860,1289,0,0
-357,-265,0,0,0,0,0,0,0,0,0,-1,867,1289,0,0
-350,-265,0,0,0,0,0,0,0,0,0,-1,874,1289,0,0
-343,-265,0,0,0,0,0,0,0,0,0,-1,881,1289,0,0
-336,-265,0,0,0,0,0,0,0,0,0,-1,888,1289,0,0
-329,-265,0,0,0,0,0,0,0,0,0,-1,895,1289,0,0
-322,-265,0,0,0,0,0,0,0,0,0,-1,902,1289,0,0
-315,-265,0,0,0,0,0,0,0,0,0,-1,909,1289,0,0
-308,-265,0,0,0,0,0,0,0,0,0,-1,916,1289,0,0
-301,-265,0,0,0,0,0,0,0,0,0,-1,923,1289,0,0
-294,-265,0,0,0,0,0,0,0,0,0,-1,930,1289,0,0
-287,-265,0,0,0,0,0,0,0,0,0,-1,937,1289,0,0
-280,-265,0,0,0,0,0,0,0,0,0,-1,944,1289,0,0
-273,-265,0,0,0,0,0,0,0,0,0,-1,951,1289,0,0
-266,-265,0,0,0,0,0,0,0,0,0,-1,958,1289,0,0
-259,-265,0,0,0,0,0,0,0,0,0,-1,965,1289,0,0
-252,-265,0,0,0,0,0,0,0,0,0,-1,972,1289,0,0
-245,-265,0,0,0,0,0,0,0,0,0,-1,979,1289,0,0
-238,-265,0,0,0,0,0,0,0,0,0,-1,986,1289,0,0
-231,-265,0,0,0,0,0,0,0,0,0,-1,993,1289,0,0
-224,-265,0,0,0,0,0,0,0,0,0,-1,1000,1289,0,0
-217,-265,0,0,0,0,0,0,0,0,0,-1,1007,1289,0,0
-210,-265,0,0,0,0,0,0,0,0,0,-1,1014,1289,0,0
-203,-265,0,0,0,0,0,0,0,0,0,-1,1021,1289,0,0
-196,-265,0,0,0,0,0,0,0,0,0,-1,1028,1289,0,0
-189,-265,0,0,0,0,0,0,0,0,0,-1,1035,1289,0,0
-182,-265,0,0,0,0,0,0,0,0,0,-1,1042,1289,0,0
-175,-265,0,0,0,0,0,0,0,0,0,-1,1049,1289,0,0
-168,-265,0,0,0,0,0,0,0,0,0,-1,1056,1289,0,0
-161,-265,0,0,0,0,0,0,0,0,0,-1,1063,1289,0,0
-154,-265,0,0,0,0,0,0,0,0,0,-1,1070,1289,0,0
-147,-265,0,0,0,0,0,0,0,0,0,-1,1077,1289,0,0
-140,-265,0,0,0,0,0,0,0,0,0,-1,1084,1289,0,0
-133,-265,0,0,0,0,0,0,0,0,0,-1,1091,1289,0,0
-126,-265,0,0,0,0,0,0,0,0,0,-1,1098,1289,0,0
-119,-265,0,0,0,0,0,0,0,0,0,-1,1105,1289,0,0
-112,-265,0,0,0,0,0,0,0,0,0,-1,1112,1289,0,0
-105,-265,0,0,0,0,0,0,0,0,0,-1,1119,1289,0,0
-98,-265,0,0,0,0,0,0,0,0,0,-1,1126,1289,0,0
-91,-265,0,0,0,0,0,0,0,0,0,-1,1133,1289,0,0
-84,-265,0,0,0,0,0,0,0,0,0,-1,1140,1289,0,0
-77,-265,0,0,0,0,0,0,0,0,0,-1,1147,1289,0,0
-70,-265,0,0,0,0,0,0,0,0,0,-1,1154,1289,0,0
-63,-265,0,0,0,0,0,0,0,0,0,-1,1161,1289,0,0
-56,-265,0,0,0,0,0,0,0,0,0,-1,1168,1289,0,0
-49,-265,0,0,0,0,0,0,0,0,0,-1,1175,1289,0,0
-42,-265,0,0,0,0,0,0,0,0,0,-1,1182,1289,0,0
-35,-265,0,0,0,0,0,0,0,0,0,-1,1189,1289,0,0
-28,-265,0,0,0,0,0,0,0,0,0,-1,1196,1289,0,0
-21,-265,0,0,0,0,0,0,0,0,0,-1,1203,1289,0,0
-14,-265,0,0,0,0,0,0,0,0,0,-1,1210,1289,0,0
-7,-265,0,0,0,0,0,0,0,0,0,-1,1217,1289,0,0
0,-265,0,0,0,0,0,0,0,0,0,-1,1224,1289,0,0
7,-265,0,0,0,0,0,0,0,0,0,-1,1231,1289,0,0
14,-265,0,0,0,0,0,0,0,0,0,-1,1238,1289,0,0
21,-265,0,0,0,0,0,0,0,0,0,-1,1245,1289,0,0
28,-265,0,0,0,0,0,0,0,0,0,-1,1252,1289,0,0
35,-265,0,0,0,0,0,0,0,0,0,-1,1259,1289,0,0
42,-265,0,0,0,0,0,0,0,0,0,-1,1266,1289,0,0
49,-265,0,0,0,0,0,0,0,0,0,-1,1273,1289,0,0
56,-265,0,0,0,0,0,0,0,0,0,-1,1280,1289,0,0
63,-265,0,0,0,0,0,0,0,0,0,-1,1287,1289,0,0
70,-265,0,0,0,0,0,0,0,0,0,-1,1294,1289,0,0
77,-265,0,0,0,0,0,0,0,0,0,-1,1301,1289,0,0
84,-265,0,0,0,0,0,0,0,0,0,-1,1308,1289,0,0
91,-265,0,0,0,0,0,0,0,0,0,-1,1315,1289,0,0
98,-265,0,0,0,0,0,0,0,0,0,-1,1322,1289,0,0
105,-265,0,0,0,0,0,0,0,0,0,-1,1329,1289,0,0
112,-265,0,0,0,0,0,0,0,0,0,-1,1336,1289,0,0
119,-265,0,0,0,0,0,0,0,0,0,-1,1343,1289,0,0
126,-265,0,0,0,0,0,0,0,0,0,-1,1350,1289,0,0
133,-265,0,0,0,0,0,0,0,0,0,-1,1357,1289,0,0
140,-265,0,0,0,0,0,0,0,0,0,-1,1364,1289,0,0
147,-265,0,0,0,0,0,0,0,0,0,-1,1371,1289,0,0
154,-265,0,0,0,0,0,0,0,0,0,-1,1378,1289,0,0
161,-265,0,0,0,0,0,0,0,0,0,-1,1385,1289,0,0
168,-265,0,0,0,0,0,0,0,0,0,-1,1392,1289,0,0
175,-265,0,0,0,0,0,0,0,0,0,-1,1399,1289,0,0
182,-265,0,0,0,0,0,0,0,0,0,-1,1406,1289,0,0
189,-265,0,0,0,0,0,0,0,0,0,-1,1413,1289,0,0
196,-265,0,0,0,0,0,0,0,0,0,-1,1420,1289,0,0
203,-265,0,0,0,0,0,0,0,0,0,-1,1427,1289,0,0
210,-265,0,0,0,0,0,0,0,0,0,-1,1434,1289,0,0
217,-265,0,0,0,0,0,0,0,0,0,-1,1441,1289,0,0
224,-265,0,0,0,0,0,0,0,0,0,-1,1448,1289,0,0
231,-265,0,0,0,0,0,0,0,0,0,-1,1455,1289,0,0
238,-265,0,0,0,0,0,0,0,0,0,-1,1462,1289,0,0
245,-265,0,0,0,0,0,0,0,0,0,-1,1469,1289,0,0
252,-265,0,0,0,0,0,0,0,0,0,-1,1476,1289,0,0
259,-265,0,0,0,0,0,0,0,0,0,-1,1483,1289,0,0
266,-265,0,0,0,0,0,0,0,0,0,-1,1490,1289,0,0
273,-265,0,0,0,0,0,0,0,0,0,-1,1497,1289,0,0
280,-265,0,0,0,0,0,0,0,0,0,-1,1504,1289,0,0
287,-265,0,0,0,0,0,0,0,0,0,-1,1511,1289,0,0
294,-265,0,0,0,0,0,0,0,0,0,-1,1518,1289,0,0
301,-265,0,0,0,0,0,0,0,0,0,-1,1525,1289,0,0
308,-265,0,0,0,0,0,0,0,0,0,-1,1532,1289,0,0
315,-265,0,0,0,0,0,0,0,0,0,-1,1539,1289,0,0
322,-265,0,0,0,0,0,0,0,0,0,-1,1546,1289,0,0
329,-265,0,0,0,0,0,0,0,0,0,-1,1553,1289,0,0
336,-265,0,0,0,0,0,0,0,0,0,-1,1560,1289,0,0
343,-265,0,0,0,0,0,0,0,0,0,-1,1567,1289,0,0
350,-265,0,0,0,0,0,0,0,0,0,-1,1574,1289,0,0
357,-265,0,0,0,0,0,0,0,0,0,-1,1581,1289,0,0
364,-265,0,0,0,0,0,0,0,0,0,-1,1588,1289,0,0
371,-265,0,0,0,0,0,0,0,0,0,-1,1595,1289,0,0
378,-265,0,0,0,0,0,0,0,0,0,-1,1602,1289,0,0
385,-265,0,0,0,0,0,0,0,0,0,-1,1609,1289,0,0
392,-265,0,0,0,0,0,0,0,0,0,-1,1616,1289,0,0
399,-265,0,0,0,0,0,0,0,0,0,-1,1623,1289,0,0
406,-265,0,0,0,0,0,0,0,0,0,-1,1630,1289,0,0
413,-265,0,0,0,0,0,0,0,0,0,-1,1637,1289,0,0
420,-265,0,0,0,0,0,0,0,0,0,-1,1644,1289,0,0
427,-265,0,0,0,0,0,0,0,0,0,-1,1651,1289,0,0
434,-265,0,0,0,0,0,0,0,0,0,-1,1658,1289,0,0
441,-265,0,0,0,0,0,0,0,0,0,-1,1665,1289,0,0
448,-265,0,0,0,0,0,0,0,0,0,-1,1672,1289,0,0
455,-265,0,0,0,0,0,0,0,0,0,-1,1679,1289,0,0
462,-265,0,0,0,0,0,0,0,0,0,-1,1686,1289,0,0
469,-265,0,0,0,0,0,0,0,0,0,-1,1693,1289,0,0
476,-265,0,0,0,0,0,0,0,0,0,-1,1700,1289,0,0
483,-265,0,0,0,0,0,0,0,0,0,-1,1707,1289,0,0
490,-265,0,0,0,0,0,0,0,0,0,-1,1714,1289,0,0
497,-265,0,0,0,0,0,0,0,0,0,-1,1721,1289,0,0
504,-265,0,0,0,0,0,0,0,0,0,-1,1728,1289,0,0
511,-265,0,0,0,0,0,0,0,0,0,-1,1735,1289,0,0
518,-265,0,0,0,0,0,0,0,0,0,-1,1742,1289,0,0
525,-265,0,0,0,0,0,0,0,0,0,-1,1749,1289,0,0
532,-265,0,0,0,0,0,0,0,0,0,-1,1756,1289,0,0
539,-265,0,0,0,0,0,0,0,0,0,-1,1763,1289,0,0
546,-265,0,0,0,0,0,0,0,0,0,-1,1770,1289,0,0
553,-265,0,0,0,0,0,0,0,0,0,-1,1777,1289,0,0
560,-265,0,0,0,0,0,0,0,0,0,-1,1784,1289,0,0
567,-265,0,0,0,0,0,0,0,0,0,-1,1791,1289,0,0
574,-265,0,0,0,0,0,0,0,0,0,-1,1798,1289,0,0
581,-265,0,0,0,0,0,0,0,0,0,-1,1805,1289,0,0
588,-265,0,0,0,0,0,0,0,0,0,-1,1812,1289,0,0
595,-265,0,0,0,0,0,0,0,0,0,-1,1819,1289,0,0
602,-265,4.9491,0.665771,-0.00256248,-0.0114026,0.00328829,-0.00147347,-0.0124916,0.319808,0.00788261,0.0267953,1826,1289,4.94913,-0.665724
609,-265,4.90076,0.665527,0.00164285,-0.015178,0.00609871,0.00362133,-0.0171565,0.313699,0.0128165,0.0272001,1833,1289,4.90071,-0.665483
616,-265,4.86218,0.647705,0.00488986,-0.0136785,0.00537956,0.00633581,-0.0151244,0.26258,0.0127317,0.0312545,1840,1289,4.86222,-0.64773
623,-265,4.83386,0.623779,0.00676832,-0.0117572,0.00344678,0.00738883,-0.0123777,0.178119,0.0115327,0.042525,1847,1289,4.83388,-0.623806
630,-265,4.99353,1.0575,0.00737753,-0.00937215,0.00123639,0.0074683,-0.00946293,0.0732863,0.00979783,0.0436038,1854,1289,4.99351,-1.05744
637,-265,2.95508,0.100098,0,0,0,0,0,0,0,-1,1861,1289,2.95504,-0.100072
644,-265,3.99377,0.439209,0,0,0,0,0,0,0,-1,1868,1289,3.99373,-0.439192
651,-265,3.9762,3.422,0,0,0,0,0,0,0,-1,1875,1289,3.97619,-3.42202
658,-265,4.52124,2.87573,0.00489181,-0.00153432,-0.00483459,0.00748366,-0.00412617,-0.492113,0.00679573,0.0445482,1882,1289,4.52126,-2.87571
665,-265,4.51184,1.71814,0.00364043,-1.86638e-05,-0.00532953,0.0074457,-0.00382393,-0.620058,0.00661758,0.0472281,1889,1289,4.51186,-1.71814
672,-265,4.39368,1.23083,0.00239451,0.000844645,-0.00552822,0.00720184,-0.00396269,-0.715763,0.00653565,0.0450244,1896,1289,4.39369,-1.23089
679,-265,4.34668,1.0365,0.0014423,0.0012916,-0.0056066,0.00697405,-0.00424016,-0.778679,0.00653835,0.020037,1903,1289,4.34668,-1.03651
686,-265,4.31824,1.03857,0.000448195,0.00164311,-0.00524568,0.00632524,-0.00423394,-0.842101,0.00613607,0.0111635,1910,1289,4.31827,-1.03857
693,-265,4.31348,1.00513,-0.000455951,0.00180351,-0.00414813,0.004973,-0.00362544,-0.918347,0.00498459,0.00923288,1917,1289,4.31351,-1.00513
700,-265,4.31226,0.980591,0.000427165,0.00192303,-0.00333816,0.00459602,-0.00224583,-0.895606,0.00402708,0.00980575,1924,1289,4.31229,-0.980635
707,-265,4.32678,0.960205,0.00206427,0.00216462,-0.00259522,0.00471015,-0.000481256,-0.795063,0.00331219,0.00981619,1931,1289,4.32678,-0.960253
714,-265,4.30737,0.931396,0.00402634,0.00246276,-0.00210817,0.00549301,0.000996089,-0.607839,0.00337927,0.00905103,1938,1289,4.30733,-0.931374
721,-265,4.3103,0.899536,0.0074337,0.00437692,-0.00269274,0.00900157,0.00280904,-0.527272,0.00531803,0.00872478,1945,1289,4.31033,-0.899518
728,-265,4.30469,0.875366,0.0113419,0.00664323,-0.00332463,0.0130635,0.00492163,-0.477811,0.00761823,0.0125493,1952,1289,4.30466,-0.875342
735,-265,4.29834,0.840942,0.0159043,0.00914116,-0.00437088,0.018049,0.00699647,-0.456161,0.010508,0.016566,1959,1289,4.29832,-0.840901
742,-265,4.29846,0.823608,0.0214529,0.0127919,-0.00587606,0.0244218,0.00982302,-0.467843,0.0141895,0.0185873,1966,1289,4.29844,-0.823549
749,-265,4.29651,0.832397,0.0277886,0.017439,-0.00771836,0.0319064,0.0133212,-0.490086,0.0185045,0.0346006,1973,1289,4.29654,-0.832362
756,-265,4.69006,0.148438,0.0348111,0.0231717,-0.0098048,0.0403933,0.0175895,-0.517564,0.0233857,0.0444199,1980,1289,4.6901,-0.148451
763,-265,5.0946,-0.20105,0.0422068,0.0300613,-0.0119965,0.04958,0.022688,-0.551097,0.0286593,0.0465019,1987,1289,5.09455,0.201102
770,-265,5.3186,-0.291138,0.049324,0.0381152,-0.0140701,0.0588648,0.0285744,-0.595869,0.0339904,0.0427758,1994,1289,5.31859,0.291182
777,-265,5.73169,-0.694336,0.0552851,0.0472095,-0.015636,0.0673962,0.0350984,-0.659039,0.0389224,0.0441132,2001,1289,5.73175,0.694322
784,-265,0,0,0,0,0,0,0,0,0,-1,2008,1289,0,0
791,-265,0,0,0,0,0,0,0,0,0,-1,2015,1289,0,0
798,-265,0,0,0,0,0,0,0,0,0,-1,2022,1289,0,0
805,-265,0,0,0,0,0,0,0,0,0,-1,2029,1289,0,0
812,-265,0,0,0,0,0,0,0,0,0,-1,2036,1289,0,0
-700,-272,0,0,0,0,0,0,0,0,0,-1,524,1296,0,0
-693,-272,0,0,0,0,0,0,0,0,0,-1,531,1296,0,0
-686,-272,0,0,0,0,0,0,0,0,0,-1,538,1296,0,0
-679,-272,0,0,0,0,0,0,0,0,0,-1,545,1296,0,0
-672,-272,0,0,0,0,0,0,0,0,0,-1,552,1296,0,0
-665,-272,0,0,0,0,0,0,0,0,0,-1,559,1296,0,0
-658,-272,0.129883,-1.96143,-0.0459742,0.069944,0.00858988,0.0705771,-0.0466073,1.49723,0.0681266,0.0437855,566,1296,0.129902,1.96138
-651,-272,-0.245728,-1.31787,-0.038075,0.0569364,0.0042936,0.05713,-0.0382686,1.52573,0.0554361,0.0456312,573,1296,-0.245715,1.31784
-644,-272,-0.764282,-0.872192,-0.0311084,0.0461052,0.00182241,0.0461482,-0.0311514,1.54721,0.0449081,0.0478088,580,1296,-0.764291,0.872191
-637,-272,-1.80731,-1.38977,-0.024982,0.0368743,0.000504758,0.0368784,-0.0249861,1.56264,0.0359368,0.0465514,587,1296,-1.80734,1.38973
-630,-272,-2.39441,-1.71777,-0.0196703,0.0290166,-7.11524e-05,0.0290167,-0.0196704,-1.56933,0.0282816,0.0441415,594,1296,-2.39442,1.71778
-623,-272,0.0316772,0.711548,0,0,0,0,0,0,0,-1,601,1296,0.0316602,-0.711518
-616,-272,-0.169128,0.609253,-0.0113329,0.0168824,-1.21547e-05,0.0168824,-0.0113329,-1.57037,0.0163948,0.0352213,608,1296,-0.169142,-0.60924
-609,-272,-0.301331,0.736328,-0.00804197,0.0120132,6.91654e-05,0.0120134,-0.00804221,1.56735,0.0116545,0.0176988,615,1296,-0.301324,-0.736359
-602,-272,-0.308472,0.757446,-0.00547496,0.00773081,-3.34459e-05,0.0077309,-0.00547504,-1.56826,0.00766144,0.0125303,622,1296,-0.308469,-0.757458
-595,-272,-0.300476,0.808228,-0.00380234,0.00584704,0.000279964,0.00585515,-0.00381045,1.54182,0.00562191,0.0101365,629,1296,-0.300452,-0.808275
-588,-272,-0.289368,0.842773,-0.0023678,0.00378027,0.00118208,0.00399971,-0.00258724,1.38724,0.00383202,0.00947534,636,1296,-0.289358,-0.84281
-581,-272,-0.291016,0.860596,-0.00120695,0.00233493,0.00214034,0.00334199,-0.00221401,1.13101,0.00322972,0.00906937,643,1296,-0.291042,-0.8606
-574,-272,-0.300781,0.905151,-0.00127046,0.00341937,0.00218752,0.0042813,-0.00213239,1.19545,0.00377159,0.0141542,650,1296,-0.300798,-0.905167
-567,-272,-0.298279,0.941772,-0.00145574,0.00396975,0.000423253,0.00400257,-0.00148856,1.49341,0.00327919,0.019281,657,1296,-0.298302,-0.941759
-560,-272,-0.300354,0.968994,-0.00079951,0.00410962,-0.000932499,0.00428078,-0.000970672,-1.38926,0.00322645,0.018709,664,1296,-0.30038,-0.968992
-553,-272,-0.306396,1.00439,-0.00107857,0.00475916,-0.00185807,0.00530039,-0.00161979,-1.28736,0.00417949,0.0131706,671,1296,-0.306424,-1.00442
-546,-272,-0.281738,1.1167,0,0,0,0,0,0,0,-1,678,1296,-0.281725,-1.11674
-539,-272,-0.34491,1.48096,-0.00149594,0.00641397,-0.00417672,0.00821112,-0.00329308,-1.16446,0.00684127,0.0397765,685,1296,-0.344888,-1.48092
-532,-272,-0.440186,2.10168,-0.00145301,0.00712773,-0.00563872,0.00992273,-0.00424801,-1.11061,0.0083973,0.0445705,692,1296,-0.440206,-2.10163
-525,-272,-0.582703,2.12585,-0.00148213,0.00769294,-0.00712583,0.0115802,-0.00536943,-1.0714,0.0100025,0.0418336,699,1296,-0.582712,-2.12585
-518,-272,-0.734314,1.51379,-0.00164033,0.00812548,-0.00838789,0.0129482,-0.00646306,-1.04899,0.0114137,0.0421017,706,1296,-0.734334,-1.51385
-511,-272,-1.13324,1.03528,0,0,0,0,0,0,0,-1,713,1296,-1.13325,-1.03524
-504,-272,-0.228271,0.156128,-0.00278118,0.00889283,-0.00902235,0.0138017,-0.00769003,-1.07251,0.0125744,0.0487644,720,1296,-0.228259,-0.156093
-497,-272,-0.605835,0.660156,-0.00418868,0.00969143,-0.00735146,0.0128612,-0.00735844,-1.16371,0.011817,0.0480556,727,1296,-0.605811,-0.660118
-490,-272,-1.09973,1.17969,0,0,0,0,0,0,0,-1,734,1296,-1.09973,-1.17969
-483,-272,-0.451843,0.746948,0,0,0,0,0,0,0,-1,741,1296,-0.451835,-0.746927
-476,-272,0,0,0,0,0,0,0,0,0,-1,748,1296,0,0
-469,-272,0,0,0,0,0,0,0,0,0,-1,755,1296,0,0
-462,-272,0,0,0,0,0,0,0,0,0,-1,762,1296,0,0
-455,-272,0,0,0,0,0,0,0,0,0,-1,769,1296,0,0
-448,-272,0,0,0,0,0,0,0,0,0,-1,776,1296,0,0
-441,-272,0,0,0,0,0,0,0,0,0,-1,783,1296,0,0
-434,-272,0,0,0,0,0,0,0,0,0,-1,790,1296,0,0
-427,-272,0,0,0,0,0,0,0,0,0,-1,797,1296,0,0
-420,-272,0,0,0,0,0,0,0,0,0,-1,804,1296,0,0
-413,-272,0,0,0,0,0,0,0,0,0,-1,811,1296,0,0
-406,-272,0,0,0,0,0,0,0,0,0,-1,818,1296,0,0
-399,-272,0,0,0,0,0,0,0,0,0,-1,825,1296,0,0
-392,-272,0,0,0,0,0,0,0,0,0,-1,832,1296,0,0
-385,-272,0,0,0,0,0,0,0,0,0,-1,839,1296,0,0
-378,-272,0,0,0,0,0,0,0,0,0,-1,846,1296,0,0
-371,-272,0,0,0,0,0,0,0,0,0,-1,853,1296,0,0
-364,-272,0,0,0,0,0,0,0,0,0,-1,860,1296,0,0
-357,-272,0,0,0,0,0,0,0,0,0,-1,867,1296,0,0
-350,-272,0,0,0,0,0,0,0,0,0,-1,874,1296,0,0
-343,-272,0,0,0,0,0,0,0,0,0,-1,881,1296,0,0
-336,-272,0,0,0,0,0,0,0,0,0,-1,888,1296,0,0
-329,-272,0,0,0,0,0,0,0,0,0,-1,895,1296,0,0
-322,-272,0,0,0,0,0,0,0,0,0,-1,902,1296,0,0
-315,-272,0,0,0,0,0,0,0,0,0,-1,909,1296,0,0
-308,-272,0,0,0,0,0,0,0,0,0,-1,916,1296,0,0
-301,-272,0,0,0,0,0,0,0,0,0,-1,923,1296,0,0
-294,-272,0,0,0,0,0,0,0,0,0,-1,930,1296,0,0
-287,-272,0,0,0,0,0,0,0,0,0,-1,937,1296,0,0
-280,-272,0,0,0,0,0,0,0,0,0,-1,944,1296,0,0
-273,-272,0,0,0,0,0,0,0,0,0,-1,951,1296,0,0
-266,-272,0,0,0,0,0,0,0,0,0,-1,958,1296,0,0
-259,-272,0,0,0,0,0,0,0,0,0,-1,965,1296,0,0
-252,-272,0,0,0,0,0,0,0,0,0,-1,972,1296,0,0
-245,-272,0,0,0,0,0,0,0,0,0,-1,979,1296,0,0
-238,-272,0,0,0,0,0,0,0,0,0,-1,986,1296,0,0
-231,-272,0,0,0,0,0,0,0,0,0,-1,993,1296,0,0
-224,-272,0,0,0,0,0,0,0,0,0,-1,1000,1296,0,0
-217,-272,0,0,0,0,0,0,0,0,0,-1,1007,1296,0,0
-210,-272,0,0,0,0,0,0,0,0,0,-1,1014,1296,0,0
-203,-272,0,0,0,0,0,0,0,0,0,-1,1021,1296,0,0
-196,-272,0,0,0,0,0,0,0,0,0,-1,1028,1296,0,0
-189,-272,0,0,0,0,0,0,0,0,0,-1,1035,1296,0,0
-182,-272,0,0,0,0,0,0,0,0,0,-1,1042,1296,0,0
-175,-272,0,0,0,0,0,0,0,0,0,-1,1049,1296,0,0
-168,-272,0,0,0,0,0,0,0,0,0,-1,1056,1296,0,0
-161,-272,0,0,0,0,0,0,0,0,0,-1,1063,1296,0,0
-154,-272,0,0,0,0,0,0,0,0,0,-1,1070,1296,0,0
-147,-272,0,0,0,0,0,0,0,0,0,-1,1077,1296,0,0
-140,-272,0,0,0,0,0,0,0,0,0,-1,1084,1296,0,0
-133,-272,0,0,0,0,0,0,0,0,0,-1,1091,1296,0,0
-126,-272,0,0,0,0,0,0,0,0,0,-1,1098,1296,0,0
-119,-272,0,0,0,0,0,0,0,0,0,-1,1105,1296,0,0
-112,-272,0,0,0,0,0,0,0,0,0,-1,1112,1296,0,0
-105,-272,0,0,0,0,0,0,0,0,0,-1,1119,1296,0,0
-98,-272,0,0,0,0,0,0,0,0,0,-1,1126,1296,0,0
-91,-272,0,0,0,0,0,0,0,0,0,-1,1133,1296,0,0
-84,-272,0,0,0,0,0,0,0,0,0,-1,1140,1296,0,0
-77,-272,0,0,0,0,0,0,0,0,0,-1,1147,1296,0,0
-70,-272,0,0,0,0,0,0,0,0,0,-1,1154,1296,0,0
-63,-272,0,0,0,0,0,0,0,0,0,-1,1161,1296,0,0
-56,-272,0,0,0,0,0,0,0,0,0,-1,1168,1296,0,0
-49,-272,0,0,0,0,0,0,0,0,0,-1,1175,1296,0,0
-42,-272,0,0,0,0,0,0,0,0,0,-1,1182,1296,0,0
-35,-272,0,0,0,0,0,0,0,0,0,-1,1189,1296,0,0
-28,-272,0,0,0,0,0,0,0,0,0,-1,1196,1296,0,0
-21,-272,0,0,0,0,0,0,0,0,0,-1,1203,1296,0,0
-14,-272,0,0,0,0,0,0,0,0,0,-1,1210,1296,0,0
-7,-272,0,0,0,0,0,0,0,0,0,-1,1217,1296,0,0
0,-272,0,0,0,0,0,0,0,0,0,-1,1224,1296,0,0
7,-272,0,0,0,0,0,0,0,0,0,-1,1231,1296,0,0
14,-272,0,0,0,0,0,0,0,0,0,-1,1238,1296,0,0
21,-272,0,0,0,0,0,0,0,0,0,-1,1245,1296,0,0
28,-272,0,0,0,0,0,0,0,0,0,-1,1252,1296,0,0
35,-272,0,0,0,0,0,0,0,0,0,-1,1259,1296,0,0
42,-272,0,0,0,0,0,0,0,0,0,-1,1266,1296,0,0
49,-272,0,0,0,0,0,0,0,0,0,-1,1273,1296,0,0
56,-272,0,0,0,0,0,0,0,0,0,-1,1280,1296,0,0
63,-272,0,0,0,0,0,0,0,0,0,-1,1287,1296,0,0
70,-272,0,0,0,0,0,0,0,0,0,-1,1294,1296,0,0
77,-272,0,0,0,0,0,0,0,0,0,-1,1301,1296,0,0
84,-272,0,0,0,0,0,0,0,0,0,-1,1308,1296,0,0
91,-272,0,0,0,0,0,0,0,0,0,-1,1315,1296,0,0
98,-272,0,0,0,0,0,0,0,0,0,-1,1322,1296,0,0
105,-272,0,0,0,0,0,0,0,0,0,-1,1329,1296,0,0
112,-272,0,0,0,0,0,0,0,0,0,-1,1336,1296,0,0
119,-272,0,0,0,0,0,0,0,0,0,-1,1343,1296,0,0
126,-272,0,0,0,0,0,0,0,0,0,-1,1350,1296,0,0
133,-272,0,0,0,0,0,0,0,0,0,-1,1357,1296,0,0
140,-272,0,0,0,0,0,0,0,0,0,-1,1364,1296,0,0
147,-272,0,0,0,0,0,0,0,0,0,-1,1371,1296,0,0
154,-272,0,0,0,0,0,0,0,0,0,-1,1378,1296,0,0
161,-272,0,0,0,0,0,0,0,0,0,-1,1385,1296,0,0
168,-272,0,0,0,0,0,0,0,0,0,-1,1392,1296,0,0
175,-272,0,0,0,0,0,0,0,0,0,-1,1399,1296,0,0
182,-272,0,0,0,0,0,0,0,0,0,-1,1406,1296,0,0
189,-272,0,0,0,0,0,0,0,0,0,-1,1413,1296,0,0
196,-272,0,0,0,0,0,0,0,0,0,-1,1420,1296,0,0
203,-272,0,0,0,0,0,0,0,0,0,-1,1427,1296,0,0
210,-272,0,0,0,0,0,0,0,0,0,-1,1434,1296,0,0
217,-272,0,0,0,0,0,0,0,0,0,-1,1441,1296,0,0
224,-272,0,0,0,0,0,0,0,0,0,-1,1448,1296,0,0
231,-272,0,0,0,0,0,0,0,0,0,-1,1455,1296,0,0
238,-272,0,0,0,0,0,0,0,0,0,-1,1462,1296,0,0
245,-272,0,0,0,0,0,0,0,0,0,-1,1469,1296,0,0
252,-272,0,0,0,0,0,0,0,0,0,-1,1476,1296,0,0
259,-272,0,0,0,0,0,0,0,0,0,-1,1483,1296,0,0
266,-272,0,0,0,0,0,0,0,0,0,-1,1490,1296,0,0
273,-272,0,0,0,0,0,0,0,0,0,-1,1497,1296,0,0
280,-272,0,0,0,0,0,0,0,0,0,-1,1504,1296,0,0
287,-272,0,0,0,0,0,0,0,0,0,-1,1511,1296,0,0
294,-272,0,0,0,0,0,0,0,0,0,-1,1518,1296,0,0
301,-272,0,0,0,0,0,0,0,0,0,-1,1525,1296,0,0
308,-272,0,0,0,0,0,0,0,0,0,-1,1532,1296,0,0
315,-272,0,0,0,0,0,0,0,0,0,-1,1539,1296,0,0
322,-272,0,0,0,0,0,0,0,0,0,-1,1546,1296,0,0
329,-272,0,0,0,0,0,0,0,0,0,-1,1553,1296,0,0
336,-272,0,0,0,0,0,0,0,0,0,-1,1560,1296,0,0
343,-272,0,0,0,0,0,0,0,0,0,-1,1567,1296,0,0
350,-272,0,0,0,0,0,0,0,0,0,-1,1574,1296,0,0
357,-272,0,0,0,0,0,0,0,0,0,-1,1581,1296,0,0
364,-272,0,0,0,0,0,0,0,0,0,-1,1588,1296,0,0
371,-272,0,0,0,0,0,0,0,0,0,-1,1595,1296,0,0
378,-272,0,0,0,0,0,0,0,0,0,-1,1602,1296,0,0
385,-272,0,0,0,0,0,0,0,0,0,-1,1609,1296,0,0
392,-272,0,0,0,0,0,0,0,0,0,-1,1616,1296,0,0
399,-272,0,0,0,0,0,0,0,0,0,-1,1623,1296,0,0
406,-272,0,0,0,0,0,0,0,0,0,-1,1630,1296,0,0
413,-272,0,0,0,0,0,0,0,0,0,-1,1637,1296,0,0
420,-272,0,0,0,0,0,0,0,0,0,-1,1644,1296,0,0
427,-272,0,0,0,0,0,0,0,0,0,-1,1651,1296,0,0
434,-272,0,0,0,0,0,0,0,0,0,-1,1658,1296,0,0
441,-272,0,0,0,0,0,0,0,0,0,-1,1665,1296,0,0
448,-272,0,0,0,0,0,0,0,0,0,-1,1672,1296,0,0
455,-272,0,0,0,0,0,0,0,0,0,-1,1679,1296,0,0
462,-272,0,0,0,0,0,0,0,0,0,-1,1686,1296,0,0
469,-272,0,0,0,0,0,0,0,0,0,-1,1693,1296,0,0
476,-272,0,0,0,0,0,0,0,0,0,-1,1700,1296,0,0
483,-272,0,0,0,0,0,0,0,0,0,-1,1707,1296,0,0
490,-272,0,0,0,0,0,0,0,0,0,-1,1714,1296,0,0
497,-272,0,0,0,0,0,0,0,0,0,-1,1721,1296,0,0
504,-272,0,0,0,0,0,0,0,0,0,-1,1728,1296,0,0
511,-272,0,0,0,0,0,0,0,0,0,-1,1735,1296,0,0
518,-272,0,0,0,0,0,0,0,0,0,-1,1742,1296,0,0
525,-272,0,0,0,0,0,0,0,0,0,-1,1749,1296,0,0
532,-272,0,0,0,0,0,0,0,0,0,-1,1756,1296,0,0
539,-272,0,0,0,0,0,0,0,0,0,-1,1763,1296,0,0
546,-272,0,0,0,0,0,0,0,0,0,-1,1770,1296,0,0
553,-272,0,0,0,0,0,0,0,0,0,-1,1777,1296,0,0
560,-272,0,0,0,0,0,0,0,0,0,-1,1784,1296,0,0
567,-272,0,0,0,0,0,0,0,0,0,-1,1791,1296,0,0
574,-272,0,0,0,0,0,0,0,0,0,-1,1798,1296,0,0
581,-272,0,0,0,0,0,0,0,0,0,-1,1805,1296,0,0
588,-272,0,0,0,0,0,0,0,0,0,-1,1812,1296,0,0
595,-272,0,0,0,0,0,0,0,0,0,-1,1819,1296,0,0
602,-272,4.94043,0.652832,0.00146186,-0.0140281,0.00210663,0.00174325,-0.0143095,0.132787,0.0101707,0.0303825,1826,1296,4.94047,-0.652802
609,-272,4.87073,0.62439,0.00393636,-0.0172894,0.00407836,0.00469302,-0.018046,0.183443,0.0138624,0.0362788,1833,1296,4.87073,-0.624331
616,-272,4.72583,0.499146,0.00579929,-0.0159617,0.00344792,0.00633253,-0.0164949,0.15344,0.0136078,0.0406708,1840,1296,4.72579,-0.499136
623,-272,4.88049,0.566528,0.00672531,-0.0137613,0.00187572,0.00689563,-0.0139316,0.0905553,0.0122512,0.0448326,1847,1296,4.88048,-0.566512
630,-272,2.98389,0.132813,0,0,0,0,0,0,0,-1,1854,1296,2.98388,-0.132866
637,-272,3.51306,0.314087,0.00648105,-0.00837002,-0.00157159,0.00664554,-0.00853451,-0.104285,0.00878679,0.0488917,1861,1296,3.5131,-0.314051
644,-272,4.18579,0.606323,0.00576472,-0.00601751,-0.0029133,0.00644571,-0.0066985,-0.229629,0.00758928,0.0480588,1868,1296,4.18575,-0.606277
651,-272,4.25562,3.03699,0,0,0,0,0,0,0,-1,1875,1296,4.25559,-3.03702
658,-272,4.35425,2.55957,0.00446851,-0.00195814,-0.00467076,0.00692453,-0.00441416,-0.484097,0.00659966,0.045765,1882,1296,4.35425,-2.55958
665,-272,4.35315,1.89075,0.00332229,-0.000122606,-0.00497297,0.00686266,-0.00366298,-0.618683,0.00616987,0.0492948,1889,1296,4.35311,-1.89071
672,-272,4.2887,1.26062,0.00219684,0.000966019,-0.00506057,0.00667928,-0.00351642,-0.724891,0.00598016,0.0435666,1896,1296,4.28874,-1.26067
679,-272,4.28906,1.06873,0.00149206,0.00155358,-0.00504502,0.00656793,-0.00352229,-0.788447,0.00591339,0.0165724,1903,1296,4.28902,-1.06873
686,-272,4.30225,1.047,0.000628763,0.00193904,-0.0046404,0.00597033,-0.00340252,-0.855526,0.00547869,0.0121535,1910,1296,4.30227,-1.04705
693,-272,4.27881,1.00293,-0.000225392,0.00205397,-0.00358014,0.00467145,-0.00284288,-0.939494,0.00438101,0.0109233,1917,1296,4.27881,-1.00291
700,-272,4.26611,0.984985,0.00113211,0.00221002,-0.00278858,0.00451125,-0.00116912,-0.880858,0.00346362,0.0108009,1924,1296,4.26607,-0.985013
707,-272,4.2804,0.959961,0.0033377,0.00249384,-0.00211521,0.00507266,0.000758889,-0.686953,0.00315934,0.0102678,1931,1296,4.28043,-0.959912
714,-272,4.27734,0.917847,0.00581419,0.00288131,-0.00173502,0.00661948,0.00207602,-0.434547,0.00390926,0.00973088,1938,1296,4.27736,-0.917891
721,-272,4.26721,0.897339,0.0097941,0.0047968,-0.00232959,0.0107116,0.00387927,-0.375199,0.00626221,0.0105118,1945,1296,4.26721,-0.897285
728,-272,4.28064,0.881714,0.0145158,0.00745185,-0.00292319,0.0155686,0.00639909,-0.345682,0.00903584,0.0130229,1952,1296,4.2806,-0.881726
735,-272,4.3042,0.856079,0.0202292,0.010416,-0.00392178,0.0216039,0.00904123,-0.337153,0.0125281,0.0139908,1959,1296,4.30421,-0.856028
742,-272,4.28455,0.796509,0.0272692,0.0146702,-0.00527821,0.0291882,0.0127512,-0.348706,0.0168965,0.0229878,1966,1296,4.28459,-0.796454
749,-272,4.35779,0.431763,0.0354275,0.0201596,-0.00689463,0.0380801,0.017507,-0.367277,0.0220093,0.037503,1973,1296,4.35777,-0.431807
756,-272,4.62988,0.00695801,0.0445101,0.0270353,-0.00871203,0.0481113,0.023434,-0.391972,0.0277802,0.0449413,1980,1296,4.6299,-0.00699558
763,-272,5.21338,-0.272339,0.0540576,0.0354547,-0.0106146,0.0588694,0.0306428,-0.425618,0.0339978,0.0467989,1987,1296,5.21338,0.272348
770,-272,5.67993,-0.294556,0.063215,0.0455414,-0.0124091,0.0696122,0.0391442,-0.475991,0.0402945,0.0470519,1994,1296,5.67998,0.29459
777,-272,6.20129,-0.525879,0.0707744,0.0573088,-0.0137389,0.0793415,0.0487417,-0.557568,0.0462053,0.046073,2001,1296,6.20126,0.525855
784,-272,0,0,0,0,0,0,0,0,0,-1,2008,1296,0,0
791,-272,0,0,0,0,0,0,0,0,0,-1,2015,1296,0,0
798,-272,0,0,0,0,0,0,0,0,0,-1,2022,1296,0,0
805,-272,0,0,0,0,0,0,0,0,0,-1,2029,1296,0,0
812,-272,0,0,0,0,0,0,0,0,0,-1,2036,1296,0,0
-700,-279,0,0,0,0,0,0,0,0,0,-1,524,1303,0,0
-693,-279,0,0,0,0,0,0,0,0,0,-1,531,1303,0,0
-686,-279,0,0,0,0,0,0,0,0,0,-1,538,1303,0,0
-679,-279,0,0,0,0,0,0,0,0,0,-1,545,1303,0,0
-672,-279,0,0,0,0,0,0,0,0,0,-1,552,1303,0,0
-665,-279,0,0,0,0,0,0,0,0,0,-1,559,1303,0,0
-658,-279,0.281677,-2.38574,-0.0466503,0.0613308,-0.00396531,0.0614763,-0.0467957,-1.53414,0.0627021,0.0442462,566,1303,0.281684,2.38572
-651,-279,0.0940552,-1.66626,-0.0391958,0.0500272,-0.00629695,0.0504694,-0.039638,-1.50068,0.0521487,0.0430133,573,1303,0.0940498,1.66625
-644,-279,-0.432617,-1.21497,-0.0323259,0.040725,-0.00674203,0.041342,-0.0329429,-1.47953,0.0429797,0.0430066,580,1303,-0.43259,1.21492
-637,-279,-1.0069,-1.1051,-0.0261274,0.0327589,-0.00619033,0.0334026,-0.0267711,-1.46718,0.0348116,0.044308,587,1303,-1.0069,1.10513
-630,-279,-1.63635,-1.19495,-0.0206552,0.0259747,-0.00513157,0.0265328,-0.0212132,-1.46247,0.0276231,0.0422854,594,1303,-1.63634,1.19495
-623,-279,0.0640869,0.427368,-0.0159376,0.0202469,-0.00386644,0.0206554,-0.0163461,-1.46553,0.0214111,0.0427515,601,1303,0.0640893,-0.427391
-616,-279,-0.0983276,0.518433,-0.0119577,0.0154735,-0.00260537,0.0157188,-0.012203,-1.47694,0.0161632,0.0399012,608,1303,-0.0983535,-0.518435
-609,-279,-0.2323,0.707764,-0.00860077,0.0112366,-0.00166056,0.0113747,-0.00873881,-1.48786,0.0116457,0.0252125,615,1303,-0.232312,-0.707747
-602,-279,-0.25946,0.748291,-0.00591637,0.00748116,-0.00115445,0.00757991,-0.00601512,-1.48547,0.0078664,0.0117114,622,1303,-0.259446,-0.748331
-595,-279,-0.270569,0.80127,-0.00398762,0.00565034,-0.000327052,0.00566142,-0.0039987,-1.53691,0.00560475,0.00930437,629,1303,-0.270555,-0.80129
-588,-279,-0.251831,0.855103,-0.00233173,0.00382554,0.000885265,0.00395029,-0.00245649,1.4308,0.00373232,0.00928453,636,1303,-0.251845,-0.85512
-581,-279,-0.268127,0.865356,-0.00105372,0.0025938,0.00197752,0.00346015,-0.00192007,1.15788,0.00314841,0.0108358,643,1303,-0.268106,-0.865371
-574,-279,-0.277161,0.880127,-0.00108022,0.00360881,0.00212027,0.00442536,-0.00189676,1.20319,0.00374613,0.0104851,650,1303,-0.277187,-0.880068
-567,-279,-0.258423,0.926758,-0.00126637,0.00427835,0.000354587,0.00430094,-0.00128895,1.50719,0.00337988,0.0126444,657,1303,-0.25843,-0.92675
-560,-279,-0.259155,0.978516,-0.000674226,0.0044104,-0.00092891,0.00457479,-0.000838614,-1.39564,0.00336442,0.0140916,664,1303,-0.259162,-0.97855
-553,-279,-0.271179,1.01843,-0.00105558,0.00497828,-0.00177476,0.00546158,-0.00153889,-1.30492,0.00424797,0.0113129,671,1303,-0.271153,-1.01848
-546,-279,-0.277161,1.03699,-0.00140025,0.00545755,-0.00259763,0.0063304,-0.0022731,-1.24663,0.00514805,0.012094,678,1303,-0.277159,-1.03694
-539,-279,-0.274231,1.27271,-0.00166705,0.00676754,-0.00385702,0.00826533,-0.00316484,-1.20039,0.0068147,0.0346866,685,1303,-0.274255,-1.27275
-532,-279,-0.344482,1.59436,-0.00172841,0.00758231,-0.0050496,0.00979505,-0.00394115,-1.1578,0.00816713,0.0434672,692,1303,-0.344474,-1.59439
-525,-279,-0.56189,1.85291,-0.00188986,0.00821838,-0.00627523,0.0112217,-0.00489321,-1.12441,0.00954011,0.0405868,699,1303,-0.561905,-1.85293
-518,-279,-1.03809,1.4679,-0.0021218,0.00867274,-0.00722805,0.0122963,-0.00574536,-1.10609,0.0106428,0.0402688,706,1303,-1.03811,-1.46788
-511,-279,-1.35242,1.23523,0,0,0,0,0,0,0,-1,713,1303,-1.35242,-1.2352
-504,-279,-0.145508,0.111328,-0.00297391,0.00930782,-0.0071086,0.0125607,-0.00622679,-1.14164,0.0110505,0.0495388,720,1303,-0.145537,-0.111336
-497,-279,-0.544678,0.579712,-0.00369456,0.00989114,-0.00510624,0.0115963,-0.00539974,-1.2485,0.0100277,0.0445963,727,1303,-0.544653,-0.579762
-490,-279,-1.33411,1.22485,-0.00483134,0.0114847,-0.00119759,0.0115721,-0.00491878,-1.49792,0.00977592,0.0405017,734,1303,-1.33413,-1.22481
-483,-279,-2.05548,1.80042,0,0,0,0,0,0,0,-1,741,1303,-2.0555,-1.80038
-476,-279,0,0,0,0,0,0,0,0,0,-1,748,1303,0,0
-469,-279,0,0,0,0,0,0,0,0,0,-1,755,1303,0,0
-462,-279,0,0,0,0,0,0,0,0,0,-1,762,1303,0,0
-455,-279,0,0,0,0,0,0,0,0,0,-1,769,1303,0,0
-448,-279,0,0,0,0,0,0,0,0,0,-1,776,1303,0,0
-441,-279,0,0,0,0,0,0,0,0,0,-1,783,1303,0,0
-434,-279,0,0,0,0,0,0,0,0,0,-1,790,1303,0,0
-427,-279,0,0,0,0,0,0,0,0,0,-1,797,1303,0,0
-420,-279,0,0,0,0,0,0,0,0,0,-1,804,1303,0,0
-413,-279,0,0,0,0,0,0,0,0,0,-1,811,1303,0,0
-406,-279,0,0,0,0,0,0,0,0,0,-1,818,1303,0,0
-399,-279,0,0,0,0,0,0,0,0,0,-1,825,1303,0,0
-392,-279,0,0,0,0,0,0,0,0,0,-1,832,1303,0,0
-385,-279,0,0,0,0,0,0,0,0,0,-1,839,1303,0,0
-378,-279,0,0,0,0,0,0,0,0,0,-1,846,1303,0,0
-371,-279,0,0,0,0,0,0,0,0,0,-1,853,1303,0,0
-364,-279,0,0,0,0,0,0,0,0,0,-1,860,1303,0,0
-357,-279,0,0,0,0,0,0,0,0,0,-1,867,1303,0,0
-350,-279,0,0,0,0,0,0,0,0,0,-1,874,1303,0,0
-343,-279,0,0,0,0,0,0,0,0,0,-1,881,1303,0,0
-336,-279,0,0,0,0,0,0,0,0,0,-1,888,1303,0,0
-329,-279,0,0,0,0,0,0,0,0,0,-1,895,1303,0,0
-322,-279,0,0,0,0,0,0,0,0,0,-1,902,1303,0,0
-315,-279,0,0,0,0,0,0,0,0,0,-1,909,1303,0,0
-308,-279,0,0,0,0,0,0,0,0,0,-1,916,1303,0,0
-301,-279,0,0,0,0,0,0,0,0,0,-1,923,1303,0,0
-294,-279,0,0,0,0,0,0,0,0,0,-1,930,1303,0,0
-287,-279,0,0,0,0,0,0,0,0,0,-1,937,1303,0,0
-280,-279,0,0,0,0,0,0,0,0,0,-1,944,1303,0,0
-273,-279,0,0,0,0,0,0,0,0,0,-1,951,1303,0,0
-266,-279,0,0,0,0,0,0,0,0,0,-1,958,1303,0,0
-259,-279,0,0,0,0,0,0,0,0,0,-1,965,1303,0,0
-252,-279,0,0,0,0,0,0,0,0,0,-1,972,1303,0,0
-245,-279,0,0,0,0,0,0,0,0,0,-1,979,1303,0,0
-238,-279,0,0,0,0,0,0,0,0,0,-1,986,1303,0,0
-231,-279,0,0,0,0,0,0,0,0,0,-1,993,1303,0,0
-224,-279,0,0,0,0,0,0,0,0,0,-1,1000,1303,0,0
-217,-279,0,0,0,0,0,0,0,0,0,-1,1007,1303,0,0
-210,-279,0,0,0,0,0,0,0,0,0,-1,1014,1303,0,0
-203,-279,0,0,0,0,0,0,0,0,0,-1,1021,1303,0,0
-196,-279,0,0,0,0,0,0,0,0,0,-1,1028,1303,0,0
-189,-279,0,0,0,0,0,0,0,0,0,-1,1035,1303,0,0
-182,-279,0,0,0,0,0,0,0,0,0,-1,1042,1303,0,0
-175,-279,0,0,0,0,0,0,0,0,0,-1,1049,1303,0,0
-168,-279,0,0,0,0,0,0,0,0,0,-1,1056,1303,0,0
-161,-279,0,0,0,0,0,0,0,0,0,-1,1063,1303,0,0
-154,-279,0,0,0,0,0,0,0,0,0,-1,1070,1303,0,0
-147,-279,0,0,0,0,0,0,0,0,0,-1,1077,1303,0,0
-140,-279,0,0,0,0,0,0,0,0,0,-1,1084,1303,0,0
-133,-279,0,0,0,0,0,0,0,0,0,-1,1091,1303,0,0
-126,-279,0,0,0,0,0,0,0,0,0,-1,1098,1303,0,0
-119,-279,0,0,0,0,0,0,0,0,0,-1,1105,1303,0,0
-112,-279,0,0,0,0,0,0,0,0,0,-1,1112,1303,0,0
-105,-279,0,0,0,0,0,0,0,0,0,-1,1119,1303,0,0
-98,-279,0,0,0,0,0,0,0,0,0,-1,1126,1303,0,0
-91,-279,0,0,0,0,0,0,0,0,0,-1,1133,1303,0,0
-84,-279,0,0,0,0,0,0,0,0,0,-1,1140,1303,0,0
-77,-279,0,0,0,0,0,0,0,0,0,-1,1147,1303,0,0
-70,-279,0,0,0,0,0,0,0,0,0,-1,1154,1303,0,0
-63,-279,0,0,0,0,0,0,0,0,0,-1,1161,1303,0,0
-56,-279,0,0,0,0,0,0,0,0,0,-1,1168,1303,0,0
-49,-279,0,0,0,0,0,0,0,0,0,-1,1175,1303,0,0
-42,-279,0,0,0,0,0,0,0,0,0,-1,1182,1303,0,0
-35,-279,0,0,0,0,0,0,0,0,0,-1,1189,1303,0,0
-28,-279,0,0,0,0,0,0,0,0,0,-1,1196,1303,0,0
-21,-279,0,0,0,0,0,0,0,0,0,-1,1203,1303,0,0
-14,-279,0,0,0,0,0,0,0,0,0,-1,1210,1303,0,0
-7,-279,0,0,0,0,0,0,0,0,0,-1,1217,1303,0,0
0,-279,0,0,0,0,0,0,0,0,0,-1,1224,1303,0,0
7,-279,0,0,0,0,0,0,0,0,0,-1,1231,1303,0,0
14,-279,0,0,0,0,0,0,0,0,0,-1,1238,1303,0,0
21,-279,0,0,0,0,0,0,0,0,0,-1,1245,1303,0,0
28,-279,0,0,0,0,0,0,0,0,0,-1,1252,1303,0,0
35,-279,0,0,0,0,0,0,0,0,0,-1,1259,1303,0,0
42,-279,0,0,0,0,0,0,0,0,0,-1,1266,1303,0,0
49,-279,0,0,0,0,0,0,0,0,0,-1,1273,1303,0,0
56,-279,0,0,0,0,0,0,0,0,0,-1,1280,1303,0,0
63,-279,0,0,0,0,0,0,0,0,0,-1,1287,1303,0,0
70,-279,0,0,0,0,0,0,0,0,0,-1,1294,1303,0,0
77,-279,0,0,0,0,0,0,0,0,0,-1,1301,1303,0,0
84,-279,0,0,0,0,0,0,0,0,0,-1,1308,1303,0,0
91,-279,0,0,0,0,0,0,0,0,0,-1,1315,1303,0,0
98,-279,0,0,0,0,0,0,0,0,0,-1,1322,1303,0,0
105,-279,0,0,0,0,0,0,0,0,0,-1,1329,1303,0,0
112,-279,0,0,0,0,0,0,0,0,0,-1,1336,1303,0,0
119,-279,0,0,0,0,0,0,0,0,0,-1,1343,1303,0,0
126,-279,0,0,0,0,0,0,0,0,0,-1,1350,1303,0,0
133,-279,0,0,0,0,0,0,0,0,0,-1,1357,1303,0,0
140,-279,0,0,0,0,0,0,0,0,0,-1,1364,1303,0,0
147,-279,0,0,0,0,0,0,0,0,0,-1,1371,1303,0,0
154,-279,0,0,0,0,0,0,0,0,0,-1,1378,1303,0,0
161,-279,0,0,0,0,0,0,0,0,0,-1,1385,1303,0,0
168,-279,0,0,0,0,0,0,0,0,0,-1,1392,1303,0,0
175,-279,0,0,0,0,0,0,0,0,0,-1,1399,1303,0,0
182,-279,0,0,0,0,0,0,0,0,0,-1,1406,1303,0,0
189,-279,0,0,0,0,0,0,0,0,0,-1,1413,1303,0,0
196,-279,0,0,0,0,0,0,0,0,0,-1,1420,1303,0,0
203,-279,0,0,0,0,0,0,0,0,0,-1,1427,1303,0,0
210,-279,0,0,0,0,0,0,0,0,0,-1,1434,1303,0,0
217,-279,0,0,0,0,0,0,0,0,0,-1,1441,1303,0,0
224,-279,0,0,0,0,0,0,0,0,0,-1,1448,1303,0,0
231,-279,0,0,0,0,0,0,0,0,0,-1,1455,1303,0,0
238,-279,0,0,0,0,0,0,0,0,0,-1,1462,1303,0,0
245,-279,0,0,0,0,0,0,0,0,0,-1,1469,1303,0,0
252,-279,0,0,0,0,0,0,0,0,0,-1,1476,1303,0,0
259,-279,0,0,0,0,0,0,0,0,0,-1,1483,1303,0,0
266,-279,0,0,0,0,0,0,0,0,0,-1,1490,1303,0,0
273,-279,0,0,0,0,0,0,0,0,0,-1,1497,1303,0,0
280,-279,0,0,0,0,0,0,0,0,0,-1,1504,1303,0,0
287,-279,0,0,0,0,0,0,0,0,0,-1,1511,1303,0,0
294,-279,0,0,0,0,0,0,0,0,0,-1,1518,1303,0,0
301,-279,0,0,0,0,0,0,0,0,0,-1,1525,1303,0,0
308,-279,0,0,0,0,0,0,0,0,0,-1,1532,1303,0,0
315,-279,0,0,0,0,0,0,0,0,0,-1,1539,1303,0,0
322,-279,0,0,0,0,0,0,0,0,0,-1,1546,1303,0,0
329,-279,0,0,0,0,0,0,0,0,0,-1,1553,1303,0,0
336,-279,0,0,0,0,0,0,0,0,0,-1,1560,1303,0,0
343,-279,0,0,0,0,0,0,0,0,0,-1,1567,1303,0,0
350,-279,0,0,0,0,0,0,0,0,0,-1,1574,1303,0,0
357,-279,0,0,0,0,0,0,0,0,0,-1,1581,1303,0,0
364,-279,0,0,0,0,0,0,0,0,0,-1,1588,1303,0,0
371,-279,0,0,0,0,0,0,0,0,0,-1,1595,1303,0,0
378,-279,0,0,0,0,0,0,0,0,0,-1,1602,1303,0,0
385,-279,0,0,0,0,0,0,0,0,0,-1,1609,1303,0,0
392,-279,0,0,0,0,0,0,0,0,0,-1,1616,1303,0,0
399,-279,0,0,0,0,0,0,0,0,0,-1,1623,1303,0,0
406,-279,0,0,0,0,0,0,0,0,0,-1,1630,1303,0,0
413,-279,0,0,0,0,0,0,0,0,0,-1,1637,1303,0,0
420,-279,0,0,0,0,0,0,0,0,0,-1,1644,1303,0,0
427,-279,0,0,0,0,0,0,0,0,0,-1,1651,1303,0,0
434,-279,0,0,0,0,0,0,0,0,0,-1,1658,1303,0,0
441,-279,0,0,0,0,0,0,0,0,0,-1,1665,1303,0,0
448,-279,0,0,0,0,0,0,0,0,0,-1,1672,1303,0,0
455,-279,0,0,0,0,0,0,0,0,0,-1,1679,1303,0,0
462,-279,0,0,0,0,0,0,0,0,0,-1,1686,1303,0,0
469,-279,0,0,0,0,0,0,0,0,0,-1,1693,1303,0,0
476,-279,0,0,0,0,0,0,0,0,0,-1,1700,1303,0,0
483,-279,0,0,0,0,0,0,0,0,0,-1,1707,1303,0,0
490,-279,0,0,0,0,0,0,0,0,0,-1,1714,1303,0,0
497,-279,0,0,0,0,0,0,0,0,0,-1,1721,1303,0,0
504,-279,0,0,0,0,0,0,0,0,0,-1,1728,1303,0,0
511,-279,0,0,0,0,0,0,0,0,0,-1,1735,1303,0,0
518,-279,0,0,0,0,0,0,0,0,0,-1,1742,1303,0,0
525,-279,0,0,0,0,0,0,0,0,0,-1,1749,1303,0,0
532,-279,0,0,0,0,0,0,0,0,0,-1,1756,1303,0,0
539,-279,0,0,0,0,0,0,0,0,0,-1,1763,1303,0,0
546,-279,0,0,0,0,0,0,0,0,0,-1,1770,1303,0,0
553,-279,0,0,0,0,0,0,0,0,0,-1,1777,1303,0,0
560,-279,0,0,0,0,0,0,0,0,0,-1,1784,1303,0,0
567,-279,0,0,0,0,0,0,0,0,0,-1,1791,1303,0,0
574,-279,0,0,0,0,0,0,0,0,0,-1,1798,1303,0,0
581,-279,0,0,0,0,0,0,0,0,0,-1,1805,1303,0,0
588,-279,0,0,0,0,0,0,0,0,0,-1,1812,1303,0,0
595,-279,0,0,0,0,0,0,0,0,0,-1,1819,1303,0,0
602,-279,4.91455,0.646729,0.00944751,-0.0163978,-3.68149e-05,0.00944757,-0.0163979,-0.00142443,0.0151007,0.0408268,1826,1303,4.91451,-0.646693
609,-279,4.81921,0.561157,0.0088676,-0.0191617,0.00165865,0.00896541,-0.0192595,0.0589017,0.016653,0.046857,1833,1303,4.81916,-0.561157
616,-279,4.76514,-0.0723877,0,0,0,0,0,0,0,-1,1840,1303,4.76516,0.0724278
623,-279,4.89307,0.295532,0.00771335,-0.0154223,0.000324147,0.00771789,-0.0154269,0.014007,0.0136075,0.045033,1847,1303,4.89309,-0.295578
630,-279,5.02722,0.704834,0.00683731,-0.0124699,-0.00100409,0.00688939,-0.012522,-0.0518194,0.0113634,0.0455435,1854,1303,5.02719,-0.704825
637,-279,3.92566,0.478882,0.00590318,-0.00949158,-0.00229839,0.006239,-0.0098274,-0.145083,0.00935274,0.048841,1861,1303,3.9256,-0.478933
644,-279,4.2677,0.725586,0.0047784,-0.0069503,-0.00333227,0.00565902,-0.00783092,-0.258364,0.007822,0.0471774,1868,1303,4.26774,-0.725608
651,-279,4.20959,1.47937,0,0,0,0,0,0,0,-1,1875,1303,4.20958,-1.47933
658,-279,4.23816,1.39771,0.00346581,-0.0023978,-0.00472565,0.00609523,-0.00502722,-0.507755,0.00643141,0.0497726,1882,1303,4.23822,-1.39769
665,-279,4.27612,1.28662,0.00237844,-0.000306332,-0.00490261,0.00611912,-0.00404702,-0.651768,0.00590993,0.0484159,1889,1303,4.27608,-1.28667
672,-279,4.22949,1.09534,0.00137094,0.000937422,-0.00491653,0.00607549,-0.00376713,-0.763368,0.00573449,0.0348718,1896,1303,4.22949,-1.09535
679,-279,4.23413,1.07971,0.000926892,0.00157985,-0.00484034,0.00610472,-0.00359797,-0.819072,0.00566382,0.019801,1903,1303,4.23411,-1.07969
686,-279,4.25586,1.04565,0.000236468,0.00194405,-0.00441155,0.00558367,-0.00340315,-0.880984,0.0052392,0.0188079,1910,1303,4.25591,-1.04568
693,-279,4.22693,1.00195,-0.000425842,0.00203238,-0.00341096,0.00442892,-0.00282238,-0.958327,0.00422065,0.0153244,1917,1303,4.2269,-1.00201
700,-279,4.23035,0.987183,0.00158096,0.00229624,-0.00258717,0.00455037,-0.000673163,-0.854081,0.00328107,0.010659,1924,1303,4.23031,-0.987153
707,-279,4.24316,0.968628,0.00450128,0.00271521,-0.0019071,0.00571408,0.00150241,-0.566428,0.0034204,0.00836278,1931,1303,4.24312,-0.968626
714,-279,4.21729,0.929565,0.00760108,0.00328984,-0.00156528,0.00810944,0.00278148,-0.314027,0.00475831,0.00950797,1938,1303,4.21723,-0.929611
721,-279,4.22119,0.900879,0.0122764,0.00526104,-0.00206555,0.0128394,0.00469805,-0.266097,0.00750114,0.0114002,1945,1303,4.22119,-0.90092
728,-279,4.25757,0.863159,0.0179631,0.00831789,-0.00250758,0.018576,0.00770492,-0.239746,0.0107767,0.0122015,1952,1303,4.25759,-0.863217
735,-279,4.26892,0.839722,0.025014,0.0117699,-0.00328785,0.0257853,0.0109986,-0.230421,0.0149406,0.0123162,1959,1303,4.26894,-0.839674
742,-279,4.26746,0.778076,0.0337294,0.0166067,-0.004317,0.0347562,0.0155798,-0.233518,0.0201023,0.0229534,1966,1303,4.26746,-0.778068
749,-279,4.30933,0.362061,0.0439218,0.0228781,-0.00547524,0.0452611,0.0215388,-0.239905,0.0261416,0.0389923,1973,1303,4.30935,-0.362006
756,-279,4.44275,-0.198242,0.0553433,0.0308151,-0.00669927,0.0570538,0.0291046,-0.24998,0.0329423,0.0460334,1980,1303,4.44269,0.19826
763,-279,4.64807,-0.801147,0.067425,0.0406727,-0.00786787,0.0695674,0.0385303,-0.265849,0.0402424,0.04666,1987,1303,4.64808,0.801161
770,-279,4.78088,-1.35779,0.0791342,0.0527148,-0.0087855,0.081789,0.05006,-0.293451,0.0476146,0.0470015,1994,1303,4.78084,1.35785
777,-279,4.78137,-2.07739,0.0889587,0.0671591,-0.00909171,0.0922528,0.0638651,-0.3476,0.0545592,0.046814,2001,1303,4.78137,2.07734
784,-279,0,0,0,0,0,0,0,0,0,-1,2008,1303,0,0
791,-279,0,0,0,0,0,0,0,0,0,-1,2015,1303,0,0
798,-279,0,0,0,0,0,0,0,0,0,-1,2022,1303,0,0
805,-279,0,0,0,0,0,0,0,0,0,-1,2029,1303,0,0
812,-279,0,0,0,0,0,0,0,0,0,-1,2036,1303,0,0
-700,-286,0,0,0,0,0,0,0,0,0,-1,524,1310,0,0
-693,-286,0,0,0,0,0,0,0,0,0,-1,531,1310,0,0
-686,-286,0,0,0,0,0,0,0,0,0,-1,538,1310,0,0
-679,-286,0,0,0,0,0,0,0,0,0,-1,545,1310,0,0
-672,-286,0,0,0,0,0,0,0,0,0,-1,552,1310,0,0
-665,-286,0,0,0,0,0,0,0,0,0,-1,559,1310,0,0
-658,-286,1.03925,-2.66943,0,0,0,0,0,0,0,-1,566,1310,1.03925,2.66943
-651,-286,1.02667,-0.791504,0,0,0,0,0,0,0,-1,573,1310,1.02669,0.791518
-644,-286,0.416077,-0.759521,-0.0337998,0.0349147,-0.0171315,0.0389489,-0.0378341,-1.33952,0.0443323,0.0481734,580,1310,0.416082,0.759565
-637,-286,-0.239746,-0.767334,-0.0277289,0.0282293,-0.0143671,0.0317024,-0.0312021,-1.3336,0.0363183,0.0439686,587,1310,-0.239766,0.767285
-630,-286,-0.901855,-0.803223,-0.0221717,0.0225563,-0.0112946,0.0252465,-0.024862,-1.33696,0.0289304,0.0424538,594,1310,-0.901874,0.803183
-623,-286,-0.268494,-0.36084,-0.0172758,0.0177767,-0.00830157,0.0196433,-0.0191425,-1.34962,0.0223936,0.040302,601,1310,-0.268511,0.360855
-616,-286,-0.203613,-0.0146484,-0.0130863,0.013793,-0.00562935,0.0149243,-0.0142176,-1.37247,0.0168268,0.0394048,608,1310,-0.203602,0.0147058
-609,-286,-0.316467,0.567871,-0.00961579,0.0102703,-0.00358833,0.010898,-0.0102435,-1.39763,0.012208,0.029264,615,1310,-0.316451,-0.567811
-602,-286,-0.256897,0.775024,-0.00679087,0.00706727,-0.00229461,0.00743733,-0.00716092,-1.4109,0.00842881,0.0127801,622,1310,-0.256921,-0.77506
-595,-286,-0.255676,0.807617,-0.00456798,0.00520611,-0.000806803,0.00527226,-0.00463413,-1.48899,0.00572341,0.00965877,629,1310,-0.255687,-0.807608
-588,-286,-0.217041,0.856689,-0.00259211,0.00373839,0.000795485,0.00383682,-0.00269054,1.44769,0.00378789,0.010282,636,1310,-0.21703,-0.856737
-581,-286,-0.225769,0.876709,-0.0012384,0.00271013,0.00202548,0.00356435,-0.00209261,1.17169,0.00330269,0.0129534,643,1310,-0.225746,-0.876675
-574,-286,-0.251465,0.891479,-0.00121625,0.00360767,0.00222268,0.00447563,-0.00208421,1.19851,0.00387031,0.0126986,650,1310,-0.251446,-0.891455
-567,-286,-0.241638,0.941895,-0.00135333,0.00432898,0.000455771,0.0043653,-0.00138966,1.49127,0.00346752,0.0112727,657,1310,-0.241635,-0.941932
-560,-286,-0.231934,0.97644,-0.000824917,0.00439334,-0.000774448,0.00450585,-0.000937428,-1.42653,0.00336025,0.0119295,664,1310,-0.231945,-0.976388
-553,-286,-0.228577,1.01111,-0.00125857,0.00480598,-0.00155849,0.00518305,-0.00163563,-1.33342,0.00411052,0.00981164,671,1310,-0.228569,-1.0111
-546,-286,-0.24353,1.05042,-0.00164024,0.00524903,-0.00233366,0.00596511,-0.00235631,-1.27307,0.00495268,0.0109319,678,1310,-0.243501,-1.05041
-539,-286,-0.237854,1.16467,-0.00193623,0.00656539,-0.00342516,0.00777362,-0.00314446,-1.23167,0.00648967,0.0238474,685,1310,-0.237847,-1.16466
-532,-286,-0.287903,1.29639,-0.0020467,0.00741704,-0.00432231,0.00909399,-0.00372365,-1.2007,0.0076137,0.0412382,692,1310,-0.287914,-1.29633
-525,-286,-0.160461,1.30115,-0.00226155,0.00810014,-0.00521786,0.0102723,-0.00443375,-1.17632,0.00871076,0.0423386,699,1310,-0.160442,-1.30115
-518,-286,-1.57666,2.04358,-0.00249332,0.00859812,-0.00582985,0.0110987,-0.00499386,-1.16561,0.00951125,0.0438173,706,1310,-1.57667,-2.04353
-511,-286,0.161194,-0.190674,-0.0028709,0.00909548,-0.00586995,0.0114941,-0.00526953,-1.18287,0.0098984,0.0453743,713,1310,0.161182,0.190674
-504,-286,-0.0246582,-0.0020752,-0.00343983,0.00970042,-0.00506563,0.0114265,-0.00516592,-1.24239,0.00980431,0.0439965,720,1310,-0.0246379,0.00211877
-497,-286,-0.283081,0.4198,-0.00414672,0.0107038,-0.00300748,0.0112897,-0.00473267,-1.37838,0.00950524,0.0407134,727,1310,-0.283088,-0.419853
-490,-286,0.0606079,0.116089,-0.00540164,0.0128967,0.000579801,0.012915,-0.00542,1.53915,0.0108766,0.0427406,734,1310,0.0606207,-0.11612
-483,-286,-0.343628,0.238159,0,0,0,0,0,0,0,-1,741,1310,-0.343637,-0.238171
-476,-286,-0.598999,0.424072,0,0,0,0,0,0,0,-1,748,1310,-0.59901,-0.424092
-469,-286,0,0,0,0,0,0,0,0,0,-1,755,1310,0,0
-462,-286,0,0,0,0,0,0,0,0,0,-1,762,1310,0,0
-455,-286,0,0,0,0,0,0,0,0,0,-1,769,1310,0,0
-448,-286,0,0,0,0,0,0,0,0,0,-1,776,1310,0,0
-441,-286,0,0,0,0,0,0,0,0,0,-1,783,1310,0,0
-434,-286,0,0,0,0,0,0,0,0,0,-1,790,1310,0,0
-427,-286,0,0,0,0,0,0,0,0,0,-1,797,1310,0,0
-420,-286,0,0,0,0,0,0,0,0,0,-1,804,1310,0,0
-413,-286,0,0,0,0,0,0,0,0,0,-1,811,1310,0,0
-406,-286,0,0,0,0,0,0,0,0,0,-1,818,1310,0,0
-399,-286,0,0,0,0,0,0,0,0,0,-1,825,1310,0,0
-392,-286,0,0,0,0,0,0,0,0,0,-1,832,1310,0,0
-385,-286,0,0,0,0,0,0,0,0,0,-1,839,1310,0,0
-378,-286,0,0,0,0,0,0,0,0,0,-1,846,1310,0,0
-371,-286,0,0,0,0,0,0,0,0,0,-1,853,1310,0,0
-364,-286,0,0,0,0,0,0,0,0,0,-1,860,1310,0,0
-357,-286,0,0,0,0,0,0,0,0,0,-1,867,1310,0,0
-350,-286,0,0,0,0,0,0,0,0,0,-1,874,1310,0,0
-343,-286,0,0,0,0,0,0,0,0,0,-1,881,1310,0,0
-336,-286,0,0,0,0,0,0,0,0,0,-1,888,1310,0,0
-329,-286,0,0,0,0,0,0,0,0,0,-1,895,1310,0,0
-322,-286,0,0,0,0,0,0,0,0,0,-1,902,1310,0,0
-315,-286,0,0,0,0,0,0,0,0,0,-1,909,1310,0,0
-308,-286,0,0,0,0,0,0,0,0,0,-1,916,1310,0,0
-301,-286,0,0,0,0,0,0,0,0,0,-1,923,1310,0,0
-294,-286,0,0,0,0,0,0,0,0,0,-1,930,1310,0,0
-287,-286,0,0,0,0,0,0,0,0,0,-1,937,1310,0,0
-280,-286,0,0,0,0,0,0,0,0,0,-1,944,1310,0,0
-273,-286,0,0,0,0,0,0,0,0,0,-1,951,1310,0,0
-266,-286,0,0,0,0,0,0,0,0,0,-1,958,1310,0,0
-259,-286,0,0,0,0,0,0,0,0,0,-1,965,1310,0,0
-252,-286,0,0,0,0,0,0,0,0,0,-1,972,1310,0,0
-245,-286,0,0,0,0,0,0,0,0,0,-1,979,1310,0,0
-238,-286,0,0,0,0,0,0,0,0,0,-1,986,1310,0,0
-231,-286,0,0,0,0,0,0,0,0,0,-1,993,1310,0,0
-224,-286,0,0,0,0,0,0,0,0,0,-1,1000,1310,0,0
-217,-286,0,0,0,0,0,0,0,0,0,-1,1007,1310,0,0
-210,-286,0,0,0,0,0,0,0,0,0,-1,1014,1310,0,0
-203,-286,0,0,0,0,0,0,0,0,0,-1,1021,1310,0,0
-196,-286,0,0,0,0,0,0,0,0,0,-1,1028,1310,0,0
-189,-286,0,0,0,0,0,0,0,0,0,-1,1035,1310,0,0
-182,-286,0,0,0,0,0,0,0,0,0,-1,1042,1310,0,0
-175,-286,0,0,0,0,0,0,0,0,0,-1,1049,1310,0,0
-168,-286,0,0,0,0,0,0,0,0,0,-1,1056,1310,0,0
-161,-286,0,0,0,0,0,0,0,0,0,-1,1063,1310,0,0
-154,-286,0,0,0,0,0,0,0,0,0,-1,1070,1310,0,0
-147,-286,0,0,0,0,0,0,0,0,0,-1,1077,1310,0,0
-140,-286,0,0,0,0,0,0,0,0,0,-1,1084,1310,0,0
-133,-286,0,0,0,0,0,0,0,0,0,-1,1091,1310,0,0
-126,-286,0,0,0,0,0,0,0,0,0,-1,1098,1310,0,0
-119,-286,0,0,0,0,0,0,0,0,0,-1,1105,1310,0,0
-112,-286,0,0,0,0,0,0,0,0,0,-1,1112,1310,0,0
-105,-286,0,0,0,0,0,0,0,0,0,-1,1119,1310,0,0
-98,-286,0,0,0,0,0,0,0,0,0,-1,1126,1310,0,0
-91,-286,0,0,0,0,0,0,0,0,0,-1,1133,1310,0,0
-84,-286,0,0,0,0,0,0,0,0,0,-1,1140,1310,0,0
-77,-286,0,0,0,0,0,0,0,0,0,-1,1147,1310,0,0
-70,-286,0,0,0,0,0,0,0,0,0,-1,1154,1310,0,0
-63,-286,0,0,0,0,0,0,0,0,0,-1,1161,1310,0,0
-56,-286,0,0,0,0,0,0,0,0,0,-1,1168,1310,0,0
-49,-286,0,0,0,0,0,0,0,0,0,-1,1175,1310,0,0
-42,-286,0,0,0,0,0,0,0,0,0,-1,1182,1310,0,0
-35,-286,0,0,0,0,0,0,0,0,0,-1,1189,1310,0,0
-28,-286,0,0,0,0,0,0,0,0,0,-1,1196,1310,0,0
-21,-286,0,0,0,0,0,0,0,0,0,-1,1203,1310,0,0
-14,-286,0,0,0,0,0,0,0,0,0,-1,1210,1310,0,0
-7,-286,0,0,0,0,0,0,0,0,0,-1,1217,1310,0,0
0,-286,0,0,0,0,0,0,0,0,0,-1,1224,1310,0,0
7,-286,0,0,0,0,0,0,0,0,0,-1,1231,1310,0,0
14,-286,0,0,0,0,0,0,0,0,0,-1,1238,1310,0,0
21,-286,0,0,0,0,0,0,0,0,0,-1,1245,1310,0,0
28,-286,0,0,0,0,0,0,0,0,0,-1,1252,1310,0,0
35,-286,0,0,0,0,0,0,0,0,0,-1,1259,1310,0,0
42,-286,0,0,0,0,0,0,0,0,0,-1,1266,1310,0,0
49,-286,0,0,0,0,0,0,0,0,0,-1,1273,1310,0,0
56,-286,0,0,0,0,0,0,0,0,0,-1,1280,1310,0,0
63,-286,0,0,0,0,0,0,0,0,0,-1,1287,1310,0,0
70,-286,0,0,0,0,0,0,0,0,0,-1,1294,1310,0,0
77,-286,0,0,0,0,0,0,0,0,0,-1,1301,1310,0,0
84,-286,0,0,0,0,0,0,0,0,0,-1,1308,1310,0,0
91,-286,0,0,0,0,0,0,0,0,0,-1,1315,1310,0,0
98,-286,0,0,0,0,0,0,0,0,0,-1,1322,1310,0,0
105,-286,0,0,0,0,0,0,0,0,0,-1,1329,1310,0,0
112,-286,0,0,0,0,0,0,0,0,0,-1,1336,1310,0,0
119,-286,0,0,0,0,0,0,0,0,0,-1,1343,1310,0,0
126,-286,0,0,0,0,0,0,0,0,0,-1,1350,1310,0,0
133,-286,0,0,0,0,0,0,0,0,0,-1,1357,1310,0,0
140,-286,0,0,0,0,0,0,0,0,0,-1,1364,1310,0,0
147,-286,0,0,0,0,0,0,0,0,0,-1,1371,1310,0,0
154,-286,0,0,0,0,0,0,0,0,0,-1,1378,1310,0,0
161,-286,0,0,0,0,0,0,0,0,0,-1,1385,1310,0,0
168,-286,0,0,0,0,0,0,0,0,0,-1,1392,1310,0,0
175,-286,0,0,0,0,0,0,0,0,0,-1,1399,1310,0,0
182,-286,0,0,0,0,0,0,0,0,0,-1,1406,1310,0,0
189,-286,0,0,0,0,0,0,0,0,0,-1,1413,1310,0,0
196,-286,0,0,0,0,0,0,0,0,0,-1,1420,1310,0,0
203,-286,0,0,0,0,0,0,0,0,0,-1,1427,1310,0,0
210,-286,0,0,0,0,0,0,0,0,0,-1,1434,1310,0,0
217,-286,0,0,0,0,0,0,0,0,0,-1,1441,1310,0,0
224,-286,0,0,0,0,0,0,0,0,0,-1,1448,1310,0,0
231,-286,0,0,0,0,0,0,0,0,0,-1,1455,1310,0,0
238,-286,0,0,0,0,0,0,0,0,0,-1,1462,1310,0,0
245,-286,0,0,0,0,0,0,0,0,0,-1,1469,1310,0,0
252,-286,0,0,0,0,0,0,0,0,0,-1,1476,1310,0,0
259,-286,0,0,0,0,0,0,0,0,0,-1,1483,1310,0,0
266,-286,0,0,0,0,0,0,0,0,0,-1,1490,1310,0,0
273,-286,0,0,0,0,0,0,0,0,0,-1,1497,1310,0,0
280,-286,0,0,0,0,0,0,0,0,0,-1,1504,1310,0,0
287,-286,0,0,0,0,0,0,0,0,0,-1,1511,1310,0,0
294,-286,0,0,0,0,0,0,0,0,0,-1,1518,1310,0,0
301,-286,0,0,0,0,0,0,0,0,0,-1,1525,1310,0,0
308,-286,0,0,0,0,0,0,0,0,0,-1,1532,1310,0,0
315,-286,0,0,0,0,0,0,0,0,0,-1,1539,1310,0,0
322,-286,0,0,0,0,0,0,0,0,0,-1,1546,1310,0,0
329,-286,0,0,0,0,0,0,0,0,0,-1,1553,1310,0,0
336,-286,0,0,0,0,0,0,0,0,0,-1,1560,1310,0,0
343,-286,0,0,0,0,0,0,0,0,0,-1,1567,1310,0,0
350,-286,0,0,0,0,0,0,0,0,0,-1,1574,1310,0,0
357,-286,0,0,0,0,0,0,0,0,0,-1,1581,1310,0,0
364,-286,0,0,0,0,0,0,0,0,0,-1,1588,1310,0,0
371,-286,0,0,0,0,0,0,0,0,0,-1,1595,1310,0,0
378,-286,0,0,0,0,0,0,0,0,0,-1,1602,1310,0,0
385,-286,0,0,0,0,0,0,0,0,0,-1,1609,1310,0,0
392,-286,0,0,0,0,0,0,0,0,0,-1,1616,1310,0,0
399,-286,0,0,0,0,0,0,0,0,0,-1,1623,1310,0,0
406,-286,0,0,0,0,0,0,0,0,0,-1,1630,1310,0,0
413,-286,0,0,0,0,0,0,0,0,0,-1,1637,1310,0,0
420,-286,0,0,0,0,0,0,0,0,0,-1,1644,1310,0,0
427,-286,0,0,0,0,0,0,0,0,0,-1,1651,1310,0,0
434,-286,0,0,0,0,0,0,0,0,0,-1,1658,1310,0,0
441,-286,0,0,0,0,0,0,0,0,0,-1,1665,1310,0,0
448,-286,0,0,0,0,0,0,0,0,0,-1,1672,1310,0,0
455,-286,0,0,0,0,0,0,0,0,0,-1,1679,1310,0,0
462,-286,0,0,0,0,0,0,0,0,0,-1,1686,1310,0,0
469,-286,0,0,0,0,0,0,0,0,0,-1,1693,1310,0,0
476,-286,0,0,0,0,0,0,0,0,0,-1,1700,1310,0,0
483,-286,0,0,0,0,0,0,0,0,0,-1,1707,1310,0,0
490,-286,0,0,0,0,0,0,0,0,0,-1,1714,1310,0,0
497,-286,0,0,0,0,0,0,0,0,0,-1,1721,1310,0,0
504,-286,0,0,0,0,0,0,0,0,0,-1,1728,1310,0,0
511,-286,0,0,0,0,0,0,0,0,0,-1,1735,1310,0,0
518,-286,0,0,0,0,0,0,0,0,0,-1,1742,1310,0,0
525,-286,0,0,0,0,0,0,0,0,0,-1,1749,1310,0,0
532,-286,0,0,0,0,0,0,0,0,0,-1,1756,1310,0,0
539,-286,0,0,0,0,0,0,0,0,0,-1,1763,1310,0,0
546,-286,0,0,0,0,0,0,0,0,0,-1,1770,1310,0,0
553,-286,0,0,0,0,0,0,0,0,0,-1,1777,1310,0,0
560,-286,0,0,0,0,0,0,0,0,0,-1,1784,1310,0,0
567,-286,0,0,0,0,0,0,0,0,0,-1,1791,1310,0,0
574,-286,0,0,0,0,0,0,0,0,0,-1,1798,1310,0,0
581,-286,0,0,0,0,0,0,0,0,0,-1,1805,1310,0,0
588,-286,0,0,0,0,0,0,0,0,0,-1,1812,1310,0,0
595,-286,5.00879,0.768188,0.0212155,-0.0131036,-0.00506833,0.0219484,-0.0138365,-0.143599,0.0208366,0.0338574,1819,1310,5.00876,-0.768146
602,-286,4.96521,0.674927,0.0167856,-0.0172468,-0.00336572,0.0171153,-0.0175765,-0.0976373,0.0200299,0.0419446,1826,1310,4.96519,-0.674926
609,-286,4.29016,-0.742065,0,0,0,0,0,0,0,-1,1833,1310,4.29014,0.742051
616,-286,4.62158,-0.210449,0.00989392,-0.0189471,-0.00124075,0.0099472,-0.0190004,-0.0429147,0.0169831,0.0431024,1840,1310,4.62162,0.210506
623,-286,4.76257,0.180176,0.0076977,-0.0165906,-0.0015774,0.00779972,-0.0166926,-0.0645833,0.014448,0.0426652,1847,1310,4.76252,-0.180194
630,-286,4.56042,0.541626,0.00594864,-0.0136415,-0.00221855,0.00619675,-0.0138896,-0.111369,0.011877,0.043212,1854,1310,4.56048,-0.541606
637,-286,4.2948,0.691528,0.0045151,-0.0106874,-0.00292327,0.00505784,-0.0112302,-0.18357,0.00962631,0.0457903,1861,1310,4.29481,-0.691537
644,-286,4.5094,0.915039,0.0030067,-0.00811853,-0.00351799,0.0040258,-0.00913763,-0.281964,0.00778858,0.0418873,1868,1310,4.50942,-0.915063
651,-286,4.4353,0.970337,0.00203595,-0.00565048,-0.00374156,0.00355646,-0.00717099,-0.385998,0.0063096,0.0420763,1875,1310,4.43529,-0.970383
658,-286,4.30933,1.06079,0.00192758,-0.0032117,-0.00434199,0.00440332,-0.00568745,-0.51821,0.00584161,0.0460156,1882,1310,4.30927,-1.0608
665,-286,4.24341,1.07959,0.00102372,-0.000914546,-0.00433964,0.00450112,-0.00439195,-0.67554,0.00513454,0.0441323,1889,1310,4.24347,-1.07958
672,-286,4.20044,1.08313,0.000228337,0.000475313,-0.00426381,0.00461743,-0.00391378,-0.799875,0.00493107,0.0241632,1896,1310,4.20043,-1.08317
679,-286,4.1665,1.04114,9.7341e-05,0.00118216,-0.00419454,0.00486922,-0.00358972,-0.849698,0.00490236,0.0195044,1903,1310,4.16655,-1.04112
686,-286,4.16455,1.01685,-0.000417791,0.00152287,-0.003841,0.00451421,-0.00340913,-0.909122,0.00458935,0.0189304,1910,1310,4.16454,-1.01684
693,-286,4.1676,1.00122,-0.000913048,0.0016325,-0.00298942,0.00360882,-0.00288936,-0.986655,0.00375938,0.0146791,1917,1310,4.16759,-1.00117
700,-286,4.2002,0.973633,0.00176783,0.00207739,-0.00215905,0.0040872,-0.000241979,-0.821182,0.00280894,0.0106962,1924,1310,4.20016,-0.973604
707,-286,4.22156,0.980835,0.00547796,0.00273035,-0.00147138,0.00611719,0.00209112,-0.409839,0.00359017,0.0083615,1931,1310,4.22154,-0.980846
714,-286,4.19177,0.949097,0.00931489,0.00360113,-0.0011575,0.00954047,0.00337555,-0.192474,0.00558612,0.00833985,1938,1310,4.1918,-0.949105
721,-286,4.18811,0.900757,0.01481,0.00571542,-0.00150971,0.015054,0.00547135,-0.160277,0.00879882,0.0105561,1945,1310,4.18808,-0.900752
728,-286,4.21008,0.860962,0.0216941,0.00917477,-0.00170862,0.0219231,0.00894577,-0.133233,0.0127285,0.0131632,1952,1310,4.21007,-0.861018
735,-286,4.20459,0.831909,0.0304292,0.0131165,-0.00210352,0.0306811,0.0128646,-0.119191,0.0177905,0.0143469,1959,1310,4.20455,-0.831966
742,-286,4.21753,0.746582,0.0412843,0.0185444,-0.00257586,0.0415724,0.0182562,-0.111394,0.024061,0.0230584,1966,1310,4.21758,-0.746572
749,-286,4.36719,0.459717,0.0540888,0.0256059,-0.00300699,0.0544028,0.0252919,-0.104044,0.0314353,0.0381148,1973,1310,4.36717,-0.459731
756,-286,4.49707,0.107544,0.0685461,0.0346201,-0.00332397,0.0688687,0.0342975,-0.0967512,0.0397615,0.0455643,1980,1310,4.49706,-0.107507
763,-286,4.49475,-0.668213,0.0839612,0.04594,-0.00339842,0.0842625,0.0456387,-0.0884481,0.0487051,0.0483066,1987,1310,4.49473,0.668178
770,-286,4.71106,-1.37708,0.0990748,0.0599787,-0.00304701,0.0993108,0.0597427,-0.0773143,0.0577301,0.0476937,1994,1310,4.71101,1.37707
777,-286,0,0,0,0,0,0,0,0,0,-1,2001,1310,0,0
784,-286,0,0,0,0,0,0,0,0,0,-1,2008,1310,0,0
791,-286,0,0,0,0,0,0,0,0,0,-1,2015,1310,0,0
798,-286,0,0,0,0,0,0,0,0,0,-1,2022,1310,0,0
805,-286,0,0,0,0,0,0,0,0,0,-1,2029,1310,0,0
812,-286,0,0,0,0,0,0,0,0,0,-1,2036,1310,0,0
-700,-293,0,0,0,0,0,0,0,0,0,-1,524,1317,0,0
-693,-293,0,0,0,0,0,0,0,0,0,-1,531,1317,0,0
-686,-293,0,0,0,0,0,0,0,0,0,-1,538,1317,0,0
-679,-293,0,0,0,0,0,0,0,0,0,-1,545,1317,0,0
-672,-293,0,0,0,0,0,0,0,0,0,-1,552,1317,0,0
-665,-293,0,0,0,0,0,0,0,0,0,-1,559,1317,0,0
-658,-293,0,0,0,0,0,0,0,0,0,-1,566,1317,0,0
-651,-293,0.635742,-0.404785,-0.0401718,0.034087,-0.0311276,0.0454088,-0.0514936,-1.22195,0.0559834,0.043255,573,1317,0.635724,0.404735
-644,-293,0.563416,-0.398682,-0.0338287,0.0276243,-0.026474,0.0374564,-0.0436607,-1.2152,0.0468786,0.0438017,580,1317,0.563395,0.3987
-637,-293,0.348694,-0.465088,-0.0277332,0.0222572,-0.0212603,0.030076,-0.035552,-1.21838,0.0379343,0.0453254,587,1317,0.3487,0.465103
-630,-293,-0.478333,-0.790771,-0.0221461,0.0178457,-0.0162034,0.0235866,-0.027887,-1.23029,0.0297529,0.0447399,594,1317,-0.478321,0.79083
-623,-293,-0.477966,-0.374634,-0.0172373,0.0142058,-0.011645,0.0180488,-0.0210804,-1.25203,0.0226139,0.0422692,601,1317,-0.477942,0.374638
-616,-293,-0.515442,0.0118408,-0.0130544,0.0112109,-0.00777547,0.0134886,-0.0153321,-1.28583,0.016651,0.0395702,608,1317,-0.515438,-0.0118535
-609,-293,-0.378967,0.483398,-0.00960767,0.0085631,-0.00481803,0.00976157,-0.0108061,-1.327,0.0118799,0.0344666,615,1317,-0.378941,-0.483431
-602,-293,-0.243164,0.791382,-0.00682491,0.00606145,-0.00287216,0.00667262,-0.00743608,-1.36113,0.00814964,0.0225191,622,1317,-0.243137,-0.791434
-595,-293,-0.223145,0.805542,-0.00456023,0.00443826,-0.000899003,0.0045272,-0.00464916,-1.47219,0.00529813,0.0131845,629,1317,-0.223152,-0.805537
-588,-293,-0.195129,0.821899,-0.0025655,0.00352738,0.000818169,0.00363533,-0.00267345,1.43961,0.00365646,0.0144813,636,1317,-0.195157,-0.821912
-581,-293,-0.195313,0.873779,-0.00126315,0.0027732,0.00216643,0.00371584,-0.00220579,1.16039,0.00345571,0.0169008,643,1317,-0.195299,-0.873785
-574,-293,-0.209167,0.920776,-0.00124728,0.00350444,0.00243552,0.004531,-0.00227384,1.1719,0.00400017,0.015264,650,1317,-0.209196,-0.920775
-567,-293,-0.226379,0.956299,-0.00137063,0.00426601,0.000721459,0.00435689,-0.00146151,1.44549,0.00349515,0.0146842,657,1317,-0.226364,-0.956326
-560,-293,-0.210327,0.986206,-0.000975395,0.00422771,-0.000438186,0.00426435,-0.00101204,-1.48736,0.00323348,0.0143247,664,1317,-0.210344,-0.986255
-553,-293,-0.180725,1.00671,-0.00145765,0.00443594,-0.00118624,0.00466574,-0.00168745,-1.37944,0.00379999,0.00974556,671,1317,-0.180716,-1.00674
-546,-293,-0.203247,1.05713,-0.00186565,0.00483899,-0.00195891,0.00536937,-0.00239603,-1.30638,0.0045916,0.00906241,678,1317,-0.20326,-1.05715
-539,-293,-0.215942,1.1189,-0.00217554,0.00614263,-0.00291202,0.00706073,-0.00309364,-1.26538,0.00600991,0.0156329,685,1317,-0.215925,-1.11888
-532,-293,-0.289795,1.13147,-0.00235195,0.00706585,-0.003546,0.00825168,-0.00353778,-1.24807,0.00698566,0.0329506,692,1317,-0.28982,-1.13143
-525,-293,-0.338745,1.16577,-0.00269327,0.00783932,-0.00413407,0.00926813,-0.00412208,-1.23803,0.00791886,0.0412995,699,1317,-0.338768,-1.16573
-518,-293,-0.0394287,0.651611,-0.00299578,0.00850639,-0.00444952,0.0100267,-0.00451609,-1.24155,0.00859486,0.0401929,706,1317,-0.0394135,-0.651558
-511,-293,0.0897827,0.0666504,-0.00355172,0.00940693,-0.00417965,0.0106381,-0.00478285,-1.28434,0.00911468,0.0432762,713,1317,0.0898053,-0.0666771
-504,-293,0.078064,0.197388,-0.0045235,0.0106106,-0.00315721,0.0112428,-0.00515573,-1.37316,0.00968268,0.043489,720,1317,0.0780403,-0.197338
-497,-293,0.0194702,0.324341,-0.00616865,0.013246,-0.00115779,0.0133148,-0.00623745,-1.51144,0.0115324,0.0427763,727,1317,0.0194529,-0.324337
-490,-293,-0.0134277,0.361816,-0.00877068,0.0172638,0.00201284,0.0174185,-0.00892538,1.49409,0.0154709,0.0431162,734,1317,-0.0134132,-0.361834
-483,-293,-0.175598,0.411377,0,0,0,0,0,0,0,-1,741,1317,-0.175588,-0.41133
-476,-293,-0.635071,0.220215,0,0,0,0,0,0,0,-1,748,1317,-0.635047,-0.220262
-469,-293,0,0,0,0,0,0,0,0,0,-1,755,1317,0,0
-462,-293,0,0,0,0,0,0,0,0,0,-1,762,1317,0,0
-455,-293,0,0,0,0,0,0,0,0,0,-1,769,1317,0,0
-448,-293,0,0,0,0,0,0,0,0,0,-1,776,1317,0,0
-441,-293,0,0,0,0,0,0,0,0,0,-1,783,1317,0,0
-434,-293,0,0,0,0,0,0,0,0,0,-1,790,1317,0,0
-427,-293,0,0,0,0,0,0,0,0,0,-1,797,1317,0,0
-420,-293,0,0,0,0,0,0,0,0,0,-1,804,1317,0,0
-413,-293,0,0,0,0,0,0,0,0,0,-1,811,1317,0,0
-406,-293,0,0,0,0,0,0,0,0,0,-1,818,1317,0,0
-399,-293,0,0,0,0,0,0,0,0,0,-1,825,1317,0,0
-392,-293,0,0,0,0,0,0,0,0,0,-1,832,1317,0,0
-385,-293,0,0,0,0,0,0,0,0,0,-1,839,1317,0,0
-378,-293,0,0,0,0,0,0,0,0,0,-1,846,1317,0,0
-371,-293,0,0,0,0,0,0,0,0,0,-1,853,1317,0,0
-364,-293,0,0,0,0,0,0,0,0,0,-1,860,1317,0,0
-357,-293,0,0,0,0,0,0,0,0,0,-1,867,1317,0,0
-350,-293,0,0,0,0,0,0,0,0,0,-1,874,1317,0,0
-343,-293,0,0,0,0,0,0,0,0,0,-1,881,1317,0,0
-336,-293,0,0,0,0,0,0,0,0,0,-1,888,1317,0,0
-329,-293,0,0,0,0,0,0,0,0,0,-1,895,1317,0,0
-322,-293,0,0,0,0,0,0,0,0,0,-1,902,1317,0,0
-315,-293,0,0,0,0,0,0,0,0,0,-1,909,1317,0,0
-308,-293,0,0,0,0,0,0,0,0,0,-1,916,1317,0,0
-301,-293,0,0,0,0,0,0,0,0,0,-1,923,1317,0,0
-294,-293,0,0,0,0,0,0,0,0,0,-1,930,1317,0,0
-287,-293,0,0,0,0,0,0,0,0,0,-1,937,1317,0,0
-280,-293,0,0,0,0,0,0,0,0,0,-1,944,1317,0,0
-273,-293,0,0,0,0,0,0,0,0,0,-1,951,1317,0,0
-266,-293,0,0,0,0,0,0,0,0,0,-1,958,1317,0,0
-259,-293,0,0,0,0,0,0,0,0,0,-1,965,1317,0,0
-252,-293,0,0,0,0,0,0,0,0,0,-1,972,1317,0,0
-245,-293,0,0,0,0,0,0,0,0,0,-1,979,1317,0,0
-238,-293,0,0,0,0,0,0,0,0,0,-1,986,1317,0,0
-231,-293,0,0,0,0,0,0,0,0,0,-1,993,1317,0,0
-224,-293,0,0,0,0,0,0,0,0,0,-1,1000,1317,0,0
-217,-293,0,0,0,0,0,0,0,0,0,-1,1007,1317,0,0
-210,-293,0,0,0,0,0,0,0,0,0,-1,1014,1317,0,0
-203,-293,0,0,0,0,0,0,0,0,0,-1,1021,1317,0,0
-196,-293,0,0,0,0,0,0,0,0,0,-1,1028,1317,0,0
-189,-293,0,0,0,0,0,0,0,0,0,-1,1035,1317,0,0
-182,-293,0,0,0,0,0,0,0,0,0,-1,1042,1317,0,0
-175,-293,0,0,0,0,0,0,0,0,0,-1,1049,1317,0,0
-168,-293,0,0,0,0,0,0,0,0,0,-1,1056,1317,0,0
-161,-293,0,0,0,0,0,0,0,0,0,-1,1063,1317,0,0
-154,-293,0,0,0,0,0,0,0,0,0,-1,1070,1317,0,0
-147,-293,0,0,0,0,0,0,0,0,0,-1,1077,1317,0,0
-140,-293,0,0,0,0,0,0,0,0,0,-1,1084,1317,0,0
-133,-293,0,0,0,0,0,0,0,0,0,-1,1091,1317,0,0
-126,-293,0,0,0,0,0,0,0,0,0,-1,1098,1317,0,0
-119,-293,0,0,0,0,0,0,0,0,0,-1,1105,1317,0,0
-112,-293,0,0,0,0,0,0,0,0,0,-1,1112,1317,0,0
-105,-293,0,0,0,0,0,0,0,0,0,-1,1119,1317,0,0
-98,-293,0,0,0,0,0,0,0,0,0,-1,1126,1317,0,0
-91,-293,0,0,0,0,0,0,0,0,0,-1,1133,1317,0,0
-84,-293,0,0,0,0,0,0,0,0,0,-1,1140,1317,0,0
-77,-293,0,0,0,0,0,0,0,0,0,-1,1147,1317,0,0
-70,-293,0,0,0,0,0,0,0,0,0,-1,1154,1317,0,0
-63,-293,0,0,0,0,0,0,0,0,0,-1,1161,1317,0,0
-56,-293,0,0,0,0,0,0,0,0,0,-1,1168,1317,0,0
-49,-293,0,0,0,0,0,0,0,0,0,-1,1175,1317,0,0
-42,-293,0,0,0,0,0,0,0,0,0,-1,1182,1317,0,0
-35,-293,0,0,0,0,0,0,0,0,0,-1,1189,1317,0,0
-28,-293,0,0,0,0,0,0,0,0,0,-1,1196,1317,0,0
-21,-293,0,0,0,0,0,0,0,0,0,-1,1203,1317,0,0
-14,-293,0,0,0,0,0,0,0,0,0,-1,1210,1317,0,0
-7,-293,0,0,0,0,0,0,0,0,0,-1,1217,1317,0,0
0,-293,0,0,0,0,0,0,0,0,0,-1,1224,1317,0,0
7,-293,0,0,0,0,0,0,0,0,0,-1,1231,1317,0,0
14,-293,0,0,0,0,0,0,0,0,0,-1,1238,1317,0,0
21,-293,0,0,0,0,0,0,0,0,0,-1,1245,1317,0,0
28,-293,0,0,0,0,0,0,0,0,0,-1,1252,1317,0,0
35,-293,0,0,0,0,0,0,0,0,0,-1,1259,1317,0,0
42,-293,0,0,0,0,0,0,0,0,0,-1,1266,1317,0,0
49,-293,0,0,0,0,0,0,0,0,0,-1,1273,1317,0,0
56,-293,0,0,0,0,0,0,0,0,0,-1,1280,1317,0,0
63,-293,0,0,0,0,0,0,0,0,0,-1,1287,1317,0,0
70,-293,0,0,0,0,0,0,0,0,0,-1,1294,1317,0,0
77,-293,0,0,0,0,0,0,0,0,0,-1,1301,1317,0,0
84,-293,0,0,0,0,0,0,0,0,0,-1,1308,1317,0,0
91,-293,0,0,0,0,0,0,0,0,0,-1,1315,1317,0,0
98,-293,0,0,0,0,0,0,0,0,0,-1,1322,1317,0,0
105,-293,0,0,0,0,0,0,0,0,0,-1,1329,1317,0,0
112,-293,0,0,0,0,0,0,0,0,0,-1,1336,1317,0,0
119,-293,0,0,0,0,0,0,0,0,0,-1,1343,1317,0,0
126,-293,0,0,0,0,0,0,0,0,0,-1,1350,1317,0,0
133,-293,0,0,0,0,0,0,0,0,0,-1,1357,1317,0,0
140,-293,0,0,0,0,0,0,0,0,0,-1,1364,1317,0,0
147,-293,0,0,0,0,0,0,0,0,0,-1,1371,1317,0,0
154,-293,0,0,0,0,0,0,0,0,0,-1,1378,1317,0,0
161,-293,0,0,0,0,0,0,0,0,0,-1,1385,1317,0,0
168,-293,0,0,0,0,0,0,0,0,0,-1,1392,1317,0,0
175,-293,0,0,0,0,0,0,0,0,0,-1,1399,1317,0,0
182,-293,0,0,0,0,0,0,0,0,0,-1,1406,1317,0,0
189,-293,0,0,0,0,0,0,0,0,0,-1,1413,1317,0,0
196,-293,0,0,0,0,0,0,0,0,0,-1,1420,1317,0,0
203,-293,0,0,0,0,0,0,0,0,0,-1,1427,1317,0,0
210,-293,0,0,0,0,0,0,0,0,0,-1,1434,1317,0,0
217,-293,0,0,0,0,0,0,0,0,0,-1,1441,1317,0,0
224,-293,0,0,0,0,0,0,0,0,0,-1,1448,1317,0,0
231,-293,0,0,0,0,0,0,0,0,0,-1,1455,1317,0,0
238,-293,0,0,0,0,0,0,0,0,0,-1,1462,1317,0,0
245,-293,0,0,0,0,0,0,0,0,0,-1,1469,1317,0,0
252,-293,0,0,0,0,0,0,0,0,0,-1,1476,1317,0,0
259,-293,0,0,0,0,0,0,0,0,0,-1,1483,1317,0,0
266,-293,0,0,0,0,0,0,0,0,0,-1,1490,1317,0,0
273,-293,0,0,0,0,0,0,0,0,0,-1,1497,1317,0,0
280,-293,0,0,0,0,0,0,0,0,0,-1,1504,1317,0,0
287,-293,0,0,0,0,0,0,0,0,0,-1,1511,1317,0,0
294,-293,0,0,0,0,0,0,0,0,0,-1,1518,1317,0,0
301,-293,0,0,0,0,0,0,0,0,0,-1,1525,1317,0,0
308,-293,0,0,0,0,0,0,0,0,0,-1,1532,1317,0,0
315,-293,0,0,0,0,0,0,0,0,0,-1,1539,1317,0,0
322,-293,0,0,0,0,0,0,0,0,0,-1,1546,1317,0,0
329,-293,0,0,0,0,0,0,0,0,0,-1,1553,1317,0,0
336,-293,0,0,0,0,0,0,0,0,0,-1,1560,1317,0,0
343,-293,0,0,0,0,0,0,0,0,0,-1,1567,1317,0,0
350,-293,0,0,0,0,0,0,0,0,0,-1,1574,1317,0,0
357,-293,0,0,0,0,0,0,0,0,0,-1,1581,1317,0,0
364,-293,0,0,0,0,0,0,0,0,0,-1,1588,1317,0,0
371,-293,0,0,0,0,0,0,0,0,0,-1,1595,1317,0,0
378,-293,0,0,0,0,0,0,0,0,0,-1,1602,1317,0,0
385,-293,0,0,0,0,0,0,0,0,0,-1,1609,1317,0,0
392,-293,0,0,0,0,0,0,0,0,0,-1,1616,1317,0,0
399,-293,0,0,0,0,0,0,0,0,0,-1,1623,1317,0,0
406,-293,0,0,0,0,0,0,0,0,0,-1,1630,1317,0,0
413,-293,0,0,0,0,0,0,0,0,0,-1,1637,1317,0,0
420,-293,0,0,0,0,0,0,0,0,0,-1,1644,1317,0,0
427,-293,0,0,0,0,0,0,0,0,0,-1,1651,1317,0,0
434,-293,0,0,0,0,0,0,0,0,0,-1,1658,1317,0,0
441,-293,0,0,0,0,0,0,0,0,0,-1,1665,1317,0,0
448,-293,0,0,0,0,0,0,0,0,0,-1,1672,1317,0,0
455,-293,0,0,0,0,0,0,0,0,0,-1,1679,1317,0,0
462,-293,0,0,0,0,0,0,0,0,0,-1,1686,1317,0,0
469,-293,0,0,0,0,0,0,0,0,0,-1,1693,1317,0,0
476,-293,0,0,0,0,0,0,0,0,0,-1,1700,1317,0,0
483,-293,0,0,0,0,0,0,0,0,0,-1,1707,1317,0,0
490,-293,0,0,0,0,0,0,0,0,0,-1,1714,1317,0,0
497,-293,0,0,0,0,0,0,0,0,0,-1,1721,1317,0,0
504,-293,0,0,0,0,0,0,0,0,0,-1,1728,1317,0,0
511,-293,0,0,0,0,0,0,0,0,0,-1,1735,1317,0,0
518,-293,0,0,0,0,0,0,0,0,0,-1,1742,1317,0,0
525,-293,0,0,0,0,0,0,0,0,0,-1,1749,1317,0,0
532,-293,0,0,0,0,0,0,0,0,0,-1,1756,1317,0,0
539,-293,0,0,0,0,0,0,0,0,0,-1,1763,1317,0,0
546,-293,0,0,0,0,0,0,0,0,0,-1,1770,1317,0,0
553,-293,0,0,0,0,0,0,0,0,0,-1,1777,1317,0,0
560,-293,0,0,0,0,0,0,0,0,0,-1,1784,1317,0,0
567,-293,0,0,0,0,0,0,0,0,0,-1,1791,1317,0,0
574,-293,0,0,0,0,0,0,0,0,0,-1,1798,1317,0,0
581,-293,0,0,0,0,0,0,0,0,0,-1,1805,1317,0,0
588,-293,0,0,0,0,0,0,0,0,0,-1,1812,1317,0,0
595,-293,4.97095,0.808594,0.0289621,-0.0108911,-0.00726021,0.0302435,-0.0121725,-0.1747,0.0252189,0.0412409,1819,1317,4.97091,-0.808636
602,-293,4.97925,0.664429,0.0204766,-0.015077,-0.00577098,0.0213899,-0.0159903,-0.156951,0.0216564,0.0457423,1826,1317,4.9793,-0.664444
609,-293,4.57642,-0.0616455,0.0137816,-0.0176946,-0.00421803,0.014337,-0.0182501,-0.13093,0.0188593,0.0495209,1833,1317,4.57644,0.0617045
616,-293,4.65894,0.222656,0.00922415,-0.0172792,-0.00353846,0.00968844,-0.0177435,-0.130466,0.0160638,0.0462864,1840,1317,4.65896,-0.222715
623,-293,4.66309,0.537476,0.00602972,-0.0155114,-0.00337041,0.00654475,-0.0160265,-0.151637,0.0134093,0.0435119,1847,1317,4.66303,-0.537452
630,-293,4.75244,1.00146,0.00378767,-0.0130927,-0.00345778,0.0044685,-0.0137735,-0.194412,0.0109793,0.0446878,1854,1317,4.75245,-1.00147
637,-293,4.7063,1.24902,0.00211978,-0.010637,-0.00364747,0.00308904,-0.0116062,-0.259732,0.00894672,0.0481496,1861,1317,4.7063,-1.24907
644,-293,4.57751,1.09387,0.000469883,-0.00842658,-0.00381123,0.00187932,-0.00983602,-0.354213,0.00726526,0.0480765,1868,1317,4.57757,-1.09391
651,-293,4.34607,1.20471,-0.000361589,-0.00612032,-0.00360254,0.00137088,-0.00785279,-0.448253,0.00574692,0.0416964,1875,1317,4.34606,-1.20473
658,-293,4.29541,1.07117,-6.66067e-05,-0.00388488,-0.00402771,0.00248153,-0.00643301,-0.564082,0.00531268,0.0401215,1882,1317,4.2954,-1.07112
665,-293,4.21741,1.10754,-0.00065792,-0.00153805,-0.00375519,0.0026829,-0.00487887,-0.72707,0.00442673,0.031862,1889,1317,4.21739,-1.10754
672,-293,4.16846,1.11865,-0.00108202,-0.000168576,-0.00355222,0.00295616,-0.00420676,-0.849335,0.00415647,0.0160667,1896,1317,4.16848,-1.11863
679,-293,4.1731,1.0603,-0.000806071,0.000583204,-0.00343956,0.00339757,-0.00362044,-0.885036,0.00405253,0.011923,1903,1317,4.17308,-1.06027
686,-293,4.15625,1.02917,-0.00110137,0.000909599,-0.0031608,0.00322098,-0.00341276,-0.939393,0.00383053,0.0129286,1910,1317,4.15623,-1.02916
693,-293,4.17676,1.00903,-0.0013806,0.00106925,-0.00252203,0.00264808,-0.00295944,-1.01147,0.00323917,0.0105429,1917,1317,4.17681,-1.00908
700,-293,4.18152,0.968628,0.00194221,0.00173414,-0.00172029,0.00356161,0.000114739,-0.755197,0.0023371,0.0101271,1924,1317,4.18152,-0.968664
707,-293,4.19226,0.967773,0.00639943,0.00265289,-0.00105013,0.00667369,0.00237863,-0.255468,0.00390566,0.0103115,1931,1317,4.19227,-0.96774
714,-293,4.17395,0.946655,0.010945,0.00384962,-0.000759256,0.0110253,0.00376928,-0.105417,0.0064707,0.00729063,1938,1317,4.174,-0.946698
721,-293,4.17224,0.898193,0.0172689,0.00613097,-0.000942197,0.017348,0.00605183,-0.0838001,0.0101673,0.00865644,1945,1317,4.17226,-0.89825
728,-293,4.16565,0.849487,0.0254103,0.00995838,-0.000865104,0.0254586,0.00991009,-0.0557547,0.0148182,0.0112962,1952,1317,4.16569,-0.849489
735,-293,4.16516,0.822632,0.0359136,0.0143476,-0.00079147,0.0359427,0.0143186,-0.0366341,0.0208939,0.0139705,1959,1317,4.16511,-0.822598
742,-293,4.15967,0.749023,0.0490666,0.0203343,-0.000581921,0.0490783,0.0203225,-0.0202421,0.0284745,0.0227785,1966,1317,4.15964,-0.74903
749,-293,4.37305,0.558105,0.0647542,0.0281743,-0.000119984,0.0647546,0.0281739,-0.00328001,0.037491,0.0352682,1973,1317,4.373,-0.55806
756,-293,4.49146,0.754639,0,0,0,0,0,0,0,-1,1980,1317,4.49144,-0.754691
763,-293,4.32983,-0.525513,0,0,0,0,0,0,0,-1,1987,1317,4.32989,0.525511
770,-293,4.46484,-1.27661,0,0,0,0,0,0,0,-1,1994,1317,4.46484,1.27659
777,-293,0,0,0,0,0,0,0,0,0,-1,2001,1317,0,0
784,-293,0,0,0,0,0,0,0,0,0,-1,2008,1317,0,0
791,-293,0,0,0,0,0,0,0,0,0,-1,2015,1317,0,0
798,-293,0,0,0,0,0,0,0,0,0,-1,2022,1317,0,0
805,-293,0,0,0,0,0,0,0,0,0,-1,2029,1317,0,0
812,-293,0,0,0,0,0,0,0,0,0,-1,2036,1317,0,0
-700,-300,0,0,0,0,0,0,0,0,0,-1,524,1324,0,0
-693,-300,0,0,0,0,0,0,0,0,0,-1,531,1324,0,0
-686,-300,0,0,0,0,0,0,0,0,0,-1,538,1324,0,0
-679,-300,0,0,0,0,0,0,0,0,0,-1,545,1324,0,0
-672,-300,0,0,0,0,0,0,0,0,0,-1,552,1324,0,0
-665,-300,0,0,0,0,0,0,0,0,0,-1,559,1324,0,0
-658,-300,0,0,0,0,0,0,0,0,0,-1,566,1324,0,0
-651,-300,1.67993,-0.362549,-0.0363717,0.0245493,-0.0447285,0.0482042,-0.0600266,-1.08433,0.0626113,0.0413068,573,1324,1.67993,0.362521
-644,-300,1.33167,-0.271973,-0.0304026,0.0197594,-0.0370469,0.0394169,-0.05006,-1.08296,0.0517812,0.0449459,580,1324,1.33165,0.271989
-637,-300,1.03302,-0.220825,-0.0247705,0.0160414,-0.0292344,0.0312873,-0.0400164,-1.09009,0.0412699,0.0467784,587,1324,1.03303,0.220771
-630,-300,0.732239,-0.151733,-0.0196719,0.0131298,-0.022056,0.0242145,-0.0307566,-1.10509,0.0318124,0.0483109,594,1324,0.732237,0.151739
-623,-300,0.40387,-0.108154,-0.0152543,0.0107788,-0.0158061,0.0182382,-0.0227137,-1.12986,0.0236906,0.0442637,601,1324,0.403889,0.10819
-616,-300,-0.0130005,0.209229,-0.0115319,0.00884616,-0.0106175,0.0133727,-0.0160584,-1.1678,0.0170156,0.0403509,608,1324,-0.0129958,-0.209261
-609,-300,-0.250854,0.703979,-0.00848437,0.00713461,-0.00659386,0.00954604,-0.0108958,-1.2202,0.0118107,0.0367267,615,1324,-0.250879,-0.703927
-602,-300,-0.208008,0.795898,-0.00604819,0.00535998,-0.00386186,0.00654434,-0.00723254,-1.27322,0.00795739,0.0266489,622,1324,-0.208031,-0.795859
-595,-300,-0.191467,0.797485,-0.00401952,0.00414532,-0.00140875,0.00438155,-0.00425575,-1.40465,0.00498692,0.0157289,629,1324,-0.191442,-0.797463
-588,-300,-0.171936,0.826172,-0.00221695,0.00360276,0.000539825,0.0036524,-0.0022666,1.47908,0.00344842,0.0192673,636,1324,-0.171961,-0.826197
-581,-300,-0.167847,0.889648,-0.00113539,0.00295732,0.00209209,0.00383747,-0.00201553,1.17257,0.00343337,0.0184617,643,1324,-0.167842,-0.88962
-574,-300,-0.175598,0.932495,-0.00123604,0.00342742,0.00253314,0.00453862,-0.00234724,1.15741,0.0040421,0.014718,650,1324,-0.175585,-0.932453
-567,-300,-0.189087,0.970215,-0.00134077,0.0041516,0.000954046,0.00431261,-0.00150178,1.40361,0.00348524,0.0152035,657,1324,-0.189059,-0.970176
-560,-300,-0.172974,0.997437,-0.00114397,0.00399638,-6.92275e-05,0.00399731,-0.0011449,-1.55733,0.00311739,0.0132658,664,1324,-0.172945,-0.997413
-553,-300,-0.145386,1.01318,-0.0016851,0.00399919,-0.00076937,0.00410148,-0.00178739,-1.43861,0.00348635,0.00897073,671,1324,-0.145412,-1.01315
-546,-300,-0.15271,1.04651,-0.0020975,0.00428633,-0.00154191,0.00463924,-0.00245041,-1.34579,0.00415773,0.00763525,678,1324,-0.15272,-1.04656
-539,-300,-0.161499,1.08911,-0.0024023,0.00555441,-0.00235921,0.00620133,-0.00304923,-1.30316,0.00544318,0.0092808,685,1324,-0.161484,-1.08915
-532,-300,-0.232788,1.10229,-0.00266435,0.00658845,-0.0027057,0.00732156,-0.00339747,-1.3062,0.00632536,0.0200991,692,1324,-0.232801,-1.10225
-525,-300,-0.333252,1.08862,-0.00322941,0.00744891,-0.00288853,0.00818019,-0.00396069,-1.32284,0.00714925,0.0391959,699,1324,-0.33327,-1.08857
-518,-300,-0.433594,1.06665,0,0,0,0,0,0,0,-1,706,1324,-0.433579,-1.06664
-511,-300,-0.0222168,0.411377,-0.00447923,0.00964888,-0.00211496,0.00995869,-0.00478904,-1.42534,0.00868723,0.0446694,713,1324,-0.0222133,-0.41137
-504,-300,-0.0166016,0.525513,-0.00584448,0.0113988,-0.000676311,0.0114253,-0.00587097,-1.53165,0.0101562,0.0452069,720,1324,-0.0165815,-0.525556
-497,-300,0.039856,0.581421,-0.00807111,0.014887,0.00167572,0.0150087,-0.00819278,1.49832,0.0135867,0.045088,727,1324,0.0398606,-0.581395
-490,-300,0.0127563,0.613647,-0.0113789,0.0196572,0.00510211,0.0204744,-0.0121962,1.41197,0.0190631,0.0433645,734,1324,0.0127278,-0.613699
-483,-300,0.000427246,0.708252,0,0,0,0,0,0,0,-1,741,1324,0.000447934,-0.708198
-476,-300,-0.596252,0.157959,0,0,0,0,0,0,0,-1,748,1324,-0.596269,-0.157916
-469,-300,0,0,0,0,0,0,0,0,0,-1,755,1324,0,0
-462,-300,0,0,0,0,0,0,0,0,0,-1,762,1324,0,0
-455,-300,0,0,0,0,0,0,0,0,0,-1,769,1324,0,0
-448,-300,0,0,0,0,0,0,0,0,0,-1,776,1324,0,0
-441,-300,0,0,0,0,0,0,0,0,0,-1,783,1324,0,0
-434,-300,0,0,0,0,0,0,0,0,0,-1,790,1324,0,0
-427,-300,0,0,0,0,0,0,0,0,0,-1,797,1324,0,0
-420,-300,0,0,0,0,0,0,0,0,0,-1,804,1324,0,0
-413,-300,0,0,0,0,0,0,0,0,0,-1,811,1324,0,0
-406,-300,0,0,0,0,0,0,0,0,0,-1,818,1324,0,0
-399,-300,0,0,0,0,0,0,0,0,0,-1,825,1324,0,0
-392,-300,0,0,0,0,0,0,0,0,0,-1,832,1324,0,0
-385,-300,0,0,0,0,0,0,0,0,0,-1,839,1324,0,0
-378,-300,0,0,0,0,0,0,0,0,0,-1,846,1324,0,0
-371,-300,0,0,0,0,0,0,0,0,0,-1,853,1324,0,0
-364,-300,0,0,0,0,0,0,0,0,0,-1,860,1324,0,0
-357,-300,0,0,0,0,0,0,0,0,0,-1,867,1324,0,0
-350,-300,0,0,0,0,0,0,0,0,0,-1,874,1324,0,0
-343,-300,0,0,0,0,0,0,0,0,0,-1,881,1324,0,0
-336,-300,0,0,0,0,0,0,0,0,0,-1,888,1324,0,0
-329,-300,0,0,0,0,0,0,0,0,0,-1,895,1324,0,0
-322,-300,0,0,0,0,0,0,0,0,0,-1,902,1324,0,0
-315,-300,0,0,0,0,0,0,0,0,0,-1,909,1324,0,0
-308,-300,0,0,0,0,0,0,0,0,0,-1,916,1324,0,0
-301,-300,0,0,0,0,0,0,0,0,0,-1,923,1324,0,0
-294,-300,0,0,0,0,0,0,0,0,0,-1,930,1324,0,0
-287,-300,0,0,0,0,0,0,0,0,0,-1,937,1324,0,0
-280,-300,0,0,0,0,0,0,0,0,0,-1,944,1324,0,0
-273,-300,0,0,0,0,0,0,0,0,0,-1,951,1324,0,0
-266,-300,0,0,0,0,0,0,0,0,0,-1,958,1324,0,0
-259,-300,0,0,0,0,0,0,0,0,0,-1,965,1324,0,0
-252,-300,0,0,0,0,0,0,0,0,0,-1,972,1324,0,0
-245,-300,0,0,0,0,0,0,0,0,0,-1,979,1324,0,0
-238,-300,0,0,0,0,0,0,0,0,0,-1,986,1324,0,0
-231,-300,0,0,0,0,0,0,0,0,0,-1,993,1324,0,0
-224,-300,0,0,0,0,0,0,0,0,0,-1,1000,1324,0,0
-217,-300,0,0,0,0,0,0,0,0,0,-1,1007,1324,0,0
-210,-300,0,0,0,0,0,0,0,0,0,-1,1014,1324,0,0
-203,-300,0,0,0,0,0,0,0,0,0,-1,1021,1324,0,0
-196,-300,0,0,0,0,0,0,0,0,0,-1,1028,1324,0,0
-189,-300,0,0,0,0,0,0,0,0,0,-1,1035,1324,0,0
-182,-300,0,0,0,0,0,0,0,0,0,-1,1042,1324,0,0
-175,-300,0,0,0,0,0,0,0,0,0,-1,1049,1324,0,0
-168,-300,0,0,0,0,0,0,0,0,0,-1,1056,1324,0,0
-161,-300,0,0,0,0,0,0,0,0,0,-1,1063,1324,0,0
-154,-300,0,0,0,0,0,0,0,0,0,-1,1070,1324,0,0
-147,-300,0,0,0,0,0,0,0,0,0,-1,1077,1324,0,0
-140,-300,0,0,0,0,0,0,0,0,0,-1,1084,1324,0,0
-133,-300,0,0,0,0,0,0,0,0,0,-1,1091,1324,0,0
-126,-300,0,0,0,0,0,0,0,0,0,-1,1098,1324,0,0
-119,-300,0,0,0,0,0,0,0,0,0,-1,1105,1324,0,0
-112,-300,0,0,0,0,0,0,0,0,0,-1,1112,1324,0,0
-105,-300,0,0,0,0,0,0,0,0,0,-1,1119,1324,0,0
-98,-300,0,0,0,0,0,0,0,0,0,-1,1126,1324,0,0
-91,-300,0,0,0,0,0,0,0,0,0,-1,1133,1324,0,0
-84,-300,0,0,0,0,0,0,0,0,0,-1,1140,1324,0,0
-77,-300,0,0,0,0,0,0,0,0,0,-1,1147,1324,0,0
-70,-300,0,0,0,0,0,0,0,0,0,-1,1154,1324,0,0
-63,-300,0,0,0,0,0,0,0,0,0,-1,1161,1324,0,0
-56,-300,0,0,0,0,0,0,0,0,0,-1,1168,1324,0,0
-49,-300,0,0,0,0,0,0,0,0,0,-1,1175,1324,0,0
-42,-300,0,0,0,0,0,0,0,0,0,-1,1182,1324,0,0
-35,-300,0,0,0,0,0,0,0,0,0,-1,1189,1324,0,0
-28,-300,0,0,0,0,0,0,0,0,0,-1,1196,1324,0,0
-21,-300,0,0,0,0,0,0,0,0,0,-1,1203,1324,0,0
-14,-300,0,0,0,0,0,0,0,0,0,-1,1210,1324,0,0
-7,-300,0,0,0,0,0,0,0,0,0,-1,1217,1324,0,0
0,-300,0,0,0,0,0,0,0,0,0,-1,1224,1324,0,0
7,-300,0,0,0,0,0,0,0,0,0,-1,1231,1324,0,0
14,-300,0,0,0,0,0,0,0,0,0,-1,1238,1324,0,0
21,-300,0,0,0,0,0,0,0,0,0,-1,1245,1324,0,0
28,-300,0,0,0,0,0,0,0,0,0,-1,1252,1324,0,0
35,-300,0,0,0,0,0,0,0,0,0,-1,1259,1324,0,0
42,-300,0,0,0,0,0,0,0,0,0,-1,1266,1324,0,0
49,-300,0,0,0,0,0,0,0,0,0,-1,1273,1324,0,0
56,-300,0,0,0,0,0,0,0,0,0,-1,1280,1324,0,0
63,-300,0,0,0,0,0,0,0,0,0,-1,1287,1324,0,0
70,-300,0,0,0,0,0,0,0,0,0,-1,1294,1324,0,0
77,-300,0,0,0,0,0,0,0,0,0,-1,1301,1324,0,0
84,-300,0,0,0,0,0,0,0,0,0,-1,1308,1324,0,0
91,-300,0,0,0,0,0,0,0,0,0,-1,1315,1324,0,0
98,-300,0,0,0,0,0,0,0,0,0,-1,1322,1324,0,0
105,-300,0,0,0,0,0,0,0,0,0,-1,1329,1324,0,0
112,-300,0,0,0,0,0,0,0,0,0,-1,1336,1324,0,0
119,-300,0,0,0,0,0,0,0,0,0,-1,1343,1324,0,0
126,-300,0,0,0,0,0,0,0,0,0,-1,1350,1324,0,0
133,-300,0,0,0,0,0,0,0,0,0,-1,1357,1324,0,0
140,-300,0,0,0,0,0,0,0,0,0,-1,1364,1324,0,0
147,-300,0,0,0,0,0,0,0,0,0,-1,1371,1324,0,0
154,-300,0,0,0,0,0,0,0,0,0,-1,1378,1324,0,0
161,-300,0,0,0,0,0,0,0,0,0,-1,1385,1324,0,0
168,-300,0,0,0,0,0,0,0,0,0,-1,1392,1324,0,0
175,-300,0,0,0,0,0,0,0,0,0,-1,1399,1324,0,0
182,-300,0,0,0,0,0,0,0,0,0,-1,1406,1324,0,0
189,-300,0,0,0,0,0,0,0,0,0,-1,1413,1324,0,0
196,-300,0,0,0,0,0,0,0,0,0,-1,1420,1324,0,0
203,-300,0,0,0,0,0,0,0,0,0,-1,1427,1324,0,0
210,-300,0,0,0,0,0,0,0,0,0,-1,1434,1324,0,0
217,-300,0,0,0,0,0,0,0,0,0,-1,1441,1324,0,0
224,-300,0,0,0,0,0,0,0,0,0,-1,1448,1324,0,0
231,-300,0,0,0,0,0,0,0,0,0,-1,1455,1324,0,0
238,-300,0,0,0,0,0,0,0,0,0,-1,1462,1324,0,0
245,-300,0,0,0,0,0,0,0,0,0,-1,1469,1324,0,0
252,-300,0,0,0,0,0,0,0,0,0,-1,1476,1324,0,0
259,-300,0,0,0,0,0,0,0,0,0,-1,1483,1324,0,0
266,-300,0,0,0,0,0,0,0,0,0,-1,1490,1324,0,0
273,-300,0,0,0,0,0,0,0,0,0,-1,1497,1324,0,0
280,-300,0,0,0,0,0,0,0,0,0,-1,1504,1324,0,0
287,-300,0,0,0,0,0,0,0,0,0,-1,1511,1324,0,0
294,-300,0,0,0,0,0,0,0,0,0,-1,1518,1324,0,0
301,-300,0,0,0,0,0,0,0,0,0,-1,1525,1324,0,0
308,-300,0,0,0,0,0,0,0,0,0,-1,1532,1324,0,0
315,-300,0,0,0,0,0,0,0,0,0,-1,1539,1324,0,0
322,-300,0,0,0,0,0,0,0,0,0,-1,1546,1324,0,0
329,-300,0,0,0,0,0,0,0,0,0,-1,1553,1324,0,0
336,-300,0,0,0,0,0,0,0,0,0,-1,1560,1324,0,0
343,-300,0,0,0,0,0,0,0,0,0,-1,1567,1324,0,0
350,-300,0,0,0,0,0,0,0,0,0,-1,1574,1324,0,0
357,-300,0,0,0,0,0,0,0,0,0,-1,1581,1324,0,0
364,-300,0,0,0,0,0,0,0,0,0,-1,1588,1324,0,0
371,-300,0,0,0,0,0,0,0,0,0,-1,1595,1324,0,0
378,-300,0,0,0,0,0,0,0,0,0,-1,1602,1324,0,0
385,-300,0,0,0,0,0,0,0,0,0,-1,1609,1324,0,0
392,-300,0,0,0,0,0,0,0,0,0,-1,1616,1324,0,0
399,-300,0,0,0,0,0,0,0,0,0,-1,1623,1324,0,0
406,-300,0,0,0,0,0,0,0,0,0,-1,1630,1324,0,0
413,-300,0,0,0,0,0,0,0,0,0,-1,1637,1324,0,0
420,-300,0,0,0,0,0,0,0,0,0,-1,1644,1324,0,0
427,-300,0,0,0,0,0,0,0,0,0,-1,1651,1324,0,0
434,-300,0,0,0,0,0,0,0,0,0,-1,1658,1324,0,0
441,-300,0,0,0,0,0,0,0,0,0,-1,1665,1324,0,0
448,-300,0,0,0,0,0,0,0,0,0,-1,1672,1324,0,0
455,-300,0,0,0,0,0,0,0,0,0,-1,1679,1324,0,0
462,-300,0,0,0,0,0,0,0,0,0,-1,1686,1324,0,0
469,-300,0,0,0,0,0,0,0,0,0,-1,1693,1324,0,0
476,-300,0,0,0,0,0,0,0,0,0,-1,1700,1324,0,0
483,-300,0,0,0,0,0,0,0,0,0,-1,1707,1324,0,0
490,-300,0,0,0,0,0,0,0,0,0,-1,1714,1324,0,0
497,-300,0,0,0,0,0,0,0,0,0,-1,1721,1324,0,0
504,-300,0,0,0,0,0,0,0,0,0,-1,1728,1324,0,0
511,-300,0,0,0,0,0,0,0,0,0,-1,1735,1324,0,0
518,-300,0,0,0,0,0,0,0,0,0,-1,1742,1324,0,0
525,-300,0,0,0,0,0,0,0,0,0,-1,1749,1324,0,0
532,-300,0,0,0,0,0,0,0,0,0,-1,1756,1324,0,0
539,-300,0,0,0,0,0,0,0,0,0,-1,1763,1324,0,0
546,-300,0,0,0,0,0,0,0,0,0,-1,1770,1324,0,0
553,-300,0,0,0,0,0,0,0,0,0,-1,1777,1324,0,0
560,-300,0,0,0,0,0,0,0,0,0,-1,1784,1324,0,0
567,-300,0,0,0,0,0,0,0,0,0,-1,1791,1324,0,0
574,-300,0,0,0,0,0,0,0,0,0,-1,1798,1324,0,0
581,-300,0,0,0,0,0,0,0,0,0,-1,1805,1324,0,0
588,-300,3.73755,0.423584,0,0,0,0,0,0,0,-1,1812,1324,3.73753,-0.423579
595,-300,3.96875,1.35327,0,0,0,0,0,0,0,-1,1819,1324,3.96874,-1.35326
602,-300,3.43652,1.78674,0.0274031,-0.00812995,-0.00436186,0.0279307,-0.00865756,-0.120374,0.0220795,0.0497932,1826,1324,3.43649,-1.78678
609,-300,2.88977,2.32483,0.0189,-0.0110772,-0.00351949,0.0193077,-0.0114849,-0.115316,0.0179683,0.0490063,1833,1324,2.88972,-2.3248
616,-300,4.6554,0.703735,0.0124431,-0.0119305,-0.00325383,0.01287,-0.0123574,-0.130455,0.014566,0.0467117,1840,1324,4.65539,-0.703736
623,-300,4.47485,1.05115,0.00762452,-0.0114991,-0.00326282,0.00816588,-0.0120405,-0.164422,0.0117374,0.0452107,1847,1324,4.47481,-1.05118
630,-300,4.66052,1.66626,0.00419936,-0.0102786,-0.00338903,0.0049534,-0.0110327,-0.218928,0.0094494,0.0441649,1854,1324,4.66051,-1.6663
637,-300,5.49634,1.32092,0.00173664,-0.00879115,-0.0035209,0.00280562,-0.00986013,-0.294766,0.00768137,0.0442754,1861,1324,5.49631,-1.32092
644,-300,4.37292,1.26074,0,0,0,0,0,0,0,-1,1868,1324,4.37297,-1.26069
651,-300,4.30835,1.22913,-0.00149059,-0.00552712,-0.00316933,0.000248546,-0.00726626,-0.501874,0.00492911,0.0428654,1875,1324,4.3083,-1.22907
658,-300,4.21326,1.20398,-0.00143712,-0.00384558,-0.00378224,0.00132797,-0.00661068,-0.631277,0.00491001,0.0365771,1882,1324,4.21326,-1.20395
665,-300,4.15344,1.15051,-0.00181472,-0.00180032,-0.00338198,0.00157447,-0.00518951,-0.786462,0.00408687,0.0237733,1889,1324,4.15344,-1.15048
672,-300,4.12183,1.13489,-0.00173952,-0.000572813,-0.0030386,0.00193793,-0.00425026,-0.880235,0.00365495,0.0107985,1896,1324,4.12185,-1.13491
679,-300,4.13257,1.08423,-0.00111421,0.000190634,-0.00287555,0.00248685,-0.00341043,-0.896953,0.00341868,0.0110714,1903,1324,4.13254,-1.08419
686,-300,4.15295,1.05566,-0.00124432,0.000502238,-0.00265258,0.00242159,-0.00316368,-0.94442,0.00323413,0.0109584,1910,1324,4.1529,-1.05563
693,-300,4.15784,1.0249,-0.00139479,0.000703471,-0.00222881,0.00211773,-0.00280905,-1.00537,0.0028538,0.0096346,1917,1324,4.15779,-1.02486
700,-300,4.15356,0.972534,0.00237103,0.00153565,-0.00144061,0.00345328,0.000453397,-0.644296,0.00216693,0.010581,1924,1324,4.15352,-0.972494
707,-300,4.16138,0.936401,0.00739729,0.00266812,-0.000752408,0.00751411,0.0025513,-0.154034,0.00441212,0.00784363,1931,1324,4.1614,-0.936401
714,-300,4.15186,0.915283,0.0125352,0.00417996,-0.000456514,0.01256,0.00415509,-0.0544225,0.00738861,0.00954153,1938,1324,4.15188,-0.915268
721,-300,4.15271,0.887085,0.0196628,0.00664304,-0.000454312,0.0196787,0.00662721,-0.0348375,0.0115615,0.0109907,1945,1324,4.15269,-0.887063
728,-300,4.14697,0.846069,0.0290972,0.0107732,-7.04661e-05,0.0290975,0.0107729,-0.00384548,0.016987,0.00883244,1952,1324,4.14697,-0.84612
735,-300,4.10999,0.800903,0.0415202,0.0155947,0.000514644,0.0415305,0.0155844,0.0198404,0.0242251,0.0128628,1959,1324,4.10994,-0.800932
742,-300,4.4436,0.755249,0,0,0,0,0,0,0,-1,1966,1324,4.44355,-0.755198
749,-300,5.75085,1.18481,0.076243,0.0307925,0.00291334,0.076429,0.0306065,0.0637514,0.0444168,0.0437375,1973,1324,5.75081,-1.18483
756,-300,7.22107,1.79309,0.0982469,0.0419785,0.00501834,0.0986909,0.0415344,0.0882576,0.0572167,0.0465775,1980,1324,7.22112,-1.79309
763,-300,7.7915,1.42615,0.122414,0.0562827,0.00797598,0.123362,0.0553343,0.118348,0.0713488,0.047249,1987,1324,7.79147,-1.42616
770,-300,8.53259,1.04102,0,0,0,0,0,0,0,-1,1994,1324,8.53259,-1.04105
777,-300,0,0,0,0,0,0,0,0,0,-1,2001,1324,0,0
784,-300,0,0,0,0,0,0,0,0,0,-1,2008,1324,0,0
791,-300,0,0,0,0,0,0,0,0,0,-1,2015,1324,0,0
798,-300,0,0,0,0,0,0,0,0,0,-1,2022,1324,0,0
805,-300,0,0,0,0,0,0,0,0,0,-1,2029,1324,0,0
812,-300,0,0,0,0,0,0,0,0,0,-1,2036,1324,0,0
-700,-307,0,0,0,0,0,0,0,0,0,-1,524,1331,0,0
-693,-307,0,0,0,0,0,0,0,0,0,-1,531,1331,0,0
-686,-307,0,0,0,0,0,0,0,0,0,-1,538,1331,0,0
-679,-307,0,0,0,0,0,0,0,0,0,-1,545,1331,0,0
-672,-307,0,0,0,0,0,0,0,0,0,-1,552,1331,0,0
-665,-307,0,0,0,0,0,0,0,0,0,-1,559,1331,0,0
-658,-307,0,0,0,0,0,0,0,0,0,-1,566,1331,0,0
-651,-307,2.68091,-0.217285,-0.0311412,0.0170412,-0.0580613,0.0558109,-0.069911,-0.982052,0.0727376,0.0443142,573,1331,2.68093,0.2173
-644,-307,2.1579,-0.386963,-0.0256588,0.0138669,-0.0473172,0.0453826,-0.0571745,-0.98322,0.0593417,0.0437739,580,1331,2.15791,0.386945
-637,-307,1.77856,-0.375244,-0.0207192,0.0114998,-0.0368273,0.0355869,-0.0448062,-0.991576,0.0465166,0.0476181,587,1331,1.77855,0.375252
-630,-307,1.59137,0.0488281,-0.0163479,0.00968777,-0.0274918,0.0270881,-0.0337482,-1.00652,0.0351939,0.0493141,594,1331,1.59139,-0.0488612
-623,-307,0.430969,0.591675,-0.0126359,0.00821959,-0.0195465,0.019946,-0.0243622,-1.03043,0.0256237,0.0466296,601,1331,0.430992,-0.591648
-616,-307,0.395142,0.554932,-0.00955452,0.00698848,-0.0130586,0.0141748,-0.0167409,-1.06771,0.0178697,0.0433429,608,1331,0.39516,-0.554901
-609,-307,0.242188,0.493164,-0.00703803,0.00591528,-0.00801379,0.0097424,-0.0108652,-1.12526,0.0119037,0.0391885,615,1331,0.242159,-0.49316
-602,-307,-0.0953979,0.692505,-0.00503817,0.00466806,-0.00455553,0.00647119,-0.0068413,-1.19391,0.00768696,0.0286122,622,1331,-0.0954146,-0.692494
-595,-307,-0.150085,0.783569,-0.00330682,0.00378077,-0.00166581,0.00415276,-0.00367881,-1.35109,0.00452432,0.0128958,629,1331,-0.150114,-0.783512
-588,-307,-0.153137,0.841919,-0.00176309,0.00341964,0.000480411,0.0034638,-0.00180725,1.47914,0.00309293,0.0166765,636,1331,-0.15312,-0.841886
-581,-307,-0.139771,0.888916,-0.00093636,0.00279113,0.00219077,0.00380368,-0.0019489,1.13786,0.00337831,0.0141058,643,1331,-0.139784,-0.888876
-574,-307,-0.135742,0.899414,-0.00111392,0.00302333,0.00271001,0.00436401,-0.00245461,1.11139,0.00398785,0.0118642,650,1331,-0.135718,-0.899463
-567,-307,-0.14447,0.947876,-0.00115379,0.00368546,0.00127569,0.00400115,-0.00146948,1.3282,0.00326927,0.0122791,657,1331,-0.144453,-0.947912
-560,-307,-0.132935,0.99292,-0.00111201,0.00343763,0.00037941,0.00346906,-0.00114344,1.48816,0.00277356,0.0126994,664,1331,-0.132955,-0.992916
-553,-307,-0.120178,1.00806,-0.00162908,0.00326373,-0.000297254,0.00328173,-0.00164707,-1.51034,0.00289734,0.00971382,671,1331,-0.120169,-1.008
-546,-307,-0.11084,1.03577,-0.00189946,0.00340208,-0.00112978,0.0036328,-0.00213018,-1.36935,0.00336475,0.00927742,678,1331,-0.110847,-1.03572
-539,-307,-0.0919189,1.08313,-0.00203279,0.00450129,-0.00185825,0.00499279,-0.00252429,-1.31222,0.0044173,0.0103021,685,1331,-0.0919282,-1.08317
-532,-307,-0.126648,1.11292,-0.00229065,0.00562325,-0.00192878,0.0060683,-0.0027357,-1.34402,0.00520297,0.0163883,692,1331,-0.126635,-1.11295
-525,-307,-0.205444,1.09314,-0.00297695,0.00649268,-0.00168939,0.00678505,-0.00326932,-1.39944,0.005922,0.0353838,699,1331,-0.205459,-1.09313
-518,-307,-0.199158,1.03857,-0.00343433,0.00752276,-0.00124567,0.0076626,-0.00357416,-1.45901,0.00662914,0.0465569,706,1331,-0.199147,-1.03855
-511,-307,-0.156189,1.04761,-0.00437546,0.00916349,-0.000136669,0.00916487,-0.00437684,-1.5607,0.00797955,0.0448554,713,1331,-0.156195,-1.04755
-504,-307,-0.14563,0.771118,-0.00603477,0.0113159,0.00171231,0.0114833,-0.00620214,1.47336,0.0103613,0.0434535,720,1331,-0.145655,-0.771111
-497,-307,-0.168579,0.275146,0,0,0,0,0,0,0,-1,727,1331,-0.168588,-0.275147
-490,-307,-0.911865,2.86633,0,0,0,0,0,0,0,-1,734,1331,-0.91189,-2.86638
-483,-307,-0.334106,-0.248901,0,0,0,0,0,0,0,-1,741,1331,-0.334103,0.248895
-476,-307,-0.532471,0.0998535,0,0,0,0,0,0,0,-1,748,1331,-0.532491,-0.0998911
-469,-307,-0.700134,0.440796,0,0,0,0,0,0,0,-1,755,1331,-0.700121,-0.440751
-462,-307,0,0,0,0,0,0,0,0,0,-1,762,1331,0,0
-455,-307,0,0,0,0,0,0,0,0,0,-1,769,1331,0,0
-448,-307,0,0,0,0,0,0,0,0,0,-1,776,1331,0,0
-441,-307,0,0,0,0,0,0,0,0,0,-1,783,1331,0,0
-434,-307,0,0,0,0,0,0,0,0,0,-1,790,1331,0,0
-427,-307,0,0,0,0,0,0,0,0,0,-1,797,1331,0,0
-420,-307,0,0,0,0,0,0,0,0,0,-1,804,1331,0,0
-413,-307,0,0,0,0,0,0,0,0,0,-1,811,1331,0,0
-406,-307,0,0,0,0,0,0,0,0,0,-1,818,1331,0,0
-399,-307,0,0,0,0,0,0,0,0,0,-1,825,1331,0,0
-392,-307,0,0,0,0,0,0,0,0,0,-1,832,1331,0,0
-385,-307,0,0,0,0,0,0,0,0,0,-1,839,1331,0,0
-378,-307,0,0,0,0,0,0,0,0,0,-1,846,1331,0,0
-371,-307,0,0,0,0,0,0,0,0,0,-1,853,1331,0,0
-364,-307,0,0,0,0,0,0,0,0,0,-1,860,1331,0,0
-357,-307,0,0,0,0,0,0,0,0,0,-1,867,1331,0,0
-350,-307,0,0,0,0,0,0,0,0,0,-1,874,1331,0,0
-343,-307,0,0,0,0,0,0,0,0,0,-1,881,1331,0,0
-336,-307,0,0,0,0,0,0,0,0,0,-1,888,1331,0,0
-329,-307,0,0,0,0,0,0,0,0,0,-1,895,1331,0,0
-322,-307,0,0,0,0,0,0,0,0,0,-1,902,1331,0,0
-315,-307,0,0,0,0,0,0,0,0,0,-1,909,1331,0,0
-308,-307,0,0,0,0,0,0,0,0,0,-1,916,1331,0,0
-301,-307,0,0,0,0,0,0,0,0,0,-1,923,1331,0,0
-294,-307,0,0,0,0,0,0,0,0,0,-1,930,1331,0,0
-287,-307,0,0,0,0,0,0,0,0,0,-1,937,1331,0,0
-280,-307,0,0,0,0,0,0,0,0,0,-1,944,1331,0,0
-273,-307,0,0,0,0,0,0,0,0,0,-1,951,1331,0,0
-266,-307,0,0,0,0,0,0,0,0,0,-1,958,1331,0,0
-259,-307,0,0,0,0,0,0,0,0,0,-1,965,1331,0,0
-252,-307,0,0,0,0,0,0,0,0,0,-1,972,1331,0,0
-245,-307,0,0,0,0,0,0,0,0,0,-1,979,1331,0,0
-238,-307,0,0,0,0,0,0,0,0,0,-1,986,1331,0,0
-231,-307,0,0,0,0,0,0,0,0,0,-1,993,1331,0,0
-224,-307,0,0,0,0,0,0,0,0,0,-1,1000,1331,0,0
-217,-307,0,0,0,0,0,0,0,0,0,-1,1007,1331,0,0
-210,-307,0,0,0,0,0,0,0,0,0,-1,1014,1331,0,0
-203,-307,0,0,0,0,0,0,0,0,0,-1,1021,1331,0,0
-196,-307,0,0,0,0,0,0,0,0,0,-1,1028,1331,0,0
-189,-307,0,0,0,0,0,0,0,0,0,-1,1035,1331,0,0
-182,-307,0,0,0,0,0,0,0,0,0,-1,1042,1331,0,0
-175,-307,0,0,0,0,0,0,0,0,0,-1,1049,1331,0,0
-168,-307,0,0,0,0,0,0,0,0,0,-1,1056,1331,0,0
-161,-307,0,0,0,0,0,0,0,0,0,-1,1063,1331,0,0
-154,-307,0,0,0,0,0,0,0,0,0,-1,1070,1331,0,0
-147,-307,0,0,0,0,0,0,0,0,0,-1,1077,1331,0,0
-140,-307,0,0,0,0,0,0,0,0,0,-1,1084,1331,0,0
-133,-307,0,0,0,0,0,0,0,0,0,-1,1091,1331,0,0
-126,-307,0,0,0,0,0,0,0,0,0,-1,1098,1331,0,0
-119,-307,0,0,0,0,0,0,0,0,0,-1,1105,1331,0,0
-112,-307,0,0,0,0,0,0,0,0,0,-1,1112,1331,0,0
-105,-307,0,0,0,0,0,0,0,0,0,-1,1119,1331,0,0
-98,-307,0,0,0,0,0,0,0,0,0,-1,1126,1331,0,0
-91,-307,0,0,0,0,0,0,0,0,0,-1,1133,1331,0,0
-84,-307,0,0,0,0,0,0,0,0,0,-1,1140,1331,0,0
-77,-307,0,0,0,0,0,0,0,0,0,-1,1147,1331,0,0
-70,-307,0,0,0,0,0,0,0,0,0,-1,1154,1331,0,0
-63,-307,0,0,0,0,0,0,0,0,0,-1,1161,1331,0,0
-56,-307,0,0,0,0,0,0,0,0,0,-1,1168,1331,0,0
-49,-307,0,0,0,0,0,0,0,0,0,-1,1175,1331,0,0
-42,-307,0,0,0,0,0,0,0,0,0,-1,1182,1331,0,0
-35,-307,0,0,0,0,0,0,0,0,0,-1,1189,1331,0,0
-28,-307,0,0,0,0,0,0,0,0,0,-1,1196,1331,0,0
-21,-307,0,0,0,0,0,0,0,0,0,-1,1203,1331,0,0
-14,-307,0,0,0,0,0,0,0,0,0,-1,1210,1331,0,0
-7,-307,0,0,0,0,0,0,0,0,0,-1,1217,1331,0,0
0,-307,0,0,0,0,0,0,0,0,0,-1,1224,1331,0,0
7,-307,0,0,0,0,0,0,0,0,0,-1,1231,1331,0,0
14,-307,0,0,0,0,0,0,0,0,0,-1,1238,1331,0,0
21,-307,0,0,0,0,0,0,0,0,0,-1,1245,1331,0,0
28,-307,0,0,0,0,0,0,0,0,0,-1,1252,1331,0,0
35,-307,0,0,0,0,0,0,0,0,0,-1,1259,1331,0,0
42,-307,0,0,0,0,0,0,0,0,0,-1,1266,1331,0,0
49,-307,0,0,0,0,0,0,0,0,0,-1,1273,1331,0,0
56,-307,0,0,0,0,0,0,0,0,0,-1,1280,1331,0,0
63,-307,0,0,0,0,0,0,0,0,0,-1,1287,1331,0,0
70,-307,0,0,0,0,0,0,0,0,0,-1,1294,1331,0,0
77,-307,0,0,0,0,0,0,0,0,0,-1,1301,1331,0,0
84,-307,0,0,0,0,0,0,0,0,0,-1,1308,1331,0,0
91,-307,0,0,0,0,0,0,0,0,0,-1,1315,1331,0,0
98,-307,0,0,0,0,0,0,0,0,0,-1,1322,1331,0,0
105,-307,0,0,0,0,0,0,0,0,0,-1,1329,1331,0,0
112,-307,0,0,0,0,0,0,0,0,0,-1,1336,1331,0,0
119,-307,0,0,0,0,0,0,0,0,0,-1,1343,1331,0,0
126,-307,0,0,0,0,0,0,0,0,0,-1,1350,1331,0,0
133,-307,0,0,0,0,0,0,0,0,0,-1,1357,1331,0,0
140,-307,0,0,0,0,0,0,0,0,0,-1,1364,1331,0,0
147,-307,0,0,0,0,0,0,0,0,0,-1,1371,1331,0,0
154,-307,0,0,0,0,0,0,0,0,0,-1,1378,1331,0,0
161,-307,0,0,0,0,0,0,0,0,0,-1,1385,1331,0,0
168,-307,0,0,0,0,0,0,0,0,0,-1,1392,1331,0,0
175,-307,0,0,0,0,0,0,0,0,0,-1,1399,1331,0,0
182,-307,0,0,0,0,0,0,0,0,0,-1,1406,1331,0,0
189,-307,0,0,0,0,0,0,0,0,0,-1,1413,1331,0,0
196,-307,0,0,0,0,0,0,0,0,0,-1,1420,1331,0,0
203,-307,0,0,0,0,0,0,0,0,0,-1,1427,1331,0,0
210,-307,0,0,0,0,0,0,0,0,0,-1,1434,1331,0,0
217,-307,0,0,0,0,0,0,0,0,0,-1,1441,1331,0,0
224,-307,0,0,0,0,0,0,0,0,0,-1,1448,1331,0,0
231,-307,0,0,0,0,0,0,0,0,0,-1,1455,1331,0,0
238,-307,0,0,0,0,0,0,0,0,0,-1,1462,1331,0,0
245,-307,0,0,0,0,0,0,0,0,0,-1,1469,1331,0,0
252,-307,0,0,0,0,0,0,0,0,0,-1,1476,1331,0,0
259,-307,0,0,0,0,0,0,0,0,0,-1,1483,1331,0,0
266,-307,0,0,0,0,0,0,0,0,0,-1,1490,1331,0,0
273,-307,0,0,0,0,0,0,0,0,0,-1,1497,1331,0,0
280,-307,0,0,0,0,0,0,0,0,0,-1,1504,1331,0,0
287,-307,0,0,0,0,0,0,0,0,0,-1,1511,1331,0,0
294,-307,0,0,0,0,0,0,0,0,0,-1,1518,1331,0,0
301,-307,0,0,0,0,0,0,0,0,0,-1,1525,1331,0,0
308,-307,0,0,0,0,0,0,0,0,0,-1,1532,1331,0,0
315,-307,0,0,0,0,0,0,0,0,0,-1,1539,1331,0,0
322,-307,0,0,0,0,0,0,0,0,0,-1,1546,1331,0,0
329,-307,0,0,0,0,0,0,0,0,0,-1,1553,1331,0,0
336,-307,0,0,0,0,0,0,0,0,0,-1,1560,1331,0,0
343,-307,0,0,0,0,0,0,0,0,0,-1,1567,1331,0,0
350,-307,0,0,0,0,0,0,0,0,0,-1,1574,1331,0,0
357,-307,0,0,0,0,0,0,0,0,0,-1,1581,1331,0,0
364,-307,0,0,0,0,0,0,0,0,0,-1,1588,1331,0,0
371,-307,0,0,0,0,0,0,0,0,0,-1,1595,1331,0,0
378,-307,0,0,0,0,0,0,0,0,0,-1,1602,1331,0,0
385,-307,0,0,0,0,0,0,0,0,0,-1,1609,1331,0,0
392,-307,0,0,0,0,0,0,0,0,0,-1,1616,1331,0,0
399,-307,0,0,0,0,0,0,0,0,0,-1,1623,1331,0,0
406,-307,0,0,0,0,0,0,0,0,0,-1,1630,1331,0,0
413,-307,0,0,0,0,0,0,0,0,0,-1,1637,1331,0,0
420,-307,0,0,0,0,0,0,0,0,0,-1,1644,1331,0,0
427,-307,0,0,0,0,0,0,0,0,0,-1,1651,1331,0,0
434,-307,0,0,0,0,0,0,0,0,0,-1,1658,1331,0,0
441,-307,0,0,0,0,0,0,0,0,0,-1,1665,1331,0,0
448,-307,0,0,0,0,0,0,0,0,0,-1,1672,1331,0,0
455,-307,0,0,0,0,0,0,0,0,0,-1,1679,1331,0,0
462,-307,0,0,0,0,0,0,0,0,0,-1,1686,1331,0,0
469,-307,0,0,0,0,0,0,0,0,0,-1,1693,1331,0,0
476,-307,0,0,0,0,0,0,0,0,0,-1,1700,1331,0,0
483,-307,0,0,0,0,0,0,0,0,0,-1,1707,1331,0,0
490,-307,0,0,0,0,0,0,0,0,0,-1,1714,1331,0,0
497,-307,0,0,0,0,0,0,0,0,0,-1,1721,1331,0,0
504,-307,0,0,0,0,0,0,0,0,0,-1,1728,1331,0,0
511,-307,0,0,0,0,0,0,0,0,0,-1,1735,1331,0,0
518,-307,0,0,0,0,0,0,0,0,0,-1,1742,1331,0,0
525,-307,0,0,0,0,0,0,0,0,0,-1,1749,1331,0,0
532,-307,0,0,0,0,0,0,0,0,0,-1,1756,1331,0,0
539,-307,0,0,0,0,0,0,0,0,0,-1,1763,1331,0,0
546,-307,0,0,0,0,0,0,0,0,0,-1,1770,1331,0,0
553,-307,0,0,0,0,0,0,0,0,0,-1,1777,1331,0,0
560,-307,0,0,0,0,0,0,0,0,0,-1,1784,1331,0,0
567,-307,0,0,0,0,0,0,0,0,0,-1,1791,1331,0,0
574,-307,0,0,0,0,0,0,0,0,0,-1,1798,1331,0,0
581,-307,0,0,0,0,0,0,0,0,0,-1,1805,1331,0,0
588,-307,3.68359,2.60767,0,0,0,0,0,0,0,-1,1812,1331,3.6836,-2.6077
595,-307,3.66162,2.27429,0,0,0,0,0,0,0,-1,1819,1331,3.66162,-2.27427
602,-307,3.63953,2.2168,0,0,0,0,0,0,0,-1,1826,1331,3.63957,-2.21682
609,-307,3.68884,2.41321,0.0204735,-0.00501882,-0.00410306,0.0211176,-0.00566295,-0.155716,0.0162974,0.0471572,1833,1331,3.6889,-2.41327
616,-307,4.48254,1.17358,0.013042,-0.00670177,-0.00385113,0.0137666,-0.00742636,-0.185976,0.0124169,0.0428389,1840,1331,4.48249,-1.17362
623,-307,4.2572,1.75183,0.00737093,-0.00726843,-0.00379712,0.0082972,-0.00819471,-0.239269,0.00952167,0.0433778,1847,1331,4.25721,-1.75181
630,-307,3.46716,0.705688,0.0033573,-0.00697731,-0.00382461,0.00461873,-0.00823875,-0.318586,0.0075207,0.0436409,1854,1331,3.46711,-0.70574
637,-307,5.99646,1.49365,0.000559418,-0.00630317,-0.00380783,0.00225388,-0.00799763,-0.418683,0.00622067,0.0440854,1861,1331,5.99651,-1.4936
644,-307,3.12207,0.588745,-0.00192023,-0.00551711,-0.00372773,0.000420216,-0.00785756,-0.560644,0.00538391,0.0412561,1868,1331,3.12212,-0.58871
651,-307,4.28833,1.22314,0,0,0,0,0,0,0,-1,1875,1331,4.28827,-1.2232
658,-307,4.09094,1.25183,-0.00270508,-0.0029718,-0.00372031,0.000884257,-0.00656114,-0.767483,0.00469667,0.0329656,1882,1331,4.09092,-1.25181
665,-307,4.11841,1.15466,-0.00275245,-0.00136432,-0.00324685,0.00126182,-0.00537859,-0.890696,0.00407203,0.0130591,1889,1331,4.11835,-1.15468
672,-307,4.11646,1.12427,-0.00223961,-0.000297764,-0.00276869,0.00166531,-0.00420268,-0.954039,0.00349187,0.0087658,1896,1331,4.11652,-1.12429
679,-307,4.11072,1.09387,-0.00132968,0.000424866,-0.00252598,0.00222158,-0.00312639,-0.952531,0.00310235,0.00980328,1903,1331,4.11075,-1.09386
686,-307,4.11511,1.05896,-0.00133117,0.000647155,-0.00232149,0.00218143,-0.00286545,-0.986795,0.00292273,0.00918095,1910,1331,4.11516,-1.05899
693,-307,4.12097,1.01575,-0.00139257,0.000810734,-0.00207191,0.00205566,-0.0026375,-1.02974,0.00271653,0.0104941,1917,1331,4.12097,-1.01581
700,-307,4.12024,0.968262,0.00256725,0.0016638,-0.00129068,0.00348297,0.000748078,-0.617066,0.00211715,0.0110558,1924,1331,4.12021,-0.968267
707,-307,4.11169,0.936157,0.00789862,0.00285028,-0.00057256,0.00796275,0.00278615,-0.111528,0.00466584,0.0121824,1931,1331,4.11173,-0.936121
714,-307,4.11462,0.901001,0.0134182,0.0045061,-0.000262826,0.013426,0.00449835,-0.0294567,0.00789085,0.0115555,1938,1331,4.11459,-0.900966
721,-307,4.1261,0.881348,0.0211311,0.00696289,-6.61717e-05,0.0211314,0.00696258,-0.00467031,0.0124344,0.0129136,1945,1331,4.12614,-0.881289
728,-307,4.1217,0.865234,0.0315714,0.0111737,0.000573233,0.0315875,0.0111577,0.0280733,0.0184971,0.0145453,1952,1331,4.12165,-0.865212
735,-307,3.93811,0.693726,0.0456501,0.0163129,0.00156556,0.0457334,0.0162296,0.0531632,0.0267723,0.0255362,1959,1331,3.93807,-0.693712
742,-307,3.30505,0.173584,0,0,0,0,0,0,0,-1,1966,1331,3.30509,-0.173531
749,-307,3.17188,-0.0906982,0.0855947,0.0325528,0.00538073,0.086135,0.0320124,0.100084,0.0502732,0.0429055,1973,1331,3.17183,0.0907221
756,-307,6.62305,1.28418,0.111484,0.0447275,0.00855151,0.112562,0.0436494,0.125403,0.065531,0.0468397,1980,1331,6.62305,-1.2842
763,-307,7.22827,0.778076,0.140463,0.0605678,0.0128708,0.142485,0.0585455,0.155845,0.0826982,0.047539,1987,1331,7.22829,-0.778049
770,-307,0,0,0,0,0,0,0,0,0,-1,1994,1331,0,0
777,-307,0,0,0,0,0,0,0,0,0,-1,2001,1331,0,0
784,-307,0,0,0,0,0,0,0,0,0,-1,2008,1331,0,0
791,-307,0,0,0,0,0,0,0,0,0,-1,2015,1331,0,0
798,-307,0,0,0,0,0,0,0,0,0,-1,2022,1331,0,0
805,-307,0,0,0,0,0,0,0,0,0,-1,2029,1331,0,0
812,-307,0,0,0,0,0,0,0,0,0,-1,2036,1331,0,0
-700,-314,0,0,0,0,0,0,0,0,0,-1,524,1338,0,0
-693,-314,0,0,0,0,0,0,0,0,0,-1,531,1338,0,0
-686,-314,0,0,0,0,0,0,0,0,0,-1,538,1338,0,0
-679,-314,0,0,0,0,0,0,0,0,0,-1,545,1338,0,0
-672,-314,0,0,0,0,0,0,0,0,0,-1,552,1338,0,0
-665,-314,0,0,0,0,0,0,0,0,0,-1,559,1338,0,0
-658,-314,0,0,0,0,0,0,0,0,0,-1,566,1338,0,0
-651,-314,0,0,0,0,0,0,0,0,0,-1,573,1338,0,0
-644,-314,2.95276,-0.111572,-0.0188648,0.0120978,-0.0556352,0.0543655,-0.0611325,-0.921097,0.0667209,0.0499098,580,1338,2.95278,0.111556
-637,-314,2.7865,-0.658203,-0.014992,0.00993744,-0.0430826,0.0423223,-0.0473769,-0.926214,0.0518152,0.0450437,587,1338,2.78652,0.658225
-630,-314,2.33881,0.214478,0,0,0,0,0,0,0,-1,594,1338,2.33883,-0.214441
-623,-314,0.0720215,1.18958,0,0,0,0,0,0,0,-1,601,1338,0.0720487,-1.18962
-616,-314,0.346436,0.392578,-0.00675514,0.00609461,-0.0152124,0.0161832,-0.0168438,-0.985208,0.0190694,0.0464397,608,1338,0.346441,-0.392546
-609,-314,0.334045,0.186157,-0.00498691,0.00522153,-0.00935878,0.0107775,-0.0105429,-1.03505,0.0123096,0.0426325,615,1338,0.334016,-0.186099
-602,-314,0.0866699,0.411499,-0.00358069,0.00427265,-0.00523703,0.00689161,-0.00619965,-1.10708,0.00756176,0.0354671,622,1338,0.0866745,-0.411502
-595,-314,-0.0919189,0.811768,-0.00227656,0.00355496,-0.00194923,0.0041465,-0.0028681,-1.27616,0.00407224,0.0211355,629,1338,-0.0919425,-0.811752
-588,-314,-0.111206,0.854126,-0.00108975,0.00324414,0.000391987,0.00327931,-0.00112492,1.48132,0.00264225,0.0122211,636,1338,-0.111228,-0.854182
-581,-314,-0.109619,0.875488,-0.000583393,0.00261609,0.002305,0.0038221,-0.0017894,1.08875,0.00330989,0.0116649,643,1338,-0.109646,-0.875469
-574,-314,-0.111572,0.880127,-0.0008684,0.00255695,0.00289226,0.00420559,-0.00251704,1.05271,0.00392191,0.0120734,650,1338,-0.111565,-0.880081
-567,-314,-0.103333,0.935303,-0.000829313,0.00308133,0.00156406,0.00362992,-0.0013779,1.23346,0.00298712,0.0135629,657,1338,-0.103316,-0.935288
-560,-314,-0.0809937,0.984985,-0.000905932,0.0027593,0.000767348,0.00291347,-0.0010601,1.37253,0.00237587,0.0135469,664,1338,-0.0810197,-0.984946
-553,-314,-0.0736084,1.01123,-0.00139624,0.00239087,8.90681e-05,0.00239296,-0.00139833,1.54729,0.00221387,0.0152805,671,1338,-0.0736225,-1.01122
-546,-314,-0.0901489,1.05994,-0.00157381,0.00237716,-0.000817769,0.00253973,-0.00173638,-1.37456,0.0024833,0.0168347,678,1338,-0.0901649,-1.05991
-539,-314,-0.0847168,1.08252,-0.00149877,0.00324467,-0.00151079,0.00368498,-0.00193908,-1.2872,0.0032988,0.0160725,685,1338,-0.0847281,-1.08247
-532,-314,-0.0888062,1.11938,-0.00147736,0.00431733,-0.00150997,0.00468719,-0.00184722,-1.33058,0.0038896,0.016977,692,1338,-0.0888086,-1.11937
-525,-314,-0.146179,1.16321,-0.00208153,0.00509778,-0.0010518,0.0052487,-0.00223245,-1.42828,0.00443472,0.0277779,699,1338,-0.146178,-1.16315
-518,-314,-0.122925,1.19543,-0.00228627,0.00613666,-0.000467258,0.0061625,-0.00231211,-1.51555,0.00505835,0.0395515,706,1338,-0.122951,-1.19544
-511,-314,-0.0534058,1.23962,-0.0030221,0.0079287,0.000775736,0.00798338,-0.00307678,1.50043,0.00659171,0.0428744,713,1338,-0.0534325,-1.23961
-504,-314,-0.445618,0.9729,-0.00456744,0.0102881,0.00271914,0.0107701,-0.00504951,1.39533,0.00933041,0.0443686,720,1338,-0.445606,-0.972874
-497,-314,-0.40387,1.38647,-0.00730584,0.0148524,0.00551875,0.0161508,-0.00860426,1.33972,0.014512,0.0465664,727,1338,-0.403897,-1.38652
-490,-314,-0.209473,1.92676,-0.0114004,0.0204764,0.00934856,0.0230157,-0.0139398,1.30556,0.0215497,0.0448158,734,1338,-0.209468,-1.9268
-483,-314,0.929993,2.05933,0,0,0,0,0,0,0,-1,741,1338,0.92997,-2.05931
-476,-314,1.31415,2.23987,0,0,0,0,0,0,0,-1,748,1338,1.31416,-2.23989
-469,-314,-0.671082,0.251465,0,0,0,0,0,0,0,-1,755,1338,-0.671088,-0.251416
-462,-314,0,0,0,0,0,0,0,0,0,-1,762,1338,0,0
-455,-314,0,0,0,0,0,0,0,0,0,-1,769,1338,0,0
-448,-314,0,0,0,0,0,0,0,0,0,-1,776,1338,0,0
-441,-314,0,0,0,0,0,0,0,0,0,-1,783,1338,0,0
-434,-314,0,0,0,0,0,0,0,0,0,-1,790,1338,0,0
-427,-314,0,0,0,0,0,0,0,0,0,-1,797,1338,0,0
-420,-314,0,0,0,0,0,0,0,0,0,-1,804,1338,0,0
-413,-314,0,0,0,0,0,0,0,0,0,-1,811,1338,0,0
-406,-314,0,0,0,0,0,0,0,0,0,-1,818,1338,0,0
-399,-314,0,0,0,0,0,0,0,0,0,-1,825,1338,0,0
-392,-314,0,0,0,0,0,0,0,0,0,-1,832,1338,0,0
-385,-314,0,0,0,0,0,0,0,0,0,-1,839,1338,0,0
-378,-314,0,0,0,0,0,0,0,0,0,-1,846,1338,0,0
-371,-314,0,0,0,0,0,0,0,0,0,-1,853,1338,0,0
-364,-314,0,0,0,0,0,0,0,0,0,-1,860,1338,0,0
-357,-314,0,0,0,0,0,0,0,0,0,-1,867,1338,0,0
-350,-314,0,0,0,0,0,0,0,0,0,-1,874,1338,0,0
-343,-314,0,0,0,0,0,0,0,0,0,-1,881,1338,0,0
-336,-314,0,0,0,0,0,0,0,0,0,-1,888,1338,0,0
-329,-314,0,0,0,0,0,0,0,0,0,-1,895,1338,0,0
-322,-314,0,0,0,0,0,0,0,0,0,-1,902,1338,0,0
-315,-314,0,0,0,0,0,0,0,0,0,-1,909,1338,0,0
-308,-314,0,0,0,0,0,0,0,0,0,-1,916,1338,0,0
-301,-314,0,0,0,0,0,0,0,0,0,-1,923,1338,0,0
-294,-314,0,0,0,0,0,0,0,0,0,-1,930,1338,0,0
-287,-314,0,0,0,0,0,0,0,0,0,-1,937,1338,0,0
-280,-314,0,0,0,0,0,0,0,0,0,-1,944,1338,0,0
-273,-314,0,0,0,0,0,0,0,0,0,-1,951,1338,0,0
-266,-314,0,0,0,0,0,0,0,0,0,-1,958,1338,0,0
-259,-314,0,0,0,0,0,0,0,0,0,-1,965,1338,0,0
-252,-314,0,0,0,0,0,0,0,0,0,-1,972,1338,0,0
-245,-314,0,0,0,0,0,0,0,0,0,-1,979,1338,0,0
-238,-314,0,0,0,0,0,0,0,0,0,-1,986,1338,0,0
-231,-314,0,0,0,0,0,0,0,0,0,-1,993,1338,0,0
-224,-314,0,0,0,0,0,0,0,0,0,-1,1000,1338,0,0
-217,-314,0,0,0,0,0,0,0,0,0,-1,1007,1338,0,0
-210,-314,0,0,0,0,0,0,0,0,0,-1,1014,1338,0,0
-203,-314,0,0,0,0,0,0,0,0,0,-1,1021,1338,0,0
-196,-314,0,0,0,0,0,0,0,0,0,-1,1028,1338,0,0
-189,-314,0,0,0,0,0,0,0,0,0,-1,1035,1338,0,0
-182,-314,0,0,0,0,0,0,0,0,0,-1,1042,1338,0,0
-175,-314,0,0,0,0,0,0,0,0,0,-1,1049,1338,0,0
-168,-314,0,0,0,0,0,0,0,0,0,-1,1056,1338,0,0
-161,-314,0,0,0,0,0,0,0,0,0,-1,1063,1338,0,0
-154,-314,0,0,0,0,0,0,0,0,0,-1,1070,1338,0,0
-147,-314,0,0,0,0,0,0,0,0,0,-1,1077,1338,0,0
-140,-314,0,0,0,0,0,0,0,0,0,-1,1084,1338,0,0
-133,-314,0,0,0,0,0,0,0,0,0,-1,1091,1338,0,0
-126,-314,0,0,0,0,0,0,0,0,0,-1,1098,1338,0,0
-119,-314,0,0,0,0,0,0,0,0,0,-1,1105,1338,0,0
-112,-314,0,0,0,0,0,0,0,0,0,-1,1112,1338,0,0
-105,-314,0,0,0,0,0,0,0,0,0,-1,1119,1338,0,0
-98,-314,0,0,0,0,0,0,0,0,0,-1,1126,1338,0,0
-91,-314,0,0,0,0,0,0,0,0,0,-1,1133,1338,0,0
-84,-314,0,0,0,0,0,0,0,0,0,-1,1140,1338,0,0
-77,-314,0,0,0,0,0,0,0,0,0,-1,1147,1338,0,0
-70,-314,0,0,0,0,0,0,0,0,0,-1,1154,1338,0,0
-63,-314,0,0,0,0,0,0,0,0,0,-1,1161,1338,0,0
-56,-314,0,0,0,0,0,0,0,0,0,-1,1168,1338,0,0
-49,-314,0,0,0,0,0,0,0,0,0,-1,1175,1338,0,0
-42,-314,0,0,0,0,0,0,0,0,0,-1,1182,1338,0,0
-35,-314,0,0,0,0,0,0,0,0,0,-1,1189,1338,0,0
-28,-314,0,0,0,0,0,0,0,0,0,-1,1196,1338,0,0
-21,-314,0,0,0,0,0,0,0,0,0,-1,1203,1338,0,0
-14,-314,0,0,0,0,0,0,0,0,0,-1,1210,1338,0,0
-7,-314,0,0,0,0,0,0,0,0,0,-1,1217,1338,0,0
0,-314,0,0,0,0,0,0,0,0,0,-1,1224,1338,0,0
7,-314,0,0,0,0,0,0,0,0,0,-1,1231,1338,0,0
14,-314,0,0,0,0,0,0,0,0,0,-1,1238,1338,0,0
21,-314,0,0,0,0,0,0,0,0,0,-1,1245,1338,0,0
28,-314,0,0,0,0,0,0,0,0,0,-1,1252,1338,0,0
35,-314,0,0,0,0,0,0,0,0,0,-1,1259,1338,0,0
42,-314,0,0,0,0,0,0,0,0,0,-1,1266,1338,0,0
49,-314,0,0,0,0,0,0,0,0,0,-1,1273,1338,0,0
56,-314,0,0,0,0,0,0,0,0,0,-1,1280,1338,0,0
63,-314,0,0,0,0,0,0,0,0,0,-1,1287,1338,0,0
70,-314,0,0,0,0,0,0,0,0,0,-1,1294,1338,0,0
77,-314,0,0,0,0,0,0,0,0,0,-1,1301,1338,0,0
84,-314,0,0,0,0,0,0,0,0,0,-1,1308,1338,0,0
91,-314,0,0,0,0,0,0,0,0,0,-1,1315,1338,0,0
98,-314,0,0,0,0,0,0,0,0,0,-1,1322,1338,0,0
105,-314,0,0,0,0,0,0,0,0,0,-1,1329,1338,0,0
112,-314,0,0,0,0,0,0,0,0,0,-1,1336,1338,0,0
119,-314,0,0,0,0,0,0,0,0,0,-1,1343,1338,0,0
126,-314,0,0,0,0,0,0,0,0,0,-1,1350,1338,0,0
133,-314,0,0,0,0,0,0,0,0,0,-1,1357,1338,0,0
140,-314,0,0,0,0,0,0,0,0,0,-1,1364,1338,0,0
147,-314,0,0,0,0,0,0,0,0,0,-1,1371,1338,0,0
154,-314,0,0,0,0,0,0,0,0,0,-1,1378,1338,0,0
161,-314,0,0,0,0,0,0,0,0,0,-1,1385,1338,0,0
168,-314,0,0,0,0,0,0,0,0,0,-1,1392,1338,0,0
175,-314,0,0,0,0,0,0,0,0,0,-1,1399,1338,0,0
182,-314,0,0,0,0,0,0,0,0,0,-1,1406,1338,0,0
189,-314,0,0,0,0,0,0,0,0,0,-1,1413,1338,0,0
196,-314,0,0,0,0,0,0,0,0,0,-1,1420,1338,0,0
203,-314,0,0,0,0,0,0,0,0,0,-1,1427,1338,0,0
210,-314,0,0,0,0,0,0,0,0,0,-1,1434,1338,0,0
217,-314,0,0,0,0,0,0,0,0,0,-1,1441,1338,0,0
224,-314,0,0,0,0,0,0,0,0,0,-1,1448,1338,0,0
231,-314,0,0,0,0,0,0,0,0,0,-1,1455,1338,0,0
238,-314,0,0,0,0,0,0,0,0,0,-1,1462,1338,0,0
245,-314,0,0,0,0,0,0,0,0,0,-1,1469,1338,0,0
252,-314,0,0,0,0,0,0,0,0,0,-1,1476,1338,0,0
259,-314,0,0,0,0,0,0,0,0,0,-1,1483,1338,0,0
266,-314,0,0,0,0,0,0,0,0,0,-1,1490,1338,0,0
273,-314,0,0,0,0,0,0,0,0,0,-1,1497,1338,0,0
280,-314,0,0,0,0,0,0,0,0,0,-1,1504,1338,0,0
287,-314,0,0,0,0,0,0,0,0,0,-1,1511,1338,0,0
294,-314,0,0,0,0,0,0,0,0,0,-1,1518,1338,0,0
301,-314,0,0,0,0,0,0,0,0,0,-1,1525,1338,0,0
308,-314,0,0,0,0,0,0,0,0,0,-1,1532,1338,0,0
315,-314,0,0,0,0,0,0,0,0,0,-1,1539,1338,0,0
322,-314,0,0,0,0,0,0,0,0,0,-1,1546,1338,0,0
329,-314,0,0,0,0,0,0,0,0,0,-1,1553,1338,0,0
336,-314,0,0,0,0,0,0,0,0,0,-1,1560,1338,0,0
343,-314,0,0,0,0,0,0,0,0,0,-1,1567,1338,0,0
350,-314,0,0,0,0,0,0,0,0,0,-1,1574,1338,0,0
357,-314,0,0,0,0,0,0,0,0,0,-1,1581,1338,0,0
364,-314,0,0,0,0,0,0,0,0,0,-1,1588,1338,0,0
371,-314,0,0,0,0,0,0,0,0,0,-1,1595,1338,0,0
378,-314,0,0,0,0,0,0,0,0,0,-1,1602,1338,0,0
385,-314,0,0,0,0,0,0,0,0,0,-1,1609,1338,0,0
392,-314,0,0,0,0,0,0,0,0,0,-1,1616,1338,0,0
399,-314,0,0,0,0,0,0,0,0,0,-1,1623,1338,0,0
406,-314,0,0,0,0,0,0,0,0,0,-1,1630,1338,0,0
413,-314,0,0,0,0,0,0,0,0,0,-1,1637,1338,0,0
420,-314,0,0,0,0,0,0,0,0,0,-1,1644,1338,0,0
427,-314,0,0,0,0,0,0,0,0,0,-1,1651,1338,0,0
434,-314,0,0,0,0,0,0,0,0,0,-1,1658,1338,0,0
441,-314,0,0,0,0,0,0,0,0,0,-1,1665,1338,0,0
448,-314,0,0,0,0,0,0,0,0,0,-1,1672,1338,0,0
455,-314,0,0,0,0,0,0,0,0,0,-1,1679,1338,0,0
462,-314,0,0,0,0,0,0,0,0,0,-1,1686,1338,0,0
469,-314,0,0,0,0,0,0,0,0,0,-1,1693,1338,0,0
476,-314,0,0,0,0,0,0,0,0,0,-1,1700,1338,0,0
483,-314,0,0,0,0,0,0,0,0,0,-1,1707,1338,0,0
490,-314,0,0,0,0,0,0,0,0,0,-1,1714,1338,0,0
497,-314,0,0,0,0,0,0,0,0,0,-1,1721,1338,0,0
504,-314,0,0,0,0,0,0,0,0,0,-1,1728,1338,0,0
511,-314,0,0,0,0,0,0,0,0,0,-1,1735,1338,0,0
518,-314,0,0,0,0,0,0,0,0,0,-1,1742,1338,0,0
525,-314,0,0,0,0,0,0,0,0,0,-1,1749,1338,0,0
532,-314,0,0,0,0,0,0,0,0,0,-1,1756,1338,0,0
539,-314,0,0,0,0,0,0,0,0,0,-1,1763,1338,0,0
546,-314,0,0,0,0,0,0,0,0,0,-1,1770,1338,0,0
553,-314,0,0,0,0,0,0,0,0,0,-1,1777,1338,0,0
560,-314,0,0,0,0,0,0,0,0,0,-1,1784,1338,0,0
567,-314,0,0,0,0,0,0,0,0,0,-1,1791,1338,0,0
574,-314,0,0,0,0,0,0,0,0,0,-1,1798,1338,0,0
581,-314,4.08057,2.64587,0,0,0,0,0,0,0,-1,1805,1338,4.08051,-2.64583
588,-314,4.1106,2.50989,0.0512901,0.0117063,-0.00843026,0.0530107,0.0099857,-0.201336,0.0325269,0.0485189,1812,1338,4.1106,-2.50985
595,-314,4.23328,2.31653,0.0417188,0.00807318,-0.00595307,0.0427411,0.00705093,-0.170058,0.0264588,0.0473293,1819,1338,4.23332,-2.31658
602,-314,4.297,2.26917,0.0307445,0.00418548,-0.0048321,0.0315963,0.00333366,-0.174491,0.0200456,0.0446525,1826,1338,4.29698,-2.26913
609,-314,4.18738,2.31726,0.0210118,0.000957386,-0.00426796,0.0218823,8.687e-05,-0.201206,0.0145593,0.0411784,1833,1338,4.18741,-2.31725
616,-314,5.19971,1.44092,0,0,0,0,0,0,0,-1,1840,1338,5.19974,-1.44086
623,-314,4.68066,1.29871,0.00669313,-0.00305403,-0.00399841,0.00812344,-0.00448434,-0.343536,0.00737949,0.0434192,1847,1338,4.68071,-1.29867
630,-314,4.13489,1.21619,0.00225007,-0.00371843,-0.0039799,0.00424029,-0.00570865,-0.463702,0.00576484,0.044915,1854,1338,4.13487,-1.21622
637,-314,2.7782,-0.00280762,-0.000858426,-0.0039638,-0.00382933,0.00172103,-0.00654325,-0.592791,0.00503486,0.0452636,1861,1338,2.77825,0.00284904
644,-314,3.38,0.543091,-0.00358484,-0.00391117,-0.00359971,-0.000144601,-0.00735141,-0.76275,0.00485346,0.0408171,1868,1338,3.38,-0.543124
651,-314,3.77466,0.980103,-0.00450092,-0.00311981,-0.00273538,-0.000989159,-0.00663157,-0.909042,0.00413099,0.0380831,1875,1338,3.7746,-0.980052
658,-314,4.02124,1.17346,-0.0042342,-0.00248587,-0.00337087,0.000122342,-0.00684241,-0.912268,0.00460293,0.0231875,1882,1338,4.02122,-1.17345
665,-314,4.09351,1.14209,-0.0039241,-0.00126639,-0.00279894,0.000503123,-0.00569362,-1.00703,0.00397408,0.0113124,1889,1338,4.09356,-1.1421
672,-314,4.11938,1.12732,-0.00292388,-0.000379287,-0.00221298,0.000901064,-0.00420423,-1.04629,0.00314648,0.0112994,1896,1338,4.11936,-1.12728
679,-314,4.10352,1.10095,-0.00171667,0.000322157,-0.00193009,0.0014855,-0.00288002,-1.02836,0.00256294,0.00949598,1903,1338,4.10346,-1.10093
686,-314,4.0885,1.04041,-0.00151504,0.0005574,-0.00180696,0.00160417,-0.00256181,-1.04574,0.00242632,0.0108802,1910,1338,4.08851,-1.04042
693,-314,4.08691,0.999146,-0.00140547,0.000799977,-0.00179132,0.00180078,-0.00240627,-1.0613,0.00243731,0.0110146,1917,1338,4.08687,-0.999123
700,-314,4.08594,0.965454,0.00261493,0.00176045,-0.00114726,0.00341192,0.000963466,-0.607152,0.00203111,0.0111903,1924,1338,4.08594,-0.965394
707,-314,4.07507,0.940308,0.00812899,0.00305595,-0.000513735,0.00818049,0.00300445,-0.099916,0.00477816,0.0110896,1931,1338,4.07502,-0.940293
714,-314,4.06714,0.90979,0.0138913,0.00486903,-0.000238346,0.0138976,0.00486274,-0.0263929,0.00814342,0.0100459,1938,1338,4.06708,-0.909747
721,-314,4.0791,0.886108,0.0219036,0.00736788,0.000139917,0.0219049,0.00736654,0.00962455,0.0128708,0.0126553,1945,1338,4.07915,-0.886098
728,-314,4.06372,0.87146,0.0329715,0.0115643,0.00102216,0.0330202,0.0115157,0.0476042,0.0193528,0.0201129,1952,1338,4.06378,-0.871457
735,-314,3.66919,0.674194,0.0480228,0.0167699,0.00244325,0.0482126,0.01658,0.0775489,0.0282842,0.035021,1959,1338,3.66923,-0.674209
742,-314,3.26318,0.399292,0.0673748,0.0238305,0.00461861,0.0678593,0.023346,0.104518,0.0398088,0.0427561,1966,1338,3.26317,-0.399305
749,-314,3.27039,0.159912,0.0912924,0.0332568,0.00773181,0.0923049,0.0322444,0.1302,0.0540928,0.0429126,1973,1338,3.27044,-0.159899
756,-314,5.99731,0.797852,0.119722,0.0457106,0.0120183,0.121625,0.0438079,0.157011,0.0711294,0.040555,1980,1338,5.99734,-0.797819
763,-314,6.58655,0.263916,0,0,0,0,0,0,0,-1,1987,1338,6.5866,-0.263862
770,-314,0,0,0,0,0,0,0,0,0,-1,1994,1338,0,0
777,-314,0,0,0,0,0,0,0,0,0,-1,2001,1338,0,0
784,-314,0,0,0,0,0,0,0,0,0,-1,2008,1338,0,0
791,-314,0,0,0,0,0,0,0,0,0,-1,2015,1338,0,0
798,-314,0,0,0,0,0,0,0,0,0,-1,2022,1338,0,0
805,-314,0,0,0,0,0,0,0,0,0,-1,2029,1338,0,0
812,-314,0,0,0,0,0,0,0,0,0,-1,2036,1338,0,0
-700,-321,0,0,0,0,0,0,0,0,0,-1,524,1345,0,0
-693,-321,0,0,0,0,0,0,0,0,0,-1,531,1345,0,0
-686,-321,0,0,0,0,0,0,0,0,0,-1,538,1345,0,0
-679,-321,0,0,0,0,0,0,0,0,0,-1,545,1345,0,0
-672,-321,0,0,0,0,0,0,0,0,0,-1,552,1345,0,0
-665,-321,0,0,0,0,0,0,0,0,0,-1,559,1345,0,0
-658,-321,0,0,0,0,0,0,0,0,0,-1,566,1345,0,0
-651,-321,0,0,0,0,0,0,0,0,0,-1,573,1345,0,0
-644,-321,4.11304,-0.408203,0,0,0,0,0,0,0,-1,580,1345,4.11305,0.408203
-637,-321,4.01135,-0.776611,0,0,0,0,0,0,0,-1,587,1345,4.01134,0.776553
-630,-321,-0.0213623,1.86987,0,0,0,0,0,0,0,-1,594,1345,-0.0213331,-1.86986
-623,-321,0.00976563,1.22095,0,0,0,0,0,0,0,-1,601,1345,0.00974874,-1.22091
-616,-321,0.0786743,0.602905,0.00137409,0.00725093,-0.015849,0.0204316,-0.0118066,-0.877058,0.0188334,0.0474994,608,1345,0.0786517,-0.602932
-609,-321,0.155762,0.0985107,0.00196755,0.00623856,-0.00927545,0.0136212,-0.00541505,-0.898543,0.0113258,0.04395,615,1345,0.155734,-0.0985581
-602,-321,0.293884,-0.236816,0.0022009,0.00521916,-0.00464594,0.00859492,-0.00117487,-0.942436,0.00615904,0.0422807,622,1345,0.293907,0.236791
-595,-321,-0.103271,0.757568,0.00245012,0.00439126,-0.00115878,0.00493223,0.00190914,-1.13402,0.00287173,0.0320985,629,1345,-0.103289,-0.75761
-588,-321,-0.083313,0.834839,0.00258288,0.00387899,0.00115835,0.00455824,0.00190363,1.04044,0.00264358,0.0120607,636,1345,-0.0833062,-0.834874
-581,-321,-0.0776978,0.86145,0.00214364,0.00303018,0.0030212,0.00564046,-0.000466638,0.858239,0.00392511,0.0113848,643,1345,-0.0777128,-0.861486
-574,-321,-0.0747681,0.886108,0.00120456,0.00253389,0.00349077,0.0054227,-0.00168426,0.879475,0.00428826,0.0149186,650,1345,-0.0747467,-0.886106
-567,-321,-0.0637207,0.930664,0.000807635,0.00274974,0.00209848,0.00409095,-0.000533577,1.0021,0.00292145,0.0202375,657,1345,-0.0637276,-0.930624
-560,-321,-0.0953369,0.959229,0.000276869,0.00226865,0.00126237,0.00288067,-0.000335149,1.11937,0.00204135,0.0228269,664,1345,-0.0953551,-0.959285
-553,-321,-0.0950928,0.980225,-0.000425672,0.00172685,0.000440313,0.00181344,-0.000512258,1.37663,0.00141105,0.0247168,671,1345,-0.0951028,-0.980266
-546,-321,-0.106689,1.03235,-0.000839557,0.0015155,-0.000682531,0.00169901,-0.00102307,-1.30814,0.00158766,0.0258737,678,1345,-0.106698,-1.0324
-539,-321,-0.103027,1.07324,-0.000815214,0.00211902,-0.0014981,0.00274874,-0.00144493,-1.17287,0.00245991,0.0227641,685,1345,-0.103053,-1.07321
-532,-321,-0.0604248,1.12061,-0.000634861,0.00309446,-0.00146472,0.00360096,-0.00114136,-1.23787,0.00285809,0.0141023,692,1345,-0.0604495,-1.12059
-525,-321,-0.0519409,1.16602,-0.00122599,0.0037886,-0.000854565,0.00393023,-0.00136762,-1.40655,0.00317575,0.0186375,699,1345,-0.0519699,-1.16597
-518,-321,-0.0526733,1.20044,-0.0013101,0.00481923,-0.000171972,0.00482406,-0.00131492,-1.54277,0.00373237,0.0336047,706,1345,-0.052686,-1.20045
-511,-321,-0.0504761,1.16418,-0.00200022,0.0067098,0.00118917,0.00686923,-0.00215965,1.43752,0.00544409,0.0426243,713,1345,-0.0504856,-1.16413
-504,-321,-0.360168,1.11133,-0.00361197,0.00919911,0.00324642,0.0099748,-0.00438766,1.33625,0.00849874,0.0458784,720,1345,-0.36014,-1.11131
-497,-321,-0.359192,1.31018,-0.00655556,0.014074,0.00615618,0.0157714,-0.008253,1.30175,0.0140951,0.0462917,727,1345,-0.359173,-1.31017
-490,-321,-0.273926,1.52783,-0.0109381,0.0199413,0.010107,0.0229552,-0.013952,1.28099,0.0215187,0.0439681,734,1345,-0.273933,-1.52778
-483,-321,0.604675,1.88965,-0.0180668,0.0280747,0.0147767,0.0324012,-0.0223934,1.28596,0.0318111,0.0475274,741,1345,0.604686,-1.88968
-476,-321,0.984497,2.07214,0,0,0,0,0,0,0,-1,748,1345,0.984502,-2.07219
-469,-321,1.24921,2.19714,0,0,0,0,0,0,0,-1,755,1345,1.24919,-2.1971
-462,-321,-0.764954,2.70959,0,0,0,0,0,0,0,-1,762,1345,-0.764975,-2.70963
-455,-321,0,0,0,0,0,0,0,0,0,-1,769,1345,0,0
-448,-321,0,0,0,0,0,0,0,0,0,-1,776,1345,0,0
-441,-321,0,0,0,0,0,0,0,0,0,-1,783,1345,0,0
-434,-321,0,0,0,0,0,0,0,0,0,-1,790,1345,0,0
-427,-321,0,0,0,0,0,0,0,0,0,-1,797,1345,0,0
-420,-321,0,0,0,0,0,0,0,0,0,-1,804,1345,0,0
-413,-321,0,0,0,0,0,0,0,0,0,-1,811,1345,0,0
-406,-321,0,0,0,0,0,0,0,0,0,-1,818,1345,0,0
-399,-321,0,0,0,0,0,0,0,0,0,-1,825,1345,0,0
-392,-321,0,0,0,0,0,0,0,0,0,-1,832,1345,0,0
-385,-321,0,0,0,0,0,0,0,0,0,-1,839,1345,0,0
-378,-321,0,0,0,0,0,0,0,0,0,-1,846,1345,0,0
-371,-321,0,0,0,0,0,0,0,0,0,-1,853,1345,0,0
-364,-321,0,0,0,0,0,0,0,0,0,-1,860,1345,0,0
-357,-321,0,0,0,0,0,0,0,0,0,-1,867,1345,0,0
-350,-321,0,0,0,0,0,0,0,0,0,-1,874,1345,0,0
-343,-321,0,0,0,0,0,0,0,0,0,-1,881,1345,0,0
-336,-321,0,0,0,0,0,0,0,0,0,-1,888,1345,0,0
-329,-321,0,0,0,0,0,0,0,0,0,-1,895,1345,0,0
-322,-321,0,0,0,0,0,0,0,0,0,-1,902,1345,0,0
-315,-321,0,0,0,0,0,0,0,0,0,-1,909,1345,0,0
-308,-321,0,0,0,0,0,0,0,0,0,-1,916,1345,0,0
-301,-321,0,0,0,0,0,0,0,0,0,-1,923,1345,0,0
-294,-321,0,0,0,0,0,0,0,0,0,-1,930,1345,0,0
-287,-321,0,0,0,0,0,0,0,0,0,-1,937,1345,0,0
-280,-321,0,0,0,0,0,0,0,0,0,-1,944,1345,0,0
-273,-321,0,0,0,0,0,0,0,0,0,-1,951,1345,0,0
-266,-321,0,0,0,0,0,0,0,0,0,-1,958,1345,0,0
-259,-321,0,0,0,0,0,0,0,0,0,-1,965,1345,0,0
-252,-321,0,0,0,0,0,0,0,0,0,-1,972,1345,0,0
-245,-321,0,0,0,0,0,0,0,0,0,-1,979,1345,0,0
-238,-321,0,0,0,0,0,0,0,0,0,-1,986,1345,0,0
-231,-321,0,0,0,0,0,0,0,0,0,-1,993,1345,0,0
-224,-321,0,0,0,0,0,0,0,0,0,-1,1000,1345,0,0
-217,-321,0,0,0,0,0,0,0,0,0,-1,1007,1345,0,0
-210,-321,0,0,0,0,0,0,0,0,0,-1,1014,1345,0,0
-203,-321,0,0,0,0,0,0,0,0,0,-1,1021,1345,0,0
-196,-321,0,0,0,0,0,0,0,0,0,-1,1028,1345,0,0
-189,-321,0,0,0,0,0,0,0,0,0,-1,1035,1345,0,0
-182,-321,0,0,0,0,0,0,0,0,0,-1,1042,1345,0,0
-175,-321,0,0,0,0,0,0,0,0,0,-1,1049,1345,0,0
-168,-321,0,0,0,0,0,0,0,0,0,-1,1056,1345,0,0
-161,-321,0,0,0,0,0,0,0,0,0,-1,1063,1345,0,0
-154,-321,0,0,0,0,0,0,0,0,0,-1,1070,1345,0,0
-147,-321,0,0,0,0,0,0,0,0,0,-1,1077,1345,0,0
-140,-321,0,0,0,0,0,0,0,0,0,-1,1084,1345,0,0
-133,-321,0,0,0,0,0,0,0,0,0,-1,1091,1345,0,0
-126,-321,0,0,0,0,0,0,0,0,0,-1,1098,1345,0,0
-119,-321,0,0,0,0,0,0,0,0,0,-1,1105,1345,0,0
-112,-321,0,0,0,0,0,0,0,0,0,-1,1112,1345,0,0
-105,-321,0,0,0,0,0,0,0,0,0,-1,1119,1345,0,0
-98,-321,0,0,0,0,0,0,0,0,0,-1,1126,1345,0,0
-91,-321,0,0,0,0,0,0,0,0,0,-1,1133,1345,0,0
-84,-321,0,0,0,0,0,0,0,0,0,-1,1140,1345,0,0
-77,-321,0,0,0,0,0,0,0,0,0,-1,1147,1345,0,0
-70,-321,0,0,0,0,0,0,0,0,0,-1,1154,1345,0,0
-63,-321,0,0,0,0,0,0,0,0,0,-1,1161,1345,0,0
-56,-321,0,0,0,0,0,0,0,0,0,-1,1168,1345,0,0
-49,-321,0,0,0,0,0,0,0,0,0,-1,1175,1345,0,0
-42,-321,0,0,0,0,0,0,0,0,0,-1,1182,1345,0,0
-35,-321,0,0,0,0,0,0,0,0,0,-1,1189,1345,0,0
-28,-321,0,0,0,0,0,0,0,0,0,-1,1196,1345,0,0
-21,-321,0,0,0,0,0,0,0,0,0,-1,1203,1345,0,0
-14,-321,0,0,0,0,0,0,0,0,0,-1,1210,1345,0,0
-7,-321,0,0,0,0,0,0,0,0,0,-1,1217,1345,0,0
0,-321,0,0,0,0,0,0,0,0,0,-1,1224,1345,0,0
7,-321,0,0,0,0,0,0,0,0,0,-1,1231,1345,0,0
14,-321,0,0,0,0,0,0,0,0,0,-1,1238,1345,0,0
21,-321,0,0,0,0,0,0,0,0,0,-1,1245,1345,0,0
28,-321,0,0,0,0,0,0,0,0,0,-1,1252,1345,0,0
35,-321,0,0,0,0,0,0,0,0,0,-1,1259,1345,0,0
42,-321,0,0,0,0,0,0,0,0,0,-1,1266,1345,0,0
49,-321,0,0,0,0,0,0,0,0,0,-1,1273,1345,0,0
56,-321,0,0,0,0,0,0,0,0,0,-1,1280,1345,0,0
63,-321,0,0,0,0,0,0,0,0,0,-1,1287,1345,0,0
70,-321,0,0,0,0,0,0,0,0,0,-1,1294,1345,0,0
77,-321,0,0,0,0,0,0,0,0,0,-1,1301,1345,0,0
84,-321,0,0,0,0,0,0,0,0,0,-1,1308,1345,0,0
91,-321,0,0,0,0,0,0,0,0,0,-1,1315,1345,0,0
98,-321,0,0,0,0,0,0,0,0,0,-1,1322,1345,0,0
105,-321,0,0,0,0,0,0,0,0,0,-1,1329,1345,0,0
112,-321,0,0,0,0,0,0,0,0,0,-1,1336,1345,0,0
119,-321,0,0,0,0,0,0,0,0,0,-1,1343,1345,0,0
126,-321,0,0,0,0,0,0,0,0,0,-1,1350,1345,0,0
133,-321,0,0,0,0,0,0,0,0,0,-1,1357,1345,0,0
140,-321,0,0,0,0,0,0,0,0,0,-1,1364,1345,0,0
147,-321,0,0,0,0,0,0,0,0,0,-1,1371,1345,0,0
154,-321,0,0,0,0,0,0,0,0,0,-1,1378,1345,0,0
161,-321,0,0,0,0,0,0,0,0,0,-1,1385,1345,0,0
168,-321,0,0,0,0,0,0,0,0,0,-1,1392,1345,0,0
175,-321,0,0,0,0,0,0,0,0,0,-1,1399,1345,0,0
182,-321,0,0,0,0,0,0,0,0,0,-1,1406,1345,0,0
189,-321,0,0,0,0,0,0,0,0,0,-1,1413,1345,0,0
196,-321,0,0,0,0,0,0,0,0,0,-1,1420,1345,0,0
203,-321,0,0,0,0,0,0,0,0,0,-1,1427,1345,0,0
210,-321,0,0,0,0,0,0,0,0,0,-1,1434,1345,0,0
217,-321,0,0,0,0,0,0,0,0,0,-1,1441,1345,0,0
224,-321,0,0,0,0,0,0,0,0,0,-1,1448,1345,0,0
231,-321,0,0,0,0,0,0,0,0,0,-1,1455,1345,0,0
238,-321,0,0,0,0,0,0,0,0,0,-1,1462,1345,0,0
245,-321,0,0,0,0,0,0,0,0,0,-1,1469,1345,0,0
252,-321,0,0,0,0,0,0,0,0,0,-1,1476,1345,0,0
259,-321,0,0,0,0,0,0,0,0,0,-1,1483,1345,0,0
266,-321,0,0,0,0,0,0,0,0,0,-1,1490,1345,0,0
273,-321,0,0,0,0,0,0,0,0,0,-1,1497,1345,0,0
280,-321,0,0,0,0,0,0,0,0,0,-1,1504,1345,0,0
287,-321,0,0,0,0,0,0,0,0,0,-1,1511,1345,0,0
294,-321,0,0,0,0,0,0,0,0,0,-1,1518,1345,0,0
301,-321,0,0,0,0,0,0,0,0,0,-1,1525,1345,0,0
308,-321,0,0,0,0,0,0,0,0,0,-1,1532,1345,0,0
315,-321,0,0,0,0,0,0,0,0,0,-1,1539,1345,0,0
322,-321,0,0,0,0,0,0,0,0,0,-1,1546,1345,0,0
329,-321,0,0,0,0,0,0,0,0,0,-1,1553,1345,0,0
336,-321,0,0,0,0,0,0,0,0,0,-1,1560,1345,0,0
343,-321,0,0,0,0,0,0,0,0,0,-1,1567,1345,0,0
350,-321,0,0,0,0,0,0,0,0,0,-1,1574,1345,0,0
357,-321,0,0,0,0,0,0,0,0,0,-1,1581,1345,0,0
364,-321,0,0,0,0,0,0,0,0,0,-1,1588,1345,0,0
371,-321,0,0,0,0,0,0,0,0,0,-1,1595,1345,0,0
378,-321,0,0,0,0,0,0,0,0,0,-1,1602,1345,0,0
385,-321,0,0,0,0,0,0,0,0,0,-1,1609,1345,0,0
392,-321,0,0,0,0,0,0,0,0,0,-1,1616,1345,0,0
399,-321,0,0,0,0,0,0,0,0,0,-1,1623,1345,0,0
406,-321,0,0,0,0,0,0,0,0,0,-1,1630,1345,0,0
413,-321,0,0,0,0,0,0,0,0,0,-1,1637,1345,0,0
420,-321,0,0,0,0,0,0,0,0,0,-1,1644,1345,0,0
427,-321,0,0,0,0,0,0,0,0,0,-1,1651,1345,0,0
434,-321,0,0,0,0,0,0,0,0,0,-1,1658,1345,0,0
441,-321,0,0,0,0,0,0,0,0,0,-1,1665,1345,0,0
448,-321,0,0,0,0,0,0,0,0,0,-1,1672,1345,0,0
455,-321,0,0,0,0,0,0,0,0,0,-1,1679,1345,0,0
462,-321,0,0,0,0,0,0,0,0,0,-1,1686,1345,0,0
469,-321,0,0,0,0,0,0,0,0,0,-1,1693,1345,0,0
476,-321,0,0,0,0,0,0,0,0,0,-1,1700,1345,0,0
483,-321,0,0,0,0,0,0,0,0,0,-1,1707,1345,0,0
490,-321,0,0,0,0,0,0,0,0,0,-1,1714,1345,0,0
497,-321,0,0,0,0,0,0,0,0,0,-1,1721,1345,0,0
504,-321,0,0,0,0,0,0,0,0,0,-1,1728,1345,0,0
511,-321,0,0,0,0,0,0,0,0,0,-1,1735,1345,0,0
518,-321,0,0,0,0,0,0,0,0,0,-1,1742,1345,0,0
525,-321,0,0,0,0,0,0,0,0,0,-1,1749,1345,0,0
532,-321,0,0,0,0,0,0,0,0,0,-1,1756,1345,0,0
539,-321,0,0,0,0,0,0,0,0,0,-1,1763,1345,0,0
546,-321,0,0,0,0,0,0,0,0,0,-1,1770,1345,0,0
553,-321,0,0,0,0,0,0,0,0,0,-1,1777,1345,0,0
560,-321,0,0,0,0,0,0,0,0,0,-1,1784,1345,0,0
567,-321,0,0,0,0,0,0,0,0,0,-1,1791,1345,0,0
574,-321,0,0,0,0,0,0,0,0,0,-1,1798,1345,0,0
581,-321,4.72168,2.28528,0,0,0,0,0,0,0,-1,1805,1345,4.72164,-2.28528
588,-321,4.77478,2.15942,0.0474359,0.0161367,-0.00808356,0.0494003,0.0141723,-0.238394,0.0293722,0.049259,1812,1345,4.7748,-2.15945
595,-321,5.15051,2.61597,0.0384895,0.0135996,-0.0055077,0.0396538,0.0124353,-0.208327,0.0234185,0.0472598,1819,1345,5.15047,-2.61598
602,-321,5.04346,2.37695,0.0287446,0.0104192,-0.00423894,0.0296776,0.00948613,-0.216653,0.017502,0.0427741,1826,1345,5.0435,-2.37695
609,-321,4.90771,2.35046,0.0197329,0.0071448,-0.00365639,0.0207178,0.00615982,-0.263139,0.0122847,0.0426879,1833,1345,4.90768,-2.35045
616,-321,5.00281,2.23438,0,0,0,0,0,0,0,-1,1840,1345,5.00282,-2.2344
623,-321,5.26428,1.72632,0.00575813,0.00165653,-0.00351525,0.00777707,-0.000362412,-0.521336,0.00530964,0.0471813,1847,1345,5.26423,-1.72627
630,-321,4.80078,1.67395,0.00133693,-1.16311e-05,-0.00360721,0.00433234,-0.00300704,-0.693001,0.00426036,0.0457093,1854,1345,4.80084,-1.67394
637,-321,4.25745,1.48914,-0.00179501,-0.00127248,-0.00350751,0.00198347,-0.00505097,-0.822573,0.00418808,0.0457405,1861,1345,4.25749,-1.48917
644,-321,4.02173,1.12109,-0.00468047,-0.00205398,-0.00329009,0.000175271,-0.00690972,-0.975286,0.004666,0.0417504,1868,1345,4.02173,-1.12109
651,-321,4.05762,1.15161,-0.0055041,-0.00193365,-0.00235969,-0.000759959,-0.00667778,-1.10924,0.0042214,0.035773,1875,1345,4.0576,-1.15156
658,-321,4.03064,1.17297,-0.00520796,-0.00198231,-0.00308587,-0.000113214,-0.00707706,-1.0262,0.00468076,0.0183529,1882,1345,4.03068,-1.17296
665,-321,4.0575,1.14709,-0.00456088,-0.00125738,-0.00250564,9.19551e-05,-0.00591021,-1.07681,0.00397115,0.0149875,1889,1345,4.05746,-1.14705
672,-321,4.07434,1.12708,-0.0031207,-0.000657905,-0.00187216,0.00035153,-0.00413014,-1.0763,0.00287777,0.0122501,1896,1345,4.07435,-1.12706
679,-321,4.05994,1.09436,-0.00170543,-0.00011202,-0.00158772,0.000867676,-0.00268513,-1.01794,0.0021388,0.010408,1903,1345,4.05994,-1.09437
686,-321,4.03967,1.05713,-0.00136212,3.27207e-05,-0.00153051,0.00101722,-0.00234662,-0.999182,0.00199203,0.0107669,1910,1345,4.03962,-1.05707
693,-321,4.04639,1.02551,-0.00116321,0.000263069,-0.00165448,0.00135156,-0.0022517,-0.988884,0.00210186,0.0110007,1917,1345,4.04642,-1.02547
700,-321,4.06323,0.971191,0.0026641,0.001104,-0.00112998,0.00325713,0.000510973,-0.483297,0.00202272,0.0103544,1924,1345,4.06324,-0.971181
707,-321,4.06909,0.928223,0.00801267,0.00222491,-0.000557923,0.00806596,0.00217162,-0.0952288,0.00481938,0.0116935,1931,1345,4.06906,-0.928265
714,-321,4.0625,0.901855,0.0137049,0.00383528,-0.000277456,0.0137127,0.00382749,-0.0280827,0.00817045,0.0110853,1938,1345,4.06248,-0.901851
721,-321,4.03259,0.891113,0.0217385,0.00603938,0.000239638,0.0217421,0.00603573,0.0152597,0.0129601,0.0136795,1945,1345,4.03264,-0.891056
728,-321,4.00476,0.876953,0.0330047,0.00982624,0.00141356,0.0330906,0.00974035,0.060686,0.0196361,0.0241932,1952,1345,4.00474,-0.876903
735,-321,3.82288,0.724243,0.0484548,0.0146864,0.00326548,0.0487677,0.0143735,0.095523,0.0289361,0.0407473,1959,1345,3.82292,-0.724221
742,-321,3.65112,0.637451,0.0685737,0.0214792,0.00607755,0.0693453,0.0207075,0.126294,0.0411048,0.0448449,1966,1345,3.65107,-0.637454
749,-321,3.81421,0.391113,0,0,0,0,0,0,0,-1,1973,1345,3.81423,-0.391068
756,-321,5.26721,0.348999,0,0,0,0,0,0,0,-1,1980,1345,5.2672,-0.348955
763,-321,5.67603,-0.193604,0,0,0,0,0,0,0,-1,1987,1345,5.676,0.193585
770,-321,0,0,0,0,0,0,0,0,0,-1,1994,1345,0,0
777,-321,0,0,0,0,0,0,0,0,0,-1,2001,1345,0,0
784,-321,0,0,0,0,0,0,0,0,0,-1,2008,1345,0,0
791,-321,0,0,0,0,0,0,0,0,0,-1,2015,1345,0,0
798,-321,0,0,0,0,0,0,0,0,0,-1,2022,1345,0,0
805,-321,0,0,0,0,0,0,0,0,0,-1,2029,1345,0,0
812,-321,0,0,0,0,0,0,0,0,0,-1,2036,1345,0,0
-700,-328,0,0,0,0,0,0,0,0,0,-1,524,1352,0,0
-693,-328,0,0,0,0,0,0,0,0,0,-1,531,1352,0,0
-686,-328,0,0,0,0,0,0,0,0,0,-1,538,1352,0,0
-679,-328,0,0,0,0,0,0,0,0,0,-1,545,1352,0,0
-672,-328,0,0,0,0,0,0,0,0,0,-1,552,1352,0,0
-665,-328,0,0,0,0,0,0,0,0,0,-1,559,1352,0,0
-658,-328,0,0,0,0,0,0,0,0,0,-1,566,1352,0,0
-651,-328,0,0,0,0,0,0,0,0,0,-1,573,1352,0,0
-644,-328,0,0,0,0,0,0,0,0,0,-1,580,1352,0,0
-637,-328,-1.46094,2.18896,0.00678937,0.0157601,-0.0515928,0.0630621,-0.0405126,-0.828758,0.0602695,0.04525,587,1352,-1.46092,-2.18893
-630,-328,-0.643799,1.80811,0.00841149,0.0139283,-0.0364641,0.0477381,-0.0253983,-0.82315,0.042877,0.0494604,594,1352,-0.643769,-1.80815
-623,-328,-0.0525513,1.2522,0,0,0,0,0,0,0,-1,601,1352,-0.0525512,-1.2522
-616,-328,-0.0794067,0.302734,0.00901088,0.0106624,-0.0148927,0.0247522,-0.00507892,-0.813093,0.0184292,0.0443724,608,1352,-0.0793992,-0.302703
-609,-328,0.0866699,-0.126221,0.00844603,0.00918847,-0.00789177,0.0167177,0.000916753,-0.8089,0.0108525,0.0461067,615,1352,0.0867001,0.126263
-602,-328,0.248047,-0.204956,0.00754595,0.00776527,-0.00304451,0.0107021,0.00460912,-0.8034,0.00619862,0.0468514,622,1352,0.248076,0.205007
-595,-328,0.314514,-0.454102,0,0,0,0,0,0,0,-1,629,1352,0.3145,0.45408
-588,-328,-0.053894,0.78833,0.00587037,0.0055801,0.00249191,0.00822136,0.00322911,0.75631,0.00478285,0.0213434,636,1352,-0.0539218,-0.788347
-581,-328,-0.0350342,0.855347,0.00459664,0.004244,0.00411336,0.00853746,0.000303179,0.763979,0.00559332,0.011512,643,1352,-0.0350474,-0.855379
-574,-328,-0.0279541,0.891968,0.00304211,0.00321401,0.00439079,0.00751969,-0.00126357,0.795184,0.00548306,0.0140115,650,1352,-0.0279285,-0.891982
-567,-328,-0.0325928,0.938599,0.00222158,0.00297765,0.0028617,0.00548618,-0.00028695,0.851068,0.00375676,0.0191458,657,1352,-0.0326017,-0.938619
-560,-328,-0.0409546,0.97168,0.00130358,0.00219997,0.00190295,0.00370679,-0.000203244,0.901054,0.00254165,0.0260604,664,1352,-0.0409672,-0.971706
-553,-328,-0.0559082,1.02612,0.000394786,0.00147607,0.000933463,0.00201416,-0.000143296,1.04788,0.001393,0.0278233,671,1352,-0.0559375,-1.0261
-546,-328,-0.0808105,1.04663,-0.000269412,0.00103552,-0.000384639,0.00114046,-0.000374348,-1.30446,0.000911095,0.0269997,678,1352,-0.0808241,-1.04665
-539,-328,-0.0675659,1.06836,-0.000237436,0.00132894,-0.00134505,0.00210221,-0.0010107,-1.04904,0.0018337,0.0220313,685,1352,-0.0675934,-1.06837
-532,-328,-0.0217285,1.11462,0.00011087,0.00218753,-0.00135101,0.00285312,-0.000554722,-1.11304,0.00211142,0.0145937,692,1352,-0.0217495,-1.1146
-525,-328,0.00195313,1.17078,-0.000481032,0.00279525,-0.000652627,0.00292047,-0.000606248,-1.38124,0.00217738,0.00946552,699,1352,0.00197747,-1.17081
-518,-328,0.0101929,1.224,-0.000482743,0.00383664,3.07969e-05,0.00383686,-0.000482962,1.56367,0.00273315,0.0224829,706,1352,0.0101881,-1.22396
-511,-328,-0.121216,1.29395,-0.00113392,0.00581014,0.00137875,0.00607387,-0.00139765,1.38179,0.00458667,0.0358917,713,1352,-0.12121,-1.29394
-504,-328,-0.331787,1.38855,-0.002776,0.0083933,0.00339421,0.00934386,-0.00372656,1.29774,0.00777504,0.0410667,720,1352,-0.331784,-1.3885
-497,-328,-0.473633,1.50537,-0.00584265,0.013451,0.00623465,0.0152903,-0.007682,1.28391,0.0135034,0.0434039,727,1352,-0.473631,-1.50543
-490,-328,-0.212219,1.40894,-0.010401,0.0194306,0.0101102,0.0225342,-0.0135046,1.27295,0.0210235,0.0464578,734,1352,-0.212226,-1.40891
-483,-328,0.036499,1.78357,-0.0177763,0.0276187,0.0147233,0.0319758,-0.0221334,1.28307,0.0314118,0.0493389,741,1352,0.0365175,-1.7836
-476,-328,-0.23053,2.10876,0,0,0,0,0,0,0,-1,748,1352,-0.230541,-2.10871
-469,-328,-0.710083,2.74951,0,0,0,0,0,0,0,-1,755,1352,-0.710085,-2.74951
-462,-328,-1.23236,2.76953,0,0,0,0,0,0,0,-1,762,1352,-1.23238,-2.76948
-455,-328,0,0,0,0,0,0,0,0,0,-1,769,1352,0,0
-448,-328,0,0,0,0,0,0,0,0,0,-1,776,1352,0,0
-441,-328,0,0,0,0,0,0,0,0,0,-1,783,1352,0,0
-434,-328,0,0,0,0,0,0,0,0,0,-1,790,1352,0,0
-427,-328,0,0,0,0,0,0,0,0,0,-1,797,1352,0,0
-420,-328,0,0,0,0,0,0,0,0,0,-1,804,1352,0,0
-413,-328,0,0,0,0,0,0,0,0,0,-1,811,1352,0,0
-406,-328,0,0,0,0,0,0,0,0,0,-1,818,1352,0,0
-399,-328,0,0,0,0,0,0,0,0,0,-1,825,1352,0,0
-392,-328,0,0,0,0,0,0,0,0,0,-1,832,1352,0,0
-385,-328,0,0,0,0,0,0,0,0,0,-1,839,1352,0,0
-378,-328,0,0,0,0,0,0,0,0,0,-1,846,1352,0,0
-371,-328,0,0,0,0,0,0,0,0,0,-1,853,1352,0,0
-364,-328,0,0,0,0,0,0,0,0,0,-1,860,1352,0,0
-357,-328,0,0,0,0,0,0,0,0,0,-1,867,1352,0,0
-350,-328,0,0,0,0,0,0,0,0,0,-1,874,1352,0,0
-343,-328,0,0,0,0,0,0,0,0,0,-1,881,1352,0,0
-336,-328,0,0,0,0,0,0,0,0,0,-1,888,1352,0,0
-329,-328,0,0,0,0,0,0,0,0,0,-1,895,1352,0,0
-322,-328,0,0,0,0,0,0,0,0,0,-1,902,1352,0,0
-315,-328,0,0,0,0,0,0,0,0,0,-1,909,1352,0,0
-308,-328,0,0,0,0,0,0,0,0,0,-1,916,1352,0,0
-301,-328,0,0,0,0,0,0,0,0,0,-1,923,1352,0,0
-294,-328,0,0,0,0,0,0,0,0,0,-1,930,1352,0,0
-287,-328,0,0,0,0,0,0,0,0,0,-1,937,1352,0,0
-280,-328,0,0,0,0,0,0,0,0,0,-1,944,1352,0,0
-273,-328,0,0,0,0,0,0,0,0,0,-1,951,1352,0,0
-266,-328,0,0,0,0,0,0,0,0,0,-1,958,1352,0,0
-259,-328,0,0,0,0,0,0,0,0,0,-1,965,1352,0,0
-252,-328,0,0,0,0,0,0,0,0,0,-1,972,1352,0,0
-245,-328,0,0,0,0,0,0,0,0,0,-1,979,1352,0,0
-238,-328,0,0,0,0,0,0,0,0,0,-1,986,1352,0,0
-231,-328,0,0,0,0,0,0,0,0,0,-1,993,1352,0,0
-224,-328,0,0,0,0,0,0,0,0,0,-1,1000,1352,0,0
-217,-328,0,0,0,0,0,0,0,0,0,-1,1007,1352,0,0
-210,-328,0,0,0,0,0,0,0,0,0,-1,1014,1352,0,0
-203,-328,0,0,0,0,0,0,0,0,0,-1,1021,1352,0,0
-196,-328,0,0,0,0,0,0,0,0,0,-1,1028,1352,0,0
-189,-328,0,0,0,0,0,0,0,0,0,-1,1035,1352,0,0
-182,-328,0,0,0,0,0,0,0,0,0,-1,1042,1352,0,0
-175,-328,0,0,0,0,0,0,0,0,0,-1,1049,1352,0,0
-168,-328,0,0,0,0,0,0,0,0,0,-1,1056,1352,0,0
-161,-328,0,0,0,0,0,0,0,0,0,-1,1063,1352,0,0
-154,-328,0,0,0,0,0,0,0,0,0,-1,1070,1352,0,0
-147,-328,0,0,0,0,0,0,0,0,0,-1,1077,1352,0,0
-140,-328,0,0,0,0,0,0,0,0,0,-1,1084,1352,0,0
-133,-328,0,0,0,0,0,0,0,0,0,-1,1091,1352,0,0
-126,-328,0,0,0,0,0,0,0,0,0,-1,1098,1352,0,0
-119,-328,0,0,0,0,0,0,0,0,0,-1,1105,1352,0,0
-112,-328,0,0,0,0,0,0,0,0,0,-1,1112,1352,0,0
-105,-328,0,0,0,0,0,0,0,0,0,-1,1119,1352,0,0
-98,-328,0,0,0,0,0,0,0,0,0,-1,1126,1352,0,0
-91,-328,0,0,0,0,0,0,0,0,0,-1,1133,1352,0,0
-84,-328,0,0,0,0,0,0,0,0,0,-1,1140,1352,0,0
-77,-328,0,0,0,0,0,0,0,0,0,-1,1147,1352,0,0
-70,-328,0,0,0,0,0,0,0,0,0,-1,1154,1352,0,0
-63,-328,0,0,0,0,0,0,0,0,0,-1,1161,1352,0,0
-56,-328,0,0,0,0,0,0,0,0,0,-1,1168,1352,0,0
-49,-328,0,0,0,0,0,0,0,0,0,-1,1175,1352,0,0
-42,-328,0,0,0,0,0,0,0,0,0,-1,1182,1352,0,0
-35,-328,0,0,0,0,0,0,0,0,0,-1,1189,1352,0,0
-28,-328,0,0,0,0,0,0,0,0,0,-1,1196,1352,0,0
-21,-328,0,0,0,0,0,0,0,0,0,-1,1203,1352,0,0
-14,-328,0,0,0,0,0,0,0,0,0,-1,1210,1352,0,0
-7,-328,0,0,0,0,0,0,0,0,0,-1,1217,1352,0,0
0,-328,0,0,0,0,0,0,0,0,0,-1,1224,1352,0,0
7,-328,0,0,0,0,0,0,0,0,0,-1,1231,1352,0,0
14,-328,0,0,0,0,0,0,0,0,0,-1,1238,1352,0,0
21,-328,0,0,0,0,0,0,0,0,0,-1,1245,1352,0,0
28,-328,0,0,0,0,0,0,0,0,0,-1,1252,1352,0,0
35,-328,0,0,0,0,0,0,0,0,0,-1,1259,1352,0,0
42,-328,0,0,0,0,0,0,0,0,0,-1,1266,1352,0,0
49,-328,0,0,0,0,0,0,0,0,0,-1,1273,1352,0,0
56,-328,0,0,0,0,0,0,0,0,0,-1,1280,1352,0,0
63,-328,0,0,0,0,0,0,0,0,0,-1,1287,1352,0,0
70,-328,0,0,0,0,0,0,0,0,0,-1,1294,1352,0,0
77,-328,0,0,0,0,0,0,0,0,0,-1,1301,1352,0,0
84,-328,0,0,0,0,0,0,0,0,0,-1,1308,1352,0,0
91,-328,0,0,0,0,0,0,0,0,0,-1,1315,1352,0,0
98,-328,0,0,0,0,0,0,0,0,0,-1,1322,1352,0,0
105,-328,0,0,0,0,0,0,0,0,0,-1,1329,1352,0,0
112,-328,0,0,0,0,0,0,0,0,0,-1,1336,1352,0,0
119,-328,0,0,0,0,0,0,0,0,0,-1,1343,1352,0,0
126,-328,0,0,0,0,0,0,0,0,0,-1,1350,1352,0,0
133,-328,0,0,0,0,0,0,0,0,0,-1,1357,1352,0,0
140,-328,0,0,0,0,0,0,0,0,0,-1,1364,1352,0,0
147,-328,0,0,0,0,0,0,0,0,0,-1,1371,1352,0,0
154,-328,0,0,0,0,0,0,0,0,0,-1,1378,1352,0,0
161,-328,0,0,0,0,0,0,0,0,0,-1,1385,1352,0,0
168,-328,0,0,0,0,0,0,0,0,0,-1,1392,1352,0,0
175,-328,0,0,0,0,0,0,0,0,0,-1,1399,1352,0,0
182,-328,0,0,0,0,0,0,0,0,0,-1,1406,1352,0,0
189,-328,0,0,0,0,0,0,0,0,0,-1,1413,1352,0,0
196,-328,0,0,0,0,0,0,0,0,0,-1,1420,1352,0,0
203,-328,0,0,0,0,0,0,0,0,0,-1,1427,1352,0,0
210,-328,0,0,0,0,0,0,0,0,0,-1,1434,1352,0,0
217,-328,0,0,0,0,0,0,0,0,0,-1,1441,1352,0,0
224,-328,0,0,0,0,0,0,0,0,0,-1,1448,1352,0,0
231,-328,0,0,0,0,0,0,0,0,0,-1,1455,1352,0,0
238,-328,0,0,0,0,0,0,0,0,0,-1,1462,1352,0,0
245,-328,0,0,0,0,0,0,0,0,0,-1,1469,1352,0,0
252,-328,0,0,0,0,0,0,0,0,0,-1,1476,1352,0,0
259,-328,0,0,0,0,0,0,0,0,0,-1,1483,1352,0,0
266,-328,0,0,0,0,0,0,0,0,0,-1,1490,1352,0,0
273,-328,0,0,0,0,0,0,0,0,0,-1,1497,1352,0,0
280,-328,0,0,0,0,0,0,0,0,0,-1,1504,1352,0,0
287,-328,0,0,0,0,0,0,0,0,0,-1,1511,1352,0,0
294,-328,0,0,0,0,0,0,0,0,0,-1,1518,1352,0,0
301,-328,0,0,0,0,0,0,0,0,0,-1,1525,1352,0,0
308,-328,0,0,0,0,0,0,0,0,0,-1,1532,1352,0,0
315,-328,0,0,0,0,0,0,0,0,0,-1,1539,1352,0,0
322,-328,0,0,0,0,0,0,0,0,0,-1,1546,1352,0,0
329,-328,0,0,0,0,0,0,0,0,0,-1,1553,1352,0,0
336,-328,0,0,0,0,0,0,0,0,0,-1,1560,1352,0,0
343,-328,0,0,0,0,0,0,0,0,0,-1,1567,1352,0,0
350,-328,0,0,0,0,0,0,0,0,0,-1,1574,1352,0,0
357,-328,0,0,0,0,0,0,0,0,0,-1,1581,1352,0,0
364,-328,0,0,0,0,0,0,0,0,0,-1,1588,1352,0,0
371,-328,0,0,0,0,0,0,0,0,0,-1,1595,1352,0,0
378,-328,0,0,0,0,0,0,0,0,0,-1,1602,1352,0,0
385,-328,0,0,0,0,0,0,0,0,0,-1,1609,1352,0,0
392,-328,0,0,0,0,0,0,0,0,0,-1,1616,1352,0,0
399,-328,0,0,0,0,0,0,0,0,0,-1,1623,1352,0,0
406,-328,0,0,0,0,0,0,0,0,0,-1,1630,1352,0,0
413,-328,0,0,0,0,0,0,0,0,0,-1,1637,1352,0,0
420,-328,0,0,0,0,0,0,0,0,0,-1,1644,1352,0,0
427,-328,0,0,0,0,0,0,0,0,0,-1,1651,1352,0,0
434,-328,0,0,0,0,0,0,0,0,0,-1,1658,1352,0,0
441,-328,0,0,0,0,0,0,0,0,0,-1,1665,1352,0,0
448,-328,0,0,0,0,0,0,0,0,0,-1,1672,1352,0,0
455,-328,0,0,0,0,0,0,0,0,0,-1,1679,1352,0,0
462,-328,0,0,0,0,0,0,0,0,0,-1,1686,1352,0,0
469,-328,0,0,0,0,0,0,0,0,0,-1,1693,1352,0,0
476,-328,0,0,0,0,0,0,0,0,0,-1,1700,1352,0,0
483,-328,0,0,0,0,0,0,0,0,0,-1,1707,1352,0,0
490,-328,0,0,0,0,0,0,0,0,0,-1,1714,1352,0,0
497,-328,0,0,0,0,0,0,0,0,0,-1,1721,1352,0,0
504,-328,0,0,0,0,0,0,0,0,0,-1,1728,1352,0,0
511,-328,0,0,0,0,0,0,0,0,0,-1,1735,1352,0,0
518,-328,0,0,0,0,0,0,0,0,0,-1,1742,1352,0,0
525,-328,0,0,0,0,0,0,0,0,0,-1,1749,1352,0,0
532,-328,0,0,0,0,0,0,0,0,0,-1,1756,1352,0,0
539,-328,0,0,0,0,0,0,0,0,0,-1,1763,1352,0,0
546,-328,0,0,0,0,0,0,0,0,0,-1,1770,1352,0,0
553,-328,0,0,0,0,0,0,0,0,0,-1,1777,1352,0,0
560,-328,0,0,0,0,0,0,0,0,0,-1,1784,1352,0,0
567,-328,0,0,0,0,0,0,0,0,0,-1,1791,1352,0,0
574,-328,3.7522,3.00208,0,0,0,0,0,0,0,-1,1798,1352,3.75216,-3.00202
581,-328,4.58508,2.31519,0,0,0,0,0,0,0,-1,1805,1352,4.58505,-2.31517
588,-328,5.09692,2.08496,0.0457755,0.0246588,-0.00564372,0.0471892,0.0232451,-0.245444,0.0272457,0.0479392,1812,1352,5.09693,-2.08494
595,-328,6.43665,2.37549,0.0367975,0.0217494,-0.00325777,0.0374725,0.0210744,-0.204306,0.0216909,0.0493157,1819,1352,6.43663,-2.37554
602,-328,5.91699,2.32385,0,0,0,0,0,0,0,-1,1826,1352,5.91696,-2.32385
609,-328,5.61145,2.38782,0,0,0,0,0,0,0,-1,1833,1352,5.61141,-2.38777
616,-328,5.72607,2.41089,0,0,0,0,0,0,0,-1,1840,1352,5.72607,-2.41093
623,-328,5.92395,2.13611,0,0,0,0,0,0,0,-1,1847,1352,5.92391,-2.13607
630,-328,5.46277,2.12573,0,0,0,0,0,0,0,-1,1854,1352,5.46273,-2.12578
637,-328,4.77087,1.95667,-0.00283015,0.0015624,-0.00264226,0.00280199,-0.00406974,-1.13214,0.00398984,0.0440008,1861,1352,4.77092,-1.95662
644,-328,4.26465,1.49426,-0.00577712,-6.76846e-05,-0.00264643,0.000970281,-0.00681509,-1.19702,0.00489895,0.040006,1868,1352,4.26464,-1.4942
651,-328,4.04785,1.22522,-0.00647207,-0.000663473,-0.00185899,-0.00011947,-0.00701607,-1.28611,0.00463807,0.0249674,1875,1352,4.04784,-1.22523
658,-328,4.01404,1.19287,-0.00615139,-0.00143142,-0.00278812,-0.000138584,-0.00744423,-1.13661,0.00491728,0.0148895,1882,1352,4.01402,-1.19293
665,-328,4.0094,1.16431,-0.00516594,-0.00123968,-0.00232769,-0.000157809,-0.00624781,-1.13572,0.00411361,0.0142683,1889,1352,4.00941,-1.1643
672,-328,4.00171,1.13049,-0.00330088,-0.000990243,-0.00170226,-8.82726e-05,-0.00420285,-1.08354,0.00277295,0.0109496,1896,1352,4.00171,-1.13052
679,-328,4.00415,1.09204,-0.00169039,-0.000698371,-0.00142976,0.000318974,-0.00270773,-0.952361,0.00192033,0.0117324,1903,1352,4.00414,-1.09201
686,-328,3.99695,1.06506,-0.00117026,-0.000815175,-0.00142651,0.000444804,-0.00243024,-0.847309,0.00178697,0.0111374,1910,1352,3.9969,-1.06501
693,-328,4.00342,1.0332,-0.000800325,-0.000760478,-0.00163265,0.000852374,-0.00241318,-0.791499,0.00195583,0.00802713,1917,1352,4.00338,-1.03325
700,-328,4.02148,0.978516,0.00275407,-0.000273269,-0.00121427,0.00318092,-0.000700125,-0.338041,0.00238844,0.0113177,1924,1352,4.02145,-0.978533
707,-328,4.04309,0.932129,0.00780097,0.000402564,-0.000762528,0.00787874,0.000324791,-0.101643,0.00514765,0.0136698,1931,1352,4.04314,-0.932158
714,-328,4.04944,0.913818,0.0132689,0.00145991,-0.000573271,0.0132966,0.00143214,-0.0483937,0.0084277,0.0121166,1938,1352,4.04948,-0.91377
721,-328,3.99451,0.895752,0.0210935,0.00287263,-9.68789e-05,0.021094,0.00287212,-0.00531673,0.0132098,0.0200303,1945,1352,3.99449,-0.895759
728,-328,3.98462,0.859375,0.0322503,0.0055412,0.00105176,0.0322917,0.00549984,0.0392974,0.0199488,0.0366861,1952,1352,3.98468,-0.859318
735,-328,4.06543,0.742554,0.0477339,0.00929588,0.00296286,0.0479609,0.00906884,0.0764795,0.0294206,0.0450178,1959,1352,4.06544,-0.742583
742,-328,4.2594,0.356689,0.0682711,0.014883,0.00593282,0.0689224,0.0142317,0.109349,0.0420157,0.0467563,1966,1352,4.25944,-0.356633
749,-328,4.46106,0.146606,0.0945702,0.0229823,0.0102344,0.0960046,0.0215479,0.139247,0.0581664,0.0428427,1973,1352,4.46102,-0.146635
756,-328,4.56543,-0.141968,0,0,0,0,0,0,0,-1,1980,1352,4.56549,0.142024
763,-328,0,0,0,0,0,0,0,0,0,-1,1987,1352,0,0
770,-328,0,0,0,0,0,0,0,0,0,-1,1994,1352,0,0
777,-328,0,0,0,0,0,0,0,0,0,-1,2001,1352,0,0
784,-328,0,0,0,0,0,0,0,0,0,-1,2008,1352,0,0
791,-328,0,0,0,0,0,0,0,0,0,-1,2015,1352,0,0
798,-328,0,0,0,0,0,0,0,0,0,-1,2022,1352,0,0
805,-328,0,0,0,0,0,0,0,0,0,-1,2029,1352,0,0
812,-328,0,0,0,0,0,0,0,0,0,-1,2036,1352,0,0
-700,-335,0,0,0,0,0,0,0,0,0,-1,524,1359,0,0
-693,-335,0,0,0,0,0,0,0,0,0,-1,531,1359,0,0
-686,-335,0,0,0,0,0,0,0,0,0,-1,538,1359,0,0
-679,-335,0,0,0,0,0,0,0,0,0,-1,545,1359,0,0
-672,-335,0,0,0,0,0,0,0,0,0,-1,552,1359,0,0
-665,-335,0,0,0,0,0,0,0,0,0,-1,559,1359,0,0
-658,-335,0,0,0,0,0,0,0,0,0,-1,566,1359,0,0
-651,-335,0,0,0,0,0,0,0,0,0,-1,573,1359,0,0
-644,-335,0,0,0,0,0,0,0,0,0,-1,580,1359,0,0
-637,-335,-0.942078,1.90735,0.0171923,0.0209294,-0.0544227,0.0735156,-0.0353939,-0.802558,0.0641501,0.0427721,587,1359,-0.94208,-1.90738
-630,-335,-0.768188,1.32349,0.0174671,0.0183166,-0.0375715,0.0554658,-0.0196821,-0.79105,0.0449964,0.0464332,594,1359,-0.768216,-1.32345
-623,-335,-0.398682,0.669678,0,0,0,0,0,0,0,-1,601,1359,-0.398706,-0.669672
-616,-335,-0.187805,-0.0614014,0,0,0,0,0,0,0,-1,608,1359,-0.187793,0.0614277
-609,-335,0.0846558,-0.614136,0,0,0,0,0,0,0,-1,615,1359,0.0846709,0.614193
-602,-335,0.335388,-0.440063,0.012411,0.0100385,-0.00174373,0.0133337,0.00911577,-0.486713,0.00786943,0.047001,622,1359,0.335386,0.440043
-595,-335,0.0654297,0.741089,0.0107169,0.00845482,0.00164184,0.0115796,0.00759214,0.483785,0.00679259,0.040051,629,1359,0.0654568,-0.74113
-588,-335,0.0369263,0.780273,0.00901101,0.00711764,0.00357648,0.011764,0.00436467,0.656017,0.00686685,0.0253306,636,1359,0.0369447,-0.780281
-581,-335,0.0268555,0.848877,0.00703724,0.00543608,0.00501056,0.0113108,0.00116255,0.706179,0.00718442,0.0119988,643,1359,0.0268532,-0.848862
-574,-335,0.0239868,0.898926,0.00500845,0.00400225,0.00517019,0.00969996,-0.00068926,0.736897,0.00670821,0.0115862,650,1359,0.0239991,-0.898944
-567,-335,0.0109253,0.93689,0.00381445,0.00345301,0.00354327,0.0071816,8.58577e-05,0.759918,0.00475938,0.0164497,657,1359,0.010896,-0.936941
-560,-335,0.0352783,0.964233,0.0025181,0.00249181,0.00247659,0.00498158,2.8336e-05,0.782745,0.00331165,0.0236477,664,1359,0.0352548,-0.964239
-553,-335,0.043457,1.01831,0.00137682,0.00162975,0.00136827,0.00287739,0.000129179,0.831482,0.00187668,0.0255483,671,1359,0.043482,-1.01826
-546,-335,0.0222168,1.05676,0.000471707,0.000993529,-0.000114494,0.00101755,0.000447691,-1.36404,0.00058889,0.0244786,678,1359,0.0221939,-1.05681
-539,-335,0.0206299,1.09485,0.000496228,0.000905215,-0.00122449,0.00194217,-0.000540729,-0.868136,0.0015077,0.0207253,685,1359,0.0206027,-1.0949
-532,-335,0.0154419,1.13293,0.000973688,0.00158907,-0.00130999,0.00262702,-6.42637e-05,-0.900747,0.00177315,0.0149612,692,1359,0.0154445,-1.13293
-525,-335,0.0246582,1.17053,0.000400336,0.00203922,-0.000594351,0.00223207,0.000207485,-1.25704,0.00142393,0.00905707,699,1359,0.0246863,-1.17054
-518,-335,0.020874,1.21594,0.000517136,0.00295937,3.09064e-05,0.00295976,0.000516745,1.55814,0.00182547,0.0119572,706,1359,0.0208851,-1.21593
-511,-335,-0.0731201,1.25244,-2.8031e-05,0.00481703,0.00130279,0.00514512,-0.000356121,1.32409,0.00355474,0.0312802,713,1359,-0.0730928,-1.25247
-504,-335,-0.254883,1.3269,-0.00160159,0.00725226,0.00321191,0.00829471,-0.00264403,1.25697,0.00659038,0.0439138,720,1359,-0.254885,-1.32689
-497,-335,-0.388977,1.44727,-0.00466279,0.0121393,0.00591768,0.0140143,-0.00653776,1.26396,0.0121246,0.0462851,727,1359,-0.388996,-1.44724
-490,-335,-0.438293,1.60107,-0.0092662,0.0178557,0.00965042,0.0209389,-0.0123495,1.26155,0.0194312,0.0440474,734,1359,-0.438292,-1.60103
-483,-335,-0.494141,1.80945,-0.0167564,0.0257136,0.0141511,0.0299968,-0.0210396,1.27688,0.0296168,0.0483681,741,1359,-0.494153,-1.80943
-476,-335,-0.484009,2.05212,-0.0279691,0.0361707,0.0189248,0.0413383,-0.0331366,1.30424,0.0430849,0.0487646,748,1359,-0.484016,-2.05212
-469,-335,-0.491699,2.29895,0,0,0,0,0,0,0,-1,755,1359,-0.491688,-2.299
-462,-335,-1.52386,2.70825,-0.0632817,0.0665348,0.0255795,0.0713933,-0.0681402,1.3831,0.080567,0.045888,762,1359,-1.52386,-2.70831
-455,-335,-2.04486,2.65601,-0.0880688,0.0854271,0.0254236,0.0890758,-0.0917176,1.42825,0.104385,0.0484224,769,1359,-2.04488,-2.65596
-448,-335,0,0,0,0,0,0,0,0,0,-1,776,1359,0,0
-441,-335,0,0,0,0,0,0,0,0,0,-1,783,1359,0,0
-434,-335,0,0,0,0,0,0,0,0,0,-1,790,1359,0,0
-427,-335,0,0,0,0,0,0,0,0,0,-1,797,1359,0,0
-420,-335,0,0,0,0,0,0,0,0,0,-1,804,1359,0,0
-413,-335,0,0,0,0,0,0,0,0,0,-1,811,1359,0,0
-406,-335,0,0,0,0,0,0,0,0,0,-1,818,1359,0,0
-399,-335,0,0,0,0,0,0,0,0,0,-1,825,1359,0,0
-392,-335,0,0,0,0,0,0,0,0,0,-1,832,1359,0,0
-385,-335,0,0,0,0,0,0,0,0,0,-1,839,1359,0,0
-378,-335,0,0,0,0,0,0,0,0,0,-1,846,1359,0,0
-371,-335,0,0,0,0,0,0,0,0,0,-1,853,1359,0,0
-364,-335,0,0,0,0,0,0,0,0,0,-1,860,1359,0,0
-357,-335,0,0,0,0,0,0,0,0,0,-1,867,1359,0,0
-350,-335,0,0,0,0,0,0,0,0,0,-1,874,1359,0,0
-343,-335,0,0,0,0,0,0,0,0,0,-1,881,1359,0,0
-336,-335,0,0,0,0,0,0,0,0,0,-1,888,1359,0,0
-329,-335,0,0,0,0,0,0,0,0,0,-1,895,1359,0,0
-322,-335,0,0,0,0,0,0,0,0,0,-1,902,1359,0,0
-315,-335,0,0,0,0,0,0,0,0,0,-1,909,1359,0,0
-308,-335,0,0,0,0,0,0,0,0,0,-1,916,1359,0,0
-301,-335,0,0,0,0,0,0,0,0,0,-1,923,1359,0,0
-294,-335,0,0,0,0,0,0,0,0,0,-1,930,1359,0,0
-287,-335,0,0,0,0,0,0,0,0,0,-1,937,1359,0,0
-280,-335,0,0,0,0,0,0,0,0,0,-1,944,1359,0,0
-273,-335,0,0,0,0,0,0,0,0,0,-1,951,1359,0,0
-266,-335,0,0,0,0,0,0,0,0,0,-1,958,1359,0,0
-259,-335,0,0,0,0,0,0,0,0,0,-1,965,1359,0,0
-252,-335,0,0,0,0,0,0,0,0,0,-1,972,1359,0,0
-245,-335,0,0,0,0,0,0,0,0,0,-1,979,1359,0,0
-238,-335,0,0,0,0,0,0,0,0,0,-1,986,1359,0,0
-231,-335,0,0,0,0,0,0,0,0,0,-1,993,1359,0,0
-224,-335,0,0,0,0,0,0,0,0,0,-1,1000,1359,0,0
-217,-335,0,0,0,0,0,0,0,0,0,-1,1007,1359,0,0
-210,-335,0,0,0,0,0,0,0,0,0,-1,1014,1359,0,0
-203,-335,0,0,0,0,0,0,0,0,0,-1,1021,1359,0,0
-196,-335,0,0,0,0,0,0,0,0,0,-1,1028,1359,0,0
-189,-335,0,0,0,0,0,0,0,0,0,-1,1035,1359,0,0
-182,-335,0,0,0,0,0,0,0,0,0,-1,1042,1359,0,0
-175,-335,0,0,0,0,0,0,0,0,0,-1,1049,1359,0,0
-168,-335,0,0,0,0,0,0,0,0,0,-1,1056,1359,0,0
-161,-335,0,0,0,0,0,0,0,0,0,-1,1063,1359,0,0
-154,-335,0,0,0,0,0,0,0,0,0,-1,1070,1359,0,0
-147,-335,0,0,0,0,0,0,0,0,0,-1,1077,1359,0,0
-140,-335,0,0,0,0,0,0,0,0,0,-1,1084,1359,0,0
-133,-335,0,0,0,0,0,0,0,0,0,-1,1091,1359,0,0
-126,-335,0,0,0,0,0,0,0,0,0,-1,1098,1359,0,0
-119,-335,0,0,0,0,0,0,0,0,0,-1,1105,1359,0,0
-112,-335,0,0,0,0,0,0,0,0,0,-1,1112,1359,0,0
-105,-335,0,0,0,0,0,0,0,0,0,-1,1119,1359,0,0
-98,-335,0,0,0,0,0,0,0,0,0,-1,1126,1359,0,0
-91,-335,0,0,0,0,0,0,0,0,0,-1,1133,1359,0,0
-84,-335,0,0,0,0,0,0,0,0,0,-1,1140,1359,0,0
-77,-335,0,0,0,0,0,0,0,0,0,-1,1147,1359,0,0
-70,-335,0,0,0,0,0,0,0,0,0,-1,1154,1359,0,0
-63,-335,0,0,0,0,0,0,0,0,0,-1,1161,1359,0,0
-56,-335,0,0,0,0,0,0,0,0,0,-1,1168,1359,0,0
-49,-335,0,0,0,0,0,0,0,0,0,-1,1175,1359,0,0
-42,-335,0,0,0,0,0,0,0,0,0,-1,1182,1359,0,0
-35,-335,0,0,0,0,0,0,0,0,0,-1,1189,1359,0,0
-28,-335,0,0,0,0,0,0,0,0,0,-1,1196,1359,0,0
-21,-335,0,0,0,0,0,0,0,0,0,-1,1203,1359,0,0
-14,-335,0,0,0,0,0,0,0,0,0,-1,1210,1359,0,0
-7,-335,0,0,0,0,0,0,0,0,0,-1,1217,1359,0,0
0,-335,0,0,0,0,0,0,0,0,0,-1,1224,1359,0,0
7,-335,0,0,0,0,0,0,0,0,0,-1,1231,1359,0,0
14,-335,0,0,0,0,0,0,0,0,0,-1,1238,1359,0,0
21,-335,0,0,0,0,0,0,0,0,0,-1,1245,1359,0,0
28,-335,0,0,0,0,0,0,0,0,0,-1,1252,1359,0,0
35,-335,0,0,0,0,0,0,0,0,0,-1,1259,1359,0,0
42,-335,0,0,0,0,0,0,0,0,0,-1,1266,1359,0,0
49,-335,0,0,0,0,0,0,0,0,0,-1,1273,1359,0,0
56,-335,0,0,0,0,0,0,0,0,0,-1,1280,1359,0,0
63,-335,0,0,0,0,0,0,0,0,0,-1,1287,1359,0,0
70,-335,0,0,0,0,0,0,0,0,0,-1,1294,1359,0,0
77,-335,0,0,0,0,0,0,0,0,0,-1,1301,1359,0,0
84,-335,0,0,0,0,0,0,0,0,0,-1,1308,1359,0,0
91,-335,0,0,0,0,0,0,0,0,0,-1,1315,1359,0,0
98,-335,0,0,0,0,0,0,0,0,0,-1,1322,1359,0,0
105,-335,0,0,0,0,0,0,0,0,0,-1,1329,1359,0,0
112,-335,0,0,0,0,0,0,0,0,0,-1,1336,1359,0,0
119,-335,0,0,0,0,0,0,0,0,0,-1,1343,1359,0,0
126,-335,0,0,0,0,0,0,0,0,0,-1,1350,1359,0,0
133,-335,0,0,0,0,0,0,0,0,0,-1,1357,1359,0,0
140,-335,0,0,0,0,0,0,0,0,0,-1,1364,1359,0,0
147,-335,0,0,0,0,0,0,0,0,0,-1,1371,1359,0,0
154,-335,0,0,0,0,0,0,0,0,0,-1,1378,1359,0,0
161,-335,0,0,0,0,0,0,0,0,0,-1,1385,1359,0,0
168,-335,0,0,0,0,0,0,0,0,0,-1,1392,1359,0,0
175,-335,0,0,0,0,0,0,0,0,0,-1,1399,1359,0,0
182,-335,0,0,0,0,0,0,0,0,0,-1,1406,1359,0,0
189,-335,0,0,0,0,0,0,0,0,0,-1,1413,1359,0,0
196,-335,0,0,0,0,0,0,0,0,0,-1,1420,1359,0,0
203,-335,0,0,0,0,0,0,0,0,0,-1,1427,1359,0,0
210,-335,0,0,0,0,0,0,0,0,0,-1,1434,1359,0,0
217,-335,0,0,0,0,0,0,0,0,0,-1,1441,1359,0,0
224,-335,0,0,0,0,0,0,0,0,0,-1,1448,1359,0,0
231,-335,0,0,0,0,0,0,0,0,0,-1,1455,1359,0,0
238,-335,0,0,0,0,0,0,0,0,0,-1,1462,1359,0,0
245,-335,0,0,0,0,0,0,0,0,0,-1,1469,1359,0,0
252,-335,0,0,0,0,0,0,0,0,0,-1,1476,1359,0,0
259,-335,0,0,0,0,0,0,0,0,0,-1,1483,1359,0,0
266,-335,0,0,0,0,0,0,0,0,0,-1,1490,1359,0,0
273,-335,0,0,0,0,0,0,0,0,0,-1,1497,1359,0,0
280,-335,0,0,0,0,0,0,0,0,0,-1,1504,1359,0,0
287,-335,0,0,0,0,0,0,0,0,0,-1,1511,1359,0,0
294,-335,0,0,0,0,0,0,0,0,0,-1,1518,1359,0,0
301,-335,0,0,0,0,0,0,0,0,0,-1,1525,1359,0,0
308,-335,0,0,0,0,0,0,0,0,0,-1,1532,1359,0,0
315,-335,0,0,0,0,0,0,0,0,0,-1,1539,1359,0,0
322,-335,0,0,0,0,0,0,0,0,0,-1,1546,1359,0,0
329,-335,0,0,0,0,0,0,0,0,0,-1,1553,1359,0,0
336,-335,0,0,0,0,0,0,0,0,0,-1,1560,1359,0,0
343,-335,0,0,0,0,0,0,0,0,0,-1,1567,1359,0,0
350,-335,0,0,0,0,0,0,0,0,0,-1,1574,1359,0,0
357,-335,0,0,0,0,0,0,0,0,0,-1,1581,1359,0,0
364,-335,0,0,0,0,0,0,0,0,0,-1,1588,1359,0,0
371,-335,0,0,0,0,0,0,0,0,0,-1,1595,1359,0,0
378,-335,0,0,0,0,0,0,0,0,0,-1,1602,1359,0,0
385,-335,0,0,0,0,0,0,0,0,0,-1,1609,1359,0,0
392,-335,0,0,0,0,0,0,0,0,0,-1,1616,1359,0,0
399,-335,0,0,0,0,0,0,0,0,0,-1,1623,1359,0,0
406,-335,0,0,0,0,0,0,0,0,0,-1,1630,1359,0,0
413,-335,0,0,0,0,0,0,0,0,0,-1,1637,1359,0,0
420,-335,0,0,0,0,0,0,0,0,0,-1,1644,1359,0,0
427,-335,0,0,0,0,0,0,0,0,0,-1,1651,1359,0,0
434,-335,0,0,0,0,0,0,0,0,0,-1,1658,1359,0,0
441,-335,0,0,0,0,0,0,0,0,0,-1,1665,1359,0,0
448,-335,0,0,0,0,0,0,0,0,0,-1,1672,1359,0,0
455,-335,0,0,0,0,0,0,0,0,0,-1,1679,1359,0,0
462,-335,0,0,0,0,0,0,0,0,0,-1,1686,1359,0,0
469,-335,0,0,0,0,0,0,0,0,0,-1,1693,1359,0,0
476,-335,0,0,0,0,0,0,0,0,0,-1,1700,1359,0,0
483,-335,0,0,0,0,0,0,0,0,0,-1,1707,1359,0,0
490,-335,0,0,0,0,0,0,0,0,0,-1,1714,1359,0,0
497,-335,0,0,0,0,0,0,0,0,0,-1,1721,1359,0,0
504,-335,0,0,0,0,0,0,0,0,0,-1,1728,1359,0,0
511,-335,0,0,0,0,0,0,0,0,0,-1,1735,1359,0,0
518,-335,0,0,0,0,0,0,0,0,0,-1,1742,1359,0,0
525,-335,0,0,0,0,0,0,0,0,0,-1,1749,1359,0,0
532,-335,0,0,0,0,0,0,0,0,0,-1,1756,1359,0,0
539,-335,0,0,0,0,0,0,0,0,0,-1,1763,1359,0,0
546,-335,0,0,0,0,0,0,0,0,0,-1,1770,1359,0,0
553,-335,0,0,0,0,0,0,0,0,0,-1,1777,1359,0,0
560,-335,0,0,0,0,0,0,0,0,0,-1,1784,1359,0,0
567,-335,0,0,0,0,0,0,0,0,0,-1,1791,1359,0,0
574,-335,3.97437,2.31213,0,0,0,0,0,0,0,-1,1798,1359,3.97441,-2.31211
581,-335,4.65149,2.03699,0.0485498,0.0355524,-0.00500381,0.050253,0.0338492,-0.32808,0.0295906,0.0473916,1805,1359,4.65144,-2.03701
588,-335,5.20642,1.78088,0.0417596,0.0327675,-0.00159999,0.0420358,0.0324912,-0.170945,0.0254462,0.0462864,1812,1359,5.20636,-1.78087
595,-335,7.8573,2.30835,0.0336261,0.0288707,0.000200311,0.0336345,0.0288622,0.0420234,0.0210137,0.0476339,1819,1359,7.8573,-2.30837
602,-335,6.95947,2.61951,0.0253715,0.0246126,0.00101589,0.0260765,0.0239076,0.606652,0.0167084,0.0494282,1826,1359,6.95952,-2.6195
609,-335,6.20825,2.68066,0.0174373,0.0198439,0.00107949,0.0202572,0.0170241,1.20519,0.0125665,0.0479586,1833,1359,6.20825,-2.68065
616,-335,5.39355,2.38928,0.0101756,0.0147788,0.000500576,0.0148326,0.0101218,1.46372,0.00875149,0.0458425,1840,1359,5.39353,-2.38925
623,-335,4.70313,1.69165,0.00432421,0.0106741,-7.82652e-05,0.010675,0.00432325,-1.55847,0.00620022,0.0467622,1847,1359,4.70309,-1.69164
630,-335,4.49927,2.08618,0.00010057,0.00710327,-0.000911312,0.00721992,-1.60823e-05,-1.44348,0.00481865,0.0458628,1854,1359,4.49921,-2.08619
637,-335,4.08875,1.65344,0,0,0,0,0,0,0,-1,1861,1359,4.08873,-1.65347
644,-335,4.03735,1.32483,-0.00583346,0.00170928,-0.00173924,0.00209101,-0.00621518,-1.35475,0.00498873,0.0320425,1868,1359,4.03735,-1.32488
651,-335,3.97388,1.23352,-0.00642675,0.000524499,-0.00120395,0.000727115,-0.00662937,-1.40407,0.00468081,0.0122775,1875,1359,3.97393,-1.23357
658,-335,3.97473,1.21204,-0.00621594,-0.000881951,-0.00237626,2.30924e-05,-0.00712098,-1.20689,0.00475504,0.0116455,1882,1359,3.97467,-1.21209
665,-335,3.98071,1.17297,-0.00507681,-0.00118337,-0.00210885,-0.00026008,-0.0060001,-1.15812,0.00391625,0.0144742,1889,1359,3.98069,-1.17297
672,-335,3.99255,1.10974,-0.00302048,-0.00135407,-0.00155176,-0.000425974,-0.00394857,-1.03178,0.00250251,0.015562,1896,1359,3.9926,-1.1097
679,-335,3.99475,1.08716,-0.00138058,-0.00143222,-0.00130362,-0.000102526,-0.00271028,-0.775498,0.00177366,0.0126604,1903,1359,3.99471,-1.08715
686,-335,3.99243,1.05273,-0.000784366,-0.00194207,-0.00133447,9.13892e-05,-0.00281782,-0.580761,0.00190974,0.0103329,1910,1359,3.99239,-1.05278
693,-335,3.98499,1.00085,-0.000352649,-0.00221404,-0.00158175,0.000551898,-0.00311859,-0.519476,0.00228535,0.00862396,1917,1359,3.98496,-1.00085
700,-335,3.98401,0.973633,0.00280601,-0.00226644,-0.00127905,0.00311028,-0.00257071,-0.233547,0.00328485,0.00929167,1924,1359,3.98402,-0.973669
707,-335,3.98108,0.946777,0.0074222,-0.00225905,-0.000902076,0.00750554,-0.00234238,-0.092121,0.00594047,0.0130833,1931,1359,3.98113,-0.946759
714,-335,3.96997,0.917603,0.0125525,-0.0020389,-0.000731574,0.0125891,-0.00207549,-0.0499704,0.00916323,0.0168586,1938,1359,3.96991,-0.917651
721,-335,3.91345,0.819336,0.0200183,-0.0016931,-0.000228554,0.0200207,-0.0016955,-0.0105253,0.0139467,0.0318555,1945,1359,3.91345,-0.819351
728,-335,3.89111,0.755249,0.0309311,-0.000624337,0.000921194,0.030958,-0.000651206,0.0291598,0.0208591,0.0455076,1952,1359,3.89113,-0.755273
735,-335,3.87952,0.697021,0,0,0,0,0,0,0,-1,1959,1359,3.87954,-0.69706
742,-335,4.14697,0.14978,0,0,0,0,0,0,0,-1,1966,1359,4.14703,-0.149836
749,-335,4.25549,-0.0809326,0,0,0,0,0,0,0,-1,1973,1359,4.25552,0.080923
756,-335,4.38855,-0.134155,0,0,0,0,0,0,0,-1,1980,1359,4.38857,0.134099
763,-335,0,0,0,0,0,0,0,0,0,-1,1987,1359,0,0
770,-335,0,0,0,0,0,0,0,0,0,-1,1994,1359,0,0
777,-335,0,0,0,0,0,0,0,0,0,-1,2001,1359,0,0
784,-335,0,0,0,0,0,0,0,0,0,-1,2008,1359,0,0
791,-335,0,0,0,0,0,0,0,0,0,-1,2015,1359,0,0
798,-335,0,0,0,0,0,0,0,0,0,-1,2022,1359,0,0
805,-335,0,0,0,0,0,0,0,0,0,-1,2029,1359,0,0
812,-335,0,0,0,0,0,0,0,0,0,-1,2036,1359,0,0
-700,-342,0,0,0,0,0,0,0,0,0,-1,524,1366,0,0
-693,-342,0,0,0,0,0,0,0,0,0,-1,531,1366,0,0
-686,-342,0,0,0,0,0,0,0,0,0,-1,538,1366,0,0
-679,-342,0,0,0,0,0,0,0,0,0,-1,545,1366,0,0
-672,-342,0,0,0,0,0,0,0,0,0,-1,552,1366,0,0
-665,-342,0,0,0,0,0,0,0,0,0,-1,559,1366,0,0
-658,-342,0,0,0,0,0,0,0,0,0,-1,566,1366,0,0
-651,-342,0,0,0,0,0,0,0,0,0,-1,573,1366,0,0
-644,-342,0,0,0,0,0,0,0,0,0,-1,580,1366,0,0
-637,-342,-0.565247,1.71777,0.028325,0.027719,-0.0539372,0.08196,-0.025916,-0.782589,0.0650236,0.0394131,587,1366,-0.565233,-1.71776
-630,-342,-0.581787,1.0874,0.0275896,0.0237822,-0.0364211,0.0621568,-0.0107849,-0.759287,0.0454612,0.0410839,594,1366,-0.581804,-1.08735
-623,-342,-0.519775,0.221924,0,0,0,0,0,0,0,-1,601,1366,-0.519753,-0.221875
-616,-342,-0.102661,-0.122803,0.023958,0.0175053,-0.0124858,0.0336275,0.00783572,-0.658963,0.0203165,0.0428552,608,1366,-0.102682,0.122743
-609,-342,0.300781,-0.324829,0.0213667,0.0149011,-0.00512735,0.0241953,0.0120725,-0.504126,0.0139692,0.0458445,615,1366,0.300781,0.324792
-602,-342,0.00604248,0.0802002,0.0185208,0.0125755,-0.000209735,0.0185282,0.0125681,-0.0352191,0.0109217,0.043107,622,1366,0.00605524,-0.0801549
-595,-342,0.256287,0.689209,0.0157905,0.0105424,0.00293977,0.017107,0.00922591,0.421043,0.00988689,0.0382208,629,1366,0.25627,-0.689181
-588,-342,0.18811,0.699463,0.0130331,0.00876041,0.00460397,0.0159723,0.00582129,0.56817,0.00933385,0.0299908,636,1366,0.188125,-0.699413
-581,-342,0.0873413,0.790405,0.0101703,0.0067455,0.005795,0.0145006,0.0024152,0.641737,0.00897106,0.0175171,643,1366,0.0873364,-0.790402
-574,-342,0.0527344,0.909058,0.00740974,0.0049473,0.00580923,0.0121168,0.00024025,0.680973,0.00799898,0.00928492,650,1366,0.0527442,-0.909026
-567,-342,0.0612183,0.935913,0.00556433,0.00401201,0.00410899,0.00896982,0.00060652,0.692052,0.00578831,0.0156081,657,1366,0.0612164,-0.935938
-560,-342,0.0637207,0.942993,0.00372664,0.00286402,0.00299685,0.00632306,0.000267601,0.713929,0.00412906,0.0234755,664,1366,0.0637111,-0.942963
-553,-342,0.0807495,0.956055,0.00217988,0.00188742,0.00183142,0.00387089,0.000196403,0.745559,0.00251768,0.0250957,671,1366,0.0807657,-0.956005
-546,-342,0.0794678,1.02466,0.000783853,0.00106742,0.000291819,0.00125008,0.000601198,1.01154,0.000721907,0.0257575,678,1366,0.07947,-1.0246
-539,-342,0.0651245,1.09448,0.000543542,0.000681438,-0.000892344,0.00150749,-0.000282514,-0.823955,0.0011112,0.0231176,685,1366,0.0650992,-1.0945
-532,-342,0.067627,1.14307,0.000965819,0.00119997,-0.00101482,0.00210445,6.1346e-05,-0.842828,0.00138297,0.0170703,692,1366,0.0676111,-1.14307
-525,-342,0.0757446,1.17725,0.000262729,0.001549,-0.000282534,0.00160833,0.000203406,-1.36383,0.00101126,0.00992656,699,1366,0.0757508,-1.17719
-518,-342,0.06604,1.21643,0.000291339,0.00239214,0.000294777,0.00243272,0.000250761,1.434,0.00154503,0.00909062,706,1366,0.0660486,-1.21639
-511,-342,0.0237427,1.24817,-0.000290304,0.00414592,0.00146365,0.0045853,-0.000729687,1.27916,0.00332688,0.0235865,713,1366,0.0237692,-1.24814
-504,-342,-0.0338135,1.276,-0.00189817,0.00641992,0.00319123,0.00750316,-0.00298142,1.24356,0.00623811,0.0464589,720,1366,-0.0338182,-1.27594
-497,-342,0.0402832,1.1405,-0.00502081,0.0109475,0.00556002,0.0126927,-0.00676602,1.26665,0.0114069,0.0469166,727,1366,0.0402921,-1.14049
-490,-342,0.0544434,1.15247,-0.00955481,0.0161595,0.00886193,0.0189177,-0.012313,1.26906,0.018165,0.0456883,734,1366,0.0544709,-1.1525
-483,-342,-0.134277,1.56921,-0.016803,0.023226,0.0128203,0.02698,-0.0205569,1.28594,0.0275288,0.0458944,741,1366,-0.134306,-1.56918
-476,-342,-0.791443,1.92786,-0.0274862,0.0325029,0.0169944,0.0369827,-0.031966,1.31305,0.0398427,0.0460272,748,1366,-0.791453,-1.9278
-469,-342,-1.23114,2.26367,0,0,0,0,0,0,0,-1,755,1366,-1.23113,-2.26366
-462,-342,-1.58215,2.25378,-0.0606671,0.0589691,0.0229141,0.0632077,-0.0649057,1.38789,0.0739684,0.0459063,762,1366,-1.58218,-2.25377
-455,-342,-2.03485,2.41711,-0.0839472,0.0756587,0.0228565,0.0788674,-0.0871558,1.43132,0.0958934,0.0492426,769,1366,-2.03484,-2.41706
-448,-342,-2.99799,2.41333,-0.111645,0.0941847,0.018741,0.0958772,-0.113337,1.48073,0.12093,0.0499862,776,1366,-2.99797,-2.41333
-441,-342,0,0,0,0,0,0,0,0,0,-1,783,1366,0,0
-434,-342,0,0,0,0,0,0,0,0,0,-1,790,1366,0,0
-427,-342,0,0,0,0,0,0,0,0,0,-1,797,1366,0,0
-420,-342,0,0,0,0,0,0,0,0,0,-1,804,1366,0,0
-413,-342,0,0,0,0,0,0,0,0,0,-1,811,1366,0,0
-406,-342,0,0,0,0,0,0,0,0,0,-1,818,1366,0,0
-399,-342,0,0,0,0,0,0,0,0,0,-1,825,1366,0,0
-392,-342,0,0,0,0,0,0,0,0,0,-1,832,1366,0,0
-385,-342,0,0,0,0,0,0,0,0,0,-1,839,1366,0,0
-378,-342,0,0,0,0,0,0,0,0,0,-1,846,1366,0,0
-371,-342,0,0,0,0,0,0,0,0,0,-1,853,1366,0,0
-364,-342,0,0,0,0,0,0,0,0,0,-1,860,1366,0,0
-357,-342,0,0,0,0,0,0,0,0,0,-1,867,1366,0,0
-350,-342,0,0,0,0,0,0,0,0,0,-1,874,1366,0,0
-343,-342,0,0,0,0,0,0,0,0,0,-1,881,1366,0,0
-336,-342,0,0,0,0,0,0,0,0,0,-1,888,1366,0,0
-329,-342,0,0,0,0,0,0,0,0,0,-1,895,1366,0,0
-322,-342,0,0,0,0,0,0,0,0,0,-1,902,1366,0,0
-315,-342,0,0,0,0,0,0,0,0,0,-1,909,1366,0,0
-308,-342,0,0,0,0,0,0,0,0,0,-1,916,1366,0,0
-301,-342,0,0,0,0,0,0,0,0,0,-1,923,1366,0,0
-294,-342,0,0,0,0,0,0,0,0,0,-1,930,1366,0,0
-287,-342,0,0,0,0,0,0,0,0,0,-1,937,1366,0,0
-280,-342,0,0,0,0,0,0,0,0,0,-1,944,1366,0,0
-273,-342,0,0,0,0,0,0,0,0,0,-1,951,1366,0,0
-266,-342,0,0,0,0,0,0,0,0,0,-1,958,1366,0,0
-259,-342,0,0,0,0,0,0,0,0,0,-1,965,1366,0,0
-252,-342,0,0,0,0,0,0,0,0,0,-1,972,1366,0,0
-245,-342,0,0,0,0,0,0,0,0,0,-1,979,1366,0,0
-238,-342,0,0,0,0,0,0,0,0,0,-1,986,1366,0,0
-231,-342,0,0,0,0,0,0,0,0,0,-1,993,1366,0,0
-224,-342,0,0,0,0,0,0,0,0,0,-1,1000,1366,0,0
-217,-342,0,0,0,0,0,0,0,0,0,-1,1007,1366,0,0
-210,-342,0,0,0,0,0,0,0,0,0,-1,1014,1366,0,0
-203,-342,0,0,0,0,0,0,0,0,0,-1,1021,1366,0,0
-196,-342,0,0,0,0,0,0,0,0,0,-1,1028,1366,0,0
-189,-342,0,0,0,0,0,0,0,0,0,-1,1035,1366,0,0
-182,-342,0,0,0,0,0,0,0,0,0,-1,1042,1366,0,0
-175,-342,0,0,0,0,0,0,0,0,0,-1,1049,1366,0,0
-168,-342,0,0,0,0,0,0,0,0,0,-1,1056,1366,0,0
-161,-342,0,0,0,0,0,0,0,0,0,-1,1063,1366,0,0
-154,-342,0,0,0,0,0,0,0,0,0,-1,1070,1366,0,0
-147,-342,0,0,0,0,0,0,0,0,0,-1,1077,1366,0,0
-140,-342,0,0,0,0,0,0,0,0,0,-1,1084,1366,0,0
-133,-342,0,0,0,0,0,0,0,0,0,-1,1091,1366,0,0
-126,-342,0,0,0,0,0,0,0,0,0,-1,1098,1366,0,0
-119,-342,0,0,0,0,0,0,0,0,0,-1,1105,1366,0,0
-112,-342,0,0,0,0,0,0,0,0,0,-1,1112,1366,0,0
-105,-342,0,0,0,0,0,0,0,0,0,-1,1119,1366,0,0
-98,-342,0,0,0,0,0,0,0,0,0,-1,1126,1366,0,0
-91,-342,0,0,0,0,0,0,0,0,0,-1,1133,1366,0,0
-84,-342,0,0,0,0,0,0,0,0,0,-1,1140,1366,0,0
-77,-342,0,0,0,0,0,0,0,0,0,-1,1147,1366,0,0
-70,-342,0,0,0,0,0,0,0,0,0,-1,1154,1366,0,0
-63,-342,0,0,0,0,0,0,0,0,0,-1,1161,1366,0,0
-56,-342,0,0,0,0,0,0,0,0,0,-1,1168,1366,0,0
-49,-342,0,0,0,0,0,0,0,0,0,-1,1175,1366,0,0
-42,-342,0,0,0,0,0,0,0,0,0,-1,1182,1366,0,0
-35,-342,0,0,0,0,0,0,0,0,0,-1,1189,1366,0,0
-28,-342,0,0,0,0,0,0,0,0,0,-1,1196,1366,0,0
-21,-342,0,0,0,0,0,0,0,0,0,-1,1203,1366,0,0
-14,-342,0,0,0,0,0,0,0,0,0,-1,1210,1366,0,0
-7,-342,0,0,0,0,0,0,0,0,0,-1,1217,1366,0,0
0,-342,0,0,0,0,0,0,0,0,0,-1,1224,1366,0,0
7,-342,0,0,0,0,0,0,0,0,0,-1,1231,1366,0,0
14,-342,0,0,0,0,0,0,0,0,0,-1,1238,1366,0,0
21,-342,0,0,0,0,0,0,0,0,0,-1,1245,1366,0,0
28,-342,0,0,0,0,0,0,0,0,0,-1,1252,1366,0,0
35,-342,0,0,0,0,0,0,0,0,0,-1,1259,1366,0,0
42,-342,0,0,0,0,0,0,0,0,0,-1,1266,1366,0,0
49,-342,0,0,0,0,0,0,0,0,0,-1,1273,1366,0,0
56,-342,0,0,0,0,0,0,0,0,0,-1,1280,1366,0,0
63,-342,0,0,0,0,0,0,0,0,0,-1,1287,1366,0,0
70,-342,0,0,0,0,0,0,0,0,0,-1,1294,1366,0,0
77,-342,0,0,0,0,0,0,0,0,0,-1,1301,1366,0,0
84,-342,0,0,0,0,0,0,0,0,0,-1,1308,1366,0,0
91,-342,0,0,0,0,0,0,0,0,0,-1,1315,1366,0,0
98,-342,0,0,0,0,0,0,0,0,0,-1,1322,1366,0,0
105,-342,0,0,0,0,0,0,0,0,0,-1,1329,1366,0,0
112,-342,0,0,0,0,0,0,0,0,0,-1,1336,1366,0,0
119,-342,0,0,0,0,0,0,0,0,0,-1,1343,1366,0,0
126,-342,0,0,0,0,0,0,0,0,0,-1,1350,1366,0,0
133,-342,0,0,0,0,0,0,0,0,0,-1,1357,1366,0,0
140,-342,0,0,0,0,0,0,0,0,0,-1,1364,1366,0,0
147,-342,0,0,0,0,0,0,0,0,0,-1,1371,1366,0,0
154,-342,0,0,0,0,0,0,0,0,0,-1,1378,1366,0,0
161,-342,0,0,0,0,0,0,0,0,0,-1,1385,1366,0,0
168,-342,0,0,0,0,0,0,0,0,0,-1,1392,1366,0,0
175,-342,0,0,0,0,0,0,0,0,0,-1,1399,1366,0,0
182,-342,0,0,0,0,0,0,0,0,0,-1,1406,1366,0,0
189,-342,0,0,0,0,0,0,0,0,0,-1,1413,1366,0,0
196,-342,0,0,0,0,0,0,0,0,0,-1,1420,1366,0,0
203,-342,0,0,0,0,0,0,0,0,0,-1,1427,1366,0,0
210,-342,0,0,0,0,0,0,0,0,0,-1,1434,1366,0,0
217,-342,0,0,0,0,0,0,0,0,0,-1,1441,1366,0,0
224,-342,0,0,0,0,0,0,0,0,0,-1,1448,1366,0,0
231,-342,0,0,0,0,0,0,0,0,0,-1,1455,1366,0,0
238,-342,0,0,0,0,0,0,0,0,0,-1,1462,1366,0,0
245,-342,0,0,0,0,0,0,0,0,0,-1,1469,1366,0,0
252,-342,0,0,0,0,0,0,0,0,0,-1,1476,1366,0,0
259,-342,0,0,0,0,0,0,0,0,0,-1,1483,1366,0,0
266,-342,0,0,0,0,0,0,0,0,0,-1,1490,1366,0,0
273,-342,0,0,0,0,0,0,0,0,0,-1,1497,1366,0,0
280,-342,0,0,0,0,0,0,0,0,0,-1,1504,1366,0,0
287,-342,0,0,0,0,0,0,0,0,0,-1,1511,1366,0,0
294,-342,0,0,0,0,0,0,0,0,0,-1,1518,1366,0,0
301,-342,0,0,0,0,0,0,0,0,0,-1,1525,1366,0,0
308,-342,0,0,0,0,0,0,0,0,0,-1,1532,1366,0,0
315,-342,0,0,0,0,0,0,0,0,0,-1,1539,1366,0,0
322,-342,0,0,0,0,0,0,0,0,0,-1,1546,1366,0,0
329,-342,0,0,0,0,0,0,0,0,0,-1,1553,1366,0,0
336,-342,0,0,0,0,0,0,0,0,0,-1,1560,1366,0,0
343,-342,0,0,0,0,0,0,0,0,0,-1,1567,1366,0,0
350,-342,0,0,0,0,0,0,0,0,0,-1,1574,1366,0,0
357,-342,0,0,0,0,0,0,0,0,0,-1,1581,1366,0,0
364,-342,0,0,0,0,0,0,0,0,0,-1,1588,1366,0,0
371,-342,0,0,0,0,0,0,0,0,0,-1,1595,1366,0,0
378,-342,0,0,0,0,0,0,0,0,0,-1,1602,1366,0,0
385,-342,0,0,0,0,0,0,0,0,0,-1,1609,1366,0,0
392,-342,0,0,0,0,0,0,0,0,0,-1,1616,1366,0,0
399,-342,0,0,0,0,0,0,0,0,0,-1,1623,1366,0,0
406,-342,0,0,0,0,0,0,0,0,0,-1,1630,1366,0,0
413,-342,0,0,0,0,0,0,0,0,0,-1,1637,1366,0,0
420,-342,0,0,0,0,0,0,0,0,0,-1,1644,1366,0,0
427,-342,0,0,0,0,0,0,0,0,0,-1,1651,1366,0,0
434,-342,0,0,0,0,0,0,0,0,0,-1,1658,1366,0,0
441,-342,0,0,0,0,0,0,0,0,0,-1,1665,1366,0,0
448,-342,0,0,0,0,0,0,0,0,0,-1,1672,1366,0,0
455,-342,0,0,0,0,0,0,0,0,0,-1,1679,1366,0,0
462,-342,0,0,0,0,0,0,0,0,0,-1,1686,1366,0,0
469,-342,0,0,0,0,0,0,0,0,0,-1,1693,1366,0,0
476,-342,0,0,0,0,0,0,0,0,0,-1,1700,1366,0,0
483,-342,0,0,0,0,0,0,0,0,0,-1,1707,1366,0,0
490,-342,0,0,0,0,0,0,0,0,0,-1,1714,1366,0,0
497,-342,0,0,0,0,0,0,0,0,0,-1,1721,1366,0,0
504,-342,0,0,0,0,0,0,0,0,0,-1,1728,1366,0,0
511,-342,0,0,0,0,0,0,0,0,0,-1,1735,1366,0,0
518,-342,0,0,0,0,0,0,0,0,0,-1,1742,1366,0,0
525,-342,0,0,0,0,0,0,0,0,0,-1,1749,1366,0,0
532,-342,0,0,0,0,0,0,0,0,0,-1,1756,1366,0,0
539,-342,0,0,0,0,0,0,0,0,0,-1,1763,1366,0,0
546,-342,0,0,0,0,0,0,0,0,0,-1,1770,1366,0,0
553,-342,0,0,0,0,0,0,0,0,0,-1,1777,1366,0,0
560,-342,0,0,0,0,0,0,0,0,0,-1,1784,1366,0,0
567,-342,4.39063,1.55811,0,0,0,0,0,0,0,-1,1791,1366,4.39064,-1.55813
574,-342,4.0083,1.85461,0,0,0,0,0,0,0,-1,1798,1366,4.00826,-1.85464
581,-342,4.81433,1.4856,0.0416136,0.0416299,0.00101418,0.042636,0.0406075,0.789428,0.0277725,0.0463506,1805,1366,4.8143,-1.48556
588,-342,5.28638,1.4834,0.0358676,0.038146,0.00326188,0.0404618,0.0335517,0.9534,0.0249917,0.0456352,1812,1366,5.28636,-1.48338
595,-342,8.05115,3.32495,0,0,0,0,0,0,0,-1,1819,1366,8.05115,-3.32492
602,-342,7.36133,3.2373,0.0221023,0.0293179,0.00445905,0.0314458,0.0199743,1.12553,0.0183752,0.0482819,1826,1366,7.36127,-3.23733
609,-342,6.67053,3.172,0.0152786,0.0243676,0.00394863,0.0258434,0.0138028,1.21312,0.0149323,0.0456448,1833,1366,6.67054,-3.17206
616,-342,5.90344,2.96265,0.0087503,0.0188038,0.00292855,0.0195947,0.00795944,1.30704,0.0113792,0.0466805,1840,1366,5.90343,-2.96269
623,-342,4.27832,1.76404,0.00349668,0.0142758,0.00197547,0.0146264,0.00314605,1.39513,0.00888978,0.045199,1847,1366,4.27833,-1.76401
630,-342,4.02856,1.59265,-0.00027499,0.010194,0.00072751,0.0102443,-0.000325304,1.50175,0.00694051,0.0474982,1854,1366,4.02854,-1.5926
637,-342,3.97522,1.44275,-0.0030176,0.00656738,-0.000153714,0.00656985,-0.00302007,-1.55476,0.00566177,0.0490955,1861,1366,3.97522,-1.44272
644,-342,3.9314,1.27039,-0.00569346,0.00379376,-0.000777616,0.00385708,-0.00575677,-1.48955,0.00558656,0.0249191,1868,1366,3.93143,-1.27042
651,-342,3.95142,1.23975,-0.00609126,0.00214675,-0.000516491,0.002179,-0.00612352,-1.50843,0.00497052,0.0146637,1875,1366,3.95147,-1.23979
658,-342,3.93921,1.19214,-0.00594834,0.000195009,-0.00189986,0.000735073,-0.0064884,-1.29384,0.00459029,0.0179761,1882,1366,3.93916,-1.19219
665,-342,3.9585,1.14026,-0.00470474,-0.000595326,-0.00183771,0.000106597,-0.00540666,-1.20594,0.00364049,0.0163485,1889,1366,3.95844,-1.1403
672,-342,3.96851,1.11926,-0.00253447,-0.00129312,-0.00136536,-0.000413982,-0.00341361,-0.99873,0.00215107,0.0125763,1896,1366,3.96855,-1.11929
679,-342,3.96521,1.10168,-0.000936118,-0.00190881,-0.00117538,-0.00015044,-0.00269449,-0.589234,0.00174834,0.0120398,1903,1366,3.96521,-1.10171
686,-342,3.9646,1.07544,-0.000270939,-0.00291373,-0.00125174,0.000227816,-0.00341249,-0.379168,0.00235461,0.0100885,1910,1366,3.96455,-1.07542
693,-342,3.95642,1.01428,0.000214758,-0.00366621,-0.00151798,0.000737959,-0.00418941,-0.331918,0.00306865,0.0103083,1917,1366,3.95641,-1.01431
700,-342,3.94226,0.967773,0.00290164,-0.00442112,-0.00135533,0.00314445,-0.00466392,-0.177264,0.00453652,0.0120371,1924,1366,3.94227,-0.967719
707,-342,3.94238,0.933228,0.00697639,-0.00523392,-0.00108984,0.0070729,-0.00533043,-0.088325,0.00718459,0.0125837,1931,1366,3.94238,-0.933218
714,-342,3.90759,0.880005,0.0116197,-0.00595085,-0.000960581,0.0116721,-0.0060032,-0.0544535,0.0103783,0.0207518,1938,1366,3.90759,-0.880037
721,-342,3.91895,0.754639,0.0184526,-0.00659203,-0.000447048,0.0184606,-0.0066,-0.0178425,0.0149992,0.0363458,1945,1366,3.91899,-0.754583
728,-342,4.0509,0.610352,0.0285571,-0.00653259,0.000733379,0.0285724,-0.00654791,0.020888,0.0215649,0.047692,1952,1366,4.05094,-0.610377
735,-342,4.33276,0.608154,0.043108,-0.00526859,0.00293637,0.0432856,-0.00544618,0.0604025,0.0308332,0.0472516,1959,1366,4.33282,-0.608157
742,-342,4.36438,0.604736,0,0,0,0,0,0,0,-1,1966,1366,4.36437,-0.604756
749,-342,4.25208,0.571411,0,0,0,0,0,0,0,-1,1973,1366,4.25211,-0.571437
756,-342,0,0,0,0,0,0,0,0,0,-1,1980,1366,0,0
763,-342,0,0,0,0,0,0,0,0,0,-1,1987,1366,0,0
770,-342,0,0,0,0,0,0,0,0,0,-1,1994,1366,0,0
777,-342,0,0,0,0,0,0,0,0,0,-1,2001,1366,0,0
784,-342,0,0,0,0,0,0,0,0,0,-1,2008,1366,0,0
791,-342,0,0,0,0,0,0,0,0,0,-1,2015,1366,0,0
798,-342,0,0,0,0,0,0,0,0,0,-1,2022,1366,0,0
805,-342,0,0,0,0,0,0,0,0,0,-1,2029,1366,0,0
812,-342,0,0,0,0,0,0,0,0,0,-1,2036,1366,0,0
-700,-349,0,0,0,0,0,0,0,0,0,-1,524,1373,0,0
-693,-349,0,0,0,0,0,0,0,0,0,-1,531,1373,0,0
-686,-349,0,0,0,0,0,0,0,0,0,-1,538,1373,0,0
-679,-349,0,0,0,0,0,0,0,0,0,-1,545,1373,0,0
-672,-349,0,0,0,0,0,0,0,0,0,-1,552,1373,0,0
-665,-349,0,0,0,0,0,0,0,0,0,-1,559,1373,0,0
-658,-349,0,0,0,0,0,0,0,0,0,-1,566,1373,0,0
-651,-349,0,0,0,0,0,0,0,0,0,-1,573,1373,0,0
-644,-349,0,0,0,0,0,0,0,0,0,-1,580,1373,0,0
-637,-349,0,0,0,0,0,0,0,0,0,-1,587,1373,0,0
-630,-349,0.0126953,0.822754,0.0377499,0.0291647,-0.0340813,0.0678079,-0.000893246,-0.722752,0.0455059,0.0443664,594,1373,0.0126698,-0.822803
-623,-349,0.52533,-0.330811,0,0,0,0,0,0,0,-1,601,1373,0.525338,0.330862
-616,-349,-0.30249,-0.0682373,0.0331073,0.0213659,-0.00969609,0.0385715,0.0159017,-0.513181,0.0223832,0.0462786,608,1373,-0.302502,0.0682744
-609,-349,-0.133667,-0.331787,0.0296583,0.018088,-0.00255507,0.0301974,0.0175489,-0.207949,0.0175108,0.0438133,615,1373,-0.13365,0.331822
-602,-349,-0.147888,0.382446,0,0,0,0,0,0,0,-1,622,1373,-0.147896,-0.382433
-595,-349,0.0327759,0.578491,0.0219868,0.0125769,0.00471013,0.0239393,0.0106244,0.392974,0.0138504,0.042666,629,1373,0.0328014,-0.578518
-588,-349,0.0921021,0.48938,0.0181207,0.0102917,0.00595433,0.021332,0.00708037,0.49461,0.0125459,0.0383654,636,1373,0.0921025,-0.489356
-581,-349,0.128418,0.706787,0.0142701,0.00791302,0.00677333,0.0185736,0.00360952,0.566015,0.0113718,0.0274699,643,1373,0.12843,-0.706843
-574,-349,0.103638,0.896606,0.0105909,0.00575576,0.00655608,0.0151609,0.00118571,0.608757,0.00973616,0.0135193,650,1373,0.103636,-0.896571
-567,-349,0.0881958,0.952148,0.00793301,0.00440602,0.00472606,0.0112139,0.00112516,0.606827,0.00713051,0.0153002,657,1373,0.0882227,-0.9522
-560,-349,0.0874634,0.980957,0.00553482,0.00306179,0.0035147,0.00802417,0.000572438,0.616254,0.00516921,0.0202348,664,1373,0.0874596,-0.980948
-553,-349,0.10553,0.961304,0.00349565,0.00200861,0.00230394,0.00517307,0.000331186,0.629315,0.00334379,0.0247638,671,1373,0.105543,-0.961357
-546,-349,0.067688,1.01196,0.00154222,0.00105967,0.000734981,0.00207451,0.000527372,0.626801,0.00124502,0.0266643,678,1373,0.0677086,-1.01199
-539,-349,0.0568237,1.10156,0.000992457,0.000457242,-0.000558434,0.00134409,0.000105606,-0.561959,0.000863016,0.0223865,685,1373,0.0568395,-1.10152
-532,-349,0.0901489,1.14978,0.00132952,0.000810153,-0.00075956,0.00187256,0.000267112,-0.620683,0.00116955,0.0164065,692,1373,0.0901269,-1.14979
-525,-349,0.10553,1.17188,0.000539387,0.00112843,-0.000115522,0.00115027,0.000517541,-1.3839,0.000665219,0.0122335,699,1373,0.105517,-1.17191
-518,-349,0.104065,1.22046,0.000553632,0.00185834,0.000289973,0.00191988,0.000492088,1.36166,0.00115149,0.0107807,706,1373,0.104038,-1.22045
-511,-349,0.0967407,1.26343,4.44381e-05,0.00344668,0.00120286,0.00382899,-0.000337874,1.26306,0.00267242,0.0181094,713,1373,0.0967265,-1.26342
-504,-349,0.0575562,1.24768,-0.00141669,0.00548477,0.00259315,0.00635051,-0.00228243,1.24857,0.0051654,0.0393922,720,1373,0.0575698,-1.2477
-497,-349,0.613037,0.352783,0,0,0,0,0,0,0,-1,727,1373,0.613058,-0.352761
-490,-349,0.570435,0.255859,-0.00849475,0.0140305,0.00714549,0.016106,-0.0105702,1.28812,0.0155117,0.0443985,734,1373,0.570418,-0.255833
-483,-349,0.37561,0.653564,-0.0151118,0.0201016,0.0104145,0.0229511,-0.0179614,1.30372,0.0236793,0.0470384,741,1373,0.375598,-0.653558
-476,-349,-1.18079,2.14941,-0.0247842,0.0279788,0.0139075,0.0314202,-0.0282256,1.32822,0.034453,0.0479125,748,1373,-1.1808,-2.14942
-469,-349,-1.50647,2.85571,0,0,0,0,0,0,0,-1,755,1373,-1.50649,-2.8557
-462,-349,-1.66742,1.83521,0,0,0,0,0,0,0,-1,762,1373,-1.66744,-1.83518
-455,-349,-1.99829,1.92761,0,0,0,0,0,0,0,-1,769,1373,-1.99827,-1.92761
-448,-349,-2.92865,0.939209,0,0,0,0,0,0,0,-1,776,1373,-2.92863,-0.93922
-441,-349,0,0,0,0,0,0,0,0,0,-1,783,1373,0,0
-434,-349,0,0,0,0,0,0,0,0,0,-1,790,1373,0,0
-427,-349,0,0,0,0,0,0,0,0,0,-1,797,1373,0,0
-420,-349,0,0,0,0,0,0,0,0,0,-1,804,1373,0,0
-413,-349,0,0,0,0,0,0,0,0,0,-1,811,1373,0,0
-406,-349,0,0,0,0,0,0,0,0,0,-1,818,1373,0,0
-399,-349,0,0,0,0,0,0,0,0,0,-1,825,1373,0,0
-392,-349,0,0,0,0,0,0,0,0,0,-1,832,1373,0,0
-385,-349,0,0,0,0,0,0,0,0,0,-1,839,1373,0,0
-378,-349,0,0,0,0,0,0,0,0,0,-1,846,1373,0,0
-371,-349,0,0,0,0,0,0,0,0,0,-1,853,1373,0,0
-364,-349,0,0,0,0,0,0,0,0,0,-1,860,1373,0,0
-357,-349,0,0,0,0,0,0,0,0,0,-1,867,1373,0,0
-350,-349,0,0,0,0,0,0,0,0,0,-1,874,1373,0,0
-343,-349,0,0,0,0,0,0,0,0,0,-1,881,1373,0,0
-336,-349,0,0,0,0,0,0,0,0,0,-1,888,1373,0,0
-329,-349,0,0,0,0,0,0,0,0,0,-1,895,1373,0,0
-322,-349,0,0,0,0,0,0,0,0,0,-1,902,1373,0,0
-315,-349,0,0,0,0,0,0,0,0,0,-1,909,1373,0,0
-308,-349,0,0,0,0,0,0,0,0,0,-1,916,1373,0,0
-301,-349,0,0,0,0,0,0,0,0,0,-1,923,1373,0,0
-294,-349,0,0,0,0,0,0,0,0,0,-1,930,1373,0,0
-287,-349,0,0,0,0,0,0,0,0,0,-1,937,1373,0,0
-280,-349,0,0,0,0,0,0,0,0,0,-1,944,1373,0,0
-273,-349,0,0,0,0,0,0,0,0,0,-1,951,1373,0,0
-266,-349,0,0,0,0,0,0,0,0,0,-1,958,1373,0,0
-259,-349,0,0,0,0,0,0,0,0,0,-1,965,1373,0,0
-252,-349,0,0,0,0,0,0,0,0,0,-1,972,1373,0,0
-245,-349,0,0,0,0,0,0,0,0,0,-1,979,1373,0,0
-238,-349,0,0,0,0,0,0,0,0,0,-1,986,1373,0,0
-231,-349,0,0,0,0,0,0,0,0,0,-1,993,1373,0,0
-224,-349,0,0,0,0,0,0,0,0,0,-1,1000,1373,0,0
-217,-349,0,0,0,0,0,0,0,0,0,-1,1007,1373,0,0
-210,-349,0,0,0,0,0,0,0,0,0,-1,1014,1373,0,0
-203,-349,0,0,0,0,0,0,0,0,0,-1,1021,1373,0,0
-196,-349,0,0,0,0,0,0,0,0,0,-1,1028,1373,0,0
-189,-349,0,0,0,0,0,0,0,0,0,-1,1035,1373,0,0
-182,-349,0,0,0,0,0,0,0,0,0,-1,1042,1373,0,0
-175,-349,0,0,0,0,0,0,0,0,0,-1,1049,1373,0,0
-168,-349,0,0,0,0,0,0,0,0,0,-1,1056,1373,0,0
-161,-349,0,0,0,0,0,0,0,0,0,-1,1063,1373,0,0
-154,-349,0,0,0,0,0,0,0,0,0,-1,1070,1373,0,0
-147,-349,0,0,0,0,0,0,0,0,0,-1,1077,1373,0,0
-140,-349,0,0,0,0,0,0,0,0,0,-1,1084,1373,0,0
-133,-349,0,0,0,0,0,0,0,0,0,-1,1091,1373,0,0
-126,-349,0,0,0,0,0,0,0,0,0,-1,1098,1373,0,0
-119,-349,0,0,0,0,0,0,0,0,0,-1,1105,1373,0,0
-112,-349,0,0,0,0,0,0,0,0,0,-1,1112,1373,0,0
-105,-349,0,0,0,0,0,0,0,0,0,-1,1119,1373,0,0
-98,-349,0,0,0,0,0,0,0,0,0,-1,1126,1373,0,0
-91,-349,0,0,0,0,0,0,0,0,0,-1,1133,1373,0,0
-84,-349,0,0,0,0,0,0,0,0,0,-1,1140,1373,0,0
-77,-349,0,0,0,0,0,0,0,0,0,-1,1147,1373,0,0
-70,-349,0,0,0,0,0,0,0,0,0,-1,1154,1373,0,0
-63,-349,0,0,0,0,0,0,0,0,0,-1,1161,1373,0,0
-56,-349,0,0,0,0,0,0,0,0,0,-1,1168,1373,0,0
-49,-349,0,0,0,0,0,0,0,0,0,-1,1175,1373,0,0
-42,-349,0,0,0,0,0,0,0,0,0,-1,1182,1373,0,0
-35,-349,0,0,0,0,0,0,0,0,0,-1,1189,1373,0,0
-28,-349,0,0,0,0,0,0,0,0,0,-1,1196,1373,0,0
-21,-349,0,0,0,0,0,0,0,0,0,-1,1203,1373,0,0
-14,-349,0,0,0,0,0,0,0,0,0,-1,1210,1373,0,0
-7,-349,0,0,0,0,0,0,0,0,0,-1,1217,1373,0,0
0,-349,0,0,0,0,0,0,0,0,0,-1,1224,1373,0,0
7,-349,0,0,0,0,0,0,0,0,0,-1,1231,1373,0,0
14,-349,0,0,0,0,0,0,0,0,0,-1,1238,1373,0,0
21,-349,0,0,0,0,0,0,0,0,0,-1,1245,1373,0,0
28,-349,0,0,0,0,0,0,0,0,0,-1,1252,1373,0,0
35,-349,0,0,0,0,0,0,0,0,0,-1,1259,1373,0,0
42,-349,0,0,0,0,0,0,0,0,0,-1,1266,1373,0,0
49,-349,0,0,0,0,0,0,0,0,0,-1,1273,1373,0,0
56,-349,0,0,0,0,0,0,0,0,0,-1,1280,1373,0,0
63,-349,0,0,0,0,0,0,0,0,0,-1,1287,1373,0,0
70,-349,0,0,0,0,0,0,0,0,0,-1,1294,1373,0,0
77,-349,0,0,0,0,0,0,0,0,0,-1,1301,1373,0,0
84,-349,0,0,0,0,0,0,0,0,0,-1,1308,1373,0,0
91,-349,0,0,0,0,0,0,0,0,0,-1,1315,1373,0,0
98,-349,0,0,0,0,0,0,0,0,0,-1,1322,1373,0,0
105,-349,0,0,0,0,0,0,0,0,0,-1,1329,1373,0,0
112,-349,0,0,0,0,0,0,0,0,0,-1,1336,1373,0,0
119,-349,0,0,0,0,0,0,0,0,0,-1,1343,1373,0,0
126,-349,0,0,0,0,0,0,0,0,0,-1,1350,1373,0,0
133,-349,0,0,0,0,0,0,0,0,0,-1,1357,1373,0,0
140,-349,0,0,0,0,0,0,0,0,0,-1,1364,1373,0,0
147,-349,0,0,0,0,0,0,0,0,0,-1,1371,1373,0,0
154,-349,0,0,0,0,0,0,0,0,0,-1,1378,1373,0,0
161,-349,0,0,0,0,0,0,0,0,0,-1,1385,1373,0,0
168,-349,0,0,0,0,0,0,0,0,0,-1,1392,1373,0,0
175,-349,0,0,0,0,0,0,0,0,0,-1,1399,1373,0,0
182,-349,0,0,0,0,0,0,0,0,0,-1,1406,1373,0,0
189,-349,0,0,0,0,0,0,0,0,0,-1,1413,1373,0,0
196,-349,0,0,0,0,0,0,0,0,0,-1,1420,1373,0,0
203,-349,0,0,0,0,0,0,0,0,0,-1,1427,1373,0,0
210,-349,0,0,0,0,0,0,0,0,0,-1,1434,1373,0,0
217,-349,0,0,0,0,0,0,0,0,0,-1,1441,1373,0,0
224,-349,0,0,0,0,0,0,0,0,0,-1,1448,1373,0,0
231,-349,0,0,0,0,0,0,0,0,0,-1,1455,1373,0,0
238,-349,0,0,0,0,0,0,0,0,0,-1,1462,1373,0,0
245,-349,0,0,0,0,0,0,0,0,0,-1,1469,1373,0,0
252,-349,0,0,0,0,0,0,0,0,0,-1,1476,1373,0,0
259,-349,0,0,0,0,0,0,0,0,0,-1,1483,1373,0,0
266,-349,0,0,0,0,0,0,0,0,0,-1,1490,1373,0,0
273,-349,0,0,0,0,0,0,0,0,0,-1,1497,1373,0,0
280,-349,0,0,0,0,0,0,0,0,0,-1,1504,1373,0,0
287,-349,0,0,0,0,0,0,0,0,0,-1,1511,1373,0,0
294,-349,0,0,0,0,0,0,0,0,0,-1,1518,1373,0,0
301,-349,0,0,0,0,0,0,0,0,0,-1,1525,1373,0,0
308,-349,0,0,0,0,0,0,0,0,0,-1,1532,1373,0,0
315,-349,0,0,0,0,0,0,0,0,0,-1,1539,1373,0,0
322,-349,0,0,0,0,0,0,0,0,0,-1,1546,1373,0,0
329,-349,0,0,0,0,0,0,0,0,0,-1,1553,1373,0,0
336,-349,0,0,0,0,0,0,0,0,0,-1,1560,1373,0,0
343,-349,0,0,0,0,0,0,0,0,0,-1,1567,1373,0,0
350,-349,0,0,0,0,0,0,0,0,0,-1,1574,1373,0,0
357,-349,0,0,0,0,0,0,0,0,0,-1,1581,1373,0,0
364,-349,0,0,0,0,0,0,0,0,0,-1,1588,1373,0,0
371,-349,0,0,0,0,0,0,0,0,0,-1,1595,1373,0,0
378,-349,0,0,0,0,0,0,0,0,0,-1,1602,1373,0,0
385,-349,0,0,0,0,0,0,0,0,0,-1,1609,1373,0,0
392,-349,0,0,0,0,0,0,0,0,0,-1,1616,1373,0,0
399,-349,0,0,0,0,0,0,0,0,0,-1,1623,1373,0,0
406,-349,0,0,0,0,0,0,0,0,0,-1,1630,1373,0,0
413,-349,0,0,0,0,0,0,0,0,0,-1,1637,1373,0,0
420,-349,0,0,0,0,0,0,0,0,0,-1,1644,1373,0,0
427,-349,0,0,0,0,0,0,0,0,0,-1,1651,1373,0,0
434,-349,0,0,0,0,0,0,0,0,0,-1,1658,1373,0,0
441,-349,0,0,0,0,0,0,0,0,0,-1,1665,1373,0,0
448,-349,0,0,0,0,0,0,0,0,0,-1,1672,1373,0,0
455,-349,0,0,0,0,0,0,0,0,0,-1,1679,1373,0,0
462,-349,0,0,0,0,0,0,0,0,0,-1,1686,1373,0,0
469,-349,0,0,0,0,0,0,0,0,0,-1,1693,1373,0,0
476,-349,0,0,0,0,0,0,0,0,0,-1,1700,1373,0,0
483,-349,0,0,0,0,0,0,0,0,0,-1,1707,1373,0,0
490,-349,0,0,0,0,0,0,0,0,0,-1,1714,1373,0,0
497,-349,0,0,0,0,0,0,0,0,0,-1,1721,1373,0,0
504,-349,0,0,0,0,0,0,0,0,0,-1,1728,1373,0,0
511,-349,0,0,0,0,0,0,0,0,0,-1,1735,1373,0,0
518,-349,0,0,0,0,0,0,0,0,0,-1,1742,1373,0,0
525,-349,0,0,0,0,0,0,0,0,0,-1,1749,1373,0,0
532,-349,0,0,0,0,0,0,0,0,0,-1,1756,1373,0,0
539,-349,0,0,0,0,0,0,0,0,0,-1,1763,1373,0,0
546,-349,0,0,0,0,0,0,0,0,0,-1,1770,1373,0,0
553,-349,0,0,0,0,0,0,0,0,0,-1,1777,1373,0,0
560,-349,4.12451,0.832275,0.033857,0.0528167,-0.00809166,0.0558005,0.0308732,-1.21752,0.0322773,0.0439974,1784,1373,4.12452,-0.832322
567,-349,4.33533,0.8302,0.036849,0.0503738,-0.000522577,0.050394,0.0368288,-1.53223,0.0301106,0.0446715,1791,1373,4.33536,-0.830157
574,-349,4.54419,0.917236,0.0356398,0.048185,0.00366993,0.0491797,0.0346451,1.30611,0.0291745,0.0483915,1798,1373,4.54417,-0.917184
581,-349,4.7373,1.14221,0.0327129,0.0451359,0.00610465,0.0476336,0.0302153,1.18243,0.0278301,0.0487619,1805,1373,4.73735,-1.14218
588,-349,4.95251,1.22473,0.0287972,0.0416062,0.00742091,0.0450041,0.0253993,1.1414,0.0260548,0.0469624,1812,1373,4.95252,-1.22477
595,-349,3.71704,0.161255,0,0,0,0,0,0,0,-1,1819,1373,3.717,-0.161254
602,-349,3.58435,0.247681,0.0184932,0.0330494,0.00747212,0.0362022,0.0153404,1.17152,0.0209822,0.0432322,1826,1373,3.58438,-0.247696
609,-349,7.23596,3.45654,0.0129317,0.0281135,0.00651686,0.0305272,0.010518,1.21609,0.0179066,0.0442799,1833,1373,7.2359,-3.4566
616,-349,4.14709,1.61389,0.00729061,0.0223577,0.00511284,0.0239289,0.00571947,1.27266,0.014429,0.042708,1840,1373,4.14707,-1.6139
623,-349,4.00159,1.47217,0.00275169,0.0176072,0.00385892,0.0185498,0.00180909,1.33122,0.0118098,0.0445008,1847,1373,4.00161,-1.47211
630,-349,3.80493,1.21948,-0.000487099,0.0131335,0.0022742,0.0135032,-0.000856781,1.40965,0.00930089,0.0452656,1854,1373,3.80493,-1.21951
637,-349,3.83264,1.22498,-0.00287121,0.00905736,0.00109648,0.00915731,-0.00297116,1.47989,0.00729968,0.0372142,1861,1373,3.83266,-1.22494
644,-349,3.89551,1.25769,-0.00525866,0.00585971,0.000226535,0.00586432,-0.00526327,1.55043,0.00642764,0.0224558,1868,1373,3.89551,-1.25773
651,-349,3.93677,1.22302,-0.00546762,0.00374316,0.000229217,0.00374887,-0.00547332,1.54593,0.00535537,0.019532,1875,1373,3.93675,-1.22304
658,-349,3.90491,1.17529,-0.00539848,0.00131769,-0.00127142,0.00155033,-0.00563111,-1.38983,0.00436364,0.024915,1882,1373,3.90488,-1.17527
665,-349,3.89844,1.13098,-0.00361339,1.9299e-05,-0.00132435,0.000450843,-0.00404493,-1.25579,0.00285878,0.0207584,1889,1373,3.8984,-1.13101
672,-349,3.93652,1.1145,-0.0009025,-0.000965929,-0.000811435,-0.00012216,-0.00174627,-0.765866,0.00112567,0.0145978,1896,1373,3.93652,-1.11447
679,-349,3.92334,1.1012,0.00111434,-0.00205216,-0.00060027,0.00122431,-0.00216214,-0.181197,0.00198,0.0123216,1903,1373,3.92334,-1.10123
686,-349,3.92798,1.07629,0.00244858,-0.00346571,-0.00059404,0.00250766,-0.00352479,-0.0991221,0.0034993,0.0101151,1910,1373,3.92798,-1.07632
693,-349,3.92908,1.02136,0.00371272,-0.00458407,-0.000698453,0.00377111,-0.00464246,-0.0834012,0.00486625,0.0122782,1917,1373,3.92906,-1.02131
700,-349,3.91821,0.981323,0.00683553,-0.00589018,-0.00042171,0.00684949,-0.00590414,-0.0330901,0.00737005,0.0152824,1924,1373,3.91826,-0.981377
707,-349,3.90723,0.928223,0.0112685,-0.00741104,-4.30071e-05,0.0112686,-0.00741114,-0.00230234,0.0108612,0.0152173,1931,1373,3.90728,-0.928251
714,-349,3.87585,0.853882,0.0162135,-0.00899493,0.000251194,0.016216,-0.00899744,0.00996335,0.0147545,0.0172633,1938,1373,3.87581,-0.853941
721,-349,3.9458,0.70166,0.0228751,-0.0106204,0.0008751,0.0228979,-0.0106433,0.0261022,0.0197912,0.0361246,1945,1373,3.94586,-0.701647
728,-349,4.03552,0.543335,0,0,0,0,0,0,0,-1,1952,1373,4.03558,-0.543282
735,-349,4.19275,0.637939,0,0,0,0,0,0,0,-1,1959,1373,4.19273,-0.63797
742,-349,4.22339,0.599976,0,0,0,0,0,0,0,-1,1966,1373,4.22345,-0.600026
749,-349,4.22913,0.667358,0,0,0,0,0,0,0,-1,1973,1373,4.22914,-0.667332
756,-349,0,0,0,0,0,0,0,0,0,-1,1980,1373,0,0
763,-349,0,0,0,0,0,0,0,0,0,-1,1987,1373,0,0
770,-349,0,0,0,0,0,0,0,0,0,-1,1994,1373,0,0
777,-349,0,0,0,0,0,0,0,0,0,-1,2001,1373,0,0
784,-349,0,0,0,0,0,0,0,0,0,-1,2008,1373,0,0
791,-349,0,0,0,0,0,0,0,0,0,-1,2015,1373,0,0
798,-349,0,0,0,0,0,0,0,0,0,-1,2022,1373,0,0
805,-349,0,0,0,0,0,0,0,0,0,-1,2029,1373,0,0
812,-349,0,0,0,0,0,0,0,0,0,-1,2036,1373,0,0
-700,-356,0,0,0,0,0,0,0,0,0,-1,524,1380,0,0
-693,-356,0,0,0,0,0,0,0,0,0,-1,531,1380,0,0
-686,-356,0,0,0,0,0,0,0,0,0,-1,538,1380,0,0
-679,-356,0,0,0,0,0,0,0,0,0,-1,545,1380,0,0
-672,-356,0,0,0,0,0,0,0,0,0,-1,552,1380,0,0
-665,-356,0,0,0,0,0,0,0,0,0,-1,559,1380,0,0
-658,-356,0,0,0,0,0,0,0,0,0,-1,566,1380,0,0
-651,-356,0,0,0,0,0,0,0,0,0,-1,573,1380,0,0
-644,-356,0,0,0,0,0,0,0,0,0,-1,580,1380,0,0
-637,-356,0,0,0,0,0,0,0,0,0,-1,587,1380,0,0
-630,-356,0.453064,0.259155,0,0,0,0,0,0,0,-1,594,1380,0.453037,-0.259162
-623,-356,1.0058,-0.669434,0,0,0,0,0,0,0,-1,601,1380,1.00579,0.669486
-616,-356,0.266418,-0.610596,0.0431857,0.0254234,-0.00527062,0.044632,0.0239772,-0.267799,0.0257921,0.0467539,608,1380,0.266447,0.610537
-609,-356,0.255615,0.0963135,0.0390458,0.021574,0.00158311,0.0391881,0.0214318,0.0896369,0.0226584,0.0456076,615,1380,0.255636,-0.0963503
-602,-356,0.0856323,0.562744,0,0,0,0,0,0,0,-1,622,1380,0.0856127,-0.562802
-595,-356,-0.036377,0.675171,0.0291819,0.0149656,0.00773094,0.0325758,0.0115717,0.413673,0.0190686,0.042692,629,1380,-0.0363845,-0.675169
-588,-356,-0.0822754,0.64624,0.0240716,0.0122005,0.00835358,0.0283836,0.00788849,0.476516,0.0169175,0.0436844,636,1380,-0.0822732,-0.646185
-581,-356,0.0444336,0.788452,0.0191252,0.00947067,0.00861401,0.0241724,0.00442354,0.530002,0.0148615,0.0341637,643,1380,0.0444381,-0.78849
-574,-356,0.15741,0.908081,0.0144104,0.00695111,0.0079748,0.0194846,0.00187691,0.566669,0.0124115,0.0190647,650,1380,0.15741,-0.908043
-567,-356,0.127563,0.935913,0.0107971,0.00526095,0.00580011,0.0144558,0.00160225,0.562758,0.00915001,0.0148627,657,1380,0.127558,-0.935971
-560,-356,0.129395,0.980713,0.00773689,0.00375157,0.00430417,0.0104873,0.00100117,0.568608,0.00668285,0.0174374,664,1380,0.129413,-0.980704
-553,-356,0.140503,0.994141,0.00512174,0.00267385,0.00287588,0.00702329,0.000772299,0.584213,0.00444717,0.0197115,671,1380,0.140475,-0.994168
-546,-356,0.127075,1.0249,0.00256077,0.00166645,0.00115065,0.00334809,0.000879129,0.600069,0.00200435,0.0216504,678,1380,0.127104,-1.02487
-539,-356,0.125183,1.1001,0.00164821,0.000886113,-0.000359517,0.00179104,0.000743282,-0.378165,0.00103903,0.0151028,685,1380,0.12521,-1.10009
-532,-356,0.117249,1.14185,0.00184075,0.00105606,-0.000800796,0.00234015,0.000556663,-0.557613,0.00141162,0.0139157,692,1380,0.117246,-1.14184
-525,-356,0.131714,1.16272,0.000990654,0.00134422,-0.00040334,0.00160781,0.000727055,-0.991936,0.000929685,0.0122581,699,1380,0.131713,-1.16268
-518,-356,0.139954,1.20764,0.00101523,0.00191185,-0.000244472,0.00197418,0.000952905,-1.32118,0.00114002,0.0116616,706,1380,0.139952,-1.20766
-511,-356,0.143921,1.25085,0.00061777,0.00319079,0.000358122,0.00323971,0.000568855,1.43505,0.00199737,0.0145745,713,1380,0.143894,-1.25087
-504,-356,0.139771,1.22314,-0.000636616,0.00480893,0.00140077,0.00514812,-0.00097581,1.33322,0.00379935,0.0264303,720,1380,0.139744,-1.22311
-497,-356,0.130737,1.12195,-0.00325727,0.00806538,0.0028184,0.00872813,-0.00392003,1.33984,0.00747623,0.0412546,727,1380,0.130711,-1.12194
-490,-356,1.22864,-0.521484,-0.00697367,0.0117069,0.00499467,0.0129585,-0.00822526,1.32527,0.0123318,0.0471001,734,1380,1.22867,0.521543
-483,-356,0.92218,-0.458862,-0.0129074,0.016592,0.00771696,0.0184888,-0.0148042,1.32978,0.0192609,0.0458307,741,1380,0.922196,0.458825
-476,-356,-1.51801,2.30811,-0.0216007,0.0229902,0.0107071,0.0254279,-0.0240384,1.34694,0.0285632,0.0479518,748,1380,-1.51799,-2.30809
-469,-356,-1.97815,2.84314,0,0,0,0,0,0,0,-1,755,1380,-1.97817,-2.84317
-462,-356,-2.23621,3.26355,0,0,0,0,0,0,0,-1,762,1380,-2.23619,-3.26349
-455,-356,-1.33051,-0.845337,0,0,0,0,0,0,0,-1,769,1380,-1.33051,0.845381
-448,-356,-2.57733,-0.552124,0,0,0,0,0,0,0,-1,776,1380,-2.5773,0.552178
-441,-356,-3.81677,-0.263306,0,0,0,0,0,0,0,-1,783,1380,-3.81679,0.263249
-434,-356,0,0,0,0,0,0,0,0,0,-1,790,1380,0,0
-427,-356,0,0,0,0,0,0,0,0,0,-1,797,1380,0,0
-420,-356,0,0,0,0,0,0,0,0,0,-1,804,1380,0,0
-413,-356,0,0,0,0,0,0,0,0,0,-1,811,1380,0,0
-406,-356,0,0,0,0,0,0,0,0,0,-1,818,1380,0,0
-399,-356,0,0,0,0,0,0,0,0,0,-1,825,1380,0,0
-392,-356,0,0,0,0,0,0,0,0,0,-1,832,1380,0,0
-385,-356,0,0,0,0,0,0,0,0,0,-1,839,1380,0,0
-378,-356,0,0,0,0,0,0,0,0,0,-1,846,1380,0,0
-371,-356,0,0,0,0,0,0,0,0,0,-1,853,1380,0,0
-364,-356,0,0,0,0,0,0,0,0,0,-1,860,1380,0,0
-357,-356,0,0,0,0,0,0,0,0,0,-1,867,1380,0,0
-350,-356,0,0,0,0,0,0,0,0,0,-1,874,1380,0,0
-343,-356,0,0,0,0,0,0,0,0,0,-1,881,1380,0,0
-336,-356,0,0,0,0,0,0,0,0,0,-1,888,1380,0,0
-329,-356,0,0,0,0,0,0,0,0,0,-1,895,1380,0,0
-322,-356,0,0,0,0,0,0,0,0,0,-1,902,1380,0,0
-315,-356,0,0,0,0,0,0,0,0,0,-1,909,1380,0,0
-308,-356,0,0,0,0,0,0,0,0,0,-1,916,1380,0,0
-301,-356,0,0,0,0,0,0,0,0,0,-1,923,1380,0,0
-294,-356,0,0,0,0,0,0,0,0,0,-1,930,1380,0,0
-287,-356,0,0,0,0,0,0,0,0,0,-1,937,1380,0,0
-280,-356,0,0,0,0,0,0,0,0,0,-1,944,1380,0,0
-273,-356,0,0,0,0,0,0,0,0,0,-1,951,1380,0,0
-266,-356,0,0,0,0,0,0,0,0,0,-1,958,1380,0,0
-259,-356,0,0,0,0,0,0,0,0,0,-1,965,1380,0,0
-252,-356,0,0,0,0,0,0,0,0,0,-1,972,1380,0,0
-245,-356,0,0,0,0,0,0,0,0,0,-1,979,1380,0,0
-238,-356,0,0,0,0,0,0,0,0,0,-1,986,1380,0,0
-231,-356,0,0,0,0,0,0,0,0,0,-1,993,1380,0,0
-224,-356,0,0,0,0,0,0,0,0,0,-1,1000,1380,0,0
-217,-356,0,0,0,0,0,0,0,0,0,-1,1007,1380,0,0
-210,-356,0,0,0,0,0,0,0,0,0,-1,1014,1380,0,0
-203,-356,0,0,0,0,0,0,0,0,0,-1,1021,1380,0,0
-196,-356,0,0,0,0,0,0,0,0,0,-1,1028,1380,0,0
-189,-356,0,0,0,0,0,0,0,0,0,-1,1035,1380,0,0
-182,-356,0,0,0,0,0,0,0,0,0,-1,1042,1380,0,0
-175,-356,0,0,0,0,0,0,0,0,0,-1,1049,1380,0,0
-168,-356,0,0,0,0,0,0,0,0,0,-1,1056,1380,0,0
-161,-356,0,0,0,0,0,0,0,0,0,-1,1063,1380,0,0
-154,-356,0,0,0,0,0,0,0,0,0,-1,1070,1380,0,0
-147,-356,0,0,0,0,0,0,0,0,0,-1,1077,1380,0,0
-140,-356,0,0,0,0,0,0,0,0,0,-1,1084,1380,0,0
-133,-356,0,0,0,0,0,0,0,0,0,-1,1091,1380,0,0
-126,-356,0,0,0,0,0,0,0,0,0,-1,1098,1380,0,0
-119,-356,0,0,0,0,0,0,0,0,0,-1,1105,1380,0,0
-112,-356,0,0,0,0,0,0,0,0,0,-1,1112,1380,0,0
-105,-356,0,0,0,0,0,0,0,0,0,-1,1119,1380,0,0
-98,-356,0,0,0,0,0,0,0,0,0,-1,1126,1380,0,0
-91,-356,0,0,0,0,0,0,0,0,0,-1,1133,1380,0,0
-84,-356,0,0,0,0,0,0,0,0,0,-1,1140,1380,0,0
-77,-356,0,0,0,0,0,0,0,0,0,-1,1147,1380,0,0
-70,-356,0,0,0,0,0,0,0,0,0,-1,1154,1380,0,0
-63,-356,0,0,0,0,0,0,0,0,0,-1,1161,1380,0,0
-56,-356,0,0,0,0,0,0,0,0,0,-1,1168,1380,0,0
-49,-356,0,0,0,0,0,0,0,0,0,-1,1175,1380,0,0
-42,-356,0,0,0,0,0,0,0,0,0,-1,1182,1380,0,0
-35,-356,0,0,0,0,0,0,0,0,0,-1,1189,1380,0,0
-28,-356,0,0,0,0,0,0,0,0,0,-1,1196,1380,0,0
-21,-356,0,0,0,0,0,0,0,0,0,-1,1203,1380,0,0
-14,-356,0,0,0,0,0,0,0,0,0,-1,1210,1380,0,0
-7,-356,0,0,0,0,0,0,0,0,0,-1,1217,1380,0,0
0,-356,0,0,0,0,0,0,0,0,0,-1,1224,1380,0,0
7,-356,0,0,0,0,0,0,0,0,0,-1,1231,1380,0,0
14,-356,0,0,0,0,0,0,0,0,0,-1,1238,1380,0,0
21,-356,0,0,0,0,0,0,0,0,0,-1,1245,1380,0,0
28,-356,0,0,0,0,0,0,0,0,0,-1,1252,1380,0,0
35,-356,0,0,0,0,0,0,0,0,0,-1,1259,1380,0,0
42,-356,0,0,0,0,0,0,0,0,0,-1,1266,1380,0,0
49,-356,0,0,0,0,0,0,0,0,0,-1,1273,1380,0,0
56,-356,0,0,0,0,0,0,0,0,0,-1,1280,1380,0,0
63,-356,0,0,0,0,0,0,0,0,0,-1,1287,1380,0,0
70,-356,0,0,0,0,0,0,0,0,0,-1,1294,1380,0,0
77,-356,0,0,0,0,0,0,0,0,0,-1,1301,1380,0,0
84,-356,0,0,0,0,0,0,0,0,0,-1,1308,1380,0,0
91,-356,0,0,0,0,0,0,0,0,0,-1,1315,1380,0,0
98,-356,0,0,0,0,0,0,0,0,0,-1,1322,1380,0,0
105,-356,0,0,0,0,0,0,0,0,0,-1,1329,1380,0,0
112,-356,0,0,0,0,0,0,0,0,0,-1,1336,1380,0,0
119,-356,0,0,0,0,0,0,0,0,0,-1,1343,1380,0,0
126,-356,0,0,0,0,0,0,0,0,0,-1,1350,1380,0,0
133,-356,0,0,0,0,0,0,0,0,0,-1,1357,1380,0,0
140,-356,0,0,0,0,0,0,0,0,0,-1,1364,1380,0,0
147,-356,0,0,0,0,0,0,0,0,0,-1,1371,1380,0,0
154,-356,0,0,0,0,0,0,0,0,0,-1,1378,1380,0,0
161,-356,0,0,0,0,0,0,0,0,0,-1,1385,1380,0,0
168,-356,0,0,0,0,0,0,0,0,0,-1,1392,1380,0,0
175,-356,0,0,0,0,0,0,0,0,0,-1,1399,1380,0,0
182,-356,0,0,0,0,0,0,0,0,0,-1,1406,1380,0,0
189,-356,0,0,0,0,0,0,0,0,0,-1,1413,1380,0,0
196,-356,0,0,0,0,0,0,0,0,0,-1,1420,1380,0,0
203,-356,0,0,0,0,0,0,0,0,0,-1,1427,1380,0,0
210,-356,0,0,0,0,0,0,0,0,0,-1,1434,1380,0,0
217,-356,0,0,0,0,0,0,0,0,0,-1,1441,1380,0,0
224,-356,0,0,0,0,0,0,0,0,0,-1,1448,1380,0,0
231,-356,0,0,0,0,0,0,0,0,0,-1,1455,1380,0,0
238,-356,0,0,0,0,0,0,0,0,0,-1,1462,1380,0,0
245,-356,0,0,0,0,0,0,0,0,0,-1,1469,1380,0,0
252,-356,0,0,0,0,0,0,0,0,0,-1,1476,1380,0,0
259,-356,0,0,0,0,0,0,0,0,0,-1,1483,1380,0,0
266,-356,0,0,0,0,0,0,0,0,0,-1,1490,1380,0,0
273,-356,0,0,0,0,0,0,0,0,0,-1,1497,1380,0,0
280,-356,0,0,0,0,0,0,0,0,0,-1,1504,1380,0,0
287,-356,0,0,0,0,0,0,0,0,0,-1,1511,1380,0,0
294,-356,0,0,0,0,0,0,0,0,0,-1,1518,1380,0,0
301,-356,0,0,0,0,0,0,0,0,0,-1,1525,1380,0,0
308,-356,0,0,0,0,0,0,0,0,0,-1,1532,1380,0,0
315,-356,0,0,0,0,0,0,0,0,0,-1,1539,1380,0,0
322,-356,0,0,0,0,0,0,0,0,0,-1,1546,1380,0,0
329,-356,0,0,0,0,0,0,0,0,0,-1,1553,1380,0,0
336,-356,0,0,0,0,0,0,0,0,0,-1,1560,1380,0,0
343,-356,0,0,0,0,0,0,0,0,0,-1,1567,1380,0,0
350,-356,0,0,0,0,0,0,0,0,0,-1,1574,1380,0,0
357,-356,0,0,0,0,0,0,0,0,0,-1,1581,1380,0,0
364,-356,0,0,0,0,0,0,0,0,0,-1,1588,1380,0,0
371,-356,0,0,0,0,0,0,0,0,0,-1,1595,1380,0,0
378,-356,0,0,0,0,0,0,0,0,0,-1,1602,1380,0,0
385,-356,0,0,0,0,0,0,0,0,0,-1,1609,1380,0,0
392,-356,0,0,0,0,0,0,0,0,0,-1,1616,1380,0,0
399,-356,0,0,0,0,0,0,0,0,0,-1,1623,1380,0,0
406,-356,0,0,0,0,0,0,0,0,0,-1,1630,1380,0,0
413,-356,0,0,0,0,0,0,0,0,0,-1,1637,1380,0,0
420,-356,0,0,0,0,0,0,0,0,0,-1,1644,1380,0,0
427,-356,0,0,0,0,0,0,0,0,0,-1,1651,1380,0,0
434,-356,0,0,0,0,0,0,0,0,0,-1,1658,1380,0,0
441,-356,0,0,0,0,0,0,0,0,0,-1,1665,1380,0,0
448,-356,0,0,0,0,0,0,0,0,0,-1,1672,1380,0,0
455,-356,0,0,0,0,0,0,0,0,0,-1,1679,1380,0,0
462,-356,0,0,0,0,0,0,0,0,0,-1,1686,1380,0,0
469,-356,0,0,0,0,0,0,0,0,0,-1,1693,1380,0,0
476,-356,0,0,0,0,0,0,0,0,0,-1,1700,1380,0,0
483,-356,0,0,0,0,0,0,0,0,0,-1,1707,1380,0,0
490,-356,0,0,0,0,0,0,0,0,0,-1,1714,1380,0,0
497,-356,0,0,0,0,0,0,0,0,0,-1,1721,1380,0,0
504,-356,0,0,0,0,0,0,0,0,0,-1,1728,1380,0,0
511,-356,0,0,0,0,0,0,0,0,0,-1,1735,1380,0,0
518,-356,0,0,0,0,0,0,0,0,0,-1,1742,1380,0,0
525,-356,0,0,0,0,0,0,0,0,0,-1,1749,1380,0,0
532,-356,0,0,0,0,0,0,0,0,0,-1,1756,1380,0,0
539,-356,0,0,0,0,0,0,0,0,0,-1,1763,1380,0,0
546,-356,0,0,0,0,0,0,0,0,0,-1,1770,1380,0,0
553,-356,0,0,0,0,0,0,0,0,0,-1,1777,1380,0,0
560,-356,3.99939,0.292847,0.020376,0.0564812,0.00473726,0.0570924,0.0197648,1.44248,0.0334782,0.0475633,1784,1380,3.99938,-0.292901
567,-356,4.20471,0.212891,0.0227278,0.0519801,0.00827401,0.0541582,0.0205497,1.31339,0.0315698,0.0474541,1791,1380,4.20476,-0.212876
574,-356,4.51648,0.280273,0.0227575,0.0482352,0.0100478,0.0517209,0.0192718,1.23687,0.0301824,0.0456509,1798,1380,4.51648,-0.280251
581,-356,4.62976,0.767334,0,0,0,0,0,0,0,-1,1805,1380,4.62982,-0.767371
588,-356,4.71179,0.737671,0,0,0,0,0,0,0,-1,1812,1380,4.71176,-0.737693
595,-356,4.24292,0.216675,0,0,0,0,0,0,0,-1,1819,1380,4.24296,-0.216646
602,-356,4.00049,0.310669,0.0128639,0.0323599,0.00990985,0.0365126,0.00871124,1.17398,0.02202,0.0431931,1826,1380,4.0005,-0.31072
609,-356,3.87439,0.710327,0.00857701,0.0279578,0.00862803,0.0312422,0.00529256,1.20706,0.0193073,0.0400545,1833,1380,3.87436,-0.710346
616,-356,3.89612,1.10718,0.00398781,0.0225827,0.00699663,0.0249212,0.00164931,1.24824,0.0160926,0.0391603,1840,1380,3.89615,-1.10724
623,-356,3.80664,1.2019,0.000410358,0.0181226,0.00555288,0.0197195,-0.00118653,1.29077,0.0135591,0.0408685,1847,1380,3.80668,-1.20196
630,-356,3.802,1.20532,-0.00201147,0.013757,0.00373285,0.014596,-0.0028505,1.3497,0.0108069,0.0336262,1854,1380,3.80198,-1.20534
637,-356,3.81799,1.23877,-0.00372731,0.00971651,0.00230983,0.0101023,-0.00411309,1.4053,0.00844658,0.0197339,1861,1380,3.81795,-1.23878
644,-356,3.87036,1.27942,-0.00553044,0.0064921,0.00124632,0.00661994,-0.00565828,1.46858,0.00709607,0.0165841,1868,1380,3.87034,-1.27941
651,-356,3.89709,1.23267,-0.00537247,0.00425852,0.000999238,0.0043611,-0.00547505,1.4685,0.00569103,0.0151447,1875,1380,3.89714,-1.23272
658,-356,3.86072,1.18738,-0.00520949,0.00167303,-0.000505896,0.00171001,-0.00524648,-1.49781,0.00418576,0.0138375,1882,1380,3.86069,-1.18741
665,-356,3.85059,1.16309,-0.00299202,0.000194912,-0.000795185,0.000382304,-0.00317942,-1.33936,0.00225786,0.014,1889,1380,3.85062,-1.16313
672,-356,3.8811,1.12952,5.87085e-05,-0.000653051,-0.000248582,0.000136929,-0.000731273,-0.304859,0.000538988,0.0142161,1896,1380,3.88109,-1.12951
679,-356,3.89124,1.08911,0.00230976,-0.00197868,-1.74344e-05,0.00230984,-0.00197875,-0.00406534,0.00247847,0.015229,1903,1380,3.89122,-1.08908
686,-356,3.89294,1.06689,0.00412716,-0.00353655,8.48663e-05,0.0041281,-0.00353749,0.011072,0.0044301,0.0137033,1910,1380,3.8929,-1.06689
693,-356,3.90588,1.02991,0.00596922,-0.00476707,0.0001485,0.00597127,-0.00476912,0.013828,0.0062139,0.0121701,1917,1380,3.90592,-1.0299
700,-356,3.89893,0.979736,0.00914474,-0.00640324,0.000451421,0.00915783,-0.00641634,0.0290015,0.00903807,0.0165276,1924,1380,3.89889,-0.979734
707,-356,3.86023,0.912354,0.0134213,-0.00841843,0.000845433,0.013454,-0.00845111,0.0386337,0.0127564,0.0199497,1931,1380,3.86025,-0.91241
714,-356,3.80811,0.828369,0.0180668,-0.0107708,0.00117125,0.0181143,-0.0108183,0.0405264,0.0168804,0.031362,1938,1380,3.80815,-0.8284
721,-356,3.76416,0.718018,0.0238839,-0.0133643,0.00170892,0.0239621,-0.0134426,0.045751,0.0218784,0.0447354,1945,1380,3.76419,-0.718015
728,-356,3.71594,0.637085,0,0,0,0,0,0,0,-1,1952,1380,3.71597,-0.637063
735,-356,4.05164,0.705566,0.0413202,-0.017671,0.00418173,0.0416151,-0.0179659,0.0704181,0.0352909,0.0451577,1959,1380,4.05159,-0.705539
742,-356,4.02625,0.697998,0.0548099,-0.0182094,0.00678344,0.0554347,-0.0188342,0.0918519,0.044581,0.0470961,1966,1380,4.02625,-0.698036
749,-356,4.03271,0.671631,0,0,0,0,0,0,0,-1,1973,1380,4.0327,-0.671618
756,-356,0,0,0,0,0,0,0,0,0,-1,1980,1380,0,0
763,-356,0,0,0,0,0,0,0,0,0,-1,1987,1380,0,0
770,-356,0,0,0,0,0,0,0,0,0,-1,1994,1380,0,0
777,-356,0,0,0,0,0,0,0,0,0,-1,2001,1380,0,0
784,-356,0,0,0,0,0,0,0,0,0,-1,2008,1380,0,0
791,-356,0,0,0,0,0,0,0,0,0,-1,2015,1380,0,0
798,-356,0,0,0,0,0,0,0,0,0,-1,2022,1380,0,0
805,-356,0,0,0,0,0,0,0,0,0,-1,2029,1380,0,0
812,-356,0,0,0,0,0,0,0,0,0,-1,2036,1380,0,0
-700,-363,0,0,0,0,0,0,0,0,0,-1,524,1387,0,0
-693,-363,0,0,0,0,0,0,0,0,0,-1,531,1387,0,0
-686,-363,0,0,0,0,0,0,0,0,0,-1,538,1387,0,0
-679,-363,0,0,0,0,0,0,0,0,0,-1,545,1387,0,0
-672,-363,0,0,0,0,0,0,0,0,0,-1,552,1387,0,0
-665,-363,0,0,0,0,0,0,0,0,0,-1,559,1387,0,0
-658,-363,0,0,0,0,0,0,0,0,0,-1,566,1387,0,0
-651,-363,0,0,0,0,0,0,0,0,0,-1,573,1387,0,0
-644,-363,0,0,0,0,0,0,0,0,0,-1,580,1387,0,0
-637,-363,0,0,0,0,0,0,0,0,0,-1,587,1387,0,0
-630,-363,0,0,0,0,0,0,0,0,0,-1,594,1387,0,0
-623,-363,0.851074,-0.634521,0.0560336,0.0347293,-0.0106633,0.0604538,0.0303091,-0.392961,0.0349031,0.0457096,601,1387,0.851075,0.634514
-616,-363,0.728638,-0.147461,0.0528173,0.029709,-0.000490052,0.0528277,0.0296986,-0.0211941,0.0305786,0.0485638,608,1387,0.728632,0.14745
-609,-363,0.716614,0.443359,0,0,0,0,0,0,0,-1,615,1387,0.716617,-0.44338
-602,-363,0.406311,0.731812,0,0,0,0,0,0,0,-1,622,1387,0.406337,-0.731869
-595,-363,0.0453491,0.764526,0,0,0,0,0,0,0,-1,629,1387,0.0453247,-0.764553
-588,-363,-0.0601196,0.778687,0,0,0,0,0,0,0,-1,636,1387,-0.0601098,-0.778662
-581,-363,0.0418701,0.859375,0.0233886,0.0112702,0.0103963,0.0293625,0.00529627,0.521551,0.0180702,0.0393508,643,1387,0.0418809,-0.859342
-574,-363,0.137146,0.940063,0.0176946,0.00844085,0.00936685,0.023515,0.00262045,0.555994,0.0148803,0.0264171,650,1387,0.137158,-0.940086
-567,-363,0.166504,0.955078,0.0132102,0.00641052,0.00691542,0.0175163,0.00210438,0.556934,0.0110431,0.0156011,657,1387,0.166509,-0.955081
-560,-363,0.186035,0.958374,0.00958826,0.00471759,0.00515729,0.0128563,0.00144955,0.564813,0.00813087,0.013148,664,1387,0.186024,-0.958335
-553,-363,0.174988,1.00562,0.00647172,0.00356193,0.00355066,0.008854,0.00117964,0.590955,0.00555139,0.0130567,671,1387,0.175007,-1.00557
-546,-363,0.17926,1.04077,0.00340125,0.00242952,0.00173911,0.00472109,0.00110968,0.649184,0.00285044,0.0124597,678,1387,0.179283,-1.0408
-539,-363,0.178955,1.08203,0.00217036,0.00139748,7.73731e-05,0.00217803,0.00138981,0.0988036,0.00127337,0.0140163,685,1387,0.178971,-1.08203
-532,-363,0.180908,1.13965,0.00223259,0.0012694,-0.000547678,0.0024803,0.00102169,-0.424757,0.00143939,0.0122713,692,1387,0.180938,-1.1397
-525,-363,0.190186,1.15979,0.00138836,0.00139479,-0.000415705,0.0018073,0.000975861,-0.789264,0.00104455,0.00976271,699,1387,0.190193,-1.1598
-518,-363,0.194885,1.19836,0.00141349,0.00165075,-0.000502284,0.00204822,0.00101602,-0.901364,0.00118255,0.00874652,706,1387,0.194912,-1.1984
-511,-363,0.206482,1.23596,0.00113577,0.00245881,-0.000200477,0.00248852,0.00110606,-1.42367,0.0014397,0.0126393,713,1387,0.206483,-1.23591
-504,-363,0.231201,1.22839,0.00013704,0.0034617,0.000493835,0.00353351,6.5238e-05,1.42641,0.00233423,0.0185121,720,1387,0.231171,-1.22837
-497,-363,0.249573,1.09412,-0.00206901,0.00577469,0.00145162,0.00603471,-0.00232904,1.39355,0.0049843,0.0326645,727,1387,0.249586,-1.0941
-490,-363,0.186707,1.11353,-0.00516736,0.00835488,0.00307887,0.0090229,-0.00583538,1.35714,0.00864398,0.0426112,734,1387,0.186699,-1.11352
-483,-363,1.76251,-1.4939,-0.0098676,0.0122044,0.00500608,0.0132868,-0.0109499,1.35787,0.0140147,0.0427976,741,1387,1.76249,1.49392
-476,-363,-1.73938,2.38794,0,0,0,0,0,0,0,-1,748,1387,-1.73939,-2.38788
-469,-363,-2.28198,2.69641,0,0,0,0,0,0,0,-1,755,1387,-2.28199,-2.69639
-462,-363,1.25781,0.995972,0,0,0,0,0,0,0,-1,762,1387,1.25779,-0.995976
-455,-363,-0.978943,-2.26392,0,0,0,0,0,0,0,-1,769,1387,-0.978923,2.26394
-448,-363,-2.23572,-1.92493,0,0,0,0,0,0,0,-1,776,1387,-2.23571,1.92498
-441,-363,-0.933655,3.04822,0,0,0,0,0,0,0,-1,783,1387,-0.933633,-3.04818
-434,-363,-0.73053,1.54944,0,0,0,0,0,0,0,-1,790,1387,-0.730505,-1.54945
-427,-363,0,0,0,0,0,0,0,0,0,-1,797,1387,0,0
-420,-363,0,0,0,0,0,0,0,0,0,-1,804,1387,0,0
-413,-363,0,0,0,0,0,0,0,0,0,-1,811,1387,0,0
-406,-363,0,0,0,0,0,0,0,0,0,-1,818,1387,0,0
-399,-363,0,0,0,0,0,0,0,0,0,-1,825,1387,0,0
-392,-363,0,0,0,0,0,0,0,0,0,-1,832,1387,0,0
-385,-363,0,0,0,0,0,0,0,0,0,-1,839,1387,0,0
-378,-363,0,0,0,0,0,0,0,0,0,-1,846,1387,0,0
-371,-363,0,0,0,0,0,0,0,0,0,-1,853,1387,0,0
-364,-363,0,0,0,0,0,0,0,0,0,-1,860,1387,0,0
-357,-363,0,0,0,0,0,0,0,0,0,-1,867,1387,0,0
-350,-363,0,0,0,0,0,0,0,0,0,-1,874,1387,0,0
-343,-363,0,0,0,0,0,0,0,0,0,-1,881,1387,0,0
-336,-363,0,0,0,0,0,0,0,0,0,-1,888,1387,0,0
-329,-363,0,0,0,0,0,0,0,0,0,-1,895,1387,0,0
-322,-363,0,0,0,0,0,0,0,0,0,-1,902,1387,0,0
-315,-363,0,0,0,0,0,0,0,0,0,-1,909,1387,0,0
-308,-363,0,0,0,0,0,0,0,0,0,-1,916,1387,0,0
-301,-363,0,0,0,0,0,0,0,0,0,-1,923,1387,0,0
-294,-363,0,0,0,0,0,0,0,0,0,-1,930,1387,0,0
-287,-363,0,0,0,0,0,0,0,0,0,-1,937,1387,0,0
-280,-363,0,0,0,0,0,0,0,0,0,-1,944,1387,0,0
-273,-363,0,0,0,0,0,0,0,0,0,-1,951,1387,0,0
-266,-363,0,0,0,0,0,0,0,0,0,-1,958,1387,0,0
-259,-363,0,0,0,0,0,0,0,0,0,-1,965,1387,0,0
-252,-363,0,0,0,0,0,0,0,0,0,-1,972,1387,0,0
-245,-363,0,0,0,0,0,0,0,0,0,-1,979,1387,0,0
-238,-363,0,0,0,0,0,0,0,0,0,-1,986,1387,0,0
-231,-363,0,0,0,0,0,0,0,0,0,-1,993,1387,0,0
-224,-363,0,0,0,0,0,0,0,0,0,-1,1000,1387,0,0
-217,-363,0,0,0,0,0,0,0,0,0,-1,1007,1387,0,0
-210,-363,0,0,0,0,0,0,0,0,0,-1,1014,1387,0,0
-203,-363,0,0,0,0,0,0,0,0,0,-1,1021,1387,0,0
-196,-363,0,0,0,0,0,0,0,0,0,-1,1028,1387,0,0
-189,-363,0,0,0,0,0,0,0,0,0,-1,1035,1387,0,0
-182,-363,0,0,0,0,0,0,0,0,0,-1,1042,1387,0,0
-175,-363,0,0,0,0,0,0,0,0,0,-1,1049,1387,0,0
-168,-363,0,0,0,0,0,0,0,0,0,-1,1056,1387,0,0
-161,-363,0,0,0,0,0,0,0,0,0,-1,1063,1387,0,0
-154,-363,0,0,0,0,0,0,0,0,0,-1,1070,1387,0,0
-147,-363,0,0,0,0,0,0,0,0,0,-1,1077,1387,0,0
-140,-363,0,0,0,0,0,0,0,0,0,-1,1084,1387,0,0
-133,-363,0,0,0,0,0,0,0,0,0,-1,1091,1387,0,0
-126,-363,0,0,0,0,0,0,0,0,0,-1,1098,1387,0,0
-119,-363,0,0,0,0,0,0,0,0,0,-1,1105,1387,0,0
-112,-363,0,0,0,0,0,0,0,0,0,-1,1112,1387,0,0
-105,-363,0,0,0,0,0,0,0,0,0,-1,1119,1387,0,0
-98,-363,0,0,0,0,0,0,0,0,0,-1,1126,1387,0,0
-91,-363,0,0,0,0,0,0,0,0,0,-1,1133,1387,0,0
-84,-363,0,0,0,0,0,0,0,0,0,-1,1140,1387,0,0
-77,-363,0,0,0,0,0,0,0,0,0,-1,1147,1387,0,0
-70,-363,0,0,0,0,0,0,0,0,0,-1,1154,1387,0,0
-63,-363,0,0,0,0,0,0,0,0,0,-1,1161,1387,0,0
-56,-363,0,0,0,0,0,0,0,0,0,-1,1168,1387,0,0
-49,-363,0,0,0,0,0,0,0,0,0,-1,1175,1387,0,0
-42,-363,0,0,0,0,0,0,0,0,0,-1,1182,1387,0,0
-35,-363,0,0,0,0,0,0,0,0,0,-1,1189,1387,0,0
-28,-363,0,0,0,0,0,0,0,0,0,-1,1196,1387,0,0
-21,-363,0,0,0,0,0,0,0,0,0,-1,1203,1387,0,0
-14,-363,0,0,0,0,0,0,0,0,0,-1,1210,1387,0,0
-7,-363,0,0,0,0,0,0,0,0,0,-1,1217,1387,0,0
0,-363,0,0,0,0,0,0,0,0,0,-1,1224,1387,0,0
7,-363,0,0,0,0,0,0,0,0,0,-1,1231,1387,0,0
14,-363,0,0,0,0,0,0,0,0,0,-1,1238,1387,0,0
21,-363,0,0,0,0,0,0,0,0,0,-1,1245,1387,0,0
28,-363,0,0,0,0,0,0,0,0,0,-1,1252,1387,0,0
35,-363,0,0,0,0,0,0,0,0,0,-1,1259,1387,0,0
42,-363,0,0,0,0,0,0,0,0,0,-1,1266,1387,0,0
49,-363,0,0,0,0,0,0,0,0,0,-1,1273,1387,0,0
56,-363,0,0,0,0,0,0,0,0,0,-1,1280,1387,0,0
63,-363,0,0,0,0,0,0,0,0,0,-1,1287,1387,0,0
70,-363,0,0,0,0,0,0,0,0,0,-1,1294,1387,0,0
77,-363,0,0,0,0,0,0,0,0,0,-1,1301,1387,0,0
84,-363,0,0,0,0,0,0,0,0,0,-1,1308,1387,0,0
91,-363,0,0,0,0,0,0,0,0,0,-1,1315,1387,0,0
98,-363,0,0,0,0,0,0,0,0,0,-1,1322,1387,0,0
105,-363,0,0,0,0,0,0,0,0,0,-1,1329,1387,0,0
112,-363,0,0,0,0,0,0,0,0,0,-1,1336,1387,0,0
119,-363,0,0,0,0,0,0,0,0,0,-1,1343,1387,0,0
126,-363,0,0,0,0,0,0,0,0,0,-1,1350,1387,0,0
133,-363,0,0,0,0,0,0,0,0,0,-1,1357,1387,0,0
140,-363,0,0,0,0,0,0,0,0,0,-1,1364,1387,0,0
147,-363,0,0,0,0,0,0,0,0,0,-1,1371,1387,0,0
154,-363,0,0,0,0,0,0,0,0,0,-1,1378,1387,0,0
161,-363,0,0,0,0,0,0,0,0,0,-1,1385,1387,0,0
168,-363,0,0,0,0,0,0,0,0,0,-1,1392,1387,0,0
175,-363,0,0,0,0,0,0,0,0,0,-1,1399,1387,0,0
182,-363,0,0,0,0,0,0,0,0,0,-1,1406,1387,0,0
189,-363,0,0,0,0,0,0,0,0,0,-1,1413,1387,0,0
196,-363,0,0,0,0,0,0,0,0,0,-1,1420,1387,0,0
203,-363,0,0,0,0,0,0,0,0,0,-1,1427,1387,0,0
210,-363,0,0,0,0,0,0,0,0,0,-1,1434,1387,0,0
217,-363,0,0,0,0,0,0,0,0,0,-1,1441,1387,0,0
224,-363,0,0,0,0,0,0,0,0,0,-1,1448,1387,0,0
231,-363,0,0,0,0,0,0,0,0,0,-1,1455,1387,0,0
238,-363,0,0,0,0,0,0,0,0,0,-1,1462,1387,0,0
245,-363,0,0,0,0,0,0,0,0,0,-1,1469,1387,0,0
252,-363,0,0,0,0,0,0,0,0,0,-1,1476,1387,0,0
259,-363,0,0,0,0,0,0,0,0,0,-1,1483,1387,0,0
266,-363,0,0,0,0,0,0,0,0,0,-1,1490,1387,0,0
273,-363,0,0,0,0,0,0,0,0,0,-1,1497,1387,0,0
280,-363,0,0,0,0,0,0,0,0,0,-1,1504,1387,0,0
287,-363,0,0,0,0,0,0,0,0,0,-1,1511,1387,0,0
294,-363,0,0,0,0,0,0,0,0,0,-1,1518,1387,0,0
301,-363,0,0,0,0,0,0,0,0,0,-1,1525,1387,0,0
308,-363,0,0,0,0,0,0,0,0,0,-1,1532,1387,0,0
315,-363,0,0,0,0,0,0,0,0,0,-1,1539,1387,0,0
322,-363,0,0,0,0,0,0,0,0,0,-1,1546,1387,0,0
329,-363,0,0,0,0,0,0,0,0,0,-1,1553,1387,0,0
336,-363,0,0,0,0,0,0,0,0,0,-1,1560,1387,0,0
343,-363,0,0,0,0,0,0,0,0,0,-1,1567,1387,0,0
350,-363,0,0,0,0,0,0,0,0,0,-1,1574,1387,0,0
357,-363,0,0,0,0,0,0,0,0,0,-1,1581,1387,0,0
364,-363,0,0,0,0,0,0,0,0,0,-1,1588,1387,0,0
371,-363,0,0,0,0,0,0,0,0,0,-1,1595,1387,0,0
378,-363,0,0,0,0,0,0,0,0,0,-1,1602,1387,0,0
385,-363,0,0,0,0,0,0,0,0,0,-1,1609,1387,0,0
392,-363,0,0,0,0,0,0,0,0,0,-1,1616,1387,0,0
399,-363,0,0,0,0,0,0,0,0,0,-1,1623,1387,0,0
406,-363,0,0,0,0,0,0,0,0,0,-1,1630,1387,0,0
413,-363,0,0,0,0,0,0,0,0,0,-1,1637,1387,0,0
420,-363,0,0,0,0,0,0,0,0,0,-1,1644,1387,0,0
427,-363,0,0,0,0,0,0,0,0,0,-1,1651,1387,0,0
434,-363,0,0,0,0,0,0,0,0,0,-1,1658,1387,0,0
441,-363,0,0,0,0,0,0,0,0,0,-1,1665,1387,0,0
448,-363,0,0,0,0,0,0,0,0,0,-1,1672,1387,0,0
455,-363,0,0,0,0,0,0,0,0,0,-1,1679,1387,0,0
462,-363,0,0,0,0,0,0,0,0,0,-1,1686,1387,0,0
469,-363,0,0,0,0,0,0,0,0,0,-1,1693,1387,0,0
476,-363,0,0,0,0,0,0,0,0,0,-1,1700,1387,0,0
483,-363,0,0,0,0,0,0,0,0,0,-1,1707,1387,0,0
490,-363,0,0,0,0,0,0,0,0,0,-1,1714,1387,0,0
497,-363,0,0,0,0,0,0,0,0,0,-1,1721,1387,0,0
504,-363,0,0,0,0,0,0,0,0,0,-1,1728,1387,0,0
511,-363,0,0,0,0,0,0,0,0,0,-1,1735,1387,0,0
518,-363,0,0,0,0,0,0,0,0,0,-1,1742,1387,0,0
525,-363,0,0,0,0,0,0,0,0,0,-1,1749,1387,0,0
532,-363,0,0,0,0,0,0,0,0,0,-1,1756,1387,0,0
539,-363,0,0,0,0,0,0,0,0,0,-1,1763,1387,0,0
546,-363,0,0,0,0,0,0,0,0,0,-1,1770,1387,0,0
553,-363,3.5481,-0.352295,0.00722909,0.0714323,0.0152879,0.0748867,0.00377462,1.34857,0.048715,0.0398392,1777,1387,3.54809,0.352281
560,-363,3.61316,-0.410278,0.008298,0.0615417,0.0144326,0.0652022,0.00463748,1.32241,0.0420077,0.0414949,1784,1387,3.61311,0.410255
567,-363,4.11902,-0.366089,0.0102478,0.0546639,0.0148922,0.0591948,0.00571687,1.27544,0.0377024,0.0469405,1791,1387,4.11905,0.366047
574,-363,4.42871,0.312134,0.0108709,0.0487548,0.0148493,0.0538815,0.00574418,1.23836,0.0341676,0.0416315,1798,1387,4.42868,-0.312188
581,-363,3.42126,0.591675,0.0108148,0.0434552,0.0145715,0.0490137,0.00525631,1.20637,0.0310722,0.0401303,1805,1387,3.42122,-0.59163
588,-363,4.14514,0.276855,0,0,0,0,0,0,0,-1,1812,1387,4.14515,-0.276803
595,-363,4.86072,-0.0473633,0,0,0,0,0,0,0,-1,1819,1387,4.86073,0.0473824
602,-363,3.80139,0.605347,0,0,0,0,0,0,0,-1,1826,1387,3.80145,-0.605347
609,-363,4.05591,0.960449,0.00410934,0.0250326,0.0105375,0.0294197,-0.000277767,1.17629,0.0197064,0.0445321,1833,1387,4.05587,-0.960491
616,-363,4.1969,1.28174,0.00104921,0.0199771,0.00883328,0.0234589,-0.00243262,1.19532,0.01651,0.0431224,1840,1387,4.1969,-1.28176
623,-363,3.92798,1.30359,-0.00119534,0.0159534,0.00726401,0.0186168,-0.00385865,1.21937,0.0138774,0.0420152,1847,1387,3.92799,-1.30361
630,-363,3.78516,1.26514,-0.00255885,0.0120283,0.00524202,0.0137167,-0.00424719,1.25921,0.0108411,0.0269736,1854,1387,3.78519,-1.26512
637,-363,3.78894,1.29126,-0.00351753,0.00840182,0.00355151,0.00937979,-0.00449551,1.30209,0.00817468,0.0142274,1861,1387,3.78897,-1.2913
644,-363,3.84045,1.27917,-0.00472768,0.00552615,0.00227199,0.00600701,-0.00520854,1.36222,0.00648077,0.0116176,1868,1387,3.84049,-1.27912
651,-363,3.87158,1.21631,-0.00434301,0.00353001,0.00175114,0.00390194,-0.00471493,1.36152,0.00498233,0.0107639,1875,1387,3.87159,-1.21626
658,-363,3.85571,1.17249,-0.0041758,0.00118522,0.000219554,0.0011942,-0.00418478,1.52993,0.00326162,0.0107189,1882,1387,3.85567,-1.17254
665,-363,3.81689,1.16492,-0.00172308,-0.00018154,-0.000264965,-0.000137269,-0.00176735,-1.40524,0.00113525,0.0109046,1889,1387,3.81694,-1.16496
672,-363,3.82788,1.14368,0.00142621,-0.000912623,0.000329274,0.00147169,-0.000958096,0.137232,0.00141324,0.012694,1896,1387,3.82791,-1.14364
679,-363,3.85242,1.11816,0.00380372,-0.00248296,0.000579059,0.00385661,-0.00253585,0.0910875,0.00371686,0.0147506,1903,1387,3.85239,-1.11815
686,-363,3.85718,1.07788,0.00609739,-0.00428832,0.000796728,0.00615816,-0.00434908,0.0761203,0.00609626,0.0148699,1910,1387,3.85716,-1.07792
693,-363,3.85999,1.02747,0.0085344,-0.00576495,0.00109962,0.00861846,-0.00584902,0.0763019,0.00840366,0.013502,1917,1387,3.85997,-1.02745
700,-363,3.85059,0.966187,0.011751,-0.0079704,0.00138774,0.0118482,-0.00806757,0.0699078,0.0115672,0.0155968,1924,1387,3.85057,-0.966184
707,-363,3.8064,0.900513,0.0158861,-0.0107634,0.00178138,0.0160047,-0.0108819,0.0664505,0.0156166,0.0236227,1931,1387,3.80641,-0.900488
714,-363,3.75464,0.785278,0.0201589,-0.0142283,0.00209824,0.0202864,-0.0143558,0.060718,0.0200982,0.0403107,1938,1387,3.7546,-0.785264
721,-363,3.71997,0.66626,0,0,0,0,0,0,0,-1,1945,1387,3.71994,-0.666313
728,-363,4.00586,0.779297,0,0,0,0,0,0,0,-1,1952,1387,4.0058,-0.779298
735,-363,3.93506,0.792358,0.0347939,-0.0268355,0.00332801,0.0349731,-0.0270147,0.053792,0.0358868,0.045215,1959,1387,3.93509,-0.792348
742,-363,4.15112,0.67041,0.04023,-0.0306134,0.0040853,0.0404648,-0.0308482,0.0574129,0.0412972,0.0455763,1966,1387,4.15107,-0.670423
749,-363,0,0,0,0,0,0,0,0,0,-1,1973,1387,0,0
756,-363,0,0,0,0,0,0,0,0,0,-1,1980,1387,0,0
763,-363,0,0,0,0,0,0,0,0,0,-1,1987,1387,0,0
770,-363,0,0,0,0,0,0,0,0,0,-1,1994,1387,0,0
777,-363,0,0,0,0,0,0,0,0,0,-1,2001,1387,0,0
784,-363,0,0,0,0,0,0,0,0,0,-1,2008,1387,0,0
791,-363,0,0,0,0,0,0,0,0,0,-1,2015,1387,0,0
798,-363,0,0,0,0,0,0,0,0,0,-1,2022,1387,0,0
805,-363,0,0,0,0,0,0,0,0,0,-1,2029,1387,0,0
812,-363,0,0,0,0,0,0,0,0,0,-1,2036,1387,0,0
-700,-370,0,0,0,0,0,0,0,0,0,-1,524,1394,0,0
-693,-370,0,0,0,0,0,0,0,0,0,-1,531,1394,0,0
-686,-370,0,0,0,0,0,0,0,0,0,-1,538,1394,0,0
-679,-370,0,0,0,0,0,0,0,0,0,-1,545,1394,0,0
-672,-370,0,0,0,0,0,0,0,0,0,-1,552,1394,0,0
-665,-370,0,0,0,0,0,0,0,0,0,-1,559,1394,0,0
-658,-370,0,0,0,0,0,0,0,0,0,-1,566,1394,0,0
-651,-370,0,0,0,0,0,0,0,0,0,-1,573,1394,0,0
-644,-370,0,0,0,0,0,0,0,0,0,-1,580,1394,0,0
-637,-370,0,0,0,0,0,0,0,0,0,-1,587,1394,0,0
-630,-370,0,0,0,0,0,0,0,0,0,-1,594,1394,0,0
-623,-370,0.515137,-0.877319,0,0,0,0,0,0,0,-1,601,1394,0.515146,0.877331
-616,-370,1.02759,0.319214,0,0,0,0,0,0,0,-1,608,1394,1.02759,-0.319181
-609,-370,-1.02283,0.386475,0,0,0,0,0,0,0,-1,615,1394,-1.02281,-0.38651
-602,-370,-0.731567,0.566406,0.0476342,0.0238397,0.0133655,0.0536305,0.0178434,0.421726,0.031536,0.0447307,622,1394,-0.731577,-0.566438
-595,-370,1.29907,1.47229,0.0406654,0.0197995,0.0138924,0.0476061,0.0128588,0.463333,0.0284373,0.0450512,629,1394,1.29909,-1.47233
-588,-370,0.639099,1.47986,0,0,0,0,0,0,0,-1,636,1394,0.639123,-1.47985
-581,-370,-0.00274658,0.899292,0,0,0,0,0,0,0,-1,643,1394,-0.00276904,-0.89934
-574,-370,0.108032,0.950073,0.0205034,0.00996815,0.0107211,0.027181,0.00329051,0.557053,0.0171295,0.0363112,650,1394,0.10803,-0.950041
-567,-370,0.213684,0.952026,0.0154157,0.00772023,0.00806544,0.0205042,0.00263172,0.562833,0.0128821,0.0191216,657,1394,0.213684,-0.952014
-560,-370,0.211243,0.96228,0.0113474,0.00582226,0.00607742,0.0152607,0.001909,0.572077,0.00960092,0.0132766,664,1394,0.211221,-0.962325
-553,-370,0.195618,1.00671,0.0078307,0.00452893,0.00431485,0.0107997,0.00155993,0.602687,0.00674027,0.0102225,671,1394,0.19563,-1.00665
-546,-370,0.221985,1.04773,0.00432338,0.00323957,0.00242507,0.00626636,0.00129659,0.675475,0.00381945,0.0123743,678,1394,0.222009,-1.04776
-539,-370,0.256042,1.11633,0.00276777,0.00190367,0.000604992,0.00307914,0.00159229,0.47532,0.00177809,0.0159692,685,1394,0.256049,-1.1163
-532,-370,0.224609,1.16248,0.00265062,0.00138828,-0.000225709,0.00268977,0.00134914,-0.171716,0.00155294,0.0193219,692,1394,0.224633,-1.16248
-525,-370,0.233765,1.15576,0.00179074,0.00129718,-0.000403376,0.00201683,0.00107108,-0.510878,0.00116517,0.0110038,699,1394,0.233755,-1.15576
-518,-370,0.225159,1.18958,0.0017782,0.00117315,-0.000756479,0.0022904,0.000660945,-0.595182,0.0013612,0.00839714,706,1394,0.225142,-1.18961
-511,-370,0.256775,1.22375,0.00155604,0.00149869,-0.000749312,0.00227722,0.000777503,-0.766272,0.00133661,0.01316,713,1394,0.256795,-1.22374
-504,-370,0.27417,1.2489,0.000749365,0.00193027,-0.000396117,0.00205084,0.000628803,-1.27534,0.00121321,0.0177456,720,1394,0.274155,-1.24893
-497,-370,0.287476,1.24548,-0.00106747,0.00338269,0.000114025,0.00338561,-0.00107039,1.5452,0.00268593,0.0246744,727,1394,0.28748,-1.24547
-490,-370,0.242371,1.20752,-0.0035514,0.00505712,0.00122283,0.00522745,-0.00372173,1.43239,0.00519113,0.0369859,734,1394,0.242377,-1.20752
-483,-370,0.424927,0.684448,-0.00706557,0.00817097,0.0024542,0.00855652,-0.00745112,1.41497,0.00924936,0.0426485,741,1394,0.424906,-0.684492
-476,-370,0.579224,0.33252,0,0,0,0,0,0,0,-1,748,1394,0.57922,-0.332504
-469,-370,0.620422,1.25488,0,0,0,0,0,0,0,-1,755,1394,0.620415,-1.25494
-462,-370,0.992188,1.09131,0,0,0,0,0,0,0,-1,762,1394,0.992203,-1.09132
-455,-370,1.41815,1.14636,0,0,0,0,0,0,0,-1,769,1394,1.41817,-1.14637
-448,-370,-1.94965,1.38843,0,0,0,0,0,0,0,-1,776,1394,-1.94964,-1.38845
-441,-370,-1.58551,2.67761,0,0,0,0,0,0,0,-1,783,1394,-1.58549,-2.67758
-434,-370,-1.21844,1.79456,0,0,0,0,0,0,0,-1,790,1394,-1.21844,-1.79455
-427,-370,0,0,0,0,0,0,0,0,0,-1,797,1394,0,0
-420,-370,0,0,0,0,0,0,0,0,0,-1,804,1394,0,0
-413,-370,0,0,0,0,0,0,0,0,0,-1,811,1394,0,0
-406,-370,0,0,0,0,0,0,0,0,0,-1,818,1394,0,0
-399,-370,0,0,0,0,0,0,0,0,0,-1,825,1394,0,0
-392,-370,0,0,0,0,0,0,0,0,0,-1,832,1394,0,0
-385,-370,0,0,0,0,0,0,0,0,0,-1,839,1394,0,0
-378,-370,0,0,0,0,0,0,0,0,0,-1,846,1394,0,0
-371,-370,0,0,0,0,0,0,0,0,0,-1,853,1394,0,0
-364,-370,0,0,0,0,0,0,0,0,0,-1,860,1394,0,0
-357,-370,0,0,0,0,0,0,0,0,0,-1,867,1394,0,0
-350,-370,0,0,0,0,0,0,0,0,0,-1,874,1394,0,0
-343,-370,0,0,0,0,0,0,0,0,0,-1,881,1394,0,0
-336,-370,0,0,0,0,0,0,0,0,0,-1,888,1394,0,0
-329,-370,0,0,0,0,0,0,0,0,0,-1,895,1394,0,0
-322,-370,0,0,0,0,0,0,0,0,0,-1,902,1394,0,0
-315,-370,0,0,0,0,0,0,0,0,0,-1,909,1394,0,0
-308,-370,0,0,0,0,0,0,0,0,0,-1,916,1394,0,0
-301,-370,0,0,0,0,0,0,0,0,0,-1,923,1394,0,0
-294,-370,0,0,0,0,0,0,0,0,0,-1,930,1394,0,0
-287,-370,0,0,0,0,0,0,0,0,0,-1,937,1394,0,0
-280,-370,0,0,0,0,0,0,0,0,0,-1,944,1394,0,0
-273,-370,0,0,0,0,0,0,0,0,0,-1,951,1394,0,0
-266,-370,0,0,0,0,0,0,0,0,0,-1,958,1394,0,0
-259,-370,0,0,0,0,0,0,0,0,0,-1,965,1394,0,0
-252,-370,0,0,0,0,0,0,0,0,0,-1,972,1394,0,0
-245,-370,0,0,0,0,0,0,0,0,0,-1,979,1394,0,0
-238,-370,0,0,0,0,0,0,0,0,0,-1,986,1394,0,0
-231,-370,0,0,0,0,0,0,0,0,0,-1,993,1394,0,0
-224,-370,0,0,0,0,0,0,0,0,0,-1,1000,1394,0,0
-217,-370,0,0,0,0,0,0,0,0,0,-1,1007,1394,0,0
-210,-370,0,0,0,0,0,0,0,0,0,-1,1014,1394,0,0
-203,-370,0,0,0,0,0,0,0,0,0,-1,1021,1394,0,0
-196,-370,0,0,0,0,0,0,0,0,0,-1,1028,1394,0,0
-189,-370,0,0,0,0,0,0,0,0,0,-1,1035,1394,0,0
-182,-370,0,0,0,0,0,0,0,0,0,-1,1042,1394,0,0
-175,-370,0,0,0,0,0,0,0,0,0,-1,1049,1394,0,0
-168,-370,0,0,0,0,0,0,0,0,0,-1,1056,1394,0,0
-161,-370,0,0,0,0,0,0,0,0,0,-1,1063,1394,0,0
-154,-370,0,0,0,0,0,0,0,0,0,-1,1070,1394,0,0
-147,-370,0,0,0,0,0,0,0,0,0,-1,1077,1394,0,0
-140,-370,0,0,0,0,0,0,0,0,0,-1,1084,1394,0,0
-133,-370,0,0,0,0,0,0,0,0,0,-1,1091,1394,0,0
-126,-370,0,0,0,0,0,0,0,0,0,-1,1098,1394,0,0
-119,-370,0,0,0,0,0,0,0,0,0,-1,1105,1394,0,0
-112,-370,0,0,0,0,0,0,0,0,0,-1,1112,1394,0,0
-105,-370,0,0,0,0,0,0,0,0,0,-1,1119,1394,0,0
-98,-370,0,0,0,0,0,0,0,0,0,-1,1126,1394,0,0
-91,-370,0,0,0,0,0,0,0,0,0,-1,1133,1394,0,0
-84,-370,0,0,0,0,0,0,0,0,0,-1,1140,1394,0,0
-77,-370,0,0,0,0,0,0,0,0,0,-1,1147,1394,0,0
-70,-370,0,0,0,0,0,0,0,0,0,-1,1154,1394,0,0
-63,-370,0,0,0,0,0,0,0,0,0,-1,1161,1394,0,0
-56,-370,0,0,0,0,0,0,0,0,0,-1,1168,1394,0,0
-49,-370,0,0,0,0,0,0,0,0,0,-1,1175,1394,0,0
-42,-370,0,0,0,0,0,0,0,0,0,-1,1182,1394,0,0
-35,-370,0,0,0,0,0,0,0,0,0,-1,1189,1394,0,0
-28,-370,0,0,0,0,0,0,0,0,0,-1,1196,1394,0,0
-21,-370,0,0,0,0,0,0,0,0,0,-1,1203,1394,0,0
-14,-370,0,0,0,0,0,0,0,0,0,-1,1210,1394,0,0
-7,-370,0,0,0,0,0,0,0,0,0,-1,1217,1394,0,0
0,-370,0,0,0,0,0,0,0,0,0,-1,1224,1394,0,0
7,-370,0,0,0,0,0,0,0,0,0,-1,1231,1394,0,0
14,-370,0,0,0,0,0,0,0,0,0,-1,1238,1394,0,0
21,-370,0,0,0,0,0,0,0,0,0,-1,1245,1394,0,0
28,-370,0,0,0,0,0,0,0,0,0,-1,1252,1394,0,0
35,-370,0,0,0,0,0,0,0,0,0,-1,1259,1394,0,0
42,-370,0,0,0,0,0,0,0,0,0,-1,1266,1394,0,0
49,-370,0,0,0,0,0,0,0,0,0,-1,1273,1394,0,0
56,-370,0,0,0,0,0,0,0,0,0,-1,1280,1394,0,0
63,-370,0,0,0,0,0,0,0,0,0,-1,1287,1394,0,0
70,-370,0,0,0,0,0,0,0,0,0,-1,1294,1394,0,0
77,-370,0,0,0,0,0,0,0,0,0,-1,1301,1394,0,0
84,-370,0,0,0,0,0,0,0,0,0,-1,1308,1394,0,0
91,-370,0,0,0,0,0,0,0,0,0,-1,1315,1394,0,0
98,-370,0,0,0,0,0,0,0,0,0,-1,1322,1394,0,0
105,-370,0,0,0,0,0,0,0,0,0,-1,1329,1394,0,0
112,-370,0,0,0,0,0,0,0,0,0,-1,1336,1394,0,0
119,-370,0,0,0,0,0,0,0,0,0,-1,1343,1394,0,0
126,-370,0,0,0,0,0,0,0,0,0,-1,1350,1394,0,0
133,-370,0,0,0,0,0,0,0,0,0,-1,1357,1394,0,0
140,-370,0,0,0,0,0,0,0,0,0,-1,1364,1394,0,0
147,-370,0,0,0,0,0,0,0,0,0,-1,1371,1394,0,0
154,-370,0,0,0,0,0,0,0,0,0,-1,1378,1394,0,0
161,-370,0,0,0,0,0,0,0,0,0,-1,1385,1394,0,0
168,-370,0,0,0,0,0,0,0,0,0,-1,1392,1394,0,0
175,-370,0,0,0,0,0,0,0,0,0,-1,1399,1394,0,0
182,-370,0,0,0,0,0,0,0,0,0,-1,1406,1394,0,0
189,-370,0,0,0,0,0,0,0,0,0,-1,1413,1394,0,0
196,-370,0,0,0,0,0,0,0,0,0,-1,1420,1394,0,0
203,-370,0,0,0,0,0,0,0,0,0,-1,1427,1394,0,0
210,-370,0,0,0,0,0,0,0,0,0,-1,1434,1394,0,0
217,-370,0,0,0,0,0,0,0,0,0,-1,1441,1394,0,0
224,-370,0,0,0,0,0,0,0,0,0,-1,1448,1394,0,0
231,-370,0,0,0,0,0,0,0,0,0,-1,1455,1394,0,0
238,-370,0,0,0,0,0,0,0,0,0,-1,1462,1394,0,0
245,-370,0,0,0,0,0,0,0,0,0,-1,1469,1394,0,0
252,-370,0,0,0,0,0,0,0,0,0,-1,1476,1394,0,0
259,-370,0,0,0,0,0,0,0,0,0,-1,1483,1394,0,0
266,-370,0,0,0,0,0,0,0,0,0,-1,1490,1394,0,0
273,-370,0,0,0,0,0,0,0,0,0,-1,1497,1394,0,0
280,-370,0,0,0,0,0,0,0,0,0,-1,1504,1394,0,0
287,-370,0,0,0,0,0,0,0,0,0,-1,1511,1394,0,0
294,-370,0,0,0,0,0,0,0,0,0,-1,1518,1394,0,0
301,-370,0,0,0,0,0,0,0,0,0,-1,1525,1394,0,0
308,-370,0,0,0,0,0,0,0,0,0,-1,1532,1394,0,0
315,-370,0,0,0,0,0,0,0,0,0,-1,1539,1394,0,0
322,-370,0,0,0,0,0,0,0,0,0,-1,1546,1394,0,0
329,-370,0,0,0,0,0,0,0,0,0,-1,1553,1394,0,0
336,-370,0,0,0,0,0,0,0,0,0,-1,1560,1394,0,0
343,-370,0,0,0,0,0,0,0,0,0,-1,1567,1394,0,0
350,-370,0,0,0,0,0,0,0,0,0,-1,1574,1394,0,0
357,-370,0,0,0,0,0,0,0,0,0,-1,1581,1394,0,0
364,-370,0,0,0,0,0,0,0,0,0,-1,1588,1394,0,0
371,-370,0,0,0,0,0,0,0,0,0,-1,1595,1394,0,0
378,-370,0,0,0,0,0,0,0,0,0,-1,1602,1394,0,0
385,-370,0,0,0,0,0,0,0,0,0,-1,1609,1394,0,0
392,-370,0,0,0,0,0,0,0,0,0,-1,1616,1394,0,0
399,-370,0,0,0,0,0,0,0,0,0,-1,1623,1394,0,0
406,-370,0,0,0,0,0,0,0,0,0,-1,1630,1394,0,0
413,-370,0,0,0,0,0,0,0,0,0,-1,1637,1394,0,0
420,-370,0,0,0,0,0,0,0,0,0,-1,1644,1394,0,0
427,-370,0,0,0,0,0,0,0,0,0,-1,1651,1394,0,0
434,-370,0,0,0,0,0,0,0,0,0,-1,1658,1394,0,0
441,-370,0,0,0,0,0,0,0,0,0,-1,1665,1394,0,0
448,-370,0,0,0,0,0,0,0,0,0,-1,1672,1394,0,0
455,-370,0,0,0,0,0,0,0,0,0,-1,1679,1394,0,0
462,-370,0,0,0,0,0,0,0,0,0,-1,1686,1394,0,0
469,-370,0,0,0,0,0,0,0,0,0,-1,1693,1394,0,0
476,-370,0,0,0,0,0,0,0,0,0,-1,1700,1394,0,0
483,-370,0,0,0,0,0,0,0,0,0,-1,1707,1394,0,0
490,-370,0,0,0,0,0,0,0,0,0,-1,1714,1394,0,0
497,-370,0,0,0,0,0,0,0,0,0,-1,1721,1394,0,0
504,-370,0,0,0,0,0,0,0,0,0,-1,1728,1394,0,0
511,-370,0,0,0,0,0,0,0,0,0,-1,1735,1394,0,0
518,-370,0,0,0,0,0,0,0,0,0,-1,1742,1394,0,0
525,-370,0,0,0,0,0,0,0,0,0,-1,1749,1394,0,0
532,-370,0,0,0,0,0,0,0,0,0,-1,1756,1394,0,0
539,-370,0,0,0,0,0,0,0,0,0,-1,1763,1394,0,0
546,-370,3.49585,-0.562866,0.00312689,0.0941895,0.0324715,0.104582,-0.00726585,1.26104,0.0722653,0.0445287,1770,1394,3.49589,0.562844
553,-370,3.52344,-0.700317,-0.00238006,0.0781103,0.0253686,0.0854387,-0.0097084,1.28958,0.0604557,0.0412488,1777,1394,3.52345,0.700324
560,-370,6.23401,0.281372,0,0,0,0,0,0,0,-1,1784,1394,6.23406,-0.281363
567,-370,5.41968,0.196289,0.00105734,0.0568401,0.02099,0.0638559,-0.00595845,1.24823,0.0446894,0.0446747,1791,1394,5.41966,-0.196317
574,-370,4.40247,0.318115,0.00213797,0.0490658,0.0195935,0.0561708,-0.0049671,1.22292,0.0392079,0.0450766,1798,1394,4.40243,-0.318145
581,-370,3.08765,0.392578,0.00286469,0.0424314,0.0183453,0.0496283,-0.00433216,1.19695,0.03462,0.0409474,1805,1394,3.08768,-0.392534
588,-370,3.65735,-0.0192871,0,0,0,0,0,0,0,-1,1812,1394,3.65738,0.0193145
595,-370,4.74988,1.40967,0,0,0,0,0,0,0,-1,1819,1394,4.74987,-1.40973
602,-370,4.56372,1.38733,0,0,0,0,0,0,0,-1,1826,1394,4.56366,-1.38734
609,-370,4.39941,1.39807,0.000843008,0.0218809,0.0121507,0.0274333,-0.00470937,1.14217,0.0200439,0.0464122,1833,1394,4.39939,-1.39802
616,-370,4.25757,1.37341,-0.000939736,0.0172337,0.0102822,0.0218689,-0.00557496,1.14728,0.0167498,0.0467373,1840,1394,4.2576,-1.37341
623,-370,3.94116,1.36169,-0.00211227,0.0136334,0.00854624,0.0173803,-0.00585925,1.1576,0.0139562,0.04192,1847,1394,3.9412,-1.36169
630,-370,3.78247,1.32532,-0.00268216,0.0102458,0.00634656,0.0128406,-0.00527698,1.18268,0.0107598,0.0208541,1854,1394,3.78244,-1.32538
637,-370,3.78076,1.32361,-0.00313308,0.00712559,0.00446,0.00879344,-0.00480093,1.21294,0.00796074,0.0141585,1861,1394,3.78081,-1.32361
644,-370,3.81555,1.26794,-0.00396383,0.0046683,0.00301032,0.0056144,-0.00490993,1.26628,0.00608076,0.011322,1868,1394,3.81553,-1.26794
651,-370,3.84412,1.21106,-0.00352394,0.00289996,0.00228835,0.00363176,-0.00425574,1.26128,0.0045586,0.0109025,1875,1394,3.84411,-1.21108
658,-370,3.82666,1.19043,-0.00338443,0.000804504,0.000841084,0.000967073,-0.003547,1.37987,0.00274442,0.0113895,1882,1394,3.82663,-1.19038
665,-370,3.78918,1.16626,-0.000722541,-0.000465824,0.0003106,-0.000258105,-0.00093026,0.98134,0.000554536,0.012798,1889,1394,3.7892,-1.16628
672,-370,3.7793,1.12158,0.00261198,-0.00101151,0.00102821,0.00288342,-0.00128295,0.2581,0.0024639,0.014259,1896,1394,3.77934,-1.12161
679,-370,3.81042,1.0968,0.00530549,-0.00284113,0.00135556,0.00552513,-0.00306077,0.160631,0.00502467,0.013867,1903,1394,3.81048,-1.09675
686,-370,3.81677,1.05737,0.00824519,-0.0049084,0.00175199,0.00847454,-0.00513776,0.130172,0.00793738,0.0138225,1910,1394,3.81672,-1.05737
693,-370,3.80591,1.01074,0.0116139,-0.00660206,0.00238875,0.011922,-0.0069101,0.128246,0.0110003,0.0119458,1917,1394,3.8059,-1.01071
700,-370,3.80176,0.965576,0.0158083,-0.0091119,0.00305036,0.0161762,-0.00947984,0.120044,0.0149798,0.0144688,1924,1394,3.80172,-0.965589
707,-370,3.74866,0.906128,0.0205089,-0.0123896,0.00375738,0.0209326,-0.0128132,0.112285,0.0196702,0.0261562,1931,1394,3.74861,-0.906165
714,-370,3.83838,0.491333,0,0,0,0,0,0,0,-1,1938,1394,3.83833,-0.491389
721,-370,3.81274,-0.234009,0.0299788,-0.0211893,0.00520772,0.0305034,-0.0217139,0.100405,0.0302897,0.0462729,1945,1394,3.81271,0.233994
728,-370,4.10376,-0.115723,0.0337072,-0.0265851,0.00582653,0.0342651,-0.027143,0.0954609,0.0355334,0.0462297,1952,1394,4.1037,0.115753
735,-370,4.27625,-0.189453,0.0356552,-0.0323883,0.00625019,0.0362245,-0.0329576,0.0908429,0.0399572,0.046762,1959,1394,4.27627,0.189488
742,-370,4.12146,0.635132,0.0341986,-0.0381948,0.00634197,0.03475,-0.0387462,0.0867239,0.0424539,0.0478692,1966,1394,4.1215,-0.635193
749,-370,0,0,0,0,0,0,0,0,0,-1,1973,1394,0,0
756,-370,0,0,0,0,0,0,0,0,0,-1,1980,1394,0,0
763,-370,0,0,0,0,0,0,0,0,0,-1,1987,1394,0,0
770,-370,0,0,0,0,0,0,0,0,0,-1,1994,1394,0,0
777,-370,0,0,0,0,0,0,0,0,0,-1,2001,1394,0,0
784,-370,0,0,0,0,0,0,0,0,0,-1,2008,1394,0,0
791,-370,0,0,0,0,0,0,0,0,0,-1,2015,1394,0,0
798,-370,0,0,0,0,0,0,0,0,0,-1,2022,1394,0,0
805,-370,0,0,0,0,0,0,0,0,0,-1,2029,1394,0,0
812,-370,0,0,0,0,0,0,0,0,0,-1,2036,1394,0,0
-700,-377,0,0,0,0,0,0,0,0,0,-1,524,1401,0,0
-693,-377,0,0,0,0,0,0,0,0,0,-1,531,1401,0,0
-686,-377,0,0,0,0,0,0,0,0,0,-1,538,1401,0,0
-679,-377,0,0,0,0,0,0,0,0,0,-1,545,1401,0,0
-672,-377,0,0,0,0,0,0,0,0,0,-1,552,1401,0,0
-665,-377,0,0,0,0,0,0,0,0,0,-1,559,1401,0,0
-658,-377,0,0,0,0,0,0,0,0,0,-1,566,1401,0,0
-651,-377,0,0,0,0,0,0,0,0,0,-1,573,1401,0,0
-644,-377,0,0,0,0,0,0,0,0,0,-1,580,1401,0,0
-637,-377,0,0,0,0,0,0,0,0,0,-1,587,1401,0,0
-630,-377,0,0,0,0,0,0,0,0,0,-1,594,1401,0,0
-623,-377,0,0,0,0,0,0,0,0,0,-1,601,1401,0,0
-616,-377,-0.70166,-0.917114,0.061128,0.0367802,0.0100449,0.0647371,0.033171,0.344935,0.0373798,0.045011,608,1401,-0.70169,0.917146
-609,-377,-0.730469,-0.335449,0,0,0,0,0,0,0,-1,615,1401,-0.730471,0.335393
-602,-377,-0.637268,0.21167,0.0512276,0.0261451,0.0163304,0.0592768,0.0180959,0.457946,0.0350779,0.0419576,622,1401,-0.637288,-0.211624
-595,-377,0.813049,0.705078,0.0440319,0.02184,0.016191,0.0525642,0.0133077,0.484997,0.0315566,0.0431845,629,1401,0.813054,-0.705097
-588,-377,0.276306,0.766235,0.0364705,0.018023,0.0148631,0.0447393,0.00975414,0.507691,0.0271649,0.0474569,636,1401,0.276317,-0.766187
-581,-377,-0.0626831,0.846436,0.029326,0.0146257,0.0134001,0.0372595,0.00669227,0.534548,0.0229367,0.048031,643,1401,-0.0626535,-0.846494
-574,-377,0.0680542,0.891602,0.0226222,0.0115092,0.0116415,0.0299653,0.00416616,0.562737,0.0187431,0.0437796,650,1401,0.0680248,-0.891638
-567,-377,0.222046,0.918335,0.017104,0.00910014,0.00885648,0.0228208,0.00338339,0.573196,0.0142208,0.0241293,657,1401,0.222039,-0.91828
-560,-377,0.238159,0.966797,0.012714,0.00704125,0.00670412,0.017157,0.00259818,0.585278,0.0106779,0.0142567,664,1401,0.238142,-0.966822
-553,-377,0.229736,1.01013,0.00892576,0.00561202,0.0048679,0.012411,0.00212674,0.621365,0.00766411,0.0111229,671,1401,0.229731,-1.01017
-546,-377,0.242004,1.05273,0.00515149,0.00418539,0.00300572,0.00771273,0.00162415,0.705725,0.00469503,0.0143764,678,1401,0.242017,-1.05279
-539,-377,0.286316,1.10901,0.00331979,0.0026274,0.00116325,0.00418727,0.00175992,0.640768,0.00242774,0.0190644,685,1401,0.286312,-1.10898
-532,-377,0.247925,1.1394,0.0029255,0.00175017,0.000176154,0.00295133,0.00172434,0.145615,0.001712,0.0189932,692,1401,0.247941,-1.13938
-525,-377,0.262573,1.15222,0.00200435,0.00145491,-0.000249132,0.00210049,0.00135877,-0.368297,0.00123004,0.0141718,699,1401,0.262597,-1.15222
-518,-377,0.248108,1.1814,0.00188867,0.000956574,-0.000804257,0.00235216,0.000493091,-0.522801,0.00143232,0.00971155,706,1401,0.248082,-1.18142
-511,-377,0.263916,1.23596,0.00163816,0.000840549,-0.00104858,0.00236121,0.000117498,-0.603681,0.00153647,0.0112764,713,1401,0.263914,-1.23594
-504,-377,0.273804,1.28137,0.000920164,0.000778238,-0.00101778,0.00186945,-0.000171049,-0.750593,0.00130705,0.011164,720,1401,0.27381,-1.28135
-497,-377,0.289429,1.30652,-0.000650069,0.00148982,-0.000937019,0.00184212,-0.00100237,-1.21116,0.00166595,0.0131205,727,1401,0.289404,-1.30653
-490,-377,0.259216,1.29675,-0.00270341,0.00245884,-0.00037489,0.00248592,-0.0027305,-1.49868,0.0030128,0.0288964,734,1401,0.259221,-1.29671
-483,-377,0.244812,1.24927,-0.00536328,0.00485735,0.000200207,0.00486127,-0.0053672,1.55122,0.00590782,0.0417911,741,1401,0.244805,-1.24922
-476,-377,0.235962,1.22766,0,0,0,0,0,0,0,-1,748,1401,0.235949,-1.22768
-469,-377,-0.138306,1.28308,0,0,0,0,0,0,0,-1,755,1401,-0.138289,-1.28313
-462,-377,0.255493,0.970703,0,0,0,0,0,0,0,-1,762,1401,0.255468,-0.970656
-455,-377,0.560852,0.275879,0,0,0,0,0,0,0,-1,769,1401,0.560826,-0.275831
-448,-377,0.583313,0.588745,0,0,0,0,0,0,0,-1,776,1401,0.583322,-0.588769
-441,-377,-1.64386,2.51453,0,0,0,0,0,0,0,-1,783,1401,-1.64388,-2.51455
-434,-377,-1.25702,1.73865,0,0,0,0,0,0,0,-1,790,1401,-1.25701,-1.73866
-427,-377,-1.10535,1.13416,0,0,0,0,0,0,0,-1,797,1401,-1.10536,-1.13414
-420,-377,0,0,0,0,0,0,0,0,0,-1,804,1401,0,0
-413,-377,0,0,0,0,0,0,0,0,0,-1,811,1401,0,0
-406,-377,0,0,0,0,0,0,0,0,0,-1,818,1401,0,0
-399,-377,0,0,0,0,0,0,0,0,0,-1,825,1401,0,0
-392,-377,0,0,0,0,0,0,0,0,0,-1,832,1401,0,0
-385,-377,0,0,0,0,0,0,0,0,0,-1,839,1401,0,0
-378,-377,0,0,0,0,0,0,0,0,0,-1,846,1401,0,0
-371,-377,0,0,0,0,0,0,0,0,0,-1,853,1401,0,0
-364,-377,0,0,0,0,0,0,0,0,0,-1,860,1401,0,0
-357,-377,0,0,0,0,0,0,0,0,0,-1,867,1401,0,0
-350,-377,0,0,0,0,0,0,0,0,0,-1,874,1401,0,0
-343,-377,0,0,0,0,0,0,0,0,0,-1,881,1401,0,0
-336,-377,0,0,0,0,0,0,0,0,0,-1,888,1401,0,0
-329,-377,0,0,0,0,0,0,0,0,0,-1,895,1401,0,0
-322,-377,0,0,0,0,0,0,0,0,0,-1,902,1401,0,0
-315,-377,0,0,0,0,0,0,0,0,0,-1,909,1401,0,0
-308,-377,0,0,0,0,0,0,0,0,0,-1,916,1401,0,0
-301,-377,0,0,0,0,0,0,0,0,0,-1,923,1401,0,0
-294,-377,0,0,0,0,0,0,0,0,0,-1,930,1401,0,0
-287,-377,0,0,0,0,0,0,0,0,0,-1,937,1401,0,0
-280,-377,0,0,0,0,0,0,0,0,0,-1,944,1401,0,0
-273,-377,0,0,0,0,0,0,0,0,0,-1,951,1401,0,0
-266,-377,0,0,0,0,0,0,0,0,0,-1,958,1401,0,0
-259,-377,0,0,0,0,0,0,0,0,0,-1,965,1401,0,0
-252,-377,0,0,0,0,0,0,0,0,0,-1,972,1401,0,0
-245,-377,0,0,0,0,0,0,0,0,0,-1,979,1401,0,0
-238,-377,0,0,0,0,0,0,0,0,0,-1,986,1401,0,0
-231,-377,0,0,0,0,0,0,0,0,0,-1,993,1401,0,0
-224,-377,0,0,0,0,0,0,0,0,0,-1,1000,1401,0,0
-217,-377,0,0,0,0,0,0,0,0,0,-1,1007,1401,0,0
-210,-377,0,0,0,0,0,0,0,0,0,-1,1014,1401,0,0
-203,-377,0,0,0,0,0,0,0,0,0,-1,1021,1401,0,0
-196,-377,0,0,0,0,0,0,0,0,0,-1,1028,1401,0,0
-189,-377,0,0,0,0,0,0,0,0,0,-1,1035,1401,0,0
-182,-377,0,0,0,0,0,0,0,0,0,-1,1042,1401,0,0
-175,-377,0,0,0,0,0,0,0,0,0,-1,1049,1401,0,0
-168,-377,0,0,0,0,0,0,0,0,0,-1,1056,1401,0,0
-161,-377,0,0,0,0,0,0,0,0,0,-1,1063,1401,0,0
-154,-377,0,0,0,0,0,0,0,0,0,-1,1070,1401,0,0
-147,-377,0,0,0,0,0,0,0,0,0,-1,1077,1401,0,0
-140,-377,0,0,0,0,0,0,0,0,0,-1,1084,1401,0,0
-133,-377,0,0,0,0,0,0,0,0,0,-1,1091,1401,0,0
-126,-377,0,0,0,0,0,0,0,0,0,-1,1098,1401,0,0
-119,-377,0,0,0,0,0,0,0,0,0,-1,1105,1401,0,0
-112,-377,0,0,0,0,0,0,0,0,0,-1,1112,1401,0,0
-105,-377,0,0,0,0,0,0,0,0,0,-1,1119,1401,0,0
-98,-377,0,0,0,0,0,0,0,0,0,-1,1126,1401,0,0
-91,-377,0,0,0,0,0,0,0,0,0,-1,1133,1401,0,0
-84,-377,0,0,0,0,0,0,0,0,0,-1,1140,1401,0,0
-77,-377,0,0,0,0,0,0,0,0,0,-1,1147,1401,0,0
-70,-377,0,0,0,0,0,0,0,0,0,-1,1154,1401,0,0
-63,-377,0,0,0,0,0,0,0,0,0,-1,1161,1401,0,0
-56,-377,0,0,0,0,0,0,0,0,0,-1,1168,1401,0,0
-49,-377,0,0,0,0,0,0,0,0,0,-1,1175,1401,0,0
-42,-377,0,0,0,0,0,0,0,0,0,-1,1182,1401,0,0
-35,-377,0,0,0,0,0,0,0,0,0,-1,1189,1401,0,0
-28,-377,0,0,0,0,0,0,0,0,0,-1,1196,1401,0,0
-21,-377,0,0,0,0,0,0,0,0,0,-1,1203,1401,0,0
-14,-377,0,0,0,0,0,0,0,0,0,-1,1210,1401,0,0
-7,-377,0,0,0,0,0,0,0,0,0,-1,1217,1401,0,0
0,-377,0,0,0,0,0,0,0,0,0,-1,1224,1401,0,0
7,-377,0,0,0,0,0,0,0,0,0,-1,1231,1401,0,0
14,-377,0,0,0,0,0,0,0,0,0,-1,1238,1401,0,0
21,-377,0,0,0,0,0,0,0,0,0,-1,1245,1401,0,0
28,-377,0,0,0,0,0,0,0,0,0,-1,1252,1401,0,0
35,-377,0,0,0,0,0,0,0,0,0,-1,1259,1401,0,0
42,-377,0,0,0,0,0,0,0,0,0,-1,1266,1401,0,0
49,-377,0,0,0,0,0,0,0,0,0,-1,1273,1401,0,0
56,-377,0,0,0,0,0,0,0,0,0,-1,1280,1401,0,0
63,-377,0,0,0,0,0,0,0,0,0,-1,1287,1401,0,0
70,-377,0,0,0,0,0,0,0,0,0,-1,1294,1401,0,0
77,-377,0,0,0,0,0,0,0,0,0,-1,1301,1401,0,0
84,-377,0,0,0,0,0,0,0,0,0,-1,1308,1401,0,0
91,-377,0,0,0,0,0,0,0,0,0,-1,1315,1401,0,0
98,-377,0,0,0,0,0,0,0,0,0,-1,1322,1401,0,0
105,-377,0,0,0,0,0,0,0,0,0,-1,1329,1401,0,0
112,-377,0,0,0,0,0,0,0,0,0,-1,1336,1401,0,0
119,-377,0,0,0,0,0,0,0,0,0,-1,1343,1401,0,0
126,-377,0,0,0,0,0,0,0,0,0,-1,1350,1401,0,0
133,-377,0,0,0,0,0,0,0,0,0,-1,1357,1401,0,0
140,-377,0,0,0,0,0,0,0,0,0,-1,1364,1401,0,0
147,-377,0,0,0,0,0,0,0,0,0,-1,1371,1401,0,0
154,-377,0,0,0,0,0,0,0,0,0,-1,1378,1401,0,0
161,-377,0,0,0,0,0,0,0,0,0,-1,1385,1401,0,0
168,-377,0,0,0,0,0,0,0,0,0,-1,1392,1401,0,0
175,-377,0,0,0,0,0,0,0,0,0,-1,1399,1401,0,0
182,-377,0,0,0,0,0,0,0,0,0,-1,1406,1401,0,0
189,-377,0,0,0,0,0,0,0,0,0,-1,1413,1401,0,0
196,-377,0,0,0,0,0,0,0,0,0,-1,1420,1401,0,0
203,-377,0,0,0,0,0,0,0,0,0,-1,1427,1401,0,0
210,-377,0,0,0,0,0,0,0,0,0,-1,1434,1401,0,0
217,-377,0,0,0,0,0,0,0,0,0,-1,1441,1401,0,0
224,-377,0,0,0,0,0,0,0,0,0,-1,1448,1401,0,0
231,-377,0,0,0,0,0,0,0,0,0,-1,1455,1401,0,0
238,-377,0,0,0,0,0,0,0,0,0,-1,1462,1401,0,0
245,-377,0,0,0,0,0,0,0,0,0,-1,1469,1401,0,0
252,-377,0,0,0,0,0,0,0,0,0,-1,1476,1401,0,0
259,-377,0,0,0,0,0,0,0,0,0,-1,1483,1401,0,0
266,-377,0,0,0,0,0,0,0,0,0,-1,1490,1401,0,0
273,-377,0,0,0,0,0,0,0,0,0,-1,1497,1401,0,0
280,-377,0,0,0,0,0,0,0,0,0,-1,1504,1401,0,0
287,-377,0,0,0,0,0,0,0,0,0,-1,1511,1401,0,0
294,-377,0,0,0,0,0,0,0,0,0,-1,1518,1401,0,0
301,-377,0,0,0,0,0,0,0,0,0,-1,1525,1401,0,0
308,-377,0,0,0,0,0,0,0,0,0,-1,1532,1401,0,0
315,-377,0,0,0,0,0,0,0,0,0,-1,1539,1401,0,0
322,-377,0,0,0,0,0,0,0,0,0,-1,1546,1401,0,0
329,-377,0,0,0,0,0,0,0,0,0,-1,1553,1401,0,0
336,-377,0,0,0,0,0,0,0,0,0,-1,1560,1401,0,0
343,-377,0,0,0,0,0,0,0,0,0,-1,1567,1401,0,0
350,-377,0,0,0,0,0,0,0,0,0,-1,1574,1401,0,0
357,-377,0,0,0,0,0,0,0,0,0,-1,1581,1401,0,0
364,-377,0,0,0,0,0,0,0,0,0,-1,1588,1401,0,0
371,-377,0,0,0,0,0,0,0,0,0,-1,1595,1401,0,0
378,-377,0,0,0,0,0,0,0,0,0,-1,1602,1401,0,0
385,-377,0,0,0,0,0,0,0,0,0,-1,1609,1401,0,0
392,-377,0,0,0,0,0,0,0,0,0,-1,1616,1401,0,0
399,-377,0,0,0,0,0,0,0,0,0,-1,1623,1401,0,0
406,-377,0,0,0,0,0,0,0,0,0,-1,1630,1401,0,0
413,-377,0,0,0,0,0,0,0,0,0,-1,1637,1401,0,0
420,-377,0,0,0,0,0,0,0,0,0,-1,1644,1401,0,0
427,-377,0,0,0,0,0,0,0,0,0,-1,1651,1401,0,0
434,-377,0,0,0,0,0,0,0,0,0,-1,1658,1401,0,0
441,-377,0,0,0,0,0,0,0,0,0,-1,1665,1401,0,0
448,-377,0,0,0,0,0,0,0,0,0,-1,1672,1401,0,0
455,-377,0,0,0,0,0,0,0,0,0,-1,1679,1401,0,0
462,-377,0,0,0,0,0,0,0,0,0,-1,1686,1401,0,0
469,-377,0,0,0,0,0,0,0,0,0,-1,1693,1401,0,0
476,-377,0,0,0,0,0,0,0,0,0,-1,1700,1401,0,0
483,-377,0,0,0,0,0,0,0,0,0,-1,1707,1401,0,0
490,-377,0,0,0,0,0,0,0,0,0,-1,1714,1401,0,0
497,-377,0,0,0,0,0,0,0,0,0,-1,1721,1401,0,0
504,-377,0,0,0,0,0,0,0,0,0,-1,1728,1401,0,0
511,-377,0,0,0,0,0,0,0,0,0,-1,1735,1401,0,0
518,-377,0,0,0,0,0,0,0,0,0,-1,1742,1401,0,0
525,-377,0,0,0,0,0,0,0,0,0,-1,1749,1401,0,0
532,-377,0,0,0,0,0,0,0,0,0,-1,1756,1401,0,0
539,-377,0,0,0,0,0,0,0,0,0,-1,1763,1401,0,0
546,-377,3.58276,-0.392944,0,0,0,0,0,0,0,-1,1770,1401,3.58275,0.392987
553,-377,3.41406,-0.860962,0,0,0,0,0,0,0,-1,1777,1401,3.41409,0.860971
560,-377,6.00745,0.862061,0,0,0,0,0,0,0,-1,1784,1401,6.00739,-0.862039
567,-377,5.22327,0.700562,0,0,0,0,0,0,0,-1,1791,1401,5.22331,-0.700502
574,-377,4.38,0.350952,0,0,0,0,0,0,0,-1,1798,1401,4.38003,-0.35099
581,-377,2.49182,0.434814,0,0,0,0,0,0,0,-1,1805,1401,2.49187,-0.434778
588,-377,4.65137,1.12842,0,0,0,0,0,0,0,-1,1812,1401,4.65135,-1.12841
595,-377,4.68018,1.0918,0,0,0,0,0,0,0,-1,1819,1401,4.68016,-1.09177
602,-377,4.44763,1.31995,0,0,0,0,0,0,0,-1,1826,1401,4.44764,-1.31991
609,-377,4.17493,1.05603,-0.00223404,0.0184151,0.0128984,0.0246122,-0.00843114,1.12291,0.0198254,0.0457537,1833,1401,4.17494,-1.05602
616,-377,3.901,1.23999,-0.00284292,0.0143337,0.0109765,0.0196824,-0.00819167,1.11737,0.0165427,0.0479162,1840,1401,3.90098,-1.24001
623,-377,3.79468,1.40637,-0.00299365,0.0113256,0.0092056,0.015828,-0.00749607,1.11591,0.0137496,0.036035,1847,1401,3.79466,-1.40633
630,-377,3.75562,1.38,-0.0027608,0.00860816,0.00701526,0.0119529,-0.00610556,1.12589,0.0106067,0.0177242,1854,1401,3.75567,-1.38005
637,-377,3.75537,1.33765,-0.00268098,0.00607569,0.00510689,0.00842418,-0.00502947,1.13977,0.00784946,0.0133592,1861,1401,3.75541,-1.33766
644,-377,3.77747,1.2782,-0.0030854,0.00398867,0.00366976,0.00554848,-0.00464521,1.16889,0.00589302,0.0108495,1868,1401,3.77747,-1.27814
651,-377,3.77747,1.21814,-0.00256432,0.00246351,0.00285221,0.00375155,-0.00385236,1.14662,0.00439025,0.0118921,1875,1401,3.77743,-1.21808
658,-377,3.76782,1.19019,-0.00242265,0.000526651,0.00146155,0.00112823,-0.00302423,1.18033,0.00247933,0.0133958,1882,1401,3.76777,-1.19021
665,-377,3.76978,1.16321,0.000455709,-0.000750205,0.000856846,0.000900484,-0.00119498,0.478798,0.00121379,0.0150904,1889,1401,3.76974,-1.16316
672,-377,3.76892,1.11072,0.00396677,-0.00113221,0.00164451,0.00445114,-0.00161658,0.286439,0.00362838,0.0157825,1896,1401,3.76892,-1.11068
679,-377,3.76514,1.07324,0.00695015,-0.00319792,0.00196758,0.00731828,-0.00356605,0.184961,0.00640733,0.0158193,1903,1401,3.76515,-1.07326
686,-377,3.76758,1.04041,0.0104952,-0.00543901,0.00245523,0.0108649,-0.00580875,0.149468,0.00977298,0.0143666,1910,1401,3.76753,-1.04046
693,-377,3.75061,0.99353,0.0147504,-0.00728061,0.00327582,0.0152271,-0.00775738,0.144527,0.0135017,0.0114219,1917,1401,3.75062,-0.993514
700,-377,3.73792,0.951782,0.0201096,-0.00987565,0.0042119,0.02069,-0.010456,0.136936,0.0183029,0.0176834,1924,1401,3.73794,-0.951752
707,-377,3.71899,0.93103,0.0261682,-0.0132264,0.00531657,0.0268731,-0.0139313,0.131816,0.0239501,0.040492,1931,1401,3.71899,-0.93103
714,-377,4.13184,0.771484,0,0,0,0,0,0,0,-1,1938,1401,4.1319,-0.771502
721,-377,4.25476,0.607666,0.0386085,-0.0224395,0.00798453,0.0396356,-0.0234665,0.127925,0.0368285,0.0416501,1945,1401,4.25474,-0.607681
728,-377,4.43298,0.943359,0.0436924,-0.0283715,0.00946011,0.0449135,-0.0295927,0.128377,0.0433183,0.0423112,1952,1401,4.43303,-0.943364
735,-377,4.54236,1.19934,0.046571,-0.0351639,0.0109476,0.0480119,-0.0366048,0.130868,0.0490012,0.0459174,1959,1401,4.54231,-1.19937
742,-377,0,0,0,0,0,0,0,0,0,-1,1966,1401,0,0
749,-377,0,0,0,0,0,0,0,0,0,-1,1973,1401,0,0
756,-377,0,0,0,0,0,0,0,0,0,-1,1980,1401,0,0
763,-377,0,0,0,0,0,0,0,0,0,-1,1987,1401,0,0
770,-377,0,0,0,0,0,0,0,0,0,-1,1994,1401,0,0
777,-377,0,0,0,0,0,0,0,0,0,-1,2001,1401,0,0
784,-377,0,0,0,0,0,0,0,0,0,-1,2008,1401,0,0
791,-377,0,0,0,0,0,0,0,0,0,-1,2015,1401,0,0
798,-377,0,0,0,0,0,0,0,0,0,-1,2022,1401,0,0
805,-377,0,0,0,0,0,0,0,0,0,-1,2029,1401,0,0
812,-377,0,0,0,0,0,0,0,0,0,-1,2036,1401,0,0
-700,-384,0,0,0,0,0,0,0,0,0,-1,524,1408,0,0
-693,-384,0,0,0,0,0,0,0,0,0,-1,531,1408,0,0
-686,-384,0,0,0,0,0,0,0,0,0,-1,538,1408,0,0
-679,-384,0,0,0,0,0,0,0,0,0,-1,545,1408,0,0
-672,-384,0,0,0,0,0,0,0,0,0,-1,552,1408,0,0
-665,-384,0,0,0,0,0,0,0,0,0,-1,559,1408,0,0
-658,-384,0,0,0,0,0,0,0,0,0,-1,566,1408,0,0
-651,-384,0,0,0,0,0,0,0,0,0,-1,573,1408,0,0
-644,-384,0,0,0,0,0,0,0,0,0,-1,580,1408,0,0
-637,-384,0,0,0,0,0,0,0,0,0,-1,587,1408,0,0
-630,-384,0,0,0,0,0,0,0,0,0,-1,594,1408,0,0
-623,-384,0,0,0,0,0,0,0,0,0,-1,601,1408,0,0
-616,-384,-1.12671,-1.64404,0,0,0,0,0,0,0,-1,608,1408,-1.12671,1.64408
-609,-384,-0.566406,0.0479736,0,0,0,0,0,0,0,-1,615,1408,-0.566415,-0.0479885
-602,-384,-0.469849,0.0776367,0.0533154,0.0274694,0.0196979,0.0639511,0.0168337,0.495086,0.0382772,0.044789,622,1408,-0.46983,-0.0775991
-595,-384,-0.409912,0.205811,0.046183,0.0230978,0.0187535,0.0566615,0.0126193,0.509532,0.0343495,0.045009,629,1408,-0.409906,-0.205827
-588,-384,-0.216431,0.282349,0.0384365,0.0191996,0.0168056,0.0481815,0.00945459,0.525483,0.0294793,0.0457528,636,1408,-0.21643,-0.282349
-581,-384,0.0442505,0.498169,0.0310587,0.0157728,0.014731,0.0400115,0.00682006,0.546098,0.0247166,0.0470415,643,1408,0.0442567,-0.498142
-574,-384,0.200806,0.727539,0.0241232,0.0126766,0.0126044,0.0322428,0.00455701,0.572279,0.0201487,0.044648,650,1408,0.200824,-0.727578
-567,-384,0.259888,0.950806,0.0183193,0.0101721,0.00975494,0.024817,0.00367434,0.587607,0.0154661,0.0358973,657,1408,0.259863,-0.950755
-560,-384,0.29248,0.964722,0.0137199,0.0080234,0.00748357,0.0188789,0.00286437,0.603564,0.0117481,0.020741,664,1408,0.2925,-0.964735
-553,-384,0.288452,0.995605,0.00977485,0.0064827,0.00560254,0.0139681,0.00228942,0.642514,0.00865053,0.0154796,671,1408,0.288454,-0.995617
-546,-384,0.297241,1.03455,0.00587932,0.00494078,0.00377447,0.00921358,0.00160652,0.723552,0.00568308,0.01373,678,1408,0.297218,-1.0346
-539,-384,0.282471,1.06799,0.00385684,0.00325312,0.00192792,0.00550638,0.00160357,0.707742,0.00327019,0.0151973,685,1408,0.28246,-1.06803
-532,-384,0.258667,1.10071,0.00321283,0.00210649,0.000821172,0.00364977,0.00166955,0.488992,0.00210974,0.0198443,692,1408,0.25868,-1.10077
-525,-384,0.269104,1.14465,0.00226454,0.0016799,0.000157655,0.00230434,0.0016401,0.247306,0.0013696,0.0180586,699,1408,0.269125,-1.1447
-518,-384,0.293274,1.198,0.00208088,0.000914283,-0.000570322,0.00231336,0.000681797,-0.387076,0.00137263,0.0112554,706,1408,0.293268,-1.19801
-511,-384,0.297913,1.25171,0.00183878,0.000469114,-0.00103659,0.00239633,-8.84399e-05,-0.493483,0.00162784,0.00963667,713,1408,0.297935,-1.25173
-504,-384,0.30249,1.3031,0.00124978,3.59e-05,-0.00129064,0.00206907,-0.000783393,-0.565611,0.00170172,0.0104291,720,1408,0.302515,-1.30308
-497,-384,0.299805,1.3335,-3.41167e-05,0.000162304,-0.00159268,0.0016598,-0.00153161,-0.816191,0.00184305,0.010729,727,1408,0.299833,-1.33348
-490,-384,0.307129,1.35852,-0.00165022,0.00054626,-0.00154754,0.00134566,-0.00244962,-1.09399,0.00222189,0.016583,734,1408,0.307112,-1.35848
-483,-384,0.232788,1.37305,-0.0034764,0.00222234,-0.00165382,0.00266752,-0.00392158,-1.30785,0.00382711,0.0350229,741,1408,0.232777,-1.37303
-476,-384,0.130981,1.36499,-0.00527158,0.00450408,-0.00183511,0.00483721,-0.00560471,-1.39122,0.00603408,0.0426145,748,1408,0.130987,-1.36498
-469,-384,0.111694,1.31213,0,0,0,0,0,0,0,-1,755,1408,0.111699,-1.31218
-462,-384,0.452148,1.14929,0,0,0,0,0,0,0,-1,762,1408,0.452143,-1.14926
-455,-384,0.532166,1.12402,0,0,0,0,0,0,0,-1,769,1408,0.532194,-1.12402
-448,-384,0.050293,0.918701,0,0,0,0,0,0,0,-1,776,1408,0.0502799,-0.918672
-441,-384,0.173279,1.0719,0,0,0,0,0,0,0,-1,783,1408,0.1733,-1.07191
-434,-384,-1.4884,1.93628,0,0,0,0,0,0,0,-1,790,1408,-1.48842,-1.93632
-427,-384,-1.18628,1.03796,0,0,0,0,0,0,0,-1,797,1408,-1.18627,-1.03802
-420,-384,-1.11066,0.244995,0,0,0,0,0,0,0,-1,804,1408,-1.11067,-0.245025
-413,-384,0,0,0,0,0,0,0,0,0,-1,811,1408,0,0
-406,-384,0,0,0,0,0,0,0,0,0,-1,818,1408,0,0
-399,-384,0,0,0,0,0,0,0,0,0,-1,825,1408,0,0
-392,-384,0,0,0,0,0,0,0,0,0,-1,832,1408,0,0
-385,-384,0,0,0,0,0,0,0,0,0,-1,839,1408,0,0
-378,-384,0,0,0,0,0,0,0,0,0,-1,846,1408,0,0
-371,-384,0,0,0,0,0,0,0,0,0,-1,853,1408,0,0
-364,-384,0,0,0,0,0,0,0,0,0,-1,860,1408,0,0
-357,-384,0,0,0,0,0,0,0,0,0,-1,867,1408,0,0
-350,-384,0,0,0,0,0,0,0,0,0,-1,874,1408,0,0
-343,-384,0,0,0,0,0,0,0,0,0,-1,881,1408,0,0
-336,-384,0,0,0,0,0,0,0,0,0,-1,888,1408,0,0
-329,-384,0,0,0,0,0,0,0,0,0,-1,895,1408,0,0
-322,-384,0,0,0,0,0,0,0,0,0,-1,902,1408,0,0
-315,-384,0,0,0,0,0,0,0,0,0,-1,909,1408,0,0
-308,-384,0,0,0,0,0,0,0,0,0,-1,916,1408,0,0
-301,-384,0,0,0,0,0,0,0,0,0,-1,923,1408,0,0
-294,-384,0,0,0,0,0,0,0,0,0,-1,930,1408,0,0
-287,-384,0,0,0,0,0,0,0,0,0,-1,937,1408,0,0
-280,-384,0,0,0,0,0,0,0,0,0,-1,944,1408,0,0
-273,-384,0,0,0,0,0,0,0,0,0,-1,951,1408,0,0
-266,-384,0,0,0,0,0,0,0,0,0,-1,958,1408,0,0
-259,-384,0,0,0,0,0,0,0,0,0,-1,965,1408,0,0
-252,-384,0,0,0,0,0,0,0,0,0,-1,972,1408,0,0
-245,-384,0,0,0,0,0,0,0,0,0,-1,979,1408,0,0
-238,-384,0,0,0,0,0,0,0,0,0,-1,986,1408,0,0
-231,-384,0,0,0,0,0,0,0,0,0,-1,993,1408,0,0
-224,-384,0,0,0,0,0,0,0,0,0,-1,1000,1408,0,0
-217,-384,0,0,0,0,0,0,0,0,0,-1,1007,1408,0,0
-210,-384,0,0,0,0,0,0,0,0,0,-1,1014,1408,0,0
-203,-384,0,0,0,0,0,0,0,0,0,-1,1021,1408,0,0
-196,-384,0,0,0,0,0,0,0,0,0,-1,1028,1408,0,0
-189,-384,0,0,0,0,0,0,0,0,0,-1,1035,1408,0,0
-182,-384,0,0,0,0,0,0,0,0,0,-1,1042,1408,0,0
-175,-384,0,0,0,0,0,0,0,0,0,-1,1049,1408,0,0
-168,-384,0,0,0,0,0,0,0,0,0,-1,1056,1408,0,0
-161,-384,0,0,0,0,0,0,0,0,0,-1,1063,1408,0,0
-154,-384,0,0,0,0,0,0,0,0,0,-1,1070,1408,0,0
-147,-384,0,0,0,0,0,0,0,0,0,-1,1077,1408,0,0
-140,-384,0,0,0,0,0,0,0,0,0,-1,1084,1408,0,0
-133,-384,0,0,0,0,0,0,0,0,0,-1,1091,1408,0,0
-126,-384,0,0,0,0,0,0,0,0,0,-1,1098,1408,0,0
-119,-384,0,0,0,0,0,0,0,0,0,-1,1105,1408,0,0
-112,-384,0,0,0,0,0,0,0,0,0,-1,1112,1408,0,0
-105,-384,0,0,0,0,0,0,0,0,0,-1,1119,1408,0,0
-98,-384,0,0,0,0,0,0,0,0,0,-1,1126,1408,0,0
-91,-384,0,0,0,0,0,0,0,0,0,-1,1133,1408,0,0
-84,-384,0,0,0,0,0,0,0,0,0,-1,1140,1408,0,0
-77,-384,0,0,0,0,0,0,0,0,0,-1,1147,1408,0,0
-70,-384,0,0,0,0,0,0,0,0,0,-1,1154,1408,0,0
-63,-384,0,0,0,0,0,0,0,0,0,-1,1161,1408,0,0
-56,-384,0,0,0,0,0,0,0,0,0,-1,1168,1408,0,0
-49,-384,0,0,0,0,0,0,0,0,0,-1,1175,1408,0,0
-42,-384,0,0,0,0,0,0,0,0,0,-1,1182,1408,0,0
-35,-384,0,0,0,0,0,0,0,0,0,-1,1189,1408,0,0
-28,-384,0,0,0,0,0,0,0,0,0,-1,1196,1408,0,0
-21,-384,0,0,0,0,0,0,0,0,0,-1,1203,1408,0,0
-14,-384,0,0,0,0,0,0,0,0,0,-1,1210,1408,0,0
-7,-384,0,0,0,0,0,0,0,0,0,-1,1217,1408,0,0
0,-384,0,0,0,0,0,0,0,0,0,-1,1224,1408,0,0
7,-384,0,0,0,0,0,0,0,0,0,-1,1231,1408,0,0
14,-384,0,0,0,0,0,0,0,0,0,-1,1238,1408,0,0
21,-384,0,0,0,0,0,0,0,0,0,-1,1245,1408,0,0
28,-384,0,0,0,0,0,0,0,0,0,-1,1252,1408,0,0
35,-384,0,0,0,0,0,0,0,0,0,-1,1259,1408,0,0
42,-384,0,0,0,0,0,0,0,0,0,-1,1266,1408,0,0
49,-384,0,0,0,0,0,0,0,0,0,-1,1273,1408,0,0
56,-384,0,0,0,0,0,0,0,0,0,-1,1280,1408,0,0
63,-384,0,0,0,0,0,0,0,0,0,-1,1287,1408,0,0
70,-384,0,0,0,0,0,0,0,0,0,-1,1294,1408,0,0
77,-384,0,0,0,0,0,0,0,0,0,-1,1301,1408,0,0
84,-384,0,0,0,0,0,0,0,0,0,-1,1308,1408,0,0
91,-384,0,0,0,0,0,0,0,0,0,-1,1315,1408,0,0
98,-384,0,0,0,0,0,0,0,0,0,-1,1322,1408,0,0
105,-384,0,0,0,0,0,0,0,0,0,-1,1329,1408,0,0
112,-384,0,0,0,0,0,0,0,0,0,-1,1336,1408,0,0
119,-384,0,0,0,0,0,0,0,0,0,-1,1343,1408,0,0
126,-384,0,0,0,0,0,0,0,0,0,-1,1350,1408,0,0
133,-384,0,0,0,0,0,0,0,0,0,-1,1357,1408,0,0
140,-384,0,0,0,0,0,0,0,0,0,-1,1364,1408,0,0
147,-384,0,0,0,0,0,0,0,0,0,-1,1371,1408,0,0
154,-384,0,0,0,0,0,0,0,0,0,-1,1378,1408,0,0
161,-384,0,0,0,0,0,0,0,0,0,-1,1385,1408,0,0
168,-384,0,0,0,0,0,0,0,0,0,-1,1392,1408,0,0
175,-384,0,0,0,0,0,0,0,0,0,-1,1399,1408,0,0
182,-384,0,0,0,0,0,0,0,0,0,-1,1406,1408,0,0
189,-384,0,0,0,0,0,0,0,0,0,-1,1413,1408,0,0
196,-384,0,0,0,0,0,0,0,0,0,-1,1420,1408,0,0
203,-384,0,0,0,0,0,0,0,0,0,-1,1427,1408,0,0
210,-384,0,0,0,0,0,0,0,0,0,-1,1434,1408,0,0
217,-384,0,0,0,0,0,0,0,0,0,-1,1441,1408,0,0
224,-384,0,0,0,0,0,0,0,0,0,-1,1448,1408,0,0
231,-384,0,0,0,0,0,0,0,0,0,-1,1455,1408,0,0
238,-384,0,0,0,0,0,0,0,0,0,-1,1462,1408,0,0
245,-384,0,0,0,0,0,0,0,0,0,-1,1469,1408,0,0
252,-384,0,0,0,0,0,0,0,0,0,-1,1476,1408,0,0
259,-384,0,0,0,0,0,0,0,0,0,-1,1483,1408,0,0
266,-384,0,0,0,0,0,0,0,0,0,-1,1490,1408,0,0
273,-384,0,0,0,0,0,0,0,0,0,-1,1497,1408,0,0
280,-384,0,0,0,0,0,0,0,0,0,-1,1504,1408,0,0
287,-384,0,0,0,0,0,0,0,0,0,-1,1511,1408,0,0
294,-384,0,0,0,0,0,0,0,0,0,-1,1518,1408,0,0
301,-384,0,0,0,0,0,0,0,0,0,-1,1525,1408,0,0
308,-384,0,0,0,0,0,0,0,0,0,-1,1532,1408,0,0
315,-384,0,0,0,0,0,0,0,0,0,-1,1539,1408,0,0
322,-384,0,0,0,0,0,0,0,0,0,-1,1546,1408,0,0
329,-384,0,0,0,0,0,0,0,0,0,-1,1553,1408,0,0
336,-384,0,0,0,0,0,0,0,0,0,-1,1560,1408,0,0
343,-384,0,0,0,0,0,0,0,0,0,-1,1567,1408,0,0
350,-384,0,0,0,0,0,0,0,0,0,-1,1574,1408,0,0
357,-384,0,0,0,0,0,0,0,0,0,-1,1581,1408,0,0
364,-384,0,0,0,0,0,0,0,0,0,-1,1588,1408,0,0
371,-384,0,0,0,0,0,0,0,0,0,-1,1595,1408,0,0
378,-384,0,0,0,0,0,0,0,0,0,-1,1602,1408,0,0
385,-384,0,0,0,0,0,0,0,0,0,-1,1609,1408,0,0
392,-384,0,0,0,0,0,0,0,0,0,-1,1616,1408,0,0
399,-384,0,0,0,0,0,0,0,0,0,-1,1623,1408,0,0
406,-384,0,0,0,0,0,0,0,0,0,-1,1630,1408,0,0
413,-384,0,0,0,0,0,0,0,0,0,-1,1637,1408,0,0
420,-384,0,0,0,0,0,0,0,0,0,-1,1644,1408,0,0
427,-384,0,0,0,0,0,0,0,0,0,-1,1651,1408,0,0
434,-384,0,0,0,0,0,0,0,0,0,-1,1658,1408,0,0
441,-384,0,0,0,0,0,0,0,0,0,-1,1665,1408,0,0
448,-384,0,0,0,0,0,0,0,0,0,-1,1672,1408,0,0
455,-384,0,0,0,0,0,0,0,0,0,-1,1679,1408,0,0
462,-384,0,0,0,0,0,0,0,0,0,-1,1686,1408,0,0
469,-384,0,0,0,0,0,0,0,0,0,-1,1693,1408,0,0
476,-384,0,0,0,0,0,0,0,0,0,-1,1700,1408,0,0
483,-384,0,0,0,0,0,0,0,0,0,-1,1707,1408,0,0
490,-384,0,0,0,0,0,0,0,0,0,-1,1714,1408,0,0
497,-384,0,0,0,0,0,0,0,0,0,-1,1721,1408,0,0
504,-384,0,0,0,0,0,0,0,0,0,-1,1728,1408,0,0
511,-384,0,0,0,0,0,0,0,0,0,-1,1735,1408,0,0
518,-384,0,0,0,0,0,0,0,0,0,-1,1742,1408,0,0
525,-384,0,0,0,0,0,0,0,0,0,-1,1749,1408,0,0
532,-384,0,0,0,0,0,0,0,0,0,-1,1756,1408,0,0
539,-384,3.95544,0.16394,0,0,0,0,0,0,0,-1,1763,1408,3.95546,-0.163974
546,-384,3.68433,-0.0184326,0,0,0,0,0,0,0,-1,1770,1408,3.68432,0.0184767
553,-384,3.41321,-0.200928,0,0,0,0,0,0,0,-1,1777,1408,3.41318,0.200927
560,-384,8.53101,1.89502,0,0,0,0,0,0,0,-1,1784,1408,8.53105,-1.89498
567,-384,4.98962,1.12952,0,0,0,0,0,0,0,-1,1791,1408,4.98961,-1.12951
574,-384,8.51758,2.59045,0,0,0,0,0,0,0,-1,1798,1408,8.51757,-2.59046
581,-384,4.99756,1.53711,0,0,0,0,0,0,0,-1,1805,1408,4.99754,-1.5371
588,-384,4.62268,1.37976,0,0,0,0,0,0,0,-1,1812,1408,4.62266,-1.37971
595,-384,4.04346,1.23108,-0.00835321,0.0220956,0.016335,0.0292009,-0.0154585,1.16051,0.0261878,0.0464954,1819,1408,4.04341,-1.23112
602,-384,3.86572,1.14465,-0.00695093,0.0166683,0.0140468,0.0232103,-0.0134929,1.13494,0.0214367,0.0436607,1826,1408,3.86569,-1.14465
609,-384,3.77856,1.08789,-0.00634848,0.0137804,0.0120652,0.0194278,-0.0119959,1.13301,0.0183108,0.0440943,1833,1408,3.77856,-1.08793
616,-384,3.74646,1.28918,-0.0056196,0.0102052,0.0101145,0.0151344,-0.0105489,1.11732,0.0149068,0.0418658,1840,1408,3.74644,-1.28924
623,-384,3.71497,1.39612,-0.00459964,0.00781693,0.0083969,0.0120514,-0.00883409,1.10372,0.0121058,0.0268037,1847,1408,3.71491,-1.39607
630,-384,3.729,1.34424,-0.00346403,0.00585775,0.00640688,0.00911974,-0.00672601,1.09986,0.00918328,0.0165022,1854,1408,3.72904,-1.34424
637,-384,3.69434,1.34985,-0.00273947,0.00404646,0.00473475,0.00647845,-0.00517146,1.09629,0.00674017,0.0155223,1861,1408,3.69436,-1.3498
644,-384,3.7135,1.31128,-0.00253182,0.00250689,0.00357022,0.00435716,-0.00438209,1.09265,0.00504561,0.0144675,1868,1408,3.71345,-1.31124
651,-384,3.71387,1.23755,-0.00174626,0.00145049,0.00289726,0.00316103,-0.0034568,1.03747,0.00382207,0.0142169,1875,1408,3.71389,-1.23753
658,-384,3.7002,1.17871,-0.00145128,-0.00012962,0.00178532,0.00111324,-0.00269415,0.962653,0.00226048,0.0142914,1882,1408,3.70021,-1.17865
665,-384,3.72852,1.14966,0.00175959,-0.00121423,0.00128255,0.00223631,-0.00169095,0.355871,0.00227468,0.0147523,1889,1408,3.72847,-1.14971
672,-384,3.73938,1.11414,0.00556742,-0.00118868,0.00225937,0.00625335,-0.00187462,0.294752,0.00491443,0.0132448,1896,1408,3.73933,-1.11408
679,-384,3.72632,1.08057,0.00895006,-0.00321376,0.00266927,0.00951004,-0.00377374,0.206787,0.00790416,0.0133977,1903,1408,3.72627,-1.08054
686,-384,3.71094,1.04761,0.0131827,-0.0053629,0.00330676,0.0137547,-0.00593487,0.171275,0.0116628,0.0118608,1910,1408,3.71095,-1.04757
693,-384,3.70557,1.01599,0.0183896,-0.00709409,0.00434945,0.0191115,-0.00781599,0.164475,0.015996,0.0143253,1917,1408,3.70553,-1.01595
700,-384,3.70264,1.0509,0.0249909,-0.00952626,0.00556915,0.0258672,-0.0104026,0.15607,0.0215655,0.0294163,1924,1408,3.70259,-1.05086
707,-384,3.79333,1.12671,0.0324673,-0.0126547,0.00705828,0.0335457,-0.013733,0.151603,0.0280839,0.0469883,1931,1408,3.79331,-1.12673
714,-384,3.90222,1.1814,0,0,0,0,0,0,0,-1,1938,1408,3.90222,-1.18145
721,-384,4.60681,1.59253,0.0479801,-0.02159,0.0109124,0.0496515,-0.0232615,0.151993,0.0430056,0.0441144,1945,1408,4.60675,-1.59254
728,-384,4.60376,2.0188,0.0544601,-0.0277083,0.0132667,0.056549,-0.0297973,0.156173,0.0506433,0.0428772,1952,1408,4.60378,-2.01875
735,-384,4.7627,2.37451,0.0582412,-0.0352285,0.0159044,0.0608733,-0.0378606,0.164009,0.0575179,0.0450733,1959,1408,4.76273,-2.37453
742,-384,0,0,0,0,0,0,0,0,0,-1,1966,1408,0,0
749,-384,0,0,0,0,0,0,0,0,0,-1,1973,1408,0,0
756,-384,0,0,0,0,0,0,0,0,0,-1,1980,1408,0,0
763,-384,0,0,0,0,0,0,0,0,0,-1,1987,1408,0,0
770,-384,0,0,0,0,0,0,0,0,0,-1,1994,1408,0,0
777,-384,0,0,0,0,0,0,0,0,0,-1,2001,1408,0,0
784,-384,0,0,0,0,0,0,0,0,0,-1,2008,1408,0,0
791,-384,0,0,0,0,0,0,0,0,0,-1,2015,1408,0,0
798,-384,0,0,0,0,0,0,0,0,0,-1,2022,1408,0,0
805,-384,0,0,0,0,0,0,0,0,0,-1,2029,1408,0,0
812,-384,0,0,0,0,0,0,0,0,0,-1,2036,1408,0,0
-700,-391,0,0,0,0,0,0,0,0,0,-1,524,1415,0,0
-693,-391,0,0,0,0,0,0,0,0,0,-1,531,1415,0,0
-686,-391,0,0,0,0,0,0,0,0,0,-1,538,1415,0,0
-679,-391,0,0,0,0,0,0,0,0,0,-1,545,1415,0,0
-672,-391,0,0,0,0,0,0,0,0,0,-1,552,1415,0,0
-665,-391,0,0,0,0,0,0,0,0,0,-1,559,1415,0,0
-658,-391,0,0,0,0,0,0,0,0,0,-1,566,1415,0,0
-651,-391,0,0,0,0,0,0,0,0,0,-1,573,1415,0,0
-644,-391,0,0,0,0,0,0,0,0,0,-1,580,1415,0,0
-637,-391,0,0,0,0,0,0,0,0,0,-1,587,1415,0,0
-630,-391,0,0,0,0,0,0,0,0,0,-1,594,1415,0,0
-623,-391,0,0,0,0,0,0,0,0,0,-1,601,1415,0,0
-616,-391,0,0,0,0,0,0,0,0,0,-1,608,1415,0,0
-609,-391,-0.466125,-0.157715,0,0,0,0,0,0,0,-1,615,1415,-0.466111,0.157677
-602,-391,-0.44043,-0.0115967,0.0542152,0.0294751,0.0219068,0.0670032,0.0166871,0.528381,0.0402757,0.0494912,622,1415,-0.440418,0.0116329
-595,-391,-0.241516,0.0930176,0.0470207,0.0248982,0.0200677,0.0588738,0.0130452,0.533517,0.0357042,0.0441715,629,1415,-0.241509,-0.0930453
-588,-391,0.156128,-0.0371094,0.0391192,0.0207947,0.0176779,0.0498682,0.0100458,0.546312,0.0304542,0.0427883,636,1415,0.156103,0.0371461
-581,-391,0.192749,0.197632,0,0,0,0,0,0,0,-1,643,1415,0.192777,-0.197639
-574,-391,0.544067,0.81189,0,0,0,0,0,0,0,-1,650,1415,0.544074,-0.811833
-567,-391,0.495422,0.820068,0.0187261,0.011398,0.0104402,0.0261265,0.00399758,0.616634,0.0162499,0.0456267,657,1415,0.495452,-0.820022
-560,-391,0.362732,0.953247,0.0141389,0.00909463,0.0082938,0.0202856,0.00294795,0.637792,0.012656,0.0304989,664,1415,0.362755,-0.95322
-553,-391,0.365173,0.97876,0.0102264,0.00737903,0.00652626,0.0154824,0.00212296,0.678008,0.00969179,0.0175943,671,1415,0.365149,-0.978714
-546,-391,0.353271,1.03125,0.00639286,0.00567681,0.0048425,0.0108905,0.00117912,0.748498,0.00690099,0.010906,678,1415,0.353273,-1.03128
-539,-391,0.344299,1.05945,0.00431597,0.00385841,0.00305001,0.00714577,0.00102862,0.747964,0.00446068,0.0133338,685,1415,0.344309,-1.05942
-532,-391,0.342468,1.10022,0.00348451,0.00245686,0.00185799,0.00489841,0.00104295,0.650496,0.00297944,0.024466,692,1415,0.342448,-1.10027
-525,-391,0.365662,1.17249,0.00254659,0.00183687,0.000965823,0.00322068,0.00116278,0.609346,0.00188325,0.02193,699,1415,0.36568,-1.17255
-518,-391,0.35614,1.21069,0.00232822,0.000823662,7.8796e-05,0.00233234,0.000819547,0.0521813,0.00136626,0.013061,706,1415,0.356134,-1.21073
-511,-391,0.364197,1.2395,0.00214614,3.51227e-05,-0.000602184,0.00230584,-0.000124574,-0.259229,0.00158039,0.011244,713,1415,0.36418,-1.23953
-504,-391,0.360901,1.29333,0.00175893,-0.00076336,-0.00112532,0.00218801,-0.00119243,-0.364272,0.00197971,0.0101453,720,1415,0.360879,-1.29333
-497,-391,0.353149,1.32666,0.000797067,-0.00118226,-0.00175449,0.00182177,-0.00220696,-0.528606,0.00232953,0.00792328,727,1415,0.353127,-1.32666
-490,-391,0.368958,1.36011,-0.000310316,-0.00140424,-0.00213615,0.00134778,-0.00306234,-0.660066,0.00260954,0.00911485,734,1415,0.368955,-1.36017
-483,-391,0.335083,1.35754,-0.00125286,-0.000464235,-0.00277712,0.00194642,-0.00366352,-0.85592,0.00328909,0.0229965,741,1415,0.335065,-1.3575
-476,-391,0.284363,1.27856,-0.00172783,0.000849,-0.00356057,0.00334709,-0.00422592,-0.958998,0.00438209,0.0388775,748,1415,0.284348,-1.2786
-469,-391,0.23938,1.22375,0,0,0,0,0,0,0,-1,755,1415,0.239359,-1.22379
-462,-391,0.439697,1.34131,0.00461722,0.00541455,-0.00622206,0.0112507,-0.00121893,-0.817391,0.00793804,0.0467417,762,1415,0.439707,-1.34134
-455,-391,0.517822,1.38965,0.0096095,0.00860248,-0.00729226,0.0164156,0.00179637,-0.750929,0.0103968,0.0481224,769,1415,0.51781,-1.38965
-448,-391,0.00274658,1.26001,0.015113,0.0119685,-0.00823598,0.0219255,0.00515608,-0.691082,0.0132374,0.0463559,776,1415,0.00276497,-1.25997
-441,-391,-0.380066,1.26782,0,0,0,0,0,0,0,-1,783,1415,-0.380071,-1.26785
-434,-391,0.190369,-0.141968,0,0,0,0,0,0,0,-1,790,1415,0.190345,0.14191
-427,-391,-1.86237,0.196777,0,0,0,0,0,0,0,-1,797,1415,-1.86239,-0.196725
-420,-391,-0.856384,0.308838,0,0,0,0,0,0,0,-1,804,1415,-0.856411,-0.308803
-413,-391,0,0,0,0,0,0,0,0,0,-1,811,1415,0,0
-406,-391,0,0,0,0,0,0,0,0,0,-1,818,1415,0,0
-399,-391,0,0,0,0,0,0,0,0,0,-1,825,1415,0,0
-392,-391,0,0,0,0,0,0,0,0,0,-1,832,1415,0,0
-385,-391,0,0,0,0,0,0,0,0,0,-1,839,1415,0,0
-378,-391,0,0,0,0,0,0,0,0,0,-1,846,1415,0,0
-371,-391,0,0,0,0,0,0,0,0,0,-1,853,1415,0,0
-364,-391,0,0,0,0,0,0,0,0,0,-1,860,1415,0,0
-357,-391,0,0,0,0,0,0,0,0,0,-1,867,1415,0,0
-350,-391,0,0,0,0,0,0,0,0,0,-1,874,1415,0,0
-343,-391,0,0,0,0,0,0,0,0,0,-1,881,1415,0,0
-336,-391,0,0,0,0,0,0,0,0,0,-1,888,1415,0,0
-329,-391,0,0,0,0,0,0,0,0,0,-1,895,1415,0,0
-322,-391,0,0,0,0,0,0,0,0,0,-1,902,1415,0,0
-315,-391,0,0,0,0,0,0,0,0,0,-1,909,1415,0,0
-308,-391,0,0,0,0,0,0,0,0,0,-1,916,1415,0,0
-301,-391,0,0,0,0,0,0,0,0,0,-1,923,1415,0,0
-294,-391,0,0,0,0,0,0,0,0,0,-1,930,1415,0,0
-287,-391,0,0,0,0,0,0,0,0,0,-1,937,1415,0,0
-280,-391,0,0,0,0,0,0,0,0,0,-1,944,1415,0,0
-273,-391,0,0,0,0,0,0,0,0,0,-1,951,1415,0,0
-266,-391,0,0,0,0,0,0,0,0,0,-1,958,1415,0,0
-259,-391,0,0,0,0,0,0,0,0,0,-1,965,1415,0,0
-252,-391,0,0,0,0,0,0,0,0,0,-1,972,1415,0,0
-245,-391,0,0,0,0,0,0,0,0,0,-1,979,1415,0,0
-238,-391,0,0,0,0,0,0,0,0,0,-1,986,1415,0,0
-231,-391,0,0,0,0,0,0,0,0,0,-1,993,1415,0,0
-224,-391,0,0,0,0,0,0,0,0,0,-1,1000,1415,0,0
-217,-391,0,0,0,0,0,0,0,0,0,-1,1007,1415,0,0
-210,-391,0,0,0,0,0,0,0,0,0,-1,1014,1415,0,0
-203,-391,0,0,0,0,0,0,0,0,0,-1,1021,1415,0,0
-196,-391,0,0,0,0,0,0,0,0,0,-1,1028,1415,0,0
-189,-391,0,0,0,0,0,0,0,0,0,-1,1035,1415,0,0
-182,-391,0,0,0,0,0,0,0,0,0,-1,1042,1415,0,0
-175,-391,0,0,0,0,0,0,0,0,0,-1,1049,1415,0,0
-168,-391,0,0,0,0,0,0,0,0,0,-1,1056,1415,0,0
-161,-391,0,0,0,0,0,0,0,0,0,-1,1063,1415,0,0
-154,-391,0,0,0,0,0,0,0,0,0,-1,1070,1415,0,0
-147,-391,0,0,0,0,0,0,0,0,0,-1,1077,1415,0,0
-140,-391,0,0,0,0,0,0,0,0,0,-1,1084,1415,0,0
-133,-391,0,0,0,0,0,0,0,0,0,-1,1091,1415,0,0
-126,-391,0,0,0,0,0,0,0,0,0,-1,1098,1415,0,0
-119,-391,0,0,0,0,0,0,0,0,0,-1,1105,1415,0,0
-112,-391,0,0,0,0,0,0,0,0,0,-1,1112,1415,0,0
-105,-391,0,0,0,0,0,0,0,0,0,-1,1119,1415,0,0
-98,-391,0,0,0,0,0,0,0,0,0,-1,1126,1415,0,0
-91,-391,0,0,0,0,0,0,0,0,0,-1,1133,1415,0,0
-84,-391,0,0,0,0,0,0,0,0,0,-1,1140,1415,0,0
-77,-391,0,0,0,0,0,0,0,0,0,-1,1147,1415,0,0
-70,-391,0,0,0,0,0,0,0,0,0,-1,1154,1415,0,0
-63,-391,0,0,0,0,0,0,0,0,0,-1,1161,1415,0,0
-56,-391,0,0,0,0,0,0,0,0,0,-1,1168,1415,0,0
-49,-391,0,0,0,0,0,0,0,0,0,-1,1175,1415,0,0
-42,-391,0,0,0,0,0,0,0,0,0,-1,1182,1415,0,0
-35,-391,0,0,0,0,0,0,0,0,0,-1,1189,1415,0,0
-28,-391,0,0,0,0,0,0,0,0,0,-1,1196,1415,0,0
-21,-391,0,0,0,0,0,0,0,0,0,-1,1203,1415,0,0
-14,-391,0,0,0,0,0,0,0,0,0,-1,1210,1415,0,0
-7,-391,0,0,0,0,0,0,0,0,0,-1,1217,1415,0,0
0,-391,0,0,0,0,0,0,0,0,0,-1,1224,1415,0,0
7,-391,0,0,0,0,0,0,0,0,0,-1,1231,1415,0,0
14,-391,0,0,0,0,0,0,0,0,0,-1,1238,1415,0,0
21,-391,0,0,0,0,0,0,0,0,0,-1,1245,1415,0,0
28,-391,0,0,0,0,0,0,0,0,0,-1,1252,1415,0,0
35,-391,0,0,0,0,0,0,0,0,0,-1,1259,1415,0,0
42,-391,0,0,0,0,0,0,0,0,0,-1,1266,1415,0,0
49,-391,0,0,0,0,0,0,0,0,0,-1,1273,1415,0,0
56,-391,0,0,0,0,0,0,0,0,0,-1,1280,1415,0,0
63,-391,0,0,0,0,0,0,0,0,0,-1,1287,1415,0,0
70,-391,0,0,0,0,0,0,0,0,0,-1,1294,1415,0,0
77,-391,0,0,0,0,0,0,0,0,0,-1,1301,1415,0,0
84,-391,0,0,0,0,0,0,0,0,0,-1,1308,1415,0,0
91,-391,0,0,0,0,0,0,0,0,0,-1,1315,1415,0,0
98,-391,0,0,0,0,0,0,0,0,0,-1,1322,1415,0,0
105,-391,0,0,0,0,0,0,0,0,0,-1,1329,1415,0,0
112,-391,0,0,0,0,0,0,0,0,0,-1,1336,1415,0,0
119,-391,0,0,0,0,0,0,0,0,0,-1,1343,1415,0,0
126,-391,0,0,0,0,0,0,0,0,0,-1,1350,1415,0,0
133,-391,0,0,0,0,0,0,0,0,0,-1,1357,1415,0,0
140,-391,0,0,0,0,0,0,0,0,0,-1,1364,1415,0,0
147,-391,0,0,0,0,0,0,0,0,0,-1,1371,1415,0,0
154,-391,0,0,0,0,0,0,0,0,0,-1,1378,1415,0,0
161,-391,0,0,0,0,0,0,0,0,0,-1,1385,1415,0,0
168,-391,0,0,0,0,0,0,0,0,0,-1,1392,1415,0,0
175,-391,0,0,0,0,0,0,0,0,0,-1,1399,1415,0,0
182,-391,0,0,0,0,0,0,0,0,0,-1,1406,1415,0,0
189,-391,0,0,0,0,0,0,0,0,0,-1,1413,1415,0,0
196,-391,0,0,0,0,0,0,0,0,0,-1,1420,1415,0,0
203,-391,0,0,0,0,0,0,0,0,0,-1,1427,1415,0,0
210,-391,0,0,0,0,0,0,0,0,0,-1,1434,1415,0,0
217,-391,0,0,0,0,0,0,0,0,0,-1,1441,1415,0,0
224,-391,0,0,0,0,0,0,0,0,0,-1,1448,1415,0,0
231,-391,0,0,0,0,0,0,0,0,0,-1,1455,1415,0,0
238,-391,0,0,0,0,0,0,0,0,0,-1,1462,1415,0,0
245,-391,0,0,0,0,0,0,0,0,0,-1,1469,1415,0,0
252,-391,0,0,0,0,0,0,0,0,0,-1,1476,1415,0,0
259,-391,0,0,0,0,0,0,0,0,0,-1,1483,1415,0,0
266,-391,0,0,0,0,0,0,0,0,0,-1,1490,1415,0,0
273,-391,0,0,0,0,0,0,0,0,0,-1,1497,1415,0,0
280,-391,0,0,0,0,0,0,0,0,0,-1,1504,1415,0,0
287,-391,0,0,0,0,0,0,0,0,0,-1,1511,1415,0,0
294,-391,0,0,0,0,0,0,0,0,0,-1,1518,1415,0,0
301,-391,0,0,0,0,0,0,0,0,0,-1,1525,1415,0,0
308,-391,0,0,0,0,0,0,0,0,0,-1,1532,1415,0,0
315,-391,0,0,0,0,0,0,0,0,0,-1,1539,1415,0,0
322,-391,0,0,0,0,0,0,0,0,0,-1,1546,1415,0,0
329,-391,0,0,0,0,0,0,0,0,0,-1,1553,1415,0,0
336,-391,0,0,0,0,0,0,0,0,0,-1,1560,1415,0,0
343,-391,0,0,0,0,0,0,0,0,0,-1,1567,1415,0,0
350,-391,0,0,0,0,0,0,0,0,0,-1,1574,1415,0,0
357,-391,0,0,0,0,0,0,0,0,0,-1,1581,1415,0,0
364,-391,0,0,0,0,0,0,0,0,0,-1,1588,1415,0,0
371,-391,0,0,0,0,0,0,0,0,0,-1,1595,1415,0,0
378,-391,0,0,0,0,0,0,0,0,0,-1,1602,1415,0,0
385,-391,0,0,0,0,0,0,0,0,0,-1,1609,1415,0,0
392,-391,0,0,0,0,0,0,0,0,0,-1,1616,1415,0,0
399,-391,0,0,0,0,0,0,0,0,0,-1,1623,1415,0,0
406,-391,0,0,0,0,0,0,0,0,0,-1,1630,1415,0,0
413,-391,0,0,0,0,0,0,0,0,0,-1,1637,1415,0,0
420,-391,0,0,0,0,0,0,0,0,0,-1,1644,1415,0,0
427,-391,0,0,0,0,0,0,0,0,0,-1,1651,1415,0,0
434,-391,0,0,0,0,0,0,0,0,0,-1,1658,1415,0,0
441,-391,0,0,0,0,0,0,0,0,0,-1,1665,1415,0,0
448,-391,0,0,0,0,0,0,0,0,0,-1,1672,1415,0,0
455,-391,0,0,0,0,0,0,0,0,0,-1,1679,1415,0,0
462,-391,0,0,0,0,0,0,0,0,0,-1,1686,1415,0,0
469,-391,0,0,0,0,0,0,0,0,0,-1,1693,1415,0,0
476,-391,0,0,0,0,0,0,0,0,0,-1,1700,1415,0,0
483,-391,0,0,0,0,0,0,0,0,0,-1,1707,1415,0,0
490,-391,0,0,0,0,0,0,0,0,0,-1,1714,1415,0,0
497,-391,0,0,0,0,0,0,0,0,0,-1,1721,1415,0,0
504,-391,0,0,0,0,0,0,0,0,0,-1,1728,1415,0,0
511,-391,0,0,0,0,0,0,0,0,0,-1,1735,1415,0,0
518,-391,0,0,0,0,0,0,0,0,0,-1,1742,1415,0,0
525,-391,0,0,0,0,0,0,0,0,0,-1,1749,1415,0,0
532,-391,5.15686,0.262817,0,0,0,0,0,0,0,-1,1756,1415,5.15689,-0.262802
539,-391,5.08044,0.170166,0,0,0,0,0,0,0,-1,1763,1415,5.08044,-0.170203
546,-391,3.81104,0.316895,0,0,0,0,0,0,0,-1,1770,1415,3.81108,-0.316909
553,-391,7.29065,0.853271,-0.0287024,0.0930209,0.044776,0.107717,-0.0433989,1.25365,0.0898426,0.0436382,1777,1415,7.29065,-0.853321
560,-391,7.41309,1.65454,0,0,0,0,0,0,0,-1,1784,1415,7.41303,-1.65455
567,-391,6.77527,2.07483,0,0,0,0,0,0,0,-1,1791,1415,6.77523,-2.07481
574,-391,6.14587,2.33044,0,0,0,0,0,0,0,-1,1798,1415,6.14585,-2.3305
581,-391,6.69507,2.74304,0,0,0,0,0,0,0,-1,1805,1415,6.69501,-2.74307
588,-391,4.78723,1.72168,0,0,0,0,0,0,0,-1,1812,1415,4.78725,-1.72165
595,-391,4.10181,1.44873,-0.0124398,0.0190006,0.0165931,0.0261377,-0.0195769,1.16459,0.0264837,0.048947,1819,1415,4.10183,-1.44869
602,-391,3.75708,1.29639,-0.0100808,0.0132116,0.0137823,0.0196094,-0.0164786,1.13619,0.0208615,0.048809,1826,1415,3.75702,-1.29644
609,-391,3.69141,1.37976,-0.00850785,0.0105507,0.0114917,0.0159501,-0.0139073,1.13155,0.0172516,0.0419679,1833,1415,3.69137,-1.37975
616,-391,3.61377,1.32971,-0.00677531,0.00730358,0.00935303,0.0119702,-0.011442,1.10799,0.0135182,0.0266865,1840,1415,3.61378,-1.32969
623,-391,3.66675,1.34656,-0.00501694,0.00529281,0.00756099,0.00928897,-0.0090131,1.08459,0.0105671,0.0145917,1847,1415,3.6668,-1.34655
630,-391,3.69202,1.33752,-0.00340874,0.00386176,0.00570472,0.00699105,-0.00653803,1.06907,0.00781247,0.0154561,1854,1415,3.69202,-1.33748
637,-391,3.66028,1.34204,-0.00237097,0.00256818,0.00421014,0.0049796,-0.00478239,1.05064,0.00563647,0.0146021,1861,1415,3.66028,-1.34207
644,-391,3.66309,1.31555,-0.00187224,0.00147373,0.00332581,0.00352363,-0.00392215,1.01843,0.00430087,0.014087,1868,1415,3.66313,-1.31557
651,-391,3.68628,1.26794,-0.000993515,0.000864981,0.00287364,0.00295588,-0.00308442,0.941776,0.00348763,0.0146439,1875,1415,3.68626,-1.26793
658,-391,3.68359,1.20764,-0.000629666,-0.00034702,0.00208087,0.00159732,-0.00257401,0.819304,0.00243023,0.0140101,1882,1415,3.68357,-1.20768
665,-391,3.68237,1.15955,0.00284076,-0.00112466,0.00177427,0.00351873,-0.00180262,0.364988,0.00312508,0.0118073,1889,1415,3.68237,-1.15956
672,-391,3.68835,1.1261,0.00696656,-0.000503407,0.0030239,0.0080372,-0.00157405,0.340288,0.0059526,0.0109954,1896,1415,3.68835,-1.12607
679,-391,3.68188,1.10522,0.010826,-0.00216878,0.00362824,0.0117704,-0.00311317,0.25464,0.00906464,0.0105442,1903,1415,3.68187,-1.10523
686,-391,3.68152,1.08252,0.015829,-0.00387253,0.00446097,0.016792,-0.00483555,0.212613,0.0131073,0.011925,1910,1415,3.68158,-1.08249
693,-391,3.66272,1.0885,0.0220882,-0.00507048,0.00568832,0.0232315,-0.00621376,0.198344,0.0179216,0.0217329,1917,1415,3.66277,-1.08844
700,-391,3.66943,1.23315,0.0300189,-0.00682081,0.00712944,0.0313505,-0.00815241,0.184647,0.0240823,0.038811,1924,1415,3.66944,-1.23321
707,-391,3.89124,1.30652,0.0390517,-0.00912181,0.0089003,0.0406435,-0.0107136,0.176975,0.0312844,0.0476808,1931,1415,3.89126,-1.30647
714,-391,4.995,2.35291,0,0,0,0,0,0,0,-1,1938,1415,4.99498,-2.35285
721,-391,4.92847,2.5105,0.0582852,-0.0159409,0.0136405,0.0607126,-0.0183682,0.176107,0.0477893,0.0455686,1945,1415,4.92848,-2.51049
728,-391,4.84961,2.72644,0.0668396,-0.0208271,0.0166937,0.0699109,-0.0238984,0.181942,0.0562906,0.0433242,1952,1415,4.84965,-2.7265
735,-391,0,0,0,0,0,0,0,0,0,-1,1959,1415,0,0
742,-391,0,0,0,0,0,0,0,0,0,-1,1966,1415,0,0
749,-391,0,0,0,0,0,0,0,0,0,-1,1973,1415,0,0
756,-391,0,0,0,0,0,0,0,0,0,-1,1980,1415,0,0
763,-391,0,0,0,0,0,0,0,0,0,-1,1987,1415,0,0
770,-391,0,0,0,0,0,0,0,0,0,-1,1994,1415,0,0
777,-391,0,0,0,0,0,0,0,0,0,-1,2001,1415,0,0
784,-391,0,0,0,0,0,0,0,0,0,-1,2008,1415,0,0
791,-391,0,0,0,0,0,0,0,0,0,-1,2015,1415,0,0
798,-391,0,0,0,0,0,0,0,0,0,-1,2022,1415,0,0
805,-391,0,0,0,0,0,0,0,0,0,-1,2029,1415,0,0
812,-391,0,0,0,0,0,0,0,0,0,-1,2036,1415,0,0
-700,-398,0,0,0,0,0,0,0,0,0,-1,524,1422,0,0
-693,-398,0,0,0,0,0,0,0,0,0,-1,531,1422,0,0
-686,-398,0,0,0,0,0,0,0,0,0,-1,538,1422,0,0
-679,-398,0,0,0,0,0,0,0,0,0,-1,545,1422,0,0
-672,-398,0,0,0,0,0,0,0,0,0,-1,552,1422,0,0
-665,-398,0,0,0,0,0,0,0,0,0,-1,559,1422,0,0
-658,-398,0,0,0,0,0,0,0,0,0,-1,566,1422,0,0
-651,-398,0,0,0,0,0,0,0,0,0,-1,573,1422,0,0
-644,-398,0,0,0,0,0,0,0,0,0,-1,580,1422,0,0
-637,-398,0,0,0,0,0,0,0,0,0,-1,587,1422,0,0
-630,-398,0,0,0,0,0,0,0,0,0,-1,594,1422,0,0
-623,-398,0,0,0,0,0,0,0,0,0,-1,601,1422,0,0
-616,-398,0,0,0,0,0,0,0,0,0,-1,608,1422,0,0
-609,-398,-1.2962,1.03271,0,0,0,0,0,0,0,-1,615,1422,-1.29619,-1.03272
-602,-398,-0.476868,-0.0648193,0,0,0,0,0,0,0,-1,622,1422,-0.476859,0.0648383
-595,-398,-0.0665283,0.00744629,0,0,0,0,0,0,0,-1,629,1422,-0.0665229,-0.0074791
-588,-398,0.324158,-0.154907,0.0394721,0.02356,0.0182441,0.0514195,0.0116126,0.579786,0.0311392,0.043482,636,1422,0.32418,0.154944
-581,-398,0.848816,-0.782227,0.0317314,0.0196932,0.0154006,0.0422473,0.0091773,0.599107,0.0256588,0.0459165,643,1422,0.848832,0.782175
-574,-398,0.0639038,0.703857,0,0,0,0,0,0,0,-1,650,1422,0.0639126,-0.703856
-567,-398,0.182251,0.774902,0.0192737,0.0134787,0.0106305,0.0273945,0.00535788,0.652349,0.0167649,0.0419399,657,1422,0.182235,-0.774843
-560,-398,0.378357,0.941406,0.0148563,0.0109547,0.00861072,0.0217344,0.00407653,0.674002,0.01334,0.0338673,664,1422,0.378387,-0.941361
-553,-398,0.392822,0.989502,0.0110656,0.00899583,0.00699299,0.0170998,0.00296155,0.711938,0.0105522,0.0206488,671,1422,0.392825,-0.989545
-546,-398,0.392334,1.04163,0.00738326,0.0070531,0.0054703,0.012691,0.00174539,0.770314,0.00794304,0.00973748,678,1422,0.392351,-1.04168
-539,-398,0.392578,1.08594,0.00523211,0.00502511,0.00382605,0.00895606,0.00130116,0.771876,0.00558771,0.011321,685,1422,0.392606,-1.08598
-532,-398,0.404907,1.12573,0.00413139,0.00329653,0.00264651,0.00639319,0.00103473,0.707178,0.00396251,0.0201246,692,1422,0.404905,-1.12572
-525,-398,0.424194,1.1709,0.00310384,0.00237257,0.00165677,0.00443484,0.00104157,0.676794,0.00267777,0.0196154,699,1422,0.424198,-1.17087
-518,-398,0.419006,1.20081,0.0027282,0.00101966,0.000753906,0.0030133,0.000734566,0.361535,0.00181427,0.0162423,706,1422,0.418997,-1.20077
-511,-398,0.418274,1.22791,0.0024792,-0.00015711,-2.25958e-05,0.00247939,-0.000157303,-0.00857014,0.00170778,0.011861,713,1422,0.418292,-1.22785
-504,-398,0.404663,1.28308,0.00216289,-0.00136283,-0.000677877,0.00228873,-0.00148867,-0.183551,0.00219713,0.0120713,720,1422,0.404683,-1.28311
-497,-398,0.39856,1.3158,0.00153291,-0.00249429,-0.00149958,0.00202995,-0.00299134,-0.320059,0.0029167,0.00939904,727,1422,0.39858,-1.31578
-490,-398,0.40332,1.35181,0.000990896,-0.00343888,-0.00221953,0.00191162,-0.0043596,-0.393223,0.0037115,0.00899109,734,1422,0.403334,-1.35176
-483,-398,0.394836,1.38538,0.000991669,-0.00339413,-0.00329462,0.00275646,-0.00515892,-0.491766,0.00463958,0.0137649,741,1422,0.394849,-1.38538
-476,-398,0.362061,1.3092,0.00185412,-0.00330532,-0.00456807,0.00452056,-0.00597176,-0.528358,0.00607702,0.0323408,748,1422,0.36209,-1.30915
-469,-398,0.323547,1.26758,0.00504173,-0.0027446,-0.00638002,0.00862261,-0.00632548,-0.511451,0.00866419,0.0455093,755,1422,0.323529,-1.26753
-462,-398,0.359924,1.29712,0.0107647,-0.00144619,-0.00790732,0.0146494,-0.00533085,-0.456642,0.0119465,0.0443713,762,1422,0.359925,-1.29706
-455,-398,0.448486,1.43152,0.0170141,0.000314515,-0.00921692,0.0211009,-0.00377236,-0.41736,0.0154787,0.0397614,769,1422,0.448501,-1.43149
-448,-398,0.273804,1.34448,0.0239156,0.00222119,-0.0104365,0.0281211,-0.00198424,-0.383051,0.0194426,0.0444947,776,1422,0.273787,-1.34448
-441,-398,0.121765,1.22876,0,0,0,0,0,0,0,-1,783,1422,0.121747,-1.22874
-434,-398,0.596802,0.410278,0,0,0,0,0,0,0,-1,790,1422,0.596822,-0.410253
-427,-398,-1.25854,0.379272,0,0,0,0,0,0,0,-1,797,1422,-1.25853,-0.379247
-420,-398,-0.352234,0.532837,0.0689857,0.0175374,-0.0168756,0.0740271,0.012496,-0.290299,0.0457584,0.0417264,804,1422,-0.352264,-0.532809
-413,-398,0.291077,0.606934,0.0827706,0.0193852,-0.0158508,0.0865134,0.0156425,-0.231879,0.0532331,0.0410671,811,1422,0.291055,-0.606992
-406,-398,0,0,0,0,0,0,0,0,0,-1,818,1422,0,0
-399,-398,0,0,0,0,0,0,0,0,0,-1,825,1422,0,0
-392,-398,0,0,0,0,0,0,0,0,0,-1,832,1422,0,0
-385,-398,0,0,0,0,0,0,0,0,0,-1,839,1422,0,0
-378,-398,0,0,0,0,0,0,0,0,0,-1,846,1422,0,0
-371,-398,0,0,0,0,0,0,0,0,0,-1,853,1422,0,0
-364,-398,0,0,0,0,0,0,0,0,0,-1,860,1422,0,0
-357,-398,0,0,0,0,0,0,0,0,0,-1,867,1422,0,0
-350,-398,0,0,0,0,0,0,0,0,0,-1,874,1422,0,0
-343,-398,0,0,0,0,0,0,0,0,0,-1,881,1422,0,0
-336,-398,0,0,0,0,0,0,0,0,0,-1,888,1422,0,0
-329,-398,0,0,0,0,0,0,0,0,0,-1,895,1422,0,0
-322,-398,0,0,0,0,0,0,0,0,0,-1,902,1422,0,0
-315,-398,0,0,0,0,0,0,0,0,0,-1,909,1422,0,0
-308,-398,0,0,0,0,0,0,0,0,0,-1,916,1422,0,0
-301,-398,0,0,0,0,0,0,0,0,0,-1,923,1422,0,0
-294,-398,0,0,0,0,0,0,0,0,0,-1,930,1422,0,0
-287,-398,0,0,0,0,0,0,0,0,0,-1,937,1422,0,0
-280,-398,0,0,0,0,0,0,0,0,0,-1,944,1422,0,0
-273,-398,0,0,0,0,0,0,0,0,0,-1,951,1422,0,0
-266,-398,0,0,0,0,0,0,0,0,0,-1,958,1422,0,0
-259,-398,0,0,0,0,0,0,0,0,0,-1,965,1422,0,0
-252,-398,0,0,0,0,0,0,0,0,0,-1,972,1422,0,0
-245,-398,0,0,0,0,0,0,0,0,0,-1,979,1422,0,0
-238,-398,0,0,0,0,0,0,0,0,0,-1,986,1422,0,0
-231,-398,0,0,0,0,0,0,0,0,0,-1,993,1422,0,0
-224,-398,0,0,0,0,0,0,0,0,0,-1,1000,1422,0,0
-217,-398,0,0,0,0,0,0,0,0,0,-1,1007,1422,0,0
-210,-398,0,0,0,0,0,0,0,0,0,-1,1014,1422,0,0
-203,-398,0,0,0,0,0,0,0,0,0,-1,1021,1422,0,0
-196,-398,0,0,0,0,0,0,0,0,0,-1,1028,1422,0,0
-189,-398,0,0,0,0,0,0,0,0,0,-1,1035,1422,0,0
-182,-398,0,0,0,0,0,0,0,0,0,-1,1042,1422,0,0
-175,-398,0,0,0,0,0,0,0,0,0,-1,1049,1422,0,0
-168,-398,0,0,0,0,0,0,0,0,0,-1,1056,1422,0,0
-161,-398,0,0,0,0,0,0,0,0,0,-1,1063,1422,0,0
-154,-398,0,0,0,0,0,0,0,0,0,-1,1070,1422,0,0
-147,-398,0,0,0,0,0,0,0,0,0,-1,1077,1422,0,0
-140,-398,0,0,0,0,0,0,0,0,0,-1,1084,1422,0,0
-133,-398,0,0,0,0,0,0,0,0,0,-1,1091,1422,0,0
-126,-398,0,0,0,0,0,0,0,0,0,-1,1098,1422,0,0
-119,-398,0,0,0,0,0,0,0,0,0,-1,1105,1422,0,0
-112,-398,0,0,0,0,0,0,0,0,0,-1,1112,1422,0,0
-105,-398,0,0,0,0,0,0,0,0,0,-1,1119,1422,0,0
-98,-398,0,0,0,0,0,0,0,0,0,-1,1126,1422,0,0
-91,-398,0,0,0,0,0,0,0,0,0,-1,1133,1422,0,0
-84,-398,0,0,0,0,0,0,0,0,0,-1,1140,1422,0,0
-77,-398,0,0,0,0,0,0,0,0,0,-1,1147,1422,0,0
-70,-398,0,0,0,0,0,0,0,0,0,-1,1154,1422,0,0
-63,-398,0,0,0,0,0,0,0,0,0,-1,1161,1422,0,0
-56,-398,0,0,0,0,0,0,0,0,0,-1,1168,1422,0,0
-49,-398,0,0,0,0,0,0,0,0,0,-1,1175,1422,0,0
-42,-398,0,0,0,0,0,0,0,0,0,-1,1182,1422,0,0
-35,-398,0,0,0,0,0,0,0,0,0,-1,1189,1422,0,0
-28,-398,0,0,0,0,0,0,0,0,0,-1,1196,1422,0,0
-21,-398,0,0,0,0,0,0,0,0,0,-1,1203,1422,0,0
-14,-398,0,0,0,0,0,0,0,0,0,-1,1210,1422,0,0
-7,-398,0,0,0,0,0,0,0,0,0,-1,1217,1422,0,0
0,-398,0,0,0,0,0,0,0,0,0,-1,1224,1422,0,0
7,-398,0,0,0,0,0,0,0,0,0,-1,1231,1422,0,0
14,-398,0,0,0,0,0,0,0,0,0,-1,1238,1422,0,0
21,-398,0,0,0,0,0,0,0,0,0,-1,1245,1422,0,0
28,-398,0,0,0,0,0,0,0,0,0,-1,1252,1422,0,0
35,-398,0,0,0,0,0,0,0,0,0,-1,1259,1422,0,0
42,-398,0,0,0,0,0,0,0,0,0,-1,1266,1422,0,0
49,-398,0,0,0,0,0,0,0,0,0,-1,1273,1422,0,0
56,-398,0,0,0,0,0,0,0,0,0,-1,1280,1422,0,0
63,-398,0,0,0,0,0,0,0,0,0,-1,1287,1422,0,0
70,-398,0,0,0,0,0,0,0,0,0,-1,1294,1422,0,0
77,-398,0,0,0,0,0,0,0,0,0,-1,1301,1422,0,0
84,-398,0,0,0,0,0,0,0,0,0,-1,1308,1422,0,0
91,-398,0,0,0,0,0,0,0,0,0,-1,1315,1422,0,0
98,-398,0,0,0,0,0,0,0,0,0,-1,1322,1422,0,0
105,-398,0,0,0,0,0,0,0,0,0,-1,1329,1422,0,0
112,-398,0,0,0,0,0,0,0,0,0,-1,1336,1422,0,0
119,-398,0,0,0,0,0,0,0,0,0,-1,1343,1422,0,0
126,-398,0,0,0,0,0,0,0,0,0,-1,1350,1422,0,0
133,-398,0,0,0,0,0,0,0,0,0,-1,1357,1422,0,0
140,-398,0,0,0,0,0,0,0,0,0,-1,1364,1422,0,0
147,-398,0,0,0,0,0,0,0,0,0,-1,1371,1422,0,0
154,-398,0,0,0,0,0,0,0,0,0,-1,1378,1422,0,0
161,-398,0,0,0,0,0,0,0,0,0,-1,1385,1422,0,0
168,-398,0,0,0,0,0,0,0,0,0,-1,1392,1422,0,0
175,-398,0,0,0,0,0,0,0,0,0,-1,1399,1422,0,0
182,-398,0,0,0,0,0,0,0,0,0,-1,1406,1422,0,0
189,-398,0,0,0,0,0,0,0,0,0,-1,1413,1422,0,0
196,-398,0,0,0,0,0,0,0,0,0,-1,1420,1422,0,0
203,-398,0,0,0,0,0,0,0,0,0,-1,1427,1422,0,0
210,-398,0,0,0,0,0,0,0,0,0,-1,1434,1422,0,0
217,-398,0,0,0,0,0,0,0,0,0,-1,1441,1422,0,0
224,-398,0,0,0,0,0,0,0,0,0,-1,1448,1422,0,0
231,-398,0,0,0,0,0,0,0,0,0,-1,1455,1422,0,0
238,-398,0,0,0,0,0,0,0,0,0,-1,1462,1422,0,0
245,-398,0,0,0,0,0,0,0,0,0,-1,1469,1422,0,0
252,-398,0,0,0,0,0,0,0,0,0,-1,1476,1422,0,0
259,-398,0,0,0,0,0,0,0,0,0,-1,1483,1422,0,0
266,-398,0,0,0,0,0,0,0,0,0,-1,1490,1422,0,0
273,-398,0,0,0,0,0,0,0,0,0,-1,1497,1422,0,0
280,-398,0,0,0,0,0,0,0,0,0,-1,1504,1422,0,0
287,-398,0,0,0,0,0,0,0,0,0,-1,1511,1422,0,0
294,-398,0,0,0,0,0,0,0,0,0,-1,1518,1422,0,0
301,-398,0,0,0,0,0,0,0,0,0,-1,1525,1422,0,0
308,-398,0,0,0,0,0,0,0,0,0,-1,1532,1422,0,0
315,-398,0,0,0,0,0,0,0,0,0,-1,1539,1422,0,0
322,-398,0,0,0,0,0,0,0,0,0,-1,1546,1422,0,0
329,-398,0,0,0,0,0,0,0,0,0,-1,1553,1422,0,0
336,-398,0,0,0,0,0,0,0,0,0,-1,1560,1422,0,0
343,-398,0,0,0,0,0,0,0,0,0,-1,1567,1422,0,0
350,-398,0,0,0,0,0,0,0,0,0,-1,1574,1422,0,0
357,-398,0,0,0,0,0,0,0,0,0,-1,1581,1422,0,0
364,-398,0,0,0,0,0,0,0,0,0,-1,1588,1422,0,0
371,-398,0,0,0,0,0,0,0,0,0,-1,1595,1422,0,0
378,-398,0,0,0,0,0,0,0,0,0,-1,1602,1422,0,0
385,-398,0,0,0,0,0,0,0,0,0,-1,1609,1422,0,0
392,-398,0,0,0,0,0,0,0,0,0,-1,1616,1422,0,0
399,-398,0,0,0,0,0,0,0,0,0,-1,1623,1422,0,0
406,-398,0,0,0,0,0,0,0,0,0,-1,1630,1422,0,0
413,-398,0,0,0,0,0,0,0,0,0,-1,1637,1422,0,0
420,-398,0,0,0,0,0,0,0,0,0,-1,1644,1422,0,0
427,-398,0,0,0,0,0,0,0,0,0,-1,1651,1422,0,0
434,-398,0,0,0,0,0,0,0,0,0,-1,1658,1422,0,0
441,-398,0,0,0,0,0,0,0,0,0,-1,1665,1422,0,0
448,-398,0,0,0,0,0,0,0,0,0,-1,1672,1422,0,0
455,-398,0,0,0,0,0,0,0,0,0,-1,1679,1422,0,0
462,-398,0,0,0,0,0,0,0,0,0,-1,1686,1422,0,0
469,-398,0,0,0,0,0,0,0,0,0,-1,1693,1422,0,0
476,-398,0,0,0,0,0,0,0,0,0,-1,1700,1422,0,0
483,-398,0,0,0,0,0,0,0,0,0,-1,1707,1422,0,0
490,-398,0,0,0,0,0,0,0,0,0,-1,1714,1422,0,0
497,-398,0,0,0,0,0,0,0,0,0,-1,1721,1422,0,0
504,-398,0,0,0,0,0,0,0,0,0,-1,1728,1422,0,0
511,-398,0,0,0,0,0,0,0,0,0,-1,1735,1422,0,0
518,-398,0,0,0,0,0,0,0,0,0,-1,1742,1422,0,0
525,-398,0,0,0,0,0,0,0,0,0,-1,1749,1422,0,0
532,-398,9.03967,4.62732,0,0,0,0,0,0,0,-1,1756,1422,9.03963,-4.62736
539,-398,8.61206,4.66968,0,0,0,0,0,0,0,-1,1763,1422,8.61208,-4.66971
546,-398,8.50513,4.42603,0,0,0,0,0,0,0,-1,1770,1422,8.50515,-4.42598
553,-398,6.40454,1.11206,0,0,0,0,0,0,0,-1,1777,1422,6.4046,-1.11207
560,-398,6.47412,1.82886,0,0,0,0,0,0,0,-1,1784,1422,6.47407,-1.8288
567,-398,5.76807,1.99475,0,0,0,0,0,0,0,-1,1791,1422,5.76811,-1.99469
574,-398,5.06213,2.16064,0,0,0,0,0,0,0,-1,1798,1422,5.06214,-2.16058
581,-398,4.85974,1.09326,0,0,0,0,0,0,0,-1,1805,1422,4.85974,-1.09331
588,-398,4.61121,1.22424,0,0,0,0,0,0,0,-1,1812,1422,4.61118,-1.22427
595,-398,3.7605,1.3429,0,0,0,0,0,0,0,-1,1819,1422,3.76054,-1.34293
602,-398,3.73218,1.36182,-0.0106254,0.00809928,0.0122186,0.0141301,-0.0166562,1.1123,0.0177944,0.0450761,1826,1422,3.73216,-1.36177
609,-398,3.63623,1.45386,-0.00848792,0.00584462,0.00987872,0.0108826,-0.0135259,1.09919,0.0141198,0.033731,1833,1422,3.63629,-1.45391
616,-398,3.61975,1.41528,-0.00629315,0.00326783,0.00784703,0.00767586,-0.0107012,1.05898,0.0106578,0.0147969,1840,1422,3.61975,-1.41524
623,-398,3.63574,1.37659,-0.00432516,0.00189851,0.00623518,0.00575525,-0.0081819,1.01685,0.00808717,0.00969297,1847,1422,3.63573,-1.3766
630,-398,3.6449,1.34729,-0.00268979,0.00119744,0.00470627,0.00434564,-0.00583799,0.981223,0.00590053,0.0106076,1854,1422,3.64494,-1.34728
637,-398,3.62659,1.32886,-0.00169359,0.000551734,0.00354696,0.00314946,-0.00429132,0.938667,0.00431276,0.012146,1861,1422,3.62653,-1.32885
644,-398,3.61108,1.29272,-0.00122592,-2.5335e-05,0.00299563,0.00242955,-0.00368081,0.884283,0.00355239,0.0170254,1868,1422,3.61106,-1.29268
651,-398,3.61707,1.27271,-0.000417068,-0.00016508,0.00280242,0.00251417,-0.00309632,0.807863,0.00324503,0.0229321,1875,1422,3.61702,-1.27272
658,-398,3.64319,1.22876,1.67085e-06,-0.000919997,0.00229752,0.00188411,-0.00280244,0.686422,0.00272304,0.0175409,1882,1422,3.64317,-1.22875
665,-398,3.63245,1.16455,0.0036961,-0.00144929,0.00214482,0.00447288,-0.00222608,0.347473,0.00393949,0.0128174,1889,1422,3.63244,-1.16451
672,-398,3.64111,1.12451,0.00812421,-0.000195571,0.0036521,0.00949989,-0.00157125,0.360244,0.00691676,0.0121799,1896,1422,3.64117,-1.1245
679,-398,3.64526,1.10205,0.0124445,-0.0014581,0.00440495,0.0137227,-0.00273627,0.28241,0.0101838,0.0112193,1903,1422,3.64523,-1.10209
686,-398,3.67542,1.09741,0.0182624,-0.00263712,0.00538878,0.01957,-0.00394476,0.238058,0.0145411,0.0168752,1910,1422,3.67547,-1.09738
693,-398,3.66003,1.17883,0.0256365,-0.00313802,0.00677326,0.0271511,-0.00465266,0.22,0.0198344,0.0354816,1917,1422,3.66006,-1.17882
700,-398,3.7439,1.26965,0.0349524,-0.00391338,0.00840317,0.0366914,-0.00565241,0.20407,0.0265464,0.0469333,1924,1422,3.74391,-1.26961
707,-398,3.78174,1.29614,0,0,0,0,0,0,0,-1,1931,1422,3.78179,-1.2962
714,-398,1.23792,0.796875,0.0571176,-0.0063031,0.0128895,0.0596372,-0.00882265,0.193039,0.0430018,0.0494995,1938,1422,1.23797,-0.796875
721,-398,5.27271,3.0907,0.0687853,-0.0081069,0.0159124,0.0719482,-0.0112698,0.196211,0.0521297,0.0433009,1945,1422,5.27268,-3.09073
728,-398,5.13696,3.23853,0.0794969,-0.0105759,0.0195579,0.0835603,-0.0146392,0.204847,0.0611733,0.0439598,1952,1422,5.13701,-3.23858
735,-398,0,0,0,0,0,0,0,0,0,-1,1959,1422,0,0
742,-398,0,0,0,0,0,0,0,0,0,-1,1966,1422,0,0
749,-398,0,0,0,0,0,0,0,0,0,-1,1973,1422,0,0
756,-398,0,0,0,0,0,0,0,0,0,-1,1980,1422,0,0
763,-398,0,0,0,0,0,0,0,0,0,-1,1987,1422,0,0
770,-398,0,0,0,0,0,0,0,0,0,-1,1994,1422,0,0
777,-398,0,0,0,0,0,0,0,0,0,-1,2001,1422,0,0
784,-398,0,0,0,0,0,0,0,0,0,-1,2008,1422,0,0
791,-398,0,0,0,0,0,0,0,0,0,-1,2015,1422,0,0
798,-398,0,0,0,0,0,0,0,0,0,-1,2022,1422,0,0
805,-398,0,0,0,0,0,0,0,0,0,-1,2029,1422,0,0
812,-398,0,0,0,0,0,0,0,0,0,-1,2036,1422,0,0
-700,-405,0,0,0,0,0,0,0,0,0,-1,524,1429,0,0
-693,-405,0,0,0,0,0,0,0,0,0,-1,531,1429,0,0
-686,-405,0,0,0,0,0,0,0,0,0,-1,538,1429,0,0
-679,-405,0,0,0,0,0,0,0,0,0,-1,545,1429,0,0
-672,-405,0,0,0,0,0,0,0,0,0,-1,552,1429,0,0
-665,-405,0,0,0,0,0,0,0,0,0,-1,559,1429,0,0
-658,-405,0,0,0,0,0,0,0,0,0,-1,566,1429,0,0
-651,-405,0,0,0,0,0,0,0,0,0,-1,573,1429,0,0
-644,-405,0,0,0,0,0,0,0,0,0,-1,580,1429,0,0
-637,-405,0,0,0,0,0,0,0,0,0,-1,587,1429,0,0
-630,-405,0,0,0,0,0,0,0,0,0,-1,594,1429,0,0
-623,-405,0,0,0,0,0,0,0,0,0,-1,601,1429,0,0
-616,-405,0,0,0,0,0,0,0,0,0,-1,608,1429,0,0
-609,-405,0,0,0,0,0,0,0,0,0,-1,615,1429,0,0
-602,-405,0.292297,-0.0653076,0,0,0,0,0,0,0,-1,622,1429,0.292279,0.0653526
-595,-405,-0.538818,0.119263,0,0,0,0,0,0,0,-1,629,1429,-0.538839,-0.11931
-588,-405,-0.162842,-0.27124,0.0381427,0.0254307,0.0191778,0.0519904,0.0115831,0.625382,0.0315169,0.0445054,636,1429,-0.162831,0.27124
-581,-405,0.502869,0.221802,0.0308849,0.0215434,0.0159991,0.0428811,0.00954722,0.643375,0.0259961,0.0431906,643,1429,0.502847,-0.221764
-574,-405,0.226257,0.642822,0,0,0,0,0,0,0,-1,650,1429,0.226233,-0.642872
-567,-405,0.287048,0.728027,0.0194367,0.0153483,0.011174,0.028752,0.00603303,0.694929,0.017507,0.0451222,657,1429,0.287036,-0.728042
-560,-405,0.331299,0.891724,0.0153498,0.0127503,0.00928531,0.0234259,0.00467422,0.715861,0.0143159,0.0407157,664,1429,0.331294,-0.891729
-553,-405,0.407043,0.976074,0.0118563,0.0106064,0.00779316,0.0190495,0.00341315,0.745388,0.0117287,0.0303424,671,1429,0.407031,-0.976082
-546,-405,0.416931,1.04822,0.008462,0.00854231,0.00638976,0.014892,0.00211227,0.78854,0.00930421,0.0126118,678,1429,0.416949,-1.04822
-539,-405,0.42511,1.08472,0.00630779,0.00635873,0.00486219,0.0111955,0.001471,0.788017,0.00702487,0.010234,685,1429,0.425086,-1.08472
-532,-405,0.433105,1.13953,0.00500145,0.00436046,0.00364677,0.00834178,0.00102013,0.741568,0.00525426,0.0139528,692,1429,0.433099,-1.13958
-525,-405,0.452026,1.18982,0.00392022,0.00318284,0.00250251,0.00608105,0.001022,0.71226,0.00375995,0.0141094,699,1429,0.452019,-1.18984
-518,-405,0.465332,1.21094,0.00338119,0.00157025,0.00149871,0.00422672,0.000724716,0.513659,0.00261,0.0147978,706,1429,0.465353,-1.21091
-511,-405,0.464966,1.23181,0.00297847,0.000156557,0.000562117,0.00308632,4.87068e-05,0.189561,0.00204151,0.0143863,713,1429,0.464952,-1.23178
-504,-405,0.462891,1.24524,0.00257052,-0.00130288,-0.000293828,0.00259269,-0.00132504,-0.0752838,0.00230103,0.0154495,720,1429,0.46288,-1.24525
-497,-405,0.45636,1.29614,0.00193671,-0.00264273,-0.00135672,0.00230847,-0.0030145,-0.267453,0.00308222,0.0138995,727,1429,0.456383,-1.29612
-490,-405,0.447632,1.36023,0.00155108,-0.00382001,-0.00244346,0.00249633,-0.00476526,-0.369117,0.00426015,0.011625,734,1429,0.44766,-1.36027
-483,-405,0.420105,1.40051,0.00187764,-0.00397528,-0.00386416,0.00379844,-0.00589608,-0.461309,0.00564063,0.00893335,741,1429,0.420085,-1.40045
-476,-405,0.429565,1.4292,0.0031605,-0.00418528,-0.00546036,0.00606831,-0.00709309,-0.489333,0.00760641,0.0194038,748,1429,0.429581,-1.42925
-469,-405,0.434143,1.36096,0.00646885,-0.00393904,-0.00750295,0.0103959,-0.00786611,-0.482194,0.0105773,0.0338813,755,1429,0.434157,-1.36094
-462,-405,0.457336,1.28894,0.0119137,-0.0029411,-0.0091935,0.0163052,-0.00733261,-0.44563,0.0139712,0.0399575,762,1429,0.457335,-1.28893
-455,-405,0.484802,1.25989,0,0,0,0,0,0,0,-1,769,1429,0.484789,-1.25987
-448,-405,0.427307,1.3114,0,0,0,0,0,0,0,-1,776,1429,0.427278,-1.31143
-441,-405,0.246277,1.18689,0,0,0,0,0,0,0,-1,783,1429,0.246295,-1.18692
-434,-405,-1.30176,1.6366,0,0,0,0,0,0,0,-1,790,1429,-1.30178,-1.63654
-427,-405,-0.753113,1.19141,0,0,0,0,0,0,0,-1,797,1429,-0.753111,-1.19137
-420,-405,0.0150146,0.458618,0.0644239,0.0121666,-0.0162549,0.0690675,0.00752309,-0.278259,0.0437534,0.0435989,804,1429,0.0150024,-0.4586
-413,-405,0.514404,0.512817,0.0764883,0.0130872,-0.0148744,0.0798045,0.00977102,-0.219359,0.0502636,0.043757,811,1429,0.51439,-0.512791
-406,-405,1.02722,0.595581,0.0873496,0.0125423,-0.011445,0.0890614,0.0108304,-0.148469,0.0561136,0.0455661,818,1429,1.02721,-0.595597
-399,-405,0,0,0,0,0,0,0,0,0,-1,825,1429,0,0
-392,-405,0,0,0,0,0,0,0,0,0,-1,832,1429,0,0
-385,-405,0,0,0,0,0,0,0,0,0,-1,839,1429,0,0
-378,-405,0,0,0,0,0,0,0,0,0,-1,846,1429,0,0
-371,-405,0,0,0,0,0,0,0,0,0,-1,853,1429,0,0
-364,-405,0,0,0,0,0,0,0,0,0,-1,860,1429,0,0
-357,-405,0,0,0,0,0,0,0,0,0,-1,867,1429,0,0
-350,-405,0,0,0,0,0,0,0,0,0,-1,874,1429,0,0
-343,-405,0,0,0,0,0,0,0,0,0,-1,881,1429,0,0
-336,-405,0,0,0,0,0,0,0,0,0,-1,888,1429,0,0
-329,-405,0,0,0,0,0,0,0,0,0,-1,895,1429,0,0
-322,-405,0,0,0,0,0,0,0,0,0,-1,902,1429,0,0
-315,-405,0,0,0,0,0,0,0,0,0,-1,909,1429,0,0
-308,-405,0,0,0,0,0,0,0,0,0,-1,916,1429,0,0
-301,-405,0,0,0,0,0,0,0,0,0,-1,923,1429,0,0
-294,-405,0,0,0,0,0,0,0,0,0,-1,930,1429,0,0
-287,-405,0,0,0,0,0,0,0,0,0,-1,937,1429,0,0
-280,-405,0,0,0,0,0,0,0,0,0,-1,944,1429,0,0
-273,-405,0,0,0,0,0,0,0,0,0,-1,951,1429,0,0
-266,-405,0,0,0,0,0,0,0,0,0,-1,958,1429,0,0
-259,-405,0,0,0,0,0,0,0,0,0,-1,965,1429,0,0
-252,-405,0,0,0,0,0,0,0,0,0,-1,972,1429,0,0
-245,-405,0,0,0,0,0,0,0,0,0,-1,979,1429,0,0
-238,-405,0,0,0,0,0,0,0,0,0,-1,986,1429,0,0
-231,-405,0,0,0,0,0,0,0,0,0,-1,993,1429,0,0
-224,-405,0,0,0,0,0,0,0,0,0,-1,1000,1429,0,0
-217,-405,0,0,0,0,0,0,0,0,0,-1,1007,1429,0,0
-210,-405,0,0,0,0,0,0,0,0,0,-1,1014,1429,0,0
-203,-405,0,0,0,0,0,0,0,0,0,-1,1021,1429,0,0
-196,-405,0,0,0,0,0,0,0,0,0,-1,1028,1429,0,0
-189,-405,0,0,0,0,0,0,0,0,0,-1,1035,1429,0,0
-182,-405,0,0,0,0,0,0,0,0,0,-1,1042,1429,0,0
-175,-405,0,0,0,0,0,0,0,0,0,-1,1049,1429,0,0
-168,-405,0,0,0,0,0,0,0,0,0,-1,1056,1429,0,0
-161,-405,0,0,0,0,0,0,0,0,0,-1,1063,1429,0,0
-154,-405,0,0,0,0,0,0,0,0,0,-1,1070,1429,0,0
-147,-405,0,0,0,0,0,0,0,0,0,-1,1077,1429,0,0
-140,-405,0,0,0,0,0,0,0,0,0,-1,1084,1429,0,0
-133,-405,0,0,0,0,0,0,0,0,0,-1,1091,1429,0,0
-126,-405,0,0,0,0,0,0,0,0,0,-1,1098,1429,0,0
-119,-405,0,0,0,0,0,0,0,0,0,-1,1105,1429,0,0
-112,-405,0,0,0,0,0,0,0,0,0,-1,1112,1429,0,0
-105,-405,0,0,0,0,0,0,0,0,0,-1,1119,1429,0,0
-98,-405,0,0,0,0,0,0,0,0,0,-1,1126,1429,0,0
-91,-405,0,0,0,0,0,0,0,0,0,-1,1133,1429,0,0
-84,-405,0,0,0,0,0,0,0,0,0,-1,1140,1429,0,0
-77,-405,0,0,0,0,0,0,0,0,0,-1,1147,1429,0,0
-70,-405,0,0,0,0,0,0,0,0,0,-1,1154,1429,0,0
-63,-405,0,0,0,0,0,0,0,0,0,-1,1161,1429,0,0
-56,-405,0,0,0,0,0,0,0,0,0,-1,1168,1429,0,0
-49,-405,0,0,0,0,0,0,0,0,0,-1,1175,1429,0,0
-42,-405,0,0,0,0,0,0,0,0,0,-1,1182,1429,0,0
-35,-405,0,0,0,0,0,0,0,0,0,-1,1189,1429,0,0
-28,-405,0,0,0,0,0,0,0,0,0,-1,1196,1429,0,0
-21,-405,0,0,0,0,0,0,0,0,0,-1,1203,1429,0,0
-14,-405,0,0,0,0,0,0,0,0,0,-1,1210,1429,0,0
-7,-405,0,0,0,0,0,0,0,0,0,-1,1217,1429,0,0
0,-405,0,0,0,0,0,0,0,0,0,-1,1224,1429,0,0
7,-405,0,0,0,0,0,0,0,0,0,-1,1231,1429,0,0
14,-405,0,0,0,0,0,0,0,0,0,-1,1238,1429,0,0
21,-405,0,0,0,0,0,0,0,0,0,-1,1245,1429,0,0
28,-405,0,0,0,0,0,0,0,0,0,-1,1252,1429,0,0
35,-405,0,0,0,0,0,0,0,0,0,-1,1259,1429,0,0
42,-405,0,0,0,0,0,0,0,0,0,-1,1266,1429,0,0
49,-405,0,0,0,0,0,0,0,0,0,-1,1273,1429,0,0
56,-405,0,0,0,0,0,0,0,0,0,-1,1280,1429,0,0
63,-405,0,0,0,0,0,0,0,0,0,-1,1287,1429,0,0
70,-405,0,0,0,0,0,0,0,0,0,-1,1294,1429,0,0
77,-405,0,0,0,0,0,0,0,0,0,-1,1301,1429,0,0
84,-405,0,0,0,0,0,0,0,0,0,-1,1308,1429,0,0
91,-405,0,0,0,0,0,0,0,0,0,-1,1315,1429,0,0
98,-405,0,0,0,0,0,0,0,0,0,-1,1322,1429,0,0
105,-405,0,0,0,0,0,0,0,0,0,-1,1329,1429,0,0
112,-405,0,0,0,0,0,0,0,0,0,-1,1336,1429,0,0
119,-405,0,0,0,0,0,0,0,0,0,-1,1343,1429,0,0
126,-405,0,0,0,0,0,0,0,0,0,-1,1350,1429,0,0
133,-405,0,0,0,0,0,0,0,0,0,-1,1357,1429,0,0
140,-405,0,0,0,0,0,0,0,0,0,-1,1364,1429,0,0
147,-405,0,0,0,0,0,0,0,0,0,-1,1371,1429,0,0
154,-405,0,0,0,0,0,0,0,0,0,-1,1378,1429,0,0
161,-405,0,0,0,0,0,0,0,0,0,-1,1385,1429,0,0
168,-405,0,0,0,0,0,0,0,0,0,-1,1392,1429,0,0
175,-405,0,0,0,0,0,0,0,0,0,-1,1399,1429,0,0
182,-405,0,0,0,0,0,0,0,0,0,-1,1406,1429,0,0
189,-405,0,0,0,0,0,0,0,0,0,-1,1413,1429,0,0
196,-405,0,0,0,0,0,0,0,0,0,-1,1420,1429,0,0
203,-405,0,0,0,0,0,0,0,0,0,-1,1427,1429,0,0
210,-405,0,0,0,0,0,0,0,0,0,-1,1434,1429,0,0
217,-405,0,0,0,0,0,0,0,0,0,-1,1441,1429,0,0
224,-405,0,0,0,0,0,0,0,0,0,-1,1448,1429,0,0
231,-405,0,0,0,0,0,0,0,0,0,-1,1455,1429,0,0
238,-405,0,0,0,0,0,0,0,0,0,-1,1462,1429,0,0
245,-405,0,0,0,0,0,0,0,0,0,-1,1469,1429,0,0
252,-405,0,0,0,0,0,0,0,0,0,-1,1476,1429,0,0
259,-405,0,0,0,0,0,0,0,0,0,-1,1483,1429,0,0
266,-405,0,0,0,0,0,0,0,0,0,-1,1490,1429,0,0
273,-405,0,0,0,0,0,0,0,0,0,-1,1497,1429,0,0
280,-405,0,0,0,0,0,0,0,0,0,-1,1504,1429,0,0
287,-405,0,0,0,0,0,0,0,0,0,-1,1511,1429,0,0
294,-405,0,0,0,0,0,0,0,0,0,-1,1518,1429,0,0
301,-405,0,0,0,0,0,0,0,0,0,-1,1525,1429,0,0
308,-405,0,0,0,0,0,0,0,0,0,-1,1532,1429,0,0
315,-405,0,0,0,0,0,0,0,0,0,-1,1539,1429,0,0
322,-405,0,0,0,0,0,0,0,0,0,-1,1546,1429,0,0
329,-405,0,0,0,0,0,0,0,0,0,-1,1553,1429,0,0
336,-405,0,0,0,0,0,0,0,0,0,-1,1560,1429,0,0
343,-405,0,0,0,0,0,0,0,0,0,-1,1567,1429,0,0
350,-405,0,0,0,0,0,0,0,0,0,-1,1574,1429,0,0
357,-405,0,0,0,0,0,0,0,0,0,-1,1581,1429,0,0
364,-405,0,0,0,0,0,0,0,0,0,-1,1588,1429,0,0
371,-405,0,0,0,0,0,0,0,0,0,-1,1595,1429,0,0
378,-405,0,0,0,0,0,0,0,0,0,-1,1602,1429,0,0
385,-405,0,0,0,0,0,0,0,0,0,-1,1609,1429,0,0
392,-405,0,0,0,0,0,0,0,0,0,-1,1616,1429,0,0
399,-405,0,0,0,0,0,0,0,0,0,-1,1623,1429,0,0
406,-405,0,0,0,0,0,0,0,0,0,-1,1630,1429,0,0
413,-405,0,0,0,0,0,0,0,0,0,-1,1637,1429,0,0
420,-405,0,0,0,0,0,0,0,0,0,-1,1644,1429,0,0
427,-405,0,0,0,0,0,0,0,0,0,-1,1651,1429,0,0
434,-405,0,0,0,0,0,0,0,0,0,-1,1658,1429,0,0
441,-405,0,0,0,0,0,0,0,0,0,-1,1665,1429,0,0
448,-405,0,0,0,0,0,0,0,0,0,-1,1672,1429,0,0
455,-405,0,0,0,0,0,0,0,0,0,-1,1679,1429,0,0
462,-405,0,0,0,0,0,0,0,0,0,-1,1686,1429,0,0
469,-405,0,0,0,0,0,0,0,0,0,-1,1693,1429,0,0
476,-405,0,0,0,0,0,0,0,0,0,-1,1700,1429,0,0
483,-405,0,0,0,0,0,0,0,0,0,-1,1707,1429,0,0
490,-405,0,0,0,0,0,0,0,0,0,-1,1714,1429,0,0
497,-405,0,0,0,0,0,0,0,0,0,-1,1721,1429,0,0
504,-405,0,0,0,0,0,0,0,0,0,-1,1728,1429,0,0
511,-405,0,0,0,0,0,0,0,0,0,-1,1735,1429,0,0
518,-405,0,0,0,0,0,0,0,0,0,-1,1742,1429,0,0
525,-405,8.35876,2.98962,0,0,0,0,0,0,0,-1,1749,1429,8.3588,-2.98957
532,-405,7.99316,3.21472,-0.0452267,0.181722,0.083691,0.209246,-0.072751,1.25306,0.169049,0.0497278,1756,1429,7.99318,-3.21472
539,-405,7.55579,3.4115,-0.0435612,0.150456,0.0705941,0.173423,-0.0665283,1.25626,0.143045,0.0481365,1763,1429,7.55578,-3.41156
546,-405,7.2771,3.46606,-0.0407978,0.121045,0.0592757,0.140433,-0.0601852,1.25469,0.118876,0.0456422,1770,1429,7.27712,-3.46605
553,-405,6.77417,3.05371,0,0,0,0,0,0,0,-1,1777,1429,6.77415,-3.05373
560,-405,5.91052,1.91516,0,0,0,0,0,0,0,-1,1784,1429,5.91057,-1.91517
567,-405,5.25867,1.87305,0,0,0,0,0,0,0,-1,1791,1429,5.25865,-1.87307
574,-405,4.60193,1.24365,0,0,0,0,0,0,0,-1,1798,1429,4.6019,-1.24361
581,-405,4.38428,1.31775,-0.026251,0.0279504,0.0214782,0.0354295,-0.0337301,1.23571,0.0399333,0.0440749,1805,1429,4.3843,-1.31781
588,-405,4.17944,1.47412,-0.0225359,0.0173036,0.0164045,0.023189,-0.0284212,1.22634,0.0298482,0.0466554,1812,1429,4.17944,-1.47406
595,-405,3.86694,1.57422,-0.0186044,0.00808226,0.0120304,0.0127049,-0.023227,1.20395,0.0210397,0.0460445,1819,1429,3.86697,-1.5742
602,-405,3.63379,1.5011,-0.014944,0.00215307,0.00865434,0.00576904,-0.0185599,1.17502,0.0146792,0.0349166,1826,1429,3.63383,-1.50111
609,-405,3.62292,1.46985,-0.0120655,0.000646906,0.00652101,0.00339702,-0.0148156,1.1717,0.0111827,0.0158172,1833,1429,3.62294,-1.46984
616,-405,3.61768,1.44189,-0.00896794,-0.000951027,0.00490625,0.00137605,-0.011295,1.12791,0.0080281,0.0099722,1840,1429,3.61762,-1.44184
623,-405,3.60474,1.41345,-0.0062593,-0.00145901,0.00380291,0.000637821,-0.00835613,1.0669,0.00579507,0.00966561,1847,1429,3.60468,-1.41341
630,-405,3.61023,1.36768,-0.00403263,-0.00131075,0.00290722,0.000538311,-0.00588169,1.00431,0.00411232,0.00972487,1854,1429,3.61029,-1.36765
637,-405,3.61987,1.31165,-0.00259304,-0.00130332,0.0023544,0.000492931,-0.00438929,0.919067,0.00310358,0.0102751,1861,1429,3.61987,-1.31162
644,-405,3.56726,1.2771,-0.00167728,-0.00134564,0.00233579,0.000830207,-0.00385312,0.820834,0.00288557,0.025733,1868,1429,3.56727,-1.27707
651,-405,3.52954,1.27405,-0.000528663,-0.000992573,0.00253879,0.00178874,-0.00330998,0.739842,0.0029871,0.0279544,1875,1429,3.52949,-1.27402
658,-405,3.56445,1.22473,0.000410303,-0.00132735,0.00245261,0.00214343,-0.00306048,0.615172,0.00301998,0.0210374,1882,1429,3.56442,-1.22478
665,-405,3.59302,1.16663,0.00440249,-0.00152806,0.00252694,0.00533315,-0.00245872,0.352879,0.00459954,0.0170213,1889,1429,3.59306,-1.1666
672,-405,3.61658,1.11279,0.00913562,0.000325474,0.00424402,0.0108474,-0.00138635,0.38339,0.00773527,0.0208293,1896,1429,3.61657,-1.11275
679,-405,3.62915,1.05859,0.0139174,-0.000399142,0.00509319,0.0155445,-0.00202616,0.309204,0.0111002,0.0196277,1903,1429,3.6291,-1.05856
686,-405,3.62378,1.03735,0.0204652,-0.000859749,0.00614652,0.02211,-0.00250451,0.261466,0.0156418,0.0309177,1910,1429,3.62383,-1.03737
693,-405,3.45007,1.23096,0.0288431,-0.000412514,0.00755358,0.0306782,-0.00224768,0.238335,0.0212411,0.0445798,1917,1429,3.45009,-1.23099
700,-405,3.36536,1.40552,0,0,0,0,0,0,0,-1,1924,1429,3.36531,-1.40556
707,-405,2.21851,0.757568,0,0,0,0,0,0,0,-1,1931,1429,2.21854,-0.757549
714,-405,2.10583,0.702393,0.0647996,0.00184735,0.0137482,0.0676711,-0.00102414,0.205903,0.0454593,0.0487121,1938,1429,2.10582,-0.702345
721,-405,2.55737,0.457764,0.0784803,0.00299448,0.0169282,0.0821027,-0.000627968,0.210809,0.0549457,0.0450033,1945,1429,2.55738,-0.457789
728,-405,0,0,0,0,0,0,0,0,0,-1,1952,1429,0,0
735,-405,0,0,0,0,0,0,0,0,0,-1,1959,1429,0,0
742,-405,0,0,0,0,0,0,0,0,0,-1,1966,1429,0,0
749,-405,0,0,0,0,0,0,0,0,0,-1,1973,1429,0,0
756,-405,0,0,0,0,0,0,0,0,0,-1,1980,1429,0,0
763,-405,0,0,0,0,0,0,0,0,0,-1,1987,1429,0,0
770,-405,0,0,0,0,0,0,0,0,0,-1,1994,1429,0,0
777,-405,0,0,0,0,0,0,0,0,0,-1,2001,1429,0,0
784,-405,0,0,0,0,0,0,0,0,0,-1,2008,1429,0,0
791,-405,0,0,0,0,0,0,0,0,0,-1,2015,1429,0,0
798,-405,0,0,0,0,0,0,0,0,0,-1,2022,1429,0,0
805,-405,0,0,0,0,0,0,0,0,0,-1,2029,1429,0,0
812,-405,0,0,0,0,0,0,0,0,0,-1,2036,1429,0,0
-700,-412,0,0,0,0,0,0,0,0,0,-1,524,1436,0,0
-693,-412,0,0,0,0,0,0,0,0,0,-1,531,1436,0,0
-686,-412,0,0,0,0,0,0,0,0,0,-1,538,1436,0,0
-679,-412,0,0,0,0,0,0,0,0,0,-1,545,1436,0,0
-672,-412,0,0,0,0,0,0,0,0,0,-1,552,1436,0,0
-665,-412,0,0,0,0,0,0,0,0,0,-1,559,1436,0,0
-658,-412,0,0,0,0,0,0,0,0,0,-1,566,1436,0,0
-651,-412,0,0,0,0,0,0,0,0,0,-1,573,1436,0,0
-644,-412,0,0,0,0,0,0,0,0,0,-1,580,1436,0,0
-637,-412,0,0,0,0,0,0,0,0,0,-1,587,1436,0,0
-630,-412,0,0,0,0,0,0,0,0,0,-1,594,1436,0,0
-623,-412,0,0,0,0,0,0,0,0,0,-1,601,1436,0,0
-616,-412,0,0,0,0,0,0,0,0,0,-1,608,1436,0,0
-609,-412,0,0,0,0,0,0,0,0,0,-1,615,1436,0,0
-602,-412,0.198425,-0.830444,0,0,0,0,0,0,0,-1,622,1436,0.198418,0.830433
-595,-412,0.447327,-0.686523,0,0,0,0,0,0,0,-1,629,1436,0.447314,0.686467
-588,-412,0.410034,-0.0894775,0,0,0,0,0,0,0,-1,636,1436,0.410064,0.0894977
-581,-412,0.242981,0.163208,0.0299538,0.023162,0.0157179,0.0426385,0.0104774,0.679007,0.0256565,0.0445307,643,1436,0.242994,-0.163268
-574,-412,0.026123,0.460938,0.0243328,0.0196713,0.0135136,0.0357152,0.00828893,0.700002,0.0215844,0.0473353,650,1436,0.026099,-0.460982
-567,-412,0.0877686,0.721069,0.0198124,0.0166791,0.011691,0.0300412,0.00645025,0.718792,0.0182612,0.0475122,657,1436,0.0877408,-0.721083
-560,-412,0.123291,0.493042,0.01616,0.0139816,0.010117,0.0252463,0.00489526,0.731774,0.0154596,0.0406711,664,1436,0.123267,-0.49303
-553,-412,0.395996,0.696655,0.013016,0.0116836,0.00884541,0.0212203,0.00347934,0.747812,0.0131415,0.0379968,671,1436,0.395972,-0.696605
-546,-412,0.434937,1.04578,0.00990283,0.00955782,0.00761015,0.0173424,0.00211822,0.774066,0.0109242,0.0225236,678,1436,0.434921,-1.04583
-539,-412,0.460754,1.06067,0.00768245,0.00737683,0.00623768,0.0137692,0.00129008,0.773152,0.00878108,0.0112822,685,1436,0.460748,-1.06065
-532,-412,0.476013,1.11597,0.00612404,0.00526942,0.00500819,0.0107231,0.000670346,0.74284,0.0069361,0.0120527,692,1436,0.476002,-1.11596
-525,-412,0.483337,1.18115,0.00485241,0.00396121,0.00376789,0.00820095,0.000612662,0.72654,0.00527495,0.0141377,699,1436,0.483308,-1.18115
-518,-412,0.514832,1.21143,0.00400288,0.0022962,0.00269539,0.00597679,0.000322291,0.632093,0.00388156,0.0156933,706,1436,0.514859,-1.2114
-511,-412,0.507935,1.21985,0.00327077,0.000841474,0.00162109,0.00408178,3.04566e-05,0.463879,0.00271109,0.0184443,713,1436,0.507959,-1.21988
-504,-412,0.493652,1.24573,0.00256951,-0.0006565,0.00059007,0.00267405,-0.000761042,0.175349,0.00208324,0.0175825,720,1436,0.493653,-1.24568
-497,-412,0.491211,1.3075,0.00170292,-0.00202478,-0.000659549,0.00181617,-0.00213803,-0.170057,0.00228548,0.013612,727,1436,0.491238,-1.30751
-490,-412,0.478699,1.36121,0.00121881,-0.00327099,-0.00205531,0.00201758,-0.00406975,-0.370669,0.00358047,0.0118047,734,1436,0.478676,-1.3612
-483,-412,0.475037,1.39233,0.0015691,-0.00348676,-0.00370759,0.00352855,-0.00544622,-0.486186,0.00522087,0.00803188,741,1436,0.475041,-1.39237
-476,-412,0.48877,1.44629,0.00292881,-0.00387152,-0.00546974,0.00596908,-0.00691178,-0.507311,0.0074434,0.0121582,748,1436,0.488755,-1.44627
-469,-412,0.501892,1.45959,0.00608464,-0.00389509,-0.00759041,0.0101784,-0.0079889,-0.494621,0.0105143,0.0198153,755,1436,0.501905,-1.4596
-462,-412,0.53125,1.42395,0.0110584,-0.00330243,-0.0092754,0.0156079,-0.00785195,-0.456013,0.0137891,0.0345749,762,1436,0.531254,-1.42391
-455,-412,0.530334,1.38611,0.0164597,-0.00229682,-0.0108328,0.0214098,-0.0072469,-0.428621,0.0172053,0.0448585,769,1436,0.530314,-1.38611
-448,-412,0.578735,1.28418,0,0,0,0,0,0,0,-1,776,1436,0.578717,-1.28421
-441,-412,-1.3277,1.56555,0,0,0,0,0,0,0,-1,783,1436,-1.3277,-1.5656
-434,-412,-0.837158,1.17578,0.0385228,0.00243294,-0.0149509,0.0439118,-0.00295607,-0.345951,0.030308,0.0463005,790,1436,-0.837187,-1.17575
-427,-412,-0.259155,0.806885,0.0477282,0.00513261,-0.015526,0.0527867,7.41277e-05,-0.314961,0.0351664,0.0452234,797,1436,-0.259175,-0.806925
-420,-412,0.353516,0.402588,0,0,0,0,0,0,0,-1,804,1436,0.353535,-0.402556
-413,-412,0.591492,0.411987,0.0690185,0.00618581,-0.0138433,0.0719332,0.00327108,-0.207521,0.0469031,0.0469373,811,1436,0.591522,-0.412015
-406,-412,1.13873,0.503296,0.0783295,0.0050964,-0.0104286,0.0797856,0.00364029,-0.13873,0.0520194,0.0469325,818,1436,1.13876,-0.503246
-399,-412,1.20074,-0.439697,0,0,0,0,0,0,0,-1,825,1436,1.20072,0.439696
-392,-412,0,0,0,0,0,0,0,0,0,-1,832,1436,0,0
-385,-412,0,0,0,0,0,0,0,0,0,-1,839,1436,0,0
-378,-412,0,0,0,0,0,0,0,0,0,-1,846,1436,0,0
-371,-412,0,0,0,0,0,0,0,0,0,-1,853,1436,0,0
-364,-412,0,0,0,0,0,0,0,0,0,-1,860,1436,0,0
-357,-412,0,0,0,0,0,0,0,0,0,-1,867,1436,0,0
-350,-412,0,0,0,0,0,0,0,0,0,-1,874,1436,0,0
-343,-412,0,0,0,0,0,0,0,0,0,-1,881,1436,0,0
-336,-412,0,0,0,0,0,0,0,0,0,-1,888,1436,0,0
-329,-412,0,0,0,0,0,0,0,0,0,-1,895,1436,0,0
-322,-412,0,0,0,0,0,0,0,0,0,-1,902,1436,0,0
-315,-412,0,0,0,0,0,0,0,0,0,-1,909,1436,0,0
-308,-412,0,0,0,0,0,0,0,0,0,-1,916,1436,0,0
-301,-412,0,0,0,0,0,0,0,0,0,-1,923,1436,0,0
-294,-412,0,0,0,0,0,0,0,0,0,-1,930,1436,0,0
-287,-412,0,0,0,0,0,0,0,0,0,-1,937,1436,0,0
-280,-412,0,0,0,0,0,0,0,0,0,-1,944,1436,0,0
-273,-412,0,0,0,0,0,0,0,0,0,-1,951,1436,0,0
-266,-412,0,0,0,0,0,0,0,0,0,-1,958,1436,0,0
-259,-412,0,0,0,0,0,0,0,0,0,-1,965,1436,0,0
-252,-412,0,0,0,0,0,0,0,0,0,-1,972,1436,0,0
-245,-412,0,0,0,0,0,0,0,0,0,-1,979,1436,0,0
-238,-412,0,0,0,0,0,0,0,0,0,-1,986,1436,0,0
-231,-412,0,0,0,0,0,0,0,0,0,-1,993,1436,0,0
-224,-412,0,0,0,0,0,0,0,0,0,-1,1000,1436,0,0
-217,-412,0,0,0,0,0,0,0,0,0,-1,1007,1436,0,0
-210,-412,0,0,0,0,0,0,0,0,0,-1,1014,1436,0,0
-203,-412,0,0,0,0,0,0,0,0,0,-1,1021,1436,0,0
-196,-412,0,0,0,0,0,0,0,0,0,-1,1028,1436,0,0
-189,-412,0,0,0,0,0,0,0,0,0,-1,1035,1436,0,0
-182,-412,0,0,0,0,0,0,0,0,0,-1,1042,1436,0,0
-175,-412,0,0,0,0,0,0,0,0,0,-1,1049,1436,0,0
-168,-412,0,0,0,0,0,0,0,0,0,-1,1056,1436,0,0
-161,-412,0,0,0,0,0,0,0,0,0,-1,1063,1436,0,0
-154,-412,0,0,0,0,0,0,0,0,0,-1,1070,1436,0,0
-147,-412,0,0,0,0,0,0,0,0,0,-1,1077,1436,0,0
-140,-412,0,0,0,0,0,0,0,0,0,-1,1084,1436,0,0
-133,-412,0,0,0,0,0,0,0,0,0,-1,1091,1436,0,0
-126,-412,0,0,0,0,0,0,0,0,0,-1,1098,1436,0,0
-119,-412,0,0,0,0,0,0,0,0,0,-1,1105,1436,0,0
-112,-412,0,0,0,0,0,0,0,0,0,-1,1112,1436,0,0
-105,-412,0,0,0,0,0,0,0,0,0,-1,1119,1436,0,0
-98,-412,0,0,0,0,0,0,0,0,0,-1,1126,1436,0,0
-91,-412,0,0,0,0,0,0,0,0,0,-1,1133,1436,0,0
-84,-412,0,0,0,0,0,0,0,0,0,-1,1140,1436,0,0
-77,-412,0,0,0,0,0,0,0,0,0,-1,1147,1436,0,0
-70,-412,0,0,0,0,0,0,0,0,0,-1,1154,1436,0,0
-63,-412,0,0,0,0,0,0,0,0,0,-1,1161,1436,0,0
-56,-412,0,0,0,0,0,0,0,0,0,-1,1168,1436,0,0
-49,-412,0,0,0,0,0,0,0,0,0,-1,1175,1436,0,0
-42,-412,0,0,0,0,0,0,0,0,0,-1,1182,1436,0,0
-35,-412,0,0,0,0,0,0,0,0,0,-1,1189,1436,0,0
-28,-412,0,0,0,0,0,0,0,0,0,-1,1196,1436,0,0
-21,-412,0,0,0,0,0,0,0,0,0,-1,1203,1436,0,0
-14,-412,0,0,0,0,0,0,0,0,0,-1,1210,1436,0,0
-7,-412,0,0,0,0,0,0,0,0,0,-1,1217,1436,0,0
0,-412,0,0,0,0,0,0,0,0,0,-1,1224,1436,0,0
7,-412,0,0,0,0,0,0,0,0,0,-1,1231,1436,0,0
14,-412,0,0,0,0,0,0,0,0,0,-1,1238,1436,0,0
21,-412,0,0,0,0,0,0,0,0,0,-1,1245,1436,0,0
28,-412,0,0,0,0,0,0,0,0,0,-1,1252,1436,0,0
35,-412,0,0,0,0,0,0,0,0,0,-1,1259,1436,0,0
42,-412,0,0,0,0,0,0,0,0,0,-1,1266,1436,0,0
49,-412,0,0,0,0,0,0,0,0,0,-1,1273,1436,0,0
56,-412,0,0,0,0,0,0,0,0,0,-1,1280,1436,0,0
63,-412,0,0,0,0,0,0,0,0,0,-1,1287,1436,0,0
70,-412,0,0,0,0,0,0,0,0,0,-1,1294,1436,0,0
77,-412,0,0,0,0,0,0,0,0,0,-1,1301,1436,0,0
84,-412,0,0,0,0,0,0,0,0,0,-1,1308,1436,0,0
91,-412,0,0,0,0,0,0,0,0,0,-1,1315,1436,0,0
98,-412,0,0,0,0,0,0,0,0,0,-1,1322,1436,0,0
105,-412,0,0,0,0,0,0,0,0,0,-1,1329,1436,0,0
112,-412,0,0,0,0,0,0,0,0,0,-1,1336,1436,0,0
119,-412,0,0,0,0,0,0,0,0,0,-1,1343,1436,0,0
126,-412,0,0,0,0,0,0,0,0,0,-1,1350,1436,0,0
133,-412,0,0,0,0,0,0,0,0,0,-1,1357,1436,0,0
140,-412,0,0,0,0,0,0,0,0,0,-1,1364,1436,0,0
147,-412,0,0,0,0,0,0,0,0,0,-1,1371,1436,0,0
154,-412,0,0,0,0,0,0,0,0,0,-1,1378,1436,0,0
161,-412,0,0,0,0,0,0,0,0,0,-1,1385,1436,0,0
168,-412,0,0,0,0,0,0,0,0,0,-1,1392,1436,0,0
175,-412,0,0,0,0,0,0,0,0,0,-1,1399,1436,0,0
182,-412,0,0,0,0,0,0,0,0,0,-1,1406,1436,0,0
189,-412,0,0,0,0,0,0,0,0,0,-1,1413,1436,0,0
196,-412,0,0,0,0,0,0,0,0,0,-1,1420,1436,0,0
203,-412,0,0,0,0,0,0,0,0,0,-1,1427,1436,0,0
210,-412,0,0,0,0,0,0,0,0,0,-1,1434,1436,0,0
217,-412,0,0,0,0,0,0,0,0,0,-1,1441,1436,0,0
224,-412,0,0,0,0,0,0,0,0,0,-1,1448,1436,0,0
231,-412,0,0,0,0,0,0,0,0,0,-1,1455,1436,0,0
238,-412,0,0,0,0,0,0,0,0,0,-1,1462,1436,0,0
245,-412,0,0,0,0,0,0,0,0,0,-1,1469,1436,0,0
252,-412,0,0,0,0,0,0,0,0,0,-1,1476,1436,0,0
259,-412,0,0,0,0,0,0,0,0,0,-1,1483,1436,0,0
266,-412,0,0,0,0,0,0,0,0,0,-1,1490,1436,0,0
273,-412,0,0,0,0,0,0,0,0,0,-1,1497,1436,0,0
280,-412,0,0,0,0,0,0,0,0,0,-1,1504,1436,0,0
287,-412,0,0,0,0,0,0,0,0,0,-1,1511,1436,0,0
294,-412,0,0,0,0,0,0,0,0,0,-1,1518,1436,0,0
301,-412,0,0,0,0,0,0,0,0,0,-1,1525,1436,0,0
308,-412,0,0,0,0,0,0,0,0,0,-1,1532,1436,0,0
315,-412,0,0,0,0,0,0,0,0,0,-1,1539,1436,0,0
322,-412,0,0,0,0,0,0,0,0,0,-1,1546,1436,0,0
329,-412,0,0,0,0,0,0,0,0,0,-1,1553,1436,0,0
336,-412,0,0,0,0,0,0,0,0,0,-1,1560,1436,0,0
343,-412,0,0,0,0,0,0,0,0,0,-1,1567,1436,0,0
350,-412,0,0,0,0,0,0,0,0,0,-1,1574,1436,0,0
357,-412,0,0,0,0,0,0,0,0,0,-1,1581,1436,0,0
364,-412,0,0,0,0,0,0,0,0,0,-1,1588,1436,0,0
371,-412,0,0,0,0,0,0,0,0,0,-1,1595,1436,0,0
378,-412,0,0,0,0,0,0,0,0,0,-1,1602,1436,0,0
385,-412,0,0,0,0,0,0,0,0,0,-1,1609,1436,0,0
392,-412,0,0,0,0,0,0,0,0,0,-1,1616,1436,0,0
399,-412,0,0,0,0,0,0,0,0,0,-1,1623,1436,0,0
406,-412,0,0,0,0,0,0,0,0,0,-1,1630,1436,0,0
413,-412,0,0,0,0,0,0,0,0,0,-1,1637,1436,0,0
420,-412,0,0,0,0,0,0,0,0,0,-1,1644,1436,0,0
427,-412,0,0,0,0,0,0,0,0,0,-1,1651,1436,0,0
434,-412,0,0,0,0,0,0,0,0,0,-1,1658,1436,0,0
441,-412,0,0,0,0,0,0,0,0,0,-1,1665,1436,0,0
448,-412,0,0,0,0,0,0,0,0,0,-1,1672,1436,0,0
455,-412,0,0,0,0,0,0,0,0,0,-1,1679,1436,0,0
462,-412,0,0,0,0,0,0,0,0,0,-1,1686,1436,0,0
469,-412,0,0,0,0,0,0,0,0,0,-1,1693,1436,0,0
476,-412,0,0,0,0,0,0,0,0,0,-1,1700,1436,0,0
483,-412,0,0,0,0,0,0,0,0,0,-1,1707,1436,0,0
490,-412,0,0,0,0,0,0,0,0,0,-1,1714,1436,0,0
497,-412,0,0,0,0,0,0,0,0,0,-1,1721,1436,0,0
504,-412,0,0,0,0,0,0,0,0,0,-1,1728,1436,0,0
511,-412,0,0,0,0,0,0,0,0,0,-1,1735,1436,0,0
518,-412,2.76379,-0.257324,0,0,0,0,0,0,0,-1,1742,1436,2.76374,0.257338
525,-412,7.16333,2.15723,0,0,0,0,0,0,0,-1,1749,1436,7.16336,-2.15721
532,-412,6.81213,2.22595,-0.0466238,0.181767,0.0818546,0.208074,-0.0729302,1.25984,0.168376,0.0475357,1756,1436,6.81211,-2.22596
539,-412,6.44556,2.36877,-0.0449969,0.14992,0.0697856,0.172329,-0.0674058,1.26009,0.142761,0.0464968,1763,1436,6.44551,-2.36875
546,-412,6.04968,2.4679,-0.0424391,0.120433,0.0592586,0.139712,-0.0617175,1.25627,0.119166,0.043819,1770,1436,6.04969,-2.46785
553,-412,5.67761,2.15796,0,0,0,0,0,0,0,-1,1777,1436,5.67765,-2.15797
560,-412,5.29382,1.65625,-0.0369201,0.0720925,0.0406985,0.0856105,-0.0504381,1.25011,0.0794178,0.0459189,1784,1436,5.29379,-1.65622
567,-412,4.77588,1.55798,-0.0335508,0.0533314,0.0330509,0.064475,-0.0446944,1.2456,0.0633729,0.0432783,1791,1436,4.77587,-1.55801
574,-412,4.32678,1.3595,-0.0298436,0.0377823,0.0263832,0.0468575,-0.0389187,1.2395,0.0495936,0.040118,1798,1436,4.32675,-1.35955
581,-412,3.93372,1.3645,-0.0259703,0.0253275,0.0208077,0.0327063,-0.0333491,1.23001,0.0381377,0.038472,1805,1436,3.93369,-1.36444
588,-412,3.97961,1.56775,-0.0217982,0.0146719,0.015444,0.0203332,-0.0274595,1.21944,0.0276952,0.0406456,1812,1436,3.97964,-1.56775
595,-412,3.78076,1.6936,-0.0175369,0.00565992,0.0108849,0.00996758,-0.0218446,1.19396,0.0187886,0.0371224,1819,1436,3.78081,-1.69366
602,-412,3.64172,1.56189,-0.013692,0.000123032,0.00742206,0.00335458,-0.0169236,1.16015,0.0125509,0.0209803,1826,1436,3.64178,-1.56191
609,-412,3.5824,1.47424,-0.0108303,-0.000866561,0.00539425,0.00149439,-0.0131912,1.15824,0.00933225,0.00810024,1833,1436,3.58237,-1.47424
616,-412,3.5708,1.44275,-0.00785512,-0.0019507,0.00390945,-4.00236e-06,-0.00980182,1.10879,0.00653322,0.00760911,1840,1436,3.57077,-1.44277
623,-412,3.56152,1.41333,-0.00536264,-0.00215628,0.00295348,-0.00039892,-0.00712,1.03405,0.00461944,0.00896969,1847,1436,3.56147,-1.41339
630,-412,3.56763,1.3645,-0.00337394,-0.00175986,0.00230711,-0.000122706,-0.00501109,0.953649,0.00330058,0.0104493,1854,1436,3.56757,-1.36445
637,-412,3.59814,1.29919,-0.00214838,-0.00161513,0.00201868,0.000154458,-0.00391797,0.851058,0.00266496,0.0119976,1861,1436,3.59813,-1.29924
644,-412,3.58899,1.26428,-0.00128431,-0.00155479,0.00222814,0.000812691,-0.00365179,0.755087,0.00274581,0.0128299,1868,1436,3.58897,-1.26431
651,-412,3.52148,1.22839,-0.00011993,-0.00100124,0.00261621,0.00209247,-0.00321364,0.701965,0.0030862,0.0225679,1875,1436,3.52145,-1.22844
658,-412,3.55859,1.1947,0.000865364,-0.00124381,0.00263876,0.00265247,-0.00303092,0.595294,0.00328373,0.0161072,1882,1436,3.55861,-1.19472
665,-412,3.55676,1.16431,0.00496593,-0.00126563,0.00287869,0.00609219,-0.0023919,0.372933,0.0050512,0.020855,1889,1436,3.5568,-1.16433
672,-412,3.5863,1.12598,0.00997107,0.00102875,0.00470943,0.0119938,-0.000993933,0.405673,0.0083469,0.0237332,1896,1436,3.58625,-1.126
679,-412,3.6123,1.06262,0.0151482,0.000888471,0.00557638,0.0170699,-0.00103324,0.331871,0.0117395,0.0298565,1903,1436,3.61228,-1.06266
686,-412,3.4657,1.13538,0.0223631,0.00124146,0.00658235,0.0242465,-0.000641922,0.278681,0.0163825,0.0478848,1910,1436,3.46567,-1.13536
693,-412,3.23523,1.12634,0.0317089,0.00273235,0.00786687,0.0337069,0.000734337,0.248719,0.0222306,0.049869,1917,1436,3.23521,-1.1263
700,-412,3.0531,1.15662,0,0,0,0,0,0,0,-1,1924,1436,3.05305,-1.15659
707,-412,2.87903,1.11035,0,0,0,0,0,0,0,-1,1931,1436,2.87905,-1.11038
714,-412,2.82385,0.940918,0,0,0,0,0,0,0,-1,1938,1436,2.82386,-0.940931
721,-412,0,0,0,0,0,0,0,0,0,-1,1945,1436,0,0
728,-412,0,0,0,0,0,0,0,0,0,-1,1952,1436,0,0
735,-412,0,0,0,0,0,0,0,0,0,-1,1959,1436,0,0
742,-412,0,0,0,0,0,0,0,0,0,-1,1966,1436,0,0
749,-412,0,0,0,0,0,0,0,0,0,-1,1973,1436,0,0
756,-412,0,0,0,0,0,0,0,0,0,-1,1980,1436,0,0
763,-412,0,0,0,0,0,0,0,0,0,-1,1987,1436,0,0
770,-412,0,0,0,0,0,0,0,0,0,-1,1994,1436,0,0
777,-412,0,0,0,0,0,0,0,0,0,-1,2001,1436,0,0
784,-412,0,0,0,0,0,0,0,0,0,-1,2008,1436,0,0
791,-412,0,0,0,0,0,0,0,0,0,-1,2015,1436,0,0
798,-412,0,0,0,0,0,0,0,0,0,-1,2022,1436,0,0
805,-412,0,0,0,0,0,0,0,0,0,-1,2029,1436,0,0
812,-412,0,0,0,0,0,0,0,0,0,-1,2036,1436,0,0
-700,-419,0,0,0,0,0,0,0,0,0,-1,524,1443,0,0
-693,-419,0,0,0,0,0,0,0,0,0,-1,531,1443,0,0
-686,-419,0,0,0,0,0,0,0,0,0,-1,538,1443,0,0
-679,-419,0,0,0,0,0,0,0,0,0,-1,545,1443,0,0
-672,-419,0,0,0,0,0,0,0,0,0,-1,552,1443,0,0
-665,-419,0,0,0,0,0,0,0,0,0,-1,559,1443,0,0
-658,-419,0,0,0,0,0,0,0,0,0,-1,566,1443,0,0
-651,-419,0,0,0,0,0,0,0,0,0,-1,573,1443,0,0
-644,-419,0,0,0,0,0,0,0,0,0,-1,580,1443,0,0
-637,-419,0,0,0,0,0,0,0,0,0,-1,587,1443,0,0
-630,-419,0,0,0,0,0,0,0,0,0,-1,594,1443,0,0
-623,-419,0,0,0,0,0,0,0,0,0,-1,601,1443,0,0
-616,-419,0,0,0,0,0,0,0,0,0,-1,608,1443,0,0
-609,-419,0,0,0,0,0,0,0,0,0,-1,615,1443,0,0
-602,-419,0,0,0,0,0,0,0,0,0,-1,622,1443,0,0
-595,-419,0.364563,-0.5448,0,0,0,0,0,0,0,-1,629,1443,0.364542,0.544855
-588,-419,0.131104,-0.2677,0.0334718,0.0293379,0.0168405,0.0483717,0.014438,0.724334,0.0286735,0.0450877,636,1443,0.131124,0.267664
-581,-419,-0.00488281,0.0610352,0.027938,0.0246947,0.0146973,0.0411029,0.0115298,0.730452,0.0244811,0.0445032,643,1443,-0.00489079,-0.0609867
-574,-419,-0.133728,0.443481,0.0234934,0.0209514,0.0130994,0.0353833,0.00906147,0.737035,0.0212233,0.0483317,650,1443,-0.133728,-0.443467
-567,-419,0.0165405,0.543335,0,0,0,0,0,0,0,-1,657,1443,0.0165461,-0.543393
-560,-419,-0.0385742,0.198608,0,0,0,0,0,0,0,-1,664,1443,-0.0385467,-0.198656
-553,-419,0.174561,0.420898,0.0144455,0.0124583,0.0096222,0.0231252,0.00377851,0.733951,0.0143244,0.040152,671,1443,0.174574,-0.420861
-546,-419,0.491272,1.01685,0.0117457,0.0102169,0.00854497,0.0195604,0.00240221,0.740788,0.0123179,0.0357537,678,1443,0.491262,-1.01679
-539,-419,0.531433,1.0625,0.00955288,0.00802878,0.0073114,0.0161418,0.00143982,0.733472,0.0103148,0.0209821,685,1443,0.531448,-1.0625
-532,-419,0.530884,1.11902,0.00765182,0.00593654,0.00614094,0.0129947,0.000593641,0.716017,0.0084722,0.0113526,692,1443,0.53088,-1.11904
-525,-419,0.537048,1.19019,0.00607482,0.00454528,0.00493681,0.0103057,0.000314363,0.708553,0.00676814,0.0124455,699,1443,0.537019,-1.19015
-518,-419,0.531433,1.22583,0.00478944,0.00295217,0.00391458,0.00789173,-0.000150124,0.670149,0.0053119,0.0166205,706,1443,0.531412,-1.22589
-511,-419,0.506348,1.23254,0.00355268,0.00160369,0.00284706,0.0055874,-0.000431039,0.620507,0.00387661,0.0186811,713,1443,0.506365,-1.23253
-504,-419,0.512695,1.26599,0.00230557,0.00024693,0.00183045,0.00337626,-0.000823762,0.529268,0.00256982,0.0181274,720,1443,0.512713,-1.26601
-497,-419,0.514099,1.31885,0.000862422,-0.000922326,0.000627475,0.00106094,-0.00112085,0.306419,0.00125982,0.0121803,727,1443,0.514093,-1.31889
-490,-419,0.514282,1.35828,-0.000107144,-0.00203189,-0.000814405,0.000191205,-0.00233024,-0.351156,0.00162099,0.00940081,734,1443,0.51427,-1.35829
-483,-419,0.533386,1.39539,-0.000150588,-0.00216935,-0.00241043,0.00145327,-0.00377321,-0.587113,0.00311502,0.00839543,741,1443,0.533394,-1.39536
-476,-419,0.522827,1.42664,0.000893879,-0.00263233,-0.00407016,0.0035664,-0.00530485,-0.58101,0.00515449,0.00908394,748,1443,0.5228,-1.42659
-469,-419,0.519653,1.47119,0.0036291,-0.00292489,-0.00609631,0.00727335,-0.00656914,-0.538786,0.00799541,0.0125021,755,1443,0.519643,-1.47115
-462,-419,0.503845,1.55139,0.00804365,-0.00278773,-0.00770611,0.0120468,-0.00679084,-0.479104,0.0110161,0.0217057,762,1443,0.503871,-1.5514
-455,-419,0.420227,1.59509,0.0129486,-0.00234465,-0.00924016,0.0172958,-0.00669184,-0.439743,0.0142932,0.0367297,769,1443,0.420214,-1.59508
-448,-419,0.604553,1.4021,0.0184881,-0.00212244,-0.0107249,0.0230564,-0.00669075,-0.402676,0.0180201,0.0434153,776,1443,0.604547,-1.40208
-441,-419,0.533142,1.354,0,0,0,0,0,0,0,-1,783,1443,0.533144,-1.35405
-434,-419,-0.401367,0.438721,0.0336738,-0.000760298,-0.0134804,0.0383234,-0.00540984,-0.332134,0.0275299,0.0475476,790,1443,-0.401378,-0.438723
-427,-419,-0.106995,0.510376,0.0427301,0.000259888,-0.0142422,0.0470639,-0.00407392,-0.295391,0.0328183,0.0449962,797,1443,-0.107009,-0.510382
-420,-419,0.188232,0.468384,0.0522664,0.000331671,-0.0139617,0.0557818,-0.00318374,-0.246662,0.0382933,0.0456095,804,1443,0.188254,-0.468393
-413,-419,0.883423,0.37561,0.0615627,-0.00025522,-0.0124332,0.0639697,-0.00266214,-0.191223,0.0435609,0.0460558,811,1443,0.88342,-0.375557
-406,-419,1.08411,-0.376709,0,0,0,0,0,0,0,-1,818,1443,1.08409,0.376671
-399,-419,1.27393,-0.0489502,0,0,0,0,0,0,0,-1,825,1443,1.27395,0.048945
-392,-419,0,0,0,0,0,0,0,0,0,-1,832,1443,0,0
-385,-419,0,0,0,0,0,0,0,0,0,-1,839,1443,0,0
-378,-419,0,0,0,0,0,0,0,0,0,-1,846,1443,0,0
-371,-419,0,0,0,0,0,0,0,0,0,-1,853,1443,0,0
-364,-419,0,0,0,0,0,0,0,0,0,-1,860,1443,0,0
-357,-419,0,0,0,0,0,0,0,0,0,-1,867,1443,0,0
-350,-419,0,0,0,0,0,0,0,0,0,-1,874,1443,0,0
-343,-419,0,0,0,0,0,0,0,0,0,-1,881,1443,0,0
-336,-419,0,0,0,0,0,0,0,0,0,-1,888,1443,0,0
-329,-419,0,0,0,0,0,0,0,0,0,-1,895,1443,0,0
-322,-419,0,0,0,0,0,0,0,0,0,-1,902,1443,0,0
-315,-419,0,0,0,0,0,0,0,0,0,-1,909,1443,0,0
-308,-419,0,0,0,0,0,0,0,0,0,-1,916,1443,0,0
-301,-419,0,0,0,0,0,0,0,0,0,-1,923,1443,0,0
-294,-419,0,0,0,0,0,0,0,0,0,-1,930,1443,0,0
-287,-419,0,0,0,0,0,0,0,0,0,-1,937,1443,0,0
-280,-419,0,0,0,0,0,0,0,0,0,-1,944,1443,0,0
-273,-419,0,0,0,0,0,0,0,0,0,-1,951,1443,0,0
-266,-419,0,0,0,0,0,0,0,0,0,-1,958,1443,0,0
-259,-419,0,0,0,0,0,0,0,0,0,-1,965,1443,0,0
-252,-419,0,0,0,0,0,0,0,0,0,-1,972,1443,0,0
-245,-419,0,0,0,0,0,0,0,0,0,-1,979,1443,0,0
-238,-419,0,0,0,0,0,0,0,0,0,-1,986,1443,0,0
-231,-419,0,0,0,0,0,0,0,0,0,-1,993,1443,0,0
-224,-419,0,0,0,0,0,0,0,0,0,-1,1000,1443,0,0
-217,-419,0,0,0,0,0,0,0,0,0,-1,1007,1443,0,0
-210,-419,0,0,0,0,0,0,0,0,0,-1,1014,1443,0,0
-203,-419,0,0,0,0,0,0,0,0,0,-1,1021,1443,0,0
-196,-419,0,0,0,0,0,0,0,0,0,-1,1028,1443,0,0
-189,-419,0,0,0,0,0,0,0,0,0,-1,1035,1443,0,0
-182,-419,0,0,0,0,0,0,0,0,0,-1,1042,1443,0,0
-175,-419,0,0,0,0,0,0,0,0,0,-1,1049,1443,0,0
-168,-419,0,0,0,0,0,0,0,0,0,-1,1056,1443,0,0
-161,-419,0,0,0,0,0,0,0,0,0,-1,1063,1443,0,0
-154,-419,0,0,0,0,0,0,0,0,0,-1,1070,1443,0,0
-147,-419,0,0,0,0,0,0,0,0,0,-1,1077,1443,0,0
-140,-419,0,0,0,0,0,0,0,0,0,-1,1084,1443,0,0
-133,-419,0,0,0,0,0,0,0,0,0,-1,1091,1443,0,0
-126,-419,0,0,0,0,0,0,0,0,0,-1,1098,1443,0,0
-119,-419,0,0,0,0,0,0,0,0,0,-1,1105,1443,0,0
-112,-419,0,0,0,0,0,0,0,0,0,-1,1112,1443,0,0
-105,-419,0,0,0,0,0,0,0,0,0,-1,1119,1443,0,0
-98,-419,0,0,0,0,0,0,0,0,0,-1,1126,1443,0,0
-91,-419,0,0,0,0,0,0,0,0,0,-1,1133,1443,0,0
-84,-419,0,0,0,0,0,0,0,0,0,-1,1140,1443,0,0
-77,-419,0,0,0,0,0,0,0,0,0,-1,1147,1443,0,0
-70,-419,0,0,0,0,0,0,0,0,0,-1,1154,1443,0,0
-63,-419,0,0,0,0,0,0,0,0,0,-1,1161,1443,0,0
-56,-419,0,0,0,0,0,0,0,0,0,-1,1168,1443,0,0
-49,-419,0,0,0,0,0,0,0,0,0,-1,1175,1443,0,0
-42,-419,0,0,0,0,0,0,0,0,0,-1,1182,1443,0,0
-35,-419,0,0,0,0,0,0,0,0,0,-1,1189,1443,0,0
-28,-419,0,0,0,0,0,0,0,0,0,-1,1196,1443,0,0
-21,-419,0,0,0,0,0,0,0,0,0,-1,1203,1443,0,0
-14,-419,0,0,0,0,0,0,0,0,0,-1,1210,1443,0,0
-7,-419,0,0,0,0,0,0,0,0,0,-1,1217,1443,0,0
0,-419,0,0,0,0,0,0,0,0,0,-1,1224,1443,0,0
7,-419,0,0,0,0,0,0,0,0,0,-1,1231,1443,0,0
14,-419,0,0,0,0,0,0,0,0,0,-1,1238,1443,0,0
21,-419,0,0,0,0,0,0,0,0,0,-1,1245,1443,0,0
28,-419,0,0,0,0,0,0,0,0,0,-1,1252,1443,0,0
35,-419,0,0,0,0,0,0,0,0,0,-1,1259,1443,0,0
42,-419,0,0,0,0,0,0,0,0,0,-1,1266,1443,0,0
49,-419,0,0,0,0,0,0,0,0,0,-1,1273,1443,0,0
56,-419,0,0,0,0,0,0,0,0,0,-1,1280,1443,0,0
63,-419,0,0,0,0,0,0,0,0,0,-1,1287,1443,0,0
70,-419,0,0,0,0,0,0,0,0,0,-1,1294,1443,0,0
77,-419,0,0,0,0,0,0,0,0,0,-1,1301,1443,0,0
84,-419,0,0,0,0,0,0,0,0,0,-1,1308,1443,0,0
91,-419,0,0,0,0,0,0,0,0,0,-1,1315,1443,0,0
98,-419,0,0,0,0,0,0,0,0,0,-1,1322,1443,0,0
105,-419,0,0,0,0,0,0,0,0,0,-1,1329,1443,0,0
112,-419,0,0,0,0,0,0,0,0,0,-1,1336,1443,0,0
119,-419,0,0,0,0,0,0,0,0,0,-1,1343,1443,0,0
126,-419,0,0,0,0,0,0,0,0,0,-1,1350,1443,0,0
133,-419,0,0,0,0,0,0,0,0,0,-1,1357,1443,0,0
140,-419,0,0,0,0,0,0,0,0,0,-1,1364,1443,0,0
147,-419,0,0,0,0,0,0,0,0,0,-1,1371,1443,0,0
154,-419,0,0,0,0,0,0,0,0,0,-1,1378,1443,0,0
161,-419,0,0,0,0,0,0,0,0,0,-1,1385,1443,0,0
168,-419,0,0,0,0,0,0,0,0,0,-1,1392,1443,0,0
175,-419,0,0,0,0,0,0,0,0,0,-1,1399,1443,0,0
182,-419,0,0,0,0,0,0,0,0,0,-1,1406,1443,0,0
189,-419,0,0,0,0,0,0,0,0,0,-1,1413,1443,0,0
196,-419,0,0,0,0,0,0,0,0,0,-1,1420,1443,0,0
203,-419,0,0,0,0,0,0,0,0,0,-1,1427,1443,0,0
210,-419,0,0,0,0,0,0,0,0,0,-1,1434,1443,0,0
217,-419,0,0,0,0,0,0,0,0,0,-1,1441,1443,0,0
224,-419,0,0,0,0,0,0,0,0,0,-1,1448,1443,0,0
231,-419,0,0,0,0,0,0,0,0,0,-1,1455,1443,0,0
238,-419,0,0,0,0,0,0,0,0,0,-1,1462,1443,0,0
245,-419,0,0,0,0,0,0,0,0,0,-1,1469,1443,0,0
252,-419,0,0,0,0,0,0,0,0,0,-1,1476,1443,0,0
259,-419,0,0,0,0,0,0,0,0,0,-1,1483,1443,0,0
266,-419,0,0,0,0,0,0,0,0,0,-1,1490,1443,0,0
273,-419,0,0,0,0,0,0,0,0,0,-1,1497,1443,0,0
280,-419,0,0,0,0,0,0,0,0,0,-1,1504,1443,0,0
287,-419,0,0,0,0,0,0,0,0,0,-1,1511,1443,0,0
294,-419,0,0,0,0,0,0,0,0,0,-1,1518,1443,0,0
301,-419,0,0,0,0,0,0,0,0,0,-1,1525,1443,0,0
308,-419,0,0,0,0,0,0,0,0,0,-1,1532,1443,0,0
315,-419,0,0,0,0,0,0,0,0,0,-1,1539,1443,0,0
322,-419,0,0,0,0,0,0,0,0,0,-1,1546,1443,0,0
329,-419,0,0,0,0,0,0,0,0,0,-1,1553,1443,0,0
336,-419,0,0,0,0,0,0,0,0,0,-1,1560,1443,0,0
343,-419,0,0,0,0,0,0,0,0,0,-1,1567,1443,0,0
350,-419,0,0,0,0,0,0,0,0,0,-1,1574,1443,0,0
357,-419,0,0,0,0,0,0,0,0,0,-1,1581,1443,0,0
364,-419,0,0,0,0,0,0,0,0,0,-1,1588,1443,0,0
371,-419,0,0,0,0,0,0,0,0,0,-1,1595,1443,0,0
378,-419,0,0,0,0,0,0,0,0,0,-1,1602,1443,0,0
385,-419,0,0,0,0,0,0,0,0,0,-1,1609,1443,0,0
392,-419,0,0,0,0,0,0,0,0,0,-1,1616,1443,0,0
399,-419,0,0,0,0,0,0,0,0,0,-1,1623,1443,0,0
406,-419,0,0,0,0,0,0,0,0,0,-1,1630,1443,0,0
413,-419,0,0,0,0,0,0,0,0,0,-1,1637,1443,0,0
420,-419,0,0,0,0,0,0,0,0,0,-1,1644,1443,0,0
427,-419,0,0,0,0,0,0,0,0,0,-1,1651,1443,0,0
434,-419,0,0,0,0,0,0,0,0,0,-1,1658,1443,0,0
441,-419,0,0,0,0,0,0,0,0,0,-1,1665,1443,0,0
448,-419,0,0,0,0,0,0,0,0,0,-1,1672,1443,0,0
455,-419,0,0,0,0,0,0,0,0,0,-1,1679,1443,0,0
462,-419,0,0,0,0,0,0,0,0,0,-1,1686,1443,0,0
469,-419,0,0,0,0,0,0,0,0,0,-1,1693,1443,0,0
476,-419,0,0,0,0,0,0,0,0,0,-1,1700,1443,0,0
483,-419,0,0,0,0,0,0,0,0,0,-1,1707,1443,0,0
490,-419,0,0,0,0,0,0,0,0,0,-1,1714,1443,0,0
497,-419,0,0,0,0,0,0,0,0,0,-1,1721,1443,0,0
504,-419,0,0,0,0,0,0,0,0,0,-1,1728,1443,0,0
511,-419,2.63708,-0.815308,0,0,0,0,0,0,0,-1,1735,1443,2.63704,0.815307
518,-419,2.50977,-0.609863,0,0,0,0,0,0,0,-1,1742,1443,2.50976,0.609841
525,-419,2.45837,-0.744995,0,0,0,0,0,0,0,-1,1749,1443,2.45837,0.745022
532,-419,5.78662,1.15332,0,0,0,0,0,0,0,-1,1756,1443,5.78667,-1.15334
539,-419,5.36621,1.1405,-0.0383023,0.134115,0.0622656,0.15425,-0.0584371,1.25804,0.12688,0.0480999,1763,1443,5.36627,-1.14054
546,-419,5.02246,1.30383,-0.0385199,0.110751,0.0546676,0.128631,-0.0563993,1.25471,0.109507,0.0461439,1770,1443,5.02251,-1.30386
553,-419,4.58118,1.26221,0,0,0,0,0,0,0,-1,1777,1443,4.58115,-1.26222
560,-419,4.73645,0.785645,-0.0351384,0.0683264,0.0389367,0.081342,-0.048154,1.2482,0.0755786,0.0470029,1784,1443,4.7365,-0.785631
567,-419,4.44897,0.90979,-0.0319174,0.0505966,0.0316961,0.0613663,-0.0426871,1.24325,0.0603971,0.0441802,1791,1443,4.44897,-0.909754
574,-419,4.20374,1.04004,-0.0281418,0.0357171,0.025229,0.0444815,-0.0369062,1.23644,0.047057,0.0425788,1798,1443,4.20377,-1.0401
581,-419,3.73401,1.35034,-0.0241413,0.0237555,0.0197438,0.0308449,-0.0312307,1.22607,0.0358396,0.0401371,1805,1443,3.734,-1.35035
588,-419,3.73889,1.52405,-0.0199234,0.0136594,0.0144584,0.0190264,-0.0252904,1.21536,0.0256714,0.0383158,1812,1443,3.73886,-1.52402
595,-419,3.61255,1.6554,-0.0156996,0.00522014,0.0099836,0.0092199,-0.0196994,1.18974,0.0170581,0.0294058,1819,1443,3.6126,-1.65541
602,-419,3.56409,1.54346,-0.011928,0.000146616,0.00665398,0.00309399,-0.0148754,1.15382,0.011093,0.0128804,1826,1443,3.5641,-1.54344
609,-419,3.54333,1.48645,-0.0092314,-0.000512902,0.00481998,0.00162672,-0.011371,1.15302,0.00817704,0.00945016,1833,1443,3.54329,-1.48641
616,-419,3.53784,1.46289,-0.00656339,-0.00140399,0.00347609,0.000345058,-0.00831245,1.10462,0.00566016,0.0105165,1840,1443,3.53789,-1.4629
623,-419,3.53625,1.40234,-0.00437231,-0.00162833,0.0026175,-4.50474e-05,-0.00595559,1.02679,0.00395546,0.00880183,1847,1443,3.53631,-1.40234
630,-419,3.53369,1.35205,-0.00270188,-0.00126633,0.00216044,0.000292448,-0.00426066,0.94578,0.00294277,0.0111851,1854,1443,3.53364,-1.352
637,-419,3.53223,1.31677,-0.00167634,-0.00119376,0.00206994,0.000648913,-0.00351901,0.84342,0.00258955,0.0120607,1861,1443,3.53227,-1.31681
644,-419,3.53015,1.28735,-0.000855524,-0.00122319,0.00242919,0.00139678,-0.00347549,0.747632,0.00289709,0.0106589,1868,1443,3.53015,-1.28732
651,-419,3.5343,1.2627,0.000329639,-0.000598696,0.00293193,0.00283392,-0.00310298,0.706892,0.00342884,0.0104434,1875,1443,3.53436,-1.26266
658,-419,3.53418,1.20386,0.00138203,-0.000836962,0.00299888,0.00347008,-0.00292501,0.608221,0.00369667,0.0120198,1882,1443,3.53417,-1.20384
665,-419,3.52002,1.15491,0.00550379,-0.000772338,0.0033263,0.00693866,-0.00220721,0.407254,0.00551087,0.0180379,1889,1443,3.52001,-1.15488
672,-419,3.53027,1.09326,0.0106481,0.00192832,0.00518028,0.013059,-0.000482599,0.435589,0.00887127,0.019703,1896,1443,3.53031,-1.09324
679,-419,3.60974,1.26465,0.0161274,0.00247647,0.00599124,0.0183839,0.000219979,0.360201,0.0121833,0.0320225,1903,1443,3.60972,-1.26465
686,-419,3.48572,1.56152,0.0238074,0.00371114,0.00684986,0.0259201,0.00159845,0.299171,0.0167726,0.0492198,1910,1443,3.48569,-1.56147
693,-419,3.30261,1.81335,0,0,0,0,0,0,0,-1,1917,1443,3.30262,-1.8134
700,-419,3.67236,1.55798,0,0,0,0,0,0,0,-1,1924,1443,3.67238,-1.55793
707,-419,3.53955,1.46326,0,0,0,0,0,0,0,-1,1931,1443,3.53955,-1.46321
714,-419,3.54126,1.17139,0,0,0,0,0,0,0,-1,1938,1443,3.54132,-1.17137
721,-419,0,0,0,0,0,0,0,0,0,-1,1945,1443,0,0
728,-419,0,0,0,0,0,0,0,0,0,-1,1952,1443,0,0
735,-419,0,0,0,0,0,0,0,0,0,-1,1959,1443,0,0
742,-419,0,0,0,0,0,0,0,0,0,-1,1966,1443,0,0
749,-419,0,0,0,0,0,0,0,0,0,-1,1973,1443,0,0
756,-419,0,0,0,0,0,0,0,0,0,-1,1980,1443,0,0
763,-419,0,0,0,0,0,0,0,0,0,-1,1987,1443,0,0
770,-419,0,0,0,0,0,0,0,0,0,-1,1994,1443,0,0
777,-419,0,0,0,0,0,0,0,0,0,-1,2001,1443,0,0
784,-419,0,0,0,0,0,0,0,0,0,-1,2008,1443,0,0
791,-419,0,0,0,0,0,0,0,0,0,-1,2015,1443,0,0
798,-419,0,0,0,0,0,0,0,0,0,-1,2022,1443,0,0
805,-419,0,0,0,0,0,0,0,0,0,-1,2029,1443,0,0
812,-419,0,0,0,0,0,0,0,0,0,-1,2036,1443,0,0
-700,-426,0,0,0,0,0,0,0,0,0,-1,524,1450,0,0
-693,-426,0,0,0,0,0,0,0,0,0,-1,531,1450,0,0
-686,-426,0,0,0,0,0,0,0,0,0,-1,538,1450,0,0
-679,-426,0,0,0,0,0,0,0,0,0,-1,545,1450,0,0
-672,-426,0,0,0,0,0,0,0,0,0,-1,552,1450,0,0
-665,-426,0,0,0,0,0,0,0,0,0,-1,559,1450,0,0
-658,-426,0,0,0,0,0,0,0,0,0,-1,566,1450,0,0
-651,-426,0,0,0,0,0,0,0,0,0,-1,573,1450,0,0
-644,-426,0,0,0,0,0,0,0,0,0,-1,580,1450,0,0
-637,-426,0,0,0,0,0,0,0,0,0,-1,587,1450,0,0
-630,-426,0,0,0,0,0,0,0,0,0,-1,594,1450,0,0
-623,-426,0,0,0,0,0,0,0,0,0,-1,601,1450,0,0
-616,-426,0,0,0,0,0,0,0,0,0,-1,608,1450,0,0
-609,-426,0,0,0,0,0,0,0,0,0,-1,615,1450,0,0
-602,-426,0,0,0,0,0,0,0,0,0,-1,622,1450,0,0
-595,-426,0,0,0,0,0,0,0,0,0,-1,629,1450,0,0
-588,-426,0.175049,-0.567993,0.023552,0.0298085,0.0136401,0.0406745,0.012686,0.898119,0.0240311,0.0483472,636,1450,0.175062,0.568017
-581,-426,0.298218,0.0275879,0.0218323,0.0251864,0.0126205,0.0362408,0.0107779,0.851453,0.0214886,0.0444303,643,1450,0.298217,-0.027571
-574,-426,0.170898,0.34375,0.0203177,0.0214401,0.0119702,0.0328622,0.00889555,0.808824,0.0196268,0.0488778,650,1450,0.170884,-0.343808
-567,-426,0.223999,0.296753,0.0188643,0.0183136,0.0114857,0.0300779,0.00709998,0.773414,0.0181541,0.0477847,657,1450,0.22401,-0.296745
-560,-426,0.305664,0.231323,0.0173852,0.0154116,0.0108894,0.0273324,0.00546441,0.740209,0.0167008,0.0425462,664,1450,0.305654,-0.231277
-553,-426,0.288879,0.17395,0.0157326,0.012907,0.0102497,0.0246664,0.00397318,0.716912,0.0152929,0.042612,671,1450,0.288851,-0.173928
-546,-426,0.4505,0.381836,0.013757,0.0106327,0.00942727,0.0217506,0.00263902,0.703292,0.0137057,0.0415679,678,1450,0.450501,-0.381884
-539,-426,0.550964,0.880737,0.0118221,0.00848797,0.00838569,0.0187048,0.00160525,0.687277,0.0119707,0.0336506,685,1450,0.550956,-0.880785
-532,-426,0.586731,1.11121,0.00977038,0.00646023,0.00718575,0.0154892,0.000741409,0.672208,0.0100881,0.0191473,692,1450,0.586738,-1.11116
-525,-426,0.576782,1.16638,0.00800482,0.00499622,0.00595772,0.0126452,0.000355824,0.661735,0.00831408,0.0121339,699,1450,0.576792,-1.1664
-518,-426,0.562439,1.21765,0.00646163,0.00347768,0.004892,0.0100841,-0.000144794,0.637387,0.00677152,0.0156002,706,1450,0.56244,-1.2177
-511,-426,0.564026,1.2605,0.00493413,0.0022262,0.00371552,0.0075347,-0.00037437,0.610672,0.00515246,0.0143494,713,1450,0.564021,-1.26051
-504,-426,0.56134,1.28955,0.0033836,0.00098095,0.00258867,0.00503611,-0.000671561,0.568152,0.00360219,0.0136457,720,1450,0.561329,-1.28956
-497,-426,0.554626,1.32544,0.001615,-2.02625e-06,0.00130447,0.0023412,-0.000728227,0.507973,0.0018519,0.0111631,727,1450,0.554637,-1.32544
-490,-426,0.551147,1.37634,0.00043976,-0.00101502,-0.000310299,0.000503181,-0.00107844,-0.201609,0.000933066,0.0108595,734,1450,0.551154,-1.37639
-483,-426,0.570801,1.4082,0.000218773,-0.00115397,-0.00194451,0.00159449,-0.00252969,-0.615735,0.00240142,0.0105253,741,1450,0.570823,-1.40816
-476,-426,0.563782,1.448,0.00105711,-0.00174326,-0.00356724,0.00348912,-0.00417528,-0.598381,0.00443095,0.00861136,748,1450,0.563767,-1.44794
-469,-426,0.545044,1.47766,0.00338027,-0.00233276,-0.00550984,0.00673004,-0.00568253,-0.546253,0.0071749,0.00671594,755,1450,0.545056,-1.47767
-462,-426,0.5625,1.5376,0.00711675,-0.00261832,-0.00699805,0.0107736,-0.0062752,-0.48153,0.0099567,0.0128933,762,1450,0.56247,-1.53755
-455,-426,0.533752,1.5603,0.011341,-0.0026997,-0.00839329,0.0152629,-0.00662159,-0.437118,0.0129592,0.0244285,769,1450,0.533754,-1.56027
-448,-426,0.514404,1.43945,0.0162149,-0.00311345,-0.00970842,0.0202493,-0.0071478,-0.393841,0.0164095,0.0392002,776,1450,0.514386,-1.4395
-441,-426,0.379822,1.27295,0.0224001,-0.00334933,-0.011031,0.0264795,-0.00742872,-0.354213,0.0205811,0.046725,783,1450,0.379801,-1.27298
-434,-426,0.0386963,0.676758,0,0,0,0,0,0,0,-1,790,1450,0.0387149,-0.676746
-427,-426,0.115051,0.614502,0.0374908,-0.00378753,-0.01249,0.0409758,-0.00727253,-0.272103,0.0300363,0.044242,797,1450,0.115052,-0.614552
-420,-426,0.528015,0.494995,0.0458263,-0.0043999,-0.0120424,0.0485644,-0.00713796,-0.223568,0.034999,0.0448432,804,1450,0.528042,-0.494974
-413,-426,1.24658,0.442749,0.0540192,-0.00541236,-0.0104778,0.0558124,-0.00720552,-0.169495,0.0398279,0.0478524,811,1450,1.24657,-0.442728
-406,-426,1.37842,-0.17688,0,0,0,0,0,0,0,-1,818,1450,1.3784,0.17692
-399,-426,1.53802,0.342407,0.067556,-0.00885425,-0.00307838,0.0676798,-0.00897807,-0.0402006,0.048391,0.0471712,825,1450,1.53805,-0.342423
-392,-426,1.41675,0.586182,0,0,0,0,0,0,0,-1,832,1450,1.41678,-0.586236
-385,-426,0,0,0,0,0,0,0,0,0,-1,839,1450,0,0
-378,-426,0,0,0,0,0,0,0,0,0,-1,846,1450,0,0
-371,-426,0,0,0,0,0,0,0,0,0,-1,853,1450,0,0
-364,-426,0,0,0,0,0,0,0,0,0,-1,860,1450,0,0
-357,-426,0,0,0,0,0,0,0,0,0,-1,867,1450,0,0
-350,-426,0,0,0,0,0,0,0,0,0,-1,874,1450,0,0
-343,-426,0,0,0,0,0,0,0,0,0,-1,881,1450,0,0
-336,-426,0,0,0,0,0,0,0,0,0,-1,888,1450,0,0
-329,-426,0,0,0,0,0,0,0,0,0,-1,895,1450,0,0
-322,-426,0,0,0,0,0,0,0,0,0,-1,902,1450,0,0
-315,-426,0,0,0,0,0,0,0,0,0,-1,909,1450,0,0
-308,-426,0,0,0,0,0,0,0,0,0,-1,916,1450,0,0
-301,-426,0,0,0,0,0,0,0,0,0,-1,923,1450,0,0
-294,-426,0,0,0,0,0,0,0,0,0,-1,930,1450,0,0
-287,-426,0,0,0,0,0,0,0,0,0,-1,937,1450,0,0
-280,-426,0,0,0,0,0,0,0,0,0,-1,944,1450,0,0
-273,-426,0,0,0,0,0,0,0,0,0,-1,951,1450,0,0
-266,-426,0,0,0,0,0,0,0,0,0,-1,958,1450,0,0
-259,-426,0,0,0,0,0,0,0,0,0,-1,965,1450,0,0
-252,-426,0,0,0,0,0,0,0,0,0,-1,972,1450,0,0
-245,-426,0,0,0,0,0,0,0,0,0,-1,979,1450,0,0
-238,-426,0,0,0,0,0,0,0,0,0,-1,986,1450,0,0
-231,-426,0,0,0,0,0,0,0,0,0,-1,993,1450,0,0
-224,-426,0,0,0,0,0,0,0,0,0,-1,1000,1450,0,0
-217,-426,0,0,0,0,0,0,0,0,0,-1,1007,1450,0,0
-210,-426,0,0,0,0,0,0,0,0,0,-1,1014,1450,0,0
-203,-426,0,0,0,0,0,0,0,0,0,-1,1021,1450,0,0
-196,-426,0,0,0,0,0,0,0,0,0,-1,1028,1450,0,0
-189,-426,0,0,0,0,0,0,0,0,0,-1,1035,1450,0,0
-182,-426,0,0,0,0,0,0,0,0,0,-1,1042,1450,0,0
-175,-426,0,0,0,0,0,0,0,0,0,-1,1049,1450,0,0
-168,-426,0,0,0,0,0,0,0,0,0,-1,1056,1450,0,0
-161,-426,0,0,0,0,0,0,0,0,0,-1,1063,1450,0,0
-154,-426,0,0,0,0,0,0,0,0,0,-1,1070,1450,0,0
-147,-426,0,0,0,0,0,0,0,0,0,-1,1077,1450,0,0
-140,-426,0,0,0,0,0,0,0,0,0,-1,1084,1450,0,0
-133,-426,0,0,0,0,0,0,0,0,0,-1,1091,1450,0,0
-126,-426,0,0,0,0,0,0,0,0,0,-1,1098,1450,0,0
-119,-426,0,0,0,0,0,0,0,0,0,-1,1105,1450,0,0
-112,-426,0,0,0,0,0,0,0,0,0,-1,1112,1450,0,0
-105,-426,0,0,0,0,0,0,0,0,0,-1,1119,1450,0,0
-98,-426,0,0,0,0,0,0,0,0,0,-1,1126,1450,0,0
-91,-426,0,0,0,0,0,0,0,0,0,-1,1133,1450,0,0
-84,-426,0,0,0,0,0,0,0,0,0,-1,1140,1450,0,0
-77,-426,0,0,0,0,0,0,0,0,0,-1,1147,1450,0,0
-70,-426,0,0,0,0,0,0,0,0,0,-1,1154,1450,0,0
-63,-426,0,0,0,0,0,0,0,0,0,-1,1161,1450,0,0
-56,-426,0,0,0,0,0,0,0,0,0,-1,1168,1450,0,0
-49,-426,0,0,0,0,0,0,0,0,0,-1,1175,1450,0,0
-42,-426,0,0,0,0,0,0,0,0,0,-1,1182,1450,0,0
-35,-426,0,0,0,0,0,0,0,0,0,-1,1189,1450,0,0
-28,-426,0,0,0,0,0,0,0,0,0,-1,1196,1450,0,0
-21,-426,0,0,0,0,0,0,0,0,0,-1,1203,1450,0,0
-14,-426,0,0,0,0,0,0,0,0,0,-1,1210,1450,0,0
-7,-426,0,0,0,0,0,0,0,0,0,-1,1217,1450,0,0
0,-426,0,0,0,0,0,0,0,0,0,-1,1224,1450,0,0
7,-426,0,0,0,0,0,0,0,0,0,-1,1231,1450,0,0
14,-426,0,0,0,0,0,0,0,0,0,-1,1238,1450,0,0
21,-426,0,0,0,0,0,0,0,0,0,-1,1245,1450,0,0
28,-426,0,0,0,0,0,0,0,0,0,-1,1252,1450,0,0
35,-426,0,0,0,0,0,0,0,0,0,-1,1259,1450,0,0
42,-426,0,0,0,0,0,0,0,0,0,-1,1266,1450,0,0
49,-426,0,0,0,0,0,0,0,0,0,-1,1273,1450,0,0
56,-426,0,0,0,0,0,0,0,0,0,-1,1280,1450,0,0
63,-426,0,0,0,0,0,0,0,0,0,-1,1287,1450,0,0
70,-426,0,0,0,0,0,0,0,0,0,-1,1294,1450,0,0
77,-426,0,0,0,0,0,0,0,0,0,-1,1301,1450,0,0
84,-426,0,0,0,0,0,0,0,0,0,-1,1308,1450,0,0
91,-426,0,0,0,0,0,0,0,0,0,-1,1315,1450,0,0
98,-426,0,0,0,0,0,0,0,0,0,-1,1322,1450,0,0
105,-426,0,0,0,0,0,0,0,0,0,-1,1329,1450,0,0
112,-426,0,0,0,0,0,0,0,0,0,-1,1336,1450,0,0
119,-426,0,0,0,0,0,0,0,0,0,-1,1343,1450,0,0
126,-426,0,0,0,0,0,0,0,0,0,-1,1350,1450,0,0
133,-426,0,0,0,0,0,0,0,0,0,-1,1357,1450,0,0
140,-426,0,0,0,0,0,0,0,0,0,-1,1364,1450,0,0
147,-426,0,0,0,0,0,0,0,0,0,-1,1371,1450,0,0
154,-426,0,0,0,0,0,0,0,0,0,-1,1378,1450,0,0
161,-426,0,0,0,0,0,0,0,0,0,-1,1385,1450,0,0
168,-426,0,0,0,0,0,0,0,0,0,-1,1392,1450,0,0
175,-426,0,0,0,0,0,0,0,0,0,-1,1399,1450,0,0
182,-426,0,0,0,0,0,0,0,0,0,-1,1406,1450,0,0
189,-426,0,0,0,0,0,0,0,0,0,-1,1413,1450,0,0
196,-426,0,0,0,0,0,0,0,0,0,-1,1420,1450,0,0
203,-426,0,0,0,0,0,0,0,0,0,-1,1427,1450,0,0
210,-426,0,0,0,0,0,0,0,0,0,-1,1434,1450,0,0
217,-426,0,0,0,0,0,0,0,0,0,-1,1441,1450,0,0
224,-426,0,0,0,0,0,0,0,0,0,-1,1448,1450,0,0
231,-426,0,0,0,0,0,0,0,0,0,-1,1455,1450,0,0
238,-426,0,0,0,0,0,0,0,0,0,-1,1462,1450,0,0
245,-426,0,0,0,0,0,0,0,0,0,-1,1469,1450,0,0
252,-426,0,0,0,0,0,0,0,0,0,-1,1476,1450,0,0
259,-426,0,0,0,0,0,0,0,0,0,-1,1483,1450,0,0
266,-426,0,0,0,0,0,0,0,0,0,-1,1490,1450,0,0
273,-426,0,0,0,0,0,0,0,0,0,-1,1497,1450,0,0
280,-426,0,0,0,0,0,0,0,0,0,-1,1504,1450,0,0
287,-426,0,0,0,0,0,0,0,0,0,-1,1511,1450,0,0
294,-426,0,0,0,0,0,0,0,0,0,-1,1518,1450,0,0
301,-426,0,0,0,0,0,0,0,0,0,-1,1525,1450,0,0
308,-426,0,0,0,0,0,0,0,0,0,-1,1532,1450,0,0
315,-426,0,0,0,0,0,0,0,0,0,-1,1539,1450,0,0
322,-426,0,0,0,0,0,0,0,0,0,-1,1546,1450,0,0
329,-426,0,0,0,0,0,0,0,0,0,-1,1553,1450,0,0
336,-426,0,0,0,0,0,0,0,0,0,-1,1560,1450,0,0
343,-426,0,0,0,0,0,0,0,0,0,-1,1567,1450,0,0
350,-426,0,0,0,0,0,0,0,0,0,-1,1574,1450,0,0
357,-426,0,0,0,0,0,0,0,0,0,-1,1581,1450,0,0
364,-426,0,0,0,0,0,0,0,0,0,-1,1588,1450,0,0
371,-426,0,0,0,0,0,0,0,0,0,-1,1595,1450,0,0
378,-426,0,0,0,0,0,0,0,0,0,-1,1602,1450,0,0
385,-426,0,0,0,0,0,0,0,0,0,-1,1609,1450,0,0
392,-426,0,0,0,0,0,0,0,0,0,-1,1616,1450,0,0
399,-426,0,0,0,0,0,0,0,0,0,-1,1623,1450,0,0
406,-426,0,0,0,0,0,0,0,0,0,-1,1630,1450,0,0
413,-426,0,0,0,0,0,0,0,0,0,-1,1637,1450,0,0
420,-426,0,0,0,0,0,0,0,0,0,-1,1644,1450,0,0
427,-426,0,0,0,0,0,0,0,0,0,-1,1651,1450,0,0
434,-426,0,0,0,0,0,0,0,0,0,-1,1658,1450,0,0
441,-426,0,0,0,0,0,0,0,0,0,-1,1665,1450,0,0
448,-426,0,0,0,0,0,0,0,0,0,-1,1672,1450,0,0
455,-426,0,0,0,0,0,0,0,0,0,-1,1679,1450,0,0
462,-426,0,0,0,0,0,0,0,0,0,-1,1686,1450,0,0
469,-426,0,0,0,0,0,0,0,0,0,-1,1693,1450,0,0
476,-426,0,0,0,0,0,0,0,0,0,-1,1700,1450,0,0
483,-426,0,0,0,0,0,0,0,0,0,-1,1707,1450,0,0
490,-426,0,0,0,0,0,0,0,0,0,-1,1714,1450,0,0
497,-426,0,0,0,0,0,0,0,0,0,-1,1721,1450,0,0
504,-426,4.01477,-0.64978,0,0,0,0,0,0,0,-1,1728,1450,4.01471,0.649809
511,-426,4.25781,-0.321289,0,0,0,0,0,0,0,-1,1735,1450,4.25783,0.321322
518,-426,4.80176,0.370728,0,0,0,0,0,0,0,-1,1742,1450,4.80175,-0.370681
525,-426,2.52014,-0.87085,0,0,0,0,0,0,0,-1,1749,1450,2.52019,0.870844
532,-426,5.02283,-0.0065918,0,0,0,0,0,0,0,-1,1756,1450,5.02278,0.00659288
539,-426,4.61072,-0.0467529,-0.0318955,0.119886,0.0561488,0.138399,-0.0504086,1.25231,0.112885,0.0490614,1763,1450,4.61069,0.0467724
546,-426,4.00879,0.252319,-0.0318017,0.100744,0.0499702,0.117471,-0.0485296,1.24777,0.0985573,0.048853,1770,1450,4.00883,-0.25228
553,-426,3.58691,0.211182,0,0,0,0,0,0,0,-1,1777,1450,3.58689,-0.211168
560,-426,4.25012,1.58594,0,0,0,0,0,0,0,-1,1784,1450,4.25016,-1.58588
567,-426,3.91943,1.17322,0,0,0,0,0,0,0,-1,1791,1450,3.91939,-1.1732
574,-426,3.71484,1.20679,-0.0218625,0.0328023,0.0231881,0.0413133,-0.0303735,1.21902,0.0415487,0.0449068,1798,1450,3.71484,-1.20683
581,-426,3.41113,1.30139,-0.018529,0.0216348,0.0180106,0.0285282,-0.0254223,1.20526,0.0311655,0.0377324,1805,1450,3.41109,-1.30137
588,-426,3.52124,1.52515,-0.0150718,0.012409,0.0130556,0.0176225,-0.0202853,1.19087,0.021904,0.0303611,1812,1450,3.52121,-1.52511
595,-426,3.50439,1.63586,-0.0116537,0.00478972,0.00889054,0.00867744,-0.0155414,1.15856,0.0141687,0.0214253,1819,1450,3.5044,-1.63584
602,-426,3.49084,1.52307,-0.00864488,0.000226507,0.00581725,0.00310626,-0.0115246,1.11113,0.00890105,0.0144082,1826,1450,3.4908,-1.52304
609,-426,3.49951,1.4751,-0.00676074,-0.000283577,0.0042401,0.00181328,-0.0088576,1.11153,0.00659314,0.0112101,1833,1450,3.49945,-1.47508
616,-426,3.51318,1.45105,-0.00483637,-0.00112916,0.00306764,0.000601408,-0.00656693,1.05717,0.00459157,0.0127119,1840,1450,3.51315,-1.451
623,-426,3.50757,1.39929,-0.00328121,-0.00138767,0.00235097,0.000200009,-0.00486888,0.97682,0.0033146,0.0105733,1847,1450,3.50758,-1.39924
630,-426,3.49084,1.36719,-0.00209301,-0.00103777,0.00208951,0.000589703,-0.00372049,0.909067,0.00269846,0.011174,1854,1450,3.49081,-1.36723
637,-426,3.49219,1.33728,-0.00138659,-0.00100978,0.00222014,0.00102994,-0.0034263,0.827728,0.00269396,0.0118801,1861,1450,3.49216,-1.33734
644,-426,3.47363,1.31018,-0.000662549,-0.00107128,0.00275338,0.00189404,-0.00362787,0.748354,0.00324004,0.011631,1868,1450,3.47366,-1.31016
651,-426,3.45935,1.27954,0.000499749,-0.000323754,0.00338911,0.00350203,-0.00332603,0.724948,0.00394262,0.0111279,1875,1450,3.45936,-1.27953
658,-426,3.48682,1.21045,0.00160711,-0.000485079,0.00351306,0.00422652,-0.00310448,0.640692,0.00424905,0.010787,1882,1450,3.48678,-1.21046
665,-426,3.48901,1.1554,0.00563562,-0.00023102,0.00392334,0.00760096,-0.00219637,0.464398,0.00593645,0.0152306,1889,1450,3.48899,-1.15534
672,-426,3.50928,1.16907,0.0108215,0.00291179,0.00573149,0.0138302,-9.68883e-05,0.483398,0.0092526,0.0236057,1896,1450,3.50923,-1.16906
679,-426,3.56091,1.44946,0.0165615,0.00438002,0.00644179,0.0193361,0.00160545,0.406701,0.0123903,0.034693,1903,1450,3.56096,-1.44948
686,-426,3.40857,1.65161,0.0246409,0.00681761,0.00701055,0.0270679,0.00439059,0.333282,0.0167744,0.0439443,1910,1450,3.40854,-1.65162
693,-426,3.41943,1.64514,0.0352855,0.0109854,0.0073662,0.0373441,0.00892686,0.272508,0.0225182,0.0470602,1917,1450,3.41943,-1.64512
700,-426,3.68665,2.8689,0.0484871,0.0166588,0.00751864,0.0501738,0.0149721,0.220682,0.0297424,0.0480386,1924,1450,3.68661,-2.86887
707,-426,3.57629,2.01941,0.0641035,0.0240224,0.00749967,0.0654608,0.0226651,0.179045,0.0383849,0.0477908,1931,1450,3.57634,-2.01943
714,-426,0,0,0,0,0,0,0,0,0,-1,1938,1450,0,0
721,-426,0,0,0,0,0,0,0,0,0,-1,1945,1450,0,0
728,-426,0,0,0,0,0,0,0,0,0,-1,1952,1450,0,0
735,-426,0,0,0,0,0,0,0,0,0,-1,1959,1450,0,0
742,-426,0,0,0,0,0,0,0,0,0,-1,1966,1450,0,0
749,-426,0,0,0,0,0,0,0,0,0,-1,1973,1450,0,0
756,-426,0,0,0,0,0,0,0,0,0,-1,1980,1450,0,0
763,-426,0,0,0,0,0,0,0,0,0,-1,1987,1450,0,0
770,-426,0,0,0,0,0,0,0,0,0,-1,1994,1450,0,0
777,-426,0,0,0,0,0,0,0,0,0,-1,2001,1450,0,0
784,-426,0,0,0,0,0,0,0,0,0,-1,2008,1450,0,0
791,-426,0,0,0,0,0,0,0,0,0,-1,2015,1450,0,0
798,-426,0,0,0,0,0,0,0,0,0,-1,2022,1450,0,0
805,-426,0,0,0,0,0,0,0,0,0,-1,2029,1450,0,0
812,-426,0,0,0,0,0,0,0,0,0,-1,2036,1450,0,0
-700,-433,0,0,0,0,0,0,0,0,0,-1,524,1457,0,0
-693,-433,0,0,0,0,0,0,0,0,0,-1,531,1457,0,0
-686,-433,0,0,0,0,0,0,0,0,0,-1,538,1457,0,0
-679,-433,0,0,0,0,0,0,0,0,0,-1,545,1457,0,0
-672,-433,0,0,0,0,0,0,0,0,0,-1,552,1457,0,0
-665,-433,0,0,0,0,0,0,0,0,0,-1,559,1457,0,0
-658,-433,0,0,0,0,0,0,0,0,0,-1,566,1457,0,0
-651,-433,0,0,0,0,0,0,0,0,0,-1,573,1457,0,0
-644,-433,0,0,0,0,0,0,0,0,0,-1,580,1457,0,0
-637,-433,0,0,0,0,0,0,0,0,0,-1,587,1457,0,0
-630,-433,0,0,0,0,0,0,0,0,0,-1,594,1457,0,0
-623,-433,0,0,0,0,0,0,0,0,0,-1,601,1457,0,0
-616,-433,0,0,0,0,0,0,0,0,0,-1,608,1457,0,0
-609,-433,0,0,0,0,0,0,0,0,0,-1,615,1457,0,0
-602,-433,0,0,0,0,0,0,0,0,0,-1,622,1457,0,0
-595,-433,0,0,0,0,0,0,0,0,0,-1,629,1457,0,0
-588,-433,0.146667,-1.06787,0,0,0,0,0,0,0,-1,636,1457,0.146638,1.0679
-581,-433,0.810486,1.0769,0,0,0,0,0,0,0,-1,643,1457,0.810514,-1.07693
-574,-433,0.42749,0.135498,0.0206948,0.0211506,0.0109426,0.0318676,0.00997775,0.795809,0.0188224,0.0477995,650,1457,0.427494,-0.135513
-567,-433,0.525269,0.189209,0.0206562,0.0179698,0.0113216,0.030714,0.00791196,0.726354,0.0184142,0.0468399,657,1457,0.525259,-0.18925
-560,-433,0.473938,0.317383,0.0200366,0.0150899,0.011418,0.0292461,0.00588041,0.678736,0.0178629,0.0450365,664,1457,0.473961,-0.317426
-553,-433,0.436401,-0.126221,0,0,0,0,0,0,0,-1,671,1457,0.436388,0.126184
-546,-433,0.462036,0.29126,0.0170936,0.0102173,0.01052,0.0247231,0.00258786,0.62746,0.0156907,0.0462571,678,1457,0.462066,-0.291265
-539,-433,0.509033,0.694458,0.0150075,0.00816959,0.00960384,0.0217828,0.00139427,0.614395,0.0140801,0.0417023,685,1457,0.509041,-0.694486
-532,-433,0.591431,1.07202,0.0126527,0.00626901,0.00838823,0.0184358,0.000485871,0.6036,0.0121318,0.0247605,692,1457,0.591452,-1.07202
-525,-433,0.601196,1.14014,0.0105573,0.00479467,0.00711255,0.01535,1.98977e-06,0.592949,0.0102327,0.0126321,699,1457,0.601199,-1.14008
-518,-433,0.593994,1.19458,0.00863365,0.00339216,0.00597226,0.0125349,-0.000509072,0.57864,0.00853134,0.0158375,706,1457,0.593978,-1.19463
-511,-433,0.604004,1.25549,0.00671608,0.00226108,0.00465584,0.00964984,-0.000672679,0.562276,0.00666877,0.0144679,713,1457,0.604008,-1.2555
-504,-433,0.623718,1.27869,0.0047746,0.00112768,0.00339628,0.00680597,-0.000903688,0.539034,0.00486659,0.0121793,720,1457,0.623688,-1.27864
-497,-433,0.613586,1.3092,0.00258628,0.000358151,0.00201858,0.00377782,-0.000833391,0.533246,0.00283744,0.0132591,727,1457,0.613582,-1.30918
-490,-433,0.582703,1.34729,0.00115601,-0.000576049,0.000234517,0.0011872,-0.00060724,0.132227,0.0010539,0.0150759,734,1457,0.582676,-1.34733
-483,-433,0.590942,1.40503,0.000715651,-0.000760306,-0.00142582,0.00158315,-0.00162781,-0.546591,0.00185391,0.0152816,741,1457,0.590924,-1.40498
-476,-433,0.612061,1.45349,0.00132406,-0.00149034,-0.00298296,0.00321508,-0.00338136,-0.565003,0.00380886,0.010012,748,1457,0.612036,-1.45346
-469,-433,0.621033,1.50122,0.00322585,-0.0023447,-0.00482238,0.00600951,-0.00512837,-0.523515,0.00643716,0.00960623,755,1457,0.621045,-1.50128
-462,-433,0.610901,1.53601,0.00627987,-0.0029654,-0.00617026,0.00936703,-0.00605255,-0.46391,0.00897079,0.00876001,762,1457,0.610886,-1.53604
-455,-433,0.617676,1.56604,0.00981461,-0.00344734,-0.00739277,0.0131145,-0.00674727,-0.419833,0.011662,0.0165325,769,1457,0.617691,-1.56602
-448,-433,0.553101,1.47449,0.0140112,-0.00432584,-0.00850244,0.0173468,-0.00766145,-0.373862,0.014795,0.0297801,776,1457,0.553085,-1.47446
-441,-433,0.459778,1.09436,0.0193741,-0.00512972,-0.00959753,0.0226857,-0.00844129,-0.332253,0.0185878,0.0403353,783,1457,0.459802,-1.09434
-434,-433,-0.00335693,0.54248,0.0255667,-0.00600276,-0.0103662,0.0286663,-0.00910232,-0.290544,0.02276,0.0421992,790,1457,-0.00334785,-0.542434
-427,-433,0.306641,0.709595,0.0323176,-0.00694954,-0.0105145,0.0349558,-0.00958776,-0.245836,0.0270718,0.0443569,797,1457,0.306652,-0.709599
-420,-433,0.926392,0.527832,0.0395558,-0.00807844,-0.00991991,0.041539,-0.0100617,-0.197326,0.0315854,0.0451584,804,1457,0.926385,-0.527793
-413,-433,1.64246,0.442993,0,0,0,0,0,0,0,-1,811,1457,1.64249,-0.443009
-406,-433,1.36896,0.06604,0,0,0,0,0,0,0,-1,818,1457,1.36894,-0.0660243
-399,-433,1.55054,0.621582,0,0,0,0,0,0,0,-1,825,1457,1.55057,-0.621532
-392,-433,1.67035,0.725586,0,0,0,0,0,0,0,-1,832,1457,1.67033,-0.725622
-385,-433,2.276,1.12122,0,0,0,0,0,0,0,-1,839,1457,2.27599,-1.12125
-378,-433,0,0,0,0,0,0,0,0,0,-1,846,1457,0,0
-371,-433,0,0,0,0,0,0,0,0,0,-1,853,1457,0,0
-364,-433,0,0,0,0,0,0,0,0,0,-1,860,1457,0,0
-357,-433,0,0,0,0,0,0,0,0,0,-1,867,1457,0,0
-350,-433,0,0,0,0,0,0,0,0,0,-1,874,1457,0,0
-343,-433,0,0,0,0,0,0,0,0,0,-1,881,1457,0,0
-336,-433,0,0,0,0,0,0,0,0,0,-1,888,1457,0,0
-329,-433,0,0,0,0,0,0,0,0,0,-1,895,1457,0,0
-322,-433,0,0,0,0,0,0,0,0,0,-1,902,1457,0,0
-315,-433,0,0,0,0,0,0,0,0,0,-1,909,1457,0,0
-308,-433,0,0,0,0,0,0,0,0,0,-1,916,1457,0,0
-301,-433,0,0,0,0,0,0,0,0,0,-1,923,1457,0,0
-294,-433,0,0,0,0,0,0,0,0,0,-1,930,1457,0,0
-287,-433,0,0,0,0,0,0,0,0,0,-1,937,1457,0,0
-280,-433,0,0,0,0,0,0,0,0,0,-1,944,1457,0,0
-273,-433,0,0,0,0,0,0,0,0,0,-1,951,1457,0,0
-266,-433,0,0,0,0,0,0,0,0,0,-1,958,1457,0,0
-259,-433,0,0,0,0,0,0,0,0,0,-1,965,1457,0,0
-252,-433,0,0,0,0,0,0,0,0,0,-1,972,1457,0,0
-245,-433,0,0,0,0,0,0,0,0,0,-1,979,1457,0,0
-238,-433,0,0,0,0,0,0,0,0,0,-1,986,1457,0,0
-231,-433,0,0,0,0,0,0,0,0,0,-1,993,1457,0,0
-224,-433,0,0,0,0,0,0,0,0,0,-1,1000,1457,0,0
-217,-433,0,0,0,0,0,0,0,0,0,-1,1007,1457,0,0
-210,-433,0,0,0,0,0,0,0,0,0,-1,1014,1457,0,0
-203,-433,0,0,0,0,0,0,0,0,0,-1,1021,1457,0,0
-196,-433,0,0,0,0,0,0,0,0,0,-1,1028,1457,0,0
-189,-433,0,0,0,0,0,0,0,0,0,-1,1035,1457,0,0
-182,-433,0,0,0,0,0,0,0,0,0,-1,1042,1457,0,0
-175,-433,0,0,0,0,0,0,0,0,0,-1,1049,1457,0,0
-168,-433,0,0,0,0,0,0,0,0,0,-1,1056,1457,0,0
-161,-433,0,0,0,0,0,0,0,0,0,-1,1063,1457,0,0
-154,-433,0,0,0,0,0,0,0,0,0,-1,1070,1457,0,0
-147,-433,0,0,0,0,0,0,0,0,0,-1,1077,1457,0,0
-140,-433,0,0,0,0,0,0,0,0,0,-1,1084,1457,0,0
-133,-433,0,0,0,0,0,0,0,0,0,-1,1091,1457,0,0
-126,-433,0,0,0,0,0,0,0,0,0,-1,1098,1457,0,0
-119,-433,0,0,0,0,0,0,0,0,0,-1,1105,1457,0,0
-112,-433,0,0,0,0,0,0,0,0,0,-1,1112,1457,0,0
-105,-433,0,0,0,0,0,0,0,0,0,-1,1119,1457,0,0
-98,-433,0,0,0,0,0,0,0,0,0,-1,1126,1457,0,0
-91,-433,0,0,0,0,0,0,0,0,0,-1,1133,1457,0,0
-84,-433,0,0,0,0,0,0,0,0,0,-1,1140,1457,0,0
-77,-433,0,0,0,0,0,0,0,0,0,-1,1147,1457,0,0
-70,-433,0,0,0,0,0,0,0,0,0,-1,1154,1457,0,0
-63,-433,0,0,0,0,0,0,0,0,0,-1,1161,1457,0,0
-56,-433,0,0,0,0,0,0,0,0,0,-1,1168,1457,0,0
-49,-433,0,0,0,0,0,0,0,0,0,-1,1175,1457,0,0
-42,-433,0,0,0,0,0,0,0,0,0,-1,1182,1457,0,0
-35,-433,0,0,0,0,0,0,0,0,0,-1,1189,1457,0,0
-28,-433,0,0,0,0,0,0,0,0,0,-1,1196,1457,0,0
-21,-433,0,0,0,0,0,0,0,0,0,-1,1203,1457,0,0
-14,-433,0,0,0,0,0,0,0,0,0,-1,1210,1457,0,0
-7,-433,0,0,0,0,0,0,0,0,0,-1,1217,1457,0,0
0,-433,0,0,0,0,0,0,0,0,0,-1,1224,1457,0,0
7,-433,0,0,0,0,0,0,0,0,0,-1,1231,1457,0,0
14,-433,0,0,0,0,0,0,0,0,0,-1,1238,1457,0,0
21,-433,0,0,0,0,0,0,0,0,0,-1,1245,1457,0,0
28,-433,0,0,0,0,0,0,0,0,0,-1,1252,1457,0,0
35,-433,0,0,0,0,0,0,0,0,0,-1,1259,1457,0,0
42,-433,0,0,0,0,0,0,0,0,0,-1,1266,1457,0,0
49,-433,0,0,0,0,0,0,0,0,0,-1,1273,1457,0,0
56,-433,0,0,0,0,0,0,0,0,0,-1,1280,1457,0,0
63,-433,0,0,0,0,0,0,0,0,0,-1,1287,1457,0,0
70,-433,0,0,0,0,0,0,0,0,0,-1,1294,1457,0,0
77,-433,0,0,0,0,0,0,0,0,0,-1,1301,1457,0,0
84,-433,0,0,0,0,0,0,0,0,0,-1,1308,1457,0,0
91,-433,0,0,0,0,0,0,0,0,0,-1,1315,1457,0,0
98,-433,0,0,0,0,0,0,0,0,0,-1,1322,1457,0,0
105,-433,0,0,0,0,0,0,0,0,0,-1,1329,1457,0,0
112,-433,0,0,0,0,0,0,0,0,0,-1,1336,1457,0,0
119,-433,0,0,0,0,0,0,0,0,0,-1,1343,1457,0,0
126,-433,0,0,0,0,0,0,0,0,0,-1,1350,1457,0,0
133,-433,0,0,0,0,0,0,0,0,0,-1,1357,1457,0,0
140,-433,0,0,0,0,0,0,0,0,0,-1,1364,1457,0,0
147,-433,0,0,0,0,0,0,0,0,0,-1,1371,1457,0,0
154,-433,0,0,0,0,0,0,0,0,0,-1,1378,1457,0,0
161,-433,0,0,0,0,0,0,0,0,0,-1,1385,1457,0,0
168,-433,0,0,0,0,0,0,0,0,0,-1,1392,1457,0,0
175,-433,0,0,0,0,0,0,0,0,0,-1,1399,1457,0,0
182,-433,0,0,0,0,0,0,0,0,0,-1,1406,1457,0,0
189,-433,0,0,0,0,0,0,0,0,0,-1,1413,1457,0,0
196,-433,0,0,0,0,0,0,0,0,0,-1,1420,1457,0,0
203,-433,0,0,0,0,0,0,0,0,0,-1,1427,1457,0,0
210,-433,0,0,0,0,0,0,0,0,0,-1,1434,1457,0,0
217,-433,0,0,0,0,0,0,0,0,0,-1,1441,1457,0,0
224,-433,0,0,0,0,0,0,0,0,0,-1,1448,1457,0,0
231,-433,0,0,0,0,0,0,0,0,0,-1,1455,1457,0,0
238,-433,0,0,0,0,0,0,0,0,0,-1,1462,1457,0,0
245,-433,0,0,0,0,0,0,0,0,0,-1,1469,1457,0,0
252,-433,0,0,0,0,0,0,0,0,0,-1,1476,1457,0,0
259,-433,0,0,0,0,0,0,0,0,0,-1,1483,1457,0,0
266,-433,0,0,0,0,0,0,0,0,0,-1,1490,1457,0,0
273,-433,0,0,0,0,0,0,0,0,0,-1,1497,1457,0,0
280,-433,0,0,0,0,0,0,0,0,0,-1,1504,1457,0,0
287,-433,0,0,0,0,0,0,0,0,0,-1,1511,1457,0,0
294,-433,0,0,0,0,0,0,0,0,0,-1,1518,1457,0,0
301,-433,0,0,0,0,0,0,0,0,0,-1,1525,1457,0,0
308,-433,0,0,0,0,0,0,0,0,0,-1,1532,1457,0,0
315,-433,0,0,0,0,0,0,0,0,0,-1,1539,1457,0,0
322,-433,0,0,0,0,0,0,0,0,0,-1,1546,1457,0,0
329,-433,0,0,0,0,0,0,0,0,0,-1,1553,1457,0,0
336,-433,0,0,0,0,0,0,0,0,0,-1,1560,1457,0,0
343,-433,0,0,0,0,0,0,0,0,0,-1,1567,1457,0,0
350,-433,0,0,0,0,0,0,0,0,0,-1,1574,1457,0,0
357,-433,0,0,0,0,0,0,0,0,0,-1,1581,1457,0,0
364,-433,0,0,0,0,0,0,0,0,0,-1,1588,1457,0,0
371,-433,0,0,0,0,0,0,0,0,0,-1,1595,1457,0,0
378,-433,0,0,0,0,0,0,0,0,0,-1,1602,1457,0,0
385,-433,0,0,0,0,0,0,0,0,0,-1,1609,1457,0,0
392,-433,0,0,0,0,0,0,0,0,0,-1,1616,1457,0,0
399,-433,0,0,0,0,0,0,0,0,0,-1,1623,1457,0,0
406,-433,0,0,0,0,0,0,0,0,0,-1,1630,1457,0,0
413,-433,0,0,0,0,0,0,0,0,0,-1,1637,1457,0,0
420,-433,0,0,0,0,0,0,0,0,0,-1,1644,1457,0,0
427,-433,0,0,0,0,0,0,0,0,0,-1,1651,1457,0,0
434,-433,0,0,0,0,0,0,0,0,0,-1,1658,1457,0,0
441,-433,0,0,0,0,0,0,0,0,0,-1,1665,1457,0,0
448,-433,0,0,0,0,0,0,0,0,0,-1,1672,1457,0,0
455,-433,0,0,0,0,0,0,0,0,0,-1,1679,1457,0,0
462,-433,0,0,0,0,0,0,0,0,0,-1,1686,1457,0,0
469,-433,0,0,0,0,0,0,0,0,0,-1,1693,1457,0,0
476,-433,0,0,0,0,0,0,0,0,0,-1,1700,1457,0,0
483,-433,0,0,0,0,0,0,0,0,0,-1,1707,1457,0,0
490,-433,0,0,0,0,0,0,0,0,0,-1,1714,1457,0,0
497,-433,0,0,0,0,0,0,0,0,0,-1,1721,1457,0,0
504,-433,4.18787,-0.144775,0,0,0,0,0,0,0,-1,1728,1457,4.18782,0.144732
511,-433,4.26306,0.0600586,0,0,0,0,0,0,0,-1,1735,1457,4.26311,-0.0600419
518,-433,4.30457,0.459717,0,0,0,0,0,0,0,-1,1742,1457,4.30452,-0.459689
525,-433,4.31763,0.255493,0,0,0,0,0,0,0,-1,1749,1457,4.31757,-0.255526
532,-433,4.03113,0.280029,0,0,0,0,0,0,0,-1,1756,1457,4.03113,-0.280082
539,-433,3.64026,-0.977417,0,0,0,0,0,0,0,-1,1763,1457,3.64021,0.977425
546,-433,2.43774,0.369141,0,0,0,0,0,0,0,-1,1770,1457,2.43778,-0.369189
553,-433,4.41418,2.078,0,0,0,0,0,0,0,-1,1777,1457,4.41414,-2.07799
560,-433,4.20544,1.83875,-0.0211685,0.0512702,0.0289315,0.0614068,-0.0313051,1.2338,0.0544596,0.0446332,1784,1457,4.20542,-1.83873
567,-433,3.95007,1.55176,-0.0191456,0.0376771,0.0234962,0.0461341,-0.0276026,1.2253,0.0430177,0.0464877,1791,1457,3.9501,-1.5518
574,-433,3.6615,1.49988,-0.016789,0.0261593,0.0185734,0.0330772,-0.0237069,1.21425,0.0329328,0.0459451,1798,1457,3.66146,-1.49991
581,-433,3.52136,1.49561,-0.0143952,0.0171214,0.0144718,0.0227584,-0.0200322,1.19936,0.0247219,0.0364541,1805,1457,3.52142,-1.49556
588,-433,3.46204,1.57385,-0.0118342,0.00981715,0.0105035,0.0140752,-0.0160923,1.18565,0.0174302,0.0252301,1812,1457,3.46203,-1.57388
595,-433,3.46667,1.60303,-0.00918893,0.00374571,0.00711639,0.00689448,-0.0123377,1.15422,0.011251,0.0195587,1819,1457,3.46667,-1.60303
602,-433,3.44275,1.53027,-0.00679582,8.64196e-05,0.00465222,0.00243187,-0.00914127,1.10383,0.00704611,0.0197813,1826,1457,3.44277,-1.53025
609,-433,3.45264,1.47729,-0.00538872,-0.000276887,0.00346277,0.00147109,-0.0071367,1.10332,0.00531645,0.0154162,1833,1457,3.45268,-1.47729
616,-433,3.47437,1.45251,-0.00390039,-0.00101236,0.0025214,0.000449254,-0.005362,1.04545,0.00373344,0.0130419,1840,1457,3.47439,-1.45251
623,-433,3.44885,1.4021,-0.00267749,-0.00122879,0.00200771,0.000181246,-0.00408752,0.958523,0.0027874,0.0100386,1847,1457,3.44882,-1.40205
630,-433,3.43286,1.37964,-0.00175951,-0.000892484,0.00195952,0.0006809,-0.0033329,0.894262,0.00248025,0.0121835,1854,1457,3.43287,-1.37969
637,-433,3.44556,1.3385,-0.00122409,-0.000904113,0.00231949,0.0012609,-0.0033891,0.819831,0.00277683,0.0123384,1861,1457,3.44552,-1.33856
644,-433,3.45337,1.31665,-0.000562669,-0.00095381,0.00305075,0.00229878,-0.00381525,0.753389,0.00356595,0.0135411,1868,1457,3.45337,-1.31671
651,-433,3.42603,1.2749,0.000609102,-3.38421e-05,0.00383576,0.00413684,-0.00356158,0.743591,0.00444882,0.0110793,1875,1457,3.42604,-1.27495
658,-433,3.43604,1.19434,0.00179486,-4.28442e-05,0.00403136,0.00501076,-0.00325874,0.673349,0.00480998,0.0115126,1882,1457,3.43604,-1.19431
665,-433,3.44031,1.16003,0.005707,0.000484796,0.004524,0.00831935,-0.00212755,0.523667,0.00637488,0.016243,1889,1457,3.44031,-1.16009
672,-433,3.479,1.31213,0.0109026,0.00403009,0.0061808,0.0145381,0.000394566,0.531695,0.00956328,0.0323683,1896,1457,3.47895,-1.31208
679,-433,3.6814,1.91956,0,0,0,0,0,0,0,-1,1903,1457,3.68136,-1.91954
686,-433,3.52893,1.78552,0.0251821,0.0103369,0.00678536,0.0278162,0.00770288,0.370289,0.0165839,0.0458378,1910,1457,3.52895,-1.7855
693,-433,3.6875,2.51489,0.0360218,0.0161884,0.0063562,0.037884,0.0143262,0.284997,0.0220877,0.0428913,1917,1457,3.68753,-2.51493
700,-433,4.13989,2.36731,0.0494498,0.0241324,0.00533515,0.0505282,0.023054,0.199434,0.0292097,0.0457477,1924,1457,4.13992,-2.36737
707,-433,4.38562,2.40588,0.065415,0.0344489,0.00366323,0.0658424,0.0340215,0.116162,0.0380212,0.0423231,1931,1457,4.38566,-2.40592
714,-433,0,0,0,0,0,0,0,0,0,-1,1938,1457,0,0
721,-433,0,0,0,0,0,0,0,0,0,-1,1945,1457,0,0
728,-433,0,0,0,0,0,0,0,0,0,-1,1952,1457,0,0
735,-433,0,0,0,0,0,0,0,0,0,-1,1959,1457,0,0
742,-433,0,0,0,0,0,0,0,0,0,-1,1966,1457,0,0
749,-433,0,0,0,0,0,0,0,0,0,-1,1973,1457,0,0
756,-433,0,0,0,0,0,0,0,0,0,-1,1980,1457,0,0
763,-433,0,0,0,0,0,0,0,0,0,-1,1987,1457,0,0
770,-433,0,0,0,0,0,0,0,0,0,-1,1994,1457,0,0
777,-433,0,0,0,0,0,0,0,0,0,-1,2001,1457,0,0
784,-433,0,0,0,0,0,0,0,0,0,-1,2008,1457,0,0
791,-433,0,0,0,0,0,0,0,0,0,-1,2015,1457,0,0
798,-433,0,0,0,0,0,0,0,0,0,-1,2022,1457,0,0
805,-433,0,0,0,0,0,0,0,0,0,-1,2029,1457,0,0
812,-433,0,0,0,0,0,0,0,0,0,-1,2036,1457,0,0
-700,-440,0,0,0,0,0,0,0,0,0,-1,524,1464,0,0
-693,-440,0,0,0,0,0,0,0,0,0,-1,531,1464,0,0
-686,-440,0,0,0,0,0,0,0,0,0,-1,538,1464,0,0
-679,-440,0,0,0,0,0,0,0,0,0,-1,545,1464,0,0
-672,-440,0,0,0,0,0,0,0,0,0,-1,552,1464,0,0
-665,-440,0,0,0,0,0,0,0,0,0,-1,559,1464,0,0
-658,-440,0,0,0,0,0,0,0,0,0,-1,566,1464,0,0
-651,-440,0,0,0,0,0,0,0,0,0,-1,573,1464,0,0
-644,-440,0,0,0,0,0,0,0,0,0,-1,580,1464,0,0
-637,-440,0,0,0,0,0,0,0,0,0,-1,587,1464,0,0
-630,-440,0,0,0,0,0,0,0,0,0,-1,594,1464,0,0
-623,-440,0,0,0,0,0,0,0,0,0,-1,601,1464,0,0
-616,-440,0,0,0,0,0,0,0,0,0,-1,608,1464,0,0
-609,-440,0,0,0,0,0,0,0,0,0,-1,615,1464,0,0
-602,-440,0,0,0,0,0,0,0,0,0,-1,622,1464,0,0
-595,-440,0,0,0,0,0,0,0,0,0,-1,629,1464,0,0
-588,-440,0,0,0,0,0,0,0,0,0,-1,636,1464,0,0
-581,-440,0.702759,0.595825,0.0204433,0.0259806,0.00904325,0.0326695,0.0137544,0.933945,0.01894,0.0489826,643,1464,0.702765,-0.595798
-574,-440,0.703796,0.374023,0.0227789,0.0208561,0.0102942,0.0321565,0.0114785,0.738838,0.0188171,0.044242,650,1464,0.703777,-0.374006
-567,-440,0.713379,0.100464,0.0238632,0.0171032,0.011336,0.0323124,0.00865404,0.640512,0.0193144,0.0448442,657,1464,0.713359,-0.100445
-560,-440,0.520386,0.30481,0.0239145,0.0139024,0.0119481,0.0318629,0.00595406,0.587015,0.0195616,0.0456845,664,1464,0.520404,-0.304818
-553,-440,0.856018,-0.448608,0,0,0,0,0,0,0,-1,671,1464,0.856006,0.448559
-546,-440,0.570007,-0.230957,0.0210909,0.00886459,0.0115236,0.0280224,0.00193309,0.541527,0.0180718,0.0441793,678,1464,0.569994,0.230965
-539,-440,0.500183,1.40503,0.018705,0.00694455,0.0106836,0.0250197,0.000629872,0.533824,0.0164738,0.0425982,685,1464,0.500178,-1.40502
-532,-440,0.609009,1.06897,0.0159767,0.00524675,0.00945295,0.021481,-0.000257561,0.527292,0.0144073,0.0323469,692,1464,0.609027,-1.06893
-525,-440,0.619385,1.14282,0.0134262,0.00385288,0.00814094,0.0180834,-0.000804341,0.519633,0.0123325,0.0138204,699,1464,0.619389,-1.14283
-518,-440,0.625305,1.18188,0.0109949,0.00263914,0.00692604,0.0149056,-0.00127152,0.514008,0.0103869,0.0118739,706,1464,0.625334,-1.18186
-511,-440,0.64801,1.24084,0.00859122,0.00169582,0.00547496,0.0116136,-0.00132655,0.504405,0.00822033,0.0136236,713,1464,0.648038,-1.24089
-504,-440,0.649292,1.27893,0.00618535,0.000721801,0.00409778,0.00837845,-0.0014713,0.491403,0.00613516,0.017235,720,1464,0.649311,-1.27899
-497,-440,0.630127,1.26917,0.00351498,0.000254369,0.00266477,0.0050086,-0.00123925,0.510873,0.00381975,0.0209794,727,1464,0.630101,-1.26919
-490,-440,0.616577,1.26599,0.00178573,-0.000547516,0.000754716,0.00200857,-0.000770356,0.287105,0.00165665,0.0213578,734,1464,0.616604,-1.26601
-483,-440,0.626465,1.36023,0.00109973,-0.00074276,-0.000905443,0.0014702,-0.00111323,-0.388374,0.00149628,0.0188416,741,1464,0.626464,-1.36023
-476,-440,0.640808,1.44055,0.00147838,-0.00154022,-0.00236726,0.00277655,-0.0028384,-0.501604,0.00324186,0.0128169,748,1464,0.640815,-1.4405
-469,-440,0.64679,1.47913,0.00298988,-0.00255763,-0.00408207,0.00515141,-0.00471916,-0.486982,0.0057006,0.0120862,755,1464,0.646815,-1.47918
-462,-440,0.660217,1.51782,0.00541928,-0.00338332,-0.00527617,0.0078889,-0.00585293,-0.437778,0.00796282,0.0127535,762,1464,0.660209,-1.51785
-455,-440,0.653992,1.57837,0.00831997,-0.00410588,-0.00631051,0.0109627,-0.00674862,-0.396595,0.0103217,0.0125148,769,1464,0.653998,-1.57835
-448,-440,0.638428,1.54968,0.0118958,-0.00525787,-0.00719962,0.014517,-0.00787911,-0.349162,0.0131183,0.0196031,776,1464,0.638454,-1.54966
-441,-440,0.535034,1.30725,0.0165038,-0.00642855,-0.00807185,0.01906,-0.00898478,-0.306693,0.0165363,0.0341439,783,1464,0.535053,-1.30721
-434,-440,0.531799,0.992065,0.0218005,-0.00775888,-0.00860628,0.0241237,-0.010082,-0.263653,0.0202958,0.0433542,790,1464,0.531774,-0.992047
-427,-440,0.592102,0.854492,0.0275457,-0.00915944,-0.00855279,0.0294408,-0.0110545,-0.218051,0.0241699,0.0437398,797,1464,0.592118,-0.854517
-420,-440,1.03284,0.720337,0.0338287,-0.0106858,-0.00786062,0.035176,-0.0120331,-0.169749,0.0283268,0.0444379,804,1464,1.03285,-0.720287
-413,-440,1.53766,0.762817,0.0402251,-0.012346,-0.00634424,0.0409798,-0.0131008,-0.118415,0.0325771,0.0435982,811,1464,1.53764,-0.762848
-406,-440,1.42572,0.706909,0.0464147,-0.0141431,-0.00392928,0.0466686,-0.014397,-0.0645242,0.0368608,0.043448,818,1464,1.42569,-0.706948
-399,-440,1.51086,0.875366,0.0518101,-0.0160492,-0.000493128,0.0518137,-0.0160528,-0.00726641,0.0409559,0.0427769,825,1464,1.51088,-0.875391
-392,-440,1.70416,0.881348,0.0555911,-0.018113,0.00368977,0.0557753,-0.0182973,0.0498956,0.0445532,0.0481157,832,1464,1.70414,-0.881357
-385,-440,2.23303,0.941284,0,0,0,0,0,0,0,-1,839,1464,2.23304,-0.941225
-378,-440,2.87823,0.904297,0,0,0,0,0,0,0,-1,846,1464,2.87825,-0.904315
-371,-440,0,0,0,0,0,0,0,0,0,-1,853,1464,0,0
-364,-440,0,0,0,0,0,0,0,0,0,-1,860,1464,0,0
-357,-440,0,0,0,0,0,0,0,0,0,-1,867,1464,0,0
-350,-440,0,0,0,0,0,0,0,0,0,-1,874,1464,0,0
-343,-440,0,0,0,0,0,0,0,0,0,-1,881,1464,0,0
-336,-440,0,0,0,0,0,0,0,0,0,-1,888,1464,0,0
-329,-440,0,0,0,0,0,0,0,0,0,-1,895,1464,0,0
-322,-440,0,0,0,0,0,0,0,0,0,-1,902,1464,0,0
-315,-440,0,0,0,0,0,0,0,0,0,-1,909,1464,0,0
-308,-440,0,0,0,0,0,0,0,0,0,-1,916,1464,0,0
-301,-440,0,0,0,0,0,0,0,0,0,-1,923,1464,0,0
-294,-440,0,0,0,0,0,0,0,0,0,-1,930,1464,0,0
-287,-440,0,0,0,0,0,0,0,0,0,-1,937,1464,0,0
-280,-440,0,0,0,0,0,0,0,0,0,-1,944,1464,0,0
-273,-440,0,0,0,0,0,0,0,0,0,-1,951,1464,0,0
-266,-440,0,0,0,0,0,0,0,0,0,-1,958,1464,0,0
-259,-440,0,0,0,0,0,0,0,0,0,-1,965,1464,0,0
-252,-440,0,0,0,0,0,0,0,0,0,-1,972,1464,0,0
-245,-440,0,0,0,0,0,0,0,0,0,-1,979,1464,0,0
-238,-440,0,0,0,0,0,0,0,0,0,-1,986,1464,0,0
-231,-440,0,0,0,0,0,0,0,0,0,-1,993,1464,0,0
-224,-440,0,0,0,0,0,0,0,0,0,-1,1000,1464,0,0
-217,-440,0,0,0,0,0,0,0,0,0,-1,1007,1464,0,0
-210,-440,0,0,0,0,0,0,0,0,0,-1,1014,1464,0,0
-203,-440,0,0,0,0,0,0,0,0,0,-1,1021,1464,0,0
-196,-440,0,0,0,0,0,0,0,0,0,-1,1028,1464,0,0
-189,-440,0,0,0,0,0,0,0,0,0,-1,1035,1464,0,0
-182,-440,0,0,0,0,0,0,0,0,0,-1,1042,1464,0,0
-175,-440,0,0,0,0,0,0,0,0,0,-1,1049,1464,0,0
-168,-440,0,0,0,0,0,0,0,0,0,-1,1056,1464,0,0
-161,-440,0,0,0,0,0,0,0,0,0,-1,1063,1464,0,0
-154,-440,0,0,0,0,0,0,0,0,0,-1,1070,1464,0,0
-147,-440,0,0,0,0,0,0,0,0,0,-1,1077,1464,0,0
-140,-440,0,0,0,0,0,0,0,0,0,-1,1084,1464,0,0
-133,-440,0,0,0,0,0,0,0,0,0,-1,1091,1464,0,0
-126,-440,0,0,0,0,0,0,0,0,0,-1,1098,1464,0,0
-119,-440,0,0,0,0,0,0,0,0,0,-1,1105,1464,0,0
-112,-440,0,0,0,0,0,0,0,0,0,-1,1112,1464,0,0
-105,-440,0,0,0,0,0,0,0,0,0,-1,1119,1464,0,0
-98,-440,0,0,0,0,0,0,0,0,0,-1,1126,1464,0,0
-91,-440,0,0,0,0,0,0,0,0,0,-1,1133,1464,0,0
-84,-440,0,0,0,0,0,0,0,0,0,-1,1140,1464,0,0
-77,-440,0,0,0,0,0,0,0,0,0,-1,1147,1464,0,0
-70,-440,0,0,0,0,0,0,0,0,0,-1,1154,1464,0,0
-63,-440,0,0,0,0,0,0,0,0,0,-1,1161,1464,0,0
-56,-440,0,0,0,0,0,0,0,0,0,-1,1168,1464,0,0
-49,-440,0,0,0,0,0,0,0,0,0,-1,1175,1464,0,0
-42,-440,0,0,0,0,0,0,0,0,0,-1,1182,1464,0,0
-35,-440,0,0,0,0,0,0,0,0,0,-1,1189,1464,0,0
-28,-440,0,0,0,0,0,0,0,0,0,-1,1196,1464,0,0
-21,-440,0,0,0,0,0,0,0,0,0,-1,1203,1464,0,0
-14,-440,0,0,0,0,0,0,0,0,0,-1,1210,1464,0,0
-7,-440,0,0,0,0,0,0,0,0,0,-1,1217,1464,0,0
0,-440,0,0,0,0,0,0,0,0,0,-1,1224,1464,0,0
7,-440,0,0,0,0,0,0,0,0,0,-1,1231,1464,0,0
14,-440,0,0,0,0,0,0,0,0,0,-1,1238,1464,0,0
21,-440,0,0,0,0,0,0,0,0,0,-1,1245,1464,0,0
28,-440,0,0,0,0,0,0,0,0,0,-1,1252,1464,0,0
35,-440,0,0,0,0,0,0,0,0,0,-1,1259,1464,0,0
42,-440,0,0,0,0,0,0,0,0,0,-1,1266,1464,0,0
49,-440,0,0,0,0,0,0,0,0,0,-1,1273,1464,0,0
56,-440,0,0,0,0,0,0,0,0,0,-1,1280,1464,0,0
63,-440,0,0,0,0,0,0,0,0,0,-1,1287,1464,0,0
70,-440,0,0,0,0,0,0,0,0,0,-1,1294,1464,0,0
77,-440,0,0,0,0,0,0,0,0,0,-1,1301,1464,0,0
84,-440,0,0,0,0,0,0,0,0,0,-1,1308,1464,0,0
91,-440,0,0,0,0,0,0,0,0,0,-1,1315,1464,0,0
98,-440,0,0,0,0,0,0,0,0,0,-1,1322,1464,0,0
105,-440,0,0,0,0,0,0,0,0,0,-1,1329,1464,0,0
112,-440,0,0,0,0,0,0,0,0,0,-1,1336,1464,0,0
119,-440,0,0,0,0,0,0,0,0,0,-1,1343,1464,0,0
126,-440,0,0,0,0,0,0,0,0,0,-1,1350,1464,0,0
133,-440,0,0,0,0,0,0,0,0,0,-1,1357,1464,0,0
140,-440,0,0,0,0,0,0,0,0,0,-1,1364,1464,0,0
147,-440,0,0,0,0,0,0,0,0,0,-1,1371,1464,0,0
154,-440,0,0,0,0,0,0,0,0,0,-1,1378,1464,0,0
161,-440,0,0,0,0,0,0,0,0,0,-1,1385,1464,0,0
168,-440,0,0,0,0,0,0,0,0,0,-1,1392,1464,0,0
175,-440,0,0,0,0,0,0,0,0,0,-1,1399,1464,0,0
182,-440,0,0,0,0,0,0,0,0,0,-1,1406,1464,0,0
189,-440,0,0,0,0,0,0,0,0,0,-1,1413,1464,0,0
196,-440,0,0,0,0,0,0,0,0,0,-1,1420,1464,0,0
203,-440,0,0,0,0,0,0,0,0,0,-1,1427,1464,0,0
210,-440,0,0,0,0,0,0,0,0,0,-1,1434,1464,0,0
217,-440,0,0,0,0,0,0,0,0,0,-1,1441,1464,0,0
224,-440,0,0,0,0,0,0,0,0,0,-1,1448,1464,0,0
231,-440,0,0,0,0,0,0,0,0,0,-1,1455,1464,0,0
238,-440,0,0,0,0,0,0,0,0,0,-1,1462,1464,0,0
245,-440,0,0,0,0,0,0,0,0,0,-1,1469,1464,0,0
252,-440,0,0,0,0,0,0,0,0,0,-1,1476,1464,0,0
259,-440,0,0,0,0,0,0,0,0,0,-1,1483,1464,0,0
266,-440,0,0,0,0,0,0,0,0,0,-1,1490,1464,0,0
273,-440,0,0,0,0,0,0,0,0,0,-1,1497,1464,0,0
280,-440,0,0,0,0,0,0,0,0,0,-1,1504,1464,0,0
287,-440,0,0,0,0,0,0,0,0,0,-1,1511,1464,0,0
294,-440,0,0,0,0,0,0,0,0,0,-1,1518,1464,0,0
301,-440,0,0,0,0,0,0,0,0,0,-1,1525,1464,0,0
308,-440,0,0,0,0,0,0,0,0,0,-1,1532,1464,0,0
315,-440,0,0,0,0,0,0,0,0,0,-1,1539,1464,0,0
322,-440,0,0,0,0,0,0,0,0,0,-1,1546,1464,0,0
329,-440,0,0,0,0,0,0,0,0,0,-1,1553,1464,0,0
336,-440,0,0,0,0,0,0,0,0,0,-1,1560,1464,0,0
343,-440,0,0,0,0,0,0,0,0,0,-1,1567,1464,0,0
350,-440,0,0,0,0,0,0,0,0,0,-1,1574,1464,0,0
357,-440,0,0,0,0,0,0,0,0,0,-1,1581,1464,0,0
364,-440,0,0,0,0,0,0,0,0,0,-1,1588,1464,0,0
371,-440,0,0,0,0,0,0,0,0,0,-1,1595,1464,0,0
378,-440,0,0,0,0,0,0,0,0,0,-1,1602,1464,0,0
385,-440,0,0,0,0,0,0,0,0,0,-1,1609,1464,0,0
392,-440,0,0,0,0,0,0,0,0,0,-1,1616,1464,0,0
399,-440,0,0,0,0,0,0,0,0,0,-1,1623,1464,0,0
406,-440,0,0,0,0,0,0,0,0,0,-1,1630,1464,0,0
413,-440,0,0,0,0,0,0,0,0,0,-1,1637,1464,0,0
420,-440,0,0,0,0,0,0,0,0,0,-1,1644,1464,0,0
427,-440,0,0,0,0,0,0,0,0,0,-1,1651,1464,0,0
434,-440,0,0,0,0,0,0,0,0,0,-1,1658,1464,0,0
441,-440,0,0,0,0,0,0,0,0,0,-1,1665,1464,0,0
448,-440,0,0,0,0,0,0,0,0,0,-1,1672,1464,0,0
455,-440,0,0,0,0,0,0,0,0,0,-1,1679,1464,0,0
462,-440,0,0,0,0,0,0,0,0,0,-1,1686,1464,0,0
469,-440,0,0,0,0,0,0,0,0,0,-1,1693,1464,0,0
476,-440,0,0,0,0,0,0,0,0,0,-1,1700,1464,0,0
483,-440,0,0,0,0,0,0,0,0,0,-1,1707,1464,0,0
490,-440,0,0,0,0,0,0,0,0,0,-1,1714,1464,0,0
497,-440,4.37427,0.421143,0,0,0,0,0,0,0,-1,1721,1464,4.37423,-0.421176
504,-440,3.33154,0.568481,0,0,0,0,0,0,0,-1,1728,1464,3.33153,-0.568446
511,-440,3.75867,0.155762,0,0,0,0,0,0,0,-1,1735,1464,3.75866,-0.15581
518,-440,3.71729,0.411011,0,0,0,0,0,0,0,-1,1742,1464,3.71728,-0.410973
525,-440,3.89514,0.538696,0,0,0,0,0,0,0,-1,1749,1464,3.89514,-0.538727
532,-440,3.53223,0.626709,0,0,0,0,0,0,0,-1,1756,1464,3.5322,-0.626682
539,-440,2.18896,0.906006,0,0,0,0,0,0,0,-1,1763,1464,2.18891,-0.906016
546,-440,2.47937,0.743164,0,0,0,0,0,0,0,-1,1770,1464,2.47941,-0.743127
553,-440,2.7699,0.5802,0,0,0,0,0,0,0,-1,1777,1464,2.76992,-0.580237
560,-440,3.99194,1.5575,-0.0145694,0.0400701,0.0224457,0.0481082,-0.0226075,1.22691,0.0417032,0.0432092,1784,1464,3.99189,-1.55751
567,-440,3.68481,1.64929,-0.0134771,0.0292943,0.0182555,0.0360264,-0.0202092,1.2175,0.032893,0.0449058,1791,1464,3.68483,-1.64924
574,-440,3.53625,1.62109,-0.0120907,0.0202567,0.0144851,0.025795,-0.017629,1.20561,0.0252181,0.0440273,1798,1464,3.53628,-1.62106
581,-440,3.41211,1.62988,-0.0106315,0.0132528,0.0113963,0.0178179,-0.0151966,1.18979,0.019081,0.0293655,1805,1464,3.41207,-1.62989
588,-440,3.39172,1.61255,-0.00896221,0.00771664,0.00836047,0.0111858,-0.0124314,1.17747,0.0136417,0.0198187,1812,1464,3.39168,-1.61259
595,-440,3.40686,1.57739,-0.00709704,0.00302685,0.00569385,0.00558351,-0.0096537,1.14876,0.00890121,0.0178379,1819,1464,3.40682,-1.57745
602,-440,3.3949,1.49878,-0.00532134,0.000133635,0.00376706,0.00205694,-0.00724465,1.09874,0.00564182,0.0178263,1826,1464,3.39485,-1.49872
609,-440,3.4071,1.46753,-0.0043918,-0.000151014,0.00289218,0.00131478,-0.0058576,1.10171,0.00440916,0.0160836,1833,1464,3.40705,-1.4675
616,-440,3.41724,1.47546,-0.00335541,-0.000844744,0.00211775,0.000361778,-0.00456194,1.05294,0.00316877,0.0171195,1840,1464,3.41718,-1.47551
623,-440,3.41309,1.41663,-0.00249245,-0.00109612,0.00172851,6.9893e-05,-0.00365846,0.977335,0.0024626,0.0124175,1847,1464,3.41304,-1.41663
630,-440,3.39063,1.35608,-0.00189085,-0.000867306,0.00178673,0.000479496,-0.00323766,0.924879,0.00233474,0.0101133,1854,1464,3.39057,-1.35606
637,-440,3.4071,1.32739,-0.00158498,-0.00099348,0.00224235,0.000972545,-0.003551,0.850966,0.00274946,0.0132804,1861,1464,3.40709,-1.3274
644,-440,3.42896,1.30396,-0.00107359,-0.00111114,0.00302933,0.00193702,-0.00412175,0.782299,0.00357303,0.0133893,1868,1464,3.42901,-1.30395
651,-440,3.41956,1.26941,2.70074e-06,-0.000144412,0.00382913,0.00375898,-0.00390069,0.775795,0.00442256,0.0110639,1875,1464,3.41953,-1.26945
658,-440,3.3938,1.20276,0.00118883,-6.74464e-05,0.00397722,0.00458721,-0.00346583,0.707078,0.00466442,0.0129592,1882,1464,3.39385,-1.20278
665,-440,3.34766,1.15967,0.00487806,0.000652404,0.00440198,0.007648,-0.00211754,0.561649,0.00593187,0.0273976,1889,1464,3.3477,-1.15961
672,-440,3.21106,1.14722,0.0100044,0.00443019,0.00573657,0.0135951,0.000839502,0.559267,0.00879691,0.0419433,1896,1464,3.21111,-1.1472
679,-440,3.26843,1.4657,0.0161199,0.00759588,0.00584804,0.0190942,0.00462156,0.470504,0.0115027,0.0443364,1903,1464,3.26843,-1.46568
686,-440,3.40967,1.77673,0.0247098,0.0127686,0.00536224,0.0267642,0.0107141,0.365884,0.0155544,0.0437206,1910,1464,3.40963,-1.77678
693,-440,3.70593,1.87061,0.0358179,0.0201145,0.0039742,0.0367664,0.019166,0.23428,0.0212335,0.0476875,1917,1464,3.70597,-1.87061
700,-440,4.15112,1.83289,0.0495631,0.0300656,0.0015578,0.0496868,0.0299419,0.0792276,0.0288873,0.0489323,1924,1464,4.15111,-1.83292
707,-440,0,0,0,0,0,0,0,0,0,-1,1931,1464,0,0
714,-440,0,0,0,0,0,0,0,0,0,-1,1938,1464,0,0
721,-440,0,0,0,0,0,0,0,0,0,-1,1945,1464,0,0
728,-440,0,0,0,0,0,0,0,0,0,-1,1952,1464,0,0
735,-440,0,0,0,0,0,0,0,0,0,-1,1959,1464,0,0
742,-440,0,0,0,0,0,0,0,0,0,-1,1966,1464,0,0
749,-440,0,0,0,0,0,0,0,0,0,-1,1973,1464,0,0
756,-440,0,0,0,0,0,0,0,0,0,-1,1980,1464,0,0
763,-440,0,0,0,0,0,0,0,0,0,-1,1987,1464,0,0
770,-440,0,0,0,0,0,0,0,0,0,-1,1994,1464,0,0
777,-440,0,0,0,0,0,0,0,0,0,-1,2001,1464,0,0
784,-440,0,0,0,0,0,0,0,0,0,-1,2008,1464,0,0
791,-440,0,0,0,0,0,0,0,0,0,-1,2015,1464,0,0
798,-440,0,0,0,0,0,0,0,0,0,-1,2022,1464,0,0
805,-440,0,0,0,0,0,0,0,0,0,-1,2029,1464,0,0
812,-440,0,0,0,0,0,0,0,0,0,-1,2036,1464,0,0
-700,-447,0,0,0,0,0,0,0,0,0,-1,524,1471,0,0
-693,-447,0,0,0,0,0,0,0,0,0,-1,531,1471,0,0
-686,-447,0,0,0,0,0,0,0,0,0,-1,538,1471,0,0
-679,-447,0,0,0,0,0,0,0,0,0,-1,545,1471,0,0
-672,-447,0,0,0,0,0,0,0,0,0,-1,552,1471,0,0
-665,-447,0,0,0,0,0,0,0,0,0,-1,559,1471,0,0
-658,-447,0,0,0,0,0,0,0,0,0,-1,566,1471,0,0
-651,-447,0,0,0,0,0,0,0,0,0,-1,573,1471,0,0
-644,-447,0,0,0,0,0,0,0,0,0,-1,580,1471,0,0
-637,-447,0,0,0,0,0,0,0,0,0,-1,587,1471,0,0
-630,-447,0,0,0,0,0,0,0,0,0,-1,594,1471,0,0
-623,-447,0,0,0,0,0,0,0,0,0,-1,601,1471,0,0
-616,-447,0,0,0,0,0,0,0,0,0,-1,608,1471,0,0
-609,-447,0,0,0,0,0,0,0,0,0,-1,615,1471,0,0
-602,-447,0,0,0,0,0,0,0,0,0,-1,622,1471,0,0
-595,-447,0,0,0,0,0,0,0,0,0,-1,629,1471,0,0
-588,-447,0,0,0,0,0,0,0,0,0,-1,636,1471,0,0
-581,-447,0.543884,0.0567627,0.0212017,0.0276687,0.00860781,0.0336303,0.0152401,0.965066,0.0194448,0.0496369,643,1471,0.543901,-0.0567769
-574,-447,0.631165,0.0147705,0.025975,0.021044,0.0104018,0.0341994,0.0128195,0.669032,0.0199502,0.0445883,650,1471,0.631142,-0.0148124
-567,-447,0.702759,-0.296631,0.0285516,0.0167228,0.0119547,0.0359749,0.00929947,0.555684,0.0215626,0.0435665,657,1471,0.70278,0.296609
-560,-447,0.261475,0.756104,0.0294229,0.013294,0.012968,0.0366295,0.0060874,0.507225,0.0226647,0.0426506,664,1471,0.261477,-0.756061
-553,-447,1.19824,-0.666748,0.0286978,0.0105357,0.0132122,0.0356488,0.00358461,0.484315,0.0226657,0.0440095,671,1471,1.19824,0.666755
-546,-447,0.743713,-0.736084,0,0,0,0,0,0,0,-1,678,1471,0.743741,0.736038
-539,-447,0.530884,0.586182,0,0,0,0,0,0,0,-1,685,1471,0.530869,-0.586212
-532,-447,0.601746,0.855225,0.020783,0.00496376,0.0106546,0.026143,-0.000396239,0.4661,0.0175622,0.0416433,692,1471,0.601727,-0.855278
-525,-447,0.674072,1.14233,0.0176227,0.00360229,0.00926104,0.0222276,-0.00100257,0.461429,0.0151636,0.0259939,699,1471,0.674043,-1.14233
-518,-447,0.688293,1.16602,0.0145472,0.00247694,0.00792874,0.0184764,-0.00145225,0.460092,0.0128291,0.014829,706,1471,0.688269,-1.16598
-511,-447,0.687256,1.21948,0.0114979,0.00160222,0.0063154,0.0145728,-0.00147275,0.453113,0.0102415,0.0141809,713,1471,0.687272,-1.21949
-504,-447,0.662964,1.28198,0.00846482,0.000649956,0.00479402,0.0107421,-0.00162732,0.443469,0.00776092,0.0192257,720,1471,0.662953,-1.28202
-497,-447,0.626404,1.29309,0.00520219,0.000345212,0.00327876,0.00685388,-0.00130648,0.466646,0.00506127,0.0237124,727,1471,0.626375,-1.29313
-490,-447,0.609009,1.27905,0.00297904,-0.000396751,0.00124683,0.00338962,-0.000807327,0.318112,0.00257145,0.0228897,734,1471,0.609007,-1.27901
-483,-447,0.66095,1.3562,0.00187037,-0.000697584,-0.000410718,0.00193446,-0.000761675,-0.154797,0.00160495,0.0198674,741,1471,0.660945,-1.35621
-476,-447,0.67041,1.43787,0.00189114,-0.00164008,-0.00177906,0.00263201,-0.00238095,-0.394597,0.00289544,0.0143796,748,1471,0.670438,-1.43782
-469,-447,0.673584,1.47913,0.00302447,-0.0027316,-0.00336861,0.00457708,-0.00428421,-0.431886,0.005117,0.0135638,755,1471,0.673601,-1.47914
-462,-447,0.69873,1.521,0.0049058,-0.00365425,-0.00441603,0.00677557,-0.00552402,-0.400518,0.00711342,0.0127195,762,1471,0.698757,-1.52096
-455,-447,0.666504,1.57898,0.00726421,-0.00448421,-0.00526924,0.00928121,-0.00650121,-0.365581,0.00915899,0.0113991,769,1471,0.666489,-1.57895
-448,-447,0.668884,1.59607,0.0103009,-0.00574585,-0.00595343,0.0122684,-0.00771336,-0.319184,0.011636,0.0138763,776,1471,0.668893,-1.59606
-441,-447,0.661499,1.59924,0.0142239,-0.00707617,-0.00662505,0.0161164,-0.00896865,-0.278244,0.0146775,0.0254651,783,1471,0.66147,-1.59925
-434,-447,0.857361,1.34595,0.0187249,-0.00864277,-0.00695385,0.0203905,-0.0103083,-0.235085,0.0180398,0.037246,790,1471,0.857341,-1.34597
-427,-447,0.911133,1.1416,0.0235413,-0.0102514,-0.00673829,0.0248353,-0.0115455,-0.189736,0.0214665,0.0405974,797,1471,0.911132,-1.14162
-420,-447,0.864441,0.913818,0.0288269,-0.0119426,-0.00601346,0.0296954,-0.0128111,-0.14343,0.0251782,0.0426377,804,1471,0.864465,-0.913798
-413,-447,0.890381,0.871704,0.0343334,-0.0137066,-0.00460271,0.0347704,-0.0141437,-0.0946625,0.0290655,0.0469984,811,1471,0.890405,-0.871699
-406,-447,1.12103,0.956787,0.0397385,-0.0155085,-0.00246085,0.0398479,-0.0156179,-0.0444254,0.033026,0.0457995,818,1471,1.12103,-0.956792
-399,-447,1.37701,1.0802,0.0449041,-0.0172899,0.000679229,0.0449115,-0.0172973,0.0109194,0.037077,0.0428918,825,1471,1.37704,-1.0802
-392,-447,1.69556,1.03833,0.0490227,-0.0190723,0.00440875,0.049307,-0.0193566,0.0643858,0.0408807,0.046976,832,1471,1.69556,-1.03835
-385,-447,2.08313,0.965088,0,0,0,0,0,0,0,-1,839,1471,2.08311,-0.965027
-378,-447,0.631287,-0.126099,0,0,0,0,0,0,0,-1,846,1471,0.631309,0.126129
-371,-447,-2.38446,0.689819,0,0,0,0,0,0,0,-1,853,1471,-2.38445,-0.689805
-364,-447,0,0,0,0,0,0,0,0,0,-1,860,1471,0,0
-357,-447,0,0,0,0,0,0,0,0,0,-1,867,1471,0,0
-350,-447,0,0,0,0,0,0,0,0,0,-1,874,1471,0,0
-343,-447,0,0,0,0,0,0,0,0,0,-1,881,1471,0,0
-336,-447,0,0,0,0,0,0,0,0,0,-1,888,1471,0,0
-329,-447,0,0,0,0,0,0,0,0,0,-1,895,1471,0,0
-322,-447,0,0,0,0,0,0,0,0,0,-1,902,1471,0,0
-315,-447,0,0,0,0,0,0,0,0,0,-1,909,1471,0,0
-308,-447,0,0,0,0,0,0,0,0,0,-1,916,1471,0,0
-301,-447,0,0,0,0,0,0,0,0,0,-1,923,1471,0,0
-294,-447,0,0,0,0,0,0,0,0,0,-1,930,1471,0,0
-287,-447,0,0,0,0,0,0,0,0,0,-1,937,1471,0,0
-280,-447,0,0,0,0,0,0,0,0,0,-1,944,1471,0,0
-273,-447,0,0,0,0,0,0,0,0,0,-1,951,1471,0,0
-266,-447,0,0,0,0,0,0,0,0,0,-1,958,1471,0,0
-259,-447,0,0,0,0,0,0,0,0,0,-1,965,1471,0,0
-252,-447,0,0,0,0,0,0,0,0,0,-1,972,1471,0,0
-245,-447,0,0,0,0,0,0,0,0,0,-1,979,1471,0,0
-238,-447,0,0,0,0,0,0,0,0,0,-1,986,1471,0,0
-231,-447,0,0,0,0,0,0,0,0,0,-1,993,1471,0,0
-224,-447,0,0,0,0,0,0,0,0,0,-1,1000,1471,0,0
-217,-447,0,0,0,0,0,0,0,0,0,-1,1007,1471,0,0
-210,-447,0,0,0,0,0,0,0,0,0,-1,1014,1471,0,0
-203,-447,0,0,0,0,0,0,0,0,0,-1,1021,1471,0,0
-196,-447,0,0,0,0,0,0,0,0,0,-1,1028,1471,0,0
-189,-447,0,0,0,0,0,0,0,0,0,-1,1035,1471,0,0
-182,-447,0,0,0,0,0,0,0,0,0,-1,1042,1471,0,0
-175,-447,0,0,0,0,0,0,0,0,0,-1,1049,1471,0,0
-168,-447,0,0,0,0,0,0,0,0,0,-1,1056,1471,0,0
-161,-447,0,0,0,0,0,0,0,0,0,-1,1063,1471,0,0
-154,-447,0,0,0,0,0,0,0,0,0,-1,1070,1471,0,0
-147,-447,0,0,0,0,0,0,0,0,0,-1,1077,1471,0,0
-140,-447,0,0,0,0,0,0,0,0,0,-1,1084,1471,0,0
-133,-447,0,0,0,0,0,0,0,0,0,-1,1091,1471,0,0
-126,-447,0,0,0,0,0,0,0,0,0,-1,1098,1471,0,0
-119,-447,0,0,0,0,0,0,0,0,0,-1,1105,1471,0,0
-112,-447,0,0,0,0,0,0,0,0,0,-1,1112,1471,0,0
-105,-447,0,0,0,0,0,0,0,0,0,-1,1119,1471,0,0
-98,-447,0,0,0,0,0,0,0,0,0,-1,1126,1471,0,0
-91,-447,0,0,0,0,0,0,0,0,0,-1,1133,1471,0,0
-84,-447,0,0,0,0,0,0,0,0,0,-1,1140,1471,0,0
-77,-447,0,0,0,0,0,0,0,0,0,-1,1147,1471,0,0
-70,-447,0,0,0,0,0,0,0,0,0,-1,1154,1471,0,0
-63,-447,0,0,0,0,0,0,0,0,0,-1,1161,1471,0,0
-56,-447,0,0,0,0,0,0,0,0,0,-1,1168,1471,0,0
-49,-447,0,0,0,0,0,0,0,0,0,-1,1175,1471,0,0
-42,-447,0,0,0,0,0,0,0,0,0,-1,1182,1471,0,0
-35,-447,0,0,0,0,0,0,0,0,0,-1,1189,1471,0,0
-28,-447,0,0,0,0,0,0,0,0,0,-1,1196,1471,0,0
-21,-447,0,0,0,0,0,0,0,0,0,-1,1203,1471,0,0
-14,-447,0,0,0,0,0,0,0,0,0,-1,1210,1471,0,0
-7,-447,0,0,0,0,0,0,0,0,0,-1,1217,1471,0,0
0,-447,0,0,0,0,0,0,0,0,0,-1,1224,1471,0,0
7,-447,0,0,0,0,0,0,0,0,0,-1,1231,1471,0,0
14,-447,0,0,0,0,0,0,0,0,0,-1,1238,1471,0,0
21,-447,0,0,0,0,0,0,0,0,0,-1,1245,1471,0,0
28,-447,0,0,0,0,0,0,0,0,0,-1,1252,1471,0,0
35,-447,0,0,0,0,0,0,0,0,0,-1,1259,1471,0,0
42,-447,0,0,0,0,0,0,0,0,0,-1,1266,1471,0,0
49,-447,0,0,0,0,0,0,0,0,0,-1,1273,1471,0,0
56,-447,0,0,0,0,0,0,0,0,0,-1,1280,1471,0,0
63,-447,0,0,0,0,0,0,0,0,0,-1,1287,1471,0,0
70,-447,0,0,0,0,0,0,0,0,0,-1,1294,1471,0,0
77,-447,0,0,0,0,0,0,0,0,0,-1,1301,1471,0,0
84,-447,0,0,0,0,0,0,0,0,0,-1,1308,1471,0,0
91,-447,0,0,0,0,0,0,0,0,0,-1,1315,1471,0,0
98,-447,0,0,0,0,0,0,0,0,0,-1,1322,1471,0,0
105,-447,0,0,0,0,0,0,0,0,0,-1,1329,1471,0,0
112,-447,0,0,0,0,0,0,0,0,0,-1,1336,1471,0,0
119,-447,0,0,0,0,0,0,0,0,0,-1,1343,1471,0,0
126,-447,0,0,0,0,0,0,0,0,0,-1,1350,1471,0,0
133,-447,0,0,0,0,0,0,0,0,0,-1,1357,1471,0,0
140,-447,0,0,0,0,0,0,0,0,0,-1,1364,1471,0,0
147,-447,0,0,0,0,0,0,0,0,0,-1,1371,1471,0,0
154,-447,0,0,0,0,0,0,0,0,0,-1,1378,1471,0,0
161,-447,0,0,0,0,0,0,0,0,0,-1,1385,1471,0,0
168,-447,0,0,0,0,0,0,0,0,0,-1,1392,1471,0,0
175,-447,0,0,0,0,0,0,0,0,0,-1,1399,1471,0,0
182,-447,0,0,0,0,0,0,0,0,0,-1,1406,1471,0,0
189,-447,0,0,0,0,0,0,0,0,0,-1,1413,1471,0,0
196,-447,0,0,0,0,0,0,0,0,0,-1,1420,1471,0,0
203,-447,0,0,0,0,0,0,0,0,0,-1,1427,1471,0,0
210,-447,0,0,0,0,0,0,0,0,0,-1,1434,1471,0,0
217,-447,0,0,0,0,0,0,0,0,0,-1,1441,1471,0,0
224,-447,0,0,0,0,0,0,0,0,0,-1,1448,1471,0,0
231,-447,0,0,0,0,0,0,0,0,0,-1,1455,1471,0,0
238,-447,0,0,0,0,0,0,0,0,0,-1,1462,1471,0,0
245,-447,0,0,0,0,0,0,0,0,0,-1,1469,1471,0,0
252,-447,0,0,0,0,0,0,0,0,0,-1,1476,1471,0,0
259,-447,0,0,0,0,0,0,0,0,0,-1,1483,1471,0,0
266,-447,0,0,0,0,0,0,0,0,0,-1,1490,1471,0,0
273,-447,0,0,0,0,0,0,0,0,0,-1,1497,1471,0,0
280,-447,0,0,0,0,0,0,0,0,0,-1,1504,1471,0,0
287,-447,0,0,0,0,0,0,0,0,0,-1,1511,1471,0,0
294,-447,0,0,0,0,0,0,0,0,0,-1,1518,1471,0,0
301,-447,0,0,0,0,0,0,0,0,0,-1,1525,1471,0,0
308,-447,0,0,0,0,0,0,0,0,0,-1,1532,1471,0,0
315,-447,0,0,0,0,0,0,0,0,0,-1,1539,1471,0,0
322,-447,0,0,0,0,0,0,0,0,0,-1,1546,1471,0,0
329,-447,0,0,0,0,0,0,0,0,0,-1,1553,1471,0,0
336,-447,0,0,0,0,0,0,0,0,0,-1,1560,1471,0,0
343,-447,0,0,0,0,0,0,0,0,0,-1,1567,1471,0,0
350,-447,0,0,0,0,0,0,0,0,0,-1,1574,1471,0,0
357,-447,0,0,0,0,0,0,0,0,0,-1,1581,1471,0,0
364,-447,0,0,0,0,0,0,0,0,0,-1,1588,1471,0,0
371,-447,0,0,0,0,0,0,0,0,0,-1,1595,1471,0,0
378,-447,0,0,0,0,0,0,0,0,0,-1,1602,1471,0,0
385,-447,0,0,0,0,0,0,0,0,0,-1,1609,1471,0,0
392,-447,0,0,0,0,0,0,0,0,0,-1,1616,1471,0,0
399,-447,0,0,0,0,0,0,0,0,0,-1,1623,1471,0,0
406,-447,0,0,0,0,0,0,0,0,0,-1,1630,1471,0,0
413,-447,0,0,0,0,0,0,0,0,0,-1,1637,1471,0,0
420,-447,0,0,0,0,0,0,0,0,0,-1,1644,1471,0,0
427,-447,0,0,0,0,0,0,0,0,0,-1,1651,1471,0,0
434,-447,0,0,0,0,0,0,0,0,0,-1,1658,1471,0,0
441,-447,0,0,0,0,0,0,0,0,0,-1,1665,1471,0,0
448,-447,0,0,0,0,0,0,0,0,0,-1,1672,1471,0,0
455,-447,0,0,0,0,0,0,0,0,0,-1,1679,1471,0,0
462,-447,0,0,0,0,0,0,0,0,0,-1,1686,1471,0,0
469,-447,0,0,0,0,0,0,0,0,0,-1,1693,1471,0,0
476,-447,0,0,0,0,0,0,0,0,0,-1,1700,1471,0,0
483,-447,0,0,0,0,0,0,0,0,0,-1,1707,1471,0,0
490,-447,4.6438,0.966919,0,0,0,0,0,0,0,-1,1714,1471,4.64375,-0.966888
497,-447,3.88257,0.737183,0,0,0,0,0,0,0,-1,1721,1471,3.88255,-0.737209
504,-447,3.12341,0.646851,0,0,0,0,0,0,0,-1,1728,1471,3.12335,-0.646857
511,-447,2.41797,0.448608,0,0,0,0,0,0,0,-1,1735,1471,2.41799,-0.448654
518,-447,3.15295,0.402344,0,0,0,0,0,0,0,-1,1742,1471,3.15294,-0.402328
525,-447,1.03821,2.25391,0,0,0,0,0,0,0,-1,1749,1471,1.03821,-2.25393
532,-447,1.20142,2.01221,0,0,0,0,0,0,0,-1,1756,1471,1.20136,-2.01216
539,-447,2.2771,1.22742,0,0,0,0,0,0,0,-1,1763,1471,2.27709,-1.22746
546,-447,2.54517,1.10547,0,0,0,0,0,0,0,-1,1770,1471,2.54517,-1.10542
553,-447,2.72571,1.23682,0,0,0,0,0,0,0,-1,1777,1471,2.72571,-1.23681
560,-447,3.21423,1.69543,0,0,0,0,0,0,0,-1,1784,1471,3.21423,-1.69538
567,-447,3.39722,1.69519,-0.00856713,0.0221149,0.0133481,0.0271091,-0.0135613,1.21277,0.0239113,0.0374638,1791,1471,3.39725,-1.6952
574,-447,3.36658,1.68933,-0.00794833,0.0152007,0.0106484,0.0193538,-0.0121014,1.19892,0.0183209,0.0234574,1798,1471,3.36662,-1.68939
581,-447,3.39429,1.66187,-0.00726385,0.00989807,0.0085029,0.0133973,-0.0107631,1.18038,0.0139767,0.0119132,1805,1471,3.39433,-1.6618
588,-447,3.39502,1.60999,-0.00637785,0.00581325,0.00635536,0.00852374,-0.00908834,1.16767,0.0101701,0.012147,1812,1471,3.39507,-1.60996
595,-447,3.37158,1.55713,-0.00522692,0.00227037,0.00439255,0.0042964,-0.00725295,1.13863,0.00674045,0.0121413,1819,1471,3.37157,-1.55713
602,-447,3.37756,1.48291,-0.00403154,4.06114e-06,0.00299826,0.00160027,-0.00562775,1.08158,0.00438373,0.0109764,1826,1471,3.37755,-1.48294
609,-447,3.37341,1.46167,-0.00353168,-0.000234654,0.00247063,0.00108695,-0.00485328,1.0796,0.00365216,0.0120139,1833,1471,3.37343,-1.46172
616,-447,3.38806,1.44824,-0.00292131,-0.000888421,0.00183401,0.000191981,-0.00400171,1.03844,0.00273405,0.0132996,1840,1471,3.38812,-1.44822
623,-447,3.36633,1.40833,-0.00242238,-0.0011752,0.0015424,-0.000135107,-0.00346248,0.977502,0.00226463,0.0146401,1847,1471,3.36632,-1.40831
630,-447,3.35681,1.36353,-0.00214815,-0.00106101,0.00165509,0.000137486,-0.00334665,0.94406,0.00227831,0.0086122,1854,1471,3.3568,-1.36349
637,-447,3.37476,1.30847,-0.00208567,-0.00129189,0.00212345,0.000471444,-0.003849,0.877786,0.00273672,0.00920765,1861,1471,3.3748,-1.30842
644,-447,3.38281,1.27014,-0.00175147,-0.00146417,0.00286109,0.00125687,-0.00447252,0.810481,0.0034772,0.00999701,1868,1471,3.38275,-1.2701
651,-447,3.37805,1.24854,-0.000802678,-0.000485619,0.00356235,0.00292173,-0.00421003,0.807634,0.00413986,0.0140604,1875,1471,3.37801,-1.24857
658,-447,3.3396,1.2489,0.000348639,-0.000325805,0.00355604,0.00358341,-0.00356058,0.738124,0.00412459,0.0233086,1882,1471,3.33957,-1.24885
665,-447,3.26709,1.19263,0.00378343,0.000561184,0.00377162,0.00627362,-0.00192901,0.583544,0.00495228,0.0421887,1889,1471,3.26714,-1.19261
672,-447,3.19849,1.14441,0,0,0,0,0,0,0,-1,1896,1471,3.19853,-1.14443
679,-447,2.59949,0.869507,0,0,0,0,0,0,0,-1,1903,1471,2.59952,-0.869533
686,-447,2.6825,1.35388,0,0,0,0,0,0,0,-1,1910,1471,2.68253,-1.35385
693,-447,3.6189,1.30237,0,0,0,0,0,0,0,-1,1917,1471,3.61895,-1.30236
700,-447,0,0,0,0,0,0,0,0,0,-1,1924,1471,0,0
707,-447,0,0,0,0,0,0,0,0,0,-1,1931,1471,0,0
714,-447,0,0,0,0,0,0,0,0,0,-1,1938,1471,0,0
721,-447,0,0,0,0,0,0,0,0,0,-1,1945,1471,0,0
728,-447,0,0,0,0,0,0,0,0,0,-1,1952,1471,0,0
735,-447,0,0,0,0,0,0,0,0,0,-1,1959,1471,0,0
742,-447,0,0,0,0,0,0,0,0,0,-1,1966,1471,0,0
749,-447,0,0,0,0,0,0,0,0,0,-1,1973,1471,0,0
756,-447,0,0,0,0,0,0,0,0,0,-1,1980,1471,0,0
763,-447,0,0,0,0,0,0,0,0,0,-1,1987,1471,0,0
770,-447,0,0,0,0,0,0,0,0,0,-1,1994,1471,0,0
777,-447,0,0,0,0,0,0,0,0,0,-1,2001,1471,0,0
784,-447,0,0,0,0,0,0,0,0,0,-1,2008,1471,0,0
791,-447,0,0,0,0,0,0,0,0,0,-1,2015,1471,0,0
798,-447,0,0,0,0,0,0,0,0,0,-1,2022,1471,0,0
805,-447,0,0,0,0,0,0,0,0,0,-1,2029,1471,0,0
812,-447,0,0,0,0,0,0,0,0,0,-1,2036,1471,0,0
-700,-454,0,0,0,0,0,0,0,0,0,-1,524,1478,0,0
-693,-454,0,0,0,0,0,0,0,0,0,-1,531,1478,0,0
-686,-454,0,0,0,0,0,0,0,0,0,-1,538,1478,0,0
-679,-454,0,0,0,0,0,0,0,0,0,-1,545,1478,0,0
-672,-454,0,0,0,0,0,0,0,0,0,-1,552,1478,0,0
-665,-454,0,0,0,0,0,0,0,0,0,-1,559,1478,0,0
-658,-454,0,0,0,0,0,0,0,0,0,-1,566,1478,0,0
-651,-454,0,0,0,0,0,0,0,0,0,-1,573,1478,0,0
-644,-454,0,0,0,0,0,0,0,0,0,-1,580,1478,0,0
-637,-454,0,0,0,0,0,0,0,0,0,-1,587,1478,0,0
-630,-454,0,0,0,0,0,0,0,0,0,-1,594,1478,0,0
-623,-454,0,0,0,0,0,0,0,0,0,-1,601,1478,0,0
-616,-454,0,0,0,0,0,0,0,0,0,-1,608,1478,0,0
-609,-454,0,0,0,0,0,0,0,0,0,-1,615,1478,0,0
-602,-454,0,0,0,0,0,0,0,0,0,-1,622,1478,0,0
-595,-454,0,0,0,0,0,0,0,0,0,-1,629,1478,0,0
-588,-454,0,0,0,0,0,0,0,0,0,-1,636,1478,0,0
-581,-454,0,0,0,0,0,0,0,0,0,-1,643,1478,0,0
-574,-454,0.321472,-0.330444,0.0309857,0.0212208,0.0100036,0.0372348,0.0149717,0.558369,0.0216345,0.0491975,650,1478,0.321452,0.330469
-567,-454,0.425964,-0.520752,0.0348949,0.0168377,0.0120153,0.0408957,0.0108369,0.46319,0.0244651,0.0447912,657,1478,0.425986,0.520757
-560,-454,0.680542,-0.691528,0.0365736,0.0135779,0.0133886,0.0427238,0.00742764,0.430613,0.0263579,0.0456555,664,1478,0.680532,0.691479
-553,-454,0.867432,-0.807739,0.0361596,0.0110897,0.013836,0.0422944,0.00495488,0.417346,0.0266983,0.0474692,671,1478,0.867403,0.80772
-546,-454,1.36945,-0.633057,0.0341327,0.00909267,0.0135673,0.040074,0.00315129,0.412762,0.02573,0.048221,678,1478,1.36944,0.633014
-539,-454,0.40625,0.453979,0,0,0,0,0,0,0,-1,685,1478,0.406229,-0.454022
-532,-454,0.505127,0.759155,0.027067,0.00613399,0.011318,0.0320162,0.00118472,0.412234,0.0209604,0.0444639,692,1478,0.505147,-0.75912
-525,-454,0.641541,0.987427,0.0231399,0.00469515,0.00987499,0.0274293,0.00040577,0.409779,0.0181525,0.0376099,699,1478,0.641547,-0.987485
-518,-454,0.7229,1.17615,0.0192083,0.00352755,0.00847827,0.0229157,-0.000179916,0.412235,0.0153375,0.0215863,706,1478,0.722923,-1.17616
-511,-454,0.71637,1.22437,0.0153225,0.00255128,0.00678579,0.0182548,-0.00038099,0.407885,0.0122988,0.0127925,713,1478,0.71636,-1.22439
-504,-454,0.720398,1.27039,0.0114402,0.00142458,0.00520261,0.0136536,-0.000788774,0.402236,0.00937639,0.0149482,720,1478,0.720418,-1.27036
-497,-454,0.71228,1.30225,0.00737495,0.00111093,0.00366973,0.0090675,-0.000581621,0.432145,0.0062479,0.0185842,727,1478,0.712263,-1.3023
-490,-454,0.699585,1.34351,0.00445455,0.000266937,0.00160416,0.00499842,-0.000276936,0.326877,0.00342832,0.0164878,734,1478,0.699555,-1.34349
-483,-454,0.718506,1.3999,0.00266132,-0.000315053,1.97623e-05,0.00266145,-0.000315184,0.00663935,0.00188815,0.0144735,741,1478,0.718511,-1.39988
-476,-454,0.722229,1.45129,0.00213131,-0.00151063,-0.00122204,0.00250335,-0.00188268,-0.295531,0.00254071,0.0137316,748,1478,0.722225,-1.45134
-469,-454,0.730103,1.48218,0.00271632,-0.00274227,-0.00267483,0.00380852,-0.00383446,-0.38766,0.00441268,0.0105642,755,1478,0.730132,-1.48223
-462,-454,0.723267,1.51514,0.00402566,-0.0037019,-0.00358531,0.00543286,-0.0051091,-0.374016,0.00608736,0.0102006,762,1478,0.723296,-1.51519
-455,-454,0.712341,1.56189,0.00585394,-0.00457372,-0.00426993,0.00737927,-0.00609906,-0.343098,0.00779341,0.0103517,769,1478,0.712345,-1.56186
-448,-454,0.711792,1.60779,0.00837547,-0.00585669,-0.00476613,0.00982412,-0.00730534,-0.295074,0.00992527,0.0105332,776,1478,0.711768,-1.60779
-441,-454,0.76178,1.64453,0.0116674,-0.00724217,-0.00526474,0.0130343,-0.00860915,-0.254038,0.0125826,0.0191659,783,1478,0.761771,-1.64458
-434,-454,0.8526,1.58447,0.0154287,-0.00892622,-0.00541901,0.01658,-0.0100775,-0.209346,0.0155426,0.0291856,790,1478,0.852593,-1.58444
-427,-454,1.01569,1.39355,0.0194075,-0.0106334,-0.00507908,0.020243,-0.0114689,-0.163037,0.018541,0.0387225,797,1478,1.01566,-1.39355
-420,-454,0.958313,1.05933,0.023839,-0.0123935,-0.00436457,0.0243573,-0.0129119,-0.118207,0.021853,0.0434415,804,1478,0.958291,-1.05933
-413,-454,0.55188,1.03076,0,0,0,0,0,0,0,-1,811,1478,0.551878,-1.03074
-406,-454,0.966797,1.52856,0,0,0,0,0,0,0,-1,818,1478,0.966823,-1.52859
-399,-454,1.30524,1.47119,0.0404131,-0.0177052,0.00148543,0.040451,-0.0177431,0.0255365,0.0344405,0.0455706,825,1478,1.30524,-1.47115
-392,-454,1.63422,1.37378,0.0468237,-0.0193934,0.0046465,0.0471481,-0.0197178,0.0697154,0.0396731,0.0474611,832,1478,1.63419,-1.37379
-385,-454,2.008,1.30066,0,0,0,0,0,0,0,-1,839,1478,2.008,-1.3006
-378,-454,-0.036377,-1.36646,0,0,0,0,0,0,0,-1,846,1478,-0.0363756,1.36642
-371,-454,0.326294,-2.7738,0,0,0,0,0,0,0,-1,853,1478,0.326292,2.77385
-364,-454,0.369507,-0.426758,0,0,0,0,0,0,0,-1,860,1478,0.369482,0.426741
-357,-454,0,0,0,0,0,0,0,0,0,-1,867,1478,0,0
-350,-454,0,0,0,0,0,0,0,0,0,-1,874,1478,0,0
-343,-454,0,0,0,0,0,0,0,0,0,-1,881,1478,0,0
-336,-454,0,0,0,0,0,0,0,0,0,-1,888,1478,0,0
-329,-454,0,0,0,0,0,0,0,0,0,-1,895,1478,0,0
-322,-454,0,0,0,0,0,0,0,0,0,-1,902,1478,0,0
-315,-454,0,0,0,0,0,0,0,0,0,-1,909,1478,0,0
-308,-454,0,0,0,0,0,0,0,0,0,-1,916,1478,0,0
-301,-454,0,0,0,0,0,0,0,0,0,-1,923,1478,0,0
-294,-454,0,0,0,0,0,0,0,0,0,-1,930,1478,0,0
-287,-454,0,0,0,0,0,0,0,0,0,-1,937,1478,0,0
-280,-454,0,0,0,0,0,0,0,0,0,-1,944,1478,0,0
-273,-454,0,0,0,0,0,0,0,0,0,-1,951,1478,0,0
-266,-454,0,0,0,0,0,0,0,0,0,-1,958,1478,0,0
-259,-454,0,0,0,0,0,0,0,0,0,-1,965,1478,0,0
-252,-454,0,0,0,0,0,0,0,0,0,-1,972,1478,0,0
-245,-454,0,0,0,0,0,0,0,0,0,-1,979,1478,0,0
-238,-454,0,0,0,0,0,0,0,0,0,-1,986,1478,0,0
-231,-454,0,0,0,0,0,0,0,0,0,-1,993,1478,0,0
-224,-454,0,0,0,0,0,0,0,0,0,-1,1000,1478,0,0
-217,-454,0,0,0,0,0,0,0,0,0,-1,1007,1478,0,0
-210,-454,0,0,0,0,0,0,0,0,0,-1,1014,1478,0,0
-203,-454,0,0,0,0,0,0,0,0,0,-1,1021,1478,0,0
-196,-454,0,0,0,0,0,0,0,0,0,-1,1028,1478,0,0
-189,-454,0,0,0,0,0,0,0,0,0,-1,1035,1478,0,0
-182,-454,0,0,0,0,0,0,0,0,0,-1,1042,1478,0,0
-175,-454,0,0,0,0,0,0,0,0,0,-1,1049,1478,0,0
-168,-454,0,0,0,0,0,0,0,0,0,-1,1056,1478,0,0
-161,-454,0,0,0,0,0,0,0,0,0,-1,1063,1478,0,0
-154,-454,0,0,0,0,0,0,0,0,0,-1,1070,1478,0,0
-147,-454,0,0,0,0,0,0,0,0,0,-1,1077,1478,0,0
-140,-454,0,0,0,0,0,0,0,0,0,-1,1084,1478,0,0
-133,-454,0,0,0,0,0,0,0,0,0,-1,1091,1478,0,0
-126,-454,0,0,0,0,0,0,0,0,0,-1,1098,1478,0,0
-119,-454,0,0,0,0,0,0,0,0,0,-1,1105,1478,0,0
-112,-454,0,0,0,0,0,0,0,0,0,-1,1112,1478,0,0
-105,-454,0,0,0,0,0,0,0,0,0,-1,1119,1478,0,0
-98,-454,0,0,0,0,0,0,0,0,0,-1,1126,1478,0,0
-91,-454,0,0,0,0,0,0,0,0,0,-1,1133,1478,0,0
-84,-454,0,0,0,0,0,0,0,0,0,-1,1140,1478,0,0
-77,-454,0,0,0,0,0,0,0,0,0,-1,1147,1478,0,0
-70,-454,0,0,0,0,0,0,0,0,0,-1,1154,1478,0,0
-63,-454,0,0,0,0,0,0,0,0,0,-1,1161,1478,0,0
-56,-454,0,0,0,0,0,0,0,0,0,-1,1168,1478,0,0
-49,-454,0,0,0,0,0,0,0,0,0,-1,1175,1478,0,0
-42,-454,0,0,0,0,0,0,0,0,0,-1,1182,1478,0,0
-35,-454,0,0,0,0,0,0,0,0,0,-1,1189,1478,0,0
-28,-454,0,0,0,0,0,0,0,0,0,-1,1196,1478,0,0
-21,-454,0,0,0,0,0,0,0,0,0,-1,1203,1478,0,0
-14,-454,0,0,0,0,0,0,0,0,0,-1,1210,1478,0,0
-7,-454,0,0,0,0,0,0,0,0,0,-1,1217,1478,0,0
0,-454,0,0,0,0,0,0,0,0,0,-1,1224,1478,0,0
7,-454,0,0,0,0,0,0,0,0,0,-1,1231,1478,0,0
14,-454,0,0,0,0,0,0,0,0,0,-1,1238,1478,0,0
21,-454,0,0,0,0,0,0,0,0,0,-1,1245,1478,0,0
28,-454,0,0,0,0,0,0,0,0,0,-1,1252,1478,0,0
35,-454,0,0,0,0,0,0,0,0,0,-1,1259,1478,0,0
42,-454,0,0,0,0,0,0,0,0,0,-1,1266,1478,0,0
49,-454,0,0,0,0,0,0,0,0,0,-1,1273,1478,0,0
56,-454,0,0,0,0,0,0,0,0,0,-1,1280,1478,0,0
63,-454,0,0,0,0,0,0,0,0,0,-1,1287,1478,0,0
70,-454,0,0,0,0,0,0,0,0,0,-1,1294,1478,0,0
77,-454,0,0,0,0,0,0,0,0,0,-1,1301,1478,0,0
84,-454,0,0,0,0,0,0,0,0,0,-1,1308,1478,0,0
91,-454,0,0,0,0,0,0,0,0,0,-1,1315,1478,0,0
98,-454,0,0,0,0,0,0,0,0,0,-1,1322,1478,0,0
105,-454,0,0,0,0,0,0,0,0,0,-1,1329,1478,0,0
112,-454,0,0,0,0,0,0,0,0,0,-1,1336,1478,0,0
119,-454,0,0,0,0,0,0,0,0,0,-1,1343,1478,0,0
126,-454,0,0,0,0,0,0,0,0,0,-1,1350,1478,0,0
133,-454,0,0,0,0,0,0,0,0,0,-1,1357,1478,0,0
140,-454,0,0,0,0,0,0,0,0,0,-1,1364,1478,0,0
147,-454,0,0,0,0,0,0,0,0,0,-1,1371,1478,0,0
154,-454,0,0,0,0,0,0,0,0,0,-1,1378,1478,0,0
161,-454,0,0,0,0,0,0,0,0,0,-1,1385,1478,0,0
168,-454,0,0,0,0,0,0,0,0,0,-1,1392,1478,0,0
175,-454,0,0,0,0,0,0,0,0,0,-1,1399,1478,0,0
182,-454,0,0,0,0,0,0,0,0,0,-1,1406,1478,0,0
189,-454,0,0,0,0,0,0,0,0,0,-1,1413,1478,0,0
196,-454,0,0,0,0,0,0,0,0,0,-1,1420,1478,0,0
203,-454,0,0,0,0,0,0,0,0,0,-1,1427,1478,0,0
210,-454,0,0,0,0,0,0,0,0,0,-1,1434,1478,0,0
217,-454,0,0,0,0,0,0,0,0,0,-1,1441,1478,0,0
224,-454,0,0,0,0,0,0,0,0,0,-1,1448,1478,0,0
231,-454,0,0,0,0,0,0,0,0,0,-1,1455,1478,0,0
238,-454,0,0,0,0,0,0,0,0,0,-1,1462,1478,0,0
245,-454,0,0,0,0,0,0,0,0,0,-1,1469,1478,0,0
252,-454,0,0,0,0,0,0,0,0,0,-1,1476,1478,0,0
259,-454,0,0,0,0,0,0,0,0,0,-1,1483,1478,0,0
266,-454,0,0,0,0,0,0,0,0,0,-1,1490,1478,0,0
273,-454,0,0,0,0,0,0,0,0,0,-1,1497,1478,0,0
280,-454,0,0,0,0,0,0,0,0,0,-1,1504,1478,0,0
287,-454,0,0,0,0,0,0,0,0,0,-1,1511,1478,0,0
294,-454,0,0,0,0,0,0,0,0,0,-1,1518,1478,0,0
301,-454,0,0,0,0,0,0,0,0,0,-1,1525,1478,0,0
308,-454,0,0,0,0,0,0,0,0,0,-1,1532,1478,0,0
315,-454,0,0,0,0,0,0,0,0,0,-1,1539,1478,0,0
322,-454,0,0,0,0,0,0,0,0,0,-1,1546,1478,0,0
329,-454,0,0,0,0,0,0,0,0,0,-1,1553,1478,0,0
336,-454,0,0,0,0,0,0,0,0,0,-1,1560,1478,0,0
343,-454,0,0,0,0,0,0,0,0,0,-1,1567,1478,0,0
350,-454,0,0,0,0,0,0,0,0,0,-1,1574,1478,0,0
357,-454,0,0,0,0,0,0,0,0,0,-1,1581,1478,0,0
364,-454,0,0,0,0,0,0,0,0,0,-1,1588,1478,0,0
371,-454,0,0,0,0,0,0,0,0,0,-1,1595,1478,0,0
378,-454,0,0,0,0,0,0,0,0,0,-1,1602,1478,0,0
385,-454,0,0,0,0,0,0,0,0,0,-1,1609,1478,0,0
392,-454,0,0,0,0,0,0,0,0,0,-1,1616,1478,0,0
399,-454,0,0,0,0,0,0,0,0,0,-1,1623,1478,0,0
406,-454,0,0,0,0,0,0,0,0,0,-1,1630,1478,0,0
413,-454,0,0,0,0,0,0,0,0,0,-1,1637,1478,0,0
420,-454,0,0,0,0,0,0,0,0,0,-1,1644,1478,0,0
427,-454,0,0,0,0,0,0,0,0,0,-1,1651,1478,0,0
434,-454,0,0,0,0,0,0,0,0,0,-1,1658,1478,0,0
441,-454,0,0,0,0,0,0,0,0,0,-1,1665,1478,0,0
448,-454,0,0,0,0,0,0,0,0,0,-1,1672,1478,0,0
455,-454,0,0,0,0,0,0,0,0,0,-1,1679,1478,0,0
462,-454,0,0,0,0,0,0,0,0,0,-1,1686,1478,0,0
469,-454,0,0,0,0,0,0,0,0,0,-1,1693,1478,0,0
476,-454,0,0,0,0,0,0,0,0,0,-1,1700,1478,0,0
483,-454,5.36694,1.88611,0,0,0,0,0,0,0,-1,1707,1478,5.36692,-1.88613
490,-454,4.62903,0.985718,0,0,0,0,0,0,0,-1,1714,1478,4.62907,-0.985714
497,-454,3.89038,0.682861,0,0,0,0,0,0,0,-1,1721,1478,3.89042,-0.682851
504,-454,3.27563,0.0142822,0,0,0,0,0,0,0,-1,1728,1478,3.27565,-0.0143341
511,-454,3.08203,-1.11035,0,0,0,0,0,0,0,-1,1735,1478,3.08198,1.11037
518,-454,1.09851,1.96704,0,0,0,0,0,0,0,-1,1742,1478,1.09852,-1.96707
525,-454,1.32361,1.74316,-0.00145274,0.0597256,0.0388797,0.0786069,-0.020334,1.11871,0.0603358,0.0446939,1749,1478,1.3236,-1.74317
532,-454,1.52222,1.35498,0,0,0,0,0,0,0,-1,1756,1478,1.5222,-1.35494
539,-454,2.49402,1.25647,0,0,0,0,0,0,0,-1,1763,1478,2.494,-1.25645
546,-454,2.70215,1.31702,0,0,0,0,0,0,0,-1,1770,1478,2.70216,-1.31698
553,-454,2.89026,1.44128,-0.00316085,0.028073,0.014076,0.0334805,-0.00856826,1.20402,0.0256578,0.039098,1777,1478,2.89026,-1.44134
560,-454,3.23914,1.70703,-0.00376955,0.0211048,0.0116013,0.0256756,-0.00834039,1.19548,0.0204716,0.0340568,1784,1478,3.23913,-1.70699
567,-454,3.29663,1.7041,-0.00413613,0.0152957,0.00948011,0.0191545,-0.00799488,1.18424,0.01611,0.0185969,1791,1478,3.29669,-1.7041
574,-454,3.31555,1.66357,-0.00428273,0.0104339,0.00760454,0.0136574,-0.00750618,1.16987,0.0123896,0.0109003,1798,1478,3.31551,-1.66357
581,-454,3.35242,1.59558,-0.00432672,0.00669581,0.00617063,0.00945805,-0.00708895,1.14991,0.00958599,0.0108043,1805,1478,3.3524,-1.59558
588,-454,3.35022,1.57544,-0.00416553,0.0038738,0.00470889,0.00604537,-0.00633709,1.1387,0.00714968,0.0124341,1812,1478,3.35024,-1.57543
595,-454,3.33948,1.55408,-0.0036747,0.00128171,0.00327423,0.00290985,-0.00530284,1.10934,0.00480823,0.012135,1819,1478,3.33942,-1.55413
602,-454,3.34985,1.51221,-0.00301761,-0.000518513,0.00224387,0.000800274,-0.00433639,1.03945,0.00319131,0.00902831,1826,1478,3.3498,-1.51223
609,-454,3.35071,1.49548,-0.00292483,-0.000744664,0.00186603,0.000326351,-0.00399584,1.04975,0.00277907,0.00976003,1833,1478,3.35076,-1.49546
616,-454,3.34924,1.45093,-0.00269097,-0.00141315,0.00130082,-0.000602811,-0.00350131,1.01367,0.00216148,0.0126839,1840,1478,3.3492,-1.45095
623,-454,3.33081,1.39868,-0.00253771,-0.00179178,0.00102228,-0.00107655,-0.00325294,0.960313,0.00191353,0.0106618,1847,1478,3.33076,-1.39865
630,-454,3.33203,1.36743,-0.00260176,-0.00184631,0.00108314,-0.00107692,-0.00337115,0.95317,0.00198818,0.00864861,1854,1478,3.33198,-1.36742
637,-454,3.32947,1.30627,-0.00283606,-0.00221055,0.00143807,-0.00105161,-0.00399499,0.892472,0.00239116,0.00850984,1861,1478,3.32948,-1.30628
644,-454,3.31995,1.2627,-0.00279178,-0.00245446,0.00199653,-0.000619477,-0.00462676,0.827537,0.00290015,0.011163,1868,1478,3.31992,-1.26268
651,-454,3.31409,1.27991,-0.00212228,-0.00151379,0.00248999,0.000690475,-0.00432655,0.84619,0.00313993,0.0190837,1875,1478,3.31409,-1.2799
658,-454,3.33691,1.31812,-0.00117267,-0.00129293,0.00223103,0.000999043,-0.00346464,0.771925,0.00270499,0.03331,1882,1478,3.33688,-1.31811
665,-454,3.36707,1.33228,0.000721977,-0.000268572,0.00205693,0.00234242,-0.00188901,0.667255,0.00244769,0.0456534,1889,1478,3.36702,-1.33224
672,-454,3.37659,1.36011,0,0,0,0,0,0,0,-1,1896,1478,3.37659,-1.36015
679,-454,2.16846,0.140259,0,0,0,0,0,0,0,-1,1903,1478,2.16843,-0.140315
686,-454,2.99561,0.90686,0,0,0,0,0,0,0,-1,1910,1478,2.99559,-0.906808
693,-454,3.50122,0.777466,0,0,0,0,0,0,0,-1,1917,1478,3.50125,-0.777454
700,-454,0,0,0,0,0,0,0,0,0,-1,1924,1478,0,0
707,-454,0,0,0,0,0,0,0,0,0,-1,1931,1478,0,0
714,-454,0,0,0,0,0,0,0,0,0,-1,1938,1478,0,0
721,-454,0,0,0,0,0,0,0,0,0,-1,1945,1478,0,0
728,-454,0,0,0,0,0,0,0,0,0,-1,1952,1478,0,0
735,-454,0,0,0,0,0,0,0,0,0,-1,1959,1478,0,0
742,-454,0,0,0,0,0,0,0,0,0,-1,1966,1478,0,0
749,-454,0,0,0,0,0,0,0,0,0,-1,1973,1478,0,0
756,-454,0,0,0,0,0,0,0,0,0,-1,1980,1478,0,0
763,-454,0,0,0,0,0,0,0,0,0,-1,1987,1478,0,0
770,-454,0,0,0,0,0,0,0,0,0,-1,1994,1478,0,0
777,-454,0,0,0,0,0,0,0,0,0,-1,2001,1478,0,0
784,-454,0,0,0,0,0,0,0,0,0,-1,2008,1478,0,0
791,-454,0,0,0,0,0,0,0,0,0,-1,2015,1478,0,0
798,-454,0,0,0,0,0,0,0,0,0,-1,2022,1478,0,0
805,-454,0,0,0,0,0,0,0,0,0,-1,2029,1478,0,0
812,-454,0,0,0,0,0,0,0,0,0,-1,2036,1478,0,0
-700,-461,0,0,0,0,0,0,0,0,0,-1,524,1485,0,0
-693,-461,0,0,0,0,0,0,0,0,0,-1,531,1485,0,0
-686,-461,0,0,0,0,0,0,0,0,0,-1,538,1485,0,0
-679,-461,0,0,0,0,0,0,0,0,0,-1,545,1485,0,0
-672,-461,0,0,0,0,0,0,0,0,0,-1,552,1485,0,0
-665,-461,0,0,0,0,0,0,0,0,0,-1,559,1485,0,0
-658,-461,0,0,0,0,0,0,0,0,0,-1,566,1485,0,0
-651,-461,0,0,0,0,0,0,0,0,0,-1,573,1485,0,0
-644,-461,0,0,0,0,0,0,0,0,0,-1,580,1485,0,0
-637,-461,0,0,0,0,0,0,0,0,0,-1,587,1485,0,0
-630,-461,0,0,0,0,0,0,0,0,0,-1,594,1485,0,0
-623,-461,0,0,0,0,0,0,0,0,0,-1,601,1485,0,0
-616,-461,0,0,0,0,0,0,0,0,0,-1,608,1485,0,0
-609,-461,0,0,0,0,0,0,0,0,0,-1,615,1485,0,0
-602,-461,0,0,0,0,0,0,0,0,0,-1,622,1485,0,0
-595,-461,0,0,0,0,0,0,0,0,0,-1,629,1485,0,0
-588,-461,0,0,0,0,0,0,0,0,0,-1,636,1485,0,0
-581,-461,0,0,0,0,0,0,0,0,0,-1,643,1485,0,0
-574,-461,0,0,0,0,0,0,0,0,0,-1,650,1485,0,0
-567,-461,-0.0697632,-0.394165,0.0428974,0.0161463,0.0114152,0.0471063,0.0119374,0.353244,0.0282778,0.0466819,657,1485,-0.0697699,0.394181
-560,-461,0.199341,-0.555786,0.0454553,0.013558,0.0134188,0.0503495,0.0086638,0.349733,0.0310835,0.0481677,664,1485,0.199356,0.555758
-553,-461,0.588379,-0.598145,0.0454191,0.0117557,0.0142532,0.0506432,0.00653153,0.35132,0.0318093,0.0467456,671,1485,0.588368,0.598165
-546,-461,0.939026,-0.529785,0.0432864,0.0103244,0.0141588,0.0485332,0.00507759,0.354876,0.0308027,0.0446477,678,1485,0.939052,0.529765
-539,-461,1.38367,-0.659424,0.0394957,0.00915132,0.0132646,0.0444765,0.0041705,0.359208,0.0283632,0.0433638,685,1485,1.38367,0.659445
-532,-461,0.487,0.17334,0,0,0,0,0,0,0,-1,692,1485,0.487015,-0.173314
-525,-461,0.651062,0.436157,0.0299241,0.00651329,0.0103616,0.0338513,0.00258606,0.362289,0.0217568,0.0383318,699,1485,0.651048,-0.436198
-518,-461,0.697876,1.05408,0.0249382,0.00521405,0.00885777,0.0283321,0.00182016,0.3659,0.0183115,0.0317862,706,1485,0.697881,-1.05412
-511,-461,0.751526,1.25208,0.020017,0.00402918,0.00707145,0.0226959,0.00135032,0.362121,0.0147012,0.0143003,713,1485,0.751537,-1.25202
-504,-461,0.765015,1.28552,0.0151143,0.00262274,0.00542714,0.0171428,0.000594247,0.35769,0.0112357,0.00895721,720,1485,0.765027,-1.28552
-497,-461,0.784241,1.33911,0.0101316,0.00221448,0.00387285,0.011711,0.000635058,0.387228,0.00760449,0.01051,727,1485,0.78425,-1.33907
-490,-461,0.768311,1.37122,0.00634625,0.00118915,0.00179791,0.00691117,0.000624234,0.304441,0.00441411,0.0116962,734,1485,0.768341,-1.37126
-483,-461,0.764221,1.41577,0.0037261,0.000264845,0.000289001,0.00375007,0.00024088,0.0827325,0.00242374,0.0115757,741,1485,0.76424,-1.41573
-476,-461,0.764526,1.46387,0.00243363,-0.00128945,-0.000786327,0.00259289,-0.00144871,-0.199836,0.00236438,0.0107004,748,1485,0.764555,-1.46388
-469,-461,0.754761,1.48755,0.00239305,-0.00265826,-0.00205689,0.00312465,-0.00338986,-0.34173,0.00376219,0.0123483,755,1485,0.754757,-1.48754
-462,-461,0.763062,1.51282,0.0031945,-0.00355318,-0.00281985,0.00421774,-0.00457643,-0.348096,0.00507872,0.0171642,762,1485,0.763079,-1.51286
-455,-461,0.805969,1.56323,0.00452389,-0.00439352,-0.00334505,0.00563918,-0.00550881,-0.321824,0.00643645,0.0208754,769,1485,0.80598,-1.56319
-448,-461,0.788269,1.60339,0.00658568,-0.00560192,-0.00366554,0.00760318,-0.00661942,-0.270768,0.00821797,0.0172762,776,1485,0.788267,-1.60343
-441,-461,0.810242,1.66187,0.00931723,-0.00693819,-0.00400661,0.0102511,-0.00787208,-0.228998,0.0104934,0.0129006,783,1485,0.810227,-1.66185
-434,-461,0.868469,1.66187,0.0124389,-0.00862253,-0.00401582,0.0131786,-0.00936226,-0.18216,0.013076,0.0174636,790,1485,0.868451,-1.66186
-427,-461,0.86853,1.66492,0.0157089,-0.010332,-0.00359569,0.0161962,-0.0108194,-0.134721,0.0157001,0.024381,797,1485,0.868526,-1.66497
-420,-461,0.988647,1.36499,0.0194015,-0.0120782,-0.00294832,0.0196753,-0.0123519,-0.0925851,0.0186513,0.0394073,804,1485,0.98865,-1.36502
-413,-461,1.21613,1.00391,0.0234617,-0.0138845,-0.00182363,0.0235506,-0.0139733,-0.0486761,0.0218984,0.0448862,811,1485,1.21616,-1.00395
-406,-461,1.23468,1.83582,0.0287319,-0.0156109,-0.000369868,0.028735,-0.015614,-0.00834035,0.0259757,0.0454175,818,1485,1.2347,-1.83577
-399,-461,1.41095,1.88232,0.0355309,-0.0174864,0.0022318,0.0356247,-0.0175802,0.0419966,0.0313012,0.0442554,825,1485,1.41095,-1.88231
-392,-461,1.63501,1.35364,0.0426552,-0.0193939,0.0051477,0.0430794,-0.019818,0.0822127,0.0371324,0.0467052,832,1485,1.63501,-1.35369
-385,-461,2.60883,0.828735,0,0,0,0,0,0,0,-1,839,1485,2.6088,-0.828772
-378,-461,-0.546631,-1.86023,0,0,0,0,0,0,0,-1,846,1485,-0.546627,1.86018
-371,-461,-0.212708,-1.3429,0,0,0,0,0,0,0,-1,853,1485,-0.212703,1.34293
-364,-461,-0.400757,-1.84595,0,0,0,0,0,0,0,-1,860,1485,-0.400775,1.84593
-357,-461,-0.410461,-0.531372,0,0,0,0,0,0,0,-1,867,1485,-0.410472,0.531381
-350,-461,0,0,0,0,0,0,0,0,0,-1,874,1485,0,0
-343,-461,0,0,0,0,0,0,0,0,0,-1,881,1485,0,0
-336,-461,0,0,0,0,0,0,0,0,0,-1,888,1485,0,0
-329,-461,0,0,0,0,0,0,0,0,0,-1,895,1485,0,0
-322,-461,0,0,0,0,0,0,0,0,0,-1,902,1485,0,0
-315,-461,0,0,0,0,0,0,0,0,0,-1,909,1485,0,0
-308,-461,0,0,0,0,0,0,0,0,0,-1,916,1485,0,0
-301,-461,0,0,0,0,0,0,0,0,0,-1,923,1485,0,0
-294,-461,0,0,0,0,0,0,0,0,0,-1,930,1485,0,0
-287,-461,0,0,0,0,0,0,0,0,0,-1,937,1485,0,0
-280,-461,0,0,0,0,0,0,0,0,0,-1,944,1485,0,0
-273,-461,0,0,0,0,0,0,0,0,0,-1,951,1485,0,0
-266,-461,0,0,0,0,0,0,0,0,0,-1,958,1485,0,0
-259,-461,0,0,0,0,0,0,0,0,0,-1,965,1485,0,0
-252,-461,0,0,0,0,0,0,0,0,0,-1,972,1485,0,0
-245,-461,0,0,0,0,0,0,0,0,0,-1,979,1485,0,0
-238,-461,0,0,0,0,0,0,0,0,0,-1,986,1485,0,0
-231,-461,0,0,0,0,0,0,0,0,0,-1,993,1485,0,0
-224,-461,0,0,0,0,0,0,0,0,0,-1,1000,1485,0,0
-217,-461,0,0,0,0,0,0,0,0,0,-1,1007,1485,0,0
-210,-461,0,0,0,0,0,0,0,0,0,-1,1014,1485,0,0
-203,-461,0,0,0,0,0,0,0,0,0,-1,1021,1485,0,0
-196,-461,0,0,0,0,0,0,0,0,0,-1,1028,1485,0,0
-189,-461,0,0,0,0,0,0,0,0,0,-1,1035,1485,0,0
-182,-461,0,0,0,0,0,0,0,0,0,-1,1042,1485,0,0
-175,-461,0,0,0,0,0,0,0,0,0,-1,1049,1485,0,0
-168,-461,0,0,0,0,0,0,0,0,0,-1,1056,1485,0,0
-161,-461,0,0,0,0,0,0,0,0,0,-1,1063,1485,0,0
-154,-461,0,0,0,0,0,0,0,0,0,-1,1070,1485,0,0
-147,-461,0,0,0,0,0,0,0,0,0,-1,1077,1485,0,0
-140,-461,0,0,0,0,0,0,0,0,0,-1,1084,1485,0,0
-133,-461,0,0,0,0,0,0,0,0,0,-1,1091,1485,0,0
-126,-461,0,0,0,0,0,0,0,0,0,-1,1098,1485,0,0
-119,-461,0,0,0,0,0,0,0,0,0,-1,1105,1485,0,0
-112,-461,0,0,0,0,0,0,0,0,0,-1,1112,1485,0,0
-105,-461,0,0,0,0,0,0,0,0,0,-1,1119,1485,0,0
-98,-461,0,0,0,0,0,0,0,0,0,-1,1126,1485,0,0
-91,-461,0,0,0,0,0,0,0,0,0,-1,1133,1485,0,0
-84,-461,0,0,0,0,0,0,0,0,0,-1,1140,1485,0,0
-77,-461,0,0,0,0,0,0,0,0,0,-1,1147,1485,0,0
-70,-461,0,0,0,0,0,0,0,0,0,-1,1154,1485,0,0
-63,-461,0,0,0,0,0,0,0,0,0,-1,1161,1485,0,0
-56,-461,0,0,0,0,0,0,0,0,0,-1,1168,1485,0,0
-49,-461,0,0,0,0,0,0,0,0,0,-1,1175,1485,0,0
-42,-461,0,0,0,0,0,0,0,0,0,-1,1182,1485,0,0
-35,-461,0,0,0,0,0,0,0,0,0,-1,1189,1485,0,0
-28,-461,0,0,0,0,0,0,0,0,0,-1,1196,1485,0,0
-21,-461,0,0,0,0,0,0,0,0,0,-1,1203,1485,0,0
-14,-461,0,0,0,0,0,0,0,0,0,-1,1210,1485,0,0
-7,-461,0,0,0,0,0,0,0,0,0,-1,1217,1485,0,0
0,-461,0,0,0,0,0,0,0,0,0,-1,1224,1485,0,0
7,-461,0,0,0,0,0,0,0,0,0,-1,1231,1485,0,0
14,-461,0,0,0,0,0,0,0,0,0,-1,1238,1485,0,0
21,-461,0,0,0,0,0,0,0,0,0,-1,1245,1485,0,0
28,-461,0,0,0,0,0,0,0,0,0,-1,1252,1485,0,0
35,-461,0,0,0,0,0,0,0,0,0,-1,1259,1485,0,0
42,-461,0,0,0,0,0,0,0,0,0,-1,1266,1485,0,0
49,-461,0,0,0,0,0,0,0,0,0,-1,1273,1485,0,0
56,-461,0,0,0,0,0,0,0,0,0,-1,1280,1485,0,0
63,-461,0,0,0,0,0,0,0,0,0,-1,1287,1485,0,0
70,-461,0,0,0,0,0,0,0,0,0,-1,1294,1485,0,0
77,-461,0,0,0,0,0,0,0,0,0,-1,1301,1485,0,0
84,-461,0,0,0,0,0,0,0,0,0,-1,1308,1485,0,0
91,-461,0,0,0,0,0,0,0,0,0,-1,1315,1485,0,0
98,-461,0,0,0,0,0,0,0,0,0,-1,1322,1485,0,0
105,-461,0,0,0,0,0,0,0,0,0,-1,1329,1485,0,0
112,-461,0,0,0,0,0,0,0,0,0,-1,1336,1485,0,0
119,-461,0,0,0,0,0,0,0,0,0,-1,1343,1485,0,0
126,-461,0,0,0,0,0,0,0,0,0,-1,1350,1485,0,0
133,-461,0,0,0,0,0,0,0,0,0,-1,1357,1485,0,0
140,-461,0,0,0,0,0,0,0,0,0,-1,1364,1485,0,0
147,-461,0,0,0,0,0,0,0,0,0,-1,1371,1485,0,0
154,-461,0,0,0,0,0,0,0,0,0,-1,1378,1485,0,0
161,-461,0,0,0,0,0,0,0,0,0,-1,1385,1485,0,0
168,-461,0,0,0,0,0,0,0,0,0,-1,1392,1485,0,0
175,-461,0,0,0,0,0,0,0,0,0,-1,1399,1485,0,0
182,-461,0,0,0,0,0,0,0,0,0,-1,1406,1485,0,0
189,-461,0,0,0,0,0,0,0,0,0,-1,1413,1485,0,0
196,-461,0,0,0,0,0,0,0,0,0,-1,1420,1485,0,0
203,-461,0,0,0,0,0,0,0,0,0,-1,1427,1485,0,0
210,-461,0,0,0,0,0,0,0,0,0,-1,1434,1485,0,0
217,-461,0,0,0,0,0,0,0,0,0,-1,1441,1485,0,0
224,-461,0,0,0,0,0,0,0,0,0,-1,1448,1485,0,0
231,-461,0,0,0,0,0,0,0,0,0,-1,1455,1485,0,0
238,-461,0,0,0,0,0,0,0,0,0,-1,1462,1485,0,0
245,-461,0,0,0,0,0,0,0,0,0,-1,1469,1485,0,0
252,-461,0,0,0,0,0,0,0,0,0,-1,1476,1485,0,0
259,-461,0,0,0,0,0,0,0,0,0,-1,1483,1485,0,0
266,-461,0,0,0,0,0,0,0,0,0,-1,1490,1485,0,0
273,-461,0,0,0,0,0,0,0,0,0,-1,1497,1485,0,0
280,-461,0,0,0,0,0,0,0,0,0,-1,1504,1485,0,0
287,-461,0,0,0,0,0,0,0,0,0,-1,1511,1485,0,0
294,-461,0,0,0,0,0,0,0,0,0,-1,1518,1485,0,0
301,-461,0,0,0,0,0,0,0,0,0,-1,1525,1485,0,0
308,-461,0,0,0,0,0,0,0,0,0,-1,1532,1485,0,0
315,-461,0,0,0,0,0,0,0,0,0,-1,1539,1485,0,0
322,-461,0,0,0,0,0,0,0,0,0,-1,1546,1485,0,0
329,-461,0,0,0,0,0,0,0,0,0,-1,1553,1485,0,0
336,-461,0,0,0,0,0,0,0,0,0,-1,1560,1485,0,0
343,-461,0,0,0,0,0,0,0,0,0,-1,1567,1485,0,0
350,-461,0,0,0,0,0,0,0,0,0,-1,1574,1485,0,0
357,-461,0,0,0,0,0,0,0,0,0,-1,1581,1485,0,0
364,-461,0,0,0,0,0,0,0,0,0,-1,1588,1485,0,0
371,-461,0,0,0,0,0,0,0,0,0,-1,1595,1485,0,0
378,-461,0,0,0,0,0,0,0,0,0,-1,1602,1485,0,0
385,-461,0,0,0,0,0,0,0,0,0,-1,1609,1485,0,0
392,-461,0,0,0,0,0,0,0,0,0,-1,1616,1485,0,0
399,-461,0,0,0,0,0,0,0,0,0,-1,1623,1485,0,0
406,-461,0,0,0,0,0,0,0,0,0,-1,1630,1485,0,0
413,-461,0,0,0,0,0,0,0,0,0,-1,1637,1485,0,0
420,-461,0,0,0,0,0,0,0,0,0,-1,1644,1485,0,0
427,-461,0,0,0,0,0,0,0,0,0,-1,1651,1485,0,0
434,-461,0,0,0,0,0,0,0,0,0,-1,1658,1485,0,0
441,-461,0,0,0,0,0,0,0,0,0,-1,1665,1485,0,0
448,-461,0,0,0,0,0,0,0,0,0,-1,1672,1485,0,0
455,-461,0,0,0,0,0,0,0,0,0,-1,1679,1485,0,0
462,-461,0,0,0,0,0,0,0,0,0,-1,1686,1485,0,0
469,-461,0,0,0,0,0,0,0,0,0,-1,1693,1485,0,0
476,-461,4.20752,2.82495,0,0,0,0,0,0,0,-1,1700,1485,4.20753,-2.82489
483,-461,4.42273,2.4198,0,0,0,0,0,0,0,-1,1707,1485,4.42274,-2.41986
490,-461,4.18555,1.54688,0,0,0,0,0,0,0,-1,1714,1485,4.18557,-1.54687
497,-461,3.75842,0.925171,0,0,0,0,0,0,0,-1,1721,1485,3.75844,-0.925176
504,-461,3.4989,0.436523,0,0,0,0,0,0,0,-1,1728,1485,3.49887,-0.43657
511,-461,3.16919,-0.0974121,0,0,0,0,0,0,0,-1,1735,1485,3.16919,0.0973583
518,-461,1.38708,1.15137,0,0,0,0,0,0,0,-1,1742,1485,1.38714,-1.15132
525,-461,1.65076,1.44788,0,0,0,0,0,0,0,-1,1749,1485,1.65081,-1.4479
532,-461,1.91479,1.38379,0,0,0,0,0,0,0,-1,1756,1485,1.91474,-1.38375
539,-461,3.3501,1.9873,0,0,0,0,0,0,0,-1,1763,1485,3.35015,-1.98736
546,-461,2.85425,1.52368,0,0,0,0,0,0,0,-1,1770,1485,2.85429,-1.52367
553,-461,3.02563,1.61267,0.00187407,0.0170914,0.00864803,0.0210014,-0.00203595,1.14617,0.0147266,0.039683,1777,1485,3.02565,-1.61271
560,-461,3.23938,1.73816,0.000579313,0.0128808,0.00713519,0.0161504,-0.00269027,1.14112,0.0117666,0.0211946,1784,1485,3.23943,-1.73819
567,-461,3.29419,1.70154,-0.000458209,0.00941044,0.0059174,0.0121809,-0.00322864,1.13292,0.0093838,0.0113897,1791,1485,3.29417,-1.7016
574,-461,3.30994,1.65002,-0.00120658,0.00637008,0.00482049,0.00871271,-0.0035492,1.11843,0.00728564,0.0126839,1798,1485,3.31,-1.64997
581,-461,3.30505,1.60242,-0.00177923,0.0039777,0.00402984,0.00605153,-0.00385306,1.09552,0.00576518,0.0126072,1805,1485,3.30508,-1.60238
588,-461,3.28369,1.57397,-0.00214404,0.00224804,0.00320128,0.00393411,-0.00383012,1.08603,0.00448281,0.0103806,1812,1485,3.28367,-1.57395
595,-461,3.28833,1.5592,-0.00212814,0.000391691,0.00222055,0.00168486,-0.00342131,1.04345,0.00300434,0.00856921,1819,1485,3.28828,-1.55914
602,-461,3.29736,1.5249,-0.00187149,-0.00111794,0.00147203,2.47677e-05,-0.0030142,0.910686,0.00201777,0.00918181,1826,1485,3.2974,-1.52492
609,-461,3.29211,1.474,-0.00205073,-0.00147356,0.00118369,-0.00054378,-0.0029805,0.904966,0.00183283,0.0102584,1833,1485,3.29214,-1.47404
616,-461,3.29187,1.43311,-0.00210756,-0.00228908,0.000632842,-0.001559,-0.00283763,0.714176,0.00164097,0.0125602,1840,1485,3.29192,-1.43312
623,-461,3.29529,1.40942,-0.00224811,-0.00290671,0.000307077,-0.00212715,-0.00302767,0.375245,0.00179521,0.0115828,1847,1485,3.29527,-1.40941
630,-461,3.29883,1.37219,-0.00262398,-0.00329479,0.000235508,-0.00254956,-0.00336922,0.306086,0.00202889,0.0089449,1854,1485,3.29885,-1.37224
637,-461,3.30249,1.31787,-0.00316121,-0.00395952,0.000367115,-0.00301806,-0.00410267,0.371806,0.00245479,0.0101043,1861,1485,3.30246,-1.31787
644,-461,3.27588,1.29321,-0.00342245,-0.00446892,0.000602114,-0.00314799,-0.00474338,0.427688,0.00278706,0.0130564,1868,1485,3.27586,-1.2932
651,-461,3.25586,1.23718,-0.00306263,-0.00380121,0.000723721,-0.00261943,-0.00424442,0.549485,0.00247283,0.0215683,1875,1485,3.2559,-1.23713
658,-461,3.31787,1.35352,-0.00235736,-0.00371838,6.73773e-05,-0.00235403,-0.0037217,0.0493443,0.00217374,0.0389956,1882,1485,3.31783,-1.35347
665,-461,3.35266,1.37427,-0.000759292,-0.00272953,-0.000400025,-0.000681171,-0.00280765,-0.192863,0.00169108,0.0453371,1889,1485,3.35265,-1.37426
672,-461,3.37451,1.3562,0.00214701,-0.00090038,-0.00153663,0.00278731,-0.00154068,-0.394812,0.00253308,0.048746,1896,1485,3.3745,-1.35616
679,-461,3.47742,1.24353,0,0,0,0,0,0,0,-1,1903,1485,3.47745,-1.24347
686,-461,2.46875,0.966675,0,0,0,0,0,0,0,-1,1910,1485,2.46873,-0.966684
693,-461,0,0,0,0,0,0,0,0,0,-1,1917,1485,0,0
700,-461,0,0,0,0,0,0,0,0,0,-1,1924,1485,0,0
707,-461,0,0,0,0,0,0,0,0,0,-1,1931,1485,0,0
714,-461,0,0,0,0,0,0,0,0,0,-1,1938,1485,0,0
721,-461,0,0,0,0,0,0,0,0,0,-1,1945,1485,0,0
728,-461,0,0,0,0,0,0,0,0,0,-1,1952,1485,0,0
735,-461,0,0,0,0,0,0,0,0,0,-1,1959,1485,0,0
742,-461,0,0,0,0,0,0,0,0,0,-1,1966,1485,0,0
749,-461,0,0,0,0,0,0,0,0,0,-1,1973,1485,0,0
756,-461,0,0,0,0,0,0,0,0,0,-1,1980,1485,0,0
763,-461,0,0,0,0,0,0,0,0,0,-1,1987,1485,0,0
770,-461,0,0,0,0,0,0,0,0,0,-1,1994,1485,0,0
777,-461,0,0,0,0,0,0,0,0,0,-1,2001,1485,0,0
784,-461,0,0,0,0,0,0,0,0,0,-1,2008,1485,0,0
791,-461,0,0,0,0,0,0,0,0,0,-1,2015,1485,0,0
798,-461,0,0,0,0,0,0,0,0,0,-1,2022,1485,0,0
805,-461,0,0,0,0,0,0,0,0,0,-1,2029,1485,0,0
812,-461,0,0,0,0,0,0,0,0,0,-1,2036,1485,0,0
-700,-468,0,0,0,0,0,0,0,0,0,-1,524,1492,0,0
-693,-468,0,0,0,0,0,0,0,0,0,-1,531,1492,0,0
-686,-468,0,0,0,0,0,0,0,0,0,-1,538,1492,0,0
-679,-468,0,0,0,0,0,0,0,0,0,-1,545,1492,0,0
-672,-468,0,0,0,0,0,0,0,0,0,-1,552,1492,0,0
-665,-468,0,0,0,0,0,0,0,0,0,-1,559,1492,0,0
-658,-468,0,0,0,0,0,0,0,0,0,-1,566,1492,0,0
-651,-468,0,0,0,0,0,0,0,0,0,-1,573,1492,0,0
-644,-468,0,0,0,0,0,0,0,0,0,-1,580,1492,0,0
-637,-468,0,0,0,0,0,0,0,0,0,-1,587,1492,0,0
-630,-468,0,0,0,0,0,0,0,0,0,-1,594,1492,0,0
-623,-468,0,0,0,0,0,0,0,0,0,-1,601,1492,0,0
-616,-468,0,0,0,0,0,0,0,0,0,-1,608,1492,0,0
-609,-468,0,0,0,0,0,0,0,0,0,-1,615,1492,0,0
-602,-468,0,0,0,0,0,0,0,0,0,-1,622,1492,0,0
-595,-468,0,0,0,0,0,0,0,0,0,-1,629,1492,0,0
-588,-468,0,0,0,0,0,0,0,0,0,-1,636,1492,0,0
-581,-468,0,0,0,0,0,0,0,0,0,-1,643,1492,0,0
-574,-468,0,0,0,0,0,0,0,0,0,-1,650,1492,0,0
-567,-468,-0.614197,-0.303833,0,0,0,0,0,0,0,-1,657,1492,-0.614212,0.303791
-560,-468,-0.330688,-0.48877,0,0,0,0,0,0,0,-1,664,1492,-0.3307,0.488749
-553,-468,0.339722,-0.358032,0.0562491,0.0119377,0.0148928,0.0607893,0.0073975,0.295907,0.0382993,0.0467563,671,1492,0.339734,0.357999
-546,-468,0.675476,-0.428467,0.053714,0.0113166,0.0148514,0.0583986,0.00663197,0.305558,0.0369208,0.0429671,678,1492,0.675504,0.428496
-539,-468,0.900269,-0.588501,0.049101,0.0106777,0.013866,0.0535823,0.00619639,0.312588,0.0338456,0.042888,685,1492,0.900289,0.588512
-532,-468,1.24561,-1.0752,0.0432035,0.0098633,0.0122933,0.0472462,0.00582065,0.317709,0.0297477,0.0432335,692,1492,1.24559,1.07517
-525,-468,0.0065918,1.34058,0,0,0,0,0,0,0,-1,699,1492,0.00658908,-1.34063
-518,-468,0.302917,1.30347,0.0307299,0.0070758,0.00901096,0.0337715,0.00403421,0.325535,0.0212973,0.0387137,706,1492,0.302891,-1.3035
-511,-468,0.701111,1.271,0.0246252,0.00567975,0.00713172,0.0270097,0.00329524,0.322668,0.0170147,0.0292368,713,1492,0.701121,-1.27102
-504,-468,0.80304,1.29065,0.0185963,0.00400571,0.00542295,0.0203911,0.00221092,0.319616,0.0129203,0.0111673,720,1492,0.803013,-1.29068
-497,-468,0.820862,1.3385,0.0126454,0.00353732,0.00385828,0.0140601,0.00212264,0.351439,0.00875206,0.00835821,727,1492,0.820889,-1.33849
-490,-468,0.809326,1.38416,0.00792269,0.00235218,0.00178075,0.0084433,0.00183157,0.284426,0.00512855,0.00799507,734,1492,0.809308,-1.38413
-483,-468,0.794067,1.42151,0.00440789,0.00105195,0.000352835,0.00444458,0.00101525,0.103628,0.00268929,0.00799253,741,1492,0.794096,-1.42145
-476,-468,0.799805,1.45813,0.00237092,-0.000900304,-0.000537418,0.00245695,-0.000986332,-0.15873,0.00204752,0.0086526,748,1492,0.799807,-1.45813
-469,-468,0.790344,1.48755,0.0018216,-0.00237991,-0.00160029,0.00236169,-0.00292001,-0.325495,0.00305506,0.0126004,755,1492,0.790359,-1.48752
-462,-468,0.821472,1.54028,0.00222665,-0.00321797,-0.00219345,0.00300036,-0.00399169,-0.339113,0.00405036,0.0214723,762,1492,0.821468,-1.54032
-455,-468,0.851196,1.55896,0.00316607,-0.00405073,-0.00254229,0.00397172,-0.00485638,-0.306886,0.00510543,0.0217781,769,1492,0.851222,-1.55896
-448,-468,0.8349,1.59729,0.00485256,-0.00519616,-0.00268372,0.00552438,-0.00586798,-0.245293,0.00657838,0.0137319,776,1492,0.834873,-1.59733
-441,-468,0.846497,1.61597,0.00711335,-0.00646881,-0.00286803,0.00769413,-0.00704959,-0.1998,0.008515,0.0120062,783,1492,0.846489,-1.61597
-434,-468,0.839417,1.68848,0.00970546,-0.00810892,-0.00274315,0.0101183,-0.00852176,-0.149377,0.010775,0.0110344,790,1492,0.839419,-1.68845
-427,-468,0.814697,1.71204,0.0123869,-0.00976654,-0.0022478,0.0126127,-0.00999231,-0.100106,0.0130802,0.0130283,797,1492,0.814687,-1.71207
-420,-468,0.815674,1.63635,0,0,0,0,0,0,0,-1,804,1492,0.815657,-1.63635
-413,-468,0.997925,1.64075,0.0188183,-0.0131602,-0.000720736,0.0188345,-0.0131764,-0.022523,0.0185775,0.0392706,811,1492,0.997903,-1.64071
-406,-468,1.17676,1.67371,0.0237437,-0.0148597,0.000443248,0.0237488,-0.0148648,0.0114801,0.0224894,0.046219,818,1492,1.17673,-1.67374
-399,-468,1.36847,1.71045,0.0305458,-0.0168234,0.0028752,0.0307197,-0.0169972,0.0604022,0.0279265,0.0436574,825,1492,1.36846,-1.71041
-392,-468,1.76575,1.70569,0.0378582,-0.018961,0.00559751,0.0384044,-0.0195072,0.0972685,0.0340235,0.0448912,832,1492,1.76577,-1.7057
-385,-468,2.25323,1.09827,0.0476254,-0.0217759,0.00920355,0.0488252,-0.0229756,0.129629,0.0423402,0.049327,839,1492,2.25322,-1.09833
-378,-468,2.38733,1.31909,0,0,0,0,0,0,0,-1,846,1492,2.38733,-1.31905
-371,-468,0.512085,-1.34155,0,0,0,0,0,0,0,-1,853,1492,0.512068,1.34153
-364,-468,0.235413,-1.63416,0,0,0,0,0,0,0,-1,860,1492,0.23541,1.63414
-357,-468,-0.126953,-1.7666,0,0,0,0,0,0,0,-1,867,1492,-0.126957,1.76655
-350,-468,-2.59351,-0.218384,0,0,0,0,0,0,0,-1,874,1492,-2.59353,0.218362
-343,-468,0,0,0,0,0,0,0,0,0,-1,881,1492,0,0
-336,-468,0,0,0,0,0,0,0,0,0,-1,888,1492,0,0
-329,-468,0,0,0,0,0,0,0,0,0,-1,895,1492,0,0
-322,-468,0,0,0,0,0,0,0,0,0,-1,902,1492,0,0
-315,-468,0,0,0,0,0,0,0,0,0,-1,909,1492,0,0
-308,-468,0,0,0,0,0,0,0,0,0,-1,916,1492,0,0
-301,-468,0,0,0,0,0,0,0,0,0,-1,923,1492,0,0
-294,-468,0,0,0,0,0,0,0,0,0,-1,930,1492,0,0
-287,-468,0,0,0,0,0,0,0,0,0,-1,937,1492,0,0
-280,-468,0,0,0,0,0,0,0,0,0,-1,944,1492,0,0
-273,-468,0,0,0,0,0,0,0,0,0,-1,951,1492,0,0
-266,-468,0,0,0,0,0,0,0,0,0,-1,958,1492,0,0
-259,-468,0,0,0,0,0,0,0,0,0,-1,965,1492,0,0
-252,-468,0,0,0,0,0,0,0,0,0,-1,972,1492,0,0
-245,-468,0,0,0,0,0,0,0,0,0,-1,979,1492,0,0
-238,-468,0,0,0,0,0,0,0,0,0,-1,986,1492,0,0
-231,-468,0,0,0,0,0,0,0,0,0,-1,993,1492,0,0
-224,-468,0,0,0,0,0,0,0,0,0,-1,1000,1492,0,0
-217,-468,0,0,0,0,0,0,0,0,0,-1,1007,1492,0,0
-210,-468,0,0,0,0,0,0,0,0,0,-1,1014,1492,0,0
-203,-468,0,0,0,0,0,0,0,0,0,-1,1021,1492,0,0
-196,-468,0,0,0,0,0,0,0,0,0,-1,1028,1492,0,0
-189,-468,0,0,0,0,0,0,0,0,0,-1,1035,1492,0,0
-182,-468,0,0,0,0,0,0,0,0,0,-1,1042,1492,0,0
-175,-468,0,0,0,0,0,0,0,0,0,-1,1049,1492,0,0
-168,-468,0,0,0,0,0,0,0,0,0,-1,1056,1492,0,0
-161,-468,0,0,0,0,0,0,0,0,0,-1,1063,1492,0,0
-154,-468,0,0,0,0,0,0,0,0,0,-1,1070,1492,0,0
-147,-468,0,0,0,0,0,0,0,0,0,-1,1077,1492,0,0
-140,-468,0,0,0,0,0,0,0,0,0,-1,1084,1492,0,0
-133,-468,0,0,0,0,0,0,0,0,0,-1,1091,1492,0,0
-126,-468,0,0,0,0,0,0,0,0,0,-1,1098,1492,0,0
-119,-468,0,0,0,0,0,0,0,0,0,-1,1105,1492,0,0
-112,-468,0,0,0,0,0,0,0,0,0,-1,1112,1492,0,0
-105,-468,0,0,0,0,0,0,0,0,0,-1,1119,1492,0,0
-98,-468,0,0,0,0,0,0,0,0,0,-1,1126,1492,0,0
-91,-468,0,0,0,0,0,0,0,0,0,-1,1133,1492,0,0
-84,-468,0,0,0,0,0,0,0,0,0,-1,1140,1492,0,0
-77,-468,0,0,0,0,0,0,0,0,0,-1,1147,1492,0,0
-70,-468,0,0,0,0,0,0,0,0,0,-1,1154,1492,0,0
-63,-468,0,0,0,0,0,0,0,0,0,-1,1161,1492,0,0
-56,-468,0,0,0,0,0,0,0,0,0,-1,1168,1492,0,0
-49,-468,0,0,0,0,0,0,0,0,0,-1,1175,1492,0,0
-42,-468,0,0,0,0,0,0,0,0,0,-1,1182,1492,0,0
-35,-468,0,0,0,0,0,0,0,0,0,-1,1189,1492,0,0
-28,-468,0,0,0,0,0,0,0,0,0,-1,1196,1492,0,0
-21,-468,0,0,0,0,0,0,0,0,0,-1,1203,1492,0,0
-14,-468,0,0,0,0,0,0,0,0,0,-1,1210,1492,0,0
-7,-468,0,0,0,0,0,0,0,0,0,-1,1217,1492,0,0
0,-468,0,0,0,0,0,0,0,0,0,-1,1224,1492,0,0
7,-468,0,0,0,0,0,0,0,0,0,-1,1231,1492,0,0
14,-468,0,0,0,0,0,0,0,0,0,-1,1238,1492,0,0
21,-468,0,0,0,0,0,0,0,0,0,-1,1245,1492,0,0
28,-468,0,0,0,0,0,0,0,0,0,-1,1252,1492,0,0
35,-468,0,0,0,0,0,0,0,0,0,-1,1259,1492,0,0
42,-468,0,0,0,0,0,0,0,0,0,-1,1266,1492,0,0
49,-468,0,0,0,0,0,0,0,0,0,-1,1273,1492,0,0
56,-468,0,0,0,0,0,0,0,0,0,-1,1280,1492,0,0
63,-468,0,0,0,0,0,0,0,0,0,-1,1287,1492,0,0
70,-468,0,0,0,0,0,0,0,0,0,-1,1294,1492,0,0
77,-468,0,0,0,0,0,0,0,0,0,-1,1301,1492,0,0
84,-468,0,0,0,0,0,0,0,0,0,-1,1308,1492,0,0
91,-468,0,0,0,0,0,0,0,0,0,-1,1315,1492,0,0
98,-468,0,0,0,0,0,0,0,0,0,-1,1322,1492,0,0
105,-468,0,0,0,0,0,0,0,0,0,-1,1329,1492,0,0
112,-468,0,0,0,0,0,0,0,0,0,-1,1336,1492,0,0
119,-468,0,0,0,0,0,0,0,0,0,-1,1343,1492,0,0
126,-468,0,0,0,0,0,0,0,0,0,-1,1350,1492,0,0
133,-468,0,0,0,0,0,0,0,0,0,-1,1357,1492,0,0
140,-468,0,0,0,0,0,0,0,0,0,-1,1364,1492,0,0
147,-468,0,0,0,0,0,0,0,0,0,-1,1371,1492,0,0
154,-468,0,0,0,0,0,0,0,0,0,-1,1378,1492,0,0
161,-468,0,0,0,0,0,0,0,0,0,-1,1385,1492,0,0
168,-468,0,0,0,0,0,0,0,0,0,-1,1392,1492,0,0
175,-468,0,0,0,0,0,0,0,0,0,-1,1399,1492,0,0
182,-468,0,0,0,0,0,0,0,0,0,-1,1406,1492,0,0
189,-468,0,0,0,0,0,0,0,0,0,-1,1413,1492,0,0
196,-468,0,0,0,0,0,0,0,0,0,-1,1420,1492,0,0
203,-468,0,0,0,0,0,0,0,0,0,-1,1427,1492,0,0
210,-468,0,0,0,0,0,0,0,0,0,-1,1434,1492,0,0
217,-468,0,0,0,0,0,0,0,0,0,-1,1441,1492,0,0
224,-468,0,0,0,0,0,0,0,0,0,-1,1448,1492,0,0
231,-468,0,0,0,0,0,0,0,0,0,-1,1455,1492,0,0
238,-468,0,0,0,0,0,0,0,0,0,-1,1462,1492,0,0
245,-468,0,0,0,0,0,0,0,0,0,-1,1469,1492,0,0
252,-468,0,0,0,0,0,0,0,0,0,-1,1476,1492,0,0
259,-468,0,0,0,0,0,0,0,0,0,-1,1483,1492,0,0
266,-468,0,0,0,0,0,0,0,0,0,-1,1490,1492,0,0
273,-468,0,0,0,0,0,0,0,0,0,-1,1497,1492,0,0
280,-468,0,0,0,0,0,0,0,0,0,-1,1504,1492,0,0
287,-468,0,0,0,0,0,0,0,0,0,-1,1511,1492,0,0
294,-468,0,0,0,0,0,0,0,0,0,-1,1518,1492,0,0
301,-468,0,0,0,0,0,0,0,0,0,-1,1525,1492,0,0
308,-468,0,0,0,0,0,0,0,0,0,-1,1532,1492,0,0
315,-468,0,0,0,0,0,0,0,0,0,-1,1539,1492,0,0
322,-468,0,0,0,0,0,0,0,0,0,-1,1546,1492,0,0
329,-468,0,0,0,0,0,0,0,0,0,-1,1553,1492,0,0
336,-468,0,0,0,0,0,0,0,0,0,-1,1560,1492,0,0
343,-468,0,0,0,0,0,0,0,0,0,-1,1567,1492,0,0
350,-468,0,0,0,0,0,0,0,0,0,-1,1574,1492,0,0
357,-468,0,0,0,0,0,0,0,0,0,-1,1581,1492,0,0
364,-468,0,0,0,0,0,0,0,0,0,-1,1588,1492,0,0
371,-468,0,0,0,0,0,0,0,0,0,-1,1595,1492,0,0
378,-468,0,0,0,0,0,0,0,0,0,-1,1602,1492,0,0
385,-468,0,0,0,0,0,0,0,0,0,-1,1609,1492,0,0
392,-468,0,0,0,0,0,0,0,0,0,-1,1616,1492,0,0
399,-468,0,0,0,0,0,0,0,0,0,-1,1623,1492,0,0
406,-468,0,0,0,0,0,0,0,0,0,-1,1630,1492,0,0
413,-468,0,0,0,0,0,0,0,0,0,-1,1637,1492,0,0
420,-468,0,0,0,0,0,0,0,0,0,-1,1644,1492,0,0
427,-468,0,0,0,0,0,0,0,0,0,-1,1651,1492,0,0
434,-468,0,0,0,0,0,0,0,0,0,-1,1658,1492,0,0
441,-468,0,0,0,0,0,0,0,0,0,-1,1665,1492,0,0
448,-468,0,0,0,0,0,0,0,0,0,-1,1672,1492,0,0
455,-468,0,0,0,0,0,0,0,0,0,-1,1679,1492,0,0
462,-468,0,0,0,0,0,0,0,0,0,-1,1686,1492,0,0
469,-468,3.63989,3.26282,0,0,0,0,0,0,0,-1,1693,1492,3.63992,-3.26288
476,-468,7.23132,0.47522,0,0,0,0,0,0,0,-1,1700,1492,7.23135,-0.475248
483,-468,7.66418,1.93665,0,0,0,0,0,0,0,-1,1707,1492,7.66422,-1.93659
490,-468,3.67676,2.08044,0,0,0,0,0,0,0,-1,1714,1492,3.67681,-2.0805
497,-468,3.66064,1.53674,0,0,0,0,0,0,0,-1,1721,1492,3.66068,-1.53671
504,-468,3.52173,1.09692,0,0,0,0,0,0,0,-1,1728,1492,3.52168,-1.09687
511,-468,1.72827,0.550781,0,0,0,0,0,0,0,-1,1735,1492,1.72832,-0.550815
518,-468,1.6842,1.12939,0.0147708,0.0265429,0.0313747,0.0525789,-0.0112653,0.878122,0.0393489,0.0452127,1742,1492,1.68419,-1.12935
525,-468,1.87378,1.37354,0.0129259,0.0214833,0.0230369,0.0406354,-0.00622627,0.877218,0.0293864,0.0447874,1749,1492,1.87375,-1.37347
532,-468,2.19702,1.56177,0.0118281,0.017656,0.0139923,0.0290345,0.000449572,0.888057,0.0192082,0.0452822,1756,1492,2.19708,-1.56175
539,-468,3.17749,1.84204,0.0104664,0.0127032,0.0073765,0.0190456,0.00412403,0.860632,0.0115701,0.0496904,1763,1492,3.17754,-1.84201
546,-468,3.40173,2.37537,0.00836921,0.0100954,0.00564033,0.0149383,0.00352631,0.861319,0.00901628,0.0477902,1770,1492,3.40172,-2.3754
553,-468,3.11731,1.677,0.00613787,0.00783827,0.0046623,0.0117273,0.00224889,0.875585,0.0071868,0.0325452,1777,1492,3.11732,-1.67696
560,-468,3.23853,1.72559,0.00424533,0.0059048,0.0038912,0.00905374,0.00109638,0.890441,0.00570559,0.0146295,1784,1492,3.23854,-1.72563
567,-468,3.26453,1.71655,0.00266066,0.00433961,0.00333041,0.00693471,6.55511e-05,0.908858,0.00460145,0.012191,1791,1492,3.26448,-1.71656
574,-468,3.28027,1.67773,0.00143504,0.00276205,0.00277198,0.00494882,-0.000751735,0.902868,0.00357623,0.0122718,1798,1492,3.28024,-1.67773
581,-468,3.27136,1.62598,0.000459074,0.00145167,0.00240327,0.00340935,-0.00149861,0.887222,0.00290431,0.0131126,1805,1492,3.2714,-1.626
588,-468,3.26123,1.57019,-0.000317871,0.000616135,0.00200136,0.00220425,-0.00190599,0.900019,0.00237513,0.012027,1812,1492,3.2612,-1.57022
595,-468,3.25928,1.55261,-0.00069202,-0.000600041,0.00133183,0.000686598,-0.00197866,0.802657,0.00159792,0.0100846,1819,1492,3.25926,-1.55257
602,-468,3.25513,1.50513,-0.000784671,-0.00179978,0.000762416,-0.000376316,-0.00220813,0.491726,0.00136406,0.00917872,1826,1492,3.25512,-1.50511
609,-468,3.23206,1.44751,-0.0012055,-0.00218842,0.000516018,-0.000984351,-0.00240957,0.404883,0.0013989,0.00961201,1833,1492,3.232,-1.44755
616,-468,3.23657,1.42297,-0.00155646,-0.00304581,-5.3977e-05,-0.00155451,-0.00304776,-0.0361788,0.00175974,0.00925979,1840,1492,3.23662,-1.42301
623,-468,3.25085,1.40967,-0.00201086,-0.00383978,-0.000463382,-0.00190015,-0.00395048,-0.234507,0.00228136,0.00986132,1847,1492,3.25085,-1.40964
630,-468,3.25952,1.36523,-0.00272425,-0.00452499,-0.000715473,-0.00247459,-0.00477465,-0.335733,0.00275726,0.0102058,1854,1492,3.25951,-1.36524
637,-468,3.27942,1.33435,-0.00360005,-0.00544246,-0.000866151,-0.0032568,-0.00578571,-0.377302,0.00334918,0.0133835,1861,1492,3.27944,-1.33435
644,-468,3.25085,1.34741,-0.00425668,-0.00619449,-0.00101062,-0.00382553,-0.00662563,-0.403235,0.00384055,0.0215933,1868,1492,3.25084,-1.34741
651,-468,3.25439,1.23962,-0.00433466,-0.00581244,-0.00133228,-0.00355009,-0.00659701,-0.532212,0.00381248,0.0381786,1875,1492,3.25437,-1.23957
658,-468,3.24146,1.05566,-0.0040151,-0.00584794,-0.00243695,-0.00232796,-0.00753509,-0.605552,0.00445499,0.0441164,1882,1492,3.24151,-1.05562
665,-468,3.22449,0.896606,0,0,0,0,0,0,0,-1,1889,1492,3.22453,-0.896573
672,-468,3.4812,1.44849,0,0,0,0,0,0,0,-1,1896,1492,3.48122,-1.44845
679,-468,3.64795,1.25,0,0,0,0,0,0,0,-1,1903,1492,3.64795,-1.25
686,-468,3.00476,0.365845,0,0,0,0,0,0,0,-1,1910,1492,3.00471,-0.365849
693,-468,0,0,0,0,0,0,0,0,0,-1,1917,1492,0,0
700,-468,0,0,0,0,0,0,0,0,0,-1,1924,1492,0,0
707,-468,0,0,0,0,0,0,0,0,0,-1,1931,1492,0,0
714,-468,0,0,0,0,0,0,0,0,0,-1,1938,1492,0,0
721,-468,0,0,0,0,0,0,0,0,0,-1,1945,1492,0,0
728,-468,0,0,0,0,0,0,0,0,0,-1,1952,1492,0,0
735,-468,0,0,0,0,0,0,0,0,0,-1,1959,1492,0,0
742,-468,0,0,0,0,0,0,0,0,0,-1,1966,1492,0,0
749,-468,0,0,0,0,0,0,0,0,0,-1,1973,1492,0,0
756,-468,0,0,0,0,0,0,0,0,0,-1,1980,1492,0,0
763,-468,0,0,0,0,0,0,0,0,0,-1,1987,1492,0,0
770,-468,0,0,0,0,0,0,0,0,0,-1,1994,1492,0,0
777,-468,0,0,0,0,0,0,0,0,0,-1,2001,1492,0,0
784,-468,0,0,0,0,0,0,0,0,0,-1,2008,1492,0,0
791,-468,0,0,0,0,0,0,0,0,0,-1,2015,1492,0,0
798,-468,0,0,0,0,0,0,0,0,0,-1,2022,1492,0,0
805,-468,0,0,0,0,0,0,0,0,0,-1,2029,1492,0,0
812,-468,0,0,0,0,0,0,0,0,0,-1,2036,1492,0,0
-700,-475,0,0,0,0,0,0,0,0,0,-1,524,1499,0,0
-693,-475,0,0,0,0,0,0,0,0,0,-1,531,1499,0,0
-686,-475,0,0,0,0,0,0,0,0,0,-1,538,1499,0,0
-679,-475,0,0,0,0,0,0,0,0,0,-1,545,1499,0,0
-672,-475,0,0,0,0,0,0,0,0,0,-1,552,1499,0,0
-665,-475,0,0,0,0,0,0,0,0,0,-1,559,1499,0,0
-658,-475,0,0,0,0,0,0,0,0,0,-1,566,1499,0,0
-651,-475,0,0,0,0,0,0,0,0,0,-1,573,1499,0,0
-644,-475,0,0,0,0,0,0,0,0,0,-1,580,1499,0,0
-637,-475,0,0,0,0,0,0,0,0,0,-1,587,1499,0,0
-630,-475,0,0,0,0,0,0,0,0,0,-1,594,1499,0,0
-623,-475,0,0,0,0,0,0,0,0,0,-1,601,1499,0,0
-616,-475,0,0,0,0,0,0,0,0,0,-1,608,1499,0,0
-609,-475,0,0,0,0,0,0,0,0,0,-1,615,1499,0,0
-602,-475,0,0,0,0,0,0,0,0,0,-1,622,1499,0,0
-595,-475,0,0,0,0,0,0,0,0,0,-1,629,1499,0,0
-588,-475,0,0,0,0,0,0,0,0,0,-1,636,1499,0,0
-581,-475,0,0,0,0,0,0,0,0,0,-1,643,1499,0,0
-574,-475,0,0,0,0,0,0,0,0,0,-1,650,1499,0,0
-567,-475,0,0,0,0,0,0,0,0,0,-1,657,1499,0,0
-560,-475,-0.848816,-0.265625,0,0,0,0,0,0,0,-1,664,1499,-0.848814,0.265681
-553,-475,0.0305786,-0.112061,0.0687865,0.0136267,0.0154364,0.0728125,0.00960071,0.255129,0.045679,0.0480336,671,1499,0.0305832,0.112101
-546,-475,0.342102,-0.231201,0.0656628,0.0143684,0.0152692,0.069864,0.0101671,0.268499,0.043584,0.042156,678,1499,0.342127,0.231229
-539,-475,0.670471,-0.207031,0,0,0,0,0,0,0,-1,685,1499,0.670499,0.20705
-532,-475,0.885864,-0.824585,0,0,0,0,0,0,0,-1,692,1499,0.885864,0.824552
-525,-475,0.0969849,1.32898,0,0,0,0,0,0,0,-1,699,1499,0.0970047,-1.32903
-518,-475,0.255127,1.27307,0.0366933,0.0107928,0.00892324,0.0394699,0.00801625,0.301667,0.0240899,0.0478324,706,1499,0.255135,-1.27302
-511,-475,0.506165,1.30786,0.029188,0.00895137,0.00703899,0.0313956,0.00674379,0.303907,0.0190839,0.045045,713,1499,0.506192,-1.30781
-504,-475,0.815002,1.31653,0.0218827,0.00675033,0.00534412,0.0235797,0.00505333,0.307476,0.0143354,0.0257663,720,1499,0.815026,-1.31653
-497,-475,0.854553,1.33508,0.0148871,0.00600195,0.00383314,0.0163122,0.00457687,0.355944,0.00971545,0.0116022,727,1499,0.854574,-1.3351
-490,-475,0.842896,1.39075,0.00913716,0.00446867,0.00180867,0.00975587,0.00384995,0.329606,0.00567409,0.00773801,734,1499,0.842914,-1.39071
-483,-475,0.836365,1.43542,0.00468365,0.00259437,0.00046613,0.00478293,0.00249509,0.209849,0.00276229,0.00790418,741,1499,0.836368,-1.43544
-476,-475,0.84259,1.46069,0.00193071,2.04833e-05,-0.000266671,0.00196724,-1.60459e-05,-0.136135,0.00131688,0.00977684,748,1499,0.842612,-1.46066
-469,-475,0.846985,1.48669,0.00096239,-0.00169716,-0.00115228,0.00139217,-0.00212694,-0.357004,0.00204647,0.0117009,755,1499,0.846971,-1.48671
-462,-475,0.861084,1.51941,0.00115267,-0.00252202,-0.00161458,0.00176128,-0.00313063,-0.360477,0.002861,0.0151095,762,1499,0.861066,-1.51937
-455,-475,0.871643,1.58374,0.00189903,-0.00335231,-0.00184466,0.00248223,-0.00393552,-0.306217,0.00373683,0.0135131,769,1499,0.871664,-1.58376
-448,-475,0.864258,1.61987,0.00334606,-0.0044185,-0.00186891,0.00377248,-0.00484492,-0.224326,0.00498809,0.0127383,776,1499,0.864236,-1.61989
-441,-475,0.867371,1.62878,0.00524752,-0.00561777,-0.00193651,0.00558235,-0.00595259,-0.171209,0.00666085,0.0160311,783,1499,0.86739,-1.6288
-434,-475,0.853943,1.65991,0.00744854,-0.00711168,-0.00173802,0.00765313,-0.00731627,-0.117175,0.00864331,0.00997887,790,1499,0.853914,-1.65991
-427,-475,0.857056,1.71069,0.00970606,-0.00862074,-0.00122353,0.00978738,-0.00870207,-0.066369,0.010681,0.0104074,797,1499,0.85704,-1.71074
-420,-475,0.834778,1.75574,0.0121754,-0.0100798,-0.000704716,0.0121977,-0.0101021,-0.031623,0.0128937,0.0137913,804,1499,0.83478,-1.75578
-413,-475,0.875854,1.72363,0.0149484,-0.011645,0.000114785,0.0149489,-0.0116455,0.00431618,0.0153937,0.0285798,811,1499,0.875883,-1.72364
-406,-475,1.15106,1.51123,0.0194646,-0.0132211,0.0010564,0.0194987,-0.0132552,0.0322749,0.0190247,0.0463159,818,1499,1.15104,-1.51128
-399,-475,1.37183,1.48474,0.0260086,-0.0151645,0.00330974,0.026273,-0.0154289,0.0797039,0.0243464,0.0476142,825,1499,1.37183,-1.48469
-392,-475,1.72827,1.58167,0.0330723,-0.0173235,0.00580492,0.0337323,-0.0179835,0.113211,0.0303161,0.0471409,832,1499,1.72828,-1.58162
-385,-475,1.93732,1.36499,0.0425884,-0.0204098,0.00947342,0.0439822,-0.0218036,0.146073,0.0386942,0.04633,839,1499,1.93732,-1.36501
-378,-475,2.02075,1.50269,0.0553638,-0.0239502,0.0141642,0.0578174,-0.0264038,0.171523,0.0497398,0.0482606,846,1499,2.02075,-1.50269
-371,-475,2.25287,1.72412,0,0,0,0,0,0,0,-1,853,1499,2.2529,-1.72414
-364,-475,1.64471,-1.38098,0,0,0,0,0,0,0,-1,860,1499,1.64472,1.381
-357,-475,2.21204,-1.56421,0,0,0,0,0,0,0,-1,867,1499,2.21201,1.56417
-350,-475,-0.953308,-1.08826,0,0,0,0,0,0,0,-1,874,1499,-0.953294,1.08831
-343,-475,-0.804626,-0.297974,0,0,0,0,0,0,0,-1,881,1499,-0.804631,0.29794
-336,-475,0,0,0,0,0,0,0,0,0,-1,888,1499,0,0
-329,-475,0,0,0,0,0,0,0,0,0,-1,895,1499,0,0
-322,-475,0,0,0,0,0,0,0,0,0,-1,902,1499,0,0
-315,-475,0,0,0,0,0,0,0,0,0,-1,909,1499,0,0
-308,-475,0,0,0,0,0,0,0,0,0,-1,916,1499,0,0
-301,-475,0,0,0,0,0,0,0,0,0,-1,923,1499,0,0
-294,-475,0,0,0,0,0,0,0,0,0,-1,930,1499,0,0
-287,-475,0,0,0,0,0,0,0,0,0,-1,937,1499,0,0
-280,-475,0,0,0,0,0,0,0,0,0,-1,944,1499,0,0
-273,-475,0,0,0,0,0,0,0,0,0,-1,951,1499,0,0
-266,-475,0,0,0,0,0,0,0,0,0,-1,958,1499,0,0
-259,-475,0,0,0,0,0,0,0,0,0,-1,965,1499,0,0
-252,-475,0,0,0,0,0,0,0,0,0,-1,972,1499,0,0
-245,-475,0,0,0,0,0,0,0,0,0,-1,979,1499,0,0
-238,-475,0,0,0,0,0,0,0,0,0,-1,986,1499,0,0
-231,-475,0,0,0,0,0,0,0,0,0,-1,993,1499,0,0
-224,-475,0,0,0,0,0,0,0,0,0,-1,1000,1499,0,0
-217,-475,0,0,0,0,0,0,0,0,0,-1,1007,1499,0,0
-210,-475,0,0,0,0,0,0,0,0,0,-1,1014,1499,0,0
-203,-475,0,0,0,0,0,0,0,0,0,-1,1021,1499,0,0
-196,-475,0,0,0,0,0,0,0,0,0,-1,1028,1499,0,0
-189,-475,0,0,0,0,0,0,0,0,0,-1,1035,1499,0,0
-182,-475,0,0,0,0,0,0,0,0,0,-1,1042,1499,0,0
-175,-475,0,0,0,0,0,0,0,0,0,-1,1049,1499,0,0
-168,-475,0,0,0,0,0,0,0,0,0,-1,1056,1499,0,0
-161,-475,0,0,0,0,0,0,0,0,0,-1,1063,1499,0,0
-154,-475,0,0,0,0,0,0,0,0,0,-1,1070,1499,0,0
-147,-475,0,0,0,0,0,0,0,0,0,-1,1077,1499,0,0
-140,-475,0,0,0,0,0,0,0,0,0,-1,1084,1499,0,0
-133,-475,0,0,0,0,0,0,0,0,0,-1,1091,1499,0,0
-126,-475,0,0,0,0,0,0,0,0,0,-1,1098,1499,0,0
-119,-475,0,0,0,0,0,0,0,0,0,-1,1105,1499,0,0
-112,-475,0,0,0,0,0,0,0,0,0,-1,1112,1499,0,0
-105,-475,0,0,0,0,0,0,0,0,0,-1,1119,1499,0,0
-98,-475,0,0,0,0,0,0,0,0,0,-1,1126,1499,0,0
-91,-475,0,0,0,0,0,0,0,0,0,-1,1133,1499,0,0
-84,-475,0,0,0,0,0,0,0,0,0,-1,1140,1499,0,0
-77,-475,0,0,0,0,0,0,0,0,0,-1,1147,1499,0,0
-70,-475,0,0,0,0,0,0,0,0,0,-1,1154,1499,0,0
-63,-475,0,0,0,0,0,0,0,0,0,-1,1161,1499,0,0
-56,-475,0,0,0,0,0,0,0,0,0,-1,1168,1499,0,0
-49,-475,0,0,0,0,0,0,0,0,0,-1,1175,1499,0,0
-42,-475,0,0,0,0,0,0,0,0,0,-1,1182,1499,0,0
-35,-475,0,0,0,0,0,0,0,0,0,-1,1189,1499,0,0
-28,-475,0,0,0,0,0,0,0,0,0,-1,1196,1499,0,0
-21,-475,0,0,0,0,0,0,0,0,0,-1,1203,1499,0,0
-14,-475,0,0,0,0,0,0,0,0,0,-1,1210,1499,0,0
-7,-475,0,0,0,0,0,0,0,0,0,-1,1217,1499,0,0
0,-475,0,0,0,0,0,0,0,0,0,-1,1224,1499,0,0
7,-475,0,0,0,0,0,0,0,0,0,-1,1231,1499,0,0
14,-475,0,0,0,0,0,0,0,0,0,-1,1238,1499,0,0
21,-475,0,0,0,0,0,0,0,0,0,-1,1245,1499,0,0
28,-475,0,0,0,0,0,0,0,0,0,-1,1252,1499,0,0
35,-475,0,0,0,0,0,0,0,0,0,-1,1259,1499,0,0
42,-475,0,0,0,0,0,0,0,0,0,-1,1266,1499,0,0
49,-475,0,0,0,0,0,0,0,0,0,-1,1273,1499,0,0
56,-475,0,0,0,0,0,0,0,0,0,-1,1280,1499,0,0
63,-475,0,0,0,0,0,0,0,0,0,-1,1287,1499,0,0
70,-475,0,0,0,0,0,0,0,0,0,-1,1294,1499,0,0
77,-475,0,0,0,0,0,0,0,0,0,-1,1301,1499,0,0
84,-475,0,0,0,0,0,0,0,0,0,-1,1308,1499,0,0
91,-475,0,0,0,0,0,0,0,0,0,-1,1315,1499,0,0
98,-475,0,0,0,0,0,0,0,0,0,-1,1322,1499,0,0
105,-475,0,0,0,0,0,0,0,0,0,-1,1329,1499,0,0
112,-475,0,0,0,0,0,0,0,0,0,-1,1336,1499,0,0
119,-475,0,0,0,0,0,0,0,0,0,-1,1343,1499,0,0
126,-475,0,0,0,0,0,0,0,0,0,-1,1350,1499,0,0
133,-475,0,0,0,0,0,0,0,0,0,-1,1357,1499,0,0
140,-475,0,0,0,0,0,0,0,0,0,-1,1364,1499,0,0
147,-475,0,0,0,0,0,0,0,0,0,-1,1371,1499,0,0
154,-475,0,0,0,0,0,0,0,0,0,-1,1378,1499,0,0
161,-475,0,0,0,0,0,0,0,0,0,-1,1385,1499,0,0
168,-475,0,0,0,0,0,0,0,0,0,-1,1392,1499,0,0
175,-475,0,0,0,0,0,0,0,0,0,-1,1399,1499,0,0
182,-475,0,0,0,0,0,0,0,0,0,-1,1406,1499,0,0
189,-475,0,0,0,0,0,0,0,0,0,-1,1413,1499,0,0
196,-475,0,0,0,0,0,0,0,0,0,-1,1420,1499,0,0
203,-475,0,0,0,0,0,0,0,0,0,-1,1427,1499,0,0
210,-475,0,0,0,0,0,0,0,0,0,-1,1434,1499,0,0
217,-475,0,0,0,0,0,0,0,0,0,-1,1441,1499,0,0
224,-475,0,0,0,0,0,0,0,0,0,-1,1448,1499,0,0
231,-475,0,0,0,0,0,0,0,0,0,-1,1455,1499,0,0
238,-475,0,0,0,0,0,0,0,0,0,-1,1462,1499,0,0
245,-475,0,0,0,0,0,0,0,0,0,-1,1469,1499,0,0
252,-475,0,0,0,0,0,0,0,0,0,-1,1476,1499,0,0
259,-475,0,0,0,0,0,0,0,0,0,-1,1483,1499,0,0
266,-475,0,0,0,0,0,0,0,0,0,-1,1490,1499,0,0
273,-475,0,0,0,0,0,0,0,0,0,-1,1497,1499,0,0
280,-475,0,0,0,0,0,0,0,0,0,-1,1504,1499,0,0
287,-475,0,0,0,0,0,0,0,0,0,-1,1511,1499,0,0
294,-475,0,0,0,0,0,0,0,0,0,-1,1518,1499,0,0
301,-475,0,0,0,0,0,0,0,0,0,-1,1525,1499,0,0
308,-475,0,0,0,0,0,0,0,0,0,-1,1532,1499,0,0
315,-475,0,0,0,0,0,0,0,0,0,-1,1539,1499,0,0
322,-475,0,0,0,0,0,0,0,0,0,-1,1546,1499,0,0
329,-475,0,0,0,0,0,0,0,0,0,-1,1553,1499,0,0
336,-475,0,0,0,0,0,0,0,0,0,-1,1560,1499,0,0
343,-475,0,0,0,0,0,0,0,0,0,-1,1567,1499,0,0
350,-475,0,0,0,0,0,0,0,0,0,-1,1574,1499,0,0
357,-475,0,0,0,0,0,0,0,0,0,-1,1581,1499,0,0
364,-475,0,0,0,0,0,0,0,0,0,-1,1588,1499,0,0
371,-475,0,0,0,0,0,0,0,0,0,-1,1595,1499,0,0
378,-475,0,0,0,0,0,0,0,0,0,-1,1602,1499,0,0
385,-475,0,0,0,0,0,0,0,0,0,-1,1609,1499,0,0
392,-475,0,0,0,0,0,0,0,0,0,-1,1616,1499,0,0
399,-475,0,0,0,0,0,0,0,0,0,-1,1623,1499,0,0
406,-475,0,0,0,0,0,0,0,0,0,-1,1630,1499,0,0
413,-475,0,0,0,0,0,0,0,0,0,-1,1637,1499,0,0
420,-475,0,0,0,0,0,0,0,0,0,-1,1644,1499,0,0
427,-475,0,0,0,0,0,0,0,0,0,-1,1651,1499,0,0
434,-475,0,0,0,0,0,0,0,0,0,-1,1658,1499,0,0
441,-475,0,0,0,0,0,0,0,0,0,-1,1665,1499,0,0
448,-475,0,0,0,0,0,0,0,0,0,-1,1672,1499,0,0
455,-475,0,0,0,0,0,0,0,0,0,-1,1679,1499,0,0
462,-475,4.85474,-0.0904541,0,0,0,0,0,0,0,-1,1686,1499,4.85474,0.0904991
469,-475,6.34521,0.317139,0,0,0,0,0,0,0,-1,1693,1499,6.34522,-0.317176
476,-475,6.48755,0.467285,0.0215287,0.0536627,0.0785557,0.117778,-0.0425862,0.886272,0.0959186,0.0458708,1700,1499,6.48756,-0.467299
483,-475,6.89404,1.66602,0.0238654,0.0432267,0.0694358,0.103653,-0.0365613,0.854661,0.0839854,0.045463,1707,1499,6.89409,-1.66604
490,-475,7.21008,2.86487,0,0,0,0,0,0,0,-1,1714,1499,7.21009,-2.86492
497,-475,6.26868,2.77466,0,0,0,0,0,0,0,-1,1721,1499,6.26871,-2.77467
504,-475,2.06775,0.492676,0,0,0,0,0,0,0,-1,1728,1499,2.06772,-0.492712
511,-475,2.06543,0.781616,0.0190216,0.0183393,0.0335317,0.0522138,-0.014853,0.780311,0.0406745,0.0441158,1735,1499,2.06541,-0.781579
518,-475,2.06299,1.01599,0.0165556,0.0143087,0.0257168,0.0411735,-0.0103091,0.763569,0.0314537,0.0437875,1742,1499,2.06299,-1.01603
525,-475,2.13562,1.45374,0.0149916,0.0105071,0.0179932,0.0308817,-0.00538298,0.72341,0.0225969,0.0420376,1749,1499,2.13559,-1.45371
532,-475,2.54773,1.72681,0.014055,0.0078183,0.00979021,0.0212115,0.000661803,0.63122,0.0139256,0.041303,1756,1499,2.54768,-1.72685
539,-475,3.1864,1.82996,0.0127121,0.00446895,0.00390616,0.014269,0.00291201,0.379286,0.00870588,0.0447749,1763,1499,3.18639,-1.82991
546,-475,3.16956,1.83179,0.0104847,0.0034591,0.00246703,0.0112644,0.00267935,0.306134,0.00679493,0.0364544,1770,1499,3.16959,-1.83181
553,-475,3.17163,1.77979,0.00808228,0.00270619,0.00187031,0.00866893,0.00211954,0.303946,0.00521829,0.0180975,1777,1499,3.17164,-1.7798
560,-475,3.17859,1.74365,0.00601195,0.00212458,0.00149912,0.00652291,0.00161362,0.32849,0.00392296,0.012674,1784,1499,3.17863,-1.74365
567,-475,3.23059,1.70679,0.0042618,0.00168691,0.00133471,0.00482881,0.00111991,0.401711,0.00291843,0.0122153,1791,1499,3.23057,-1.70684
574,-475,3.24463,1.68188,0.00298353,0.0010526,0.00120053,0.00355865,0.000477485,0.446751,0.00223037,0.0122968,1798,1499,3.24457,-1.68188
581,-475,3.22864,1.63611,0.00198438,0.000442938,0.00119015,0.00263157,-0.000204251,0.498062,0.00182627,0.0115196,1805,1499,3.22862,-1.63606
588,-475,3.21631,1.5946,0.00120543,0.000168478,0.00116985,0.00196656,-0.000592644,0.576806,0.0015469,0.0105151,1812,1499,3.21631,-1.59455
595,-475,3.22681,1.56628,0.000770569,-0.00052697,0.000864893,0.00120298,-0.000959376,0.463611,0.00125107,0.0109738,1819,1499,3.22676,-1.5663
602,-475,3.22974,1.51038,0.000605882,-0.00144109,0.000550042,0.00074432,-0.00157953,0.246566,0.00137026,0.0129699,1826,1499,3.22976,-1.51041
609,-475,3.21558,1.45984,0.000176456,-0.00182164,0.000425569,0.000263321,-0.0019085,0.201348,0.00136858,0.0114643,1833,1499,3.21552,-1.45986
616,-475,3.21692,1.44641,-0.00024855,-0.00273581,-9.9466e-05,-0.000244578,-0.00273978,-0.0399052,0.0017507,0.0101733,1840,1499,3.2169,-1.44635
623,-475,3.2074,1.41199,-0.000859995,-0.00370064,-0.000563087,-0.000752449,-0.00380819,-0.188721,0.00232885,0.0105688,1847,1499,3.20734,-1.41197
630,-475,3.20605,1.37097,-0.00184659,-0.0047298,-0.00104226,-0.00150928,-0.00506711,-0.312994,0.00300413,0.0122329,1854,1499,3.20604,-1.37099
637,-475,3.24084,1.36975,-0.00311541,-0.00601168,-0.00161284,-0.00239598,-0.00673111,-0.419577,0.0039396,0.0216642,1861,1499,3.24085,-1.36969
644,-475,3.18262,1.43152,-0.00436049,-0.0071804,-0.00233739,-0.00304073,-0.00850016,-0.514007,0.00497336,0.0407197,1868,1499,3.18266,-1.43148
651,-475,2.76917,1.28149,-0.00518108,-0.00735486,-0.00336553,-0.00273128,-0.00980465,-0.629211,0.00584283,0.0492682,1875,1499,2.76919,-1.28152
658,-475,2.65527,1.07275,-0.00564851,-0.00776501,-0.00520155,-0.00139865,-0.0120149,-0.685043,0.00758679,0.0465648,1882,1499,2.65525,-1.07276
665,-475,2.55383,0.906738,0,0,0,0,0,0,0,-1,1889,1499,2.55388,-0.906718
672,-475,3.54504,1.54675,0,0,0,0,0,0,0,-1,1896,1499,3.54499,-1.54672
679,-475,2.948,-0.445068,0,0,0,0,0,0,0,-1,1903,1499,2.94801,0.445017
686,-475,0,0,0,0,0,0,0,0,0,-1,1910,1499,0,0
693,-475,0,0,0,0,0,0,0,0,0,-1,1917,1499,0,0
700,-475,0,0,0,0,0,0,0,0,0,-1,1924,1499,0,0
707,-475,0,0,0,0,0,0,0,0,0,-1,1931,1499,0,0
714,-475,0,0,0,0,0,0,0,0,0,-1,1938,1499,0,0
721,-475,0,0,0,0,0,0,0,0,0,-1,1945,1499,0,0
728,-475,0,0,0,0,0,0,0,0,0,-1,1952,1499,0,0
735,-475,0,0,0,0,0,0,0,0,0,-1,1959,1499,0,0
742,-475,0,0,0,0,0,0,0,0,0,-1,1966,1499,0,0
749,-475,0,0,0,0,0,0,0,0,0,-1,1973,1499,0,0
756,-475,0,0,0,0,0,0,0,0,0,-1,1980,1499,0,0
763,-475,0,0,0,0,0,0,0,0,0,-1,1987,1499,0,0
770,-475,0,0,0,0,0,0,0,0,0,-1,1994,1499,0,0
777,-475,0,0,0,0,0,0,0,0,0,-1,2001,1499,0,0
784,-475,0,0,0,0,0,0,0,0,0,-1,2008,1499,0,0
791,-475,0,0,0,0,0,0,0,0,0,-1,2015,1499,0,0
798,-475,0,0,0,0,0,0,0,0,0,-1,2022,1499,0,0
805,-475,0,0,0,0,0,0,0,0,0,-1,2029,1499,0,0
812,-475,0,0,0,0,0,0,0,0,0,-1,2036,1499,0,0
-700,-482,0,0,0,0,0,0,0,0,0,-1,524,1506,0,0
-693,-482,0,0,0,0,0,0,0,0,0,-1,531,1506,0,0
-686,-482,0,0,0,0,0,0,0,0,0,-1,538,1506,0,0
-679,-482,0,0,0,0,0,0,0,0,0,-1,545,1506,0,0
-672,-482,0,0,0,0,0,0,0,0,0,-1,552,1506,0,0
-665,-482,0,0,0,0,0,0,0,0,0,-1,559,1506,0,0
-658,-482,0,0,0,0,0,0,0,0,0,-1,566,1506,0,0
-651,-482,0,0,0,0,0,0,0,0,0,-1,573,1506,0,0
-644,-482,0,0,0,0,0,0,0,0,0,-1,580,1506,0,0
-637,-482,0,0,0,0,0,0,0,0,0,-1,587,1506,0,0
-630,-482,0,0,0,0,0,0,0,0,0,-1,594,1506,0,0
-623,-482,0,0,0,0,0,0,0,0,0,-1,601,1506,0,0
-616,-482,0,0,0,0,0,0,0,0,0,-1,608,1506,0,0
-609,-482,0,0,0,0,0,0,0,0,0,-1,615,1506,0,0
-602,-482,0,0,0,0,0,0,0,0,0,-1,622,1506,0,0
-595,-482,0,0,0,0,0,0,0,0,0,-1,629,1506,0,0
-588,-482,0,0,0,0,0,0,0,0,0,-1,636,1506,0,0
-581,-482,0,0,0,0,0,0,0,0,0,-1,643,1506,0,0
-574,-482,0,0,0,0,0,0,0,0,0,-1,650,1506,0,0
-567,-482,0,0,0,0,0,0,0,0,0,-1,657,1506,0,0
-560,-482,0,0,0,0,0,0,0,0,0,-1,664,1506,0,0
-553,-482,-0.502869,0.110352,0.0827002,0.0175368,0.0158592,0.086355,0.013882,0.226496,0.0535459,0.0458676,671,1506,-0.502839,-0.110401
-546,-482,0.0621948,-0.0375977,0.0793533,0.0200025,0.0155509,0.083181,0.0161747,0.241345,0.050926,0.0452907,678,1506,0.0622094,0.0376282
-539,-482,0.556213,0.23877,0.0728716,0.0207269,0.014153,0.0764653,0.0171332,0.248662,0.046334,0.0454764,685,1506,0.556216,-0.238776
-532,-482,1.12006,0.31604,0,0,0,0,0,0,0,-1,692,1506,1.12003,-0.315984
-525,-482,0.0344238,1.84802,0,0,0,0,0,0,0,-1,699,1506,0.0344527,-1.84808
-518,-482,0.234558,1.19873,0,0,0,0,0,0,0,-1,706,1506,0.234556,-1.19875
-511,-482,0.752197,1.04163,0,0,0,0,0,0,0,-1,713,1506,0.752218,-1.04164
-504,-482,0.885376,1.14734,0.0259904,0.0101061,0.00551895,0.0277197,0.00837683,0.303645,0.0164161,0.0405822,720,1506,0.885388,-1.14734
-497,-482,0.909424,1.30383,0.017856,0.00881149,0.00406528,0.0194146,0.00725285,0.366117,0.0113279,0.0217431,727,1506,0.909427,-1.30388
-490,-482,0.877625,1.36328,0.0109625,0.00673898,0.00210551,0.0118328,0.00586868,0.39196,0.00683173,0.0117907,734,1506,0.877654,-1.36323
-483,-482,0.871582,1.42102,0.00545165,0.00415876,0.000849432,0.00587264,0.00373776,0.460135,0.00343241,0.008317,741,1506,0.871593,-1.421
-476,-482,0.885925,1.4519,0.00187515,0.00084912,0.000233551,0.00192581,0.000798459,0.213605,0.00111726,0.00992685,748,1506,0.8859,-1.4519
-469,-482,0.88916,1.48486,0.000475247,-0.00108074,-0.000532914,0.000640265,-0.00124576,-0.300288,0.00110744,0.0106637,755,1506,0.889135,-1.48481
-462,-482,0.905518,1.51184,0.00051962,-0.00177386,-0.000927572,0.000847804,-0.00210205,-0.340065,0.00175366,0.0107332,762,1506,0.905542,-1.5118
-455,-482,0.905579,1.56018,0.00110006,-0.00249458,-0.00110879,0.00141456,-0.00280907,-0.276381,0.00248243,0.0111682,769,1506,0.905549,-1.56012
-448,-482,0.902283,1.62781,0.00232604,-0.00338385,-0.00109183,0.0025277,-0.00358551,-0.182637,0.00354703,0.0119215,776,1506,0.902295,-1.62779
-441,-482,0.892883,1.65051,0.00388539,-0.00441436,-0.0011143,0.00403239,-0.00456136,-0.131163,0.00496473,0.0118898,783,1506,0.892882,-1.65054
-434,-482,0.89093,1.69861,0.00571905,-0.00568842,-0.000908511,0.00579095,-0.00576032,-0.0789783,0.00666914,0.0139457,790,1506,0.890944,-1.69861
-427,-482,0.904541,1.7522,0.00759303,-0.00699361,-0.000454523,0.00760718,-0.00700776,-0.03112,0.0084403,0.0160507,797,1506,0.904569,-1.75222
-420,-482,0.886292,1.7948,0.00956968,-0.00821843,-3.79002e-05,0.00956976,-0.00821852,-0.00213064,0.0102799,0.0175876,804,1506,0.886291,-1.79479
-413,-482,0.892151,1.79004,0.0117904,-0.00958518,0.000626956,0.0118088,-0.00960355,0.0292969,0.0123843,0.0194769,811,1506,0.892147,-1.79006
-406,-482,1.02563,1.63916,0.0159459,-0.0110107,0.00134369,0.0160127,-0.0110775,0.0496824,0.0157268,0.034727,818,1506,1.02562,-1.63912
-399,-482,1.25183,1.43896,0.0221785,-0.0128835,0.00339769,0.0225048,-0.0132098,0.0957183,0.0208513,0.0421662,825,1506,1.25183,-1.439
-392,-482,1.4173,1.45093,0.028847,-0.0150194,0.00564756,0.0295624,-0.0157348,0.126007,0.0265554,0.0462369,832,1506,1.41728,-1.45093
-385,-482,1.54767,1.60425,0.0378428,-0.0181226,0.00917402,0.0393082,-0.0195881,0.158402,0.0346333,0.0449319,839,1506,1.54764,-1.6043
-378,-482,1.72913,1.67542,0.0498554,-0.0215835,0.0136075,0.0523596,-0.0240877,0.181991,0.0451317,0.0422591,846,1506,1.72915,-1.67541
-371,-482,1.21216,1.93665,0,0,0,0,0,0,0,-1,853,1506,1.21213,-1.93659
-364,-482,0.707031,2.49377,0,0,0,0,0,0,0,-1,860,1506,0.707025,-2.49375
-357,-482,6.26459,0.116455,0,0,0,0,0,0,0,-1,867,1506,6.26457,-0.116503
-350,-482,7.15186,-0.126709,0,0,0,0,0,0,0,-1,874,1506,7.15183,0.126717
-343,-482,-0.278076,-0.281006,0,0,0,0,0,0,0,-1,881,1506,-0.278057,0.280983
-336,-482,-0.130981,0.0961914,0,0,0,0,0,0,0,-1,888,1506,-0.130966,-0.0961953
-329,-482,0,0,0,0,0,0,0,0,0,-1,895,1506,0,0
-322,-482,0,0,0,0,0,0,0,0,0,-1,902,1506,0,0
-315,-482,0,0,0,0,0,0,0,0,0,-1,909,1506,0,0
-308,-482,0,0,0,0,0,0,0,0,0,-1,916,1506,0,0
-301,-482,0,0,0,0,0,0,0,0,0,-1,923,1506,0,0
-294,-482,0,0,0,0,0,0,0,0,0,-1,930,1506,0,0
-287,-482,0,0,0,0,0,0,0,0,0,-1,937,1506,0,0
-280,-482,0,0,0,0,0,0,0,0,0,-1,944,1506,0,0
-273,-482,0,0,0,0,0,0,0,0,0,-1,951,1506,0,0
-266,-482,0,0,0,0,0,0,0,0,0,-1,958,1506,0,0
-259,-482,0,0,0,0,0,0,0,0,0,-1,965,1506,0,0
-252,-482,0,0,0,0,0,0,0,0,0,-1,972,1506,0,0
-245,-482,0,0,0,0,0,0,0,0,0,-1,979,1506,0,0
-238,-482,0,0,0,0,0,0,0,0,0,-1,986,1506,0,0
-231,-482,0,0,0,0,0,0,0,0,0,-1,993,1506,0,0
-224,-482,0,0,0,0,0,0,0,0,0,-1,1000,1506,0,0
-217,-482,0,0,0,0,0,0,0,0,0,-1,1007,1506,0,0
-210,-482,0,0,0,0,0,0,0,0,0,-1,1014,1506,0,0
-203,-482,0,0,0,0,0,0,0,0,0,-1,1021,1506,0,0
-196,-482,0,0,0,0,0,0,0,0,0,-1,1028,1506,0,0
-189,-482,0,0,0,0,0,0,0,0,0,-1,1035,1506,0,0
-182,-482,0,0,0,0,0,0,0,0,0,-1,1042,1506,0,0
-175,-482,0,0,0,0,0,0,0,0,0,-1,1049,1506,0,0
-168,-482,0,0,0,0,0,0,0,0,0,-1,1056,1506,0,0
-161,-482,0,0,0,0,0,0,0,0,0,-1,1063,1506,0,0
-154,-482,0,0,0,0,0,0,0,0,0,-1,1070,1506,0,0
-147,-482,0,0,0,0,0,0,0,0,0,-1,1077,1506,0,0
-140,-482,0,0,0,0,0,0,0,0,0,-1,1084,1506,0,0
-133,-482,0,0,0,0,0,0,0,0,0,-1,1091,1506,0,0
-126,-482,0,0,0,0,0,0,0,0,0,-1,1098,1506,0,0
-119,-482,0,0,0,0,0,0,0,0,0,-1,1105,1506,0,0
-112,-482,0,0,0,0,0,0,0,0,0,-1,1112,1506,0,0
-105,-482,0,0,0,0,0,0,0,0,0,-1,1119,1506,0,0
-98,-482,0,0,0,0,0,0,0,0,0,-1,1126,1506,0,0
-91,-482,0,0,0,0,0,0,0,0,0,-1,1133,1506,0,0
-84,-482,0,0,0,0,0,0,0,0,0,-1,1140,1506,0,0
-77,-482,0,0,0,0,0,0,0,0,0,-1,1147,1506,0,0
-70,-482,0,0,0,0,0,0,0,0,0,-1,1154,1506,0,0
-63,-482,0,0,0,0,0,0,0,0,0,-1,1161,1506,0,0
-56,-482,0,0,0,0,0,0,0,0,0,-1,1168,1506,0,0
-49,-482,0,0,0,0,0,0,0,0,0,-1,1175,1506,0,0
-42,-482,0,0,0,0,0,0,0,0,0,-1,1182,1506,0,0
-35,-482,0,0,0,0,0,0,0,0,0,-1,1189,1506,0,0
-28,-482,0,0,0,0,0,0,0,0,0,-1,1196,1506,0,0
-21,-482,0,0,0,0,0,0,0,0,0,-1,1203,1506,0,0
-14,-482,0,0,0,0,0,0,0,0,0,-1,1210,1506,0,0
-7,-482,0,0,0,0,0,0,0,0,0,-1,1217,1506,0,0
0,-482,0,0,0,0,0,0,0,0,0,-1,1224,1506,0,0
7,-482,0,0,0,0,0,0,0,0,0,-1,1231,1506,0,0
14,-482,0,0,0,0,0,0,0,0,0,-1,1238,1506,0,0
21,-482,0,0,0,0,0,0,0,0,0,-1,1245,1506,0,0
28,-482,0,0,0,0,0,0,0,0,0,-1,1252,1506,0,0
35,-482,0,0,0,0,0,0,0,0,0,-1,1259,1506,0,0
42,-482,0,0,0,0,0,0,0,0,0,-1,1266,1506,0,0
49,-482,0,0,0,0,0,0,0,0,0,-1,1273,1506,0,0
56,-482,0,0,0,0,0,0,0,0,0,-1,1280,1506,0,0
63,-482,0,0,0,0,0,0,0,0,0,-1,1287,1506,0,0
70,-482,0,0,0,0,0,0,0,0,0,-1,1294,1506,0,0
77,-482,0,0,0,0,0,0,0,0,0,-1,1301,1506,0,0
84,-482,0,0,0,0,0,0,0,0,0,-1,1308,1506,0,0
91,-482,0,0,0,0,0,0,0,0,0,-1,1315,1506,0,0
98,-482,0,0,0,0,0,0,0,0,0,-1,1322,1506,0,0
105,-482,0,0,0,0,0,0,0,0,0,-1,1329,1506,0,0
112,-482,0,0,0,0,0,0,0,0,0,-1,1336,1506,0,0
119,-482,0,0,0,0,0,0,0,0,0,-1,1343,1506,0,0
126,-482,0,0,0,0,0,0,0,0,0,-1,1350,1506,0,0
133,-482,0,0,0,0,0,0,0,0,0,-1,1357,1506,0,0
140,-482,0,0,0,0,0,0,0,0,0,-1,1364,1506,0,0
147,-482,0,0,0,0,0,0,0,0,0,-1,1371,1506,0,0
154,-482,0,0,0,0,0,0,0,0,0,-1,1378,1506,0,0
161,-482,0,0,0,0,0,0,0,0,0,-1,1385,1506,0,0
168,-482,0,0,0,0,0,0,0,0,0,-1,1392,1506,0,0
175,-482,0,0,0,0,0,0,0,0,0,-1,1399,1506,0,0
182,-482,0,0,0,0,0,0,0,0,0,-1,1406,1506,0,0
189,-482,0,0,0,0,0,0,0,0,0,-1,1413,1506,0,0
196,-482,0,0,0,0,0,0,0,0,0,-1,1420,1506,0,0
203,-482,0,0,0,0,0,0,0,0,0,-1,1427,1506,0,0
210,-482,0,0,0,0,0,0,0,0,0,-1,1434,1506,0,0
217,-482,0,0,0,0,0,0,0,0,0,-1,1441,1506,0,0
224,-482,0,0,0,0,0,0,0,0,0,-1,1448,1506,0,0
231,-482,0,0,0,0,0,0,0,0,0,-1,1455,1506,0,0
238,-482,0,0,0,0,0,0,0,0,0,-1,1462,1506,0,0
245,-482,0,0,0,0,0,0,0,0,0,-1,1469,1506,0,0
252,-482,0,0,0,0,0,0,0,0,0,-1,1476,1506,0,0
259,-482,0,0,0,0,0,0,0,0,0,-1,1483,1506,0,0
266,-482,0,0,0,0,0,0,0,0,0,-1,1490,1506,0,0
273,-482,0,0,0,0,0,0,0,0,0,-1,1497,1506,0,0
280,-482,0,0,0,0,0,0,0,0,0,-1,1504,1506,0,0
287,-482,0,0,0,0,0,0,0,0,0,-1,1511,1506,0,0
294,-482,0,0,0,0,0,0,0,0,0,-1,1518,1506,0,0
301,-482,0,0,0,0,0,0,0,0,0,-1,1525,1506,0,0
308,-482,0,0,0,0,0,0,0,0,0,-1,1532,1506,0,0
315,-482,0,0,0,0,0,0,0,0,0,-1,1539,1506,0,0
322,-482,0,0,0,0,0,0,0,0,0,-1,1546,1506,0,0
329,-482,0,0,0,0,0,0,0,0,0,-1,1553,1506,0,0
336,-482,0,0,0,0,0,0,0,0,0,-1,1560,1506,0,0
343,-482,0,0,0,0,0,0,0,0,0,-1,1567,1506,0,0
350,-482,0,0,0,0,0,0,0,0,0,-1,1574,1506,0,0
357,-482,0,0,0,0,0,0,0,0,0,-1,1581,1506,0,0
364,-482,0,0,0,0,0,0,0,0,0,-1,1588,1506,0,0
371,-482,0,0,0,0,0,0,0,0,0,-1,1595,1506,0,0
378,-482,0,0,0,0,0,0,0,0,0,-1,1602,1506,0,0
385,-482,0,0,0,0,0,0,0,0,0,-1,1609,1506,0,0
392,-482,0,0,0,0,0,0,0,0,0,-1,1616,1506,0,0
399,-482,0,0,0,0,0,0,0,0,0,-1,1623,1506,0,0
406,-482,0,0,0,0,0,0,0,0,0,-1,1630,1506,0,0
413,-482,0,0,0,0,0,0,0,0,0,-1,1637,1506,0,0
420,-482,0,0,0,0,0,0,0,0,0,-1,1644,1506,0,0
427,-482,0,0,0,0,0,0,0,0,0,-1,1651,1506,0,0
434,-482,0,0,0,0,0,0,0,0,0,-1,1658,1506,0,0
441,-482,0,0,0,0,0,0,0,0,0,-1,1665,1506,0,0
448,-482,4.81567,0.0505371,0.0130246,0.0794529,0.0458853,0.102884,-0.0104061,1.09868,0.0723078,0.0425111,1672,1506,4.81565,-0.0505569
455,-482,4.98279,-0.0721436,0,0,0,0,0,0,0,-1,1679,1506,4.98284,0.0721001
462,-482,5.45313,-0.123291,0.0155991,0.0613553,0.068691,0.110878,-0.0339235,0.94615,0.087448,0.0447693,1686,1506,5.45313,0.123306
469,-482,5.65698,0.124268,0.0151087,0.0520732,0.0711003,0.107054,-0.0398723,0.912557,0.0877342,0.0455485,1693,1506,5.65702,-0.124285
476,-482,5.56653,0.448853,0.0149948,0.0434448,0.066936,0.0976507,-0.0392111,0.890099,0.0813829,0.0417539,1700,1506,5.56654,-0.448815
483,-482,5.6106,1.1084,0.0167754,0.0348703,0.0606506,0.0871445,-0.0354989,0.859439,0.0728709,0.0410447,1707,1506,5.61056,-1.10837
490,-482,5.50244,1.85815,0,0,0,0,0,0,0,-1,1714,1506,5.50249,-1.85814
497,-482,5.35364,2.22009,0,0,0,0,0,0,0,-1,1721,1506,5.35368,-2.22013
504,-482,3.96289,1.07935,0,0,0,0,0,0,0,-1,1728,1506,3.96288,-1.07938
511,-482,2.41528,1.04578,0,0,0,0,0,0,0,-1,1735,1506,2.41532,-1.04583
518,-482,2.77258,2.16357,0,0,0,0,0,0,0,-1,1742,1506,2.77263,-2.16356
525,-482,2.87561,2.46387,0,0,0,0,0,0,0,-1,1749,1506,2.87563,-2.46391
532,-482,2.8075,1.91992,0.0137319,0.00241154,0.00748346,0.0174547,-0.00131123,0.461618,0.0120973,0.0386577,1756,1506,2.80751,-1.9199
539,-482,3.14685,1.83679,0.0126845,0.000237502,0.00230202,0.0130966,-0.000174604,0.177142,0.00878985,0.0286479,1763,1506,3.14686,-1.8368
546,-482,3.1438,1.82483,0.0106263,0.000140771,0.000964756,0.0107143,5.27441e-05,0.0909903,0.00712537,0.0145305,1770,1506,3.14377,-1.82485
553,-482,3.14575,1.78333,0.00834886,0.000251343,0.000520522,0.00838218,0.000218019,0.0639311,0.00551688,0.0126057,1777,1506,3.14578,-1.78334
560,-482,3.14587,1.73645,0.00637094,0.000504221,0.00030186,0.00638643,0.00048873,0.0512724,0.00410442,0.0117714,1784,1506,3.14588,-1.73646
567,-482,3.19116,1.71741,0.00471692,0.000752882,0.00032279,0.00474303,0.000726769,0.080721,0.00294976,0.0131282,1791,1506,3.1911,-1.71744
574,-482,3.19617,1.69202,0.00359028,0.000800517,0.000415433,0.00365083,0.000739967,0.144731,0.00222856,0.0120556,1798,1506,3.19614,-1.69199
581,-482,3.17542,1.64087,0.00270071,0.000666036,0.000520245,0.00282601,0.000540732,0.236355,0.00173213,0.0099952,1805,1506,3.17541,-1.64089
588,-482,3.17334,1.60046,0.00203231,0.000776639,0.0006299,0.00229383,0.00051512,0.39352,0.00138971,0.011306,1812,1506,3.17328,-1.60042
595,-482,3.17834,1.56702,0.00161068,0.000456995,0.000451494,0.00176636,0.000301311,0.332052,0.00109109,0.0152032,1819,1506,3.1784,-1.56697
602,-482,3.19727,1.52429,0.00140448,-0.000221494,0.000167749,0.00142161,-0.00023862,0.10174,0.00103647,0.0191623,1826,1506,3.19724,-1.52426
609,-482,3.19531,1.47681,0.000993432,-0.00057023,-1.72223e-05,0.000993621,-0.000570419,-0.0110123,0.000913952,0.0147632,1833,1506,3.19537,-1.47678
616,-482,3.18127,1.44214,0.000549988,-0.00150744,-0.000668287,0.000748002,-0.00170545,-0.288059,0.00145201,0.00999062,1840,1506,3.18133,-1.44215
623,-482,3.17236,1.41382,-0.000170586,-0.00263763,-0.00133578,0.000414098,-0.00322231,-0.412588,0.00229871,0.0103281,1847,1506,3.17234,-1.41378
630,-482,3.16919,1.39856,-0.00138173,-0.00401264,-0.00217087,-0.000158858,-0.00523551,-0.513004,0.00343861,0.0196212,1854,1506,3.16922,-1.39853
637,-482,3.18787,1.45032,-0.00303462,-0.00574813,-0.00325905,-0.000861197,-0.00792156,-0.588157,0.00501866,0.0373961,1861,1506,3.18783,-1.45034
644,-482,3.01526,1.55029,-0.00495654,-0.00736467,-0.00468398,-0.00132434,-0.0109969,-0.659591,0.00693209,0.0435641,1868,1506,3.01522,-1.55031
651,-482,2.66504,1.62146,0,0,0,0,0,0,0,-1,1875,1506,2.66498,-1.62149
658,-482,2.24329,1.12854,0,0,0,0,0,0,0,-1,1882,1506,2.24331,-1.12848
665,-482,2.0321,0.98938,0,0,0,0,0,0,0,-1,1889,1506,2.03211,-0.989383
672,-482,2.58069,0.484253,0,0,0,0,0,0,0,-1,1896,1506,2.58063,-0.484262
679,-482,0,0,0,0,0,0,0,0,0,-1,1903,1506,0,0
686,-482,0,0,0,0,0,0,0,0,0,-1,1910,1506,0,0
693,-482,0,0,0,0,0,0,0,0,0,-1,1917,1506,0,0
700,-482,0,0,0,0,0,0,0,0,0,-1,1924,1506,0,0
707,-482,0,0,0,0,0,0,0,0,0,-1,1931,1506,0,0
714,-482,0,0,0,0,0,0,0,0,0,-1,1938,1506,0,0
721,-482,0,0,0,0,0,0,0,0,0,-1,1945,1506,0,0
728,-482,0,0,0,0,0,0,0,0,0,-1,1952,1506,0,0
735,-482,0,0,0,0,0,0,0,0,0,-1,1959,1506,0,0
742,-482,0,0,0,0,0,0,0,0,0,-1,1966,1506,0,0
749,-482,0,0,0,0,0,0,0,0,0,-1,1973,1506,0,0
756,-482,0,0,0,0,0,0,0,0,0,-1,1980,1506,0,0
763,-482,0,0,0,0,0,0,0,0,0,-1,1987,1506,0,0
770,-482,0,0,0,0,0,0,0,0,0,-1,1994,1506,0,0
777,-482,0,0,0,0,0,0,0,0,0,-1,2001,1506,0,0
784,-482,0,0,0,0,0,0,0,0,0,-1,2008,1506,0,0
791,-482,0,0,0,0,0,0,0,0,0,-1,2015,1506,0,0
798,-482,0,0,0,0,0,0,0,0,0,-1,2022,1506,0,0
805,-482,0,0,0,0,0,0,0,0,0,-1,2029,1506,0,0
812,-482,0,0,0,0,0,0,0,0,0,-1,2036,1506,0,0
-700,-489,0,0,0,0,0,0,0,0,0,-1,524,1513,0,0
-693,-489,0,0,0,0,0,0,0,0,0,-1,531,1513,0,0
-686,-489,0,0,0,0,0,0,0,0,0,-1,538,1513,0,0
-679,-489,0,0,0,0,0,0,0,0,0,-1,545,1513,0,0
-672,-489,0,0,0,0,0,0,0,0,0,-1,552,1513,0,0
-665,-489,0,0,0,0,0,0,0,0,0,-1,559,1513,0,0
-658,-489,0,0,0,0,0,0,0,0,0,-1,566,1513,0,0
-651,-489,0,0,0,0,0,0,0,0,0,-1,573,1513,0,0
-644,-489,0,0,0,0,0,0,0,0,0,-1,580,1513,0,0
-637,-489,0,0,0,0,0,0,0,0,0,-1,587,1513,0,0
-630,-489,0,0,0,0,0,0,0,0,0,-1,594,1513,0,0
-623,-489,0,0,0,0,0,0,0,0,0,-1,601,1513,0,0
-616,-489,0,0,0,0,0,0,0,0,0,-1,608,1513,0,0
-609,-489,0,0,0,0,0,0,0,0,0,-1,615,1513,0,0
-602,-489,0,0,0,0,0,0,0,0,0,-1,622,1513,0,0
-595,-489,0,0,0,0,0,0,0,0,0,-1,629,1513,0,0
-588,-489,0,0,0,0,0,0,0,0,0,-1,636,1513,0,0
-581,-489,0,0,0,0,0,0,0,0,0,-1,643,1513,0,0
-574,-489,0,0,0,0,0,0,0,0,0,-1,650,1513,0,0
-567,-489,0,0,0,0,0,0,0,0,0,-1,657,1513,0,0
-560,-489,0,0,0,0,0,0,0,0,0,-1,664,1513,0,0
-553,-489,-0.809998,0.7052,0.0983056,0.0243762,0.0158184,0.101548,0.0211338,0.202175,0.0618692,0.0443292,671,1513,-0.809969,-0.705172
-546,-489,-0.28009,0.187378,0.0948041,0.0292515,0.0152406,0.0981742,0.0258814,0.217624,0.0587542,0.048777,678,1513,-0.280063,-0.187397
-539,-489,0.189453,0.397095,0.0873474,0.0307279,0.0135952,0.0904426,0.0276327,0.223853,0.0535174,0.0484853,685,1513,0.18946,-0.397145
-532,-489,0.80304,0.818848,0,0,0,0,0,0,0,-1,692,1513,0.803046,-0.818854
-525,-489,-0.157532,2.40442,0,0,0,0,0,0,0,-1,699,1513,-0.157541,-2.40443
-518,-489,-0.308472,2.5,0,0,0,0,0,0,0,-1,706,1513,-0.30847,-2.50006
-511,-489,1.30548,1.3512,0,0,0,0,0,0,0,-1,713,1513,1.3055,-1.35123
-504,-489,1.22791,1.43701,0.0304544,0.0150804,0.00535644,0.0321366,0.0133982,0.304294,0.0186392,0.0442244,720,1513,1.22789,-1.43695
-497,-489,0.957458,1.37573,0.0210782,0.0128571,0.0039857,0.0226933,0.0112421,0.384989,0.0131022,0.0361896,727,1513,0.957442,-1.37579
-490,-489,0.911743,1.36353,0.0128747,0.00993798,0.0020918,0.0139621,0.00885062,0.479377,0.0081568,0.018561,734,1513,0.911717,-1.36351
-483,-489,0.91748,1.4104,0.00612935,0.00631993,0.000940377,0.00716983,0.00527945,0.835894,0.00429088,0.00951579,741,1513,0.917462,-1.41034
-476,-489,0.939575,1.43909,0.00158193,0.00198756,0.000481113,0.00230686,0.00126263,0.984876,0.00133386,0.00973361,748,1513,0.939562,-1.43911
-469,-489,0.937378,1.46509,-0.000251511,-0.000277063,-0.000126467,-0.000137177,-0.000391397,-0.735058,0.000229316,0.0104141,755,1513,0.937356,-1.46509
-462,-489,0.958435,1.51147,-0.000205808,-0.000830765,-0.000415351,1.48197e-06,-0.00103806,-0.462905,0.000692531,0.0140587,762,1513,0.958437,-1.51144
-455,-489,0.963806,1.57263,0.000320719,-0.00144189,-0.000523565,0.000464509,-0.00158568,-0.268028,0.00124127,0.0165427,769,1513,0.963778,-1.57265
-448,-489,0.943726,1.61609,0.00139574,-0.00217046,-0.000444946,0.00145042,-0.00222514,-0.12227,0.00213774,0.0149849,776,1513,0.943746,-1.61608
-441,-489,0.93457,1.66492,0.00268297,-0.00305499,-0.000419837,0.00271352,-0.00308555,-0.0726526,0.00335039,0.0135282,783,1513,0.934554,-1.66495
-434,-489,0.949768,1.71912,0.00422585,-0.004115,-0.000220702,0.00423169,-0.00412084,-0.0264357,0.00482247,0.0162293,790,1513,0.949768,-1.71911
-427,-489,0.943604,1.77026,0.00582668,-0.00525337,0.000155289,0.00582885,-0.00525554,0.0140116,0.00640243,0.0187203,797,1513,0.943577,-1.77023
-420,-489,0.931396,1.78369,0.00740154,-0.00627894,0.000454124,0.0074166,-0.006294,0.0331464,0.00792466,0.0176642,804,1513,0.931368,-1.78364
-413,-489,0.954956,1.79736,0.00911173,-0.00747592,0.000950678,0.00916603,-0.00753023,0.0570634,0.009655,0.0162418,811,1513,0.954961,-1.7974
-406,-489,0.961975,1.76379,0.0128327,-0.00877738,0.00145162,0.0129298,-0.00887446,0.0667737,0.012661,0.0200802,818,1513,0.961954,-1.76385
-399,-489,1.0437,1.66199,0.0185397,-0.0105687,0.00327598,0.0189038,-0.0109328,0.110699,0.0174299,0.0310969,825,1513,1.0437,-1.66199
-392,-489,1.18958,1.6886,0.0245382,-0.0126434,0.00526173,0.0252685,-0.0133737,0.137907,0.0226596,0.0381347,832,1513,1.1896,-1.68864
-385,-489,1.95673,1.38867,0,0,0,0,0,0,0,-1,839,1513,1.9567,-1.38869
-378,-489,1.54321,1.86597,0,0,0,0,0,0,0,-1,846,1513,1.54319,-1.86601
-371,-489,1.18085,1.87097,0,0,0,0,0,0,0,-1,853,1513,1.18086,-1.87098
-364,-489,3.58728,-0.095459,0,0,0,0,0,0,0,-1,860,1513,3.58729,0.0954186
-357,-489,4.78265,0.156494,0,0,0,0,0,0,0,-1,867,1513,4.78266,-0.156534
-350,-489,5.98157,0.167358,0,0,0,0,0,0,0,-1,874,1513,5.9816,-0.167332
-343,-489,6.79614,0.177734,0,0,0,0,0,0,0,-1,881,1513,6.79615,-0.177722
-336,-489,0.00927734,2.04688,0,0,0,0,0,0,0,-1,888,1513,0.00927056,-2.04692
-329,-489,0.512573,1.83716,0,0,0,0,0,0,0,-1,895,1513,0.512577,-1.83715
-322,-489,0,0,0,0,0,0,0,0,0,-1,902,1513,0,0
-315,-489,0,0,0,0,0,0,0,0,0,-1,909,1513,0,0
-308,-489,0,0,0,0,0,0,0,0,0,-1,916,1513,0,0
-301,-489,0,0,0,0,0,0,0,0,0,-1,923,1513,0,0
-294,-489,0,0,0,0,0,0,0,0,0,-1,930,1513,0,0
-287,-489,0,0,0,0,0,0,0,0,0,-1,937,1513,0,0
-280,-489,0,0,0,0,0,0,0,0,0,-1,944,1513,0,0
-273,-489,0,0,0,0,0,0,0,0,0,-1,951,1513,0,0
-266,-489,0,0,0,0,0,0,0,0,0,-1,958,1513,0,0
-259,-489,0,0,0,0,0,0,0,0,0,-1,965,1513,0,0
-252,-489,0,0,0,0,0,0,0,0,0,-1,972,1513,0,0
-245,-489,0,0,0,0,0,0,0,0,0,-1,979,1513,0,0
-238,-489,0,0,0,0,0,0,0,0,0,-1,986,1513,0,0
-231,-489,0,0,0,0,0,0,0,0,0,-1,993,1513,0,0
-224,-489,0,0,0,0,0,0,0,0,0,-1,1000,1513,0,0
-217,-489,0,0,0,0,0,0,0,0,0,-1,1007,1513,0,0
-210,-489,0,0,0,0,0,0,0,0,0,-1,1014,1513,0,0
-203,-489,0,0,0,0,0,0,0,0,0,-1,1021,1513,0,0
-196,-489,0,0,0,0,0,0,0,0,0,-1,1028,1513,0,0
-189,-489,0,0,0,0,0,0,0,0,0,-1,1035,1513,0,0
-182,-489,0,0,0,0,0,0,0,0,0,-1,1042,1513,0,0
-175,-489,0,0,0,0,0,0,0,0,0,-1,1049,1513,0,0
-168,-489,0,0,0,0,0,0,0,0,0,-1,1056,1513,0,0
-161,-489,0,0,0,0,0,0,0,0,0,-1,1063,1513,0,0
-154,-489,0,0,0,0,0,0,0,0,0,-1,1070,1513,0,0
-147,-489,0,0,0,0,0,0,0,0,0,-1,1077,1513,0,0
-140,-489,0,0,0,0,0,0,0,0,0,-1,1084,1513,0,0
-133,-489,0,0,0,0,0,0,0,0,0,-1,1091,1513,0,0
-126,-489,0,0,0,0,0,0,0,0,0,-1,1098,1513,0,0
-119,-489,0,0,0,0,0,0,0,0,0,-1,1105,1513,0,0
-112,-489,0,0,0,0,0,0,0,0,0,-1,1112,1513,0,0
-105,-489,0,0,0,0,0,0,0,0,0,-1,1119,1513,0,0
-98,-489,0,0,0,0,0,0,0,0,0,-1,1126,1513,0,0
-91,-489,0,0,0,0,0,0,0,0,0,-1,1133,1513,0,0
-84,-489,0,0,0,0,0,0,0,0,0,-1,1140,1513,0,0
-77,-489,0,0,0,0,0,0,0,0,0,-1,1147,1513,0,0
-70,-489,0,0,0,0,0,0,0,0,0,-1,1154,1513,0,0
-63,-489,0,0,0,0,0,0,0,0,0,-1,1161,1513,0,0
-56,-489,0,0,0,0,0,0,0,0,0,-1,1168,1513,0,0
-49,-489,0,0,0,0,0,0,0,0,0,-1,1175,1513,0,0
-42,-489,0,0,0,0,0,0,0,0,0,-1,1182,1513,0,0
-35,-489,0,0,0,0,0,0,0,0,0,-1,1189,1513,0,0
-28,-489,0,0,0,0,0,0,0,0,0,-1,1196,1513,0,0
-21,-489,0,0,0,0,0,0,0,0,0,-1,1203,1513,0,0
-14,-489,0,0,0,0,0,0,0,0,0,-1,1210,1513,0,0
-7,-489,0,0,0,0,0,0,0,0,0,-1,1217,1513,0,0
0,-489,0,0,0,0,0,0,0,0,0,-1,1224,1513,0,0
7,-489,0,0,0,0,0,0,0,0,0,-1,1231,1513,0,0
14,-489,0,0,0,0,0,0,0,0,0,-1,1238,1513,0,0
21,-489,0,0,0,0,0,0,0,0,0,-1,1245,1513,0,0
28,-489,0,0,0,0,0,0,0,0,0,-1,1252,1513,0,0
35,-489,0,0,0,0,0,0,0,0,0,-1,1259,1513,0,0
42,-489,0,0,0,0,0,0,0,0,0,-1,1266,1513,0,0
49,-489,0,0,0,0,0,0,0,0,0,-1,1273,1513,0,0
56,-489,0,0,0,0,0,0,0,0,0,-1,1280,1513,0,0
63,-489,0,0,0,0,0,0,0,0,0,-1,1287,1513,0,0
70,-489,0,0,0,0,0,0,0,0,0,-1,1294,1513,0,0
77,-489,0,0,0,0,0,0,0,0,0,-1,1301,1513,0,0
84,-489,0,0,0,0,0,0,0,0,0,-1,1308,1513,0,0
91,-489,0,0,0,0,0,0,0,0,0,-1,1315,1513,0,0
98,-489,0,0,0,0,0,0,0,0,0,-1,1322,1513,0,0
105,-489,0,0,0,0,0,0,0,0,0,-1,1329,1513,0,0
112,-489,0,0,0,0,0,0,0,0,0,-1,1336,1513,0,0
119,-489,0,0,0,0,0,0,0,0,0,-1,1343,1513,0,0
126,-489,0,0,0,0,0,0,0,0,0,-1,1350,1513,0,0
133,-489,0,0,0,0,0,0,0,0,0,-1,1357,1513,0,0
140,-489,0,0,0,0,0,0,0,0,0,-1,1364,1513,0,0
147,-489,0,0,0,0,0,0,0,0,0,-1,1371,1513,0,0
154,-489,0,0,0,0,0,0,0,0,0,-1,1378,1513,0,0
161,-489,0,0,0,0,0,0,0,0,0,-1,1385,1513,0,0
168,-489,0,0,0,0,0,0,0,0,0,-1,1392,1513,0,0
175,-489,0,0,0,0,0,0,0,0,0,-1,1399,1513,0,0
182,-489,0,0,0,0,0,0,0,0,0,-1,1406,1513,0,0
189,-489,0,0,0,0,0,0,0,0,0,-1,1413,1513,0,0
196,-489,0,0,0,0,0,0,0,0,0,-1,1420,1513,0,0
203,-489,0,0,0,0,0,0,0,0,0,-1,1427,1513,0,0
210,-489,0,0,0,0,0,0,0,0,0,-1,1434,1513,0,0
217,-489,0,0,0,0,0,0,0,0,0,-1,1441,1513,0,0
224,-489,0,0,0,0,0,0,0,0,0,-1,1448,1513,0,0
231,-489,0,0,0,0,0,0,0,0,0,-1,1455,1513,0,0
238,-489,0,0,0,0,0,0,0,0,0,-1,1462,1513,0,0
245,-489,0,0,0,0,0,0,0,0,0,-1,1469,1513,0,0
252,-489,0,0,0,0,0,0,0,0,0,-1,1476,1513,0,0
259,-489,0,0,0,0,0,0,0,0,0,-1,1483,1513,0,0
266,-489,0,0,0,0,0,0,0,0,0,-1,1490,1513,0,0
273,-489,0,0,0,0,0,0,0,0,0,-1,1497,1513,0,0
280,-489,0,0,0,0,0,0,0,0,0,-1,1504,1513,0,0
287,-489,0,0,0,0,0,0,0,0,0,-1,1511,1513,0,0
294,-489,0,0,0,0,0,0,0,0,0,-1,1518,1513,0,0
301,-489,0,0,0,0,0,0,0,0,0,-1,1525,1513,0,0
308,-489,0,0,0,0,0,0,0,0,0,-1,1532,1513,0,0
315,-489,0,0,0,0,0,0,0,0,0,-1,1539,1513,0,0
322,-489,0,0,0,0,0,0,0,0,0,-1,1546,1513,0,0
329,-489,0,0,0,0,0,0,0,0,0,-1,1553,1513,0,0
336,-489,0,0,0,0,0,0,0,0,0,-1,1560,1513,0,0
343,-489,0,0,0,0,0,0,0,0,0,-1,1567,1513,0,0
350,-489,0,0,0,0,0,0,0,0,0,-1,1574,1513,0,0
357,-489,0,0,0,0,0,0,0,0,0,-1,1581,1513,0,0
364,-489,0,0,0,0,0,0,0,0,0,-1,1588,1513,0,0
371,-489,0,0,0,0,0,0,0,0,0,-1,1595,1513,0,0
378,-489,0,0,0,0,0,0,0,0,0,-1,1602,1513,0,0
385,-489,0,0,0,0,0,0,0,0,0,-1,1609,1513,0,0
392,-489,0,0,0,0,0,0,0,0,0,-1,1616,1513,0,0
399,-489,0,0,0,0,0,0,0,0,0,-1,1623,1513,0,0
406,-489,0,0,0,0,0,0,0,0,0,-1,1630,1513,0,0
413,-489,0,0,0,0,0,0,0,0,0,-1,1637,1513,0,0
420,-489,0,0,0,0,0,0,0,0,0,-1,1644,1513,0,0
427,-489,0,0,0,0,0,0,0,0,0,-1,1651,1513,0,0
434,-489,0,0,0,0,0,0,0,0,0,-1,1658,1513,0,0
441,-489,4.651,-0.72522,0.00245508,0.0662622,0.0215136,0.0728382,-0.00412088,1.27415,0.0499891,0.0458985,1665,1513,4.65101,0.725234
448,-489,4.68872,-0.533447,0.00572947,0.0605895,0.0341775,0.0769831,-0.0106641,1.12355,0.0552211,0.0466668,1672,1513,4.6887,0.533473
455,-489,5.24365,-0.626099,0,0,0,0,0,0,0,-1,1679,1513,5.24365,0.626114
462,-489,5.12866,-0.396729,0.00886149,0.0474741,0.0535255,0.0850687,-0.0287331,0.958483,0.0683343,0.0470738,1686,1513,5.12869,0.396764
469,-489,4.97205,-0.0792236,0.00884987,0.0403326,0.0566013,0.0833406,-0.0341582,0.921026,0.0697908,0.04468,1693,1513,4.97201,0.079284
476,-489,4.80847,0.246948,0.00920196,0.0337517,0.0552869,0.0781099,-0.0351563,0.894637,0.0669434,0.0415405,1700,1513,4.80846,-0.247004
483,-489,4.48132,0.694336,0,0,0,0,0,0,0,-1,1707,1513,4.48135,-0.694307
490,-489,3.98047,1.03638,0,0,0,0,0,0,0,-1,1714,1513,3.98048,-1.03633
497,-489,3.85437,1.1438,0,0,0,0,0,0,0,-1,1721,1513,3.85436,-1.14378
504,-489,3.74243,1.22705,0,0,0,0,0,0,0,-1,1728,1513,3.74239,-1.22701
511,-489,2.94324,1.19019,0,0,0,0,0,0,0,-1,1735,1513,2.94318,-1.19022
518,-489,2.86157,1.72583,0.0109765,0.00453152,0.019353,0.0273734,-0.0118654,0.702899,0.0232369,0.0474015,1742,1513,2.86152,-1.72589
525,-489,2.89185,2.09778,0.0107521,0.00246971,0.0131948,0.0204403,-0.00721854,0.633342,0.0165659,0.042791,1749,1513,2.8918,-2.09775
532,-489,2.97607,2.02063,0.0109285,0.00124564,0.00687728,0.0144976,-0.00232342,0.478703,0.0105254,0.0339639,1756,1513,2.97606,-2.02069
539,-489,3.07971,1.8877,0.0104899,-0.000240961,0.00240638,0.0110049,-0.000755879,0.210801,0.00760107,0.0166899,1763,1513,3.07975,-1.88772
546,-489,3.12695,1.82715,0.00900353,-0.000152494,0.000992926,0.00910997,-0.000258935,0.106791,0.00616144,0.0104404,1770,1513,3.12692,-1.82712
553,-489,3.11902,1.78857,0.00723739,0.000147162,0.000450159,0.00726586,0.000118695,0.0631521,0.00480483,0.0122436,1777,1513,3.11902,-1.78862
560,-489,3.13123,1.74512,0.00570362,0.000712634,8.337e-05,0.00570501,0.000711242,0.0166979,0.00358983,0.0119728,1784,1513,3.13128,-1.74516
567,-489,3.15576,1.72583,0.00443946,0.00124089,1.99761e-05,0.00443958,0.00124076,0.006245,0.00264499,0.0131725,1791,1513,3.15582,-1.72577
574,-489,3.13086,1.70496,0.00373285,0.00172166,9.58061e-05,0.0037374,0.0017171,0.0474931,0.00216015,0.0132243,1798,1513,3.13083,-1.70492
581,-489,3.14429,1.65125,0.00317709,0.00188327,5.95045e-05,0.00317982,0.00188054,0.0458625,0.00184607,0.0101974,1805,1513,3.14434,-1.65129
588,-489,3.14417,1.58411,0.0028238,0.00225954,5.4853e-05,0.00282908,0.00225426,0.0960153,0.00172664,0.0130426,1812,1513,3.14415,-1.58416
595,-489,3.14636,1.54358,0.00264296,0.00216408,-0.000236341,0.00273995,0.00206708,-0.38944,0.00164877,0.0182331,1819,1513,3.1463,-1.54353
602,-489,3.14075,1.51025,0.00258529,0.001671,-0.000686467,0.0029529,0.00130339,-0.49165,0.00170875,0.022177,1826,1513,3.14069,-1.51025
609,-489,3.14185,1.48083,0.00233544,0.001401,-0.00106108,0.00302761,0.000708828,-0.578008,0.00182852,0.0156847,1833,1513,3.1418,-1.48078
616,-489,3.12671,1.43896,0.00202697,0.00046151,-0.00195523,0.00335033,-0.000861848,-0.595005,0.00256948,0.00906353,1840,1513,3.12669,-1.43898
623,-489,3.12964,1.4071,0.00135569,-0.000868213,-0.00293993,0.00338693,-0.00289944,-0.604601,0.00363307,0.0126943,1847,1513,3.12968,-1.40707
630,-489,3.12756,1.44751,7.37706e-05,-0.00265843,-0.00420769,0.00313157,-0.00571623,-0.628433,0.00518042,0.0310271,1854,1513,3.12755,-1.44755
637,-489,3.09485,1.53723,-0.00191877,-0.00500515,-0.00592608,0.00266175,-0.00958567,-0.658024,0.00743818,0.0459091,1861,1513,3.09488,-1.53727
644,-489,3.02185,1.52222,-0.00459069,-0.00751782,-0.0081426,0.00221883,-0.0143273,-0.696477,0.0103706,0.0476906,1868,1513,3.02182,-1.52222
651,-489,2.58838,1.58142,-0.00771054,-0.00990171,-0.0108988,0.00214759,-0.0197598,-0.735304,0.0139443,0.0437556,1875,1513,2.58844,-1.58145
658,-489,2.45776,1.36584,-0.0112967,-0.0119892,-0.0141937,0.002555,-0.0258409,-0.773204,0.018139,0.0446364,1882,1513,2.4578,-1.3659
665,-489,2.25781,1.30713,-0.0145254,-0.0125549,-0.0181128,0.00459946,-0.0316797,-0.812569,0.0228081,0.0469494,1889,1513,2.25777,-1.30711
672,-489,0,0,0,0,0,0,0,0,0,-1,1896,1513,0,0
679,-489,0,0,0,0,0,0,0,0,0,-1,1903,1513,0,0
686,-489,0,0,0,0,0,0,0,0,0,-1,1910,1513,0,0
693,-489,0,0,0,0,0,0,0,0,0,-1,1917,1513,0,0
700,-489,0,0,0,0,0,0,0,0,0,-1,1924,1513,0,0
707,-489,0,0,0,0,0,0,0,0,0,-1,1931,1513,0,0
714,-489,0,0,0,0,0,0,0,0,0,-1,1938,1513,0,0
721,-489,0,0,0,0,0,0,0,0,0,-1,1945,1513,0,0
728,-489,0,0,0,0,0,0,0,0,0,-1,1952,1513,0,0
735,-489,0,0,0,0,0,0,0,0,0,-1,1959,1513,0,0
742,-489,0,0,0,0,0,0,0,0,0,-1,1966,1513,0,0
749,-489,0,0,0,0,0,0,0,0,0,-1,1973,1513,0,0
756,-489,0,0,0,0,0,0,0,0,0,-1,1980,1513,0,0
763,-489,0,0,0,0,0,0,0,0,0,-1,1987,1513,0,0
770,-489,0,0,0,0,0,0,0,0,0,-1,1994,1513,0,0
777,-489,0,0,0,0,0,0,0,0,0,-1,2001,1513,0,0
784,-489,0,0,0,0,0,0,0,0,0,-1,2008,1513,0,0
791,-489,0,0,0,0,0,0,0,0,0,-1,2015,1513,0,0
798,-489,0,0,0,0,0,0,0,0,0,-1,2022,1513,0,0
805,-489,0,0,0,0,0,0,0,0,0,-1,2029,1513,0,0
812,-489,0,0,0,0,0,0,0,0,0,-1,2036,1513,0,0
-700,-496,0,0,0,0,0,0,0,0,0,-1,524,1520,0,0
-693,-496,0,0,0,0,0,0,0,0,0,-1,531,1520,0,0
-686,-496,0,0,0,0,0,0,0,0,0,-1,538,1520,0,0
-679,-496,0,0,0,0,0,0,0,0,0,-1,545,1520,0,0
-672,-496,0,0,0,0,0,0,0,0,0,-1,552,1520,0,0
-665,-496,0,0,0,0,0,0,0,0,0,-1,559,1520,0,0
-658,-496,0,0,0,0,0,0,0,0,0,-1,566,1520,0,0
-651,-496,0,0,0,0,0,0,0,0,0,-1,573,1520,0,0
-644,-496,0,0,0,0,0,0,0,0,0,-1,580,1520,0,0
-637,-496,0,0,0,0,0,0,0,0,0,-1,587,1520,0,0
-630,-496,0,0,0,0,0,0,0,0,0,-1,594,1520,0,0
-623,-496,0,0,0,0,0,0,0,0,0,-1,601,1520,0,0
-616,-496,0,0,0,0,0,0,0,0,0,-1,608,1520,0,0
-609,-496,0,0,0,0,0,0,0,0,0,-1,615,1520,0,0
-602,-496,0,0,0,0,0,0,0,0,0,-1,622,1520,0,0
-595,-496,0,0,0,0,0,0,0,0,0,-1,629,1520,0,0
-588,-496,0,0,0,0,0,0,0,0,0,-1,636,1520,0,0
-581,-496,0,0,0,0,0,0,0,0,0,-1,643,1520,0,0
-574,-496,0,0,0,0,0,0,0,0,0,-1,650,1520,0,0
-567,-496,0,0,0,0,0,0,0,0,0,-1,657,1520,0,0
-560,-496,0,0,0,0,0,0,0,0,0,-1,664,1520,0,0
-553,-496,0,0,0,0,0,0,0,0,0,-1,671,1520,0,0
-546,-496,-0.801025,0.366089,0.112117,0.0425434,0.0145726,0.115046,0.0396144,0.198351,0.0674863,0.0476527,678,1520,-0.801014,-0.366069
-539,-496,-0.170776,0.413208,0.103579,0.0450547,0.0125664,0.106163,0.0424706,0.202814,0.0617002,0.0453253,685,1520,-0.1708,-0.413154
-532,-496,0.630859,0.629639,0.0884879,0.0431251,0.0110921,0.0910549,0.0405581,0.22742,0.0526748,0.0440287,692,1520,0.630844,-0.629676
-525,-496,1.49316,0.852661,0,0,0,0,0,0,0,-1,699,1520,1.49318,-0.852705
-518,-496,1.4054,0.391479,0,0,0,0,0,0,0,-1,706,1520,1.40538,-0.391517
-511,-496,0.137634,2.56067,0,0,0,0,0,0,0,-1,713,1520,0.13762,-2.56068
-504,-496,0.480774,1.84131,0,0,0,0,0,0,0,-1,720,1520,0.480752,-1.8413
-497,-496,0.603516,1.72266,0.0243431,0.0181085,0.00392361,0.026237,0.0162146,0.449711,0.0152879,0.0484086,727,1520,0.603536,-1.72265
-490,-496,0.962341,1.38281,0.0147819,0.0140367,0.00216622,0.0166074,0.0122113,0.700231,0.00993586,0.0342201,734,1520,0.96237,-1.38282
-483,-496,0.97583,1.41809,0.00674012,0.00906279,0.00109513,0.00949771,0.00630521,1.19276,0.0055808,0.0144882,741,1520,0.975841,-1.41814
-476,-496,0.979309,1.44409,0.00113087,0.00343115,0.000709533,0.0036324,0.000929614,1.29442,0.00217886,0.00961346,748,1520,0.979293,-1.44406
-469,-496,0.970825,1.48682,-0.00111813,0.000646982,0.000192757,0.000667786,-0.00113893,1.46328,0.00105487,0.0103601,755,1520,0.970807,-1.48688
-462,-496,0.983215,1.54004,-0.000990588,0.000156011,-4.46289e-05,0.000157745,-0.000992323,-1.53195,0.000719914,0.0139965,762,1520,0.983199,-1.54002
-455,-496,0.988342,1.58838,-0.000457936,-0.000399316,-0.000148422,-0.000277337,-0.000579914,-0.882883,0.000334919,0.0174752,769,1520,0.988342,-1.58836
-448,-496,0.972595,1.61536,0.000514122,-0.00101039,-8.41628e-05,0.000518754,-0.00101503,-0.0549835,0.000900848,0.0168048,776,1520,0.972576,-1.61533
-441,-496,0.980103,1.66272,0.00157636,-0.00179185,-7.20417e-05,0.0015779,-0.00179339,-0.0213757,0.00194774,0.01329,783,1520,0.980123,-1.6627
-434,-496,0.986084,1.72229,0.00288701,-0.00266121,6.09064e-05,0.00288768,-0.00266188,0.0109759,0.00320493,0.0129011,790,1520,0.986074,-1.72229
-427,-496,0.979309,1.75598,0.00429115,-0.00366204,0.000311173,0.0043033,-0.0036742,0.039046,0.00461058,0.0163706,797,1520,0.979325,-1.75596
-420,-496,0.978882,1.77344,0.00555521,-0.0045136,0.00047199,0.00557728,-0.00453568,0.0467398,0.00584903,0.0170948,804,1520,0.978885,-1.77348
-413,-496,0.986206,1.80798,0.0068562,-0.00555975,0.000801624,0.00690774,-0.00561129,0.0642087,0.00724077,0.0143199,811,1520,0.986226,-1.80794
-406,-496,0.982788,1.82788,0.0101928,-0.0067512,0.00111611,0.010266,-0.0068244,0.0654932,0.00993364,0.0142601,818,1520,0.982795,-1.82789
-399,-496,1.0246,1.85254,0.0153697,-0.00845023,0.00272247,0.0156769,-0.00875743,0.112363,0.0142945,0.0187227,825,1520,1.02461,-1.85251
-392,-496,0.950623,1.94214,0.0207065,-0.010427,0.00445833,0.0213324,-0.0110529,0.139467,0.019009,0.0272681,832,1520,0.950634,-1.94219
-385,-496,1.04779,1.8667,0.0278309,-0.0133049,0.0074459,0.0291372,-0.0146111,0.17367,0.025718,0.0422856,839,1520,1.0478,-1.86674
-378,-496,1.37372,1.97803,0.0370072,-0.0161404,0.0109405,0.0391712,-0.0183044,0.195278,0.0339047,0.0459438,846,1520,1.3737,-1.97808
-371,-496,1.10022,1.89832,0.0486053,-0.0189465,0.0156015,0.0520344,-0.0223757,0.216358,0.0440836,0.0489039,853,1520,1.10023,-1.89835
-364,-496,1.0459,1.92676,0,0,0,0,0,0,0,-1,860,1520,1.0459,-1.92681
-357,-496,4.10223,0.4104,0,0,0,0,0,0,0,-1,867,1520,4.10222,-0.41035
-350,-496,4.87805,0.427368,0.101515,-0.0163235,0.024986,0.106594,-0.0214025,0.200542,0.0791671,0.0443426,874,1520,4.87806,-0.427418
-343,-496,5.65735,0.443604,0,0,0,0,0,0,0,-1,881,1520,5.65734,-0.44362
-336,-496,6.50043,0.520386,0,0,0,0,0,0,0,-1,888,1520,6.50044,-0.520426
-329,-496,1.11951,1.50305,0,0,0,0,0,0,0,-1,895,1520,1.11949,-1.503
-322,-496,2.08246,0.905518,0,0,0,0,0,0,0,-1,902,1520,2.08248,-0.905471
-315,-496,2.73181,0.650513,0,0,0,0,0,0,0,-1,909,1520,2.73181,-0.650538
-308,-496,0,0,0,0,0,0,0,0,0,-1,916,1520,0,0
-301,-496,0,0,0,0,0,0,0,0,0,-1,923,1520,0,0
-294,-496,0,0,0,0,0,0,0,0,0,-1,930,1520,0,0
-287,-496,0,0,0,0,0,0,0,0,0,-1,937,1520,0,0
-280,-496,0,0,0,0,0,0,0,0,0,-1,944,1520,0,0
-273,-496,0,0,0,0,0,0,0,0,0,-1,951,1520,0,0
-266,-496,0,0,0,0,0,0,0,0,0,-1,958,1520,0,0
-259,-496,0,0,0,0,0,0,0,0,0,-1,965,1520,0,0
-252,-496,0,0,0,0,0,0,0,0,0,-1,972,1520,0,0
-245,-496,0,0,0,0,0,0,0,0,0,-1,979,1520,0,0
-238,-496,0,0,0,0,0,0,0,0,0,-1,986,1520,0,0
-231,-496,0,0,0,0,0,0,0,0,0,-1,993,1520,0,0
-224,-496,0,0,0,0,0,0,0,0,0,-1,1000,1520,0,0
-217,-496,0,0,0,0,0,0,0,0,0,-1,1007,1520,0,0
-210,-496,0,0,0,0,0,0,0,0,0,-1,1014,1520,0,0
-203,-496,0,0,0,0,0,0,0,0,0,-1,1021,1520,0,0
-196,-496,0,0,0,0,0,0,0,0,0,-1,1028,1520,0,0
-189,-496,0,0,0,0,0,0,0,0,0,-1,1035,1520,0,0
-182,-496,0,0,0,0,0,0,0,0,0,-1,1042,1520,0,0
-175,-496,0,0,0,0,0,0,0,0,0,-1,1049,1520,0,0
-168,-496,0,0,0,0,0,0,0,0,0,-1,1056,1520,0,0
-161,-496,0,0,0,0,0,0,0,0,0,-1,1063,1520,0,0
-154,-496,0,0,0,0,0,0,0,0,0,-1,1070,1520,0,0
-147,-496,0,0,0,0,0,0,0,0,0,-1,1077,1520,0,0
-140,-496,0,0,0,0,0,0,0,0,0,-1,1084,1520,0,0
-133,-496,0,0,0,0,0,0,0,0,0,-1,1091,1520,0,0
-126,-496,0,0,0,0,0,0,0,0,0,-1,1098,1520,0,0
-119,-496,0,0,0,0,0,0,0,0,0,-1,1105,1520,0,0
-112,-496,0,0,0,0,0,0,0,0,0,-1,1112,1520,0,0
-105,-496,0,0,0,0,0,0,0,0,0,-1,1119,1520,0,0
-98,-496,0,0,0,0,0,0,0,0,0,-1,1126,1520,0,0
-91,-496,0,0,0,0,0,0,0,0,0,-1,1133,1520,0,0
-84,-496,0,0,0,0,0,0,0,0,0,-1,1140,1520,0,0
-77,-496,0,0,0,0,0,0,0,0,0,-1,1147,1520,0,0
-70,-496,0,0,0,0,0,0,0,0,0,-1,1154,1520,0,0
-63,-496,0,0,0,0,0,0,0,0,0,-1,1161,1520,0,0
-56,-496,0,0,0,0,0,0,0,0,0,-1,1168,1520,0,0
-49,-496,0,0,0,0,0,0,0,0,0,-1,1175,1520,0,0
-42,-496,0,0,0,0,0,0,0,0,0,-1,1182,1520,0,0
-35,-496,0,0,0,0,0,0,0,0,0,-1,1189,1520,0,0
-28,-496,0,0,0,0,0,0,0,0,0,-1,1196,1520,0,0
-21,-496,0,0,0,0,0,0,0,0,0,-1,1203,1520,0,0
-14,-496,0,0,0,0,0,0,0,0,0,-1,1210,1520,0,0
-7,-496,0,0,0,0,0,0,0,0,0,-1,1217,1520,0,0
0,-496,0,0,0,0,0,0,0,0,0,-1,1224,1520,0,0
7,-496,0,0,0,0,0,0,0,0,0,-1,1231,1520,0,0
14,-496,0,0,0,0,0,0,0,0,0,-1,1238,1520,0,0
21,-496,0,0,0,0,0,0,0,0,0,-1,1245,1520,0,0
28,-496,0,0,0,0,0,0,0,0,0,-1,1252,1520,0,0
35,-496,0,0,0,0,0,0,0,0,0,-1,1259,1520,0,0
42,-496,0,0,0,0,0,0,0,0,0,-1,1266,1520,0,0
49,-496,0,0,0,0,0,0,0,0,0,-1,1273,1520,0,0
56,-496,0,0,0,0,0,0,0,0,0,-1,1280,1520,0,0
63,-496,0,0,0,0,0,0,0,0,0,-1,1287,1520,0,0
70,-496,0,0,0,0,0,0,0,0,0,-1,1294,1520,0,0
77,-496,0,0,0,0,0,0,0,0,0,-1,1301,1520,0,0
84,-496,0,0,0,0,0,0,0,0,0,-1,1308,1520,0,0
91,-496,0,0,0,0,0,0,0,0,0,-1,1315,1520,0,0
98,-496,0,0,0,0,0,0,0,0,0,-1,1322,1520,0,0
105,-496,0,0,0,0,0,0,0,0,0,-1,1329,1520,0,0
112,-496,0,0,0,0,0,0,0,0,0,-1,1336,1520,0,0
119,-496,0,0,0,0,0,0,0,0,0,-1,1343,1520,0,0
126,-496,0,0,0,0,0,0,0,0,0,-1,1350,1520,0,0
133,-496,0,0,0,0,0,0,0,0,0,-1,1357,1520,0,0
140,-496,0,0,0,0,0,0,0,0,0,-1,1364,1520,0,0
147,-496,0,0,0,0,0,0,0,0,0,-1,1371,1520,0,0
154,-496,0,0,0,0,0,0,0,0,0,-1,1378,1520,0,0
161,-496,0,0,0,0,0,0,0,0,0,-1,1385,1520,0,0
168,-496,0,0,0,0,0,0,0,0,0,-1,1392,1520,0,0
175,-496,0,0,0,0,0,0,0,0,0,-1,1399,1520,0,0
182,-496,0,0,0,0,0,0,0,0,0,-1,1406,1520,0,0
189,-496,0,0,0,0,0,0,0,0,0,-1,1413,1520,0,0
196,-496,0,0,0,0,0,0,0,0,0,-1,1420,1520,0,0
203,-496,0,0,0,0,0,0,0,0,0,-1,1427,1520,0,0
210,-496,0,0,0,0,0,0,0,0,0,-1,1434,1520,0,0
217,-496,0,0,0,0,0,0,0,0,0,-1,1441,1520,0,0
224,-496,0,0,0,0,0,0,0,0,0,-1,1448,1520,0,0
231,-496,0,0,0,0,0,0,0,0,0,-1,1455,1520,0,0
238,-496,0,0,0,0,0,0,0,0,0,-1,1462,1520,0,0
245,-496,0,0,0,0,0,0,0,0,0,-1,1469,1520,0,0
252,-496,0,0,0,0,0,0,0,0,0,-1,1476,1520,0,0
259,-496,0,0,0,0,0,0,0,0,0,-1,1483,1520,0,0
266,-496,0,0,0,0,0,0,0,0,0,-1,1490,1520,0,0
273,-496,0,0,0,0,0,0,0,0,0,-1,1497,1520,0,0
280,-496,0,0,0,0,0,0,0,0,0,-1,1504,1520,0,0
287,-496,0,0,0,0,0,0,0,0,0,-1,1511,1520,0,0
294,-496,0,0,0,0,0,0,0,0,0,-1,1518,1520,0,0
301,-496,0,0,0,0,0,0,0,0,0,-1,1525,1520,0,0
308,-496,0,0,0,0,0,0,0,0,0,-1,1532,1520,0,0
315,-496,0,0,0,0,0,0,0,0,0,-1,1539,1520,0,0
322,-496,0,0,0,0,0,0,0,0,0,-1,1546,1520,0,0
329,-496,0,0,0,0,0,0,0,0,0,-1,1553,1520,0,0
336,-496,0,0,0,0,0,0,0,0,0,-1,1560,1520,0,0
343,-496,0,0,0,0,0,0,0,0,0,-1,1567,1520,0,0
350,-496,0,0,0,0,0,0,0,0,0,-1,1574,1520,0,0
357,-496,0,0,0,0,0,0,0,0,0,-1,1581,1520,0,0
364,-496,0,0,0,0,0,0,0,0,0,-1,1588,1520,0,0
371,-496,0,0,0,0,0,0,0,0,0,-1,1595,1520,0,0
378,-496,0,0,0,0,0,0,0,0,0,-1,1602,1520,0,0
385,-496,0,0,0,0,0,0,0,0,0,-1,1609,1520,0,0
392,-496,0,0,0,0,0,0,0,0,0,-1,1616,1520,0,0
399,-496,0,0,0,0,0,0,0,0,0,-1,1623,1520,0,0
406,-496,0,0,0,0,0,0,0,0,0,-1,1630,1520,0,0
413,-496,0,0,0,0,0,0,0,0,0,-1,1637,1520,0,0
420,-496,0,0,0,0,0,0,0,0,0,-1,1644,1520,0,0
427,-496,0,0,0,0,0,0,0,0,0,-1,1651,1520,0,0
434,-496,4.30383,-1.35864,-0.00775994,0.0504692,0.00293862,0.0506171,-0.00790786,1.5205,0.0366661,0.0457521,1658,1520,4.30388,1.3586
441,-496,4.40576,-1.54065,-0.00362549,0.0484909,0.0146689,0.052336,-0.00747057,1.31444,0.0376288,0.0469065,1665,1520,4.40578,1.54071
448,-496,4.7135,-1.28088,0,0,0,0,0,0,0,-1,1672,1520,4.71346,1.28085
455,-496,3.23047,0.651245,0,0,0,0,0,0,0,-1,1679,1520,3.23044,-0.651274
462,-496,4.39514,2.20593,0,0,0,0,0,0,0,-1,1686,1520,4.39513,-2.20593
469,-496,4.33569,-0.0439453,0,0,0,0,0,0,0,-1,1693,1520,4.33572,0.0439506
476,-496,4.12366,0.241577,0.0046907,0.025352,0.0449304,0.061124,-0.0310814,0.898397,0.0541686,0.0452851,1700,1520,4.12369,-0.24159
483,-496,3.90161,0.600586,0.00624716,0.02015,0.0424915,0.0562549,-0.0298578,0.866478,0.0504898,0.0451172,1707,1520,3.9016,-0.600643
490,-496,3.71313,1.01697,0.00713777,0.0141641,0.0384685,0.0492795,-0.0279776,0.830935,0.045166,0.0476647,1714,1520,3.71319,-1.01692
497,-496,3.64661,1.18079,0.00739474,0.00951467,0.0343114,0.0427825,-0.0258731,0.800839,0.040037,0.0442626,1721,1520,3.64664,-1.18078
504,-496,3.51941,1.33069,0.00749726,0.00601305,0.0285639,0.0353287,-0.0218184,0.772411,0.0332998,0.0420006,1728,1520,3.5194,-1.33074
511,-496,2.93799,1.26294,0,0,0,0,0,0,0,-1,1735,1520,2.93801,-1.26296
518,-496,2.97668,1.51123,0.0074126,0.00250609,0.0165289,0.0216693,-0.0117506,0.711725,0.0195762,0.0433421,1742,1520,2.9767,-1.51125
525,-496,2.93018,1.77454,0.00758041,0.00103822,0.0113029,0.016076,-0.00745738,0.644545,0.0138874,0.0381033,1749,1520,2.93013,-1.77456
532,-496,2.99426,1.92114,0.00818258,0.00029965,0.00600845,0.011427,-0.00294475,0.495112,0.00876602,0.0216518,1756,1520,2.99429,-1.92111
539,-496,3.06299,1.88367,0.00819335,-0.000627211,0.00224722,0.00873287,-0.00116674,0.235626,0.00624725,0.0119741,1763,1520,3.063,-1.88362
546,-496,3.0752,1.82495,0.00716842,-0.000372116,0.000843125,0.00726154,-0.000465238,0.110003,0.00500332,0.00941854,1770,1520,3.07522,-1.82492
553,-496,3.0968,1.7804,0.00585661,0.000155294,0.000211734,0.00586446,0.000147442,0.0370697,0.00386143,0.0136139,1777,1520,3.09678,-1.78042
560,-496,3.11609,1.75256,0.00473282,0.00105345,-0.000323931,0.00476112,0.00102515,-0.0871466,0.00289354,0.0134703,1784,1520,3.11612,-1.75261
567,-496,3.11108,1.71265,0.00385466,0.00189861,-0.000490125,0.0039706,0.00178267,-0.232279,0.0022964,0.0113303,1791,1520,3.1111,-1.7127
574,-496,3.10938,1.68201,0.00357719,0.00289817,-0.000424217,0.00378103,0.00269433,-0.447927,0.00224779,0.0116643,1798,1520,3.10933,-1.68196
581,-496,3.10071,1.66089,0.00336321,0.00344156,-0.00059328,0.00399696,0.00280781,-0.818368,0.00236988,0.0125542,1805,1520,3.10067,-1.6609
588,-496,3.1123,1.59277,0.00336967,0.00419242,-0.000711068,0.00460254,0.00295955,-1.04764,0.00269327,0.0154856,1812,1520,3.11224,-1.59282
595,-496,3.11743,1.54199,0.00348923,0.0044432,-0.00109892,0.00516419,0.00276824,-0.990153,0.00298413,0.0167203,1819,1520,3.11748,-1.54204
602,-496,3.10376,1.52185,0.00363664,0.00426588,-0.00169236,0.00567261,0.00222991,-0.877302,0.00329994,0.0161939,1826,1520,3.10381,-1.52189
609,-496,3.09827,1.47375,0.00362072,0.00420425,-0.00223926,0.00617067,0.0016543,-0.850181,0.00368816,0.0136032,1833,1520,3.09824,-1.47373
616,-496,3.09167,1.43457,0.00355801,0.00336818,-0.00334859,0.00681303,0.000113161,-0.771229,0.00450477,0.0119412,1840,1520,3.0917,-1.4346
623,-496,3.08911,1.40967,0.00306667,0.00191629,-0.00464637,0.00717331,-0.00219035,-0.723814,0.00565553,0.0244,1847,1520,3.08913,-1.40963
630,-496,3.0675,1.60864,0.00181005,-0.00035705,-0.00641492,0.00723229,-0.00577929,-0.701733,0.00752783,0.0402659,1854,1520,3.06752,-1.60869
637,-496,3.04224,1.65613,0,0,0,0,0,0,0,-1,1861,1520,3.04219,-1.65617
644,-496,3.12354,1.40271,-0.00383912,-0.0074634,-0.0119342,0.0064197,-0.0177222,-0.710051,0.0144385,0.048652,1868,1520,3.1235,-1.40267
651,-496,2.92004,1.57495,-0.00856156,-0.0121326,-0.0159482,0.00570079,-0.0263949,-0.729652,0.0197728,0.0450072,1875,1520,2.92005,-1.57493
658,-496,2.58936,1.80127,-0.0145864,-0.0171433,-0.0209742,0.00514832,-0.036878,-0.75496,0.0264689,0.0434285,1882,1520,2.58936,-1.80121
665,-496,2.6803,1.47827,-0.0218065,-0.0212914,-0.0275121,0.00596433,-0.0490622,-0.790079,0.0348667,0.0464848,1889,1520,2.68025,-1.47825
672,-496,0,0,0,0,0,0,0,0,0,-1,1896,1520,0,0
679,-496,0,0,0,0,0,0,0,0,0,-1,1903,1520,0,0
686,-496,0,0,0,0,0,0,0,0,0,-1,1910,1520,0,0
693,-496,0,0,0,0,0,0,0,0,0,-1,1917,1520,0,0
700,-496,0,0,0,0,0,0,0,0,0,-1,1924,1520,0,0
707,-496,0,0,0,0,0,0,0,0,0,-1,1931,1520,0,0
714,-496,0,0,0,0,0,0,0,0,0,-1,1938,1520,0,0
721,-496,0,0,0,0,0,0,0,0,0,-1,1945,1520,0,0
728,-496,0,0,0,0,0,0,0,0,0,-1,1952,1520,0,0
735,-496,0,0,0,0,0,0,0,0,0,-1,1959,1520,0,0
742,-496,0,0,0,0,0,0,0,0,0,-1,1966,1520,0,0
749,-496,0,0,0,0,0,0,0,0,0,-1,1973,1520,0,0
756,-496,0,0,0,0,0,0,0,0,0,-1,1980,1520,0,0
763,-496,0,0,0,0,0,0,0,0,0,-1,1987,1520,0,0
770,-496,0,0,0,0,0,0,0,0,0,-1,1994,1520,0,0
777,-496,0,0,0,0,0,0,0,0,0,-1,2001,1520,0,0
784,-496,0,0,0,0,0,0,0,0,0,-1,2008,1520,0,0
791,-496,0,0,0,0,0,0,0,0,0,-1,2015,1520,0,0
798,-496,0,0,0,0,0,0,0,0,0,-1,2022,1520,0,0
805,-496,0,0,0,0,0,0,0,0,0,-1,2029,1520,0,0
812,-496,0,0,0,0,0,0,0,0,0,-1,2036,1520,0,0
-700,-503,0,0,0,0,0,0,0,0,0,-1,524,1527,0,0
-693,-503,0,0,0,0,0,0,0,0,0,-1,531,1527,0,0
-686,-503,0,0,0,0,0,0,0,0,0,-1,538,1527,0,0
-679,-503,0,0,0,0,0,0,0,0,0,-1,545,1527,0,0
-672,-503,0,0,0,0,0,0,0,0,0,-1,552,1527,0,0
-665,-503,0,0,0,0,0,0,0,0,0,-1,559,1527,0,0
-658,-503,0,0,0,0,0,0,0,0,0,-1,566,1527,0,0
-651,-503,0,0,0,0,0,0,0,0,0,-1,573,1527,0,0
-644,-503,0,0,0,0,0,0,0,0,0,-1,580,1527,0,0
-637,-503,0,0,0,0,0,0,0,0,0,-1,587,1527,0,0
-630,-503,0,0,0,0,0,0,0,0,0,-1,594,1527,0,0
-623,-503,0,0,0,0,0,0,0,0,0,-1,601,1527,0,0
-616,-503,0,0,0,0,0,0,0,0,0,-1,608,1527,0,0
-609,-503,0,0,0,0,0,0,0,0,0,-1,615,1527,0,0
-602,-503,0,0,0,0,0,0,0,0,0,-1,622,1527,0,0
-595,-503,0,0,0,0,0,0,0,0,0,-1,629,1527,0,0
-588,-503,0,0,0,0,0,0,0,0,0,-1,636,1527,0,0
-581,-503,0,0,0,0,0,0,0,0,0,-1,643,1527,0,0
-574,-503,0,0,0,0,0,0,0,0,0,-1,650,1527,0,0
-567,-503,0,0,0,0,0,0,0,0,0,-1,657,1527,0,0
-560,-503,0,0,0,0,0,0,0,0,0,-1,664,1527,0,0
-553,-503,0,0,0,0,0,0,0,0,0,-1,671,1527,0,0
-546,-503,0,0,0,0,0,0,0,0,0,-1,678,1527,0,0
-539,-503,-0.178528,-0.111816,0.122077,0.0657972,0.00994302,0.123782,0.0640922,0.169826,0.0714804,0.0387349,685,1527,-0.178513,0.11178
-532,-503,0.615417,-0.584229,0.102747,0.061233,0.00947092,0.104805,0.0591744,0.214031,0.0606776,0.0422717,692,1527,0.615393,0.584202
-525,-503,1.77643,-0.53125,0.0849796,0.053507,0.00902719,0.087385,0.0511016,0.260411,0.050693,0.0443115,699,1527,1.77645,0.531238
-518,-503,2.69879,-0.318604,0,0,0,0,0,0,0,-1,706,1527,2.69879,0.318556
-511,-503,3.54492,-0.297729,0,0,0,0,0,0,0,-1,713,1527,3.54494,0.297774
-504,-503,0.189758,2.57214,0,0,0,0,0,0,0,-1,720,1527,0.189753,-2.57216
-497,-503,1.04413,1.4165,0,0,0,0,0,0,0,-1,727,1527,1.04413,-1.41655
-490,-503,1.04211,1.43872,0.0181903,0.0185686,0.00272226,0.0211083,0.0156506,0.820082,0.0126516,0.0473759,734,1527,1.0421,-1.43875
-483,-503,1.03003,1.44946,0.00892352,0.0122071,0.00167707,0.0129122,0.00821839,1.17278,0.00754687,0.0323274,741,1527,1.03002,-1.44949
-476,-503,1.0119,1.45886,0.00214099,0.00512816,0.00130894,0.00562056,0.00164859,1.21099,0.00333617,0.014924,748,1527,1.0119,-1.45886
-469,-503,1.01105,1.50244,-0.000706397,0.00164529,0.0007796,0.00188025,-0.000941363,1.27806,0.00165885,0.00900099,755,1527,1.01103,-1.50242
-462,-503,1.01239,1.56055,-0.000696314,0.00103348,0.000516138,0.00117578,-0.000838614,1.30178,0.00116843,0.0100979,762,1527,1.0124,-1.5606
-455,-503,1.01782,1.59924,-0.000346114,0.000402542,0.000344681,0.000537062,-0.000480634,1.1987,0.000587868,0.0148457,769,1527,1.01785,-1.59922
-448,-503,1.0155,1.63635,0.00036826,-0.000183143,0.00032776,0.000520855,-0.000335738,0.435726,0.000498389,0.0149553,776,1527,1.01549,-1.63634
-441,-503,1.02722,1.67249,0.00110866,-0.00091947,0.000281976,0.00114714,-0.000957944,0.135606,0.001217,0.0119746,783,1527,1.02719,-1.67246
-434,-503,1.01947,1.70691,0.00209883,-0.00162142,0.000315273,0.00212536,-0.00164795,0.0839473,0.00218432,0.0100266,790,1527,1.01948,-1.70697
-427,-503,0.980469,1.72864,0.00325398,-0.00249091,0.00041926,0.00328442,-0.00252135,0.0724679,0.0033616,0.0156676,797,1527,0.980494,-1.72863
-420,-503,1.0119,1.7959,0.00412833,-0.00317356,0.000438653,0.00415458,-0.00319982,0.0597873,0.00425798,0.016526,804,1527,1.01188,-1.79592
-413,-503,1.02289,1.8175,0.00498674,-0.00400414,0.000627912,0.00503038,-0.00404778,0.0693898,0.0052515,0.0140571,811,1527,1.02288,-1.8175
-406,-503,1.01361,1.84009,0.00788106,-0.005034,0.000796961,0.00793005,-0.00508299,0.0613974,0.00757278,0.0100827,818,1527,1.01363,-1.84008
-399,-503,1.05042,1.89282,0.0123983,-0.00656669,0.00217407,0.0126443,-0.00681272,0.112689,0.0114005,0.0109182,825,1527,1.05043,-1.89277
-392,-503,1.03998,1.94922,0.016971,-0.00836671,0.00365682,0.0174882,-0.00888391,0.140505,0.0154937,0.0166202,832,1527,1.03997,-1.94918
-385,-503,1.05688,1.89294,0.0230746,-0.0110296,0.00632347,0.0242093,-0.0121644,0.177556,0.0213807,0.0327161,839,1527,1.05689,-1.89296
-378,-503,1.07922,1.89807,0.0307956,-0.0135682,0.00929968,0.0326662,-0.0154388,0.198493,0.0283609,0.0446814,846,1527,1.07924,-1.89813
-371,-503,1.01379,1.93787,0.0404255,-0.0159466,0.0132127,0.0433687,-0.0188898,0.219176,0.0368594,0.0478385,853,1527,1.01377,-1.93785
-364,-503,1.16864,1.76025,0,0,0,0,0,0,0,-1,860,1527,1.16865,-1.76025
-357,-503,1.70648,1.33569,0.069221,-0.0157151,0.0196399,0.0735425,-0.0200366,0.216585,0.0568956,0.0469055,867,1527,1.70649,-1.33568
-350,-503,3.78717,0.743896,0.085718,-0.0135656,0.0213544,0.0901162,-0.0179637,0.203121,0.0668745,0.0445175,874,1527,3.78718,-0.743922
-343,-503,4.50647,0.732422,0,0,0,0,0,0,0,-1,881,1527,4.50648,-0.732398
-336,-503,1.69275,1.22693,0,0,0,0,0,0,0,-1,888,1527,1.69273,-1.22688
-329,-503,1.73712,1.18579,0,0,0,0,0,0,0,-1,895,1527,1.73711,-1.18578
-322,-503,2.43494,0.921997,0,0,0,0,0,0,0,-1,902,1527,2.43492,-0.922055
-315,-503,3.12109,0.715454,0,0,0,0,0,0,0,-1,909,1527,3.1211,-0.715424
-308,-503,1.52502,3.17261,0,0,0,0,0,0,0,-1,916,1527,1.525,-3.17266
-301,-503,0,0,0,0,0,0,0,0,0,-1,923,1527,0,0
-294,-503,0,0,0,0,0,0,0,0,0,-1,930,1527,0,0
-287,-503,0,0,0,0,0,0,0,0,0,-1,937,1527,0,0
-280,-503,0,0,0,0,0,0,0,0,0,-1,944,1527,0,0
-273,-503,0,0,0,0,0,0,0,0,0,-1,951,1527,0,0
-266,-503,0,0,0,0,0,0,0,0,0,-1,958,1527,0,0
-259,-503,0,0,0,0,0,0,0,0,0,-1,965,1527,0,0
-252,-503,0,0,0,0,0,0,0,0,0,-1,972,1527,0,0
-245,-503,0,0,0,0,0,0,0,0,0,-1,979,1527,0,0
-238,-503,0,0,0,0,0,0,0,0,0,-1,986,1527,0,0
-231,-503,0,0,0,0,0,0,0,0,0,-1,993,1527,0,0
-224,-503,0,0,0,0,0,0,0,0,0,-1,1000,1527,0,0
-217,-503,0,0,0,0,0,0,0,0,0,-1,1007,1527,0,0
-210,-503,0,0,0,0,0,0,0,0,0,-1,1014,1527,0,0
-203,-503,0,0,0,0,0,0,0,0,0,-1,1021,1527,0,0
-196,-503,0,0,0,0,0,0,0,0,0,-1,1028,1527,0,0
-189,-503,0,0,0,0,0,0,0,0,0,-1,1035,1527,0,0
-182,-503,0,0,0,0,0,0,0,0,0,-1,1042,1527,0,0
-175,-503,0,0,0,0,0,0,0,0,0,-1,1049,1527,0,0
-168,-503,0,0,0,0,0,0,0,0,0,-1,1056,1527,0,0
-161,-503,0,0,0,0,0,0,0,0,0,-1,1063,1527,0,0
-154,-503,0,0,0,0,0,0,0,0,0,-1,1070,1527,0,0
-147,-503,0,0,0,0,0,0,0,0,0,-1,1077,1527,0,0
-140,-503,0,0,0,0,0,0,0,0,0,-1,1084,1527,0,0
-133,-503,0,0,0,0,0,0,0,0,0,-1,1091,1527,0,0
-126,-503,0,0,0,0,0,0,0,0,0,-1,1098,1527,0,0
-119,-503,0,0,0,0,0,0,0,0,0,-1,1105,1527,0,0
-112,-503,0,0,0,0,0,0,0,0,0,-1,1112,1527,0,0
-105,-503,0,0,0,0,0,0,0,0,0,-1,1119,1527,0,0
-98,-503,0,0,0,0,0,0,0,0,0,-1,1126,1527,0,0
-91,-503,0,0,0,0,0,0,0,0,0,-1,1133,1527,0,0
-84,-503,0,0,0,0,0,0,0,0,0,-1,1140,1527,0,0
-77,-503,0,0,0,0,0,0,0,0,0,-1,1147,1527,0,0
-70,-503,0,0,0,0,0,0,0,0,0,-1,1154,1527,0,0
-63,-503,0,0,0,0,0,0,0,0,0,-1,1161,1527,0,0
-56,-503,0,0,0,0,0,0,0,0,0,-1,1168,1527,0,0
-49,-503,0,0,0,0,0,0,0,0,0,-1,1175,1527,0,0
-42,-503,0,0,0,0,0,0,0,0,0,-1,1182,1527,0,0
-35,-503,0,0,0,0,0,0,0,0,0,-1,1189,1527,0,0
-28,-503,0,0,0,0,0,0,0,0,0,-1,1196,1527,0,0
-21,-503,0,0,0,0,0,0,0,0,0,-1,1203,1527,0,0
-14,-503,0,0,0,0,0,0,0,0,0,-1,1210,1527,0,0
-7,-503,0,0,0,0,0,0,0,0,0,-1,1217,1527,0,0
0,-503,0,0,0,0,0,0,0,0,0,-1,1224,1527,0,0
7,-503,0,0,0,0,0,0,0,0,0,-1,1231,1527,0,0
14,-503,0,0,0,0,0,0,0,0,0,-1,1238,1527,0,0
21,-503,0,0,0,0,0,0,0,0,0,-1,1245,1527,0,0
28,-503,0,0,0,0,0,0,0,0,0,-1,1252,1527,0,0
35,-503,0,0,0,0,0,0,0,0,0,-1,1259,1527,0,0
42,-503,0,0,0,0,0,0,0,0,0,-1,1266,1527,0,0
49,-503,0,0,0,0,0,0,0,0,0,-1,1273,1527,0,0
56,-503,0,0,0,0,0,0,0,0,0,-1,1280,1527,0,0
63,-503,0,0,0,0,0,0,0,0,0,-1,1287,1527,0,0
70,-503,0,0,0,0,0,0,0,0,0,-1,1294,1527,0,0
77,-503,0,0,0,0,0,0,0,0,0,-1,1301,1527,0,0
84,-503,0,0,0,0,0,0,0,0,0,-1,1308,1527,0,0
91,-503,0,0,0,0,0,0,0,0,0,-1,1315,1527,0,0
98,-503,0,0,0,0,0,0,0,0,0,-1,1322,1527,0,0
105,-503,0,0,0,0,0,0,0,0,0,-1,1329,1527,0,0
112,-503,0,0,0,0,0,0,0,0,0,-1,1336,1527,0,0
119,-503,0,0,0,0,0,0,0,0,0,-1,1343,1527,0,0
126,-503,0,0,0,0,0,0,0,0,0,-1,1350,1527,0,0
133,-503,0,0,0,0,0,0,0,0,0,-1,1357,1527,0,0
140,-503,0,0,0,0,0,0,0,0,0,-1,1364,1527,0,0
147,-503,0,0,0,0,0,0,0,0,0,-1,1371,1527,0,0
154,-503,0,0,0,0,0,0,0,0,0,-1,1378,1527,0,0
161,-503,0,0,0,0,0,0,0,0,0,-1,1385,1527,0,0
168,-503,0,0,0,0,0,0,0,0,0,-1,1392,1527,0,0
175,-503,0,0,0,0,0,0,0,0,0,-1,1399,1527,0,0
182,-503,0,0,0,0,0,0,0,0,0,-1,1406,1527,0,0
189,-503,0,0,0,0,0,0,0,0,0,-1,1413,1527,0,0
196,-503,0,0,0,0,0,0,0,0,0,-1,1420,1527,0,0
203,-503,0,0,0,0,0,0,0,0,0,-1,1427,1527,0,0
210,-503,0,0,0,0,0,0,0,0,0,-1,1434,1527,0,0
217,-503,0,0,0,0,0,0,0,0,0,-1,1441,1527,0,0
224,-503,0,0,0,0,0,0,0,0,0,-1,1448,1527,0,0
231,-503,0,0,0,0,0,0,0,0,0,-1,1455,1527,0,0
238,-503,0,0,0,0,0,0,0,0,0,-1,1462,1527,0,0
245,-503,0,0,0,0,0,0,0,0,0,-1,1469,1527,0,0
252,-503,0,0,0,0,0,0,0,0,0,-1,1476,1527,0,0
259,-503,0,0,0,0,0,0,0,0,0,-1,1483,1527,0,0
266,-503,0,0,0,0,0,0,0,0,0,-1,1490,1527,0,0
273,-503,0,0,0,0,0,0,0,0,0,-1,1497,1527,0,0
280,-503,0,0,0,0,0,0,0,0,0,-1,1504,1527,0,0
287,-503,0,0,0,0,0,0,0,0,0,-1,1511,1527,0,0
294,-503,0,0,0,0,0,0,0,0,0,-1,1518,1527,0,0
301,-503,0,0,0,0,0,0,0,0,0,-1,1525,1527,0,0
308,-503,0,0,0,0,0,0,0,0,0,-1,1532,1527,0,0
315,-503,0,0,0,0,0,0,0,0,0,-1,1539,1527,0,0
322,-503,0,0,0,0,0,0,0,0,0,-1,1546,1527,0,0
329,-503,0,0,0,0,0,0,0,0,0,-1,1553,1527,0,0
336,-503,0,0,0,0,0,0,0,0,0,-1,1560,1527,0,0
343,-503,0,0,0,0,0,0,0,0,0,-1,1567,1527,0,0
350,-503,0,0,0,0,0,0,0,0,0,-1,1574,1527,0,0
357,-503,0,0,0,0,0,0,0,0,0,-1,1581,1527,0,0
364,-503,0,0,0,0,0,0,0,0,0,-1,1588,1527,0,0
371,-503,0,0,0,0,0,0,0,0,0,-1,1595,1527,0,0
378,-503,0,0,0,0,0,0,0,0,0,-1,1602,1527,0,0
385,-503,0,0,0,0,0,0,0,0,0,-1,1609,1527,0,0
392,-503,0,0,0,0,0,0,0,0,0,-1,1616,1527,0,0
399,-503,0,0,0,0,0,0,0,0,0,-1,1623,1527,0,0
406,-503,0,0,0,0,0,0,0,0,0,-1,1630,1527,0,0
413,-503,0,0,0,0,0,0,0,0,0,-1,1637,1527,0,0
420,-503,0,0,0,0,0,0,0,0,0,-1,1644,1527,0,0
427,-503,3.45776,1.2522,0,0,0,0,0,0,0,-1,1651,1527,3.45776,-1.25225
434,-503,3.88098,-2.7843,0,0,0,0,0,0,0,-1,1658,1527,3.88094,2.7843
441,-503,2.68201,3.20447,0,0,0,0,0,0,0,-1,1665,1527,2.68202,-3.20451
448,-503,2.2865,2.89355,0,0,0,0,0,0,0,-1,1672,1527,2.28653,-2.89351
455,-503,3.9021,2.30701,0,0,0,0,0,0,0,-1,1679,1527,3.90213,-2.30699
462,-503,4.19922,2.33301,-0.00106091,0.0256064,0.0318512,0.0468023,-0.0222568,0.983627,0.0407021,0.0491865,1686,1527,4.19922,-2.33298
469,-503,4.5105,2.25818,-8.82744e-05,0.0216848,0.0348484,0.0473076,-0.025711,0.936794,0.0427675,0.047049,1693,1527,4.51053,-2.25815
476,-503,3.50122,0.203613,0,0,0,0,0,0,0,-1,1700,1527,3.50121,-0.203585
483,-503,3.34875,0.462769,0.00269925,0.0143471,0.0343075,0.0433215,-0.0262752,0.869475,0.0405814,0.0453978,1707,1527,3.34878,-0.46281
490,-503,2.79883,0.881226,0.00357413,0.00959509,0.0312607,0.0379899,-0.0248207,0.833401,0.0365285,0.0477296,1714,1527,2.79879,-0.881261
497,-503,3.29016,1.21204,0.00395603,0.00579767,0.0280974,0.0329893,-0.0232356,0.801779,0.0326239,0.0448552,1721,1527,3.29012,-1.21205
504,-503,3.29126,1.42859,0.00419143,0.0032774,0.0234614,0.0272003,-0.0197315,0.77566,0.0272102,0.0424156,1728,1527,3.29129,-1.42861
511,-503,3.06848,1.5697,0.00456997,0.00197368,0.0181951,0.0215131,-0.0149695,0.749786,0.0211759,0.0418287,1735,1527,3.06849,-1.56975
518,-503,2.9823,1.79822,0.00446379,0.000995575,0.0137187,0.0165576,-0.0110982,0.722529,0.0160704,0.0392324,1742,1527,2.98231,-1.79827
525,-503,3.01294,1.90955,0.00481919,1.33169e-05,0.0094307,0.0121483,-0.00731577,0.660653,0.0113524,0.0254706,1749,1527,3.0129,-1.90952
532,-503,3.047,1.92969,0.0056279,-0.000339717,0.0051329,0.00858124,-0.00329306,0.522116,0.00707862,0.0108712,1756,1527,3.04706,-1.92974
539,-503,3.04248,1.89075,0.0059009,-0.000787209,0.00204298,0.00647558,-0.00136189,0.274209,0.00483537,0.0109445,1763,1527,3.04243,-1.89073
546,-503,3.03674,1.82874,0.00520931,-0.000346499,0.000689038,0.00529349,-0.000430679,0.121568,0.00368096,0.0108216,1770,1527,3.03669,-1.82878
553,-503,3.05066,1.80127,0.00426541,0.000434641,-2.81985e-05,0.00426562,0.000434433,-0.00736054,0.00271056,0.0129413,1777,1527,3.05072,-1.80123
560,-503,3.0636,1.76318,0.0034887,0.00165201,-0.000748023,0.00375479,0.00138592,-0.341771,0.00219245,0.0131597,1784,1527,3.06355,-1.76319
567,-503,3.07593,1.70325,0.00298012,0.00281152,-0.00105268,0.00395187,0.00183977,-0.745442,0.00228342,0.0117529,1791,1527,3.07593,-1.70325
574,-503,3.06897,1.6803,0.00315405,0.00438634,-0.00102431,0.00496554,0.00257485,-1.05617,0.00286751,0.0113952,1798,1527,3.06895,-1.68029
581,-503,3.05042,1.66052,0.00333221,0.00537674,-0.00137161,0.00606513,0.00264382,-1.10564,0.00351128,0.012677,1805,1527,3.0504,-1.66058
588,-503,3.0459,1.61475,0.00379297,0.00658279,-0.00165359,0.00735124,0.00302451,-1.13577,0.00426638,0.0165247,1812,1527,3.04588,-1.61469
595,-503,3.06116,1.56555,0.00433367,0.00728926,-0.00218264,0.00844733,0.0031756,-1.08298,0.00492687,0.0124454,1819,1527,3.06115,-1.56557
602,-503,3.06311,1.51709,0.00481196,0.00756296,-0.00295988,0.00945134,0.00292358,-1.00291,0.00558742,0.0121801,1826,1527,3.0631,-1.51703
609,-503,3.07617,1.47522,0.00517091,0.00788698,-0.00372286,0.0104918,0.00256612,-0.960289,0.00631538,0.0141679,1833,1527,3.07613,-1.47517
616,-503,3.06128,1.42712,0.00552109,0.00735583,-0.00507972,0.0116004,0.00127657,-0.874733,0.00734512,0.018845,1840,1527,3.06123,-1.42715
623,-503,3.08679,1.56848,0.00538808,0.00605372,-0.00669961,0.0124288,-0.000986973,-0.810216,0.00863367,0.0356857,1847,1527,3.08683,-1.56845
630,-503,3.19653,1.8811,0.00437296,0.00368755,-0.00889399,0.0129308,-0.00487033,-0.766142,0.0106229,0.043287,1854,1527,3.19649,-1.88114
637,-503,3.33752,1.85181,0.00221103,0.000130558,-0.0118262,0.0130427,-0.0107011,-0.741531,0.0137307,0.047922,1861,1527,3.33758,-1.85177
644,-503,3.40869,1.65869,-0.00136904,-0.00464557,-0.015684,0.0127621,-0.0187767,-0.73336,0.0183189,0.0487416,1868,1527,3.40868,-1.65864
651,-503,3.15698,1.65588,-0.00666343,-0.010486,-0.0206379,0.0121515,-0.029301,-0.739225,0.0246059,0.0465013,1875,1527,3.15696,-1.65591
658,-503,2.74414,1.4823,-0.0137671,-0.0170642,-0.0268623,0.0114972,-0.0423285,-0.754752,0.0327316,0.0440954,1882,1527,2.74415,-1.48235
665,-503,0,0,0,0,0,0,0,0,0,-1,1889,1527,0,0
672,-503,0,0,0,0,0,0,0,0,0,-1,1896,1527,0,0
679,-503,0,0,0,0,0,0,0,0,0,-1,1903,1527,0,0
686,-503,0,0,0,0,0,0,0,0,0,-1,1910,1527,0,0
693,-503,0,0,0,0,0,0,0,0,0,-1,1917,1527,0,0
700,-503,0,0,0,0,0,0,0,0,0,-1,1924,1527,0,0
707,-503,0,0,0,0,0,0,0,0,0,-1,1931,1527,0,0
714,-503,0,0,0,0,0,0,0,0,0,-1,1938,1527,0,0
721,-503,0,0,0,0,0,0,0,0,0,-1,1945,1527,0,0
728,-503,0,0,0,0,0,0,0,0,0,-1,1952,1527,0,0
735,-503,0,0,0,0,0,0,0,0,0,-1,1959,1527,0,0
742,-503,0,0,0,0,0,0,0,0,0,-1,1966,1527,0,0
749,-503,0,0,0,0,0,0,0,0,0,-1,1973,1527,0,0
756,-503,0,0,0,0,0,0,0,0,0,-1,1980,1527,0,0
763,-503,0,0,0,0,0,0,0,0,0,-1,1987,1527,0,0
770,-503,0,0,0,0,0,0,0,0,0,-1,1994,1527,0,0
777,-503,0,0,0,0,0,0,0,0,0,-1,2001,1527,0,0
784,-503,0,0,0,0,0,0,0,0,0,-1,2008,1527,0,0
791,-503,0,0,0,0,0,0,0,0,0,-1,2015,1527,0,0
798,-503,0,0,0,0,0,0,0,0,0,-1,2022,1527,0,0
805,-503,0,0,0,0,0,0,0,0,0,-1,2029,1527,0,0
812,-503,0,0,0,0,0,0,0,0,0,-1,2036,1527,0,0
-700,-510,0,0,0,0,0,0,0,0,0,-1,524,1534,0,0
-693,-510,0,0,0,0,0,0,0,0,0,-1,531,1534,0,0
-686,-510,0,0,0,0,0,0,0,0,0,-1,538,1534,0,0
-679,-510,0,0,0,0,0,0,0,0,0,-1,545,1534,0,0
-672,-510,0,0,0,0,0,0,0,0,0,-1,552,1534,0,0
-665,-510,0,0,0,0,0,0,0,0,0,-1,559,1534,0,0
-658,-510,0,0,0,0,0,0,0,0,0,-1,566,1534,0,0
-651,-510,0,0,0,0,0,0,0,0,0,-1,573,1534,0,0
-644,-510,0,0,0,0,0,0,0,0,0,-1,580,1534,0,0
-637,-510,0,0,0,0,0,0,0,0,0,-1,587,1534,0,0
-630,-510,0,0,0,0,0,0,0,0,0,-1,594,1534,0,0
-623,-510,0,0,0,0,0,0,0,0,0,-1,601,1534,0,0
-616,-510,0,0,0,0,0,0,0,0,0,-1,608,1534,0,0
-609,-510,0,0,0,0,0,0,0,0,0,-1,615,1534,0,0
-602,-510,0,0,0,0,0,0,0,0,0,-1,622,1534,0,0
-595,-510,0,0,0,0,0,0,0,0,0,-1,629,1534,0,0
-588,-510,0,0,0,0,0,0,0,0,0,-1,636,1534,0,0
-581,-510,0,0,0,0,0,0,0,0,0,-1,643,1534,0,0
-574,-510,0,0,0,0,0,0,0,0,0,-1,650,1534,0,0
-567,-510,0,0,0,0,0,0,0,0,0,-1,657,1534,0,0
-560,-510,0,0,0,0,0,0,0,0,0,-1,664,1534,0,0
-553,-510,0,0,0,0,0,0,0,0,0,-1,671,1534,0,0
-546,-510,0,0,0,0,0,0,0,0,0,-1,678,1534,0,0
-539,-510,0,0,0,0,0,0,0,0,0,-1,685,1534,0,0
-532,-510,0.492798,-1.4718,0.117782,0.0861024,0.00754361,0.119486,0.0843978,0.222232,0.0709166,0.0439123,692,1534,0.492821,1.47185
-525,-510,1.60132,-1.63574,0.0975949,0.0720866,0.00695637,0.0993686,0.0703128,0.24966,0.0589958,0.0478926,699,1534,1.60129,1.63575
-518,-510,2.75922,-1.68372,0,0,0,0,0,0,0,-1,706,1534,2.75924,1.68374
-511,-510,1.12695,2.07861,0,0,0,0,0,0,0,-1,713,1534,1.12697,-2.07867
-504,-510,0.915588,2.08386,0,0,0,0,0,0,0,-1,720,1534,0.915591,-2.08389
-497,-510,0.971924,1.52893,0,0,0,0,0,0,0,-1,727,1534,0.971929,-1.52893
-490,-510,1.0603,1.56409,0.0228526,0.0235663,0.00191703,0.0251594,0.0212595,0.877423,0.015636,0.0466482,734,1534,1.06028,-1.56412
-483,-510,1.10608,1.51221,0.012299,0.0157401,0.00104381,0.016032,0.0120071,1.29814,0.00963089,0.0390487,741,1534,1.1061,-1.51221
-476,-510,1.06915,1.46594,0.00424191,0.00713575,0.000868531,0.00737641,0.00400125,1.30049,0.00426388,0.0224628,748,1534,1.06913,-1.46591
-469,-510,1.04858,1.49573,0.000616173,0.0028221,0.00052981,0.00294275,0.000495525,1.34689,0.00181929,0.00900759,755,1534,1.04856,-1.49578
-462,-510,1.05927,1.54138,0.000297849,0.00188902,0.000470554,0.00201776,0.000169109,1.30374,0.0012925,0.00997462,762,1534,1.05926,-1.54144
-455,-510,1.05756,1.58606,0.000313236,0.00103449,0.000427386,0.00123307,0.000114658,1.13584,0.000786619,0.0121829,769,1534,1.05759,-1.586
-448,-510,1.06689,1.62732,0.000667463,0.000363029,0.00048114,0.00101989,1.0602e-05,0.632196,0.000676421,0.0121271,776,1534,1.06691,-1.62729
-441,-510,1.06976,1.66577,0.00103425,-0.000410939,0.000497636,0.00118903,-0.000565718,0.301543,0.00103419,0.0125547,783,1534,1.06973,-1.66576
-434,-510,1.05573,1.68701,0.00166858,-0.000993198,0.00053121,0.00177067,-0.0010953,0.189882,0.00166991,0.0135172,790,1534,1.0557,-1.68702
-427,-510,1.04663,1.73401,0.00256988,-0.00176395,0.000563169,0.00264187,-0.00183594,0.127134,0.00259919,0.0212526,797,1534,1.04662,-1.73396
-420,-510,1.05994,1.81384,0.00303197,-0.00232991,0.000590485,0.00309623,-0.00239416,0.108396,0.0031785,0.0204674,804,1534,1.05997,-1.81381
-413,-510,1.06757,1.82446,0.00350598,-0.00293049,0.000673285,0.00357566,-0.00300017,0.103117,0.0038014,0.0103387,811,1534,1.06754,-1.82445
-406,-510,1.052,1.84009,0.0059253,-0.003787,0.000739092,0.00598122,-0.00384292,0.075519,0.00571658,0.00964511,818,1534,1.05197,-1.8401
-399,-510,1.05481,1.87842,0.009706,-0.00512562,0.00187072,0.00993832,-0.00535794,0.123553,0.00896231,0.0108359,825,1534,1.05481,-1.87847
-392,-510,1.07239,1.93604,0.0134691,-0.00670956,0.00308937,0.0139315,-0.00717195,0.148568,0.0123907,0.0136731,832,1534,1.07239,-1.93606
-385,-510,1.05292,1.96741,0.0184839,-0.00908915,0.0054034,0.019505,-0.0101102,0.186767,0.0173828,0.0186962,839,1534,1.05289,-1.96746
-378,-510,1.06158,1.92712,0.0246865,-0.0112791,0.0078627,0.0263303,-0.0129229,0.206094,0.0230993,0.030147,846,1534,1.06161,-1.92707
-371,-510,1.04205,1.83716,0.0323469,-0.0132312,0.0110589,0.0348885,-0.0157728,0.225898,0.0299353,0.0414491,853,1534,1.04205,-1.83718
-364,-510,1.16302,1.40796,0,0,0,0,0,0,0,-1,860,1534,1.16303,-1.40797
-357,-510,1.50555,1.35254,0.0559966,-0.0127286,0.0161335,0.0595955,-0.0163275,0.219478,0.046146,0.0494785,867,1534,1.50558,-1.35259
-350,-510,2.62268,1.20776,0.0698041,-0.0106734,0.0175361,0.0734592,-0.0143285,0.205492,0.0543819,0.0399242,874,1534,2.62267,-1.20772
-343,-510,2.94873,0.984009,0.0826079,-0.007435,0.0168045,0.0856418,-0.0104689,0.17862,0.060885,0.0434244,881,1534,2.9487,-0.983971
-336,-510,3.38293,1.27893,0,0,0,0,0,0,0,-1,888,1534,3.38294,-1.27897
-329,-510,2.31586,0.888184,0,0,0,0,0,0,0,-1,895,1534,2.31584,-0.88817
-322,-510,2.98126,0.71106,0,0,0,0,0,0,0,-1,902,1534,2.98127,-0.711069
-315,-510,3.62573,0.994263,0,0,0,0,0,0,0,-1,909,1534,3.62572,-0.994202
-308,-510,2.51465,3.84644,0,0,0,0,0,0,0,-1,916,1534,2.51462,-3.84647
-301,-510,3.44592,3.44336,0,0,0,0,0,0,0,-1,923,1534,3.44591,-3.44338
-294,-510,0,0,0,0,0,0,0,0,0,-1,930,1534,0,0
-287,-510,0,0,0,0,0,0,0,0,0,-1,937,1534,0,0
-280,-510,0,0,0,0,0,0,0,0,0,-1,944,1534,0,0
-273,-510,0,0,0,0,0,0,0,0,0,-1,951,1534,0,0
-266,-510,0,0,0,0,0,0,0,0,0,-1,958,1534,0,0
-259,-510,0,0,0,0,0,0,0,0,0,-1,965,1534,0,0
-252,-510,0,0,0,0,0,0,0,0,0,-1,972,1534,0,0
-245,-510,0,0,0,0,0,0,0,0,0,-1,979,1534,0,0
-238,-510,0,0,0,0,0,0,0,0,0,-1,986,1534,0,0
-231,-510,0,0,0,0,0,0,0,0,0,-1,993,1534,0,0
-224,-510,0,0,0,0,0,0,0,0,0,-1,1000,1534,0,0
-217,-510,0,0,0,0,0,0,0,0,0,-1,1007,1534,0,0
-210,-510,0,0,0,0,0,0,0,0,0,-1,1014,1534,0,0
-203,-510,0,0,0,0,0,0,0,0,0,-1,1021,1534,0,0
-196,-510,0,0,0,0,0,0,0,0,0,-1,1028,1534,0,0
-189,-510,0,0,0,0,0,0,0,0,0,-1,1035,1534,0,0
-182,-510,0,0,0,0,0,0,0,0,0,-1,1042,1534,0,0
-175,-510,0,0,0,0,0,0,0,0,0,-1,1049,1534,0,0
-168,-510,0,0,0,0,0,0,0,0,0,-1,1056,1534,0,0
-161,-510,0,0,0,0,0,0,0,0,0,-1,1063,1534,0,0
-154,-510,0,0,0,0,0,0,0,0,0,-1,1070,1534,0,0
-147,-510,0,0,0,0,0,0,0,0,0,-1,1077,1534,0,0
-140,-510,0,0,0,0,0,0,0,0,0,-1,1084,1534,0,0
-133,-510,0,0,0,0,0,0,0,0,0,-1,1091,1534,0,0
-126,-510,0,0,0,0,0,0,0,0,0,-1,1098,1534,0,0
-119,-510,0,0,0,0,0,0,0,0,0,-1,1105,1534,0,0
-112,-510,0,0,0,0,0,0,0,0,0,-1,1112,1534,0,0
-105,-510,0,0,0,0,0,0,0,0,0,-1,1119,1534,0,0
-98,-510,0,0,0,0,0,0,0,0,0,-1,1126,1534,0,0
-91,-510,0,0,0,0,0,0,0,0,0,-1,1133,1534,0,0
-84,-510,0,0,0,0,0,0,0,0,0,-1,1140,1534,0,0
-77,-510,0,0,0,0,0,0,0,0,0,-1,1147,1534,0,0
-70,-510,0,0,0,0,0,0,0,0,0,-1,1154,1534,0,0
-63,-510,0,0,0,0,0,0,0,0,0,-1,1161,1534,0,0
-56,-510,0,0,0,0,0,0,0,0,0,-1,1168,1534,0,0
-49,-510,0,0,0,0,0,0,0,0,0,-1,1175,1534,0,0
-42,-510,0,0,0,0,0,0,0,0,0,-1,1182,1534,0,0
-35,-510,0,0,0,0,0,0,0,0,0,-1,1189,1534,0,0
-28,-510,0,0,0,0,0,0,0,0,0,-1,1196,1534,0,0
-21,-510,0,0,0,0,0,0,0,0,0,-1,1203,1534,0,0
-14,-510,0,0,0,0,0,0,0,0,0,-1,1210,1534,0,0
-7,-510,0,0,0,0,0,0,0,0,0,-1,1217,1534,0,0
0,-510,0,0,0,0,0,0,0,0,0,-1,1224,1534,0,0
7,-510,0,0,0,0,0,0,0,0,0,-1,1231,1534,0,0
14,-510,0,0,0,0,0,0,0,0,0,-1,1238,1534,0,0
21,-510,0,0,0,0,0,0,0,0,0,-1,1245,1534,0,0
28,-510,0,0,0,0,0,0,0,0,0,-1,1252,1534,0,0
35,-510,0,0,0,0,0,0,0,0,0,-1,1259,1534,0,0
42,-510,0,0,0,0,0,0,0,0,0,-1,1266,1534,0,0
49,-510,0,0,0,0,0,0,0,0,0,-1,1273,1534,0,0
56,-510,0,0,0,0,0,0,0,0,0,-1,1280,1534,0,0
63,-510,0,0,0,0,0,0,0,0,0,-1,1287,1534,0,0
70,-510,0,0,0,0,0,0,0,0,0,-1,1294,1534,0,0
77,-510,0,0,0,0,0,0,0,0,0,-1,1301,1534,0,0
84,-510,0,0,0,0,0,0,0,0,0,-1,1308,1534,0,0
91,-510,0,0,0,0,0,0,0,0,0,-1,1315,1534,0,0
98,-510,0,0,0,0,0,0,0,0,0,-1,1322,1534,0,0
105,-510,0,0,0,0,0,0,0,0,0,-1,1329,1534,0,0
112,-510,0,0,0,0,0,0,0,0,0,-1,1336,1534,0,0
119,-510,0,0,0,0,0,0,0,0,0,-1,1343,1534,0,0
126,-510,0,0,0,0,0,0,0,0,0,-1,1350,1534,0,0
133,-510,0,0,0,0,0,0,0,0,0,-1,1357,1534,0,0
140,-510,0,0,0,0,0,0,0,0,0,-1,1364,1534,0,0
147,-510,0,0,0,0,0,0,0,0,0,-1,1371,1534,0,0
154,-510,0,0,0,0,0,0,0,0,0,-1,1378,1534,0,0
161,-510,0,0,0,0,0,0,0,0,0,-1,1385,1534,0,0
168,-510,0,0,0,0,0,0,0,0,0,-1,1392,1534,0,0
175,-510,0,0,0,0,0,0,0,0,0,-1,1399,1534,0,0
182,-510,0,0,0,0,0,0,0,0,0,-1,1406,1534,0,0
189,-510,0,0,0,0,0,0,0,0,0,-1,1413,1534,0,0
196,-510,0,0,0,0,0,0,0,0,0,-1,1420,1534,0,0
203,-510,0,0,0,0,0,0,0,0,0,-1,1427,1534,0,0
210,-510,0,0,0,0,0,0,0,0,0,-1,1434,1534,0,0
217,-510,0,0,0,0,0,0,0,0,0,-1,1441,1534,0,0
224,-510,0,0,0,0,0,0,0,0,0,-1,1448,1534,0,0
231,-510,0,0,0,0,0,0,0,0,0,-1,1455,1534,0,0
238,-510,0,0,0,0,0,0,0,0,0,-1,1462,1534,0,0
245,-510,0,0,0,0,0,0,0,0,0,-1,1469,1534,0,0
252,-510,0,0,0,0,0,0,0,0,0,-1,1476,1534,0,0
259,-510,0,0,0,0,0,0,0,0,0,-1,1483,1534,0,0
266,-510,0,0,0,0,0,0,0,0,0,-1,1490,1534,0,0
273,-510,0,0,0,0,0,0,0,0,0,-1,1497,1534,0,0
280,-510,0,0,0,0,0,0,0,0,0,-1,1504,1534,0,0
287,-510,0,0,0,0,0,0,0,0,0,-1,1511,1534,0,0
294,-510,0,0,0,0,0,0,0,0,0,-1,1518,1534,0,0
301,-510,0,0,0,0,0,0,0,0,0,-1,1525,1534,0,0
308,-510,0,0,0,0,0,0,0,0,0,-1,1532,1534,0,0
315,-510,0,0,0,0,0,0,0,0,0,-1,1539,1534,0,0
322,-510,0,0,0,0,0,0,0,0,0,-1,1546,1534,0,0
329,-510,0,0,0,0,0,0,0,0,0,-1,1553,1534,0,0
336,-510,0,0,0,0,0,0,0,0,0,-1,1560,1534,0,0
343,-510,0,0,0,0,0,0,0,0,0,-1,1567,1534,0,0
350,-510,0,0,0,0,0,0,0,0,0,-1,1574,1534,0,0
357,-510,0,0,0,0,0,0,0,0,0,-1,1581,1534,0,0
364,-510,0,0,0,0,0,0,0,0,0,-1,1588,1534,0,0
371,-510,0,0,0,0,0,0,0,0,0,-1,1595,1534,0,0
378,-510,0,0,0,0,0,0,0,0,0,-1,1602,1534,0,0
385,-510,0,0,0,0,0,0,0,0,0,-1,1609,1534,0,0
392,-510,0,0,0,0,0,0,0,0,0,-1,1616,1534,0,0
399,-510,0,0,0,0,0,0,0,0,0,-1,1623,1534,0,0
406,-510,0,0,0,0,0,0,0,0,0,-1,1630,1534,0,0
413,-510,0,0,0,0,0,0,0,0,0,-1,1637,1534,0,0
420,-510,4.25012,1.89111,-0.0277977,0.0165835,-0.0250259,0.0278401,-0.0390544,-1.14811,0.038802,0.0439982,1644,1534,4.25007,-1.89111
427,-510,3.81274,1.4989,-0.0224524,0.0196028,-0.0144384,0.0240826,-0.0269322,-1.26994,0.0294687,0.0451797,1651,1534,3.81269,-1.49888
434,-510,3.45044,3.12305,0,0,0,0,0,0,0,-1,1658,1534,3.45042,-3.1231
441,-510,3.0116,2.82629,-0.0133673,0.02212,0.0047508,0.022745,-0.0139923,1.43999,0.02141,0.0481333,1665,1534,3.01159,-2.82635
448,-510,2.724,2.36401,0,0,0,0,0,0,0,-1,1672,1534,2.72399,-2.36407
455,-510,3.72595,2.36768,0,0,0,0,0,0,0,-1,1679,1534,3.72592,-2.36771
462,-510,4.08118,2.57324,-0.00477179,0.0173336,0.0236497,0.0323859,-0.0198241,1.00399,0.0304329,0.04678,1686,1534,4.08119,-2.57322
469,-510,4.73169,2.98438,-0.00333334,0.0147281,0.0264289,0.0336266,-0.0222319,0.950028,0.0324728,0.0467448,1693,1534,4.73164,-2.98436
476,-510,5.47534,3.29285,0,0,0,0,0,0,0,-1,1700,1534,5.4753,-3.29289
483,-510,3.32019,1.59619,0,0,0,0,0,0,0,-1,1707,1534,3.32025,-1.59622
490,-510,2.0083,1.13843,0,0,0,0,0,0,0,-1,1714,1534,2.00826,-1.13843
497,-510,3.02832,2.07971,0,0,0,0,0,0,0,-1,1721,1534,3.02836,-2.07966
504,-510,2.76379,1.74695,0.00172975,0.00119063,0.0189676,0.0204297,-0.0175093,0.778293,0.0219257,0.0390859,1728,1534,2.76377,-1.74689
511,-510,2.91895,1.78357,0.00221933,0.000378383,0.0148638,0.0161912,-0.0135934,0.754474,0.0172179,0.0374865,1735,1534,2.91891,-1.78354
518,-510,2.94055,1.896,0.00224378,-0.000154385,0.0112898,0.012398,-0.0103086,0.732491,0.0131281,0.0286736,1742,1534,2.94055,-1.89597
525,-510,3.0155,1.96582,0.00269215,-0.000745228,0.0078309,0.00899075,-0.00704383,0.677373,0.00928029,0.0142117,1749,1534,3.01548,-1.96576
532,-510,3.0293,1.93201,0.0035929,-0.000773678,0.00435617,0.00628228,-0.00346307,0.553097,0.00570442,0.0114565,1756,1534,3.02924,-1.93195
539,-510,3.01428,1.8905,0.00402397,-0.000823697,0.00178494,0.00461029,-0.00141001,0.317374,0.00363583,0.0121635,1763,1534,3.0143,-1.89055
546,-510,2.98669,1.84436,0.00359849,-0.000189492,0.000460947,0.00365377,-0.000244776,0.119366,0.00252141,0.011387,1770,1534,2.98669,-1.84431
553,-510,2.98975,1.80505,0.00298187,0.000869227,-0.00036946,0.00304462,0.000806479,-0.168231,0.00182144,0.0122389,1777,1534,2.9898,-1.80503
560,-510,3.00098,1.76587,0.00251914,0.00241081,-0.00130001,0.00376611,0.00116384,-0.764578,0.0022266,0.0127803,1784,1534,3.00093,-1.76585
567,-510,3.02966,1.71423,0.00237169,0.00392313,-0.00178731,0.0050958,0.00119903,-0.99014,0.00307642,0.0116557,1791,1534,3.02963,-1.71424
574,-510,3.03992,1.66125,0.00299284,0.00615969,-0.00183904,0.00700305,0.00214948,-1.14082,0.00414246,0.0122443,1798,1534,3.03988,-1.66128
581,-510,3.01001,1.64819,0.00358615,0.00774898,-0.0024257,0.00886386,0.00247126,-1.13998,0.00528185,0.0112345,1805,1534,3.01004,-1.64823
588,-510,2.99792,1.6167,0.00453825,0.00959467,-0.00291889,0.010928,0.00320488,-1.1423,0.00648657,0.0124866,1812,1534,2.99796,-1.61674
595,-510,3.0144,1.54919,0.00556833,0.0109895,-0.00363746,0.0128153,0.00374258,-1.10561,0.00760923,0.0117783,1819,1534,3.01438,-1.54919
602,-510,3.00964,1.49109,0.00646145,0.0119724,-0.00464017,0.0146136,0.00382029,-1.05334,0.00875148,0.0148585,1826,1534,3.00967,-1.49111
609,-510,3.03381,1.49146,0.00728078,0.0129835,-0.00566788,0.0164768,0.00378743,-1.01845,0.00996494,0.0232205,1833,1534,3.03383,-1.49147
616,-510,3.09082,1.40051,0.0081271,0.0130765,-0.00730493,0.0183145,0.00288906,-0.948715,0.0113697,0.0367003,1840,1534,3.09083,-1.40054
623,-510,3.47791,1.94385,0.00845426,0.0122346,-0.00926838,0.0198036,0.000885252,-0.885986,0.0129174,0.040142,1847,1534,3.47786,-1.9439
630,-510,3.49182,2.16296,0.00778552,0.010074,-0.0118892,0.0208739,-0.00301439,-0.833371,0.0150219,0.0425423,1854,1534,3.49187,-2.16297
637,-510,3.85449,2.15527,0.00582391,0.00630218,-0.0153541,0.021419,-0.00929289,-0.793185,0.0181864,0.0479528,1861,1534,3.85445,-2.15532
644,-510,4.12659,2.31555,0.0022316,0.000867369,-0.0200087,0.0215698,-0.0184708,-0.768359,0.0231405,0.0483819,1868,1534,4.12654,-2.31559
651,-510,3.91736,2.30042,-0.00347951,-0.00609894,-0.0259862,0.0212299,-0.0308084,-0.760219,0.0302135,0.0456607,1875,1534,3.91736,-2.30041
658,-510,0,0,0,0,0,0,0,0,0,-1,1882,1534,0,0
665,-510,0,0,0,0,0,0,0,0,0,-1,1889,1534,0,0
672,-510,0,0,0,0,0,0,0,0,0,-1,1896,1534,0,0
679,-510,0,0,0,0,0,0,0,0,0,-1,1903,1534,0,0
686,-510,0,0,0,0,0,0,0,0,0,-1,1910,1534,0,0
693,-510,0,0,0,0,0,0,0,0,0,-1,1917,1534,0,0
700,-510,0,0,0,0,0,0,0,0,0,-1,1924,1534,0,0
707,-510,0,0,0,0,0,0,0,0,0,-1,1931,1534,0,0
714,-510,0,0,0,0,0,0,0,0,0,-1,1938,1534,0,0
721,-510,0,0,0,0,0,0,0,0,0,-1,1945,1534,0,0
728,-510,0,0,0,0,0,0,0,0,0,-1,1952,1534,0,0
735,-510,0,0,0,0,0,0,0,0,0,-1,1959,1534,0,0
742,-510,0,0,0,0,0,0,0,0,0,-1,1966,1534,0,0
749,-510,0,0,0,0,0,0,0,0,0,-1,1973,1534,0,0
756,-510,0,0,0,0,0,0,0,0,0,-1,1980,1534,0,0
763,-510,0,0,0,0,0,0,0,0,0,-1,1987,1534,0,0
770,-510,0,0,0,0,0,0,0,0,0,-1,1994,1534,0,0
777,-510,0,0,0,0,0,0,0,0,0,-1,2001,1534,0,0
784,-510,0,0,0,0,0,0,0,0,0,-1,2008,1534,0,0
791,-510,0,0,0,0,0,0,0,0,0,-1,2015,1534,0,0
798,-510,0,0,0,0,0,0,0,0,0,-1,2022,1534,0,0
805,-510,0,0,0,0,0,0,0,0,0,-1,2029,1534,0,0
812,-510,0,0,0,0,0,0,0,0,0,-1,2036,1534,0,0
-700,-517,0,0,0,0,0,0,0,0,0,-1,524,1541,0,0
-693,-517,0,0,0,0,0,0,0,0,0,-1,531,1541,0,0
-686,-517,0,0,0,0,0,0,0,0,0,-1,538,1541,0,0
-679,-517,0,0,0,0,0,0,0,0,0,-1,545,1541,0,0
-672,-517,0,0,0,0,0,0,0,0,0,-1,552,1541,0,0
-665,-517,0,0,0,0,0,0,0,0,0,-1,559,1541,0,0
-658,-517,0,0,0,0,0,0,0,0,0,-1,566,1541,0,0
-651,-517,0,0,0,0,0,0,0,0,0,-1,573,1541,0,0
-644,-517,0,0,0,0,0,0,0,0,0,-1,580,1541,0,0
-637,-517,0,0,0,0,0,0,0,0,0,-1,587,1541,0,0
-630,-517,0,0,0,0,0,0,0,0,0,-1,594,1541,0,0
-623,-517,0,0,0,0,0,0,0,0,0,-1,601,1541,0,0
-616,-517,0,0,0,0,0,0,0,0,0,-1,608,1541,0,0
-609,-517,0,0,0,0,0,0,0,0,0,-1,615,1541,0,0
-602,-517,0,0,0,0,0,0,0,0,0,-1,622,1541,0,0
-595,-517,0,0,0,0,0,0,0,0,0,-1,629,1541,0,0
-588,-517,0,0,0,0,0,0,0,0,0,-1,636,1541,0,0
-581,-517,0,0,0,0,0,0,0,0,0,-1,643,1541,0,0
-574,-517,0,0,0,0,0,0,0,0,0,-1,650,1541,0,0
-567,-517,0,0,0,0,0,0,0,0,0,-1,657,1541,0,0
-560,-517,0,0,0,0,0,0,0,0,0,-1,664,1541,0,0
-553,-517,0,0,0,0,0,0,0,0,0,-1,671,1541,0,0
-546,-517,0,0,0,0,0,0,0,0,0,-1,678,1541,0,0
-539,-517,0,0,0,0,0,0,0,0,0,-1,685,1541,0,0
-532,-517,0,0,0,0,0,0,0,0,0,-1,692,1541,0,0
-525,-517,1.17059,-2.59058,0,0,0,0,0,0,0,-1,699,1541,1.1706,2.59061
-518,-517,2.38696,-2.25488,0,0,0,0,0,0,0,-1,706,1541,2.38696,2.25484
-511,-517,1.78796,1.62793,0,0,0,0,0,0,0,-1,713,1541,1.78796,-1.62795
-504,-517,1.59753,1.59814,0,0,0,0,0,0,0,-1,720,1541,1.59754,-1.59815
-497,-517,1.65442,1.72876,0,0,0,0,0,0,0,-1,727,1541,1.65443,-1.7288
-490,-517,1.66492,1.67554,0,0,0,0,0,0,0,-1,734,1541,1.66494,-1.67557
-483,-517,1.47968,1.45996,0.0156508,0.0196684,0.000963035,0.0198874,0.0154319,1.34728,0.0120508,0.0375916,741,1541,1.47966,-1.46001
-476,-517,1.11621,1.41284,0.00634049,0.00947656,0.000900625,0.0097168,0.00610025,1.31012,0.00567076,0.0294528,748,1541,1.1162,-1.41287
-469,-517,1.0824,1.47522,0.00198127,0.00418955,0.000676695,0.00438042,0.00179041,1.29588,0.00254304,0.0116482,755,1541,1.08242,-1.47526
-462,-517,1.09314,1.52551,0.00137718,0.00276317,0.000724642,0.00307285,0.0010675,1.16694,0.00180144,0.0112363,762,1541,1.09312,-1.52555
-455,-517,1.09857,1.57178,0.00107304,0.00162634,0.000682295,0.00208594,0.000613438,0.978005,0.00123789,0.0114711,769,1541,1.09858,-1.57181
-448,-517,1.10364,1.61475,0.00108116,0.000814293,0.000681675,0.00164234,0.000253116,0.688747,0.00102103,0.012042,776,1541,1.10362,-1.61472
-441,-517,1.08832,1.6532,0.00110214,-3.38114e-05,0.000672584,0.00141449,-0.000346157,0.434761,0.00107708,0.0116315,783,1541,1.08832,-1.65319
-434,-517,1.08405,1.68774,0.00140761,-0.000513967,0.000636239,0.00159917,-0.000705531,0.292454,0.00136356,0.01399,790,1541,1.08407,-1.68769
-427,-517,1.09375,1.72778,0.00209161,-0.00120708,0.000549707,0.0021808,-0.00129627,0.160855,0.00202902,0.0133619,797,1541,1.09377,-1.72784
-420,-517,1.09839,1.79895,0.00222924,-0.00168745,0.000546154,0.00230397,-0.00176218,0.135988,0.00235453,0.0186238,804,1541,1.09838,-1.799
-413,-517,1.10944,1.82312,0.00239881,-0.00210688,0.000548327,0.00246458,-0.00217265,0.119375,0.00267908,0.00993755,811,1541,1.10944,-1.82307
-406,-517,1.09192,1.85425,0.00436235,-0.00282797,0.000547418,0.00440379,-0.00286941,0.0755522,0.00423022,0.0100296,818,1541,1.09195,-1.85429
-399,-517,1.09363,1.89026,0.00743702,-0.003997,0.00145866,0.00762017,-0.00418015,0.124907,0.00690874,0.0107925,825,1541,1.09365,-1.8902
-392,-517,1.1001,1.92834,0.010454,-0.00537866,0.00244516,0.010823,-0.00574769,0.14979,0.00971552,0.0110881,832,1541,1.1001,-1.92833
-385,-517,1.1123,1.99304,0.0144437,-0.00744851,0.00441719,0.0153013,-0.00830617,0.191778,0.0138278,0.0123449,839,1541,1.11233,-1.99308
-378,-517,1.11865,1.98157,0.0192001,-0.00926134,0.00640662,0.0205757,-0.010637,0.211509,0.0183227,0.0197041,846,1541,1.11865,-1.98163
-371,-517,1.23877,1.79749,0.0250387,-0.0107633,0.00895433,0.0271534,-0.0128779,0.231909,0.0235968,0.0327507,853,1541,1.23878,-1.79751
-364,-517,1.20209,1.69861,0.0333157,-0.0109567,0.0111962,0.0359861,-0.013627,0.234132,0.0295979,0.0445291,860,1541,1.20209,-1.69865
-357,-517,1.21985,1.62048,0.0437813,-0.00999552,0.0128127,0.046678,-0.0128922,0.222341,0.0361898,0.046647,867,1541,1.21987,-1.62047
-350,-517,1.56506,1.51404,0.054766,-0.00788321,0.0138524,0.0576922,-0.0108094,0.208183,0.0425251,0.0416089,874,1541,1.56507,-1.51401
-343,-517,2.16742,1.36853,0.064696,-0.00462722,0.0128706,0.0670084,-0.00693964,0.177771,0.047156,0.0409149,881,1541,2.16744,-1.36849
-336,-517,2.79773,1.28687,0.0761535,-0.000458002,0.0112818,0.0777803,-0.0020848,0.14321,0.0525622,0.0460514,888,1541,2.79774,-1.28684
-329,-517,3.13129,2.46912,0,0,0,0,0,0,0,-1,895,1541,3.13128,-2.46914
-322,-517,3.60736,0.436035,0,0,0,0,0,0,0,-1,902,1541,3.60733,-0.436026
-315,-517,1.35431,4.0321,0,0,0,0,0,0,0,-1,909,1541,1.35433,-4.03213
-308,-517,2.26312,3.54028,0.113732,0.0293906,-0.0128806,0.115656,0.0274674,-0.148219,0.0697739,0.0465373,916,1541,2.26311,-3.5403
-301,-517,3.18195,3.02454,0.113377,0.0386668,-0.0233635,0.120082,0.0319622,-0.279458,0.0718121,0.0478199,923,1541,3.18195,-3.0245
-294,-517,3.42261,2.61731,0.112671,0.0482454,-0.0386746,0.130791,0.0301254,-0.438152,0.0790882,0.0484422,930,1541,3.42259,-2.6173
-287,-517,3.79047,2.70068,0,0,0,0,0,0,0,-1,937,1541,3.79048,-2.70062
-280,-517,0,0,0,0,0,0,0,0,0,-1,944,1541,0,0
-273,-517,0,0,0,0,0,0,0,0,0,-1,951,1541,0,0
-266,-517,0,0,0,0,0,0,0,0,0,-1,958,1541,0,0
-259,-517,0,0,0,0,0,0,0,0,0,-1,965,1541,0,0
-252,-517,0,0,0,0,0,0,0,0,0,-1,972,1541,0,0
-245,-517,0,0,0,0,0,0,0,0,0,-1,979,1541,0,0
-238,-517,0,0,0,0,0,0,0,0,0,-1,986,1541,0,0
-231,-517,0,0,0,0,0,0,0,0,0,-1,993,1541,0,0
-224,-517,0,0,0,0,0,0,0,0,0,-1,1000,1541,0,0
-217,-517,0,0,0,0,0,0,0,0,0,-1,1007,1541,0,0
-210,-517,0,0,0,0,0,0,0,0,0,-1,1014,1541,0,0
-203,-517,0,0,0,0,0,0,0,0,0,-1,1021,1541,0,0
-196,-517,0,0,0,0,0,0,0,0,0,-1,1028,1541,0,0
-189,-517,0,0,0,0,0,0,0,0,0,-1,1035,1541,0,0
-182,-517,0,0,0,0,0,0,0,0,0,-1,1042,1541,0,0
-175,-517,0,0,0,0,0,0,0,0,0,-1,1049,1541,0,0
-168,-517,0,0,0,0,0,0,0,0,0,-1,1056,1541,0,0
-161,-517,0,0,0,0,0,0,0,0,0,-1,1063,1541,0,0
-154,-517,0,0,0,0,0,0,0,0,0,-1,1070,1541,0,0
-147,-517,0,0,0,0,0,0,0,0,0,-1,1077,1541,0,0
-140,-517,0,0,0,0,0,0,0,0,0,-1,1084,1541,0,0
-133,-517,0,0,0,0,0,0,0,0,0,-1,1091,1541,0,0
-126,-517,0,0,0,0,0,0,0,0,0,-1,1098,1541,0,0
-119,-517,0,0,0,0,0,0,0,0,0,-1,1105,1541,0,0
-112,-517,0,0,0,0,0,0,0,0,0,-1,1112,1541,0,0
-105,-517,0,0,0,0,0,0,0,0,0,-1,1119,1541,0,0
-98,-517,0,0,0,0,0,0,0,0,0,-1,1126,1541,0,0
-91,-517,0,0,0,0,0,0,0,0,0,-1,1133,1541,0,0
-84,-517,0,0,0,0,0,0,0,0,0,-1,1140,1541,0,0
-77,-517,0,0,0,0,0,0,0,0,0,-1,1147,1541,0,0
-70,-517,0,0,0,0,0,0,0,0,0,-1,1154,1541,0,0
-63,-517,0,0,0,0,0,0,0,0,0,-1,1161,1541,0,0
-56,-517,0,0,0,0,0,0,0,0,0,-1,1168,1541,0,0
-49,-517,0,0,0,0,0,0,0,0,0,-1,1175,1541,0,0
-42,-517,0,0,0,0,0,0,0,0,0,-1,1182,1541,0,0
-35,-517,0,0,0,0,0,0,0,0,0,-1,1189,1541,0,0
-28,-517,0,0,0,0,0,0,0,0,0,-1,1196,1541,0,0
-21,-517,0,0,0,0,0,0,0,0,0,-1,1203,1541,0,0
-14,-517,0,0,0,0,0,0,0,0,0,-1,1210,1541,0,0
-7,-517,0,0,0,0,0,0,0,0,0,-1,1217,1541,0,0
0,-517,0,0,0,0,0,0,0,0,0,-1,1224,1541,0,0
7,-517,0,0,0,0,0,0,0,0,0,-1,1231,1541,0,0
14,-517,0,0,0,0,0,0,0,0,0,-1,1238,1541,0,0
21,-517,0,0,0,0,0,0,0,0,0,-1,1245,1541,0,0
28,-517,0,0,0,0,0,0,0,0,0,-1,1252,1541,0,0
35,-517,0,0,0,0,0,0,0,0,0,-1,1259,1541,0,0
42,-517,0,0,0,0,0,0,0,0,0,-1,1266,1541,0,0
49,-517,0,0,0,0,0,0,0,0,0,-1,1273,1541,0,0
56,-517,0,0,0,0,0,0,0,0,0,-1,1280,1541,0,0
63,-517,0,0,0,0,0,0,0,0,0,-1,1287,1541,0,0
70,-517,0,0,0,0,0,0,0,0,0,-1,1294,1541,0,0
77,-517,0,0,0,0,0,0,0,0,0,-1,1301,1541,0,0
84,-517,0,0,0,0,0,0,0,0,0,-1,1308,1541,0,0
91,-517,0,0,0,0,0,0,0,0,0,-1,1315,1541,0,0
98,-517,0,0,0,0,0,0,0,0,0,-1,1322,1541,0,0
105,-517,0,0,0,0,0,0,0,0,0,-1,1329,1541,0,0
112,-517,0,0,0,0,0,0,0,0,0,-1,1336,1541,0,0
119,-517,0,0,0,0,0,0,0,0,0,-1,1343,1541,0,0
126,-517,0,0,0,0,0,0,0,0,0,-1,1350,1541,0,0
133,-517,0,0,0,0,0,0,0,0,0,-1,1357,1541,0,0
140,-517,0,0,0,0,0,0,0,0,0,-1,1364,1541,0,0
147,-517,0,0,0,0,0,0,0,0,0,-1,1371,1541,0,0
154,-517,0,0,0,0,0,0,0,0,0,-1,1378,1541,0,0
161,-517,0,0,0,0,0,0,0,0,0,-1,1385,1541,0,0
168,-517,0,0,0,0,0,0,0,0,0,-1,1392,1541,0,0
175,-517,0,0,0,0,0,0,0,0,0,-1,1399,1541,0,0
182,-517,0,0,0,0,0,0,0,0,0,-1,1406,1541,0,0
189,-517,0,0,0,0,0,0,0,0,0,-1,1413,1541,0,0
196,-517,0,0,0,0,0,0,0,0,0,-1,1420,1541,0,0
203,-517,0,0,0,0,0,0,0,0,0,-1,1427,1541,0,0
210,-517,0,0,0,0,0,0,0,0,0,-1,1434,1541,0,0
217,-517,0,0,0,0,0,0,0,0,0,-1,1441,1541,0,0
224,-517,0,0,0,0,0,0,0,0,0,-1,1448,1541,0,0
231,-517,0,0,0,0,0,0,0,0,0,-1,1455,1541,0,0
238,-517,0,0,0,0,0,0,0,0,0,-1,1462,1541,0,0
245,-517,0,0,0,0,0,0,0,0,0,-1,1469,1541,0,0
252,-517,0,0,0,0,0,0,0,0,0,-1,1476,1541,0,0
259,-517,0,0,0,0,0,0,0,0,0,-1,1483,1541,0,0
266,-517,0,0,0,0,0,0,0,0,0,-1,1490,1541,0,0
273,-517,0,0,0,0,0,0,0,0,0,-1,1497,1541,0,0
280,-517,0,0,0,0,0,0,0,0,0,-1,1504,1541,0,0
287,-517,0,0,0,0,0,0,0,0,0,-1,1511,1541,0,0
294,-517,0,0,0,0,0,0,0,0,0,-1,1518,1541,0,0
301,-517,0,0,0,0,0,0,0,0,0,-1,1525,1541,0,0
308,-517,0,0,0,0,0,0,0,0,0,-1,1532,1541,0,0
315,-517,0,0,0,0,0,0,0,0,0,-1,1539,1541,0,0
322,-517,0,0,0,0,0,0,0,0,0,-1,1546,1541,0,0
329,-517,0,0,0,0,0,0,0,0,0,-1,1553,1541,0,0
336,-517,0,0,0,0,0,0,0,0,0,-1,1560,1541,0,0
343,-517,0,0,0,0,0,0,0,0,0,-1,1567,1541,0,0
350,-517,0,0,0,0,0,0,0,0,0,-1,1574,1541,0,0
357,-517,0,0,0,0,0,0,0,0,0,-1,1581,1541,0,0
364,-517,0,0,0,0,0,0,0,0,0,-1,1588,1541,0,0
371,-517,0,0,0,0,0,0,0,0,0,-1,1595,1541,0,0
378,-517,0,0,0,0,0,0,0,0,0,-1,1602,1541,0,0
385,-517,0,0,0,0,0,0,0,0,0,-1,1609,1541,0,0
392,-517,0,0,0,0,0,0,0,0,0,-1,1616,1541,0,0
399,-517,0,0,0,0,0,0,0,0,0,-1,1623,1541,0,0
406,-517,4.77136,2.4718,-0.0399867,-0.0119298,-0.0441007,0.0203199,-0.0722365,-0.939388,0.0561698,0.0464919,1630,1541,4.77132,-2.47185
413,-517,4.62012,2.5675,-0.0376224,-0.00157626,-0.0331087,0.0180971,-0.0572957,-1.03465,0.0454469,0.0435776,1637,1541,4.62018,-2.56749
420,-517,4.52771,2.12427,-0.0322708,0.00505045,-0.0238101,0.0166411,-0.0438615,-1.11777,0.0360904,0.0409266,1644,1541,4.52769,-2.12433
427,-517,4.3103,1.73474,-0.0264896,0.00901334,-0.0148419,0.0144005,-0.0318768,-1.22261,0.0273459,0.043157,1651,1541,4.31026,-1.73476
434,-517,3.65637,2.13757,-0.0214651,0.0117852,-0.00623094,0.0129145,-0.0225944,-1.3915,0.0207534,0.0452517,1658,1541,3.65638,-2.13757
441,-517,3.37488,2.28137,-0.0169195,0.0132091,0.00137642,0.0132719,-0.0169823,1.52524,0.017511,0.0471711,1665,1541,3.37491,-2.28133
448,-517,3.13428,2.0824,0,0,0,0,0,0,0,-1,1672,1541,3.13426,-2.08241
455,-517,3.58496,2.38879,-0.00982381,0.0124843,0.0129733,0.0184393,-0.0157788,1.14047,0.0197757,0.0460988,1679,1541,3.58501,-2.38874
462,-517,3.9845,2.70691,-0.00755085,0.0111895,0.01718,0.0213885,-0.0177498,1.03506,0.0226291,0.0440565,1686,1541,3.98452,-2.70696
469,-517,4.43445,1.35474,-0.00569731,0.00956856,0.019683,0.0230468,-0.0191755,0.970368,0.0244112,0.0482422,1693,1541,4.43443,-1.35472
476,-517,3.78015,1.61572,-0.00383637,0.00817005,0.0210741,0.0240793,-0.0197457,0.924154,0.0253436,0.0482628,1700,1541,3.78016,-1.61567
483,-517,3.17725,1.77051,-0.002111,0.00624543,0.0208497,0.0233314,-0.019197,0.884287,0.0245924,0.0490643,1707,1541,3.17723,-1.77046
490,-517,3.01453,2.11414,0,0,0,0,0,0,0,-1,1714,1541,3.0145,-2.11414
497,-517,2.99683,2.07642,-0.00042181,0.00113384,0.0172968,0.0176703,-0.0169583,0.807868,0.0199943,0.0411464,1721,1541,2.99681,-2.07639
504,-517,3.00256,2.04858,0.000112468,-0.000111811,0.0145629,0.0145636,-0.014563,0.781548,0.0168162,0.0340964,1728,1541,3.00251,-2.04859
511,-517,2.96448,2.00256,0.000702375,-0.000562024,0.011475,0.0115626,-0.0114222,0.757879,0.0132703,0.026922,1735,1541,2.96443,-2.00251
518,-517,2.94458,1.96729,0.000837358,-0.00076308,0.00872525,0.00879901,-0.00872473,0.73967,0.0101174,0.0186683,1742,1541,2.94459,-1.96723
525,-517,2.9873,1.95313,0.00133756,-0.00104906,0.00603528,0.00629637,-0.00600787,0.687796,0.00710451,0.0110871,1749,1541,2.98732,-1.95314
532,-517,3.0011,1.90845,0.00224419,-0.000834125,0.00332487,0.00436887,-0.00295881,0.568624,0.00425667,0.0104331,1756,1541,3.00108,-1.9084
539,-517,2.995,1.87097,0.00272419,-0.000586485,0.00127564,0.00315868,-0.00102098,0.328286,0.00251614,0.0110921,1763,1541,2.99496,-1.87095
546,-517,2.96924,1.83044,0.00245952,0.000197375,6.5009e-05,0.00246138,0.000195508,0.0287062,0.00157979,0.0111968,1770,1541,2.9693,-1.83044
553,-517,2.96533,1.79028,0.00207178,0.0015158,-0.000816283,0.00265611,0.000931472,-0.621281,0.00155613,0.0149503,1777,1541,2.96528,-1.79026
560,-517,2.95618,1.76697,0.00182545,0.00335296,-0.00192268,0.00465803,0.000520388,-0.974458,0.00294724,0.0159549,1784,1541,2.95622,-1.76698
567,-517,2.96985,1.73669,0.00194474,0.00522216,-0.00259067,0.00664889,0.000518001,-1.0674,0.00427041,0.0127089,1791,1541,2.96988,-1.73665
574,-517,2.99048,1.66968,0.00293234,0.00817285,-0.00275656,0.0093558,0.00174939,-1.16543,0.00574357,0.0131545,1798,1541,2.99052,-1.66971
581,-517,2.98523,1.62561,0.00386802,0.0104408,-0.00361378,0.012039,0.00226976,-1.15439,0.00738661,0.0146459,1805,1541,2.98525,-1.6256
588,-517,2.97253,1.59924,0.00526039,0.0130946,-0.0043963,0.0150658,0.00328928,-1.14931,0.00914673,0.0143698,1812,1541,2.9725,-1.59929
595,-517,2.97864,1.5459,0.00677491,0.0154025,-0.00538694,0.01799,0.0041874,-1.12301,0.0108698,0.0123635,1819,1541,2.97862,-1.54593
602,-517,2.94495,1.49353,0.00812901,0.0173593,-0.00669025,0.0208719,0.0046165,-1.08733,0.0126595,0.0178299,1826,1541,2.94492,-1.49348
609,-517,3.14148,1.45227,0.00947255,0.019359,-0.00806259,0.0238731,0.00495847,-1.0604,0.0145471,0.036302,1833,1541,3.14153,-1.45228
616,-517,3.5199,2.06482,0,0,0,0,0,0,0,-1,1840,1541,3.51994,-2.0648
623,-517,3.82788,2.17993,0.0118391,0.0203478,-0.0123875,0.0291911,0.00299576,-0.950807,0.018543,0.045114,1847,1541,3.8279,-2.17998
630,-517,4.04272,2.33228,0.0116907,0.0187487,-0.015472,0.0310891,-0.000649659,-0.897525,0.020946,0.0472346,1854,1541,4.04276,-2.33227
637,-517,4.27197,2.45361,0,0,0,0,0,0,0,-1,1861,1541,4.27202,-2.45364
644,-517,4.81702,3.11304,0,0,0,0,0,0,0,-1,1868,1541,4.81698,-3.11308
651,-517,0,0,0,0,0,0,0,0,0,-1,1875,1541,0,0
658,-517,0,0,0,0,0,0,0,0,0,-1,1882,1541,0,0
665,-517,0,0,0,0,0,0,0,0,0,-1,1889,1541,0,0
672,-517,0,0,0,0,0,0,0,0,0,-1,1896,1541,0,0
679,-517,0,0,0,0,0,0,0,0,0,-1,1903,1541,0,0
686,-517,0,0,0,0,0,0,0,0,0,-1,1910,1541,0,0
693,-517,0,0,0,0,0,0,0,0,0,-1,1917,1541,0,0
700,-517,0,0,0,0,0,0,0,0,0,-1,1924,1541,0,0
707,-517,0,0,0,0,0,0,0,0,0,-1,1931,1541,0,0
714,-517,0,0,0,0,0,0,0,0,0,-1,1938,1541,0,0
721,-517,0,0,0,0,0,0,0,0,0,-1,1945,1541,0,0
728,-517,0,0,0,0,0,0,0,0,0,-1,1952,1541,0,0
735,-517,0,0,0,0,0,0,0,0,0,-1,1959,1541,0,0
742,-517,0,0,0,0,0,0,0,0,0,-1,1966,1541,0,0
749,-517,0,0,0,0,0,0,0,0,0,-1,1973,1541,0,0
756,-517,0,0,0,0,0,0,0,0,0,-1,1980,1541,0,0
763,-517,0,0,0,0,0,0,0,0,0,-1,1987,1541,0,0
770,-517,0,0,0,0,0,0,0,0,0,-1,1994,1541,0,0
777,-517,0,0,0,0,0,0,0,0,0,-1,2001,1541,0,0
784,-517,0,0,0,0,0,0,0,0,0,-1,2008,1541,0,0
791,-517,0,0,0,0,0,0,0,0,0,-1,2015,1541,0,0
798,-517,0,0,0,0,0,0,0,0,0,-1,2022,1541,0,0
805,-517,0,0,0,0,0,0,0,0,0,-1,2029,1541,0,0
812,-517,0,0,0,0,0,0,0,0,0,-1,2036,1541,0,0
-700,-524,0,0,0,0,0,0,0,0,0,-1,524,1548,0,0
-693,-524,0,0,0,0,0,0,0,0,0,-1,531,1548,0,0
-686,-524,0,0,0,0,0,0,0,0,0,-1,538,1548,0,0
-679,-524,0,0,0,0,0,0,0,0,0,-1,545,1548,0,0
-672,-524,0,0,0,0,0,0,0,0,0,-1,552,1548,0,0
-665,-524,0,0,0,0,0,0,0,0,0,-1,559,1548,0,0
-658,-524,0,0,0,0,0,0,0,0,0,-1,566,1548,0,0
-651,-524,0,0,0,0,0,0,0,0,0,-1,573,1548,0,0
-644,-524,0,0,0,0,0,0,0,0,0,-1,580,1548,0,0
-637,-524,0,0,0,0,0,0,0,0,0,-1,587,1548,0,0
-630,-524,0,0,0,0,0,0,0,0,0,-1,594,1548,0,0
-623,-524,0,0,0,0,0,0,0,0,0,-1,601,1548,0,0
-616,-524,0,0,0,0,0,0,0,0,0,-1,608,1548,0,0
-609,-524,0,0,0,0,0,0,0,0,0,-1,615,1548,0,0
-602,-524,0,0,0,0,0,0,0,0,0,-1,622,1548,0,0
-595,-524,0,0,0,0,0,0,0,0,0,-1,629,1548,0,0
-588,-524,0,0,0,0,0,0,0,0,0,-1,636,1548,0,0
-581,-524,0,0,0,0,0,0,0,0,0,-1,643,1548,0,0
-574,-524,0,0,0,0,0,0,0,0,0,-1,650,1548,0,0
-567,-524,0,0,0,0,0,0,0,0,0,-1,657,1548,0,0
-560,-524,0,0,0,0,0,0,0,0,0,-1,664,1548,0,0
-553,-524,0,0,0,0,0,0,0,0,0,-1,671,1548,0,0
-546,-524,0,0,0,0,0,0,0,0,0,-1,678,1548,0,0
-539,-524,0,0,0,0,0,0,0,0,0,-1,685,1548,0,0
-532,-524,0,0,0,0,0,0,0,0,0,-1,692,1548,0,0
-525,-524,0.829773,-3.31897,0,0,0,0,0,0,0,-1,699,1548,0.829775,3.31891
-518,-524,2.10724,0.510864,0,0,0,0,0,0,0,-1,706,1548,2.10725,-0.510891
-511,-524,2.02087,0.771729,0,0,0,0,0,0,0,-1,713,1548,2.02088,-0.771782
-504,-524,2.07941,1.01404,0,0,0,0,0,0,0,-1,720,1548,2.07941,-1.01398
-497,-524,2.16052,1.02319,0.048929,0.0463833,0.00261667,0.0505659,0.0447463,0.559027,0.0319479,0.0446346,727,1548,2.16054,-1.02314
-490,-524,2.26312,1.02759,0,0,0,0,0,0,0,-1,734,1548,2.26309,-1.02758
-483,-524,2.00464,0.822632,0.0199803,0.024078,0.00119018,0.0243986,0.0196597,1.30767,0.0149388,0.0418516,741,1548,2.00464,-0.822594
-476,-524,1.16028,1.302,0.00942955,0.0122178,0.00127271,0.0127114,0.00893598,1.20084,0.00753782,0.044191,748,1548,1.16028,-1.30204
-469,-524,1.14508,1.45923,0.00415722,0.00580226,0.00118106,0.006419,0.00354049,1.08956,0.00371257,0.0307103,755,1548,1.14505,-1.45927
-462,-524,1.15143,1.48254,0.00310664,0.00370202,0.00135746,0.00479404,0.00201461,0.893339,0.00277956,0.0200961,762,1548,1.15143,-1.4825
-455,-524,1.13647,1.57654,0.00234248,0.00216257,0.00134877,0.00360429,0.000900755,0.7521,0.00216597,0.0128724,769,1548,1.13646,-1.57653
-448,-524,1.14117,1.61682,0.00190678,0.00109805,0.00129485,0.00285893,0.000145895,0.634053,0.00185923,0.0109916,776,1548,1.1412,-1.61687
-441,-524,1.11871,1.65173,0.00153615,7.25664e-05,0.00122465,0.002231,-0.000622278,0.51609,0.00173242,0.0104198,783,1548,1.11873,-1.65178
-434,-524,1.13776,1.68591,0.00146636,-0.000396507,0.00107726,0.00195903,-0.000889175,0.428935,0.00168263,0.0123053,790,1548,1.13774,-1.68595
-427,-524,1.15155,1.71912,0.00188884,-0.00106832,0.00083057,0.00210615,-0.00128563,0.255904,0.00197726,0.0125424,797,1548,1.15156,-1.71915
-420,-524,1.14648,1.77234,0.00166986,-0.0015235,0.000764357,0.00184338,-0.00169703,0.223238,0.00204464,0.0102014,804,1548,1.1465,-1.77236
-413,-524,1.15881,1.83228,0.00153889,-0.00178312,0.000629247,0.00165409,-0.00189831,0.181064,0.00205259,0.0101924,811,1548,1.15884,-1.83229
-406,-524,1.15161,1.87512,0.00301784,-0.00236302,0.00051166,0.00306606,-0.00241124,0.0939667,0.00316985,0.0112251,818,1548,1.15161,-1.87508
-399,-524,1.14917,1.91028,0.00538823,-0.00333597,0.00116699,0.00554164,-0.00348938,0.130704,0.00525874,0.00899978,825,1548,1.14916,-1.91024
-392,-524,1.14661,1.93555,0.00768985,-0.00447831,0.00189619,0.00797849,-0.00476695,0.151062,0.00743604,0.00930686,832,1548,1.1466,-1.93558
-385,-524,1.14093,1.98535,0.0107233,-0.00618736,0.00348907,0.0114149,-0.00687895,0.195681,0.0106696,0.0107865,839,1548,1.14093,-1.98539
-378,-524,1.14453,2.01416,0.0141553,-0.0075626,0.00503856,0.0152673,-0.00867461,0.217217,0.0139965,0.0130562,846,1548,1.14454,-2.01419
-371,-524,1.19104,1.99292,0.0183908,-0.00858715,0.00700831,0.0201028,-0.0102991,0.239586,0.0178542,0.0222464,853,1548,1.19107,-1.99296
-364,-524,1.17242,2.02112,0.0246986,-0.00846409,0.00867915,0.0268327,-0.0105982,0.241107,0.022278,0.0348473,860,1548,1.17245,-2.02117
-357,-524,1.03284,2.00378,0.0328284,-0.00744017,0.0098133,0.0350926,-0.00970433,0.226755,0.0272128,0.0459866,867,1548,1.03283,-2.00375
-350,-524,1.03815,1.77893,0.0413594,-0.00533528,0.0104852,0.0436058,-0.00758166,0.211052,0.0318995,0.0446027,874,1548,1.03817,-1.77897
-343,-524,1.31549,1.53308,0,0,0,0,0,0,0,-1,881,1548,1.31551,-1.53306
-336,-524,1.83527,2.21814,0.0572469,0.00200835,0.00736796,0.0582128,0.00104246,0.130349,0.0384658,0.04282,888,1548,1.83524,-2.21819
-329,-524,2.20624,3.04089,0,0,0,0,0,0,0,-1,895,1548,2.20623,-3.04088
-322,-524,-0.283325,4.61633,0,0,0,0,0,0,0,-1,902,1548,-0.283314,-4.6163
-315,-524,0.834351,3.92139,0.0804012,0.0205982,-0.00800521,0.0814542,0.0195452,-0.130793,0.049102,0.0479256,909,1548,0.834331,-3.92135
-308,-524,1.97333,3.23267,0.0837554,0.0285746,-0.0173623,0.0887638,0.0235662,-0.280838,0.0530934,0.0458149,916,1548,1.9733,-3.23266
-301,-524,2.94476,2.771,0.083697,0.0359099,-0.0280173,0.0966256,0.0229813,-0.432335,0.0582869,0.0438814,923,1548,2.94479,-2.77097
-294,-524,3.73737,2.26575,0.0824473,0.0423775,-0.042494,0.109393,0.0154322,-0.565114,0.0683674,0.0486745,930,1548,3.73736,-2.26572
-287,-524,4.38782,1.97437,0,0,0,0,0,0,0,-1,937,1548,4.38784,-1.97434
-280,-524,0.168335,0.27356,0,0,0,0,0,0,0,-1,944,1548,0.168322,-0.273596
-273,-524,0,0,0,0,0,0,0,0,0,-1,951,1548,0,0
-266,-524,0,0,0,0,0,0,0,0,0,-1,958,1548,0,0
-259,-524,0,0,0,0,0,0,0,0,0,-1,965,1548,0,0
-252,-524,0,0,0,0,0,0,0,0,0,-1,972,1548,0,0
-245,-524,0,0,0,0,0,0,0,0,0,-1,979,1548,0,0
-238,-524,0,0,0,0,0,0,0,0,0,-1,986,1548,0,0
-231,-524,0,0,0,0,0,0,0,0,0,-1,993,1548,0,0
-224,-524,0,0,0,0,0,0,0,0,0,-1,1000,1548,0,0
-217,-524,0,0,0,0,0,0,0,0,0,-1,1007,1548,0,0
-210,-524,0,0,0,0,0,0,0,0,0,-1,1014,1548,0,0
-203,-524,0,0,0,0,0,0,0,0,0,-1,1021,1548,0,0
-196,-524,0,0,0,0,0,0,0,0,0,-1,1028,1548,0,0
-189,-524,0,0,0,0,0,0,0,0,0,-1,1035,1548,0,0
-182,-524,0,0,0,0,0,0,0,0,0,-1,1042,1548,0,0
-175,-524,0,0,0,0,0,0,0,0,0,-1,1049,1548,0,0
-168,-524,0,0,0,0,0,0,0,0,0,-1,1056,1548,0,0
-161,-524,0,0,0,0,0,0,0,0,0,-1,1063,1548,0,0
-154,-524,0,0,0,0,0,0,0,0,0,-1,1070,1548,0,0
-147,-524,0,0,0,0,0,0,0,0,0,-1,1077,1548,0,0
-140,-524,0,0,0,0,0,0,0,0,0,-1,1084,1548,0,0
-133,-524,0,0,0,0,0,0,0,0,0,-1,1091,1548,0,0
-126,-524,0,0,0,0,0,0,0,0,0,-1,1098,1548,0,0
-119,-524,0,0,0,0,0,0,0,0,0,-1,1105,1548,0,0
-112,-524,0,0,0,0,0,0,0,0,0,-1,1112,1548,0,0
-105,-524,0,0,0,0,0,0,0,0,0,-1,1119,1548,0,0
-98,-524,0,0,0,0,0,0,0,0,0,-1,1126,1548,0,0
-91,-524,0,0,0,0,0,0,0,0,0,-1,1133,1548,0,0
-84,-524,0,0,0,0,0,0,0,0,0,-1,1140,1548,0,0
-77,-524,0,0,0,0,0,0,0,0,0,-1,1147,1548,0,0
-70,-524,0,0,0,0,0,0,0,0,0,-1,1154,1548,0,0
-63,-524,0,0,0,0,0,0,0,0,0,-1,1161,1548,0,0
-56,-524,0,0,0,0,0,0,0,0,0,-1,1168,1548,0,0
-49,-524,0,0,0,0,0,0,0,0,0,-1,1175,1548,0,0
-42,-524,0,0,0,0,0,0,0,0,0,-1,1182,1548,0,0
-35,-524,0,0,0,0,0,0,0,0,0,-1,1189,1548,0,0
-28,-524,0,0,0,0,0,0,0,0,0,-1,1196,1548,0,0
-21,-524,0,0,0,0,0,0,0,0,0,-1,1203,1548,0,0
-14,-524,0,0,0,0,0,0,0,0,0,-1,1210,1548,0,0
-7,-524,0,0,0,0,0,0,0,0,0,-1,1217,1548,0,0
0,-524,0,0,0,0,0,0,0,0,0,-1,1224,1548,0,0
7,-524,0,0,0,0,0,0,0,0,0,-1,1231,1548,0,0
14,-524,0,0,0,0,0,0,0,0,0,-1,1238,1548,0,0
21,-524,0,0,0,0,0,0,0,0,0,-1,1245,1548,0,0
28,-524,0,0,0,0,0,0,0,0,0,-1,1252,1548,0,0
35,-524,0,0,0,0,0,0,0,0,0,-1,1259,1548,0,0
42,-524,0,0,0,0,0,0,0,0,0,-1,1266,1548,0,0
49,-524,0,0,0,0,0,0,0,0,0,-1,1273,1548,0,0
56,-524,0,0,0,0,0,0,0,0,0,-1,1280,1548,0,0
63,-524,0,0,0,0,0,0,0,0,0,-1,1287,1548,0,0
70,-524,0,0,0,0,0,0,0,0,0,-1,1294,1548,0,0
77,-524,0,0,0,0,0,0,0,0,0,-1,1301,1548,0,0
84,-524,0,0,0,0,0,0,0,0,0,-1,1308,1548,0,0
91,-524,0,0,0,0,0,0,0,0,0,-1,1315,1548,0,0
98,-524,0,0,0,0,0,0,0,0,0,-1,1322,1548,0,0
105,-524,0,0,0,0,0,0,0,0,0,-1,1329,1548,0,0
112,-524,0,0,0,0,0,0,0,0,0,-1,1336,1548,0,0
119,-524,0,0,0,0,0,0,0,0,0,-1,1343,1548,0,0
126,-524,0,0,0,0,0,0,0,0,0,-1,1350,1548,0,0
133,-524,0,0,0,0,0,0,0,0,0,-1,1357,1548,0,0
140,-524,0,0,0,0,0,0,0,0,0,-1,1364,1548,0,0
147,-524,0,0,0,0,0,0,0,0,0,-1,1371,1548,0,0
154,-524,0,0,0,0,0,0,0,0,0,-1,1378,1548,0,0
161,-524,0,0,0,0,0,0,0,0,0,-1,1385,1548,0,0
168,-524,0,0,0,0,0,0,0,0,0,-1,1392,1548,0,0
175,-524,0,0,0,0,0,0,0,0,0,-1,1399,1548,0,0
182,-524,0,0,0,0,0,0,0,0,0,-1,1406,1548,0,0
189,-524,0,0,0,0,0,0,0,0,0,-1,1413,1548,0,0
196,-524,0,0,0,0,0,0,0,0,0,-1,1420,1548,0,0
203,-524,0,0,0,0,0,0,0,0,0,-1,1427,1548,0,0
210,-524,0,0,0,0,0,0,0,0,0,-1,1434,1548,0,0
217,-524,0,0,0,0,0,0,0,0,0,-1,1441,1548,0,0
224,-524,0,0,0,0,0,0,0,0,0,-1,1448,1548,0,0
231,-524,0,0,0,0,0,0,0,0,0,-1,1455,1548,0,0
238,-524,0,0,0,0,0,0,0,0,0,-1,1462,1548,0,0
245,-524,0,0,0,0,0,0,0,0,0,-1,1469,1548,0,0
252,-524,0,0,0,0,0,0,0,0,0,-1,1476,1548,0,0
259,-524,0,0,0,0,0,0,0,0,0,-1,1483,1548,0,0
266,-524,0,0,0,0,0,0,0,0,0,-1,1490,1548,0,0
273,-524,0,0,0,0,0,0,0,0,0,-1,1497,1548,0,0
280,-524,0,0,0,0,0,0,0,0,0,-1,1504,1548,0,0
287,-524,0,0,0,0,0,0,0,0,0,-1,1511,1548,0,0
294,-524,0,0,0,0,0,0,0,0,0,-1,1518,1548,0,0
301,-524,0,0,0,0,0,0,0,0,0,-1,1525,1548,0,0
308,-524,0,0,0,0,0,0,0,0,0,-1,1532,1548,0,0
315,-524,0,0,0,0,0,0,0,0,0,-1,1539,1548,0,0
322,-524,0,0,0,0,0,0,0,0,0,-1,1546,1548,0,0
329,-524,0,0,0,0,0,0,0,0,0,-1,1553,1548,0,0
336,-524,0,0,0,0,0,0,0,0,0,-1,1560,1548,0,0
343,-524,0,0,0,0,0,0,0,0,0,-1,1567,1548,0,0
350,-524,0,0,0,0,0,0,0,0,0,-1,1574,1548,0,0
357,-524,0,0,0,0,0,0,0,0,0,-1,1581,1548,0,0
364,-524,0,0,0,0,0,0,0,0,0,-1,1588,1548,0,0
371,-524,0,0,0,0,0,0,0,0,0,-1,1595,1548,0,0
378,-524,0,0,0,0,0,0,0,0,0,-1,1602,1548,0,0
385,-524,0,0,0,0,0,0,0,0,0,-1,1609,1548,0,0
392,-524,0,0,0,0,0,0,0,0,0,-1,1616,1548,0,0
399,-524,4.89856,4.10596,0,0,0,0,0,0,0,-1,1623,1548,4.89857,-4.10601
406,-524,4.90076,3.52637,-0.0419564,-0.0136896,-0.0386954,0.0133728,-0.0690187,-0.960495,0.0510572,0.0458337,1630,1548,4.90081,-3.52639
413,-524,4.98108,2.91516,-0.0392025,-0.00580964,-0.0291791,0.0111122,-0.0561243,-1.04526,0.0416178,0.0437221,1637,1548,4.98103,-2.91517
420,-524,4.85217,2.14771,-0.0339425,-0.000392097,-0.0212383,0.00989693,-0.0442315,-1.11966,0.0332808,0.0450036,1644,1548,4.85213,-2.14775
427,-524,4.02344,2.09485,-0.0283032,0.00329187,-0.013825,0.00848701,-0.0334983,-1.21134,0.0256339,0.0454722,1651,1548,4.02344,-2.0948
434,-524,3.7207,2.13306,-0.0233866,0.00595311,-0.00679722,0.00745133,-0.0248849,-1.35385,0.0195528,0.0437042,1658,1548,3.72067,-2.13302
441,-524,3.51184,2.20679,-0.0189265,0.00755204,-0.000568303,0.00756423,-0.0189387,-1.54935,0.0157642,0.044371,1665,1548,3.51181,-2.20674
448,-524,3.2251,2.25464,-0.0149687,0.00816384,0.00463768,0.00905897,-0.0158639,1.38013,0.0145669,0.046145,1672,1548,3.22511,-2.25464
455,-524,3.61096,2.55701,-0.011792,0.00772518,0.0087891,0.0110997,-0.0151665,1.20421,0.0152253,0.0432703,1679,1548,3.61097,-2.557
462,-524,4.19043,1.33105,0,0,0,0,0,0,0,-1,1686,1548,4.1904,-1.33102
469,-524,3.83154,1.51904,-0.00723522,0.00592285,0.0144558,0.0152263,-0.0165387,0.998947,0.0183447,0.0494373,1693,1548,3.83152,-1.51902
476,-524,3.46008,1.69067,-0.00522436,0.0051345,0.0157694,0.0165533,-0.0166431,0.944072,0.019166,0.0463242,1700,1548,3.4601,-1.69073
483,-524,3.06104,1.89697,-0.00357939,0.00383567,0.0158109,0.0163679,-0.0161116,0.900564,0.0187523,0.0447037,1707,1548,3.06101,-1.89702
490,-524,2.89294,2.03455,-0.00258993,0.00176869,0.0144338,0.0141868,-0.015008,0.860325,0.0168579,0.0398864,1714,1548,2.89294,-2.0345
497,-524,2.89429,2.05273,-0.00186981,-5.60813e-05,0.0131075,0.0121758,-0.0141017,0.819937,0.0151849,0.0276754,1721,1548,2.89429,-2.05277
504,-524,2.91821,2.04224,-0.00124947,-0.000957256,0.0110946,0.00999215,-0.0121989,0.791982,0.0128331,0.0158454,1728,1548,2.9182,-2.04225
511,-524,2.92358,2.01062,-0.000636519,-0.00118089,0.00880904,0.00790454,-0.00972195,0.769954,0.0101947,0.0152249,1735,1548,2.92354,-2.01066
518,-524,2.94019,1.97998,-0.000466269,-0.00116223,0.00670835,0.00590312,-0.00753162,0.759485,0.00777553,0.0149875,1742,1548,2.94014,-1.98003
525,-524,2.95618,1.94519,2.74195e-05,-0.00124119,0.00459854,0.00403519,-0.00524896,0.716863,0.00537546,0.0134464,1749,1548,2.95615,-1.94516
532,-524,2.96484,1.90283,0.000869707,-0.000860703,0.00241117,0.0025662,-0.0025572,0.613137,0.002958,0.00996001,1756,1548,2.9649,-1.90289
539,-524,2.96289,1.85498,0.001327,-0.000423598,0.000676836,0.00155816,-0.00065476,0.329112,0.00131264,0.0104419,1763,1548,2.96295,-1.85496
546,-524,2.94556,1.81262,0.00117274,0.000498967,-0.000512999,0.00144958,0.000222126,-0.494863,0.000901511,0.0135088,1770,1548,2.9456,-1.81259
553,-524,2.94727,1.77661,0.00094784,0.00207089,-0.00152188,0.00313153,-0.000112803,-0.962134,0.00212629,0.0224335,1777,1548,2.9473,-1.77665
560,-524,2.95325,1.7063,0.000845832,0.00418263,-0.00286089,0.00582606,-0.000797601,-1.04938,0.00417538,0.0308019,1784,1548,2.95328,-1.70634
567,-524,2.90894,1.72461,0.00113123,0.00641171,-0.0038034,0.00840146,-0.000858509,-1.0888,0.00590797,0.0178155,1791,1548,2.90892,-1.72465
574,-524,2.93286,1.67236,0.00236676,0.0100618,-0.00420617,0.0119148,0.000513828,-1.15585,0.00777756,0.0125252,1798,1548,2.93286,-1.67232
581,-524,2.95679,1.62305,0.00355181,0.0130679,-0.00542691,0.0155272,0.00109249,-1.14531,0.0100072,0.0134306,1805,1548,2.95675,-1.6231
588,-524,2.95581,1.58875,0.00527417,0.0166326,-0.00659884,0.0196596,0.00224718,-1.14072,0.0124253,0.0131466,1812,1548,2.95578,-1.58871
595,-524,2.91968,1.53394,0.00717865,0.0200063,-0.00796113,0.0238158,0.00336913,-1.12448,0.0148818,0.0130766,1819,1548,2.91965,-1.53388
602,-524,2.87878,1.26746,0,0,0,0,0,0,0,-1,1826,1548,2.87875,-1.26749
609,-524,3.1156,0.874023,0.0108936,0.0263609,-0.011414,0.0324145,0.00483993,-1.08315,0.0201907,0.0407607,1833,1548,3.11557,-0.873974
616,-524,3.01453,0.192383,0.013042,0.0287246,-0.013792,0.0367485,0.00501806,-1.04388,0.0230094,0.041706,1840,1548,3.01455,-0.192327
623,-524,4.21204,2.00366,0.0147812,0.0299265,-0.0165125,0.04052,0.00418767,-1.00039,0.0257313,0.0454171,1847,1548,4.21209,-2.00367
630,-524,4.58081,2.4104,0,0,0,0,0,0,0,-1,1854,1548,4.58075,-2.41039
637,-524,5.77063,4.10852,0,0,0,0,0,0,0,-1,1861,1548,5.77069,-4.10854
644,-524,5.3667,4.0144,0,0,0,0,0,0,0,-1,1868,1548,5.3667,-4.0144
651,-524,0,0,0,0,0,0,0,0,0,-1,1875,1548,0,0
658,-524,0,0,0,0,0,0,0,0,0,-1,1882,1548,0,0
665,-524,0,0,0,0,0,0,0,0,0,-1,1889,1548,0,0
672,-524,0,0,0,0,0,0,0,0,0,-1,1896,1548,0,0
679,-524,0,0,0,0,0,0,0,0,0,-1,1903,1548,0,0
686,-524,0,0,0,0,0,0,0,0,0,-1,1910,1548,0,0
693,-524,0,0,0,0,0,0,0,0,0,-1,1917,1548,0,0
700,-524,0,0,0,0,0,0,0,0,0,-1,1924,1548,0,0
707,-524,0,0,0,0,0,0,0,0,0,-1,1931,1548,0,0
714,-524,0,0,0,0,0,0,0,0,0,-1,1938,1548,0,0
721,-524,0,0,0,0,0,0,0,0,0,-1,1945,1548,0,0
728,-524,0,0,0,0,0,0,0,0,0,-1,1952,1548,0,0
735,-524,0,0,0,0,0,0,0,0,0,-1,1959,1548,0,0
742,-524,0,0,0,0,0,0,0,0,0,-1,1966,1548,0,0
749,-524,0,0,0,0,0,0,0,0,0,-1,1973,1548,0,0
756,-524,0,0,0,0,0,0,0,0,0,-1,1980,1548,0,0
763,-524,0,0,0,0,0,0,0,0,0,-1,1987,1548,0,0
770,-524,0,0,0,0,0,0,0,0,0,-1,1994,1548,0,0
777,-524,0,0,0,0,0,0,0,0,0,-1,2001,1548,0,0
784,-524,0,0,0,0,0,0,0,0,0,-1,2008,1548,0,0
791,-524,0,0,0,0,0,0,0,0,0,-1,2015,1548,0,0
798,-524,0,0,0,0,0,0,0,0,0,-1,2022,1548,0,0
805,-524,0,0,0,0,0,0,0,0,0,-1,2029,1548,0,0
812,-524,0,0,0,0,0,0,0,0,0,-1,2036,1548,0,0
-700,-531,0,0,0,0,0,0,0,0,0,-1,524,1555,0,0
-693,-531,0,0,0,0,0,0,0,0,0,-1,531,1555,0,0
-686,-531,0,0,0,0,0,0,0,0,0,-1,538,1555,0,0
-679,-531,0,0,0,0,0,0,0,0,0,-1,545,1555,0,0
-672,-531,0,0,0,0,0,0,0,0,0,-1,552,1555,0,0
-665,-531,0,0,0,0,0,0,0,0,0,-1,559,1555,0,0
-658,-531,0,0,0,0,0,0,0,0,0,-1,566,1555,0,0
-651,-531,0,0,0,0,0,0,0,0,0,-1,573,1555,0,0
-644,-531,0,0,0,0,0,0,0,0,0,-1,580,1555,0,0
-637,-531,0,0,0,0,0,0,0,0,0,-1,587,1555,0,0
-630,-531,0,0,0,0,0,0,0,0,0,-1,594,1555,0,0
-623,-531,0,0,0,0,0,0,0,0,0,-1,601,1555,0,0
-616,-531,0,0,0,0,0,0,0,0,0,-1,608,1555,0,0
-609,-531,0,0,0,0,0,0,0,0,0,-1,615,1555,0,0
-602,-531,0,0,0,0,0,0,0,0,0,-1,622,1555,0,0
-595,-531,0,0,0,0,0,0,0,0,0,-1,629,1555,0,0
-588,-531,0,0,0,0,0,0,0,0,0,-1,636,1555,0,0
-581,-531,0,0,0,0,0,0,0,0,0,-1,643,1555,0,0
-574,-531,0,0,0,0,0,0,0,0,0,-1,650,1555,0,0
-567,-531,0,0,0,0,0,0,0,0,0,-1,657,1555,0,0
-560,-531,0,0,0,0,0,0,0,0,0,-1,664,1555,0,0
-553,-531,0,0,0,0,0,0,0,0,0,-1,671,1555,0,0
-546,-531,0,0,0,0,0,0,0,0,0,-1,678,1555,0,0
-539,-531,0,0,0,0,0,0,0,0,0,-1,685,1555,0,0
-532,-531,0,0,0,0,0,0,0,0,0,-1,692,1555,0,0
-525,-531,0,0,0,0,0,0,0,0,0,-1,699,1555,0,0
-518,-531,2.36829,0.0322266,0,0,0,0,0,0,0,-1,706,1555,2.36827,-0.0322004
-511,-531,2.2951,0.258057,0,0,0,0,0,0,0,-1,713,1555,2.29512,-0.258117
-504,-531,2.47131,0.302246,0,0,0,0,0,0,0,-1,720,1555,2.4713,-0.302231
-497,-531,2.61041,0.313232,0,0,0,0,0,0,0,-1,727,1555,2.6104,-0.313186
-490,-531,1.27667,0.291016,0,0,0,0,0,0,0,-1,734,1555,1.27666,-0.291072
-483,-531,1.24573,0.753418,0.0229426,0.0293901,0.00387555,0.0312074,0.0211253,1.13232,0.0183898,0.0481144,741,1555,1.24571,-0.753402
-476,-531,1.23431,1.31067,0.0111274,0.0162607,0.00414645,0.0185706,0.00881751,1.06254,0.0107263,0.0478845,748,1555,1.2343,-1.31068
-469,-531,1.30286,1.51099,0.00502926,0.00879278,0.00408207,0.0114059,0.0024161,1.00137,0.00694022,0.043445,755,1555,1.30287,-1.51095
-462,-531,1.36432,1.28369,0,0,0,0,0,0,0,-1,762,1555,1.36432,-1.28366
-455,-531,1.18512,1.55945,0.00244365,0.00367542,0.00386479,0.00697308,-0.00085402,0.864413,0.00495797,0.0240254,769,1555,1.18513,-1.55939
-448,-531,1.17639,1.61865,0.00176666,0.00214133,0.00344391,0.005403,-0.00149501,0.812569,0.0041902,0.01124,776,1555,1.17637,-1.61861
-441,-531,1.16833,1.64441,0.00123623,0.000748495,0.00300414,0.00400639,-0.00202166,0.744898,0.00354262,0.0114845,783,1555,1.16832,-1.64446
-434,-531,1.17242,1.69519,0.00104718,7.94958e-05,0.00244992,0.00306058,-0.00193391,0.687907,0.00290792,0.0117611,790,1555,1.17244,-1.69515
-427,-531,1.20044,1.72058,0.00139165,-0.000702725,0.00180194,0.00242859,-0.00173966,0.522178,0.00241747,0.0128357,797,1555,1.20042,-1.72059
-420,-531,1.18823,1.77563,0.0010116,-0.00125585,0.00147028,0.0017345,-0.00197875,0.456964,0.00214539,0.0112107,804,1555,1.18822,-1.77567
-413,-531,1.18787,1.82141,0.0008098,-0.00145166,0.00100385,0.00119111,-0.00183297,0.363015,0.00175902,0.010013,811,1555,1.18788,-1.82146
-406,-531,1.19495,1.85181,0.00203585,-0.00197951,0.000580244,0.00211802,-0.00206167,0.140673,0.00241322,0.0115812,818,1555,1.19492,-1.85185
-399,-531,1.19916,1.91077,0.00389353,-0.00279755,0.000870866,0.00400502,-0.00290903,0.127328,0.00400851,0.0121829,825,1555,1.19915,-1.91074
-392,-531,1.17883,1.94043,0.00566213,-0.00371916,0.0012705,0.00583115,-0.00388818,0.132256,0.00564871,0.0145436,832,1555,1.17885,-1.94041
-385,-531,1.16736,1.97375,0.00793468,-0.00507797,0.00245303,0.00838174,-0.00552503,0.180272,0.00808535,0.0133757,839,1555,1.16739,-1.97381
-378,-531,1.18878,2.00623,0.0102893,-0.00604167,0.00359882,0.0110472,-0.00679956,0.207561,0.0104007,0.0104129,846,1555,1.18878,-2.00621
-371,-531,1.19189,2.03918,0.013213,-0.00663605,0.0050627,0.0144297,-0.00785276,0.235856,0.0130502,0.010821,853,1555,1.19188,-2.03916
-364,-531,1.18994,2.10388,0.0178537,-0.00625842,0.00625645,0.0193804,-0.00778513,0.239345,0.0161532,0.020702,860,1555,1.18994,-2.10393
-357,-531,1.17084,2.08435,0.0239772,-0.00517091,0.00699497,0.0255689,-0.00676265,0.223744,0.0196911,0.0339359,867,1555,1.17082,-2.08436
-350,-531,1.1709,2.00684,0.0304081,-0.00317806,0.00739228,0.0319632,-0.00473309,0.207336,0.023049,0.0386947,874,1555,1.17088,-2.0068
-343,-531,1.07697,2.11023,0.0359466,-0.000245354,0.00636343,0.0370328,-0.0013316,0.169072,0.0251442,0.04199,881,1555,1.07694,-2.11028
-336,-531,1.26172,2.48584,0.041891,0.0036381,0.00418324,0.0423431,0.00318598,0.107662,0.0272289,0.0428641,888,1555,1.26173,-2.48581
-329,-531,0.618958,3.52368,0,0,0,0,0,0,0,-1,895,1555,0.618987,-3.52366
-322,-531,0.932678,3.35315,0.0528978,0.0137205,-0.00469629,0.0534529,0.0131654,-0.117652,0.032158,0.047313,902,1555,0.932701,-3.35313
-315,-531,1.15344,3.1875,0.0577419,0.0197816,-0.0109935,0.0606958,0.0168277,-0.262496,0.0361834,0.0484968,909,1555,1.15346,-3.18747
-308,-531,1.72284,2.89868,0.0602562,0.0260642,-0.0195479,0.0691293,0.0171911,-0.426105,0.0415584,0.0435664,916,1555,1.72283,-2.89866
-301,-531,2.91553,2.53833,0.0601593,0.0316687,-0.0297116,0.0788641,0.0129639,-0.561861,0.0488318,0.0448479,923,1555,2.91556,-2.53839
-294,-531,3.94904,1.92371,0,0,0,0,0,0,0,-1,930,1555,3.94904,-1.92376
-287,-531,0.392273,0.240723,0,0,0,0,0,0,0,-1,937,1555,0.392302,-0.240675
-280,-531,0.207397,-0.0159912,0,0,0,0,0,0,0,-1,944,1555,0.20741,0.0159762
-273,-531,-0.0628662,-0.630371,0,0,0,0,0,0,0,-1,951,1555,-0.062878,0.630321
-266,-531,-1.27002,5.16199,0,0,0,0,0,0,0,-1,958,1555,-1.27003,-5.16199
-259,-531,0,0,0,0,0,0,0,0,0,-1,965,1555,0,0
-252,-531,0,0,0,0,0,0,0,0,0,-1,972,1555,0,0
-245,-531,0,0,0,0,0,0,0,0,0,-1,979,1555,0,0
-238,-531,0,0,0,0,0,0,0,0,0,-1,986,1555,0,0
-231,-531,0,0,0,0,0,0,0,0,0,-1,993,1555,0,0
-224,-531,0,0,0,0,0,0,0,0,0,-1,1000,1555,0,0
-217,-531,0,0,0,0,0,0,0,0,0,-1,1007,1555,0,0
-210,-531,0,0,0,0,0,0,0,0,0,-1,1014,1555,0,0
-203,-531,0,0,0,0,0,0,0,0,0,-1,1021,1555,0,0
-196,-531,0,0,0,0,0,0,0,0,0,-1,1028,1555,0,0
-189,-531,0,0,0,0,0,0,0,0,0,-1,1035,1555,0,0
-182,-531,0,0,0,0,0,0,0,0,0,-1,1042,1555,0,0
-175,-531,0,0,0,0,0,0,0,0,0,-1,1049,1555,0,0
-168,-531,0,0,0,0,0,0,0,0,0,-1,1056,1555,0,0
-161,-531,0,0,0,0,0,0,0,0,0,-1,1063,1555,0,0
-154,-531,0,0,0,0,0,0,0,0,0,-1,1070,1555,0,0
-147,-531,0,0,0,0,0,0,0,0,0,-1,1077,1555,0,0
-140,-531,0,0,0,0,0,0,0,0,0,-1,1084,1555,0,0
-133,-531,0,0,0,0,0,0,0,0,0,-1,1091,1555,0,0
-126,-531,0,0,0,0,0,0,0,0,0,-1,1098,1555,0,0
-119,-531,0,0,0,0,0,0,0,0,0,-1,1105,1555,0,0
-112,-531,0,0,0,0,0,0,0,0,0,-1,1112,1555,0,0
-105,-531,0,0,0,0,0,0,0,0,0,-1,1119,1555,0,0
-98,-531,0,0,0,0,0,0,0,0,0,-1,1126,1555,0,0
-91,-531,0,0,0,0,0,0,0,0,0,-1,1133,1555,0,0
-84,-531,0,0,0,0,0,0,0,0,0,-1,1140,1555,0,0
-77,-531,0,0,0,0,0,0,0,0,0,-1,1147,1555,0,0
-70,-531,0,0,0,0,0,0,0,0,0,-1,1154,1555,0,0
-63,-531,0,0,0,0,0,0,0,0,0,-1,1161,1555,0,0
-56,-531,0,0,0,0,0,0,0,0,0,-1,1168,1555,0,0
-49,-531,0,0,0,0,0,0,0,0,0,-1,1175,1555,0,0
-42,-531,0,0,0,0,0,0,0,0,0,-1,1182,1555,0,0
-35,-531,0,0,0,0,0,0,0,0,0,-1,1189,1555,0,0
-28,-531,0,0,0,0,0,0,0,0,0,-1,1196,1555,0,0
-21,-531,0,0,0,0,0,0,0,0,0,-1,1203,1555,0,0
-14,-531,0,0,0,0,0,0,0,0,0,-1,1210,1555,0,0
-7,-531,0,0,0,0,0,0,0,0,0,-1,1217,1555,0,0
0,-531,0,0,0,0,0,0,0,0,0,-1,1224,1555,0,0
7,-531,0,0,0,0,0,0,0,0,0,-1,1231,1555,0,0
14,-531,0,0,0,0,0,0,0,0,0,-1,1238,1555,0,0
21,-531,0,0,0,0,0,0,0,0,0,-1,1245,1555,0,0
28,-531,0,0,0,0,0,0,0,0,0,-1,1252,1555,0,0
35,-531,0,0,0,0,0,0,0,0,0,-1,1259,1555,0,0
42,-531,0,0,0,0,0,0,0,0,0,-1,1266,1555,0,0
49,-531,0,0,0,0,0,0,0,0,0,-1,1273,1555,0,0
56,-531,0,0,0,0,0,0,0,0,0,-1,1280,1555,0,0
63,-531,0,0,0,0,0,0,0,0,0,-1,1287,1555,0,0
70,-531,0,0,0,0,0,0,0,0,0,-1,1294,1555,0,0
77,-531,0,0,0,0,0,0,0,0,0,-1,1301,1555,0,0
84,-531,0,0,0,0,0,0,0,0,0,-1,1308,1555,0,0
91,-531,0,0,0,0,0,0,0,0,0,-1,1315,1555,0,0
98,-531,0,0,0,0,0,0,0,0,0,-1,1322,1555,0,0
105,-531,0,0,0,0,0,0,0,0,0,-1,1329,1555,0,0
112,-531,0,0,0,0,0,0,0,0,0,-1,1336,1555,0,0
119,-531,0,0,0,0,0,0,0,0,0,-1,1343,1555,0,0
126,-531,0,0,0,0,0,0,0,0,0,-1,1350,1555,0,0
133,-531,0,0,0,0,0,0,0,0,0,-1,1357,1555,0,0
140,-531,0,0,0,0,0,0,0,0,0,-1,1364,1555,0,0
147,-531,0,0,0,0,0,0,0,0,0,-1,1371,1555,0,0
154,-531,0,0,0,0,0,0,0,0,0,-1,1378,1555,0,0
161,-531,0,0,0,0,0,0,0,0,0,-1,1385,1555,0,0
168,-531,0,0,0,0,0,0,0,0,0,-1,1392,1555,0,0
175,-531,0,0,0,0,0,0,0,0,0,-1,1399,1555,0,0
182,-531,0,0,0,0,0,0,0,0,0,-1,1406,1555,0,0
189,-531,0,0,0,0,0,0,0,0,0,-1,1413,1555,0,0
196,-531,0,0,0,0,0,0,0,0,0,-1,1420,1555,0,0
203,-531,0,0,0,0,0,0,0,0,0,-1,1427,1555,0,0
210,-531,0,0,0,0,0,0,0,0,0,-1,1434,1555,0,0
217,-531,0,0,0,0,0,0,0,0,0,-1,1441,1555,0,0
224,-531,0,0,0,0,0,0,0,0,0,-1,1448,1555,0,0
231,-531,0,0,0,0,0,0,0,0,0,-1,1455,1555,0,0
238,-531,0,0,0,0,0,0,0,0,0,-1,1462,1555,0,0
245,-531,0,0,0,0,0,0,0,0,0,-1,1469,1555,0,0
252,-531,0,0,0,0,0,0,0,0,0,-1,1476,1555,0,0
259,-531,0,0,0,0,0,0,0,0,0,-1,1483,1555,0,0
266,-531,0,0,0,0,0,0,0,0,0,-1,1490,1555,0,0
273,-531,0,0,0,0,0,0,0,0,0,-1,1497,1555,0,0
280,-531,0,0,0,0,0,0,0,0,0,-1,1504,1555,0,0
287,-531,0,0,0,0,0,0,0,0,0,-1,1511,1555,0,0
294,-531,0,0,0,0,0,0,0,0,0,-1,1518,1555,0,0
301,-531,0,0,0,0,0,0,0,0,0,-1,1525,1555,0,0
308,-531,0,0,0,0,0,0,0,0,0,-1,1532,1555,0,0
315,-531,0,0,0,0,0,0,0,0,0,-1,1539,1555,0,0
322,-531,0,0,0,0,0,0,0,0,0,-1,1546,1555,0,0
329,-531,0,0,0,0,0,0,0,0,0,-1,1553,1555,0,0
336,-531,0,0,0,0,0,0,0,0,0,-1,1560,1555,0,0
343,-531,0,0,0,0,0,0,0,0,0,-1,1567,1555,0,0
350,-531,0,0,0,0,0,0,0,0,0,-1,1574,1555,0,0
357,-531,0,0,0,0,0,0,0,0,0,-1,1581,1555,0,0
364,-531,0,0,0,0,0,0,0,0,0,-1,1588,1555,0,0
371,-531,0,0,0,0,0,0,0,0,0,-1,1595,1555,0,0
378,-531,0,0,0,0,0,0,0,0,0,-1,1602,1555,0,0
385,-531,0.402954,0.399902,0,0,0,0,0,0,0,-1,1609,1555,0.402906,-0.399895
392,-531,-0.894775,0.132324,0,0,0,0,0,0,0,-1,1616,1555,-0.894803,-0.13228
399,-531,5.51538,3.7749,0,0,0,0,0,0,0,-1,1623,1555,5.51535,-3.77484
406,-531,5.43335,3.25879,-0.0390774,-0.011028,-0.0334615,0.0112291,-0.0613345,-0.983842,0.0451011,0.0438406,1630,1555,5.4333,-3.25885
413,-531,5.28088,2.85815,-0.0368545,-0.005777,-0.0251194,0.00822134,-0.0508528,-1.06239,0.0369485,0.0436021,1637,1555,5.28087,-2.85818
420,-531,4.88403,2.2146,-0.0324587,-0.00195924,-0.0183296,0.00663486,-0.0410528,-1.13237,0.0298272,0.0438382,1644,1555,4.88399,-2.21456
427,-531,4.62305,1.89893,-0.027606,0.000876868,-0.0122934,0.00544889,-0.032178,-1.21474,0.02348,0.0443365,1651,1555,4.62307,-1.89896
434,-531,3.97375,1.95667,-0.0233484,0.00294069,-0.0068126,0.00460123,-0.0250089,-1.33171,0.0183992,0.0450393,1658,1555,3.97378,-1.95663
441,-531,3.57056,2.29492,-0.0194395,0.00426388,-0.0019742,0.00442718,-0.0196028,-1.48827,0.0147671,0.0442204,1665,1555,3.57053,-2.29486
448,-531,4.10718,2.651,-0.0159005,0.00484529,0.00200797,0.00503785,-0.0160931,1.47519,0.0127443,0.0437091,1672,1555,4.10712,-2.65106
455,-531,3.5354,2.47705,-0.0129553,0.00459106,0.00514441,0.00598812,-0.0143523,1.30562,0.01207,0.0433689,1679,1555,3.53543,-2.47704
462,-531,3.28577,2.1792,-0.0106336,0.00395192,0.00785891,0.00738048,-0.0140622,1.15942,0.0125787,0.0459846,1686,1555,3.28582,-2.17919
469,-531,3.14685,1.70044,-0.00845157,0.00333244,0.00964643,0.00874395,-0.0138631,1.05956,0.0131632,0.048349,1693,1555,3.14684,-1.70045
476,-531,2.91516,1.87952,0,0,0,0,0,0,0,-1,1700,1555,2.91512,-1.87954
483,-531,2.9519,2.16589,0,0,0,0,0,0,0,-1,1707,1555,2.95194,-2.16585
490,-531,2.92798,2.12646,-0.00378695,0.000510267,0.00988348,0.00847599,-0.0117527,0.89243,0.01173,0.0273703,1714,1555,2.92802,-2.12641
497,-531,2.88867,2.08899,-0.00295155,-0.000875764,0.00898865,0.00713472,-0.010962,0.842877,0.0105258,0.0128484,1721,1555,2.88868,-2.08903
504,-531,2.89172,2.05383,-0.0021926,-0.00151304,0.0076503,0.00580502,-0.00951065,0.807591,0.00892837,0.0105431,1728,1555,2.89173,-2.05382
511,-531,2.9021,2.04333,-0.00148589,-0.00154115,0.00611737,0.00460391,-0.00763095,0.78314,0.0071355,0.0131561,1735,1555,2.90215,-2.04335
518,-531,2.89087,2.00244,-0.00122951,-0.00133929,0.00464479,0.00336071,-0.00592951,0.779489,0.00543163,0.0140201,1742,1555,2.89084,-2.00248
525,-531,2.90735,1.94434,-0.000717285,-0.00123989,0.00309239,0.00212482,-0.00408199,0.743249,0.00364241,0.0124496,1749,1555,2.90733,-1.94429
532,-531,2.94214,1.90332,7.25735e-05,-0.000721697,0.00143781,0.00116709,-0.00181621,0.650653,0.00173594,0.00987258,1756,1555,2.94215,-1.90328
539,-531,2.93091,1.86658,0.000466318,-0.000176281,2.61978e-05,0.000467385,-0.000177347,0.0406785,0.000384586,0.0118306,1763,1555,2.9309,-1.86658
546,-531,2.88306,1.80237,0.000339532,0.000799021,-0.00116804,0.00175969,-0.000621141,-0.882505,0.00142601,0.0149719,1770,1555,2.88311,-1.80242
553,-531,2.89636,1.73047,0.000192427,0.00252799,-0.00232639,0.00396325,-0.00124282,-1.01801,0.00313954,0.0293133,1777,1555,2.89636,-1.73044
560,-531,2.9054,1.70898,0.000157861,0.00479937,-0.00392052,0.00703454,-0.0020773,-1.05264,0.00551413,0.0317288,1784,1555,2.90536,-1.70904
567,-531,2.8584,1.71814,0.000522206,0.00726552,-0.00518902,0.0100821,-0.00229435,-1.0735,0.00760246,0.0184987,1791,1555,2.85841,-1.71815
574,-531,2.89221,1.67285,0.00190088,0.0114774,-0.00590867,0.0142944,-0.000916111,-1.12592,0.00984916,0.0120034,1798,1555,2.89218,-1.67289
581,-531,2.90613,1.62036,0.00324568,0.0151382,-0.00756363,0.0188131,-0.0004292,-1.11852,0.0126876,0.0102551,1805,1555,2.90611,-1.6203
588,-531,2.91223,1.56006,0.00516837,0.0195503,-0.00920642,0.0240413,0.000677373,-1.11695,0.0158066,0.0132276,1812,1555,2.91223,-1.56007
595,-531,2.8573,1.50366,0.00737469,0.0239797,-0.0110355,0.0294871,0.00186731,-1.1079,0.0190661,0.0274678,1819,1555,2.85731,-1.50368
602,-531,2.80359,0.82959,0,0,0,0,0,0,0,-1,1826,1555,2.80362,-0.829649
609,-531,2.8114,0.345215,0.0121533,0.0329075,-0.0154499,0.0411418,0.00391904,-1.08112,0.0262193,0.040162,1833,1555,2.81143,-0.345165
616,-531,2.85547,-0.154907,0.0149422,0.0367218,-0.0182971,0.0471246,0.00453939,-1.05383,0.0300179,0.0409291,1840,1555,2.85549,0.154965
623,-531,2.79492,-0.592896,0.0174455,0.0394602,-0.0214897,0.0525976,0.00430813,-1.02208,0.0337209,0.0450504,1847,1555,2.79497,0.59287
630,-531,2.72485,-1.14453,0.018854,0.0405821,-0.0255729,0.0575029,0.00193312,-0.986261,0.0377074,0.0468027,1854,1555,2.72491,1.14449
637,-531,2.63062,-1.75195,0,0,0,0,0,0,0,-1,1861,1555,2.63064,1.75197
644,-531,0,0,0,0,0,0,0,0,0,-1,1868,1555,0,0
651,-531,0,0,0,0,0,0,0,0,0,-1,1875,1555,0,0
658,-531,0,0,0,0,0,0,0,0,0,-1,1882,1555,0,0
665,-531,0,0,0,0,0,0,0,0,0,-1,1889,1555,0,0
672,-531,0,0,0,0,0,0,0,0,0,-1,1896,1555,0,0
679,-531,0,0,0,0,0,0,0,0,0,-1,1903,1555,0,0
686,-531,0,0,0,0,0,0,0,0,0,-1,1910,1555,0,0
693,-531,0,0,0,0,0,0,0,0,0,-1,1917,1555,0,0
700,-531,0,0,0,0,0,0,0,0,0,-1,1924,1555,0,0
707,-531,0,0,0,0,0,0,0,0,0,-1,1931,1555,0,0
714,-531,0,0,0,0,0,0,0,0,0,-1,1938,1555,0,0
721,-531,0,0,0,0,0,0,0,0,0,-1,1945,1555,0,0
728,-531,0,0,0,0,0,0,0,0,0,-1,1952,1555,0,0
735,-531,0,0,0,0,0,0,0,0,0,-1,1959,1555,0,0
742,-531,0,0,0,0,0,0,0,0,0,-1,1966,1555,0,0
749,-531,0,0,0,0,0,0,0,0,0,-1,1973,1555,0,0
756,-531,0,0,0,0,0,0,0,0,0,-1,1980,1555,0,0
763,-531,0,0,0,0,0,0,0,0,0,-1,1987,1555,0,0
770,-531,0,0,0,0,0,0,0,0,0,-1,1994,1555,0,0
777,-531,0,0,0,0,0,0,0,0,0,-1,2001,1555,0,0
784,-531,0,0,0,0,0,0,0,0,0,-1,2008,1555,0,0
791,-531,0,0,0,0,0,0,0,0,0,-1,2015,1555,0,0
798,-531,0,0,0,0,0,0,0,0,0,-1,2022,1555,0,0
805,-531,0,0,0,0,0,0,0,0,0,-1,2029,1555,0,0
812,-531,0,0,0,0,0,0,0,0,0,-1,2036,1555,0,0
-700,-538,0,0,0,0,0,0,0,0,0,-1,524,1562,0,0
-693,-538,0,0,0,0,0,0,0,0,0,-1,531,1562,0,0
-686,-538,0,0,0,0,0,0,0,0,0,-1,538,1562,0,0
-679,-538,0,0,0,0,0,0,0,0,0,-1,545,1562,0,0
-672,-538,0,0,0,0,0,0,0,0,0,-1,552,1562,0,0
-665,-538,0,0,0,0,0,0,0,0,0,-1,559,1562,0,0
-658,-538,0,0,0,0,0,0,0,0,0,-1,566,1562,0,0
-651,-538,0,0,0,0,0,0,0,0,0,-1,573,1562,0,0
-644,-538,0,0,0,0,0,0,0,0,0,-1,580,1562,0,0
-637,-538,0,0,0,0,0,0,0,0,0,-1,587,1562,0,0
-630,-538,0,0,0,0,0,0,0,0,0,-1,594,1562,0,0
-623,-538,0,0,0,0,0,0,0,0,0,-1,601,1562,0,0
-616,-538,0,0,0,0,0,0,0,0,0,-1,608,1562,0,0
-609,-538,0,0,0,0,0,0,0,0,0,-1,615,1562,0,0
-602,-538,0,0,0,0,0,0,0,0,0,-1,622,1562,0,0
-595,-538,0,0,0,0,0,0,0,0,0,-1,629,1562,0,0
-588,-538,0,0,0,0,0,0,0,0,0,-1,636,1562,0,0
-581,-538,0,0,0,0,0,0,0,0,0,-1,643,1562,0,0
-574,-538,0,0,0,0,0,0,0,0,0,-1,650,1562,0,0
-567,-538,0,0,0,0,0,0,0,0,0,-1,657,1562,0,0
-560,-538,0,0,0,0,0,0,0,0,0,-1,664,1562,0,0
-553,-538,0,0,0,0,0,0,0,0,0,-1,671,1562,0,0
-546,-538,0,0,0,0,0,0,0,0,0,-1,678,1562,0,0
-539,-538,0,0,0,0,0,0,0,0,0,-1,685,1562,0,0
-532,-538,0,0,0,0,0,0,0,0,0,-1,692,1562,0,0
-525,-538,0,0,0,0,0,0,0,0,0,-1,699,1562,0,0
-518,-538,0,0,0,0,0,0,0,0,0,-1,706,1562,0,0
-511,-538,2.56934,-0.255493,0,0,0,0,0,0,0,-1,713,1562,2.56936,0.255548
-504,-538,2.92181,-0.391846,0,0,0,0,0,0,0,-1,720,1562,2.92182,0.391866
-497,-538,3.11426,-0.389038,0,0,0,0,0,0,0,-1,727,1562,3.11425,0.389096
-490,-538,1.27179,0.290649,0,0,0,0,0,0,0,-1,734,1562,1.27178,-0.290648
-483,-538,1.22174,0.707031,0,0,0,0,0,0,0,-1,741,1562,1.22177,-0.706971
-476,-538,1.18799,1.83569,0,0,0,0,0,0,0,-1,748,1562,1.18799,-1.83571
-469,-538,1.42126,1.45251,0,0,0,0,0,0,0,-1,755,1562,1.42127,-1.45247
-462,-538,1.65454,1.06921,0,0,0,0,0,0,0,-1,762,1562,1.65455,-1.06923
-455,-538,1.26276,1.54504,0.00237989,0.00611146,0.00699136,0.0114817,-0.00299037,0.915794,0.00882186,0.0359515,769,1562,1.26278,-1.54504
-448,-538,1.22827,1.60266,0.0014725,0.00404501,0.0060294,0.00892383,-0.00340632,0.890488,0.00735255,0.0156617,776,1562,1.22828,-1.60263
-441,-538,1.23193,1.65894,0.000848072,0.00225875,0.00506923,0.00667148,-0.00356466,0.854525,0.00599989,0.0138007,783,1562,1.23196,-1.65889
-434,-538,1.21991,1.70068,0.000619171,0.0013298,0.00399065,0.00498092,-0.00303195,0.829799,0.00467163,0.0113611,790,1562,1.21989,-1.70066
-427,-538,1.21521,1.74573,0.000950658,0.00039524,0.00287032,0.00355667,-0.00221077,0.737172,0.00335992,0.0127676,797,1562,1.2152,-1.74571
-420,-538,1.20331,1.78357,0.000479666,-0.000310601,0.0022355,0.00235469,-0.00218562,0.697925,0.00262195,0.016102,804,1562,1.20329,-1.78355
-413,-538,1.20496,1.8053,0.000305365,-0.00050789,0.00142325,0.00137893,-0.00158146,0.646253,0.00171052,0.0162875,811,1562,1.20498,-1.80532
-406,-538,1.22272,1.83923,0.00138005,-0.00108205,0.000679804,0.00155528,-0.00125728,0.252271,0.00162686,0.01356,818,1562,1.22274,-1.83921
-399,-538,1.23859,1.89038,0.00282664,-0.00181344,0.000618317,0.00290762,-0.00189442,0.130229,0.00279296,0.012232,825,1562,1.23857,-1.89041
-392,-538,1.23523,1.92505,0.00416582,-0.00260472,0.000715697,0.00424065,-0.00267955,0.104174,0.00402912,0.0127811,832,1562,1.23521,-1.9251
-385,-538,1.21912,1.96411,0.00581096,-0.00371444,0.00157016,0.00606311,-0.00396659,0.159229,0.00583266,0.0109547,839,1562,1.21911,-1.96417
-378,-538,1.23303,2.00806,0.00729447,-0.00439292,0.00239009,0.00776435,-0.00486281,0.194122,0.00735417,0.0094378,846,1562,1.23301,-2.00808
-371,-538,1.24066,2.04431,0.0091746,-0.00469927,0.00345222,0.00998614,-0.00551082,0.230886,0.00907068,0.0100253,853,1562,1.24067,-2.04427
-364,-538,1.23492,2.0907,0.0124485,-0.00421926,0.00428466,0.0134854,-0.00525618,0.237443,0.0111627,0.00928117,860,1562,1.23495,-2.09076
-357,-538,1.23767,2.08447,0.0168805,-0.00317368,0.00472321,0.0179373,-0.00423042,0.220108,0.0135896,0.0151977,867,1562,1.23768,-2.08452
-350,-538,1.216,2.05383,0.0215529,-0.00140336,0.00492402,0.0225645,-0.00241496,0.202623,0.0159092,0.0283955,874,1562,1.21602,-2.05389
-343,-538,1.1275,2.23987,0.0254819,0.00112363,0.00398679,0.0261179,0.000487708,0.158176,0.0172516,0.0370466,881,1562,1.12752,-2.23988
-336,-538,0.952148,2.57813,0.0295949,0.00449918,0.00184838,0.0297303,0.00436377,0.0731274,0.0185376,0.0419365,888,1562,0.952131,-2.57811
-329,-538,0.73822,2.78845,0.033237,0.00834955,-0.0020166,0.0333994,0.00818721,-0.0803302,0.0201009,0.0438079,895,1562,0.738213,-2.78845
-322,-538,0.638062,2.94214,0.0371967,0.012909,-0.00641801,0.0387884,0.0113174,-0.243093,0.0230327,0.0436775,902,1562,0.638087,-2.94219
-315,-538,0.99115,2.72729,0.0406464,0.0177438,-0.0122123,0.0459364,0.0124537,-0.408773,0.0274321,0.0424252,909,1562,0.991177,-2.72723
-308,-538,1.56122,2.48193,0.0426253,0.0225392,-0.0197068,0.0547006,0.0104639,-0.549739,0.0335279,0.0417763,916,1562,1.56125,-2.48194
-301,-538,1.92059,2.10229,0.0426844,0.0267142,-0.0287856,0.0645719,0.00482669,-0.6501,0.0415326,0.0434919,923,1562,1.92057,-2.10232
-294,-538,1.44617,1.41907,0.0415563,0.0297798,-0.0400033,0.0761024,-0.00476627,-0.712326,0.052396,0.0450102,930,1562,1.44617,-1.41901
-287,-538,0.995667,0.749756,0,0,0,0,0,0,0,-1,937,1562,0.995636,-0.749732
-280,-538,0.312439,-0.0698242,0.0328469,0.0291093,-0.0647195,0.0957246,-0.0337684,-0.770964,0.0775628,0.0449487,944,1562,0.312432,0.0697827
-273,-538,0.277588,-0.835815,0,0,0,0,0,0,0,-1,951,1562,0.277604,0.835758
-266,-538,0.256165,-1.55652,0,0,0,0,0,0,0,-1,958,1562,0.256168,1.55649
-259,-538,-0.36322,5.87952,0,0,0,0,0,0,0,-1,965,1562,-0.363203,-5.87949
-252,-538,0,0,0,0,0,0,0,0,0,-1,972,1562,0,0
-245,-538,0,0,0,0,0,0,0,0,0,-1,979,1562,0,0
-238,-538,0,0,0,0,0,0,0,0,0,-1,986,1562,0,0
-231,-538,0,0,0,0,0,0,0,0,0,-1,993,1562,0,0
-224,-538,0,0,0,0,0,0,0,0,0,-1,1000,1562,0,0
-217,-538,0,0,0,0,0,0,0,0,0,-1,1007,1562,0,0
-210,-538,0,0,0,0,0,0,0,0,0,-1,1014,1562,0,0
-203,-538,0,0,0,0,0,0,0,0,0,-1,1021,1562,0,0
-196,-538,0,0,0,0,0,0,0,0,0,-1,1028,1562,0,0
-189,-538,0,0,0,0,0,0,0,0,0,-1,1035,1562,0,0
-182,-538,0,0,0,0,0,0,0,0,0,-1,1042,1562,0,0
-175,-538,0,0,0,0,0,0,0,0,0,-1,1049,1562,0,0
-168,-538,0,0,0,0,0,0,0,0,0,-1,1056,1562,0,0
-161,-538,0,0,0,0,0,0,0,0,0,-1,1063,1562,0,0
-154,-538,0,0,0,0,0,0,0,0,0,-1,1070,1562,0,0
-147,-538,0,0,0,0,0,0,0,0,0,-1,1077,1562,0,0
-140,-538,0,0,0,0,0,0,0,0,0,-1,1084,1562,0,0
-133,-538,0,0,0,0,0,0,0,0,0,-1,1091,1562,0,0
-126,-538,0,0,0,0,0,0,0,0,0,-1,1098,1562,0,0
-119,-538,0,0,0,0,0,0,0,0,0,-1,1105,1562,0,0
-112,-538,0,0,0,0,0,0,0,0,0,-1,1112,1562,0,0
-105,-538,0,0,0,0,0,0,0,0,0,-1,1119,1562,0,0
-98,-538,0,0,0,0,0,0,0,0,0,-1,1126,1562,0,0
-91,-538,0,0,0,0,0,0,0,0,0,-1,1133,1562,0,0
-84,-538,0,0,0,0,0,0,0,0,0,-1,1140,1562,0,0
-77,-538,0,0,0,0,0,0,0,0,0,-1,1147,1562,0,0
-70,-538,0,0,0,0,0,0,0,0,0,-1,1154,1562,0,0
-63,-538,0,0,0,0,0,0,0,0,0,-1,1161,1562,0,0
-56,-538,0,0,0,0,0,0,0,0,0,-1,1168,1562,0,0
-49,-538,0,0,0,0,0,0,0,0,0,-1,1175,1562,0,0
-42,-538,0,0,0,0,0,0,0,0,0,-1,1182,1562,0,0
-35,-538,0,0,0,0,0,0,0,0,0,-1,1189,1562,0,0
-28,-538,0,0,0,0,0,0,0,0,0,-1,1196,1562,0,0
-21,-538,0,0,0,0,0,0,0,0,0,-1,1203,1562,0,0
-14,-538,0,0,0,0,0,0,0,0,0,-1,1210,1562,0,0
-7,-538,0,0,0,0,0,0,0,0,0,-1,1217,1562,0,0
0,-538,0,0,0,0,0,0,0,0,0,-1,1224,1562,0,0
7,-538,0,0,0,0,0,0,0,0,0,-1,1231,1562,0,0
14,-538,0,0,0,0,0,0,0,0,0,-1,1238,1562,0,0
21,-538,0,0,0,0,0,0,0,0,0,-1,1245,1562,0,0
28,-538,0,0,0,0,0,0,0,0,0,-1,1252,1562,0,0
35,-538,0,0,0,0,0,0,0,0,0,-1,1259,1562,0,0
42,-538,0,0,0,0,0,0,0,0,0,-1,1266,1562,0,0
49,-538,0,0,0,0,0,0,0,0,0,-1,1273,1562,0,0
56,-538,0,0,0,0,0,0,0,0,0,-1,1280,1562,0,0
63,-538,0,0,0,0,0,0,0,0,0,-1,1287,1562,0,0
70,-538,0,0,0,0,0,0,0,0,0,-1,1294,1562,0,0
77,-538,0,0,0,0,0,0,0,0,0,-1,1301,1562,0,0
84,-538,0,0,0,0,0,0,0,0,0,-1,1308,1562,0,0
91,-538,0,0,0,0,0,0,0,0,0,-1,1315,1562,0,0
98,-538,0,0,0,0,0,0,0,0,0,-1,1322,1562,0,0
105,-538,0,0,0,0,0,0,0,0,0,-1,1329,1562,0,0
112,-538,0,0,0,0,0,0,0,0,0,-1,1336,1562,0,0
119,-538,0,0,0,0,0,0,0,0,0,-1,1343,1562,0,0
126,-538,0,0,0,0,0,0,0,0,0,-1,1350,1562,0,0
133,-538,0,0,0,0,0,0,0,0,0,-1,1357,1562,0,0
140,-538,0,0,0,0,0,0,0,0,0,-1,1364,1562,0,0
147,-538,0,0,0,0,0,0,0,0,0,-1,1371,1562,0,0
154,-538,0,0,0,0,0,0,0,0,0,-1,1378,1562,0,0
161,-538,0,0,0,0,0,0,0,0,0,-1,1385,1562,0,0
168,-538,0,0,0,0,0,0,0,0,0,-1,1392,1562,0,0
175,-538,0,0,0,0,0,0,0,0,0,-1,1399,1562,0,0
182,-538,0,0,0,0,0,0,0,0,0,-1,1406,1562,0,0
189,-538,0,0,0,0,0,0,0,0,0,-1,1413,1562,0,0
196,-538,0,0,0,0,0,0,0,0,0,-1,1420,1562,0,0
203,-538,0,0,0,0,0,0,0,0,0,-1,1427,1562,0,0
210,-538,0,0,0,0,0,0,0,0,0,-1,1434,1562,0,0
217,-538,0,0,0,0,0,0,0,0,0,-1,1441,1562,0,0
224,-538,0,0,0,0,0,0,0,0,0,-1,1448,1562,0,0
231,-538,0,0,0,0,0,0,0,0,0,-1,1455,1562,0,0
238,-538,0,0,0,0,0,0,0,0,0,-1,1462,1562,0,0
245,-538,0,0,0,0,0,0,0,0,0,-1,1469,1562,0,0
252,-538,0,0,0,0,0,0,0,0,0,-1,1476,1562,0,0
259,-538,0,0,0,0,0,0,0,0,0,-1,1483,1562,0,0
266,-538,0,0,0,0,0,0,0,0,0,-1,1490,1562,0,0
273,-538,0,0,0,0,0,0,0,0,0,-1,1497,1562,0,0
280,-538,0,0,0,0,0,0,0,0,0,-1,1504,1562,0,0
287,-538,0,0,0,0,0,0,0,0,0,-1,1511,1562,0,0
294,-538,0,0,0,0,0,0,0,0,0,-1,1518,1562,0,0
301,-538,0,0,0,0,0,0,0,0,0,-1,1525,1562,0,0
308,-538,0,0,0,0,0,0,0,0,0,-1,1532,1562,0,0
315,-538,0,0,0,0,0,0,0,0,0,-1,1539,1562,0,0
322,-538,0,0,0,0,0,0,0,0,0,-1,1546,1562,0,0
329,-538,0,0,0,0,0,0,0,0,0,-1,1553,1562,0,0
336,-538,0,0,0,0,0,0,0,0,0,-1,1560,1562,0,0
343,-538,0,0,0,0,0,0,0,0,0,-1,1567,1562,0,0
350,-538,0,0,0,0,0,0,0,0,0,-1,1574,1562,0,0
357,-538,0,0,0,0,0,0,0,0,0,-1,1581,1562,0,0
364,-538,0,0,0,0,0,0,0,0,0,-1,1588,1562,0,0
371,-538,0,0,0,0,0,0,0,0,0,-1,1595,1562,0,0
378,-538,3.08215,0.427856,0,0,0,0,0,0,0,-1,1602,1562,3.08212,-0.427822
385,-538,1.64185,0.452148,0,0,0,0,0,0,0,-1,1609,1562,1.64187,-0.452208
392,-538,6.35229,3.70862,0,0,0,0,0,0,0,-1,1616,1562,6.35227,-3.70867
399,-538,6.10046,3.10376,0,0,0,0,0,0,0,-1,1623,1562,6.10046,-3.10373
406,-538,5.95251,2.46045,-0.032328,-0.00737343,-0.0285985,0.0113511,-0.0510525,-0.991096,0.0383824,0.0412246,1630,1562,5.95257,-2.4605
413,-538,5.27979,2.46948,-0.0315257,-0.00424602,-0.0212714,0.00738302,-0.0431547,-1.07049,0.0315204,0.0433617,1637,1562,5.27974,-2.46953
420,-538,4.82751,2.51685,-0.0287418,-0.00187009,-0.0154936,0.00520193,-0.0358138,-1.14259,0.0257853,0.0414796,1644,1562,4.82749,-2.5169
427,-538,3.57959,1.79285,0,0,0,0,0,0,0,-1,1651,1562,3.57954,-1.79279
434,-538,3.49243,2.01465,-0.0219106,0.00135114,-0.00623399,0.00291647,-0.023476,-1.32479,0.0167079,0.0470209,1658,1562,3.49242,-2.01469
441,-538,3.42944,2.30493,-0.0187355,0.0022286,-0.00251151,0.00252528,-0.0190322,-1.45321,0.0136082,0.0462257,1665,1562,3.42948,-2.30496
448,-538,3.50684,2.60278,-0.0157578,0.00259929,0.0005017,0.00261299,-0.0157715,1.54349,0.0114848,0.0448346,1672,1562,3.50683,-2.60276
455,-538,3.14575,2.37549,-0.0131125,0.00238809,0.00283566,0.00289055,-0.0136149,1.39542,0.0101779,0.0427203,1679,1562,3.14574,-2.37555
462,-538,2.76099,2.14868,-0.0108992,0.00177212,0.00490666,0.00344994,-0.012577,1.24131,0.00974048,0.0437415,1686,1562,2.76105,-2.14871
469,-538,2.74841,2.2085,-0.00868716,0.00136881,0.00628456,0.0043892,-0.0117076,1.12278,0.0096083,0.0451573,1693,1562,2.74837,-2.20848
476,-538,2.82104,2.19556,-0.00664537,0.00118125,0.00712456,0.00539649,-0.0108606,1.03654,0.00956113,0.0394545,1700,1562,2.82111,-2.19556
483,-538,2.89233,2.1582,-0.00511633,0.000638699,0.00729402,0.00560229,-0.0100799,0.973278,0.00917632,0.0244853,1707,1562,2.89233,-2.15818
490,-538,2.88098,2.13464,-0.0040007,-0.000427455,0.00647643,0.00450426,-0.00893242,0.919983,0.00789685,0.0120011,1714,1562,2.88098,-2.13461
497,-538,2.87329,2.09985,-0.00307409,-0.00140007,0.00586196,0.00368433,-0.00815849,0.856312,0.00699822,0.00887782,1721,1562,2.87332,-2.09987
504,-538,2.87585,2.0625,-0.00221729,-0.0017748,0.00498453,0.0029934,-0.00698548,0.807577,0.00591299,0.00867128,1728,1562,2.87589,-2.06245
511,-538,2.86694,2.02698,-0.00148945,-0.00162476,0.0040138,0.00245727,-0.00557147,0.776971,0.00475021,0.00925148,1735,1562,2.86695,-2.02695
518,-538,2.85205,1.99133,-0.00120387,-0.00111805,0.0029891,0.00182845,-0.00415037,0.792576,0.00353758,0.0100021,1742,1562,2.85205,-1.99136
525,-538,2.85864,1.94324,-0.000693948,-0.000680857,0.00187533,0.00118794,-0.00256275,0.787143,0.00221342,0.00993036,1749,1562,2.85867,-1.94322
532,-538,2.88721,1.89587,5.86689e-05,9.81691e-05,0.000589356,0.000668106,-0.000511268,0.802148,0.000682916,0.0106283,1756,1562,2.88725,-1.89591
539,-538,2.87622,1.86536,0.000387742,0.000882703,-0.00062941,0.00131154,-4.1094e-05,-0.972711,0.000888374,0.0136335,1763,1562,2.87624,-1.86536
546,-538,2.85767,1.81433,0.000384598,0.00211664,-0.00184157,0.00328566,-0.000784419,-1.00519,0.00249339,0.0153329,1770,1562,2.85765,-1.81436
553,-538,2.86841,1.7478,0.000433431,0.00420698,-0.0031484,0.00599067,-0.00135026,-1.05534,0.00451173,0.0251453,1777,1562,2.86841,-1.74786
560,-538,2.86743,1.7229,0.000589599,0.00678524,-0.00497527,0.00954829,-0.00217345,-1.06385,0.0072002,0.0261045,1784,1562,2.86744,-1.72294
567,-538,2.84863,1.69836,0.0011589,0.0096271,-0.00654352,0.0131869,-0.00240093,-1.07255,0.00969124,0.0185868,1791,1562,2.84866,-1.69836
574,-538,2.85754,1.65894,0.00275228,0.0143936,-0.00759562,0.0181423,-0.000996473,-1.11233,0.0124403,0.011101,1798,1562,2.85751,-1.65898
581,-538,2.84485,1.58789,0.00433661,0.0187137,-0.00965841,0.0235651,-0.000514775,-1.10531,0.0158845,0.0130728,1805,1562,2.84486,-1.58795
588,-538,2.85254,1.50879,0.00650305,0.0239308,-0.0117426,0.0298395,0.000594324,-1.1046,0.0196979,0.029236,1812,1562,2.85255,-1.50877
595,-538,2.72156,1.21094,0.00901687,0.0293063,-0.0140316,0.0364763,0.00184685,-1.09839,0.0237259,0.042904,1819,1562,2.72151,-1.21096
602,-538,2.70264,1.2583,0.0116592,0.0347021,-0.0165898,0.0433788,0.00298255,-1.08891,0.0279781,0.0462433,1826,1562,2.70268,-1.25836
609,-538,2.69873,0.052002,0.0146771,0.0404995,-0.0193224,0.0508274,0.00434927,-1.07993,0.0325322,0.0422023,1833,1562,2.69879,-0.0520537
616,-538,2.70154,-0.447266,0,0,0,0,0,0,0,-1,1840,1562,2.70159,0.447284
623,-538,2.3905,-0.59668,0.0210718,0.0495857,-0.0262023,0.0651586,0.00549883,-1.03455,0.0417271,0.041654,1847,1562,2.39049,0.596636
630,-538,2.68164,-1.48499,0.0227516,0.0523484,-0.0311002,0.0719915,0.00310851,-1.00746,0.0469924,0.0456267,1854,1562,2.68165,1.48494
637,-538,0,0,0,0,0,0,0,0,0,-1,1861,1562,0,0
644,-538,0,0,0,0,0,0,0,0,0,-1,1868,1562,0,0
651,-538,0,0,0,0,0,0,0,0,0,-1,1875,1562,0,0
658,-538,0,0,0,0,0,0,0,0,0,-1,1882,1562,0,0
665,-538,0,0,0,0,0,0,0,0,0,-1,1889,1562,0,0
672,-538,0,0,0,0,0,0,0,0,0,-1,1896,1562,0,0
679,-538,0,0,0,0,0,0,0,0,0,-1,1903,1562,0,0
686,-538,0,0,0,0,0,0,0,0,0,-1,1910,1562,0,0
693,-538,0,0,0,0,0,0,0,0,0,-1,1917,1562,0,0
700,-538,0,0,0,0,0,0,0,0,0,-1,1924,1562,0,0
707,-538,0,0,0,0,0,0,0,0,0,-1,1931,1562,0,0
714,-538,0,0,0,0,0,0,0,0,0,-1,1938,1562,0,0
721,-538,0,0,0,0,0,0,0,0,0,-1,1945,1562,0,0
728,-538,0,0,0,0,0,0,0,0,0,-1,1952,1562,0,0
735,-538,0,0,0,0,0,0,0,0,0,-1,1959,1562,0,0
742,-538,0,0,0,0,0,0,0,0,0,-1,1966,1562,0,0
749,-538,0,0,0,0,0,0,0,0,0,-1,1973,1562,0,0
756,-538,0,0,0,0,0,0,0,0,0,-1,1980,1562,0,0
763,-538,0,0,0,0,0,0,0,0,0,-1,1987,1562,0,0
770,-538,0,0,0,0,0,0,0,0,0,-1,1994,1562,0,0
777,-538,0,0,0,0,0,0,0,0,0,-1,2001,1562,0,0
784,-538,0,0,0,0,0,0,0,0,0,-1,2008,1562,0,0
791,-538,0,0,0,0,0,0,0,0,0,-1,2015,1562,0,0
798,-538,0,0,0,0,0,0,0,0,0,-1,2022,1562,0,0
805,-538,0,0,0,0,0,0,0,0,0,-1,2029,1562,0,0
812,-538,0,0,0,0,0,0,0,0,0,-1,2036,1562,0,0
-700,-545,0,0,0,0,0,0,0,0,0,-1,524,1569,0,0
-693,-545,0,0,0,0,0,0,0,0,0,-1,531,1569,0,0
-686,-545,0,0,0,0,0,0,0,0,0,-1,538,1569,0,0
-679,-545,0,0,0,0,0,0,0,0,0,-1,545,1569,0,0
-672,-545,0,0,0,0,0,0,0,0,0,-1,552,1569,0,0
-665,-545,0,0,0,0,0,0,0,0,0,-1,559,1569,0,0
-658,-545,0,0,0,0,0,0,0,0,0,-1,566,1569,0,0
-651,-545,0,0,0,0,0,0,0,0,0,-1,573,1569,0,0
-644,-545,0,0,0,0,0,0,0,0,0,-1,580,1569,0,0
-637,-545,0,0,0,0,0,0,0,0,0,-1,587,1569,0,0
-630,-545,0,0,0,0,0,0,0,0,0,-1,594,1569,0,0
-623,-545,0,0,0,0,0,0,0,0,0,-1,601,1569,0,0
-616,-545,0,0,0,0,0,0,0,0,0,-1,608,1569,0,0
-609,-545,0,0,0,0,0,0,0,0,0,-1,615,1569,0,0
-602,-545,0,0,0,0,0,0,0,0,0,-1,622,1569,0,0
-595,-545,0,0,0,0,0,0,0,0,0,-1,629,1569,0,0
-588,-545,0,0,0,0,0,0,0,0,0,-1,636,1569,0,0
-581,-545,0,0,0,0,0,0,0,0,0,-1,643,1569,0,0
-574,-545,0,0,0,0,0,0,0,0,0,-1,650,1569,0,0
-567,-545,0,0,0,0,0,0,0,0,0,-1,657,1569,0,0
-560,-545,0,0,0,0,0,0,0,0,0,-1,664,1569,0,0
-553,-545,0,0,0,0,0,0,0,0,0,-1,671,1569,0,0
-546,-545,0,0,0,0,0,0,0,0,0,-1,678,1569,0,0
-539,-545,0,0,0,0,0,0,0,0,0,-1,685,1569,0,0
-532,-545,0,0,0,0,0,0,0,0,0,-1,692,1569,0,0
-525,-545,0,0,0,0,0,0,0,0,0,-1,699,1569,0,0
-518,-545,0,0,0,0,0,0,0,0,0,-1,706,1569,0,0
-511,-545,0,0,0,0,0,0,0,0,0,-1,713,1569,0,0
-504,-545,-0.153564,0.886841,0,0,0,0,0,0,0,-1,720,1569,-0.153562,-0.886874
-497,-545,4.43207,2.67395,0,0,0,0,0,0,0,-1,727,1569,4.43207,-2.67394
-490,-545,1.21729,0.469727,0,0,0,0,0,0,0,-1,734,1569,1.21727,-0.469751
-483,-545,1.15625,0.821655,0,0,0,0,0,0,0,-1,741,1569,1.15622,-0.821613
-476,-545,1.07684,1.1665,0,0,0,0,0,0,0,-1,748,1569,1.07684,-1.16648
-469,-545,1.60883,1.42627,0,0,0,0,0,0,0,-1,755,1569,1.60886,-1.42629
-462,-545,1.22095,1.60632,0,0,0,0,0,0,0,-1,762,1569,1.22095,-1.60634
-455,-545,1.26385,1.59412,0.00682406,0.0102636,0.0083987,0.0171168,-2.91336e-05,0.886386,0.0114209,0.0419965,769,1569,1.26385,-1.59416
-448,-545,1.34564,1.53137,0.00491313,0.00761095,0.00711066,0.0134995,-0.000975437,0.879136,0.00934182,0.0273544,776,1569,1.34565,-1.53133
-441,-545,1.24829,1.65649,0.00346118,0.00535637,0.00589651,0.0103809,-0.00156339,0.865069,0.0074963,0.0156671,783,1569,1.24828,-1.65653
-434,-545,1.25171,1.71143,0.00248879,0.00402449,0.00458726,0.00790772,-0.00139444,0.868323,0.00579284,0.0119276,790,1569,1.25173,-1.71137
-427,-545,1.26044,1.75037,0.00217211,0.00276578,0.00328801,0.00577033,-0.000832439,0.830415,0.00415227,0.0157958,797,1569,1.26044,-1.75042
-420,-545,1.26501,1.76245,0.00111756,0.00172154,0.00259134,0.00402843,-0.00118933,0.843406,0.00315763,0.0218961,804,1569,1.26503,-1.76249
-413,-545,1.2774,1.78577,0.000558837,0.00129245,0.00166958,0.00263504,-0.000783756,0.89353,0.00206806,0.0219535,811,1569,1.27738,-1.78579
-406,-545,1.27112,1.82837,0.00118748,0.000458501,0.000817588,0.00171815,-7.21641e-05,0.575715,0.00117023,0.0163317,818,1569,1.2711,-1.82835
-399,-545,1.2785,1.88269,0.00212378,-0.000372901,0.000513586,0.0022253,-0.000474422,0.195154,0.00166437,0.0109379,825,1569,1.27851,-1.88266
-392,-545,1.28912,1.92322,0.00279645,-0.00125953,0.000489319,0.00285464,-0.00131773,0.118379,0.00246279,0.0105907,832,1569,1.28912,-1.92325
-385,-545,1.27423,1.96411,0.00376239,-0.0022857,0.00110627,0.00395838,-0.0024817,0.175351,0.00375062,0.00875606,839,1569,1.27425,-1.96414
-378,-545,1.26831,2.01489,0.0046661,-0.00285209,0.00165554,0.00501452,-0.0032005,0.207425,0.00478133,0.0102882,846,1569,1.26831,-2.01489
-371,-545,1.271,2.06238,0.00583615,-0.00302179,0.00237569,0.00643308,-0.00361872,0.24617,0.00587875,0.0141241,853,1569,1.27102,-2.06237
-364,-545,1.27765,2.08948,0.0081137,-0.00259275,0.00290989,0.00885346,-0.00333251,0.248949,0.00727228,0.00971563,860,1569,1.27767,-2.08942
-357,-545,1.28015,2.1084,0.0112405,-0.00168087,0.00310574,0.0119482,-0.00238859,0.22405,0.00886954,0.0101433,867,1569,1.28018,-2.10835
-350,-545,1.26984,2.1438,0.0145361,-0.00017815,0.00315761,0.0151851,-0.000827136,0.202708,0.0104101,0.0137645,874,1569,1.26983,-2.1438
-343,-545,1.20093,2.21631,0.0172473,0.00188373,0.0023287,0.0175925,0.00153852,0.14717,0.0112506,0.0209723,881,1569,1.20093,-2.21629
-336,-545,1.13354,2.29468,0.0200359,0.00466689,0.000310981,0.0200422,0.0046606,0.0202232,0.0121107,0.0293314,888,1569,1.13352,-2.29465
-329,-545,0.801208,2.28833,0.0225845,0.00778992,-0.00319078,0.0232433,0.0071311,-0.203616,0.0137494,0.0371782,895,1569,0.801213,-2.28831
-322,-545,0.458008,2.48779,0.0254269,0.0113964,-0.00706131,0.0283653,0.00845801,-0.394336,0.0168155,0.0419664,902,1569,0.458021,-2.48776
-315,-545,1.3045,2.81934,0,0,0,0,0,0,0,-1,909,1569,1.30451,-2.81929
-308,-545,1.63177,2.58484,0.0294496,0.0186625,-0.0184621,0.0432899,0.0048222,-0.643282,0.0273944,0.0449012,916,1569,1.63176,-2.5848
-301,-545,1.71948,2.12573,0.0296174,0.0217394,-0.0262371,0.0522095,-0.000852745,-0.710889,0.035094,0.0464291,923,1569,1.71948,-2.12574
-294,-545,1.35394,1.46252,0.0290975,0.0233435,-0.0351079,0.061446,-0.00900505,-0.744516,0.0442721,0.0435192,930,1569,1.35396,-1.46249
-287,-545,0.794922,0.754395,0.0280443,0.0232653,-0.0440503,0.0697699,-0.0184603,-0.758302,0.0537343,0.0437866,937,1569,0.794913,-0.754355
-280,-545,0.641357,-0.147217,0.0262904,0.0216273,-0.0514207,0.0754324,-0.0275147,-0.762742,0.0615453,0.0455677,944,1569,0.641377,0.147177
-273,-545,0.612976,-0.947388,0,0,0,0,0,0,0,-1,951,1569,0.612962,0.947384
-266,-545,2.58807,4.19885,0,0,0,0,0,0,0,-1,958,1569,2.58807,-4.19884
-259,-545,-0.108826,1.53101,0,0,0,0,0,0,0,-1,965,1569,-0.108825,-1.53099
-252,-545,-0.0806274,1.20276,0,0,0,0,0,0,0,-1,972,1569,-0.0806333,-1.20271
-245,-545,0.272766,1.23193,0,0,0,0,0,0,0,-1,979,1569,0.272748,-1.23193
-238,-545,0,0,0,0,0,0,0,0,0,-1,986,1569,0,0
-231,-545,0,0,0,0,0,0,0,0,0,-1,993,1569,0,0
-224,-545,0,0,0,0,0,0,0,0,0,-1,1000,1569,0,0
-217,-545,0,0,0,0,0,0,0,0,0,-1,1007,1569,0,0
-210,-545,0,0,0,0,0,0,0,0,0,-1,1014,1569,0,0
-203,-545,0,0,0,0,0,0,0,0,0,-1,1021,1569,0,0
-196,-545,0,0,0,0,0,0,0,0,0,-1,1028,1569,0,0
-189,-545,0,0,0,0,0,0,0,0,0,-1,1035,1569,0,0
-182,-545,0,0,0,0,0,0,0,0,0,-1,1042,1569,0,0
-175,-545,0,0,0,0,0,0,0,0,0,-1,1049,1569,0,0
-168,-545,0,0,0,0,0,0,0,0,0,-1,1056,1569,0,0
-161,-545,0,0,0,0,0,0,0,0,0,-1,1063,1569,0,0
-154,-545,0,0,0,0,0,0,0,0,0,-1,1070,1569,0,0
-147,-545,0,0,0,0,0,0,0,0,0,-1,1077,1569,0,0
-140,-545,0,0,0,0,0,0,0,0,0,-1,1084,1569,0,0
-133,-545,0,0,0,0,0,0,0,0,0,-1,1091,1569,0,0
-126,-545,0,0,0,0,0,0,0,0,0,-1,1098,1569,0,0
-119,-545,0,0,0,0,0,0,0,0,0,-1,1105,1569,0,0
-112,-545,0,0,0,0,0,0,0,0,0,-1,1112,1569,0,0
-105,-545,0,0,0,0,0,0,0,0,0,-1,1119,1569,0,0
-98,-545,0,0,0,0,0,0,0,0,0,-1,1126,1569,0,0
-91,-545,0,0,0,0,0,0,0,0,0,-1,1133,1569,0,0
-84,-545,0,0,0,0,0,0,0,0,0,-1,1140,1569,0,0
-77,-545,0,0,0,0,0,0,0,0,0,-1,1147,1569,0,0
-70,-545,0,0,0,0,0,0,0,0,0,-1,1154,1569,0,0
-63,-545,0,0,0,0,0,0,0,0,0,-1,1161,1569,0,0
-56,-545,0,0,0,0,0,0,0,0,0,-1,1168,1569,0,0
-49,-545,0,0,0,0,0,0,0,0,0,-1,1175,1569,0,0
-42,-545,0,0,0,0,0,0,0,0,0,-1,1182,1569,0,0
-35,-545,0,0,0,0,0,0,0,0,0,-1,1189,1569,0,0
-28,-545,0,0,0,0,0,0,0,0,0,-1,1196,1569,0,0
-21,-545,0,0,0,0,0,0,0,0,0,-1,1203,1569,0,0
-14,-545,0,0,0,0,0,0,0,0,0,-1,1210,1569,0,0
-7,-545,0,0,0,0,0,0,0,0,0,-1,1217,1569,0,0
0,-545,0,0,0,0,0,0,0,0,0,-1,1224,1569,0,0
7,-545,0,0,0,0,0,0,0,0,0,-1,1231,1569,0,0
14,-545,0,0,0,0,0,0,0,0,0,-1,1238,1569,0,0
21,-545,0,0,0,0,0,0,0,0,0,-1,1245,1569,0,0
28,-545,0,0,0,0,0,0,0,0,0,-1,1252,1569,0,0
35,-545,0,0,0,0,0,0,0,0,0,-1,1259,1569,0,0
42,-545,0,0,0,0,0,0,0,0,0,-1,1266,1569,0,0
49,-545,0,0,0,0,0,0,0,0,0,-1,1273,1569,0,0
56,-545,0,0,0,0,0,0,0,0,0,-1,1280,1569,0,0
63,-545,0,0,0,0,0,0,0,0,0,-1,1287,1569,0,0
70,-545,0,0,0,0,0,0,0,0,0,-1,1294,1569,0,0
77,-545,0,0,0,0,0,0,0,0,0,-1,1301,1569,0,0
84,-545,0,0,0,0,0,0,0,0,0,-1,1308,1569,0,0
91,-545,0,0,0,0,0,0,0,0,0,-1,1315,1569,0,0
98,-545,0,0,0,0,0,0,0,0,0,-1,1322,1569,0,0
105,-545,0,0,0,0,0,0,0,0,0,-1,1329,1569,0,0
112,-545,0,0,0,0,0,0,0,0,0,-1,1336,1569,0,0
119,-545,0,0,0,0,0,0,0,0,0,-1,1343,1569,0,0
126,-545,0,0,0,0,0,0,0,0,0,-1,1350,1569,0,0
133,-545,0,0,0,0,0,0,0,0,0,-1,1357,1569,0,0
140,-545,0,0,0,0,0,0,0,0,0,-1,1364,1569,0,0
147,-545,0,0,0,0,0,0,0,0,0,-1,1371,1569,0,0
154,-545,0,0,0,0,0,0,0,0,0,-1,1378,1569,0,0
161,-545,0,0,0,0,0,0,0,0,0,-1,1385,1569,0,0
168,-545,0,0,0,0,0,0,0,0,0,-1,1392,1569,0,0
175,-545,0,0,0,0,0,0,0,0,0,-1,1399,1569,0,0
182,-545,0,0,0,0,0,0,0,0,0,-1,1406,1569,0,0
189,-545,0,0,0,0,0,0,0,0,0,-1,1413,1569,0,0
196,-545,0,0,0,0,0,0,0,0,0,-1,1420,1569,0,0
203,-545,0,0,0,0,0,0,0,0,0,-1,1427,1569,0,0
210,-545,0,0,0,0,0,0,0,0,0,-1,1434,1569,0,0
217,-545,0,0,0,0,0,0,0,0,0,-1,1441,1569,0,0
224,-545,0,0,0,0,0,0,0,0,0,-1,1448,1569,0,0
231,-545,0,0,0,0,0,0,0,0,0,-1,1455,1569,0,0
238,-545,0,0,0,0,0,0,0,0,0,-1,1462,1569,0,0
245,-545,0,0,0,0,0,0,0,0,0,-1,1469,1569,0,0
252,-545,0,0,0,0,0,0,0,0,0,-1,1476,1569,0,0
259,-545,0,0,0,0,0,0,0,0,0,-1,1483,1569,0,0
266,-545,0,0,0,0,0,0,0,0,0,-1,1490,1569,0,0
273,-545,0,0,0,0,0,0,0,0,0,-1,1497,1569,0,0
280,-545,0,0,0,0,0,0,0,0,0,-1,1504,1569,0,0
287,-545,0,0,0,0,0,0,0,0,0,-1,1511,1569,0,0
294,-545,0,0,0,0,0,0,0,0,0,-1,1518,1569,0,0
301,-545,0,0,0,0,0,0,0,0,0,-1,1525,1569,0,0
308,-545,0,0,0,0,0,0,0,0,0,-1,1532,1569,0,0
315,-545,0,0,0,0,0,0,0,0,0,-1,1539,1569,0,0
322,-545,0,0,0,0,0,0,0,0,0,-1,1546,1569,0,0
329,-545,0,0,0,0,0,0,0,0,0,-1,1553,1569,0,0
336,-545,0,0,0,0,0,0,0,0,0,-1,1560,1569,0,0
343,-545,0,0,0,0,0,0,0,0,0,-1,1567,1569,0,0
350,-545,0,0,0,0,0,0,0,0,0,-1,1574,1569,0,0
357,-545,0,0,0,0,0,0,0,0,0,-1,1581,1569,0,0
364,-545,4.40479,3.50049,0,0,0,0,0,0,0,-1,1588,1569,4.40484,-3.50053
371,-545,4.70776,4.02454,0,0,0,0,0,0,0,-1,1595,1569,4.70782,-4.0245
378,-545,4.79309,4.54785,0,0,0,0,0,0,0,-1,1602,1569,4.79308,-4.5479
385,-545,3.83228,4.2688,0,0,0,0,0,0,0,-1,1609,1569,3.83232,-4.2688
392,-545,3.4502,4.45715,0,0,0,0,0,0,0,-1,1616,1569,3.45017,-4.45719
399,-545,6.72546,2.13159,0,0,0,0,0,0,0,-1,1623,1569,6.72545,-2.13162
406,-545,6.52246,1.47217,0,0,0,0,0,0,0,-1,1630,1569,6.52252,-1.47216
413,-545,5.16357,2.50183,-0.0263314,-0.00278015,-0.0170988,0.00620562,-0.0353171,-1.08694,0.0258627,0.0425735,1637,1569,5.16355,-2.50182
420,-545,4.69604,2.83276,-0.0243483,-0.00107184,-0.012892,0.00465808,-0.0300782,-1.15256,0.0217716,0.0413652,1644,1569,4.69601,-2.83275
427,-545,4.51685,2.97888,-0.0218596,-6.53992e-05,-0.00887056,0.00308861,-0.0250136,-1.22918,0.0177948,0.044019,1651,1569,4.51688,-2.97883
434,-545,3.7522,2.4408,0,0,0,0,0,0,0,-1,1658,1569,3.75224,-2.4408
441,-545,3.54163,2.36609,-0.0168915,0.00117748,-0.0025892,0.00154118,-0.0172552,-1.43124,0.0120501,0.0466557,1665,1569,3.54164,-2.36607
448,-545,3.34973,2.33447,-0.0144593,0.00136341,-0.000289543,0.00136871,-0.0144646,-1.55251,0.0101302,0.0472551,1672,1569,3.34972,-2.33446
455,-545,3.00781,2.39209,-0.0121675,0.00121177,0.0014567,0.00136853,-0.0123243,1.46359,0.00870827,0.0442359,1679,1569,3.00781,-2.39205
462,-545,2.75244,2.24048,-0.0101585,0.000649725,0.00303932,0.00144577,-0.0109545,1.31464,0.00782957,0.041652,1686,1569,2.75245,-2.2405
469,-545,2.84326,2.26782,-0.00804738,0.000395538,0.00412016,0.00207293,-0.00972477,1.18417,0.0072733,0.0405499,1693,1569,2.84326,-2.26784
476,-545,2.79199,2.19849,-0.00614138,0.000344685,0.00477427,0.00287321,-0.00866991,1.08374,0.00693888,0.0274918,1700,1569,2.79197,-2.19855
483,-545,2.83313,2.15662,-0.00477482,1.75383e-05,0.00491725,0.00309137,-0.00784866,1.01212,0.00651225,0.0117035,1707,1569,2.83315,-2.15666
490,-545,2.83411,2.12659,-0.00371236,-0.000722865,0.00425279,0.00229022,-0.00672544,0.954392,0.00541108,0.0104576,1714,1569,2.83406,-2.12659
497,-545,2.828,2.10999,-0.00279104,-0.00140189,0.00381757,0.00178377,-0.0059767,0.875385,0.00469344,0.0158151,1721,1569,2.82794,-2.11
504,-545,2.85681,2.07349,-0.00196948,-0.00171803,0.00323612,0.00139481,-0.00508232,0.804813,0.0039364,0.0154722,1728,1569,2.85685,-2.07355
511,-545,2.83899,2.0199,-0.0012405,-0.00150363,0.00257289,0.00120418,-0.00394832,0.759853,0.00311225,0.0110905,1735,1569,2.83897,-2.01985
518,-545,2.823,1.9812,-0.000920792,-0.000745786,0.00172136,0.000890294,-0.00255687,0.810793,0.0020663,0.0119153,1742,1569,2.82306,-1.98115
525,-545,2.82861,1.94495,-0.000429056,1.83148e-05,0.000765472,0.000592114,-0.00100286,0.92755,0.000930979,0.0116245,1749,1569,2.82856,-1.94494
532,-545,2.83215,1.89722,0.000304018,0.00107076,-0.000449408,0.0012781,9.66769e-05,-1.13853,0.000821739,0.0122103,1756,1569,2.8322,-1.89722
539,-545,2.82397,1.84424,0.000616445,0.00209608,-0.00174288,0.00324966,-0.000537133,-0.986114,0.0023659,0.0155154,1763,1569,2.82393,-1.84421
546,-545,2.81189,1.84326,0.000745653,0.00371154,-0.00312447,0.00568713,-0.00122993,-1.00697,0.00426098,0.0170885,1770,1569,2.81192,-1.84331
553,-545,2.83594,1.77161,0.000958911,0.00628012,-0.00471173,0.00903055,-0.00179152,-1.04242,0.00669788,0.0244393,1777,1569,2.83588,-1.77155
560,-545,2.84143,1.69653,0.00125304,0.00929443,-0.00687545,0.0132385,-0.00269106,-1.04998,0.00984606,0.0238392,1784,1569,2.84147,-1.69657
567,-545,2.81506,1.67676,0.0019217,0.0126458,-0.00887217,0.0176504,-0.00308287,-1.05721,0.0129178,0.0232455,1791,1569,2.81502,-1.67676
574,-545,2.82178,1.67456,0.00358157,0.017993,-0.0103987,0.0234386,-0.00186403,-1.08838,0.0162827,0.0219661,1798,1569,2.82176,-1.67461
581,-545,2.83545,1.59961,0.00526397,0.0229676,-0.0129555,0.0298065,-0.00157494,-1.0851,0.0204162,0.0335311,1805,1569,2.83541,-1.59957
588,-545,2.8031,1.448,0.00749592,0.028921,-0.0155316,0.0370761,-0.000659229,-1.0873,0.0249401,0.0479269,1812,1569,2.80312,-1.44797
595,-545,2.59119,0.762085,0.0101418,0.0351054,-0.0182988,0.044774,0.000473225,-1.08471,0.0296929,0.0497251,1819,1569,2.59121,-0.762026
602,-545,2.63391,0.302856,0.0130753,0.0415154,-0.0212688,0.0528799,0.00171075,-1.08006,0.0346971,0.048859,1826,1569,2.63397,-0.30287
609,-545,2.65906,-0.263428,0.0165455,0.0484105,-0.0244568,0.0616668,0.00328929,-1.0741,0.0400598,0.0443061,1833,1569,2.65909,0.263426
616,-545,2.45813,-0.842163,0,0,0,0,0,0,0,-1,1840,1569,2.45815,0.842154
623,-545,2.39832,-1.36548,0,0,0,0,0,0,0,-1,1847,1569,2.39834,1.36544
630,-545,0,0,0,0,0,0,0,0,0,-1,1854,1569,0,0
637,-545,0,0,0,0,0,0,0,0,0,-1,1861,1569,0,0
644,-545,0,0,0,0,0,0,0,0,0,-1,1868,1569,0,0
651,-545,0,0,0,0,0,0,0,0,0,-1,1875,1569,0,0
658,-545,0,0,0,0,0,0,0,0,0,-1,1882,1569,0,0
665,-545,0,0,0,0,0,0,0,0,0,-1,1889,1569,0,0
672,-545,0,0,0,0,0,0,0,0,0,-1,1896,1569,0,0
679,-545,0,0,0,0,0,0,0,0,0,-1,1903,1569,0,0
686,-545,0,0,0,0,0,0,0,0,0,-1,1910,1569,0,0
693,-545,0,0,0,0,0,0,0,0,0,-1,1917,1569,0,0
700,-545,0,0,0,0,0,0,0,0,0,-1,1924,1569,0,0
707,-545,0,0,0,0,0,0,0,0,0,-1,1931,1569,0,0
714,-545,0,0,0,0,0,0,0,0,0,-1,1938,1569,0,0
721,-545,0,0,0,0,0,0,0,0,0,-1,1945,1569,0,0
728,-545,0,0,0,0,0,0,0,0,0,-1,1952,1569,0,0
735,-545,0,0,0,0,0,0,0,0,0,-1,1959,1569,0,0
742,-545,0,0,0,0,0,0,0,0,0,-1,1966,1569,0,0
749,-545,0,0,0,0,0,0,0,0,0,-1,1973,1569,0,0
756,-545,0,0,0,0,0,0,0,0,0,-1,1980,1569,0,0
763,-545,0,0,0,0,0,0,0,0,0,-1,1987,1569,0,0
770,-545,0,0,0,0,0,0,0,0,0,-1,1994,1569,0,0
777,-545,0,0,0,0,0,0,0,0,0,-1,2001,1569,0,0
784,-545,0,0,0,0,0,0,0,0,0,-1,2008,1569,0,0
791,-545,0,0,0,0,0,0,0,0,0,-1,2015,1569,0,0
798,-545,0,0,0,0,0,0,0,0,0,-1,2022,1569,0,0
805,-545,0,0,0,0,0,0,0,0,0,-1,2029,1569,0,0
812,-545,0,0,0,0,0,0,0,0,0,-1,2036,1569,0,0
-700,-552,0,0,0,0,0,0,0,0,0,-1,524,1576,0,0
-693,-552,0,0,0,0,0,0,0,0,0,-1,531,1576,0,0
-686,-552,0,0,0,0,0,0,0,0,0,-1,538,1576,0,0
-679,-552,0,0,0,0,0,0,0,0,0,-1,545,1576,0,0
-672,-552,0,0,0,0,0,0,0,0,0,-1,552,1576,0,0
-665,-552,0,0,0,0,0,0,0,0,0,-1,559,1576,0,0
-658,-552,0,0,0,0,0,0,0,0,0,-1,566,1576,0,0
-651,-552,0,0,0,0,0,0,0,0,0,-1,573,1576,0,0
-644,-552,0,0,0,0,0,0,0,0,0,-1,580,1576,0,0
-637,-552,0,0,0,0,0,0,0,0,0,-1,587,1576,0,0
-630,-552,0,0,0,0,0,0,0,0,0,-1,594,1576,0,0
-623,-552,0,0,0,0,0,0,0,0,0,-1,601,1576,0,0
-616,-552,0,0,0,0,0,0,0,0,0,-1,608,1576,0,0
-609,-552,0,0,0,0,0,0,0,0,0,-1,615,1576,0,0
-602,-552,0,0,0,0,0,0,0,0,0,-1,622,1576,0,0
-595,-552,0,0,0,0,0,0,0,0,0,-1,629,1576,0,0
-588,-552,0,0,0,0,0,0,0,0,0,-1,636,1576,0,0
-581,-552,0,0,0,0,0,0,0,0,0,-1,643,1576,0,0
-574,-552,0,0,0,0,0,0,0,0,0,-1,650,1576,0,0
-567,-552,0,0,0,0,0,0,0,0,0,-1,657,1576,0,0
-560,-552,0,0,0,0,0,0,0,0,0,-1,664,1576,0,0
-553,-552,0,0,0,0,0,0,0,0,0,-1,671,1576,0,0
-546,-552,0,0,0,0,0,0,0,0,0,-1,678,1576,0,0
-539,-552,0,0,0,0,0,0,0,0,0,-1,685,1576,0,0
-532,-552,0,0,0,0,0,0,0,0,0,-1,692,1576,0,0
-525,-552,0,0,0,0,0,0,0,0,0,-1,699,1576,0,0
-518,-552,0,0,0,0,0,0,0,0,0,-1,706,1576,0,0
-511,-552,0,0,0,0,0,0,0,0,0,-1,713,1576,0,0
-504,-552,0,0,0,0,0,0,0,0,0,-1,720,1576,0,0
-497,-552,4.52563,2.2041,0,0,0,0,0,0,0,-1,727,1576,4.52564,-2.20406
-490,-552,4.12708,1.99744,0,0,0,0,0,0,0,-1,734,1576,4.12705,-1.99745
-483,-552,1.13062,0.868286,0,0,0,0,0,0,0,-1,741,1576,1.13063,-0.868339
-476,-552,0.92395,0.866821,0.0237263,0.0363545,0.00994383,0.0418195,0.0182612,1.06827,0.024209,0.0426108,748,1576,0.923968,-0.866773
-469,-552,1.65955,1.19702,0.0149254,0.026604,0.00987913,0.0322405,0.00928886,1.05231,0.0191631,0.0473659,755,1576,1.65957,-1.19706
-462,-552,1.64044,1.38757,0,0,0,0,0,0,0,-1,762,1576,1.64045,-1.38755
-455,-552,1.2674,1.60071,0.00734256,0.0168935,0.00839868,0.0217794,0.00245662,1.0439,0.013774,0.0453607,769,1576,1.2674,-1.60067
-448,-552,1.29449,1.5824,0.00500263,0.0135221,0.00717844,0.0176096,0.000915201,1.05318,0.0114468,0.0398784,776,1576,1.29451,-1.58245
-441,-552,1.10718,1.74255,0.00332515,0.0105515,0.00605427,0.0139888,-0.000112145,1.05443,0.00936349,0.0322066,783,1576,1.10717,-1.74256
-434,-552,1.26831,1.73438,0.00219595,0.00852624,0.00485128,0.0111536,-0.000431406,1.07444,0.00758362,0.0180233,790,1576,1.26831,-1.73437
-427,-552,1.30817,1.72107,0.00173878,0.00664378,0.00366411,0.00860041,-0.000217855,1.08032,0.00580759,0.0137596,797,1576,1.30819,-1.7211
-420,-552,1.32806,1.75476,0.000576952,0.00498473,0.00311333,0.00659528,-0.00103359,1.0934,0.00477879,0.0178871,804,1576,1.32805,-1.75473
-413,-552,1.34021,1.79395,5.47435e-05,0.00402653,0.00224779,0.00504002,-0.000958753,1.14721,0.003721,0.0173172,811,1576,1.34022,-1.79398
-406,-552,1.33197,1.83496,0.00062278,0.00267136,0.00138558,0.00337015,-7.60062e-05,1.10369,0.00227252,0.0135628,818,1576,1.33198,-1.835
-399,-552,1.34485,1.91064,0.00132477,0.00151391,0.000899196,0.00232349,0.000515184,0.837792,0.00140902,0.0130367,825,1576,1.34488,-1.9106
-392,-552,1.32831,1.94617,0.0016983,0.00026347,0.000870725,0.00210909,-0.000147321,0.440818,0.00145765,0.0133704,832,1576,1.32828,-1.94615
-385,-552,1.31207,1.97815,0.00227402,-0.000895551,0.00117511,0.00266216,-0.00128369,0.319017,0.00232401,0.0115883,839,1576,1.31205,-1.97813
-378,-552,1.29706,2.00562,0.00278987,-0.00151568,0.00140278,0.00320658,-0.00193239,0.288755,0.00299723,0.0133225,846,1576,1.29708,-2.00566
-371,-552,1.29919,2.04297,0.00349221,-0.00169416,0.00174956,0.00402722,-0.00222916,0.296763,0.00366151,0.019614,853,1576,1.29921,-2.04294
-364,-552,1.31744,2.07446,0.00507506,-0.00142432,0.00194872,0.00561456,-0.00196382,0.270086,0.00454146,0.0161244,860,1576,1.31743,-2.07451
-357,-552,1.31409,2.12207,0.00720466,-0.000708717,0.00189044,0.00763307,-0.00113714,0.222859,0.00550704,0.0107773,867,1576,1.31406,-2.12212
-350,-552,1.32068,2.16553,0.00944345,0.000520353,0.00176465,0.00977976,0.000184047,0.188321,0.00645936,0.00936424,874,1576,1.3207,-2.16549
-343,-552,1.31268,2.20044,0.0112653,0.00215834,0.00104551,0.0113838,0.00203985,0.112847,0.00700892,0.00899877,881,1576,1.31271,-2.20039
-336,-552,1.32068,2.2229,0.0130812,0.00440156,-0.000781908,0.0131511,0.00433168,-0.0891288,0.00773874,0.0131328,888,1576,1.32069,-2.22287
-329,-552,1.3089,2.22644,0.0148015,0.006867,-0.00382231,0.0163432,0.00532525,-0.383398,0.00962468,0.0272831,895,1576,1.30887,-2.22641
-322,-552,1.2572,2.26184,0.0167613,0.00962412,-0.00706974,0.021112,0.00527336,-0.551671,0.0126876,0.0420818,902,1576,1.25721,-2.26179
-315,-552,1.87354,2.69299,0,0,0,0,0,0,0,-1,909,1576,1.87352,-2.69295
-308,-552,1.82819,2.53369,0.0196524,0.0149567,-0.0164549,0.0339262,0.000682985,-0.714535,0.0223932,0.0462974,916,1576,1.82816,-2.53373
-301,-552,1.73492,2.31934,0.0199027,0.0172284,-0.0227924,0.0413972,-0.00426601,-0.756099,0.0291244,0.0464936,923,1576,1.73491,-2.31936
-294,-552,1.65936,2.13171,0,0,0,0,0,0,0,-1,930,1576,1.65933,-2.13169
-287,-552,1.11932,0.54248,0.020104,0.0173877,-0.0361657,0.0549371,-0.0174453,-0.76663,0.0436187,0.0439994,937,1576,1.1193,-0.54244
-280,-552,1.26825,-0.542969,0.0204556,0.0162536,-0.0409576,0.059366,-0.0226568,-0.759772,0.0489113,0.0452607,944,1576,1.26822,0.542978
-273,-552,1.3988,-1.58838,0,0,0,0,0,0,0,-1,951,1576,1.39882,1.58842
-266,-552,3.8233,4.06848,0,0,0,0,0,0,0,-1,958,1576,3.82333,-4.06852
-259,-552,0.697815,1.2677,0,0,0,0,0,0,0,-1,965,1576,0.697787,-1.26771
-252,-552,0.791687,1.19641,0,0,0,0,0,0,0,-1,972,1576,0.791713,-1.1964
-245,-552,0.827637,1.29895,0,0,0,0,0,0,0,-1,979,1576,0.82763,-1.299
-238,-552,1.03577,1.63208,0,0,0,0,0,0,0,-1,986,1576,1.03579,-1.63213
-231,-552,0.671082,1.73083,0,0,0,0,0,0,0,-1,993,1576,0.671096,-1.73083
-224,-552,0,0,0,0,0,0,0,0,0,-1,1000,1576,0,0
-217,-552,0,0,0,0,0,0,0,0,0,-1,1007,1576,0,0
-210,-552,0,0,0,0,0,0,0,0,0,-1,1014,1576,0,0
-203,-552,0,0,0,0,0,0,0,0,0,-1,1021,1576,0,0
-196,-552,0,0,0,0,0,0,0,0,0,-1,1028,1576,0,0
-189,-552,0,0,0,0,0,0,0,0,0,-1,1035,1576,0,0
-182,-552,0,0,0,0,0,0,0,0,0,-1,1042,1576,0,0
-175,-552,0,0,0,0,0,0,0,0,0,-1,1049,1576,0,0
-168,-552,0,0,0,0,0,0,0,0,0,-1,1056,1576,0,0
-161,-552,0,0,0,0,0,0,0,0,0,-1,1063,1576,0,0
-154,-552,0,0,0,0,0,0,0,0,0,-1,1070,1576,0,0
-147,-552,0,0,0,0,0,0,0,0,0,-1,1077,1576,0,0
-140,-552,0,0,0,0,0,0,0,0,0,-1,1084,1576,0,0
-133,-552,0,0,0,0,0,0,0,0,0,-1,1091,1576,0,0
-126,-552,0,0,0,0,0,0,0,0,0,-1,1098,1576,0,0
-119,-552,0,0,0,0,0,0,0,0,0,-1,1105,1576,0,0
-112,-552,0,0,0,0,0,0,0,0,0,-1,1112,1576,0,0
-105,-552,0,0,0,0,0,0,0,0,0,-1,1119,1576,0,0
-98,-552,0,0,0,0,0,0,0,0,0,-1,1126,1576,0,0
-91,-552,0,0,0,0,0,0,0,0,0,-1,1133,1576,0,0
-84,-552,0,0,0,0,0,0,0,0,0,-1,1140,1576,0,0
-77,-552,0,0,0,0,0,0,0,0,0,-1,1147,1576,0,0
-70,-552,0,0,0,0,0,0,0,0,0,-1,1154,1576,0,0
-63,-552,0,0,0,0,0,0,0,0,0,-1,1161,1576,0,0
-56,-552,0,0,0,0,0,0,0,0,0,-1,1168,1576,0,0
-49,-552,0,0,0,0,0,0,0,0,0,-1,1175,1576,0,0
-42,-552,0,0,0,0,0,0,0,0,0,-1,1182,1576,0,0
-35,-552,0,0,0,0,0,0,0,0,0,-1,1189,1576,0,0
-28,-552,0,0,0,0,0,0,0,0,0,-1,1196,1576,0,0
-21,-552,0,0,0,0,0,0,0,0,0,-1,1203,1576,0,0
-14,-552,0,0,0,0,0,0,0,0,0,-1,1210,1576,0,0
-7,-552,0,0,0,0,0,0,0,0,0,-1,1217,1576,0,0
0,-552,0,0,0,0,0,0,0,0,0,-1,1224,1576,0,0
7,-552,0,0,0,0,0,0,0,0,0,-1,1231,1576,0,0
14,-552,0,0,0,0,0,0,0,0,0,-1,1238,1576,0,0
21,-552,0,0,0,0,0,0,0,0,0,-1,1245,1576,0,0
28,-552,0,0,0,0,0,0,0,0,0,-1,1252,1576,0,0
35,-552,0,0,0,0,0,0,0,0,0,-1,1259,1576,0,0
42,-552,0,0,0,0,0,0,0,0,0,-1,1266,1576,0,0
49,-552,0,0,0,0,0,0,0,0,0,-1,1273,1576,0,0
56,-552,0,0,0,0,0,0,0,0,0,-1,1280,1576,0,0
63,-552,0,0,0,0,0,0,0,0,0,-1,1287,1576,0,0
70,-552,0,0,0,0,0,0,0,0,0,-1,1294,1576,0,0
77,-552,0,0,0,0,0,0,0,0,0,-1,1301,1576,0,0
84,-552,0,0,0,0,0,0,0,0,0,-1,1308,1576,0,0
91,-552,0,0,0,0,0,0,0,0,0,-1,1315,1576,0,0
98,-552,0,0,0,0,0,0,0,0,0,-1,1322,1576,0,0
105,-552,0,0,0,0,0,0,0,0,0,-1,1329,1576,0,0
112,-552,0,0,0,0,0,0,0,0,0,-1,1336,1576,0,0
119,-552,0,0,0,0,0,0,0,0,0,-1,1343,1576,0,0
126,-552,0,0,0,0,0,0,0,0,0,-1,1350,1576,0,0
133,-552,0,0,0,0,0,0,0,0,0,-1,1357,1576,0,0
140,-552,0,0,0,0,0,0,0,0,0,-1,1364,1576,0,0
147,-552,0,0,0,0,0,0,0,0,0,-1,1371,1576,0,0
154,-552,0,0,0,0,0,0,0,0,0,-1,1378,1576,0,0
161,-552,0,0,0,0,0,0,0,0,0,-1,1385,1576,0,0
168,-552,0,0,0,0,0,0,0,0,0,-1,1392,1576,0,0
175,-552,0,0,0,0,0,0,0,0,0,-1,1399,1576,0,0
182,-552,0,0,0,0,0,0,0,0,0,-1,1406,1576,0,0
189,-552,0,0,0,0,0,0,0,0,0,-1,1413,1576,0,0
196,-552,0,0,0,0,0,0,0,0,0,-1,1420,1576,0,0
203,-552,0,0,0,0,0,0,0,0,0,-1,1427,1576,0,0
210,-552,0,0,0,0,0,0,0,0,0,-1,1434,1576,0,0
217,-552,0,0,0,0,0,0,0,0,0,-1,1441,1576,0,0
224,-552,0,0,0,0,0,0,0,0,0,-1,1448,1576,0,0
231,-552,0,0,0,0,0,0,0,0,0,-1,1455,1576,0,0
238,-552,0,0,0,0,0,0,0,0,0,-1,1462,1576,0,0
245,-552,0,0,0,0,0,0,0,0,0,-1,1469,1576,0,0
252,-552,0,0,0,0,0,0,0,0,0,-1,1476,1576,0,0
259,-552,0,0,0,0,0,0,0,0,0,-1,1483,1576,0,0
266,-552,0,0,0,0,0,0,0,0,0,-1,1490,1576,0,0
273,-552,0,0,0,0,0,0,0,0,0,-1,1497,1576,0,0
280,-552,0,0,0,0,0,0,0,0,0,-1,1504,1576,0,0
287,-552,0,0,0,0,0,0,0,0,0,-1,1511,1576,0,0
294,-552,0,0,0,0,0,0,0,0,0,-1,1518,1576,0,0
301,-552,0,0,0,0,0,0,0,0,0,-1,1525,1576,0,0
308,-552,0,0,0,0,0,0,0,0,0,-1,1532,1576,0,0
315,-552,0,0,0,0,0,0,0,0,0,-1,1539,1576,0,0
322,-552,0,0,0,0,0,0,0,0,0,-1,1546,1576,0,0
329,-552,0,0,0,0,0,0,0,0,0,-1,1553,1576,0,0
336,-552,0,0,0,0,0,0,0,0,0,-1,1560,1576,0,0
343,-552,0,0,0,0,0,0,0,0,0,-1,1567,1576,0,0
350,-552,5.03149,3.31958,0,0,0,0,0,0,0,-1,1574,1576,5.03152,-3.31962
357,-552,4.61475,2.8833,0,0,0,0,0,0,0,-1,1581,1576,4.6147,-2.88335
364,-552,4.33899,2.56006,0,0,0,0,0,0,0,-1,1588,1576,4.33903,-2.56006
371,-552,4.10828,2.96472,0,0,0,0,0,0,0,-1,1595,1576,4.10831,-2.96473
378,-552,3.86206,3.66321,0,0,0,0,0,0,0,-1,1602,1576,3.86209,-3.66321
385,-552,3.48279,3.56982,0,0,0,0,0,0,0,-1,1609,1576,3.48285,-3.56978
392,-552,3.11194,3.70813,0,0,0,0,0,0,0,-1,1616,1576,3.1119,-3.70813
399,-552,3.38354,5.57751,0,0,0,0,0,0,0,-1,1623,1576,3.3835,-5.57753
406,-552,5.50989,2.9104,0,0,0,0,0,0,0,-1,1630,1576,5.50988,-2.91036
413,-552,5.12952,3.02441,-0.0215395,-0.00201279,-0.0133411,0.00475586,-0.0283082,-1.10128,0.0206409,0.0458757,1637,1576,5.12948,-3.02447
420,-552,4.74036,3.12207,-0.0197856,-0.000549047,-0.0103568,0.00396681,-0.0243015,-1.15962,0.0176723,0.0444955,1644,1576,4.74034,-3.12203
427,-552,4.66492,3.35168,-0.0180898,1.62354e-05,-0.00709752,0.00246678,-0.0205404,-1.23834,0.0145855,0.0427443,1651,1576,4.6649,-3.35172
434,-552,4.64087,3.61108,-0.0163619,0.000475629,-0.00438619,0.00154972,-0.017436,-1.33064,0.0121735,0.0414707,1658,1576,4.6409,-3.61108
441,-552,3.61157,2.19983,0,0,0,0,0,0,0,-1,1665,1576,3.61155,-2.19978
448,-552,3.2356,2.63684,0,0,0,0,0,0,0,-1,1672,1576,3.23554,-2.63686
455,-552,3.01489,2.43726,-0.0107128,0.000778374,0.000725946,0.000824053,-0.0107585,1.50796,0.00746221,0.0402821,1679,1576,3.01489,-2.43721
462,-552,2.82373,2.31653,-0.0089841,0.00027971,0.00182017,0.000624507,-0.0093289,1.38358,0.00643754,0.0364558,1686,1576,2.82379,-2.31656
469,-552,2.78381,2.29431,-0.00707029,0.000110366,0.00257281,0.000937028,-0.00789695,1.25991,0.00560315,0.0284387,1693,1576,2.78378,-2.29431
476,-552,2.77734,2.21655,-0.00537957,0.000133874,0.00298902,0.00144333,-0.00668902,1.15789,0.00501024,0.0144903,1700,1576,2.77732,-2.21657
483,-552,2.81299,2.15942,-0.00422207,-6.16066e-05,0.00302453,0.00152901,-0.00581268,1.08664,0.00447277,0.0127273,1707,1576,2.81303,-2.15948
490,-552,2.80566,2.13049,-0.00324258,-0.000505876,0.00244734,0.000929671,-0.00467813,1.04031,0.0034704,0.0140127,1714,1576,2.8056,-2.13047
497,-552,2.80627,2.11829,-0.00236766,-0.00104851,0.00208813,0.000481738,-0.00389791,0.938374,0.00277317,0.0215313,1721,1576,2.80623,-2.11828
504,-552,2.84241,2.08496,-0.00162898,-0.00138503,0.00166235,0.00015981,-0.00317382,0.82202,0.00217111,0.0244798,1728,1576,2.84243,-2.085
511,-552,2.81213,2.03857,-0.000942877,-0.00107801,0.00115995,0.000151473,-0.00217236,0.756306,0.00150128,0.0178312,1735,1576,2.81208,-2.03858
518,-552,2.7854,1.98926,-0.000640421,-0.000125404,0.000375256,7.21999e-05,-0.000838025,1.08611,0.000584239,0.0136359,1742,1576,2.78538,-1.98931
525,-552,2.80078,1.94006,-0.000178259,0.000917209,-0.000530887,0.00113227,-0.000393319,-1.18591,0.000914591,0.0116684,1749,1576,2.80075,-1.94001
532,-552,2.80261,1.89331,0.000538231,0.00222966,-0.00174656,0.00332449,-0.000556595,-1.01087,0.00242326,0.0134436,1756,1576,2.80266,-1.89329
539,-552,2.77783,1.85339,0.000819937,0.00348818,-0.00315809,0.00558239,-0.00127427,-0.985251,0.00421111,0.0171391,1763,1576,2.7778,-1.85337
546,-552,2.75293,1.85486,0.0010651,0.00546933,-0.00475349,0.00850601,-0.00197158,-1.00231,0.00642943,0.0204242,1770,1576,2.75297,-1.85485
553,-552,2.78479,1.80078,0.001441,0.00846256,-0.00666359,0.0124836,-0.00258009,-1.02785,0.0093025,0.0227326,1777,1576,2.78474,-1.80083
560,-552,2.76526,1.72681,0.00189534,0.0118641,-0.00918858,0.0173331,-0.00357372,-1.03391,0.0129126,0.0243933,1784,1576,2.76525,-1.72683
567,-552,2.71118,1.67712,0.00268913,0.0156456,-0.0116316,0.0224814,-0.00414664,-1.03948,0.0165439,0.0304608,1791,1576,2.71118,-1.67712
574,-552,2.85083,1.67566,0.00443348,0.021425,-0.0136624,0.0290177,-0.00315925,-1.06356,0.0204796,0.0395532,1798,1576,2.85086,-1.67571
581,-552,2.93726,1.66931,0.00623988,0.0269044,-0.0167019,0.0362116,-0.00306732,-1.0624,0.0252257,0.0466261,1805,1576,2.93726,-1.66931
588,-552,2.71509,1.09387,0.0085198,0.0333232,-0.019723,0.0442195,-0.00237654,-1.06606,0.0303029,0.0458353,1812,1576,2.71505,-1.09389
595,-552,2.68494,0.575195,0.0112686,0.0401184,-0.0229261,0.0527802,-0.00139312,-1.0662,0.0356602,0.0455938,1819,1576,2.68498,-0.575188
602,-552,2.7301,0.100708,0,0,0,0,0,0,0,-1,1826,1576,2.7301,-0.100654
609,-552,2.85303,-0.73999,0,0,0,0,0,0,0,-1,1833,1576,2.85303,0.739966
616,-552,2.50586,-1.58472,0,0,0,0,0,0,0,-1,1840,1576,2.50585,1.58466
623,-552,0,0,0,0,0,0,0,0,0,-1,1847,1576,0,0
630,-552,0,0,0,0,0,0,0,0,0,-1,1854,1576,0,0
637,-552,0,0,0,0,0,0,0,0,0,-1,1861,1576,0,0
644,-552,0,0,0,0,0,0,0,0,0,-1,1868,1576,0,0
651,-552,0,0,0,0,0,0,0,0,0,-1,1875,1576,0,0
658,-552,0,0,0,0,0,0,0,0,0,-1,1882,1576,0,0
665,-552,0,0,0,0,0,0,0,0,0,-1,1889,1576,0,0
672,-552,0,0,0,0,0,0,0,0,0,-1,1896,1576,0,0
679,-552,0,0,0,0,0,0,0,0,0,-1,1903,1576,0,0
686,-552,0,0,0,0,0,0,0,0,0,-1,1910,1576,0,0
693,-552,0,0,0,0,0,0,0,0,0,-1,1917,1576,0,0
700,-552,0,0,0,0,0,0,0,0,0,-1,1924,1576,0,0
707,-552,0,0,0,0,0,0,0,0,0,-1,1931,1576,0,0
714,-552,0,0,0,0,0,0,0,0,0,-1,1938,1576,0,0
721,-552,0,0,0,0,0,0,0,0,0,-1,1945,1576,0,0
728,-552,0,0,0,0,0,0,0,0,0,-1,1952,1576,0,0
735,-552,0,0,0,0,0,0,0,0,0,-1,1959,1576,0,0
742,-552,0,0,0,0,0,0,0,0,0,-1,1966,1576,0,0
749,-552,0,0,0,0,0,0,0,0,0,-1,1973,1576,0,0
756,-552,0,0,0,0,0,0,0,0,0,-1,1980,1576,0,0
763,-552,0,0,0,0,0,0,0,0,0,-1,1987,1576,0,0
770,-552,0,0,0,0,0,0,0,0,0,-1,1994,1576,0,0
777,-552,0,0,0,0,0,0,0,0,0,-1,2001,1576,0,0
784,-552,0,0,0,0,0,0,0,0,0,-1,2008,1576,0,0
791,-552,0,0,0,0,0,0,0,0,0,-1,2015,1576,0,0
798,-552,0,0,0,0,0,0,0,0,0,-1,2022,1576,0,0
805,-552,0,0,0,0,0,0,0,0,0,-1,2029,1576,0,0
812,-552,0,0,0,0,0,0,0,0,0,-1,2036,1576,0,0
-700,-559,0,0,0,0,0,0,0,0,0,-1,524,1583,0,0
-693,-559,0,0,0,0,0,0,0,0,0,-1,531,1583,0,0
-686,-559,0,0,0,0,0,0,0,0,0,-1,538,1583,0,0
-679,-559,0,0,0,0,0,0,0,0,0,-1,545,1583,0,0
-672,-559,0,0,0,0,0,0,0,0,0,-1,552,1583,0,0
-665,-559,0,0,0,0,0,0,0,0,0,-1,559,1583,0,0
-658,-559,0,0,0,0,0,0,0,0,0,-1,566,1583,0,0
-651,-559,0,0,0,0,0,0,0,0,0,-1,573,1583,0,0
-644,-559,0,0,0,0,0,0,0,0,0,-1,580,1583,0,0
-637,-559,0,0,0,0,0,0,0,0,0,-1,587,1583,0,0
-630,-559,0,0,0,0,0,0,0,0,0,-1,594,1583,0,0
-623,-559,0,0,0,0,0,0,0,0,0,-1,601,1583,0,0
-616,-559,0,0,0,0,0,0,0,0,0,-1,608,1583,0,0
-609,-559,0,0,0,0,0,0,0,0,0,-1,615,1583,0,0
-602,-559,0,0,0,0,0,0,0,0,0,-1,622,1583,0,0
-595,-559,0,0,0,0,0,0,0,0,0,-1,629,1583,0,0
-588,-559,0,0,0,0,0,0,0,0,0,-1,636,1583,0,0
-581,-559,0,0,0,0,0,0,0,0,0,-1,643,1583,0,0
-574,-559,0,0,0,0,0,0,0,0,0,-1,650,1583,0,0
-567,-559,0,0,0,0,0,0,0,0,0,-1,657,1583,0,0
-560,-559,0,0,0,0,0,0,0,0,0,-1,664,1583,0,0
-553,-559,0,0,0,0,0,0,0,0,0,-1,671,1583,0,0
-546,-559,0,0,0,0,0,0,0,0,0,-1,678,1583,0,0
-539,-559,0,0,0,0,0,0,0,0,0,-1,685,1583,0,0
-532,-559,0,0,0,0,0,0,0,0,0,-1,692,1583,0,0
-525,-559,0,0,0,0,0,0,0,0,0,-1,699,1583,0,0
-518,-559,0,0,0,0,0,0,0,0,0,-1,706,1583,0,0
-511,-559,0,0,0,0,0,0,0,0,0,-1,713,1583,0,0
-504,-559,0,0,0,0,0,0,0,0,0,-1,720,1583,0,0
-497,-559,0,0,0,0,0,0,0,0,0,-1,727,1583,0,0
-490,-559,3.04999,1.93579,0,0,0,0,0,0,0,-1,734,1583,3.04998,-1.93576
-483,-559,8.07513,2.08704,0,0,0,0,0,0,0,-1,741,1583,8.07515,-2.08704
-476,-559,0.854431,0.470093,0.0271105,0.0444525,0.0120059,0.0505913,0.0209717,1.09814,0.0293508,0.04382,748,1583,0.854411,-0.470136
-469,-559,1.85645,1.41589,0.0182957,0.0351762,0.0122227,0.0415896,0.0118823,1.08757,0.024736,0.0472153,755,1583,1.85647,-1.41586
-462,-559,1.49768,1.3855,0,0,0,0,0,0,0,-1,762,1583,1.49768,-1.38546
-455,-559,1.27985,1.5907,0.00843513,0.0244601,0.0102777,0.0294795,0.00341573,1.11649,0.0186192,0.0454179,769,1583,1.27986,-1.59069
-448,-559,1.1604,1.74243,0.00545852,0.0206184,0.00887391,0.024709,0.00136791,1.13886,0.0160362,0.0439775,776,1583,1.16042,-1.74246
-441,-559,1.0401,1.95068,0.00334027,0.0171674,0.00758343,0.0205157,-8.02334e-06,1.15501,0.0136798,0.0402823,783,1583,1.04009,-1.95064
-434,-559,1.22705,1.86597,0.00189629,0.0145449,0.00627432,0.0171292,-0.000688045,1.18008,0.0116556,0.0333582,790,1583,1.22706,-1.86596
-427,-559,1.31946,1.76697,0.00121158,0.0120487,0.00502485,0.01402,-0.000759707,1.19694,0.00960994,0.0192704,797,1583,1.31948,-1.76701
-420,-559,1.33661,1.77429,-7.78726e-05,0.00971568,0.00445342,0.0114379,-0.00180011,1.20179,0.00829071,0.0156794,804,1583,1.33661,-1.77425
-413,-559,1.34509,1.82312,-0.000575436,0.00809117,0.00350984,0.00933429,-0.00181856,1.2304,0.00690929,0.0119908,811,1583,1.34509,-1.82314
-406,-559,1.35846,1.84045,-0.000166353,0.00605002,0.00251905,0.00694264,-0.00105897,1.23025,0.0050188,0.0106224,818,1583,1.35845,-1.84044
-399,-559,1.37268,1.88928,0.000247704,0.00436831,0.00179177,0.00503845,-0.000422427,1.2129,0.00350826,0.0129129,825,1583,1.37265,-1.88926
-392,-559,1.35693,1.9281,0.000247137,0.00258048,0.00165062,0.00343511,-0.000607498,1.09304,0.00251713,0.0140978,832,1583,1.35693,-1.92808
-385,-559,1.35742,1.97351,0.00037862,0.0010072,0.00164919,0.00237179,-0.00098596,0.879556,0.00199287,0.0138418,839,1583,1.35745,-1.97353
-378,-559,1.35419,2.00696,0.000532216,9.06247e-05,0.00158347,0.00191021,-0.00128737,0.716126,0.00185776,0.0138872,846,1583,1.35419,-2.007
-371,-559,1.34418,2.03723,0.000845142,-0.000320939,0.00161676,0.00198077,-0.00145657,0.612345,0.00199223,0.0221501,853,1583,1.34418,-2.0372
-364,-559,1.36438,2.05725,0.00186202,-0.000421187,0.00153568,0.00263394,-0.00119311,0.465771,0.00226114,0.019991,860,1583,1.3644,-2.05726
-357,-559,1.36133,2.11023,0.00317317,-5.92563e-05,0.00126531,0.00360956,-0.000495641,0.332109,0.00258746,0.011985,867,1583,1.36134,-2.11017
-350,-559,1.36096,2.15723,0.00456036,0.000856306,0.00096646,0.00479736,0.000619303,0.240483,0.0030131,0.0100779,874,1583,1.36097,-2.15725
-343,-559,1.36951,2.20386,0.00579581,0.00209632,0.000382693,0.00583498,0.00205715,0.102006,0.0034173,0.0106173,881,1583,1.36948,-2.20387
-336,-559,1.35663,2.21106,0.00702051,0.00384316,-0.00120825,0.00742777,0.0034359,-0.325106,0.00429243,0.0110913,888,1583,1.35661,-2.21108
-329,-559,1.36621,2.2511,0.008289,0.00572009,-0.00375791,0.0109759,0.00303319,-0.620722,0.00654485,0.0125962,895,1583,1.3662,-2.2511
-322,-559,1.39117,2.30408,0.00976709,0.00774245,-0.00639599,0.0152304,0.00227916,-0.706912,0.00948558,0.0259375,902,1583,1.39118,-2.30404
-315,-559,1.46008,2.36597,0.0111228,0.00967647,-0.00981401,0.0202403,0.000559029,-0.748621,0.0133111,0.0369914,909,1583,1.46011,-2.36598
-308,-559,1.8056,2.37317,0,0,0,0,0,0,0,-1,916,1583,1.80559,-2.37313
-301,-559,1.67865,2.40479,0,0,0,0,0,0,0,-1,923,1583,1.67863,-2.40481
-294,-559,1.44348,2.45374,0,0,0,0,0,0,0,-1,930,1583,1.44346,-2.4538
-287,-559,1.47552,0.339111,0.0139054,0.0126426,-0.0288424,0.0421233,-0.0155754,-0.774454,0.0344677,0.0440973,937,1583,1.47553,-0.339075
-280,-559,1.18939,-0.420288,0.0149674,0.0118264,-0.0320144,0.0454498,-0.018656,-0.76089,0.0380739,0.0475151,944,1583,1.18937,0.420295
-273,-559,0.996887,-1.2301,0,0,0,0,0,0,0,-1,951,1583,0.996871,1.23004
-266,-559,0.865906,-0.149536,0,0,0,0,0,0,0,-1,958,1583,0.865881,0.14952
-259,-559,1.7251,1.34814,0,0,0,0,0,0,0,-1,965,1583,1.72509,-1.34818
-252,-559,1.29895,0.999634,0,0,0,0,0,0,0,-1,972,1583,1.29893,-0.999589
-245,-559,1.08411,1.45422,0,0,0,0,0,0,0,-1,979,1583,1.08408,-1.45427
-238,-559,0.838745,1.93164,0,0,0,0,0,0,0,-1,986,1583,0.838733,-1.93162
-231,-559,0.183228,2.17798,0,0,0,0,0,0,0,-1,993,1583,0.1832,-2.17792
-224,-559,-0.339233,2.27502,0,0,0,0,0,0,0,-1,1000,1583,-0.339253,-2.27506
-217,-559,0,0,0,0,0,0,0,0,0,-1,1007,1583,0,0
-210,-559,0,0,0,0,0,0,0,0,0,-1,1014,1583,0,0
-203,-559,0,0,0,0,0,0,0,0,0,-1,1021,1583,0,0
-196,-559,0,0,0,0,0,0,0,0,0,-1,1028,1583,0,0
-189,-559,0,0,0,0,0,0,0,0,0,-1,1035,1583,0,0
-182,-559,0,0,0,0,0,0,0,0,0,-1,1042,1583,0,0
-175,-559,0,0,0,0,0,0,0,0,0,-1,1049,1583,0,0
-168,-559,0,0,0,0,0,0,0,0,0,-1,1056,1583,0,0
-161,-559,0,0,0,0,0,0,0,0,0,-1,1063,1583,0,0
-154,-559,0,0,0,0,0,0,0,0,0,-1,1070,1583,0,0
-147,-559,0,0,0,0,0,0,0,0,0,-1,1077,1583,0,0
-140,-559,0,0,0,0,0,0,0,0,0,-1,1084,1583,0,0
-133,-559,0,0,0,0,0,0,0,0,0,-1,1091,1583,0,0
-126,-559,0,0,0,0,0,0,0,0,0,-1,1098,1583,0,0
-119,-559,0,0,0,0,0,0,0,0,0,-1,1105,1583,0,0
-112,-559,0,0,0,0,0,0,0,0,0,-1,1112,1583,0,0
-105,-559,0,0,0,0,0,0,0,0,0,-1,1119,1583,0,0
-98,-559,0,0,0,0,0,0,0,0,0,-1,1126,1583,0,0
-91,-559,0,0,0,0,0,0,0,0,0,-1,1133,1583,0,0
-84,-559,0,0,0,0,0,0,0,0,0,-1,1140,1583,0,0
-77,-559,0,0,0,0,0,0,0,0,0,-1,1147,1583,0,0
-70,-559,0,0,0,0,0,0,0,0,0,-1,1154,1583,0,0
-63,-559,0,0,0,0,0,0,0,0,0,-1,1161,1583,0,0
-56,-559,0,0,0,0,0,0,0,0,0,-1,1168,1583,0,0
-49,-559,0,0,0,0,0,0,0,0,0,-1,1175,1583,0,0
-42,-559,0,0,0,0,0,0,0,0,0,-1,1182,1583,0,0
-35,-559,0,0,0,0,0,0,0,0,0,-1,1189,1583,0,0
-28,-559,0,0,0,0,0,0,0,0,0,-1,1196,1583,0,0
-21,-559,0,0,0,0,0,0,0,0,0,-1,1203,1583,0,0
-14,-559,0,0,0,0,0,0,0,0,0,-1,1210,1583,0,0
-7,-559,0,0,0,0,0,0,0,0,0,-1,1217,1583,0,0
0,-559,0,0,0,0,0,0,0,0,0,-1,1224,1583,0,0
7,-559,0,0,0,0,0,0,0,0,0,-1,1231,1583,0,0
14,-559,0,0,0,0,0,0,0,0,0,-1,1238,1583,0,0
21,-559,0,0,0,0,0,0,0,0,0,-1,1245,1583,0,0
28,-559,0,0,0,0,0,0,0,0,0,-1,1252,1583,0,0
35,-559,0,0,0,0,0,0,0,0,0,-1,1259,1583,0,0
42,-559,0,0,0,0,0,0,0,0,0,-1,1266,1583,0,0
49,-559,0,0,0,0,0,0,0,0,0,-1,1273,1583,0,0
56,-559,0,0,0,0,0,0,0,0,0,-1,1280,1583,0,0
63,-559,0,0,0,0,0,0,0,0,0,-1,1287,1583,0,0
70,-559,0,0,0,0,0,0,0,0,0,-1,1294,1583,0,0
77,-559,0,0,0,0,0,0,0,0,0,-1,1301,1583,0,0
84,-559,0,0,0,0,0,0,0,0,0,-1,1308,1583,0,0
91,-559,0,0,0,0,0,0,0,0,0,-1,1315,1583,0,0
98,-559,0,0,0,0,0,0,0,0,0,-1,1322,1583,0,0
105,-559,0,0,0,0,0,0,0,0,0,-1,1329,1583,0,0
112,-559,0,0,0,0,0,0,0,0,0,-1,1336,1583,0,0
119,-559,0,0,0,0,0,0,0,0,0,-1,1343,1583,0,0
126,-559,0,0,0,0,0,0,0,0,0,-1,1350,1583,0,0
133,-559,0,0,0,0,0,0,0,0,0,-1,1357,1583,0,0
140,-559,0,0,0,0,0,0,0,0,0,-1,1364,1583,0,0
147,-559,0,0,0,0,0,0,0,0,0,-1,1371,1583,0,0
154,-559,0,0,0,0,0,0,0,0,0,-1,1378,1583,0,0
161,-559,0,0,0,0,0,0,0,0,0,-1,1385,1583,0,0
168,-559,0,0,0,0,0,0,0,0,0,-1,1392,1583,0,0
175,-559,0,0,0,0,0,0,0,0,0,-1,1399,1583,0,0
182,-559,0,0,0,0,0,0,0,0,0,-1,1406,1583,0,0
189,-559,0,0,0,0,0,0,0,0,0,-1,1413,1583,0,0
196,-559,0,0,0,0,0,0,0,0,0,-1,1420,1583,0,0
203,-559,0,0,0,0,0,0,0,0,0,-1,1427,1583,0,0
210,-559,0,0,0,0,0,0,0,0,0,-1,1434,1583,0,0
217,-559,0,0,0,0,0,0,0,0,0,-1,1441,1583,0,0
224,-559,0,0,0,0,0,0,0,0,0,-1,1448,1583,0,0
231,-559,0,0,0,0,0,0,0,0,0,-1,1455,1583,0,0
238,-559,0,0,0,0,0,0,0,0,0,-1,1462,1583,0,0
245,-559,0,0,0,0,0,0,0,0,0,-1,1469,1583,0,0
252,-559,0,0,0,0,0,0,0,0,0,-1,1476,1583,0,0
259,-559,0,0,0,0,0,0,0,0,0,-1,1483,1583,0,0
266,-559,0,0,0,0,0,0,0,0,0,-1,1490,1583,0,0
273,-559,0,0,0,0,0,0,0,0,0,-1,1497,1583,0,0
280,-559,0,0,0,0,0,0,0,0,0,-1,1504,1583,0,0
287,-559,0,0,0,0,0,0,0,0,0,-1,1511,1583,0,0
294,-559,0,0,0,0,0,0,0,0,0,-1,1518,1583,0,0
301,-559,0,0,0,0,0,0,0,0,0,-1,1525,1583,0,0
308,-559,0,0,0,0,0,0,0,0,0,-1,1532,1583,0,0
315,-559,0,0,0,0,0,0,0,0,0,-1,1539,1583,0,0
322,-559,0,0,0,0,0,0,0,0,0,-1,1546,1583,0,0
329,-559,0,0,0,0,0,0,0,0,0,-1,1553,1583,0,0
336,-559,5.84851,3.87512,0,0,0,0,0,0,0,-1,1560,1583,5.84849,-3.87516
343,-559,5.31299,3.53284,0,0,0,0,0,0,0,-1,1567,1583,5.31302,-3.53284
350,-559,4.92236,2.85144,0,0,0,0,0,0,0,-1,1574,1583,4.92232,-2.85148
357,-559,4.58459,2.53735,0,0,0,0,0,0,0,-1,1581,1583,4.58457,-2.53741
364,-559,4.30017,2.48047,0,0,0,0,0,0,0,-1,1588,1583,4.3002,-2.48046
371,-559,4.09998,2.50928,0,0,0,0,0,0,0,-1,1595,1583,4.10003,-2.50927
378,-559,3.52563,2.76013,0,0,0,0,0,0,0,-1,1602,1583,3.52569,-2.76019
385,-559,3.11926,2.91309,0,0,0,0,0,0,0,-1,1609,1583,3.11926,-2.91312
392,-559,2.77759,3.00793,0,0,0,0,0,0,0,-1,1616,1583,2.77754,-3.00793
399,-559,2.34021,4.37061,0,0,0,0,0,0,0,-1,1623,1583,2.34019,-4.3706
406,-559,2.51819,4.19763,0,0,0,0,0,0,0,-1,1630,1583,2.51815,-4.19762
413,-559,2.49744,3.23596,0,0,0,0,0,0,0,-1,1637,1583,2.49747,-3.23598
420,-559,2.36731,2.91101,0,0,0,0,0,0,0,-1,1644,1583,2.36736,-2.91101
427,-559,2.59998,2.6626,0,0,0,0,0,0,0,-1,1651,1583,2.60001,-2.66261
434,-559,4.80225,4.02258,0,0,0,0,0,0,0,-1,1658,1583,4.8022,-4.02263
441,-559,3.34875,2.85535,0,0,0,0,0,0,0,-1,1665,1583,3.34878,-2.8554
448,-559,3.39307,3.03601,-0.010423,0.00202165,-0.00038823,0.00203375,-0.0104351,-1.53964,0.00772445,0.0464768,1672,1583,3.39306,-3.03596
455,-559,2.9209,2.4364,-0.00906796,0.00184402,0.000423885,0.00186046,-0.0090844,1.53203,0.00676227,0.0378675,1679,1583,2.9209,-2.43636
462,-559,2.75891,2.30042,-0.00773729,0.00126433,0.00113124,0.00140431,-0.00787728,1.44768,0.0057768,0.0271294,1686,1583,2.75886,-2.30044
469,-559,2.73682,2.26343,-0.0061366,0.000982892,0.00163333,0.00133972,-0.00649343,1.35571,0.00483776,0.0145855,1693,1583,2.73686,-2.26346
476,-559,2.74768,2.20959,-0.00474261,0.000891549,0.00186431,0.00145257,-0.00530364,1.27849,0.0041065,0.009686,1700,1583,2.74771,-2.20965
483,-559,2.75647,2.16443,-0.00382419,0.00064086,0.00179749,0.00127454,-0.00445787,1.23186,0.00347555,0.0117246,1707,1583,2.75642,-2.16442
490,-559,2.74707,2.14185,-0.00296,0.000194337,0.00127247,0.000643653,-0.00340932,1.23136,0.00251503,0.0152855,1714,1583,2.74708,-2.14184
497,-559,2.78809,2.13721,-0.00211644,-0.000318496,0.000866527,3.11394e-05,-0.00246607,1.18728,0.00165453,0.018709,1721,1583,2.78807,-2.13715
504,-559,2.8158,2.08313,-0.00141709,-0.000608547,0.000401218,-0.000443247,-0.00158239,1.17999,0.000942582,0.0241037,1728,1583,2.81575,-2.08311
511,-559,2.77148,2.03333,-0.000718588,-0.000106724,-0.000184141,-5.55815e-05,-0.000769731,-1.29989,0.000495667,0.0208566,1735,1583,2.77152,-2.03331
518,-559,2.74231,1.99548,-0.000341615,0.00116466,-0.00114841,0.00178486,-0.000961815,-1.07562,0.00160935,0.0121692,1742,1583,2.74227,-1.99544
525,-559,2.75244,1.93103,0.000184459,0.00263067,-0.00226073,0.00397795,-0.00116282,-1.03336,0.00311283,0.0100037,1749,1583,2.75241,-1.931
532,-559,2.73315,1.90845,0.000993437,0.00434285,-0.00371542,0.00674356,-0.00140727,-0.997134,0.00503084,0.0116467,1756,1583,2.7331,-1.90841
539,-559,2.7301,1.88281,0.00131853,0.00597333,-0.00546327,0.00958429,-0.00229243,-0.98676,0.00727508,0.016014,1763,1583,2.73012,-1.88281
546,-559,2.72668,1.83557,0.00175939,0.00847639,-0.00748782,0.0133244,-0.00308863,-0.996213,0.0100716,0.014688,1770,1583,2.72672,-1.83557
553,-559,2.76965,1.7981,0.00235778,0.0120005,-0.00988564,0.0181778,-0.00381956,-1.01228,0.0135721,0.0146674,1777,1583,2.76963,-1.79811
560,-559,2.77344,1.79236,0.00301932,0.0158747,-0.0128762,0.0238383,-0.00494435,-1.0169,0.0177711,0.0237431,1784,1583,2.77343,-1.79237
567,-559,2.76624,1.60974,0.00396265,0.0201071,-0.0158304,0.0298046,-0.00573483,-1.02117,0.0220315,0.0360167,1791,1583,2.76622,-1.6097
574,-559,2.97803,1.59949,0.00574612,0.0262093,-0.0183795,0.0370132,-0.00505782,-1.03938,0.0265227,0.0483117,1798,1583,2.97806,-1.59952
581,-559,3.31177,1.07495,0.00761647,0.0320451,-0.0217902,0.0448108,-0.00514922,-1.04085,0.0317299,0.047428,1805,1583,3.31177,-1.07493
588,-559,2.55676,1.12305,0,0,0,0,0,0,0,-1,1812,1583,2.55672,-1.12299
595,-559,2.79224,0.359619,0,0,0,0,0,0,0,-1,1819,1583,2.79227,-0.359587
602,-559,2.85559,-0.68811,0,0,0,0,0,0,0,-1,1826,1583,2.85562,0.688144
609,-559,2.73572,-1.12805,0,0,0,0,0,0,0,-1,1833,1583,2.73569,1.12803
616,-559,0,0,0,0,0,0,0,0,0,-1,1840,1583,0,0
623,-559,0,0,0,0,0,0,0,0,0,-1,1847,1583,0,0
630,-559,0,0,0,0,0,0,0,0,0,-1,1854,1583,0,0
637,-559,0,0,0,0,0,0,0,0,0,-1,1861,1583,0,0
644,-559,0,0,0,0,0,0,0,0,0,-1,1868,1583,0,0
651,-559,0,0,0,0,0,0,0,0,0,-1,1875,1583,0,0
658,-559,0,0,0,0,0,0,0,0,0,-1,1882,1583,0,0
665,-559,0,0,0,0,0,0,0,0,0,-1,1889,1583,0,0
672,-559,0,0,0,0,0,0,0,0,0,-1,1896,1583,0,0
679,-559,0,0,0,0,0,0,0,0,0,-1,1903,1583,0,0
686,-559,0,0,0,0,0,0,0,0,0,-1,1910,1583,0,0
693,-559,0,0,0,0,0,0,0,0,0,-1,1917,1583,0,0
700,-559,0,0,0,0,0,0,0,0,0,-1,1924,1583,0,0
707,-559,0,0,0,0,0,0,0,0,0,-1,1931,1583,0,0
714,-559,0,0,0,0,0,0,0,0,0,-1,1938,1583,0,0
721,-559,0,0,0,0,0,0,0,0,0,-1,1945,1583,0,0
728,-559,0,0,0,0,0,0,0,0,0,-1,1952,1583,0,0
735,-559,0,0,0,0,0,0,0,0,0,-1,1959,1583,0,0
742,-559,0,0,0,0,0,0,0,0,0,-1,1966,1583,0,0
749,-559,0,0,0,0,0,0,0,0,0,-1,1973,1583,0,0
756,-559,0,0,0,0,0,0,0,0,0,-1,1980,1583,0,0
763,-559,0,0,0,0,0,0,0,0,0,-1,1987,1583,0,0
770,-559,0,0,0,0,0,0,0,0,0,-1,1994,1583,0,0
777,-559,0,0,0,0,0,0,0,0,0,-1,2001,1583,0,0
784,-559,0,0,0,0,0,0,0,0,0,-1,2008,1583,0,0
791,-559,0,0,0,0,0,0,0,0,0,-1,2015,1583,0,0
798,-559,0,0,0,0,0,0,0,0,0,-1,2022,1583,0,0
805,-559,0,0,0,0,0,0,0,0,0,-1,2029,1583,0,0
812,-559,0,0,0,0,0,0,0,0,0,-1,2036,1583,0,0
-700,-566,0,0,0,0,0,0,0,0,0,-1,524,1590,0,0
-693,-566,0,0,0,0,0,0,0,0,0,-1,531,1590,0,0
-686,-566,0,0,0,0,0,0,0,0,0,-1,538,1590,0,0
-679,-566,0,0,0,0,0,0,0,0,0,-1,545,1590,0,0
-672,-566,0,0,0,0,0,0,0,0,0,-1,552,1590,0,0
-665,-566,0,0,0,0,0,0,0,0,0,-1,559,1590,0,0
-658,-566,0,0,0,0,0,0,0,0,0,-1,566,1590,0,0
-651,-566,0,0,0,0,0,0,0,0,0,-1,573,1590,0,0
-644,-566,0,0,0,0,0,0,0,0,0,-1,580,1590,0,0
-637,-566,0,0,0,0,0,0,0,0,0,-1,587,1590,0,0
-630,-566,0,0,0,0,0,0,0,0,0,-1,594,1590,0,0
-623,-566,0,0,0,0,0,0,0,0,0,-1,601,1590,0,0
-616,-566,0,0,0,0,0,0,0,0,0,-1,608,1590,0,0
-609,-566,0,0,0,0,0,0,0,0,0,-1,615,1590,0,0
-602,-566,0,0,0,0,0,0,0,0,0,-1,622,1590,0,0
-595,-566,0,0,0,0,0,0,0,0,0,-1,629,1590,0,0
-588,-566,0,0,0,0,0,0,0,0,0,-1,636,1590,0,0
-581,-566,0,0,0,0,0,0,0,0,0,-1,643,1590,0,0
-574,-566,0,0,0,0,0,0,0,0,0,-1,650,1590,0,0
-567,-566,0,0,0,0,0,0,0,0,0,-1,657,1590,0,0
-560,-566,0,0,0,0,0,0,0,0,0,-1,664,1590,0,0
-553,-566,0,0,0,0,0,0,0,0,0,-1,671,1590,0,0
-546,-566,0,0,0,0,0,0,0,0,0,-1,678,1590,0,0
-539,-566,0,0,0,0,0,0,0,0,0,-1,685,1590,0,0
-532,-566,0,0,0,0,0,0,0,0,0,-1,692,1590,0,0
-525,-566,0,0,0,0,0,0,0,0,0,-1,699,1590,0,0
-518,-566,0,0,0,0,0,0,0,0,0,-1,706,1590,0,0
-511,-566,0,0,0,0,0,0,0,0,0,-1,713,1590,0,0
-504,-566,0,0,0,0,0,0,0,0,0,-1,720,1590,0,0
-497,-566,0,0,0,0,0,0,0,0,0,-1,727,1590,0,0
-490,-566,0,0,0,0,0,0,0,0,0,-1,734,1590,0,0
-483,-566,6.69324,1.50781,0,0,0,0,0,0,0,-1,741,1590,6.69321,-1.50776
-476,-566,6.02026,1.8219,0,0,0,0,0,0,0,-1,748,1590,6.02029,-1.82193
-469,-566,5.43713,1.90356,0,0,0,0,0,0,0,-1,755,1590,5.43711,-1.90354
-462,-566,1.35492,1.38342,0,0,0,0,0,0,0,-1,762,1590,1.35491,-1.38337
-455,-566,1.13324,1.54956,0,0,0,0,0,0,0,-1,769,1590,1.13322,-1.54952
-448,-566,1.07263,1.71594,0,0,0,0,0,0,0,-1,776,1590,1.07262,-1.71592
-441,-566,1.01202,1.88232,0,0,0,0,0,0,0,-1,783,1590,1.01203,-1.88232
-434,-566,1.1673,1.92029,0.000673338,0.0218839,0.00695138,0.0239591,-0.00140183,1.28069,0.0164599,0.0499685,790,1590,1.16732,-1.92024
-427,-566,1.26111,1.83923,-0.000236898,0.0188587,0.00567748,0.0204192,-0.00179739,1.30256,0.0142498,0.0389474,797,1590,1.26113,-1.83919
-420,-566,1.30792,1.80139,-0.00157114,0.0158675,0.00513577,0.0172676,-0.00297124,1.30465,0.0126193,0.0236805,804,1590,1.30791,-1.80138
-413,-566,1.35059,1.82825,-0.00196068,0.0135114,0.00420398,0.0145799,-0.00302916,1.32191,0.0108713,0.0107271,811,1590,1.35059,-1.82831
-406,-566,1.38049,1.83936,-0.00146234,0.0107189,0.0031581,0.0114889,-0.00223242,1.33162,0.0085017,0.00883833,818,1590,1.3805,-1.83933
-399,-566,1.39893,1.85791,-0.000949244,0.00837707,0.00227901,0.00890418,-0.00147636,1.3435,0.00648451,0.0105304,825,1590,1.39895,-1.85796
-392,-566,1.40039,1.90955,-0.00101645,0.00588301,0.00213309,0.00648923,-0.00162267,1.2939,0.00495639,0.0111883,832,1590,1.40038,-1.90951
-385,-566,1.41016,1.97827,-0.000956702,0.00373866,0.00193355,0.00443239,-0.00165044,1.22631,0.00363229,0.0133055,839,1590,1.41014,-1.9783
-378,-566,1.40356,2.02917,-0.000703149,0.00228485,0.0016698,0.00303144,-0.00144974,1.15034,0.00264039,0.0152339,846,1590,1.40356,-2.02924
-371,-566,1.36884,2.04785,-0.000334924,0.00141798,0.00148053,0.00226203,-0.00117897,1.05265,0.0020192,0.0206426,853,1590,1.36883,-2.04789
-364,-566,1.40924,2.07349,0.00055036,0.000752472,0.00119089,0.00184659,-0.000543754,0.827725,0.00144678,0.0200683,860,1590,1.40926,-2.07352
-357,-566,1.40869,2.11133,0.00141758,0.000614464,0.000763037,0.00187827,0.000153771,0.543181,0.0012042,0.016597,867,1590,1.40867,-2.11128
-350,-566,1.38715,2.15491,0.00221561,0.00118886,0.000329571,0.0023123,0.00109218,0.285354,0.00133569,0.0201325,874,1590,1.38717,-2.15493
-343,-566,1.39941,2.17212,0.00303566,0.00203247,-0.000129289,0.00305205,0.00201607,-0.126132,0.00179213,0.0247277,881,1590,1.39939,-2.1721
-336,-566,1.38562,2.21082,0.00380243,0.00331206,-0.00146157,0.00503924,0.00207525,-0.702294,0.00292445,0.0230827,888,1590,1.38563,-2.21079
-329,-566,1.3858,2.24817,0.00462372,0.00461339,-0.00349645,0.00811501,0.00112209,-0.784659,0.00507748,0.011798,895,1590,1.38579,-2.24821
-322,-566,1.39368,2.31677,0.00559878,0.00603712,-0.00555201,0.0113743,0.000261609,-0.805126,0.00749718,0.0104254,902,1590,1.39368,-2.31671
-315,-566,1.42242,2.32544,0.00652205,0.00736655,-0.00819125,0.0151464,-0.00125782,-0.81115,0.0105419,0.0222425,909,1590,1.42243,-2.32538
-308,-566,1.62354,2.34839,0.00722132,0.00870548,-0.011328,0.0193157,-0.00338893,-0.818105,0.0141428,0.0335159,916,1590,1.62355,-2.34834
-301,-566,1.57056,2.40637,0.00763783,0.00989182,-0.0152042,0.0240107,-0.00648109,-0.822392,0.0185489,0.0406509,923,1590,1.57058,-2.40632
-294,-566,1.44641,2.44543,0.00820877,0.00951072,-0.0189225,0.0277935,-0.010074,-0.802593,0.0226466,0.0451558,930,1590,1.44644,-2.44545
-287,-566,1.39935,2.4762,0,0,0,0,0,0,0,-1,937,1590,1.39933,-2.47617
-280,-566,1.47052,-0.359497,0,0,0,0,0,0,0,-1,944,1590,1.47052,0.359543
-273,-566,1.26923,-1.21375,0,0,0,0,0,0,0,-1,951,1590,1.2692,1.21375
-266,-566,2.3736,2.172,0,0,0,0,0,0,0,-1,958,1590,2.37359,-2.17206
-259,-566,1.53107,2.85657,0,0,0,0,0,0,0,-1,965,1590,1.53109,-2.85658
-252,-566,1.25415,1.14246,0,0,0,0,0,0,0,-1,972,1590,1.25417,-1.1424
-245,-566,1.0744,1.6709,0,0,0,0,0,0,0,-1,979,1590,1.07441,-1.67084
-238,-566,0.922058,2.06335,0,0,0,0,0,0,0,-1,986,1590,0.922042,-2.0633
-231,-566,-0.147827,2.33472,0,0,0,0,0,0,0,-1,993,1590,-0.147798,-2.33471
-224,-566,-0.243286,2.14294,0,0,0,0,0,0,0,-1,1000,1590,-0.243313,-2.14292
-217,-566,4.84784,0.717285,0,0,0,0,0,0,0,-1,1007,1590,4.84786,-0.717232
-210,-566,3.7793,1.22827,0,0,0,0,0,0,0,-1,1014,1590,3.77929,-1.22825
-203,-566,0,0,0,0,0,0,0,0,0,-1,1021,1590,0,0
-196,-566,0,0,0,0,0,0,0,0,0,-1,1028,1590,0,0
-189,-566,0,0,0,0,0,0,0,0,0,-1,1035,1590,0,0
-182,-566,0,0,0,0,0,0,0,0,0,-1,1042,1590,0,0
-175,-566,0,0,0,0,0,0,0,0,0,-1,1049,1590,0,0
-168,-566,0,0,0,0,0,0,0,0,0,-1,1056,1590,0,0
-161,-566,0,0,0,0,0,0,0,0,0,-1,1063,1590,0,0
-154,-566,0,0,0,0,0,0,0,0,0,-1,1070,1590,0,0
-147,-566,0,0,0,0,0,0,0,0,0,-1,1077,1590,0,0
-140,-566,0,0,0,0,0,0,0,0,0,-1,1084,1590,0,0
-133,-566,0,0,0,0,0,0,0,0,0,-1,1091,1590,0,0
-126,-566,0,0,0,0,0,0,0,0,0,-1,1098,1590,0,0
-119,-566,0,0,0,0,0,0,0,0,0,-1,1105,1590,0,0
-112,-566,0,0,0,0,0,0,0,0,0,-1,1112,1590,0,0
-105,-566,0,0,0,0,0,0,0,0,0,-1,1119,1590,0,0
-98,-566,0,0,0,0,0,0,0,0,0,-1,1126,1590,0,0
-91,-566,0,0,0,0,0,0,0,0,0,-1,1133,1590,0,0
-84,-566,0,0,0,0,0,0,0,0,0,-1,1140,1590,0,0
-77,-566,0,0,0,0,0,0,0,0,0,-1,1147,1590,0,0
-70,-566,0,0,0,0,0,0,0,0,0,-1,1154,1590,0,0
-63,-566,0,0,0,0,0,0,0,0,0,-1,1161,1590,0,0
-56,-566,0,0,0,0,0,0,0,0,0,-1,1168,1590,0,0
-49,-566,0,0,0,0,0,0,0,0,0,-1,1175,1590,0,0
-42,-566,0,0,0,0,0,0,0,0,0,-1,1182,1590,0,0
-35,-566,0,0,0,0,0,0,0,0,0,-1,1189,1590,0,0
-28,-566,0,0,0,0,0,0,0,0,0,-1,1196,1590,0,0
-21,-566,0,0,0,0,0,0,0,0,0,-1,1203,1590,0,0
-14,-566,0,0,0,0,0,0,0,0,0,-1,1210,1590,0,0
-7,-566,0,0,0,0,0,0,0,0,0,-1,1217,1590,0,0
0,-566,0,0,0,0,0,0,0,0,0,-1,1224,1590,0,0
7,-566,0,0,0,0,0,0,0,0,0,-1,1231,1590,0,0
14,-566,0,0,0,0,0,0,0,0,0,-1,1238,1590,0,0
21,-566,0,0,0,0,0,0,0,0,0,-1,1245,1590,0,0
28,-566,0,0,0,0,0,0,0,0,0,-1,1252,1590,0,0
35,-566,0,0,0,0,0,0,0,0,0,-1,1259,1590,0,0
42,-566,0,0,0,0,0,0,0,0,0,-1,1266,1590,0,0
49,-566,0,0,0,0,0,0,0,0,0,-1,1273,1590,0,0
56,-566,0,0,0,0,0,0,0,0,0,-1,1280,1590,0,0
63,-566,0,0,0,0,0,0,0,0,0,-1,1287,1590,0,0
70,-566,0,0,0,0,0,0,0,0,0,-1,1294,1590,0,0
77,-566,0,0,0,0,0,0,0,0,0,-1,1301,1590,0,0
84,-566,0,0,0,0,0,0,0,0,0,-1,1308,1590,0,0
91,-566,0,0,0,0,0,0,0,0,0,-1,1315,1590,0,0
98,-566,0,0,0,0,0,0,0,0,0,-1,1322,1590,0,0
105,-566,0,0,0,0,0,0,0,0,0,-1,1329,1590,0,0
112,-566,0,0,0,0,0,0,0,0,0,-1,1336,1590,0,0
119,-566,0,0,0,0,0,0,0,0,0,-1,1343,1590,0,0
126,-566,0,0,0,0,0,0,0,0,0,-1,1350,1590,0,0
133,-566,0,0,0,0,0,0,0,0,0,-1,1357,1590,0,0
140,-566,0,0,0,0,0,0,0,0,0,-1,1364,1590,0,0
147,-566,0,0,0,0,0,0,0,0,0,-1,1371,1590,0,0
154,-566,0,0,0,0,0,0,0,0,0,-1,1378,1590,0,0
161,-566,0,0,0,0,0,0,0,0,0,-1,1385,1590,0,0
168,-566,0,0,0,0,0,0,0,0,0,-1,1392,1590,0,0
175,-566,0,0,0,0,0,0,0,0,0,-1,1399,1590,0,0
182,-566,0,0,0,0,0,0,0,0,0,-1,1406,1590,0,0
189,-566,0,0,0,0,0,0,0,0,0,-1,1413,1590,0,0
196,-566,0,0,0,0,0,0,0,0,0,-1,1420,1590,0,0
203,-566,0,0,0,0,0,0,0,0,0,-1,1427,1590,0,0
210,-566,0,0,0,0,0,0,0,0,0,-1,1434,1590,0,0
217,-566,0,0,0,0,0,0,0,0,0,-1,1441,1590,0,0
224,-566,0,0,0,0,0,0,0,0,0,-1,1448,1590,0,0
231,-566,0,0,0,0,0,0,0,0,0,-1,1455,1590,0,0
238,-566,0,0,0,0,0,0,0,0,0,-1,1462,1590,0,0
245,-566,0,0,0,0,0,0,0,0,0,-1,1469,1590,0,0
252,-566,0,0,0,0,0,0,0,0,0,-1,1476,1590,0,0
259,-566,0,0,0,0,0,0,0,0,0,-1,1483,1590,0,0
266,-566,0,0,0,0,0,0,0,0,0,-1,1490,1590,0,0
273,-566,0,0,0,0,0,0,0,0,0,-1,1497,1590,0,0
280,-566,0,0,0,0,0,0,0,0,0,-1,1504,1590,0,0
287,-566,0,0,0,0,0,0,0,0,0,-1,1511,1590,0,0
294,-566,0,0,0,0,0,0,0,0,0,-1,1518,1590,0,0
301,-566,0,0,0,0,0,0,0,0,0,-1,1525,1590,0,0
308,-566,0,0,0,0,0,0,0,0,0,-1,1532,1590,0,0
315,-566,0,0,0,0,0,0,0,0,0,-1,1539,1590,0,0
322,-566,4.51013,3.82666,0,0,0,0,0,0,0,-1,1546,1590,4.51009,-3.82667
329,-566,4.00769,3.53735,0,0,0,0,0,0,0,-1,1553,1590,4.00772,-3.5373
336,-566,5.35486,3.97852,0,0,0,0,0,0,0,-1,1560,1590,5.35481,-3.97846
343,-566,2.61194,2.01282,0,0,0,0,0,0,0,-1,1567,1590,2.61195,-2.01279
350,-566,4.32666,2.5553,0,0,0,0,0,0,0,-1,1574,1590,4.32671,-2.55536
357,-566,4.54614,2.24365,0,0,0,0,0,0,0,-1,1581,1590,4.5461,-2.2436
364,-566,4.39465,2.21729,0,0,0,0,0,0,0,-1,1588,1590,4.39464,-2.21725
371,-566,4.15552,2.19336,0,0,0,0,0,0,0,-1,1595,1590,4.15554,-2.19335
378,-566,3.22852,2.12439,0,0,0,0,0,0,0,-1,1602,1590,3.22852,-2.12436
385,-566,2.61768,2.11023,0,0,0,0,0,0,0,-1,1609,1590,2.61773,-2.11025
392,-566,2.49683,1.63098,0,0,0,0,0,0,0,-1,1616,1590,2.49677,-1.63093
399,-566,2.32483,1.37891,0,0,0,0,0,0,0,-1,1623,1590,2.32483,-1.37891
406,-566,2.99426,3.84448,0,0,0,0,0,0,0,-1,1630,1590,2.99428,-3.84448
413,-566,2.67932,3.34961,-0.0115946,0.00169183,-0.0067061,0.00448811,-0.0143909,-1.17574,0.0113887,0.0492596,1637,1590,2.67929,-3.34956
420,-566,2.40906,2.78027,-0.0105895,0.00277296,-0.00559353,0.0048053,-0.0126219,-1.22229,0.0103935,0.049012,1644,1590,2.40911,-2.78026
427,-566,2.53088,2.57727,-0.0101478,0.00289133,-0.0037021,0.00386911,-0.0111256,-1.31258,0.00898874,0.0498119,1651,1590,2.53086,-2.57731
434,-566,3.27197,2.83826,-0.00963574,0.00293852,-0.00214472,0.00329426,-0.00999148,-1.40642,0.00798878,0.0487422,1658,1590,3.27197,-2.83827
441,-566,3.02075,2.64844,-0.00895151,0.00279786,-0.000944827,0.00287336,-0.00902701,-1.49106,0.00717034,0.0436673,1665,1590,3.02069,-2.64843
448,-566,2.87231,2.48999,-0.0082439,0.00250251,-3.24321e-05,0.0025026,-0.008244,-1.56778,0.00649301,0.0330039,1672,1590,2.87235,-2.48998
455,-566,2.74817,2.35962,-0.00741329,0.00222401,0.000489842,0.00224885,-0.00743813,1.52014,0.00585416,0.0200572,1679,1590,2.7482,-2.35957
462,-566,2.69543,2.2821,-0.00651155,0.00159224,0.000930288,0.00169766,-0.00661697,1.45796,0.00507279,0.012863,1686,1590,2.69542,-2.28208
469,-566,2.7063,2.24219,-0.0052757,0.0012219,0.00128472,0.00146669,-0.0055205,1.38251,0.00425436,0.0120164,1693,1590,2.70626,-2.24213
476,-566,2.71375,2.19031,-0.00423134,0.00104776,0.00140395,0.0013979,-0.00458149,1.32638,0.00361163,0.0101671,1700,1590,2.71379,-2.19032
483,-566,2.69507,2.15881,-0.00355839,0.000878641,0.00124067,0.00120199,-0.00388175,1.31584,0.00306801,0.00982703,1707,1590,2.69503,-2.15883
490,-566,2.69226,2.14319,-0.00280809,0.000560344,0.000791376,0.000737004,-0.00298475,1.35117,0.00227564,0.010473,1714,1590,2.69232,-2.14321
497,-566,2.73999,2.10522,-0.00201535,0.000280756,0.000237852,0.000305137,-0.00203973,1.46865,0.00147211,0.0141136,1721,1590,2.74,-2.10519
504,-566,2.7417,2.05676,-0.00136096,0.000238109,-0.000414979,0.000339387,-0.00146223,-1.33142,0.00110546,0.0189429,1728,1590,2.74171,-2.05674
511,-566,2.71753,2.02563,-0.000620717,0.00107425,-0.00124632,0.00173393,-0.0012804,-1.08398,0.00174688,0.0177634,1735,1590,2.71758,-2.0256
518,-566,2.71094,1.99353,-0.00012142,0.00285714,-0.00259922,0.00436351,-0.00162779,-1.04555,0.00357726,0.0105558,1742,1590,2.71093,-1.99355
525,-566,2.70154,1.927,0.000517907,0.00497149,-0.00412078,0.00742865,-0.00193926,-1.03311,0.00570971,0.00998162,1749,1590,2.70159,-1.92695
532,-566,2.69055,1.9093,0.00149119,0.0071781,-0.00598545,0.0109612,-0.00229189,-1.00715,0.00817915,0.0114125,1756,1590,2.69053,-1.90935
539,-566,2.68494,1.87634,0.00194204,0.00925486,-0.00823854,0.0146119,-0.00341504,-0.994249,0.0110569,0.0144899,1763,1590,2.68489,-1.87633
546,-566,2.68958,1.80115,0.00262179,0.0123629,-0.0108252,0.0193627,-0.00437804,-0.996796,0.0145885,0.0132534,1770,1590,2.68959,-1.80115
553,-566,2.71106,1.80322,0.00348326,0.0164638,-0.013776,0.0252019,-0.00525483,-1.00554,0.0187993,0.019405,1777,1590,2.71111,-1.80323
560,-566,2.71094,1.81604,0.0044052,0.0208528,-0.0172434,0.0317331,-0.00647507,-1.00791,0.0236116,0.0311029,1784,1590,2.71093,-1.81607
567,-566,2.82764,1.53638,0,0,0,0,0,0,0,-1,1791,1590,2.82759,-1.53634
574,-566,3.06714,1.56189,0,0,0,0,0,0,0,-1,1798,1590,3.0671,-1.5619
581,-566,3.43188,0.759644,0.00923535,0.0377852,-0.0273244,0.0543388,-0.00731824,-1.02611,0.0388955,0.0477927,1805,1590,3.43193,-0.759604
588,-566,3.4906,0.246582,0.0113896,0.0444498,-0.030622,0.0627184,-0.00687898,-1.03289,0.0442837,0.0477056,1812,1590,3.49057,-0.246642
595,-566,3.61707,-0.28418,0,0,0,0,0,0,0,-1,1819,1590,3.61702,0.284192
602,-566,2.58423,-1.3689,0,0,0,0,0,0,0,-1,1826,1590,2.58421,1.36888
609,-566,0,0,0,0,0,0,0,0,0,-1,1833,1590,0,0
616,-566,0,0,0,0,0,0,0,0,0,-1,1840,1590,0,0
623,-566,0,0,0,0,0,0,0,0,0,-1,1847,1590,0,0
630,-566,0,0,0,0,0,0,0,0,0,-1,1854,1590,0,0
637,-566,0,0,0,0,0,0,0,0,0,-1,1861,1590,0,0
644,-566,0,0,0,0,0,0,0,0,0,-1,1868,1590,0,0
651,-566,0,0,0,0,0,0,0,0,0,-1,1875,1590,0,0
658,-566,0,0,0,0,0,0,0,0,0,-1,1882,1590,0,0
665,-566,0,0,0,0,0,0,0,0,0,-1,1889,1590,0,0
672,-566,0,0,0,0,0,0,0,0,0,-1,1896,1590,0,0
679,-566,0,0,0,0,0,0,0,0,0,-1,1903,1590,0,0
686,-566,0,0,0,0,0,0,0,0,0,-1,1910,1590,0,0
693,-566,0,0,0,0,0,0,0,0,0,-1,1917,1590,0,0
700,-566,0,0,0,0,0,0,0,0,0,-1,1924,1590,0,0
707,-566,0,0,0,0,0,0,0,0,0,-1,1931,1590,0,0
714,-566,0,0,0,0,0,0,0,0,0,-1,1938,1590,0,0
721,-566,0,0,0,0,0,0,0,0,0,-1,1945,1590,0,0
728,-566,0,0,0,0,0,0,0,0,0,-1,1952,1590,0,0
735,-566,0,0,0,0,0,0,0,0,0,-1,1959,1590,0,0
742,-566,0,0,0,0,0,0,0,0,0,-1,1966,1590,0,0
749,-566,0,0,0,0,0,0,0,0,0,-1,1973,1590,0,0
756,-566,0,0,0,0,0,0,0,0,0,-1,1980,1590,0,0
763,-566,0,0,0,0,0,0,0,0,0,-1,1987,1590,0,0
770,-566,0,0,0,0,0,0,0,0,0,-1,1994,1590,0,0
777,-566,0,0,0,0,0,0,0,0,0,-1,2001,1590,0,0
784,-566,0,0,0,0,0,0,0,0,0,-1,2008,1590,0,0
791,-566,0,0,0,0,0,0,0,0,0,-1,2015,1590,0,0
798,-566,0,0,0,0,0,0,0,0,0,-1,2022,1590,0,0
805,-566,0,0,0,0,0,0,0,0,0,-1,2029,1590,0,0
812,-566,0,0,0,0,0,0,0,0,0,-1,2036,1590,0,0
-700,-573,0,0,0,0,0,0,0,0,0,-1,524,1597,0,0
-693,-573,0,0,0,0,0,0,0,0,0,-1,531,1597,0,0
-686,-573,0,0,0,0,0,0,0,0,0,-1,538,1597,0,0
-679,-573,0,0,0,0,0,0,0,0,0,-1,545,1597,0,0
-672,-573,0,0,0,0,0,0,0,0,0,-1,552,1597,0,0
-665,-573,0,0,0,0,0,0,0,0,0,-1,559,1597,0,0
-658,-573,0,0,0,0,0,0,0,0,0,-1,566,1597,0,0
-651,-573,0,0,0,0,0,0,0,0,0,-1,573,1597,0,0
-644,-573,0,0,0,0,0,0,0,0,0,-1,580,1597,0,0
-637,-573,0,0,0,0,0,0,0,0,0,-1,587,1597,0,0
-630,-573,0,0,0,0,0,0,0,0,0,-1,594,1597,0,0
-623,-573,0,0,0,0,0,0,0,0,0,-1,601,1597,0,0
-616,-573,0,0,0,0,0,0,0,0,0,-1,608,1597,0,0
-609,-573,0,0,0,0,0,0,0,0,0,-1,615,1597,0,0
-602,-573,0,0,0,0,0,0,0,0,0,-1,622,1597,0,0
-595,-573,0,0,0,0,0,0,0,0,0,-1,629,1597,0,0
-588,-573,0,0,0,0,0,0,0,0,0,-1,636,1597,0,0
-581,-573,0,0,0,0,0,0,0,0,0,-1,643,1597,0,0
-574,-573,0,0,0,0,0,0,0,0,0,-1,650,1597,0,0
-567,-573,0,0,0,0,0,0,0,0,0,-1,657,1597,0,0
-560,-573,0,0,0,0,0,0,0,0,0,-1,664,1597,0,0
-553,-573,0,0,0,0,0,0,0,0,0,-1,671,1597,0,0
-546,-573,0,0,0,0,0,0,0,0,0,-1,678,1597,0,0
-539,-573,0,0,0,0,0,0,0,0,0,-1,685,1597,0,0
-532,-573,0,0,0,0,0,0,0,0,0,-1,692,1597,0,0
-525,-573,0,0,0,0,0,0,0,0,0,-1,699,1597,0,0
-518,-573,0,0,0,0,0,0,0,0,0,-1,706,1597,0,0
-511,-573,0,0,0,0,0,0,0,0,0,-1,713,1597,0,0
-504,-573,0,0,0,0,0,0,0,0,0,-1,720,1597,0,0
-497,-573,0,0,0,0,0,0,0,0,0,-1,727,1597,0,0
-490,-573,0,0,0,0,0,0,0,0,0,-1,734,1597,0,0
-483,-573,0,0,0,0,0,0,0,0,0,-1,741,1597,0,0
-476,-573,4.62842,1.29187,0,0,0,0,0,0,0,-1,748,1597,4.62839,-1.29188
-469,-573,4.10193,1.32678,0,0,0,0,0,0,0,-1,755,1597,4.10191,-1.32673
-462,-573,3.42548,1.56348,0,0,0,0,0,0,0,-1,762,1597,3.42547,-1.56349
-455,-573,2.41217,0.837402,0,0,0,0,0,0,0,-1,769,1597,2.41219,-0.837352
-448,-573,1.00043,1.66968,0,0,0,0,0,0,0,-1,776,1597,1.00045,-1.66969
-441,-573,1.25958,1.47168,0.00197377,0.033813,0.00901783,0.0361897,-0.000402937,1.3131,0.0242619,0.0460117,783,1597,1.25956,-1.4717
-434,-573,0.911438,2.01868,-0.000264458,0.0303052,0.00770698,0.0321383,-0.00209756,1.33729,0.0221578,0.0496917,790,1597,0.911462,-2.01863
-427,-573,1.39795,1.62598,-0.00150664,0.0266128,0.00667387,0.0281164,-0.00301022,1.3492,0.019824,0.0442572,797,1597,1.39796,-1.62592
-420,-573,1.29883,1.85132,-0.00289903,0.0227334,0.00639245,0.0242392,-0.00440478,1.33946,0.0178102,0.0376374,804,1597,1.29881,-1.85132
-413,-573,1.33826,1.8761,-0.00322064,0.019378,0.00568812,0.020729,-0.00457159,1.33761,0.0155685,0.0267751,811,1597,1.33827,-1.87611
-406,-573,1.39966,1.84631,-0.00259369,0.0156257,0.00474166,0.0167859,-0.00375385,1.33084,0.0126292,0.0134087,818,1597,1.39967,-1.84636
-399,-573,1.42786,1.87524,-0.00191715,0.0124362,0.00381368,0.0133866,-0.00286752,1.32657,0.010018,0.0105713,825,1597,1.42784,-1.87525
-392,-573,1.44421,1.92761,-0.00201887,0.00906986,0.00375411,0.0102213,-0.00317027,1.2732,0.00808095,0.0107264,832,1597,1.4442,-1.92755
-385,-573,1.44568,1.9729,-0.00198723,0.00625704,0.00333539,0.00743744,-0.00316763,1.23065,0.00628608,0.0127916,839,1597,1.44568,-1.97292
-378,-573,1.43854,2.00232,-0.00152357,0.0042426,0.00280103,0.00537921,-0.00266019,1.18531,0.00472921,0.0144182,846,1597,1.43856,-2.00236
-371,-573,1.43982,2.04675,-0.0010021,0.00292951,0.00228962,0.00398144,-0.00205404,1.14012,0.00354332,0.0147291,853,1597,1.43984,-2.04671
-364,-573,1.45483,2.0802,-0.000137465,0.00177263,0.0016657,0.00273765,-0.00110248,1.0457,0.00228312,0.0170476,860,1597,1.45481,-2.08018
-357,-573,1.44269,2.10327,0.000363922,0.0012089,0.000948378,0.00182464,-0.000251818,0.994944,0.00130847,0.0207851,867,1597,1.44271,-2.10331
-350,-573,1.44385,2.14441,0.000655907,0.00149674,0.000242131,0.00156148,0.000591167,1.30953,0.000910336,0.0175066,874,1597,1.44386,-2.14443
-343,-573,1.45471,2.17432,0.00110678,0.00200716,-0.000218792,0.00205751,0.00105643,-1.3446,0.00118805,0.0214048,881,1597,1.4547,-2.17436
-336,-573,1.44696,2.21826,0.00146761,0.00290582,-0.00144183,0.00379793,0.000575508,-1.01672,0.00236359,0.0174131,888,1597,1.44697,-2.21824
-329,-573,1.41559,2.28076,0.00185801,0.00369479,-0.00309229,0.00600219,-0.000449388,-0.929746,0.00415936,0.0166986,895,1597,1.4156,-2.28081
-322,-573,1.42706,2.30762,0.0023336,0.00463205,-0.00467396,0.008296,-0.00133034,-0.905946,0.00602329,0.0115728,902,1597,1.42705,-2.3076
-315,-573,1.45398,2.35864,0.00280916,0.00546136,-0.00666438,0.0109303,-0.00265978,-0.883607,0.00831646,0.0147084,909,1597,1.45396,-2.35862
-308,-573,1.48737,2.39722,0.0031427,0.00631344,-0.00901982,0.0138862,-0.00443001,-0.872392,0.0110346,0.022175,916,1597,1.48737,-2.39718
-301,-573,1.50061,2.41602,0.00331062,0.00707058,-0.0119429,0.0172806,-0.00689937,-0.863465,0.0143828,0.0273429,923,1597,1.50063,-2.41606
-294,-573,1.48743,2.43933,0.00380446,0.00626134,-0.0145779,0.0196624,-0.00959664,-0.827433,0.0172227,0.0338387,930,1597,1.48741,-2.43938
-287,-573,1.11139,2.46582,0.00481482,0.00499814,-0.0167418,0.0216485,-0.0118356,-0.788136,0.0196068,0.0446869,937,1597,1.11141,-2.4658
-280,-573,0.870544,2.51318,0,0,0,0,0,0,0,-1,944,1597,0.870519,-2.51318
-273,-573,1.74475,3.02637,0,0,0,0,0,0,0,-1,951,1597,1.74476,-3.02638
-266,-573,1.72778,2.83875,0,0,0,0,0,0,0,-1,958,1597,1.72781,-2.83872
-259,-573,1.53198,2.78149,0,0,0,0,0,0,0,-1,965,1597,1.53197,-2.7815
-252,-573,1.33612,2.72424,0,0,0,0,0,0,0,-1,972,1597,1.33613,-2.72428
-245,-573,0.987732,1.73718,0,0,0,0,0,0,0,-1,979,1597,0.987741,-1.73715
-238,-573,1.10944,1.54358,0,0,0,0,0,0,0,-1,986,1597,1.10943,-1.5436
-231,-573,-0.351013,2.59998,0,0,0,0,0,0,0,-1,993,1597,-0.351008,-2.59993
-224,-573,4.08728,3.50977,0,0,0,0,0,0,0,-1,1000,1597,4.08731,-3.50977
-217,-573,4.52728,2.83496,0,0,0,0,0,0,0,-1,1007,1597,4.52728,-2.83502
-210,-573,3.19269,1.75256,0,0,0,0,0,0,0,-1,1014,1597,3.19266,-1.75256
-203,-573,1.9577,1.97534,0,0,0,0,0,0,0,-1,1021,1597,1.95769,-1.97532
-196,-573,2.46265,1.13086,0,0,0,0,0,0,0,-1,1028,1597,2.46268,-1.1309
-189,-573,1.55615,0.532593,0,0,0,0,0,0,0,-1,1035,1597,1.55615,-0.53257
-182,-573,0,0,0,0,0,0,0,0,0,-1,1042,1597,0,0
-175,-573,0,0,0,0,0,0,0,0,0,-1,1049,1597,0,0
-168,-573,0,0,0,0,0,0,0,0,0,-1,1056,1597,0,0
-161,-573,0,0,0,0,0,0,0,0,0,-1,1063,1597,0,0
-154,-573,0,0,0,0,0,0,0,0,0,-1,1070,1597,0,0
-147,-573,0,0,0,0,0,0,0,0,0,-1,1077,1597,0,0
-140,-573,0,0,0,0,0,0,0,0,0,-1,1084,1597,0,0
-133,-573,0,0,0,0,0,0,0,0,0,-1,1091,1597,0,0
-126,-573,0,0,0,0,0,0,0,0,0,-1,1098,1597,0,0
-119,-573,0,0,0,0,0,0,0,0,0,-1,1105,1597,0,0
-112,-573,0,0,0,0,0,0,0,0,0,-1,1112,1597,0,0
-105,-573,0,0,0,0,0,0,0,0,0,-1,1119,1597,0,0
-98,-573,0,0,0,0,0,0,0,0,0,-1,1126,1597,0,0
-91,-573,0,0,0,0,0,0,0,0,0,-1,1133,1597,0,0
-84,-573,0,0,0,0,0,0,0,0,0,-1,1140,1597,0,0
-77,-573,0,0,0,0,0,0,0,0,0,-1,1147,1597,0,0
-70,-573,0,0,0,0,0,0,0,0,0,-1,1154,1597,0,0
-63,-573,0,0,0,0,0,0,0,0,0,-1,1161,1597,0,0
-56,-573,0,0,0,0,0,0,0,0,0,-1,1168,1597,0,0
-49,-573,0,0,0,0,0,0,0,0,0,-1,1175,1597,0,0
-42,-573,0,0,0,0,0,0,0,0,0,-1,1182,1597,0,0
-35,-573,0,0,0,0,0,0,0,0,0,-1,1189,1597,0,0
-28,-573,0,0,0,0,0,0,0,0,0,-1,1196,1597,0,0
-21,-573,0,0,0,0,0,0,0,0,0,-1,1203,1597,0,0
-14,-573,0,0,0,0,0,0,0,0,0,-1,1210,1597,0,0
-7,-573,0,0,0,0,0,0,0,0,0,-1,1217,1597,0,0
0,-573,0,0,0,0,0,0,0,0,0,-1,1224,1597,0,0
7,-573,0,0,0,0,0,0,0,0,0,-1,1231,1597,0,0
14,-573,0,0,0,0,0,0,0,0,0,-1,1238,1597,0,0
21,-573,0,0,0,0,0,0,0,0,0,-1,1245,1597,0,0
28,-573,0,0,0,0,0,0,0,0,0,-1,1252,1597,0,0
35,-573,0,0,0,0,0,0,0,0,0,-1,1259,1597,0,0
42,-573,0,0,0,0,0,0,0,0,0,-1,1266,1597,0,0
49,-573,0,0,0,0,0,0,0,0,0,-1,1273,1597,0,0
56,-573,0,0,0,0,0,0,0,0,0,-1,1280,1597,0,0
63,-573,0,0,0,0,0,0,0,0,0,-1,1287,1597,0,0
70,-573,0,0,0,0,0,0,0,0,0,-1,1294,1597,0,0
77,-573,0,0,0,0,0,0,0,0,0,-1,1301,1597,0,0
84,-573,0,0,0,0,0,0,0,0,0,-1,1308,1597,0,0
91,-573,0,0,0,0,0,0,0,0,0,-1,1315,1597,0,0
98,-573,0,0,0,0,0,0,0,0,0,-1,1322,1597,0,0
105,-573,0,0,0,0,0,0,0,0,0,-1,1329,1597,0,0
112,-573,0,0,0,0,0,0,0,0,0,-1,1336,1597,0,0
119,-573,0,0,0,0,0,0,0,0,0,-1,1343,1597,0,0
126,-573,0,0,0,0,0,0,0,0,0,-1,1350,1597,0,0
133,-573,0,0,0,0,0,0,0,0,0,-1,1357,1597,0,0
140,-573,0,0,0,0,0,0,0,0,0,-1,1364,1597,0,0
147,-573,0,0,0,0,0,0,0,0,0,-1,1371,1597,0,0
154,-573,0,0,0,0,0,0,0,0,0,-1,1378,1597,0,0
161,-573,0,0,0,0,0,0,0,0,0,-1,1385,1597,0,0
168,-573,0,0,0,0,0,0,0,0,0,-1,1392,1597,0,0
175,-573,0,0,0,0,0,0,0,0,0,-1,1399,1597,0,0
182,-573,0,0,0,0,0,0,0,0,0,-1,1406,1597,0,0
189,-573,0,0,0,0,0,0,0,0,0,-1,1413,1597,0,0
196,-573,0,0,0,0,0,0,0,0,0,-1,1420,1597,0,0
203,-573,0,0,0,0,0,0,0,0,0,-1,1427,1597,0,0
210,-573,0,0,0,0,0,0,0,0,0,-1,1434,1597,0,0
217,-573,0,0,0,0,0,0,0,0,0,-1,1441,1597,0,0
224,-573,0,0,0,0,0,0,0,0,0,-1,1448,1597,0,0
231,-573,0,0,0,0,0,0,0,0,0,-1,1455,1597,0,0
238,-573,0,0,0,0,0,0,0,0,0,-1,1462,1597,0,0
245,-573,0,0,0,0,0,0,0,0,0,-1,1469,1597,0,0
252,-573,0,0,0,0,0,0,0,0,0,-1,1476,1597,0,0
259,-573,0,0,0,0,0,0,0,0,0,-1,1483,1597,0,0
266,-573,0,0,0,0,0,0,0,0,0,-1,1490,1597,0,0
273,-573,0,0,0,0,0,0,0,0,0,-1,1497,1597,0,0
280,-573,0,0,0,0,0,0,0,0,0,-1,1504,1597,0,0
287,-573,0,0,0,0,0,0,0,0,0,-1,1511,1597,0,0
294,-573,0,0,0,0,0,0,0,0,0,-1,1518,1597,0,0
301,-573,0,0,0,0,0,0,0,0,0,-1,1525,1597,0,0
308,-573,5.16882,2.99792,0,0,0,0,0,0,0,-1,1532,1597,5.16882,-2.99787
315,-573,4.67786,3.14807,0,0,0,0,0,0,0,-1,1539,1597,4.67787,-3.14809
322,-573,4.30579,3.28882,-0.0327639,0.0849322,-0.0131923,0.0863928,-0.0342245,-1.46053,0.0717767,0.0447813,1546,1597,4.30583,-3.28887
329,-573,3.85693,2.96936,-0.0387222,0.0837667,-0.0135691,0.0852519,-0.0402074,-1.46178,0.0739738,0.0451292,1553,1597,3.85692,-2.96935
336,-573,3.43494,2.61475,0,0,0,0,0,0,0,-1,1560,1597,3.43492,-2.61476
343,-573,2.95447,1.73999,0,0,0,0,0,0,0,-1,1567,1597,2.95442,-1.73996
350,-573,2.53748,1.56433,0,0,0,0,0,0,0,-1,1574,1597,2.53753,-1.5643
357,-573,4.06079,1.55713,0,0,0,0,0,0,0,-1,1581,1597,4.06083,-1.55713
364,-573,3.73706,1.55737,0,0,0,0,0,0,0,-1,1588,1597,3.73706,-1.55734
371,-573,3.33813,1.41113,0,0,0,0,0,0,0,-1,1595,1597,3.33811,-1.41114
378,-573,2.82654,1.39551,0,0,0,0,0,0,0,-1,1602,1597,2.82657,-1.3955
385,-573,1.97644,1.33472,0,0,0,0,0,0,0,-1,1609,1597,1.97641,-1.33466
392,-573,2.80298,2.49768,0,0,0,0,0,0,0,-1,1616,1597,2.80296,-2.4977
399,-573,2.73828,3.79956,0,0,0,0,0,0,0,-1,1623,1597,2.7383,-3.79954
406,-573,2.67004,3.5531,-0.00964762,0.000381056,-0.00454726,0.00213585,-0.0114024,-1.2025,0.00840452,0.0483728,1630,1597,2.67009,-3.5531
413,-573,2.62354,3.20471,-0.00775378,0.00435056,-0.00466194,0.00593793,-0.00934114,-1.24261,0.00889402,0.0472913,1637,1597,2.62356,-3.20467
420,-573,2.45642,2.6427,-0.00697829,0.00485143,-0.00408813,0.00612673,-0.00825359,-1.26841,0.00833269,0.0467635,1644,1597,2.45645,-2.64272
427,-573,2.47729,2.47815,-0.00684456,0.00449015,-0.00269273,0.00509733,-0.00745173,-1.34902,0.00728758,0.0450871,1651,1597,2.47729,-2.47816
434,-573,2.68555,2.5,-0.00665541,0.00414389,-0.00153869,0.00435884,-0.00687037,-1.43199,0.00653702,0.0374433,1658,1597,2.68549,-2.5
441,-573,2.66211,2.42444,-0.00631453,0.00366499,-0.000647996,0.00370689,-0.00635643,-1.50623,0.0058768,0.0231959,1665,1597,2.66207,-2.42441
448,-573,2.66101,2.36011,-0.00596954,0.00308774,5.22724e-05,0.00308804,-0.00596984,1.56503,0.00531706,0.0146101,1672,1597,2.66096,-2.36014
455,-573,2.65601,2.30212,-0.00547548,0.00263604,0.000415907,0.00265731,-0.00549675,1.5197,0.00480195,0.0132422,1679,1597,2.65604,-2.30208
462,-573,2.63123,2.26184,-0.00486089,0.00189651,0.000694314,0.00196711,-0.00493149,1.46946,0.00410365,0.0168811,1686,1597,2.63121,-2.26188
469,-573,2.67236,2.23523,-0.00389737,0.00142745,0.000965351,0.00159706,-0.00406698,1.39688,0.00337219,0.015655,1693,1597,2.6723,-2.23526
476,-573,2.69104,2.19775,-0.00311793,0.0012036,0.00104839,0.00144451,-0.00335883,1.34493,0.00284568,0.0147564,1700,1597,2.69102,-2.1978
483,-573,2.65466,2.17725,-0.00266646,0.00109869,0.000873348,0.00129141,-0.00285917,1.35362,0.00245266,0.0109944,1707,1597,2.65466,-2.1772
490,-573,2.65088,2.14734,-0.00208615,0.000906406,0.000496981,0.000986782,-0.00216652,1.41046,0.00186255,0.00941725,1714,1597,2.65088,-2.14736
497,-573,2.68567,2.09314,-0.00140732,0.000809597,-0.000175092,0.000823341,-0.00142106,-1.49246,0.00131103,0.0141949,1721,1597,2.68566,-2.09308
504,-573,2.67493,2.03748,-0.000880509,0.0010333,-0.0010404,0.00148993,-0.00133715,-1.15721,0.00163301,0.0161699,1728,1597,2.67488,-2.03749
511,-573,2.67566,1.9967,-0.000165508,0.00223704,-0.00219064,0.00353416,-0.00146262,-1.03619,0.00296638,0.0163357,1735,1597,2.67561,-1.99673
518,-573,2.68591,1.97424,0.000356124,0.00459169,-0.00402886,0.00702547,-0.00207765,-1.02738,0.00550839,0.0125223,1742,1597,2.68589,-1.97419
525,-573,2.67212,1.9375,0.00103334,0.00742909,-0.00605984,0.0110831,-0.00262066,-1.02819,0.00839967,0.0152045,1749,1597,2.67206,-1.93749
532,-573,2.67444,1.92004,0.00218935,0.0102434,-0.00840871,0.0155397,-0.00310689,-1.00872,0.0115357,0.014123,1756,1597,2.67439,-1.92001
539,-573,2.68213,1.90088,0.00280116,0.0129157,-0.0112818,0.0202219,-0.00450502,-0.996105,0.015207,0.0151163,1763,1597,2.68209,-1.90094
546,-573,2.68933,1.85828,0.00378552,0.0168143,-0.0145576,0.0262486,-0.00564879,-0.995781,0.0196545,0.0214961,1770,1597,2.68938,-1.85828
553,-573,2.61108,1.80774,0.00497758,0.0216556,-0.0181784,0.0333165,-0.00668326,-1.00044,0.0247415,0.0332672,1777,1597,2.61106,-1.80776
560,-573,2.56628,1.57324,0.00621861,0.026682,-0.0221931,0.0408884,-0.00798777,-1.00139,0.0302748,0.0421588,1784,1597,2.56628,-1.5733
567,-573,2.45288,1.3313,0.00761041,0.0317892,-0.0260747,0.0484408,-0.00904118,-1.00247,0.0356914,0.0475935,1791,1597,2.45288,-1.33133
574,-573,2.37329,1.13403,0,0,0,0,0,0,0,-1,1798,1597,2.37333,-1.134
581,-573,3.36609,0.712402,0.0114986,0.0440567,-0.0332327,0.0647834,-0.00922808,-1.01315,0.0465707,0.0482771,1805,1597,3.3661,-0.712432
588,-573,2.92444,0.20105,0.0136336,0.050099,-0.0363991,0.0725766,-0.0088439,-1.01759,0.0515857,0.0491663,1812,1597,2.92449,-0.200994
595,-573,2.4021,-0.48645,0,0,0,0,0,0,0,-1,1819,1597,2.40205,0.486465
602,-573,0,0,0,0,0,0,0,0,0,-1,1826,1597,0,0
609,-573,0,0,0,0,0,0,0,0,0,-1,1833,1597,0,0
616,-573,0,0,0,0,0,0,0,0,0,-1,1840,1597,0,0
623,-573,0,0,0,0,0,0,0,0,0,-1,1847,1597,0,0
630,-573,0,0,0,0,0,0,0,0,0,-1,1854,1597,0,0
637,-573,0,0,0,0,0,0,0,0,0,-1,1861,1597,0,0
644,-573,0,0,0,0,0,0,0,0,0,-1,1868,1597,0,0
651,-573,0,0,0,0,0,0,0,0,0,-1,1875,1597,0,0
658,-573,0,0,0,0,0,0,0,0,0,-1,1882,1597,0,0
665,-573,0,0,0,0,0,0,0,0,0,-1,1889,1597,0,0
672,-573,0,0,0,0,0,0,0,0,0,-1,1896,1597,0,0
679,-573,0,0,0,0,0,0,0,0,0,-1,1903,1597,0,0
686,-573,0,0,0,0,0,0,0,0,0,-1,1910,1597,0,0
693,-573,0,0,0,0,0,0,0,0,0,-1,1917,1597,0,0
700,-573,0,0,0,0,0,0,0,0,0,-1,1924,1597,0,0
707,-573,0,0,0,0,0,0,0,0,0,-1,1931,1597,0,0
714,-573,0,0,0,0,0,0,0,0,0,-1,1938,1597,0,0
721,-573,0,0,0,0,0,0,0,0,0,-1,1945,1597,0,0
728,-573,0,0,0,0,0,0,0,0,0,-1,1952,1597,0,0
735,-573,0,0,0,0,0,0,0,0,0,-1,1959,1597,0,0
742,-573,0,0,0,0,0,0,0,0,0,-1,1966,1597,0,0
749,-573,0,0,0,0,0,0,0,0,0,-1,1973,1597,0,0
756,-573,0,0,0,0,0,0,0,0,0,-1,1980,1597,0,0
763,-573,0,0,0,0,0,0,0,0,0,-1,1987,1597,0,0
770,-573,0,0,0,0,0,0,0,0,0,-1,1994,1597,0,0
777,-573,0,0,0,0,0,0,0,0,0,-1,2001,1597,0,0
784,-573,0,0,0,0,0,0,0,0,0,-1,2008,1597,0,0
791,-573,0,0,0,0,0,0,0,0,0,-1,2015,1597,0,0
798,-573,0,0,0,0,0,0,0,0,0,-1,2022,1597,0,0
805,-573,0,0,0,0,0,0,0,0,0,-1,2029,1597,0,0
812,-573,0,0,0,0,0,0,0,0,0,-1,2036,1597,0,0
-700,-580,0,0,0,0,0,0,0,0,0,-1,524,1604,0,0
-693,-580,0,0,0,0,0,0,0,0,0,-1,531,1604,0,0
-686,-580,0,0,0,0,0,0,0,0,0,-1,538,1604,0,0
-679,-580,0,0,0,0,0,0,0,0,0,-1,545,1604,0,0
-672,-580,0,0,0,0,0,0,0,0,0,-1,552,1604,0,0
-665,-580,0,0,0,0,0,0,0,0,0,-1,559,1604,0,0
-658,-580,0,0,0,0,0,0,0,0,0,-1,566,1604,0,0
-651,-580,0,0,0,0,0,0,0,0,0,-1,573,1604,0,0
-644,-580,0,0,0,0,0,0,0,0,0,-1,580,1604,0,0
-637,-580,0,0,0,0,0,0,0,0,0,-1,587,1604,0,0
-630,-580,0,0,0,0,0,0,0,0,0,-1,594,1604,0,0
-623,-580,0,0,0,0,0,0,0,0,0,-1,601,1604,0,0
-616,-580,0,0,0,0,0,0,0,0,0,-1,608,1604,0,0
-609,-580,0,0,0,0,0,0,0,0,0,-1,615,1604,0,0
-602,-580,0,0,0,0,0,0,0,0,0,-1,622,1604,0,0
-595,-580,0,0,0,0,0,0,0,0,0,-1,629,1604,0,0
-588,-580,0,0,0,0,0,0,0,0,0,-1,636,1604,0,0
-581,-580,0,0,0,0,0,0,0,0,0,-1,643,1604,0,0
-574,-580,0,0,0,0,0,0,0,0,0,-1,650,1604,0,0
-567,-580,0,0,0,0,0,0,0,0,0,-1,657,1604,0,0
-560,-580,0,0,0,0,0,0,0,0,0,-1,664,1604,0,0
-553,-580,0,0,0,0,0,0,0,0,0,-1,671,1604,0,0
-546,-580,0,0,0,0,0,0,0,0,0,-1,678,1604,0,0
-539,-580,0,0,0,0,0,0,0,0,0,-1,685,1604,0,0
-532,-580,0,0,0,0,0,0,0,0,0,-1,692,1604,0,0
-525,-580,0,0,0,0,0,0,0,0,0,-1,699,1604,0,0
-518,-580,0,0,0,0,0,0,0,0,0,-1,706,1604,0,0
-511,-580,0,0,0,0,0,0,0,0,0,-1,713,1604,0,0
-504,-580,0,0,0,0,0,0,0,0,0,-1,720,1604,0,0
-497,-580,0,0,0,0,0,0,0,0,0,-1,727,1604,0,0
-490,-580,0,0,0,0,0,0,0,0,0,-1,734,1604,0,0
-483,-580,0,0,0,0,0,0,0,0,0,-1,741,1604,0,0
-476,-580,0,0,0,0,0,0,0,0,0,-1,748,1604,0,0
-469,-580,2.7149,0.822876,0,0,0,0,0,0,0,-1,755,1604,2.71489,-0.822817
-462,-580,2.06494,0.795654,0.0189413,0.0563253,0.0160104,0.0622447,0.0130219,1.21666,0.0379088,0.0499131,762,1604,2.06496,-0.795608
-455,-580,1.59558,0.674438,0.010611,0.0524157,0.0125516,0.0558947,0.00713195,1.30041,0.035128,0.0481351,769,1604,1.59558,-0.674424
-448,-580,1.14471,0.998047,0.0051485,0.0486785,0.0103112,0.0509974,0.00282958,1.34958,0.0330954,0.0429896,776,1604,1.14469,-0.998011
-441,-580,0.710754,1.23376,0.0011267,0.0447162,0.00878042,0.0464184,-0.000575501,1.37931,0.0311392,0.0430532,783,1604,0.710778,-1.23374
-434,-580,0.624756,1.8313,0,0,0,0,0,0,0,-1,790,1604,0.624761,-1.83133
-427,-580,1.30835,2.01233,-0.00323579,0.0359378,0.00753963,0.0373389,-0.00463681,1.38707,0.0265734,0.0438579,797,1604,1.30836,-2.01232
-420,-580,1.29956,1.94189,-0.00460336,0.0308467,0.00772129,0.0324554,-0.00621211,1.36538,0.0239774,0.0430463,804,1604,1.29957,-1.94191
-413,-580,1.30261,1.89929,-0.00478742,0.0261207,0.00739779,0.0278001,-0.00646681,1.34757,0.0210232,0.04327,811,1604,1.30259,-1.89927
-406,-580,1.46594,1.85327,-0.00395288,0.0210926,0.00664668,0.0227472,-0.00560749,1.32682,0.0173389,0.032661,818,1604,1.46592,-1.85321
-399,-580,1.48608,1.87781,-0.00299591,0.0167607,0.00573864,0.0183066,-0.00454183,1.30766,0.0139667,0.0145002,825,1604,1.48611,-1.87775
-392,-580,1.48413,1.93652,-0.00299556,0.0122438,0.00584544,0.0142277,-0.00497946,1.2436,0.0115098,0.0110437,832,1604,1.48414,-1.93649
-385,-580,1.49994,1.97644,-0.00284093,0.00849845,0.00523047,0.0105426,-0.00488507,1.19823,0.00910461,0.0114483,839,1604,1.49991,-1.97648
-378,-580,1.48102,2.01379,-0.00200437,0.00573177,0.00443173,0.00774606,-0.00401866,1.14419,0.00690507,0.014244,846,1604,1.48099,-2.01379
-371,-580,1.4848,2.05957,-0.00117149,0.00383194,0.00359903,0.00571333,-0.00305288,1.08912,0.00513828,0.0125736,853,1604,1.48481,-2.05962
-364,-580,1.45959,2.08386,-0.000233106,0.00206214,0.00265993,0.00381146,-0.00198242,0.989058,0.0034002,0.0173905,860,1604,1.45962,-2.08385
-357,-580,1.48413,2.10498,5.08058e-05,0.00103052,0.00165455,0.0022662,-0.00118487,0.929321,0.00202482,0.0141648,867,1604,1.48415,-2.10501
-350,-580,1.5094,2.15662,-6.22943e-05,0.0010437,0.00067011,0.00135952,-0.000378121,1.13037,0.00105522,0.011655,874,1604,1.50941,-2.1566
-343,-580,1.51764,2.21362,5.26862e-05,0.00127226,0.00019997,0.00130421,2.07349e-05,1.41236,0.000862648,0.0116462,881,1604,1.51762,-2.2136
-336,-580,1.51984,2.24158,4.16685e-05,0.00186922,-0.000927964,0.00225779,-0.000346901,-1.17425,0.00163316,0.0191718,888,1604,1.51982,-2.2416
-329,-580,1.47449,2.25598,-9.77553e-06,0.00226642,-0.00222758,0.0036298,-0.00137316,-1.02157,0.00298479,0.0168176,895,1604,1.47447,-2.25592
-322,-580,1.45776,2.31152,-5.22495e-05,0.00286245,-0.00338827,0.00509349,-0.00228329,-0.988496,0.00436078,0.0171165,902,1604,1.45778,-2.31153
-315,-580,1.48212,2.34265,-6.83906e-05,0.00335898,-0.00479721,0.00673941,-0.00344882,-0.956947,0.00598357,0.0142091,909,1604,1.48209,-2.34269
-308,-580,1.48785,2.40308,-0.000153565,0.00389303,-0.00646667,0.00864554,-0.00490607,-0.937014,0.0079227,0.0152126,916,1604,1.48787,-2.40313
-301,-580,1.4989,2.4342,-0.00034849,0.0043699,-0.00856026,0.0108901,-0.00686871,-0.919859,0.0103403,0.0134421,923,1604,1.49891,-2.43419
-294,-580,1.51373,2.41992,-7.97527e-05,0.00329038,-0.0102891,0.0120315,-0.00882083,-0.866564,0.0120865,0.0188559,930,1604,1.51371,-2.41987
-287,-580,1.52472,2.47131,0.000790667,0.00188154,-0.0115625,0.0129115,-0.0102393,-0.808967,0.0133957,0.0382561,937,1604,1.52472,-2.47136
-280,-580,1.53033,2.50891,0,0,0,0,0,0,0,-1,944,1604,1.53036,-2.50893
-273,-580,1.35461,2.60229,0,0,0,0,0,0,0,-1,951,1604,1.35463,-2.60232
-266,-580,1.76428,2.5658,0,0,0,0,0,0,0,-1,958,1604,1.7643,-2.56579
-259,-580,1.70062,2.55103,0.00536714,-0.00388605,-0.00470966,0.00734254,-0.00586145,-0.397148,0.00763929,0.0451384,965,1604,1.70063,-2.55103
-252,-580,1.65381,2.56152,0,0,0,0,0,0,0,-1,972,1604,1.65379,-2.56151
-245,-580,2.17139,-0.566406,0,0,0,0,0,0,0,-1,979,1604,2.17141,0.566371
-238,-580,1.12897,1.328,0,0,0,0,0,0,0,-1,986,1604,1.12897,-1.32799
-231,-580,2.34338,3.52441,0,0,0,0,0,0,0,-1,993,1604,2.34339,-3.52446
-224,-580,3.68146,3.70374,-0.00725945,-0.0323557,0.0243646,0.00759841,-0.0472136,0.547604,0.0342903,0.0470101,1000,1604,3.68147,-3.70377
-217,-580,4.17169,3.38953,-0.017123,-0.0342554,0.0236077,-0.00057539,-0.050803,0.611358,0.0336785,0.0434199,1007,1604,4.1717,-3.38957
-210,-580,2.93036,2.4552,-0.0285705,-0.0331096,0.0207055,-0.0100106,-0.0516695,0.730811,0.0316418,0.0449834,1014,1604,2.93036,-2.45518
-203,-580,2.60547,2.14282,0,0,0,0,0,0,0,-1,1021,1604,2.60548,-2.14282
-196,-580,1.91821,1.73914,-0.0330049,-0.0100038,-0.0034861,-0.00948707,-0.0335217,-1.42364,0.019952,0.0446253,1028,1604,1.91815,-1.73918
-189,-580,1.07727,1.32849,0,0,0,0,0,0,0,-1,1035,1604,1.07725,-1.3285
-182,-580,0.414307,1.09033,0,0,0,0,0,0,0,-1,1042,1604,0.414325,-1.09039
-175,-580,2.97168,-0.646973,0,0,0,0,0,0,0,-1,1049,1604,2.97172,0.646998
-168,-580,0,0,0,0,0,0,0,0,0,-1,1056,1604,0,0
-161,-580,0,0,0,0,0,0,0,0,0,-1,1063,1604,0,0
-154,-580,0,0,0,0,0,0,0,0,0,-1,1070,1604,0,0
-147,-580,0,0,0,0,0,0,0,0,0,-1,1077,1604,0,0
-140,-580,0,0,0,0,0,0,0,0,0,-1,1084,1604,0,0
-133,-580,0,0,0,0,0,0,0,0,0,-1,1091,1604,0,0
-126,-580,0,0,0,0,0,0,0,0,0,-1,1098,1604,0,0
-119,-580,0,0,0,0,0,0,0,0,0,-1,1105,1604,0,0
-112,-580,0,0,0,0,0,0,0,0,0,-1,1112,1604,0,0
-105,-580,0,0,0,0,0,0,0,0,0,-1,1119,1604,0,0
-98,-580,0,0,0,0,0,0,0,0,0,-1,1126,1604,0,0
-91,-580,0,0,0,0,0,0,0,0,0,-1,1133,1604,0,0
-84,-580,0,0,0,0,0,0,0,0,0,-1,1140,1604,0,0
-77,-580,0,0,0,0,0,0,0,0,0,-1,1147,1604,0,0
-70,-580,0,0,0,0,0,0,0,0,0,-1,1154,1604,0,0
-63,-580,0,0,0,0,0,0,0,0,0,-1,1161,1604,0,0
-56,-580,0,0,0,0,0,0,0,0,0,-1,1168,1604,0,0
-49,-580,0,0,0,0,0,0,0,0,0,-1,1175,1604,0,0
-42,-580,0,0,0,0,0,0,0,0,0,-1,1182,1604,0,0
-35,-580,0,0,0,0,0,0,0,0,0,-1,1189,1604,0,0
-28,-580,0,0,0,0,0,0,0,0,0,-1,1196,1604,0,0
-21,-580,0,0,0,0,0,0,0,0,0,-1,1203,1604,0,0
-14,-580,0,0,0,0,0,0,0,0,0,-1,1210,1604,0,0
-7,-580,0,0,0,0,0,0,0,0,0,-1,1217,1604,0,0
0,-580,0,0,0,0,0,0,0,0,0,-1,1224,1604,0,0
7,-580,0,0,0,0,0,0,0,0,0,-1,1231,1604,0,0
14,-580,0,0,0,0,0,0,0,0,0,-1,1238,1604,0,0
21,-580,0,0,0,0,0,0,0,0,0,-1,1245,1604,0,0
28,-580,0,0,0,0,0,0,0,0,0,-1,1252,1604,0,0
35,-580,0,0,0,0,0,0,0,0,0,-1,1259,1604,0,0
42,-580,0,0,0,0,0,0,0,0,0,-1,1266,1604,0,0
49,-580,0,0,0,0,0,0,0,0,0,-1,1273,1604,0,0
56,-580,0,0,0,0,0,0,0,0,0,-1,1280,1604,0,0
63,-580,0,0,0,0,0,0,0,0,0,-1,1287,1604,0,0
70,-580,0,0,0,0,0,0,0,0,0,-1,1294,1604,0,0
77,-580,0,0,0,0,0,0,0,0,0,-1,1301,1604,0,0
84,-580,0,0,0,0,0,0,0,0,0,-1,1308,1604,0,0
91,-580,0,0,0,0,0,0,0,0,0,-1,1315,1604,0,0
98,-580,0,0,0,0,0,0,0,0,0,-1,1322,1604,0,0
105,-580,0,0,0,0,0,0,0,0,0,-1,1329,1604,0,0
112,-580,0,0,0,0,0,0,0,0,0,-1,1336,1604,0,0
119,-580,0,0,0,0,0,0,0,0,0,-1,1343,1604,0,0
126,-580,0,0,0,0,0,0,0,0,0,-1,1350,1604,0,0
133,-580,0,0,0,0,0,0,0,0,0,-1,1357,1604,0,0
140,-580,0,0,0,0,0,0,0,0,0,-1,1364,1604,0,0
147,-580,0,0,0,0,0,0,0,0,0,-1,1371,1604,0,0
154,-580,0,0,0,0,0,0,0,0,0,-1,1378,1604,0,0
161,-580,0,0,0,0,0,0,0,0,0,-1,1385,1604,0,0
168,-580,0,0,0,0,0,0,0,0,0,-1,1392,1604,0,0
175,-580,0,0,0,0,0,0,0,0,0,-1,1399,1604,0,0
182,-580,0,0,0,0,0,0,0,0,0,-1,1406,1604,0,0
189,-580,0,0,0,0,0,0,0,0,0,-1,1413,1604,0,0
196,-580,0,0,0,0,0,0,0,0,0,-1,1420,1604,0,0
203,-580,0,0,0,0,0,0,0,0,0,-1,1427,1604,0,0
210,-580,0,0,0,0,0,0,0,0,0,-1,1434,1604,0,0
217,-580,0,0,0,0,0,0,0,0,0,-1,1441,1604,0,0
224,-580,0,0,0,0,0,0,0,0,0,-1,1448,1604,0,0
231,-580,0,0,0,0,0,0,0,0,0,-1,1455,1604,0,0
238,-580,0,0,0,0,0,0,0,0,0,-1,1462,1604,0,0
245,-580,0,0,0,0,0,0,0,0,0,-1,1469,1604,0,0
252,-580,0,0,0,0,0,0,0,0,0,-1,1476,1604,0,0
259,-580,0,0,0,0,0,0,0,0,0,-1,1483,1604,0,0
266,-580,0,0,0,0,0,0,0,0,0,-1,1490,1604,0,0
273,-580,0,0,0,0,0,0,0,0,0,-1,1497,1604,0,0
280,-580,0,0,0,0,0,0,0,0,0,-1,1504,1604,0,0
287,-580,0,0,0,0,0,0,0,0,0,-1,1511,1604,0,0
294,-580,2.65076,0.263794,0,0,0,0,0,0,0,-1,1518,1604,2.65075,-0.26377
301,-580,2.13599,0.0996094,0,0,0,0,0,0,0,-1,1525,1604,2.13595,-0.0996665
308,-580,4.81213,2.71667,0,0,0,0,0,0,0,-1,1532,1604,4.81212,-2.71671
315,-580,4.33521,2.71655,-0.0215881,0.0520301,-0.00206075,0.0520877,-0.0216457,-1.54283,0.0437627,0.0457704,1539,1604,4.33518,-2.71651
322,-580,4.27612,2.44983,-0.0259815,0.0543003,-0.00308177,0.0544184,-0.0260996,-1.53248,0.0474358,0.0458931,1546,1604,4.27607,-2.44987
329,-580,3.99329,2.14539,-0.0298888,0.0531256,-0.00332046,0.0532582,-0.0300214,-1.53088,0.0487014,0.044148,1553,1604,3.99329,-2.14539
336,-580,3.77295,1.65588,-0.0336461,0.0487067,-0.00314588,0.0488267,-0.0337661,-1.53267,0.0479485,0.0432601,1560,1604,3.773,-1.65591
343,-580,3.32227,1.39636,0,0,0,0,0,0,0,-1,1567,1604,3.32222,-1.39633
350,-580,4.28577,-0.284912,0,0,0,0,0,0,0,-1,1574,1604,4.28582,0.284883
357,-580,4.36365,-0.03479,0,0,0,0,0,0,0,-1,1581,1604,4.36366,0.0347334
364,-580,2.79529,0.697388,0,0,0,0,0,0,0,-1,1588,1604,2.79534,-0.697417
371,-580,2.48462,0.621216,0,0,0,0,0,0,0,-1,1595,1604,2.48468,-0.621213
378,-580,2.31775,0.622803,0,0,0,0,0,0,0,-1,1602,1604,2.31769,-0.622789
385,-580,1.31519,1.27661,0,0,0,0,0,0,0,-1,1609,1604,1.31516,-1.27663
392,-580,2.79553,2.91797,0,0,0,0,0,0,0,-1,1616,1604,2.79557,-2.91796
399,-580,2.1001,3.90161,0,0,0,0,0,0,0,-1,1623,1604,2.10004,-3.90159
406,-580,2.00061,3.38037,-0.00572928,0.00176712,-0.00180068,0.00217722,-0.00613938,-1.34687,0.00497992,0.0415604,1630,1604,2.00066,-3.3804
413,-580,2.42688,2.77661,-0.0042265,0.00539983,-0.00239224,0.00596155,-0.00478821,-1.34017,0.00621869,0.0441322,1637,1604,2.42692,-2.77664
420,-580,2.43018,2.57092,-0.00370826,0.00571779,-0.00240293,0.00629501,-0.00428548,-1.33505,0.00614526,0.0397104,1644,1604,2.43014,-2.57087
427,-580,2.5144,2.44897,-0.00383985,0.00521969,-0.00155445,0.00547898,-0.00409914,-1.40551,0.00554903,0.0320075,1651,1604,2.51446,-2.44897
434,-580,2.60803,2.43787,-0.00392694,0.00476958,-0.000853356,0.00485253,-0.00400989,-1.4739,0.00512442,0.0217289,1658,1604,2.60808,-2.43782
441,-580,2.61401,2.36633,-0.00388366,0.00419445,-0.000315696,0.00420677,-0.00389598,-1.5318,0.00467927,0.0111481,1665,1604,2.614,-2.36632
448,-580,2.6333,2.34546,-0.00385189,0.00352469,0.000137687,0.00352726,-0.00385445,1.55214,0.00426323,0.0111092,1672,1604,2.6333,-2.3454
455,-580,2.63733,2.31555,-0.00366611,0.00302473,0.00029875,0.00303804,-0.00367942,1.52626,0.00388422,0.0171808,1679,1604,2.63734,-2.31554
462,-580,2.6001,2.24341,-0.00332796,0.0023416,0.000364899,0.00236499,-0.00335135,1.50679,0.00331667,0.0223593,1686,1604,2.60004,-2.2434
469,-580,2.62134,2.19592,-0.0026583,0.00182958,0.000522036,0.00188951,-0.00271822,1.45651,0.00267458,0.020814,1693,1604,2.62135,-2.19595
476,-580,2.64551,2.18506,-0.00218071,0.00156847,0.000561335,0.00165071,-0.00226295,1.42532,0.00226875,0.0153618,1700,1604,2.64548,-2.18501
483,-580,2.61731,2.16492,-0.00194572,0.00153741,0.000349245,0.00157208,-0.00198039,1.47184,0.00205553,0.0123142,1707,1604,2.61735,-2.16493
490,-580,2.60327,2.12939,-0.00153029,0.00145502,1.70073e-05,0.00145512,-0.00153039,1.5651,0.00172387,0.0131578,1714,1604,2.60329,-2.12934
497,-580,2.61951,2.10547,-0.000971623,0.00153735,-0.000823023,0.00178323,-0.0012175,-1.28048,0.00174271,0.0106628,1721,1604,2.61949,-2.10551
504,-580,2.62366,2.05981,-0.000560561,0.00208222,-0.00198491,0.00314535,-0.00162369,-1.07907,0.00279974,0.0160284,1728,1604,2.62361,-2.05987
511,-580,2.62988,2.01331,0.000144061,0.00375177,-0.00356,0.00593884,-0.00204301,-1.0199,0.0047878,0.0160654,1735,1604,2.6299,-2.01331
518,-580,2.65479,1.97388,0.00072643,0.00677756,-0.0059804,0.0104542,-0.00295018,-1.01958,0.0081332,0.0146832,1742,1604,2.65474,-1.97394
525,-580,2.62671,1.94641,0.00151584,0.0104416,-0.0086538,0.0157155,-0.0037581,-1.02347,0.0119287,0.0168595,1749,1604,2.62675,-1.94647
532,-580,2.62939,1.92798,0.00296534,0.0140391,-0.011627,0.0213803,-0.00437583,-1.00762,0.015914,0.0168147,1756,1604,2.62942,-1.92795
539,-580,2.68982,1.948,0.00384729,0.0175239,-0.0152759,0.0274223,-0.00605109,-0.995848,0.020597,0.0208929,1763,1604,2.68979,-1.948
546,-580,2.81396,2.07654,0.005224,0.0224398,-0.0193926,0.0350491,-0.00738526,-0.994273,0.0261774,0.0375944,1770,1604,2.81399,-2.0765
553,-580,2.47681,1.84521,0.0068371,0.0281969,-0.0237908,0.0435951,-0.00856103,-0.996371,0.0322975,0.0464746,1777,1604,2.47678,-1.84523
560,-580,2.48682,1.84424,0,0,0,0,0,0,0,-1,1784,1604,2.4868,-1.84422
567,-580,2.66003,0.898315,0,0,0,0,0,0,0,-1,1791,1604,2.66003,-0.898358
574,-580,2.59363,0.502075,0,0,0,0,0,0,0,-1,1798,1604,2.59359,-0.502044
581,-580,3.81091,0.87207,0.0137668,0.0506715,-0.0408934,0.0770829,-0.0126446,-0.997336,0.0560807,0.0429813,1805,1604,3.81087,-0.872055
588,-580,3.68542,1.0697,0.0153157,0.0549013,-0.0442399,0.0835742,-0.0133572,-0.995742,0.0606607,0.0492494,1812,1604,3.68539,-1.06966
595,-580,0,0,0,0,0,0,0,0,0,-1,1819,1604,0,0
602,-580,0,0,0,0,0,0,0,0,0,-1,1826,1604,0,0
609,-580,0,0,0,0,0,0,0,0,0,-1,1833,1604,0,0
616,-580,0,0,0,0,0,0,0,0,0,-1,1840,1604,0,0
623,-580,0,0,0,0,0,0,0,0,0,-1,1847,1604,0,0
630,-580,0,0,0,0,0,0,0,0,0,-1,1854,1604,0,0
637,-580,0,0,0,0,0,0,0,0,0,-1,1861,1604,0,0
644,-580,0,0,0,0,0,0,0,0,0,-1,1868,1604,0,0
651,-580,0,0,0,0,0,0,0,0,0,-1,1875,1604,0,0
658,-580,0,0,0,0,0,0,0,0,0,-1,1882,1604,0,0
665,-580,0,0,0,0,0,0,0,0,0,-1,1889,1604,0,0
672,-580,0,0,0,0,0,0,0,0,0,-1,1896,1604,0,0
679,-580,0,0,0,0,0,0,0,0,0,-1,1903,1604,0,0
686,-580,0,0,0,0,0,0,0,0,0,-1,1910,1604,0,0
693,-580,0,0,0,0,0,0,0,0,0,-1,1917,1604,0,0
700,-580,0,0,0,0,0,0,0,0,0,-1,1924,1604,0,0
707,-580,0,0,0,0,0,0,0,0,0,-1,1931,1604,0,0
714,-580,0,0,0,0,0,0,0,0,0,-1,1938,1604,0,0
721,-580,0,0,0,0,0,0,0,0,0,-1,1945,1604,0,0
728,-580,0,0,0,0,0,0,0,0,0,-1,1952,1604,0,0
735,-580,0,0,0,0,0,0,0,0,0,-1,1959,1604,0,0
742,-580,0,0,0,0,0,0,0,0,0,-1,1966,1604,0,0
749,-580,0,0,0,0,0,0,0,0,0,-1,1973,1604,0,0
756,-580,0,0,0,0,0,0,0,0,0,-1,1980,1604,0,0
763,-580,0,0,0,0,0,0,0,0,0,-1,1987,1604,0,0
770,-580,0,0,0,0,0,0,0,0,0,-1,1994,1604,0,0
777,-580,0,0,0,0,0,0,0,0,0,-1,2001,1604,0,0
784,-580,0,0,0,0,0,0,0,0,0,-1,2008,1604,0,0
791,-580,0,0,0,0,0,0,0,0,0,-1,2015,1604,0,0
798,-580,0,0,0,0,0,0,0,0,0,-1,2022,1604,0,0
805,-580,0,0,0,0,0,0,0,0,0,-1,2029,1604,0,0
812,-580,0,0,0,0,0,0,0,0,0,-1,2036,1604,0,0
-700,-587,0,0,0,0,0,0,0,0,0,-1,524,1611,0,0
-693,-587,0,0,0,0,0,0,0,0,0,-1,531,1611,0,0
-686,-587,0,0,0,0,0,0,0,0,0,-1,538,1611,0,0
-679,-587,0,0,0,0,0,0,0,0,0,-1,545,1611,0,0
-672,-587,0,0,0,0,0,0,0,0,0,-1,552,1611,0,0
-665,-587,0,0,0,0,0,0,0,0,0,-1,559,1611,0,0
-658,-587,0,0,0,0,0,0,0,0,0,-1,566,1611,0,0
-651,-587,0,0,0,0,0,0,0,0,0,-1,573,1611,0,0
-644,-587,0,0,0,0,0,0,0,0,0,-1,580,1611,0,0
-637,-587,0,0,0,0,0,0,0,0,0,-1,587,1611,0,0
-630,-587,0,0,0,0,0,0,0,0,0,-1,594,1611,0,0
-623,-587,0,0,0,0,0,0,0,0,0,-1,601,1611,0,0
-616,-587,0,0,0,0,0,0,0,0,0,-1,608,1611,0,0
-609,-587,0,0,0,0,0,0,0,0,0,-1,615,1611,0,0
-602,-587,0,0,0,0,0,0,0,0,0,-1,622,1611,0,0
-595,-587,0,0,0,0,0,0,0,0,0,-1,629,1611,0,0
-588,-587,0,0,0,0,0,0,0,0,0,-1,636,1611,0,0
-581,-587,0,0,0,0,0,0,0,0,0,-1,643,1611,0,0
-574,-587,0,0,0,0,0,0,0,0,0,-1,650,1611,0,0
-567,-587,0,0,0,0,0,0,0,0,0,-1,657,1611,0,0
-560,-587,0,0,0,0,0,0,0,0,0,-1,664,1611,0,0
-553,-587,0,0,0,0,0,0,0,0,0,-1,671,1611,0,0
-546,-587,0,0,0,0,0,0,0,0,0,-1,678,1611,0,0
-539,-587,0,0,0,0,0,0,0,0,0,-1,685,1611,0,0
-532,-587,0,0,0,0,0,0,0,0,0,-1,692,1611,0,0
-525,-587,0,0,0,0,0,0,0,0,0,-1,699,1611,0,0
-518,-587,0,0,0,0,0,0,0,0,0,-1,706,1611,0,0
-511,-587,0,0,0,0,0,0,0,0,0,-1,713,1611,0,0
-504,-587,0,0,0,0,0,0,0,0,0,-1,720,1611,0,0
-497,-587,0,0,0,0,0,0,0,0,0,-1,727,1611,0,0
-490,-587,0,0,0,0,0,0,0,0,0,-1,734,1611,0,0
-483,-587,0,0,0,0,0,0,0,0,0,-1,741,1611,0,0
-476,-587,0,0,0,0,0,0,0,0,0,-1,748,1611,0,0
-469,-587,0,0,0,0,0,0,0,0,0,-1,755,1611,0,0
-462,-587,0.64624,0.460938,0.0183961,0.070036,0.0143526,0.073757,0.0146751,1.31713,0.0450829,0.0458235,762,1611,0.646256,-0.460985
-455,-587,0.292358,0.40979,0.00926963,0.0663364,0.0103704,0.0681625,0.00744352,1.39649,0.0431749,0.0452771,769,1611,0.292363,-0.409787
-448,-587,-0.0259399,0.824585,0.00343832,0.0625492,0.00846112,0.0637364,0.00225104,1.43139,0.0417608,0.0472101,776,1611,-0.0259501,-0.824551
-441,-587,-0.219482,1.04553,-0.00100278,0.0581144,0.00758312,0.0590716,-0.00195999,1.44523,0.0400504,0.0476532,783,1611,-0.219504,-1.04559
-434,-587,2.82367,1.54858,0,0,0,0,0,0,0,-1,790,1611,2.82364,-1.54853
-427,-587,2.31647,1.14844,0,0,0,0,0,0,0,-1,797,1611,2.31646,-1.1484
-420,-587,1.45703,1.87842,-0.00714283,0.0403194,0.00908903,0.0420004,-0.00882385,1.38791,0.0313581,0.0449857,804,1611,1.45705,-1.87838
-413,-587,1.28796,1.68823,-0.00719761,0.0338284,0.00933105,0.035851,-0.00922017,1.35734,0.0274943,0.0454353,811,1611,1.28795,-1.68827
-406,-587,1.50116,1.84924,-0.00619031,0.0272591,0.0088864,0.0294733,-0.00840456,1.3266,0.0229688,0.0450956,818,1611,1.50114,-1.84921
-399,-587,1.57306,1.88965,-0.00493166,0.0214944,0.00806105,0.0237593,-0.0071965,1.2969,0.0187056,0.0340729,825,1611,1.57305,-1.8897
-392,-587,1.53851,1.91675,-0.00478829,0.0155508,0.00836763,0.0185508,-0.00778829,1.22655,0.0156243,0.0240171,832,1611,1.53851,-1.91671
-385,-587,1.51642,1.96619,-0.00443697,0.0106202,0.00757794,0.0137736,-0.00759037,1.17646,0.0125055,0.0148613,839,1611,1.51642,-1.96618
-378,-587,1.49731,2.01392,-0.00312983,0.00690511,0.00650463,0.0101026,-0.00632729,1.11392,0.0095689,0.0131712,846,1611,1.49729,-2.01392
-371,-587,1.49689,2.06909,-0.00187474,0.00425945,0.00531646,0.00733009,-0.00494538,1.04703,0.00713169,0.0133763,853,1611,1.49691,-2.06904
-364,-587,1.5058,2.09851,-0.000648937,0.00183887,0.00398699,0.0047715,-0.00358156,0.936609,0.00483893,0.0162189,860,1611,1.50578,-2.09846
-357,-587,1.52686,2.10535,-0.000341986,0.000331717,0.0026278,0.00264417,-0.00265444,0.849144,0.00305916,0.0165502,867,1611,1.52685,-2.1053
-350,-587,1.53064,2.14404,-0.000612717,0.000109799,0.00127532,0.00107404,-0.00157696,0.923417,0.00153971,0.0101293,874,1611,1.53066,-2.14401
-343,-587,1.51868,2.19983,-0.000510792,0.000164456,0.000660926,0.000569,-0.000915336,1.02154,0.000864723,0.0125021,881,1611,1.5187,-2.19979
-336,-587,1.51251,2.22607,-0.000598494,0.000583456,-0.000485187,0.00075711,-0.000772148,-1.22709,0.000882932,0.0121822,888,1611,1.51254,-2.22606
-329,-587,1.5022,2.2478,-0.000770045,0.000747487,-0.00160768,0.00176647,-0.00178902,-1.00588,0.00205278,0.0136813,895,1611,1.50219,-2.24779
-322,-587,1.50079,2.31042,-0.000996198,0.0011825,-0.00253121,0.00284882,-0.00266251,-0.988603,0.00318257,0.0163644,902,1611,1.50079,-2.31048
-315,-587,1.50098,2.3363,-0.0011911,0.00154165,-0.00356493,0.00399309,-0.00364253,-0.968404,0.00440997,0.0139797,909,1611,1.50099,-2.33629
-308,-587,1.49542,2.39868,-0.00140568,0.00193891,-0.00474795,0.00530046,-0.00476723,-0.954721,0.0058153,0.014157,916,1611,1.49543,-2.39874
-301,-587,1.51642,2.42615,-0.00170787,0.00228862,-0.00621708,0.00682069,-0.00623994,-0.94089,0.00754305,0.0114034,923,1611,1.5164,-2.42612
-294,-587,1.52844,2.43774,-0.00147951,0.0011408,-0.0072686,0.00721638,-0.00755509,-0.874565,0.00852906,0.0123143,930,1611,1.52843,-2.43777
-287,-587,1.5144,2.50464,-0.000617169,-0.000279656,-0.00785216,0.00740556,-0.00830239,-0.796142,0.00907392,0.0214317,937,1611,1.51439,-2.50461
-280,-587,1.46747,2.54846,0.000531225,-0.00149557,-0.00737216,0.00695931,-0.00792366,-0.717095,0.0085987,0.0316398,944,1611,1.4675,-2.54847
-273,-587,1.47229,2.55457,0.00348901,-0.00190362,-0.00530841,0.00674663,-0.00516123,-0.550411,0.00689529,0.0379046,951,1611,1.47231,-2.55455
-266,-587,1.70355,2.44861,0.00564245,-0.00159523,-0.00236264,0.00634543,-0.00229821,-0.289196,0.00516954,0.0421381,958,1611,1.70354,-2.44862
-259,-587,1.76715,2.19922,0.00491309,-0.00468609,-6.78729e-05,0.00491357,-0.00468657,-0.00707022,0.00554316,0.0451353,965,1611,1.76713,-2.19924
-252,-587,2.16992,-0.393555,0,0,0,0,0,0,0,-1,972,1611,2.16994,0.393494
-245,-587,2.1698,0.281128,0,0,0,0,0,0,0,-1,979,1611,2.16983,-0.281113
-238,-587,2.26001,1.05469,0,0,0,0,0,0,0,-1,986,1611,2.26001,-1.05474
-231,-587,2.91547,2.86121,0,0,0,0,0,0,0,-1,993,1611,2.91544,-2.86125
-224,-587,3.09528,3.89417,-0.000953077,-0.0202815,0.0242017,0.0154426,-0.0366771,0.595438,0.0309126,0.0448314,1000,1611,3.09525,-3.89419
-217,-587,3.64532,3.98975,-0.00845508,-0.0202269,0.0239259,0.0102983,-0.0389803,0.66479,0.0300144,0.042769,1007,1611,3.64533,-3.98977
-210,-587,2.71075,3.28613,-0.0173999,-0.0175769,0.0218851,0.00439694,-0.0393737,0.783376,0.0278308,0.0437186,1014,1611,2.71074,-3.28618
-203,-587,1.99036,2.69861,0,0,0,0,0,0,0,-1,1021,1611,1.99036,-2.69863
-196,-587,1.28979,2.33777,0,0,0,0,0,0,0,-1,1028,1611,1.28983,-2.33781
-189,-587,0.554565,2.01929,0,0,0,0,0,0,0,-1,1035,1611,0.554606,-2.01934
-182,-587,2.47632,-0.392822,0,0,0,0,0,0,0,-1,1042,1611,2.47637,0.39282
-175,-587,2.6499,-0.411133,0,0,0,0,0,0,0,-1,1049,1611,2.64995,0.411131
-168,-587,3.26111,-0.20105,0,0,0,0,0,0,0,-1,1056,1611,3.26115,0.201013
-161,-587,3.72046,-0.170044,0,0,0,0,0,0,0,-1,1063,1611,3.72042,0.169996
-154,-587,-0.276001,5.50354,0,0,0,0,0,0,0,-1,1070,1611,-0.276038,-5.50359
-147,-587,0,0,0,0,0,0,0,0,0,-1,1077,1611,0,0
-140,-587,0,0,0,0,0,0,0,0,0,-1,1084,1611,0,0
-133,-587,0,0,0,0,0,0,0,0,0,-1,1091,1611,0,0
-126,-587,0,0,0,0,0,0,0,0,0,-1,1098,1611,0,0
-119,-587,0,0,0,0,0,0,0,0,0,-1,1105,1611,0,0
-112,-587,0,0,0,0,0,0,0,0,0,-1,1112,1611,0,0
-105,-587,0,0,0,0,0,0,0,0,0,-1,1119,1611,0,0
-98,-587,0,0,0,0,0,0,0,0,0,-1,1126,1611,0,0
-91,-587,0,0,0,0,0,0,0,0,0,-1,1133,1611,0,0
-84,-587,0,0,0,0,0,0,0,0,0,-1,1140,1611,0,0
-77,-587,0,0,0,0,0,0,0,0,0,-1,1147,1611,0,0
-70,-587,0,0,0,0,0,0,0,0,0,-1,1154,1611,0,0
-63,-587,0,0,0,0,0,0,0,0,0,-1,1161,1611,0,0
-56,-587,0,0,0,0,0,0,0,0,0,-1,1168,1611,0,0
-49,-587,0,0,0,0,0,0,0,0,0,-1,1175,1611,0,0
-42,-587,0,0,0,0,0,0,0,0,0,-1,1182,1611,0,0
-35,-587,0,0,0,0,0,0,0,0,0,-1,1189,1611,0,0
-28,-587,0,0,0,0,0,0,0,0,0,-1,1196,1611,0,0
-21,-587,0,0,0,0,0,0,0,0,0,-1,1203,1611,0,0
-14,-587,0,0,0,0,0,0,0,0,0,-1,1210,1611,0,0
-7,-587,0,0,0,0,0,0,0,0,0,-1,1217,1611,0,0
0,-587,0,0,0,0,0,0,0,0,0,-1,1224,1611,0,0
7,-587,0,0,0,0,0,0,0,0,0,-1,1231,1611,0,0
14,-587,0,0,0,0,0,0,0,0,0,-1,1238,1611,0,0
21,-587,0,0,0,0,0,0,0,0,0,-1,1245,1611,0,0
28,-587,0,0,0,0,0,0,0,0,0,-1,1252,1611,0,0
35,-587,0,0,0,0,0,0,0,0,0,-1,1259,1611,0,0
42,-587,0,0,0,0,0,0,0,0,0,-1,1266,1611,0,0
49,-587,0,0,0,0,0,0,0,0,0,-1,1273,1611,0,0
56,-587,0,0,0,0,0,0,0,0,0,-1,1280,1611,0,0
63,-587,0,0,0,0,0,0,0,0,0,-1,1287,1611,0,0
70,-587,0,0,0,0,0,0,0,0,0,-1,1294,1611,0,0
77,-587,0,0,0,0,0,0,0,0,0,-1,1301,1611,0,0
84,-587,0,0,0,0,0,0,0,0,0,-1,1308,1611,0,0
91,-587,0,0,0,0,0,0,0,0,0,-1,1315,1611,0,0
98,-587,0,0,0,0,0,0,0,0,0,-1,1322,1611,0,0
105,-587,0,0,0,0,0,0,0,0,0,-1,1329,1611,0,0
112,-587,0,0,0,0,0,0,0,0,0,-1,1336,1611,0,0
119,-587,0,0,0,0,0,0,0,0,0,-1,1343,1611,0,0
126,-587,0,0,0,0,0,0,0,0,0,-1,1350,1611,0,0
133,-587,0,0,0,0,0,0,0,0,0,-1,1357,1611,0,0
140,-587,0,0,0,0,0,0,0,0,0,-1,1364,1611,0,0
147,-587,0,0,0,0,0,0,0,0,0,-1,1371,1611,0,0
154,-587,0,0,0,0,0,0,0,0,0,-1,1378,1611,0,0
161,-587,0,0,0,0,0,0,0,0,0,-1,1385,1611,0,0
168,-587,0,0,0,0,0,0,0,0,0,-1,1392,1611,0,0
175,-587,0,0,0,0,0,0,0,0,0,-1,1399,1611,0,0
182,-587,0,0,0,0,0,0,0,0,0,-1,1406,1611,0,0
189,-587,0,0,0,0,0,0,0,0,0,-1,1413,1611,0,0
196,-587,0,0,0,0,0,0,0,0,0,-1,1420,1611,0,0
203,-587,0,0,0,0,0,0,0,0,0,-1,1427,1611,0,0
210,-587,0,0,0,0,0,0,0,0,0,-1,1434,1611,0,0
217,-587,0,0,0,0,0,0,0,0,0,-1,1441,1611,0,0
224,-587,0,0,0,0,0,0,0,0,0,-1,1448,1611,0,0
231,-587,0,0,0,0,0,0,0,0,0,-1,1455,1611,0,0
238,-587,0,0,0,0,0,0,0,0,0,-1,1462,1611,0,0
245,-587,0,0,0,0,0,0,0,0,0,-1,1469,1611,0,0
252,-587,0,0,0,0,0,0,0,0,0,-1,1476,1611,0,0
259,-587,0,0,0,0,0,0,0,0,0,-1,1483,1611,0,0
266,-587,0,0,0,0,0,0,0,0,0,-1,1490,1611,0,0
273,-587,2.50427,0.223633,0.00703369,-0.0267327,-0.0129046,0.0114007,-0.0310997,-0.32631,0.025401,0.0431209,1497,1611,2.5043,-0.223663
280,-587,2.51746,0.21106,0.00139688,-0.0158736,-0.00875262,0.005057,-0.0195337,-0.396075,0.0149951,0.0418218,1504,1611,2.51746,-0.211024
287,-587,2.61511,0.397339,-0.00288294,-0.00422404,-0.00347166,-1.76604e-05,-0.00708932,-0.689998,0.00472034,0.0386787,1511,1611,2.61513,-0.397386
294,-587,2.74292,0.502441,-0.00661857,0.00849772,0.0007333,0.00853321,-0.00665406,1.52244,0.00879072,0.04447,1518,1611,2.74295,-0.502403
301,-587,2.61719,0.503662,0,0,0,0,0,0,0,-1,1525,1611,2.61718,-0.503608
308,-587,2.48389,0.783325,0,0,0,0,0,0,0,-1,1532,1611,2.48386,-0.783352
315,-587,3.90503,2.4436,0,0,0,0,0,0,0,-1,1539,1611,3.90509,-2.44359
322,-587,3.39771,2.34058,0,0,0,0,0,0,0,-1,1546,1611,3.39774,-2.34062
329,-587,3.99963,1.40796,0,0,0,0,0,0,0,-1,1553,1611,3.99965,-1.40801
336,-587,3.80286,1.32813,0,0,0,0,0,0,0,-1,1560,1611,3.80291,-1.32814
343,-587,4.74646,0.243408,0,0,0,0,0,0,0,-1,1567,1611,4.74641,-0.243378
350,-587,4.61389,0.605347,0,0,0,0,0,0,0,-1,1574,1611,4.61392,-0.605297
357,-587,4.4364,0.971802,0,0,0,0,0,0,0,-1,1581,1611,4.4364,-0.971749
364,-587,4.60608,1.48279,0,0,0,0,0,0,0,-1,1588,1611,4.60605,-1.4828
371,-587,1.74292,0.494507,0,0,0,0,0,0,0,-1,1595,1611,1.74292,-0.494523
378,-587,2.23108,0.321167,0,0,0,0,0,0,0,-1,1602,1611,2.23103,-0.321142
385,-587,2.22412,3.2124,0,0,0,0,0,0,0,-1,1609,1611,2.22415,-3.2124
392,-587,2.58008,2.98462,-0.00418891,-0.00672313,0.00211129,-0.00299368,-0.00791835,0.51513,0.00461675,0.0493277,1616,1611,2.58011,-2.98456
399,-587,2.94116,2.5094,-0.00249504,-0.00170263,0.00057859,-0.00139759,-0.00280008,1.08561,0.00161663,0.0456641,1623,1611,2.94121,-2.50942
406,-587,1.51819,2.95435,0,0,0,0,0,0,0,-1,1630,1611,1.51822,-2.95433
413,-587,2.58887,2.54272,-0.000727922,0.00471587,-0.00116568,0.00495497,-0.000967026,-1.36848,0.00366839,0.030639,1637,1611,2.58884,-2.54267
420,-587,2.52429,2.51648,-0.000605566,0.00511106,-0.00149396,0.00547794,-0.000972448,-1.32999,0.00401555,0.0253974,1644,1611,2.52429,-2.51649
427,-587,2.56714,2.44592,-0.00106853,0.00471681,-0.000982365,0.00487907,-0.00123078,-1.4071,0.00373126,0.0172773,1651,1611,2.56716,-2.44592
434,-587,2.58301,2.39697,-0.0014543,0.00435889,-0.000551678,0.00441078,-0.00150619,-1.47701,0.00355072,0.0118086,1658,1611,2.58299,-2.39699
441,-587,2.58093,2.35339,-0.00170393,0.00386017,-0.000210407,0.00386811,-0.00171187,-1.53305,0.00330081,0.0158828,1665,1611,2.58089,-2.35344
448,-587,2.59814,2.34082,-0.00195265,0.00324414,0.000126629,0.00324722,-0.00195573,1.54645,0.00303462,0.0152304,1672,1611,2.59808,-2.34079
455,-587,2.62158,2.32312,-0.0020461,0.00281081,0.000209002,0.00281979,-0.00205507,1.52787,0.00282602,0.0137697,1679,1611,2.62154,-2.32318
462,-587,2.59302,2.25671,-0.00198583,0.00232486,0.000183849,0.00233268,-0.00199366,1.52825,0.00250037,0.0175625,1686,1611,2.59305,-2.25677
469,-587,2.59509,2.20789,-0.00162546,0.00185575,0.000306687,0.00188256,-0.00165227,1.48359,0.00204228,0.0162551,1693,1611,2.59505,-2.20789
476,-587,2.62244,2.18079,-0.00142807,0.00160528,0.000344386,0.00164389,-0.00146668,1.45916,0.00179686,0.0107544,1700,1611,2.62242,-2.18076
483,-587,2.57874,2.1499,-0.00136668,0.00173308,8.48786e-05,0.0017354,-0.00136901,1.54344,0.00179649,0.0131738,1707,1611,2.57869,-2.14989
490,-587,2.55872,2.11304,-0.00110755,0.00182839,-0.000206892,0.0018429,-0.00112206,-1.50079,0.0017286,0.0150425,1714,1611,2.55877,-2.113
497,-587,2.56335,2.08545,-0.000635057,0.00221568,-0.00132786,0.00273836,-0.00115774,-1.1958,0.00231029,0.0114518,1721,1611,2.56334,-2.08546
504,-587,2.56531,2.07214,-0.000314066,0.00325978,-0.0029422,0.00491519,-0.00196947,-1.0583,0.00409435,0.0114744,1728,1611,2.56531,-2.07212
511,-587,2.56433,2.03467,0.000419951,0.00559049,-0.00517404,0.00878919,-0.00277875,-1.01709,0.00697278,0.0135715,1735,1611,2.56439,-2.03465
518,-587,2.60364,1.98547,0.00115214,0.0094713,-0.00840066,0.0146858,-0.00406235,-1.01528,0.0113888,0.0136246,1742,1611,2.60363,-1.98553
525,-587,2.60315,1.95959,0.0021228,0.0141538,-0.0119521,0.0215188,-0.00524227,-1.01854,0.0163754,0.0162443,1749,1611,2.60319,-1.95961
532,-587,2.55542,1.89551,0.00392233,0.0187362,-0.0157621,0.028745,-0.00608645,-1.00505,0.0214815,0.0260592,1756,1611,2.55542,-1.89555
539,-587,2.69409,1.94238,0.00514854,0.0232702,-0.0203941,0.0365257,-0.00810693,-0.994445,0.0274547,0.036708,1763,1611,2.6941,-1.94238
546,-587,2.86829,2.0614,0,0,0,0,0,0,0,-1,1770,1611,2.86824,-2.06141
553,-587,2.55774,1.55786,0,0,0,0,0,0,0,-1,1777,1611,2.55773,-1.55782
560,-587,3.22693,0.616943,0,0,0,0,0,0,0,-1,1784,1611,3.22691,-0.616974
567,-587,3.13953,0.160522,0.0135359,0.0493204,-0.0409943,0.0761569,-0.0133007,-0.991166,0.0557364,0.0444507,1791,1611,3.13952,-0.160512
574,-587,2.93066,-0.440552,0.0158131,0.0549532,-0.0452175,0.0846539,-0.0138876,-0.989627,0.0615893,0.0442915,1798,1611,2.93065,0.440491
581,-587,4.00391,0.903564,0.0180814,0.0590812,-0.0487969,0.0915094,-0.0143468,-0.984258,0.0663079,0.0422984,1805,1611,4.0039,-0.903537
588,-587,0,0,0,0,0,0,0,0,0,-1,1812,1611,0,0
595,-587,0,0,0,0,0,0,0,0,0,-1,1819,1611,0,0
602,-587,0,0,0,0,0,0,0,0,0,-1,1826,1611,0,0
609,-587,0,0,0,0,0,0,0,0,0,-1,1833,1611,0,0
616,-587,0,0,0,0,0,0,0,0,0,-1,1840,1611,0,0
623,-587,0,0,0,0,0,0,0,0,0,-1,1847,1611,0,0
630,-587,0,0,0,0,0,0,0,0,0,-1,1854,1611,0,0
637,-587,0,0,0,0,0,0,0,0,0,-1,1861,1611,0,0
644,-587,0,0,0,0,0,0,0,0,0,-1,1868,1611,0,0
651,-587,0,0,0,0,0,0,0,0,0,-1,1875,1611,0,0
658,-587,0,0,0,0,0,0,0,0,0,-1,1882,1611,0,0
665,-587,0,0,0,0,0,0,0,0,0,-1,1889,1611,0,0
672,-587,0,0,0,0,0,0,0,0,0,-1,1896,1611,0,0
679,-587,0,0,0,0,0,0,0,0,0,-1,1903,1611,0,0
686,-587,0,0,0,0,0,0,0,0,0,-1,1910,1611,0,0
693,-587,0,0,0,0,0,0,0,0,0,-1,1917,1611,0,0
700,-587,0,0,0,0,0,0,0,0,0,-1,1924,1611,0,0
707,-587,0,0,0,0,0,0,0,0,0,-1,1931,1611,0,0
714,-587,0,0,0,0,0,0,0,0,0,-1,1938,1611,0,0
721,-587,0,0,0,0,0,0,0,0,0,-1,1945,1611,0,0
728,-587,0,0,0,0,0,0,0,0,0,-1,1952,1611,0,0
735,-587,0,0,0,0,0,0,0,0,0,-1,1959,1611,0,0
742,-587,0,0,0,0,0,0,0,0,0,-1,1966,1611,0,0
749,-587,0,0,0,0,0,0,0,0,0,-1,1973,1611,0,0
756,-587,0,0,0,0,0,0,0,0,0,-1,1980,1611,0,0
763,-587,0,0,0,0,0,0,0,0,0,-1,1987,1611,0,0
770,-587,0,0,0,0,0,0,0,0,0,-1,1994,1611,0,0
777,-587,0,0,0,0,0,0,0,0,0,-1,2001,1611,0,0
784,-587,0,0,0,0,0,0,0,0,0,-1,2008,1611,0,0
791,-587,0,0,0,0,0,0,0,0,0,-1,2015,1611,0,0
798,-587,0,0,0,0,0,0,0,0,0,-1,2022,1611,0,0
805,-587,0,0,0,0,0,0,0,0,0,-1,2029,1611,0,0
812,-587,0,0,0,0,0,0,0,0,0,-1,2036,1611,0,0
-700,-594,0,0,0,0,0,0,0,0,0,-1,524,1618,0,0
-693,-594,0,0,0,0,0,0,0,0,0,-1,531,1618,0,0
-686,-594,0,0,0,0,0,0,0,0,0,-1,538,1618,0,0
-679,-594,0,0,0,0,0,0,0,0,0,-1,545,1618,0,0
-672,-594,0,0,0,0,0,0,0,0,0,-1,552,1618,0,0
-665,-594,0,0,0,0,0,0,0,0,0,-1,559,1618,0,0
-658,-594,0,0,0,0,0,0,0,0,0,-1,566,1618,0,0
-651,-594,0,0,0,0,0,0,0,0,0,-1,573,1618,0,0
-644,-594,0,0,0,0,0,0,0,0,0,-1,580,1618,0,0
-637,-594,0,0,0,0,0,0,0,0,0,-1,587,1618,0,0
-630,-594,0,0,0,0,0,0,0,0,0,-1,594,1618,0,0
-623,-594,0,0,0,0,0,0,0,0,0,-1,601,1618,0,0
-616,-594,0,0,0,0,0,0,0,0,0,-1,608,1618,0,0
-609,-594,0,0,0,0,0,0,0,0,0,-1,615,1618,0,0
-602,-594,0,0,0,0,0,0,0,0,0,-1,622,1618,0,0
-595,-594,0,0,0,0,0,0,0,0,0,-1,629,1618,0,0
-588,-594,0,0,0,0,0,0,0,0,0,-1,636,1618,0,0
-581,-594,0,0,0,0,0,0,0,0,0,-1,643,1618,0,0
-574,-594,0,0,0,0,0,0,0,0,0,-1,650,1618,0,0
-567,-594,0,0,0,0,0,0,0,0,0,-1,657,1618,0,0
-560,-594,0,0,0,0,0,0,0,0,0,-1,664,1618,0,0
-553,-594,0,0,0,0,0,0,0,0,0,-1,671,1618,0,0
-546,-594,0,0,0,0,0,0,0,0,0,-1,678,1618,0,0
-539,-594,0,0,0,0,0,0,0,0,0,-1,685,1618,0,0
-532,-594,0,0,0,0,0,0,0,0,0,-1,692,1618,0,0
-525,-594,0,0,0,0,0,0,0,0,0,-1,699,1618,0,0
-518,-594,0,0,0,0,0,0,0,0,0,-1,706,1618,0,0
-511,-594,0,0,0,0,0,0,0,0,0,-1,713,1618,0,0
-504,-594,0,0,0,0,0,0,0,0,0,-1,720,1618,0,0
-497,-594,0,0,0,0,0,0,0,0,0,-1,727,1618,0,0
-490,-594,0,0,0,0,0,0,0,0,0,-1,734,1618,0,0
-483,-594,0,0,0,0,0,0,0,0,0,-1,741,1618,0,0
-476,-594,0,0,0,0,0,0,0,0,0,-1,748,1618,0,0
-469,-594,0,0,0,0,0,0,0,0,0,-1,755,1618,0,0
-462,-594,0,0,0,0,0,0,0,0,0,-1,762,1618,0,0
-455,-594,-0.823486,0.49353,0.00647474,0.0836265,0.00634255,0.0841444,0.00595681,1.48932,0.0542199,0.0458934,769,1618,-0.823495,-0.493499
-448,-594,-1.27356,0.714844,0.000548873,0.0793982,0.00518092,0.0797372,0.000209909,1.50546,0.0530883,0.0486982,776,1618,-1.27354,-0.714897
-441,-594,3.0368,1.49524,-0.00419011,0.0740001,0.00554435,0.0743913,-0.00458129,1.50036,0.0511897,0.0484195,783,1618,3.03682,-1.4953
-434,-594,2.75012,1.05872,-0.00744369,0.0673123,0.00714536,0.0679891,-0.00812053,1.47635,0.0482612,0.046445,790,1618,2.75012,-1.05871
-427,-594,2.31818,0.693848,-0.00921865,0.0592532,0.00898133,0.0604116,-0.0103771,1.44252,0.0441419,0.0423501,797,1618,2.31819,-0.693894
-420,-594,1.76813,0.871338,-0.0102472,0.0505023,0.010849,0.0523817,-0.0121266,1.39927,0.0395873,0.0447654,804,1618,1.76812,-0.871352
-413,-594,1.20367,1.24146,-0.0100881,0.0418695,0.0118678,0.0444519,-0.0126705,1.35654,0.0346394,0.0487704,811,1618,1.2037,-1.24142
-406,-594,1.55383,1.86328,0,0,0,0,0,0,0,-1,818,1618,1.55384,-1.86327
-399,-594,1.67145,1.7439,-0.00726646,0.0262191,0.0111989,0.0296191,-0.0106665,1.27603,0.0241017,0.0495566,825,1618,1.67145,-1.74384
-392,-594,1.58844,1.91406,-0.00694312,0.0190587,0.0118042,0.0236181,-0.0115025,1.2022,0.0206751,0.0425,832,1618,1.58844,-1.9141
-385,-594,1.53894,1.96326,-0.00636129,0.0129593,0.0108376,0.0178171,-0.0112191,1.14941,0.0169077,0.0280616,839,1618,1.53895,-1.96328
-378,-594,1.52417,2.02332,-0.00455474,0.00833453,0.00945267,0.0133305,-0.00955066,1.08459,0.0132704,0.0116391,846,1618,1.52418,-2.02333
-371,-594,1.53375,2.06738,-0.00282304,0.00504843,0.00785155,0.00989546,-0.00767007,1.01773,0.0101686,0.010784,853,1618,1.53377,-2.06737
-364,-594,1.53821,2.09534,-0.00124801,0.00211654,0.00604618,0.00671012,-0.0058416,0.921085,0.00725252,0.00992992,860,1618,1.53818,-2.09528
-357,-594,1.55133,2.11292,-0.000779851,0.000258704,0.00424822,0.00401927,-0.00454042,0.846213,0.00494499,0.0103739,867,1618,1.55133,-2.11291
-350,-594,1.54669,2.13794,-0.000959602,-0.000102777,0.00244737,0.00195339,-0.00301577,0.872045,0.00289072,0.0147311,874,1618,1.5467,-2.13795
-343,-594,1.53601,2.19531,-0.00066235,-0.000160514,0.00160192,0.00121002,-0.00203288,0.863085,0.00189228,0.0151329,881,1618,1.536,-2.19528
-336,-594,1.5329,2.22302,-0.00061191,0.00012888,0.000337414,0.000259525,-0.000742555,1.20138,0.000600538,0.0126321,888,1618,1.53291,-2.22301
-329,-594,1.54028,2.26819,-0.000691841,8.54116e-05,-0.000709559,0.0005058,-0.00111223,-1.03594,0.00095579,0.0131395,895,1618,1.54029,-2.26815
-322,-594,1.55035,2.32202,-0.000824902,0.000365311,-0.0014848,0.00136982,-0.00182941,-0.975996,0.00185342,0.0152055,902,1618,1.55037,-2.32204
-315,-594,1.55109,2.33215,-0.000925293,0.000571808,-0.00225508,0.00219933,-0.00255281,-0.945646,0.00274618,0.0158333,909,1618,1.5511,-2.33219
-308,-594,1.53918,2.37109,-0.00105555,0.00082175,-0.00306793,0.00309141,-0.00332522,-0.933854,0.00370546,0.0144114,916,1618,1.53916,-2.37108
-301,-594,1.55414,2.42297,-0.0012809,0.00101609,-0.00403013,0.00405818,-0.00432299,-0.924207,0.00483968,0.0109618,923,1618,1.55414,-2.42301
-294,-594,1.55804,2.45422,-0.000980314,-0.000155112,-0.00455774,0.00400866,-0.00514409,-0.830539,0.00529788,0.010089,930,1618,1.55807,-2.45426
-287,-594,1.56616,2.50171,-9.74379e-05,-0.00149585,-0.00460883,0.00386493,-0.00545821,-0.710117,0.00540885,0.0106811,937,1618,1.56617,-2.50169
-280,-594,1.57483,2.52808,0.000989183,-0.00260368,-0.00374094,0.00334267,-0.00495716,-0.561554,0.00482203,0.0136897,944,1618,1.57481,-2.52803
-273,-594,1.57233,2.51514,0.00352574,-0.00293756,-0.00170999,0.00395027,-0.00336209,-0.243343,0.00422634,0.0240413,951,1618,1.57235,-2.51516
-266,-594,1.56433,2.5343,0.00558016,-0.00243782,0.00109526,0.00572708,-0.00258474,0.133346,0.00491181,0.0329393,958,1618,1.56436,-2.53425
-259,-594,1.63086,2.43799,0.00554775,-0.00473432,0.00336136,0.0065491,-0.00573568,0.289531,0.0070978,0.0400179,965,1618,1.63087,-2.43799
-252,-594,2.03748,0.365601,0,0,0,0,0,0,0,-1,972,1618,2.03746,-0.36557
-245,-594,2.1673,1.08728,0.00692451,-0.00730606,0.0104698,0.012468,-0.0128495,0.486946,0.0146176,0.0458485,979,1618,2.16731,-1.08733
-238,-594,2.32739,1.84399,0.00709485,-0.00889021,0.0141372,0.0153424,-0.0171377,0.52812,0.018762,0.0432157,986,1618,2.32736,-1.84404
-231,-594,2.66656,2.8717,0.00597155,-0.0108154,0.0186607,0.0180396,-0.0228834,0.574057,0.023682,0.0473864,993,1618,2.66655,-2.87172
-224,-594,2.84521,3.54224,0.00273316,-0.0119941,0.0219577,0.018529,-0.02779,0.623613,0.0269199,0.0453127,1000,1618,2.8452,-3.54224
-217,-594,3.19226,3.99768,-0.00283845,-0.0107657,0.0220559,0.0156072,-0.0292113,0.696493,0.0262703,0.0483464,1007,1618,3.19226,-3.99764
-210,-594,3.51202,4.47668,0,0,0,0,0,0,0,-1,1014,1618,3.51202,-4.47663
-203,-594,1.37524,3.25439,0,0,0,0,0,0,0,-1,1021,1618,1.37523,-3.25444
-196,-594,0.667114,2.87354,0,0,0,0,0,0,0,-1,1028,1618,0.667087,-2.87348
-189,-594,-0.0604248,2.54163,0,0,0,0,0,0,0,-1,1035,1618,-0.0604856,-2.54167
-182,-594,1.94519,3.02649,0,0,0,0,0,0,0,-1,1042,1618,1.94518,-3.02644
-175,-594,2.33875,-0.176758,0,0,0,0,0,0,0,-1,1049,1618,2.33877,0.176806
-168,-594,2.58118,0.130371,0,0,0,0,0,0,0,-1,1056,1618,2.58115,-0.130395
-161,-594,0.95459,5.03711,0,0,0,0,0,0,0,-1,1063,1618,0.954647,-5.03706
-154,-594,0.577026,4.88245,0.00146676,0.0739442,-0.0338567,0.0872991,-0.0118881,-1.19508,0.0625399,0.046623,1070,1618,0.576981,-4.88249
-147,-594,0.729004,4.46814,0.00487059,0.0746852,-0.0330273,0.0878333,-0.00827753,-1.19193,0.0615007,0.0430691,1077,1618,0.729016,-4.46819
-140,-594,2.82788,3.59631,0,0,0,0,0,0,0,-1,1084,1618,2.82786,-3.59627
-133,-594,0,0,0,0,0,0,0,0,0,-1,1091,1618,0,0
-126,-594,0,0,0,0,0,0,0,0,0,-1,1098,1618,0,0
-119,-594,0,0,0,0,0,0,0,0,0,-1,1105,1618,0,0
-112,-594,0,0,0,0,0,0,0,0,0,-1,1112,1618,0,0
-105,-594,0,0,0,0,0,0,0,0,0,-1,1119,1618,0,0
-98,-594,0,0,0,0,0,0,0,0,0,-1,1126,1618,0,0
-91,-594,0,0,0,0,0,0,0,0,0,-1,1133,1618,0,0
-84,-594,0,0,0,0,0,0,0,0,0,-1,1140,1618,0,0
-77,-594,0,0,0,0,0,0,0,0,0,-1,1147,1618,0,0
-70,-594,0,0,0,0,0,0,0,0,0,-1,1154,1618,0,0
-63,-594,0,0,0,0,0,0,0,0,0,-1,1161,1618,0,0
-56,-594,0,0,0,0,0,0,0,0,0,-1,1168,1618,0,0
-49,-594,0,0,0,0,0,0,0,0,0,-1,1175,1618,0,0
-42,-594,0,0,0,0,0,0,0,0,0,-1,1182,1618,0,0
-35,-594,0,0,0,0,0,0,0,0,0,-1,1189,1618,0,0
-28,-594,0,0,0,0,0,0,0,0,0,-1,1196,1618,0,0
-21,-594,0,0,0,0,0,0,0,0,0,-1,1203,1618,0,0
-14,-594,0,0,0,0,0,0,0,0,0,-1,1210,1618,0,0
-7,-594,0,0,0,0,0,0,0,0,0,-1,1217,1618,0,0
0,-594,0,0,0,0,0,0,0,0,0,-1,1224,1618,0,0
7,-594,0,0,0,0,0,0,0,0,0,-1,1231,1618,0,0
14,-594,0,0,0,0,0,0,0,0,0,-1,1238,1618,0,0
21,-594,0,0,0,0,0,0,0,0,0,-1,1245,1618,0,0
28,-594,0,0,0,0,0,0,0,0,0,-1,1252,1618,0,0
35,-594,0,0,0,0,0,0,0,0,0,-1,1259,1618,0,0
42,-594,0,0,0,0,0,0,0,0,0,-1,1266,1618,0,0
49,-594,0,0,0,0,0,0,0,0,0,-1,1273,1618,0,0
56,-594,0,0,0,0,0,0,0,0,0,-1,1280,1618,0,0
63,-594,0,0,0,0,0,0,0,0,0,-1,1287,1618,0,0
70,-594,0,0,0,0,0,0,0,0,0,-1,1294,1618,0,0
77,-594,0,0,0,0,0,0,0,0,0,-1,1301,1618,0,0
84,-594,0,0,0,0,0,0,0,0,0,-1,1308,1618,0,0
91,-594,0,0,0,0,0,0,0,0,0,-1,1315,1618,0,0
98,-594,0,0,0,0,0,0,0,0,0,-1,1322,1618,0,0
105,-594,0,0,0,0,0,0,0,0,0,-1,1329,1618,0,0
112,-594,0,0,0,0,0,0,0,0,0,-1,1336,1618,0,0
119,-594,0,0,0,0,0,0,0,0,0,-1,1343,1618,0,0
126,-594,0,0,0,0,0,0,0,0,0,-1,1350,1618,0,0
133,-594,0,0,0,0,0,0,0,0,0,-1,1357,1618,0,0
140,-594,0,0,0,0,0,0,0,0,0,-1,1364,1618,0,0
147,-594,0,0,0,0,0,0,0,0,0,-1,1371,1618,0,0
154,-594,0,0,0,0,0,0,0,0,0,-1,1378,1618,0,0
161,-594,0,0,0,0,0,0,0,0,0,-1,1385,1618,0,0
168,-594,0,0,0,0,0,0,0,0,0,-1,1392,1618,0,0
175,-594,0,0,0,0,0,0,0,0,0,-1,1399,1618,0,0
182,-594,0,0,0,0,0,0,0,0,0,-1,1406,1618,0,0
189,-594,0,0,0,0,0,0,0,0,0,-1,1413,1618,0,0
196,-594,0,0,0,0,0,0,0,0,0,-1,1420,1618,0,0
203,-594,0,0,0,0,0,0,0,0,0,-1,1427,1618,0,0
210,-594,0,0,0,0,0,0,0,0,0,-1,1434,1618,0,0
217,-594,0,0,0,0,0,0,0,0,0,-1,1441,1618,0,0
224,-594,0,0,0,0,0,0,0,0,0,-1,1448,1618,0,0
231,-594,0,0,0,0,0,0,0,0,0,-1,1455,1618,0,0
238,-594,0,0,0,0,0,0,0,0,0,-1,1462,1618,0,0
245,-594,0,0,0,0,0,0,0,0,0,-1,1469,1618,0,0
252,-594,4.09204,4.97961,0,0,0,0,0,0,0,-1,1476,1618,4.09208,-4.97963
259,-594,1.07849,-1.81323,0,0,0,0,0,0,0,-1,1483,1618,1.07855,1.81322
266,-594,2.50623,0.499634,0,0,0,0,0,0,0,-1,1490,1618,2.50621,-0.499663
273,-594,2.66821,0.39978,0.00515786,-0.0341607,-0.0113886,0.00821831,-0.0372212,-0.262529,0.0279591,0.0437183,1497,1618,2.66824,-0.399764
280,-594,2.70361,0.425537,0.000354733,-0.0251153,-0.00557786,0.00152271,-0.0262833,-0.206412,0.0180512,0.0385482,1504,1618,2.70367,-0.425505
287,-594,2.57605,0.642456,-0.00320713,-0.0144135,0.000319302,-0.00319804,-0.0144226,0.028462,0.00874619,0.0393979,1511,1618,2.57609,-0.642482
294,-594,2.55396,0.67395,-0.00609821,-0.00290012,0.00476171,0.000523865,-0.00952219,0.947388,0.00652976,0.0458296,1518,1618,2.55394,-0.673948
301,-594,3.09839,0.907593,0,0,0,0,0,0,0,-1,1525,1618,3.09841,-0.90755
308,-594,3.32861,2.06946,-0.011834,0.0132281,0.00826917,0.0157106,-0.0143165,1.27915,0.0173424,0.0449065,1532,1618,3.32858,-2.06944
315,-594,3.33594,2.18591,-0.0144181,0.0161432,0.00900471,0.0185991,-0.016874,1.30454,0.0204884,0.0465625,1539,1618,3.33592,-2.18591
322,-594,2.9574,2.3551,0,0,0,0,0,0,0,-1,1546,1618,2.95744,-2.3551
329,-594,3.44324,2.67908,0,0,0,0,0,0,0,-1,1553,1618,3.44323,-2.67902
336,-594,3.89844,0.879517,0,0,0,0,0,0,0,-1,1560,1618,3.89846,-0.879498
343,-594,2.95776,2.50061,0,0,0,0,0,0,0,-1,1567,1618,2.95775,-2.50059
350,-594,4.60205,1.96777,0,0,0,0,0,0,0,-1,1574,1618,4.60208,-1.96777
357,-594,4.271,2.22034,-0.0138839,0.00506839,0.00696059,0.00735009,-0.0161656,1.25403,0.0138912,0.0406927,1581,1618,4.27096,-2.22032
364,-594,3.89636,2.42249,-0.0132485,0.000958165,0.0050396,0.0025643,-0.0148547,1.26227,0.0108593,0.0436982,1588,1618,3.89639,-2.42249
371,-594,2.88135,2.85803,0,0,0,0,0,0,0,-1,1595,1618,2.88137,-2.85805
378,-594,2.26013,3.14893,0,0,0,0,0,0,0,-1,1602,1618,2.26008,-3.14898
385,-594,2.31677,3.07043,0,0,0,0,0,0,0,-1,1609,1618,2.31674,-3.07046
392,-594,2.47083,2.93616,0.000304482,-0.00582052,0.00136672,0.000595609,-0.00611165,0.209875,0.00428678,0.0460588,1616,1618,2.47077,-2.93616
399,-594,2.52722,2.66553,0.00125981,-0.00159921,8.10731e-05,0.0012621,-0.00160151,0.0283266,0.00165717,0.0362715,1623,1618,2.52726,-2.66557
406,-594,2.52539,2.50952,0.00149467,0.000957563,-0.000695615,0.00197177,0.00048046,-0.601181,0.00118722,0.0235687,1630,1618,2.52535,-2.50956
413,-594,2.54602,2.49194,0.00195711,0.00400472,-0.00143094,0.00474039,0.00122143,-1.09592,0.002842,0.0165055,1637,1618,2.54596,-2.49199
420,-594,2.56299,2.47266,0.00168355,0.00439103,-0.0017772,0.00527135,0.000803225,-1.11088,0.00327945,0.0133756,1644,1618,2.563,-2.47265
427,-594,2.57031,2.44775,0.000910362,0.00406679,-0.00135201,0.00456672,0.000410427,-1.21662,0.00291731,0.0117841,1651,1618,2.57033,-2.44777
434,-594,2.56311,2.40137,0.000255771,0.00378068,-0.000976606,0.00403317,3.28012e-06,-1.3178,0.00268769,0.0165571,1658,1618,2.56313,-2.4014
441,-594,2.55957,2.37085,-0.000243842,0.00334658,-0.000655035,0.00346235,-0.000359613,-1.39586,0.00243697,0.0157415,1665,1618,2.55954,-2.37082
448,-594,2.58142,2.34033,-0.000703283,0.00279266,-0.000308796,0.00281973,-0.000730349,-1.48337,0.00216474,0.0162585,1672,1618,2.58138,-2.34035
455,-594,2.57617,2.30371,-0.000997336,0.00243018,-0.000199726,0.00244178,-0.00100894,-1.51279,0.00204872,0.0119614,1679,1618,2.57622,-2.30374
462,-594,2.56482,2.26245,-0.00115938,0.00216575,-0.000208236,0.00217874,-0.00117237,-1.5085,0.00196363,0.0127598,1686,1618,2.56478,-2.26244
469,-594,2.56958,2.22009,-0.00103845,0.00177655,-5.83402e-05,0.00177776,-0.00103966,-1.55008,0.00164514,0.0114736,1693,1618,2.56963,-2.22005
476,-594,2.57263,2.18408,-0.00103556,0.00158899,1.40592e-05,0.00158907,-0.00103564,1.56544,0.00152656,0.0119865,1700,1618,2.57263,-2.18405
483,-594,2.58069,2.15076,-0.00103722,0.00192706,-0.000276156,0.00195256,-0.00106273,-1.47869,0.00176597,0.0147943,1707,1618,2.58068,-2.1507
490,-594,2.54419,2.11707,-0.000853782,0.00226368,-0.000550042,0.00235789,-0.000947984,-1.40118,0.00196565,0.0121848,1714,1618,2.54418,-2.11712
497,-594,2.53308,2.08313,-0.000418409,0.00308452,-0.00203878,0.00402085,-0.00135474,-1.14027,0.00322833,0.00903805,1721,1618,2.53302,-2.08313
504,-594,2.54211,2.05774,-0.000116359,0.0047733,-0.0042275,0.00721201,-0.00255507,-1.04756,0.00584879,0.0096392,1728,1618,2.54213,-2.05777
511,-594,2.54333,2.02795,0.000729351,0.00794193,-0.00726948,0.0124505,-0.0037792,-1.01565,0.00980589,0.0117397,1735,1618,2.54339,-2.0279
518,-594,2.55176,1.98938,0.0016803,0.0128356,-0.0114639,0.0200067,-0.00549079,-1.01181,0.0154958,0.0150342,1742,1618,2.55181,-1.98944
525,-594,2.55432,2.00232,0.00287086,0.0187192,-0.0160867,0.0287275,-0.00713743,-1.01425,0.0219216,0.0258359,1749,1618,2.55434,-2.0023
532,-594,2.3877,1.83716,0.00504722,0.0244815,-0.0209515,0.0378596,-0.00833082,-1.00253,0.0284265,0.0401732,1756,1618,2.38766,-1.83716
539,-594,2.35791,1.32813,0.00667206,0.0303194,-0.0268008,0.0477888,-0.0107973,-0.993141,0.0360021,0.0437848,1763,1618,2.35797,-1.32816
546,-594,2.36304,0.892944,0.00900119,0.0378754,-0.03319,0.0596323,-0.0127557,-0.990546,0.0446188,0.0439304,1770,1618,2.363,-0.89294
553,-594,2.48157,0.516968,0.0116368,0.0459877,-0.0396596,0.0720312,-0.0144067,-0.989742,0.0534739,0.0446436,1777,1618,2.48154,-0.517005
560,-594,2.45776,0.249756,0.0144031,0.0540444,-0.0457669,0.0840983,-0.0156508,-0.989744,0.061945,0.0439821,1784,1618,2.45779,-0.249804
567,-594,3.70056,-1.01929,0.0173077,0.0610532,-0.0510333,0.0947035,-0.0163427,-0.987855,0.0692293,0.0468698,1791,1618,3.70053,1.01932
574,-594,3.30676,-1.28503,0.0200716,0.0668665,-0.0549001,0.103147,-0.0162089,-0.986834,0.0747557,0.0457594,1798,1618,3.30678,1.28507
581,-594,0,0,0,0,0,0,0,0,0,-1,1805,1618,0,0
588,-594,0,0,0,0,0,0,0,0,0,-1,1812,1618,0,0
595,-594,0,0,0,0,0,0,0,0,0,-1,1819,1618,0,0
602,-594,0,0,0,0,0,0,0,0,0,-1,1826,1618,0,0
609,-594,0,0,0,0,0,0,0,0,0,-1,1833,1618,0,0
616,-594,0,0,0,0,0,0,0,0,0,-1,1840,1618,0,0
623,-594,0,0,0,0,0,0,0,0,0,-1,1847,1618,0,0
630,-594,0,0,0,0,0,0,0,0,0,-1,1854,1618,0,0
637,-594,0,0,0,0,0,0,0,0,0,-1,1861,1618,0,0
644,-594,0,0,0,0,0,0,0,0,0,-1,1868,1618,0,0
651,-594,0,0,0,0,0,0,0,0,0,-1,1875,1618,0,0
658,-594,0,0,0,0,0,0,0,0,0,-1,1882,1618,0,0
665,-594,0,0,0,0,0,0,0,0,0,-1,1889,1618,0,0
672,-594,0,0,0,0,0,0,0,0,0,-1,1896,1618,0,0
679,-594,0,0,0,0,0,0,0,0,0,-1,1903,1618,0,0
686,-594,0,0,0,0,0,0,0,0,0,-1,1910,1618,0,0
693,-594,0,0,0,0,0,0,0,0,0,-1,1917,1618,0,0
700,-594,0,0,0,0,0,0,0,0,0,-1,1924,1618,0,0
707,-594,0,0,0,0,0,0,0,0,0,-1,1931,1618,0,0
714,-594,0,0,0,0,0,0,0,0,0,-1,1938,1618,0,0
721,-594,0,0,0,0,0,0,0,0,0,-1,1945,1618,0,0
728,-594,0,0,0,0,0,0,0,0,0,-1,1952,1618,0,0
735,-594,0,0,0,0,0,0,0,0,0,-1,1959,1618,0,0
742,-594,0,0,0,0,0,0,0,0,0,-1,1966,1618,0,0
749,-594,0,0,0,0,0,0,0,0,0,-1,1973,1618,0,0
756,-594,0,0,0,0,0,0,0,0,0,-1,1980,1618,0,0
763,-594,0,0,0,0,0,0,0,0,0,-1,1987,1618,0,0
770,-594,0,0,0,0,0,0,0,0,0,-1,1994,1618,0,0
777,-594,0,0,0,0,0,0,0,0,0,-1,2001,1618,0,0
784,-594,0,0,0,0,0,0,0,0,0,-1,2008,1618,0,0
791,-594,0,0,0,0,0,0,0,0,0,-1,2015,1618,0,0
798,-594,0,0,0,0,0,0,0,0,0,-1,2022,1618,0,0
805,-594,0,0,0,0,0,0,0,0,0,-1,2029,1618,0,0
812,-594,0,0,0,0,0,0,0,0,0,-1,2036,1618,0,0
-700,-601,0,0,0,0,0,0,0,0,0,-1,524,1625,0,0
-693,-601,0,0,0,0,0,0,0,0,0,-1,531,1625,0,0
-686,-601,0,0,0,0,0,0,0,0,0,-1,538,1625,0,0
-679,-601,0,0,0,0,0,0,0,0,0,-1,545,1625,0,0
-672,-601,0,0,0,0,0,0,0,0,0,-1,552,1625,0,0
-665,-601,0,0,0,0,0,0,0,0,0,-1,559,1625,0,0
-658,-601,0,0,0,0,0,0,0,0,0,-1,566,1625,0,0
-651,-601,0,0,0,0,0,0,0,0,0,-1,573,1625,0,0
-644,-601,0,0,0,0,0,0,0,0,0,-1,580,1625,0,0
-637,-601,0,0,0,0,0,0,0,0,0,-1,587,1625,0,0
-630,-601,0,0,0,0,0,0,0,0,0,-1,594,1625,0,0
-623,-601,0,0,0,0,0,0,0,0,0,-1,601,1625,0,0
-616,-601,0,0,0,0,0,0,0,0,0,-1,608,1625,0,0
-609,-601,0,0,0,0,0,0,0,0,0,-1,615,1625,0,0
-602,-601,0,0,0,0,0,0,0,0,0,-1,622,1625,0,0
-595,-601,0,0,0,0,0,0,0,0,0,-1,629,1625,0,0
-588,-601,0,0,0,0,0,0,0,0,0,-1,636,1625,0,0
-581,-601,0,0,0,0,0,0,0,0,0,-1,643,1625,0,0
-574,-601,0,0,0,0,0,0,0,0,0,-1,650,1625,0,0
-567,-601,0,0,0,0,0,0,0,0,0,-1,657,1625,0,0
-560,-601,0,0,0,0,0,0,0,0,0,-1,664,1625,0,0
-553,-601,0,0,0,0,0,0,0,0,0,-1,671,1625,0,0
-546,-601,0,0,0,0,0,0,0,0,0,-1,678,1625,0,0
-539,-601,0,0,0,0,0,0,0,0,0,-1,685,1625,0,0
-532,-601,0,0,0,0,0,0,0,0,0,-1,692,1625,0,0
-525,-601,0,0,0,0,0,0,0,0,0,-1,699,1625,0,0
-518,-601,0,0,0,0,0,0,0,0,0,-1,706,1625,0,0
-511,-601,0,0,0,0,0,0,0,0,0,-1,713,1625,0,0
-504,-601,0,0,0,0,0,0,0,0,0,-1,720,1625,0,0
-497,-601,0,0,0,0,0,0,0,0,0,-1,727,1625,0,0
-490,-601,0,0,0,0,0,0,0,0,0,-1,734,1625,0,0
-483,-601,0,0,0,0,0,0,0,0,0,-1,741,1625,0,0
-476,-601,0,0,0,0,0,0,0,0,0,-1,748,1625,0,0
-469,-601,0,0,0,0,0,0,0,0,0,-1,755,1625,0,0
-462,-601,0,0,0,0,0,0,0,0,0,-1,762,1625,0,0
-455,-601,0,0,0,0,0,0,0,0,0,-1,769,1625,0,0
-448,-601,3.2655,0.852539,-0.00337662,0.0988459,-0.000200841,0.0988463,-0.00337701,-1.56883,0.0670516,0.0422093,776,1625,3.26551,-0.852588
-441,-601,2.84418,0.888306,-0.00854684,0.0921173,0.00233583,0.0921714,-0.00860101,1.54761,0.0645061,0.0475783,783,1625,2.84418,-0.888322
-434,-601,2.66986,0.451538,-0.0118992,0.0833023,0.00620142,0.0837046,-0.0123015,1.50602,0.0603231,0.0441301,790,1625,2.66986,-0.451547
-427,-601,2.32111,0.20874,-0.0135623,0.072756,0.00979317,0.0738531,-0.0146595,1.45923,0.0547797,0.0419219,797,1625,2.32111,-0.208737
-420,-601,1.78546,0.448242,-0.0142162,0.0616343,0.0129172,0.0637737,-0.0163556,1.40666,0.0488883,0.0440435,804,1625,1.78548,-0.448294
-413,-601,1.21924,0.952759,-0.013699,0.0506768,0.0148528,0.0539384,-0.0169606,1.35463,0.0427491,0.047662,811,1625,1.21921,-0.952738
-406,-601,2.58301,0.865356,-0.0121164,0.0404831,0.0153836,0.0446519,-0.0162852,1.30616,0.0364305,0.0464548,818,1625,2.58298,-0.865324
-399,-601,2.02039,1.61865,-0.00999553,0.0312726,0.0147656,0.0360115,-0.0147344,1.26024,0.0301444,0.0462851,825,1625,2.02038,-1.61863
-392,-601,1.47034,1.97192,-0.00927856,0.0229465,0.0157055,0.0293345,-0.0156666,1.18449,0.0263778,0.0450278,832,1625,1.47031,-1.97196
-385,-601,1.34998,2.13037,-0.00834102,0.0155863,0.0145054,0.0224252,-0.0151799,1.13023,0.0218453,0.0414626,839,1625,1.34999,-2.13041
-378,-601,1.54974,2.07397,-0.00592694,0.00999192,0.0127589,0.0170706,-0.0130056,1.06428,0.0174172,0.0276771,846,1625,1.54975,-2.07394
-371,-601,1.57904,2.07544,-0.00356852,0.0060491,0.0106879,0.0129602,-0.0104796,0.996796,0.0135582,0.0131782,853,1625,1.57904,-2.07543
-364,-601,1.57617,2.08704,-0.00150232,0.00265241,0.00835765,0.009187,-0.0080369,0.907209,0.00995161,0.0100957,860,1625,1.57618,-2.087
-357,-601,1.55774,2.10876,-0.000745011,0.000508626,0.00610229,0.0060162,-0.00625259,0.836578,0.00708383,0.0104793,867,1625,1.55776,-2.1088
-350,-601,1.59058,2.14124,-0.000742516,0.000129377,0.00387603,0.0035939,-0.00420704,0.841399,0.0045085,0.020715,874,1625,1.59056,-2.14118
-343,-601,1.58105,2.18933,-0.000198607,7.41301e-05,0.00281341,0.00275448,-0.00287895,0.809615,0.00325273,0.0187093,881,1625,1.58108,-2.18932
-336,-601,1.56268,2.20361,6.11124e-05,0.000335882,0.00145828,0.00166324,-0.00126624,0.832364,0.00169651,0.0149471,888,1625,1.56268,-2.20357
-329,-601,1.58356,2.27087,0.000133363,0.000148819,0.000490586,0.000631738,-0.000349556,0.793274,0.000574305,0.0128936,895,1625,1.58357,-2.27087
-322,-601,1.59247,2.3269,0.000110492,0.000353815,-0.000146142,0.000422309,4.19982e-05,-1.13252,0.000268637,0.0118205,902,1625,1.59245,-2.32689
-315,-601,1.58746,2.34399,0.000100118,0.000465071,-0.000693414,0.000999616,-0.000434427,-0.91406,0.000849109,0.0119257,909,1625,1.58744,-2.34405
-308,-601,1.57678,2.38147,3.29171e-05,0.000584488,-0.00121242,0.0015521,-0.000934692,-0.897228,0.00145042,0.0110521,916,1625,1.57676,-2.38151
-301,-601,1.58783,2.42566,-0.000154307,0.000607399,-0.00177876,0.00204562,-0.00159253,-0.890862,0.00210591,0.00968067,923,1625,1.58783,-2.42564
-294,-601,1.59381,2.45471,0.000131273,-0.000546412,-0.00194815,0.00176983,-0.00218497,-0.699294,0.00228749,0.00953562,930,1625,1.59382,-2.4547
-287,-601,1.58679,2.48169,0.000941423,-0.00190916,-0.00172087,0.0017506,-0.00271834,-0.439536,0.00260023,0.00945693,937,1625,1.58682,-2.48172
-280,-601,1.60199,2.51709,0.0018782,-0.00290337,-0.000714311,0.00198263,-0.0030078,-0.145167,0.00290142,0.00920105,944,1625,1.60196,-2.51712
-273,-601,1.61426,2.53345,0.0038921,-0.00322241,0.00106892,0.00404923,-0.00337954,0.145953,0.00429481,0.0096702,951,1625,1.61423,-2.53342
-266,-601,1.59448,2.55017,0.00561638,-0.00265026,0.00346828,0.00687874,-0.00391261,0.349067,0.00630835,0.012453,958,1625,1.59448,-2.55023
-259,-601,1.57581,2.5686,0.00585876,-0.00436913,0.00540862,0.00818831,-0.00669868,0.406698,0.00860934,0.0229494,965,1625,1.57579,-2.56861
-252,-601,1.53949,2.66711,0.00713439,-0.00479285,0.00824064,0.0113429,-0.00900139,0.472176,0.0117717,0.039181,972,1625,1.53949,-2.66706
-245,-601,1.53375,2.66357,0.00742592,-0.00564928,0.0110888,0.0137609,-0.0119842,0.519042,0.0148757,0.043497,979,1625,1.53372,-2.66356
-238,-601,2.24518,2.34229,0.00766643,-0.00622339,0.0138062,0.016176,-0.014733,0.552364,0.0178518,0.0416301,986,1625,2.24519,-2.34225
-231,-601,2.34613,2.8363,0.00686374,-0.00667242,0.0167875,0.0181962,-0.0180048,0.593784,0.0209008,0.0428309,993,1625,2.34613,-2.83634
-224,-601,2.51654,3.29663,0.00457132,-0.00651842,0.0187594,0.0185882,-0.0205353,0.641701,0.0225972,0.0469579,1000,1625,2.51653,-3.29667
-217,-601,2.69611,3.40002,0.000510924,-0.0046944,0.0190811,0.0171661,-0.0213496,0.717617,0.0222807,0.0476007,1007,1625,2.69609,-3.39999
-210,-601,1.83868,2.37195,0,0,0,0,0,0,0,-1,1014,1625,1.83867,-2.37192
-203,-601,0.774353,3.76953,0,0,0,0,0,0,0,-1,1021,1625,0.774335,-3.76957
-196,-601,0.0408936,3.44824,0,0,0,0,0,0,0,-1,1028,1625,0.0408861,-3.4482
-189,-601,2.01709,2.81738,0,0,0,0,0,0,0,-1,1035,1625,2.01712,-2.81739
-182,-601,1.9563,3.00244,0,0,0,0,0,0,0,-1,1042,1625,1.95631,-3.00248
-175,-601,1.89551,3.18762,0,0,0,0,0,0,0,-1,1049,1625,1.89551,-3.18757
-168,-601,1.59509,4.47449,0,0,0,0,0,0,0,-1,1056,1625,1.59505,-4.47444
-161,-601,1.08984,4.53748,-0.00660677,0.0528104,-0.0189699,0.0583503,-0.0121467,-1.28666,0.0435179,0.0453691,1063,1625,1.08983,-4.53745
-154,-601,1.10474,4.2406,0.0014602,0.0638496,-0.0194271,0.0694043,-0.00409455,-1.2923,0.047693,0.0465669,1070,1625,1.10475,-4.24065
-147,-601,2.62732,3.24927,0.00382863,0.0648965,-0.017996,0.0698052,-0.00108003,-1.30451,0.046901,0.0461425,1077,1625,2.62727,-3.2493
-140,-601,2.67297,3.68848,0.00576099,0.0656056,-0.0151149,0.0692065,0.00216008,-1.33692,0.0454348,0.0472259,1084,1625,2.67297,-3.68842
-133,-601,2.60364,4.04993,0.00390851,0.0607181,-0.0088261,0.0620578,0.00256886,-1.42016,0.0405427,0.0457835,1091,1625,2.60365,-4.04987
-126,-601,2.65649,4.27002,-0.000247559,0.0536965,-0.000532331,0.0537018,-0.000252813,-1.56093,0.0358857,0.0478354,1098,1625,2.65652,-4.27006
-119,-601,2.72485,4.70386,0,0,0,0,0,0,0,-1,1105,1625,2.72486,-4.7039
-112,-601,0,0,0,0,0,0,0,0,0,-1,1112,1625,0,0
-105,-601,0,0,0,0,0,0,0,0,0,-1,1119,1625,0,0
-98,-601,0,0,0,0,0,0,0,0,0,-1,1126,1625,0,0
-91,-601,0,0,0,0,0,0,0,0,0,-1,1133,1625,0,0
-84,-601,0,0,0,0,0,0,0,0,0,-1,1140,1625,0,0
-77,-601,0,0,0,0,0,0,0,0,0,-1,1147,1625,0,0
-70,-601,0,0,0,0,0,0,0,0,0,-1,1154,1625,0,0
-63,-601,0,0,0,0,0,0,0,0,0,-1,1161,1625,0,0
-56,-601,0,0,0,0,0,0,0,0,0,-1,1168,1625,0,0
-49,-601,0,0,0,0,0,0,0,0,0,-1,1175,1625,0,0
-42,-601,0,0,0,0,0,0,0,0,0,-1,1182,1625,0,0
-35,-601,0,0,0,0,0,0,0,0,0,-1,1189,1625,0,0
-28,-601,0,0,0,0,0,0,0,0,0,-1,1196,1625,0,0
-21,-601,0,0,0,0,0,0,0,0,0,-1,1203,1625,0,0
-14,-601,0,0,0,0,0,0,0,0,0,-1,1210,1625,0,0
-7,-601,0,0,0,0,0,0,0,0,0,-1,1217,1625,0,0
0,-601,0,0,0,0,0,0,0,0,0,-1,1224,1625,0,0
7,-601,0,0,0,0,0,0,0,0,0,-1,1231,1625,0,0
14,-601,0,0,0,0,0,0,0,0,0,-1,1238,1625,0,0
21,-601,0,0,0,0,0,0,0,0,0,-1,1245,1625,0,0
28,-601,0,0,0,0,0,0,0,0,0,-1,1252,1625,0,0
35,-601,0,0,0,0,0,0,0,0,0,-1,1259,1625,0,0
42,-601,0,0,0,0,0,0,0,0,0,-1,1266,1625,0,0
49,-601,0,0,0,0,0,0,0,0,0,-1,1273,1625,0,0
56,-601,0,0,0,0,0,0,0,0,0,-1,1280,1625,0,0
63,-601,0,0,0,0,0,0,0,0,0,-1,1287,1625,0,0
70,-601,0,0,0,0,0,0,0,0,0,-1,1294,1625,0,0
77,-601,0,0,0,0,0,0,0,0,0,-1,1301,1625,0,0
84,-601,0,0,0,0,0,0,0,0,0,-1,1308,1625,0,0
91,-601,0,0,0,0,0,0,0,0,0,-1,1315,1625,0,0
98,-601,0,0,0,0,0,0,0,0,0,-1,1322,1625,0,0
105,-601,0,0,0,0,0,0,0,0,0,-1,1329,1625,0,0
112,-601,0,0,0,0,0,0,0,0,0,-1,1336,1625,0,0
119,-601,0,0,0,0,0,0,0,0,0,-1,1343,1625,0,0
126,-601,0,0,0,0,0,0,0,0,0,-1,1350,1625,0,0
133,-601,0,0,0,0,0,0,0,0,0,-1,1357,1625,0,0
140,-601,0,0,0,0,0,0,0,0,0,-1,1364,1625,0,0
147,-601,0,0,0,0,0,0,0,0,0,-1,1371,1625,0,0
154,-601,0,0,0,0,0,0,0,0,0,-1,1378,1625,0,0
161,-601,0,0,0,0,0,0,0,0,0,-1,1385,1625,0,0
168,-601,0,0,0,0,0,0,0,0,0,-1,1392,1625,0,0
175,-601,0,0,0,0,0,0,0,0,0,-1,1399,1625,0,0
182,-601,0,0,0,0,0,0,0,0,0,-1,1406,1625,0,0
189,-601,0,0,0,0,0,0,0,0,0,-1,1413,1625,0,0
196,-601,0,0,0,0,0,0,0,0,0,-1,1420,1625,0,0
203,-601,0,0,0,0,0,0,0,0,0,-1,1427,1625,0,0
210,-601,0,0,0,0,0,0,0,0,0,-1,1434,1625,0,0
217,-601,0,0,0,0,0,0,0,0,0,-1,1441,1625,0,0
224,-601,0,0,0,0,0,0,0,0,0,-1,1448,1625,0,0
231,-601,-0.0371094,0.525879,0,0,0,0,0,0,0,-1,1455,1625,-0.0371518,-0.525824
238,-601,-0.27356,0.307373,0,0,0,0,0,0,0,-1,1462,1625,-0.273505,-0.307377
245,-601,1.77942,-0.785522,0,0,0,0,0,0,0,-1,1469,1625,1.77937,0.785579
252,-601,1.97021,-0.700928,0,0,0,0,0,0,0,-1,1476,1625,1.97016,0.700984
259,-601,1.88037,-1.06775,0,0,0,0,0,0,0,-1,1483,1625,1.88036,1.06772
266,-601,1.95984,-1.90686,0,0,0,0,0,0,0,-1,1490,1625,1.95989,1.90688
273,-601,2.60828,-0.718506,0,0,0,0,0,0,0,-1,1497,1625,2.60824,0.718507
280,-601,2.72424,0.45166,0.000675675,-0.0319385,-0.00355418,0.0010585,-0.0323213,-0.107299,0.0219089,0.0445037,1504,1625,2.72429,-0.451715
287,-601,2.48389,0.69165,-0.00257169,-0.0222159,0.00251827,-0.002254,-0.0225336,0.125491,0.0143303,0.0472114,1511,1625,2.48389,-0.691661
294,-601,2.6969,0.930298,-0.00498402,-0.011711,0.00699952,-0.000581786,-0.0161132,0.561423,0.0105536,0.0489497,1518,1625,2.69696,-0.930316
301,-601,2.4668,1.20874,0,0,0,0,0,0,0,-1,1525,1625,2.46683,-1.20869
308,-601,2.57263,1.70923,-0.00955963,0.00267363,0.0107194,0.00889874,-0.0157847,1.04466,0.0144347,0.0435678,1532,1625,2.57262,-1.70922
315,-601,3.19495,1.80737,-0.0114557,0.00563848,0.0114973,0.0114176,-0.0172348,1.10503,0.0166558,0.0455132,1539,1625,3.19499,-1.80733
322,-601,2.80042,2.09497,-0.0126292,0.00766126,0.0107726,0.0123138,-0.0172817,1.16311,0.017167,0.0492801,1546,1625,2.80043,-2.09496
329,-601,2.3075,2.16858,0,0,0,0,0,0,0,-1,1553,1625,2.30752,-2.16863
336,-601,3.00659,2.54688,0,0,0,0,0,0,0,-1,1560,1625,3.00661,-2.54689
343,-601,4.20471,4.35681,0,0,0,0,0,0,0,-1,1567,1625,4.20467,-4.35678
350,-601,3.70483,4.1366,0,0,0,0,0,0,0,-1,1574,1625,3.70489,-4.1366
357,-601,3.46912,3.69727,-0.0103917,0.000299544,0.00732,0.00401803,-0.0141102,1.10078,0.0109937,0.0432874,1581,1625,3.46912,-3.69723
364,-601,2.98755,3.11926,-0.00957565,-0.0021568,0.00519555,0.000517628,-0.0122501,1.09542,0.00834461,0.0448379,1588,1625,2.98754,-3.11926
371,-601,2.6676,2.89587,-0.00758113,-0.00487105,0.00317729,-0.00277191,-0.00968026,0.986959,0.00575647,0.0430864,1595,1625,2.66765,-2.89582
378,-601,2.71289,2.66455,-0.00353423,-0.00723753,0.00207445,-0.00260524,-0.00816652,0.421043,0.0048168,0.0361772,1602,1625,2.71289,-2.66459
385,-601,2.453,2.66919,0,0,0,0,0,0,0,-1,1609,1625,2.45306,-2.66924
392,-601,2.45703,2.63416,0.0017476,-0.00331747,0.000610681,0.00182018,-0.00339006,0.118309,0.00305331,0.03717,1616,1625,2.45705,-2.63412
399,-601,2.46167,2.5719,0.00245676,-0.000201423,-0.00033161,0.0024975,-0.000242167,-0.122255,0.00175131,0.018126,1623,1625,2.46169,-2.57185
406,-601,2.50977,2.52856,0.00256757,0.00169726,-0.000880345,0.00311444,0.0011504,-0.55586,0.00181846,0.0114586,1630,1625,2.50973,-2.5286
413,-601,2.52441,2.49158,0.00287075,0.00410014,-0.0014335,0.00504518,0.00192571,-0.987944,0.00293989,0.0105187,1637,1625,2.5244,-2.49154
420,-601,2.5127,2.47998,0.00253839,0.00428856,-0.00170917,0.00533365,0.00149331,-1.022,0.00317721,0.00956097,1644,1625,2.51267,-2.47997
427,-601,2.54602,2.45374,0.0017526,0.00389259,-0.00131881,0.00452088,0.00112432,-1.1262,0.0027178,0.0147251,1651,1625,2.54596,-2.45369
434,-601,2.56421,2.40674,0.00104913,0.00372015,-0.000980994,0.00404173,0.00072755,-1.25403,0.00248769,0.0162388,1658,1625,2.56427,-2.40677
441,-601,2.56592,2.36084,0.000488804,0.00342893,-0.000716939,0.00359443,0.000323297,-1.34392,0.00229612,0.0173339,1665,1625,2.56588,-2.36079
448,-601,2.5437,2.33435,-2.0149e-06,0.0030822,-0.000443434,0.00314468,-6.45038e-05,-1.4308,0.00211828,0.0140594,1672,1625,2.54374,-2.3344
455,-601,2.53857,2.29358,-0.000369546,0.00297592,-0.000397247,0.00302244,-0.000416069,-1.45421,0.00216701,0.0121247,1679,1625,2.5386,-2.29358
462,-601,2.53943,2.25928,-0.000596663,0.00310856,-0.000487818,0.00317171,-0.000659811,-1.44206,0.00236529,0.0105393,1686,1625,2.5394,-2.25932
469,-601,2.53186,2.2262,-0.000590765,0.00309848,-0.000460811,0.00315517,-0.000647452,-1.4484,0.00234919,0.0103981,1693,1625,2.53181,-2.22623
476,-601,2.51843,2.20483,-0.000639714,0.00331175,-0.000532112,0.00338215,-0.000710115,-1.43926,0.00252498,0.0125161,1700,1625,2.51849,-2.20489
483,-601,2.51782,2.16504,-0.000567602,0.0041242,-0.00102904,0.00433997,-0.000783376,-1.36411,0.0031867,0.0156642,1707,1625,2.51781,-2.16505
490,-601,2.52429,2.12634,-0.000303621,0.00493016,-0.00147941,0.00531939,-0.00069285,-1.31353,0.00379833,0.0116435,1714,1625,2.52434,-2.12633
497,-601,2.53357,2.08423,0.000258795,0.0063105,-0.00346507,0.00788492,-0.00131562,-1.14432,0.00574558,0.00908091,1721,1625,2.53362,-2.08418
504,-601,2.52344,2.03882,0.000698521,0.00864254,-0.00635713,0.0121665,-0.00282547,-1.06463,0.00919864,0.0117325,1728,1625,2.52346,-2.0388
511,-601,2.49268,1.9989,0.00176138,0.0126247,-0.0103136,0.0188496,-0.00446345,-1.02777,0.0142885,0.0206063,1735,1625,2.49265,-1.99889
518,-601,2.47681,1.98157,0.00299664,0.0184421,-0.0155727,0.0281019,-0.00666313,-1.01558,0.0213058,0.0303595,1742,1625,2.47683,-1.98157
525,-601,2.30652,1.98682,0.00445051,0.0253793,-0.0213717,0.038711,-0.00888119,-1.01306,0.0292211,0.0429277,1749,1625,2.30649,-1.98687
532,-601,2.2384,1.83875,0.00707656,0.0322668,-0.0275613,0.0499744,-0.0106311,-0.999722,0.0373676,0.0466026,1756,1625,2.23838,-1.83872
539,-601,2.12976,1.56592,0.00901607,0.0386448,-0.0347723,0.061627,-0.0139661,-0.986773,0.0464453,0.0442887,1763,1625,2.12976,-1.56589
546,-601,2.2168,1.25061,0.0115407,0.047859,-0.0425684,0.0759796,-0.0165799,-0.987005,0.0569894,0.0439021,1770,1625,2.21676,-1.25056
553,-601,2.27075,0.49231,0.014416,0.0577427,-0.0505259,0.0910536,-0.018895,-0.987923,0.067883,0.0424692,1777,1625,2.27071,-0.492318
560,-601,2.33325,-0.219849,0.0177942,0.0673966,-0.0578081,0.105499,-0.0203083,-0.988036,0.0779886,0.0439201,1784,1625,2.33321,0.21986
567,-601,4.07202,-1.95923,0,0,0,0,0,0,0,-1,1791,1625,4.07207,1.95922
574,-601,0,0,0,0,0,0,0,0,0,-1,1798,1625,0,0
581,-601,0,0,0,0,0,0,0,0,0,-1,1805,1625,0,0
588,-601,0,0,0,0,0,0,0,0,0,-1,1812,1625,0,0
595,-601,0,0,0,0,0,0,0,0,0,-1,1819,1625,0,0
602,-601,0,0,0,0,0,0,0,0,0,-1,1826,1625,0,0
609,-601,0,0,0,0,0,0,0,0,0,-1,1833,1625,0,0
616,-601,0,0,0,0,0,0,0,0,0,-1,1840,1625,0,0
623,-601,0,0,0,0,0,0,0,0,0,-1,1847,1625,0,0
630,-601,0,0,0,0,0,0,0,0,0,-1,1854,1625,0,0
637,-601,0,0,0,0,0,0,0,0,0,-1,1861,1625,0,0
644,-601,0,0,0,0,0,0,0,0,0,-1,1868,1625,0,0
651,-601,0,0,0,0,0,0,0,0,0,-1,1875,1625,0,0
658,-601,0,0,0,0,0,0,0,0,0,-1,1882,1625,0,0
665,-601,0,0,0,0,0,0,0,0,0,-1,1889,1625,0,0
672,-601,0,0,0,0,0,0,0,0,0,-1,1896,1625,0,0
679,-601,0,0,0,0,0,0,0,0,0,-1,1903,1625,0,0
686,-601,0,0,0,0,0,0,0,0,0,-1,1910,1625,0,0
693,-601,0,0,0,0,0,0,0,0,0,-1,1917,1625,0,0
700,-601,0,0,0,0,0,0,0,0,0,-1,1924,1625,0,0
707,-601,0,0,0,0,0,0,0,0,0,-1,1931,1625,0,0
714,-601,0,0,0,0,0,0,0,0,0,-1,1938,1625,0,0
721,-601,0,0,0,0,0,0,0,0,0,-1,1945,1625,0,0
728,-601,0,0,0,0,0,0,0,0,0,-1,1952,1625,0,0
735,-601,0,0,0,0,0,0,0,0,0,-1,1959,1625,0,0
742,-601,0,0,0,0,0,0,0,0,0,-1,1966,1625,0,0
749,-601,0,0,0,0,0,0,0,0,0,-1,1973,1625,0,0
756,-601,0,0,0,0,0,0,0,0,0,-1,1980,1625,0,0
763,-601,0,0,0,0,0,0,0,0,0,-1,1987,1625,0,0
770,-601,0,0,0,0,0,0,0,0,0,-1,1994,1625,0,0
777,-601,0,0,0,0,0,0,0,0,0,-1,2001,1625,0,0
784,-601,0,0,0,0,0,0,0,0,0,-1,2008,1625,0,0
791,-601,0,0,0,0,0,0,0,0,0,-1,2015,1625,0,0
798,-601,0,0,0,0,0,0,0,0,0,-1,2022,1625,0,0
805,-601,0,0,0,0,0,0,0,0,0,-1,2029,1625,0,0
812,-601,0,0,0,0,0,0,0,0,0,-1,2036,1625,0,0
-700,-608,0,0,0,0,0,0,0,0,0,-1,524,1632,0,0
-693,-608,0,0,0,0,0,0,0,0,0,-1,531,1632,0,0
-686,-608,0,0,0,0,0,0,0,0,0,-1,538,1632,0,0
-679,-608,0,0,0,0,0,0,0,0,0,-1,545,1632,0,0
-672,-608,0,0,0,0,0,0,0,0,0,-1,552,1632,0,0
-665,-608,0,0,0,0,0,0,0,0,0,-1,559,1632,0,0
-658,-608,0,0,0,0,0,0,0,0,0,-1,566,1632,0,0
-651,-608,0,0,0,0,0,0,0,0,0,-1,573,1632,0,0
-644,-608,0,0,0,0,0,0,0,0,0,-1,580,1632,0,0
-637,-608,0,0,0,0,0,0,0,0,0,-1,587,1632,0,0
-630,-608,0,0,0,0,0,0,0,0,0,-1,594,1632,0,0
-623,-608,0,0,0,0,0,0,0,0,0,-1,601,1632,0,0
-616,-608,0,0,0,0,0,0,0,0,0,-1,608,1632,0,0
-609,-608,0,0,0,0,0,0,0,0,0,-1,615,1632,0,0
-602,-608,0,0,0,0,0,0,0,0,0,-1,622,1632,0,0
-595,-608,0,0,0,0,0,0,0,0,0,-1,629,1632,0,0
-588,-608,0,0,0,0,0,0,0,0,0,-1,636,1632,0,0
-581,-608,0,0,0,0,0,0,0,0,0,-1,643,1632,0,0
-574,-608,0,0,0,0,0,0,0,0,0,-1,650,1632,0,0
-567,-608,0,0,0,0,0,0,0,0,0,-1,657,1632,0,0
-560,-608,0,0,0,0,0,0,0,0,0,-1,664,1632,0,0
-553,-608,0,0,0,0,0,0,0,0,0,-1,671,1632,0,0
-546,-608,0,0,0,0,0,0,0,0,0,-1,678,1632,0,0
-539,-608,0,0,0,0,0,0,0,0,0,-1,685,1632,0,0
-532,-608,0,0,0,0,0,0,0,0,0,-1,692,1632,0,0
-525,-608,0,0,0,0,0,0,0,0,0,-1,699,1632,0,0
-518,-608,0,0,0,0,0,0,0,0,0,-1,706,1632,0,0
-511,-608,0,0,0,0,0,0,0,0,0,-1,713,1632,0,0
-504,-608,0,0,0,0,0,0,0,0,0,-1,720,1632,0,0
-497,-608,0,0,0,0,0,0,0,0,0,-1,727,1632,0,0
-490,-608,0,0,0,0,0,0,0,0,0,-1,734,1632,0,0
-483,-608,0,0,0,0,0,0,0,0,0,-1,741,1632,0,0
-476,-608,0,0,0,0,0,0,0,0,0,-1,748,1632,0,0
-469,-608,0,0,0,0,0,0,0,0,0,-1,755,1632,0,0
-462,-608,0,0,0,0,0,0,0,0,0,-1,762,1632,0,0
-455,-608,0,0,0,0,0,0,0,0,0,-1,769,1632,0,0
-448,-608,0,0,0,0,0,0,0,0,0,-1,776,1632,0,0
-441,-608,2.40479,-0.157959,-0.0145176,0.111896,-0.00207677,0.11193,-0.0145517,-1.55437,0.0799135,0.0473279,783,1632,2.40479,0.157993
-434,-608,2.58411,-0.103271,-0.0176463,0.0999388,0.00508976,0.100159,-0.0178662,1.52762,0.0734557,0.0467769,790,1632,2.58408,0.103229
-427,-608,2.33167,-0.326294,-0.0189968,0.086217,0.0109111,0.0873366,-0.0201164,1.46854,0.0659604,0.0462238,797,1632,2.33164,0.326263
-420,-608,1.67371,-0.293213,-0.01912,0.0723966,0.0155665,0.0749719,-0.0216953,1.40684,0.0585682,0.0461823,804,1632,1.67374,0.29316
-413,-608,0.704834,0.264038,-0.018098,0.0589523,0.018554,0.0631874,-0.0223331,1.34638,0.0512188,0.0461528,811,1632,0.704856,-0.264038
-406,-608,1.07849,0.661621,-0.0160889,0.0468289,0.019737,0.0525077,-0.0217677,1.29064,0.0440901,0.0407161,818,1632,1.07852,-0.661681
-399,-608,1.6474,1.82996,0,0,0,0,0,0,0,-1,825,1632,1.64741,-1.83
-392,-608,1.15771,2.13013,0,0,0,0,0,0,0,-1,832,1632,1.15772,-2.13016
-385,-608,1.21271,2.26575,0,0,0,0,0,0,0,-1,839,1632,1.21273,-2.26574
-378,-608,1.60516,2.10339,-0.00715964,0.0106558,0.0160086,0.0200681,-0.0165719,1.03928,0.0211862,0.044039,846,1632,1.60516,-2.10343
-371,-608,1.65601,2.08655,-0.00404099,0.00603613,0.0132513,0.0151745,-0.0131793,0.967073,0.0163836,0.0336837,853,1632,1.65598,-2.08656
-364,-608,1.62482,2.07751,-0.00139657,0.00218836,0.0101999,0.0107521,-0.00996031,0.872377,0.0119612,0.0148144,860,1632,1.62483,-2.07751
-357,-608,1.60828,2.10645,-0.000277075,-0.000199889,0.00733816,0.00709978,-0.00757675,0.788028,0.00847499,0.0130707,867,1632,1.6083,-2.10646
-350,-608,1.62317,2.15588,-3.67691e-05,-0.000542119,0.00459953,0.00431702,-0.00489591,0.757958,0.00532258,0.0179038,874,1632,1.62315,-2.15585
-343,-608,1.63928,2.18872,0.000701936,-0.000523554,0.00325731,0.00340364,-0.00322526,0.692428,0.00382765,0.0202677,881,1632,1.63931,-2.18867
-336,-608,1.61481,2.19702,0.00107015,-0.000186639,0.00176572,0.00231596,-0.00143245,0.614443,0.00218409,0.0133298,888,1632,1.61478,-2.19703
-329,-608,1.6145,2.26599,0.00116879,-0.000371974,0.000828705,0.00152989,-0.000733069,0.410927,0.00133324,0.0119572,895,1632,1.61449,-2.266
-322,-608,1.61285,2.32617,0.00109652,-8.69755e-05,0.000331523,0.00118306,-0.000173515,0.255338,0.000852449,0.012144,902,1632,1.61283,-2.32619
-315,-608,1.63049,2.34973,0.000976948,0.000100687,1.89733e-06,0.000976952,0.000100682,0.00216524,0.00062047,0.0107652,909,1632,1.6305,-2.34977
-308,-608,1.6261,2.39087,0.000768889,0.000260406,-0.000244977,0.000867709,0.000161586,-0.383421,0.000532841,0.0116931,916,1632,1.62607,-2.39087
-301,-608,1.60992,2.42993,0.000393586,0.000291838,-0.000466423,0.000811902,-0.000126477,-0.731077,0.000587979,0.0108087,923,1632,1.60992,-2.42987
-294,-608,1.62201,2.44995,0.00044832,-0.000606521,-0.000370391,0.000565386,-0.000723586,-0.306124,0.000746054,0.00979672,930,1632,1.62198,-2.45
-287,-608,1.61823,2.48035,0.000993947,-0.0018949,-4.91314e-05,0.000994783,-0.00189574,-0.0170007,0.00169565,0.00965037,937,1632,1.61825,-2.48031
-280,-608,1.62714,2.50488,0.0016687,-0.00267912,0.000906053,0.00184996,-0.00286038,0.197446,0.00274029,0.00823561,944,1632,1.62714,-2.50483
-273,-608,1.6308,2.52722,0.00317943,-0.00295056,0.00231088,0.00395297,-0.0037241,0.323015,0.00443302,0.00843962,951,1632,1.63083,-2.52727
-266,-608,1.62445,2.54944,0.00457232,-0.00237539,0.00417684,0.00653111,-0.00433419,0.438513,0.00631568,0.00873772,958,1632,1.62447,-2.54946
-259,-608,1.61523,2.58228,0.00496564,-0.00358777,0.00571804,0.0078294,-0.00645152,0.46431,0.00825787,0.0106954,965,1632,1.61524,-2.58231
-252,-608,1.60889,2.6106,0.00605159,-0.00367894,0.0078589,0.0104293,-0.00805668,0.508234,0.0107022,0.0223341,972,1632,1.60886,-2.61054
-245,-608,1.60376,2.64258,0.0065574,-0.00398481,0.010007,0.0125967,-0.0100241,0.542992,0.0130882,0.0349098,979,1632,1.60376,-2.64252
-238,-608,1.9024,2.59668,0.00699819,-0.00403487,0.0120187,0.014706,-0.0117426,0.570244,0.015302,0.0381695,986,1632,1.90241,-2.5967
-231,-608,2.08447,2.65332,0.00661737,-0.00380557,0.013979,0.0163247,-0.0135129,0.606974,0.0172522,0.0401235,993,1632,2.0845,-2.65336
-224,-608,1.73328,2.4502,0.00514023,-0.00313259,0.0152562,0.0168108,-0.0148032,0.653016,0.0182646,0.0452671,1000,1632,1.7333,-2.45017
-217,-608,1.90784,2.10864,0.00222922,-0.00114146,0.0156685,0.0163027,-0.015215,0.731823,0.0182004,0.0462783,1007,1632,1.90781,-2.1086
-210,-608,2.11432,1.73767,0,0,0,0,0,0,0,-1,1014,1632,2.11433,-1.73769
-203,-608,2.35486,1.25696,0,0,0,0,0,0,0,-1,1021,1632,2.35489,-1.2569
-196,-608,1.61218,2.78174,0,0,0,0,0,0,0,-1,1028,1632,1.6122,-2.78173
-189,-608,1.95874,2.76111,0,0,0,0,0,0,0,-1,1035,1632,1.95876,-2.76106
-182,-608,1.95996,2.98535,-0.00431564,0.029266,0.000275436,0.0292682,-0.0043179,1.5626,0.0210992,0.0436489,1042,1632,1.95995,-2.98534
-175,-608,1.92151,3.34949,-0.0040709,0.0340265,-0.00280568,0.034232,-0.00427642,-1.49768,0.0243722,0.0455172,1049,1632,1.92148,-3.34946
-168,-608,1.60657,4.04419,-0.00472895,0.0399262,-0.00689315,0.0409661,-0.00576879,-1.42107,0.0294228,0.0446465,1056,1632,1.60654,-4.04422
-161,-608,0.924072,3.99255,-0.00292466,0.0454336,-0.0103805,0.0475677,-0.00505873,-1.36804,0.0335255,0.0440682,1063,1632,0.924101,-3.99261
-154,-608,0.544067,4.05872,0,0,0,0,0,0,0,-1,1070,1632,0.544043,-4.05873
-147,-608,2.50818,3.40796,0,0,0,0,0,0,0,-1,1077,1632,2.50817,-3.408
-140,-608,2.57507,3.7998,0.0048045,0.0554624,-0.00506382,0.0559636,0.00430327,-1.47214,0.0359606,0.0481078,1084,1632,2.57513,-3.79982
-133,-608,2.50818,4.17651,0.00339239,0.0529936,0.000111491,0.0529939,0.00339214,1.56855,0.0342546,0.047012,1091,1632,2.50815,-4.17654
-126,-608,2.21826,4.57104,0.000366799,0.0491589,0.00679788,0.0500883,-0.000562599,1.43492,0.0335813,0.044097,1098,1632,2.21826,-4.57103
-119,-608,2.03735,4.86975,0,0,0,0,0,0,0,-1,1105,1632,2.03731,-4.8698
-112,-608,2.66309,4.18213,0,0,0,0,0,0,0,-1,1112,1632,2.66306,-4.18218
-105,-608,2.59558,4.57776,0,0,0,0,0,0,0,-1,1119,1632,2.59563,-4.57777
-98,-608,2.72302,1.18152,0,0,0,0,0,0,0,-1,1126,1632,2.72308,-1.1815
-91,-608,3.06433,-0.0145264,0,0,0,0,0,0,0,-1,1133,1632,3.06431,0.0144969
-84,-608,0,0,0,0,0,0,0,0,0,-1,1140,1632,0,0
-77,-608,0,0,0,0,0,0,0,0,0,-1,1147,1632,0,0
-70,-608,0,0,0,0,0,0,0,0,0,-1,1154,1632,0,0
-63,-608,0,0,0,0,0,0,0,0,0,-1,1161,1632,0,0
-56,-608,0,0,0,0,0,0,0,0,0,-1,1168,1632,0,0
-49,-608,0,0,0,0,0,0,0,0,0,-1,1175,1632,0,0
-42,-608,0,0,0,0,0,0,0,0,0,-1,1182,1632,0,0
-35,-608,0,0,0,0,0,0,0,0,0,-1,1189,1632,0,0
-28,-608,0,0,0,0,0,0,0,0,0,-1,1196,1632,0,0
-21,-608,0,0,0,0,0,0,0,0,0,-1,1203,1632,0,0
-14,-608,0,0,0,0,0,0,0,0,0,-1,1210,1632,0,0
-7,-608,0,0,0,0,0,0,0,0,0,-1,1217,1632,0,0
0,-608,0,0,0,0,0,0,0,0,0,-1,1224,1632,0,0
7,-608,0,0,0,0,0,0,0,0,0,-1,1231,1632,0,0
14,-608,0,0,0,0,0,0,0,0,0,-1,1238,1632,0,0
21,-608,0,0,0,0,0,0,0,0,0,-1,1245,1632,0,0
28,-608,0,0,0,0,0,0,0,0,0,-1,1252,1632,0,0
35,-608,0,0,0,0,0,0,0,0,0,-1,1259,1632,0,0
42,-608,0,0,0,0,0,0,0,0,0,-1,1266,1632,0,0
49,-608,0,0,0,0,0,0,0,0,0,-1,1273,1632,0,0
56,-608,0,0,0,0,0,0,0,0,0,-1,1280,1632,0,0
63,-608,0,0,0,0,0,0,0,0,0,-1,1287,1632,0,0
70,-608,0,0,0,0,0,0,0,0,0,-1,1294,1632,0,0
77,-608,0,0,0,0,0,0,0,0,0,-1,1301,1632,0,0
84,-608,0,0,0,0,0,0,0,0,0,-1,1308,1632,0,0
91,-608,0,0,0,0,0,0,0,0,0,-1,1315,1632,0,0
98,-608,0,0,0,0,0,0,0,0,0,-1,1322,1632,0,0
105,-608,0,0,0,0,0,0,0,0,0,-1,1329,1632,0,0
112,-608,0,0,0,0,0,0,0,0,0,-1,1336,1632,0,0
119,-608,0,0,0,0,0,0,0,0,0,-1,1343,1632,0,0
126,-608,0,0,0,0,0,0,0,0,0,-1,1350,1632,0,0
133,-608,0,0,0,0,0,0,0,0,0,-1,1357,1632,0,0
140,-608,0,0,0,0,0,0,0,0,0,-1,1364,1632,0,0
147,-608,0,0,0,0,0,0,0,0,0,-1,1371,1632,0,0
154,-608,0,0,0,0,0,0,0,0,0,-1,1378,1632,0,0
161,-608,0,0,0,0,0,0,0,0,0,-1,1385,1632,0,0
168,-608,0,0,0,0,0,0,0,0,0,-1,1392,1632,0,0
175,-608,0,0,0,0,0,0,0,0,0,-1,1399,1632,0,0
182,-608,0,0,0,0,0,0,0,0,0,-1,1406,1632,0,0
189,-608,0,0,0,0,0,0,0,0,0,-1,1413,1632,0,0
196,-608,0,0,0,0,0,0,0,0,0,-1,1420,1632,0,0
203,-608,0,0,0,0,0,0,0,0,0,-1,1427,1632,0,0
210,-608,4.43188,-0.363525,0,0,0,0,0,0,0,-1,1434,1632,4.43183,0.363576
217,-608,4.94189,0.221069,0,0,0,0,0,0,0,-1,1441,1632,4.94192,-0.221118
224,-608,0.741943,0.976807,0,0,0,0,0,0,0,-1,1448,1632,0.741895,-0.976815
231,-608,0.361816,0.825195,0,0,0,0,0,0,0,-1,1455,1632,0.36185,-0.825226
238,-608,2.12878,-0.349121,0,0,0,0,0,0,0,-1,1462,1632,2.12875,0.34907
245,-608,2.32886,-0.30127,0.0251506,-0.0459676,-0.0147448,0.0280864,-0.0489034,-0.196538,0.0449885,0.0459198,1469,1632,2.32885,0.301254
252,-608,2.5304,-0.246704,0.0216156,-0.0440624,-0.0151401,0.0249377,-0.0473844,-0.215998,0.0424203,0.0453269,1476,1632,2.53039,0.246765
259,-608,2.56079,-0.254639,0.0174967,-0.0430019,-0.0140709,0.0206092,-0.0461144,-0.217696,0.0394499,0.0442328,1483,1632,2.56084,0.254609
266,-608,2.96777,-0.39917,0,0,0,0,0,0,0,-1,1490,1632,2.96781,0.399131
273,-608,3.08887,-0.21521,0.00582861,-0.0413115,-0.00915936,0.00754573,-0.0430286,-0.185321,0.0315037,0.0494875,1497,1632,3.08884,0.215202
280,-608,2.87378,0.203369,0.00135977,-0.0362275,-0.00293407,0.00158743,-0.0364551,-0.0774352,0.0248495,0.0496522,1504,1632,2.87373,-0.203312
287,-608,2.82104,0.862549,-0.00176124,-0.0277709,0.00310569,-0.00139554,-0.0281366,0.11721,0.0183103,0.0458342,1511,1632,2.8211,-0.8625
294,-608,2.66357,1.4054,-0.00385468,-0.0181797,0.00763139,-0.000551071,-0.0214833,0.40854,0.0141421,0.0475411,1518,1632,2.66361,-1.40543
301,-608,2.43616,1.71106,0,0,0,0,0,0,0,-1,1525,1632,2.43622,-1.7111
308,-608,2.3728,2.01184,-0.00759155,-0.00499074,0.0116734,0.00545445,-0.0180367,0.840869,0.0141963,0.0485084,1532,1632,2.37285,-2.01189
315,-608,2.53223,1.94727,-0.00896788,-0.00177539,0.0124687,0.00760532,-0.0183486,0.925799,0.0154065,0.0482395,1539,1632,2.53222,-1.94727
322,-608,2.45679,2.05432,-0.00966093,0.00051007,0.0118237,0.00829557,-0.0174464,0.988494,0.0151719,0.0492033,1546,1632,2.45677,-2.05435
329,-608,2.32642,2.16333,0,0,0,0,0,0,0,-1,1553,1632,2.32645,-2.16329
336,-608,2.82605,2.54321,0,0,0,0,0,0,0,-1,1560,1632,2.82607,-2.54324
343,-608,2.60364,2.58215,0,0,0,0,0,0,0,-1,1567,1632,2.60361,-2.58216
350,-608,2.31226,4.99792,0,0,0,0,0,0,0,-1,1574,1632,2.31224,-4.99794
357,-608,1.95093,2.63318,0,0,0,0,0,0,0,-1,1581,1632,1.9509,-2.63316
364,-608,2.25415,3.09216,-0.0066446,-0.00351354,0.00480038,-2.9861e-05,-0.0101283,0.943023,0.00674226,0.0461012,1588,1632,2.25419,-3.09212
371,-608,2.49805,2.87842,-0.00485481,-0.00480563,0.00291517,-0.00191495,-0.0077455,0.789615,0.00465845,0.0399632,1595,1632,2.49802,-2.87841
378,-608,2.5415,2.74512,-0.00184663,-0.00540971,0.0016901,-0.0011725,-0.00608384,0.379532,0.00372705,0.0320143,1602,1632,2.54152,-2.74514
385,-608,2.55322,2.63489,0.000533516,-0.00416043,0.00102883,0.000749113,-0.00437603,0.206567,0.00319645,0.0270293,1609,1632,2.55327,-2.63494
392,-608,2.4895,2.57874,0.00201457,-0.00166572,0.000287733,0.00203693,-0.00168808,0.0775542,0.00215378,0.0194961,1616,1632,2.48954,-2.57876
399,-608,2.4812,2.56506,0.00253524,0.000605782,-0.000384581,0.00260907,0.000531952,-0.189668,0.00159197,0.00992554,1623,1632,2.48122,-2.56506
406,-608,2.49512,2.53455,0.00258013,0.00201853,-0.000781142,0.00312941,0.00146925,-0.612853,0.00180789,0.00881691,1630,1632,2.49516,-2.53457
413,-608,2.47961,2.49695,0.00278329,0.00390159,-0.00121765,0.00468233,0.00200254,-1.00064,0.00271276,0.00939448,1637,1632,2.47956,-2.49693
420,-608,2.44849,2.48096,0.00244674,0.00401217,-0.00147354,0.00489797,0.00156093,-1.02954,0.00288916,0.0158056,1644,1632,2.44852,-2.48092
427,-608,2.49243,2.43164,0.00171418,0.00362311,-0.00117316,0.00418103,0.00115626,-1.12688,0.00249298,0.0181549,1651,1632,2.49245,-2.43162
434,-608,2.52527,2.38843,0.00102889,0.00367868,-0.000939532,0.003978,0.000729571,-1.26238,0.00244536,0.015095,1658,1632,2.5253,-2.38837
441,-608,2.51599,2.37952,0.000459958,0.00359142,-0.000799199,0.00378359,0.000267783,-1.33482,0.00243804,0.0131397,1665,1632,2.51598,-2.3795
448,-608,2.50098,2.34241,9.32736e-06,0.00347201,-0.00066479,0.00359525,-0.000113917,-1.38749,0.0024357,0.0135018,1672,1632,2.50099,-2.34236
455,-608,2.50171,2.30713,-0.000371166,0.00361717,-0.000733099,0.00374765,-0.000501649,-1.39465,0.00268134,0.0106421,1679,1632,2.50167,-2.30716
462,-608,2.50464,2.27319,-0.000618224,0.00414915,-0.000953895,0.00433293,-0.000802002,-1.38047,0.00318974,0.0104315,1686,1632,2.5047,-2.27322
469,-608,2.48413,2.2439,-0.000685345,0.00455269,-0.00110756,0.00477726,-0.000909906,-1.37075,0.00352748,0.00820644,1693,1632,2.48415,-2.24386
476,-608,2.48547,2.19971,-0.000768099,0.00522248,-0.00137265,0.00552202,-0.00106764,-1.35594,0.00408401,0.00813643,1700,1632,2.48552,-2.19974
483,-608,2.50281,2.15735,-0.000631753,0.00658508,-0.00211636,0.00715992,-0.00120659,-1.30558,0.00522215,0.00790602,1707,1632,2.50278,-2.1573
490,-608,2.52197,2.1228,-0.000316253,0.00795915,-0.00279846,0.00881664,-0.00117374,-1.27346,0.00630553,0.00822597,1714,1632,2.522,-2.1228
497,-608,2.51965,2.09314,0.000387217,0.0100351,-0.00531598,0.0123896,-0.00196729,-1.15385,0.00898755,0.0110166,1721,1632,2.51964,-2.09319
504,-608,2.47571,2.04993,0.00103938,0.0131542,-0.0089778,0.017927,-0.0037334,-1.08217,0.0133707,0.0237572,1728,1632,2.47566,-2.04988
511,-608,2.39282,1.95532,0.00235712,0.0181113,-0.0139047,0.0262152,-0.00574671,-1.04311,0.0196741,0.0386368,1735,1632,2.39277,-1.95527
518,-608,2.33228,1.89807,0,0,0,0,0,0,0,-1,1742,1632,2.33224,-1.89813
525,-608,2.09509,1.95044,0,0,0,0,0,0,0,-1,1749,1632,2.09507,-1.95038
532,-608,2.14038,1.77808,0,0,0,0,0,0,0,-1,1756,1632,2.14038,-1.77802
539,-608,2.30933,1.31128,0,0,0,0,0,0,0,-1,1763,1632,2.30937,-1.31129
546,-608,2.77356,0.851074,0.0143393,0.0592948,-0.0537279,0.0950574,-0.0214232,-0.983516,0.0715892,0.0438931,1770,1632,2.77356,-0.851116
553,-608,3.03101,-0.175415,0.0172325,0.0718209,-0.0639728,0.114079,-0.0250253,-0.987033,0.0856221,0.0422765,1777,1632,3.03098,0.175421
560,-608,2.93115,-1.0968,0.0211112,0.0836823,-0.073066,0.131879,-0.0270855,-0.98768,0.098201,0.043952,1784,1632,2.93112,1.09682
567,-608,0,0,0,0,0,0,0,0,0,-1,1791,1632,0,0
574,-608,0,0,0,0,0,0,0,0,0,-1,1798,1632,0,0
581,-608,0,0,0,0,0,0,0,0,0,-1,1805,1632,0,0
588,-608,0,0,0,0,0,0,0,0,0,-1,1812,1632,0,0
595,-608,0,0,0,0,0,0,0,0,0,-1,1819,1632,0,0
602,-608,0,0,0,0,0,0,0,0,0,-1,1826,1632,0,0
609,-608,0,0,0,0,0,0,0,0,0,-1,1833,1632,0,0
616,-608,0,0,0,0,0,0,0,0,0,-1,1840,1632,0,0
623,-608,0,0,0,0,0,0,0,0,0,-1,1847,1632,0,0
630,-608,0,0,0,0,0,0,0,0,0,-1,1854,1632,0,0
637,-608,0,0,0,0,0,0,0,0,0,-1,1861,1632,0,0
644,-608,0,0,0,0,0,0,0,0,0,-1,1868,1632,0,0
651,-608,0,0,0,0,0,0,0,0,0,-1,1875,1632,0,0
658,-608,0,0,0,0,0,0,0,0,0,-1,1882,1632,0,0
665,-608,0,0,0,0,0,0,0,0,0,-1,1889,1632,0,0
672,-608,0,0,0,0,0,0,0,0,0,-1,1896,1632,0,0
679,-608,0,0,0,0,0,0,0,0,0,-1,1903,1632,0,0
686,-608,0,0,0,0,0,0,0,0,0,-1,1910,1632,0,0
693,-608,0,0,0,0,0,0,0,0,0,-1,1917,1632,0,0
700,-608,0,0,0,0,0,0,0,0,0,-1,1924,1632,0,0
707,-608,0,0,0,0,0,0,0,0,0,-1,1931,1632,0,0
714,-608,0,0,0,0,0,0,0,0,0,-1,1938,1632,0,0
721,-608,0,0,0,0,0,0,0,0,0,-1,1945,1632,0,0
728,-608,0,0,0,0,0,0,0,0,0,-1,1952,1632,0,0
735,-608,0,0,0,0,0,0,0,0,0,-1,1959,1632,0,0
742,-608,0,0,0,0,0,0,0,0,0,-1,1966,1632,0,0
749,-608,0,0,0,0,0,0,0,0,0,-1,1973,1632,0,0
756,-608,0,0,0,0,0,0,0,0,0,-1,1980,1632,0,0
763,-608,0,0,0,0,0,0,0,0,0,-1,1987,1632,0,0
770,-608,0,0,0,0,0,0,0,0,0,-1,1994,1632,0,0
777,-608,0,0,0,0,0,0,0,0,0,-1,2001,1632,0,0
784,-608,0,0,0,0,0,0,0,0,0,-1,2008,1632,0,0
791,-608,0,0,0,0,0,0,0,0,0,-1,2015,1632,0,0
798,-608,0,0,0,0,0,0,0,0,0,-1,2022,1632,0,0
805,-608,0,0,0,0,0,0,0,0,0,-1,2029,1632,0,0
812,-608,0,0,0,0,0,0,0,0,0,-1,2036,1632,0,0
-700,-615,0,0,0,0,0,0,0,0,0,-1,524,1639,0,0
-693,-615,0,0,0,0,0,0,0,0,0,-1,531,1639,0,0
-686,-615,0,0,0,0,0,0,0,0,0,-1,538,1639,0,0
-679,-615,0,0,0,0,0,0,0,0,0,-1,545,1639,0,0
-672,-615,0,0,0,0,0,0,0,0,0,-1,552,1639,0,0
-665,-615,0,0,0,0,0,0,0,0,0,-1,559,1639,0,0
-658,-615,0,0,0,0,0,0,0,0,0,-1,566,1639,0,0
-651,-615,0,0,0,0,0,0,0,0,0,-1,573,1639,0,0
-644,-615,0,0,0,0,0,0,0,0,0,-1,580,1639,0,0
-637,-615,0,0,0,0,0,0,0,0,0,-1,587,1639,0,0
-630,-615,0,0,0,0,0,0,0,0,0,-1,594,1639,0,0
-623,-615,0,0,0,0,0,0,0,0,0,-1,601,1639,0,0
-616,-615,0,0,0,0,0,0,0,0,0,-1,608,1639,0,0
-609,-615,0,0,0,0,0,0,0,0,0,-1,615,1639,0,0
-602,-615,0,0,0,0,0,0,0,0,0,-1,622,1639,0,0
-595,-615,0,0,0,0,0,0,0,0,0,-1,629,1639,0,0
-588,-615,0,0,0,0,0,0,0,0,0,-1,636,1639,0,0
-581,-615,0,0,0,0,0,0,0,0,0,-1,643,1639,0,0
-574,-615,0,0,0,0,0,0,0,0,0,-1,650,1639,0,0
-567,-615,0,0,0,0,0,0,0,0,0,-1,657,1639,0,0
-560,-615,0,0,0,0,0,0,0,0,0,-1,664,1639,0,0
-553,-615,0,0,0,0,0,0,0,0,0,-1,671,1639,0,0
-546,-615,0,0,0,0,0,0,0,0,0,-1,678,1639,0,0
-539,-615,0,0,0,0,0,0,0,0,0,-1,685,1639,0,0
-532,-615,0,0,0,0,0,0,0,0,0,-1,692,1639,0,0
-525,-615,0,0,0,0,0,0,0,0,0,-1,699,1639,0,0
-518,-615,0,0,0,0,0,0,0,0,0,-1,706,1639,0,0
-511,-615,0,0,0,0,0,0,0,0,0,-1,713,1639,0,0
-504,-615,0,0,0,0,0,0,0,0,0,-1,720,1639,0,0
-497,-615,0,0,0,0,0,0,0,0,0,-1,727,1639,0,0
-490,-615,0,0,0,0,0,0,0,0,0,-1,734,1639,0,0
-483,-615,0,0,0,0,0,0,0,0,0,-1,741,1639,0,0
-476,-615,0,0,0,0,0,0,0,0,0,-1,748,1639,0,0
-469,-615,0,0,0,0,0,0,0,0,0,-1,755,1639,0,0
-462,-615,0,0,0,0,0,0,0,0,0,-1,762,1639,0,0
-455,-615,0,0,0,0,0,0,0,0,0,-1,769,1639,0,0
-448,-615,0,0,0,0,0,0,0,0,0,-1,776,1639,0,0
-441,-615,0,0,0,0,0,0,0,0,0,-1,783,1639,0,0
-434,-615,2.45837,-0.692383,-0.0244989,0.115376,0.00425921,0.115506,-0.0246285,1.54038,0.0863917,0.0476505,790,1639,2.45838,0.692403
-427,-615,2.28241,-0.878052,-0.0253419,0.0978712,0.0126489,0.0991563,-0.026627,1.46954,0.0765396,0.0458353,797,1639,2.28239,0.878062
-420,-615,1.46008,-1.14758,-0.0248941,0.0813755,0.0189481,0.0846529,-0.0281715,1.39952,0.0678054,0.0485416,804,1639,1.46009,1.14754
-413,-615,0.746399,-1.17053,-0.0233053,0.0656447,0.0230697,0.071272,-0.0289325,1.33154,0.0595497,0.0492084,811,1639,0.746425,1.17047
-406,-615,0.0341187,-1.2085,0,0,0,0,0,0,0,-1,818,1639,0.0341056,1.20848
-399,-615,-0.0981445,1.28748,0,0,0,0,0,0,0,-1,825,1639,-0.0981548,-1.28751
-392,-615,2.26837,-0.565308,0,0,0,0,0,0,0,-1,832,1639,2.26834,0.565271
-385,-615,1.5415,2.25806,-0.0122482,0.0178262,0.022374,0.0297466,-0.0241686,1.08127,0.0311835,0.048047,839,1639,1.54147,-2.25803
-378,-615,1.68182,1.83496,-0.00818628,0.0104,0.0193973,0.0226155,-0.0204017,1.00879,0.0248469,0.0486416,846,1639,1.68183,-1.83497
-371,-615,1.73315,2.11792,-0.00429738,0.00531127,0.0158789,0.0170968,-0.0160829,0.9323,0.0191593,0.0456409,853,1639,1.73313,-2.11797
-364,-615,1.66779,2.1355,-0.00113356,0.00124051,0.0120475,0.0121593,-0.0120523,0.834505,0.0139786,0.0306203,860,1639,1.66781,-2.13547
-357,-615,1.63538,2.13989,0.000253632,-0.00118843,0.00853532,0.00809832,-0.00903312,0.74326,0.00989575,0.0250122,867,1639,1.6354,-2.13985
-350,-615,1.63354,2.1637,0.00066763,-0.00136383,0.00526324,0.00501225,-0.00570846,0.690077,0.00619395,0.0207905,874,1639,1.63352,-2.16373
-343,-615,1.63934,2.17944,0.00153755,-0.00120456,0.00359207,0.00401132,-0.00367834,0.603087,0.00444102,0.0174783,881,1639,1.63935,-2.17941
-336,-615,1.65387,2.21667,0.00197858,-0.000744133,0.00187088,0.00293098,-0.00169654,0.470875,0.0027032,0.00980983,888,1639,1.65389,-2.21666
-329,-615,1.64514,2.26953,0.00210608,-0.000874244,0.000832331,0.00232278,-0.00109094,0.254692,0.00201323,0.0098938,895,1639,1.64515,-2.26956
-322,-615,1.63556,2.32776,0.00201531,-0.000508902,0.00036025,0.00206571,-0.000559309,0.139021,0.00159658,0.00999996,902,1639,1.63559,-2.32772
-315,-615,1.65271,2.35193,0.00185198,-0.000258394,0.000115513,0.00185829,-0.000264698,0.0545185,0.00133586,0.0109375,909,1639,1.6527,-2.35195
-308,-615,1.64905,2.3866,0.00159064,-5.80568e-05,7.67199e-06,0.00159067,-5.80925e-05,0.00465324,0.00108033,0.0166414,916,1639,1.64906,-2.38657
-301,-615,1.64148,2.41797,0.00113311,3.66925e-05,1.54018e-06,0.00113312,3.66903e-05,0.00140473,0.000743482,0.0121235,923,1639,1.64148,-2.41799
-294,-615,1.64514,2.44153,0.00105086,-0.000568802,0.00022258,0.00108089,-0.000598833,0.134112,0.000983013,0.00989989,930,1639,1.64516,-2.44153
-287,-615,1.64441,2.48376,0.00141925,-0.00178114,0.000502763,0.00149637,-0.00185826,0.152211,0.00194055,0.00752512,937,1639,1.64441,-2.48375
-280,-615,1.64948,2.49438,0.00187477,-0.00229946,0.00135013,0.00227339,-0.00269808,0.287093,0.00287377,0.00777855,944,1639,1.6495,-2.49444
-273,-615,1.64508,2.52661,0.00292621,-0.00246434,0.00240308,0.00384194,-0.00338006,0.364075,0.00417246,0.00870557,951,1639,1.64506,-2.52664
-266,-615,1.65088,2.56592,0.00395973,-0.0019183,0.00379652,0.0058219,-0.00378047,0.456014,0.00558553,0.00968677,958,1639,1.6509,-2.56592
-259,-615,1.6593,2.60608,0.00434964,-0.00271779,0.00496369,0.00690899,-0.00527714,0.47606,0.00705666,0.010722,965,1639,1.65933,-2.60604
-252,-615,1.65839,2.62769,0.00517951,-0.00262651,0.00653849,0.00889131,-0.00633831,0.516319,0.00883391,0.0117812,972,1639,1.6584,-2.62773
-245,-615,1.64221,2.63696,0.0056831,-0.00262944,0.00812921,0.0106569,-0.00760327,0.549084,0.0105916,0.0170622,979,1639,1.64224,-2.63695
-238,-615,1.64856,2.6698,0.00611087,-0.00244692,0.00959381,0.0123367,-0.0086728,0.575635,0.0121912,0.023612,986,1639,1.64855,-2.66982
-231,-615,1.65192,2.74805,0.00589733,-0.00198795,0.010939,0.0135825,-0.00967311,0.612434,0.0134897,0.0313906,993,1639,1.65192,-2.74803
-224,-615,1.69324,2.60474,0.00490854,-0.00121284,0.011838,0.0140751,-0.0103794,0.658894,0.0141725,0.0422251,1000,1639,1.69322,-2.60468
-217,-615,1.75067,2.51636,0,0,0,0,0,0,0,-1,1007,1639,1.75067,-2.51637
-210,-615,1.89777,2.09473,0,0,0,0,0,0,0,-1,1014,1639,1.89777,-2.09477
-203,-615,1.79156,2.77295,-0.000877119,0.0067393,0.0102125,0.0138306,-0.00796838,0.96386,0.0127364,0.0487083,1021,1639,1.79157,-2.77295
-196,-615,1.73279,2.8313,-0.00115332,0.013264,0.00605091,0.0154669,-0.00335627,1.22164,0.0115931,0.0442473,1028,1639,1.73273,-2.83128
-189,-615,1.91455,2.74182,-0.00191794,0.0197233,0.00375467,0.0203562,-0.00255085,1.4038,0.0144961,0.0440793,1035,1639,1.9145,-2.74183
-182,-615,1.91345,2.98242,-0.00206336,0.0251772,0.00160714,0.0252717,-0.00215785,1.51207,0.0176112,0.043365,1042,1639,1.91349,-2.98244
-175,-615,1.7323,3.40588,-0.00159927,0.0289968,-0.000398711,0.029002,-0.00160446,-1.55777,0.019891,0.041612,1049,1639,1.7323,-3.40594
-168,-615,1.64661,3.4021,-0.00161535,0.0335125,-0.00272016,0.0337219,-0.00182474,-1.49397,0.0231135,0.0434203,1056,1639,1.64659,-3.4021
-161,-615,1.11108,3.34485,-0.000236198,0.03768,-0.00453392,0.0382147,-0.000770813,-1.45342,0.0257372,0.0442861,1063,1639,1.1111,-3.34481
-154,-615,1.06702,3.31921,0,0,0,0,0,0,0,-1,1070,1639,1.06703,-3.3192
-147,-615,1.80908,3.48083,0,0,0,0,0,0,0,-1,1077,1639,1.80911,-3.48089
-140,-615,2.13831,3.90564,0,0,0,0,0,0,0,-1,1084,1639,2.13834,-3.90566
-133,-615,2.42212,4.27087,0.00364577,0.0452257,0.00554651,0.0459528,0.00291862,1.44044,0.0297102,0.0435226,1091,1639,2.42213,-4.27091
-126,-615,2.28442,4.55591,0.00150121,0.043343,0.0111298,0.0461192,-0.00127506,1.32634,0.0311799,0.0418672,1098,1639,2.28448,-4.55587
-119,-615,2.19812,4.76563,0,0,0,0,0,0,0,-1,1105,1639,2.19811,-4.76557
-112,-615,2.36536,4.01111,0,0,0,0,0,0,0,-1,1112,1639,2.3653,-4.01107
-105,-615,2.42078,4.56934,0,0,0,0,0,0,0,-1,1119,1639,2.42078,-4.56938
-98,-615,2.78101,2.24207,0,0,0,0,0,0,0,-1,1126,1639,2.781,-2.24204
-91,-615,2.67688,1.7113,0,0,0,0,0,0,0,-1,1133,1639,2.67684,-1.71125
-84,-615,2.64478,0.945801,0,0,0,0,0,0,0,-1,1140,1639,2.64481,-0.945816
-77,-615,0.141724,-0.353271,0,0,0,0,0,0,0,-1,1147,1639,0.141775,0.353269
-70,-615,-0.378052,0.466919,0,0,0,0,0,0,0,-1,1154,1639,-0.378006,-0.46697
-63,-615,-0.322632,0.267456,0,0,0,0,0,0,0,-1,1161,1639,-0.322693,-0.2675
-56,-615,0,0,0,0,0,0,0,0,0,-1,1168,1639,0,0
-49,-615,0,0,0,0,0,0,0,0,0,-1,1175,1639,0,0
-42,-615,0,0,0,0,0,0,0,0,0,-1,1182,1639,0,0
-35,-615,0,0,0,0,0,0,0,0,0,-1,1189,1639,0,0
-28,-615,0,0,0,0,0,0,0,0,0,-1,1196,1639,0,0
-21,-615,0,0,0,0,0,0,0,0,0,-1,1203,1639,0,0
-14,-615,0,0,0,0,0,0,0,0,0,-1,1210,1639,0,0
-7,-615,0,0,0,0,0,0,0,0,0,-1,1217,1639,0,0
0,-615,0,0,0,0,0,0,0,0,0,-1,1224,1639,0,0
7,-615,0,0,0,0,0,0,0,0,0,-1,1231,1639,0,0
14,-615,0,0,0,0,0,0,0,0,0,-1,1238,1639,0,0
21,-615,0,0,0,0,0,0,0,0,0,-1,1245,1639,0,0
28,-615,0,0,0,0,0,0,0,0,0,-1,1252,1639,0,0
35,-615,0,0,0,0,0,0,0,0,0,-1,1259,1639,0,0
42,-615,0,0,0,0,0,0,0,0,0,-1,1266,1639,0,0
49,-615,0,0,0,0,0,0,0,0,0,-1,1273,1639,0,0
56,-615,0,0,0,0,0,0,0,0,0,-1,1280,1639,0,0
63,-615,0,0,0,0,0,0,0,0,0,-1,1287,1639,0,0
70,-615,0,0,0,0,0,0,0,0,0,-1,1294,1639,0,0
77,-615,0,0,0,0,0,0,0,0,0,-1,1301,1639,0,0
84,-615,0,0,0,0,0,0,0,0,0,-1,1308,1639,0,0
91,-615,0,0,0,0,0,0,0,0,0,-1,1315,1639,0,0
98,-615,0,0,0,0,0,0,0,0,0,-1,1322,1639,0,0
105,-615,0,0,0,0,0,0,0,0,0,-1,1329,1639,0,0
112,-615,0,0,0,0,0,0,0,0,0,-1,1336,1639,0,0
119,-615,0,0,0,0,0,0,0,0,0,-1,1343,1639,0,0
126,-615,0,0,0,0,0,0,0,0,0,-1,1350,1639,0,0
133,-615,0,0,0,0,0,0,0,0,0,-1,1357,1639,0,0
140,-615,0,0,0,0,0,0,0,0,0,-1,1364,1639,0,0
147,-615,0,0,0,0,0,0,0,0,0,-1,1371,1639,0,0
154,-615,0,0,0,0,0,0,0,0,0,-1,1378,1639,0,0
161,-615,0,0,0,0,0,0,0,0,0,-1,1385,1639,0,0
168,-615,0,0,0,0,0,0,0,0,0,-1,1392,1639,0,0
175,-615,4.44556,0.446167,0.0522299,-0.110463,0.0248247,0.0559334,-0.114167,0.148098,0.100108,0.0462026,1399,1639,4.44552,-0.446184
182,-615,4.39246,0.922852,0.0301862,-0.098328,0.0184069,0.0327706,-0.100912,0.139493,0.0804548,0.048455,1406,1639,4.39245,-0.92287
189,-615,4.21826,0.839966,0.0275745,-0.0855014,0.0153527,0.0296219,-0.0875489,0.132577,0.0703503,0.0474637,1413,1639,4.2183,-0.839914
196,-615,4.3877,0.552368,0.0288343,-0.0765855,0.0118064,0.0301404,-0.0778916,0.110176,0.0643712,0.0427617,1420,1639,4.38767,-0.552339
203,-615,4.55566,0.250488,0.0316584,-0.070503,0.00802723,0.0322852,-0.0711299,0.0779366,0.0610946,0.0444202,1427,1639,4.55571,-0.25049
210,-615,4.73621,0.361694,0.0329588,-0.0658946,0.00154831,0.032983,-0.0659189,0.0156576,0.0581469,0.0454685,1434,1639,4.73617,-0.361641
217,-615,5.07141,0.898315,0.033929,-0.0625978,-0.00429563,0.0341197,-0.0627886,-0.044385,0.0567603,0.0448649,1441,1639,5.07138,-0.898305
224,-615,5.23547,1.86328,0,0,0,0,0,0,0,-1,1448,1639,5.23549,-1.86332
231,-615,3.07898,3.05701,0,0,0,0,0,0,0,-1,1455,1639,3.07895,-3.05699
238,-615,2.66357,0.284424,0,0,0,0,0,0,0,-1,1462,1639,2.66362,-0.28442
245,-615,2.7594,0.244019,0.0254688,-0.0427497,-0.0144437,0.0284009,-0.0456818,-0.20028,0.0431578,0.0455162,1469,1639,2.75936,-0.244052
252,-615,3.05151,0.276123,0.0218206,-0.0413772,-0.013865,0.0247287,-0.0442853,-0.206743,0.040375,0.0460319,1476,1639,3.05156,-0.27609
259,-615,3.35791,0.253174,0.0174881,-0.0405165,-0.0127782,0.0201783,-0.0432067,-0.207501,0.0373917,0.0442685,1483,1639,3.35795,-0.253223
266,-615,3.52917,0.253296,0.0120889,-0.0410203,-0.0115105,0.0144763,-0.0434076,-0.204509,0.0347829,0.0466668,1490,1639,3.52916,-0.253321
273,-615,3.48096,0.400757,0.00634149,-0.0407496,-0.00887799,0.00795964,-0.0423677,-0.180286,0.0312382,0.0490511,1497,1639,3.48101,-0.400705
280,-615,3.38513,0.758423,0.00193314,-0.0374447,-0.0029727,0.00215629,-0.0376679,-0.0749257,0.0258607,0.0493829,1504,1639,3.38507,-0.758375
287,-615,3.08008,1.41711,-0.00104329,-0.0304351,0.00285481,-0.000768574,-0.0307099,0.0959345,0.0202219,0.0446835,1511,1639,3.08007,-1.41709
294,-615,2.67078,1.91394,-0.00284907,-0.0220142,0.00729329,-0.000389309,-0.024474,0.325283,0.0161878,0.0455095,1518,1639,2.67077,-1.914
301,-615,2.75085,2.47961,0,0,0,0,0,0,0,-1,1525,1639,2.75088,-2.47963
308,-615,2.46741,2.37756,0,0,0,0,0,0,0,-1,1532,1639,2.46742,-2.3776
315,-615,2.15918,2.35132,0,0,0,0,0,0,0,-1,1539,1639,2.15915,-2.35127
322,-615,1.81775,1.15295,0,0,0,0,0,0,0,-1,1546,1639,1.81778,-1.15294
329,-615,2.88635,2.35718,0,0,0,0,0,0,0,-1,1553,1639,2.88639,-2.35722
336,-615,2.41602,2.72839,0,0,0,0,0,0,0,-1,1560,1639,2.41605,-2.72836
343,-615,2.34961,2.68591,0,0,0,0,0,0,0,-1,1567,1639,2.34962,-2.68589
350,-615,2.08228,2.63611,0,0,0,0,0,0,0,-1,1574,1639,2.08227,-2.6361
357,-615,2.09766,2.64978,-0.00506936,-0.00329739,0.00580157,0.00168546,-0.0100522,0.86117,0.00732818,0.0493617,1581,1639,2.09762,-2.64981
364,-615,1.98865,2.81067,-0.00444479,-0.00383909,0.00402743,-0.000103144,-0.00818074,0.822926,0.00541977,0.0456422,1588,1639,1.98864,-2.81068
371,-615,2.35913,2.71838,-0.00308582,-0.00432647,0.0024317,-0.00119657,-0.00621573,0.660512,0.00380815,0.0359147,1595,1639,2.35916,-2.71839
378,-615,2.41589,2.67383,-0.00108134,-0.00414929,0.00133351,-0.000582745,-0.00464789,0.3578,0.00292376,0.0180191,1602,1639,2.41584,-2.67389
385,-615,2.4425,2.62744,0.000507463,-0.00298799,0.000681816,0.000635748,-0.00311628,0.185978,0.00231867,0.0105857,1609,1639,2.44246,-2.62747
392,-615,2.45862,2.59998,0.00155635,-0.00125237,0.000147008,0.00156402,-0.00126004,0.0521501,0.00163362,0.00976696,1616,1639,2.45865,-2.59994
399,-615,2.45203,2.57922,0.00196804,0.000251427,-0.000313965,0.00202367,0.000195806,-0.175338,0.00128881,0.0113422,1623,1639,2.45207,-2.57917
406,-615,2.45313,2.52893,0.00203042,0.00123975,-0.000606787,0.0023593,0.000910877,-0.496675,0.00137388,0.011422,1630,1639,2.45314,-2.5289
413,-615,2.46594,2.50037,0.00221528,0.00263917,-0.000969435,0.00341956,0.00143489,-0.89302,0.00198277,0.0119259,1637,1639,2.46593,-2.5004
420,-615,2.46411,2.48254,0.00196214,0.00272523,-0.00120912,0.00361158,0.00107579,-0.938232,0.00214119,0.0126847,1644,1639,2.46415,-2.4826
427,-615,2.48352,2.43042,0.00138056,0.0023783,-0.00100425,0.00300076,0.000758094,-1.01592,0.00180178,0.0137004,1651,1639,2.48356,-2.43043
434,-615,2.49915,2.39844,0.000825103,0.00274411,-0.000895302,0.00309693,0.000472275,-1.1954,0.00192659,0.0131222,1658,1639,2.49911,-2.39849
441,-615,2.48315,2.37158,0.000379807,0.00300066,-0.000962104,0.00331592,6.45453e-05,-1.25414,0.00218942,0.013325,1665,1639,2.4831,-2.37157
448,-615,2.47473,2.35657,7.02468e-05,0.00317879,-0.0010049,0.00347536,-0.000226315,-1.28383,0.00239591,0.0131146,1672,1639,2.47475,-2.35661
455,-615,2.45288,2.31616,-0.000239114,0.00363952,-0.00123324,0.00399843,-0.000598019,-1.28759,0.00288569,0.0128396,1679,1639,2.45293,-2.3162
462,-615,2.44983,2.26697,-0.000438382,0.00463307,-0.0016459,0.0051204,-0.000925719,-1.28293,0.00376035,0.0142472,1686,1639,2.44978,-2.26696
469,-615,2.44556,2.23987,-0.000492551,0.00554739,-0.00206188,0.00618414,-0.0011293,-1.27127,0.00454619,0.0121711,1693,1639,2.4456,-2.23981
476,-615,2.4408,2.19324,-0.00054127,0.00676027,-0.00262846,0.00760805,-0.00138905,-1.25879,0.00559285,0.010318,1700,1639,2.44083,-2.1932
483,-615,2.46594,2.15576,-0.00030099,0.00877123,-0.00373555,0.0101114,-0.00164116,-1.22634,0.00734932,0.0132583,1707,1639,2.466,-2.1558
490,-615,2.48523,2.13904,0.000112169,0.0108274,-0.00481847,0.0126754,-0.00173589,-1.20456,0.00908437,0.0146924,1714,1639,2.48519,-2.139
497,-615,2.45325,2.12073,0.000994942,0.0137447,-0.00799654,0.0175964,-0.0028568,-1.12192,0.01279,0.0205412,1721,1639,2.45329,-2.12075
504,-615,2.43445,2.08875,0.00192894,0.0177585,-0.0125553,0.0246856,-0.00499814,-1.06663,0.0183514,0.0401833,1728,1639,2.43447,-2.08872
511,-615,2.42627,2.06628,0,0,0,0,0,0,0,-1,1735,1639,2.4263,-2.06632
518,-615,2.15942,2.06958,0,0,0,0,0,0,0,-1,1742,1639,2.15946,-2.06963
525,-615,2.49915,1.29968,0,0,0,0,0,0,0,-1,1749,1639,2.49917,-1.29969
532,-615,3.08777,1.10596,0.0112751,0.0524253,-0.0443207,0.0807138,-0.0170135,-1.00271,0.060286,0.0399187,1756,1639,3.08777,-1.10595
539,-615,3.36658,0.886597,0,0,0,0,0,0,0,-1,1763,1639,3.36659,-0.886621
546,-615,3.3584,0.275391,0.017764,0.0725543,-0.0670565,0.117596,-0.0272775,-0.97932,0.0888958,0.0458777,1770,1639,3.35836,-0.275399
553,-615,3.29602,-0.564087,0.0204601,0.0885855,-0.0806645,0.142084,-0.0330388,-0.985179,0.107443,0.04439,1777,1639,3.29608,0.564037
560,-615,0,0,0,0,0,0,0,0,0,-1,1784,1639,0,0
567,-615,0,0,0,0,0,0,0,0,0,-1,1791,1639,0,0
574,-615,0,0,0,0,0,0,0,0,0,-1,1798,1639,0,0
581,-615,0,0,0,0,0,0,0,0,0,-1,1805,1639,0,0
588,-615,0,0,0,0,0,0,0,0,0,-1,1812,1639,0,0
595,-615,0,0,0,0,0,0,0,0,0,-1,1819,1639,0,0
602,-615,0,0,0,0,0,0,0,0,0,-1,1826,1639,0,0
609,-615,0,0,0,0,0,0,0,0,0,-1,1833,1639,0,0
616,-615,0,0,0,0,0,0,0,0,0,-1,1840,1639,0,0
623,-615,0,0,0,0,0,0,0,0,0,-1,1847,1639,0,0
630,-615,0,0,0,0,0,0,0,0,0,-1,1854,1639,0,0
637,-615,0,0,0,0,0,0,0,0,0,-1,1861,1639,0,0
644,-615,0,0,0,0,0,0,0,0,0,-1,1868,1639,0,0
651,-615,0,0,0,0,0,0,0,0,0,-1,1875,1639,0,0
658,-615,0,0,0,0,0,0,0,0,0,-1,1882,1639,0,0
665,-615,0,0,0,0,0,0,0,0,0,-1,1889,1639,0,0
672,-615,0,0,0,0,0,0,0,0,0,-1,1896,1639,0,0
679,-615,0,0,0,0,0,0,0,0,0,-1,1903,1639,0,0
686,-615,0,0,0,0,0,0,0,0,0,-1,1910,1639,0,0
693,-615,0,0,0,0,0,0,0,0,0,-1,1917,1639,0,0
700,-615,0,0,0,0,0,0,0,0,0,-1,1924,1639,0,0
707,-615,0,0,0,0,0,0,0,0,0,-1,1931,1639,0,0
714,-615,0,0,0,0,0,0,0,0,0,-1,1938,1639,0,0
721,-615,0,0,0,0,0,0,0,0,0,-1,1945,1639,0,0
728,-615,0,0,0,0,0,0,0,0,0,-1,1952,1639,0,0
735,-615,0,0,0,0,0,0,0,0,0,-1,1959,1639,0,0
742,-615,0,0,0,0,0,0,0,0,0,-1,1966,1639,0,0
749,-615,0,0,0,0,0,0,0,0,0,-1,1973,1639,0,0
756,-615,0,0,0,0,0,0,0,0,0,-1,1980,1639,0,0
763,-615,0,0,0,0,0,0,0,0,0,-1,1987,1639,0,0
770,-615,0,0,0,0,0,0,0,0,0,-1,1994,1639,0,0
777,-615,0,0,0,0,0,0,0,0,0,-1,2001,1639,0,0
784,-615,0,0,0,0,0,0,0,0,0,-1,2008,1639,0,0
791,-615,0,0,0,0,0,0,0,0,0,-1,2015,1639,0,0
798,-615,0,0,0,0,0,0,0,0,0,-1,2022,1639,0,0
805,-615,0,0,0,0,0,0,0,0,0,-1,2029,1639,0,0
812,-615,0,0,0,0,0,0,0,0,0,-1,2036,1639,0,0
-700,-622,0,0,0,0,0,0,0,0,0,-1,524,1646,0,0
-693,-622,0,0,0,0,0,0,0,0,0,-1,531,1646,0,0
-686,-622,0,0,0,0,0,0,0,0,0,-1,538,1646,0,0
-679,-622,0,0,0,0,0,0,0,0,0,-1,545,1646,0,0
-672,-622,0,0,0,0,0,0,0,0,0,-1,552,1646,0,0
-665,-622,0,0,0,0,0,0,0,0,0,-1,559,1646,0,0
-658,-622,0,0,0,0,0,0,0,0,0,-1,566,1646,0,0
-651,-622,0,0,0,0,0,0,0,0,0,-1,573,1646,0,0
-644,-622,0,0,0,0,0,0,0,0,0,-1,580,1646,0,0
-637,-622,0,0,0,0,0,0,0,0,0,-1,587,1646,0,0
-630,-622,0,0,0,0,0,0,0,0,0,-1,594,1646,0,0
-623,-622,0,0,0,0,0,0,0,0,0,-1,601,1646,0,0
-616,-622,0,0,0,0,0,0,0,0,0,-1,608,1646,0,0
-609,-622,0,0,0,0,0,0,0,0,0,-1,615,1646,0,0
-602,-622,0,0,0,0,0,0,0,0,0,-1,622,1646,0,0
-595,-622,0,0,0,0,0,0,0,0,0,-1,629,1646,0,0
-588,-622,0,0,0,0,0,0,0,0,0,-1,636,1646,0,0
-581,-622,0,0,0,0,0,0,0,0,0,-1,643,1646,0,0
-574,-622,0,0,0,0,0,0,0,0,0,-1,650,1646,0,0
-567,-622,0,0,0,0,0,0,0,0,0,-1,657,1646,0,0
-560,-622,0,0,0,0,0,0,0,0,0,-1,664,1646,0,0
-553,-622,0,0,0,0,0,0,0,0,0,-1,671,1646,0,0
-546,-622,0,0,0,0,0,0,0,0,0,-1,678,1646,0,0
-539,-622,0,0,0,0,0,0,0,0,0,-1,685,1646,0,0
-532,-622,0,0,0,0,0,0,0,0,0,-1,692,1646,0,0
-525,-622,0,0,0,0,0,0,0,0,0,-1,699,1646,0,0
-518,-622,0,0,0,0,0,0,0,0,0,-1,706,1646,0,0
-511,-622,0,0,0,0,0,0,0,0,0,-1,713,1646,0,0
-504,-622,0,0,0,0,0,0,0,0,0,-1,720,1646,0,0
-497,-622,0,0,0,0,0,0,0,0,0,-1,727,1646,0,0
-490,-622,0,0,0,0,0,0,0,0,0,-1,734,1646,0,0
-483,-622,0,0,0,0,0,0,0,0,0,-1,741,1646,0,0
-476,-622,0,0,0,0,0,0,0,0,0,-1,748,1646,0,0
-469,-622,0,0,0,0,0,0,0,0,0,-1,755,1646,0,0
-462,-622,0,0,0,0,0,0,0,0,0,-1,762,1646,0,0
-455,-622,0,0,0,0,0,0,0,0,0,-1,769,1646,0,0
-448,-622,0,0,0,0,0,0,0,0,0,-1,776,1646,0,0
-441,-622,0,0,0,0,0,0,0,0,0,-1,783,1646,0,0
-434,-622,0,0,0,0,0,0,0,0,0,-1,790,1646,0,0
-427,-622,2.29974,-1.28113,0,0,0,0,0,0,0,-1,797,1646,2.29972,1.28117
-420,-622,1.28235,-1.95667,0,0,0,0,0,0,0,-1,804,1646,1.28235,1.95667
-413,-622,0.574646,-1.84924,0,0,0,0,0,0,0,-1,811,1646,0.574627,1.84927
-406,-622,-0.154663,-1.83386,0,0,0,0,0,0,0,-1,818,1646,-0.154648,1.83386
-399,-622,2.18762,-1.26624,0,0,0,0,0,0,0,-1,825,1646,2.18759,1.26626
-392,-622,1.99377,-0.567749,-0.0177632,0.0276609,0.0283419,0.0412683,-0.0313706,1.12318,0.0420676,0.0478774,832,1646,1.99379,0.567783
-385,-622,1.6087,1.18372,-0.014404,0.0173277,0.0251853,0.0312281,-0.0283043,1.06648,0.0343849,0.0450515,839,1646,1.60867,-1.18372
-378,-622,1.50507,1.82178,-0.00943765,0.00942017,0.021503,0.0234706,-0.0234881,0.99202,0.0271117,0.0453844,846,1646,1.50507,-1.82174
-371,-622,1.65869,2.21191,-0.00476613,0.00421704,0.0171824,0.0174852,-0.0180343,0.913241,0.020508,0.0479015,853,1646,1.65871,-2.21192
-364,-622,1.64459,2.35315,-0.0010391,0.000243359,0.0126117,0.0122301,-0.0130258,0.810798,0.0145839,0.0423446,860,1646,1.64461,-2.35315
-357,-622,1.64246,2.22388,0.000685235,-0.00196621,0.00855804,0.00801963,-0.00930061,0.708554,0.010009,0.0401838,867,1646,1.64246,-2.22388
-350,-622,1.66345,2.19812,0.00129191,-0.00181392,0.0049271,0.00490503,-0.00542704,0.632737,0.00596776,0.0315767,874,1646,1.66343,-2.19815
-343,-622,1.65344,2.21606,0.00225824,-0.00140938,0.00307375,0.00400364,-0.00315479,0.516439,0.0041426,0.0200847,881,1646,1.65345,-2.21603
-336,-622,1.6828,2.21985,0.00267847,-0.000774711,0.00126624,0.00309302,-0.00118926,0.316389,0.00255252,0.00876024,888,1646,1.68282,-2.21989
-329,-622,1.67914,2.2655,0.00272828,-0.000812521,0.000215761,0.00274138,-0.00082562,0.0606365,0.00215614,0.00867401,895,1646,1.67911,-2.26552
-322,-622,1.66876,2.32373,0.00251513,-0.000392313,-0.000151161,0.00252296,-0.000400151,-0.051805,0.00183,0.0102471,902,1646,1.66877,-2.32375
-315,-622,1.66089,2.36462,0.00220356,-0.00013763,-0.000272259,0.0022348,-0.000168874,-0.11426,0.00154923,0.0130278,909,1646,1.6609,-2.36466
-308,-622,1.6662,2.37634,0.00179685,3.94906e-05,-0.000241925,0.00182955,6.79464e-06,-0.134335,0.00121744,0.0131891,916,1646,1.66619,-2.37639
-301,-622,1.67792,2.40149,0.00126084,0.000155499,-2.28028e-05,0.00126131,0.000155029,-0.0206179,0.000794258,0.0134351,923,1646,1.6779,-2.40147
-294,-622,1.67468,2.43884,0.000994348,-0.000274023,0.000279457,0.00105319,-0.000332865,0.207528,0.000835485,0.0107541,930,1646,1.67468,-2.43881
-287,-622,1.6842,2.47095,0.00113916,-0.00152339,0.000455076,0.0012148,-0.00159902,0.164691,0.0016296,0.00789578,937,1646,1.68418,-2.47094
-280,-622,1.68488,2.50598,0.00140408,-0.0018511,0.00116868,0.0017802,-0.00222722,0.311366,0.00231848,0.0078728,944,1646,1.68485,-2.50599
-273,-622,1.68439,2.52136,0.00215347,-0.00193714,0.00190685,0.00290448,-0.00268814,0.37519,0.00322971,0.0110199,951,1646,1.68438,-2.52132
-266,-622,1.68549,2.56311,0.00295509,-0.00148147,0.00289734,0.00438582,-0.00291221,0.458684,0.00424206,0.0117498,958,1646,1.68547,-2.56306
-259,-622,1.69806,2.63831,0.00338357,-0.00200055,0.00373938,0.00529913,-0.00391611,0.473413,0.00534035,0.0116991,965,1646,1.69806,-2.63832
-252,-622,1.6908,2.64185,0.00407269,-0.0018253,0.00486642,0.00681392,-0.00456653,0.512993,0.00661307,0.0119523,972,1646,1.69081,-2.64185
-245,-622,1.68268,2.646,0.00454252,-0.00168793,0.00603369,0.00821773,-0.00536314,0.547095,0.00789844,0.00864053,979,1646,1.68269,-2.64604
-238,-622,1.68018,2.67993,0.00489542,-0.00141643,0.00709378,0.00950361,-0.00602463,0.576101,0.00903992,0.00905319,986,1646,1.68018,-2.67995
-231,-622,1.67963,2.72083,0.00483828,-0.000961201,0.00810183,0.0105437,-0.00666659,0.613545,0.01002,0.0133346,993,1646,1.67965,-2.7208
-224,-622,1.70325,2.73035,0.00424099,-0.000240468,0.00878733,0.0110688,-0.00706825,0.660561,0.010556,0.0216328,1000,1646,1.70324,-2.73029
-217,-622,1.75549,2.66748,0.00279991,0.00134144,0.00913407,0.0112338,-0.00709246,0.745564,0.0106703,0.0314924,1007,1646,1.75551,-2.66751
-210,-622,1.74792,2.42419,0.000706959,0.00361657,0.00904439,0.0113224,-0.00699888,0.865141,0.0106755,0.0448956,1014,1646,1.74794,-2.42421
-203,-622,1.62921,2.30994,0.000159253,0.0061811,0.00780197,0.011533,-0.00519262,0.969552,0.0098851,0.04617,1021,1646,1.62921,-2.30988
-196,-622,1.76929,2.90588,-0.000107083,0.011007,0.00499894,0.0129246,-0.00202468,1.20451,0.0093645,0.0443022,1028,1646,1.7693,-2.90594
-189,-622,2.17444,3.04944,-0.000723468,0.0161301,0.00351201,0.0168327,-0.00142603,1.37336,0.0117261,0.0449677,1035,1646,2.17446,-3.04944
-182,-622,1.8667,2.96216,-0.000618278,0.0205175,0.00215074,0.0207341,-0.000834913,1.47041,0.0141093,0.0467901,1042,1646,1.86672,-2.96214
-175,-622,1.85742,3.00623,0.000126008,0.0235701,0.000980161,0.023611,8.51005e-05,1.52908,0.0157124,0.0482163,1049,1646,1.85746,-3.00623
-168,-622,1.83557,2.90723,0.000590177,0.0270074,-9.79152e-05,0.0270078,0.000589815,-1.56709,0.0178118,0.0466864,1056,1646,1.83559,-2.90717
-161,-622,1.36206,3.64722,0,0,0,0,0,0,0,-1,1063,1646,1.36211,-3.6472
-154,-622,1.39343,3.28955,0.00372126,0.0346244,0.000684928,0.0346395,0.00370609,1.54865,0.0219621,0.0453814,1070,1646,1.39349,-3.28958
-147,-622,1.80432,3.26587,0.00457384,0.0363414,0.00238546,0.0365196,0.00439572,1.49626,0.0230215,0.0493872,1077,1646,1.80431,-3.26591
-140,-622,2.01978,3.70313,0.00480398,0.0376993,0.00487545,0.0384067,0.00409659,1.42671,0.0243541,0.0465797,1084,1646,2.01981,-3.70312
-133,-622,2.26062,4.1355,0.00422656,0.0376537,0.00848786,0.0396855,0.00219481,1.33585,0.0257566,0.0406761,1091,1646,2.26057,-4.13555
-126,-622,1.90601,4.29395,0.00277796,0.0368697,0.0131786,0.04137,-0.00172236,1.24173,0.0281717,0.0403521,1098,1646,1.90602,-4.29394
-119,-622,1.59692,4.1947,0,0,0,0,0,0,0,-1,1105,1646,1.59694,-4.19473
-112,-622,2.23047,3.70667,0,0,0,0,0,0,0,-1,1112,1646,2.23047,-3.70671
-105,-622,2.58154,4.35889,0,0,0,0,0,0,0,-1,1119,1646,2.58149,-4.3589
-98,-622,2.51428,3.37927,0,0,0,0,0,0,0,-1,1126,1646,2.51427,-3.37926
-91,-622,2.69568,2.6333,0,0,0,0,0,0,0,-1,1133,1646,2.69562,-2.63327
-84,-622,2.47998,1.50854,0,0,0,0,0,0,0,-1,1140,1646,2.48001,-1.5086
-77,-622,-0.566895,2.49438,0,0,0,0,0,0,0,-1,1147,1646,-0.566868,-2.49445
-70,-622,-0.208008,1.26941,0.00044811,-0.0425538,-0.0159672,0.00572856,-0.0478342,-0.319383,0.0339604,0.0435726,1154,1646,-0.208068,-1.26935
-63,-622,-0.178223,0.744873,0.00271155,-0.0512373,-0.0222698,0.0107166,-0.0592423,-0.345075,0.0435093,0.0477976,1161,1646,-0.178176,-0.74484
-56,-622,-0.200684,0.272949,0.0039094,-0.06057,-0.0268706,0.013639,-0.0702997,-0.347407,0.0520123,0.0458857,1168,1646,-0.200693,-0.272946
-49,-622,-0.254517,-0.197388,0.0024981,-0.0624561,-0.033643,0.0167823,-0.0767403,-0.401515,0.0575754,0.0452498,1175,1646,-0.254481,0.197379
-42,-622,-0.321655,-0.652466,-0.0031479,-0.0511302,-0.033808,0.0143164,-0.0685945,-0.476819,0.0511738,0.0485021,1182,1646,-0.32165,0.65249
-35,-622,-0.332764,-1.05261,-0.00732289,-0.0343906,-0.0303939,0.0124142,-0.0541277,-0.575936,0.0408567,0.0482817,1189,1646,-0.332792,1.05257
-28,-622,-0.271729,-1.6134,0,0,0,0,0,0,0,-1,1196,1646,-0.271709,1.61336
-21,-622,-0.189209,-1.48755,0,0,0,0,0,0,0,-1,1203,1646,-0.189166,1.48753
-14,-622,4.33948,7.63147,0,0,0,0,0,0,0,-1,1210,1646,4.3395,-7.63151
-7,-622,4.23108,7.96533,0,0,0,0,0,0,0,-1,1217,1646,4.23112,-7.96535
0,-622,0,0,0,0,0,0,0,0,0,-1,1224,1646,0,0
7,-622,0,0,0,0,0,0,0,0,0,-1,1231,1646,0,0
14,-622,0,0,0,0,0,0,0,0,0,-1,1238,1646,0,0
21,-622,0,0,0,0,0,0,0,0,0,-1,1245,1646,0,0
28,-622,0,0,0,0,0,0,0,0,0,-1,1252,1646,0,0
35,-622,0,0,0,0,0,0,0,0,0,-1,1259,1646,0,0
42,-622,0,0,0,0,0,0,0,0,0,-1,1266,1646,0,0
49,-622,0,0,0,0,0,0,0,0,0,-1,1273,1646,0,0
56,-622,0,0,0,0,0,0,0,0,0,-1,1280,1646,0,0
63,-622,0,0,0,0,0,0,0,0,0,-1,1287,1646,0,0
70,-622,0,0,0,0,0,0,0,0,0,-1,1294,1646,0,0
77,-622,0,0,0,0,0,0,0,0,0,-1,1301,1646,0,0
84,-622,0,0,0,0,0,0,0,0,0,-1,1308,1646,0,0
91,-622,0,0,0,0,0,0,0,0,0,-1,1315,1646,0,0
98,-622,0,0,0,0,0,0,0,0,0,-1,1322,1646,0,0
105,-622,0,0,0,0,0,0,0,0,0,-1,1329,1646,0,0
112,-622,0,0,0,0,0,0,0,0,0,-1,1336,1646,0,0
119,-622,0,0,0,0,0,0,0,0,0,-1,1343,1646,0,0
126,-622,11.002,-5.26184,0,0,0,0,0,0,0,-1,1350,1646,11.002,5.26182
133,-622,11.75,-5.74548,0,0,0,0,0,0,0,-1,1357,1646,11.75,5.74547
140,-622,2.95764,3.41089,0,0,0,0,0,0,0,-1,1364,1646,2.95766,-3.4109
147,-622,3.5155,2.8551,0,0,0,0,0,0,0,-1,1371,1646,3.51548,-2.85509
154,-622,3.86426,2.17676,0,0,0,0,0,0,0,-1,1378,1646,3.8642,-2.17676
161,-622,4.24011,1.86462,0.163007,-0.0844216,0.0526878,0.173759,-0.0951737,0.201309,0.157463,0.0463535,1385,1646,4.24008,-1.86464
168,-622,4.28943,1.49219,0,0,0,0,0,0,0,-1,1392,1646,4.28938,-1.49219
175,-622,4.33765,1.26929,0.0621505,-0.0969805,0.00751639,0.0625047,-0.0973347,0.0470942,0.0930108,0.0470522,1399,1646,4.33765,-1.26932
182,-622,4.36108,1.05554,0.035027,-0.0841106,0.00194747,0.0350589,-0.0841424,0.0163406,0.070739,0.0471782,1406,1646,4.36106,-1.05549
189,-622,4.21387,1.07056,0.0314026,-0.0714533,-0.000320607,0.0314036,-0.0714543,-0.00311701,0.0608672,0.0423952,1413,1646,4.21391,-1.07055
196,-622,4.31311,1.03931,0.0311203,-0.0617716,-0.00264301,0.0311955,-0.0618467,-0.0284218,0.054681,0.0402613,1420,1646,4.31307,-1.03925
203,-622,4.37817,0.710815,0.0330549,-0.0547414,-0.00404409,0.0332407,-0.0549273,-0.0459326,0.0514146,0.043548,1427,1646,4.37817,-0.710851
210,-622,4.73547,0.660034,0.0341939,-0.0496382,-0.00734581,0.0348327,-0.0502771,-0.0867443,0.0494071,0.0441814,1434,1646,4.73545,-0.660013
217,-622,5.29272,0.821289,0.0348774,-0.0464111,-0.0106855,0.0362585,-0.0477923,-0.128543,0.0486788,0.0451753,1441,1646,5.29271,-0.82127
224,-622,5.58215,1.36646,0.0325168,-0.0448539,-0.0138109,0.0349081,-0.0472453,-0.171451,0.0476093,0.0421844,1448,1646,5.5821,-1.3665
231,-622,2.94958,0.754517,0,0,0,0,0,0,0,-1,1455,1646,2.94962,-0.754523
238,-622,3.10583,0.79126,0,0,0,0,0,0,0,-1,1462,1646,3.10585,-0.791251
245,-622,3.21472,0.785034,0.0241282,-0.0364613,-0.0133733,0.0269486,-0.0392817,-0.207857,0.0384585,0.0452434,1469,1646,3.21474,-0.78502
252,-622,3.55872,0.833374,0.0205371,-0.0358752,-0.0119871,0.0229786,-0.0383167,-0.200927,0.0357563,0.0498268,1476,1646,3.55872,-0.833313
259,-622,4.05396,0.822998,0.0161257,-0.0354476,-0.0107591,0.0182802,-0.0376022,-0.197638,0.0329003,0.0475903,1483,1646,4.05391,-0.822989
266,-622,4.16895,0.812866,0.0111278,-0.0364431,-0.00959726,0.012991,-0.0383063,-0.191757,0.0307952,0.0481714,1490,1646,4.16893,-0.81284
273,-622,3.89648,0.988892,0,0,0,0,0,0,0,-1,1497,1646,3.89654,-0.988937
280,-622,3.75403,1.27478,0,0,0,0,0,0,0,-1,1504,1646,3.75406,-1.27474
287,-622,3.36084,1.69641,-0.000556208,-0.030357,0.00253438,-0.00034221,-0.030571,0.084238,0.0202676,0.0473476,1511,1646,3.36085,-1.69645
294,-622,2.87122,2.14832,-0.00200867,-0.0234108,0.00657607,-0.000149579,-0.0252699,0.275516,0.0167969,0.0461863,1518,1646,2.87116,-2.1483
301,-622,2.66553,2.56348,-0.00329002,-0.0169053,0.00944008,0.00154103,-0.0217364,0.47301,0.015031,0.0487051,1525,1646,2.66552,-2.56345
308,-622,2.49866,2.70068,-0.00449597,-0.012841,0.010746,0.00285918,-0.0201962,0.600215,0.0145114,0.0457563,1532,1646,2.49862,-2.70069
315,-622,2.08911,2.51135,0,0,0,0,0,0,0,-1,1539,1646,2.08915,-2.5114
322,-622,1.43042,2.30176,0,0,0,0,0,0,0,-1,1546,1646,1.43037,-2.30173
329,-622,2.57458,2.84741,0,0,0,0,0,0,0,-1,1553,1646,2.57459,-2.84739
336,-622,2.45215,2.78198,-0.00515868,-0.00411718,0.00921184,0.00458862,-0.0138645,0.813633,0.0110935,0.0465298,1560,1646,2.45212,-2.78202
343,-622,2.36792,2.73499,-0.0047178,-0.00324211,0.00769896,0.00375428,-0.0117142,0.833171,0.00931654,0.0490303,1567,1646,2.36793,-2.735
350,-622,2.24817,2.69324,-0.00414889,-0.00274874,0.00604445,0.00263604,-0.00953367,0.843052,0.00739281,0.040767,1574,1646,2.24816,-2.69328
357,-622,2.32117,2.69116,-0.00328206,-0.00334846,0.00462097,0.00130583,-0.00793635,0.781806,0.0057756,0.0332953,1581,1646,2.32116,-2.69111
364,-622,2.36523,2.72412,-0.00276386,-0.00344756,0.00317356,8.62076e-05,-0.00629762,0.731746,0.00422744,0.0284891,1588,1646,2.36522,-2.72415
371,-622,2.39648,2.71057,-0.00179261,-0.00351382,0.00194705,-0.000524445,-0.00478198,0.577305,0.00302835,0.0185041,1595,1646,2.39647,-2.71051
378,-622,2.40247,2.67688,-0.000560012,-0.00306514,0.00104852,-0.000179078,-0.00344607,0.348479,0.00224008,0.0109893,1602,1646,2.40246,-2.67687
385,-622,2.41956,2.64905,0.000499621,-0.00218517,0.000435428,0.000568474,-0.00225402,0.15683,0.00172371,0.00963626,1609,1646,2.41954,-2.64903
392,-622,2.41406,2.61353,0.00129631,-0.00102469,1.24407e-05,0.00129637,-0.00102476,0.00535986,0.00134316,0.0109375,1616,1646,2.41405,-2.61358
399,-622,2.40759,2.56763,0.00161516,-2.84556e-05,-0.000339507,0.00168253,-9.58233e-05,-0.195883,0.00115495,0.010998,1623,1646,2.40762,-2.56764
406,-622,2.41296,2.52527,0.00169223,0.000660154,-0.000603153,0.00196997,0.00038241,-0.431541,0.00120622,0.0139875,1630,1646,2.41293,-2.52528
413,-622,2.44214,2.49927,0.00185059,0.00167037,-0.000930621,0.00269546,0.000825508,-0.737133,0.00159469,0.015601,1637,1646,2.44216,-2.49924
420,-622,2.4408,2.47461,0.00163731,0.00171632,-0.00114335,0.00282085,0.000532777,-0.802668,0.00173053,0.015063,1644,1646,2.44083,-2.47463
427,-622,2.44043,2.43555,0.00112713,0.00132057,-0.000997933,0.00222646,0.000221238,-0.833708,0.00141633,0.011536,1651,1646,2.44039,-2.43552
434,-622,2.46191,2.40405,0.000606259,0.00191194,-0.000995912,0.00244991,6.82839e-05,-1.07552,0.001611,0.0125519,1658,1646,2.46194,-2.40401
441,-622,2.43872,2.37939,0.000189937,0.00238887,-0.00120084,0.00291754,-0.000338738,-1.15608,0.00206721,0.0146542,1665,1646,2.43872,-2.37943
448,-622,2.41553,2.34546,-5.73179e-05,0.00275424,-0.00136658,0.00330901,-0.000612088,-1.18517,0.00243581,0.0130637,1672,1646,2.41555,-2.34546
455,-622,2.39392,2.28735,-0.000362412,0.00341913,-0.00169305,0.00406636,-0.00100964,-1.20565,0.00310271,0.0147184,1679,1646,2.39391,-2.28731
462,-622,2.42065,2.26721,-0.000561891,0.00473167,-0.00224145,0.00555325,-0.00138347,-1.21946,0.00423926,0.016042,1686,1646,2.42065,-2.26718
469,-622,2.43176,2.24878,-0.000616934,0.00602306,-0.00286212,0.00708646,-0.00168033,-1.21506,0.00537273,0.0175214,1693,1646,2.43175,-2.24876
476,-622,2.39941,2.19531,-0.000619579,0.00769646,-0.00369355,0.00910004,-0.00202316,-1.20764,0.00684153,0.0168172,1700,1646,2.39947,-2.19535
483,-622,2.42407,2.17029,-0.00027141,0.0102778,-0.00512949,0.0123607,-0.00235433,-1.18507,0.00912703,0.0243199,1707,1646,2.42413,-2.17029
490,-622,2.41895,2.18835,0.000315882,0.0129359,-0.00665407,0.0157961,-0.00254432,-1.16483,0.0114733,0.0309905,1714,1646,2.41898,-2.18833
497,-622,2.30542,2.12939,0.00146412,0.0166284,-0.0105405,0.0220306,-0.003938,-1.09719,0.0161604,0.0384304,1721,1646,2.30548,-2.12943
504,-622,2.35767,2.01257,0.00274387,0.0215509,-0.0160679,0.0307647,-0.00646988,-1.05015,0.0229721,0.049437,1728,1646,2.35768,-2.01255
511,-622,2.4668,1.87488,0.00474353,0.0289008,-0.0232757,0.0430453,-0.00940095,-1.02474,0.0322899,0.0475987,1735,1646,2.46675,-1.87484
518,-622,2.43018,1.07166,0,0,0,0,0,0,0,-1,1742,1646,2.43017,-1.07166
525,-622,2.75378,0.114624,0,0,0,0,0,0,0,-1,1749,1646,2.75376,-0.114666
532,-622,3.78857,0.360229,0,0,0,0,0,0,0,-1,1756,1646,3.78858,-0.360176
539,-622,3.974,0.146362,0,0,0,0,0,0,0,-1,1763,1646,3.97398,-0.146376
546,-622,3.79724,-0.484009,0,0,0,0,0,0,0,-1,1770,1646,3.79725,0.484057
553,-622,0,0,0,0,0,0,0,0,0,-1,1777,1646,0,0
560,-622,0,0,0,0,0,0,0,0,0,-1,1784,1646,0,0
567,-622,0,0,0,0,0,0,0,0,0,-1,1791,1646,0,0
574,-622,0,0,0,0,0,0,0,0,0,-1,1798,1646,0,0
581,-622,0,0,0,0,0,0,0,0,0,-1,1805,1646,0,0
588,-622,0,0,0,0,0,0,0,0,0,-1,1812,1646,0,0
595,-622,0,0,0,0,0,0,0,0,0,-1,1819,1646,0,0
602,-622,0,0,0,0,0,0,0,0,0,-1,1826,1646,0,0
609,-622,0,0,0,0,0,0,0,0,0,-1,1833,1646,0,0
616,-622,0,0,0,0,0,0,0,0,0,-1,1840,1646,0,0
623,-622,0,0,0,0,0,0,0,0,0,-1,1847,1646,0,0
630,-622,0,0,0,0,0,0,0,0,0,-1,1854,1646,0,0
637,-622,0,0,0,0,0,0,0,0,0,-1,1861,1646,0,0
644,-622,0,0,0,0,0,0,0,0,0,-1,1868,1646,0,0
651,-622,0,0,0,0,0,0,0,0,0,-1,1875,1646,0,0
658,-622,0,0,0,0,0,0,0,0,0,-1,1882,1646,0,0
665,-622,0,0,0,0,0,0,0,0,0,-1,1889,1646,0,0
672,-622,0,0,0,0,0,0,0,0,0,-1,1896,1646,0,0
679,-622,0,0,0,0,0,0,0,0,0,-1,1903,1646,0,0
686,-622,0,0,0,0,0,0,0,0,0,-1,1910,1646,0,0
693,-622,0,0,0,0,0,0,0,0,0,-1,1917,1646,0,0
700,-622,0,0,0,0,0,0,0,0,0,-1,1924,1646,0,0
707,-622,0,0,0,0,0,0,0,0,0,-1,1931,1646,0,0
714,-622,0,0,0,0,0,0,0,0,0,-1,1938,1646,0,0
721,-622,0,0,0,0,0,0,0,0,0,-1,1945,1646,0,0
728,-622,0,0,0,0,0,0,0,0,0,-1,1952,1646,0,0
735,-622,0,0,0,0,0,0,0,0,0,-1,1959,1646,0,0
742,-622,0,0,0,0,0,0,0,0,0,-1,1966,1646,0,0
749,-622,0,0,0,0,0,0,0,0,0,-1,1973,1646,0,0
756,-622,0,0,0,0,0,0,0,0,0,-1,1980,1646,0,0
763,-622,0,0,0,0,0,0,0,0,0,-1,1987,1646,0,0
770,-622,0,0,0,0,0,0,0,0,0,-1,1994,1646,0,0
777,-622,0,0,0,0,0,0,0,0,0,-1,2001,1646,0,0
784,-622,0,0,0,0,0,0,0,0,0,-1,2008,1646,0,0
791,-622,0,0,0,0,0,0,0,0,0,-1,2015,1646,0,0
798,-622,0,0,0,0,0,0,0,0,0,-1,2022,1646,0,0
805,-622,0,0,0,0,0,0,0,0,0,-1,2029,1646,0,0
812,-622,0,0,0,0,0,0,0,0,0,-1,2036,1646,0,0
-700,-629,0,0,0,0,0,0,0,0,0,-1,524,1653,0,0
-693,-629,0,0,0,0,0,0,0,0,0,-1,531,1653,0,0
-686,-629,0,0,0,0,0,0,0,0,0,-1,538,1653,0,0
-679,-629,0,0,0,0,0,0,0,0,0,-1,545,1653,0,0
-672,-629,0,0,0,0,0,0,0,0,0,-1,552,1653,0,0
-665,-629,0,0,0,0,0,0,0,0,0,-1,559,1653,0,0
-658,-629,0,0,0,0,0,0,0,0,0,-1,566,1653,0,0
-651,-629,0,0,0,0,0,0,0,0,0,-1,573,1653,0,0
-644,-629,0,0,0,0,0,0,0,0,0,-1,580,1653,0,0
-637,-629,0,0,0,0,0,0,0,0,0,-1,587,1653,0,0
-630,-629,0,0,0,0,0,0,0,0,0,-1,594,1653,0,0
-623,-629,0,0,0,0,0,0,0,0,0,-1,601,1653,0,0
-616,-629,0,0,0,0,0,0,0,0,0,-1,608,1653,0,0
-609,-629,0,0,0,0,0,0,0,0,0,-1,615,1653,0,0
-602,-629,0,0,0,0,0,0,0,0,0,-1,622,1653,0,0
-595,-629,0,0,0,0,0,0,0,0,0,-1,629,1653,0,0
-588,-629,0,0,0,0,0,0,0,0,0,-1,636,1653,0,0
-581,-629,0,0,0,0,0,0,0,0,0,-1,643,1653,0,0
-574,-629,0,0,0,0,0,0,0,0,0,-1,650,1653,0,0
-567,-629,0,0,0,0,0,0,0,0,0,-1,657,1653,0,0
-560,-629,0,0,0,0,0,0,0,0,0,-1,664,1653,0,0
-553,-629,0,0,0,0,0,0,0,0,0,-1,671,1653,0,0
-546,-629,0,0,0,0,0,0,0,0,0,-1,678,1653,0,0
-539,-629,0,0,0,0,0,0,0,0,0,-1,685,1653,0,0
-532,-629,0,0,0,0,0,0,0,0,0,-1,692,1653,0,0
-525,-629,0,0,0,0,0,0,0,0,0,-1,699,1653,0,0
-518,-629,0,0,0,0,0,0,0,0,0,-1,706,1653,0,0
-511,-629,0,0,0,0,0,0,0,0,0,-1,713,1653,0,0
-504,-629,0,0,0,0,0,0,0,0,0,-1,720,1653,0,0
-497,-629,0,0,0,0,0,0,0,0,0,-1,727,1653,0,0
-490,-629,0,0,0,0,0,0,0,0,0,-1,734,1653,0,0
-483,-629,0,0,0,0,0,0,0,0,0,-1,741,1653,0,0
-476,-629,0,0,0,0,0,0,0,0,0,-1,748,1653,0,0
-469,-629,0,0,0,0,0,0,0,0,0,-1,755,1653,0,0
-462,-629,0,0,0,0,0,0,0,0,0,-1,762,1653,0,0
-455,-629,0,0,0,0,0,0,0,0,0,-1,769,1653,0,0
-448,-629,0,0,0,0,0,0,0,0,0,-1,776,1653,0,0
-441,-629,0,0,0,0,0,0,0,0,0,-1,783,1653,0,0
-434,-629,0,0,0,0,0,0,0,0,0,-1,790,1653,0,0
-427,-629,0,0,0,0,0,0,0,0,0,-1,797,1653,0,0
-420,-629,0.278137,-2.27942,0,0,0,0,0,0,0,-1,804,1653,0.278138,2.27945
-413,-629,0.207825,-2.6582,0,0,0,0,0,0,0,-1,811,1653,0.207843,2.6582
-406,-629,-0.324097,-2.72803,0,0,0,0,0,0,0,-1,818,1653,-0.3241,2.72805
-399,-629,1.90576,-1.42078,0,0,0,0,0,0,0,-1,825,1653,1.90576,1.42081
-392,-629,1.87201,-0.341797,-0.0199064,0.0263277,0.031463,0.0422532,-0.0358319,1.10223,0.0451332,0.0465964,832,1653,1.87198,0.341761
-385,-629,1.7713,0.886719,-0.0151855,0.0160079,0.0275478,0.0320678,-0.0312454,1.04298,0.0365549,0.0425864,839,1653,1.77127,-0.886747
-378,-629,1.63916,1.974,-0.00920092,0.00793928,0.0231987,0.0241002,-0.0253619,0.962334,0.02856,0.0426746,846,1653,1.63916,-1.97401
-371,-629,1.67114,2.422,-0.00378158,0.00291691,0.0181061,0.0179809,-0.0188456,0.876854,0.0212638,0.0467555,853,1653,1.67115,-2.42203
-364,-629,1.57306,2.31653,0.000411214,-0.000723785,0.0128344,0.0126907,-0.0130033,0.763304,0.0148348,0.0472219,860,1653,1.57308,-2.31656
-357,-629,1.62842,2.20898,0.00235335,-0.00253047,0.00829528,0.00855866,-0.00873579,0.642255,0.00998513,0.0445134,867,1653,1.62844,-2.20895
-350,-629,1.70331,2.30444,0.00298798,-0.00197472,0.00439403,0.00555288,-0.00453962,0.528365,0.00583669,0.037458,874,1653,1.7033,-2.30448
-343,-629,1.68701,2.28882,0.00377207,-0.00139637,0.00241881,0.00472746,-0.00235176,0.376174,0.0041632,0.0286314,881,1653,1.68703,-2.28884
-336,-629,1.70557,2.21863,0.00393575,-0.000633901,0.000598721,0.0040129,-0.000711043,0.12814,0.00294107,0.0162799,888,1653,1.70559,-2.21869
-329,-629,1.70764,2.25476,0.00368864,-0.000608431,-0.000403742,0.00372624,-0.000646036,-0.0928744,0.00272515,0.0110139,895,1653,1.70762,-2.25474
-322,-629,1.71826,2.29895,0.00315165,-0.000212025,-0.000609694,0.00325875,-0.000319127,-0.173891,0.00228631,0.0121412,902,1653,1.71825,-2.29894
-315,-629,1.69891,2.34216,0.00251328,-4.44063e-05,-0.000559185,0.00263019,-0.000161316,-0.206104,0.00180963,0.0152666,909,1653,1.6989,-2.34212
-308,-629,1.70166,2.37207,0.00182888,2.63124e-05,-0.000358346,0.00189751,-4.23133e-05,-0.189215,0.00127934,0.0124251,916,1653,1.70164,-2.37213
-301,-629,1.72296,2.40955,0.00111772,8.93672e-05,7.50371e-05,0.00112316,8.39208e-05,0.072457,0.000722429,0.0116086,923,1653,1.72296,-2.40957
-294,-629,1.72833,2.44348,0.000606244,-0.000236322,0.000497462,0.000836841,-0.000466919,0.434063,0.000762759,0.0125974,930,1653,1.72834,-2.44348
-287,-629,1.72534,2.46814,0.000534391,-0.00155724,0.000595445,0.000692023,-0.00171487,0.258793,0.00143084,0.009273,937,1653,1.72533,-2.46815
-280,-629,1.7276,2.5144,0.000640076,-0.00171712,0.00119791,0.00114198,-0.00221902,0.396763,0.00197341,0.00907935,944,1653,1.7276,-2.5144
-273,-629,1.73059,2.5155,0.00123067,-0.00169493,0.0016481,0.0019715,-0.00243576,0.422446,0.00254924,0.0116801,951,1653,1.73062,-2.51549
-266,-629,1.72534,2.55664,0.00193223,-0.00132728,0.0022605,0.00308923,-0.00248428,0.473067,0.00322418,0.0128059,958,1653,1.72534,-2.55669
-259,-629,1.71924,2.61487,0.00244982,-0.00161467,0.00278075,0.00386179,-0.00302664,0.46984,0.00398677,0.0147173,965,1653,1.71924,-2.61482
-252,-629,1.70874,2.62646,0.00309434,-0.00138303,0.00349351,0.00500491,-0.0032936,0.500454,0.00482498,0.0110688,972,1653,1.70872,-2.62643
-245,-629,1.71277,2.64575,0.00352976,-0.00117556,0.00428356,0.00606422,-0.00371002,0.534272,0.00569746,0.00786948,979,1653,1.71278,-2.64579
-238,-629,1.72528,2.69556,0.00377926,-0.000836707,0.00501801,0.00699461,-0.00405206,0.569853,0.00645278,0.00923887,986,1653,1.72526,-2.69554
-231,-629,1.72668,2.73083,0.00376069,-0.000447338,0.00573649,0.00776685,-0.0044535,0.609627,0.00714134,0.00937774,993,1653,1.72668,-2.73089
-224,-629,1.73444,2.74683,0.00341256,0.000151328,0.00623775,0.0082293,-0.00466541,0.657554,0.00753895,0.00950166,1000,1653,1.73446,-2.7468
-217,-629,1.737,2.76086,0.00241031,0.00138953,0.00651505,0.00843494,-0.00463509,0.746308,0.00765155,0.0128622,1007,1653,1.73701,-2.76093
-210,-629,1.70251,2.77161,0.00093946,0.00312585,0.00650934,0.00863316,-0.00456784,0.868593,0.00774113,0.0259186,1014,1653,1.70249,-2.77157
-203,-629,1.61639,2.80518,0.000588444,0.00505136,0.00567993,0.00892244,-0.00328264,0.972569,0.00729307,0.0373562,1021,1653,1.61638,-2.80516
-196,-629,1.76855,2.84045,0.000365584,0.00851971,0.00387496,0.0100674,-0.0011821,1.1908,0.00713833,0.0398596,1028,1653,1.7686,-2.84043
-189,-629,1.79883,2.90613,-8.55017e-05,0.0124794,0.00298645,0.0131531,-0.000759208,1.34892,0.00903243,0.0404392,1035,1653,1.79887,-2.90618
-182,-629,1.83496,2.95154,0.000257465,0.0159401,0.00220439,0.016244,-4.65e-05,1.43377,0.0108449,0.0453936,1042,1653,1.83496,-2.95151
-175,-629,1.8512,2.88086,0.00125851,0.0183529,0.00163225,0.0185073,0.00110405,1.47645,0.0119872,0.0465926,1049,1653,1.85114,-2.88088
-168,-629,1.84583,2.55481,0.00205395,0.0209489,0.00136743,0.0210474,0.0019555,1.49893,0.0134273,0.0447386,1056,1653,1.84587,-2.55486
-161,-629,1.61597,3.0354,0.00297263,0.0235627,0.00133863,0.0236494,0.00288597,1.50615,0.0148977,0.0435011,1063,1653,1.61602,-3.03536
-154,-629,1.7417,3.25085,0.00425764,0.0269625,0.00292397,0.027333,0.00388713,1.44475,0.0170744,0.0452094,1070,1653,1.74171,-3.25086
-147,-629,1.73889,2.96826,0.00489873,0.0286241,0.00452685,0.0294585,0.00406434,1.38852,0.0184342,0.0483181,1077,1653,1.7389,-2.96823
-140,-629,1.78687,3.06677,0.00505067,0.0299944,0.00667833,0.0316699,0.00337518,1.32499,0.0200829,0.0466499,1084,1653,1.78687,-3.06678
-133,-629,2.07092,3.23779,0.00481962,0.0303839,0.00971486,0.0336568,0.00154681,1.24585,0.0219404,0.0447657,1091,1653,2.07098,-3.23782
-126,-629,1.28491,4.58826,0,0,0,0,0,0,0,-1,1098,1653,1.28496,-4.58825
-119,-629,3.2782,2.77722,0.00286786,0.0258546,0.0158391,0.0339309,-0.0052085,1.09926,0.0245417,0.0489742,1105,1653,3.27826,-2.77727
-112,-629,2.26892,3.51611,0.00166444,0.0180392,0.0159848,0.0278114,-0.00810773,1.02208,0.0217531,0.0479187,1112,1653,2.26895,-3.51607
-105,-629,2.63586,4.02625,0.000461188,0.00829102,0.0125199,0.0174938,-0.00874164,0.936929,0.0154255,0.0468928,1119,1653,2.63586,-4.0263
-98,-629,2.95618,4.67114,0,0,0,0,0,0,0,-1,1126,1653,2.95616,-4.67119
-91,-629,3.646,4.4812,0,0,0,0,0,0,0,-1,1133,1653,3.64595,-4.48119
-84,-629,3.62305,3.66736,0,0,0,0,0,0,0,-1,1140,1653,3.62301,-3.66738
-77,-629,-0.527466,2.83337,0,0,0,0,0,0,0,-1,1147,1653,-0.527422,-2.83338
-70,-629,-0.324097,2.18225,-0.00138505,-0.0341035,-0.0136462,0.0035593,-0.0390478,-0.347612,0.0272958,0.0464505,1154,1653,-0.32411,-2.18226
-63,-629,-0.0202637,1.38281,-0.000520112,-0.0407417,-0.0200599,0.00777409,-0.0490359,-0.392065,0.0355663,0.0473999,1161,1653,-0.0202373,-1.38286
-56,-629,0.0354004,0.842041,0.000154771,-0.0480207,-0.0257062,0.0112952,-0.0591612,-0.408945,0.0436952,0.0484364,1168,1653,0.0354227,-0.842074
-49,-629,-0.199829,0.223999,-0.00142932,-0.0486833,-0.031982,0.0147065,-0.0648191,-0.467264,0.0488584,0.0470126,1175,1653,-0.199878,-0.224028
-42,-629,-0.408325,-0.146729,-0.00624393,-0.0385482,-0.0329375,0.0142887,-0.0590809,-0.557434,0.0449143,0.0440293,1182,1653,-0.408288,0.146732
-35,-629,-0.411621,-0.198608,-0.0101339,-0.0232986,-0.0310049,0.0149797,-0.0484122,-0.680801,0.0382583,0.0481297,1189,1653,-0.411572,0.19855
-28,-629,-0.402954,-0.866577,0,0,0,0,0,0,0,-1,1196,1653,-0.402943,0.866612
-21,-629,4.35876,7.82349,0,0,0,0,0,0,0,-1,1203,1653,4.35873,-7.82352
-14,-629,4.49316,7.61975,-0.0315637,0.0292477,-0.0195493,0.0349901,-0.037306,-1.2851,0.0417473,0.0489118,1210,1653,4.49313,-7.61972
-7,-629,4.39929,7.61121,0,0,0,0,0,0,0,-1,1217,1653,4.39934,-7.61121
0,-629,4.47974,7.4469,0,0,0,0,0,0,0,-1,1224,1653,4.47973,-7.44692
7,-629,3.92859,7.55029,0,0,0,0,0,0,0,-1,1231,1653,3.92864,-7.55029
14,-629,3.13684,7.68542,0,0,0,0,0,0,0,-1,1238,1653,3.13678,-7.68537
21,-629,3.70862,7.26123,-0.0711209,0.124009,0.00324445,0.124063,-0.0711748,1.55418,0.114091,0.0472607,1245,1653,3.70859,-7.26118
28,-629,3.09192,7.18115,-0.0731377,0.133601,0.00438791,0.133694,-0.0732308,1.54958,0.121156,0.0470406,1252,1653,3.09197,-7.1812
35,-629,2.38623,7.14771,-0.072738,0.14073,0.000373728,0.14073,-0.0727386,1.56905,0.125313,0.0423408,1259,1653,2.38622,-7.14766
42,-629,1.94763,7.15405,-0.070383,0.143926,-0.00306215,0.143969,-0.0704267,-1.55651,0.126186,0.046678,1266,1653,1.94762,-7.15402
49,-629,0.952637,6.48901,0,0,0,0,0,0,0,-1,1273,1653,0.952594,-6.48903
56,-629,0.440063,7.26172,0,0,0,0,0,0,0,-1,1280,1653,0.440066,-7.2617
63,-629,-0.194458,7.4364,0.0203726,0.140364,-0.0106803,0.141307,0.0194294,-1.48271,0.0884423,0.0454748,1287,1653,-0.194427,-7.43641
70,-629,-0.343872,7.5022,0.0797036,0.138764,-0.00472739,0.13914,0.0793276,-1.49143,0.0805954,0.0413624,1294,1653,-0.343817,-7.50222
77,-629,-0.36792,7.67102,0.145744,0.128299,0.000817973,0.145782,0.12826,0.0467517,0.0919058,0.0455665,1301,1653,-0.367936,-7.67099
84,-629,-1.4834,2.24341,0.205404,0.116354,0.0102135,0.20656,0.115197,0.112743,0.119522,0.0438991,1308,1653,-1.48338,-2.24344
91,-629,-1.65063,2.21375,0.26823,0.102501,0.0239894,0.271632,0.0990988,0.1409,0.158726,0.0451949,1315,1653,-1.65063,-2.21371
98,-629,-1.76367,2.46582,0.332897,0.0864577,0.0403611,0.339338,0.0800158,0.15827,0.204831,0.0477947,1322,1653,-1.76366,-2.46581
105,-629,7.58325,-3.35767,0,0,0,0,0,0,0,-1,1329,1653,7.58323,3.35762
112,-629,8.58752,-3.42664,0.389039,0.0438974,0.0617495,0.399754,0.0331824,0.171813,0.256159,0.0474126,1336,1653,8.58753,3.42661
119,-629,9.50208,-3.78015,0.407694,0.0208673,0.0709174,0.420285,0.00827578,0.175721,0.277473,0.0432115,1343,1653,9.50206,3.78017
126,-629,10.2715,-4.14612,0.388711,-0.00429382,0.0694695,0.40063,-0.0162122,0.169908,0.272651,0.0443826,1350,1653,10.2715,4.14612
133,-629,10.8357,-4.46997,0.349812,-0.0274376,0.0660461,0.361041,-0.0386663,0.168402,0.254564,0.0488835,1357,1653,10.8356,4.46992
140,-629,11.4774,-4.81982,0,0,0,0,0,0,0,-1,1364,1653,11.4775,4.81985
147,-629,3.02185,3.4834,0,0,0,0,0,0,0,-1,1371,1653,3.02186,-3.48334
154,-629,3.67371,3.02124,0.205748,-0.0668987,0.0420952,0.212099,-0.07325,0.14975,0.171124,0.0487906,1378,1653,3.67374,-3.02129
161,-629,4.24792,2.66711,0.162901,-0.0703713,0.0271344,0.166016,-0.073486,0.114288,0.141675,0.0436078,1385,1653,4.24794,-2.66708
168,-629,4.19763,2.40063,0,0,0,0,0,0,0,-1,1392,1653,4.19763,-2.40061
175,-629,4.24011,2.08167,0,0,0,0,0,0,0,-1,1399,1653,4.24014,-2.08163
182,-629,4.2572,2.14722,0.0361236,-0.0678479,-0.0114826,0.0373766,-0.069101,-0.108695,0.0623778,0.0455231,1406,1653,4.25724,-2.14723
189,-629,3.82825,2.00537,0.0315229,-0.0562197,-0.0125947,0.0332949,-0.0579918,-0.139782,0.0533434,0.0420073,1413,1653,3.82828,-2.00532
196,-629,4.20203,1.54932,0.029775,-0.046788,-0.0133726,0.0320435,-0.0490564,-0.168035,0.0471652,0.0460521,1420,1653,4.20208,-1.54929
203,-629,4.3407,0.995972,0.0307586,-0.0399688,-0.0123354,0.0328483,-0.0420585,-0.167809,0.0433563,0.044696,1427,1653,4.34064,-0.995994
210,-629,4.72754,0.675415,0.03163,-0.0353378,-0.0126334,0.033934,-0.0376418,-0.180392,0.0413428,0.0441944,1434,1653,4.72758,-0.67541
217,-629,5.39038,0.537354,0,0,0,0,0,0,0,-1,1441,1653,5.39041,-0.537326
224,-629,6.00342,1.00867,0,0,0,0,0,0,0,-1,1448,1653,6.00344,-1.00861
231,-629,6.14648,1.80908,0,0,0,0,0,0,0,-1,1455,1653,6.14653,-1.80903
238,-629,3.64941,1.26538,0,0,0,0,0,0,0,-1,1462,1653,3.64935,-1.26543
245,-629,4.09448,1.27905,0,0,0,0,0,0,0,-1,1469,1653,4.09454,-1.27911
252,-629,4.18542,1.3761,0,0,0,0,0,0,0,-1,1476,1653,4.18547,-1.37612
259,-629,4.66772,1.29004,0,0,0,0,0,0,0,-1,1483,1653,4.66776,-1.29005
266,-629,4.76428,1.34412,0,0,0,0,0,0,0,-1,1490,1653,4.7643,-1.3441
273,-629,2.0564,1.33704,0,0,0,0,0,0,0,-1,1497,1653,2.05636,-1.33709
280,-629,2.18835,2.25745,0,0,0,0,0,0,0,-1,1504,1653,2.18838,-2.2574
287,-629,2.53894,2.07324,0,0,0,0,0,0,0,-1,1511,1653,2.53893,-2.07329
294,-629,2.56104,2.34521,-0.00110939,-0.0235705,0.00595235,0.000370517,-0.0250504,0.243684,0.0168252,0.0477667,1518,1653,2.56109,-2.34526
301,-629,2.56409,2.60168,-0.00205685,-0.0184208,0.00866044,0.00167536,-0.022153,0.406899,0.0153576,0.0474748,1525,1653,2.56412,-2.6017
308,-629,2.47534,2.82178,-0.00289315,-0.0148346,0.00991581,0.00271078,-0.0204386,0.514401,0.0146134,0.0475594,1532,1653,2.4753,-2.82176
315,-629,2.25269,2.84985,0,0,0,0,0,0,0,-1,1539,1653,2.25263,-2.8498
322,-629,2.59375,2.65515,-0.00324046,-0.00911706,0.0100811,0.00432187,-0.0166794,0.643594,0.0128057,0.0470632,1546,1653,2.59374,-2.65519
329,-629,2.99426,2.74158,-0.00296803,-0.00706939,0.00928846,0.00449343,-0.0145308,0.676752,0.011482,0.0383766,1553,1653,2.99429,-2.74156
336,-629,2.47961,2.82849,-0.00284947,-0.00592921,0.00828821,0.0040407,-0.0128194,0.69355,0.0101645,0.0383688,1560,1653,2.47962,-2.8285
343,-629,2.39197,2.77686,-0.00256798,-0.00468474,0.00677373,0.00322956,-0.0104823,0.707901,0.00827745,0.0354994,1567,1653,2.39194,-2.77684
350,-629,2.38562,2.75452,-0.00220518,-0.00375352,0.0051194,0.00219826,-0.00815696,0.710356,0.00629989,0.0255211,1574,1653,2.38556,-2.75449
357,-629,2.42163,2.74097,-0.001722,-0.00367149,0.00369994,0.00112943,-0.00652292,0.6566,0.00476988,0.0161884,1581,1653,2.42163,-2.74095
364,-629,2.41064,2.724,-0.00139817,-0.00335195,0.00244833,0.000260963,-0.00501108,0.595575,0.00343102,0.0134409,1588,1653,2.4106,-2.72395
371,-629,2.39734,2.68848,-0.000786223,-0.00308697,0.00144816,-8.71331e-05,-0.00378606,0.449749,0.0024955,0.0108708,1595,1653,2.39732,-2.6885
378,-629,2.39368,2.64722,-6.16161e-05,-0.00242442,0.000633549,9.75396e-05,-0.00258358,0.24612,0.0017558,0.010565,1602,1653,2.39367,-2.64719
385,-629,2.39697,2.63098,0.000686639,-0.00173645,-1.38948e-06,0.00068664,-0.00173645,-0.000573432,0.00144207,0.0124099,1609,1653,2.39692,-2.63097
392,-629,2.3916,2.60706,0.00140417,-0.000994758,-0.00047351,0.00149425,-0.00108484,-0.187994,0.00149528,0.0104068,1616,1653,2.39157,-2.607
399,-629,2.37939,2.55835,0.00174561,-0.000364095,-0.000856365,0.00204946,-0.000667945,-0.340957,0.00163509,0.0105552,1623,1653,2.37935,-2.55834
406,-629,2.38806,2.52063,0.00194581,0.000101392,-0.00122893,0.00256007,-0.000512867,-0.463514,0.00190087,0.0134239,1630,1653,2.38812,-2.52067
413,-629,2.39465,2.46118,0.00213982,0.000792017,-0.00162477,0.0032249,-0.000293061,-0.588812,0.00225398,0.0216596,1637,1653,2.3946,-2.46115
420,-629,2.38965,2.44556,0.0019703,0.000787293,-0.00186365,0.00333406,-0.000576467,-0.631731,0.00243769,0.0200706,1644,1653,2.38965,-2.44556
427,-629,2.39233,2.44165,0.00151364,0.000339755,-0.00181408,0.00283337,-0.000979974,-0.628939,0.00228667,0.0123198,1651,1653,2.39237,-2.44161
434,-629,2.40552,2.4093,0.000964879,0.00119144,-0.00192034,0.00300184,-0.000845521,-0.814859,0.00233467,0.0103558,1658,1653,2.40555,-2.40935
441,-629,2.41895,2.38306,0.000484514,0.00193585,-0.00225339,0.00357753,-0.00115717,-0.941171,0.00285016,0.0147416,1665,1653,2.41893,-2.38311
448,-629,2.39941,2.33032,0.000183559,0.0025379,-0.00249041,0.00411534,-0.00139388,-1.00618,0.00330758,0.0137798,1672,1653,2.39946,-2.33027
455,-629,2.37415,2.28186,-0.000249817,0.00346906,-0.00283471,0.00499976,-0.00178052,-1.07567,0.00405902,0.0131179,1679,1653,2.37419,-2.28184
462,-629,2.40137,2.28638,-0.00059983,0.00514734,-0.00342585,0.00674522,-0.0021977,-1.13437,0.00538111,0.0155842,1686,1653,2.40133,-2.28643
469,-629,2.40247,2.23792,-0.000774238,0.00692641,-0.0041661,0.00874895,-0.00259678,-1.15841,0.00686396,0.0180033,1693,1653,2.40244,-2.23787
476,-629,2.38843,2.1792,-0.000832605,0.00913479,-0.0051848,0.0113427,-0.00304053,-1.16821,0.00875315,0.0255243,1700,1653,2.38848,-2.17918
483,-629,2.35828,2.20898,-0.000421402,0.012412,-0.00694581,0.0154515,-0.00346082,-1.15831,0.0116275,0.0416629,1707,1653,2.35831,-2.20894
490,-629,2.31494,2.27295,0.000354447,0.0158748,-0.00892257,0.0199397,-0.00371046,-1.14332,0.014687,0.0470535,1714,1653,2.31498,-2.2729
497,-629,2.19751,2.13452,0.00174767,0.0204613,-0.0134058,0.0274528,-0.00524379,-1.09008,0.0202771,0.0448344,1721,1653,2.19756,-2.13452
504,-629,2.30444,1.89514,0.00347774,0.0264154,-0.0199832,0.0379871,-0.00809389,-1.04591,0.0284096,0.0461925,1728,1653,2.30447,-1.89517
511,-629,2.28284,1.35938,0.00595814,0.0349993,-0.0284805,0.0524472,-0.0114898,-1.02114,0.0393578,0.0483469,1735,1653,2.28285,-1.35934
518,-629,2.36047,0.603149,0,0,0,0,0,0,0,-1,1742,1653,2.36044,-0.603121
525,-629,3.96777,0.586304,0,0,0,0,0,0,0,-1,1749,1653,3.96773,-0.586363
532,-629,4.45032,-0.310059,0,0,0,0,0,0,0,-1,1756,1653,4.45029,0.310096
539,-629,3.40405,-1.19043,0,0,0,0,0,0,0,-1,1763,1653,3.40403,1.19042
546,-629,0,0,0,0,0,0,0,0,0,-1,1770,1653,0,0
553,-629,0,0,0,0,0,0,0,0,0,-1,1777,1653,0,0
560,-629,0,0,0,0,0,0,0,0,0,-1,1784,1653,0,0
567,-629,0,0,0,0,0,0,0,0,0,-1,1791,1653,0,0
574,-629,0,0,0,0,0,0,0,0,0,-1,1798,1653,0,0
581,-629,0,0,0,0,0,0,0,0,0,-1,1805,1653,0,0
588,-629,0,0,0,0,0,0,0,0,0,-1,1812,1653,0,0
595,-629,0,0,0,0,0,0,0,0,0,-1,1819,1653,0,0
602,-629,0,0,0,0,0,0,0,0,0,-1,1826,1653,0,0
609,-629,0,0,0,0,0,0,0,0,0,-1,1833,1653,0,0
616,-629,0,0,0,0,0,0,0,0,0,-1,1840,1653,0,0
623,-629,0,0,0,0,0,0,0,0,0,-1,1847,1653,0,0
630,-629,0,0,0,0,0,0,0,0,0,-1,1854,1653,0,0
637,-629,0,0,0,0,0,0,0,0,0,-1,1861,1653,0,0
644,-629,0,0,0,0,0,0,0,0,0,-1,1868,1653,0,0
651,-629,0,0,0,0,0,0,0,0,0,-1,1875,1653,0,0
658,-629,0,0,0,0,0,0,0,0,0,-1,1882,1653,0,0
665,-629,0,0,0,0,0,0,0,0,0,-1,1889,1653,0,0
672,-629,0,0,0,0,0,0,0,0,0,-1,1896,1653,0,0
679,-629,0,0,0,0,0,0,0,0,0,-1,1903,1653,0,0
686,-629,0,0,0,0,0,0,0,0,0,-1,1910,1653,0,0
693,-629,0,0,0,0,0,0,0,0,0,-1,1917,1653,0,0
700,-629,0,0,0,0,0,0,0,0,0,-1,1924,1653,0,0
707,-629,0,0,0,0,0,0,0,0,0,-1,1931,1653,0,0
714,-629,0,0,0,0,0,0,0,0,0,-1,1938,1653,0,0
721,-629,0,0,0,0,0,0,0,0,0,-1,1945,1653,0,0
728,-629,0,0,0,0,0,0,0,0,0,-1,1952,1653,0,0
735,-629,0,0,0,0,0,0,0,0,0,-1,1959,1653,0,0
742,-629,0,0,0,0,0,0,0,0,0,-1,1966,1653,0,0
749,-629,0,0,0,0,0,0,0,0,0,-1,1973,1653,0,0
756,-629,0,0,0,0,0,0,0,0,0,-1,1980,1653,0,0
763,-629,0,0,0,0,0,0,0,0,0,-1,1987,1653,0,0
770,-629,0,0,0,0,0,0,0,0,0,-1,1994,1653,0,0
777,-629,0,0,0,0,0,0,0,0,0,-1,2001,1653,0,0
784,-629,0,0,0,0,0,0,0,0,0,-1,2008,1653,0,0
791,-629,0,0,0,0,0,0,0,0,0,-1,2015,1653,0,0
798,-629,0,0,0,0,0,0,0,0,0,-1,2022,1653,0,0
805,-629,0,0,0,0,0,0,0,0,0,-1,2029,1653,0,0
812,-629,0,0,0,0,0,0,0,0,0,-1,2036,1653,0,0
-700,-636,0,0,0,0,0,0,0,0,0,-1,524,1660,0,0
-693,-636,0,0,0,0,0,0,0,0,0,-1,531,1660,0,0
-686,-636,0,0,0,0,0,0,0,0,0,-1,538,1660,0,0
-679,-636,0,0,0,0,0,0,0,0,0,-1,545,1660,0,0
-672,-636,0,0,0,0,0,0,0,0,0,-1,552,1660,0,0
-665,-636,0,0,0,0,0,0,0,0,0,-1,559,1660,0,0
-658,-636,0,0,0,0,0,0,0,0,0,-1,566,1660,0,0
-651,-636,0,0,0,0,0,0,0,0,0,-1,573,1660,0,0
-644,-636,0,0,0,0,0,0,0,0,0,-1,580,1660,0,0
-637,-636,0,0,0,0,0,0,0,0,0,-1,587,1660,0,0
-630,-636,0,0,0,0,0,0,0,0,0,-1,594,1660,0,0
-623,-636,0,0,0,0,0,0,0,0,0,-1,601,1660,0,0
-616,-636,0,0,0,0,0,0,0,0,0,-1,608,1660,0,0
-609,-636,0,0,0,0,0,0,0,0,0,-1,615,1660,0,0
-602,-636,0,0,0,0,0,0,0,0,0,-1,622,1660,0,0
-595,-636,0,0,0,0,0,0,0,0,0,-1,629,1660,0,0
-588,-636,0,0,0,0,0,0,0,0,0,-1,636,1660,0,0
-581,-636,0,0,0,0,0,0,0,0,0,-1,643,1660,0,0
-574,-636,0,0,0,0,0,0,0,0,0,-1,650,1660,0,0
-567,-636,0,0,0,0,0,0,0,0,0,-1,657,1660,0,0
-560,-636,0,0,0,0,0,0,0,0,0,-1,664,1660,0,0
-553,-636,0,0,0,0,0,0,0,0,0,-1,671,1660,0,0
-546,-636,0,0,0,0,0,0,0,0,0,-1,678,1660,0,0
-539,-636,0,0,0,0,0,0,0,0,0,-1,685,1660,0,0
-532,-636,0,0,0,0,0,0,0,0,0,-1,692,1660,0,0
-525,-636,0,0,0,0,0,0,0,0,0,-1,699,1660,0,0
-518,-636,0,0,0,0,0,0,0,0,0,-1,706,1660,0,0
-511,-636,0,0,0,0,0,0,0,0,0,-1,713,1660,0,0
-504,-636,0,0,0,0,0,0,0,0,0,-1,720,1660,0,0
-497,-636,0,0,0,0,0,0,0,0,0,-1,727,1660,0,0
-490,-636,0,0,0,0,0,0,0,0,0,-1,734,1660,0,0
-483,-636,0,0,0,0,0,0,0,0,0,-1,741,1660,0,0
-476,-636,0,0,0,0,0,0,0,0,0,-1,748,1660,0,0
-469,-636,0,0,0,0,0,0,0,0,0,-1,755,1660,0,0
-462,-636,0,0,0,0,0,0,0,0,0,-1,762,1660,0,0
-455,-636,0,0,0,0,0,0,0,0,0,-1,769,1660,0,0
-448,-636,0,0,0,0,0,0,0,0,0,-1,776,1660,0,0
-441,-636,0,0,0,0,0,0,0,0,0,-1,783,1660,0,0
-434,-636,0,0,0,0,0,0,0,0,0,-1,790,1660,0,0
-427,-636,0,0,0,0,0,0,0,0,0,-1,797,1660,0,0
-420,-636,0,0,0,0,0,0,0,0,0,-1,804,1660,0,0
-413,-636,0,0,0,0,0,0,0,0,0,-1,811,1660,0,0
-406,-636,-0.739685,-3.18994,0,0,0,0,0,0,0,-1,818,1660,-0.739705,3.18994
-399,-636,1.24524,2.34497,0,0,0,0,0,0,0,-1,825,1660,1.24522,-2.34494
-392,-636,2.8739,0.589233,0,0,0,0,0,0,0,-1,832,1660,2.87393,-0.589265
-385,-636,2.3233,1.33862,-0.0153984,0.0129628,0.0285006,0.0306157,-0.0330513,1.01624,0.0367671,0.0400429,839,1660,2.3233,-1.33862
-378,-636,1.74634,2.11096,-0.0084922,0.00513681,0.0236222,0.0229078,-0.0262632,0.925825,0.0284109,0.0414535,846,1660,1.74634,-2.111
-371,-636,1.51428,2.48083,-0.00230366,0.000460549,0.0178125,0.0169444,-0.0187876,0.824117,0.020639,0.0460371,853,1660,1.51427,-2.48082
-364,-636,1.37958,2.42151,0.00225304,-0.00251545,0.0119531,0.0120574,-0.0123198,0.686957,0.0140744,0.0476451,860,1660,1.37956,-2.42152
-357,-636,1.58221,2.24036,0,0,0,0,0,0,0,-1,867,1660,1.58219,-2.24036
-350,-636,1.61902,2.5022,0.00496847,-0.00256123,0.00304866,0.00604804,-0.0036408,0.340335,0.00565111,0.0426984,874,1660,1.61903,-2.50222
-343,-636,1.72473,2.61536,0.00548848,-0.0016498,0.0010891,0.00565095,-0.00181227,0.148085,0.00449487,0.0420471,881,1660,1.72474,-2.61541
-336,-636,1.74579,2.25146,0.00525958,-0.000671545,-0.000590359,0.00531777,-0.000729736,-0.0982513,0.00381178,0.0339037,888,1660,1.74577,-2.25146
-329,-636,1.7265,2.28503,0.00458183,-0.000480913,-0.00141709,0.00495149,-0.000850571,-0.255172,0.003618,0.0174531,895,1660,1.72647,-2.28506
-322,-636,1.74213,2.30762,0.00364849,-0.0001433,-0.00127767,0.00403883,-0.00053364,-0.296502,0.00288692,0.0113865,902,1660,1.74211,-2.30756
-315,-636,1.73785,2.3363,0.00265057,4.32057e-05,-0.000796421,0.00287459,-0.000180814,-0.274198,0.00197942,0.0127836,909,1660,1.73786,-2.33627
-308,-636,1.74329,2.36853,0.00165318,2.62644e-05,-0.000263472,0.00169478,-1.534e-05,-0.156615,0.001135,0.0117208,916,1660,1.74329,-2.36855
-301,-636,1.76007,2.41418,0.000800928,8.29765e-05,0.000537838,0.00108858,-0.00020468,0.491128,0.000802695,0.0109764,923,1660,1.76009,-2.4142
-294,-636,1.76404,2.44067,0.000114,-0.000133762,0.00120394,0.00120041,-0.00122018,0.73413,0.00139754,0.0136898,930,1660,1.76404,-2.44068
-287,-636,1.75787,2.46729,-0.000133758,-0.00151352,0.00136121,0.000702413,-0.00234969,0.550856,0.0018457,0.0113966,937,1660,1.75789,-2.46734
-280,-636,1.75861,2.52124,-0.000118547,-0.00154141,0.00195381,0.00124932,-0.00290928,0.610797,0.0024639,0.0106088,944,1660,1.75861,-2.52126
-273,-636,1.74835,2.52881,0.000455164,-0.001415,0.00217298,0.00188571,-0.00284555,0.582213,0.00275027,0.0109027,951,1660,1.74837,-2.52887
-266,-636,1.75769,2.55737,0.00119669,-0.00110151,0.00246981,0.00277162,-0.00267645,0.567663,0.00314561,0.0126859,958,1660,1.75772,-2.55735
-259,-636,1.76984,2.59558,0.00195795,-0.00117348,0.00268401,0.00349955,-0.00271507,0.521355,0.00359753,0.0145805,965,1660,1.76982,-2.59557
-252,-636,1.76544,2.60938,0.00266388,-0.000869374,0.0029916,0.00437153,-0.00257703,0.518685,0.0040561,0.0111227,972,1660,1.76544,-2.60935
-245,-636,1.77222,2.65894,0.00310961,-0.000535228,0.00340831,0.00515213,-0.00257775,0.539888,0.0045446,0.0105606,979,1660,1.7722,-2.65894
-238,-636,1.78735,2.6947,0.00330338,-6.61807e-05,0.00382272,0.00579612,-0.00255892,0.57784,0.004943,0.0111324,986,1660,1.78737,-2.69465
-231,-636,1.77698,2.72961,0.00337453,0.000346268,0.0042791,0.00639948,-0.00267868,0.615351,0.00538603,0.00991615,993,1660,1.77699,-2.72956
-224,-636,1.76935,2.75305,0.00324798,0.000922953,0.00459495,0.00682519,-0.00265426,0.661499,0.00564679,0.00796031,1000,1660,1.76935,-2.75305
-217,-636,1.75427,2.78125,0.00259806,0.00197783,0.00476382,0.00706185,-0.00248596,0.752895,0.00571956,0.00936086,1007,1660,1.75427,-2.78127
-210,-636,1.75641,2.7865,0.00162061,0.00330888,0.0047551,0.00729419,-0.0023647,0.873244,0.00581361,0.0129183,1014,1660,1.75638,-2.78653
-203,-636,1.76599,2.80151,0.00145829,0.00480421,0.0041932,0.00764586,-0.00138336,0.975207,0.00561545,0.0165524,1021,1660,1.76597,-2.80155
-196,-636,1.78125,2.81958,0.00130492,0.0072645,0.0030345,0.00853763,3.17893e-05,1.17355,0.00568119,0.0176831,1028,1660,1.78127,-2.81954
-189,-636,1.76978,2.85364,0.000957595,0.010221,0.00251822,0.0108613,0.000317285,1.3218,0.00713745,0.0201268,1035,1660,1.76978,-2.85362
-182,-636,1.83032,2.86731,0.0013778,0.0127906,0.00208064,0.0131581,0.00101032,1.39598,0.00845544,0.0379435,1042,1660,1.83034,-2.86734
-175,-636,1.87122,2.81116,0.00243337,0.0145166,0.00185184,0.014794,0.00215594,1.42209,0.00922835,0.0456878,1049,1660,1.87126,-2.81112
-168,-636,1.67847,2.75464,0.00336188,0.01627,0.00204677,0.0165868,0.00304511,1.41725,0.0101956,0.0444474,1056,1660,1.67847,-2.7546
-161,-636,1.6853,3.1073,0.00402756,0.0181326,0.00239194,0.0185272,0.00363298,1.4073,0.0113362,0.0428413,1063,1660,1.68531,-3.10725
-154,-636,1.81665,3.25037,0.0046763,0.0206005,0.00390606,0.021507,0.00376979,1.34275,0.0132612,0.0467098,1070,1660,1.81659,-3.25036
-147,-636,1.73291,3.02698,0,0,0,0,0,0,0,-1,1077,1660,1.73295,-3.02704
-140,-636,1.64746,2.53894,0.00516744,0.023162,0.00720427,0.0256909,0.00263855,1.23321,0.016319,0.0480714,1084,1660,1.64751,-2.53893
-133,-636,1.67078,2.74146,0.0052103,0.0236975,0.00973325,0.027877,0.00103077,1.1652,0.0182508,0.0438572,1091,1660,1.67081,-2.74147
-126,-636,2.48376,2.6344,0.00468999,0.0237091,0.0130851,0.0303752,-0.00197614,1.09962,0.0209399,0.0469183,1098,1660,2.48376,-2.63442
-119,-636,3.26392,2.67712,0.00396867,0.0206849,0.0150617,0.0295522,-0.00489857,1.03871,0.0215209,0.0470707,1105,1660,3.26396,-2.67718
-112,-636,3.83594,2.65869,0.0027361,0.0147295,0.015655,0.0254971,-0.00803147,0.968304,0.0202142,0.0455238,1112,1660,3.83591,-2.65868
-105,-636,2.56079,3.5531,0.000959344,0.0068939,0.0133133,0.0175666,-0.00971335,0.895046,0.0159661,0.0429192,1119,1660,2.56075,-3.55316
-98,-636,3.00269,4.70569,0,0,0,0,0,0,0,-1,1126,1660,3.00269,-4.70566
-91,-636,3.01038,4.04224,0,0,0,0,0,0,0,-1,1133,1660,3.01034,-4.0422
-84,-636,3.1814,3.36023,0,0,0,0,0,0,0,-1,1140,1660,3.18139,-3.36019
-77,-636,3.30432,2.9043,0,0,0,0,0,0,0,-1,1147,1660,3.30435,-2.9043
-70,-636,-0.577637,2.46082,0,0,0,0,0,0,0,-1,1154,1660,-0.577667,-2.46087
-63,-636,0.202515,1.74121,0,0,0,0,0,0,0,-1,1161,1660,0.202507,-1.74124
-56,-636,0.0600586,1.13318,-0.00420699,-0.0391604,-0.0241458,0.00812329,-0.0514907,-0.472138,0.0373307,0.0475877,1168,1660,0.060097,-1.13319
-49,-636,-0.137573,0.602783,-0.00595658,-0.0382876,-0.0291694,0.0112272,-0.0554715,-0.532369,0.0412361,0.0462784,1175,1660,-0.13762,-0.602812
-42,-636,-0.386108,0.0622559,-0.00995223,-0.0292521,-0.0301179,0.0120239,-0.0512283,-0.630363,0.0387864,0.0417675,1182,1660,-0.386088,-0.0622126
-35,-636,-0.594482,-0.347412,-0.0134421,-0.0158267,-0.0288104,0.0142007,-0.0434695,-0.764718,0.0346958,0.044422,1189,1660,-0.594481,0.347377
-28,-636,-0.547729,-0.492432,0,0,0,0,0,0,0,-1,1196,1660,-0.547721,0.492467
-21,-636,4.44739,7.84558,0,0,0,0,0,0,0,-1,1203,1660,4.44733,-7.84555
-14,-636,4.64441,7.64941,0,0,0,0,0,0,0,-1,1210,1660,4.64443,-7.64946
-7,-636,4.61658,6.46741,0,0,0,0,0,0,0,-1,1217,1660,4.61659,-6.46737
0,-636,4.07776,6.60278,-0.0482598,0.0668331,-0.0129499,0.0682722,-0.0496989,-1.46012,0.0683914,0.0471646,1224,1660,4.0778,-6.60273
7,-636,3.52417,6.74951,-0.0545634,0.0828904,-0.00876049,0.0834465,-0.0551195,-1.5074,0.0805564,0.0471654,1231,1660,3.52414,-6.74953
14,-636,3.09167,6.78589,-0.0606924,0.0996395,-0.00393308,0.099736,-0.0607888,-1.54629,0.0935839,0.0459166,1238,1660,3.09166,-6.78593
21,-636,3.46643,6.65381,-0.0680563,0.115771,0.0014508,0.115783,-0.0680677,1.5629,0.107331,0.0479894,1245,1660,3.46641,-6.65387
28,-636,2.99194,6.48584,-0.0710493,0.124359,0.00179607,0.124375,-0.0710658,1.56161,0.114229,0.0487372,1252,1660,2.99194,-6.48585
35,-636,2.55286,6.29932,-0.0704299,0.129626,-0.00248885,0.129657,-0.0704608,-1.55836,0.117211,0.0421696,1259,1660,2.55281,-6.29937
42,-636,1.56189,5.84973,-0.0670608,0.130416,-0.00654756,0.130633,-0.0672777,-1.53769,0.116199,0.0473226,1266,1660,1.56195,-5.84977
49,-636,0.849854,5.95679,-0.0471627,0.126673,-0.0142163,0.127828,-0.0483176,-1.48973,0.105095,0.0482883,1273,1660,0.849819,-5.95678
56,-636,0.164307,6.08862,-0.0320427,0.122045,-0.0215396,0.124999,-0.034997,-1.43449,0.0971234,0.0487247,1280,1660,0.164325,-6.08866
63,-636,-0.508667,6.54248,0.00925245,0.120016,-0.014608,0.12191,0.00735828,-1.44185,0.0789349,0.0457696,1287,1660,-0.508629,-6.54249
70,-636,-1.0907,6.75183,0.058604,0.117822,-0.0107161,0.119701,0.0567245,-1.39717,0.0691411,0.0445544,1294,1660,-1.09068,-6.75177
77,-636,-1.58276,6.65601,0.116364,0.106692,-0.00712061,0.120136,0.10292,-0.487086,0.0750133,0.0464078,1301,1660,-1.58274,-6.65602
84,-636,-0.852173,2.01855,0.16904,0.0950749,-0.000775996,0.169048,0.0950668,-0.0104899,0.0978525,0.0437277,1308,1660,-0.852194,-2.01859
91,-636,-0.971313,2.14685,0.223954,0.0814818,0.00926561,0.224555,0.0808818,0.0646712,0.131325,0.0441701,1315,1660,-0.971325,-2.1468
98,-636,-1.07947,2.35388,0.28109,0.0664018,0.0220244,0.283326,0.0641657,0.101184,0.171543,0.0493078,1322,1660,-1.07942,-2.35383
105,-636,-0.856323,1.67969,0,0,0,0,0,0,0,-1,1329,1660,-0.856382,-1.67975
112,-636,-1.22693,2.0448,0.343922,0.0285943,0.0407999,0.349115,0.0234008,0.126611,0.225349,0.0497061,1336,1660,-1.22697,-2.0448
119,-636,8.48877,-2.61963,0.362507,0.00790033,0.0490079,0.369155,0.00125191,0.134837,0.245687,0.0460629,1343,1660,8.48881,2.61967
126,-636,9.34204,-3.02917,0.346504,-0.0120062,0.0477456,0.352754,-0.0182559,0.130156,0.241485,0.0471895,1350,1660,9.34205,3.02915
133,-636,10.1641,-3.37109,0.310617,-0.0286398,0.0422792,0.315807,-0.0338294,0.122135,0.222672,0.0497314,1357,1660,10.1641,3.37104
140,-636,11.0159,-3.72058,0.269148,-0.0398509,0.0370668,0.273532,-0.0442352,0.117732,0.198748,0.0472824,1364,1660,11.0159,3.72057
147,-636,11.9031,-4.10852,0,0,0,0,0,0,0,-1,1371,1660,11.9031,4.10856
154,-636,3.33972,3.98938,0.187313,-0.0537758,0.0213915,0.189196,-0.0556591,0.0878149,0.148209,0.0442321,1378,1660,3.3397,-3.98942
161,-636,4.1427,3.44336,0.152302,-0.0548061,0.0125222,0.153056,-0.0555604,0.0601703,0.124752,0.0450009,1385,1660,4.14272,-3.44335
168,-636,4.64758,2.93115,0,0,0,0,0,0,0,-1,1392,1660,4.64763,-2.93111
175,-636,3.49084,4.10425,0,0,0,0,0,0,0,-1,1399,1660,3.49081,-4.10427
182,-636,3.41858,9.51538,0,0,0,0,0,0,0,-1,1406,1660,3.41864,-9.51541
189,-636,3.74219,8.6145,0,0,0,0,0,0,0,-1,1413,1660,3.74217,-8.6145
196,-636,4.1084,2.07007,0.0257916,-0.0330255,-0.0188619,0.0313207,-0.0385546,-0.285144,0.0404145,0.0476992,1420,1660,4.10846,-2.07008
203,-636,4.3197,1.42432,0.0263092,-0.027147,-0.0166066,0.0310481,-0.0318858,-0.277973,0.036336,0.0458985,1427,1660,4.31975,-1.42429
210,-636,4.81689,1.08472,0.0272004,-0.0234214,-0.0150816,0.031353,-0.0275739,-0.268682,0.0340448,0.0440445,1434,1660,4.81686,-1.08475
217,-636,5.25146,1.05688,0.0278235,-0.0215021,-0.0140137,0.0315268,-0.0252054,-0.258359,0.0328221,0.0435575,1441,1660,5.25148,-1.0569
224,-636,5.87866,1.00122,0,0,0,0,0,0,0,-1,1448,1660,5.87868,-1.00127
231,-636,6.47388,1.22949,0,0,0,0,0,0,0,-1,1455,1660,6.47389,-1.22955
238,-636,5.20886,1.4574,0,0,0,0,0,0,0,-1,1462,1660,5.20881,-1.45741
245,-636,5.2771,1.52234,0.0189283,-0.0230682,-0.00988903,0.0211404,-0.0252803,-0.220067,0.0268365,0.0433328,1469,1660,5.27711,-1.52229
252,-636,5.30933,1.61499,0,0,0,0,0,0,0,-1,1476,1660,5.30927,-1.61498
259,-636,5.39563,1.45508,0,0,0,0,0,0,0,-1,1483,1660,5.39566,-1.45513
266,-636,2.08484,0.855225,0,0,0,0,0,0,0,-1,1490,1660,2.08489,-0.855218
273,-636,1.91711,1.45288,0,0,0,0,0,0,0,-1,1497,1660,1.91711,-1.4529
280,-636,2.02502,1.98071,0,0,0,0,0,0,0,-1,1504,1660,2.02498,-1.98076
287,-636,2.17358,2.15576,0.000150999,-0.0265726,0.00230912,0.000349057,-0.0267707,0.0855625,0.0179646,0.0492647,1511,1660,2.17355,-2.15574
294,-636,2.35486,2.39697,-0.000534014,-0.0224616,0.00526573,0.000664948,-0.0236606,0.223875,0.016,0.0473406,1518,1660,2.35486,-2.39693
301,-636,2.41516,2.63208,-0.00121416,-0.0184716,0.00768197,0.00170993,-0.0213957,0.36371,0.0148666,0.0442648,1525,1660,2.41518,-2.63205
308,-636,2.45227,2.84607,-0.00177854,-0.0154141,0.00880576,0.00254027,-0.0197329,0.45598,0.0140786,0.0469,1532,1660,2.45225,-2.84605
315,-636,2.25085,2.95459,-0.0019807,-0.012585,0.00935782,0.00347269,-0.0180384,0.527648,0.0133348,0.0469218,1539,1660,2.25083,-2.9546
322,-636,2.30664,2.88293,-0.0018515,-0.0102192,0.00892946,0.00382567,-0.0158964,0.566313,0.0120765,0.03826,1546,1660,2.30658,-2.88299
329,-636,2.3783,2.78577,-0.00149361,-0.00806623,0.00815642,0.00401366,-0.0135735,0.593891,0.0106422,0.0249399,1553,1660,2.37834,-2.7858
336,-636,2.42065,2.82581,-0.00135907,-0.00665329,0.00717213,0.00363886,-0.0116512,0.608611,0.0092229,0.0199271,1560,1660,2.42063,-2.82585
343,-636,2.37805,2.8175,-0.00121192,-0.00519579,0.00574202,0.00287386,-0.00928157,0.618441,0.00733578,0.0173449,1567,1660,2.37809,-2.81756
350,-636,2.33533,2.75464,-0.000995679,-0.00403551,0.00418587,0.00193768,-0.00696886,0.611247,0.00540876,0.0115222,1574,1660,2.33528,-2.75458
357,-636,2.37793,2.72278,-0.000760712,-0.00355748,0.00286738,0.0010311,-0.00534929,0.558524,0.00395496,0.0106236,1581,1660,2.37791,-2.72281
364,-636,2.37866,2.70313,-0.000526557,-0.00306696,0.00177528,0.000386138,-0.00397966,0.474874,0.00279074,0.0109007,1588,1660,2.37861,-2.70318
371,-636,2.36133,2.67944,-5.04902e-05,-0.00268348,0.000887183,0.000220545,-0.00295452,0.296496,0.00204716,0.00938696,1595,1660,2.36138,-2.67941
378,-636,2.37244,2.63464,0.000522812,-0.00213141,9.77397e-05,0.000526407,-0.002135,0.0367579,0.00162744,0.00969226,1602,1660,2.3724,-2.63468
385,-636,2.38208,2.60718,0.00121865,-0.00175864,-0.00060705,0.00133766,-0.00187765,-0.193601,0.00186507,0.0139877,1609,1660,2.38205,-2.60723
392,-636,2.36804,2.59021,0.00196735,-0.00132082,-0.00123956,0.00238227,-0.00173574,-0.323013,0.00238728,0.0143811,1616,1660,2.36798,-2.59025
399,-636,2.37,2.56323,0.00233842,-0.00104047,-0.00169706,0.0030436,-0.00174565,-0.393823,0.00279872,0.0113204,1623,1660,2.37,-2.56324
406,-636,2.37268,2.52502,0.00264321,-0.000822714,-0.0021854,0.00369936,-0.00187886,-0.450178,0.00327726,0.0132748,1630,1660,2.37266,-2.52507
413,-636,2.37781,2.46228,0.00280849,-0.000439955,-0.00262432,0.00427055,-0.00190202,-0.508294,0.00365014,0.0206588,1637,1660,2.37776,-2.46234
420,-636,2.37329,2.42456,0.00256931,-0.000513848,-0.00282316,0.00424437,-0.0021889,-0.535497,0.00377691,0.0201556,1644,1660,2.37327,-2.4245
427,-636,2.36304,2.44104,0.00201259,-0.00106963,-0.00277137,0.00364252,-0.00269956,-0.531648,0.00367507,0.0118896,1651,1660,2.36299,-2.44106
434,-636,2.36487,2.40625,0.00127648,3.26134e-05,-0.00290112,0.00362158,-0.00231249,-0.679807,0.00345371,0.0107924,1658,1660,2.36483,-2.4062
441,-636,2.38086,2.36487,0.000593549,0.00109274,-0.00331359,0.00416612,-0.00247983,-0.82299,0.00387799,0.0112677,1665,1660,2.38088,-2.36485
448,-636,2.40918,2.33484,0.000131525,0.00198215,-0.00360171,0.00477551,-0.00266183,-0.911134,0.00435137,0.0128203,1672,1660,2.40915,-2.33488
455,-636,2.38525,2.28894,-0.000510635,0.00325949,-0.00396415,0.00576395,-0.0030151,-1.00734,0.00515074,0.0127568,1679,1660,2.38521,-2.28889
462,-636,2.33813,2.2384,-0.00100218,0.00535284,-0.00464408,0.00780241,-0.00345175,-1.08542,0.00665746,0.0166382,1686,1660,2.3381,-2.23842
469,-636,2.35571,2.18665,-0.00138937,0.0077383,-0.00550833,0.0103278,-0.00397888,-1.13135,0.00852677,0.0253397,1693,1660,2.3557,-2.1866
476,-636,2.42285,2.24121,-0.00140972,0.0106278,-0.00681485,0.0137013,-0.00448313,-1.14712,0.0109392,0.0399051,1700,1660,2.42288,-2.24122
483,-636,2.29529,2.26501,0,0,0,0,0,0,0,-1,1707,1660,2.29529,-2.26504
490,-636,2.22083,2.34253,0,0,0,0,0,0,0,-1,1714,1660,2.22082,-2.34255
497,-636,2.18652,2.16541,0,0,0,0,0,0,0,-1,1721,1660,2.18651,-2.16539
504,-636,2.45154,1.86511,0,0,0,0,0,0,0,-1,1728,1660,2.45155,-1.8651
511,-636,2.38635,1.30115,0,0,0,0,0,0,0,-1,1735,1660,2.38633,-1.30114
518,-636,3.78894,3.46948,0,0,0,0,0,0,0,-1,1742,1660,3.78895,-3.46945
525,-636,0.00927734,0.0213623,0,0,0,0,0,0,0,-1,1749,1660,0.00923814,-0.0213105
532,-636,0,0,0,0,0,0,0,0,0,-1,1756,1660,0,0
539,-636,0,0,0,0,0,0,0,0,0,-1,1763,1660,0,0
546,-636,0,0,0,0,0,0,0,0,0,-1,1770,1660,0,0
553,-636,0,0,0,0,0,0,0,0,0,-1,1777,1660,0,0
560,-636,0,0,0,0,0,0,0,0,0,-1,1784,1660,0,0
567,-636,0,0,0,0,0,0,0,0,0,-1,1791,1660,0,0
574,-636,0,0,0,0,0,0,0,0,0,-1,1798,1660,0,0
581,-636,0,0,0,0,0,0,0,0,0,-1,1805,1660,0,0
588,-636,0,0,0,0,0,0,0,0,0,-1,1812,1660,0,0
595,-636,0,0,0,0,0,0,0,0,0,-1,1819,1660,0,0
602,-636,0,0,0,0,0,0,0,0,0,-1,1826,1660,0,0
609,-636,0,0,0,0,0,0,0,0,0,-1,1833,1660,0,0
616,-636,0,0,0,0,0,0,0,0,0,-1,1840,1660,0,0
623,-636,0,0,0,0,0,0,0,0,0,-1,1847,1660,0,0
630,-636,0,0,0,0,0,0,0,0,0,-1,1854,1660,0,0
637,-636,0,0,0,0,0,0,0,0,0,-1,1861,1660,0,0
644,-636,0,0,0,0,0,0,0,0,0,-1,1868,1660,0,0
651,-636,0,0,0,0,0,0,0,0,0,-1,1875,1660,0,0
658,-636,0,0,0,0,0,0,0,0,0,-1,1882,1660,0,0
665,-636,0,0,0,0,0,0,0,0,0,-1,1889,1660,0,0
672,-636,0,0,0,0,0,0,0,0,0,-1,1896,1660,0,0
679,-636,0,0,0,0,0,0,0,0,0,-1,1903,1660,0,0
686,-636,0,0,0,0,0,0,0,0,0,-1,1910,1660,0,0
693,-636,0,0,0,0,0,0,0,0,0,-1,1917,1660,0,0
700,-636,0,0,0,0,0,0,0,0,0,-1,1924,1660,0,0
707,-636,0,0,0,0,0,0,0,0,0,-1,1931,1660,0,0
714,-636,0,0,0,0,0,0,0,0,0,-1,1938,1660,0,0
721,-636,0,0,0,0,0,0,0,0,0,-1,1945,1660,0,0
728,-636,0,0,0,0,0,0,0,0,0,-1,1952,1660,0,0
735,-636,0,0,0,0,0,0,0,0,0,-1,1959,1660,0,0
742,-636,0,0,0,0,0,0,0,0,0,-1,1966,1660,0,0
749,-636,0,0,0,0,0,0,0,0,0,-1,1973,1660,0,0
756,-636,0,0,0,0,0,0,0,0,0,-1,1980,1660,0,0
763,-636,0,0,0,0,0,0,0,0,0,-1,1987,1660,0,0
770,-636,0,0,0,0,0,0,0,0,0,-1,1994,1660,0,0
777,-636,0,0,0,0,0,0,0,0,0,-1,2001,1660,0,0
784,-636,0,0,0,0,0,0,0,0,0,-1,2008,1660,0,0
791,-636,0,0,0,0,0,0,0,0,0,-1,2015,1660,0,0
798,-636,0,0,0,0,0,0,0,0,0,-1,2022,1660,0,0
805,-636,0,0,0,0,0,0,0,0,0,-1,2029,1660,0,0
812,-636,0,0,0,0,0,0,0,0,0,-1,2036,1660,0,0
-700,-643,0,0,0,0,0,0,0,0,0,-1,524,1667,0,0
-693,-643,0,0,0,0,0,0,0,0,0,-1,531,1667,0,0
-686,-643,0,0,0,0,0,0,0,0,0,-1,538,1667,0,0
-679,-643,0,0,0,0,0,0,0,0,0,-1,545,1667,0,0
-672,-643,0,0,0,0,0,0,0,0,0,-1,552,1667,0,0
-665,-643,0,0,0,0,0,0,0,0,0,-1,559,1667,0,0
-658,-643,0,0,0,0,0,0,0,0,0,-1,566,1667,0,0
-651,-643,0,0,0,0,0,0,0,0,0,-1,573,1667,0,0
-644,-643,0,0,0,0,0,0,0,0,0,-1,580,1667,0,0
-637,-643,0,0,0,0,0,0,0,0,0,-1,587,1667,0,0
-630,-643,0,0,0,0,0,0,0,0,0,-1,594,1667,0,0
-623,-643,0,0,0,0,0,0,0,0,0,-1,601,1667,0,0
-616,-643,0,0,0,0,0,0,0,0,0,-1,608,1667,0,0
-609,-643,0,0,0,0,0,0,0,0,0,-1,615,1667,0,0
-602,-643,0,0,0,0,0,0,0,0,0,-1,622,1667,0,0
-595,-643,0,0,0,0,0,0,0,0,0,-1,629,1667,0,0
-588,-643,0,0,0,0,0,0,0,0,0,-1,636,1667,0,0
-581,-643,0,0,0,0,0,0,0,0,0,-1,643,1667,0,0
-574,-643,0,0,0,0,0,0,0,0,0,-1,650,1667,0,0
-567,-643,0,0,0,0,0,0,0,0,0,-1,657,1667,0,0
-560,-643,0,0,0,0,0,0,0,0,0,-1,664,1667,0,0
-553,-643,0,0,0,0,0,0,0,0,0,-1,671,1667,0,0
-546,-643,0,0,0,0,0,0,0,0,0,-1,678,1667,0,0
-539,-643,0,0,0,0,0,0,0,0,0,-1,685,1667,0,0
-532,-643,0,0,0,0,0,0,0,0,0,-1,692,1667,0,0
-525,-643,0,0,0,0,0,0,0,0,0,-1,699,1667,0,0
-518,-643,0,0,0,0,0,0,0,0,0,-1,706,1667,0,0
-511,-643,0,0,0,0,0,0,0,0,0,-1,713,1667,0,0
-504,-643,0,0,0,0,0,0,0,0,0,-1,720,1667,0,0
-497,-643,0,0,0,0,0,0,0,0,0,-1,727,1667,0,0
-490,-643,0,0,0,0,0,0,0,0,0,-1,734,1667,0,0
-483,-643,0,0,0,0,0,0,0,0,0,-1,741,1667,0,0
-476,-643,0,0,0,0,0,0,0,0,0,-1,748,1667,0,0
-469,-643,0,0,0,0,0,0,0,0,0,-1,755,1667,0,0
-462,-643,0,0,0,0,0,0,0,0,0,-1,762,1667,0,0
-455,-643,0,0,0,0,0,0,0,0,0,-1,769,1667,0,0
-448,-643,0,0,0,0,0,0,0,0,0,-1,776,1667,0,0
-441,-643,0,0,0,0,0,0,0,0,0,-1,783,1667,0,0
-434,-643,0,0,0,0,0,0,0,0,0,-1,790,1667,0,0
-427,-643,0,0,0,0,0,0,0,0,0,-1,797,1667,0,0
-420,-643,0,0,0,0,0,0,0,0,0,-1,804,1667,0,0
-413,-643,0,0,0,0,0,0,0,0,0,-1,811,1667,0,0
-406,-643,0,0,0,0,0,0,0,0,0,-1,818,1667,0,0
-399,-643,1.52545,3.09766,0,0,0,0,0,0,0,-1,825,1667,1.52543,-3.09768
-392,-643,1.69226,1.10718,0,0,0,0,0,0,0,-1,832,1667,1.69224,-1.10721
-385,-643,1.73639,1.69714,-0.0148479,0.00776872,0.0275326,0.0262248,-0.033304,0.980257,0.0344499,0.046174,839,1667,1.7364,-1.69712
-378,-643,1.79694,2.27026,-0.00707296,0.000626927,0.0223589,0.0194649,-0.025911,0.870656,0.0262858,0.0487892,846,1667,1.79696,-2.27026
-371,-643,1.03375,2.46411,-0.000196255,-0.0031758,0.0160101,0.0143932,-0.0177653,0.739006,0.0186007,0.0475962,853,1667,1.03375,-2.46415
-364,-643,0.835083,2.60864,0.00463623,-0.00491339,0.00984465,0.0108029,-0.0110801,0.559604,0.0126345,0.045303,860,1667,0.835077,-2.60861
-357,-643,-3.0766,-1.82214,0,0,0,0,0,0,0,-1,867,1667,-3.07657,1.82219
-350,-643,-2.88983,-1.38538,0,0,0,0,0,0,0,-1,874,1667,-2.88983,1.38541
-343,-643,1.84027,2.82312,0.00715788,-0.00179346,-0.00056309,0.00719316,-0.00182874,-0.0625768,0.00550718,0.0494519,881,1667,1.84025,-2.82312
-336,-643,1.72015,2.45532,0.00631075,-0.000520187,-0.00185848,0.00678365,-0.00099308,-0.249164,0.00488721,0.0497132,888,1667,1.72013,-2.4553
-329,-643,1.65509,2.39441,0.0049457,-0.000197976,-0.0023162,0.00583495,-0.00108722,-0.366573,0.00429845,0.0369488,895,1667,1.6551,-2.3944
-322,-643,1.78699,2.30249,0.00334294,-8.61086e-06,-0.00173048,0.00407606,-0.000741733,-0.400728,0.00299539,0.0247992,902,1667,1.78697,-2.30248
-315,-643,1.78699,2.32776,0.00172519,6.97852e-05,-0.00079607,0.00204588,-0.000250911,-0.38296,0.00145479,0.017336,909,1667,1.78701,-2.32771
-308,-643,1.77826,2.35181,0.000257304,-0.000138345,6.48512e-05,0.000267662,-0.000148703,0.158391,0.000243637,0.0131919,916,1667,1.77827,-2.35182
-301,-643,1.79895,2.39575,-0.000824797,-0.000193384,0.00117544,0.000708007,-0.00172619,0.916595,0.00144578,0.0138502,923,1667,1.79894,-2.39576
-294,-643,1.79938,2.42676,-0.00171887,-0.000438775,0.00200836,0.00102906,-0.00318671,0.939656,0.00253801,0.0118602,930,1667,1.79939,-2.42681
-287,-643,1.78796,2.44861,-0.00209897,-0.00192358,0.00216839,0.000158892,-0.00418144,0.805608,0.00284207,0.01008,937,1667,1.78798,-2.44856
-280,-643,1.78162,2.50354,-0.00209264,-0.00191148,0.00270635,0.0007058,-0.00470992,0.802127,0.00339973,0.0136973,944,1667,1.78163,-2.50357
-273,-643,1.78333,2.52405,-0.00135773,-0.00169905,0.0027051,0.00118209,-0.00423886,0.753896,0.00329147,0.0116049,951,1667,1.78333,-2.52409
-266,-643,1.79669,2.55444,-0.000423514,-0.00142315,0.00272841,0.00185048,-0.00369715,0.694808,0.00326154,0.0111416,958,1667,1.79668,-2.5545
-259,-643,1.81812,2.59106,0.000667608,-0.00133024,0.0026382,0.00248967,-0.0031523,0.60442,0.00326487,0.0112627,965,1667,1.81812,-2.59112
-252,-643,1.80536,2.61951,0.0016182,-0.000920991,0.00261038,0.00325136,-0.00255415,0.559058,0.00335986,0.0127823,972,1667,1.80535,-2.61949
-245,-643,1.81146,2.66736,0.0021244,-0.000494875,0.00270055,0.00381612,-0.00218659,0.559629,0.00350797,0.0121529,979,1667,1.81144,-2.6674
-238,-643,1.84137,2.70044,0.00224763,9.73545e-05,0.00285189,0.00422031,-0.00187533,0.605141,0.00360508,0.0149459,986,1667,1.84135,-2.70042
-231,-643,1.80951,2.73315,0.00233415,0.000474061,0.00308219,0.00462355,-0.00181535,0.638869,0.00383354,0.0105788,993,1667,1.80953,-2.73314
-224,-643,1.78748,2.74976,0.00232064,0.000969785,0.00320592,0.00492151,-0.00163108,0.681576,0.00393893,0.00896413,1000,1667,1.7875,-2.74982
-217,-643,1.78357,2.75598,0.00188817,0.0017687,0.00323282,0.0050618,-0.00140494,0.77616,0.00392752,0.00841379,1007,1667,1.78355,-2.75599
-210,-643,1.78107,2.78918,0.00124763,0.0026032,0.00315545,0.00515283,-0.00130201,0.891189,0.00394157,0.0103247,1014,1667,1.78105,-2.78917
-203,-643,1.79456,2.81799,0.00117275,0.00362995,0.00279587,0.00545526,-0.000652556,0.992415,0.00387273,0.0112449,1021,1667,1.79454,-2.81795
-196,-643,1.79382,2.83508,0.00107035,0.00527968,0.00211652,0.00615985,0.00019017,1.17669,0.00404467,0.0106367,1028,1667,1.79387,-2.83503
-189,-643,1.78674,2.85681,0.000856329,0.00739314,0.00187356,0.00789205,0.000357414,1.31054,0.00514637,0.0104971,1035,1667,1.78673,-2.85685
-182,-643,1.82507,2.87463,0.00139867,0.00928126,0.00169154,0.00962892,0.00105101,1.36809,0.0060992,0.0180493,1042,1667,1.82505,-2.87458
-175,-643,1.92456,2.74866,0.00256122,0.0105518,0.00170577,0.0109007,0.00221231,1.36904,0.00665343,0.0318298,1049,1667,1.92453,-2.74861
-168,-643,1.73511,2.77832,0.00361623,0.011796,0.00217264,0.0123373,0.00307497,1.32664,0.0074155,0.0384425,1056,1667,1.73511,-2.77827
-161,-643,1.7345,3.02686,0.00421058,0.01322,0.00272991,0.0139826,0.00344796,1.29838,0.00841137,0.0408645,1063,1667,1.73446,-3.0269
-154,-643,1.78467,3.07983,0.00459178,0.0150776,0.00411307,0.0164984,0.00317095,1.23819,0.0101091,0.0444795,1070,1667,1.78463,-3.0798
-147,-643,1.65991,3.04565,0,0,0,0,0,0,0,-1,1077,1667,1.65992,-3.04567
-140,-643,1.43176,1.95886,0,0,0,0,0,0,0,-1,1084,1667,1.43179,-1.9588
-133,-643,1.73572,2.68164,0.00529927,0.0177998,0.00896108,0.022475,0.000624018,1.08992,0.0147797,0.0445482,1091,1667,1.73569,-2.68163
-126,-643,2.54712,2.70874,0.00504428,0.0178495,0.0117398,0.0248191,-0.00192534,1.03504,0.0172238,0.0436505,1098,1667,2.54715,-2.70875
-119,-643,3.13281,2.77136,0.00454569,0.0157281,0.0134972,0.0247463,-0.00447256,0.981763,0.0181728,0.0436237,1105,1667,3.13279,-2.7714
-112,-643,2.81836,3.13171,0.00329265,0.0112251,0.0143314,0.022129,-0.00761119,0.920395,0.0178394,0.0421437,1112,1667,2.81832,-3.13175
-105,-643,2.55591,3.18506,0.00113666,0.00508247,0.0128711,0.016131,-0.00991187,0.861447,0.0151781,0.0399256,1119,1667,2.55593,-3.18512
-98,-643,2.02112,3.25098,0,0,0,0,0,0,0,-1,1126,1667,2.02117,-3.25103
-91,-643,2.54236,2.64099,0,0,0,0,0,0,0,-1,1133,1667,2.54231,-2.641
-84,-643,2.82361,2.94336,-0.00330681,-0.0154519,0.000115969,-0.0033057,-0.015453,0.00954751,0.00939598,0.0469876,1140,1667,2.82362,-2.9433
-77,-643,3.24463,3.23975,-0.00454938,-0.0203345,-0.00532115,-0.00292317,-0.0219607,-0.296599,0.0137699,0.0421327,1147,1667,3.2446,-3.23976
-70,-643,3.79724,3.45056,0,0,0,0,0,0,0,-1,1154,1667,3.79721,-3.45061
-63,-643,0.212646,1.95471,0,0,0,0,0,0,0,-1,1161,1667,0.212689,-1.95475
-56,-643,0.0415039,1.36646,-0.00682969,-0.0323525,-0.0223539,0.00614896,-0.0453311,-0.526032,0.0324651,0.0485435,1168,1667,0.0414436,-1.3664
-49,-643,-0.140015,0.784546,-0.00857576,-0.0304127,-0.0261394,0.00883384,-0.0478223,-0.587562,0.0351976,0.0475099,1175,1667,-0.140062,-0.784539
-42,-643,-0.37915,0.109131,-0.0117615,-0.0224768,-0.026869,0.0102788,-0.0445171,-0.686989,0.0336321,0.0434417,1182,1667,-0.3791,-0.109181
-35,-643,-0.554688,-0.647705,-0.0145559,-0.010999,-0.0258984,0.0131819,-0.0387368,-0.819679,0.0311622,0.0465459,1189,1667,-0.554643,0.647663
-28,-643,-0.581543,-1.08801,-0.0182083,0.000748014,-0.0236672,0.0167644,-0.0342247,-0.975857,0.0300083,0.0483294,1196,1667,-0.581567,1.08806
-21,-643,-0.495605,-1.68433,-0.0235226,0.0145033,-0.0205558,0.023491,-0.0325102,-1.15861,0.0324718,0.0472059,1203,1667,-0.495634,1.68427
-14,-643,4.86377,7.60327,0,0,0,0,0,0,0,-1,1210,1667,4.86381,-7.60325
-7,-643,4.85632,6.23669,0,0,0,0,0,0,0,-1,1217,1667,4.85635,-6.23666
0,-643,3.99719,6.10388,-0.0428769,0.0613507,-0.0115643,0.0626184,-0.0441446,-1.46161,0.0619465,0.0467245,1224,1667,3.99721,-6.10394
7,-643,3.36121,5.96606,-0.0488523,0.0753913,-0.00762787,0.0758578,-0.0493189,-1.50971,0.0728102,0.0441921,1231,1667,3.36126,-5.96605
14,-643,3.06824,5.87048,-0.0552045,0.0900806,-0.00350811,0.0901652,-0.0552891,-1.54667,0.084779,0.0441243,1238,1667,3.0682,-5.87049
21,-643,3.46289,5.99353,0,0,0,0,0,0,0,-1,1245,1667,3.46294,-5.99347
28,-643,2.92053,5.85083,-0.0653012,0.110501,-0.000214878,0.110501,-0.0653014,-1.56957,0.102612,0.0457764,1252,1667,2.92057,-5.85085
35,-643,2.38977,5.68762,-0.0644669,0.114121,-0.00470409,0.114245,-0.0645907,-1.54448,0.104569,0.0408051,1259,1667,2.38976,-5.6876
42,-643,1.81189,5.60681,-0.06057,0.11338,-0.00905385,0.11385,-0.06104,-1.51893,0.102496,0.0444183,1266,1667,1.81192,-5.60686
49,-643,0.738159,5.36646,-0.044272,0.109105,-0.0157813,0.110712,-0.045879,-1.46932,0.0929548,0.0454942,1273,1667,0.738179,-5.36649
56,-643,0.0554199,5.4762,-0.0307956,0.103786,-0.0222355,0.107365,-0.0343742,-1.41122,0.0853733,0.0454335,1280,1667,0.0554373,-5.47617
63,-643,-0.657959,5.52502,0.00357693,0.0998871,-0.0170859,0.102828,0.000635624,-1.40032,0.0683414,0.0484408,1287,1667,-0.657975,-5.52504
70,-643,-1.43201,5.10901,0.0443373,0.0974043,-0.0144019,0.101061,0.0406807,-1.32215,0.0587159,0.0475092,1294,1667,-1.43203,-5.10899
77,-643,-2.71802,4.91394,0.09345,0.0868766,-0.0117926,0.102405,0.0779212,-0.649491,0.0617487,0.0443299,1301,1667,-2.71806,-4.91392
84,-643,-0.578125,2.12952,0,0,0,0,0,0,0,-1,1308,1667,-0.578133,-2.12946
91,-643,-0.522949,2.25024,0.185345,0.0639078,0.000748538,0.18535,0.0639032,0.00616369,0.108717,0.0479605,1315,1667,-0.522965,-2.25023
98,-643,-0.48584,1.87439,0.234723,0.0503559,0.011354,0.235419,0.0496593,0.0612749,0.143291,0.0466901,1322,1667,-0.485842,-1.87439
105,-643,-0.233032,2.10681,0.275277,0.0336622,0.0221304,0.277287,0.0316519,0.0905896,0.175263,0.0445533,1329,1667,-0.233042,-2.10685
112,-643,-0.595459,2.52869,0.294808,0.0187107,0.0285733,0.297734,0.0157846,0.102049,0.193443,0.0442958,1336,1667,-0.595518,-2.5287
119,-643,-0.677856,2.73706,0.311871,0.00142677,0.0363544,0.316072,-0.00277366,0.115031,0.211645,0.0464548,1343,1667,-0.677823,-2.73706
126,-643,8.43652,-1.91736,0.298794,-0.0135553,0.035848,0.302855,-0.0176167,0.112815,0.208025,0.047161,1350,1667,8.4365,1.91731
133,-643,9.59412,-2.28796,0,0,0,0,0,0,0,-1,1357,1667,9.59408,2.28798
140,-643,10.0082,-2.54492,0.232517,-0.0327818,0.0251189,0.234874,-0.0351392,0.0935737,0.169514,0.0451793,1364,1667,10.0082,2.54496
147,-643,10.5399,-2.81567,0.20173,-0.0373343,0.0175835,0.203017,-0.0386207,0.0730276,0.149886,0.0456987,1371,1667,10.5399,2.81569
154,-643,11.1688,-3.36108,0,0,0,0,0,0,0,-1,1378,1667,11.1688,3.36113
161,-643,1.89868,12.5084,0,0,0,0,0,0,0,-1,1385,1667,1.8987,-12.5084
168,-643,2.52112,11.3293,0,0,0,0,0,0,0,-1,1392,1667,2.52114,-11.3293
175,-643,3.30139,10.3793,0,0,0,0,0,0,0,-1,1399,1667,3.30139,-10.3793
182,-643,3.57166,9.41833,0.0281685,-0.0374837,-0.0194902,0.0335186,-0.0428338,-0.267902,0.0441913,0.0480295,1406,1667,3.57161,-9.41828
189,-643,4.05786,8.66479,0,0,0,0,0,0,0,-1,1413,1667,4.05786,-8.66477
196,-643,4.32556,7.88672,0,0,0,0,0,0,0,-1,1420,1667,4.32552,-7.8867
203,-643,3.49634,6.91443,0,0,0,0,0,0,0,-1,1427,1667,3.49635,-6.91445
210,-643,4.45703,1.42493,0.0223223,-0.013496,-0.016029,0.0284478,-0.0196216,-0.365028,0.0279084,0.0475809,1434,1667,4.45704,-1.42492
217,-643,4.68518,1.51489,0.0230821,-0.0122127,-0.0138638,0.0278766,-0.0170071,-0.33295,0.0261657,0.047889,1441,1667,4.68523,-1.51488
224,-643,5.13623,4.11841,0,0,0,0,0,0,0,-1,1448,1667,5.13628,-4.11843
231,-643,5.7981,3.56311,0,0,0,0,0,0,0,-1,1455,1667,5.79809,-3.56308
238,-643,6.26318,1.94885,0,0,0,0,0,0,0,-1,1462,1667,6.26324,-1.94885
245,-643,6.44116,1.57874,0,0,0,0,0,0,0,-1,1469,1667,6.44117,-1.57878
252,-643,6.61914,1.20874,0,0,0,0,0,0,0,-1,1476,1667,6.61909,-1.2087
259,-643,2.21021,1.42603,0,0,0,0,0,0,0,-1,1483,1667,2.21023,-1.42608
266,-643,2.06421,1.56531,0,0,0,0,0,0,0,-1,1490,1667,2.06417,-1.56527
273,-643,1.74951,1.74341,0.00413013,-0.0230359,-0.00302555,0.00446302,-0.0233687,-0.109584,0.0172602,0.0448644,1497,1667,1.74955,-1.74336
280,-643,1.57971,2.08765,0.00167082,-0.024403,-0.000510223,0.00168081,-0.024413,-0.0195584,0.0168636,0.0447646,1504,1667,1.5797,-2.08763
287,-643,1.77295,2.45374,8.80955e-05,-0.0231767,0.00209808,0.000275791,-0.0233644,0.0892231,0.015669,0.0436867,1511,1667,1.77297,-2.45375
294,-643,2.07092,2.5863,-0.000352827,-0.0197532,0.00433898,0.000573386,-0.0206794,0.210307,0.0139813,0.0436843,1518,1667,2.07095,-2.58632
301,-643,2.25513,2.73608,-0.000848737,-0.0163389,0.00626351,0.00136699,-0.0185547,0.340014,0.0128497,0.0365706,1525,1667,2.25507,-2.73604
308,-643,2.27039,2.92456,-0.00121862,-0.0134297,0.00705722,0.00200761,-0.0166559,0.428787,0.0118301,0.0316791,1532,1667,2.27034,-2.9246
315,-643,2.27039,2.93823,-0.0012957,-0.0107563,0.00736021,0.00272319,-0.0147752,0.499789,0.0108722,0.0253087,1539,1667,2.27036,-2.93818
322,-643,2.3053,2.88123,-0.00113854,-0.0084963,0.00689152,0.00299457,-0.0126294,0.540227,0.00957518,0.0146857,1546,1667,2.30535,-2.88124
329,-643,2.3147,2.82043,-0.000760646,-0.00634505,0.00612365,0.00317735,-0.010283,0.571494,0.00812429,0.0108474,1553,1667,2.31466,-2.82048
336,-643,2.31531,2.83105,-0.000637578,-0.00491175,0.00522304,0.00286868,-0.008418,0.591207,0.00677383,0.0104867,1560,1667,2.31531,-2.831
343,-643,2.33093,2.80371,-0.000587544,-0.00365831,0.00406816,0.00222533,-0.00647119,0.604955,0.00521659,0.0125338,1567,1667,2.33089,-2.80366
350,-643,2.33667,2.74915,-0.000444309,-0.00275474,0.00281651,0.00144469,-0.00464374,0.590782,0.00367334,0.0120632,1574,1667,2.33667,-2.74918
357,-643,2.33215,2.7196,-0.000202744,-0.00239927,0.00178554,0.000795262,-0.00339727,0.509679,0.00257126,0.0104497,1581,1667,2.3321,-2.71961
364,-643,2.34058,2.69861,0.000199653,-0.002151,0.00088151,0.000493494,-0.00244484,0.321755,0.00181687,0.00897195,1588,1667,2.34052,-2.69858
371,-643,2.33533,2.67737,0.000826304,-0.00207102,0.000106092,0.000830184,-0.0020749,0.0365519,0.00172781,0.0077273,1595,1667,2.33531,-2.67731
378,-643,2.3363,2.65637,0.00152649,-0.00192518,-0.000629838,0.00163783,-0.00203652,-0.174964,0.00212555,0.00961361,1602,1667,2.33626,-2.65639
385,-643,2.35229,2.61768,0.00234627,-0.00197962,-0.00137802,0.00274795,-0.0023813,-0.283628,0.00296389,0.0152404,1609,1667,2.35228,-2.61763
392,-643,2.3363,2.57898,0.00328428,-0.00178232,-0.00220685,0.00411071,-0.00260875,-0.358319,0.00391166,0.0157816,1616,1667,2.33627,-2.57903
399,-643,2.33215,2.56177,0.00378924,-0.00175597,-0.00281813,0.00497002,-0.00293674,-0.396771,0.00461501,0.0133155,1623,1667,2.33214,-2.5618
406,-643,2.34497,2.53906,0.00427507,-0.00173109,-0.00350164,0.00588501,-0.00334103,-0.430947,0.00539374,0.0123616,1630,1667,2.34503,-2.5391
413,-643,2.34473,2.50415,0.00445199,-0.00160626,-0.0040532,0.00648291,-0.00363718,-0.464499,0.00591934,0.0167487,1637,1667,2.34473,-2.50413
420,-643,2.31091,2.48621,0.00413039,-0.00177682,-0.00424277,0.00634639,-0.00399283,-0.481329,0.00602068,0.0154617,1644,1667,2.31097,-2.48622
427,-643,2.3186,2.45288,0.00342771,-0.00251663,-0.00419678,0.00559818,-0.0046871,-0.477294,0.00594597,0.0128592,1651,1667,2.31865,-2.45288
434,-643,2.34192,2.42126,0.00241592,-0.00125853,-0.00435181,0.00530242,-0.00414504,-0.585661,0.00546812,0.0140195,1658,1667,2.34189,-2.4212
441,-643,2.36194,2.38123,0.00141729,6.28236e-05,-0.0048368,0.00562404,-0.00414393,-0.715842,0.00566108,0.0138303,1665,1667,2.36197,-2.3812
448,-643,2.38354,2.33057,0.000647178,0.00115331,-0.00516142,0.00606787,-0.00426737,-0.809894,0.00599716,0.0178061,1672,1667,2.3836,-2.33055
455,-643,2.35645,2.30212,-0.000376676,0.00270254,-0.00548769,0.00686251,-0.00453664,-0.922161,0.00662681,0.0260701,1679,1667,2.35651,-2.30207
462,-643,2.32739,2.19812,-0.00118477,0.00510645,-0.00617271,0.00888885,-0.00496717,-1.02105,0.00810587,0.0354725,1686,1667,2.32734,-2.1981
469,-643,2.32202,2.09814,-0.00190167,0.00797994,-0.00708933,0.0116803,-0.00560205,-1.08973,0.0101816,0.0394649,1693,1667,2.32198,-2.09808
476,-643,2.30603,2.00427,0,0,0,0,0,0,0,-1,1700,1667,2.30609,-2.00426
483,-643,0.56311,4.46667,0,0,0,0,0,0,0,-1,1707,1667,0.563128,-4.46664
490,-643,1.09534,3.70496,0,0,0,0,0,0,0,-1,1714,1667,1.09533,-3.7049
497,-643,2.44531,2.35632,0,0,0,0,0,0,0,-1,1721,1667,2.44529,-2.35627
504,-643,2.44556,1.77563,0,0,0,0,0,0,0,-1,1728,1667,2.44554,-1.77565
511,-643,2.4458,1.19507,0,0,0,0,0,0,0,-1,1735,1667,2.4458,-1.19503
518,-643,3.57068,4.20605,0,0,0,0,0,0,0,-1,1742,1667,3.57071,-4.20609
525,-643,0,0,0,0,0,0,0,0,0,-1,1749,1667,0,0
532,-643,0,0,0,0,0,0,0,0,0,-1,1756,1667,0,0
539,-643,0,0,0,0,0,0,0,0,0,-1,1763,1667,0,0
546,-643,0,0,0,0,0,0,0,0,0,-1,1770,1667,0,0
553,-643,0,0,0,0,0,0,0,0,0,-1,1777,1667,0,0
560,-643,0,0,0,0,0,0,0,0,0,-1,1784,1667,0,0
567,-643,0,0,0,0,0,0,0,0,0,-1,1791,1667,0,0
574,-643,0,0,0,0,0,0,0,0,0,-1,1798,1667,0,0
581,-643,0,0,0,0,0,0,0,0,0,-1,1805,1667,0,0
588,-643,0,0,0,0,0,0,0,0,0,-1,1812,1667,0,0
595,-643,0,0,0,0,0,0,0,0,0,-1,1819,1667,0,0
602,-643,0,0,0,0,0,0,0,0,0,-1,1826,1667,0,0
609,-643,0,0,0,0,0,0,0,0,0,-1,1833,1667,0,0
616,-643,0,0,0,0,0,0,0,0,0,-1,1840,1667,0,0
623,-643,0,0,0,0,0,0,0,0,0,-1,1847,1667,0,0
630,-643,0,0,0,0,0,0,0,0,0,-1,1854,1667,0,0
637,-643,0,0,0,0,0,0,0,0,0,-1,1861,1667,0,0
644,-643,0,0,0,0,0,0,0,0,0,-1,1868,1667,0,0
651,-643,0,0,0,0,0,0,0,0,0,-1,1875,1667,0,0
658,-643,0,0,0,0,0,0,0,0,0,-1,1882,1667,0,0
665,-643,0,0,0,0,0,0,0,0,0,-1,1889,1667,0,0
672,-643,0,0,0,0,0,0,0,0,0,-1,1896,1667,0,0
679,-643,0,0,0,0,0,0,0,0,0,-1,1903,1667,0,0
686,-643,0,0,0,0,0,0,0,0,0,-1,1910,1667,0,0
693,-643,0,0,0,0,0,0,0,0,0,-1,1917,1667,0,0
700,-643,0,0,0,0,0,0,0,0,0,-1,1924,1667,0,0
707,-643,0,0,0,0,0,0,0,0,0,-1,1931,1667,0,0
714,-643,0,0,0,0,0,0,0,0,0,-1,1938,1667,0,0
721,-643,0,0,0,0,0,0,0,0,0,-1,1945,1667,0,0
728,-643,0,0,0,0,0,0,0,0,0,-1,1952,1667,0,0
735,-643,0,0,0,0,0,0,0,0,0,-1,1959,1667,0,0
742,-643,0,0,0,0,0,0,0,0,0,-1,1966,1667,0,0
749,-643,0,0,0,0,0,0,0,0,0,-1,1973,1667,0,0
756,-643,0,0,0,0,0,0,0,0,0,-1,1980,1667,0,0
763,-643,0,0,0,0,0,0,0,0,0,-1,1987,1667,0,0
770,-643,0,0,0,0,0,0,0,0,0,-1,1994,1667,0,0
777,-643,0,0,0,0,0,0,0,0,0,-1,2001,1667,0,0
784,-643,0,0,0,0,0,0,0,0,0,-1,2008,1667,0,0
791,-643,0,0,0,0,0,0,0,0,0,-1,2015,1667,0,0
798,-643,0,0,0,0,0,0,0,0,0,-1,2022,1667,0,0
805,-643,0,0,0,0,0,0,0,0,0,-1,2029,1667,0,0
812,-643,0,0,0,0,0,0,0,0,0,-1,2036,1667,0,0
-700,-650,0,0,0,0,0,0,0,0,0,-1,524,1674,0,0
-693,-650,0,0,0,0,0,0,0,0,0,-1,531,1674,0,0
-686,-650,0,0,0,0,0,0,0,0,0,-1,538,1674,0,0
-679,-650,0,0,0,0,0,0,0,0,0,-1,545,1674,0,0
-672,-650,0,0,0,0,0,0,0,0,0,-1,552,1674,0,0
-665,-650,0,0,0,0,0,0,0,0,0,-1,559,1674,0,0
-658,-650,0,0,0,0,0,0,0,0,0,-1,566,1674,0,0
-651,-650,0,0,0,0,0,0,0,0,0,-1,573,1674,0,0
-644,-650,0,0,0,0,0,0,0,0,0,-1,580,1674,0,0
-637,-650,0,0,0,0,0,0,0,0,0,-1,587,1674,0,0
-630,-650,0,0,0,0,0,0,0,0,0,-1,594,1674,0,0
-623,-650,0,0,0,0,0,0,0,0,0,-1,601,1674,0,0
-616,-650,0,0,0,0,0,0,0,0,0,-1,608,1674,0,0
-609,-650,0,0,0,0,0,0,0,0,0,-1,615,1674,0,0
-602,-650,0,0,0,0,0,0,0,0,0,-1,622,1674,0,0
-595,-650,0,0,0,0,0,0,0,0,0,-1,629,1674,0,0
-588,-650,0,0,0,0,0,0,0,0,0,-1,636,1674,0,0
-581,-650,0,0,0,0,0,0,0,0,0,-1,643,1674,0,0
-574,-650,0,0,0,0,0,0,0,0,0,-1,650,1674,0,0
-567,-650,0,0,0,0,0,0,0,0,0,-1,657,1674,0,0
-560,-650,0,0,0,0,0,0,0,0,0,-1,664,1674,0,0
-553,-650,0,0,0,0,0,0,0,0,0,-1,671,1674,0,0
-546,-650,0,0,0,0,0,0,0,0,0,-1,678,1674,0,0
-539,-650,0,0,0,0,0,0,0,0,0,-1,685,1674,0,0
-532,-650,0,0,0,0,0,0,0,0,0,-1,692,1674,0,0
-525,-650,0,0,0,0,0,0,0,0,0,-1,699,1674,0,0
-518,-650,0,0,0,0,0,0,0,0,0,-1,706,1674,0,0
-511,-650,0,0,0,0,0,0,0,0,0,-1,713,1674,0,0
-504,-650,0,0,0,0,0,0,0,0,0,-1,720,1674,0,0
-497,-650,0,0,0,0,0,0,0,0,0,-1,727,1674,0,0
-490,-650,0,0,0,0,0,0,0,0,0,-1,734,1674,0,0
-483,-650,0,0,0,0,0,0,0,0,0,-1,741,1674,0,0
-476,-650,0,0,0,0,0,0,0,0,0,-1,748,1674,0,0
-469,-650,0,0,0,0,0,0,0,0,0,-1,755,1674,0,0
-462,-650,0,0,0,0,0,0,0,0,0,-1,762,1674,0,0
-455,-650,0,0,0,0,0,0,0,0,0,-1,769,1674,0,0
-448,-650,0,0,0,0,0,0,0,0,0,-1,776,1674,0,0
-441,-650,0,0,0,0,0,0,0,0,0,-1,783,1674,0,0
-434,-650,0,0,0,0,0,0,0,0,0,-1,790,1674,0,0
-427,-650,0,0,0,0,0,0,0,0,0,-1,797,1674,0,0
-420,-650,0,0,0,0,0,0,0,0,0,-1,804,1674,0,0
-413,-650,0,0,0,0,0,0,0,0,0,-1,811,1674,0,0
-406,-650,0,0,0,0,0,0,0,0,0,-1,818,1674,0,0
-399,-650,0,0,0,0,0,0,0,0,0,-1,825,1674,0,0
-392,-650,1.92871,3.66638,0,0,0,0,0,0,0,-1,832,1674,1.92871,-3.6664
-385,-650,1.74786,1.93164,0,0,0,0,0,0,0,-1,839,1674,1.74786,-1.93161
-378,-650,1.86041,2.46545,0,0,0,0,0,0,0,-1,846,1674,1.86041,-2.46542
-371,-650,0.434021,2.48987,0,0,0,0,0,0,0,-1,853,1674,0.434041,-2.48981
-364,-650,-1.8775,-1.45532,0,0,0,0,0,0,0,-1,860,1674,-1.87751,1.45529
-357,-650,-1.70135,-0.986938,0,0,0,0,0,0,0,-1,867,1674,-1.70137,0.986919
-350,-650,-1.52936,-0.540527,0.00991025,-0.00378309,-0.0016597,0.0101085,-0.00398138,-0.118911,0.00838729,0.0468443,874,1674,-1.52934,0.540535
-343,-650,-1.2663,-0.03479,0.00913812,-0.00179047,-0.00272353,0.00977924,-0.00243159,-0.231193,0.00746325,0.0472238,881,1674,-1.26627,0.0348411
-336,-650,-0.452148,0.550049,0,0,0,0,0,0,0,-1,888,1674,-0.45217,-0.550015
-329,-650,1.04742,1.36816,0,0,0,0,0,0,0,-1,895,1674,1.04743,-1.36816
-322,-650,1.61407,2.05994,0.00251705,0.000140906,-0.00187427,0.00354808,-0.000890124,-0.502917,0.00271124,0.0393084,902,1674,1.61407,-2.05988
-315,-650,1.82288,2.27527,0.000121778,-9.78609e-05,-0.000363506,0.000391691,-0.000367774,-0.638702,0.00043855,0.0376713,909,1674,1.82285,-2.27524
-308,-650,1.80603,2.32458,-0.00191389,-0.000665067,0.000894177,-0.000198864,-0.0023801,1.09019,0.00152477,0.0228885,916,1674,1.80605,-2.32453
-301,-650,1.80994,2.39246,-0.00324518,-0.000998772,0.00232709,0.000461997,-0.00470595,1.01024,0.00330209,0.0123325,923,1674,1.80995,-2.39247
-294,-650,1.81061,2.40552,-0.00431405,-0.00144774,0.00327296,0.000692087,-0.00645388,0.991761,0.00455086,0.00975214,930,1674,1.81062,-2.40549
-287,-650,1.79187,2.42249,-0.00476557,-0.0030884,0.00339647,-0.000428526,-0.00742544,0.906428,0.00481382,0.0127372,937,1674,1.79188,-2.42245
-280,-650,1.79895,2.474,-0.00468036,-0.0031362,0.00376857,-6.14377e-05,-0.00775512,0.886437,0.00514973,0.0136489,944,1674,1.79896,-2.47399
-273,-650,1.80756,2.5166,-0.00360669,-0.00279798,0.00343922,0.000260578,-0.00666524,0.843916,0.00453285,0.012494,951,1674,1.80754,-2.51661
-266,-650,1.81665,2.56091,-0.00235922,-0.00246137,0.00309014,0.000680264,-0.00550085,0.777134,0.00391375,0.01053,958,1674,1.81664,-2.56093
-259,-650,1.83582,2.58105,-0.000931785,-0.00217879,0.00256716,0.00108651,-0.00419708,0.666267,0.00322188,0.0131603,965,1674,1.83581,-2.58108
-252,-650,1.82123,2.6134,0.000362119,-0.00153229,0.00210812,0.00172605,-0.00289622,0.574257,0.00269703,0.0121576,972,1674,1.8212,-2.61345
-245,-650,1.81567,2.6499,0.0010166,-0.000836878,0.00176664,0.00208482,-0.0019051,0.54384,0.00230436,0.0112446,979,1674,1.81569,-2.64985
-238,-650,1.79718,2.68567,0.00103,2.65601e-05,0.00160447,0.00220936,-0.00115281,0.633865,0.00197284,0.0129913,986,1674,1.79716,-2.68564
-231,-650,1.7865,2.74768,0.00107217,0.000449934,0.00159274,0.0023839,-0.000861791,0.688945,0.00194137,0.0176994,993,1674,1.78651,-2.74773
-224,-650,1.80511,2.75671,0.00112574,0.000938252,0.00154843,0.00258326,-0.000519272,0.755165,0.00191883,0.0143935,1000,1674,1.80514,-2.75673
-217,-650,1.81921,2.75708,0.000840996,0.0015445,0.00147612,0.00271019,-0.0003247,0.902364,0.00192418,0.00976075,1007,1674,1.81919,-2.75712
-210,-650,1.81299,2.78235,0.000457246,0.00194279,0.00137351,0.00276151,-0.000361467,1.03327,0.00197256,0.00879839,1014,1674,1.81298,-2.78235
-203,-650,1.82147,2.82471,0.000450174,0.00248316,0.00129081,0.00310967,-0.000176335,1.11893,0.00213432,0.0129063,1021,1674,1.82148,-2.82469
-196,-650,1.82605,2.84302,0.000415149,0.00335827,0.00113959,0.00374793,2.54866e-05,1.24133,0.00249017,0.0123854,1028,1674,1.82606,-2.84305
-189,-650,1.82117,2.85681,0.000357552,0.004648,0.00125538,0.00498833,1.72269e-05,1.30606,0.00331982,0.00950569,1035,1674,1.82122,-2.85677
-182,-650,1.84009,2.91223,0.00101654,0.00592571,0.00139547,0.00629466,0.00064759,1.31232,0.0039981,0.00854157,1042,1674,1.84012,-2.91219
-175,-650,1.86243,2.9071,0.00225479,0.00679205,0.00171273,0.00736598,0.00168086,1.24746,0.00445729,0.0140707,1049,1674,1.86245,-2.90706
-168,-650,1.84106,2.90857,0.00333654,0.0076089,0.00242493,0.00870436,0.00224107,1.14649,0.00521882,0.0184991,1056,1674,1.84104,-2.90854
-161,-650,1.81104,2.95813,0.00391568,0.00866042,0.00318471,0.0102593,0.00231684,1.10552,0.00621293,0.0254529,1063,1674,1.81106,-2.95807
-154,-650,1.79468,2.99756,0.00419386,0.0100624,0.0044758,0.01248,0.00177623,1.07554,0.00779566,0.0304876,1070,1674,1.79462,-2.99752
-147,-650,1.78772,3.03369,0.00447791,0.0109855,0.00561856,0.0142244,0.00123898,1.04786,0.0090981,0.0395339,1077,1674,1.7877,-3.03368
-140,-650,1.70557,3.07397,0.00463295,0.0117631,0.0068317,0.015904,0.000492055,1.02588,0.0104425,0.0444918,1084,1674,1.70554,-3.07402
-133,-650,1.79321,3.10193,0.00499454,0.0121829,0.00848251,0.0178012,-0.000623842,0.985789,0.0120808,0.0451333,1091,1674,1.79319,-3.1019
-126,-650,2.37549,2.95276,0.00491853,0.0122149,0.0107042,0.0198755,-0.0027421,0.949634,0.0142526,0.0453461,1098,1674,2.37546,-2.95278
-119,-650,2.96716,2.94446,0.00459244,0.0107675,0.0121352,0.0202018,-0.00484185,0.909969,0.0153387,0.0485725,1105,1674,2.96711,-2.94449
-112,-650,2.48328,3.05127,0.00336784,0.00743593,0.0129546,0.0185152,-0.00771139,0.863269,0.0155643,0.0460313,1112,1674,2.48323,-3.05127
-105,-650,2.27686,3.05212,0.00104241,0.00280182,0.0120357,0.0139899,-0.0101457,0.821879,0.0139935,0.044876,1119,1674,2.27691,-3.05213
-98,-650,1.80273,3.22986,-0.00122293,-0.00229097,0.00935142,0.0076097,-0.0111236,0.756876,0.0108789,0.0436282,1126,1674,1.80271,-3.22982
-91,-650,1.59692,2.99768,0,0,0,0,0,0,0,-1,1133,1674,1.59692,-2.99772
-84,-650,2.32861,2.94202,-0.00401448,-0.0137672,0.000451326,-0.00399364,-0.013788,0.0461456,0.00819198,0.0458283,1140,1674,2.32857,-2.942
-77,-650,2.46423,3.24609,-0.00550777,-0.0176828,-0.00462942,-0.00394745,-0.0192431,-0.325087,0.0117363,0.0481005,1147,1674,2.46422,-3.24607
-70,-650,2.72534,3.46216,0,0,0,0,0,0,0,-1,1154,1674,2.72535,-3.46211
-63,-650,-0.323853,0.694702,0,0,0,0,0,0,0,-1,1161,1674,-0.32389,-0.694683
-56,-650,0.0255127,1.63086,0,0,0,0,0,0,0,-1,1168,1674,0.0255398,-1.63081
-49,-650,-0.119141,1.03284,-0.00991501,-0.0243798,-0.02291,0.00687706,-0.0411719,-0.632505,0.0300041,0.0487872,1175,1674,-0.119092,-1.03279
-42,-650,-0.189575,0.355835,-0.0124143,-0.0174697,-0.0234086,0.00860264,-0.0384866,-0.731615,0.0289545,0.046375,1182,1674,-0.189593,-0.355848
-35,-650,-0.307983,-0.671265,-0.0145499,-0.00777365,-0.0226347,0.0117251,-0.0340486,-0.85969,0.0274551,0.0485661,1189,1674,-0.307937,0.671304
-28,-650,-0.348267,-1.46387,-0.0174977,0.00177483,-0.0209897,0.0152346,-0.0309575,-1.00059,0.0271791,0.0459006,1196,1674,-0.348273,1.46384
-21,-650,-0.230713,-1.49817,-0.0216769,0.0135403,-0.0183568,0.0213686,-0.0295052,-1.1677,0.0294969,0.0499429,1203,1674,-0.230738,1.49815
-14,-650,5.9292,4.09216,0,0,0,0,0,0,0,-1,1210,1674,5.92914,-4.09216
-7,-650,4.94312,4.60205,0,0,0,0,0,0,0,-1,1217,1674,4.94308,-4.60207
0,-650,3.80493,5.48938,-0.0370351,0.0543014,-0.00982696,0.0553467,-0.0380804,-1.46482,0.0542464,0.0441956,1224,1674,3.80496,-5.48944
7,-650,3.41467,5.45483,-0.0424945,0.06621,-0.00626547,0.0665699,-0.0428545,-1.51341,0.0636689,0.0429297,1231,1674,3.41469,-5.45481
14,-650,2.97961,5.3927,-0.0485966,0.0786309,-0.00291895,0.0786978,-0.0486635,-1.54787,0.0742105,0.0431556,1238,1674,2.9796,-5.39272
21,-650,2.87549,5.33276,0,0,0,0,0,0,0,-1,1245,1674,2.87547,-5.3328
28,-650,2.83386,5.19519,-0.057779,0.0948938,-0.00167589,0.0949121,-0.0577974,-1.55982,0.0890307,0.0438657,1252,1674,2.83388,-5.19518
35,-650,2.24915,5.13196,-0.0568068,0.0971962,-0.00617331,0.0974432,-0.0570538,-1.5308,0.0902092,0.043501,1259,1674,2.2491,-5.13194
42,-650,1.53882,4.77063,-0.0528099,0.0956264,-0.0105039,0.096366,-0.0535495,-1.5005,0.0877225,0.043,1266,1674,1.53885,-4.77057
49,-650,0.626099,4.72571,-0.0395782,0.0913808,-0.0163212,0.0933842,-0.0415816,-1.44866,0.0798129,0.0441097,1273,1674,0.626091,-4.72565
56,-650,-2.66492,0.631226,0,0,0,0,0,0,0,-1,1280,1674,-2.66488,-0.631211
63,-650,-0.743408,4.5979,0.000591178,0.0812877,-0.0181564,0.0851846,-0.00330574,-1.35937,0.0579231,0.0478235,1287,1674,-0.743402,-4.59789
70,-650,-1.55334,4.31897,0.0338905,0.0786716,-0.0162372,0.0839394,0.0286227,-1.25708,0.0492725,0.0477403,1294,1674,-1.55337,-4.31896
77,-650,-0.665527,1.93909,0,0,0,0,0,0,0,-1,1301,1674,-0.665534,-1.93904
84,-650,-0.267456,2.18225,0.112494,0.0599436,-0.0105387,0.114528,0.0579089,-0.190722,0.0661244,0.0481873,1308,1674,-0.267432,-2.18224
91,-650,-0.0483398,2.37817,0.151581,0.0490483,-0.00415282,0.151749,0.0488803,-0.0404142,0.0894414,0.0462814,1315,1674,-0.0482806,-2.37812
98,-650,0.251465,2.41357,0.193167,0.0373259,0.00485467,0.193318,0.0371748,0.0311112,0.118448,0.0443377,1322,1674,0.251437,-2.41356
105,-650,0.470947,2.53125,0.228114,0.0234292,0.0143099,0.22911,0.0224336,0.0694616,0.145838,0.0451578,1329,1674,0.470945,-2.53124
112,-650,0.668823,2.66821,0,0,0,0,0,0,0,-1,1336,1674,0.668803,-2.6682
119,-650,6.65674,-0.489502,0.262213,-0.00170223,0.0277579,0.2651,-0.00459014,0.103666,0.178283,0.0416112,1343,1674,6.65671,0.489448
126,-650,7.71887,-0.79895,0.252642,-0.0125706,0.0280333,0.255573,-0.0155013,0.104167,0.175777,0.0468661,1350,1674,7.71889,0.798986
133,-650,8.93188,-1.18726,0,0,0,0,0,0,0,-1,1357,1674,8.9319,1.18726
140,-650,8.88525,-1.4314,0.198173,-0.0257243,0.018564,0.199702,-0.0272531,0.0821651,0.143087,0.0460545,1364,1674,8.88519,1.43145
147,-650,9.61865,-1.75366,0.172186,-0.0282887,0.0120063,0.172903,-0.0290052,0.0596055,0.126054,0.0469078,1371,1674,9.61859,1.75361
154,-650,10.4733,-2.0343,0,0,0,0,0,0,0,-1,1378,1674,10.4732,2.03426
161,-650,3.06897,12.2966,0.116497,-0.0301093,0.00240824,0.116537,-0.0301489,0.0164207,0.0894506,0.0461905,1385,1674,3.06895,-12.2966
168,-650,3.33777,11.3651,0,0,0,0,0,0,0,-1,1392,1674,3.33775,-11.3651
175,-650,3.70557,10.4352,0.0500682,-0.0351062,-0.0159992,0.0529744,-0.0380124,-0.179684,0.0527675,0.0466384,1399,1674,3.70553,-10.4352
182,-650,4.03345,9.46729,0.0230589,-0.0253322,-0.0194067,0.0298802,-0.0321535,-0.338003,0.0358232,0.0456251,1406,1674,4.03344,-9.4673
189,-650,3.96143,9.15918,0,0,0,0,0,0,0,-1,1413,1674,3.96143,-9.15912
196,-650,4.09277,7.82007,0,0,0,0,0,0,0,-1,1420,1674,4.09282,-7.82002
203,-650,3.69263,6.33911,0,0,0,0,0,0,0,-1,1427,1674,3.69267,-6.33915
210,-650,4.03455,4.93286,0,0,0,0,0,0,0,-1,1434,1674,4.03455,-4.93285
217,-650,3.99292,3.83435,0,0,0,0,0,0,0,-1,1441,1674,3.99291,-3.83437
224,-650,4.46265,3.32751,0.0177436,-0.00651902,-0.0117429,0.0224961,-0.0112716,-0.384565,0.0198515,0.0483789,1448,1674,4.46267,-3.32746
231,-650,4.90845,2.61584,0.016525,-0.0084477,-0.0106164,0.0204282,-0.0123509,-0.352316,0.0191156,0.0441997,1455,1674,4.90845,-2.6158
238,-650,5.1322,2.12732,0,0,0,0,0,0,0,-1,1462,1674,5.13224,-2.12731
245,-650,7.6178,1.37024,0,0,0,0,0,0,0,-1,1469,1674,7.61777,-1.37025
252,-650,2.28333,1.43176,0,0,0,0,0,0,0,-1,1476,1674,2.28335,-1.43173
259,-650,2.36292,1.97363,0,0,0,0,0,0,0,-1,1483,1674,2.36291,-1.97365
266,-650,2.04346,2.27527,0,0,0,0,0,0,0,-1,1490,1674,2.04345,-2.27533
273,-650,2.08484,2.31335,0.00351181,-0.0188703,-0.00197021,0.00368391,-0.0190424,-0.0871332,0.0140844,0.0457347,1497,1674,2.08486,-2.31338
280,-650,1.67371,2.68384,0.00148981,-0.0204581,-0.000110889,0.00149037,-0.0204587,-0.00505219,0.0141621,0.044495,1504,1674,1.67371,-2.68386
287,-650,2.00269,2.86536,0.000175988,-0.0198329,0.00175515,0.000328781,-0.0199857,0.0868349,0.0134347,0.0390903,1511,1674,2.00267,-2.8653
294,-650,2.16553,2.86047,-6.82543e-05,-0.0170881,0.0033408,0.000564015,-0.0177204,0.187045,0.012006,0.0338188,1518,1674,2.16552,-2.86048
301,-650,2.19946,2.88562,-0.000398294,-0.014277,0.00476047,0.00107762,-0.0157529,0.300638,0.010879,0.0250035,1525,1674,2.19945,-2.88561
308,-650,2.25354,2.90942,-0.000601045,-0.0115724,0.0052237,0.00148822,-0.0136616,0.380471,0.00964218,0.0152206,1532,1674,2.25348,-2.90941
315,-650,2.28711,2.91211,-0.000567012,-0.00907091,0.00529218,0.00196972,-0.0116076,0.446981,0.00847168,0.0105432,1539,1674,2.28716,-2.91212
322,-650,2.29517,2.8656,-0.000398691,-0.00691258,0.00481469,0.00215719,-0.00946846,0.488022,0.00714082,0.00972195,1546,1674,2.29515,-2.86562
329,-650,2.28467,2.8064,-2.97347e-05,-0.00476942,0.00411645,0.0023503,-0.00714946,0.524218,0.00571322,0.0148402,1553,1674,2.28467,-2.80635
336,-650,2.28394,2.81311,8.40607e-05,-0.0032827,0.00334797,0.00214804,-0.00534667,0.552454,0.0044565,0.0127863,1560,1674,2.28394,-2.81315
343,-650,2.31848,2.80054,0.000220209,-0.00214713,0.00241882,0.00172945,-0.00365637,0.557849,0.00317515,0.0127004,1567,1674,2.31848,-2.80056
350,-650,2.34143,2.74011,0.000507818,-0.00143835,0.00139425,0.00123497,-0.00216551,0.480731,0.00198762,0.0155327,1574,1674,2.34143,-2.7401
357,-650,2.32068,2.70154,0.000926752,-0.00119256,0.000553189,0.00106246,-0.00132826,0.240564,0.00138312,0.0130693,1581,1674,2.32062,-2.7015
364,-650,2.31824,2.69067,0.00168126,-0.00116171,-0.000272812,0.0017072,-0.00118765,-0.0948073,0.00168029,0.00858144,1588,1674,2.31821,-2.69063
371,-650,2.29871,2.67554,0.0026921,-0.00136145,-0.00108133,0.00296251,-0.00163187,-0.245052,0.0026894,0.010539,1595,1674,2.29869,-2.67559
378,-650,2.29126,2.65063,0.00372166,-0.00164236,-0.00185877,0.00430281,-0.00222351,-0.303024,0.00383119,0.01274,1602,1674,2.2912,-2.65058
385,-650,2.27173,2.61499,0.00482929,-0.00214083,-0.00271547,0.00576231,-0.00307385,-0.330956,0.00517967,0.0144334,1609,1674,2.27176,-2.615
392,-650,2.28064,2.59253,0.00609434,-0.00221251,-0.00380833,0.00757601,-0.00369418,-0.37104,0.00663426,0.0177485,1616,1674,2.2807,-2.59251
399,-650,2.29822,2.57751,0.00683174,-0.00247196,-0.00464369,0.00875283,-0.00439306,-0.39226,0.00772766,0.0153468,1623,1674,2.29824,-2.57753
406,-650,2.30383,2.55957,0.00756447,-0.00265985,-0.00559767,0.0100331,-0.00512846,-0.41535,0.00890488,0.0135869,1630,1674,2.30386,-2.55955
413,-650,2.28772,2.52832,0.00774104,-0.00281811,-0.00631587,0.0106934,-0.00577043,-0.437266,0.00964599,0.0136141,1637,1674,2.28773,-2.52836
420,-650,2.27576,2.50317,0.0072505,-0.00311215,-0.0065114,0.0103905,-0.00625215,-0.449332,0.00970716,0.0138041,1644,1674,2.27576,-2.50317
427,-650,2.27856,2.46753,0.0062825,-0.00406665,-0.00646595,0.00938951,-0.00717366,-0.447942,0.00959123,0.013415,1651,1674,2.27861,-2.46757
434,-650,2.30554,2.44617,0.00483391,-0.00274678,-0.00661147,0.00866447,-0.00657735,-0.525121,0.00882733,0.0159318,1658,1674,2.3055,-2.44618
441,-650,2.328,2.38953,0.00331034,-0.00122692,-0.0071091,0.00850402,-0.00642059,-0.630948,0.00864467,0.0251312,1665,1674,2.32799,-2.38947
448,-650,2.23767,2.29431,0.0018884,-3.08108e-05,-0.00736716,0.00835819,-0.0065006,-0.720635,0.00860104,0.0370243,1672,1674,2.2377,-2.29435
455,-650,2.31787,2.27551,0.000196108,0.001652,-0.00754742,0.0085065,-0.00665839,-0.833474,0.0087771,0.0406623,1679,1674,2.3179,-2.27546
462,-650,2.31799,2.13879,-0.00117064,0.00416055,-0.00807561,0.00999913,-0.00700921,-0.944808,0.00987022,0.0472806,1686,1674,2.31799,-2.13884
469,-650,2.3103,2.03052,-0.00250088,0.0073341,-0.00885755,0.0125476,-0.00771443,-1.0388,0.0118087,0.0465436,1693,1674,2.31028,-2.03051
476,-650,1.87598,1.92761,-0.0029427,0.0113509,-0.0105573,0.0169529,-0.00854476,-1.08294,0.0149855,0.0422348,1700,1674,1.87593,-1.92757
483,-650,0.723267,4.172,-0.00171685,0.0169747,-0.013934,0.0244069,-0.00914902,-1.0808,0.02003,0.0466295,1707,1674,0.723233,-4.17194
490,-650,1.20752,3.35693,0.000696111,0.023549,-0.0183885,0.0337721,-0.00952695,-1.0634,0.0262726,0.0449711,1714,1674,1.20755,-3.35698
497,-650,1.6814,2.49719,0.00396926,0.0318222,-0.0259202,0.0473203,-0.0115288,-1.03191,0.0360103,0.0437699,1721,1674,1.6814,-2.49715
504,-650,2.34888,1.66296,0,0,0,0,0,0,0,-1,1728,1674,2.34889,-1.663
511,-650,2.89734,1.06995,0,0,0,0,0,0,0,-1,1735,1674,2.89728,-1.0699
518,-650,0,0,0,0,0,0,0,0,0,-1,1742,1674,0,0
525,-650,0,0,0,0,0,0,0,0,0,-1,1749,1674,0,0
532,-650,0,0,0,0,0,0,0,0,0,-1,1756,1674,0,0
539,-650,0,0,0,0,0,0,0,0,0,-1,1763,1674,0,0
546,-650,0,0,0,0,0,0,0,0,0,-1,1770,1674,0,0
553,-650,0,0,0,0,0,0,0,0,0,-1,1777,1674,0,0
560,-650,0,0,0,0,0,0,0,0,0,-1,1784,1674,0,0
567,-650,0,0,0,0,0,0,0,0,0,-1,1791,1674,0,0
574,-650,0,0,0,0,0,0,0,0,0,-1,1798,1674,0,0
581,-650,0,0,0,0,0,0,0,0,0,-1,1805,1674,0,0
588,-650,0,0,0,0,0,0,0,0,0,-1,1812,1674,0,0
595,-650,0,0,0,0,0,0,0,0,0,-1,1819,1674,0,0
602,-650,0,0,0,0,0,0,0,0,0,-1,1826,1674,0,0
609,-650,0,0,0,0,0,0,0,0,0,-1,1833,1674,0,0
616,-650,0,0,0,0,0,0,0,0,0,-1,1840,1674,0,0
623,-650,0,0,0,0,0,0,0,0,0,-1,1847,1674,0,0
630,-650,0,0,0,0,0,0,0,0,0,-1,1854,1674,0,0
637,-650,0,0,0,0,0,0,0,0,0,-1,1861,1674,0,0
644,-650,0,0,0,0,0,0,0,0,0,-1,1868,1674,0,0
651,-650,0,0,0,0,0,0,0,0,0,-1,1875,1674,0,0
658,-650,0,0,0,0,0,0,0,0,0,-1,1882,1674,0,0
665,-650,0,0,0,0,0,0,0,0,0,-1,1889,1674,0,0
672,-650,0,0,0,0,0,0,0,0,0,-1,1896,1674,0,0
679,-650,0,0,0,0,0,0,0,0,0,-1,1903,1674,0,0
686,-650,0,0,0,0,0,0,0,0,0,-1,1910,1674,0,0
693,-650,0,0,0,0,0,0,0,0,0,-1,1917,1674,0,0
700,-650,0,0,0,0,0,0,0,0,0,-1,1924,1674,0,0
707,-650,0,0,0,0,0,0,0,0,0,-1,1931,1674,0,0
714,-650,0,0,0,0,0,0,0,0,0,-1,1938,1674,0,0
721,-650,0,0,0,0,0,0,0,0,0,-1,1945,1674,0,0
728,-650,0,0,0,0,0,0,0,0,0,-1,1952,1674,0,0
735,-650,0,0,0,0,0,0,0,0,0,-1,1959,1674,0,0
742,-650,0,0,0,0,0,0,0,0,0,-1,1966,1674,0,0
749,-650,0,0,0,0,0,0,0,0,0,-1,1973,1674,0,0
756,-650,0,0,0,0,0,0,0,0,0,-1,1980,1674,0,0
763,-650,0,0,0,0,0,0,0,0,0,-1,1987,1674,0,0
770,-650,0,0,0,0,0,0,0,0,0,-1,1994,1674,0,0
777,-650,0,0,0,0,0,0,0,0,0,-1,2001,1674,0,0
784,-650,0,0,0,0,0,0,0,0,0,-1,2008,1674,0,0
791,-650,0,0,0,0,0,0,0,0,0,-1,2015,1674,0,0
798,-650,0,0,0,0,0,0,0,0,0,-1,2022,1674,0,0
805,-650,0,0,0,0,0,0,0,0,0,-1,2029,1674,0,0
812,-650,0,0,0,0,0,0,0,0,0,-1,2036,1674,0,0
-700,-657,0,0,0,0,0,0,0,0,0,-1,524,1681,0,0
-693,-657,0,0,0,0,0,0,0,0,0,-1,531,1681,0,0
-686,-657,0,0,0,0,0,0,0,0,0,-1,538,1681,0,0
-679,-657,0,0,0,0,0,0,0,0,0,-1,545,1681,0,0
-672,-657,0,0,0,0,0,0,0,0,0,-1,552,1681,0,0
-665,-657,0,0,0,0,0,0,0,0,0,-1,559,1681,0,0
-658,-657,0,0,0,0,0,0,0,0,0,-1,566,1681,0,0
-651,-657,0,0,0,0,0,0,0,0,0,-1,573,1681,0,0
-644,-657,0,0,0,0,0,0,0,0,0,-1,580,1681,0,0
-637,-657,0,0,0,0,0,0,0,0,0,-1,587,1681,0,0
-630,-657,0,0,0,0,0,0,0,0,0,-1,594,1681,0,0
-623,-657,0,0,0,0,0,0,0,0,0,-1,601,1681,0,0
-616,-657,0,0,0,0,0,0,0,0,0,-1,608,1681,0,0
-609,-657,0,0,0,0,0,0,0,0,0,-1,615,1681,0,0
-602,-657,0,0,0,0,0,0,0,0,0,-1,622,1681,0,0
-595,-657,0,0,0,0,0,0,0,0,0,-1,629,1681,0,0
-588,-657,0,0,0,0,0,0,0,0,0,-1,636,1681,0,0
-581,-657,0,0,0,0,0,0,0,0,0,-1,643,1681,0,0
-574,-657,0,0,0,0,0,0,0,0,0,-1,650,1681,0,0
-567,-657,0,0,0,0,0,0,0,0,0,-1,657,1681,0,0
-560,-657,0,0,0,0,0,0,0,0,0,-1,664,1681,0,0
-553,-657,0,0,0,0,0,0,0,0,0,-1,671,1681,0,0
-546,-657,0,0,0,0,0,0,0,0,0,-1,678,1681,0,0
-539,-657,0,0,0,0,0,0,0,0,0,-1,685,1681,0,0
-532,-657,0,0,0,0,0,0,0,0,0,-1,692,1681,0,0
-525,-657,0,0,0,0,0,0,0,0,0,-1,699,1681,0,0
-518,-657,0,0,0,0,0,0,0,0,0,-1,706,1681,0,0
-511,-657,0,0,0,0,0,0,0,0,0,-1,713,1681,0,0
-504,-657,0,0,0,0,0,0,0,0,0,-1,720,1681,0,0
-497,-657,0,0,0,0,0,0,0,0,0,-1,727,1681,0,0
-490,-657,0,0,0,0,0,0,0,0,0,-1,734,1681,0,0
-483,-657,0,0,0,0,0,0,0,0,0,-1,741,1681,0,0
-476,-657,0,0,0,0,0,0,0,0,0,-1,748,1681,0,0
-469,-657,0,0,0,0,0,0,0,0,0,-1,755,1681,0,0
-462,-657,0,0,0,0,0,0,0,0,0,-1,762,1681,0,0
-455,-657,0,0,0,0,0,0,0,0,0,-1,769,1681,0,0
-448,-657,0,0,0,0,0,0,0,0,0,-1,776,1681,0,0
-441,-657,0,0,0,0,0,0,0,0,0,-1,783,1681,0,0
-434,-657,0,0,0,0,0,0,0,0,0,-1,790,1681,0,0
-427,-657,0,0,0,0,0,0,0,0,0,-1,797,1681,0,0
-420,-657,0,0,0,0,0,0,0,0,0,-1,804,1681,0,0
-413,-657,0,0,0,0,0,0,0,0,0,-1,811,1681,0,0
-406,-657,0,0,0,0,0,0,0,0,0,-1,818,1681,0,0
-399,-657,0,0,0,0,0,0,0,0,0,-1,825,1681,0,0
-392,-657,0,0,0,0,0,0,0,0,0,-1,832,1681,0,0
-385,-657,2.33667,4.20276,0,0,0,0,0,0,0,-1,839,1681,2.33669,-4.20282
-378,-657,2.70044,4.12146,0,0,0,0,0,0,0,-1,846,1681,2.70045,-4.12141
-371,-657,-0.708069,-1.41467,0,0,0,0,0,0,0,-1,853,1681,-0.708041,1.41468
-364,-657,-0.672607,-0.991455,0,0,0,0,0,0,0,-1,860,1681,-0.672595,0.991478
-357,-657,-0.407776,-0.112915,0,0,0,0,0,0,0,-1,867,1681,-0.407746,0.112964
-350,-657,-0.17981,0.338623,0.0128704,-0.00451275,-0.0054564,0.0144412,-0.00608352,-0.280298,0.012173,0.0441265,874,1681,-0.179821,-0.338642
-343,-657,0.0499878,0.800659,0.0105141,-0.00172506,-0.00536207,0.0125309,-0.00374188,-0.359759,0.00984129,0.0436032,881,1681,0.0499938,-0.800642
-336,-657,0.650818,1.11194,0.00724532,0.000288202,-0.00477922,0.00967788,-0.00214436,-0.470811,0.00727285,0.0474966,888,1681,0.650838,-1.11193
-329,-657,1.47089,1.6062,0.00354369,0.000660539,-0.00361477,0.00599373,-0.00178951,-0.595662,0.00470711,0.0453113,895,1681,1.47087,-1.60618
-322,-657,1.82434,1.97913,-0.000116261,0.000162338,-0.00155528,0.00158455,-0.00153847,-0.830062,0.00180314,0.0411706,902,1681,1.82432,-1.97911
-315,-657,2.03162,2.10474,-0.00342405,-0.000432861,0.00066949,-0.000289852,-0.00356705,1.36035,0.00228755,0.0403056,909,1681,2.0316,-2.10479
-308,-657,1.73834,2.2843,-0.0059562,-0.00143293,0.00238,-0.000411367,-0.00697776,1.16535,0.00452096,0.0357987,916,1681,1.73835,-2.28425
-301,-657,1.69794,2.42432,-0.00729916,-0.00207878,0.0041547,0.000217621,-0.00959556,1.06586,0.0064708,0.0278616,923,1681,1.69796,-2.42435
-294,-657,1.82031,2.44214,-0.0082745,-0.00287026,0.00521856,0.000304252,-0.011449,1.02429,0.00773609,0.0156025,930,1681,1.8203,-2.44219
-287,-657,1.82422,2.46509,-0.00847459,-0.0046873,0.00533903,-0.000916041,-0.0122458,0.955817,0.00787633,0.010458,937,1681,1.82425,-2.46511
-280,-657,1.81476,2.48645,-0.00795604,-0.00487228,0.00556363,-0.000640831,-0.0121875,0.920573,0.00792003,0.0117997,944,1681,1.81478,-2.48641
-273,-657,1.8299,2.50916,-0.00616446,-0.00444732,0.00482457,-0.000405517,-0.0102063,0.873455,0.00667311,0.00918125,951,1681,1.82992,-2.50912
-266,-657,1.82581,2.55042,-0.00429171,-0.00402372,0.00411756,-3.79742e-05,-0.00827745,0.801664,0.00550569,0.013613,958,1681,1.8258,-2.5504
-259,-657,1.81995,2.57056,-0.00229984,-0.00354499,0.00318863,0.000326425,-0.00617126,0.688987,0.00422718,0.0171838,965,1681,1.81996,-2.57054
-252,-657,1.83807,2.60718,-0.000392626,-0.00265751,0.00228432,0.00102455,-0.00407468,0.555279,0.00311466,0.0123543,972,1681,1.8381,-2.60717
-245,-657,1.82123,2.65527,0.000570594,-0.00162329,0.00150472,0.00133577,-0.00238847,0.470436,0.00217863,0.0149162,979,1681,1.82123,-2.65527
-238,-657,1.80896,2.69104,0.000554192,-0.000450115,0.00103667,0.00120393,-0.00109985,0.559857,0.00133054,0.0200636,986,1681,1.80893,-2.69104
-231,-657,1.83191,2.76001,0.0004973,0.00014009,0.00078533,0.00112408,-0.000486689,0.673587,0.000953938,0.0206356,993,1681,1.83193,-2.76
-224,-657,1.85437,2.79395,0.000549343,0.000818257,0.000558486,0.00125824,0.000109357,0.903527,0.000804857,0.0154204,1000,1681,1.85434,-2.79391
-217,-657,1.86176,2.77283,0.000322256,0.0014403,0.000353768,0.00154284,0.000219721,1.28869,0.000963704,0.00934273,1007,1681,1.86174,-2.77287
-210,-657,1.8548,2.79797,7.58802e-05,0.00149863,0.000169027,0.00151844,5.6075e-05,1.45416,0.000994128,0.00982956,1014,1681,1.85482,-2.79795
-203,-657,1.84991,2.84375,1.25888e-05,0.00172059,0.000256836,0.00175838,-2.51961e-05,1.42473,0.00118074,0.0127515,1021,1681,1.84994,-2.84375
-196,-657,1.86121,2.85022,-9.21648e-05,0.00208291,0.000391173,0.00215112,-0.000160376,1.39816,0.00149042,0.0139644,1028,1681,1.86117,-2.85018
-189,-657,1.86597,2.86426,-0.000111516,0.0028248,0.000674231,0.00297221,-0.000258931,1.35554,0.00207318,0.0100015,1035,1681,1.86597,-2.86422
-182,-657,1.86621,2.89661,0.000496461,0.00365063,0.000975493,0.00392794,0.00021915,1.29383,0.00254872,0.00790261,1042,1681,1.86616,-2.89662
-175,-657,1.87964,2.90881,0.00161433,0.00423343,0.00142252,0.00485739,0.000990368,1.15743,0.00296382,0.010097,1049,1681,1.87963,-2.90886
-168,-657,1.87012,2.92578,0.00257192,0.00474548,0.00225863,0.00616519,0.00115221,1.00963,0.00378498,0.0113919,1056,1681,1.8701,-2.92583
-161,-657,1.85693,2.9386,0.00304359,0.00552622,0.0030575,0.00758477,0.000985029,0.978228,0.00476225,0.0109024,1063,1681,1.85696,-2.93864
-154,-657,1.84753,2.97595,0.00322419,0.00656682,0.0041958,0.00941192,0.000379088,0.974931,0.00615215,0.011123,1070,1681,1.84755,-2.97599
-147,-657,1.87769,3.00342,0.00342679,0.00727677,0.0051482,0.0108481,-0.000144542,0.964308,0.00728072,0.0157204,1077,1681,1.87772,-3.00343
-140,-657,1.8739,3.06055,0.00360763,0.00791403,0.00607913,0.01221,-0.000688359,0.955602,0.0083789,0.0258298,1084,1681,1.87387,-3.06057
-133,-657,1.85913,3.10388,0.00405668,0.00828888,0.0073472,0.0138186,-0.00147309,0.925611,0.00974066,0.035071,1091,1681,1.85907,-3.10393
-126,-657,1.93738,3.09412,0.00412893,0.00832585,0.00907281,0.0155397,-0.00308494,0.899045,0.0115266,0.0384057,1098,1681,1.93738,-3.09413
-119,-657,2.21838,3.08435,0.00398119,0.00733896,0.0101871,0.0159846,-0.00466441,0.867067,0.0125046,0.0454901,1105,1681,2.21836,-3.08435
-112,-657,2.22534,3.03894,0.00288319,0.0048316,0.0109149,0.0148157,-0.00710091,0.829908,0.0129122,0.0485676,1112,1681,2.22538,-3.03892
-105,-657,1.6311,3.40466,0.00061415,0.00134247,0.010354,0.0113387,-0.00938213,0.802976,0.011981,0.0474542,1119,1681,1.63105,-3.40469
-98,-657,1.66907,3.24426,-0.0014481,-0.00257624,0.00821711,0.00622428,-0.0102486,0.751129,0.00960477,0.0442425,1126,1681,1.66907,-3.24425
-91,-657,1.62134,3.11267,-0.00316004,-0.00722005,0.00476206,-1.33575e-05,-0.0103667,0.583918,0.00690671,0.0430447,1133,1681,1.62134,-3.11263
-84,-657,2.04138,3.04553,-0.00453074,-0.0120475,0.000547317,-0.0044911,-0.0120872,0.0723045,0.00705486,0.0459255,1140,1681,2.04135,-3.0455
-77,-657,2.5033,2.89368,0,0,0,0,0,0,0,-1,1147,1681,2.50324,-2.89365
-70,-657,0.300293,3.55139,0,0,0,0,0,0,0,-1,1154,1681,0.300311,-3.5514
-63,-657,1.75085,1.67139,0,0,0,0,0,0,0,-1,1161,1681,1.75081,-1.67137
-56,-657,0.665161,2.39661,0,0,0,0,0,0,0,-1,1168,1681,0.665204,-2.39656
-49,-657,-0.0979004,1.26575,-0.0103439,-0.0196295,-0.0196057,0.00516121,-0.0351346,-0.669136,0.0253194,0.0480598,1175,1681,-0.097868,-1.26577
-42,-657,-0.177979,0.706421,-0.0122742,-0.0136717,-0.0199181,0.00695744,-0.0329034,-0.767864,0.0245851,0.0483388,1182,1681,-0.178006,-0.70648
-35,-657,-0.22168,-0.610352,-0.0138381,-0.00555189,-0.0192708,0.0100162,-0.0294062,-0.891284,0.0236604,0.0461136,1189,1681,-0.221696,0.610315
-28,-657,-0.221313,-1.76453,-0.0161437,0.00219936,-0.0179999,0.0132297,-0.027174,-1.02102,0.0237856,0.0447165,1196,1681,-0.221367,1.7645
-21,-657,6.65161,3.25427,0,0,0,0,0,0,0,-1,1203,1681,6.65158,-3.25432
-14,-657,5.68518,3.74829,-0.0229926,0.022973,-0.0125043,0.0261544,-0.026174,-1.32166,0.0302118,0.0460024,1210,1681,5.68515,-3.74834
-7,-657,4.65967,4.22314,0,0,0,0,0,0,0,-1,1217,1681,4.65972,-4.22311
0,-657,3.51001,4.40918,-0.0312191,0.0467705,-0.00794739,0.0475721,-0.0320207,-1.47027,0.0462444,0.0464698,1224,1681,3.51006,-4.40913
7,-657,3.73621,4.74023,-0.0360332,0.056529,-0.00485086,0.0567825,-0.0362867,-1.51858,0.0541661,0.047121,1231,1681,3.73618,-4.74021
14,-657,3.38232,4.40088,-0.0415791,0.0666348,-0.00228177,0.0666829,-0.0416272,-1.54972,0.0630881,0.0437225,1238,1681,3.38236,-4.40083
21,-657,3.38501,3.96484,0,0,0,0,0,0,0,-1,1245,1681,3.38506,-3.96482
28,-657,2.75513,4.27612,-0.0495355,0.0791106,-0.00261947,0.0791639,-0.0495888,-1.55045,0.0749863,0.0426274,1252,1681,2.75513,-4.27618
35,-657,2.14209,4.53845,-0.0485211,0.0804153,-0.00693558,0.0807873,-0.0488931,-1.51721,0.0756221,0.0412019,1259,1681,2.14214,-4.53843
42,-657,1.51685,4.48499,-0.0447251,0.0785081,-0.011045,0.0794902,-0.0457072,-1.48211,0.0731547,0.0420186,1266,1681,1.5168,-4.485
49,-657,-2.01978,0.390137,-0.0341623,0.0746372,-0.0160012,0.0769417,-0.0364668,-1.42776,0.066852,0.0443941,1273,1681,-2.01979,-0.390116
56,-657,-1.88489,1.0575,-0.0237761,0.0696035,-0.0208309,0.0740396,-0.0282122,-1.36097,0.0609795,0.0472894,1280,1681,-1.88494,-1.05744
63,-657,-1.85095,1.75769,0,0,0,0,0,0,0,-1,1287,1681,-1.85098,-1.75774
70,-657,-1.90283,3.51489,0,0,0,0,0,0,0,-1,1294,1681,-1.90282,-3.51487
77,-657,-0.32666,2.17017,0,0,0,0,0,0,0,-1,1301,1681,-0.326648,-2.1702
84,-657,0.0854492,2.32593,0.0901523,0.0459825,-0.0120487,0.0932252,0.0429096,-0.249715,0.0538802,0.04549,1308,1681,0.0854586,-2.32591
91,-657,0.562866,2.47327,0.122146,0.0366841,-0.00676998,0.122679,0.0361511,-0.0785632,0.0727922,0.0428674,1315,1681,0.562915,-2.47326
98,-657,1.13403,2.49854,0.156302,0.0268636,0.000908411,0.156308,0.0268573,0.00701765,0.0965068,0.0422767,1322,1681,1.13402,-2.49848
105,-657,1.51733,2.82031,0.185209,0.0156895,0.00912074,0.185699,0.0152002,0.0535971,0.119056,0.0429975,1329,1681,1.51732,-2.82034
112,-657,5.10449,1.48035,0.201956,0.00724109,0.0149084,0.203091,0.00610624,0.0759754,0.133405,0.0423498,1336,1681,5.10452,-1.48039
119,-657,5.81348,0.832397,0.215491,-0.00301007,0.0213925,0.217566,-0.00508482,0.0966826,0.146768,0.0455835,1343,1681,5.81343,-0.832423
126,-657,6.89648,0.380737,0.209277,-0.0105779,0.0223177,0.21152,-0.0128205,0.10015,0.145475,0.0477373,1350,1681,6.89654,-0.380764
133,-657,8.08948,-0.0183105,0,0,0,0,0,0,0,-1,1357,1681,8.08948,0.018296
140,-657,7.82068,-0.328979,0,0,0,0,0,0,0,-1,1364,1681,7.82066,0.32892
147,-657,8.76526,-0.676758,0,0,0,0,0,0,0,-1,1371,1681,8.7653,0.676709
154,-657,4.04895,13.3818,0,0,0,0,0,0,0,-1,1378,1681,4.049,-13.3818
161,-657,4.41541,11.9003,0,0,0,0,0,0,0,-1,1385,1681,4.41543,-11.9003
168,-657,4.15442,11.4009,0,0,0,0,0,0,0,-1,1392,1681,4.15436,-11.4009
175,-657,4.55029,10.4307,0.0412429,-0.0236627,-0.0148083,0.0444619,-0.0268816,-0.214042,0.0416049,0.0461944,1399,1681,4.55026,-10.4307
182,-657,4.56091,9.57971,0.0178936,-0.0149226,-0.0180319,0.0258653,-0.0228943,-0.416257,0.0281688,0.0469984,1406,1681,4.56094,-9.57977
189,-657,4.2876,8.6106,0.0143951,-0.00824768,-0.0194092,0.0255435,-0.0193961,-0.521374,0.0260267,0.0462757,1413,1681,4.28756,-8.61054
196,-657,3.95166,7.29053,0.0121711,-0.00284413,-0.0197832,0.0258233,-0.0164964,-0.604045,0.0246303,0.0469725,1420,1681,3.95166,-7.29053
203,-657,3.59167,5.78027,0,0,0,0,0,0,0,-1,1427,1681,3.59169,-5.78027
210,-657,3.62549,4.57849,0.0127077,0.00131336,-0.0152044,0.0232473,-0.00922626,-0.606143,0.0193224,0.0444277,1434,1681,3.62552,-4.57846
217,-657,3.54102,3.51123,0.013507,0.00172434,-0.0122412,0.0212007,-0.00596939,-0.561122,0.0164878,0.0438888,1441,1681,3.54107,-3.51123
224,-657,3.69348,2.68433,0.0133321,-0.000234656,-0.0103598,0.0189318,-0.00583434,-0.495535,0.0149504,0.0435535,1448,1681,3.69353,-2.68432
231,-657,4.19312,1.97266,0.0126734,-0.00245917,-0.00896355,0.0168371,-0.00662293,-0.434864,0.013966,0.044597,1455,1681,4.19317,-1.9726
238,-657,4.44934,1.38953,0,0,0,0,0,0,0,-1,1462,1681,4.44933,-1.38948
245,-657,4.5293,1.03015,0,0,0,0,0,0,0,-1,1469,1681,4.52934,-1.0301
252,-657,3.57117,1.52417,0,0,0,0,0,0,0,-1,1476,1681,3.57121,-1.5242
259,-657,2.51611,3.44568,0,0,0,0,0,0,0,-1,1483,1681,2.51613,-3.44566
266,-657,2.45654,3.32031,0,0,0,0,0,0,0,-1,1490,1681,2.45649,-3.32031
273,-657,2.3042,3.16382,0.00269195,-0.0145338,-0.00122093,0.00277806,-0.0146199,-0.0704094,0.0107924,0.0450447,1497,1681,2.30424,-3.16378
280,-657,2.22632,3.04822,0.00107864,-0.0161405,3.73906e-05,0.00107872,-0.0161406,0.00217145,0.0111374,0.036898,1504,1681,2.22631,-3.04822
287,-657,2.21606,2.91711,1.1279e-05,-0.0159297,0.00126134,0.000110466,-0.0160289,0.0784752,0.0107229,0.0286915,1511,1681,2.21611,-2.91716
294,-657,2.23804,2.91382,-9.25222e-05,-0.0138008,0.00228188,0.00027734,-0.0141707,0.160689,0.00954091,0.0211929,1518,1681,2.23803,-2.91377
301,-657,2.2439,2.91785,-0.000286212,-0.0115522,0.00322029,0.000569316,-0.0124077,0.25967,0.00846797,0.0144146,1525,1681,2.24392,-2.91789
308,-657,2.2583,2.90833,-0.000356972,-0.00920062,0.00345432,0.000832339,-0.0103899,0.331585,0.00722007,0.011457,1532,1681,2.25834,-2.90832
315,-657,2.27454,2.89502,-0.000225542,-0.00706395,0.00341547,0.0011881,-0.00847759,0.392426,0.00608654,0.0101366,1539,1681,2.27451,-2.89497
322,-657,2.29089,2.86255,-1.07072e-05,-0.00518967,0.00301649,0.00137532,-0.00657569,0.430711,0.00490691,0.012214,1546,1681,2.29091,-2.86261
329,-657,2.28394,2.82385,0.00043909,-0.00325149,0.00250809,0.00170758,-0.00451997,0.468244,0.00371568,0.0178402,1553,1681,2.28392,-2.82388
336,-657,2.27893,2.81458,0.000625955,-0.00187732,0.00194058,0.00168353,-0.0029349,0.498978,0.00269888,0.0156998,1560,1681,2.2789,-2.81454
343,-657,2.29126,2.7937,0.000970495,-0.000999962,0.00119823,0.00153654,-0.001566,0.441322,0.00179128,0.0124109,1567,1681,2.2913,-2.79367
350,-657,2.29346,2.74048,0.00151556,-0.000596092,0.000366069,0.00157722,-0.000657752,0.166872,0.00132626,0.0150735,1574,1681,2.29347,-2.74047
357,-657,2.28137,2.72046,0.00218767,-0.000529912,-0.000370866,0.00223737,-0.000579615,-0.133224,0.0017177,0.0142059,1581,1681,2.2814,-2.72047
364,-657,2.27673,2.70447,0.00337428,-0.000793971,-0.00123841,0.00371445,-0.00113415,-0.268076,0.00292849,0.0101832,1588,1681,2.27675,-2.70442
371,-657,2.26904,2.69165,0.00479141,-0.00129444,-0.00217991,0.00549166,-0.00199469,-0.31082,0.00447667,0.0146044,1595,1681,2.26905,-2.69164
378,-657,2.2533,2.65747,0.00614892,-0.00197246,-0.00308877,0.00719016,-0.0030137,-0.325142,0.00605346,0.0151093,1602,1681,2.25334,-2.65748
385,-657,2.23682,2.62012,0.00750907,-0.00289851,-0.00414131,0.00895584,-0.00434528,-0.336095,0.00783168,0.0134358,1609,1681,2.2368,-2.62016
392,-657,2.25574,2.61414,0.00908834,-0.00323711,-0.00559612,0.01125,-0.00539879,-0.368625,0.00980808,0.0131641,1616,1681,2.25575,-2.61418
399,-657,2.28638,2.5968,0.0100342,-0.00381237,-0.00674432,0.0127762,-0.00655437,-0.386152,0.0113516,0.0120843,1623,1681,2.28642,-2.5968
406,-657,2.29712,2.56091,0.0110173,-0.00425561,-0.00805485,0.0144802,-0.00771853,-0.406028,0.0130131,0.0129987,1630,1681,2.29708,-2.5609
413,-657,2.27441,2.50012,0.011204,-0.00470427,-0.00903499,0.0152873,-0.00878755,-0.424467,0.0140674,0.0127758,1637,1681,2.27443,-2.50017
420,-657,2.26477,2.46472,0.0105196,-0.00517427,-0.00926562,0.0148146,-0.00946925,-0.434056,0.0141331,0.0133798,1644,1681,2.26482,-2.4647
427,-657,2.24841,2.44446,0.00925695,-0.00643087,-0.00921162,0.0135118,-0.0106858,-0.432709,0.0140022,0.0164345,1651,1681,2.24839,-2.44443
434,-657,2.2926,2.40613,0.00724063,-0.00519543,-0.00935877,0.0122587,-0.0102135,-0.49218,0.0129923,0.0232639,1658,1681,2.29258,-2.40608
441,-657,2.38062,2.32947,0.00516231,-0.00354813,-0.00981365,0.0115437,-0.00992955,-0.576558,0.0124093,0.0387462,1665,1681,2.38065,-2.32942
448,-657,2.02893,2.23083,0.00309968,-0.00232348,-0.0098628,0.0106169,-0.00984065,-0.651248,0.011814,0.0475252,1672,1681,2.02887,-2.23083
455,-657,2.02551,2.17651,0,0,0,0,0,0,0,-1,1679,1681,2.02557,-2.17654
462,-657,2.23572,2.09106,-0.00136589,0.00173498,-0.0100867,0.0103897,-0.0100206,-0.861657,0.0117845,0.0499245,1686,1681,2.23574,-2.09103
469,-657,2.39001,1.83826,-0.0034751,0.00499349,-0.0105926,0.0121667,-0.0106483,-0.97554,0.013182,0.045574,1693,1681,2.39005,-1.83821
476,-657,2.33521,1.92493,-0.00435763,0.00927152,-0.0123022,0.0165204,-0.0116066,-1.03833,0.0163215,0.0436795,1700,1681,2.33525,-1.92496
483,-657,2.35474,1.91565,-0.00280631,0.0156099,-0.0162551,0.0250838,-0.0122802,-1.0431,0.0219902,0.0497759,1707,1681,2.35468,-1.91565
490,-657,1.30286,3.00793,0.000552141,0.0237477,-0.0218688,0.0369037,-0.0126039,-1.02921,0.0297088,0.0415609,1714,1681,1.30285,-3.00797
497,-657,1.51379,2.39917,0.00539343,0.0345649,-0.0312722,0.0544855,-0.0145272,-1.00361,0.0420118,0.0391872,1721,1681,1.51382,-2.39917
504,-657,0,0,0,0,0,0,0,0,0,-1,1728,1681,0,0
511,-657,0,0,0,0,0,0,0,0,0,-1,1735,1681,0,0
518,-657,0,0,0,0,0,0,0,0,0,-1,1742,1681,0,0
525,-657,0,0,0,0,0,0,0,0,0,-1,1749,1681,0,0
532,-657,0,0,0,0,0,0,0,0,0,-1,1756,1681,0,0
539,-657,0,0,0,0,0,0,0,0,0,-1,1763,1681,0,0
546,-657,0,0,0,0,0,0,0,0,0,-1,1770,1681,0,0
553,-657,0,0,0,0,0,0,0,0,0,-1,1777,1681,0,0
560,-657,0,0,0,0,0,0,0,0,0,-1,1784,1681,0,0
567,-657,0,0,0,0,0,0,0,0,0,-1,1791,1681,0,0
574,-657,0,0,0,0,0,0,0,0,0,-1,1798,1681,0,0
581,-657,0,0,0,0,0,0,0,0,0,-1,1805,1681,0,0
588,-657,0,0,0,0,0,0,0,0,0,-1,1812,1681,0,0
595,-657,0,0,0,0,0,0,0,0,0,-1,1819,1681,0,0
602,-657,0,0,0,0,0,0,0,0,0,-1,1826,1681,0,0
609,-657,0,0,0,0,0,0,0,0,0,-1,1833,1681,0,0
616,-657,0,0,0,0,0,0,0,0,0,-1,1840,1681,0,0
623,-657,0,0,0,0,0,0,0,0,0,-1,1847,1681,0,0
630,-657,0,0,0,0,0,0,0,0,0,-1,1854,1681,0,0
637,-657,0,0,0,0,0,0,0,0,0,-1,1861,1681,0,0
644,-657,0,0,0,0,0,0,0,0,0,-1,1868,1681,0,0
651,-657,0,0,0,0,0,0,0,0,0,-1,1875,1681,0,0
658,-657,0,0,0,0,0,0,0,0,0,-1,1882,1681,0,0
665,-657,0,0,0,0,0,0,0,0,0,-1,1889,1681,0,0
672,-657,0,0,0,0,0,0,0,0,0,-1,1896,1681,0,0
679,-657,0,0,0,0,0,0,0,0,0,-1,1903,1681,0,0
686,-657,0,0,0,0,0,0,0,0,0,-1,1910,1681,0,0
693,-657,0,0,0,0,0,0,0,0,0,-1,1917,1681,0,0
700,-657,0,0,0,0,0,0,0,0,0,-1,1924,1681,0,0
707,-657,0,0,0,0,0,0,0,0,0,-1,1931,1681,0,0
714,-657,0,0,0,0,0,0,0,0,0,-1,1938,1681,0,0
721,-657,0,0,0,0,0,0,0,0,0,-1,1945,1681,0,0
728,-657,0,0,0,0,0,0,0,0,0,-1,1952,1681,0,0
735,-657,0,0,0,0,0,0,0,0,0,-1,1959,1681,0,0
742,-657,0,0,0,0,0,0,0,0,0,-1,1966,1681,0,0
749,-657,0,0,0,0,0,0,0,0,0,-1,1973,1681,0,0
756,-657,0,0,0,0,0,0,0,0,0,-1,1980,1681,0,0
763,-657,0,0,0,0,0,0,0,0,0,-1,1987,1681,0,0
770,-657,0,0,0,0,0,0,0,0,0,-1,1994,1681,0,0
777,-657,0,0,0,0,0,0,0,0,0,-1,2001,1681,0,0
784,-657,0,0,0,0,0,0,0,0,0,-1,2008,1681,0,0
791,-657,0,0,0,0,0,0,0,0,0,-1,2015,1681,0,0
798,-657,0,0,0,0,0,0,0,0,0,-1,2022,1681,0,0
805,-657,0,0,0,0,0,0,0,0,0,-1,2029,1681,0,0
812,-657,0,0,0,0,0,0,0,0,0,-1,2036,1681,0,0
-700,-664,0,0,0,0,0,0,0,0,0,-1,524,1688,0,0
-693,-664,0,0,0,0,0,0,0,0,0,-1,531,1688,0,0
-686,-664,0,0,0,0,0,0,0,0,0,-1,538,1688,0,0
-679,-664,0,0,0,0,0,0,0,0,0,-1,545,1688,0,0
-672,-664,0,0,0,0,0,0,0,0,0,-1,552,1688,0,0
-665,-664,0,0,0,0,0,0,0,0,0,-1,559,1688,0,0
-658,-664,0,0,0,0,0,0,0,0,0,-1,566,1688,0,0
-651,-664,0,0,0,0,0,0,0,0,0,-1,573,1688,0,0
-644,-664,0,0,0,0,0,0,0,0,0,-1,580,1688,0,0
-637,-664,0,0,0,0,0,0,0,0,0,-1,587,1688,0,0
-630,-664,0,0,0,0,0,0,0,0,0,-1,594,1688,0,0
-623,-664,0,0,0,0,0,0,0,0,0,-1,601,1688,0,0
-616,-664,0,0,0,0,0,0,0,0,0,-1,608,1688,0,0
-609,-664,0,0,0,0,0,0,0,0,0,-1,615,1688,0,0
-602,-664,0,0,0,0,0,0,0,0,0,-1,622,1688,0,0
-595,-664,0,0,0,0,0,0,0,0,0,-1,629,1688,0,0
-588,-664,0,0,0,0,0,0,0,0,0,-1,636,1688,0,0
-581,-664,0,0,0,0,0,0,0,0,0,-1,643,1688,0,0
-574,-664,0,0,0,0,0,0,0,0,0,-1,650,1688,0,0
-567,-664,0,0,0,0,0,0,0,0,0,-1,657,1688,0,0
-560,-664,0,0,0,0,0,0,0,0,0,-1,664,1688,0,0
-553,-664,0,0,0,0,0,0,0,0,0,-1,671,1688,0,0
-546,-664,0,0,0,0,0,0,0,0,0,-1,678,1688,0,0
-539,-664,0,0,0,0,0,0,0,0,0,-1,685,1688,0,0
-532,-664,0,0,0,0,0,0,0,0,0,-1,692,1688,0,0
-525,-664,0,0,0,0,0,0,0,0,0,-1,699,1688,0,0
-518,-664,0,0,0,0,0,0,0,0,0,-1,706,1688,0,0
-511,-664,0,0,0,0,0,0,0,0,0,-1,713,1688,0,0
-504,-664,0,0,0,0,0,0,0,0,0,-1,720,1688,0,0
-497,-664,0,0,0,0,0,0,0,0,0,-1,727,1688,0,0
-490,-664,0,0,0,0,0,0,0,0,0,-1,734,1688,0,0
-483,-664,0,0,0,0,0,0,0,0,0,-1,741,1688,0,0
-476,-664,0,0,0,0,0,0,0,0,0,-1,748,1688,0,0
-469,-664,0,0,0,0,0,0,0,0,0,-1,755,1688,0,0
-462,-664,0,0,0,0,0,0,0,0,0,-1,762,1688,0,0
-455,-664,0,0,0,0,0,0,0,0,0,-1,769,1688,0,0
-448,-664,0,0,0,0,0,0,0,0,0,-1,776,1688,0,0
-441,-664,0,0,0,0,0,0,0,0,0,-1,783,1688,0,0
-434,-664,0,0,0,0,0,0,0,0,0,-1,790,1688,0,0
-427,-664,0,0,0,0,0,0,0,0,0,-1,797,1688,0,0
-420,-664,0,0,0,0,0,0,0,0,0,-1,804,1688,0,0
-413,-664,0,0,0,0,0,0,0,0,0,-1,811,1688,0,0
-406,-664,0,0,0,0,0,0,0,0,0,-1,818,1688,0,0
-399,-664,0,0,0,0,0,0,0,0,0,-1,825,1688,0,0
-392,-664,0,0,0,0,0,0,0,0,0,-1,832,1688,0,0
-385,-664,0,0,0,0,0,0,0,0,0,-1,839,1688,0,0
-378,-664,0,0,0,0,0,0,0,0,0,-1,846,1688,0,0
-371,-664,0.350525,-0.379761,0,0,0,0,0,0,0,-1,853,1688,0.350511,0.379759
-364,-664,0.442566,0.0839844,0,0,0,0,0,0,0,-1,860,1688,0.442556,-0.0839993
-357,-664,0.699036,0.651245,0.0193964,-0.00991636,-0.0110979,0.0231241,-0.013644,-0.324049,0.021462,0.0447641,867,1688,0.699031,-0.651269
-350,-664,1.05872,1.17395,0.0166935,-0.00503688,-0.0105004,0.0209382,-0.00928164,-0.384163,0.0178749,0.0473966,874,1688,1.05874,-1.17401
-343,-664,1.53772,1.01379,0,0,0,0,0,0,0,-1,881,1688,1.53774,-1.01374
-336,-664,1.82922,1.35315,0.00734739,0.00111122,-0.00669704,0.0116166,-0.00315804,-0.567526,0.00898407,0.0478924,888,1688,1.82923,-1.35317
-329,-664,2.02557,1.76648,0.00192346,0.00146551,-0.00428432,0.00598492,-0.00259595,-0.758701,0.00508133,0.0464711,895,1688,2.02555,-1.7665
-322,-664,2.24524,2.2146,-0.00306296,0.000305901,-0.00122328,0.000703227,-0.00346029,-1.25674,0.0025735,0.0469162,902,1688,2.24523,-2.21459
-315,-664,2.17871,2.36279,-0.00728586,-0.000942689,0.00181575,-0.000459702,-0.00776885,1.31082,0.005033,0.0429147,909,1688,2.1787,-2.36283
-308,-664,1.61285,2.44653,-0.0102496,-0.00257406,0.00400808,-0.000862667,-0.011961,1.16725,0.00770257,0.0437779,916,1688,1.61285,-2.44649
-301,-664,1.21234,2.80078,0,0,0,0,0,0,0,-1,923,1688,1.21233,-2.80077
-294,-664,1.36871,2.77087,-0.012309,-0.00501065,0.00733238,-0.000469564,-0.0168501,1.01629,0.0110802,0.03814,930,1688,1.36871,-2.77087
-287,-664,1.86603,2.51257,-0.0122723,-0.00672712,0.00766356,-0.00135003,-0.0176494,0.958968,0.0113431,0.0264858,937,1688,1.86603,-2.51256
-280,-664,1.83362,2.51416,-0.0114026,-0.00679972,0.00794863,-0.000826073,-0.0173763,0.926315,0.0113189,0.0161443,944,1688,1.83359,-2.51422
-273,-664,1.86182,2.51538,-0.00901256,-0.00602881,0.00693439,-0.000427632,-0.0146137,0.891354,0.00960312,0.0134128,951,1688,1.86183,-2.51542
-266,-664,1.88177,2.55481,-0.00661225,-0.00525325,0.00606798,0.000173152,-0.0120387,0.841157,0.00808411,0.020697,958,1688,1.88179,-2.55481
-259,-664,1.84967,2.58057,-0.00422636,-0.00433234,0.00489422,0.000615156,-0.00917386,0.779985,0.00633093,0.0177384,965,1688,1.84966,-2.58059
-252,-664,1.87885,2.58264,-0.00189989,-0.00290523,0.00372953,0.00136069,-0.00616581,0.718412,0.00463122,0.0156491,972,1688,1.87886,-2.58261
-245,-664,1.84277,2.65845,-0.000706197,-0.0012715,0.00263238,0.00165866,-0.00363636,0.731915,0.00312735,0.0193693,979,1688,1.84279,-2.65848
-238,-664,1.8703,2.69299,-0.000748872,0.000376649,0.00188399,0.00178013,-0.00215236,0.930533,0.00227381,0.0227654,986,1688,1.8703,-2.69303
-231,-664,1.89331,2.74561,-0.00084408,0.00119915,0.00132806,0.00185308,-0.001498,1.11325,0.00193836,0.0199453,993,1688,1.89334,-2.74557
-224,-664,1.90802,2.7876,-0.000729189,0.00206641,0.000806596,0.00228244,-0.000945217,1.30911,0.00191606,0.0135098,1000,1688,1.90805,-2.78761
-217,-664,1.90216,2.77527,-0.000835396,0.00271077,0.000306635,0.00273709,-0.000861715,1.48517,0.00216977,0.0102198,1007,1688,1.90213,-2.7753
-210,-664,1.8844,2.79578,-0.000847076,0.00239973,-0.00016788,0.00240839,-0.000855734,-1.51927,0.00195432,0.010781,1014,1688,1.8844,-2.79574
-203,-664,1.87042,2.81934,-0.000723113,0.00219197,-0.000208514,0.00220681,-0.000737952,-1.49975,0.00176926,0.0129704,1021,1688,1.87041,-2.8193
-196,-664,1.87561,2.83484,-0.000584877,0.00209287,-0.000201292,0.00210792,-0.000599924,-1.49618,0.0016422,0.0140134,1028,1688,1.87567,-2.83485
-189,-664,1.87769,2.87341,-0.0003557,0.00230585,-2.46585e-05,0.00230608,-0.000355929,-1.56153,0.00166873,0.00989859,1035,1688,1.87766,-2.87338
-182,-664,1.87195,2.89978,0.000421699,0.00255325,0.000123667,0.0025604,0.000414548,1.51304,0.0015869,0.00937833,1042,1688,1.87198,-2.8998
-175,-664,1.8855,2.89404,0.00161567,0.00280651,0.000453186,0.00295936,0.00146282,1.24551,0.00170862,0.0120982,1049,1688,1.88549,-2.89403
-168,-664,1.89905,2.90356,0.00261403,0.00308288,0.00123616,0.00410665,0.00159026,0.879104,0.00239099,0.0130959,1056,1688,1.89907,-2.90358
-161,-664,1.88672,2.92944,0.00312187,0.00366916,0.00193078,0.0053456,0.00144544,0.855792,0.00319291,0.00941407,1063,1688,1.88667,-2.92946
-154,-664,1.88501,2.96997,0.00334564,0.00440089,0.00286615,0.00678758,0.000958953,0.876423,0.00424169,0.00880906,1070,1688,1.88497,-2.96998
-147,-664,1.86792,2.98645,0.00354805,0.0049008,0.00361413,0.0079013,0.00054755,0.877901,0.00509484,0.0101086,1077,1688,1.86796,-2.98646
-140,-664,1.88879,3.00391,0.00373864,0.00536557,0.00430844,0.00893666,0.000167547,0.878703,0.00590272,0.0106831,1084,1688,1.88884,-3.00396
-133,-664,1.91052,3.03967,0.00415628,0.00563653,0.00528972,0.0102377,-0.000444833,0.854906,0.00697811,0.0109654,1091,1688,1.91053,-3.0397
-126,-664,1.9375,3.073,0.00421365,0.00558382,0.00665241,0.0115863,-0.00178886,0.836709,0.00838436,0.0181884,1098,1688,1.93754,-3.07297
-119,-664,1.9718,3.06018,0.00404941,0.00483599,0.00758134,0.0120342,-0.00314883,0.811313,0.00925279,0.0346041,1105,1688,1.97184,-3.06013
-112,-664,2.08557,3.00891,0.00291177,0.00292127,0.00827275,0.0111893,-0.00535623,0.785685,0.00974842,0.0416085,1112,1688,2.08557,-3.00891
-105,-664,1.96021,3.14014,0.000634046,0.000283829,0.00805961,0.00852045,-0.00760258,0.774537,0.00931366,0.0432948,1119,1688,1.96016,-3.14015
-98,-664,1.79456,3.20776,-0.00135769,-0.00271667,0.00659027,0.00458803,-0.00866238,0.734027,0.00776975,0.042,1126,1688,1.79455,-3.20781
-91,-664,1.6958,3.13074,-0.00314272,-0.00640671,0.00397563,-0.000477151,-0.00907228,0.590636,0.00589558,0.0426774,1133,1688,1.69585,-3.13078
-84,-664,1.97778,3.02185,-0.00471149,-0.0103995,0.000538098,-0.00466103,-0.0104499,0.0934971,0.00604498,0.0456024,1140,1688,1.9778,-3.02191
-77,-664,2.24988,2.20972,0,0,0,0,0,0,0,-1,1147,1688,2.24993,-2.2097
-70,-664,2.28613,2.48511,0,0,0,0,0,0,0,-1,1154,1688,2.2861,-2.48506
-63,-664,1.96411,2.10144,-0.00891655,-0.0168665,-0.0111498,-0.00105434,-0.0247288,-0.614168,0.0161459,0.0445073,1161,1688,1.96409,-2.10149
-56,-664,0.989502,2.74976,-0.00883364,-0.0183517,-0.0149022,0.00205102,-0.0292364,-0.630841,0.0202093,0.0447712,1168,1688,0.98947,-2.74976
-49,-664,0.336304,3.5354,0,0,0,0,0,0,0,-1,1175,1688,0.336316,-3.53534
-42,-664,-0.222778,0.85144,-0.0115552,-0.0107026,-0.0165368,0.00541341,-0.0276712,-0.798285,0.0204917,0.0484527,1182,1688,-0.222836,-0.851485
-35,-664,-0.264526,0.109009,-0.0126431,-0.00397579,-0.0159893,0.0082567,-0.0248756,-0.917736,0.0199149,0.0489991,1189,1688,-0.264556,-0.10899
-28,-664,-0.102173,-0.544556,0,0,0,0,0,0,0,-1,1196,1688,-0.102206,0.544608
-21,-664,6.27795,3.02832,0,0,0,0,0,0,0,-1,1203,1688,6.278,-3.02829
-14,-664,5.43152,3.37317,0,0,0,0,0,0,0,-1,1210,1688,5.43151,-3.37316
-7,-664,4.23315,4.05176,0,0,0,0,0,0,0,-1,1217,1688,4.2332,-4.05179
0,-664,3.44519,4.0033,-0.0256807,0.0393019,-0.00609859,0.0398693,-0.0262481,-1.47803,0.038442,0.0455124,1224,1688,3.4452,-4.00332
7,-664,2.40906,4.19202,-0.0297812,0.046964,-0.00351796,0.0471249,-0.0299421,-1.52508,0.0448618,0.0451246,1231,1688,2.40903,-4.19205
14,-664,3.47229,3.50024,-0.0345864,0.0548165,-0.00167939,0.054848,-0.0346179,-1.55202,0.0520915,0.0434704,1238,1688,3.47229,-3.50023
21,-664,3.03235,3.37415,-0.0384463,0.0608427,-0.00132689,0.0608604,-0.038464,-1.55744,0.0578289,0.0449456,1245,1688,3.03232,-3.37418
28,-664,2.56653,3.68848,-0.0411988,0.0639592,-0.00312826,0.0640522,-0.0412918,-1.54108,0.0612918,0.0440732,1252,1688,2.5665,-3.68847
35,-664,2.03296,3.80859,-0.0402277,0.0645464,-0.00711565,0.0650274,-0.0407088,-1.5033,0.0615827,0.0438176,1259,1688,2.03299,-3.80864
42,-664,1.86987,3.84399,-0.0368326,0.0626217,-0.0108768,0.0637974,-0.0380083,-1.46313,0.0594028,0.0439337,1266,1688,1.86988,-3.84396
49,-664,-1.09119,0.688599,-0.0285902,0.059308,-0.0150405,0.0618103,-0.0310926,-1.40593,0.0546061,0.0412927,1273,1688,-1.09115,-0.688643
56,-664,-1.16614,1.54175,-0.01971,0.0548287,-0.019132,0.0594525,-0.0243338,-1.33366,0.0497703,0.046302,1280,1688,-1.16617,-1.54178
63,-664,-1.20947,2.30054,0,0,0,0,0,0,0,-1,1287,1688,-1.20951,-2.30053
70,-664,-0.968872,2.48694,0.0197111,0.0475627,-0.0162049,0.0550034,0.0122704,-1.14035,0.0333402,0.0483697,1294,1688,-0.968852,-2.48695
77,-664,0.622314,2.03906,0,0,0,0,0,0,0,-1,1301,1688,0.622287,-2.03912
84,-664,0.807495,2.36426,0.0710156,0.0341904,-0.0122555,0.0747214,0.0304846,-0.293632,0.0433833,0.0428539,1308,1688,0.80755,-2.36423
91,-664,1.23096,2.59583,0.0965831,0.0264729,-0.00785246,0.0974518,0.0256042,-0.110183,0.0583372,0.0423069,1315,1688,1.23097,-2.59587
98,-664,1.69897,2.85669,0,0,0,0,0,0,0,-1,1322,1688,1.699,-2.85671
105,-664,3.8988,2.5022,0.14684,0.00981516,0.00570899,0.147078,0.00957773,0.0415678,0.0950202,0.0483316,1329,1688,3.89882,-2.50225
112,-664,4.17041,2.15991,0.160982,0.00395214,0.0109237,0.161739,0.00319589,0.0691205,0.106776,0.0448231,1336,1688,4.17044,-2.15996
119,-664,4.25537,2.16528,0,0,0,0,0,0,0,-1,1343,1688,4.25539,-2.16526
126,-664,6.06091,1.57056,0,0,0,0,0,0,0,-1,1350,1688,6.06087,-1.57062
133,-664,-0.75293,8.38806,0,0,0,0,0,0,0,-1,1357,1688,-0.752879,-8.388
140,-664,6.81543,0.810669,0,0,0,0,0,0,0,-1,1364,1688,6.8154,-0.810663
147,-664,5.9519,5.47351,0,0,0,0,0,0,0,-1,1371,1688,5.95188,-5.47348
154,-664,5.93079,5.30103,0,0,0,0,0,0,0,-1,1378,1688,5.93075,-5.30104
161,-664,5.59009,5.11584,0,0,0,0,0,0,0,-1,1385,1688,5.59008,-5.11583
168,-664,4.67175,4.58606,0,0,0,0,0,0,0,-1,1392,1688,4.67179,-4.58604
175,-664,5.32825,10.9459,0,0,0,0,0,0,0,-1,1399,1688,5.32828,-10.946
182,-664,4.95789,9.60962,0.0129098,-0.00611422,-0.0157485,0.021796,-0.0150004,-0.513723,0.0213648,0.0480278,1406,1688,4.9579,-9.60967
189,-664,4.64929,8.13049,0.00995315,-0.000589624,-0.0170166,0.0224961,-0.0131326,-0.635196,0.0208057,0.0419721,1413,1688,4.64929,-8.13043
196,-664,4.20691,6.70801,0.00804589,0.00381611,-0.0174195,0.0234784,-0.0116164,-0.724989,0.0206442,0.0441718,1420,1688,4.20694,-6.70795
203,-664,3.28638,5.19897,0,0,0,0,0,0,0,-1,1427,1688,3.28636,-5.19893
210,-664,3.172,4.2793,0.00852847,0.00662237,-0.0134652,0.0210743,-0.00592343,-0.750068,0.0163849,0.0412111,1434,1688,3.17202,-4.27931
217,-664,2.95007,3.33643,0.00932171,0.00680402,-0.0105763,0.0187138,-0.00258804,-0.726164,0.013422,0.0412459,1441,1688,2.95003,-3.33637
224,-664,2.77161,3.22986,0,0,0,0,0,0,0,-1,1448,1688,2.77162,-3.22984
231,-664,2.73914,3.32874,0,0,0,0,0,0,0,-1,1455,1688,2.73913,-3.32875
238,-664,2.60754,3.2915,0,0,0,0,0,0,0,-1,1462,1688,2.60758,-3.29148
245,-664,2.4281,3.23938,0,0,0,0,0,0,0,-1,1469,1688,2.42807,-3.23937
252,-664,2.40808,3.25,0,0,0,0,0,0,0,-1,1476,1688,2.40805,-3.25005
259,-664,2.3728,3.22302,0.00519548,-0.00563125,-0.00115932,0.00531823,-0.00575399,-0.105486,0.0063942,0.0440058,1483,1688,2.37276,-3.223
266,-664,2.34204,3.16956,0.00351162,-0.00807056,-0.000662433,0.00354938,-0.00810832,-0.0569467,0.0069,0.0330915,1490,1688,2.34199,-3.16958
273,-664,2.27393,3.11438,0.00221296,-0.00953687,-0.000331954,0.00222233,-0.00954624,-0.0282218,0.00721986,0.028471,1497,1688,2.27391,-3.11444
280,-664,2.22949,3.03381,0.000979894,-0.0112049,0.000379993,0.000991733,-0.0112167,0.0311455,0.00782938,0.0202773,1504,1688,2.22943,-3.03386
287,-664,2.24414,2.96362,0.000157493,-0.0114108,0.00104456,0.000251054,-0.0115044,0.0893323,0.00775462,0.0186241,1511,1688,2.24416,-2.96364
294,-664,2.25403,2.9342,0.000188119,-0.00995379,0.00157157,0.000426063,-0.0101917,0.150264,0.00694087,0.0130097,1518,1688,2.25401,-2.93414
301,-664,2.25256,2.91406,0.000152613,-0.00834297,0.00205609,0.000624062,-0.00881442,0.225398,0.00609496,0.00943064,1525,1688,2.25255,-2.91405
308,-664,2.25659,2.88818,0.000153249,-0.00662189,0.00207432,0.000737887,-0.00720652,0.274719,0.00506825,0.0099635,1532,1688,2.25665,-2.88813
315,-664,2.27258,2.8656,0.000290673,-0.00507265,0.00190886,0.000900676,-0.00568265,0.309308,0.00412159,0.0104675,1539,1688,2.27262,-2.86561
322,-664,2.27356,2.85095,0.000466729,-0.00369877,0.00155494,0.000983148,-0.00421519,0.320654,0.00318877,0.0132572,1546,1688,2.2735,-2.85099
329,-664,2.25232,2.85291,0.000876693,-0.00221334,0.00115092,0.00125825,-0.0025949,0.320122,0.0022688,0.0155803,1553,1688,2.25233,-2.85292
336,-664,2.25964,2.8269,0.00108606,-0.00116011,0.000709088,0.00129118,-0.00136522,0.281586,0.00153387,0.0133164,1560,1688,2.25961,-2.82688
343,-664,2.2467,2.79675,0.00160303,-0.000637988,8.07708e-05,0.00160594,-0.000640895,0.0359798,0.0013365,0.0105313,1567,1688,2.24666,-2.79671
350,-664,2.22986,2.75415,0.0023509,-0.00058831,-0.000643518,0.00248562,-0.000723029,-0.206367,0.00194345,0.0126524,1574,1688,2.22984,-2.75409
357,-664,2.22717,2.729,0.00326681,-0.000733476,-0.00136817,0.00368999,-0.00115665,-0.299966,0.00292285,0.0122938,1581,1688,2.22716,-2.72899
364,-664,2.24109,2.68872,0.00487452,-0.00128456,-0.00238956,0.00569287,-0.00210291,-0.32995,0.00465726,0.010489,1588,1688,2.24106,-2.68869
371,-664,2.25232,2.67383,0.00678867,-0.00200166,-0.00354915,0.00804275,-0.00325573,-0.339652,0.00671551,0.0137455,1595,1688,2.25236,-2.67388
378,-664,2.24451,2.65991,0.00862283,-0.00296514,-0.00464684,0.0102561,-0.00459836,-0.337983,0.0087811,0.0132978,1602,1688,2.24457,-2.65993
385,-664,2.24219,2.63257,0.0103633,-0.00422476,-0.0059266,0.0124676,-0.006329,-0.341166,0.0110434,0.0137444,1609,1688,2.24214,-2.63253
392,-664,2.22083,2.62793,0.0124309,-0.00474081,-0.00780159,0.015446,-0.00775589,-0.368788,0.0136387,0.0160905,1616,1688,2.22078,-2.62789
399,-664,2.25171,2.59668,0.0137436,-0.00557477,-0.00931705,0.0175048,-0.00933599,-0.383685,0.015734,0.0132311,1623,1688,2.25177,-2.59673
406,-664,2.27966,2.56348,0.0151527,-0.00625484,-0.0110559,0.0198374,-0.0109395,-0.400789,0.0180148,0.0115933,1630,1688,2.2797,-2.56353
413,-664,2.28479,2.52722,0.0154739,-0.00694653,-0.0123609,0.0209508,-0.0124234,-0.417088,0.0194772,0.010249,1637,1688,2.28479,-2.52724
420,-664,2.26587,2.48853,0.0146495,-0.00770616,-0.0126532,0.020355,-0.0134117,-0.423616,0.0196321,0.0213599,1644,1688,2.26589,-2.48852
427,-664,2.22522,2.4093,0.0131026,-0.00935539,-0.012617,0.0187638,-0.0150166,-0.421769,0.0195431,0.0392234,1651,1688,2.22522,-2.40925
434,-664,2.33325,2.33789,0.0105316,-0.00844771,-0.0127449,0.0169318,-0.0148479,-0.465386,0.0183612,0.0412067,1658,1688,2.33321,-2.3379
441,-664,2.43677,2.21802,0.00770795,-0.00685541,-0.0130957,0.0154103,-0.0145578,-0.531666,0.0173044,0.044077,1665,1688,2.43674,-2.21807
448,-664,1.92749,2.21912,0,0,0,0,0,0,0,-1,1672,1688,1.92748,-2.21914
455,-664,1.64612,1.79846,0,0,0,0,0,0,0,-1,1679,1688,1.64616,-1.79845
462,-664,2.31116,2.02002,0,0,0,0,0,0,0,-1,1686,1688,2.31115,-2.02
469,-664,2.54541,1.96619,-0.00486417,0.00035375,-0.0122279,0.010248,-0.0147584,-0.890503,0.0145155,0.0409367,1693,1688,2.54539,-1.96621
476,-664,2.46838,2.75586,-0.00660521,0.00430805,-0.0135865,0.0134927,-0.0157899,-0.97635,0.0169236,0.0393854,1700,1688,2.46832,-2.75591
483,-664,2.52344,2.4187,-0.0048924,0.0108421,-0.0179176,0.0225435,-0.0165938,-0.992266,0.0226828,0.0454431,1707,1688,2.52345,-2.41869
490,-664,2.63684,2.2196,-0.000797998,0.019711,-0.0243862,0.035911,-0.016998,-0.984427,0.0311908,0.0488158,1714,1688,2.6368,-2.21965
497,-664,0,0,0,0,0,0,0,0,0,-1,1721,1688,0,0
504,-664,0,0,0,0,0,0,0,0,0,-1,1728,1688,0,0
511,-664,0,0,0,0,0,0,0,0,0,-1,1735,1688,0,0
518,-664,0,0,0,0,0,0,0,0,0,-1,1742,1688,0,0
525,-664,0,0,0,0,0,0,0,0,0,-1,1749,1688,0,0
532,-664,0,0,0,0,0,0,0,0,0,-1,1756,1688,0,0
539,-664,0,0,0,0,0,0,0,0,0,-1,1763,1688,0,0
546,-664,0,0,0,0,0,0,0,0,0,-1,1770,1688,0,0
553,-664,0,0,0,0,0,0,0,0,0,-1,1777,1688,0,0
560,-664,0,0,0,0,0,0,0,0,0,-1,1784,1688,0,0
567,-664,0,0,0,0,0,0,0,0,0,-1,1791,1688,0,0
574,-664,0,0,0,0,0,0,0,0,0,-1,1798,1688,0,0
581,-664,0,0,0,0,0,0,0,0,0,-1,1805,1688,0,0
588,-664,0,0,0,0,0,0,0,0,0,-1,1812,1688,0,0
595,-664,0,0,0,0,0,0,0,0,0,-1,1819,1688,0,0
602,-664,0,0,0,0,0,0,0,0,0,-1,1826,1688,0,0
609,-664,0,0,0,0,0,0,0,0,0,-1,1833,1688,0,0
616,-664,0,0,0,0,0,0,0,0,0,-1,1840,1688,0,0
623,-664,0,0,0,0,0,0,0,0,0,-1,1847,1688,0,0
630,-664,0,0,0,0,0,0,0,0,0,-1,1854,1688,0,0
637,-664,0,0,0,0,0,0,0,0,0,-1,1861,1688,0,0
644,-664,0,0,0,0,0,0,0,0,0,-1,1868,1688,0,0
651,-664,0,0,0,0,0,0,0,0,0,-1,1875,1688,0,0
658,-664,0,0,0,0,0,0,0,0,0,-1,1882,1688,0,0
665,-664,0,0,0,0,0,0,0,0,0,-1,1889,1688,0,0
672,-664,0,0,0,0,0,0,0,0,0,-1,1896,1688,0,0
679,-664,0,0,0,0,0,0,0,0,0,-1,1903,1688,0,0
686,-664,0,0,0,0,0,0,0,0,0,-1,1910,1688,0,0
693,-664,0,0,0,0,0,0,0,0,0,-1,1917,1688,0,0
700,-664,0,0,0,0,0,0,0,0,0,-1,1924,1688,0,0
707,-664,0,0,0,0,0,0,0,0,0,-1,1931,1688,0,0
714,-664,0,0,0,0,0,0,0,0,0,-1,1938,1688,0,0
721,-664,0,0,0,0,0,0,0,0,0,-1,1945,1688,0,0
728,-664,0,0,0,0,0,0,0,0,0,-1,1952,1688,0,0
735,-664,0,0,0,0,0,0,0,0,0,-1,1959,1688,0,0
742,-664,0,0,0,0,0,0,0,0,0,-1,1966,1688,0,0
749,-664,0,0,0,0,0,0,0,0,0,-1,1973,1688,0,0
756,-664,0,0,0,0,0,0,0,0,0,-1,1980,1688,0,0
763,-664,0,0,0,0,0,0,0,0,0,-1,1987,1688,0,0
770,-664,0,0,0,0,0,0,0,0,0,-1,1994,1688,0,0
777,-664,0,0,0,0,0,0,0,0,0,-1,2001,1688,0,0
784,-664,0,0,0,0,0,0,0,0,0,-1,2008,1688,0,0
791,-664,0,0,0,0,0,0,0,0,0,-1,2015,1688,0,0
798,-664,0,0,0,0,0,0,0,0,0,-1,2022,1688,0,0
805,-664,0,0,0,0,0,0,0,0,0,-1,2029,1688,0,0
812,-664,0,0,0,0,0,0,0,0,0,-1,2036,1688,0,0
-700,-671,0,0,0,0,0,0,0,0,0,-1,524,1695,0,0
-693,-671,0,0,0,0,0,0,0,0,0,-1,531,1695,0,0
-686,-671,0,0,0,0,0,0,0,0,0,-1,538,1695,0,0
-679,-671,0,0,0,0,0,0,0,0,0,-1,545,1695,0,0
-672,-671,0,0,0,0,0,0,0,0,0,-1,552,1695,0,0
-665,-671,0,0,0,0,0,0,0,0,0,-1,559,1695,0,0
-658,-671,0,0,0,0,0,0,0,0,0,-1,566,1695,0,0
-651,-671,0,0,0,0,0,0,0,0,0,-1,573,1695,0,0
-644,-671,0,0,0,0,0,0,0,0,0,-1,580,1695,0,0
-637,-671,0,0,0,0,0,0,0,0,0,-1,587,1695,0,0
-630,-671,0,0,0,0,0,0,0,0,0,-1,594,1695,0,0
-623,-671,0,0,0,0,0,0,0,0,0,-1,601,1695,0,0
-616,-671,0,0,0,0,0,0,0,0,0,-1,608,1695,0,0
-609,-671,0,0,0,0,0,0,0,0,0,-1,615,1695,0,0
-602,-671,0,0,0,0,0,0,0,0,0,-1,622,1695,0,0
-595,-671,0,0,0,0,0,0,0,0,0,-1,629,1695,0,0
-588,-671,0,0,0,0,0,0,0,0,0,-1,636,1695,0,0
-581,-671,0,0,0,0,0,0,0,0,0,-1,643,1695,0,0
-574,-671,0,0,0,0,0,0,0,0,0,-1,650,1695,0,0
-567,-671,0,0,0,0,0,0,0,0,0,-1,657,1695,0,0
-560,-671,0,0,0,0,0,0,0,0,0,-1,664,1695,0,0
-553,-671,0,0,0,0,0,0,0,0,0,-1,671,1695,0,0
-546,-671,0,0,0,0,0,0,0,0,0,-1,678,1695,0,0
-539,-671,0,0,0,0,0,0,0,0,0,-1,685,1695,0,0
-532,-671,0,0,0,0,0,0,0,0,0,-1,692,1695,0,0
-525,-671,0,0,0,0,0,0,0,0,0,-1,699,1695,0,0
-518,-671,0,0,0,0,0,0,0,0,0,-1,706,1695,0,0
-511,-671,0,0,0,0,0,0,0,0,0,-1,713,1695,0,0
-504,-671,0,0,0,0,0,0,0,0,0,-1,720,1695,0,0
-497,-671,0,0,0,0,0,0,0,0,0,-1,727,1695,0,0
-490,-671,0,0,0,0,0,0,0,0,0,-1,734,1695,0,0
-483,-671,0,0,0,0,0,0,0,0,0,-1,741,1695,0,0
-476,-671,0,0,0,0,0,0,0,0,0,-1,748,1695,0,0
-469,-671,0,0,0,0,0,0,0,0,0,-1,755,1695,0,0
-462,-671,0,0,0,0,0,0,0,0,0,-1,762,1695,0,0
-455,-671,0,0,0,0,0,0,0,0,0,-1,769,1695,0,0
-448,-671,0,0,0,0,0,0,0,0,0,-1,776,1695,0,0
-441,-671,0,0,0,0,0,0,0,0,0,-1,783,1695,0,0
-434,-671,0,0,0,0,0,0,0,0,0,-1,790,1695,0,0
-427,-671,0,0,0,0,0,0,0,0,0,-1,797,1695,0,0
-420,-671,0,0,0,0,0,0,0,0,0,-1,804,1695,0,0
-413,-671,0,0,0,0,0,0,0,0,0,-1,811,1695,0,0
-406,-671,0,0,0,0,0,0,0,0,0,-1,818,1695,0,0
-399,-671,0,0,0,0,0,0,0,0,0,-1,825,1695,0,0
-392,-671,0,0,0,0,0,0,0,0,0,-1,832,1695,0,0
-385,-671,0,0,0,0,0,0,0,0,0,-1,839,1695,0,0
-378,-671,0,0,0,0,0,0,0,0,0,-1,846,1695,0,0
-371,-671,0,0,0,0,0,0,0,0,0,-1,853,1695,0,0
-364,-671,1.56183,1.14575,0,0,0,0,0,0,0,-1,860,1695,1.56184,-1.14569
-357,-671,1.78809,1.61096,0.0257262,-0.011713,-0.0192309,0.0338441,-0.0198309,-0.399435,0.0313393,0.0448867,867,1695,1.78812,-1.61091
-350,-671,0.917725,0.615479,0.020944,-0.00561135,-0.016187,0.0286023,-0.0132696,-0.441909,0.0247091,0.046164,874,1695,0.917755,-0.615453
-343,-671,1.6853,0.971069,0.0142233,-0.0006698,-0.0124163,0.0212549,-0.00770138,-0.515285,0.0173176,0.0475557,881,1695,1.68529,-0.97109
-336,-671,2.41266,1.2251,0.00652207,0.0024166,-0.00827197,0.0129922,-0.00405353,-0.663777,0.0102825,0.0442815,888,1695,2.41266,-1.22507
-329,-671,2.61011,1.91895,0,0,0,0,0,0,0,-1,895,1695,2.61011,-1.91897
-322,-671,2.5882,2.19739,-0.00747759,0.000551718,-0.000170812,0.00055535,-0.00748122,-1.54954,0.00518253,0.047277,902,1695,2.58819,-2.19744
-315,-671,2.17682,2.36121,-0.012518,-0.00169229,0.00360553,-0.000601393,-0.0136089,1.27699,0.00887896,0.0461692,909,1695,2.17683,-2.36125
-308,-671,1.61456,2.63416,-0.0157966,-0.00421445,0.00620525,-0.00151778,-0.0184933,1.16084,0.0118554,0.0446998,916,1695,1.61456,-2.63419
-301,-671,1.06158,2.90112,-0.0167433,-0.00591256,0.00863945,-0.00113153,-0.0215243,1.06535,0.0139876,0.044632,923,1695,1.06157,-2.90116
-294,-671,1.93842,2.56128,0,0,0,0,0,0,0,-1,930,1695,1.93841,-2.5613
-287,-671,1.92377,2.54858,-0.0166162,-0.0094013,0.0105936,-0.00181778,-0.0241997,0.949506,0.0155627,0.0471325,937,1695,1.92375,-2.54861
-280,-671,1.93134,2.53149,-0.0151157,-0.00920058,0.0110921,-0.000678533,-0.0236377,0.915685,0.0155372,0.0371615,944,1695,1.93135,-2.53149
-273,-671,1.8927,2.52283,-0.0118921,-0.00783448,0.0100597,0.000398926,-0.0201255,0.884902,0.0135519,0.0323493,951,1695,1.89268,-2.52284
-266,-671,1.91223,2.55298,-0.00881193,-0.00634964,0.0092497,0.00175049,-0.0169121,0.85156,0.0119012,0.0253318,958,1695,1.91223,-2.553
-259,-671,1.89453,2.55151,-0.0059389,-0.00474039,0.00802567,0.00270837,-0.0133877,0.822663,0.00995151,0.0220573,965,1695,1.89452,-2.55151
-252,-671,1.88959,2.58313,-0.00309936,-0.00248405,0.00677602,0.0039913,-0.0095747,0.808084,0.00805042,0.0163863,972,1695,1.88959,-2.58316
-245,-671,1.87714,2.62781,-0.00158396,0.000100793,0.0055129,0.00483531,-0.00631848,0.861212,0.00645859,0.0184818,979,1695,1.87717,-2.62781
-238,-671,1.89795,2.68933,-0.00161376,0.00249425,0.00452896,0.00541321,-0.00453272,0.998289,0.00574978,0.0191827,986,1695,1.89796,-2.68933
-231,-671,1.91479,2.74402,-0.00177916,0.00373301,0.00359936,0.0055103,-0.00355644,1.11214,0.00527505,0.0160279,993,1695,1.9148,-2.74403
-224,-671,1.91016,2.76086,-0.00167507,0.00487226,0.00269162,0.00583672,-0.00263953,1.22673,0.00500847,0.0119637,1000,1695,1.91016,-2.76088
-217,-671,1.92206,2.76013,-0.0017835,0.00561332,0.00176443,0.00601265,-0.00218283,1.34822,0.00490085,0.011156,1007,1695,1.92209,-2.7601
-210,-671,1.90942,2.76843,-0.00172194,0.00489323,0.00079682,0.00498785,-0.00181657,1.4526,0.00406827,0.0106341,1014,1695,1.90943,-2.76846
-203,-671,1.88336,2.77319,-0.00153967,0.00404914,0.000381813,0.0040751,-0.00156563,1.5029,0.00336239,0.0168477,1021,1695,1.88339,-2.77325
-196,-671,1.89441,2.82434,-0.00128232,0.00330082,1.3336e-05,0.00330086,-0.00128236,1.56789,0.00273032,0.0145079,1028,1695,1.89446,-2.82438
-189,-671,1.92114,2.89795,-0.000925955,0.00280656,-6.25875e-05,0.00280761,-0.000927005,-1.55403,0.00224546,0.011723,1035,1695,1.92111,-2.89801
-182,-671,1.88452,2.90283,-0.00012542,0.00226169,-0.000253471,0.00228831,-0.000152037,-1.46617,0.00157866,0.00952039,1042,1695,1.88454,-2.90282
-175,-671,1.89404,2.90234,0.00103631,0.00201613,-0.00013024,0.00203315,0.0010193,-1.44088,0.00117384,0.0118798,1049,1695,1.89407,-2.90236
-168,-671,1.90649,2.91052,0.0020099,0.00192286,0.000529385,0.00249755,0.00143521,0.744384,0.00144731,0.0135227,1056,1695,1.90655,-2.91054
-161,-671,1.90308,2.95227,0.00252657,0.00215923,0.001103,0.00346108,0.00122471,0.702896,0.00202651,0.00914866,1063,1695,1.90307,-2.95227
-154,-671,1.89465,2.96936,0.00281374,0.00258778,0.00186986,0.00457403,0.000827488,0.755224,0.00281437,0.0079349,1070,1695,1.89466,-2.96938
-147,-671,1.89209,2.98792,0.00303049,0.00287834,0.00246956,0.00542514,0.000483681,0.77,0.0034668,0.00946811,1077,1695,1.89214,-2.98791
-140,-671,1.91907,3.02161,0.00322251,0.00314605,0.00296577,0.0061503,0.000218266,0.778953,0.00402942,0.0106534,1084,1695,1.91907,-3.02163
-133,-671,1.92371,3.04749,0.00359175,0.00330984,0.00369969,0.00715316,-0.000251577,0.766358,0.00485481,0.0109546,1091,1695,1.92368,-3.04753
-126,-671,1.93274,3.05322,0.00364473,0.00321763,0.0047496,0.00818558,-0.00132322,0.762932,0.00594739,0.0125012,1098,1695,1.93278,-3.05328
-119,-671,1.96118,3.04919,0.00350906,0.00267577,0.00547275,0.008581,-0.00239617,0.747406,0.00666456,0.0233921,1105,1695,1.96113,-3.04924
-112,-671,1.97595,3.05652,0.00246076,0.00122849,0.00605921,0.00793508,-0.00424583,0.73473,0.00713936,0.0295064,1112,1695,1.97589,-3.05647
-105,-671,2.03748,3.07532,0.000382658,-0.000705121,0.0060345,0.00589773,-0.00622019,0.740455,0.00699711,0.0305126,1119,1695,2.03752,-3.07536
-98,-671,1.93176,3.12415,-0.00140234,-0.00288482,0.00504408,0.00295467,-0.00724183,0.712444,0.00605792,0.0283315,1126,1695,1.93179,-3.12409
-91,-671,1.8717,3.1095,-0.0030931,-0.00565874,0.0031546,-0.000970467,-0.00778137,0.592285,0.00489626,0.0315179,1133,1695,1.87168,-3.10944
-84,-671,2.07251,2.96777,-0.00467382,-0.00879261,0.000483158,-0.0046179,-0.00884853,0.115222,0.00511033,0.0401995,1140,1695,2.07246,-2.96774
-77,-671,2.17639,2.71484,-0.00609328,-0.0107057,-0.00274401,-0.00481505,-0.011984,-0.435934,0.00696328,0.0441082,1147,1695,2.17645,-2.71483
-70,-671,2.15967,2.85059,-0.00734217,-0.0126387,-0.00603194,-0.00340274,-0.0165781,-0.578548,0.0101105,0.0434726,1154,1695,2.15972,-2.85053
-63,-671,2.12524,2.81006,-0.0084396,-0.0137429,-0.00912891,-0.00158503,-0.0205975,-0.644054,0.013235,0.0436307,1161,1695,2.12524,-2.81009
-56,-671,1.28577,3.11487,-0.00831327,-0.0148448,-0.0121853,0.00103631,-0.0241944,-0.65447,0.0164859,0.0427417,1168,1695,1.28578,-3.11489
-49,-671,0.582397,3.65027,0,0,0,0,0,0,0,-1,1175,1695,0.582417,-3.65025
-42,-671,0.539307,3.7865,0,0,0,0,0,0,0,-1,1182,1695,0.539266,-3.78648
-35,-671,-0.272461,0.347534,0,0,0,0,0,0,0,-1,1189,1695,-0.272434,-0.347569
-28,-671,0.0948486,0.856323,0,0,0,0,0,0,0,-1,1196,1695,0.0949031,-0.856304
-21,-671,0.241089,3.2804,0,0,0,0,0,0,0,-1,1203,1695,0.241055,-3.28042
-14,-671,2.11108,3.03369,0,0,0,0,0,0,0,-1,1210,1695,2.11108,-3.03374
-7,-671,2.29883,2.91602,0,0,0,0,0,0,0,-1,1217,1695,2.29883,-2.91601
0,-671,3.19458,3.81812,-0.0205462,0.0321693,-0.00440108,0.0325342,-0.0209111,-1.48807,0.031099,0.0441506,1224,1695,3.19458,-3.81814
7,-671,2.36084,3.77783,-0.0239217,0.0378821,-0.00236411,0.0379724,-0.024012,-1.53262,0.036088,0.0454515,1231,1695,2.36089,-3.77778
14,-671,1.90039,3.54895,-0.0279044,0.0436684,-0.00117706,0.0436878,-0.0279237,-1.55436,0.0416775,0.0489504,1238,1695,1.90044,-3.54894
21,-671,2.64612,3.05188,-0.0308625,0.0479081,-0.00144621,0.0479346,-0.0308891,-1.55244,0.0458622,0.0462735,1245,1695,2.64616,-3.05182
28,-671,2.276,3.073,-0.0331924,0.0500182,-0.00329907,0.0501488,-0.033323,-1.53123,0.0485177,0.0438184,1252,1695,2.27597,-3.07296
35,-671,2.17627,3.28357,-0.0323269,0.0501261,-0.00685296,0.0506918,-0.0328926,-1.48844,0.0486208,0.0443186,1259,1695,2.17623,-3.28356
42,-671,1.69421,3.48718,-0.0294431,0.0483746,-0.0101892,0.0496867,-0.0307551,-1.44274,0.0468698,0.0451263,1266,1695,1.69417,-3.48724
49,-671,1.67468,3.78772,0,0,0,0,0,0,0,-1,1273,1695,1.67468,-3.78775
56,-671,-0.450073,2.13867,0,0,0,0,0,0,0,-1,1280,1695,-0.450089,-2.13871
63,-671,-0.0245361,2.23328,0,0,0,0,0,0,0,-1,1287,1695,-0.0245245,-2.23324
70,-671,-0.0709229,2.96729,0,0,0,0,0,0,0,-1,1294,1695,-0.0709546,-2.96725
77,-671,0.163208,3.71509,0,0,0,0,0,0,0,-1,1301,1695,0.163221,-3.71511
84,-671,1.40344,3.35486,0,0,0,0,0,0,0,-1,1308,1695,1.40342,-3.35492
91,-671,1.62891,2.96008,0,0,0,0,0,0,0,-1,1315,1695,1.62896,-2.96007
98,-671,1.95215,3.33862,0,0,0,0,0,0,0,-1,1322,1695,1.9522,-3.33857
105,-671,3.38062,3.13367,0.113143,0.00540077,0.00352239,0.113258,0.00528573,0.0326464,0.0738063,0.0470005,1329,1695,3.38059,-3.13366
112,-671,3.56128,2.83911,0.124408,0.00161848,0.0080905,0.124939,0.0010877,0.0655115,0.0829326,0.0444128,1336,1695,3.56125,-2.83907
119,-671,3.72473,2.58496,0.133577,-0.00338662,0.0128005,0.134764,-0.00457267,0.0923926,0.0914047,0.0464117,1343,1695,3.72468,-2.58492
126,-671,3.86377,2.36292,0,0,0,0,0,0,0,-1,1350,1695,3.86379,-2.36288
133,-671,2.58777,2.26746,0,0,0,0,0,0,0,-1,1357,1695,2.58778,-2.26751
140,-671,2.51086,2.31519,0,0,0,0,0,0,0,-1,1364,1695,2.51087,-2.31516
147,-671,5.09692,5.04956,0,0,0,0,0,0,0,-1,1371,1695,5.09691,-5.04961
154,-671,5.08301,4.85986,0.0791001,-0.00791072,0.0027777,0.0791887,-0.0079993,0.0318803,0.0556509,0.0490337,1378,1695,5.08304,-4.85988
161,-671,5.0835,4.70056,0,0,0,0,0,0,0,-1,1385,1695,5.08353,-4.70056
168,-671,5.15698,4.5094,0,0,0,0,0,0,0,-1,1392,1695,5.15704,-4.50937
175,-671,4.42017,4.96643,0,0,0,0,0,0,0,-1,1399,1695,4.42021,-4.96644
182,-671,4.15625,4.7821,0,0,0,0,0,0,0,-1,1406,1695,4.15629,-4.78211
189,-671,4.87622,7.42297,0,0,0,0,0,0,0,-1,1413,1695,4.87618,-7.42301
196,-671,2.99597,3.41235,0,0,0,0,0,0,0,-1,1420,1695,2.99594,-3.4123
203,-671,2.74805,3.35547,0,0,0,0,0,0,0,-1,1427,1695,2.74803,-3.35545
210,-671,2.87903,3.36133,0.00483752,0.011385,-0.0123887,0.0209252,-0.00470267,-0.914572,0.0157534,0.0446252,1434,1695,2.879,-3.36134
217,-671,2.69226,3.24243,0.00543625,0.0114118,-0.00956253,0.0184424,-0.00159441,-0.936815,0.0128594,0.0401438,1441,1695,2.69224,-3.24248
224,-671,2.46375,3.22009,0.00568107,0.00983414,-0.00736263,0.0154075,0.000107746,-0.922847,0.0102359,0.0372821,1448,1695,2.46377,-3.22007
231,-671,2.43164,3.24573,0.0056168,0.00775501,-0.00555515,0.012343,0.00102881,-0.880462,0.00790806,0.037351,1455,1695,2.43165,-3.24578
238,-671,2.4032,3.20862,0.00553945,0.00588659,-0.00344189,0.00915928,0.00226676,-0.810592,0.00550833,0.0357593,1462,1695,2.40324,-3.20857
245,-671,2.31702,3.14172,0.00528302,0.00325631,-0.001807,0.00634141,0.00219792,-0.529851,0.00371821,0.0318183,1469,1695,2.31704,-3.14173
252,-671,2.30371,3.1366,0.00471047,0.000811677,-0.00023257,0.0047243,0.000797853,-0.0593711,0.00292014,0.031643,1476,1695,2.30377,-3.13662
259,-671,2.28589,3.10974,0.00339401,-0.00106294,0.000137025,0.00339822,-0.00106715,0.0307054,0.00269263,0.0241263,1483,1695,2.28594,-3.10974
266,-671,2.2345,3.06104,0.00233477,-0.00344975,0.000487499,0.00237556,-0.00349055,0.0834918,0.00340713,0.0131773,1490,1695,2.23453,-3.06104
273,-671,2.21643,3.03784,0.00162538,-0.00487415,0.000596823,0.00167973,-0.0049285,0.0908137,0.00396597,0.0086732,1497,1695,2.21649,-3.03781
280,-671,2.22046,3.00891,0.000831233,-0.0065984,0.000836529,0.000924256,-0.00669143,0.110746,0.0047988,0.00860353,1504,1695,2.2205,-3.00887
287,-671,2.22681,2.96057,0.000311273,-0.00722838,0.00104006,0.000452115,-0.00736922,0.134597,0.00507024,0.00983984,1511,1695,2.22675,-2.96059
294,-671,2.21643,2.91699,0.000501172,-0.00651508,0.00114987,0.000684813,-0.00669873,0.158369,0.00471071,0.00958287,1518,1695,2.21638,-2.91694
301,-671,2.22205,2.90906,0.000652779,-0.00560621,0.00122375,0.000883539,-0.00583697,0.186379,0.00421679,0.0101174,1525,1695,2.22204,-2.90911
308,-671,2.22961,2.90649,0.000770706,-0.00454325,0.00105436,0.00097226,-0.0047448,0.188884,0.00353218,0.0116296,1532,1695,2.22964,-2.90645
315,-671,2.2522,2.87878,0.00100482,-0.00354596,0.00076911,0.00113129,-0.00367243,0.162978,0.0028999,0.0127715,1539,1695,2.25216,-2.87879
322,-671,2.22766,2.87219,0.00122619,-0.00267141,0.000353465,0.00125799,-0.00270321,0.0897125,0.00233719,0.0141887,1546,1695,2.22772,-2.87219
329,-671,2.19202,2.87061,0.00166985,-0.00162028,-4.10338e-05,0.00167036,-0.00162079,-0.0124692,0.00190022,0.0132688,1553,1695,2.19206,-2.87065
336,-671,2.22705,2.82507,0.00189942,-0.000922646,-0.000472537,0.00197644,-0.000999667,-0.161575,0.00174883,0.00995363,1560,1695,2.22703,-2.82502
343,-671,2.23267,2.78613,0.00261993,-0.000732625,-0.00109913,0.00294815,-0.00106084,-0.290185,0.00239856,0.00934734,1567,1695,2.23266,-2.78618
350,-671,2.21545,2.74292,0.0035621,-0.00100909,-0.00182473,0.00420116,-0.00164815,-0.336871,0.00348267,0.00940101,1574,1695,2.21542,-2.74288
357,-671,2.21155,2.70337,0.00467382,-0.00139304,-0.00262513,0.005652,-0.00237122,-0.356683,0.00475954,0.00933378,1581,1695,2.2115,-2.70335
364,-671,2.21912,2.6748,0.00663095,-0.002226,-0.00387284,0.00808552,-0.00368057,-0.359282,0.00695003,0.0119073,1588,1695,2.21911,-2.67477
371,-671,2.22607,2.67493,0.00897973,-0.00318156,-0.0053355,0.0109887,-0.00519053,-0.360109,0.00953893,0.0139083,1595,1695,2.22613,-2.67493
378,-671,2.23425,2.66541,0.0112427,-0.00447565,-0.00668461,0.013701,-0.00693396,-0.352406,0.0121253,0.0121008,1602,1695,2.2343,-2.66535
385,-671,2.22192,2.63721,0.0133397,-0.00614047,-0.00823352,0.0163534,-0.00915422,-0.350886,0.0149211,0.013768,1609,1695,2.22196,-2.6372
392,-671,2.20154,2.61938,0.0159403,-0.00691895,-0.0105733,0.0200809,-0.0110595,-0.37325,0.0182287,0.0178371,1616,1695,2.2015,-2.61944
399,-671,2.20886,2.58179,0.017662,-0.00807633,-0.0125126,0.0227422,-0.0131565,-0.385675,0.020971,0.0141093,1623,1695,2.20892,-2.58174
406,-671,2.23108,2.53076,0.0195861,-0.00906036,-0.0147466,0.0258206,-0.0152948,-0.399981,0.0239959,0.0180475,1630,1695,2.23109,-2.53077
413,-671,2.2981,2.54749,0.0201434,-0.0100281,-0.0164307,0.0273634,-0.0172481,-0.414023,0.0259762,0.0259576,1637,1695,2.29804,-2.54747
420,-671,2.29089,2.57764,0.0192028,-0.0111168,-0.0167912,0.0266652,-0.0185792,-0.418207,0.0262605,0.0419376,1644,1695,2.29091,-2.57759
427,-671,2.7301,2.60291,0.0174473,-0.0131752,-0.0167671,0.0248423,-0.0205701,-0.415376,0.0262575,0.0495141,1651,1695,2.73007,-2.60288
434,-671,3.10706,2.78064,0,0,0,0,0,0,0,-1,1658,1695,3.10705,-2.78064
441,-671,2.97974,1.87939,0.0109538,-0.0113917,-0.0170428,0.0201596,-0.0205975,-0.495258,0.0235316,0.0447006,1665,1695,2.97969,-1.87935
448,-671,3.06189,2.3949,0,0,0,0,0,0,0,-1,1672,1695,3.06194,-2.39488
455,-671,2.98145,2.90784,0,0,0,0,0,0,0,-1,1679,1695,2.98142,-2.90779
462,-671,3.01282,1.47046,-0.00195683,-0.00916225,-0.0146614,0.00953804,-0.0206571,-0.664922,0.0178228,0.0446042,1686,1695,3.01278,-1.4705
469,-671,2.80322,2.31653,-0.00687913,-0.00730871,-0.013628,0.00653576,-0.0207236,-0.777518,0.0164334,0.0421255,1693,1695,2.80324,-2.31655
476,-671,2.6593,3.42969,-0.0101087,-0.00462707,-0.0141225,0.0070181,-0.0217538,-0.881244,0.0173225,0.0418628,1700,1695,2.65927,-3.42967
483,-671,2.61011,2.96704,-0.00838107,0.00136195,-0.0185684,0.0156872,-0.0227063,-0.913685,0.0222897,0.0415192,1707,1695,2.61005,-2.96705
490,-671,0,0,0,0,0,0,0,0,0,-1,1714,1695,0,0
497,-671,0,0,0,0,0,0,0,0,0,-1,1721,1695,0,0
504,-671,0,0,0,0,0,0,0,0,0,-1,1728,1695,0,0
511,-671,0,0,0,0,0,0,0,0,0,-1,1735,1695,0,0
518,-671,0,0,0,0,0,0,0,0,0,-1,1742,1695,0,0
525,-671,0,0,0,0,0,0,0,0,0,-1,1749,1695,0,0
532,-671,0,0,0,0,0,0,0,0,0,-1,1756,1695,0,0
539,-671,0,0,0,0,0,0,0,0,0,-1,1763,1695,0,0
546,-671,0,0,0,0,0,0,0,0,0,-1,1770,1695,0,0
553,-671,0,0,0,0,0,0,0,0,0,-1,1777,1695,0,0
560,-671,0,0,0,0,0,0,0,0,0,-1,1784,1695,0,0
567,-671,0,0,0,0,0,0,0,0,0,-1,1791,1695,0,0
574,-671,0,0,0,0,0,0,0,0,0,-1,1798,1695,0,0
581,-671,0,0,0,0,0,0,0,0,0,-1,1805,1695,0,0
588,-671,0,0,0,0,0,0,0,0,0,-1,1812,1695,0,0
595,-671,0,0,0,0,0,0,0,0,0,-1,1819,1695,0,0
602,-671,0,0,0,0,0,0,0,0,0,-1,1826,1695,0,0
609,-671,0,0,0,0,0,0,0,0,0,-1,1833,1695,0,0
616,-671,0,0,0,0,0,0,0,0,0,-1,1840,1695,0,0
623,-671,0,0,0,0,0,0,0,0,0,-1,1847,1695,0,0
630,-671,0,0,0,0,0,0,0,0,0,-1,1854,1695,0,0
637,-671,0,0,0,0,0,0,0,0,0,-1,1861,1695,0,0
644,-671,0,0,0,0,0,0,0,0,0,-1,1868,1695,0,0
651,-671,0,0,0,0,0,0,0,0,0,-1,1875,1695,0,0
658,-671,0,0,0,0,0,0,0,0,0,-1,1882,1695,0,0
665,-671,0,0,0,0,0,0,0,0,0,-1,1889,1695,0,0
672,-671,0,0,0,0,0,0,0,0,0,-1,1896,1695,0,0
679,-671,0,0,0,0,0,0,0,0,0,-1,1903,1695,0,0
686,-671,0,0,0,0,0,0,0,0,0,-1,1910,1695,0,0
693,-671,0,0,0,0,0,0,0,0,0,-1,1917,1695,0,0
700,-671,0,0,0,0,0,0,0,0,0,-1,1924,1695,0,0
707,-671,0,0,0,0,0,0,0,0,0,-1,1931,1695,0,0
714,-671,0,0,0,0,0,0,0,0,0,-1,1938,1695,0,0
721,-671,0,0,0,0,0,0,0,0,0,-1,1945,1695,0,0
728,-671,0,0,0,0,0,0,0,0,0,-1,1952,1695,0,0
735,-671,0,0,0,0,0,0,0,0,0,-1,1959,1695,0,0
742,-671,0,0,0,0,0,0,0,0,0,-1,1966,1695,0,0
749,-671,0,0,0,0,0,0,0,0,0,-1,1973,1695,0,0
756,-671,0,0,0,0,0,0,0,0,0,-1,1980,1695,0,0
763,-671,0,0,0,0,0,0,0,0,0,-1,1987,1695,0,0
770,-671,0,0,0,0,0,0,0,0,0,-1,1994,1695,0,0
777,-671,0,0,0,0,0,0,0,0,0,-1,2001,1695,0,0
784,-671,0,0,0,0,0,0,0,0,0,-1,2008,1695,0,0
791,-671,0,0,0,0,0,0,0,0,0,-1,2015,1695,0,0
798,-671,0,0,0,0,0,0,0,0,0,-1,2022,1695,0,0
805,-671,0,0,0,0,0,0,0,0,0,-1,2029,1695,0,0
812,-671,0,0,0,0,0,0,0,0,0,-1,2036,1695,0,0
-700,-678,0,0,0,0,0,0,0,0,0,-1,524,1702,0,0
-693,-678,0,0,0,0,0,0,0,0,0,-1,531,1702,0,0
-686,-678,0,0,0,0,0,0,0,0,0,-1,538,1702,0,0
-679,-678,0,0,0,0,0,0,0,0,0,-1,545,1702,0,0
-672,-678,0,0,0,0,0,0,0,0,0,-1,552,1702,0,0
-665,-678,0,0,0,0,0,0,0,0,0,-1,559,1702,0,0
-658,-678,0,0,0,0,0,0,0,0,0,-1,566,1702,0,0
-651,-678,0,0,0,0,0,0,0,0,0,-1,573,1702,0,0
-644,-678,0,0,0,0,0,0,0,0,0,-1,580,1702,0,0
-637,-678,0,0,0,0,0,0,0,0,0,-1,587,1702,0,0
-630,-678,0,0,0,0,0,0,0,0,0,-1,594,1702,0,0
-623,-678,0,0,0,0,0,0,0,0,0,-1,601,1702,0,0
-616,-678,0,0,0,0,0,0,0,0,0,-1,608,1702,0,0
-609,-678,0,0,0,0,0,0,0,0,0,-1,615,1702,0,0
-602,-678,0,0,0,0,0,0,0,0,0,-1,622,1702,0,0
-595,-678,0,0,0,0,0,0,0,0,0,-1,629,1702,0,0
-588,-678,0,0,0,0,0,0,0,0,0,-1,636,1702,0,0
-581,-678,0,0,0,0,0,0,0,0,0,-1,643,1702,0,0
-574,-678,0,0,0,0,0,0,0,0,0,-1,650,1702,0,0
-567,-678,0,0,0,0,0,0,0,0,0,-1,657,1702,0,0
-560,-678,0,0,0,0,0,0,0,0,0,-1,664,1702,0,0
-553,-678,0,0,0,0,0,0,0,0,0,-1,671,1702,0,0
-546,-678,0,0,0,0,0,0,0,0,0,-1,678,1702,0,0
-539,-678,0,0,0,0,0,0,0,0,0,-1,685,1702,0,0
-532,-678,0,0,0,0,0,0,0,0,0,-1,692,1702,0,0
-525,-678,0,0,0,0,0,0,0,0,0,-1,699,1702,0,0
-518,-678,0,0,0,0,0,0,0,0,0,-1,706,1702,0,0
-511,-678,0,0,0,0,0,0,0,0,0,-1,713,1702,0,0
-504,-678,0,0,0,0,0,0,0,0,0,-1,720,1702,0,0
-497,-678,0,0,0,0,0,0,0,0,0,-1,727,1702,0,0
-490,-678,0,0,0,0,0,0,0,0,0,-1,734,1702,0,0
-483,-678,0,0,0,0,0,0,0,0,0,-1,741,1702,0,0
-476,-678,0,0,0,0,0,0,0,0,0,-1,748,1702,0,0
-469,-678,0,0,0,0,0,0,0,0,0,-1,755,1702,0,0
-462,-678,0,0,0,0,0,0,0,0,0,-1,762,1702,0,0
-455,-678,0,0,0,0,0,0,0,0,0,-1,769,1702,0,0
-448,-678,0,0,0,0,0,0,0,0,0,-1,776,1702,0,0
-441,-678,0,0,0,0,0,0,0,0,0,-1,783,1702,0,0
-434,-678,0,0,0,0,0,0,0,0,0,-1,790,1702,0,0
-427,-678,0,0,0,0,0,0,0,0,0,-1,797,1702,0,0
-420,-678,0,0,0,0,0,0,0,0,0,-1,804,1702,0,0
-413,-678,0,0,0,0,0,0,0,0,0,-1,811,1702,0,0
-406,-678,0,0,0,0,0,0,0,0,0,-1,818,1702,0,0
-399,-678,0,0,0,0,0,0,0,0,0,-1,825,1702,0,0
-392,-678,0,0,0,0,0,0,0,0,0,-1,832,1702,0,0
-385,-678,0,0,0,0,0,0,0,0,0,-1,839,1702,0,0
-378,-678,0,0,0,0,0,0,0,0,0,-1,846,1702,0,0
-371,-678,0,0,0,0,0,0,0,0,0,-1,853,1702,0,0
-364,-678,0,0,0,0,0,0,0,0,0,-1,860,1702,0,0
-357,-678,0,0,0,0,0,0,0,0,0,-1,867,1702,0,0
-350,-678,1.67865,0.381348,0.0258015,-0.00532401,-0.0231386,0.0381241,-0.0176466,-0.489353,0.0329148,0.0447584,874,1702,1.67867,-0.381314
-343,-678,2.28412,0.686157,0.0155476,0.00101581,-0.0162597,0.026091,-0.00952754,-0.575275,0.0212926,0.0448828,881,1702,2.28414,-0.686114
-336,-678,2.8833,1.02051,0.00432878,0.00465117,-0.00915799,0.0136494,-0.00466943,-0.794198,0.0109918,0.0412863,888,1702,2.8833,-1.02055
-329,-678,3.3255,1.36597,0,0,0,0,0,0,0,-1,895,1702,3.32552,-1.36601
-322,-678,2.86499,1.94006,-0.0137188,0.00116714,0.00198208,0.00142654,-0.0139782,1.44067,0.00982885,0.0413172,902,1702,2.86499,-1.9401
-315,-678,2.37402,2.24231,-0.0193278,-0.00246894,0.00616958,-0.00045236,-0.0213444,1.25488,0.0140812,0.0439583,909,1702,2.37402,-2.24234
-308,-678,1.71497,2.52136,-0.0227186,-0.00607061,0.00899494,-0.00213909,-0.0266502,1.15874,0.0170984,0.044582,916,1702,1.71499,-2.52142
-301,-678,1.17773,2.83105,-0.0231689,-0.00854584,0.011516,-0.00221635,-0.0294984,1.06824,0.01897,0.0445285,923,1702,1.17775,-2.83101
-294,-678,0.836975,3.26831,-0.0231049,-0.0115655,0.012608,-0.00346968,-0.0312007,0.999985,0.0197458,0.04668,930,1702,0.836949,-3.2683
-287,-678,1.98059,2.55823,0,0,0,0,0,0,0,-1,937,1702,1.98061,-2.55824
-280,-678,2.03467,2.61353,0,0,0,0,0,0,0,-1,944,1702,2.03469,-2.61354
-273,-678,1.69623,-2.84143,0,0,0,0,0,0,0,-1,951,1702,1.69625,2.84146
-266,-678,2.48273,0.585815,0,0,0,0,0,0,0,-1,958,1702,2.48275,-0.58578
-259,-678,1.87939,2.61719,-0.00831319,-0.00625489,0.0104929,0.00325919,-0.0178273,0.834282,0.013107,0.0233231,965,1702,1.8794,-2.61725
-252,-678,1.9162,2.62573,-0.0049146,-0.00316273,0.00910824,0.0051116,-0.0131889,0.833336,0.0109035,0.0173654,972,1702,1.91622,-2.62577
-245,-678,1.92126,2.63953,-0.00300314,0.000487664,0.00766359,0.0066021,-0.00911758,0.897364,0.00911441,0.017255,979,1702,1.92128,-2.63953
-238,-678,1.92834,2.6897,-0.00295596,0.00376818,0.00646226,0.00769064,-0.00687842,1.02526,0.0084158,0.0144378,986,1702,1.92833,-2.68966
-231,-678,1.91986,2.71375,-0.00317211,0.00557542,0.00523474,0.00802312,-0.00561981,1.13341,0.00791738,0.0132002,993,1702,1.91986,-2.71375
-224,-678,1.90796,2.7229,-0.00306351,0.00714954,0.00401028,0.00853601,-0.00444998,1.23793,0.00762017,0.0130398,1000,1702,1.90795,-2.72295
-217,-678,1.93396,2.74829,-0.00315879,0.00813747,0.00271423,0.00875579,-0.00377711,1.34681,0.00742374,0.0128209,1007,1702,1.93398,-2.74832
-210,-678,1.92487,2.77478,-0.00304808,0.00729769,0.00133972,0.00746836,-0.00321875,1.44409,0.00633072,0.0131607,1014,1702,1.92485,-2.77473
-203,-678,1.90222,2.78577,-0.00285002,0.00587221,0.00060912,0.00591454,-0.00289235,1.50141,0.0051835,0.0169168,1021,1702,1.90223,-2.78571
-196,-678,1.90796,2.81873,-0.00253057,0.0045486,-7.17646e-05,0.00454932,-0.0025313,-1.56066,0.00414297,0.0176146,1028,1702,1.90796,-2.81877
-189,-678,1.92969,2.87488,-0.00210891,0.00340543,-0.000370093,0.00343015,-0.00213364,-1.50408,0.0032412,0.0104509,1035,1702,1.92969,-2.87485
-182,-678,1.91968,2.89551,-0.00134041,0.00216092,-0.00082777,0.00234676,-0.00152625,-1.34996,0.00225274,0.00938259,1042,1702,1.91972,-2.89546
-175,-678,1.91199,2.91321,-0.000260389,0.00148317,-0.000864043,0.00183881,-0.000616035,-1.18033,0.00147475,0.0101147,1049,1702,1.91203,-2.91317
-168,-678,1.9281,2.95068,0.000648168,0.00107161,-0.000275891,0.00120766,0.000512123,-1.11268,0.000699917,0.0105002,1056,1702,1.92813,-2.95068
-161,-678,1.92346,2.96777,0.00117098,0.000976772,0.000173147,0.00127239,0.000875358,0.529847,0.000751718,0.00895341,1063,1702,1.92343,-2.96773
-154,-678,1.91028,2.97717,0.00153852,0.0011125,0.000792979,0.0021466,0.000504419,0.654185,0.00129607,0.00770648,1070,1702,1.91031,-2.9772
-147,-678,1.91614,2.99243,0.00181335,0.00119485,0.00129944,0.00283983,0.000168373,0.668577,0.00183967,0.00946837,1077,1702,1.91615,-2.99248
-140,-678,1.93604,3.02283,0.00207501,0.00131223,0.00168818,0.00342434,-3.71065e-05,0.674305,0.00229536,0.011672,1084,1702,1.93598,-3.02283
-133,-678,1.93909,3.03992,0.00246474,0.00141202,0.00227385,0.00427236,-0.000395601,0.671659,0.00298884,0.0111191,1091,1702,1.93913,-3.03988
-126,-678,1.9397,3.05151,0.00260907,0.00132932,0.0030857,0.00512054,-0.00118215,0.683163,0.00386843,0.00836446,1098,1702,1.93974,-3.05152
-119,-678,1.95703,3.07178,0.00260509,0.0010313,0.00369252,0.00559363,-0.00195724,0.680416,0.00452487,0.0153546,1105,1702,1.95709,-3.07174
-112,-678,1.95264,3.08728,0.00177289,5.14636e-05,0.00426428,0.00526246,-0.0034381,0.685815,0.00505995,0.0196465,1112,1702,1.95262,-3.08733
-105,-678,1.95886,3.08997,5.36e-05,-0.00124867,0.00445397,0.00390378,-0.00509885,0.712816,0.00521291,0.0194624,1119,1702,1.95886,-3.08994
-98,-678,1.96106,3.11267,-0.00145155,-0.00259471,0.00387077,0.00188961,-0.00593587,0.712095,0.00471507,0.0133869,1126,1702,1.96105,-3.11262
-91,-678,1.97009,3.15308,-0.00298179,-0.00439584,0.00264609,-0.000949898,-0.00642773,0.65485,0.00400624,0.0138535,1133,1702,1.97013,-3.15305
-84,-678,2.00635,3.14294,-0.00451878,-0.0065346,0.000721905,-0.00428692,-0.00676646,0.310771,0.0039528,0.0228466,1140,1702,2.00636,-3.14289
-77,-678,2.05908,3.12146,-0.0057964,-0.00777884,-0.00184461,-0.00469355,-0.00888168,-0.538856,0.00513061,0.0302888,1147,1702,2.05909,-3.12141
-70,-678,2.1001,3.09265,-0.00692742,-0.00912736,-0.00447865,-0.00341565,-0.0126391,-0.66498,0.00754965,0.0301859,1154,1702,2.10013,-3.09267
-63,-678,2.08545,3.14343,-0.00791624,-0.00987074,-0.00700954,-0.00181616,-0.0159708,-0.716136,0.0100964,0.0359994,1161,1702,2.08551,-3.14339
-56,-678,1.43982,3.3042,-0.00778122,-0.0106492,-0.00951038,0.000402656,-0.0188331,-0.71057,0.0126918,0.0381704,1168,1702,1.43983,-3.30423
-49,-678,1.03491,3.57227,-0.00861121,-0.00862469,-0.0102977,0.00167975,-0.0189156,-0.785071,0.013206,0.0462829,1175,1702,1.03493,-3.57222
-42,-678,0.91748,3.56519,0,0,0,0,0,0,0,-1,1182,1702,0.917523,-3.56517
-35,-678,0.498413,3.64038,0,0,0,0,0,0,0,-1,1189,1702,0.498471,-3.64038
-28,-678,0.321289,3.01721,0,0,0,0,0,0,0,-1,1196,1702,0.321243,-3.01725
-21,-678,2.04517,3.13989,0,0,0,0,0,0,0,-1,1203,1702,2.04512,-3.13984
-14,-678,2.05212,3.11462,-0.0129471,0.0140757,-0.00569442,0.0152266,-0.014098,-1.37136,0.0169348,0.0436754,1210,1702,2.05208,-3.11467
-7,-678,2.08875,3.07507,-0.0143519,0.0197391,-0.00435083,0.0202857,-0.0148984,-1.44584,0.0203927,0.0435713,1217,1702,2.08872,-3.07508
0,-678,2.3302,3.65308,-0.0160441,0.0261434,-0.00293583,0.0263467,-0.0162474,-1.50165,0.0248211,0.0434352,1224,1702,2.33017,-3.6531
7,-678,2.33264,3.59009,-0.0186796,0.0299473,-0.00142169,0.0299888,-0.0187211,-1.54159,0.0283724,0.0460857,1231,1702,2.33269,-3.59014
14,-678,1.91565,3.45251,-0.0217949,0.0337568,-0.000782325,0.0337678,-0.021806,-1.55672,0.0323323,0.049528,1238,1702,1.91567,-3.45247
21,-678,2.02307,3.35339,-0.0239269,0.0363886,-0.00145975,0.0364239,-0.0239622,-1.54661,0.0351105,0.0457528,1245,1702,2.0231,-3.35334
28,-678,2.23389,3.31848,-0.0258303,0.0377023,-0.00320915,0.037864,-0.025992,-1.52046,0.0370791,0.0460167,1252,1702,2.23384,-3.31846
35,-678,2.27014,3.34595,-0.025106,0.0375128,-0.00626265,0.038133,-0.0257262,-1.47209,0.0371004,0.043943,1259,1702,2.27017,-3.34593
42,-678,1.88892,3.38416,-0.0227682,0.0360161,-0.0091279,0.0374008,-0.0241529,-1.42024,0.0358114,0.0442373,1266,1702,1.88896,-3.38415
49,-678,1.77869,3.64343,-0.0181568,0.0339057,-0.0119367,0.0365121,-0.0207631,-1.35582,0.0334819,0.0469425,1273,1702,1.77867,-3.64339
56,-678,0.484619,2.44434,-0.0121424,0.0307463,-0.0147246,0.0353149,-0.016711,-1.26994,0.0306706,0.0476169,1280,1702,0.484673,-2.44432
63,-678,0.675415,2.69849,-0.00146345,0.0270779,-0.0140026,0.0328004,-0.00718592,-1.18284,0.0246144,0.0475389,1287,1702,0.675439,-2.69846
70,-678,0.804443,3.09351,0.0109214,0.0248915,-0.0133339,0.0329592,0.0028537,-1.02667,0.021086,0.0465368,1294,1702,0.80444,-3.09352
77,-678,1.31506,3.32617,0,0,0,0,0,0,0,-1,1301,1702,1.31512,-3.32621
84,-678,1.65527,3.35425,0.0409923,0.0164783,-0.0103281,0.0447635,0.0127071,-0.350098,0.0266369,0.0485557,1308,1702,1.65529,-3.35429
91,-678,2.0697,3.45056,0.0558428,0.0116196,-0.00726459,0.0570056,0.0104568,-0.158716,0.0350421,0.0451033,1315,1702,2.06968,-3.45051
98,-678,2.31799,3.51489,0.071489,0.0068709,-0.00274611,0.0716055,0.0067544,-0.0423957,0.0456524,0.038072,1322,1702,2.31794,-3.51491
105,-678,2.71729,3.64221,0.0842326,0.00220773,0.0022136,0.0842923,0.00214803,0.0269607,0.0554927,0.0407768,1329,1702,2.71731,-3.64216
112,-678,2.96704,3.22656,0.0929874,0.000107216,0.0061862,0.0933976,-0.000303,0.0662142,0.0623663,0.0428006,1336,1702,2.96699,-3.22651
119,-678,3.078,3.07715,0.100004,-0.00303123,0.0100731,0.10098,-0.00400678,0.0965454,0.0686944,0.0428436,1343,1702,3.07794,-3.07712
126,-678,3.03528,3.43176,0.100301,-0.00428404,0.0120641,0.101674,-0.00565762,0.113368,0.0697452,0.0447021,1350,1702,3.03534,-3.43181
133,-678,2.30127,2.19995,0,0,0,0,0,0,0,-1,1357,1702,2.30126,-2.19992
140,-678,2.45325,2.59399,0,0,0,0,0,0,0,-1,1364,1702,2.45321,-2.594
147,-678,4.23401,4.67834,0,0,0,0,0,0,0,-1,1371,1702,4.234,-4.67833
154,-678,4.21924,4.40649,0,0,0,0,0,0,0,-1,1378,1702,4.2193,-4.40645
161,-678,3.90833,3.98975,0,0,0,0,0,0,0,-1,1385,1702,3.90834,-3.9897
168,-678,3.93652,4.26868,0,0,0,0,0,0,0,-1,1392,1702,3.93651,-4.26872
175,-678,3.77673,4.2262,0.0179333,0.00311164,-0.00930877,0.0224209,-0.001376,-0.449216,0.0154264,0.0490112,1399,1702,3.77676,-4.22621
182,-678,3.43567,4.15161,0.00492331,0.00880978,-0.0117564,0.0187825,-0.00504938,-0.867303,0.0145008,0.0445715,1406,1702,3.43573,-4.15156
189,-678,2.96191,3.88599,0,0,0,0,0,0,0,-1,1413,1702,2.96188,-3.88602
196,-678,2.75793,3.37085,0.00129474,0.0147822,-0.0131219,0.0227918,-0.00671488,-1.02276,0.0178587,0.0380109,1420,1702,2.75795,-3.37088
203,-678,2.44458,3.25195,0.000810837,0.0154878,-0.0119313,0.0221568,-0.00585811,-1.06111,0.0170625,0.0365999,1427,1702,2.44462,-3.25195
210,-678,2.45166,3.21277,0.00109139,0.0148879,-0.0103044,0.0203899,-0.0044106,-1.08036,0.0152772,0.037412,1434,1702,2.45163,-3.21272
217,-678,2.37891,3.13269,0.00148739,0.0143581,-0.00772665,0.0179783,-0.00213284,-1.13263,0.0127561,0.0345545,1441,1702,2.37887,-3.13265
224,-678,2.20642,3.09106,0.00172804,0.0126105,-0.00560346,0.0149799,-0.000641347,-1.17075,0.0102071,0.0241121,1448,1702,2.20643,-3.09108
231,-678,2.18823,3.11084,0.00175212,0.010339,-0.00383499,0.0118023,0.000288754,-1.20627,0.00777376,0.0190864,1455,1702,2.1882,-3.11087
238,-678,2.22009,3.10315,0.00194889,0.00838008,-0.00182478,0.00886177,0.0014672,-1.31272,0.00548459,0.0156464,1462,1702,2.22007,-3.10319
245,-678,2.21216,3.08252,0.00212639,0.00573434,-0.000353733,0.00576869,0.00209204,-1.47398,0.00337218,0.0133816,1469,1702,2.21221,-3.08252
252,-678,2.20581,3.05798,0.00209085,0.00328028,0.000867406,0.00373727,0.00163386,1.0859,0.00216338,0.0109636,1476,1702,2.20578,-3.05796
259,-678,2.20642,3.05298,0.00152556,0.00139472,0.000958926,0.00242129,0.000498982,0.751339,0.00147625,0.0105396,1483,1702,2.20641,-3.053
266,-678,2.21252,3.04236,0.00113087,-0.000837745,0.00105148,0.00158686,-0.00129374,0.409191,0.00166598,0.0104938,1490,1702,2.21247,-3.04234
273,-678,2.21204,3.03088,0.000980193,-0.00218544,0.000914483,0.00122538,-0.00243062,0.261952,0.00214869,0.00961514,1497,1702,2.21205,-3.03086
280,-678,2.19299,3.00403,0.000657258,-0.00370495,0.000809588,0.000802664,-0.00385036,0.17771,0.00287209,0.0102684,1504,1702,2.19303,-3.00401
287,-678,2.18616,2.95142,0.000450559,-0.00451195,0.000715583,0.000551684,-0.00461308,0.140388,0.0032748,0.0105354,1511,1702,2.1861,-2.95138
294,-678,2.1897,2.92261,0.000789146,-0.00429344,0.000565799,0.00085137,-0.00435567,0.109534,0.00322524,0.0105586,1518,1702,2.18976,-2.92266
301,-678,2.18628,2.92712,0.00108087,-0.00385252,0.000368993,0.00110832,-0.00387996,0.0742444,0.00302455,0.0115844,1525,1702,2.18627,-2.92717
308,-678,2.17749,2.91431,0.00126085,-0.00320969,0.000117955,0.00126396,-0.0032128,0.0263606,0.00266505,0.0136952,1532,1702,2.17754,-2.91429
315,-678,2.19592,2.90015,0.00157385,-0.00253485,-0.00022498,0.00158613,-0.00254713,-0.0545397,0.00240774,0.0147389,1539,1702,2.19592,-2.90009
322,-678,2.17029,2.8905,0.00184713,-0.0020004,-0.000701614,0.00197108,-0.00212435,-0.174859,0.00236505,0.0177124,1546,1702,2.17033,-2.89047
329,-678,2.16382,2.85388,0.00231487,-0.0012671,-0.00111126,0.00263162,-0.00158385,-0.277669,0.00245873,0.0157384,1553,1702,2.1638,-2.85394
336,-678,2.18799,2.81067,0.00250493,-0.000872757,-0.00157218,0.00312345,-0.00149128,-0.374819,0.0027193,0.0118017,1560,1702,2.18794,-2.81066
343,-678,2.19312,2.78552,0.00340517,-0.000999983,-0.00226807,0.00436416,-0.00195897,-0.400023,0.00373766,0.0105515,1567,1702,2.19311,-2.78553
350,-678,2.18481,2.76587,0.00451012,-0.00159936,-0.00306193,0.00578052,-0.00286976,-0.393286,0.00508762,0.0100204,1574,1702,2.18477,-2.76587
357,-678,2.20435,2.71887,0.00576818,-0.0022712,-0.00399672,0.00741697,-0.00391999,-0.391266,0.00664838,0.00824138,1581,1702,2.20437,-2.71885
364,-678,2.20569,2.68701,0.00803547,-0.00343902,-0.00552462,0.010263,-0.00566653,-0.38326,0.00932366,0.0111637,1588,1702,2.20566,-2.68697
371,-678,2.1825,2.67065,0.0108085,-0.00469798,-0.00733373,0.0137275,-0.00761696,-0.378799,0.0124904,0.0120672,1595,1702,2.18245,-2.67064
378,-678,2.17725,2.64294,0.0135119,-0.00638348,-0.00899258,0.016974,-0.00984559,-0.367506,0.0156656,0.0121751,1602,1702,2.1772,-2.6429
385,-678,2.19092,2.62354,0.015994,-0.00854589,-0.0108803,0.0201232,-0.0126751,-0.36272,0.0190982,0.0121412,1609,1702,2.19093,-2.62358
392,-678,2.26099,2.64319,0.0191879,-0.00971185,-0.0137533,0.0246868,-0.0152107,-0.380352,0.0232504,0.0210644,1616,1702,2.26099,-2.64324
399,-678,2.36621,2.67871,0.0214013,-0.0112785,-0.0161981,0.0280694,-0.0179466,-0.39052,0.0267808,0.0316313,1623,1702,2.36621,-2.67874
406,-678,2.29358,2.54944,0.0239321,-0.0126286,-0.0190069,0.0320228,-0.0207194,-0.402441,0.0306829,0.0371311,1630,1702,2.29361,-2.54939
413,-678,2.70618,2.12,0.0247918,-0.0139098,-0.0211168,0.0340832,-0.0232011,-0.414506,0.0332715,0.0403944,1637,1702,2.70623,-2.11993
420,-678,2.31177,2.65942,0.0237678,-0.0153806,-0.0215493,0.0333058,-0.0249186,-0.416695,0.0337319,0.0492155,1644,1702,2.31176,-2.65937
427,-678,3.16858,2.72131,0.0219444,-0.0178766,-0.0215708,0.0313891,-0.0273213,-0.412701,0.0339236,0.0441027,1651,1702,3.16858,-2.72126
434,-678,2.94202,3.35815,0.0186826,-0.0182299,-0.0216749,0.0286945,-0.0282418,-0.432715,0.0328726,0.0484095,1658,1702,2.94206,-3.35809
441,-678,3.49231,1.42456,0.0148981,-0.0172421,-0.0216638,0.0258015,-0.0281455,-0.466283,0.0311561,0.0492996,1665,1702,3.4923,-1.42456
448,-678,3.55737,1.70618,0,0,0,0,0,0,0,-1,1672,1702,3.55736,-1.70623
455,-678,2.55103,4.23657,0,0,0,0,0,0,0,-1,1679,1702,2.55105,-4.2366
462,-678,3.52429,1.88733,-0.00253235,-0.0186154,-0.0170876,0.0083114,-0.0294592,-0.56547,0.0229179,0.0445236,1686,1702,3.52426,-1.88732
469,-678,3.04211,2.79456,-0.0097917,-0.0188839,-0.0145528,0.000908503,-0.0295842,-0.634006,0.0200325,0.0437078,1693,1702,3.04211,-2.79453
476,-678,0,0,0,0,0,0,0,0,0,-1,1700,1702,0,0
483,-678,0,0,0,0,0,0,0,0,0,-1,1707,1702,0,0
490,-678,0,0,0,0,0,0,0,0,0,-1,1714,1702,0,0
497,-678,0,0,0,0,0,0,0,0,0,-1,1721,1702,0,0
504,-678,0,0,0,0,0,0,0,0,0,-1,1728,1702,0,0
511,-678,0,0,0,0,0,0,0,0,0,-1,1735,1702,0,0
518,-678,0,0,0,0,0,0,0,0,0,-1,1742,1702,0,0
525,-678,0,0,0,0,0,0,0,0,0,-1,1749,1702,0,0
532,-678,0,0,0,0,0,0,0,0,0,-1,1756,1702,0,0
539,-678,0,0,0,0,0,0,0,0,0,-1,1763,1702,0,0
546,-678,0,0,0,0,0,0,0,0,0,-1,1770,1702,0,0
553,-678,0,0,0,0,0,0,0,0,0,-1,1777,1702,0,0
560,-678,0,0,0,0,0,0,0,0,0,-1,1784,1702,0,0
567,-678,0,0,0,0,0,0,0,0,0,-1,1791,1702,0,0
574,-678,0,0,0,0,0,0,0,0,0,-1,1798,1702,0,0
581,-678,0,0,0,0,0,0,0,0,0,-1,1805,1702,0,0
588,-678,0,0,0,0,0,0,0,0,0,-1,1812,1702,0,0
595,-678,0,0,0,0,0,0,0,0,0,-1,1819,1702,0,0
602,-678,0,0,0,0,0,0,0,0,0,-1,1826,1702,0,0
609,-678,0,0,0,0,0,0,0,0,0,-1,1833,1702,0,0
616,-678,0,0,0,0,0,0,0,0,0,-1,1840,1702,0,0
623,-678,0,0,0,0,0,0,0,0,0,-1,1847,1702,0,0
630,-678,0,0,0,0,0,0,0,0,0,-1,1854,1702,0,0
637,-678,0,0,0,0,0,0,0,0,0,-1,1861,1702,0,0
644,-678,0,0,0,0,0,0,0,0,0,-1,1868,1702,0,0
651,-678,0,0,0,0,0,0,0,0,0,-1,1875,1702,0,0
658,-678,0,0,0,0,0,0,0,0,0,-1,1882,1702,0,0
665,-678,0,0,0,0,0,0,0,0,0,-1,1889,1702,0,0
672,-678,0,0,0,0,0,0,0,0,0,-1,1896,1702,0,0
679,-678,0,0,0,0,0,0,0,0,0,-1,1903,1702,0,0
686,-678,0,0,0,0,0,0,0,0,0,-1,1910,1702,0,0
693,-678,0,0,0,0,0,0,0,0,0,-1,1917,1702,0,0
700,-678,0,0,0,0,0,0,0,0,0,-1,1924,1702,0,0
707,-678,0,0,0,0,0,0,0,0,0,-1,1931,1702,0,0
714,-678,0,0,0,0,0,0,0,0,0,-1,1938,1702,0,0
721,-678,0,0,0,0,0,0,0,0,0,-1,1945,1702,0,0
728,-678,0,0,0,0,0,0,0,0,0,-1,1952,1702,0,0
735,-678,0,0,0,0,0,0,0,0,0,-1,1959,1702,0,0
742,-678,0,0,0,0,0,0,0,0,0,-1,1966,1702,0,0
749,-678,0,0,0,0,0,0,0,0,0,-1,1973,1702,0,0
756,-678,0,0,0,0,0,0,0,0,0,-1,1980,1702,0,0
763,-678,0,0,0,0,0,0,0,0,0,-1,1987,1702,0,0
770,-678,0,0,0,0,0,0,0,0,0,-1,1994,1702,0,0
777,-678,0,0,0,0,0,0,0,0,0,-1,2001,1702,0,0
784,-678,0,0,0,0,0,0,0,0,0,-1,2008,1702,0,0
791,-678,0,0,0,0,0,0,0,0,0,-1,2015,1702,0,0
798,-678,0,0,0,0,0,0,0,0,0,-1,2022,1702,0,0
805,-678,0,0,0,0,0,0,0,0,0,-1,2029,1702,0,0
812,-678,0,0,0,0,0,0,0,0,0,-1,2036,1702,0,0
-700,-685,0,0,0,0,0,0,0,0,0,-1,524,1709,0,0
-693,-685,0,0,0,0,0,0,0,0,0,-1,531,1709,0,0
-686,-685,0,0,0,0,0,0,0,0,0,-1,538,1709,0,0
-679,-685,0,0,0,0,0,0,0,0,0,-1,545,1709,0,0
-672,-685,0,0,0,0,0,0,0,0,0,-1,552,1709,0,0
-665,-685,0,0,0,0,0,0,0,0,0,-1,559,1709,0,0
-658,-685,0,0,0,0,0,0,0,0,0,-1,566,1709,0,0
-651,-685,0,0,0,0,0,0,0,0,0,-1,573,1709,0,0
-644,-685,0,0,0,0,0,0,0,0,0,-1,580,1709,0,0
-637,-685,0,0,0,0,0,0,0,0,0,-1,587,1709,0,0
-630,-685,0,0,0,0,0,0,0,0,0,-1,594,1709,0,0
-623,-685,0,0,0,0,0,0,0,0,0,-1,601,1709,0,0
-616,-685,0,0,0,0,0,0,0,0,0,-1,608,1709,0,0
-609,-685,0,0,0,0,0,0,0,0,0,-1,615,1709,0,0
-602,-685,0,0,0,0,0,0,0,0,0,-1,622,1709,0,0
-595,-685,0,0,0,0,0,0,0,0,0,-1,629,1709,0,0
-588,-685,0,0,0,0,0,0,0,0,0,-1,636,1709,0,0
-581,-685,0,0,0,0,0,0,0,0,0,-1,643,1709,0,0
-574,-685,0,0,0,0,0,0,0,0,0,-1,650,1709,0,0
-567,-685,0,0,0,0,0,0,0,0,0,-1,657,1709,0,0
-560,-685,0,0,0,0,0,0,0,0,0,-1,664,1709,0,0
-553,-685,0,0,0,0,0,0,0,0,0,-1,671,1709,0,0
-546,-685,0,0,0,0,0,0,0,0,0,-1,678,1709,0,0
-539,-685,0,0,0,0,0,0,0,0,0,-1,685,1709,0,0
-532,-685,0,0,0,0,0,0,0,0,0,-1,692,1709,0,0
-525,-685,0,0,0,0,0,0,0,0,0,-1,699,1709,0,0
-518,-685,0,0,0,0,0,0,0,0,0,-1,706,1709,0,0
-511,-685,0,0,0,0,0,0,0,0,0,-1,713,1709,0,0
-504,-685,0,0,0,0,0,0,0,0,0,-1,720,1709,0,0
-497,-685,0,0,0,0,0,0,0,0,0,-1,727,1709,0,0
-490,-685,0,0,0,0,0,0,0,0,0,-1,734,1709,0,0
-483,-685,0,0,0,0,0,0,0,0,0,-1,741,1709,0,0
-476,-685,0,0,0,0,0,0,0,0,0,-1,748,1709,0,0
-469,-685,0,0,0,0,0,0,0,0,0,-1,755,1709,0,0
-462,-685,0,0,0,0,0,0,0,0,0,-1,762,1709,0,0
-455,-685,0,0,0,0,0,0,0,0,0,-1,769,1709,0,0
-448,-685,0,0,0,0,0,0,0,0,0,-1,776,1709,0,0
-441,-685,0,0,0,0,0,0,0,0,0,-1,783,1709,0,0
-434,-685,0,0,0,0,0,0,0,0,0,-1,790,1709,0,0
-427,-685,0,0,0,0,0,0,0,0,0,-1,797,1709,0,0
-420,-685,0,0,0,0,0,0,0,0,0,-1,804,1709,0,0
-413,-685,0,0,0,0,0,0,0,0,0,-1,811,1709,0,0
-406,-685,0,0,0,0,0,0,0,0,0,-1,818,1709,0,0
-399,-685,0,0,0,0,0,0,0,0,0,-1,825,1709,0,0
-392,-685,0,0,0,0,0,0,0,0,0,-1,832,1709,0,0
-385,-685,0,0,0,0,0,0,0,0,0,-1,839,1709,0,0
-378,-685,0,0,0,0,0,0,0,0,0,-1,846,1709,0,0
-371,-685,0,0,0,0,0,0,0,0,0,-1,853,1709,0,0
-364,-685,0,0,0,0,0,0,0,0,0,-1,860,1709,0,0
-357,-685,0,0,0,0,0,0,0,0,0,-1,867,1709,0,0
-350,-685,0,0,0,0,0,0,0,0,0,-1,874,1709,0,0
-343,-685,3.04968,0.757935,0.0157426,0.00380855,-0.0188697,0.0295662,-0.0100151,-0.632261,0.0237634,0.0451892,881,1709,3.04967,-0.757949
-336,-685,3.48767,1.02405,0.000191139,0.00791046,-0.00839803,0.0132933,-0.0051917,-1.0008,0.0110087,0.0430807,888,1709,3.48769,-1.02407
-329,-685,3.86578,1.35437,0,0,0,0,0,0,0,-1,895,1709,3.8658,-1.35434
-322,-685,4.20551,1.66736,0,0,0,0,0,0,0,-1,902,1709,4.2055,-1.66732
-315,-685,2.59576,2.20825,-0.0276957,-0.00324181,0.00978788,0.000193322,-0.0311309,1.23327,0.0208186,0.0443297,909,1709,2.59575,-2.2083
-308,-685,1.79608,2.41064,-0.0309172,-0.00812509,0.0126197,-0.00251745,-0.0365249,1.15264,0.0235556,0.0460385,916,1709,1.79608,-2.41059
-301,-685,1.38837,2.97705,0,0,0,0,0,0,0,-1,923,1709,1.38837,-2.977
-294,-685,1.22168,4.04761,0,0,0,0,0,0,0,-1,930,1709,1.22171,-4.04764
-287,-685,0.833252,4.82373,0,0,0,0,0,0,0,-1,937,1709,0.833226,-4.82367
-280,-685,2.67804,-3.21423,0,0,0,0,0,0,0,-1,944,1709,2.67805,3.21427
-273,-685,2.21924,-2.31982,-0.0192139,-0.0136491,0.0162127,1.82316e-05,-0.0328813,0.870379,0.0219269,0.0468989,951,1709,2.21922,2.31979
-266,-685,2.42664,-0.174561,-0.0146498,-0.0105971,0.0153183,0.00282832,-0.0280752,0.851157,0.0197273,0.0443461,958,1709,2.42666,0.174558
-259,-685,1.60291,-1.31299,0,0,0,0,0,0,0,-1,965,1709,1.60292,1.31296
-252,-685,1.9621,2.66321,-0.00668523,-0.00376646,0.0124423,0.00730173,-0.0177534,0.843778,0.0148792,0.034952,972,1709,1.9621,-2.66324
-245,-685,2.01263,2.62085,-0.00423247,0.000958452,0.0107807,0.00945172,-0.0127257,0.903526,0.0128506,0.0308432,979,1709,2.01264,-2.62083
-238,-685,2.00641,2.64758,-0.00407838,0.0050906,0.00933666,0.0109076,-0.00989536,1.01362,0.0120153,0.02292,986,1709,2.00641,-2.6476
-231,-685,1.96271,2.69702,-0.00436218,0.00741909,0.00777024,0.0112792,-0.00822225,1.10973,0.0113052,0.0162387,993,1709,1.9627,-2.697
-224,-685,1.94238,2.71057,-0.00420187,0.00937847,0.00613373,0.0117387,-0.00656206,1.20347,0.0107059,0.014826,1000,1709,1.9424,-2.71059
-217,-685,1.95129,2.73804,-0.00425215,0.0105993,0.00433651,0.0117728,-0.00542566,1.30652,0.0101524,0.0108597,1007,1709,1.95129,-2.73805
-210,-685,1.93579,2.7843,-0.00411165,0.00964393,0.0023961,0.0100494,-0.00451708,1.40318,0.00860974,0.0135489,1014,1709,1.93577,-2.78426
-203,-685,1.9361,2.81213,-0.00391981,0.0076339,0.00116876,0.00775094,-0.00403685,1.47098,0.00691737,0.0143078,1021,1709,1.93608,-2.81218
-196,-685,1.94226,2.83386,-0.00354935,0.00579156,2.36393e-05,0.00579162,-0.00354941,1.56827,0.00544459,0.0137721,1028,1709,1.94227,-2.83388
-189,-685,1.94031,2.86279,-0.00306972,0.00411362,-0.000600586,0.00416349,-0.00311959,-1.48795,0.00421926,0.00910455,1035,1709,1.94033,-2.86279
-182,-685,1.95129,2.88794,-0.0023468,0.00227815,-0.00140182,0.00266986,-0.00273851,-1.29831,0.00312261,0.0121496,1042,1709,1.95129,-2.8879
-175,-685,1.94617,2.89026,-0.00138299,0.00130391,-0.00164405,0.00208361,-0.00216269,-1.12796,0.00245174,0.0124796,1049,1709,1.94616,-2.89029
-168,-685,1.94836,2.93213,-0.000486812,0.000680029,-0.00114926,0.00138547,-0.00119226,-1.02027,0.00148965,0.0101503,1056,1709,1.9483,-2.93209
-161,-685,1.94714,2.97266,7.93646e-05,0.000303051,-0.000765752,0.000965084,-0.000582669,-0.857914,0.000902641,0.0113431,1063,1709,1.94711,-2.97262
-154,-685,1.94861,2.99207,0.000473919,0.000203141,-0.000240252,0.000614303,6.27562e-05,-0.528813,0.000390302,0.00973965,1070,1709,1.94857,-2.99204
-147,-685,1.95251,2.9989,0.000845482,7.30111e-05,0.00024906,0.000918821,-3.27767e-07,0.286369,0.000612657,0.00820331,1077,1709,1.9525,-2.99894
-140,-685,1.94543,3.021,0.00116443,2.43728e-05,0.000644872,0.00145509,-0.000266292,0.423463,0.00106993,0.0112873,1084,1709,1.94548,-3.02097
-133,-685,1.95679,3.04346,0.00161522,3.98909e-05,0.00117226,0.00223986,-0.000584751,0.489583,0.00172158,0.010511,1091,1709,1.95684,-3.04345
-126,-685,1.95691,3.05737,0.00187126,-5.86724e-05,0.00181666,0.00296333,-0.00115074,0.541259,0.0024509,0.00862548,1098,1709,1.95686,-3.05734
-119,-685,1.96521,3.0824,0.00191472,-0.0002997,0.00236461,0.0034185,-0.00180348,0.566438,0.0030626,0.0118548,1105,1709,1.9652,-3.08242
-112,-685,1.96936,3.099,0.00123028,-0.00104726,0.00294443,0.00324849,-0.00306546,0.60088,0.00364587,0.0108256,1112,1709,1.96938,-3.09903
-105,-685,1.95325,3.07971,-0.000156079,-0.00202226,0.00323247,0.00227528,-0.00445362,0.644887,0.00395221,0.00851766,1119,1709,1.95319,-3.0797
-98,-685,1.98901,3.09143,-0.00139323,-0.00279213,0.00288752,0.000878345,-0.00506371,0.666571,0.00370347,0.0110745,1126,1709,1.98901,-3.09149
-91,-685,1.97571,3.13281,-0.00274053,-0.00386925,0.00213269,-0.00109879,-0.00551098,0.65605,0.00336801,0.0143201,1133,1709,1.97569,-3.13276
-84,-685,1.9718,3.14746,-0.00415824,-0.00524202,0.000814321,-0.00372199,-0.00567827,0.491818,0.00333077,0.0140104,1140,1709,1.97177,-3.14748
-77,-685,1.98364,3.16809,-0.00525647,-0.00595089,-0.00111327,-0.00443751,-0.00676984,-0.634237,0.00397106,0.0118138,1147,1709,1.98363,-3.16808
-70,-685,2.0083,3.1814,-0.00624452,-0.00681041,-0.00311534,-0.00339931,-0.00965563,-0.740111,0.00565544,0.0130718,1154,1709,2.00831,-3.18139
-63,-685,2.01624,3.20557,-0.00715824,-0.00724041,-0.00508715,-0.00211201,-0.0122866,-0.78136,0.00758573,0.0191745,1161,1709,2.0162,-3.20554
-56,-685,1.77759,3.35889,-0.00700432,-0.00764782,-0.00709362,-0.000225163,-0.014427,-0.762735,0.00954382,0.0286566,1168,1709,1.77765,-3.35892
-49,-685,1.56628,3.39722,-0.0075539,-0.00591193,-0.00765909,0.000970057,-0.0144359,-0.83879,0.00996303,0.0298884,1175,1709,1.56629,-3.39717
-42,-685,1.90039,3.48059,0,0,0,0,0,0,0,-1,1182,1709,1.90034,-3.48064
-35,-685,1.96143,3.23804,0,0,0,0,0,0,0,-1,1189,1709,1.96142,-3.23799
-28,-685,1.27112,3.16101,-0.00861769,0.00331992,-0.00700741,0.00655603,-0.0118538,-1.13816,0.0107746,0.0467689,1196,1709,1.27115,-3.16107
-21,-685,1.98328,3.19568,-0.00919062,0.00744652,-0.00580383,0.00927108,-0.0110152,-1.26621,0.0117267,0.0333289,1203,1709,1.98325,-3.1957
-14,-685,2.01611,3.1842,-0.00982251,0.0114817,-0.00396689,0.0121964,-0.0105372,-1.39255,0.0131369,0.0246946,1210,1709,2.01609,-3.18422
-7,-685,2.05518,3.18945,-0.0106788,0.0155903,-0.00291894,0.0159107,-0.0109992,-1.46146,0.0156225,0.0389796,1217,1709,2.05517,-3.18949
0,-685,2.07495,3.34583,-0.0118832,0.0202697,-0.00186819,0.0203778,-0.0119914,-1.51295,0.0188963,0.0397112,1224,1709,2.07498,-3.34582
7,-685,1.95959,3.41321,-0.0139263,0.0225878,-0.000839997,0.0226071,-0.0139457,-1.54781,0.0213003,0.0381264,1231,1709,1.95958,-3.41326
14,-685,1.95337,3.37756,-0.0163464,0.0249123,-0.000618782,0.0249215,-0.0163557,-1.5558,0.0240018,0.0395054,1238,1709,1.9534,-3.37757
21,-685,1.95715,3.26648,-0.0178988,0.0264292,-0.00153508,0.0264823,-0.0179519,-1.53622,0.0258112,0.0364279,1245,1709,1.95715,-3.2665
28,-685,1.99463,3.21106,-0.0195414,0.0270644,-0.00308311,0.0272675,-0.0197445,-1.50503,0.027258,0.0394983,1252,1709,1.99458,-3.21105
35,-685,2.10352,3.35413,-0.0190855,0.0266621,-0.00555026,0.0273258,-0.0197493,-1.45177,0.0272959,0.0382843,1259,1709,2.10351,-3.3541
42,-685,1.94836,3.51025,-0.0173087,0.0253447,-0.00792659,0.0267701,-0.0187342,-1.39287,0.0264081,0.0415197,1266,1709,1.94841,-3.51024
49,-685,1.86011,3.46472,-0.0149047,0.0237204,-0.00996928,0.0261417,-0.0173261,-1.33253,0.0252676,0.0453183,1273,1709,1.86009,-3.46468
56,-685,1.58972,2.76953,-0.0104715,0.0211134,-0.0121004,0.0252162,-0.0145743,-1.2439,0.0232453,0.0435489,1280,1709,1.58969,-2.7695
63,-685,1.4364,3.04492,-0.00278883,0.0176986,-0.0120304,0.0232556,-0.00834586,-1.13808,0.0189099,0.0429926,1287,1709,1.43644,-3.04487
70,-685,1.51746,3.08887,0.0062018,0.0158308,-0.0115258,0.0235072,-0.0014746,-0.983241,0.0161854,0.0416679,1294,1709,1.51747,-3.08885
77,-685,1.78186,3.15613,0.0176774,0.0127566,-0.0105011,0.0260024,0.00443155,-0.670323,0.0160629,0.0404399,1301,1709,1.78187,-3.15619
84,-685,1.95239,3.27783,0.0283761,0.00946464,-0.00914856,0.0320773,0.00576336,-0.384445,0.0197462,0.0437838,1308,1709,1.95235,-3.27781
91,-685,2.40576,3.40515,0.0392929,0.00574459,-0.00681058,0.0406228,0.0044147,-0.192841,0.0257368,0.0419653,1315,1709,2.4057,-3.40511
98,-685,2.17761,3.4043,0.050817,0.00230598,-0.00335262,0.0510476,0.00207538,-0.0686753,0.0333615,0.0377986,1322,1709,2.17765,-3.40434
105,-685,2.21448,3.28564,0.0603298,-0.000822611,0.000464598,0.0603333,-0.000826141,0.0075968,0.0405004,0.0403662,1329,1709,2.21453,-3.2857
112,-685,2.45679,3.21252,0.0670992,-0.00154305,0.00354795,0.0672821,-0.00172595,0.0515046,0.045441,0.0419217,1336,1709,2.4568,-3.21256
119,-685,2.43127,3.0542,0.0724349,-0.00306466,0.0064683,0.0729851,-0.00361481,0.0848494,0.0499053,0.0399196,1343,1709,2.43129,-3.05423
126,-685,2.34094,2.90991,0.0729214,-0.00303331,0.00835695,0.0738301,-0.00394192,0.108299,0.0505852,0.0432625,1350,1709,2.34094,-2.90991
133,-685,2.67786,2.79285,0.0685728,-0.00233436,0.00797287,0.0694582,-0.00321979,0.110601,0.0474152,0.0439445,1357,1709,2.67783,-2.79284
140,-685,2.35938,2.93115,0.062677,-0.000372528,0.00700417,0.0634457,-0.00114125,0.109314,0.0426827,0.0436755,1364,1709,2.35943,-2.93115
147,-685,3.27283,4.17017,0,0,0,0,0,0,0,-1,1371,1709,3.27285,-4.17012
154,-685,3.24878,3.89832,0.0458751,0.00401081,0.00248247,0.0460218,0.00386412,0.0590222,0.0294777,0.0456403,1378,1709,3.24882,-3.89828
161,-685,3.01636,3.6261,0.035544,0.00695173,0.000517795,0.0355534,0.00694236,0.0181017,0.0217605,0.0469235,1385,1709,3.01642,-3.62612
168,-685,2.16687,3.34241,0,0,0,0,0,0,0,-1,1392,1709,2.16685,-3.34238
175,-685,2.82666,3.59595,0.0104872,0.0105094,-0.0061239,0.0166222,0.00437438,-0.786306,0.00994923,0.0438965,1399,1709,2.8267,-3.59592
182,-685,2.90308,3.60974,0.000778636,0.0146455,-0.00799231,0.0182927,-0.00286855,-1.14269,0.0132552,0.0373682,1406,1709,2.90304,-3.60972
189,-685,2.61951,3.51318,-0.000610632,0.0165477,-0.00868277,0.0201748,-0.00423772,-1.1751,0.0150625,0.0327487,1413,1709,2.61954,-3.51322
196,-685,2.30774,3.31897,-0.0015721,0.0178537,-0.00894999,0.0213485,-0.00506687,-1.19853,0.0161878,0.0292025,1420,1709,2.30775,-3.31891
203,-685,2.17053,3.2113,-0.00178606,0.0174751,-0.00806242,0.0204044,-0.00471537,-1.2223,0.015417,0.020487,1427,1709,2.17059,-3.21135
210,-685,2.1792,3.19702,-0.00131969,0.0158217,-0.00691162,0.0182613,-0.00375933,-1.23147,0.0136016,0.0201722,1434,1709,2.17926,-3.19706
217,-685,2.14343,3.14539,-0.000797008,0.0144281,-0.00500227,0.0159245,-0.00229344,-1.28012,0.0114576,0.0190778,1441,1709,2.14347,-3.14542
224,-685,2.11816,3.12878,-0.00039167,0.0123883,-0.00343151,0.0132514,-0.00125477,-1.32439,0.00928081,0.0133209,1448,1709,2.11815,-3.12883
231,-685,2.16479,3.12,-0.000122748,0.00998763,-0.00222891,0.0104572,-0.000592319,-1.36316,0.00717706,0.0146946,1455,1709,2.16481,-3.11996
238,-685,2.1781,3.07336,0.000246691,0.00780522,-0.000815579,0.00789222,0.00015969,-1.46452,0.00520907,0.0176391,1462,1709,2.17815,-3.0734
245,-685,2.16321,3.0575,0.000684889,0.00537696,0.000140571,0.00538116,0.000680682,1.54087,0.00338345,0.0185987,1469,1709,2.16323,-3.05745
252,-685,2.16406,3.06006,0.00098282,0.00326885,0.000814035,0.00352909,0.000722576,1.26137,0.00215268,0.0134191,1476,1709,2.16401,-3.06002
259,-685,2.16577,3.05884,0.000851534,0.00170145,0.000677733,0.00207644,0.000476549,1.06543,0.00125595,0.00981858,1483,1709,2.16574,-3.05886
266,-685,2.18408,3.04114,0.000783789,-9.62299e-05,0.000588733,0.00107877,-0.000391214,0.464486,0.000879098,0.0103557,1490,1709,2.18406,-3.04117
273,-685,2.19446,3.03308,0.000754065,-0.00118041,0.000381559,0.000826605,-0.00125295,0.187871,0.00120901,0.0109653,1497,1709,2.19442,-3.03306
280,-685,2.17859,2.99939,0.000583723,-0.00230727,0.000217205,0.000599951,-0.0023235,0.0745738,0.00178295,0.0126257,1504,1709,2.17864,-2.99939
287,-685,2.1687,2.96252,0.000514275,-0.00299073,0.000113429,0.000517942,-0.0029944,0.0323168,0.00218943,0.011299,1511,1709,2.16873,-2.9625
294,-685,2.17529,2.9408,0.000891561,-0.00298003,-5.39012e-05,0.000892311,-0.00298078,-0.0139186,0.00234199,0.00976542,1518,1709,2.17525,-2.94086
301,-685,2.15466,2.93604,0.00124084,-0.0027544,-0.000316193,0.00126571,-0.00277927,-0.0784913,0.00238925,0.0123409,1525,1709,2.15462,-2.93607
308,-685,2.1427,2.91455,0.0014616,-0.00232548,-0.000527231,0.00153363,-0.00239751,-0.135779,0.00228784,0.014034,1532,1709,2.14268,-2.91453
315,-685,2.17297,2.88904,0.00188914,-0.00182192,-0.000883644,0.0020888,-0.00202158,-0.222223,0.00237323,0.0124363,1539,1709,2.17301,-2.88903
322,-685,2.15625,2.86023,0.00227632,-0.00151232,-0.00142198,0.00275064,-0.00198664,-0.321961,0.0027469,0.0192182,1546,1709,2.15624,-2.86018
329,-685,2.1604,2.83301,0.00285578,-0.00103069,-0.00191118,0.00363812,-0.00181303,-0.388541,0.00320548,0.0173584,1553,1709,2.16044,-2.83306
336,-685,2.17896,2.79626,0.00310635,-0.000893633,-0.00248921,0.0042995,-0.00208678,-0.446973,0.00376017,0.0115524,1560,1709,2.17889,-2.79632
343,-685,2.16309,2.78467,0.00430302,-0.00130296,-0.00336165,0.00587695,-0.00287689,-0.437888,0.00515202,0.010815,1567,1709,2.16304,-2.78463
350,-685,2.16052,2.7644,0.00565602,-0.00222689,-0.00433635,0.00757451,-0.00414539,-0.416534,0.00686235,0.0115711,1574,1709,2.1605,-2.76441
357,-685,2.17346,2.74524,0.00715075,-0.00321275,-0.00551612,0.00953723,-0.00559922,-0.408322,0.00883707,0.00951494,1581,1709,2.17351,-2.74528
364,-685,2.1814,2.69678,0.00982302,-0.00473871,-0.00741922,0.0129371,-0.00785283,-0.397405,0.0121222,0.00929437,1588,1709,2.18138,-2.69676
371,-685,2.19568,2.67029,0.0131002,-0.00634585,-0.00968035,0.0170974,-0.0103431,-0.3916,0.016002,0.0144773,1595,1709,2.19567,-2.67033
378,-685,2.19775,2.63574,0.0163264,-0.0084678,-0.0117507,0.0210105,-0.0131519,-0.379319,0.0198969,0.0176861,1602,1709,2.19771,-2.63573
385,-685,2.17676,2.61304,0.0192747,-0.0112328,-0.0141089,0.0247992,-0.0167574,-0.373213,0.024142,0.0279934,1609,1709,2.17671,-2.61305
392,-685,2.47986,2.72266,0.0231136,-0.0129038,-0.0175533,0.0302531,-0.0200432,-0.386296,0.0292373,0.0339107,1616,1709,2.47988,-2.72269
399,-685,2.82275,2.96802,0.0258268,-0.0149749,-0.0205399,0.0343756,-0.0235237,-0.394398,0.0336233,0.0386139,1623,1709,2.82275,-2.96801
406,-685,2.39111,2.6355,0,0,0,0,0,0,0,-1,1630,1709,2.39111,-2.63549
413,-685,2.68286,3.51489,0.0301239,-0.018452,-0.0265496,0.0418191,-0.0301471,-0.414928,0.0417315,0.0475514,1637,1709,2.68285,-3.51494
420,-685,3.97705,2.43201,0.0289453,-0.0203783,-0.0270712,0.0409039,-0.0323368,-0.415969,0.0423819,0.0434094,1644,1709,3.977,-2.43204
427,-685,3.5188,3.05005,0.0270115,-0.0233322,-0.0271532,0.0388656,-0.0351862,-0.411624,0.0427714,0.0458623,1651,1709,3.51882,-3.05
434,-685,3.12415,3.74377,0.0235437,-0.0247185,-0.0272792,0.0358333,-0.0370081,-0.423278,0.0420568,0.0496202,1658,1709,3.12409,-3.7438
441,-685,3.98157,0.999146,0,0,0,0,0,0,0,-1,1665,1709,3.98151,-0.999179
448,-685,2.98364,4.37988,0.0121839,-0.0256992,-0.0248852,0.0245163,-0.0380315,-0.460096,0.0363919,0.0496858,1672,1709,2.98366,-4.37991
455,-685,2.31958,4.09802,0,0,0,0,0,0,0,-1,1679,1709,2.31957,-4.09803
462,-685,0,0,0,0,0,0,0,0,0,-1,1686,1709,0,0
469,-685,0,0,0,0,0,0,0,0,0,-1,1693,1709,0,0
476,-685,0,0,0,0,0,0,0,0,0,-1,1700,1709,0,0
483,-685,0,0,0,0,0,0,0,0,0,-1,1707,1709,0,0
490,-685,0,0,0,0,0,0,0,0,0,-1,1714,1709,0,0
497,-685,0,0,0,0,0,0,0,0,0,-1,1721,1709,0,0
504,-685,0,0,0,0,0,0,0,0,0,-1,1728,1709,0,0
511,-685,0,0,0,0,0,0,0,0,0,-1,1735,1709,0,0
518,-685,0,0,0,0,0,0,0,0,0,-1,1742,1709,0,0
525,-685,0,0,0,0,0,0,0,0,0,-1,1749,1709,0,0
532,-685,0,0,0,0,0,0,0,0,0,-1,1756,1709,0,0
539,-685,0,0,0,0,0,0,0,0,0,-1,1763,1709,0,0
546,-685,0,0,0,0,0,0,0,0,0,-1,1770,1709,0,0
553,-685,0,0,0,0,0,0,0,0,0,-1,1777,1709,0,0
560,-685,0,0,0,0,0,0,0,0,0,-1,1784,1709,0,0
567,-685,0,0,0,0,0,0,0,0,0,-1,1791,1709,0,0
574,-685,0,0,0,0,0,0,0,0,0,-1,1798,1709,0,0
581,-685,0,0,0,0,0,0,0,0,0,-1,1805,1709,0,0
588,-685,0,0,0,0,0,0,0,0,0,-1,1812,1709,0,0
595,-685,0,0,0,0,0,0,0,0,0,-1,1819,1709,0,0
602,-685,0,0,0,0,0,0,0,0,0,-1,1826,1709,0,0
609,-685,0,0,0,0,0,0,0,0,0,-1,1833,1709,0,0
616,-685,0,0,0,0,0,0,0,0,0,-1,1840,1709,0,0
623,-685,0,0,0,0,0,0,0,0,0,-1,1847,1709,0,0
630,-685,0,0,0,0,0,0,0,0,0,-1,1854,1709,0,0
637,-685,0,0,0,0,0,0,0,0,0,-1,1861,1709,0,0
644,-685,0,0,0,0,0,0,0,0,0,-1,1868,1709,0,0
651,-685,0,0,0,0,0,0,0,0,0,-1,1875,1709,0,0
658,-685,0,0,0,0,0,0,0,0,0,-1,1882,1709,0,0
665,-685,0,0,0,0,0,0,0,0,0,-1,1889,1709,0,0
672,-685,0,0,0,0,0,0,0,0,0,-1,1896,1709,0,0
679,-685,0,0,0,0,0,0,0,0,0,-1,1903,1709,0,0
686,-685,0,0,0,0,0,0,0,0,0,-1,1910,1709,0,0
693,-685,0,0,0,0,0,0,0,0,0,-1,1917,1709,0,0
700,-685,0,0,0,0,0,0,0,0,0,-1,1924,1709,0,0
707,-685,0,0,0,0,0,0,0,0,0,-1,1931,1709,0,0
714,-685,0,0,0,0,0,0,0,0,0,-1,1938,1709,0,0
721,-685,0,0,0,0,0,0,0,0,0,-1,1945,1709,0,0
728,-685,0,0,0,0,0,0,0,0,0,-1,1952,1709,0,0
735,-685,0,0,0,0,0,0,0,0,0,-1,1959,1709,0,0
742,-685,0,0,0,0,0,0,0,0,0,-1,1966,1709,0,0
749,-685,0,0,0,0,0,0,0,0,0,-1,1973,1709,0,0
756,-685,0,0,0,0,0,0,0,0,0,-1,1980,1709,0,0
763,-685,0,0,0,0,0,0,0,0,0,-1,1987,1709,0,0
770,-685,0,0,0,0,0,0,0,0,0,-1,1994,1709,0,0
777,-685,0,0,0,0,0,0,0,0,0,-1,2001,1709,0,0
784,-685,0,0,0,0,0,0,0,0,0,-1,2008,1709,0,0
791,-685,0,0,0,0,0,0,0,0,0,-1,2015,1709,0,0
798,-685,0,0,0,0,0,0,0,0,0,-1,2022,1709,0,0
805,-685,0,0,0,0,0,0,0,0,0,-1,2029,1709,0,0
812,-685,0,0,0,0,0,0,0,0,0,-1,2036,1709,0,0
-700,-692,0,0,0,0,0,0,0,0,0,-1,524,1716,0,0
-693,-692,0,0,0,0,0,0,0,0,0,-1,531,1716,0,0
-686,-692,0,0,0,0,0,0,0,0,0,-1,538,1716,0,0
-679,-692,0,0,0,0,0,0,0,0,0,-1,545,1716,0,0
-672,-692,0,0,0,0,0,0,0,0,0,-1,552,1716,0,0
-665,-692,0,0,0,0,0,0,0,0,0,-1,559,1716,0,0
-658,-692,0,0,0,0,0,0,0,0,0,-1,566,1716,0,0
-651,-692,0,0,0,0,0,0,0,0,0,-1,573,1716,0,0
-644,-692,0,0,0,0,0,0,0,0,0,-1,580,1716,0,0
-637,-692,0,0,0,0,0,0,0,0,0,-1,587,1716,0,0
-630,-692,0,0,0,0,0,0,0,0,0,-1,594,1716,0,0
-623,-692,0,0,0,0,0,0,0,0,0,-1,601,1716,0,0
-616,-692,0,0,0,0,0,0,0,0,0,-1,608,1716,0,0
-609,-692,0,0,0,0,0,0,0,0,0,-1,615,1716,0,0
-602,-692,0,0,0,0,0,0,0,0,0,-1,622,1716,0,0
-595,-692,0,0,0,0,0,0,0,0,0,-1,629,1716,0,0
-588,-692,0,0,0,0,0,0,0,0,0,-1,636,1716,0,0
-581,-692,0,0,0,0,0,0,0,0,0,-1,643,1716,0,0
-574,-692,0,0,0,0,0,0,0,0,0,-1,650,1716,0,0
-567,-692,0,0,0,0,0,0,0,0,0,-1,657,1716,0,0
-560,-692,0,0,0,0,0,0,0,0,0,-1,664,1716,0,0
-553,-692,0,0,0,0,0,0,0,0,0,-1,671,1716,0,0
-546,-692,0,0,0,0,0,0,0,0,0,-1,678,1716,0,0
-539,-692,0,0,0,0,0,0,0,0,0,-1,685,1716,0,0
-532,-692,0,0,0,0,0,0,0,0,0,-1,692,1716,0,0
-525,-692,0,0,0,0,0,0,0,0,0,-1,699,1716,0,0
-518,-692,0,0,0,0,0,0,0,0,0,-1,706,1716,0,0
-511,-692,0,0,0,0,0,0,0,0,0,-1,713,1716,0,0
-504,-692,0,0,0,0,0,0,0,0,0,-1,720,1716,0,0
-497,-692,0,0,0,0,0,0,0,0,0,-1,727,1716,0,0
-490,-692,0,0,0,0,0,0,0,0,0,-1,734,1716,0,0
-483,-692,0,0,0,0,0,0,0,0,0,-1,741,1716,0,0
-476,-692,0,0,0,0,0,0,0,0,0,-1,748,1716,0,0
-469,-692,0,0,0,0,0,0,0,0,0,-1,755,1716,0,0
-462,-692,0,0,0,0,0,0,0,0,0,-1,762,1716,0,0
-455,-692,0,0,0,0,0,0,0,0,0,-1,769,1716,0,0
-448,-692,0,0,0,0,0,0,0,0,0,-1,776,1716,0,0
-441,-692,0,0,0,0,0,0,0,0,0,-1,783,1716,0,0
-434,-692,0,0,0,0,0,0,0,0,0,-1,790,1716,0,0
-427,-692,0,0,0,0,0,0,0,0,0,-1,797,1716,0,0
-420,-692,0,0,0,0,0,0,0,0,0,-1,804,1716,0,0
-413,-692,0,0,0,0,0,0,0,0,0,-1,811,1716,0,0
-406,-692,0,0,0,0,0,0,0,0,0,-1,818,1716,0,0
-399,-692,0,0,0,0,0,0,0,0,0,-1,825,1716,0,0
-392,-692,0,0,0,0,0,0,0,0,0,-1,832,1716,0,0
-385,-692,0,0,0,0,0,0,0,0,0,-1,839,1716,0,0
-378,-692,0,0,0,0,0,0,0,0,0,-1,846,1716,0,0
-371,-692,0,0,0,0,0,0,0,0,0,-1,853,1716,0,0
-364,-692,0,0,0,0,0,0,0,0,0,-1,860,1716,0,0
-357,-692,0,0,0,0,0,0,0,0,0,-1,867,1716,0,0
-350,-692,0,0,0,0,0,0,0,0,0,-1,874,1716,0,0
-343,-692,0,0,0,0,0,0,0,0,0,-1,881,1716,0,0
-336,-692,0,0,0,0,0,0,0,0,0,-1,888,1716,0,0
-329,-692,4.53094,1.40002,0,0,0,0,0,0,0,-1,895,1716,4.53094,-1.40002
-322,-692,2.43134,1.58606,0,0,0,0,0,0,0,-1,902,1716,2.43134,-1.58603
-315,-692,2.14673,1.83606,-0.0374109,-0.00408639,0.0144296,0.00129323,-0.0427905,1.21394,0.0289677,0.0443449,909,1716,2.1467,-1.83607
-308,-692,1.79889,2.33716,-0.0401325,-0.0104848,0.0169121,-0.00281947,-0.0477978,1.14524,0.0309682,0.0473304,916,1716,1.7989,-2.33716
-301,-692,1.03082,2.7832,-0.038853,-0.0149837,0.0190593,-0.00443069,-0.049406,1.06512,0.0315643,0.0481714,923,1716,1.0308,-2.78321
-294,-692,0.312317,3.09631,0,0,0,0,0,0,0,-1,930,1716,0.312315,-3.09634
-287,-692,3.7392,-2.09021,0,0,0,0,0,0,0,-1,937,1716,3.73919,2.09016
-280,-692,3.27728,-1.95093,-0.0292453,-0.020204,0.02146,-0.00279362,-0.0466557,0.889208,0.0302157,0.0471375,944,1716,3.2773,1.95097
-273,-692,2.95349,-1.54761,-0.0229588,-0.0169377,0.0199891,0.000266224,-0.0401628,0.860142,0.0268644,0.0439776,951,1716,2.95351,1.54759
-266,-692,2.51105,-1.02905,-0.0176848,-0.0129409,0.0191363,0.00396989,-0.0345955,0.847059,0.0244945,0.0419648,958,1716,2.51103,1.02904
-259,-692,2.07684,-0.477417,0,0,0,0,0,0,0,-1,965,1716,2.07685,0.477458
-252,-692,5.05878,2.79175,0,0,0,0,0,0,0,-1,972,1716,5.05875,-2.7918
-245,-692,2.10364,2.34998,-0.0059589,0.00127036,0.0146537,0.0127486,-0.0174372,0.90632,0.0174977,0.0419529,979,1716,2.10364,-2.34999
-238,-692,2.07251,2.60083,-0.00574494,0.00629623,0.0130817,0.0146763,-0.014125,1.00106,0.0166295,0.0386979,986,1716,2.07251,-2.60088
-231,-692,2.02875,2.72644,-0.0061354,0.0092396,0.011206,0.0151415,-0.0120373,1.08604,0.0157258,0.0310365,993,1716,2.02877,-2.72642
-224,-692,1.94745,2.71313,-0.00600107,0.0116249,0.00917139,0.0155313,-0.00990749,1.16813,0.0148062,0.0164339,1000,1716,1.94742,-2.71318
-217,-692,1.9549,2.73828,-0.00605897,0.0131211,0.00689997,0.0153454,-0.00828326,1.25895,0.0138436,0.0119724,1007,1716,1.95491,-2.73824
-210,-692,1.97375,2.77893,-0.0058851,0.0121095,0.00438036,0.0131191,-0.00689474,1.34426,0.0117398,0.0118921,1014,1716,1.97373,-2.77899
-203,-692,1.97925,2.80066,-0.00564142,0.00950476,0.00250006,0.00990675,-0.00604342,1.41137,0.00929844,0.0140023,1021,1716,1.97926,-2.80067
-196,-692,1.96851,2.8446,-0.00514883,0.00716333,0.000738645,0.00720749,-0.00519298,1.51109,0.00719084,0.0178515,1028,1716,1.96849,-2.84458
-189,-692,1.95569,2.85828,-0.00450887,0.0049893,-0.000359158,0.00500286,-0.00452243,-1.53305,0.00550176,0.00935775,1035,1716,1.95564,-2.85831
-182,-692,1.97168,2.88843,-0.0037332,0.00260825,-0.00162687,0.00300126,-0.00412621,-1.33376,0.0041321,0.0129983,1042,1716,1.97167,-2.88841
-175,-692,1.97009,2.9043,-0.00283552,0.00141958,-0.00217656,0.00233569,-0.00375163,-1.1724,0.00354607,0.0137513,1049,1716,1.97014,-2.90428
-168,-692,1.96802,2.92834,-0.00201076,0.000716773,-0.00177735,0.00159328,-0.00288727,-1.11264,0.00262256,0.0110145,1056,1716,1.96803,-2.9283
-161,-692,1.98071,2.96411,-0.00139636,0.000324142,-0.00149291,0.00118691,-0.00225914,-1.04678,0.00202142,0.0133563,1063,1716,1.98067,-2.96417
-154,-692,1.97388,2.98279,-0.000838134,0.00018555,-0.00107042,0.000860211,-0.0015128,-1.00841,0.00138722,0.0136099,1070,1716,1.97382,-2.98277
-147,-692,1.97327,2.99023,-0.000391081,1.76332e-05,-0.000545841,0.000396118,-0.000769566,-0.964516,0.000684423,0.0114769,1077,1716,1.9733,-2.99025
-140,-692,1.98401,3.01782,-4.19886e-05,-3.59016e-05,-0.000103561,6.4661e-05,-0.000142551,-0.800088,0.000122419,0.00949739,1084,1716,1.98404,-3.01779
-133,-692,1.98425,3.05957,0.00045042,2.43476e-05,0.00041385,0.000702848,-0.00022808,0.547703,0.000560286,0.00929281,1091,1716,1.98427,-3.05961
-126,-692,1.98071,3.06775,0.000825632,2.20839e-05,0.00094611,0.00145174,-0.000604026,0.584607,0.00122007,0.00738535,1098,1716,1.98073,-3.06772
-119,-692,1.97754,3.08923,0.000977466,-0.00016992,0.00141827,0.00193368,-0.00112614,0.593208,0.00178698,0.0106156,1105,1716,1.9775,-3.08924
-112,-692,1.99048,3.09131,0.000550613,-0.00080282,0.00192269,0.0019122,-0.00216441,0.616187,0.00235513,0.0100844,1112,1716,1.99048,-3.0913
-105,-692,2.0199,3.08167,-0.00035827,-0.00165759,0.00219267,0.00127896,-0.00329482,0.641375,0.00272483,0.0137567,1119,1716,2.01991,-3.08165
-98,-692,2.02856,3.06335,-0.00118018,-0.00218012,0.00195059,0.000333493,-0.00369379,0.659941,0.00258088,0.0149725,1126,1716,2.02852,-3.06332
-91,-692,2.00708,3.0929,-0.00215509,-0.0029567,0.00149937,-0.00100388,-0.00410791,0.654794,0.00247286,0.0179732,1133,1716,2.00711,-3.09286
-84,-692,2.0061,3.13574,-0.00324008,-0.00398437,0.000665505,-0.00284973,-0.00437471,0.53046,0.00256405,0.0192568,1140,1716,2.0061,-3.13578
-77,-692,1.99634,3.16431,-0.00401164,-0.00454727,-0.000696331,-0.0035334,-0.00502551,-0.601811,0.0029802,0.011829,1147,1716,1.99634,-3.16433
-70,-692,1.98071,3.17261,-0.00469662,-0.00520297,-0.00208371,-0.00285076,-0.00704883,-0.724944,0.00409435,0.0122673,1154,1716,1.98072,-3.17266
-63,-692,1.97986,3.18445,-0.005335,-0.00553328,-0.00346851,-0.00196421,-0.00890407,-0.771111,0.00540169,0.0132185,1161,1716,1.9799,-3.18448
-56,-692,1.97437,3.23462,-0.00520463,-0.00582486,-0.00486126,-0.000643609,-0.0103859,-0.753545,0.00671967,0.0155728,1168,1716,1.97438,-3.23457
-49,-692,1.97034,3.38574,-0.0056132,-0.0045542,-0.00521619,0.0001593,-0.0103267,-0.83598,0.00693817,0.0217653,1175,1716,1.9703,-3.38575
-42,-692,1.99731,3.3335,-0.00585592,-0.0026113,-0.00536252,0.00136894,-0.00983616,-0.932285,0.00705814,0.0255134,1182,1716,1.99726,-3.3335
-35,-692,1.99805,3.26489,-0.00582115,-0.000151847,-0.00523323,0.00296514,-0.00893813,-1.03361,0.00715495,0.0265841,1189,1716,1.99806,-3.26484
-28,-692,1.96338,3.23499,-0.00599395,0.00199866,-0.00481065,0.00425638,-0.00825167,-1.132,0.0073433,0.025063,1196,1716,1.96335,-3.23499
-21,-692,2.00269,3.2384,-0.00627885,0.00499765,-0.00385158,0.00618762,-0.00746882,-1.27114,0.0078961,0.0190898,1203,1716,2.00266,-3.23837
-14,-692,2.01331,3.24243,-0.00664838,0.00790235,-0.00242006,0.0082943,-0.00704032,-1.41023,0.00886331,0.0133205,1210,1716,2.01325,-3.24246
-7,-692,2.02625,3.24365,-0.00721276,0.0108792,-0.00165354,0.0110291,-0.00736265,-1.4804,0.0106886,0.0150468,1217,1716,2.02622,-3.24367
0,-692,2.04126,3.25696,-0.00811535,0.0142287,-0.00098381,0.014272,-0.00815858,-1.52688,0.0131096,0.0171446,1224,1716,2.04125,-3.25694
7,-692,1.98621,3.30627,-0.00969994,0.0155711,-0.000423258,0.0155782,-0.00970703,-1.55405,0.014729,0.0197966,1231,1716,1.98616,-3.30629
14,-692,1.9978,3.30969,-0.0115222,0.0169555,-0.000528153,0.0169653,-0.011532,-1.55226,0.0165523,0.0212692,1238,1716,1.99777,-3.30972
21,-692,2.02734,3.26294,-0.0125732,0.0177989,-0.00152697,0.0178754,-0.0126498,-1.52069,0.0177096,0.0233128,1245,1716,2.02737,-3.263
28,-692,1.9657,3.23755,-0.0138869,0.0179518,-0.0028299,0.0182014,-0.0141365,-1.48283,0.0187194,0.0232397,1252,1716,1.96569,-3.23761
35,-692,1.93994,3.33789,-0.0135966,0.0174272,-0.00478785,0.0181493,-0.0143187,-1.42111,0.0187888,0.0220676,1259,1716,1.93989,-3.33788
42,-692,1.97009,3.40308,-0.0122488,0.0162945,-0.00672807,0.0178009,-0.0137552,-1.35053,0.0182688,0.0213497,1266,1716,1.97008,-3.40308
49,-692,1.97717,3.36621,-0.0104601,0.014945,-0.00836848,0.0174538,-0.0129689,-1.27953,0.0176281,0.0249996,1273,1716,1.9772,-3.36616
56,-692,1.9325,3.32837,-0.00694529,0.0127521,-0.0100392,0.016967,-0.0111601,-1.17331,0.0163541,0.0283773,1280,1716,1.93244,-3.32835
63,-692,1.96326,3.35156,-0.00300549,0.00984187,-0.0103482,0.015598,-0.00876166,-1.06317,0.0142475,0.0256201,1287,1716,1.96325,-3.35154
70,-692,2.03625,3.34595,0.00198568,0.00815114,-0.0103356,0.0158539,-0.00571712,-0.93033,0.0129043,0.0221834,1294,1716,2.0363,-3.34597
77,-692,2.07068,3.30566,0.00911156,0.0059901,-0.00966802,0.017344,-0.00224236,-0.705373,0.012378,0.025083,1301,1716,2.07073,-3.30564
84,-692,2.09131,3.25623,0.0152296,0.00358298,-0.0088534,0.0200032,-0.00119058,-0.494497,0.0137495,0.0304085,1308,1716,2.0913,-3.25617
91,-692,2.08765,3.30139,0.0213088,0.00102213,-0.00735052,0.0236921,-0.0013612,-0.313544,0.0162675,0.0300808,1315,1716,2.08762,-3.30134
98,-692,1.98767,3.31665,0.0276233,-0.00123678,-0.00498908,0.0284614,-0.00207491,-0.166438,0.0197024,0.026833,1322,1716,1.98773,-3.31667
105,-692,2.07397,3.22754,0.0325016,-0.00296147,-0.00224823,0.0326436,-0.00310343,-0.06306,0.0228672,0.0343303,1329,1716,2.074,-3.22759
112,-692,2.10193,3.21252,0.0357149,-0.00258415,-8.92149e-06,0.0357149,-0.00258415,-0.000232943,0.0247164,0.0373851,1336,1716,2.10199,-3.21247
119,-692,2.02917,3.22681,0.0380944,-0.00283784,0.00201291,0.0381931,-0.00293659,0.049019,0.0264952,0.0302092,1343,1716,2.02923,-3.22687
126,-692,2.03552,3.24292,0.0379621,-0.00179678,0.00370728,0.0383048,-0.00213951,0.0921851,0.0262788,0.0290504,1350,1716,2.03554,-3.24291
133,-692,2.1283,3.19348,0.0355386,-0.000196725,0.00382173,0.0359428,-0.000600871,0.105358,0.0241646,0.0227398,1357,1716,2.12824,-3.19343
140,-692,2.19836,3.19299,0.0319256,0.00217934,0.00348559,0.0323286,0.00177637,0.1151,0.0209853,0.0267258,1364,1716,2.19834,-3.19297
147,-692,2.2301,3.34473,0.0269641,0.00486506,0.00244571,0.0272315,0.00459763,0.108914,0.0168324,0.0287282,1371,1716,2.23016,-3.34477
154,-692,2.2041,3.30957,0.0217164,0.00727066,0.00139085,0.0218491,0.00713797,0.0951168,0.0128647,0.024897,1378,1716,2.20408,-3.30959
161,-692,2.24768,3.21973,0.0153679,0.0102088,0.000458778,0.0154084,0.0101684,0.0880059,0.00904646,0.0295672,1385,1716,2.24766,-3.21972
168,-692,2.13306,3.28662,0.00922707,0.0130746,-0.00158157,0.0136412,0.00866041,-1.22675,0.00797071,0.0269921,1392,1716,2.13301,-3.28667
175,-692,2.14368,3.35632,0.00302953,0.0139406,-0.00287133,0.0146501,0.00232005,-1.32856,0.00909258,0.0263807,1399,1716,2.14372,-3.35631
182,-692,2.16516,3.30151,-0.00315922,0.0162718,-0.00428546,0.0171749,-0.00406239,-1.36308,0.0130171,0.0174181,1406,1716,2.16522,-3.30155
189,-692,2.13843,3.23547,-0.00366984,0.0168976,-0.00490914,0.0180092,-0.0047815,-1.34811,0.0138773,0.01461,1413,1716,2.13844,-3.23544
196,-692,2.13428,3.20325,-0.0039186,0.0171135,-0.00513919,0.0183021,-0.00510719,-1.34351,0.014213,0.0111464,1420,1716,2.13432,-3.20328
203,-692,2.12744,3.18823,-0.00381085,0.0162409,-0.0047079,0.0172912,-0.00486119,-1.35129,0.0134441,0.0126683,1427,1716,2.12745,-3.18823
210,-692,2.15735,3.18958,-0.00315094,0.0143066,-0.00412359,0.0152316,-0.00407595,-1.35013,0.0117511,0.0160264,1434,1716,2.15732,-3.18961
217,-692,2.12463,3.15698,-0.0024784,0.0127195,-0.00292342,0.0132624,-0.00302134,-1.38717,0.010002,0.0162289,1441,1716,2.12467,-3.15696
224,-692,2.12415,3.13464,-0.00198148,0.0109037,-0.00189662,0.0111771,-0.00225485,-1.42765,0.00830564,0.0122561,1448,1716,2.12416,-3.13466
231,-692,2.14661,3.13049,-0.00159144,0.00879418,-0.00118065,0.0089267,-0.00172397,-1.45902,0.00660126,0.0109751,1455,1716,2.14665,-3.13045
238,-692,2.1333,3.04749,-0.00113726,0.00693999,-0.00035823,0.00695585,-0.00115312,-1.52656,0.00506554,0.01582,1462,1716,2.13332,-3.04754
245,-692,2.09998,3.03979,-0.00062075,0.00504105,0.000187989,0.00504729,-0.000626985,1.53764,0.00359214,0.0179649,1469,1716,2.09992,-3.03985
252,-692,2.11328,3.07788,-0.000215285,0.0033886,0.000491885,0.00345453,-0.000281215,1.43755,0.00240225,0.0168181,1476,1716,2.11334,-3.07791
259,-692,2.14331,3.05908,-0.000166228,0.00217212,0.000223179,0.00219323,-0.000187338,1.47649,0.00152843,0.00955829,1483,1716,2.1433,-3.0591
266,-692,2.14624,3.03784,-0.000107963,0.000740469,2.59871e-05,0.000741265,-0.000108758,1.54021,0.000534133,0.00989459,1490,1716,2.14622,-3.03783
273,-692,2.15234,3.02527,-9.86958e-05,-0.000214997,-0.000213893,6.48104e-05,-0.000378503,-0.652673,0.000276482,0.0124604,1497,1716,2.15238,-3.0253
280,-692,2.17114,3.00464,-0.0003015,-0.00108993,-0.000386772,-0.000143449,-0.00124798,-0.387934,0.000788534,0.0117044,1504,1716,2.17115,-3.00462
287,-692,2.15723,2.97607,-0.000352568,-0.00175818,-0.000481698,-0.000203336,-0.00190741,-0.300428,0.00120954,0.0105212,1511,1716,2.15721,-2.97613
294,-692,2.16443,2.9585,5.89904e-05,-0.0019861,-0.000630194,0.000237588,-0.00216469,-0.276159,0.00152849,0.00974377,1518,1716,2.16438,-2.95855
301,-692,2.151,2.94897,0.000511837,-0.00200726,-0.000908714,0.000805422,-0.00230085,-0.312492,0.00186139,0.0122963,1525,1716,2.15102,-2.94893
308,-692,2.13159,2.93555,0.000842188,-0.00181945,-0.000999278,0.00117559,-0.00215286,-0.32203,0.00194909,0.0155787,1532,1716,2.1316,-2.93552
315,-692,2.14868,2.89319,0.00147231,-0.00148822,-0.0013101,0.0019688,-0.00198471,-0.362245,0.00228256,0.0143131,1539,1716,2.14874,-2.89325
322,-692,2.1261,2.84607,0.00203049,-0.00139434,-0.00187242,0.00285546,-0.00221931,-0.415002,0.00293758,0.0171762,1546,1716,2.12612,-2.84607
329,-692,2.13049,2.82666,0.00281863,-0.00117827,-0.0024414,0.00397521,-0.00233485,-0.442418,0.00368392,0.0149999,1553,1716,2.13052,-2.82671
336,-692,2.14185,2.81787,0.0031799,-0.00132501,-0.00317212,0.00481794,-0.00296305,-0.476669,0.00453471,0.0109037,1560,1716,2.1418,-2.81781
343,-692,2.14868,2.79675,0.00473527,-0.00201181,-0.00420658,0.00675395,-0.0040305,-0.447428,0.00629224,0.0122072,1567,1716,2.14868,-2.79678
350,-692,2.151,2.7616,0.00631316,-0.00326332,-0.00550037,0.00881747,-0.00576763,-0.427252,0.00848186,0.0130133,1574,1716,2.15095,-2.76164
357,-692,2.15796,2.76917,0.00802198,-0.0045974,-0.00709568,0.0112076,-0.00778302,-0.421982,0.0110235,0.0158141,1581,1716,2.15796,-2.76914
364,-692,2.18689,2.73511,0.0110318,-0.00650297,-0.00952106,0.0152073,-0.0106784,-0.413292,0.0150212,0.0218475,1588,1716,2.18689,-2.73511
371,-692,2.25586,2.67578,0.0147327,-0.00848512,-0.0123716,0.0200892,-0.0138416,-0.408596,0.0197003,0.031153,1595,1716,2.2559,-2.6758
378,-692,2.25427,2.63745,0.0184406,-0.0110753,-0.0149649,0.0247004,-0.0173351,-0.396181,0.0243931,0.0373744,1602,1716,2.25422,-2.63742
385,-692,2.41699,2.72461,0.0219124,-0.0145621,-0.0179068,0.0292339,-0.0218835,-0.388127,0.0296142,0.0420751,1609,1716,2.41704,-2.72465
392,-692,2.65125,2.76831,0.0263198,-0.0168487,-0.021914,0.0354944,-0.0260233,-0.39649,0.0356573,0.0449043,1616,1716,2.65128,-2.76834
399,-692,3.34729,3.28076,0.0294606,-0.0194823,-0.0254418,0.0402898,-0.0303115,-0.402418,0.0408971,0.0435223,1623,1716,3.34723,-3.28076
406,-692,3.52942,3.49841,0.0331846,-0.021818,-0.0294738,0.0459949,-0.0346284,-0.410002,0.0467018,0.0424753,1630,1716,3.52946,-3.49836
413,-692,3.74585,3.5531,0.034661,-0.0238653,-0.0325562,0.0491727,-0.038377,-0.419308,0.0506748,0.0442046,1637,1716,3.74587,-3.55307
420,-692,4.48022,3.76855,0.0333125,-0.026266,-0.0331582,0.0480975,-0.041051,-0.419434,0.0515235,0.0472947,1644,1716,4.48022,-3.76857
427,-692,3.94763,3.41504,0,0,0,0,0,0,0,-1,1651,1716,3.94762,-3.41506
434,-692,3.58167,4.08826,0.0281048,-0.03233,-0.0335034,0.0430047,-0.0472299,-0.41846,0.052116,0.0478256,1658,1716,3.58165,-4.08827
441,-692,3.16455,4.46399,0,0,0,0,0,0,0,-1,1665,1716,3.16459,-4.46404
448,-692,2.68665,4.56482,0,0,0,0,0,0,0,-1,1672,1716,2.68669,-4.56488
455,-692,0,0,0,0,0,0,0,0,0,-1,1679,1716,0,0
462,-692,0,0,0,0,0,0,0,0,0,-1,1686,1716,0,0
469,-692,0,0,0,0,0,0,0,0,0,-1,1693,1716,0,0
476,-692,0,0,0,0,0,0,0,0,0,-1,1700,1716,0,0
483,-692,0,0,0,0,0,0,0,0,0,-1,1707,1716,0,0
490,-692,0,0,0,0,0,0,0,0,0,-1,1714,1716,0,0
497,-692,0,0,0,0,0,0,0,0,0,-1,1721,1716,0,0
504,-692,0,0,0,0,0,0,0,0,0,-1,1728,1716,0,0
511,-692,0,0,0,0,0,0,0,0,0,-1,1735,1716,0,0
518,-692,0,0,0,0,0,0,0,0,0,-1,1742,1716,0,0
525,-692,0,0,0,0,0,0,0,0,0,-1,1749,1716,0,0
532,-692,0,0,0,0,0,0,0,0,0,-1,1756,1716,0,0
539,-692,0,0,0,0,0,0,0,0,0,-1,1763,1716,0,0
546,-692,0,0,0,0,0,0,0,0,0,-1,1770,1716,0,0
553,-692,0,0,0,0,0,0,0,0,0,-1,1777,1716,0,0
560,-692,0,0,0,0,0,0,0,0,0,-1,1784,1716,0,0
567,-692,0,0,0,0,0,0,0,0,0,-1,1791,1716,0,0
574,-692,0,0,0,0,0,0,0,0,0,-1,1798,1716,0,0
581,-692,0,0,0,0,0,0,0,0,0,-1,1805,1716,0,0
588,-692,0,0,0,0,0,0,0,0,0,-1,1812,1716,0,0
595,-692,0,0,0,0,0,0,0,0,0,-1,1819,1716,0,0
602,-692,0,0,0,0,0,0,0,0,0,-1,1826,1716,0,0
609,-692,0,0,0,0,0,0,0,0,0,-1,1833,1716,0,0
616,-692,0,0,0,0,0,0,0,0,0,-1,1840,1716,0,0
623,-692,0,0,0,0,0,0,0,0,0,-1,1847,1716,0,0
630,-692,0,0,0,0,0,0,0,0,0,-1,1854,1716,0,0
637,-692,0,0,0,0,0,0,0,0,0,-1,1861,1716,0,0
644,-692,0,0,0,0,0,0,0,0,0,-1,1868,1716,0,0
651,-692,0,0,0,0,0,0,0,0,0,-1,1875,1716,0,0
658,-692,0,0,0,0,0,0,0,0,0,-1,1882,1716,0,0
665,-692,0,0,0,0,0,0,0,0,0,-1,1889,1716,0,0
672,-692,0,0,0,0,0,0,0,0,0,-1,1896,1716,0,0
679,-692,0,0,0,0,0,0,0,0,0,-1,1903,1716,0,0
686,-692,0,0,0,0,0,0,0,0,0,-1,1910,1716,0,0
693,-692,0,0,0,0,0,0,0,0,0,-1,1917,1716,0,0
700,-692,0,0,0,0,0,0,0,0,0,-1,1924,1716,0,0
707,-692,0,0,0,0,0,0,0,0,0,-1,1931,1716,0,0
714,-692,0,0,0,0,0,0,0,0,0,-1,1938,1716,0,0
721,-692,0,0,0,0,0,0,0,0,0,-1,1945,1716,0,0
728,-692,0,0,0,0,0,0,0,0,0,-1,1952,1716,0,0
735,-692,0,0,0,0,0,0,0,0,0,-1,1959,1716,0,0
742,-692,0,0,0,0,0,0,0,0,0,-1,1966,1716,0,0
749,-692,0,0,0,0,0,0,0,0,0,-1,1973,1716,0,0
756,-692,0,0,0,0,0,0,0,0,0,-1,1980,1716,0,0
763,-692,0,0,0,0,0,0,0,0,0,-1,1987,1716,0,0
770,-692,0,0,0,0,0,0,0,0,0,-1,1994,1716,0,0
777,-692,0,0,0,0,0,0,0,0,0,-1,2001,1716,0,0
784,-692,0,0,0,0,0,0,0,0,0,-1,2008,1716,0,0
791,-692,0,0,0,0,0,0,0,0,0,-1,2015,1716,0,0
798,-692,0,0,0,0,0,0,0,0,0,-1,2022,1716,0,0
805,-692,0,0,0,0,0,0,0,0,0,-1,2029,1716,0,0
812,-692,0,0,0,0,0,0,0,0,0,-1,2036,1716,0,0
-700,-699,0,0,0,0,0,0,0,0,0,-1,524,1723,0,0
-693,-699,0,0,0,0,0,0,0,0,0,-1,531,1723,0,0
-686,-699,0,0,0,0,0,0,0,0,0,-1,538,1723,0,0
-679,-699,0,0,0,0,0,0,0,0,0,-1,545,1723,0,0
-672,-699,0,0,0,0,0,0,0,0,0,-1,552,1723,0,0
-665,-699,0,0,0,0,0,0,0,0,0,-1,559,1723,0,0
-658,-699,0,0,0,0,0,0,0,0,0,-1,566,1723,0,0
-651,-699,0,0,0,0,0,0,0,0,0,-1,573,1723,0,0
-644,-699,0,0,0,0,0,0,0,0,0,-1,580,1723,0,0
-637,-699,0,0,0,0,0,0,0,0,0,-1,587,1723,0,0
-630,-699,0,0,0,0,0,0,0,0,0,-1,594,1723,0,0
-623,-699,0,0,0,0,0,0,0,0,0,-1,601,1723,0,0
-616,-699,0,0,0,0,0,0,0,0,0,-1,608,1723,0,0
-609,-699,0,0,0,0,0,0,0,0,0,-1,615,1723,0,0
-602,-699,0,0,0,0,0,0,0,0,0,-1,622,1723,0,0
-595,-699,0,0,0,0,0,0,0,0,0,-1,629,1723,0,0
-588,-699,0,0,0,0,0,0,0,0,0,-1,636,1723,0,0
-581,-699,0,0,0,0,0,0,0,0,0,-1,643,1723,0,0
-574,-699,0,0,0,0,0,0,0,0,0,-1,650,1723,0,0
-567,-699,0,0,0,0,0,0,0,0,0,-1,657,1723,0,0
-560,-699,0,0,0,0,0,0,0,0,0,-1,664,1723,0,0
-553,-699,0,0,0,0,0,0,0,0,0,-1,671,1723,0,0
-546,-699,0,0,0,0,0,0,0,0,0,-1,678,1723,0,0
-539,-699,0,0,0,0,0,0,0,0,0,-1,685,1723,0,0
-532,-699,0,0,0,0,0,0,0,0,0,-1,692,1723,0,0
-525,-699,0,0,0,0,0,0,0,0,0,-1,699,1723,0,0
-518,-699,0,0,0,0,0,0,0,0,0,-1,706,1723,0,0
-511,-699,0,0,0,0,0,0,0,0,0,-1,713,1723,0,0
-504,-699,0,0,0,0,0,0,0,0,0,-1,720,1723,0,0
-497,-699,0,0,0,0,0,0,0,0,0,-1,727,1723,0,0
-490,-699,0,0,0,0,0,0,0,0,0,-1,734,1723,0,0
-483,-699,0,0,0,0,0,0,0,0,0,-1,741,1723,0,0
-476,-699,0,0,0,0,0,0,0,0,0,-1,748,1723,0,0
-469,-699,0,0,0,0,0,0,0,0,0,-1,755,1723,0,0
-462,-699,0,0,0,0,0,0,0,0,0,-1,762,1723,0,0
-455,-699,0,0,0,0,0,0,0,0,0,-1,769,1723,0,0
-448,-699,0,0,0,0,0,0,0,0,0,-1,776,1723,0,0
-441,-699,0,0,0,0,0,0,0,0,0,-1,783,1723,0,0
-434,-699,0,0,0,0,0,0,0,0,0,-1,790,1723,0,0
-427,-699,0,0,0,0,0,0,0,0,0,-1,797,1723,0,0
-420,-699,0,0,0,0,0,0,0,0,0,-1,804,1723,0,0
-413,-699,0,0,0,0,0,0,0,0,0,-1,811,1723,0,0
-406,-699,0,0,0,0,0,0,0,0,0,-1,818,1723,0,0
-399,-699,0,0,0,0,0,0,0,0,0,-1,825,1723,0,0
-392,-699,0,0,0,0,0,0,0,0,0,-1,832,1723,0,0
-385,-699,0,0,0,0,0,0,0,0,0,-1,839,1723,0,0
-378,-699,0,0,0,0,0,0,0,0,0,-1,846,1723,0,0
-371,-699,0,0,0,0,0,0,0,0,0,-1,853,1723,0,0
-364,-699,0,0,0,0,0,0,0,0,0,-1,860,1723,0,0
-357,-699,0,0,0,0,0,0,0,0,0,-1,867,1723,0,0
-350,-699,0,0,0,0,0,0,0,0,0,-1,874,1723,0,0
-343,-699,0,0,0,0,0,0,0,0,0,-1,881,1723,0,0
-336,-699,0,0,0,0,0,0,0,0,0,-1,888,1723,0,0
-329,-699,0,0,0,0,0,0,0,0,0,-1,895,1723,0,0
-322,-699,0,0,0,0,0,0,0,0,0,-1,902,1723,0,0
-315,-699,1.88885,1.49915,-0.0482467,-0.00416739,0.0202684,0.00373546,-0.0561495,1.19902,0.0387383,0.0459132,909,1723,1.88889,-1.49914
-308,-699,2.01123,2.01672,-0.0501625,-0.0127205,0.0218838,-0.00264263,-0.0602404,1.13923,0.039309,0.049235,916,1723,2.0112,-2.01668
-301,-699,0.965149,2.73633,-0.0477078,-0.018837,0.0233896,-0.00578692,-0.0607579,1.06187,0.0387207,0.0475224,923,1723,0.965135,-2.73634
-294,-699,4.90112,-1.72815,0,0,0,0,0,0,0,-1,930,1723,4.90112,1.72817
-287,-699,4.1955,-1.4093,0,0,0,0,0,0,0,-1,937,1723,4.19552,1.40928
-280,-699,3.79846,-1.19873,-0.0339599,-0.0249115,0.0253931,-0.00364272,-0.0552287,0.873557,0.0356669,0.0445283,944,1723,3.79847,1.19878
-273,-699,3.50189,-0.743042,-0.0265942,-0.0206652,0.0240004,0.000553139,-0.0478125,0.846847,0.032061,0.0420596,951,1723,3.50188,0.743049
-266,-699,3.14911,-0.187744,-0.021177,-0.0156088,0.0231805,0.00495415,-0.04174,0.845165,0.0296165,0.0414892,958,1723,3.14909,0.187795
-259,-699,4.49188,2.19629,0,0,0,0,0,0,0,-1,965,1723,4.49186,-2.19625
-252,-699,4.64246,2.50708,0,0,0,0,0,0,0,-1,972,1723,4.64244,-2.50708
-245,-699,4.9895,2.69067,0,0,0,0,0,0,0,-1,979,1723,4.98951,-2.69073
-238,-699,2.06378,2.9082,0,0,0,0,0,0,0,-1,986,1723,2.06379,-2.90824
-231,-699,2.0202,2.80225,-0.00568394,0.0131432,0.0163371,0.0225847,-0.0151255,1.04677,0.0219135,0.0398779,993,1723,2.02022,-2.80226
-224,-699,1.94897,2.68372,-0.00504739,0.0164385,0.0141581,0.0234681,-0.012077,1.10995,0.0208703,0.0352334,1000,1723,1.94896,-2.68366
-217,-699,1.96497,2.7262,-0.00463422,0.0186564,0.0116633,0.0234928,-0.0094706,1.17771,0.019597,0.0240549,1007,1723,1.96494,-2.72615
-210,-699,2.01752,2.75586,-0.00407036,0.0179853,0.00877101,0.021048,-0.00713308,1.23485,0.0169186,0.0167351,1014,1723,2.01752,-2.75592
-203,-699,2.03027,2.79077,-0.00367378,0.0149269,0.00625917,0.0168369,-0.00558386,1.27461,0.0134772,0.0188509,1021,1723,2.03029,-2.79081
-196,-699,2.02161,2.81836,-0.00316423,0.0120811,0.00381982,0.0129847,-0.00406777,1.33853,0.0102841,0.0166446,1028,1723,2.02162,-2.81839
-189,-699,1.99536,2.87109,-0.00272314,0.00928464,0.00204187,0.00962236,-0.00306085,1.40689,0.00764231,0.0093768,1035,1723,1.99532,-2.87113
-182,-699,1.99475,2.88708,-0.00234195,0.00613824,6.72976e-05,0.00613877,-0.00234248,1.56286,0.00505752,0.0121812,1042,1723,1.99473,-2.88707
-175,-699,1.99646,2.91663,-0.00195194,0.00444516,-0.00107833,0.00462204,-0.00212882,-1.40821,0.00398523,0.0136613,1049,1723,1.99643,-2.91663
-168,-699,2.01501,2.94727,-0.00162778,0.003359,-0.00111532,0.00359708,-0.00186586,-1.36049,0.00320639,0.014838,1056,1723,2.01496,-2.94732
-161,-699,2.00818,2.96436,-0.00130949,0.00272188,-0.00126123,0.00308394,-0.00167156,-1.29124,0.00278566,0.0127783,1063,1723,2.00821,-2.96436
-154,-699,1.98572,2.97925,-0.00100265,0.00230221,-0.00120213,0.00269322,-0.00139366,-1.25633,0.00239899,0.0128009,1070,1723,1.98572,-2.97926
-147,-699,1.98914,2.98828,-0.00136893,0.0018693,-0.000902628,0.0021039,-0.00160354,-1.31651,0.00214698,0.0137436,1077,1723,1.98912,-2.98824
-140,-699,1.99463,3.01257,-0.00151811,0.00108473,-0.000857711,0.00134195,-0.00177533,-1.27944,0.00180555,0.00947235,1084,1723,1.99462,-3.01252
-133,-699,2.00195,3.05249,-0.000746298,0.00129617,-0.000298425,0.00133888,-0.000789008,-1.42864,0.00124213,0.00885772,1091,1723,2.00197,-3.05244
-126,-699,2.00171,3.06348,-0.000333289,0.00144601,0.000129194,0.00145534,-0.000342621,1.49869,0.00110233,0.0109833,1098,1723,2.00177,-3.06348
-119,-699,1.99561,3.08337,-0.000214293,0.00129531,0.000550587,0.00147478,-0.000393767,1.25569,0.00113739,0.0156922,1105,1723,1.9956,-3.08338
-112,-699,2.00061,3.10559,-0.000547543,0.000707932,0.00102128,0.00127897,-0.00111858,1.06096,0.00138526,0.010936,1112,1723,2.0006,-3.10557
-105,-699,2.0127,3.10657,-0.00116073,-0.000189314,0.00128758,0.000701125,-0.00205117,0.965758,0.00165153,0.0118199,1119,1723,2.01274,-3.10652
-98,-699,2.0293,3.09387,-0.00171164,-0.000678875,0.0011309,4.79537e-05,-0.00243847,0.999569,0.00164186,0.0137856,1126,1723,2.02925,-3.09383
-91,-699,2.02881,3.10315,-0.00240471,-0.00139637,0.000921435,-0.000850194,-0.00295089,1.03573,0.00175395,0.0175432,1133,1723,2.0288,-3.10314
-84,-699,2.01257,3.1449,-0.00318373,-0.00234863,0.000507188,-0.00210922,-0.00342313,1.12978,0.00199405,0.0196429,1140,1723,2.01263,-3.14495
-77,-699,2.00647,3.18176,-0.0036425,-0.0030192,-0.000305813,-0.00289421,-0.00376748,-1.18283,0.00227708,0.0140647,1147,1723,2.00641,-3.18171
-70,-699,2.00793,3.19666,-0.00406735,-0.00366362,-0.00106383,-0.00278267,-0.0049483,-0.879159,0.00286429,0.0163232,1154,1723,2.00789,-3.19668
-63,-699,1.99756,3.20984,-0.00445252,-0.00404837,-0.0018713,-0.00236827,-0.00613262,-0.839183,0.00357112,0.0144024,1161,1723,1.99759,-3.20982
-56,-699,1.99487,3.20837,-0.004257,-0.00437546,-0.00267366,-0.00164191,-0.00699054,-0.774323,0.00422088,0.0100061,1168,1723,1.99483,-3.20837
-49,-699,2.01038,3.21094,-0.00438357,-0.00354171,-0.00280038,-0.0011308,-0.00679448,-0.859996,0.00420373,0.0185724,1175,1723,2.01033,-3.21094
-42,-699,2.03284,3.25427,-0.00436805,-0.00223676,-0.00283622,-0.000272591,-0.00633222,-0.965102,0.00413361,0.0193325,1182,1723,2.03279,-3.25432
-35,-699,2.04114,3.26782,-0.00411719,-0.00055439,-0.00270834,0.000905888,-0.00557747,-1.0763,0.00405415,0.0184402,1189,1723,2.04113,-3.26778
-28,-699,2.04285,3.24084,-0.00397987,0.000972006,-0.0023003,0.00187566,-0.00488352,-1.19648,0.00402916,0.014357,1196,1723,2.04281,-3.24084
-21,-699,2.02551,3.24268,-0.00393555,0.00306764,-0.00152492,0.00338528,-0.00425319,-1.36543,0.00441955,0.01058,1203,1723,2.02553,-3.24273
-14,-699,2.01453,3.25574,-0.00403144,0.00507044,-0.000536801,0.00510199,-0.00406299,-1.51209,0.00530272,0.0105213,1210,1723,2.01449,-3.25579
-7,-699,2.01172,3.26904,-0.00429314,0.00715102,-0.000107029,0.00715202,-0.00429414,-1.56145,0.00667675,0.00880131,1217,1723,2.01176,-3.26903
0,-699,2.02783,3.27649,-0.00487275,0.00942677,0.000154164,0.00942843,-0.00487441,1.56002,0.00839612,0.0105911,1224,1723,2.02786,-3.27645
7,-699,2.0188,3.3103,-0.00602169,0.0101054,0.000261986,0.0101097,-0.00602595,1.55456,0.00941482,0.0158078,1231,1723,2.01884,-3.31028
14,-699,2.03662,3.29761,-0.00730915,0.0108058,-0.000112379,0.0108065,-0.00730985,-1.56459,0.0105242,0.0159153,1238,1723,2.03657,-3.29766
21,-699,2.05762,3.26697,-0.00793068,0.0111502,-0.00111804,0.0112155,-0.00799597,-1.51247,0.0111435,0.0164608,1245,1723,2.05756,-3.26692
28,-699,2.03772,3.26062,-0.00869357,0.0108872,-0.00229664,0.0111529,-0.00895933,-1.45559,0.0116348,0.0159649,1252,1723,2.03766,-3.26062
35,-699,2.03882,3.30811,-0.00827872,0.0102141,-0.00394746,0.0110215,-0.0090861,-1.36905,0.011627,0.013371,1259,1723,2.03878,-3.30812
42,-699,2.05615,3.32068,-0.00714606,0.00920777,-0.00550498,0.0108882,-0.00882646,-1.27453,0.011403,0.0127174,1266,1723,2.05612,-3.32074
49,-699,2.06384,3.3241,-0.00571803,0.00807119,-0.00682904,0.0108808,-0.00852762,-1.18049,0.0112329,0.0148464,1273,1723,2.06379,-3.32412
56,-699,2.06714,3.33984,-0.0029558,0.00634886,-0.00815383,0.0110842,-0.00769118,-1.04465,0.0108988,0.0146425,1280,1723,2.06713,-3.33978
63,-699,2.07288,3.33887,0.000111545,0.00418908,-0.00834761,0.0107433,-0.00644266,-0.90517,0.0100253,0.0110748,1287,1723,2.07283,-3.33881
70,-699,2.06763,3.3158,0.00296135,0.00242629,-0.00815565,0.0108539,-0.00546622,-0.769002,0.00959202,0.00961687,1294,1723,2.06764,-3.31576
77,-699,2.05383,3.30505,0.0060709,0.000966464,-0.00733947,0.0112892,-0.00425188,-0.618069,0.00927424,0.0100227,1301,1723,2.05386,-3.30505
84,-699,2.05127,3.29517,0.00913381,-0.000813771,-0.00637464,0.0122455,-0.00392544,-0.454109,0.00973949,0.0124166,1308,1723,2.05123,-3.29516
91,-699,2.04553,3.30579,0.0117757,-0.00255464,-0.00491849,0.0133014,-0.00408033,-0.300784,0.0104955,0.0128205,1315,1723,2.04557,-3.30577
98,-699,2.07104,3.31506,0.0142149,-0.00398109,-0.00282798,0.0146443,-0.00441047,-0.150684,0.011518,0.0117694,1322,1723,2.07106,-3.3151
105,-699,2.08447,3.29871,0.0154392,-0.0049,-0.0003827,0.0154464,-0.0049072,-0.018807,0.0122651,0.0162579,1329,1723,2.0845,-3.29865
112,-699,2.06531,3.27905,0.0154895,-0.00418879,0.00162423,0.0156226,-0.00432195,0.0818015,0.0121155,0.0227709,1336,1723,2.06526,-3.27902
119,-699,2.04688,3.29077,0.0149718,-0.0039256,0.00327097,0.0155219,-0.00447576,0.166635,0.0121186,0.0167219,1343,1723,2.04685,-3.29077
126,-699,2.07495,3.2937,0.0135107,-0.00257064,0.00470791,0.0147876,-0.00384752,0.264849,0.0113602,0.0173553,1350,1723,2.07497,-3.29373
133,-699,2.10022,3.26526,0.0115867,-0.000604213,0.00497775,0.013361,-0.00237848,0.342401,0.00979685,0.0150618,1357,1723,2.10021,-3.26525
140,-699,2.13123,3.23816,0.0091675,0.0017026,0.00484283,0.0115493,-0.000679208,0.457084,0.00793564,0.0159618,1364,1723,2.13121,-3.2382
147,-699,2.13159,3.26196,0.00640357,0.00423436,0.00404033,0.00950234,0.00113559,0.654267,0.00599234,0.0138877,1371,1723,2.13159,-3.26198
154,-699,2.12354,3.2605,0.00397348,0.0065146,0.00320888,0.00869531,0.00179278,0.973904,0.00530131,0.013357,1378,1723,2.12352,-3.26056
161,-699,2.12903,3.21851,0.00104188,0.00914542,0.00234698,0.00977608,0.000411216,1.30829,0.00638473,0.00930756,1385,1723,2.12904,-3.21846
168,-699,2.11926,3.2229,-0.00147125,0.0115369,0.000613695,0.0115658,-0.00150014,1.52376,0.00825612,0.0104368,1392,1723,2.11921,-3.22291
175,-699,2.13879,3.22595,-0.00288306,0.0129914,-0.00062516,0.013016,-0.00290764,-1.5315,0.00979151,0.0119595,1399,1723,2.13881,-3.22591
182,-699,2.13403,3.23499,-0.0038334,0.0140091,-0.0020313,0.0142374,-0.00406174,-1.45886,0.0110962,0.0124145,1406,1723,2.13398,-3.23495
189,-699,2.12671,3.21643,-0.0040506,0.0141499,-0.00282234,0.0145775,-0.00447822,-1.42043,0.0115053,0.0147634,1413,1723,2.1267,-3.2164
196,-699,2.12158,3.17554,-0.00401235,0.0138486,-0.00324849,0.0144211,-0.00458482,-1.39636,0.0114524,0.0152182,1420,1723,2.12162,-3.17559
203,-699,2.12231,3.16296,-0.00379575,0.0128671,-0.00325327,0.0134798,-0.00440839,-1.38466,0.0107613,0.0124343,1427,1723,2.12228,-3.16302
210,-699,2.12402,3.15747,-0.00330607,0.0113168,-0.00317784,0.0119776,-0.00396682,-1.36579,0.00958496,0.0126358,1434,1723,2.12406,-3.15751
217,-699,2.11572,3.16138,-0.00275924,0.010047,-0.00257232,0.0105443,-0.00325661,-1.3798,0.00833006,0.0140014,1441,1723,2.11575,-3.16139
224,-699,2.12329,3.14343,-0.00235332,0.0088415,-0.00194987,0.0091714,-0.00268322,-1.40319,0.00717784,0.0151969,1448,1723,2.12329,-3.14337
231,-699,2.15393,3.12634,-0.00198119,0.00742532,-0.00152854,0.00766747,-0.00222334,-1.41368,0.00599187,0.0109018,1455,1723,2.15388,-3.12639
238,-699,2.12,3.08508,-0.00151571,0.00618875,-0.00105941,0.00633177,-0.00165873,-1.43661,0.00486919,0.00928501,1462,1723,2.12002,-3.08504
245,-699,2.11548,3.06738,-0.00102131,0.00504888,-0.000659691,0.00511975,-0.00109218,-1.46378,0.0038295,0.0109814,1469,1723,2.11546,-3.06742
252,-699,2.1366,3.08118,-0.000587979,0.00407405,-0.000357252,0.00410126,-0.000615196,-1.49476,0.00296062,0.0100083,1476,1723,2.13656,-3.08118
259,-699,2.1488,3.05383,-0.000430639,0.00330876,-0.000416234,0.00335453,-0.00047641,-1.46127,0.0024109,0.0102201,1483,1723,2.14885,-3.05379
266,-699,2.11255,3.03247,-0.000294627,0.00222488,-0.000402244,0.00228754,-0.000357287,-1.41626,0.00165701,0.0126974,1490,1723,2.11258,-3.03243
273,-699,2.11169,3.02039,-0.000239037,0.0013254,-0.000443782,0.00144252,-0.000356157,-1.31277,0.00109979,0.0116047,1497,1723,2.11168,-3.02042
280,-699,2.14502,3.00293,-0.000393925,0.000541363,-0.000382075,0.0006776,-0.000530162,-1.22828,0.000699031,0.011275,1504,1723,2.14504,-3.00294
287,-699,2.14111,2.95972,-0.000391944,-0.000259244,-0.000294466,-2.37457e-05,-0.000627442,-0.896209,0.000410608,0.0103472,1511,1723,2.14116,-2.95975
294,-699,2.14551,2.9458,4.99557e-05,-0.000844077,-0.00032875,0.000157827,-0.000951948,-0.317056,0.000693256,0.0102582,1518,1723,2.14548,-2.94576
301,-699,2.14502,2.96191,0.000556362,-0.0012529,-0.000559683,0.000715499,-0.00141204,-0.277023,0.00125009,0.0111741,1525,1723,2.14496,-2.96189
308,-699,2.13318,2.95728,0.000925284,-0.00144502,-0.000580917,0.00106,-0.00157974,-0.227873,0.00153387,0.0163627,1532,1723,2.13323,-2.95726
315,-699,2.15076,2.90784,0.00167222,-0.00137097,-0.000938686,0.00193847,-0.00163722,-0.27638,0.00206686,0.0188845,1539,1723,2.15072,-2.90779
322,-699,2.14124,2.87317,0.00232865,-0.00158067,-0.00166729,0.00294314,-0.00219516,-0.353111,0.00297706,0.0176822,1546,1723,2.14126,-2.87314
329,-699,2.11682,2.82788,0.00325221,-0.00175758,-0.00248952,0.00427892,-0.00278428,-0.391159,0.00410826,0.0132611,1553,1723,2.11687,-2.82786
336,-699,2.12,2.81262,0.0034806,-0.00229537,-0.00356853,0.00518335,-0.00399812,-0.445207,0.00531563,0.0121921,1560,1723,2.11998,-2.81256
343,-699,2.10815,2.79333,0.00514603,-0.00332782,-0.00501219,0.00747215,-0.00565394,-0.434511,0.00760255,0.0166519,1567,1723,2.1082,-2.79333
350,-699,2.12134,2.76965,0.00682471,-0.00493816,-0.00675401,0.00989917,-0.00801261,-0.427173,0.0103605,0.025653,1574,1723,2.12136,-2.76967
357,-699,2.07031,2.76306,0.00859601,-0.00664573,-0.00891989,0.0127072,-0.010757,-0.431886,0.0135626,0.0339555,1581,1723,2.07037,-2.76308
364,-699,2.17773,2.70728,0.0117092,-0.00895254,-0.0119979,0.0172111,-0.0144544,-0.429959,0.0183052,0.038469,1588,1723,2.17777,-2.70725
371,-699,2.32788,2.65247,0.015546,-0.0113344,-0.0155445,0.0226551,-0.0184434,-0.428935,0.0237697,0.0427412,1595,1723,2.32791,-2.65252
378,-699,2.3147,2.6001,0.0194135,-0.0144412,-0.0186803,0.027695,-0.0227227,-0.417294,0.0291558,0.0447064,1602,1723,2.31465,-2.60011
385,-699,2.52026,2.74512,0,0,0,0,0,0,0,-1,1609,1723,2.52026,-2.74515
392,-699,2.69983,2.91028,0.0278916,-0.0217481,-0.0267544,0.0395659,-0.0334224,-0.411445,0.0421895,0.0446553,1616,1723,2.69988,-2.91031
399,-699,3.82715,3.65393,0.0312575,-0.0249929,-0.0307887,0.0448333,-0.0385687,-0.415289,0.0481974,0.0440594,1623,1723,3.82713,-3.65392
406,-699,4.08691,3.70496,0.0353842,-0.0278719,-0.0353856,0.0512164,-0.0437041,-0.420705,0.0548596,0.0429109,1630,1723,4.08692,-3.705
413,-699,4.70239,3.55273,0.0371152,-0.0302484,-0.0389181,0.0549026,-0.0480358,-0.4287,0.0594756,0.0424919,1637,1723,4.70243,-3.55269
420,-699,5.33997,3.41846,0.0354781,-0.0330629,-0.0395109,0.0535104,-0.0510951,-0.428152,0.0603994,0.0499247,1644,1723,5.33998,-3.41841
427,-699,5.93335,3.3031,0,0,0,0,0,0,0,-1,1651,1723,5.9333,-3.3031
434,-699,4.07373,4.51025,0,0,0,0,0,0,0,-1,1658,1723,4.07369,-4.5103
441,-699,0,0,0,0,0,0,0,0,0,-1,1665,1723,0,0
448,-699,0,0,0,0,0,0,0,0,0,-1,1672,1723,0,0
455,-699,0,0,0,0,0,0,0,0,0,-1,1679,1723,0,0
462,-699,0,0,0,0,0,0,0,0,0,-1,1686,1723,0,0
469,-699,0,0,0,0,0,0,0,0,0,-1,1693,1723,0,0
476,-699,0,0,0,0,0,0,0,0,0,-1,1700,1723,0,0
483,-699,0,0,0,0,0,0,0,0,0,-1,1707,1723,0,0
490,-699,0,0,0,0,0,0,0,0,0,-1,1714,1723,0,0
497,-699,0,0,0,0,0,0,0,0,0,-1,1721,1723,0,0
504,-699,0,0,0,0,0,0,0,0,0,-1,1728,1723,0,0
511,-699,0,0,0,0,0,0,0,0,0,-1,1735,1723,0,0
518,-699,0,0,0,0,0,0,0,0,0,-1,1742,1723,0,0
525,-699,0,0,0,0,0,0,0,0,0,-1,1749,1723,0,0
532,-699,0,0,0,0,0,0,0,0,0,-1,1756,1723,0,0
539,-699,0,0,0,0,0,0,0,0,0,-1,1763,1723,0,0
546,-699,0,0,0,0,0,0,0,0,0,-1,1770,1723,0,0
553,-699,0,0,0,0,0,0,0,0,0,-1,1777,1723,0,0
560,-699,0,0,0,0,0,0,0,0,0,-1,1784,1723,0,0
567,-699,0,0,0,0,0,0,0,0,0,-1,1791,1723,0,0
574,-699,0,0,0,0,0,0,0,0,0,-1,1798,1723,0,0
581,-699,0,0,0,0,0,0,0,0,0,-1,1805,1723,0,0
588,-699,0,0,0,0,0,0,0,0,0,-1,1812,1723,0,0
595,-699,0,0,0,0,0,0,0,0,0,-1,1819,1723,0,0
602,-699,0,0,0,0,0,0,0,0,0,-1,1826,1723,0,0
609,-699,0,0,0,0,0,0,0,0,0,-1,1833,1723,0,0
616,-699,0,0,0,0,0,0,0,0,0,-1,1840,1723,0,0
623,-699,0,0,0,0,0,0,0,0,0,-1,1847,1723,0,0
630,-699,0,0,0,0,0,0,0,0,0,-1,1854,1723,0,0
637,-699,0,0,0,0,0,0,0,0,0,-1,1861,1723,0,0
644,-699,0,0,0,0,0,0,0,0,0,-1,1868,1723,0,0
651,-699,0,0,0,0,0,0,0,0,0,-1,1875,1723,0,0
658,-699,0,0,0,0,0,0,0,0,0,-1,1882,1723,0,0
665,-699,0,0,0,0,0,0,0,0,0,-1,1889,1723,0,0
672,-699,0,0,0,0,0,0,0,0,0,-1,1896,1723,0,0
679,-699,0,0,0,0,0,0,0,0,0,-1,1903,1723,0,0
686,-699,0,0,0,0,0,0,0,0,0,-1,1910,1723,0,0
693,-699,0,0,0,0,0,0,0,0,0,-1,1917,1723,0,0
700,-699,0,0,0,0,0,0,0,0,0,-1,1924,1723,0,0
707,-699,0,0,0,0,0,0,0,0,0,-1,1931,1723,0,0
714,-699,0,0,0,0,0,0,0,0,0,-1,1938,1723,0,0
721,-699,0,0,0,0,0,0,0,0,0,-1,1945,1723,0,0
728,-699,0,0,0,0,0,0,0,0,0,-1,1952,1723,0,0
735,-699,0,0,0,0,0,0,0,0,0,-1,1959,1723,0,0
742,-699,0,0,0,0,0,0,0,0,0,-1,1966,1723,0,0
749,-699,0,0,0,0,0,0,0,0,0,-1,1973,1723,0,0
756,-699,0,0,0,0,0,0,0,0,0,-1,1980,1723,0,0
763,-699,0,0,0,0,0,0,0,0,0,-1,1987,1723,0,0
770,-699,0,0,0,0,0,0,0,0,0,-1,1994,1723,0,0
777,-699,0,0,0,0,0,0,0,0,0,-1,2001,1723,0,0
784,-699,0,0,0,0,0,0,0,0,0,-1,2008,1723,0,0
791,-699,0,0,0,0,0,0,0,0,0,-1,2015,1723,0,0
798,-699,0,0,0,0,0,0,0,0,0,-1,2022,1723,0,0
805,-699,0,0,0,0,0,0,0,0,0,-1,2029,1723,0,0
812,-699,0,0,0,0,0,0,0,0,0,-1,2036,1723,0,0
-700,-706,0,0,0,0,0,0,0,0,0,-1,524,1730,0,0
-693,-706,0,0,0,0,0,0,0,0,0,-1,531,1730,0,0
-686,-706,0,0,0,0,0,0,0,0,0,-1,538,1730,0,0
-679,-706,0,0,0,0,0,0,0,0,0,-1,545,1730,0,0
-672,-706,0,0,0,0,0,0,0,0,0,-1,552,1730,0,0
-665,-706,0,0,0,0,0,0,0,0,0,-1,559,1730,0,0
-658,-706,0,0,0,0,0,0,0,0,0,-1,566,1730,0,0
-651,-706,0,0,0,0,0,0,0,0,0,-1,573,1730,0,0
-644,-706,0,0,0,0,0,0,0,0,0,-1,580,1730,0,0
-637,-706,0,0,0,0,0,0,0,0,0,-1,587,1730,0,0
-630,-706,0,0,0,0,0,0,0,0,0,-1,594,1730,0,0
-623,-706,0,0,0,0,0,0,0,0,0,-1,601,1730,0,0
-616,-706,0,0,0,0,0,0,0,0,0,-1,608,1730,0,0
-609,-706,0,0,0,0,0,0,0,0,0,-1,615,1730,0,0
-602,-706,0,0,0,0,0,0,0,0,0,-1,622,1730,0,0
-595,-706,0,0,0,0,0,0,0,0,0,-1,629,1730,0,0
-588,-706,0,0,0,0,0,0,0,0,0,-1,636,1730,0,0
-581,-706,0,0,0,0,0,0,0,0,0,-1,643,1730,0,0
-574,-706,0,0,0,0,0,0,0,0,0,-1,650,1730,0,0
-567,-706,0,0,0,0,0,0,0,0,0,-1,657,1730,0,0
-560,-706,0,0,0,0,0,0,0,0,0,-1,664,1730,0,0
-553,-706,0,0,0,0,0,0,0,0,0,-1,671,1730,0,0
-546,-706,0,0,0,0,0,0,0,0,0,-1,678,1730,0,0
-539,-706,0,0,0,0,0,0,0,0,0,-1,685,1730,0,0
-532,-706,0,0,0,0,0,0,0,0,0,-1,692,1730,0,0
-525,-706,0,0,0,0,0,0,0,0,0,-1,699,1730,0,0
-518,-706,0,0,0,0,0,0,0,0,0,-1,706,1730,0,0
-511,-706,0,0,0,0,0,0,0,0,0,-1,713,1730,0,0
-504,-706,0,0,0,0,0,0,0,0,0,-1,720,1730,0,0
-497,-706,0,0,0,0,0,0,0,0,0,-1,727,1730,0,0
-490,-706,0,0,0,0,0,0,0,0,0,-1,734,1730,0,0
-483,-706,0,0,0,0,0,0,0,0,0,-1,741,1730,0,0
-476,-706,0,0,0,0,0,0,0,0,0,-1,748,1730,0,0
-469,-706,0,0,0,0,0,0,0,0,0,-1,755,1730,0,0
-462,-706,0,0,0,0,0,0,0,0,0,-1,762,1730,0,0
-455,-706,0,0,0,0,0,0,0,0,0,-1,769,1730,0,0
-448,-706,0,0,0,0,0,0,0,0,0,-1,776,1730,0,0
-441,-706,0,0,0,0,0,0,0,0,0,-1,783,1730,0,0
-434,-706,0,0,0,0,0,0,0,0,0,-1,790,1730,0,0
-427,-706,0,0,0,0,0,0,0,0,0,-1,797,1730,0,0
-420,-706,0,0,0,0,0,0,0,0,0,-1,804,1730,0,0
-413,-706,0,0,0,0,0,0,0,0,0,-1,811,1730,0,0
-406,-706,0,0,0,0,0,0,0,0,0,-1,818,1730,0,0
-399,-706,0,0,0,0,0,0,0,0,0,-1,825,1730,0,0
-392,-706,0,0,0,0,0,0,0,0,0,-1,832,1730,0,0
-385,-706,0,0,0,0,0,0,0,0,0,-1,839,1730,0,0
-378,-706,0,0,0,0,0,0,0,0,0,-1,846,1730,0,0
-371,-706,0,0,0,0,0,0,0,0,0,-1,853,1730,0,0
-364,-706,0,0,0,0,0,0,0,0,0,-1,860,1730,0,0
-357,-706,0,0,0,0,0,0,0,0,0,-1,867,1730,0,0
-350,-706,0,0,0,0,0,0,0,0,0,-1,874,1730,0,0
-343,-706,0,0,0,0,0,0,0,0,0,-1,881,1730,0,0
-336,-706,0,0,0,0,0,0,0,0,0,-1,888,1730,0,0
-329,-706,0,0,0,0,0,0,0,0,0,-1,895,1730,0,0
-322,-706,0,0,0,0,0,0,0,0,0,-1,902,1730,0,0
-315,-706,0,0,0,0,0,0,0,0,0,-1,909,1730,0,0
-308,-706,2.0412,1.92297,-0.0603639,-0.013884,0.0277245,-0.000947379,-0.0733005,1.13421,0.0485543,0.0484911,916,1730,2.04118,-1.92301
-301,-706,0.636414,3.00061,-0.0568669,-0.0225194,0.0280969,-0.00676333,-0.072623,1.05972,0.0463257,0.0486874,923,1730,0.636428,-3.00066
-294,-706,-0.165466,3.50806,-0.0521305,-0.0327937,0.0265392,-0.0142166,-0.0707076,0.96008,0.0431867,0.0465932,930,1730,-0.165488,-3.50811
-287,-706,3.84204,-0.573608,0,0,0,0,0,0,0,-1,937,1730,3.84202,0.573562
-280,-706,3.81256,-0.23291,-0.0381671,-0.0303233,0.0292217,-0.00476144,-0.063729,0.852105,0.0409911,0.0455508,944,1730,3.81259,0.232946
-273,-706,3.87543,0.0673828,-0.029774,-0.0249003,0.0281683,0.000936357,-0.0556107,0.828546,0.0373898,0.0431913,951,1730,3.87545,-0.0673366
-266,-706,3.77832,1.73486,0,0,0,0,0,0,0,-1,958,1730,3.77833,-1.73483
-259,-706,3.9942,2.02112,-0.0203139,-0.0135482,0.0265652,0.00984867,-0.0437108,0.848727,0.0329182,0.0461902,965,1730,3.99419,-2.02109
-252,-706,4.21503,2.31262,-0.0131544,-0.00698316,0.0256112,0.0157277,-0.0358652,0.845349,0.0305341,0.0458194,972,1730,4.21505,-2.31261
-245,-706,4.50482,2.68311,0,0,0,0,0,0,0,-1,979,1730,4.50482,-2.68307
-238,-706,7.92676,4.42859,0,0,0,0,0,0,0,-1,986,1730,7.92674,-4.42853
-231,-706,7.28387,3.92456,0,0,0,0,0,0,0,-1,993,1730,7.2839,-3.92456
-224,-706,2.17291,2.40186,-0.00703908,0.0231902,0.0210615,0.0339993,-0.0178482,1.09663,0.0304144,0.0415497,1000,1730,2.17289,-2.40192
-217,-706,2.23145,2.45825,-0.0066775,0.0263965,0.0184739,0.0346538,-0.0149348,1.15046,0.0293748,0.0378359,1007,1730,2.23146,-2.4582
-210,-706,2.23914,2.54431,-0.00613963,0.0263386,0.0153201,0.0324247,-0.0122257,1.19265,0.0266436,0.0362414,1014,1730,2.23914,-2.54425
-203,-706,2.14691,2.67822,-0.00577543,0.0229179,0.0121443,0.0273678,-0.0102253,1.21957,0.022444,0.0290573,1021,1730,2.14693,-2.67828
-196,-706,2.08057,2.81799,-0.00529949,0.0195163,0.00894837,0.0224064,-0.00818961,1.2584,0.0182893,0.0214281,1028,1730,2.08054,-2.81796
-189,-706,2.0343,2.87122,-0.00487428,0.0159419,0.00630921,0.0177048,-0.00663724,1.29832,0.0145301,0.016566,1035,1730,2.03433,-2.87117
-182,-706,2.02283,2.89404,-0.00452827,0.0118558,0.00343957,0.0125486,-0.00522106,1.37204,0.010546,0.0121522,1042,1730,2.02281,-2.89403
-175,-706,2.01709,2.91199,-0.00417635,0.00944458,0.00146909,0.00960123,-0.004333,1.46457,0.00823436,0.0135675,1049,1730,2.01709,-2.91194
-168,-706,2.03516,2.93457,-0.00381433,0.00770823,0.000705122,0.00775122,-0.00385732,1.5099,0.00682672,0.0148397,1056,1730,2.03519,-2.93453
-161,-706,2.03809,2.96094,-0.00329363,0.00649948,-0.000107977,0.00650067,-0.00329482,-1.55977,0.00575551,0.0126436,1063,1730,2.03807,-2.96098
-154,-706,2.01599,2.99158,-0.00278183,0.0055581,-0.000634408,0.00560609,-0.00282981,-1.49531,0.00495761,0.0124321,1070,1730,2.01603,-2.99156
-147,-706,2.00781,3.00317,-0.0031733,0.00458387,-0.000833983,0.00467252,-0.00326195,-1.4649,0.00460504,0.0118179,1077,1730,2.00778,-3.00322
-140,-706,2.02344,3.02661,-0.00330027,0.00241881,-0.00163173,0.00285162,-0.00373307,-1.31153,0.00381301,0.0106757,1084,1730,2.0234,-3.02656
-133,-706,2.03455,3.04639,-0.00210883,0.00271962,-0.00113776,0.00297428,-0.0023635,-1.3506,0.00308849,0.00846682,1091,1730,2.03452,-3.0464
-126,-706,2.02747,3.06763,-0.00146378,0.00277196,-0.000942243,0.0029721,-0.00166392,-1.36149,0.0027119,0.0126856,1098,1730,2.0275,-3.06765
-119,-706,2.04077,3.073,-0.00131061,0.00250045,-0.000638276,0.0026045,-0.00141466,-1.40919,0.00235412,0.0172075,1105,1730,2.04078,-3.07306
-112,-706,2.03296,3.12903,-0.00152944,0.00176249,-0.0002556,0.00178222,-0.00154917,-1.49377,0.00192495,0.0121535,1112,1730,2.03296,-3.12902
-105,-706,2.02295,3.14734,-0.0018914,0.000607064,-6.05549e-05,0.000608531,-0.00189287,-1.54658,0.0015063,0.0091106,1119,1730,2.02299,-3.14728
-98,-706,2.04492,3.12769,-0.00221533,-4.63827e-05,-0.000203075,-2.75329e-05,-0.00223418,-1.47824,0.00148036,0.0109632,1126,1730,2.04488,-3.12771
-91,-706,2.04236,3.13416,-0.00266074,-0.000835266,-0.000232218,-0.000806189,-0.00268982,-1.44623,0.00159396,0.0133791,1133,1730,2.0424,-3.13421
-84,-706,2.0094,3.15906,-0.00317153,-0.00180599,-0.000263101,-0.00175705,-0.00322047,-1.38689,0.00186191,0.0154115,1140,1730,2.00939,-3.15904
-77,-706,2.01074,3.1991,-0.0034035,-0.0025491,-0.000538462,-0.00228896,-0.00366364,-1.12074,0.00213705,0.014827,1147,1730,2.01073,-3.19907
-70,-706,2.02551,3.22571,-0.00356925,-0.00309845,-0.000679645,-0.00261459,-0.00405311,-0.952111,0.00237267,0.0171678,1154,1730,2.02553,-3.22566
-63,-706,2.01477,3.21851,-0.0036942,-0.0033924,-0.000887724,-0.00264284,-0.00444376,-0.869587,0.00258091,0.0127735,1161,1730,2.01479,-3.21849
-56,-706,2.01819,3.20935,-0.00341637,-0.00355211,-0.0011194,-0.00236278,-0.0046057,-0.755121,0.0026594,0.0120481,1168,1730,2.01825,-3.20941
-49,-706,2.01135,3.22156,-0.00332786,-0.00297954,-0.000985737,-0.0021527,-0.00415471,-0.872835,0.00239925,0.011956,1175,1730,2.01133,-3.2216
-42,-706,2.0155,3.24634,-0.00312167,-0.00208191,-0.000842347,-0.00161193,-0.00359165,-1.06188,0.00207726,0.0161067,1182,1730,2.01551,-3.24629
-35,-706,2.03198,3.25049,-0.0027066,-0.000994865,-0.000685149,-0.000754403,-0.00294706,-1.23326,0.00176774,0.0152589,1189,1730,2.03196,-3.25044
-28,-706,2.04504,3.2345,-0.00237862,3.35751e-05,-0.000326937,7.71012e-05,-0.00242215,-1.43844,0.00164107,0.0100342,1196,1730,2.04502,-3.23449
-21,-706,2.03503,3.25232,-0.00212001,0.00143862,0.000262837,0.00145793,-0.00213932,1.49747,0.00208925,0.0102794,1203,1730,2.035,-3.25235
-14,-706,2.03699,3.25012,-0.00200079,0.00265839,0.000854099,0.00281003,-0.00215243,1.39509,0.00287345,0.00975056,1210,1730,2.03705,-3.25012
-7,-706,2.03845,3.25684,-0.0020176,0.00396472,0.000986761,0.00412328,-0.00217616,1.41147,0.00369444,0.00859808,1217,1730,2.03848,-3.25681
0,-706,2.02539,3.28845,-0.00232413,0.00517954,0.000900631,0.00528613,-0.00243072,1.453,0.00455585,0.0132916,1224,1730,2.02544,-3.2884
7,-706,2.03467,3.31262,-0.0031595,0.00535846,0.000680675,0.00541251,-0.00321355,1.49156,0.00503391,0.0157354,1231,1730,2.03464,-3.31262
14,-706,2.03711,3.30212,-0.00403814,0.00550332,0.000129492,0.00550508,-0.0040399,1.55723,0.00553239,0.0151126,1238,1730,2.03716,-3.30212
21,-706,2.05164,3.26758,-0.00440268,0.00547444,-0.000830484,0.00554378,-0.00447202,-1.48749,0.00579365,0.012638,1245,1730,2.05158,-3.26761
28,-706,2.04822,3.26794,-0.0048837,0.00504928,-0.00181533,0.00537065,-0.00520507,-1.39558,0.00610615,0.0129193,1252,1730,2.04817,-3.26795
35,-706,2.05579,3.29639,-0.00457,0.00440585,-0.00312214,0.00538502,-0.00554918,-1.26689,0.0063131,0.0142301,1259,1730,2.0558,-3.29642
42,-706,2.06421,3.31433,-0.0037729,0.00361686,-0.00430444,0.00559475,-0.00575079,-1.14007,0.00655056,0.0122078,1266,1730,2.06418,-3.31431
49,-706,2.07166,3.31165,-0.00277761,0.00283911,-0.00530194,0.00603053,-0.00596903,-1.02895,0.00692798,0.014046,1273,1730,2.07163,-3.3117
56,-706,2.07922,3.30737,-0.00084725,0.00174472,-0.00624557,0.00682735,-0.00592988,-0.887699,0.00737146,0.0129507,1280,1730,2.07923,-3.30742
63,-706,2.09143,3.30859,0.00125271,0.000411642,-0.00632402,0.00717017,-0.00550582,-0.752198,0.00733948,0.0103653,1287,1730,2.09146,-3.30864
70,-706,2.06763,3.27478,0.00304861,-0.000848773,-0.00585749,0.00727306,-0.00507322,-0.624815,0.00716574,0.0112518,1294,1730,2.06758,-3.27478
77,-706,2.05701,3.28577,0.00496134,-0.00153875,-0.00505141,0.00771791,-0.00429533,-0.499539,0.00702905,0.0102147,1301,1730,2.05704,-3.28574
84,-706,2.05969,3.30701,0.00679171,-0.00251549,-0.00403258,0.00829584,-0.00401962,-0.357012,0.00725181,0.00870163,1308,1730,2.05968,-3.30701
91,-706,2.07654,3.32202,0.00821705,-0.00341368,-0.00270495,0.00881536,-0.00401199,-0.217686,0.00757698,0.0105046,1315,1730,2.07652,-3.32202
98,-706,2.08679,3.33569,0.00944982,-0.00406622,-0.000953069,0.00951669,-0.00413309,-0.070052,0.00808244,0.0143369,1322,1730,2.08681,-3.33566
105,-706,2.09338,3.33313,0.00988728,-0.00414823,0.0010935,0.00997196,-0.00423291,0.0772881,0.00842135,0.0156137,1329,1730,2.09333,-3.33309
112,-706,2.07922,3.30969,0.00963051,-0.003463,0.00282906,0.0102156,-0.00404811,0.203948,0.00848791,0.0153531,1336,1730,2.07919,-3.30971
119,-706,2.0896,3.29993,0.00890035,-0.00297231,0.00405327,0.0101521,-0.00422409,0.299541,0.0085321,0.0129481,1343,1730,2.08963,-3.29991
126,-706,2.09497,3.27856,0.00755526,-0.00170676,0.00529837,0.00996122,-0.00411272,0.426254,0.00835618,0.014332,1350,1730,2.09502,-3.27861
133,-706,2.08899,3.26404,0.00611733,-3.74151e-06,0.00563777,0.00947172,-0.00335813,0.536725,0.00768253,0.012431,1357,1730,2.08899,-3.26407
140,-706,2.09949,3.24683,0.00428629,0.00193848,0.00564483,0.00887799,-0.00265322,0.682879,0.00697339,0.0115515,1364,1730,2.09949,-3.24679
147,-706,2.11841,3.23901,0.00231238,0.00399627,0.00505848,0.00828239,-0.00197374,0.867863,0.0062837,0.0207122,1371,1730,2.11846,-3.23897
154,-706,2.11987,3.25537,0.000705986,0.00578416,0.0043722,0.00830107,-0.00181092,1.04846,0.0062261,0.0198369,1378,1730,2.11991,-3.25536
161,-706,2.10999,3.24365,-0.00112043,0.00775843,0.00353688,0.0089951,-0.00235709,1.23443,0.00691761,0.0098511,1385,1730,2.10994,-3.24367
168,-706,2.10107,3.22827,-0.0025703,0.00945449,0.00208947,0.00980722,-0.00292303,1.40356,0.00769971,0.00979578,1392,1730,2.1011,-3.22829
175,-706,2.10815,3.21863,-0.00319603,0.0106102,0.000641704,0.01064,-0.00322579,1.52445,0.00837821,0.0106715,1399,1730,2.10813,-3.21859
182,-706,2.11865,3.21289,-0.00358602,0.0107764,-0.000694079,0.0108099,-0.00361948,-1.52262,0.00866874,0.0111928,1406,1730,2.11869,-3.21292
189,-706,2.12244,3.1853,-0.00367562,0.0106213,-0.00174383,0.0108309,-0.00388525,-1.45116,0.00880618,0.0141104,1413,1730,2.12243,-3.18524
196,-706,2.11609,3.17322,-0.00357902,0.010079,-0.00249238,0.0105197,-0.00401963,-1.39582,0.00866937,0.0121468,1420,1730,2.11609,-3.17319
203,-706,2.11145,3.16492,-0.00346263,0.00915351,-0.00293488,0.00980283,-0.00411195,-1.35306,0.00825462,0.0129175,1427,1730,2.11151,-3.16496
210,-706,2.10474,3.14331,-0.00329579,0.00797385,-0.00322474,0.00883135,-0.00415328,-1.3109,0.00765714,0.0124271,1434,1730,2.10471,-3.14334
217,-706,2.07813,3.15759,-0.00300522,0.00707903,-0.00311031,0.00796119,-0.00388737,-1.29443,0.00697424,0.0135571,1441,1730,2.07816,-3.15763
224,-706,2.073,3.15222,-0.00283128,0.00643011,-0.00271952,0.00716962,-0.00357079,-1.30529,0.00631594,0.0189076,1448,1730,2.07294,-3.15224
231,-706,2.11658,3.11072,-0.00258518,0.00568565,-0.00242032,0.00634185,-0.00324138,-1.30604,0.00562858,0.013776,1455,1730,2.11659,-3.11068
238,-706,2.1156,3.09534,-0.00227238,0.00508617,-0.00199776,0.00559355,-0.00277976,-1.32208,0.00492448,0.00852312,1462,1730,2.11566,-3.09533
245,-706,2.1123,3.08069,-0.0018345,0.00464814,-0.00153562,0.0049935,-0.00217986,-1.34958,0.00424641,0.0102184,1469,1730,2.11228,-3.08066
252,-706,2.13074,3.07056,-0.00142802,0.00425402,-0.00101821,0.00443097,-0.00160497,-1.39873,0.00360992,0.00998416,1476,1730,2.13077,-3.0705
259,-706,2.14136,3.05127,-0.0012561,0.00387784,-0.000664582,0.00396247,-0.00134074,-1.44413,0.00318409,0.0109563,1483,1730,2.14139,-3.05127
266,-706,2.11963,3.03638,-0.00111214,0.00309271,-0.000252248,0.00310779,-0.00112722,-1.51109,0.00253264,0.0117817,1490,1730,2.11968,-3.03633
273,-706,2.0979,3.01965,-0.00105404,0.00222594,2.50544e-05,0.00222613,-0.00105423,1.56316,0.00193378,0.0112777,1497,1730,2.09793,-3.01969
280,-706,2.10059,2.99292,-0.00119752,0.00149985,0.000446149,0.00157173,-0.0012694,1.41106,0.00164342,0.00930026,1504,1730,2.10059,-2.99298
287,-706,2.12183,2.953,-0.00118035,0.000549757,0.000807619,0.000868159,-0.00149875,1.19526,0.00138261,0.00998395,1511,1730,2.12185,-2.95298
294,-706,2.13208,2.95129,-0.000762521,-0.000371289,0.000913334,0.000367143,-0.00150095,0.890893,0.00114285,0.00999415,1518,1730,2.13206,-2.95132
301,-706,2.12659,2.95239,-0.00021809,-0.00113198,0.000731913,0.000187806,-0.00153788,0.506344,0.00109324,0.00979375,1525,1730,2.12658,-2.95243
308,-706,2.13904,2.94299,0.000194075,-0.00166948,0.000752093,0.000459734,-0.00193514,0.339546,0.00146754,0.0122008,1532,1730,2.1391,-2.94297
315,-706,2.16003,2.91272,0.00108576,-0.00182744,0.000306083,0.00111758,-0.00185926,0.103561,0.00173636,0.0187941,1539,1730,2.16008,-2.91276
322,-706,2.15063,2.87988,0.00189677,-0.00231715,-0.000666549,0.00199969,-0.00242007,-0.153197,0.00255559,0.0184424,1546,1730,2.15068,-2.87991
329,-706,2.10815,2.82263,0.00297862,-0.00282275,-0.00182297,0.00350389,-0.00334802,-0.280543,0.0039563,0.0152474,1553,1730,2.10817,-2.82268
336,-706,2.11487,2.7959,0.00311676,-0.00379982,-0.00340424,0.00451116,-0.00519423,-0.388761,0.00560803,0.0210956,1560,1730,2.11481,-2.79585
343,-706,2.2196,2.72949,0.00490227,-0.00526091,-0.00547638,0.00729151,-0.00765015,-0.411387,0.0086274,0.0296241,1567,1730,2.21958,-2.72952
350,-706,2.23267,2.62036,0.00652251,-0.00729244,-0.0077754,0.0100155,-0.0107854,-0.422221,0.0120122,0.0367275,1574,1730,2.23266,-2.62038
357,-706,1.95142,2.4563,0.00816868,-0.00944496,-0.0106699,0.0131969,-0.0144731,-0.440383,0.0159809,0.0421564,1581,1730,1.95137,-2.45632
364,-706,2.02576,2.57544,0.0110777,-0.0122293,-0.0145708,0.018082,-0.0192336,-0.448094,0.0215476,0.0472588,1588,1730,2.02581,-2.57548
371,-706,2.40637,2.58325,0.0146389,-0.0150807,-0.0190057,0.0239044,-0.0243463,-0.453607,0.0278579,0.0476328,1595,1730,2.4064,-2.58324
378,-706,2.38525,2.55933,0.0182356,-0.0187468,-0.0227425,0.0290556,-0.0295668,-0.444069,0.0338461,0.0438962,1602,1730,2.38524,-2.55932
385,-706,4.30054,3.76758,0,0,0,0,0,0,0,-1,1609,1730,4.30055,-3.76752
392,-706,4.3009,3.8114,0.026571,-0.0278312,-0.0319316,0.0413166,-0.0425768,-0.432613,0.0484377,0.0472096,1616,1730,4.30091,-3.81138
399,-706,4.29272,3.96899,0.0297753,-0.0316955,-0.0364035,0.0466831,-0.0486033,-0.434811,0.0550174,0.0445042,1623,1730,4.29277,-3.96894
406,-706,4.2677,4.13513,0,0,0,0,0,0,0,-1,1630,1730,4.26764,-4.13513
413,-706,5.32007,3.79248,0,0,0,0,0,0,0,-1,1637,1730,5.32004,-3.79246
420,-706,5.95972,3.61572,0,0,0,0,0,0,0,-1,1644,1730,5.95974,-3.61569
427,-706,0,0,0,0,0,0,0,0,0,-1,1651,1730,0,0
434,-706,0,0,0,0,0,0,0,0,0,-1,1658,1730,0,0
441,-706,0,0,0,0,0,0,0,0,0,-1,1665,1730,0,0
448,-706,0,0,0,0,0,0,0,0,0,-1,1672,1730,0,0
455,-706,0,0,0,0,0,0,0,0,0,-1,1679,1730,0,0
462,-706,0,0,0,0,0,0,0,0,0,-1,1686,1730,0,0
469,-706,0,0,0,0,0,0,0,0,0,-1,1693,1730,0,0
476,-706,0,0,0,0,0,0,0,0,0,-1,1700,1730,0,0
483,-706,0,0,0,0,0,0,0,0,0,-1,1707,1730,0,0
490,-706,0,0,0,0,0,0,0,0,0,-1,1714,1730,0,0
497,-706,0,0,0,0,0,0,0,0,0,-1,1721,1730,0,0
504,-706,0,0,0,0,0,0,0,0,0,-1,1728,1730,0,0
511,-706,0,0,0,0,0,0,0,0,0,-1,1735,1730,0,0
518,-706,0,0,0,0,0,0,0,0,0,-1,1742,1730,0,0
525,-706,0,0,0,0,0,0,0,0,0,-1,1749,1730,0,0
532,-706,0,0,0,0,0,0,0,0,0,-1,1756,1730,0,0
539,-706,0,0,0,0,0,0,0,0,0,-1,1763,1730,0,0
546,-706,0,0,0,0,0,0,0,0,0,-1,1770,1730,0,0
553,-706,0,0,0,0,0,0,0,0,0,-1,1777,1730,0,0
560,-706,0,0,0,0,0,0,0,0,0,-1,1784,1730,0,0
567,-706,0,0,0,0,0,0,0,0,0,-1,1791,1730,0,0
574,-706,0,0,0,0,0,0,0,0,0,-1,1798,1730,0,0
581,-706,0,0,0,0,0,0,0,0,0,-1,1805,1730,0,0
588,-706,0,0,0,0,0,0,0,0,0,-1,1812,1730,0,0
595,-706,0,0,0,0,0,0,0,0,0,-1,1819,1730,0,0
602,-706,0,0,0,0,0,0,0,0,0,-1,1826,1730,0,0
609,-706,0,0,0,0,0,0,0,0,0,-1,1833,1730,0,0
616,-706,0,0,0,0,0,0,0,0,0,-1,1840,1730,0,0
623,-706,0,0,0,0,0,0,0,0,0,-1,1847,1730,0,0
630,-706,0,0,0,0,0,0,0,0,0,-1,1854,1730,0,0
637,-706,0,0,0,0,0,0,0,0,0,-1,1861,1730,0,0
644,-706,0,0,0,0,0,0,0,0,0,-1,1868,1730,0,0
651,-706,0,0,0,0,0,0,0,0,0,-1,1875,1730,0,0
658,-706,0,0,0,0,0,0,0,0,0,-1,1882,1730,0,0
665,-706,0,0,0,0,0,0,0,0,0,-1,1889,1730,0,0
672,-706,0,0,0,0,0,0,0,0,0,-1,1896,1730,0,0
679,-706,0,0,0,0,0,0,0,0,0,-1,1903,1730,0,0
686,-706,0,0,0,0,0,0,0,0,0,-1,1910,1730,0,0
693,-706,0,0,0,0,0,0,0,0,0,-1,1917,1730,0,0
700,-706,0,0,0,0,0,0,0,0,0,-1,1924,1730,0,0
707,-706,0,0,0,0,0,0,0,0,0,-1,1931,1730,0,0
714,-706,0,0,0,0,0,0,0,0,0,-1,1938,1730,0,0
721,-706,0,0,0,0,0,0,0,0,0,-1,1945,1730,0,0
728,-706,0,0,0,0,0,0,0,0,0,-1,1952,1730,0,0
735,-706,0,0,0,0,0,0,0,0,0,-1,1959,1730,0,0
742,-706,0,0,0,0,0,0,0,0,0,-1,1966,1730,0,0
749,-706,0,0,0,0,0,0,0,0,0,-1,1973,1730,0,0
756,-706,0,0,0,0,0,0,0,0,0,-1,1980,1730,0,0
763,-706,0,0,0,0,0,0,0,0,0,-1,1987,1730,0,0
770,-706,0,0,0,0,0,0,0,0,0,-1,1994,1730,0,0
777,-706,0,0,0,0,0,0,0,0,0,-1,2001,1730,0,0
784,-706,0,0,0,0,0,0,0,0,0,-1,2008,1730,0,0
791,-706,0,0,0,0,0,0,0,0,0,-1,2015,1730,0,0
798,-706,0,0,0,0,0,0,0,0,0,-1,2022,1730,0,0
805,-706,0,0,0,0,0,0,0,0,0,-1,2029,1730,0,0
812,-706,0,0,0,0,0,0,0,0,0,-1,2036,1730,0,0
-700,-713,0,0,0,0,0,0,0,0,0,-1,524,1737,0,0
-693,-713,0,0,0,0,0,0,0,0,0,-1,531,1737,0,0
-686,-713,0,0,0,0,0,0,0,0,0,-1,538,1737,0,0
-679,-713,0,0,0,0,0,0,0,0,0,-1,545,1737,0,0
-672,-713,0,0,0,0,0,0,0,0,0,-1,552,1737,0,0
-665,-713,0,0,0,0,0,0,0,0,0,-1,559,1737,0,0
-658,-713,0,0,0,0,0,0,0,0,0,-1,566,1737,0,0
-651,-713,0,0,0,0,0,0,0,0,0,-1,573,1737,0,0
-644,-713,0,0,0,0,0,0,0,0,0,-1,580,1737,0,0
-637,-713,0,0,0,0,0,0,0,0,0,-1,587,1737,0,0
-630,-713,0,0,0,0,0,0,0,0,0,-1,594,1737,0,0
-623,-713,0,0,0,0,0,0,0,0,0,-1,601,1737,0,0
-616,-713,0,0,0,0,0,0,0,0,0,-1,608,1737,0,0
-609,-713,0,0,0,0,0,0,0,0,0,-1,615,1737,0,0
-602,-713,0,0,0,0,0,0,0,0,0,-1,622,1737,0,0
-595,-713,0,0,0,0,0,0,0,0,0,-1,629,1737,0,0
-588,-713,0,0,0,0,0,0,0,0,0,-1,636,1737,0,0
-581,-713,0,0,0,0,0,0,0,0,0,-1,643,1737,0,0
-574,-713,0,0,0,0,0,0,0,0,0,-1,650,1737,0,0
-567,-713,0,0,0,0,0,0,0,0,0,-1,657,1737,0,0
-560,-713,0,0,0,0,0,0,0,0,0,-1,664,1737,0,0
-553,-713,0,0,0,0,0,0,0,0,0,-1,671,1737,0,0
-546,-713,0,0,0,0,0,0,0,0,0,-1,678,1737,0,0
-539,-713,0,0,0,0,0,0,0,0,0,-1,685,1737,0,0
-532,-713,0,0,0,0,0,0,0,0,0,-1,692,1737,0,0
-525,-713,0,0,0,0,0,0,0,0,0,-1,699,1737,0,0
-518,-713,0,0,0,0,0,0,0,0,0,-1,706,1737,0,0
-511,-713,0,0,0,0,0,0,0,0,0,-1,713,1737,0,0
-504,-713,0,0,0,0,0,0,0,0,0,-1,720,1737,0,0
-497,-713,0,0,0,0,0,0,0,0,0,-1,727,1737,0,0
-490,-713,0,0,0,0,0,0,0,0,0,-1,734,1737,0,0
-483,-713,0,0,0,0,0,0,0,0,0,-1,741,1737,0,0
-476,-713,0,0,0,0,0,0,0,0,0,-1,748,1737,0,0
-469,-713,0,0,0,0,0,0,0,0,0,-1,755,1737,0,0
-462,-713,0,0,0,0,0,0,0,0,0,-1,762,1737,0,0
-455,-713,0,0,0,0,0,0,0,0,0,-1,769,1737,0,0
-448,-713,0,0,0,0,0,0,0,0,0,-1,776,1737,0,0
-441,-713,0,0,0,0,0,0,0,0,0,-1,783,1737,0,0
-434,-713,0,0,0,0,0,0,0,0,0,-1,790,1737,0,0
-427,-713,0,0,0,0,0,0,0,0,0,-1,797,1737,0,0
-420,-713,0,0,0,0,0,0,0,0,0,-1,804,1737,0,0
-413,-713,0,0,0,0,0,0,0,0,0,-1,811,1737,0,0
-406,-713,0,0,0,0,0,0,0,0,0,-1,818,1737,0,0
-399,-713,0,0,0,0,0,0,0,0,0,-1,825,1737,0,0
-392,-713,0,0,0,0,0,0,0,0,0,-1,832,1737,0,0
-385,-713,0,0,0,0,0,0,0,0,0,-1,839,1737,0,0
-378,-713,0,0,0,0,0,0,0,0,0,-1,846,1737,0,0
-371,-713,0,0,0,0,0,0,0,0,0,-1,853,1737,0,0
-364,-713,0,0,0,0,0,0,0,0,0,-1,860,1737,0,0
-357,-713,0,0,0,0,0,0,0,0,0,-1,867,1737,0,0
-350,-713,0,0,0,0,0,0,0,0,0,-1,874,1737,0,0
-343,-713,0,0,0,0,0,0,0,0,0,-1,881,1737,0,0
-336,-713,0,0,0,0,0,0,0,0,0,-1,888,1737,0,0
-329,-713,0,0,0,0,0,0,0,0,0,-1,895,1737,0,0
-322,-713,0,0,0,0,0,0,0,0,0,-1,902,1737,0,0
-315,-713,0,0,0,0,0,0,0,0,0,-1,909,1737,0,0
-308,-713,0,0,0,0,0,0,0,0,0,-1,916,1737,0,0
-301,-713,0,0,0,0,0,0,0,0,0,-1,923,1737,0,0
-294,-713,0.0942383,3.09753,0,0,0,0,0,0,0,-1,930,1737,0.0942406,-3.09759
-287,-713,-0.371277,3.27173,0,0,0,0,0,0,0,-1,937,1737,-0.371306,-3.27168
-280,-713,4.09741,0.566528,0,0,0,0,0,0,0,-1,944,1737,4.09739,-0.566545
-273,-713,4.14215,0.889404,-0.0320358,-0.0300096,0.0322693,0.00126246,-0.0633079,0.80109,0.0426323,0.0441571,951,1737,4.14218,-0.889374
-266,-713,4.23944,1.39502,-0.0271639,-0.0224792,0.0319649,0.00722905,-0.0568722,0.821972,0.0405399,0.0449537,958,1737,4.23945,-1.39498
-259,-713,4.27136,1.94763,-0.0236973,-0.0165499,0.0315166,0.011595,-0.0518422,0.841853,0.0390052,0.0494359,965,1737,4.27139,-1.94768
-252,-713,4.06317,2.20313,-0.0151064,-0.009024,0.0310224,0.0191059,-0.0432363,0.834258,0.0368811,0.0483947,972,1737,4.0632,-2.20309
-245,-713,6.80304,4.58032,0,0,0,0,0,0,0,-1,979,1737,6.80304,-4.58036
-238,-713,6.24548,4.08167,-0.00825373,0.0165518,0.0323742,0.0388177,-0.0305196,0.968328,0.0401274,0.0447421,986,1737,6.24548,-4.08171
-231,-713,5.67157,3.6366,-0.00837953,0.0236161,0.0308192,0.0423422,-0.0271056,1.0248,0.0404161,0.0430871,993,1737,5.67158,-3.63659
-224,-713,5.07245,3.09839,-0.00762465,0.0292784,0.0285971,0.04486,-0.0232062,1.0719,0.0399554,0.0433472,1000,1737,5.07243,-3.09838
-217,-713,2.96301,2.25769,0,0,0,0,0,0,0,-1,1007,1737,2.96299,-2.25767
-210,-713,2.75665,2.30554,-0.00637998,0.0340783,0.0223902,0.0440243,-0.016326,1.15277,0.0360458,0.0473356,1014,1737,2.75664,-2.30549
-203,-713,2.36151,2.41125,-0.00596495,0.0304238,0.0184557,0.0381456,-0.0136867,1.17453,0.0310161,0.041208,1021,1737,2.36152,-2.41128
-196,-713,2.19067,2.58887,-0.00553838,0.026612,0.0144141,0.032128,-0.0110543,1.20531,0.025902,0.0399834,1028,1737,2.19066,-2.58889
-189,-713,2.12939,2.66418,-0.00528429,0.0224444,0.0108255,0.0261701,-0.00901004,1.23933,0.0211013,0.0358743,1035,1737,2.12935,-2.66414
-182,-713,2.05029,2.88782,-0.00517665,0.017563,0.00699746,0.0195437,-0.00715739,1.29495,0.0159592,0.0221392,1042,1737,2.05028,-2.88784
-175,-713,2.04529,2.91003,-0.00507157,0.0145373,0.00413202,0.0153725,-0.0059067,1.37137,0.0126842,0.0183838,1049,1737,2.04533,-2.91008
-168,-713,2.04712,2.92896,-0.0049056,0.0122069,0.00256837,0.0125841,-0.00528277,1.42499,0.0105986,0.0212684,1056,1737,2.04711,-2.9289
-161,-713,2.04736,2.94568,-0.00434532,0.0105257,0.00108361,0.0106043,-0.00442387,1.49844,0.00891773,0.0115465,1063,1737,2.0474,-2.94566
-154,-713,2.02917,2.95972,-0.00380999,0.00907677,-5.23216e-05,0.00907699,-0.0038102,-1.56674,0.00764473,0.010513,1070,1737,2.02914,-2.95968
-147,-713,2.02502,3.01526,-0.00473242,0.00746385,-0.000759917,0.00751102,-0.00477958,-1.50881,0.00715415,0.0172027,1077,1737,2.02504,-3.01528
-140,-713,2.04968,3.04553,-0.00512764,0.00375483,-0.00238916,0.00435667,-0.00572948,-1.32402,0.0058412,0.0166928,1084,1737,2.04973,-3.04548
-133,-713,2.03333,3.052,-0.00338293,0.00410881,-0.00178379,0.00451184,-0.00378597,-1.34858,0.00479685,0.0105932,1091,1737,2.03338,-3.05203
-126,-713,2.03613,3.05859,-0.00251071,0.00389762,-0.00171127,0.00432596,-0.00293906,-1.32553,0.00421986,0.0166313,1098,1737,2.03611,-3.05855
-119,-713,2.05334,3.00586,-0.00239784,0.00340331,-0.0014066,0.00372637,-0.00272091,-1.34503,0.00373739,0.0266858,1105,1737,2.05333,-3.00586
-112,-713,2.05176,3.11975,-0.00257353,0.00239854,-0.000986761,0.00258721,-0.0027622,-1.38187,0.00308903,0.0137831,1112,1737,2.05173,-3.11973
-105,-713,2.04675,3.13745,-0.00275805,0.000841893,-0.000764503,0.00099752,-0.00291368,-1.36998,0.00234672,0.0105442,1119,1737,2.0467,-3.1374
-98,-713,2.06787,3.13086,-0.00292776,-0.00010362,-0.000846472,0.000130657,-0.00316204,-1.30079,0.0021529,0.00957215,1126,1737,2.06786,-3.13091
-91,-713,2.0509,3.13635,-0.00322592,-0.00109706,-0.00070876,-0.000882679,-0.0034403,-1.27707,0.00206323,0.00979186,1133,1737,2.05096,-3.13637
-84,-713,2.02563,3.15747,-0.00356828,-0.00216922,-0.00044388,-0.00204028,-0.00369722,-1.28808,0.00213841,0.00933106,1140,1737,2.02566,-3.15744
-77,-713,2.03821,3.18201,-0.0036713,-0.00299798,-0.000308788,-0.00287781,-0.00379146,-1.19967,0.00228482,0.0123871,1147,1737,2.03825,-3.18206
-70,-713,2.05139,3.21143,-0.00352943,-0.00347242,-1.05703e-05,-0.00347052,-0.00353133,-1.39326,0.00233421,0.0135869,1154,1737,2.05136,-3.21137
-63,-713,2.05188,3.20959,-0.00324373,-0.00365555,0.000189847,-0.00316957,-0.00372972,0.372419,0.00232239,0.011428,1161,1737,2.05183,-3.20965
-56,-713,2.04785,3.21033,-0.00273421,-0.00360408,0.000351803,-0.00260974,-0.00372855,0.340062,0.0022093,0.0121201,1168,1737,2.04785,-3.2103
-49,-713,2.02808,3.21277,-0.00234387,-0.0030329,0.000644817,-0.0019573,-0.00341946,0.540051,0.00198111,0.0142635,1175,1737,2.02809,-3.21277
-42,-713,2.04492,3.22961,-0.001828,-0.00229833,0.000868851,-0.00116305,-0.00296328,0.653233,0.00172398,0.0172107,1182,1737,2.04497,-3.22957
-35,-713,2.05884,3.22119,-0.00118401,-0.00157671,0.00099666,-0.000364544,-0.00239618,0.688141,0.00149087,0.0142128,1189,1737,2.05888,-3.22121
-28,-713,2.05066,3.2417,-0.000699328,-0.000870546,0.00116028,0.000378497,-0.00194837,0.748573,0.00144174,0.0124786,1196,1737,2.05061,-3.24173
-21,-713,2.03455,3.27649,-0.000317663,0.000134837,0.00146924,0.00139514,-0.00157797,0.861794,0.00171761,0.00903339,1203,1737,2.03458,-3.27644
-14,-713,2.0437,3.25525,-2.47597e-05,0.000717515,0.00165681,0.00204424,-0.00135149,0.895583,0.00197408,0.0096735,1210,1737,2.04367,-3.25525
-7,-713,2.06519,3.24744,0.000124445,0.00140925,0.00157928,0.00247178,-0.000938088,0.978562,0.00203398,0.00964916,1217,1737,2.06516,-3.24739
0,-713,2.05054,3.26941,-4.97321e-05,0.00187141,0.00135573,0.00257238,-0.000750696,1.09361,0.00201238,0.0158044,1224,1737,2.05058,-3.26942
7,-713,2.05786,3.28455,-0.000768578,0.00177424,0.00100977,0.00212644,-0.00112078,1.2352,0.00190452,0.0187106,1231,1737,2.05781,-3.28459
14,-713,2.06067,3.28833,-0.00151533,0.00165486,0.000471106,0.00172339,-0.00158385,1.42635,0.00191,0.0132141,1238,1737,2.06071,-3.28833
21,-713,2.05164,3.2821,-0.00188214,0.00148225,-0.000294066,0.00150776,-0.00190765,-1.48427,0.00197639,0.0112962,1245,1737,2.05165,-3.28213
28,-713,2.03601,3.29028,-0.00229781,0.00110132,-0.00101535,0.00138152,-0.00257801,-1.30154,0.00232056,0.0120727,1252,1737,2.03607,-3.29027
35,-713,2.04285,3.30078,-0.00226626,0.000634099,-0.00191943,0.00158959,-0.00322175,-1.10891,0.0028306,0.0114626,1259,1737,2.0428,-3.30073
42,-713,2.04797,3.31714,-0.00189323,0.000145347,-0.00269036,0.00200303,-0.00375091,-0.966476,0.00337275,0.0105578,1266,1737,2.04802,-3.31712
49,-713,2.05615,3.31006,-0.0013113,-0.000266881,-0.00337104,0.00262216,-0.00420034,-0.862243,0.00397395,0.0109668,1273,1737,2.0562,-3.31009
56,-713,2.0675,3.297,-0.000280576,-0.000832699,-0.00392119,0.00337426,-0.00448753,-0.750255,0.00455415,0.011194,1280,1737,2.06756,-3.29694
63,-713,2.05688,3.29944,0.000703727,-0.00143294,-0.00394131,0.00371892,-0.00444814,-0.653048,0.00472152,0.0115137,1287,1737,2.0569,-3.29944
70,-713,2.05212,3.2948,0.00148012,-0.00184536,-0.00360255,0.00378514,-0.00415038,-0.569191,0.00458319,0.011452,1294,1737,2.05212,-3.2948
77,-713,2.06091,3.29529,0.00228157,-0.00188137,-0.00300438,0.00385507,-0.00345487,-0.482455,0.0042225,0.0110926,1301,1737,2.06092,-3.29531
84,-713,2.07068,3.3114,0.00299811,-0.0021097,-0.00220966,0.00382133,-0.00293292,-0.356629,0.0039108,0.0110692,1308,1737,2.07062,-3.31143
91,-713,2.05896,3.31982,0.0034651,-0.00227584,-0.00120755,0.00370875,-0.0025195,-0.199103,0.00361767,0.0119051,1315,1737,2.05901,-3.31988
98,-713,2.06958,3.31982,0.00385526,-0.00228772,-1.79476e-05,0.00385532,-0.00228778,-0.00292161,0.003585,0.01191,1322,1737,2.06955,-3.3198
105,-713,2.09644,3.31323,0.003935,-0.00176593,0.00138447,0.00425344,-0.00208436,0.226072,0.00372988,0.0131774,1329,1737,2.09639,-3.31322
112,-713,2.08936,3.31641,0.00370904,-0.00103225,0.00257746,0.00484029,-0.0021635,0.413586,0.00414091,0.0133618,1336,1737,2.08933,-3.31635
119,-713,2.08276,3.30078,0.00330899,-0.000458714,0.00328984,0.00521617,-0.00236589,0.525373,0.00447942,0.0140732,1343,1737,2.08271,-3.30077
126,-713,2.08398,3.27759,0.00266659,0.000545281,0.00409645,0.00583747,-0.0026256,0.65872,0.00500208,0.0142205,1350,1737,2.08397,-3.27753
133,-713,2.07776,3.2655,0.00217679,0.00179821,0.00422797,0.0062197,-0.0022447,0.763028,0.00506336,0.0128196,1357,1737,2.07779,-3.26554
140,-713,2.08484,3.26074,0.0014799,0.00307396,0.00423006,0.00658143,-0.00202756,0.878516,0.00519703,0.0131672,1364,1737,2.08485,-3.26079
147,-713,2.0741,3.25659,0.000699804,0.00426864,0.00380766,0.00668927,-0.00172082,1.00452,0.00513024,0.0144009,1371,1737,2.07414,-3.25654
154,-713,2.05542,3.27136,0.00014924,0.00522958,0.00319401,0.00677036,-0.00139154,1.12133,0.00504185,0.0139248,1378,1737,2.05543,-3.27132
161,-713,2.09094,3.25256,-0.000441246,0.00630335,0.00238996,0.00706437,-0.00120227,1.26252,0.00515726,0.00949924,1385,1737,2.09099,-3.25256
168,-713,2.09131,3.23132,-0.000974679,0.0070625,0.00131241,0.00727138,-0.00118356,1.41296,0.00528645,0.00923748,1392,1737,2.09134,-3.23132
175,-713,2.09961,3.20972,-0.00135641,0.00735639,0.000168546,0.00735965,-0.00135967,1.55146,0.00541684,0.0131795,1399,1737,2.09965,-3.20971
182,-713,2.09351,3.20764,-0.00170617,0.00713136,-0.000995227,0.00724205,-0.00181686,-1.46003,0.00553398,0.0122173,1406,1737,2.09351,-3.20759
189,-713,2.10083,3.1803,-0.00200101,0.00688402,-0.00203617,0.00732842,-0.00244541,-1.35591,0.00587298,0.0113832,1413,1737,2.10081,-3.18026
196,-713,2.10571,3.19519,-0.00222141,0.0064217,-0.00291767,0.00731441,-0.00311412,-1.27387,0.00618157,0.0121897,1420,1737,2.10571,-3.19524
203,-713,2.10815,3.19202,-0.00248389,0.00576653,-0.00360007,0.00711653,-0.00383389,-1.21203,0.00641622,0.0163193,1427,1737,2.10815,-3.19206
210,-713,2.0979,3.16162,-0.00280129,0.0049729,-0.0040188,0.00667689,-0.00450529,-1.16977,0.00649649,0.0138907,1434,1737,2.09786,-3.16165
217,-713,2.08545,3.15149,-0.00295118,0.00448462,-0.00411629,0.00631348,-0.00478004,-1.15269,0.00642521,0.0113852,1441,1737,2.08549,-3.15145
224,-713,2.0647,3.13562,-0.00318619,0.00437888,-0.00387889,0.00601422,-0.00482152,-1.17181,0.00626864,0.0126202,1448,1737,2.06473,-3.13562
231,-713,2.09106,3.11316,-0.00331117,0.00425957,-0.00350114,0.00563045,-0.00468206,-1.19759,0.00596232,0.0116778,1455,1737,2.09102,-3.11314
238,-713,2.10339,3.099,-0.00338074,0.00420178,-0.00293093,0.0052026,-0.00438155,-1.24174,0.00554018,0.00849061,1462,1737,2.10342,-3.09895
245,-713,2.0929,3.08398,-0.00320384,0.00433436,-0.00234381,0.00500368,-0.00387315,-1.29263,0.00513888,0.00998763,1469,1737,2.09286,-3.08398
252,-713,2.10791,3.05469,-0.0029904,0.00436597,-0.00150426,0.00466168,-0.00328611,-1.37669,0.00461151,0.00973835,1476,1737,2.10791,-3.05464
259,-713,2.12366,3.03613,-0.00293872,0.00421633,-0.000625416,0.00427058,-0.00299298,-1.48426,0.00421519,0.0106863,1483,1737,2.1237,-3.0361
266,-713,2.11218,3.03149,-0.00284707,0.00355898,0.000269666,0.00357031,-0.0028584,1.5288,0.00371919,0.0102113,1490,1737,2.11219,-3.03152
273,-713,2.07861,3.03149,-0.0028103,0.00262397,0.000935186,0.00278041,-0.00296673,1.40506,0.00331869,0.00872115,1497,1737,2.07864,-3.03155
280,-713,2.08093,3.00415,-0.00294887,0.00187779,0.00180194,0.00247629,-0.00354738,1.25012,0.00349604,0.00947302,1504,1737,2.08097,-3.00415
287,-713,2.09668,2.96094,-0.0028639,0.000750841,0.00249703,0.00202596,-0.00413903,1.09866,0.00362838,0.00968914,1511,1737,2.09672,-2.96091
294,-713,2.11536,2.95532,-0.00234208,-0.000451918,0.00273143,0.00149331,-0.0042873,0.951952,0.00346495,0.0133498,1518,1737,2.11535,-2.95536
301,-713,2.13,2.94739,-0.00162876,-0.00150029,0.0025862,0.00102247,-0.00415152,0.797815,0.00316406,0.0150817,1525,1737,2.13006,-2.94741
308,-713,2.13269,2.91638,-0.00105663,-0.00231857,0.00262864,0.00101571,-0.0043909,0.667608,0.00331807,0.0166239,1532,1737,2.13265,-2.9164
315,-713,2.15088,2.90112,0.000119414,-0.00263391,0.00206458,0.00122422,-0.00373872,0.491351,0.00298543,0.0227524,1539,1737,2.15091,-2.90111
322,-713,2.14478,2.85425,0.00117345,-0.00336648,0.000818897,0.00131665,-0.00350968,0.173111,0.00288077,0.0289396,1546,1737,2.14473,-2.8542
329,-713,2.08313,2.78662,0.00236502,-0.00423212,-0.000712611,0.00244112,-0.00430822,-0.106383,0.00394612,0.0328026,1553,1737,2.08311,-2.78661
336,-713,2.00793,2.84644,0.00226884,-0.00576431,-0.00288968,0.00320031,-0.00669578,-0.311827,0.00583111,0.0371426,1560,1737,2.00795,-2.84638
343,-713,2.43872,2.66016,0.00400166,-0.0077719,-0.00567118,0.00628901,-0.0100592,-0.383373,0.00952197,0.0433803,1567,1737,2.43875,-2.66012
350,-713,2.79382,2.57788,0.0052729,-0.0103571,-0.00859687,0.00907601,-0.0141602,-0.416502,0.013522,0.0442716,1574,1737,2.79384,-2.57785
357,-713,2.31934,2.4696,0,0,0,0,0,0,0,-1,1581,1737,2.31938,-2.46965
364,-713,2.68042,2.45142,0.0085415,-0.01653,-0.0171096,0.0172162,-0.0252048,-0.469239,0.0246361,0.0459939,1588,1737,2.68044,-2.45136
371,-713,2.8291,2.61975,0.0110822,-0.0199667,-0.0225605,0.0229436,-0.0318281,-0.484042,0.0317609,0.0443938,1595,1737,2.82909,-2.61973
378,-713,2.62024,2.50989,0.0137502,-0.0242189,-0.0269709,0.0277481,-0.0382168,-0.478732,0.0382444,0.0434461,1602,1737,2.62024,-2.50985
385,-713,4.93457,3.8009,0,0,0,0,0,0,0,-1,1609,1737,4.93452,-3.80093
392,-713,4.85681,3.79834,0,0,0,0,0,0,0,-1,1616,1737,4.85685,-3.79836
399,-713,4.81799,3.98389,0,0,0,0,0,0,0,-1,1623,1737,4.81796,-3.98393
406,-713,5.0321,4.22632,0,0,0,0,0,0,0,-1,1630,1737,5.03205,-4.22631
413,-713,5.55225,4.28552,0,0,0,0,0,0,0,-1,1637,1737,5.55228,-4.28556
420,-713,0,0,0,0,0,0,0,0,0,-1,1644,1737,0,0
427,-713,0,0,0,0,0,0,0,0,0,-1,1651,1737,0,0
434,-713,0,0,0,0,0,0,0,0,0,-1,1658,1737,0,0
441,-713,0,0,0,0,0,0,0,0,0,-1,1665,1737,0,0
448,-713,0,0,0,0,0,0,0,0,0,-1,1672,1737,0,0
455,-713,0,0,0,0,0,0,0,0,0,-1,1679,1737,0,0
462,-713,0,0,0,0,0,0,0,0,0,-1,1686,1737,0,0
469,-713,0,0,0,0,0,0,0,0,0,-1,1693,1737,0,0
476,-713,0,0,0,0,0,0,0,0,0,-1,1700,1737,0,0
483,-713,0,0,0,0,0,0,0,0,0,-1,1707,1737,0,0
490,-713,0,0,0,0,0,0,0,0,0,-1,1714,1737,0,0
497,-713,0,0,0,0,0,0,0,0,0,-1,1721,1737,0,0
504,-713,0,0,0,0,0,0,0,0,0,-1,1728,1737,0,0
511,-713,0,0,0,0,0,0,0,0,0,-1,1735,1737,0,0
518,-713,0,0,0,0,0,0,0,0,0,-1,1742,1737,0,0
525,-713,0,0,0,0,0,0,0,0,0,-1,1749,1737,0,0
532,-713,0,0,0,0,0,0,0,0,0,-1,1756,1737,0,0
539,-713,0,0,0,0,0,0,0,0,0,-1,1763,1737,0,0
546,-713,0,0,0,0,0,0,0,0,0,-1,1770,1737,0,0
553,-713,0,0,0,0,0,0,0,0,0,-1,1777,1737,0,0
560,-713,0,0,0,0,0,0,0,0,0,-1,1784,1737,0,0
567,-713,0,0,0,0,0,0,0,0,0,-1,1791,1737,0,0
574,-713,0,0,0,0,0,0,0,0,0,-1,1798,1737,0,0
581,-713,0,0,0,0,0,0,0,0,0,-1,1805,1737,0,0
588,-713,0,0,0,0,0,0,0,0,0,-1,1812,1737,0,0
595,-713,0,0,0,0,0,0,0,0,0,-1,1819,1737,0,0
602,-713,0,0,0,0,0,0,0,0,0,-1,1826,1737,0,0
609,-713,0,0,0,0,0,0,0,0,0,-1,1833,1737,0,0
616,-713,0,0,0,0,0,0,0,0,0,-1,1840,1737,0,0
623,-713,0,0,0,0,0,0,0,0,0,-1,1847,1737,0,0
630,-713,0,0,0,0,0,0,0,0,0,-1,1854,1737,0,0
637,-713,0,0,0,0,0,0,0,0,0,-1,1861,1737,0,0
644,-713,0,0,0,0,0,0,0,0,0,-1,1868,1737,0,0
651,-713,0,0,0,0,0,0,0,0,0,-1,1875,1737,0,0
658,-713,0,0,0,0,0,0,0,0,0,-1,1882,1737,0,0
665,-713,0,0,0,0,0,0,0,0,0,-1,1889,1737,0,0
672,-713,0,0,0,0,0,0,0,0,0,-1,1896,1737,0,0
679,-713,0,0,0,0,0,0,0,0,0,-1,1903,1737,0,0
686,-713,0,0,0,0,0,0,0,0,0,-1,1910,1737,0,0
693,-713,0,0,0,0,0,0,0,0,0,-1,1917,1737,0,0
700,-713,0,0,0,0,0,0,0,0,0,-1,1924,1737,0,0
707,-713,0,0,0,0,0,0,0,0,0,-1,1931,1737,0,0
714,-713,0,0,0,0,0,0,0,0,0,-1,1938,1737,0,0
721,-713,0,0,0,0,0,0,0,0,0,-1,1945,1737,0,0
728,-713,0,0,0,0,0,0,0,0,0,-1,1952,1737,0,0
735,-713,0,0,0,0,0,0,0,0,0,-1,1959,1737,0,0
742,-713,0,0,0,0,0,0,0,0,0,-1,1966,1737,0,0
749,-713,0,0,0,0,0,0,0,0,0,-1,1973,1737,0,0
756,-713,0,0,0,0,0,0,0,0,0,-1,1980,1737,0,0
763,-713,0,0,0,0,0,0,0,0,0,-1,1987,1737,0,0
770,-713,0,0,0,0,0,0,0,0,0,-1,1994,1737,0,0
777,-713,0,0,0,0,0,0,0,0,0,-1,2001,1737,0,0
784,-713,0,0,0,0,0,0,0,0,0,-1,2008,1737,0,0
791,-713,0,0,0,0,0,0,0,0,0,-1,2015,1737,0,0
798,-713,0,0,0,0,0,0,0,0,0,-1,2022,1737,0,0
805,-713,0,0,0,0,0,0,0,0,0,-1,2029,1737,0,0
812,-713,0,0,0,0,0,0,0,0,0,-1,2036,1737,0,0
-700,-720,0,0,0,0,0,0,0,0,0,-1,524,1744,0,0
-693,-720,0,0,0,0,0,0,0,0,0,-1,531,1744,0,0
-686,-720,0,0,0,0,0,0,0,0,0,-1,538,1744,0,0
-679,-720,0,0,0,0,0,0,0,0,0,-1,545,1744,0,0
-672,-720,0,0,0,0,0,0,0,0,0,-1,552,1744,0,0
-665,-720,0,0,0,0,0,0,0,0,0,-1,559,1744,0,0
-658,-720,0,0,0,0,0,0,0,0,0,-1,566,1744,0,0
-651,-720,0,0,0,0,0,0,0,0,0,-1,573,1744,0,0
-644,-720,0,0,0,0,0,0,0,0,0,-1,580,1744,0,0
-637,-720,0,0,0,0,0,0,0,0,0,-1,587,1744,0,0
-630,-720,0,0,0,0,0,0,0,0,0,-1,594,1744,0,0
-623,-720,0,0,0,0,0,0,0,0,0,-1,601,1744,0,0
-616,-720,0,0,0,0,0,0,0,0,0,-1,608,1744,0,0
-609,-720,0,0,0,0,0,0,0,0,0,-1,615,1744,0,0
-602,-720,0,0,0,0,0,0,0,0,0,-1,622,1744,0,0
-595,-720,0,0,0,0,0,0,0,0,0,-1,629,1744,0,0
-588,-720,0,0,0,0,0,0,0,0,0,-1,636,1744,0,0
-581,-720,0,0,0,0,0,0,0,0,0,-1,643,1744,0,0
-574,-720,0,0,0,0,0,0,0,0,0,-1,650,1744,0,0
-567,-720,0,0,0,0,0,0,0,0,0,-1,657,1744,0,0
-560,-720,0,0,0,0,0,0,0,0,0,-1,664,1744,0,0
-553,-720,0,0,0,0,0,0,0,0,0,-1,671,1744,0,0
-546,-720,0,0,0,0,0,0,0,0,0,-1,678,1744,0,0
-539,-720,0,0,0,0,0,0,0,0,0,-1,685,1744,0,0
-532,-720,0,0,0,0,0,0,0,0,0,-1,692,1744,0,0
-525,-720,0,0,0,0,0,0,0,0,0,-1,699,1744,0,0
-518,-720,0,0,0,0,0,0,0,0,0,-1,706,1744,0,0
-511,-720,0,0,0,0,0,0,0,0,0,-1,713,1744,0,0
-504,-720,0,0,0,0,0,0,0,0,0,-1,720,1744,0,0
-497,-720,0,0,0,0,0,0,0,0,0,-1,727,1744,0,0
-490,-720,0,0,0,0,0,0,0,0,0,-1,734,1744,0,0
-483,-720,0,0,0,0,0,0,0,0,0,-1,741,1744,0,0
-476,-720,0,0,0,0,0,0,0,0,0,-1,748,1744,0,0
-469,-720,0,0,0,0,0,0,0,0,0,-1,755,1744,0,0
-462,-720,0,0,0,0,0,0,0,0,0,-1,762,1744,0,0
-455,-720,0,0,0,0,0,0,0,0,0,-1,769,1744,0,0
-448,-720,0,0,0,0,0,0,0,0,0,-1,776,1744,0,0
-441,-720,0,0,0,0,0,0,0,0,0,-1,783,1744,0,0
-434,-720,0,0,0,0,0,0,0,0,0,-1,790,1744,0,0
-427,-720,0,0,0,0,0,0,0,0,0,-1,797,1744,0,0
-420,-720,0,0,0,0,0,0,0,0,0,-1,804,1744,0,0
-413,-720,0,0,0,0,0,0,0,0,0,-1,811,1744,0,0
-406,-720,0,0,0,0,0,0,0,0,0,-1,818,1744,0,0
-399,-720,0,0,0,0,0,0,0,0,0,-1,825,1744,0,0
-392,-720,0,0,0,0,0,0,0,0,0,-1,832,1744,0,0
-385,-720,0,0,0,0,0,0,0,0,0,-1,839,1744,0,0
-378,-720,0,0,0,0,0,0,0,0,0,-1,846,1744,0,0
-371,-720,0,0,0,0,0,0,0,0,0,-1,853,1744,0,0
-364,-720,0,0,0,0,0,0,0,0,0,-1,860,1744,0,0
-357,-720,0,0,0,0,0,0,0,0,0,-1,867,1744,0,0
-350,-720,0,0,0,0,0,0,0,0,0,-1,874,1744,0,0
-343,-720,0,0,0,0,0,0,0,0,0,-1,881,1744,0,0
-336,-720,0,0,0,0,0,0,0,0,0,-1,888,1744,0,0
-329,-720,0,0,0,0,0,0,0,0,0,-1,895,1744,0,0
-322,-720,0,0,0,0,0,0,0,0,0,-1,902,1744,0,0
-315,-720,0,0,0,0,0,0,0,0,0,-1,909,1744,0,0
-308,-720,0,0,0,0,0,0,0,0,0,-1,916,1744,0,0
-301,-720,0,0,0,0,0,0,0,0,0,-1,923,1744,0,0
-294,-720,0,0,0,0,0,0,0,0,0,-1,930,1744,0,0
-287,-720,0,0,0,0,0,0,0,0,0,-1,937,1744,0,0
-280,-720,4.5639,1.56445,0,0,0,0,0,0,0,-1,944,1744,4.5639,-1.56445
-273,-720,4.47278,1.77771,-0.0323793,-0.036853,0.0355661,0.00102022,-0.0702525,0.753993,0.0471788,0.0440647,951,1744,4.4728,-1.7777
-266,-720,4.47302,2.18286,-0.0294118,-0.0280825,0.0358642,0.00712326,-0.0646175,0.794663,0.0456384,0.0466115,958,1744,4.47301,-2.18281
-259,-720,3.54944,1.85535,0,0,0,0,0,0,0,-1,965,1744,3.54946,-1.85532
-252,-720,3.43188,2.13013,-0.0166634,-0.0126445,0.0367007,0.0221017,-0.0514096,0.812747,0.0435516,0.0468655,972,1744,3.43187,-2.13014
-245,-720,3.21558,2.62244,0,0,0,0,0,0,0,-1,979,1744,3.21556,-2.6224
-238,-720,3.28485,2.75818,-0.00852764,0.0202457,0.0412195,0.0495171,-0.037799,0.953302,0.0505631,0.0463455,986,1744,3.28483,-2.75823
-231,-720,3.58099,2.89917,-0.00857687,0.0292629,0.0400792,0.0546635,-0.0339774,1.00592,0.0516393,0.0450814,993,1744,3.58099,-2.89916
-224,-720,3.51947,2.69373,-0.00761018,0.0364653,0.0380058,0.0583605,-0.0295054,1.04813,0.0516331,0.0459969,1000,1744,3.51947,-2.69373
-217,-720,3.41559,2.66479,-0.00683844,0.0418258,0.0352507,0.0603267,-0.0253393,1.08748,0.0508157,0.0480318,1007,1744,3.41558,-2.66485
-210,-720,3.07178,2.46814,-0.00594526,0.0435969,0.03166,0.0590248,-0.0213732,1.11736,0.0480846,0.0457494,1014,1744,3.0718,-2.46816
-203,-720,2.62531,2.13599,-0.0054994,0.0401162,0.0270403,0.0526831,-0.0180663,1.13575,0.0424457,0.0413073,1021,1744,2.62528,-2.13593
-196,-720,2.25586,2.35205,-0.00523402,0.0361424,0.022176,0.045782,-0.0148736,1.16075,0.0365036,0.0447896,1028,1744,2.2558,-2.35211
-189,-720,2.34094,2.87805,-0.00516177,0.0314866,0.0173293,0.038383,-0.0120582,1.19205,0.0304155,0.0468275,1035,1744,2.34099,-2.87803
-182,-720,2.31885,2.97229,-0.00534825,0.0256946,0.0122566,0.0299504,-0.00960407,1.23659,0.0238226,0.0390834,1042,1744,2.31883,-2.97232
-175,-720,2.29773,2.99097,-0.00558199,0.0217235,0.00810021,0.0239456,-0.0078041,1.30306,0.019104,0.0363383,1049,1744,2.29775,-2.99097
-168,-720,2.26208,3.00476,-0.00569884,0.0183154,0.00523701,0.0194078,-0.00679123,1.36515,0.0156997,0.0324142,1056,1744,2.26212,-3.00473
-161,-720,2.1355,2.95142,-0.00515133,0.0157287,0.00265629,0.0160613,-0.00548395,1.44622,0.0129292,0.0231553,1063,1744,2.13544,-2.95146
-154,-720,2.07861,2.96106,-0.00470661,0.0133839,0.000469462,0.0133961,-0.00471879,1.54487,0.0108512,0.0158481,1070,1744,2.07857,-2.96111
-147,-720,2.06262,3.0127,-0.00641879,0.0107802,-0.00104698,0.0108437,-0.00648229,-1.51022,0.0101082,0.0158753,1077,1744,2.06259,-3.01271
-140,-720,2.05432,3.05029,-0.0072642,0.00490427,-0.00382409,0.00600624,-0.00836617,-1.29023,0.00833512,0.0139574,1084,1744,2.05436,-3.05026
-133,-720,2.03479,3.05237,-0.00498699,0.00526929,-0.00305066,0.00610809,-0.00582578,-1.30247,0.00689067,0.0107441,1091,1744,2.03485,-3.05237
-126,-720,2.04761,3.06335,-0.00401057,0.00488649,-0.00300013,0.00580361,-0.0049277,-1.27412,0.0062026,0.011476,1098,1744,2.04761,-3.0634
-119,-720,2.0636,3.05444,-0.00407934,0.00418443,-0.00255974,0.00491307,-0.00480798,-1.29348,0.00561256,0.0152316,1105,1744,2.06365,-3.0545
-112,-720,2.06665,3.0946,-0.00432793,0.00293759,-0.00196247,0.00343378,-0.00482411,-1.32315,0.00479017,0.0143409,1112,1744,2.06669,-3.09457
-105,-720,2.06592,3.11011,-0.00444064,0.00105219,-0.00156825,0.0014684,-0.00485685,-1.31138,0.00382256,0.01292,1119,1744,2.0659,-3.11015
-98,-720,2.06885,3.12671,-0.00452625,-0.000161783,-0.00147979,0.000292634,-0.00498067,-1.27286,0.00342216,0.00990944,1126,1744,2.06885,-3.12674
-91,-720,2.06152,3.14209,-0.00468095,-0.00137809,-0.00111116,-0.00103907,-0.00501997,-1.27466,0.00305968,0.00935007,1133,1744,2.06151,-3.14208
-84,-720,2.05688,3.1571,-0.00486876,-0.0026483,-0.0005237,-0.00253098,-0.00498607,-1.35042,0.00287882,0.00981762,1140,1744,2.05694,-3.15708
-77,-720,2.05151,3.17041,-0.00476584,-0.00360484,-0.000100804,-0.00359615,-0.00477452,-1.48483,0.00287197,0.0123053,1147,1744,2.05147,-3.17045
-70,-720,2.06104,3.18628,-0.00413044,-0.00410896,0.000483183,-0.0036364,-0.004603,0.796512,0.00280259,0.0106839,1154,1744,2.06098,-3.18633
-63,-720,2.05127,3.20288,-0.0033103,-0.00421686,0.000962439,-0.00269974,-0.00482742,0.56532,0.00279363,0.0100034,1161,1744,2.05121,-3.20285
-56,-720,2.05505,3.21631,-0.00239894,-0.00406298,0.00136725,-0.00163045,-0.00483147,0.512062,0.00283815,0.0118329,1168,1744,2.05506,-3.21631
-49,-720,2.02661,3.21643,-0.0014732,-0.00339461,0.00176189,-0.000427108,-0.0044407,0.535796,0.00282886,0.0172381,1175,1744,2.02659,-3.21641
-42,-720,2.03296,3.23401,-0.000551408,-0.00261831,0.00205055,0.000711393,-0.00388111,0.551982,0.00285424,0.0207723,1182,1744,2.03297,-3.23402
-35,-720,2.04797,3.23657,0.000384006,-0.00196078,0.00210833,0.00162399,-0.00320076,0.53165,0.00283472,0.0191001,1189,1744,2.04796,-3.2366
-28,-720,2.04456,3.24951,0.00112013,-0.0013326,0.00208624,0.00231376,-0.00252623,0.519684,0.00279526,0.010923,1196,1744,2.0445,-3.24954
-21,-720,2.03271,3.27734,0.00163926,-0.000439982,0.00221033,0.00304225,-0.00184297,0.565576,0.00284867,0.00858674,1203,1744,2.03274,-3.27736
-14,-720,2.04077,3.25183,0.00205949,-0.000278622,0.00206672,0.00326488,-0.00148402,0.528006,0.0028053,0.0105974,1210,1744,2.04075,-3.2518
-7,-720,2.06458,3.26221,0.00222486,-6.05514e-05,0.00176022,0.00318076,-0.00101645,0.497497,0.00252837,0.0121404,1217,1744,2.06459,-3.26215
0,-720,2.06909,3.28467,0.00203661,6.22546e-05,0.00139104,0.00275516,-0.000656294,0.476804,0.00209017,0.0124944,1224,1744,2.06904,-3.2847
7,-720,2.05786,3.28735,0.00133298,-0.000216442,0.000927282,0.00176658,-0.000650049,0.437402,0.00144403,0.01439,1231,1744,2.05789,-3.28732
14,-720,2.06519,3.28284,0.000612892,-0.000540431,0.000377808,0.000725634,-0.000653174,0.289999,0.000796421,0.0132943,1238,1744,2.06515,-3.28284
21,-720,2.05176,3.28894,2.38593e-05,-0.000801952,-0.00020837,7.34567e-05,-0.000851549,-0.233678,0.000593702,0.0106986,1245,1744,2.05178,-3.28893
28,-720,2.03931,3.29993,-0.00048571,-0.00115942,-0.000722341,-2.55413e-05,-0.00161959,-0.567218,0.00107132,0.0110741,1252,1744,2.03936,-3.29994
35,-720,2.04919,3.30774,-0.000823569,-0.0015379,-0.00132468,0.000191248,-0.00255272,-0.653717,0.00176901,0.0106277,1259,1744,2.04925,-3.30777
42,-720,2.03918,3.31506,-0.000839129,-0.00186448,-0.00180021,0.000519986,-0.00322359,-0.646678,0.00234171,0.0105488,1266,1744,2.03915,-3.3151
49,-720,2.04346,3.30627,-0.000547044,-0.0020435,-0.00223382,0.00106053,-0.00365107,-0.623794,0.00285401,0.0109145,1273,1744,2.0435,-3.30625
56,-720,2.06311,3.30371,-3.26852e-05,-0.00226134,-0.00254419,0.00163051,-0.00392454,-0.578988,0.00329711,0.00957879,1280,1744,2.06315,-3.30373
63,-720,2.05005,3.30212,0.000496597,-0.00238431,-0.00252959,0.00196711,-0.00385483,-0.526574,0.00341969,0.0113064,1287,1744,2.04999,-3.30217
70,-720,2.05334,3.30188,0.000914826,-0.00236873,-0.00225534,0.00206267,-0.00351658,-0.470778,0.00325743,0.0123109,1294,1744,2.05336,-3.30187
77,-720,2.05969,3.31848,0.00131124,-0.00211474,-0.0018064,0.00208771,-0.00289121,-0.405967,0.00288703,0.0134936,1301,1744,2.05966,-3.31851
84,-720,2.0708,3.31042,0.00164837,-0.00196449,-0.00124172,0.00203399,-0.00235011,-0.301106,0.00253335,0.0123617,1308,1744,2.07082,-3.31047
91,-720,2.07654,3.30176,0.00191702,-0.00168082,-0.000537517,0.00199561,-0.00175941,-0.145178,0.00216939,0.0118267,1315,1744,2.07652,-3.30174
98,-720,2.0813,3.30762,0.00221681,-0.00130752,0.000207013,0.00222892,-0.00131963,0.0584703,0.00207106,0.0116514,1322,1744,2.08132,-3.3076
105,-720,2.07983,3.29541,0.00248715,-0.000621081,0.00102657,0.00279559,-0.000929524,0.291878,0.00223884,0.0114072,1329,1744,2.07985,-3.2954
112,-720,2.06995,3.30713,0.00270131,0.000168092,0.00171817,0.00356927,-0.000699871,0.467773,0.00264387,0.0103283,1336,1744,2.06997,-3.30718
119,-720,2.07629,3.31555,0.00283904,0.000834979,0.00198384,0.00405955,-0.000385527,0.551539,0.0028436,0.0107737,1343,1744,2.07625,-3.31555
126,-720,2.08154,3.29358,0.00295081,0.00165611,0.00223567,0.00463097,-2.40412e-05,0.644475,0.00309536,0.0107877,1350,1744,2.08151,-3.29355
133,-720,2.07385,3.29236,0.00307854,0.00264702,0.00210962,0.00498341,0.000742157,0.734439,0.0031046,0.011797,1357,1744,2.07384,-3.29235
140,-720,2.08191,3.30652,0.00306018,0.00352447,0.00200855,0.00531425,0.0012704,0.842931,0.00320444,0.0176102,1364,1744,2.08185,-3.30649
147,-720,2.07336,3.28992,0.00288375,0.004149,0.00160001,0.00523691,0.00179584,0.97366,0.00307286,0.0189879,1371,1744,2.07339,-3.28988
154,-720,2.05469,3.26306,0.00272694,0.00451286,0.000964073,0.00493399,0.00230582,1.15896,0.00285066,0.0127184,1378,1744,2.05469,-3.26307
161,-720,2.08044,3.24951,0.0024877,0.00490069,0.000129212,0.00490759,0.0024808,1.51745,0.00283346,0.00907573,1385,1744,2.08048,-3.24949
168,-720,2.07275,3.24023,0.00209044,0.0050182,-0.000811627,0.00522814,0.0018805,-1.31767,0.00305783,0.00895382,1392,1744,2.07275,-3.24018
175,-720,2.07703,3.21277,0.0015728,0.0048371,-0.00186127,0.00568048,0.000729425,-1.14535,0.00356878,0.0152008,1399,1744,2.07708,-3.21281
182,-720,2.09021,3.21313,0.00097216,0.0044571,-0.00297892,0.00616575,-0.000736483,-1.05003,0.0043767,0.0151693,1406,1744,2.09023,-3.2131
189,-720,2.08301,3.18591,0.000390555,0.00408289,-0.00400508,0.00664683,-0.00217338,-1.00136,0.00530618,0.0121024,1413,1744,2.08306,-3.18585
196,-720,2.08093,3.16882,-0.000235428,0.00363362,-0.00498405,0.00704541,-0.00364722,-0.97052,0.00627646,0.0125257,1420,1744,2.08095,-3.16879
203,-720,2.04724,3.15784,-0.000966588,0.00319369,-0.00582941,0.00730298,-0.00507588,-0.956773,0.00718539,0.0143171,1427,1744,2.04725,-3.15778
210,-720,2.05933,3.1615,-0.00189033,0.00276754,-0.00622808,0.00708788,-0.00621067,-0.964319,0.00768349,0.0131471,1434,1744,2.05931,-3.16155
217,-720,2.08813,3.14819,-0.00260386,0.00266037,-0.00635526,0.00690702,-0.00685051,-0.981726,0.00794293,0.0124205,1441,1744,2.08816,-3.14824
224,-720,2.0675,3.11792,-0.0033028,0.00304911,-0.00610364,0.00675365,-0.00700734,-1.02529,0.00794536,0.00918677,1448,1744,2.0675,-3.11794
231,-720,2.06946,3.1084,-0.00385126,0.00349691,-0.0054493,0.00639502,-0.00674937,-1.08201,0.00758984,0.00907658,1455,1744,2.0694,-3.1084
238,-720,2.07153,3.10193,-0.00435848,0.00391059,-0.00458146,0.00594729,-0.00639518,-1.15248,0.00712749,0.00805186,1462,1744,2.0715,-3.10198
245,-720,2.06665,3.09753,-0.00453477,0.00450485,-0.00370835,0.00583145,-0.00586138,-1.22725,0.00675086,0.0102139,1469,1744,2.06662,-3.09749
252,-720,2.08118,3.06177,-0.00461961,0.00482242,-0.00239103,0.00539338,-0.00519057,-1.33639,0.00611102,0.0101853,1476,1744,2.08117,-3.06182
259,-720,2.09631,3.03442,-0.00479496,0.00482284,-0.00087806,0.00490234,-0.00487447,-1.4805,0.00564465,0.0096621,1483,1744,2.09634,-3.03447
266,-720,2.08374,3.03662,-0.00479026,0.0041546,0.00065425,0.0042022,-0.00483786,1.49817,0.00522358,0.00800765,1490,1744,2.0837,-3.03666
273,-720,2.07715,3.03198,-0.00480602,0.0030602,0.00182418,0.00346264,-0.00520846,1.35366,0.00503997,0.0110211,1497,1744,2.07715,-3.03199
280,-720,2.06921,3.01208,-0.00499636,0.00221525,0.0032853,0.00348746,-0.00626857,1.20134,0.00570843,0.0122201,1504,1744,2.06925,-3.01212
287,-720,2.03821,2.96509,-0.00488406,0.000844389,0.0044568,0.00327798,-0.00731765,1.071,0.00626384,0.0191274,1511,1744,2.03817,-2.9651
294,-720,2.11047,2.94128,-0.00427415,-0.000675384,0.00490454,0.00274943,-0.00769897,0.961215,0.00625393,0.0271812,1518,1744,2.11046,-2.94132
301,-720,2.18201,2.94971,-0.00341994,-0.00206121,0.00490743,0.00221366,-0.00769481,0.854179,0.00600533,0.0300122,1525,1744,2.18196,-2.94968
308,-720,2.24402,3.04956,-0.00271843,-0.00321974,0.00507966,0.00211676,-0.00805493,0.760746,0.00619723,0.0323648,1532,1744,2.24403,-3.04956
315,-720,2.18628,3.20581,-0.00131846,-0.00375655,0.00451609,0.00214022,-0.00721523,0.653573,0.00566009,0.0374163,1539,1744,2.18626,-3.20576
322,-720,2.17419,3.16748,-8.48606e-05,-0.00477049,0.00306878,0.00143317,-0.00628853,0.459376,0.00474281,0.0409946,1546,1744,2.17422,-3.16746
329,-720,2.2616,3.17053,0,0,0,0,0,0,0,-1,1553,1744,2.26157,-3.17049
336,-720,1.91248,2.91602,0,0,0,0,0,0,0,-1,1560,1744,1.91245,-2.91601
343,-720,2.61658,2.70813,0.00182209,-0.0110603,-0.00508928,0.00359002,-0.0128282,-0.334343,0.00996671,0.0477961,1567,1744,2.61663,-2.70809
350,-720,3.19446,2.41357,0.00242375,-0.0143257,-0.00871237,0.00613378,-0.0180358,-0.402578,0.0145073,0.0444956,1574,1744,3.19448,-2.41353
357,-720,3.78821,2.11584,0,0,0,0,0,0,0,-1,1581,1744,3.78816,-2.11589
364,-720,2.69189,3.24622,0,0,0,0,0,0,0,-1,1588,1744,2.69184,-3.24623
371,-720,2.98047,3.14917,0.00372866,-0.0261671,-0.0258848,0.0186716,-0.0411101,-0.523551,0.0353161,0.0477426,1595,1744,2.98046,-3.14923
378,-720,2.9325,2.73828,0.00451,-0.0310086,-0.031068,0.0225363,-0.0490349,-0.52575,0.0422552,0.0468388,1602,1744,2.93254,-2.73833
385,-720,2.26343,2.32739,0.00605494,-0.0385249,-0.0372193,0.0271484,-0.0596184,-0.5156,0.0512507,0.0423172,1609,1744,2.26348,-2.32737
392,-720,1.31616,2.15637,0,0,0,0,0,0,0,-1,1616,1744,1.31617,-2.15635
399,-720,-0.629639,2.19824,0,0,0,0,0,0,0,-1,1623,1744,-0.62968,-2.19822
406,-720,0,0,0,0,0,0,0,0,0,-1,1630,1744,0,0
413,-720,0,0,0,0,0,0,0,0,0,-1,1637,1744,0,0
420,-720,0,0,0,0,0,0,0,0,0,-1,1644,1744,0,0
427,-720,0,0,0,0,0,0,0,0,0,-1,1651,1744,0,0
434,-720,0,0,0,0,0,0,0,0,0,-1,1658,1744,0,0
441,-720,0,0,0,0,0,0,0,0,0,-1,1665,1744,0,0
448,-720,0,0,0,0,0,0,0,0,0,-1,1672,1744,0,0
455,-720,0,0,0,0,0,0,0,0,0,-1,1679,1744,0,0
462,-720,0,0,0,0,0,0,0,0,0,-1,1686,1744,0,0
469,-720,0,0,0,0,0,0,0,0,0,-1,1693,1744,0,0
476,-720,0,0,0,0,0,0,0,0,0,-1,1700,1744,0,0
483,-720,0,0,0,0,0,0,0,0,0,-1,1707,1744,0,0
490,-720,0,0,0,0,0,0,0,0,0,-1,1714,1744,0,0
497,-720,0,0,0,0,0,0,0,0,0,-1,1721,1744,0,0
504,-720,0,0,0,0,0,0,0,0,0,-1,1728,1744,0,0
511,-720,0,0,0,0,0,0,0,0,0,-1,1735,1744,0,0
518,-720,0,0,0,0,0,0,0,0,0,-1,1742,1744,0,0
525,-720,0,0,0,0,0,0,0,0,0,-1,1749,1744,0,0
532,-720,0,0,0,0,0,0,0,0,0,-1,1756,1744,0,0
539,-720,0,0,0,0,0,0,0,0,0,-1,1763,1744,0,0
546,-720,0,0,0,0,0,0,0,0,0,-1,1770,1744,0,0
553,-720,0,0,0,0,0,0,0,0,0,-1,1777,1744,0,0
560,-720,0,0,0,0,0,0,0,0,0,-1,1784,1744,0,0
567,-720,0,0,0,0,0,0,0,0,0,-1,1791,1744,0,0
574,-720,0,0,0,0,0,0,0,0,0,-1,1798,1744,0,0
581,-720,0,0,0,0,0,0,0,0,0,-1,1805,1744,0,0
588,-720,0,0,0,0,0,0,0,0,0,-1,1812,1744,0,0
595,-720,0,0,0,0,0,0,0,0,0,-1,1819,1744,0,0
602,-720,0,0,0,0,0,0,0,0,0,-1,1826,1744,0,0
609,-720,0,0,0,0,0,0,0,0,0,-1,1833,1744,0,0
616,-720,0,0,0,0,0,0,0,0,0,-1,1840,1744,0,0
623,-720,0,0,0,0,0,0,0,0,0,-1,1847,1744,0,0
630,-720,0,0,0,0,0,0,0,0,0,-1,1854,1744,0,0
637,-720,0,0,0,0,0,0,0,0,0,-1,1861,1744,0,0
644,-720,0,0,0,0,0,0,0,0,0,-1,1868,1744,0,0
651,-720,0,0,0,0,0,0,0,0,0,-1,1875,1744,0,0
658,-720,0,0,0,0,0,0,0,0,0,-1,1882,1744,0,0
665,-720,0,0,0,0,0,0,0,0,0,-1,1889,1744,0,0
672,-720,0,0,0,0,0,0,0,0,0,-1,1896,1744,0,0
679,-720,0,0,0,0,0,0,0,0,0,-1,1903,1744,0,0
686,-720,0,0,0,0,0,0,0,0,0,-1,1910,1744,0,0
693,-720,0,0,0,0,0,0,0,0,0,-1,1917,1744,0,0
700,-720,0,0,0,0,0,0,0,0,0,-1,1924,1744,0,0
707,-720,0,0,0,0,0,0,0,0,0,-1,1931,1744,0,0
714,-720,0,0,0,0,0,0,0,0,0,-1,1938,1744,0,0
721,-720,0,0,0,0,0,0,0,0,0,-1,1945,1744,0,0
728,-720,0,0,0,0,0,0,0,0,0,-1,1952,1744,0,0
735,-720,0,0,0,0,0,0,0,0,0,-1,1959,1744,0,0
742,-720,0,0,0,0,0,0,0,0,0,-1,1966,1744,0,0
749,-720,0,0,0,0,0,0,0,0,0,-1,1973,1744,0,0
756,-720,0,0,0,0,0,0,0,0,0,-1,1980,1744,0,0
763,-720,0,0,0,0,0,0,0,0,0,-1,1987,1744,0,0
770,-720,0,0,0,0,0,0,0,0,0,-1,1994,1744,0,0
777,-720,0,0,0,0,0,0,0,0,0,-1,2001,1744,0,0
784,-720,0,0,0,0,0,0,0,0,0,-1,2008,1744,0,0
791,-720,0,0,0,0,0,0,0,0,0,-1,2015,1744,0,0
798,-720,0,0,0,0,0,0,0,0,0,-1,2022,1744,0,0
805,-720,0,0,0,0,0,0,0,0,0,-1,2029,1744,0,0
812,-720,0,0,0,0,0,0,0,0,0,-1,2036,1744,0,0
-700,-727,0,0,0,0,0,0,0,0,0,-1,524,1751,0,0
-693,-727,0,0,0,0,0,0,0,0,0,-1,531,1751,0,0
-686,-727,0,0,0,0,0,0,0,0,0,-1,538,1751,0,0
-679,-727,0,0,0,0,0,0,0,0,0,-1,545,1751,0,0
-672,-727,0,0,0,0,0,0,0,0,0,-1,552,1751,0,0
-665,-727,0,0,0,0,0,0,0,0,0,-1,559,1751,0,0
-658,-727,0,0,0,0,0,0,0,0,0,-1,566,1751,0,0
-651,-727,0,0,0,0,0,0,0,0,0,-1,573,1751,0,0
-644,-727,0,0,0,0,0,0,0,0,0,-1,580,1751,0,0
-637,-727,0,0,0,0,0,0,0,0,0,-1,587,1751,0,0
-630,-727,0,0,0,0,0,0,0,0,0,-1,594,1751,0,0
-623,-727,0,0,0,0,0,0,0,0,0,-1,601,1751,0,0
-616,-727,0,0,0,0,0,0,0,0,0,-1,608,1751,0,0
-609,-727,0,0,0,0,0,0,0,0,0,-1,615,1751,0,0
-602,-727,0,0,0,0,0,0,0,0,0,-1,622,1751,0,0
-595,-727,0,0,0,0,0,0,0,0,0,-1,629,1751,0,0
-588,-727,0,0,0,0,0,0,0,0,0,-1,636,1751,0,0
-581,-727,0,0,0,0,0,0,0,0,0,-1,643,1751,0,0
-574,-727,0,0,0,0,0,0,0,0,0,-1,650,1751,0,0
-567,-727,0,0,0,0,0,0,0,0,0,-1,657,1751,0,0
-560,-727,0,0,0,0,0,0,0,0,0,-1,664,1751,0,0
-553,-727,0,0,0,0,0,0,0,0,0,-1,671,1751,0,0
-546,-727,0,0,0,0,0,0,0,0,0,-1,678,1751,0,0
-539,-727,0,0,0,0,0,0,0,0,0,-1,685,1751,0,0
-532,-727,0,0,0,0,0,0,0,0,0,-1,692,1751,0,0
-525,-727,0,0,0,0,0,0,0,0,0,-1,699,1751,0,0
-518,-727,0,0,0,0,0,0,0,0,0,-1,706,1751,0,0
-511,-727,0,0,0,0,0,0,0,0,0,-1,713,1751,0,0
-504,-727,0,0,0,0,0,0,0,0,0,-1,720,1751,0,0
-497,-727,0,0,0,0,0,0,0,0,0,-1,727,1751,0,0
-490,-727,0,0,0,0,0,0,0,0,0,-1,734,1751,0,0
-483,-727,0,0,0,0,0,0,0,0,0,-1,741,1751,0,0
-476,-727,0,0,0,0,0,0,0,0,0,-1,748,1751,0,0
-469,-727,0,0,0,0,0,0,0,0,0,-1,755,1751,0,0
-462,-727,0,0,0,0,0,0,0,0,0,-1,762,1751,0,0
-455,-727,0,0,0,0,0,0,0,0,0,-1,769,1751,0,0
-448,-727,0,0,0,0,0,0,0,0,0,-1,776,1751,0,0
-441,-727,0,0,0,0,0,0,0,0,0,-1,783,1751,0,0
-434,-727,0,0,0,0,0,0,0,0,0,-1,790,1751,0,0
-427,-727,0,0,0,0,0,0,0,0,0,-1,797,1751,0,0
-420,-727,0,0,0,0,0,0,0,0,0,-1,804,1751,0,0
-413,-727,0,0,0,0,0,0,0,0,0,-1,811,1751,0,0
-406,-727,0,0,0,0,0,0,0,0,0,-1,818,1751,0,0
-399,-727,0,0,0,0,0,0,0,0,0,-1,825,1751,0,0
-392,-727,0,0,0,0,0,0,0,0,0,-1,832,1751,0,0
-385,-727,0,0,0,0,0,0,0,0,0,-1,839,1751,0,0
-378,-727,0,0,0,0,0,0,0,0,0,-1,846,1751,0,0
-371,-727,0,0,0,0,0,0,0,0,0,-1,853,1751,0,0
-364,-727,0,0,0,0,0,0,0,0,0,-1,860,1751,0,0
-357,-727,0,0,0,0,0,0,0,0,0,-1,867,1751,0,0
-350,-727,0,0,0,0,0,0,0,0,0,-1,874,1751,0,0
-343,-727,0,0,0,0,0,0,0,0,0,-1,881,1751,0,0
-336,-727,0,0,0,0,0,0,0,0,0,-1,888,1751,0,0
-329,-727,0,0,0,0,0,0,0,0,0,-1,895,1751,0,0
-322,-727,0,0,0,0,0,0,0,0,0,-1,902,1751,0,0
-315,-727,0,0,0,0,0,0,0,0,0,-1,909,1751,0,0
-308,-727,0,0,0,0,0,0,0,0,0,-1,916,1751,0,0
-301,-727,0,0,0,0,0,0,0,0,0,-1,923,1751,0,0
-294,-727,0,0,0,0,0,0,0,0,0,-1,930,1751,0,0
-287,-727,0,0,0,0,0,0,0,0,0,-1,937,1751,0,0
-280,-727,0,0,0,0,0,0,0,0,0,-1,944,1751,0,0
-273,-727,0,0,0,0,0,0,0,0,0,-1,951,1751,0,0
-266,-727,5.07886,2.97046,-0.0315196,-0.0370181,0.0381049,0.00393505,-0.0724728,0.749386,0.0496789,0.0475132,958,1751,5.07887,-2.97047
-259,-727,4.89899,2.97791,0,0,0,0,0,0,0,-1,965,1751,4.89896,-2.97787
-252,-727,2.71063,2.09631,0,0,0,0,0,0,0,-1,972,1751,2.71061,-2.09625
-245,-727,1.86334,1.85107,0,0,0,0,0,0,0,-1,979,1751,1.86334,-1.85113
-238,-727,1.9201,1.91602,0,0,0,0,0,0,0,-1,986,1751,1.92013,-1.91603
-231,-727,1.93384,2.18408,0,0,0,0,0,0,0,-1,993,1751,1.93382,-2.18414
-224,-727,2.98236,2.57324,0,0,0,0,0,0,0,-1,1000,1751,2.98237,-2.57327
-217,-727,2.82483,2.45911,-0.00579948,0.0521942,0.0470907,0.0784997,-0.032105,1.06136,0.0657036,0.0484674,1007,1751,2.82484,-2.45916
-210,-727,2.53076,2.2782,-0.00469674,0.0555531,0.043589,0.0784141,-0.0275578,1.08777,0.063488,0.0473001,1014,1751,2.53076,-2.27816
-203,-727,2.62988,2.02051,0,0,0,0,0,0,0,-1,1021,1751,2.62987,-2.02055
-196,-727,2.31152,2.28979,0,0,0,0,0,0,0,-1,1028,1751,2.31148,-2.28979
-189,-727,2.85303,2.93982,-0.00469771,0.0438897,0.0264505,0.05551,-0.016318,1.15686,0.043479,0.0452524,1035,1751,2.85297,-2.93987
-182,-727,2.88647,3.33716,-0.00541208,0.0368792,0.0198389,0.0447287,-0.0132616,1.19403,0.0350853,0.0428346,1042,1751,2.88645,-3.33714
-175,-727,2.53381,3.13232,-0.00615657,0.031428,0.0139673,0.0360502,-0.0107787,1.25121,0.0283186,0.0437721,1049,1751,2.53383,-3.13233
-168,-727,2.61316,3.06335,-0.00674066,0.0262989,0.00925608,0.0287152,-0.00915704,1.31544,0.0228168,0.0424343,1056,1751,2.61319,-3.06336
-161,-727,2.60901,2.70715,-0.00630836,0.0222954,0.00512606,0.0231863,-0.00719925,1.39872,0.0183346,0.0417732,1063,1751,2.60906,-2.70716
-154,-727,2.14624,2.97729,-0.00623643,0.0185259,0.001469,0.0186127,-0.00632327,1.51175,0.0149683,0.0354905,1070,1751,2.14619,-2.97733
-147,-727,2.14197,3.11523,-0.00927777,0.0144936,-0.001275,0.0145618,-0.00934596,-1.51736,0.0139122,0.0283798,1077,1751,2.14192,-3.11522
-140,-727,2.05444,3.03064,-0.0108298,0.00571506,-0.00559059,0.00742701,-0.0125417,-1.27364,0.0116543,0.019321,1084,1751,2.0545,-3.03058
-133,-727,2.02454,3.02954,-0.00803459,0.0060559,-0.00462949,0.00744082,-0.00941951,-1.28012,0.00975663,0.0123549,1091,1751,2.0245,-3.02957
-126,-727,2.0376,3.05017,-0.00711124,0.00548638,-0.0045683,0.00696859,-0.00859345,-1.25706,0.00900106,0.0100313,1098,1751,2.03759,-3.05019
-119,-727,2.06482,3.08118,-0.00744702,0.00457374,-0.003985,0.0057748,-0.00864808,-1.27806,0.00838195,0.010196,1105,1751,2.06482,-3.08115
-112,-727,2.08215,3.09338,-0.00786934,0.00306583,-0.00319972,0.00393328,-0.0087368,-1.30606,0.00748826,0.0124402,1112,1751,2.08216,-3.09337
-105,-727,2.08728,3.10547,-0.00800533,0.000870254,-0.00260148,0.00157656,-0.00871163,-1.30569,0.00639835,0.0123434,1119,1751,2.08724,-3.10548
-98,-727,2.05908,3.12354,-0.00807077,-0.000647002,-0.00228634,6.34696e-07,-0.00871841,-1.29476,0.00581248,0.0103107,1126,1751,2.05904,-3.12358
-91,-727,2.06824,3.14331,-0.00807972,-0.00212151,-0.00165393,-0.00169319,-0.00850804,-1.31739,0.00520034,0.0100187,1133,1751,2.06822,-3.14331
-84,-727,2.06555,3.15869,-0.00806835,-0.00371422,-0.000722039,-0.00359761,-0.00818496,-1.41068,0.00473709,0.0102026,1140,1751,2.0655,-3.15863
-77,-727,2.05359,3.17786,-0.00771809,-0.00489063,1.28106e-05,-0.00489057,-0.00771815,1.56627,0.00450882,0.0112128,1147,1751,2.05364,-3.1779
-70,-727,2.06726,3.19666,-0.00654999,-0.00553676,0.00092506,-0.00498868,-0.00709808,1.03592,0.00420896,0.0117582,1154,1751,2.06721,-3.19667
-63,-727,2.05957,3.19995,-0.00508206,-0.00567266,0.00172351,-0.00362874,-0.00712598,0.700553,0.00411442,0.00956268,1161,1751,2.05963,-3.1999
-56,-727,2.04834,3.21069,-0.00360529,-0.00554954,0.00241241,-0.0019765,-0.00717833,0.593867,0.00428159,0.00997678,1168,1751,2.04837,-3.21065
-49,-727,2.03223,3.21448,-0.0019532,-0.00481791,0.00294582,-0.000109963,-0.00666115,0.559111,0.00440457,0.0130127,1175,1751,2.0322,-3.21454
-42,-727,2.01709,3.229,-0.000341282,-0.0039188,0.00338129,0.00169524,-0.00595533,0.542103,0.00463971,0.0169334,1182,1751,2.01704,-3.22897
-35,-727,2.00647,3.2323,0.00119079,-0.00314047,0.00355476,0.00318765,-0.00513733,0.511813,0.00485016,0.0159274,1189,1751,2.00644,-3.23233
-28,-727,2.04138,3.2345,0.00237061,-0.00231189,0.00358226,0.00430885,-0.00425013,0.495958,0.00494157,0.00917676,1196,1751,2.04136,-3.23451
-21,-727,2.03967,3.26233,0.00321981,-0.00110211,0.00382735,0.00545412,-0.00333641,0.528402,0.00512407,0.00924129,1203,1751,2.03963,-3.26235
-14,-727,2.0542,3.25134,0.0038921,-0.00101472,0.00360405,0.00579855,-0.00292117,0.486558,0.00512488,0.0114453,1210,1751,2.05415,-3.25135
-7,-727,2.0741,3.27588,0.00416961,-0.000865763,0.00319471,0.00571947,-0.00241562,0.451683,0.00482418,0.0150354,1217,1751,2.07409,-3.27593
0,-727,2.07446,3.28455,0.00398493,-0.000792217,0.0028014,0.00527781,-0.0020851,0.432387,0.00438217,0.0130412,1224,1751,2.0745,-3.28454
7,-727,2.05615,3.28931,0.0032463,-0.00104064,0.00235074,0.00428409,-0.00207843,0.415743,0.00374626,0.0124169,1231,1751,2.05613,-3.28925
14,-727,2.05713,3.28394,0.00247881,-0.00148129,0.00184535,0.00320541,-0.00220788,0.3751,0.003143,0.0121956,1238,1751,2.05708,-3.28393
21,-727,2.05481,3.29431,0.00177078,-0.00176684,0.0012795,0.00218504,-0.0021811,0.313119,0.0025208,0.0103635,1245,1751,2.05486,-3.29427
28,-727,2.06763,3.29822,0.00111662,-0.00220365,0.000708566,0.00126151,-0.00234854,0.201702,0.00211552,0.00936131,1252,1751,2.06766,-3.29817
35,-727,2.0863,3.29346,0.000472872,-0.00268536,5.35897e-05,0.000473781,-0.00268627,0.0169618,0.00196788,0.0110662,1259,1751,2.08628,-3.29343
42,-727,2.05786,3.29541,0.000181522,-0.00313611,-0.000509924,0.000258129,-0.00321272,-0.149117,0.00223284,0.0120003,1266,1751,2.05788,-3.2954
49,-727,2.04358,3.297,0.000299607,-0.00338071,-0.00106938,0.000587772,-0.00366887,-0.263216,0.00266354,0.0107511,1273,1751,2.04361,-3.29701
56,-727,2.0575,3.30676,0.000517317,-0.00352339,-0.00154184,0.00103844,-0.00404451,-0.325932,0.003101,0.00894114,1280,1751,2.05756,-3.30679
63,-727,2.05615,3.29309,0.000760676,-0.00348674,-0.00176526,0.00139854,-0.00412461,-0.346744,0.00331574,0.010431,1287,1751,2.0562,-3.29307
70,-727,2.05542,3.29175,0.00092067,-0.00325062,-0.00188472,0.00164609,-0.00397604,-0.367418,0.00333756,0.0125395,1294,1751,2.05537,-3.29176
77,-727,2.06458,3.32349,0.00119969,-0.00279574,-0.00181547,0.00190138,-0.00349743,-0.36882,0.00316208,0.0145047,1301,1751,2.06455,-3.32349
84,-727,2.06311,3.30017,0.00145887,-0.00229335,-0.00163015,0.00206816,-0.00290264,-0.357683,0.00288334,0.0135253,1308,1751,2.06313,-3.30018
91,-727,2.08838,3.27856,0.00169358,-0.00151722,-0.00119026,0.00208669,-0.00191033,-0.318991,0.00230843,0.0142752,1315,1751,2.08833,-3.27855
98,-727,2.10547,3.30139,0.00205288,-0.000656014,-0.000751986,0.00224763,-0.000850763,-0.253412,0.00184846,0.012953,1322,1751,2.10548,-3.30139
105,-727,2.08667,3.30237,0.00256153,0.000382217,-0.000393756,0.00263049,0.000313256,-0.173378,0.00165913,0.0127511,1329,1751,2.0867,-3.30243
112,-727,2.07227,3.30042,0.003139,0.0014212,-0.000150998,0.00315217,0.00140803,-0.0870127,0.00182335,0.0106132,1336,1751,2.07222,-3.30042
119,-727,2.08252,3.31372,0.00372825,0.00243231,-0.000250209,0.00377488,0.00238568,-0.184252,0.00220459,0.00826307,1343,1751,2.08257,-3.31369
126,-727,2.09656,3.30078,0.0042966,0.00326143,-0.00034867,0.00440309,0.00315494,-0.296409,0.00262038,0.00920952,1350,1751,2.09658,-3.30079
133,-727,2.08435,3.31372,0.00489021,0.00412264,-0.00075668,0.00535486,0.00365798,-0.550704,0.00315998,0.013193,1357,1751,2.08435,-3.31373
140,-727,2.09277,3.32349,0.0053135,0.00473169,-0.000970863,0.0060361,0.00400908,-0.639838,0.00354702,0.019891,1364,1751,2.09283,-3.32353
147,-727,2.08484,3.2821,0.00549259,0.00496885,-0.00149485,0.00674833,0.0037131,-0.698688,0.0039027,0.0175384,1371,1751,2.08481,-3.28214
154,-727,2.07495,3.24841,0.0055506,0.00478522,-0.00226103,0.0074611,0.00287472,-0.701564,0.00434529,0.0112707,1378,1751,2.07489,-3.24839
161,-727,2.07214,3.24768,0.00544427,0.00454885,-0.00322256,0.00825007,0.00174305,-0.716375,0.00502092,0.00878962,1385,1751,2.07212,-3.24768
168,-727,2.05957,3.24622,0.0049753,0.00410549,-0.00423771,0.00880036,0.000280429,-0.734263,0.0057757,0.0108392,1392,1751,2.05955,-3.24624
175,-727,2.0614,3.23022,0.00417334,0.0034036,-0.00535804,0.00916031,-0.00158337,-0.749545,0.00669735,0.0167456,1399,1751,2.06136,-3.23023
182,-727,2.08447,3.2168,0.00313348,0.00276217,-0.0065265,0.00947696,-0.00358131,-0.771179,0.00779112,0.0186325,1406,1751,2.08445,-3.21685
189,-727,2.07019,3.19604,0.00213147,0.00216266,-0.00753947,0.00968655,-0.00539242,-0.786433,0.00882274,0.0110277,1413,1751,2.07019,-3.196
196,-727,2.05151,3.18152,0.0010832,0.00171552,-0.00861746,0.0100226,-0.00722389,-0.803734,0.0100009,0.0124048,1420,1751,2.0515,-3.18153
203,-727,2.02576,3.16296,-0.000107266,0.00146831,-0.00954988,0.0102628,-0.0089018,-0.826551,0.011074,0.0145349,1427,1751,2.02572,-3.16291
210,-727,2.03931,3.16125,-0.00162224,0.00137474,-0.00981405,0.00980404,-0.0100515,-0.861157,0.0114639,0.0144892,1434,1751,2.03927,-3.1612
217,-727,2.06177,3.14417,-0.00286702,0.00158955,-0.00979427,0.00940581,-0.0106833,-0.897249,0.0116063,0.0103369,1441,1751,2.0618,-3.14421
224,-727,2.04932,3.09351,-0.00403218,0.00243333,-0.00932828,0.00907314,-0.010672,-0.952199,0.0114123,0.0106887,1448,1751,2.04934,-3.09354
231,-727,2.05286,3.09668,-0.00500307,0.00338575,-0.00819237,0.00839503,-0.0100124,-1.02199,0.0106412,0.00871162,1455,1751,2.05284,-3.09666
238,-727,2.0625,3.10156,-0.00594392,0.00421384,-0.00675435,0.00758578,-0.00931585,-1.10777,0.00977519,0.00898533,1462,1751,2.06256,-3.10155
245,-727,2.05969,3.09753,-0.00648928,0.00525569,-0.00538985,0.00735419,-0.00858778,-1.19951,0.00921328,0.00926033,1469,1751,2.0597,-3.09748
252,-727,2.05603,3.07068,-0.0068679,0.00577304,-0.00334278,0.00660257,-0.00769743,-1.32755,0.00826417,0.0105198,1476,1751,2.05609,-3.07068
259,-727,2.05896,3.04077,-0.00730758,0.00588595,-0.00100993,0.00596281,-0.00738444,-1.49484,0.00772059,0.0134493,1483,1751,2.05896,-3.04073
266,-727,2.09277,3.06396,-0.00741306,0.00512778,0.00137649,0.00527708,-0.00756236,1.46275,0.0074519,0.0163938,1490,1751,2.09278,-3.064
273,-727,2.12476,3.05652,-0.00749757,0.0038451,0.00324278,0.00470673,-0.0083592,1.31109,0.00764123,0.023591,1497,1751,2.1248,-3.05648
280,-727,2.15979,2.97766,-0.00776797,0.00285538,0.00545471,0.00515736,-0.0100699,1.17146,0.0089427,0.0342028,1504,1751,2.15974,-2.97761
287,-727,2.15125,2.83704,-0.00764909,0.00115522,0.00724844,0.00523357,-0.0117274,1.05829,0.0100288,0.0392077,1511,1751,2.15127,-2.83707
294,-727,2.21667,2.83264,-0.0069868,-0.000801322,0.00801757,0.00469933,-0.0124875,0.969477,0.0102568,0.0424776,1518,1751,2.21662,-2.83258
301,-727,2.38977,2.96594,-0.00602305,-0.00266564,0.00827617,0.00410036,-0.0127891,0.885458,0.0101721,0.0423092,1525,1751,2.38973,-2.96599
308,-727,2.42395,3.20313,-0.0052116,-0.00431244,0.00864936,0.00389901,-0.0134231,0.811364,0.0104927,0.0451779,1532,1751,2.424,-3.20307
315,-727,2.41614,3.5282,-0.0036573,-0.00519861,0.00818644,0.00379468,-0.0126506,0.738468,0.00994299,0.0436851,1539,1751,2.41618,-3.52818
322,-727,2.26282,3.47937,-0.00232453,-0.00659817,0.00660854,0.00248407,-0.0114068,0.629032,0.00855363,0.0422512,1546,1751,2.26283,-3.47933
329,-727,2.44067,3.62292,0,0,0,0,0,0,0,-1,1553,1751,2.44068,-3.62289
336,-727,2.71814,1.67969,0,0,0,0,0,0,0,-1,1560,1751,2.71818,-1.67975
343,-727,2.87634,2.77856,0,0,0,0,0,0,0,-1,1567,1751,2.8763,-2.77859
350,-727,3.46252,2.42896,0,0,0,0,0,0,0,-1,1574,1751,3.46255,-2.42901
357,-727,4.25525,2.23303,0,0,0,0,0,0,0,-1,1581,1751,4.2553,-2.23305
364,-727,2.75354,3.35815,0,0,0,0,0,0,0,-1,1588,1751,2.75359,-3.35817
371,-727,3.09204,3.48401,-0.0088828,-0.0338513,-0.0284806,0.0097296,-0.0524637,-0.57884,0.0386296,0.0444851,1595,1751,3.09206,-3.48398
378,-727,3.05542,3.10889,-0.0112778,-0.0392262,-0.0345644,0.0120304,-0.0625344,-0.593297,0.0462245,0.0476398,1602,1751,3.05545,-3.10887
385,-727,2.26697,2.79529,-0.0123941,-0.0482756,-0.0421065,0.0154345,-0.0761041,-0.584006,0.056587,0.0414242,1609,1751,2.26702,-2.79526
392,-727,0,0,0,0,0,0,0,0,0,-1,1616,1751,0,0
399,-727,0,0,0,0,0,0,0,0,0,-1,1623,1751,0,0
406,-727,0,0,0,0,0,0,0,0,0,-1,1630,1751,0,0
413,-727,0,0,0,0,0,0,0,0,0,-1,1637,1751,0,0
420,-727,0,0,0,0,0,0,0,0,0,-1,1644,1751,0,0
427,-727,0,0,0,0,0,0,0,0,0,-1,1651,1751,0,0
434,-727,0,0,0,0,0,0,0,0,0,-1,1658,1751,0,0
441,-727,0,0,0,0,0,0,0,0,0,-1,1665,1751,0,0
448,-727,0,0,0,0,0,0,0,0,0,-1,1672,1751,0,0
455,-727,0,0,0,0,0,0,0,0,0,-1,1679,1751,0,0
462,-727,0,0,0,0,0,0,0,0,0,-1,1686,1751,0,0
469,-727,0,0,0,0,0,0,0,0,0,-1,1693,1751,0,0
476,-727,0,0,0,0,0,0,0,0,0,-1,1700,1751,0,0
483,-727,0,0,0,0,0,0,0,0,0,-1,1707,1751,0,0
490,-727,0,0,0,0,0,0,0,0,0,-1,1714,1751,0,0
497,-727,0,0,0,0,0,0,0,0,0,-1,1721,1751,0,0
504,-727,0,0,0,0,0,0,0,0,0,-1,1728,1751,0,0
511,-727,0,0,0,0,0,0,0,0,0,-1,1735,1751,0,0
518,-727,0,0,0,0,0,0,0,0,0,-1,1742,1751,0,0
525,-727,0,0,0,0,0,0,0,0,0,-1,1749,1751,0,0
532,-727,0,0,0,0,0,0,0,0,0,-1,1756,1751,0,0
539,-727,0,0,0,0,0,0,0,0,0,-1,1763,1751,0,0
546,-727,0,0,0,0,0,0,0,0,0,-1,1770,1751,0,0
553,-727,0,0,0,0,0,0,0,0,0,-1,1777,1751,0,0
560,-727,0,0,0,0,0,0,0,0,0,-1,1784,1751,0,0
567,-727,0,0,0,0,0,0,0,0,0,-1,1791,1751,0,0
574,-727,0,0,0,0,0,0,0,0,0,-1,1798,1751,0,0
581,-727,0,0,0,0,0,0,0,0,0,-1,1805,1751,0,0
588,-727,0,0,0,0,0,0,0,0,0,-1,1812,1751,0,0
595,-727,0,0,0,0,0,0,0,0,0,-1,1819,1751,0,0
602,-727,0,0,0,0,0,0,0,0,0,-1,1826,1751,0,0
609,-727,0,0,0,0,0,0,0,0,0,-1,1833,1751,0,0
616,-727,0,0,0,0,0,0,0,0,0,-1,1840,1751,0,0
623,-727,0,0,0,0,0,0,0,0,0,-1,1847,1751,0,0
630,-727,0,0,0,0,0,0,0,0,0,-1,1854,1751,0,0
637,-727,0,0,0,0,0,0,0,0,0,-1,1861,1751,0,0
644,-727,0,0,0,0,0,0,0,0,0,-1,1868,1751,0,0
651,-727,0,0,0,0,0,0,0,0,0,-1,1875,1751,0,0
658,-727,0,0,0,0,0,0,0,0,0,-1,1882,1751,0,0
665,-727,0,0,0,0,0,0,0,0,0,-1,1889,1751,0,0
672,-727,0,0,0,0,0,0,0,0,0,-1,1896,1751,0,0
679,-727,0,0,0,0,0,0,0,0,0,-1,1903,1751,0,0
686,-727,0,0,0,0,0,0,0,0,0,-1,1910,1751,0,0
693,-727,0,0,0,0,0,0,0,0,0,-1,1917,1751,0,0
700,-727,0,0,0,0,0,0,0,0,0,-1,1924,1751,0,0
707,-727,0,0,0,0,0,0,0,0,0,-1,1931,1751,0,0
714,-727,0,0,0,0,0,0,0,0,0,-1,1938,1751,0,0
721,-727,0,0,0,0,0,0,0,0,0,-1,1945,1751,0,0
728,-727,0,0,0,0,0,0,0,0,0,-1,1952,1751,0,0
735,-727,0,0,0,0,0,0,0,0,0,-1,1959,1751,0,0
742,-727,0,0,0,0,0,0,0,0,0,-1,1966,1751,0,0
749,-727,0,0,0,0,0,0,0,0,0,-1,1973,1751,0,0
756,-727,0,0,0,0,0,0,0,0,0,-1,1980,1751,0,0
763,-727,0,0,0,0,0,0,0,0,0,-1,1987,1751,0,0
770,-727,0,0,0,0,0,0,0,0,0,-1,1994,1751,0,0
777,-727,0,0,0,0,0,0,0,0,0,-1,2001,1751,0,0
784,-727,0,0,0,0,0,0,0,0,0,-1,2008,1751,0,0
791,-727,0,0,0,0,0,0,0,0,0,-1,2015,1751,0,0
798,-727,0,0,0,0,0,0,0,0,0,-1,2022,1751,0,0
805,-727,0,0,0,0,0,0,0,0,0,-1,2029,1751,0,0
812,-727,0,0,0,0,0,0,0,0,0,-1,2036,1751,0,0
-700,-734,0,0,0,0,0,0,0,0,0,-1,524,1758,0,0
-693,-734,0,0,0,0,0,0,0,0,0,-1,531,1758,0,0
-686,-734,0,0,0,0,0,0,0,0,0,-1,538,1758,0,0
-679,-734,0,0,0,0,0,0,0,0,0,-1,545,1758,0,0
-672,-734,0,0,0,0,0,0,0,0,0,-1,552,1758,0,0
-665,-734,0,0,0,0,0,0,0,0,0,-1,559,1758,0,0
-658,-734,0,0,0,0,0,0,0,0,0,-1,566,1758,0,0
-651,-734,0,0,0,0,0,0,0,0,0,-1,573,1758,0,0
-644,-734,0,0,0,0,0,0,0,0,0,-1,580,1758,0,0
-637,-734,0,0,0,0,0,0,0,0,0,-1,587,1758,0,0
-630,-734,0,0,0,0,0,0,0,0,0,-1,594,1758,0,0
-623,-734,0,0,0,0,0,0,0,0,0,-1,601,1758,0,0
-616,-734,0,0,0,0,0,0,0,0,0,-1,608,1758,0,0
-609,-734,0,0,0,0,0,0,0,0,0,-1,615,1758,0,0
-602,-734,0,0,0,0,0,0,0,0,0,-1,622,1758,0,0
-595,-734,0,0,0,0,0,0,0,0,0,-1,629,1758,0,0
-588,-734,0,0,0,0,0,0,0,0,0,-1,636,1758,0,0
-581,-734,0,0,0,0,0,0,0,0,0,-1,643,1758,0,0
-574,-734,0,0,0,0,0,0,0,0,0,-1,650,1758,0,0
-567,-734,0,0,0,0,0,0,0,0,0,-1,657,1758,0,0
-560,-734,0,0,0,0,0,0,0,0,0,-1,664,1758,0,0
-553,-734,0,0,0,0,0,0,0,0,0,-1,671,1758,0,0
-546,-734,0,0,0,0,0,0,0,0,0,-1,678,1758,0,0
-539,-734,0,0,0,0,0,0,0,0,0,-1,685,1758,0,0
-532,-734,0,0,0,0,0,0,0,0,0,-1,692,1758,0,0
-525,-734,0,0,0,0,0,0,0,0,0,-1,699,1758,0,0
-518,-734,0,0,0,0,0,0,0,0,0,-1,706,1758,0,0
-511,-734,0,0,0,0,0,0,0,0,0,-1,713,1758,0,0
-504,-734,0,0,0,0,0,0,0,0,0,-1,720,1758,0,0
-497,-734,0,0,0,0,0,0,0,0,0,-1,727,1758,0,0
-490,-734,0,0,0,0,0,0,0,0,0,-1,734,1758,0,0
-483,-734,0,0,0,0,0,0,0,0,0,-1,741,1758,0,0
-476,-734,0,0,0,0,0,0,0,0,0,-1,748,1758,0,0
-469,-734,0,0,0,0,0,0,0,0,0,-1,755,1758,0,0
-462,-734,0,0,0,0,0,0,0,0,0,-1,762,1758,0,0
-455,-734,0,0,0,0,0,0,0,0,0,-1,769,1758,0,0
-448,-734,0,0,0,0,0,0,0,0,0,-1,776,1758,0,0
-441,-734,0,0,0,0,0,0,0,0,0,-1,783,1758,0,0
-434,-734,0,0,0,0,0,0,0,0,0,-1,790,1758,0,0
-427,-734,0,0,0,0,0,0,0,0,0,-1,797,1758,0,0
-420,-734,0,0,0,0,0,0,0,0,0,-1,804,1758,0,0
-413,-734,0,0,0,0,0,0,0,0,0,-1,811,1758,0,0
-406,-734,0,0,0,0,0,0,0,0,0,-1,818,1758,0,0
-399,-734,0,0,0,0,0,0,0,0,0,-1,825,1758,0,0
-392,-734,0,0,0,0,0,0,0,0,0,-1,832,1758,0,0
-385,-734,0,0,0,0,0,0,0,0,0,-1,839,1758,0,0
-378,-734,0,0,0,0,0,0,0,0,0,-1,846,1758,0,0
-371,-734,0,0,0,0,0,0,0,0,0,-1,853,1758,0,0
-364,-734,0,0,0,0,0,0,0,0,0,-1,860,1758,0,0
-357,-734,0,0,0,0,0,0,0,0,0,-1,867,1758,0,0
-350,-734,0,0,0,0,0,0,0,0,0,-1,874,1758,0,0
-343,-734,0,0,0,0,0,0,0,0,0,-1,881,1758,0,0
-336,-734,0,0,0,0,0,0,0,0,0,-1,888,1758,0,0
-329,-734,0,0,0,0,0,0,0,0,0,-1,895,1758,0,0
-322,-734,0,0,0,0,0,0,0,0,0,-1,902,1758,0,0
-315,-734,0,0,0,0,0,0,0,0,0,-1,909,1758,0,0
-308,-734,0,0,0,0,0,0,0,0,0,-1,916,1758,0,0
-301,-734,0,0,0,0,0,0,0,0,0,-1,923,1758,0,0
-294,-734,0,0,0,0,0,0,0,0,0,-1,930,1758,0,0
-287,-734,0,0,0,0,0,0,0,0,0,-1,937,1758,0,0
-280,-734,0,0,0,0,0,0,0,0,0,-1,944,1758,0,0
-273,-734,0,0,0,0,0,0,0,0,0,-1,951,1758,0,0
-266,-734,0,0,0,0,0,0,0,0,0,-1,958,1758,0,0
-259,-734,0,0,0,0,0,0,0,0,0,-1,965,1758,0,0
-252,-734,4.5141,0.736206,0,0,0,0,0,0,0,-1,972,1758,4.51409,-0.736208
-245,-734,4.53094,0.899048,0,0,0,0,0,0,0,-1,979,1758,4.53094,-0.899017
-238,-734,2.28607,1.96118,0,0,0,0,0,0,0,-1,986,1758,2.28605,-1.96119
-231,-734,2.37292,2.29883,-0.00664898,0.0434603,0.0646404,0.0877318,-0.0509205,0.970284,0.0809859,0.0483889,993,1758,2.37292,-2.29879
-224,-734,2.35321,2.49438,-0.00518592,0.0558743,0.0638633,0.0961298,-0.0454414,1.00837,0.0834643,0.0465774,1000,1758,2.3532,-2.49433
-217,-734,2.34137,2.42126,-0.00388735,0.0653344,0.0619046,0.101647,-0.0401996,1.0403,0.0844175,0.0454113,1007,1758,2.34138,-2.42132
-210,-734,2.02142,2.57141,-0.00259173,0.0709034,0.0587768,0.103475,-0.035163,1.06477,0.0832184,0.0466607,1014,1758,2.0214,-2.57142
-203,-734,3.55762,2.37305,0,0,0,0,0,0,0,-1,1021,1758,3.55762,-2.37307
-196,-734,3.68115,2.57654,-0.00291327,0.066516,0.0472483,0.0904317,-0.0268289,1.10223,0.0709424,0.0439691,1028,1758,3.68116,-2.57658
-189,-734,3.8584,2.9635,-0.00387676,0.0607739,0.0389194,0.0790415,-0.0221443,1.13195,0.0614212,0.04525,1035,1758,3.8584,-2.96356
-182,-734,2.37866,3.79248,-0.00525734,0.0522165,0.0304345,0.0653373,-0.0183782,1.16376,0.0508047,0.0449813,1042,1758,2.3787,-3.79252
-175,-734,2.59192,3.36707,-0.00663444,0.0447926,0.0223992,0.0531805,-0.0150224,1.21249,0.0413803,0.0468583,1049,1758,2.59196,-3.36701
-168,-734,2.97937,3.2146,-0.00777828,0.0373909,0.0152775,0.0420729,-0.0124602,1.27342,0.0329958,0.0470803,1056,1758,2.97943,-3.21459
-161,-734,3.08813,2.0636,-0.00769602,0.0314136,0.00906411,0.0334122,-0.0096946,1.35377,0.0261132,0.0417483,1063,1758,3.08815,-2.06365
-154,-734,2.32446,3.21167,-0.0082104,0.0255814,0.00343883,0.0259278,-0.0085568,1.4704,0.0207346,0.0442481,1070,1758,2.32443,-3.21167
-147,-734,2.17175,3.21167,-0.0131052,0.0195939,-0.00111463,0.0196318,-0.0131432,-1.53676,0.0190459,0.0421873,1077,1758,2.17174,-3.21165
-140,-734,2.08142,3.00049,-0.0156027,0.00670258,-0.00776437,0.00913916,-0.0180393,-1.26671,0.0159695,0.0380765,1084,1758,2.0814,-3.00044
-133,-734,2.05994,3.03345,-0.012037,0.00707371,-0.00667971,0.00917698,-0.0141402,-1.26575,0.0135635,0.0299738,1091,1758,2.05993,-3.03348
-126,-734,1.99707,3.06152,-0.011071,0.00627581,-0.00665743,0.00853627,-0.0133314,-1.24347,0.0127261,0.028038,1098,1758,1.99711,-3.06148
-119,-734,2.04309,3.08936,-0.0116496,0.00500958,-0.0059293,0.00690441,-0.0135444,-1.26148,0.0120118,0.0318385,1105,1758,2.04315,-3.08938
-112,-734,2.10608,3.07336,-0.0122248,0.00307276,-0.00498823,0.00455559,-0.0137077,-1.28185,0.0109767,0.0249842,1112,1758,2.10605,-3.07338
-105,-734,2.10059,3.09583,-0.012374,0.000397812,-0.00420108,0.00165578,-0.013632,-1.27985,0.00968721,0.0175936,1119,1758,2.10064,-3.09586
-98,-734,2.05286,3.12805,-0.01237,-0.00162569,-0.00363954,-0.000508907,-0.0134868,-1.27307,0.00882643,0.0136773,1126,1758,2.05281,-3.12802
-91,-734,2.05823,3.15332,-0.0121864,-0.00352189,-0.00270765,-0.00274535,-0.0129629,-1.2915,0.00788774,0.0131926,1133,1758,2.05826,-3.1533
-84,-734,2.07019,3.17517,-0.0119718,-0.00556237,-0.00137951,-0.00527807,-0.0122561,-1.36755,0.00709871,0.0105635,1140,1758,2.07023,-3.1752
-77,-734,2.06531,3.17822,-0.0113648,-0.0070676,-0.000241858,-0.00705403,-0.0113783,-1.51475,0.006632,0.0105454,1147,1758,2.06529,-3.17825
-70,-734,2.07825,3.19055,-0.00959046,-0.00791514,0.00109368,-0.00737519,-0.0101304,1.1122,0.00604814,0.00981678,1154,1758,2.07826,-3.19056
-63,-734,2.07117,3.1925,-0.00738372,-0.00807542,0.00229225,-0.00541137,-0.0100478,0.710524,0.00580683,0.00983224,1161,1758,2.07115,-3.19255
-56,-734,2.06055,3.20032,-0.00518325,-0.00795047,0.00336408,-0.00292936,-0.0102044,0.590298,0.00606695,0.0104705,1168,1758,2.06058,-3.20026
-49,-734,2.05212,3.21484,-0.0026916,-0.00709018,0.00408768,-0.000249125,-0.00953265,0.538595,0.00627371,0.0119326,1175,1758,2.05208,-3.21483
-42,-734,2.0304,3.21472,-0.000243021,-0.00597828,0.00471243,0.00240571,-0.00862701,0.512066,0.00669882,0.0139265,1182,1758,2.0304,-3.21471
-35,-734,2.04297,3.21826,0.00203044,-0.00492609,0.00503654,0.00467304,-0.0075687,0.483202,0.00713338,0.0143217,1189,1758,2.04295,-3.21828
-28,-734,2.06567,3.23364,0.00375695,-0.00339927,0.00518738,0.00648057,-0.00612289,0.483484,0.00727759,0.00992796,1196,1758,2.06571,-3.23367
-21,-734,2.08032,3.25757,0.00497039,-0.00142977,0.0056126,0.0082311,-0.00469047,0.526303,0.00755305,0.0137109,1203,1758,2.08038,-3.25761
-14,-734,2.06042,3.27979,0.00597891,-0.00108133,0.00531434,0.00882876,-0.00393118,0.49223,0.00754567,0.0144896,1210,1758,2.06046,-3.27973
-7,-734,2.0863,3.28394,0.00638993,-0.000680829,0.00480355,0.00881886,-0.00310976,0.46816,0.00714508,0.017111,1217,1758,2.08635,-3.28392
0,-734,2.0813,3.25623,0.00621134,-0.000394555,0.00436059,0.0083787,-0.00256191,0.461271,0.00660745,0.0158092,1224,1758,2.08135,-3.25628
7,-734,2.05603,3.25818,0.00529741,-0.000253337,0.0039123,0.00731878,-0.00227471,0.476896,0.00578838,0.0116286,1231,1758,2.056,-3.25824
14,-734,2.05713,3.28882,0.00437522,-0.000552637,0.00343975,0.00614246,-0.00231988,0.474603,0.00504916,0.0119756,1238,1758,2.05707,-3.28881
21,-734,2.06018,3.29968,0.00347843,-0.000707139,0.00286536,0.00493389,-0.0021626,0.469988,0.00420001,0.0109065,1245,1758,2.06017,-3.29967
28,-734,2.06836,3.30737,0.00263072,-0.00113586,0.00223747,0.00367199,-0.00217713,0.435569,0.00341356,0.010623,1252,1758,2.06833,-3.30732
35,-734,2.06982,3.32104,0.00167717,-0.00171069,0.00150644,0.00225012,-0.00228364,0.36344,0.00261759,0.0139017,1259,1758,2.06988,-3.32102
42,-734,2.07019,3.30408,0.00110645,-0.00233269,0.00082031,0.00129209,-0.00251833,0.222557,0.0022376,0.0119919,1266,1758,2.07021,-3.30406
49,-734,2.05493,3.30396,0.000998859,-0.00275447,6.9327e-05,0.00100014,-0.00275575,0.0184624,0.00224604,0.00987793,1273,1758,2.05489,-3.30395
56,-734,2.05005,3.31531,0.000946483,-0.00303351,-0.000604605,0.0010363,-0.00312333,-0.14748,0.0025003,0.00897829,1280,1758,2.05005,-3.31534
63,-734,2.03918,3.30872,0.000980375,-0.00303325,-0.0011625,0.00129277,-0.00334564,-0.262522,0.00276403,0.0115753,1287,1758,2.03914,-3.30875
70,-734,2.03149,3.31067,0.000979601,-0.00276912,-0.0018513,0.00173973,-0.00352925,-0.389604,0.00309998,0.0123236,1294,1758,2.03148,-3.31061
77,-734,2.05774,3.33057,0.00131739,-0.00245464,-0.00238398,0.00247118,-0.00360843,-0.450747,0.00353048,0.0163299,1301,1758,2.05775,-3.33059
84,-734,2.05774,3.32764,0.00180342,-0.00169328,-0.0027624,0.00332426,-0.00321412,-0.503265,0.00377511,0.0149302,1308,1758,2.0577,-3.3276
91,-734,2.07544,3.3092,0.00223977,-0.000480751,-0.00271489,0.00391611,-0.0021571,-0.55316,0.00355505,0.0162435,1315,1758,2.0754,-3.30919
98,-734,2.08838,3.302,0.00292254,0.00083681,-0.0026852,0.00476028,-0.00100093,-0.600176,0.00355445,0.0125316,1322,1758,2.08836,-3.30198
105,-734,2.08325,3.29321,0.00397143,0.00229078,-0.00281677,0.00607055,0.000191664,-0.640436,0.00398468,0.0141695,1329,1758,2.08325,-3.29326
112,-734,2.08398,3.28418,0.00523998,0.00352969,-0.00306668,0.00756851,0.00120116,-0.649427,0.00469677,0.0124116,1336,1758,2.08394,-3.28421
119,-734,2.07495,3.28174,0.00653324,0.00498997,-0.00352189,0.00936703,0.00215618,-0.677553,0.00566445,0.0129615,1343,1758,2.075,-3.28176
126,-734,2.08997,3.28027,0.00772606,0.00598949,-0.00388905,0.0108426,0.00287298,-0.675567,0.00648639,0.0150312,1350,1758,2.08991,-3.28032
133,-734,2.08398,3.28467,0.00885735,0.0068082,-0.00445351,0.0124026,0.00326292,-0.672336,0.00742378,0.0135967,1357,1758,2.08397,-3.28467
140,-734,2.06689,3.27954,0.00974407,0.00725104,-0.0046583,0.0133197,0.00367536,-0.654666,0.00794338,0.0186516,1364,1758,2.06684,-3.27957
147,-734,2.07324,3.24768,0.0102555,0.00711313,-0.00511523,0.0140354,0.00333321,-0.636395,0.00846744,0.0134772,1371,1758,2.07325,-3.24773
154,-734,2.06396,3.2533,0.0104195,0.00630297,-0.00581004,0.0145251,0.00219738,-0.615166,0.00904038,0.00912887,1378,1758,2.06402,-3.25333
161,-734,2.07043,3.25024,0.0101548,0.00544483,-0.00672769,0.0149277,0.000671843,-0.617043,0.00973561,0.00847508,1385,1758,2.07048,-3.2503
168,-734,2.04407,3.2384,0.00925886,0.00431604,-0.00762964,0.0148074,-0.00123248,-0.62877,0.010307,0.0135936,1392,1758,2.04402,-3.23837
175,-734,2.05444,3.22742,0.00785456,0.00296676,-0.00870925,0.0144563,-0.00363498,-0.648611,0.0110503,0.0165817,1399,1758,2.0545,-3.22747
182,-734,2.06995,3.2041,0.00611665,0.00192931,-0.00989495,0.014137,-0.00609104,-0.681141,0.0119827,0.0140561,1406,1758,2.06998,-3.20416
189,-734,2.05554,3.18726,0.00442592,0.000972584,-0.0109015,0.0137367,-0.00833818,-0.706857,0.0128713,0.0100956,1413,1758,2.05556,-3.18725
196,-734,2.05005,3.19055,0.002796,0.000436409,-0.0121724,0.0138457,-0.0106132,-0.737087,0.0141624,0.0107722,1420,1758,2.0501,-3.19057
203,-734,2.04578,3.18347,0.000971245,0.000276974,-0.0133095,0.0139381,-0.0126899,-0.77236,0.0153793,0.0106124,1427,1758,2.04573,-3.18351
210,-734,2.05493,3.16956,-0.00144306,0.00038117,-0.0135433,0.013043,-0.0141049,-0.819021,0.0156779,0.0115075,1434,1758,2.05499,-3.16959
217,-734,2.03809,3.1488,-0.00352214,0.000837662,-0.0134525,0.0122858,-0.0149702,-0.865722,0.0157617,0.00899131,1441,1758,2.03803,-3.14881
224,-734,2.03296,3.12329,-0.00527926,0.00211843,-0.0128261,0.0117684,-0.0149292,-0.925781,0.0154498,0.0100797,1448,1758,2.03292,-3.12333
231,-734,2.05249,3.12134,-0.00680132,0.0034919,-0.0112181,0.0106876,-0.0139971,-1.00046,0.0142944,0.0120295,1455,1758,2.0525,-3.12137
238,-734,2.08594,3.1001,-0.00830282,0.00469582,-0.00909686,0.00937658,-0.0129836,-1.09558,0.0129655,0.0147782,1462,1758,2.08589,-3.1001
245,-734,2.06665,3.0752,-0.00936003,0.00618995,-0.00708288,0.00893245,-0.0121025,-1.20137,0.0121904,0.0197608,1469,1758,2.06664,-3.07516
252,-734,2.05188,3.05139,-0.0101443,0.00688961,-0.00413363,0.00783973,-0.0110945,-1.34487,0.0109854,0.0263388,1476,1758,2.05189,-3.05135
259,-734,2.06079,3.04065,-0.0109527,0.00710525,-0.000760891,0.00713725,-0.0109847,-1.52876,0.010541,0.0357982,1483,1758,2.06084,-3.04066
266,-734,2.06677,3.0636,-0.0111896,0.00616814,0.00271413,0.00658263,-0.0116041,1.41925,0.0106327,0.0417343,1490,1758,2.06675,-3.06355
273,-734,2.15662,3.0957,-0.0113461,0.00466062,0.00549018,0.00636271,-0.0130482,1.27017,0.0114263,0.042448,1497,1758,2.1566,-3.09571
280,-734,2.20178,2.93091,-0.0117086,0.00350441,0.00867199,0.00743317,-0.0156373,1.14542,0.0135976,0.0474252,1504,1758,2.20178,-2.93096
287,-734,2.30579,2.68481,0,0,0,0,0,0,0,-1,1511,1758,2.30575,-2.68484
294,-734,2.33472,2.71167,-0.0108469,-0.0010689,0.0124391,0.00740749,-0.0193233,0.972642,0.0159359,0.0490057,1518,1758,2.33466,-2.71161
301,-734,2.54651,2.92468,-0.00977114,-0.00352012,0.0130259,0.00675002,-0.0200413,0.903145,0.0160899,0.0450662,1525,1758,2.5465,-2.92464
308,-734,2.54736,3.14319,-0.0088491,-0.00577271,0.0136377,0.00641329,-0.0210351,0.841556,0.0165799,0.0445203,1532,1758,2.54734,-3.14322
315,-734,2.56384,3.35229,-0.00720176,-0.00712201,0.0133678,0.00620602,-0.0205298,0.78689,0.0161575,0.0438235,1539,1758,2.56383,-3.35226
322,-734,2.60229,3.79236,-0.00585651,-0.00895531,0.0117545,0.00445022,-0.019262,0.719869,0.0145534,0.041104,1546,1758,2.60226,-3.79239
329,-734,2.45654,4.14197,-0.00529742,-0.0114727,0.00912903,0.00125199,-0.0180221,0.622327,0.0124531,0.0412145,1553,1758,2.45653,-4.14194
336,-734,2.33887,4.49756,0,0,0,0,0,0,0,-1,1560,1758,2.33891,-4.49761
343,-734,3.39612,3.0542,0,0,0,0,0,0,0,-1,1567,1758,3.39613,-3.0542
350,-734,3.62683,2.46826,0,0,0,0,0,0,0,-1,1574,1758,3.6268,-2.46821
357,-734,4.54797,2.40771,0,0,0,0,0,0,0,-1,1581,1758,4.54792,-2.40771
364,-734,0.310791,2.4176,0,0,0,0,0,0,0,-1,1588,1758,0.310763,-2.41765
371,-734,3.12537,3.54651,0,0,0,0,0,0,0,-1,1595,1758,3.1254,-3.54651
378,-734,0,0,0,0,0,0,0,0,0,-1,1602,1758,0,0
385,-734,0,0,0,0,0,0,0,0,0,-1,1609,1758,0,0
392,-734,0,0,0,0,0,0,0,0,0,-1,1616,1758,0,0
399,-734,0,0,0,0,0,0,0,0,0,-1,1623,1758,0,0
406,-734,0,0,0,0,0,0,0,0,0,-1,1630,1758,0,0
413,-734,0,0,0,0,0,0,0,0,0,-1,1637,1758,0,0
420,-734,0,0,0,0,0,0,0,0,0,-1,1644,1758,0,0
427,-734,0,0,0,0,0,0,0,0,0,-1,1651,1758,0,0
434,-734,0,0,0,0,0,0,0,0,0,-1,1658,1758,0,0
441,-734,0,0,0,0,0,0,0,0,0,-1,1665,1758,0,0
448,-734,0,0,0,0,0,0,0,0,0,-1,1672,1758,0,0
455,-734,0,0,0,0,0,0,0,0,0,-1,1679,1758,0,0
462,-734,0,0,0,0,0,0,0,0,0,-1,1686,1758,0,0
469,-734,0,0,0,0,0,0,0,0,0,-1,1693,1758,0,0
476,-734,0,0,0,0,0,0,0,0,0,-1,1700,1758,0,0
483,-734,0,0,0,0,0,0,0,0,0,-1,1707,1758,0,0
490,-734,0,0,0,0,0,0,0,0,0,-1,1714,1758,0,0
497,-734,0,0,0,0,0,0,0,0,0,-1,1721,1758,0,0
504,-734,0,0,0,0,0,0,0,0,0,-1,1728,1758,0,0
511,-734,0,0,0,0,0,0,0,0,0,-1,1735,1758,0,0
518,-734,0,0,0,0,0,0,0,0,0,-1,1742,1758,0,0
525,-734,0,0,0,0,0,0,0,0,0,-1,1749,1758,0,0
532,-734,0,0,0,0,0,0,0,0,0,-1,1756,1758,0,0
539,-734,0,0,0,0,0,0,0,0,0,-1,1763,1758,0,0
546,-734,0,0,0,0,0,0,0,0,0,-1,1770,1758,0,0
553,-734,0,0,0,0,0,0,0,0,0,-1,1777,1758,0,0
560,-734,0,0,0,0,0,0,0,0,0,-1,1784,1758,0,0
567,-734,0,0,0,0,0,0,0,0,0,-1,1791,1758,0,0
574,-734,0,0,0,0,0,0,0,0,0,-1,1798,1758,0,0
581,-734,0,0,0,0,0,0,0,0,0,-1,1805,1758,0,0
588,-734,0,0,0,0,0,0,0,0,0,-1,1812,1758,0,0
595,-734,0,0,0,0,0,0,0,0,0,-1,1819,1758,0,0
602,-734,0,0,0,0,0,0,0,0,0,-1,1826,1758,0,0
609,-734,0,0,0,0,0,0,0,0,0,-1,1833,1758,0,0
616,-734,0,0,0,0,0,0,0,0,0,-1,1840,1758,0,0
623,-734,0,0,0,0,0,0,0,0,0,-1,1847,1758,0,0
630,-734,0,0,0,0,0,0,0,0,0,-1,1854,1758,0,0
637,-734,0,0,0,0,0,0,0,0,0,-1,1861,1758,0,0
644,-734,0,0,0,0,0,0,0,0,0,-1,1868,1758,0,0
651,-734,0,0,0,0,0,0,0,0,0,-1,1875,1758,0,0
658,-734,0,0,0,0,0,0,0,0,0,-1,1882,1758,0,0
665,-734,0,0,0,0,0,0,0,0,0,-1,1889,1758,0,0
672,-734,0,0,0,0,0,0,0,0,0,-1,1896,1758,0,0
679,-734,0,0,0,0,0,0,0,0,0,-1,1903,1758,0,0
686,-734,0,0,0,0,0,0,0,0,0,-1,1910,1758,0,0
693,-734,0,0,0,0,0,0,0,0,0,-1,1917,1758,0,0
700,-734,0,0,0,0,0,0,0,0,0,-1,1924,1758,0,0
707,-734,0,0,0,0,0,0,0,0,0,-1,1931,1758,0,0
714,-734,0,0,0,0,0,0,0,0,0,-1,1938,1758,0,0
721,-734,0,0,0,0,0,0,0,0,0,-1,1945,1758,0,0
728,-734,0,0,0,0,0,0,0,0,0,-1,1952,1758,0,0
735,-734,0,0,0,0,0,0,0,0,0,-1,1959,1758,0,0
742,-734,0,0,0,0,0,0,0,0,0,-1,1966,1758,0,0
749,-734,0,0,0,0,0,0,0,0,0,-1,1973,1758,0,0
756,-734,0,0,0,0,0,0,0,0,0,-1,1980,1758,0,0
763,-734,0,0,0,0,0,0,0,0,0,-1,1987,1758,0,0
770,-734,0,0,0,0,0,0,0,0,0,-1,1994,1758,0,0
777,-734,0,0,0,0,0,0,0,0,0,-1,2001,1758,0,0
784,-734,0,0,0,0,0,0,0,0,0,-1,2008,1758,0,0
791,-734,0,0,0,0,0,0,0,0,0,-1,2015,1758,0,0
798,-734,0,0,0,0,0,0,0,0,0,-1,2022,1758,0,0
805,-734,0,0,0,0,0,0,0,0,0,-1,2029,1758,0,0
812,-734,0,0,0,0,0,0,0,0,0,-1,2036,1758,0,0
-700,-741,0,0,0,0,0,0,0,0,0,-1,524,1765,0,0
-693,-741,0,0,0,0,0,0,0,0,0,-1,531,1765,0,0
-686,-741,0,0,0,0,0,0,0,0,0,-1,538,1765,0,0
-679,-741,0,0,0,0,0,0,0,0,0,-1,545,1765,0,0
-672,-741,0,0,0,0,0,0,0,0,0,-1,552,1765,0,0
-665,-741,0,0,0,0,0,0,0,0,0,-1,559,1765,0,0
-658,-741,0,0,0,0,0,0,0,0,0,-1,566,1765,0,0
-651,-741,0,0,0,0,0,0,0,0,0,-1,573,1765,0,0
-644,-741,0,0,0,0,0,0,0,0,0,-1,580,1765,0,0
-637,-741,0,0,0,0,0,0,0,0,0,-1,587,1765,0,0
-630,-741,0,0,0,0,0,0,0,0,0,-1,594,1765,0,0
-623,-741,0,0,0,0,0,0,0,0,0,-1,601,1765,0,0
-616,-741,0,0,0,0,0,0,0,0,0,-1,608,1765,0,0
-609,-741,0,0,0,0,0,0,0,0,0,-1,615,1765,0,0
-602,-741,0,0,0,0,0,0,0,0,0,-1,622,1765,0,0
-595,-741,0,0,0,0,0,0,0,0,0,-1,629,1765,0,0
-588,-741,0,0,0,0,0,0,0,0,0,-1,636,1765,0,0
-581,-741,0,0,0,0,0,0,0,0,0,-1,643,1765,0,0
-574,-741,0,0,0,0,0,0,0,0,0,-1,650,1765,0,0
-567,-741,0,0,0,0,0,0,0,0,0,-1,657,1765,0,0
-560,-741,0,0,0,0,0,0,0,0,0,-1,664,1765,0,0
-553,-741,0,0,0,0,0,0,0,0,0,-1,671,1765,0,0
-546,-741,0,0,0,0,0,0,0,0,0,-1,678,1765,0,0
-539,-741,0,0,0,0,0,0,0,0,0,-1,685,1765,0,0
-532,-741,0,0,0,0,0,0,0,0,0,-1,692,1765,0,0
-525,-741,0,0,0,0,0,0,0,0,0,-1,699,1765,0,0
-518,-741,0,0,0,0,0,0,0,0,0,-1,706,1765,0,0
-511,-741,0,0,0,0,0,0,0,0,0,-1,713,1765,0,0
-504,-741,0,0,0,0,0,0,0,0,0,-1,720,1765,0,0
-497,-741,0,0,0,0,0,0,0,0,0,-1,727,1765,0,0
-490,-741,0,0,0,0,0,0,0,0,0,-1,734,1765,0,0
-483,-741,0,0,0,0,0,0,0,0,0,-1,741,1765,0,0
-476,-741,0,0,0,0,0,0,0,0,0,-1,748,1765,0,0
-469,-741,0,0,0,0,0,0,0,0,0,-1,755,1765,0,0
-462,-741,0,0,0,0,0,0,0,0,0,-1,762,1765,0,0
-455,-741,0,0,0,0,0,0,0,0,0,-1,769,1765,0,0
-448,-741,0,0,0,0,0,0,0,0,0,-1,776,1765,0,0
-441,-741,0,0,0,0,0,0,0,0,0,-1,783,1765,0,0
-434,-741,0,0,0,0,0,0,0,0,0,-1,790,1765,0,0
-427,-741,0,0,0,0,0,0,0,0,0,-1,797,1765,0,0
-420,-741,0,0,0,0,0,0,0,0,0,-1,804,1765,0,0
-413,-741,0,0,0,0,0,0,0,0,0,-1,811,1765,0,0
-406,-741,0,0,0,0,0,0,0,0,0,-1,818,1765,0,0
-399,-741,0,0,0,0,0,0,0,0,0,-1,825,1765,0,0
-392,-741,0,0,0,0,0,0,0,0,0,-1,832,1765,0,0
-385,-741,0,0,0,0,0,0,0,0,0,-1,839,1765,0,0
-378,-741,0,0,0,0,0,0,0,0,0,-1,846,1765,0,0
-371,-741,0,0,0,0,0,0,0,0,0,-1,853,1765,0,0
-364,-741,0,0,0,0,0,0,0,0,0,-1,860,1765,0,0
-357,-741,0,0,0,0,0,0,0,0,0,-1,867,1765,0,0
-350,-741,0,0,0,0,0,0,0,0,0,-1,874,1765,0,0
-343,-741,0,0,0,0,0,0,0,0,0,-1,881,1765,0,0
-336,-741,0,0,0,0,0,0,0,0,0,-1,888,1765,0,0
-329,-741,0,0,0,0,0,0,0,0,0,-1,895,1765,0,0
-322,-741,0,0,0,0,0,0,0,0,0,-1,902,1765,0,0
-315,-741,0,0,0,0,0,0,0,0,0,-1,909,1765,0,0
-308,-741,0,0,0,0,0,0,0,0,0,-1,916,1765,0,0
-301,-741,0,0,0,0,0,0,0,0,0,-1,923,1765,0,0
-294,-741,0,0,0,0,0,0,0,0,0,-1,930,1765,0,0
-287,-741,0,0,0,0,0,0,0,0,0,-1,937,1765,0,0
-280,-741,0,0,0,0,0,0,0,0,0,-1,944,1765,0,0
-273,-741,0,0,0,0,0,0,0,0,0,-1,951,1765,0,0
-266,-741,0,0,0,0,0,0,0,0,0,-1,958,1765,0,0
-259,-741,0,0,0,0,0,0,0,0,0,-1,965,1765,0,0
-252,-741,0,0,0,0,0,0,0,0,0,-1,972,1765,0,0
-245,-741,0,0,0,0,0,0,0,0,0,-1,979,1765,0,0
-238,-741,2.05328,2.29004,0,0,0,0,0,0,0,-1,986,1765,2.05328,-2.29001
-231,-741,1.7691,2.42285,-0.00451416,0.0524875,0.0804384,0.109325,-0.0613517,0.955657,0.0998294,0.0453724,993,1765,1.76908,-2.42288
-224,-741,1.78473,2.54785,-0.0028053,0.069439,0.081165,0.122157,-0.0555233,0.994761,0.104961,0.0427804,1000,1765,1.78472,-2.54781
-217,-741,1.86353,2.47083,-0.00120463,0.0824278,0.08035,0.131191,-0.0499683,1.02533,0.10804,0.0424323,1007,1765,1.86351,-2.47079
-210,-741,1.24292,2.79346,0.000255047,0.0910618,0.0779969,0.135908,-0.0445912,1.04898,0.108566,0.0453803,1014,1765,1.24291,-2.79352
-203,-741,4.65198,2.68945,0,0,0,0,0,0,0,-1,1021,1765,4.65195,-2.68944
-196,-741,5.21448,2.6145,0,0,0,0,0,0,0,-1,1028,1765,5.21449,-2.61446
-189,-741,4.84814,2.96118,0,0,0,0,0,0,0,-1,1035,1765,4.84819,-2.96114
-182,-741,1.8269,4.17566,0,0,0,0,0,0,0,-1,1042,1765,1.82684,-4.17568
-175,-741,2.59741,3.63208,0,0,0,0,0,0,0,-1,1049,1765,2.59742,-3.63208
-168,-741,3.30688,3.56323,0,0,0,0,0,0,0,-1,1056,1765,3.30692,-3.56318
-161,-741,3.57288,1.42249,0,0,0,0,0,0,0,-1,1063,1765,3.57283,-1.42249
-154,-741,2.41394,3.1615,0,0,0,0,0,0,0,-1,1070,1765,2.41398,-3.16148
-147,-741,2.01282,3.14038,0,0,0,0,0,0,0,-1,1077,1765,2.01279,-3.14043
-140,-741,1.00415,2.69751,0,0,0,0,0,0,0,-1,1084,1765,1.00413,-2.69754
-133,-741,2.06494,2.7168,-0.0161955,0.00778799,-0.00913875,0.0108733,-0.0192809,-1.2452,0.0176337,0.0407819,1091,1765,2.06493,-2.71678
-126,-741,1.97156,3.07996,-0.0151682,0.00678146,-0.00905932,0.0100375,-0.0184243,-1.22576,0.0166685,0.040339,1098,1765,1.97159,-3.07992
-119,-741,2.02527,3.1416,-0.0160195,0.00507757,-0.00806898,0.00780985,-0.0187518,-1.2443,0.0157632,0.042727,1105,1765,2.02521,-3.14159
-112,-741,2.13647,3.08105,-0.0168165,0.00261374,-0.00688213,0.00480439,-0.0190071,-1.26263,0.0145399,0.0405525,1112,1765,2.13646,-3.08109
-105,-741,2.07947,3.09937,-0.0170786,-0.000622519,-0.00580456,0.00121888,-0.01892,-1.26361,0.0130386,0.031975,1119,1765,2.07952,-3.09931
-98,-741,2.05066,3.09424,-0.0170954,-0.00325918,-0.00488326,-0.00170932,-0.0186452,-1.26347,0.0119014,0.0281478,1126,1765,2.05065,-3.09429
-91,-741,2.03833,3.0957,-0.0167961,-0.00565659,-0.00356341,-0.00461423,-0.0178384,-1.28622,0.0106914,0.0302348,1133,1765,2.0383,-3.09575
-84,-741,2.11377,3.16663,-0.016476,-0.00820746,-0.00176569,-0.00784619,-0.0168373,-1.36898,0.00972851,0.0297072,1140,1765,2.1138,-3.16661
-77,-741,2.23669,3.14697,-0.0157013,-0.0100535,-0.000160208,-0.010049,-0.0157059,-1.54246,0.00918521,0.0262217,1147,1765,2.23672,-3.14699
-70,-741,2.1676,3.15259,-0.0133185,-0.011065,0.00161996,-0.0102185,-0.014165,1.08926,0.00844117,0.0263387,1154,1765,2.16763,-3.15257
-63,-741,1.98181,3.18481,-0.0102576,-0.0111334,0.00322119,-0.00744466,-0.0139463,0.717841,0.00805803,0.0260633,1161,1765,1.98187,-3.18487
-56,-741,1.95667,3.16296,-0.00719731,-0.0108599,0.00470096,-0.00398355,-0.0140737,0.599661,0.00837653,0.0227939,1168,1765,1.95672,-3.16294
-49,-741,2.02441,3.16003,-0.00360453,-0.00982205,0.00558081,-0.000325034,-0.0131015,0.53128,0.00862806,0.0180494,1175,1765,2.02437,-3.16005
-42,-741,2.04028,3.19165,-1.14808e-05,-0.00840113,0.00629997,0.00336246,-0.0117751,0.49168,0.00917851,0.0141249,1182,1765,2.04028,-3.19166
-35,-741,2.08533,3.23608,0.00338655,-0.00692279,0.00669424,0.00668075,-0.010217,0.457304,0.00982687,0.00851982,1189,1765,2.08538,-3.23603
-28,-741,2.09265,3.24719,0.00596315,-0.00393044,0.00699441,0.0095833,-0.00755059,0.477611,0.00991544,0.0115442,1196,1765,2.09261,-3.24716
-21,-741,2.10022,3.27563,0.00772435,-0.000776303,0.00789477,0.0124402,-0.00549217,0.538462,0.0106092,0.0161936,1203,1765,2.10019,-3.27565
-14,-741,2.07764,3.2771,0.0092852,0.00023833,0.00763132,0.013633,-0.00410946,0.517864,0.0107242,0.0160476,1210,1765,2.07763,-3.27708
-7,-741,2.08362,3.25854,0.00992359,0.0011928,0.00706802,0.0138656,-0.00274925,0.508759,0.0102834,0.0147521,1217,1765,2.08367,-3.25854
0,-741,2.07336,3.2467,0.00974812,0.00196389,0.00659704,0.0135156,-0.00180359,0.518889,0.00966784,0.0147549,1224,1765,2.07336,-3.2467
7,-741,2.04321,3.26099,0.00852011,0.00252157,0.00614969,0.0123629,-0.00132127,0.558514,0.00871583,0.015854,1231,1765,2.04326,-3.261
14,-741,2.05969,3.30408,0.00732092,0.00234599,0.00566543,0.0110209,-0.001354,0.578539,0.00783769,0.0149361,1238,1765,2.05972,-3.30409
21,-741,2.06897,3.30273,0.00607073,0.00220422,0.00501307,0.0095104,-0.00123545,0.601364,0.00678965,0.0125472,1245,1765,2.06892,-3.30278
28,-741,2.04724,3.33167,0.00484082,0.0015582,0.00422584,0.0077329,-0.00133388,0.600166,0.0056526,0.0130848,1252,1765,2.04727,-3.33168
35,-741,2.04871,3.34558,0.00342478,0.000601469,0.00330634,0.00560822,-0.00158197,0.583636,0.00436281,0.0146251,1259,1765,2.0487,-3.34559
42,-741,2.06006,3.32385,0.00238562,-0.000491439,0.00231257,0.00367057,-0.00177639,0.507162,0.00320756,0.014279,1266,1765,2.06007,-3.32383
49,-741,2.05054,3.3075,0.00188289,-0.00143509,0.0011684,0.00225303,-0.00180524,0.306798,0.00234779,0.00986524,1273,1765,2.05055,-3.30744
56,-741,2.03955,3.32104,0.00145702,-0.00214824,0.00016312,0.00146439,-0.0021556,0.0451222,0.00210266,0.0101186,1280,1765,2.03952,-3.32105
63,-741,2.02173,3.32263,0.00129347,-0.00239026,-0.000833141,0.00147313,-0.00256993,-0.212397,0.00236272,0.0148026,1287,1765,2.02173,-3.32259
70,-741,2.0321,3.31421,0.00119292,-0.00222124,-0.00215694,0.00223657,-0.00326489,-0.450649,0.00319471,0.016382,1294,1765,2.03213,-3.31424
77,-741,2.05225,3.33533,0.0017296,-0.00220351,-0.00340825,0.00369795,-0.00417186,-0.523731,0.00454639,0.0130802,1301,1765,2.0523,-3.33535
84,-741,2.0271,3.36145,0.00267449,-0.000886008,-0.00458584,0.00581351,-0.00402502,-0.600249,0.00571148,0.015033,1308,1765,2.02716,-3.36144
91,-741,2.0448,3.35571,0.00355548,0.00117994,-0.00496868,0.00747639,-0.00274096,-0.668074,0.00610653,0.0128072,1315,1765,2.04481,-3.35577
98,-741,2.07556,3.31311,0.00474265,0.00332184,-0.00534505,0.0094243,-0.00135981,-0.719331,0.00678173,0.010105,1322,1765,2.07554,-3.31314
105,-741,2.07971,3.29187,0.00656864,0.00544848,-0.00597366,0.0120084,8.69902e-06,-0.738656,0.00800271,0.010414,1329,1765,2.07974,-3.29182
112,-741,2.08118,3.28186,0.00876139,0.00721121,-0.00670873,0.0147397,0.00123294,-0.727886,0.00944233,0.0105602,1336,1765,2.08122,-3.28187
119,-741,2.05933,3.26794,0.010935,0.00937848,-0.00756565,0.0177623,0.00255115,-0.734146,0.0110894,0.013355,1343,1765,2.05938,-3.26795
126,-741,2.06836,3.24316,0.0128223,0.0107124,-0.00814283,0.0199782,0.00355647,-0.720981,0.0123058,0.0179111,1350,1765,2.06834,-3.24319
133,-741,2.06396,3.25574,0.0144684,0.0115147,-0.00874612,0.0218615,0.0041216,-0.701757,0.0134132,0.0140846,1357,1765,2.06397,-3.25572
140,-741,2.04724,3.25378,0.0157618,0.0117365,-0.00882509,0.0228008,0.00469748,-0.673286,0.0139019,0.0114825,1364,1765,2.0473,-3.25381
147,-741,2.05151,3.26575,0.0165633,0.0111726,-0.00903896,0.0233002,0.00443567,-0.640499,0.0142863,0.0104152,1371,1765,2.05155,-3.26579
154,-741,2.06384,3.2793,0.0167028,0.00962569,-0.0094651,0.0232692,0.00305932,-0.606516,0.0146002,0.00821259,1378,1765,2.06387,-3.27928
161,-741,2.07556,3.25818,0.016064,0.00799531,-0.0101207,0.0229248,0.00113448,-0.595739,0.0149195,0.00966009,1385,1765,2.07553,-3.25819
168,-741,2.04175,3.2439,0.0145508,0.00603392,-0.0106872,0.0217967,-0.00121199,-0.595809,0.0149515,0.0162609,1392,1765,2.04178,-3.24393
175,-741,2.08142,3.19482,0.0123671,0.00387513,-0.011554,0.0204306,-0.0041884,-0.609313,0.01521,0.0205693,1399,1765,2.08138,-3.19483
182,-741,2.14221,3.12866,0.00978174,0.00219806,-0.0126305,0.0191773,-0.00719747,-0.639572,0.0157424,0.0187867,1406,1765,2.14227,-3.12867
189,-741,2.22742,3.10767,0.00724803,0.000670653,-0.0135353,0.0178885,-0.00996978,-0.666222,0.0162991,0.0208107,1413,1765,2.2274,-3.10766
196,-741,2.1344,3.16187,0.00484022,-0.000201998,-0.0149779,0.0175077,-0.0128695,-0.702019,0.0176063,0.0192551,1420,1765,2.13435,-3.16191
203,-741,2.06445,3.19312,0.00226669,-0.000392487,-0.0164388,0.0174296,-0.0155554,-0.745045,0.0190541,0.0142102,1427,1765,2.06442,-3.19318
210,-741,2.02612,3.19617,0,0,0,0,0,0,0,-1,1434,1765,2.02615,-3.19622
217,-741,2.05005,3.17139,-0.00447494,0.000246026,-0.0167633,0.0148142,-0.0190431,-0.855345,0.0195983,0.0179365,1441,1765,2.05009,-3.17139
224,-741,2.06641,3.15735,-0.00694593,0.00187025,-0.0161529,0.0142057,-0.0192814,-0.918604,0.0194077,0.0231816,1448,1765,2.06646,-3.15731
231,-741,2.1615,3.11768,-0.00919381,0.00342226,-0.0142439,0.0126924,-0.0184639,-0.993848,0.0180907,0.0315236,1455,1765,2.16155,-3.11768
238,-741,2.1936,3.03137,-0.0114354,0.00486926,-0.0114732,0.0107915,-0.0173576,-1.09429,0.0163986,0.0340959,1462,1765,2.19357,-3.03133
245,-741,2.20947,2.9906,-0.0131838,0.00684603,-0.00871871,0.0101095,-0.0164473,-1.21264,0.0154774,0.0360558,1469,1765,2.20943,-2.99061
252,-741,2.08374,3.0564,-0.014527,0.00771385,-0.00469441,0.00866411,-0.0154772,-1.37107,0.0141218,0.0412386,1476,1765,2.08374,-3.05638
259,-741,1.61084,2.91418,-0.0158627,0.00805053,-4.21469e-05,0.00805061,-0.0158627,-1.56903,0.0140498,0.0439345,1483,1765,1.61088,-2.91423
266,-741,2.573,3.63831,0,0,0,0,0,0,0,-1,1490,1765,2.57295,-3.63826
273,-741,2.26746,3.16968,-0.0165647,0.00515844,0.00874245,0.00823976,-0.019646,1.23194,0.0165427,0.0483037,1497,1765,2.26745,-3.16964
280,-741,1.77759,2.88416,-0.0170722,0.00385733,0.0131646,0.0102097,-0.0234246,1.12122,0.0199121,0.0470205,1504,1765,1.77765,-2.8842
287,-741,1.09668,2.23621,-0.0169579,0.00136462,0.0168424,0.0113761,-0.0269694,1.03449,0.0227408,0.0466413,1511,1765,1.09664,-2.23625
294,-741,2.5802,2.50159,0,0,0,0,0,0,0,-1,1518,1765,2.58016,-2.50159
301,-741,2.51221,2.81458,-0.0149328,-0.00480201,0.0194237,0.0102059,-0.0299407,0.91295,0.024094,0.0462882,1525,1765,2.51215,-2.81458
308,-741,2.46448,3.12732,-0.0138978,-0.00774491,0.020295,0.00970548,-0.0313482,0.860619,0.0247759,0.042719,1532,1765,2.46452,-3.12734
315,-741,2.58472,3.36609,-0.0122456,-0.00967049,0.0203266,0.00940929,-0.0313254,0.817028,0.0246267,0.04388,1539,1765,2.58468,-3.36607
322,-741,2.6908,3.99011,-0.0110233,-0.0119801,0.0188176,0.00732196,-0.0303253,0.772689,0.0230485,0.045839,1546,1765,2.69082,-3.99005
329,-741,1.97229,4.13745,-0.01118,-0.0151407,0.0158388,0.00280174,-0.0291224,0.723204,0.0204131,0.0420821,1553,1765,1.97235,-4.13749
336,-741,1.96838,4.29224,0,0,0,0,0,0,0,-1,1560,1765,1.96833,-4.29225
343,-741,3.13184,3.00037,0,0,0,0,0,0,0,-1,1567,1765,3.13186,-3.00031
350,-741,3.19421,2.69434,0,0,0,0,0,0,0,-1,1574,1765,3.19426,-2.69432
357,-741,3.37,2.60315,0,0,0,0,0,0,0,-1,1581,1765,3.36995,-2.60314
364,-741,0,0,0,0,0,0,0,0,0,-1,1588,1765,0,0
371,-741,0,0,0,0,0,0,0,0,0,-1,1595,1765,0,0
378,-741,0,0,0,0,0,0,0,0,0,-1,1602,1765,0,0
385,-741,0,0,0,0,0,0,0,0,0,-1,1609,1765,0,0
392,-741,0,0,0,0,0,0,0,0,0,-1,1616,1765,0,0
399,-741,0,0,0,0,0,0,0,0,0,-1,1623,1765,0,0
406,-741,0,0,0,0,0,0,0,0,0,-1,1630,1765,0,0
413,-741,0,0,0,0,0,0,0,0,0,-1,1637,1765,0,0
420,-741,0,0,0,0,0,0,0,0,0,-1,1644,1765,0,0
427,-741,0,0,0,0,0,0,0,0,0,-1,1651,1765,0,0
434,-741,0,0,0,0,0,0,0,0,0,-1,1658,1765,0,0
441,-741,0,0,0,0,0,0,0,0,0,-1,1665,1765,0,0
448,-741,0,0,0,0,0,0,0,0,0,-1,1672,1765,0,0
455,-741,0,0,0,0,0,0,0,0,0,-1,1679,1765,0,0
462,-741,0,0,0,0,0,0,0,0,0,-1,1686,1765,0,0
469,-741,0,0,0,0,0,0,0,0,0,-1,1693,1765,0,0
476,-741,0,0,0,0,0,0,0,0,0,-1,1700,1765,0,0
483,-741,0,0,0,0,0,0,0,0,0,-1,1707,1765,0,0
490,-741,0,0,0,0,0,0,0,0,0,-1,1714,1765,0,0
497,-741,0,0,0,0,0,0,0,0,0,-1,1721,1765,0,0
504,-741,0,0,0,0,0,0,0,0,0,-1,1728,1765,0,0
511,-741,0,0,0,0,0,0,0,0,0,-1,1735,1765,0,0
518,-741,0,0,0,0,0,0,0,0,0,-1,1742,1765,0,0
525,-741,0,0,0,0,0,0,0,0,0,-1,1749,1765,0,0
532,-741,0,0,0,0,0,0,0,0,0,-1,1756,1765,0,0
539,-741,0,0,0,0,0,0,0,0,0,-1,1763,1765,0,0
546,-741,0,0,0,0,0,0,0,0,0,-1,1770,1765,0,0
553,-741,0,0,0,0,0,0,0,0,0,-1,1777,1765,0,0
560,-741,0,0,0,0,0,0,0,0,0,-1,1784,1765,0,0
567,-741,0,0,0,0,0,0,0,0,0,-1,1791,1765,0,0
574,-741,0,0,0,0,0,0,0,0,0,-1,1798,1765,0,0
581,-741,0,0,0,0,0,0,0,0,0,-1,1805,1765,0,0
588,-741,0,0,0,0,0,0,0,0,0,-1,1812,1765,0,0
595,-741,0,0,0,0,0,0,0,0,0,-1,1819,1765,0,0
602,-741,0,0,0,0,0,0,0,0,0,-1,1826,1765,0,0
609,-741,0,0,0,0,0,0,0,0,0,-1,1833,1765,0,0
616,-741,0,0,0,0,0,0,0,0,0,-1,1840,1765,0,0
623,-741,0,0,0,0,0,0,0,0,0,-1,1847,1765,0,0
630,-741,0,0,0,0,0,0,0,0,0,-1,1854,1765,0,0
637,-741,0,0,0,0,0,0,0,0,0,-1,1861,1765,0,0
644,-741,0,0,0,0,0,0,0,0,0,-1,1868,1765,0,0
651,-741,0,0,0,0,0,0,0,0,0,-1,1875,1765,0,0
658,-741,0,0,0,0,0,0,0,0,0,-1,1882,1765,0,0
665,-741,0,0,0,0,0,0,0,0,0,-1,1889,1765,0,0
672,-741,0,0,0,0,0,0,0,0,0,-1,1896,1765,0,0
679,-741,0,0,0,0,0,0,0,0,0,-1,1903,1765,0,0
686,-741,0,0,0,0,0,0,0,0,0,-1,1910,1765,0,0
693,-741,0,0,0,0,0,0,0,0,0,-1,1917,1765,0,0
700,-741,0,0,0,0,0,0,0,0,0,-1,1924,1765,0,0
707,-741,0,0,0,0,0,0,0,0,0,-1,1931,1765,0,0
714,-741,0,0,0,0,0,0,0,0,0,-1,1938,1765,0,0
721,-741,0,0,0,0,0,0,0,0,0,-1,1945,1765,0,0
728,-741,0,0,0,0,0,0,0,0,0,-1,1952,1765,0,0
735,-741,0,0,0,0,0,0,0,0,0,-1,1959,1765,0,0
742,-741,0,0,0,0,0,0,0,0,0,-1,1966,1765,0,0
749,-741,0,0,0,0,0,0,0,0,0,-1,1973,1765,0,0
756,-741,0,0,0,0,0,0,0,0,0,-1,1980,1765,0,0
763,-741,0,0,0,0,0,0,0,0,0,-1,1987,1765,0,0
770,-741,0,0,0,0,0,0,0,0,0,-1,1994,1765,0,0
777,-741,0,0,0,0,0,0,0,0,0,-1,2001,1765,0,0
784,-741,0,0,0,0,0,0,0,0,0,-1,2008,1765,0,0
791,-741,0,0,0,0,0,0,0,0,0,-1,2015,1765,0,0
798,-741,0,0,0,0,0,0,0,0,0,-1,2022,1765,0,0
805,-741,0,0,0,0,0,0,0,0,0,-1,2029,1765,0,0
812,-741,0,0,0,0,0,0,0,0,0,-1,2036,1765,0,0
-700,-748,0,0,0,0,0,0,0,0,0,-1,524,1772,0,0
-693,-748,0,0,0,0,0,0,0,0,0,-1,531,1772,0,0
-686,-748,0,0,0,0,0,0,0,0,0,-1,538,1772,0,0
-679,-748,0,0,0,0,0,0,0,0,0,-1,545,1772,0,0
-672,-748,0,0,0,0,0,0,0,0,0,-1,552,1772,0,0
-665,-748,0,0,0,0,0,0,0,0,0,-1,559,1772,0,0
-658,-748,0,0,0,0,0,0,0,0,0,-1,566,1772,0,0
-651,-748,0,0,0,0,0,0,0,0,0,-1,573,1772,0,0
-644,-748,0,0,0,0,0,0,0,0,0,-1,580,1772,0,0
-637,-748,0,0,0,0,0,0,0,0,0,-1,587,1772,0,0
-630,-748,0,0,0,0,0,0,0,0,0,-1,594,1772,0,0
-623,-748,0,0,0,0,0,0,0,0,0,-1,601,1772,0,0
-616,-748,0,0,0,0,0,0,0,0,0,-1,608,1772,0,0
-609,-748,0,0,0,0,0,0,0,0,0,-1,615,1772,0,0
-602,-748,0,0,0,0,0,0,0,0,0,-1,622,1772,0,0
-595,-748,0,0,0,0,0,0,0,0,0,-1,629,1772,0,0
-588,-748,0,0,0,0,0,0,0,0,0,-1,636,1772,0,0
-581,-748,0,0,0,0,0,0,0,0,0,-1,643,1772,0,0
-574,-748,0,0,0,0,0,0,0,0,0,-1,650,1772,0,0
-567,-748,0,0,0,0,0,0,0,0,0,-1,657,1772,0,0
-560,-748,0,0,0,0,0,0,0,0,0,-1,664,1772,0,0
-553,-748,0,0,0,0,0,0,0,0,0,-1,671,1772,0,0
-546,-748,0,0,0,0,0,0,0,0,0,-1,678,1772,0,0
-539,-748,0,0,0,0,0,0,0,0,0,-1,685,1772,0,0
-532,-748,0,0,0,0,0,0,0,0,0,-1,692,1772,0,0
-525,-748,0,0,0,0,0,0,0,0,0,-1,699,1772,0,0
-518,-748,0,0,0,0,0,0,0,0,0,-1,706,1772,0,0
-511,-748,0,0,0,0,0,0,0,0,0,-1,713,1772,0,0
-504,-748,0,0,0,0,0,0,0,0,0,-1,720,1772,0,0
-497,-748,0,0,0,0,0,0,0,0,0,-1,727,1772,0,0
-490,-748,0,0,0,0,0,0,0,0,0,-1,734,1772,0,0
-483,-748,0,0,0,0,0,0,0,0,0,-1,741,1772,0,0
-476,-748,0,0,0,0,0,0,0,0,0,-1,748,1772,0,0
-469,-748,0,0,0,0,0,0,0,0,0,-1,755,1772,0,0
-462,-748,0,0,0,0,0,0,0,0,0,-1,762,1772,0,0
-455,-748,0,0,0,0,0,0,0,0,0,-1,769,1772,0,0
-448,-748,0,0,0,0,0,0,0,0,0,-1,776,1772,0,0
-441,-748,0,0,0,0,0,0,0,0,0,-1,783,1772,0,0
-434,-748,0,0,0,0,0,0,0,0,0,-1,790,1772,0,0
-427,-748,0,0,0,0,0,0,0,0,0,-1,797,1772,0,0
-420,-748,0,0,0,0,0,0,0,0,0,-1,804,1772,0,0
-413,-748,0,0,0,0,0,0,0,0,0,-1,811,1772,0,0
-406,-748,0,0,0,0,0,0,0,0,0,-1,818,1772,0,0
-399,-748,0,0,0,0,0,0,0,0,0,-1,825,1772,0,0
-392,-748,0,0,0,0,0,0,0,0,0,-1,832,1772,0,0
-385,-748,0,0,0,0,0,0,0,0,0,-1,839,1772,0,0
-378,-748,0,0,0,0,0,0,0,0,0,-1,846,1772,0,0
-371,-748,0,0,0,0,0,0,0,0,0,-1,853,1772,0,0
-364,-748,0,0,0,0,0,0,0,0,0,-1,860,1772,0,0
-357,-748,0,0,0,0,0,0,0,0,0,-1,867,1772,0,0
-350,-748,0,0,0,0,0,0,0,0,0,-1,874,1772,0,0
-343,-748,0,0,0,0,0,0,0,0,0,-1,881,1772,0,0
-336,-748,0,0,0,0,0,0,0,0,0,-1,888,1772,0,0
-329,-748,0,0,0,0,0,0,0,0,0,-1,895,1772,0,0
-322,-748,0,0,0,0,0,0,0,0,0,-1,902,1772,0,0
-315,-748,0,0,0,0,0,0,0,0,0,-1,909,1772,0,0
-308,-748,0,0,0,0,0,0,0,0,0,-1,916,1772,0,0
-301,-748,0,0,0,0,0,0,0,0,0,-1,923,1772,0,0
-294,-748,0,0,0,0,0,0,0,0,0,-1,930,1772,0,0
-287,-748,0,0,0,0,0,0,0,0,0,-1,937,1772,0,0
-280,-748,0,0,0,0,0,0,0,0,0,-1,944,1772,0,0
-273,-748,0,0,0,0,0,0,0,0,0,-1,951,1772,0,0
-266,-748,0,0,0,0,0,0,0,0,0,-1,958,1772,0,0
-259,-748,0,0,0,0,0,0,0,0,0,-1,965,1772,0,0
-252,-748,0,0,0,0,0,0,0,0,0,-1,972,1772,0,0
-245,-748,0,0,0,0,0,0,0,0,0,-1,979,1772,0,0
-238,-748,0,0,0,0,0,0,0,0,0,-1,986,1772,0,0
-231,-748,0,0,0,0,0,0,0,0,0,-1,993,1772,0,0
-224,-748,0,0,0,0,0,0,0,0,0,-1,1000,1772,0,0
-217,-748,2.07941,2.86218,0.00190102,0.105377,0.103614,0.169452,-0.0621738,1.01696,0.138428,0.0441094,1007,1772,2.07938,-2.86216
-210,-748,0.419373,2.89343,0.0033888,0.118049,0.102413,0.178086,-0.0566487,1.04056,0.14144,0.047793,1014,1772,0.419364,-2.89349
-203,-748,-1.15289,2.69165,0.00291008,0.123414,0.0978129,0.178043,-0.0517191,1.06145,0.139176,0.0476128,1021,1772,-1.15288,-2.69164
-196,-748,6.98206,2.67493,-0.000159336,0.122417,0.0910603,0.170893,-0.0486356,1.0816,0.133136,0.0474419,1028,1772,6.98201,-2.67489
-189,-748,-3.74109,2.297,-0.00249427,0.112128,0.0755427,0.149639,-0.0400054,1.10991,0.115429,0.0493986,1035,1772,-3.74109,-2.29701
-182,-748,-4.97778,2.21619,0,0,0,0,0,0,0,-1,1042,1772,-4.97777,-2.21624
-175,-748,0.590698,2.26135,0,0,0,0,0,0,0,-1,1049,1772,0.59073,-2.26139
-168,-748,0.70105,2.16223,0,0,0,0,0,0,0,-1,1056,1772,0.701098,-2.16219
-161,-748,0.803589,2.32837,0,0,0,0,0,0,0,-1,1063,1772,0.803531,-2.32831
-154,-748,1.31812,2.19202,0,0,0,0,0,0,0,-1,1070,1772,1.31812,-2.19196
-147,-748,1.73401,1.81067,0,0,0,0,0,0,0,-1,1077,1772,1.73397,-1.81062
-140,-748,1.86475,2.30298,-0.0266988,0.00713902,-0.0135623,0.0119039,-0.0314637,-1.23294,0.0258732,0.0432361,1084,1772,1.86478,-2.30296
-133,-748,1.96692,2.53967,-0.0210897,0.00774652,-0.0121946,0.012212,-0.0255552,-1.21978,0.0222539,0.0401903,1091,1772,1.9669,-2.53971
-126,-748,1.86255,2.64258,-0.020134,0.00672722,-0.0120002,0.0113073,-0.024714,-1.20619,0.0212717,0.0400502,1098,1772,1.86255,-2.64254
-119,-748,1.65027,2.50671,-0.0213911,0.00461099,-0.0107187,0.00845978,-0.0252399,-1.22606,0.0202446,0.0393476,1105,1772,1.65025,-2.50672
-112,-748,1.44531,2.3103,-0.0225172,0.00161709,-0.00925065,0.00475489,-0.025655,-1.24378,0.0188889,0.0434005,1112,1772,1.44531,-2.31034
-105,-748,1.08362,1.7522,0,0,0,0,0,0,0,-1,1119,1772,1.08359,-1.75214
-98,-748,0.687134,1.85608,0,0,0,0,0,0,0,-1,1126,1772,0.687079,-1.85608
-91,-748,0.283813,1.29285,0,0,0,0,0,0,0,-1,1133,1772,0.283761,-1.29289
-84,-748,-0.0655518,0.875854,0,0,0,0,0,0,0,-1,1140,1772,-0.0655065,-0.875868
-77,-748,-0.141479,0.902954,0,0,0,0,0,0,0,-1,1147,1772,-0.141438,-0.902939
-70,-748,2.3136,3.09033,-0.0179445,-0.0146805,0.0021344,-0.0136257,-0.0189993,1.1118,0.0113089,0.0423119,1154,1772,2.31362,-3.09039
-63,-748,1.77405,3.13745,-0.0137772,-0.0145214,0.00412341,-0.0100091,-0.0182894,0.740402,0.0105751,0.0449365,1161,1772,1.77405,-3.13741
-56,-748,1.47632,3.28125,-0.00944743,-0.0139949,0.00608561,-0.00522466,-0.0182177,0.606617,0.010832,0.0429595,1168,1772,1.47632,-3.2812
-49,-748,1.41406,3.31091,-0.00415181,-0.012817,0.00704985,-0.000209633,-0.0167592,0.509868,0.0111036,0.0356729,1175,1772,1.41405,-3.31087
-42,-748,1.54993,3.32031,0.00111682,-0.0110755,0.00773833,0.00487179,-0.0148305,0.451773,0.0118496,0.0316941,1182,1772,1.54995,-3.32033
-35,-748,1.88452,3.24194,0.00612588,-0.00902509,0.00803096,0.00959051,-0.0124897,0.407288,0.0127846,0.0234906,1189,1772,1.88449,-3.24191
-28,-748,2.08691,3.2854,0.00990803,-0.00476349,0.00840188,0.013726,-0.00858143,0.426519,0.0129928,0.0163503,1196,1772,2.08694,-3.28535
-21,-748,2.09778,3.31213,0.0127496,-0.000424375,0.00984403,0.0180072,-0.00568194,0.490543,0.0142806,0.0175606,1203,1772,2.09775,-3.3121
-14,-748,2.0802,3.28101,0.015289,0.0013108,0.00959917,0.0201739,-0.00357408,0.470731,0.0147853,0.0150431,1210,1772,2.08015,-3.28102
-7,-748,2.07568,3.25085,0.0163433,0.00275673,0.00892229,0.0207641,-0.00166408,0.460025,0.0144294,0.0150723,1217,1772,2.07569,-3.25084
0,-748,2.06775,3.26013,0.0161699,0.00398764,0.00847588,0.0205163,-0.00035878,0.473834,0.0137987,0.0147945,1224,1772,2.06772,-3.26012
7,-748,2.05798,3.2583,0.014485,0.00483158,0.00810506,0.0190917,0.000224886,0.516839,0.0126535,0.0139345,1231,1772,2.05797,-3.25828
14,-748,2.07166,3.28931,0.012873,0.00471987,0.00762935,0.0174466,0.00014626,0.540034,0.0115826,0.0143595,1238,1772,2.0717,-3.28926
21,-748,2.08618,3.2981,0.0110217,0.0045652,0.00694047,0.015448,0.000138914,0.567715,0.0102526,0.011488,1245,1772,2.08622,-3.29805
28,-748,2.04895,3.32104,0.00890869,0.00387176,0.00618064,0.0130643,-0.000283825,0.59193,0.00880565,0.0118853,1252,1772,2.04899,-3.32099
35,-748,2.06335,3.33801,0.00656882,0.00260507,0.00506868,0.0100293,-0.000855423,0.599034,0.00698882,0.0122064,1259,1772,2.06334,-3.33805
42,-748,2.06982,3.32483,0.00467382,0.00118757,0.0038011,0.00711242,-0.00125103,0.570413,0.00520894,0.0129763,1266,1772,2.06979,-3.32478
49,-748,2.05566,3.29309,0.00306648,-0.000125802,0.00231535,0.00428255,-0.00134187,0.483619,0.00339198,0.0103108,1273,1772,2.05571,-3.29308
56,-748,2.04004,3.30786,0.0016871,-0.0010818,0.0010506,0.0020406,-0.0014353,0.324573,0.00201693,0.0104572,1280,1772,2.04006,-3.30787
63,-748,2.02258,3.31226,0.000946267,-0.00133901,-0.000320853,0.00099046,-0.00138321,-0.136875,0.00137668,0.0125686,1287,1772,2.02253,-3.31223
70,-748,2.03467,3.30273,0.000458381,-0.00102983,-0.00223875,0.00207345,-0.0026449,-0.624954,0.00273079,0.0137779,1294,1772,2.03472,-3.30272
77,-748,2.05298,3.30151,0.00113153,-0.000772141,-0.00423413,0.00451949,-0.0041601,-0.674836,0.0050126,0.0120982,1301,1772,2.05295,-3.30154
84,-748,2.03015,3.33472,0.00245098,0.00129059,-0.00631646,0.00821384,-0.00447226,-0.739599,0.00742975,0.0132257,1308,1772,2.03011,-3.3347
91,-748,2.03857,3.33521,0.00392045,0.00431239,-0.00722619,0.0113453,-0.00311243,-0.798954,0.0087867,0.0116518,1315,1772,2.03859,-3.33521
98,-748,2.05286,3.30615,0.00589369,0.0074718,-0.00806027,0.0147815,-0.00141606,-0.83419,0.0103587,0.0107359,1322,1772,2.05289,-3.30613
105,-748,2.06128,3.2854,0.00881942,0.0104265,-0.00928492,0.0189426,0.000303342,-0.828562,0.0125285,0.0116965,1329,1772,2.0613,-3.28543
112,-748,2.06201,3.30151,0.0122361,0.0129565,-0.0105965,0.0231989,0.00199365,-0.802387,0.0148461,0.0142791,1336,1772,2.06206,-3.30155
119,-748,2.04785,3.30066,0.0155909,0.0159643,-0.0119151,0.0276941,0.00386104,-0.793233,0.0173198,0.0123405,1343,1772,2.04782,-3.3006
126,-748,2.05518,3.28577,0.0184402,0.0176499,-0.0127175,0.0307687,0.00532145,-0.769867,0.0189889,0.0134627,1350,1772,2.05517,-3.2858
133,-748,2.04089,3.27759,0.0208984,0.0183046,-0.013497,0.0331607,0.00604233,-0.7375,0.0203936,0.0083655,1357,1772,2.0409,-3.27753
140,-748,2.03552,3.2821,0.0227408,0.0183534,-0.0133262,0.0340527,0.00704155,-0.703822,0.0207567,0.0112214,1364,1772,2.03556,-3.28211
147,-748,2.07458,3.28418,0.0238574,0.01732,-0.0132106,0.0341977,0.00697967,-0.664119,0.0208647,0.0123596,1371,1772,2.07454,-3.28415
154,-748,2.07446,3.28967,0.0240718,0.0148891,-0.0133028,0.0335533,0.00540765,-0.619228,0.020802,0.0110625,1378,1772,2.07444,-3.28969
161,-748,2.08093,3.28333,0.022786,0.012212,-0.0135264,0.0320219,0.00297605,-0.599095,0.0204283,0.0145352,1385,1772,2.0809,-3.28333
168,-748,2.29712,3.30432,0.0204037,0.00913724,-0.0135829,0.0294752,6.57486e-05,-0.588829,0.0196282,0.0294154,1392,1772,2.29717,-3.30428
175,-748,2.63416,3.35144,0.0172337,0.00585736,-0.0140875,0.0267381,-0.003647,-0.59352,0.0191571,0.0367849,1399,1772,2.63418,-3.35142
182,-748,3.0592,3.2793,0.0136119,0.00321291,-0.014938,0.0242295,-0.00740468,-0.617921,0.0191056,0.0442087,1406,1772,3.05922,-3.27935
189,-748,3.25159,3.23291,0,0,0,0,0,0,0,-1,1413,1772,3.25156,-3.23296
196,-748,3.1427,3.31848,0.00677389,-0.000698223,-0.0172666,0.020704,-0.0146283,-0.678853,0.0204994,0.0347435,1420,1772,3.14267,-3.31846
203,-748,2.71216,3.22815,0.00341275,-0.00105769,-0.0191844,0.0204917,-0.0181367,-0.727404,0.0223159,0.0324551,1427,1772,2.71211,-3.22814
210,-748,2.64917,3.22961,-0.00134169,-0.00101967,-0.0196951,0.0185151,-0.0208764,-0.789486,0.0227563,0.0321896,1434,1772,2.64915,-3.2296
217,-748,2.70923,3.22937,-0.00576636,-0.00066788,-0.0198831,0.0168287,-0.0232629,-0.849156,0.0232461,0.0340164,1441,1772,2.70922,-3.22935
224,-748,2.50903,3.11755,-0.00904647,0.00122626,-0.019418,0.0161757,-0.0239959,-0.914695,0.0233391,0.0387556,1448,1772,2.50909,-3.11753
231,-748,2.3678,2.9469,-0.0121437,0.00276469,-0.0172449,0.0140975,-0.0234765,-0.989398,0.0219175,0.0404338,1455,1772,2.36779,-2.94688
238,-748,2.34607,2.76819,-0.0152834,0.00429753,-0.0137957,0.0114238,-0.0224096,-1.09399,0.019874,0.0411376,1462,1772,2.34604,-2.76816
245,-748,2.474,2.61841,-0.0179763,0.00676486,-0.0102408,0.0104537,-0.0216652,-1.22505,0.0189167,0.0419795,1469,1772,2.47401,-2.61842
252,-748,2.48291,2.69177,-0.0201248,0.0077888,-0.00496383,0.00864523,-0.0209812,-1.39994,0.0175921,0.0459111,1476,1772,2.48292,-2.69183
259,-748,1.43323,2.76685,0,0,0,0,0,0,0,-1,1483,1772,1.43317,-2.76686
266,-748,1.31787,2.67102,0,0,0,0,0,0,0,-1,1490,1772,1.31793,-2.67098
273,-748,1.62622,2.55566,-0.0234002,0.00494043,0.0131757,0.0101195,-0.0285793,1.19627,0.0231745,0.047832,1497,1772,1.62618,-2.55561
280,-748,1.2179,2.43518,-0.0241527,0.00354158,0.0191653,0.0133387,-0.0339499,1.09824,0.0281532,0.0455859,1504,1772,1.21789,-2.43523
287,-748,2.76428,2.59326,-0.0241205,0.000671423,0.0242252,0.015488,-0.038937,1.02188,0.0323798,0.0438695,1511,1772,2.76425,-2.59325
294,-748,2.82434,2.67969,0,0,0,0,0,0,0,-1,1518,1772,2.82437,-2.67975
301,-748,2.59753,2.9823,-0.0218195,-0.00674884,0.0277616,0.014482,-0.0430503,0.91792,0.0345543,0.0465288,1525,1772,2.59751,-2.98234
308,-748,2.45532,3.33618,-0.0206842,-0.0104337,0.028907,0.0137989,-0.0449168,0.873137,0.035451,0.0454726,1532,1772,2.45537,-3.33622
315,-748,2.33325,3.69653,-0.0191572,-0.0130608,0.0293805,0.0134292,-0.0456472,0.837088,0.0357585,0.0490231,1539,1772,2.33321,-3.69651
322,-748,2.38916,4.16687,0,0,0,0,0,0,0,-1,1546,1772,2.38919,-4.16689
329,-748,1.42212,3.83411,0,0,0,0,0,0,0,-1,1553,1772,1.42214,-3.83409
336,-748,1.74597,4.05444,0,0,0,0,0,0,0,-1,1560,1772,1.74603,-4.05445
343,-748,0,0,0,0,0,0,0,0,0,-1,1567,1772,0,0
350,-748,0,0,0,0,0,0,0,0,0,-1,1574,1772,0,0
357,-748,0,0,0,0,0,0,0,0,0,-1,1581,1772,0,0
364,-748,0,0,0,0,0,0,0,0,0,-1,1588,1772,0,0
371,-748,0,0,0,0,0,0,0,0,0,-1,1595,1772,0,0
378,-748,0,0,0,0,0,0,0,0,0,-1,1602,1772,0,0
385,-748,0,0,0,0,0,0,0,0,0,-1,1609,1772,0,0
392,-748,0,0,0,0,0,0,0,0,0,-1,1616,1772,0,0
399,-748,0,0,0,0,0,0,0,0,0,-1,1623,1772,0,0
406,-748,0,0,0,0,0,0,0,0,0,-1,1630,1772,0,0
413,-748,0,0,0,0,0,0,0,0,0,-1,1637,1772,0,0
420,-748,0,0,0,0,0,0,0,0,0,-1,1644,1772,0,0
427,-748,0,0,0,0,0,0,0,0,0,-1,1651,1772,0,0
434,-748,0,0,0,0,0,0,0,0,0,-1,1658,1772,0,0
441,-748,0,0,0,0,0,0,0,0,0,-1,1665,1772,0,0
448,-748,0,0,0,0,0,0,0,0,0,-1,1672,1772,0,0
455,-748,0,0,0,0,0,0,0,0,0,-1,1679,1772,0,0
462,-748,0,0,0,0,0,0,0,0,0,-1,1686,1772,0,0
469,-748,0,0,0,0,0,0,0,0,0,-1,1693,1772,0,0
476,-748,0,0,0,0,0,0,0,0,0,-1,1700,1772,0,0
483,-748,0,0,0,0,0,0,0,0,0,-1,1707,1772,0,0
490,-748,0,0,0,0,0,0,0,0,0,-1,1714,1772,0,0
497,-748,0,0,0,0,0,0,0,0,0,-1,1721,1772,0,0
504,-748,0,0,0,0,0,0,0,0,0,-1,1728,1772,0,0
511,-748,0,0,0,0,0,0,0,0,0,-1,1735,1772,0,0
518,-748,0,0,0,0,0,0,0,0,0,-1,1742,1772,0,0
525,-748,0,0,0,0,0,0,0,0,0,-1,1749,1772,0,0
532,-748,0,0,0,0,0,0,0,0,0,-1,1756,1772,0,0
539,-748,0,0,0,0,0,0,0,0,0,-1,1763,1772,0,0
546,-748,0,0,0,0,0,0,0,0,0,-1,1770,1772,0,0
553,-748,0,0,0,0,0,0,0,0,0,-1,1777,1772,0,0
560,-748,0,0,0,0,0,0,0,0,0,-1,1784,1772,0,0
567,-748,0,0,0,0,0,0,0,0,0,-1,1791,1772,0,0
574,-748,0,0,0,0,0,0,0,0,0,-1,1798,1772,0,0
581,-748,0,0,0,0,0,0,0,0,0,-1,1805,1772,0,0
588,-748,0,0,0,0,0,0,0,0,0,-1,1812,1772,0,0
595,-748,0,0,0,0,0,0,0,0,0,-1,1819,1772,0,0
602,-748,0,0,0,0,0,0,0,0,0,-1,1826,1772,0,0
609,-748,0,0,0,0,0,0,0,0,0,-1,1833,1772,0,0
616,-748,0,0,0,0,0,0,0,0,0,-1,1840,1772,0,0
623,-748,0,0,0,0,0,0,0,0,0,-1,1847,1772,0,0
630,-748,0,0,0,0,0,0,0,0,0,-1,1854,1772,0,0
637,-748,0,0,0,0,0,0,0,0,0,-1,1861,1772,0,0
644,-748,0,0,0,0,0,0,0,0,0,-1,1868,1772,0,0
651,-748,0,0,0,0,0,0,0,0,0,-1,1875,1772,0,0
658,-748,0,0,0,0,0,0,0,0,0,-1,1882,1772,0,0
665,-748,0,0,0,0,0,0,0,0,0,-1,1889,1772,0,0
672,-748,0,0,0,0,0,0,0,0,0,-1,1896,1772,0,0
679,-748,0,0,0,0,0,0,0,0,0,-1,1903,1772,0,0
686,-748,0,0,0,0,0,0,0,0,0,-1,1910,1772,0,0
693,-748,0,0,0,0,0,0,0,0,0,-1,1917,1772,0,0
700,-748,0,0,0,0,0,0,0,0,0,-1,1924,1772,0,0
707,-748,0,0,0,0,0,0,0,0,0,-1,1931,1772,0,0
714,-748,0,0,0,0,0,0,0,0,0,-1,1938,1772,0,0
721,-748,0,0,0,0,0,0,0,0,0,-1,1945,1772,0,0
728,-748,0,0,0,0,0,0,0,0,0,-1,1952,1772,0,0
735,-748,0,0,0,0,0,0,0,0,0,-1,1959,1772,0,0
742,-748,0,0,0,0,0,0,0,0,0,-1,1966,1772,0,0
749,-748,0,0,0,0,0,0,0,0,0,-1,1973,1772,0,0
756,-748,0,0,0,0,0,0,0,0,0,-1,1980,1772,0,0
763,-748,0,0,0,0,0,0,0,0,0,-1,1987,1772,0,0
770,-748,0,0,0,0,0,0,0,0,0,-1,1994,1772,0,0
777,-748,0,0,0,0,0,0,0,0,0,-1,2001,1772,0,0
784,-748,0,0,0,0,0,0,0,0,0,-1,2008,1772,0,0
791,-748,0,0,0,0,0,0,0,0,0,-1,2015,1772,0,0
798,-748,0,0,0,0,0,0,0,0,0,-1,2022,1772,0,0
805,-748,0,0,0,0,0,0,0,0,0,-1,2029,1772,0,0
812,-748,0,0,0,0,0,0,0,0,0,-1,2036,1772,0,0
-700,-755,0,0,0,0,0,0,0,0,0,-1,524,1779,0,0
-693,-755,0,0,0,0,0,0,0,0,0,-1,531,1779,0,0
-686,-755,0,0,0,0,0,0,0,0,0,-1,538,1779,0,0
-679,-755,0,0,0,0,0,0,0,0,0,-1,545,1779,0,0
-672,-755,0,0,0,0,0,0,0,0,0,-1,552,1779,0,0
-665,-755,0,0,0,0,0,0,0,0,0,-1,559,1779,0,0
-658,-755,0,0,0,0,0,0,0,0,0,-1,566,1779,0,0
-651,-755,0,0,0,0,0,0,0,0,0,-1,573,1779,0,0
-644,-755,0,0,0,0,0,0,0,0,0,-1,580,1779,0,0
-637,-755,0,0,0,0,0,0,0,0,0,-1,587,1779,0,0
-630,-755,0,0,0,0,0,0,0,0,0,-1,594,1779,0,0
-623,-755,0,0,0,0,0,0,0,0,0,-1,601,1779,0,0
-616,-755,0,0,0,0,0,0,0,0,0,-1,608,1779,0,0
-609,-755,0,0,0,0,0,0,0,0,0,-1,615,1779,0,0
-602,-755,0,0,0,0,0,0,0,0,0,-1,622,1779,0,0
-595,-755,0,0,0,0,0,0,0,0,0,-1,629,1779,0,0
-588,-755,0,0,0,0,0,0,0,0,0,-1,636,1779,0,0
-581,-755,0,0,0,0,0,0,0,0,0,-1,643,1779,0,0
-574,-755,0,0,0,0,0,0,0,0,0,-1,650,1779,0,0
-567,-755,0,0,0,0,0,0,0,0,0,-1,657,1779,0,0
-560,-755,0,0,0,0,0,0,0,0,0,-1,664,1779,0,0
-553,-755,0,0,0,0,0,0,0,0,0,-1,671,1779,0,0
-546,-755,0,0,0,0,0,0,0,0,0,-1,678,1779,0,0
-539,-755,0,0,0,0,0,0,0,0,0,-1,685,1779,0,0
-532,-755,0,0,0,0,0,0,0,0,0,-1,692,1779,0,0
-525,-755,0,0,0,0,0,0,0,0,0,-1,699,1779,0,0
-518,-755,0,0,0,0,0,0,0,0,0,-1,706,1779,0,0
-511,-755,0,0,0,0,0,0,0,0,0,-1,713,1779,0,0
-504,-755,0,0,0,0,0,0,0,0,0,-1,720,1779,0,0
-497,-755,0,0,0,0,0,0,0,0,0,-1,727,1779,0,0
-490,-755,0,0,0,0,0,0,0,0,0,-1,734,1779,0,0
-483,-755,0,0,0,0,0,0,0,0,0,-1,741,1779,0,0
-476,-755,0,0,0,0,0,0,0,0,0,-1,748,1779,0,0
-469,-755,0,0,0,0,0,0,0,0,0,-1,755,1779,0,0
-462,-755,0,0,0,0,0,0,0,0,0,-1,762,1779,0,0
-455,-755,0,0,0,0,0,0,0,0,0,-1,769,1779,0,0
-448,-755,0,0,0,0,0,0,0,0,0,-1,776,1779,0,0
-441,-755,0,0,0,0,0,0,0,0,0,-1,783,1779,0,0
-434,-755,0,0,0,0,0,0,0,0,0,-1,790,1779,0,0
-427,-755,0,0,0,0,0,0,0,0,0,-1,797,1779,0,0
-420,-755,0,0,0,0,0,0,0,0,0,-1,804,1779,0,0
-413,-755,0,0,0,0,0,0,0,0,0,-1,811,1779,0,0
-406,-755,0,0,0,0,0,0,0,0,0,-1,818,1779,0,0
-399,-755,0,0,0,0,0,0,0,0,0,-1,825,1779,0,0
-392,-755,0,0,0,0,0,0,0,0,0,-1,832,1779,0,0
-385,-755,0,0,0,0,0,0,0,0,0,-1,839,1779,0,0
-378,-755,0,0,0,0,0,0,0,0,0,-1,846,1779,0,0
-371,-755,0,0,0,0,0,0,0,0,0,-1,853,1779,0,0
-364,-755,0,0,0,0,0,0,0,0,0,-1,860,1779,0,0
-357,-755,0,0,0,0,0,0,0,0,0,-1,867,1779,0,0
-350,-755,0,0,0,0,0,0,0,0,0,-1,874,1779,0,0
-343,-755,0,0,0,0,0,0,0,0,0,-1,881,1779,0,0
-336,-755,0,0,0,0,0,0,0,0,0,-1,888,1779,0,0
-329,-755,0,0,0,0,0,0,0,0,0,-1,895,1779,0,0
-322,-755,0,0,0,0,0,0,0,0,0,-1,902,1779,0,0
-315,-755,0,0,0,0,0,0,0,0,0,-1,909,1779,0,0
-308,-755,0,0,0,0,0,0,0,0,0,-1,916,1779,0,0
-301,-755,0,0,0,0,0,0,0,0,0,-1,923,1779,0,0
-294,-755,0,0,0,0,0,0,0,0,0,-1,930,1779,0,0
-287,-755,0,0,0,0,0,0,0,0,0,-1,937,1779,0,0
-280,-755,0,0,0,0,0,0,0,0,0,-1,944,1779,0,0
-273,-755,0,0,0,0,0,0,0,0,0,-1,951,1779,0,0
-266,-755,0,0,0,0,0,0,0,0,0,-1,958,1779,0,0
-259,-755,0,0,0,0,0,0,0,0,0,-1,965,1779,0,0
-252,-755,0,0,0,0,0,0,0,0,0,-1,972,1779,0,0
-245,-755,0,0,0,0,0,0,0,0,0,-1,979,1779,0,0
-238,-755,0,0,0,0,0,0,0,0,0,-1,986,1779,0,0
-231,-755,0,0,0,0,0,0,0,0,0,-1,993,1779,0,0
-224,-755,0,0,0,0,0,0,0,0,0,-1,1000,1779,0,0
-217,-755,0,0,0,0,0,0,0,0,0,-1,1007,1779,0,0
-210,-755,0,0,0,0,0,0,0,0,0,-1,1014,1779,0,0
-203,-755,-1.90192,2.92517,0.00459067,0.165411,0.129458,0.237399,-0.0673975,1.0633,0.184873,0.045327,1021,1779,-1.90194,-2.92512
-196,-755,-3.02612,2.76526,-0.000528675,0.166018,0.122736,0.231064,-0.0655749,1.08346,0.179929,0.045801,1028,1779,-3.02607,-2.76528
-189,-755,-4.22473,2.34949,-0.00300225,0.148816,0.100092,0.198528,-0.0527141,1.10982,0.152982,0.0455489,1035,1779,-4.22479,-2.34948
-182,-755,-5.51038,2.2157,-0.00576698,0.126185,0.0806389,0.164398,-0.0439806,1.12826,0.126827,0.0496121,1042,1779,-5.51033,-2.21572
-175,-755,-6.77002,2.32581,0,0,0,0,0,0,0,-1,1049,1779,-6.76997,-2.32575
-168,-755,0.22168,2.14526,0,0,0,0,0,0,0,-1,1056,1779,0.221636,-2.14532
-161,-755,0.496216,2.07825,0,0,0,0,0,0,0,-1,1063,1779,0.496274,-2.0783
-154,-755,3.11621,1.12073,0,0,0,0,0,0,0,-1,1070,1779,3.11623,-1.12074
-147,-755,2.70947,1.50647,-0.0270658,0.0378177,0.000602704,0.0378233,-0.0270714,1.56151,0.037638,0.0479596,1077,1779,2.7095,-1.50646
-140,-755,2.38464,2.03674,-0.0332597,0.00572555,-0.0172952,0.0122922,-0.0398263,-1.20793,0.0314592,0.048346,1084,1779,2.3846,-2.03674
-133,-755,2.11072,2.224,-0.026625,0.00663257,-0.0158512,0.0129772,-0.0329696,-1.19007,0.0273516,0.0492466,1091,1779,2.11076,-2.22405
-126,-755,1.99097,2.18213,-0.025935,0.00589477,-0.0154298,0.0121466,-0.0321868,-1.18583,0.0264532,0.0444443,1098,1779,1.99099,-2.18207
-119,-755,1.96204,2.04846,-0.0277436,0.00342344,-0.013778,0.00864089,-0.032961,-1.2088,0.02535,0.0404308,1105,1779,1.96209,-2.04846
-112,-755,1.81799,1.9989,-0.0293039,-4.32698e-05,-0.0119635,0.00422539,-0.0335725,-1.22807,0.0239149,0.0443522,1112,1779,1.81795,-1.99886
-105,-755,1.61963,2.04651,0,0,0,0,0,0,0,-1,1119,1779,1.61966,-2.04655
-98,-755,1.39978,2.15466,-0.0302688,-0.00809081,-0.00809941,-0.00544787,-0.0329118,-1.25538,0.0203695,0.0424349,1126,1779,1.3998,-2.15461
-91,-755,1.20093,1.6377,-0.0296705,-0.0114519,-0.00569888,-0.00981616,-0.0313062,-1.29128,0.0184888,0.0451521,1133,1779,1.20099,-1.63766
-84,-755,0.796509,1.19666,-0.0290151,-0.0149586,-0.00269722,-0.0144588,-0.0295149,-1.38758,0.0170416,0.0472444,1140,1779,0.796493,-1.19666
-77,-755,0.587402,0.919189,-0.02758,-0.017384,5.01054e-05,-0.0173837,-0.0275803,1.56588,0.0161027,0.0455148,1147,1779,0.587382,-0.919189
-70,-755,1.50623,3.09241,0,0,0,0,0,0,0,-1,1154,1779,1.50617,-3.0924
-63,-755,1.31543,3.21045,-0.0178158,-0.0180503,0.0051611,-0.0127706,-0.0230955,0.77404,0.0133591,0.0469643,1161,1779,1.31543,-3.2105
-56,-755,1.03906,3.29126,-0.0120447,-0.0172349,0.00757797,-0.00662977,-0.0226498,0.620428,0.0134463,0.0457906,1168,1779,1.03911,-3.29129
-49,-755,0.695923,3.2926,0,0,0,0,0,0,0,-1,1175,1779,0.695981,-3.29265
-42,-755,1.40784,3.32739,0.00221997,-0.0140423,0.00913928,0.00632165,-0.018144,0.421853,0.0146647,0.0442172,1182,1779,1.40785,-3.32734
-35,-755,1.41357,3.46912,0.00895214,-0.0114578,0.00939159,0.012616,-0.0151216,0.371958,0.0160361,0.0459975,1189,1779,1.41351,-3.46914
-28,-755,1.38074,3.479,0.0140224,-0.0054896,0.00994788,0.0181998,-0.00966701,0.397568,0.0163384,0.0409251,1196,1779,1.38069,-3.479
-21,-755,1.48669,3.43005,0.0179219,0.000259621,0.0121121,0.0240805,-0.00589897,0.470398,0.018339,0.0385064,1203,1779,1.48671,-3.43008
-14,-755,2.12317,3.28101,0.0215128,0.00292583,0.0120226,0.0274151,-0.00297645,0.456367,0.0193454,0.0293456,1210,1779,2.12312,-3.28103
-7,-755,2.08179,3.22363,0.0229683,0.00505672,0.0113787,0.0284929,-0.000467829,0.451995,0.0191531,0.022795,1217,1779,2.08174,-3.22367
0,-755,2.06714,3.25244,0.022777,0.00691311,0.0110639,0.0284585,0.00123163,0.474402,0.0185754,0.0141266,1224,1779,2.06714,-3.25246
7,-755,2.08301,3.28992,0.0205846,0.00807345,0.0107514,0.0267679,0.00189013,0.521921,0.0172498,0.0126051,1231,1779,2.08303,-3.28994
14,-755,2.08325,3.29285,0.0185197,0.00797666,0.0102018,0.0247315,0.00176487,0.54693,0.015932,0.0107807,1238,1779,2.08319,-3.2929
21,-755,2.06091,3.29138,0.0160504,0.0077288,0.00935791,0.0221308,0.00164837,0.576209,0.0142363,0.0150873,1245,1779,2.06089,-3.29138
28,-755,2.04602,3.32104,0.0136467,0.00693786,0.00876267,0.0196751,0.00090952,0.602598,0.0128243,0.018185,1252,1779,2.04602,-3.32109
35,-755,2.06824,3.37402,0.0112573,0.00518769,0.00733234,0.0161581,0.000286928,0.589185,0.0106777,0.018561,1259,1779,2.06822,-3.37397
42,-755,2.06628,3.32703,0.00913643,0.0033015,0.00574029,0.0126581,-0.000220178,0.550288,0.00851308,0.0147621,1266,1779,2.06629,-3.32698
49,-755,2.07056,3.28333,0.00729428,0.00147781,0.00385836,0.00921769,-0.0004456,0.46245,0.00629892,0.00984689,1273,1779,2.07058,-3.28331
56,-755,2.05286,3.30359,0.00593533,0.000178252,0.00233584,0.00676383,-0.00065025,0.340848,0.00474086,0.00853505,1280,1779,2.05287,-3.30364
63,-755,2.04089,3.31567,0.00545687,-0.000152077,0.000618967,0.00552436,-0.00021957,0.108612,0.00375824,0.00893799,1287,1779,2.04086,-3.31567
70,-755,2.04749,3.30237,0.00526933,0.000291507,-0.0018638,0.00588982,-0.000328989,-0.321379,0.00404068,0.0112725,1294,1779,2.04753,-3.30236
77,-755,2.05664,3.2926,0.00646064,0.000690624,-0.00456897,0.00897922,-0.00182795,-0.503791,0.00667937,0.0101992,1301,1779,2.05664,-3.29255
84,-755,2.06775,3.29272,0.008337,0.00355128,-0.00751693,0.0138327,-0.00194447,-0.631305,0.00993363,0.0103373,1308,1779,2.06772,-3.29276
91,-755,2.05383,3.28833,0.0101702,0.00760215,-0.00899612,0.0179735,-0.000201098,-0.714511,0.0120499,0.0107504,1315,1779,2.0538,-3.28834
98,-755,2.04614,3.26843,0.012588,0.0118474,-0.0103964,0.0226206,0.00181469,-0.767596,0.0145134,0.0123283,1322,1779,2.04617,-3.26847
105,-755,2.05664,3.27637,0.0160669,0.0156901,-0.0123252,0.0282051,0.00355183,-0.777757,0.0177384,0.01621,1329,1779,2.05668,-3.2764
112,-755,2.02808,3.29236,0.0200548,0.0191171,-0.0143355,0.0339291,0.00524281,-0.76905,0.0210901,0.0209157,1336,1779,2.02807,-3.2923
119,-755,2.02466,3.28906,0.0240245,0.0231355,-0.0163031,0.0398892,0.00727077,-0.771769,0.024531,0.019436,1343,1779,2.02467,-3.28907
126,-755,2.01221,3.30872,0.0271661,0.0252242,-0.0174307,0.0436528,0.00873746,-0.757575,0.0266708,0.0210346,1350,1779,2.01225,-3.3087
133,-755,1.99084,3.29785,0.0293251,0.0256454,-0.0186933,0.0462689,0.00870164,-0.736344,0.0283934,0.0216151,1357,1779,1.99089,-3.29782
140,-755,1.98389,3.32788,0.0309394,0.0256238,-0.0181116,0.0465872,0.00997601,-0.712544,0.0283246,0.0262572,1364,1779,1.98386,-3.3279
147,-755,2.06116,3.33472,0.0323304,0.0241324,-0.0174927,0.046198,0.0102648,-0.67031,0.0280111,0.0274545,1371,1779,2.06121,-3.3347
154,-755,2.11438,3.27869,0.0325041,0.0207936,-0.017033,0.0446602,0.00863757,-0.619846,0.0273527,0.0305,1378,1779,2.1144,-3.27869
161,-755,2.87244,3.28845,0.0304095,0.0169849,-0.0165931,0.0415965,0.00579788,-0.593198,0.0260146,0.0414433,1385,1779,2.87245,-3.28847
168,-755,3.35706,3.26306,0.0270372,0.0127248,-0.0159357,0.0373498,0.00241221,-0.57436,0.024136,0.0464598,1392,1779,3.35701,-3.26301
175,-755,3.4469,3.52905,0,0,0,0,0,0,0,-1,1399,1779,3.44692,-3.52906
182,-755,4.14307,3.3407,0,0,0,0,0,0,0,-1,1406,1779,4.1431,-3.34069
189,-755,4.23535,1.9585,0,0,0,0,0,0,0,-1,1413,1779,4.23531,-1.95845
196,-755,4.05237,3.43665,0,0,0,0,0,0,0,-1,1420,1779,4.05236,-3.43659
203,-755,3.53174,3.2749,0.00484271,-0.00168686,-0.0211205,0.0229493,-0.0197934,-0.708716,0.0246999,0.0410655,1427,1779,3.53168,-3.27492
210,-755,3.65491,3.30908,-0.00127891,-0.00188504,-0.0218451,0.0202652,-0.0234292,-0.778462,0.025249,0.0449736,1434,1779,3.65495,-3.3091
217,-755,3.33557,3.10767,-0.00719427,-0.00193599,-0.0222913,0.0178807,-0.0270109,-0.844099,0.0260963,0.0482334,1441,1779,3.33557,-3.10767
224,-755,3.06982,3.03784,-0.0114042,4.61136e-05,-0.0221542,0.017203,-0.0285611,-0.911843,0.0266918,0.0434646,1448,1779,3.06986,-3.0379
231,-755,2.71448,2.83936,-0.0155359,0.00116113,-0.0198394,0.014337,-0.0287117,-0.984554,0.0253118,0.0404809,1455,1779,2.71452,-2.83935
238,-755,2.41077,2.5282,0,0,0,0,0,0,0,-1,1462,1779,2.41072,-2.52817
245,-755,2.4447,2.21289,0,0,0,0,0,0,0,-1,1469,1779,2.44473,-2.21291
252,-755,2.28821,2.20496,0,0,0,0,0,0,0,-1,1476,1779,2.28824,-2.20494
259,-755,2.7262,1.60767,0,0,0,0,0,0,0,-1,1483,1779,2.72622,-1.60764
266,-755,1.56348,1.52222,0,0,0,0,0,0,0,-1,1490,1779,1.56343,-1.52228
273,-755,0.988525,1.95325,0,0,0,0,0,0,0,-1,1497,1779,0.988468,-1.95329
280,-755,0.564819,2.20972,-0.0332843,0.00208056,0.0269133,0.0166005,-0.0478042,1.07604,0.0386114,0.0432422,1504,1779,0.564858,-2.20969
287,-755,0.119873,2.5603,-0.0334716,-0.00110697,0.0337446,0.0201348,-0.0547134,1.00898,0.0447244,0.0430715,1511,1779,0.119908,-2.56028
294,-755,2.74255,2.9928,0,0,0,0,0,0,0,-1,1518,1779,2.74252,-2.99276
301,-755,2.61145,3.25537,-0.030858,-0.00966731,0.0383748,0.019548,-0.0600733,0.920093,0.047913,0.0466659,1525,1779,2.61142,-3.25536
308,-755,2.41577,3.53638,-0.0296608,-0.01409,0.0398254,0.0187039,-0.0624547,0.881925,0.0490739,0.0455409,1532,1779,2.41581,-3.53634
315,-755,2.15784,3.90051,-0.0284348,-0.0175173,0.0409294,0.0183158,-0.0642678,0.851692,0.0500797,0.0497838,1539,1779,2.15787,-3.90056
322,-755,0,0,0,0,0,0,0,0,0,-1,1546,1779,0,0
329,-755,0,0,0,0,0,0,0,0,0,-1,1553,1779,0,0
336,-755,0,0,0,0,0,0,0,0,0,-1,1560,1779,0,0
343,-755,0,0,0,0,0,0,0,0,0,-1,1567,1779,0,0
350,-755,0,0,0,0,0,0,0,0,0,-1,1574,1779,0,0
357,-755,0,0,0,0,0,0,0,0,0,-1,1581,1779,0,0
364,-755,0,0,0,0,0,0,0,0,0,-1,1588,1779,0,0
371,-755,0,0,0,0,0,0,0,0,0,-1,1595,1779,0,0
378,-755,0,0,0,0,0,0,0,0,0,-1,1602,1779,0,0
385,-755,0,0,0,0,0,0,0,0,0,-1,1609,1779,0,0
392,-755,0,0,0,0,0,0,0,0,0,-1,1616,1779,0,0
399,-755,0,0,0,0,0,0,0,0,0,-1,1623,1779,0,0
406,-755,0,0,0,0,0,0,0,0,0,-1,1630,1779,0,0
413,-755,0,0,0,0,0,0,0,0,0,-1,1637,1779,0,0
420,-755,0,0,0,0,0,0,0,0,0,-1,1644,1779,0,0
427,-755,0,0,0,0,0,0,0,0,0,-1,1651,1779,0,0
434,-755,0,0,0,0,0,0,0,0,0,-1,1658,1779,0,0
441,-755,0,0,0,0,0,0,0,0,0,-1,1665,1779,0,0
448,-755,0,0,0,0,0,0,0,0,0,-1,1672,1779,0,0
455,-755,0,0,0,0,0,0,0,0,0,-1,1679,1779,0,0
462,-755,0,0,0,0,0,0,0,0,0,-1,1686,1779,0,0
469,-755,0,0,0,0,0,0,0,0,0,-1,1693,1779,0,0
476,-755,0,0,0,0,0,0,0,0,0,-1,1700,1779,0,0
483,-755,0,0,0,0,0,0,0,0,0,-1,1707,1779,0,0
490,-755,0,0,0,0,0,0,0,0,0,-1,1714,1779,0,0
497,-755,0,0,0,0,0,0,0,0,0,-1,1721,1779,0,0
504,-755,0,0,0,0,0,0,0,0,0,-1,1728,1779,0,0
511,-755,0,0,0,0,0,0,0,0,0,-1,1735,1779,0,0
518,-755,0,0,0,0,0,0,0,0,0,-1,1742,1779,0,0
525,-755,0,0,0,0,0,0,0,0,0,-1,1749,1779,0,0
532,-755,0,0,0,0,0,0,0,0,0,-1,1756,1779,0,0
539,-755,0,0,0,0,0,0,0,0,0,-1,1763,1779,0,0
546,-755,0,0,0,0,0,0,0,0,0,-1,1770,1779,0,0
553,-755,0,0,0,0,0,0,0,0,0,-1,1777,1779,0,0
560,-755,0,0,0,0,0,0,0,0,0,-1,1784,1779,0,0
567,-755,0,0,0,0,0,0,0,0,0,-1,1791,1779,0,0
574,-755,0,0,0,0,0,0,0,0,0,-1,1798,1779,0,0
581,-755,0,0,0,0,0,0,0,0,0,-1,1805,1779,0,0
588,-755,0,0,0,0,0,0,0,0,0,-1,1812,1779,0,0
595,-755,0,0,0,0,0,0,0,0,0,-1,1819,1779,0,0
602,-755,0,0,0,0,0,0,0,0,0,-1,1826,1779,0,0
609,-755,0,0,0,0,0,0,0,0,0,-1,1833,1779,0,0
616,-755,0,0,0,0,0,0,0,0,0,-1,1840,1779,0,0
623,-755,0,0,0,0,0,0,0,0,0,-1,1847,1779,0,0
630,-755,0,0,0,0,0,0,0,0,0,-1,1854,1779,0,0
637,-755,0,0,0,0,0,0,0,0,0,-1,1861,1779,0,0
644,-755,0,0,0,0,0,0,0,0,0,-1,1868,1779,0,0
651,-755,0,0,0,0,0,0,0,0,0,-1,1875,1779,0,0
658,-755,0,0,0,0,0,0,0,0,0,-1,1882,1779,0,0
665,-755,0,0,0,0,0,0,0,0,0,-1,1889,1779,0,0
672,-755,0,0,0,0,0,0,0,0,0,-1,1896,1779,0,0
679,-755,0,0,0,0,0,0,0,0,0,-1,1903,1779,0,0
686,-755,0,0,0,0,0,0,0,0,0,-1,1910,1779,0,0
693,-755,0,0,0,0,0,0,0,0,0,-1,1917,1779,0,0
700,-755,0,0,0,0,0,0,0,0,0,-1,1924,1779,0,0
707,-755,0,0,0,0,0,0,0,0,0,-1,1931,1779,0,0
714,-755,0,0,0,0,0,0,0,0,0,-1,1938,1779,0,0
721,-755,0,0,0,0,0,0,0,0,0,-1,1945,1779,0,0
728,-755,0,0,0,0,0,0,0,0,0,-1,1952,1779,0,0
735,-755,0,0,0,0,0,0,0,0,0,-1,1959,1779,0,0
742,-755,0,0,0,0,0,0,0,0,0,-1,1966,1779,0,0
749,-755,0,0,0,0,0,0,0,0,0,-1,1973,1779,0,0
756,-755,0,0,0,0,0,0,0,0,0,-1,1980,1779,0,0
763,-755,0,0,0,0,0,0,0,0,0,-1,1987,1779,0,0
770,-755,0,0,0,0,0,0,0,0,0,-1,1994,1779,0,0
777,-755,0,0,0,0,0,0,0,0,0,-1,2001,1779,0,0
784,-755,0,0,0,0,0,0,0,0,0,-1,2008,1779,0,0
791,-755,0,0,0,0,0,0,0,0,0,-1,2015,1779,0,0
798,-755,0,0,0,0,0,0,0,0,0,-1,2022,1779,0,0
805,-755,0,0,0,0,0,0,0,0,0,-1,2029,1779,0,0
812,-755,0,0,0,0,0,0,0,0,0,-1,2036,1779,0,0
-700,-762,0,0,0,0,0,0,0,0,0,-1,524,1786,0,0
-693,-762,0,0,0,0,0,0,0,0,0,-1,531,1786,0,0
-686,-762,0,0,0,0,0,0,0,0,0,-1,538,1786,0,0
-679,-762,0,0,0,0,0,0,0,0,0,-1,545,1786,0,0
-672,-762,0,0,0,0,0,0,0,0,0,-1,552,1786,0,0
-665,-762,0,0,0,0,0,0,0,0,0,-1,559,1786,0,0
-658,-762,0,0,0,0,0,0,0,0,0,-1,566,1786,0,0
-651,-762,0,0,0,0,0,0,0,0,0,-1,573,1786,0,0
-644,-762,0,0,0,0,0,0,0,0,0,-1,580,1786,0,0
-637,-762,0,0,0,0,0,0,0,0,0,-1,587,1786,0,0
-630,-762,0,0,0,0,0,0,0,0,0,-1,594,1786,0,0
-623,-762,0,0,0,0,0,0,0,0,0,-1,601,1786,0,0
-616,-762,0,0,0,0,0,0,0,0,0,-1,608,1786,0,0
-609,-762,0,0,0,0,0,0,0,0,0,-1,615,1786,0,0
-602,-762,0,0,0,0,0,0,0,0,0,-1,622,1786,0,0
-595,-762,0,0,0,0,0,0,0,0,0,-1,629,1786,0,0
-588,-762,0,0,0,0,0,0,0,0,0,-1,636,1786,0,0
-581,-762,0,0,0,0,0,0,0,0,0,-1,643,1786,0,0
-574,-762,0,0,0,0,0,0,0,0,0,-1,650,1786,0,0
-567,-762,0,0,0,0,0,0,0,0,0,-1,657,1786,0,0
-560,-762,0,0,0,0,0,0,0,0,0,-1,664,1786,0,0
-553,-762,0,0,0,0,0,0,0,0,0,-1,671,1786,0,0
-546,-762,0,0,0,0,0,0,0,0,0,-1,678,1786,0,0
-539,-762,0,0,0,0,0,0,0,0,0,-1,685,1786,0,0
-532,-762,0,0,0,0,0,0,0,0,0,-1,692,1786,0,0
-525,-762,0,0,0,0,0,0,0,0,0,-1,699,1786,0,0
-518,-762,0,0,0,0,0,0,0,0,0,-1,706,1786,0,0
-511,-762,0,0,0,0,0,0,0,0,0,-1,713,1786,0,0
-504,-762,0,0,0,0,0,0,0,0,0,-1,720,1786,0,0
-497,-762,0,0,0,0,0,0,0,0,0,-1,727,1786,0,0
-490,-762,0,0,0,0,0,0,0,0,0,-1,734,1786,0,0
-483,-762,0,0,0,0,0,0,0,0,0,-1,741,1786,0,0
-476,-762,0,0,0,0,0,0,0,0,0,-1,748,1786,0,0
-469,-762,0,0,0,0,0,0,0,0,0,-1,755,1786,0,0
-462,-762,0,0,0,0,0,0,0,0,0,-1,762,1786,0,0
-455,-762,0,0,0,0,0,0,0,0,0,-1,769,1786,0,0
-448,-762,0,0,0,0,0,0,0,0,0,-1,776,1786,0,0
-441,-762,0,0,0,0,0,0,0,0,0,-1,783,1786,0,0
-434,-762,0,0,0,0,0,0,0,0,0,-1,790,1786,0,0
-427,-762,0,0,0,0,0,0,0,0,0,-1,797,1786,0,0
-420,-762,0,0,0,0,0,0,0,0,0,-1,804,1786,0,0
-413,-762,0,0,0,0,0,0,0,0,0,-1,811,1786,0,0
-406,-762,0,0,0,0,0,0,0,0,0,-1,818,1786,0,0
-399,-762,0,0,0,0,0,0,0,0,0,-1,825,1786,0,0
-392,-762,0,0,0,0,0,0,0,0,0,-1,832,1786,0,0
-385,-762,0,0,0,0,0,0,0,0,0,-1,839,1786,0,0
-378,-762,0,0,0,0,0,0,0,0,0,-1,846,1786,0,0
-371,-762,0,0,0,0,0,0,0,0,0,-1,853,1786,0,0
-364,-762,0,0,0,0,0,0,0,0,0,-1,860,1786,0,0
-357,-762,0,0,0,0,0,0,0,0,0,-1,867,1786,0,0
-350,-762,0,0,0,0,0,0,0,0,0,-1,874,1786,0,0
-343,-762,0,0,0,0,0,0,0,0,0,-1,881,1786,0,0
-336,-762,0,0,0,0,0,0,0,0,0,-1,888,1786,0,0
-329,-762,0,0,0,0,0,0,0,0,0,-1,895,1786,0,0
-322,-762,0,0,0,0,0,0,0,0,0,-1,902,1786,0,0
-315,-762,0,0,0,0,0,0,0,0,0,-1,909,1786,0,0
-308,-762,0,0,0,0,0,0,0,0,0,-1,916,1786,0,0
-301,-762,0,0,0,0,0,0,0,0,0,-1,923,1786,0,0
-294,-762,0,0,0,0,0,0,0,0,0,-1,930,1786,0,0
-287,-762,0,0,0,0,0,0,0,0,0,-1,937,1786,0,0
-280,-762,0,0,0,0,0,0,0,0,0,-1,944,1786,0,0
-273,-762,0,0,0,0,0,0,0,0,0,-1,951,1786,0,0
-266,-762,0,0,0,0,0,0,0,0,0,-1,958,1786,0,0
-259,-762,0,0,0,0,0,0,0,0,0,-1,965,1786,0,0
-252,-762,0,0,0,0,0,0,0,0,0,-1,972,1786,0,0
-245,-762,0,0,0,0,0,0,0,0,0,-1,979,1786,0,0
-238,-762,0,0,0,0,0,0,0,0,0,-1,986,1786,0,0
-231,-762,0,0,0,0,0,0,0,0,0,-1,993,1786,0,0
-224,-762,0,0,0,0,0,0,0,0,0,-1,1000,1786,0,0
-217,-762,0,0,0,0,0,0,0,0,0,-1,1007,1786,0,0
-210,-762,0,0,0,0,0,0,0,0,0,-1,1014,1786,0,0
-203,-762,0,0,0,0,0,0,0,0,0,-1,1021,1786,0,0
-196,-762,0,0,0,0,0,0,0,0,0,-1,1028,1786,0,0
-189,-762,0,0,0,0,0,0,0,0,0,-1,1035,1786,0,0
-182,-762,-5.92395,2.30762,0,0,0,0,0,0,0,-1,1042,1786,-5.92399,-2.30758
-175,-762,-7.22705,2.53931,0,0,0,0,0,0,0,-1,1049,1786,-7.227,-2.53934
-168,-762,-0.665405,1.99158,0,0,0,0,0,0,0,-1,1056,1786,-0.665378,-1.99159
-161,-762,-0.220215,2.34607,0,0,0,0,0,0,0,-1,1063,1786,-0.220156,-2.34604
-154,-762,3.64075,1.28149,0,0,0,0,0,0,0,-1,1070,1786,3.64074,-1.28145
-147,-762,3.04871,1.60559,0,0,0,0,0,0,0,-1,1077,1786,3.04873,-1.60561
-140,-762,2.55737,2.02051,0,0,0,0,0,0,0,-1,1084,1786,2.55733,-2.02047
-133,-762,2.26465,2.00317,0,0,0,0,0,0,0,-1,1091,1786,2.2647,-2.00317
-126,-762,2.2124,1.95422,0,0,0,0,0,0,0,-1,1098,1786,2.21235,-1.95425
-119,-762,2.23022,1.84924,0,0,0,0,0,0,0,-1,1105,1786,2.23018,-1.84922
-112,-762,2.27417,2.12537,0,0,0,0,0,0,0,-1,1112,1786,2.27423,-2.12541
-105,-762,2.16028,2.22668,0,0,0,0,0,0,0,-1,1119,1786,2.16027,-2.2267
-98,-762,1.80676,2.45654,-0.0385912,-0.0112359,-0.00972853,-0.008129,-0.0416982,-1.26167,0.0255243,0.0430823,1126,1786,1.80681,-2.45659
-91,-762,1.44812,1.927,-0.0377281,-0.0149412,-0.00660281,-0.0131663,-0.0395031,-1.30818,0.0232258,0.0473547,1133,1786,1.44809,-1.92702
-84,-762,1.44824,1.66968,-0.0367521,-0.018778,-0.00287835,-0.0183283,-0.0372018,-1.41582,0.0214792,0.0473717,1140,1786,1.44822,-1.66965
-77,-762,1.93042,3.25464,-0.0347903,-0.0213673,0.000570122,-0.0213432,-0.0348144,1.52842,0.0202707,0.041723,1147,1786,1.93037,-3.25459
-70,-762,1.49475,3.15381,-0.0293148,-0.0224964,0.00388091,-0.02074,-0.0310713,1.14579,0.0182714,0.0418143,1154,1786,1.49477,-3.15378
-63,-762,1.28735,3.25403,-0.0222198,-0.021443,0.00645028,-0.0153695,-0.0282934,0.815469,0.0163555,0.0433597,1161,1786,1.28739,-3.25406
-56,-762,0.931396,3.31775,-0.0146981,-0.0202083,0.00933516,-0.00772,-0.0271865,0.641905,0.0161771,0.0423848,1168,1786,0.931451,-3.31779
-49,-762,0.656006,3.12939,0,0,0,0,0,0,0,-1,1175,1786,0.655975,-3.12938
-42,-762,0.939941,3.35767,0,0,0,0,0,0,0,-1,1182,1786,0.939898,-3.35766
-35,-762,0.907593,3.74573,0,0,0,0,0,0,0,-1,1189,1786,0.907638,-3.74571
-28,-762,0.580322,3.81079,0,0,0,0,0,0,0,-1,1196,1786,0.580326,-3.81074
-21,-762,1.16052,3.36951,0.0244223,0.0013471,0.0143084,0.0312653,-0.00549587,0.446096,0.0228964,0.0409783,1203,1786,1.16056,-3.36956
-14,-762,2.14893,3.25098,0.0293729,0.00522072,0.0144325,0.0361152,-0.00152153,0.437029,0.0245997,0.0465812,1210,1786,2.14894,-3.25102
-7,-762,2.10718,3.11646,0.031341,0.00823459,0.0138929,0.0378568,0.00171878,0.438544,0.0246849,0.0467227,1217,1786,2.10716,-3.11651
0,-762,2.04199,3.23364,0.0311467,0.0109278,0.0138167,0.0381574,0.00391705,0.469562,0.0242383,0.0370526,1224,1786,2.04203,-3.2336
7,-762,2.08093,3.32153,0.0283615,0.0126476,0.013718,0.0363133,0.00469581,0.525329,0.0228053,0.0226355,1231,1786,2.08089,-3.32155
14,-762,2.08142,3.3822,0.0257466,0.012731,0.0132114,0.0339661,0.00451155,0.556548,0.0213001,0.035391,1238,1786,2.08145,-3.38225
21,-762,2.02856,3.41064,0.0224985,0.0124682,0.0122828,0.0307505,0.00421613,0.591574,0.0192495,0.0400189,1245,1786,2.0286,-3.41062
28,-762,2.05688,3.47876,0.0193482,0.0115498,0.0118079,0.027884,0.00301397,0.625927,0.0176706,0.0386318,1252,1786,2.05683,-3.47872
35,-762,2.05176,3.52222,0.0164141,0.00922372,0.0100252,0.0234693,0.00216858,0.613233,0.0149757,0.0423714,1259,1786,2.05173,-3.52227
42,-762,2.05603,3.36707,0.0136614,0.00677399,0.00801079,0.0189373,0.00149808,0.582398,0.0121563,0.0431289,1266,1786,2.05604,-3.36705
49,-762,2.07092,3.31494,0.0109833,0.00425716,0.00558519,0.0141397,0.00110067,0.514404,0.00908187,0.0329707,1273,1786,2.07091,-3.315
56,-762,2.12964,3.30127,0.00906007,0.00243017,0.00367871,0.0106971,0.000793164,0.418682,0.00688224,0.020734,1280,1786,2.12962,-3.30125
63,-762,2.11316,3.32056,0.00842636,0.00190983,0.00144205,0.00873121,0.00160498,0.208334,0.00536642,0.0191735,1287,1786,2.1131,-3.32053
70,-762,2.04675,3.33838,0.0082413,0.0024168,-0.00184007,0.00877391,0.00188418,-0.281751,0.00533333,0.0187986,1294,1786,2.04674,-3.33834
77,-762,2.10876,3.3595,0.00991994,0.00288829,-0.00554037,0.0129659,-0.000157648,-0.502668,0.00869694,0.0258439,1301,1786,2.10875,-3.35952
84,-762,2.17297,3.30188,0.012499,0.00668856,-0.00965963,0.0196808,-0.00049329,-0.639322,0.013288,0.0309393,1308,1786,2.17303,-3.30185
91,-762,2.22632,3.25671,0.0149757,0.0119593,-0.0118702,0.0254331,0.0015019,-0.722207,0.0164776,0.0379106,1315,1786,2.22634,-3.25665
98,-762,2.14307,3.26721,0.0181976,0.0175257,-0.0139585,0.0318242,0.00389907,-0.773366,0.0200433,0.0407373,1322,1786,2.14307,-3.26727
105,-762,2.09241,3.30542,0.0227172,0.0223959,-0.0166912,0.0392485,0.00586451,-0.780586,0.0244464,0.0406187,1329,1786,2.09244,-3.3054
112,-762,1.99707,3.24048,0.0278243,0.0268143,-0.0194718,0.0467976,0.00784096,-0.772434,0.028941,0.0429803,1336,1786,1.99704,-3.24048
119,-762,2.09265,3.18176,0.0329435,0.0320214,-0.0221251,0.0546123,0.0103526,-0.77498,0.033495,0.0431534,1343,1786,2.09263,-3.18172
126,-762,1.97437,3.30688,0.0367572,0.0345595,-0.0234875,0.0591716,0.0121452,-0.762023,0.0360871,0.0441401,1350,1786,1.9743,-3.30685
133,-762,1.97034,3.13391,0.0390355,0.0346909,-0.0249886,0.061946,0.0117803,-0.742041,0.0379844,0.0447835,1357,1786,1.97033,-3.13389
140,-762,1.75159,2.82861,0.0406817,0.0345011,-0.0238822,0.0616727,0.0135101,-0.721057,0.0374334,0.0423783,1364,1786,1.7516,-2.82857
147,-762,2.06299,2.76245,0.0423609,0.0324597,-0.022581,0.0605276,0.014293,-0.677487,0.0365316,0.0417421,1371,1786,2.06294,-2.76239
154,-762,2.53003,2.78577,0.0424835,0.0280845,-0.0213369,0.0578028,0.0127652,-0.622686,0.0350634,0.0445339,1378,1786,2.53007,-2.78579
161,-762,3.69604,3.28442,0,0,0,0,0,0,0,-1,1385,1786,3.6961,-3.28448
168,-762,4.39014,3.13,0,0,0,0,0,0,0,-1,1392,1786,4.39018,-3.13006
175,-762,4.87329,2.47681,0,0,0,0,0,0,0,-1,1399,1786,4.87324,-2.47686
182,-762,4.42529,1.61829,0,0,0,0,0,0,0,-1,1406,1786,4.42531,-1.61831
189,-762,4.41516,2.35022,0.0169746,0.001749,-0.017028,0.0280141,-0.00929046,-0.575188,0.0224239,0.0477346,1413,1786,4.41522,-2.35025
196,-762,4.45325,3.11047,0.0116221,-0.00133747,-0.0188369,0.0250626,-0.014778,-0.619741,0.023256,0.0431237,1420,1786,4.45326,-3.11045
203,-762,4.49023,3.53992,0.00650883,-0.00231575,-0.021889,0.0244258,-0.0202327,-0.685943,0.0258215,0.0408454,1427,1786,4.49026,-3.53989
210,-762,4.82593,3.43359,0,0,0,0,0,0,0,-1,1434,1786,4.82597,-3.43358
217,-762,3.6062,3.17664,0,0,0,0,0,0,0,-1,1441,1786,3.60615,-3.17665
224,-762,3.36011,3.07703,-0.0139408,-0.00179535,-0.0237488,0.0166448,-0.032381,-0.910569,0.028787,0.0453828,1448,1786,3.36006,-3.07699
231,-762,3.24353,2.6261,-0.019267,-0.00174346,-0.0214275,0.0126444,-0.0336549,-0.979477,0.0276332,0.0425115,1455,1786,3.24348,-2.62607
238,-762,3.16272,2.15381,0,0,0,0,0,0,0,-1,1462,1786,3.16268,-2.15376
245,-762,3.03394,1.7074,0,0,0,0,0,0,0,-1,1469,1786,3.03392,-1.7074
252,-762,2.34155,2.13049,0,0,0,0,0,0,0,-1,1476,1786,2.34157,-2.13044
259,-762,2.01318,1.91858,-0.0399604,0.00443287,0.005982,0.00522482,-0.0407523,1.43917,0.0290668,0.0458067,1483,1786,2.01322,-1.91859
266,-762,1.2782,1.91077,-0.041821,0.00248927,0.0168787,0.00818624,-0.047518,1.24528,0.0347305,0.0434319,1490,1786,1.27825,-1.91073
273,-762,0.630249,1.83667,0,0,0,0,0,0,0,-1,1497,1786,0.630191,-1.83664
280,-762,0.0372314,2.11475,-0.0448229,-0.00120683,0.0367173,0.0196905,-0.0657202,1.05338,0.0516438,0.0403219,1504,1786,0.0372014,-2.11476
287,-762,-0.501221,2.68323,-0.0454721,-0.00463183,0.045799,0.0250932,-0.0751971,0.995103,0.0602631,0.0415018,1511,1786,-0.50124,-2.68323
294,-762,-1.0376,2.75537,0,0,0,0,0,0,0,-1,1518,1786,-1.03754,-2.75535
301,-762,2.59338,3.5199,0,0,0,0,0,0,0,-1,1525,1786,2.59343,-3.51994
308,-762,0,0,0,0,0,0,0,0,0,-1,1532,1786,0,0
315,-762,0,0,0,0,0,0,0,0,0,-1,1539,1786,0,0
322,-762,0,0,0,0,0,0,0,0,0,-1,1546,1786,0,0
329,-762,0,0,0,0,0,0,0,0,0,-1,1553,1786,0,0
336,-762,0,0,0,0,0,0,0,0,0,-1,1560,1786,0,0
343,-762,0,0,0,0,0,0,0,0,0,-1,1567,1786,0,0
350,-762,0,0,0,0,0,0,0,0,0,-1,1574,1786,0,0
357,-762,0,0,0,0,0,0,0,0,0,-1,1581,1786,0,0
364,-762,0,0,0,0,0,0,0,0,0,-1,1588,1786,0,0
371,-762,0,0,0,0,0,0,0,0,0,-1,1595,1786,0,0
378,-762,0,0,0,0,0,0,0,0,0,-1,1602,1786,0,0
385,-762,0,0,0,0,0,0,0,0,0,-1,1609,1786,0,0
392,-762,0,0,0,0,0,0,0,0,0,-1,1616,1786,0,0
399,-762,0,0,0,0,0,0,0,0,0,-1,1623,1786,0,0
406,-762,0,0,0,0,0,0,0,0,0,-1,1630,1786,0,0
413,-762,0,0,0,0,0,0,0,0,0,-1,1637,1786,0,0
420,-762,0,0,0,0,0,0,0,0,0,-1,1644,1786,0,0
427,-762,0,0,0,0,0,0,0,0,0,-1,1651,1786,0,0
434,-762,0,0,0,0,0,0,0,0,0,-1,1658,1786,0,0
441,-762,0,0,0,0,0,0,0,0,0,-1,1665,1786,0,0
448,-762,0,0,0,0,0,0,0,0,0,-1,1672,1786,0,0
455,-762,0,0,0,0,0,0,0,0,0,-1,1679,1786,0,0
462,-762,0,0,0,0,0,0,0,0,0,-1,1686,1786,0,0
469,-762,0,0,0,0,0,0,0,0,0,-1,1693,1786,0,0
476,-762,0,0,0,0,0,0,0,0,0,-1,1700,1786,0,0
483,-762,0,0,0,0,0,0,0,0,0,-1,1707,1786,0,0
490,-762,0,0,0,0,0,0,0,0,0,-1,1714,1786,0,0
497,-762,0,0,0,0,0,0,0,0,0,-1,1721,1786,0,0
504,-762,0,0,0,0,0,0,0,0,0,-1,1728,1786,0,0
511,-762,0,0,0,0,0,0,0,0,0,-1,1735,1786,0,0
518,-762,0,0,0,0,0,0,0,0,0,-1,1742,1786,0,0
525,-762,0,0,0,0,0,0,0,0,0,-1,1749,1786,0,0
532,-762,0,0,0,0,0,0,0,0,0,-1,1756,1786,0,0
539,-762,0,0,0,0,0,0,0,0,0,-1,1763,1786,0,0
546,-762,0,0,0,0,0,0,0,0,0,-1,1770,1786,0,0
553,-762,0,0,0,0,0,0,0,0,0,-1,1777,1786,0,0
560,-762,0,0,0,0,0,0,0,0,0,-1,1784,1786,0,0
567,-762,0,0,0,0,0,0,0,0,0,-1,1791,1786,0,0
574,-762,0,0,0,0,0,0,0,0,0,-1,1798,1786,0,0
581,-762,0,0,0,0,0,0,0,0,0,-1,1805,1786,0,0
588,-762,0,0,0,0,0,0,0,0,0,-1,1812,1786,0,0
595,-762,0,0,0,0,0,0,0,0,0,-1,1819,1786,0,0
602,-762,0,0,0,0,0,0,0,0,0,-1,1826,1786,0,0
609,-762,0,0,0,0,0,0,0,0,0,-1,1833,1786,0,0
616,-762,0,0,0,0,0,0,0,0,0,-1,1840,1786,0,0
623,-762,0,0,0,0,0,0,0,0,0,-1,1847,1786,0,0
630,-762,0,0,0,0,0,0,0,0,0,-1,1854,1786,0,0
637,-762,0,0,0,0,0,0,0,0,0,-1,1861,1786,0,0
644,-762,0,0,0,0,0,0,0,0,0,-1,1868,1786,0,0
651,-762,0,0,0,0,0,0,0,0,0,-1,1875,1786,0,0
658,-762,0,0,0,0,0,0,0,0,0,-1,1882,1786,0,0
665,-762,0,0,0,0,0,0,0,0,0,-1,1889,1786,0,0
672,-762,0,0,0,0,0,0,0,0,0,-1,1896,1786,0,0
679,-762,0,0,0,0,0,0,0,0,0,-1,1903,1786,0,0
686,-762,0,0,0,0,0,0,0,0,0,-1,1910,1786,0,0
693,-762,0,0,0,0,0,0,0,0,0,-1,1917,1786,0,0
700,-762,0,0,0,0,0,0,0,0,0,-1,1924,1786,0,0
707,-762,0,0,0,0,0,0,0,0,0,-1,1931,1786,0,0
714,-762,0,0,0,0,0,0,0,0,0,-1,1938,1786,0,0
721,-762,0,0,0,0,0,0,0,0,0,-1,1945,1786,0,0
728,-762,0,0,0,0,0,0,0,0,0,-1,1952,1786,0,0
735,-762,0,0,0,0,0,0,0,0,0,-1,1959,1786,0,0
742,-762,0,0,0,0,0,0,0,0,0,-1,1966,1786,0,0
749,-762,0,0,0,0,0,0,0,0,0,-1,1973,1786,0,0
756,-762,0,0,0,0,0,0,0,0,0,-1,1980,1786,0,0
763,-762,0,0,0,0,0,0,0,0,0,-1,1987,1786,0,0
770,-762,0,0,0,0,0,0,0,0,0,-1,1994,1786,0,0
777,-762,0,0,0,0,0,0,0,0,0,-1,2001,1786,0,0
784,-762,0,0,0,0,0,0,0,0,0,-1,2008,1786,0,0
791,-762,0,0,0,0,0,0,0,0,0,-1,2015,1786,0,0
798,-762,0,0,0,0,0,0,0,0,0,-1,2022,1786,0,0
805,-762,0,0,0,0,0,0,0,0,0,-1,2029,1786,0,0
812,-762,0,0,0,0,0,0,0,0,0,-1,2036,1786,0,0
-700,-769,0,0,0,0,0,0,0,0,0,-1,524,1793,0,0
-693,-769,0,0,0,0,0,0,0,0,0,-1,531,1793,0,0
-686,-769,0,0,0,0,0,0,0,0,0,-1,538,1793,0,0
-679,-769,0,0,0,0,0,0,0,0,0,-1,545,1793,0,0
-672,-769,0,0,0,0,0,0,0,0,0,-1,552,1793,0,0
-665,-769,0,0,0,0,0,0,0,0,0,-1,559,1793,0,0
-658,-769,0,0,0,0,0,0,0,0,0,-1,566,1793,0,0
-651,-769,0,0,0,0,0,0,0,0,0,-1,573,1793,0,0
-644,-769,0,0,0,0,0,0,0,0,0,-1,580,1793,0,0
-637,-769,0,0,0,0,0,0,0,0,0,-1,587,1793,0,0
-630,-769,0,0,0,0,0,0,0,0,0,-1,594,1793,0,0
-623,-769,0,0,0,0,0,0,0,0,0,-1,601,1793,0,0
-616,-769,0,0,0,0,0,0,0,0,0,-1,608,1793,0,0
-609,-769,0,0,0,0,0,0,0,0,0,-1,615,1793,0,0
-602,-769,0,0,0,0,0,0,0,0,0,-1,622,1793,0,0
-595,-769,0,0,0,0,0,0,0,0,0,-1,629,1793,0,0
-588,-769,0,0,0,0,0,0,0,0,0,-1,636,1793,0,0
-581,-769,0,0,0,0,0,0,0,0,0,-1,643,1793,0,0
-574,-769,0,0,0,0,0,0,0,0,0,-1,650,1793,0,0
-567,-769,0,0,0,0,0,0,0,0,0,-1,657,1793,0,0
-560,-769,0,0,0,0,0,0,0,0,0,-1,664,1793,0,0
-553,-769,0,0,0,0,0,0,0,0,0,-1,671,1793,0,0
-546,-769,0,0,0,0,0,0,0,0,0,-1,678,1793,0,0
-539,-769,0,0,0,0,0,0,0,0,0,-1,685,1793,0,0
-532,-769,0,0,0,0,0,0,0,0,0,-1,692,1793,0,0
-525,-769,0,0,0,0,0,0,0,0,0,-1,699,1793,0,0
-518,-769,0,0,0,0,0,0,0,0,0,-1,706,1793,0,0
-511,-769,0,0,0,0,0,0,0,0,0,-1,713,1793,0,0
-504,-769,0,0,0,0,0,0,0,0,0,-1,720,1793,0,0
-497,-769,0,0,0,0,0,0,0,0,0,-1,727,1793,0,0
-490,-769,0,0,0,0,0,0,0,0,0,-1,734,1793,0,0
-483,-769,0,0,0,0,0,0,0,0,0,-1,741,1793,0,0
-476,-769,0,0,0,0,0,0,0,0,0,-1,748,1793,0,0
-469,-769,0,0,0,0,0,0,0,0,0,-1,755,1793,0,0
-462,-769,0,0,0,0,0,0,0,0,0,-1,762,1793,0,0
-455,-769,0,0,0,0,0,0,0,0,0,-1,769,1793,0,0
-448,-769,0,0,0,0,0,0,0,0,0,-1,776,1793,0,0
-441,-769,0,0,0,0,0,0,0,0,0,-1,783,1793,0,0
-434,-769,0,0,0,0,0,0,0,0,0,-1,790,1793,0,0
-427,-769,0,0,0,0,0,0,0,0,0,-1,797,1793,0,0
-420,-769,0,0,0,0,0,0,0,0,0,-1,804,1793,0,0
-413,-769,0,0,0,0,0,0,0,0,0,-1,811,1793,0,0
-406,-769,0,0,0,0,0,0,0,0,0,-1,818,1793,0,0
-399,-769,0,0,0,0,0,0,0,0,0,-1,825,1793,0,0
-392,-769,0,0,0,0,0,0,0,0,0,-1,832,1793,0,0
-385,-769,0,0,0,0,0,0,0,0,0,-1,839,1793,0,0
-378,-769,0,0,0,0,0,0,0,0,0,-1,846,1793,0,0
-371,-769,0,0,0,0,0,0,0,0,0,-1,853,1793,0,0
-364,-769,0,0,0,0,0,0,0,0,0,-1,860,1793,0,0
-357,-769,0,0,0,0,0,0,0,0,0,-1,867,1793,0,0
-350,-769,0,0,0,0,0,0,0,0,0,-1,874,1793,0,0
-343,-769,0,0,0,0,0,0,0,0,0,-1,881,1793,0,0
-336,-769,0,0,0,0,0,0,0,0,0,-1,888,1793,0,0
-329,-769,0,0,0,0,0,0,0,0,0,-1,895,1793,0,0
-322,-769,0,0,0,0,0,0,0,0,0,-1,902,1793,0,0
-315,-769,0,0,0,0,0,0,0,0,0,-1,909,1793,0,0
-308,-769,0,0,0,0,0,0,0,0,0,-1,916,1793,0,0
-301,-769,0,0,0,0,0,0,0,0,0,-1,923,1793,0,0
-294,-769,0,0,0,0,0,0,0,0,0,-1,930,1793,0,0
-287,-769,0,0,0,0,0,0,0,0,0,-1,937,1793,0,0
-280,-769,0,0,0,0,0,0,0,0,0,-1,944,1793,0,0
-273,-769,0,0,0,0,0,0,0,0,0,-1,951,1793,0,0
-266,-769,0,0,0,0,0,0,0,0,0,-1,958,1793,0,0
-259,-769,0,0,0,0,0,0,0,0,0,-1,965,1793,0,0
-252,-769,0,0,0,0,0,0,0,0,0,-1,972,1793,0,0
-245,-769,0,0,0,0,0,0,0,0,0,-1,979,1793,0,0
-238,-769,0,0,0,0,0,0,0,0,0,-1,986,1793,0,0
-231,-769,0,0,0,0,0,0,0,0,0,-1,993,1793,0,0
-224,-769,0,0,0,0,0,0,0,0,0,-1,1000,1793,0,0
-217,-769,0,0,0,0,0,0,0,0,0,-1,1007,1793,0,0
-210,-769,0,0,0,0,0,0,0,0,0,-1,1014,1793,0,0
-203,-769,0,0,0,0,0,0,0,0,0,-1,1021,1793,0,0
-196,-769,0,0,0,0,0,0,0,0,0,-1,1028,1793,0,0
-189,-769,0,0,0,0,0,0,0,0,0,-1,1035,1793,0,0
-182,-769,0,0,0,0,0,0,0,0,0,-1,1042,1793,0,0
-175,-769,0,0,0,0,0,0,0,0,0,-1,1049,1793,0,0
-168,-769,0,0,0,0,0,0,0,0,0,-1,1056,1793,0,0
-161,-769,4.80737,1.33289,0,0,0,0,0,0,0,-1,1063,1793,4.80732,-1.33293
-154,-769,4.3053,1.77356,0,0,0,0,0,0,0,-1,1070,1793,4.30535,-1.77356
-147,-769,3.68042,1.9834,0,0,0,0,0,0,0,-1,1077,1793,3.68048,-1.98338
-140,-769,3.11731,2.23132,-0.0470906,-0.0020035,-0.0261689,0.00999312,-0.0590872,-1.14095,0.0431103,0.0470849,1084,1793,3.11732,-2.23136
-133,-769,3.66296,2.20813,-0.0391936,6.93206e-05,-0.024978,0.0122072,-0.0513316,-1.11846,0.0389333,0.0489187,1091,1793,3.66291,-2.20818
-126,-769,3.39282,2.34448,-0.0401178,0.00114723,-0.0236429,0.0118945,-0.0508651,-1.14415,0.0384924,0.0476169,1098,1793,3.39286,-2.34453
-119,-769,3.10742,2.38892,-0.0436284,-0.00166323,-0.0209293,0.00699041,-0.052282,-1.17873,0.0374032,0.0450621,1105,1793,3.10742,-2.38897
-112,-769,2.68262,2.30115,-0.0464047,-0.00563034,-0.0181106,0.0012521,-0.0532871,-1.20763,0.0359494,0.040054,1112,1793,2.68263,-2.30109
-105,-769,2.26038,2.17273,-0.0478018,-0.0101113,-0.0148803,-0.00494473,-0.0529683,-1.23661,0.0337848,0.0382008,1119,1793,2.26039,-2.17277
-98,-769,1.97656,2.54565,0,0,0,0,0,0,0,-1,1126,1793,1.97655,-2.54563
-91,-769,1.00342,1.78821,-0.0467815,-0.0185473,-0.00717517,-0.0168285,-0.0485003,-1.33568,0.0284354,0.0459434,1133,1793,1.00342,-1.78816
-84,-769,0.625488,1.70569,-0.0452894,-0.0225343,-0.00265061,-0.0222296,-0.0455941,-1.45635,0.0263265,0.0471368,1140,1793,0.62548,-1.70568
-77,-769,1.73291,3.48499,0,0,0,0,0,0,0,-1,1147,1793,1.73285,-3.48501
-70,-769,1.38403,3.30627,-0.0356398,-0.0261197,0.00542816,-0.0236601,-0.0380994,1.14536,0.0222104,0.0453276,1154,1793,1.38405,-3.30624
-63,-769,1.03748,3.53394,-0.0267557,-0.024293,0.00806308,-0.0173678,-0.0336809,0.861171,0.0194489,0.0434222,1161,1793,1.03745,-3.53395
-56,-769,0.719604,3.48621,-0.0171505,-0.022487,0.0114205,-0.00809066,-0.0315468,0.670638,0.01892,0.0444039,1168,1793,0.719612,-3.48617
-49,-769,0.375366,3.42822,0,0,0,0,0,0,0,-1,1175,1793,0.375413,-3.42828
-42,-769,0.681763,3.34949,0.00665291,-0.0199165,0.0116575,0.0110425,-0.0243061,0.360125,0.0208819,0.0415652,1182,1793,0.681766,-3.34952
-35,-769,0.471436,3.01514,0.0175199,-0.0162681,0.0113866,0.020999,-0.0197472,0.296532,0.0235285,0.044911,1189,1793,0.471401,-3.01513
-28,-769,0.318848,2.65234,0,0,0,0,0,0,0,-1,1196,1793,0.318906,-2.6524
-21,-769,0.954468,3.41162,0.0322906,0.00276503,0.0161932,0.0394404,-0.00438474,0.415787,0.0278704,0.0457027,1203,1793,0.954446,-3.41162
-14,-769,1.89185,2.99341,0.0389477,0.00811137,0.0165523,0.0461503,0.000908798,0.410428,0.0304685,0.0495293,1210,1793,1.89181,-2.9934
-7,-769,1.89795,3.12903,0,0,0,0,0,0,0,-1,1217,1793,1.89799,-3.12903
0,-769,1.97156,3.26526,0.0414083,0.0160486,0.0165083,0.0495444,0.00791256,0.457908,0.0307335,0.0492925,1224,1793,1.9716,-3.2653
7,-769,2.047,3.3855,0.0379974,0.018505,0.0167523,0.0476323,0.0088701,0.52194,0.02925,0.0479608,1231,1793,2.04704,-3.38554
14,-769,2.14368,3.49878,0,0,0,0,0,0,0,-1,1238,1793,2.14364,-3.49882
21,-769,1.9873,3.53149,0,0,0,0,0,0,0,-1,1245,1793,1.98726,-3.53146
28,-769,2.05933,3.64026,0,0,0,0,0,0,0,-1,1252,1793,2.05936,-3.64029
35,-769,2.33582,4.0509,0.0232218,0.0147141,0.0131331,0.0327728,0.00516312,0.628778,0.0203471,0.0444257,1259,1793,2.33578,-4.05095
42,-769,2.19238,3.82239,0.0198123,0.0116687,0.0107192,0.0272069,0.00427404,0.603886,0.0168945,0.0457351,1266,1793,2.19233,-3.82243
49,-769,2.11255,3.69507,0.0161195,0.00835561,0.00775855,0.020913,0.00356203,0.553438,0.0129194,0.0449741,1273,1793,2.11252,-3.69504
56,-769,2.09534,3.46082,0.0135389,0.00590858,0.00550428,0.016421,0.00302654,0.482349,0.0100909,0.0427564,1280,1793,2.09538,-3.46078
63,-769,2.2428,3.35583,0.0127603,0.00516378,0.00273457,0.0136423,0.0042818,0.311997,0.00805624,0.0426622,1287,1793,2.24276,-3.35587
70,-769,2.26086,4.10889,0,0,0,0,0,0,0,-1,1294,1793,2.26089,-4.10883
77,-769,2.17981,3.453,0.0148872,0.00629424,-0.00625689,0.0181807,0.0030007,-0.484533,0.0112544,0.0479631,1301,1793,2.17977,-3.45305
84,-769,2.37708,3.5437,0.0182431,0.0111624,-0.0117716,0.0269952,0.00241026,-0.639324,0.0172496,0.0452192,1308,1793,2.37711,-3.54373
91,-769,2.43494,3.37549,0.0214145,0.0177767,-0.0149182,0.0346243,0.0045669,-0.724735,0.0217212,0.0446814,1315,1793,2.43488,-3.37546
98,-769,2.23132,3.27527,0,0,0,0,0,0,0,-1,1322,1793,2.23135,-3.27522
105,-769,2.12085,3.30859,0,0,0,0,0,0,0,-1,1329,1793,2.12082,-3.30859
112,-769,1.99158,3.16992,0,0,0,0,0,0,0,-1,1336,1793,1.99156,-3.16998
119,-769,2.35876,2.85803,0,0,0,0,0,0,0,-1,1343,1793,2.35879,-2.85809
126,-769,1.94995,3.30908,0,0,0,0,0,0,0,-1,1350,1793,1.9499,-3.30913
133,-769,2.00464,3.01892,0,0,0,0,0,0,0,-1,1357,1793,2.00469,-3.01891
140,-769,1.57214,2.45862,0.0518219,0.0449704,-0.0306305,0.0792176,0.0175747,-0.729709,0.0480374,0.0488269,1364,1793,1.5721,-2.45859
147,-769,2.03528,2.34204,0.053803,0.0422668,-0.0284875,0.0771004,0.0189693,-0.68551,0.0463885,0.0493931,1371,1793,2.03527,-2.34202
154,-769,3.01538,2.42517,0.0538852,0.0367428,-0.0262387,0.0729172,0.0177108,-0.627531,0.0439149,0.0466592,1378,1793,3.01536,-2.42517
161,-769,3.75415,2.37976,0.0493,0.0298689,-0.0233909,0.0649128,0.0142561,-0.588561,0.0393927,0.0472769,1385,1793,3.75412,-2.37974
168,-769,4.41467,2.2533,0,0,0,0,0,0,0,-1,1392,1793,4.41471,-2.25325
175,-769,4.83765,2.42126,0.0361382,0.0151368,-0.0182122,0.0466601,0.00461485,-0.52389,0.0296882,0.0456858,1399,1793,4.83767,-2.42127
182,-769,4.76477,2.28894,0.0285869,0.00879594,-0.0171118,0.0384584,-0.0010756,-0.523249,0.0260049,0.0449188,1406,1793,4.7648,-2.28898
189,-769,4.55518,2.58704,0.0209249,0.00261512,-0.0159594,0.0301688,-0.00662878,-0.524994,0.0226479,0.0453617,1413,1793,4.55518,-2.58699
196,-769,4.62805,3.4646,0.0143133,-0.00150897,-0.0174558,0.025567,-0.0127627,-0.572639,0.0225375,0.0444626,1420,1793,4.62811,-3.46454
203,-769,4.96021,4.13904,0.00831744,-0.00279601,-0.0210273,0.0245098,-0.0189884,-0.65622,0.025181,0.0431699,1427,1793,4.96019,-4.139
210,-769,5.23206,4.49341,0,0,0,0,0,0,0,-1,1434,1793,5.23207,-4.4934
217,-769,3.85962,4.04089,0,0,0,0,0,0,0,-1,1441,1793,3.85961,-4.04088
224,-769,3.8573,3.25598,-0.01654,-0.004309,-0.023377,0.0137391,-0.0345881,-0.913333,0.0287542,0.0467619,1448,1793,3.85727,-3.25598
231,-769,3.82312,2.64636,-0.0231558,-0.00633105,-0.0211451,0.00801366,-0.0375005,-0.974719,0.0280557,0.0465763,1455,1793,3.82318,-2.64632
238,-769,3.80676,2.27441,0,0,0,0,0,0,0,-1,1462,1793,3.80678,-2.27441
245,-769,1.78918,2.46082,0,0,0,0,0,0,0,-1,1469,1793,1.78922,-2.46086
252,-769,1.74487,1.91785,0,0,0,0,0,0,0,-1,1476,1793,1.74482,-1.91779
259,-769,1.37683,2.13367,-0.0516036,-0.00143653,0.00982284,0.000418236,-0.0534584,1.38417,0.0357791,0.0457042,1483,1793,1.37689,-2.13372
266,-769,0.967651,2.26147,-0.0544428,-0.00378019,0.0234707,0.0054218,-0.0636448,1.19715,0.0443477,0.0468404,1490,1793,0.96759,-2.26149
273,-769,0.11084,2.05115,0,0,0,0,0,0,0,-1,1497,1793,0.110784,-2.05118
280,-769,-0.46875,2.3407,0,0,0,0,0,0,0,-1,1504,1793,-0.468794,-2.34075
287,-769,0,0,0,0,0,0,0,0,0,-1,1511,1793,0,0
294,-769,0,0,0,0,0,0,0,0,0,-1,1518,1793,0,0
301,-769,0,0,0,0,0,0,0,0,0,-1,1525,1793,0,0
308,-769,0,0,0,0,0,0,0,0,0,-1,1532,1793,0,0
315,-769,0,0,0,0,0,0,0,0,0,-1,1539,1793,0,0
322,-769,0,0,0,0,0,0,0,0,0,-1,1546,1793,0,0
329,-769,0,0,0,0,0,0,0,0,0,-1,1553,1793,0,0
336,-769,0,0,0,0,0,0,0,0,0,-1,1560,1793,0,0
343,-769,0,0,0,0,0,0,0,0,0,-1,1567,1793,0,0
350,-769,0,0,0,0,0,0,0,0,0,-1,1574,1793,0,0
357,-769,0,0,0,0,0,0,0,0,0,-1,1581,1793,0,0
364,-769,0,0,0,0,0,0,0,0,0,-1,1588,1793,0,0
371,-769,0,0,0,0,0,0,0,0,0,-1,1595,1793,0,0
378,-769,0,0,0,0,0,0,0,0,0,-1,1602,1793,0,0
385,-769,0,0,0,0,0,0,0,0,0,-1,1609,1793,0,0
392,-769,0,0,0,0,0,0,0,0,0,-1,1616,1793,0,0
399,-769,0,0,0,0,0,0,0,0,0,-1,1623,1793,0,0
406,-769,0,0,0,0,0,0,0,0,0,-1,1630,1793,0,0
413,-769,0,0,0,0,0,0,0,0,0,-1,1637,1793,0,0
420,-769,0,0,0,0,0,0,0,0,0,-1,1644,1793,0,0
427,-769,0,0,0,0,0,0,0,0,0,-1,1651,1793,0,0
434,-769,0,0,0,0,0,0,0,0,0,-1,1658,1793,0,0
441,-769,0,0,0,0,0,0,0,0,0,-1,1665,1793,0,0
448,-769,0,0,0,0,0,0,0,0,0,-1,1672,1793,0,0
455,-769,0,0,0,0,0,0,0,0,0,-1,1679,1793,0,0
462,-769,0,0,0,0,0,0,0,0,0,-1,1686,1793,0,0
469,-769,0,0,0,0,0,0,0,0,0,-1,1693,1793,0,0
476,-769,0,0,0,0,0,0,0,0,0,-1,1700,1793,0,0
483,-769,0,0,0,0,0,0,0,0,0,-1,1707,1793,0,0
490,-769,0,0,0,0,0,0,0,0,0,-1,1714,1793,0,0
497,-769,0,0,0,0,0,0,0,0,0,-1,1721,1793,0,0
504,-769,0,0,0,0,0,0,0,0,0,-1,1728,1793,0,0
511,-769,0,0,0,0,0,0,0,0,0,-1,1735,1793,0,0
518,-769,0,0,0,0,0,0,0,0,0,-1,1742,1793,0,0
525,-769,0,0,0,0,0,0,0,0,0,-1,1749,1793,0,0
532,-769,0,0,0,0,0,0,0,0,0,-1,1756,1793,0,0
539,-769,0,0,0,0,0,0,0,0,0,-1,1763,1793,0,0
546,-769,0,0,0,0,0,0,0,0,0,-1,1770,1793,0,0
553,-769,0,0,0,0,0,0,0,0,0,-1,1777,1793,0,0
560,-769,0,0,0,0,0,0,0,0,0,-1,1784,1793,0,0
567,-769,0,0,0,0,0,0,0,0,0,-1,1791,1793,0,0
574,-769,0,0,0,0,0,0,0,0,0,-1,1798,1793,0,0
581,-769,0,0,0,0,0,0,0,0,0,-1,1805,1793,0,0
588,-769,0,0,0,0,0,0,0,0,0,-1,1812,1793,0,0
595,-769,0,0,0,0,0,0,0,0,0,-1,1819,1793,0,0
602,-769,0,0,0,0,0,0,0,0,0,-1,1826,1793,0,0
609,-769,0,0,0,0,0,0,0,0,0,-1,1833,1793,0,0
616,-769,0,0,0,0,0,0,0,0,0,-1,1840,1793,0,0
623,-769,0,0,0,0,0,0,0,0,0,-1,1847,1793,0,0
630,-769,0,0,0,0,0,0,0,0,0,-1,1854,1793,0,0
637,-769,0,0,0,0,0,0,0,0,0,-1,1861,1793,0,0
644,-769,0,0,0,0,0,0,0,0,0,-1,1868,1793,0,0
651,-769,0,0,0,0,0,0,0,0,0,-1,1875,1793,0,0
658,-769,0,0,0,0,0,0,0,0,0,-1,1882,1793,0,0
665,-769,0,0,0,0,0,0,0,0,0,-1,1889,1793,0,0
672,-769,0,0,0,0,0,0,0,0,0,-1,1896,1793,0,0
679,-769,0,0,0,0,0,0,0,0,0,-1,1903,1793,0,0
686,-769,0,0,0,0,0,0,0,0,0,-1,1910,1793,0,0
693,-769,0,0,0,0,0,0,0,0,0,-1,1917,1793,0,0
700,-769,0,0,0,0,0,0,0,0,0,-1,1924,1793,0,0
707,-769,0,0,0,0,0,0,0,0,0,-1,1931,1793,0,0
714,-769,0,0,0,0,0,0,0,0,0,-1,1938,1793,0,0
721,-769,0,0,0,0,0,0,0,0,0,-1,1945,1793,0,0
728,-769,0,0,0,0,0,0,0,0,0,-1,1952,1793,0,0
735,-769,0,0,0,0,0,0,0,0,0,-1,1959,1793,0,0
742,-769,0,0,0,0,0,0,0,0,0,-1,1966,1793,0,0
749,-769,0,0,0,0,0,0,0,0,0,-1,1973,1793,0,0
756,-769,0,0,0,0,0,0,0,0,0,-1,1980,1793,0,0
763,-769,0,0,0,0,0,0,0,0,0,-1,1987,1793,0,0
770,-769,0,0,0,0,0,0,0,0,0,-1,1994,1793,0,0
777,-769,0,0,0,0,0,0,0,0,0,-1,2001,1793,0,0
784,-769,0,0,0,0,0,0,0,0,0,-1,2008,1793,0,0
791,-769,0,0,0,0,0,0,0,0,0,-1,2015,1793,0,0
798,-769,0,0,0,0,0,0,0,0,0,-1,2022,1793,0,0
805,-769,0,0,0,0,0,0,0,0,0,-1,2029,1793,0,0
812,-769,0,0,0,0,0,0,0,0,0,-1,2036,1793,0,0
-700,-776,0,0,0,0,0,0,0,0,0,-1,524,1800,0,0
-693,-776,0,0,0,0,0,0,0,0,0,-1,531,1800,0,0
-686,-776,0,0,0,0,0,0,0,0,0,-1,538,1800,0,0
-679,-776,0,0,0,0,0,0,0,0,0,-1,545,1800,0,0
-672,-776,0,0,0,0,0,0,0,0,0,-1,552,1800,0,0
-665,-776,0,0,0,0,0,0,0,0,0,-1,559,1800,0,0
-658,-776,0,0,0,0,0,0,0,0,0,-1,566,1800,0,0
-651,-776,0,0,0,0,0,0,0,0,0,-1,573,1800,0,0
-644,-776,0,0,0,0,0,0,0,0,0,-1,580,1800,0,0
-637,-776,0,0,0,0,0,0,0,0,0,-1,587,1800,0,0
-630,-776,0,0,0,0,0,0,0,0,0,-1,594,1800,0,0
-623,-776,0,0,0,0,0,0,0,0,0,-1,601,1800,0,0
-616,-776,0,0,0,0,0,0,0,0,0,-1,608,1800,0,0
-609,-776,0,0,0,0,0,0,0,0,0,-1,615,1800,0,0
-602,-776,0,0,0,0,0,0,0,0,0,-1,622,1800,0,0
-595,-776,0,0,0,0,0,0,0,0,0,-1,629,1800,0,0
-588,-776,0,0,0,0,0,0,0,0,0,-1,636,1800,0,0
-581,-776,0,0,0,0,0,0,0,0,0,-1,643,1800,0,0
-574,-776,0,0,0,0,0,0,0,0,0,-1,650,1800,0,0
-567,-776,0,0,0,0,0,0,0,0,0,-1,657,1800,0,0
-560,-776,0,0,0,0,0,0,0,0,0,-1,664,1800,0,0
-553,-776,0,0,0,0,0,0,0,0,0,-1,671,1800,0,0
-546,-776,0,0,0,0,0,0,0,0,0,-1,678,1800,0,0
-539,-776,0,0,0,0,0,0,0,0,0,-1,685,1800,0,0
-532,-776,0,0,0,0,0,0,0,0,0,-1,692,1800,0,0
-525,-776,0,0,0,0,0,0,0,0,0,-1,699,1800,0,0
-518,-776,0,0,0,0,0,0,0,0,0,-1,706,1800,0,0
-511,-776,0,0,0,0,0,0,0,0,0,-1,713,1800,0,0
-504,-776,0,0,0,0,0,0,0,0,0,-1,720,1800,0,0
-497,-776,0,0,0,0,0,0,0,0,0,-1,727,1800,0,0
-490,-776,0,0,0,0,0,0,0,0,0,-1,734,1800,0,0
-483,-776,0,0,0,0,0,0,0,0,0,-1,741,1800,0,0
-476,-776,0,0,0,0,0,0,0,0,0,-1,748,1800,0,0
-469,-776,0,0,0,0,0,0,0,0,0,-1,755,1800,0,0
-462,-776,0,0,0,0,0,0,0,0,0,-1,762,1800,0,0
-455,-776,0,0,0,0,0,0,0,0,0,-1,769,1800,0,0
-448,-776,0,0,0,0,0,0,0,0,0,-1,776,1800,0,0
-441,-776,0,0,0,0,0,0,0,0,0,-1,783,1800,0,0
-434,-776,0,0,0,0,0,0,0,0,0,-1,790,1800,0,0
-427,-776,0,0,0,0,0,0,0,0,0,-1,797,1800,0,0
-420,-776,0,0,0,0,0,0,0,0,0,-1,804,1800,0,0
-413,-776,0,0,0,0,0,0,0,0,0,-1,811,1800,0,0
-406,-776,0,0,0,0,0,0,0,0,0,-1,818,1800,0,0
-399,-776,0,0,0,0,0,0,0,0,0,-1,825,1800,0,0
-392,-776,0,0,0,0,0,0,0,0,0,-1,832,1800,0,0
-385,-776,0,0,0,0,0,0,0,0,0,-1,839,1800,0,0
-378,-776,0,0,0,0,0,0,0,0,0,-1,846,1800,0,0
-371,-776,0,0,0,0,0,0,0,0,0,-1,853,1800,0,0
-364,-776,0,0,0,0,0,0,0,0,0,-1,860,1800,0,0
-357,-776,0,0,0,0,0,0,0,0,0,-1,867,1800,0,0
-350,-776,0,0,0,0,0,0,0,0,0,-1,874,1800,0,0
-343,-776,0,0,0,0,0,0,0,0,0,-1,881,1800,0,0
-336,-776,0,0,0,0,0,0,0,0,0,-1,888,1800,0,0
-329,-776,0,0,0,0,0,0,0,0,0,-1,895,1800,0,0
-322,-776,0,0,0,0,0,0,0,0,0,-1,902,1800,0,0
-315,-776,0,0,0,0,0,0,0,0,0,-1,909,1800,0,0
-308,-776,0,0,0,0,0,0,0,0,0,-1,916,1800,0,0
-301,-776,0,0,0,0,0,0,0,0,0,-1,923,1800,0,0
-294,-776,0,0,0,0,0,0,0,0,0,-1,930,1800,0,0
-287,-776,0,0,0,0,0,0,0,0,0,-1,937,1800,0,0
-280,-776,0,0,0,0,0,0,0,0,0,-1,944,1800,0,0
-273,-776,0,0,0,0,0,0,0,0,0,-1,951,1800,0,0
-266,-776,0,0,0,0,0,0,0,0,0,-1,958,1800,0,0
-259,-776,0,0,0,0,0,0,0,0,0,-1,965,1800,0,0
-252,-776,0,0,0,0,0,0,0,0,0,-1,972,1800,0,0
-245,-776,0,0,0,0,0,0,0,0,0,-1,979,1800,0,0
-238,-776,0,0,0,0,0,0,0,0,0,-1,986,1800,0,0
-231,-776,0,0,0,0,0,0,0,0,0,-1,993,1800,0,0
-224,-776,0,0,0,0,0,0,0,0,0,-1,1000,1800,0,0
-217,-776,0,0,0,0,0,0,0,0,0,-1,1007,1800,0,0
-210,-776,0,0,0,0,0,0,0,0,0,-1,1014,1800,0,0
-203,-776,0,0,0,0,0,0,0,0,0,-1,1021,1800,0,0
-196,-776,0,0,0,0,0,0,0,0,0,-1,1028,1800,0,0
-189,-776,0,0,0,0,0,0,0,0,0,-1,1035,1800,0,0
-182,-776,0,0,0,0,0,0,0,0,0,-1,1042,1800,0,0
-175,-776,0,0,0,0,0,0,0,0,0,-1,1049,1800,0,0
-168,-776,0,0,0,0,0,0,0,0,0,-1,1056,1800,0,0
-161,-776,0,0,0,0,0,0,0,0,0,-1,1063,1800,0,0
-154,-776,0,0,0,0,0,0,0,0,0,-1,1070,1800,0,0
-147,-776,0,0,0,0,0,0,0,0,0,-1,1077,1800,0,0
-140,-776,4.03137,2.03589,-0.0536465,-0.00938953,-0.0311425,0.00668568,-0.0697217,-1.09429,0.0488624,0.0465942,1084,1800,4.03142,-2.03594
-133,-776,3.92603,2.43945,-0.0461171,-0.00638482,-0.0304082,0.0100715,-0.0625735,-1.07475,0.0454463,0.0473835,1091,1800,3.926,-2.43948
-126,-776,3.84546,2.75378,-0.0487342,-0.00349797,-0.0282917,0.0101055,-0.0623377,-1.1226,0.0453042,0.0479115,1098,1800,3.84545,-2.75379
-119,-776,3.69629,2.86548,-0.0534179,-0.00602708,-0.0248062,0.00458234,-0.0640273,-1.16665,0.0442914,0.0476217,1105,1800,3.69624,-2.86542
-112,-776,3.13513,2.38745,-0.0569295,-0.00970883,-0.0212572,-0.00154939,-0.065089,-1.2043,0.0428855,0.0421793,1112,1800,3.13515,-2.38746
-105,-776,2.74622,1.76611,-0.0585762,-0.0137847,-0.0170679,-0.00802226,-0.0643386,-1.2452,0.0404841,0.0411501,1119,1800,2.7462,-1.76613
-98,-776,0.523315,1.6604,-0.0586028,-0.0181948,-0.0121876,-0.0148034,-0.0619941,-1.2994,0.037385,0.0426736,1126,1800,0.523292,-1.6604
-91,-776,0.039917,1.86731,-0.0566707,-0.0219556,-0.00715946,-0.0205371,-0.0580892,-1.37519,0.034014,0.0450945,1133,1800,0.039973,-1.8673
-84,-776,-0.443604,2.0188,-0.0543519,-0.0258309,-0.00176504,-0.025722,-0.0544607,-1.50922,0.031459,0.0449497,1140,1800,-0.443635,-2.01877
-77,-776,-0.926758,1.84814,-0.0505348,-0.0282983,0.00338102,-0.0277956,-0.0510375,1.42319,0.0295056,0.041982,1147,1800,-0.926752,-1.84818
-70,-776,1.28699,3.48572,0,0,0,0,0,0,0,-1,1154,1800,1.28695,-3.48566
-63,-776,0.850708,3.72522,0,0,0,0,0,0,0,-1,1161,1800,0.850742,-3.72516
-56,-776,0.520508,3.65125,0,0,0,0,0,0,0,-1,1168,1800,0.52049,-3.65127
-49,-776,0.658936,4.00537,0,0,0,0,0,0,0,-1,1175,1800,0.65897,-4.00536
-42,-776,0.382568,3.56592,0.0103878,-0.0223432,0.0127326,0.0147575,-0.0267129,0.330595,0.0242723,0.048704,1182,1800,0.382598,-3.56593
-35,-776,0.115112,3.31824,0.0234358,-0.0182591,0.0118221,0.0265545,-0.0213778,0.257929,0.0277275,0.0450375,1189,1800,0.115074,-3.31828
-28,-776,0.0148926,3.29688,0,0,0,0,0,0,0,-1,1196,1800,0.0148609,-3.29683
-21,-776,1.46753,2.97815,0,0,0,0,0,0,0,-1,1203,1800,1.46747,-2.97815
-14,-776,1.65576,2.79102,0.05027,0.0113706,0.0180156,0.0573316,0.00430894,0.37357,0.0368688,0.0463428,1210,1800,1.65579,-2.79097
-7,-776,1.82849,2.51868,0,0,0,0,0,0,0,-1,1217,1800,1.82849,-2.51873
0,-776,1.94629,3.33081,0,0,0,0,0,0,0,-1,1224,1800,1.94626,-3.33077
7,-776,2.01501,3.422,0,0,0,0,0,0,0,-1,1231,1800,2.01507,-3.42194
14,-776,3.07642,0.00231934,0.0456769,0.0264519,0.0193428,0.057664,0.0144647,0.554794,0.0346428,0.0432476,1238,1800,3.07648,-0.00237284
21,-776,3.15027,3.40613,0.0404433,0.0262654,0.0184494,0.0531188,0.0135899,0.601976,0.0318637,0.0419116,1245,1800,3.15023,-3.40614
28,-776,3.10205,3.99182,0.0357128,0.0253878,0.01892,0.050162,0.0109386,0.652211,0.0304571,0.0423719,1252,1800,3.102,-3.99179
35,-776,2.63013,4.31799,0,0,0,0,0,0,0,-1,1259,1800,2.63014,-4.31793
42,-776,2.32837,3.91992,0.0279728,0.0180602,0.0137993,0.0376789,0.00835409,0.612988,0.0228494,0.0443274,1266,1800,2.32838,-3.91997
49,-776,2.31238,3.83179,0.023131,0.0138936,0.0103936,0.0298859,0.00713872,0.576313,0.018022,0.0482434,1273,1800,2.31238,-3.83183
56,-776,2.5094,5.05713,0.0198466,0.0107654,0.0079029,0.0244204,0.00619155,0.524652,0.014659,0.0466832,1280,1800,2.5094,-5.05717
63,-776,2.10583,4.81714,0.0189697,0.00978441,0.00465723,0.0209178,0.00783624,0.39619,0.0122028,0.0470733,1287,1800,2.10579,-4.81714
70,-776,2.09192,4.45972,0.0189623,0.0104201,-0.000323619,0.0189745,0.0104079,-0.0378127,0.0109721,0.0474278,1294,1800,2.09194,-4.45971
77,-776,2.32214,3.89526,0,0,0,0,0,0,0,-1,1301,1800,2.32212,-3.89528
84,-776,2.38977,3.77271,0.0260202,0.0171405,-0.0135272,0.0358176,0.00734316,-0.62683,0.021846,0.0463011,1308,1800,2.38972,-3.77271
91,-776,2.48108,3.59131,0.029871,0.0251783,-0.0178199,0.0454983,0.0095509,-0.719939,0.0277029,0.0445544,1315,1800,2.48113,-3.59134
98,-776,2.55859,3.40674,0,0,0,0,0,0,0,-1,1322,1800,2.55863,-3.40678
105,-776,-4.27234,6.82471,0,0,0,0,0,0,0,-1,1329,1800,-4.27238,-6.82475
112,-776,-2.99963,6.4209,0,0,0,0,0,0,0,-1,1336,1800,-2.99966,-6.42091
119,-776,2.4104,2.54858,0,0,0,0,0,0,0,-1,1343,1800,2.41036,-2.54853
126,-776,-1.13635,5.72803,0.0612533,0.0587626,-0.0382896,0.0983178,0.0216981,-0.769142,0.059643,0.0438712,1350,1800,-1.13633,-5.728
133,-776,-0.421997,5.23682,0.0630304,0.0576298,-0.0407483,0.101168,0.0194924,-0.752313,0.061978,0.0486073,1357,1800,-0.422021,-5.23687
140,-776,1.35388,2.17249,0,0,0,0,0,0,0,-1,1364,1800,1.35394,-2.17243
147,-776,2.02539,1.95044,0,0,0,0,0,0,0,-1,1371,1800,2.02537,-1.95043
154,-776,3.45178,2.0293,0,0,0,0,0,0,0,-1,1378,1800,3.45172,-2.02927
161,-776,3.82251,2.30396,0,0,0,0,0,0,0,-1,1385,1800,3.82257,-2.30399
168,-776,4.49268,2.3313,0,0,0,0,0,0,0,-1,1392,1800,4.49266,-2.33133
175,-776,4.80396,2.23511,0.0436068,0.0196374,-0.0184329,0.0536085,0.00963561,-0.497147,0.0329995,0.0469023,1399,1800,4.80401,-2.23513
182,-776,4.7561,2.14038,0.0343978,0.0116746,-0.0159068,0.0425839,0.00348851,-0.475283,0.0273008,0.0448433,1406,1800,4.75613,-2.1404
189,-776,4.65894,2.92871,0.0249218,0.0038663,-0.0133456,0.0313923,-0.00260414,-0.451444,0.021848,0.0446019,1413,1800,4.65889,-2.9287
196,-776,4.59668,3.8147,0,0,0,0,0,0,0,-1,1420,1800,4.59672,-3.81466
203,-776,5.27661,4.52429,0,0,0,0,0,0,0,-1,1427,1800,5.27666,-4.52428
210,-776,5.54871,5.05017,0,0,0,0,0,0,0,-1,1434,1800,5.5487,-5.05022
217,-776,0.169312,2.11133,0,0,0,0,0,0,0,-1,1441,1800,0.169269,-2.11135
224,-776,4.45044,3.33679,0,0,0,0,0,0,0,-1,1448,1800,4.45042,-3.3368
231,-776,4.25952,2.75134,0,0,0,0,0,0,0,-1,1455,1800,4.25953,-2.75134
238,-776,2.34814,1.38208,0,0,0,0,0,0,0,-1,1462,1800,2.34812,-1.38211
245,-776,1.96838,2.48889,0,0,0,0,0,0,0,-1,1469,1800,1.96839,-2.48885
252,-776,1.61804,1.5304,0,0,0,0,0,0,0,-1,1476,1800,1.61799,-1.53045
259,-776,1.27112,1.9845,0,0,0,0,0,0,0,-1,1483,1800,1.27109,-1.98455
266,-776,0,0,0,0,0,0,0,0,0,-1,1490,1800,0,0
273,-776,0,0,0,0,0,0,0,0,0,-1,1497,1800,0,0
280,-776,0,0,0,0,0,0,0,0,0,-1,1504,1800,0,0
287,-776,0,0,0,0,0,0,0,0,0,-1,1511,1800,0,0
294,-776,0,0,0,0,0,0,0,0,0,-1,1518,1800,0,0
301,-776,0,0,0,0,0,0,0,0,0,-1,1525,1800,0,0
308,-776,0,0,0,0,0,0,0,0,0,-1,1532,1800,0,0
315,-776,0,0,0,0,0,0,0,0,0,-1,1539,1800,0,0
322,-776,0,0,0,0,0,0,0,0,0,-1,1546,1800,0,0
329,-776,0,0,0,0,0,0,0,0,0,-1,1553,1800,0,0
336,-776,0,0,0,0,0,0,0,0,0,-1,1560,1800,0,0
343,-776,0,0,0,0,0,0,0,0,0,-1,1567,1800,0,0
350,-776,0,0,0,0,0,0,0,0,0,-1,1574,1800,0,0
357,-776,0,0,0,0,0,0,0,0,0,-1,1581,1800,0,0
364,-776,0,0,0,0,0,0,0,0,0,-1,1588,1800,0,0
371,-776,0,0,0,0,0,0,0,0,0,-1,1595,1800,0,0
378,-776,0,0,0,0,0,0,0,0,0,-1,1602,1800,0,0
385,-776,0,0,0,0,0,0,0,0,0,-1,1609,1800,0,0
392,-776,0,0,0,0,0,0,0,0,0,-1,1616,1800,0,0
399,-776,0,0,0,0,0,0,0,0,0,-1,1623,1800,0,0
406,-776,0,0,0,0,0,0,0,0,0,-1,1630,1800,0,0
413,-776,0,0,0,0,0,0,0,0,0,-1,1637,1800,0,0
420,-776,0,0,0,0,0,0,0,0,0,-1,1644,1800,0,0
427,-776,0,0,0,0,0,0,0,0,0,-1,1651,1800,0,0
434,-776,0,0,0,0,0,0,0,0,0,-1,1658,1800,0,0
441,-776,0,0,0,0,0,0,0,0,0,-1,1665,1800,0,0
448,-776,0,0,0,0,0,0,0,0,0,-1,1672,1800,0,0
455,-776,0,0,0,0,0,0,0,0,0,-1,1679,1800,0,0
462,-776,0,0,0,0,0,0,0,0,0,-1,1686,1800,0,0
469,-776,0,0,0,0,0,0,0,0,0,-1,1693,1800,0,0
476,-776,0,0,0,0,0,0,0,0,0,-1,1700,1800,0,0
483,-776,0,0,0,0,0,0,0,0,0,-1,1707,1800,0,0
490,-776,0,0,0,0,0,0,0,0,0,-1,1714,1800,0,0
497,-776,0,0,0,0,0,0,0,0,0,-1,1721,1800,0,0
504,-776,0,0,0,0,0,0,0,0,0,-1,1728,1800,0,0
511,-776,0,0,0,0,0,0,0,0,0,-1,1735,1800,0,0
518,-776,0,0,0,0,0,0,0,0,0,-1,1742,1800,0,0
525,-776,0,0,0,0,0,0,0,0,0,-1,1749,1800,0,0
532,-776,0,0,0,0,0,0,0,0,0,-1,1756,1800,0,0
539,-776,0,0,0,0,0,0,0,0,0,-1,1763,1800,0,0
546,-776,0,0,0,0,0,0,0,0,0,-1,1770,1800,0,0
553,-776,0,0,0,0,0,0,0,0,0,-1,1777,1800,0,0
560,-776,0,0,0,0,0,0,0,0,0,-1,1784,1800,0,0
567,-776,0,0,0,0,0,0,0,0,0,-1,1791,1800,0,0
574,-776,0,0,0,0,0,0,0,0,0,-1,1798,1800,0,0
581,-776,0,0,0,0,0,0,0,0,0,-1,1805,1800,0,0
588,-776,0,0,0,0,0,0,0,0,0,-1,1812,1800,0,0
595,-776,0,0,0,0,0,0,0,0,0,-1,1819,1800,0,0
602,-776,0,0,0,0,0,0,0,0,0,-1,1826,1800,0,0
609,-776,0,0,0,0,0,0,0,0,0,-1,1833,1800,0,0
616,-776,0,0,0,0,0,0,0,0,0,-1,1840,1800,0,0
623,-776,0,0,0,0,0,0,0,0,0,-1,1847,1800,0,0
630,-776,0,0,0,0,0,0,0,0,0,-1,1854,1800,0,0
637,-776,0,0,0,0,0,0,0,0,0,-1,1861,1800,0,0
644,-776,0,0,0,0,0,0,0,0,0,-1,1868,1800,0,0
651,-776,0,0,0,0,0,0,0,0,0,-1,1875,1800,0,0
658,-776,0,0,0,0,0,0,0,0,0,-1,1882,1800,0,0
665,-776,0,0,0,0,0,0,0,0,0,-1,1889,1800,0,0
672,-776,0,0,0,0,0,0,0,0,0,-1,1896,1800,0,0
679,-776,0,0,0,0,0,0,0,0,0,-1,1903,1800,0,0
686,-776,0,0,0,0,0,0,0,0,0,-1,1910,1800,0,0
693,-776,0,0,0,0,0,0,0,0,0,-1,1917,1800,0,0
700,-776,0,0,0,0,0,0,0,0,0,-1,1924,1800,0,0
707,-776,0,0,0,0,0,0,0,0,0,-1,1931,1800,0,0
714,-776,0,0,0,0,0,0,0,0,0,-1,1938,1800,0,0
721,-776,0,0,0,0,0,0,0,0,0,-1,1945,1800,0,0
728,-776,0,0,0,0,0,0,0,0,0,-1,1952,1800,0,0
735,-776,0,0,0,0,0,0,0,0,0,-1,1959,1800,0,0
742,-776,0,0,0,0,0,0,0,0,0,-1,1966,1800,0,0
749,-776,0,0,0,0,0,0,0,0,0,-1,1973,1800,0,0
756,-776,0,0,0,0,0,0,0,0,0,-1,1980,1800,0,0
763,-776,0,0,0,0,0,0,0,0,0,-1,1987,1800,0,0
770,-776,0,0,0,0,0,0,0,0,0,-1,1994,1800,0,0
777,-776,0,0,0,0,0,0,0,0,0,-1,2001,1800,0,0
784,-776,0,0,0,0,0,0,0,0,0,-1,2008,1800,0,0
791,-776,0,0,0,0,0,0,0,0,0,-1,2015,1800,0,0
798,-776,0,0,0,0,0,0,0,0,0,-1,2022,1800,0,0
805,-776,0,0,0,0,0,0,0,0,0,-1,2029,1800,0,0
812,-776,0,0,0,0,0,0,0,0,0,-1,2036,1800,0,0
-700,-783,0,0,0,0,0,0,0,0,0,-1,524,1807,0,0
-693,-783,0,0,0,0,0,0,0,0,0,-1,531,1807,0,0
-686,-783,0,0,0,0,0,0,0,0,0,-1,538,1807,0,0
-679,-783,0,0,0,0,0,0,0,0,0,-1,545,1807,0,0
-672,-783,0,0,0,0,0,0,0,0,0,-1,552,1807,0,0
-665,-783,0,0,0,0,0,0,0,0,0,-1,559,1807,0,0
-658,-783,0,0,0,0,0,0,0,0,0,-1,566,1807,0,0
-651,-783,0,0,0,0,0,0,0,0,0,-1,573,1807,0,0
-644,-783,0,0,0,0,0,0,0,0,0,-1,580,1807,0,0
-637,-783,0,0,0,0,0,0,0,0,0,-1,587,1807,0,0
-630,-783,0,0,0,0,0,0,0,0,0,-1,594,1807,0,0
-623,-783,0,0,0,0,0,0,0,0,0,-1,601,1807,0,0
-616,-783,0,0,0,0,0,0,0,0,0,-1,608,1807,0,0
-609,-783,0,0,0,0,0,0,0,0,0,-1,615,1807,0,0
-602,-783,0,0,0,0,0,0,0,0,0,-1,622,1807,0,0
-595,-783,0,0,0,0,0,0,0,0,0,-1,629,1807,0,0
-588,-783,0,0,0,0,0,0,0,0,0,-1,636,1807,0,0
-581,-783,0,0,0,0,0,0,0,0,0,-1,643,1807,0,0
-574,-783,0,0,0,0,0,0,0,0,0,-1,650,1807,0,0
-567,-783,0,0,0,0,0,0,0,0,0,-1,657,1807,0,0
-560,-783,0,0,0,0,0,0,0,0,0,-1,664,1807,0,0
-553,-783,0,0,0,0,0,0,0,0,0,-1,671,1807,0,0
-546,-783,0,0,0,0,0,0,0,0,0,-1,678,1807,0,0
-539,-783,0,0,0,0,0,0,0,0,0,-1,685,1807,0,0
-532,-783,0,0,0,0,0,0,0,0,0,-1,692,1807,0,0
-525,-783,0,0,0,0,0,0,0,0,0,-1,699,1807,0,0
-518,-783,0,0,0,0,0,0,0,0,0,-1,706,1807,0,0
-511,-783,0,0,0,0,0,0,0,0,0,-1,713,1807,0,0
-504,-783,0,0,0,0,0,0,0,0,0,-1,720,1807,0,0
-497,-783,0,0,0,0,0,0,0,0,0,-1,727,1807,0,0
-490,-783,0,0,0,0,0,0,0,0,0,-1,734,1807,0,0
-483,-783,0,0,0,0,0,0,0,0,0,-1,741,1807,0,0
-476,-783,0,0,0,0,0,0,0,0,0,-1,748,1807,0,0
-469,-783,0,0,0,0,0,0,0,0,0,-1,755,1807,0,0
-462,-783,0,0,0,0,0,0,0,0,0,-1,762,1807,0,0
-455,-783,0,0,0,0,0,0,0,0,0,-1,769,1807,0,0
-448,-783,0,0,0,0,0,0,0,0,0,-1,776,1807,0,0
-441,-783,0,0,0,0,0,0,0,0,0,-1,783,1807,0,0
-434,-783,0,0,0,0,0,0,0,0,0,-1,790,1807,0,0
-427,-783,0,0,0,0,0,0,0,0,0,-1,797,1807,0,0
-420,-783,0,0,0,0,0,0,0,0,0,-1,804,1807,0,0
-413,-783,0,0,0,0,0,0,0,0,0,-1,811,1807,0,0
-406,-783,0,0,0,0,0,0,0,0,0,-1,818,1807,0,0
-399,-783,0,0,0,0,0,0,0,0,0,-1,825,1807,0,0
-392,-783,0,0,0,0,0,0,0,0,0,-1,832,1807,0,0
-385,-783,0,0,0,0,0,0,0,0,0,-1,839,1807,0,0
-378,-783,0,0,0,0,0,0,0,0,0,-1,846,1807,0,0
-371,-783,0,0,0,0,0,0,0,0,0,-1,853,1807,0,0
-364,-783,0,0,0,0,0,0,0,0,0,-1,860,1807,0,0
-357,-783,0,0,0,0,0,0,0,0,0,-1,867,1807,0,0
-350,-783,0,0,0,0,0,0,0,0,0,-1,874,1807,0,0
-343,-783,0,0,0,0,0,0,0,0,0,-1,881,1807,0,0
-336,-783,0,0,0,0,0,0,0,0,0,-1,888,1807,0,0
-329,-783,0,0,0,0,0,0,0,0,0,-1,895,1807,0,0
-322,-783,0,0,0,0,0,0,0,0,0,-1,902,1807,0,0
-315,-783,0,0,0,0,0,0,0,0,0,-1,909,1807,0,0
-308,-783,0,0,0,0,0,0,0,0,0,-1,916,1807,0,0
-301,-783,0,0,0,0,0,0,0,0,0,-1,923,1807,0,0
-294,-783,0,0,0,0,0,0,0,0,0,-1,930,1807,0,0
-287,-783,0,0,0,0,0,0,0,0,0,-1,937,1807,0,0
-280,-783,0,0,0,0,0,0,0,0,0,-1,944,1807,0,0
-273,-783,0,0,0,0,0,0,0,0,0,-1,951,1807,0,0
-266,-783,0,0,0,0,0,0,0,0,0,-1,958,1807,0,0
-259,-783,0,0,0,0,0,0,0,0,0,-1,965,1807,0,0
-252,-783,0,0,0,0,0,0,0,0,0,-1,972,1807,0,0
-245,-783,0,0,0,0,0,0,0,0,0,-1,979,1807,0,0
-238,-783,0,0,0,0,0,0,0,0,0,-1,986,1807,0,0
-231,-783,0,0,0,0,0,0,0,0,0,-1,993,1807,0,0
-224,-783,0,0,0,0,0,0,0,0,0,-1,1000,1807,0,0
-217,-783,0,0,0,0,0,0,0,0,0,-1,1007,1807,0,0
-210,-783,0,0,0,0,0,0,0,0,0,-1,1014,1807,0,0
-203,-783,0,0,0,0,0,0,0,0,0,-1,1021,1807,0,0
-196,-783,0,0,0,0,0,0,0,0,0,-1,1028,1807,0,0
-189,-783,0,0,0,0,0,0,0,0,0,-1,1035,1807,0,0
-182,-783,0,0,0,0,0,0,0,0,0,-1,1042,1807,0,0
-175,-783,0,0,0,0,0,0,0,0,0,-1,1049,1807,0,0
-168,-783,0,0,0,0,0,0,0,0,0,-1,1056,1807,0,0
-161,-783,0,0,0,0,0,0,0,0,0,-1,1063,1807,0,0
-154,-783,0,0,0,0,0,0,0,0,0,-1,1070,1807,0,0
-147,-783,0,0,0,0,0,0,0,0,0,-1,1077,1807,0,0
-140,-783,0,0,0,0,0,0,0,0,0,-1,1084,1807,0,0
-133,-783,0,0,0,0,0,0,0,0,0,-1,1091,1807,0,0
-126,-783,0,0,0,0,0,0,0,0,0,-1,1098,1807,0,0
-119,-783,0,0,0,0,0,0,0,0,0,-1,1105,1807,0,0
-112,-783,3.34338,2.36731,-0.0690372,-0.0148728,-0.0240312,-0.00574809,-0.0781619,-1.20791,0.0503015,0.0472722,1112,1807,3.34334,-2.36727
-105,-783,2.30945,2.04602,-0.0706331,-0.0178857,-0.0186186,-0.0119759,-0.0765429,-1.26344,0.0475421,0.0462127,1119,1807,2.30949,-2.04607
-98,-783,1.44958,1.61914,-0.0700104,-0.0214638,-0.0123898,-0.0184846,-0.0729897,-1.33482,0.0438177,0.0470781,1126,1807,1.44961,-1.61918
-91,-783,-0.751587,1.90454,0,0,0,0,0,0,0,-1,1133,1807,-0.751615,-1.90448
-84,-783,-1.23669,2.04651,0,0,0,0,0,0,0,-1,1140,1807,-1.23666,-2.04656
-77,-783,-1.2677,1.8999,-0.0579393,-0.0300661,0.00625858,-0.0287253,-0.0592801,1.35975,0.0342308,0.0409647,1147,1807,-1.26773,-1.89995
-70,-783,-1.24524,1.60583,-0.0472416,-0.03028,0.0109706,-0.0248944,-0.0526272,1.11444,0.0303991,0.0432692,1154,1807,-1.24523,-1.60583
-63,-783,-1.38721,1.6084,0,0,0,0,0,0,0,-1,1161,1807,-1.3872,-1.60841
-56,-783,-1.32239,1.82434,0,0,0,0,0,0,0,-1,1168,1807,-1.32239,-1.8243
-49,-783,0.773682,2.75671,0,0,0,0,0,0,0,-1,1175,1807,0.773639,-2.75667
-42,-783,0.104858,3.77209,0,0,0,0,0,0,0,-1,1182,1807,0.104905,-3.77212
-35,-783,-0.200317,3.35132,0,0,0,0,0,0,0,-1,1189,1807,-0.200332,-3.35127
-28,-783,-0.282349,3.16992,0,0,0,0,0,0,0,-1,1196,1807,-0.282359,-3.16998
-21,-783,1.2074,2.92578,0,0,0,0,0,0,0,-1,1203,1807,1.20743,-2.92581
-14,-783,1.31555,2.77979,0,0,0,0,0,0,0,-1,1210,1807,1.31555,-2.7798
-7,-783,1.76428,2.39697,0,0,0,0,0,0,0,-1,1217,1807,1.76426,-2.39697
0,-783,1.83301,1.48914,0.0680307,0.0292214,0.0203746,0.0767626,0.0204895,0.404888,0.045896,0.0408277,1224,1807,1.83298,-1.48914
7,-783,2.15991,0.634521,0.0634002,0.0337146,0.0217198,0.0748644,0.0222505,0.485657,0.0443922,0.0426095,1231,1807,2.1599,-0.634531
14,-783,2.91772,0.020874,0.0586491,0.0352263,0.0217585,0.0716477,0.0222276,0.538511,0.0423473,0.0437286,1238,1807,2.91771,-0.0209007
21,-783,2.69092,3.20459,0.0522025,0.0351268,0.021017,0.0663497,0.0209796,0.592463,0.0391603,0.0486386,1245,1807,2.69098,-3.20453
28,-783,2.4209,3.46851,0.0468557,0.034542,0.0225401,0.0640647,0.017333,0.652074,0.0382639,0.0477757,1252,1807,2.42092,-3.46845
35,-783,2.203,3.56885,0,0,0,0,0,0,0,-1,1259,1807,2.20297,-3.5689
42,-783,2.32153,3.77173,0.0386618,0.0259429,0.0171266,0.0505715,0.0140332,0.607627,0.0301458,0.0437482,1266,1807,2.3215,-3.77177
49,-783,2.43213,3.6781,0.0326139,0.0209364,0.0134732,0.0414591,0.0120912,0.580934,0.0246194,0.0458568,1273,1807,2.43217,-3.67808
56,-783,2.37012,3.57129,0.0286489,0.0171168,0.0109597,0.0352668,0.0104989,0.543238,0.0209095,0.0477205,1280,1807,2.37013,-3.57132
63,-783,1.82251,4.68201,0,0,0,0,0,0,0,-1,1287,1807,1.82248,-4.68205
70,-783,1.9646,4.48083,0.0279888,0.016623,0.00170439,0.0282389,0.0163729,0.14569,0.0163728,0.0469463,1294,1807,1.96465,-4.48079
77,-783,2.12634,4.12756,0,0,0,0,0,0,0,-1,1301,1807,2.1263,-4.12753
84,-783,2.47119,3.91882,0.0364756,0.0247626,-0.014494,0.0462516,0.0149866,-0.593396,0.0272491,0.0466993,1308,1807,2.47124,-3.91876
91,-783,2.72021,3.7312,0.0409119,0.0342549,-0.0201373,0.0579939,0.0171729,-0.703493,0.0343982,0.0424527,1315,1807,2.72018,-3.73125
98,-783,2.14722,3.52112,0.0466358,0.0447227,-0.0255157,0.0712128,0.0201456,-0.766662,0.042387,0.0446344,1322,1807,2.14726,-3.52114
105,-783,1.60388,3.32654,0,0,0,0,0,0,0,-1,1329,1807,1.60392,-3.32654
112,-783,-2.05444,5.83325,0.0624226,0.0611276,-0.0382081,0.0999887,0.0235615,-0.776926,0.0603582,0.0454508,1336,1807,-2.05445,-5.83323
119,-783,-1.25073,5.53723,0.0709537,0.0701927,-0.0440421,0.114617,0.0265294,-0.781078,0.0692825,0.0437019,1343,1807,-1.25072,-5.53726
126,-783,-0.59375,5.26379,0.0761336,0.0736146,-0.0465922,0.121483,0.0282649,-0.771885,0.0734042,0.0456236,1350,1807,-0.593774,-5.26382
133,-783,0.46814,4.68408,0.0770594,0.0714426,-0.050006,0.124336,0.0241662,-0.757347,0.0761246,0.0483494,1357,1807,0.468084,-4.6841
140,-783,1.22754,4.0293,0,0,0,0,0,0,0,-1,1364,1807,1.22751,-4.02928
147,-783,2.01294,3.12854,0,0,0,0,0,0,0,-1,1371,1807,2.01289,-3.12852
154,-783,2.97461,2.92737,0.0801427,0.0581369,-0.0377875,0.108497,0.029783,-0.643726,0.0647291,0.0479783,1378,1807,2.97459,-2.92738
161,-783,3.73486,2.52283,0.0718575,0.0472022,-0.0309602,0.0928541,0.0262056,-0.595931,0.0552783,0.0435277,1385,1807,3.73481,-2.52286
168,-783,4.46191,2.25818,0,0,0,0,0,0,0,-1,1392,1807,4.46187,-2.25815
175,-783,4.77393,1.98035,0.0511982,0.0250211,-0.0177983,0.0602024,0.0160169,-0.468359,0.0360038,0.0445373,1399,1807,4.77397,-1.98037
182,-783,4.7572,2.04834,0.0401069,0.0152419,-0.0132635,0.0458537,0.00949504,-0.408863,0.027947,0.0457826,1406,1807,4.75721,-2.04838
189,-783,4.78589,3.32886,0,0,0,0,0,0,0,-1,1413,1807,4.78594,-3.32889
196,-783,6.38513,2.43896,0,0,0,0,0,0,0,-1,1420,1807,6.38519,-2.43899
203,-783,6.4657,1.47913,0,0,0,0,0,0,0,-1,1427,1807,6.46573,-1.4791
210,-783,6.54626,0.519165,0,0,0,0,0,0,0,-1,1434,1807,6.54627,-0.519212
217,-783,2.68213,2.70508,0,0,0,0,0,0,0,-1,1441,1807,2.68207,-2.70508
224,-783,-0.670044,1.62927,0,0,0,0,0,0,0,-1,1448,1807,-0.669997,-1.62923
231,-783,-1.12366,1.24988,0,0,0,0,0,0,0,-1,1455,1807,-1.1237,-1.24989
238,-783,0,0,0,0,0,0,0,0,0,-1,1462,1807,0,0
245,-783,0,0,0,0,0,0,0,0,0,-1,1469,1807,0,0
252,-783,0,0,0,0,0,0,0,0,0,-1,1476,1807,0,0
259,-783,0,0,0,0,0,0,0,0,0,-1,1483,1807,0,0
266,-783,0,0,0,0,0,0,0,0,0,-1,1490,1807,0,0
273,-783,0,0,0,0,0,0,0,0,0,-1,1497,1807,0,0
280,-783,0,0,0,0,0,0,0,0,0,-1,1504,1807,0,0
287,-783,0,0,0,0,0,0,0,0,0,-1,1511,1807,0,0
294,-783,0,0,0,0,0,0,0,0,0,-1,1518,1807,0,0
301,-783,0,0,0,0,0,0,0,0,0,-1,1525,1807,0,0
308,-783,0,0,0,0,0,0,0,0,0,-1,1532,1807,0,0
315,-783,0,0,0,0,0,0,0,0,0,-1,1539,1807,0,0
322,-783,0,0,0,0,0,0,0,0,0,-1,1546,1807,0,0
329,-783,0,0,0,0,0,0,0,0,0,-1,1553,1807,0,0
336,-783,0,0,0,0,0,0,0,0,0,-1,1560,1807,0,0
343,-783,0,0,0,0,0,0,0,0,0,-1,1567,1807,0,0
350,-783,0,0,0,0,0,0,0,0,0,-1,1574,1807,0,0
357,-783,0,0,0,0,0,0,0,0,0,-1,1581,1807,0,0
364,-783,0,0,0,0,0,0,0,0,0,-1,1588,1807,0,0
371,-783,0,0,0,0,0,0,0,0,0,-1,1595,1807,0,0
378,-783,0,0,0,0,0,0,0,0,0,-1,1602,1807,0,0
385,-783,0,0,0,0,0,0,0,0,0,-1,1609,1807,0,0
392,-783,0,0,0,0,0,0,0,0,0,-1,1616,1807,0,0
399,-783,0,0,0,0,0,0,0,0,0,-1,1623,1807,0,0
406,-783,0,0,0,0,0,0,0,0,0,-1,1630,1807,0,0
413,-783,0,0,0,0,0,0,0,0,0,-1,1637,1807,0,0
420,-783,0,0,0,0,0,0,0,0,0,-1,1644,1807,0,0
427,-783,0,0,0,0,0,0,0,0,0,-1,1651,1807,0,0
434,-783,0,0,0,0,0,0,0,0,0,-1,1658,1807,0,0
441,-783,0,0,0,0,0,0,0,0,0,-1,1665,1807,0,0
448,-783,0,0,0,0,0,0,0,0,0,-1,1672,1807,0,0
455,-783,0,0,0,0,0,0,0,0,0,-1,1679,1807,0,0
462,-783,0,0,0,0,0,0,0,0,0,-1,1686,1807,0,0
469,-783,0,0,0,0,0,0,0,0,0,-1,1693,1807,0,0
476,-783,0,0,0,0,0,0,0,0,0,-1,1700,1807,0,0
483,-783,0,0,0,0,0,0,0,0,0,-1,1707,1807,0,0
490,-783,0,0,0,0,0,0,0,0,0,-1,1714,1807,0,0
497,-783,0,0,0,0,0,0,0,0,0,-1,1721,1807,0,0
504,-783,0,0,0,0,0,0,0,0,0,-1,1728,1807,0,0
511,-783,0,0,0,0,0,0,0,0,0,-1,1735,1807,0,0
518,-783,0,0,0,0,0,0,0,0,0,-1,1742,1807,0,0
525,-783,0,0,0,0,0,0,0,0,0,-1,1749,1807,0,0
532,-783,0,0,0,0,0,0,0,0,0,-1,1756,1807,0,0
539,-783,0,0,0,0,0,0,0,0,0,-1,1763,1807,0,0
546,-783,0,0,0,0,0,0,0,0,0,-1,1770,1807,0,0
553,-783,0,0,0,0,0,0,0,0,0,-1,1777,1807,0,0
560,-783,0,0,0,0,0,0,0,0,0,-1,1784,1807,0,0
567,-783,0,0,0,0,0,0,0,0,0,-1,1791,1807,0,0
574,-783,0,0,0,0,0,0,0,0,0,-1,1798,1807,0,0
581,-783,0,0,0,0,0,0,0,0,0,-1,1805,1807,0,0
588,-783,0,0,0,0,0,0,0,0,0,-1,1812,1807,0,0
595,-783,0,0,0,0,0,0,0,0,0,-1,1819,1807,0,0
602,-783,0,0,0,0,0,0,0,0,0,-1,1826,1807,0,0
609,-783,0,0,0,0,0,0,0,0,0,-1,1833,1807,0,0
616,-783,0,0,0,0,0,0,0,0,0,-1,1840,1807,0,0
623,-783,0,0,0,0,0,0,0,0,0,-1,1847,1807,0,0
630,-783,0,0,0,0,0,0,0,0,0,-1,1854,1807,0,0
637,-783,0,0,0,0,0,0,0,0,0,-1,1861,1807,0,0
644,-783,0,0,0,0,0,0,0,0,0,-1,1868,1807,0,0
651,-783,0,0,0,0,0,0,0,0,0,-1,1875,1807,0,0
658,-783,0,0,0,0,0,0,0,0,0,-1,1882,1807,0,0
665,-783,0,0,0,0,0,0,0,0,0,-1,1889,1807,0,0
672,-783,0,0,0,0,0,0,0,0,0,-1,1896,1807,0,0
679,-783,0,0,0,0,0,0,0,0,0,-1,1903,1807,0,0
686,-783,0,0,0,0,0,0,0,0,0,-1,1910,1807,0,0
693,-783,0,0,0,0,0,0,0,0,0,-1,1917,1807,0,0
700,-783,0,0,0,0,0,0,0,0,0,-1,1924,1807,0,0
707,-783,0,0,0,0,0,0,0,0,0,-1,1931,1807,0,0
714,-783,0,0,0,0,0,0,0,0,0,-1,1938,1807,0,0
721,-783,0,0,0,0,0,0,0,0,0,-1,1945,1807,0,0
728,-783,0,0,0,0,0,0,0,0,0,-1,1952,1807,0,0
735,-783,0,0,0,0,0,0,0,0,0,-1,1959,1807,0,0
742,-783,0,0,0,0,0,0,0,0,0,-1,1966,1807,0,0
749,-783,0,0,0,0,0,0,0,0,0,-1,1973,1807,0,0
756,-783,0,0,0,0,0,0,0,0,0,-1,1980,1807,0,0
763,-783,0,0,0,0,0,0,0,0,0,-1,1987,1807,0,0
770,-783,0,0,0,0,0,0,0,0,0,-1,1994,1807,0,0
777,-783,0,0,0,0,0,0,0,0,0,-1,2001,1807,0,0
784,-783,0,0,0,0,0,0,0,0,0,-1,2008,1807,0,0
791,-783,0,0,0,0,0,0,0,0,0,-1,2015,1807,0,0
798,-783,0,0,0,0,0,0,0,0,0,-1,2022,1807,0,0
805,-783,0,0,0,0,0,0,0,0,0,-1,2029,1807,0,0
812,-783,0,0,0,0,0,0,0,0,0,-1,2036,1807,0,0
-700,-790,0,0,0,0,0,0,0,0,0,-1,524,1814,0,0
-693,-790,0,0,0,0,0,0,0,0,0,-1,531,1814,0,0
-686,-790,0,0,0,0,0,0,0,0,0,-1,538,1814,0,0
-679,-790,0,0,0,0,0,0,0,0,0,-1,545,1814,0,0
-672,-790,0,0,0,0,0,0,0,0,0,-1,552,1814,0,0
-665,-790,0,0,0,0,0,0,0,0,0,-1,559,1814,0,0
-658,-790,0,0,0,0,0,0,0,0,0,-1,566,1814,0,0
-651,-790,0,0,0,0,0,0,0,0,0,-1,573,1814,0,0
-644,-790,0,0,0,0,0,0,0,0,0,-1,580,1814,0,0
-637,-790,0,0,0,0,0,0,0,0,0,-1,587,1814,0,0
-630,-790,0,0,0,0,0,0,0,0,0,-1,594,1814,0,0
-623,-790,0,0,0,0,0,0,0,0,0,-1,601,1814,0,0
-616,-790,0,0,0,0,0,0,0,0,0,-1,608,1814,0,0
-609,-790,0,0,0,0,0,0,0,0,0,-1,615,1814,0,0
-602,-790,0,0,0,0,0,0,0,0,0,-1,622,1814,0,0
-595,-790,0,0,0,0,0,0,0,0,0,-1,629,1814,0,0
-588,-790,0,0,0,0,0,0,0,0,0,-1,636,1814,0,0
-581,-790,0,0,0,0,0,0,0,0,0,-1,643,1814,0,0
-574,-790,0,0,0,0,0,0,0,0,0,-1,650,1814,0,0
-567,-790,0,0,0,0,0,0,0,0,0,-1,657,1814,0,0
-560,-790,0,0,0,0,0,0,0,0,0,-1,664,1814,0,0
-553,-790,0,0,0,0,0,0,0,0,0,-1,671,1814,0,0
-546,-790,0,0,0,0,0,0,0,0,0,-1,678,1814,0,0
-539,-790,0,0,0,0,0,0,0,0,0,-1,685,1814,0,0
-532,-790,0,0,0,0,0,0,0,0,0,-1,692,1814,0,0
-525,-790,0,0,0,0,0,0,0,0,0,-1,699,1814,0,0
-518,-790,0,0,0,0,0,0,0,0,0,-1,706,1814,0,0
-511,-790,0,0,0,0,0,0,0,0,0,-1,713,1814,0,0
-504,-790,0,0,0,0,0,0,0,0,0,-1,720,1814,0,0
-497,-790,0,0,0,0,0,0,0,0,0,-1,727,1814,0,0
-490,-790,0,0,0,0,0,0,0,0,0,-1,734,1814,0,0
-483,-790,0,0,0,0,0,0,0,0,0,-1,741,1814,0,0
-476,-790,0,0,0,0,0,0,0,0,0,-1,748,1814,0,0
-469,-790,0,0,0,0,0,0,0,0,0,-1,755,1814,0,0
-462,-790,0,0,0,0,0,0,0,0,0,-1,762,1814,0,0
-455,-790,0,0,0,0,0,0,0,0,0,-1,769,1814,0,0
-448,-790,0,0,0,0,0,0,0,0,0,-1,776,1814,0,0
-441,-790,0,0,0,0,0,0,0,0,0,-1,783,1814,0,0
-434,-790,0,0,0,0,0,0,0,0,0,-1,790,1814,0,0
-427,-790,0,0,0,0,0,0,0,0,0,-1,797,1814,0,0
-420,-790,0,0,0,0,0,0,0,0,0,-1,804,1814,0,0
-413,-790,0,0,0,0,0,0,0,0,0,-1,811,1814,0,0
-406,-790,0,0,0,0,0,0,0,0,0,-1,818,1814,0,0
-399,-790,0,0,0,0,0,0,0,0,0,-1,825,1814,0,0
-392,-790,0,0,0,0,0,0,0,0,0,-1,832,1814,0,0
-385,-790,0,0,0,0,0,0,0,0,0,-1,839,1814,0,0
-378,-790,0,0,0,0,0,0,0,0,0,-1,846,1814,0,0
-371,-790,0,0,0,0,0,0,0,0,0,-1,853,1814,0,0
-364,-790,0,0,0,0,0,0,0,0,0,-1,860,1814,0,0
-357,-790,0,0,0,0,0,0,0,0,0,-1,867,1814,0,0
-350,-790,0,0,0,0,0,0,0,0,0,-1,874,1814,0,0
-343,-790,0,0,0,0,0,0,0,0,0,-1,881,1814,0,0
-336,-790,0,0,0,0,0,0,0,0,0,-1,888,1814,0,0
-329,-790,0,0,0,0,0,0,0,0,0,-1,895,1814,0,0
-322,-790,0,0,0,0,0,0,0,0,0,-1,902,1814,0,0
-315,-790,0,0,0,0,0,0,0,0,0,-1,909,1814,0,0
-308,-790,0,0,0,0,0,0,0,0,0,-1,916,1814,0,0
-301,-790,0,0,0,0,0,0,0,0,0,-1,923,1814,0,0
-294,-790,0,0,0,0,0,0,0,0,0,-1,930,1814,0,0
-287,-790,0,0,0,0,0,0,0,0,0,-1,937,1814,0,0
-280,-790,0,0,0,0,0,0,0,0,0,-1,944,1814,0,0
-273,-790,0,0,0,0,0,0,0,0,0,-1,951,1814,0,0
-266,-790,0,0,0,0,0,0,0,0,0,-1,958,1814,0,0
-259,-790,0,0,0,0,0,0,0,0,0,-1,965,1814,0,0
-252,-790,0,0,0,0,0,0,0,0,0,-1,972,1814,0,0
-245,-790,0,0,0,0,0,0,0,0,0,-1,979,1814,0,0
-238,-790,0,0,0,0,0,0,0,0,0,-1,986,1814,0,0
-231,-790,0,0,0,0,0,0,0,0,0,-1,993,1814,0,0
-224,-790,0,0,0,0,0,0,0,0,0,-1,1000,1814,0,0
-217,-790,0,0,0,0,0,0,0,0,0,-1,1007,1814,0,0
-210,-790,0,0,0,0,0,0,0,0,0,-1,1014,1814,0,0
-203,-790,0,0,0,0,0,0,0,0,0,-1,1021,1814,0,0
-196,-790,0,0,0,0,0,0,0,0,0,-1,1028,1814,0,0
-189,-790,0,0,0,0,0,0,0,0,0,-1,1035,1814,0,0
-182,-790,0,0,0,0,0,0,0,0,0,-1,1042,1814,0,0
-175,-790,0,0,0,0,0,0,0,0,0,-1,1049,1814,0,0
-168,-790,0,0,0,0,0,0,0,0,0,-1,1056,1814,0,0
-161,-790,0,0,0,0,0,0,0,0,0,-1,1063,1814,0,0
-154,-790,0,0,0,0,0,0,0,0,0,-1,1070,1814,0,0
-147,-790,0,0,0,0,0,0,0,0,0,-1,1077,1814,0,0
-140,-790,0,0,0,0,0,0,0,0,0,-1,1084,1814,0,0
-133,-790,0,0,0,0,0,0,0,0,0,-1,1091,1814,0,0
-126,-790,0,0,0,0,0,0,0,0,0,-1,1098,1814,0,0
-119,-790,0,0,0,0,0,0,0,0,0,-1,1105,1814,0,0
-112,-790,0,0,0,0,0,0,0,0,0,-1,1112,1814,0,0
-105,-790,0,0,0,0,0,0,0,0,0,-1,1119,1814,0,0
-98,-790,0,0,0,0,0,0,0,0,0,-1,1126,1814,0,0
-91,-790,0,0,0,0,0,0,0,0,0,-1,1133,1814,0,0
-84,-790,0,0,0,0,0,0,0,0,0,-1,1140,1814,0,0
-77,-790,-1.61328,2.02075,-0.0630836,-0.0287041,0.0107127,-0.0256392,-0.0661485,1.29214,0.0385112,0.0433338,1147,1814,-1.61323,-2.02081
-70,-790,-1.74817,1.89734,-0.0499513,-0.0281868,0.0156042,-0.020045,-0.0580931,1.08988,0.0340727,0.047809,1154,1814,-1.74819,-1.89731
-63,-790,-1.91406,1.76953,0,0,0,0,0,0,0,-1,1161,1814,-1.91406,-1.7695
-56,-790,1.51978,3.66736,0,0,0,0,0,0,0,-1,1168,1814,1.5198,-3.66732
-49,-790,0.961548,2.47803,0,0,0,0,0,0,0,-1,1175,1814,0.961575,-2.47803
-42,-790,0.593262,1.19165,0,0,0,0,0,0,0,-1,1182,1814,0.593225,-1.19165
-35,-790,0.307129,-0.20105,0,0,0,0,0,0,0,-1,1189,1814,0.307178,0.201006
-28,-790,-0.632935,4.25732,0,0,0,0,0,0,0,-1,1196,1814,-0.632924,-4.25727
-21,-790,0.298462,3.66357,0,0,0,0,0,0,0,-1,1203,1814,0.298437,-3.66363
-14,-790,0.445435,3.17139,0.0782395,0.0173715,0.0168385,0.0825871,0.0130239,0.252679,0.0512712,0.0420749,1210,1814,0.445442,-3.17144
-7,-790,0.634155,2.65417,0.0843392,0.0272681,0.0180957,0.0895932,0.0220141,0.282575,0.0539104,0.0415358,1217,1814,0.634114,-2.65419
0,-790,1.26868,1.84485,0.0846625,0.0369297,0.0206187,0.0923356,0.0292566,0.356261,0.0544891,0.0425515,1224,1814,1.26867,-1.8449
7,-790,2.10767,0.803711,0.0795077,0.0426323,0.0226934,0.0903094,0.0318306,0.444249,0.0528914,0.0419952,1231,1814,2.10761,-0.803693
14,-790,2.98022,-0.0767822,0.0738423,0.0449121,0.023027,0.0865707,0.0321838,0.504957,0.0505266,0.0438596,1238,1814,2.98023,0.0767873
21,-790,3.91406,-0.490479,0.0660307,0.0448853,0.0225447,0.0803587,0.0305573,0.566141,0.0468365,0.0468749,1245,1814,3.91405,0.490523
28,-790,2.16882,2.75989,0.0604451,0.044893,0.0257522,0.0795697,0.0257684,0.638773,0.0468803,0.0476945,1252,1814,2.16877,-2.75986
35,-790,1.87622,3.89893,0,0,0,0,0,0,0,-1,1259,1814,1.87618,-3.8989
42,-790,2.27795,3.83691,0.0526254,0.0351561,0.0205594,0.0662287,0.0215528,0.584527,0.0390063,0.0438829,1266,1814,2.27795,-3.83692
49,-790,2.57397,3.49976,0.0454376,0.0294149,0.017006,0.0562249,0.0186277,0.565271,0.0330716,0.0474008,1273,1814,2.57397,-3.49976
56,-790,1.68347,4.80591,0,0,0,0,0,0,0,-1,1280,1814,1.68351,-4.80589
63,-790,1.83716,4.75391,0.0402118,0.0236076,0.0112467,0.0458888,0.0179306,0.467451,0.0267039,0.0481155,1287,1814,1.83714,-4.75389
70,-790,1.9884,4.66772,0.04081,0.0244024,0.00512779,0.0422808,0.0229316,0.279317,0.02444,0.0440996,1294,1814,1.98838,-4.66774
77,-790,2.21619,4.38184,0,0,0,0,0,0,0,-1,1301,1814,2.21624,-4.38183
84,-790,3.63892,3.82874,0,0,0,0,0,0,0,-1,1308,1814,3.63894,-3.82868
91,-790,3.12842,3.64075,0.0554654,0.0450875,-0.0212055,0.0721075,0.0284454,-0.665407,0.0419392,0.0463274,1315,1814,3.12843,-3.64077
98,-790,2.60132,3.39429,0.0617348,0.057441,-0.0281648,0.0878344,0.0313413,-0.747359,0.0513996,0.0476051,1322,1814,2.60134,-3.39427
105,-790,2.04028,3.22754,0,0,0,0,0,0,0,-1,1329,1814,2.0403,-3.22753
112,-790,-1.16626,5.01794,0.0786461,0.0766823,-0.0443044,0.12198,0.0333489,-0.774319,0.0727958,0.0484273,1336,1814,-1.16623,-5.0179
119,-790,-0.408081,4.73889,0.0878144,0.0869126,-0.0516969,0.139062,0.0356647,-0.781038,0.0834018,0.0467595,1343,1814,-0.408085,-4.73892
126,-790,0.327026,4.36328,0.0928769,0.0903487,-0.0549982,0.146626,0.0366,-0.773908,0.0881214,0.0467454,1350,1814,0.327024,-4.36328
133,-790,1.05017,3.89075,0.0922493,0.0868043,-0.059928,0.149517,0.029537,-0.762699,0.0914364,0.0456841,1357,1814,1.05021,-3.89073
140,-790,1.78247,3.49036,0.0914441,0.0857843,-0.0559696,0.144655,0.0325732,-0.760139,0.0876211,0.0489358,1364,1814,1.78252,-3.49036
147,-790,2.34534,3.21704,0,0,0,0,0,0,0,-1,1371,1814,2.34532,-3.21707
154,-790,3.08459,3.01599,0.0942575,0.070945,-0.0442257,0.128337,0.0368652,-0.656547,0.0762985,0.0437829,1378,1814,3.08458,-3.01602
161,-790,3.8905,2.55579,0.0836444,0.0577404,-0.0347953,0.10782,0.0335647,-0.607226,0.0637105,0.0447446,1385,1814,3.8905,-2.55579
168,-790,4.43188,2.31714,0,0,0,0,0,0,0,-1,1392,1814,4.43183,-2.31711
175,-790,4.80994,1.57251,0.0583242,0.0315837,-0.0159216,0.0657448,0.024163,-0.43614,0.0383993,0.0460506,1399,1814,4.80989,-1.57251
182,-790,4.98743,1.89929,0.0450229,0.0198401,-0.00854379,0.047648,0.0172151,-0.298089,0.0278602,0.0450092,1406,1814,4.98742,-1.8993
189,-790,5.10681,2.37158,0,0,0,0,0,0,0,-1,1413,1814,5.10683,-2.37153
196,-790,5.28809,2.79187,0,0,0,0,0,0,0,-1,1420,1814,5.28808,-2.79192
203,-790,0,0,0,0,0,0,0,0,0,-1,1427,1814,0,0
210,-790,0,0,0,0,0,0,0,0,0,-1,1434,1814,0,0
217,-790,0,0,0,0,0,0,0,0,0,-1,1441,1814,0,0
224,-790,0,0,0,0,0,0,0,0,0,-1,1448,1814,0,0
231,-790,0,0,0,0,0,0,0,0,0,-1,1455,1814,0,0
238,-790,0,0,0,0,0,0,0,0,0,-1,1462,1814,0,0
245,-790,0,0,0,0,0,0,0,0,0,-1,1469,1814,0,0
252,-790,0,0,0,0,0,0,0,0,0,-1,1476,1814,0,0
259,-790,0,0,0,0,0,0,0,0,0,-1,1483,1814,0,0
266,-790,0,0,0,0,0,0,0,0,0,-1,1490,1814,0,0
273,-790,0,0,0,0,0,0,0,0,0,-1,1497,1814,0,0
280,-790,0,0,0,0,0,0,0,0,0,-1,1504,1814,0,0
287,-790,0,0,0,0,0,0,0,0,0,-1,1511,1814,0,0
294,-790,0,0,0,0,0,0,0,0,0,-1,1518,1814,0,0
301,-790,0,0,0,0,0,0,0,0,0,-1,1525,1814,0,0
308,-790,0,0,0,0,0,0,0,0,0,-1,1532,1814,0,0
315,-790,0,0,0,0,0,0,0,0,0,-1,1539,1814,0,0
322,-790,0,0,0,0,0,0,0,0,0,-1,1546,1814,0,0
329,-790,0,0,0,0,0,0,0,0,0,-1,1553,1814,0,0
336,-790,0,0,0,0,0,0,0,0,0,-1,1560,1814,0,0
343,-790,0,0,0,0,0,0,0,0,0,-1,1567,1814,0,0
350,-790,0,0,0,0,0,0,0,0,0,-1,1574,1814,0,0
357,-790,0,0,0,0,0,0,0,0,0,-1,1581,1814,0,0
364,-790,0,0,0,0,0,0,0,0,0,-1,1588,1814,0,0
371,-790,0,0,0,0,0,0,0,0,0,-1,1595,1814,0,0
378,-790,0,0,0,0,0,0,0,0,0,-1,1602,1814,0,0
385,-790,0,0,0,0,0,0,0,0,0,-1,1609,1814,0,0
392,-790,0,0,0,0,0,0,0,0,0,-1,1616,1814,0,0
399,-790,0,0,0,0,0,0,0,0,0,-1,1623,1814,0,0
406,-790,0,0,0,0,0,0,0,0,0,-1,1630,1814,0,0
413,-790,0,0,0,0,0,0,0,0,0,-1,1637,1814,0,0
420,-790,0,0,0,0,0,0,0,0,0,-1,1644,1814,0,0
427,-790,0,0,0,0,0,0,0,0,0,-1,1651,1814,0,0
434,-790,0,0,0,0,0,0,0,0,0,-1,1658,1814,0,0
441,-790,0,0,0,0,0,0,0,0,0,-1,1665,1814,0,0
448,-790,0,0,0,0,0,0,0,0,0,-1,1672,1814,0,0
455,-790,0,0,0,0,0,0,0,0,0,-1,1679,1814,0,0
462,-790,0,0,0,0,0,0,0,0,0,-1,1686,1814,0,0
469,-790,0,0,0,0,0,0,0,0,0,-1,1693,1814,0,0
476,-790,0,0,0,0,0,0,0,0,0,-1,1700,1814,0,0
483,-790,0,0,0,0,0,0,0,0,0,-1,1707,1814,0,0
490,-790,0,0,0,0,0,0,0,0,0,-1,1714,1814,0,0
497,-790,0,0,0,0,0,0,0,0,0,-1,1721,1814,0,0
504,-790,0,0,0,0,0,0,0,0,0,-1,1728,1814,0,0
511,-790,0,0,0,0,0,0,0,0,0,-1,1735,1814,0,0
518,-790,0,0,0,0,0,0,0,0,0,-1,1742,1814,0,0
525,-790,0,0,0,0,0,0,0,0,0,-1,1749,1814,0,0
532,-790,0,0,0,0,0,0,0,0,0,-1,1756,1814,0,0
539,-790,0,0,0,0,0,0,0,0,0,-1,1763,1814,0,0
546,-790,0,0,0,0,0,0,0,0,0,-1,1770,1814,0,0
553,-790,0,0,0,0,0,0,0,0,0,-1,1777,1814,0,0
560,-790,0,0,0,0,0,0,0,0,0,-1,1784,1814,0,0
567,-790,0,0,0,0,0,0,0,0,0,-1,1791,1814,0,0
574,-790,0,0,0,0,0,0,0,0,0,-1,1798,1814,0,0
581,-790,0,0,0,0,0,0,0,0,0,-1,1805,1814,0,0
588,-790,0,0,0,0,0,0,0,0,0,-1,1812,1814,0,0
595,-790,0,0,0,0,0,0,0,0,0,-1,1819,1814,0,0
602,-790,0,0,0,0,0,0,0,0,0,-1,1826,1814,0,0
609,-790,0,0,0,0,0,0,0,0,0,-1,1833,1814,0,0
616,-790,0,0,0,0,0,0,0,0,0,-1,1840,1814,0,0
623,-790,0,0,0,0,0,0,0,0,0,-1,1847,1814,0,0
630,-790,0,0,0,0,0,0,0,0,0,-1,1854,1814,0,0
637,-790,0,0,0,0,0,0,0,0,0,-1,1861,1814,0,0
644,-790,0,0,0,0,0,0,0,0,0,-1,1868,1814,0,0
651,-790,0,0,0,0,0,0,0,0,0,-1,1875,1814,0,0
658,-790,0,0,0,0,0,0,0,0,0,-1,1882,1814,0,0
665,-790,0,0,0,0,0,0,0,0,0,-1,1889,1814,0,0
672,-790,0,0,0,0,0,0,0,0,0,-1,1896,1814,0,0
679,-790,0,0,0,0,0,0,0,0,0,-1,1903,1814,0,0
686,-790,0,0,0,0,0,0,0,0,0,-1,1910,1814,0,0
693,-790,0,0,0,0,0,0,0,0,0,-1,1917,1814,0,0
700,-790,0,0,0,0,0,0,0,0,0,-1,1924,1814,0,0
707,-790,0,0,0,0,0,0,0,0,0,-1,1931,1814,0,0
714,-790,0,0,0,0,0,0,0,0,0,-1,1938,1814,0,0
721,-790,0,0,0,0,0,0,0,0,0,-1,1945,1814,0,0
728,-790,0,0,0,0,0,0,0,0,0,-1,1952,1814,0,0
735,-790,0,0,0,0,0,0,0,0,0,-1,1959,1814,0,0
742,-790,0,0,0,0,0,0,0,0,0,-1,1966,1814,0,0
749,-790,0,0,0,0,0,0,0,0,0,-1,1973,1814,0,0
756,-790,0,0,0,0,0,0,0,0,0,-1,1980,1814,0,0
763,-790,0,0,0,0,0,0,0,0,0,-1,1987,1814,0,0
770,-790,0,0,0,0,0,0,0,0,0,-1,1994,1814,0,0
777,-790,0,0,0,0,0,0,0,0,0,-1,2001,1814,0,0
784,-790,0,0,0,0,0,0,0,0,0,-1,2008,1814,0,0
791,-790,0,0,0,0,0,0,0,0,0,-1,2015,1814,0,0
798,-790,0,0,0,0,0,0,0,0,0,-1,2022,1814,0,0
805,-790,0,0,0,0,0,0,0,0,0,-1,2029,1814,0,0
812,-790,0,0,0,0,0,0,0,0,0,-1,2036,1814,0,0
-700,-797,0,0,0,0,0,0,0,0,0,-1,524,1821,0,0
-693,-797,0,0,0,0,0,0,0,0,0,-1,531,1821,0,0
-686,-797,0,0,0,0,0,0,0,0,0,-1,538,1821,0,0
-679,-797,0,0,0,0,0,0,0,0,0,-1,545,1821,0,0
-672,-797,0,0,0,0,0,0,0,0,0,-1,552,1821,0,0
-665,-797,0,0,0,0,0,0,0,0,0,-1,559,1821,0,0
-658,-797,0,0,0,0,0,0,0,0,0,-1,566,1821,0,0
-651,-797,0,0,0,0,0,0,0,0,0,-1,573,1821,0,0
-644,-797,0,0,0,0,0,0,0,0,0,-1,580,1821,0,0
-637,-797,0,0,0,0,0,0,0,0,0,-1,587,1821,0,0
-630,-797,0,0,0,0,0,0,0,0,0,-1,594,1821,0,0
-623,-797,0,0,0,0,0,0,0,0,0,-1,601,1821,0,0
-616,-797,0,0,0,0,0,0,0,0,0,-1,608,1821,0,0
-609,-797,0,0,0,0,0,0,0,0,0,-1,615,1821,0,0
-602,-797,0,0,0,0,0,0,0,0,0,-1,622,1821,0,0
-595,-797,0,0,0,0,0,0,0,0,0,-1,629,1821,0,0
-588,-797,0,0,0,0,0,0,0,0,0,-1,636,1821,0,0
-581,-797,0,0,0,0,0,0,0,0,0,-1,643,1821,0,0
-574,-797,0,0,0,0,0,0,0,0,0,-1,650,1821,0,0
-567,-797,0,0,0,0,0,0,0,0,0,-1,657,1821,0,0
-560,-797,0,0,0,0,0,0,0,0,0,-1,664,1821,0,0
-553,-797,0,0,0,0,0,0,0,0,0,-1,671,1821,0,0
-546,-797,0,0,0,0,0,0,0,0,0,-1,678,1821,0,0
-539,-797,0,0,0,0,0,0,0,0,0,-1,685,1821,0,0
-532,-797,0,0,0,0,0,0,0,0,0,-1,692,1821,0,0
-525,-797,0,0,0,0,0,0,0,0,0,-1,699,1821,0,0
-518,-797,0,0,0,0,0,0,0,0,0,-1,706,1821,0,0
-511,-797,0,0,0,0,0,0,0,0,0,-1,713,1821,0,0
-504,-797,0,0,0,0,0,0,0,0,0,-1,720,1821,0,0
-497,-797,0,0,0,0,0,0,0,0,0,-1,727,1821,0,0
-490,-797,0,0,0,0,0,0,0,0,0,-1,734,1821,0,0
-483,-797,0,0,0,0,0,0,0,0,0,-1,741,1821,0,0
-476,-797,0,0,0,0,0,0,0,0,0,-1,748,1821,0,0
-469,-797,0,0,0,0,0,0,0,0,0,-1,755,1821,0,0
-462,-797,0,0,0,0,0,0,0,0,0,-1,762,1821,0,0
-455,-797,0,0,0,0,0,0,0,0,0,-1,769,1821,0,0
-448,-797,0,0,0,0,0,0,0,0,0,-1,776,1821,0,0
-441,-797,0,0,0,0,0,0,0,0,0,-1,783,1821,0,0
-434,-797,0,0,0,0,0,0,0,0,0,-1,790,1821,0,0
-427,-797,0,0,0,0,0,0,0,0,0,-1,797,1821,0,0
-420,-797,0,0,0,0,0,0,0,0,0,-1,804,1821,0,0
-413,-797,0,0,0,0,0,0,0,0,0,-1,811,1821,0,0
-406,-797,0,0,0,0,0,0,0,0,0,-1,818,1821,0,0
-399,-797,0,0,0,0,0,0,0,0,0,-1,825,1821,0,0
-392,-797,0,0,0,0,0,0,0,0,0,-1,832,1821,0,0
-385,-797,0,0,0,0,0,0,0,0,0,-1,839,1821,0,0
-378,-797,0,0,0,0,0,0,0,0,0,-1,846,1821,0,0
-371,-797,0,0,0,0,0,0,0,0,0,-1,853,1821,0,0
-364,-797,0,0,0,0,0,0,0,0,0,-1,860,1821,0,0
-357,-797,0,0,0,0,0,0,0,0,0,-1,867,1821,0,0
-350,-797,0,0,0,0,0,0,0,0,0,-1,874,1821,0,0
-343,-797,0,0,0,0,0,0,0,0,0,-1,881,1821,0,0
-336,-797,0,0,0,0,0,0,0,0,0,-1,888,1821,0,0
-329,-797,0,0,0,0,0,0,0,0,0,-1,895,1821,0,0
-322,-797,0,0,0,0,0,0,0,0,0,-1,902,1821,0,0
-315,-797,0,0,0,0,0,0,0,0,0,-1,909,1821,0,0
-308,-797,0,0,0,0,0,0,0,0,0,-1,916,1821,0,0
-301,-797,0,0,0,0,0,0,0,0,0,-1,923,1821,0,0
-294,-797,0,0,0,0,0,0,0,0,0,-1,930,1821,0,0
-287,-797,0,0,0,0,0,0,0,0,0,-1,937,1821,0,0
-280,-797,0,0,0,0,0,0,0,0,0,-1,944,1821,0,0
-273,-797,0,0,0,0,0,0,0,0,0,-1,951,1821,0,0
-266,-797,0,0,0,0,0,0,0,0,0,-1,958,1821,0,0
-259,-797,0,0,0,0,0,0,0,0,0,-1,965,1821,0,0
-252,-797,0,0,0,0,0,0,0,0,0,-1,972,1821,0,0
-245,-797,0,0,0,0,0,0,0,0,0,-1,979,1821,0,0
-238,-797,0,0,0,0,0,0,0,0,0,-1,986,1821,0,0
-231,-797,0,0,0,0,0,0,0,0,0,-1,993,1821,0,0
-224,-797,0,0,0,0,0,0,0,0,0,-1,1000,1821,0,0
-217,-797,0,0,0,0,0,0,0,0,0,-1,1007,1821,0,0
-210,-797,0,0,0,0,0,0,0,0,0,-1,1014,1821,0,0
-203,-797,0,0,0,0,0,0,0,0,0,-1,1021,1821,0,0
-196,-797,0,0,0,0,0,0,0,0,0,-1,1028,1821,0,0
-189,-797,0,0,0,0,0,0,0,0,0,-1,1035,1821,0,0
-182,-797,0,0,0,0,0,0,0,0,0,-1,1042,1821,0,0
-175,-797,0,0,0,0,0,0,0,0,0,-1,1049,1821,0,0
-168,-797,0,0,0,0,0,0,0,0,0,-1,1056,1821,0,0
-161,-797,0,0,0,0,0,0,0,0,0,-1,1063,1821,0,0
-154,-797,0,0,0,0,0,0,0,0,0,-1,1070,1821,0,0
-147,-797,0,0,0,0,0,0,0,0,0,-1,1077,1821,0,0
-140,-797,0,0,0,0,0,0,0,0,0,-1,1084,1821,0,0
-133,-797,0,0,0,0,0,0,0,0,0,-1,1091,1821,0,0
-126,-797,0,0,0,0,0,0,0,0,0,-1,1098,1821,0,0
-119,-797,0,0,0,0,0,0,0,0,0,-1,1105,1821,0,0
-112,-797,0,0,0,0,0,0,0,0,0,-1,1112,1821,0,0
-105,-797,0,0,0,0,0,0,0,0,0,-1,1119,1821,0,0
-98,-797,0,0,0,0,0,0,0,0,0,-1,1126,1821,0,0
-91,-797,0,0,0,0,0,0,0,0,0,-1,1133,1821,0,0
-84,-797,0,0,0,0,0,0,0,0,0,-1,1140,1821,0,0
-77,-797,0,0,0,0,0,0,0,0,0,-1,1147,1821,0,0
-70,-797,0,0,0,0,0,0,0,0,0,-1,1154,1821,0,0
-63,-797,0,0,0,0,0,0,0,0,0,-1,1161,1821,0,0
-56,-797,0,0,0,0,0,0,0,0,0,-1,1168,1821,0,0
-49,-797,0,0,0,0,0,0,0,0,0,-1,1175,1821,0,0
-42,-797,0.579834,0.692871,0,0,0,0,0,0,0,-1,1182,1821,0.579856,-0.692816
-35,-797,-0.185425,5.55396,0,0,0,0,0,0,0,-1,1189,1821,-0.18542,-5.55396
-28,-797,-0.310181,4.71509,0,0,0,0,0,0,0,-1,1196,1821,-0.310228,-4.71503
-21,-797,-0.304688,3.99292,0,0,0,0,0,0,0,-1,1203,1821,-0.304709,-3.99296
-14,-797,-0.623291,3.30383,0.0948283,0.0187071,0.0125746,0.0968517,0.0166836,0.159547,0.0597876,0.044454,1210,1821,-0.623299,-3.30389
-7,-797,-0.806519,2.60022,0.103012,0.0320962,0.0149665,0.106041,0.029067,0.199704,0.0632712,0.0495341,1217,1821,-0.80656,-2.60018
0,-797,0.931519,2.25122,0.103724,0.0451129,0.0187137,0.109189,0.0396475,0.28415,0.0638231,0.0447999,1224,1821,0.931523,-2.25122
7,-797,1.93542,0.852905,0.0981536,0.0519085,0.0215627,0.106648,0.0434146,0.375253,0.0619264,0.0440018,1231,1821,1.93541,-0.852959
14,-797,2.86646,-0.706177,0.091448,0.0550024,0.0221736,0.101926,0.0445244,0.441444,0.0590034,0.0419758,1238,1821,2.8665,0.706207
21,-797,4.28186,-0.61438,0,0,0,0,0,0,0,-1,1245,1821,4.28189,0.614424
28,-797,1.83264,2.3291,0.0770651,0.0560245,0.0279486,0.0964078,0.0366818,0.605393,0.0561886,0.0486456,1252,1821,1.83267,-2.32905
35,-797,2.66907,4.53955,0.0754711,0.0501922,0.0258982,0.0916496,0.0340137,0.55838,0.0534966,0.0476964,1259,1821,2.66913,-4.5395
42,-797,2.83386,4.01025,0.0710279,0.0454985,0.0238529,0.0853169,0.0312096,0.539716,0.0498456,0.0472114,1266,1821,2.83384,-4.01029
49,-797,2.73987,3.31946,0.0629671,0.0392779,0.020968,0.0752046,0.0270403,0.528297,0.0439866,0.0494637,1273,1821,2.7399,-3.31949
56,-797,1.4458,5.31726,0.0582068,0.0344416,0.0196929,0.0693243,0.023324,0.513942,0.0407319,0.042799,1280,1821,1.44583,-5.31724
63,-797,1.8728,4.96436,0.0579543,0.0330144,0.0166187,0.0662613,0.0247073,0.463534,0.0386659,0.0447692,1287,1821,1.87278,-4.96433
70,-797,2.03284,4.86597,0,0,0,0,0,0,0,-1,1294,1821,2.03279,-4.86599
77,-797,5.33252,4.2301,0.064358,0.0355494,0.00108763,0.064399,0.0355084,0.037682,0.0372462,0.0438944,1301,1821,5.33246,-4.23011
84,-797,4.31946,3.80688,0.0701971,0.0455532,-0.0111255,0.0744766,0.0412737,-0.367209,0.0430832,0.0492597,1308,1821,4.31951,-3.80691
91,-797,3.58838,3.51611,0.0751521,0.0578557,-0.0199668,0.0882632,0.0447446,-0.58103,0.0509604,0.0497362,1315,1821,3.58837,-3.51615
98,-797,3.04065,3.25745,0.0815691,0.0721753,-0.0287886,0.106041,0.047703,-0.704535,0.0613256,0.0474715,1322,1821,3.04071,-3.25743
105,-797,-1.76123,4.71375,0,0,0,0,0,0,0,-1,1329,1821,-1.7612,-4.71375
112,-797,-0.88855,4.2356,0.0983888,0.094577,-0.0490753,0.145595,0.0473705,-0.76599,0.0857516,0.045742,1336,1821,-0.888581,-4.2356
119,-797,0.0335693,3.81616,0.107439,0.105678,-0.058361,0.164926,0.0481907,-0.777857,0.0979229,0.0441859,1343,1821,0.0335414,-3.81615
126,-797,0.831177,3.29236,0.111698,0.108813,-0.0628081,0.17308,0.0474309,-0.773915,0.103273,0.0445739,1350,1821,0.831169,-3.29241
133,-797,1.71252,2.94653,0.108322,0.103355,-0.0702472,0.17613,0.0355476,-0.767728,0.107547,0.0432531,1357,1821,1.71256,-2.94656
140,-797,2.4342,2.74951,0.105299,0.102266,-0.0656401,0.16944,0.0381253,-0.773849,0.10264,0.0452934,1364,1821,2.43425,-2.74955
147,-797,2.93982,2.91248,0,0,0,0,0,0,0,-1,1371,1821,2.93982,-2.91244
154,-797,3.35193,2.95093,0,0,0,0,0,0,0,-1,1378,1821,3.35199,-2.95088
161,-797,4.07397,2.32874,0,0,0,0,0,0,0,-1,1385,1821,4.07394,-2.32879
168,-797,0,0,0,0,0,0,0,0,0,-1,1392,1821,0,0
175,-797,0,0,0,0,0,0,0,0,0,-1,1399,1821,0,0
182,-797,0,0,0,0,0,0,0,0,0,-1,1406,1821,0,0
189,-797,0,0,0,0,0,0,0,0,0,-1,1413,1821,0,0
196,-797,0,0,0,0,0,0,0,0,0,-1,1420,1821,0,0
203,-797,0,0,0,0,0,0,0,0,0,-1,1427,1821,0,0
210,-797,0,0,0,0,0,0,0,0,0,-1,1434,1821,0,0
217,-797,0,0,0,0,0,0,0,0,0,-1,1441,1821,0,0
224,-797,0,0,0,0,0,0,0,0,0,-1,1448,1821,0,0
231,-797,0,0,0,0,0,0,0,0,0,-1,1455,1821,0,0
238,-797,0,0,0,0,0,0,0,0,0,-1,1462,1821,0,0
245,-797,0,0,0,0,0,0,0,0,0,-1,1469,1821,0,0
252,-797,0,0,0,0,0,0,0,0,0,-1,1476,1821,0,0
259,-797,0,0,0,0,0,0,0,0,0,-1,1483,1821,0,0
266,-797,0,0,0,0,0,0,0,0,0,-1,1490,1821,0,0
273,-797,0,0,0,0,0,0,0,0,0,-1,1497,1821,0,0
280,-797,0,0,0,0,0,0,0,0,0,-1,1504,1821,0,0
287,-797,0,0,0,0,0,0,0,0,0,-1,1511,1821,0,0
294,-797,0,0,0,0,0,0,0,0,0,-1,1518,1821,0,0
301,-797,0,0,0,0,0,0,0,0,0,-1,1525,1821,0,0
308,-797,0,0,0,0,0,0,0,0,0,-1,1532,1821,0,0
315,-797,0,0,0,0,0,0,0,0,0,-1,1539,1821,0,0
322,-797,0,0,0,0,0,0,0,0,0,-1,1546,1821,0,0
329,-797,0,0,0,0,0,0,0,0,0,-1,1553,1821,0,0
336,-797,0,0,0,0,0,0,0,0,0,-1,1560,1821,0,0
343,-797,0,0,0,0,0,0,0,0,0,-1,1567,1821,0,0
350,-797,0,0,0,0,0,0,0,0,0,-1,1574,1821,0,0
357,-797,0,0,0,0,0,0,0,0,0,-1,1581,1821,0,0
364,-797,0,0,0,0,0,0,0,0,0,-1,1588,1821,0,0
371,-797,0,0,0,0,0,0,0,0,0,-1,1595,1821,0,0
378,-797,0,0,0,0,0,0,0,0,0,-1,1602,1821,0,0
385,-797,0,0,0,0,0,0,0,0,0,-1,1609,1821,0,0
392,-797,0,0,0,0,0,0,0,0,0,-1,1616,1821,0,0
399,-797,0,0,0,0,0,0,0,0,0,-1,1623,1821,0,0
406,-797,0,0,0,0,0,0,0,0,0,-1,1630,1821,0,0
413,-797,0,0,0,0,0,0,0,0,0,-1,1637,1821,0,0
420,-797,0,0,0,0,0,0,0,0,0,-1,1644,1821,0,0
427,-797,0,0,0,0,0,0,0,0,0,-1,1651,1821,0,0
434,-797,0,0,0,0,0,0,0,0,0,-1,1658,1821,0,0
441,-797,0,0,0,0,0,0,0,0,0,-1,1665,1821,0,0
448,-797,0,0,0,0,0,0,0,0,0,-1,1672,1821,0,0
455,-797,0,0,0,0,0,0,0,0,0,-1,1679,1821,0,0
462,-797,0,0,0,0,0,0,0,0,0,-1,1686,1821,0,0
469,-797,0,0,0,0,0,0,0,0,0,-1,1693,1821,0,0
476,-797,0,0,0,0,0,0,0,0,0,-1,1700,1821,0,0
483,-797,0,0,0,0,0,0,0,0,0,-1,1707,1821,0,0
490,-797,0,0,0,0,0,0,0,0,0,-1,1714,1821,0,0
497,-797,0,0,0,0,0,0,0,0,0,-1,1721,1821,0,0
504,-797,0,0,0,0,0,0,0,0,0,-1,1728,1821,0,0
511,-797,0,0,0,0,0,0,0,0,0,-1,1735,1821,0,0
518,-797,0,0,0,0,0,0,0,0,0,-1,1742,1821,0,0
525,-797,0,0,0,0,0,0,0,0,0,-1,1749,1821,0,0
532,-797,0,0,0,0,0,0,0,0,0,-1,1756,1821,0,0
539,-797,0,0,0,0,0,0,0,0,0,-1,1763,1821,0,0
546,-797,0,0,0,0,0,0,0,0,0,-1,1770,1821,0,0
553,-797,0,0,0,0,0,0,0,0,0,-1,1777,1821,0,0
560,-797,0,0,0,0,0,0,0,0,0,-1,1784,1821,0,0
567,-797,0,0,0,0,0,0,0,0,0,-1,1791,1821,0,0
574,-797,0,0,0,0,0,0,0,0,0,-1,1798,1821,0,0
581,-797,0,0,0,0,0,0,0,0,0,-1,1805,1821,0,0
588,-797,0,0,0,0,0,0,0,0,0,-1,1812,1821,0,0
595,-797,0,0,0,0,0,0,0,0,0,-1,1819,1821,0,0
602,-797,0,0,0,0,0,0,0,0,0,-1,1826,1821,0,0
609,-797,0,0,0,0,0,0,0,0,0,-1,1833,1821,0,0
616,-797,0,0,0,0,0,0,0,0,0,-1,1840,1821,0,0
623,-797,0,0,0,0,0,0,0,0,0,-1,1847,1821,0,0
630,-797,0,0,0,0,0,0,0,0,0,-1,1854,1821,0,0
637,-797,0,0,0,0,0,0,0,0,0,-1,1861,1821,0,0
644,-797,0,0,0,0,0,0,0,0,0,-1,1868,1821,0,0
651,-797,0,0,0,0,0,0,0,0,0,-1,1875,1821,0,0
658,-797,0,0,0,0,0,0,0,0,0,-1,1882,1821,0,0
665,-797,0,0,0,0,0,0,0,0,0,-1,1889,1821,0,0
672,-797,0,0,0,0,0,0,0,0,0,-1,1896,1821,0,0
679,-797,0,0,0,0,0,0,0,0,0,-1,1903,1821,0,0
686,-797,0,0,0,0,0,0,0,0,0,-1,1910,1821,0,0
693,-797,0,0,0,0,0,0,0,0,0,-1,1917,1821,0,0
700,-797,0,0,0,0,0,0,0,0,0,-1,1924,1821,0,0
707,-797,0,0,0,0,0,0,0,0,0,-1,1931,1821,0,0
714,-797,0,0,0,0,0,0,0,0,0,-1,1938,1821,0,0
721,-797,0,0,0,0,0,0,0,0,0,-1,1945,1821,0,0
728,-797,0,0,0,0,0,0,0,0,0,-1,1952,1821,0,0
735,-797,0,0,0,0,0,0,0,0,0,-1,1959,1821,0,0
742,-797,0,0,0,0,0,0,0,0,0,-1,1966,1821,0,0
749,-797,0,0,0,0,0,0,0,0,0,-1,1973,1821,0,0
756,-797,0,0,0,0,0,0,0,0,0,-1,1980,1821,0,0
763,-797,0,0,0,0,0,0,0,0,0,-1,1987,1821,0,0
770,-797,0,0,0,0,0,0,0,0,0,-1,1994,1821,0,0
777,-797,0,0,0,0,0,0,0,0,0,-1,2001,1821,0,0
784,-797,0,0,0,0,0,0,0,0,0,-1,2008,1821,0,0
791,-797,0,0,0,0,0,0,0,0,0,-1,2015,1821,0,0
798,-797,0,0,0,0,0,0,0,0,0,-1,2022,1821,0,0
805,-797,0,0,0,0,0,0,0,0,0,-1,2029,1821,0,0
812,-797,0,0,0,0,0,0,0,0,0,-1,2036,1821,0,0
-700,-804,0,0,0,0,0,0,0,0,0,-1,524,1828,0,0
-693,-804,0,0,0,0,0,0,0,0,0,-1,531,1828,0,0
-686,-804,0,0,0,0,0,0,0,0,0,-1,538,1828,0,0
-679,-804,0,0,0,0,0,0,0,0,0,-1,545,1828,0,0
-672,-804,0,0,0,0,0,0,0,0,0,-1,552,1828,0,0
-665,-804,0,0,0,0,0,0,0,0,0,-1,559,1828,0,0
-658,-804,0,0,0,0,0,0,0,0,0,-1,566,1828,0,0
-651,-804,0,0,0,0,0,0,0,0,0,-1,573,1828,0,0
-644,-804,0,0,0,0,0,0,0,0,0,-1,580,1828,0,0
-637,-804,0,0,0,0,0,0,0,0,0,-1,587,1828,0,0
-630,-804,0,0,0,0,0,0,0,0,0,-1,594,1828,0,0
-623,-804,0,0,0,0,0,0,0,0,0,-1,601,1828,0,0
-616,-804,0,0,0,0,0,0,0,0,0,-1,608,1828,0,0
-609,-804,0,0,0,0,0,0,0,0,0,-1,615,1828,0,0
-602,-804,0,0,0,0,0,0,0,0,0,-1,622,1828,0,0
-595,-804,0,0,0,0,0,0,0,0,0,-1,629,1828,0,0
-588,-804,0,0,0,0,0,0,0,0,0,-1,636,1828,0,0
-581,-804,0,0,0,0,0,0,0,0,0,-1,643,1828,0,0
-574,-804,0,0,0,0,0,0,0,0,0,-1,650,1828,0,0
-567,-804,0,0,0,0,0,0,0,0,0,-1,657,1828,0,0
-560,-804,0,0,0,0,0,0,0,0,0,-1,664,1828,0,0
-553,-804,0,0,0,0,0,0,0,0,0,-1,671,1828,0,0
-546,-804,0,0,0,0,0,0,0,0,0,-1,678,1828,0,0
-539,-804,0,0,0,0,0,0,0,0,0,-1,685,1828,0,0
-532,-804,0,0,0,0,0,0,0,0,0,-1,692,1828,0,0
-525,-804,0,0,0,0,0,0,0,0,0,-1,699,1828,0,0
-518,-804,0,0,0,0,0,0,0,0,0,-1,706,1828,0,0
-511,-804,0,0,0,0,0,0,0,0,0,-1,713,1828,0,0
-504,-804,0,0,0,0,0,0,0,0,0,-1,720,1828,0,0
-497,-804,0,0,0,0,0,0,0,0,0,-1,727,1828,0,0
-490,-804,0,0,0,0,0,0,0,0,0,-1,734,1828,0,0
-483,-804,0,0,0,0,0,0,0,0,0,-1,741,1828,0,0
-476,-804,0,0,0,0,0,0,0,0,0,-1,748,1828,0,0
-469,-804,0,0,0,0,0,0,0,0,0,-1,755,1828,0,0
-462,-804,0,0,0,0,0,0,0,0,0,-1,762,1828,0,0
-455,-804,0,0,0,0,0,0,0,0,0,-1,769,1828,0,0
-448,-804,0,0,0,0,0,0,0,0,0,-1,776,1828,0,0
-441,-804,0,0,0,0,0,0,0,0,0,-1,783,1828,0,0
-434,-804,0,0,0,0,0,0,0,0,0,-1,790,1828,0,0
-427,-804,0,0,0,0,0,0,0,0,0,-1,797,1828,0,0
-420,-804,0,0,0,0,0,0,0,0,0,-1,804,1828,0,0
-413,-804,0,0,0,0,0,0,0,0,0,-1,811,1828,0,0
-406,-804,0,0,0,0,0,0,0,0,0,-1,818,1828,0,0
-399,-804,0,0,0,0,0,0,0,0,0,-1,825,1828,0,0
-392,-804,0,0,0,0,0,0,0,0,0,-1,832,1828,0,0
-385,-804,0,0,0,0,0,0,0,0,0,-1,839,1828,0,0
-378,-804,0,0,0,0,0,0,0,0,0,-1,846,1828,0,0
-371,-804,0,0,0,0,0,0,0,0,0,-1,853,1828,0,0
-364,-804,0,0,0,0,0,0,0,0,0,-1,860,1828,0,0
-357,-804,0,0,0,0,0,0,0,0,0,-1,867,1828,0,0
-350,-804,0,0,0,0,0,0,0,0,0,-1,874,1828,0,0
-343,-804,0,0,0,0,0,0,0,0,0,-1,881,1828,0,0
-336,-804,0,0,0,0,0,0,0,0,0,-1,888,1828,0,0
-329,-804,0,0,0,0,0,0,0,0,0,-1,895,1828,0,0
-322,-804,0,0,0,0,0,0,0,0,0,-1,902,1828,0,0
-315,-804,0,0,0,0,0,0,0,0,0,-1,909,1828,0,0
-308,-804,0,0,0,0,0,0,0,0,0,-1,916,1828,0,0
-301,-804,0,0,0,0,0,0,0,0,0,-1,923,1828,0,0
-294,-804,0,0,0,0,0,0,0,0,0,-1,930,1828,0,0
-287,-804,0,0,0,0,0,0,0,0,0,-1,937,1828,0,0
-280,-804,0,0,0,0,0,0,0,0,0,-1,944,1828,0,0
-273,-804,0,0,0,0,0,0,0,0,0,-1,951,1828,0,0
-266,-804,0,0,0,0,0,0,0,0,0,-1,958,1828,0,0
-259,-804,0,0,0,0,0,0,0,0,0,-1,965,1828,0,0
-252,-804,0,0,0,0,0,0,0,0,0,-1,972,1828,0,0
-245,-804,0,0,0,0,0,0,0,0,0,-1,979,1828,0,0
-238,-804,0,0,0,0,0,0,0,0,0,-1,986,1828,0,0
-231,-804,0,0,0,0,0,0,0,0,0,-1,993,1828,0,0
-224,-804,0,0,0,0,0,0,0,0,0,-1,1000,1828,0,0
-217,-804,0,0,0,0,0,0,0,0,0,-1,1007,1828,0,0
-210,-804,0,0,0,0,0,0,0,0,0,-1,1014,1828,0,0
-203,-804,0,0,0,0,0,0,0,0,0,-1,1021,1828,0,0
-196,-804,0,0,0,0,0,0,0,0,0,-1,1028,1828,0,0
-189,-804,0,0,0,0,0,0,0,0,0,-1,1035,1828,0,0
-182,-804,0,0,0,0,0,0,0,0,0,-1,1042,1828,0,0
-175,-804,0,0,0,0,0,0,0,0,0,-1,1049,1828,0,0
-168,-804,0,0,0,0,0,0,0,0,0,-1,1056,1828,0,0
-161,-804,0,0,0,0,0,0,0,0,0,-1,1063,1828,0,0
-154,-804,0,0,0,0,0,0,0,0,0,-1,1070,1828,0,0
-147,-804,0,0,0,0,0,0,0,0,0,-1,1077,1828,0,0
-140,-804,0,0,0,0,0,0,0,0,0,-1,1084,1828,0,0
-133,-804,0,0,0,0,0,0,0,0,0,-1,1091,1828,0,0
-126,-804,0,0,0,0,0,0,0,0,0,-1,1098,1828,0,0
-119,-804,0,0,0,0,0,0,0,0,0,-1,1105,1828,0,0
-112,-804,0,0,0,0,0,0,0,0,0,-1,1112,1828,0,0
-105,-804,0,0,0,0,0,0,0,0,0,-1,1119,1828,0,0
-98,-804,0,0,0,0,0,0,0,0,0,-1,1126,1828,0,0
-91,-804,0,0,0,0,0,0,0,0,0,-1,1133,1828,0,0
-84,-804,0,0,0,0,0,0,0,0,0,-1,1140,1828,0,0
-77,-804,0,0,0,0,0,0,0,0,0,-1,1147,1828,0,0
-70,-804,0,0,0,0,0,0,0,0,0,-1,1154,1828,0,0
-63,-804,0,0,0,0,0,0,0,0,0,-1,1161,1828,0,0
-56,-804,0,0,0,0,0,0,0,0,0,-1,1168,1828,0,0
-49,-804,0,0,0,0,0,0,0,0,0,-1,1175,1828,0,0
-42,-804,0,0,0,0,0,0,0,0,0,-1,1182,1828,0,0
-35,-804,0,0,0,0,0,0,0,0,0,-1,1189,1828,0,0
-28,-804,0,0,0,0,0,0,0,0,0,-1,1196,1828,0,0
-21,-804,0,0,0,0,0,0,0,0,0,-1,1203,1828,0,0
-14,-804,0,0,0,0,0,0,0,0,0,-1,1210,1828,0,0
-7,-804,0,0,0,0,0,0,0,0,0,-1,1217,1828,0,0
0,-804,0,0,0,0,0,0,0,0,0,-1,1224,1828,0,0
7,-804,0,0,0,0,0,0,0,0,0,-1,1231,1828,0,0
14,-804,0,0,0,0,0,0,0,0,0,-1,1238,1828,0,0
21,-804,0,0,0,0,0,0,0,0,0,-1,1245,1828,0,0
28,-804,0,0,0,0,0,0,0,0,0,-1,1252,1828,0,0
35,-804,3.3634,3.85571,0,0,0,0,0,0,0,-1,1259,1828,3.36335,-3.85568
42,-804,3.22974,3.48425,0,0,0,0,0,0,0,-1,1266,1828,3.22974,-3.48429
49,-804,2.87158,3.22522,0,0,0,0,0,0,0,-1,1273,1828,2.87156,-3.22527
56,-804,1.2926,6.26013,0.0831007,0.045679,0.0257949,0.0962563,0.0325234,0.471623,0.056539,0.0419356,1280,1828,1.29262,-6.26016
63,-804,1.71558,5.151,0.0838355,0.0444103,0.0241593,0.0953039,0.0329419,0.443205,0.0558908,0.0451583,1287,1828,1.71554,-5.15097
70,-804,1.8208,4.229,0,0,0,0,0,0,0,-1,1294,1828,1.82078,-4.22902
77,-804,2.11182,3.3866,0.0923648,0.0480135,0.00943422,0.0942881,0.0460901,0.201118,0.0544418,0.0472285,1301,1828,2.11186,-3.38661
84,-804,5.39795,3.98694,0.0983266,0.0595261,-0.00396978,0.0987286,0.0591241,-0.100919,0.0573711,0.0429652,1308,1828,5.39801,-3.9869
91,-804,0,0,0,0,0,0,0,0,0,-1,1315,1828,0,0
98,-804,0,0,0,0,0,0,0,0,0,-1,1322,1828,0,0
105,-804,0,0,0,0,0,0,0,0,0,-1,1329,1828,0,0
112,-804,0,0,0,0,0,0,0,0,0,-1,1336,1828,0,0
119,-804,0,0,0,0,0,0,0,0,0,-1,1343,1828,0,0
126,-804,0,0,0,0,0,0,0,0,0,-1,1350,1828,0,0
133,-804,0,0,0,0,0,0,0,0,0,-1,1357,1828,0,0
140,-804,0,0,0,0,0,0,0,0,0,-1,1364,1828,0,0
147,-804,0,0,0,0,0,0,0,0,0,-1,1371,1828,0,0
154,-804,0,0,0,0,0,0,0,0,0,-1,1378,1828,0,0
161,-804,0,0,0,0,0,0,0,0,0,-1,1385,1828,0,0
168,-804,0,0,0,0,0,0,0,0,0,-1,1392,1828,0,0
175,-804,0,0,0,0,0,0,0,0,0,-1,1399,1828,0,0
182,-804,0,0,0,0,0,0,0,0,0,-1,1406,1828,0,0
189,-804,0,0,0,0,0,0,0,0,0,-1,1413,1828,0,0
196,-804,0,0,0,0,0,0,0,0,0,-1,1420,1828,0,0
203,-804,0,0,0,0,0,0,0,0,0,-1,1427,1828,0,0
210,-804,0,0,0,0,0,0,0,0,0,-1,1434,1828,0,0
217,-804,0,0,0,0,0,0,0,0,0,-1,1441,1828,0,0
224,-804,0,0,0,0,0,0,0,0,0,-1,1448,1828,0,0
231,-804,0,0,0,0,0,0,0,0,0,-1,1455,1828,0,0
238,-804,0,0,0,0,0,0,0,0,0,-1,1462,1828,0,0
245,-804,0,0,0,0,0,0,0,0,0,-1,1469,1828,0,0
252,-804,0,0,0,0,0,0,0,0,0,-1,1476,1828,0,0
259,-804,0,0,0,0,0,0,0,0,0,-1,1483,1828,0,0
266,-804,0,0,0,0,0,0,0,0,0,-1,1490,1828,0,0
273,-804,0,0,0,0,0,0,0,0,0,-1,1497,1828,0,0
280,-804,0,0,0,0,0,0,0,0,0,-1,1504,1828,0,0
287,-804,0,0,0,0,0,0,0,0,0,-1,1511,1828,0,0
294,-804,0,0,0,0,0,0,0,0,0,-1,1518,1828,0,0
301,-804,0,0,0,0,0,0,0,0,0,-1,1525,1828,0,0
308,-804,0,0,0,0,0,0,0,0,0,-1,1532,1828,0,0
315,-804,0,0,0,0,0,0,0,0,0,-1,1539,1828,0,0
322,-804,0,0,0,0,0,0,0,0,0,-1,1546,1828,0,0
329,-804,0,0,0,0,0,0,0,0,0,-1,1553,1828,0,0
336,-804,0,0,0,0,0,0,0,0,0,-1,1560,1828,0,0
343,-804,0,0,0,0,0,0,0,0,0,-1,1567,1828,0,0
350,-804,0,0,0,0,0,0,0,0,0,-1,1574,1828,0,0
357,-804,0,0,0,0,0,0,0,0,0,-1,1581,1828,0,0
364,-804,0,0,0,0,0,0,0,0,0,-1,1588,1828,0,0
371,-804,0,0,0,0,0,0,0,0,0,-1,1595,1828,0,0
378,-804,0,0,0,0,0,0,0,0,0,-1,1602,1828,0,0
385,-804,0,0,0,0,0,0,0,0,0,-1,1609,1828,0,0
392,-804,0,0,0,0,0,0,0,0,0,-1,1616,1828,0,0
399,-804,0,0,0,0,0,0,0,0,0,-1,1623,1828,0,0
406,-804,0,0,0,0,0,0,0,0,0,-1,1630,1828,0,0
413,-804,0,0,0,0,0,0,0,0,0,-1,1637,1828,0,0
420,-804,0,0,0,0,0,0,0,0,0,-1,1644,1828,0,0
427,-804,0,0,0,0,0,0,0,0,0,-1,1651,1828,0,0
434,-804,0,0,0,0,0,0,0,0,0,-1,1658,1828,0,0
441,-804,0,0,0,0,0,0,0,0,0,-1,1665,1828,0,0
448,-804,0,0,0,0,0,0,0,0,0,-1,1672,1828,0,0
455,-804,0,0,0,0,0,0,0,0,0,-1,1679,1828,0,0
462,-804,0,0,0,0,0,0,0,0,0,-1,1686,1828,0,0
469,-804,0,0,0,0,0,0,0,0,0,-1,1693,1828,0,0
476,-804,0,0,0,0,0,0,0,0,0,-1,1700,1828,0,0
483,-804,0,0,0,0,0,0,0,0,0,-1,1707,1828,0,0
490,-804,0,0,0,0,0,0,0,0,0,-1,1714,1828,0,0
497,-804,0,0,0,0,0,0,0,0,0,-1,1721,1828,0,0
504,-804,0,0,0,0,0,0,0,0,0,-1,1728,1828,0,0
511,-804,0,0,0,0,0,0,0,0,0,-1,1735,1828,0,0
518,-804,0,0,0,0,0,0,0,0,0,-1,1742,1828,0,0
525,-804,0,0,0,0,0,0,0,0,0,-1,1749,1828,0,0
532,-804,0,0,0,0,0,0,0,0,0,-1,1756,1828,0,0
539,-804,0,0,0,0,0,0,0,0,0,-1,1763,1828,0,0
546,-804,0,0,0,0,0,0,0,0,0,-1,1770,1828,0,0
553,-804,0,0,0,0,0,0,0,0,0,-1,1777,1828,0,0
560,-804,0,0,0,0,0,0,0,0,0,-1,1784,1828,0,0
567,-804,0,0,0,0,0,0,0,0,0,-1,1791,1828,0,0
574,-804,0,0,0,0,0,0,0,0,0,-1,1798,1828,0,0
581,-804,0,0,0,0,0,0,0,0,0,-1,1805,1828,0,0
588,-804,0,0,0,0,0,0,0,0,0,-1,1812,1828,0,0
595,-804,0,0,0,0,0,0,0,0,0,-1,1819,1828,0,0
602,-804,0,0,0,0,0,0,0,0,0,-1,1826,1828,0,0
609,-804,0,0,0,0,0,0,0,0,0,-1,1833,1828,0,0
616,-804,0,0,0,0,0,0,0,0,0,-1,1840,1828,0,0
623,-804,0,0,0,0,0,0,0,0,0,-1,1847,1828,0,0
630,-804,0,0,0,0,0,0,0,0,0,-1,1854,1828,0,0
637,-804,0,0,0,0,0,0,0,0,0,-1,1861,1828,0,0
644,-804,0,0,0,0,0,0,0,0,0,-1,1868,1828,0,0
651,-804,0,0,0,0,0,0,0,0,0,-1,1875,1828,0,0
658,-804,0,0,0,0,0,0,0,0,0,-1,1882,1828,0,0
665,-804,0,0,0,0,0,0,0,0,0,-1,1889,1828,0,0
672,-804,0,0,0,0,0,0,0,0,0,-1,1896,1828,0,0
679,-804,0,0,0,0,0,0,0,0,0,-1,1903,1828,0,0
686,-804,0,0,0,0,0,0,0,0,0,-1,1910,1828,0,0
693,-804,0,0,0,0,0,0,0,0,0,-1,1917,1828,0,0
700,-804,0,0,0,0,0,0,0,0,0,-1,1924,1828,0,0
707,-804,0,0,0,0,0,0,0,0,0,-1,1931,1828,0,0
714,-804,0,0,0,0,0,0,0,0,0,-1,1938,1828,0,0
721,-804,0,0,0,0,0,0,0,0,0,-1,1945,1828,0,0
728,-804,0,0,0,0,0,0,0,0,0,-1,1952,1828,0,0
735,-804,0,0,0,0,0,0,0,0,0,-1,1959,1828,0,0
742,-804,0,0,0,0,0,0,0,0,0,-1,1966,1828,0,0
749,-804,0,0,0,0,0,0,0,0,0,-1,1973,1828,0,0
756,-804,0,0,0,0,0,0,0,0,0,-1,1980,1828,0,0
763,-804,0,0,0,0,0,0,0,0,0,-1,1987,1828,0,0
770,-804,0,0,0,0,0,0,0,0,0,-1,1994,1828,0,0
777,-804,0,0,0,0,0,0,0,0,0,-1,2001,1828,0,0
784,-804,0,0,0,0,0,0,0,0,0,-1,2008,1828,0,0
791,-804,0,0,0,0,0,0,0,0,0,-1,2015,1828,0,0
798,-804,0,0,0,0,0,0,0,0,0,-1,2022,1828,0,0
805,-804,0,0,0,0,0,0,0,0,0,-1,2029,1828,0,0
812,-804,0,0,0,0,0,0,0,0,0,-1,2036,1828,0,0

